 "x_c",  "y_c",  "u_c",  "v_c",  "exx",  "eyy",  "exy",  "e1",  "e2",  "gamma",  "e_vonmises",  "sigma",  "x",  "y",  "u",  "v"
-700,715,0,0,0,0,0,0,0,0,0,-1,524,309,0,0
-693,715,0,0,0,0,0,0,0,0,0,-1,531,309,0,0
-686,715,0,0,0,0,0,0,0,0,0,-1,538,309,0,0
-679,715,0,0,0,0,0,0,0,0,0,-1,545,309,0,0
-672,715,0,0,0,0,0,0,0,0,0,-1,552,309,0,0
-665,715,0,0,0,0,0,0,0,0,0,-1,559,309,0,0
-658,715,0,0,0,0,0,0,0,0,0,-1,566,309,0,0
-651,715,0,0,0,0,0,0,0,0,0,-1,573,309,0,0
-644,715,0,0,0,0,0,0,0,0,0,-1,580,309,0,0
-637,715,0,0,0,0,0,0,0,0,0,-1,587,309,0,0
-630,715,0,0,0,0,0,0,0,0,0,-1,594,309,0,0
-623,715,0,0,0,0,0,0,0,0,0,-1,601,309,0,0
-616,715,0,0,0,0,0,0,0,0,0,-1,608,309,0,0
-609,715,0,0,0,0,0,0,0,0,0,-1,615,309,0,0
-602,715,0,0,0,0,0,0,0,0,0,-1,622,309,0,0
-595,715,0,0,0,0,0,0,0,0,0,-1,629,309,0,0
-588,715,0,0,0,0,0,0,0,0,0,-1,636,309,0,0
-581,715,0,0,0,0,0,0,0,0,0,-1,643,309,0,0
-574,715,0,0,0,0,0,0,0,0,0,-1,650,309,0,0
-567,715,0,0,0,0,0,0,0,0,0,-1,657,309,0,0
-560,715,0,0,0,0,0,0,0,0,0,-1,664,309,0,0
-553,715,0,0,0,0,0,0,0,0,0,-1,671,309,0,0
-546,715,0,0,0,0,0,0,0,0,0,-1,678,309,0,0
-539,715,0,0,0,0,0,0,0,0,0,-1,685,309,0,0
-532,715,0,0,0,0,0,0,0,0,0,-1,692,309,0,0
-525,715,0,0,0,0,0,0,0,0,0,-1,699,309,0,0
-518,715,0,0,0,0,0,0,0,0,0,-1,706,309,0,0
-511,715,0,0,0,0,0,0,0,0,0,-1,713,309,0,0
-504,715,0,0,0,0,0,0,0,0,0,-1,720,309,0,0
-497,715,0,0,0,0,0,0,0,0,0,-1,727,309,0,0
-490,715,0,0,0,0,0,0,0,0,0,-1,734,309,0,0
-483,715,0,0,0,0,0,0,0,0,0,-1,741,309,0,0
-476,715,0,0,0,0,0,0,0,0,0,-1,748,309,0,0
-469,715,0,0,0,0,0,0,0,0,0,-1,755,309,0,0
-462,715,0,0,0,0,0,0,0,0,0,-1,762,309,0,0
-455,715,0,0,0,0,0,0,0,0,0,-1,769,309,0,0
-448,715,0,0,0,0,0,0,0,0,0,-1,776,309,0,0
-441,715,0,0,0,0,0,0,0,0,0,-1,783,309,0,0
-434,715,0,0,0,0,0,0,0,0,0,-1,790,309,0,0
-427,715,0,0,0,0,0,0,0,0,0,-1,797,309,0,0
-420,715,0,0,0,0,0,0,0,0,0,-1,804,309,0,0
-413,715,0,0,0,0,0,0,0,0,0,-1,811,309,0,0
-406,715,0,0,0,0,0,0,0,0,0,-1,818,309,0,0
-399,715,0,0,0,0,0,0,0,0,0,-1,825,309,0,0
-392,715,0,0,0,0,0,0,0,0,0,-1,832,309,0,0
-385,715,0,0,0,0,0,0,0,0,0,-1,839,309,0,0
-378,715,0,0,0,0,0,0,0,0,0,-1,846,309,0,0
-371,715,0,0,0,0,0,0,0,0,0,-1,853,309,0,0
-364,715,0,0,0,0,0,0,0,0,0,-1,860,309,0,0
-357,715,0,0,0,0,0,0,0,0,0,-1,867,309,0,0
-350,715,0,0,0,0,0,0,0,0,0,-1,874,309,0,0
-343,715,0,0,0,0,0,0,0,0,0,-1,881,309,0,0
-336,715,0,0,0,0,0,0,0,0,0,-1,888,309,0,0
-329,715,0,0,0,0,0,0,0,0,0,-1,895,309,0,0
-322,715,0,0,0,0,0,0,0,0,0,-1,902,309,0,0
-315,715,0,0,0,0,0,0,0,0,0,-1,909,309,0,0
-308,715,0,0,0,0,0,0,0,0,0,-1,916,309,0,0
-301,715,0,0,0,0,0,0,0,0,0,-1,923,309,0,0
-294,715,0,0,0,0,0,0,0,0,0,-1,930,309,0,0
-287,715,0,0,0,0,0,0,0,0,0,-1,937,309,0,0
-280,715,0,0,0,0,0,0,0,0,0,-1,944,309,0,0
-273,715,0,0,0,0,0,0,0,0,0,-1,951,309,0,0
-266,715,0,0,0,0,0,0,0,0,0,-1,958,309,0,0
-259,715,0,0,0,0,0,0,0,0,0,-1,965,309,0,0
-252,715,0,0,0,0,0,0,0,0,0,-1,972,309,0,0
-245,715,0,0,0,0,0,0,0,0,0,-1,979,309,0,0
-238,715,0,0,0,0,0,0,0,0,0,-1,986,309,0,0
-231,715,0,0,0,0,0,0,0,0,0,-1,993,309,0,0
-224,715,0,0,0,0,0,0,0,0,0,-1,1000,309,0,0
-217,715,0,0,0,0,0,0,0,0,0,-1,1007,309,0,0
-210,715,0,0,0,0,0,0,0,0,0,-1,1014,309,0,0
-203,715,0,0,0,0,0,0,0,0,0,-1,1021,309,0,0
-196,715,0,0,0,0,0,0,0,0,0,-1,1028,309,0,0
-189,715,0,0,0,0,0,0,0,0,0,-1,1035,309,0,0
-182,715,0,0,0,0,0,0,0,0,0,-1,1042,309,0,0
-175,715,0,0,0,0,0,0,0,0,0,-1,1049,309,0,0
-168,715,0,0,0,0,0,0,0,0,0,-1,1056,309,0,0
-161,715,0,0,0,0,0,0,0,0,0,-1,1063,309,0,0
-154,715,0,0,0,0,0,0,0,0,0,-1,1070,309,0,0
-147,715,0,0,0,0,0,0,0,0,0,-1,1077,309,0,0
-140,715,0,0,0,0,0,0,0,0,0,-1,1084,309,0,0
-133,715,0,0,0,0,0,0,0,0,0,-1,1091,309,0,0
-126,715,0,0,0,0,0,0,0,0,0,-1,1098,309,0,0
-119,715,0,0,0,0,0,0,0,0,0,-1,1105,309,0,0
-112,715,0,0,0,0,0,0,0,0,0,-1,1112,309,0,0
-105,715,0,0,0,0,0,0,0,0,0,-1,1119,309,0,0
-98,715,0,0,0,0,0,0,0,0,0,-1,1126,309,0,0
-91,715,0,0,0,0,0,0,0,0,0,-1,1133,309,0,0
-84,715,0,0,0,0,0,0,0,0,0,-1,1140,309,0,0
-77,715,0,0,0,0,0,0,0,0,0,-1,1147,309,0,0
-70,715,0,0,0,0,0,0,0,0,0,-1,1154,309,0,0
-63,715,0,0,0,0,0,0,0,0,0,-1,1161,309,0,0
-56,715,0,0,0,0,0,0,0,0,0,-1,1168,309,0,0
-49,715,0,0,0,0,0,0,0,0,0,-1,1175,309,0,0
-42,715,0,0,0,0,0,0,0,0,0,-1,1182,309,0,0
-35,715,0,0,0,0,0,0,0,0,0,-1,1189,309,0,0
-28,715,0,0,0,0,0,0,0,0,0,-1,1196,309,0,0
-21,715,0,0,0,0,0,0,0,0,0,-1,1203,309,0,0
-14,715,0,0,0,0,0,0,0,0,0,-1,1210,309,0,0
-7,715,0,0,0,0,0,0,0,0,0,-1,1217,309,0,0
0,715,0,0,0,0,0,0,0,0,0,-1,1224,309,0,0
7,715,0,0,0,0,0,0,0,0,0,-1,1231,309,0,0
14,715,0,0,0,0,0,0,0,0,0,-1,1238,309,0,0
21,715,0,0,0,0,0,0,0,0,0,-1,1245,309,0,0
28,715,0,0,0,0,0,0,0,0,0,-1,1252,309,0,0
35,715,0,0,0,0,0,0,0,0,0,-1,1259,309,0,0
42,715,0,0,0,0,0,0,0,0,0,-1,1266,309,0,0
49,715,0,0,0,0,0,0,0,0,0,-1,1273,309,0,0
56,715,0,0,0,0,0,0,0,0,0,-1,1280,309,0,0
63,715,5.95435,-30.5588,0,0,0,0,0,0,0,-1,1287,309,5.95437,30.5588
70,715,5.95837,-30.8571,0,0,0,0,0,0,0,-1,1294,309,5.9584,30.857
77,715,0,0,0,0,0,0,0,0,0,-1,1301,309,0,0
84,715,0,0,0,0,0,0,0,0,0,-1,1308,309,0,0
91,715,0,0,0,0,0,0,0,0,0,-1,1315,309,0,0
98,715,0,0,0,0,0,0,0,0,0,-1,1322,309,0,0
105,715,0,0,0,0,0,0,0,0,0,-1,1329,309,0,0
112,715,0,0,0,0,0,0,0,0,0,-1,1336,309,0,0
119,715,0,0,0,0,0,0,0,0,0,-1,1343,309,0,0
126,715,0,0,0,0,0,0,0,0,0,-1,1350,309,0,0
133,715,0,0,0,0,0,0,0,0,0,-1,1357,309,0,0
140,715,0,0,0,0,0,0,0,0,0,-1,1364,309,0,0
147,715,0,0,0,0,0,0,0,0,0,-1,1371,309,0,0
154,715,0,0,0,0,0,0,0,0,0,-1,1378,309,0,0
161,715,0,0,0,0,0,0,0,0,0,-1,1385,309,0,0
168,715,0,0,0,0,0,0,0,0,0,-1,1392,309,0,0
175,715,0,0,0,0,0,0,0,0,0,-1,1399,309,0,0
182,715,0,0,0,0,0,0,0,0,0,-1,1406,309,0,0
189,715,0,0,0,0,0,0,0,0,0,-1,1413,309,0,0
196,715,0,0,0,0,0,0,0,0,0,-1,1420,309,0,0
203,715,0,0,0,0,0,0,0,0,0,-1,1427,309,0,0
210,715,0,0,0,0,0,0,0,0,0,-1,1434,309,0,0
217,715,0,0,0,0,0,0,0,0,0,-1,1441,309,0,0
224,715,0,0,0,0,0,0,0,0,0,-1,1448,309,0,0
231,715,0,0,0,0,0,0,0,0,0,-1,1455,309,0,0
238,715,0,0,0,0,0,0,0,0,0,-1,1462,309,0,0
245,715,0,0,0,0,0,0,0,0,0,-1,1469,309,0,0
252,715,0,0,0,0,0,0,0,0,0,-1,1476,309,0,0
259,715,0,0,0,0,0,0,0,0,0,-1,1483,309,0,0
266,715,0,0,0,0,0,0,0,0,0,-1,1490,309,0,0
273,715,0,0,0,0,0,0,0,0,0,-1,1497,309,0,0
280,715,0,0,0,0,0,0,0,0,0,-1,1504,309,0,0
287,715,0,0,0,0,0,0,0,0,0,-1,1511,309,0,0
294,715,0,0,0,0,0,0,0,0,0,-1,1518,309,0,0
301,715,0,0,0,0,0,0,0,0,0,-1,1525,309,0,0
308,715,0,0,0,0,0,0,0,0,0,-1,1532,309,0,0
315,715,0,0,0,0,0,0,0,0,0,-1,1539,309,0,0
322,715,0,0,0,0,0,0,0,0,0,-1,1546,309,0,0
329,715,0,0,0,0,0,0,0,0,0,-1,1553,309,0,0
336,715,0,0,0,0,0,0,0,0,0,-1,1560,309,0,0
343,715,0,0,0,0,0,0,0,0,0,-1,1567,309,0,0
350,715,0,0,0,0,0,0,0,0,0,-1,1574,309,0,0
357,715,0,0,0,0,0,0,0,0,0,-1,1581,309,0,0
364,715,0,0,0,0,0,0,0,0,0,-1,1588,309,0,0
371,715,0,0,0,0,0,0,0,0,0,-1,1595,309,0,0
378,715,0,0,0,0,0,0,0,0,0,-1,1602,309,0,0
385,715,0,0,0,0,0,0,0,0,0,-1,1609,309,0,0
392,715,0,0,0,0,0,0,0,0,0,-1,1616,309,0,0
399,715,0,0,0,0,0,0,0,0,0,-1,1623,309,0,0
406,715,0,0,0,0,0,0,0,0,0,-1,1630,309,0,0
413,715,0,0,0,0,0,0,0,0,0,-1,1637,309,0,0
420,715,0,0,0,0,0,0,0,0,0,-1,1644,309,0,0
427,715,0,0,0,0,0,0,0,0,0,-1,1651,309,0,0
434,715,0,0,0,0,0,0,0,0,0,-1,1658,309,0,0
441,715,0,0,0,0,0,0,0,0,0,-1,1665,309,0,0
448,715,0,0,0,0,0,0,0,0,0,-1,1672,309,0,0
455,715,0,0,0,0,0,0,0,0,0,-1,1679,309,0,0
462,715,0,0,0,0,0,0,0,0,0,-1,1686,309,0,0
469,715,0,0,0,0,0,0,0,0,0,-1,1693,309,0,0
476,715,0,0,0,0,0,0,0,0,0,-1,1700,309,0,0
483,715,0,0,0,0,0,0,0,0,0,-1,1707,309,0,0
490,715,0,0,0,0,0,0,0,0,0,-1,1714,309,0,0
497,715,0,0,0,0,0,0,0,0,0,-1,1721,309,0,0
504,715,0,0,0,0,0,0,0,0,0,-1,1728,309,0,0
511,715,0,0,0,0,0,0,0,0,0,-1,1735,309,0,0
518,715,0,0,0,0,0,0,0,0,0,-1,1742,309,0,0
525,715,0,0,0,0,0,0,0,0,0,-1,1749,309,0,0
532,715,0,0,0,0,0,0,0,0,0,-1,1756,309,0,0
539,715,0,0,0,0,0,0,0,0,0,-1,1763,309,0,0
546,715,0,0,0,0,0,0,0,0,0,-1,1770,309,0,0
553,715,0,0,0,0,0,0,0,0,0,-1,1777,309,0,0
560,715,0,0,0,0,0,0,0,0,0,-1,1784,309,0,0
567,715,0,0,0,0,0,0,0,0,0,-1,1791,309,0,0
574,715,0,0,0,0,0,0,0,0,0,-1,1798,309,0,0
581,715,0,0,0,0,0,0,0,0,0,-1,1805,309,0,0
588,715,0,0,0,0,0,0,0,0,0,-1,1812,309,0,0
595,715,0,0,0,0,0,0,0,0,0,-1,1819,309,0,0
602,715,0,0,0,0,0,0,0,0,0,-1,1826,309,0,0
609,715,0,0,0,0,0,0,0,0,0,-1,1833,309,0,0
616,715,0,0,0,0,0,0,0,0,0,-1,1840,309,0,0
623,715,0,0,0,0,0,0,0,0,0,-1,1847,309,0,0
630,715,0,0,0,0,0,0,0,0,0,-1,1854,309,0,0
637,715,0,0,0,0,0,0,0,0,0,-1,1861,309,0,0
644,715,0,0,0,0,0,0,0,0,0,-1,1868,309,0,0
651,715,0,0,0,0,0,0,0,0,0,-1,1875,309,0,0
658,715,0,0,0,0,0,0,0,0,0,-1,1882,309,0,0
665,715,0,0,0,0,0,0,0,0,0,-1,1889,309,0,0
672,715,0,0,0,0,0,0,0,0,0,-1,1896,309,0,0
679,715,0,0,0,0,0,0,0,0,0,-1,1903,309,0,0
686,715,0,0,0,0,0,0,0,0,0,-1,1910,309,0,0
693,715,0,0,0,0,0,0,0,0,0,-1,1917,309,0,0
700,715,0,0,0,0,0,0,0,0,0,-1,1924,309,0,0
707,715,0,0,0,0,0,0,0,0,0,-1,1931,309,0,0
714,715,0,0,0,0,0,0,0,0,0,-1,1938,309,0,0
721,715,0,0,0,0,0,0,0,0,0,-1,1945,309,0,0
728,715,0,0,0,0,0,0,0,0,0,-1,1952,309,0,0
735,715,0,0,0,0,0,0,0,0,0,-1,1959,309,0,0
742,715,0,0,0,0,0,0,0,0,0,-1,1966,309,0,0
749,715,0,0,0,0,0,0,0,0,0,-1,1973,309,0,0
756,715,0,0,0,0,0,0,0,0,0,-1,1980,309,0,0
763,715,0,0,0,0,0,0,0,0,0,-1,1987,309,0,0
770,715,0,0,0,0,0,0,0,0,0,-1,1994,309,0,0
777,715,0,0,0,0,0,0,0,0,0,-1,2001,309,0,0
784,715,0,0,0,0,0,0,0,0,0,-1,2008,309,0,0
791,715,0,0,0,0,0,0,0,0,0,-1,2015,309,0,0
798,715,0,0,0,0,0,0,0,0,0,-1,2022,309,0,0
805,715,0,0,0,0,0,0,0,0,0,-1,2029,309,0,0
812,715,0,0,0,0,0,0,0,0,0,-1,2036,309,0,0
-700,708,0,0,0,0,0,0,0,0,0,-1,524,316,0,0
-693,708,0,0,0,0,0,0,0,0,0,-1,531,316,0,0
-686,708,0,0,0,0,0,0,0,0,0,-1,538,316,0,0
-679,708,0,0,0,0,0,0,0,0,0,-1,545,316,0,0
-672,708,0,0,0,0,0,0,0,0,0,-1,552,316,0,0
-665,708,0,0,0,0,0,0,0,0,0,-1,559,316,0,0
-658,708,0,0,0,0,0,0,0,0,0,-1,566,316,0,0
-651,708,0,0,0,0,0,0,0,0,0,-1,573,316,0,0
-644,708,0,0,0,0,0,0,0,0,0,-1,580,316,0,0
-637,708,0,0,0,0,0,0,0,0,0,-1,587,316,0,0
-630,708,0,0,0,0,0,0,0,0,0,-1,594,316,0,0
-623,708,0,0,0,0,0,0,0,0,0,-1,601,316,0,0
-616,708,0,0,0,0,0,0,0,0,0,-1,608,316,0,0
-609,708,0,0,0,0,0,0,0,0,0,-1,615,316,0,0
-602,708,0,0,0,0,0,0,0,0,0,-1,622,316,0,0
-595,708,0,0,0,0,0,0,0,0,0,-1,629,316,0,0
-588,708,0,0,0,0,0,0,0,0,0,-1,636,316,0,0
-581,708,0,0,0,0,0,0,0,0,0,-1,643,316,0,0
-574,708,0,0,0,0,0,0,0,0,0,-1,650,316,0,0
-567,708,0,0,0,0,0,0,0,0,0,-1,657,316,0,0
-560,708,0,0,0,0,0,0,0,0,0,-1,664,316,0,0
-553,708,0,0,0,0,0,0,0,0,0,-1,671,316,0,0
-546,708,0,0,0,0,0,0,0,0,0,-1,678,316,0,0
-539,708,0,0,0,0,0,0,0,0,0,-1,685,316,0,0
-532,708,0,0,0,0,0,0,0,0,0,-1,692,316,0,0
-525,708,0,0,0,0,0,0,0,0,0,-1,699,316,0,0
-518,708,0,0,0,0,0,0,0,0,0,-1,706,316,0,0
-511,708,0,0,0,0,0,0,0,0,0,-1,713,316,0,0
-504,708,0,0,0,0,0,0,0,0,0,-1,720,316,0,0
-497,708,0,0,0,0,0,0,0,0,0,-1,727,316,0,0
-490,708,0,0,0,0,0,0,0,0,0,-1,734,316,0,0
-483,708,0,0,0,0,0,0,0,0,0,-1,741,316,0,0
-476,708,0,0,0,0,0,0,0,0,0,-1,748,316,0,0
-469,708,0,0,0,0,0,0,0,0,0,-1,755,316,0,0
-462,708,0,0,0,0,0,0,0,0,0,-1,762,316,0,0
-455,708,0,0,0,0,0,0,0,0,0,-1,769,316,0,0
-448,708,0,0,0,0,0,0,0,0,0,-1,776,316,0,0
-441,708,0,0,0,0,0,0,0,0,0,-1,783,316,0,0
-434,708,0,0,0,0,0,0,0,0,0,-1,790,316,0,0
-427,708,0,0,0,0,0,0,0,0,0,-1,797,316,0,0
-420,708,0,0,0,0,0,0,0,0,0,-1,804,316,0,0
-413,708,0,0,0,0,0,0,0,0,0,-1,811,316,0,0
-406,708,0,0,0,0,0,0,0,0,0,-1,818,316,0,0
-399,708,0,0,0,0,0,0,0,0,0,-1,825,316,0,0
-392,708,0,0,0,0,0,0,0,0,0,-1,832,316,0,0
-385,708,0,0,0,0,0,0,0,0,0,-1,839,316,0,0
-378,708,0,0,0,0,0,0,0,0,0,-1,846,316,0,0
-371,708,0,0,0,0,0,0,0,0,0,-1,853,316,0,0
-364,708,0,0,0,0,0,0,0,0,0,-1,860,316,0,0
-357,708,0,0,0,0,0,0,0,0,0,-1,867,316,0,0
-350,708,0,0,0,0,0,0,0,0,0,-1,874,316,0,0
-343,708,0,0,0,0,0,0,0,0,0,-1,881,316,0,0
-336,708,0,0,0,0,0,0,0,0,0,-1,888,316,0,0
-329,708,0,0,0,0,0,0,0,0,0,-1,895,316,0,0
-322,708,0,0,0,0,0,0,0,0,0,-1,902,316,0,0
-315,708,0,0,0,0,0,0,0,0,0,-1,909,316,0,0
-308,708,0,0,0,0,0,0,0,0,0,-1,916,316,0,0
-301,708,0,0,0,0,0,0,0,0,0,-1,923,316,0,0
-294,708,0,0,0,0,0,0,0,0,0,-1,930,316,0,0
-287,708,0,0,0,0,0,0,0,0,0,-1,937,316,0,0
-280,708,0,0,0,0,0,0,0,0,0,-1,944,316,0,0
-273,708,0,0,0,0,0,0,0,0,0,-1,951,316,0,0
-266,708,0,0,0,0,0,0,0,0,0,-1,958,316,0,0
-259,708,0,0,0,0,0,0,0,0,0,-1,965,316,0,0
-252,708,0,0,0,0,0,0,0,0,0,-1,972,316,0,0
-245,708,0,0,0,0,0,0,0,0,0,-1,979,316,0,0
-238,708,0,0,0,0,0,0,0,0,0,-1,986,316,0,0
-231,708,0,0,0,0,0,0,0,0,0,-1,993,316,0,0
-224,708,0,0,0,0,0,0,0,0,0,-1,1000,316,0,0
-217,708,0,0,0,0,0,0,0,0,0,-1,1007,316,0,0
-210,708,0,0,0,0,0,0,0,0,0,-1,1014,316,0,0
-203,708,0,0,0,0,0,0,0,0,0,-1,1021,316,0,0
-196,708,0,0,0,0,0,0,0,0,0,-1,1028,316,0,0
-189,708,0,0,0,0,0,0,0,0,0,-1,1035,316,0,0
-182,708,0,0,0,0,0,0,0,0,0,-1,1042,316,0,0
-175,708,0,0,0,0,0,0,0,0,0,-1,1049,316,0,0
-168,708,0,0,0,0,0,0,0,0,0,-1,1056,316,0,0
-161,708,0,0,0,0,0,0,0,0,0,-1,1063,316,0,0
-154,708,0,0,0,0,0,0,0,0,0,-1,1070,316,0,0
-147,708,0,0,0,0,0,0,0,0,0,-1,1077,316,0,0
-140,708,0,0,0,0,0,0,0,0,0,-1,1084,316,0,0
-133,708,0,0,0,0,0,0,0,0,0,-1,1091,316,0,0
-126,708,0,0,0,0,0,0,0,0,0,-1,1098,316,0,0
-119,708,0,0,0,0,0,0,0,0,0,-1,1105,316,0,0
-112,708,0,0,0,0,0,0,0,0,0,-1,1112,316,0,0
-105,708,0,0,0,0,0,0,0,0,0,-1,1119,316,0,0
-98,708,0,0,0,0,0,0,0,0,0,-1,1126,316,0,0
-91,708,0,0,0,0,0,0,0,0,0,-1,1133,316,0,0
-84,708,0,0,0,0,0,0,0,0,0,-1,1140,316,0,0
-77,708,0,0,0,0,0,0,0,0,0,-1,1147,316,0,0
-70,708,0,0,0,0,0,0,0,0,0,-1,1154,316,0,0
-63,708,0,0,0,0,0,0,0,0,0,-1,1161,316,0,0
-56,708,0,0,0,0,0,0,0,0,0,-1,1168,316,0,0
-49,708,0,0,0,0,0,0,0,0,0,-1,1175,316,0,0
-42,708,0,0,0,0,0,0,0,0,0,-1,1182,316,0,0
-35,708,-2.71204,-6.31558,0,0,0,0,0,0,0,-1,1189,316,-2.712,6.3156
-28,708,-2.92371,-5.53253,0,0,0,0,0,0,0,-1,1196,316,-2.92375,5.53254
-21,708,-0.417969,-24.5911,0,0,0,0,0,0,0,-1,1203,316,-0.418022,24.5911
-14,708,5.56641,-32.0021,0,0,0,0,0,0,0,-1,1210,316,5.56642,32.0021
-7,708,4.97974,-29.7781,0,0,0,0,0,0,0,-1,1217,316,4.97974,29.7781
0,708,4.10876,-29.9553,0,0,0,0,0,0,0,-1,1224,316,4.1087,29.9553
7,708,3.21472,-30.4184,-0.0919117,0.0803856,-0.0102141,0.080989,-0.0925151,-1.51179,0.100246,0.0475531,1231,316,3.21475,30.4184
14,708,2.4165,-30.7021,0,0,0,0,0,0,0,-1,1238,316,2.41653,30.7021
21,708,1.06079,-31.921,-0.0648371,0.0731417,-0.00496581,0.0733202,-0.0650156,-1.53487,0.0799162,0.0445428,1245,316,1.06083,31.921
28,708,0.148682,-31.1021,0,0,0,0,0,0,0,-1,1252,316,0.148655,31.1021
35,708,3.07251,-32.6377,0,0,0,0,0,0,0,-1,1259,316,3.07256,32.6377
42,708,2.57227,-31.775,-0.0237282,0.0741673,-0.00145947,0.074189,-0.02375,-1.55589,0.0589918,0.0410174,1266,316,2.57223,31.775
49,708,2.56152,-31.0859,-0.0110046,0.0746545,-0.000116899,0.0746547,-0.0110047,-1.56943,0.0538144,0.0429207,1273,316,2.56148,31.0859
56,708,2.63025,-30.623,-0.000451364,0.0755647,0.00108151,0.0755801,-0.000466745,1.55657,0.050543,0.0435128,1280,316,2.63021,30.623
63,708,5.91602,-30.5605,0,0,0,0,0,0,0,-1,1287,316,5.91604,30.5605
70,708,5.97571,-31.1196,0.0119515,0.076825,0.00217559,0.0768979,0.0118787,1.53731,0.0478003,0.0447126,1294,316,5.97577,31.1196
77,708,5.78589,-31.5105,0.0153491,0.0761272,0.00145654,0.0761621,0.0153142,1.54685,0.046518,0.0439516,1301,316,5.78591,31.5105
84,708,6.20142,-32.469,0.0161496,0.0731608,0.000964873,0.0731771,0.0161332,1.55388,0.0443951,0.0486077,1308,316,6.20142,32.469
91,708,6.33618,-33.2527,0,0,0,0,0,0,0,-1,1315,316,6.33619,33.2527
98,708,4.53699,-28.9791,0,0,0,0,0,0,0,-1,1322,316,4.53697,28.9791
105,708,4.23889,-32.4714,0,0,0,0,0,0,0,-1,1329,316,4.23885,32.4714
112,708,3.83984,-31.969,0,0,0,0,0,0,0,-1,1336,316,3.83983,31.969
119,708,3.44873,-31.4454,0.0198011,0.063899,0.00450312,0.0643541,0.019346,1.47007,0.0381268,0.04168,1343,316,3.44872,31.4454
126,708,3.18091,-30.8862,0,0,0,0,0,0,0,-1,1350,316,3.18092,30.8862
133,708,3.28113,-30.6548,0,0,0,0,0,0,0,-1,1357,316,3.28113,30.6548
140,708,3.25916,-30.5904,0,0,0,0,0,0,0,-1,1364,316,3.25911,30.5903
147,708,1.2666,-30.4515,0,0,0,0,0,0,0,-1,1371,316,1.26664,30.4515
154,708,0,0,0,0,0,0,0,0,0,-1,1378,316,0,0
161,708,0,0,0,0,0,0,0,0,0,-1,1385,316,0,0
168,708,0,0,0,0,0,0,0,0,0,-1,1392,316,0,0
175,708,0,0,0,0,0,0,0,0,0,-1,1399,316,0,0
182,708,0,0,0,0,0,0,0,0,0,-1,1406,316,0,0
189,708,0,0,0,0,0,0,0,0,0,-1,1413,316,0,0
196,708,0,0,0,0,0,0,0,0,0,-1,1420,316,0,0
203,708,0,0,0,0,0,0,0,0,0,-1,1427,316,0,0
210,708,0,0,0,0,0,0,0,0,0,-1,1434,316,0,0
217,708,0,0,0,0,0,0,0,0,0,-1,1441,316,0,0
224,708,0,0,0,0,0,0,0,0,0,-1,1448,316,0,0
231,708,0,0,0,0,0,0,0,0,0,-1,1455,316,0,0
238,708,0,0,0,0,0,0,0,0,0,-1,1462,316,0,0
245,708,0,0,0,0,0,0,0,0,0,-1,1469,316,0,0
252,708,0,0,0,0,0,0,0,0,0,-1,1476,316,0,0
259,708,0,0,0,0,0,0,0,0,0,-1,1483,316,0,0
266,708,0,0,0,0,0,0,0,0,0,-1,1490,316,0,0
273,708,0,0,0,0,0,0,0,0,0,-1,1497,316,0,0
280,708,0,0,0,0,0,0,0,0,0,-1,1504,316,0,0
287,708,0,0,0,0,0,0,0,0,0,-1,1511,316,0,0
294,708,0,0,0,0,0,0,0,0,0,-1,1518,316,0,0
301,708,0,0,0,0,0,0,0,0,0,-1,1525,316,0,0
308,708,0,0,0,0,0,0,0,0,0,-1,1532,316,0,0
315,708,0,0,0,0,0,0,0,0,0,-1,1539,316,0,0
322,708,0,0,0,0,0,0,0,0,0,-1,1546,316,0,0
329,708,0,0,0,0,0,0,0,0,0,-1,1553,316,0,0
336,708,0,0,0,0,0,0,0,0,0,-1,1560,316,0,0
343,708,0,0,0,0,0,0,0,0,0,-1,1567,316,0,0
350,708,0,0,0,0,0,0,0,0,0,-1,1574,316,0,0
357,708,0,0,0,0,0,0,0,0,0,-1,1581,316,0,0
364,708,0,0,0,0,0,0,0,0,0,-1,1588,316,0,0
371,708,0,0,0,0,0,0,0,0,0,-1,1595,316,0,0
378,708,0,0,0,0,0,0,0,0,0,-1,1602,316,0,0
385,708,0,0,0,0,0,0,0,0,0,-1,1609,316,0,0
392,708,0,0,0,0,0,0,0,0,0,-1,1616,316,0,0
399,708,0,0,0,0,0,0,0,0,0,-1,1623,316,0,0
406,708,0,0,0,0,0,0,0,0,0,-1,1630,316,0,0
413,708,0,0,0,0,0,0,0,0,0,-1,1637,316,0,0
420,708,0,0,0,0,0,0,0,0,0,-1,1644,316,0,0
427,708,0,0,0,0,0,0,0,0,0,-1,1651,316,0,0
434,708,0,0,0,0,0,0,0,0,0,-1,1658,316,0,0
441,708,0,0,0,0,0,0,0,0,0,-1,1665,316,0,0
448,708,0,0,0,0,0,0,0,0,0,-1,1672,316,0,0
455,708,0,0,0,0,0,0,0,0,0,-1,1679,316,0,0
462,708,0,0,0,0,0,0,0,0,0,-1,1686,316,0,0
469,708,0,0,0,0,0,0,0,0,0,-1,1693,316,0,0
476,708,0,0,0,0,0,0,0,0,0,-1,1700,316,0,0
483,708,0,0,0,0,0,0,0,0,0,-1,1707,316,0,0
490,708,0,0,0,0,0,0,0,0,0,-1,1714,316,0,0
497,708,0,0,0,0,0,0,0,0,0,-1,1721,316,0,0
504,708,0,0,0,0,0,0,0,0,0,-1,1728,316,0,0
511,708,0,0,0,0,0,0,0,0,0,-1,1735,316,0,0
518,708,0,0,0,0,0,0,0,0,0,-1,1742,316,0,0
525,708,0,0,0,0,0,0,0,0,0,-1,1749,316,0,0
532,708,0,0,0,0,0,0,0,0,0,-1,1756,316,0,0
539,708,0,0,0,0,0,0,0,0,0,-1,1763,316,0,0
546,708,0,0,0,0,0,0,0,0,0,-1,1770,316,0,0
553,708,0,0,0,0,0,0,0,0,0,-1,1777,316,0,0
560,708,0,0,0,0,0,0,0,0,0,-1,1784,316,0,0
567,708,0,0,0,0,0,0,0,0,0,-1,1791,316,0,0
574,708,0,0,0,0,0,0,0,0,0,-1,1798,316,0,0
581,708,0,0,0,0,0,0,0,0,0,-1,1805,316,0,0
588,708,0,0,0,0,0,0,0,0,0,-1,1812,316,0,0
595,708,0,0,0,0,0,0,0,0,0,-1,1819,316,0,0
602,708,0,0,0,0,0,0,0,0,0,-1,1826,316,0,0
609,708,0,0,0,0,0,0,0,0,0,-1,1833,316,0,0
616,708,0,0,0,0,0,0,0,0,0,-1,1840,316,0,0
623,708,0,0,0,0,0,0,0,0,0,-1,1847,316,0,0
630,708,0,0,0,0,0,0,0,0,0,-1,1854,316,0,0
637,708,0,0,0,0,0,0,0,0,0,-1,1861,316,0,0
644,708,0,0,0,0,0,0,0,0,0,-1,1868,316,0,0
651,708,0,0,0,0,0,0,0,0,0,-1,1875,316,0,0
658,708,0,0,0,0,0,0,0,0,0,-1,1882,316,0,0
665,708,0,0,0,0,0,0,0,0,0,-1,1889,316,0,0
672,708,0,0,0,0,0,0,0,0,0,-1,1896,316,0,0
679,708,0,0,0,0,0,0,0,0,0,-1,1903,316,0,0
686,708,0,0,0,0,0,0,0,0,0,-1,1910,316,0,0
693,708,0,0,0,0,0,0,0,0,0,-1,1917,316,0,0
700,708,0,0,0,0,0,0,0,0,0,-1,1924,316,0,0
707,708,0,0,0,0,0,0,0,0,0,-1,1931,316,0,0
714,708,0,0,0,0,0,0,0,0,0,-1,1938,316,0,0
721,708,0,0,0,0,0,0,0,0,0,-1,1945,316,0,0
728,708,0,0,0,0,0,0,0,0,0,-1,1952,316,0,0
735,708,0,0,0,0,0,0,0,0,0,-1,1959,316,0,0
742,708,0,0,0,0,0,0,0,0,0,-1,1966,316,0,0
749,708,0,0,0,0,0,0,0,0,0,-1,1973,316,0,0
756,708,0,0,0,0,0,0,0,0,0,-1,1980,316,0,0
763,708,0,0,0,0,0,0,0,0,0,-1,1987,316,0,0
770,708,0,0,0,0,0,0,0,0,0,-1,1994,316,0,0
777,708,0,0,0,0,0,0,0,0,0,-1,2001,316,0,0
784,708,0,0,0,0,0,0,0,0,0,-1,2008,316,0,0
791,708,0,0,0,0,0,0,0,0,0,-1,2015,316,0,0
798,708,0,0,0,0,0,0,0,0,0,-1,2022,316,0,0
805,708,0,0,0,0,0,0,0,0,0,-1,2029,316,0,0
812,708,0,0,0,0,0,0,0,0,0,-1,2036,316,0,0
-700,701,0,0,0,0,0,0,0,0,0,-1,524,323,0,0
-693,701,0,0,0,0,0,0,0,0,0,-1,531,323,0,0
-686,701,0,0,0,0,0,0,0,0,0,-1,538,323,0,0
-679,701,0,0,0,0,0,0,0,0,0,-1,545,323,0,0
-672,701,0,0,0,0,0,0,0,0,0,-1,552,323,0,0
-665,701,0,0,0,0,0,0,0,0,0,-1,559,323,0,0
-658,701,0,0,0,0,0,0,0,0,0,-1,566,323,0,0
-651,701,0,0,0,0,0,0,0,0,0,-1,573,323,0,0
-644,701,0,0,0,0,0,0,0,0,0,-1,580,323,0,0
-637,701,0,0,0,0,0,0,0,0,0,-1,587,323,0,0
-630,701,0,0,0,0,0,0,0,0,0,-1,594,323,0,0
-623,701,0,0,0,0,0,0,0,0,0,-1,601,323,0,0
-616,701,0,0,0,0,0,0,0,0,0,-1,608,323,0,0
-609,701,0,0,0,0,0,0,0,0,0,-1,615,323,0,0
-602,701,0,0,0,0,0,0,0,0,0,-1,622,323,0,0
-595,701,0,0,0,0,0,0,0,0,0,-1,629,323,0,0
-588,701,0,0,0,0,0,0,0,0,0,-1,636,323,0,0
-581,701,0,0,0,0,0,0,0,0,0,-1,643,323,0,0
-574,701,0,0,0,0,0,0,0,0,0,-1,650,323,0,0
-567,701,0,0,0,0,0,0,0,0,0,-1,657,323,0,0
-560,701,0,0,0,0,0,0,0,0,0,-1,664,323,0,0
-553,701,0,0,0,0,0,0,0,0,0,-1,671,323,0,0
-546,701,0,0,0,0,0,0,0,0,0,-1,678,323,0,0
-539,701,0,0,0,0,0,0,0,0,0,-1,685,323,0,0
-532,701,0,0,0,0,0,0,0,0,0,-1,692,323,0,0
-525,701,0,0,0,0,0,0,0,0,0,-1,699,323,0,0
-518,701,0,0,0,0,0,0,0,0,0,-1,706,323,0,0
-511,701,0,0,0,0,0,0,0,0,0,-1,713,323,0,0
-504,701,0,0,0,0,0,0,0,0,0,-1,720,323,0,0
-497,701,0,0,0,0,0,0,0,0,0,-1,727,323,0,0
-490,701,0,0,0,0,0,0,0,0,0,-1,734,323,0,0
-483,701,0,0,0,0,0,0,0,0,0,-1,741,323,0,0
-476,701,0,0,0,0,0,0,0,0,0,-1,748,323,0,0
-469,701,0,0,0,0,0,0,0,0,0,-1,755,323,0,0
-462,701,0,0,0,0,0,0,0,0,0,-1,762,323,0,0
-455,701,0,0,0,0,0,0,0,0,0,-1,769,323,0,0
-448,701,0,0,0,0,0,0,0,0,0,-1,776,323,0,0
-441,701,0,0,0,0,0,0,0,0,0,-1,783,323,0,0
-434,701,0,0,0,0,0,0,0,0,0,-1,790,323,0,0
-427,701,0,0,0,0,0,0,0,0,0,-1,797,323,0,0
-420,701,0,0,0,0,0,0,0,0,0,-1,804,323,0,0
-413,701,0,0,0,0,0,0,0,0,0,-1,811,323,0,0
-406,701,0,0,0,0,0,0,0,0,0,-1,818,323,0,0
-399,701,0,0,0,0,0,0,0,0,0,-1,825,323,0,0
-392,701,0,0,0,0,0,0,0,0,0,-1,832,323,0,0
-385,701,0,0,0,0,0,0,0,0,0,-1,839,323,0,0
-378,701,0,0,0,0,0,0,0,0,0,-1,846,323,0,0
-371,701,0,0,0,0,0,0,0,0,0,-1,853,323,0,0
-364,701,0,0,0,0,0,0,0,0,0,-1,860,323,0,0
-357,701,0,0,0,0,0,0,0,0,0,-1,867,323,0,0
-350,701,0,0,0,0,0,0,0,0,0,-1,874,323,0,0
-343,701,0,0,0,0,0,0,0,0,0,-1,881,323,0,0
-336,701,0,0,0,0,0,0,0,0,0,-1,888,323,0,0
-329,701,0,0,0,0,0,0,0,0,0,-1,895,323,0,0
-322,701,0,0,0,0,0,0,0,0,0,-1,902,323,0,0
-315,701,0,0,0,0,0,0,0,0,0,-1,909,323,0,0
-308,701,0,0,0,0,0,0,0,0,0,-1,916,323,0,0
-301,701,0,0,0,0,0,0,0,0,0,-1,923,323,0,0
-294,701,0,0,0,0,0,0,0,0,0,-1,930,323,0,0
-287,701,0,0,0,0,0,0,0,0,0,-1,937,323,0,0
-280,701,0,0,0,0,0,0,0,0,0,-1,944,323,0,0
-273,701,0,0,0,0,0,0,0,0,0,-1,951,323,0,0
-266,701,0,0,0,0,0,0,0,0,0,-1,958,323,0,0
-259,701,0,0,0,0,0,0,0,0,0,-1,965,323,0,0
-252,701,0,0,0,0,0,0,0,0,0,-1,972,323,0,0
-245,701,0,0,0,0,0,0,0,0,0,-1,979,323,0,0
-238,701,0,0,0,0,0,0,0,0,0,-1,986,323,0,0
-231,701,0,0,0,0,0,0,0,0,0,-1,993,323,0,0
-224,701,0,0,0,0,0,0,0,0,0,-1,1000,323,0,0
-217,701,0,0,0,0,0,0,0,0,0,-1,1007,323,0,0
-210,701,0,0,0,0,0,0,0,0,0,-1,1014,323,0,0
-203,701,0,0,0,0,0,0,0,0,0,-1,1021,323,0,0
-196,701,0,0,0,0,0,0,0,0,0,-1,1028,323,0,0
-189,701,0,0,0,0,0,0,0,0,0,-1,1035,323,0,0
-182,701,0,0,0,0,0,0,0,0,0,-1,1042,323,0,0
-175,701,0,0,0,0,0,0,0,0,0,-1,1049,323,0,0
-168,701,0,0,0,0,0,0,0,0,0,-1,1056,323,0,0
-161,701,0,0,0,0,0,0,0,0,0,-1,1063,323,0,0
-154,701,0,0,0,0,0,0,0,0,0,-1,1070,323,0,0
-147,701,0,0,0,0,0,0,0,0,0,-1,1077,323,0,0
-140,701,0,0,0,0,0,0,0,0,0,-1,1084,323,0,0
-133,701,0,0,0,0,0,0,0,0,0,-1,1091,323,0,0
-126,701,0,0,0,0,0,0,0,0,0,-1,1098,323,0,0
-119,701,0,0,0,0,0,0,0,0,0,-1,1105,323,0,0
-112,701,0,0,0,0,0,0,0,0,0,-1,1112,323,0,0
-105,701,0,0,0,0,0,0,0,0,0,-1,1119,323,0,0
-98,701,0,0,0,0,0,0,0,0,0,-1,1126,323,0,0
-91,701,0,0,0,0,0,0,0,0,0,-1,1133,323,0,0
-84,701,0,0,0,0,0,0,0,0,0,-1,1140,323,0,0
-77,701,0,0,0,0,0,0,0,0,0,-1,1147,323,0,0
-70,701,-11.9647,-28.192,0,0,0,0,0,0,0,-1,1154,323,-11.9647,28.1919
-63,701,-18.3169,-21.2322,0,0,0,0,0,0,0,-1,1161,323,-18.3169,21.2322
-56,701,-0.420166,-0.101776,0,0,0,0,0,0,0,-1,1168,323,-0.420119,0.101777
-49,701,-1.09021,-0.155762,0,0,0,0,0,0,0,-1,1175,323,-1.09024,0.155768
-42,701,-0.210327,-0.299133,0,0,0,0,0,0,0,-1,1182,323,-0.210379,0.29914
-35,701,-2.9635,-7.98676,0,0,0,0,0,0,0,-1,1189,323,-2.9635,7.98676
-28,701,-6.64417,-5.4917,0,0,0,0,0,0,0,-1,1196,323,-6.64411,5.4917
-21,701,5.22729,-32.2801,0,0,0,0,0,0,0,-1,1203,323,5.22728,32.2801
-14,701,5.63818,-30.2293,0,0,0,0,0,0,0,-1,1210,323,5.63821,30.2293
-7,701,4.79321,-30.4052,-0.0880855,0.0852206,-0.0143395,0.086399,-0.0892639,-1.4888,0.101424,0.0487368,1217,323,4.79325,30.4052
0,701,3.87427,-30.6068,-0.0800119,0.0766038,-0.0130052,0.0776764,-0.0810845,-1.48851,0.0916677,0.049685,1224,323,3.87426,30.6068
7,701,2.9718,-30.9355,-0.0710392,0.0735856,-0.0122258,0.0746118,-0.0720654,-1.48705,0.0846884,0.0457568,1231,323,2.97184,30.9355
14,701,2.15784,-31.1883,0,0,0,0,0,0,0,-1,1238,323,2.15785,31.1883
21,701,1.53564,-31.5458,0,0,0,0,0,0,0,-1,1245,323,1.53561,31.5458
28,701,0.974365,-30.84,0,0,0,0,0,0,0,-1,1252,323,0.974307,30.84
35,701,3.30139,-32.7716,-0.0286693,0.0666911,-0.00367873,0.0668328,-0.028811,-1.5323,0.0566558,0.0468274,1259,323,3.30137,32.7716
42,701,3.11218,-32.1202,-0.0189955,0.0660202,-0.0018447,0.0660602,-0.0190355,-1.54911,0.05157,0.0454622,1266,323,3.11219,32.1202
49,701,2.98108,-31.5653,-0.00934369,0.0662393,0.00020694,0.0662399,-0.00934426,1.56806,0.0475815,0.0460959,1273,323,2.98109,31.5653
56,701,2.81372,-31.0524,-0.00159284,0.0666515,0.00194205,0.0667068,-0.00164806,1.54237,0.0450306,0.0452902,1280,323,2.81377,31.0524
63,701,5.47083,-30.7115,0,0,0,0,0,0,0,-1,1287,323,5.47081,30.7116
70,701,5.57654,-31.4009,0.00728277,0.0679868,0.00420829,0.0682771,0.00699242,1.50191,0.0433756,0.0436407,1294,323,5.57654,31.4009
77,701,5.65466,-32.1534,0.00934272,0.0670015,0.00396349,0.0672727,0.00907154,1.50248,0.0421512,0.0440831,1301,323,5.65472,32.1534
84,701,5.70874,-32.8979,0.0095917,0.0648851,0.00378966,0.0651436,0.00933317,1.50268,0.0406765,0.0443478,1308,323,5.70872,32.8979
91,701,5.90161,-33.607,0.0104581,0.0636767,0.00311375,0.0638583,0.0102766,1.51255,0.0395937,0.0449498,1315,323,5.90159,33.607
98,701,6.03503,-34.1624,0,0,0,0,0,0,0,-1,1322,323,6.03506,34.1624
105,701,3.29077,-31.8752,0,0,0,0,0,0,0,-1,1329,323,3.29073,31.8751
112,701,3.47485,-31.6981,0,0,0,0,0,0,0,-1,1336,323,3.47481,31.6981
119,701,3.52649,-31.5423,0,0,0,0,0,0,0,-1,1343,323,3.5265,31.5423
126,701,3.49036,-31.2284,0,0,0,0,0,0,0,-1,1350,323,3.49034,31.2284
133,701,3.38477,-31.1413,0,0,0,0,0,0,0,-1,1357,323,3.3848,31.1413
140,701,3.51636,-31.0642,0,0,0,0,0,0,0,-1,1364,323,3.51639,31.0642
147,701,3.93408,-31.2511,0,0,0,0,0,0,0,-1,1371,323,3.93402,31.2511
154,701,1.7135,-30.1893,0,0,0,0,0,0,0,-1,1378,323,1.71354,30.1893
161,701,-0.549072,-35.8157,0,0,0,0,0,0,0,-1,1385,323,-0.549096,35.8157
168,701,30.7272,1.76184,0,0,0,0,0,0,0,-1,1392,323,30.7272,-1.76184
175,701,31.5035,2.25711,0,0,0,0,0,0,0,-1,1399,323,31.5036,-2.25712
182,701,8.80652,5.42807,0,0,0,0,0,0,0,-1,1406,323,8.8065,-5.42808
189,701,8.58081,4.24493,0,0,0,0,0,0,0,-1,1413,323,8.58082,-4.24494
196,701,0,0,0,0,0,0,0,0,0,-1,1420,323,0,0
203,701,0,0,0,0,0,0,0,0,0,-1,1427,323,0,0
210,701,0,0,0,0,0,0,0,0,0,-1,1434,323,0,0
217,701,0,0,0,0,0,0,0,0,0,-1,1441,323,0,0
224,701,0,0,0,0,0,0,0,0,0,-1,1448,323,0,0
231,701,0,0,0,0,0,0,0,0,0,-1,1455,323,0,0
238,701,0,0,0,0,0,0,0,0,0,-1,1462,323,0,0
245,701,0,0,0,0,0,0,0,0,0,-1,1469,323,0,0
252,701,0,0,0,0,0,0,0,0,0,-1,1476,323,0,0
259,701,0,0,0,0,0,0,0,0,0,-1,1483,323,0,0
266,701,0,0,0,0,0,0,0,0,0,-1,1490,323,0,0
273,701,0,0,0,0,0,0,0,0,0,-1,1497,323,0,0
280,701,0,0,0,0,0,0,0,0,0,-1,1504,323,0,0
287,701,0,0,0,0,0,0,0,0,0,-1,1511,323,0,0
294,701,0,0,0,0,0,0,0,0,0,-1,1518,323,0,0
301,701,0,0,0,0,0,0,0,0,0,-1,1525,323,0,0
308,701,0,0,0,0,0,0,0,0,0,-1,1532,323,0,0
315,701,0,0,0,0,0,0,0,0,0,-1,1539,323,0,0
322,701,0,0,0,0,0,0,0,0,0,-1,1546,323,0,0
329,701,0,0,0,0,0,0,0,0,0,-1,1553,323,0,0
336,701,0,0,0,0,0,0,0,0,0,-1,1560,323,0,0
343,701,0,0,0,0,0,0,0,0,0,-1,1567,323,0,0
350,701,0,0,0,0,0,0,0,0,0,-1,1574,323,0,0
357,701,0,0,0,0,0,0,0,0,0,-1,1581,323,0,0
364,701,0,0,0,0,0,0,0,0,0,-1,1588,323,0,0
371,701,0,0,0,0,0,0,0,0,0,-1,1595,323,0,0
378,701,0,0,0,0,0,0,0,0,0,-1,1602,323,0,0
385,701,0,0,0,0,0,0,0,0,0,-1,1609,323,0,0
392,701,0,0,0,0,0,0,0,0,0,-1,1616,323,0,0
399,701,0,0,0,0,0,0,0,0,0,-1,1623,323,0,0
406,701,0,0,0,0,0,0,0,0,0,-1,1630,323,0,0
413,701,0,0,0,0,0,0,0,0,0,-1,1637,323,0,0
420,701,0,0,0,0,0,0,0,0,0,-1,1644,323,0,0
427,701,0,0,0,0,0,0,0,0,0,-1,1651,323,0,0
434,701,0,0,0,0,0,0,0,0,0,-1,1658,323,0,0
441,701,0,0,0,0,0,0,0,0,0,-1,1665,323,0,0
448,701,0,0,0,0,0,0,0,0,0,-1,1672,323,0,0
455,701,0,0,0,0,0,0,0,0,0,-1,1679,323,0,0
462,701,0,0,0,0,0,0,0,0,0,-1,1686,323,0,0
469,701,0,0,0,0,0,0,0,0,0,-1,1693,323,0,0
476,701,0,0,0,0,0,0,0,0,0,-1,1700,323,0,0
483,701,0,0,0,0,0,0,0,0,0,-1,1707,323,0,0
490,701,0,0,0,0,0,0,0,0,0,-1,1714,323,0,0
497,701,0,0,0,0,0,0,0,0,0,-1,1721,323,0,0
504,701,0,0,0,0,0,0,0,0,0,-1,1728,323,0,0
511,701,0,0,0,0,0,0,0,0,0,-1,1735,323,0,0
518,701,0,0,0,0,0,0,0,0,0,-1,1742,323,0,0
525,701,0,0,0,0,0,0,0,0,0,-1,1749,323,0,0
532,701,0,0,0,0,0,0,0,0,0,-1,1756,323,0,0
539,701,0,0,0,0,0,0,0,0,0,-1,1763,323,0,0
546,701,0,0,0,0,0,0,0,0,0,-1,1770,323,0,0
553,701,0,0,0,0,0,0,0,0,0,-1,1777,323,0,0
560,701,0,0,0,0,0,0,0,0,0,-1,1784,323,0,0
567,701,0,0,0,0,0,0,0,0,0,-1,1791,323,0,0
574,701,0,0,0,0,0,0,0,0,0,-1,1798,323,0,0
581,701,0,0,0,0,0,0,0,0,0,-1,1805,323,0,0
588,701,0,0,0,0,0,0,0,0,0,-1,1812,323,0,0
595,701,0,0,0,0,0,0,0,0,0,-1,1819,323,0,0
602,701,0,0,0,0,0,0,0,0,0,-1,1826,323,0,0
609,701,0,0,0,0,0,0,0,0,0,-1,1833,323,0,0
616,701,0,0,0,0,0,0,0,0,0,-1,1840,323,0,0
623,701,0,0,0,0,0,0,0,0,0,-1,1847,323,0,0
630,701,0,0,0,0,0,0,0,0,0,-1,1854,323,0,0
637,701,0,0,0,0,0,0,0,0,0,-1,1861,323,0,0
644,701,0,0,0,0,0,0,0,0,0,-1,1868,323,0,0
651,701,0,0,0,0,0,0,0,0,0,-1,1875,323,0,0
658,701,0,0,0,0,0,0,0,0,0,-1,1882,323,0,0
665,701,0,0,0,0,0,0,0,0,0,-1,1889,323,0,0
672,701,0,0,0,0,0,0,0,0,0,-1,1896,323,0,0
679,701,0,0,0,0,0,0,0,0,0,-1,1903,323,0,0
686,701,0,0,0,0,0,0,0,0,0,-1,1910,323,0,0
693,701,0,0,0,0,0,0,0,0,0,-1,1917,323,0,0
700,701,0,0,0,0,0,0,0,0,0,-1,1924,323,0,0
707,701,0,0,0,0,0,0,0,0,0,-1,1931,323,0,0
714,701,0,0,0,0,0,0,0,0,0,-1,1938,323,0,0
721,701,0,0,0,0,0,0,0,0,0,-1,1945,323,0,0
728,701,0,0,0,0,0,0,0,0,0,-1,1952,323,0,0
735,701,0,0,0,0,0,0,0,0,0,-1,1959,323,0,0
742,701,0,0,0,0,0,0,0,0,0,-1,1966,323,0,0
749,701,0,0,0,0,0,0,0,0,0,-1,1973,323,0,0
756,701,0,0,0,0,0,0,0,0,0,-1,1980,323,0,0
763,701,0,0,0,0,0,0,0,0,0,-1,1987,323,0,0
770,701,0,0,0,0,0,0,0,0,0,-1,1994,323,0,0
777,701,0,0,0,0,0,0,0,0,0,-1,2001,323,0,0
784,701,0,0,0,0,0,0,0,0,0,-1,2008,323,0,0
791,701,0,0,0,0,0,0,0,0,0,-1,2015,323,0,0
798,701,0,0,0,0,0,0,0,0,0,-1,2022,323,0,0
805,701,0,0,0,0,0,0,0,0,0,-1,2029,323,0,0
812,701,0,0,0,0,0,0,0,0,0,-1,2036,323,0,0
-700,694,0,0,0,0,0,0,0,0,0,-1,524,330,0,0
-693,694,0,0,0,0,0,0,0,0,0,-1,531,330,0,0
-686,694,0,0,0,0,0,0,0,0,0,-1,538,330,0,0
-679,694,0,0,0,0,0,0,0,0,0,-1,545,330,0,0
-672,694,0,0,0,0,0,0,0,0,0,-1,552,330,0,0
-665,694,0,0,0,0,0,0,0,0,0,-1,559,330,0,0
-658,694,0,0,0,0,0,0,0,0,0,-1,566,330,0,0
-651,694,0,0,0,0,0,0,0,0,0,-1,573,330,0,0
-644,694,0,0,0,0,0,0,0,0,0,-1,580,330,0,0
-637,694,0,0,0,0,0,0,0,0,0,-1,587,330,0,0
-630,694,0,0,0,0,0,0,0,0,0,-1,594,330,0,0
-623,694,0,0,0,0,0,0,0,0,0,-1,601,330,0,0
-616,694,0,0,0,0,0,0,0,0,0,-1,608,330,0,0
-609,694,0,0,0,0,0,0,0,0,0,-1,615,330,0,0
-602,694,0,0,0,0,0,0,0,0,0,-1,622,330,0,0
-595,694,0,0,0,0,0,0,0,0,0,-1,629,330,0,0
-588,694,0,0,0,0,0,0,0,0,0,-1,636,330,0,0
-581,694,0,0,0,0,0,0,0,0,0,-1,643,330,0,0
-574,694,0,0,0,0,0,0,0,0,0,-1,650,330,0,0
-567,694,0,0,0,0,0,0,0,0,0,-1,657,330,0,0
-560,694,0,0,0,0,0,0,0,0,0,-1,664,330,0,0
-553,694,0,0,0,0,0,0,0,0,0,-1,671,330,0,0
-546,694,0,0,0,0,0,0,0,0,0,-1,678,330,0,0
-539,694,0,0,0,0,0,0,0,0,0,-1,685,330,0,0
-532,694,0,0,0,0,0,0,0,0,0,-1,692,330,0,0
-525,694,0,0,0,0,0,0,0,0,0,-1,699,330,0,0
-518,694,0,0,0,0,0,0,0,0,0,-1,706,330,0,0
-511,694,0,0,0,0,0,0,0,0,0,-1,713,330,0,0
-504,694,0,0,0,0,0,0,0,0,0,-1,720,330,0,0
-497,694,0,0,0,0,0,0,0,0,0,-1,727,330,0,0
-490,694,0,0,0,0,0,0,0,0,0,-1,734,330,0,0
-483,694,0,0,0,0,0,0,0,0,0,-1,741,330,0,0
-476,694,0,0,0,0,0,0,0,0,0,-1,748,330,0,0
-469,694,0,0,0,0,0,0,0,0,0,-1,755,330,0,0
-462,694,0,0,0,0,0,0,0,0,0,-1,762,330,0,0
-455,694,0,0,0,0,0,0,0,0,0,-1,769,330,0,0
-448,694,0,0,0,0,0,0,0,0,0,-1,776,330,0,0
-441,694,0,0,0,0,0,0,0,0,0,-1,783,330,0,0
-434,694,0,0,0,0,0,0,0,0,0,-1,790,330,0,0
-427,694,0,0,0,0,0,0,0,0,0,-1,797,330,0,0
-420,694,0,0,0,0,0,0,0,0,0,-1,804,330,0,0
-413,694,0,0,0,0,0,0,0,0,0,-1,811,330,0,0
-406,694,0,0,0,0,0,0,0,0,0,-1,818,330,0,0
-399,694,0,0,0,0,0,0,0,0,0,-1,825,330,0,0
-392,694,0,0,0,0,0,0,0,0,0,-1,832,330,0,0
-385,694,0,0,0,0,0,0,0,0,0,-1,839,330,0,0
-378,694,0,0,0,0,0,0,0,0,0,-1,846,330,0,0
-371,694,0,0,0,0,0,0,0,0,0,-1,853,330,0,0
-364,694,0,0,0,0,0,0,0,0,0,-1,860,330,0,0
-357,694,0,0,0,0,0,0,0,0,0,-1,867,330,0,0
-350,694,0,0,0,0,0,0,0,0,0,-1,874,330,0,0
-343,694,0,0,0,0,0,0,0,0,0,-1,881,330,0,0
-336,694,0,0,0,0,0,0,0,0,0,-1,888,330,0,0
-329,694,0,0,0,0,0,0,0,0,0,-1,895,330,0,0
-322,694,0,0,0,0,0,0,0,0,0,-1,902,330,0,0
-315,694,0,0,0,0,0,0,0,0,0,-1,909,330,0,0
-308,694,0,0,0,0,0,0,0,0,0,-1,916,330,0,0
-301,694,0,0,0,0,0,0,0,0,0,-1,923,330,0,0
-294,694,0,0,0,0,0,0,0,0,0,-1,930,330,0,0
-287,694,0,0,0,0,0,0,0,0,0,-1,937,330,0,0
-280,694,0,0,0,0,0,0,0,0,0,-1,944,330,0,0
-273,694,0,0,0,0,0,0,0,0,0,-1,951,330,0,0
-266,694,0,0,0,0,0,0,0,0,0,-1,958,330,0,0
-259,694,0,0,0,0,0,0,0,0,0,-1,965,330,0,0
-252,694,0,0,0,0,0,0,0,0,0,-1,972,330,0,0
-245,694,0,0,0,0,0,0,0,0,0,-1,979,330,0,0
-238,694,0,0,0,0,0,0,0,0,0,-1,986,330,0,0
-231,694,0,0,0,0,0,0,0,0,0,-1,993,330,0,0
-224,694,0,0,0,0,0,0,0,0,0,-1,1000,330,0,0
-217,694,0,0,0,0,0,0,0,0,0,-1,1007,330,0,0
-210,694,0,0,0,0,0,0,0,0,0,-1,1014,330,0,0
-203,694,0,0,0,0,0,0,0,0,0,-1,1021,330,0,0
-196,694,0,0,0,0,0,0,0,0,0,-1,1028,330,0,0
-189,694,0,0,0,0,0,0,0,0,0,-1,1035,330,0,0
-182,694,0,0,0,0,0,0,0,0,0,-1,1042,330,0,0
-175,694,0,0,0,0,0,0,0,0,0,-1,1049,330,0,0
-168,694,0,0,0,0,0,0,0,0,0,-1,1056,330,0,0
-161,694,0,0,0,0,0,0,0,0,0,-1,1063,330,0,0
-154,694,0,0,0,0,0,0,0,0,0,-1,1070,330,0,0
-147,694,0,0,0,0,0,0,0,0,0,-1,1077,330,0,0
-140,694,0,0,0,0,0,0,0,0,0,-1,1084,330,0,0
-133,694,0,0,0,0,0,0,0,0,0,-1,1091,330,0,0
-126,694,0,0,0,0,0,0,0,0,0,-1,1098,330,0,0
-119,694,0,0,0,0,0,0,0,0,0,-1,1105,330,0,0
-112,694,0,0,0,0,0,0,0,0,0,-1,1112,330,0,0
-105,694,2.5188,-19.3963,0,0,0,0,0,0,0,-1,1119,330,2.51882,19.3963
-98,694,1.34875,-10.1051,0,0,0,0,0,0,0,-1,1126,330,1.34874,10.1051
-91,694,7.12927,-43.3935,0,0,0,0,0,0,0,-1,1133,330,7.12929,43.3935
-84,694,1.07324,-37.1586,0,0,0,0,0,0,0,-1,1140,330,1.07323,37.1586
-77,694,-5.02612,-31.0246,0,0,0,0,0,0,0,-1,1147,330,-5.02613,31.0246
-70,694,-11.1091,-23.8819,0,0,0,0,0,0,0,-1,1154,330,-11.1091,23.8819
-63,694,-17.3901,-16.7162,0,0,0,0,0,0,0,-1,1161,330,-17.3901,16.7162
-56,694,-6.50623,-0.649139,0,0,0,0,0,0,0,-1,1168,330,-6.5062,0.649126
-49,694,-1.11426,0.0341797,0,0,0,0,0,0,0,-1,1175,330,-1.11424,-0.0341846
-42,694,-0.346313,-0.709595,0,0,0,0,0,0,0,-1,1182,330,-0.346298,0.709581
-35,694,-0.459106,-1.24713,0,0,0,0,0,0,0,-1,1189,330,-0.459142,1.24714
-28,694,-6.48413,-3.95972,0,0,0,0,0,0,0,-1,1196,330,-6.48414,3.9597
-21,694,4.51855,-32.5075,0,0,0,0,0,0,0,-1,1203,330,4.51852,32.5075
-14,694,5.10095,-30.7724,0,0,0,0,0,0,0,-1,1210,330,5.10099,30.7724
-7,694,4.61084,-31.005,-0.0660566,0.073284,-0.0136863,0.0746155,-0.0673882,-1.47381,0.0820213,0.0447364,1217,330,4.61083,31.005
0,694,3.70996,-31.1865,-0.0603701,0.0668358,-0.0127552,0.0681022,-0.0616365,-1.47184,0.0749356,0.0451675,1224,330,3.70996,31.1865
7,694,2.86682,-31.4208,-0.054054,0.0648398,-0.0123615,0.0661115,-0.0553257,-1.46829,0.0702039,0.0452562,1231,330,2.86678,31.4208
14,694,2.3313,-31.4902,-0.0471339,0.0609789,-0.0108165,0.0620504,-0.0482055,-1.47205,0.0638233,0.0480981,1238,330,2.33135,31.4902
21,694,1.96851,-31.0433,0,0,0,0,0,0,0,-1,1245,330,1.96855,31.0433
28,694,1.42163,-30.3721,0,0,0,0,0,0,0,-1,1252,330,1.42165,30.3721
35,694,3.39075,-32.8096,-0.0225369,0.0583413,-0.00402026,0.0585407,-0.0227362,-1.52125,0.0484192,0.0479502,1259,330,3.3907,32.8096
42,694,3.38708,-32.5293,-0.0153055,0.0573369,-0.00189582,0.0573864,-0.0153549,-1.54472,0.0442726,0.0489363,1266,330,3.38709,32.5293
49,694,3.40186,-32.2539,0,0,0,0,0,0,0,-1,1273,330,3.40181,32.2539
56,694,4.78821,-33.5131,-0.00258034,0.0575995,0.00230569,0.0576877,-0.00266855,1.53256,0.0393781,0.0455104,1280,330,4.78826,33.5131
63,694,4.27356,-33.5613,0.00221523,0.058446,0.00380015,0.0587017,0.00195958,1.50362,0.0384979,0.0436204,1287,330,4.27355,33.5614
70,694,4.94043,-31.7135,0.00356898,0.058946,0.00502813,0.0593988,0.00311613,1.48098,0.0386024,0.0427767,1294,330,4.94046,31.7135
77,694,5.21448,-32.4454,0,0,0,0,0,0,0,-1,1301,330,5.21445,32.4454
84,694,5.17419,-33.3576,0.00464905,0.0564007,0.00500669,0.0568806,0.00416913,1.47523,0.0366099,0.0427907,1308,330,5.17422,33.3576
91,694,5.41919,-34.2077,0.00522377,0.0555121,0.00441192,0.0558962,0.00483963,1.48395,0.0357603,0.0455483,1315,330,5.41922,34.2077
98,694,3.19763,-32.8569,0,0,0,0,0,0,0,-1,1322,330,3.1976,32.8569
105,694,3.21814,-32.6035,0.004972,0.052591,0.0036801,0.0528738,0.00468928,1.49412,0.0337947,0.045534,1329,330,3.21811,32.6035
112,694,3.26453,-32.2674,0.00570358,0.0487035,0.00425783,0.049121,0.00528602,1.47304,0.0311353,0.0456227,1336,330,3.26457,32.2674
119,694,3.28516,-31.936,0.00642572,0.0501262,0.00370488,0.0504381,0.00611385,1.48682,0.0317841,0.0449612,1343,330,3.28516,31.936
126,694,3.39673,-31.873,0,0,0,0,0,0,0,-1,1350,330,3.39669,31.873
133,694,3.44055,-31.715,0.0111017,0.0513701,0.00635782,0.0523501,0.0101217,1.41787,0.0320632,0.046993,1357,330,3.44054,31.715
140,694,3.65112,-31.5086,0.0144392,0.0529929,0.0088674,0.0549346,0.0124975,1.35523,0.0332496,0.0476964,1364,330,3.6511,31.5086
147,694,4.08423,-31.6813,0,0,0,0,0,0,0,-1,1371,330,4.08418,31.6813
154,694,4.46179,-31.9199,0,0,0,0,0,0,0,-1,1378,330,4.46183,31.9199
161,694,3.92969,-26.2193,0,0,0,0,0,0,0,-1,1385,330,3.92966,26.2193
168,694,30.451,0.196686,0,0,0,0,0,0,0,-1,1392,330,30.4511,-0.196674
175,694,31.0701,0.869873,0,0,0,0,0,0,0,-1,1399,330,31.07,-0.869874
182,694,8.29028,5.75238,0,0,0,0,0,0,0,-1,1406,330,8.29034,-5.75237
189,694,7.9801,4.46118,0,0,0,0,0,0,0,-1,1413,330,7.9801,-4.46118
196,694,7.39331,3.32632,0,0,0,0,0,0,0,-1,1420,330,7.39329,-3.32633
203,694,7.04492,2.20529,0,0,0,0,0,0,0,-1,1427,330,7.04496,-2.20529
210,694,6.44714,0.646912,0,0,0,0,0,0,0,-1,1434,330,6.44717,-0.646903
217,694,7.12061,-0.644958,0,0,0,0,0,0,0,-1,1441,330,7.12059,0.644961
224,694,6.74011,-1.70544,0,0,0,0,0,0,0,-1,1448,330,6.74013,1.70546
231,694,0,0,0,0,0,0,0,0,0,-1,1455,330,0,0
238,694,0,0,0,0,0,0,0,0,0,-1,1462,330,0,0
245,694,0,0,0,0,0,0,0,0,0,-1,1469,330,0,0
252,694,0,0,0,0,0,0,0,0,0,-1,1476,330,0,0
259,694,0,0,0,0,0,0,0,0,0,-1,1483,330,0,0
266,694,0,0,0,0,0,0,0,0,0,-1,1490,330,0,0
273,694,0,0,0,0,0,0,0,0,0,-1,1497,330,0,0
280,694,0,0,0,0,0,0,0,0,0,-1,1504,330,0,0
287,694,0,0,0,0,0,0,0,0,0,-1,1511,330,0,0
294,694,0,0,0,0,0,0,0,0,0,-1,1518,330,0,0
301,694,0,0,0,0,0,0,0,0,0,-1,1525,330,0,0
308,694,0,0,0,0,0,0,0,0,0,-1,1532,330,0,0
315,694,0,0,0,0,0,0,0,0,0,-1,1539,330,0,0
322,694,0,0,0,0,0,0,0,0,0,-1,1546,330,0,0
329,694,0,0,0,0,0,0,0,0,0,-1,1553,330,0,0
336,694,0,0,0,0,0,0,0,0,0,-1,1560,330,0,0
343,694,0,0,0,0,0,0,0,0,0,-1,1567,330,0,0
350,694,0,0,0,0,0,0,0,0,0,-1,1574,330,0,0
357,694,0,0,0,0,0,0,0,0,0,-1,1581,330,0,0
364,694,0,0,0,0,0,0,0,0,0,-1,1588,330,0,0
371,694,0,0,0,0,0,0,0,0,0,-1,1595,330,0,0
378,694,0,0,0,0,0,0,0,0,0,-1,1602,330,0,0
385,694,0,0,0,0,0,0,0,0,0,-1,1609,330,0,0
392,694,0,0,0,0,0,0,0,0,0,-1,1616,330,0,0
399,694,0,0,0,0,0,0,0,0,0,-1,1623,330,0,0
406,694,0,0,0,0,0,0,0,0,0,-1,1630,330,0,0
413,694,0,0,0,0,0,0,0,0,0,-1,1637,330,0,0
420,694,0,0,0,0,0,0,0,0,0,-1,1644,330,0,0
427,694,0,0,0,0,0,0,0,0,0,-1,1651,330,0,0
434,694,0,0,0,0,0,0,0,0,0,-1,1658,330,0,0
441,694,0,0,0,0,0,0,0,0,0,-1,1665,330,0,0
448,694,0,0,0,0,0,0,0,0,0,-1,1672,330,0,0
455,694,0,0,0,0,0,0,0,0,0,-1,1679,330,0,0
462,694,0,0,0,0,0,0,0,0,0,-1,1686,330,0,0
469,694,0,0,0,0,0,0,0,0,0,-1,1693,330,0,0
476,694,0,0,0,0,0,0,0,0,0,-1,1700,330,0,0
483,694,0,0,0,0,0,0,0,0,0,-1,1707,330,0,0
490,694,0,0,0,0,0,0,0,0,0,-1,1714,330,0,0
497,694,0,0,0,0,0,0,0,0,0,-1,1721,330,0,0
504,694,0,0,0,0,0,0,0,0,0,-1,1728,330,0,0
511,694,0,0,0,0,0,0,0,0,0,-1,1735,330,0,0
518,694,0,0,0,0,0,0,0,0,0,-1,1742,330,0,0
525,694,0,0,0,0,0,0,0,0,0,-1,1749,330,0,0
532,694,0,0,0,0,0,0,0,0,0,-1,1756,330,0,0
539,694,0,0,0,0,0,0,0,0,0,-1,1763,330,0,0
546,694,0,0,0,0,0,0,0,0,0,-1,1770,330,0,0
553,694,0,0,0,0,0,0,0,0,0,-1,1777,330,0,0
560,694,0,0,0,0,0,0,0,0,0,-1,1784,330,0,0
567,694,0,0,0,0,0,0,0,0,0,-1,1791,330,0,0
574,694,0,0,0,0,0,0,0,0,0,-1,1798,330,0,0
581,694,0,0,0,0,0,0,0,0,0,-1,1805,330,0,0
588,694,0,0,0,0,0,0,0,0,0,-1,1812,330,0,0
595,694,0,0,0,0,0,0,0,0,0,-1,1819,330,0,0
602,694,0,0,0,0,0,0,0,0,0,-1,1826,330,0,0
609,694,0,0,0,0,0,0,0,0,0,-1,1833,330,0,0
616,694,0,0,0,0,0,0,0,0,0,-1,1840,330,0,0
623,694,0,0,0,0,0,0,0,0,0,-1,1847,330,0,0
630,694,0,0,0,0,0,0,0,0,0,-1,1854,330,0,0
637,694,0,0,0,0,0,0,0,0,0,-1,1861,330,0,0
644,694,0,0,0,0,0,0,0,0,0,-1,1868,330,0,0
651,694,0,0,0,0,0,0,0,0,0,-1,1875,330,0,0
658,694,0,0,0,0,0,0,0,0,0,-1,1882,330,0,0
665,694,0,0,0,0,0,0,0,0,0,-1,1889,330,0,0
672,694,0,0,0,0,0,0,0,0,0,-1,1896,330,0,0
679,694,0,0,0,0,0,0,0,0,0,-1,1903,330,0,0
686,694,0,0,0,0,0,0,0,0,0,-1,1910,330,0,0
693,694,0,0,0,0,0,0,0,0,0,-1,1917,330,0,0
700,694,0,0,0,0,0,0,0,0,0,-1,1924,330,0,0
707,694,0,0,0,0,0,0,0,0,0,-1,1931,330,0,0
714,694,0,0,0,0,0,0,0,0,0,-1,1938,330,0,0
721,694,0,0,0,0,0,0,0,0,0,-1,1945,330,0,0
728,694,0,0,0,0,0,0,0,0,0,-1,1952,330,0,0
735,694,0,0,0,0,0,0,0,0,0,-1,1959,330,0,0
742,694,0,0,0,0,0,0,0,0,0,-1,1966,330,0,0
749,694,0,0,0,0,0,0,0,0,0,-1,1973,330,0,0
756,694,0,0,0,0,0,0,0,0,0,-1,1980,330,0,0
763,694,0,0,0,0,0,0,0,0,0,-1,1987,330,0,0
770,694,0,0,0,0,0,0,0,0,0,-1,1994,330,0,0
777,694,0,0,0,0,0,0,0,0,0,-1,2001,330,0,0
784,694,0,0,0,0,0,0,0,0,0,-1,2008,330,0,0
791,694,0,0,0,0,0,0,0,0,0,-1,2015,330,0,0
798,694,0,0,0,0,0,0,0,0,0,-1,2022,330,0,0
805,694,0,0,0,0,0,0,0,0,0,-1,2029,330,0,0
812,694,0,0,0,0,0,0,0,0,0,-1,2036,330,0,0
-700,687,0,0,0,0,0,0,0,0,0,-1,524,337,0,0
-693,687,0,0,0,0,0,0,0,0,0,-1,531,337,0,0
-686,687,0,0,0,0,0,0,0,0,0,-1,538,337,0,0
-679,687,0,0,0,0,0,0,0,0,0,-1,545,337,0,0
-672,687,0,0,0,0,0,0,0,0,0,-1,552,337,0,0
-665,687,0,0,0,0,0,0,0,0,0,-1,559,337,0,0
-658,687,0,0,0,0,0,0,0,0,0,-1,566,337,0,0
-651,687,0,0,0,0,0,0,0,0,0,-1,573,337,0,0
-644,687,0,0,0,0,0,0,0,0,0,-1,580,337,0,0
-637,687,0,0,0,0,0,0,0,0,0,-1,587,337,0,0
-630,687,0,0,0,0,0,0,0,0,0,-1,594,337,0,0
-623,687,0,0,0,0,0,0,0,0,0,-1,601,337,0,0
-616,687,0,0,0,0,0,0,0,0,0,-1,608,337,0,0
-609,687,0,0,0,0,0,0,0,0,0,-1,615,337,0,0
-602,687,0,0,0,0,0,0,0,0,0,-1,622,337,0,0
-595,687,0,0,0,0,0,0,0,0,0,-1,629,337,0,0
-588,687,0,0,0,0,0,0,0,0,0,-1,636,337,0,0
-581,687,0,0,0,0,0,0,0,0,0,-1,643,337,0,0
-574,687,0,0,0,0,0,0,0,0,0,-1,650,337,0,0
-567,687,0,0,0,0,0,0,0,0,0,-1,657,337,0,0
-560,687,0,0,0,0,0,0,0,0,0,-1,664,337,0,0
-553,687,0,0,0,0,0,0,0,0,0,-1,671,337,0,0
-546,687,0,0,0,0,0,0,0,0,0,-1,678,337,0,0
-539,687,0,0,0,0,0,0,0,0,0,-1,685,337,0,0
-532,687,0,0,0,0,0,0,0,0,0,-1,692,337,0,0
-525,687,0,0,0,0,0,0,0,0,0,-1,699,337,0,0
-518,687,0,0,0,0,0,0,0,0,0,-1,706,337,0,0
-511,687,0,0,0,0,0,0,0,0,0,-1,713,337,0,0
-504,687,0,0,0,0,0,0,0,0,0,-1,720,337,0,0
-497,687,0,0,0,0,0,0,0,0,0,-1,727,337,0,0
-490,687,0,0,0,0,0,0,0,0,0,-1,734,337,0,0
-483,687,0,0,0,0,0,0,0,0,0,-1,741,337,0,0
-476,687,0,0,0,0,0,0,0,0,0,-1,748,337,0,0
-469,687,0,0,0,0,0,0,0,0,0,-1,755,337,0,0
-462,687,0,0,0,0,0,0,0,0,0,-1,762,337,0,0
-455,687,0,0,0,0,0,0,0,0,0,-1,769,337,0,0
-448,687,0,0,0,0,0,0,0,0,0,-1,776,337,0,0
-441,687,0,0,0,0,0,0,0,0,0,-1,783,337,0,0
-434,687,0,0,0,0,0,0,0,0,0,-1,790,337,0,0
-427,687,0,0,0,0,0,0,0,0,0,-1,797,337,0,0
-420,687,0,0,0,0,0,0,0,0,0,-1,804,337,0,0
-413,687,0,0,0,0,0,0,0,0,0,-1,811,337,0,0
-406,687,0,0,0,0,0,0,0,0,0,-1,818,337,0,0
-399,687,0,0,0,0,0,0,0,0,0,-1,825,337,0,0
-392,687,0,0,0,0,0,0,0,0,0,-1,832,337,0,0
-385,687,0,0,0,0,0,0,0,0,0,-1,839,337,0,0
-378,687,0,0,0,0,0,0,0,0,0,-1,846,337,0,0
-371,687,0,0,0,0,0,0,0,0,0,-1,853,337,0,0
-364,687,0,0,0,0,0,0,0,0,0,-1,860,337,0,0
-357,687,0,0,0,0,0,0,0,0,0,-1,867,337,0,0
-350,687,0,0,0,0,0,0,0,0,0,-1,874,337,0,0
-343,687,0,0,0,0,0,0,0,0,0,-1,881,337,0,0
-336,687,0,0,0,0,0,0,0,0,0,-1,888,337,0,0
-329,687,0,0,0,0,0,0,0,0,0,-1,895,337,0,0
-322,687,0,0,0,0,0,0,0,0,0,-1,902,337,0,0
-315,687,0,0,0,0,0,0,0,0,0,-1,909,337,0,0
-308,687,0,0,0,0,0,0,0,0,0,-1,916,337,0,0
-301,687,0,0,0,0,0,0,0,0,0,-1,923,337,0,0
-294,687,0,0,0,0,0,0,0,0,0,-1,930,337,0,0
-287,687,0,0,0,0,0,0,0,0,0,-1,937,337,0,0
-280,687,0,0,0,0,0,0,0,0,0,-1,944,337,0,0
-273,687,0,0,0,0,0,0,0,0,0,-1,951,337,0,0
-266,687,0,0,0,0,0,0,0,0,0,-1,958,337,0,0
-259,687,0,0,0,0,0,0,0,0,0,-1,965,337,0,0
-252,687,0,0,0,0,0,0,0,0,0,-1,972,337,0,0
-245,687,0,0,0,0,0,0,0,0,0,-1,979,337,0,0
-238,687,0,0,0,0,0,0,0,0,0,-1,986,337,0,0
-231,687,0,0,0,0,0,0,0,0,0,-1,993,337,0,0
-224,687,0,0,0,0,0,0,0,0,0,-1,1000,337,0,0
-217,687,0,0,0,0,0,0,0,0,0,-1,1007,337,0,0
-210,687,0,0,0,0,0,0,0,0,0,-1,1014,337,0,0
-203,687,0,0,0,0,0,0,0,0,0,-1,1021,337,0,0
-196,687,0,0,0,0,0,0,0,0,0,-1,1028,337,0,0
-189,687,0,0,0,0,0,0,0,0,0,-1,1035,337,0,0
-182,687,0,0,0,0,0,0,0,0,0,-1,1042,337,0,0
-175,687,0,0,0,0,0,0,0,0,0,-1,1049,337,0,0
-168,687,0,0,0,0,0,0,0,0,0,-1,1056,337,0,0
-161,687,0,0,0,0,0,0,0,0,0,-1,1063,337,0,0
-154,687,0,0,0,0,0,0,0,0,0,-1,1070,337,0,0
-147,687,0,0,0,0,0,0,0,0,0,-1,1077,337,0,0
-140,687,0,0,0,0,0,0,0,0,0,-1,1084,337,0,0
-133,687,6.45044,-32.4885,0,0,0,0,0,0,0,-1,1091,337,6.4505,32.4885
-126,687,6.78955,-32.6633,0,0,0,0,0,0,0,-1,1098,337,6.78952,32.6633
-119,687,7.8457,-29.9218,0,0,0,0,0,0,0,-1,1105,337,7.84569,29.9218
-112,687,7.16846,-29.0458,0,0,0,0,0,0,0,-1,1112,337,7.16844,29.0458
-105,687,6.71155,-27.9981,0,0,0,0,0,0,0,-1,1119,337,6.7116,27.9981
-98,687,13.5825,-44.6227,0,0,0,0,0,0,0,-1,1126,337,13.5825,44.6227
-91,687,7.73694,-38.4884,0,0,0,0,0,0,0,-1,1133,337,7.73693,38.4884
-84,687,1.797,-32.6166,0,0,0,0,0,0,0,-1,1140,337,1.79697,32.6166
-77,687,-4.23816,-26.3512,0,0,0,0,0,0,0,-1,1147,337,-4.23819,26.3512
-70,687,-10.2548,-19.4462,0,0,0,0,0,0,0,-1,1154,337,-10.2548,19.4462
-63,687,-16.4756,-12.504,0,0,0,0,0,0,0,-1,1161,337,-16.4756,12.504
-56,687,-18.104,7.81931,0,0,0,0,0,0,0,-1,1168,337,-18.104,-7.81931
-49,687,-15.6449,-9.94391,0,0,0,0,0,0,0,-1,1175,337,-15.6449,9.94392
-42,687,-4.2019,-0.405609,0,0,0,0,0,0,0,-1,1182,337,-4.20192,0.405614
-35,687,-4.42273,-0.688171,0,0,0,0,0,0,0,-1,1189,337,-4.42276,0.688178
-28,687,-1.14038,-1.39072,0,0,0,0,0,0,0,-1,1196,337,-1.14035,1.3907
-21,687,5.71924,-31.2799,0,0,0,0,0,0,0,-1,1203,337,5.71923,31.2799
-14,687,5.21521,-31.5762,-0.0519363,0.0656834,-0.0126015,0.0670184,-0.0532712,-1.46525,0.0696002,0.0495814,1210,337,5.21523,31.5762
-7,687,4.71558,-31.8825,-0.0485508,0.0612278,-0.0122805,0.0625848,-0.0499078,-1.46074,0.065085,0.0452807,1217,337,4.71563,31.8825
0,687,4.68567,-32.3529,-0.0446756,0.056575,-0.011611,0.0578895,-0.0459901,-1.45807,0.0601059,0.0492155,1224,337,4.68564,32.3529
7,687,2.7301,-31.869,0,0,0,0,0,0,0,-1,1231,337,2.73015,31.869
14,687,2.55115,-31.3871,0,0,0,0,0,0,0,-1,1238,337,2.55119,31.3871
21,687,2.04712,-31.1462,0,0,0,0,0,0,0,-1,1245,337,2.04717,31.1462
28,687,3.75842,-33.0038,-0.0238555,0.0501093,-0.00593512,0.0505825,-0.0243287,-1.49123,0.0441265,0.0464643,1252,337,3.75845,33.0038
35,687,3.854,-32.9089,-0.017637,0.0497643,-0.00389586,0.0499888,-0.0178614,-1.51325,0.0406108,0.0453663,1259,337,3.85396,32.9089
42,687,3.9679,-32.7393,-0.0123619,0.0486992,-0.00176074,0.0487499,-0.0124126,-1.54199,0.0373318,0.0480987,1266,337,3.96789,32.7393
49,687,4.26904,-32.807,0,0,0,0,0,0,0,-1,1273,337,4.26903,32.807
56,687,4.4093,-32.9043,0,0,0,0,0,0,0,-1,1280,337,4.40929,32.9043
63,687,4.31897,-33.218,-4.70933e-05,0.0495462,0.00387328,0.0498469,-0.00034778,1.49332,0.0333478,0.043933,1287,337,4.31902,33.2179
70,687,4.36304,-32.1828,0.000779788,0.0501525,0.00508395,0.0506706,0.000261726,1.46925,0.0336935,0.0420268,1294,337,4.36303,32.1828
77,687,3.9281,-31.8149,0,0,0,0,0,0,0,-1,1301,337,3.92816,31.8149
84,687,4.63123,-33.2903,0.00109263,0.0481304,0.00523523,0.048706,0.000517001,1.46128,0.0322997,0.0453031,1308,337,4.63126,33.2902
91,687,4.61426,-32.0943,0.00146226,0.0474492,0.00471223,0.0479271,0.000984367,1.46973,0.0316284,0.0471049,1315,337,4.61428,32.0943
98,687,4.80786,-31.6475,0.00135537,0.046267,0.00445005,0.0467037,0.000918686,1.47298,0.0308342,0.0442546,1322,337,4.80789,31.6475
105,687,3.48926,-33.5711,0.00108252,0.0450276,0.00378092,0.0453505,0.000759592,1.48559,0.0299837,0.0478806,1329,337,3.48927,33.5711
112,687,3.20251,-32.8748,0.00167917,0.0417718,0.00396234,0.0421596,0.00129132,1.47322,0.027686,0.0475427,1336,337,3.20254,32.8748
119,687,3.08997,-32.482,0.00230953,0.0428167,0.00311791,0.0430553,0.00207094,1.49442,0.0280387,0.0463727,1343,337,3.08994,32.482
126,687,3.38171,-32.3526,0,0,0,0,0,0,0,-1,1350,337,3.38176,32.3526
133,687,3.58838,-32.1451,0.00605243,0.042953,0.00443819,0.0434793,0.00552614,1.45276,0.027331,0.0467199,1357,337,3.58844,32.1451
140,687,3.84192,-32.0549,0.00850118,0.0440343,0.00610047,0.0450524,0.007483,1.40542,0.0278774,0.0490264,1364,337,3.84187,32.0549
147,687,4.0354,-31.9119,0,0,0,0,0,0,0,-1,1371,337,4.03535,31.9119
154,687,3.06482,-29.9561,0,0,0,0,0,0,0,-1,1378,337,3.06482,29.9561
161,687,29.3895,-1.90628,0,0,0,0,0,0,0,-1,1385,337,29.3895,1.90628
168,687,29.8564,-1.19434,0,0,0,0,0,0,0,-1,1392,337,29.8564,1.19434
175,687,30.3419,-0.453583,0,0,0,0,0,0,0,-1,1399,337,30.3419,0.45357
182,687,6.67249,0.289917,0,0,0,0,0,0,0,-1,1406,337,6.67247,-0.289916
189,687,7.76062,4.53635,0,0,0,0,0,0,0,-1,1413,337,7.76064,-4.53636
196,687,6.99048,3.2966,0,0,0,0,0,0,0,-1,1420,337,6.99046,-3.2966
203,687,6.36499,2.1445,0,0,0,0,0,0,0,-1,1427,337,6.36499,-2.14451
210,687,6.68066,0.674652,0,0,0,0,0,0,0,-1,1434,337,6.68062,-0.674655
217,687,5.99683,-0.630493,0,0,0,0,0,0,0,-1,1441,337,5.99684,0.630497
224,687,5.52917,0.524902,0,0,0,0,0,0,0,-1,1448,337,5.5292,-0.524915
231,687,5.85583,-1.73651,0,0,0,0,0,0,0,-1,1455,337,5.85577,1.73651
238,687,5.96582,-2.96774,0,0,0,0,0,0,0,-1,1462,337,5.96577,2.96773
245,687,1.28259,2.32211,0,0,0,0,0,0,0,-1,1469,337,1.28258,-2.32211
252,687,1.97278,3.88422,0,0,0,0,0,0,0,-1,1476,337,1.97281,-3.88421
259,687,0,0,0,0,0,0,0,0,0,-1,1483,337,0,0
266,687,0,0,0,0,0,0,0,0,0,-1,1490,337,0,0
273,687,0,0,0,0,0,0,0,0,0,-1,1497,337,0,0
280,687,0,0,0,0,0,0,0,0,0,-1,1504,337,0,0
287,687,0,0,0,0,0,0,0,0,0,-1,1511,337,0,0
294,687,0,0,0,0,0,0,0,0,0,-1,1518,337,0,0
301,687,0,0,0,0,0,0,0,0,0,-1,1525,337,0,0
308,687,0,0,0,0,0,0,0,0,0,-1,1532,337,0,0
315,687,0,0,0,0,0,0,0,0,0,-1,1539,337,0,0
322,687,0,0,0,0,0,0,0,0,0,-1,1546,337,0,0
329,687,0,0,0,0,0,0,0,0,0,-1,1553,337,0,0
336,687,0,0,0,0,0,0,0,0,0,-1,1560,337,0,0
343,687,0,0,0,0,0,0,0,0,0,-1,1567,337,0,0
350,687,0,0,0,0,0,0,0,0,0,-1,1574,337,0,0
357,687,0,0,0,0,0,0,0,0,0,-1,1581,337,0,0
364,687,0,0,0,0,0,0,0,0,0,-1,1588,337,0,0
371,687,0,0,0,0,0,0,0,0,0,-1,1595,337,0,0
378,687,0,0,0,0,0,0,0,0,0,-1,1602,337,0,0
385,687,0,0,0,0,0,0,0,0,0,-1,1609,337,0,0
392,687,0,0,0,0,0,0,0,0,0,-1,1616,337,0,0
399,687,0,0,0,0,0,0,0,0,0,-1,1623,337,0,0
406,687,0,0,0,0,0,0,0,0,0,-1,1630,337,0,0
413,687,0,0,0,0,0,0,0,0,0,-1,1637,337,0,0
420,687,0,0,0,0,0,0,0,0,0,-1,1644,337,0,0
427,687,0,0,0,0,0,0,0,0,0,-1,1651,337,0,0
434,687,0,0,0,0,0,0,0,0,0,-1,1658,337,0,0
441,687,0,0,0,0,0,0,0,0,0,-1,1665,337,0,0
448,687,0,0,0,0,0,0,0,0,0,-1,1672,337,0,0
455,687,0,0,0,0,0,0,0,0,0,-1,1679,337,0,0
462,687,0,0,0,0,0,0,0,0,0,-1,1686,337,0,0
469,687,0,0,0,0,0,0,0,0,0,-1,1693,337,0,0
476,687,0,0,0,0,0,0,0,0,0,-1,1700,337,0,0
483,687,0,0,0,0,0,0,0,0,0,-1,1707,337,0,0
490,687,0,0,0,0,0,0,0,0,0,-1,1714,337,0,0
497,687,0,0,0,0,0,0,0,0,0,-1,1721,337,0,0
504,687,0,0,0,0,0,0,0,0,0,-1,1728,337,0,0
511,687,0,0,0,0,0,0,0,0,0,-1,1735,337,0,0
518,687,0,0,0,0,0,0,0,0,0,-1,1742,337,0,0
525,687,0,0,0,0,0,0,0,0,0,-1,1749,337,0,0
532,687,0,0,0,0,0,0,0,0,0,-1,1756,337,0,0
539,687,0,0,0,0,0,0,0,0,0,-1,1763,337,0,0
546,687,0,0,0,0,0,0,0,0,0,-1,1770,337,0,0
553,687,0,0,0,0,0,0,0,0,0,-1,1777,337,0,0
560,687,0,0,0,0,0,0,0,0,0,-1,1784,337,0,0
567,687,0,0,0,0,0,0,0,0,0,-1,1791,337,0,0
574,687,0,0,0,0,0,0,0,0,0,-1,1798,337,0,0
581,687,0,0,0,0,0,0,0,0,0,-1,1805,337,0,0
588,687,0,0,0,0,0,0,0,0,0,-1,1812,337,0,0
595,687,0,0,0,0,0,0,0,0,0,-1,1819,337,0,0
602,687,0,0,0,0,0,0,0,0,0,-1,1826,337,0,0
609,687,0,0,0,0,0,0,0,0,0,-1,1833,337,0,0
616,687,0,0,0,0,0,0,0,0,0,-1,1840,337,0,0
623,687,0,0,0,0,0,0,0,0,0,-1,1847,337,0,0
630,687,0,0,0,0,0,0,0,0,0,-1,1854,337,0,0
637,687,0,0,0,0,0,0,0,0,0,-1,1861,337,0,0
644,687,0,0,0,0,0,0,0,0,0,-1,1868,337,0,0
651,687,0,0,0,0,0,0,0,0,0,-1,1875,337,0,0
658,687,0,0,0,0,0,0,0,0,0,-1,1882,337,0,0
665,687,0,0,0,0,0,0,0,0,0,-1,1889,337,0,0
672,687,0,0,0,0,0,0,0,0,0,-1,1896,337,0,0
679,687,0,0,0,0,0,0,0,0,0,-1,1903,337,0,0
686,687,0,0,0,0,0,0,0,0,0,-1,1910,337,0,0
693,687,0,0,0,0,0,0,0,0,0,-1,1917,337,0,0
700,687,0,0,0,0,0,0,0,0,0,-1,1924,337,0,0
707,687,0,0,0,0,0,0,0,0,0,-1,1931,337,0,0
714,687,0,0,0,0,0,0,0,0,0,-1,1938,337,0,0
721,687,0,0,0,0,0,0,0,0,0,-1,1945,337,0,0
728,687,0,0,0,0,0,0,0,0,0,-1,1952,337,0,0
735,687,0,0,0,0,0,0,0,0,0,-1,1959,337,0,0
742,687,0,0,0,0,0,0,0,0,0,-1,1966,337,0,0
749,687,0,0,0,0,0,0,0,0,0,-1,1973,337,0,0
756,687,0,0,0,0,0,0,0,0,0,-1,1980,337,0,0
763,687,0,0,0,0,0,0,0,0,0,-1,1987,337,0,0
770,687,0,0,0,0,0,0,0,0,0,-1,1994,337,0,0
777,687,0,0,0,0,0,0,0,0,0,-1,2001,337,0,0
784,687,0,0,0,0,0,0,0,0,0,-1,2008,337,0,0
791,687,0,0,0,0,0,0,0,0,0,-1,2015,337,0,0
798,687,0,0,0,0,0,0,0,0,0,-1,2022,337,0,0
805,687,0,0,0,0,0,0,0,0,0,-1,2029,337,0,0
812,687,0,0,0,0,0,0,0,0,0,-1,2036,337,0,0
-700,680,0,0,0,0,0,0,0,0,0,-1,524,344,0,0
-693,680,0,0,0,0,0,0,0,0,0,-1,531,344,0,0
-686,680,0,0,0,0,0,0,0,0,0,-1,538,344,0,0
-679,680,0,0,0,0,0,0,0,0,0,-1,545,344,0,0
-672,680,0,0,0,0,0,0,0,0,0,-1,552,344,0,0
-665,680,0,0,0,0,0,0,0,0,0,-1,559,344,0,0
-658,680,0,0,0,0,0,0,0,0,0,-1,566,344,0,0
-651,680,0,0,0,0,0,0,0,0,0,-1,573,344,0,0
-644,680,0,0,0,0,0,0,0,0,0,-1,580,344,0,0
-637,680,0,0,0,0,0,0,0,0,0,-1,587,344,0,0
-630,680,0,0,0,0,0,0,0,0,0,-1,594,344,0,0
-623,680,0,0,0,0,0,0,0,0,0,-1,601,344,0,0
-616,680,0,0,0,0,0,0,0,0,0,-1,608,344,0,0
-609,680,0,0,0,0,0,0,0,0,0,-1,615,344,0,0
-602,680,0,0,0,0,0,0,0,0,0,-1,622,344,0,0
-595,680,0,0,0,0,0,0,0,0,0,-1,629,344,0,0
-588,680,0,0,0,0,0,0,0,0,0,-1,636,344,0,0
-581,680,0,0,0,0,0,0,0,0,0,-1,643,344,0,0
-574,680,0,0,0,0,0,0,0,0,0,-1,650,344,0,0
-567,680,0,0,0,0,0,0,0,0,0,-1,657,344,0,0
-560,680,0,0,0,0,0,0,0,0,0,-1,664,344,0,0
-553,680,0,0,0,0,0,0,0,0,0,-1,671,344,0,0
-546,680,0,0,0,0,0,0,0,0,0,-1,678,344,0,0
-539,680,0,0,0,0,0,0,0,0,0,-1,685,344,0,0
-532,680,0,0,0,0,0,0,0,0,0,-1,692,344,0,0
-525,680,0,0,0,0,0,0,0,0,0,-1,699,344,0,0
-518,680,0,0,0,0,0,0,0,0,0,-1,706,344,0,0
-511,680,0,0,0,0,0,0,0,0,0,-1,713,344,0,0
-504,680,0,0,0,0,0,0,0,0,0,-1,720,344,0,0
-497,680,0,0,0,0,0,0,0,0,0,-1,727,344,0,0
-490,680,0,0,0,0,0,0,0,0,0,-1,734,344,0,0
-483,680,0,0,0,0,0,0,0,0,0,-1,741,344,0,0
-476,680,0,0,0,0,0,0,0,0,0,-1,748,344,0,0
-469,680,0,0,0,0,0,0,0,0,0,-1,755,344,0,0
-462,680,0,0,0,0,0,0,0,0,0,-1,762,344,0,0
-455,680,0,0,0,0,0,0,0,0,0,-1,769,344,0,0
-448,680,0,0,0,0,0,0,0,0,0,-1,776,344,0,0
-441,680,0,0,0,0,0,0,0,0,0,-1,783,344,0,0
-434,680,0,0,0,0,0,0,0,0,0,-1,790,344,0,0
-427,680,0,0,0,0,0,0,0,0,0,-1,797,344,0,0
-420,680,0,0,0,0,0,0,0,0,0,-1,804,344,0,0
-413,680,0,0,0,0,0,0,0,0,0,-1,811,344,0,0
-406,680,0,0,0,0,0,0,0,0,0,-1,818,344,0,0
-399,680,0,0,0,0,0,0,0,0,0,-1,825,344,0,0
-392,680,0,0,0,0,0,0,0,0,0,-1,832,344,0,0
-385,680,0,0,0,0,0,0,0,0,0,-1,839,344,0,0
-378,680,0,0,0,0,0,0,0,0,0,-1,846,344,0,0
-371,680,0,0,0,0,0,0,0,0,0,-1,853,344,0,0
-364,680,0,0,0,0,0,0,0,0,0,-1,860,344,0,0
-357,680,0,0,0,0,0,0,0,0,0,-1,867,344,0,0
-350,680,0,0,0,0,0,0,0,0,0,-1,874,344,0,0
-343,680,0,0,0,0,0,0,0,0,0,-1,881,344,0,0
-336,680,0,0,0,0,0,0,0,0,0,-1,888,344,0,0
-329,680,0,0,0,0,0,0,0,0,0,-1,895,344,0,0
-322,680,0,0,0,0,0,0,0,0,0,-1,902,344,0,0
-315,680,0,0,0,0,0,0,0,0,0,-1,909,344,0,0
-308,680,0,0,0,0,0,0,0,0,0,-1,916,344,0,0
-301,680,0,0,0,0,0,0,0,0,0,-1,923,344,0,0
-294,680,0,0,0,0,0,0,0,0,0,-1,930,344,0,0
-287,680,0,0,0,0,0,0,0,0,0,-1,937,344,0,0
-280,680,0,0,0,0,0,0,0,0,0,-1,944,344,0,0
-273,680,0,0,0,0,0,0,0,0,0,-1,951,344,0,0
-266,680,0,0,0,0,0,0,0,0,0,-1,958,344,0,0
-259,680,0,0,0,0,0,0,0,0,0,-1,965,344,0,0
-252,680,0,0,0,0,0,0,0,0,0,-1,972,344,0,0
-245,680,0,0,0,0,0,0,0,0,0,-1,979,344,0,0
-238,680,0,0,0,0,0,0,0,0,0,-1,986,344,0,0
-231,680,0,0,0,0,0,0,0,0,0,-1,993,344,0,0
-224,680,0,0,0,0,0,0,0,0,0,-1,1000,344,0,0
-217,680,0,0,0,0,0,0,0,0,0,-1,1007,344,0,0
-210,680,0,0,0,0,0,0,0,0,0,-1,1014,344,0,0
-203,680,0,0,0,0,0,0,0,0,0,-1,1021,344,0,0
-196,680,0,0,0,0,0,0,0,0,0,-1,1028,344,0,0
-189,680,0,0,0,0,0,0,0,0,0,-1,1035,344,0,0
-182,680,0,0,0,0,0,0,0,0,0,-1,1042,344,0,0
-175,680,0,0,0,0,0,0,0,0,0,-1,1049,344,0,0
-168,680,0,0,0,0,0,0,0,0,0,-1,1056,344,0,0
-161,680,0,0,0,0,0,0,0,0,0,-1,1063,344,0,0
-154,680,2.25244,-29.1442,0,0,0,0,0,0,0,-1,1070,344,2.25241,29.1442
-147,680,5.75867,-30.2404,0,0,0,0,0,0,0,-1,1077,344,5.75868,30.2404
-140,680,5.44031,-31.4833,0,0,0,0,0,0,0,-1,1084,344,5.4403,31.4833
-133,680,5.77991,-31.6828,0,0,0,0,0,0,0,-1,1091,344,5.77985,31.6828
-126,680,6.02063,-31.9087,0,0,0,0,0,0,0,-1,1098,344,6.02067,31.9087
-119,680,7.25037,-29.8569,0,0,0,0,0,0,0,-1,1105,344,7.25037,29.8569
-112,680,7.65002,-28.9064,0,0,0,0,0,0,0,-1,1112,344,7.65001,28.9064
-105,680,8.12,-27.7806,0,0,0,0,0,0,0,-1,1119,344,8.12,27.7806
-98,680,14.1224,-39.1392,0,0,0,0,0,0,0,-1,1126,344,14.1225,39.1392
-91,680,8.3208,-33.7806,0,0,0,0,0,0,0,-1,1133,344,8.32075,33.7806
-84,680,2.49768,-28.4062,0,0,0,0,0,0,0,-1,1140,344,2.49767,28.4062
-77,680,-3.48523,-21.6401,0,0,0,0,0,0,0,-1,1147,344,-3.48523,21.6402
-70,680,-9.48633,-14.8963,0,0,0,0,0,0,0,-1,1154,344,-9.48631,14.8963
-63,680,-15.8588,-2.46805,0,0,0,0,0,0,0,-1,1161,344,-15.8587,2.46806
-56,680,-6.96912,-8.83356,0,0,0,0,0,0,0,-1,1168,344,-6.96907,8.83354
-49,680,-6.7677,-2.24063,0,0,0,0,0,0,0,-1,1175,344,-6.76772,2.24063
-42,680,-1.02368,0.618805,0,0,0,0,0,0,0,-1,1182,344,-1.0237,-0.618797
-35,680,-0.947876,-0.942719,0,0,0,0,0,0,0,-1,1189,344,-0.947842,0.942731
-28,680,-1.46118,-1.10574,0,0,0,0,0,0,0,-1,1196,344,-1.4612,1.10575
-21,680,4.41296,-32.1291,0,0,0,0,0,0,0,-1,1203,344,4.41302,32.1291
-14,680,4.64319,-32.2438,-0.0371242,0.0527916,-0.010688,0.0540446,-0.0383772,-1.4541,0.0536147,0.047909,1210,344,4.64319,32.2438
-7,680,4.93481,-32.379,-0.0348877,0.0498554,-0.0104494,0.0511248,-0.0361572,-1.4499,0.0506387,0.0461528,1217,344,4.93481,32.379
0,680,4.72559,-32.5086,-0.0323583,0.046635,-0.0099644,0.0478725,-0.0335959,-1.44723,0.0472759,0.0497299,1224,344,4.72553,32.5086
7,680,4.46619,-32.5347,-0.0295386,0.0460023,-0.00990602,0.0472797,-0.030816,-1.44255,0.0454213,0.0451478,1231,344,4.46614,32.5347
14,680,2.72559,-31.3796,0,0,0,0,0,0,0,-1,1238,344,2.72562,31.3796
21,680,4.93018,-32.7213,-0.0219932,0.0421303,-0.00658902,0.0428004,-0.0226632,-1.46945,0.0383869,0.0454353,1245,344,4.93015,32.7213
28,680,4.97937,-33.0229,-0.0181334,0.0418676,-0.00530689,0.0423333,-0.0185991,-1.48326,0.036058,0.0439348,1252,344,4.97932,33.023
35,680,4.87415,-32.994,-0.0136881,0.0414913,-0.00348038,0.04171,-0.0139068,-1.50805,0.033421,0.0442939,1259,344,4.87417,32.994
42,680,4.36621,-33.0477,-0.0099489,0.0405188,-0.00151152,0.0405641,-0.00999414,-1.54088,0.0309173,0.046297,1266,344,4.36622,33.0477
49,680,4.36853,-33.0177,-0.00632445,0.0406214,0.000567129,0.0406283,-0.0063313,1.55872,0.0294239,0.0441191,1273,344,4.36849,33.0177
56,680,4.43127,-33.0473,-0.0037333,0.0406433,0.00218413,0.0407506,-0.00384054,1.52174,0.0285335,0.0417579,1280,344,4.43133,33.0473
63,680,4.40784,-32.9314,-0.00159571,0.0412601,0.00359557,0.0415597,-0.00189528,1.48767,0.0283593,0.0402553,1287,344,4.40785,32.9314
70,680,4.37329,-32.5992,-0.0011345,0.0419031,0.00469238,0.0424088,-0.00164017,1.46345,0.0288348,0.0381351,1294,344,4.37333,32.5992
77,680,4.06445,-32.3013,-0.000938872,0.0410038,0.00484142,0.0415554,-0.00149046,1.45735,0.0282135,0.0430688,1301,344,4.06448,32.3013
84,680,4.04517,-32.1741,0,0,0,0,0,0,0,-1,1308,344,4.04515,32.1741
91,680,4.46375,-32.3372,-0.0010455,0.0398269,0.00445798,0.0403075,-0.00152608,1.46341,0.0273945,0.0472424,1315,344,4.46377,32.3372
98,680,4.40234,-32.1471,-0.00118642,0.0388446,0.00419398,0.0392793,-0.0016211,1.46752,0.0267429,0.0436993,1322,344,4.4023,32.1471
105,680,4.46729,-32.0245,-0.00144968,0.0378229,0.00351528,0.038135,-0.00176185,1.48222,0.0260305,0.045527,1329,344,4.46727,32.0245
112,680,3.46497,-33.0609,-0.000973866,0.0351844,0.00347241,0.0355148,-0.00130431,1.47592,0.0241231,0.0448038,1336,344,3.46502,33.0609
119,680,3.09155,-33.0825,-0.000440346,0.0358476,0.00257677,0.0360296,-0.000622405,1.50026,0.0242299,0.0469894,1343,344,3.0915,33.0825
126,680,3.26318,-33.5856,0.000455577,0.035519,0.00183312,0.0356146,0.000360001,1.51871,0.023624,0.0473939,1350,344,3.26321,33.5856
133,680,3.42163,-32.3709,0,0,0,0,0,0,0,-1,1357,344,3.42158,32.3709
140,680,3.74341,-32.2376,0.00419213,0.0358516,0.00422017,0.0364045,0.00363925,1.44053,0.0231521,0.0466449,1364,344,3.74342,32.2376
147,680,3.98389,-31.8758,0.00642622,0.037252,0.00558854,0.0382339,0.00544433,1.39687,0.0238822,0.0459287,1371,344,3.98393,31.8758
154,680,4.14856,-31.4438,0,0,0,0,0,0,0,-1,1378,344,4.14854,31.4438
161,680,3.46411,-30.1965,0,0,0,0,0,0,0,-1,1385,344,3.46411,30.1965
168,680,29.4142,-2.51651,0,0,0,0,0,0,0,-1,1392,344,29.4142,2.51652
175,680,6.66541,0.942078,0,0,0,0,0,0,0,-1,1399,344,6.66538,-0.942088
182,680,6.52917,0.532379,0,0,0,0,0,0,0,-1,1406,344,6.52922,-0.532385
189,680,7.55884,4.77695,0,0,0,0,0,0,0,-1,1413,344,7.55886,-4.77694
196,680,6.55627,3.35254,0,0,0,0,0,0,0,-1,1420,344,6.55622,-3.35255
203,680,5.7334,1.90753,0,0,0,0,0,0,0,-1,1427,344,5.73341,-1.90754
210,680,5.27515,0.493622,0,0,0,0,0,0,0,-1,1434,344,5.27514,-0.493632
217,680,6.56384,-0.374176,0,0,0,0,0,0,0,-1,1441,344,6.56379,0.374176
224,680,3.9491,-0.640228,0,0,0,0,0,0,0,-1,1448,344,3.94908,0.64024
231,680,4.24866,-1.96881,0,0,0,0,0,0,0,-1,1455,344,4.2486,1.96882
238,680,4.29333,-3.23984,0,0,0,0,0,0,0,-1,1462,344,4.29332,3.23984
245,680,2.44397,0.985382,0,0,0,0,0,0,0,-1,1469,344,2.44402,-0.985394
252,680,3.07349,2.18951,0,0,0,0,0,0,0,-1,1476,344,3.0735,-2.18952
259,680,2.82971,1.30682,0,0,0,0,0,0,0,-1,1483,344,2.82972,-1.30684
266,680,2.67554,1.44067,0,0,0,0,0,0,0,-1,1490,344,2.67551,-1.44066
273,680,2.46411,1.54666,0,0,0,0,0,0,0,-1,1497,344,2.46407,-1.54666
280,680,0,0,0,0,0,0,0,0,0,-1,1504,344,0,0
287,680,0,0,0,0,0,0,0,0,0,-1,1511,344,0,0
294,680,0,0,0,0,0,0,0,0,0,-1,1518,344,0,0
301,680,0,0,0,0,0,0,0,0,0,-1,1525,344,0,0
308,680,0,0,0,0,0,0,0,0,0,-1,1532,344,0,0
315,680,0,0,0,0,0,0,0,0,0,-1,1539,344,0,0
322,680,0,0,0,0,0,0,0,0,0,-1,1546,344,0,0
329,680,0,0,0,0,0,0,0,0,0,-1,1553,344,0,0
336,680,0,0,0,0,0,0,0,0,0,-1,1560,344,0,0
343,680,0,0,0,0,0,0,0,0,0,-1,1567,344,0,0
350,680,0,0,0,0,0,0,0,0,0,-1,1574,344,0,0
357,680,0,0,0,0,0,0,0,0,0,-1,1581,344,0,0
364,680,0,0,0,0,0,0,0,0,0,-1,1588,344,0,0
371,680,0,0,0,0,0,0,0,0,0,-1,1595,344,0,0
378,680,0,0,0,0,0,0,0,0,0,-1,1602,344,0,0
385,680,0,0,0,0,0,0,0,0,0,-1,1609,344,0,0
392,680,0,0,0,0,0,0,0,0,0,-1,1616,344,0,0
399,680,0,0,0,0,0,0,0,0,0,-1,1623,344,0,0
406,680,0,0,0,0,0,0,0,0,0,-1,1630,344,0,0
413,680,0,0,0,0,0,0,0,0,0,-1,1637,344,0,0
420,680,0,0,0,0,0,0,0,0,0,-1,1644,344,0,0
427,680,0,0,0,0,0,0,0,0,0,-1,1651,344,0,0
434,680,0,0,0,0,0,0,0,0,0,-1,1658,344,0,0
441,680,0,0,0,0,0,0,0,0,0,-1,1665,344,0,0
448,680,0,0,0,0,0,0,0,0,0,-1,1672,344,0,0
455,680,0,0,0,0,0,0,0,0,0,-1,1679,344,0,0
462,680,0,0,0,0,0,0,0,0,0,-1,1686,344,0,0
469,680,0,0,0,0,0,0,0,0,0,-1,1693,344,0,0
476,680,0,0,0,0,0,0,0,0,0,-1,1700,344,0,0
483,680,0,0,0,0,0,0,0,0,0,-1,1707,344,0,0
490,680,0,0,0,0,0,0,0,0,0,-1,1714,344,0,0
497,680,0,0,0,0,0,0,0,0,0,-1,1721,344,0,0
504,680,0,0,0,0,0,0,0,0,0,-1,1728,344,0,0
511,680,0,0,0,0,0,0,0,0,0,-1,1735,344,0,0
518,680,0,0,0,0,0,0,0,0,0,-1,1742,344,0,0
525,680,0,0,0,0,0,0,0,0,0,-1,1749,344,0,0
532,680,0,0,0,0,0,0,0,0,0,-1,1756,344,0,0
539,680,0,0,0,0,0,0,0,0,0,-1,1763,344,0,0
546,680,0,0,0,0,0,0,0,0,0,-1,1770,344,0,0
553,680,0,0,0,0,0,0,0,0,0,-1,1777,344,0,0
560,680,0,0,0,0,0,0,0,0,0,-1,1784,344,0,0
567,680,0,0,0,0,0,0,0,0,0,-1,1791,344,0,0
574,680,0,0,0,0,0,0,0,0,0,-1,1798,344,0,0
581,680,0,0,0,0,0,0,0,0,0,-1,1805,344,0,0
588,680,0,0,0,0,0,0,0,0,0,-1,1812,344,0,0
595,680,0,0,0,0,0,0,0,0,0,-1,1819,344,0,0
602,680,0,0,0,0,0,0,0,0,0,-1,1826,344,0,0
609,680,0,0,0,0,0,0,0,0,0,-1,1833,344,0,0
616,680,0,0,0,0,0,0,0,0,0,-1,1840,344,0,0
623,680,0,0,0,0,0,0,0,0,0,-1,1847,344,0,0
630,680,0,0,0,0,0,0,0,0,0,-1,1854,344,0,0
637,680,0,0,0,0,0,0,0,0,0,-1,1861,344,0,0
644,680,0,0,0,0,0,0,0,0,0,-1,1868,344,0,0
651,680,0,0,0,0,0,0,0,0,0,-1,1875,344,0,0
658,680,0,0,0,0,0,0,0,0,0,-1,1882,344,0,0
665,680,0,0,0,0,0,0,0,0,0,-1,1889,344,0,0
672,680,0,0,0,0,0,0,0,0,0,-1,1896,344,0,0
679,680,0,0,0,0,0,0,0,0,0,-1,1903,344,0,0
686,680,0,0,0,0,0,0,0,0,0,-1,1910,344,0,0
693,680,0,0,0,0,0,0,0,0,0,-1,1917,344,0,0
700,680,0,0,0,0,0,0,0,0,0,-1,1924,344,0,0
707,680,0,0,0,0,0,0,0,0,0,-1,1931,344,0,0
714,680,0,0,0,0,0,0,0,0,0,-1,1938,344,0,0
721,680,0,0,0,0,0,0,0,0,0,-1,1945,344,0,0
728,680,0,0,0,0,0,0,0,0,0,-1,1952,344,0,0
735,680,0,0,0,0,0,0,0,0,0,-1,1959,344,0,0
742,680,0,0,0,0,0,0,0,0,0,-1,1966,344,0,0
749,680,0,0,0,0,0,0,0,0,0,-1,1973,344,0,0
756,680,0,0,0,0,0,0,0,0,0,-1,1980,344,0,0
763,680,0,0,0,0,0,0,0,0,0,-1,1987,344,0,0
770,680,0,0,0,0,0,0,0,0,0,-1,1994,344,0,0
777,680,0,0,0,0,0,0,0,0,0,-1,2001,344,0,0
784,680,0,0,0,0,0,0,0,0,0,-1,2008,344,0,0
791,680,0,0,0,0,0,0,0,0,0,-1,2015,344,0,0
798,680,0,0,0,0,0,0,0,0,0,-1,2022,344,0,0
805,680,0,0,0,0,0,0,0,0,0,-1,2029,344,0,0
812,680,0,0,0,0,0,0,0,0,0,-1,2036,344,0,0
-700,673,0,0,0,0,0,0,0,0,0,-1,524,351,0,0
-693,673,0,0,0,0,0,0,0,0,0,-1,531,351,0,0
-686,673,0,0,0,0,0,0,0,0,0,-1,538,351,0,0
-679,673,0,0,0,0,0,0,0,0,0,-1,545,351,0,0
-672,673,0,0,0,0,0,0,0,0,0,-1,552,351,0,0
-665,673,0,0,0,0,0,0,0,0,0,-1,559,351,0,0
-658,673,0,0,0,0,0,0,0,0,0,-1,566,351,0,0
-651,673,0,0,0,0,0,0,0,0,0,-1,573,351,0,0
-644,673,0,0,0,0,0,0,0,0,0,-1,580,351,0,0
-637,673,0,0,0,0,0,0,0,0,0,-1,587,351,0,0
-630,673,0,0,0,0,0,0,0,0,0,-1,594,351,0,0
-623,673,0,0,0,0,0,0,0,0,0,-1,601,351,0,0
-616,673,0,0,0,0,0,0,0,0,0,-1,608,351,0,0
-609,673,0,0,0,0,0,0,0,0,0,-1,615,351,0,0
-602,673,0,0,0,0,0,0,0,0,0,-1,622,351,0,0
-595,673,0,0,0,0,0,0,0,0,0,-1,629,351,0,0
-588,673,0,0,0,0,0,0,0,0,0,-1,636,351,0,0
-581,673,0,0,0,0,0,0,0,0,0,-1,643,351,0,0
-574,673,0,0,0,0,0,0,0,0,0,-1,650,351,0,0
-567,673,0,0,0,0,0,0,0,0,0,-1,657,351,0,0
-560,673,0,0,0,0,0,0,0,0,0,-1,664,351,0,0
-553,673,0,0,0,0,0,0,0,0,0,-1,671,351,0,0
-546,673,0,0,0,0,0,0,0,0,0,-1,678,351,0,0
-539,673,0,0,0,0,0,0,0,0,0,-1,685,351,0,0
-532,673,0,0,0,0,0,0,0,0,0,-1,692,351,0,0
-525,673,0,0,0,0,0,0,0,0,0,-1,699,351,0,0
-518,673,0,0,0,0,0,0,0,0,0,-1,706,351,0,0
-511,673,0,0,0,0,0,0,0,0,0,-1,713,351,0,0
-504,673,0,0,0,0,0,0,0,0,0,-1,720,351,0,0
-497,673,0,0,0,0,0,0,0,0,0,-1,727,351,0,0
-490,673,0,0,0,0,0,0,0,0,0,-1,734,351,0,0
-483,673,0,0,0,0,0,0,0,0,0,-1,741,351,0,0
-476,673,0,0,0,0,0,0,0,0,0,-1,748,351,0,0
-469,673,0,0,0,0,0,0,0,0,0,-1,755,351,0,0
-462,673,0,0,0,0,0,0,0,0,0,-1,762,351,0,0
-455,673,0,0,0,0,0,0,0,0,0,-1,769,351,0,0
-448,673,0,0,0,0,0,0,0,0,0,-1,776,351,0,0
-441,673,0,0,0,0,0,0,0,0,0,-1,783,351,0,0
-434,673,0,0,0,0,0,0,0,0,0,-1,790,351,0,0
-427,673,0,0,0,0,0,0,0,0,0,-1,797,351,0,0
-420,673,0,0,0,0,0,0,0,0,0,-1,804,351,0,0
-413,673,0,0,0,0,0,0,0,0,0,-1,811,351,0,0
-406,673,0,0,0,0,0,0,0,0,0,-1,818,351,0,0
-399,673,0,0,0,0,0,0,0,0,0,-1,825,351,0,0
-392,673,0,0,0,0,0,0,0,0,0,-1,832,351,0,0
-385,673,0,0,0,0,0,0,0,0,0,-1,839,351,0,0
-378,673,0,0,0,0,0,0,0,0,0,-1,846,351,0,0
-371,673,0,0,0,0,0,0,0,0,0,-1,853,351,0,0
-364,673,0,0,0,0,0,0,0,0,0,-1,860,351,0,0
-357,673,0,0,0,0,0,0,0,0,0,-1,867,351,0,0
-350,673,0,0,0,0,0,0,0,0,0,-1,874,351,0,0
-343,673,0,0,0,0,0,0,0,0,0,-1,881,351,0,0
-336,673,0,0,0,0,0,0,0,0,0,-1,888,351,0,0
-329,673,0,0,0,0,0,0,0,0,0,-1,895,351,0,0
-322,673,0,0,0,0,0,0,0,0,0,-1,902,351,0,0
-315,673,0,0,0,0,0,0,0,0,0,-1,909,351,0,0
-308,673,0,0,0,0,0,0,0,0,0,-1,916,351,0,0
-301,673,0,0,0,0,0,0,0,0,0,-1,923,351,0,0
-294,673,0,0,0,0,0,0,0,0,0,-1,930,351,0,0
-287,673,0,0,0,0,0,0,0,0,0,-1,937,351,0,0
-280,673,0,0,0,0,0,0,0,0,0,-1,944,351,0,0
-273,673,0,0,0,0,0,0,0,0,0,-1,951,351,0,0
-266,673,0,0,0,0,0,0,0,0,0,-1,958,351,0,0
-259,673,0,0,0,0,0,0,0,0,0,-1,965,351,0,0
-252,673,0,0,0,0,0,0,0,0,0,-1,972,351,0,0
-245,673,0,0,0,0,0,0,0,0,0,-1,979,351,0,0
-238,673,0,0,0,0,0,0,0,0,0,-1,986,351,0,0
-231,673,0,0,0,0,0,0,0,0,0,-1,993,351,0,0
-224,673,0,0,0,0,0,0,0,0,0,-1,1000,351,0,0
-217,673,0,0,0,0,0,0,0,0,0,-1,1007,351,0,0
-210,673,0,0,0,0,0,0,0,0,0,-1,1014,351,0,0
-203,673,0,0,0,0,0,0,0,0,0,-1,1021,351,0,0
-196,673,0,0,0,0,0,0,0,0,0,-1,1028,351,0,0
-189,673,0,0,0,0,0,0,0,0,0,-1,1035,351,0,0
-182,673,0,0,0,0,0,0,0,0,0,-1,1042,351,0,0
-175,673,6.34473,-28.0434,0,0,0,0,0,0,0,-1,1049,351,6.34475,28.0434
-168,673,5.15417,-31.5307,0,0,0,0,0,0,0,-1,1056,351,5.1542,31.5307
-161,673,5.92847,-32.7654,0,0,0,0,0,0,0,-1,1063,351,5.92847,32.7654
-154,673,5.3512,-30.8734,0,0,0,0,0,0,0,-1,1070,351,5.35118,30.8734
-147,673,5.61096,-30.1121,0,0,0,0,0,0,0,-1,1077,351,5.61101,30.1121
-140,673,5.27502,-30.6811,0,0,0,0,0,0,0,-1,1084,351,5.275,30.681
-133,673,5.45117,-30.8188,0.0480872,-0.102835,0.00821268,0.0485328,-0.10328,0.0542035,0.0895289,0.0442864,1091,351,5.45116,30.8188
-126,673,5.59509,-31.0266,0.0413223,-0.0921644,0.0105905,0.0421572,-0.0929994,0.0786813,0.0798519,0.0428467,1098,351,5.59506,31.0266
-119,673,5.68396,-31.1942,0,0,0,0,0,0,0,-1,1105,351,5.68393,31.1941
-112,673,7.19543,-29.0574,0,0,0,0,0,0,0,-1,1112,351,7.19542,29.0574
-105,673,6.33752,-27.3443,0,0,0,0,0,0,0,-1,1119,351,6.33757,27.3443
-98,673,14.6038,-34.1646,0,0,0,0,0,0,0,-1,1126,351,14.6038,34.1646
-91,673,8.87854,-29.3053,0,0,0,0,0,0,0,-1,1133,351,8.87848,29.3053
-84,673,3.21765,-23.7196,0,0,0,0,0,0,0,-1,1140,351,3.21768,23.7196
-77,673,-2.745,-17.165,0,0,0,0,0,0,0,-1,1147,351,-2.74502,17.165
-70,673,-8.71216,-10.3058,0,0,0,0,0,0,0,-1,1154,351,-8.71218,10.3058
-63,673,-12.606,-3.97971,0,0,0,0,0,0,0,-1,1161,351,-12.606,3.97969
-56,673,-18.0282,2.79053,0,0,0,0,0,0,0,-1,1168,351,-18.0283,-2.79052
-49,673,-0.926758,-0.115448,0,0,0,0,0,0,0,-1,1175,351,-0.926732,0.115444
-42,673,-1.15015,0.289917,0,0,0,0,0,0,0,-1,1182,351,-1.15017,-0.289932
-35,673,-0.919556,-1.00711,0,0,0,0,0,0,0,-1,1189,351,-0.919514,1.00711
-28,673,3.19104,-25.0986,0,0,0,0,0,0,0,-1,1196,351,3.19099,25.0986
-21,673,4.90967,-32.4154,0,0,0,0,0,0,0,-1,1203,351,4.90973,32.4154
-14,673,4.66272,-32.5001,-0.0258176,0.0413661,-0.00860266,0.0424502,-0.0269016,-1.44544,0.0403743,0.0432477,1210,351,4.66266,32.5001
-7,673,4.8866,-32.6201,-0.0244529,0.0395479,-0.00845083,0.0406449,-0.0255499,-1.4417,0.0385474,0.0408923,1217,351,4.8866,32.6201
0,673,4.8761,-32.7823,-0.0228824,0.0374298,-0.00810969,0.0385012,-0.0239538,-1.43944,0.036383,0.0459879,1224,351,4.87604,32.7823
7,673,5.03381,-32.6203,-0.0211151,0.0371809,-0.00811217,0.0382887,-0.0222229,-1.43508,0.0353444,0.0472259,1231,351,5.03387,32.6203
14,673,5.11951,-32.645,-0.0188736,0.0352082,-0.00726437,0.036167,-0.0198324,-1.43957,0.0327865,0.0402459,1238,351,5.11946,32.645
21,673,4.78088,-33.0429,-0.0160986,0.0343199,-0.00548262,0.0349092,-0.0166879,-1.46372,0.0304025,0.0285152,1245,351,4.78083,33.0429
28,673,4.78625,-33.1242,-0.0135444,0.0341359,-0.00444656,0.034547,-0.0139556,-1.4786,0.0288319,0.0199974,1252,351,4.78629,33.1242
35,673,4.74719,-33.135,-0.010466,0.0337957,-0.00291875,0.0339873,-0.0106576,-1.50523,0.0269233,0.0304009,1259,351,4.7472,33.135
42,673,4.54688,-33.1456,-0.00790204,0.0329927,-0.00121675,0.0330289,-0.00793822,-1.54108,0.0250875,0.0325865,1266,351,4.54688,33.1456
49,673,4.46399,-33.1523,-0.00546171,0.0331223,0.000559443,0.0331304,-0.00546983,1.5563,0.0241178,0.0186346,1273,351,4.46397,33.1524
56,673,4.44861,-33.1125,-0.00380338,0.0331626,0.00191057,0.0332611,-0.00390186,1.51929,0.0235825,0.0154782,1280,351,4.44862,33.1125
63,673,4.47144,-33.0156,-0.00247127,0.0336981,0.0031214,0.0339655,-0.00273866,1.48534,0.0236096,0.0195418,1287,351,4.47146,33.0156
70,673,4.37561,-32.9671,-0.00225421,0.0343217,0.00405653,0.0347662,-0.0026987,1.46166,0.0241274,0.031061,1294,351,4.37563,32.9671
77,673,4.21643,-32.7531,-0.00227029,0.033587,0.00421044,0.0340748,-0.00275805,1.45546,0.0236894,0.0395356,1301,351,4.21645,32.7531
84,673,4.34363,-33.0888,-0.00262167,0.0332037,0.00427299,0.0337063,-0.00312427,1.45371,0.0235814,0.0450855,1308,351,4.34367,33.0888
91,673,4.59106,-32.9414,-0.00250509,0.0327903,0.00390806,0.0332178,-0.00293263,1.46183,0.0231847,0.0479444,1315,351,4.59102,32.9414
98,673,4.30847,-32.7428,-0.00264959,0.0319902,0.003677,0.0323762,-0.0030356,1.4662,0.0226639,0.0476637,1322,351,4.30851,32.7428
105,673,3.84106,-32.9269,-0.00286981,0.0311689,0.00307275,0.0314441,-0.00314497,1.48149,0.0220858,0.0469931,1329,351,3.84104,32.9269
112,673,3.76245,-32.8448,0,0,0,0,0,0,0,-1,1336,351,3.76244,32.8448
119,673,3.0343,-33.7951,0,0,0,0,0,0,0,-1,1343,351,3.03429,33.7952
126,673,3.67383,-32.4094,-0.00135644,0.0289009,0.0013919,0.0289648,-0.00142034,1.52492,0.0198003,0.0436059,1350,351,3.67383,32.4094
133,673,3.64807,-32.4628,0.000156686,0.0284011,0.00227868,0.0285838,-2.59699e-05,1.49081,0.0190645,0.0454801,1357,351,3.64804,32.4628
140,673,3.76489,-32.4021,0.00132311,0.0286756,0.00299289,0.0289992,0.000999459,1.46308,0.0190084,0.0430068,1364,351,3.76486,32.4021
147,673,3.78589,-32.2162,0.00279041,0.0295026,0.00388076,0.0300549,0.00223803,1.42941,0.0193338,0.0402265,1371,351,3.78591,32.2162
154,673,3.58032,-31.771,0.00455881,0.0293885,0.00523637,0.0304476,0.00349968,1.37122,0.0192382,0.041528,1378,351,3.58036,31.771
161,673,3.75623,-31.594,0,0,0,0,0,0,0,-1,1385,351,3.75624,31.594
168,673,6.87061,1.83954,0,0,0,0,0,0,0,-1,1392,351,6.87063,-1.83953
175,673,6.6228,1.1459,0,0,0,0,0,0,0,-1,1399,351,6.62276,-1.14591
182,673,6.37244,0.796112,0,0,0,0,0,0,0,-1,1406,351,6.3724,-0.796102
189,673,6.12097,0.265472,0,0,0,0,0,0,0,-1,1413,351,6.121,-0.265482
196,673,6.02173,3.12717,0,0,0,0,0,0,0,-1,1420,351,6.02176,-3.12717
203,673,5.04456,1.6351,0,0,0,0,0,0,0,-1,1427,351,5.04455,-1.63509
210,673,4.79224,0.447479,0,0,0,0,0,0,0,-1,1434,351,4.79229,-0.447469
217,673,2.01648,0.972687,0,0,0,0,0,0,0,-1,1441,351,2.01644,-0.972691
224,673,2.3689,-1.80539,0,0,0,0,0,0,0,-1,1448,351,2.36896,1.80539
231,673,2.65857,-2.18497,0,0,0,0,0,0,0,-1,1455,351,2.65852,2.18496
238,673,3.77844,-2.06088,0,0,0,0,0,0,0,-1,1462,351,3.77839,2.06088
245,673,3.5376,-0.190399,0,0,0,0,0,0,0,-1,1469,351,3.53759,0.1904
252,673,3.80518,0.55603,0,0,0,0,0,0,0,-1,1476,351,3.80519,-0.556022
259,673,3.88562,1.29617,0,0,0,0,0,0,0,-1,1483,351,3.88562,-1.29618
266,673,4.22424,2.04834,0,0,0,0,0,0,0,-1,1490,351,4.22429,-2.04834
273,673,6.07886,0.385895,0,0,0,0,0,0,0,-1,1497,351,6.0789,-0.385906
280,673,6.97534,-0.0820007,0,0,0,0,0,0,0,-1,1504,351,6.97536,0.0820122
287,673,7.66968,-0.348541,0,0,0,0,0,0,0,-1,1511,351,7.66969,0.348534
294,673,8.20996,0.28537,0,0,0,0,0,0,0,-1,1518,351,8.20993,-0.28536
301,673,0,0,0,0,0,0,0,0,0,-1,1525,351,0,0
308,673,0,0,0,0,0,0,0,0,0,-1,1532,351,0,0
315,673,0,0,0,0,0,0,0,0,0,-1,1539,351,0,0
322,673,0,0,0,0,0,0,0,0,0,-1,1546,351,0,0
329,673,0,0,0,0,0,0,0,0,0,-1,1553,351,0,0
336,673,0,0,0,0,0,0,0,0,0,-1,1560,351,0,0
343,673,0,0,0,0,0,0,0,0,0,-1,1567,351,0,0
350,673,0,0,0,0,0,0,0,0,0,-1,1574,351,0,0
357,673,0,0,0,0,0,0,0,0,0,-1,1581,351,0,0
364,673,0,0,0,0,0,0,0,0,0,-1,1588,351,0,0
371,673,0,0,0,0,0,0,0,0,0,-1,1595,351,0,0
378,673,0,0,0,0,0,0,0,0,0,-1,1602,351,0,0
385,673,0,0,0,0,0,0,0,0,0,-1,1609,351,0,0
392,673,0,0,0,0,0,0,0,0,0,-1,1616,351,0,0
399,673,0,0,0,0,0,0,0,0,0,-1,1623,351,0,0
406,673,0,0,0,0,0,0,0,0,0,-1,1630,351,0,0
413,673,0,0,0,0,0,0,0,0,0,-1,1637,351,0,0
420,673,0,0,0,0,0,0,0,0,0,-1,1644,351,0,0
427,673,0,0,0,0,0,0,0,0,0,-1,1651,351,0,0
434,673,0,0,0,0,0,0,0,0,0,-1,1658,351,0,0
441,673,0,0,0,0,0,0,0,0,0,-1,1665,351,0,0
448,673,0,0,0,0,0,0,0,0,0,-1,1672,351,0,0
455,673,0,0,0,0,0,0,0,0,0,-1,1679,351,0,0
462,673,0,0,0,0,0,0,0,0,0,-1,1686,351,0,0
469,673,0,0,0,0,0,0,0,0,0,-1,1693,351,0,0
476,673,0,0,0,0,0,0,0,0,0,-1,1700,351,0,0
483,673,0,0,0,0,0,0,0,0,0,-1,1707,351,0,0
490,673,0,0,0,0,0,0,0,0,0,-1,1714,351,0,0
497,673,0,0,0,0,0,0,0,0,0,-1,1721,351,0,0
504,673,0,0,0,0,0,0,0,0,0,-1,1728,351,0,0
511,673,0,0,0,0,0,0,0,0,0,-1,1735,351,0,0
518,673,0,0,0,0,0,0,0,0,0,-1,1742,351,0,0
525,673,0,0,0,0,0,0,0,0,0,-1,1749,351,0,0
532,673,0,0,0,0,0,0,0,0,0,-1,1756,351,0,0
539,673,0,0,0,0,0,0,0,0,0,-1,1763,351,0,0
546,673,0,0,0,0,0,0,0,0,0,-1,1770,351,0,0
553,673,0,0,0,0,0,0,0,0,0,-1,1777,351,0,0
560,673,0,0,0,0,0,0,0,0,0,-1,1784,351,0,0
567,673,0,0,0,0,0,0,0,0,0,-1,1791,351,0,0
574,673,0,0,0,0,0,0,0,0,0,-1,1798,351,0,0
581,673,0,0,0,0,0,0,0,0,0,-1,1805,351,0,0
588,673,0,0,0,0,0,0,0,0,0,-1,1812,351,0,0
595,673,0,0,0,0,0,0,0,0,0,-1,1819,351,0,0
602,673,0,0,0,0,0,0,0,0,0,-1,1826,351,0,0
609,673,0,0,0,0,0,0,0,0,0,-1,1833,351,0,0
616,673,0,0,0,0,0,0,0,0,0,-1,1840,351,0,0
623,673,0,0,0,0,0,0,0,0,0,-1,1847,351,0,0
630,673,0,0,0,0,0,0,0,0,0,-1,1854,351,0,0
637,673,0,0,0,0,0,0,0,0,0,-1,1861,351,0,0
644,673,0,0,0,0,0,0,0,0,0,-1,1868,351,0,0
651,673,0,0,0,0,0,0,0,0,0,-1,1875,351,0,0
658,673,0,0,0,0,0,0,0,0,0,-1,1882,351,0,0
665,673,0,0,0,0,0,0,0,0,0,-1,1889,351,0,0
672,673,0,0,0,0,0,0,0,0,0,-1,1896,351,0,0
679,673,0,0,0,0,0,0,0,0,0,-1,1903,351,0,0
686,673,0,0,0,0,0,0,0,0,0,-1,1910,351,0,0
693,673,0,0,0,0,0,0,0,0,0,-1,1917,351,0,0
700,673,0,0,0,0,0,0,0,0,0,-1,1924,351,0,0
707,673,0,0,0,0,0,0,0,0,0,-1,1931,351,0,0
714,673,0,0,0,0,0,0,0,0,0,-1,1938,351,0,0
721,673,0,0,0,0,0,0,0,0,0,-1,1945,351,0,0
728,673,0,0,0,0,0,0,0,0,0,-1,1952,351,0,0
735,673,0,0,0,0,0,0,0,0,0,-1,1959,351,0,0
742,673,0,0,0,0,0,0,0,0,0,-1,1966,351,0,0
749,673,0,0,0,0,0,0,0,0,0,-1,1973,351,0,0
756,673,0,0,0,0,0,0,0,0,0,-1,1980,351,0,0
763,673,0,0,0,0,0,0,0,0,0,-1,1987,351,0,0
770,673,0,0,0,0,0,0,0,0,0,-1,1994,351,0,0
777,673,0,0,0,0,0,0,0,0,0,-1,2001,351,0,0
784,673,0,0,0,0,0,0,0,0,0,-1,2008,351,0,0
791,673,0,0,0,0,0,0,0,0,0,-1,2015,351,0,0
798,673,0,0,0,0,0,0,0,0,0,-1,2022,351,0,0
805,673,0,0,0,0,0,0,0,0,0,-1,2029,351,0,0
812,673,0,0,0,0,0,0,0,0,0,-1,2036,351,0,0
-700,666,0,0,0,0,0,0,0,0,0,-1,524,358,0,0
-693,666,0,0,0,0,0,0,0,0,0,-1,531,358,0,0
-686,666,0,0,0,0,0,0,0,0,0,-1,538,358,0,0
-679,666,0,0,0,0,0,0,0,0,0,-1,545,358,0,0
-672,666,0,0,0,0,0,0,0,0,0,-1,552,358,0,0
-665,666,0,0,0,0,0,0,0,0,0,-1,559,358,0,0
-658,666,0,0,0,0,0,0,0,0,0,-1,566,358,0,0
-651,666,0,0,0,0,0,0,0,0,0,-1,573,358,0,0
-644,666,0,0,0,0,0,0,0,0,0,-1,580,358,0,0
-637,666,0,0,0,0,0,0,0,0,0,-1,587,358,0,0
-630,666,0,0,0,0,0,0,0,0,0,-1,594,358,0,0
-623,666,0,0,0,0,0,0,0,0,0,-1,601,358,0,0
-616,666,0,0,0,0,0,0,0,0,0,-1,608,358,0,0
-609,666,0,0,0,0,0,0,0,0,0,-1,615,358,0,0
-602,666,0,0,0,0,0,0,0,0,0,-1,622,358,0,0
-595,666,0,0,0,0,0,0,0,0,0,-1,629,358,0,0
-588,666,0,0,0,0,0,0,0,0,0,-1,636,358,0,0
-581,666,0,0,0,0,0,0,0,0,0,-1,643,358,0,0
-574,666,0,0,0,0,0,0,0,0,0,-1,650,358,0,0
-567,666,0,0,0,0,0,0,0,0,0,-1,657,358,0,0
-560,666,0,0,0,0,0,0,0,0,0,-1,664,358,0,0
-553,666,0,0,0,0,0,0,0,0,0,-1,671,358,0,0
-546,666,0,0,0,0,0,0,0,0,0,-1,678,358,0,0
-539,666,0,0,0,0,0,0,0,0,0,-1,685,358,0,0
-532,666,0,0,0,0,0,0,0,0,0,-1,692,358,0,0
-525,666,0,0,0,0,0,0,0,0,0,-1,699,358,0,0
-518,666,0,0,0,0,0,0,0,0,0,-1,706,358,0,0
-511,666,0,0,0,0,0,0,0,0,0,-1,713,358,0,0
-504,666,0,0,0,0,0,0,0,0,0,-1,720,358,0,0
-497,666,0,0,0,0,0,0,0,0,0,-1,727,358,0,0
-490,666,0,0,0,0,0,0,0,0,0,-1,734,358,0,0
-483,666,0,0,0,0,0,0,0,0,0,-1,741,358,0,0
-476,666,0,0,0,0,0,0,0,0,0,-1,748,358,0,0
-469,666,0,0,0,0,0,0,0,0,0,-1,755,358,0,0
-462,666,0,0,0,0,0,0,0,0,0,-1,762,358,0,0
-455,666,0,0,0,0,0,0,0,0,0,-1,769,358,0,0
-448,666,0,0,0,0,0,0,0,0,0,-1,776,358,0,0
-441,666,0,0,0,0,0,0,0,0,0,-1,783,358,0,0
-434,666,0,0,0,0,0,0,0,0,0,-1,790,358,0,0
-427,666,0,0,0,0,0,0,0,0,0,-1,797,358,0,0
-420,666,0,0,0,0,0,0,0,0,0,-1,804,358,0,0
-413,666,0,0,0,0,0,0,0,0,0,-1,811,358,0,0
-406,666,0,0,0,0,0,0,0,0,0,-1,818,358,0,0
-399,666,0,0,0,0,0,0,0,0,0,-1,825,358,0,0
-392,666,0,0,0,0,0,0,0,0,0,-1,832,358,0,0
-385,666,0,0,0,0,0,0,0,0,0,-1,839,358,0,0
-378,666,0,0,0,0,0,0,0,0,0,-1,846,358,0,0
-371,666,0,0,0,0,0,0,0,0,0,-1,853,358,0,0
-364,666,0,0,0,0,0,0,0,0,0,-1,860,358,0,0
-357,666,0,0,0,0,0,0,0,0,0,-1,867,358,0,0
-350,666,0,0,0,0,0,0,0,0,0,-1,874,358,0,0
-343,666,0,0,0,0,0,0,0,0,0,-1,881,358,0,0
-336,666,0,0,0,0,0,0,0,0,0,-1,888,358,0,0
-329,666,0,0,0,0,0,0,0,0,0,-1,895,358,0,0
-322,666,0,0,0,0,0,0,0,0,0,-1,902,358,0,0
-315,666,0,0,0,0,0,0,0,0,0,-1,909,358,0,0
-308,666,0,0,0,0,0,0,0,0,0,-1,916,358,0,0
-301,666,0,0,0,0,0,0,0,0,0,-1,923,358,0,0
-294,666,0,0,0,0,0,0,0,0,0,-1,930,358,0,0
-287,666,0,0,0,0,0,0,0,0,0,-1,937,358,0,0
-280,666,0,0,0,0,0,0,0,0,0,-1,944,358,0,0
-273,666,0,0,0,0,0,0,0,0,0,-1,951,358,0,0
-266,666,0,0,0,0,0,0,0,0,0,-1,958,358,0,0
-259,666,0,0,0,0,0,0,0,0,0,-1,965,358,0,0
-252,666,0,0,0,0,0,0,0,0,0,-1,972,358,0,0
-245,666,0,0,0,0,0,0,0,0,0,-1,979,358,0,0
-238,666,0,0,0,0,0,0,0,0,0,-1,986,358,0,0
-231,666,0,0,0,0,0,0,0,0,0,-1,993,358,0,0
-224,666,0,0,0,0,0,0,0,0,0,-1,1000,358,0,0
-217,666,0,0,0,0,0,0,0,0,0,-1,1007,358,0,0
-210,666,0,0,0,0,0,0,0,0,0,-1,1014,358,0,0
-203,666,0,0,0,0,0,0,0,0,0,-1,1021,358,0,0
-196,666,6.83093,-24.8537,0,0,0,0,0,0,0,-1,1028,358,6.8309,24.8537
-189,666,1.64697,-28.3105,0,0,0,0,0,0,0,-1,1035,358,1.647,28.3105
-182,666,2.87427,-28.7542,0,0,0,0,0,0,0,-1,1042,358,2.87421,28.7543
-175,666,4.34656,-29.3856,0,0,0,0,0,0,0,-1,1049,358,4.34661,29.3856
-168,666,5.18152,-30.6476,0,0,0,0,0,0,0,-1,1056,358,5.1815,30.6476
-161,666,3.70349,-30.9331,0,0,0,0,0,0,0,-1,1063,358,3.70352,30.9331
-154,666,6.87476,-33.0443,0,0,0,0,0,0,0,-1,1070,358,6.87473,33.0443
-147,666,5.3595,-29.8341,0,0,0,0,0,0,0,-1,1077,358,5.35944,29.8341
-140,666,4.9519,-29.9517,0,0,0,0,0,0,0,-1,1084,358,4.95186,29.9517
-133,666,5.04895,-29.9466,0.0407074,-0.0736581,0.00265161,0.0407689,-0.0737196,0.0231688,0.0670063,0.0436691,1091,358,5.04899,29.9466
-126,666,5.15833,-30.1312,0.0350876,-0.0644624,0.00471024,0.03531,-0.0646847,0.0471749,0.0585564,0.0394163,1098,358,5.1583,30.1312
-119,666,5.90759,-29.7678,0,0,0,0,0,0,0,-1,1105,358,5.90755,29.7678
-112,666,6.29309,-28.9865,0,0,0,0,0,0,0,-1,1112,358,6.29305,28.9865
-105,666,5.97339,-27.6454,0,0,0,0,0,0,0,-1,1119,358,5.97342,27.6454
-98,666,3.5968,-23.5447,0,0,0,0,0,0,0,-1,1126,358,3.59686,23.5447
-91,666,9.5127,-25.1347,0,0,0,0,0,0,0,-1,1133,358,9.51269,25.1347
-84,666,4.03943,-19.3453,0,0,0,0,0,0,0,-1,1140,358,4.03941,19.3453
-77,666,-1.9137,-12.9077,0,0,0,0,0,0,0,-1,1147,358,-1.91368,12.9077
-70,666,-6.32251,-7.67145,0,0,0,0,0,0,0,-1,1154,358,-6.3225,7.67145
-63,666,-11.7778,-0.975189,0,0,0,0,0,0,0,-1,1161,358,-11.7778,0.97519
-56,666,0.424683,-2.04132,0,0,0,0,0,0,0,-1,1168,358,0.424665,2.04132
-49,666,0.754395,-2.23169,0,0,0,0,0,0,0,-1,1175,358,0.754383,2.23169
-42,666,1.34473,-3.53897,0,0,0,0,0,0,0,-1,1182,358,1.34476,3.53896
-35,666,4.78906,-32.6483,0,0,0,0,0,0,0,-1,1189,358,4.78904,32.6484
-28,666,4.9585,-32.4599,0,0,0,0,0,0,0,-1,1196,358,4.95846,32.4599
-21,666,4.87622,-32.6181,-0.0179514,0.0322724,-0.00652803,0.0331071,-0.018786,-1.44363,0.0303384,0.0332781,1203,358,4.87621,32.6181
-14,666,4.81836,-32.735,-0.0174399,0.0315233,-0.00659028,0.0323948,-0.0183115,-1.43932,0.0296493,0.0279281,1210,358,4.81836,32.7349
-7,666,4.81824,-32.8451,-0.0166754,0.0305168,-0.00651904,0.0314008,-0.0175594,-1.43602,0.0286412,0.0189429,1217,358,4.81819,32.8451
0,666,4.8252,-32.9745,-0.0157455,0.0292114,-0.00629148,0.0300753,-0.0166093,-1.43434,0.0273245,0.0132607,1224,358,4.82519,32.9745
7,666,4.74976,-33.0421,-0.0146828,0.0291961,-0.00632233,0.0300889,-0.0155756,-1.43051,0.0268046,0.0183051,1231,358,4.74976,33.0421
14,666,4.69751,-33.0754,-0.0132526,0.0277727,-0.00567839,0.0285441,-0.0140241,-1.43577,0.0250488,0.0187857,1238,358,4.69752,33.0754
21,666,4.63586,-33.2145,-0.0114853,0.0271979,-0.00432701,0.027676,-0.0119634,-1.46075,0.0234775,0.0138124,1245,358,4.63592,33.2145
28,666,4.59119,-33.2998,-0.0098586,0.0270869,-0.00353181,0.0274215,-0.0101932,-1.47634,0.0224633,0.0142974,1252,358,4.5912,33.2998
35,666,4.60242,-33.2931,-0.00779168,0.0268036,-0.0023246,0.0269591,-0.00794719,-1.504,0.021126,0.013878,1259,358,4.60241,33.2931
42,666,4.53992,-33.3296,-0.00609511,0.0261834,-0.00093006,0.0262102,-0.00612189,-1.54201,0.0198316,0.0137641,1266,358,4.53987,33.3296
49,666,4.47937,-33.3478,-0.00452136,0.0263276,0.000508322,0.026336,-0.00452973,1.55432,0.0192457,0.0111468,1273,358,4.47936,33.3478
56,666,4.46313,-33.3467,-0.00351575,0.026392,0.00157866,0.0264751,-0.00359885,1.51821,0.0189639,0.013231,1280,358,4.46312,33.3468
63,666,4.43384,-33.4094,-0.00273125,0.0268481,0.00255907,0.0270679,-0.00295102,1.48513,0.019105,0.0154553,1287,358,4.43383,33.4094
70,666,4.39795,-33.3883,-0.00266696,0.0274099,0.00331681,0.0277713,-0.00302839,1.46226,0.0196018,0.0157232,1294,358,4.39792,33.3884
77,666,4.35815,-33.2893,-0.00279041,0.0268531,0.00345588,0.0272507,-0.00318797,1.45626,0.0193176,0.020907,1301,358,4.35818,33.2893
84,666,4.36389,-33.298,-0.00312589,0.0266581,0.00350728,0.0270656,-0.00353332,1.45515,0.0193294,0.0277286,1308,358,4.36384,33.298
91,666,4.30945,-33.3123,-0.00308907,0.0263524,0.00321758,0.0267,-0.00343661,1.4632,0.0190491,0.0240588,1315,358,4.30943,33.3123
98,666,4.15259,-33.2315,-0.0032254,0.0257293,0.00303063,0.0260431,-0.00353921,1.46762,0.0186541,0.020507,1322,358,4.1526,33.2315
105,666,4.04492,-33.1169,-0.0033926,0.025101,0.00253732,0.0253252,-0.00361679,1.48267,0.0182092,0.0222858,1329,358,4.04494,33.1169
112,666,4.05359,-32.8997,-0.00309908,0.0235603,0.00237022,0.0237694,-0.00330817,1.48281,0.0170563,0.047583,1336,358,4.05365,32.8998
119,666,3.97229,-32.7264,0,0,0,0,0,0,0,-1,1343,358,3.97232,32.7264
126,666,3.92114,-32.6316,-0.00220423,0.0230663,0.00109606,0.0231138,-0.00225168,1.52753,0.0162119,0.0300575,1350,358,3.92108,32.6316
133,666,3.89258,-32.5671,-0.00110281,0.0224978,0.00170398,0.0226202,-0.0012252,1.49909,0.0155047,0.0270477,1357,358,3.89259,32.5671
140,666,3.88367,-32.5375,-0.000334255,0.0225466,0.00218163,0.0227527,-0.000540412,1.47658,0.0153518,0.0234929,1364,358,3.88368,32.5375
147,666,3.78076,-32.3702,0.000617492,0.0229569,0.00275641,0.023292,0.000282412,1.44983,0.0154347,0.0218402,1371,358,3.78081,32.3702
154,666,3.77295,-32.0609,0.00182585,0.0225551,0.00371191,0.0231997,0.00118122,1.39885,0.0150881,0.0216622,1378,358,3.77296,32.0609
161,666,3.81824,-31.8788,0.00281253,0.0226252,0.0050225,0.0238257,0.00161206,1.33618,0.0153746,0.029109,1385,358,3.81825,31.8789
168,666,3.82397,-31.703,0,0,0,0,0,0,0,-1,1392,358,3.82392,31.703
175,666,3.92285,-31.8705,0,0,0,0,0,0,0,-1,1399,358,3.92283,31.8705
182,666,2.60876,-5.17068,0,0,0,0,0,0,0,-1,1406,358,2.6088,5.17068
189,666,2.46973,-5.49979,0,0,0,0,0,0,0,-1,1413,358,2.46975,5.49979
196,666,2.32458,-5.23651,0,0,0,0,0,0,0,-1,1420,358,2.32461,5.23653
203,666,2.28064,-3.88004,0,0,0,0,0,0,0,-1,1427,358,2.28059,3.88003
210,666,3.02576,-5.83548,0,0,0,0,0,0,0,-1,1434,358,3.02581,5.83547
217,666,2.30444,-5.36011,0,0,0,0,0,0,0,-1,1441,358,2.30447,5.3601
224,666,1.82324,-6.03101,0,0,0,0,0,0,0,-1,1448,358,1.82322,6.031
231,666,2.29797,-10.1093,0,0,0,0,0,0,0,-1,1455,358,2.29801,10.1093
238,666,2.52429,-6.10568,0,0,0,0,0,0,0,-1,1462,358,2.52423,6.10567
245,666,4.53345,-1.38205,0,0,0,0,0,0,0,-1,1469,358,4.53349,1.38204
252,666,4.77405,-0.246979,0,0,0,0,0,0,0,-1,1476,358,4.77405,0.246993
259,666,4.83655,1.14087,0,0,0,0,0,0,0,-1,1483,358,4.83652,-1.14087
266,666,6.14148,0.749512,0,0,0,0,0,0,0,-1,1490,358,6.14144,-0.749519
273,666,2.61304,-1.53772,0,0,0,0,0,0,0,-1,1497,358,2.613,1.53773
280,666,8.70898,-0.836975,0,0,0,0,0,0,0,-1,1504,358,8.70894,0.836988
287,666,-7.06934,-20.3464,0,0,0,0,0,0,0,-1,1511,358,-7.06933,20.3464
294,666,-5.98657,-22.7841,0,0,0,0,0,0,0,-1,1518,358,-5.98659,22.7842
301,666,-6.94861,-23.4221,0,0,0,0,0,0,0,-1,1525,358,-6.94857,23.4221
308,666,1.08496,-1.87576,0,0,0,0,0,0,0,-1,1532,358,1.08491,1.87575
315,666,1.76294,-0.284027,0,0,0,0,0,0,0,-1,1539,358,1.76291,0.284016
322,666,0,0,0,0,0,0,0,0,0,-1,1546,358,0,0
329,666,0,0,0,0,0,0,0,0,0,-1,1553,358,0,0
336,666,0,0,0,0,0,0,0,0,0,-1,1560,358,0,0
343,666,0,0,0,0,0,0,0,0,0,-1,1567,358,0,0
350,666,0,0,0,0,0,0,0,0,0,-1,1574,358,0,0
357,666,0,0,0,0,0,0,0,0,0,-1,1581,358,0,0
364,666,0,0,0,0,0,0,0,0,0,-1,1588,358,0,0
371,666,0,0,0,0,0,0,0,0,0,-1,1595,358,0,0
378,666,0,0,0,0,0,0,0,0,0,-1,1602,358,0,0
385,666,0,0,0,0,0,0,0,0,0,-1,1609,358,0,0
392,666,0,0,0,0,0,0,0,0,0,-1,1616,358,0,0
399,666,0,0,0,0,0,0,0,0,0,-1,1623,358,0,0
406,666,0,0,0,0,0,0,0,0,0,-1,1630,358,0,0
413,666,0,0,0,0,0,0,0,0,0,-1,1637,358,0,0
420,666,0,0,0,0,0,0,0,0,0,-1,1644,358,0,0
427,666,0,0,0,0,0,0,0,0,0,-1,1651,358,0,0
434,666,0,0,0,0,0,0,0,0,0,-1,1658,358,0,0
441,666,0,0,0,0,0,0,0,0,0,-1,1665,358,0,0
448,666,0,0,0,0,0,0,0,0,0,-1,1672,358,0,0
455,666,0,0,0,0,0,0,0,0,0,-1,1679,358,0,0
462,666,0,0,0,0,0,0,0,0,0,-1,1686,358,0,0
469,666,0,0,0,0,0,0,0,0,0,-1,1693,358,0,0
476,666,0,0,0,0,0,0,0,0,0,-1,1700,358,0,0
483,666,0,0,0,0,0,0,0,0,0,-1,1707,358,0,0
490,666,0,0,0,0,0,0,0,0,0,-1,1714,358,0,0
497,666,0,0,0,0,0,0,0,0,0,-1,1721,358,0,0
504,666,0,0,0,0,0,0,0,0,0,-1,1728,358,0,0
511,666,0,0,0,0,0,0,0,0,0,-1,1735,358,0,0
518,666,0,0,0,0,0,0,0,0,0,-1,1742,358,0,0
525,666,0,0,0,0,0,0,0,0,0,-1,1749,358,0,0
532,666,0,0,0,0,0,0,0,0,0,-1,1756,358,0,0
539,666,0,0,0,0,0,0,0,0,0,-1,1763,358,0,0
546,666,0,0,0,0,0,0,0,0,0,-1,1770,358,0,0
553,666,0,0,0,0,0,0,0,0,0,-1,1777,358,0,0
560,666,0,0,0,0,0,0,0,0,0,-1,1784,358,0,0
567,666,0,0,0,0,0,0,0,0,0,-1,1791,358,0,0
574,666,0,0,0,0,0,0,0,0,0,-1,1798,358,0,0
581,666,0,0,0,0,0,0,0,0,0,-1,1805,358,0,0
588,666,0,0,0,0,0,0,0,0,0,-1,1812,358,0,0
595,666,0,0,0,0,0,0,0,0,0,-1,1819,358,0,0
602,666,0,0,0,0,0,0,0,0,0,-1,1826,358,0,0
609,666,0,0,0,0,0,0,0,0,0,-1,1833,358,0,0
616,666,0,0,0,0,0,0,0,0,0,-1,1840,358,0,0
623,666,0,0,0,0,0,0,0,0,0,-1,1847,358,0,0
630,666,0,0,0,0,0,0,0,0,0,-1,1854,358,0,0
637,666,0,0,0,0,0,0,0,0,0,-1,1861,358,0,0
644,666,0,0,0,0,0,0,0,0,0,-1,1868,358,0,0
651,666,0,0,0,0,0,0,0,0,0,-1,1875,358,0,0
658,666,0,0,0,0,0,0,0,0,0,-1,1882,358,0,0
665,666,0,0,0,0,0,0,0,0,0,-1,1889,358,0,0
672,666,0,0,0,0,0,0,0,0,0,-1,1896,358,0,0
679,666,0,0,0,0,0,0,0,0,0,-1,1903,358,0,0
686,666,0,0,0,0,0,0,0,0,0,-1,1910,358,0,0
693,666,0,0,0,0,0,0,0,0,0,-1,1917,358,0,0
700,666,0,0,0,0,0,0,0,0,0,-1,1924,358,0,0
707,666,0,0,0,0,0,0,0,0,0,-1,1931,358,0,0
714,666,0,0,0,0,0,0,0,0,0,-1,1938,358,0,0
721,666,0,0,0,0,0,0,0,0,0,-1,1945,358,0,0
728,666,0,0,0,0,0,0,0,0,0,-1,1952,358,0,0
735,666,0,0,0,0,0,0,0,0,0,-1,1959,358,0,0
742,666,0,0,0,0,0,0,0,0,0,-1,1966,358,0,0
749,666,0,0,0,0,0,0,0,0,0,-1,1973,358,0,0
756,666,0,0,0,0,0,0,0,0,0,-1,1980,358,0,0
763,666,0,0,0,0,0,0,0,0,0,-1,1987,358,0,0
770,666,0,0,0,0,0,0,0,0,0,-1,1994,358,0,0
777,666,0,0,0,0,0,0,0,0,0,-1,2001,358,0,0
784,666,0,0,0,0,0,0,0,0,0,-1,2008,358,0,0
791,666,0,0,0,0,0,0,0,0,0,-1,2015,358,0,0
798,666,0,0,0,0,0,0,0,0,0,-1,2022,358,0,0
805,666,0,0,0,0,0,0,0,0,0,-1,2029,358,0,0
812,666,0,0,0,0,0,0,0,0,0,-1,2036,358,0,0
-700,659,0,0,0,0,0,0,0,0,0,-1,524,365,0,0
-693,659,0,0,0,0,0,0,0,0,0,-1,531,365,0,0
-686,659,0,0,0,0,0,0,0,0,0,-1,538,365,0,0
-679,659,0,0,0,0,0,0,0,0,0,-1,545,365,0,0
-672,659,0,0,0,0,0,0,0,0,0,-1,552,365,0,0
-665,659,0,0,0,0,0,0,0,0,0,-1,559,365,0,0
-658,659,0,0,0,0,0,0,0,0,0,-1,566,365,0,0
-651,659,0,0,0,0,0,0,0,0,0,-1,573,365,0,0
-644,659,0,0,0,0,0,0,0,0,0,-1,580,365,0,0
-637,659,0,0,0,0,0,0,0,0,0,-1,587,365,0,0
-630,659,0,0,0,0,0,0,0,0,0,-1,594,365,0,0
-623,659,0,0,0,0,0,0,0,0,0,-1,601,365,0,0
-616,659,0,0,0,0,0,0,0,0,0,-1,608,365,0,0
-609,659,0,0,0,0,0,0,0,0,0,-1,615,365,0,0
-602,659,0,0,0,0,0,0,0,0,0,-1,622,365,0,0
-595,659,0,0,0,0,0,0,0,0,0,-1,629,365,0,0
-588,659,0,0,0,0,0,0,0,0,0,-1,636,365,0,0
-581,659,0,0,0,0,0,0,0,0,0,-1,643,365,0,0
-574,659,0,0,0,0,0,0,0,0,0,-1,650,365,0,0
-567,659,0,0,0,0,0,0,0,0,0,-1,657,365,0,0
-560,659,0,0,0,0,0,0,0,0,0,-1,664,365,0,0
-553,659,0,0,0,0,0,0,0,0,0,-1,671,365,0,0
-546,659,0,0,0,0,0,0,0,0,0,-1,678,365,0,0
-539,659,0,0,0,0,0,0,0,0,0,-1,685,365,0,0
-532,659,0,0,0,0,0,0,0,0,0,-1,692,365,0,0
-525,659,0,0,0,0,0,0,0,0,0,-1,699,365,0,0
-518,659,0,0,0,0,0,0,0,0,0,-1,706,365,0,0
-511,659,0,0,0,0,0,0,0,0,0,-1,713,365,0,0
-504,659,0,0,0,0,0,0,0,0,0,-1,720,365,0,0
-497,659,0,0,0,0,0,0,0,0,0,-1,727,365,0,0
-490,659,0,0,0,0,0,0,0,0,0,-1,734,365,0,0
-483,659,0,0,0,0,0,0,0,0,0,-1,741,365,0,0
-476,659,0,0,0,0,0,0,0,0,0,-1,748,365,0,0
-469,659,0,0,0,0,0,0,0,0,0,-1,755,365,0,0
-462,659,0,0,0,0,0,0,0,0,0,-1,762,365,0,0
-455,659,0,0,0,0,0,0,0,0,0,-1,769,365,0,0
-448,659,0,0,0,0,0,0,0,0,0,-1,776,365,0,0
-441,659,0,0,0,0,0,0,0,0,0,-1,783,365,0,0
-434,659,0,0,0,0,0,0,0,0,0,-1,790,365,0,0
-427,659,0,0,0,0,0,0,0,0,0,-1,797,365,0,0
-420,659,0,0,0,0,0,0,0,0,0,-1,804,365,0,0
-413,659,0,0,0,0,0,0,0,0,0,-1,811,365,0,0
-406,659,0,0,0,0,0,0,0,0,0,-1,818,365,0,0
-399,659,0,0,0,0,0,0,0,0,0,-1,825,365,0,0
-392,659,0,0,0,0,0,0,0,0,0,-1,832,365,0,0
-385,659,0,0,0,0,0,0,0,0,0,-1,839,365,0,0
-378,659,0,0,0,0,0,0,0,0,0,-1,846,365,0,0
-371,659,0,0,0,0,0,0,0,0,0,-1,853,365,0,0
-364,659,0,0,0,0,0,0,0,0,0,-1,860,365,0,0
-357,659,0,0,0,0,0,0,0,0,0,-1,867,365,0,0
-350,659,0,0,0,0,0,0,0,0,0,-1,874,365,0,0
-343,659,0,0,0,0,0,0,0,0,0,-1,881,365,0,0
-336,659,0,0,0,0,0,0,0,0,0,-1,888,365,0,0
-329,659,0,0,0,0,0,0,0,0,0,-1,895,365,0,0
-322,659,0,0,0,0,0,0,0,0,0,-1,902,365,0,0
-315,659,0,0,0,0,0,0,0,0,0,-1,909,365,0,0
-308,659,0,0,0,0,0,0,0,0,0,-1,916,365,0,0
-301,659,0,0,0,0,0,0,0,0,0,-1,923,365,0,0
-294,659,0,0,0,0,0,0,0,0,0,-1,930,365,0,0
-287,659,0,0,0,0,0,0,0,0,0,-1,937,365,0,0
-280,659,0,0,0,0,0,0,0,0,0,-1,944,365,0,0
-273,659,0,0,0,0,0,0,0,0,0,-1,951,365,0,0
-266,659,0,0,0,0,0,0,0,0,0,-1,958,365,0,0
-259,659,0,0,0,0,0,0,0,0,0,-1,965,365,0,0
-252,659,0,0,0,0,0,0,0,0,0,-1,972,365,0,0
-245,659,0,0,0,0,0,0,0,0,0,-1,979,365,0,0
-238,659,0,0,0,0,0,0,0,0,0,-1,986,365,0,0
-231,659,0,0,0,0,0,0,0,0,0,-1,993,365,0,0
-224,659,0,0,0,0,0,0,0,0,0,-1,1000,365,0,0
-217,659,1.58905,-25.7653,0,0,0,0,0,0,0,-1,1007,365,1.58908,25.7652
-210,659,2.664,-25.0039,0,0,0,0,0,0,0,-1,1014,365,2.664,25.0039
-203,659,3.64746,-23.8298,0,0,0,0,0,0,0,-1,1021,365,3.64742,23.8298
-196,659,4.5022,-23.0318,0,0,0,0,0,0,0,-1,1028,365,4.50215,23.0318
-189,659,1.69055,-26.9917,0,0,0,0,0,0,0,-1,1035,365,1.69058,26.9917
-182,659,2.86572,-27.5772,0,0,0,0,0,0,0,-1,1042,365,2.86572,27.5772
-175,659,4.15869,-28.4581,0,0,0,0,0,0,0,-1,1049,365,4.15869,28.4581
-168,659,3.96448,-29.2167,0,0,0,0,0,0,0,-1,1056,365,3.96443,29.2167
-161,659,3.97205,-30.0695,0,0,0,0,0,0,0,-1,1063,365,3.97199,30.0695
-154,659,4.99182,-29.7679,0,0,0,0,0,0,0,-1,1070,365,4.99188,29.7679
-147,659,5.7063,-29.6717,0,0,0,0,0,0,0,-1,1077,365,5.70626,29.6717
-140,659,3.98083,-28.1931,0,0,0,0,0,0,0,-1,1084,365,3.98081,28.1931
-133,659,3.87488,-29.336,0,0,0,0,0,0,0,-1,1091,365,3.87486,29.336
-126,659,5.80042,-29.5948,0,0,0,0,0,0,0,-1,1098,365,5.80038,29.5948
-119,659,5.65833,-29.6995,0,0,0,0,0,0,0,-1,1105,365,5.65835,29.6995
-112,659,5.51636,-29.8041,0,0,0,0,0,0,0,-1,1112,365,5.51631,29.8041
-105,659,5.40796,-29.5204,0,0,0,0,0,0,0,-1,1119,365,5.40798,29.5204
-98,659,4.68042,-26.2438,0,0,0,0,0,0,0,-1,1126,365,4.68041,26.2438
-91,659,4.20776,-20.8654,0,0,0,0,0,0,0,-1,1133,365,4.20777,20.8654
-84,659,2.8584,-17.8303,0,0,0,0,0,0,0,-1,1140,365,2.85836,17.8303
-77,659,2.80139,-15.3457,0,0,0,0,0,0,0,-1,1147,365,2.80139,15.3457
-70,659,2.9353,-12.7028,0,0,0,0,0,0,0,-1,1154,365,2.93533,12.7028
-63,659,2.11267,-9.7796,0,0,0,0,0,0,0,-1,1161,365,2.11266,9.7796
-56,659,2.11182,-9.91541,0,0,0,0,0,0,0,-1,1168,365,2.11178,9.91541
-49,659,4.96204,-32.1481,0,0,0,0,0,0,0,-1,1175,365,4.96208,32.1481
-42,659,4.94934,-32.3425,0,0,0,0,0,0,0,-1,1182,365,4.94931,32.3425
-35,659,4.86829,-32.5472,-0.0116531,0.0231492,-0.00434273,0.0236829,-0.0121868,-1.44851,0.021061,0.0428233,1189,365,4.86827,32.5472
-28,659,4.89771,-32.6257,-0.0118624,0.0234549,-0.00443325,0.0240029,-0.0124104,-1.44781,0.0213754,0.0154388,1196,365,4.89774,32.6257
-21,659,4.85278,-32.7711,-0.0116418,0.0237078,-0.00475944,0.0243373,-0.0122714,-1.43928,0.0215154,0.0122787,1203,365,4.85274,32.7711
-14,659,4.78125,-32.912,-0.0113948,0.0233668,-0.00480887,0.0240197,-0.0120478,-1.43583,0.0212026,0.00997575,1210,365,4.7813,32.912
-7,659,4.74097,-33.0183,-0.0109853,0.0228119,-0.0047859,0.0234765,-0.01165,-1.4328,0.0206599,0.00996822,1217,365,4.74103,33.0183
0,659,4.72388,-33.1111,-0.0104484,0.0219818,-0.0046409,0.0226329,-0.0110995,-1.43142,0.0198512,0.00906247,1224,365,4.72394,33.1111
7,659,4.69556,-33.1946,-0.00982375,0.0220131,-0.00468477,0.0226882,-0.0104988,-1.42769,0.0195866,0.0088327,1231,365,4.69551,33.1946
14,659,4.65369,-33.2411,-0.00894223,0.0209788,-0.00422175,0.021563,-0.0095265,-1.43328,0.0183925,0.0114297,1238,365,4.65364,33.2411
21,659,4.61108,-33.3087,-0.00786854,0.0205942,-0.00324463,0.0209594,-0.00823373,-1.45872,0.0173802,0.0123265,1245,365,4.61104,33.3087
28,659,4.56958,-33.3824,-0.00686699,0.0205128,-0.0026677,0.0207703,-0.00712449,-1.47457,0.0167351,0.0116378,1252,365,4.56964,33.3823
35,659,4.552,-33.4338,-0.00551577,0.0202787,-0.00176619,0.0203991,-0.00563614,-1.50275,0.0158165,0.0117382,1259,365,4.55201,33.4338
42,659,4.52637,-33.4678,-0.00443212,0.0198313,-0.000681338,0.0198504,-0.00445124,-1.54274,0.0149401,0.0114764,1266,365,4.5264,33.4678
49,659,4.46619,-33.4841,-0.00346177,0.0199967,0.000424073,0.0200044,-0.00346943,1.55273,0.0146305,0.0112614,1273,365,4.46619,33.4841
56,659,4.44421,-33.4775,-0.0028872,0.0201022,0.00122339,0.0201671,-0.00295212,1.51778,0.0145291,0.0154446,1280,365,4.44419,33.4775
63,659,4.45105,-33.5198,-0.00245487,0.0205098,0.00196949,0.0206774,-0.00262255,1.48586,0.0147371,0.0164012,1287,365,4.45106,33.5198
70,659,4.38855,-33.5017,-0.00247519,0.0210185,0.00254471,0.021291,-0.00274766,1.46413,0.0151929,0.0167198,1294,365,4.38859,33.5017
77,659,4.31689,-33.4715,-0.00263501,0.0206615,0.00265123,0.0209594,-0.00293292,1.4589,0.0150462,0.0182174,1301,365,4.31687,33.4715
84,659,4.30115,-33.4446,-0.00293424,0.0206098,0.00267631,0.0209102,-0.00323463,1.45902,0.015134,0.0133074,1308,365,4.30115,33.4446
91,659,4.25122,-33.3921,-0.00295846,0.0204099,0.00244254,0.0206625,-0.00321103,1.46776,0.0149606,0.0110264,1315,365,4.25117,33.3921
98,659,4.22607,-33.3224,-0.00308912,0.0199494,0.00229406,0.0201756,-0.00331533,1.47251,0.0146808,0.00788574,1322,365,4.22611,33.3224
105,659,4.20044,-33.2329,-0.0032113,0.0194915,0.00191606,0.0196521,-0.00337187,1.48719,0.0143579,0.00885306,1329,365,4.20045,33.2329
112,659,4.1781,-33.1371,-0.00298778,0.0183972,0.00176756,0.0185423,-0.00313289,1.48888,0.0135273,0.0139209,1336,365,4.17806,33.1371
119,659,4.13574,-33.0028,-0.0027153,0.0184124,0.0012742,0.018489,-0.00279187,1.51078,0.0133543,0.015902,1343,365,4.13576,33.0028
126,659,4.08838,-32.8777,-0.00230373,0.0178384,0.000813377,0.0178711,-0.00233652,1.5305,0.0127644,0.013179,1350,365,4.08844,32.8777
133,659,4.04016,-32.7596,-0.0015311,0.0173331,0.00124228,0.0174146,-0.00161256,1.50532,0.0121829,0.0118127,1357,365,4.04014,32.7596
140,659,4.00195,-32.6603,-0.00103971,0.0173167,0.00158485,0.0174526,-0.00117554,1.4853,0.012046,0.00910315,1364,365,4.00191,32.6603
147,659,3.96643,-32.5313,-0.00042912,0.0175324,0.00197611,0.0177473,-0.000643959,1.4625,0.0120519,0.00865474,1371,365,3.96643,32.5313
154,659,3.91602,-32.3307,0.000379358,0.0171464,0.0026613,0.0175586,-3.29129e-05,1.4171,0.0117168,0.0104469,1378,365,3.91604,32.3307
161,659,3.89221,-32.1411,0.00103676,0.0171997,0.00366498,0.0179919,0.000244546,1.35791,0.0119139,0.0116888,1385,365,3.8922,32.141
168,659,3.89026,-31.9603,0.00109871,0.0169193,0.00414226,0.0179383,7.97771e-05,1.3296,0.0119323,0.0184446,1392,365,3.89032,31.9603
175,659,3.89209,-31.7961,0.000751485,0.0162384,0.0043394,0.0173714,-0.00038152,1.3154,0.0117102,0.0414985,1399,365,3.89213,31.7961
182,659,3.76147,-31.6789,0,0,0,0,0,0,0,-1,1406,365,3.76144,31.6789
189,659,3.80042,-31.2357,0,0,0,0,0,0,0,-1,1413,365,3.80036,31.2358
196,659,2.41248,-13.4371,0,0,0,0,0,0,0,-1,1420,365,2.41243,13.4371
203,659,2.38623,-12.2163,0,0,0,0,0,0,0,-1,1427,365,2.38617,12.2163
210,659,2.20789,-13.9792,0,0,0,0,0,0,0,-1,1434,365,2.20794,13.9792
217,659,2.24121,-13.487,0,0,0,0,0,0,0,-1,1441,365,2.24116,13.487
224,659,2.3479,-15.2926,0,0,0,0,0,0,0,-1,1448,365,2.34793,15.2926
231,659,2.47974,-17.8629,0,0,0,0,0,0,0,-1,1455,365,2.47976,17.8628
238,659,3.57886,-21.1258,0,0,0,0,0,0,0,-1,1462,365,3.57889,21.1258
245,659,3.29883,-25.0283,0,0,0,0,0,0,0,-1,1469,365,3.29889,25.0283
252,659,2.81909,-24.1604,0,0,0,0,0,0,0,-1,1476,365,2.81905,24.1604
259,659,2.33069,-3.36703,0,0,0,0,0,0,0,-1,1483,365,2.33073,3.36702
266,659,1.72681,-17.183,0,0,0,0,0,0,0,-1,1490,365,1.72683,17.183
273,659,2.86487,-28.3759,0,0,0,0,0,0,0,-1,1497,365,2.86482,28.3759
280,659,-6.90784,-17.1906,0,0,0,0,0,0,0,-1,1504,365,-6.90789,17.1906
287,659,-5.92737,-19.4511,0,0,0,0,0,0,0,-1,1511,365,-5.92734,19.4511
294,659,-4.90845,-21.6836,0,0,0,0,0,0,0,-1,1518,365,-4.90846,21.6836
301,659,-4.74207,-23.313,0,0,0,0,0,0,0,-1,1525,365,-4.74206,23.313
308,659,-3.77832,-24.1487,0,0,0,0,0,0,0,-1,1532,365,-3.77827,24.1487
315,659,2.17102,-2.98474,0,0,0,0,0,0,0,-1,1539,365,2.171,2.98473
322,659,0.382813,-2.2424,0,0,0,0,0,0,0,-1,1546,365,0.382801,2.2424
329,659,0.604004,-1.75998,0,0,0,0,0,0,0,-1,1553,365,0.603966,1.75998
336,659,4.55933,-25.2647,0,0,0,0,0,0,0,-1,1560,365,4.55935,25.2647
343,659,0,0,0,0,0,0,0,0,0,-1,1567,365,0,0
350,659,0,0,0,0,0,0,0,0,0,-1,1574,365,0,0
357,659,0,0,0,0,0,0,0,0,0,-1,1581,365,0,0
364,659,0,0,0,0,0,0,0,0,0,-1,1588,365,0,0
371,659,0,0,0,0,0,0,0,0,0,-1,1595,365,0,0
378,659,0,0,0,0,0,0,0,0,0,-1,1602,365,0,0
385,659,0,0,0,0,0,0,0,0,0,-1,1609,365,0,0
392,659,0,0,0,0,0,0,0,0,0,-1,1616,365,0,0
399,659,0,0,0,0,0,0,0,0,0,-1,1623,365,0,0
406,659,0,0,0,0,0,0,0,0,0,-1,1630,365,0,0
413,659,0,0,0,0,0,0,0,0,0,-1,1637,365,0,0
420,659,0,0,0,0,0,0,0,0,0,-1,1644,365,0,0
427,659,0,0,0,0,0,0,0,0,0,-1,1651,365,0,0
434,659,0,0,0,0,0,0,0,0,0,-1,1658,365,0,0
441,659,0,0,0,0,0,0,0,0,0,-1,1665,365,0,0
448,659,0,0,0,0,0,0,0,0,0,-1,1672,365,0,0
455,659,0,0,0,0,0,0,0,0,0,-1,1679,365,0,0
462,659,0,0,0,0,0,0,0,0,0,-1,1686,365,0,0
469,659,0,0,0,0,0,0,0,0,0,-1,1693,365,0,0
476,659,0,0,0,0,0,0,0,0,0,-1,1700,365,0,0
483,659,0,0,0,0,0,0,0,0,0,-1,1707,365,0,0
490,659,0,0,0,0,0,0,0,0,0,-1,1714,365,0,0
497,659,0,0,0,0,0,0,0,0,0,-1,1721,365,0,0
504,659,0,0,0,0,0,0,0,0,0,-1,1728,365,0,0
511,659,0,0,0,0,0,0,0,0,0,-1,1735,365,0,0
518,659,0,0,0,0,0,0,0,0,0,-1,1742,365,0,0
525,659,0,0,0,0,0,0,0,0,0,-1,1749,365,0,0
532,659,0,0,0,0,0,0,0,0,0,-1,1756,365,0,0
539,659,0,0,0,0,0,0,0,0,0,-1,1763,365,0,0
546,659,0,0,0,0,0,0,0,0,0,-1,1770,365,0,0
553,659,0,0,0,0,0,0,0,0,0,-1,1777,365,0,0
560,659,0,0,0,0,0,0,0,0,0,-1,1784,365,0,0
567,659,0,0,0,0,0,0,0,0,0,-1,1791,365,0,0
574,659,0,0,0,0,0,0,0,0,0,-1,1798,365,0,0
581,659,0,0,0,0,0,0,0,0,0,-1,1805,365,0,0
588,659,0,0,0,0,0,0,0,0,0,-1,1812,365,0,0
595,659,0,0,0,0,0,0,0,0,0,-1,1819,365,0,0
602,659,0,0,0,0,0,0,0,0,0,-1,1826,365,0,0
609,659,0,0,0,0,0,0,0,0,0,-1,1833,365,0,0
616,659,0,0,0,0,0,0,0,0,0,-1,1840,365,0,0
623,659,0,0,0,0,0,0,0,0,0,-1,1847,365,0,0
630,659,0,0,0,0,0,0,0,0,0,-1,1854,365,0,0
637,659,0,0,0,0,0,0,0,0,0,-1,1861,365,0,0
644,659,0,0,0,0,0,0,0,0,0,-1,1868,365,0,0
651,659,0,0,0,0,0,0,0,0,0,-1,1875,365,0,0
658,659,0,0,0,0,0,0,0,0,0,-1,1882,365,0,0
665,659,0,0,0,0,0,0,0,0,0,-1,1889,365,0,0
672,659,0,0,0,0,0,0,0,0,0,-1,1896,365,0,0
679,659,0,0,0,0,0,0,0,0,0,-1,1903,365,0,0
686,659,0,0,0,0,0,0,0,0,0,-1,1910,365,0,0
693,659,0,0,0,0,0,0,0,0,0,-1,1917,365,0,0
700,659,0,0,0,0,0,0,0,0,0,-1,1924,365,0,0
707,659,0,0,0,0,0,0,0,0,0,-1,1931,365,0,0
714,659,0,0,0,0,0,0,0,0,0,-1,1938,365,0,0
721,659,0,0,0,0,0,0,0,0,0,-1,1945,365,0,0
728,659,0,0,0,0,0,0,0,0,0,-1,1952,365,0,0
735,659,0,0,0,0,0,0,0,0,0,-1,1959,365,0,0
742,659,0,0,0,0,0,0,0,0,0,-1,1966,365,0,0
749,659,0,0,0,0,0,0,0,0,0,-1,1973,365,0,0
756,659,0,0,0,0,0,0,0,0,0,-1,1980,365,0,0
763,659,0,0,0,0,0,0,0,0,0,-1,1987,365,0,0
770,659,0,0,0,0,0,0,0,0,0,-1,1994,365,0,0
777,659,0,0,0,0,0,0,0,0,0,-1,2001,365,0,0
784,659,0,0,0,0,0,0,0,0,0,-1,2008,365,0,0
791,659,0,0,0,0,0,0,0,0,0,-1,2015,365,0,0
798,659,0,0,0,0,0,0,0,0,0,-1,2022,365,0,0
805,659,0,0,0,0,0,0,0,0,0,-1,2029,365,0,0
812,659,0,0,0,0,0,0,0,0,0,-1,2036,365,0,0
-700,652,0,0,0,0,0,0,0,0,0,-1,524,372,0,0
-693,652,0,0,0,0,0,0,0,0,0,-1,531,372,0,0
-686,652,0,0,0,0,0,0,0,0,0,-1,538,372,0,0
-679,652,0,0,0,0,0,0,0,0,0,-1,545,372,0,0
-672,652,0,0,0,0,0,0,0,0,0,-1,552,372,0,0
-665,652,0,0,0,0,0,0,0,0,0,-1,559,372,0,0
-658,652,0,0,0,0,0,0,0,0,0,-1,566,372,0,0
-651,652,0,0,0,0,0,0,0,0,0,-1,573,372,0,0
-644,652,0,0,0,0,0,0,0,0,0,-1,580,372,0,0
-637,652,0,0,0,0,0,0,0,0,0,-1,587,372,0,0
-630,652,0,0,0,0,0,0,0,0,0,-1,594,372,0,0
-623,652,0,0,0,0,0,0,0,0,0,-1,601,372,0,0
-616,652,0,0,0,0,0,0,0,0,0,-1,608,372,0,0
-609,652,0,0,0,0,0,0,0,0,0,-1,615,372,0,0
-602,652,0,0,0,0,0,0,0,0,0,-1,622,372,0,0
-595,652,0,0,0,0,0,0,0,0,0,-1,629,372,0,0
-588,652,0,0,0,0,0,0,0,0,0,-1,636,372,0,0
-581,652,0,0,0,0,0,0,0,0,0,-1,643,372,0,0
-574,652,0,0,0,0,0,0,0,0,0,-1,650,372,0,0
-567,652,0,0,0,0,0,0,0,0,0,-1,657,372,0,0
-560,652,0,0,0,0,0,0,0,0,0,-1,664,372,0,0
-553,652,0,0,0,0,0,0,0,0,0,-1,671,372,0,0
-546,652,0,0,0,0,0,0,0,0,0,-1,678,372,0,0
-539,652,0,0,0,0,0,0,0,0,0,-1,685,372,0,0
-532,652,0,0,0,0,0,0,0,0,0,-1,692,372,0,0
-525,652,0,0,0,0,0,0,0,0,0,-1,699,372,0,0
-518,652,0,0,0,0,0,0,0,0,0,-1,706,372,0,0
-511,652,0,0,0,0,0,0,0,0,0,-1,713,372,0,0
-504,652,0,0,0,0,0,0,0,0,0,-1,720,372,0,0
-497,652,0,0,0,0,0,0,0,0,0,-1,727,372,0,0
-490,652,0,0,0,0,0,0,0,0,0,-1,734,372,0,0
-483,652,0,0,0,0,0,0,0,0,0,-1,741,372,0,0
-476,652,0,0,0,0,0,0,0,0,0,-1,748,372,0,0
-469,652,0,0,0,0,0,0,0,0,0,-1,755,372,0,0
-462,652,0,0,0,0,0,0,0,0,0,-1,762,372,0,0
-455,652,0,0,0,0,0,0,0,0,0,-1,769,372,0,0
-448,652,0,0,0,0,0,0,0,0,0,-1,776,372,0,0
-441,652,0,0,0,0,0,0,0,0,0,-1,783,372,0,0
-434,652,0,0,0,0,0,0,0,0,0,-1,790,372,0,0
-427,652,0,0,0,0,0,0,0,0,0,-1,797,372,0,0
-420,652,0,0,0,0,0,0,0,0,0,-1,804,372,0,0
-413,652,0,0,0,0,0,0,0,0,0,-1,811,372,0,0
-406,652,0,0,0,0,0,0,0,0,0,-1,818,372,0,0
-399,652,0,0,0,0,0,0,0,0,0,-1,825,372,0,0
-392,652,0,0,0,0,0,0,0,0,0,-1,832,372,0,0
-385,652,0,0,0,0,0,0,0,0,0,-1,839,372,0,0
-378,652,0,0,0,0,0,0,0,0,0,-1,846,372,0,0
-371,652,0,0,0,0,0,0,0,0,0,-1,853,372,0,0
-364,652,0,0,0,0,0,0,0,0,0,-1,860,372,0,0
-357,652,0,0,0,0,0,0,0,0,0,-1,867,372,0,0
-350,652,0,0,0,0,0,0,0,0,0,-1,874,372,0,0
-343,652,0,0,0,0,0,0,0,0,0,-1,881,372,0,0
-336,652,0,0,0,0,0,0,0,0,0,-1,888,372,0,0
-329,652,0,0,0,0,0,0,0,0,0,-1,895,372,0,0
-322,652,0,0,0,0,0,0,0,0,0,-1,902,372,0,0
-315,652,0,0,0,0,0,0,0,0,0,-1,909,372,0,0
-308,652,0,0,0,0,0,0,0,0,0,-1,916,372,0,0
-301,652,0,0,0,0,0,0,0,0,0,-1,923,372,0,0
-294,652,0,0,0,0,0,0,0,0,0,-1,930,372,0,0
-287,652,0,0,0,0,0,0,0,0,0,-1,937,372,0,0
-280,652,0,0,0,0,0,0,0,0,0,-1,944,372,0,0
-273,652,0,0,0,0,0,0,0,0,0,-1,951,372,0,0
-266,652,0,0,0,0,0,0,0,0,0,-1,958,372,0,0
-259,652,0,0,0,0,0,0,0,0,0,-1,965,372,0,0
-252,652,0,0,0,0,0,0,0,0,0,-1,972,372,0,0
-245,652,0,0,0,0,0,0,0,0,0,-1,979,372,0,0
-238,652,0,0,0,0,0,0,0,0,0,-1,986,372,0,0
-231,652,8.68457,-21.315,0,0,0,0,0,0,0,-1,993,372,8.68455,21.315
-224,652,9.47449,-18.002,0,0,0,0,0,0,0,-1,1000,372,9.47449,18.002
-217,652,1.80139,-26.709,0,0,0,0,0,0,0,-1,1007,372,1.80137,26.709
-210,652,2.70807,-25.7509,0,0,0,0,0,0,0,-1,1014,372,2.70809,25.7509
-203,652,3.66467,-24.6504,0,0,0,0,0,0,0,-1,1021,372,3.66463,24.6504
-196,652,4.50012,-23.3835,0,0,0,0,0,0,0,-1,1028,372,4.50007,23.3835
-189,652,2.43188,-26.0271,0,0,0,0,0,0,0,-1,1035,372,2.43189,26.0271
-182,652,3.18262,-26.595,0,0,0,0,0,0,0,-1,1042,372,3.18263,26.595
-175,652,4.11084,-27.4904,0,0,0,0,0,0,0,-1,1049,372,4.11082,27.4905
-168,652,4.23169,-28.467,0,0,0,0,0,0,0,-1,1056,372,4.23173,28.467
-161,652,4.25281,-29.2284,0.0347927,-0.0462604,-0.0111007,0.0362855,-0.0477532,-0.133677,0.0486701,0.0405311,1063,372,4.25285,29.2283
-154,652,4.87817,-29.3209,0.0329097,-0.0455683,-0.00871414,0.0338656,-0.0465243,-0.109266,0.0466045,0.0449494,1070,372,4.87816,29.3209
-147,652,5.4491,-29.6887,0.0306248,-0.0436138,-0.00653093,0.031195,-0.044184,-0.0870808,0.0437349,0.0444559,1077,372,5.44912,29.6887
-140,652,5.94482,-29.9941,0,0,0,0,0,0,0,-1,1084,372,5.94478,29.9941
-133,652,4.21838,-29.2366,0.0246538,-0.0337635,-0.00268662,0.0247771,-0.0338868,-0.045861,0.0340055,0.0414823,1091,372,4.21834,29.2366
-126,652,5.52686,-29.487,0.0211756,-0.0279147,-0.00120952,0.0212054,-0.0279445,-0.0246188,0.0284655,0.0399849,1098,372,5.52684,29.487
-119,652,5.27051,-29.6581,0.017699,-0.0222273,-8.92136e-06,0.017699,-0.0222273,-0.000223446,0.0231008,0.0371756,1105,372,5.27051,29.6581
-112,652,5.16541,-29.9415,0.0143081,-0.0168701,0.000850212,0.0143313,-0.0168933,0.0272424,0.0180477,0.0327049,1112,372,5.16537,29.9415
-105,652,5.15662,-29.9957,0.0105182,-0.0113563,0.00171662,0.0106521,-0.0114902,0.0778406,0.0127869,0.044088,1119,372,5.15665,29.9957
-98,652,5.24207,-29.7784,0,0,0,0,0,0,0,-1,1126,372,5.24201,29.7785
-91,652,5.21704,-30.3006,0,0,0,0,0,0,0,-1,1133,372,5.21709,30.3006
-84,652,5.15759,-30.5455,0,0,0,0,0,0,0,-1,1140,372,5.15754,30.5455
-77,652,4.95398,-31.2617,0,0,0,0,0,0,0,-1,1147,372,4.95399,31.2617
-70,652,4.94385,-31.575,0,0,0,0,0,0,0,-1,1154,372,4.94389,31.575
-63,652,4.91724,-31.8067,0,0,0,0,0,0,0,-1,1161,372,4.91724,31.8067
-56,652,4.83801,-31.9999,0,0,0,0,0,0,0,-1,1168,372,4.83801,31.9999
-49,652,4.86401,-32.1837,-0.00621313,0.0149644,-0.00264544,0.0152899,-0.00653859,-1.44839,0.0129359,0.0381641,1175,372,4.86396,32.1837
-42,652,4.80261,-32.3158,-0.00677641,0.015638,-0.00303348,0.0160413,-0.0071797,-1.43863,0.0137282,0.0120873,1182,372,4.80261,32.3158
-35,652,4.77625,-32.4854,-0.00700619,0.0161181,-0.0030954,0.0165253,-0.00741337,-1.44,0.0141508,0.00958749,1189,372,4.77625,32.4854
-28,652,4.75134,-32.6401,-0.00697546,0.0165551,-0.00317869,0.0169769,-0.0073973,-1.43886,0.0144302,0.00794531,1196,372,4.75132,32.6401
-21,652,4.71326,-32.7882,-0.00677843,0.0167776,-0.00337303,0.017251,-0.0072519,-1.43134,0.0145341,0.00814891,1203,372,4.7132,32.7882
-14,652,4.68481,-32.921,-0.00663132,0.0165377,-0.00336781,0.0170173,-0.00711093,-1.42934,0.0143165,0.00999128,1210,372,4.68487,32.921
-7,652,4.6571,-33.0464,-0.00641006,0.0161706,-0.00338634,0.0166676,-0.00690696,-1.4251,0.0139942,0.0129469,1217,372,4.65713,33.0465
0,652,4.6322,-33.1367,-0.00611415,0.0155606,-0.00333107,0.016061,-0.00661453,-1.42169,0.0134651,0.0134243,1224,372,4.63222,33.1367
7,652,4.61096,-33.2072,-0.00578821,0.0155298,-0.00343033,0.0160682,-0.0063266,-1.41512,0.0133312,0.0138573,1231,372,4.61102,33.2072
14,652,4.59509,-33.2964,-0.00528853,0.0147156,-0.00313983,0.0151969,-0.00576978,-1.41871,0.0125063,0.0117058,1238,372,4.59506,33.2964
21,652,4.56372,-33.3705,-0.0046945,0.01441,-0.00247382,0.0147251,-0.00500964,-1.44409,0.0118452,0.0116684,1245,372,4.56368,33.3705
28,652,4.54102,-33.4564,-0.00416335,0.0143002,-0.00207374,0.0145302,-0.00439339,-1.46031,0.0114361,0.0109732,1252,372,4.54097,33.4563
35,652,4.50342,-33.5056,-0.00339349,0.0140812,-0.00140155,0.0141929,-0.00350519,-1.49127,0.0108213,0.0107587,1259,372,4.50336,33.5056
42,652,4.47961,-33.524,-0.00279303,0.0137535,-0.000557924,0.0137723,-0.00281182,-1.53713,0.0102482,0.0113058,1266,372,4.47966,33.5241
49,652,4.46973,-33.5333,-0.00230804,0.0139271,0.000293793,0.0139324,-0.00231335,1.55271,0.0101477,0.0136561,1273,372,4.46976,33.5333
56,652,4.4342,-33.5333,-0.00211177,0.014069,0.000884607,0.0141172,-0.00215999,1.51634,0.0102079,0.0159084,1280,372,4.43421,33.5333
63,652,4.43311,-33.5518,-0.00202254,0.0144411,0.00143908,0.0145659,-0.00214739,1.48426,0.0104999,0.0200029,1287,372,4.43314,33.5518
70,652,4.39087,-33.5039,-0.00212689,0.0149184,0.00184908,0.0151167,-0.00232517,1.46397,0.0109356,0.0175157,1294,372,4.39093,33.5039
77,652,4.31641,-33.4913,-0.00235063,0.014706,0.00194037,0.0149239,-0.00256858,1.45894,0.0109068,0.0165496,1301,372,4.31636,33.4913
84,652,4.35205,-33.4714,-0.00258446,0.0147899,0.00193782,0.0150034,-0.00279797,1.46106,0.0110536,0.0141019,1308,372,4.35203,33.4714
91,652,4.30859,-33.464,-0.00262272,0.0147229,0.00173718,0.0148952,-0.00279499,1.47195,0.010981,0.0162745,1315,372,4.30863,33.464
98,652,4.30884,-33.3755,-0.00271595,0.0144248,0.00160375,0.0145736,-0.00286471,1.4783,0.010798,0.0125863,1322,372,4.30885,33.3755
105,652,4.29346,-33.2734,-0.00275213,0.0141385,0.00129517,0.0142373,-0.00285086,1.49471,0.0105707,0.0105044,1329,372,4.29341,33.2734
112,652,4.26611,-33.1937,-0.00252071,0.0134036,0.00114737,0.0134858,-0.00260296,1.49924,0.00997211,0.0101252,1336,372,4.26609,33.1937
119,652,4.22461,-33.0627,-0.00226394,0.0133962,0.000751646,0.0134322,-0.00229993,1.52295,0.00981173,0.0107091,1343,372,4.22462,33.0627
126,652,4.18616,-32.9354,-0.00190857,0.0129553,0.000384649,0.0129652,-0.00191852,1.54494,0.00934884,0.0116267,1350,372,4.18614,32.9354
133,652,4.146,-32.8205,-0.00131996,0.0126223,0.00065134,0.0126527,-0.00135032,1.52421,0.00891935,0.0118668,1357,372,4.14601,32.8205
140,652,4.12659,-32.7035,-0.000953523,0.012657,0.00089637,0.0127158,-0.0010123,1.50531,0.00883396,0.00907792,1364,372,4.12654,32.7035
147,652,4.1145,-32.5608,-0.000574522,0.0128291,0.00120056,0.0129358,-0.000681207,1.48217,0.00885965,0.00892598,1371,372,4.11445,32.5608
154,652,4.08215,-32.3913,-6.2291e-05,0.0126021,0.00173059,0.0128343,-0.000294518,1.4374,0.00865607,0.00947183,1378,372,4.08217,32.3913
161,652,4.04919,-32.2018,0.000315828,0.0127825,0.00252765,0.0132755,-0.000177165,1.37817,0.00891,0.0106785,1385,372,4.04919,32.2018
168,652,4.02417,-32.0117,0.00022015,0.0127083,0.00296816,0.0133779,-0.000449419,1.34893,0.00907209,0.0117587,1392,372,4.02412,32.0117
175,652,4.00049,-31.8013,-0.000238101,0.0123655,0.00325958,0.0131586,-0.0010312,1.33212,0.00913553,0.0120171,1399,372,4.00045,31.8013
182,652,3.95374,-31.621,-0.000823418,0.01328,0.00401773,0.0143442,-0.00188767,1.31186,0.0102501,0.017732,1406,372,3.95369,31.621
189,652,3.95569,-31.4064,-0.00155811,0.0125524,0.00445895,0.0138433,-0.00284904,1.28899,0.0103106,0.0296751,1413,372,3.95572,31.4064
196,652,3.9187,-31.1302,0,0,0,0,0,0,0,-1,1420,372,3.91865,31.1303
203,652,3.85913,-30.9214,0,0,0,0,0,0,0,-1,1427,372,3.85919,30.9213
210,652,3.93018,-30.5675,0,0,0,0,0,0,0,-1,1434,372,3.9302,30.5675
217,652,3.86609,-30.3712,0,0,0,0,0,0,0,-1,1441,372,3.86607,30.3712
224,652,3.66248,-29.8368,0,0,0,0,0,0,0,-1,1448,372,3.66242,29.8368
231,652,3.72156,-29.6564,0,0,0,0,0,0,0,-1,1455,372,3.7215,29.6564
238,652,3.78235,-29.3174,0,0,0,0,0,0,0,-1,1462,372,3.7823,29.3174
245,652,3.68567,-29.171,0,0,0,0,0,0,0,-1,1469,372,3.68561,29.1709
252,652,3.74072,-28.8379,0,0,0,0,0,0,0,-1,1476,372,3.74078,28.8379
259,652,3.53027,-28.1757,0,0,0,0,0,0,0,-1,1483,372,3.53022,28.1757
266,652,3.25525,-28.0659,0,0,0,0,0,0,0,-1,1490,372,3.25523,28.066
273,652,3.45166,-27.8568,0,0,0,0,0,0,0,-1,1497,372,3.45166,27.8568
280,652,3.32764,-28.0776,0,0,0,0,0,0,0,-1,1504,372,3.32758,28.0777
287,652,-4.71191,-19.5709,0,0,0,0,0,0,0,-1,1511,372,-4.71192,19.5709
294,652,-3.86414,-20.5635,0,0,0,0,0,0,0,-1,1518,372,-3.86419,20.5635
301,652,-2.35486,-21.8877,0,0,0,0,0,0,0,-1,1525,372,-2.35492,21.8877
308,652,2.90723,-27.7084,0,0,0,0,0,0,0,-1,1532,372,2.90718,27.7084
315,652,2.32214,-25.9898,0,0,0,0,0,0,0,-1,1539,372,2.32213,25.9898
322,652,1.62671,-24.3525,0,0,0,0,0,0,0,-1,1546,372,1.62673,24.3525
329,652,3.6593,-22.1693,0,0,0,0,0,0,0,-1,1553,372,3.65935,22.1693
336,652,3.52173,-24.2133,0,0,0,0,0,0,0,-1,1560,372,3.52174,24.2133
343,652,4.85767,-24.4762,0,0,0,0,0,0,0,-1,1567,372,4.85772,24.4762
350,652,5.28394,-25.6715,0,0,0,0,0,0,0,-1,1574,372,5.28393,25.6715
357,652,0,0,0,0,0,0,0,0,0,-1,1581,372,0,0
364,652,0,0,0,0,0,0,0,0,0,-1,1588,372,0,0
371,652,0,0,0,0,0,0,0,0,0,-1,1595,372,0,0
378,652,0,0,0,0,0,0,0,0,0,-1,1602,372,0,0
385,652,0,0,0,0,0,0,0,0,0,-1,1609,372,0,0
392,652,0,0,0,0,0,0,0,0,0,-1,1616,372,0,0
399,652,0,0,0,0,0,0,0,0,0,-1,1623,372,0,0
406,652,0,0,0,0,0,0,0,0,0,-1,1630,372,0,0
413,652,0,0,0,0,0,0,0,0,0,-1,1637,372,0,0
420,652,0,0,0,0,0,0,0,0,0,-1,1644,372,0,0
427,652,0,0,0,0,0,0,0,0,0,-1,1651,372,0,0
434,652,0,0,0,0,0,0,0,0,0,-1,1658,372,0,0
441,652,0,0,0,0,0,0,0,0,0,-1,1665,372,0,0
448,652,0,0,0,0,0,0,0,0,0,-1,1672,372,0,0
455,652,0,0,0,0,0,0,0,0,0,-1,1679,372,0,0
462,652,0,0,0,0,0,0,0,0,0,-1,1686,372,0,0
469,652,0,0,0,0,0,0,0,0,0,-1,1693,372,0,0
476,652,0,0,0,0,0,0,0,0,0,-1,1700,372,0,0
483,652,0,0,0,0,0,0,0,0,0,-1,1707,372,0,0
490,652,0,0,0,0,0,0,0,0,0,-1,1714,372,0,0
497,652,0,0,0,0,0,0,0,0,0,-1,1721,372,0,0
504,652,0,0,0,0,0,0,0,0,0,-1,1728,372,0,0
511,652,0,0,0,0,0,0,0,0,0,-1,1735,372,0,0
518,652,0,0,0,0,0,0,0,0,0,-1,1742,372,0,0
525,652,0,0,0,0,0,0,0,0,0,-1,1749,372,0,0
532,652,0,0,0,0,0,0,0,0,0,-1,1756,372,0,0
539,652,0,0,0,0,0,0,0,0,0,-1,1763,372,0,0
546,652,0,0,0,0,0,0,0,0,0,-1,1770,372,0,0
553,652,0,0,0,0,0,0,0,0,0,-1,1777,372,0,0
560,652,0,0,0,0,0,0,0,0,0,-1,1784,372,0,0
567,652,0,0,0,0,0,0,0,0,0,-1,1791,372,0,0
574,652,0,0,0,0,0,0,0,0,0,-1,1798,372,0,0
581,652,0,0,0,0,0,0,0,0,0,-1,1805,372,0,0
588,652,0,0,0,0,0,0,0,0,0,-1,1812,372,0,0
595,652,0,0,0,0,0,0,0,0,0,-1,1819,372,0,0
602,652,0,0,0,0,0,0,0,0,0,-1,1826,372,0,0
609,652,0,0,0,0,0,0,0,0,0,-1,1833,372,0,0
616,652,0,0,0,0,0,0,0,0,0,-1,1840,372,0,0
623,652,0,0,0,0,0,0,0,0,0,-1,1847,372,0,0
630,652,0,0,0,0,0,0,0,0,0,-1,1854,372,0,0
637,652,0,0,0,0,0,0,0,0,0,-1,1861,372,0,0
644,652,0,0,0,0,0,0,0,0,0,-1,1868,372,0,0
651,652,0,0,0,0,0,0,0,0,0,-1,1875,372,0,0
658,652,0,0,0,0,0,0,0,0,0,-1,1882,372,0,0
665,652,0,0,0,0,0,0,0,0,0,-1,1889,372,0,0
672,652,0,0,0,0,0,0,0,0,0,-1,1896,372,0,0
679,652,0,0,0,0,0,0,0,0,0,-1,1903,372,0,0
686,652,0,0,0,0,0,0,0,0,0,-1,1910,372,0,0
693,652,0,0,0,0,0,0,0,0,0,-1,1917,372,0,0
700,652,0,0,0,0,0,0,0,0,0,-1,1924,372,0,0
707,652,0,0,0,0,0,0,0,0,0,-1,1931,372,0,0
714,652,0,0,0,0,0,0,0,0,0,-1,1938,372,0,0
721,652,0,0,0,0,0,0,0,0,0,-1,1945,372,0,0
728,652,0,0,0,0,0,0,0,0,0,-1,1952,372,0,0
735,652,0,0,0,0,0,0,0,0,0,-1,1959,372,0,0
742,652,0,0,0,0,0,0,0,0,0,-1,1966,372,0,0
749,652,0,0,0,0,0,0,0,0,0,-1,1973,372,0,0
756,652,0,0,0,0,0,0,0,0,0,-1,1980,372,0,0
763,652,0,0,0,0,0,0,0,0,0,-1,1987,372,0,0
770,652,0,0,0,0,0,0,0,0,0,-1,1994,372,0,0
777,652,0,0,0,0,0,0,0,0,0,-1,2001,372,0,0
784,652,0,0,0,0,0,0,0,0,0,-1,2008,372,0,0
791,652,0,0,0,0,0,0,0,0,0,-1,2015,372,0,0
798,652,0,0,0,0,0,0,0,0,0,-1,2022,372,0,0
805,652,0,0,0,0,0,0,0,0,0,-1,2029,372,0,0
812,652,0,0,0,0,0,0,0,0,0,-1,2036,372,0,0
-700,645,0,0,0,0,0,0,0,0,0,-1,524,379,0,0
-693,645,0,0,0,0,0,0,0,0,0,-1,531,379,0,0
-686,645,0,0,0,0,0,0,0,0,0,-1,538,379,0,0
-679,645,0,0,0,0,0,0,0,0,0,-1,545,379,0,0
-672,645,0,0,0,0,0,0,0,0,0,-1,552,379,0,0
-665,645,0,0,0,0,0,0,0,0,0,-1,559,379,0,0
-658,645,0,0,0,0,0,0,0,0,0,-1,566,379,0,0
-651,645,0,0,0,0,0,0,0,0,0,-1,573,379,0,0
-644,645,0,0,0,0,0,0,0,0,0,-1,580,379,0,0
-637,645,0,0,0,0,0,0,0,0,0,-1,587,379,0,0
-630,645,0,0,0,0,0,0,0,0,0,-1,594,379,0,0
-623,645,0,0,0,0,0,0,0,0,0,-1,601,379,0,0
-616,645,0,0,0,0,0,0,0,0,0,-1,608,379,0,0
-609,645,0,0,0,0,0,0,0,0,0,-1,615,379,0,0
-602,645,0,0,0,0,0,0,0,0,0,-1,622,379,0,0
-595,645,0,0,0,0,0,0,0,0,0,-1,629,379,0,0
-588,645,0,0,0,0,0,0,0,0,0,-1,636,379,0,0
-581,645,0,0,0,0,0,0,0,0,0,-1,643,379,0,0
-574,645,0,0,0,0,0,0,0,0,0,-1,650,379,0,0
-567,645,0,0,0,0,0,0,0,0,0,-1,657,379,0,0
-560,645,0,0,0,0,0,0,0,0,0,-1,664,379,0,0
-553,645,0,0,0,0,0,0,0,0,0,-1,671,379,0,0
-546,645,0,0,0,0,0,0,0,0,0,-1,678,379,0,0
-539,645,0,0,0,0,0,0,0,0,0,-1,685,379,0,0
-532,645,0,0,0,0,0,0,0,0,0,-1,692,379,0,0
-525,645,0,0,0,0,0,0,0,0,0,-1,699,379,0,0
-518,645,0,0,0,0,0,0,0,0,0,-1,706,379,0,0
-511,645,0,0,0,0,0,0,0,0,0,-1,713,379,0,0
-504,645,0,0,0,0,0,0,0,0,0,-1,720,379,0,0
-497,645,0,0,0,0,0,0,0,0,0,-1,727,379,0,0
-490,645,0,0,0,0,0,0,0,0,0,-1,734,379,0,0
-483,645,0,0,0,0,0,0,0,0,0,-1,741,379,0,0
-476,645,0,0,0,0,0,0,0,0,0,-1,748,379,0,0
-469,645,0,0,0,0,0,0,0,0,0,-1,755,379,0,0
-462,645,0,0,0,0,0,0,0,0,0,-1,762,379,0,0
-455,645,0,0,0,0,0,0,0,0,0,-1,769,379,0,0
-448,645,0,0,0,0,0,0,0,0,0,-1,776,379,0,0
-441,645,0,0,0,0,0,0,0,0,0,-1,783,379,0,0
-434,645,0,0,0,0,0,0,0,0,0,-1,790,379,0,0
-427,645,0,0,0,0,0,0,0,0,0,-1,797,379,0,0
-420,645,0,0,0,0,0,0,0,0,0,-1,804,379,0,0
-413,645,0,0,0,0,0,0,0,0,0,-1,811,379,0,0
-406,645,0,0,0,0,0,0,0,0,0,-1,818,379,0,0
-399,645,0,0,0,0,0,0,0,0,0,-1,825,379,0,0
-392,645,0,0,0,0,0,0,0,0,0,-1,832,379,0,0
-385,645,0,0,0,0,0,0,0,0,0,-1,839,379,0,0
-378,645,0,0,0,0,0,0,0,0,0,-1,846,379,0,0
-371,645,0,0,0,0,0,0,0,0,0,-1,853,379,0,0
-364,645,0,0,0,0,0,0,0,0,0,-1,860,379,0,0
-357,645,0,0,0,0,0,0,0,0,0,-1,867,379,0,0
-350,645,0,0,0,0,0,0,0,0,0,-1,874,379,0,0
-343,645,0,0,0,0,0,0,0,0,0,-1,881,379,0,0
-336,645,0,0,0,0,0,0,0,0,0,-1,888,379,0,0
-329,645,0,0,0,0,0,0,0,0,0,-1,895,379,0,0
-322,645,0,0,0,0,0,0,0,0,0,-1,902,379,0,0
-315,645,0,0,0,0,0,0,0,0,0,-1,909,379,0,0
-308,645,0,0,0,0,0,0,0,0,0,-1,916,379,0,0
-301,645,0,0,0,0,0,0,0,0,0,-1,923,379,0,0
-294,645,0,0,0,0,0,0,0,0,0,-1,930,379,0,0
-287,645,0,0,0,0,0,0,0,0,0,-1,937,379,0,0
-280,645,0,0,0,0,0,0,0,0,0,-1,944,379,0,0
-273,645,0,0,0,0,0,0,0,0,0,-1,951,379,0,0
-266,645,0,0,0,0,0,0,0,0,0,-1,958,379,0,0
-259,645,0,0,0,0,0,0,0,0,0,-1,965,379,0,0
-252,645,2.95691,-26.9133,0,0,0,0,0,0,0,-1,972,379,2.9569,26.9133
-245,645,2.73169,-27.0215,0,0,0,0,0,0,0,-1,979,379,2.73172,27.0215
-238,645,2.6665,-26.9464,0,0,0,0,0,0,0,-1,986,379,2.66649,26.9464
-231,645,1.89801,-26.437,0,0,0,0,0,0,0,-1,993,379,1.89804,26.437
-224,645,9.92029,-21.3227,0,0,0,0,0,0,0,-1,1000,379,9.92026,21.3227
-217,645,8.09961,-19.0991,0,0,0,0,0,0,0,-1,1007,379,8.0996,19.0991
-210,645,3.58685,-26.664,0,0,0,0,0,0,0,-1,1014,379,3.58685,26.664
-203,645,3.70166,-25.3203,0,0,0,0,0,0,0,-1,1021,379,3.70166,25.3203
-196,645,3.98962,-24.5246,0,0,0,0,0,0,0,-1,1028,379,3.98963,24.5246
-189,645,3.8988,-23.8797,0,0,0,0,0,0,0,-1,1035,379,3.89886,23.8797
-182,645,2.88086,-25.8119,0,0,0,0,0,0,0,-1,1042,379,2.88087,25.8119
-175,645,4.83813,-27.2094,0,0,0,0,0,0,0,-1,1049,379,4.83813,27.2094
-168,645,5.36951,-27.8697,0,0,0,0,0,0,0,-1,1056,379,5.36948,27.8697
-161,645,4.56641,-28.589,0.0241805,-0.0288351,-0.0101974,0.0260743,-0.0307289,-0.183622,0.032832,0.0427477,1063,379,4.56636,28.589
-154,645,4.94812,-28.7852,0.0232513,-0.0290873,-0.0083129,0.0245399,-0.0303759,-0.153789,0.0317653,0.038743,1070,379,4.94817,28.7852
-147,645,5.01746,-29.0699,0.0219215,-0.0284141,-0.00658878,0.0227697,-0.0292623,-0.128024,0.0301185,0.0384246,1077,379,5.01741,29.0699
-140,645,4.71326,-29.0284,0.0201448,-0.0256603,-0.00496542,0.0206769,-0.0261924,-0.106751,0.0271224,0.0411273,1084,379,4.71321,29.0283
-133,645,4.74768,-29.1682,0.0179522,-0.0216796,-0.00349472,0.018258,-0.0219854,-0.0872822,0.0232677,0.045676,1091,379,4.74771,29.1682
-126,645,4.99548,-29.364,0.0154241,-0.0173523,-0.00229296,0.0155838,-0.0175119,-0.0695063,0.0191186,0.0346481,1098,379,4.99551,29.364
-119,645,4.974,-29.7499,0.0129136,-0.0130611,-0.00132552,0.0129811,-0.0131286,-0.050855,0.0150745,0.0196194,1105,379,4.97394,29.7499
-112,645,4.92065,-30.0779,0.0104189,-0.00904443,-0.000579573,0.0104361,-0.00906167,-0.0297426,0.0112664,0.0129569,1112,379,4.92063,30.0779
-105,645,4.90881,-30.3,0.00748588,-0.00483192,0.000237414,0.00749045,-0.00483649,0.0192645,0.00717174,0.01806,1119,379,4.90876,30.3
-98,645,4.86621,-30.4712,0.00483793,-0.00155435,0.000652849,0.00490393,-0.00162034,0.100745,0.00392259,0.0269535,1126,379,4.86622,30.4712
-91,645,4.88684,-30.7546,0.0026496,0.00130948,0.000589652,0.00287211,0.00108698,0.360828,0.00167446,0.0378825,1133,379,4.88688,30.7546
-84,645,4.91687,-31.0464,0.00127516,0.00250367,0.000682174,0.00280738,0.000971444,1.15193,0.00164626,0.0454489,1140,379,4.91684,31.0464
-77,645,4.83301,-31.4207,-0.0020125,0.00531615,0.00111573,0.00548225,-0.0021786,1.42301,0.00455802,0.0284494,1147,379,4.83303,31.4207
-70,645,4.77014,-31.6255,-0.00389808,0.00796255,5.44815e-06,0.00796255,-0.00389808,1.57034,0.00698048,0.0140097,1154,379,4.77019,31.6255
-63,645,4.74072,-31.808,-0.00309113,0.00841725,-0.000398872,0.00843106,-0.00310494,-1.53619,0.00689287,0.0111968,1161,379,4.74068,31.808
-56,645,4.70715,-31.9675,-0.00308066,0.00924907,-0.00107413,0.00934195,-0.00317354,-1.48455,0.00751267,0.0122969,1168,379,4.70709,31.9675
-49,645,4.69312,-32.1476,-0.00306052,0.0097293,-0.00177507,0.00997109,-0.00330231,-1.43542,0.00797929,0.0100347,1175,379,4.69311,32.1476
-42,645,4.66724,-32.3326,-0.00298611,0.00997199,-0.00201811,0.010279,-0.00329314,-1.41982,0.00817457,0.00976295,1182,379,4.66721,32.3326
-35,645,4.63074,-32.5237,-0.00300299,0.0101529,-0.00201908,0.0104558,-0.00330589,-1.42189,0.00829504,0.0106851,1189,379,4.63075,32.5238
-28,645,4.59204,-32.6829,-0.00296355,0.0102885,-0.00201824,0.010589,-0.00326411,-1.42296,0.00836249,0.00883561,1196,379,4.59201,32.6829
-21,645,4.56494,-32.8102,-0.002878,0.0103002,-0.0020774,0.0106199,-0.00319772,-1.41809,0.00835244,0.0104816,1203,379,4.56499,32.8102
-14,645,4.56177,-32.9515,-0.00289433,0.00998778,-0.00203497,0.0103016,-0.00320815,-1.41779,0.00815037,0.0103498,1210,379,4.56179,32.9515
-7,645,4.57568,-33.0898,-0.00287151,0.00962481,-0.00204715,0.00995163,-0.00319832,-1.41249,0.00791883,0.0137233,1217,379,4.57568,33.0898
0,645,4.56018,-33.1656,-0.00280067,0.00910656,-0.00203037,0.00944325,-0.00313736,-1.40646,0.00756145,0.0263048,1224,379,4.56012,33.1656
7,645,4.53271,-33.2032,-0.00270789,0.00888412,-0.00212456,0.00926124,-0.00308501,-1.39512,0.00741946,0.0175887,1231,379,4.53267,33.2031
14,645,4.52344,-33.2951,-0.00250453,0.00821803,-0.00196769,0.00856771,-0.00285421,-1.39492,0.00686396,0.0166131,1238,379,4.52349,33.2951
21,645,4.47876,-33.396,-0.00228002,0.00799269,-0.00155276,0.00822227,-0.0025096,-1.42401,0.00648205,0.0116159,1245,379,4.4787,33.396
28,645,4.48694,-33.4658,-0.00206482,0.00791191,-0.00129931,0.00807835,-0.00223125,-1.44339,0.00626323,0.00983856,1252,379,4.48689,33.4658
35,645,4.4635,-33.5176,-0.00166032,0.00777683,-0.000852304,0.00785318,-0.00173668,-1.48145,0.00590017,0.00910499,1259,379,4.46347,33.5176
42,645,4.44348,-33.5562,-0.00139052,0.0076222,-0.000238508,0.0076285,-0.00139683,-1.54436,0.00560955,0.00946851,1266,379,4.44347,33.5562
49,645,4.46069,-33.5624,-0.00124093,0.0079028,0.00037136,0.00791786,-0.00125599,1.53027,0.0057432,0.0124646,1273,379,4.46068,33.5624
56,645,4.44995,-33.5568,-0.00125006,0.00820134,0.00077337,0.0082642,-0.00131292,1.48969,0.00599522,0.0126384,1280,379,4.44991,33.5568
63,645,4.43994,-33.5656,-0.00131716,0.00862551,0.00111544,0.00874911,-0.00144076,1.46044,0.00636756,0.01314,1287,379,4.43994,33.5656
70,645,4.41028,-33.5416,-0.00145967,0.00911571,0.00136178,0.00928825,-0.00163221,1.44477,0.00680183,0.0171324,1294,379,4.41032,33.5416
77,645,4.38086,-33.5229,-0.0016706,0.00913941,0.00141676,0.00932201,-0.0018532,1.44262,0.00691567,0.0186257,1301,379,4.3809,33.5228
84,645,4.41321,-33.485,-0.00186456,0.00935479,0.00136365,0.00951815,-0.00202792,1.45156,0.00711836,0.0132499,1308,379,4.41322,33.4851
91,645,4.36975,-33.465,-0.00193735,0.00939192,0.00118094,0.00951371,-0.00205914,1.46803,0.00712868,0.0143894,1315,379,4.36972,33.465
98,645,4.36719,-33.3807,-0.00201844,0.00921324,0.00104331,0.00930933,-0.00211453,1.47895,0.00701806,0.0129052,1322,379,4.3672,33.3807
105,645,4.36121,-33.2856,-0.00199994,0.00904125,0.000795088,0.00909821,-0.0020569,1.49928,0.00685476,0.0103366,1329,379,4.36123,33.2856
112,645,4.34436,-33.2048,-0.00177681,0.00864223,0.000639647,0.00868136,-0.00181594,1.50971,0.00647828,0.00962307,1336,379,4.34437,33.2048
119,645,4.3269,-33.0808,-0.00154339,0.00858974,0.00033854,0.00860104,-0.00155469,1.53744,0.00631636,0.00930935,1343,379,4.32693,33.0808
126,645,4.2937,-32.9467,-0.00122439,0.00825516,4.9336e-05,0.00825541,-0.00122464,1.56559,0.00595395,0.0114909,1350,379,4.29373,32.9467
133,645,4.28687,-32.8342,-0.000810474,0.00807538,0.000179617,0.00807901,-0.000814103,1.55059,0.00567687,0.0123402,1357,379,4.28693,32.8342
140,645,4.27942,-32.7101,-0.000571145,0.00816906,0.000356415,0.00818357,-0.000585655,1.53011,0.00566104,0.0116373,1364,379,4.27939,32.7101
147,645,4.23633,-32.5658,-0.000316059,0.00835096,0.000569464,0.00838821,-0.000353315,1.50547,0.00571356,0.0121547,1371,379,4.23633,32.5658
154,645,4.2262,-32.4091,-4.18972e-06,0.00829359,0.000952161,0.00840145,-0.000112047,1.458,0.00563868,0.0114862,1378,379,4.22614,32.4091
161,645,4.22766,-32.218,0.00020545,0.00858563,0.0015385,0.00885915,-6.80713e-05,1.39485,0.00592892,0.0143865,1385,379,4.22766,32.218
168,645,4.20422,-32.0445,6.30549e-05,0.00870994,0.00190295,0.0091102,-0.000337206,1.36348,0.00618893,0.0172646,1392,379,4.20423,32.0445
175,645,4.19421,-31.8596,-0.000312547,0.00872137,0.00219018,0.00922435,-0.00081553,1.34506,0.00643865,0.0146751,1399,379,4.19421,31.8596
182,645,4.16406,-31.6444,-0.00076377,0.00944189,0.00276622,0.0101434,-0.00146532,1.32242,0.00729993,0.0102517,1406,379,4.16412,31.6444
189,645,4.14172,-31.4171,-0.00128298,0.00912282,0.00311843,0.00998579,-0.00214595,1.30082,0.00747589,0.0108491,1413,379,4.14176,31.417
196,645,4.08972,-31.2143,-0.00200586,0.00860275,0.00323932,0.00951366,-0.00291676,1.29667,0.00750604,0.0116154,1420,379,4.08968,31.2143
203,645,4.04724,-30.9535,-0.00231721,0.00833376,0.00306525,0.00915291,-0.00313636,1.30966,0.0073732,0.0115937,1427,379,4.04728,30.9534
210,645,4.08398,-30.6195,-0.00255593,0.0084888,0.00316756,0.00933275,-0.00339988,1.31041,0.00761255,0.0205487,1434,379,4.08398,30.6195
217,645,4.07251,-30.4274,-0.00293465,0.00882553,0.00312051,0.00960224,-0.00371137,1.32685,0.00793347,0.0371403,1441,379,4.0725,30.4274
224,645,3.99463,-30.1674,0,0,0,0,0,0,0,-1,1448,379,3.99462,30.1674
231,645,3.92493,-29.888,-0.00271853,0.0109366,0.00345758,0.0117622,-0.0035441,1.33641,0.00925193,0.0399075,1455,379,3.92497,29.888
238,645,3.92273,-29.539,-0.0028602,0.012497,0.00387835,0.0134209,-0.00378407,1.33694,0.0104398,0.0219574,1462,379,3.92278,29.539
245,645,3.90466,-29.2493,-0.00349259,0.0138131,0.00394352,0.0146694,-0.00434885,1.35698,0.0115065,0.0157991,1469,379,3.90464,29.2493
252,645,3.92493,-28.8257,-0.00360833,0.0152482,0.00423626,0.0161562,-0.00451631,1.35965,0.0125501,0.0272628,1476,379,3.92487,28.8257
259,645,3.84521,-28.3929,-0.00355209,0.0168625,0.00473313,0.0179065,-0.00459608,1.3537,0.0137286,0.0446755,1483,379,3.84522,28.3929
266,645,3.63843,-28.2227,-0.00333385,0.0186185,0.00556841,0.0199502,-0.00466554,1.33605,0.0150976,0.0311122,1490,379,3.63843,28.2227
273,645,3.73279,-27.9549,-0.00316898,0.0204071,0.00647016,0.022066,-0.0048279,1.31981,0.0165563,0.0247549,1497,379,3.73276,27.9549
280,645,3.81873,-27.547,0,0,0,0,0,0,0,-1,1504,379,3.8187,27.547
287,645,4.01892,-26.9454,0,0,0,0,0,0,0,-1,1511,379,4.01895,26.9454
294,645,3.31836,-27.1291,0,0,0,0,0,0,0,-1,1518,379,3.31838,27.1291
301,645,5.28918,-26.2005,0,0,0,0,0,0,0,-1,1525,379,5.28916,26.2005
308,645,4.37341,-25.1157,0,0,0,0,0,0,0,-1,1532,379,4.37337,25.1157
315,645,3.73743,-23.8562,0,0,0,0,0,0,0,-1,1539,379,3.73748,23.8562
322,645,2.95288,-22.4987,0,0,0,0,0,0,0,-1,1546,379,2.95282,22.4987
329,645,3.78955,-26.696,0,0,0,0,0,0,0,-1,1553,379,3.78956,26.696
336,645,3.56152,-26.1871,0,0,0,0,0,0,0,-1,1560,379,3.56151,26.1871
343,645,4.77185,-23.7191,0,0,0,0,0,0,0,-1,1567,379,4.77184,23.7191
350,645,4.76404,-22.1987,0,0,0,0,0,0,0,-1,1574,379,4.76399,22.1987
357,645,4.61316,-21.967,0,0,0,0,0,0,0,-1,1581,379,4.61316,21.967
364,645,-0.0794678,-3.22021,0,0,0,0,0,0,0,-1,1588,379,-0.0794987,3.22021
371,645,0,0,0,0,0,0,0,0,0,-1,1595,379,0,0
378,645,0,0,0,0,0,0,0,0,0,-1,1602,379,0,0
385,645,0,0,0,0,0,0,0,0,0,-1,1609,379,0,0
392,645,0,0,0,0,0,0,0,0,0,-1,1616,379,0,0
399,645,0,0,0,0,0,0,0,0,0,-1,1623,379,0,0
406,645,0,0,0,0,0,0,0,0,0,-1,1630,379,0,0
413,645,0,0,0,0,0,0,0,0,0,-1,1637,379,0,0
420,645,0,0,0,0,0,0,0,0,0,-1,1644,379,0,0
427,645,0,0,0,0,0,0,0,0,0,-1,1651,379,0,0
434,645,0,0,0,0,0,0,0,0,0,-1,1658,379,0,0
441,645,0,0,0,0,0,0,0,0,0,-1,1665,379,0,0
448,645,0,0,0,0,0,0,0,0,0,-1,1672,379,0,0
455,645,0,0,0,0,0,0,0,0,0,-1,1679,379,0,0
462,645,0,0,0,0,0,0,0,0,0,-1,1686,379,0,0
469,645,0,0,0,0,0,0,0,0,0,-1,1693,379,0,0
476,645,0,0,0,0,0,0,0,0,0,-1,1700,379,0,0
483,645,0,0,0,0,0,0,0,0,0,-1,1707,379,0,0
490,645,0,0,0,0,0,0,0,0,0,-1,1714,379,0,0
497,645,0,0,0,0,0,0,0,0,0,-1,1721,379,0,0
504,645,0,0,0,0,0,0,0,0,0,-1,1728,379,0,0
511,645,0,0,0,0,0,0,0,0,0,-1,1735,379,0,0
518,645,0,0,0,0,0,0,0,0,0,-1,1742,379,0,0
525,645,0,0,0,0,0,0,0,0,0,-1,1749,379,0,0
532,645,0,0,0,0,0,0,0,0,0,-1,1756,379,0,0
539,645,0,0,0,0,0,0,0,0,0,-1,1763,379,0,0
546,645,0,0,0,0,0,0,0,0,0,-1,1770,379,0,0
553,645,0,0,0,0,0,0,0,0,0,-1,1777,379,0,0
560,645,0,0,0,0,0,0,0,0,0,-1,1784,379,0,0
567,645,0,0,0,0,0,0,0,0,0,-1,1791,379,0,0
574,645,0,0,0,0,0,0,0,0,0,-1,1798,379,0,0
581,645,0,0,0,0,0,0,0,0,0,-1,1805,379,0,0
588,645,0,0,0,0,0,0,0,0,0,-1,1812,379,0,0
595,645,0,0,0,0,0,0,0,0,0,-1,1819,379,0,0
602,645,0,0,0,0,0,0,0,0,0,-1,1826,379,0,0
609,645,0,0,0,0,0,0,0,0,0,-1,1833,379,0,0
616,645,0,0,0,0,0,0,0,0,0,-1,1840,379,0,0
623,645,0,0,0,0,0,0,0,0,0,-1,1847,379,0,0
630,645,0,0,0,0,0,0,0,0,0,-1,1854,379,0,0
637,645,0,0,0,0,0,0,0,0,0,-1,1861,379,0,0
644,645,0,0,0,0,0,0,0,0,0,-1,1868,379,0,0
651,645,0,0,0,0,0,0,0,0,0,-1,1875,379,0,0
658,645,0,0,0,0,0,0,0,0,0,-1,1882,379,0,0
665,645,0,0,0,0,0,0,0,0,0,-1,1889,379,0,0
672,645,0,0,0,0,0,0,0,0,0,-1,1896,379,0,0
679,645,0,0,0,0,0,0,0,0,0,-1,1903,379,0,0
686,645,0,0,0,0,0,0,0,0,0,-1,1910,379,0,0
693,645,0,0,0,0,0,0,0,0,0,-1,1917,379,0,0
700,645,0,0,0,0,0,0,0,0,0,-1,1924,379,0,0
707,645,0,0,0,0,0,0,0,0,0,-1,1931,379,0,0
714,645,0,0,0,0,0,0,0,0,0,-1,1938,379,0,0
721,645,0,0,0,0,0,0,0,0,0,-1,1945,379,0,0
728,645,0,0,0,0,0,0,0,0,0,-1,1952,379,0,0
735,645,0,0,0,0,0,0,0,0,0,-1,1959,379,0,0
742,645,0,0,0,0,0,0,0,0,0,-1,1966,379,0,0
749,645,0,0,0,0,0,0,0,0,0,-1,1973,379,0,0
756,645,0,0,0,0,0,0,0,0,0,-1,1980,379,0,0
763,645,0,0,0,0,0,0,0,0,0,-1,1987,379,0,0
770,645,0,0,0,0,0,0,0,0,0,-1,1994,379,0,0
777,645,0,0,0,0,0,0,0,0,0,-1,2001,379,0,0
784,645,0,0,0,0,0,0,0,0,0,-1,2008,379,0,0
791,645,0,0,0,0,0,0,0,0,0,-1,2015,379,0,0
798,645,0,0,0,0,0,0,0,0,0,-1,2022,379,0,0
805,645,0,0,0,0,0,0,0,0,0,-1,2029,379,0,0
812,645,0,0,0,0,0,0,0,0,0,-1,2036,379,0,0
-700,638,0,0,0,0,0,0,0,0,0,-1,524,386,0,0
-693,638,0,0,0,0,0,0,0,0,0,-1,531,386,0,0
-686,638,0,0,0,0,0,0,0,0,0,-1,538,386,0,0
-679,638,0,0,0,0,0,0,0,0,0,-1,545,386,0,0
-672,638,0,0,0,0,0,0,0,0,0,-1,552,386,0,0
-665,638,0,0,0,0,0,0,0,0,0,-1,559,386,0,0
-658,638,0,0,0,0,0,0,0,0,0,-1,566,386,0,0
-651,638,0,0,0,0,0,0,0,0,0,-1,573,386,0,0
-644,638,0,0,0,0,0,0,0,0,0,-1,580,386,0,0
-637,638,0,0,0,0,0,0,0,0,0,-1,587,386,0,0
-630,638,0,0,0,0,0,0,0,0,0,-1,594,386,0,0
-623,638,0,0,0,0,0,0,0,0,0,-1,601,386,0,0
-616,638,0,0,0,0,0,0,0,0,0,-1,608,386,0,0
-609,638,0,0,0,0,0,0,0,0,0,-1,615,386,0,0
-602,638,0,0,0,0,0,0,0,0,0,-1,622,386,0,0
-595,638,0,0,0,0,0,0,0,0,0,-1,629,386,0,0
-588,638,0,0,0,0,0,0,0,0,0,-1,636,386,0,0
-581,638,0,0,0,0,0,0,0,0,0,-1,643,386,0,0
-574,638,0,0,0,0,0,0,0,0,0,-1,650,386,0,0
-567,638,0,0,0,0,0,0,0,0,0,-1,657,386,0,0
-560,638,0,0,0,0,0,0,0,0,0,-1,664,386,0,0
-553,638,0,0,0,0,0,0,0,0,0,-1,671,386,0,0
-546,638,0,0,0,0,0,0,0,0,0,-1,678,386,0,0
-539,638,0,0,0,0,0,0,0,0,0,-1,685,386,0,0
-532,638,0,0,0,0,0,0,0,0,0,-1,692,386,0,0
-525,638,0,0,0,0,0,0,0,0,0,-1,699,386,0,0
-518,638,0,0,0,0,0,0,0,0,0,-1,706,386,0,0
-511,638,0,0,0,0,0,0,0,0,0,-1,713,386,0,0
-504,638,0,0,0,0,0,0,0,0,0,-1,720,386,0,0
-497,638,0,0,0,0,0,0,0,0,0,-1,727,386,0,0
-490,638,0,0,0,0,0,0,0,0,0,-1,734,386,0,0
-483,638,0,0,0,0,0,0,0,0,0,-1,741,386,0,0
-476,638,0,0,0,0,0,0,0,0,0,-1,748,386,0,0
-469,638,0,0,0,0,0,0,0,0,0,-1,755,386,0,0
-462,638,0,0,0,0,0,0,0,0,0,-1,762,386,0,0
-455,638,0,0,0,0,0,0,0,0,0,-1,769,386,0,0
-448,638,0,0,0,0,0,0,0,0,0,-1,776,386,0,0
-441,638,0,0,0,0,0,0,0,0,0,-1,783,386,0,0
-434,638,0,0,0,0,0,0,0,0,0,-1,790,386,0,0
-427,638,0,0,0,0,0,0,0,0,0,-1,797,386,0,0
-420,638,0,0,0,0,0,0,0,0,0,-1,804,386,0,0
-413,638,0,0,0,0,0,0,0,0,0,-1,811,386,0,0
-406,638,0,0,0,0,0,0,0,0,0,-1,818,386,0,0
-399,638,0,0,0,0,0,0,0,0,0,-1,825,386,0,0
-392,638,0,0,0,0,0,0,0,0,0,-1,832,386,0,0
-385,638,0,0,0,0,0,0,0,0,0,-1,839,386,0,0
-378,638,0,0,0,0,0,0,0,0,0,-1,846,386,0,0
-371,638,0,0,0,0,0,0,0,0,0,-1,853,386,0,0
-364,638,0,0,0,0,0,0,0,0,0,-1,860,386,0,0
-357,638,0,0,0,0,0,0,0,0,0,-1,867,386,0,0
-350,638,0,0,0,0,0,0,0,0,0,-1,874,386,0,0
-343,638,0,0,0,0,0,0,0,0,0,-1,881,386,0,0
-336,638,0,0,0,0,0,0,0,0,0,-1,888,386,0,0
-329,638,0,0,0,0,0,0,0,0,0,-1,895,386,0,0
-322,638,0,0,0,0,0,0,0,0,0,-1,902,386,0,0
-315,638,0,0,0,0,0,0,0,0,0,-1,909,386,0,0
-308,638,0,0,0,0,0,0,0,0,0,-1,916,386,0,0
-301,638,0,0,0,0,0,0,0,0,0,-1,923,386,0,0
-294,638,0,0,0,0,0,0,0,0,0,-1,930,386,0,0
-287,638,0,0,0,0,0,0,0,0,0,-1,937,386,0,0
-280,638,0,0,0,0,0,0,0,0,0,-1,944,386,0,0
-273,638,0,0,0,0,0,0,0,0,0,-1,951,386,0,0
-266,638,5.34705,-26.6979,0.336081,-0.124235,0.0155888,0.336608,-0.124762,0.0338137,0.275574,0.043131,958,386,5.34704,26.6979
-259,638,7.30426,-26.7659,0.314975,-0.111914,0.0170618,0.315656,-0.112595,0.039883,0.256348,0.0469305,965,386,7.30423,26.7659
-252,638,9.31195,-27.1175,0,0,0,0,0,0,0,-1,972,386,9.31197,27.1175
-245,638,3.35309,-26.4681,0,0,0,0,0,0,0,-1,979,386,3.35311,26.4681
-238,638,2.93518,-26.3649,0,0,0,0,0,0,0,-1,986,386,2.93516,26.3649
-231,638,2.36829,-26.0088,0,0,0,0,0,0,0,-1,993,386,2.3683,26.0088
-224,638,1.80823,-25.8195,0,0,0,0,0,0,0,-1,1000,386,1.8082,25.8196
-217,638,3.34961,-27.6036,0,0,0,0,0,0,0,-1,1007,386,3.3496,27.6036
-210,638,3.4826,-26.5204,0,0,0,0,0,0,0,-1,1014,386,3.48262,26.5204
-203,638,3.61267,-25.3666,0,0,0,0,0,0,0,-1,1021,386,3.61262,25.3666
-196,638,3.92346,-24.3737,0,0,0,0,0,0,0,-1,1028,386,3.92344,24.3737
-189,638,4.1333,-23.6895,0,0,0,0,0,0,0,-1,1035,386,4.13334,23.6895
-182,638,4.18262,-25.9996,0,0,0,0,0,0,0,-1,1042,386,4.18259,25.9996
-175,638,5.15149,-27.2306,0,0,0,0,0,0,0,-1,1049,386,5.15151,27.2306
-168,638,4.92615,-27.697,0.0159289,-0.0135761,-0.0103666,0.019207,-0.0168542,-0.306269,0.0208347,0.0403666,1056,386,4.92612,27.697
-161,638,4.88354,-28.0839,0.0160425,-0.0166066,-0.00887999,0.0183014,-0.0188655,-0.249099,0.0214591,0.0340715,1063,386,4.88351,28.0839
-154,638,4.8866,-28.3434,0.0157273,-0.0174327,-0.00740707,0.0173066,-0.019012,-0.210073,0.0209763,0.0280475,1070,386,4.88658,28.3435
-147,638,4.84009,-28.5919,0.0150426,-0.0176207,-0.00605908,0.0161304,-0.0187084,-0.177631,0.0201325,0.0237556,1077,386,4.84013,28.592
-140,638,4.82996,-28.8907,0.0140176,-0.0160413,-0.0047968,0.0147645,-0.0167882,-0.15447,0.0182295,0.0212961,1084,386,4.82997,28.8907
-133,638,4.80286,-29.3065,0.0125856,-0.0133077,-0.00362269,0.0130829,-0.013805,-0.136419,0.0155256,0.0188758,1091,386,4.8028,29.3065
-126,638,4.76953,-29.5831,0.0108227,-0.0102044,-0.00266719,0.0111557,-0.0105375,-0.124225,0.0125263,0.0170831,1098,386,4.76955,29.5831
-119,638,4.72583,-29.8814,0.00909946,-0.00702523,-0.00192173,0.00932532,-0.0072511,-0.116996,0.00959534,0.0165831,1105,386,4.72578,29.8814
-112,638,4.71326,-30.1604,0.00734244,-0.00406167,-0.00130759,0.00749045,-0.00420968,-0.112711,0.00684302,0.0143939,1112,386,4.71321,30.1604
-105,638,4.69678,-30.4241,0.00518414,-0.000914785,-0.000623207,0.00524717,-0.000977815,-0.100795,0.0038655,0.0149598,1119,386,4.69681,30.4241
-98,638,4.65759,-30.6813,0.00328136,0.0014076,-0.000272118,0.00332008,0.00136888,-0.141337,0.00192665,0.0158801,1126,386,4.65763,30.6813
-91,638,4.59192,-30.9382,0.0017838,0.00330006,-0.000265771,0.0033453,0.00173857,-1.40221,0.00193191,0.0134378,1133,386,4.59191,30.9382
-84,638,4.57556,-31.1798,0.00090052,0.00381758,-9.01234e-05,0.00382036,0.000897739,-1.53994,0.00230665,0.0150933,1140,386,4.57551,31.1799
-77,638,4.5697,-31.415,-0.00123241,0.00511139,0.00032549,0.00512805,-0.00124907,1.51967,0.00390227,0.0124644,1147,386,4.56968,31.415
-70,638,4.55383,-31.6267,-0.00233079,0.00619267,-0.000304199,0.00620352,-0.00234163,-1.53517,0.00509872,0.0116952,1154,386,4.55388,31.6268
-63,638,4.54932,-31.8303,-0.00179351,0.00606131,-0.000530505,0.00609697,-0.00182918,-1.50366,0.00479219,0.0120013,1161,386,4.54931,31.8303
-56,638,4.552,-32.0158,-0.00143151,0.00601412,-0.000840708,0.00610786,-0.00152526,-1.45975,0.00466421,0.0147229,1168,386,4.55204,32.0158
-49,638,4.52991,-32.1968,-0.00111824,0.0057311,-0.00111856,0.00590914,-0.00129628,-1.41295,0.00443513,0.0122179,1175,386,4.5299,32.1968
-42,638,4.51257,-32.3891,-0.000866699,0.00546124,-0.00115787,0.00566644,-0.00107191,-1.39539,0.00418099,0.0114373,1182,386,4.51262,32.3891
-35,638,4.49316,-32.5497,-0.000727209,0.00526902,-0.00101546,0.00543632,-0.00089451,-1.40751,0.00395624,0.011264,1189,386,4.49312,32.5497
-28,638,4.48718,-32.6913,-0.000607583,0.0050602,-0.000879701,0.0051936,-0.000740982,-1.4203,0.00373398,0.0104069,1196,386,4.48714,32.6913
-21,638,4.44458,-32.8174,-0.000475576,0.00478519,-0.00075752,0.00489209,-0.000582482,-1.4306,0.00347188,0.0119611,1203,386,4.44453,32.8174
-14,638,4.43372,-32.9666,-0.000429943,0.00428369,-0.000582049,0.0043545,-0.000500751,-1.44974,0.0030835,0.0124053,1210,386,4.43369,32.9667
-7,638,4.45874,-33.141,-0.00035459,0.00387027,-0.000507871,0.00393047,-0.000414783,-1.45283,0.00276895,0.0181265,1217,386,4.45879,33.141
0,638,4.53748,-33.1432,-0.000282118,0.00340047,-0.000458581,0.00345672,-0.000338364,-1.44875,0.00242515,0.0322892,1224,386,4.53747,33.1432
7,638,4.45679,-33.2144,-0.000209423,0.00296131,-0.000474328,0.00303075,-0.000278859,-1.42544,0.00211958,0.0246052,1231,386,4.45678,33.2144
14,638,4.41431,-33.3107,-0.000143631,0.00240049,-0.000418215,0.00246747,-0.000210616,-1.41198,0.00171949,0.013499,1238,386,4.41428,33.3107
21,638,4.40771,-33.4212,-0.000190483,0.00223462,-0.000270642,0.00226446,-0.000220319,-1.461,0.00158818,0.0112566,1245,386,4.40771,33.4212
28,638,4.41821,-33.463,-0.000230329,0.00221616,-0.000183967,0.00222992,-0.000244085,-1.49616,0.00157429,0.00876895,1252,386,4.41818,33.463
35,638,4.41516,-33.5091,-0.000222869,0.00221105,4.77594e-05,0.00221199,-0.000223806,1.55118,0.00155464,0.0104842,1259,386,4.41516,33.5091
42,638,4.43225,-33.5564,-0.000381841,0.00232084,0.000414355,0.00238294,-0.00044394,1.42203,0.00175542,0.0103167,1266,386,4.43224,33.5564
49,638,4.45081,-33.5598,-0.000601084,0.00278589,0.000757077,0.00294741,-0.000762608,1.3606,0.0022624,0.00883163,1273,386,4.45079,33.5598
56,638,4.45093,-33.5641,-0.000886517,0.00328385,0.000961377,0.0034948,-0.00109747,1.35479,0.00276916,0.0114342,1280,386,4.4509,33.5641
63,638,4.45105,-33.5942,-0.00120795,0.0037879,0.00106621,0.00400594,-0.00142599,1.36908,0.0032519,0.0142826,1287,386,4.4511,33.5942
70,638,4.42419,-33.5812,-0.00152946,0.00430423,0.00114322,0.00452027,-0.0017455,1.38403,0.00373391,0.0195434,1294,386,4.42418,33.5812
77,638,4.40942,-33.5606,-0.00178609,0.00456507,0.00118979,0.00478064,-0.00200167,1.39156,0.00402384,0.0189951,1301,386,4.40942,33.5606
84,638,4.4646,-33.4896,-0.00196742,0.00485353,0.00109627,0.00502539,-0.00213928,1.41529,0.00424692,0.0131555,1308,386,4.46462,33.4895
91,638,4.45776,-33.4264,-0.00204909,0.00491267,0.00089604,0.00502615,-0.00216257,1.44482,0.00425876,0.0140656,1315,386,4.45777,33.4264
98,638,4.43713,-33.3824,-0.00205168,0.00472061,0.000703735,0.00479297,-0.00212404,1.46834,0.00409143,0.0128311,1322,386,4.4371,33.3825
105,638,4.42273,-33.3021,-0.00188743,0.00450724,0.000454866,0.00453944,-0.00191963,1.50014,0.00383003,0.0100686,1329,386,4.42276,33.3021
112,638,4.41785,-33.2053,-0.00154917,0.0042479,0.000223029,0.00425647,-0.00155774,1.5324,0.00347528,0.0101162,1336,386,4.41786,33.2053
119,638,4.43066,-33.0794,-0.00118828,0.00404434,-5.51375e-05,0.00404492,-0.00118886,-1.56026,0.00316815,0.0120352,1343,386,4.43068,33.0794
126,638,4.43335,-32.951,-0.000746002,0.00370134,-0.000309322,0.00372275,-0.000767413,-1.50169,0.00277326,0.0158646,1350,386,4.43332,32.951
133,638,4.40857,-32.8308,-0.000362921,0.00356887,-0.000340013,0.00359806,-0.000392107,-1.48517,0.00253952,0.0163487,1357,386,4.40859,32.8308
140,638,4.38074,-32.7162,-0.000118229,0.00369359,-0.000277694,0.00371372,-0.000138353,-1.49845,0.00252319,0.0163121,1364,386,4.38074,32.7161
147,638,4.36292,-32.5883,9.86025e-05,0.00386831,-0.000139351,0.00387346,9.34583e-05,-1.5339,0.00255172,0.0180933,1371,386,4.36289,32.5883
154,638,4.36914,-32.4459,0.000266213,0.00400179,0.000157358,0.0040084,0.000259597,1.52877,0.00259008,0.0164189,1378,386,4.3691,32.4459
161,638,4.40137,-32.2522,0.000371005,0.00449446,0.00060461,0.00458129,0.000284181,1.42817,0.00296401,0.0192321,1385,386,4.40137,32.2522
168,638,4.40466,-32.0624,0.00021689,0.00486897,0.000928311,0.00504737,3.84897e-05,1.38093,0.00335216,0.0247594,1392,386,4.40463,32.0625
175,638,4.38989,-31.9034,-7.65704e-05,0.00524074,0.00123274,0.00551263,-0.00034846,1.35371,0.00379658,0.0201306,1399,386,4.38992,31.9034
182,638,4.36218,-31.6734,-0.000418902,0.00590063,0.00167464,0.00631697,-0.000835243,1.32712,0.00451555,0.0128698,1406,386,4.36222,31.6734
189,638,4.32849,-31.4451,-0.000745229,0.00605655,0.00199295,0.00659748,-0.00128615,1.30576,0.00488382,0.0104494,1413,386,4.32854,31.4451
196,638,4.30493,-31.224,-0.00111022,0.00608894,0.00214068,0.00667738,-0.00169866,1.30254,0.00511275,0.0131963,1420,386,4.30488,31.224
203,638,4.28662,-31.008,-0.00137984,0.00616712,0.0021749,0.00674902,-0.00196174,1.30937,0.00527626,0.0196329,1427,386,4.28664,31.008
210,638,4.27747,-30.7741,-0.00168962,0.00650948,0.00233334,0.007127,-0.00230715,1.31208,0.00567882,0.0163895,1434,386,4.27741,30.7741
217,638,4.26599,-30.4939,-0.00202183,0.00692809,0.00234871,0.00750701,-0.00260075,1.32913,0.00606055,0.0122902,1441,386,4.26602,30.4939
224,638,4.23853,-30.196,-0.00197312,0.00768436,0.00247527,0.00828183,-0.00257058,1.33395,0.00654847,0.010934,1448,386,4.23853,30.196
231,638,4.1947,-29.8972,-0.00191838,0.0085473,0.00270045,0.00920301,-0.00257409,1.33259,0.00714954,0.0114426,1455,386,4.19472,29.8972
238,638,4.16968,-29.6145,-0.00208215,0.00973205,0.00307684,0.0104853,-0.00283544,1.33069,0.00810247,0.0121513,1462,386,4.16963,29.6145
245,638,4.14795,-29.3045,-0.00261715,0.0107144,0.00317336,0.0114312,-0.00333397,1.34864,0.00894176,0.0142576,1469,386,4.14799,29.3045
252,638,4.14404,-28.9854,-0.00274095,0.0118434,0.00346172,0.0126234,-0.00352091,1.34919,0.00980231,0.0188692,1476,386,4.14405,28.9854
259,638,4.10193,-28.7018,-0.0027198,0.0131271,0.0039386,0.014052,-0.00364472,1.34014,0.0107901,0.0184932,1483,386,4.10192,28.7018
266,638,4.00928,-28.3609,-0.00257306,0.014515,0.00469901,0.0157219,-0.00377998,1.31938,0.0119424,0.0123392,1490,386,4.00929,28.3609
273,638,4.01147,-28.042,-0.00247803,0.0158784,0.00547472,0.0173872,-0.00398682,1.30188,0.0131239,0.0109258,1497,386,4.01147,28.042
280,638,4.06897,-27.6598,-0.000136063,0.0143354,0.00640314,0.0167617,-0.00256243,1.20858,0.0121193,0.0206341,1504,386,4.069,27.6598
287,638,4.19482,-27.095,0.00369488,0.0114734,0.00725928,0.0158197,-0.000651356,1.03132,0.0107701,0.0388925,1511,386,4.19484,27.095
294,638,3.81775,-26.8958,0.00716293,0.00899671,0.00834568,0.0164757,-0.000316071,0.840111,0.0110907,0.0487862,1518,386,3.8177,26.8958
301,638,3.57019,-26.4726,0,0,0,0,0,0,0,-1,1525,386,3.57025,26.4726
308,638,4.37988,-25.7126,0,0,0,0,0,0,0,-1,1532,386,4.37984,25.7126
315,638,4.71545,-25.3507,0,0,0,0,0,0,0,-1,1539,386,4.7155,25.3507
322,638,3.82202,-26.9679,0,0,0,0,0,0,0,-1,1546,386,3.82202,26.9679
329,638,4.09436,-26.2145,0.0400651,-0.0250322,0.0124343,0.0423593,-0.0273265,0.182456,0.0405439,0.0488586,1553,386,4.09435,26.2145
336,638,4.42908,-25.7399,0.0476279,-0.0346645,0.0120156,0.0493464,-0.036383,0.14206,0.0496842,0.044405,1560,386,4.42912,25.7399
343,638,5.20691,-25.6985,0,0,0,0,0,0,0,-1,1567,386,5.20688,25.6985
350,638,5.91162,-19.0222,0,0,0,0,0,0,0,-1,1574,386,5.91165,19.0222
357,638,0.387329,-3.01077,0,0,0,0,0,0,0,-1,1581,386,0.387332,3.01077
364,638,3.78149,-6.45215,0,0,0,0,0,0,0,-1,1588,386,3.78155,6.45216
371,638,4.18604,-6.71164,0,0,0,0,0,0,0,-1,1595,386,4.18598,6.71164
378,638,4.59045,-6.97113,0,0,0,0,0,0,0,-1,1602,386,4.5904,6.97112
385,638,0,0,0,0,0,0,0,0,0,-1,1609,386,0,0
392,638,0,0,0,0,0,0,0,0,0,-1,1616,386,0,0
399,638,0,0,0,0,0,0,0,0,0,-1,1623,386,0,0
406,638,0,0,0,0,0,0,0,0,0,-1,1630,386,0,0
413,638,0,0,0,0,0,0,0,0,0,-1,1637,386,0,0
420,638,0,0,0,0,0,0,0,0,0,-1,1644,386,0,0
427,638,0,0,0,0,0,0,0,0,0,-1,1651,386,0,0
434,638,0,0,0,0,0,0,0,0,0,-1,1658,386,0,0
441,638,0,0,0,0,0,0,0,0,0,-1,1665,386,0,0
448,638,0,0,0,0,0,0,0,0,0,-1,1672,386,0,0
455,638,0,0,0,0,0,0,0,0,0,-1,1679,386,0,0
462,638,0,0,0,0,0,0,0,0,0,-1,1686,386,0,0
469,638,0,0,0,0,0,0,0,0,0,-1,1693,386,0,0
476,638,0,0,0,0,0,0,0,0,0,-1,1700,386,0,0
483,638,0,0,0,0,0,0,0,0,0,-1,1707,386,0,0
490,638,0,0,0,0,0,0,0,0,0,-1,1714,386,0,0
497,638,0,0,0,0,0,0,0,0,0,-1,1721,386,0,0
504,638,0,0,0,0,0,0,0,0,0,-1,1728,386,0,0
511,638,0,0,0,0,0,0,0,0,0,-1,1735,386,0,0
518,638,0,0,0,0,0,0,0,0,0,-1,1742,386,0,0
525,638,0,0,0,0,0,0,0,0,0,-1,1749,386,0,0
532,638,0,0,0,0,0,0,0,0,0,-1,1756,386,0,0
539,638,0,0,0,0,0,0,0,0,0,-1,1763,386,0,0
546,638,0,0,0,0,0,0,0,0,0,-1,1770,386,0,0
553,638,0,0,0,0,0,0,0,0,0,-1,1777,386,0,0
560,638,0,0,0,0,0,0,0,0,0,-1,1784,386,0,0
567,638,0,0,0,0,0,0,0,0,0,-1,1791,386,0,0
574,638,0,0,0,0,0,0,0,0,0,-1,1798,386,0,0
581,638,0,0,0,0,0,0,0,0,0,-1,1805,386,0,0
588,638,0,0,0,0,0,0,0,0,0,-1,1812,386,0,0
595,638,0,0,0,0,0,0,0,0,0,-1,1819,386,0,0
602,638,0,0,0,0,0,0,0,0,0,-1,1826,386,0,0
609,638,0,0,0,0,0,0,0,0,0,-1,1833,386,0,0
616,638,0,0,0,0,0,0,0,0,0,-1,1840,386,0,0
623,638,0,0,0,0,0,0,0,0,0,-1,1847,386,0,0
630,638,0,0,0,0,0,0,0,0,0,-1,1854,386,0,0
637,638,0,0,0,0,0,0,0,0,0,-1,1861,386,0,0
644,638,0,0,0,0,0,0,0,0,0,-1,1868,386,0,0
651,638,0,0,0,0,0,0,0,0,0,-1,1875,386,0,0
658,638,0,0,0,0,0,0,0,0,0,-1,1882,386,0,0
665,638,0,0,0,0,0,0,0,0,0,-1,1889,386,0,0
672,638,0,0,0,0,0,0,0,0,0,-1,1896,386,0,0
679,638,0,0,0,0,0,0,0,0,0,-1,1903,386,0,0
686,638,0,0,0,0,0,0,0,0,0,-1,1910,386,0,0
693,638,0,0,0,0,0,0,0,0,0,-1,1917,386,0,0
700,638,0,0,0,0,0,0,0,0,0,-1,1924,386,0,0
707,638,0,0,0,0,0,0,0,0,0,-1,1931,386,0,0
714,638,0,0,0,0,0,0,0,0,0,-1,1938,386,0,0
721,638,0,0,0,0,0,0,0,0,0,-1,1945,386,0,0
728,638,0,0,0,0,0,0,0,0,0,-1,1952,386,0,0
735,638,0,0,0,0,0,0,0,0,0,-1,1959,386,0,0
742,638,0,0,0,0,0,0,0,0,0,-1,1966,386,0,0
749,638,0,0,0,0,0,0,0,0,0,-1,1973,386,0,0
756,638,0,0,0,0,0,0,0,0,0,-1,1980,386,0,0
763,638,0,0,0,0,0,0,0,0,0,-1,1987,386,0,0
770,638,0,0,0,0,0,0,0,0,0,-1,1994,386,0,0
777,638,0,0,0,0,0,0,0,0,0,-1,2001,386,0,0
784,638,0,0,0,0,0,0,0,0,0,-1,2008,386,0,0
791,638,0,0,0,0,0,0,0,0,0,-1,2015,386,0,0
798,638,0,0,0,0,0,0,0,0,0,-1,2022,386,0,0
805,638,0,0,0,0,0,0,0,0,0,-1,2029,386,0,0
812,638,0,0,0,0,0,0,0,0,0,-1,2036,386,0,0
-700,631,0,0,0,0,0,0,0,0,0,-1,524,393,0,0
-693,631,0,0,0,0,0,0,0,0,0,-1,531,393,0,0
-686,631,0,0,0,0,0,0,0,0,0,-1,538,393,0,0
-679,631,0,0,0,0,0,0,0,0,0,-1,545,393,0,0
-672,631,0,0,0,0,0,0,0,0,0,-1,552,393,0,0
-665,631,0,0,0,0,0,0,0,0,0,-1,559,393,0,0
-658,631,0,0,0,0,0,0,0,0,0,-1,566,393,0,0
-651,631,0,0,0,0,0,0,0,0,0,-1,573,393,0,0
-644,631,0,0,0,0,0,0,0,0,0,-1,580,393,0,0
-637,631,0,0,0,0,0,0,0,0,0,-1,587,393,0,0
-630,631,0,0,0,0,0,0,0,0,0,-1,594,393,0,0
-623,631,0,0,0,0,0,0,0,0,0,-1,601,393,0,0
-616,631,0,0,0,0,0,0,0,0,0,-1,608,393,0,0
-609,631,0,0,0,0,0,0,0,0,0,-1,615,393,0,0
-602,631,0,0,0,0,0,0,0,0,0,-1,622,393,0,0
-595,631,0,0,0,0,0,0,0,0,0,-1,629,393,0,0
-588,631,0,0,0,0,0,0,0,0,0,-1,636,393,0,0
-581,631,0,0,0,0,0,0,0,0,0,-1,643,393,0,0
-574,631,0,0,0,0,0,0,0,0,0,-1,650,393,0,0
-567,631,0,0,0,0,0,0,0,0,0,-1,657,393,0,0
-560,631,0,0,0,0,0,0,0,0,0,-1,664,393,0,0
-553,631,0,0,0,0,0,0,0,0,0,-1,671,393,0,0
-546,631,0,0,0,0,0,0,0,0,0,-1,678,393,0,0
-539,631,0,0,0,0,0,0,0,0,0,-1,685,393,0,0
-532,631,0,0,0,0,0,0,0,0,0,-1,692,393,0,0
-525,631,0,0,0,0,0,0,0,0,0,-1,699,393,0,0
-518,631,0,0,0,0,0,0,0,0,0,-1,706,393,0,0
-511,631,0,0,0,0,0,0,0,0,0,-1,713,393,0,0
-504,631,0,0,0,0,0,0,0,0,0,-1,720,393,0,0
-497,631,0,0,0,0,0,0,0,0,0,-1,727,393,0,0
-490,631,0,0,0,0,0,0,0,0,0,-1,734,393,0,0
-483,631,0,0,0,0,0,0,0,0,0,-1,741,393,0,0
-476,631,0,0,0,0,0,0,0,0,0,-1,748,393,0,0
-469,631,0,0,0,0,0,0,0,0,0,-1,755,393,0,0
-462,631,0,0,0,0,0,0,0,0,0,-1,762,393,0,0
-455,631,0,0,0,0,0,0,0,0,0,-1,769,393,0,0
-448,631,0,0,0,0,0,0,0,0,0,-1,776,393,0,0
-441,631,0,0,0,0,0,0,0,0,0,-1,783,393,0,0
-434,631,0,0,0,0,0,0,0,0,0,-1,790,393,0,0
-427,631,0,0,0,0,0,0,0,0,0,-1,797,393,0,0
-420,631,0,0,0,0,0,0,0,0,0,-1,804,393,0,0
-413,631,0,0,0,0,0,0,0,0,0,-1,811,393,0,0
-406,631,0,0,0,0,0,0,0,0,0,-1,818,393,0,0
-399,631,0,0,0,0,0,0,0,0,0,-1,825,393,0,0
-392,631,0,0,0,0,0,0,0,0,0,-1,832,393,0,0
-385,631,0,0,0,0,0,0,0,0,0,-1,839,393,0,0
-378,631,0,0,0,0,0,0,0,0,0,-1,846,393,0,0
-371,631,0,0,0,0,0,0,0,0,0,-1,853,393,0,0
-364,631,0,0,0,0,0,0,0,0,0,-1,860,393,0,0
-357,631,0,0,0,0,0,0,0,0,0,-1,867,393,0,0
-350,631,0,0,0,0,0,0,0,0,0,-1,874,393,0,0
-343,631,0,0,0,0,0,0,0,0,0,-1,881,393,0,0
-336,631,0,0,0,0,0,0,0,0,0,-1,888,393,0,0
-329,631,0,0,0,0,0,0,0,0,0,-1,895,393,0,0
-322,631,0,0,0,0,0,0,0,0,0,-1,902,393,0,0
-315,631,0,0,0,0,0,0,0,0,0,-1,909,393,0,0
-308,631,0,0,0,0,0,0,0,0,0,-1,916,393,0,0
-301,631,0,0,0,0,0,0,0,0,0,-1,923,393,0,0
-294,631,0,0,0,0,0,0,0,0,0,-1,930,393,0,0
-287,631,0,0,0,0,0,0,0,0,0,-1,937,393,0,0
-280,631,1.02759,-14.3235,0,0,0,0,0,0,0,-1,944,393,1.02761,14.3235
-273,631,3.12531,-25.4045,0,0,0,0,0,0,0,-1,951,393,3.12531,25.4045
-266,631,4.95123,-25.876,0.27476,-0.106022,0.00772842,0.274917,-0.106179,0.020285,0.227101,0.0432271,958,393,4.95123,25.876
-259,631,6.86334,-26.3179,0.254617,-0.0948616,0.00915867,0.254857,-0.0951014,0.0261827,0.208948,0.0440621,965,393,6.86332,26.3179
-252,631,8.73389,-26.7964,0,0,0,0,0,0,0,-1,972,393,8.7339,26.7964
-245,631,4.06909,-25.853,0,0,0,0,0,0,0,-1,979,393,4.06911,25.853
-238,631,3.05438,-25.4099,0,0,0,0,0,0,0,-1,986,393,3.0544,25.4099
-231,631,2.14966,-25.2306,0,0,0,0,0,0,0,-1,993,393,2.14968,25.2306
-224,631,6.83575,-19.7909,0,0,0,0,0,0,0,-1,1000,393,6.83575,19.7909
-217,631,5.05188,-18.3867,0,0,0,0,0,0,0,-1,1007,393,5.0519,18.3866
-210,631,3.37842,-26.3769,0,0,0,0,0,0,0,-1,1014,393,3.37839,26.3769
-203,631,4.99133,-24.6235,0,0,0,0,0,0,0,-1,1021,393,4.99134,24.6235
-196,631,4.92432,-25.2008,0,0,0,0,0,0,0,-1,1028,393,4.92432,25.2008
-189,631,4.47656,-26.0599,0,0,0,0,0,0,0,-1,1035,393,4.47654,26.0599
-182,631,4.89612,-26.8562,0,0,0,0,0,0,0,-1,1042,393,4.89607,26.8562
-175,631,4.80212,-27.2795,0.00927947,-0.00139914,-0.00974335,0.0150506,-0.00717023,-0.534747,0.0130953,0.0391292,1049,393,4.80207,27.2795
-168,631,4.63977,-27.6951,0.00980802,-0.00549509,-0.00856987,0.0136451,-0.00933218,-0.420975,0.0133436,0.0214401,1056,393,4.63979,27.6951
-161,631,4.604,-28.0669,0.0101991,-0.00837801,-0.00741995,0.0127989,-0.0109778,-0.337012,0.0137409,0.0109456,1063,393,4.60398,28.0669
-154,631,4.59143,-28.4156,0.0102499,-0.009571,-0.0062643,0.0120637,-0.0113848,-0.281841,0.0135399,0.0104441,1070,393,4.59143,28.4156
-147,631,4.57544,-28.7234,0.0100051,-0.0103456,-0.00521823,0.0112651,-0.0116056,-0.23693,0.0132049,0.0111416,1077,393,4.57541,28.7234
-140,631,4.54785,-29.0513,0.00947755,-0.00964218,-0.00423262,0.0103726,-0.0105373,-0.208404,0.0120725,0.0104009,1084,393,4.5479,29.0513
-133,631,4.51379,-29.357,0.00858916,-0.00790277,-0.00329803,0.00922423,-0.00853785,-0.190235,0.0102575,0.00907233,1091,393,4.51375,29.357
-126,631,4.49048,-29.6266,0.00741014,-0.00577631,-0.00255229,0.00788691,-0.00625308,-0.184672,0.00818187,0.0137242,1098,393,4.49044,29.6266
-119,631,4.45422,-29.8969,0.00629816,-0.00345017,-0.00201035,0.00669647,-0.00384848,-0.195597,0.0061617,0.0169359,1105,393,4.45427,29.8969
-112,631,4.46814,-30.1645,0.00512788,-0.00127297,-0.00154076,0.00547945,-0.00162454,-0.224338,0.00429806,0.0154147,1112,393,4.46819,30.1645
-105,631,4.46887,-30.4341,0.00364909,0.00104708,-0.00104052,0.00401401,0.000682159,-0.337303,0.00248009,0.0192617,1119,393,4.46883,30.4341
-98,631,4.43115,-30.703,0.00239193,0.00266859,-0.000810187,0.00335217,0.00170835,-0.869952,0.00193549,0.0170964,1126,393,4.43119,30.703
-91,631,4.38953,-30.9558,0.00147085,0.00387187,-0.000807807,0.00411835,0.00122437,-1.27465,0.00244199,0.0188063,1133,393,4.38955,30.9558
-84,631,4.36694,-31.2027,0.000991007,0.00400934,-0.000645656,0.00414165,0.000858694,-1.36867,0.00252404,0.0180131,1140,393,4.3669,31.2027
-77,631,4.34888,-31.43,-0.000181359,0.00439546,-0.000319677,0.00441768,-0.00020358,-1.5014,0.00301527,0.0121887,1147,393,4.34891,31.43
-70,631,4.34766,-31.6259,-0.000684389,0.00457455,-0.000605599,0.00464339,-0.000753226,-1.45761,0.0033748,0.0125971,1154,393,4.34768,31.6259
-63,631,4.34668,-31.8347,-0.000245227,0.00402359,-0.000680619,0.00412948,-0.000351118,-1.41645,0.00287717,0.0127532,1161,393,4.34666,31.8346
-56,631,4.33838,-32.0549,8.59928e-05,0.00353676,-0.000704664,0.0036751,-5.23565e-05,-1.37693,0.00246771,0.0140821,1168,393,4.33836,32.0549
-49,631,4.3446,-32.2349,0.000257924,0.00276887,-0.000703373,0.00295247,7.43193e-05,-1.31546,0.00194402,0.0113659,1175,393,4.34459,32.2349
-42,631,4.33691,-32.3948,0.000424545,0.00209826,-0.000427575,0.00220116,0.000321641,-1.33462,0.00137285,0.00941666,1182,393,4.33697,32.3948
-35,631,4.33423,-32.546,0.000543745,0.00144762,-5.764e-05,0.00145128,0.000540085,-1.50737,0.000846981,0.0103937,1189,393,4.33419,32.546
-28,631,4.35706,-32.6781,0.000620232,0.000832888,0.000219149,0.000970141,0.000482979,1.01126,0.000560113,0.0129746,1196,393,4.35704,32.6781
-21,631,4.33862,-32.8217,0.000672844,0.000107164,0.000543954,0.0010031,-0.00022309,0.54565,0.000754175,0.0119259,1203,393,4.33864,32.8217
-14,631,4.30688,-32.9649,0.00067763,-0.000839007,0.000869615,0.00107312,-0.0012345,0.426829,0.00133339,0.0148204,1210,393,4.30693,32.9649
-7,631,4.31873,-33.1348,0.000752709,-0.00150453,0.00103708,0.00115684,-0.00190866,0.371577,0.00178752,0.0225578,1217,393,4.31877,33.1348
0,631,4.34387,-33.2172,0.000810438,-0.00212329,0.00112633,0.00119298,-0.00250584,0.327413,0.00217989,0.0238859,1224,393,4.34389,33.2172
7,631,4.33826,-33.2718,0.0008432,-0.00264645,0.00110893,0.00116578,-0.00296902,0.283077,0.00246174,0.0194409,1231,393,4.33829,33.2718
14,631,4.33374,-33.3484,0.00086312,-0.00318485,0.00107538,0.00113107,-0.0034528,0.244193,0.00275733,0.0111088,1238,393,4.33377,33.3484
21,631,4.33948,-33.4328,0.000766234,-0.00327967,0.00105593,0.00102524,-0.00353867,0.240537,0.00276496,0.0132896,1245,393,4.33949,33.4328
28,631,4.34045,-33.4904,0.000665435,-0.00317584,0.00100102,0.000910646,-0.00342105,0.240229,0.00263719,0.0150717,1252,393,4.34042,33.4904
35,631,4.3811,-33.5091,0.000486842,-0.00289705,0.00108396,0.000804288,-0.0032145,0.284891,0.0024554,0.0143019,1259,393,4.38106,33.5091
42,631,4.43066,-33.5486,0.000101232,-0.00243803,0.00128686,0.000639357,-0.00297615,0.396069,0.00222801,0.0128627,1266,393,4.43065,33.5486
49,631,4.42957,-33.5638,-0.000222195,-0.0017094,0.00144895,0.000662819,-0.00259441,0.548322,0.00198773,0.0112164,1273,393,4.42959,33.5638
56,631,4.4447,-33.5898,-0.000340535,-0.000805429,0.00156951,0.00101364,-0.00215961,0.711881,0.00187148,0.0123347,1280,393,4.44475,33.5898
63,631,4.44604,-33.6266,-0.000440929,-5.14688e-05,0.00156464,0.00133052,-0.00182291,0.847308,0.00182802,0.0148727,1287,393,4.44607,33.6266
70,631,4.45264,-33.6019,-0.000609754,0.000652396,0.00156756,0.00171114,-0.0016685,0.976765,0.00195129,0.0159222,1294,393,4.45265,33.6019
77,631,4.46228,-33.5552,-0.000634712,0.00121556,0.00167498,0.00220391,-0.00162306,1.03771,0.00221797,0.0167215,1301,393,4.46225,33.5552
84,631,4.48486,-33.5155,-0.000508645,0.00168499,0.00156952,0.00250296,-0.00132661,1.09037,0.0022455,0.0144479,1308,393,4.48486,33.5155
91,631,4.47656,-33.4532,-0.00032692,0.00187326,0.00137033,0.00253044,-0.000984098,1.12362,0.00209357,0.0167443,1315,393,4.47659,33.4533
98,631,4.48291,-33.4002,-8.53085e-05,0.00164771,0.00112181,0.0021987,-0.000636297,1.11425,0.00171765,0.0133652,1322,393,4.48294,33.4002
105,631,4.48352,-33.3181,0.000314148,0.00135693,0.000824833,0.00181135,-0.000140266,1.06725,0.00125693,0.0111755,1329,393,4.48355,33.318
112,631,4.4989,-33.2069,0.000818563,0.000987013,0.000504493,0.00141426,0.000391313,0.868111,0.000843233,0.0121166,1336,393,4.49892,33.2069
119,631,4.50525,-33.1028,0.0012112,0.000665897,9.68965e-05,0.00122791,0.000649191,0.170732,0.000709321,0.0127813,1343,393,4.50528,33.1028
126,631,4.51025,-32.9441,0.00158187,0.000250632,-0.000319613,0.00165462,0.000177873,-0.223831,0.00104883,0.0172816,1350,393,4.5103,32.9441
133,631,4.51086,-32.8285,0.0017834,8.76957e-05,-0.00059578,0.0019718,-0.000100698,-0.306265,0.00134935,0.0191077,1357,393,4.51088,32.8285
140,631,4.49561,-32.7282,0.00185134,0.000112673,-0.000785843,0.00215388,-0.000189867,-0.367499,0.00150321,0.0200375,1364,393,4.49555,32.7282
147,631,4.48083,-32.5791,0.0018291,0.000268822,-0.00081642,0.00217819,-8.02687e-05,-0.40406,0.00147961,0.0234919,1371,393,4.48087,32.5791
154,631,4.52209,-32.4403,0.00160819,0.000489151,-0.000625978,0.00188826,0.000209081,-0.420699,0.00119526,0.0230939,1378,393,4.5221,32.4403
161,631,4.59949,-32.2599,0.00130537,0.000964129,-0.000338772,0.00151406,0.000755437,-0.55212,0.000874144,0.0242902,1385,393,4.59945,32.2599
168,631,4.61194,-32.0502,0.000948857,0.00149341,-8.32561e-05,0.00150585,0.000936412,-1.42242,0.000877966,0.0284694,1392,393,4.61189,32.0502
175,631,4.5719,-31.8974,0.000677072,0.00216118,0.000249721,0.00220207,0.000636179,1.40849,0.00130859,0.0216409,1399,393,4.57186,31.8974
182,631,4.55298,-31.7067,0.000383045,0.00282723,0.000604708,0.00296865,0.000241619,1.34105,0.00190368,0.0114153,1406,393,4.55301,31.7067
189,631,4.54724,-31.4611,0.000117893,0.00339251,0.000931629,0.00363901,-0.000128601,1.31214,0.00246999,0.0102762,1413,393,4.54727,31.461
196,631,4.53406,-31.2376,-0.000110209,0.00381527,0.00119224,0.004149,-0.000443944,1.29786,0.00292523,0.0109021,1420,393,4.53402,31.2376
203,631,4.55322,-31.0246,-0.000366829,0.00422445,0.00139076,0.00461287,-0.000755249,1.29845,0.00335545,0.0130379,1427,393,4.55325,31.0246
210,631,4.5321,-30.7818,-0.000716256,0.00473994,0.00161982,0.00518459,-0.00116091,1.30289,0.00390137,0.0152721,1434,393,4.53209,30.7818
217,631,4.50403,-30.5219,-0.00102575,0.00526085,0.0017282,0.00570461,-0.00146951,1.31945,0.00437595,0.0169229,1441,393,4.50397,30.5219
224,631,4.47876,-30.2384,-0.00104052,0.00590466,0.00190928,0.00639493,-0.00153078,1.31945,0.00485467,0.013523,1448,393,4.47876,30.2384
231,631,4.45532,-29.9389,-0.00103971,0.00658907,0.00215941,0.0071579,-0.00160854,1.31323,0.00538874,0.010791,1455,393,4.45532,29.9389
238,631,4.42297,-29.6238,-0.00121534,0.0075011,0.00250151,0.00816798,-0.00188222,1.31026,0.00616919,0.0171726,1462,393,4.42297,29.6238
245,631,4.43176,-29.3316,-0.00165697,0.00826138,0.00261818,0.00891008,-0.00230567,1.32792,0.00683941,0.0187772,1469,393,4.43179,29.3316
252,631,4.40845,-29.0628,-0.00179908,0.00915815,0.00287504,0.00986671,-0.00250763,1.32916,0.00755373,0.0180925,1476,393,4.40845,29.0628
259,631,4.36438,-28.7418,-0.00183096,0.0101681,0.00329146,0.0110116,-0.00267454,1.3199,0.00837616,0.012634,1483,393,4.36438,28.7418
266,631,4.35242,-28.4204,-0.00176275,0.0112452,0.00393576,0.0123433,-0.00286087,1.2987,0.00932989,0.0106452,1490,393,4.35246,28.4204
273,631,4.35205,-28.0834,-0.00173477,0.0122737,0.00457045,0.013633,-0.00309404,1.28172,0.0102765,0.013472,1497,393,4.35202,28.0834
280,631,4.34607,-27.7282,-2.05973e-05,0.0111767,0.00532529,0.0133049,-0.00214876,1.19061,0.00966611,0.012181,1504,393,4.34605,27.7282
287,631,4.30725,-27.3673,0.00283724,0.00917624,0.00611175,0.0128914,-0.000877969,1.0246,0.0089014,0.0131921,1511,393,4.3073,27.3673
294,631,4.2406,-26.9228,0.00533539,0.00751911,0.00702491,0.0135365,-0.000682006,0.862495,0.00926005,0.0170829,1518,393,4.24065,26.9228
301,631,4.23669,-26.4486,0.00866325,0.0048588,0.00794819,0.0149337,-0.00141162,0.667943,0.0104581,0.0251222,1525,393,4.23668,26.4486
308,631,4.48047,-25.9625,0.0128733,0.00111011,0.00879099,0.0175688,-0.00358538,0.490574,0.0130726,0.0384856,1532,393,4.48049,25.9625
315,631,4.65515,-25.5887,0.0180128,-0.00388972,0.0096316,0.0216457,-0.00752262,0.360686,0.017486,0.0461429,1539,393,4.65519,25.5887
322,631,3.90356,-25.918,0,0,0,0,0,0,0,-1,1546,393,3.90359,25.918
329,631,4.41028,-25.5714,0.0291978,-0.0158728,0.0108315,0.0316657,-0.0183407,0.224022,0.0292109,0.043687,1553,393,4.41027,25.5714
336,631,4.95093,-25.2603,0.0344763,-0.0224508,0.010715,0.0364263,-0.0244008,0.180019,0.0353466,0.042491,1560,393,4.95089,25.2603
343,631,5.4137,-24.9509,0,0,0,0,0,0,0,-1,1567,393,5.41373,24.9509
350,631,2.1344,-9.23401,0,0,0,0,0,0,0,-1,1574,393,2.13439,9.23401
357,631,2.6449,-9.60303,0,0,0,0,0,0,0,-1,1581,393,2.64491,9.60304
364,631,3.39136,-5.7594,0,0,0,0,0,0,0,-1,1588,393,3.39137,5.75939
371,631,3.72839,-6.0574,0,0,0,0,0,0,0,-1,1595,393,3.72845,6.05742
378,631,4.06555,-6.35544,0,0,0,0,0,0,0,-1,1602,393,4.06553,6.35544
385,631,3.90442,-3.58298,0,0,0,0,0,0,0,-1,1609,393,3.90437,3.58299
392,631,0.352295,-2.21301,0,0,0,0,0,0,0,-1,1616,393,0.352345,2.213
399,631,0,0,0,0,0,0,0,0,0,-1,1623,393,0,0
406,631,0,0,0,0,0,0,0,0,0,-1,1630,393,0,0
413,631,0,0,0,0,0,0,0,0,0,-1,1637,393,0,0
420,631,0,0,0,0,0,0,0,0,0,-1,1644,393,0,0
427,631,0,0,0,0,0,0,0,0,0,-1,1651,393,0,0
434,631,0,0,0,0,0,0,0,0,0,-1,1658,393,0,0
441,631,0,0,0,0,0,0,0,0,0,-1,1665,393,0,0
448,631,0,0,0,0,0,0,0,0,0,-1,1672,393,0,0
455,631,0,0,0,0,0,0,0,0,0,-1,1679,393,0,0
462,631,0,0,0,0,0,0,0,0,0,-1,1686,393,0,0
469,631,0,0,0,0,0,0,0,0,0,-1,1693,393,0,0
476,631,0,0,0,0,0,0,0,0,0,-1,1700,393,0,0
483,631,0,0,0,0,0,0,0,0,0,-1,1707,393,0,0
490,631,0,0,0,0,0,0,0,0,0,-1,1714,393,0,0
497,631,0,0,0,0,0,0,0,0,0,-1,1721,393,0,0
504,631,0,0,0,0,0,0,0,0,0,-1,1728,393,0,0
511,631,0,0,0,0,0,0,0,0,0,-1,1735,393,0,0
518,631,0,0,0,0,0,0,0,0,0,-1,1742,393,0,0
525,631,0,0,0,0,0,0,0,0,0,-1,1749,393,0,0
532,631,0,0,0,0,0,0,0,0,0,-1,1756,393,0,0
539,631,0,0,0,0,0,0,0,0,0,-1,1763,393,0,0
546,631,0,0,0,0,0,0,0,0,0,-1,1770,393,0,0
553,631,0,0,0,0,0,0,0,0,0,-1,1777,393,0,0
560,631,0,0,0,0,0,0,0,0,0,-1,1784,393,0,0
567,631,0,0,0,0,0,0,0,0,0,-1,1791,393,0,0
574,631,0,0,0,0,0,0,0,0,0,-1,1798,393,0,0
581,631,0,0,0,0,0,0,0,0,0,-1,1805,393,0,0
588,631,0,0,0,0,0,0,0,0,0,-1,1812,393,0,0
595,631,0,0,0,0,0,0,0,0,0,-1,1819,393,0,0
602,631,0,0,0,0,0,0,0,0,0,-1,1826,393,0,0
609,631,0,0,0,0,0,0,0,0,0,-1,1833,393,0,0
616,631,0,0,0,0,0,0,0,0,0,-1,1840,393,0,0
623,631,0,0,0,0,0,0,0,0,0,-1,1847,393,0,0
630,631,0,0,0,0,0,0,0,0,0,-1,1854,393,0,0
637,631,0,0,0,0,0,0,0,0,0,-1,1861,393,0,0
644,631,0,0,0,0,0,0,0,0,0,-1,1868,393,0,0
651,631,0,0,0,0,0,0,0,0,0,-1,1875,393,0,0
658,631,0,0,0,0,0,0,0,0,0,-1,1882,393,0,0
665,631,0,0,0,0,0,0,0,0,0,-1,1889,393,0,0
672,631,0,0,0,0,0,0,0,0,0,-1,1896,393,0,0
679,631,0,0,0,0,0,0,0,0,0,-1,1903,393,0,0
686,631,0,0,0,0,0,0,0,0,0,-1,1910,393,0,0
693,631,0,0,0,0,0,0,0,0,0,-1,1917,393,0,0
700,631,0,0,0,0,0,0,0,0,0,-1,1924,393,0,0
707,631,0,0,0,0,0,0,0,0,0,-1,1931,393,0,0
714,631,0,0,0,0,0,0,0,0,0,-1,1938,393,0,0
721,631,0,0,0,0,0,0,0,0,0,-1,1945,393,0,0
728,631,0,0,0,0,0,0,0,0,0,-1,1952,393,0,0
735,631,0,0,0,0,0,0,0,0,0,-1,1959,393,0,0
742,631,0,0,0,0,0,0,0,0,0,-1,1966,393,0,0
749,631,0,0,0,0,0,0,0,0,0,-1,1973,393,0,0
756,631,0,0,0,0,0,0,0,0,0,-1,1980,393,0,0
763,631,0,0,0,0,0,0,0,0,0,-1,1987,393,0,0
770,631,0,0,0,0,0,0,0,0,0,-1,1994,393,0,0
777,631,0,0,0,0,0,0,0,0,0,-1,2001,393,0,0
784,631,0,0,0,0,0,0,0,0,0,-1,2008,393,0,0
791,631,0,0,0,0,0,0,0,0,0,-1,2015,393,0,0
798,631,0,0,0,0,0,0,0,0,0,-1,2022,393,0,0
805,631,0,0,0,0,0,0,0,0,0,-1,2029,393,0,0
812,631,0,0,0,0,0,0,0,0,0,-1,2036,393,0,0
-700,624,0,0,0,0,0,0,0,0,0,-1,524,400,0,0
-693,624,0,0,0,0,0,0,0,0,0,-1,531,400,0,0
-686,624,0,0,0,0,0,0,0,0,0,-1,538,400,0,0
-679,624,0,0,0,0,0,0,0,0,0,-1,545,400,0,0
-672,624,0,0,0,0,0,0,0,0,0,-1,552,400,0,0
-665,624,0,0,0,0,0,0,0,0,0,-1,559,400,0,0
-658,624,0,0,0,0,0,0,0,0,0,-1,566,400,0,0
-651,624,0,0,0,0,0,0,0,0,0,-1,573,400,0,0
-644,624,0,0,0,0,0,0,0,0,0,-1,580,400,0,0
-637,624,0,0,0,0,0,0,0,0,0,-1,587,400,0,0
-630,624,0,0,0,0,0,0,0,0,0,-1,594,400,0,0
-623,624,0,0,0,0,0,0,0,0,0,-1,601,400,0,0
-616,624,0,0,0,0,0,0,0,0,0,-1,608,400,0,0
-609,624,0,0,0,0,0,0,0,0,0,-1,615,400,0,0
-602,624,0,0,0,0,0,0,0,0,0,-1,622,400,0,0
-595,624,0,0,0,0,0,0,0,0,0,-1,629,400,0,0
-588,624,0,0,0,0,0,0,0,0,0,-1,636,400,0,0
-581,624,0,0,0,0,0,0,0,0,0,-1,643,400,0,0
-574,624,0,0,0,0,0,0,0,0,0,-1,650,400,0,0
-567,624,0,0,0,0,0,0,0,0,0,-1,657,400,0,0
-560,624,0,0,0,0,0,0,0,0,0,-1,664,400,0,0
-553,624,0,0,0,0,0,0,0,0,0,-1,671,400,0,0
-546,624,0,0,0,0,0,0,0,0,0,-1,678,400,0,0
-539,624,0,0,0,0,0,0,0,0,0,-1,685,400,0,0
-532,624,0,0,0,0,0,0,0,0,0,-1,692,400,0,0
-525,624,0,0,0,0,0,0,0,0,0,-1,699,400,0,0
-518,624,0,0,0,0,0,0,0,0,0,-1,706,400,0,0
-511,624,0,0,0,0,0,0,0,0,0,-1,713,400,0,0
-504,624,0,0,0,0,0,0,0,0,0,-1,720,400,0,0
-497,624,0,0,0,0,0,0,0,0,0,-1,727,400,0,0
-490,624,0,0,0,0,0,0,0,0,0,-1,734,400,0,0
-483,624,0,0,0,0,0,0,0,0,0,-1,741,400,0,0
-476,624,0,0,0,0,0,0,0,0,0,-1,748,400,0,0
-469,624,0,0,0,0,0,0,0,0,0,-1,755,400,0,0
-462,624,0,0,0,0,0,0,0,0,0,-1,762,400,0,0
-455,624,0,0,0,0,0,0,0,0,0,-1,769,400,0,0
-448,624,0,0,0,0,0,0,0,0,0,-1,776,400,0,0
-441,624,0,0,0,0,0,0,0,0,0,-1,783,400,0,0
-434,624,0,0,0,0,0,0,0,0,0,-1,790,400,0,0
-427,624,0,0,0,0,0,0,0,0,0,-1,797,400,0,0
-420,624,0,0,0,0,0,0,0,0,0,-1,804,400,0,0
-413,624,0,0,0,0,0,0,0,0,0,-1,811,400,0,0
-406,624,0,0,0,0,0,0,0,0,0,-1,818,400,0,0
-399,624,0,0,0,0,0,0,0,0,0,-1,825,400,0,0
-392,624,0,0,0,0,0,0,0,0,0,-1,832,400,0,0
-385,624,0,0,0,0,0,0,0,0,0,-1,839,400,0,0
-378,624,0,0,0,0,0,0,0,0,0,-1,846,400,0,0
-371,624,0,0,0,0,0,0,0,0,0,-1,853,400,0,0
-364,624,0,0,0,0,0,0,0,0,0,-1,860,400,0,0
-357,624,0,0,0,0,0,0,0,0,0,-1,867,400,0,0
-350,624,0,0,0,0,0,0,0,0,0,-1,874,400,0,0
-343,624,0,0,0,0,0,0,0,0,0,-1,881,400,0,0
-336,624,0,0,0,0,0,0,0,0,0,-1,888,400,0,0
-329,624,0,0,0,0,0,0,0,0,0,-1,895,400,0,0
-322,624,0,0,0,0,0,0,0,0,0,-1,902,400,0,0
-315,624,0,0,0,0,0,0,0,0,0,-1,909,400,0,0
-308,624,0,0,0,0,0,0,0,0,0,-1,916,400,0,0
-301,624,0,0,0,0,0,0,0,0,0,-1,923,400,0,0
-294,624,10.6271,-28.4093,0,0,0,0,0,0,0,-1,930,400,10.6271,28.4093
-287,624,0.12146,-15.0862,0,0,0,0,0,0,0,-1,937,400,0.121451,15.0862
-280,624,1.61359,-14.553,0,0,0,0,0,0,0,-1,944,400,1.6136,14.553
-273,624,2.92303,-24.3356,0,0,0,0,0,0,0,-1,951,400,2.92306,24.3356
-266,624,4.62988,-24.8541,0.219244,-0.0872326,0.0019434,0.219256,-0.0872449,0.00634078,0.182348,0.0436761,958,400,4.62991,24.8541
-259,624,6.30719,-25.3577,0.20051,-0.0772116,0.0032243,0.200548,-0.0772491,0.0116077,0.165568,0.0475536,965,400,6.30719,25.3577
-252,624,7.96606,-26.0403,0,0,0,0,0,0,0,-1,972,400,7.96608,26.0403
-245,624,4.72278,-25.3516,0,0,0,0,0,0,0,-1,979,400,4.72279,25.3516
-238,624,4.08038,-25.0565,0,0,0,0,0,0,0,-1,986,400,4.0804,25.0565
-231,624,4.95148,-20.7456,0,0,0,0,0,0,0,-1,993,400,4.95146,20.7456
-224,624,3.2287,-22.9566,0,0,0,0,0,0,0,-1,1000,400,3.22873,22.9566
-217,624,4.90027,-24.6249,0,0,0,0,0,0,0,-1,1007,400,4.90028,24.6249
-210,624,4.60437,-24.84,0,0,0,0,0,0,0,-1,1014,400,4.60435,24.84
-203,624,4.56348,-25.2363,-0.00109706,0.0240055,-0.00932224,0.0270888,-0.00418032,-1.25138,0.0196018,0.0497276,1021,400,4.56353,25.2363
-196,624,4.53589,-25.753,0.000616342,0.0174376,-0.00882833,0.0212203,-0.00316639,-1.16598,0.0153119,0.0408656,1028,400,4.5359,25.753
-189,624,4.28137,-26.3815,0.00164868,0.012318,-0.00868659,0.0171773,-0.00321055,-1.06077,0.0126581,0.0404373,1035,400,4.28142,26.3815
-182,624,4.33948,-26.8272,0.00392001,0.0076646,-0.00879348,0.0147829,-0.00319829,-0.890291,0.0110764,0.0338373,1042,400,4.33946,26.8272
-175,624,4.44824,-27.3554,0.00519952,0.00266006,-0.00774723,0.0117804,-0.0039208,-0.704173,0.00943607,0.0223005,1049,400,4.44818,27.3554
-168,624,4.34082,-27.746,0.00576957,-0.000835574,-0.00682956,0.0100532,-0.00511917,-0.560189,0.00891281,0.0141434,1056,400,4.34085,27.746
-161,624,4.31653,-28.1242,0.00625977,-0.00350844,-0.00591866,0.00904932,-0.00629799,-0.440437,0.0089081,0.0112041,1063,400,4.31651,28.1242
-154,624,4.3075,-28.4374,0.00649511,-0.00493662,-0.00499492,0.00837005,-0.00681156,-0.359095,0.00878049,0.0103348,1070,400,4.30753,28.4374
-147,624,4.29187,-28.7412,0.00648614,-0.00607625,-0.00415705,0.00773718,-0.00732729,-0.292322,0.00869855,0.0118554,1077,400,4.29186,28.7412
-140,624,4.25293,-29.0691,0.0062561,-0.00602048,-0.00336459,0.00711775,-0.00688213,-0.250704,0.00808321,0.0107917,1084,400,4.25294,29.0691
-133,624,4.22339,-29.3715,0.00572684,-0.00507525,-0.00260719,0.00632319,-0.0056716,-0.224864,0.0069286,0.0113617,1091,400,4.22333,29.3715
-126,624,4.19104,-29.6487,0.00496307,-0.00373541,-0.00202625,0.00541191,-0.00418425,-0.217993,0.00555544,0.013171,1098,400,4.19108,29.6487
-119,624,4.16907,-29.9227,0.00429258,-0.00207525,-0.00165958,0.00469914,-0.00248181,-0.240247,0.00421129,0.0154094,1105,400,4.16905,29.9227
-112,624,4.1759,-30.1725,0.00355868,-0.000496134,-0.00133494,0.00395871,-0.000896164,-0.291146,0.00298307,0.0185348,1112,400,4.1759,30.1726
-105,624,4.21985,-30.4398,0.00263895,0.00117863,-0.00104132,0.00318059,0.000636989,-0.479635,0.00194318,0.0143569,1119,400,4.21991,30.4399
-98,624,4.18665,-30.699,0.00191472,0.00229533,-0.000962839,0.00308649,0.00112356,-0.882966,0.00180382,0.0144256,1126,400,4.18671,30.699
-91,624,4.17017,-30.948,0.00146627,0.00304772,-0.00102096,0.00354836,0.00096564,-1.11489,0.00211837,0.0198905,1133,400,4.17015,30.948
-84,624,4.17285,-31.2039,0.00132259,0.00304713,-0.000947708,0.00346613,0.000903587,-1.15451,0.00207617,0.0186684,1140,400,4.17281,31.2039
-77,624,4.16223,-31.4435,0.000938934,0.00301392,-0.000774729,0.00327126,0.000681593,-1.25009,0.00199288,0.013744,1147,400,4.16226,31.4435
-70,624,4.16016,-31.6292,0.000921459,0.00284893,-0.000852314,0.00317175,0.000598639,-1.20874,0.0019459,0.0140009,1154,400,4.16013,31.6291
-63,624,4.15833,-31.828,0.00121649,0.00230888,-0.000731588,0.00267568,0.0008497,-1.10605,0.00157871,0.0148258,1161,400,4.15836,31.828
-56,624,4.1532,-32.0433,0.00146025,0.00180872,-0.000492969,0.00215734,0.00111163,-0.955266,0.00124573,0.0125034,1168,400,4.15316,32.0433
-49,624,4.17505,-32.2233,0.00117475,0.000721672,-0.00038248,0.00139275,0.000503676,-0.518032,0.0008143,0.0106587,1175,400,4.17501,32.2233
-42,624,4.177,-32.3834,0.00110108,-0.000321803,0.000289256,0.00115763,-0.000378357,0.193082,0.000924064,0.0103766,1182,400,4.17706,32.3834
-35,624,4.1792,-32.5439,0.00105161,-0.00139837,0.000954243,0.00137942,-0.00172618,0.330895,0.00179674,0.0153339,1189,400,4.17922,32.5439
-28,624,4.17639,-32.7092,0.000928108,-0.00239127,0.00140108,0.00144042,-0.00290358,0.350553,0.00255499,0.0195779,1196,400,4.17645,32.7092
-21,624,4.19519,-32.8245,0.000814142,-0.003629,0.00189888,0.00151509,-0.00432994,0.353622,0.00350264,0.0142313,1203,400,4.19519,32.8245
-14,624,4.18274,-32.9416,0.000718967,-0.00511298,0.00233929,0.00154134,-0.00593535,0.338051,0.00455838,0.0153184,1210,400,4.18278,32.9416
-7,624,4.20447,-33.0604,0.000779897,-0.00614588,0.00256043,0.00162368,-0.00698966,0.318339,0.0052848,0.019574,1217,400,4.20442,33.0604
0,624,4.25134,-33.1658,0.000941338,-0.00711151,0.00268117,0.00175235,-0.00792252,0.293734,0.00595241,0.0192793,1224,400,4.25134,33.1658
7,624,4.24341,-33.2615,0.00120691,-0.00785568,0.0027627,0.0019827,-0.00863147,0.273758,0.00651654,0.0151614,1231,400,4.24336,33.2615
14,624,4.27747,-33.3611,0.00143375,-0.0086174,0.0027471,0.00213556,-0.00931921,0.250124,0.00703357,0.0127677,1238,400,4.27749,33.3611
21,624,4.28821,-33.4273,0.00155751,-0.0088142,0.0027341,0.00223411,-0.0094908,0.242594,0.00718857,0.0135599,1245,400,4.28819,33.4273
28,624,4.28979,-33.4855,0.0016556,-0.0087516,0.00269693,0.00231296,-0.00940896,0.239082,0.0071691,0.0127572,1252,400,4.28982,33.4855
35,624,4.32092,-33.5157,0.00156005,-0.00837264,0.00286007,0.00232473,-0.00913732,0.261252,0.0069964,0.0160274,1259,400,4.32088,33.5157
42,624,4.39233,-33.5543,0.0012124,-0.00779403,0.00310256,0.00217771,-0.00875934,0.301641,0.00668477,0.0172222,1266,400,4.39229,33.5543
49,624,4.40283,-33.5585,0.00102077,-0.00676649,0.0033197,0.00224386,-0.00798958,0.353,0.00621095,0.0176869,1273,400,4.40284,33.5585
56,624,4.42981,-33.5858,0.00130043,-0.00539631,0.00358071,0.00285441,-0.00695029,0.409458,0.00582307,0.0190302,1280,400,4.42977,33.5858
63,624,4.47583,-33.6016,0.00154806,-0.00419569,0.00360121,0.00328231,-0.00592993,0.448798,0.00539141,0.0156662,1287,400,4.47577,33.6016
70,624,4.48572,-33.6038,0.00156903,-0.00308223,0.00360611,0.00353439,-0.00504758,0.499002,0.00498041,0.0138335,1294,400,4.48569,33.6038
77,624,4.50366,-33.5529,0.00179904,-0.00195279,0.00378661,0.00414894,-0.00430268,0.555415,0.00487982,0.0152006,1301,400,4.50371,33.5529
84,624,4.51123,-33.5282,0.00224846,-0.00100236,0.00366126,0.00462889,-0.00338279,0.576493,0.00464416,0.0140428,1308,400,4.51128,33.5282
91,624,4.5321,-33.4577,0.00274458,-0.000394958,0.00339445,0.00491467,-0.00256504,0.568818,0.00438886,0.0137821,1315,400,4.53211,33.4577
98,624,4.5564,-33.3951,0.00327191,-0.000432269,0.00296546,0.00491612,-0.00207649,0.506259,0.00414666,0.0128834,1322,400,4.5564,33.3951
105,624,4.56726,-33.3465,0.00387212,-0.000614572,0.00245249,0.00495252,-0.00169498,0.414954,0.00398859,0.0142154,1329,400,4.56723,33.3465
112,624,4.59717,-33.234,0.00443852,-0.00110913,0.00178426,0.00496283,-0.00163344,0.285807,0.00396676,0.0149341,1336,400,4.59716,33.2341
119,624,4.59436,-33.1219,0.00485597,-0.00156611,0.00109023,0.00503601,-0.00174615,0.163657,0.00406634,0.0155536,1343,400,4.59431,33.1218
126,624,4.58105,-32.9777,0.00515281,-0.00217901,0.000335957,0.00516817,-0.00219437,0.0456941,0.00436482,0.018457,1350,400,4.58104,32.9777
133,624,4.64917,-32.8335,0.00515709,-0.0024899,-0.000317142,0.00517022,-0.00250303,-0.0413781,0.00451848,0.0189327,1357,400,4.64923,32.8335
140,624,4.63696,-32.7146,0.00497986,-0.00266519,-0.000938483,0.00509338,-0.00277871,-0.120376,0.00460998,0.0181385,1364,400,4.63698,32.7146
147,624,4.61279,-32.5474,0.00463216,-0.00258989,-0.00128645,0.00485447,-0.0028122,-0.171119,0.00447839,0.0238748,1371,400,4.61279,32.5474
154,624,4.73083,-32.4309,0.00382114,-0.00256971,-0.00132598,0.00408533,-0.00283391,-0.196669,0.00401654,0.0280664,1378,400,4.73081,32.4309
161,624,4.80823,-32.2717,0.00289483,-0.00223233,-0.00120686,0.0031647,-0.0025022,-0.219996,0.00327923,0.0240876,1385,400,4.80827,32.2717
168,624,4.8158,-32.0619,0.00203792,-0.00166523,-0.00111509,0.00234777,-0.00197508,-0.271032,0.00249888,0.0221462,1392,400,4.81582,32.0619
175,624,4.77991,-31.9148,0.00175656,-0.000737743,-0.000746971,0.00196315,-0.00094433,-0.269821,0.00171264,0.0171924,1399,400,4.77992,31.9148
182,624,4.76294,-31.727,0.00146591,-3.79196e-06,-0.000442688,0.00158895,-0.000126833,-0.271098,0.00110401,0.0105047,1406,400,4.76294,31.727
189,624,4.76294,-31.4822,0.00115835,0.000936171,-6.52874e-05,0.00117611,0.000918407,-0.265664,0.000713852,0.0102803,1413,400,4.76295,31.4822
196,624,4.75256,-31.2521,0.000961325,0.00169221,0.000327053,0.00181719,0.000836347,1.20579,0.00105026,0.0108235,1420,400,4.75258,31.2521
203,624,4.79456,-31.0121,0.000713721,0.00244244,0.000666221,0.0026694,0.000486766,1.24247,0.00164158,0.0130304,1427,400,4.79459,31.0122
210,624,4.79163,-30.7677,0.00031944,0.00314625,0.000961421,0.00344225,2.34463e-05,1.27213,0.00228706,0.0174708,1434,400,4.79166,30.7677
217,624,4.74341,-30.4851,-1.19159e-05,0.00382649,0.00116708,0.00415349,-0.000338912,1.29762,0.0028886,0.0207961,1441,400,4.74345,30.4851
224,624,4.72449,-30.2133,-0.000115545,0.00444688,0.00141308,0.00484908,-0.00051775,1.2935,0.0034184,0.0157844,1448,400,4.72443,30.2133
231,624,4.72803,-29.9627,-0.000194346,0.00505819,0.00169543,0.0055579,-0.000694059,1.28417,0.00395696,0.0110698,1455,400,4.72803,29.9627
238,624,4.71973,-29.6908,-0.000387626,0.00579552,0.00201252,0.00639286,-0.000984961,1.28227,0.00462532,0.0177395,1462,400,4.71969,29.6908
245,624,4.71741,-29.4107,-0.000748,0.00642888,0.00214463,0.00702091,-0.00134003,1.30145,0.00518533,0.018925,1469,400,4.71736,29.4107
252,624,4.69629,-29.0979,-0.000921466,0.00716591,0.00236092,0.00780467,-0.00156023,1.30657,0.00579365,0.0140332,1476,400,4.69626,29.0979
259,624,4.67261,-28.7736,-0.00102385,0.00796779,0.00270185,0.0087172,-0.00177325,1.30023,0.00648388,0.00946837,1483,400,4.67264,28.7736
266,624,4.66162,-28.4261,-0.00104109,0.00880789,0.00321958,0.00976697,-0.00200016,1.28128,0.00727033,0.013177,1490,400,4.66161,28.4261
273,624,4.6543,-28.0862,-0.00107922,0.00960947,0.00372631,0.0107803,-0.00225004,1.26636,0.00804248,0.0167406,1497,400,4.65434,28.0863
280,624,4.62341,-27.769,0.000123664,0.00887218,0.00432754,0.0106511,-0.00165526,1.18078,0.00771194,0.0150229,1504,400,4.62336,27.769
287,624,4.59717,-27.4489,0.00222649,0.00749858,0.00502106,0.0105335,-0.000808422,1.02712,0.00730673,0.0110959,1511,400,4.59719,27.4489
294,624,4.54932,-27.0844,0.00402114,0.00638447,0.00576927,0.0110919,-0.000686239,0.886411,0.0076336,0.00925474,1518,400,4.54934,27.0843
301,624,4.52795,-26.6639,0.00642437,0.0045707,0.00653621,0.0120991,-0.00110406,0.714968,0.00845816,0.010694,1525,400,4.52801,26.6639
308,624,4.5564,-26.2545,0.00944358,0.00202942,0.00727111,0.0138981,-0.00242508,0.549655,0.0101706,0.0165184,1532,400,4.5564,26.2545
315,624,4.56287,-25.8821,0.0130735,-0.00136754,0.00798535,0.0166188,-0.00491278,0.417826,0.0130293,0.0201005,1539,400,4.56281,25.8821
322,624,4.50781,-25.523,0.0169522,-0.00516022,0.0086685,0.0199452,-0.00815331,0.332467,0.0166921,0.0316314,1546,400,4.5078,25.523
329,624,4.48267,-25.1051,0.0207331,-0.0093884,0.00905174,0.0232439,-0.0118992,0.270583,0.0206393,0.0458033,1553,400,4.48268,25.1051
336,624,4.96814,-24.85,0.0241413,-0.0136473,0.00908731,0.026213,-0.0157191,0.224148,0.0244609,0.0419457,1560,400,4.96809,24.85
343,624,5.2843,-24.4844,0,0,0,0,0,0,0,-1,1567,400,5.28434,24.4844
350,624,1.99194,-7.29742,0,0,0,0,0,0,0,-1,1574,400,1.99198,7.29741
357,624,2.64075,-3.13092,0,0,0,0,0,0,0,-1,1581,400,2.64076,3.13091
364,624,3.16565,-4.9458,0,0,0,0,0,0,0,-1,1588,400,3.16564,4.94579
371,624,3.37561,-5.23529,0,0,0,0,0,0,0,-1,1595,400,3.37563,5.23529
378,624,1.50439,-5.22165,0,0,0,0,0,0,0,-1,1602,400,1.50438,5.22164
385,624,1.2301,-10.5866,0,0,0,0,0,0,0,-1,1609,400,1.2301,10.5866
392,624,4.26819,-5.14236,0,0,0,0,0,0,0,-1,1616,400,4.26818,5.14236
399,624,2.22168,-9.19293,0,0,0,0,0,0,0,-1,1623,400,2.22173,9.19294
406,624,2.68213,-9.91171,0,0,0,0,0,0,0,-1,1630,400,2.68213,9.91171
413,624,0,0,0,0,0,0,0,0,0,-1,1637,400,0,0
420,624,0,0,0,0,0,0,0,0,0,-1,1644,400,0,0
427,624,0,0,0,0,0,0,0,0,0,-1,1651,400,0,0
434,624,0,0,0,0,0,0,0,0,0,-1,1658,400,0,0
441,624,0,0,0,0,0,0,0,0,0,-1,1665,400,0,0
448,624,0,0,0,0,0,0,0,0,0,-1,1672,400,0,0
455,624,0,0,0,0,0,0,0,0,0,-1,1679,400,0,0
462,624,0,0,0,0,0,0,0,0,0,-1,1686,400,0,0
469,624,0,0,0,0,0,0,0,0,0,-1,1693,400,0,0
476,624,0,0,0,0,0,0,0,0,0,-1,1700,400,0,0
483,624,0,0,0,0,0,0,0,0,0,-1,1707,400,0,0
490,624,0,0,0,0,0,0,0,0,0,-1,1714,400,0,0
497,624,0,0,0,0,0,0,0,0,0,-1,1721,400,0,0
504,624,0,0,0,0,0,0,0,0,0,-1,1728,400,0,0
511,624,0,0,0,0,0,0,0,0,0,-1,1735,400,0,0
518,624,0,0,0,0,0,0,0,0,0,-1,1742,400,0,0
525,624,0,0,0,0,0,0,0,0,0,-1,1749,400,0,0
532,624,0,0,0,0,0,0,0,0,0,-1,1756,400,0,0
539,624,0,0,0,0,0,0,0,0,0,-1,1763,400,0,0
546,624,0,0,0,0,0,0,0,0,0,-1,1770,400,0,0
553,624,0,0,0,0,0,0,0,0,0,-1,1777,400,0,0
560,624,0,0,0,0,0,0,0,0,0,-1,1784,400,0,0
567,624,0,0,0,0,0,0,0,0,0,-1,1791,400,0,0
574,624,0,0,0,0,0,0,0,0,0,-1,1798,400,0,0
581,624,0,0,0,0,0,0,0,0,0,-1,1805,400,0,0
588,624,0,0,0,0,0,0,0,0,0,-1,1812,400,0,0
595,624,0,0,0,0,0,0,0,0,0,-1,1819,400,0,0
602,624,0,0,0,0,0,0,0,0,0,-1,1826,400,0,0
609,624,0,0,0,0,0,0,0,0,0,-1,1833,400,0,0
616,624,0,0,0,0,0,0,0,0,0,-1,1840,400,0,0
623,624,0,0,0,0,0,0,0,0,0,-1,1847,400,0,0
630,624,0,0,0,0,0,0,0,0,0,-1,1854,400,0,0
637,624,0,0,0,0,0,0,0,0,0,-1,1861,400,0,0
644,624,0,0,0,0,0,0,0,0,0,-1,1868,400,0,0
651,624,0,0,0,0,0,0,0,0,0,-1,1875,400,0,0
658,624,0,0,0,0,0,0,0,0,0,-1,1882,400,0,0
665,624,0,0,0,0,0,0,0,0,0,-1,1889,400,0,0
672,624,0,0,0,0,0,0,0,0,0,-1,1896,400,0,0
679,624,0,0,0,0,0,0,0,0,0,-1,1903,400,0,0
686,624,0,0,0,0,0,0,0,0,0,-1,1910,400,0,0
693,624,0,0,0,0,0,0,0,0,0,-1,1917,400,0,0
700,624,0,0,0,0,0,0,0,0,0,-1,1924,400,0,0
707,624,0,0,0,0,0,0,0,0,0,-1,1931,400,0,0
714,624,0,0,0,0,0,0,0,0,0,-1,1938,400,0,0
721,624,0,0,0,0,0,0,0,0,0,-1,1945,400,0,0
728,624,0,0,0,0,0,0,0,0,0,-1,1952,400,0,0
735,624,0,0,0,0,0,0,0,0,0,-1,1959,400,0,0
742,624,0,0,0,0,0,0,0,0,0,-1,1966,400,0,0
749,624,0,0,0,0,0,0,0,0,0,-1,1973,400,0,0
756,624,0,0,0,0,0,0,0,0,0,-1,1980,400,0,0
763,624,0,0,0,0,0,0,0,0,0,-1,1987,400,0,0
770,624,0,0,0,0,0,0,0,0,0,-1,1994,400,0,0
777,624,0,0,0,0,0,0,0,0,0,-1,2001,400,0,0
784,624,0,0,0,0,0,0,0,0,0,-1,2008,400,0,0
791,624,0,0,0,0,0,0,0,0,0,-1,2015,400,0,0
798,624,0,0,0,0,0,0,0,0,0,-1,2022,400,0,0
805,624,0,0,0,0,0,0,0,0,0,-1,2029,400,0,0
812,624,0,0,0,0,0,0,0,0,0,-1,2036,400,0,0
-700,617,0,0,0,0,0,0,0,0,0,-1,524,407,0,0
-693,617,0,0,0,0,0,0,0,0,0,-1,531,407,0,0
-686,617,0,0,0,0,0,0,0,0,0,-1,538,407,0,0
-679,617,0,0,0,0,0,0,0,0,0,-1,545,407,0,0
-672,617,0,0,0,0,0,0,0,0,0,-1,552,407,0,0
-665,617,0,0,0,0,0,0,0,0,0,-1,559,407,0,0
-658,617,0,0,0,0,0,0,0,0,0,-1,566,407,0,0
-651,617,0,0,0,0,0,0,0,0,0,-1,573,407,0,0
-644,617,0,0,0,0,0,0,0,0,0,-1,580,407,0,0
-637,617,0,0,0,0,0,0,0,0,0,-1,587,407,0,0
-630,617,0,0,0,0,0,0,0,0,0,-1,594,407,0,0
-623,617,0,0,0,0,0,0,0,0,0,-1,601,407,0,0
-616,617,0,0,0,0,0,0,0,0,0,-1,608,407,0,0
-609,617,0,0,0,0,0,0,0,0,0,-1,615,407,0,0
-602,617,0,0,0,0,0,0,0,0,0,-1,622,407,0,0
-595,617,0,0,0,0,0,0,0,0,0,-1,629,407,0,0
-588,617,0,0,0,0,0,0,0,0,0,-1,636,407,0,0
-581,617,0,0,0,0,0,0,0,0,0,-1,643,407,0,0
-574,617,0,0,0,0,0,0,0,0,0,-1,650,407,0,0
-567,617,0,0,0,0,0,0,0,0,0,-1,657,407,0,0
-560,617,0,0,0,0,0,0,0,0,0,-1,664,407,0,0
-553,617,0,0,0,0,0,0,0,0,0,-1,671,407,0,0
-546,617,0,0,0,0,0,0,0,0,0,-1,678,407,0,0
-539,617,0,0,0,0,0,0,0,0,0,-1,685,407,0,0
-532,617,0,0,0,0,0,0,0,0,0,-1,692,407,0,0
-525,617,0,0,0,0,0,0,0,0,0,-1,699,407,0,0
-518,617,0,0,0,0,0,0,0,0,0,-1,706,407,0,0
-511,617,0,0,0,0,0,0,0,0,0,-1,713,407,0,0
-504,617,0,0,0,0,0,0,0,0,0,-1,720,407,0,0
-497,617,0,0,0,0,0,0,0,0,0,-1,727,407,0,0
-490,617,0,0,0,0,0,0,0,0,0,-1,734,407,0,0
-483,617,0,0,0,0,0,0,0,0,0,-1,741,407,0,0
-476,617,0,0,0,0,0,0,0,0,0,-1,748,407,0,0
-469,617,0,0,0,0,0,0,0,0,0,-1,755,407,0,0
-462,617,0,0,0,0,0,0,0,0,0,-1,762,407,0,0
-455,617,0,0,0,0,0,0,0,0,0,-1,769,407,0,0
-448,617,0,0,0,0,0,0,0,0,0,-1,776,407,0,0
-441,617,0,0,0,0,0,0,0,0,0,-1,783,407,0,0
-434,617,0,0,0,0,0,0,0,0,0,-1,790,407,0,0
-427,617,0,0,0,0,0,0,0,0,0,-1,797,407,0,0
-420,617,0,0,0,0,0,0,0,0,0,-1,804,407,0,0
-413,617,0,0,0,0,0,0,0,0,0,-1,811,407,0,0
-406,617,0,0,0,0,0,0,0,0,0,-1,818,407,0,0
-399,617,0,0,0,0,0,0,0,0,0,-1,825,407,0,0
-392,617,0,0,0,0,0,0,0,0,0,-1,832,407,0,0
-385,617,0,0,0,0,0,0,0,0,0,-1,839,407,0,0
-378,617,0,0,0,0,0,0,0,0,0,-1,846,407,0,0
-371,617,0,0,0,0,0,0,0,0,0,-1,853,407,0,0
-364,617,0,0,0,0,0,0,0,0,0,-1,860,407,0,0
-357,617,0,0,0,0,0,0,0,0,0,-1,867,407,0,0
-350,617,0,0,0,0,0,0,0,0,0,-1,874,407,0,0
-343,617,0,0,0,0,0,0,0,0,0,-1,881,407,0,0
-336,617,0,0,0,0,0,0,0,0,0,-1,888,407,0,0
-329,617,0,0,0,0,0,0,0,0,0,-1,895,407,0,0
-322,617,0,0,0,0,0,0,0,0,0,-1,902,407,0,0
-315,617,0,0,0,0,0,0,0,0,0,-1,909,407,0,0
-308,617,0,0,0,0,0,0,0,0,0,-1,916,407,0,0
-301,617,6.8504,-26.4473,0,0,0,0,0,0,0,-1,923,407,6.85041,26.4473
-294,617,8.41962,-26.4389,0,0,0,0,0,0,0,-1,930,407,8.41964,26.4389
-287,617,9.90497,-26.4554,0,0,0,0,0,0,0,-1,937,407,9.90498,26.4554
-280,617,4.3504,-25.0479,0,0,0,0,0,0,0,-1,944,407,4.35041,25.0479
-273,617,3.83069,-23.1539,0,0,0,0,0,0,0,-1,951,407,3.83071,23.1539
-266,617,4.50061,-23.7659,0.169857,-0.0690838,-0.00204192,0.169875,-0.0691012,-0.00854488,0.142003,0.0455581,958,407,4.50058,23.7659
-259,617,5.4046,-24.5516,0.153099,-0.0602178,-0.000748087,0.153102,-0.0602204,-0.00350687,0.126994,0.0474767,965,407,5.40458,24.5516
-252,617,6.20453,-25.6898,0,0,0,0,0,0,0,-1,972,407,6.20453,25.6898
-245,617,4.70587,-24.3445,0,0,0,0,0,0,0,-1,979,407,4.70584,24.3445
-238,617,4.15955,-24.7429,0,0,0,0,0,0,0,-1,986,407,4.15956,24.7428
-231,617,4.04987,-23.8636,0,0,0,0,0,0,0,-1,993,407,4.04986,23.8637
-224,617,4.17285,-24.431,0,0,0,0,0,0,0,-1,1000,407,4.17284,24.431
-217,617,4.38086,-24.8628,0.0363164,0.00555946,-0.00400151,0.0368285,0.00504738,-0.127279,0.0230548,0.0448421,1007,407,4.38086,24.8628
-210,617,4.2851,-25.5369,0.014882,0.0150632,-0.00552879,0.0205021,0.00944309,-0.793589,0.0118492,0.0310986,1014,407,4.28508,25.5369
-203,617,4.19189,-25.9585,-0.00184148,0.0199399,-0.00710879,0.0220546,-0.00395625,-1.28165,0.0161838,0.0208875,1021,407,4.19183,25.9585
-196,617,4.14429,-26.2956,-0.000695159,0.0153983,-0.00675727,0.0178592,-0.00315607,-1.22154,0.0130856,0.0162283,1028,407,4.14433,26.2956
-189,617,4.08044,-26.676,9.90905e-05,0.0115648,-0.00660571,0.0145784,-0.00291455,-1.14278,0.0108221,0.0145172,1035,407,4.0804,26.676
-182,617,4.09277,-27.0461,0.00172633,0.00829072,-0.00673508,0.0125008,-0.00248374,-1.01213,0.00927332,0.0165924,1042,407,4.09282,27.0462
-175,617,4.0741,-27.3818,0.0027436,0.00450632,-0.00598298,0.00967251,-0.00242258,-0.858528,0.00738944,0.0157196,1049,407,4.07406,27.3818
-168,617,4.03552,-27.7711,0.00326252,0.00157944,-0.00524154,0.00772964,-0.00288769,-0.705801,0.00633883,0.0112405,1056,407,4.03555,27.7711
-161,617,4.00928,-28.1519,0.0037375,-0.000828566,-0.00450867,0.00650821,-0.00359928,-0.551035,0.00591557,0.0109716,1063,407,4.00922,28.1519
-154,617,3.9873,-28.4653,0.00403826,-0.00228261,-0.00377197,0.00579881,-0.00404316,-0.436692,0.00571232,0.0114514,1070,407,3.98736,28.4653
-147,617,3.97205,-28.7784,0.00414639,-0.00354153,-0.00310979,0.0052468,-0.00464194,-0.340104,0.00571283,0.0165386,1077,407,3.97205,28.7783
-140,617,3.97424,-29.0982,0.00408653,-0.00388315,-0.00248292,0.00479677,-0.00459339,-0.278613,0.00542184,0.0125294,1084,407,3.97426,29.0982
-133,617,3.95728,-29.3784,0.00379032,-0.00353261,-0.00187606,0.00424296,-0.00398526,-0.236751,0.00475134,0.013452,1091,407,3.95727,29.3784
-126,617,3.92529,-29.6497,0.00331952,-0.00284385,-0.00142517,0.00363311,-0.00315744,-0.216585,0.00392373,0.0126407,1098,407,3.92528,29.6497
-119,617,3.91309,-29.9214,0.00296522,-0.00177728,-0.00119444,0.00324906,-0.00206112,-0.233309,0.0030913,0.0129046,1105,407,3.91311,29.9214
-112,617,3.92554,-30.1772,0.00255583,-0.000771537,-0.000983425,0.00282475,-0.00104046,-0.26693,0.00230948,0.0148738,1112,407,3.92557,30.1772
-105,617,3.93225,-30.4461,0.00208024,0.000272255,-0.00086167,0.00242511,-7.26235e-05,-0.380717,0.00164149,0.0161675,1119,407,3.93231,30.4461
-98,617,3.92712,-30.7098,0.00178703,0.000899568,-0.000925056,0.00236927,0.000317323,-0.561768,0.00148509,0.0133082,1126,407,3.92716,30.7098
-91,617,3.92053,-30.9657,0.00173551,0.00126026,-0.00105472,0.00257904,0.000416733,-0.6746,0.00159866,0.0179703,1133,407,3.92056,30.9657
-84,617,3.93311,-31.2158,0.00189078,0.00119123,-0.00109063,0.00268635,0.000395662,-0.630223,0.00167466,0.0182435,1140,407,3.93305,31.2158
-77,617,3.9491,-31.4472,0.00213739,0.00104965,-0.0010896,0.00281132,0.000375726,-0.553917,0.00176237,0.0141965,1147,407,3.94909,31.4472
-70,617,3.97607,-31.6531,0.00251602,0.00101084,-0.00105515,0.00305947,0.000467379,-0.475616,0.00190308,0.0148076,1154,407,3.97604,31.6531
-63,617,3.99866,-31.8352,0.00272806,0.000731861,-0.000620229,0.00290507,0.000554849,-0.278007,0.00178082,0.0163402,1161,407,3.99872,31.8352
-56,617,3.9906,-32.0238,0.00284147,0.000480682,3.94502e-05,0.00284213,0.000480023,0.0167044,0.00175674,0.0121714,1168,407,3.99063,32.0238
-49,617,3.99438,-32.217,0.00190359,-0.000868722,0.000390876,0.00195765,-0.000922778,0.137424,0.00169842,0.0102817,1175,407,3.99444,32.217
-42,617,4.0177,-32.4087,0.00156367,-0.00219523,0.00156538,0.00213019,-0.00276174,0.34724,0.00283219,0.0125286,1182,407,4.0177,32.4087
-35,617,4.05505,-32.5614,0.00133879,-0.00359055,0.00263573,0.00248267,-0.00473444,0.409462,0.00423386,0.0170422,1189,407,4.05506,32.5614
-28,617,4.02808,-32.7057,0.00100582,-0.00486849,0.00333508,0.00251272,-0.00637539,0.424378,0.00529062,0.0187074,1196,407,4.02806,32.7057
-21,617,4.07434,-32.8192,0.000740932,-0.00663061,0.00406064,0.00253911,-0.00842879,0.416876,0.00662967,0.0134444,1203,407,4.07437,32.8192
-14,617,4.08472,-32.9193,0.000519744,-0.00872754,0.00462801,0.00243801,-0.0106458,0.392935,0.00803414,0.0153914,1210,407,4.08474,32.9192
-7,617,4.07605,-33.0282,0.000553979,-0.0102472,0.00487083,0.00242604,-0.0121192,0.366934,0.00899787,0.0177128,1217,407,4.07604,33.0282
0,617,4.14893,-33.1472,0.00084243,-0.0117286,0.00495384,0.00255993,-0.0134461,0.333732,0.009928,0.0144388,1224,407,4.14896,33.1472
7,617,4.18091,-33.2632,0.00136494,-0.0128345,0.00501721,0.00295881,-0.0144283,0.307597,0.0107419,0.0109748,1231,407,4.18092,33.2632
14,617,4.22119,-33.3563,0.00188294,-0.0139626,0.00489287,0.00327202,-0.0153517,0.276619,0.0114816,0.0128513,1238,407,4.22123,33.3563
21,617,4.24609,-33.4176,0.00225303,-0.0143832,0.00478749,0.00353237,-0.0156625,0.261124,0.0117968,0.0125357,1245,407,4.24607,33.4176
28,617,4.28271,-33.4963,0.00256494,-0.014451,0.00468194,0.0037681,-0.0156541,0.251537,0.0118928,0.0116563,1252,407,4.28268,33.4963
35,617,4.255,-33.5487,0.00256753,-0.0140296,0.00486642,0.00388916,-0.0153513,0.265186,0.0117472,0.0143179,1259,407,4.25505,33.5487
42,617,4.354,-33.5388,0.00241165,-0.0132076,0.00524377,0.0040088,-0.0148047,0.295653,0.0114426,0.0204574,1266,407,4.35405,33.5387
49,617,4.37976,-33.5431,0.00256688,-0.0116572,0.00566846,0.00454949,-0.0136398,0.336462,0.01093,0.0196442,1273,407,4.3798,33.5431
56,617,4.40344,-33.5523,0.00345455,-0.00959705,0.00618328,0.00591869,-0.0120612,0.379227,0.0105807,0.0146574,1280,407,4.40347,33.5523
63,617,4.45837,-33.5759,0.00415947,-0.00770014,0.00639276,0.00694919,-0.0104898,0.411475,0.0101374,0.011369,1287,407,4.45832,33.5759
70,617,4.47522,-33.5863,0.00455065,-0.00585322,0.00661248,0.00776209,-0.00906467,0.452114,0.00972463,0.0160884,1294,407,4.47517,33.5863
77,617,4.53198,-33.5401,0.00523262,-0.00392936,0.00705454,0.00906305,-0.00775979,0.497433,0.00972238,0.0140064,1301,407,4.532,33.5401
84,617,4.5752,-33.5025,0.00619827,-0.0022094,0.00711241,0.0102563,-0.00626745,0.51849,0.00963221,0.0109361,1308,407,4.57516,33.5025
91,617,4.60669,-33.4435,0.00722414,-0.000929496,0.00695465,0.0112088,-0.00491417,0.520293,0.00954215,0.0104246,1315,407,4.60671,33.4435
98,617,4.65137,-33.3794,0.0081933,-0.000607708,0.00644901,0.0116001,-0.00401452,0.486006,0.00936299,0.0120018,1322,407,4.65142,33.3794
105,617,4.68188,-33.3206,0.00907992,-0.000589268,0.00575374,0.0117606,-0.00326992,0.435994,0.00912772,0.0136548,1329,407,4.6819,33.3205
112,617,4.71704,-33.2173,0.00975498,-0.00127293,0.00471337,0.011495,-0.00301291,0.353639,0.00884044,0.0163615,1336,407,4.71703,33.2173
119,617,4.70728,-33.0994,0.010126,-0.00205149,0.0035887,0.0111049,-0.00303039,0.266294,0.00859338,0.018991,1343,407,4.70733,33.0994
126,617,4.71118,-33.0209,0.0103341,-0.00312974,0.00229607,0.0107149,-0.00351053,0.164349,0.00855697,0.0213086,1350,407,4.71123,33.0209
133,617,4.76465,-32.8652,0.0100838,-0.00388296,0.00104479,0.0101616,-0.00396068,0.0742548,0.00841139,0.0191884,1357,407,4.76461,32.8652
140,617,4.80957,-32.712,0.00956757,-0.00453413,-0.000274913,0.00957292,-0.00453949,-0.0194852,0.00831876,0.0161903,1364,407,4.80961,32.712
147,617,4.82556,-32.5596,0.00865721,-0.00497841,-0.00136666,0.00879284,-0.00511404,-0.0989165,0.00812224,0.021267,1371,407,4.82551,32.5596
154,617,4.90198,-32.4587,0.00690866,-0.00557567,-0.00191757,0.00719656,-0.00586357,-0.149023,0.00755335,0.0256989,1378,407,4.90203,32.4588
161,617,4.948,-32.3074,0.0049369,-0.00556367,-0.00210778,0.00534419,-0.00597097,-0.190883,0.00653615,0.0238532,1385,407,4.94804,32.3074
168,617,4.97632,-32.1181,0.00336354,-0.00495074,-0.002161,0.00389166,-0.00547887,-0.239692,0.00543589,0.0207051,1392,407,4.97634,32.1181
175,617,4.96155,-31.9403,0.00305863,-0.00369962,-0.00169468,0.00345977,-0.00410076,-0.23243,0.0043703,0.0172236,1399,407,4.96151,31.9403
182,617,4.97021,-31.7283,0.00273854,-0.00269901,-0.0013676,0.00306313,-0.0030236,-0.23303,0.0035142,0.0113265,1406,407,4.97023,31.7283
189,617,4.96313,-31.4967,0.00236867,-0.00134024,-0.000920671,0.00258464,-0.00155621,-0.230407,0.00241517,0.0111627,1413,407,4.96309,31.4967
196,617,4.95203,-31.2761,0.00214919,-0.000257851,-0.000416038,0.00221907,-0.000327732,-0.166412,0.00159985,0.0142333,1420,407,4.95199,31.2761
203,617,4.98767,-31.0303,0.00186286,0.000798578,-4.8724e-07,0.00186286,0.000798578,-0.000457813,0.00107916,0.0143573,1427,407,4.98762,31.0303
210,617,5.02405,-30.7655,0.00142165,0.00171085,0.000365234,0.00195906,0.00117343,0.973883,0.00113843,0.0145377,1434,407,5.02407,30.7655
217,617,5.0033,-30.4909,0.00104075,0.00259353,0.000675529,0.00284628,0.000788001,1.21278,0.00169697,0.0190033,1441,407,5.00335,30.4909
224,617,4.99011,-30.2371,0.000837953,0.00324064,0.000996557,0.00360018,0.000478415,1.22455,0.00225761,0.0176275,1448,407,4.99006,30.2371
231,617,5.00269,-29.9885,0.000671106,0.00382798,0.00131838,0.00430614,0.000192945,1.22286,0.00280865,0.0132834,1455,407,5.00274,29.9885
238,617,5.01721,-29.7228,0.000466185,0.00443569,0.00162009,0.00501295,-0.000111079,1.22851,0.0033796,0.0154216,1462,407,5.01723,29.7228
245,617,5.02649,-29.4598,0.00018322,0.00495697,0.0017562,0.00553344,-0.000393249,1.25363,0.00382679,0.01384,1469,407,5.0265,29.4599
252,617,4.99255,-29.0976,-2.5361e-05,0.00553694,0.00192069,0.00613571,-0.000624131,1.2686,0.0043136,0.0147439,1476,407,4.99261,29.0976
259,617,4.96667,-28.7732,-0.000204679,0.00612891,0.00217142,0.00680186,-0.000877633,1.27027,0.00485364,0.0121387,1483,407,4.96663,28.7732
266,617,4.95215,-28.4402,-0.000305751,0.00673391,0.00255129,0.00756129,-0.00113313,1.2572,0.00545792,0.0148388,1490,407,4.95218,28.4402
273,617,4.94226,-28.1031,-0.000399793,0.00733655,0.00293493,0.00832395,-0.00138719,1.24626,0.00606481,0.015881,1497,407,4.94221,28.1031
280,617,4.93799,-27.7744,0.00035611,0.00689405,0.00339086,0.00833509,-0.00108492,1.16895,0.00595142,0.0140704,1504,407,4.93796,27.7744
287,617,4.91919,-27.4388,0.00181211,0.00604092,0.00398123,0.00843439,-0.00058135,1.0295,0.00582638,0.0127921,1511,407,4.91923,27.4387
294,617,4.88867,-27.0804,0.00305221,0.0053423,0.00458278,0.00892092,-0.000526406,0.907821,0.00613029,0.0102143,1518,407,4.88863,27.0804
301,617,4.8551,-26.7111,0.00473546,0.00417819,0.0052147,0.00967896,-0.000765312,0.758707,0.00672228,0.00841025,1525,407,4.85513,26.7111
308,617,4.84961,-26.3516,0.00685048,0.0025292,0.0058524,0.0109283,-0.00154866,0.608565,0.00785285,0.00872409,1532,407,4.84961,26.3516
315,617,4.83508,-25.9892,0.00935039,0.000306609,0.00645525,0.01271,-0.00305298,0.479868,0.00965327,0.00996151,1539,407,4.83503,25.9892
322,617,4.79077,-25.5695,0.0119614,-0.00214731,0.00702657,0.0148638,-0.00504969,0.391713,0.0119534,0.0142929,1546,407,4.79078,25.5695
329,617,4.77527,-25.1542,0.0144249,-0.0048638,0.00738895,0.0169301,-0.00736893,0.326876,0.0143865,0.0154518,1553,407,4.77522,25.1542
336,617,4.84656,-24.6769,0.0165241,-0.00752732,0.00750142,0.0186719,-0.00967514,0.278861,0.0166387,0.026986,1560,407,4.84654,24.6769
343,617,4.75256,-24.2565,0,0,0,0,0,0,0,-1,1567,407,4.75262,24.2565
350,617,4.7655,-23.6297,0,0,0,0,0,0,0,-1,1574,407,4.7655,23.6297
357,617,2.1748,-7.16504,0,0,0,0,0,0,0,-1,1581,407,2.1748,7.16505
364,617,2.30127,-7.60257,0,0,0,0,0,0,0,-1,1588,407,2.30125,7.60258
371,617,2.60266,-6.20667,0,0,0,0,0,0,0,-1,1595,407,2.60261,6.20668
378,617,1.56921,-10.3601,0,0,0,0,0,0,0,-1,1602,407,1.56918,10.3601
385,617,1.74146,-10.3561,0,0,0,0,0,0,0,-1,1609,407,1.7414,10.3561
392,617,1.96936,-5.10449,0,0,0,0,0,0,0,-1,1616,407,1.96931,5.10451
399,617,2.48889,-5.81256,0,0,0,0,0,0,0,-1,1623,407,2.48888,5.81255
406,617,3.01465,-6.51642,0,0,0,0,0,0,0,-1,1630,407,3.01461,6.51643
413,617,3.6427,-7.2074,0,0,0,0,0,0,0,-1,1637,407,3.64274,7.20739
420,617,3.42737,-4.47391,0,0,0,0,0,0,0,-1,1644,407,3.42737,4.47391
427,617,0,0,0,0,0,0,0,0,0,-1,1651,407,0,0
434,617,0,0,0,0,0,0,0,0,0,-1,1658,407,0,0
441,617,0,0,0,0,0,0,0,0,0,-1,1665,407,0,0
448,617,0,0,0,0,0,0,0,0,0,-1,1672,407,0,0
455,617,0,0,0,0,0,0,0,0,0,-1,1679,407,0,0
462,617,0,0,0,0,0,0,0,0,0,-1,1686,407,0,0
469,617,0,0,0,0,0,0,0,0,0,-1,1693,407,0,0
476,617,0,0,0,0,0,0,0,0,0,-1,1700,407,0,0
483,617,0,0,0,0,0,0,0,0,0,-1,1707,407,0,0
490,617,0,0,0,0,0,0,0,0,0,-1,1714,407,0,0
497,617,0,0,0,0,0,0,0,0,0,-1,1721,407,0,0
504,617,0,0,0,0,0,0,0,0,0,-1,1728,407,0,0
511,617,0,0,0,0,0,0,0,0,0,-1,1735,407,0,0
518,617,0,0,0,0,0,0,0,0,0,-1,1742,407,0,0
525,617,0,0,0,0,0,0,0,0,0,-1,1749,407,0,0
532,617,0,0,0,0,0,0,0,0,0,-1,1756,407,0,0
539,617,0,0,0,0,0,0,0,0,0,-1,1763,407,0,0
546,617,0,0,0,0,0,0,0,0,0,-1,1770,407,0,0
553,617,0,0,0,0,0,0,0,0,0,-1,1777,407,0,0
560,617,0,0,0,0,0,0,0,0,0,-1,1784,407,0,0
567,617,0,0,0,0,0,0,0,0,0,-1,1791,407,0,0
574,617,0,0,0,0,0,0,0,0,0,-1,1798,407,0,0
581,617,0,0,0,0,0,0,0,0,0,-1,1805,407,0,0
588,617,0,0,0,0,0,0,0,0,0,-1,1812,407,0,0
595,617,0,0,0,0,0,0,0,0,0,-1,1819,407,0,0
602,617,0,0,0,0,0,0,0,0,0,-1,1826,407,0,0
609,617,0,0,0,0,0,0,0,0,0,-1,1833,407,0,0
616,617,0,0,0,0,0,0,0,0,0,-1,1840,407,0,0
623,617,0,0,0,0,0,0,0,0,0,-1,1847,407,0,0
630,617,0,0,0,0,0,0,0,0,0,-1,1854,407,0,0
637,617,0,0,0,0,0,0,0,0,0,-1,1861,407,0,0
644,617,0,0,0,0,0,0,0,0,0,-1,1868,407,0,0
651,617,0,0,0,0,0,0,0,0,0,-1,1875,407,0,0
658,617,0,0,0,0,0,0,0,0,0,-1,1882,407,0,0
665,617,0,0,0,0,0,0,0,0,0,-1,1889,407,0,0
672,617,0,0,0,0,0,0,0,0,0,-1,1896,407,0,0
679,617,0,0,0,0,0,0,0,0,0,-1,1903,407,0,0
686,617,0,0,0,0,0,0,0,0,0,-1,1910,407,0,0
693,617,0,0,0,0,0,0,0,0,0,-1,1917,407,0,0
700,617,0,0,0,0,0,0,0,0,0,-1,1924,407,0,0
707,617,0,0,0,0,0,0,0,0,0,-1,1931,407,0,0
714,617,0,0,0,0,0,0,0,0,0,-1,1938,407,0,0
721,617,0,0,0,0,0,0,0,0,0,-1,1945,407,0,0
728,617,0,0,0,0,0,0,0,0,0,-1,1952,407,0,0
735,617,0,0,0,0,0,0,0,0,0,-1,1959,407,0,0
742,617,0,0,0,0,0,0,0,0,0,-1,1966,407,0,0
749,617,0,0,0,0,0,0,0,0,0,-1,1973,407,0,0
756,617,0,0,0,0,0,0,0,0,0,-1,1980,407,0,0
763,617,0,0,0,0,0,0,0,0,0,-1,1987,407,0,0
770,617,0,0,0,0,0,0,0,0,0,-1,1994,407,0,0
777,617,0,0,0,0,0,0,0,0,0,-1,2001,407,0,0
784,617,0,0,0,0,0,0,0,0,0,-1,2008,407,0,0
791,617,0,0,0,0,0,0,0,0,0,-1,2015,407,0,0
798,617,0,0,0,0,0,0,0,0,0,-1,2022,407,0,0
805,617,0,0,0,0,0,0,0,0,0,-1,2029,407,0,0
812,617,0,0,0,0,0,0,0,0,0,-1,2036,407,0,0
-700,610,0,0,0,0,0,0,0,0,0,-1,524,414,0,0
-693,610,0,0,0,0,0,0,0,0,0,-1,531,414,0,0
-686,610,0,0,0,0,0,0,0,0,0,-1,538,414,0,0
-679,610,0,0,0,0,0,0,0,0,0,-1,545,414,0,0
-672,610,0,0,0,0,0,0,0,0,0,-1,552,414,0,0
-665,610,0,0,0,0,0,0,0,0,0,-1,559,414,0,0
-658,610,0,0,0,0,0,0,0,0,0,-1,566,414,0,0
-651,610,0,0,0,0,0,0,0,0,0,-1,573,414,0,0
-644,610,0,0,0,0,0,0,0,0,0,-1,580,414,0,0
-637,610,0,0,0,0,0,0,0,0,0,-1,587,414,0,0
-630,610,0,0,0,0,0,0,0,0,0,-1,594,414,0,0
-623,610,0,0,0,0,0,0,0,0,0,-1,601,414,0,0
-616,610,0,0,0,0,0,0,0,0,0,-1,608,414,0,0
-609,610,0,0,0,0,0,0,0,0,0,-1,615,414,0,0
-602,610,0,0,0,0,0,0,0,0,0,-1,622,414,0,0
-595,610,0,0,0,0,0,0,0,0,0,-1,629,414,0,0
-588,610,0,0,0,0,0,0,0,0,0,-1,636,414,0,0
-581,610,0,0,0,0,0,0,0,0,0,-1,643,414,0,0
-574,610,0,0,0,0,0,0,0,0,0,-1,650,414,0,0
-567,610,0,0,0,0,0,0,0,0,0,-1,657,414,0,0
-560,610,0,0,0,0,0,0,0,0,0,-1,664,414,0,0
-553,610,0,0,0,0,0,0,0,0,0,-1,671,414,0,0
-546,610,0,0,0,0,0,0,0,0,0,-1,678,414,0,0
-539,610,0,0,0,0,0,0,0,0,0,-1,685,414,0,0
-532,610,0,0,0,0,0,0,0,0,0,-1,692,414,0,0
-525,610,0,0,0,0,0,0,0,0,0,-1,699,414,0,0
-518,610,0,0,0,0,0,0,0,0,0,-1,706,414,0,0
-511,610,0,0,0,0,0,0,0,0,0,-1,713,414,0,0
-504,610,0,0,0,0,0,0,0,0,0,-1,720,414,0,0
-497,610,0,0,0,0,0,0,0,0,0,-1,727,414,0,0
-490,610,0,0,0,0,0,0,0,0,0,-1,734,414,0,0
-483,610,0,0,0,0,0,0,0,0,0,-1,741,414,0,0
-476,610,0,0,0,0,0,0,0,0,0,-1,748,414,0,0
-469,610,0,0,0,0,0,0,0,0,0,-1,755,414,0,0
-462,610,0,0,0,0,0,0,0,0,0,-1,762,414,0,0
-455,610,0,0,0,0,0,0,0,0,0,-1,769,414,0,0
-448,610,0,0,0,0,0,0,0,0,0,-1,776,414,0,0
-441,610,0,0,0,0,0,0,0,0,0,-1,783,414,0,0
-434,610,0,0,0,0,0,0,0,0,0,-1,790,414,0,0
-427,610,0,0,0,0,0,0,0,0,0,-1,797,414,0,0
-420,610,0,0,0,0,0,0,0,0,0,-1,804,414,0,0
-413,610,0,0,0,0,0,0,0,0,0,-1,811,414,0,0
-406,610,0,0,0,0,0,0,0,0,0,-1,818,414,0,0
-399,610,0,0,0,0,0,0,0,0,0,-1,825,414,0,0
-392,610,0,0,0,0,0,0,0,0,0,-1,832,414,0,0
-385,610,0,0,0,0,0,0,0,0,0,-1,839,414,0,0
-378,610,0,0,0,0,0,0,0,0,0,-1,846,414,0,0
-371,610,0,0,0,0,0,0,0,0,0,-1,853,414,0,0
-364,610,0,0,0,0,0,0,0,0,0,-1,860,414,0,0
-357,610,0,0,0,0,0,0,0,0,0,-1,867,414,0,0
-350,610,0,0,0,0,0,0,0,0,0,-1,874,414,0,0
-343,610,0,0,0,0,0,0,0,0,0,-1,881,414,0,0
-336,610,0,0,0,0,0,0,0,0,0,-1,888,414,0,0
-329,610,0,0,0,0,0,0,0,0,0,-1,895,414,0,0
-322,610,0,0,0,0,0,0,0,0,0,-1,902,414,0,0
-315,610,8.08594,-20.6403,0,0,0,0,0,0,0,-1,909,414,8.08595,20.6403
-308,610,3.97559,-24.1635,0,0,0,0,0,0,0,-1,916,414,3.97556,24.1635
-301,610,4.95953,-24.3575,0,0,0,0,0,0,0,-1,923,414,4.95952,24.3575
-294,610,6.20813,-24.3114,0,0,0,0,0,0,0,-1,930,414,6.20815,24.3114
-287,610,2.427,-24.4821,0,0,0,0,0,0,0,-1,937,414,2.42702,24.4821
-280,610,2.78668,-21.9856,0,0,0,0,0,0,0,-1,944,414,2.78671,21.9856
-273,610,3.55499,-22.5514,0.14174,-0.058808,-0.00753475,0.142023,-0.0590907,-0.0375004,0.119358,0.0465417,951,414,3.55497,22.5514
-266,610,4.38629,-23.0743,0.127084,-0.0524515,-0.00460445,0.127202,-0.0525695,-0.025624,0.106731,0.0456269,958,414,4.38632,23.0743
-259,610,5.26538,-23.9626,0.112852,-0.044939,-0.00325329,0.112919,-0.045006,-0.020606,0.0939464,0.048507,965,414,5.26539,23.9627
-252,610,5.93671,-24.6411,0,0,0,0,0,0,0,-1,972,414,5.93671,24.6411
-245,610,4.10547,-23.5719,0,0,0,0,0,0,0,-1,979,414,4.10546,23.5719
-238,610,4.05194,-24.4026,0.0652793,-0.0167464,-0.00249245,0.065355,-0.0168221,-0.0303488,0.0501272,0.0494608,986,414,4.05193,24.4026
-231,610,3.79755,-24.1513,0.0499852,-0.00788783,-0.0029216,0.0501324,-0.00803495,-0.0503124,0.0363967,0.0391325,993,414,3.79752,24.1513
-224,610,3.8653,-24.6743,0.0357856,-0.000239849,-0.00340308,0.0361042,-0.000558497,-0.093363,0.0242578,0.0268816,1000,414,3.86527,24.6743
-217,610,3.91846,-25.1545,0.0234891,0.00589117,-0.00365961,0.0242198,0.00516046,-0.197074,0.0147308,0.0188103,1007,414,3.91846,25.1545
-210,610,3.89056,-25.648,0.00885782,0.0127401,-0.00451824,0.0157166,0.0058814,-0.98829,0.00916917,0.0127488,1014,414,3.89059,25.648
-203,610,3.85327,-26.0313,-0.001644,0.0157207,-0.00535097,0.0172372,-0.00316048,-1.29464,0.012677,0.0141754,1021,414,3.85323,26.0313
-196,610,3.83008,-26.3949,-0.000910842,0.0125969,-0.00504324,0.0142721,-0.00258603,-1.2501,0.0104836,0.0144869,1028,414,3.83002,26.3949
-189,610,3.8075,-26.7468,-0.000366167,0.00975618,-0.004857,0.0117097,-0.00231969,-1.18839,0.0086836,0.0119427,1035,414,3.80755,26.7468
-182,610,3.78442,-27.1008,0.00071143,0.00739286,-0.00489118,0.00997532,-0.00187103,-1.08501,0.00735367,0.0128569,1042,414,3.78444,27.1008
-175,610,3.75134,-27.433,0.00140719,0.00444514,-0.00427684,0.00746473,-0.00161241,-0.956031,0.00559199,0.0137368,1049,414,3.7513,27.433
-168,610,3.71448,-27.7879,0.00176153,0.00195399,-0.00362433,0.00548336,-0.00176784,-0.798671,0.00436584,0.0122402,1056,414,3.71449,27.7879
-161,610,3.69775,-28.1709,0.00209017,-0.000208814,-0.00298384,0.00413827,-0.00225692,-0.60154,0.00374514,0.0112692,1063,414,3.69773,28.1709
-154,610,3.69958,-28.4897,0.00233132,-0.00163842,-0.00235903,0.00342943,-0.00273653,-0.43566,0.0035674,0.0141541,1070,414,3.69957,28.4897
-147,610,3.69775,-28.7509,0.0024571,-0.00292955,-0.0018126,0.00301024,-0.00348269,-0.296186,0.003752,0.0155846,1077,414,3.69778,28.7509
-140,610,3.69653,-29.0604,0.00248025,-0.00355386,-0.00130911,0.00275203,-0.00382564,-0.204694,0.00381444,0.0117133,1084,414,3.69654,29.0604
-133,610,3.6842,-29.3531,0.00234438,-0.00368979,-0.000829743,0.00245639,-0.00380181,-0.13419,0.0036409,0.0129703,1091,414,3.68426,29.3531
-126,610,3.6676,-29.6373,0.00211667,-0.00356326,-0.000497331,0.00215989,-0.00360648,-0.0866802,0.00336395,0.01163,1098,414,3.66762,29.6373
-119,610,3.65955,-29.9079,0.00203804,-0.0030121,-0.00040579,0.00207044,-0.0030445,-0.079671,0.00297091,0.00994041,1105,414,3.65953,29.9079
-112,610,3.68262,-30.1674,0.00192269,-0.00251171,-0.000325919,0.00194652,-0.00253554,-0.0729751,0.00259515,0.0174418,1112,414,3.68263,30.1674
-105,610,3.68091,-30.4421,0.00187248,-0.00201573,-0.000404125,0.00191404,-0.00205729,-0.102476,0.00229335,0.0183091,1119,414,3.68095,30.4421
-98,610,3.68506,-30.7102,0.00199736,-0.00174407,-0.000657957,0.00210969,-0.0018564,-0.169101,0.00229138,0.0130567,1126,414,3.68501,30.7102
-91,610,3.68921,-30.9483,0.00228189,-0.00159984,-0.000891478,0.00247683,-0.00179478,-0.215289,0.00247668,0.0137238,1133,414,3.68925,30.9483
-84,610,3.71399,-31.2062,0.00268496,-0.00157471,-0.00106432,0.00293609,-0.00182583,-0.231712,0.00277409,0.0144748,1140,414,3.71394,31.2062
-77,610,3.73083,-31.4513,0.00339769,-0.00144031,-0.00126388,0.00370797,-0.00175059,-0.240735,0.00321833,0.0115273,1147,414,3.73085,31.4513
-70,610,3.77795,-31.6708,0.00407487,-0.000949323,-0.0012091,0.00435071,-0.00122516,-0.224293,0.00338362,0.0132853,1154,414,3.7779,31.6709
-63,610,3.79211,-31.855,0.00417157,-0.000779612,-0.000267482,0.00418598,-0.000794021,-0.0538152,0.00308953,0.0126785,1161,414,3.79211,31.855
-56,610,3.81567,-32.0221,0.00409818,-0.000349895,0.000911986,0.0042779,-0.000529618,0.194574,0.00304387,0.0107054,1168,414,3.81567,32.0221
-49,610,3.81848,-32.2045,0.00235219,-0.00181765,0.0014664,0.00281623,-0.0022817,0.306481,0.00294868,0.0117099,1175,414,3.8185,32.2045
-42,610,3.81836,-32.3953,0.00172654,-0.00325731,0.00317867,0.00327363,-0.00480441,0.452959,0.00469169,0.0160392,1182,414,3.81831,32.3953
-35,610,3.86047,-32.5464,0.00127402,-0.00464517,0.00471698,0.00388301,-0.00725416,0.505224,0.0065275,0.0154102,1189,414,3.86048,32.5464
-28,610,3.89661,-32.6973,0.0007389,-0.00615234,0.00576088,0.00400595,-0.00941939,0.515885,0.0079584,0.0127505,1196,414,3.89655,32.6973
-21,610,3.93604,-32.8224,0.000415998,-0.00839092,0.00681546,0.00412678,-0.0121017,0.498584,0.00973933,0.0113434,1203,414,3.93604,32.8224
-14,610,3.96411,-32.9127,0.000129539,-0.0111078,0.00755581,0.0039268,-0.014905,0.465695,0.0114719,0.0128351,1210,414,3.96408,32.9127
-7,610,4.00867,-33.0069,0.000210158,-0.0132057,0.0078519,0.00382931,-0.0168249,0.431904,0.0126871,0.0139084,1217,414,4.00869,33.0069
0,610,4.04724,-33.14,0.000733147,-0.015302,0.00791639,0.00398282,-0.0185517,0.389524,0.0138871,0.010885,1224,414,4.04723,33.14
7,610,4.09375,-33.2496,0.00162497,-0.0168986,0.00795726,0.00457378,-0.0198474,0.354891,0.0149906,0.0117287,1231,414,4.09377,33.2496
14,610,4.1925,-33.3043,0.00254651,-0.0185041,0.00771635,0.00507203,-0.0210296,0.316306,0.015981,0.0153588,1238,414,4.19255,33.3043
21,610,4.23438,-33.3354,0.00324919,-0.0192934,0.00750778,0.00552075,-0.0215649,0.293805,0.0165271,0.0152419,1245,414,4.23441,33.3354
28,610,4.22083,-33.4286,0.00387399,-0.0196125,0.00729134,0.00595346,-0.021692,0.277821,0.0168012,0.0158196,1252,414,4.22085,33.4286
35,610,4.29126,-33.491,0.00409145,-0.0192566,0.00743571,0.0062584,-0.0214235,0.283572,0.0167626,0.0189424,1259,414,4.29128,33.491
42,610,4.33215,-33.4822,0.00428338,-0.0181867,0.00792578,0.00679768,-0.020701,0.307188,0.016539,0.0170943,1266,414,4.33218,33.4822
49,610,4.35974,-33.5299,0.00496254,-0.0159671,0.00856902,0.00802327,-0.0190278,0.343062,0.016043,0.0163402,1273,414,4.35972,33.5299
56,610,4.42139,-33.5277,0.00645653,-0.0131065,0.00928766,0.0101635,-0.0168135,0.379753,0.0157321,0.0153644,1280,414,4.42144,33.5277
63,610,4.401,-33.4752,0.00771268,-0.0103601,0.00968794,0.0119244,-0.0145719,0.41009,0.015323,0.0212071,1287,414,4.40103,33.4752
70,610,4.46313,-33.4445,0.00861524,-0.00766234,0.0101525,0.0134885,-0.0125356,0.447523,0.0150283,0.0283404,1294,414,4.46318,33.4445
77,610,4.56982,-33.4104,0.00986258,-0.00467381,0.0108946,0.0156909,-0.0105021,0.491233,0.0152211,0.0331285,1301,414,4.5698,33.4104
84,610,4.64209,-33.4279,0.011448,-0.00193912,0.0112076,0.0178087,-0.00829988,0.516208,0.0154034,0.0338853,1308,414,4.64214,33.4279
91,610,4.69629,-33.4283,0.0131582,0.000283366,0.0113118,0.0197361,-0.00629451,0.526708,0.0156824,0.0275196,1315,414,4.69624,33.4283
98,610,4.79248,-33.3799,0.0147227,0.00123923,0.0109096,0.0208056,-0.00484363,0.508636,0.0157354,0.0257342,1322,414,4.79253,33.3799
105,610,4.82471,-33.2914,0.0160031,0.00164634,0.0102063,0.0213026,-0.00365318,0.478921,0.015563,0.02053,1329,414,4.82475,33.2913
112,610,4.83008,-33.1882,0.0168883,0.000881662,0.00892569,0.0208734,-0.00310339,0.419914,0.015057,0.0135276,1336,414,4.83004,33.1882
119,610,4.84106,-33.0814,0.0173112,-0.000233811,0.0074368,0.0200393,-0.00296187,0.35159,0.0144483,0.0193531,1343,414,4.8411,33.0814
126,610,4.9054,-32.995,0.0174837,-0.00191828,0.00555163,0.0189599,-0.00339449,0.259892,0.0139102,0.0275581,1350,414,4.9054,32.995
133,610,4.93994,-32.8758,0.0169686,-0.00331452,0.0036009,0.0175889,-0.00393482,0.170589,0.013234,0.0218471,1357,414,4.93997,32.8758
140,610,4.99768,-32.7433,0.0160752,-0.00467762,0.00138103,0.0161667,-0.00476912,0.0661579,0.0126703,0.0172906,1364,414,4.99773,32.7433
147,610,4.99353,-32.5501,0.0144016,-0.00612813,-0.000892989,0.0144404,-0.0061669,-0.0433881,0.0122131,0.019718,1371,414,4.99359,32.5501
154,610,4.98865,-32.4083,0.0111796,-0.00814189,-0.00241869,0.0114777,-0.00844007,-0.12266,0.011544,0.0249662,1378,414,4.9886,32.4083
161,610,5.08752,-32.2566,0.00763036,-0.00868823,-0.00302037,0.00817146,-0.00922932,-0.177267,0.0100525,0.0270911,1385,414,5.08756,32.2566
168,610,5.15039,-32.0816,0.00478883,-0.00816205,-0.0033354,0.00559736,-0.00897058,-0.237821,0.00848563,0.0270523,1392,414,5.15045,32.0816
175,610,5.15247,-31.9139,0.00445754,-0.00651294,-0.00270292,0.00508734,-0.00714273,-0.228921,0.0070942,0.0220972,1399,414,5.15247,31.9139
182,610,5.18274,-31.7162,0.00410831,-0.00521794,-0.00229665,0.0046432,-0.00575283,-0.228821,0.00601353,0.0158609,1406,414,5.1827,31.7162
189,610,5.18506,-31.4913,0.00366123,-0.00340163,-0.0017199,0.00405778,-0.00379819,-0.226608,0.00453647,0.0144214,1413,414,5.18508,31.4913
196,610,5.17798,-31.2714,0.00341251,-0.0020077,-0.00106927,0.00361582,-0.00221102,-0.187899,0.00339656,0.0140385,1420,414,5.17801,31.2714
203,610,5.19287,-31.0215,0.00307938,-0.000650759,-0.00059327,0.00317146,-0.000742844,-0.153987,0.00240055,0.0143106,1427,414,5.19287,31.0215
210,610,5.22583,-30.8002,0.00257881,0.000459903,-0.000161795,0.00259109,0.00044762,-0.0757727,0.00159921,0.010654,1434,414,5.22582,30.8002
217,610,5.28113,-30.5238,0.00211642,0.00158763,0.000258903,0.00222207,0.00148198,0.387454,0.00130653,0.0163801,1441,414,5.28109,30.5238
224,610,5.28857,-30.2561,0.00180411,0.00231036,0.000664001,0.00276785,0.00134662,0.967498,0.00159821,0.019715,1448,414,5.28858,30.2561
231,610,5.27917,-29.9939,0.00154295,0.00291818,0.00103185,0.00347053,0.000990594,1.0793,0.0020643,0.0155057,1455,414,5.27915,29.9939
238,610,5.28845,-29.7047,0.00133063,0.00343543,0.00132494,0.00407508,0.000690985,1.12103,0.00251819,0.0114809,1462,414,5.28846,29.7047
245,610,5.30005,-29.4064,0.00111767,0.00385534,0.00145184,0.00448189,0.000491127,1.16339,0.00283842,0.0129851,1469,414,5.30001,29.4064
252,610,5.29138,-29.0793,0.00088065,0.00424095,0.001545,0.00484332,0.000278276,1.19904,0.00314023,0.0145265,1476,414,5.29144,29.0793
259,610,5.28198,-28.7578,0.000627362,0.00459164,0.00167984,0.00520771,1.12851e-05,1.21928,0.00346805,0.0126071,1483,414,5.28199,28.7578
266,610,5.28809,-28.4404,0.000446772,0.00493858,0.00190049,0.00563477,-0.000249421,1.21965,0.00384235,0.0123307,1490,414,5.28808,28.4404
273,610,5.2793,-28.1199,0.000302307,0.00534125,0.00215394,0.00613648,-0.000492916,1.21713,0.00426479,0.00999192,1497,414,5.27933,28.1199
280,610,5.26416,-27.786,0.00066873,0.0050908,0.00246297,0.00618958,-0.000430053,1.15117,0.00427695,0.0099854,1504,414,5.26411,27.786
287,610,5.24048,-27.4208,0.0015707,0.00463101,0.00293732,0.00641284,-0.000211121,1.02553,0.00434731,0.0132765,1511,414,5.2405,27.4208
294,610,5.23108,-27.0658,0.00236948,0.00421805,0.0034057,0.00682266,-0.00023513,0.917904,0.00462881,0.0114357,1518,414,5.2311,27.0658
301,610,5.21814,-26.7243,0.00348841,0.0035275,0.00392288,0.00743088,-0.000414971,0.787889,0.00509788,0.0106801,1525,414,5.21813,26.7243
308,610,5.20471,-26.3597,0.00491728,0.0025136,0.00447954,0.00835341,-0.000922527,0.654337,0.00590053,0.0119832,1532,414,5.20476,26.3597
315,610,5.18542,-26.0011,0.00657528,0.00113322,0.00499643,0.00954357,-0.00183507,0.536056,0.00705409,0.0129165,1539,414,5.18545,26.0011
322,610,5.13794,-25.6038,0.00825812,-0.000364304,0.00548736,0.0109253,-0.00303146,0.45243,0.00847666,0.0133854,1546,414,5.13792,25.6038
329,610,5.10901,-25.196,0.0097858,-0.00201351,0.00583461,0.0121837,-0.00441136,0.389928,0.00992524,0.0120783,1553,414,5.10895,25.196
336,610,5.12415,-24.7752,0.0109945,-0.00358334,0.00599627,0.013144,-0.00573283,0.344202,0.011175,0.0104096,1560,414,5.12415,24.7752
343,610,5.10901,-24.3701,0.0120965,-0.00491053,0.00612241,0.0140712,-0.00688526,0.312007,0.0123341,0.0197484,1567,414,5.10895,24.3701
350,610,5.11121,-23.9676,0,0,0,0,0,0,0,-1,1574,414,5.11124,23.9676
357,610,5.19141,-23.2894,0,0,0,0,0,0,0,-1,1581,414,5.19138,23.2894
364,610,4.34302,-15.9496,0,0,0,0,0,0,0,-1,1588,414,4.34299,15.9496
371,610,3.54138,-13.3788,0,0,0,0,0,0,0,-1,1595,414,3.54137,13.3788
378,610,3.5752,-12.1958,0,0,0,0,0,0,0,-1,1602,414,3.57517,12.1958
385,610,2.57104,-10.3878,0,0,0,0,0,0,0,-1,1609,414,2.57109,10.3878
392,610,1.99744,-1.83582,0,0,0,0,0,0,0,-1,1616,414,1.99741,1.8358
399,610,2.77136,-2.60333,0,0,0,0,0,0,0,-1,1623,414,2.77133,2.60332
406,610,3.54529,-3.37085,0,0,0,0,0,0,0,-1,1630,414,3.54525,3.37084
413,610,3.01929,-3.20306,0,0,0,0,0,0,0,-1,1637,414,3.01929,3.20306
420,610,4.78149,-3.64041,0,0,0,0,0,0,0,-1,1644,414,4.78152,3.64042
427,610,5.20764,-4.67545,0,0,0,0,0,0,0,-1,1651,414,5.20759,4.67545
434,610,5.39233,-5.45441,0,0,0,0,0,0,0,-1,1658,414,5.39228,5.4544
441,610,0,0,0,0,0,0,0,0,0,-1,1665,414,0,0
448,610,0,0,0,0,0,0,0,0,0,-1,1672,414,0,0
455,610,0,0,0,0,0,0,0,0,0,-1,1679,414,0,0
462,610,0,0,0,0,0,0,0,0,0,-1,1686,414,0,0
469,610,0,0,0,0,0,0,0,0,0,-1,1693,414,0,0
476,610,0,0,0,0,0,0,0,0,0,-1,1700,414,0,0
483,610,0,0,0,0,0,0,0,0,0,-1,1707,414,0,0
490,610,0,0,0,0,0,0,0,0,0,-1,1714,414,0,0
497,610,0,0,0,0,0,0,0,0,0,-1,1721,414,0,0
504,610,0,0,0,0,0,0,0,0,0,-1,1728,414,0,0
511,610,0,0,0,0,0,0,0,0,0,-1,1735,414,0,0
518,610,0,0,0,0,0,0,0,0,0,-1,1742,414,0,0
525,610,0,0,0,0,0,0,0,0,0,-1,1749,414,0,0
532,610,0,0,0,0,0,0,0,0,0,-1,1756,414,0,0
539,610,0,0,0,0,0,0,0,0,0,-1,1763,414,0,0
546,610,0,0,0,0,0,0,0,0,0,-1,1770,414,0,0
553,610,0,0,0,0,0,0,0,0,0,-1,1777,414,0,0
560,610,0,0,0,0,0,0,0,0,0,-1,1784,414,0,0
567,610,0,0,0,0,0,0,0,0,0,-1,1791,414,0,0
574,610,0,0,0,0,0,0,0,0,0,-1,1798,414,0,0
581,610,0,0,0,0,0,0,0,0,0,-1,1805,414,0,0
588,610,0,0,0,0,0,0,0,0,0,-1,1812,414,0,0
595,610,0,0,0,0,0,0,0,0,0,-1,1819,414,0,0
602,610,0,0,0,0,0,0,0,0,0,-1,1826,414,0,0
609,610,0,0,0,0,0,0,0,0,0,-1,1833,414,0,0
616,610,0,0,0,0,0,0,0,0,0,-1,1840,414,0,0
623,610,0,0,0,0,0,0,0,0,0,-1,1847,414,0,0
630,610,0,0,0,0,0,0,0,0,0,-1,1854,414,0,0
637,610,0,0,0,0,0,0,0,0,0,-1,1861,414,0,0
644,610,0,0,0,0,0,0,0,0,0,-1,1868,414,0,0
651,610,0,0,0,0,0,0,0,0,0,-1,1875,414,0,0
658,610,0,0,0,0,0,0,0,0,0,-1,1882,414,0,0
665,610,0,0,0,0,0,0,0,0,0,-1,1889,414,0,0
672,610,0,0,0,0,0,0,0,0,0,-1,1896,414,0,0
679,610,0,0,0,0,0,0,0,0,0,-1,1903,414,0,0
686,610,0,0,0,0,0,0,0,0,0,-1,1910,414,0,0
693,610,0,0,0,0,0,0,0,0,0,-1,1917,414,0,0
700,610,0,0,0,0,0,0,0,0,0,-1,1924,414,0,0
707,610,0,0,0,0,0,0,0,0,0,-1,1931,414,0,0
714,610,0,0,0,0,0,0,0,0,0,-1,1938,414,0,0
721,610,0,0,0,0,0,0,0,0,0,-1,1945,414,0,0
728,610,0,0,0,0,0,0,0,0,0,-1,1952,414,0,0
735,610,0,0,0,0,0,0,0,0,0,-1,1959,414,0,0
742,610,0,0,0,0,0,0,0,0,0,-1,1966,414,0,0
749,610,0,0,0,0,0,0,0,0,0,-1,1973,414,0,0
756,610,0,0,0,0,0,0,0,0,0,-1,1980,414,0,0
763,610,0,0,0,0,0,0,0,0,0,-1,1987,414,0,0
770,610,0,0,0,0,0,0,0,0,0,-1,1994,414,0,0
777,610,0,0,0,0,0,0,0,0,0,-1,2001,414,0,0
784,610,0,0,0,0,0,0,0,0,0,-1,2008,414,0,0
791,610,0,0,0,0,0,0,0,0,0,-1,2015,414,0,0
798,610,0,0,0,0,0,0,0,0,0,-1,2022,414,0,0
805,610,0,0,0,0,0,0,0,0,0,-1,2029,414,0,0
812,610,0,0,0,0,0,0,0,0,0,-1,2036,414,0,0
-700,603,0,0,0,0,0,0,0,0,0,-1,524,421,0,0
-693,603,0,0,0,0,0,0,0,0,0,-1,531,421,0,0
-686,603,0,0,0,0,0,0,0,0,0,-1,538,421,0,0
-679,603,0,0,0,0,0,0,0,0,0,-1,545,421,0,0
-672,603,0,0,0,0,0,0,0,0,0,-1,552,421,0,0
-665,603,0,0,0,0,0,0,0,0,0,-1,559,421,0,0
-658,603,0,0,0,0,0,0,0,0,0,-1,566,421,0,0
-651,603,0,0,0,0,0,0,0,0,0,-1,573,421,0,0
-644,603,0,0,0,0,0,0,0,0,0,-1,580,421,0,0
-637,603,0,0,0,0,0,0,0,0,0,-1,587,421,0,0
-630,603,0,0,0,0,0,0,0,0,0,-1,594,421,0,0
-623,603,0,0,0,0,0,0,0,0,0,-1,601,421,0,0
-616,603,0,0,0,0,0,0,0,0,0,-1,608,421,0,0
-609,603,0,0,0,0,0,0,0,0,0,-1,615,421,0,0
-602,603,0,0,0,0,0,0,0,0,0,-1,622,421,0,0
-595,603,0,0,0,0,0,0,0,0,0,-1,629,421,0,0
-588,603,0,0,0,0,0,0,0,0,0,-1,636,421,0,0
-581,603,0,0,0,0,0,0,0,0,0,-1,643,421,0,0
-574,603,0,0,0,0,0,0,0,0,0,-1,650,421,0,0
-567,603,0,0,0,0,0,0,0,0,0,-1,657,421,0,0
-560,603,0,0,0,0,0,0,0,0,0,-1,664,421,0,0
-553,603,0,0,0,0,0,0,0,0,0,-1,671,421,0,0
-546,603,0,0,0,0,0,0,0,0,0,-1,678,421,0,0
-539,603,0,0,0,0,0,0,0,0,0,-1,685,421,0,0
-532,603,0,0,0,0,0,0,0,0,0,-1,692,421,0,0
-525,603,0,0,0,0,0,0,0,0,0,-1,699,421,0,0
-518,603,0,0,0,0,0,0,0,0,0,-1,706,421,0,0
-511,603,0,0,0,0,0,0,0,0,0,-1,713,421,0,0
-504,603,0,0,0,0,0,0,0,0,0,-1,720,421,0,0
-497,603,0,0,0,0,0,0,0,0,0,-1,727,421,0,0
-490,603,0,0,0,0,0,0,0,0,0,-1,734,421,0,0
-483,603,0,0,0,0,0,0,0,0,0,-1,741,421,0,0
-476,603,0,0,0,0,0,0,0,0,0,-1,748,421,0,0
-469,603,0,0,0,0,0,0,0,0,0,-1,755,421,0,0
-462,603,0,0,0,0,0,0,0,0,0,-1,762,421,0,0
-455,603,0,0,0,0,0,0,0,0,0,-1,769,421,0,0
-448,603,0,0,0,0,0,0,0,0,0,-1,776,421,0,0
-441,603,0,0,0,0,0,0,0,0,0,-1,783,421,0,0
-434,603,0,0,0,0,0,0,0,0,0,-1,790,421,0,0
-427,603,0,0,0,0,0,0,0,0,0,-1,797,421,0,0
-420,603,0,0,0,0,0,0,0,0,0,-1,804,421,0,0
-413,603,0,0,0,0,0,0,0,0,0,-1,811,421,0,0
-406,603,0,0,0,0,0,0,0,0,0,-1,818,421,0,0
-399,603,0,0,0,0,0,0,0,0,0,-1,825,421,0,0
-392,603,0,0,0,0,0,0,0,0,0,-1,832,421,0,0
-385,603,0,0,0,0,0,0,0,0,0,-1,839,421,0,0
-378,603,0,0,0,0,0,0,0,0,0,-1,846,421,0,0
-371,603,0,0,0,0,0,0,0,0,0,-1,853,421,0,0
-364,603,0,0,0,0,0,0,0,0,0,-1,860,421,0,0
-357,603,0,0,0,0,0,0,0,0,0,-1,867,421,0,0
-350,603,0,0,0,0,0,0,0,0,0,-1,874,421,0,0
-343,603,0,0,0,0,0,0,0,0,0,-1,881,421,0,0
-336,603,0,0,0,0,0,0,0,0,0,-1,888,421,0,0
-329,603,4.09686,-17.9702,0,0,0,0,0,0,0,-1,895,421,4.09687,17.9702
-322,603,5.98431,-20.9071,0,0,0,0,0,0,0,-1,902,421,5.98431,20.9071
-315,603,5.99744,-20.4501,0,0,0,0,0,0,0,-1,909,421,5.99745,20.4501
-308,603,5.92249,-20.778,0,0,0,0,0,0,0,-1,916,421,5.92248,20.778
-301,603,2.87506,-22.5246,0,0,0,0,0,0,0,-1,923,421,2.87504,22.5246
-294,603,4.08228,-22.5695,0,0,0,0,0,0,0,-1,930,421,4.0823,22.5695
-287,603,5.09351,-22.4149,0,0,0,0,0,0,0,-1,937,421,5.09353,22.4149
-280,603,2.95605,-21.6616,0,0,0,0,0,0,0,-1,944,421,2.95603,21.6616
-273,603,3.44623,-22.2662,0.103573,-0.0429602,-0.00891132,0.104113,-0.0435002,-0.0605171,0.0875866,0.0491724,951,421,3.44621,22.2662
-266,603,3.97656,-22.7761,0.0915044,-0.0380138,-0.00597658,0.0917796,-0.038289,-0.0460144,0.0771829,0.0454995,958,421,3.97658,22.7761
-259,603,4.51074,-23.2304,0,0,0,0,0,0,0,-1,965,421,4.51073,23.2304
-252,603,3.63116,-23.2519,0,0,0,0,0,0,0,-1,972,421,3.63115,23.2519
-245,603,3.64349,-23.5814,0.0560045,-0.0175987,-0.00330409,0.0561526,-0.0177467,-0.0447705,0.044545,0.0355507,979,421,3.64352,23.5814
-238,603,3.60297,-23.9923,0.0440577,-0.0105583,-0.00302354,0.0442245,-0.0107252,-0.0551354,0.033633,0.022607,986,421,3.60298,23.9923
-231,603,3.55823,-24.4607,0.0331157,-0.00424232,-0.00304809,0.0333628,-0.00448938,-0.0808784,0.0238794,0.0131742,993,421,3.55825,24.4607
-224,603,3.53217,-24.8938,0.0233336,0.00107113,-0.00314934,0.0237705,0.000634191,-0.137861,0.0156399,0.0133229,1000,421,3.5322,24.8938
-217,603,3.54095,-25.2703,0.0149842,0.00533744,-0.00310448,0.0158969,0.00442472,-0.285942,0.00947396,0.0133464,1007,421,3.54094,25.2703
-210,603,3.52423,-25.67,0.00527948,0.0100029,-0.00351712,0.0118777,0.00340472,-1.08107,0.00706263,0.0113958,1014,421,3.5242,25.6701
-203,603,3.50281,-26.0661,-0.00126799,0.0116436,-0.00382526,0.0126918,-0.00231619,-1.30334,0.00932958,0.0168836,1021,421,3.50282,26.0661
-196,603,3.51831,-26.4454,-0.000832712,0.00935317,-0.00347644,0.0104266,-0.00190611,-1.27132,0.00766581,0.0193049,1028,421,3.51833,26.4454
-189,603,3.49023,-26.7565,-0.00050755,0.00716696,-0.00320822,0.00833142,-0.00167201,-1.22262,0.00618739,0.0168577,1035,421,3.49027,26.7565
-182,603,3.45483,-27.1146,0.000154262,0.00528105,-0.00306765,0.00671534,-0.00128002,-1.13344,0.00495894,0.011655,1042,421,3.45485,27.1146
-175,603,3.42212,-27.4435,0.000575842,0.00282683,-0.00246779,0.00441367,-0.00101099,-0.999345,0.00333098,0.0114416,1049,421,3.42216,27.4435
-168,603,3.40222,-27.7926,0.000764148,0.000646411,-0.00184576,0.00255197,-0.00114142,-0.769457,0.0021836,0.0141123,1056,421,3.40217,27.7926
-161,603,3.37573,-28.1458,0.000935464,-0.00134965,-0.00124803,0.00148495,-0.00189913,-0.414744,0.00195867,0.013595,1063,421,3.37572,28.1457
-154,603,3.3877,-28.4698,0.00110175,-0.00278795,-0.000695857,0.00122249,-0.00290869,-0.171801,0.00245047,0.0129555,1070,421,3.38772,28.4698
-147,603,3.40918,-28.7468,0.00123514,-0.0041164,-0.000239008,0.00124579,-0.00412705,-0.0445433,0.00324729,0.013982,1077,421,3.40923,28.7468
-140,603,3.41797,-29.0357,0.00131645,-0.00498264,0.000152911,0.00132016,-0.00498635,0.024256,0.00384068,0.011633,1084,421,3.41797,29.0357
-133,603,3.39478,-29.3315,0.00129939,-0.00553743,0.000505118,0.0013365,-0.00557455,0.0733513,0.00423279,0.0122757,1091,421,3.39483,29.3315
-126,603,3.38477,-29.6126,0.00127622,-0.00586785,0.000713729,0.00134683,-0.00593845,0.0986065,0.00447597,0.0112152,1098,421,3.38482,29.6126
-119,603,3.40637,-29.8859,0.00142661,-0.00568562,0.000647912,0.00148515,-0.00574416,0.0901099,0.00440868,0.0107593,1105,421,3.40642,29.8859
-112,603,3.42212,-30.1726,0.00155858,-0.00549766,0.000559247,0.00160262,-0.0055417,0.0786017,0.00432872,0.0147101,1112,421,3.4221,30.1726
-105,603,3.42798,-30.4582,0.00189839,-0.00532329,0.000233682,0.00190594,-0.00533085,0.0323133,0.00433132,0.0149767,1119,421,3.42798,30.4582
-98,603,3.43225,-30.6916,0.00240689,-0.00517282,-0.000258212,0.00241568,-0.0051816,-0.0340136,0.00448214,0.0132299,1126,421,3.43224,30.6915
-91,603,3.4519,-30.9221,0.00295442,-0.00499672,-0.00063086,0.00300416,-0.00504646,-0.078686,0.00469762,0.00988713,1133,421,3.45188,30.9221
-84,603,3.48486,-31.1864,0.00355688,-0.00476622,-0.000945601,0.00366296,-0.0048723,-0.111715,0.00494429,0.0103471,1140,421,3.48492,31.1864
-77,603,3.51355,-31.4629,0.00461382,-0.00432805,-0.0013186,0.00480421,-0.00451844,-0.143398,0.00538327,0.0163528,1147,421,3.51351,31.4629
-70,603,3.71716,-31.9431,0.00557386,-0.00325781,-0.00127864,0.00575525,-0.0034392,-0.140925,0.00536426,0.0499384,1154,421,3.7172,31.9431
-63,603,3.5271,-31.8317,0,0,0,0,0,0,0,-1,1161,421,3.52711,31.8317
-56,603,3.5813,-32.0263,0,0,0,0,0,0,0,-1,1168,421,3.5813,32.0263
-49,603,3.64917,-32.1869,0,0,0,0,0,0,0,-1,1175,421,3.64913,32.1869
-42,603,3.6311,-32.3334,0,0,0,0,0,0,0,-1,1182,421,3.63108,32.3334
-35,603,3.61438,-32.4492,0.000705189,-0.00593538,0.00847628,0.00648829,-0.0117185,0.598726,0.0106553,0.0418599,1189,421,3.61441,32.4492
-28,603,3.64575,-32.5782,1.62175e-05,-0.00777032,0.0101758,0.00701807,-0.0147722,0.602689,0.0128434,0.0261292,1196,421,3.64579,32.5782
-21,603,3.72681,-32.7096,-0.000306546,-0.0104551,0.0117421,0.00741073,-0.0181724,0.581444,0.0151998,0.0229095,1203,421,3.72676,32.7096
-14,603,3.82153,-32.828,-0.000618577,-0.0136541,0.0127388,0.00717305,-0.0214458,0.548937,0.0171944,0.0213153,1210,421,3.82148,32.828
-7,603,3.87183,-32.944,-0.000442026,-0.0162436,0.0131359,0.00698607,-0.0236717,0.514651,0.0185535,0.0239293,1217,421,3.87187,32.944
0,603,3.92017,-33.063,0.000316906,-0.0189102,0.013205,0.00703709,-0.0256304,0.470753,0.0198528,0.0300667,1224,421,3.92018,33.0629
7,603,3.94495,-33.0226,0.00156785,-0.020985,0.0131935,0.00764729,-0.0270644,0.431791,0.0210601,0.0377369,1231,421,3.94492,33.0226
14,603,4.12976,-32.9377,0.00287348,-0.0230713,0.0127571,0.00809524,-0.028293,0.388516,0.0220612,0.0378496,1238,421,4.12973,32.9376
21,603,4.16895,-33.0037,0.00392027,-0.0242427,0.0123294,0.00855513,-0.0288775,0.359578,0.0226485,0.0303233,1245,421,4.16898,33.0037
28,603,4.23413,-33.0355,0.00486834,-0.024797,0.0118497,0.00902051,-0.0289492,0.337033,0.0229062,0.0331526,1252,421,4.23411,33.0355
35,603,4.29944,-32.9699,0.00528949,-0.0244669,0.0118,0.0094008,-0.0285782,0.335262,0.02284,0.041984,1259,421,4.29941,32.9699
42,603,4.33203,-33.2513,0.0057446,-0.0231357,0.0122648,0.0102502,-0.0276413,0.352059,0.0226317,0.0383263,1266,421,4.33199,33.2513
49,603,4.41382,-33.4279,0.00690227,-0.0202053,0.0129652,0.0121049,-0.0254079,0.381604,0.0221073,0.0196377,1273,421,4.41386,33.4278
56,603,4.39026,-33.3243,0.00913013,-0.0164807,0.0137522,0.0151157,-0.0224663,0.410516,0.0218359,0.0397785,1280,421,4.39031,33.3243
63,603,4.38489,-33.2085,0,0,0,0,0,0,0,-1,1287,421,4.38495,33.2085
70,603,4.3894,-33.277,0,0,0,0,0,0,0,-1,1294,421,4.38943,33.277
77,603,3.71655,-31.7734,0,0,0,0,0,0,0,-1,1301,421,3.71657,31.7734
84,603,4.70154,-33.3561,0,0,0,0,0,0,0,-1,1308,421,4.70157,33.3561
91,603,4.78137,-33.408,0,0,0,0,0,0,0,-1,1315,421,4.78142,33.408
98,603,4.93872,-33.3843,0,0,0,0,0,0,0,-1,1322,421,4.93876,33.3843
105,603,5.19482,-33.1187,0.0244001,0.00475962,0.0157056,0.0331029,-0.00394322,0.506002,0.0234936,0.0491944,1329,421,5.19482,33.1187
112,603,5.08105,-32.9561,0.0258029,0.00401246,0.0141987,0.0328049,-0.00298949,0.458145,0.0229315,0.0406997,1336,421,5.08106,32.9561
119,603,5.19873,-32.8801,0.0265947,0.00269753,0.0124382,0.0318937,-0.0026014,0.402736,0.0221805,0.042348,1343,421,5.19873,32.8801
126,603,5.2655,-32.7131,0,0,0,0,0,0,0,-1,1350,421,5.26545,32.7131
133,603,5.15649,-32.5598,0.0262414,-0.0014929,0.00736313,0.028075,-0.0033265,0.24406,0.0199183,0.0414843,1357,421,5.15648,32.5598
140,603,5.30469,-32.4842,0.0250687,-0.00357954,0.00414604,0.0256567,-0.0041675,0.140873,0.0186495,0.0292454,1364,421,5.30465,32.4842
147,603,5.19788,-32.3721,0.0227135,-0.00614963,0.000429341,0.0227199,-0.00615602,0.0148707,0.017562,0.0243161,1371,421,5.19784,32.3721
154,603,5.09924,-32.3092,0.017527,-0.0101956,-0.0025159,0.0177535,-0.0104221,-0.0897753,0.0164497,0.0310011,1378,421,5.09919,32.3092
161,603,5.23059,-32.1791,0.0113462,-0.0118778,-0.00390843,0.0119863,-0.0125179,-0.162337,0.0141486,0.0315709,1385,421,5.23062,32.1791
168,603,5.37769,-31.9998,0.00626022,-0.0117109,-0.00473003,0.00742913,-0.0128799,-0.242273,0.0118653,0.032817,1392,421,5.37773,31.9998
175,603,5.49927,-31.8503,0.0059324,-0.00950187,-0.00383971,0.00683487,-0.0104043,-0.230846,0.0100239,0.0366049,1399,421,5.49932,31.8503
182,603,5.60254,-31.6841,0.00558106,-0.00781954,-0.00329477,0.00634731,-0.0085858,-0.228507,0.00865386,0.0431587,1406,421,5.60256,31.6841
189,603,5.54431,-31.4136,0.00506072,-0.00541785,-0.00250977,0.00563083,-0.00598796,-0.223365,0.00670917,0.0372068,1413,421,5.54426,31.4136
196,603,5.44556,-31.1401,0.00478466,-0.00366459,-0.00165453,0.0050971,-0.00397703,-0.186639,0.00525224,0.0280722,1420,421,5.44555,31.1401
203,603,5.43677,-30.9772,0.00437935,-0.00194082,-0.00110801,0.00456797,-0.00212944,-0.168616,0.00395126,0.016901,1427,421,5.43678,30.9772
210,603,5.48547,-30.8391,0.0037852,-0.000585485,-0.000604328,0.00386722,-0.000667505,-0.134897,0.00282704,0.0127575,1434,421,5.48545,30.8391
217,603,5.51868,-30.5341,0.00320461,0.00083598,-7.29743e-05,0.00320686,0.000833734,-0.0307697,0.00192127,0.0143365,1441,421,5.51867,30.5341
224,603,5.57251,-30.2513,0.00276707,0.00168044,0.000420325,0.00291068,0.00153683,0.329227,0.00168136,0.0175124,1448,421,5.57255,30.2513
231,603,5.57825,-29.98,0.00240555,0.00235031,0.000838732,0.00321712,0.00153874,0.768938,0.00185799,0.0148267,1455,421,5.57819,29.98
238,603,5.58252,-29.6877,0.00219281,0.00281318,0.00113075,0.00367552,0.00133047,0.919263,0.00214884,0.0111876,1462,421,5.58254,29.6877
245,603,5.59546,-29.3965,0.00204361,0.0031294,0.00123313,0.00393386,0.00123915,0.99276,0.00232246,0.0117589,1469,421,5.59552,29.3965
252,603,5.59509,-29.0902,0.00177879,0.00330173,0.00124281,0.0039978,0.00108272,1.06025,0.00238758,0.0106626,1476,421,5.59512,29.0902
259,603,5.58569,-28.7731,0.00145496,0.00339116,0.00125032,0.00400436,0.000841758,1.11483,0.00243792,0.0102073,1483,421,5.58569,28.7731
266,603,5.60144,-28.4518,0.00120466,0.00346252,0.00130546,0.00405948,0.000607702,1.1419,0.00252822,0.0105467,1490,421,5.60143,28.4518
273,603,5.61633,-28.1117,0.00102061,0.00365383,0.00142827,0.00427975,0.00039469,1.15777,0.00273113,0.0099759,1497,421,5.61628,28.1117
280,603,5.60657,-27.7713,0.001048,0.00346996,0.00157376,0.00424473,0.000273235,1.11332,0.00274328,0.0119277,1504,421,5.60657,27.7713
287,603,5.58765,-27.4207,0.00147589,0.0032792,0.00191116,0.00449072,0.000264364,1.00581,0.0029097,0.0115963,1511,421,5.58762,27.4207
294,603,5.56982,-27.0734,0.00192573,0.00304175,0.00224442,0.00479649,0.00017099,0.907238,0.00314221,0.00952965,1518,421,5.56987,27.0734
301,603,5.56421,-26.7234,0.00260831,0.00267978,0.00265111,0.00529539,-7.30413e-06,0.792137,0.0035327,0.0109595,1525,421,5.5642,26.7233
308,603,5.55847,-26.3531,0.00352884,0.00209599,0.00312794,0.00602136,-0.000396525,0.67282,0.00415273,0.0161719,1532,421,5.5585,26.3531
315,603,5.53186,-25.9926,0.00458563,0.00129268,0.00356975,0.00687031,-0.000992,0.569321,0.00494416,0.0158946,1539,421,5.53186,25.9926
322,603,5.50415,-25.6102,0.00563825,0.000437739,0.00400112,0.00780982,-0.00173383,0.497252,0.00587047,0.0159448,1546,421,5.50412,25.6102
329,603,5.48425,-25.1975,0.00657377,-0.000509028,0.00434776,0.00863992,-0.00257517,0.443628,0.00678328,0.0113045,1553,421,5.48423,25.1975
336,603,5.47351,-24.8102,0.0072564,-0.00138709,0.00456349,0.0092198,-0.00335048,0.4063,0.00751653,0.00916062,1560,421,5.47356,24.8102
343,603,5.45398,-24.4179,0.00781563,-0.00201645,0.00475182,0.00973679,-0.00393761,0.384207,0.00812812,0.0110767,1567,421,5.45396,24.4179
350,603,5.42151,-24.0042,0.00813891,-0.00198694,0.00506539,0.0102378,-0.00408581,0.392821,0.0085202,0.0202113,1574,421,5.42147,24.0042
357,603,5.46045,-23.4873,0.00788636,-0.00188748,0.00524971,0.0101717,-0.00417283,0.410587,0.00851981,0.0327396,1581,421,5.46047,23.4873
364,603,5.38208,-22.9136,0,0,0,0,0,0,0,-1,1588,421,5.38207,22.9136
371,603,5.38098,-22.5015,0,0,0,0,0,0,0,-1,1595,421,5.38102,22.5015
378,603,5.23352,-22.4092,0,0,0,0,0,0,0,-1,1602,421,5.23349,22.4092
385,603,5.07153,-21.8505,0,0,0,0,0,0,0,-1,1609,421,5.07155,21.8505
392,603,4.90527,-19.605,0,0,0,0,0,0,0,-1,1616,421,4.90526,19.605
399,603,2.94299,0.638214,0,0,0,0,0,0,0,-1,1623,421,2.94293,-0.638215
406,603,3.01917,-2.37219,0,0,0,0,0,0,0,-1,1630,421,3.01915,2.37219
413,603,2.38928,-2.41275,0,0,0,0,0,0,0,-1,1637,421,2.38926,2.41274
420,603,2.74866,-2.30066,0,0,0,0,0,0,0,-1,1644,421,2.74867,2.30065
427,603,7.11548,-3.35352,0,0,0,0,0,0,0,-1,1651,421,7.11549,3.35351
434,603,7.32153,-4.50525,0,0,0,0,0,0,0,-1,1658,421,7.32149,4.50525
441,603,3.18213,-0.250946,0,0,0,0,0,0,0,-1,1665,421,3.18212,0.250944
448,603,2.95667,-0.066925,0,0,0,0,0,0,0,-1,1672,421,2.95662,0.0669226
455,603,0,0,0,0,0,0,0,0,0,-1,1679,421,0,0
462,603,0,0,0,0,0,0,0,0,0,-1,1686,421,0,0
469,603,0,0,0,0,0,0,0,0,0,-1,1693,421,0,0
476,603,0,0,0,0,0,0,0,0,0,-1,1700,421,0,0
483,603,0,0,0,0,0,0,0,0,0,-1,1707,421,0,0
490,603,0,0,0,0,0,0,0,0,0,-1,1714,421,0,0
497,603,0,0,0,0,0,0,0,0,0,-1,1721,421,0,0
504,603,0,0,0,0,0,0,0,0,0,-1,1728,421,0,0
511,603,0,0,0,0,0,0,0,0,0,-1,1735,421,0,0
518,603,0,0,0,0,0,0,0,0,0,-1,1742,421,0,0
525,603,0,0,0,0,0,0,0,0,0,-1,1749,421,0,0
532,603,0,0,0,0,0,0,0,0,0,-1,1756,421,0,0
539,603,0,0,0,0,0,0,0,0,0,-1,1763,421,0,0
546,603,0,0,0,0,0,0,0,0,0,-1,1770,421,0,0
553,603,0,0,0,0,0,0,0,0,0,-1,1777,421,0,0
560,603,0,0,0,0,0,0,0,0,0,-1,1784,421,0,0
567,603,0,0,0,0,0,0,0,0,0,-1,1791,421,0,0
574,603,0,0,0,0,0,0,0,0,0,-1,1798,421,0,0
581,603,0,0,0,0,0,0,0,0,0,-1,1805,421,0,0
588,603,0,0,0,0,0,0,0,0,0,-1,1812,421,0,0
595,603,0,0,0,0,0,0,0,0,0,-1,1819,421,0,0
602,603,0,0,0,0,0,0,0,0,0,-1,1826,421,0,0
609,603,0,0,0,0,0,0,0,0,0,-1,1833,421,0,0
616,603,0,0,0,0,0,0,0,0,0,-1,1840,421,0,0
623,603,0,0,0,0,0,0,0,0,0,-1,1847,421,0,0
630,603,0,0,0,0,0,0,0,0,0,-1,1854,421,0,0
637,603,0,0,0,0,0,0,0,0,0,-1,1861,421,0,0
644,603,0,0,0,0,0,0,0,0,0,-1,1868,421,0,0
651,603,0,0,0,0,0,0,0,0,0,-1,1875,421,0,0
658,603,0,0,0,0,0,0,0,0,0,-1,1882,421,0,0
665,603,0,0,0,0,0,0,0,0,0,-1,1889,421,0,0
672,603,0,0,0,0,0,0,0,0,0,-1,1896,421,0,0
679,603,0,0,0,0,0,0,0,0,0,-1,1903,421,0,0
686,603,0,0,0,0,0,0,0,0,0,-1,1910,421,0,0
693,603,0,0,0,0,0,0,0,0,0,-1,1917,421,0,0
700,603,0,0,0,0,0,0,0,0,0,-1,1924,421,0,0
707,603,0,0,0,0,0,0,0,0,0,-1,1931,421,0,0
714,603,0,0,0,0,0,0,0,0,0,-1,1938,421,0,0
721,603,0,0,0,0,0,0,0,0,0,-1,1945,421,0,0
728,603,0,0,0,0,0,0,0,0,0,-1,1952,421,0,0
735,603,0,0,0,0,0,0,0,0,0,-1,1959,421,0,0
742,603,0,0,0,0,0,0,0,0,0,-1,1966,421,0,0
749,603,0,0,0,0,0,0,0,0,0,-1,1973,421,0,0
756,603,0,0,0,0,0,0,0,0,0,-1,1980,421,0,0
763,603,0,0,0,0,0,0,0,0,0,-1,1987,421,0,0
770,603,0,0,0,0,0,0,0,0,0,-1,1994,421,0,0
777,603,0,0,0,0,0,0,0,0,0,-1,2001,421,0,0
784,603,0,0,0,0,0,0,0,0,0,-1,2008,421,0,0
791,603,0,0,0,0,0,0,0,0,0,-1,2015,421,0,0
798,603,0,0,0,0,0,0,0,0,0,-1,2022,421,0,0
805,603,0,0,0,0,0,0,0,0,0,-1,2029,421,0,0
812,603,0,0,0,0,0,0,0,0,0,-1,2036,421,0,0
-700,596,0,0,0,0,0,0,0,0,0,-1,524,428,0,0
-693,596,0,0,0,0,0,0,0,0,0,-1,531,428,0,0
-686,596,0,0,0,0,0,0,0,0,0,-1,538,428,0,0
-679,596,0,0,0,0,0,0,0,0,0,-1,545,428,0,0
-672,596,0,0,0,0,0,0,0,0,0,-1,552,428,0,0
-665,596,0,0,0,0,0,0,0,0,0,-1,559,428,0,0
-658,596,0,0,0,0,0,0,0,0,0,-1,566,428,0,0
-651,596,0,0,0,0,0,0,0,0,0,-1,573,428,0,0
-644,596,0,0,0,0,0,0,0,0,0,-1,580,428,0,0
-637,596,0,0,0,0,0,0,0,0,0,-1,587,428,0,0
-630,596,0,0,0,0,0,0,0,0,0,-1,594,428,0,0
-623,596,0,0,0,0,0,0,0,0,0,-1,601,428,0,0
-616,596,0,0,0,0,0,0,0,0,0,-1,608,428,0,0
-609,596,0,0,0,0,0,0,0,0,0,-1,615,428,0,0
-602,596,0,0,0,0,0,0,0,0,0,-1,622,428,0,0
-595,596,0,0,0,0,0,0,0,0,0,-1,629,428,0,0
-588,596,0,0,0,0,0,0,0,0,0,-1,636,428,0,0
-581,596,0,0,0,0,0,0,0,0,0,-1,643,428,0,0
-574,596,0,0,0,0,0,0,0,0,0,-1,650,428,0,0
-567,596,0,0,0,0,0,0,0,0,0,-1,657,428,0,0
-560,596,0,0,0,0,0,0,0,0,0,-1,664,428,0,0
-553,596,0,0,0,0,0,0,0,0,0,-1,671,428,0,0
-546,596,0,0,0,0,0,0,0,0,0,-1,678,428,0,0
-539,596,0,0,0,0,0,0,0,0,0,-1,685,428,0,0
-532,596,0,0,0,0,0,0,0,0,0,-1,692,428,0,0
-525,596,0,0,0,0,0,0,0,0,0,-1,699,428,0,0
-518,596,0,0,0,0,0,0,0,0,0,-1,706,428,0,0
-511,596,0,0,0,0,0,0,0,0,0,-1,713,428,0,0
-504,596,0,0,0,0,0,0,0,0,0,-1,720,428,0,0
-497,596,0,0,0,0,0,0,0,0,0,-1,727,428,0,0
-490,596,0,0,0,0,0,0,0,0,0,-1,734,428,0,0
-483,596,0,0,0,0,0,0,0,0,0,-1,741,428,0,0
-476,596,0,0,0,0,0,0,0,0,0,-1,748,428,0,0
-469,596,0,0,0,0,0,0,0,0,0,-1,755,428,0,0
-462,596,0,0,0,0,0,0,0,0,0,-1,762,428,0,0
-455,596,0,0,0,0,0,0,0,0,0,-1,769,428,0,0
-448,596,0,0,0,0,0,0,0,0,0,-1,776,428,0,0
-441,596,0,0,0,0,0,0,0,0,0,-1,783,428,0,0
-434,596,0,0,0,0,0,0,0,0,0,-1,790,428,0,0
-427,596,0,0,0,0,0,0,0,0,0,-1,797,428,0,0
-420,596,0,0,0,0,0,0,0,0,0,-1,804,428,0,0
-413,596,0,0,0,0,0,0,0,0,0,-1,811,428,0,0
-406,596,0,0,0,0,0,0,0,0,0,-1,818,428,0,0
-399,596,0,0,0,0,0,0,0,0,0,-1,825,428,0,0
-392,596,0,0,0,0,0,0,0,0,0,-1,832,428,0,0
-385,596,0,0,0,0,0,0,0,0,0,-1,839,428,0,0
-378,596,0,0,0,0,0,0,0,0,0,-1,846,428,0,0
-371,596,0,0,0,0,0,0,0,0,0,-1,853,428,0,0
-364,596,0,0,0,0,0,0,0,0,0,-1,860,428,0,0
-357,596,0,0,0,0,0,0,0,0,0,-1,867,428,0,0
-350,596,0,0,0,0,0,0,0,0,0,-1,874,428,0,0
-343,596,0,0,0,0,0,0,0,0,0,-1,881,428,0,0
-336,596,-0.98291,-20.0836,0,0,0,0,0,0,0,-1,888,428,-0.982933,20.0836
-329,596,4.43048,-20.1666,0,0,0,0,0,0,0,-1,895,428,4.43045,20.1666
-322,596,4.29657,-19.996,0,0,0,0,0,0,0,-1,902,428,4.29655,19.996
-315,596,4.20044,-19.8317,0,0,0,0,0,0,0,-1,909,428,4.20045,19.8317
-308,596,0.254761,-20.841,0,0,0,0,0,0,0,-1,916,428,0.254731,20.841
-301,596,2.05115,-21.55,0,0,0,0,0,0,0,-1,923,428,2.05113,21.55
-294,596,3.09009,-21.7782,0,0,0,0,0,0,0,-1,930,428,3.09008,21.7782
-287,596,2.96259,-21.1764,0,0,0,0,0,0,0,-1,937,428,2.96258,21.1764
-280,596,3.18201,-21.5352,0,0,0,0,0,0,0,-1,944,428,3.18201,21.5352
-273,596,3.28516,-22.0524,0.0728695,-0.0298176,-0.00928462,0.0737022,-0.0306504,-0.08945,0.0619335,0.0416844,951,428,3.28517,22.0524
-266,596,3.18042,-22.4573,0.063355,-0.0262106,-0.00642908,0.0638141,-0.0266697,-0.0712935,0.0536881,0.0392093,958,428,3.1804,22.4573
-259,596,3.13617,-22.5557,0.0546325,-0.0215566,-0.00505843,0.0549669,-0.021891,-0.066007,0.0457231,0.0355345,965,428,3.13617,22.5557
-252,596,3.22748,-23.218,0.0459722,-0.0163638,-0.00416817,0.0462497,-0.0166413,-0.0664717,0.0376275,0.0181815,972,428,3.22745,23.2179
-245,596,3.23535,-23.6837,0.0372606,-0.0112572,-0.00355201,0.0375192,-0.0115158,-0.0726939,0.0296076,0.013527,979,428,3.23533,23.6837
-238,596,3.24243,-24.093,0.0288715,-0.00638249,-0.00299939,0.0291249,-0.00663586,-0.0842722,0.0219653,0.0117659,986,428,3.24245,24.093
-231,596,3.18903,-24.5196,0.0213537,-0.00218826,-0.00275308,0.0216714,-0.00250592,-0.114878,0.0153512,0.0123931,993,428,3.18902,24.5195
-224,596,3.1546,-24.9362,0.0148383,0.00120875,-0.00258747,0.015313,0.000734069,-0.181436,0.00997297,0.0125734,1000,428,3.15462,24.9362
-217,596,3.15753,-25.3209,0.00930068,0.00392238,-0.0023335,0.010172,0.00305109,-0.357353,0.00602744,0.0138861,1007,428,3.15751,25.3209
-210,596,3.17419,-25.6973,0.00298173,0.00689204,-0.002382,0.00801853,0.00185524,-1.12905,0.0048471,0.0125242,1014,428,3.17418,25.6973
-203,596,3.1615,-26.0674,-0.00114005,0.00764212,-0.00227927,0.00819843,-0.00169635,-1.3314,0.00611008,0.0155492,1021,428,3.16151,26.0674
-196,596,3.15601,-26.4175,-0.00104553,0.00596066,-0.00186102,0.00642431,-0.00150918,-1.32663,0.0048646,0.0161712,1028,428,3.15598,26.4175
-189,596,3.1228,-26.747,-0.000964073,0.00428263,-0.00150275,0.00468256,-0.001364,-1.31069,0.00366205,0.0137665,1035,428,3.12277,26.747
-182,596,3.10278,-27.1033,-0.000765081,0.00280367,-0.00118339,0.00316042,-0.00112183,-1.278,0.00256404,0.0118112,1042,428,3.10281,27.1033
-175,596,3.10046,-27.4548,-0.000633679,0.000790462,-0.000604258,0.00101229,-0.00085551,-1.21896,0.00107964,0.0133622,1049,428,3.10046,27.4548
-168,596,3.10547,-27.7883,-0.000587757,-0.00111655,-2.46778e-05,-0.000586608,-0.0011177,-0.0465333,0.000645569,0.0156053,1056,428,3.10546,27.7883
-161,596,3.0885,-28.1261,-0.00053211,-0.00296633,0.000516698,-0.000426974,-0.00307146,0.200736,0.0019212,0.0142524,1063,428,3.08851,28.1261
-154,596,3.07654,-28.4439,-0.000367606,-0.00444009,0.000978326,-0.000144777,-0.00466292,0.223946,0.00306149,0.0124871,1070,428,3.07657,28.4439
-147,596,3.11328,-28.719,-0.000119567,-0.0058263,0.00132999,0.000175173,-0.00612104,0.218086,0.00414032,0.0130939,1077,428,3.11326,28.719
-140,596,3.12219,-29.0157,0.00016391,-0.00697233,0.00160269,0.000507325,-0.00731575,0.211082,0.00505477,0.0140773,1084,428,3.12222,29.0157
-133,596,3.10315,-29.3438,0.000413257,-0.00806601,0.00184124,0.000795816,-0.00844857,0.204857,0.00591552,0.015342,1091,428,3.10311,29.3438
-126,596,3.09851,-29.6078,0.000762926,-0.0089799,0.00194086,0.00113533,-0.0093523,0.189571,0.00664572,0.0120943,1098,428,3.09852,29.6078
-119,596,3.14478,-29.8936,0.00133037,-0.00929569,0.00173729,0.0016072,-0.00957251,0.158014,0.00697936,0.0150456,1105,428,3.1448,29.8936
-112,596,3.15564,-30.1652,0.00191271,-0.00953055,0.00149645,0.00210516,-0.009723,0.127906,0.00728582,0.0159928,1112,428,3.15568,30.1652
-105,596,3.14404,-30.4487,0.00274361,-0.00964191,0.000973374,0.00281964,-0.00971794,0.0779519,0.00759502,0.0156172,1119,428,3.14407,30.4487
-98,596,3.19824,-30.6823,0.00367665,-0.00948472,0.000275241,0.0036824,-0.00949048,0.0209006,0.00784791,0.012246,1126,428,3.1982,30.6823
-91,596,3.20935,-31.0138,0.00441434,-0.00904198,-0.000233501,0.00441839,-0.00904603,-0.0173455,0.00792526,0.0272941,1133,428,3.20941,31.0138
-84,596,3.38074,-31.537,0,0,0,0,0,0,0,-1,1140,428,3.38078,31.537
-77,596,3.31055,-31.498,0,0,0,0,0,0,0,-1,1147,428,3.31057,31.498
-70,596,3.50696,-32.137,0,0,0,0,0,0,0,-1,1154,428,3.50696,32.137
-63,596,1.95569,-12.2758,0,0,0,0,0,0,0,-1,1161,428,1.95563,12.2759
-56,596,1.60107,-10.5827,0,0,0,0,0,0,0,-1,1168,428,1.60108,10.5827
-49,596,1.59473,-10.0393,0,0,0,0,0,0,0,-1,1175,428,1.59472,10.0393
-42,596,1.99585,-6.6246,0,0,0,0,0,0,0,-1,1182,428,1.99586,6.62459
-35,596,3.22913,-32.2247,0,0,0,0,0,0,0,-1,1189,428,3.22907,32.2247
-28,596,3.39014,-32.4079,0,0,0,0,0,0,0,-1,1196,428,3.39018,32.4079
-21,596,3.50208,-32.523,0,0,0,0,0,0,0,-1,1203,428,3.50209,32.523
-14,596,3.60913,-32.5868,0,0,0,0,0,0,0,-1,1210,428,3.60909,32.5868
-7,596,3.70862,-32.8144,0,0,0,0,0,0,0,-1,1217,428,3.70865,32.8144
0,596,4.21326,-32.5721,-0.000594026,-0.0219382,0.018294,0.00991323,-0.0324455,0.521349,0.0255832,0.0499876,1224,428,4.21328,32.5721
7,596,3.75146,-32.6509,0.0011292,-0.0246779,0.0182198,0.0105519,-0.0341006,0.477288,0.0269487,0.0441242,1231,428,3.7514,32.6509
14,596,3.5802,-32.6195,0.00296486,-0.0274129,0.0175616,0.0109948,-0.0354428,0.428861,0.028022,0.0483822,1238,428,3.58021,32.6195
21,596,3.98413,-32.4238,0,0,0,0,0,0,0,-1,1245,428,3.98409,32.4238
28,596,4.15259,-32.4468,0.00593574,-0.0300647,0.0162025,0.0121539,-0.0362829,0.366443,0.0290986,0.0492447,1252,428,4.15262,32.4468
35,596,4.23938,-32.3986,0.00670445,-0.0298427,0.0160222,0.0127338,-0.0358721,0.359923,0.0291033,0.0459983,1259,428,4.23937,32.3986
42,596,4.23962,-32.3136,0,0,0,0,0,0,0,-1,1266,428,4.23968,32.3136
49,596,4.70044,-33.2996,0.0094483,-0.0244188,0.0175,0.0168662,-0.0318367,0.400923,0.028558,0.0456949,1273,428,4.70046,33.2996
56,596,4.77625,-33.1625,0.012626,-0.0196688,0.0185019,0.0210359,-0.0280787,0.426623,0.0284533,0.0433462,1280,428,4.77621,33.1625
63,596,4.62952,-32.8577,0,0,0,0,0,0,0,-1,1287,428,4.62955,32.8577
70,596,4.3313,-32.565,0.0179882,-0.0101417,0.0199652,0.0283452,-0.0204987,0.478537,0.0283211,0.0471138,1294,428,4.3313,32.565
77,596,4.19458,-31.955,0.0210653,-0.00447416,0.0213999,0.0332158,-0.0166247,0.516397,0.0293021,0.0452841,1301,428,4.19458,31.955
84,596,4.00757,-31.3986,0,0,0,0,0,0,0,-1,1308,428,4.00758,31.3986
91,596,2.74585,-30.2064,0,0,0,0,0,0,0,-1,1315,428,2.7459,30.2064
98,596,2.04553,-29.03,0,0,0,0,0,0,0,-1,1322,428,2.04558,29.03
105,596,5.51855,-32.9939,0,0,0,0,0,0,0,-1,1329,428,5.51856,32.9939
112,596,5.35205,-32.6478,0,0,0,0,0,0,0,-1,1336,428,5.35205,32.6478
119,596,5.60303,-32.4625,0,0,0,0,0,0,0,-1,1343,428,5.60308,32.4625
126,596,5.38672,-31.9124,0,0,0,0,0,0,0,-1,1350,428,5.38671,31.9124
133,596,5.37097,-32.1082,0,0,0,0,0,0,0,-1,1357,428,5.37103,32.1082
140,596,5.65662,-32.0248,0,0,0,0,0,0,0,-1,1364,428,5.65665,32.0248
147,596,5.43347,-31.9204,0,0,0,0,0,0,0,-1,1371,428,5.43343,31.9204
154,596,5.11279,-31.9739,0,0,0,0,0,0,0,-1,1378,428,5.11277,31.9739
161,596,5.34546,-31.6518,0,0,0,0,0,0,0,-1,1385,428,5.34543,31.6518
168,596,5.60583,-31.6946,0,0,0,0,0,0,0,-1,1392,428,5.60579,31.6947
175,596,5.77222,-31.5323,0,0,0,0,0,0,0,-1,1399,428,5.77219,31.5323
182,596,5.93079,-31.5783,0,0,0,0,0,0,0,-1,1406,428,5.9308,31.5783
189,596,5.82581,-31.3527,0,0,0,0,0,0,0,-1,1413,428,5.8258,31.3527
196,596,5.75598,-30.9163,0,0,0,0,0,0,0,-1,1420,428,5.75595,30.9163
203,596,5.67249,-30.9478,0,0,0,0,0,0,0,-1,1427,428,5.67248,30.9478
210,596,5.72571,-30.8684,0,0,0,0,0,0,0,-1,1434,428,5.72568,30.8685
217,596,5.76575,-30.52,0,0,0,0,0,0,0,-1,1441,428,5.76575,30.52
224,596,5.76367,-30.4374,0.00370921,0.00138137,0.000270093,0.00374014,0.00135044,0.11401,0.00218698,0.0451898,1448,428,5.76367,30.4374
231,596,5.88586,-29.974,0.00324283,0.0021469,0.00074087,0.00361636,0.00177337,0.466985,0.00208804,0.0172508,1455,428,5.88587,29.974
238,596,5.89856,-29.6836,0.00303878,0.00258794,0.00104067,0.00387817,0.00174855,0.678742,0.00224266,0.0153238,1462,428,5.89859,29.6836
245,596,5.91345,-29.3975,0.0029481,0.00278386,0.00110075,0.00396979,0.00176217,0.748166,0.00229676,0.0137102,1469,428,5.9134,29.3974
252,596,5.91077,-29.077,0.00266524,0.00268992,0.00101024,0.0036879,0.00166727,0.791505,0.00213246,0.0103968,1476,428,5.91075,29.077
259,596,5.89392,-28.7606,0.00228242,0.00247877,0.000873905,0.00326,0.00150119,0.841334,0.00188412,0.00853482,1483,428,5.89396,28.7606
266,596,5.9043,-28.4499,0.00197722,0.00224718,0.000754953,0.00287913,0.00134528,0.873859,0.00166345,0.00929066,1490,428,5.90424,28.4499
273,596,5.92529,-28.112,0.00176687,0.00221153,0.000746448,0.00276806,0.00121034,0.93014,0.00160233,0.011122,1497,428,5.92527,28.112
280,596,5.92712,-27.7809,0.00151608,0.00200337,0.000732815,0.00253198,0.000987468,0.945888,0.00147359,0.0124115,1504,428,5.92717,27.781
287,596,5.92151,-27.4368,0.00155467,0.00197237,0.000929926,0.00271661,0.000810428,0.89586,0.0016104,0.011705,1511,428,5.92157,27.4368
294,596,5.89575,-27.0806,0.00172141,0.00184255,0.00113811,0.00292171,0.000642257,0.811984,0.00177293,0.0086991,1518,428,5.89572,27.0806
301,596,5.90979,-26.7268,0.00205553,0.00167647,0.00144713,0.00332549,0.000406514,0.720285,0.00209468,0.00980969,1525,428,5.90984,26.7268
308,596,5.92932,-26.3505,0.00258405,0.00136595,0.00184895,0.00392169,2.83222e-05,0.626294,0.00260507,0.0162303,1532,428,5.92935,26.3505
315,596,5.89441,-25.9841,0.00318763,0.000955357,0.00222538,0.00456109,-0.0004181,0.552955,0.00318924,0.0157959,1539,428,5.89441,25.9841
322,596,5.89392,-25.5856,0.00378292,0.000536928,0.00260602,0.00523002,-0.000910167,0.506895,0.00382632,0.0130639,1546,428,5.8939,25.5856
329,596,5.87927,-25.1955,0.00431765,6.89382e-05,0.00294903,0.00582781,-0.00144122,0.473269,0.0044442,0.0101374,1553,428,5.87921,25.1955
336,596,5.8385,-24.8319,0.00467932,-0.000349448,0.00320113,0.00623548,-0.00190561,0.45249,0.00491686,0.00897901,1560,428,5.83854,24.8319
343,596,5.83264,-24.4423,0.00492453,-0.000540903,0.00342066,0.00657002,-0.00218639,0.448368,0.00526245,0.011225,1567,428,5.83268,24.4423
350,596,5.82727,-24.0121,0.00498084,-0.000175102,0.00373668,0.00694255,-0.00213681,0.483437,0.00548128,0.0115893,1574,428,5.82732,24.0121
357,596,5.80286,-23.5776,0.00463704,0.000262234,0.00397002,0.00698239,-0.00208311,0.5336,0.00548283,0.0100034,1581,428,5.80282,23.5776
364,596,5.77344,-23.1229,0.00399425,0.000858835,0.00407415,0.00679191,-0.00193882,0.601734,0.00529391,0.0150378,1588,428,5.77342,23.1229
371,596,5.76929,-22.7181,0.00316906,0.00180047,0.00411482,0.0066561,-0.00168656,0.703002,0.00509353,0.0227937,1595,428,5.76924,22.7181
378,596,5.70007,-22.3855,0.00223799,0.00342443,0.00433596,0.00720757,-0.00154514,0.853383,0.00539437,0.0303959,1602,428,5.7001,22.3855
385,596,5.59875,-21.8945,-7.31118e-05,0.00624305,0.00430187,0.0084216,-0.00225166,1.10203,0.00649635,0.0429372,1609,428,5.59876,21.8945
392,596,5.63135,-21.0858,0,0,0,0,0,0,0,-1,1616,428,5.63134,21.0858
399,596,5.52869,-20.3678,0,0,0,0,0,0,0,-1,1623,428,5.52875,20.3678
406,596,3.60034,-10.1525,0,0,0,0,0,0,0,-1,1630,428,3.60028,10.1525
413,596,3.39124,-2.63528,0,0,0,0,0,0,0,-1,1637,428,3.39122,2.6353
420,596,2.6344,-3.06308,0,0,0,0,0,0,0,-1,1644,428,2.63439,3.06308
427,596,2.99329,-1.90512,0,0,0,0,0,0,0,-1,1651,428,2.99327,1.90512
434,596,3.80896,-0.253998,0,0,0,0,0,0,0,-1,1658,428,3.80902,0.254004
441,596,3.86401,-0.131622,0,0,0,0,0,0,0,-1,1665,428,3.86406,0.131613
448,596,1.0769,0.0083313,0,0,0,0,0,0,0,-1,1672,428,1.07684,-0.00832231
455,596,2.00769,-1.43329,0,0,0,0,0,0,0,-1,1679,428,2.00765,1.4333
462,596,0,0,0,0,0,0,0,0,0,-1,1686,428,0,0
469,596,0,0,0,0,0,0,0,0,0,-1,1693,428,0,0
476,596,0,0,0,0,0,0,0,0,0,-1,1700,428,0,0
483,596,0,0,0,0,0,0,0,0,0,-1,1707,428,0,0
490,596,0,0,0,0,0,0,0,0,0,-1,1714,428,0,0
497,596,0,0,0,0,0,0,0,0,0,-1,1721,428,0,0
504,596,0,0,0,0,0,0,0,0,0,-1,1728,428,0,0
511,596,0,0,0,0,0,0,0,0,0,-1,1735,428,0,0
518,596,0,0,0,0,0,0,0,0,0,-1,1742,428,0,0
525,596,0,0,0,0,0,0,0,0,0,-1,1749,428,0,0
532,596,0,0,0,0,0,0,0,0,0,-1,1756,428,0,0
539,596,0,0,0,0,0,0,0,0,0,-1,1763,428,0,0
546,596,0,0,0,0,0,0,0,0,0,-1,1770,428,0,0
553,596,0,0,0,0,0,0,0,0,0,-1,1777,428,0,0
560,596,0,0,0,0,0,0,0,0,0,-1,1784,428,0,0
567,596,0,0,0,0,0,0,0,0,0,-1,1791,428,0,0
574,596,0,0,0,0,0,0,0,0,0,-1,1798,428,0,0
581,596,0,0,0,0,0,0,0,0,0,-1,1805,428,0,0
588,596,0,0,0,0,0,0,0,0,0,-1,1812,428,0,0
595,596,0,0,0,0,0,0,0,0,0,-1,1819,428,0,0
602,596,0,0,0,0,0,0,0,0,0,-1,1826,428,0,0
609,596,0,0,0,0,0,0,0,0,0,-1,1833,428,0,0
616,596,0,0,0,0,0,0,0,0,0,-1,1840,428,0,0
623,596,0,0,0,0,0,0,0,0,0,-1,1847,428,0,0
630,596,0,0,0,0,0,0,0,0,0,-1,1854,428,0,0
637,596,0,0,0,0,0,0,0,0,0,-1,1861,428,0,0
644,596,0,0,0,0,0,0,0,0,0,-1,1868,428,0,0
651,596,0,0,0,0,0,0,0,0,0,-1,1875,428,0,0
658,596,0,0,0,0,0,0,0,0,0,-1,1882,428,0,0
665,596,0,0,0,0,0,0,0,0,0,-1,1889,428,0,0
672,596,0,0,0,0,0,0,0,0,0,-1,1896,428,0,0
679,596,0,0,0,0,0,0,0,0,0,-1,1903,428,0,0
686,596,0,0,0,0,0,0,0,0,0,-1,1910,428,0,0
693,596,0,0,0,0,0,0,0,0,0,-1,1917,428,0,0
700,596,0,0,0,0,0,0,0,0,0,-1,1924,428,0,0
707,596,0,0,0,0,0,0,0,0,0,-1,1931,428,0,0
714,596,0,0,0,0,0,0,0,0,0,-1,1938,428,0,0
721,596,0,0,0,0,0,0,0,0,0,-1,1945,428,0,0
728,596,0,0,0,0,0,0,0,0,0,-1,1952,428,0,0
735,596,0,0,0,0,0,0,0,0,0,-1,1959,428,0,0
742,596,0,0,0,0,0,0,0,0,0,-1,1966,428,0,0
749,596,0,0,0,0,0,0,0,0,0,-1,1973,428,0,0
756,596,0,0,0,0,0,0,0,0,0,-1,1980,428,0,0
763,596,0,0,0,0,0,0,0,0,0,-1,1987,428,0,0
770,596,0,0,0,0,0,0,0,0,0,-1,1994,428,0,0
777,596,0,0,0,0,0,0,0,0,0,-1,2001,428,0,0
784,596,0,0,0,0,0,0,0,0,0,-1,2008,428,0,0
791,596,0,0,0,0,0,0,0,0,0,-1,2015,428,0,0
798,596,0,0,0,0,0,0,0,0,0,-1,2022,428,0,0
805,596,0,0,0,0,0,0,0,0,0,-1,2029,428,0,0
812,596,0,0,0,0,0,0,0,0,0,-1,2036,428,0,0
-700,589,0,0,0,0,0,0,0,0,0,-1,524,435,0,0
-693,589,0,0,0,0,0,0,0,0,0,-1,531,435,0,0
-686,589,0,0,0,0,0,0,0,0,0,-1,538,435,0,0
-679,589,0,0,0,0,0,0,0,0,0,-1,545,435,0,0
-672,589,0,0,0,0,0,0,0,0,0,-1,552,435,0,0
-665,589,0,0,0,0,0,0,0,0,0,-1,559,435,0,0
-658,589,0,0,0,0,0,0,0,0,0,-1,566,435,0,0
-651,589,0,0,0,0,0,0,0,0,0,-1,573,435,0,0
-644,589,0,0,0,0,0,0,0,0,0,-1,580,435,0,0
-637,589,0,0,0,0,0,0,0,0,0,-1,587,435,0,0
-630,589,0,0,0,0,0,0,0,0,0,-1,594,435,0,0
-623,589,0,0,0,0,0,0,0,0,0,-1,601,435,0,0
-616,589,0,0,0,0,0,0,0,0,0,-1,608,435,0,0
-609,589,0,0,0,0,0,0,0,0,0,-1,615,435,0,0
-602,589,0,0,0,0,0,0,0,0,0,-1,622,435,0,0
-595,589,0,0,0,0,0,0,0,0,0,-1,629,435,0,0
-588,589,0,0,0,0,0,0,0,0,0,-1,636,435,0,0
-581,589,0,0,0,0,0,0,0,0,0,-1,643,435,0,0
-574,589,0,0,0,0,0,0,0,0,0,-1,650,435,0,0
-567,589,0,0,0,0,0,0,0,0,0,-1,657,435,0,0
-560,589,0,0,0,0,0,0,0,0,0,-1,664,435,0,0
-553,589,0,0,0,0,0,0,0,0,0,-1,671,435,0,0
-546,589,0,0,0,0,0,0,0,0,0,-1,678,435,0,0
-539,589,0,0,0,0,0,0,0,0,0,-1,685,435,0,0
-532,589,0,0,0,0,0,0,0,0,0,-1,692,435,0,0
-525,589,0,0,0,0,0,0,0,0,0,-1,699,435,0,0
-518,589,0,0,0,0,0,0,0,0,0,-1,706,435,0,0
-511,589,0,0,0,0,0,0,0,0,0,-1,713,435,0,0
-504,589,0,0,0,0,0,0,0,0,0,-1,720,435,0,0
-497,589,0,0,0,0,0,0,0,0,0,-1,727,435,0,0
-490,589,0,0,0,0,0,0,0,0,0,-1,734,435,0,0
-483,589,0,0,0,0,0,0,0,0,0,-1,741,435,0,0
-476,589,0,0,0,0,0,0,0,0,0,-1,748,435,0,0
-469,589,0,0,0,0,0,0,0,0,0,-1,755,435,0,0
-462,589,0,0,0,0,0,0,0,0,0,-1,762,435,0,0
-455,589,0,0,0,0,0,0,0,0,0,-1,769,435,0,0
-448,589,0,0,0,0,0,0,0,0,0,-1,776,435,0,0
-441,589,0,0,0,0,0,0,0,0,0,-1,783,435,0,0
-434,589,0,0,0,0,0,0,0,0,0,-1,790,435,0,0
-427,589,0,0,0,0,0,0,0,0,0,-1,797,435,0,0
-420,589,0,0,0,0,0,0,0,0,0,-1,804,435,0,0
-413,589,0,0,0,0,0,0,0,0,0,-1,811,435,0,0
-406,589,0,0,0,0,0,0,0,0,0,-1,818,435,0,0
-399,589,0,0,0,0,0,0,0,0,0,-1,825,435,0,0
-392,589,0,0,0,0,0,0,0,0,0,-1,832,435,0,0
-385,589,0,0,0,0,0,0,0,0,0,-1,839,435,0,0
-378,589,0,0,0,0,0,0,0,0,0,-1,846,435,0,0
-371,589,0,0,0,0,0,0,0,0,0,-1,853,435,0,0
-364,589,0,0,0,0,0,0,0,0,0,-1,860,435,0,0
-357,589,0,0,0,0,0,0,0,0,0,-1,867,435,0,0
-350,589,-0.799927,-20.664,0,0,0,0,0,0,0,-1,874,435,-0.799952,20.664
-343,589,-0.370911,-19.1543,0,0,0,0,0,0,0,-1,881,435,-0.370922,19.1543
-336,589,-0.836914,-18.9103,0,0,0,0,0,0,0,-1,888,435,-0.836925,18.9103
-329,589,2.58252,-16.902,0,0,0,0,0,0,0,-1,895,435,2.58251,16.902
-322,589,3.07397,-18.5277,0,0,0,0,0,0,0,-1,902,435,3.07397,18.5277
-315,589,3.39478,-19.5505,0,0,0,0,0,0,0,-1,909,435,3.39478,19.5505
-308,589,0.164307,-21.0978,0,0,0,0,0,0,0,-1,916,435,0.164303,21.0978
-301,589,1.07855,-21.0904,0,0,0,0,0,0,0,-1,923,435,1.07855,21.0904
-294,589,2.01825,-21.0455,0.0719304,-0.0254215,-0.020006,0.0758813,-0.0293725,-0.194978,0.0627147,0.0444953,930,435,2.01827,21.0455
-287,589,2.63153,-21.1252,0.0635349,-0.024118,-0.0151304,0.0660731,-0.0266562,-0.166211,0.055126,0.0424459,937,435,2.63153,21.1253
-280,589,2.90802,-21.4936,0.0562447,-0.0220097,-0.0115934,0.0579261,-0.0236911,-0.144029,0.0484838,0.033508,944,435,2.90802,21.4936
-273,589,2.96948,-21.9828,0.0495207,-0.0195861,-0.00889493,0.0506473,-0.0207127,-0.125977,0.0423908,0.0189339,951,435,2.96947,21.9828
-266,589,2.91748,-22.4095,0.0422829,-0.017196,-0.00620286,0.0429229,-0.017836,-0.102813,0.0360621,0.0172912,958,435,2.91749,22.4095
-259,589,2.84808,-22.8363,0.0359405,-0.0138618,-0.00488199,0.0364146,-0.0143359,-0.0967995,0.0302109,0.0152544,965,435,2.84806,22.8363
-252,589,2.87256,-23.3299,0.0299657,-0.0103573,-0.00397257,0.0303533,-0.0107449,-0.0972728,0.0246119,0.0100214,972,435,2.87255,23.3299
-245,589,2.8952,-23.7317,0.0240509,-0.0070839,-0.003272,0.024391,-0.00742404,-0.103584,0.0192194,0.0100474,979,435,2.89519,23.7317
-238,589,2.87579,-24.1174,0.0183756,-0.00396789,-0.0025683,0.0186671,-0.00425931,-0.112983,0.0140809,0.0136592,986,435,2.87578,24.1174
-231,589,2.83112,-24.5122,0.0133817,-0.00144278,-0.00215352,0.0136882,-0.00174928,-0.141376,0.00976092,0.0146748,993,435,2.83114,24.5122
-224,589,2.79218,-24.9198,0.00917445,0.000463283,-0.00181358,0.00953694,0.000100797,-0.197274,0.00632463,0.0138877,1000,435,2.79219,24.9198
-217,589,2.79395,-25.3175,0.0056029,0.00193534,-0.00142831,0.00609351,0.00144472,-0.330868,0.00367663,0.0145327,1007,435,2.79392,25.3175
-210,589,2.81421,-25.693,0.00169549,0.00348066,-0.00121934,0.00409921,0.00107695,-1.10135,0.0024539,0.0144628,1014,435,2.81419,25.693
-203,589,2.8064,-26.039,-0.000733904,0.0035028,-0.000834791,0.00366136,-0.000892456,-1.3831,0.00278644,0.0110398,1021,435,2.80642,26.039
-196,589,2.77625,-26.3815,-0.000733646,0.00217165,-0.000351568,0.00221359,-0.000775583,-1.45207,0.00179113,0.01354,1028,435,2.77626,26.3815
-189,589,2.7373,-26.7597,-0.000772093,0.000874049,9.07128e-05,0.000879033,-0.000777077,1.51591,0.00095676,0.0176804,1035,435,2.73732,26.7597
-182,589,2.76025,-27.0833,-0.000737474,-0.000331837,0.000551146,5.26237e-05,-0.00112193,0.961705,0.0007661,0.0122526,1042,435,2.76031,27.0833
-175,589,2.7677,-27.4325,-0.000718823,-0.00205443,0.00114913,-5.7539e-05,-0.00271571,0.522182,0.0017916,0.0150493,1049,435,2.76774,27.4325
-168,589,2.78833,-27.7907,-0.000754609,-0.00380169,0.00171656,1.70057e-05,-0.00457331,0.422449,0.00305455,0.0130442,1056,435,2.78831,27.7908
-161,589,2.77917,-28.1082,-0.000803929,-0.0055893,0.00224949,8.74593e-05,-0.00648068,0.377281,0.0043499,0.0122686,1063,435,2.77915,28.1082
-154,589,2.76929,-28.4116,-0.000693965,-0.0071534,0.00269724,0.000284185,-0.00813155,0.347899,0.0055182,0.0127565,1070,435,2.76926,28.4116
-147,589,2.80078,-28.7156,-0.00040225,-0.00865173,0.00297651,0.000559567,-0.00961355,0.312545,0.00660346,0.0134741,1077,435,2.80083,28.7156
-140,589,2.8219,-28.9963,-6.21275e-05,-0.0101075,0.00315727,0.00084779,-0.0110174,0.280594,0.00764321,0.0151301,1084,435,2.82192,28.9963
-133,589,2.823,-29.2994,0.000243543,-0.0117517,0.00329999,0.00109146,-0.0125996,0.251505,0.00878621,0.0149774,1091,435,2.82295,29.2994
-126,589,2.83325,-29.606,0.000715873,-0.0132755,0.00330431,0.00145699,-0.0140166,0.220636,0.00986601,0.0125974,1098,435,2.83327,29.606
-119,589,2.84534,-29.8798,0.00142836,-0.0141255,0.00296154,0.00197317,-0.0146703,0.181928,0.0104999,0.0200962,1105,435,2.84529,29.8798
-112,589,2.87463,-30.1253,0.00218211,-0.0148084,0.00254404,0.00255486,-0.0151811,0.145483,0.0110711,0.0202431,1112,435,2.87463,30.1253
-105,589,2.87061,-30.4329,0.00322672,-0.0151226,0.00181467,0.00340446,-0.0153003,0.0976355,0.0115042,0.0213578,1119,435,2.8706,30.4329
-98,589,2.98816,-30.76,0.00443521,-0.0148588,0.000863451,0.00447377,-0.0148974,0.0446334,0.0117112,0.0403467,1126,435,2.9882,30.76
-91,589,2.90234,-31.1696,0,0,0,0,0,0,0,-1,1133,435,2.9023,31.1696
-84,589,2.76538,-22.6013,0,0,0,0,0,0,0,-1,1140,435,2.76539,22.6014
-77,589,2.18152,-14.8023,0,0,0,0,0,0,0,-1,1147,435,2.18155,14.8023
-70,589,1.48267,-9.90961,0,0,0,0,0,0,0,-1,1154,435,1.48264,9.9096
-63,589,0.880127,-5.50586,0,0,0,0,0,0,0,-1,1161,435,0.880186,5.50587
-56,589,-2.78052,-7.28082,0,0,0,0,0,0,0,-1,1168,435,-2.78053,7.28082
-49,589,-0.525757,-2.76703,0,0,0,0,0,0,0,-1,1175,435,-0.525771,2.76702
-42,589,-2.7738,-2.87921,0,0,0,0,0,0,0,-1,1182,435,-2.77383,2.87922
-35,589,-2.55225,-3.27551,0,0,0,0,0,0,0,-1,1189,435,-2.55223,3.27552
-28,589,-0.0632324,-3.42938,0,0,0,0,0,0,0,-1,1196,435,-0.063241,3.42938
-21,589,3.29968,-32.433,0,0,0,0,0,0,0,-1,1203,435,3.29969,32.433
-14,589,3.43726,-32.3024,-0.00373274,-0.0160592,0.0239148,0.0148002,-0.0345922,0.659284,0.02927,0.0475424,1210,435,3.4373,32.3024
-7,589,3.5896,-32.1623,0,0,0,0,0,0,0,-1,1217,435,3.58964,32.1623
0,589,2.29993,-32.72,0,0,0,0,0,0,0,-1,1224,435,2.29991,32.72
7,589,2.62585,-32.6805,0.000428124,-0.0277902,0.0241534,0.0142914,-0.0416534,0.521057,0.0335628,0.0476443,1231,435,2.6259,32.6805
14,589,2.95288,-32.6067,0.00288209,-0.0313001,0.0232315,0.0146321,-0.04305,0.46826,0.0346238,0.0447153,1238,435,2.95292,32.6067
21,589,3.25623,-32.5394,0,0,0,0,0,0,0,-1,1245,435,3.25625,32.5394
28,589,4.08215,-32.0361,0,0,0,0,0,0,0,-1,1252,435,4.08215,32.0361
35,589,4.42236,-32.0364,0,0,0,0,0,0,0,-1,1259,435,4.42242,32.0364
42,589,4.25403,-31.5082,0,0,0,0,0,0,0,-1,1266,435,4.25407,31.5082
49,589,4.94495,-33.2527,0,0,0,0,0,0,0,-1,1273,435,4.9449,33.2527
56,589,5.34131,-33.3664,0,0,0,0,0,0,0,-1,1280,435,5.34131,33.3664
63,589,4.97913,-33.0258,0,0,0,0,0,0,0,-1,1287,435,4.97917,33.0258
70,589,4.74597,-32.8794,0.0246772,-0.0105012,0.0259025,0.038398,-0.024222,0.487132,0.0364612,0.0452169,1294,435,4.74599,32.8794
77,589,4.50549,-32.0466,0.0290828,-0.00309751,0.0278521,0.0451583,-0.019173,0.523467,0.0381383,0.0418368,1301,435,4.50544,32.0466
84,589,3.99255,-31.023,0.0341286,0.00382685,0.0292892,0.0519536,-0.0139981,0.546708,0.0401241,0.0428878,1308,435,3.99252,31.023
91,589,3.16846,-29.8867,0.0396269,0.00993953,0.0307225,0.0589037,-0.00933726,0.560358,0.042723,0.0451301,1315,435,3.16851,29.8867
98,589,2.46545,-28.6974,0,0,0,0,0,0,0,-1,1322,435,2.46542,28.6974
105,589,1.78906,-27.5111,0,0,0,0,0,0,0,-1,1329,435,1.7891,27.5111
112,589,3.83875,-23.6481,0,0,0,0,0,0,0,-1,1336,435,3.83874,23.6481
119,589,5.06909,-31.5714,0,0,0,0,0,0,0,-1,1343,435,5.06905,31.5713
126,589,4.15552,-31.39,0,0,0,0,0,0,0,-1,1350,435,4.15555,31.39
133,589,5.48694,-31.2946,0,0,0,0,0,0,0,-1,1357,435,5.48689,31.2946
140,589,5.56873,-31.3527,0,0,0,0,0,0,0,-1,1364,435,5.56869,31.3527
147,589,5.58496,-31.3524,0,0,0,0,0,0,0,-1,1371,435,5.58495,31.3524
154,589,5.60083,-31.2344,0,0,0,0,0,0,0,-1,1378,435,5.60089,31.2344
161,589,5.48914,-31.1993,0,0,0,0,0,0,0,-1,1385,435,5.4891,31.1993
168,589,5.89319,-30.8319,0,0,0,0,0,0,0,-1,1392,435,5.89317,30.8319
175,589,8.66992,-7.65527,0,0,0,0,0,0,0,-1,1399,435,8.66994,7.65528
182,589,3.8136,-2.45389,0,0,0,0,0,0,0,-1,1406,435,3.81363,2.4539
189,589,3.69983,-3.68149,0,0,0,0,0,0,0,-1,1413,435,3.69987,3.68147
196,589,3.31055,-5.31677,0,0,0,0,0,0,0,-1,1420,435,3.31059,5.31678
203,589,2.72559,-8.84338,0,0,0,0,0,0,0,-1,1427,435,2.72558,8.84338
210,589,3.62378,-14.4032,0,0,0,0,0,0,0,-1,1434,435,3.62378,14.4032
217,589,4.65601,-22.3745,0,0,0,0,0,0,0,-1,1441,435,4.65607,22.3745
224,589,6.20349,-30.8027,0,0,0,0,0,0,0,-1,1448,435,6.2035,30.8027
231,589,6.22986,-30.2312,0,0,0,0,0,0,0,-1,1455,435,6.22987,30.2312
238,589,6.17151,-29.785,0.00391293,0.00350404,0.00119619,0.00492201,0.00249495,0.700759,0.00284182,0.0474718,1462,435,6.17145,29.785
245,589,6.19165,-29.3392,0.00388185,0.00338881,0.00113389,0.0047957,0.00247495,0.678359,0.00276928,0.0291604,1469,435,6.19159,29.3392
252,589,6.2124,-29.0365,0.00357815,0.00276608,0.000867088,0.00412956,0.00221467,0.566427,0.0023863,0.0146067,1476,435,6.21241,29.0365
259,589,6.21582,-28.759,0.00313719,0.00205164,0.000528627,0.00335208,0.00183676,0.386098,0.00193829,0.0099959,1483,435,6.21582,28.759
266,589,6.23376,-28.4247,0.00278685,0.00137522,0.000209821,0.00281738,0.00134469,0.144477,0.00162717,0.00978437,1490,435,6.23375,28.4247
273,589,6.24805,-28.1195,0.00256121,0.00102346,7.16192e-05,0.00256454,0.00102014,0.0464403,0.00149091,0.0116099,1497,435,6.24804,28.1195
280,589,6.24902,-27.7944,0.00207938,0.000643252,-9.39726e-05,0.0020855,0.000637129,-0.0650651,0.00123406,0.0126203,1504,435,6.24908,27.7944
287,589,6.26575,-27.4623,0.00180504,0.000643928,-2.67473e-05,0.00180566,0.000643312,-0.0230197,0.00105675,0.0116043,1511,435,6.26571,27.4623
294,589,6.26074,-27.0885,0.00175953,0.00053001,7.6638e-05,0.00176429,0.000525252,0.0620115,0.00104603,0.00958154,1518,435,6.26071,27.0885
301,589,6.27136,-26.7203,0.00183638,0.000376031,0.000272854,0.0018857,0.000326716,0.178808,0.00116362,0.010406,1525,435,6.27133,26.7203
308,589,6.2887,-26.3485,0.00206813,0.000178777,0.000577595,0.00223072,1.61913e-05,0.274387,0.00148178,0.0110284,1532,435,6.28873,26.3485
315,589,6.28491,-25.9665,0.00232381,1.02772e-06,0.000872156,0.00261483,-0.000289988,0.322057,0.00184748,0.0105605,1539,435,6.28493,25.9665
322,589,6.29639,-25.5904,0.00258606,-0.000138954,0.00119452,0.00303554,-0.000588433,0.359897,0.00224569,0.0112012,1546,435,6.29639,25.5904
329,589,6.26636,-25.2099,0.00285015,-0.000273133,0.00153545,0.00347856,-0.000901547,0.388472,0.00267077,0.0102251,1553,435,6.26638,25.2099
336,589,6.24268,-24.8376,0.00300912,-0.000353719,0.00183579,0.00381713,-0.00116173,0.41463,0.00300774,0.0094961,1560,435,6.24272,24.8376
343,589,6.23792,-24.4606,0.00306262,-0.000223997,0.00211197,0.00409529,-0.00125667,0.454779,0.00323159,0.0108595,1567,435,6.23789,24.4606
350,589,6.22888,-24.0529,0.00298437,0.000393341,0.00248455,0.00449088,-0.00111317,0.545076,0.0034258,0.0164204,1574,435,6.22889,24.0529
357,589,6.21069,-23.5853,0.00264525,0.00111023,0.0028271,0.00480716,-0.00105169,0.652852,0.00360681,0.0140004,1581,435,6.21071,23.5853
364,589,6.20313,-23.1468,0.00211287,0.00192347,0.00309095,0.00511057,-0.00107423,0.770084,0.00381586,0.0112895,1588,435,6.20309,23.1468
371,589,6.16919,-22.7197,0.00146251,0.00297227,0.0033102,0.00561258,-0.00117779,0.897504,0.00418986,0.0111253,1595,435,6.16919,22.7197
378,589,6.15967,-22.2805,0.000753754,0.00439841,0.00359881,0.00660997,-0.00145781,1.01976,0.00496445,0.012497,1602,435,6.15965,22.2804
385,589,6.13025,-21.8112,-0.000697174,0.00635229,0.00366314,0.00791109,-0.00225598,1.16847,0.00616521,0.0161239,1609,435,6.13026,21.8111
392,589,6.08215,-21.2755,-0.00233088,0.00854985,0.0036908,0.00968364,-0.00346468,1.27275,0.00786914,0.0210973,1616,435,6.08216,21.2755
399,589,6.06348,-20.6774,-0.00210065,0.00953884,0.00421006,0.010902,-0.0034638,1.25766,0.00865676,0.0342134,1623,435,6.06351,20.6774
406,589,6.05884,-20.22,0,0,0,0,0,0,0,-1,1630,435,6.05878,20.22
413,589,5.61377,-19.0606,0,0,0,0,0,0,0,-1,1637,435,5.61372,19.0606
420,589,2.79724,-5.79956,0,0,0,0,0,0,0,-1,1644,435,2.7973,5.79955
427,589,5.64001,-19.0324,0,0,0,0,0,0,0,-1,1651,435,5.63997,19.0324
434,589,2.52734,-2.73029,0,0,0,0,0,0,0,-1,1658,435,2.52736,2.73029
441,589,3.17639,-2.02435,0,0,0,0,0,0,0,-1,1665,435,3.17643,2.02435
448,589,0.453735,-3.2868,0,0,0,0,0,0,0,-1,1672,435,0.453701,3.28681
455,589,0.664307,-3.46848,0,0,0,0,0,0,0,-1,1679,435,0.66425,3.46846
462,589,3.46716,-4.41891,0,0,0,0,0,0,0,-1,1686,435,3.4672,4.41891
469,589,0.0238037,-3.81497,0,0,0,0,0,0,0,-1,1693,435,0.0237965,3.81498
476,589,0,0,0,0,0,0,0,0,0,-1,1700,435,0,0
483,589,0,0,0,0,0,0,0,0,0,-1,1707,435,0,0
490,589,0,0,0,0,0,0,0,0,0,-1,1714,435,0,0
497,589,0,0,0,0,0,0,0,0,0,-1,1721,435,0,0
504,589,0,0,0,0,0,0,0,0,0,-1,1728,435,0,0
511,589,0,0,0,0,0,0,0,0,0,-1,1735,435,0,0
518,589,0,0,0,0,0,0,0,0,0,-1,1742,435,0,0
525,589,0,0,0,0,0,0,0,0,0,-1,1749,435,0,0
532,589,0,0,0,0,0,0,0,0,0,-1,1756,435,0,0
539,589,0,0,0,0,0,0,0,0,0,-1,1763,435,0,0
546,589,0,0,0,0,0,0,0,0,0,-1,1770,435,0,0
553,589,0,0,0,0,0,0,0,0,0,-1,1777,435,0,0
560,589,0,0,0,0,0,0,0,0,0,-1,1784,435,0,0
567,589,0,0,0,0,0,0,0,0,0,-1,1791,435,0,0
574,589,0,0,0,0,0,0,0,0,0,-1,1798,435,0,0
581,589,0,0,0,0,0,0,0,0,0,-1,1805,435,0,0
588,589,0,0,0,0,0,0,0,0,0,-1,1812,435,0,0
595,589,0,0,0,0,0,0,0,0,0,-1,1819,435,0,0
602,589,0,0,0,0,0,0,0,0,0,-1,1826,435,0,0
609,589,0,0,0,0,0,0,0,0,0,-1,1833,435,0,0
616,589,0,0,0,0,0,0,0,0,0,-1,1840,435,0,0
623,589,0,0,0,0,0,0,0,0,0,-1,1847,435,0,0
630,589,0,0,0,0,0,0,0,0,0,-1,1854,435,0,0
637,589,0,0,0,0,0,0,0,0,0,-1,1861,435,0,0
644,589,0,0,0,0,0,0,0,0,0,-1,1868,435,0,0
651,589,0,0,0,0,0,0,0,0,0,-1,1875,435,0,0
658,589,0,0,0,0,0,0,0,0,0,-1,1882,435,0,0
665,589,0,0,0,0,0,0,0,0,0,-1,1889,435,0,0
672,589,0,0,0,0,0,0,0,0,0,-1,1896,435,0,0
679,589,0,0,0,0,0,0,0,0,0,-1,1903,435,0,0
686,589,0,0,0,0,0,0,0,0,0,-1,1910,435,0,0
693,589,0,0,0,0,0,0,0,0,0,-1,1917,435,0,0
700,589,0,0,0,0,0,0,0,0,0,-1,1924,435,0,0
707,589,0,0,0,0,0,0,0,0,0,-1,1931,435,0,0
714,589,0,0,0,0,0,0,0,0,0,-1,1938,435,0,0
721,589,0,0,0,0,0,0,0,0,0,-1,1945,435,0,0
728,589,0,0,0,0,0,0,0,0,0,-1,1952,435,0,0
735,589,0,0,0,0,0,0,0,0,0,-1,1959,435,0,0
742,589,0,0,0,0,0,0,0,0,0,-1,1966,435,0,0
749,589,0,0,0,0,0,0,0,0,0,-1,1973,435,0,0
756,589,0,0,0,0,0,0,0,0,0,-1,1980,435,0,0
763,589,0,0,0,0,0,0,0,0,0,-1,1987,435,0,0
770,589,0,0,0,0,0,0,0,0,0,-1,1994,435,0,0
777,589,0,0,0,0,0,0,0,0,0,-1,2001,435,0,0
784,589,0,0,0,0,0,0,0,0,0,-1,2008,435,0,0
791,589,0,0,0,0,0,0,0,0,0,-1,2015,435,0,0
798,589,0,0,0,0,0,0,0,0,0,-1,2022,435,0,0
805,589,0,0,0,0,0,0,0,0,0,-1,2029,435,0,0
812,589,0,0,0,0,0,0,0,0,0,-1,2036,435,0,0
-700,582,0,0,0,0,0,0,0,0,0,-1,524,442,0,0
-693,582,0,0,0,0,0,0,0,0,0,-1,531,442,0,0
-686,582,0,0,0,0,0,0,0,0,0,-1,538,442,0,0
-679,582,0,0,0,0,0,0,0,0,0,-1,545,442,0,0
-672,582,0,0,0,0,0,0,0,0,0,-1,552,442,0,0
-665,582,0,0,0,0,0,0,0,0,0,-1,559,442,0,0
-658,582,0,0,0,0,0,0,0,0,0,-1,566,442,0,0
-651,582,0,0,0,0,0,0,0,0,0,-1,573,442,0,0
-644,582,0,0,0,0,0,0,0,0,0,-1,580,442,0,0
-637,582,0,0,0,0,0,0,0,0,0,-1,587,442,0,0
-630,582,0,0,0,0,0,0,0,0,0,-1,594,442,0,0
-623,582,0,0,0,0,0,0,0,0,0,-1,601,442,0,0
-616,582,0,0,0,0,0,0,0,0,0,-1,608,442,0,0
-609,582,0,0,0,0,0,0,0,0,0,-1,615,442,0,0
-602,582,0,0,0,0,0,0,0,0,0,-1,622,442,0,0
-595,582,0,0,0,0,0,0,0,0,0,-1,629,442,0,0
-588,582,0,0,0,0,0,0,0,0,0,-1,636,442,0,0
-581,582,0,0,0,0,0,0,0,0,0,-1,643,442,0,0
-574,582,0,0,0,0,0,0,0,0,0,-1,650,442,0,0
-567,582,0,0,0,0,0,0,0,0,0,-1,657,442,0,0
-560,582,0,0,0,0,0,0,0,0,0,-1,664,442,0,0
-553,582,0,0,0,0,0,0,0,0,0,-1,671,442,0,0
-546,582,0,0,0,0,0,0,0,0,0,-1,678,442,0,0
-539,582,0,0,0,0,0,0,0,0,0,-1,685,442,0,0
-532,582,0,0,0,0,0,0,0,0,0,-1,692,442,0,0
-525,582,0,0,0,0,0,0,0,0,0,-1,699,442,0,0
-518,582,0,0,0,0,0,0,0,0,0,-1,706,442,0,0
-511,582,0,0,0,0,0,0,0,0,0,-1,713,442,0,0
-504,582,0,0,0,0,0,0,0,0,0,-1,720,442,0,0
-497,582,0,0,0,0,0,0,0,0,0,-1,727,442,0,0
-490,582,0,0,0,0,0,0,0,0,0,-1,734,442,0,0
-483,582,0,0,0,0,0,0,0,0,0,-1,741,442,0,0
-476,582,0,0,0,0,0,0,0,0,0,-1,748,442,0,0
-469,582,0,0,0,0,0,0,0,0,0,-1,755,442,0,0
-462,582,0,0,0,0,0,0,0,0,0,-1,762,442,0,0
-455,582,0,0,0,0,0,0,0,0,0,-1,769,442,0,0
-448,582,0,0,0,0,0,0,0,0,0,-1,776,442,0,0
-441,582,0,0,0,0,0,0,0,0,0,-1,783,442,0,0
-434,582,0,0,0,0,0,0,0,0,0,-1,790,442,0,0
-427,582,0,0,0,0,0,0,0,0,0,-1,797,442,0,0
-420,582,0,0,0,0,0,0,0,0,0,-1,804,442,0,0
-413,582,0,0,0,0,0,0,0,0,0,-1,811,442,0,0
-406,582,0,0,0,0,0,0,0,0,0,-1,818,442,0,0
-399,582,0,0,0,0,0,0,0,0,0,-1,825,442,0,0
-392,582,0,0,0,0,0,0,0,0,0,-1,832,442,0,0
-385,582,0,0,0,0,0,0,0,0,0,-1,839,442,0,0
-378,582,0,0,0,0,0,0,0,0,0,-1,846,442,0,0
-371,582,0,0,0,0,0,0,0,0,0,-1,853,442,0,0
-364,582,0,0,0,0,0,0,0,0,0,-1,860,442,0,0
-357,582,-1.4903,-21.5295,0,0,0,0,0,0,0,-1,867,442,-1.49031,21.5295
-350,582,-0.880859,-19.7966,0,0,0,0,0,0,0,-1,874,442,-0.880885,19.7966
-343,582,-0.208557,-18.0078,0,0,0,0,0,0,0,-1,881,442,-0.208576,18.0078
-336,582,-0.167114,-18.7637,0,0,0,0,0,0,0,-1,888,442,-0.167108,18.7637
-329,582,3.59625,-18.4753,0,0,0,0,0,0,0,-1,895,442,3.59627,18.4753
-322,582,0.22998,-17.7987,0,0,0,0,0,0,0,-1,902,442,0.229956,17.7987
-315,582,2.25153,-19.7827,0,0,0,0,0,0,0,-1,909,442,2.25151,19.7827
-308,582,2.45349,-20.321,0,0,0,0,0,0,0,-1,916,442,2.45348,20.321
-301,582,0.0258179,-20.6925,0,0,0,0,0,0,0,-1,923,442,0.0258297,20.6925
-294,582,2.39722,-20.5394,0.0469648,-0.0151522,-0.0180074,0.0518075,-0.0199949,-0.262712,0.0427899,0.0464798,930,442,2.39724,20.5394
-287,582,2.58234,-21.0045,0.0406466,-0.0145476,-0.0138862,0.0439432,-0.0178443,-0.233092,0.0367185,0.0351536,937,442,2.58233,21.0045
-280,582,2.62067,-21.4686,0.0353659,-0.0132743,-0.0108723,0.0376855,-0.0155939,-0.210199,0.03163,0.0166457,944,442,2.62069,21.4686
-273,582,2.60675,-21.9641,0.0305499,-0.0117579,-0.00848908,0.0321897,-0.0133977,-0.190814,0.027055,0.0110949,951,442,2.60675,21.9641
-266,582,2.56476,-22.4305,0.0252462,-0.0103895,-0.00595476,0.0262149,-0.0113582,-0.161266,0.022251,0.0112542,958,442,2.56475,22.4305
-259,582,2.52679,-22.8791,0.0209694,-0.00817324,-0.00468283,0.0217034,-0.00890722,-0.155474,0.0181805,0.00963886,965,442,2.52681,22.8791
-252,582,2.50433,-23.3226,0.0172659,-0.00601814,-0.00376039,0.0178581,-0.00661038,-0.156212,0.014616,0.00850541,972,442,2.50433,23.3226
-245,582,2.50909,-23.7192,0.0137212,-0.004198,-0.00299663,0.0142091,-0.00468585,-0.161382,0.0113615,0.0117304,979,442,2.50912,23.7192
-238,582,2.4975,-24.0935,0.0103411,-0.00248015,-0.00219982,0.0107081,-0.00284709,-0.165281,0.00825309,0.0162014,986,442,2.49749,24.0935
-231,582,2.47638,-24.4913,0.00749746,-0.00127503,-0.0016674,0.0078037,-0.00158127,-0.181635,0.00580183,0.013238,993,442,2.47639,24.4913
-224,582,2.47186,-24.8977,0.00522668,-0.000565428,-0.0012,0.00546546,-0.000804201,-0.196411,0.00393916,0.0102984,1000,442,2.47188,24.8977
-217,582,2.44049,-25.306,0.00329097,-0.000124468,-0.000717314,0.0034355,-0.000269003,-0.198832,0.00238506,0.0119227,1007,442,2.44047,25.306
-210,582,2.44366,-25.6688,0.00133725,0.000178141,-0.000298074,0.00140941,0.000105981,-0.237518,0.000906345,0.0125727,1014,442,2.44369,25.6688
-203,582,2.46387,-26.0266,0.000176601,-0.000460324,0.000316275,0.000306969,-0.000590692,0.390976,0.000526823,0.0104424,1021,442,2.46386,26.0266
-196,582,2.42615,-26.4074,8.15807e-05,-0.0016827,0.000889488,0.000452182,-0.0020533,0.394773,0.00154186,0.015811,1028,442,2.42617,26.4074
-189,582,2.39307,-26.765,-0.00012684,-0.0027964,0.00144942,0.000508775,-0.00343202,0.413275,0.0024751,0.0234661,1035,442,2.39306,26.765
-182,582,2.3905,-27.0913,-0.000316367,-0.00392035,0.00208249,0.000635534,-0.00487225,0.428741,0.00347941,0.0163126,1042,442,2.39048,27.0913
-175,582,2.41821,-27.4092,-0.000489592,-0.00553278,0.00276245,0.000729078,-0.00675145,0.415474,0.00476263,0.0131707,1049,442,2.41821,27.4093
-168,582,2.43689,-27.7594,-0.000714155,-0.00725758,0.0033776,0.000716506,-0.00868824,0.400661,0.00604517,0.0115283,1056,442,2.43692,27.7594
-161,582,2.4458,-28.0833,-0.00107344,-0.0090991,0.00399303,0.000574743,-0.0107473,0.391463,0.00736392,0.013066,1063,442,2.44575,28.0833
-154,582,2.4491,-28.3918,-0.00121222,-0.0108307,0.00453889,0.000591426,-0.0126344,0.378242,0.00862682,0.0129839,1070,442,2.44905,28.3918
-147,582,2.4718,-28.717,-0.000932223,-0.0124047,0.00475813,0.000784335,-0.0141213,0.346231,0.00968623,0.0133796,1077,442,2.47179,28.717
-140,582,2.48169,-28.9864,-0.000589474,-0.0141175,0.00485082,0.000970111,-0.0156771,0.311072,0.0107893,0.0148166,1084,442,2.48171,28.9863
-133,582,2.52576,-29.2617,-0.000301479,-0.0163129,0.00490636,0.00108237,-0.0176968,0.27491,0.0121747,0.0174182,1091,442,2.52575,29.2617
-126,582,2.56067,-29.4917,0.000232929,-0.0185033,0.0048205,0.00140041,-0.0196708,0.237616,0.0136047,0.015805,1098,442,2.56069,29.4917
-119,582,2.53125,-29.6585,0.00103314,-0.0199985,0.00433533,0.00189175,-0.0208571,0.195518,0.0145763,0.0200908,1105,442,2.53129,29.6585
-112,582,2.46155,-29.941,0.00190643,-0.0212308,0.00372467,0.00249125,-0.0218156,0.155742,0.0154413,0.0294096,1112,442,2.46158,29.941
-105,582,2.50757,-30.3315,0.00320273,-0.0219127,0.00276148,0.00350278,-0.0222128,0.108229,0.0161036,0.0458336,1119,442,2.50755,30.3315
-98,582,2.724,-30.803,0,0,0,0,0,0,0,-1,1126,442,2.72398,30.803
-91,582,2.16492,-24.1119,0,0,0,0,0,0,0,-1,1133,442,2.16496,24.1119
-84,582,2.10278,-16.7533,0,0,0,0,0,0,0,-1,1140,442,2.10279,16.7533
-77,582,2.30212,-11.4907,0,0,0,0,0,0,0,-1,1147,442,2.30207,11.4907
-70,582,1.49255,-6.36548,0,0,0,0,0,0,0,-1,1154,442,1.49251,6.36549
-63,582,-4.62915,-4.0347,0,0,0,0,0,0,0,-1,1161,442,-4.6292,4.03471
-56,582,-5.81714,-5.24149,0,0,0,0,0,0,0,-1,1168,442,-5.81718,5.24149
-49,582,-3.88672,-10.1064,0,0,0,0,0,0,0,-1,1175,442,-3.88678,10.1064
-42,582,-0.948975,1.13968,0,0,0,0,0,0,0,-1,1182,442,-0.949003,-1.13969
-35,582,-2.58435,-3.86911,0,0,0,0,0,0,0,-1,1189,442,-2.58437,3.86912
-28,582,-0.825317,-3.45941,0,0,0,0,0,0,0,-1,1196,442,-0.825377,3.45942
-21,582,3.68225,-32.4738,0,0,0,0,0,0,0,-1,1203,442,3.68221,32.4738
-14,582,3.55212,-32.1017,0,0,0,0,0,0,0,-1,1210,442,3.5521,32.1017
-7,582,3.48706,-31.9678,0,0,0,0,0,0,0,-1,1217,442,3.48709,31.9678
0,582,1.26465,-32.6582,0,0,0,0,0,0,0,-1,1224,442,1.2646,32.6582
7,582,1.76038,-32.594,0,0,0,0,0,0,0,-1,1231,442,1.76032,32.594
14,582,2.40967,-32.5437,0,0,0,0,0,0,0,-1,1238,442,2.40962,32.5437
21,582,5.09985,-32.5801,0,0,0,0,0,0,0,-1,1245,442,5.09989,32.5801
28,582,4.99011,-31.9841,0.00844921,-0.0401228,0.0270514,0.0205168,-0.0521904,0.419606,0.0432849,0.0494931,1252,442,4.99007,31.9841
35,582,4.82788,-31.4016,0.0104312,-0.0405019,0.0262857,0.0215636,-0.0516343,0.400613,0.0434333,0.0477448,1259,442,4.82791,31.4016
42,582,4.66296,-30.8406,0,0,0,0,0,0,0,-1,1266,442,4.66298,30.8406
49,582,4.50476,-30.1679,0,0,0,0,0,0,0,-1,1273,442,4.5047,30.1679
56,582,5.66211,-33.708,0,0,0,0,0,0,0,-1,1280,442,5.66212,33.708
63,582,5.35315,-33.8465,0,0,0,0,0,0,0,-1,1287,442,5.35319,33.8465
70,582,5.03882,-33.1039,0,0,0,0,0,0,0,-1,1294,442,5.03878,33.1039
77,582,4.72437,-32.3614,0,0,0,0,0,0,0,-1,1301,442,4.72438,32.3613
84,582,4.11108,-30.9717,0.0457692,0.00813105,0.0369785,0.0684419,-0.0145417,0.55002,0.0511686,0.0457359,1308,442,4.11104,30.9717
91,582,3.58752,-29.5322,0.0531319,0.0161561,0.0391711,0.0779589,-0.00867081,0.564908,0.0550908,0.0486026,1315,442,3.58758,29.5322
98,582,2.90112,-28.3102,0,0,0,0,0,0,0,-1,1322,442,2.9011,28.3102
105,582,3.85571,-25.3357,0.0667859,0.0259158,0.0403913,0.0916172,0.00108445,0.551209,0.0607199,0.0445761,1329,442,3.85569,25.3357
112,582,4.95239,-23.882,0.071818,0.0263637,0.0390443,0.0942681,0.00391363,0.521826,0.0615823,0.0496934,1336,442,4.95243,23.882
119,582,5.72217,-22.2682,0,0,0,0,0,0,0,-1,1343,442,5.72222,22.2683
126,582,4.82092,-29.7996,0,0,0,0,0,0,0,-1,1350,442,4.82086,29.7996
133,582,5.82068,-31.3381,0,0,0,0,0,0,0,-1,1357,442,5.82071,31.3381
140,582,6.11438,-31.3053,0,0,0,0,0,0,0,-1,1364,442,6.11438,31.3053
147,582,5.92517,-31.1499,0,0,0,0,0,0,0,-1,1371,442,5.92511,31.1499
154,582,5.9762,-30.9421,0,0,0,0,0,0,0,-1,1378,442,5.97618,30.9421
161,582,6.09094,-30.7062,0,0,0,0,0,0,0,-1,1385,442,6.09099,30.7062
168,582,6.72119,-30.1363,0,0,0,0,0,0,0,-1,1392,442,6.72121,30.1363
175,582,6.50549,-2.00424,0,0,0,0,0,0,0,-1,1399,442,6.50546,2.00425
182,582,5.18958,-2.18652,0,0,0,0,0,0,0,-1,1406,442,5.1896,2.18652
189,582,6.19751,-0.880951,0,0,0,0,0,0,0,-1,1413,442,6.19754,0.88096
196,582,4.87354,-2.22327,0,0,0,0,0,0,0,-1,1420,442,4.87348,2.22325
203,582,3.11401,-4.48257,0,0,0,0,0,0,0,-1,1427,442,3.11404,4.48259
210,582,2.93115,-11.0731,0,0,0,0,0,0,0,-1,1434,442,2.93113,11.0731
217,582,4.94092,-16.5476,0,0,0,0,0,0,0,-1,1441,442,4.94087,16.5476
224,582,5.21008,-20.9908,0,0,0,0,0,0,0,-1,1448,442,5.21006,20.9908
231,582,5.70032,-25.622,0,0,0,0,0,0,0,-1,1455,442,5.70026,25.6221
238,582,6.49316,-30.1126,0,0,0,0,0,0,0,-1,1462,442,6.49311,30.1126
245,582,6.72778,-29.4726,0,0,0,0,0,0,0,-1,1469,442,6.72773,29.4726
252,582,6.60266,-29.1377,0.00427083,0.00361132,0.000947094,0.00494393,0.00293821,0.617874,0.00287125,0.0342449,1476,442,6.60262,29.1377
259,582,6.51758,-28.8489,0.00378854,0.00216443,0.000316481,0.00384803,0.00210494,0.18581,0.00222493,0.0256582,1483,442,6.51759,28.8489
266,582,6.52747,-28.5223,0.0034199,0.000879148,-0.000272852,0.00344887,0.000850177,-0.105783,0.00207476,0.0189801,1490,442,6.52746,28.5223
273,582,6.5874,-28.1485,0.00321735,0.000111499,-0.000576421,0.00332088,7.97026e-06,-0.177711,0.00221127,0.0159399,1497,442,6.58745,28.1485
280,582,6.59583,-27.822,0.00264419,-0.000733458,-0.00092558,0.00288119,-0.000970466,-0.250677,0.00231317,0.0127344,1504,442,6.59584,27.822
287,582,6.62073,-27.4609,0.00220718,-0.000898342,-0.00102178,0.00251321,-0.00120437,-0.291004,0.00219024,0.0109835,1511,442,6.62074,27.4609
294,582,6.64392,-27.0816,0.00204046,-0.00106581,-0.00101676,0.00234367,-0.00136902,-0.289818,0.00216801,0.00871143,1518,442,6.64386,27.0816
301,582,6.65149,-26.6998,0.00194777,-0.00126197,-0.00091071,0.00218816,-0.00150236,-0.258077,0.00214295,0.00962624,1525,442,6.65151,26.6998
308,582,6.65955,-26.3327,0.00196326,-0.00138132,-0.000680527,0.00209643,-0.00151449,-0.193239,0.00209377,0.0129442,1532,442,6.65953,26.3327
315,582,6.65967,-25.9821,0.00191325,-0.00136259,-0.00045242,0.00197459,-0.00142393,-0.134748,0.0019707,0.0140081,1539,442,6.65969,25.9821
322,582,6.65881,-25.605,0.00186868,-0.00121369,-0.000150414,0.001876,-0.00122101,-0.0486443,0.00180134,0.011485,1546,442,6.65881,25.605
329,582,6.62939,-25.2168,0.00188116,-0.00100179,0.000216898,0.00189739,-0.00101801,0.0746746,0.00170854,0.0107277,1553,442,6.62942,25.2168
336,582,6.62366,-24.8232,0.00185874,-0.000750422,0.000569624,0.00197768,-0.000869359,0.205841,0.00168474,0.0103213,1560,442,6.6237,24.8232
343,582,6.64673,-24.4367,0.00174383,-0.000349752,0.000889309,0.00207059,-0.000676511,0.352119,0.00165271,0.0130484,1567,442,6.64668,24.4367
350,582,6.6405,-24.0355,0.00156264,0.000401996,0.00128396,0.00239134,-0.000426701,0.573149,0.00175385,0.016848,1574,442,6.64049,24.0355
357,582,6.62622,-23.5811,0.0012781,0.00122909,0.00168996,0.00294373,-0.000436542,0.778149,0.00212302,0.014226,1581,442,6.62618,23.5811
364,582,6.61609,-23.1391,0.000899149,0.00205862,0.00205215,0.00361135,-0.000653583,0.923061,0.00265241,0.0108274,1588,442,6.61604,23.1391
371,582,6.58813,-22.7193,0.000462195,0.0030144,0.00237634,0.00443559,-0.000959001,1.0318,0.00332318,0.0146134,1595,442,6.58814,22.7193
378,582,6.57068,-22.3039,-3.16815e-06,0.00416136,0.00270621,0.00549367,-0.00133549,1.11331,0.00417935,0.0151786,1602,442,6.57073,22.3039
385,582,6.55103,-21.8622,-0.000795001,0.00539433,0.00285311,0.00650884,-0.00190952,1.19839,0.0050964,0.0110876,1609,442,6.55102,21.8622
392,582,6.51038,-21.4048,-0.00154435,0.00666793,0.00296415,0.00762603,-0.00250246,1.25817,0.00609198,0.0101765,1616,442,6.51032,21.4048
399,582,6.47009,-20.9691,-0.00131758,0.00742843,0.00346935,0.0086375,-0.00252665,1.23546,0.00675983,0.0183262,1623,442,6.47013,20.969
406,582,6.45215,-20.3795,-0.00126085,0.00795232,0.00379206,0.00931234,-0.00262087,1.22644,0.0072417,0.0330953,1630,442,6.45219,20.3795
413,582,6.34949,-20.0148,0,0,0,0,0,0,0,-1,1637,442,6.34953,20.0148
420,582,6.27759,-19.5325,0,0,0,0,0,0,0,-1,1644,442,6.27759,19.5325
427,582,6.21802,-19.0262,0,0,0,0,0,0,0,-1,1651,442,6.21801,19.0262
434,582,6.15845,-18.5198,0,0,0,0,0,0,0,-1,1658,442,6.15844,18.5198
441,582,4.53979,-12.7726,0,0,0,0,0,0,0,-1,1665,442,4.53983,12.7726
448,582,8.12964,-18.4562,0,0,0,0,0,0,0,-1,1672,442,8.12962,18.4562
455,582,5.93567,-16.3171,0,0,0,0,0,0,0,-1,1679,442,5.93569,16.3171
462,582,4.80444,-16.4417,0,0,0,0,0,0,0,-1,1686,442,4.80439,16.4417
469,582,5.90674,-15.9182,0,0,0,0,0,0,0,-1,1693,442,5.90676,15.9182
476,582,1.93579,-8.53891,0,0,0,0,0,0,0,-1,1700,442,1.93579,8.53892
483,582,0,0,0,0,0,0,0,0,0,-1,1707,442,0,0
490,582,0,0,0,0,0,0,0,0,0,-1,1714,442,0,0
497,582,0,0,0,0,0,0,0,0,0,-1,1721,442,0,0
504,582,0,0,0,0,0,0,0,0,0,-1,1728,442,0,0
511,582,0,0,0,0,0,0,0,0,0,-1,1735,442,0,0
518,582,0,0,0,0,0,0,0,0,0,-1,1742,442,0,0
525,582,0,0,0,0,0,0,0,0,0,-1,1749,442,0,0
532,582,0,0,0,0,0,0,0,0,0,-1,1756,442,0,0
539,582,0,0,0,0,0,0,0,0,0,-1,1763,442,0,0
546,582,0,0,0,0,0,0,0,0,0,-1,1770,442,0,0
553,582,0,0,0,0,0,0,0,0,0,-1,1777,442,0,0
560,582,0,0,0,0,0,0,0,0,0,-1,1784,442,0,0
567,582,0,0,0,0,0,0,0,0,0,-1,1791,442,0,0
574,582,0,0,0,0,0,0,0,0,0,-1,1798,442,0,0
581,582,0,0,0,0,0,0,0,0,0,-1,1805,442,0,0
588,582,0,0,0,0,0,0,0,0,0,-1,1812,442,0,0
595,582,0,0,0,0,0,0,0,0,0,-1,1819,442,0,0
602,582,0,0,0,0,0,0,0,0,0,-1,1826,442,0,0
609,582,0,0,0,0,0,0,0,0,0,-1,1833,442,0,0
616,582,0,0,0,0,0,0,0,0,0,-1,1840,442,0,0
623,582,0,0,0,0,0,0,0,0,0,-1,1847,442,0,0
630,582,0,0,0,0,0,0,0,0,0,-1,1854,442,0,0
637,582,0,0,0,0,0,0,0,0,0,-1,1861,442,0,0
644,582,0,0,0,0,0,0,0,0,0,-1,1868,442,0,0
651,582,0,0,0,0,0,0,0,0,0,-1,1875,442,0,0
658,582,0,0,0,0,0,0,0,0,0,-1,1882,442,0,0
665,582,0,0,0,0,0,0,0,0,0,-1,1889,442,0,0
672,582,0,0,0,0,0,0,0,0,0,-1,1896,442,0,0
679,582,0,0,0,0,0,0,0,0,0,-1,1903,442,0,0
686,582,0,0,0,0,0,0,0,0,0,-1,1910,442,0,0
693,582,0,0,0,0,0,0,0,0,0,-1,1917,442,0,0
700,582,0,0,0,0,0,0,0,0,0,-1,1924,442,0,0
707,582,0,0,0,0,0,0,0,0,0,-1,1931,442,0,0
714,582,0,0,0,0,0,0,0,0,0,-1,1938,442,0,0
721,582,0,0,0,0,0,0,0,0,0,-1,1945,442,0,0
728,582,0,0,0,0,0,0,0,0,0,-1,1952,442,0,0
735,582,0,0,0,0,0,0,0,0,0,-1,1959,442,0,0
742,582,0,0,0,0,0,0,0,0,0,-1,1966,442,0,0
749,582,0,0,0,0,0,0,0,0,0,-1,1973,442,0,0
756,582,0,0,0,0,0,0,0,0,0,-1,1980,442,0,0
763,582,0,0,0,0,0,0,0,0,0,-1,1987,442,0,0
770,582,0,0,0,0,0,0,0,0,0,-1,1994,442,0,0
777,582,0,0,0,0,0,0,0,0,0,-1,2001,442,0,0
784,582,0,0,0,0,0,0,0,0,0,-1,2008,442,0,0
791,582,0,0,0,0,0,0,0,0,0,-1,2015,442,0,0
798,582,0,0,0,0,0,0,0,0,0,-1,2022,442,0,0
805,582,0,0,0,0,0,0,0,0,0,-1,2029,442,0,0
812,582,0,0,0,0,0,0,0,0,0,-1,2036,442,0,0
-700,575,0,0,0,0,0,0,0,0,0,-1,524,449,0,0
-693,575,0,0,0,0,0,0,0,0,0,-1,531,449,0,0
-686,575,0,0,0,0,0,0,0,0,0,-1,538,449,0,0
-679,575,0,0,0,0,0,0,0,0,0,-1,545,449,0,0
-672,575,0,0,0,0,0,0,0,0,0,-1,552,449,0,0
-665,575,0,0,0,0,0,0,0,0,0,-1,559,449,0,0
-658,575,0,0,0,0,0,0,0,0,0,-1,566,449,0,0
-651,575,0,0,0,0,0,0,0,0,0,-1,573,449,0,0
-644,575,0,0,0,0,0,0,0,0,0,-1,580,449,0,0
-637,575,0,0,0,0,0,0,0,0,0,-1,587,449,0,0
-630,575,0,0,0,0,0,0,0,0,0,-1,594,449,0,0
-623,575,0,0,0,0,0,0,0,0,0,-1,601,449,0,0
-616,575,0,0,0,0,0,0,0,0,0,-1,608,449,0,0
-609,575,0,0,0,0,0,0,0,0,0,-1,615,449,0,0
-602,575,0,0,0,0,0,0,0,0,0,-1,622,449,0,0
-595,575,0,0,0,0,0,0,0,0,0,-1,629,449,0,0
-588,575,0,0,0,0,0,0,0,0,0,-1,636,449,0,0
-581,575,0,0,0,0,0,0,0,0,0,-1,643,449,0,0
-574,575,0,0,0,0,0,0,0,0,0,-1,650,449,0,0
-567,575,0,0,0,0,0,0,0,0,0,-1,657,449,0,0
-560,575,0,0,0,0,0,0,0,0,0,-1,664,449,0,0
-553,575,0,0,0,0,0,0,0,0,0,-1,671,449,0,0
-546,575,0,0,0,0,0,0,0,0,0,-1,678,449,0,0
-539,575,0,0,0,0,0,0,0,0,0,-1,685,449,0,0
-532,575,0,0,0,0,0,0,0,0,0,-1,692,449,0,0
-525,575,0,0,0,0,0,0,0,0,0,-1,699,449,0,0
-518,575,0,0,0,0,0,0,0,0,0,-1,706,449,0,0
-511,575,0,0,0,0,0,0,0,0,0,-1,713,449,0,0
-504,575,0,0,0,0,0,0,0,0,0,-1,720,449,0,0
-497,575,0,0,0,0,0,0,0,0,0,-1,727,449,0,0
-490,575,0,0,0,0,0,0,0,0,0,-1,734,449,0,0
-483,575,0,0,0,0,0,0,0,0,0,-1,741,449,0,0
-476,575,0,0,0,0,0,0,0,0,0,-1,748,449,0,0
-469,575,0,0,0,0,0,0,0,0,0,-1,755,449,0,0
-462,575,0,0,0,0,0,0,0,0,0,-1,762,449,0,0
-455,575,0,0,0,0,0,0,0,0,0,-1,769,449,0,0
-448,575,0,0,0,0,0,0,0,0,0,-1,776,449,0,0
-441,575,0,0,0,0,0,0,0,0,0,-1,783,449,0,0
-434,575,0,0,0,0,0,0,0,0,0,-1,790,449,0,0
-427,575,0,0,0,0,0,0,0,0,0,-1,797,449,0,0
-420,575,0,0,0,0,0,0,0,0,0,-1,804,449,0,0
-413,575,0,0,0,0,0,0,0,0,0,-1,811,449,0,0
-406,575,0,0,0,0,0,0,0,0,0,-1,818,449,0,0
-399,575,0,0,0,0,0,0,0,0,0,-1,825,449,0,0
-392,575,0,0,0,0,0,0,0,0,0,-1,832,449,0,0
-385,575,0,0,0,0,0,0,0,0,0,-1,839,449,0,0
-378,575,0,0,0,0,0,0,0,0,0,-1,846,449,0,0
-371,575,0.56897,-3.52304,0,0,0,0,0,0,0,-1,853,449,0.568955,3.52306
-364,575,1.49805,-4.67191,0,0,0,0,0,0,0,-1,860,449,1.49803,4.6719
-357,575,3.15521,-8.29892,0,0,0,0,0,0,0,-1,867,449,3.15521,8.29891
-350,575,-0.825928,-18.5347,0,0,0,0,0,0,0,-1,874,449,-0.825948,18.5347
-343,575,0.465393,-16.3569,0,0,0,0,0,0,0,-1,881,449,0.465397,16.3569
-336,575,3.1994,-17.5725,0,0,0,0,0,0,0,-1,888,449,3.19941,17.5725
-329,575,0.439636,-17.7165,0,0,0,0,0,0,0,-1,895,449,0.439658,17.7165
-322,575,0.54834,-18.1904,0.0541446,-0.00288472,-0.0359454,0.0715119,-0.0202521,-0.450085,0.0556671,0.0466456,902,449,0.548362,18.1904
-315,575,1.8028,-19.5686,0.0474514,-0.00611425,-0.029075,0.0601992,-0.0188621,-0.413206,0.0476805,0.0479889,909,449,1.80277,19.5686
-308,575,2.09601,-19.9276,0.0415243,-0.00754644,-0.0235185,0.0509757,-0.0169979,-0.38212,0.0408462,0.0468846,916,449,2.09603,19.9276
-301,575,2.25354,-20.2509,0.0354012,-0.00798413,-0.0189548,0.0425158,-0.0150987,-0.359072,0.0344963,0.0328779,923,449,2.25355,20.2509
-294,575,2.26758,-20.6089,0.0300562,-0.00790147,-0.0150488,0.0352985,-0.0131438,-0.335207,0.0289267,0.0246967,930,449,2.26756,20.6089
-287,575,2.25,-21.0655,0.0253774,-0.00778637,-0.0117185,0.0291002,-0.0115092,-0.307606,0.024168,0.0173132,937,449,2.24998,21.0655
-280,575,2.23022,-21.5304,0.021514,-0.00714445,-0.0092207,0.0242243,-0.00985483,-0.285893,0.0202502,0.0132969,944,449,2.23024,21.5304
-273,575,2.2121,-21.9928,0.018072,-0.00635447,-0.00716554,0.0200188,-0.00830132,-0.265293,0.0168107,0.0122101,951,449,2.21211,21.9928
-266,575,2.19189,-22.4557,0.0142995,-0.00580808,-0.00489571,0.0154282,-0.00693672,-0.226577,0.013219,0.0135153,958,449,2.19188,22.4557
-259,575,2.1546,-22.8871,0.0115699,-0.00453256,-0.00375622,0.012403,-0.00536567,-0.218262,0.0105235,0.013041,965,449,2.15463,22.8872
-252,575,2.09808,-23.2901,0.00943674,-0.00348891,-0.00288254,0.0100504,-0.0041026,-0.209769,0.00840834,0.0117861,972,449,2.09807,23.2901
-245,575,2.06824,-23.7014,0.0075028,-0.00284582,-0.00212824,0.00792339,-0.00326641,-0.195109,0.00664431,0.0146976,979,449,2.06821,23.7014
-238,575,2.08801,-24.0923,0.00569304,-0.00226059,-0.0013429,0.00591366,-0.0024812,-0.16283,0.00498,0.0146952,986,449,2.08804,24.0923
-231,575,2.10022,-24.4781,0.00428911,-0.00209915,-0.000786087,0.00438442,-0.00219446,-0.120654,0.00386783,0.0125651,993,449,2.10024,24.4781
-224,575,2.09155,-24.8754,0.00327464,-0.0023398,-0.000271389,0.00328773,-0.00235288,-0.048188,0.00327148,0.0121296,1000,449,2.09158,24.8754
-217,575,2.0755,-25.2683,0.00239992,-0.00276793,0.000247977,0.00241179,-0.0027798,0.047838,0.00299988,0.0106212,1007,449,2.0755,25.2683
-210,575,2.08392,-25.6635,0.00154485,-0.00341663,0.000787433,0.00166683,-0.00353861,0.15368,0.00306944,0.00935108,1014,449,2.08392,25.6635
-203,575,2.11047,-26.0261,0.000953121,-0.00456081,0.00156282,0.00136527,-0.00497295,0.257848,0.0038519,0.0126568,1021,449,2.11047,26.0261
-196,575,2.11963,-26.3937,0.00070255,-0.00580039,0.00222643,0.00139177,-0.00648961,0.300207,0.00485726,0.0158926,1028,449,2.1196,26.3937
-189,575,2.06287,-26.7478,0.000260401,-0.00679507,0.00289905,0.00129878,-0.00783345,0.343943,0.00570473,0.0167752,1035,449,2.0629,26.7478
-182,575,2.05042,-27.0746,-0.000212527,-0.00791804,0.00372063,0.00129073,-0.0094213,0.383977,0.00675235,0.0160257,1042,449,2.05037,27.0746
-175,575,2.08972,-27.4046,-0.000642689,-0.00948406,0.00450998,0.00125188,-0.0113786,0.397698,0.00803562,0.0129606,1049,449,2.08972,27.4046
-168,575,2.08887,-27.734,-0.00112259,-0.0112196,0.00520073,0.00107701,-0.0134192,0.400125,0.00932587,0.0120443,1056,449,2.08887,27.734
-161,575,2.10413,-28.0507,-0.00186742,-0.0131151,0.00593886,0.00068784,-0.0156704,0.406318,0.0106836,0.0174421,1063,449,2.10418,28.0507
-154,575,2.13574,-28.347,-0.00234778,-0.0150117,0.0066467,0.000500252,-0.0178598,0.404822,0.0120767,0.0209546,1070,449,2.13573,28.347
-147,575,2.16675,-28.6144,-0.00212915,-0.0166302,0.00684138,0.000589008,-0.0193484,0.378186,0.0130997,0.019283,1077,449,2.1667,28.6144
-140,575,2.10339,-28.8422,-0.00181628,-0.0185901,0.00687727,0.000642874,-0.0210493,0.343409,0.014252,0.0260945,1084,449,2.10337,28.8422
-133,575,2.15417,-29.0208,-0.00158443,-0.0214518,0.00689483,0.000573897,-0.0236101,0.303373,0.0159348,0.0350682,1091,449,2.15423,29.0208
-126,575,2.20935,-29.0406,-0.000985007,-0.024529,0.00677542,0.000825565,-0.0263396,0.261125,0.0178413,0.0386024,1098,449,2.20932,29.0406
-119,575,2.18335,-29.1721,-3.78761e-05,-0.0269522,0.00620721,0.0013247,-0.0283147,0.216088,0.0193332,0.037869,1105,449,2.18329,29.1721
-112,575,2.04614,-29.4411,0.00100968,-0.0290888,0.00545827,0.00196895,-0.0300481,0.173969,0.0207196,0.0434623,1112,449,2.04614,29.4411
-105,575,1.92017,-29.7003,0,0,0,0,0,0,0,-1,1119,449,1.92018,29.7003
-98,575,1.521,-25.6961,0,0,0,0,0,0,0,-1,1126,449,1.52105,25.6961
-91,575,1.60803,-16.4247,0,0,0,0,0,0,0,-1,1133,449,1.60802,16.4247
-84,575,1.16553,-11.9056,0,0,0,0,0,0,0,-1,1140,449,1.16558,11.9056
-77,575,0.205078,-11.2584,0,0,0,0,0,0,0,-1,1147,449,0.205117,11.2584
-70,575,-4.2467,-1.78738,0,0,0,0,0,0,0,-1,1154,449,-4.24674,1.78739
-63,575,-4.52209,-3.48798,0,0,0,0,0,0,0,-1,1161,449,-4.5221,3.48796
-56,575,-5.5968,-5.4928,0,0,0,0,0,0,0,-1,1168,449,-5.59683,5.49281
-49,575,-5.96863,-7.17612,0,0,0,0,0,0,0,-1,1175,449,-5.96868,7.1761
-42,575,-0.830322,0.773499,0,0,0,0,0,0,0,-1,1182,449,-0.83038,-0.77351
-35,575,-0.62085,0.205139,0,0,0,0,0,0,0,-1,1189,449,-0.620855,-0.205126
-28,575,0.49292,-3.87988,0,0,0,0,0,0,0,-1,1196,449,0.492941,3.87989
-21,575,3.78845,-32.2994,0,0,0,0,0,0,0,-1,1203,449,3.78848,32.2994
-14,575,3.60278,-31.873,-0.00779421,-0.0134862,0.0381574,0.0276232,-0.0489036,0.748175,0.0447486,0.0483539,1210,449,3.60274,31.8729
-7,575,3.46106,-31.1577,-0.00673799,-0.0190226,0.038931,0.0265323,-0.0522929,0.707156,0.0463127,0.0454702,1217,449,3.46108,31.1577
0,575,3.36694,-30.4896,-0.0047241,-0.0255549,0.0390955,0.0253196,-0.0555986,0.655217,0.047796,0.0460909,1224,449,3.36699,30.4896
7,575,0.824829,-32.3402,0,0,0,0,0,0,0,-1,1231,449,0.824812,32.3402
14,575,1.30432,-31.9882,0,0,0,0,0,0,0,-1,1238,449,1.3043,31.9881
21,575,4.8949,-32.1617,0,0,0,0,0,0,0,-1,1245,449,4.89485,32.1617
28,575,5.03809,-31.4357,0.0100153,-0.0445955,0.0335704,0.025983,-0.0605631,0.443976,0.0512797,0.0452944,1252,449,5.03804,31.4357
35,575,5.17261,-30.7847,0.0129311,-0.0455178,0.0322709,0.0272438,-0.0598305,0.417448,0.0514324,0.044107,1259,449,5.17266,30.7847
42,575,5.00439,-30.211,0.0164044,-0.0428207,0.0328035,0.0309844,-0.0574006,0.418239,0.0517832,0.0412962,1266,449,5.00444,30.211
49,575,4.7793,-29.6328,0.0216964,-0.0357918,0.0342393,0.0376575,-0.0517529,0.436213,0.0518345,0.0438166,1273,449,4.77934,29.6328
56,575,5.39587,-27.673,0.0288974,-0.0274058,0.0357211,0.0462267,-0.044735,0.451679,0.0525191,0.0450756,1280,449,5.39588,27.673
63,575,5.27332,-27.1089,0,0,0,0,0,0,0,-1,1287,449,5.27326,27.1089
70,575,5.32043,-33.296,0,0,0,0,0,0,0,-1,1294,449,5.3204,33.296
77,575,3.76807,-33.5105,0,0,0,0,0,0,0,-1,1301,449,3.76808,33.5105
84,575,4.06018,-31.3126,0,0,0,0,0,0,0,-1,1308,449,4.06023,31.3125
91,575,4.02722,-29.2067,0,0,0,0,0,0,0,-1,1315,449,4.02722,29.2067
98,575,4.74902,-27.2885,0.0792979,0.0324701,0.050493,0.111541,0.000226527,0.568302,0.0742856,0.0465096,1322,449,4.74903,27.2885
105,575,5.16357,-25.5267,0.0879376,0.0379393,0.0510834,0.119811,0.00606605,0.557841,0.0779306,0.0417169,1329,449,5.16356,25.5267
112,575,5.94702,-23.9185,0.0953287,0.0392571,0.0500368,0.124649,0.00993709,0.530038,0.0799928,0.0439808,1336,449,5.94697,23.9185
119,575,6.72424,-22.2628,0,0,0,0,0,0,0,-1,1343,449,6.72427,22.2628
126,575,7.45605,-20.6335,0,0,0,0,0,0,0,-1,1350,449,7.45608,20.6335
133,575,9.96887,-32.6629,0,0,0,0,0,0,0,-1,1357,449,9.96885,32.6629
140,575,6.63354,-31.279,0,0,0,0,0,0,0,-1,1364,449,6.6336,31.279
147,575,6.3158,-30.7254,0,0,0,0,0,0,0,-1,1371,449,6.31581,30.7254
154,575,6.36755,-30.6725,0,0,0,0,0,0,0,-1,1378,449,6.36755,30.6725
161,575,6.41931,-30.6197,0,0,0,0,0,0,0,-1,1385,449,6.4193,30.6197
168,575,7.08777,-29.2379,0,0,0,0,0,0,0,-1,1392,449,7.08772,29.2379
175,575,4.32617,1.93634,0,0,0,0,0,0,0,-1,1399,449,4.32612,-1.93634
182,575,6.3147,-2.88345,0,0,0,0,0,0,0,-1,1406,449,6.31466,2.88346
189,575,6.10449,-1.30817,0,0,0,0,0,0,0,-1,1413,449,6.10455,1.30817
196,575,5.79895,0.818359,0,0,0,0,0,0,0,-1,1420,449,5.79895,-0.81837
203,575,3.29724,-1.46378,0,0,0,0,0,0,0,-1,1427,449,3.29722,1.46377
210,575,2.32739,-7.74503,0,0,0,0,0,0,0,-1,1434,449,2.32741,7.74502
217,575,3.33618,-11.5521,0,0,0,0,0,0,0,-1,1441,449,3.3362,11.5521
224,575,5.51709,-16.3903,0,0,0,0,0,0,0,-1,1448,449,5.51713,16.3903
231,575,5.48572,-20.4595,0,0,0,0,0,0,0,-1,1455,449,5.48571,20.4595
238,575,5.33484,-22.3575,0,0,0,0,0,0,0,-1,1462,449,5.33478,22.3575
245,575,5.59741,-23.513,0,0,0,0,0,0,0,-1,1469,449,5.5974,23.513
252,575,6.9895,-29.3974,0,0,0,0,0,0,0,-1,1476,449,6.98953,29.3974
259,575,6.86475,-29.1153,0,0,0,0,0,0,0,-1,1483,449,6.8647,29.1153
266,575,6.83459,-28.7599,0,0,0,0,0,0,0,-1,1490,449,6.83458,28.7599
273,575,6.89221,-28.2224,0,0,0,0,0,0,0,-1,1497,449,6.89227,28.2224
280,575,6.82617,-27.9358,0,0,0,0,0,0,0,-1,1504,449,6.82616,27.9358
287,575,6.91455,-27.5086,0.00347486,-0.00239915,-0.00174333,0.00395329,-0.00287758,-0.26784,0.00396007,0.028436,1511,449,6.91451,27.5086
294,575,6.99963,-27.0919,0.00313164,-0.00273634,-0.00188964,0.0036875,-0.00329219,-0.28609,0.00403188,0.0121886,1518,449,6.99964,27.092
301,575,7.02625,-26.7051,0.00280639,-0.0032186,-0.00195638,0.00338591,-0.00379812,-0.287984,0.00414997,0.00952889,1525,449,7.02619,26.7051
308,575,7.03247,-26.3483,0.00254093,-0.00346631,-0.00188485,0.00308335,-0.00400873,-0.280207,0.00410621,0.0106908,1532,449,7.03251,26.3483
315,575,7.03003,-25.9969,0.00213453,-0.00344179,-0.00178499,0.00265696,-0.00396422,-0.284729,0.00384749,0.0112346,1539,449,7.02999,25.9969
322,575,7.04346,-25.6046,0.00175218,-0.00316618,-0.00154815,0.00219892,-0.00361291,-0.280928,0.0033884,0.010742,1546,449,7.04348,25.6046
329,575,7.03918,-25.2159,0.00148571,-0.00273436,-0.00119166,0.00179896,-0.00304761,-0.257052,0.00282895,0.0108904,1553,449,7.03916,25.2159
336,575,7.03162,-24.8193,0.00125692,-0.00224137,-0.000815658,0.00143775,-0.0024222,-0.21817,0.00225258,0.0119951,1560,449,7.03161,24.8193
343,575,7.04187,-24.4127,0.000969341,-0.00163589,-0.00047065,0.00105176,-0.00171831,-0.173358,0.00161466,0.0127129,1567,449,7.04186,24.4127
350,575,7.03455,-23.9915,0.00072397,-0.000764496,-3.04552e-05,0.000724593,-0.000765119,-0.0204494,0.000860192,0.0122415,1574,449,7.03451,23.9915
357,575,7.02051,-23.5674,0.000475654,0.00019334,0.000442432,0.000798901,-0.000129908,0.630979,0.000580767,0.0116787,1581,449,7.02045,23.5674
364,575,7.01111,-23.1516,0.000227562,0.00109037,0.000911007,0.00166696,-0.000349024,1.00653,0.00124407,0.0109298,1588,449,7.0111,23.1516
371,575,6.9906,-22.7578,-2.66324e-05,0.00203125,0.00134748,0.00269772,-0.000693099,1.11147,0.00206859,0.0184063,1595,449,6.99063,22.7578
378,575,6.98718,-22.3233,-0.000304095,0.00302554,0.00172711,0.00375958,-0.00103813,1.16892,0.00291472,0.0162487,1602,449,6.98723,22.3233
385,575,6.96204,-21.8602,-0.000673282,0.00396585,0.00196049,0.00468337,-0.00139081,1.21995,0.00367466,0.0103817,1609,449,6.96205,21.8602
392,575,6.95215,-21.4262,-0.000950195,0.00483686,0.00216682,0.00555825,-0.00167158,1.24941,0.00437058,0.00935297,1616,449,6.95218,21.4262
399,575,6.90906,-21.0123,-0.000719017,0.00546444,0.00266206,0.00645258,-0.00170716,1.21537,0.0049695,0.0106376,1623,449,6.90904,21.0123
406,575,6.87549,-20.5206,-0.000654082,0.00598052,0.00301164,0.00714367,-0.00181723,1.20223,0.00546976,0.0124919,1630,449,6.87545,20.5206
413,575,6.85364,-20.0445,-0.000118968,0.00697834,0.00285787,0.00798604,-0.00112667,1.2318,0.00573658,0.014897,1637,449,6.85368,20.0445
420,575,6.82361,-19.5467,0.00101499,0.00773718,0.00330377,0.00908903,-0.000336858,1.1824,0.0061747,0.0148064,1644,449,6.82367,19.5467
427,575,6.76782,-19.048,0.00225249,0.00872052,0.00392662,0.0105735,0.000399546,1.12989,0.00691964,0.01687,1651,449,6.76781,19.048
434,575,6.67639,-18.6313,0.00401546,0.0100262,0.00448378,0.0124186,0.001623,1.08065,0.00779462,0.0285111,1658,449,6.67643,18.6313
441,575,6.62634,-18.2463,0,0,0,0,0,0,0,-1,1665,449,6.62636,18.2463
448,575,7.75989,-18.0426,0,0,0,0,0,0,0,-1,1672,449,7.7599,18.0426
455,575,7.96106,-17.6553,0,0,0,0,0,0,0,-1,1679,449,7.96103,17.6553
462,575,6.59595,-16.0728,0,0,0,0,0,0,0,-1,1686,449,6.59595,16.0727
469,575,7.33838,-15.9658,0,0,0,0,0,0,0,-1,1693,449,7.33842,15.9658
476,575,6.77588,-15.1698,0,0,0,0,0,0,0,-1,1700,449,6.77589,15.1698
483,575,6.57288,-15.8891,0,0,0,0,0,0,0,-1,1707,449,6.57284,15.8891
490,575,5.84216,-16.4164,0,0,0,0,0,0,0,-1,1714,449,5.84215,16.4164
497,575,0,0,0,0,0,0,0,0,0,-1,1721,449,0,0
504,575,0,0,0,0,0,0,0,0,0,-1,1728,449,0,0
511,575,0,0,0,0,0,0,0,0,0,-1,1735,449,0,0
518,575,0,0,0,0,0,0,0,0,0,-1,1742,449,0,0
525,575,0,0,0,0,0,0,0,0,0,-1,1749,449,0,0
532,575,0,0,0,0,0,0,0,0,0,-1,1756,449,0,0
539,575,0,0,0,0,0,0,0,0,0,-1,1763,449,0,0
546,575,0,0,0,0,0,0,0,0,0,-1,1770,449,0,0
553,575,0,0,0,0,0,0,0,0,0,-1,1777,449,0,0
560,575,0,0,0,0,0,0,0,0,0,-1,1784,449,0,0
567,575,0,0,0,0,0,0,0,0,0,-1,1791,449,0,0
574,575,0,0,0,0,0,0,0,0,0,-1,1798,449,0,0
581,575,0,0,0,0,0,0,0,0,0,-1,1805,449,0,0
588,575,0,0,0,0,0,0,0,0,0,-1,1812,449,0,0
595,575,0,0,0,0,0,0,0,0,0,-1,1819,449,0,0
602,575,0,0,0,0,0,0,0,0,0,-1,1826,449,0,0
609,575,0,0,0,0,0,0,0,0,0,-1,1833,449,0,0
616,575,0,0,0,0,0,0,0,0,0,-1,1840,449,0,0
623,575,0,0,0,0,0,0,0,0,0,-1,1847,449,0,0
630,575,0,0,0,0,0,0,0,0,0,-1,1854,449,0,0
637,575,0,0,0,0,0,0,0,0,0,-1,1861,449,0,0
644,575,0,0,0,0,0,0,0,0,0,-1,1868,449,0,0
651,575,0,0,0,0,0,0,0,0,0,-1,1875,449,0,0
658,575,0,0,0,0,0,0,0,0,0,-1,1882,449,0,0
665,575,0,0,0,0,0,0,0,0,0,-1,1889,449,0,0
672,575,0,0,0,0,0,0,0,0,0,-1,1896,449,0,0
679,575,0,0,0,0,0,0,0,0,0,-1,1903,449,0,0
686,575,0,0,0,0,0,0,0,0,0,-1,1910,449,0,0
693,575,0,0,0,0,0,0,0,0,0,-1,1917,449,0,0
700,575,0,0,0,0,0,0,0,0,0,-1,1924,449,0,0
707,575,0,0,0,0,0,0,0,0,0,-1,1931,449,0,0
714,575,0,0,0,0,0,0,0,0,0,-1,1938,449,0,0
721,575,0,0,0,0,0,0,0,0,0,-1,1945,449,0,0
728,575,0,0,0,0,0,0,0,0,0,-1,1952,449,0,0
735,575,0,0,0,0,0,0,0,0,0,-1,1959,449,0,0
742,575,0,0,0,0,0,0,0,0,0,-1,1966,449,0,0
749,575,0,0,0,0,0,0,0,0,0,-1,1973,449,0,0
756,575,0,0,0,0,0,0,0,0,0,-1,1980,449,0,0
763,575,0,0,0,0,0,0,0,0,0,-1,1987,449,0,0
770,575,0,0,0,0,0,0,0,0,0,-1,1994,449,0,0
777,575,0,0,0,0,0,0,0,0,0,-1,2001,449,0,0
784,575,0,0,0,0,0,0,0,0,0,-1,2008,449,0,0
791,575,0,0,0,0,0,0,0,0,0,-1,2015,449,0,0
798,575,0,0,0,0,0,0,0,0,0,-1,2022,449,0,0
805,575,0,0,0,0,0,0,0,0,0,-1,2029,449,0,0
812,575,0,0,0,0,0,0,0,0,0,-1,2036,449,0,0
-700,568,0,0,0,0,0,0,0,0,0,-1,524,456,0,0
-693,568,0,0,0,0,0,0,0,0,0,-1,531,456,0,0
-686,568,0,0,0,0,0,0,0,0,0,-1,538,456,0,0
-679,568,0,0,0,0,0,0,0,0,0,-1,545,456,0,0
-672,568,0,0,0,0,0,0,0,0,0,-1,552,456,0,0
-665,568,0,0,0,0,0,0,0,0,0,-1,559,456,0,0
-658,568,0,0,0,0,0,0,0,0,0,-1,566,456,0,0
-651,568,0,0,0,0,0,0,0,0,0,-1,573,456,0,0
-644,568,0,0,0,0,0,0,0,0,0,-1,580,456,0,0
-637,568,0,0,0,0,0,0,0,0,0,-1,587,456,0,0
-630,568,0,0,0,0,0,0,0,0,0,-1,594,456,0,0
-623,568,0,0,0,0,0,0,0,0,0,-1,601,456,0,0
-616,568,0,0,0,0,0,0,0,0,0,-1,608,456,0,0
-609,568,0,0,0,0,0,0,0,0,0,-1,615,456,0,0
-602,568,0,0,0,0,0,0,0,0,0,-1,622,456,0,0
-595,568,0,0,0,0,0,0,0,0,0,-1,629,456,0,0
-588,568,0,0,0,0,0,0,0,0,0,-1,636,456,0,0
-581,568,0,0,0,0,0,0,0,0,0,-1,643,456,0,0
-574,568,0,0,0,0,0,0,0,0,0,-1,650,456,0,0
-567,568,0,0,0,0,0,0,0,0,0,-1,657,456,0,0
-560,568,0,0,0,0,0,0,0,0,0,-1,664,456,0,0
-553,568,0,0,0,0,0,0,0,0,0,-1,671,456,0,0
-546,568,0,0,0,0,0,0,0,0,0,-1,678,456,0,0
-539,568,0,0,0,0,0,0,0,0,0,-1,685,456,0,0
-532,568,0,0,0,0,0,0,0,0,0,-1,692,456,0,0
-525,568,0,0,0,0,0,0,0,0,0,-1,699,456,0,0
-518,568,0,0,0,0,0,0,0,0,0,-1,706,456,0,0
-511,568,0,0,0,0,0,0,0,0,0,-1,713,456,0,0
-504,568,0,0,0,0,0,0,0,0,0,-1,720,456,0,0
-497,568,0,0,0,0,0,0,0,0,0,-1,727,456,0,0
-490,568,0,0,0,0,0,0,0,0,0,-1,734,456,0,0
-483,568,0,0,0,0,0,0,0,0,0,-1,741,456,0,0
-476,568,0,0,0,0,0,0,0,0,0,-1,748,456,0,0
-469,568,0,0,0,0,0,0,0,0,0,-1,755,456,0,0
-462,568,0,0,0,0,0,0,0,0,0,-1,762,456,0,0
-455,568,0,0,0,0,0,0,0,0,0,-1,769,456,0,0
-448,568,0,0,0,0,0,0,0,0,0,-1,776,456,0,0
-441,568,0,0,0,0,0,0,0,0,0,-1,783,456,0,0
-434,568,0,0,0,0,0,0,0,0,0,-1,790,456,0,0
-427,568,0,0,0,0,0,0,0,0,0,-1,797,456,0,0
-420,568,0,0,0,0,0,0,0,0,0,-1,804,456,0,0
-413,568,0,0,0,0,0,0,0,0,0,-1,811,456,0,0
-406,568,0,0,0,0,0,0,0,0,0,-1,818,456,0,0
-399,568,0,0,0,0,0,0,0,0,0,-1,825,456,0,0
-392,568,0,0,0,0,0,0,0,0,0,-1,832,456,0,0
-385,568,0,0,0,0,0,0,0,0,0,-1,839,456,0,0
-378,568,0.321777,-7.29929,0,0,0,0,0,0,0,-1,846,456,0.321806,7.29927
-371,568,1.09595,-7.46707,0,0,0,0,0,0,0,-1,853,456,1.09597,7.46707
-364,568,1.87787,-7.61115,0,0,0,0,0,0,0,-1,860,456,1.87784,7.61116
-357,568,2.14166,-7.67645,0,0,0,0,0,0,0,-1,867,456,2.14167,7.67646
-350,568,2.7467,-11.2507,0,0,0,0,0,0,0,-1,874,456,2.7467,11.2507
-343,568,2.16516,-11.3762,0,0,0,0,0,0,0,-1,881,456,2.16514,11.3762
-336,568,0.69281,-17.6563,0,0,0,0,0,0,0,-1,888,456,0.692814,17.6563
-329,568,0.866333,-17.9549,0,0,0,0,0,0,0,-1,895,456,0.866312,17.9549
-322,568,1.19501,-18.5051,0.0378162,0.000194865,-0.0267449,0.0517031,-0.013692,-0.478917,0.0398252,0.0425891,902,456,1.19502,18.5051
-315,568,1.59027,-18.966,0.0326163,-0.00189658,-0.0220993,0.0433984,-0.0126787,-0.453918,0.0339569,0.0404504,909,456,1.59028,18.966
-308,568,1.87012,-19.6444,0.0279526,-0.00283984,-0.0183193,0.0364863,-0.0113736,-0.435941,0.028872,0.0315993,916,456,1.87009,19.6444
-301,568,1.88525,-20.2289,0.0234219,-0.00336372,-0.0149454,0.0300973,-0.0100391,-0.420066,0.0241181,0.0168357,923,456,1.88524,20.2289
-294,568,1.85291,-20.6584,0.0194238,-0.00356807,-0.0119322,0.0244969,-0.00864121,-0.402009,0.0198489,0.0122395,930,456,1.85291,20.6584
-287,568,1.83478,-21.1162,0.0159016,-0.0036895,-0.00930456,0.0196164,-0.00740422,-0.379848,0.0161227,0.010838,937,456,1.83478,21.1162
-280,568,1.81799,-21.5786,0.0130056,-0.00342783,-0.00728826,0.0157722,-0.00619442,-0.362794,0.0130781,0.0114012,944,456,1.81799,21.5786
-273,568,1.79791,-22.0183,0.0104922,-0.00310472,-0.00556652,0.0124804,-0.00509291,-0.343046,0.0104405,0.0128438,951,456,1.79792,22.0183
-266,568,1.78094,-22.4479,0.00783945,-0.00308114,-0.00363803,0.00894041,-0.0041821,-0.293864,0.00774053,0.0119836,958,456,1.78094,22.4479
-259,568,1.75745,-22.8701,0.00620634,-0.00249216,-0.0026916,0.00697184,-0.00325766,-0.277088,0.00603438,0.0125306,965,456,1.75743,22.8701
-252,568,1.70331,-23.2657,0.00511988,-0.00234724,-0.00190258,0.0055767,-0.00280406,-0.235645,0.00492611,0.0127369,972,456,1.70328,23.2657
-245,568,1.68561,-23.6574,0.00425469,-0.00267039,-0.00118267,0.0044511,-0.00286679,-0.164568,0.00425786,0.0145943,979,456,1.68561,23.6574
-238,568,1.70209,-24.0716,0.00353164,-0.00303077,-0.000441811,0.00356125,-0.00306038,-0.066922,0.00382664,0.0134964,986,456,1.70211,24.0716
-231,568,1.70135,-24.4706,0.00309445,-0.00372043,0.000114551,0.00309637,-0.00372236,0.0168027,0.00394232,0.0123904,993,456,1.70138,24.4706
-224,568,1.68622,-24.861,0.00287086,-0.00472748,0.000656583,0.00292718,-0.0047838,0.0855661,0.00449475,0.0136099,1000,456,1.68623,24.861
-217,568,1.68463,-25.2572,0.00267265,-0.00587505,0.00119759,0.00283727,-0.00603968,0.136604,0.00523509,0.0118023,1007,456,1.68461,25.2572
-210,568,1.69623,-25.6203,0.00232649,-0.00717683,0.00183861,0.0026698,-0.00752014,0.184599,0.00610128,0.0117564,1014,456,1.69625,25.6203
-203,568,1.70874,-25.9949,0.0018367,-0.00859992,0.00274427,0.00251431,-0.00927752,0.242073,0.00717157,0.0106414,1021,456,1.70873,25.9949
-196,568,1.72412,-26.3397,0.00139041,-0.00984751,0.00350267,0.00239274,-0.0108498,0.278712,0.00814875,0.0138147,1028,456,1.72413,26.3397
-189,568,1.7157,-26.6934,0.000655165,-0.010711,0.00430259,0.00210018,-0.012156,0.324011,0.00888715,0.0133714,1035,456,1.71573,26.6934
-182,568,1.73364,-27.0529,-0.000200916,-0.0118158,0.00534278,0.00188288,-0.0138996,0.371875,0.00995357,0.0158051,1042,456,1.73361,27.0529
-175,568,1.77246,-27.3794,-0.00101168,-0.0133451,0.00628832,0.00162906,-0.0159859,0.39758,0.0112397,0.0160364,1049,456,1.77246,27.3794
-168,568,1.75,-27.6072,-0.0018823,-0.0151254,0.00710945,0.00121156,-0.0182193,0.410458,0.0125695,0.0222144,1056,456,1.74996,27.6072
-161,568,1.71375,-27.8888,-0.00324558,-0.0171407,0.00807251,0.000457408,-0.0208437,0.430078,0.0140507,0.0374964,1063,456,1.7138,27.8888
-154,568,1.8457,-28.4312,-0.00432497,-0.0193376,0.00911003,-2.71602e-05,-0.0236354,0.440808,0.0157479,0.0457378,1070,456,1.84573,28.4312
-147,568,1.91431,-28.5591,-0.00421323,-0.0211428,0.00931037,-9.48664e-05,-0.0252611,0.416467,0.0168092,0.0476137,1077,456,1.91426,28.5591
-140,568,1.87036,-28.853,-0.00393031,-0.023511,0.0093108,-0.000209859,-0.0272315,0.380148,0.0180848,0.0450691,1084,456,1.87038,28.853
-133,568,1.72986,-29.2351,0,0,0,0,0,0,0,-1,1091,456,1.72987,29.2351
-126,568,1.84155,-28.4934,-0.00313625,-0.0316976,0.00924984,-0.000402309,-0.0344316,0.287384,0.0228215,0.0464132,1098,456,1.84161,28.4934
-119,568,1.88928,-28.7537,-0.00205392,-0.0354999,0.00862132,3.75975e-05,-0.0375914,0.238,0.0250735,0.0486772,1105,456,1.88926,28.7537
-112,568,1.56445,-28.8314,0,0,0,0,0,0,0,-1,1112,456,1.5645,28.8314
-105,568,2.02454,-25.038,0,0,0,0,0,0,0,-1,1119,456,2.02459,25.038
-98,568,1.58618,-14.7874,0,0,0,0,0,0,0,-1,1126,456,1.58617,14.7874
-91,568,1.11621,-11.1853,0,0,0,0,0,0,0,-1,1133,456,1.11626,11.1853
-84,568,0.461792,-9.7959,0,0,0,0,0,0,0,-1,1140,456,0.461793,9.7959
-77,568,-1.13806,-8.57822,0,0,0,0,0,0,0,-1,1147,456,-1.13807,8.57821
-70,568,-4.09766,-1.42911,0,0,0,0,0,0,0,-1,1154,456,-4.09767,1.4291
-63,568,-5.92273,-3.70752,0,0,0,0,0,0,0,-1,1161,456,-5.92272,3.70751
-56,568,-5.24158,-6.01385,0,0,0,0,0,0,0,-1,1168,456,-5.24161,6.01386
-49,568,-5.24365,-8.33557,0,0,0,0,0,0,0,-1,1175,456,-5.24371,8.33557
-42,568,-0.664795,0.521973,0,0,0,0,0,0,0,-1,1182,456,-0.664829,-0.521984
-35,568,-0.153076,-1.67731,0,0,0,0,0,0,0,-1,1189,456,-0.153068,1.67731
-28,568,1.25439,-4.48798,0,0,0,0,0,0,0,-1,1196,456,1.2544,4.48797
-21,568,3.80615,-32.0667,0,0,0,0,0,0,0,-1,1203,456,3.80621,32.0667
-14,568,3.60925,-31.6073,-0.00982592,-0.00978271,0.0461319,0.0363276,-0.0559362,0.785632,0.053668,0.0464157,1210,456,3.60931,31.6073
-7,568,3.42859,-31.1187,-0.00841497,-0.0163315,0.0475078,0.0352992,-0.0600456,0.743835,0.055662,0.0477391,1217,456,3.42855,31.1187
0,568,3.35278,-30.3448,-0.00613608,-0.0242522,0.0479989,0.0336519,-0.0640402,0.692138,0.057305,0.0488634,1224,456,3.35275,30.3448
7,568,3.22156,-29.7092,0,0,0,0,0,0,0,-1,1231,456,3.22156,29.7092
14,568,5.97986,-33.2133,0,0,0,0,0,0,0,-1,1238,456,5.9798,33.2133
21,568,5.16687,-31.9921,0,0,0,0,0,0,0,-1,1245,456,5.16689,31.9921
28,568,5.44092,-30.9554,0.011936,-0.0483458,0.0409439,0.0326368,-0.0690466,0.468109,0.0599483,0.0435821,1252,456,5.44097,30.9554
35,568,5.46118,-30.1621,0.0160578,-0.0499988,0.0388612,0.0340301,-0.0679711,0.433179,0.0599674,0.0446371,1259,456,5.46124,30.1621
42,568,5.29187,-29.5786,0.0209839,-0.0468135,0.0391466,0.0388692,-0.0646987,0.42856,0.0604117,0.0430102,1266,456,5.29187,29.5786
49,568,5.31763,-28.7967,0.0279761,-0.0384379,0.040627,0.0472406,-0.0577024,0.442779,0.0606891,0.045619,1273,456,5.31766,28.7967
56,568,5.59961,-27.6608,0.0369796,-0.0286348,0.0421036,0.0575487,-0.0492039,0.454433,0.0616964,0.0474318,1280,456,5.5996,27.6608
63,568,6.02844,-26.9371,0.0464883,-0.0173211,0.0434458,0.0684858,-0.0393186,0.468691,0.0629957,0.0477119,1287,456,6.0284,26.9371
70,568,6.88867,-26.427,0,0,0,0,0,0,0,-1,1294,456,6.8887,26.427
77,568,3.40125,-34.4071,0,0,0,0,0,0,0,-1,1301,456,3.40126,34.4071
84,568,4.37744,-31.9411,0,0,0,0,0,0,0,-1,1308,456,4.37745,31.9411
91,568,5.26758,-29.8093,0.0897327,0.0353271,0.0585449,0.127086,-0.0020263,0.567914,0.0854075,0.0456826,1315,456,5.26752,29.8093
98,568,5.73633,-27.739,0.102224,0.0462773,0.0617788,0.142068,0.00643396,0.572807,0.0926418,0.0457571,1322,456,5.73628,27.739
105,568,6.26038,-25.6434,0.113987,0.0536907,0.0630453,0.153722,0.013956,0.56237,0.0981606,0.0453604,1329,456,6.26035,25.6434
112,568,6.87439,-23.5636,0,0,0,0,0,0,0,-1,1336,456,6.87439,23.5636
119,568,8.05615,-22.3415,0,0,0,0,0,0,0,-1,1343,456,8.05612,22.3415
126,568,-2.58459,-26.5746,0,0,0,0,0,0,0,-1,1350,456,-2.58462,26.5746
133,568,9.96021,-31.7393,0,0,0,0,0,0,0,-1,1357,456,9.96015,31.7394
140,568,8.88245,-31.6304,0,0,0,0,0,0,0,-1,1364,456,8.88249,31.6304
147,568,6.71118,-30.615,0,0,0,0,0,0,0,-1,1371,456,6.71122,30.6149
154,568,6.7323,-30.505,0,0,0,0,0,0,0,-1,1378,456,6.73226,30.505
161,568,6.7533,-30.3951,0,0,0,0,0,0,0,-1,1385,456,6.7533,30.3951
168,568,4.17395,-32.3794,0,0,0,0,0,0,0,-1,1392,456,4.174,32.3794
175,568,10.5151,0.747498,0,0,0,0,0,0,0,-1,1399,456,10.5152,-0.747501
182,568,6.35095,-3.63361,0,0,0,0,0,0,0,-1,1406,456,6.35093,3.63359
189,568,6.17493,-1.70911,0,0,0,0,0,0,0,-1,1413,456,6.17497,1.70911
196,568,6.04724,0.200836,0,0,0,0,0,0,0,-1,1420,456,6.04724,-0.200835
203,568,5.9281,2.08649,0,0,0,0,0,0,0,-1,1427,456,5.92812,-2.08648
210,568,1.46216,-2.50446,0,0,0,0,0,0,0,-1,1434,456,1.46219,2.50446
217,568,2.62366,-7.86703,0,0,0,0,0,0,0,-1,1441,456,2.62365,7.86704
224,568,3.43494,-12.1555,0,0,0,0,0,0,0,-1,1448,456,3.43492,12.1555
231,568,4.38245,-9.3205,0,0,0,0,0,0,0,-1,1455,456,4.38244,9.32048
238,568,5.88879,-20.7448,0,0,0,0,0,0,0,-1,1462,456,5.88876,20.7449
245,568,3.34387,-10.6774,0,0,0,0,0,0,0,-1,1469,456,3.34389,10.6774
252,568,3.56946,-9.28928,0,0,0,0,0,0,0,-1,1476,456,3.56948,9.28928
259,568,3.38843,-8.73068,0,0,0,0,0,0,0,-1,1483,456,3.38842,8.73068
266,568,3.104,-9.16876,0,0,0,0,0,0,0,-1,1490,456,3.10397,9.16876
273,568,3.77869,-13.1147,0,0,0,0,0,0,0,-1,1497,456,3.77869,13.1147
280,568,4.40002,-14.9322,0,0,0,0,0,0,0,-1,1504,456,4.4,14.9322
287,568,7.2876,-27.642,0,0,0,0,0,0,0,-1,1511,456,7.28757,27.642
294,568,7.3855,-26.9569,0.0043885,-0.00473495,-0.00267305,0.00511398,-0.00546043,-0.265021,0.00610623,0.0406518,1518,456,7.38552,26.957
301,568,7.39197,-26.6497,0.00394937,-0.00562324,-0.00291296,0.00476611,-0.00643997,-0.273361,0.00649385,0.0215191,1525,456,7.39201,26.6497
308,568,7.39893,-26.314,0.0035124,-0.00604339,-0.00301183,0.00438245,-0.00691345,-0.281225,0.00657604,0.014505,1532,456,7.39888,26.314
315,568,7.40991,-25.979,0.0028434,-0.00606456,-0.00305446,0.00379013,-0.0070113,-0.30056,0.00632797,0.00845605,1539,456,7.40986,25.979
322,568,7.41968,-25.6014,0.00222844,-0.00570765,-0.0028847,0.00316619,-0.0066454,-0.314303,0.00578222,0.00985398,1546,456,7.41965,25.6014
329,568,7.43835,-25.1969,0.00177433,-0.00510591,-0.00254856,0.00261551,-0.00594709,-0.318805,0.00506682,0.0107255,1553,456,7.43841,25.1969
336,568,7.4436,-24.7863,0.00139743,-0.00441938,-0.00216998,0.00211775,-0.0051397,-0.320502,0.00430947,0.0114021,1560,456,7.44358,24.7863
343,568,7.46021,-24.3909,0.000967864,-0.00365657,-0.00182464,0.0016011,-0.0042898,-0.334039,0.00351722,0.0117497,1567,456,7.46016,24.3909
350,568,7.44067,-23.9894,0.000647573,-0.00267908,-0.00135744,0.00113118,-0.00316268,-0.342241,0.00256988,0.0106547,1574,456,7.44068,23.9894
357,568,7.41931,-23.562,0.000382032,-0.00157136,-0.000828452,0.000686065,-0.0018754,-0.351729,0.00153108,0.0101495,1581,456,7.41933,23.562
364,568,7.42847,-23.1593,0.000169035,-0.000557353,-0.000269792,0.000258276,-0.000646594,-0.319449,0.000538224,0.0119625,1588,456,7.42844,23.1593
371,568,7.40503,-22.7407,-1.70474e-05,0.000452611,0.000259899,0.000568056,-0.000132493,1.15278,0.000429732,0.0193854,1595,456,7.40502,22.7407
378,568,7.38879,-22.2956,-0.000206747,0.00145545,0.000715961,0.00172131,-0.00047261,1.21524,0.0013333,0.0171169,1602,456,7.38884,22.2956
385,568,7.38733,-21.8575,-0.000416013,0.00241611,0.00106525,0.00277205,-0.000771955,1.24832,0.00215201,0.00893372,1609,456,7.38739,21.8575
392,568,7.37488,-21.4472,-0.000516029,0.00319285,0.00138781,0.00365465,-0.000977828,1.24957,0.00281947,0.0103988,1616,456,7.37484,21.4472
399,568,7.33032,-21.0503,-0.00033432,0.00379245,0.00188606,0.00452455,-0.00106643,1.20053,0.0034276,0.0178248,1623,456,7.33037,21.0503
406,568,7.31921,-20.5735,-0.000307452,0.00439046,0.00227769,0.00531342,-0.00123042,1.1858,0.00401575,0.016575,1630,456,7.3192,20.5735
413,568,7.30872,-20.0681,7.34311e-05,0.00525188,0.00227204,0.0061074,-0.000782085,1.21068,0.00435576,0.0131817,1637,456,7.30873,20.0681
420,568,7.28906,-19.5691,0.000914397,0.00587981,0.00273523,0.00709106,-0.000296856,1.15392,0.00482937,0.0111238,1644,456,7.28907,19.5691
427,568,7.25842,-19.0713,0.00181864,0.00669235,0.00334152,0.00839119,0.0001198,1.10045,0.00555463,0.0124256,1651,456,7.25841,19.0713
434,568,7.26904,-18.5788,0.00307391,0.00769702,0.00388474,0.00990591,0.000865013,1.05378,0.00633532,0.0185969,1658,456,7.2691,18.5788
441,568,7.23303,-18.1523,0.00461274,0.00882442,0.004518,0.0117032,0.00173391,1.00348,0.00729322,0.0292358,1665,456,7.233,18.1522
448,568,7.49829,-17.6131,0.006249,0.00992113,0.0052035,0.013603,0.00256713,0.955005,0.00834562,0.0413032,1672,456,7.49829,17.6131
455,568,7.50903,-16.7734,0,0,0,0,0,0,0,-1,1679,456,7.50907,16.7734
462,568,7.04675,-16.2782,0.0101842,0.0125042,0.00709289,0.0185313,0.00415706,0.866451,0.011228,0.0483888,1686,456,7.04681,16.2782
469,568,7.40417,-16.0427,0.0118195,0.0138076,0.00823168,0.0211051,0.00452209,0.845487,0.0128311,0.0448052,1693,456,7.40422,16.0427
476,568,6.86548,-15.4725,0,0,0,0,0,0,0,-1,1700,456,6.86554,15.4725
483,568,7.73828,-15.321,0,0,0,0,0,0,0,-1,1707,456,7.73834,15.3209
490,568,7.13123,-15.6385,0,0,0,0,0,0,0,-1,1714,456,7.13125,15.6386
497,568,5.27844,-10.0788,0,0,0,0,0,0,0,-1,1721,456,5.27847,10.0788
504,568,0,0,0,0,0,0,0,0,0,-1,1728,456,0,0
511,568,0,0,0,0,0,0,0,0,0,-1,1735,456,0,0
518,568,0,0,0,0,0,0,0,0,0,-1,1742,456,0,0
525,568,0,0,0,0,0,0,0,0,0,-1,1749,456,0,0
532,568,0,0,0,0,0,0,0,0,0,-1,1756,456,0,0
539,568,0,0,0,0,0,0,0,0,0,-1,1763,456,0,0
546,568,0,0,0,0,0,0,0,0,0,-1,1770,456,0,0
553,568,0,0,0,0,0,0,0,0,0,-1,1777,456,0,0
560,568,0,0,0,0,0,0,0,0,0,-1,1784,456,0,0
567,568,0,0,0,0,0,0,0,0,0,-1,1791,456,0,0
574,568,0,0,0,0,0,0,0,0,0,-1,1798,456,0,0
581,568,0,0,0,0,0,0,0,0,0,-1,1805,456,0,0
588,568,0,0,0,0,0,0,0,0,0,-1,1812,456,0,0
595,568,0,0,0,0,0,0,0,0,0,-1,1819,456,0,0
602,568,0,0,0,0,0,0,0,0,0,-1,1826,456,0,0
609,568,0,0,0,0,0,0,0,0,0,-1,1833,456,0,0
616,568,0,0,0,0,0,0,0,0,0,-1,1840,456,0,0
623,568,0,0,0,0,0,0,0,0,0,-1,1847,456,0,0
630,568,0,0,0,0,0,0,0,0,0,-1,1854,456,0,0
637,568,0,0,0,0,0,0,0,0,0,-1,1861,456,0,0
644,568,0,0,0,0,0,0,0,0,0,-1,1868,456,0,0
651,568,0,0,0,0,0,0,0,0,0,-1,1875,456,0,0
658,568,0,0,0,0,0,0,0,0,0,-1,1882,456,0,0
665,568,0,0,0,0,0,0,0,0,0,-1,1889,456,0,0
672,568,0,0,0,0,0,0,0,0,0,-1,1896,456,0,0
679,568,0,0,0,0,0,0,0,0,0,-1,1903,456,0,0
686,568,0,0,0,0,0,0,0,0,0,-1,1910,456,0,0
693,568,0,0,0,0,0,0,0,0,0,-1,1917,456,0,0
700,568,0,0,0,0,0,0,0,0,0,-1,1924,456,0,0
707,568,0,0,0,0,0,0,0,0,0,-1,1931,456,0,0
714,568,0,0,0,0,0,0,0,0,0,-1,1938,456,0,0
721,568,0,0,0,0,0,0,0,0,0,-1,1945,456,0,0
728,568,0,0,0,0,0,0,0,0,0,-1,1952,456,0,0
735,568,0,0,0,0,0,0,0,0,0,-1,1959,456,0,0
742,568,0,0,0,0,0,0,0,0,0,-1,1966,456,0,0
749,568,0,0,0,0,0,0,0,0,0,-1,1973,456,0,0
756,568,0,0,0,0,0,0,0,0,0,-1,1980,456,0,0
763,568,0,0,0,0,0,0,0,0,0,-1,1987,456,0,0
770,568,0,0,0,0,0,0,0,0,0,-1,1994,456,0,0
777,568,0,0,0,0,0,0,0,0,0,-1,2001,456,0,0
784,568,0,0,0,0,0,0,0,0,0,-1,2008,456,0,0
791,568,0,0,0,0,0,0,0,0,0,-1,2015,456,0,0
798,568,0,0,0,0,0,0,0,0,0,-1,2022,456,0,0
805,568,0,0,0,0,0,0,0,0,0,-1,2029,456,0,0
812,568,0,0,0,0,0,0,0,0,0,-1,2036,456,0,0
-700,561,0,0,0,0,0,0,0,0,0,-1,524,463,0,0
-693,561,0,0,0,0,0,0,0,0,0,-1,531,463,0,0
-686,561,0,0,0,0,0,0,0,0,0,-1,538,463,0,0
-679,561,0,0,0,0,0,0,0,0,0,-1,545,463,0,0
-672,561,0,0,0,0,0,0,0,0,0,-1,552,463,0,0
-665,561,0,0,0,0,0,0,0,0,0,-1,559,463,0,0
-658,561,0,0,0,0,0,0,0,0,0,-1,566,463,0,0
-651,561,0,0,0,0,0,0,0,0,0,-1,573,463,0,0
-644,561,0,0,0,0,0,0,0,0,0,-1,580,463,0,0
-637,561,0,0,0,0,0,0,0,0,0,-1,587,463,0,0
-630,561,0,0,0,0,0,0,0,0,0,-1,594,463,0,0
-623,561,0,0,0,0,0,0,0,0,0,-1,601,463,0,0
-616,561,0,0,0,0,0,0,0,0,0,-1,608,463,0,0
-609,561,0,0,0,0,0,0,0,0,0,-1,615,463,0,0
-602,561,0,0,0,0,0,0,0,0,0,-1,622,463,0,0
-595,561,0,0,0,0,0,0,0,0,0,-1,629,463,0,0
-588,561,0,0,0,0,0,0,0,0,0,-1,636,463,0,0
-581,561,0,0,0,0,0,0,0,0,0,-1,643,463,0,0
-574,561,0,0,0,0,0,0,0,0,0,-1,650,463,0,0
-567,561,0,0,0,0,0,0,0,0,0,-1,657,463,0,0
-560,561,0,0,0,0,0,0,0,0,0,-1,664,463,0,0
-553,561,0,0,0,0,0,0,0,0,0,-1,671,463,0,0
-546,561,0,0,0,0,0,0,0,0,0,-1,678,463,0,0
-539,561,0,0,0,0,0,0,0,0,0,-1,685,463,0,0
-532,561,0,0,0,0,0,0,0,0,0,-1,692,463,0,0
-525,561,0,0,0,0,0,0,0,0,0,-1,699,463,0,0
-518,561,0,0,0,0,0,0,0,0,0,-1,706,463,0,0
-511,561,0,0,0,0,0,0,0,0,0,-1,713,463,0,0
-504,561,0,0,0,0,0,0,0,0,0,-1,720,463,0,0
-497,561,0,0,0,0,0,0,0,0,0,-1,727,463,0,0
-490,561,0,0,0,0,0,0,0,0,0,-1,734,463,0,0
-483,561,0,0,0,0,0,0,0,0,0,-1,741,463,0,0
-476,561,0,0,0,0,0,0,0,0,0,-1,748,463,0,0
-469,561,0,0,0,0,0,0,0,0,0,-1,755,463,0,0
-462,561,0,0,0,0,0,0,0,0,0,-1,762,463,0,0
-455,561,0,0,0,0,0,0,0,0,0,-1,769,463,0,0
-448,561,0,0,0,0,0,0,0,0,0,-1,776,463,0,0
-441,561,0,0,0,0,0,0,0,0,0,-1,783,463,0,0
-434,561,0,0,0,0,0,0,0,0,0,-1,790,463,0,0
-427,561,0,0,0,0,0,0,0,0,0,-1,797,463,0,0
-420,561,0,0,0,0,0,0,0,0,0,-1,804,463,0,0
-413,561,0,0,0,0,0,0,0,0,0,-1,811,463,0,0
-406,561,0,0,0,0,0,0,0,0,0,-1,818,463,0,0
-399,561,0,0,0,0,0,0,0,0,0,-1,825,463,0,0
-392,561,4.92407,-2.54578,0,0,0,0,0,0,0,-1,832,463,4.92408,2.54576
-385,561,5.55634,-1.02338,0,0,0,0,0,0,0,-1,839,463,5.55634,1.02338
-378,561,0.160522,-4.51785,0,0,0,0,0,0,0,-1,846,463,0.160542,4.51785
-371,561,1.06299,-7.56818,0,0,0,0,0,0,0,-1,853,463,1.06297,7.56817
-364,561,1.45264,-7.57684,0,0,0,0,0,0,0,-1,860,463,1.45264,7.57684
-357,561,0.948242,-12.2803,0,0,0,0,0,0,0,-1,867,463,0.948262,12.2803
-350,561,1.33124,-11.9406,0,0,0,0,0,0,0,-1,874,463,1.33127,11.9406
-343,561,1.13214,-14.1837,0,0,0,0,0,0,0,-1,881,463,1.13217,14.1837
-336,561,1.76471,-17.8195,0,0,0,0,0,0,0,-1,888,463,1.76472,17.8195
-329,561,1.29297,-18.1933,0,0,0,0,0,0,0,-1,895,463,1.29297,18.1933
-322,561,1.32843,-18.7531,0.0258347,0.00194943,-0.0196363,0.0368749,-0.0090908,-0.512188,0.0281079,0.0318941,902,463,1.32844,18.753
-315,561,1.51196,-19.0778,0.0223451,0.000440606,-0.0164463,0.0311522,-0.00836648,-0.491648,0.0240471,0.0222209,909,463,1.51197,19.0778
-308,561,1.52545,-19.6482,0.0190236,-0.000254295,-0.0137558,0.0261814,-0.00741208,-0.479793,0.0203793,0.0186675,916,463,1.52542,19.6482
-301,561,1.46558,-20.2387,0.015789,-0.000834013,-0.0112216,0.021442,-0.00648698,-0.466647,0.0168778,0.0136056,923,463,1.46559,20.2387
-294,561,1.42572,-20.6823,0.012908,-0.00126646,-0.00886939,0.0171739,-0.00553243,-0.448313,0.0136718,0.0117284,930,463,1.42571,20.6823
-287,561,1.39771,-21.1233,0.0103381,-0.00155611,-0.00678835,0.0134159,-0.00463396,-0.425678,0.0108245,0.0101575,937,463,1.39771,21.1233
-280,561,1.36871,-21.5742,0.00821698,-0.00158435,-0.00515766,0.0104309,-0.00379831,-0.405471,0.00850756,0.0120627,944,463,1.36869,21.5741
-273,561,1.34216,-22.0127,0.00641623,-0.00162473,-0.00372067,0.00787368,-0.00308217,-0.373344,0.00652389,0.0149197,951,463,1.34218,22.0127
-266,561,1.34845,-22.4222,0.00468867,-0.00199696,-0.00214834,0.00531949,-0.00262778,-0.285604,0.00467526,0.0096777,958,463,1.34842,22.4222
-259,561,1.35028,-22.8434,0.00388948,-0.00195785,-0.00142349,0.0042176,-0.00228598,-0.226551,0.00380965,0.0105043,965,463,1.35028,22.8434
-252,561,1.30408,-23.2402,0.0034704,-0.00246293,-0.000752981,0.00356446,-0.002557,-0.124282,0.00355015,0.0145944,972,463,1.30405,23.2402
-245,561,1.29541,-23.6371,0.00324196,-0.00347714,-0.00011199,0.00324383,-0.003479,-0.0166612,0.00388222,0.0174878,979,463,1.29541,23.6371
-238,561,1.32562,-24.0641,0.00322004,-0.00452219,0.000512929,0.00325387,-0.00455602,0.0658672,0.00452989,0.0144497,986,463,1.32562,24.0641
-231,561,1.30365,-24.481,0.00339216,-0.00579244,0.000991695,0.00349801,-0.0058983,0.106341,0.00548365,0.0123441,993,463,1.30366,24.481
-224,561,1.28815,-24.8842,0.00363117,-0.00733173,0.001499,0.00383244,-0.007533,0.133471,0.00667678,0.0125151,1000,463,1.28814,24.8842
-217,561,1.30994,-25.2526,0.00384798,-0.00900032,0.00200277,0.00415293,-0.00930527,0.151103,0.00795764,0.0125371,1007,463,1.30996,25.2525
-210,561,1.32489,-25.6096,0.00365622,-0.0106965,0.00271771,0.00415359,-0.0111939,0.181007,0.00916637,0.0125956,1014,463,1.32487,25.6095
-203,561,1.32971,-25.965,0.00301278,-0.0122793,0.00373753,0.00387739,-0.0131439,0.227332,0.0103012,0.0134955,1021,463,1.32969,25.965
-196,561,1.29626,-26.2937,0.00232122,-0.0136005,0.00460755,0.00355845,-0.0148377,0.262334,0.0112668,0.0147522,1028,463,1.29632,26.2937
-189,561,1.30591,-26.6179,0.00119747,-0.0143855,0.00558446,0.00299209,-0.0161801,0.310936,0.0119101,0.0180302,1035,463,1.3059,26.6179
-182,561,1.40649,-26.9516,-0.000199647,-0.0155886,0.00694429,0.00247063,-0.0182589,0.367098,0.0130742,0.0226679,1042,463,1.40644,26.9516
-175,561,1.36877,-27.2263,-0.001589,-0.0172051,0.00816079,0.00189738,-0.0206915,0.403742,0.0144683,0.0350528,1049,463,1.36872,27.2263
-168,561,1.35071,-27.5695,-0.003068,-0.0191619,0.00922534,0.00112679,-0.0233567,0.426758,0.01596,0.0470358,1056,463,1.35073,27.5695
-161,561,1.21948,-27.9146,-0.00541641,-0.0214946,0.0106034,-0.000149126,-0.0267618,0.461047,0.0177917,0.0469939,1063,463,1.21954,27.9146
-154,561,0.879272,-28.1047,-0.0075337,-0.0242068,0.0122663,-0.00103916,-0.0307014,0.486937,0.0201301,0.0461767,1070,463,0.879293,28.1047
-147,561,1.61731,-28.5613,0,0,0,0,0,0,0,-1,1077,463,1.6173,28.5613
-140,561,1.71155,-28.793,0,0,0,0,0,0,0,-1,1084,463,1.7115,28.793
-133,561,1.83167,-27.8379,0,0,0,0,0,0,0,-1,1091,463,1.83162,27.8379
-126,561,1.76233,-28.0798,0,0,0,0,0,0,0,-1,1098,463,1.7623,28.0798
-119,561,1.69299,-28.3217,0,0,0,0,0,0,0,-1,1105,463,1.69299,28.3217
-112,561,0.793579,-25.7806,0,0,0,0,0,0,0,-1,1112,463,0.793536,25.7806
-105,561,0.530518,-13.5379,0,0,0,0,0,0,0,-1,1119,463,0.530477,13.5379
-98,561,1.5387,-7.54352,0,0,0,0,0,0,0,-1,1126,463,1.53871,7.54351
-91,561,1.29553,-6.57968,0,0,0,0,0,0,0,-1,1133,463,1.29549,6.5797
-84,561,1.23364,-5.84555,0,0,0,0,0,0,0,-1,1140,463,1.23363,5.84556
-77,561,-2.36023,1.00204,0,0,0,0,0,0,0,-1,1147,463,-2.3602,-1.00205
-70,561,-3.90015,-1.41541,0,0,0,0,0,0,0,-1,1154,463,-3.90009,1.4154
-63,561,-6.95691,-4.02756,0,0,0,0,0,0,0,-1,1161,463,-6.95696,4.02756
-56,561,-5.37988,-6.66855,0,0,0,0,0,0,0,-1,1168,463,-5.37988,6.66854
-49,561,-5.7439,-9.11029,0,0,0,0,0,0,0,-1,1175,463,-5.74387,9.1103
-42,561,-1.72644,-5.63065,0,0,0,0,0,0,0,-1,1182,463,-1.72648,5.63064
-35,561,-1.65674,-4.87994,0,0,0,0,0,0,0,-1,1189,463,-1.6567,4.87993
-28,561,-1.91418,-3.86896,0,0,0,0,0,0,0,-1,1196,463,-1.91414,3.86895
-21,561,3.56079,-32.2491,0,0,0,0,0,0,0,-1,1203,463,3.56074,32.2491
-14,561,3.43054,-31.6543,-0.0116287,-0.00381146,0.0546163,0.0470359,-0.0624761,0.82112,0.0634359,0.0455436,1210,463,3.43049,31.6543
-7,561,3.4408,-31.3622,-0.00966411,-0.0116456,0.0571314,0.0464851,-0.0677948,0.776728,0.0663608,0.0488675,1217,463,3.44077,31.3623
0,561,3.32983,-30.2725,0,0,0,0,0,0,0,-1,1224,463,3.32982,30.2725
7,561,5.81128,-32.7499,0,0,0,0,0,0,0,-1,1231,463,5.81126,32.7499
14,561,5.63135,-32.1504,0.00225836,-0.0380787,0.0557248,0.0413521,-0.0771725,0.611766,0.0694641,0.0419044,1238,463,5.63138,32.1504
21,561,5.5144,-31.7215,0.00815774,-0.0454053,0.052919,0.0406861,-0.0779337,0.551146,0.0696015,0.0419138,1245,463,5.51442,31.7215
28,561,5.58887,-30.5192,0.0144689,-0.0507814,0.0493579,0.0410097,-0.0773222,0.493366,0.0693829,0.0418619,1252,463,5.58884,30.5192
35,561,5.75354,-29.5328,0.0201308,-0.0533728,0.0461288,0.0423583,-0.0756004,0.449029,0.068999,0.0435473,1259,463,5.75351,29.5328
42,561,5.6189,-28.9392,0.0270179,-0.0495595,0.0458997,0.0485022,-0.0710438,0.437779,0.0694277,0.0459634,1266,463,5.61892,28.9392
49,561,5.91333,-28.1822,0.0361195,-0.0396605,0.0472622,0.0588048,-0.0623458,0.44751,0.0699562,0.045426,1273,463,5.9133,28.1822
56,561,6.35522,-27.4178,0.0472805,-0.0283503,0.0484774,0.0709473,-0.0520171,0.454165,0.0712734,0.0437787,1280,463,6.35517,27.4178
63,561,6.78955,-26.7096,0.0597055,-0.014804,0.0498367,0.0846731,-0.0397716,0.464437,0.0733906,0.0460177,1287,463,6.78959,26.7096
70,561,7.22351,-25.8499,0,0,0,0,0,0,0,-1,1294,463,7.22348,25.8499
77,561,6.99353,-25.3345,0,0,0,0,0,0,0,-1,1301,463,6.99357,25.3345
84,561,4.9137,-32.6375,0,0,0,0,0,0,0,-1,1308,463,4.91375,32.6376
91,561,5.99158,-30.4136,0.115633,0.0500058,0.0689422,0.159172,0.00646649,0.563284,0.104026,0.0467233,1315,463,5.99153,30.4136
98,561,6.54871,-28.5509,0.13129,0.0649189,0.0739865,0.179193,0.0170165,0.574579,0.114213,0.0477613,1322,463,6.54871,28.5509
105,561,6.99487,-26.0809,0,0,0,0,0,0,0,-1,1329,463,6.99483,26.0809
112,561,-0.25769,-25.984,0,0,0,0,0,0,0,-1,1336,463,-0.257659,25.984
119,561,-1.19531,-25.9649,0,0,0,0,0,0,0,-1,1343,463,-1.19528,25.9649
126,561,-1.62341,-25.3126,0,0,0,0,0,0,0,-1,1350,463,-1.62342,25.3126
133,561,-1.92871,-24.9356,0,0,0,0,0,0,0,-1,1357,463,-1.92874,24.9356
140,561,8.96265,-30.4945,0,0,0,0,0,0,0,-1,1364,463,8.96259,30.4945
147,561,7.91736,-30.3958,0,0,0,0,0,0,0,-1,1371,463,7.91731,30.3958
154,561,7.21631,-30.3926,0,0,0,0,0,0,0,-1,1378,463,7.21629,30.3926
161,561,7.2439,-30.3269,0,0,0,0,0,0,0,-1,1385,463,7.24389,30.3269
168,561,3.78113,-33.7118,0,0,0,0,0,0,0,-1,1392,463,3.78116,33.7118
175,561,10.4185,0.276398,0,0,0,0,0,0,0,-1,1399,463,10.4185,-0.276394
182,561,6.45703,-4.02127,0,0,0,0,0,0,0,-1,1406,463,6.45704,4.02127
189,561,6.50854,-2.08685,0,0,0,0,0,0,0,-1,1413,463,6.50851,2.08686
196,561,6.44775,-0.27182,0,0,0,0,0,0,0,-1,1420,463,6.44773,0.271814
203,561,6.18591,1.1301,0,0,0,0,0,0,0,-1,1427,463,6.18592,-1.13009
210,561,5.68713,2.68427,0,0,0,0,0,0,0,-1,1434,463,5.6871,-2.68425
217,561,3.61743,-7.33582,0,0,0,0,0,0,0,-1,1441,463,3.61738,7.33581
224,561,4.27466,-8.59171,0,0,0,0,0,0,0,-1,1448,463,4.27466,8.59171
231,561,4.93188,-9.8476,0,0,0,0,0,0,0,-1,1455,463,4.93193,9.84761
238,561,2.18018,-5.18359,0,0,0,0,0,0,0,-1,1462,463,2.18023,5.18359
245,561,3.07568,-3.50238,0,0,0,0,0,0,0,-1,1469,463,3.0757,3.50238
252,561,3.47412,-3.71109,0,0,0,0,0,0,0,-1,1476,463,3.47413,3.71109
259,561,3.42212,-3.2334,0,0,0,0,0,0,0,-1,1483,463,3.42214,3.2334
266,561,4.44373,-5.90027,0,0,0,0,0,0,0,-1,1490,463,4.44372,5.90026
273,561,2.59485,-3.65268,0,0,0,0,0,0,0,-1,1497,463,2.5948,3.65268
280,561,3.10767,-6.38235,0,0,0,0,0,0,0,-1,1504,463,3.10766,6.38235
287,561,4.91809,-14.429,0,0,0,0,0,0,0,-1,1511,463,4.9181,14.429
294,561,7.71887,-26.7449,0,0,0,0,0,0,0,-1,1518,463,7.71885,26.7449
301,561,7.70886,-26.4138,0.0049063,-0.00883123,-0.0040541,0.00601348,-0.00993841,-0.2666,0.00930229,0.045981,1525,463,7.7089,26.4138
308,561,7.79993,-26.1846,0.0043179,-0.00931302,-0.00430233,0.00556226,-0.0105574,-0.281545,0.00945444,0.0330487,1532,463,7.79995,26.1846
315,561,7.82019,-25.9269,0.00340362,-0.00930027,-0.00446354,0.00481508,-0.0107117,-0.306269,0.00917736,0.0193018,1539,463,7.82023,25.9269
322,561,7.82434,-25.6207,0.00263265,-0.00879554,-0.00431444,0.00407853,-0.0102414,-0.323363,0.00851902,0.0203012,1546,463,7.8243,25.6207
329,561,7.82263,-25.1913,0.00208838,-0.00799456,-0.00396269,0.00345935,-0.00936553,-0.333079,0.0076617,0.0154671,1553,463,7.82265,25.1913
336,561,7.8418,-24.7706,0.00164949,-0.00710579,-0.0035629,0.00291614,-0.00837244,-0.341575,0.00676648,0.0113905,1560,463,7.84185,24.7706
343,561,7.85449,-24.385,0.00113972,-0.00616533,-0.00320331,0.0023454,-0.00737101,-0.359984,0.00585455,0.0108446,1567,463,7.8545,24.385
350,561,7.84644,-23.9784,0.000784054,-0.00506398,-0.00269991,0.00183991,-0.00611984,-0.372785,0.00481191,0.0102381,1574,463,7.84644,23.9784
357,561,7.83875,-23.5466,0.000511605,-0.0037809,-0.00211313,0.00137728,-0.00464658,-0.388811,0.00364462,0.0103185,1581,463,7.83877,23.5466
364,561,7.83704,-23.1466,0.000319534,-0.00260179,-0.0014677,0.000929545,-0.0032118,-0.393902,0.00250911,0.00937284,1588,463,7.83709,23.1466
371,561,7.81934,-22.732,0.000179421,-0.00143531,-0.000843782,0.000539877,-0.00179577,-0.403724,0.00141197,0.0154636,1595,463,7.81929,22.732
378,561,7.80627,-22.2964,4.29469e-05,-0.000298185,-0.000291285,0.00020993,-0.000465168,-0.520529,0.000398946,0.0111212,1602,463,7.80626,22.2964
385,561,7.81104,-21.8614,-9.70983e-05,0.000841736,0.000190155,0.000878789,-0.00013415,1.37835,0.000635315,0.0100611,1609,463,7.81104,21.8614
392,561,7.7981,-21.4193,-0.000163003,0.00170094,0.000624126,0.00189062,-0.000352684,1.27575,0.00139294,0.0140077,1616,463,7.79811,21.4193
399,561,7.79309,-20.9953,-3.47333e-05,0.0023587,0.00114083,0.00281535,-0.000491383,1.19005,0.00206032,0.020484,1623,463,7.79304,20.9953
406,561,7.79797,-20.5499,-4.14675e-05,0.00311181,0.00158869,0.00377341,-0.000703068,1.17619,0.00277976,0.0195628,1630,463,7.79792,20.5499
413,561,7.76843,-20.071,0.000208399,0.00389965,0.00172352,0.00457927,-0.000471218,1.1952,0.00322143,0.0180679,1637,463,7.76841,20.071
420,561,7.72949,-19.5573,0.000814854,0.00446843,0.00219373,0.0054964,-0.00021311,1.13259,0.00373733,0.014081,1644,463,7.7295,19.5573
427,561,7.72327,-19.0584,0.00146352,0.00517021,0.00276311,0.00664398,-1.02432e-05,1.08081,0.00443274,0.010557,1651,463,7.72322,19.0584
434,561,7.72925,-18.5803,0.0023533,0.00597344,0.00327379,0.00790423,0.000422514,1.03793,0.00513445,0.0124866,1658,463,7.72924,18.5803
441,561,7.71423,-18.1129,0.00343713,0.00683368,0.00387533,0.00936652,0.000904295,0.991908,0.0059658,0.0157779,1665,463,7.71427,18.1129
448,561,7.69653,-17.5971,0.00458951,0.00767178,0.00454452,0.0109294,0.00133192,0.948873,0.00688535,0.0215721,1672,463,7.69648,17.5971
455,561,7.78699,-17.0062,0.00594304,0.00849905,0.00530605,0.0126788,0.00176326,0.903576,0.00793042,0.0402116,1679,463,7.78699,17.0062
462,561,7.56018,-16.6266,0.00729601,0.00944513,0.00622271,0.0146854,0.00205576,0.870897,0.00918203,0.0379257,1686,463,7.56016,16.6266
469,561,7.49817,-16.1897,0.00816437,0.00992783,0.00698076,0.0160823,0.00200988,0.84822,0.0101183,0.0255417,1693,463,7.49815,16.1897
476,561,7.40649,-15.3776,0.00895745,0.01,0.00773349,0.0172298,0.00172771,0.819051,0.0109561,0.0419761,1700,463,7.40648,15.3776
483,561,7.28101,-14.4898,0,0,0,0,0,0,0,-1,1707,463,7.28101,14.4898
490,561,7.91907,-14.0965,0,0,0,0,0,0,0,-1,1714,463,7.91908,14.0965
497,561,7.77515,-8.73441,0,0,0,0,0,0,0,-1,1721,463,7.77516,8.73441
504,561,10.0769,-0.811401,0,0,0,0,0,0,0,-1,1728,463,10.0769,0.8114
511,561,0,0,0,0,0,0,0,0,0,-1,1735,463,0,0
518,561,0,0,0,0,0,0,0,0,0,-1,1742,463,0,0
525,561,0,0,0,0,0,0,0,0,0,-1,1749,463,0,0
532,561,0,0,0,0,0,0,0,0,0,-1,1756,463,0,0
539,561,0,0,0,0,0,0,0,0,0,-1,1763,463,0,0
546,561,0,0,0,0,0,0,0,0,0,-1,1770,463,0,0
553,561,0,0,0,0,0,0,0,0,0,-1,1777,463,0,0
560,561,0,0,0,0,0,0,0,0,0,-1,1784,463,0,0
567,561,0,0,0,0,0,0,0,0,0,-1,1791,463,0,0
574,561,0,0,0,0,0,0,0,0,0,-1,1798,463,0,0
581,561,0,0,0,0,0,0,0,0,0,-1,1805,463,0,0
588,561,0,0,0,0,0,0,0,0,0,-1,1812,463,0,0
595,561,0,0,0,0,0,0,0,0,0,-1,1819,463,0,0
602,561,0,0,0,0,0,0,0,0,0,-1,1826,463,0,0
609,561,0,0,0,0,0,0,0,0,0,-1,1833,463,0,0
616,561,0,0,0,0,0,0,0,0,0,-1,1840,463,0,0
623,561,0,0,0,0,0,0,0,0,0,-1,1847,463,0,0
630,561,0,0,0,0,0,0,0,0,0,-1,1854,463,0,0
637,561,0,0,0,0,0,0,0,0,0,-1,1861,463,0,0
644,561,0,0,0,0,0,0,0,0,0,-1,1868,463,0,0
651,561,0,0,0,0,0,0,0,0,0,-1,1875,463,0,0
658,561,0,0,0,0,0,0,0,0,0,-1,1882,463,0,0
665,561,0,0,0,0,0,0,0,0,0,-1,1889,463,0,0
672,561,0,0,0,0,0,0,0,0,0,-1,1896,463,0,0
679,561,0,0,0,0,0,0,0,0,0,-1,1903,463,0,0
686,561,0,0,0,0,0,0,0,0,0,-1,1910,463,0,0
693,561,0,0,0,0,0,0,0,0,0,-1,1917,463,0,0
700,561,0,0,0,0,0,0,0,0,0,-1,1924,463,0,0
707,561,0,0,0,0,0,0,0,0,0,-1,1931,463,0,0
714,561,0,0,0,0,0,0,0,0,0,-1,1938,463,0,0
721,561,0,0,0,0,0,0,0,0,0,-1,1945,463,0,0
728,561,0,0,0,0,0,0,0,0,0,-1,1952,463,0,0
735,561,0,0,0,0,0,0,0,0,0,-1,1959,463,0,0
742,561,0,0,0,0,0,0,0,0,0,-1,1966,463,0,0
749,561,0,0,0,0,0,0,0,0,0,-1,1973,463,0,0
756,561,0,0,0,0,0,0,0,0,0,-1,1980,463,0,0
763,561,0,0,0,0,0,0,0,0,0,-1,1987,463,0,0
770,561,0,0,0,0,0,0,0,0,0,-1,1994,463,0,0
777,561,0,0,0,0,0,0,0,0,0,-1,2001,463,0,0
784,561,0,0,0,0,0,0,0,0,0,-1,2008,463,0,0
791,561,0,0,0,0,0,0,0,0,0,-1,2015,463,0,0
798,561,0,0,0,0,0,0,0,0,0,-1,2022,463,0,0
805,561,0,0,0,0,0,0,0,0,0,-1,2029,463,0,0
812,561,0,0,0,0,0,0,0,0,0,-1,2036,463,0,0
-700,554,0,0,0,0,0,0,0,0,0,-1,524,470,0,0
-693,554,0,0,0,0,0,0,0,0,0,-1,531,470,0,0
-686,554,0,0,0,0,0,0,0,0,0,-1,538,470,0,0
-679,554,0,0,0,0,0,0,0,0,0,-1,545,470,0,0
-672,554,0,0,0,0,0,0,0,0,0,-1,552,470,0,0
-665,554,0,0,0,0,0,0,0,0,0,-1,559,470,0,0
-658,554,0,0,0,0,0,0,0,0,0,-1,566,470,0,0
-651,554,0,0,0,0,0,0,0,0,0,-1,573,470,0,0
-644,554,0,0,0,0,0,0,0,0,0,-1,580,470,0,0
-637,554,0,0,0,0,0,0,0,0,0,-1,587,470,0,0
-630,554,0,0,0,0,0,0,0,0,0,-1,594,470,0,0
-623,554,0,0,0,0,0,0,0,0,0,-1,601,470,0,0
-616,554,0,0,0,0,0,0,0,0,0,-1,608,470,0,0
-609,554,0,0,0,0,0,0,0,0,0,-1,615,470,0,0
-602,554,0,0,0,0,0,0,0,0,0,-1,622,470,0,0
-595,554,0,0,0,0,0,0,0,0,0,-1,629,470,0,0
-588,554,0,0,0,0,0,0,0,0,0,-1,636,470,0,0
-581,554,0,0,0,0,0,0,0,0,0,-1,643,470,0,0
-574,554,0,0,0,0,0,0,0,0,0,-1,650,470,0,0
-567,554,0,0,0,0,0,0,0,0,0,-1,657,470,0,0
-560,554,0,0,0,0,0,0,0,0,0,-1,664,470,0,0
-553,554,0,0,0,0,0,0,0,0,0,-1,671,470,0,0
-546,554,0,0,0,0,0,0,0,0,0,-1,678,470,0,0
-539,554,0,0,0,0,0,0,0,0,0,-1,685,470,0,0
-532,554,0,0,0,0,0,0,0,0,0,-1,692,470,0,0
-525,554,0,0,0,0,0,0,0,0,0,-1,699,470,0,0
-518,554,0,0,0,0,0,0,0,0,0,-1,706,470,0,0
-511,554,0,0,0,0,0,0,0,0,0,-1,713,470,0,0
-504,554,0,0,0,0,0,0,0,0,0,-1,720,470,0,0
-497,554,0,0,0,0,0,0,0,0,0,-1,727,470,0,0
-490,554,0,0,0,0,0,0,0,0,0,-1,734,470,0,0
-483,554,0,0,0,0,0,0,0,0,0,-1,741,470,0,0
-476,554,0,0,0,0,0,0,0,0,0,-1,748,470,0,0
-469,554,0,0,0,0,0,0,0,0,0,-1,755,470,0,0
-462,554,0,0,0,0,0,0,0,0,0,-1,762,470,0,0
-455,554,0,0,0,0,0,0,0,0,0,-1,769,470,0,0
-448,554,0,0,0,0,0,0,0,0,0,-1,776,470,0,0
-441,554,0,0,0,0,0,0,0,0,0,-1,783,470,0,0
-434,554,0,0,0,0,0,0,0,0,0,-1,790,470,0,0
-427,554,0,0,0,0,0,0,0,0,0,-1,797,470,0,0
-420,554,0,0,0,0,0,0,0,0,0,-1,804,470,0,0
-413,554,0,0,0,0,0,0,0,0,0,-1,811,470,0,0
-406,554,0,0,0,0,0,0,0,0,0,-1,818,470,0,0
-399,554,-1.32275,-3.95142,0,0,0,0,0,0,0,-1,825,470,-1.32275,3.95141
-392,554,-1.35632,-3.7406,0,0,0,0,0,0,0,-1,832,470,-1.35632,3.7406
-385,554,-0.849243,-4.14447,0,0,0,0,0,0,0,-1,839,470,-0.849262,4.14446
-378,554,-0.982666,-4.55084,0,0,0,0,0,0,0,-1,846,470,-0.982671,4.55084
-371,554,-1.74542,-4.63467,0,0,0,0,0,0,0,-1,853,470,-1.74541,4.63468
-364,554,1.04883,-7.68756,0,0,0,0,0,0,0,-1,860,470,1.0488,7.68757
-357,554,1.06714,-11.5403,0,0,0,0,0,0,0,-1,867,470,1.06715,11.5403
-350,554,0.835327,-15.9311,0,0,0,0,0,0,0,-1,874,470,0.8353,15.9311
-343,554,1.37976,-17.6174,0,0,0,0,0,0,0,-1,881,470,1.37977,17.6174
-336,554,1.26343,-17.8811,0.0215847,0.00604931,-0.0186339,0.0340051,-0.0063711,-0.587921,0.0250652,0.0418355,888,470,1.26345,17.8811
-329,554,1.10724,-18.3561,0.0195823,0.00427929,-0.0164323,0.0300572,-0.0061956,-0.567507,0.0223909,0.0200585,895,470,1.10727,18.3561
-322,554,1.05872,-18.8478,0.017263,0.00277567,-0.0142414,0.0259971,-0.00595841,-0.550132,0.0196214,0.0119546,902,470,1.05873,18.8479
-315,554,1.05286,-19.3023,0.0148661,0.00158617,-0.0119891,0.0219312,-0.00547892,-0.532508,0.0167485,0.0118629,909,470,1.05283,19.3023
-308,554,1.02917,-19.7721,0.0124683,0.001051,-0.00998761,0.0182636,-0.0047443,-0.52577,0.0140272,0.0138681,916,470,1.0292,19.7721
-301,554,1.03534,-20.247,0.0101285,0.000453113,-0.00803583,0.0146705,-0.00408884,-0.514447,0.0113906,0.014767,923,470,1.03531,20.247
-294,554,0.997375,-20.6869,0.00807049,-0.000161921,-0.00616458,0.0113668,-0.00345822,-0.491033,0.00895599,0.0134284,930,470,0.9974,20.6869
-287,554,0.954651,-21.1316,0.00627659,-0.000560839,-0.00453449,0.00853672,-0.00282097,-0.462391,0.00682854,0.0131455,937,470,0.954629,21.1316
-280,554,0.941956,-21.5607,0.00481886,-0.000852861,-0.00321985,0.00627363,-0.00230764,-0.424362,0.00512774,0.0116677,944,470,0.941939,21.5607
-273,554,0.915527,-22.0063,0.00365519,-0.00122915,-0.00201807,0.00438111,-0.00195507,-0.345299,0.00374651,0.0139872,951,470,0.915522,22.0063
-266,554,0.915222,-22.4372,0.00281743,-0.00190909,-0.000800592,0.00294935,-0.00204101,-0.163316,0.00289705,0.0116728,958,470,0.915252,22.4372
-259,554,0.911011,-22.8122,0.00281364,-0.00232494,-0.000308793,0.00283213,-0.00234343,-0.0598063,0.00299255,0.0121391,965,470,0.910993,22.8122
-252,554,0.885193,-23.2101,0.00298354,-0.00334831,0.000250712,0.00299345,-0.00335822,0.039513,0.00366916,0.0150219,972,470,0.885204,23.2101
-245,554,0.864685,-23.6296,0.00328995,-0.00490392,0.000830302,0.00337324,-0.00498721,0.0999781,0.00485679,0.0172125,979,470,0.864687,23.6296
-238,554,0.910461,-24.0575,0.00388493,-0.00647801,0.00133781,0.00405485,-0.00664793,0.126337,0.00623941,0.0128517,986,470,0.910447,24.0575
-231,554,0.912292,-24.4715,0.00459916,-0.00818635,0.00173864,0.00483138,-0.00841856,0.132774,0.00774274,0.0108414,993,470,0.912296,24.4715
-224,554,0.922424,-24.8586,0.0052524,-0.0101471,0.00221223,0.0055639,-0.0104586,0.139887,0.0093934,0.0111898,1000,470,0.922439,24.8586
-217,554,0.939392,-25.2216,0.00578462,-0.0122494,0.00269312,0.0061782,-0.012643,0.145118,0.011078,0.011326,1007,470,0.939379,25.2216
-210,554,0.957397,-25.5818,0.00562008,-0.0142769,0.0035025,0.00621862,-0.0148754,0.169256,0.0125158,0.0147896,1014,470,0.957372,25.5819
-203,554,0.942627,-25.9232,0.00469224,-0.0160005,0.00467982,0.0057014,-0.0170097,0.212389,0.0136433,0.0244736,1021,470,0.942606,25.9232
-196,554,0.798218,-26.1149,0.00373514,-0.0175171,0.0056756,0.00515588,-0.0189379,0.245284,0.0146495,0.0319434,1028,470,0.798232,26.1149
-189,554,0.858521,-26.3087,0.00213909,-0.0183082,0.0068636,0.00422934,-0.0203984,0.295617,0.0152061,0.0402146,1035,470,0.858472,26.3087
-182,554,1.06018,-26.8128,0,0,0,0,0,0,0,-1,1042,470,1.06018,26.8128
-175,554,0.958252,-27.063,0,0,0,0,0,0,0,-1,1049,470,0.958225,27.063
-168,554,0.955933,-27.4719,0,0,0,0,0,0,0,-1,1056,470,0.955951,27.4719
-161,554,0.67041,-27.813,-0.00848492,-0.0268276,0.0135608,-0.00128533,-0.0340272,0.488072,0.0222687,0.045785,1063,470,0.670385,27.813
-154,554,0.407837,-27.977,-0.0124678,-0.0303542,0.0163215,-0.00279991,-0.0400221,0.53477,0.0257988,0.045435,1070,470,0.407822,27.977
-147,554,0.213257,-28.073,0,0,0,0,0,0,0,-1,1077,470,0.213295,28.073
-140,554,3.14563,-26.981,0,0,0,0,0,0,0,-1,1084,470,3.14569,26.981
-133,554,2.33813,-27.5244,0,0,0,0,0,0,0,-1,1091,470,2.3381,27.5244
-126,554,1.86804,-27.3486,0,0,0,0,0,0,0,-1,1098,470,1.86801,27.3486
-119,554,1.39795,-27.1727,0,0,0,0,0,0,0,-1,1105,470,1.39793,27.1727
-112,554,1.03162,-24.5784,0,0,0,0,0,0,0,-1,1112,470,1.03156,24.5784
-105,554,0.608765,-21.0475,0,0,0,0,0,0,0,-1,1119,470,0.608728,21.0475
-98,554,1.51929,-7.3624,0,0,0,0,0,0,0,-1,1126,470,1.51928,7.36241
-91,554,1.41089,-6.5864,0,0,0,0,0,0,0,-1,1133,470,1.41093,6.58638
-84,554,1.62305,-5.87186,0,0,0,0,0,0,0,-1,1140,470,1.62299,5.87186
-77,554,-2.56958,1.33258,0,0,0,0,0,0,0,-1,1147,470,-2.56959,-1.33257
-70,554,-3.68164,-1.18332,0,0,0,0,0,0,0,-1,1154,470,-3.68158,1.18331
-63,554,-4.86853,-3.88708,0,0,0,0,0,0,0,-1,1161,470,-4.86853,3.88708
-56,554,-5.69958,-6.45422,0,0,0,0,0,0,0,-1,1168,470,-5.69955,6.45422
-49,554,-6.23645,-8.8569,0,0,0,0,0,0,0,-1,1175,470,-6.23643,8.85689
-42,554,-6.62524,-11.5382,0,0,0,0,0,0,0,-1,1182,470,-6.62522,11.5382
-35,554,-2.40173,-4.59482,0,0,0,0,0,0,0,-1,1189,470,-2.40169,4.59481
-28,554,-0.760132,-1.65555,0,0,0,0,0,0,0,-1,1196,470,-0.760095,1.65556
-21,554,-6.11462,-31.9121,0,0,0,0,0,0,0,-1,1203,470,-6.11458,31.9122
-14,554,3.57642,-31.6187,0,0,0,0,0,0,0,-1,1210,470,3.57646,31.6187
-7,554,3.66174,-31.5292,0,0,0,0,0,0,0,-1,1217,470,3.66178,31.5292
0,554,3.89429,-31.1302,0,0,0,0,0,0,0,-1,1224,470,3.89424,31.1302
7,554,5.5769,-33.7848,-0.00223529,-0.0280601,0.0696546,0.0556936,-0.085989,0.69375,0.0824215,0.0471388,1231,470,5.57687,33.7848
14,554,5.49475,-32.3805,0.00350424,-0.0363693,0.0675399,0.0539884,-0.0868535,0.641881,0.0820498,0.0475526,1238,470,5.4948,32.3805
21,554,5.47107,-31.2162,0.0105246,-0.0451996,0.0639583,0.0524261,-0.0871011,0.579979,0.081381,0.0427469,1245,470,5.47109,31.2162
28,554,5.44055,-30.0526,0.0182936,-0.0519655,0.0591922,0.0519958,-0.0856676,0.517591,0.0802686,0.0433695,1252,470,5.44051,30.0527
35,554,6.01831,-28.9326,0,0,0,0,0,0,0,-1,1259,470,6.0183,28.9326
42,554,5.94031,-28.3688,0,0,0,0,0,0,0,-1,1266,470,5.94028,28.3688
49,554,6.68408,-27.9189,0,0,0,0,0,0,0,-1,1273,470,6.68406,27.9189
56,554,7.14551,-27.198,0,0,0,0,0,0,0,-1,1280,470,7.14547,27.198
63,554,7.41467,-26.4043,0,0,0,0,0,0,0,-1,1287,470,7.41463,26.4043
70,554,7.55823,-25.2729,0,0,0,0,0,0,0,-1,1294,470,7.55825,25.2729
77,554,6.85193,-24.9514,0,0,0,0,0,0,0,-1,1301,470,6.85192,24.9514
84,554,6.01282,-24.5102,0,0,0,0,0,0,0,-1,1308,470,6.01279,24.5102
91,554,6.73352,-31.026,0,0,0,0,0,0,0,-1,1315,470,6.73348,31.026
98,554,7.99536,-29.5336,0,0,0,0,0,0,0,-1,1322,470,7.99533,29.5336
105,554,2.1488,-26.0761,0,0,0,0,0,0,0,-1,1329,470,2.14886,26.0762
112,554,1.90027,-26.0444,0,0,0,0,0,0,0,-1,1336,470,1.90021,26.0444
119,554,-0.669067,-25.6436,0,0,0,0,0,0,0,-1,1343,470,-0.669094,25.6436
126,554,-0.913208,-25.4545,0,0,0,0,0,0,0,-1,1350,470,-0.913207,25.4545
133,554,9.96838,-29.436,0,0,0,0,0,0,0,-1,1357,470,9.9684,29.436
140,554,9.56848,-29.4235,0,0,0,0,0,0,0,-1,1364,470,9.5685,29.4235
147,554,8.64453,-29.3972,0,0,0,0,0,0,0,-1,1371,470,8.64453,29.3972
154,554,7.66431,-30.1928,0,0,0,0,0,0,0,-1,1378,470,7.66431,30.1928
161,554,1.58655,-34.4199,0,0,0,0,0,0,0,-1,1385,470,1.58656,34.4199
168,554,1.83154,-34.5717,0,0,0,0,0,0,0,-1,1392,470,1.83154,34.5716
175,554,10.663,0.286957,0,0,0,0,0,0,0,-1,1399,470,10.663,-0.286966
182,554,6.71106,-4.50217,0,0,0,0,0,0,0,-1,1406,470,6.71107,4.50215
189,554,6.90479,-2.50348,0,0,0,0,0,0,0,-1,1413,470,6.90477,2.50348
196,554,6.96216,-0.740906,0,0,0,0,0,0,0,-1,1420,470,6.96214,0.740912
203,554,6.43518,0.414154,0,0,0,0,0,0,0,-1,1427,470,6.43523,-0.414141
210,554,6.21167,1.96707,0,0,0,0,0,0,0,-1,1434,470,6.21165,-1.96706
217,554,5.64551,3.4989,0,0,0,0,0,0,0,-1,1441,470,5.64555,-3.49891
224,554,4.85144,-8.85172,0,0,0,0,0,0,0,-1,1448,470,4.85146,8.85173
231,554,3.25073,-5.29642,0,0,0,0,0,0,0,-1,1455,470,3.25078,5.29642
238,554,4.28625,-3.25253,0,0,0,0,0,0,0,-1,1462,470,4.28622,3.25252
245,554,4.0752,-2.90033,0,0,0,0,0,0,0,-1,1469,470,4.07515,2.90032
252,554,3.52112,-0.934998,0,0,0,0,0,0,0,-1,1476,470,3.52113,0.934996
259,554,3.96448,-2.16425,0,0,0,0,0,0,0,-1,1483,470,3.96446,2.16424
266,554,3.0592,-2.71716,0,0,0,0,0,0,0,-1,1490,470,3.05923,2.71718
273,554,2.58521,-3.06876,0,0,0,0,0,0,0,-1,1497,470,2.58524,3.06874
280,554,2.83301,-0.991699,0,0,0,0,0,0,0,-1,1504,470,2.83303,0.991704
287,554,3.54126,-4.12277,0,0,0,0,0,0,0,-1,1511,470,3.54123,4.12277
294,554,3.62036,-8.50146,0,0,0,0,0,0,0,-1,1518,470,3.62031,8.50145
301,554,7.9906,-25.9327,0,0,0,0,0,0,0,-1,1525,470,7.99059,25.9327
308,554,8.20508,-26.0682,0,0,0,0,0,0,0,-1,1532,470,8.2051,26.0682
315,554,8.25586,-25.8858,0,0,0,0,0,0,0,-1,1539,470,8.25582,25.8858
322,554,8.23218,-25.6584,0,0,0,0,0,0,0,-1,1546,470,8.23223,25.6584
329,554,8.2406,-24.922,0.00221567,-0.0115462,-0.0057332,0.00429112,-0.0136217,-0.34733,0.0107995,0.0440958,1553,470,8.24057,24.922
336,554,8.21143,-24.7407,0.00174821,-0.0103513,-0.00522867,0.00369461,-0.0122977,-0.356363,0.00966823,0.025911,1560,470,8.21139,24.7407
343,554,8.21619,-24.3855,0.0011789,-0.0091212,-0.00478053,0.00305569,-0.010998,-0.374103,0.00853489,0.0141222,1567,470,8.21614,24.3855
350,554,8.26074,-23.949,0.000810644,-0.00780871,-0.00417765,0.00250314,-0.0095012,-0.384922,0.00731274,0.0100993,1574,470,8.26071,23.949
357,554,8.27625,-23.5361,0.000552708,-0.00627004,-0.0034828,0.00201651,-0.00773384,-0.397879,0.00594321,0.0109597,1581,470,8.27626,23.5361
364,554,8.25928,-23.1375,0.000392617,-0.0048432,-0.00271697,0.00154768,-0.00599827,-0.401982,0.00460232,0.00857668,1588,470,8.25927,23.1375
371,554,8.25195,-22.7255,0.000306476,-0.00343867,-0.00197478,0.00115535,-0.00428755,-0.405978,0.00331136,0.00865982,1595,470,8.25196,22.7255
378,554,8.25671,-22.2906,0.000226155,-0.00205423,-0.00128825,0.000806319,-0.00263439,-0.423146,0.00207785,0.00968195,1602,470,8.25669,22.2906
385,554,8.26477,-21.8492,0.000147859,-0.000655367,-0.00064465,0.000505763,-0.00101327,-0.50682,0.000893182,0.00911423,1609,470,8.26481,21.8492
392,554,8.26147,-21.3897,0.000101626,0.000377374,-9.89478e-05,0.000409206,6.9795e-05,-1.25955,0.000252771,0.0131919,1616,470,8.2615,21.3897
399,554,8.24683,-20.9593,0.000178395,0.00115963,0.000454897,0.00133807,-4.41214e-08,1.19698,0.00089206,0.018343,1623,470,8.24684,20.9593
406,554,8.23145,-20.5196,0.000145978,0.00211201,0.000971489,0.00251107,-0.000253073,1.18105,0.00176446,0.0167855,1630,470,8.23142,20.5196
413,554,8.21277,-20.015,0.000291456,0.00286101,0.00123762,0.00336015,-0.000207684,1.18744,0.00231244,0.0161003,1637,470,8.2128,20.015
420,554,8.19238,-19.5383,0.000712958,0.00340581,0.00170321,0.00423051,-0.000111738,1.11987,0.00285831,0.0171256,1644,470,8.19234,19.5383
427,554,8.18567,-19.0663,0.00116086,0.00401307,0.00221302,0.00521969,-4.5758e-05,1.07162,0.00349514,0.0122742,1651,470,8.18563,19.0663
434,554,8.16614,-18.6089,0.0017782,0.00465531,0.00267004,0.00624967,0.000183847,1.03249,0.00410654,0.0110336,1658,470,8.16615,18.6089
441,554,8.15723,-18.1274,0.00253988,0.00529661,0.00321277,0.00741422,0.000422277,0.988037,0.00480824,0.0118098,1665,470,8.1572,18.1274
448,554,8.1366,-17.608,0.00335885,0.00589118,0.00382243,0.0086517,0.000598333,0.945334,0.00557906,0.0158829,1672,470,8.13662,17.608
455,554,8.10425,-17.1386,0.00433449,0.00647805,0.00449705,0.0100293,0.000783264,0.902381,0.00644099,0.0172827,1679,470,8.1042,17.1386
462,554,8.04224,-16.6932,0.00523136,0.00699086,0.00524644,0.0114308,0.000791419,0.868468,0.00737091,0.018932,1686,470,8.04224,16.6932
469,554,7.96643,-16.2008,0.00559727,0.00692485,0.00572631,0.0120257,0.000496406,0.8431,0.00785691,0.0238774,1693,470,7.96641,16.2008
476,554,7.99512,-15.3766,0.00584748,0.00646156,0.0061887,0.0123508,-4.17908e-05,0.810184,0.00824785,0.0412482,1700,470,7.99508,15.3766
483,554,8.00964,-14.5526,0,0,0,0,0,0,0,-1,1707,470,8.00968,14.5526
490,554,7.31543,-3.51794,0,0,0,0,0,0,0,-1,1714,470,7.3154,3.51794
497,554,10.9613,1.60983,0,0,0,0,0,0,0,-1,1721,470,10.9613,-1.60982
504,554,2.13257,-3.81628,0,0,0,0,0,0,0,-1,1728,470,2.1326,3.8163
511,554,1.31396,-4.02713,0,0,0,0,0,0,0,-1,1735,470,1.31398,4.02712
518,554,5.04236,-5.9472,0,0,0,0,0,0,0,-1,1742,470,5.04231,5.94721
525,554,0,0,0,0,0,0,0,0,0,-1,1749,470,0,0
532,554,0,0,0,0,0,0,0,0,0,-1,1756,470,0,0
539,554,0,0,0,0,0,0,0,0,0,-1,1763,470,0,0
546,554,0,0,0,0,0,0,0,0,0,-1,1770,470,0,0
553,554,0,0,0,0,0,0,0,0,0,-1,1777,470,0,0
560,554,0,0,0,0,0,0,0,0,0,-1,1784,470,0,0
567,554,0,0,0,0,0,0,0,0,0,-1,1791,470,0,0
574,554,0,0,0,0,0,0,0,0,0,-1,1798,470,0,0
581,554,0,0,0,0,0,0,0,0,0,-1,1805,470,0,0
588,554,0,0,0,0,0,0,0,0,0,-1,1812,470,0,0
595,554,0,0,0,0,0,0,0,0,0,-1,1819,470,0,0
602,554,0,0,0,0,0,0,0,0,0,-1,1826,470,0,0
609,554,0,0,0,0,0,0,0,0,0,-1,1833,470,0,0
616,554,0,0,0,0,0,0,0,0,0,-1,1840,470,0,0
623,554,0,0,0,0,0,0,0,0,0,-1,1847,470,0,0
630,554,0,0,0,0,0,0,0,0,0,-1,1854,470,0,0
637,554,0,0,0,0,0,0,0,0,0,-1,1861,470,0,0
644,554,0,0,0,0,0,0,0,0,0,-1,1868,470,0,0
651,554,0,0,0,0,0,0,0,0,0,-1,1875,470,0,0
658,554,0,0,0,0,0,0,0,0,0,-1,1882,470,0,0
665,554,0,0,0,0,0,0,0,0,0,-1,1889,470,0,0
672,554,0,0,0,0,0,0,0,0,0,-1,1896,470,0,0
679,554,0,0,0,0,0,0,0,0,0,-1,1903,470,0,0
686,554,0,0,0,0,0,0,0,0,0,-1,1910,470,0,0
693,554,0,0,0,0,0,0,0,0,0,-1,1917,470,0,0
700,554,0,0,0,0,0,0,0,0,0,-1,1924,470,0,0
707,554,0,0,0,0,0,0,0,0,0,-1,1931,470,0,0
714,554,0,0,0,0,0,0,0,0,0,-1,1938,470,0,0
721,554,0,0,0,0,0,0,0,0,0,-1,1945,470,0,0
728,554,0,0,0,0,0,0,0,0,0,-1,1952,470,0,0
735,554,0,0,0,0,0,0,0,0,0,-1,1959,470,0,0
742,554,0,0,0,0,0,0,0,0,0,-1,1966,470,0,0
749,554,0,0,0,0,0,0,0,0,0,-1,1973,470,0,0
756,554,0,0,0,0,0,0,0,0,0,-1,1980,470,0,0
763,554,0,0,0,0,0,0,0,0,0,-1,1987,470,0,0
770,554,0,0,0,0,0,0,0,0,0,-1,1994,470,0,0
777,554,0,0,0,0,0,0,0,0,0,-1,2001,470,0,0
784,554,0,0,0,0,0,0,0,0,0,-1,2008,470,0,0
791,554,0,0,0,0,0,0,0,0,0,-1,2015,470,0,0
798,554,0,0,0,0,0,0,0,0,0,-1,2022,470,0,0
805,554,0,0,0,0,0,0,0,0,0,-1,2029,470,0,0
812,554,0,0,0,0,0,0,0,0,0,-1,2036,470,0,0
-700,547,0,0,0,0,0,0,0,0,0,-1,524,477,0,0
-693,547,0,0,0,0,0,0,0,0,0,-1,531,477,0,0
-686,547,0,0,0,0,0,0,0,0,0,-1,538,477,0,0
-679,547,0,0,0,0,0,0,0,0,0,-1,545,477,0,0
-672,547,0,0,0,0,0,0,0,0,0,-1,552,477,0,0
-665,547,0,0,0,0,0,0,0,0,0,-1,559,477,0,0
-658,547,0,0,0,0,0,0,0,0,0,-1,566,477,0,0
-651,547,0,0,0,0,0,0,0,0,0,-1,573,477,0,0
-644,547,0,0,0,0,0,0,0,0,0,-1,580,477,0,0
-637,547,0,0,0,0,0,0,0,0,0,-1,587,477,0,0
-630,547,0,0,0,0,0,0,0,0,0,-1,594,477,0,0
-623,547,0,0,0,0,0,0,0,0,0,-1,601,477,0,0
-616,547,0,0,0,0,0,0,0,0,0,-1,608,477,0,0
-609,547,0,0,0,0,0,0,0,0,0,-1,615,477,0,0
-602,547,0,0,0,0,0,0,0,0,0,-1,622,477,0,0
-595,547,0,0,0,0,0,0,0,0,0,-1,629,477,0,0
-588,547,0,0,0,0,0,0,0,0,0,-1,636,477,0,0
-581,547,0,0,0,0,0,0,0,0,0,-1,643,477,0,0
-574,547,0,0,0,0,0,0,0,0,0,-1,650,477,0,0
-567,547,0,0,0,0,0,0,0,0,0,-1,657,477,0,0
-560,547,0,0,0,0,0,0,0,0,0,-1,664,477,0,0
-553,547,0,0,0,0,0,0,0,0,0,-1,671,477,0,0
-546,547,0,0,0,0,0,0,0,0,0,-1,678,477,0,0
-539,547,0,0,0,0,0,0,0,0,0,-1,685,477,0,0
-532,547,0,0,0,0,0,0,0,0,0,-1,692,477,0,0
-525,547,0,0,0,0,0,0,0,0,0,-1,699,477,0,0
-518,547,0,0,0,0,0,0,0,0,0,-1,706,477,0,0
-511,547,0,0,0,0,0,0,0,0,0,-1,713,477,0,0
-504,547,0,0,0,0,0,0,0,0,0,-1,720,477,0,0
-497,547,0,0,0,0,0,0,0,0,0,-1,727,477,0,0
-490,547,0,0,0,0,0,0,0,0,0,-1,734,477,0,0
-483,547,0,0,0,0,0,0,0,0,0,-1,741,477,0,0
-476,547,0,0,0,0,0,0,0,0,0,-1,748,477,0,0
-469,547,0,0,0,0,0,0,0,0,0,-1,755,477,0,0
-462,547,0,0,0,0,0,0,0,0,0,-1,762,477,0,0
-455,547,0,0,0,0,0,0,0,0,0,-1,769,477,0,0
-448,547,0,0,0,0,0,0,0,0,0,-1,776,477,0,0
-441,547,0,0,0,0,0,0,0,0,0,-1,783,477,0,0
-434,547,0,0,0,0,0,0,0,0,0,-1,790,477,0,0
-427,547,0,0,0,0,0,0,0,0,0,-1,797,477,0,0
-420,547,0,0,0,0,0,0,0,0,0,-1,804,477,0,0
-413,547,0,0,0,0,0,0,0,0,0,-1,811,477,0,0
-406,547,0.144592,-11.0292,0,0,0,0,0,0,0,-1,818,477,0.144583,11.0292
-399,547,0.775513,-10.0294,0,0,0,0,0,0,0,-1,825,477,0.775482,10.0295
-392,547,-1.52271,-4.41675,0,0,0,0,0,0,0,-1,832,477,-1.52273,4.41674
-385,547,-1.73743,-4.6431,0,0,0,0,0,0,0,-1,839,477,-1.73743,4.64308
-378,547,-2.41339,-4.60071,0,0,0,0,0,0,0,-1,846,477,-2.41337,4.60071
-371,547,1.64569,-11.1445,0,0,0,0,0,0,0,-1,853,477,1.64569,11.1445
-364,547,0.271729,-4.58582,0,0,0,0,0,0,0,-1,860,477,0.271753,4.5858
-357,547,0.575989,-15.8035,0,0,0,0,0,0,0,-1,867,477,0.575992,15.8035
-350,547,0.836304,-16.3296,0,0,0,0,0,0,0,-1,874,477,0.836277,16.3296
-343,547,0.65802,-17.2623,0.0143629,0.00740012,-0.0143986,0.025695,-0.00393201,-0.666782,0.0185799,0.0462121,881,477,0.658021,17.2623
-336,547,0.718628,-17.8648,0.0135709,0.00572539,-0.0130783,0.0233021,-0.00400583,-0.639696,0.0170278,0.0189593,888,477,0.718622,17.8648
-329,547,0.656982,-18.3617,0.0125412,0.00417793,-0.0115667,0.0206589,-0.00393979,-0.611946,0.0152564,0.0112072,895,477,0.656973,18.3617
-322,547,0.639587,-18.8533,0.0111298,0.00293776,-0.0100239,0.0178623,-0.00379471,-0.591439,0.013354,0.0108009,902,477,0.639577,18.8533
-315,547,0.610718,-19.3516,0.00960095,0.00196976,-0.0084424,0.01505,-0.00347925,-0.573158,0.0113719,0.010414,909,477,0.610689,19.3516
-308,547,0.603577,-19.7967,0.00802931,0.00148223,-0.00696888,0.0124552,-0.00294367,-0.565825,0.00943896,0.0121614,916,477,0.60359,19.7967
-301,547,0.600769,-20.2534,0.00644785,0.000858621,-0.00546609,0.00979229,-0.00248582,-0.549089,0.00749548,0.0116297,923,477,0.600751,20.2534
-294,547,0.557617,-20.6867,0.00510614,5.48753e-05,-0.00398042,0.00729458,-0.00213357,-0.502692,0.00570873,0.0104808,930,477,0.557596,20.6867
-287,547,0.52301,-21.1202,0.00394388,-0.000494784,-0.00267033,0.00519674,-0.00174764,-0.438686,0.00417092,0.0123003,937,477,0.523031,21.1202
-280,547,0.527222,-21.5529,0.00301715,-0.00102407,-0.00157011,0.00355547,-0.00156239,-0.330294,0.00302856,0.0138254,944,477,0.527224,21.5529
-273,547,0.525757,-21.9868,0.00235241,-0.00169451,-0.000521779,0.00241861,-0.0017607,-0.126184,0.00242287,0.0125185,951,477,0.52577,21.9868
-266,547,0.504028,-22.4003,0.0023003,-0.00261198,0.000400128,0.00233268,-0.00264436,0.0807453,0.00287537,0.011605,958,477,0.504043,22.4003
-259,547,0.489136,-22.7952,0.00297795,-0.0033893,0.000702207,0.00305447,-0.00346583,0.108546,0.00376699,0.0110987,965,477,0.489113,22.7952
-252,547,0.497498,-23.2106,0.00357877,-0.00484033,0.0012054,0.00374795,-0.00500951,0.139443,0.00507358,0.0120073,972,477,0.497475,23.2106
-245,547,0.502686,-23.6382,0.00426342,-0.00683528,0.00176954,0.00453873,-0.00711058,0.154341,0.00678015,0.0131774,979,477,0.502694,23.6382
-238,547,0.512756,-24.0434,0.00538659,-0.00881993,0.00215618,0.00570663,-0.00913998,0.147354,0.00864776,0.00903306,986,477,0.51275,24.0434
-231,547,0.512329,-24.4435,0.00660058,-0.0108559,0.0024474,0.00693722,-0.0111925,0.13669,0.0105629,0.00820218,993,477,0.512354,24.4435
-224,547,0.52533,-24.8113,0.00767568,-0.013157,0.00283498,0.00805458,-0.0135359,0.132865,0.0125984,0.0113458,1000,477,0.525353,24.8113
-217,547,0.55658,-25.1509,0.00852717,-0.0156114,0.00322834,0.00895148,-0.0160357,0.130683,0.0146183,0.0195556,1007,477,0.55661,25.1509
-210,547,0.590698,-25.3536,0.00842209,-0.0179549,0.00402165,0.00902164,-0.0185545,0.147989,0.0162351,0.0346132,1014,477,0.590705,25.3536
-203,547,0.522827,-25.3387,0.00731377,-0.0199322,0.00529594,0.00830697,-0.0209254,0.185385,0.0173936,0.0459015,1021,477,0.522854,25.3387
-196,547,0.293701,-25.416,0.00609483,-0.0217237,0.00638294,0.00748948,-0.0231183,0.215115,0.0184233,0.0499998,1028,477,0.293761,25.416
-189,547,0.186279,-25.4818,0,0,0,0,0,0,0,-1,1035,477,0.186322,25.4818
-182,547,-0.0454102,-23.1846,0,0,0,0,0,0,0,-1,1042,477,-0.0454543,23.1846
-175,547,-0.350098,-12.3584,0,0,0,0,0,0,0,-1,1049,477,-0.350098,12.3584
-168,547,1.12463,-8.66785,0,0,0,0,0,0,0,-1,1056,477,1.12461,8.66786
-161,547,0.115601,-27.7117,0,0,0,0,0,0,0,-1,1063,477,0.115623,27.7117
-154,547,-0.0604248,-28.24,0,0,0,0,0,0,0,-1,1070,477,-0.0604561,28.24
-147,547,3.69434,-26.413,0,0,0,0,0,0,0,-1,1077,477,3.69437,26.413
-140,547,1.55676,-22.5229,0,0,0,0,0,0,0,-1,1084,477,1.5568,22.5229
-133,547,2.31665,-17.9421,0,0,0,0,0,0,0,-1,1091,477,2.31667,17.9421
-126,547,1.7063,-26.5276,0,0,0,0,0,0,0,-1,1098,477,1.70634,26.5276
-119,547,0.967651,-24.9351,0,0,0,0,0,0,0,-1,1105,477,0.967657,24.9351
-112,547,1.15674,-22.2276,0,0,0,0,0,0,0,-1,1112,477,1.15677,22.2276
-105,547,0.966797,-20.5777,0,0,0,0,0,0,0,-1,1119,477,0.966804,20.5777
-98,547,0.70166,-18.9755,0,0,0,0,0,0,0,-1,1126,477,0.701713,18.9755
-91,547,1.37805,-7.12024,0,0,0,0,0,0,0,-1,1133,477,1.37804,7.12025
-84,547,1.94202,-6.66241,0,0,0,0,0,0,0,-1,1140,477,1.94201,6.66241
-77,547,-2.28357,1.8588,0,0,0,0,0,0,0,-1,1147,477,-2.28356,-1.85879
-70,547,-3.70178,-0.874908,0,0,0,0,0,0,0,-1,1154,477,-3.70182,0.874918
-63,547,-5.12012,-3.60861,0,0,0,0,0,0,0,-1,1161,477,-5.12009,3.60862
-56,547,-6.01917,-6.2399,0,0,0,0,0,0,0,-1,1168,477,-6.01921,6.23991
-49,547,-6.729,-8.60349,0,0,0,0,0,0,0,-1,1175,477,-6.72899,8.60348
-42,547,-2.41736,-5.53012,0,0,0,0,0,0,0,-1,1182,477,-2.41734,5.53011
-35,547,-2.96838,-4.45734,0,0,0,0,0,0,0,-1,1189,477,-2.96839,4.45734
-28,547,-0.869141,-1.29901,0,0,0,0,0,0,0,-1,1196,477,-0.869135,1.29901
-21,547,-7.68262,-30.8089,0,0,0,0,0,0,0,-1,1203,477,-7.68256,30.8089
-14,547,3.35913,-31.9398,0,0,0,0,0,0,0,-1,1210,477,3.35917,31.9398
-7,547,3.60913,-31.5948,0,0,0,0,0,0,0,-1,1217,477,3.60913,31.5947
0,547,3.85913,-31.2497,0,0,0,0,0,0,0,-1,1224,477,3.85909,31.2497
7,547,4.53259,-32.9138,0,0,0,0,0,0,0,-1,1231,477,4.53253,32.9139
14,547,0,0,0,0,0,0,0,0,0,-1,1238,477,0,0
21,547,0,0,0,0,0,0,0,0,0,-1,1245,477,0,0
28,547,0,0,0,0,0,0,0,0,0,-1,1252,477,0,0
35,547,0,0,0,0,0,0,0,0,0,-1,1259,477,0,0
42,547,0,0,0,0,0,0,0,0,0,-1,1266,477,0,0
49,547,0,0,0,0,0,0,0,0,0,-1,1273,477,0,0
56,547,0,0,0,0,0,0,0,0,0,-1,1280,477,0,0
63,547,0,0,0,0,0,0,0,0,0,-1,1287,477,0,0
70,547,0,0,0,0,0,0,0,0,0,-1,1294,477,0,0
77,547,0,0,0,0,0,0,0,0,0,-1,1301,477,0,0
84,547,0,0,0,0,0,0,0,0,0,-1,1308,477,0,0
91,547,0,0,0,0,0,0,0,0,0,-1,1315,477,0,0
98,547,0,0,0,0,0,0,0,0,0,-1,1322,477,0,0
105,547,3.22998,-25.9196,0,0,0,0,0,0,0,-1,1329,477,3.22995,25.9196
112,547,2.93054,-25.5604,0,0,0,0,0,0,0,-1,1336,477,2.93052,25.5604
119,547,-0.0812988,-25.7116,0,0,0,0,0,0,0,-1,1343,477,-0.0813451,25.7116
126,547,-0.0733643,-25.3825,0,0,0,0,0,0,0,-1,1350,477,-0.0733522,25.3825
133,547,0.0196533,-24.874,0,0,0,0,0,0,0,-1,1357,477,0.0196517,24.8739
140,547,10.1791,-28.4084,0,0,0,0,0,0,0,-1,1364,477,10.179,28.4084
147,547,9.73584,-28.7152,0,0,0,0,0,0,0,-1,1371,477,9.73583,28.7152
154,547,0.026123,-33.7544,0,0,0,0,0,0,0,-1,1378,477,0.0261271,33.7544
161,547,0.0715332,-33.9922,0,0,0,0,0,0,0,-1,1385,477,0.0715296,33.9922
168,547,-0.464355,-30.7631,0,0,0,0,0,0,0,-1,1392,477,-0.464348,30.7631
175,547,3.35034,-0.26532,0,0,0,0,0,0,0,-1,1399,477,3.3503,0.265306
182,547,4.26038,3.72672,0,0,0,0,0,0,0,-1,1406,477,4.26039,-3.7267
189,547,3.40454,1.28671,0,0,0,0,0,0,0,-1,1413,477,3.40457,-1.28673
196,547,3.53931,1.87793,0,0,0,0,0,0,0,-1,1420,477,3.53928,-1.87794
203,547,6.49414,-0.425842,0,0,0,0,0,0,0,-1,1427,477,6.4941,0.425844
210,547,4.82092,0.53595,0,0,0,0,0,0,0,-1,1434,477,4.82096,-0.535942
217,547,4.68579,0.480072,0,0,0,0,0,0,0,-1,1441,477,4.68577,-0.480069
224,547,4.55615,0.739807,0,0,0,0,0,0,0,-1,1448,477,4.55613,-0.73981
231,547,5.90869,-3.57721,0,0,0,0,0,0,0,-1,1455,477,5.90871,3.57722
238,547,5.50049,-3.15356,0,0,0,0,0,0,0,-1,1462,477,5.50045,3.15356
245,547,5.13708,-2.65213,0,0,0,0,0,0,0,-1,1469,477,5.13708,2.65212
252,547,3.73511,-0.645233,0,0,0,0,0,0,0,-1,1476,477,3.73515,0.645237
259,547,5.86816,-3.20816,0,0,0,0,0,0,0,-1,1483,477,5.86815,3.20816
266,547,5.40222,-2.45731,0,0,0,0,0,0,0,-1,1490,477,5.40221,2.45732
273,547,3.05737,0.495789,0,0,0,0,0,0,0,-1,1497,477,3.05742,-0.49578
280,547,2.0885,1.47797,0,0,0,0,0,0,0,-1,1504,477,2.08848,-1.47795
287,547,2.31177,-2.21716,0,0,0,0,0,0,0,-1,1511,477,2.31174,2.21717
294,547,2.4823,-3.03659,0,0,0,0,0,0,0,-1,1518,477,2.48229,3.0366
301,547,4.72119,-3.93454,0,0,0,0,0,0,0,-1,1525,477,4.72119,3.93453
308,547,4.07471,-5.42175,0,0,0,0,0,0,0,-1,1532,477,4.07468,5.42174
315,547,3.58496,-6.62112,0,0,0,0,0,0,0,-1,1539,477,3.58497,6.62113
322,547,5.73926,-14.1878,0,0,0,0,0,0,0,-1,1546,477,5.73926,14.1878
329,547,8.52734,-24.8199,0,0,0,0,0,0,0,-1,1553,477,8.52732,24.8199
336,547,8.58044,-24.9049,0,0,0,0,0,0,0,-1,1560,477,8.58045,24.9049
343,547,8.75623,-24.4455,0.00106191,-0.0126869,-0.00664955,0.00375171,-0.0153767,-0.384387,0.0117039,0.0469029,1567,477,8.75618,24.4455
350,547,8.69678,-23.9609,0.00068946,-0.0109986,-0.00587305,0.00313068,-0.0134398,-0.393937,0.0101654,0.0268974,1574,477,8.69682,23.9609
357,547,8.7074,-23.5555,0.00046368,-0.00906034,-0.00500747,0.00261191,-0.0112086,-0.405259,0.00847821,0.0149299,1581,477,8.70739,23.5556
364,547,8.68335,-23.1326,0.000346084,-0.00725883,-0.00407743,0.00211894,-0.00903169,-0.41014,0.00683777,0.0100708,1588,477,8.68332,23.1326
371,547,8.70923,-22.7023,0.000327309,-0.00550137,-0.00317864,0.00172541,-0.00689947,-0.414374,0.00526979,0.00952084,1595,477,8.70928,22.7023
378,547,8.7218,-22.2709,0.000313346,-0.00377902,-0.0023264,0.00136539,-0.00483106,-0.424697,0.00375941,0.0100745,1602,477,8.72177,22.2709
385,547,8.71973,-21.8167,0.000321209,-0.00205358,-0.0014788,0.00103032,-0.00276269,-0.447131,0.00226476,0.0102676,1609,477,8.71971,21.8167
392,547,8.70947,-21.3714,0.000313579,-0.000819661,-0.000799681,0.000727035,-0.00123312,-0.477175,0.0011442,0.0119591,1616,477,8.70948,21.3714
399,547,8.67627,-20.9398,0.000353583,0.000128201,-0.000189589,0.000461444,2.034e-05,-0.517253,0.000301078,0.0141457,1623,477,8.67628,20.9398
406,547,8.66943,-20.5007,0.000317087,0.00130286,0.000412572,0.00145275,0.000167204,1.22233,0.000917854,0.0133578,1630,477,8.66949,20.5007
413,547,8.6709,-20.0048,0.000396304,0.00204133,0.000814313,0.00237624,6.13912e-05,1.1806,0.0015641,0.0126247,1637,477,8.67086,20.0048
420,547,8.66284,-19.5558,0.000677444,0.00258754,0.00128069,0.00323008,3.49075e-05,1.10578,0.00214184,0.0150828,1644,477,8.6629,19.5558
427,547,8.65588,-19.0819,0.000962772,0.00311429,0.00173085,0.00407645,6.16536e-07,1.06344,0.00271743,0.0150194,1651,477,8.65588,19.0819
434,547,8.61108,-18.62,0.00136479,0.0036366,0.00213822,0.00492191,7.94886e-05,1.02956,0.0032551,0.010289,1658,477,8.61109,18.62
441,547,8.59106,-18.16,0.00188329,0.00411882,0.00262428,0.00585347,0.000148644,0.986728,0.00385372,0.0105413,1665,477,8.59107,18.16
448,547,8.57092,-17.641,0.00245796,0.00452758,0.00316986,0.00682726,0.000158272,0.943171,0.00449968,0.0112145,1672,477,8.57089,17.641
455,547,8.55566,-17.1582,0.00315183,0.00493147,0.00375439,0.00790005,0.000183251,0.901755,0.00520669,0.0117672,1679,477,8.55563,17.1582
462,547,8.50049,-16.6854,0.00372127,0.00516399,0.00436697,0.00886877,1.64825e-05,0.867252,0.00590703,0.0114133,1686,477,8.50049,16.6854
469,547,8.44958,-16.1656,0.00375328,0.00477887,0.00465801,0.00895223,-0.000420078,0.840222,0.00611299,0.0182818,1693,477,8.44964,16.1656
476,547,8.50977,-15.5305,0.00364515,0.00404799,0.00492716,0.00877785,-0.0010847,0.805827,0.00624494,0.032176,1700,477,8.50973,15.5306
483,547,8.60425,-14.888,0,0,0,0,0,0,0,-1,1707,477,8.60422,14.888
490,547,3.65271,-3.71707,0,0,0,0,0,0,0,-1,1714,477,3.65277,3.71708
497,547,2.55481,-3.81421,0,0,0,0,0,0,0,-1,1721,477,2.55476,3.8142
504,547,4.01953,-2.22714,0,0,0,0,0,0,0,-1,1728,477,4.0195,2.22713
511,547,5.2146,-6.9552,0,0,0,0,0,0,0,-1,1735,477,5.21464,6.95521
518,547,5.24243,-6.56122,0,0,0,0,0,0,0,-1,1742,477,5.24241,6.56121
525,547,5.89368,-5.49866,0,0,0,0,0,0,0,-1,1749,477,5.89372,5.49866
532,547,0,0,0,0,0,0,0,0,0,-1,1756,477,0,0
539,547,0,0,0,0,0,0,0,0,0,-1,1763,477,0,0
546,547,0,0,0,0,0,0,0,0,0,-1,1770,477,0,0
553,547,0,0,0,0,0,0,0,0,0,-1,1777,477,0,0
560,547,0,0,0,0,0,0,0,0,0,-1,1784,477,0,0
567,547,0,0,0,0,0,0,0,0,0,-1,1791,477,0,0
574,547,0,0,0,0,0,0,0,0,0,-1,1798,477,0,0
581,547,0,0,0,0,0,0,0,0,0,-1,1805,477,0,0
588,547,0,0,0,0,0,0,0,0,0,-1,1812,477,0,0
595,547,0,0,0,0,0,0,0,0,0,-1,1819,477,0,0
602,547,0,0,0,0,0,0,0,0,0,-1,1826,477,0,0
609,547,0,0,0,0,0,0,0,0,0,-1,1833,477,0,0
616,547,0,0,0,0,0,0,0,0,0,-1,1840,477,0,0
623,547,0,0,0,0,0,0,0,0,0,-1,1847,477,0,0
630,547,0,0,0,0,0,0,0,0,0,-1,1854,477,0,0
637,547,0,0,0,0,0,0,0,0,0,-1,1861,477,0,0
644,547,0,0,0,0,0,0,0,0,0,-1,1868,477,0,0
651,547,0,0,0,0,0,0,0,0,0,-1,1875,477,0,0
658,547,0,0,0,0,0,0,0,0,0,-1,1882,477,0,0
665,547,0,0,0,0,0,0,0,0,0,-1,1889,477,0,0
672,547,0,0,0,0,0,0,0,0,0,-1,1896,477,0,0
679,547,0,0,0,0,0,0,0,0,0,-1,1903,477,0,0
686,547,0,0,0,0,0,0,0,0,0,-1,1910,477,0,0
693,547,0,0,0,0,0,0,0,0,0,-1,1917,477,0,0
700,547,0,0,0,0,0,0,0,0,0,-1,1924,477,0,0
707,547,0,0,0,0,0,0,0,0,0,-1,1931,477,0,0
714,547,0,0,0,0,0,0,0,0,0,-1,1938,477,0,0
721,547,0,0,0,0,0,0,0,0,0,-1,1945,477,0,0
728,547,0,0,0,0,0,0,0,0,0,-1,1952,477,0,0
735,547,0,0,0,0,0,0,0,0,0,-1,1959,477,0,0
742,547,0,0,0,0,0,0,0,0,0,-1,1966,477,0,0
749,547,0,0,0,0,0,0,0,0,0,-1,1973,477,0,0
756,547,0,0,0,0,0,0,0,0,0,-1,1980,477,0,0
763,547,0,0,0,0,0,0,0,0,0,-1,1987,477,0,0
770,547,0,0,0,0,0,0,0,0,0,-1,1994,477,0,0
777,547,0,0,0,0,0,0,0,0,0,-1,2001,477,0,0
784,547,0,0,0,0,0,0,0,0,0,-1,2008,477,0,0
791,547,0,0,0,0,0,0,0,0,0,-1,2015,477,0,0
798,547,0,0,0,0,0,0,0,0,0,-1,2022,477,0,0
805,547,0,0,0,0,0,0,0,0,0,-1,2029,477,0,0
812,547,0,0,0,0,0,0,0,0,0,-1,2036,477,0,0
-700,540,0,0,0,0,0,0,0,0,0,-1,524,484,0,0
-693,540,0,0,0,0,0,0,0,0,0,-1,531,484,0,0
-686,540,0,0,0,0,0,0,0,0,0,-1,538,484,0,0
-679,540,0,0,0,0,0,0,0,0,0,-1,545,484,0,0
-672,540,0,0,0,0,0,0,0,0,0,-1,552,484,0,0
-665,540,0,0,0,0,0,0,0,0,0,-1,559,484,0,0
-658,540,0,0,0,0,0,0,0,0,0,-1,566,484,0,0
-651,540,0,0,0,0,0,0,0,0,0,-1,573,484,0,0
-644,540,0,0,0,0,0,0,0,0,0,-1,580,484,0,0
-637,540,0,0,0,0,0,0,0,0,0,-1,587,484,0,0
-630,540,0,0,0,0,0,0,0,0,0,-1,594,484,0,0
-623,540,0,0,0,0,0,0,0,0,0,-1,601,484,0,0
-616,540,0,0,0,0,0,0,0,0,0,-1,608,484,0,0
-609,540,0,0,0,0,0,0,0,0,0,-1,615,484,0,0
-602,540,0,0,0,0,0,0,0,0,0,-1,622,484,0,0
-595,540,0,0,0,0,0,0,0,0,0,-1,629,484,0,0
-588,540,0,0,0,0,0,0,0,0,0,-1,636,484,0,0
-581,540,0,0,0,0,0,0,0,0,0,-1,643,484,0,0
-574,540,0,0,0,0,0,0,0,0,0,-1,650,484,0,0
-567,540,0,0,0,0,0,0,0,0,0,-1,657,484,0,0
-560,540,0,0,0,0,0,0,0,0,0,-1,664,484,0,0
-553,540,0,0,0,0,0,0,0,0,0,-1,671,484,0,0
-546,540,0,0,0,0,0,0,0,0,0,-1,678,484,0,0
-539,540,0,0,0,0,0,0,0,0,0,-1,685,484,0,0
-532,540,0,0,0,0,0,0,0,0,0,-1,692,484,0,0
-525,540,0,0,0,0,0,0,0,0,0,-1,699,484,0,0
-518,540,0,0,0,0,0,0,0,0,0,-1,706,484,0,0
-511,540,0,0,0,0,0,0,0,0,0,-1,713,484,0,0
-504,540,0,0,0,0,0,0,0,0,0,-1,720,484,0,0
-497,540,0,0,0,0,0,0,0,0,0,-1,727,484,0,0
-490,540,0,0,0,0,0,0,0,0,0,-1,734,484,0,0
-483,540,0,0,0,0,0,0,0,0,0,-1,741,484,0,0
-476,540,0,0,0,0,0,0,0,0,0,-1,748,484,0,0
-469,540,0,0,0,0,0,0,0,0,0,-1,755,484,0,0
-462,540,0,0,0,0,0,0,0,0,0,-1,762,484,0,0
-455,540,0,0,0,0,0,0,0,0,0,-1,769,484,0,0
-448,540,0,0,0,0,0,0,0,0,0,-1,776,484,0,0
-441,540,0,0,0,0,0,0,0,0,0,-1,783,484,0,0
-434,540,0,0,0,0,0,0,0,0,0,-1,790,484,0,0
-427,540,0,0,0,0,0,0,0,0,0,-1,797,484,0,0
-420,540,0.227051,-10.0402,0,0,0,0,0,0,0,-1,804,484,0.227063,10.0402
-413,540,-1.12311,-11.6776,0,0,0,0,0,0,0,-1,811,484,-1.12312,11.6776
-406,540,-0.518372,-11.5288,0,0,0,0,0,0,0,-1,818,484,-0.518402,11.5288
-399,540,0.0863037,-11.3801,0,0,0,0,0,0,0,-1,825,484,0.0863201,11.3801
-392,540,-0.517395,-10.6735,0,0,0,0,0,0,0,-1,832,484,-0.517377,10.6735
-385,540,-2.29407,-5.03418,0,0,0,0,0,0,0,-1,839,484,-2.29408,5.03418
-378,540,1.06445,-10.5824,0,0,0,0,0,0,0,-1,846,484,1.06446,10.5824
-371,540,1.14825,-10.7452,0,0,0,0,0,0,0,-1,853,484,1.14827,10.7452
-364,540,0.359924,-16.1954,0,0,0,0,0,0,0,-1,860,484,0.3599,16.1954
-357,540,0.323547,-16.3326,0,0,0,0,0,0,0,-1,867,484,0.323566,16.3326
-350,540,0.326294,-16.6209,0.00928729,0.00839529,-0.0110878,0.0199381,-0.00225552,-0.765297,0.0141041,0.0361206,874,484,0.32629,16.6209
-343,540,0.24884,-17.3341,0.00885516,0.00657175,-0.0101554,0.0179329,-0.00250596,-0.729422,0.0128721,0.0195331,881,484,0.248829,17.3341
-336,540,0.193665,-17.9393,0.00842043,0.00510378,-0.00915798,0.016069,-0.00254481,-0.695829,0.0116539,0.0127896,888,484,0.193672,17.9393
-329,540,0.173401,-18.3952,0.00787004,0.0037256,-0.00802031,0.0140815,-0.00248587,-0.658977,0.0103166,0.0105616,895,484,0.173383,18.3952
-322,540,0.169983,-18.8656,0.00701425,0.00265953,-0.00684708,0.0120218,-0.00234806,-0.631455,0.00890108,0.0141647,902,484,0.170009,18.8656
-315,540,0.152893,-19.3443,0.00606532,0.00184635,-0.00566057,0.0099967,-0.00208503,-0.607038,0.00745728,0.0129257,909,484,0.152891,19.3443
-308,540,0.160645,-19.7769,0.00505324,0.00137402,-0.00452199,0.00809549,-0.00166823,-0.592215,0.00603049,0.0121893,916,484,0.16067,19.7769
-301,540,0.145081,-20.2191,0.00401742,0.000725306,-0.00331067,0.00606866,-0.00132594,-0.554697,0.00455258,0.0117382,923,484,0.145083,20.2191
-294,540,0.126221,-20.6658,0.00319734,-0.000234697,-0.00208209,0.00417944,-0.0012168,-0.440743,0.00326828,0.0108916,930,484,0.126194,20.6658
-287,540,0.110718,-21.1079,0.00250663,-0.000930264,-0.000995783,0.00277429,-0.00119793,-0.262593,0.00235279,0.0084779,937,484,0.110722,21.1079
-280,540,0.102905,-21.5521,0.00196587,-0.0016588,-3.47379e-05,0.0019662,-0.00165913,-0.00958256,0.00209559,0.0100818,944,484,0.102891,21.5521
-273,540,0.104492,-21.9773,0.00165492,-0.00257417,0.000924599,0.00184822,-0.00276748,0.206103,0.00268244,0.0119828,951,484,0.104516,21.9773
-266,540,0.0958252,-22.3904,0.00228402,-0.0036735,0.00159742,0.00268531,-0.0040748,0.24612,0.00393033,0.0129447,958,484,0.0958475,22.3903
-259,540,0.0847168,-22.8144,0.00359232,-0.0047307,0.00171511,0.0039319,-0.00507028,0.195463,0.00521124,0.0124194,965,484,0.0847065,22.8144
-252,540,0.0951538,-23.2122,0.004583,-0.00654984,0.00216549,0.00498938,-0.00695622,0.185505,0.00692789,0.0122488,972,484,0.0951751,23.2122
-245,540,0.102173,-23.6237,0.00564827,-0.00893802,0.00270563,0.00613396,-0.00942372,0.177622,0.00904892,0.0122787,979,484,0.102179,23.6237
-238,540,0.0930786,-24.0042,0.0073676,-0.011298,0.00293524,0.00781829,-0.0117487,0.152357,0.0113727,0.0103504,986,484,0.093079,24.0042
-231,540,0.103943,-24.3856,0.00922606,-0.0136396,0.00305038,0.009626,-0.0140395,0.130368,0.0137423,0.0155163,993,484,0.10392,24.3856
-224,540,0.102844,-24.7164,0.0109309,-0.0162826,0.00327147,0.0113187,-0.0166704,0.117976,0.0162577,0.0261718,1000,484,0.102841,24.7164
-217,540,0.153687,-24.8264,0.0124234,-0.0190792,0.00346703,0.0128005,-0.0194563,0.108328,0.0187551,0.0375991,1007,484,0.153694,24.8264
-210,540,0.364624,-25.1358,0.0126989,-0.0217663,0.00409904,0.0131797,-0.0222471,0.116763,0.0206758,0.044686,1014,484,0.364645,25.1358
-203,540,0.289978,-25.5483,0,0,0,0,0,0,0,-1,1021,484,0.289953,25.5483
-196,540,-0.207764,-24.9319,0,0,0,0,0,0,0,-1,1028,484,-0.207786,24.9319
-189,540,-0.726807,-22.826,0,0,0,0,0,0,0,-1,1035,484,-0.72684,22.8259
-182,540,0.109375,-15.2948,0,0,0,0,0,0,0,-1,1042,484,0.109331,15.2948
-175,540,1.73413,-10.728,0,0,0,0,0,0,0,-1,1049,484,1.73414,10.728
-168,540,1.18164,-7.65347,0,0,0,0,0,0,0,-1,1056,484,1.18163,7.65347
-161,540,-0.405884,-9.86481,0,0,0,0,0,0,0,-1,1063,484,-0.405886,9.8648
-154,540,1.96863,-22.0727,0,0,0,0,0,0,0,-1,1070,484,1.96859,22.0727
-147,540,1.32764,-21.9952,0,0,0,0,0,0,0,-1,1077,484,1.32762,21.9952
-140,540,1.40735,-15.6289,0,0,0,0,0,0,0,-1,1084,484,1.4073,15.6289
-133,540,2.28345,-17.6413,0,0,0,0,0,0,0,-1,1091,484,2.2835,17.6413
-126,540,1.25293,-23.9108,0,0,0,0,0,0,0,-1,1098,484,1.25288,23.9108
-119,540,1.55969,-23.0125,0,0,0,0,0,0,0,-1,1105,484,1.55968,23.0125
-112,540,1.4801,-21.6515,0,0,0,0,0,0,0,-1,1112,484,1.4801,21.6515
-105,540,1.30078,-19.8938,0,0,0,0,0,0,0,-1,1119,484,1.30077,19.8938
-98,540,1.08105,-18.1304,0,0,0,0,0,0,0,-1,1126,484,1.08101,18.1304
-91,540,1.56519,-7.48666,0,0,0,0,0,0,0,-1,1133,484,1.56514,7.48667
-84,540,-0.945923,4.43073,0,0,0,0,0,0,0,-1,1140,484,-0.945891,-4.43074
-77,540,-2.28894,2.14368,0,0,0,0,0,0,0,-1,1147,484,-2.28894,-2.14368
-70,540,-3.75244,-0.452576,0,0,0,0,0,0,0,-1,1154,484,-3.75244,0.452576
-63,540,-5.26257,-3.04767,0,0,0,0,0,0,0,-1,1161,484,-5.26262,3.04766
-56,540,-5.19055,-6.12595,0,0,0,0,0,0,0,-1,1168,484,-5.19057,6.12595
-49,540,-5.63867,-8.52298,0,0,0,0,0,0,0,-1,1175,484,-5.63871,8.52298
-42,540,0,0,0,0,0,0,0,0,0,-1,1182,484,0,0
-35,540,0,0,0,0,0,0,0,0,0,-1,1189,484,0,0
-28,540,0,0,0,0,0,0,0,0,0,-1,1196,484,0,0
-21,540,0,0,0,0,0,0,0,0,0,-1,1203,484,0,0
-14,540,0,0,0,0,0,0,0,0,0,-1,1210,484,0,0
-7,540,0,0,0,0,0,0,0,0,0,-1,1217,484,0,0
0,540,0,0,0,0,0,0,0,0,0,-1,1224,484,0,0
7,540,0,0,0,0,0,0,0,0,0,-1,1231,484,0,0
14,540,0,0,0,0,0,0,0,0,0,-1,1238,484,0,0
21,540,0,0,0,0,0,0,0,0,0,-1,1245,484,0,0
28,540,0,0,0,0,0,0,0,0,0,-1,1252,484,0,0
35,540,0,0,0,0,0,0,0,0,0,-1,1259,484,0,0
42,540,0,0,0,0,0,0,0,0,0,-1,1266,484,0,0
49,540,0,0,0,0,0,0,0,0,0,-1,1273,484,0,0
56,540,0,0,0,0,0,0,0,0,0,-1,1280,484,0,0
63,540,0,0,0,0,0,0,0,0,0,-1,1287,484,0,0
70,540,0,0,0,0,0,0,0,0,0,-1,1294,484,0,0
77,540,0,0,0,0,0,0,0,0,0,-1,1301,484,0,0
84,540,0,0,0,0,0,0,0,0,0,-1,1308,484,0,0
91,540,0,0,0,0,0,0,0,0,0,-1,1315,484,0,0
98,540,0,0,0,0,0,0,0,0,0,-1,1322,484,0,0
105,540,0,0,0,0,0,0,0,0,0,-1,1329,484,0,0
112,540,0,0,0,0,0,0,0,0,0,-1,1336,484,0,0
119,540,0,0,0,0,0,0,0,0,0,-1,1343,484,0,0
126,540,0,0,0,0,0,0,0,0,0,-1,1350,484,0,0
133,540,0,0,0,0,0,0,0,0,0,-1,1357,484,0,0
140,540,0,0,0,0,0,0,0,0,0,-1,1364,484,0,0
147,540,0,0,0,0,0,0,0,0,0,-1,1371,484,0,0
154,540,0,0,0,0,0,0,0,0,0,-1,1378,484,0,0
161,540,0,0,0,0,0,0,0,0,0,-1,1385,484,0,0
168,540,3.05078,-0.0010376,0,0,0,0,0,0,0,-1,1392,484,3.05084,0.00102554
175,540,3.37708,0.617035,0,0,0,0,0,0,0,-1,1399,484,3.37707,-0.617046
182,540,3.32678,1.23267,0,0,0,0,0,0,0,-1,1406,484,3.32678,-1.23266
189,540,3.5813,2.15619,0,0,0,0,0,0,0,-1,1413,484,3.58129,-2.1562
196,540,1.84448,-0.801483,0,0,0,0,0,0,0,-1,1420,484,1.84446,0.80148
203,540,4.14648,0.702087,0,0,0,0,0,0,0,-1,1427,484,4.14645,-0.702089
210,540,4.50671,-0.56076,0,0,0,0,0,0,0,-1,1434,484,4.50667,0.560771
217,540,5.00452,-0.278717,0,0,0,0,0,0,0,-1,1441,484,5.00452,0.278709
224,540,6.44458,-2.83527,0,0,0,0,0,0,0,-1,1448,484,6.44457,2.83525
231,540,6.9231,-3.10504,0,0,0,0,0,0,0,-1,1455,484,6.92307,3.10505
238,540,6.4823,-2.58365,0,0,0,0,0,0,0,-1,1462,484,6.48225,2.58363
245,540,6.02087,-1.97916,0,0,0,0,0,0,0,-1,1469,484,6.02088,1.97915
252,540,6.50647,-3.56006,0,0,0,0,0,0,0,-1,1476,484,6.50649,3.56006
259,540,6.01941,-2.798,0,0,0,0,0,0,0,-1,1483,484,6.01941,2.79801
266,540,5.5332,-2.02853,0,0,0,0,0,0,0,-1,1490,484,5.53323,2.02855
273,540,5.06787,-1.28137,0,0,0,0,0,0,0,-1,1497,484,5.06786,1.28136
280,540,1.62903,-2.14609,0,0,0,0,0,0,0,-1,1504,484,1.62906,2.1461
287,540,1.97156,-2.45053,0,0,0,0,0,0,0,-1,1511,484,1.97159,2.45053
294,540,2.44165,-2.6185,0,0,0,0,0,0,0,-1,1518,484,2.44167,2.6185
301,540,4.36169,-2.54272,0,0,0,0,0,0,0,-1,1525,484,4.36165,2.54272
308,540,4.2019,-4.30469,0,0,0,0,0,0,0,-1,1532,484,4.20193,4.3047
315,540,4.45923,-5.32101,0,0,0,0,0,0,0,-1,1539,484,4.45923,5.32103
322,540,4.71655,-6.33737,0,0,0,0,0,0,0,-1,1546,484,4.71653,6.33736
329,540,5.8949,-12.9383,0,0,0,0,0,0,0,-1,1553,484,5.89492,12.9383
336,540,7.16467,-17.7826,0,0,0,0,0,0,0,-1,1560,484,7.16469,17.7826
343,540,9.19446,-23.6872,0,0,0,0,0,0,0,-1,1567,484,9.19443,23.6872
350,540,9.15686,-23.3758,4.98835e-05,-0.0152307,-0.00822052,0.00363237,-0.0188132,-0.410982,0.0139119,0.0495943,1574,484,9.15681,23.3758
357,540,9.21326,-23.3145,-5.32741e-05,-0.0126041,-0.00701092,0.00308056,-0.0157379,-0.420351,0.0116553,0.0390233,1581,484,9.21329,23.3145
364,540,9.09924,-23.07,-4.52267e-05,-0.0101632,-0.00577637,0.00257431,-0.0127828,-0.425754,0.00949697,0.0224981,1588,484,9.09926,23.07
371,540,9.11755,-22.683,9.00191e-05,-0.00781237,-0.00459664,0.00220026,-0.00992261,-0.430382,0.00745749,0.0143229,1595,484,9.1176,22.683
378,540,9.146,-22.2445,0.00021415,-0.00554185,-0.0034657,0.00184103,-0.00716873,-0.438889,0.00549659,0.0119362,1602,484,9.14605,22.2445
385,540,9.15173,-21.7958,0.000360528,-0.0033671,-0.00233662,0.00148562,-0.0044922,-0.448743,0.00359386,0.013763,1609,484,9.15174,21.7959
392,540,9.13062,-21.3497,0.000414135,-0.00192777,-0.00153112,0.00117073,-0.00268437,-0.458954,0.00228222,0.0128801,1616,484,9.13057,21.3497
399,540,9.10693,-20.9366,0.000441865,-0.000773894,-0.000866519,0.000892462,-0.00122449,-0.479526,0.00122722,0.0172705,1623,484,9.10697,20.9366
406,540,9.1123,-20.5062,0.000429333,0.000628697,-0.000179055,0.000733947,0.000324083,-1.03939,0.000424708,0.0174499,1630,484,9.11227,20.5062
413,540,9.12756,-20.0114,0.000478577,0.00135368,0.000337779,0.00146889,0.000363366,1.24209,0.000883412,0.0128805,1637,484,9.12753,20.0114
420,540,9.1189,-19.5367,0.000670074,0.00190029,0.000802033,0.00229593,0.000274433,1.11252,0.00144784,0.0118222,1644,484,9.11893,19.5367
427,540,9.08435,-19.0738,0.000834393,0.0023322,0.00118959,0.00298899,0.000177597,1.06633,0.00193618,0.0125969,1651,484,9.08435,19.0738
434,540,9.06079,-18.6048,0.00107575,0.0027417,0.00155485,0.00367264,0.000144808,1.03131,0.00240162,0.0156304,1658,484,9.06083,18.6048
441,540,9.06958,-18.1278,0.00142612,0.00309955,0.00200062,0.00443137,9.42938e-05,0.983459,0.00292333,0.0194811,1665,484,9.06957,18.1278
448,540,9.03662,-17.6518,0.00185043,0.0033801,0.00250868,0.00523795,-7.41729e-06,0.933361,0.00349444,0.0116277,1672,484,9.03662,17.6518
455,540,9.01855,-17.1717,0.00236081,0.00366837,0.00303999,0.00612408,-9.49011e-05,0.891315,0.00411472,0.0103915,1679,484,9.01861,17.1717
462,540,8.96997,-16.6645,0.00272552,0.00375306,0.00357655,0.00685254,-0.000373972,0.856735,0.00469798,0.0106999,1686,484,8.96996,16.6645
469,540,8.92615,-16.1476,0.00257662,0.00323611,0.00378081,0.00670153,-0.000888795,0.828896,0.00479151,0.0134486,1693,484,8.92617,16.1476
476,540,8.9353,-15.6458,0.00227896,0.0024236,0.0039611,0.00631304,-0.00161048,0.794526,0.00483575,0.0178214,1700,484,8.93525,15.6458
483,540,8.98901,-15.1091,0.00160306,0.00118204,0.00397045,0.00536857,-0.00258347,0.758914,0.00468404,0.033219,1707,484,8.98906,15.1091
490,540,9.16333,-14.4842,0,0,0,0,0,0,0,-1,1714,484,9.16335,14.4842
497,540,9.25146,-14.2222,0,0,0,0,0,0,0,-1,1721,484,9.25142,14.2222
504,540,5.68176,-6.39444,0,0,0,0,0,0,0,-1,1728,484,5.68179,6.39445
511,540,5.82471,-6.83521,0,0,0,0,0,0,0,-1,1735,484,5.82465,6.83522
518,540,9.98181,-12.4608,0,0,0,0,0,0,0,-1,1742,484,9.98187,12.4608
525,540,8.64587,-13.3445,0,0,0,0,0,0,0,-1,1749,484,8.64585,13.3445
532,540,2.84265,-1.07925,0,0,0,0,0,0,0,-1,1756,484,2.84269,1.07927
539,540,0,0,0,0,0,0,0,0,0,-1,1763,484,0,0
546,540,0,0,0,0,0,0,0,0,0,-1,1770,484,0,0
553,540,0,0,0,0,0,0,0,0,0,-1,1777,484,0,0
560,540,0,0,0,0,0,0,0,0,0,-1,1784,484,0,0
567,540,0,0,0,0,0,0,0,0,0,-1,1791,484,0,0
574,540,0,0,0,0,0,0,0,0,0,-1,1798,484,0,0
581,540,0,0,0,0,0,0,0,0,0,-1,1805,484,0,0
588,540,0,0,0,0,0,0,0,0,0,-1,1812,484,0,0
595,540,0,0,0,0,0,0,0,0,0,-1,1819,484,0,0
602,540,0,0,0,0,0,0,0,0,0,-1,1826,484,0,0
609,540,0,0,0,0,0,0,0,0,0,-1,1833,484,0,0
616,540,0,0,0,0,0,0,0,0,0,-1,1840,484,0,0
623,540,0,0,0,0,0,0,0,0,0,-1,1847,484,0,0
630,540,0,0,0,0,0,0,0,0,0,-1,1854,484,0,0
637,540,0,0,0,0,0,0,0,0,0,-1,1861,484,0,0
644,540,0,0,0,0,0,0,0,0,0,-1,1868,484,0,0
651,540,0,0,0,0,0,0,0,0,0,-1,1875,484,0,0
658,540,0,0,0,0,0,0,0,0,0,-1,1882,484,0,0
665,540,0,0,0,0,0,0,0,0,0,-1,1889,484,0,0
672,540,0,0,0,0,0,0,0,0,0,-1,1896,484,0,0
679,540,0,0,0,0,0,0,0,0,0,-1,1903,484,0,0
686,540,0,0,0,0,0,0,0,0,0,-1,1910,484,0,0
693,540,0,0,0,0,0,0,0,0,0,-1,1917,484,0,0
700,540,0,0,0,0,0,0,0,0,0,-1,1924,484,0,0
707,540,0,0,0,0,0,0,0,0,0,-1,1931,484,0,0
714,540,0,0,0,0,0,0,0,0,0,-1,1938,484,0,0
721,540,0,0,0,0,0,0,0,0,0,-1,1945,484,0,0
728,540,0,0,0,0,0,0,0,0,0,-1,1952,484,0,0
735,540,0,0,0,0,0,0,0,0,0,-1,1959,484,0,0
742,540,0,0,0,0,0,0,0,0,0,-1,1966,484,0,0
749,540,0,0,0,0,0,0,0,0,0,-1,1973,484,0,0
756,540,0,0,0,0,0,0,0,0,0,-1,1980,484,0,0
763,540,0,0,0,0,0,0,0,0,0,-1,1987,484,0,0
770,540,0,0,0,0,0,0,0,0,0,-1,1994,484,0,0
777,540,0,0,0,0,0,0,0,0,0,-1,2001,484,0,0
784,540,0,0,0,0,0,0,0,0,0,-1,2008,484,0,0
791,540,0,0,0,0,0,0,0,0,0,-1,2015,484,0,0
798,540,0,0,0,0,0,0,0,0,0,-1,2022,484,0,0
805,540,0,0,0,0,0,0,0,0,0,-1,2029,484,0,0
812,540,0,0,0,0,0,0,0,0,0,-1,2036,484,0,0
-700,533,0,0,0,0,0,0,0,0,0,-1,524,491,0,0
-693,533,0,0,0,0,0,0,0,0,0,-1,531,491,0,0
-686,533,0,0,0,0,0,0,0,0,0,-1,538,491,0,0
-679,533,0,0,0,0,0,0,0,0,0,-1,545,491,0,0
-672,533,0,0,0,0,0,0,0,0,0,-1,552,491,0,0
-665,533,0,0,0,0,0,0,0,0,0,-1,559,491,0,0
-658,533,0,0,0,0,0,0,0,0,0,-1,566,491,0,0
-651,533,0,0,0,0,0,0,0,0,0,-1,573,491,0,0
-644,533,0,0,0,0,0,0,0,0,0,-1,580,491,0,0
-637,533,0,0,0,0,0,0,0,0,0,-1,587,491,0,0
-630,533,0,0,0,0,0,0,0,0,0,-1,594,491,0,0
-623,533,0,0,0,0,0,0,0,0,0,-1,601,491,0,0
-616,533,0,0,0,0,0,0,0,0,0,-1,608,491,0,0
-609,533,0,0,0,0,0,0,0,0,0,-1,615,491,0,0
-602,533,0,0,0,0,0,0,0,0,0,-1,622,491,0,0
-595,533,0,0,0,0,0,0,0,0,0,-1,629,491,0,0
-588,533,0,0,0,0,0,0,0,0,0,-1,636,491,0,0
-581,533,0,0,0,0,0,0,0,0,0,-1,643,491,0,0
-574,533,0,0,0,0,0,0,0,0,0,-1,650,491,0,0
-567,533,0,0,0,0,0,0,0,0,0,-1,657,491,0,0
-560,533,0,0,0,0,0,0,0,0,0,-1,664,491,0,0
-553,533,0,0,0,0,0,0,0,0,0,-1,671,491,0,0
-546,533,0,0,0,0,0,0,0,0,0,-1,678,491,0,0
-539,533,0,0,0,0,0,0,0,0,0,-1,685,491,0,0
-532,533,0,0,0,0,0,0,0,0,0,-1,692,491,0,0
-525,533,0,0,0,0,0,0,0,0,0,-1,699,491,0,0
-518,533,0,0,0,0,0,0,0,0,0,-1,706,491,0,0
-511,533,0,0,0,0,0,0,0,0,0,-1,713,491,0,0
-504,533,0,0,0,0,0,0,0,0,0,-1,720,491,0,0
-497,533,0,0,0,0,0,0,0,0,0,-1,727,491,0,0
-490,533,0,0,0,0,0,0,0,0,0,-1,734,491,0,0
-483,533,0,0,0,0,0,0,0,0,0,-1,741,491,0,0
-476,533,0,0,0,0,0,0,0,0,0,-1,748,491,0,0
-469,533,0,0,0,0,0,0,0,0,0,-1,755,491,0,0
-462,533,0,0,0,0,0,0,0,0,0,-1,762,491,0,0
-455,533,0,0,0,0,0,0,0,0,0,-1,769,491,0,0
-448,533,0,0,0,0,0,0,0,0,0,-1,776,491,0,0
-441,533,0,0,0,0,0,0,0,0,0,-1,783,491,0,0
-434,533,0,0,0,0,0,0,0,0,0,-1,790,491,0,0
-427,533,0.559814,-4.40222,0,0,0,0,0,0,0,-1,797,491,0.559816,4.40222
-420,533,-0.194275,-9.77838,0,0,0,0,0,0,0,-1,804,491,-0.194288,9.77838
-413,533,-1.32666,-12.065,0,0,0,0,0,0,0,-1,811,491,-1.32665,12.065
-406,533,-0.890869,-12.2537,0,0,0,0,0,0,0,-1,818,491,-0.89084,12.2537
-399,533,-0.455017,-12.4423,0,0,0,0,0,0,0,-1,825,491,-0.455032,12.4423
-392,533,-1.89661,-10.3905,0,0,0,0,0,0,0,-1,832,491,-1.89661,10.3905
-385,533,-1.69116,-6.64645,0,0,0,0,0,0,0,-1,839,491,-1.69115,6.64645
-378,533,-0.233032,-14.5715,0,0,0,0,0,0,0,-1,846,491,-0.233052,14.5715
-371,533,-0.0982666,-15.2326,0,0,0,0,0,0,0,-1,853,491,-0.0982948,15.2326
-364,533,-0.194946,-16.0924,0.00627772,0.0106535,-0.00981354,0.0185201,-0.00158888,-0.895077,0.012909,0.0445473,860,491,-0.194956,16.0924
-357,533,-0.144714,-16.3609,0.00604342,0.0086822,-0.00893542,0.0163951,-0.00166949,-0.858698,0.0115269,0.0246791,867,491,-0.144694,16.3609
-350,533,-0.143372,-16.9072,0.00566555,0.00703138,-0.00797206,0.0143497,-0.00165279,-0.828125,0.0101623,0.0146291,874,491,-0.143391,16.9072
-343,533,-0.184692,-17.4378,0.00523014,0.00559589,-0.00710096,0.0125163,-0.00169029,-0.798272,0.00896095,0.0123314,881,491,-0.184672,17.4378
-336,533,-0.213135,-17.9158,0.00489901,0.00435651,-0.00626622,0.0108998,-0.00164433,-0.763768,0.00787213,0.0147465,888,491,-0.213143,17.9158
-329,533,-0.236938,-18.3619,0.00458144,0.00317354,-0.00534975,0.00927336,-0.00151838,-0.719982,0.00674557,0.0136694,895,491,-0.236943,18.3619
-322,533,-0.281311,-18.8366,0.00400888,0.00227155,-0.00439961,0.00762476,-0.00134433,-0.687932,0.00558548,0.0117416,902,491,-0.281293,18.8367
-315,533,-0.29364,-19.3125,0.00339363,0.00159326,-0.00344031,0.00604958,-0.00106269,-0.657438,0.00442998,0.0127174,909,491,-0.29364,19.3125
-308,533,-0.293457,-19.7643,0.00275262,0.00114908,-0.00251094,0.00458669,-0.000684992,-0.63086,0.00330984,0.0121554,916,491,-0.293466,19.7644
-301,533,-0.324036,-20.1954,0.00212292,0.000480623,-0.00149282,0.00300553,-0.000401992,-0.533952,0.00215025,0.0132495,923,491,-0.324026,20.1954
-294,533,-0.326294,-20.6264,0.00172632,-0.000636128,-0.000442419,0.00180645,-0.000716262,-0.179185,0.00150114,0.0122198,930,491,-0.326277,20.6264
-287,533,-0.3255,-21.0868,0.00146206,-0.00149745,0.000476562,0.00153691,-0.00157229,0.155783,0.00179514,0.0097697,937,491,-0.325511,21.0868
-280,533,-0.331726,-21.5485,0.00130666,-0.00246808,0.00134381,0.00173618,-0.0028976,0.309368,0.00270318,0.00937414,944,491,-0.331741,21.5485
-273,533,-0.343994,-21.9679,0.0013763,-0.00368166,0.00224421,0.00222848,-0.00453384,0.362904,0.00397913,0.0123705,951,491,-0.344021,21.9679
-266,533,-0.344177,-22.3791,0.00276581,-0.00501356,0.00267731,0.00359817,-0.00584591,0.301419,0.00550378,0.0119233,958,491,-0.344182,22.3791
-259,533,-0.322144,-22.7975,0.00483459,-0.00637905,0.00258193,0.00540051,-0.00694498,0.215775,0.00714624,0.0122133,965,491,-0.322117,22.7975
-252,533,-0.306152,-23.1804,0.00634157,-0.00863336,0.00296209,0.00690619,-0.00919799,0.188357,0.00932908,0.0143977,972,491,-0.306123,23.1804
-245,533,-0.334106,-23.5478,0.00790266,-0.0114959,0.0034721,0.00850539,-0.0120987,0.171881,0.0119559,0.0213352,979,491,-0.334094,23.5478
-238,533,-0.254578,-23.8964,0.0102314,-0.0141398,0.0035295,0.0107323,-0.0146407,0.140965,0.0147069,0.0284763,986,491,-0.254553,23.8964
-231,533,-0.128723,-24.2517,0,0,0,0,0,0,0,-1,993,491,-0.128747,24.2517
-224,533,-0.426147,-24.5367,0,0,0,0,0,0,0,-1,1000,491,-0.426129,24.5368
-217,533,-0.00280762,-24.8801,0.0178962,-0.0228089,0.00313922,0.0181369,-0.0230496,0.076518,0.0238353,0.0475048,1007,491,-0.00280665,24.8801
-210,533,0.572083,-25.3312,0.0189885,-0.0258281,0.00345588,0.0192535,-0.026093,0.0765088,0.0262799,0.0498962,1014,491,0.572074,25.3312
-203,533,1.02856,-25.6401,0,0,0,0,0,0,0,-1,1021,491,1.02856,25.6402
-196,533,0.688354,-19.5743,0,0,0,0,0,0,0,-1,1028,491,0.688406,19.5743
-189,533,-0.169189,-15.0303,0,0,0,0,0,0,0,-1,1035,491,-0.169241,15.0303
-182,533,1.26123,-11.4969,0,0,0,0,0,0,0,-1,1042,491,1.26128,11.4969
-175,533,0.937744,-7.36966,0,0,0,0,0,0,0,-1,1049,491,0.937769,7.36965
-168,533,2.64807,-2.7543,0,0,0,0,0,0,0,-1,1056,491,2.64812,2.7543
-161,533,1.91833,-1.76553,0,0,0,0,0,0,0,-1,1063,491,1.91836,1.76554
-154,533,0.376709,-11.0633,0,0,0,0,0,0,0,-1,1070,491,0.376715,11.0632
-147,533,0.383789,-12.1586,0,0,0,0,0,0,0,-1,1077,491,0.383829,12.1586
-140,533,1.14001,-15.4608,0,0,0,0,0,0,0,-1,1084,491,1.14005,15.4608
-133,533,0.189941,-16.0795,0,0,0,0,0,0,0,-1,1091,491,0.18994,16.0795
-126,533,2.89612,-2.59003,0,0,0,0,0,0,0,-1,1098,491,2.89608,2.59003
-119,533,1.78284,-22.5394,0,0,0,0,0,0,0,-1,1105,491,1.78279,22.5394
-112,533,1.83862,-21.2401,0,0,0,0,0,0,0,-1,1112,491,1.83859,21.24
-105,533,1.67554,-19.4018,0,0,0,0,0,0,0,-1,1119,491,1.6755,19.4018
-98,533,-1.39392,-5.16367,0,0,0,0,0,0,0,-1,1126,491,-1.39394,5.16367
-91,533,0.367432,4.49753,0,0,0,0,0,0,0,-1,1133,491,0.367468,-4.49754
-84,533,-0.88623,3.03604,0,0,0,0,0,0,0,-1,1140,491,-0.886288,-3.03605
-77,533,0,0,0,0,0,0,0,0,0,-1,1147,491,0,0
-70,533,0,0,0,0,0,0,0,0,0,-1,1154,491,0,0
-63,533,0,0,0,0,0,0,0,0,0,-1,1161,491,0,0
-56,533,0,0,0,0,0,0,0,0,0,-1,1168,491,0,0
-49,533,0,0,0,0,0,0,0,0,0,-1,1175,491,0,0
-42,533,0,0,0,0,0,0,0,0,0,-1,1182,491,0,0
-35,533,0,0,0,0,0,0,0,0,0,-1,1189,491,0,0
-28,533,0,0,0,0,0,0,0,0,0,-1,1196,491,0,0
-21,533,0,0,0,0,0,0,0,0,0,-1,1203,491,0,0
-14,533,0,0,0,0,0,0,0,0,0,-1,1210,491,0,0
-7,533,0,0,0,0,0,0,0,0,0,-1,1217,491,0,0
0,533,0,0,0,0,0,0,0,0,0,-1,1224,491,0,0
7,533,0,0,0,0,0,0,0,0,0,-1,1231,491,0,0
14,533,0,0,0,0,0,0,0,0,0,-1,1238,491,0,0
21,533,0,0,0,0,0,0,0,0,0,-1,1245,491,0,0
28,533,0,0,0,0,0,0,0,0,0,-1,1252,491,0,0
35,533,0,0,0,0,0,0,0,0,0,-1,1259,491,0,0
42,533,0,0,0,0,0,0,0,0,0,-1,1266,491,0,0
49,533,0,0,0,0,0,0,0,0,0,-1,1273,491,0,0
56,533,0,0,0,0,0,0,0,0,0,-1,1280,491,0,0
63,533,0,0,0,0,0,0,0,0,0,-1,1287,491,0,0
70,533,0,0,0,0,0,0,0,0,0,-1,1294,491,0,0
77,533,0,0,0,0,0,0,0,0,0,-1,1301,491,0,0
84,533,0,0,0,0,0,0,0,0,0,-1,1308,491,0,0
91,533,0,0,0,0,0,0,0,0,0,-1,1315,491,0,0
98,533,0,0,0,0,0,0,0,0,0,-1,1322,491,0,0
105,533,0,0,0,0,0,0,0,0,0,-1,1329,491,0,0
112,533,0,0,0,0,0,0,0,0,0,-1,1336,491,0,0
119,533,0,0,0,0,0,0,0,0,0,-1,1343,491,0,0
126,533,0,0,0,0,0,0,0,0,0,-1,1350,491,0,0
133,533,0,0,0,0,0,0,0,0,0,-1,1357,491,0,0
140,533,0,0,0,0,0,0,0,0,0,-1,1364,491,0,0
147,533,0,0,0,0,0,0,0,0,0,-1,1371,491,0,0
154,533,0,0,0,0,0,0,0,0,0,-1,1378,491,0,0
161,533,0,0,0,0,0,0,0,0,0,-1,1385,491,0,0
168,533,0,0,0,0,0,0,0,0,0,-1,1392,491,0,0
175,533,0,0,0,0,0,0,0,0,0,-1,1399,491,0,0
182,533,0,0,0,0,0,0,0,0,0,-1,1406,491,0,0
189,533,0,0,0,0,0,0,0,0,0,-1,1413,491,0,0
196,533,0,0,0,0,0,0,0,0,0,-1,1420,491,0,0
203,533,3.7887,1.16193,0,0,0,0,0,0,0,-1,1427,491,3.78872,-1.16193
210,533,5.09558,-0.216034,0,0,0,0,0,0,0,-1,1434,491,5.09559,0.216028
217,533,6.91614,-2.46814,0,0,0,0,0,0,0,-1,1441,491,6.91618,2.46814
224,533,7.23621,-2.1857,0,0,0,0,0,0,0,-1,1448,491,7.23621,2.1857
231,533,7.23474,-1.92282,0,0,0,0,0,0,0,-1,1455,491,7.2347,1.92282
238,533,7.23535,-1.67258,0,0,0,0,0,0,0,-1,1462,491,7.23539,1.67258
245,533,6.86682,-1.2301,0,0,0,0,0,0,0,-1,1469,491,6.86686,1.23011
252,533,6.63354,-3.07825,0,0,0,0,0,0,0,-1,1476,491,6.6335,3.07824
259,533,6.16431,-2.35037,0,0,0,0,0,0,0,-1,1483,491,6.1643,2.35037
266,533,5.68884,-1.6214,0,0,0,0,0,0,0,-1,1490,491,5.68885,1.6214
273,533,5.21399,-0.864227,0,0,0,0,0,0,0,-1,1497,491,5.21403,0.864227
280,533,1.41089,-1.97946,0,0,0,0,0,0,0,-1,1504,491,1.41087,1.97946
287,533,1.6814,-2.44443,0,0,0,0,0,0,0,-1,1511,491,1.6814,2.44444
294,533,2.2384,-2.57626,0,0,0,0,0,0,0,-1,1518,491,2.23839,2.57625
301,533,3.39941,-4.0817,0,0,0,0,0,0,0,-1,1525,491,3.3994,4.08171
308,533,4.13733,-4.14752,0,0,0,0,0,0,0,-1,1532,491,4.13727,4.14752
315,533,4.80762,-5.29349,0,0,0,0,0,0,0,-1,1539,491,4.80762,5.29347
322,533,5.47803,-6.43942,0,0,0,0,0,0,0,-1,1546,491,5.47798,6.43943
329,533,3.88477,-3.86301,0,0,0,0,0,0,0,-1,1553,491,3.88475,3.86299
336,533,6.70923,-13.2003,0,0,0,0,0,0,0,-1,1560,491,6.70926,13.2004
343,533,7.06677,-17.1133,0,0,0,0,0,0,0,-1,1567,491,7.06673,17.1133
350,533,9.40173,-22.6988,0,0,0,0,0,0,0,-1,1574,491,9.40172,22.6988
357,533,9.67346,-23.0627,0,0,0,0,0,0,0,-1,1581,491,9.6735,23.0627
364,533,9.66455,-22.8541,-0.000680307,-0.0131392,-0.00762832,0.00293897,-0.0167584,-0.443002,0.0122698,0.0452708,1588,491,9.66459,22.8541
371,533,9.51208,-22.6199,-0.00032844,-0.00994522,-0.00606041,0.00259939,-0.0128731,-0.450043,0.00956695,0.0363993,1595,491,9.51205,22.6199
378,533,9.50659,-22.1984,-2.33966e-05,-0.00694926,-0.00456012,0.00223963,-0.00921229,-0.460655,0.00700838,0.0266916,1602,491,9.50664,22.1984
385,533,9.60352,-21.775,0.000303142,-0.00428517,-0.00309136,0.00185861,-0.00584064,-0.466179,0.00463911,0.0223852,1609,491,9.6035,21.775
392,533,9.58057,-21.3506,0.00044064,-0.00268376,-0.00215987,0.00154406,-0.00378718,-0.472307,0.00316751,0.0133308,1616,491,9.58059,21.3507
399,533,9.58118,-20.9281,0.000474609,-0.00138258,-0.00145442,0.0012716,-0.00217957,-0.501287,0.00201539,0.0124743,1623,491,9.58123,20.9281
406,533,9.58459,-20.4874,0.000508443,0.000167294,-0.00069856,0.00105695,-0.000381216,-0.665652,0.000860336,0.0158379,1630,491,9.58458,20.4874
413,533,9.58325,-19.9951,0.000567201,0.000820165,-9.29744e-05,0.000850661,0.000536705,-1.25385,0.00049671,0.0136891,1637,491,9.58323,19.9951
420,533,9.56995,-19.5238,0.000710153,0.0013295,0.000357715,0.00149296,0.000546691,1.14217,0.000872193,0.0123048,1644,491,9.5699,19.5238
427,533,9.56726,-19.0511,0.000782901,0.00164076,0.000672717,0.00200966,0.000414004,1.06921,0.00122531,0.0130091,1651,491,9.56723,19.0511
434,533,9.54504,-18.5997,0.000901553,0.0019461,0.000986708,0.00254023,0.00030742,1.02881,0.00160088,0.0131866,1658,491,9.54499,18.5997
441,533,9.56128,-18.119,0.00112921,0.00220726,0.00138347,0.003153,0.00018347,0.97116,0.00204359,0.0159213,1665,491,9.56132,18.119
448,533,9.53076,-17.6402,0.00144414,0.00239219,0.00184399,0.00382211,1.42205e-05,0.911207,0.00254335,0.0162599,1672,491,9.53079,17.6402
455,533,9.48328,-17.1672,0.00181399,0.00261032,0.00231496,0.0045611,-0.000136797,0.870564,0.00308734,0.0154007,1679,491,9.48328,17.1672
462,533,9.44836,-16.6164,0.00203972,0.0026128,0.00277417,0.00511519,-0.000462669,0.836859,0.00357435,0.0159115,1686,491,9.44833,16.6164
469,533,9.44092,-16.139,0.00180007,0.00206572,0.00292074,0.00485666,-0.000990867,0.80812,0.00361363,0.0106231,1693,491,9.44097,16.139
476,533,9.44312,-15.6461,0.00139831,0.00126085,0.00304041,0.00437076,-0.00171161,0.774097,0.0036218,0.0113163,1700,491,9.44306,15.6461
483,533,9.48413,-15.0915,0.000683635,0.000128408,0.00300191,0.00342074,-0.0026087,0.73929,0.00349161,0.0179051,1707,491,9.48417,15.0915
490,533,9.59241,-14.6899,-0.000562543,-0.00172962,0.00273391,0.00164941,-0.00394157,0.680254,0.00331715,0.0421975,1714,491,9.59244,14.6899
497,533,9.5509,-14.2565,-0.00268029,-0.00467257,0.00186144,-0.00156521,-0.00578765,0.539714,0.0034569,0.0470535,1721,491,9.55091,14.2565
504,533,9.64282,-13.4482,0,0,0,0,0,0,0,-1,1728,491,9.64281,13.4481
511,533,9.83179,-13.1851,0,0,0,0,0,0,0,-1,1735,491,9.83177,13.1851
518,533,9.24048,-13.4094,0,0,0,0,0,0,0,-1,1742,491,9.24045,13.4094
525,533,8.94031,-13.1281,0,0,0,0,0,0,0,-1,1749,491,8.94029,13.1281
532,533,8.45972,-12.6109,0,0,0,0,0,0,0,-1,1756,491,8.45969,12.6109
539,533,3.61609,1.62427,0,0,0,0,0,0,0,-1,1763,491,3.61606,-1.62426
546,533,3.59607,1.65799,0,0,0,0,0,0,0,-1,1770,491,3.59605,-1.658
553,533,0,0,0,0,0,0,0,0,0,-1,1777,491,0,0
560,533,0,0,0,0,0,0,0,0,0,-1,1784,491,0,0
567,533,0,0,0,0,0,0,0,0,0,-1,1791,491,0,0
574,533,0,0,0,0,0,0,0,0,0,-1,1798,491,0,0
581,533,0,0,0,0,0,0,0,0,0,-1,1805,491,0,0
588,533,0,0,0,0,0,0,0,0,0,-1,1812,491,0,0
595,533,0,0,0,0,0,0,0,0,0,-1,1819,491,0,0
602,533,0,0,0,0,0,0,0,0,0,-1,1826,491,0,0
609,533,0,0,0,0,0,0,0,0,0,-1,1833,491,0,0
616,533,0,0,0,0,0,0,0,0,0,-1,1840,491,0,0
623,533,0,0,0,0,0,0,0,0,0,-1,1847,491,0,0
630,533,0,0,0,0,0,0,0,0,0,-1,1854,491,0,0
637,533,0,0,0,0,0,0,0,0,0,-1,1861,491,0,0
644,533,0,0,0,0,0,0,0,0,0,-1,1868,491,0,0
651,533,0,0,0,0,0,0,0,0,0,-1,1875,491,0,0
658,533,0,0,0,0,0,0,0,0,0,-1,1882,491,0,0
665,533,0,0,0,0,0,0,0,0,0,-1,1889,491,0,0
672,533,0,0,0,0,0,0,0,0,0,-1,1896,491,0,0
679,533,0,0,0,0,0,0,0,0,0,-1,1903,491,0,0
686,533,0,0,0,0,0,0,0,0,0,-1,1910,491,0,0
693,533,0,0,0,0,0,0,0,0,0,-1,1917,491,0,0
700,533,0,0,0,0,0,0,0,0,0,-1,1924,491,0,0
707,533,0,0,0,0,0,0,0,0,0,-1,1931,491,0,0
714,533,0,0,0,0,0,0,0,0,0,-1,1938,491,0,0
721,533,0,0,0,0,0,0,0,0,0,-1,1945,491,0,0
728,533,0,0,0,0,0,0,0,0,0,-1,1952,491,0,0
735,533,0,0,0,0,0,0,0,0,0,-1,1959,491,0,0
742,533,0,0,0,0,0,0,0,0,0,-1,1966,491,0,0
749,533,0,0,0,0,0,0,0,0,0,-1,1973,491,0,0
756,533,0,0,0,0,0,0,0,0,0,-1,1980,491,0,0
763,533,0,0,0,0,0,0,0,0,0,-1,1987,491,0,0
770,533,0,0,0,0,0,0,0,0,0,-1,1994,491,0,0
777,533,0,0,0,0,0,0,0,0,0,-1,2001,491,0,0
784,533,0,0,0,0,0,0,0,0,0,-1,2008,491,0,0
791,533,0,0,0,0,0,0,0,0,0,-1,2015,491,0,0
798,533,0,0,0,0,0,0,0,0,0,-1,2022,491,0,0
805,533,0,0,0,0,0,0,0,0,0,-1,2029,491,0,0
812,533,0,0,0,0,0,0,0,0,0,-1,2036,491,0,0
-700,526,0,0,0,0,0,0,0,0,0,-1,524,498,0,0
-693,526,0,0,0,0,0,0,0,0,0,-1,531,498,0,0
-686,526,0,0,0,0,0,0,0,0,0,-1,538,498,0,0
-679,526,0,0,0,0,0,0,0,0,0,-1,545,498,0,0
-672,526,0,0,0,0,0,0,0,0,0,-1,552,498,0,0
-665,526,0,0,0,0,0,0,0,0,0,-1,559,498,0,0
-658,526,0,0,0,0,0,0,0,0,0,-1,566,498,0,0
-651,526,0,0,0,0,0,0,0,0,0,-1,573,498,0,0
-644,526,0,0,0,0,0,0,0,0,0,-1,580,498,0,0
-637,526,0,0,0,0,0,0,0,0,0,-1,587,498,0,0
-630,526,0,0,0,0,0,0,0,0,0,-1,594,498,0,0
-623,526,0,0,0,0,0,0,0,0,0,-1,601,498,0,0
-616,526,0,0,0,0,0,0,0,0,0,-1,608,498,0,0
-609,526,0,0,0,0,0,0,0,0,0,-1,615,498,0,0
-602,526,0,0,0,0,0,0,0,0,0,-1,622,498,0,0
-595,526,0,0,0,0,0,0,0,0,0,-1,629,498,0,0
-588,526,0,0,0,0,0,0,0,0,0,-1,636,498,0,0
-581,526,0,0,0,0,0,0,0,0,0,-1,643,498,0,0
-574,526,0,0,0,0,0,0,0,0,0,-1,650,498,0,0
-567,526,0,0,0,0,0,0,0,0,0,-1,657,498,0,0
-560,526,0,0,0,0,0,0,0,0,0,-1,664,498,0,0
-553,526,0,0,0,0,0,0,0,0,0,-1,671,498,0,0
-546,526,0,0,0,0,0,0,0,0,0,-1,678,498,0,0
-539,526,0,0,0,0,0,0,0,0,0,-1,685,498,0,0
-532,526,0,0,0,0,0,0,0,0,0,-1,692,498,0,0
-525,526,0,0,0,0,0,0,0,0,0,-1,699,498,0,0
-518,526,0,0,0,0,0,0,0,0,0,-1,706,498,0,0
-511,526,0,0,0,0,0,0,0,0,0,-1,713,498,0,0
-504,526,0,0,0,0,0,0,0,0,0,-1,720,498,0,0
-497,526,0,0,0,0,0,0,0,0,0,-1,727,498,0,0
-490,526,0,0,0,0,0,0,0,0,0,-1,734,498,0,0
-483,526,0,0,0,0,0,0,0,0,0,-1,741,498,0,0
-476,526,0,0,0,0,0,0,0,0,0,-1,748,498,0,0
-469,526,0,0,0,0,0,0,0,0,0,-1,755,498,0,0
-462,526,0,0,0,0,0,0,0,0,0,-1,762,498,0,0
-455,526,0,0,0,0,0,0,0,0,0,-1,769,498,0,0
-448,526,0,0,0,0,0,0,0,0,0,-1,776,498,0,0
-441,526,0,0,0,0,0,0,0,0,0,-1,783,498,0,0
-434,526,-0.153564,-5.96649,0,0,0,0,0,0,0,-1,790,498,-0.153589,5.9665
-427,526,1.23206,-4.59808,0,0,0,0,0,0,0,-1,797,498,1.23208,4.59809
-420,526,0.923462,-10.1938,0,0,0,0,0,0,0,-1,804,498,0.92349,10.1938
-413,526,-1.71814,-12.3744,0,0,0,0,0,0,0,-1,811,498,-1.71813,12.3744
-406,526,-1.29816,-12.5131,0,0,0,0,0,0,0,-1,818,498,-1.29816,12.5131
-399,526,-0.878174,-12.6518,0,0,0,0,0,0,0,-1,825,498,-0.878176,12.6518
-392,526,-2.27356,-11.5593,0,0,0,0,0,0,0,-1,832,498,-2.27357,11.5593
-385,526,-0.834412,-13.9835,0,0,0,0,0,0,0,-1,839,498,-0.834419,13.9835
-378,526,-0.696106,-14.6038,0.00359721,0.0123719,-0.00862587,0.0176621,-0.00169297,-1.02066,0.0123777,0.0499155,846,498,-0.696116,14.6038
-371,526,-0.570068,-15.2358,0.00394357,0.0107507,-0.00827907,0.0162985,-0.00160426,-0.980418,0.011438,0.0361413,853,498,-0.570046,15.2358
-364,526,-0.636719,-15.8864,0.00397814,0.00874803,-0.00742998,0.0141665,-0.00144028,-0.940698,0.00995917,0.0198306,860,498,-0.636745,15.8864
-357,526,-0.612793,-16.4146,0.0037373,0.00707976,-0.00657772,0.0121952,-0.00137817,-0.909803,0.00862632,0.0135555,867,498,-0.612794,16.4146
-350,526,-0.620361,-16.9124,0.00345883,0.005659,-0.00571906,0.0103828,-0.00126498,-0.880415,0.00737976,0.0127693,874,498,-0.620385,16.9124
-343,526,-0.63678,-17.4223,0.00309963,0.00442962,-0.00489013,0.00869976,-0.00117051,-0.852977,0.00622679,0.0158938,881,498,-0.636775,17.4223
-336,526,-0.653259,-17.8783,0.00287848,0.00334727,-0.00414573,0.00726523,-0.00103947,-0.813637,0.00522456,0.0152872,888,498,-0.653271,17.8783
-329,526,-0.669983,-18.3302,0.00273149,0.00232133,-0.0033736,0.00590624,-0.000853411,-0.755041,0.00425061,0.0154436,895,498,-0.669999,18.3302
-322,526,-0.712097,-18.8076,0.00236417,0.00154711,-0.00257405,0.00456191,-0.000650632,-0.706699,0.00327973,0.010361,902,498,-0.712075,18.8075
-315,526,-0.732544,-19.2908,0.00197604,0.000979516,-0.00177125,0.00331778,-0.000362221,-0.648289,0.00234195,0.0091278,909,498,-0.732559,19.2908
-308,526,-0.744385,-19.7712,0.00158909,0.000564073,-0.000987968,0.00218957,-3.64089e-05,-0.546131,0.001472,0.00892751,916,498,-0.744385,19.7713
-301,526,-0.784546,-20.1924,0.00123148,-9.32798e-05,-0.000105678,0.00123986,-0.000101657,-0.0791047,0.000862457,0.0104056,923,498,-0.784551,20.1924
-294,526,-0.786438,-20.608,0.00109713,-0.00131618,0.000811278,0.0013445,-0.00156355,0.295958,0.00168055,0.00999958,930,498,-0.786437,20.608
-287,526,-0.790344,-21.0533,0.00108376,-0.00229623,0.00160106,0.00172175,-0.00293421,0.379191,0.00271833,0.0101074,937,498,-0.790337,21.0533
-280,526,-0.808044,-21.4914,0.00113693,-0.00348478,0.00241906,0.00217151,-0.00451935,0.404136,0.00394145,0.0132925,944,498,-0.808053,21.4914
-273,526,-0.798035,-21.9361,0.00143698,-0.00498561,0.00328744,0.0028213,-0.00636993,0.398557,0.0054368,0.0107931,951,498,-0.798026,21.9361
-266,526,-0.793701,-22.3605,0.00350307,-0.00656827,0.00350661,0.00460371,-0.00766891,0.304137,0.00715889,0.0108065,958,498,-0.793673,22.3605
-259,526,-0.743591,-22.7405,0.0063603,-0.00825864,0.00319313,0.00702732,-0.00892566,0.205931,0.00923217,0.0220234,965,498,-0.743563,22.7405
-252,526,-0.807495,-22.9442,0.00844651,-0.0110316,0.0035227,0.00906403,-0.0116491,0.173534,0.0119897,0.0380001,972,498,-0.807491,22.9442
-245,526,-0.710571,-22.9476,0.01064,-0.0144955,0.00403669,0.0112724,-0.0151279,0.155393,0.0152963,0.0496767,979,498,-0.710553,22.9476
-238,526,-0.613037,-23.7961,0,0,0,0,0,0,0,-1,986,498,-0.613007,23.7961
-231,526,-0.0792236,-23.5162,0,0,0,0,0,0,0,-1,993,498,-0.0792245,23.5162
-224,526,-0.292603,-23.2656,0,0,0,0,0,0,0,-1,1000,498,-0.292617,23.2656
-217,526,-0.170898,-25.1683,0,0,0,0,0,0,0,-1,1007,498,-0.170928,25.1683
-210,526,0.371399,-25.6344,0,0,0,0,0,0,0,-1,1014,498,0.371389,25.6344
-203,526,-0.659302,-18.8818,0,0,0,0,0,0,0,-1,1021,498,-0.659273,18.8818
-196,526,-0.328247,-12.179,0,0,0,0,0,0,0,-1,1028,498,-0.328238,12.179
-189,526,0.401245,-5.96826,0,0,0,0,0,0,0,-1,1035,498,0.401197,5.96826
-182,526,1.7323,-2.99405,0,0,0,0,0,0,0,-1,1042,498,1.73226,2.99404
-175,526,2.27637,-2.07983,0,0,0,0,0,0,0,-1,1049,498,2.27639,2.07984
-168,526,2.12036,-1.66049,0,0,0,0,0,0,0,-1,1056,498,2.12035,1.66048
-161,526,2.09082,-1.20572,0,0,0,0,0,0,0,-1,1063,498,2.09086,1.2057
-154,526,-1.3446,-5.37799,0,0,0,0,0,0,0,-1,1070,498,-1.34457,5.37799
-147,526,-0.472656,-6.64996,0,0,0,0,0,0,0,-1,1077,498,-0.472659,6.64997
-140,526,0.422852,-8.03339,0,0,0,0,0,0,0,-1,1084,498,0.422844,8.0334
-133,526,1.09583,-9.2215,0,0,0,0,0,0,0,-1,1091,498,1.09581,9.2215
-126,526,3.42529,-2.36053,0,0,0,0,0,0,0,-1,1098,498,3.42523,2.36052
-119,526,2.7771,-0.764099,0,0,0,0,0,0,0,-1,1105,498,2.7771,0.764107
-112,526,2.57715,-1.1893,0,0,0,0,0,0,0,-1,1112,498,2.57718,1.1893
-105,526,0,0,0,0,0,0,0,0,0,-1,1119,498,0,0
-98,526,0,0,0,0,0,0,0,0,0,-1,1126,498,0,0
-91,526,0,0,0,0,0,0,0,0,0,-1,1133,498,0,0
-84,526,0,0,0,0,0,0,0,0,0,-1,1140,498,0,0
-77,526,0,0,0,0,0,0,0,0,0,-1,1147,498,0,0
-70,526,0,0,0,0,0,0,0,0,0,-1,1154,498,0,0
-63,526,0,0,0,0,0,0,0,0,0,-1,1161,498,0,0
-56,526,0,0,0,0,0,0,0,0,0,-1,1168,498,0,0
-49,526,0,0,0,0,0,0,0,0,0,-1,1175,498,0,0
-42,526,0,0,0,0,0,0,0,0,0,-1,1182,498,0,0
-35,526,0,0,0,0,0,0,0,0,0,-1,1189,498,0,0
-28,526,0,0,0,0,0,0,0,0,0,-1,1196,498,0,0
-21,526,0,0,0,0,0,0,0,0,0,-1,1203,498,0,0
-14,526,0,0,0,0,0,0,0,0,0,-1,1210,498,0,0
-7,526,0,0,0,0,0,0,0,0,0,-1,1217,498,0,0
0,526,0,0,0,0,0,0,0,0,0,-1,1224,498,0,0
7,526,0,0,0,0,0,0,0,0,0,-1,1231,498,0,0
14,526,0,0,0,0,0,0,0,0,0,-1,1238,498,0,0
21,526,0,0,0,0,0,0,0,0,0,-1,1245,498,0,0
28,526,0,0,0,0,0,0,0,0,0,-1,1252,498,0,0
35,526,0,0,0,0,0,0,0,0,0,-1,1259,498,0,0
42,526,0,0,0,0,0,0,0,0,0,-1,1266,498,0,0
49,526,0,0,0,0,0,0,0,0,0,-1,1273,498,0,0
56,526,0,0,0,0,0,0,0,0,0,-1,1280,498,0,0
63,526,0,0,0,0,0,0,0,0,0,-1,1287,498,0,0
70,526,0,0,0,0,0,0,0,0,0,-1,1294,498,0,0
77,526,0,0,0,0,0,0,0,0,0,-1,1301,498,0,0
84,526,0,0,0,0,0,0,0,0,0,-1,1308,498,0,0
91,526,0,0,0,0,0,0,0,0,0,-1,1315,498,0,0
98,526,0,0,0,0,0,0,0,0,0,-1,1322,498,0,0
105,526,0,0,0,0,0,0,0,0,0,-1,1329,498,0,0
112,526,0,0,0,0,0,0,0,0,0,-1,1336,498,0,0
119,526,0,0,0,0,0,0,0,0,0,-1,1343,498,0,0
126,526,0,0,0,0,0,0,0,0,0,-1,1350,498,0,0
133,526,0,0,0,0,0,0,0,0,0,-1,1357,498,0,0
140,526,0,0,0,0,0,0,0,0,0,-1,1364,498,0,0
147,526,0,0,0,0,0,0,0,0,0,-1,1371,498,0,0
154,526,0,0,0,0,0,0,0,0,0,-1,1378,498,0,0
161,526,0,0,0,0,0,0,0,0,0,-1,1385,498,0,0
168,526,0,0,0,0,0,0,0,0,0,-1,1392,498,0,0
175,526,0,0,0,0,0,0,0,0,0,-1,1399,498,0,0
182,526,0,0,0,0,0,0,0,0,0,-1,1406,498,0,0
189,526,0,0,0,0,0,0,0,0,0,-1,1413,498,0,0
196,526,0,0,0,0,0,0,0,0,0,-1,1420,498,0,0
203,526,0,0,0,0,0,0,0,0,0,-1,1427,498,0,0
210,526,0,0,0,0,0,0,0,0,0,-1,1434,498,0,0
217,526,0,0,0,0,0,0,0,0,0,-1,1441,498,0,0
224,526,0,0,0,0,0,0,0,0,0,-1,1448,498,0,0
231,526,7.93237,-1.30618,0,0,0,0,0,0,0,-1,1455,498,7.93238,1.30618
238,526,7.97717,-1.08197,0,0,0,0,0,0,0,-1,1462,498,7.97723,1.08196
245,526,7.2793,-0.792938,0,0,0,0,0,0,0,-1,1469,498,7.27931,0.792926
252,526,6.73523,-2.23608,0,0,0,0,0,0,0,-1,1476,498,6.73525,2.23608
259,526,6.22949,-1.84967,0,0,0,0,0,0,0,-1,1483,498,6.22953,1.84968
266,526,5.72375,-1.46329,0,0,0,0,0,0,0,-1,1490,498,5.72381,1.46328
273,526,4.33984,0.49173,0,0,0,0,0,0,0,-1,1497,498,4.33979,-0.491727
280,526,1.4585,-1.59897,0,0,0,0,0,0,0,-1,1504,498,1.45846,1.59895
287,526,1.46411,-2.40134,0,0,0,0,0,0,0,-1,1511,498,1.46406,2.40133
294,526,5.57471,-4.59085,0,0,0,0,0,0,0,-1,1518,498,5.57466,4.59084
301,526,4.42786,-3.99677,0,0,0,0,0,0,0,-1,1525,498,4.42788,3.99676
308,526,5.79529,-4.19366,0,0,0,0,0,0,0,-1,1532,498,5.79528,4.19368
315,526,5.09851,-5.20068,0,0,0,0,0,0,0,-1,1539,498,5.09851,5.20068
322,526,5.50708,-4.72348,0,0,0,0,0,0,0,-1,1546,498,5.50713,4.72347
329,526,3.88672,-4.345,0,0,0,0,0,0,0,-1,1553,498,3.88674,4.34501
336,526,4.97876,-2.23828,0,0,0,0,0,0,0,-1,1560,498,4.97877,2.23828
343,526,3.31665,-2.69696,0,0,0,0,0,0,0,-1,1567,498,3.31667,2.69696
350,526,6.06287,-6.12015,0,0,0,0,0,0,0,-1,1574,498,6.06286,6.12014
357,526,5.79736,-7.7854,0,0,0,0,0,0,0,-1,1581,498,5.79734,7.78539
364,526,10.1788,-22.8217,0,0,0,0,0,0,0,-1,1588,498,10.1788,22.8217
371,526,9.96997,-22.8607,0,0,0,0,0,0,0,-1,1595,498,9.96991,22.8607
378,526,9.9021,-22.4749,0,0,0,0,0,0,0,-1,1602,498,9.90214,22.4749
385,526,10.05,-21.8932,0,0,0,0,0,0,0,-1,1609,498,10.0501,21.8932
392,526,10.1571,-21.3965,0.000389402,-0.00304223,-0.0026978,0.0018708,-0.00452362,-0.502161,0.00379625,0.0433891,1616,498,10.1571,21.3965
399,526,10.0321,-20.9272,0.000469381,-0.00165417,-0.00195606,0.00163326,-0.00281804,-0.536744,0.00260013,0.0237152,1623,498,10.0322,20.9272
406,526,10.0654,-20.4391,0.000588506,-3.63079e-05,-0.0011384,0.00145658,-0.000904386,-0.651481,0.00137548,0.0130411,1630,498,10.0654,20.4391
413,526,10.042,-19.9762,0.000692894,0.000493639,-0.000467102,0.00107087,0.000115658,-0.680328,0.000678657,0.0134149,1637,498,10.042,19.9762
420,526,10.0273,-19.5245,0.000810524,0.000923423,-4.69975e-05,0.000940426,0.000793521,-1.22366,0.000584172,0.0137775,1644,498,10.0273,19.5245
427,526,10.0409,-19.0543,0.000805794,0.00108739,0.000186908,0.0011806,0.000712586,1.1082,0.000686476,0.0139769,1651,498,10.0409,19.0543
434,526,10.0178,-18.564,0.000815591,0.00128635,0.00044231,0.00155201,0.000549929,1.02992,0.000908639,0.0125606,1658,498,10.0179,18.5639
441,526,9.99316,-18.0836,0.000941377,0.00146672,0.000788425,0.00203508,0.000373018,0.946194,0.00125105,0.0117042,1665,498,9.99312,18.0836
448,526,9.98706,-17.6368,0.00117583,0.00157849,0.00119952,0.00259345,0.000160864,0.868544,0.00167792,0.0107379,1672,498,9.9871,17.6368
455,526,9.95532,-17.1559,0.00143591,0.00174675,0.00161275,0.00321155,-2.8893e-05,0.833434,0.00215073,0.0136239,1679,498,9.95533,17.1559
462,526,9.94666,-16.6225,0.00157304,0.00173945,0.00201851,0.00367647,-0.000363981,0.805997,0.00258088,0.0109384,1686,498,9.94663,16.6225
469,526,9.9386,-16.1603,0.00131528,0.00124866,0.00215123,0.00343346,-0.000869515,0.777657,0.00262722,0.00809363,1693,498,9.93854,16.1603
476,526,9.91956,-15.6638,0.000878365,0.000522438,0.00224752,0.00295495,-0.00155415,0.745889,0.00264488,0.00986862,1700,498,9.91957,15.6637
483,526,9.92847,-15.0868,0.000187784,-0.000452878,0.00219566,0.00208635,-0.00235145,0.712963,0.00256369,0.0126208,1707,498,9.92842,15.0868
490,526,9.99329,-14.5237,-0.000947726,-0.00201057,0.00193902,0.000531376,-0.00348967,0.651648,0.0025223,0.0232952,1714,498,9.99331,14.5237
497,526,9.91711,-14.1532,-0.0027694,-0.00436571,0.0012159,-0.00211309,-0.00502202,0.494957,0.00291158,0.0293225,1721,498,9.91711,14.1532
504,526,9.91699,-13.6195,-0.00544239,-0.00733876,-2.65025e-05,-0.00544202,-0.00733913,-0.0139717,0.00439892,0.0344967,1728,498,9.91705,13.6196
511,526,10.0687,-13.1833,-0.00883847,-0.0111846,-0.00169114,-0.00795337,-0.0120697,-0.482171,0.00708485,0.0438866,1735,498,10.0687,13.1833
518,526,9.61328,-13.0523,-0.0134433,-0.0162146,-0.00383776,-0.0107487,-0.0189092,-0.612153,0.0109513,0.0435622,1742,498,9.61334,13.0523
525,526,9.25208,-12.7478,0,0,0,0,0,0,0,-1,1749,498,9.25209,12.7478
532,526,8.87231,-12.3973,0,0,0,0,0,0,0,-1,1756,498,8.8723,12.3973
539,526,3.29407,0.932312,0,0,0,0,0,0,0,-1,1763,498,3.2941,-0.93232
546,526,3.36731,1.07721,0,0,0,0,0,0,0,-1,1770,498,3.36735,-1.07719
553,526,3.40796,1.37137,0,0,0,0,0,0,0,-1,1777,498,3.40792,-1.37138
560,526,0,0,0,0,0,0,0,0,0,-1,1784,498,0,0
567,526,0,0,0,0,0,0,0,0,0,-1,1791,498,0,0
574,526,0,0,0,0,0,0,0,0,0,-1,1798,498,0,0
581,526,0,0,0,0,0,0,0,0,0,-1,1805,498,0,0
588,526,0,0,0,0,0,0,0,0,0,-1,1812,498,0,0
595,526,0,0,0,0,0,0,0,0,0,-1,1819,498,0,0
602,526,0,0,0,0,0,0,0,0,0,-1,1826,498,0,0
609,526,0,0,0,0,0,0,0,0,0,-1,1833,498,0,0
616,526,0,0,0,0,0,0,0,0,0,-1,1840,498,0,0
623,526,0,0,0,0,0,0,0,0,0,-1,1847,498,0,0
630,526,0,0,0,0,0,0,0,0,0,-1,1854,498,0,0
637,526,0,0,0,0,0,0,0,0,0,-1,1861,498,0,0
644,526,0,0,0,0,0,0,0,0,0,-1,1868,498,0,0
651,526,0,0,0,0,0,0,0,0,0,-1,1875,498,0,0
658,526,0,0,0,0,0,0,0,0,0,-1,1882,498,0,0
665,526,0,0,0,0,0,0,0,0,0,-1,1889,498,0,0
672,526,0,0,0,0,0,0,0,0,0,-1,1896,498,0,0
679,526,0,0,0,0,0,0,0,0,0,-1,1903,498,0,0
686,526,0,0,0,0,0,0,0,0,0,-1,1910,498,0,0
693,526,0,0,0,0,0,0,0,0,0,-1,1917,498,0,0
700,526,0,0,0,0,0,0,0,0,0,-1,1924,498,0,0
707,526,0,0,0,0,0,0,0,0,0,-1,1931,498,0,0
714,526,0,0,0,0,0,0,0,0,0,-1,1938,498,0,0
721,526,0,0,0,0,0,0,0,0,0,-1,1945,498,0,0
728,526,0,0,0,0,0,0,0,0,0,-1,1952,498,0,0
735,526,0,0,0,0,0,0,0,0,0,-1,1959,498,0,0
742,526,0,0,0,0,0,0,0,0,0,-1,1966,498,0,0
749,526,0,0,0,0,0,0,0,0,0,-1,1973,498,0,0
756,526,0,0,0,0,0,0,0,0,0,-1,1980,498,0,0
763,526,0,0,0,0,0,0,0,0,0,-1,1987,498,0,0
770,526,0,0,0,0,0,0,0,0,0,-1,1994,498,0,0
777,526,0,0,0,0,0,0,0,0,0,-1,2001,498,0,0
784,526,0,0,0,0,0,0,0,0,0,-1,2008,498,0,0
791,526,0,0,0,0,0,0,0,0,0,-1,2015,498,0,0
798,526,0,0,0,0,0,0,0,0,0,-1,2022,498,0,0
805,526,0,0,0,0,0,0,0,0,0,-1,2029,498,0,0
812,526,0,0,0,0,0,0,0,0,0,-1,2036,498,0,0
-700,519,0,0,0,0,0,0,0,0,0,-1,524,505,0,0
-693,519,0,0,0,0,0,0,0,0,0,-1,531,505,0,0
-686,519,0,0,0,0,0,0,0,0,0,-1,538,505,0,0
-679,519,0,0,0,0,0,0,0,0,0,-1,545,505,0,0
-672,519,0,0,0,0,0,0,0,0,0,-1,552,505,0,0
-665,519,0,0,0,0,0,0,0,0,0,-1,559,505,0,0
-658,519,0,0,0,0,0,0,0,0,0,-1,566,505,0,0
-651,519,0,0,0,0,0,0,0,0,0,-1,573,505,0,0
-644,519,0,0,0,0,0,0,0,0,0,-1,580,505,0,0
-637,519,0,0,0,0,0,0,0,0,0,-1,587,505,0,0
-630,519,0,0,0,0,0,0,0,0,0,-1,594,505,0,0
-623,519,0,0,0,0,0,0,0,0,0,-1,601,505,0,0
-616,519,0,0,0,0,0,0,0,0,0,-1,608,505,0,0
-609,519,0,0,0,0,0,0,0,0,0,-1,615,505,0,0
-602,519,0,0,0,0,0,0,0,0,0,-1,622,505,0,0
-595,519,0,0,0,0,0,0,0,0,0,-1,629,505,0,0
-588,519,0,0,0,0,0,0,0,0,0,-1,636,505,0,0
-581,519,0,0,0,0,0,0,0,0,0,-1,643,505,0,0
-574,519,0,0,0,0,0,0,0,0,0,-1,650,505,0,0
-567,519,0,0,0,0,0,0,0,0,0,-1,657,505,0,0
-560,519,0,0,0,0,0,0,0,0,0,-1,664,505,0,0
-553,519,0,0,0,0,0,0,0,0,0,-1,671,505,0,0
-546,519,0,0,0,0,0,0,0,0,0,-1,678,505,0,0
-539,519,0,0,0,0,0,0,0,0,0,-1,685,505,0,0
-532,519,0,0,0,0,0,0,0,0,0,-1,692,505,0,0
-525,519,0,0,0,0,0,0,0,0,0,-1,699,505,0,0
-518,519,0,0,0,0,0,0,0,0,0,-1,706,505,0,0
-511,519,0,0,0,0,0,0,0,0,0,-1,713,505,0,0
-504,519,0,0,0,0,0,0,0,0,0,-1,720,505,0,0
-497,519,0,0,0,0,0,0,0,0,0,-1,727,505,0,0
-490,519,0,0,0,0,0,0,0,0,0,-1,734,505,0,0
-483,519,0,0,0,0,0,0,0,0,0,-1,741,505,0,0
-476,519,0,0,0,0,0,0,0,0,0,-1,748,505,0,0
-469,519,0,0,0,0,0,0,0,0,0,-1,755,505,0,0
-462,519,0,0,0,0,0,0,0,0,0,-1,762,505,0,0
-455,519,0,0,0,0,0,0,0,0,0,-1,769,505,0,0
-448,519,0,0,0,0,0,0,0,0,0,-1,776,505,0,0
-441,519,1.34839,-5.29346,0,0,0,0,0,0,0,-1,783,505,1.3484,5.29347
-434,519,0.949585,-5.77313,0,0,0,0,0,0,0,-1,790,505,0.949598,5.77315
-427,519,-0.0523682,-9.31567,0,0,0,0,0,0,0,-1,797,505,-0.0523854,9.31568
-420,519,-1.04669,-9.8855,0,0,0,0,0,0,0,-1,804,505,-1.04669,9.88547
-413,519,-2.14728,-12.5604,0,0,0,0,0,0,0,-1,811,505,-2.14725,12.5604
-406,519,-0.983887,-11.4449,0,0,0,0,0,0,0,-1,818,505,-0.983898,11.4449
-399,519,-0.731934,-12.9423,0,0,0,0,0,0,0,-1,825,505,-0.731951,12.9422
-392,519,-0.894897,-13.6256,0,0,0,0,0,0,0,-1,832,505,-0.894898,13.6256
-385,519,-1.04004,-14.0833,0.00363013,0.0123795,-0.0085118,0.017575,-0.00156539,-1.02277,0.0122718,0.046212,839,505,-1.04007,14.0832
-378,519,-1.1322,-14.6862,0.00279038,0.0103488,-0.00724069,0.0147372,-0.00159803,-1.02592,0.0103985,0.030432,846,505,-1.13223,14.6862
-371,519,-1.06714,-15.28,0.0023733,0.00864731,-0.00630207,0.01255,-0.00152936,-1.01633,0.00892024,0.0173658,853,505,-1.06715,15.2801
-364,519,-1.07489,-15.8872,0.00199013,0.00704571,-0.00533469,0.0104212,-0.00138535,-1.00665,0.00745229,0.0110813,860,505,-1.07489,15.8872
-357,519,-1.06201,-16.4246,0.00164635,0.005683,-0.00446463,0.00856433,-0.00123498,-0.997685,0.0061626,0.0106253,867,505,-1.06202,16.4246
-350,519,-1.08093,-16.915,0.0013782,0.00449215,-0.00366513,0.0069173,-0.00104695,-0.986252,0.00499721,0.0130926,874,505,-1.08094,16.9151
-343,519,-1.12445,-17.39,0.00108772,0.00340721,-0.00289924,0.00537005,-0.00087513,-0.975659,0.00390457,0.0153146,881,505,-1.12442,17.39
-336,519,-1.16119,-17.8555,0.00100267,0.00244527,-0.00225984,0.00409613,-0.000648191,-0.939879,0.00297048,0.0154064,888,505,-1.16118,17.8555
-329,519,-1.15515,-18.3245,0.00108908,0.00153771,-0.00166894,0.00299734,-0.000370553,-0.8522,0.0021325,0.0137732,895,505,-1.15515,18.3245
-322,519,-1.16107,-18.7997,0.00106309,0.000837257,-0.001088,0.00204402,-0.000143666,-0.733691,0.001413,0.011103,902,505,-1.16107,18.7997
-315,519,-1.1745,-19.2751,0.00108518,0.000315252,-0.000526354,0.00135232,4.81069e-05,-0.46966,0.000885949,0.00909447,909,505,-1.17453,19.2751
-308,519,-1.20795,-19.7523,0.00116481,-0.000148646,2.26477e-05,0.0011652,-0.000149036,0.017236,0.000830946,0.00780421,916,505,-1.20798,19.7523
-301,519,-1.23309,-20.1633,0.00128084,-0.00084809,0.000701546,0.00149123,-0.00105848,0.291359,0.00147913,0.0121449,923,505,-1.23312,20.1633
-294,519,-1.22528,-20.5657,0.00154449,-0.00220405,0.00145453,0.00204268,-0.00270223,0.329983,0.00274829,0.0154112,930,505,-1.22528,20.5657
-287,519,-1.242,-21.0361,0.00185512,-0.00332902,0.0021189,0.00261097,-0.00408487,0.342647,0.00389694,0.0108685,937,505,-1.24202,21.0362
-280,519,-1.26056,-21.4825,0.00216219,-0.00478011,0.00293578,0.00323721,-0.00585513,0.351016,0.00532151,0.0161791,944,505,-1.26054,21.4825
-273,519,-1.23602,-21.9401,0.00264912,-0.006614,0.00386954,0.00405285,-0.00801772,0.347999,0.00709316,0.0295873,951,505,-1.23605,21.94
-266,519,-1.29413,-22.3929,0.00492208,-0.00855576,0.004276,0.00616421,-0.00979789,0.282709,0.00929498,0.0443058,958,505,-1.29412,22.393
-259,519,-1.17487,-22.8329,0,0,0,0,0,0,0,-1,965,505,-1.17486,22.8329
-252,519,-1.35693,-22.7043,0,0,0,0,0,0,0,-1,972,505,-1.35693,22.7043
-245,519,-0.865173,-22.1499,0,0,0,0,0,0,0,-1,979,505,-0.865152,22.1499
-238,519,0.523621,-16.4753,0,0,0,0,0,0,0,-1,986,505,0.523651,16.4753
-231,519,0.337585,-11.2798,0,0,0,0,0,0,0,-1,993,505,0.337568,11.2798
-224,519,-0.0494995,-7.97394,0,0,0,0,0,0,0,-1,1000,505,-0.0495123,7.97392
-217,519,-0.283691,-23.8409,0,0,0,0,0,0,0,-1,1007,505,-0.283683,23.8409
-210,519,-2.14398,-4.74774,0,0,0,0,0,0,0,-1,1014,505,-2.14397,4.74775
-203,519,-0.513611,-5.39017,0,0,0,0,0,0,0,-1,1021,505,-0.513585,5.39017
-196,519,-0.374023,-5.41635,0,0,0,0,0,0,0,-1,1028,505,-0.374047,5.41635
-189,519,-0.234497,-5.44254,0,0,0,0,0,0,0,-1,1035,505,-0.234508,5.44253
-182,519,2.76697,-1.19659,0,0,0,0,0,0,0,-1,1042,505,2.76696,1.19661
-175,519,2.31323,-0.960938,0,0,0,0,0,0,0,-1,1049,505,2.31319,0.960941
-168,519,2.01074,-0.721405,0,0,0,0,0,0,0,-1,1056,505,2.01072,0.721407
-161,519,2.32056,-0.522339,0,0,0,0,0,0,0,-1,1063,505,2.32057,0.522328
-154,519,2.55566,0.116669,0,0,0,0,0,0,0,-1,1070,505,2.55563,-0.116661
-147,519,-0.55127,-6.14001,0,0,0,0,0,0,0,-1,1077,505,-0.551252,6.14001
-140,519,0.240601,-7.53503,0,0,0,0,0,0,0,-1,1084,505,0.240653,7.53501
-133,519,2.70911,-4.4516,0,0,0,0,0,0,0,-1,1091,505,2.70915,4.45161
-126,519,0,0,0,0,0,0,0,0,0,-1,1098,505,0,0
-119,519,0,0,0,0,0,0,0,0,0,-1,1105,505,0,0
-112,519,0,0,0,0,0,0,0,0,0,-1,1112,505,0,0
-105,519,0,0,0,0,0,0,0,0,0,-1,1119,505,0,0
-98,519,0,0,0,0,0,0,0,0,0,-1,1126,505,0,0
-91,519,0,0,0,0,0,0,0,0,0,-1,1133,505,0,0
-84,519,0,0,0,0,0,0,0,0,0,-1,1140,505,0,0
-77,519,0,0,0,0,0,0,0,0,0,-1,1147,505,0,0
-70,519,0,0,0,0,0,0,0,0,0,-1,1154,505,0,0
-63,519,0,0,0,0,0,0,0,0,0,-1,1161,505,0,0
-56,519,0,0,0,0,0,0,0,0,0,-1,1168,505,0,0
-49,519,0,0,0,0,0,0,0,0,0,-1,1175,505,0,0
-42,519,0,0,0,0,0,0,0,0,0,-1,1182,505,0,0
-35,519,0,0,0,0,0,0,0,0,0,-1,1189,505,0,0
-28,519,0,0,0,0,0,0,0,0,0,-1,1196,505,0,0
-21,519,0,0,0,0,0,0,0,0,0,-1,1203,505,0,0
-14,519,0,0,0,0,0,0,0,0,0,-1,1210,505,0,0
-7,519,0,0,0,0,0,0,0,0,0,-1,1217,505,0,0
0,519,0,0,0,0,0,0,0,0,0,-1,1224,505,0,0
7,519,0,0,0,0,0,0,0,0,0,-1,1231,505,0,0
14,519,0,0,0,0,0,0,0,0,0,-1,1238,505,0,0
21,519,0,0,0,0,0,0,0,0,0,-1,1245,505,0,0
28,519,0,0,0,0,0,0,0,0,0,-1,1252,505,0,0
35,519,0,0,0,0,0,0,0,0,0,-1,1259,505,0,0
42,519,0,0,0,0,0,0,0,0,0,-1,1266,505,0,0
49,519,0,0,0,0,0,0,0,0,0,-1,1273,505,0,0
56,519,0,0,0,0,0,0,0,0,0,-1,1280,505,0,0
63,519,0,0,0,0,0,0,0,0,0,-1,1287,505,0,0
70,519,0,0,0,0,0,0,0,0,0,-1,1294,505,0,0
77,519,0,0,0,0,0,0,0,0,0,-1,1301,505,0,0
84,519,0,0,0,0,0,0,0,0,0,-1,1308,505,0,0
91,519,0,0,0,0,0,0,0,0,0,-1,1315,505,0,0
98,519,0,0,0,0,0,0,0,0,0,-1,1322,505,0,0
105,519,0,0,0,0,0,0,0,0,0,-1,1329,505,0,0
112,519,0,0,0,0,0,0,0,0,0,-1,1336,505,0,0
119,519,0,0,0,0,0,0,0,0,0,-1,1343,505,0,0
126,519,0,0,0,0,0,0,0,0,0,-1,1350,505,0,0
133,519,0,0,0,0,0,0,0,0,0,-1,1357,505,0,0
140,519,0,0,0,0,0,0,0,0,0,-1,1364,505,0,0
147,519,0,0,0,0,0,0,0,0,0,-1,1371,505,0,0
154,519,0,0,0,0,0,0,0,0,0,-1,1378,505,0,0
161,519,0,0,0,0,0,0,0,0,0,-1,1385,505,0,0
168,519,0,0,0,0,0,0,0,0,0,-1,1392,505,0,0
175,519,0,0,0,0,0,0,0,0,0,-1,1399,505,0,0
182,519,0,0,0,0,0,0,0,0,0,-1,1406,505,0,0
189,519,0,0,0,0,0,0,0,0,0,-1,1413,505,0,0
196,519,0,0,0,0,0,0,0,0,0,-1,1420,505,0,0
203,519,0,0,0,0,0,0,0,0,0,-1,1427,505,0,0
210,519,0,0,0,0,0,0,0,0,0,-1,1434,505,0,0
217,519,0,0,0,0,0,0,0,0,0,-1,1441,505,0,0
224,519,0,0,0,0,0,0,0,0,0,-1,1448,505,0,0
231,519,0,0,0,0,0,0,0,0,0,-1,1455,505,0,0
238,519,0,0,0,0,0,0,0,0,0,-1,1462,505,0,0
245,519,0,0,0,0,0,0,0,0,0,-1,1469,505,0,0
252,519,5.26208,0.0938416,0,0,0,0,0,0,0,-1,1476,505,5.26207,-0.0938493
259,519,6.14246,-1.36441,0,0,0,0,0,0,0,-1,1483,505,6.14241,1.36441
266,519,5.31909,-0.400787,0,0,0,0,0,0,0,-1,1490,505,5.31912,0.400773
273,519,4.02393,0.325531,0,0,0,0,0,0,0,-1,1497,505,4.0239,-0.325522
280,519,4.68848,0.53006,0,0,0,0,0,0,0,-1,1504,505,4.68842,-0.530073
287,519,7.9519,-3.80801,0,0,0,0,0,0,0,-1,1511,505,7.95193,3.808
294,519,6.92273,-3.38889,0,0,0,0,0,0,0,-1,1518,505,6.92268,3.38888
301,519,5.35669,-2.92661,0,0,0,0,0,0,0,-1,1525,505,5.35675,2.9266
308,519,7.37549,-5.64529,0,0,0,0,0,0,0,-1,1532,505,7.3755,5.64529
315,519,6.30029,-4.53754,0,0,0,0,0,0,0,-1,1539,505,6.30024,4.53753
322,519,5.84302,-5.45117,0,0,0,0,0,0,0,-1,1546,505,5.84303,5.45116
329,519,4.92407,0.62384,0,0,0,0,0,0,0,-1,1553,505,4.92403,-0.623832
336,519,3.10095,-0.329285,0,0,0,0,0,0,0,-1,1560,505,3.1009,0.329283
343,519,2.49146,-2.31119,0,0,0,0,0,0,0,-1,1567,505,2.49145,2.31119
350,519,3.47729,-2.22516,0,0,0,0,0,0,0,-1,1574,505,3.47726,2.22515
357,519,4.51917,-4.51691,0,0,0,0,0,0,0,-1,1581,505,4.51914,4.51691
364,519,3.54626,-7.20673,0,0,0,0,0,0,0,-1,1588,505,3.54622,7.20675
371,519,5.349,-8.20068,0,0,0,0,0,0,0,-1,1595,505,5.34898,8.20068
378,519,6.36597,-10.0967,0,0,0,0,0,0,0,-1,1602,505,6.36597,10.0967
385,519,6.24756,-9.72186,0,0,0,0,0,0,0,-1,1609,505,6.24752,9.72183
392,519,10.476,-21.6811,0,0,0,0,0,0,0,-1,1616,505,10.4759,21.6811
399,519,10.4153,-20.963,0,0,0,0,0,0,0,-1,1623,505,10.4153,20.963
406,519,10.5068,-20.4673,0.000538637,-0.000145153,-0.00168223,0.00191336,-0.00151988,-0.685144,0.00198652,0.0357624,1630,505,10.5068,20.4674
413,519,10.5397,-19.9992,0.000765106,0.000252039,-0.000913497,0.00145741,-0.000440261,-0.648511,0.00114688,0.0155949,1637,505,10.5396,19.9992
420,519,10.5115,-19.51,0.000919082,0.000599156,-0.000490626,0.00127516,0.000243075,-0.627812,0.000781783,0.0156802,1644,505,10.5115,19.51
427,519,10.5266,-19.0671,0.000915808,0.000611416,-0.000292653,0.00109348,0.000433749,-0.545616,0.000635796,0.0138997,1651,505,10.5267,19.0671
434,519,10.4906,-18.5746,0.00086935,0.000715253,-6.68775e-05,0.000894326,0.000690276,-0.357423,0.000541179,0.0122472,1658,505,10.4906,18.5746
441,519,10.4502,-18.0774,0.000934428,0.000841729,0.000250973,0.0011433,0.000632862,0.694088,0.000661342,0.0116821,1665,505,10.4502,18.0774
448,519,10.4572,-17.6221,0.00112904,0.000917067,0.000629629,0.00166154,0.000384566,0.702014,0.00100435,0.00949606,1672,505,10.4571,17.6221
455,519,10.4371,-17.1563,0.00130719,0.00106669,0.000995929,0.00219011,0.00018378,0.725319,0.00140283,0.0107889,1679,505,10.4371,17.1563
462,519,10.436,-16.6497,0.00138531,0.00109628,0.0013604,0.00260885,-0.000127256,0.732482,0.00178316,0.00958839,1686,505,10.436,16.6497
469,519,10.4442,-16.1428,0.00114501,0.000728796,0.0015132,0.00246435,-0.000590545,0.717064,0.00187107,0.00995036,1693,505,10.4442,16.1428
476,519,10.4282,-15.6272,0.000694432,0.000135474,0.00161095,0.00204997,-0.00122006,0.69951,0.00190811,0.0127915,1700,505,10.4283,15.6272
483,519,10.397,-15.1006,2.43189e-05,-0.000653301,0.00155873,0.00128063,-0.00190962,0.678381,0.00185379,0.0144171,1707,505,10.397,15.1006
490,519,10.3942,-14.5695,-0.00102558,-0.00190499,0.00131678,-7.70262e-05,-0.00285354,0.624257,0.00187721,0.0125086,1714,505,10.3941,14.5695
497,519,10.3856,-14.1023,-0.00259766,-0.00370849,0.000746588,-0.00222255,-0.00408361,0.465593,0.00236075,0.0157663,1721,505,10.3856,14.1023
504,519,10.3625,-13.55,-0.00481567,-0.0059925,-0.000218404,-0.00477645,-0.00603173,-0.177706,0.0036749,0.0158742,1728,505,10.3626,13.55
511,519,10.3568,-12.9968,-0.00760353,-0.00884979,-0.00151678,-0.00658686,-0.00986645,-0.590497,0.0058021,0.0213028,1735,505,10.3568,12.9968
518,519,10.1927,-12.6609,-0.0112303,-0.0123698,-0.00317166,-0.00857761,-0.0150225,-0.69653,0.0087023,0.0397421,1742,505,10.1927,12.6609
525,519,10.0985,-12.377,0,0,0,0,0,0,0,-1,1749,505,10.0986,12.377
532,519,3.5155,-2.86511,0,0,0,0,0,0,0,-1,1756,505,3.51554,2.8651
539,519,3.30005,0.0229797,0,0,0,0,0,0,0,-1,1763,505,3.30008,-0.0229869
546,519,4.62024,-2.89774,0,0,0,0,0,0,0,-1,1770,505,4.62023,2.89775
553,519,4.14136,0.0667419,0,0,0,0,0,0,0,-1,1777,505,4.14141,-0.0667503
560,519,3.77856,0.279724,0,0,0,0,0,0,0,-1,1784,505,3.77861,-0.279731
567,519,0,0,0,0,0,0,0,0,0,-1,1791,505,0,0
574,519,0,0,0,0,0,0,0,0,0,-1,1798,505,0,0
581,519,0,0,0,0,0,0,0,0,0,-1,1805,505,0,0
588,519,0,0,0,0,0,0,0,0,0,-1,1812,505,0,0
595,519,0,0,0,0,0,0,0,0,0,-1,1819,505,0,0
602,519,0,0,0,0,0,0,0,0,0,-1,1826,505,0,0
609,519,0,0,0,0,0,0,0,0,0,-1,1833,505,0,0
616,519,0,0,0,0,0,0,0,0,0,-1,1840,505,0,0
623,519,0,0,0,0,0,0,0,0,0,-1,1847,505,0,0
630,519,0,0,0,0,0,0,0,0,0,-1,1854,505,0,0
637,519,0,0,0,0,0,0,0,0,0,-1,1861,505,0,0
644,519,0,0,0,0,0,0,0,0,0,-1,1868,505,0,0
651,519,0,0,0,0,0,0,0,0,0,-1,1875,505,0,0
658,519,0,0,0,0,0,0,0,0,0,-1,1882,505,0,0
665,519,0,0,0,0,0,0,0,0,0,-1,1889,505,0,0
672,519,0,0,0,0,0,0,0,0,0,-1,1896,505,0,0
679,519,0,0,0,0,0,0,0,0,0,-1,1903,505,0,0
686,519,0,0,0,0,0,0,0,0,0,-1,1910,505,0,0
693,519,0,0,0,0,0,0,0,0,0,-1,1917,505,0,0
700,519,0,0,0,0,0,0,0,0,0,-1,1924,505,0,0
707,519,0,0,0,0,0,0,0,0,0,-1,1931,505,0,0
714,519,0,0,0,0,0,0,0,0,0,-1,1938,505,0,0
721,519,0,0,0,0,0,0,0,0,0,-1,1945,505,0,0
728,519,0,0,0,0,0,0,0,0,0,-1,1952,505,0,0
735,519,0,0,0,0,0,0,0,0,0,-1,1959,505,0,0
742,519,0,0,0,0,0,0,0,0,0,-1,1966,505,0,0
749,519,0,0,0,0,0,0,0,0,0,-1,1973,505,0,0
756,519,0,0,0,0,0,0,0,0,0,-1,1980,505,0,0
763,519,0,0,0,0,0,0,0,0,0,-1,1987,505,0,0
770,519,0,0,0,0,0,0,0,0,0,-1,1994,505,0,0
777,519,0,0,0,0,0,0,0,0,0,-1,2001,505,0,0
784,519,0,0,0,0,0,0,0,0,0,-1,2008,505,0,0
791,519,0,0,0,0,0,0,0,0,0,-1,2015,505,0,0
798,519,0,0,0,0,0,0,0,0,0,-1,2022,505,0,0
805,519,0,0,0,0,0,0,0,0,0,-1,2029,505,0,0
812,519,0,0,0,0,0,0,0,0,0,-1,2036,505,0,0
-700,512,0,0,0,0,0,0,0,0,0,-1,524,512,0,0
-693,512,0,0,0,0,0,0,0,0,0,-1,531,512,0,0
-686,512,0,0,0,0,0,0,0,0,0,-1,538,512,0,0
-679,512,0,0,0,0,0,0,0,0,0,-1,545,512,0,0
-672,512,0,0,0,0,0,0,0,0,0,-1,552,512,0,0
-665,512,0,0,0,0,0,0,0,0,0,-1,559,512,0,0
-658,512,0,0,0,0,0,0,0,0,0,-1,566,512,0,0
-651,512,0,0,0,0,0,0,0,0,0,-1,573,512,0,0
-644,512,0,0,0,0,0,0,0,0,0,-1,580,512,0,0
-637,512,0,0,0,0,0,0,0,0,0,-1,587,512,0,0
-630,512,0,0,0,0,0,0,0,0,0,-1,594,512,0,0
-623,512,0,0,0,0,0,0,0,0,0,-1,601,512,0,0
-616,512,0,0,0,0,0,0,0,0,0,-1,608,512,0,0
-609,512,0,0,0,0,0,0,0,0,0,-1,615,512,0,0
-602,512,0,0,0,0,0,0,0,0,0,-1,622,512,0,0
-595,512,0,0,0,0,0,0,0,0,0,-1,629,512,0,0
-588,512,0,0,0,0,0,0,0,0,0,-1,636,512,0,0
-581,512,0,0,0,0,0,0,0,0,0,-1,643,512,0,0
-574,512,0,0,0,0,0,0,0,0,0,-1,650,512,0,0
-567,512,0,0,0,0,0,0,0,0,0,-1,657,512,0,0
-560,512,0,0,0,0,0,0,0,0,0,-1,664,512,0,0
-553,512,0,0,0,0,0,0,0,0,0,-1,671,512,0,0
-546,512,0,0,0,0,0,0,0,0,0,-1,678,512,0,0
-539,512,0,0,0,0,0,0,0,0,0,-1,685,512,0,0
-532,512,0,0,0,0,0,0,0,0,0,-1,692,512,0,0
-525,512,0,0,0,0,0,0,0,0,0,-1,699,512,0,0
-518,512,0,0,0,0,0,0,0,0,0,-1,706,512,0,0
-511,512,0,0,0,0,0,0,0,0,0,-1,713,512,0,0
-504,512,0,0,0,0,0,0,0,0,0,-1,720,512,0,0
-497,512,0,0,0,0,0,0,0,0,0,-1,727,512,0,0
-490,512,0,0,0,0,0,0,0,0,0,-1,734,512,0,0
-483,512,0,0,0,0,0,0,0,0,0,-1,741,512,0,0
-476,512,0,0,0,0,0,0,0,0,0,-1,748,512,0,0
-469,512,0,0,0,0,0,0,0,0,0,-1,755,512,0,0
-462,512,0,0,0,0,0,0,0,0,0,-1,762,512,0,0
-455,512,0,0,0,0,0,0,0,0,0,-1,769,512,0,0
-448,512,1.96283,-4.15674,0,0,0,0,0,0,0,-1,776,512,1.96285,4.15677
-441,512,1.78198,-4.88824,0,0,0,0,0,0,0,-1,783,512,1.78201,4.88826
-434,512,0.0726929,-9.85822,0,0,0,0,0,0,0,-1,790,512,0.0727008,9.85819
-427,512,-0.384583,-9.94824,0,0,0,0,0,0,0,-1,797,512,-0.384552,9.94823
-420,512,-2.54126,-12.1921,0,0,0,0,0,0,0,-1,804,512,-2.54126,12.1921
-413,512,-2.42139,-11.0782,0,0,0,0,0,0,0,-1,811,512,-2.42136,11.0782
-406,512,-1.51416,-12.5161,0,0,0,0,0,0,0,-1,818,512,-1.51413,12.5161
-399,512,-1.44556,-13.0495,0.00407445,0.0143181,-0.00930104,0.0198143,-0.00142175,-1.03708,0.0137081,0.0490206,825,512,-1.44558,13.0495
-392,512,-1.3291,-13.7293,0.00334576,0.0122178,-0.00821512,0.0171181,-0.00155452,-1.03296,0.0119639,0.0386833,832,512,-1.32913,13.7293
-385,512,-1.44269,-14.3359,0.00265537,0.0101815,-0.00700074,0.0143665,-0.00152957,-1.03201,0.0101261,0.020193,839,512,-1.44271,14.336
-378,512,-1.5318,-14.8311,0.00217869,0.00843892,-0.00597582,0.0120548,-0.00143716,-1.02665,0.0085559,0.0152623,846,512,-1.53182,14.831
-371,512,-1.52814,-15.3829,0.00181453,0.00682876,-0.00503357,0.00994503,-0.00130174,-1.01645,0.0071038,0.0120395,853,512,-1.52811,15.3829
-364,512,-1.53674,-15.9413,0.00145951,0.00540689,-0.00409984,0.00798338,-0.00111698,-1.00973,0.00573098,0.00952517,860,512,-1.53672,15.9414
-357,512,-1.5459,-16.425,0.00118607,0.00422449,-0.0032622,0.00630389,-0.000893325,-1.00332,0.00452982,0.0109484,867,512,-1.54592,16.425
-350,512,-1.56958,-16.9064,0.00101952,0.00319888,-0.00253201,0.00486573,-0.000647329,-0.9886,0.00347973,0.0115736,874,512,-1.56957,16.9064
-343,512,-1.61188,-17.3785,0.000824925,0.00222962,-0.00183259,0.00348984,-0.000435301,-0.968391,0.00248441,0.0121896,881,512,-1.61187,17.3785
-336,512,-1.63812,-17.8628,0.000827284,0.00137238,-0.00126031,0.00238927,-0.00018961,-0.891886,0.00165967,0.0135096,888,512,-1.63814,17.8628
-329,512,-1.62396,-18.326,0.00102426,0.000589691,-0.000787212,0.00162363,-9.6719e-06,-0.650741,0.00108566,0.0152085,895,512,-1.62394,18.326
-322,512,-1.6369,-18.7927,0.00117101,-1.91696e-05,-0.00035029,0.00126645,-0.000114612,-0.26601,0.000884983,0.0125494,902,512,-1.63689,18.7927
-315,512,-1.64728,-19.2606,0.00138513,-0.000463625,5.65375e-05,0.00138685,-0.000465353,0.0305434,0.00111261,0.010763,909,512,-1.6473,19.2606
-308,512,-1.66687,-19.7109,0.00169617,-0.000944159,0.00045904,0.0017737,-0.00102169,0.167318,0.00163327,0.0107087,916,512,-1.66689,19.7109
-301,512,-1.68646,-20.1481,0.00204847,-0.00163244,0.00101529,0.00230994,-0.00189391,0.252055,0.00243105,0.0149334,923,512,-1.68647,20.1482
-294,512,-1.68005,-20.5657,0.00248754,-0.00306133,0.00167633,0.00295465,-0.00352843,0.271754,0.00374789,0.0154831,930,512,-1.68003,20.5657
-287,512,-1.763,-20.9628,0.00296401,-0.00430369,0.0022621,0.00361057,-0.00495025,0.278402,0.00496273,0.0231496,937,512,-1.763,20.9628
-280,512,-1.64484,-21.4474,0.00340505,-0.00604231,0.00314435,0.00435588,-0.00699314,0.293652,0.00661107,0.0392013,944,512,-1.64485,21.4474
-273,512,-1.3559,-21.9619,0,0,0,0,0,0,0,-1,951,512,-1.35592,21.9619
-266,512,-1.74829,-22.4976,0,0,0,0,0,0,0,-1,958,512,-1.74826,22.4976
-259,512,-0.525452,-14.0815,0,0,0,0,0,0,0,-1,965,512,-0.525475,14.0815
-252,512,1.45941,-3.43475,0,0,0,0,0,0,0,-1,972,512,1.45938,3.43475
-245,512,4.12927,-11.272,0,0,0,0,0,0,0,-1,979,512,4.1293,11.272
-238,512,0.227051,-8.92969,0,0,0,0,0,0,0,-1,986,512,0.227073,8.92968
-231,512,-2.54437,-10.169,0,0,0,0,0,0,0,-1,993,512,-2.54439,10.169
-224,512,-4.84601,-7.52783,0,0,0,0,0,0,0,-1,1000,512,-4.84602,7.52786
-217,512,-7.37274,-3.89563,0,0,0,0,0,0,0,-1,1007,512,-7.37274,3.89561
-210,512,-3.76642,-1.94702,0,0,0,0,0,0,0,-1,1014,512,-3.76641,1.94702
-203,512,-2.48328,-5.19061,0,0,0,0,0,0,0,-1,1021,512,-2.48328,5.19059
-196,512,-1.14929,-4.63202,0,0,0,0,0,0,0,-1,1028,512,-1.14934,4.632
-189,512,0.197998,4.55505,0,0,0,0,0,0,0,-1,1035,512,0.197996,-4.55506
-182,512,2.73938,0.0778503,0,0,0,0,0,0,0,-1,1042,512,2.73944,-0.077852
-175,512,2.29565,0.209808,0,0,0,0,0,0,0,-1,1049,512,2.29565,-0.209813
-168,512,2.09399,-0.302856,0,0,0,0,0,0,0,-1,1056,512,2.09403,0.302826
-161,512,2.76636,0.0921021,0,0,0,0,0,0,0,-1,1063,512,2.76633,-0.0921104
-154,512,3.41382,0.466187,0,0,0,0,0,0,0,-1,1070,512,3.41382,-0.466178
-147,512,0,0,0,0,0,0,0,0,0,-1,1077,512,0,0
-140,512,0,0,0,0,0,0,0,0,0,-1,1084,512,0,0
-133,512,0,0,0,0,0,0,0,0,0,-1,1091,512,0,0
-126,512,0,0,0,0,0,0,0,0,0,-1,1098,512,0,0
-119,512,0,0,0,0,0,0,0,0,0,-1,1105,512,0,0
-112,512,0,0,0,0,0,0,0,0,0,-1,1112,512,0,0
-105,512,0,0,0,0,0,0,0,0,0,-1,1119,512,0,0
-98,512,0,0,0,0,0,0,0,0,0,-1,1126,512,0,0
-91,512,0,0,0,0,0,0,0,0,0,-1,1133,512,0,0
-84,512,0,0,0,0,0,0,0,0,0,-1,1140,512,0,0
-77,512,0,0,0,0,0,0,0,0,0,-1,1147,512,0,0
-70,512,0,0,0,0,0,0,0,0,0,-1,1154,512,0,0
-63,512,0,0,0,0,0,0,0,0,0,-1,1161,512,0,0
-56,512,0,0,0,0,0,0,0,0,0,-1,1168,512,0,0
-49,512,0,0,0,0,0,0,0,0,0,-1,1175,512,0,0
-42,512,0,0,0,0,0,0,0,0,0,-1,1182,512,0,0
-35,512,0,0,0,0,0,0,0,0,0,-1,1189,512,0,0
-28,512,0,0,0,0,0,0,0,0,0,-1,1196,512,0,0
-21,512,0,0,0,0,0,0,0,0,0,-1,1203,512,0,0
-14,512,0,0,0,0,0,0,0,0,0,-1,1210,512,0,0
-7,512,0,0,0,0,0,0,0,0,0,-1,1217,512,0,0
0,512,0,0,0,0,0,0,0,0,0,-1,1224,512,0,0
7,512,0,0,0,0,0,0,0,0,0,-1,1231,512,0,0
14,512,0,0,0,0,0,0,0,0,0,-1,1238,512,0,0
21,512,0,0,0,0,0,0,0,0,0,-1,1245,512,0,0
28,512,0,0,0,0,0,0,0,0,0,-1,1252,512,0,0
35,512,0,0,0,0,0,0,0,0,0,-1,1259,512,0,0
42,512,0,0,0,0,0,0,0,0,0,-1,1266,512,0,0
49,512,0,0,0,0,0,0,0,0,0,-1,1273,512,0,0
56,512,0,0,0,0,0,0,0,0,0,-1,1280,512,0,0
63,512,0,0,0,0,0,0,0,0,0,-1,1287,512,0,0
70,512,0,0,0,0,0,0,0,0,0,-1,1294,512,0,0
77,512,0,0,0,0,0,0,0,0,0,-1,1301,512,0,0
84,512,0,0,0,0,0,0,0,0,0,-1,1308,512,0,0
91,512,0,0,0,0,0,0,0,0,0,-1,1315,512,0,0
98,512,0,0,0,0,0,0,0,0,0,-1,1322,512,0,0
105,512,0,0,0,0,0,0,0,0,0,-1,1329,512,0,0
112,512,0,0,0,0,0,0,0,0,0,-1,1336,512,0,0
119,512,0,0,0,0,0,0,0,0,0,-1,1343,512,0,0
126,512,0,0,0,0,0,0,0,0,0,-1,1350,512,0,0
133,512,0,0,0,0,0,0,0,0,0,-1,1357,512,0,0
140,512,0,0,0,0,0,0,0,0,0,-1,1364,512,0,0
147,512,0,0,0,0,0,0,0,0,0,-1,1371,512,0,0
154,512,0,0,0,0,0,0,0,0,0,-1,1378,512,0,0
161,512,0,0,0,0,0,0,0,0,0,-1,1385,512,0,0
168,512,0,0,0,0,0,0,0,0,0,-1,1392,512,0,0
175,512,0,0,0,0,0,0,0,0,0,-1,1399,512,0,0
182,512,0,0,0,0,0,0,0,0,0,-1,1406,512,0,0
189,512,0,0,0,0,0,0,0,0,0,-1,1413,512,0,0
196,512,0,0,0,0,0,0,0,0,0,-1,1420,512,0,0
203,512,0,0,0,0,0,0,0,0,0,-1,1427,512,0,0
210,512,0,0,0,0,0,0,0,0,0,-1,1434,512,0,0
217,512,0,0,0,0,0,0,0,0,0,-1,1441,512,0,0
224,512,0,0,0,0,0,0,0,0,0,-1,1448,512,0,0
231,512,0,0,0,0,0,0,0,0,0,-1,1455,512,0,0
238,512,0,0,0,0,0,0,0,0,0,-1,1462,512,0,0
245,512,0,0,0,0,0,0,0,0,0,-1,1469,512,0,0
252,512,0,0,0,0,0,0,0,0,0,-1,1476,512,0,0
259,512,0,0,0,0,0,0,0,0,0,-1,1483,512,0,0
266,512,0,0,0,0,0,0,0,0,0,-1,1490,512,0,0
273,512,4.00745,0.618622,0,0,0,0,0,0,0,-1,1497,512,4.00747,-0.618611
280,512,4.49609,0.649841,0,0,0,0,0,0,0,-1,1504,512,4.49612,-0.649834
287,512,4.77234,0.458069,0,0,0,0,0,0,0,-1,1511,512,4.77233,-0.458083
294,512,8.54956,-2.36273,0,0,0,0,0,0,0,-1,1518,512,8.54952,2.36274
301,512,6.302,-1.69092,0,0,0,0,0,0,0,-1,1525,512,6.30196,1.69093
308,512,8.2439,-6.22754,0,0,0,0,0,0,0,-1,1532,512,8.24394,6.22757
315,512,7.53687,-6.04211,0,0,0,0,0,0,0,-1,1539,512,7.53691,6.04211
322,512,6.82983,-5.85663,0,0,0,0,0,0,0,-1,1546,512,6.82988,5.85666
329,512,4.38147,-0.329651,0,0,0,0,0,0,0,-1,1553,512,4.38144,0.329662
336,512,4.41467,-0.741455,0,0,0,0,0,0,0,-1,1560,512,4.41467,0.741442
343,512,4.44727,-1.21667,0,0,0,0,0,0,0,-1,1567,512,4.44732,1.21666
350,512,4.55469,-1.65082,0,0,0,0,0,0,0,-1,1574,512,4.5547,1.65083
357,512,5.79993,-2.67456,0,0,0,0,0,0,0,-1,1581,512,5.79991,2.67454
364,512,5.18298,-6.80133,0,0,0,0,0,0,0,-1,1588,512,5.18296,6.80132
371,512,5.28467,-7.69269,0,0,0,0,0,0,0,-1,1595,512,5.28464,7.69269
378,512,6.29407,-9.88055,0,0,0,0,0,0,0,-1,1602,512,6.29412,9.88057
385,512,6.45569,-9.32233,0,0,0,0,0,0,0,-1,1609,512,6.45565,9.3223
392,512,6.35522,-8.98425,0,0,0,0,0,0,0,-1,1616,512,6.35526,8.98422
399,512,7.5304,-12.1449,0,0,0,0,0,0,0,-1,1623,512,7.53042,12.1449
406,512,10.9886,-20.5927,0,0,0,0,0,0,0,-1,1630,512,10.9886,20.5927
413,512,11.0239,-20.0588,0,0,0,0,0,0,0,-1,1637,512,11.0239,20.0588
420,512,11.0044,-19.5423,0.00171525,0.000357834,-0.000959248,0.00221162,-0.000138534,-0.477513,0.00152269,0.0261728,1644,512,11.0044,19.5423
427,512,11.0187,-19.0543,0.00155109,0.000222128,-0.000818607,0.00194096,-0.00016774,-0.444474,0.00135336,0.0147688,1651,512,11.0187,19.0543
434,512,10.9907,-18.5808,0.001288,0.000230589,-0.000637151,0.00158724,-6.86485e-05,-0.439074,0.00108177,0.0107998,1658,512,10.9908,18.5808
441,512,10.9581,-18.0829,0.00114316,0.00031061,-0.000348756,0.00126995,0.000183824,-0.348684,0.000792496,0.0121379,1665,512,10.9581,18.0829
448,512,10.951,-17.6177,0.00116553,0.000358312,8.71322e-06,0.00116562,0.000358218,0.0107925,0.000689427,0.00934176,1672,512,10.951,17.6177
455,512,10.9442,-17.1268,0.00115032,0.000481902,0.000350457,0.00130038,0.000331842,0.404563,0.000780193,0.00906172,1679,512,10.9442,17.1268
462,512,10.9313,-16.6097,0.00109888,0.000538707,0.000705165,0.00157754,6.00399e-05,0.596357,0.00103226,0.00925295,1686,512,10.9312,16.6097
469,512,10.9229,-16.1019,0.000850474,0.000304808,0.000924355,0.00154142,-0.000386138,0.641893,0.00117762,0.0102137,1693,512,10.9229,16.1019
476,512,10.9059,-15.6069,0.000398243,-0.000147717,0.00106695,0.00122658,-0.000976052,0.660159,0.00127443,0.0131349,1700,512,10.9059,15.6069
483,512,10.8861,-15.082,-0.000217161,-0.0007595,0.00105947,0.000605287,-0.00158195,0.660113,0.00130409,0.0125573,1707,512,10.8861,15.082
490,512,10.8818,-14.5558,-0.0011337,-0.00172266,0.000878562,-0.000501578,-0.00235478,0.62369,0.00143224,0.0100256,1714,512,10.8818,14.5558
497,512,10.8682,-14.0409,-0.00242398,-0.00304218,0.000470329,-0.00217027,-0.00329589,0.494685,0.00193448,0.0118567,1721,512,10.8682,14.0409
504,512,10.8376,-13.5063,-0.00417995,-0.00476537,-0.000232988,-0.00409854,-0.00484678,-0.336136,0.0030129,0.0135269,1728,512,10.8376,13.5063
511,512,10.8181,-12.9651,-0.00642692,-0.00685675,-0.00122197,-0.0054011,-0.00788256,-0.69835,0.0046539,0.0145281,1735,512,10.8181,12.9651
518,512,10.8281,-12.4539,-0.00923282,-0.00924563,-0.00251456,-0.00672466,-0.0117538,-0.784125,0.00680955,0.0184384,1742,512,10.8281,12.4539
525,512,10.6183,-12.1938,-0.0127468,-0.0120131,-0.00430821,-0.00805612,-0.0167037,-0.827873,0.00964591,0.0449612,1749,512,10.6183,12.1938
532,512,10.6023,-11.7314,0,0,0,0,0,0,0,-1,1756,512,10.6023,11.7314
539,512,7.05908,-7.00647,0,0,0,0,0,0,0,-1,1763,512,7.05909,7.00647
546,512,2.77551,-0.66449,0,0,0,0,0,0,0,-1,1770,512,2.77548,0.664503
553,512,3.927,-0.448853,0,0,0,0,0,0,0,-1,1777,512,3.92704,0.448843
560,512,3.55762,-0.201233,0,0,0,0,0,0,0,-1,1784,512,3.55768,0.201259
567,512,3.09045,0.191193,0,0,0,0,0,0,0,-1,1791,512,3.09045,-0.191203
574,512,0,0,0,0,0,0,0,0,0,-1,1798,512,0,0
581,512,0,0,0,0,0,0,0,0,0,-1,1805,512,0,0
588,512,0,0,0,0,0,0,0,0,0,-1,1812,512,0,0
595,512,0,0,0,0,0,0,0,0,0,-1,1819,512,0,0
602,512,0,0,0,0,0,0,0,0,0,-1,1826,512,0,0
609,512,0,0,0,0,0,0,0,0,0,-1,1833,512,0,0
616,512,0,0,0,0,0,0,0,0,0,-1,1840,512,0,0
623,512,0,0,0,0,0,0,0,0,0,-1,1847,512,0,0
630,512,0,0,0,0,0,0,0,0,0,-1,1854,512,0,0
637,512,0,0,0,0,0,0,0,0,0,-1,1861,512,0,0
644,512,0,0,0,0,0,0,0,0,0,-1,1868,512,0,0
651,512,0,0,0,0,0,0,0,0,0,-1,1875,512,0,0
658,512,0,0,0,0,0,0,0,0,0,-1,1882,512,0,0
665,512,0,0,0,0,0,0,0,0,0,-1,1889,512,0,0
672,512,0,0,0,0,0,0,0,0,0,-1,1896,512,0,0
679,512,0,0,0,0,0,0,0,0,0,-1,1903,512,0,0
686,512,0,0,0,0,0,0,0,0,0,-1,1910,512,0,0
693,512,0,0,0,0,0,0,0,0,0,-1,1917,512,0,0
700,512,0,0,0,0,0,0,0,0,0,-1,1924,512,0,0
707,512,0,0,0,0,0,0,0,0,0,-1,1931,512,0,0
714,512,0,0,0,0,0,0,0,0,0,-1,1938,512,0,0
721,512,0,0,0,0,0,0,0,0,0,-1,1945,512,0,0
728,512,0,0,0,0,0,0,0,0,0,-1,1952,512,0,0
735,512,0,0,0,0,0,0,0,0,0,-1,1959,512,0,0
742,512,0,0,0,0,0,0,0,0,0,-1,1966,512,0,0
749,512,0,0,0,0,0,0,0,0,0,-1,1973,512,0,0
756,512,0,0,0,0,0,0,0,0,0,-1,1980,512,0,0
763,512,0,0,0,0,0,0,0,0,0,-1,1987,512,0,0
770,512,0,0,0,0,0,0,0,0,0,-1,1994,512,0,0
777,512,0,0,0,0,0,0,0,0,0,-1,2001,512,0,0
784,512,0,0,0,0,0,0,0,0,0,-1,2008,512,0,0
791,512,0,0,0,0,0,0,0,0,0,-1,2015,512,0,0
798,512,0,0,0,0,0,0,0,0,0,-1,2022,512,0,0
805,512,0,0,0,0,0,0,0,0,0,-1,2029,512,0,0
812,512,0,0,0,0,0,0,0,0,0,-1,2036,512,0,0
-700,505,0,0,0,0,0,0,0,0,0,-1,524,519,0,0
-693,505,0,0,0,0,0,0,0,0,0,-1,531,519,0,0
-686,505,0,0,0,0,0,0,0,0,0,-1,538,519,0,0
-679,505,0,0,0,0,0,0,0,0,0,-1,545,519,0,0
-672,505,0,0,0,0,0,0,0,0,0,-1,552,519,0,0
-665,505,0,0,0,0,0,0,0,0,0,-1,559,519,0,0
-658,505,0,0,0,0,0,0,0,0,0,-1,566,519,0,0
-651,505,0,0,0,0,0,0,0,0,0,-1,573,519,0,0
-644,505,0,0,0,0,0,0,0,0,0,-1,580,519,0,0
-637,505,0,0,0,0,0,0,0,0,0,-1,587,519,0,0
-630,505,0,0,0,0,0,0,0,0,0,-1,594,519,0,0
-623,505,0,0,0,0,0,0,0,0,0,-1,601,519,0,0
-616,505,0,0,0,0,0,0,0,0,0,-1,608,519,0,0
-609,505,0,0,0,0,0,0,0,0,0,-1,615,519,0,0
-602,505,0,0,0,0,0,0,0,0,0,-1,622,519,0,0
-595,505,0,0,0,0,0,0,0,0,0,-1,629,519,0,0
-588,505,0,0,0,0,0,0,0,0,0,-1,636,519,0,0
-581,505,0,0,0,0,0,0,0,0,0,-1,643,519,0,0
-574,505,0,0,0,0,0,0,0,0,0,-1,650,519,0,0
-567,505,0,0,0,0,0,0,0,0,0,-1,657,519,0,0
-560,505,0,0,0,0,0,0,0,0,0,-1,664,519,0,0
-553,505,0,0,0,0,0,0,0,0,0,-1,671,519,0,0
-546,505,0,0,0,0,0,0,0,0,0,-1,678,519,0,0
-539,505,0,0,0,0,0,0,0,0,0,-1,685,519,0,0
-532,505,0,0,0,0,0,0,0,0,0,-1,692,519,0,0
-525,505,0,0,0,0,0,0,0,0,0,-1,699,519,0,0
-518,505,0,0,0,0,0,0,0,0,0,-1,706,519,0,0
-511,505,0,0,0,0,0,0,0,0,0,-1,713,519,0,0
-504,505,0,0,0,0,0,0,0,0,0,-1,720,519,0,0
-497,505,0,0,0,0,0,0,0,0,0,-1,727,519,0,0
-490,505,0,0,0,0,0,0,0,0,0,-1,734,519,0,0
-483,505,0,0,0,0,0,0,0,0,0,-1,741,519,0,0
-476,505,0,0,0,0,0,0,0,0,0,-1,748,519,0,0
-469,505,0,0,0,0,0,0,0,0,0,-1,755,519,0,0
-462,505,0,0,0,0,0,0,0,0,0,-1,762,519,0,0
-455,505,2.72137,-3.26379,0,0,0,0,0,0,0,-1,769,519,2.72135,3.26377
-448,505,2.51111,-3.94989,0,0,0,0,0,0,0,-1,776,519,2.51112,3.94986
-441,505,2.80212,-6.8902,0,0,0,0,0,0,0,-1,783,519,2.80209,6.89019
-434,505,-0.155212,-10.6374,0,0,0,0,0,0,0,-1,790,519,-0.155194,10.6374
-427,505,-0.474426,-10.4702,0,0,0,0,0,0,0,-1,797,519,-0.474433,10.4702
-420,505,-0.922546,-10.1928,0,0,0,0,0,0,0,-1,804,519,-0.92257,10.1928
-413,505,-2.85608,-12.5858,0,0,0,0,0,0,0,-1,811,519,-2.8561,12.5858
-406,505,-2.13086,-12.2787,0,0,0,0,0,0,0,-1,818,519,-2.13085,12.2787
-399,505,-2.03729,-12.9876,0.0026394,0.0118887,-0.00754545,0.016114,-0.00158588,-1.06033,0.0113084,0.0494881,825,519,-2.0373,12.9876
-392,505,-1.93378,-13.7722,0.00228759,0.0100158,-0.0066598,0.0138514,-0.00154792,-1.04827,0.00979108,0.0227458,832,519,-1.9338,13.7722
-385,505,-1.94781,-14.3719,0.00195874,0.00821923,-0.00567323,0.0115685,-0.00139052,-1.03749,0.00821516,0.0104051,839,519,-1.94783,14.3719
-378,505,-1.98895,-14.9019,0.00175625,0.00670366,-0.00483225,0.00965857,-0.00119866,-1.02197,0.00687353,0.0114817,846,519,-1.98894,14.9019
-371,505,-1.99921,-15.443,0.00153606,0.00523565,-0.00400433,0.0077968,-0.00102509,-1.00177,0.00557108,0.0144911,853,519,-1.99918,15.443
-364,505,-2.02429,-15.9532,0.00129797,0.00390283,-0.00315684,0.00601537,-0.000814561,-0.981047,0.00430751,0.0155257,860,519,-2.02431,15.9532
-357,505,-2.02142,-16.4266,0.00115424,0.00282973,-0.00239812,0.00453222,-0.00054825,-0.953439,0.00321982,0.0123204,867,519,-2.02142,16.4265
-350,505,-2.05621,-16.8932,0.00111988,0.00192496,-0.00176175,0.00332958,-0.000284737,-0.897713,0.00232046,0.0115663,874,519,-2.0562,16.8932
-343,505,-2.07922,-17.3658,0.00104872,0.00105443,-0.00114666,0.00219824,-9.50852e-05,-0.786643,0.00149819,0.0096896,881,519,-2.07921,17.3659
-336,505,-2.09412,-17.8392,0.00114464,0.000297062,-0.000639815,0.00148829,-4.65872e-05,-0.49289,0.00100808,0.0122357,888,519,-2.09409,17.8393
-329,505,-2.08502,-18.3047,0.00143009,-0.000337904,-0.000263734,0.0014686,-0.000376407,-0.144967,0.00112571,0.0175037,895,519,-2.08501,18.3047
-322,505,-2.09332,-18.7902,0.00171383,-0.000810083,6.03929e-05,0.00171528,-0.000811527,0.02391,0.00148963,0.0195831,902,519,-2.09332,18.7903
-315,505,-2.12305,-19.257,0.00205827,-0.0011114,0.000353682,0.00209726,-0.00115039,0.109784,0.00190141,0.0142926,909,519,-2.12304,19.257
-308,505,-2.13104,-19.6734,0.00252098,-0.00152542,0.000659664,0.00262581,-0.00163024,0.157591,0.00247954,0.0115984,916,519,-2.13107,19.6734
-301,505,-2.11993,-20.1339,0.00303012,-0.00209019,0.0011474,0.00327549,-0.00233555,0.210668,0.00325465,0.0167096,923,519,-2.11992,20.1338
-294,505,-2.13275,-20.5667,0,0,0,0,0,0,0,-1,930,519,-2.13278,20.5666
-287,505,-2.21893,-21.0508,0,0,0,0,0,0,0,-1,937,519,-2.21892,21.0508
-280,505,-2.03717,-21.6315,0,0,0,0,0,0,0,-1,944,519,-2.03718,21.6315
-273,505,-0.0680542,-9.44867,0,0,0,0,0,0,0,-1,951,519,-0.0680462,9.44866
-266,505,-0.036377,-9.07922,0,0,0,0,0,0,0,-1,958,519,-0.0364055,9.0792
-259,505,0.10321,-6.69824,0,0,0,0,0,0,0,-1,965,519,0.103235,6.69826
-252,505,6.82312,-15.6972,0,0,0,0,0,0,0,-1,972,519,6.82314,15.6972
-245,505,4.26727,-12.9861,0,0,0,0,0,0,0,-1,979,519,4.2673,12.9861
-238,505,1.67432,-11.2307,0,0,0,0,0,0,0,-1,986,519,1.67429,11.2307
-231,505,-0.958435,-8.3075,0,0,0,0,0,0,0,-1,993,519,-0.958421,8.30751
-224,505,-3.69653,-5.12732,0,0,0,0,0,0,0,-1,1000,519,-3.69653,5.12733
-217,505,-6.34302,-1.65533,0,0,0,0,0,0,0,-1,1007,519,-6.34299,1.65535
-210,505,-3.06128,-0.396301,0,0,0,0,0,0,0,-1,1014,519,-3.06129,0.396294
-203,505,-4.26465,2.03607,0,0,0,0,0,0,0,-1,1021,519,-4.26462,-2.03606
-196,505,-5.47595,4.27295,0,0,0,0,0,0,0,-1,1028,519,-5.47597,-4.27292
-189,505,1.51526,5.56207,0,0,0,0,0,0,0,-1,1035,519,1.51523,-5.56209
-182,505,2.97815,7.5097,0,0,0,0,0,0,0,-1,1042,519,2.97812,-7.5097
-175,505,-2.38416,-2.17548,0,0,0,0,0,0,0,-1,1049,519,-2.38411,2.1755
-168,505,0,0,0,0,0,0,0,0,0,-1,1056,519,0,0
-161,505,0,0,0,0,0,0,0,0,0,-1,1063,519,0,0
-154,505,0,0,0,0,0,0,0,0,0,-1,1070,519,0,0
-147,505,0,0,0,0,0,0,0,0,0,-1,1077,519,0,0
-140,505,0,0,0,0,0,0,0,0,0,-1,1084,519,0,0
-133,505,0,0,0,0,0,0,0,0,0,-1,1091,519,0,0
-126,505,0,0,0,0,0,0,0,0,0,-1,1098,519,0,0
-119,505,0,0,0,0,0,0,0,0,0,-1,1105,519,0,0
-112,505,0,0,0,0,0,0,0,0,0,-1,1112,519,0,0
-105,505,0,0,0,0,0,0,0,0,0,-1,1119,519,0,0
-98,505,0,0,0,0,0,0,0,0,0,-1,1126,519,0,0
-91,505,0,0,0,0,0,0,0,0,0,-1,1133,519,0,0
-84,505,0,0,0,0,0,0,0,0,0,-1,1140,519,0,0
-77,505,0,0,0,0,0,0,0,0,0,-1,1147,519,0,0
-70,505,0,0,0,0,0,0,0,0,0,-1,1154,519,0,0
-63,505,0,0,0,0,0,0,0,0,0,-1,1161,519,0,0
-56,505,0,0,0,0,0,0,0,0,0,-1,1168,519,0,0
-49,505,0,0,0,0,0,0,0,0,0,-1,1175,519,0,0
-42,505,0,0,0,0,0,0,0,0,0,-1,1182,519,0,0
-35,505,0,0,0,0,0,0,0,0,0,-1,1189,519,0,0
-28,505,0,0,0,0,0,0,0,0,0,-1,1196,519,0,0
-21,505,0,0,0,0,0,0,0,0,0,-1,1203,519,0,0
-14,505,0,0,0,0,0,0,0,0,0,-1,1210,519,0,0
-7,505,0,0,0,0,0,0,0,0,0,-1,1217,519,0,0
0,505,0,0,0,0,0,0,0,0,0,-1,1224,519,0,0
7,505,0,0,0,0,0,0,0,0,0,-1,1231,519,0,0
14,505,0,0,0,0,0,0,0,0,0,-1,1238,519,0,0
21,505,0,0,0,0,0,0,0,0,0,-1,1245,519,0,0
28,505,0,0,0,0,0,0,0,0,0,-1,1252,519,0,0
35,505,0,0,0,0,0,0,0,0,0,-1,1259,519,0,0
42,505,0,0,0,0,0,0,0,0,0,-1,1266,519,0,0
49,505,0,0,0,0,0,0,0,0,0,-1,1273,519,0,0
56,505,0,0,0,0,0,0,0,0,0,-1,1280,519,0,0
63,505,0,0,0,0,0,0,0,0,0,-1,1287,519,0,0
70,505,0,0,0,0,0,0,0,0,0,-1,1294,519,0,0
77,505,0,0,0,0,0,0,0,0,0,-1,1301,519,0,0
84,505,0,0,0,0,0,0,0,0,0,-1,1308,519,0,0
91,505,0,0,0,0,0,0,0,0,0,-1,1315,519,0,0
98,505,0,0,0,0,0,0,0,0,0,-1,1322,519,0,0
105,505,0,0,0,0,0,0,0,0,0,-1,1329,519,0,0
112,505,0,0,0,0,0,0,0,0,0,-1,1336,519,0,0
119,505,0,0,0,0,0,0,0,0,0,-1,1343,519,0,0
126,505,0,0,0,0,0,0,0,0,0,-1,1350,519,0,0
133,505,0,0,0,0,0,0,0,0,0,-1,1357,519,0,0
140,505,0,0,0,0,0,0,0,0,0,-1,1364,519,0,0
147,505,0,0,0,0,0,0,0,0,0,-1,1371,519,0,0
154,505,0,0,0,0,0,0,0,0,0,-1,1378,519,0,0
161,505,0,0,0,0,0,0,0,0,0,-1,1385,519,0,0
168,505,0,0,0,0,0,0,0,0,0,-1,1392,519,0,0
175,505,0,0,0,0,0,0,0,0,0,-1,1399,519,0,0
182,505,0,0,0,0,0,0,0,0,0,-1,1406,519,0,0
189,505,0,0,0,0,0,0,0,0,0,-1,1413,519,0,0
196,505,0,0,0,0,0,0,0,0,0,-1,1420,519,0,0
203,505,0,0,0,0,0,0,0,0,0,-1,1427,519,0,0
210,505,0,0,0,0,0,0,0,0,0,-1,1434,519,0,0
217,505,0,0,0,0,0,0,0,0,0,-1,1441,519,0,0
224,505,0,0,0,0,0,0,0,0,0,-1,1448,519,0,0
231,505,0,0,0,0,0,0,0,0,0,-1,1455,519,0,0
238,505,0,0,0,0,0,0,0,0,0,-1,1462,519,0,0
245,505,0,0,0,0,0,0,0,0,0,-1,1469,519,0,0
252,505,0,0,0,0,0,0,0,0,0,-1,1476,519,0,0
259,505,0,0,0,0,0,0,0,0,0,-1,1483,519,0,0
266,505,0,0,0,0,0,0,0,0,0,-1,1490,519,0,0
273,505,0,0,0,0,0,0,0,0,0,-1,1497,519,0,0
280,505,0,0,0,0,0,0,0,0,0,-1,1504,519,0,0
287,505,4.39478,0.499512,0,0,0,0,0,0,0,-1,1511,519,4.39476,-0.499506
294,505,4.88867,0.0822754,0,0,0,0,0,0,0,-1,1518,519,4.88871,-0.0822748
301,505,4.82153,-0.0704346,0,0,0,0,0,0,0,-1,1525,519,4.82156,0.0704312
308,505,4.67761,-0.29187,0,0,0,0,0,0,0,-1,1532,519,4.67762,0.291845
315,505,8.44055,-6.54352,0,0,0,0,0,0,0,-1,1539,519,8.44059,6.54349
322,505,4.78955,-0.594116,0,0,0,0,0,0,0,-1,1546,519,4.78957,0.594096
329,505,5.16321,0.434631,0,0,0,0,0,0,0,-1,1553,519,5.16316,-0.434614
336,505,4.94495,-0.920471,0,0,0,0,0,0,0,-1,1560,519,4.945,0.920495
343,505,5.01855,-1.4823,0,0,0,0,0,0,0,-1,1567,519,5.01851,1.48227
350,505,5.33154,-1.77838,0,0,0,0,0,0,0,-1,1574,519,5.33152,1.77838
357,505,5.56567,-1.9425,0,0,0,0,0,0,0,-1,1581,519,5.56562,1.94248
364,505,5.85205,-2.6579,0,0,0,0,0,0,0,-1,1588,519,5.85211,2.65788
371,505,5.88477,-7.00922,0,0,0,0,0,0,0,-1,1595,519,5.88473,7.00924
378,505,5.44104,-7.10162,0,0,0,0,0,0,0,-1,1602,519,5.44099,7.10162
385,505,6.64661,-8.65015,0,0,0,0,0,0,0,-1,1609,519,6.64662,8.65014
392,505,6.34558,-8.3429,0,0,0,0,0,0,0,-1,1616,519,6.34554,8.34288
399,505,7.45898,-9.70386,0,0,0,0,0,0,0,-1,1623,519,7.45899,9.70388
406,505,7.08679,-9.4928,0,0,0,0,0,0,0,-1,1630,519,7.08678,9.49278
413,505,8.4032,-14.0308,0,0,0,0,0,0,0,-1,1637,519,8.4032,14.0308
420,505,11.4196,-19.6997,0,0,0,0,0,0,0,-1,1644,519,11.4196,19.6997
427,505,11.4755,-19.1572,0.00184736,-0.000186406,-0.00115765,0.00237132,-0.000710367,-0.425021,0.00186336,0.0293795,1651,519,11.4755,19.1572
434,505,11.4552,-18.5892,0.00149083,-0.000241362,-0.00106569,0.00199798,-0.000748513,-0.444176,0.00163948,0.0114611,1658,519,11.4552,18.5892
441,505,11.453,-18.0605,0.00129738,-0.000167573,-0.000849558,0.00168663,-0.000556823,-0.429635,0.0013489,0.00991502,1665,519,11.453,18.0605
448,505,11.443,-17.5802,0.00131819,-7.96735e-05,-0.000545849,0.00150609,-0.000267566,-0.331516,0.00110411,0.0105636,1672,519,11.443,17.5802
455,505,11.4227,-17.0831,0.00128226,7.5502e-05,-0.000256881,0.00133466,2.30959e-05,-0.201248,0.000882178,0.0115529,1679,519,11.4227,17.0832
462,505,11.3977,-16.5696,0.00125977,0.000204935,6.28008e-05,0.0012635,0.000201209,0.0592569,0.000783917,0.011167,1686,519,11.3977,16.5696
469,505,11.3982,-16.084,0.00113222,0.000152269,0.000339963,0.00123861,4.58798e-05,0.303288,0.00081088,0.0102574,1693,519,11.3982,16.084
476,505,11.3958,-15.5999,0.00077498,-0.000128404,0.000523511,0.00101473,-0.000368152,0.429455,0.000826985,0.0111212,1700,519,11.3958,15.5999
483,505,11.3876,-15.0941,0.00025984,-0.000563838,0.000563912,0.000546291,-0.000850288,0.470003,0.000812658,0.0129405,1707,519,11.3876,15.0941
490,505,11.3781,-14.5629,-0.000528023,-0.00126076,0.00045347,-0.000311416,-0.00147737,0.445621,0.000899264,0.0114792,1714,519,11.378,14.5629
497,505,11.3481,-14.0379,-0.00160923,-0.00216677,0.000208542,-0.00153986,-0.00223615,0.321136,0.00132131,0.0115543,1721,519,11.3482,14.0379
504,505,11.3312,-13.5161,-0.00305507,-0.00345687,-0.000273342,-0.00291674,-0.0035952,-0.468491,0.0022057,0.0130758,1728,519,11.3312,13.5161
511,505,11.3148,-12.9886,-0.00490669,-0.00496901,-0.000989978,-0.00394738,-0.00592832,-0.769665,0.00348492,0.0143705,1735,519,11.3149,12.9886
518,505,11.3506,-12.4498,-0.0071966,-0.00662909,-0.00196043,-0.00493199,-0.0088937,-0.857269,0.00514496,0.0202594,1742,519,11.3505,12.4498
525,505,11.1572,-11.8968,-0.00991888,-0.00859807,-0.00325158,-0.00594051,-0.0125764,-0.885587,0.00726471,0.0329228,1749,519,11.1572,11.8968
532,505,11.068,-11.1052,0,0,0,0,0,0,0,-1,1756,519,11.068,11.1052
539,505,7.90369,-7.11932,0,0,0,0,0,0,0,-1,1763,519,7.90373,7.11932
546,505,7.94946,-6.64539,0,0,0,0,0,0,0,-1,1770,519,7.94947,6.64539
553,505,2.82837,0.162659,0,0,0,0,0,0,0,-1,1777,519,2.82841,-0.162672
560,505,3.66223,-0.479797,0,0,0,0,0,0,0,-1,1784,519,3.66219,0.47982
567,505,4.65271,-0.950256,0,0,0,0,0,0,0,-1,1791,519,4.65274,0.95028
574,505,5.54443,-1.19977,0,0,0,0,0,0,0,-1,1798,519,5.54443,1.19974
581,505,0,0,0,0,0,0,0,0,0,-1,1805,519,0,0
588,505,0,0,0,0,0,0,0,0,0,-1,1812,519,0,0
595,505,0,0,0,0,0,0,0,0,0,-1,1819,519,0,0
602,505,0,0,0,0,0,0,0,0,0,-1,1826,519,0,0
609,505,0,0,0,0,0,0,0,0,0,-1,1833,519,0,0
616,505,0,0,0,0,0,0,0,0,0,-1,1840,519,0,0
623,505,0,0,0,0,0,0,0,0,0,-1,1847,519,0,0
630,505,0,0,0,0,0,0,0,0,0,-1,1854,519,0,0
637,505,0,0,0,0,0,0,0,0,0,-1,1861,519,0,0
644,505,0,0,0,0,0,0,0,0,0,-1,1868,519,0,0
651,505,0,0,0,0,0,0,0,0,0,-1,1875,519,0,0
658,505,0,0,0,0,0,0,0,0,0,-1,1882,519,0,0
665,505,0,0,0,0,0,0,0,0,0,-1,1889,519,0,0
672,505,0,0,0,0,0,0,0,0,0,-1,1896,519,0,0
679,505,0,0,0,0,0,0,0,0,0,-1,1903,519,0,0
686,505,0,0,0,0,0,0,0,0,0,-1,1910,519,0,0
693,505,0,0,0,0,0,0,0,0,0,-1,1917,519,0,0
700,505,0,0,0,0,0,0,0,0,0,-1,1924,519,0,0
707,505,0,0,0,0,0,0,0,0,0,-1,1931,519,0,0
714,505,0,0,0,0,0,0,0,0,0,-1,1938,519,0,0
721,505,0,0,0,0,0,0,0,0,0,-1,1945,519,0,0
728,505,0,0,0,0,0,0,0,0,0,-1,1952,519,0,0
735,505,0,0,0,0,0,0,0,0,0,-1,1959,519,0,0
742,505,0,0,0,0,0,0,0,0,0,-1,1966,519,0,0
749,505,0,0,0,0,0,0,0,0,0,-1,1973,519,0,0
756,505,0,0,0,0,0,0,0,0,0,-1,1980,519,0,0
763,505,0,0,0,0,0,0,0,0,0,-1,1987,519,0,0
770,505,0,0,0,0,0,0,0,0,0,-1,1994,519,0,0
777,505,0,0,0,0,0,0,0,0,0,-1,2001,519,0,0
784,505,0,0,0,0,0,0,0,0,0,-1,2008,519,0,0
791,505,0,0,0,0,0,0,0,0,0,-1,2015,519,0,0
798,505,0,0,0,0,0,0,0,0,0,-1,2022,519,0,0
805,505,0,0,0,0,0,0,0,0,0,-1,2029,519,0,0
812,505,0,0,0,0,0,0,0,0,0,-1,2036,519,0,0
-700,498,0,0,0,0,0,0,0,0,0,-1,524,526,0,0
-693,498,0,0,0,0,0,0,0,0,0,-1,531,526,0,0
-686,498,0,0,0,0,0,0,0,0,0,-1,538,526,0,0
-679,498,0,0,0,0,0,0,0,0,0,-1,545,526,0,0
-672,498,0,0,0,0,0,0,0,0,0,-1,552,526,0,0
-665,498,0,0,0,0,0,0,0,0,0,-1,559,526,0,0
-658,498,0,0,0,0,0,0,0,0,0,-1,566,526,0,0
-651,498,0,0,0,0,0,0,0,0,0,-1,573,526,0,0
-644,498,0,0,0,0,0,0,0,0,0,-1,580,526,0,0
-637,498,0,0,0,0,0,0,0,0,0,-1,587,526,0,0
-630,498,0,0,0,0,0,0,0,0,0,-1,594,526,0,0
-623,498,0,0,0,0,0,0,0,0,0,-1,601,526,0,0
-616,498,0,0,0,0,0,0,0,0,0,-1,608,526,0,0
-609,498,0,0,0,0,0,0,0,0,0,-1,615,526,0,0
-602,498,0,0,0,0,0,0,0,0,0,-1,622,526,0,0
-595,498,0,0,0,0,0,0,0,0,0,-1,629,526,0,0
-588,498,0,0,0,0,0,0,0,0,0,-1,636,526,0,0
-581,498,0,0,0,0,0,0,0,0,0,-1,643,526,0,0
-574,498,0,0,0,0,0,0,0,0,0,-1,650,526,0,0
-567,498,0,0,0,0,0,0,0,0,0,-1,657,526,0,0
-560,498,0,0,0,0,0,0,0,0,0,-1,664,526,0,0
-553,498,0,0,0,0,0,0,0,0,0,-1,671,526,0,0
-546,498,0,0,0,0,0,0,0,0,0,-1,678,526,0,0
-539,498,0,0,0,0,0,0,0,0,0,-1,685,526,0,0
-532,498,0,0,0,0,0,0,0,0,0,-1,692,526,0,0
-525,498,0,0,0,0,0,0,0,0,0,-1,699,526,0,0
-518,498,0,0,0,0,0,0,0,0,0,-1,706,526,0,0
-511,498,0,0,0,0,0,0,0,0,0,-1,713,526,0,0
-504,498,0,0,0,0,0,0,0,0,0,-1,720,526,0,0
-497,498,0,0,0,0,0,0,0,0,0,-1,727,526,0,0
-490,498,0,0,0,0,0,0,0,0,0,-1,734,526,0,0
-483,498,0,0,0,0,0,0,0,0,0,-1,741,526,0,0
-476,498,0,0,0,0,0,0,0,0,0,-1,748,526,0,0
-469,498,0,0,0,0,0,0,0,0,0,-1,755,526,0,0
-462,498,6.81024,1.15515,0,0,0,0,0,0,0,-1,762,526,6.81026,-1.15514
-455,498,3.25757,-3.0592,0,0,0,0,0,0,0,-1,769,526,3.25754,3.05921
-448,498,3.05939,-3.74298,0,0,0,0,0,0,0,-1,776,526,3.05939,3.74296
-441,498,2.77191,-6.08209,0,0,0,0,0,0,0,-1,783,526,2.77189,6.08207
-434,498,2.10681,-6.95929,0,0,0,0,0,0,0,-1,790,526,2.10682,6.9593
-427,498,-0.368042,-10.7726,0,0,0,0,0,0,0,-1,797,526,-0.36807,10.7726
-420,498,-1.05035,-10.5142,0,0,0,0,0,0,0,-1,804,526,-1.05034,10.5142
-413,498,-2.5174,-11.3257,0,0,0,0,0,0,0,-1,811,526,-2.51742,11.3257
-406,498,-2.50232,-12.7516,0,0,0,0,0,0,0,-1,818,526,-2.50231,12.7516
-399,498,-2.40497,-13.2463,0.00164726,0.00965506,-0.00597596,0.0128444,-0.00154211,-1.08055,0.00912056,0.0277708,825,526,-2.40495,13.2463
-392,498,-2.42853,-13.8525,0.00154111,0.00798742,-0.00524295,0.0109187,-0.00139018,-1.061,0.00778403,0.0126975,832,526,-2.42854,13.8525
-385,498,-2.44971,-14.3692,0.00148683,0.00643346,-0.00446593,0.00906522,-0.00114494,-1.03828,0.00645904,0.0088408,839,526,-2.44969,14.3692
-378,498,-2.45801,-14.8896,0.00150571,0.00512949,-0.00379484,0.00752281,-0.000887607,-1.00812,0.00533574,0.0100978,846,526,-2.45798,14.8896
-371,498,-2.47565,-15.4125,0.00144431,0.00382464,-0.0030923,0.0059479,-0.000678952,-0.9691,0.00420988,0.0160898,853,526,-2.47564,15.4125
-364,498,-2.51123,-15.9113,0.00134049,0.00260638,-0.00234827,0.00440552,-0.000458644,-0.917038,0.00310122,0.0163103,860,526,-2.51124,15.9113
-357,498,-2.50098,-16.3983,0.00133101,0.0016463,-0.00168612,0.00318213,-0.000204811,-0.83201,0.00219288,0.0110895,867,526,-2.50098,16.3983
-350,498,-2.53363,-16.8809,0.00142441,0.000853946,-0.00115284,0.00232678,-4.84267e-05,-0.664125,0.00156758,0.0117189,874,526,-2.53363,16.8809
-343,498,-2.54065,-17.3466,0.00147632,8.39452e-05,-0.000632715,0.00172088,-0.000160615,-0.368836,0.00120437,0.0119464,881,526,-2.54062,17.3465
-336,498,-2.53564,-17.8256,0.0016438,-0.000579798,-0.000188965,0.00165975,-0.000595742,-0.0841769,0.00134964,0.0148213,888,526,-2.53566,17.8256
-329,498,-2.53766,-18.2997,0.00197044,-0.00107441,0.000106385,0.00197415,-0.00107813,0.0348827,0.00178737,0.0219964,895,526,-2.53767,18.2998
-322,498,-2.56757,-18.7642,0.00234037,-0.00141771,0.000341118,0.00237108,-0.00144842,0.0897914,0.00222653,0.0231135,902,526,-2.56755,18.7642
-315,498,-2.60223,-19.2325,0.00275856,-0.00159109,0.000551085,0.00282729,-0.00165983,0.124085,0.00261971,0.0176027,909,526,-2.60226,19.2325
-308,498,-2.58392,-19.6773,0.00331107,-0.00195382,0.000794731,0.00342842,-0.00207117,0.146599,0.00320726,0.0198878,916,526,-2.58391,19.6773
-301,498,-2.47705,-20.1674,0.00392944,-0.00238505,0.00125445,0.00416952,-0.00262514,0.189099,0.00395653,0.0393026,923,526,-2.47707,20.1674
-294,498,-2.3877,-20.6614,0,0,0,0,0,0,0,-1,930,526,-2.38769,20.6614
-287,498,-0.91394,-13.4327,0,0,0,0,0,0,0,-1,937,526,-0.913935,13.4327
-280,498,-0.341614,-8.66608,0,0,0,0,0,0,0,-1,944,526,-0.341589,8.66606
-273,498,-0.988892,-8.62921,0,0,0,0,0,0,0,-1,951,526,-0.988906,8.62922
-266,498,0.362488,-6.33545,0,0,0,0,0,0,0,-1,958,526,0.362478,6.33547
-259,498,10.9454,-17.3615,0,0,0,0,0,0,0,-1,965,526,10.9454,17.3614
-252,498,8.56586,-14.6886,0,0,0,0,0,0,0,-1,972,526,8.56584,14.6886
-245,498,5.97382,-11.928,0,0,0,0,0,0,0,-1,979,526,5.97381,11.928
-238,498,2.24841,-13.8145,0,0,0,0,0,0,0,-1,986,526,2.24838,13.8145
-231,498,0.665894,-10.4898,0,0,0,0,0,0,0,-1,993,526,0.665863,10.4898
-224,498,-2.11243,-4.76312,0,0,0,0,0,0,0,-1,1000,526,-2.11245,4.76314
-217,498,-3.82239,-1.42841,0,0,0,0,0,0,0,-1,1007,526,-3.82241,1.42843
-210,498,-1.80591,-0.358215,0,0,0,0,0,0,0,-1,1014,526,-1.8059,0.3582
-203,498,-3.17316,1.06641,0,0,0,0,0,0,0,-1,1021,526,-3.17313,-1.0664
-196,498,-0.103271,5.40527,0,0,0,0,0,0,0,-1,1028,526,-0.103285,-5.40528
-189,498,3.00256,6.47137,0,0,0,0,0,0,0,-1,1035,526,3.00256,-6.47139
-182,498,0,0,0,0,0,0,0,0,0,-1,1042,526,0,0
-175,498,0,0,0,0,0,0,0,0,0,-1,1049,526,0,0
-168,498,0,0,0,0,0,0,0,0,0,-1,1056,526,0,0
-161,498,0,0,0,0,0,0,0,0,0,-1,1063,526,0,0
-154,498,0,0,0,0,0,0,0,0,0,-1,1070,526,0,0
-147,498,0,0,0,0,0,0,0,0,0,-1,1077,526,0,0
-140,498,0,0,0,0,0,0,0,0,0,-1,1084,526,0,0
-133,498,0,0,0,0,0,0,0,0,0,-1,1091,526,0,0
-126,498,0,0,0,0,0,0,0,0,0,-1,1098,526,0,0
-119,498,0,0,0,0,0,0,0,0,0,-1,1105,526,0,0
-112,498,0,0,0,0,0,0,0,0,0,-1,1112,526,0,0
-105,498,0,0,0,0,0,0,0,0,0,-1,1119,526,0,0
-98,498,0,0,0,0,0,0,0,0,0,-1,1126,526,0,0
-91,498,0,0,0,0,0,0,0,0,0,-1,1133,526,0,0
-84,498,0,0,0,0,0,0,0,0,0,-1,1140,526,0,0
-77,498,0,0,0,0,0,0,0,0,0,-1,1147,526,0,0
-70,498,0,0,0,0,0,0,0,0,0,-1,1154,526,0,0
-63,498,0,0,0,0,0,0,0,0,0,-1,1161,526,0,0
-56,498,0,0,0,0,0,0,0,0,0,-1,1168,526,0,0
-49,498,0,0,0,0,0,0,0,0,0,-1,1175,526,0,0
-42,498,0,0,0,0,0,0,0,0,0,-1,1182,526,0,0
-35,498,0,0,0,0,0,0,0,0,0,-1,1189,526,0,0
-28,498,0,0,0,0,0,0,0,0,0,-1,1196,526,0,0
-21,498,0,0,0,0,0,0,0,0,0,-1,1203,526,0,0
-14,498,0,0,0,0,0,0,0,0,0,-1,1210,526,0,0
-7,498,0,0,0,0,0,0,0,0,0,-1,1217,526,0,0
0,498,0,0,0,0,0,0,0,0,0,-1,1224,526,0,0
7,498,0,0,0,0,0,0,0,0,0,-1,1231,526,0,0
14,498,0,0,0,0,0,0,0,0,0,-1,1238,526,0,0
21,498,0,0,0,0,0,0,0,0,0,-1,1245,526,0,0
28,498,0,0,0,0,0,0,0,0,0,-1,1252,526,0,0
35,498,0,0,0,0,0,0,0,0,0,-1,1259,526,0,0
42,498,0,0,0,0,0,0,0,0,0,-1,1266,526,0,0
49,498,0,0,0,0,0,0,0,0,0,-1,1273,526,0,0
56,498,0,0,0,0,0,0,0,0,0,-1,1280,526,0,0
63,498,0,0,0,0,0,0,0,0,0,-1,1287,526,0,0
70,498,0,0,0,0,0,0,0,0,0,-1,1294,526,0,0
77,498,0,0,0,0,0,0,0,0,0,-1,1301,526,0,0
84,498,0,0,0,0,0,0,0,0,0,-1,1308,526,0,0
91,498,0,0,0,0,0,0,0,0,0,-1,1315,526,0,0
98,498,0,0,0,0,0,0,0,0,0,-1,1322,526,0,0
105,498,0,0,0,0,0,0,0,0,0,-1,1329,526,0,0
112,498,0,0,0,0,0,0,0,0,0,-1,1336,526,0,0
119,498,0,0,0,0,0,0,0,0,0,-1,1343,526,0,0
126,498,0,0,0,0,0,0,0,0,0,-1,1350,526,0,0
133,498,0,0,0,0,0,0,0,0,0,-1,1357,526,0,0
140,498,0,0,0,0,0,0,0,0,0,-1,1364,526,0,0
147,498,0,0,0,0,0,0,0,0,0,-1,1371,526,0,0
154,498,0,0,0,0,0,0,0,0,0,-1,1378,526,0,0
161,498,0,0,0,0,0,0,0,0,0,-1,1385,526,0,0
168,498,0,0,0,0,0,0,0,0,0,-1,1392,526,0,0
175,498,0,0,0,0,0,0,0,0,0,-1,1399,526,0,0
182,498,0,0,0,0,0,0,0,0,0,-1,1406,526,0,0
189,498,0,0,0,0,0,0,0,0,0,-1,1413,526,0,0
196,498,0,0,0,0,0,0,0,0,0,-1,1420,526,0,0
203,498,0,0,0,0,0,0,0,0,0,-1,1427,526,0,0
210,498,0,0,0,0,0,0,0,0,0,-1,1434,526,0,0
217,498,0,0,0,0,0,0,0,0,0,-1,1441,526,0,0
224,498,0,0,0,0,0,0,0,0,0,-1,1448,526,0,0
231,498,0,0,0,0,0,0,0,0,0,-1,1455,526,0,0
238,498,0,0,0,0,0,0,0,0,0,-1,1462,526,0,0
245,498,0,0,0,0,0,0,0,0,0,-1,1469,526,0,0
252,498,0,0,0,0,0,0,0,0,0,-1,1476,526,0,0
259,498,0,0,0,0,0,0,0,0,0,-1,1483,526,0,0
266,498,0,0,0,0,0,0,0,0,0,-1,1490,526,0,0
273,498,0,0,0,0,0,0,0,0,0,-1,1497,526,0,0
280,498,0,0,0,0,0,0,0,0,0,-1,1504,526,0,0
287,498,0,0,0,0,0,0,0,0,0,-1,1511,526,0,0
294,498,0,0,0,0,0,0,0,0,0,-1,1518,526,0,0
301,498,0,0,0,0,0,0,0,0,0,-1,1525,526,0,0
308,498,4.77942,-0.293884,0,0,0,0,0,0,0,-1,1532,526,4.77939,0.293899
315,498,4.56091,-0.564148,0,0,0,0,0,0,0,-1,1539,526,4.56097,0.564142
322,498,4.52344,-0.447266,0,0,0,0,0,0,0,-1,1546,526,4.52341,0.447295
329,498,4.63232,-0.156982,0,0,0,0,0,0,0,-1,1553,526,4.63238,0.156991
336,498,5.22644,0.0925903,0,0,0,0,0,0,0,-1,1560,526,5.22648,-0.0926188
343,498,6.22607,-1.67615,0,0,0,0,0,0,0,-1,1567,526,6.22605,1.67617
350,498,6.19373,-1.59906,0,0,0,0,0,0,0,-1,1574,526,6.19367,1.59906
357,498,6.21472,-1.58929,0,0,0,0,0,0,0,-1,1581,526,6.21476,1.58927
364,498,5.73547,-1.2019,0,0,0,0,0,0,0,-1,1588,526,5.73547,1.20192
371,498,3.27087,-4.55334,0,0,0,0,0,0,0,-1,1595,526,3.27089,4.55332
378,498,8.42944,-4.70624,0,0,0,0,0,0,0,-1,1602,526,8.42942,4.70624
385,498,4.7793,-5.15314,0,0,0,0,0,0,0,-1,1609,526,4.77935,5.15311
392,498,9.12439,-8.57953,0,0,0,0,0,0,0,-1,1616,526,9.12443,8.57955
399,498,7.98938,-9.46021,0,0,0,0,0,0,0,-1,1623,526,7.98936,9.4602
406,498,7.58081,-9.26819,0,0,0,0,0,0,0,-1,1630,526,7.58085,9.26817
413,498,7.17236,-9.07611,0,0,0,0,0,0,0,-1,1637,526,7.17234,9.07614
420,498,11.4314,-16.1147,0,0,0,0,0,0,0,-1,1644,526,11.4313,16.1147
427,498,11.797,-19.2088,0,0,0,0,0,0,0,-1,1651,526,11.797,19.2088
434,498,11.8568,-18.5909,0.00178152,-0.000879524,-0.00152115,0.00247193,-0.00156994,-0.426074,0.00235286,0.0348198,1658,526,11.8568,18.591
441,498,11.9326,-18.0648,0.0015176,-0.000738845,-0.00134049,0.00214146,-0.00136271,-0.435585,0.00203971,0.0123724,1665,526,11.9326,18.0648
448,498,11.9401,-17.554,0.0015178,-0.000528688,-0.00105715,0.00196581,-0.000976701,-0.400848,0.00173056,0.0103742,1672,526,11.9401,17.5539
455,498,11.9127,-17.0616,0.00145404,-0.000248833,-0.000765418,0.00174751,-0.000542302,-0.366123,0.00138172,0.0144326,1679,526,11.9127,17.0616
462,498,11.9225,-16.5783,0.00145504,1.11045e-05,-0.000435877,0.00157642,-0.00011027,-0.27158,0.00108956,0.0157596,1686,526,11.9225,16.5783
469,498,11.9048,-16.0911,0.00144753,0.000182047,-6.40411e-05,0.00145077,0.000178815,-0.0504342,0.000913426,0.0132357,1693,526,11.9047,16.0911
476,498,11.9016,-15.5945,0.00118386,9.67004e-05,0.000185709,0.00121471,6.58528e-05,0.164604,0.00078877,0.0100653,1700,526,11.9017,15.5945
483,498,11.8878,-15.0804,0.000753589,-0.000173077,0.00029158,0.000837701,-0.00025719,0.280846,0.000661089,0.0090427,1707,526,11.8878,15.0804
490,498,11.8611,-14.5748,7.52798e-05,-0.000637597,0.000256959,0.000158246,-0.000720563,0.31231,0.000540896,0.0110816,1714,526,11.8611,14.5748
497,498,11.8575,-14.0531,-0.000824134,-0.00120331,0.000159865,-0.000765729,-0.00126171,0.350275,0.000733979,0.0117906,1721,526,11.8575,14.0531
504,498,11.8398,-13.5248,-0.00201371,-0.00216756,-0.000153918,-0.00191857,-0.00226271,-0.553661,0.00140785,0.0138705,1728,526,11.8399,13.5248
511,498,11.8097,-12.9915,-0.00353947,-0.00327605,-0.000669927,-0.00272501,-0.00409051,-0.882462,0.00240474,0.0154027,1735,526,11.8097,12.9915
518,498,11.8571,-12.453,-0.00541563,-0.00446113,-0.0013901,-0.00346863,-0.00640812,-0.950754,0.00370393,0.016491,1742,526,11.8571,12.453
525,498,11.7534,-11.9252,-0.00753928,-0.00589418,-0.00232587,-0.0042497,-0.00918377,-0.955361,0.00530716,0.0250536,1749,526,11.7534,11.9252
532,498,11.5702,-11.3966,-0.00989421,-0.0073989,-0.00338779,-0.00503632,-0.0122568,-0.961831,0.00711381,0.043437,1756,526,11.5702,11.3966
539,498,11.6011,-10.8669,0,0,0,0,0,0,0,-1,1763,526,11.6011,10.867
546,498,10.2014,-8.47589,0,0,0,0,0,0,0,-1,1770,526,10.2014,8.47589
553,498,5.93958,-1.71448,0,0,0,0,0,0,0,-1,1777,526,5.93956,1.71447
560,498,3.69385,-0.615112,0,0,0,0,0,0,0,-1,1784,526,3.69381,0.615118
567,498,5.12695,-0.581604,0,0,0,0,0,0,0,-1,1791,526,5.12699,0.58159
574,498,3.88,0.0286255,0,0,0,0,0,0,0,-1,1798,526,3.87999,-0.0286535
581,498,10.8722,2.58551,0,0,0,0,0,0,0,-1,1805,526,10.8723,-2.58551
588,498,0,0,0,0,0,0,0,0,0,-1,1812,526,0,0
595,498,0,0,0,0,0,0,0,0,0,-1,1819,526,0,0
602,498,0,0,0,0,0,0,0,0,0,-1,1826,526,0,0
609,498,0,0,0,0,0,0,0,0,0,-1,1833,526,0,0
616,498,0,0,0,0,0,0,0,0,0,-1,1840,526,0,0
623,498,0,0,0,0,0,0,0,0,0,-1,1847,526,0,0
630,498,0,0,0,0,0,0,0,0,0,-1,1854,526,0,0
637,498,0,0,0,0,0,0,0,0,0,-1,1861,526,0,0
644,498,0,0,0,0,0,0,0,0,0,-1,1868,526,0,0
651,498,0,0,0,0,0,0,0,0,0,-1,1875,526,0,0
658,498,0,0,0,0,0,0,0,0,0,-1,1882,526,0,0
665,498,0,0,0,0,0,0,0,0,0,-1,1889,526,0,0
672,498,0,0,0,0,0,0,0,0,0,-1,1896,526,0,0
679,498,0,0,0,0,0,0,0,0,0,-1,1903,526,0,0
686,498,0,0,0,0,0,0,0,0,0,-1,1910,526,0,0
693,498,0,0,0,0,0,0,0,0,0,-1,1917,526,0,0
700,498,0,0,0,0,0,0,0,0,0,-1,1924,526,0,0
707,498,0,0,0,0,0,0,0,0,0,-1,1931,526,0,0
714,498,0,0,0,0,0,0,0,0,0,-1,1938,526,0,0
721,498,0,0,0,0,0,0,0,0,0,-1,1945,526,0,0
728,498,0,0,0,0,0,0,0,0,0,-1,1952,526,0,0
735,498,0,0,0,0,0,0,0,0,0,-1,1959,526,0,0
742,498,0,0,0,0,0,0,0,0,0,-1,1966,526,0,0
749,498,0,0,0,0,0,0,0,0,0,-1,1973,526,0,0
756,498,0,0,0,0,0,0,0,0,0,-1,1980,526,0,0
763,498,0,0,0,0,0,0,0,0,0,-1,1987,526,0,0
770,498,0,0,0,0,0,0,0,0,0,-1,1994,526,0,0
777,498,0,0,0,0,0,0,0,0,0,-1,2001,526,0,0
784,498,0,0,0,0,0,0,0,0,0,-1,2008,526,0,0
791,498,0,0,0,0,0,0,0,0,0,-1,2015,526,0,0
798,498,0,0,0,0,0,0,0,0,0,-1,2022,526,0,0
805,498,0,0,0,0,0,0,0,0,0,-1,2029,526,0,0
812,498,0,0,0,0,0,0,0,0,0,-1,2036,526,0,0
-700,491,0,0,0,0,0,0,0,0,0,-1,524,533,0,0
-693,491,0,0,0,0,0,0,0,0,0,-1,531,533,0,0
-686,491,0,0,0,0,0,0,0,0,0,-1,538,533,0,0
-679,491,0,0,0,0,0,0,0,0,0,-1,545,533,0,0
-672,491,0,0,0,0,0,0,0,0,0,-1,552,533,0,0
-665,491,0,0,0,0,0,0,0,0,0,-1,559,533,0,0
-658,491,0,0,0,0,0,0,0,0,0,-1,566,533,0,0
-651,491,0,0,0,0,0,0,0,0,0,-1,573,533,0,0
-644,491,0,0,0,0,0,0,0,0,0,-1,580,533,0,0
-637,491,0,0,0,0,0,0,0,0,0,-1,587,533,0,0
-630,491,0,0,0,0,0,0,0,0,0,-1,594,533,0,0
-623,491,0,0,0,0,0,0,0,0,0,-1,601,533,0,0
-616,491,0,0,0,0,0,0,0,0,0,-1,608,533,0,0
-609,491,0,0,0,0,0,0,0,0,0,-1,615,533,0,0
-602,491,0,0,0,0,0,0,0,0,0,-1,622,533,0,0
-595,491,0,0,0,0,0,0,0,0,0,-1,629,533,0,0
-588,491,0,0,0,0,0,0,0,0,0,-1,636,533,0,0
-581,491,0,0,0,0,0,0,0,0,0,-1,643,533,0,0
-574,491,0,0,0,0,0,0,0,0,0,-1,650,533,0,0
-567,491,0,0,0,0,0,0,0,0,0,-1,657,533,0,0
-560,491,0,0,0,0,0,0,0,0,0,-1,664,533,0,0
-553,491,0,0,0,0,0,0,0,0,0,-1,671,533,0,0
-546,491,0,0,0,0,0,0,0,0,0,-1,678,533,0,0
-539,491,0,0,0,0,0,0,0,0,0,-1,685,533,0,0
-532,491,0,0,0,0,0,0,0,0,0,-1,692,533,0,0
-525,491,0,0,0,0,0,0,0,0,0,-1,699,533,0,0
-518,491,0,0,0,0,0,0,0,0,0,-1,706,533,0,0
-511,491,0,0,0,0,0,0,0,0,0,-1,713,533,0,0
-504,491,0,0,0,0,0,0,0,0,0,-1,720,533,0,0
-497,491,0,0,0,0,0,0,0,0,0,-1,727,533,0,0
-490,491,0,0,0,0,0,0,0,0,0,-1,734,533,0,0
-483,491,0,0,0,0,0,0,0,0,0,-1,741,533,0,0
-476,491,0,0,0,0,0,0,0,0,0,-1,748,533,0,0
-469,491,-5.85913,4.55011,0,0,0,0,0,0,0,-1,755,533,-5.8591,-4.55009
-462,491,-9.93713,4.90381,0,0,0,0,0,0,0,-1,762,533,-9.93716,-4.9038
-455,491,1.9494,-0.27887,0,0,0,0,0,0,0,-1,769,533,1.94941,0.27885
-448,491,2.68909,-1.8999,0,0,0,0,0,0,0,-1,776,533,2.6891,1.89988
-441,491,3.46069,-3.51855,0,0,0,0,0,0,0,-1,783,533,3.46071,3.51854
-434,491,2.67145,-7.44061,0,0,0,0,0,0,0,-1,790,533,2.67146,7.44061
-427,491,2.27136,-8.34546,0,0,0,0,0,0,0,-1,797,533,2.27136,8.34546
-420,491,-1.52142,-8.1123,0,0,0,0,0,0,0,-1,804,533,-1.52142,8.11228
-413,491,-2.95197,-12.165,0,0,0,0,0,0,0,-1,811,533,-2.95199,12.165
-406,491,-2.89221,-12.82,0.000805689,0.00914265,-0.00507832,0.0115442,-0.00159588,-1.12906,0.00827953,0.0269266,818,533,-2.89224,12.82
-399,491,-2.888,-13.3763,0.000934076,0.00762888,-0.00458293,0.00995672,-0.00139376,-1.10082,0.00714784,0.0127997,825,533,-2.88802,13.3763
-392,491,-2.94525,-13.9009,0.00101136,0.0061676,-0.00399329,0.0083427,-0.00116373,-1.07204,0.00598753,0.0106041,832,533,-2.94527,13.9009
-385,491,-2.95538,-14.3804,0.0011434,0.00483011,-0.00338099,0.0068376,-0.000864094,-1.03498,0.00487204,0.00948952,839,533,-2.95537,14.3804
-378,491,-2.95117,-14.8693,0.001319,0.00370742,-0.00284683,0.00560037,-0.000573952,-0.983994,0.00393886,0.0133564,846,533,-2.95119,14.8693
-371,491,-2.94708,-15.3833,0.0013861,0.00255419,-0.00225816,0.0043026,-0.00036232,-0.911944,0.00299648,0.0141181,853,533,-2.94706,15.3833
-364,491,-2.9834,-15.8806,0.00140266,0.00146341,-0.00161448,0.0030478,-0.000181731,-0.794804,0.00209508,0.0132807,860,533,-2.98338,15.8806
-357,491,-2.99225,-16.3573,0.00152389,0.000618386,-0.00105032,0.00221488,-7.26049e-05,-0.581901,0.00150137,0.0118436,867,533,-2.99224,16.3573
-350,491,-3.01251,-16.826,0.00175543,-6.6642e-05,-0.000624308,0.00194881,-0.000260028,-0.300387,0.00139399,0.0152989,874,533,-3.01252,16.826
-343,491,-3.00427,-17.3007,0.00196902,-0.000721464,-0.000219811,0.00198686,-0.000739304,-0.0809835,0.00162796,0.023234,881,533,-3.00426,17.3007
-336,491,-3.00348,-17.8002,0.00226258,-0.00128215,0.000138803,0.002268,-0.00128758,0.0390779,0.00207867,0.0235455,888,533,-3.00348,17.8002
-329,491,-3.01923,-18.2534,0.00269541,-0.00163154,0.000331763,0.0027207,-0.00165683,0.0760809,0.00255213,0.0247838,895,533,-3.01925,18.2534
-322,491,-3.06262,-18.7219,0.00324153,-0.00183574,0.000445729,0.00328037,-0.00187458,0.0869031,0.00301287,0.0218831,902,533,-3.06262,18.7219
-315,491,-3.11456,-19.1465,0.00383334,-0.00191572,0.000550897,0.00388565,-0.00196804,0.0946758,0.00343955,0.0217643,909,533,-3.11454,19.1465
-308,491,-3.09583,-19.7213,0,0,0,0,0,0,0,-1,916,533,-3.09582,19.7213
-301,491,-2.93866,-20.5978,0,0,0,0,0,0,0,-1,923,533,-2.93865,20.5978
-294,491,-0.777283,-8.60913,0,0,0,0,0,0,0,-1,930,533,-0.777288,8.6091
-287,491,-0.26123,-8.69055,0,0,0,0,0,0,0,-1,937,533,-0.261204,8.69053
-280,491,0.2948,-5.99219,0,0,0,0,0,0,0,-1,944,533,0.294811,5.99221
-273,491,0.369995,-5.33691,0,0,0,0,0,0,0,-1,951,533,0.369985,5.33693
-266,491,1.1167,-5.0321,0,0,0,0,0,0,0,-1,958,533,1.11668,5.0321
-259,491,12.0862,-16.9615,0,0,0,0,0,0,0,-1,965,533,12.0862,16.9615
-252,491,9.72443,-13.8417,0,0,0,0,0,0,0,-1,972,533,9.72444,13.8418
-245,491,5.27258,-14.3619,0,0,0,0,0,0,0,-1,979,533,5.27255,14.3619
-238,491,3.65381,-11.1472,0,0,0,0,0,0,0,-1,986,533,3.6538,11.1472
-231,491,2.17719,-7.86835,0,0,0,0,0,0,0,-1,993,533,2.17719,7.86832
-224,491,0.554626,-4.61725,0,0,0,0,0,0,0,-1,1000,533,0.554608,4.61727
-217,491,-2.92743,-1.0766,0,0,0,0,0,0,0,-1,1007,533,-2.92743,1.07659
-210,491,-0.92395,0.374512,0,0,0,0,0,0,0,-1,1014,533,-0.923959,-0.374531
-203,491,0.417419,4.77161,0,0,0,0,0,0,0,-1,1021,533,0.417446,-4.77162
-196,491,0,0,0,0,0,0,0,0,0,-1,1028,533,0,0
-189,491,0,0,0,0,0,0,0,0,0,-1,1035,533,0,0
-182,491,0,0,0,0,0,0,0,0,0,-1,1042,533,0,0
-175,491,0,0,0,0,0,0,0,0,0,-1,1049,533,0,0
-168,491,0,0,0,0,0,0,0,0,0,-1,1056,533,0,0
-161,491,0,0,0,0,0,0,0,0,0,-1,1063,533,0,0
-154,491,0,0,0,0,0,0,0,0,0,-1,1070,533,0,0
-147,491,0,0,0,0,0,0,0,0,0,-1,1077,533,0,0
-140,491,0,0,0,0,0,0,0,0,0,-1,1084,533,0,0
-133,491,0,0,0,0,0,0,0,0,0,-1,1091,533,0,0
-126,491,0,0,0,0,0,0,0,0,0,-1,1098,533,0,0
-119,491,0,0,0,0,0,0,0,0,0,-1,1105,533,0,0
-112,491,0,0,0,0,0,0,0,0,0,-1,1112,533,0,0
-105,491,0,0,0,0,0,0,0,0,0,-1,1119,533,0,0
-98,491,0,0,0,0,0,0,0,0,0,-1,1126,533,0,0
-91,491,0,0,0,0,0,0,0,0,0,-1,1133,533,0,0
-84,491,0,0,0,0,0,0,0,0,0,-1,1140,533,0,0
-77,491,0,0,0,0,0,0,0,0,0,-1,1147,533,0,0
-70,491,0,0,0,0,0,0,0,0,0,-1,1154,533,0,0
-63,491,0,0,0,0,0,0,0,0,0,-1,1161,533,0,0
-56,491,0,0,0,0,0,0,0,0,0,-1,1168,533,0,0
-49,491,0,0,0,0,0,0,0,0,0,-1,1175,533,0,0
-42,491,0,0,0,0,0,0,0,0,0,-1,1182,533,0,0
-35,491,0,0,0,0,0,0,0,0,0,-1,1189,533,0,0
-28,491,0,0,0,0,0,0,0,0,0,-1,1196,533,0,0
-21,491,0,0,0,0,0,0,0,0,0,-1,1203,533,0,0
-14,491,0,0,0,0,0,0,0,0,0,-1,1210,533,0,0
-7,491,0,0,0,0,0,0,0,0,0,-1,1217,533,0,0
0,491,0,0,0,0,0,0,0,0,0,-1,1224,533,0,0
7,491,0,0,0,0,0,0,0,0,0,-1,1231,533,0,0
14,491,0,0,0,0,0,0,0,0,0,-1,1238,533,0,0
21,491,0,0,0,0,0,0,0,0,0,-1,1245,533,0,0
28,491,0,0,0,0,0,0,0,0,0,-1,1252,533,0,0
35,491,0,0,0,0,0,0,0,0,0,-1,1259,533,0,0
42,491,0,0,0,0,0,0,0,0,0,-1,1266,533,0,0
49,491,0,0,0,0,0,0,0,0,0,-1,1273,533,0,0
56,491,0,0,0,0,0,0,0,0,0,-1,1280,533,0,0
63,491,0,0,0,0,0,0,0,0,0,-1,1287,533,0,0
70,491,0,0,0,0,0,0,0,0,0,-1,1294,533,0,0
77,491,0,0,0,0,0,0,0,0,0,-1,1301,533,0,0
84,491,0,0,0,0,0,0,0,0,0,-1,1308,533,0,0
91,491,0,0,0,0,0,0,0,0,0,-1,1315,533,0,0
98,491,0,0,0,0,0,0,0,0,0,-1,1322,533,0,0
105,491,0,0,0,0,0,0,0,0,0,-1,1329,533,0,0
112,491,0,0,0,0,0,0,0,0,0,-1,1336,533,0,0
119,491,0,0,0,0,0,0,0,0,0,-1,1343,533,0,0
126,491,0,0,0,0,0,0,0,0,0,-1,1350,533,0,0
133,491,0,0,0,0,0,0,0,0,0,-1,1357,533,0,0
140,491,0,0,0,0,0,0,0,0,0,-1,1364,533,0,0
147,491,0,0,0,0,0,0,0,0,0,-1,1371,533,0,0
154,491,0,0,0,0,0,0,0,0,0,-1,1378,533,0,0
161,491,0,0,0,0,0,0,0,0,0,-1,1385,533,0,0
168,491,0,0,0,0,0,0,0,0,0,-1,1392,533,0,0
175,491,0,0,0,0,0,0,0,0,0,-1,1399,533,0,0
182,491,0,0,0,0,0,0,0,0,0,-1,1406,533,0,0
189,491,0,0,0,0,0,0,0,0,0,-1,1413,533,0,0
196,491,0,0,0,0,0,0,0,0,0,-1,1420,533,0,0
203,491,0,0,0,0,0,0,0,0,0,-1,1427,533,0,0
210,491,0,0,0,0,0,0,0,0,0,-1,1434,533,0,0
217,491,0,0,0,0,0,0,0,0,0,-1,1441,533,0,0
224,491,0,0,0,0,0,0,0,0,0,-1,1448,533,0,0
231,491,0,0,0,0,0,0,0,0,0,-1,1455,533,0,0
238,491,0,0,0,0,0,0,0,0,0,-1,1462,533,0,0
245,491,0,0,0,0,0,0,0,0,0,-1,1469,533,0,0
252,491,0,0,0,0,0,0,0,0,0,-1,1476,533,0,0
259,491,0,0,0,0,0,0,0,0,0,-1,1483,533,0,0
266,491,0,0,0,0,0,0,0,0,0,-1,1490,533,0,0
273,491,0,0,0,0,0,0,0,0,0,-1,1497,533,0,0
280,491,0,0,0,0,0,0,0,0,0,-1,1504,533,0,0
287,491,0,0,0,0,0,0,0,0,0,-1,1511,533,0,0
294,491,0,0,0,0,0,0,0,0,0,-1,1518,533,0,0
301,491,0,0,0,0,0,0,0,0,0,-1,1525,533,0,0
308,491,0,0,0,0,0,0,0,0,0,-1,1532,533,0,0
315,491,0,0,0,0,0,0,0,0,0,-1,1539,533,0,0
322,491,4.26331,-0.734314,0,0,0,0,0,0,0,-1,1546,533,4.26326,0.734324
329,491,4.25354,-0.783752,0,0,0,0,0,0,0,-1,1553,533,4.25359,0.783734
336,491,4.81604,-0.722107,0,0,0,0,0,0,0,-1,1560,533,4.81605,0.722115
343,491,6.14478,-1.44281,0,0,0,0,0,0,0,-1,1567,533,6.14474,1.44281
350,491,6.36353,-1.30792,0,0,0,0,0,0,0,-1,1574,533,6.36352,1.3079
357,491,6.69482,-1.06018,0,0,0,0,0,0,0,-1,1581,533,6.69489,1.06018
364,491,8.01086,-1.69604,0,0,0,0,0,0,0,-1,1588,533,8.01087,1.69607
371,491,8.2135,-0.539307,0,0,0,0,0,0,0,-1,1595,533,8.21348,0.53929
378,491,13.3589,2.17267,0,0,0,0,0,0,0,-1,1602,533,13.3589,-2.17264
385,491,8.08228,-4.95471,0,0,0,0,0,0,0,-1,1609,533,8.08227,4.95474
392,491,2.88721,-4.30988,0,0,0,0,0,0,0,-1,1616,533,2.88716,4.30986
399,491,8.95862,-8.55518,0,0,0,0,0,0,0,-1,1623,533,8.95864,8.55516
406,491,8.16541,-9.00806,0,0,0,0,0,0,0,-1,1630,533,8.16535,9.00807
413,491,5.31848,-3.7124,0,0,0,0,0,0,0,-1,1637,533,5.31849,3.7124
420,491,4.86389,-3.95892,0,0,0,0,0,0,0,-1,1644,533,4.86387,3.95893
427,491,11.5096,-15.2742,0,0,0,0,0,0,0,-1,1651,533,11.5096,15.2742
434,491,12.334,-18.5803,0,0,0,0,0,0,0,-1,1658,533,12.334,18.5803
441,491,12.4694,-17.7487,0.00182125,-0.00147998,-0.00191216,0.00269668,-0.00235541,-0.429339,0.00291904,0.0477364,1665,533,12.4693,17.7487
448,491,12.4232,-17.5688,0.00178988,-0.00102809,-0.00160231,0.00251458,-0.0017528,-0.424755,0.00247682,0.0294896,1672,533,12.4233,17.5688
455,491,12.4099,-17.0605,0.00169462,-0.000556353,-0.00126719,0.00226397,-0.00112571,-0.422276,0.00199347,0.0158669,1679,533,12.4099,17.0606
462,491,12.4441,-16.5746,0.0017422,-0.000129863,-0.00087644,0.00208847,-0.000476135,-0.376266,0.0015752,0.0154973,1686,533,12.444,16.5746
469,491,12.4137,-16.0822,0.00186477,0.000280518,-0.000376878,0.00194986,0.000195432,-0.222042,0.00123991,0.0143328,1693,533,12.4137,16.0822
476,491,12.4076,-15.5802,0.00170696,0.000386681,-3.57211e-05,0.00170793,0.000385716,-0.0270294,0.0010343,0.0102844,1700,533,12.4076,15.5802
483,491,12.3857,-15.0621,0.00136128,0.000249165,0.000153911,0.00138219,0.000228258,0.135015,0.000855583,0.0124359,1707,533,12.3858,15.0621
490,491,12.3713,-14.5726,0.000780219,-2.60811e-05,0.000198646,0.000826503,-7.23642e-05,0.228909,0.000576639,0.0115271,1714,533,12.3713,14.5726
497,491,12.3773,-14.0562,3.4752e-05,-0.000328785,0.000232395,0.000148021,-0.000442054,0.453517,0.000354499,0.0120547,1721,533,12.3773,14.0561
504,491,12.3694,-13.5208,-0.000946186,-0.00105727,5.39888e-05,-0.00092427,-0.00107919,0.385604,0.000673782,0.0127423,1728,533,12.3694,13.5208
511,491,12.3405,-12.9941,-0.00221552,-0.00188027,-0.000304279,-0.0017005,-0.00239529,-1.03716,0.00142297,0.0118779,1735,533,12.3404,12.9942
518,491,12.327,-12.4778,-0.00377745,-0.00273641,-0.00083074,-0.00227659,-0.00423728,-1.06526,0.00244866,0.00980346,1742,533,12.327,12.4778
525,491,12.3239,-11.9405,-0.00546676,-0.00378715,-0.00150625,-0.00290241,-0.0063515,-1.03971,0.00367157,0.00971971,1749,533,12.3239,11.9405
532,491,12.3138,-11.4095,-0.00727657,-0.00478088,-0.00223774,-0.00346658,-0.00859087,-1.03974,0.00499062,0.022125,1756,533,12.3139,11.4095
539,491,12.1909,-10.9752,-0.00925796,-0.00572208,-0.00310051,-0.00392088,-0.0110592,-1.04451,0.00647445,0.0400922,1763,533,12.1909,10.9752
546,491,11.9626,-10.3273,0,0,0,0,0,0,0,-1,1770,533,11.9626,10.3273
553,491,10.5021,-7.77869,0,0,0,0,0,0,0,-1,1777,533,10.502,7.77871
560,491,6.28455,-1.43585,0,0,0,0,0,0,0,-1,1784,533,6.28458,1.43586
567,491,5.67651,-1.3562,0,0,0,0,0,0,0,-1,1791,533,5.67649,1.3562
574,491,8.0719,1.58325,0,0,0,0,0,0,0,-1,1798,533,8.07195,-1.58326
581,491,9.44812,1.60931,0,0,0,0,0,0,0,-1,1805,533,9.44808,-1.60933
588,491,11.0497,1.54962,0,0,0,0,0,0,0,-1,1812,533,11.0496,-1.54963
595,491,0,0,0,0,0,0,0,0,0,-1,1819,533,0,0
602,491,0,0,0,0,0,0,0,0,0,-1,1826,533,0,0
609,491,0,0,0,0,0,0,0,0,0,-1,1833,533,0,0
616,491,0,0,0,0,0,0,0,0,0,-1,1840,533,0,0
623,491,0,0,0,0,0,0,0,0,0,-1,1847,533,0,0
630,491,0,0,0,0,0,0,0,0,0,-1,1854,533,0,0
637,491,0,0,0,0,0,0,0,0,0,-1,1861,533,0,0
644,491,0,0,0,0,0,0,0,0,0,-1,1868,533,0,0
651,491,0,0,0,0,0,0,0,0,0,-1,1875,533,0,0
658,491,0,0,0,0,0,0,0,0,0,-1,1882,533,0,0
665,491,0,0,0,0,0,0,0,0,0,-1,1889,533,0,0
672,491,0,0,0,0,0,0,0,0,0,-1,1896,533,0,0
679,491,0,0,0,0,0,0,0,0,0,-1,1903,533,0,0
686,491,0,0,0,0,0,0,0,0,0,-1,1910,533,0,0
693,491,0,0,0,0,0,0,0,0,0,-1,1917,533,0,0
700,491,0,0,0,0,0,0,0,0,0,-1,1924,533,0,0
707,491,0,0,0,0,0,0,0,0,0,-1,1931,533,0,0
714,491,0,0,0,0,0,0,0,0,0,-1,1938,533,0,0
721,491,0,0,0,0,0,0,0,0,0,-1,1945,533,0,0
728,491,0,0,0,0,0,0,0,0,0,-1,1952,533,0,0
735,491,0,0,0,0,0,0,0,0,0,-1,1959,533,0,0
742,491,0,0,0,0,0,0,0,0,0,-1,1966,533,0,0
749,491,0,0,0,0,0,0,0,0,0,-1,1973,533,0,0
756,491,0,0,0,0,0,0,0,0,0,-1,1980,533,0,0
763,491,0,0,0,0,0,0,0,0,0,-1,1987,533,0,0
770,491,0,0,0,0,0,0,0,0,0,-1,1994,533,0,0
777,491,0,0,0,0,0,0,0,0,0,-1,2001,533,0,0
784,491,0,0,0,0,0,0,0,0,0,-1,2008,533,0,0
791,491,0,0,0,0,0,0,0,0,0,-1,2015,533,0,0
798,491,0,0,0,0,0,0,0,0,0,-1,2022,533,0,0
805,491,0,0,0,0,0,0,0,0,0,-1,2029,533,0,0
812,491,0,0,0,0,0,0,0,0,0,-1,2036,533,0,0
-700,484,0,0,0,0,0,0,0,0,0,-1,524,540,0,0
-693,484,0,0,0,0,0,0,0,0,0,-1,531,540,0,0
-686,484,0,0,0,0,0,0,0,0,0,-1,538,540,0,0
-679,484,0,0,0,0,0,0,0,0,0,-1,545,540,0,0
-672,484,0,0,0,0,0,0,0,0,0,-1,552,540,0,0
-665,484,0,0,0,0,0,0,0,0,0,-1,559,540,0,0
-658,484,0,0,0,0,0,0,0,0,0,-1,566,540,0,0
-651,484,0,0,0,0,0,0,0,0,0,-1,573,540,0,0
-644,484,0,0,0,0,0,0,0,0,0,-1,580,540,0,0
-637,484,0,0,0,0,0,0,0,0,0,-1,587,540,0,0
-630,484,0,0,0,0,0,0,0,0,0,-1,594,540,0,0
-623,484,0,0,0,0,0,0,0,0,0,-1,601,540,0,0
-616,484,0,0,0,0,0,0,0,0,0,-1,608,540,0,0
-609,484,0,0,0,0,0,0,0,0,0,-1,615,540,0,0
-602,484,0,0,0,0,0,0,0,0,0,-1,622,540,0,0
-595,484,0,0,0,0,0,0,0,0,0,-1,629,540,0,0
-588,484,0,0,0,0,0,0,0,0,0,-1,636,540,0,0
-581,484,0,0,0,0,0,0,0,0,0,-1,643,540,0,0
-574,484,0,0,0,0,0,0,0,0,0,-1,650,540,0,0
-567,484,0,0,0,0,0,0,0,0,0,-1,657,540,0,0
-560,484,0,0,0,0,0,0,0,0,0,-1,664,540,0,0
-553,484,0,0,0,0,0,0,0,0,0,-1,671,540,0,0
-546,484,0,0,0,0,0,0,0,0,0,-1,678,540,0,0
-539,484,0,0,0,0,0,0,0,0,0,-1,685,540,0,0
-532,484,0,0,0,0,0,0,0,0,0,-1,692,540,0,0
-525,484,0,0,0,0,0,0,0,0,0,-1,699,540,0,0
-518,484,0,0,0,0,0,0,0,0,0,-1,706,540,0,0
-511,484,0,0,0,0,0,0,0,0,0,-1,713,540,0,0
-504,484,0,0,0,0,0,0,0,0,0,-1,720,540,0,0
-497,484,0,0,0,0,0,0,0,0,0,-1,727,540,0,0
-490,484,0,0,0,0,0,0,0,0,0,-1,734,540,0,0
-483,484,0,0,0,0,0,0,0,0,0,-1,741,540,0,0
-476,484,-8.46552,1.44702,0,0,0,0,0,0,0,-1,748,540,-8.46554,-1.44702
-469,484,-7.82343,1.70355,0,0,0,0,0,0,0,-1,755,540,-7.82345,-1.70355
-462,484,-8.36987,3.08612,0,0,0,0,0,0,0,-1,762,540,-8.36988,-3.0861
-455,484,-6.77197,2.07092,0,0,0,0,0,0,0,-1,769,540,-6.77197,-2.07094
-448,484,3.54895,-1.40106,0,0,0,0,0,0,0,-1,776,540,3.54897,1.40106
-441,484,4.28906,-3.05884,0,0,0,0,0,0,0,-1,783,540,4.28905,3.05883
-434,484,-2.17548,-5.07245,0,0,0,0,0,0,0,-1,790,540,-2.17546,5.07243
-427,484,-3.29749,-10.7222,0,0,0,0,0,0,0,-1,797,540,-3.29746,10.7223
-420,484,-3.31488,-11.5637,0,0,0,0,0,0,0,-1,804,540,-3.31485,11.5637
-413,484,-3.28247,-12.2162,-0.000154942,0.00859739,-0.00419913,0.0102862,-0.00184372,-1.18842,0.00754746,0.0316469,811,540,-3.28249,12.2162
-406,484,-3.32861,-12.8283,0.000314103,0.00718321,-0.00389129,0.00893886,-0.00144155,-1.14696,0.00649332,0.0163315,818,540,-3.32864,12.8283
-399,484,-3.38922,-13.3459,0.00053875,0.00585391,-0.00344332,0.00754595,-0.00115329,-1.11405,0.00545585,0.0160005,825,540,-3.38919,13.3459
-392,484,-3.42139,-13.86,0.0007374,0.0045589,-0.00293217,0.00614795,-0.000851646,-1.07417,0.00441001,0.0185828,832,540,-3.42138,13.8601
-385,484,-3.453,-14.3789,0.00099342,0.00338881,-0.00241891,0.00489031,-0.000508073,-1.01527,0.00344208,0.0137854,839,540,-3.45303,14.3789
-378,484,-3.45813,-14.8658,0.00127297,0.00240563,-0.00196679,0.00388601,-0.000207405,-0.925579,0.0026625,0.0141844,846,540,-3.4581,14.8659
-371,484,-3.44934,-15.3696,0.00143869,0.00138662,-0.00145808,0.00287097,-4.56586e-05,-0.776471,0.00192938,0.0147025,853,540,-3.44935,15.3696
-364,484,-3.46063,-15.8568,0.00156027,0.000431725,-0.000905608,0.00206302,-7.10209e-05,-0.506787,0.00139962,0.0109053,860,540,-3.46061,15.8568
-357,484,-3.4906,-16.3254,0.00179896,-0.00029087,-0.000444444,0.00188955,-0.000381463,-0.201079,0.00140423,0.0129417,867,540,-3.49059,16.3255
-350,484,-3.51337,-16.787,0.00215367,-0.000851303,-0.000142709,0.00216044,-0.000858065,-0.0473488,0.00179599,0.0151196,874,540,-3.51334,16.7871
-343,484,-3.51862,-17.2855,0.00252563,-0.00133861,0.000104688,0.00252847,-0.00134144,0.0270651,0.00226906,0.022323,881,540,-3.5186,17.2854
-336,484,-3.50934,-17.7815,0.00294448,-0.00174375,0.000326519,0.00296711,-0.00176638,0.0692013,0.00276204,0.0251369,888,540,-3.50932,17.7815
-329,484,-3.48822,-18.2208,0.00349148,-0.00189124,0.000346906,0.00351374,-0.00191351,0.0640947,0.0031785,0.0357177,895,540,-3.48819,18.2208
-322,484,-3.44537,-18.7789,0,0,0,0,0,0,0,-1,902,540,-3.44537,18.7789
-315,484,-3.40479,-19.2064,0,0,0,0,0,0,0,-1,909,540,-3.4048,19.2064
-308,484,-1.32623,-8.9317,0,0,0,0,0,0,0,-1,916,540,-1.32626,8.93173
-301,484,-1.33453,-6.52667,0,0,0,0,0,0,0,-1,923,540,-1.33454,6.5267
-294,484,-1.61224,-8.17059,0,0,0,0,0,0,0,-1,930,540,-1.61227,8.17058
-287,484,-0.715759,-5.62103,0,0,0,0,0,0,0,-1,937,540,-0.715772,5.62105
-280,484,2.66742,-1.6795,0,0,0,0,0,0,0,-1,944,540,2.6674,1.67949
-273,484,2.53125,-2.22296,0,0,0,0,0,0,0,-1,951,540,2.53128,2.22295
-266,484,2.6778,-2.72058,0,0,0,0,0,0,0,-1,958,540,2.6778,2.72061
-259,484,2.41718,-2.59894,0,0,0,0,0,0,0,-1,965,540,2.41717,2.59892
-252,484,10.6069,-11.696,0,0,0,0,0,0,0,-1,972,540,10.6069,11.696
-245,484,6.34106,-11.6107,0,0,0,0,0,0,0,-1,979,540,6.34104,11.6107
-238,484,4.89319,-8.54059,0,0,0,0,0,0,0,-1,986,540,4.89321,8.5406
-231,484,3.47675,-5.22064,0,0,0,0,0,0,0,-1,993,540,3.47676,5.22067
-224,484,1.71344,-2.03473,0,0,0,0,0,0,0,-1,1000,540,1.71342,2.03472
-217,484,-0.745056,1.17358,0,0,0,0,0,0,0,-1,1007,540,-0.745043,-1.17359
-210,484,0,0,0,0,0,0,0,0,0,-1,1014,540,0,0
-203,484,0,0,0,0,0,0,0,0,0,-1,1021,540,0,0
-196,484,0,0,0,0,0,0,0,0,0,-1,1028,540,0,0
-189,484,0,0,0,0,0,0,0,0,0,-1,1035,540,0,0
-182,484,0,0,0,0,0,0,0,0,0,-1,1042,540,0,0
-175,484,0,0,0,0,0,0,0,0,0,-1,1049,540,0,0
-168,484,0,0,0,0,0,0,0,0,0,-1,1056,540,0,0
-161,484,0,0,0,0,0,0,0,0,0,-1,1063,540,0,0
-154,484,0,0,0,0,0,0,0,0,0,-1,1070,540,0,0
-147,484,0,0,0,0,0,0,0,0,0,-1,1077,540,0,0
-140,484,0,0,0,0,0,0,0,0,0,-1,1084,540,0,0
-133,484,0,0,0,0,0,0,0,0,0,-1,1091,540,0,0
-126,484,0,0,0,0,0,0,0,0,0,-1,1098,540,0,0
-119,484,0,0,0,0,0,0,0,0,0,-1,1105,540,0,0
-112,484,0,0,0,0,0,0,0,0,0,-1,1112,540,0,0
-105,484,0,0,0,0,0,0,0,0,0,-1,1119,540,0,0
-98,484,0,0,0,0,0,0,0,0,0,-1,1126,540,0,0
-91,484,0,0,0,0,0,0,0,0,0,-1,1133,540,0,0
-84,484,0,0,0,0,0,0,0,0,0,-1,1140,540,0,0
-77,484,0,0,0,0,0,0,0,0,0,-1,1147,540,0,0
-70,484,0,0,0,0,0,0,0,0,0,-1,1154,540,0,0
-63,484,0,0,0,0,0,0,0,0,0,-1,1161,540,0,0
-56,484,0,0,0,0,0,0,0,0,0,-1,1168,540,0,0
-49,484,0,0,0,0,0,0,0,0,0,-1,1175,540,0,0
-42,484,0,0,0,0,0,0,0,0,0,-1,1182,540,0,0
-35,484,0,0,0,0,0,0,0,0,0,-1,1189,540,0,0
-28,484,0,0,0,0,0,0,0,0,0,-1,1196,540,0,0
-21,484,0,0,0,0,0,0,0,0,0,-1,1203,540,0,0
-14,484,0,0,0,0,0,0,0,0,0,-1,1210,540,0,0
-7,484,0,0,0,0,0,0,0,0,0,-1,1217,540,0,0
0,484,0,0,0,0,0,0,0,0,0,-1,1224,540,0,0
7,484,0,0,0,0,0,0,0,0,0,-1,1231,540,0,0
14,484,0,0,0,0,0,0,0,0,0,-1,1238,540,0,0
21,484,0,0,0,0,0,0,0,0,0,-1,1245,540,0,0
28,484,0,0,0,0,0,0,0,0,0,-1,1252,540,0,0
35,484,0,0,0,0,0,0,0,0,0,-1,1259,540,0,0
42,484,0,0,0,0,0,0,0,0,0,-1,1266,540,0,0
49,484,0,0,0,0,0,0,0,0,0,-1,1273,540,0,0
56,484,0,0,0,0,0,0,0,0,0,-1,1280,540,0,0
63,484,0,0,0,0,0,0,0,0,0,-1,1287,540,0,0
70,484,0,0,0,0,0,0,0,0,0,-1,1294,540,0,0
77,484,0,0,0,0,0,0,0,0,0,-1,1301,540,0,0
84,484,0,0,0,0,0,0,0,0,0,-1,1308,540,0,0
91,484,0,0,0,0,0,0,0,0,0,-1,1315,540,0,0
98,484,0,0,0,0,0,0,0,0,0,-1,1322,540,0,0
105,484,0,0,0,0,0,0,0,0,0,-1,1329,540,0,0
112,484,0,0,0,0,0,0,0,0,0,-1,1336,540,0,0
119,484,0,0,0,0,0,0,0,0,0,-1,1343,540,0,0
126,484,0,0,0,0,0,0,0,0,0,-1,1350,540,0,0
133,484,0,0,0,0,0,0,0,0,0,-1,1357,540,0,0
140,484,0,0,0,0,0,0,0,0,0,-1,1364,540,0,0
147,484,0,0,0,0,0,0,0,0,0,-1,1371,540,0,0
154,484,0,0,0,0,0,0,0,0,0,-1,1378,540,0,0
161,484,0,0,0,0,0,0,0,0,0,-1,1385,540,0,0
168,484,0,0,0,0,0,0,0,0,0,-1,1392,540,0,0
175,484,0,0,0,0,0,0,0,0,0,-1,1399,540,0,0
182,484,0,0,0,0,0,0,0,0,0,-1,1406,540,0,0
189,484,0,0,0,0,0,0,0,0,0,-1,1413,540,0,0
196,484,0,0,0,0,0,0,0,0,0,-1,1420,540,0,0
203,484,0,0,0,0,0,0,0,0,0,-1,1427,540,0,0
210,484,0,0,0,0,0,0,0,0,0,-1,1434,540,0,0
217,484,0,0,0,0,0,0,0,0,0,-1,1441,540,0,0
224,484,0,0,0,0,0,0,0,0,0,-1,1448,540,0,0
231,484,0,0,0,0,0,0,0,0,0,-1,1455,540,0,0
238,484,0,0,0,0,0,0,0,0,0,-1,1462,540,0,0
245,484,0,0,0,0,0,0,0,0,0,-1,1469,540,0,0
252,484,0,0,0,0,0,0,0,0,0,-1,1476,540,0,0
259,484,0,0,0,0,0,0,0,0,0,-1,1483,540,0,0
266,484,0,0,0,0,0,0,0,0,0,-1,1490,540,0,0
273,484,0,0,0,0,0,0,0,0,0,-1,1497,540,0,0
280,484,0,0,0,0,0,0,0,0,0,-1,1504,540,0,0
287,484,0,0,0,0,0,0,0,0,0,-1,1511,540,0,0
294,484,0,0,0,0,0,0,0,0,0,-1,1518,540,0,0
301,484,0,0,0,0,0,0,0,0,0,-1,1525,540,0,0
308,484,0,0,0,0,0,0,0,0,0,-1,1532,540,0,0
315,484,0,0,0,0,0,0,0,0,0,-1,1539,540,0,0
322,484,0,0,0,0,0,0,0,0,0,-1,1546,540,0,0
329,484,0,0,0,0,0,0,0,0,0,-1,1553,540,0,0
336,484,4.38708,-1.64136,0,0,0,0,0,0,0,-1,1560,540,4.38704,1.64138
343,484,7.57996,-1.05457,0,0,0,0,0,0,0,-1,1567,540,7.57995,1.05454
350,484,8.10425,-1.18878,0,0,0,0,0,0,0,-1,1574,540,8.1043,1.18877
357,484,7.74902,-3.80286,0,0,0,0,0,0,0,-1,1581,540,7.74901,3.80287
364,484,6.31262,-3.87213,0,0,0,0,0,0,0,-1,1588,540,6.31263,3.87215
371,484,7.21008,0.973511,0,0,0,0,0,0,0,-1,1595,540,7.21014,-0.973541
378,484,11.0563,1.5014,0,0,0,0,0,0,0,-1,1602,540,11.0563,-1.5014
385,484,14.3469,2.5545,0,0,0,0,0,0,0,-1,1609,540,14.3469,-2.55453
392,484,7.39453,-4.95026,0,0,0,0,0,0,0,-1,1616,540,7.39448,4.95023
399,484,7.14417,-2.5639,0,0,0,0,0,0,0,-1,1623,540,7.14417,2.56391
406,484,7.88953,-2.47321,0,0,0,0,0,0,0,-1,1630,540,7.88954,2.47323
413,484,4.4895,-1.08673,0,0,0,0,0,0,0,-1,1637,540,4.48952,1.08674
420,484,4.50012,-2.11255,0,0,0,0,0,0,0,-1,1644,540,4.50012,2.11256
427,484,5.28601,-3.54053,0,0,0,0,0,0,0,-1,1651,540,5.28599,3.54051
434,484,11.1488,-13.5359,0,0,0,0,0,0,0,-1,1658,540,11.1489,13.5359
441,484,12.8928,-17.3393,0,0,0,0,0,0,0,-1,1665,540,12.8928,17.3393
448,484,12.8792,-17.6303,0,0,0,0,0,0,0,-1,1672,540,12.8791,17.6303
455,484,12.923,-17.0981,0,0,0,0,0,0,0,-1,1679,540,12.923,17.0982
462,484,12.9355,-16.5417,0.00214259,-0.000287332,-0.00131335,0.00271677,-0.000861506,-0.412146,0.00215649,0.021109,1686,540,12.9355,16.5418
469,484,12.9469,-16.0472,0.00236947,0.000397546,-0.000641208,0.00255963,0.000207384,-0.288307,0.00164166,0.0168783,1693,540,12.9469,16.0472
476,484,12.9241,-15.5337,0.00230672,0.000699007,-0.000179032,0.00232641,0.000679311,-0.10957,0.00138135,0.0157915,1700,540,12.9241,15.5337
483,484,12.9115,-15.0406,0.002029,0.000666487,0.000112302,0.0020382,0.000657293,0.0816877,0.00120122,0.0130465,1707,540,12.9115,15.0407
490,484,12.8982,-14.5552,0.00151857,0.000548666,0.000237793,0.00157373,0.000493503,0.227946,0.000929407,0.0131377,1714,540,12.8982,14.5552
497,484,12.8839,-14.0509,0.000883015,0.000442701,0.000381341,0.00110319,0.000222528,0.523609,0.000673647,0.0142651,1721,540,12.884,14.0509
504,484,12.8746,-13.5247,5.42897e-05,-0.000128869,0.000301874,0.00027817,-0.000352749,0.638126,0.000365109,0.0150055,1728,540,12.8747,13.5246
511,484,12.8778,-12.9824,-0.00101687,-0.000763018,5.972e-05,-0.00074967,-0.00103021,1.3509,0.000615007,0.0174648,1735,540,12.8778,12.9824
518,484,12.8496,-12.4761,-0.00232723,-0.00140508,-0.000325169,-0.00130195,-0.00243036,-1.26368,0.00140436,0.0151651,1742,540,12.8496,12.4761
525,484,12.8357,-11.95,-0.00368836,-0.00220708,-0.000822806,-0.00184067,-0.00405477,-1.15184,0.00234433,0.013058,1749,540,12.8357,11.95
532,484,12.8345,-11.3929,-0.00511651,-0.00290141,-0.00135278,-0.00226062,-0.0057573,-1.12842,0.00334942,0.0147148,1756,540,12.8344,11.3929
539,484,12.7853,-10.8242,-0.00666047,-0.0035829,-0.00197384,-0.0026189,-0.00762446,-1.11648,0.00447329,0.0351705,1763,540,12.7853,10.8241
546,484,12.7815,-10.2643,0,0,0,0,0,0,0,-1,1770,540,12.7815,10.2643
553,484,12.4246,-8.96423,0,0,0,0,0,0,0,-1,1777,540,12.4246,8.96422
560,484,10.0549,-5.47931,0,0,0,0,0,0,0,-1,1784,540,10.055,5.47928
567,484,7.78223,-1.38312,0,0,0,0,0,0,0,-1,1791,540,7.78224,1.38311
574,484,5.74463,1.50922,0,0,0,0,0,0,0,-1,1798,540,5.74463,-1.50924
581,484,10.34,2.9491,0,0,0,0,0,0,0,-1,1805,540,10.34,-2.94912
588,484,10.6669,2.88568,0,0,0,0,0,0,0,-1,1812,540,10.6669,-2.88567
595,484,10.7233,1.04767,0,0,0,0,0,0,0,-1,1819,540,10.7233,-1.04766
602,484,0,0,0,0,0,0,0,0,0,-1,1826,540,0,0
609,484,0,0,0,0,0,0,0,0,0,-1,1833,540,0,0
616,484,0,0,0,0,0,0,0,0,0,-1,1840,540,0,0
623,484,0,0,0,0,0,0,0,0,0,-1,1847,540,0,0
630,484,0,0,0,0,0,0,0,0,0,-1,1854,540,0,0
637,484,0,0,0,0,0,0,0,0,0,-1,1861,540,0,0
644,484,0,0,0,0,0,0,0,0,0,-1,1868,540,0,0
651,484,0,0,0,0,0,0,0,0,0,-1,1875,540,0,0
658,484,0,0,0,0,0,0,0,0,0,-1,1882,540,0,0
665,484,0,0,0,0,0,0,0,0,0,-1,1889,540,0,0
672,484,0,0,0,0,0,0,0,0,0,-1,1896,540,0,0
679,484,0,0,0,0,0,0,0,0,0,-1,1903,540,0,0
686,484,0,0,0,0,0,0,0,0,0,-1,1910,540,0,0
693,484,0,0,0,0,0,0,0,0,0,-1,1917,540,0,0
700,484,0,0,0,0,0,0,0,0,0,-1,1924,540,0,0
707,484,0,0,0,0,0,0,0,0,0,-1,1931,540,0,0
714,484,0,0,0,0,0,0,0,0,0,-1,1938,540,0,0
721,484,0,0,0,0,0,0,0,0,0,-1,1945,540,0,0
728,484,0,0,0,0,0,0,0,0,0,-1,1952,540,0,0
735,484,0,0,0,0,0,0,0,0,0,-1,1959,540,0,0
742,484,0,0,0,0,0,0,0,0,0,-1,1966,540,0,0
749,484,0,0,0,0,0,0,0,0,0,-1,1973,540,0,0
756,484,0,0,0,0,0,0,0,0,0,-1,1980,540,0,0
763,484,0,0,0,0,0,0,0,0,0,-1,1987,540,0,0
770,484,0,0,0,0,0,0,0,0,0,-1,1994,540,0,0
777,484,0,0,0,0,0,0,0,0,0,-1,2001,540,0,0
784,484,0,0,0,0,0,0,0,0,0,-1,2008,540,0,0
791,484,0,0,0,0,0,0,0,0,0,-1,2015,540,0,0
798,484,0,0,0,0,0,0,0,0,0,-1,2022,540,0,0
805,484,0,0,0,0,0,0,0,0,0,-1,2029,540,0,0
812,484,0,0,0,0,0,0,0,0,0,-1,2036,540,0,0
-700,477,0,0,0,0,0,0,0,0,0,-1,524,547,0,0
-693,477,0,0,0,0,0,0,0,0,0,-1,531,547,0,0
-686,477,0,0,0,0,0,0,0,0,0,-1,538,547,0,0
-679,477,0,0,0,0,0,0,0,0,0,-1,545,547,0,0
-672,477,0,0,0,0,0,0,0,0,0,-1,552,547,0,0
-665,477,0,0,0,0,0,0,0,0,0,-1,559,547,0,0
-658,477,0,0,0,0,0,0,0,0,0,-1,566,547,0,0
-651,477,0,0,0,0,0,0,0,0,0,-1,573,547,0,0
-644,477,0,0,0,0,0,0,0,0,0,-1,580,547,0,0
-637,477,0,0,0,0,0,0,0,0,0,-1,587,547,0,0
-630,477,0,0,0,0,0,0,0,0,0,-1,594,547,0,0
-623,477,0,0,0,0,0,0,0,0,0,-1,601,547,0,0
-616,477,0,0,0,0,0,0,0,0,0,-1,608,547,0,0
-609,477,0,0,0,0,0,0,0,0,0,-1,615,547,0,0
-602,477,0,0,0,0,0,0,0,0,0,-1,622,547,0,0
-595,477,0,0,0,0,0,0,0,0,0,-1,629,547,0,0
-588,477,0,0,0,0,0,0,0,0,0,-1,636,547,0,0
-581,477,0,0,0,0,0,0,0,0,0,-1,643,547,0,0
-574,477,0,0,0,0,0,0,0,0,0,-1,650,547,0,0
-567,477,0,0,0,0,0,0,0,0,0,-1,657,547,0,0
-560,477,0,0,0,0,0,0,0,0,0,-1,664,547,0,0
-553,477,0,0,0,0,0,0,0,0,0,-1,671,547,0,0
-546,477,0,0,0,0,0,0,0,0,0,-1,678,547,0,0
-539,477,0,0,0,0,0,0,0,0,0,-1,685,547,0,0
-532,477,0,0,0,0,0,0,0,0,0,-1,692,547,0,0
-525,477,0,0,0,0,0,0,0,0,0,-1,699,547,0,0
-518,477,0,0,0,0,0,0,0,0,0,-1,706,547,0,0
-511,477,0,0,0,0,0,0,0,0,0,-1,713,547,0,0
-504,477,0,0,0,0,0,0,0,0,0,-1,720,547,0,0
-497,477,0,0,0,0,0,0,0,0,0,-1,727,547,0,0
-490,477,0,0,0,0,0,0,0,0,0,-1,734,547,0,0
-483,477,-7.73151,-0.224182,0,0,0,0,0,0,0,-1,741,547,-7.73152,0.224176
-476,477,-6.25806,-0.310547,0,0,0,0,0,0,0,-1,748,547,-6.25804,0.310549
-469,477,-7.26617,0.525085,0,0,0,0,0,0,0,-1,755,547,-7.2662,-0.525111
-462,477,-6.65143,1.06042,0,0,0,0,0,0,0,-1,762,547,-6.65143,-1.06043
-455,477,-5.31757,0.429016,0,0,0,0,0,0,0,-1,769,547,-5.31756,-0.42902
-448,477,-4.0697,0.273376,0,0,0,0,0,0,0,-1,776,547,-4.06971,-0.273363
-441,477,-2.47504,-4.76971,0,0,0,0,0,0,0,-1,783,547,-2.47505,4.76973
-434,477,-3.53619,-10.8141,0,0,0,0,0,0,0,-1,790,547,-3.53619,10.8141
-427,477,-3.7829,-11.0593,-0.00160162,0.0100355,-0.00369624,0.0111103,-0.00267638,-1.28783,0.00844159,0.0405547,797,547,-3.78292,11.0593
-420,477,-3.85272,-11.4823,-0.000938598,0.00835857,-0.00349674,0.0095269,-0.00210693,-1.24834,0.0071577,0.0336539,804,547,-3.85272,11.4823
-413,477,-3.83246,-12.2164,-0.00040182,0.00677216,-0.00320887,0.00799801,-0.00162766,-1.20589,0.00594925,0.0201096,811,547,-3.83243,12.2165
-406,477,-3.8761,-12.8017,4.82711e-05,0.00557389,-0.00292721,0.00683621,-0.00121405,-1.16365,0.00501142,0.0113142,818,547,-3.87608,12.8017
-399,477,-3.88696,-13.3107,0.000322407,0.00442576,-0.00253737,0.00563716,-0.000888988,-1.12537,0.00408679,0.0183273,825,547,-3.88697,13.3107
-392,477,-3.9104,-13.8421,0.000601367,0.00328708,-0.00210996,0.00444526,-0.000556819,-1.06879,0.00316548,0.0174047,832,547,-3.91043,13.8421
-385,477,-3.91467,-14.3416,0.000945462,0.00227153,-0.00168848,0.00342249,-0.000205496,-0.972489,0.00235315,0.014903,839,547,-3.91468,14.3416
-378,477,-3.94586,-14.8484,0.00130482,0.00140389,-0.00130054,0.00265584,5.28735e-05,-0.804432,0.0017532,0.0130746,846,547,-3.94585,14.8484
-371,477,-3.94617,-15.3219,0.00156597,0.00050442,-0.00085317,0.00203999,3.03949e-05,-0.507136,0.00134998,0.0128533,853,547,-3.94616,15.3219
-364,477,-3.95276,-15.798,0.00180686,-0.000333401,-0.000371213,0.00186942,-0.000395957,-0.166949,0.00139709,0.0131575,860,547,-3.95277,15.7981
-357,477,-3.9859,-16.293,0.00218726,-0.000985742,2.27883e-05,0.00218742,-0.000985905,0.00718145,0.00187538,0.0114473,867,547,-3.98587,16.293
-350,477,-4.02209,-16.7643,0.00269708,-0.00149893,0.000251586,0.00271211,-0.00151396,0.0596735,0.00247239,0.0102726,874,547,-4.02211,16.7643
-343,477,-3.97333,-17.2773,0.0032813,-0.00190109,0.000399878,0.00331198,-0.00193176,0.0765569,0.00306223,0.0188274,881,547,-3.97331,17.2773
-336,477,-3.90906,-17.7836,0.00389478,-0.00223898,0.000538819,0.00394176,-0.00228596,0.0869572,0.00363769,0.0369414,888,547,-3.90907,17.7836
-329,477,-3.8714,-18.3023,0,0,0,0,0,0,0,-1,895,547,-3.87143,18.3023
-322,477,-2.04822,-12.0026,0,0,0,0,0,0,0,-1,902,547,-2.04819,12.0026
-315,477,-1.67358,-9.15253,0,0,0,0,0,0,0,-1,909,547,-1.67356,9.15253
-308,477,-1.30127,-6.55188,0,0,0,0,0,0,0,-1,916,547,-1.30128,6.55185
-301,477,-1.21185,-6.28351,0,0,0,0,0,0,0,-1,923,547,-1.21184,6.28352
-294,477,-0.352905,3.27142,0,0,0,0,0,0,0,-1,930,547,-0.35292,-3.27144
-287,477,3.54364,2.15399,0,0,0,0,0,0,0,-1,937,547,3.54362,-2.15396
-280,477,1.97308,-0.954163,0,0,0,0,0,0,0,-1,944,547,1.9731,0.954178
-273,477,2.11621,-3.76709,0,0,0,0,0,0,0,-1,951,547,2.11619,3.76706
-266,477,2.04669,-3.42389,0,0,0,0,0,0,0,-1,958,547,2.04671,3.42391
-259,477,-1.33478,-3.41205,0,0,0,0,0,0,0,-1,965,547,-1.3348,3.41206
-252,477,0.597168,-5.32922,0,0,0,0,0,0,0,-1,972,547,0.597144,5.32924
-245,477,8.2309,-8.48492,0,0,0,0,0,0,0,-1,979,547,8.23091,8.48494
-238,477,6.60938,-5.64063,0,0,0,0,0,0,0,-1,986,547,6.60938,5.64063
-231,477,4.71716,-2.52484,0,0,0,0,0,0,0,-1,993,547,4.71716,2.52483
-224,477,0,0,0,0,0,0,0,0,0,-1,1000,547,0,0
-217,477,0,0,0,0,0,0,0,0,0,-1,1007,547,0,0
-210,477,0,0,0,0,0,0,0,0,0,-1,1014,547,0,0
-203,477,0,0,0,0,0,0,0,0,0,-1,1021,547,0,0
-196,477,0,0,0,0,0,0,0,0,0,-1,1028,547,0,0
-189,477,0,0,0,0,0,0,0,0,0,-1,1035,547,0,0
-182,477,0,0,0,0,0,0,0,0,0,-1,1042,547,0,0
-175,477,0,0,0,0,0,0,0,0,0,-1,1049,547,0,0
-168,477,0,0,0,0,0,0,0,0,0,-1,1056,547,0,0
-161,477,0,0,0,0,0,0,0,0,0,-1,1063,547,0,0
-154,477,0,0,0,0,0,0,0,0,0,-1,1070,547,0,0
-147,477,0,0,0,0,0,0,0,0,0,-1,1077,547,0,0
-140,477,0,0,0,0,0,0,0,0,0,-1,1084,547,0,0
-133,477,0,0,0,0,0,0,0,0,0,-1,1091,547,0,0
-126,477,0,0,0,0,0,0,0,0,0,-1,1098,547,0,0
-119,477,0,0,0,0,0,0,0,0,0,-1,1105,547,0,0
-112,477,0,0,0,0,0,0,0,0,0,-1,1112,547,0,0
-105,477,0,0,0,0,0,0,0,0,0,-1,1119,547,0,0
-98,477,0,0,0,0,0,0,0,0,0,-1,1126,547,0,0
-91,477,0,0,0,0,0,0,0,0,0,-1,1133,547,0,0
-84,477,0,0,0,0,0,0,0,0,0,-1,1140,547,0,0
-77,477,0,0,0,0,0,0,0,0,0,-1,1147,547,0,0
-70,477,0,0,0,0,0,0,0,0,0,-1,1154,547,0,0
-63,477,0,0,0,0,0,0,0,0,0,-1,1161,547,0,0
-56,477,0,0,0,0,0,0,0,0,0,-1,1168,547,0,0
-49,477,0,0,0,0,0,0,0,0,0,-1,1175,547,0,0
-42,477,0,0,0,0,0,0,0,0,0,-1,1182,547,0,0
-35,477,0,0,0,0,0,0,0,0,0,-1,1189,547,0,0
-28,477,0,0,0,0,0,0,0,0,0,-1,1196,547,0,0
-21,477,0,0,0,0,0,0,0,0,0,-1,1203,547,0,0
-14,477,0,0,0,0,0,0,0,0,0,-1,1210,547,0,0
-7,477,0,0,0,0,0,0,0,0,0,-1,1217,547,0,0
0,477,0,0,0,0,0,0,0,0,0,-1,1224,547,0,0
7,477,0,0,0,0,0,0,0,0,0,-1,1231,547,0,0
14,477,0,0,0,0,0,0,0,0,0,-1,1238,547,0,0
21,477,0,0,0,0,0,0,0,0,0,-1,1245,547,0,0
28,477,0,0,0,0,0,0,0,0,0,-1,1252,547,0,0
35,477,0,0,0,0,0,0,0,0,0,-1,1259,547,0,0
42,477,0,0,0,0,0,0,0,0,0,-1,1266,547,0,0
49,477,0,0,0,0,0,0,0,0,0,-1,1273,547,0,0
56,477,0,0,0,0,0,0,0,0,0,-1,1280,547,0,0
63,477,0,0,0,0,0,0,0,0,0,-1,1287,547,0,0
70,477,0,0,0,0,0,0,0,0,0,-1,1294,547,0,0
77,477,0,0,0,0,0,0,0,0,0,-1,1301,547,0,0
84,477,0,0,0,0,0,0,0,0,0,-1,1308,547,0,0
91,477,0,0,0,0,0,0,0,0,0,-1,1315,547,0,0
98,477,0,0,0,0,0,0,0,0,0,-1,1322,547,0,0
105,477,0,0,0,0,0,0,0,0,0,-1,1329,547,0,0
112,477,0,0,0,0,0,0,0,0,0,-1,1336,547,0,0
119,477,0,0,0,0,0,0,0,0,0,-1,1343,547,0,0
126,477,0,0,0,0,0,0,0,0,0,-1,1350,547,0,0
133,477,0,0,0,0,0,0,0,0,0,-1,1357,547,0,0
140,477,0,0,0,0,0,0,0,0,0,-1,1364,547,0,0
147,477,0,0,0,0,0,0,0,0,0,-1,1371,547,0,0
154,477,0,0,0,0,0,0,0,0,0,-1,1378,547,0,0
161,477,0,0,0,0,0,0,0,0,0,-1,1385,547,0,0
168,477,0,0,0,0,0,0,0,0,0,-1,1392,547,0,0
175,477,0,0,0,0,0,0,0,0,0,-1,1399,547,0,0
182,477,0,0,0,0,0,0,0,0,0,-1,1406,547,0,0
189,477,0,0,0,0,0,0,0,0,0,-1,1413,547,0,0
196,477,0,0,0,0,0,0,0,0,0,-1,1420,547,0,0
203,477,0,0,0,0,0,0,0,0,0,-1,1427,547,0,0
210,477,0,0,0,0,0,0,0,0,0,-1,1434,547,0,0
217,477,0,0,0,0,0,0,0,0,0,-1,1441,547,0,0
224,477,0,0,0,0,0,0,0,0,0,-1,1448,547,0,0
231,477,0,0,0,0,0,0,0,0,0,-1,1455,547,0,0
238,477,0,0,0,0,0,0,0,0,0,-1,1462,547,0,0
245,477,0,0,0,0,0,0,0,0,0,-1,1469,547,0,0
252,477,0,0,0,0,0,0,0,0,0,-1,1476,547,0,0
259,477,0,0,0,0,0,0,0,0,0,-1,1483,547,0,0
266,477,0,0,0,0,0,0,0,0,0,-1,1490,547,0,0
273,477,0,0,0,0,0,0,0,0,0,-1,1497,547,0,0
280,477,0,0,0,0,0,0,0,0,0,-1,1504,547,0,0
287,477,0,0,0,0,0,0,0,0,0,-1,1511,547,0,0
294,477,0,0,0,0,0,0,0,0,0,-1,1518,547,0,0
301,477,0,0,0,0,0,0,0,0,0,-1,1525,547,0,0
308,477,0,0,0,0,0,0,0,0,0,-1,1532,547,0,0
315,477,0,0,0,0,0,0,0,0,0,-1,1539,547,0,0
322,477,0,0,0,0,0,0,0,0,0,-1,1546,547,0,0
329,477,0,0,0,0,0,0,0,0,0,-1,1553,547,0,0
336,477,0,0,0,0,0,0,0,0,0,-1,1560,547,0,0
343,477,0,0,0,0,0,0,0,0,0,-1,1567,547,0,0
350,477,1.7699,-3.32275,0,0,0,0,0,0,0,-1,1574,547,1.7699,3.32272
357,477,3.073,-4.83313,0,0,0,0,0,0,0,-1,1581,547,3.07303,4.83316
364,477,4.30127,-4.22864,0,0,0,0,0,0,0,-1,1588,547,4.30125,4.22865
371,477,4.57703,0.283264,0,0,0,0,0,0,0,-1,1595,547,4.57706,-0.283262
378,477,8.57947,1.05969,0,0,0,0,0,0,0,-1,1602,547,8.5795,-1.05972
385,477,12.3726,2.02356,0,0,0,0,0,0,0,-1,1609,547,12.3725,-2.02355
392,477,16.4678,2.76843,0,0,0,0,0,0,0,-1,1616,547,16.4678,-2.76845
399,477,8.00037,-2.29523,0,0,0,0,0,0,0,-1,1623,547,8.00031,2.2952
406,477,4.82495,2.7475,0,0,0,0,0,0,0,-1,1630,547,4.825,-2.74752
413,477,4.88171,-0.336426,0,0,0,0,0,0,0,-1,1637,547,4.88169,0.336398
420,477,3.34875,0.102722,0,0,0,0,0,0,0,-1,1644,547,3.34871,-0.1027
427,477,1.66772,-0.373108,0,0,0,0,0,0,0,-1,1651,547,1.66768,0.373104
434,477,3.76978,-2.30798,0,0,0,0,0,0,0,-1,1658,547,3.76974,2.30801
441,477,4.05444,-2.80402,0,0,0,0,0,0,0,-1,1665,547,4.05444,2.804
448,477,10.4247,-11.7421,0,0,0,0,0,0,0,-1,1672,547,10.4247,11.7421
455,477,13.3054,-16.8109,0,0,0,0,0,0,0,-1,1679,547,13.3054,16.8109
462,477,13.4041,-16.7207,0,0,0,0,0,0,0,-1,1686,547,13.4041,16.7207
469,477,13.4781,-16.0107,0.00306896,0.000311793,-0.000848837,0.00330934,7.14215e-05,-0.275953,0.00218281,0.0378801,1693,547,13.4782,16.0107
476,477,13.4409,-15.5472,0.00307942,0.000867048,-0.000249384,0.00310718,0.000839286,-0.110869,0.00185606,0.0209811,1700,547,13.4409,15.5472
483,477,13.4419,-15.0325,0.00284943,0.000970665,0.000157649,0.00286256,0.000957528,0.0831366,0.00168261,0.012986,1707,547,13.4419,15.0325
490,477,13.3999,-14.5305,0.00237417,0.00103012,0.000356486,0.00246287,0.000941425,0.243861,0.00143502,0.0120854,1714,547,13.3998,14.5304
497,477,13.3845,-14.0074,0.00179405,0.00110372,0.000586626,0.00212952,0.000768247,0.519478,0.00124527,0.0134032,1721,547,13.3845,14.0074
504,477,13.3875,-13.4916,0.00105276,0.000656819,0.000570948,0.00145909,0.000250494,0.618513,0.000900911,0.0177092,1728,547,13.3874,13.4915
511,477,13.4233,-12.9751,0.000111939,0.000157004,0.000404602,0.000539701,-0.000270757,0.813215,0.000476429,0.0225021,1735,547,13.4233,12.9751
518,477,13.3999,-12.4485,-0.00102249,-0.000343455,0.000116123,-0.000324146,-0.0010418,1.40602,0.000615618,0.0201197,1742,547,13.3998,12.4485
525,477,13.3597,-11.9169,-0.00216928,-0.000983215,-0.000260134,-0.00092867,-0.00222383,-1.36411,0.00128973,0.0164008,1749,547,13.3598,11.9168
532,477,13.3137,-11.3905,-0.00336543,-0.00151539,-0.000662871,-0.0013024,-0.00357842,-1.25991,0.00209133,0.0185459,1756,547,13.3137,11.3905
539,477,13.2979,-10.7869,-0.00463374,-0.00205385,-0.00112354,-0.00163315,-0.00505444,-1.21252,0.00297843,0.0165965,1763,547,13.2979,10.7869
546,477,13.2465,-10.3022,-0.00605177,-0.00255419,-0.00165032,-0.00189843,-0.00670752,-1.19258,0.00399228,0.0354128,1770,547,13.2465,10.3023
553,477,13.2655,-9.48352,0,0,0,0,0,0,0,-1,1777,547,13.2654,9.4835
560,477,13.2158,-8.64343,0,0,0,0,0,0,0,-1,1784,547,13.2158,8.6434
567,477,13.3196,-8.30426,0,0,0,0,0,0,0,-1,1791,547,13.3195,8.30424
574,477,6.82593,-0.916992,0,0,0,0,0,0,0,-1,1798,547,6.82598,0.916977
581,477,9.29321,-0.557007,0,0,0,0,0,0,0,-1,1805,547,9.29324,0.55703
588,477,9.75195,0.422729,0,0,0,0,0,0,0,-1,1812,547,9.75198,-0.42273
595,477,9.89172,1.21326,0,0,0,0,0,0,0,-1,1819,547,9.89174,-1.21328
602,477,6.5271,-0.964417,0,0,0,0,0,0,0,-1,1826,547,6.52706,0.964427
609,477,0,0,0,0,0,0,0,0,0,-1,1833,547,0,0
616,477,0,0,0,0,0,0,0,0,0,-1,1840,547,0,0
623,477,0,0,0,0,0,0,0,0,0,-1,1847,547,0,0
630,477,0,0,0,0,0,0,0,0,0,-1,1854,547,0,0
637,477,0,0,0,0,0,0,0,0,0,-1,1861,547,0,0
644,477,0,0,0,0,0,0,0,0,0,-1,1868,547,0,0
651,477,0,0,0,0,0,0,0,0,0,-1,1875,547,0,0
658,477,0,0,0,0,0,0,0,0,0,-1,1882,547,0,0
665,477,0,0,0,0,0,0,0,0,0,-1,1889,547,0,0
672,477,0,0,0,0,0,0,0,0,0,-1,1896,547,0,0
679,477,0,0,0,0,0,0,0,0,0,-1,1903,547,0,0
686,477,0,0,0,0,0,0,0,0,0,-1,1910,547,0,0
693,477,0,0,0,0,0,0,0,0,0,-1,1917,547,0,0
700,477,0,0,0,0,0,0,0,0,0,-1,1924,547,0,0
707,477,0,0,0,0,0,0,0,0,0,-1,1931,547,0,0
714,477,0,0,0,0,0,0,0,0,0,-1,1938,547,0,0
721,477,0,0,0,0,0,0,0,0,0,-1,1945,547,0,0
728,477,0,0,0,0,0,0,0,0,0,-1,1952,547,0,0
735,477,0,0,0,0,0,0,0,0,0,-1,1959,547,0,0
742,477,0,0,0,0,0,0,0,0,0,-1,1966,547,0,0
749,477,0,0,0,0,0,0,0,0,0,-1,1973,547,0,0
756,477,0,0,0,0,0,0,0,0,0,-1,1980,547,0,0
763,477,0,0,0,0,0,0,0,0,0,-1,1987,547,0,0
770,477,0,0,0,0,0,0,0,0,0,-1,1994,547,0,0
777,477,0,0,0,0,0,0,0,0,0,-1,2001,547,0,0
784,477,0,0,0,0,0,0,0,0,0,-1,2008,547,0,0
791,477,0,0,0,0,0,0,0,0,0,-1,2015,547,0,0
798,477,0,0,0,0,0,0,0,0,0,-1,2022,547,0,0
805,477,0,0,0,0,0,0,0,0,0,-1,2029,547,0,0
812,477,0,0,0,0,0,0,0,0,0,-1,2036,547,0,0
-700,470,0,0,0,0,0,0,0,0,0,-1,524,554,0,0
-693,470,0,0,0,0,0,0,0,0,0,-1,531,554,0,0
-686,470,0,0,0,0,0,0,0,0,0,-1,538,554,0,0
-679,470,0,0,0,0,0,0,0,0,0,-1,545,554,0,0
-672,470,0,0,0,0,0,0,0,0,0,-1,552,554,0,0
-665,470,0,0,0,0,0,0,0,0,0,-1,559,554,0,0
-658,470,0,0,0,0,0,0,0,0,0,-1,566,554,0,0
-651,470,0,0,0,0,0,0,0,0,0,-1,573,554,0,0
-644,470,0,0,0,0,0,0,0,0,0,-1,580,554,0,0
-637,470,0,0,0,0,0,0,0,0,0,-1,587,554,0,0
-630,470,0,0,0,0,0,0,0,0,0,-1,594,554,0,0
-623,470,0,0,0,0,0,0,0,0,0,-1,601,554,0,0
-616,470,0,0,0,0,0,0,0,0,0,-1,608,554,0,0
-609,470,0,0,0,0,0,0,0,0,0,-1,615,554,0,0
-602,470,0,0,0,0,0,0,0,0,0,-1,622,554,0,0
-595,470,0,0,0,0,0,0,0,0,0,-1,629,554,0,0
-588,470,0,0,0,0,0,0,0,0,0,-1,636,554,0,0
-581,470,0,0,0,0,0,0,0,0,0,-1,643,554,0,0
-574,470,0,0,0,0,0,0,0,0,0,-1,650,554,0,0
-567,470,0,0,0,0,0,0,0,0,0,-1,657,554,0,0
-560,470,0,0,0,0,0,0,0,0,0,-1,664,554,0,0
-553,470,0,0,0,0,0,0,0,0,0,-1,671,554,0,0
-546,470,0,0,0,0,0,0,0,0,0,-1,678,554,0,0
-539,470,0,0,0,0,0,0,0,0,0,-1,685,554,0,0
-532,470,0,0,0,0,0,0,0,0,0,-1,692,554,0,0
-525,470,0,0,0,0,0,0,0,0,0,-1,699,554,0,0
-518,470,0,0,0,0,0,0,0,0,0,-1,706,554,0,0
-511,470,0,0,0,0,0,0,0,0,0,-1,713,554,0,0
-504,470,0,0,0,0,0,0,0,0,0,-1,720,554,0,0
-497,470,0,0,0,0,0,0,0,0,0,-1,727,554,0,0
-490,470,-9.13263,-1.03125,0,0,0,0,0,0,0,-1,734,554,-9.1326,1.03127
-483,470,-7.68677,-1.03955,0,0,0,0,0,0,0,-1,741,554,-7.68678,1.03958
-476,470,-6.17969,-1.03394,0,0,0,0,0,0,0,-1,748,554,-6.17971,1.03395
-469,470,-6.23016,-0.651855,0,0,0,0,0,0,0,-1,755,554,-6.23014,0.651829
-462,470,-4.87915,-1.03705,0,0,0,0,0,0,0,-1,762,554,-4.87914,1.03702
-455,470,-4.14777,-1.37079,0,0,0,0,0,0,0,-1,769,554,-4.14779,1.37078
-448,470,-2.9314,-5.74518,0,0,0,0,0,0,0,-1,776,554,-2.93137,5.74518
-441,470,-4.06873,-10.1298,0,0,0,0,0,0,0,-1,783,554,-4.06875,10.1298
-434,470,-4.10815,-10.7537,-0.00202381,0.00954259,-0.00324537,0.010391,-0.00287219,-1.31511,0.0080572,0.0447753,790,554,-4.10816,10.7537
-427,470,-4.34613,-11.1788,-0.00136479,0.00801037,-0.00300272,0.00888963,-0.00224405,-1.28594,0.00679902,0.0202251,797,554,-4.34613,11.1788
-420,470,-4.32874,-11.7427,-0.000840792,0.00659584,-0.00273719,0.00749467,-0.00173963,-1.25351,0.00566606,0.0151769,804,554,-4.32873,11.7428
-413,470,-4.34241,-12.2922,-0.000428693,0.00519253,-0.00237402,0.00606098,-0.00129714,-1.2201,0.00453529,0.0135767,811,554,-4.34241,12.2923
-406,470,-4.36932,-12.7845,-7.22803e-05,0.00416238,-0.00205283,0.00499415,-0.000904048,-1.18583,0.00366811,0.0120138,818,554,-4.36935,12.7845
-399,470,-4.38751,-13.3046,0.000186746,0.00317631,-0.00167501,0.00392653,-0.00056347,-1.1497,0.00282431,0.0156666,825,554,-4.38751,13.3046
-392,470,-4.40161,-13.8306,0.000492134,0.00217569,-0.00128939,0.00287376,-0.000205929,-1.07459,0.00198804,0.0140334,832,554,-4.40161,13.8305
-385,470,-4.3924,-14.3129,0.0008856,0.00129566,-0.000930774,0.00204372,0.000137542,-0.893807,0.00131902,0.0112231,839,554,-4.3924,14.3129
-378,470,-4.40631,-14.8093,0.00130179,0.000525346,-0.000591869,0.0016214,0.000205736,-0.495135,0.0010193,0.0157877,846,554,-4.40632,14.8093
-371,470,-4.43475,-15.2941,0.00166344,-0.000252246,-0.0002148,0.00168723,-0.000276036,-0.110302,0.00122722,0.0142728,853,554,-4.43476,15.2941
-364,470,-4.45013,-15.7935,0.00205689,-0.000956971,0.000158814,0.00206523,-0.000965316,0.0525006,0.00178769,0.0150076,860,554,-4.45013,15.7935
-357,470,-4.48132,-16.295,0.00262455,-0.00154518,0.000431653,0.00266877,-0.00158939,0.102078,0.00248464,0.0147962,867,554,-4.48132,16.295
-350,470,-4.4884,-16.775,0.0033377,-0.00204052,0.000530442,0.00338951,-0.00209234,0.0973777,0.00319435,0.0116274,874,554,-4.48843,16.775
-343,470,-4.38721,-17.2305,0.00424175,-0.00236111,0.000480033,0.00427646,-0.00239582,0.0721949,0.00390292,0.0376074,881,554,-4.38721,17.2305
-336,470,-4.22656,-17.7885,0,0,0,0,0,0,0,-1,888,554,-4.22655,17.7885
-329,470,-2.78516,-12.3594,0,0,0,0,0,0,0,-1,895,554,-2.78517,12.3594
-322,470,-2.30829,-11.4527,0,0,0,0,0,0,0,-1,902,554,-2.30827,11.4527
-315,470,-1.04797,-8.29529,0,0,0,0,0,0,0,-1,909,554,-1.04797,8.29526
-308,470,-1.39368,-6.68152,0,0,0,0,0,0,0,-1,916,554,-1.39369,6.68149
-301,470,-0.0340576,3.34888,0,0,0,0,0,0,0,-1,923,554,-0.0340496,-3.3489
-294,470,-1.18378,3.22266,0,0,0,0,0,0,0,-1,930,554,-1.18376,-3.22268
-287,470,-2.15454,3.2204,0,0,0,0,0,0,0,-1,937,554,-2.15452,-3.22037
-280,470,-3.00537,3.099,0,0,0,0,0,0,0,-1,944,554,-3.00536,-3.09898
-273,470,-12.3932,3.65009,0,0,0,0,0,0,0,-1,951,554,-12.3932,-3.65011
-266,470,-11.5706,1.16028,0,0,0,0,0,0,0,-1,958,554,-11.5706,-1.16031
-259,470,-7.50415,-2.77167,0,0,0,0,0,0,0,-1,965,554,-7.50413,2.7717
-252,470,-0.371155,-5.87823,0,0,0,0,0,0,0,-1,972,554,-0.37114,5.87821
-245,470,1.33221,-6.81122,0,0,0,0,0,0,0,-1,979,554,1.33223,6.8112
-238,470,0,0,0,0,0,0,0,0,0,-1,986,554,0,0
-231,470,0,0,0,0,0,0,0,0,0,-1,993,554,0,0
-224,470,0,0,0,0,0,0,0,0,0,-1,1000,554,0,0
-217,470,0,0,0,0,0,0,0,0,0,-1,1007,554,0,0
-210,470,0,0,0,0,0,0,0,0,0,-1,1014,554,0,0
-203,470,0,0,0,0,0,0,0,0,0,-1,1021,554,0,0
-196,470,0,0,0,0,0,0,0,0,0,-1,1028,554,0,0
-189,470,0,0,0,0,0,0,0,0,0,-1,1035,554,0,0
-182,470,0,0,0,0,0,0,0,0,0,-1,1042,554,0,0
-175,470,0,0,0,0,0,0,0,0,0,-1,1049,554,0,0
-168,470,0,0,0,0,0,0,0,0,0,-1,1056,554,0,0
-161,470,0,0,0,0,0,0,0,0,0,-1,1063,554,0,0
-154,470,0,0,0,0,0,0,0,0,0,-1,1070,554,0,0
-147,470,0,0,0,0,0,0,0,0,0,-1,1077,554,0,0
-140,470,0,0,0,0,0,0,0,0,0,-1,1084,554,0,0
-133,470,0,0,0,0,0,0,0,0,0,-1,1091,554,0,0
-126,470,0,0,0,0,0,0,0,0,0,-1,1098,554,0,0
-119,470,0,0,0,0,0,0,0,0,0,-1,1105,554,0,0
-112,470,0,0,0,0,0,0,0,0,0,-1,1112,554,0,0
-105,470,0,0,0,0,0,0,0,0,0,-1,1119,554,0,0
-98,470,0,0,0,0,0,0,0,0,0,-1,1126,554,0,0
-91,470,0,0,0,0,0,0,0,0,0,-1,1133,554,0,0
-84,470,0,0,0,0,0,0,0,0,0,-1,1140,554,0,0
-77,470,0,0,0,0,0,0,0,0,0,-1,1147,554,0,0
-70,470,0,0,0,0,0,0,0,0,0,-1,1154,554,0,0
-63,470,0,0,0,0,0,0,0,0,0,-1,1161,554,0,0
-56,470,0,0,0,0,0,0,0,0,0,-1,1168,554,0,0
-49,470,0,0,0,0,0,0,0,0,0,-1,1175,554,0,0
-42,470,0,0,0,0,0,0,0,0,0,-1,1182,554,0,0
-35,470,0,0,0,0,0,0,0,0,0,-1,1189,554,0,0
-28,470,0,0,0,0,0,0,0,0,0,-1,1196,554,0,0
-21,470,0,0,0,0,0,0,0,0,0,-1,1203,554,0,0
-14,470,0,0,0,0,0,0,0,0,0,-1,1210,554,0,0
-7,470,0,0,0,0,0,0,0,0,0,-1,1217,554,0,0
0,470,0,0,0,0,0,0,0,0,0,-1,1224,554,0,0
7,470,0,0,0,0,0,0,0,0,0,-1,1231,554,0,0
14,470,0,0,0,0,0,0,0,0,0,-1,1238,554,0,0
21,470,0,0,0,0,0,0,0,0,0,-1,1245,554,0,0
28,470,0,0,0,0,0,0,0,0,0,-1,1252,554,0,0
35,470,0,0,0,0,0,0,0,0,0,-1,1259,554,0,0
42,470,0,0,0,0,0,0,0,0,0,-1,1266,554,0,0
49,470,0,0,0,0,0,0,0,0,0,-1,1273,554,0,0
56,470,0,0,0,0,0,0,0,0,0,-1,1280,554,0,0
63,470,0,0,0,0,0,0,0,0,0,-1,1287,554,0,0
70,470,0,0,0,0,0,0,0,0,0,-1,1294,554,0,0
77,470,0,0,0,0,0,0,0,0,0,-1,1301,554,0,0
84,470,0,0,0,0,0,0,0,0,0,-1,1308,554,0,0
91,470,0,0,0,0,0,0,0,0,0,-1,1315,554,0,0
98,470,0,0,0,0,0,0,0,0,0,-1,1322,554,0,0
105,470,0,0,0,0,0,0,0,0,0,-1,1329,554,0,0
112,470,0,0,0,0,0,0,0,0,0,-1,1336,554,0,0
119,470,0,0,0,0,0,0,0,0,0,-1,1343,554,0,0
126,470,0,0,0,0,0,0,0,0,0,-1,1350,554,0,0
133,470,0,0,0,0,0,0,0,0,0,-1,1357,554,0,0
140,470,0,0,0,0,0,0,0,0,0,-1,1364,554,0,0
147,470,0,0,0,0,0,0,0,0,0,-1,1371,554,0,0
154,470,0,0,0,0,0,0,0,0,0,-1,1378,554,0,0
161,470,0,0,0,0,0,0,0,0,0,-1,1385,554,0,0
168,470,0,0,0,0,0,0,0,0,0,-1,1392,554,0,0
175,470,0,0,0,0,0,0,0,0,0,-1,1399,554,0,0
182,470,0,0,0,0,0,0,0,0,0,-1,1406,554,0,0
189,470,0,0,0,0,0,0,0,0,0,-1,1413,554,0,0
196,470,0,0,0,0,0,0,0,0,0,-1,1420,554,0,0
203,470,0,0,0,0,0,0,0,0,0,-1,1427,554,0,0
210,470,0,0,0,0,0,0,0,0,0,-1,1434,554,0,0
217,470,0,0,0,0,0,0,0,0,0,-1,1441,554,0,0
224,470,0,0,0,0,0,0,0,0,0,-1,1448,554,0,0
231,470,0,0,0,0,0,0,0,0,0,-1,1455,554,0,0
238,470,0,0,0,0,0,0,0,0,0,-1,1462,554,0,0
245,470,0,0,0,0,0,0,0,0,0,-1,1469,554,0,0
252,470,0,0,0,0,0,0,0,0,0,-1,1476,554,0,0
259,470,0,0,0,0,0,0,0,0,0,-1,1483,554,0,0
266,470,0,0,0,0,0,0,0,0,0,-1,1490,554,0,0
273,470,0,0,0,0,0,0,0,0,0,-1,1497,554,0,0
280,470,0,0,0,0,0,0,0,0,0,-1,1504,554,0,0
287,470,0,0,0,0,0,0,0,0,0,-1,1511,554,0,0
294,470,0,0,0,0,0,0,0,0,0,-1,1518,554,0,0
301,470,0,0,0,0,0,0,0,0,0,-1,1525,554,0,0
308,470,0,0,0,0,0,0,0,0,0,-1,1532,554,0,0
315,470,0,0,0,0,0,0,0,0,0,-1,1539,554,0,0
322,470,0,0,0,0,0,0,0,0,0,-1,1546,554,0,0
329,470,0,0,0,0,0,0,0,0,0,-1,1553,554,0,0
336,470,0,0,0,0,0,0,0,0,0,-1,1560,554,0,0
343,470,0,0,0,0,0,0,0,0,0,-1,1567,554,0,0
350,470,0,0,0,0,0,0,0,0,0,-1,1574,554,0,0
357,470,0,0,0,0,0,0,0,0,0,-1,1581,554,0,0
364,470,1.33423,0.293335,0,0,0,0,0,0,0,-1,1588,554,1.33422,-0.293348
371,470,2.22498,-0.0305176,0,0,0,0,0,0,0,-1,1595,554,2.22494,0.0305046
378,470,6.27051,0.710083,0,0,0,0,0,0,0,-1,1602,554,6.27054,-0.710093
385,470,10.3657,1.47296,0,0,0,0,0,0,0,-1,1609,554,10.3657,-1.47299
392,470,15.3881,3.01935,0,0,0,0,0,0,0,-1,1616,554,15.388,-3.01937
399,470,18.4479,2.93793,0,0,0,0,0,0,0,-1,1623,554,18.4479,-2.93792
406,470,15.1896,1.36676,0,0,0,0,0,0,0,-1,1630,554,15.1896,-1.36679
413,470,6.55383,1.99207,0,0,0,0,0,0,0,-1,1637,554,6.5538,-1.99208
420,470,4.47095,0.845703,0,0,0,0,0,0,0,-1,1644,554,4.47098,-0.845718
427,470,3.51038,1.19684,0,0,0,0,0,0,0,-1,1651,554,3.51039,-1.19684
434,470,3.31775,-1.37427,0,0,0,0,0,0,0,-1,1658,554,3.31781,1.37426
441,470,2.55457,-2.05902,0,0,0,0,0,0,0,-1,1665,554,2.55461,2.05904
448,470,3.27258,-2.64032,0,0,0,0,0,0,0,-1,1672,554,3.27257,2.64029
455,470,10.3658,-9.82233,0,0,0,0,0,0,0,-1,1679,554,10.3659,9.82233
462,470,11.0651,-11.9958,0,0,0,0,0,0,0,-1,1686,554,11.0651,11.9958
469,470,13.8019,-16.1654,0,0,0,0,0,0,0,-1,1693,554,13.8018,16.1654
476,470,13.8551,-15.5343,0.00374477,0.000648986,-0.000262321,0.00376684,0.000626916,-0.0839375,0.00233053,0.0477392,1700,554,13.8551,15.5343
483,470,13.9613,-15.0204,0.00364909,0.00093177,0.000280192,0.00367768,0.000903179,0.101688,0.00221304,0.0174968,1707,554,13.9613,15.0204
490,470,13.9089,-14.5078,0.00325208,0.00123641,0.000552987,0.00339382,0.00109467,0.250917,0.00200014,0.0120668,1714,554,13.909,14.5077
497,470,13.8979,-13.9946,0.00273955,0.00151858,0.000858078,0.00318215,0.00107598,0.476212,0.00186903,0.0124038,1721,554,13.898,13.9946
504,470,13.926,-13.5079,0.00209509,0.00123369,0.000885755,0.00264931,0.000679473,0.559105,0.0015889,0.0189277,1728,554,13.926,13.5079
511,470,13.9419,-12.9929,0.00129281,0.000901261,0.000776814,0.00189814,0.000295931,0.661958,0.00117923,0.0266008,1735,554,13.9419,12.9929
518,470,13.9343,-12.4162,0.000329452,0.00055918,0.000566339,0.00102219,-0.000133555,0.88545,0.000730059,0.0260443,1742,554,13.9344,12.4162
525,470,13.8866,-11.8544,-0.000645594,8.8288e-05,0.000283472,0.00018503,-0.000742336,1.24191,0.000566727,0.0154363,1749,554,13.8866,11.8543
532,470,13.8407,-11.2927,-0.00168024,-0.000304142,-3.77126e-05,-0.000303109,-0.00168127,-1.54342,0.00103472,0.0134235,1756,554,13.8407,11.2927
539,470,13.8251,-10.7679,-0.00276752,-0.000731126,-0.000398053,-0.000656085,-0.00284256,-1.38446,0.00171861,0.0159988,1763,554,13.825,10.7679
546,470,13.823,-10.2448,-0.00400393,-0.00115098,-0.000832582,-0.00092578,-0.00422913,-1.30664,0.00256708,0.0139728,1770,554,13.823,10.2448
553,470,13.837,-9.67395,-0.00534826,-0.00131143,-0.00127494,-0.000942488,-0.0057172,-1.28911,0.00353938,0.0206422,1777,554,13.8371,9.67394
560,470,13.8019,-9.07593,-0.00670863,-0.00144498,-0.00169328,-0.000947316,-0.00720629,-1.28494,0.00452162,0.0352629,1784,554,13.8019,9.07593
567,470,13.6346,-8.54785,-0.00817866,-0.00164883,-0.00212042,-0.00102069,-0.0088068,-1.2828,0.00556227,0.0269884,1791,554,13.6347,8.54785
574,470,13.6407,-7.67511,0,0,0,0,0,0,0,-1,1798,554,13.6407,7.67514
581,470,8.24646,-4.06317,0,0,0,0,0,0,0,-1,1805,554,8.24648,4.06318
588,470,11.1803,1.74927,0,0,0,0,0,0,0,-1,1812,554,11.1803,-1.74926
595,470,4.72192,3.44116,0,0,0,0,0,0,0,-1,1819,554,4.72191,-3.44116
602,470,14.4307,2.76141,0,0,0,0,0,0,0,-1,1826,554,14.4306,-2.76139
609,470,20.9181,4.41058,0,0,0,0,0,0,0,-1,1833,554,20.9181,-4.4106
616,470,0,0,0,0,0,0,0,0,0,-1,1840,554,0,0
623,470,0,0,0,0,0,0,0,0,0,-1,1847,554,0,0
630,470,0,0,0,0,0,0,0,0,0,-1,1854,554,0,0
637,470,0,0,0,0,0,0,0,0,0,-1,1861,554,0,0
644,470,0,0,0,0,0,0,0,0,0,-1,1868,554,0,0
651,470,0,0,0,0,0,0,0,0,0,-1,1875,554,0,0
658,470,0,0,0,0,0,0,0,0,0,-1,1882,554,0,0
665,470,0,0,0,0,0,0,0,0,0,-1,1889,554,0,0
672,470,0,0,0,0,0,0,0,0,0,-1,1896,554,0,0
679,470,0,0,0,0,0,0,0,0,0,-1,1903,554,0,0
686,470,0,0,0,0,0,0,0,0,0,-1,1910,554,0,0
693,470,0,0,0,0,0,0,0,0,0,-1,1917,554,0,0
700,470,0,0,0,0,0,0,0,0,0,-1,1924,554,0,0
707,470,0,0,0,0,0,0,0,0,0,-1,1931,554,0,0
714,470,0,0,0,0,0,0,0,0,0,-1,1938,554,0,0
721,470,0,0,0,0,0,0,0,0,0,-1,1945,554,0,0
728,470,0,0,0,0,0,0,0,0,0,-1,1952,554,0,0
735,470,0,0,0,0,0,0,0,0,0,-1,1959,554,0,0
742,470,0,0,0,0,0,0,0,0,0,-1,1966,554,0,0
749,470,0,0,0,0,0,0,0,0,0,-1,1973,554,0,0
756,470,0,0,0,0,0,0,0,0,0,-1,1980,554,0,0
763,470,0,0,0,0,0,0,0,0,0,-1,1987,554,0,0
770,470,0,0,0,0,0,0,0,0,0,-1,1994,554,0,0
777,470,0,0,0,0,0,0,0,0,0,-1,2001,554,0,0
784,470,0,0,0,0,0,0,0,0,0,-1,2008,554,0,0
791,470,0,0,0,0,0,0,0,0,0,-1,2015,554,0,0
798,470,0,0,0,0,0,0,0,0,0,-1,2022,554,0,0
805,470,0,0,0,0,0,0,0,0,0,-1,2029,554,0,0
812,470,0,0,0,0,0,0,0,0,0,-1,2036,554,0,0
-700,463,0,0,0,0,0,0,0,0,0,-1,524,561,0,0
-693,463,0,0,0,0,0,0,0,0,0,-1,531,561,0,0
-686,463,0,0,0,0,0,0,0,0,0,-1,538,561,0,0
-679,463,0,0,0,0,0,0,0,0,0,-1,545,561,0,0
-672,463,0,0,0,0,0,0,0,0,0,-1,552,561,0,0
-665,463,0,0,0,0,0,0,0,0,0,-1,559,561,0,0
-658,463,0,0,0,0,0,0,0,0,0,-1,566,561,0,0
-651,463,0,0,0,0,0,0,0,0,0,-1,573,561,0,0
-644,463,0,0,0,0,0,0,0,0,0,-1,580,561,0,0
-637,463,0,0,0,0,0,0,0,0,0,-1,587,561,0,0
-630,463,0,0,0,0,0,0,0,0,0,-1,594,561,0,0
-623,463,0,0,0,0,0,0,0,0,0,-1,601,561,0,0
-616,463,0,0,0,0,0,0,0,0,0,-1,608,561,0,0
-609,463,0,0,0,0,0,0,0,0,0,-1,615,561,0,0
-602,463,0,0,0,0,0,0,0,0,0,-1,622,561,0,0
-595,463,0,0,0,0,0,0,0,0,0,-1,629,561,0,0
-588,463,0,0,0,0,0,0,0,0,0,-1,636,561,0,0
-581,463,0,0,0,0,0,0,0,0,0,-1,643,561,0,0
-574,463,0,0,0,0,0,0,0,0,0,-1,650,561,0,0
-567,463,0,0,0,0,0,0,0,0,0,-1,657,561,0,0
-560,463,0,0,0,0,0,0,0,0,0,-1,664,561,0,0
-553,463,0,0,0,0,0,0,0,0,0,-1,671,561,0,0
-546,463,0,0,0,0,0,0,0,0,0,-1,678,561,0,0
-539,463,0,0,0,0,0,0,0,0,0,-1,685,561,0,0
-532,463,0,0,0,0,0,0,0,0,0,-1,692,561,0,0
-525,463,0,0,0,0,0,0,0,0,0,-1,699,561,0,0
-518,463,0,0,0,0,0,0,0,0,0,-1,706,561,0,0
-511,463,0,0,0,0,0,0,0,0,0,-1,713,561,0,0
-504,463,0,0,0,0,0,0,0,0,0,-1,720,561,0,0
-497,463,-9.81451,-1.67126,0,0,0,0,0,0,0,-1,727,561,-9.81452,1.67127
-490,463,-8.57043,-1.58942,0,0,0,0,0,0,0,-1,734,561,-8.57045,1.58944
-483,463,-7.29224,-1.7226,0,0,0,0,0,0,0,-1,741,561,-7.29226,1.72261
-476,463,-5.77704,-1.7312,0,0,0,0,0,0,0,-1,748,561,-5.77703,1.73121
-469,463,-5.14545,-2.138,0,0,0,0,0,0,0,-1,755,561,-5.14546,2.13799
-462,463,-3.13672,-3.07977,0,0,0,0,0,0,0,-1,762,561,-3.13672,3.07974
-455,463,-2.91406,-5.61798,0,0,0,0,0,0,0,-1,769,561,-2.91406,5.61801
-448,463,-4.00177,-8.54681,0,0,0,0,0,0,0,-1,776,561,-4.00175,8.54683
-441,463,-4.9353,-9.94586,0,0,0,0,0,0,0,-1,783,561,-4.93529,9.94584
-434,463,-4.81708,-10.6722,-0.00142841,0.00770456,-0.0028589,0.00852566,-0.00224951,-1.29112,0.00656339,0.0254615,790,561,-4.81709,10.6722
-427,463,-4.81171,-11.2141,-0.000972912,0.00630803,-0.00246191,0.00706233,-0.00172722,-1.27349,0.00537724,0.0102763,797,561,-4.81171,11.214
-420,463,-4.79956,-11.7335,-0.000583559,0.00505223,-0.00210981,0.00575454,-0.00128586,-1.24946,0.00432911,0.00996282,804,561,-4.79955,11.7335
-413,463,-4.823,-12.2621,-0.000287857,0.00373952,-0.00166337,0.00433768,-0.000886011,-1.22559,0.00322791,0.00957763,811,561,-4.82301,12.2621
-406,463,-4.86182,-12.7689,-1.77803e-05,0.00281898,-0.0012902,0.003318,-0.000516796,-1.20174,0.00240286,0.0101766,818,561,-4.8618,12.7689
-399,463,-4.88336,-13.2763,0.000217575,0.00194514,-0.000905777,0.00233298,-0.000170263,-1.16623,0.00161507,0.0111473,825,561,-4.88337,13.2763
-392,463,-4.89441,-13.7807,0.000529616,0.00106149,-0.000544816,0.00140181,0.000189296,-1.01245,0.000878268,0.0103711,832,561,-4.89443,13.7807
-385,463,-4.91052,-14.2986,0.000941969,0.000318871,-0.000236128,0.00102134,0.000239499,-0.324274,0.000616761,0.01105,839,561,-4.91054,14.2986
-378,463,-4.9292,-14.8017,0.00137479,-0.00033544,6.44647e-05,0.00137721,-0.000337867,0.0376225,0.00104906,0.0122533,846,561,-4.92921,14.8017
-371,463,-4.94012,-15.3046,0.0018004,-0.000934111,0.000368423,0.00184917,-0.000982879,0.131605,0.00166039,0.0123432,853,561,-4.94012,15.3046
-364,463,-4.93402,-15.7935,0.00232124,-0.00141254,0.000614143,0.00241966,-0.00151096,0.158907,0.00228947,0.0150493,860,561,-4.934,15.7934
-357,463,-4.97467,-16.2723,0.00304739,-0.0018383,0.000743404,0.003158,-0.00194891,0.147707,0.00297589,0.0218805,867,561,-4.97468,16.2724
-350,463,-4.88861,-16.7591,0.00395815,-0.00218183,0.000672272,0.00403089,-0.00225458,0.10779,0.0036769,0.0357873,874,561,-4.88862,16.7591
-343,463,-4.68439,-17.1238,0,0,0,0,0,0,0,-1,881,561,-4.6844,17.1239
-336,463,-2.94928,-12.2127,0,0,0,0,0,0,0,-1,888,561,-2.94925,12.2127
-329,463,-2.64307,-12.7037,0,0,0,0,0,0,0,-1,895,561,-2.64307,12.7038
-322,463,-1.82898,-9.11957,0,0,0,0,0,0,0,-1,902,561,-1.829,9.11957
-315,463,-0.944763,-5.96234,0,0,0,0,0,0,0,-1,909,561,-0.94479,5.96237
-308,463,-1.1535,-3.17889,0,0,0,0,0,0,0,-1,916,561,-1.15352,3.17889
-301,463,-1.50366,-3.15338,0,0,0,0,0,0,0,-1,923,561,-1.50364,3.15341
-294,463,-2.35889,-3.93463,0,0,0,0,0,0,0,-1,930,561,-2.35886,3.93465
-287,463,-2.80322,2.73999,0,0,0,0,0,0,0,-1,937,561,-2.80322,-2.74
-280,463,-12.864,5.25146,0,0,0,0,0,0,0,-1,944,561,-12.864,-5.25149
-273,463,-12.4598,3.39178,0,0,0,0,0,0,0,-1,951,561,-12.4598,-3.3918
-266,463,-8.78101,-3.7356,0,0,0,0,0,0,0,-1,958,561,-8.78098,3.73562
-259,463,-6.23285,-5.68842,0,0,0,0,0,0,0,-1,965,561,-6.23288,5.68843
-252,463,0,0,0,0,0,0,0,0,0,-1,972,561,0,0
-245,463,0,0,0,0,0,0,0,0,0,-1,979,561,0,0
-238,463,0,0,0,0,0,0,0,0,0,-1,986,561,0,0
-231,463,0,0,0,0,0,0,0,0,0,-1,993,561,0,0
-224,463,0,0,0,0,0,0,0,0,0,-1,1000,561,0,0
-217,463,0,0,0,0,0,0,0,0,0,-1,1007,561,0,0
-210,463,0,0,0,0,0,0,0,0,0,-1,1014,561,0,0
-203,463,0,0,0,0,0,0,0,0,0,-1,1021,561,0,0
-196,463,0,0,0,0,0,0,0,0,0,-1,1028,561,0,0
-189,463,0,0,0,0,0,0,0,0,0,-1,1035,561,0,0
-182,463,0,0,0,0,0,0,0,0,0,-1,1042,561,0,0
-175,463,0,0,0,0,0,0,0,0,0,-1,1049,561,0,0
-168,463,0,0,0,0,0,0,0,0,0,-1,1056,561,0,0
-161,463,0,0,0,0,0,0,0,0,0,-1,1063,561,0,0
-154,463,0,0,0,0,0,0,0,0,0,-1,1070,561,0,0
-147,463,0,0,0,0,0,0,0,0,0,-1,1077,561,0,0
-140,463,0,0,0,0,0,0,0,0,0,-1,1084,561,0,0
-133,463,0,0,0,0,0,0,0,0,0,-1,1091,561,0,0
-126,463,0,0,0,0,0,0,0,0,0,-1,1098,561,0,0
-119,463,0,0,0,0,0,0,0,0,0,-1,1105,561,0,0
-112,463,0,0,0,0,0,0,0,0,0,-1,1112,561,0,0
-105,463,0,0,0,0,0,0,0,0,0,-1,1119,561,0,0
-98,463,0,0,0,0,0,0,0,0,0,-1,1126,561,0,0
-91,463,0,0,0,0,0,0,0,0,0,-1,1133,561,0,0
-84,463,0,0,0,0,0,0,0,0,0,-1,1140,561,0,0
-77,463,0,0,0,0,0,0,0,0,0,-1,1147,561,0,0
-70,463,0,0,0,0,0,0,0,0,0,-1,1154,561,0,0
-63,463,0,0,0,0,0,0,0,0,0,-1,1161,561,0,0
-56,463,0,0,0,0,0,0,0,0,0,-1,1168,561,0,0
-49,463,0,0,0,0,0,0,0,0,0,-1,1175,561,0,0
-42,463,0,0,0,0,0,0,0,0,0,-1,1182,561,0,0
-35,463,0,0,0,0,0,0,0,0,0,-1,1189,561,0,0
-28,463,0,0,0,0,0,0,0,0,0,-1,1196,561,0,0
-21,463,0,0,0,0,0,0,0,0,0,-1,1203,561,0,0
-14,463,0,0,0,0,0,0,0,0,0,-1,1210,561,0,0
-7,463,0,0,0,0,0,0,0,0,0,-1,1217,561,0,0
0,463,0,0,0,0,0,0,0,0,0,-1,1224,561,0,0
7,463,0,0,0,0,0,0,0,0,0,-1,1231,561,0,0
14,463,0,0,0,0,0,0,0,0,0,-1,1238,561,0,0
21,463,0,0,0,0,0,0,0,0,0,-1,1245,561,0,0
28,463,0,0,0,0,0,0,0,0,0,-1,1252,561,0,0
35,463,0,0,0,0,0,0,0,0,0,-1,1259,561,0,0
42,463,0,0,0,0,0,0,0,0,0,-1,1266,561,0,0
49,463,0,0,0,0,0,0,0,0,0,-1,1273,561,0,0
56,463,0,0,0,0,0,0,0,0,0,-1,1280,561,0,0
63,463,0,0,0,0,0,0,0,0,0,-1,1287,561,0,0
70,463,0,0,0,0,0,0,0,0,0,-1,1294,561,0,0
77,463,0,0,0,0,0,0,0,0,0,-1,1301,561,0,0
84,463,0,0,0,0,0,0,0,0,0,-1,1308,561,0,0
91,463,0,0,0,0,0,0,0,0,0,-1,1315,561,0,0
98,463,0,0,0,0,0,0,0,0,0,-1,1322,561,0,0
105,463,0,0,0,0,0,0,0,0,0,-1,1329,561,0,0
112,463,0,0,0,0,0,0,0,0,0,-1,1336,561,0,0
119,463,0,0,0,0,0,0,0,0,0,-1,1343,561,0,0
126,463,0,0,0,0,0,0,0,0,0,-1,1350,561,0,0
133,463,0,0,0,0,0,0,0,0,0,-1,1357,561,0,0
140,463,0,0,0,0,0,0,0,0,0,-1,1364,561,0,0
147,463,0,0,0,0,0,0,0,0,0,-1,1371,561,0,0
154,463,0,0,0,0,0,0,0,0,0,-1,1378,561,0,0
161,463,0,0,0,0,0,0,0,0,0,-1,1385,561,0,0
168,463,0,0,0,0,0,0,0,0,0,-1,1392,561,0,0
175,463,0,0,0,0,0,0,0,0,0,-1,1399,561,0,0
182,463,0,0,0,0,0,0,0,0,0,-1,1406,561,0,0
189,463,0,0,0,0,0,0,0,0,0,-1,1413,561,0,0
196,463,0,0,0,0,0,0,0,0,0,-1,1420,561,0,0
203,463,0,0,0,0,0,0,0,0,0,-1,1427,561,0,0
210,463,0,0,0,0,0,0,0,0,0,-1,1434,561,0,0
217,463,0,0,0,0,0,0,0,0,0,-1,1441,561,0,0
224,463,0,0,0,0,0,0,0,0,0,-1,1448,561,0,0
231,463,0,0,0,0,0,0,0,0,0,-1,1455,561,0,0
238,463,0,0,0,0,0,0,0,0,0,-1,1462,561,0,0
245,463,0,0,0,0,0,0,0,0,0,-1,1469,561,0,0
252,463,0,0,0,0,0,0,0,0,0,-1,1476,561,0,0
259,463,0,0,0,0,0,0,0,0,0,-1,1483,561,0,0
266,463,0,0,0,0,0,0,0,0,0,-1,1490,561,0,0
273,463,0,0,0,0,0,0,0,0,0,-1,1497,561,0,0
280,463,0,0,0,0,0,0,0,0,0,-1,1504,561,0,0
287,463,0,0,0,0,0,0,0,0,0,-1,1511,561,0,0
294,463,0,0,0,0,0,0,0,0,0,-1,1518,561,0,0
301,463,0,0,0,0,0,0,0,0,0,-1,1525,561,0,0
308,463,0,0,0,0,0,0,0,0,0,-1,1532,561,0,0
315,463,0,0,0,0,0,0,0,0,0,-1,1539,561,0,0
322,463,0,0,0,0,0,0,0,0,0,-1,1546,561,0,0
329,463,0,0,0,0,0,0,0,0,0,-1,1553,561,0,0
336,463,0,0,0,0,0,0,0,0,0,-1,1560,561,0,0
343,463,0,0,0,0,0,0,0,0,0,-1,1567,561,0,0
350,463,0,0,0,0,0,0,0,0,0,-1,1574,561,0,0
357,463,0,0,0,0,0,0,0,0,0,-1,1581,561,0,0
364,463,0,0,0,0,0,0,0,0,0,-1,1588,561,0,0
371,463,1.75842,0.152588,0,0,0,0,0,0,0,-1,1595,561,1.75844,-0.152558
378,463,4.58813,-0.0444336,0,0,0,0,0,0,0,-1,1602,561,4.58809,0.0444505
385,463,8.88574,1.65057,0,0,0,0,0,0,0,-1,1609,561,8.88575,-1.65055
392,463,14.0912,2.50513,0,0,0,0,0,0,0,-1,1616,561,14.0912,-2.5051
399,463,21.4769,2.7002,0,0,0,0,0,0,0,-1,1623,561,21.477,-2.70017
406,463,26.2987,4.32318,0,0,0,0,0,0,0,-1,1630,561,26.2987,-4.3232
413,463,26.5011,2.65222,0,0,0,0,0,0,0,-1,1637,561,26.5011,-2.65224
420,463,8.849,2.26611,0,0,0,0,0,0,0,-1,1644,561,8.84899,-2.26613
427,463,5.12207,1.69183,0,0,0,0,0,0,0,-1,1651,561,5.12206,-1.69184
434,463,4.59814,1.81995,0,0,0,0,0,0,0,-1,1658,561,4.59812,-1.81994
441,463,1.76392,-5.99225,0,0,0,0,0,0,0,-1,1665,561,1.7639,5.99225
448,463,2.49939,-4.30536,0,0,0,0,0,0,0,-1,1672,561,2.49941,4.30536
455,463,4.40295,-3.02557,0,0,0,0,0,0,0,-1,1679,561,4.40299,3.02558
462,463,5.38293,-4.06445,0,0,0,0,0,0,0,-1,1686,561,5.38289,4.06444
469,463,5.94373,-4.50647,0,0,0,0,0,0,0,-1,1693,561,5.94368,4.50646
476,463,14.1901,-15.8212,0,0,0,0,0,0,0,-1,1700,561,14.1901,15.8211
483,463,14.4604,-15.0994,0,0,0,0,0,0,0,-1,1707,561,14.4604,15.0994
490,463,14.4448,-14.4992,0.00419454,0.0013912,0.000916603,0.00446764,0.00111811,0.289569,0.0026845,0.0227628,1714,561,14.4449,14.4992
497,463,14.4342,-13.9805,0.00368955,0.00182383,0.0012502,0.00431657,0.00119681,0.464876,0.00257329,0.0131677,1721,561,14.4342,13.9805
504,463,14.4364,-13.4802,0.00305858,0.00163283,0.00126012,0.00379349,0.000897913,0.527982,0.00228916,0.0161532,1728,561,14.4364,13.4802
511,463,14.4166,-12.9885,0.00231392,0.00138909,0.00115461,0.00309527,0.00060774,0.594933,0.00189372,0.0235535,1735,561,14.4166,12.9885
518,463,14.4315,-12.395,0.00145044,0.00112664,0.000981935,0.00228373,0.000293348,0.703696,0.00143474,0.024516,1742,561,14.4315,12.395
525,463,14.4216,-11.861,0.00056373,0.000762675,0.000746962,0.00141676,-9.03541e-05,0.851593,0.000976019,0.0187505,1749,561,14.4216,11.861
532,463,14.4253,-11.3052,-0.000385793,0.000439907,0.000455263,0.000641638,-0.000587524,1.15369,0.000709886,0.016404,1756,561,14.4252,11.3052
539,463,14.3833,-10.7507,-0.00136209,6.15614e-05,0.000139204,7.50449e-05,-0.00137557,1.47424,0.000943057,0.0171582,1763,561,14.3834,10.7507
546,463,14.3502,-10.2533,-0.00246166,-0.000330624,-0.00025048,-0.000301579,-0.0024907,-1.45535,0.00156963,0.0134165,1770,561,14.3502,10.2533
553,463,14.3447,-9.68225,-0.00365924,-0.000516598,-0.000655572,-0.000385326,-0.00379052,-1.37317,0.00240886,0.0107236,1777,561,14.3448,9.68226
560,463,14.3466,-9.0274,-0.00487622,-0.000710088,-0.00104395,-0.000463134,-0.00512317,-1.33851,0.00327201,0.0176906,1784,561,14.3465,9.0274
567,463,14.2012,-8.52924,-0.00619407,-0.000953983,-0.00144252,-0.000583125,-0.00656492,-1.31916,0.00419577,0.0254587,1791,561,14.2011,8.52924
574,463,13.9978,-8.16785,0,0,0,0,0,0,0,-1,1798,561,13.9978,8.16784
581,463,9.4939,-3.88245,0,0,0,0,0,0,0,-1,1805,561,9.49392,3.88245
588,463,1.97424,2.16016,0,0,0,0,0,0,0,-1,1812,561,1.97422,-2.16013
595,463,9.98657,2.99854,0,0,0,0,0,0,0,-1,1819,561,9.98662,-2.99856
602,463,17.2202,4.91302,0,0,0,0,0,0,0,-1,1826,561,17.2202,-4.91305
609,463,17.96,4.03131,0,0,0,0,0,0,0,-1,1833,561,17.96,-4.03132
616,463,20.8352,3.15131,0,0,0,0,0,0,0,-1,1840,561,20.8352,-3.1513
623,463,0,0,0,0,0,0,0,0,0,-1,1847,561,0,0
630,463,0,0,0,0,0,0,0,0,0,-1,1854,561,0,0
637,463,0,0,0,0,0,0,0,0,0,-1,1861,561,0,0
644,463,0,0,0,0,0,0,0,0,0,-1,1868,561,0,0
651,463,0,0,0,0,0,0,0,0,0,-1,1875,561,0,0
658,463,0,0,0,0,0,0,0,0,0,-1,1882,561,0,0
665,463,0,0,0,0,0,0,0,0,0,-1,1889,561,0,0
672,463,0,0,0,0,0,0,0,0,0,-1,1896,561,0,0
679,463,0,0,0,0,0,0,0,0,0,-1,1903,561,0,0
686,463,0,0,0,0,0,0,0,0,0,-1,1910,561,0,0
693,463,0,0,0,0,0,0,0,0,0,-1,1917,561,0,0
700,463,0,0,0,0,0,0,0,0,0,-1,1924,561,0,0
707,463,0,0,0,0,0,0,0,0,0,-1,1931,561,0,0
714,463,0,0,0,0,0,0,0,0,0,-1,1938,561,0,0
721,463,0,0,0,0,0,0,0,0,0,-1,1945,561,0,0
728,463,0,0,0,0,0,0,0,0,0,-1,1952,561,0,0
735,463,0,0,0,0,0,0,0,0,0,-1,1959,561,0,0
742,463,0,0,0,0,0,0,0,0,0,-1,1966,561,0,0
749,463,0,0,0,0,0,0,0,0,0,-1,1973,561,0,0
756,463,0,0,0,0,0,0,0,0,0,-1,1980,561,0,0
763,463,0,0,0,0,0,0,0,0,0,-1,1987,561,0,0
770,463,0,0,0,0,0,0,0,0,0,-1,1994,561,0,0
777,463,0,0,0,0,0,0,0,0,0,-1,2001,561,0,0
784,463,0,0,0,0,0,0,0,0,0,-1,2008,561,0,0
791,463,0,0,0,0,0,0,0,0,0,-1,2015,561,0,0
798,463,0,0,0,0,0,0,0,0,0,-1,2022,561,0,0
805,463,0,0,0,0,0,0,0,0,0,-1,2029,561,0,0
812,463,0,0,0,0,0,0,0,0,0,-1,2036,561,0,0
-700,456,0,0,0,0,0,0,0,0,0,-1,524,568,0,0
-693,456,0,0,0,0,0,0,0,0,0,-1,531,568,0,0
-686,456,0,0,0,0,0,0,0,0,0,-1,538,568,0,0
-679,456,0,0,0,0,0,0,0,0,0,-1,545,568,0,0
-672,456,0,0,0,0,0,0,0,0,0,-1,552,568,0,0
-665,456,0,0,0,0,0,0,0,0,0,-1,559,568,0,0
-658,456,0,0,0,0,0,0,0,0,0,-1,566,568,0,0
-651,456,0,0,0,0,0,0,0,0,0,-1,573,568,0,0
-644,456,0,0,0,0,0,0,0,0,0,-1,580,568,0,0
-637,456,0,0,0,0,0,0,0,0,0,-1,587,568,0,0
-630,456,0,0,0,0,0,0,0,0,0,-1,594,568,0,0
-623,456,0,0,0,0,0,0,0,0,0,-1,601,568,0,0
-616,456,0,0,0,0,0,0,0,0,0,-1,608,568,0,0
-609,456,0,0,0,0,0,0,0,0,0,-1,615,568,0,0
-602,456,0,0,0,0,0,0,0,0,0,-1,622,568,0,0
-595,456,0,0,0,0,0,0,0,0,0,-1,629,568,0,0
-588,456,0,0,0,0,0,0,0,0,0,-1,636,568,0,0
-581,456,0,0,0,0,0,0,0,0,0,-1,643,568,0,0
-574,456,0,0,0,0,0,0,0,0,0,-1,650,568,0,0
-567,456,0,0,0,0,0,0,0,0,0,-1,657,568,0,0
-560,456,0,0,0,0,0,0,0,0,0,-1,664,568,0,0
-553,456,0,0,0,0,0,0,0,0,0,-1,671,568,0,0
-546,456,0,0,0,0,0,0,0,0,0,-1,678,568,0,0
-539,456,0,0,0,0,0,0,0,0,0,-1,685,568,0,0
-532,456,0,0,0,0,0,0,0,0,0,-1,692,568,0,0
-525,456,0,0,0,0,0,0,0,0,0,-1,699,568,0,0
-518,456,0,0,0,0,0,0,0,0,0,-1,706,568,0,0
-511,456,0,0,0,0,0,0,0,0,0,-1,713,568,0,0
-504,456,-10.3994,-2.34839,0,0,0,0,0,0,0,-1,720,568,-10.3994,2.3484
-497,456,-9.21375,-2.38068,0,0,0,0,0,0,0,-1,727,568,-9.21372,2.38069
-490,456,-8.09058,-2.31824,0,0,0,0,0,0,0,-1,734,568,-8.09057,2.31821
-483,456,-6.66119,-2.24329,0,0,0,0,0,0,0,-1,741,568,-6.66121,2.24331
-476,456,-5.1499,-2.21185,0,0,0,0,0,0,0,-1,748,568,-5.14992,2.21184
-469,456,-2.81238,-3.51501,0,0,0,0,0,0,0,-1,755,568,-2.81237,3.51501
-462,456,-4.2431,-5.27478,0,0,0,0,0,0,0,-1,762,568,-4.24312,5.27476
-455,456,-5.58929,-8.65594,0,0,0,0,0,0,0,-1,769,568,-5.58931,8.65596
-448,456,-5.07739,-9.1358,0,0,0,0,0,0,0,-1,776,568,-5.07742,9.13577
-441,456,-5.22491,-10.046,-0.00134949,0.00787394,-0.00315894,0.00885211,-0.00232766,-1.27051,0.00681118,0.0299314,783,568,-5.22491,10.046
-434,456,-5.30988,-10.6697,-0.00100899,0.0063193,-0.00254601,0.007117,-0.00180669,-1.26717,0.00544769,0.0157949,790,568,-5.3099,10.6697
-427,456,-5.31476,-11.1915,-0.000712413,0.00498606,-0.00202687,0.00563344,-0.0013598,-1.26164,0.00428149,0.00951991,797,568,-5.31474,11.1915
-420,456,-5.31989,-11.7046,-0.00042428,0.00380447,-0.00158823,0.00433453,-0.000954341,-1.24868,0.00325478,0.0101388,804,568,-5.31991,11.7046
-413,456,-5.34155,-12.2243,-0.000218806,0.00252467,-0.00105895,0.00288586,-0.000579996,-1.24209,0.00214356,0.00900964,811,568,-5.34154,12.2243
-406,456,-5.39215,-12.7357,-1.89873e-05,0.00164334,-0.00061988,0.00184904,-0.000224687,-1.25039,0.00131401,0.00882298,818,568,-5.39218,12.7357
-399,456,-5.41119,-13.2413,0.000199018,0.00082198,-0.000208321,0.000885223,0.000135775,-1.27605,0.0005505,0.0104258,825,568,-5.41118,13.2413
-392,456,-5.39716,-13.7469,0.000524527,1.28054e-05,0.000151541,0.000566037,-2.87046e-05,0.267361,0.000387281,0.0102931,832,568,-5.39716,13.747
-385,456,-5.41534,-14.2559,0.000959958,-0.000626685,0.000439641,0.00107363,-0.00074036,0.253023,0.00105319,0.0100566,839,568,-5.41536,14.2558
-378,456,-5.45221,-14.7809,0.00141003,-0.00119656,0.000739971,0.00160544,-0.00139197,0.258193,0.00173202,0.0107933,846,568,-5.45221,14.781
-371,456,-5.45123,-15.2781,0.00190802,-0.00161951,0.00100603,0.00217476,-0.00188625,0.25918,0.00234659,0.0114055,853,568,-5.45126,15.2781
-364,456,-5.43091,-15.7476,0.00257223,-0.00184002,0.00114493,0.00285164,-0.00211943,0.239357,0.0028804,0.0198482,860,568,-5.43088,15.7475
-357,456,-5.3598,-16.3144,0,0,0,0,0,0,0,-1,867,568,-5.35978,16.3144
-350,456,-5.21216,-16.9373,0,0,0,0,0,0,0,-1,874,568,-5.21215,16.9373
-343,456,-3.39081,-12.0217,0,0,0,0,0,0,0,-1,881,568,-3.39078,12.0217
-336,456,-3.04517,-12.4623,0,0,0,0,0,0,0,-1,888,568,-3.04519,12.4624
-329,456,-1.06183,-10.7184,0,0,0,0,0,0,0,-1,895,568,-1.06184,10.7184
-322,456,-0.662537,-7.66632,0,0,0,0,0,0,0,-1,902,568,-0.662564,7.66633
-315,456,-0.675476,-3.38397,0,0,0,0,0,0,0,-1,909,568,-0.675473,3.38399
-308,456,-1.1618,-3.15314,0,0,0,0,0,0,0,-1,916,568,-1.16178,3.15314
-301,456,-1.83551,-3.26447,0,0,0,0,0,0,0,-1,923,568,-1.8355,3.26449
-294,456,-2.93414,-3.35449,0,0,0,0,0,0,0,-1,930,568,-2.93413,3.35451
-287,456,-3.7569,-3.53101,0,0,0,0,0,0,0,-1,937,568,-3.75692,3.53101
-280,456,-13.072,4.52856,0,0,0,0,0,0,0,-1,944,568,-13.072,-4.52855
-273,456,-8.76031,-5.4386,0,0,0,0,0,0,0,-1,951,568,-8.7603,5.43861
-266,456,-5.61133,-8.90918,0,0,0,0,0,0,0,-1,958,568,-5.61135,8.90919
-259,456,0,0,0,0,0,0,0,0,0,-1,965,568,0,0
-252,456,0,0,0,0,0,0,0,0,0,-1,972,568,0,0
-245,456,0,0,0,0,0,0,0,0,0,-1,979,568,0,0
-238,456,0,0,0,0,0,0,0,0,0,-1,986,568,0,0
-231,456,0,0,0,0,0,0,0,0,0,-1,993,568,0,0
-224,456,0,0,0,0,0,0,0,0,0,-1,1000,568,0,0
-217,456,0,0,0,0,0,0,0,0,0,-1,1007,568,0,0
-210,456,0,0,0,0,0,0,0,0,0,-1,1014,568,0,0
-203,456,0,0,0,0,0,0,0,0,0,-1,1021,568,0,0
-196,456,0,0,0,0,0,0,0,0,0,-1,1028,568,0,0
-189,456,0,0,0,0,0,0,0,0,0,-1,1035,568,0,0
-182,456,0,0,0,0,0,0,0,0,0,-1,1042,568,0,0
-175,456,0,0,0,0,0,0,0,0,0,-1,1049,568,0,0
-168,456,0,0,0,0,0,0,0,0,0,-1,1056,568,0,0
-161,456,0,0,0,0,0,0,0,0,0,-1,1063,568,0,0
-154,456,0,0,0,0,0,0,0,0,0,-1,1070,568,0,0
-147,456,0,0,0,0,0,0,0,0,0,-1,1077,568,0,0
-140,456,0,0,0,0,0,0,0,0,0,-1,1084,568,0,0
-133,456,0,0,0,0,0,0,0,0,0,-1,1091,568,0,0
-126,456,0,0,0,0,0,0,0,0,0,-1,1098,568,0,0
-119,456,0,0,0,0,0,0,0,0,0,-1,1105,568,0,0
-112,456,0,0,0,0,0,0,0,0,0,-1,1112,568,0,0
-105,456,0,0,0,0,0,0,0,0,0,-1,1119,568,0,0
-98,456,0,0,0,0,0,0,0,0,0,-1,1126,568,0,0
-91,456,0,0,0,0,0,0,0,0,0,-1,1133,568,0,0
-84,456,0,0,0,0,0,0,0,0,0,-1,1140,568,0,0
-77,456,0,0,0,0,0,0,0,0,0,-1,1147,568,0,0
-70,456,0,0,0,0,0,0,0,0,0,-1,1154,568,0,0
-63,456,0,0,0,0,0,0,0,0,0,-1,1161,568,0,0
-56,456,0,0,0,0,0,0,0,0,0,-1,1168,568,0,0
-49,456,0,0,0,0,0,0,0,0,0,-1,1175,568,0,0
-42,456,0,0,0,0,0,0,0,0,0,-1,1182,568,0,0
-35,456,0,0,0,0,0,0,0,0,0,-1,1189,568,0,0
-28,456,0,0,0,0,0,0,0,0,0,-1,1196,568,0,0
-21,456,0,0,0,0,0,0,0,0,0,-1,1203,568,0,0
-14,456,0,0,0,0,0,0,0,0,0,-1,1210,568,0,0
-7,456,0,0,0,0,0,0,0,0,0,-1,1217,568,0,0
0,456,0,0,0,0,0,0,0,0,0,-1,1224,568,0,0
7,456,0,0,0,0,0,0,0,0,0,-1,1231,568,0,0
14,456,0,0,0,0,0,0,0,0,0,-1,1238,568,0,0
21,456,0,0,0,0,0,0,0,0,0,-1,1245,568,0,0
28,456,0,0,0,0,0,0,0,0,0,-1,1252,568,0,0
35,456,0,0,0,0,0,0,0,0,0,-1,1259,568,0,0
42,456,0,0,0,0,0,0,0,0,0,-1,1266,568,0,0
49,456,0,0,0,0,0,0,0,0,0,-1,1273,568,0,0
56,456,0,0,0,0,0,0,0,0,0,-1,1280,568,0,0
63,456,0,0,0,0,0,0,0,0,0,-1,1287,568,0,0
70,456,0,0,0,0,0,0,0,0,0,-1,1294,568,0,0
77,456,0,0,0,0,0,0,0,0,0,-1,1301,568,0,0
84,456,0,0,0,0,0,0,0,0,0,-1,1308,568,0,0
91,456,0,0,0,0,0,0,0,0,0,-1,1315,568,0,0
98,456,0,0,0,0,0,0,0,0,0,-1,1322,568,0,0
105,456,0,0,0,0,0,0,0,0,0,-1,1329,568,0,0
112,456,0,0,0,0,0,0,0,0,0,-1,1336,568,0,0
119,456,0,0,0,0,0,0,0,0,0,-1,1343,568,0,0
126,456,0,0,0,0,0,0,0,0,0,-1,1350,568,0,0
133,456,0,0,0,0,0,0,0,0,0,-1,1357,568,0,0
140,456,0,0,0,0,0,0,0,0,0,-1,1364,568,0,0
147,456,0,0,0,0,0,0,0,0,0,-1,1371,568,0,0
154,456,0,0,0,0,0,0,0,0,0,-1,1378,568,0,0
161,456,0,0,0,0,0,0,0,0,0,-1,1385,568,0,0
168,456,0,0,0,0,0,0,0,0,0,-1,1392,568,0,0
175,456,0,0,0,0,0,0,0,0,0,-1,1399,568,0,0
182,456,0,0,0,0,0,0,0,0,0,-1,1406,568,0,0
189,456,0,0,0,0,0,0,0,0,0,-1,1413,568,0,0
196,456,0,0,0,0,0,0,0,0,0,-1,1420,568,0,0
203,456,0,0,0,0,0,0,0,0,0,-1,1427,568,0,0
210,456,0,0,0,0,0,0,0,0,0,-1,1434,568,0,0
217,456,0,0,0,0,0,0,0,0,0,-1,1441,568,0,0
224,456,0,0,0,0,0,0,0,0,0,-1,1448,568,0,0
231,456,0,0,0,0,0,0,0,0,0,-1,1455,568,0,0
238,456,0,0,0,0,0,0,0,0,0,-1,1462,568,0,0
245,456,0,0,0,0,0,0,0,0,0,-1,1469,568,0,0
252,456,0,0,0,0,0,0,0,0,0,-1,1476,568,0,0
259,456,0,0,0,0,0,0,0,0,0,-1,1483,568,0,0
266,456,0,0,0,0,0,0,0,0,0,-1,1490,568,0,0
273,456,0,0,0,0,0,0,0,0,0,-1,1497,568,0,0
280,456,0,0,0,0,0,0,0,0,0,-1,1504,568,0,0
287,456,0,0,0,0,0,0,0,0,0,-1,1511,568,0,0
294,456,0,0,0,0,0,0,0,0,0,-1,1518,568,0,0
301,456,0,0,0,0,0,0,0,0,0,-1,1525,568,0,0
308,456,0,0,0,0,0,0,0,0,0,-1,1532,568,0,0
315,456,0,0,0,0,0,0,0,0,0,-1,1539,568,0,0
322,456,0,0,0,0,0,0,0,0,0,-1,1546,568,0,0
329,456,0,0,0,0,0,0,0,0,0,-1,1553,568,0,0
336,456,0,0,0,0,0,0,0,0,0,-1,1560,568,0,0
343,456,0,0,0,0,0,0,0,0,0,-1,1567,568,0,0
350,456,0,0,0,0,0,0,0,0,0,-1,1574,568,0,0
357,456,0,0,0,0,0,0,0,0,0,-1,1581,568,0,0
364,456,0,0,0,0,0,0,0,0,0,-1,1588,568,0,0
371,456,0,0,0,0,0,0,0,0,0,-1,1595,568,0,0
378,456,0,0,0,0,0,0,0,0,0,-1,1602,568,0,0
385,456,5.66284,0.660645,0,0,0,0,0,0,0,-1,1609,568,5.66285,-0.660615
392,456,17.5027,4.32971,0,0,0,0,0,0,0,-1,1616,568,17.5026,-4.32971
399,456,24.1917,5.99652,0,0,0,0,0,0,0,-1,1623,568,24.1916,-5.99651
406,456,24.446,4.53003,0,0,0,0,0,0,0,-1,1630,568,24.446,-4.53005
413,456,24.9418,2.90521,0,0,0,0,0,0,0,-1,1637,568,24.9418,-2.90524
420,456,25.3048,1.04712,0,0,0,0,0,0,0,-1,1644,568,25.3048,-1.04713
427,456,6.21375,2.02905,0,0,0,0,0,0,0,-1,1651,568,6.21372,-2.02904
434,456,3.0719,-4.86285,0,0,0,0,0,0,0,-1,1658,568,3.07184,4.86287
441,456,2.90344,-4.70459,0,0,0,0,0,0,0,-1,1665,568,2.90346,4.7046
448,456,3.06995,-4.93689,0,0,0,0,0,0,0,-1,1672,568,3.06991,4.93687
455,456,3.46582,-3.43701,0,0,0,0,0,0,0,-1,1679,568,3.46585,3.43698
462,456,4.68445,-4.45831,0,0,0,0,0,0,0,-1,1686,568,4.68439,4.45833
469,456,4.93201,-2.289,0,0,0,0,0,0,0,-1,1693,568,4.93197,2.28903
476,456,4.8363,-2.79364,0,0,0,0,0,0,0,-1,1700,568,4.83636,2.79363
483,456,12.8522,-13.692,0,0,0,0,0,0,0,-1,1707,568,12.8522,13.6919
490,456,14.9703,-14.6269,0,0,0,0,0,0,0,-1,1714,568,14.9703,14.6269
497,456,14.9615,-14.0176,0.00460964,0.00207909,0.001614,0.0053952,0.00129353,0.452963,0.00325252,0.0437801,1721,568,14.9615,14.0176
504,456,14.9297,-13.4645,0.00394399,0.0019251,0.00159247,0.00482,0.00104909,0.502916,0.00292699,0.0125182,1728,568,14.9297,13.4646
511,456,14.9592,-12.9324,0.00323017,0.00171453,0.00148191,0.00413679,0.000807918,0.549042,0.00253189,0.0144532,1735,568,14.9592,12.9324
518,456,14.9666,-12.4012,0.00245143,0.00149002,0.00134726,0.00340118,0.000540273,0.614037,0.00211054,0.0173242,1742,568,14.9665,12.4012
525,456,14.9481,-11.8624,0.0016252,0.00122251,0.00115697,0.00259821,0.000249496,0.699246,0.00165526,0.0167103,1749,568,14.9482,11.8624
532,456,14.9414,-11.2781,0.000737531,0.000953811,0.000890438,0.00174265,-5.13093e-05,0.845825,0.00117924,0.0165867,1756,568,14.9414,11.2782
539,456,14.9061,-10.7265,-0.000146675,0.000623356,0.000611028,0.000960554,-0.000483873,1.06653,0.000848943,0.0207139,1763,568,14.9061,10.7265
546,456,14.8573,-10.2056,-0.00112913,0.000268121,0.000261346,0.000315404,-0.00117641,1.39181,0.000907857,0.0230265,1770,568,14.8573,10.2056
553,456,14.8351,-9.64612,-0.00220771,8.9453e-05,-0.000103126,9.40734e-05,-0.00221233,-1.52602,0.00150723,0.0144536,1777,568,14.8351,9.64611
560,456,14.8318,-9.11841,-0.00330493,-0.000112054,-0.000451073,-4.95526e-05,-0.00336743,-1.43311,0.00222862,0.0101481,1784,568,14.8318,9.11839
567,456,14.8324,-8.56061,-0.00444965,-0.000270398,-0.000763228,-0.000135376,-0.00458467,-1.3957,0.00301233,0.0168494,1791,568,14.8324,8.56058
574,456,14.7764,-8.16614,-0.00588269,-0.000370972,-0.00117223,-0.000132021,-0.00612164,-1.36971,0.00403781,0.0478941,1798,568,14.7764,8.16611
581,456,14.7845,-7.69238,0,0,0,0,0,0,0,-1,1805,568,14.7845,7.69239
588,456,5.23901,-0.0901489,0,0,0,0,0,0,0,-1,1812,568,5.23906,0.0901656
595,456,6.90063,3.14886,0,0,0,0,0,0,0,-1,1819,568,6.90066,-3.14887
602,456,16.894,4.10938,0,0,0,0,0,0,0,-1,1826,568,16.8941,-4.1094
609,456,14.9966,3.5708,0,0,0,0,0,0,0,-1,1833,568,14.9966,-3.57083
616,456,17.7407,2.6579,0,0,0,0,0,0,0,-1,1840,568,17.7408,-2.6579
623,456,20.6838,1.7121,0,0,0,0,0,0,0,-1,1847,568,20.6838,-1.71208
630,456,0,0,0,0,0,0,0,0,0,-1,1854,568,0,0
637,456,0,0,0,0,0,0,0,0,0,-1,1861,568,0,0
644,456,0,0,0,0,0,0,0,0,0,-1,1868,568,0,0
651,456,0,0,0,0,0,0,0,0,0,-1,1875,568,0,0
658,456,0,0,0,0,0,0,0,0,0,-1,1882,568,0,0
665,456,0,0,0,0,0,0,0,0,0,-1,1889,568,0,0
672,456,0,0,0,0,0,0,0,0,0,-1,1896,568,0,0
679,456,0,0,0,0,0,0,0,0,0,-1,1903,568,0,0
686,456,0,0,0,0,0,0,0,0,0,-1,1910,568,0,0
693,456,0,0,0,0,0,0,0,0,0,-1,1917,568,0,0
700,456,0,0,0,0,0,0,0,0,0,-1,1924,568,0,0
707,456,0,0,0,0,0,0,0,0,0,-1,1931,568,0,0
714,456,0,0,0,0,0,0,0,0,0,-1,1938,568,0,0
721,456,0,0,0,0,0,0,0,0,0,-1,1945,568,0,0
728,456,0,0,0,0,0,0,0,0,0,-1,1952,568,0,0
735,456,0,0,0,0,0,0,0,0,0,-1,1959,568,0,0
742,456,0,0,0,0,0,0,0,0,0,-1,1966,568,0,0
749,456,0,0,0,0,0,0,0,0,0,-1,1973,568,0,0
756,456,0,0,0,0,0,0,0,0,0,-1,1980,568,0,0
763,456,0,0,0,0,0,0,0,0,0,-1,1987,568,0,0
770,456,0,0,0,0,0,0,0,0,0,-1,1994,568,0,0
777,456,0,0,0,0,0,0,0,0,0,-1,2001,568,0,0
784,456,0,0,0,0,0,0,0,0,0,-1,2008,568,0,0
791,456,0,0,0,0,0,0,0,0,0,-1,2015,568,0,0
798,456,0,0,0,0,0,0,0,0,0,-1,2022,568,0,0
805,456,0,0,0,0,0,0,0,0,0,-1,2029,568,0,0
812,456,0,0,0,0,0,0,0,0,0,-1,2036,568,0,0
-700,449,0,0,0,0,0,0,0,0,0,-1,524,575,0,0
-693,449,0,0,0,0,0,0,0,0,0,-1,531,575,0,0
-686,449,0,0,0,0,0,0,0,0,0,-1,538,575,0,0
-679,449,0,0,0,0,0,0,0,0,0,-1,545,575,0,0
-672,449,0,0,0,0,0,0,0,0,0,-1,552,575,0,0
-665,449,0,0,0,0,0,0,0,0,0,-1,559,575,0,0
-658,449,0,0,0,0,0,0,0,0,0,-1,566,575,0,0
-651,449,0,0,0,0,0,0,0,0,0,-1,573,575,0,0
-644,449,0,0,0,0,0,0,0,0,0,-1,580,575,0,0
-637,449,0,0,0,0,0,0,0,0,0,-1,587,575,0,0
-630,449,0,0,0,0,0,0,0,0,0,-1,594,575,0,0
-623,449,0,0,0,0,0,0,0,0,0,-1,601,575,0,0
-616,449,0,0,0,0,0,0,0,0,0,-1,608,575,0,0
-609,449,0,0,0,0,0,0,0,0,0,-1,615,575,0,0
-602,449,0,0,0,0,0,0,0,0,0,-1,622,575,0,0
-595,449,0,0,0,0,0,0,0,0,0,-1,629,575,0,0
-588,449,0,0,0,0,0,0,0,0,0,-1,636,575,0,0
-581,449,0,0,0,0,0,0,0,0,0,-1,643,575,0,0
-574,449,0,0,0,0,0,0,0,0,0,-1,650,575,0,0
-567,449,0,0,0,0,0,0,0,0,0,-1,657,575,0,0
-560,449,0,0,0,0,0,0,0,0,0,-1,664,575,0,0
-553,449,0,0,0,0,0,0,0,0,0,-1,671,575,0,0
-546,449,0,0,0,0,0,0,0,0,0,-1,678,575,0,0
-539,449,0,0,0,0,0,0,0,0,0,-1,685,575,0,0
-532,449,0,0,0,0,0,0,0,0,0,-1,692,575,0,0
-525,449,0,0,0,0,0,0,0,0,0,-1,699,575,0,0
-518,449,0,0,0,0,0,0,0,0,0,-1,706,575,0,0
-511,449,-0.941345,-4.4519,0,0,0,0,0,0,0,-1,713,575,-0.941356,4.45191
-504,449,-14.1078,0.318237,0,0,0,0,0,0,0,-1,720,575,-14.1078,-0.318231
-497,449,-8.61292,-3.09009,0,0,0,0,0,0,0,-1,727,575,-8.61291,3.09011
-490,449,-7.50995,-2.96252,0,0,0,0,0,0,0,-1,734,575,-7.50995,2.96251
-483,449,-5.77789,-2.50061,0,0,0,0,0,0,0,-1,741,575,-5.77792,2.50059
-476,449,-4.1723,-2.07739,0,0,0,0,0,0,0,-1,748,575,-4.17228,2.0774
-469,449,-4.02954,-4.56329,0,0,0,0,0,0,0,-1,755,575,-4.02951,4.56329
-462,449,-5.57996,-8.28857,0,0,0,0,0,0,0,-1,762,575,-5.57994,8.28856
-455,449,-5.99573,-8.71021,0,0,0,0,0,0,0,-1,769,575,-5.99572,8.71019
-448,449,-5.77307,-9.45862,-0.000862498,0.00804139,-0.00375408,0.00941293,-0.00223403,-1.22052,0.00713747,0.0379376,776,575,-5.77308,9.45861
-441,449,-5.76642,-10.1701,-0.000623602,0.00638199,-0.0029506,0.00745911,-0.00170072,-1.22078,0.005626,0.0186059,783,575,-5.76642,10.1701
-434,449,-5.83112,-10.6669,-0.000520388,0.00495814,-0.002194,0.00572847,-0.00129071,-1.23314,0.00431406,0.0135318,790,575,-5.83111,10.6669
-427,449,-5.84949,-11.166,-0.000456266,0.00366657,-0.0015084,0.0041595,-0.0009492,-1.25494,0.00313763,0.0137638,797,575,-5.84949,11.166
-420,449,-5.8468,-11.6782,-0.000355929,0.00253026,-0.000930572,0.00280428,-0.00062995,-1.28443,0.00211107,0.0137669,804,575,-5.84679,11.6781
-413,449,-5.86444,-12.2063,-0.000329583,0.00127064,-0.000267097,0.00131404,-0.000372988,-1.4097,0.00102327,0.0107901,811,575,-5.86446,12.2063
-406,449,-5.90924,-12.7293,-0.000286992,0.000394985,0.000289371,0.00050122,-0.000393227,1.21895,0.000517662,0.00934757,818,575,-5.90923,12.7293
-399,449,-5.9325,-13.2418,-0.000157051,-0.000404932,0.000768111,0.000497055,-0.00105904,0.705409,0.000917733,0.00885566,825,575,-5.93248,13.2418
-392,449,-5.91675,-13.7474,0.000131363,-0.00115707,0.00115321,0.000808097,-0.0018338,0.530677,0.00156315,0.0100035,832,575,-5.91676,13.7474
-385,449,-5.91559,-14.2444,0.000556916,-0.00171868,0.00143625,0.00125144,-0.0024132,0.450415,0.00215093,0.0110298,839,575,-5.91559,14.2444
-378,449,-5.95477,-14.7446,0.00101546,-0.00224185,0.00174416,0.00177315,-0.00299954,0.409815,0.00278567,0.00999195,846,575,-5.95475,14.7447
-371,449,-5.95776,-15.2457,0.00160718,-0.00252443,0.00197055,0.00239631,-0.00331356,0.380902,0.00331074,0.0144729,853,575,-5.95774,15.2457
-364,449,-5.93536,-15.779,0,0,0,0,0,0,0,-1,860,575,-5.93538,15.779
-357,449,-5.88049,-15.8704,0,0,0,0,0,0,0,-1,867,575,-5.88051,15.8704
-350,449,-2.8764,-9.90204,0,0,0,0,0,0,0,-1,874,575,-2.87638,9.90203
-343,449,-2.98492,-9.2254,0,0,0,0,0,0,0,-1,881,575,-2.98491,9.22541
-336,449,-1.29523,-9.54626,0,0,0,0,0,0,0,-1,888,575,-1.29525,9.54626
-329,449,-0.733398,-7.78937,0,0,0,0,0,0,0,-1,895,575,-0.733398,7.78937
-322,449,-0.628845,-3.16669,0,0,0,0,0,0,0,-1,902,575,-0.628861,3.16667
-315,449,-0.540344,-3.21918,0,0,0,0,0,0,0,-1,909,575,-0.540336,3.21917
-308,449,-1.04413,-2.99341,0,0,0,0,0,0,0,-1,916,575,-1.04415,2.99338
-301,449,-1.58691,-2.80725,0,0,0,0,0,0,0,-1,923,575,-1.58692,2.80728
-294,449,-3.71118,-2.76086,0,0,0,0,0,0,0,-1,930,575,-3.71119,2.76087
-287,449,-4.4082,-2.69525,0,0,0,0,0,0,0,-1,937,575,-4.40822,2.69526
-280,449,-2.29956,-9.44751,0,0,0,0,0,0,0,-1,944,575,-2.29958,9.44753
-273,449,0,0,0,0,0,0,0,0,0,-1,951,575,0,0
-266,449,0,0,0,0,0,0,0,0,0,-1,958,575,0,0
-259,449,0,0,0,0,0,0,0,0,0,-1,965,575,0,0
-252,449,0,0,0,0,0,0,0,0,0,-1,972,575,0,0
-245,449,0,0,0,0,0,0,0,0,0,-1,979,575,0,0
-238,449,0,0,0,0,0,0,0,0,0,-1,986,575,0,0
-231,449,0,0,0,0,0,0,0,0,0,-1,993,575,0,0
-224,449,0,0,0,0,0,0,0,0,0,-1,1000,575,0,0
-217,449,0,0,0,0,0,0,0,0,0,-1,1007,575,0,0
-210,449,0,0,0,0,0,0,0,0,0,-1,1014,575,0,0
-203,449,0,0,0,0,0,0,0,0,0,-1,1021,575,0,0
-196,449,0,0,0,0,0,0,0,0,0,-1,1028,575,0,0
-189,449,0,0,0,0,0,0,0,0,0,-1,1035,575,0,0
-182,449,0,0,0,0,0,0,0,0,0,-1,1042,575,0,0
-175,449,0,0,0,0,0,0,0,0,0,-1,1049,575,0,0
-168,449,0,0,0,0,0,0,0,0,0,-1,1056,575,0,0
-161,449,0,0,0,0,0,0,0,0,0,-1,1063,575,0,0
-154,449,0,0,0,0,0,0,0,0,0,-1,1070,575,0,0
-147,449,0,0,0,0,0,0,0,0,0,-1,1077,575,0,0
-140,449,0,0,0,0,0,0,0,0,0,-1,1084,575,0,0
-133,449,0,0,0,0,0,0,0,0,0,-1,1091,575,0,0
-126,449,0,0,0,0,0,0,0,0,0,-1,1098,575,0,0
-119,449,0,0,0,0,0,0,0,0,0,-1,1105,575,0,0
-112,449,0,0,0,0,0,0,0,0,0,-1,1112,575,0,0
-105,449,0,0,0,0,0,0,0,0,0,-1,1119,575,0,0
-98,449,0,0,0,0,0,0,0,0,0,-1,1126,575,0,0
-91,449,0,0,0,0,0,0,0,0,0,-1,1133,575,0,0
-84,449,0,0,0,0,0,0,0,0,0,-1,1140,575,0,0
-77,449,0,0,0,0,0,0,0,0,0,-1,1147,575,0,0
-70,449,0,0,0,0,0,0,0,0,0,-1,1154,575,0,0
-63,449,0,0,0,0,0,0,0,0,0,-1,1161,575,0,0
-56,449,0,0,0,0,0,0,0,0,0,-1,1168,575,0,0
-49,449,0,0,0,0,0,0,0,0,0,-1,1175,575,0,0
-42,449,0,0,0,0,0,0,0,0,0,-1,1182,575,0,0
-35,449,0,0,0,0,0,0,0,0,0,-1,1189,575,0,0
-28,449,0,0,0,0,0,0,0,0,0,-1,1196,575,0,0
-21,449,0,0,0,0,0,0,0,0,0,-1,1203,575,0,0
-14,449,0,0,0,0,0,0,0,0,0,-1,1210,575,0,0
-7,449,0,0,0,0,0,0,0,0,0,-1,1217,575,0,0
0,449,0,0,0,0,0,0,0,0,0,-1,1224,575,0,0
7,449,0,0,0,0,0,0,0,0,0,-1,1231,575,0,0
14,449,0,0,0,0,0,0,0,0,0,-1,1238,575,0,0
21,449,0,0,0,0,0,0,0,0,0,-1,1245,575,0,0
28,449,0,0,0,0,0,0,0,0,0,-1,1252,575,0,0
35,449,0,0,0,0,0,0,0,0,0,-1,1259,575,0,0
42,449,0,0,0,0,0,0,0,0,0,-1,1266,575,0,0
49,449,0,0,0,0,0,0,0,0,0,-1,1273,575,0,0
56,449,0,0,0,0,0,0,0,0,0,-1,1280,575,0,0
63,449,0,0,0,0,0,0,0,0,0,-1,1287,575,0,0
70,449,0,0,0,0,0,0,0,0,0,-1,1294,575,0,0
77,449,0,0,0,0,0,0,0,0,0,-1,1301,575,0,0
84,449,0,0,0,0,0,0,0,0,0,-1,1308,575,0,0
91,449,0,0,0,0,0,0,0,0,0,-1,1315,575,0,0
98,449,0,0,0,0,0,0,0,0,0,-1,1322,575,0,0
105,449,0,0,0,0,0,0,0,0,0,-1,1329,575,0,0
112,449,0,0,0,0,0,0,0,0,0,-1,1336,575,0,0
119,449,0,0,0,0,0,0,0,0,0,-1,1343,575,0,0
126,449,0,0,0,0,0,0,0,0,0,-1,1350,575,0,0
133,449,0,0,0,0,0,0,0,0,0,-1,1357,575,0,0
140,449,0,0,0,0,0,0,0,0,0,-1,1364,575,0,0
147,449,0,0,0,0,0,0,0,0,0,-1,1371,575,0,0
154,449,0,0,0,0,0,0,0,0,0,-1,1378,575,0,0
161,449,0,0,0,0,0,0,0,0,0,-1,1385,575,0,0
168,449,0,0,0,0,0,0,0,0,0,-1,1392,575,0,0
175,449,0,0,0,0,0,0,0,0,0,-1,1399,575,0,0
182,449,0,0,0,0,0,0,0,0,0,-1,1406,575,0,0
189,449,0,0,0,0,0,0,0,0,0,-1,1413,575,0,0
196,449,0,0,0,0,0,0,0,0,0,-1,1420,575,0,0
203,449,0,0,0,0,0,0,0,0,0,-1,1427,575,0,0
210,449,0,0,0,0,0,0,0,0,0,-1,1434,575,0,0
217,449,0,0,0,0,0,0,0,0,0,-1,1441,575,0,0
224,449,0,0,0,0,0,0,0,0,0,-1,1448,575,0,0
231,449,0,0,0,0,0,0,0,0,0,-1,1455,575,0,0
238,449,0,0,0,0,0,0,0,0,0,-1,1462,575,0,0
245,449,0,0,0,0,0,0,0,0,0,-1,1469,575,0,0
252,449,0,0,0,0,0,0,0,0,0,-1,1476,575,0,0
259,449,0,0,0,0,0,0,0,0,0,-1,1483,575,0,0
266,449,0,0,0,0,0,0,0,0,0,-1,1490,575,0,0
273,449,0,0,0,0,0,0,0,0,0,-1,1497,575,0,0
280,449,0,0,0,0,0,0,0,0,0,-1,1504,575,0,0
287,449,0,0,0,0,0,0,0,0,0,-1,1511,575,0,0
294,449,0,0,0,0,0,0,0,0,0,-1,1518,575,0,0
301,449,0,0,0,0,0,0,0,0,0,-1,1525,575,0,0
308,449,0,0,0,0,0,0,0,0,0,-1,1532,575,0,0
315,449,0,0,0,0,0,0,0,0,0,-1,1539,575,0,0
322,449,0,0,0,0,0,0,0,0,0,-1,1546,575,0,0
329,449,0,0,0,0,0,0,0,0,0,-1,1553,575,0,0
336,449,0,0,0,0,0,0,0,0,0,-1,1560,575,0,0
343,449,0,0,0,0,0,0,0,0,0,-1,1567,575,0,0
350,449,0,0,0,0,0,0,0,0,0,-1,1574,575,0,0
357,449,0,0,0,0,0,0,0,0,0,-1,1581,575,0,0
364,449,0,0,0,0,0,0,0,0,0,-1,1588,575,0,0
371,449,0,0,0,0,0,0,0,0,0,-1,1595,575,0,0
378,449,0,0,0,0,0,0,0,0,0,-1,1602,575,0,0
385,449,0,0,0,0,0,0,0,0,0,-1,1609,575,0,0
392,449,7.95471,3.66217,0,0,0,0,0,0,0,-1,1616,575,7.95471,-3.66218
399,449,19.9791,5.565,0,0,0,0,0,0,0,-1,1623,575,19.9791,-5.56499
406,449,24.9847,4.55969,0,0,0,0,0,0,0,-1,1630,575,24.9848,-4.55968
413,449,30.4159,3.15027,0,0,0,0,0,0,0,-1,1637,575,30.4159,-3.15028
420,449,23.9675,1.29718,0,0,0,0,0,0,0,-1,1644,575,23.9675,-1.29721
427,449,24.4276,-0.596558,0,0,0,0,0,0,0,-1,1651,575,24.4277,0.596569
434,449,25.61,-2.96594,0,0,0,0,0,0,0,-1,1658,575,25.61,2.96595
441,449,3.89856,-6.06458,0,0,0,0,0,0,0,-1,1665,575,3.89855,6.06459
448,449,4.03198,-5.18207,0,0,0,0,0,0,0,-1,1672,575,4.03197,5.18207
455,449,4.21948,-4.09467,0,0,0,0,0,0,0,-1,1679,575,4.21952,4.09465
462,449,4.23181,-2.96924,0,0,0,0,0,0,0,-1,1686,575,4.23185,2.96926
469,449,4.51672,-2.95135,0,0,0,0,0,0,0,-1,1693,575,4.51672,2.95135
476,449,4.71838,-1.86688,0,0,0,0,0,0,0,-1,1700,575,4.71842,1.86689
483,449,4.87878,-1.73126,0,0,0,0,0,0,0,-1,1707,575,4.87875,1.73128
490,449,5.73279,-2.74573,0,0,0,0,0,0,0,-1,1714,575,5.73282,2.74575
497,449,15.3699,-14.2184,0,0,0,0,0,0,0,-1,1721,575,15.3698,14.2184
504,449,15.426,-13.5244,0.00491122,0.0024484,0.00216052,0.00616662,0.001193,0.526379,0.00377675,0.0480836,1728,575,15.426,13.5244
511,449,15.4744,-12.908,0.00420156,0.00214558,0.00194406,0.00537269,0.000974453,0.542193,0.00330521,0.0114742,1735,575,15.4743,12.908
518,449,15.5066,-12.3656,0.00347886,0.0018451,0.0017624,0.00460449,0.000719471,0.568384,0.00286016,0.0131523,1742,575,15.5065,12.3656
525,449,15.4766,-11.8286,0.00266012,0.00160013,0.00153969,0.00375848,0.000501768,0.619639,0.00235628,0.0128452,1749,575,15.4765,11.8285
532,449,15.425,-11.2839,0.0017811,0.00130836,0.00123021,0.00279744,0.000292019,0.690486,0.00177564,0.0111889,1756,575,15.4251,11.2839
539,449,15.3824,-10.7291,0.000935431,0.00097527,0.000932351,0.00188791,2.27864e-05,0.796079,0.00125108,0.0148268,1763,575,15.3825,10.729
546,449,15.3735,-10.1879,1.05609e-05,0.000621941,0.000581193,0.000972933,-0.000340431,1.0275,0.000787037,0.025132,1770,575,15.3735,10.1879
553,449,15.351,-9.65155,-0.00101752,0.000426114,0.00022194,0.000459464,-0.00105087,1.42165,0.000893995,0.0172993,1777,575,15.351,9.65157
560,449,15.3884,-9.12408,-0.00207835,0.000210185,-0.000120036,0.000216463,-0.00208463,-1.51854,0.00146724,0.013122,1784,575,15.3884,9.12408
567,449,15.3618,-8.58014,-0.00316953,0.000109127,-0.000400196,0.000157269,-0.00321767,-1.45108,0.00219941,0.00932849,1791,575,15.3619,8.58015
574,449,15.3541,-7.9826,-0.00448162,6.07862e-05,-0.00073904,0.000178002,-0.00459884,-1.4135,0.00312692,0.0225477,1798,575,15.3541,7.98262
581,449,15.3633,-7.31702,0,0,0,0,0,0,0,-1,1805,575,15.3633,7.31702
588,449,12.3274,-4.5672,0,0,0,0,0,0,0,-1,1812,575,12.3274,4.5672
595,449,11.2511,-2.25397,0,0,0,0,0,0,0,-1,1819,575,11.2511,2.25397
602,449,9.46167,4.17444,0,0,0,0,0,0,0,-1,1826,575,9.46164,-4.17442
609,449,12.2028,3.18652,0,0,0,0,0,0,0,-1,1833,575,12.2027,-3.18655
616,449,14.9438,2.19867,0,0,0,0,0,0,0,-1,1840,575,14.9438,-2.19867
623,449,9.83789,-0.0820313,0,0,0,0,0,0,0,-1,1847,575,9.83794,0.0820443
630,449,8.90686,4.99329,0,0,0,0,0,0,0,-1,1854,575,8.90685,-4.99327
637,449,0,0,0,0,0,0,0,0,0,-1,1861,575,0,0
644,449,0,0,0,0,0,0,0,0,0,-1,1868,575,0,0
651,449,0,0,0,0,0,0,0,0,0,-1,1875,575,0,0
658,449,0,0,0,0,0,0,0,0,0,-1,1882,575,0,0
665,449,0,0,0,0,0,0,0,0,0,-1,1889,575,0,0
672,449,0,0,0,0,0,0,0,0,0,-1,1896,575,0,0
679,449,0,0,0,0,0,0,0,0,0,-1,1903,575,0,0
686,449,0,0,0,0,0,0,0,0,0,-1,1910,575,0,0
693,449,0,0,0,0,0,0,0,0,0,-1,1917,575,0,0
700,449,0,0,0,0,0,0,0,0,0,-1,1924,575,0,0
707,449,0,0,0,0,0,0,0,0,0,-1,1931,575,0,0
714,449,0,0,0,0,0,0,0,0,0,-1,1938,575,0,0
721,449,0,0,0,0,0,0,0,0,0,-1,1945,575,0,0
728,449,0,0,0,0,0,0,0,0,0,-1,1952,575,0,0
735,449,0,0,0,0,0,0,0,0,0,-1,1959,575,0,0
742,449,0,0,0,0,0,0,0,0,0,-1,1966,575,0,0
749,449,0,0,0,0,0,0,0,0,0,-1,1973,575,0,0
756,449,0,0,0,0,0,0,0,0,0,-1,1980,575,0,0
763,449,0,0,0,0,0,0,0,0,0,-1,1987,575,0,0
770,449,0,0,0,0,0,0,0,0,0,-1,1994,575,0,0
777,449,0,0,0,0,0,0,0,0,0,-1,2001,575,0,0
784,449,0,0,0,0,0,0,0,0,0,-1,2008,575,0,0
791,449,0,0,0,0,0,0,0,0,0,-1,2015,575,0,0
798,449,0,0,0,0,0,0,0,0,0,-1,2022,575,0,0
805,449,0,0,0,0,0,0,0,0,0,-1,2029,575,0,0
812,449,0,0,0,0,0,0,0,0,0,-1,2036,575,0,0
-700,442,0,0,0,0,0,0,0,0,0,-1,524,582,0,0
-693,442,0,0,0,0,0,0,0,0,0,-1,531,582,0,0
-686,442,0,0,0,0,0,0,0,0,0,-1,538,582,0,0
-679,442,0,0,0,0,0,0,0,0,0,-1,545,582,0,0
-672,442,0,0,0,0,0,0,0,0,0,-1,552,582,0,0
-665,442,0,0,0,0,0,0,0,0,0,-1,559,582,0,0
-658,442,0,0,0,0,0,0,0,0,0,-1,566,582,0,0
-651,442,0,0,0,0,0,0,0,0,0,-1,573,582,0,0
-644,442,0,0,0,0,0,0,0,0,0,-1,580,582,0,0
-637,442,0,0,0,0,0,0,0,0,0,-1,587,582,0,0
-630,442,0,0,0,0,0,0,0,0,0,-1,594,582,0,0
-623,442,0,0,0,0,0,0,0,0,0,-1,601,582,0,0
-616,442,0,0,0,0,0,0,0,0,0,-1,608,582,0,0
-609,442,0,0,0,0,0,0,0,0,0,-1,615,582,0,0
-602,442,0,0,0,0,0,0,0,0,0,-1,622,582,0,0
-595,442,0,0,0,0,0,0,0,0,0,-1,629,582,0,0
-588,442,0,0,0,0,0,0,0,0,0,-1,636,582,0,0
-581,442,0,0,0,0,0,0,0,0,0,-1,643,582,0,0
-574,442,0,0,0,0,0,0,0,0,0,-1,650,582,0,0
-567,442,0,0,0,0,0,0,0,0,0,-1,657,582,0,0
-560,442,0,0,0,0,0,0,0,0,0,-1,664,582,0,0
-553,442,0,0,0,0,0,0,0,0,0,-1,671,582,0,0
-546,442,0,0,0,0,0,0,0,0,0,-1,678,582,0,0
-539,442,0,0,0,0,0,0,0,0,0,-1,685,582,0,0
-532,442,0,0,0,0,0,0,0,0,0,-1,692,582,0,0
-525,442,0,0,0,0,0,0,0,0,0,-1,699,582,0,0
-518,442,-0.493774,-5.72943,0,0,0,0,0,0,0,-1,706,582,-0.493791,5.72946
-511,442,-1.33008,-6.18512,0,0,0,0,0,0,0,-1,713,582,-1.33006,6.18511
-504,442,-3.20807,-6.34082,0,0,0,0,0,0,0,-1,720,582,-3.2081,6.34083
-497,442,-13.6886,-0.250122,0,0,0,0,0,0,0,-1,727,582,-13.6886,0.250143
-490,442,-9.09039,-3.64862,0,0,0,0,0,0,0,-1,734,582,-9.09037,3.64861
-483,442,-7.36499,-1.01892,0,0,0,0,0,0,0,-1,741,582,-7.365,1.01895
-476,442,-4.62225,-3.47467,0,0,0,0,0,0,0,-1,748,582,-4.62225,3.47465
-469,442,-6.23663,-7.11023,0,0,0,0,0,0,0,-1,755,582,-6.2366,7.11022
-462,442,-6.51294,-8.29669,0,0,0,0,0,0,0,-1,762,582,-6.51291,8.29667
-455,442,-6.39941,-9.01715,-0.000639461,0.0079826,-0.00408476,0.00961044,-0.00226731,-1.19157,0.00728136,0.0421885,769,582,-6.39943,9.01713
-448,442,-6.29175,-9.5777,-0.00039995,0.00637063,-0.00325277,0.00768009,-0.00170941,-1.18808,0.00577482,0.0168426,776,582,-6.29174,9.57768
-441,442,-6.33191,-10.121,-0.000286312,0.00484281,-0.00242043,0.00580464,-0.00124814,-1.19255,0.00434597,0.0132661,783,582,-6.33188,10.1209
-434,442,-6.35144,-10.6465,-0.000292771,0.00355594,-0.00162961,0.00415325,-0.000890079,-1.21947,0.0031083,0.0143285,790,582,-6.35142,10.6465
-427,442,-6.36841,-11.163,-0.000338018,0.00234016,-0.000888155,0.00260792,-0.000605783,-1.27798,0.00197181,0.0139913,797,582,-6.36839,11.163
-420,442,-6.37244,-11.6781,-0.000336232,0.00127653,-0.000251601,0.00131487,-0.000374571,-1.41958,0.00102452,0.01417,804,582,-6.37243,11.6781
-413,442,-6.37988,-12.2039,-0.000423104,8.52092e-05,0.000481906,0.000375873,-0.000713767,1.02806,0.000639107,0.0118631,811,582,-6.37988,12.2039
-406,442,-6.41083,-12.7307,-0.000504302,-0.000766402,0.00111949,0.000491778,-0.00176248,0.727132,0.00136869,0.00953727,818,582,-6.41081,12.7307
-399,442,-6.43756,-13.2425,-0.00046407,-0.00153547,0.00165584,0.000740571,-0.00274011,0.628951,0.00211722,0.00818405,825,582,-6.43753,13.2425
-392,442,-6.42969,-13.7267,-0.000243426,-0.00221757,0.00208203,0.00107366,-0.00353466,0.564045,0.00278421,0.0103703,832,582,-6.42971,13.7267
-385,442,-6.4361,-14.2141,0.000109816,-0.00270642,0.00239927,0.00148366,-0.00408027,0.520034,0.0033269,0.0128512,839,582,-6.43613,14.2141
-378,442,-6.45197,-14.7234,0.000491379,-0.00320962,0.00277715,0.00197808,-0.00469633,0.491513,0.00395856,0.0146206,846,582,-6.45199,14.7234
-371,442,-6.41992,-15.2629,0.00109674,-0.00338542,0.00304081,0.00263308,-0.00492177,0.467833,0.00442801,0.0431153,853,582,-6.41991,15.2629
-364,442,-6.28052,-15.7822,0,0,0,0,0,0,0,-1,860,582,-6.28049,15.7822
-357,442,-4.9115,-11.2649,0,0,0,0,0,0,0,-1,867,582,-4.91147,11.2649
-350,442,-1.75372,-6.27618,0,0,0,0,0,0,0,-1,874,582,-1.75371,6.27618
-343,442,-1.4599,-4.63605,0,0,0,0,0,0,0,-1,881,582,-1.4599,4.63607
-336,442,-1.4054,-2.64313,0,0,0,0,0,0,0,-1,888,582,-1.40539,2.64315
-329,442,-0.952576,-2.76923,0,0,0,0,0,0,0,-1,895,582,-0.952571,2.7692
-322,442,-0.972534,-2.63208,0,0,0,0,0,0,0,-1,902,582,-0.972512,2.6321
-315,442,-0.445557,-2.89764,0,0,0,0,0,0,0,-1,909,582,-0.445582,2.89765
-308,442,-0.654175,-3.07831,0,0,0,0,0,0,0,-1,916,582,-0.654145,3.07832
-301,442,-1.37427,-2.41455,0,0,0,0,0,0,0,-1,923,582,-1.37425,2.41453
-294,442,-2.99963,-2.07855,0,0,0,0,0,0,0,-1,930,582,-2.99964,2.07857
-287,442,-5.62799,-2.76422,0,0,0,0,0,0,0,-1,937,582,-5.628,2.76424
-280,442,0,0,0,0,0,0,0,0,0,-1,944,582,0,0
-273,442,0,0,0,0,0,0,0,0,0,-1,951,582,0,0
-266,442,0,0,0,0,0,0,0,0,0,-1,958,582,0,0
-259,442,0,0,0,0,0,0,0,0,0,-1,965,582,0,0
-252,442,0,0,0,0,0,0,0,0,0,-1,972,582,0,0
-245,442,0,0,0,0,0,0,0,0,0,-1,979,582,0,0
-238,442,0,0,0,0,0,0,0,0,0,-1,986,582,0,0
-231,442,0,0,0,0,0,0,0,0,0,-1,993,582,0,0
-224,442,0,0,0,0,0,0,0,0,0,-1,1000,582,0,0
-217,442,0,0,0,0,0,0,0,0,0,-1,1007,582,0,0
-210,442,0,0,0,0,0,0,0,0,0,-1,1014,582,0,0
-203,442,0,0,0,0,0,0,0,0,0,-1,1021,582,0,0
-196,442,0,0,0,0,0,0,0,0,0,-1,1028,582,0,0
-189,442,0,0,0,0,0,0,0,0,0,-1,1035,582,0,0
-182,442,0,0,0,0,0,0,0,0,0,-1,1042,582,0,0
-175,442,0,0,0,0,0,0,0,0,0,-1,1049,582,0,0
-168,442,0,0,0,0,0,0,0,0,0,-1,1056,582,0,0
-161,442,0,0,0,0,0,0,0,0,0,-1,1063,582,0,0
-154,442,0,0,0,0,0,0,0,0,0,-1,1070,582,0,0
-147,442,0,0,0,0,0,0,0,0,0,-1,1077,582,0,0
-140,442,0,0,0,0,0,0,0,0,0,-1,1084,582,0,0
-133,442,0,0,0,0,0,0,0,0,0,-1,1091,582,0,0
-126,442,0,0,0,0,0,0,0,0,0,-1,1098,582,0,0
-119,442,0,0,0,0,0,0,0,0,0,-1,1105,582,0,0
-112,442,0,0,0,0,0,0,0,0,0,-1,1112,582,0,0
-105,442,0,0,0,0,0,0,0,0,0,-1,1119,582,0,0
-98,442,0,0,0,0,0,0,0,0,0,-1,1126,582,0,0
-91,442,0,0,0,0,0,0,0,0,0,-1,1133,582,0,0
-84,442,0,0,0,0,0,0,0,0,0,-1,1140,582,0,0
-77,442,0,0,0,0,0,0,0,0,0,-1,1147,582,0,0
-70,442,0,0,0,0,0,0,0,0,0,-1,1154,582,0,0
-63,442,0,0,0,0,0,0,0,0,0,-1,1161,582,0,0
-56,442,0,0,0,0,0,0,0,0,0,-1,1168,582,0,0
-49,442,0,0,0,0,0,0,0,0,0,-1,1175,582,0,0
-42,442,0,0,0,0,0,0,0,0,0,-1,1182,582,0,0
-35,442,0,0,0,0,0,0,0,0,0,-1,1189,582,0,0
-28,442,0,0,0,0,0,0,0,0,0,-1,1196,582,0,0
-21,442,0,0,0,0,0,0,0,0,0,-1,1203,582,0,0
-14,442,0,0,0,0,0,0,0,0,0,-1,1210,582,0,0
-7,442,0,0,0,0,0,0,0,0,0,-1,1217,582,0,0
0,442,0,0,0,0,0,0,0,0,0,-1,1224,582,0,0
7,442,0,0,0,0,0,0,0,0,0,-1,1231,582,0,0
14,442,0,0,0,0,0,0,0,0,0,-1,1238,582,0,0
21,442,0,0,0,0,0,0,0,0,0,-1,1245,582,0,0
28,442,0,0,0,0,0,0,0,0,0,-1,1252,582,0,0
35,442,0,0,0,0,0,0,0,0,0,-1,1259,582,0,0
42,442,0,0,0,0,0,0,0,0,0,-1,1266,582,0,0
49,442,0,0,0,0,0,0,0,0,0,-1,1273,582,0,0
56,442,0,0,0,0,0,0,0,0,0,-1,1280,582,0,0
63,442,0,0,0,0,0,0,0,0,0,-1,1287,582,0,0
70,442,0,0,0,0,0,0,0,0,0,-1,1294,582,0,0
77,442,0,0,0,0,0,0,0,0,0,-1,1301,582,0,0
84,442,0,0,0,0,0,0,0,0,0,-1,1308,582,0,0
91,442,0,0,0,0,0,0,0,0,0,-1,1315,582,0,0
98,442,0,0,0,0,0,0,0,0,0,-1,1322,582,0,0
105,442,0,0,0,0,0,0,0,0,0,-1,1329,582,0,0
112,442,0,0,0,0,0,0,0,0,0,-1,1336,582,0,0
119,442,0,0,0,0,0,0,0,0,0,-1,1343,582,0,0
126,442,0,0,0,0,0,0,0,0,0,-1,1350,582,0,0
133,442,0,0,0,0,0,0,0,0,0,-1,1357,582,0,0
140,442,0,0,0,0,0,0,0,0,0,-1,1364,582,0,0
147,442,0,0,0,0,0,0,0,0,0,-1,1371,582,0,0
154,442,0,0,0,0,0,0,0,0,0,-1,1378,582,0,0
161,442,0,0,0,0,0,0,0,0,0,-1,1385,582,0,0
168,442,0,0,0,0,0,0,0,0,0,-1,1392,582,0,0
175,442,0,0,0,0,0,0,0,0,0,-1,1399,582,0,0
182,442,0,0,0,0,0,0,0,0,0,-1,1406,582,0,0
189,442,0,0,0,0,0,0,0,0,0,-1,1413,582,0,0
196,442,0,0,0,0,0,0,0,0,0,-1,1420,582,0,0
203,442,0,0,0,0,0,0,0,0,0,-1,1427,582,0,0
210,442,0,0,0,0,0,0,0,0,0,-1,1434,582,0,0
217,442,0,0,0,0,0,0,0,0,0,-1,1441,582,0,0
224,442,0,0,0,0,0,0,0,0,0,-1,1448,582,0,0
231,442,0,0,0,0,0,0,0,0,0,-1,1455,582,0,0
238,442,0,0,0,0,0,0,0,0,0,-1,1462,582,0,0
245,442,0,0,0,0,0,0,0,0,0,-1,1469,582,0,0
252,442,0,0,0,0,0,0,0,0,0,-1,1476,582,0,0
259,442,0,0,0,0,0,0,0,0,0,-1,1483,582,0,0
266,442,0,0,0,0,0,0,0,0,0,-1,1490,582,0,0
273,442,0,0,0,0,0,0,0,0,0,-1,1497,582,0,0
280,442,0,0,0,0,0,0,0,0,0,-1,1504,582,0,0
287,442,0,0,0,0,0,0,0,0,0,-1,1511,582,0,0
294,442,0,0,0,0,0,0,0,0,0,-1,1518,582,0,0
301,442,0,0,0,0,0,0,0,0,0,-1,1525,582,0,0
308,442,0,0,0,0,0,0,0,0,0,-1,1532,582,0,0
315,442,0,0,0,0,0,0,0,0,0,-1,1539,582,0,0
322,442,0,0,0,0,0,0,0,0,0,-1,1546,582,0,0
329,442,0,0,0,0,0,0,0,0,0,-1,1553,582,0,0
336,442,0,0,0,0,0,0,0,0,0,-1,1560,582,0,0
343,442,0,0,0,0,0,0,0,0,0,-1,1567,582,0,0
350,442,0,0,0,0,0,0,0,0,0,-1,1574,582,0,0
357,442,0,0,0,0,0,0,0,0,0,-1,1581,582,0,0
364,442,0,0,0,0,0,0,0,0,0,-1,1588,582,0,0
371,442,0,0,0,0,0,0,0,0,0,-1,1595,582,0,0
378,442,0,0,0,0,0,0,0,0,0,-1,1602,582,0,0
385,442,0,0,0,0,0,0,0,0,0,-1,1609,582,0,0
392,442,0,0,0,0,0,0,0,0,0,-1,1616,582,0,0
399,442,0,0,0,0,0,0,0,0,0,-1,1623,582,0,0
406,442,17.6321,4.08295,0,0,0,0,0,0,0,-1,1630,582,17.6321,-4.08293
413,442,25.4768,2.74445,0,0,0,0,0,0,0,-1,1637,582,25.4768,-2.74444
420,442,22.7478,1.55011,0,0,0,0,0,0,0,-1,1644,582,22.7478,-1.55009
427,442,23.2969,-0.456787,0,0,0,0,0,0,0,-1,1651,582,23.2968,0.456769
434,442,23.9512,-2.49365,0,0,0,0,0,0,0,-1,1658,582,23.9512,2.49366
441,442,24.8251,-4.43958,0,0,0,0,0,0,0,-1,1665,582,24.8251,4.43956
448,442,4.7749,-5.88562,0,0,0,0,0,0,0,-1,1672,582,4.7749,5.8856
455,442,4.87024,-4.60687,0,0,0,0,0,0,0,-1,1679,582,4.87019,4.60686
462,442,5.02307,-3.72821,0,0,0,0,0,0,0,-1,1686,582,5.02311,3.7282
469,442,5.12976,-2.98834,0,0,0,0,0,0,0,-1,1693,582,5.12971,2.98834
476,442,5.4624,1.76947,0,0,0,0,0,0,0,-1,1700,582,5.46234,-1.76944
483,442,5.98486,1.87042,0,0,0,0,0,0,0,-1,1707,582,5.98492,-1.87045
490,442,5.04407,-2.35834,0,0,0,0,0,0,0,-1,1714,582,5.04411,2.35837
497,442,6.20984,-3.07831,0,0,0,0,0,0,0,-1,1721,582,6.2098,3.07833
504,442,15.88,-13.5059,0,0,0,0,0,0,0,-1,1728,582,15.88,13.5059
511,442,15.9607,-12.8985,0.00512224,0.002898,0.00241388,0.00666786,0.00135237,0.569532,0.00407005,0.0318913,1735,582,15.9607,12.8985
518,442,16.0298,-12.3259,0.00444636,0.00239156,0.00220409,0.00585074,0.000987171,0.567304,0.00361663,0.0116572,1742,582,16.0298,12.3259
525,442,15.9988,-11.8011,0.00360861,0.00208802,0.00195699,0.00494781,0.00074882,0.60012,0.00307943,0.0104227,1749,582,15.9988,11.8011
532,442,15.9825,-11.2637,0.00271579,0.0016936,0.00160811,0.00389207,0.00051732,0.631534,0.00244061,0.0113348,1756,582,15.9826,11.2637
539,442,15.9457,-10.7073,0.00189691,0.00131045,0.00129173,0.00292828,0.000279083,0.673788,0.00186613,0.0131974,1763,582,15.9457,10.7074
546,442,15.9221,-10.1761,0.00102812,0.000925575,0.000936296,0.00191455,3.91484e-05,0.758045,0.00126352,0.0167867,1770,582,15.9221,10.1762
553,442,15.9027,-9.66553,5.19474e-05,0.00067719,0.000572026,0.00101645,-0.00028731,1.03548,0.00079099,0.0166993,1777,582,15.9027,9.66555
560,442,15.9092,-9.11523,-0.000968982,0.00043439,0.000219273,0.000467853,-0.00100244,1.41936,0.000867379,0.0142317,1784,582,15.9092,9.11521
567,442,15.896,-8.55682,-0.00199699,0.000359335,-5.63689e-05,0.000360683,-0.00199834,-1.54689,0.0014673,0.0100143,1791,582,15.896,8.55684
574,442,15.8807,-7.99792,-0.00315322,0.000364519,-0.000342101,0.00039748,-0.00318618,-1.47475,0.00226825,0.0125466,1798,582,15.8807,7.99793
581,442,15.9121,-7.38086,-0.00449586,0.000502262,-0.000611691,0.000576035,-0.00456963,-1.45077,0.00325546,0.0252772,1805,582,15.9121,7.38087
588,442,15.9928,-6.7384,0,0,0,0,0,0,0,-1,1812,582,15.9928,6.73841
595,442,15.7375,-6.42438,0,0,0,0,0,0,0,-1,1819,582,15.7376,6.42435
602,442,11.4385,-1.74512,0,0,0,0,0,0,0,-1,1826,582,11.4385,1.74509
609,442,12.761,2.97223,0,0,0,0,0,0,0,-1,1833,582,12.761,-2.97221
616,442,9.78345,-0.103394,0,0,0,0,0,0,0,-1,1840,582,9.78341,0.103424
623,442,9.23828,0.326721,0,0,0,0,0,0,0,-1,1847,582,9.23829,-0.326727
630,442,7.74304,2.3924,0,0,0,0,0,0,0,-1,1854,582,7.7431,-2.39238
637,442,5.87805,1.84027,0,0,0,0,0,0,0,-1,1861,582,5.87807,-1.84025
644,442,0,0,0,0,0,0,0,0,0,-1,1868,582,0,0
651,442,0,0,0,0,0,0,0,0,0,-1,1875,582,0,0
658,442,0,0,0,0,0,0,0,0,0,-1,1882,582,0,0
665,442,0,0,0,0,0,0,0,0,0,-1,1889,582,0,0
672,442,0,0,0,0,0,0,0,0,0,-1,1896,582,0,0
679,442,0,0,0,0,0,0,0,0,0,-1,1903,582,0,0
686,442,0,0,0,0,0,0,0,0,0,-1,1910,582,0,0
693,442,0,0,0,0,0,0,0,0,0,-1,1917,582,0,0
700,442,0,0,0,0,0,0,0,0,0,-1,1924,582,0,0
707,442,0,0,0,0,0,0,0,0,0,-1,1931,582,0,0
714,442,0,0,0,0,0,0,0,0,0,-1,1938,582,0,0
721,442,0,0,0,0,0,0,0,0,0,-1,1945,582,0,0
728,442,0,0,0,0,0,0,0,0,0,-1,1952,582,0,0
735,442,0,0,0,0,0,0,0,0,0,-1,1959,582,0,0
742,442,0,0,0,0,0,0,0,0,0,-1,1966,582,0,0
749,442,0,0,0,0,0,0,0,0,0,-1,1973,582,0,0
756,442,0,0,0,0,0,0,0,0,0,-1,1980,582,0,0
763,442,0,0,0,0,0,0,0,0,0,-1,1987,582,0,0
770,442,0,0,0,0,0,0,0,0,0,-1,1994,582,0,0
777,442,0,0,0,0,0,0,0,0,0,-1,2001,582,0,0
784,442,0,0,0,0,0,0,0,0,0,-1,2008,582,0,0
791,442,0,0,0,0,0,0,0,0,0,-1,2015,582,0,0
798,442,0,0,0,0,0,0,0,0,0,-1,2022,582,0,0
805,442,0,0,0,0,0,0,0,0,0,-1,2029,582,0,0
812,442,0,0,0,0,0,0,0,0,0,-1,2036,582,0,0
-700,435,0,0,0,0,0,0,0,0,0,-1,524,589,0,0
-693,435,0,0,0,0,0,0,0,0,0,-1,531,589,0,0
-686,435,0,0,0,0,0,0,0,0,0,-1,538,589,0,0
-679,435,0,0,0,0,0,0,0,0,0,-1,545,589,0,0
-672,435,0,0,0,0,0,0,0,0,0,-1,552,589,0,0
-665,435,0,0,0,0,0,0,0,0,0,-1,559,589,0,0
-658,435,0,0,0,0,0,0,0,0,0,-1,566,589,0,0
-651,435,0,0,0,0,0,0,0,0,0,-1,573,589,0,0
-644,435,0,0,0,0,0,0,0,0,0,-1,580,589,0,0
-637,435,0,0,0,0,0,0,0,0,0,-1,587,589,0,0
-630,435,0,0,0,0,0,0,0,0,0,-1,594,589,0,0
-623,435,0,0,0,0,0,0,0,0,0,-1,601,589,0,0
-616,435,0,0,0,0,0,0,0,0,0,-1,608,589,0,0
-609,435,0,0,0,0,0,0,0,0,0,-1,615,589,0,0
-602,435,0,0,0,0,0,0,0,0,0,-1,622,589,0,0
-595,435,0,0,0,0,0,0,0,0,0,-1,629,589,0,0
-588,435,0,0,0,0,0,0,0,0,0,-1,636,589,0,0
-581,435,0,0,0,0,0,0,0,0,0,-1,643,589,0,0
-574,435,0,0,0,0,0,0,0,0,0,-1,650,589,0,0
-567,435,0,0,0,0,0,0,0,0,0,-1,657,589,0,0
-560,435,0,0,0,0,0,0,0,0,0,-1,664,589,0,0
-553,435,0,0,0,0,0,0,0,0,0,-1,671,589,0,0
-546,435,0,0,0,0,0,0,0,0,0,-1,678,589,0,0
-539,435,0,0,0,0,0,0,0,0,0,-1,685,589,0,0
-532,435,0,0,0,0,0,0,0,0,0,-1,692,589,0,0
-525,435,-10.0776,10.0547,0,0,0,0,0,0,0,-1,699,589,-10.0776,-10.0547
-518,435,-1.83093,-5.82367,0,0,0,0,0,0,0,-1,706,589,-1.83093,5.8237
-511,435,-2.45154,-5.33118,0,0,0,0,0,0,0,-1,713,589,-2.45151,5.33115
-504,435,-3.07208,-4.83862,0,0,0,0,0,0,0,-1,720,589,-3.0721,4.8386
-497,435,-6.31012,-5.84698,0,0,0,0,0,0,0,-1,727,589,-6.31012,5.84697
-490,435,-5.81903,-0.458679,0,0,0,0,0,0,0,-1,734,589,-5.81902,0.458684
-483,435,-6.96503,-3.01624,0,0,0,0,0,0,0,-1,741,589,-6.96505,3.01623
-476,435,-6.75745,-6.69055,0,0,0,0,0,0,0,-1,748,589,-6.75742,6.69053
-469,435,-6.69977,-7.5025,-0.00167833,0.00951455,-0.00475958,0.0112648,-0.00342858,-1.21841,0.00887626,0.0375399,755,589,-6.69974,7.50247
-462,435,-6.69141,-8.43365,-0.000928815,0.00768931,-0.00400411,0.0092625,-0.00250201,-1.19643,0.00715631,0.0225006,762,589,-6.69143,8.43366
-455,435,-6.8454,-8.97626,-0.000350368,0.00643893,-0.00346663,0.00789621,-0.00180765,-1.17285,0.0059588,0.0207262,769,589,-6.8454,8.97628
-448,435,-6.82507,-9.57904,-0.000160186,0.00490485,-0.002637,0.00602848,-0.00128382,-1.16799,0.00450828,0.0129992,776,589,-6.82507,9.57905
-441,435,-6.83789,-10.0942,-0.000127094,0.00349372,-0.00180346,0.00423871,-0.000872079,-1.17906,0.00315691,0.0106829,783,589,-6.83788,10.0942
-434,435,-6.85901,-10.5986,-0.000222446,0.00230462,-0.000995916,0.00264992,-0.000567753,-1.23704,0.00198314,0.0130085,790,589,-6.85898,10.5986
-427,435,-6.88116,-11.1562,-0.000367745,0.00112751,-0.000205522,0.00115524,-0.000395479,-1.43666,0.00093044,0.0112579,797,589,-6.88119,11.1562
-420,435,-6.87299,-11.6687,-0.00047562,8.38836e-05,0.000502388,0.000379157,-0.000770893,1.03944,0.0006767,0.0114674,804,589,-6.873,11.6687
-413,435,-6.88678,-12.1922,-0.000692728,-0.0010756,0.0013219,0.000451525,-0.00221986,0.713488,0.00165112,0.0120792,811,589,-6.88678,12.1922
-406,435,-6.91681,-12.7122,-0.000926332,-0.00197474,0.00207331,0.000688014,-0.00358909,0.661576,0.00265198,0.0119699,818,589,-6.91679,12.7122
-399,435,-6.94098,-13.2149,-0.00101549,-0.00279701,0.00271315,0.000949383,-0.00476188,0.626786,0.00353381,0.00988235,825,589,-6.94095,13.2149
-392,435,-6.95862,-13.7199,-0.000904833,-0.00349595,0.00324071,0.00128969,-0.00569047,0.595241,0.00428868,0.0105784,832,589,-6.95861,13.7199
-385,435,-6.9649,-14.2237,-0.000680845,-0.00401969,0.00366818,0.00167993,-0.00638046,0.571851,0.00491036,0.0178445,839,589,-6.96489,14.2237
-378,435,-6.99866,-14.6366,-0.000441655,-0.00463726,0.00421798,0.0021714,-0.00725031,0.554637,0.00569699,0.0391506,846,589,-6.99864,14.6366
-371,435,-6.90936,-15.2547,0,0,0,0,0,0,0,-1,853,589,-6.90935,15.2547
-364,435,-5.62848,-11.5937,0,0,0,0,0,0,0,-1,860,589,-5.62847,11.5937
-357,435,-5.57343,-10.9666,0,0,0,0,0,0,0,-1,867,589,-5.57342,10.9666
-350,435,-0.86676,-3.69836,0,0,0,0,0,0,0,-1,874,589,-0.866784,3.69834
-343,435,-1.60706,-2.36835,0,0,0,0,0,0,0,-1,881,589,-1.60706,2.36838
-336,435,-2.07263,-1.94012,0,0,0,0,0,0,0,-1,888,589,-2.07265,1.94014
-329,435,-2.55963,-1.5517,0,0,0,0,0,0,0,-1,895,589,-2.5596,1.55168
-322,435,-3.08545,-1.55255,0,0,0,0,0,0,0,-1,902,589,-3.08544,1.55254
-315,435,-0.404297,-2.63763,0,0,0,0,0,0,0,-1,909,589,-0.404276,2.63761
-308,435,-1.70056,-1.90369,0,0,0,0,0,0,0,-1,916,589,-1.70056,1.90367
-301,435,-1.25232,-2.05511,0,0,0,0,0,0,0,-1,923,589,-1.25234,2.05514
-294,435,-1.79974,-1.97321,0,0,0,0,0,0,0,-1,930,589,-1.79973,1.97322
-287,435,0,0,0,0,0,0,0,0,0,-1,937,589,0,0
-280,435,0,0,0,0,0,0,0,0,0,-1,944,589,0,0
-273,435,0,0,0,0,0,0,0,0,0,-1,951,589,0,0
-266,435,0,0,0,0,0,0,0,0,0,-1,958,589,0,0
-259,435,0,0,0,0,0,0,0,0,0,-1,965,589,0,0
-252,435,0,0,0,0,0,0,0,0,0,-1,972,589,0,0
-245,435,0,0,0,0,0,0,0,0,0,-1,979,589,0,0
-238,435,0,0,0,0,0,0,0,0,0,-1,986,589,0,0
-231,435,0,0,0,0,0,0,0,0,0,-1,993,589,0,0
-224,435,0,0,0,0,0,0,0,0,0,-1,1000,589,0,0
-217,435,0,0,0,0,0,0,0,0,0,-1,1007,589,0,0
-210,435,0,0,0,0,0,0,0,0,0,-1,1014,589,0,0
-203,435,0,0,0,0,0,0,0,0,0,-1,1021,589,0,0
-196,435,0,0,0,0,0,0,0,0,0,-1,1028,589,0,0
-189,435,0,0,0,0,0,0,0,0,0,-1,1035,589,0,0
-182,435,0,0,0,0,0,0,0,0,0,-1,1042,589,0,0
-175,435,0,0,0,0,0,0,0,0,0,-1,1049,589,0,0
-168,435,0,0,0,0,0,0,0,0,0,-1,1056,589,0,0
-161,435,0,0,0,0,0,0,0,0,0,-1,1063,589,0,0
-154,435,0,0,0,0,0,0,0,0,0,-1,1070,589,0,0
-147,435,0,0,0,0,0,0,0,0,0,-1,1077,589,0,0
-140,435,0,0,0,0,0,0,0,0,0,-1,1084,589,0,0
-133,435,0,0,0,0,0,0,0,0,0,-1,1091,589,0,0
-126,435,0,0,0,0,0,0,0,0,0,-1,1098,589,0,0
-119,435,0,0,0,0,0,0,0,0,0,-1,1105,589,0,0
-112,435,0,0,0,0,0,0,0,0,0,-1,1112,589,0,0
-105,435,0,0,0,0,0,0,0,0,0,-1,1119,589,0,0
-98,435,0,0,0,0,0,0,0,0,0,-1,1126,589,0,0
-91,435,0,0,0,0,0,0,0,0,0,-1,1133,589,0,0
-84,435,0,0,0,0,0,0,0,0,0,-1,1140,589,0,0
-77,435,0,0,0,0,0,0,0,0,0,-1,1147,589,0,0
-70,435,0,0,0,0,0,0,0,0,0,-1,1154,589,0,0
-63,435,0,0,0,0,0,0,0,0,0,-1,1161,589,0,0
-56,435,0,0,0,0,0,0,0,0,0,-1,1168,589,0,0
-49,435,0,0,0,0,0,0,0,0,0,-1,1175,589,0,0
-42,435,0,0,0,0,0,0,0,0,0,-1,1182,589,0,0
-35,435,0,0,0,0,0,0,0,0,0,-1,1189,589,0,0
-28,435,0,0,0,0,0,0,0,0,0,-1,1196,589,0,0
-21,435,0,0,0,0,0,0,0,0,0,-1,1203,589,0,0
-14,435,0,0,0,0,0,0,0,0,0,-1,1210,589,0,0
-7,435,0,0,0,0,0,0,0,0,0,-1,1217,589,0,0
0,435,0,0,0,0,0,0,0,0,0,-1,1224,589,0,0
7,435,0,0,0,0,0,0,0,0,0,-1,1231,589,0,0
14,435,0,0,0,0,0,0,0,0,0,-1,1238,589,0,0
21,435,0,0,0,0,0,0,0,0,0,-1,1245,589,0,0
28,435,0,0,0,0,0,0,0,0,0,-1,1252,589,0,0
35,435,0,0,0,0,0,0,0,0,0,-1,1259,589,0,0
42,435,0,0,0,0,0,0,0,0,0,-1,1266,589,0,0
49,435,0,0,0,0,0,0,0,0,0,-1,1273,589,0,0
56,435,0,0,0,0,0,0,0,0,0,-1,1280,589,0,0
63,435,0,0,0,0,0,0,0,0,0,-1,1287,589,0,0
70,435,0,0,0,0,0,0,0,0,0,-1,1294,589,0,0
77,435,0,0,0,0,0,0,0,0,0,-1,1301,589,0,0
84,435,0,0,0,0,0,0,0,0,0,-1,1308,589,0,0
91,435,0,0,0,0,0,0,0,0,0,-1,1315,589,0,0
98,435,0,0,0,0,0,0,0,0,0,-1,1322,589,0,0
105,435,0,0,0,0,0,0,0,0,0,-1,1329,589,0,0
112,435,0,0,0,0,0,0,0,0,0,-1,1336,589,0,0
119,435,0,0,0,0,0,0,0,0,0,-1,1343,589,0,0
126,435,0,0,0,0,0,0,0,0,0,-1,1350,589,0,0
133,435,0,0,0,0,0,0,0,0,0,-1,1357,589,0,0
140,435,0,0,0,0,0,0,0,0,0,-1,1364,589,0,0
147,435,0,0,0,0,0,0,0,0,0,-1,1371,589,0,0
154,435,0,0,0,0,0,0,0,0,0,-1,1378,589,0,0
161,435,0,0,0,0,0,0,0,0,0,-1,1385,589,0,0
168,435,0,0,0,0,0,0,0,0,0,-1,1392,589,0,0
175,435,0,0,0,0,0,0,0,0,0,-1,1399,589,0,0
182,435,0,0,0,0,0,0,0,0,0,-1,1406,589,0,0
189,435,0,0,0,0,0,0,0,0,0,-1,1413,589,0,0
196,435,0,0,0,0,0,0,0,0,0,-1,1420,589,0,0
203,435,0,0,0,0,0,0,0,0,0,-1,1427,589,0,0
210,435,0,0,0,0,0,0,0,0,0,-1,1434,589,0,0
217,435,0,0,0,0,0,0,0,0,0,-1,1441,589,0,0
224,435,0,0,0,0,0,0,0,0,0,-1,1448,589,0,0
231,435,0,0,0,0,0,0,0,0,0,-1,1455,589,0,0
238,435,0,0,0,0,0,0,0,0,0,-1,1462,589,0,0
245,435,0,0,0,0,0,0,0,0,0,-1,1469,589,0,0
252,435,0,0,0,0,0,0,0,0,0,-1,1476,589,0,0
259,435,0,0,0,0,0,0,0,0,0,-1,1483,589,0,0
266,435,0,0,0,0,0,0,0,0,0,-1,1490,589,0,0
273,435,0,0,0,0,0,0,0,0,0,-1,1497,589,0,0
280,435,0,0,0,0,0,0,0,0,0,-1,1504,589,0,0
287,435,0,0,0,0,0,0,0,0,0,-1,1511,589,0,0
294,435,0,0,0,0,0,0,0,0,0,-1,1518,589,0,0
301,435,0,0,0,0,0,0,0,0,0,-1,1525,589,0,0
308,435,0,0,0,0,0,0,0,0,0,-1,1532,589,0,0
315,435,0,0,0,0,0,0,0,0,0,-1,1539,589,0,0
322,435,0,0,0,0,0,0,0,0,0,-1,1546,589,0,0
329,435,0,0,0,0,0,0,0,0,0,-1,1553,589,0,0
336,435,0,0,0,0,0,0,0,0,0,-1,1560,589,0,0
343,435,0,0,0,0,0,0,0,0,0,-1,1567,589,0,0
350,435,0,0,0,0,0,0,0,0,0,-1,1574,589,0,0
357,435,0,0,0,0,0,0,0,0,0,-1,1581,589,0,0
364,435,0,0,0,0,0,0,0,0,0,-1,1588,589,0,0
371,435,0,0,0,0,0,0,0,0,0,-1,1595,589,0,0
378,435,0,0,0,0,0,0,0,0,0,-1,1602,589,0,0
385,435,0,0,0,0,0,0,0,0,0,-1,1609,589,0,0
392,435,0,0,0,0,0,0,0,0,0,-1,1616,589,0,0
399,435,0,0,0,0,0,0,0,0,0,-1,1623,589,0,0
406,435,0,0,0,0,0,0,0,0,0,-1,1630,589,0,0
413,435,20.4565,3.49835,0,0,0,0,0,0,0,-1,1637,589,20.4565,-3.49836
420,435,21.4015,1.49609,0,0,0,0,0,0,0,-1,1644,589,21.4015,-1.49609
427,435,22.0464,-0.373962,0,0,0,0,0,0,0,-1,1651,589,22.0464,0.373972
434,435,22.1863,-1.54407,0,0,0,0,0,0,0,-1,1658,589,22.1862,1.54405
441,435,22.3992,-2.38287,0,0,0,0,0,0,0,-1,1665,589,22.3992,2.38289
448,435,7.4585,-0.00292969,0,0,0,0,0,0,0,-1,1672,589,7.45848,0.00294131
455,435,5.49915,-5.047,0,0,0,0,0,0,0,-1,1679,589,5.49914,5.04703
462,435,5.60669,-4.71466,0,0,0,0,0,0,0,-1,1686,589,5.60675,4.71469
469,435,5.87708,1.22351,0,0,0,0,0,0,0,-1,1693,589,5.87703,-1.22351
476,435,6.14136,1.37714,0,0,0,0,0,0,0,-1,1700,589,6.14138,-1.37712
483,435,6.49243,1.36169,0,0,0,0,0,0,0,-1,1707,589,6.49242,-1.36171
490,435,4.38391,-1.36218,0,0,0,0,0,0,0,-1,1714,589,4.38389,1.3622
497,435,7.23499,-3.64551,0,0,0,0,0,0,0,-1,1721,589,7.23495,3.64551
504,435,7.31189,-3.75909,0,0,0,0,0,0,0,-1,1728,589,7.31184,3.75911
511,435,16.4624,-12.929,0,0,0,0,0,0,0,-1,1735,589,16.4624,12.929
518,435,16.5697,-12.3453,0.00557654,0.00294203,0.00267518,0.00724119,0.00127738,0.556624,0.00446302,0.0276555,1742,589,16.5697,12.3453
525,435,16.5232,-11.7894,0.00462879,0.0025833,0.00239093,0.00620653,0.00100556,0.583294,0.00384657,0.012548,1749,589,16.5232,11.7894
532,435,16.5272,-11.2335,0.003649,0.00208321,0.00198773,0.00500245,0.000729754,0.597795,0.00312029,0.0143111,1756,589,16.5272,11.2335
539,435,16.5226,-10.6766,0.00281093,0.00166824,0.0016432,0.00397928,0.00049989,0.618085,0.00250292,0.0164613,1763,589,16.5226,10.6766
546,435,16.4834,-10.1329,0.00196804,0.00126485,0.00127909,0.00294297,0.000289915,0.65127,0.00187284,0.0159574,1770,589,16.4835,10.1329
553,435,16.4655,-9.64203,0.00101884,0.000958289,0.000903425,0.0018925,8.46343e-05,0.768647,0.00123442,0.0112497,1777,589,16.4654,9.64206
560,435,16.4424,-9.11029,1.50469e-05,0.000696754,0.000537112,0.000992038,-0.000280236,1.06814,0.000771917,0.00925337,1784,589,16.4423,9.1103
567,435,16.4388,-8.53613,-0.000984052,0.000640478,0.000260577,0.000681251,-0.00102483,1.41558,0.000991639,0.00877139,1791,589,16.4388,8.53616
574,435,16.4192,-7.99146,-0.00203298,0.000680867,1.11344e-05,0.000680912,-0.00203303,1.56669,0.00163043,0.0102293,1798,589,16.4192,7.99147
581,435,16.3898,-7.46387,-0.00317419,0.000886281,-0.000182935,0.000894506,-0.00318241,-1.52587,0.00247427,0.0174056,1805,589,16.3898,7.46389
588,435,16.3677,-6.94519,-0.00430264,0.00138412,-0.000250785,0.00139516,-0.00431368,-1.52681,0.00343657,0.0395179,1812,589,16.3677,6.94518
595,435,16.1733,-6.39685,-0.00555131,0.00241415,-0.000153074,0.00241709,-0.00555425,-1.55159,0.00471957,0.0458047,1819,589,16.1733,6.39686
602,435,15.98,-5.24298,0,0,0,0,0,0,0,-1,1826,589,15.98,5.24295
609,435,15.2611,-3.42242,0,0,0,0,0,0,0,-1,1833,589,15.2611,3.42242
616,435,5.05151,-2.75269,0,0,0,0,0,0,0,-1,1840,589,5.05157,2.7527
623,435,11.7588,3.9704,0,0,0,0,0,0,0,-1,1847,589,11.7587,-3.97043
630,435,4.72742,-0.87561,0,0,0,0,0,0,0,-1,1854,589,4.7274,0.875636
637,435,5.05286,1.48792,0,0,0,0,0,0,0,-1,1861,589,5.05291,-1.48792
644,435,0,0,0,0,0,0,0,0,0,-1,1868,589,0,0
651,435,0,0,0,0,0,0,0,0,0,-1,1875,589,0,0
658,435,0,0,0,0,0,0,0,0,0,-1,1882,589,0,0
665,435,0,0,0,0,0,0,0,0,0,-1,1889,589,0,0
672,435,0,0,0,0,0,0,0,0,0,-1,1896,589,0,0
679,435,0,0,0,0,0,0,0,0,0,-1,1903,589,0,0
686,435,0,0,0,0,0,0,0,0,0,-1,1910,589,0,0
693,435,0,0,0,0,0,0,0,0,0,-1,1917,589,0,0
700,435,0,0,0,0,0,0,0,0,0,-1,1924,589,0,0
707,435,0,0,0,0,0,0,0,0,0,-1,1931,589,0,0
714,435,0,0,0,0,0,0,0,0,0,-1,1938,589,0,0
721,435,0,0,0,0,0,0,0,0,0,-1,1945,589,0,0
728,435,0,0,0,0,0,0,0,0,0,-1,1952,589,0,0
735,435,0,0,0,0,0,0,0,0,0,-1,1959,589,0,0
742,435,0,0,0,0,0,0,0,0,0,-1,1966,589,0,0
749,435,0,0,0,0,0,0,0,0,0,-1,1973,589,0,0
756,435,0,0,0,0,0,0,0,0,0,-1,1980,589,0,0
763,435,0,0,0,0,0,0,0,0,0,-1,1987,589,0,0
770,435,0,0,0,0,0,0,0,0,0,-1,1994,589,0,0
777,435,0,0,0,0,0,0,0,0,0,-1,2001,589,0,0
784,435,0,0,0,0,0,0,0,0,0,-1,2008,589,0,0
791,435,0,0,0,0,0,0,0,0,0,-1,2015,589,0,0
798,435,0,0,0,0,0,0,0,0,0,-1,2022,589,0,0
805,435,0,0,0,0,0,0,0,0,0,-1,2029,589,0,0
812,435,0,0,0,0,0,0,0,0,0,-1,2036,589,0,0
-700,428,0,0,0,0,0,0,0,0,0,-1,524,596,0,0
-693,428,0,0,0,0,0,0,0,0,0,-1,531,596,0,0
-686,428,0,0,0,0,0,0,0,0,0,-1,538,596,0,0
-679,428,0,0,0,0,0,0,0,0,0,-1,545,596,0,0
-672,428,0,0,0,0,0,0,0,0,0,-1,552,596,0,0
-665,428,0,0,0,0,0,0,0,0,0,-1,559,596,0,0
-658,428,0,0,0,0,0,0,0,0,0,-1,566,596,0,0
-651,428,0,0,0,0,0,0,0,0,0,-1,573,596,0,0
-644,428,0,0,0,0,0,0,0,0,0,-1,580,596,0,0
-637,428,0,0,0,0,0,0,0,0,0,-1,587,596,0,0
-630,428,0,0,0,0,0,0,0,0,0,-1,594,596,0,0
-623,428,0,0,0,0,0,0,0,0,0,-1,601,596,0,0
-616,428,0,0,0,0,0,0,0,0,0,-1,608,596,0,0
-609,428,0,0,0,0,0,0,0,0,0,-1,615,596,0,0
-602,428,0,0,0,0,0,0,0,0,0,-1,622,596,0,0
-595,428,0,0,0,0,0,0,0,0,0,-1,629,596,0,0
-588,428,0,0,0,0,0,0,0,0,0,-1,636,596,0,0
-581,428,0,0,0,0,0,0,0,0,0,-1,643,596,0,0
-574,428,0,0,0,0,0,0,0,0,0,-1,650,596,0,0
-567,428,0,0,0,0,0,0,0,0,0,-1,657,596,0,0
-560,428,0,0,0,0,0,0,0,0,0,-1,664,596,0,0
-553,428,0,0,0,0,0,0,0,0,0,-1,671,596,0,0
-546,428,0,0,0,0,0,0,0,0,0,-1,678,596,0,0
-539,428,0,0,0,0,0,0,0,0,0,-1,685,596,0,0
-532,428,0,0,0,0,0,0,0,0,0,-1,692,596,0,0
-525,428,-9.59918,7.58618,0,0,0,0,0,0,0,-1,699,596,-9.59918,-7.5862
-518,428,-2.92285,-4.81854,0,0,0,0,0,0,0,-1,706,596,-2.92285,4.81856
-511,428,-3.68811,-4.79474,0,0,0,0,0,0,0,-1,713,596,-3.68811,4.79474
-504,428,-4.45337,-4.77094,0,0,0,0,0,0,0,-1,720,596,-4.45337,4.77092
-497,428,-2.98108,-3.77502,0,0,0,0,0,0,0,-1,727,596,-2.98106,3.77505
-490,428,-6.39044,-2.80481,0,0,0,0,0,0,0,-1,734,596,-6.39047,2.80483
-483,428,-7.62341,-5.64526,0,0,0,0,0,0,0,-1,741,596,-7.62344,5.64525
-476,428,-7.23602,-7.31403,0,0,0,0,0,0,0,-1,748,596,-7.23602,7.31403
-469,428,-7.1861,-7.85571,-0.00122906,0.00780211,-0.00396174,0.00929368,-0.00272062,-1.21072,0.00727428,0.0251458,755,596,-7.18613,7.85574
-462,428,-7.27899,-8.34576,-0.000611115,0.00617605,-0.0033078,0.00752145,-0.00195651,-1.1845,0.00577796,0.0252532,762,596,-7.27901,8.34574
-455,428,-7.36273,-8.97235,-0.000157006,0.00498501,-0.00277747,0.00619876,-0.00137076,-1.15881,0.00465716,0.0144408,769,596,-7.36273,8.97236
-448,428,-7.36804,-9.53033,-1.57267e-05,0.00354438,-0.00198372,0.00442961,-0.000900956,-1.15107,0.00329471,0.010973,776,596,-7.36802,9.5303
-441,428,-7.3606,-10.0585,-6.87444e-05,0.00222695,-0.0011429,0.00269891,-0.000540702,-1.17918,0.00200397,0.0133246,783,596,-7.36061,10.0585
-434,428,-7.36285,-10.5977,-0.00025891,0.0010978,-0.00029964,0.00116103,-0.00032214,-1.36283,0.000900813,0.0106558,790,596,-7.36287,10.5977
-427,428,-7.37909,-11.1478,-0.000519482,-7.79362e-05,0.000561116,0.000304276,-0.000901695,0.972823,0.000724186,0.0119319,797,596,-7.37908,11.1479
-420,428,-7.37616,-11.6399,-0.000774593,-0.00115981,0.00137933,0.000425511,-0.00235991,0.716027,0.00173262,0.0128142,804,596,-7.37614,11.6399
-413,428,-7.39392,-12.1548,-0.00116813,-0.00233204,0.00232376,0.000645437,-0.00414561,0.662703,0.0030021,0.0151949,811,596,-7.39394,12.1548
-406,428,-7.43677,-12.6766,-0.00161386,-0.00336069,0.00324065,0.000869015,-0.00584357,0.653767,0.00421535,0.0171907,818,596,-7.43678,12.6766
-399,428,-7.43817,-13.1865,-0.00190961,-0.00433943,0.00404607,0.00110001,-0.00734905,0.639546,0.00530419,0.0151931,825,596,-7.43815,13.1865
-392,428,-7.435,-13.736,-0.00200133,-0.00517301,0.00475689,0.0014271,-0.00860144,0.624503,0.00626441,0.0239279,832,596,-7.43502,13.736
-385,428,-7.47882,-14.2806,0,0,0,0,0,0,0,-1,839,596,-7.47879,14.2806
-378,428,-7.64142,-14.626,0,0,0,0,0,0,0,-1,846,596,-7.64143,14.626
-371,428,-5.96155,-11.0703,0,0,0,0,0,0,0,-1,853,596,-5.96154,11.0702
-364,428,-6.33643,-10.7223,0,0,0,0,0,0,0,-1,860,596,-6.33645,10.7223
-357,428,-3.20996,-4.70966,0,0,0,0,0,0,0,-1,867,596,-3.20997,4.70965
-350,428,-1.62793,-3.94055,0,0,0,0,0,0,0,-1,874,596,-1.62794,3.94055
-343,428,-0.0567017,-4.80994,0,0,0,0,0,0,0,-1,881,596,-0.0567096,4.80996
-336,428,-3.29175,-1.39569,0,0,0,0,0,0,0,-1,888,596,-3.29172,1.39568
-329,428,-3.71564,-0.791321,0,0,0,0,0,0,0,-1,895,596,-3.71564,0.791299
-322,428,-5.52863,-3.59827,0,0,0,0,0,0,0,-1,902,596,-5.52865,3.59829
-315,428,-4.57172,-1.22052,0,0,0,0,0,0,0,-1,909,596,-4.57171,1.22052
-308,428,-5.94324,-0.810791,0,0,0,0,0,0,0,-1,916,596,-5.94321,0.810803
-301,428,0,0,0,0,0,0,0,0,0,-1,923,596,0,0
-294,428,0,0,0,0,0,0,0,0,0,-1,930,596,0,0
-287,428,0,0,0,0,0,0,0,0,0,-1,937,596,0,0
-280,428,0,0,0,0,0,0,0,0,0,-1,944,596,0,0
-273,428,0,0,0,0,0,0,0,0,0,-1,951,596,0,0
-266,428,0,0,0,0,0,0,0,0,0,-1,958,596,0,0
-259,428,0,0,0,0,0,0,0,0,0,-1,965,596,0,0
-252,428,0,0,0,0,0,0,0,0,0,-1,972,596,0,0
-245,428,0,0,0,0,0,0,0,0,0,-1,979,596,0,0
-238,428,0,0,0,0,0,0,0,0,0,-1,986,596,0,0
-231,428,0,0,0,0,0,0,0,0,0,-1,993,596,0,0
-224,428,0,0,0,0,0,0,0,0,0,-1,1000,596,0,0
-217,428,0,0,0,0,0,0,0,0,0,-1,1007,596,0,0
-210,428,0,0,0,0,0,0,0,0,0,-1,1014,596,0,0
-203,428,0,0,0,0,0,0,0,0,0,-1,1021,596,0,0
-196,428,0,0,0,0,0,0,0,0,0,-1,1028,596,0,0
-189,428,0,0,0,0,0,0,0,0,0,-1,1035,596,0,0
-182,428,0,0,0,0,0,0,0,0,0,-1,1042,596,0,0
-175,428,0,0,0,0,0,0,0,0,0,-1,1049,596,0,0
-168,428,0,0,0,0,0,0,0,0,0,-1,1056,596,0,0
-161,428,0,0,0,0,0,0,0,0,0,-1,1063,596,0,0
-154,428,0,0,0,0,0,0,0,0,0,-1,1070,596,0,0
-147,428,0,0,0,0,0,0,0,0,0,-1,1077,596,0,0
-140,428,0,0,0,0,0,0,0,0,0,-1,1084,596,0,0
-133,428,0,0,0,0,0,0,0,0,0,-1,1091,596,0,0
-126,428,0,0,0,0,0,0,0,0,0,-1,1098,596,0,0
-119,428,0,0,0,0,0,0,0,0,0,-1,1105,596,0,0
-112,428,0,0,0,0,0,0,0,0,0,-1,1112,596,0,0
-105,428,0,0,0,0,0,0,0,0,0,-1,1119,596,0,0
-98,428,0,0,0,0,0,0,0,0,0,-1,1126,596,0,0
-91,428,0,0,0,0,0,0,0,0,0,-1,1133,596,0,0
-84,428,0,0,0,0,0,0,0,0,0,-1,1140,596,0,0
-77,428,0,0,0,0,0,0,0,0,0,-1,1147,596,0,0
-70,428,0,0,0,0,0,0,0,0,0,-1,1154,596,0,0
-63,428,0,0,0,0,0,0,0,0,0,-1,1161,596,0,0
-56,428,0,0,0,0,0,0,0,0,0,-1,1168,596,0,0
-49,428,0,0,0,0,0,0,0,0,0,-1,1175,596,0,0
-42,428,0,0,0,0,0,0,0,0,0,-1,1182,596,0,0
-35,428,0,0,0,0,0,0,0,0,0,-1,1189,596,0,0
-28,428,0,0,0,0,0,0,0,0,0,-1,1196,596,0,0
-21,428,0,0,0,0,0,0,0,0,0,-1,1203,596,0,0
-14,428,0,0,0,0,0,0,0,0,0,-1,1210,596,0,0
-7,428,0,0,0,0,0,0,0,0,0,-1,1217,596,0,0
0,428,0,0,0,0,0,0,0,0,0,-1,1224,596,0,0
7,428,0,0,0,0,0,0,0,0,0,-1,1231,596,0,0
14,428,0,0,0,0,0,0,0,0,0,-1,1238,596,0,0
21,428,0,0,0,0,0,0,0,0,0,-1,1245,596,0,0
28,428,0,0,0,0,0,0,0,0,0,-1,1252,596,0,0
35,428,0,0,0,0,0,0,0,0,0,-1,1259,596,0,0
42,428,0,0,0,0,0,0,0,0,0,-1,1266,596,0,0
49,428,0,0,0,0,0,0,0,0,0,-1,1273,596,0,0
56,428,0,0,0,0,0,0,0,0,0,-1,1280,596,0,0
63,428,0,0,0,0,0,0,0,0,0,-1,1287,596,0,0
70,428,0,0,0,0,0,0,0,0,0,-1,1294,596,0,0
77,428,0,0,0,0,0,0,0,0,0,-1,1301,596,0,0
84,428,0,0,0,0,0,0,0,0,0,-1,1308,596,0,0
91,428,0,0,0,0,0,0,0,0,0,-1,1315,596,0,0
98,428,0,0,0,0,0,0,0,0,0,-1,1322,596,0,0
105,428,0,0,0,0,0,0,0,0,0,-1,1329,596,0,0
112,428,0,0,0,0,0,0,0,0,0,-1,1336,596,0,0
119,428,0,0,0,0,0,0,0,0,0,-1,1343,596,0,0
126,428,0,0,0,0,0,0,0,0,0,-1,1350,596,0,0
133,428,0,0,0,0,0,0,0,0,0,-1,1357,596,0,0
140,428,0,0,0,0,0,0,0,0,0,-1,1364,596,0,0
147,428,0,0,0,0,0,0,0,0,0,-1,1371,596,0,0
154,428,0,0,0,0,0,0,0,0,0,-1,1378,596,0,0
161,428,0,0,0,0,0,0,0,0,0,-1,1385,596,0,0
168,428,0,0,0,0,0,0,0,0,0,-1,1392,596,0,0
175,428,0,0,0,0,0,0,0,0,0,-1,1399,596,0,0
182,428,0,0,0,0,0,0,0,0,0,-1,1406,596,0,0
189,428,0,0,0,0,0,0,0,0,0,-1,1413,596,0,0
196,428,0,0,0,0,0,0,0,0,0,-1,1420,596,0,0
203,428,0,0,0,0,0,0,0,0,0,-1,1427,596,0,0
210,428,0,0,0,0,0,0,0,0,0,-1,1434,596,0,0
217,428,0,0,0,0,0,0,0,0,0,-1,1441,596,0,0
224,428,0,0,0,0,0,0,0,0,0,-1,1448,596,0,0
231,428,0,0,0,0,0,0,0,0,0,-1,1455,596,0,0
238,428,0,0,0,0,0,0,0,0,0,-1,1462,596,0,0
245,428,0,0,0,0,0,0,0,0,0,-1,1469,596,0,0
252,428,0,0,0,0,0,0,0,0,0,-1,1476,596,0,0
259,428,0,0,0,0,0,0,0,0,0,-1,1483,596,0,0
266,428,0,0,0,0,0,0,0,0,0,-1,1490,596,0,0
273,428,0,0,0,0,0,0,0,0,0,-1,1497,596,0,0
280,428,0,0,0,0,0,0,0,0,0,-1,1504,596,0,0
287,428,0,0,0,0,0,0,0,0,0,-1,1511,596,0,0
294,428,0,0,0,0,0,0,0,0,0,-1,1518,596,0,0
301,428,0,0,0,0,0,0,0,0,0,-1,1525,596,0,0
308,428,0,0,0,0,0,0,0,0,0,-1,1532,596,0,0
315,428,0,0,0,0,0,0,0,0,0,-1,1539,596,0,0
322,428,0,0,0,0,0,0,0,0,0,-1,1546,596,0,0
329,428,0,0,0,0,0,0,0,0,0,-1,1553,596,0,0
336,428,0,0,0,0,0,0,0,0,0,-1,1560,596,0,0
343,428,0,0,0,0,0,0,0,0,0,-1,1567,596,0,0
350,428,0,0,0,0,0,0,0,0,0,-1,1574,596,0,0
357,428,0,0,0,0,0,0,0,0,0,-1,1581,596,0,0
364,428,0,0,0,0,0,0,0,0,0,-1,1588,596,0,0
371,428,0,0,0,0,0,0,0,0,0,-1,1595,596,0,0
378,428,0,0,0,0,0,0,0,0,0,-1,1602,596,0,0
385,428,0,0,0,0,0,0,0,0,0,-1,1609,596,0,0
392,428,0,0,0,0,0,0,0,0,0,-1,1616,596,0,0
399,428,0,0,0,0,0,0,0,0,0,-1,1623,596,0,0
406,428,0,0,0,0,0,0,0,0,0,-1,1630,596,0,0
413,428,0,0,0,0,0,0,0,0,0,-1,1637,596,0,0
420,428,19.8469,1.3399,0,0,0,0,0,0,0,-1,1644,596,19.8469,-1.33992
427,428,20.7299,-0.225281,0,0,0,0,0,0,0,-1,1651,596,20.7299,0.225262
434,428,19.8915,-0.583069,0,0,0,0,0,0,0,-1,1658,596,19.8915,0.583075
441,428,8.17993,0.607483,0,0,0,0,0,0,0,-1,1665,596,8.17997,-0.607513
448,428,7.84338,-0.385986,0,0,0,0,0,0,0,-1,1672,596,7.84336,0.385978
455,428,6.64038,2.1123,0,0,0,0,0,0,0,-1,1679,596,6.64037,-2.11229
462,428,4.84106,4.12341,0,0,0,0,0,0,0,-1,1686,596,4.84107,-4.12339
469,428,7.83789,3.10083,0,0,0,0,0,0,0,-1,1693,596,7.83785,-3.10086
476,428,7.61255,1.73956,0,0,0,0,0,0,0,-1,1700,596,7.61252,-1.73958
483,428,7.22766,1.05121,0,0,0,0,0,0,0,-1,1707,596,7.2277,-1.05121
490,428,5.4071,-3.2793,0,0,0,0,0,0,0,-1,1714,596,5.40707,3.27929
497,428,7.84106,-3.65491,0,0,0,0,0,0,0,-1,1721,596,7.84107,3.65491
504,428,6.92139,-2.83356,0,0,0,0,0,0,0,-1,1728,596,6.92137,2.83353
511,428,7.88501,-3.78723,0,0,0,0,0,0,0,-1,1735,596,7.88502,3.78722
518,428,17.0592,-12.3998,0,0,0,0,0,0,0,-1,1742,596,17.0592,12.3998
525,428,17.021,-11.7619,0,0,0,0,0,0,0,-1,1749,596,17.0209,11.7619
532,428,17.0283,-11.1965,0.0048176,0.00245536,0.00245251,0.00635858,0.000914376,0.56099,0.00396952,0.0223469,1756,596,17.0283,11.1965
539,428,17.0778,-10.66,0.0039072,0.00199768,0.00200977,0.00517746,0.000727418,0.563649,0.00323653,0.021975,1763,596,17.0778,10.66
546,428,17.046,-10.1375,0.00304532,0.0015603,0.00159143,0.00405894,0.000546684,0.567125,0.00254339,0.0168965,1770,596,17.0461,10.1375
553,428,17.0084,-9.61279,0.00207683,0.00116486,0.00117083,0.00287734,0.000364354,0.599705,0.00180904,0.0113224,1777,596,17.0085,9.61277
560,428,16.9979,-9.06018,0.00103806,0.000871876,0.000773561,0.00173298,0.000176955,0.731897,0.00110108,0.0123999,1784,596,16.9979,9.06021
567,428,16.9802,-8.52655,1.22939e-05,0.000809347,0.000488788,0.00104148,-0.000219844,1.12741,0.000778027,0.0116117,1791,596,16.9803,8.52653
574,428,16.9723,-7.9729,-0.00101149,0.000858161,0.000269918,0.000896349,-0.00104968,1.43025,0.0011247,0.0137486,1798,596,16.9723,7.97291
581,428,16.9332,-7.41412,-0.00207466,0.00109494,0.000146412,0.00110168,-0.00208141,1.52473,0.00186655,0.0111005,1805,596,16.9333,7.4141
588,428,16.9386,-6.8399,-0.00311104,0.00163489,0.000159645,0.00164026,-0.0031164,1.53721,0.00278999,0.0170621,1812,596,16.9386,6.83989
595,428,16.8651,-6.26184,-0.00415456,0.00260591,0.000372322,0.00262635,-0.00417501,1.51594,0.00396055,0.0213207,1819,596,16.8651,6.26182
602,428,16.6902,-5.6463,-0.00531924,0.00392753,0.000709008,0.00398158,-0.00537329,1.49471,0.00542092,0.037513,1826,596,16.6902,5.64632
609,428,16.5186,-4.73816,0,0,0,0,0,0,0,-1,1833,596,16.5186,4.73813
616,428,15.7817,-3.09558,0,0,0,0,0,0,0,-1,1840,596,15.7817,3.09556
623,428,9.53577,1.12518,0,0,0,0,0,0,0,-1,1847,596,9.5358,-1.1252
630,428,7.07996,6.88562,0,0,0,0,0,0,0,-1,1854,596,7.0799,-6.88565
637,428,3.95435,1.90857,0,0,0,0,0,0,0,-1,1861,596,3.95439,-1.90858
644,428,5.75476,0.888977,0,0,0,0,0,0,0,-1,1868,596,5.75472,-0.888955
651,428,0,0,0,0,0,0,0,0,0,-1,1875,596,0,0
658,428,0,0,0,0,0,0,0,0,0,-1,1882,596,0,0
665,428,0,0,0,0,0,0,0,0,0,-1,1889,596,0,0
672,428,0,0,0,0,0,0,0,0,0,-1,1896,596,0,0
679,428,0,0,0,0,0,0,0,0,0,-1,1903,596,0,0
686,428,0,0,0,0,0,0,0,0,0,-1,1910,596,0,0
693,428,0,0,0,0,0,0,0,0,0,-1,1917,596,0,0
700,428,0,0,0,0,0,0,0,0,0,-1,1924,596,0,0
707,428,0,0,0,0,0,0,0,0,0,-1,1931,596,0,0
714,428,0,0,0,0,0,0,0,0,0,-1,1938,596,0,0
721,428,0,0,0,0,0,0,0,0,0,-1,1945,596,0,0
728,428,0,0,0,0,0,0,0,0,0,-1,1952,596,0,0
735,428,0,0,0,0,0,0,0,0,0,-1,1959,596,0,0
742,428,0,0,0,0,0,0,0,0,0,-1,1966,596,0,0
749,428,0,0,0,0,0,0,0,0,0,-1,1973,596,0,0
756,428,0,0,0,0,0,0,0,0,0,-1,1980,596,0,0
763,428,0,0,0,0,0,0,0,0,0,-1,1987,596,0,0
770,428,0,0,0,0,0,0,0,0,0,-1,1994,596,0,0
777,428,0,0,0,0,0,0,0,0,0,-1,2001,596,0,0
784,428,0,0,0,0,0,0,0,0,0,-1,2008,596,0,0
791,428,0,0,0,0,0,0,0,0,0,-1,2015,596,0,0
798,428,0,0,0,0,0,0,0,0,0,-1,2022,596,0,0
805,428,0,0,0,0,0,0,0,0,0,-1,2029,596,0,0
812,428,0,0,0,0,0,0,0,0,0,-1,2036,596,0,0
-700,421,0,0,0,0,0,0,0,0,0,-1,524,603,0,0
-693,421,0,0,0,0,0,0,0,0,0,-1,531,603,0,0
-686,421,0,0,0,0,0,0,0,0,0,-1,538,603,0,0
-679,421,0,0,0,0,0,0,0,0,0,-1,545,603,0,0
-672,421,0,0,0,0,0,0,0,0,0,-1,552,603,0,0
-665,421,0,0,0,0,0,0,0,0,0,-1,559,603,0,0
-658,421,0,0,0,0,0,0,0,0,0,-1,566,603,0,0
-651,421,0,0,0,0,0,0,0,0,0,-1,573,603,0,0
-644,421,0,0,0,0,0,0,0,0,0,-1,580,603,0,0
-637,421,0,0,0,0,0,0,0,0,0,-1,587,603,0,0
-630,421,0,0,0,0,0,0,0,0,0,-1,594,603,0,0
-623,421,0,0,0,0,0,0,0,0,0,-1,601,603,0,0
-616,421,0,0,0,0,0,0,0,0,0,-1,608,603,0,0
-609,421,0,0,0,0,0,0,0,0,0,-1,615,603,0,0
-602,421,0,0,0,0,0,0,0,0,0,-1,622,603,0,0
-595,421,0,0,0,0,0,0,0,0,0,-1,629,603,0,0
-588,421,0,0,0,0,0,0,0,0,0,-1,636,603,0,0
-581,421,0,0,0,0,0,0,0,0,0,-1,643,603,0,0
-574,421,0,0,0,0,0,0,0,0,0,-1,650,603,0,0
-567,421,0,0,0,0,0,0,0,0,0,-1,657,603,0,0
-560,421,0,0,0,0,0,0,0,0,0,-1,664,603,0,0
-553,421,0,0,0,0,0,0,0,0,0,-1,671,603,0,0
-546,421,0,0,0,0,0,0,0,0,0,-1,678,603,0,0
-539,421,0,0,0,0,0,0,0,0,0,-1,685,603,0,0
-532,421,-8.97382,6.95636,0,0,0,0,0,0,0,-1,692,603,-8.97384,-6.95634
-525,421,-2.11481,-8.04272,0,0,0,0,0,0,0,-1,699,603,-2.11483,8.0427
-518,421,-3.05908,-5.07233,0,0,0,0,0,0,0,-1,706,603,-3.0591,5.07235
-511,421,-4.63525,-4.08447,0,0,0,0,0,0,0,-1,713,603,-4.63524,4.08449
-504,421,-5.17029,-4.94458,0,0,0,0,0,0,0,-1,720,603,-5.17029,4.9446
-497,421,-6.63141,-2.32501,0,0,0,0,0,0,0,-1,727,603,-6.6314,2.32498
-490,421,-6.7616,-4.14783,0,0,0,0,0,0,0,-1,734,603,-6.76159,4.1478
-483,421,-7.56158,-6.96637,0,0,0,0,0,0,0,-1,741,603,-7.5616,6.96635
-476,421,-7.68329,-7.43939,-0.00118806,0.00791668,-0.00399249,0.00941939,-0.00269077,-1.21081,0.00734274,0.031985,748,603,-7.68328,7.43937
-469,421,-7.83093,-7.8476,-0.000783019,0.00613774,-0.0032814,0.0074462,-0.00209148,-1.19137,0.00578864,0.0248671,755,603,-7.83093,7.8476
-462,421,-7.85181,-8.45306,-0.000316097,0.00470273,-0.0026927,0.00587405,-0.00148741,-1.16049,0.00449464,0.0199787,762,603,-7.85183,8.45304
-455,421,-7.86829,-9.00781,-1.2318e-05,0.00355531,-0.00214392,0.00456047,-0.00101748,-1.13238,0.00343015,0.0188118,769,603,-7.86828,9.00781
-448,421,-7.87683,-9.52124,4.66141e-05,0.00219499,-0.00135431,0.0028494,-0.000607793,-1.12068,0.00213128,0.0184721,776,603,-7.87682,9.52125
-441,421,-7.87531,-10.0503,-0.000112401,0.000939287,-0.000481995,0.00112677,-0.000299881,-1.19984,0.00086857,0.0147023,783,603,-7.8753,10.0503
-434,421,-7.90149,-10.5865,-0.000413748,-0.000159377,0.000424122,0.000156219,-0.000729344,0.931071,0.000545806,0.0103073,790,603,-7.90148,10.5866
-427,421,-7.90448,-11.105,-0.000815051,-0.00135015,0.00139203,0.000334908,-0.00250011,0.690455,0.00178886,0.0100434,797,603,-7.90446,11.105
-420,421,-7.90546,-11.6023,-0.0012667,-0.00249917,0.00238161,0.000577105,-0.00434298,0.658802,0.00310561,0.0125187,804,603,-7.90548,11.6023
-413,421,-7.93127,-12.12,-0.00189866,-0.00369226,0.00351907,0.000836088,-0.006427,0.660634,0.00458882,0.0144346,811,603,-7.93129,12.12
-406,421,-7.97986,-12.6647,-0.00262961,-0.00488304,0.0046875,0.00106469,-0.00857733,0.667453,0.00610414,0.0188119,818,603,-7.97987,12.6647
-399,421,-7.90857,-13.2358,-0.00322678,-0.00606604,0.00576654,0.00129231,-0.0105851,0.664706,0.0075246,0.0275328,825,603,-7.90857,13.2358
-392,421,-8.06189,-13.6681,-0.00364926,-0.00709308,0.00681284,0.0016559,-0.0123982,0.661618,0.00886914,0.0470651,832,603,-8.06187,13.6681
-385,421,-8.22028,-14.3497,0,0,0,0,0,0,0,-1,839,603,-8.22029,14.3497
-378,421,-4.94733,-8.87909,0,0,0,0,0,0,0,-1,846,603,-4.94731,8.87906
-371,421,-5.65082,-7.01849,0,0,0,0,0,0,0,-1,853,603,-5.65082,7.0185
-364,421,-5.94189,-7.09875,0,0,0,0,0,0,0,-1,860,603,-5.94192,7.09878
-357,421,-7.62531,-8.26337,0,0,0,0,0,0,0,-1,867,603,-7.62532,8.26337
-350,421,-5.38019,-3.75024,0,0,0,0,0,0,0,-1,874,603,-5.38017,3.75026
-343,421,-6.22797,-2.57123,0,0,0,0,0,0,0,-1,881,603,-6.22798,2.57121
-336,421,-6.22882,-2.59369,0,0,0,0,0,0,0,-1,888,603,-6.22883,2.5937
-329,421,-4.50134,-1.49469,0,0,0,0,0,0,0,-1,895,603,-4.50137,1.49468
-322,421,-7.55817,1.13263,0,0,0,0,0,0,0,-1,902,603,-7.55818,-1.13263
-315,421,-4.47821,-1.26733,0,0,0,0,0,0,0,-1,909,603,-4.47824,1.26732
-308,421,0,0,0,0,0,0,0,0,0,-1,916,603,0,0
-301,421,0,0,0,0,0,0,0,0,0,-1,923,603,0,0
-294,421,0,0,0,0,0,0,0,0,0,-1,930,603,0,0
-287,421,0,0,0,0,0,0,0,0,0,-1,937,603,0,0
-280,421,0,0,0,0,0,0,0,0,0,-1,944,603,0,0
-273,421,0,0,0,0,0,0,0,0,0,-1,951,603,0,0
-266,421,0,0,0,0,0,0,0,0,0,-1,958,603,0,0
-259,421,0,0,0,0,0,0,0,0,0,-1,965,603,0,0
-252,421,0,0,0,0,0,0,0,0,0,-1,972,603,0,0
-245,421,0,0,0,0,0,0,0,0,0,-1,979,603,0,0
-238,421,0,0,0,0,0,0,0,0,0,-1,986,603,0,0
-231,421,0,0,0,0,0,0,0,0,0,-1,993,603,0,0
-224,421,0,0,0,0,0,0,0,0,0,-1,1000,603,0,0
-217,421,0,0,0,0,0,0,0,0,0,-1,1007,603,0,0
-210,421,0,0,0,0,0,0,0,0,0,-1,1014,603,0,0
-203,421,0,0,0,0,0,0,0,0,0,-1,1021,603,0,0
-196,421,0,0,0,0,0,0,0,0,0,-1,1028,603,0,0
-189,421,0,0,0,0,0,0,0,0,0,-1,1035,603,0,0
-182,421,0,0,0,0,0,0,0,0,0,-1,1042,603,0,0
-175,421,0,0,0,0,0,0,0,0,0,-1,1049,603,0,0
-168,421,0,0,0,0,0,0,0,0,0,-1,1056,603,0,0
-161,421,0,0,0,0,0,0,0,0,0,-1,1063,603,0,0
-154,421,0,0,0,0,0,0,0,0,0,-1,1070,603,0,0
-147,421,0,0,0,0,0,0,0,0,0,-1,1077,603,0,0
-140,421,0,0,0,0,0,0,0,0,0,-1,1084,603,0,0
-133,421,0,0,0,0,0,0,0,0,0,-1,1091,603,0,0
-126,421,0,0,0,0,0,0,0,0,0,-1,1098,603,0,0
-119,421,0,0,0,0,0,0,0,0,0,-1,1105,603,0,0
-112,421,0,0,0,0,0,0,0,0,0,-1,1112,603,0,0
-105,421,0,0,0,0,0,0,0,0,0,-1,1119,603,0,0
-98,421,0,0,0,0,0,0,0,0,0,-1,1126,603,0,0
-91,421,0,0,0,0,0,0,0,0,0,-1,1133,603,0,0
-84,421,0,0,0,0,0,0,0,0,0,-1,1140,603,0,0
-77,421,0,0,0,0,0,0,0,0,0,-1,1147,603,0,0
-70,421,0,0,0,0,0,0,0,0,0,-1,1154,603,0,0
-63,421,0,0,0,0,0,0,0,0,0,-1,1161,603,0,0
-56,421,0,0,0,0,0,0,0,0,0,-1,1168,603,0,0
-49,421,0,0,0,0,0,0,0,0,0,-1,1175,603,0,0
-42,421,0,0,0,0,0,0,0,0,0,-1,1182,603,0,0
-35,421,0,0,0,0,0,0,0,0,0,-1,1189,603,0,0
-28,421,0,0,0,0,0,0,0,0,0,-1,1196,603,0,0
-21,421,0,0,0,0,0,0,0,0,0,-1,1203,603,0,0
-14,421,0,0,0,0,0,0,0,0,0,-1,1210,603,0,0
-7,421,0,0,0,0,0,0,0,0,0,-1,1217,603,0,0
0,421,0,0,0,0,0,0,0,0,0,-1,1224,603,0,0
7,421,0,0,0,0,0,0,0,0,0,-1,1231,603,0,0
14,421,0,0,0,0,0,0,0,0,0,-1,1238,603,0,0
21,421,0,0,0,0,0,0,0,0,0,-1,1245,603,0,0
28,421,0,0,0,0,0,0,0,0,0,-1,1252,603,0,0
35,421,0,0,0,0,0,0,0,0,0,-1,1259,603,0,0
42,421,0,0,0,0,0,0,0,0,0,-1,1266,603,0,0
49,421,0,0,0,0,0,0,0,0,0,-1,1273,603,0,0
56,421,0,0,0,0,0,0,0,0,0,-1,1280,603,0,0
63,421,0,0,0,0,0,0,0,0,0,-1,1287,603,0,0
70,421,0,0,0,0,0,0,0,0,0,-1,1294,603,0,0
77,421,0,0,0,0,0,0,0,0,0,-1,1301,603,0,0
84,421,0,0,0,0,0,0,0,0,0,-1,1308,603,0,0
91,421,0,0,0,0,0,0,0,0,0,-1,1315,603,0,0
98,421,0,0,0,0,0,0,0,0,0,-1,1322,603,0,0
105,421,0,0,0,0,0,0,0,0,0,-1,1329,603,0,0
112,421,0,0,0,0,0,0,0,0,0,-1,1336,603,0,0
119,421,0,0,0,0,0,0,0,0,0,-1,1343,603,0,0
126,421,0,0,0,0,0,0,0,0,0,-1,1350,603,0,0
133,421,0,0,0,0,0,0,0,0,0,-1,1357,603,0,0
140,421,0,0,0,0,0,0,0,0,0,-1,1364,603,0,0
147,421,0,0,0,0,0,0,0,0,0,-1,1371,603,0,0
154,421,0,0,0,0,0,0,0,0,0,-1,1378,603,0,0
161,421,0,0,0,0,0,0,0,0,0,-1,1385,603,0,0
168,421,0,0,0,0,0,0,0,0,0,-1,1392,603,0,0
175,421,0,0,0,0,0,0,0,0,0,-1,1399,603,0,0
182,421,0,0,0,0,0,0,0,0,0,-1,1406,603,0,0
189,421,0,0,0,0,0,0,0,0,0,-1,1413,603,0,0
196,421,0,0,0,0,0,0,0,0,0,-1,1420,603,0,0
203,421,0,0,0,0,0,0,0,0,0,-1,1427,603,0,0
210,421,0,0,0,0,0,0,0,0,0,-1,1434,603,0,0
217,421,0,0,0,0,0,0,0,0,0,-1,1441,603,0,0
224,421,0,0,0,0,0,0,0,0,0,-1,1448,603,0,0
231,421,0,0,0,0,0,0,0,0,0,-1,1455,603,0,0
238,421,0,0,0,0,0,0,0,0,0,-1,1462,603,0,0
245,421,0,0,0,0,0,0,0,0,0,-1,1469,603,0,0
252,421,0,0,0,0,0,0,0,0,0,-1,1476,603,0,0
259,421,0,0,0,0,0,0,0,0,0,-1,1483,603,0,0
266,421,0,0,0,0,0,0,0,0,0,-1,1490,603,0,0
273,421,0,0,0,0,0,0,0,0,0,-1,1497,603,0,0
280,421,0,0,0,0,0,0,0,0,0,-1,1504,603,0,0
287,421,0,0,0,0,0,0,0,0,0,-1,1511,603,0,0
294,421,0,0,0,0,0,0,0,0,0,-1,1518,603,0,0
301,421,0,0,0,0,0,0,0,0,0,-1,1525,603,0,0
308,421,0,0,0,0,0,0,0,0,0,-1,1532,603,0,0
315,421,0,0,0,0,0,0,0,0,0,-1,1539,603,0,0
322,421,0,0,0,0,0,0,0,0,0,-1,1546,603,0,0
329,421,0,0,0,0,0,0,0,0,0,-1,1553,603,0,0
336,421,0,0,0,0,0,0,0,0,0,-1,1560,603,0,0
343,421,0,0,0,0,0,0,0,0,0,-1,1567,603,0,0
350,421,0,0,0,0,0,0,0,0,0,-1,1574,603,0,0
357,421,0,0,0,0,0,0,0,0,0,-1,1581,603,0,0
364,421,0,0,0,0,0,0,0,0,0,-1,1588,603,0,0
371,421,0,0,0,0,0,0,0,0,0,-1,1595,603,0,0
378,421,0,0,0,0,0,0,0,0,0,-1,1602,603,0,0
385,421,0,0,0,0,0,0,0,0,0,-1,1609,603,0,0
392,421,0,0,0,0,0,0,0,0,0,-1,1616,603,0,0
399,421,0,0,0,0,0,0,0,0,0,-1,1623,603,0,0
406,421,0,0,0,0,0,0,0,0,0,-1,1630,603,0,0
413,421,0,0,0,0,0,0,0,0,0,-1,1637,603,0,0
420,421,0,0,0,0,0,0,0,0,0,-1,1644,603,0,0
427,421,0,0,0,0,0,0,0,0,0,-1,1651,603,0,0
434,421,3.68176,-0.0327759,0,0,0,0,0,0,0,-1,1658,603,3.6818,0.0328037
441,421,8.06689,0.527832,0,0,0,0,0,0,0,-1,1665,603,8.06693,-0.527851
448,421,6.93921,0.802246,0,0,0,0,0,0,0,-1,1672,603,6.93923,-0.802251
455,421,7.29456,2.14825,0,0,0,0,0,0,0,-1,1679,603,7.29461,-2.14827
462,421,7.86902,3.53174,0,0,0,0,0,0,0,-1,1686,603,7.869,-3.53173
469,421,8.06604,2.81213,0,0,0,0,0,0,0,-1,1693,603,8.06606,-2.81212
476,421,8.26306,2.09253,0,0,0,0,0,0,0,-1,1700,603,8.26312,-2.09251
483,421,8.05322,0.798096,0,0,0,0,0,0,0,-1,1707,603,8.05323,-0.7981
490,421,7.51233,0.213074,0,0,0,0,0,0,0,-1,1714,603,7.51235,-0.213043
497,421,7.49634,-2.86688,0,0,0,0,0,0,0,-1,1721,603,7.4963,2.86688
504,421,6.90491,-2.18671,0,0,0,0,0,0,0,-1,1728,603,6.90491,2.18669
511,421,6.31348,-1.50653,0,0,0,0,0,0,0,-1,1735,603,6.31353,1.5065
518,421,6.27588,-2.49878,0,0,0,0,0,0,0,-1,1742,603,6.2759,2.4988
525,421,17.2913,-12.0474,0,0,0,0,0,0,0,-1,1749,603,17.2913,12.0474
532,421,17.4592,-11.2477,0.00595455,0.00281888,0.00291936,0.00770044,0.00107299,0.538976,0.00481598,0.0441895,1756,603,17.4593,11.2477
539,421,17.6119,-10.6614,0.00493698,0.00233658,0.00237046,0.00634041,0.000933147,0.534553,0.00395278,0.0229004,1763,603,17.6119,10.6614
546,421,17.5742,-10.1238,0.00404118,0.0018599,0.00189493,0.00513692,0.000764167,0.524272,0.00320045,0.0130097,1770,603,17.5742,10.1239
553,421,17.548,-9.565,0.0030519,0.00135238,0.00142481,0.00386111,0.000543178,0.516513,0.00241347,0.0118319,1777,603,17.5479,9.56499
560,421,17.5441,-9.02014,0.00198301,0.00101494,0.000992864,0.00260354,0.000394406,0.558593,0.00162031,0.0150298,1784,603,17.5441,9.02012
567,421,17.5295,-8.50372,0.000948664,0.000912278,0.000693305,0.00162401,0.000236928,0.77228,0.00101298,0.0177558,1791,603,17.5296,8.50372
574,421,17.506,-7.95197,-2.45858e-05,0.000941635,0.000499357,0.00115333,-0.00023628,1.16983,0.000858553,0.0191948,1798,603,17.506,7.95196
581,421,17.4884,-7.36664,-0.000979482,0.00116893,0.000426545,0.00125052,-0.00106107,1.3818,0.00133609,0.0158587,1805,603,17.4884,7.36662
588,421,17.4706,-6.86737,-0.00187811,0.00168834,0.000488142,0.00175395,-0.00194371,1.4372,0.00213578,0.0115268,1812,603,17.4705,6.86737
595,421,17.4977,-6.33661,-0.00268361,0.00256275,0.000763296,0.00267155,-0.00279241,1.42922,0.00315487,0.0172573,1819,603,17.4977,6.3366
602,421,17.3928,-5.83392,-0.00345432,0.00377237,0.0011976,0.00396567,-0.00364762,1.41077,0.00439681,0.0237909,1826,603,17.3928,5.83394
609,421,17.2633,-5.12476,0,0,0,0,0,0,0,-1,1833,603,17.2633,5.12475
616,421,17.3658,-4.32648,0,0,0,0,0,0,0,-1,1840,603,17.3658,4.32651
623,421,6.19885,0.376648,0,0,0,0,0,0,0,-1,1847,603,6.19881,-0.376624
630,421,6.54993,0.778748,0,0,0,0,0,0,0,-1,1854,603,6.54991,-0.778744
637,421,3.74512,1.65405,0,0,0,0,0,0,0,-1,1861,603,3.74517,-1.65407
644,421,3.58081,0.354675,0,0,0,0,0,0,0,-1,1868,603,3.58082,-0.354704
651,421,3.28687,3.66351,0,0,0,0,0,0,0,-1,1875,603,3.28688,-3.66353
658,421,0,0,0,0,0,0,0,0,0,-1,1882,603,0,0
665,421,0,0,0,0,0,0,0,0,0,-1,1889,603,0,0
672,421,0,0,0,0,0,0,0,0,0,-1,1896,603,0,0
679,421,0,0,0,0,0,0,0,0,0,-1,1903,603,0,0
686,421,0,0,0,0,0,0,0,0,0,-1,1910,603,0,0
693,421,0,0,0,0,0,0,0,0,0,-1,1917,603,0,0
700,421,0,0,0,0,0,0,0,0,0,-1,1924,603,0,0
707,421,0,0,0,0,0,0,0,0,0,-1,1931,603,0,0
714,421,0,0,0,0,0,0,0,0,0,-1,1938,603,0,0
721,421,0,0,0,0,0,0,0,0,0,-1,1945,603,0,0
728,421,0,0,0,0,0,0,0,0,0,-1,1952,603,0,0
735,421,0,0,0,0,0,0,0,0,0,-1,1959,603,0,0
742,421,0,0,0,0,0,0,0,0,0,-1,1966,603,0,0
749,421,0,0,0,0,0,0,0,0,0,-1,1973,603,0,0
756,421,0,0,0,0,0,0,0,0,0,-1,1980,603,0,0
763,421,0,0,0,0,0,0,0,0,0,-1,1987,603,0,0
770,421,0,0,0,0,0,0,0,0,0,-1,1994,603,0,0
777,421,0,0,0,0,0,0,0,0,0,-1,2001,603,0,0
784,421,0,0,0,0,0,0,0,0,0,-1,2008,603,0,0
791,421,0,0,0,0,0,0,0,0,0,-1,2015,603,0,0
798,421,0,0,0,0,0,0,0,0,0,-1,2022,603,0,0
805,421,0,0,0,0,0,0,0,0,0,-1,2029,603,0,0
812,421,0,0,0,0,0,0,0,0,0,-1,2036,603,0,0
-700,414,0,0,0,0,0,0,0,0,0,-1,524,610,0,0
-693,414,0,0,0,0,0,0,0,0,0,-1,531,610,0,0
-686,414,0,0,0,0,0,0,0,0,0,-1,538,610,0,0
-679,414,0,0,0,0,0,0,0,0,0,-1,545,610,0,0
-672,414,0,0,0,0,0,0,0,0,0,-1,552,610,0,0
-665,414,0,0,0,0,0,0,0,0,0,-1,559,610,0,0
-658,414,0,0,0,0,0,0,0,0,0,-1,566,610,0,0
-651,414,0,0,0,0,0,0,0,0,0,-1,573,610,0,0
-644,414,0,0,0,0,0,0,0,0,0,-1,580,610,0,0
-637,414,0,0,0,0,0,0,0,0,0,-1,587,610,0,0
-630,414,0,0,0,0,0,0,0,0,0,-1,594,610,0,0
-623,414,0,0,0,0,0,0,0,0,0,-1,601,610,0,0
-616,414,0,0,0,0,0,0,0,0,0,-1,608,610,0,0
-609,414,0,0,0,0,0,0,0,0,0,-1,615,610,0,0
-602,414,0,0,0,0,0,0,0,0,0,-1,622,610,0,0
-595,414,0,0,0,0,0,0,0,0,0,-1,629,610,0,0
-588,414,0,0,0,0,0,0,0,0,0,-1,636,610,0,0
-581,414,0,0,0,0,0,0,0,0,0,-1,643,610,0,0
-574,414,0,0,0,0,0,0,0,0,0,-1,650,610,0,0
-567,414,0,0,0,0,0,0,0,0,0,-1,657,610,0,0
-560,414,0,0,0,0,0,0,0,0,0,-1,664,610,0,0
-553,414,0,0,0,0,0,0,0,0,0,-1,671,610,0,0
-546,414,0,0,0,0,0,0,0,0,0,-1,678,610,0,0
-539,414,-7.50146,5.65619,0,0,0,0,0,0,0,-1,685,610,-7.50149,-5.65617
-532,414,-8.15204,4.01605,0,0,0,0,0,0,0,-1,692,610,-8.15206,-4.01606
-525,414,-3.47137,-3.27924,0,0,0,0,0,0,0,-1,699,610,-3.47136,3.27922
-518,414,-4.12909,-4.36908,0,0,0,0,0,0,0,-1,706,610,-4.12909,4.36909
-511,414,-3.92542,-4.97021,0,0,0,0,0,0,0,-1,713,610,-3.92542,4.97023
-504,414,-8.42041,-8.32294,0,0,0,0,0,0,0,-1,720,610,-8.42043,8.32296
-497,414,-8.66589,-5.32068,0,0,0,0,0,0,0,-1,727,610,-8.66589,5.32068
-490,414,-8.49786,-6.203,0,0,0,0,0,0,0,-1,734,610,-8.49788,6.20303
-483,414,-8.18872,-6.86401,0,0,0,0,0,0,0,-1,741,610,-8.18872,6.86404
-476,414,-8.33136,-7.37933,-0.000669762,0.00640168,-0.00336087,0.00774415,-0.00201223,-1.19077,0.00594807,0.0224438,748,610,-8.33138,7.37936
-469,414,-8.38495,-7.88245,-0.000318848,0.00485231,-0.00274149,0.00603515,-0.00150169,-1.16347,0.00460633,0.0143175,755,610,-8.38493,7.88244
-462,414,-8.38257,-8.42407,4.16436e-05,0.0035938,-0.00220887,0.00465208,-0.00101663,-1.12401,0.00348998,0.0222098,762,610,-8.3826,8.42405
-455,414,-8.38495,-8.98627,0.000207894,0.00246785,-0.00162133,0.00331412,-0.000638379,-1.08973,0.00245009,0.0237113,769,610,-8.38493,8.98625
-448,414,-8.38165,-9.51801,0.000187937,0.00117355,-0.000827937,0.00164424,-0.00028276,-1.05385,0.00120156,0.0235697,776,610,-8.38164,9.51803
-441,414,-8.39276,-10.0579,-8.49033e-05,-4.10333e-05,8.33323e-05,2.32025e-05,-0.000149139,0.914091,0.000107994,0.0171165,783,610,-8.39278,10.0579
-434,414,-8.43634,-10.5726,-0.00052699,-0.00116102,0.00107398,0.000275788,-0.0019638,0.641885,0.00141015,0.00931419,790,610,-8.43632,10.5725
-427,414,-8.45105,-11.0834,-0.00112637,-0.00243471,0.00219141,0.000506426,-0.0040675,0.640351,0.00289528,0.0102627,797,610,-8.45106,11.0833
-420,414,-8.44507,-11.5951,-0.00187317,-0.00376178,0.00343655,0.000746462,-0.0063814,0.651316,0.00452367,0.0104919,804,610,-8.44506,11.5951
-413,414,-8.46991,-12.1227,-0.00287008,-0.00510128,0.00487487,0.00101521,-0.00898657,0.672911,0.00635653,0.0103794,811,610,-8.46988,12.1227
-406,414,-8.46704,-12.7145,-0.00404374,-0.00664049,0.00643703,0.00122456,-0.0119088,0.685881,0.00837726,0.0237977,818,610,-8.46702,12.7145
-399,414,-8.55023,-13.0885,-0.00516949,-0.0082719,0.00799931,0.00142763,-0.014869,0.689628,0.0104212,0.0490351,825,610,-8.55022,13.0885
-392,414,-8.67914,-13.485,0,0,0,0,0,0,0,-1,832,610,-8.67917,13.4851
-385,414,-8.14691,-13.0653,0,0,0,0,0,0,0,-1,839,610,-8.14692,13.0653
-378,414,-8.04907,-11.3331,0,0,0,0,0,0,0,-1,846,610,-8.04905,11.3331
-371,414,-5.20886,-8.05151,0,0,0,0,0,0,0,-1,853,610,-5.20887,8.05153
-364,414,-6.76282,-6.58759,0,0,0,0,0,0,0,-1,860,610,-6.7628,6.58756
-357,414,-9.08685,-8.86188,0,0,0,0,0,0,0,-1,867,610,-9.08688,8.86187
-350,414,-6.4502,-2.41821,0,0,0,0,0,0,0,-1,874,610,-6.45021,2.41822
-343,414,-6.80249,-2.32117,0,0,0,0,0,0,0,-1,881,610,-6.80252,2.32116
-336,414,-7.11017,-2.52026,0,0,0,0,0,0,0,-1,888,610,-7.11016,2.52026
-329,414,-7.59747,-2.70313,0,0,0,0,0,0,0,-1,895,610,-7.59747,2.70315
-322,414,-4.42236,-1.29163,0,0,0,0,0,0,0,-1,902,610,-4.42238,1.2916
-315,414,0,0,0,0,0,0,0,0,0,-1,909,610,0,0
-308,414,0,0,0,0,0,0,0,0,0,-1,916,610,0,0
-301,414,0,0,0,0,0,0,0,0,0,-1,923,610,0,0
-294,414,0,0,0,0,0,0,0,0,0,-1,930,610,0,0
-287,414,0,0,0,0,0,0,0,0,0,-1,937,610,0,0
-280,414,0,0,0,0,0,0,0,0,0,-1,944,610,0,0
-273,414,0,0,0,0,0,0,0,0,0,-1,951,610,0,0
-266,414,0,0,0,0,0,0,0,0,0,-1,958,610,0,0
-259,414,0,0,0,0,0,0,0,0,0,-1,965,610,0,0
-252,414,0,0,0,0,0,0,0,0,0,-1,972,610,0,0
-245,414,0,0,0,0,0,0,0,0,0,-1,979,610,0,0
-238,414,0,0,0,0,0,0,0,0,0,-1,986,610,0,0
-231,414,0,0,0,0,0,0,0,0,0,-1,993,610,0,0
-224,414,0,0,0,0,0,0,0,0,0,-1,1000,610,0,0
-217,414,0,0,0,0,0,0,0,0,0,-1,1007,610,0,0
-210,414,0,0,0,0,0,0,0,0,0,-1,1014,610,0,0
-203,414,0,0,0,0,0,0,0,0,0,-1,1021,610,0,0
-196,414,0,0,0,0,0,0,0,0,0,-1,1028,610,0,0
-189,414,0,0,0,0,0,0,0,0,0,-1,1035,610,0,0
-182,414,0,0,0,0,0,0,0,0,0,-1,1042,610,0,0
-175,414,0,0,0,0,0,0,0,0,0,-1,1049,610,0,0
-168,414,0,0,0,0,0,0,0,0,0,-1,1056,610,0,0
-161,414,0,0,0,0,0,0,0,0,0,-1,1063,610,0,0
-154,414,0,0,0,0,0,0,0,0,0,-1,1070,610,0,0
-147,414,0,0,0,0,0,0,0,0,0,-1,1077,610,0,0
-140,414,0,0,0,0,0,0,0,0,0,-1,1084,610,0,0
-133,414,0,0,0,0,0,0,0,0,0,-1,1091,610,0,0
-126,414,0,0,0,0,0,0,0,0,0,-1,1098,610,0,0
-119,414,0,0,0,0,0,0,0,0,0,-1,1105,610,0,0
-112,414,0,0,0,0,0,0,0,0,0,-1,1112,610,0,0
-105,414,0,0,0,0,0,0,0,0,0,-1,1119,610,0,0
-98,414,0,0,0,0,0,0,0,0,0,-1,1126,610,0,0
-91,414,0,0,0,0,0,0,0,0,0,-1,1133,610,0,0
-84,414,0,0,0,0,0,0,0,0,0,-1,1140,610,0,0
-77,414,0,0,0,0,0,0,0,0,0,-1,1147,610,0,0
-70,414,0,0,0,0,0,0,0,0,0,-1,1154,610,0,0
-63,414,0,0,0,0,0,0,0,0,0,-1,1161,610,0,0
-56,414,0,0,0,0,0,0,0,0,0,-1,1168,610,0,0
-49,414,0,0,0,0,0,0,0,0,0,-1,1175,610,0,0
-42,414,0,0,0,0,0,0,0,0,0,-1,1182,610,0,0
-35,414,0,0,0,0,0,0,0,0,0,-1,1189,610,0,0
-28,414,0,0,0,0,0,0,0,0,0,-1,1196,610,0,0
-21,414,0,0,0,0,0,0,0,0,0,-1,1203,610,0,0
-14,414,0,0,0,0,0,0,0,0,0,-1,1210,610,0,0
-7,414,0,0,0,0,0,0,0,0,0,-1,1217,610,0,0
0,414,0,0,0,0,0,0,0,0,0,-1,1224,610,0,0
7,414,0,0,0,0,0,0,0,0,0,-1,1231,610,0,0
14,414,0,0,0,0,0,0,0,0,0,-1,1238,610,0,0
21,414,0,0,0,0,0,0,0,0,0,-1,1245,610,0,0
28,414,0,0,0,0,0,0,0,0,0,-1,1252,610,0,0
35,414,0,0,0,0,0,0,0,0,0,-1,1259,610,0,0
42,414,0,0,0,0,0,0,0,0,0,-1,1266,610,0,0
49,414,0,0,0,0,0,0,0,0,0,-1,1273,610,0,0
56,414,0,0,0,0,0,0,0,0,0,-1,1280,610,0,0
63,414,0,0,0,0,0,0,0,0,0,-1,1287,610,0,0
70,414,0,0,0,0,0,0,0,0,0,-1,1294,610,0,0
77,414,0,0,0,0,0,0,0,0,0,-1,1301,610,0,0
84,414,0,0,0,0,0,0,0,0,0,-1,1308,610,0,0
91,414,0,0,0,0,0,0,0,0,0,-1,1315,610,0,0
98,414,0,0,0,0,0,0,0,0,0,-1,1322,610,0,0
105,414,0,0,0,0,0,0,0,0,0,-1,1329,610,0,0
112,414,0,0,0,0,0,0,0,0,0,-1,1336,610,0,0
119,414,0,0,0,0,0,0,0,0,0,-1,1343,610,0,0
126,414,0,0,0,0,0,0,0,0,0,-1,1350,610,0,0
133,414,0,0,0,0,0,0,0,0,0,-1,1357,610,0,0
140,414,0,0,0,0,0,0,0,0,0,-1,1364,610,0,0
147,414,0,0,0,0,0,0,0,0,0,-1,1371,610,0,0
154,414,0,0,0,0,0,0,0,0,0,-1,1378,610,0,0
161,414,0,0,0,0,0,0,0,0,0,-1,1385,610,0,0
168,414,0,0,0,0,0,0,0,0,0,-1,1392,610,0,0
175,414,0,0,0,0,0,0,0,0,0,-1,1399,610,0,0
182,414,0,0,0,0,0,0,0,0,0,-1,1406,610,0,0
189,414,0,0,0,0,0,0,0,0,0,-1,1413,610,0,0
196,414,0,0,0,0,0,0,0,0,0,-1,1420,610,0,0
203,414,0,0,0,0,0,0,0,0,0,-1,1427,610,0,0
210,414,0,0,0,0,0,0,0,0,0,-1,1434,610,0,0
217,414,0,0,0,0,0,0,0,0,0,-1,1441,610,0,0
224,414,0,0,0,0,0,0,0,0,0,-1,1448,610,0,0
231,414,0,0,0,0,0,0,0,0,0,-1,1455,610,0,0
238,414,0,0,0,0,0,0,0,0,0,-1,1462,610,0,0
245,414,0,0,0,0,0,0,0,0,0,-1,1469,610,0,0
252,414,0,0,0,0,0,0,0,0,0,-1,1476,610,0,0
259,414,0,0,0,0,0,0,0,0,0,-1,1483,610,0,0
266,414,0,0,0,0,0,0,0,0,0,-1,1490,610,0,0
273,414,0,0,0,0,0,0,0,0,0,-1,1497,610,0,0
280,414,0,0,0,0,0,0,0,0,0,-1,1504,610,0,0
287,414,0,0,0,0,0,0,0,0,0,-1,1511,610,0,0
294,414,0,0,0,0,0,0,0,0,0,-1,1518,610,0,0
301,414,0,0,0,0,0,0,0,0,0,-1,1525,610,0,0
308,414,0,0,0,0,0,0,0,0,0,-1,1532,610,0,0
315,414,0,0,0,0,0,0,0,0,0,-1,1539,610,0,0
322,414,0,0,0,0,0,0,0,0,0,-1,1546,610,0,0
329,414,0,0,0,0,0,0,0,0,0,-1,1553,610,0,0
336,414,0,0,0,0,0,0,0,0,0,-1,1560,610,0,0
343,414,0,0,0,0,0,0,0,0,0,-1,1567,610,0,0
350,414,0,0,0,0,0,0,0,0,0,-1,1574,610,0,0
357,414,0,0,0,0,0,0,0,0,0,-1,1581,610,0,0
364,414,0,0,0,0,0,0,0,0,0,-1,1588,610,0,0
371,414,0,0,0,0,0,0,0,0,0,-1,1595,610,0,0
378,414,0,0,0,0,0,0,0,0,0,-1,1602,610,0,0
385,414,0,0,0,0,0,0,0,0,0,-1,1609,610,0,0
392,414,0,0,0,0,0,0,0,0,0,-1,1616,610,0,0
399,414,0,0,0,0,0,0,0,0,0,-1,1623,610,0,0
406,414,0,0,0,0,0,0,0,0,0,-1,1630,610,0,0
413,414,0,0,0,0,0,0,0,0,0,-1,1637,610,0,0
420,414,0,0,0,0,0,0,0,0,0,-1,1644,610,0,0
427,414,0,0,0,0,0,0,0,0,0,-1,1651,610,0,0
434,414,0,0,0,0,0,0,0,0,0,-1,1658,610,0,0
441,414,7.84375,0.584412,0,0,0,0,0,0,0,-1,1665,610,7.84379,-0.584394
448,414,7.40808,1.25446,0,0,0,0,0,0,0,-1,1672,610,7.40807,-1.25446
455,414,6.3512,1.73846,0,0,0,0,0,0,0,-1,1679,610,6.3512,-1.73847
462,414,8.18103,3.22113,0,0,0,0,0,0,0,-1,1686,610,8.18108,-3.22112
469,414,8.38513,2.49579,0,0,0,0,0,0,0,-1,1693,610,8.38516,-2.49576
476,414,8.64099,1.71161,0,0,0,0,0,0,0,-1,1700,610,8.64097,-1.71164
483,414,8.62744,0.687622,0,0,0,0,0,0,0,-1,1707,610,8.62749,-0.687615
490,414,8.38831,-0.0302734,0,0,0,0,0,0,0,-1,1714,610,8.38835,0.0302913
497,414,4.71094,-0.110046,0,0,0,0,0,0,0,-1,1721,610,4.71089,0.110024
504,414,7.19568,-1.43835,0,0,0,0,0,0,0,-1,1728,610,7.19563,1.43836
511,414,5.94153,-1.28772,0,0,0,0,0,0,0,-1,1735,610,5.94151,1.28769
518,414,4.53381,-0.0996704,0,0,0,0,0,0,0,-1,1742,610,4.53378,0.0996819
525,414,6.18811,-1.64056,0,0,0,0,0,0,0,-1,1749,610,6.18814,1.64055
532,414,18.006,-11.4559,0,0,0,0,0,0,0,-1,1756,610,18.006,11.456
539,414,18.0852,-10.7575,0.00608665,0.00273343,0.0029043,0.00776355,0.00105653,0.523623,0.00486194,0.0460292,1763,610,18.0852,10.7575
546,414,18.1078,-10.099,0.00513332,0.00218193,0.00232969,0.00641537,0.000899886,0.503079,0.00401074,0.0135044,1770,610,18.1078,10.099
553,414,18.1147,-9.55444,0.00411104,0.00152415,0.00177417,0.0050132,0.000621989,0.470422,0.00315531,0.011659,1777,610,18.1147,9.55446
560,414,18.1124,-9.01672,0.00299914,0.00112894,0.00127857,0.00364808,0.000480011,0.469665,0.00228889,0.0146434,1784,610,18.1125,9.01672
567,414,18.0928,-8.46985,0.00193712,0.000962991,0.000930673,0.00250048,0.000399635,0.544323,0.00155103,0.0243451,1791,610,18.0928,8.46982
574,414,18.0459,-7.91479,0.00098287,0.000962512,0.00072458,0.00169734,0.00024804,0.778375,0.00105861,0.0211295,1798,610,18.0459,7.91482
581,414,18.052,-7.34772,8.13569e-05,0.0011691,0.000654387,0.00147613,-0.000225664,1.13211,0.00106729,0.017071,1805,610,18.052,7.34769
588,414,18.0105,-6.8374,-0.000755811,0.00164542,0.000708113,0.00183869,-0.000949075,1.30436,0.0016366,0.0167387,1812,610,18.0105,6.83739
595,414,18.0004,-6.26855,-0.00143592,0.00241282,0.000968123,0.00264262,-0.00166572,1.33774,0.00250865,0.0220019,1819,610,18.0003,6.26854
602,414,17.9979,-5.70758,-0.00199812,0.0035,0.00140492,0.00383819,-0.00233631,1.33457,0.00359983,0.0245401,1826,610,17.9979,5.70759
609,414,17.9827,-5.13763,0,0,0,0,0,0,0,-1,1833,610,17.9827,5.13763
616,414,18.2244,-4.31616,0,0,0,0,0,0,0,-1,1840,610,18.2244,4.31618
623,414,9.6969,0.0378418,0,0,0,0,0,0,0,-1,1847,610,9.69685,-0.0378644
630,414,5.47144,0.499329,0,0,0,0,0,0,0,-1,1854,610,5.47142,-0.499303
637,414,8.36707,4.16278,0,0,0,0,0,0,0,-1,1861,610,8.36709,-4.16278
644,414,5.87073,1.51422,0,0,0,0,0,0,0,-1,1868,610,5.87076,-1.51424
651,414,3.6377,0.820557,0,0,0,0,0,0,0,-1,1875,610,3.6377,-0.820543
658,414,2.29761,3.87323,0,0,0,0,0,0,0,-1,1882,610,2.29758,-3.87325
665,414,0,0,0,0,0,0,0,0,0,-1,1889,610,0,0
672,414,0,0,0,0,0,0,0,0,0,-1,1896,610,0,0
679,414,0,0,0,0,0,0,0,0,0,-1,1903,610,0,0
686,414,0,0,0,0,0,0,0,0,0,-1,1910,610,0,0
693,414,0,0,0,0,0,0,0,0,0,-1,1917,610,0,0
700,414,0,0,0,0,0,0,0,0,0,-1,1924,610,0,0
707,414,0,0,0,0,0,0,0,0,0,-1,1931,610,0,0
714,414,0,0,0,0,0,0,0,0,0,-1,1938,610,0,0
721,414,0,0,0,0,0,0,0,0,0,-1,1945,610,0,0
728,414,0,0,0,0,0,0,0,0,0,-1,1952,610,0,0
735,414,0,0,0,0,0,0,0,0,0,-1,1959,610,0,0
742,414,0,0,0,0,0,0,0,0,0,-1,1966,610,0,0
749,414,0,0,0,0,0,0,0,0,0,-1,1973,610,0,0
756,414,0,0,0,0,0,0,0,0,0,-1,1980,610,0,0
763,414,0,0,0,0,0,0,0,0,0,-1,1987,610,0,0
770,414,0,0,0,0,0,0,0,0,0,-1,1994,610,0,0
777,414,0,0,0,0,0,0,0,0,0,-1,2001,610,0,0
784,414,0,0,0,0,0,0,0,0,0,-1,2008,610,0,0
791,414,0,0,0,0,0,0,0,0,0,-1,2015,610,0,0
798,414,0,0,0,0,0,0,0,0,0,-1,2022,610,0,0
805,414,0,0,0,0,0,0,0,0,0,-1,2029,610,0,0
812,414,0,0,0,0,0,0,0,0,0,-1,2036,610,0,0
-700,407,0,0,0,0,0,0,0,0,0,-1,524,617,0,0
-693,407,0,0,0,0,0,0,0,0,0,-1,531,617,0,0
-686,407,0,0,0,0,0,0,0,0,0,-1,538,617,0,0
-679,407,0,0,0,0,0,0,0,0,0,-1,545,617,0,0
-672,407,0,0,0,0,0,0,0,0,0,-1,552,617,0,0
-665,407,0,0,0,0,0,0,0,0,0,-1,559,617,0,0
-658,407,0,0,0,0,0,0,0,0,0,-1,566,617,0,0
-651,407,0,0,0,0,0,0,0,0,0,-1,573,617,0,0
-644,407,0,0,0,0,0,0,0,0,0,-1,580,617,0,0
-637,407,0,0,0,0,0,0,0,0,0,-1,587,617,0,0
-630,407,0,0,0,0,0,0,0,0,0,-1,594,617,0,0
-623,407,0,0,0,0,0,0,0,0,0,-1,601,617,0,0
-616,407,0,0,0,0,0,0,0,0,0,-1,608,617,0,0
-609,407,0,0,0,0,0,0,0,0,0,-1,615,617,0,0
-602,407,0,0,0,0,0,0,0,0,0,-1,622,617,0,0
-595,407,0,0,0,0,0,0,0,0,0,-1,629,617,0,0
-588,407,0,0,0,0,0,0,0,0,0,-1,636,617,0,0
-581,407,0,0,0,0,0,0,0,0,0,-1,643,617,0,0
-574,407,0,0,0,0,0,0,0,0,0,-1,650,617,0,0
-567,407,0,0,0,0,0,0,0,0,0,-1,657,617,0,0
-560,407,0,0,0,0,0,0,0,0,0,-1,664,617,0,0
-553,407,0,0,0,0,0,0,0,0,0,-1,671,617,0,0
-546,407,-8.54517,-0.658142,0,0,0,0,0,0,0,-1,678,617,-8.54515,0.658112
-539,407,-6.09442,-1.01154,0,0,0,0,0,0,0,-1,685,617,-6.09441,1.01155
-532,407,-7.75665,1.62152,0,0,0,0,0,0,0,-1,692,617,-7.75667,-1.62154
-525,407,-3.78247,-2.67639,0,0,0,0,0,0,0,-1,699,617,-3.78246,2.67638
-518,407,-5.013,-5.87323,0,0,0,0,0,0,0,-1,706,617,-5.013,5.87324
-511,407,-8.50342,-7.86023,0,0,0,0,0,0,0,-1,713,617,-8.5034,7.86024
-504,407,-8.64575,-7.46301,0,0,0,0,0,0,0,-1,720,617,-8.64573,7.46301
-497,407,-8.81702,-5.57581,0,0,0,0,0,0,0,-1,727,617,-8.817,5.57581
-490,407,-8.8197,-6.21204,-0.000590746,0.00922081,-0.00461841,0.0110527,-0.00242265,-1.19318,0.00829481,0.0489612,734,617,-8.8197,6.21204
-483,407,-8.80597,-6.79785,-0.000491252,0.00692875,-0.00360942,0.00839485,-0.00195735,-1.18497,0.00635038,0.0305337,741,617,-8.80594,6.79788
-476,407,-8.84497,-7.31018,-0.000311596,0.00519215,-0.00284829,0.00640078,-0.00152023,-1.16949,0.00485394,0.0154587,748,617,-8.84496,7.31018
-469,407,-8.88721,-7.81842,-1.9695e-05,0.00381883,-0.00227439,0.00487554,-0.00107641,-1.13586,0.00366227,0.0130862,755,617,-8.88722,7.8184
-462,407,-8.92487,-8.39014,0.000240478,0.00269347,-0.001759,0.00361135,-0.00067741,-1.08984,0.00266226,0.0199688,762,617,-8.92487,8.39012
-455,407,-8.90643,-8.97809,0.000277649,0.00155936,-0.00110657,0.00219725,-0.000360242,-1.04787,0.0015985,0.0216956,769,617,-8.90643,8.9781
-448,407,-8.88678,-9.52405,0.000188876,0.000316751,-0.000299606,0.000559165,-5.35385e-05,-0.890524,0.000391844,0.0189393,776,617,-8.8868,9.52406
-441,407,-8.92987,-10.0082,-0.00017049,-0.000872313,0.000651591,0.000218673,-0.00126148,0.538395,0.000922555,0.0141242,783,617,-8.92985,10.0081
-434,407,-8.97473,-10.5162,-0.00071965,-0.00205349,0.00173145,0.000468881,-0.00324202,0.601566,0.00233339,0.0103949,790,617,-8.97471,10.5162
-427,407,-8.97809,-11.0502,-0.00148822,-0.0034636,0.00301069,0.000692657,-0.00564447,0.6269,0.00401384,0.010862,797,617,-8.97806,11.0502
-420,407,-8.96082,-11.5801,-0.00253048,-0.00506673,0.00455372,0.000928389,-0.0085256,0.649598,0.00601712,0.0103746,804,617,-8.96084,11.5801
-413,407,-8.96259,-12.0843,-0.00390697,-0.00667937,0.00636069,0.00121682,-0.0118032,0.678109,0.00830415,0.0128326,811,617,-8.96258,12.0843
-406,407,-9.05261,-12.4368,-0.00559498,-0.00877612,0.00843338,0.00139652,-0.0157676,0.692191,0.0110068,0.0374161,818,617,-9.0526,12.4368
-399,407,-8.93109,-12.7978,0,0,0,0,0,0,0,-1,825,617,-8.93111,12.7978
-392,407,-8.33612,-12.195,0,0,0,0,0,0,0,-1,832,617,-8.33611,12.195
-385,407,-7.65765,-10.7744,0,0,0,0,0,0,0,-1,839,617,-7.65767,10.7744
-378,407,-6.08655,-7.42291,0,0,0,0,0,0,0,-1,846,617,-6.08652,7.42292
-371,407,-7.4007,-5.79449,0,0,0,0,0,0,0,-1,853,617,-7.40072,5.79447
-364,407,-10.0638,-6.6228,0,0,0,0,0,0,0,-1,860,617,-10.0639,6.62279
-357,407,-6.64447,-1.83337,0,0,0,0,0,0,0,-1,867,617,-6.64446,1.8334
-350,407,-7.03351,-1.77551,0,0,0,0,0,0,0,-1,874,617,-7.03349,1.77551
-343,407,-7.40967,-1.95026,0,0,0,0,0,0,0,-1,881,617,-7.40969,1.95026
-336,407,-8.10229,-2.40662,0,0,0,0,0,0,0,-1,888,617,-8.10229,2.40664
-329,407,-8.81232,-2.76331,0,0,0,0,0,0,0,-1,895,617,-8.81235,2.76331
-322,407,0,0,0,0,0,0,0,0,0,-1,902,617,0,0
-315,407,0,0,0,0,0,0,0,0,0,-1,909,617,0,0
-308,407,0,0,0,0,0,0,0,0,0,-1,916,617,0,0
-301,407,0,0,0,0,0,0,0,0,0,-1,923,617,0,0
-294,407,0,0,0,0,0,0,0,0,0,-1,930,617,0,0
-287,407,0,0,0,0,0,0,0,0,0,-1,937,617,0,0
-280,407,0,0,0,0,0,0,0,0,0,-1,944,617,0,0
-273,407,0,0,0,0,0,0,0,0,0,-1,951,617,0,0
-266,407,0,0,0,0,0,0,0,0,0,-1,958,617,0,0
-259,407,0,0,0,0,0,0,0,0,0,-1,965,617,0,0
-252,407,0,0,0,0,0,0,0,0,0,-1,972,617,0,0
-245,407,0,0,0,0,0,0,0,0,0,-1,979,617,0,0
-238,407,0,0,0,0,0,0,0,0,0,-1,986,617,0,0
-231,407,0,0,0,0,0,0,0,0,0,-1,993,617,0,0
-224,407,0,0,0,0,0,0,0,0,0,-1,1000,617,0,0
-217,407,0,0,0,0,0,0,0,0,0,-1,1007,617,0,0
-210,407,0,0,0,0,0,0,0,0,0,-1,1014,617,0,0
-203,407,0,0,0,0,0,0,0,0,0,-1,1021,617,0,0
-196,407,0,0,0,0,0,0,0,0,0,-1,1028,617,0,0
-189,407,0,0,0,0,0,0,0,0,0,-1,1035,617,0,0
-182,407,0,0,0,0,0,0,0,0,0,-1,1042,617,0,0
-175,407,0,0,0,0,0,0,0,0,0,-1,1049,617,0,0
-168,407,0,0,0,0,0,0,0,0,0,-1,1056,617,0,0
-161,407,0,0,0,0,0,0,0,0,0,-1,1063,617,0,0
-154,407,0,0,0,0,0,0,0,0,0,-1,1070,617,0,0
-147,407,0,0,0,0,0,0,0,0,0,-1,1077,617,0,0
-140,407,0,0,0,0,0,0,0,0,0,-1,1084,617,0,0
-133,407,0,0,0,0,0,0,0,0,0,-1,1091,617,0,0
-126,407,0,0,0,0,0,0,0,0,0,-1,1098,617,0,0
-119,407,0,0,0,0,0,0,0,0,0,-1,1105,617,0,0
-112,407,0,0,0,0,0,0,0,0,0,-1,1112,617,0,0
-105,407,0,0,0,0,0,0,0,0,0,-1,1119,617,0,0
-98,407,0,0,0,0,0,0,0,0,0,-1,1126,617,0,0
-91,407,0,0,0,0,0,0,0,0,0,-1,1133,617,0,0
-84,407,0,0,0,0,0,0,0,0,0,-1,1140,617,0,0
-77,407,0,0,0,0,0,0,0,0,0,-1,1147,617,0,0
-70,407,0,0,0,0,0,0,0,0,0,-1,1154,617,0,0
-63,407,0,0,0,0,0,0,0,0,0,-1,1161,617,0,0
-56,407,0,0,0,0,0,0,0,0,0,-1,1168,617,0,0
-49,407,0,0,0,0,0,0,0,0,0,-1,1175,617,0,0
-42,407,0,0,0,0,0,0,0,0,0,-1,1182,617,0,0
-35,407,0,0,0,0,0,0,0,0,0,-1,1189,617,0,0
-28,407,0,0,0,0,0,0,0,0,0,-1,1196,617,0,0
-21,407,0,0,0,0,0,0,0,0,0,-1,1203,617,0,0
-14,407,0,0,0,0,0,0,0,0,0,-1,1210,617,0,0
-7,407,0,0,0,0,0,0,0,0,0,-1,1217,617,0,0
0,407,0,0,0,0,0,0,0,0,0,-1,1224,617,0,0
7,407,0,0,0,0,0,0,0,0,0,-1,1231,617,0,0
14,407,0,0,0,0,0,0,0,0,0,-1,1238,617,0,0
21,407,0,0,0,0,0,0,0,0,0,-1,1245,617,0,0
28,407,0,0,0,0,0,0,0,0,0,-1,1252,617,0,0
35,407,0,0,0,0,0,0,0,0,0,-1,1259,617,0,0
42,407,0,0,0,0,0,0,0,0,0,-1,1266,617,0,0
49,407,0,0,0,0,0,0,0,0,0,-1,1273,617,0,0
56,407,0,0,0,0,0,0,0,0,0,-1,1280,617,0,0
63,407,0,0,0,0,0,0,0,0,0,-1,1287,617,0,0
70,407,0,0,0,0,0,0,0,0,0,-1,1294,617,0,0
77,407,0,0,0,0,0,0,0,0,0,-1,1301,617,0,0
84,407,0,0,0,0,0,0,0,0,0,-1,1308,617,0,0
91,407,0,0,0,0,0,0,0,0,0,-1,1315,617,0,0
98,407,0,0,0,0,0,0,0,0,0,-1,1322,617,0,0
105,407,0,0,0,0,0,0,0,0,0,-1,1329,617,0,0
112,407,0,0,0,0,0,0,0,0,0,-1,1336,617,0,0
119,407,0,0,0,0,0,0,0,0,0,-1,1343,617,0,0
126,407,0,0,0,0,0,0,0,0,0,-1,1350,617,0,0
133,407,0,0,0,0,0,0,0,0,0,-1,1357,617,0,0
140,407,0,0,0,0,0,0,0,0,0,-1,1364,617,0,0
147,407,0,0,0,0,0,0,0,0,0,-1,1371,617,0,0
154,407,0,0,0,0,0,0,0,0,0,-1,1378,617,0,0
161,407,0,0,0,0,0,0,0,0,0,-1,1385,617,0,0
168,407,0,0,0,0,0,0,0,0,0,-1,1392,617,0,0
175,407,0,0,0,0,0,0,0,0,0,-1,1399,617,0,0
182,407,0,0,0,0,0,0,0,0,0,-1,1406,617,0,0
189,407,0,0,0,0,0,0,0,0,0,-1,1413,617,0,0
196,407,0,0,0,0,0,0,0,0,0,-1,1420,617,0,0
203,407,0,0,0,0,0,0,0,0,0,-1,1427,617,0,0
210,407,0,0,0,0,0,0,0,0,0,-1,1434,617,0,0
217,407,0,0,0,0,0,0,0,0,0,-1,1441,617,0,0
224,407,0,0,0,0,0,0,0,0,0,-1,1448,617,0,0
231,407,0,0,0,0,0,0,0,0,0,-1,1455,617,0,0
238,407,0,0,0,0,0,0,0,0,0,-1,1462,617,0,0
245,407,0,0,0,0,0,0,0,0,0,-1,1469,617,0,0
252,407,0,0,0,0,0,0,0,0,0,-1,1476,617,0,0
259,407,0,0,0,0,0,0,0,0,0,-1,1483,617,0,0
266,407,0,0,0,0,0,0,0,0,0,-1,1490,617,0,0
273,407,0,0,0,0,0,0,0,0,0,-1,1497,617,0,0
280,407,0,0,0,0,0,0,0,0,0,-1,1504,617,0,0
287,407,0,0,0,0,0,0,0,0,0,-1,1511,617,0,0
294,407,0,0,0,0,0,0,0,0,0,-1,1518,617,0,0
301,407,0,0,0,0,0,0,0,0,0,-1,1525,617,0,0
308,407,0,0,0,0,0,0,0,0,0,-1,1532,617,0,0
315,407,0,0,0,0,0,0,0,0,0,-1,1539,617,0,0
322,407,0,0,0,0,0,0,0,0,0,-1,1546,617,0,0
329,407,0,0,0,0,0,0,0,0,0,-1,1553,617,0,0
336,407,0,0,0,0,0,0,0,0,0,-1,1560,617,0,0
343,407,0,0,0,0,0,0,0,0,0,-1,1567,617,0,0
350,407,0,0,0,0,0,0,0,0,0,-1,1574,617,0,0
357,407,0,0,0,0,0,0,0,0,0,-1,1581,617,0,0
364,407,0,0,0,0,0,0,0,0,0,-1,1588,617,0,0
371,407,0,0,0,0,0,0,0,0,0,-1,1595,617,0,0
378,407,0,0,0,0,0,0,0,0,0,-1,1602,617,0,0
385,407,0,0,0,0,0,0,0,0,0,-1,1609,617,0,0
392,407,0,0,0,0,0,0,0,0,0,-1,1616,617,0,0
399,407,0,0,0,0,0,0,0,0,0,-1,1623,617,0,0
406,407,0,0,0,0,0,0,0,0,0,-1,1630,617,0,0
413,407,0,0,0,0,0,0,0,0,0,-1,1637,617,0,0
420,407,0,0,0,0,0,0,0,0,0,-1,1644,617,0,0
427,407,0,0,0,0,0,0,0,0,0,-1,1651,617,0,0
434,407,0,0,0,0,0,0,0,0,0,-1,1658,617,0,0
441,407,0,0,0,0,0,0,0,0,0,-1,1665,617,0,0
448,407,7.02893,2.13843,0,0,0,0,0,0,0,-1,1672,617,7.02899,-2.13844
455,407,7.55237,2.29242,0,0,0,0,0,0,0,-1,1679,617,7.55236,-2.29244
462,407,8.2926,2.46173,0,0,0,0,0,0,0,-1,1686,617,8.29261,-2.46174
469,407,8.71509,2.22681,0,0,0,0,0,0,0,-1,1693,617,8.71511,-2.22681
476,407,8.89917,1.47766,0,0,0,0,0,0,0,-1,1700,617,8.89914,-1.47768
483,407,9.02612,0.682983,0,0,0,0,0,0,0,-1,1707,617,9.02608,-0.683004
490,407,9.12659,0.000671387,0,0,0,0,0,0,0,-1,1714,617,9.12653,-0.000675931
497,407,7.76819,0.855835,0,0,0,0,0,0,0,-1,1721,617,7.7682,-0.855865
504,407,4.69336,0.160706,0,0,0,0,0,0,0,-1,1728,617,4.69337,-0.1607
511,407,4.07104,-0.00140381,0,0,0,0,0,0,0,-1,1735,617,4.07109,0.00141425
518,407,6.09534,1.9411,0,0,0,0,0,0,0,-1,1742,617,6.09532,-1.94113
525,407,5.72534,-1.35986,0,0,0,0,0,0,0,-1,1749,617,5.72529,1.35988
532,407,18.5767,-10.6388,0,0,0,0,0,0,0,-1,1756,617,18.5766,10.6388
539,407,18.6129,-10.7084,0,0,0,0,0,0,0,-1,1763,617,18.613,10.7083
546,407,18.6576,-10.0944,0.00632652,0.00250532,0.00279851,0.00780444,0.0010274,0.485881,0.00489655,0.0198873,1770,617,18.6576,10.0944
553,407,18.6285,-9.55359,0.00521675,0.00165949,0.00212086,0.00620607,0.000670171,0.436468,0.00393307,0.0139882,1777,617,18.6285,9.55361
560,407,18.6505,-8.99884,0.00401202,0.00118703,0.00153619,0.0046864,0.000512659,0.413661,0.00296817,0.015763,1784,617,18.6505,8.99886
567,407,18.6205,-8.48541,0.00287612,0.000932573,0.00111589,0.00338406,0.000424634,0.42716,0.00212866,0.028839,1791,617,18.6204,8.48542
574,407,18.6029,-7.93207,0.00189994,0.000900996,0.000885472,0.0024171,0.00038384,0.528606,0.00149991,0.0251121,1798,617,18.603,7.9321
581,407,18.5942,-7.33429,0.00100917,0.00109246,0.000809763,0.00186165,0.000239981,0.811091,0.00116934,0.0178105,1805,617,18.5943,7.3343
588,407,18.5574,-6.79987,0.000202372,0.00153396,0.00085803,0.00195421,-0.000217881,1.11535,0.00138118,0.0126157,1812,617,18.5574,6.79987
595,407,18.563,-6.2608,-0.000379245,0.00220845,0.00111073,0.00261981,-0.000790611,1.2161,0.00206126,0.0237234,1819,617,18.563,6.26082
602,407,18.5635,-5.66266,-0.000732735,0.00318241,0.00158309,0.00374243,-0.00129275,1.23078,0.00301957,0.0199471,1826,617,18.5634,5.66264
609,407,18.5026,-5.07983,-0.000799781,0.00445712,0.00227692,0.00530619,-0.00164885,1.21387,0.00419648,0.0167698,1833,617,18.5026,5.07986
616,407,18.5406,-4.37952,-0.000483961,0.00612504,0.00319727,0.00741862,-0.00177753,1.18634,0.00563254,0.0290434,1840,617,18.5406,4.37954
623,407,18.7725,-3.56506,0,0,0,0,0,0,0,-1,1847,617,18.7725,3.56505
630,407,7.06177,0.814575,0,0,0,0,0,0,0,-1,1854,617,7.06178,-0.814579
637,407,8.90479,0.219421,0,0,0,0,0,0,0,-1,1861,617,8.90474,-0.219401
644,407,5.09766,2.27747,0,0,0,0,0,0,0,-1,1868,617,5.09764,-2.27746
651,407,7.37524,0.0513916,0,0,0,0,0,0,0,-1,1875,617,7.3752,-0.0513923
658,407,3.76685,0.594177,0,0,0,0,0,0,0,-1,1882,617,3.76683,-0.594184
665,407,5.76123,0.375061,0,0,0,0,0,0,0,-1,1889,617,5.76118,-0.37509
672,407,0,0,0,0,0,0,0,0,0,-1,1896,617,0,0
679,407,0,0,0,0,0,0,0,0,0,-1,1903,617,0,0
686,407,0,0,0,0,0,0,0,0,0,-1,1910,617,0,0
693,407,0,0,0,0,0,0,0,0,0,-1,1917,617,0,0
700,407,0,0,0,0,0,0,0,0,0,-1,1924,617,0,0
707,407,0,0,0,0,0,0,0,0,0,-1,1931,617,0,0
714,407,0,0,0,0,0,0,0,0,0,-1,1938,617,0,0
721,407,0,0,0,0,0,0,0,0,0,-1,1945,617,0,0
728,407,0,0,0,0,0,0,0,0,0,-1,1952,617,0,0
735,407,0,0,0,0,0,0,0,0,0,-1,1959,617,0,0
742,407,0,0,0,0,0,0,0,0,0,-1,1966,617,0,0
749,407,0,0,0,0,0,0,0,0,0,-1,1973,617,0,0
756,407,0,0,0,0,0,0,0,0,0,-1,1980,617,0,0
763,407,0,0,0,0,0,0,0,0,0,-1,1987,617,0,0
770,407,0,0,0,0,0,0,0,0,0,-1,1994,617,0,0
777,407,0,0,0,0,0,0,0,0,0,-1,2001,617,0,0
784,407,0,0,0,0,0,0,0,0,0,-1,2008,617,0,0
791,407,0,0,0,0,0,0,0,0,0,-1,2015,617,0,0
798,407,0,0,0,0,0,0,0,0,0,-1,2022,617,0,0
805,407,0,0,0,0,0,0,0,0,0,-1,2029,617,0,0
812,407,0,0,0,0,0,0,0,0,0,-1,2036,617,0,0
-700,400,0,0,0,0,0,0,0,0,0,-1,524,624,0,0
-693,400,0,0,0,0,0,0,0,0,0,-1,531,624,0,0
-686,400,0,0,0,0,0,0,0,0,0,-1,538,624,0,0
-679,400,0,0,0,0,0,0,0,0,0,-1,545,624,0,0
-672,400,0,0,0,0,0,0,0,0,0,-1,552,624,0,0
-665,400,0,0,0,0,0,0,0,0,0,-1,559,624,0,0
-658,400,0,0,0,0,0,0,0,0,0,-1,566,624,0,0
-651,400,0,0,0,0,0,0,0,0,0,-1,573,624,0,0
-644,400,0,0,0,0,0,0,0,0,0,-1,580,624,0,0
-637,400,0,0,0,0,0,0,0,0,0,-1,587,624,0,0
-630,400,0,0,0,0,0,0,0,0,0,-1,594,624,0,0
-623,400,0,0,0,0,0,0,0,0,0,-1,601,624,0,0
-616,400,0,0,0,0,0,0,0,0,0,-1,608,624,0,0
-609,400,0,0,0,0,0,0,0,0,0,-1,615,624,0,0
-602,400,0,0,0,0,0,0,0,0,0,-1,622,624,0,0
-595,400,0,0,0,0,0,0,0,0,0,-1,629,624,0,0
-588,400,0,0,0,0,0,0,0,0,0,-1,636,624,0,0
-581,400,0,0,0,0,0,0,0,0,0,-1,643,624,0,0
-574,400,0,0,0,0,0,0,0,0,0,-1,650,624,0,0
-567,400,0,0,0,0,0,0,0,0,0,-1,657,624,0,0
-560,400,0,0,0,0,0,0,0,0,0,-1,664,624,0,0
-553,400,0,0,0,0,0,0,0,0,0,-1,671,624,0,0
-546,400,-8.41174,-1.4599,0,0,0,0,0,0,0,-1,678,624,-8.41173,1.45989
-539,400,-5.69104,-1.7337,0,0,0,0,0,0,0,-1,685,624,-5.69103,1.7337
-532,400,-3.03632,-2.03912,0,0,0,0,0,0,0,-1,692,624,-3.03632,2.03909
-525,400,-6.20813,-7.04071,0,0,0,0,0,0,0,-1,699,624,-6.20814,7.04071
-518,400,-5.26544,-1.58661,0,0,0,0,0,0,0,-1,706,624,-5.26544,1.58658
-511,400,-9.32965,-6.91058,0,0,0,0,0,0,0,-1,713,624,-9.32963,6.91059
-504,400,-9.14325,-6.46045,0,0,0,0,0,0,0,-1,720,624,-9.14327,6.46042
-497,400,-9.25555,-5.06903,0,0,0,0,0,0,0,-1,727,624,-9.25556,5.06905
-490,400,-9.33331,-6.1524,-0.000219717,0.00746068,-0.00378521,0.00901261,-0.00177164,-1.1817,0.00667775,0.0283328,734,624,-9.3333,6.1524
-483,400,-9.34991,-6.76746,-0.000114256,0.00555216,-0.00297609,0.00682799,-0.00139008,-1.1658,0.00507916,0.0171855,741,624,-9.3499,6.76743
-476,400,-9.38312,-7.27472,6.14622e-05,0.00406288,-0.00234616,0.00514556,-0.00102122,-1.13845,0.0038166,0.0141615,748,624,-9.38313,7.27471
-469,400,-9.43372,-7.81696,0.000326809,0.00290503,-0.00187139,0.00388834,-0.000656502,-1.087,0.0028365,0.0146838,755,624,-9.4337,7.81694
-462,400,-9.42603,-8.41272,0.000502938,0.00188967,-0.00138257,0.00274299,-0.00035039,-1.01782,0.00195595,0.0201602,762,624,-9.42602,8.41269
-455,400,-9.41187,-8.95544,0.000417252,0.000746178,-0.000672986,0.0012745,-0.000111075,-0.905238,0.000889011,0.0209989,769,624,-9.41186,8.95546
-448,400,-9.41962,-9.49158,0.000250853,-0.000433451,0.000137602,0.000277486,-0.000460084,0.191186,0.000430164,0.0157066,776,624,-9.41962,9.49156
-441,400,-9.45355,-9.96594,-0.000202328,-0.00158254,0.00111335,0.000417453,-0.00220232,0.507957,0.00162533,0.0142152,783,624,-9.45358,9.96592
-434,400,-9.49329,-10.4751,-0.000878295,-0.00282953,0.00227935,0.000625455,-0.00433328,0.583183,0.00311832,0.011237,790,624,-9.49328,10.4751
-427,400,-9.50928,-11.0072,-0.00185621,-0.00438054,0.00373938,0.000828267,-0.00706502,0.622635,0.00500898,0.0100126,797,624,-9.50925,11.0072
-420,400,-9.45117,-11.5485,-0.0032848,-0.00629764,0.00563616,0.00104278,-0.0106252,0.654812,0.00745542,0.0149297,804,624,-9.45115,11.5485
-413,400,-9.52509,-11.9711,-0.00519728,-0.00825079,0.00791068,0.00133263,-0.0147807,0.690071,0.0103267,0.0350988,811,624,-9.52509,11.9711
-406,400,-9.87512,-11.9865,-0.0075878,-0.011034,0.010664,0.00149138,-0.0201132,0.7053,0.0139325,0.0499903,818,624,-9.87515,11.9864
-399,400,-9.86206,-12.1,0,0,0,0,0,0,0,-1,825,624,-9.86206,12.1
-392,400,-4.92285,-6.63354,0,0,0,0,0,0,0,-1,832,624,-4.92285,6.63354
-385,400,-3.68738,-5.04205,0,0,0,0,0,0,0,-1,839,624,-3.68736,5.04207
-378,400,-6.84064,-1.28662,0,0,0,0,0,0,0,-1,846,624,-6.84062,1.28662
-371,400,-6.98865,-1.2572,0,0,0,0,0,0,0,-1,853,624,-6.98865,1.25721
-364,400,-6.97247,-1.24133,0,0,0,0,0,0,0,-1,860,624,-6.97249,1.24135
-357,400,-7.18329,-1.23218,0,0,0,0,0,0,0,-1,867,624,-7.18327,1.2322
-350,400,-7.40186,-1.19409,0,0,0,0,0,0,0,-1,874,624,-7.40187,1.19407
-343,400,-8.09357,-1.51147,0,0,0,0,0,0,0,-1,881,624,-8.09355,1.51148
-336,400,0,0,0,0,0,0,0,0,0,-1,888,624,0,0
-329,400,0,0,0,0,0,0,0,0,0,-1,895,624,0,0
-322,400,0,0,0,0,0,0,0,0,0,-1,902,624,0,0
-315,400,0,0,0,0,0,0,0,0,0,-1,909,624,0,0
-308,400,0,0,0,0,0,0,0,0,0,-1,916,624,0,0
-301,400,0,0,0,0,0,0,0,0,0,-1,923,624,0,0
-294,400,0,0,0,0,0,0,0,0,0,-1,930,624,0,0
-287,400,0,0,0,0,0,0,0,0,0,-1,937,624,0,0
-280,400,0,0,0,0,0,0,0,0,0,-1,944,624,0,0
-273,400,0,0,0,0,0,0,0,0,0,-1,951,624,0,0
-266,400,0,0,0,0,0,0,0,0,0,-1,958,624,0,0
-259,400,0,0,0,0,0,0,0,0,0,-1,965,624,0,0
-252,400,0,0,0,0,0,0,0,0,0,-1,972,624,0,0
-245,400,0,0,0,0,0,0,0,0,0,-1,979,624,0,0
-238,400,0,0,0,0,0,0,0,0,0,-1,986,624,0,0
-231,400,0,0,0,0,0,0,0,0,0,-1,993,624,0,0
-224,400,0,0,0,0,0,0,0,0,0,-1,1000,624,0,0
-217,400,0,0,0,0,0,0,0,0,0,-1,1007,624,0,0
-210,400,0,0,0,0,0,0,0,0,0,-1,1014,624,0,0
-203,400,0,0,0,0,0,0,0,0,0,-1,1021,624,0,0
-196,400,0,0,0,0,0,0,0,0,0,-1,1028,624,0,0
-189,400,0,0,0,0,0,0,0,0,0,-1,1035,624,0,0
-182,400,0,0,0,0,0,0,0,0,0,-1,1042,624,0,0
-175,400,0,0,0,0,0,0,0,0,0,-1,1049,624,0,0
-168,400,0,0,0,0,0,0,0,0,0,-1,1056,624,0,0
-161,400,0,0,0,0,0,0,0,0,0,-1,1063,624,0,0
-154,400,0,0,0,0,0,0,0,0,0,-1,1070,624,0,0
-147,400,0,0,0,0,0,0,0,0,0,-1,1077,624,0,0
-140,400,0,0,0,0,0,0,0,0,0,-1,1084,624,0,0
-133,400,0,0,0,0,0,0,0,0,0,-1,1091,624,0,0
-126,400,0,0,0,0,0,0,0,0,0,-1,1098,624,0,0
-119,400,0,0,0,0,0,0,0,0,0,-1,1105,624,0,0
-112,400,0,0,0,0,0,0,0,0,0,-1,1112,624,0,0
-105,400,0,0,0,0,0,0,0,0,0,-1,1119,624,0,0
-98,400,0,0,0,0,0,0,0,0,0,-1,1126,624,0,0
-91,400,0,0,0,0,0,0,0,0,0,-1,1133,624,0,0
-84,400,0,0,0,0,0,0,0,0,0,-1,1140,624,0,0
-77,400,0,0,0,0,0,0,0,0,0,-1,1147,624,0,0
-70,400,0,0,0,0,0,0,0,0,0,-1,1154,624,0,0
-63,400,0,0,0,0,0,0,0,0,0,-1,1161,624,0,0
-56,400,0,0,0,0,0,0,0,0,0,-1,1168,624,0,0
-49,400,0,0,0,0,0,0,0,0,0,-1,1175,624,0,0
-42,400,0,0,0,0,0,0,0,0,0,-1,1182,624,0,0
-35,400,0,0,0,0,0,0,0,0,0,-1,1189,624,0,0
-28,400,0,0,0,0,0,0,0,0,0,-1,1196,624,0,0
-21,400,0,0,0,0,0,0,0,0,0,-1,1203,624,0,0
-14,400,0,0,0,0,0,0,0,0,0,-1,1210,624,0,0
-7,400,0,0,0,0,0,0,0,0,0,-1,1217,624,0,0
0,400,0,0,0,0,0,0,0,0,0,-1,1224,624,0,0
7,400,0,0,0,0,0,0,0,0,0,-1,1231,624,0,0
14,400,0,0,0,0,0,0,0,0,0,-1,1238,624,0,0
21,400,0,0,0,0,0,0,0,0,0,-1,1245,624,0,0
28,400,0,0,0,0,0,0,0,0,0,-1,1252,624,0,0
35,400,0,0,0,0,0,0,0,0,0,-1,1259,624,0,0
42,400,0,0,0,0,0,0,0,0,0,-1,1266,624,0,0
49,400,0,0,0,0,0,0,0,0,0,-1,1273,624,0,0
56,400,0,0,0,0,0,0,0,0,0,-1,1280,624,0,0
63,400,0,0,0,0,0,0,0,0,0,-1,1287,624,0,0
70,400,0,0,0,0,0,0,0,0,0,-1,1294,624,0,0
77,400,0,0,0,0,0,0,0,0,0,-1,1301,624,0,0
84,400,0,0,0,0,0,0,0,0,0,-1,1308,624,0,0
91,400,0,0,0,0,0,0,0,0,0,-1,1315,624,0,0
98,400,0,0,0,0,0,0,0,0,0,-1,1322,624,0,0
105,400,0,0,0,0,0,0,0,0,0,-1,1329,624,0,0
112,400,0,0,0,0,0,0,0,0,0,-1,1336,624,0,0
119,400,0,0,0,0,0,0,0,0,0,-1,1343,624,0,0
126,400,0,0,0,0,0,0,0,0,0,-1,1350,624,0,0
133,400,0,0,0,0,0,0,0,0,0,-1,1357,624,0,0
140,400,0,0,0,0,0,0,0,0,0,-1,1364,624,0,0
147,400,0,0,0,0,0,0,0,0,0,-1,1371,624,0,0
154,400,0,0,0,0,0,0,0,0,0,-1,1378,624,0,0
161,400,0,0,0,0,0,0,0,0,0,-1,1385,624,0,0
168,400,0,0,0,0,0,0,0,0,0,-1,1392,624,0,0
175,400,0,0,0,0,0,0,0,0,0,-1,1399,624,0,0
182,400,0,0,0,0,0,0,0,0,0,-1,1406,624,0,0
189,400,0,0,0,0,0,0,0,0,0,-1,1413,624,0,0
196,400,0,0,0,0,0,0,0,0,0,-1,1420,624,0,0
203,400,0,0,0,0,0,0,0,0,0,-1,1427,624,0,0
210,400,0,0,0,0,0,0,0,0,0,-1,1434,624,0,0
217,400,0,0,0,0,0,0,0,0,0,-1,1441,624,0,0
224,400,0,0,0,0,0,0,0,0,0,-1,1448,624,0,0
231,400,0,0,0,0,0,0,0,0,0,-1,1455,624,0,0
238,400,0,0,0,0,0,0,0,0,0,-1,1462,624,0,0
245,400,0,0,0,0,0,0,0,0,0,-1,1469,624,0,0
252,400,0,0,0,0,0,0,0,0,0,-1,1476,624,0,0
259,400,0,0,0,0,0,0,0,0,0,-1,1483,624,0,0
266,400,0,0,0,0,0,0,0,0,0,-1,1490,624,0,0
273,400,0,0,0,0,0,0,0,0,0,-1,1497,624,0,0
280,400,0,0,0,0,0,0,0,0,0,-1,1504,624,0,0
287,400,0,0,0,0,0,0,0,0,0,-1,1511,624,0,0
294,400,0,0,0,0,0,0,0,0,0,-1,1518,624,0,0
301,400,0,0,0,0,0,0,0,0,0,-1,1525,624,0,0
308,400,0,0,0,0,0,0,0,0,0,-1,1532,624,0,0
315,400,0,0,0,0,0,0,0,0,0,-1,1539,624,0,0
322,400,0,0,0,0,0,0,0,0,0,-1,1546,624,0,0
329,400,0,0,0,0,0,0,0,0,0,-1,1553,624,0,0
336,400,0,0,0,0,0,0,0,0,0,-1,1560,624,0,0
343,400,0,0,0,0,0,0,0,0,0,-1,1567,624,0,0
350,400,0,0,0,0,0,0,0,0,0,-1,1574,624,0,0
357,400,0,0,0,0,0,0,0,0,0,-1,1581,624,0,0
364,400,0,0,0,0,0,0,0,0,0,-1,1588,624,0,0
371,400,0,0,0,0,0,0,0,0,0,-1,1595,624,0,0
378,400,0,0,0,0,0,0,0,0,0,-1,1602,624,0,0
385,400,0,0,0,0,0,0,0,0,0,-1,1609,624,0,0
392,400,0,0,0,0,0,0,0,0,0,-1,1616,624,0,0
399,400,0,0,0,0,0,0,0,0,0,-1,1623,624,0,0
406,400,0,0,0,0,0,0,0,0,0,-1,1630,624,0,0
413,400,0,0,0,0,0,0,0,0,0,-1,1637,624,0,0
420,400,0,0,0,0,0,0,0,0,0,-1,1644,624,0,0
427,400,0,0,0,0,0,0,0,0,0,-1,1651,624,0,0
434,400,0,0,0,0,0,0,0,0,0,-1,1658,624,0,0
441,400,0,0,0,0,0,0,0,0,0,-1,1665,624,0,0
448,400,0,0,0,0,0,0,0,0,0,-1,1672,624,0,0
455,400,8.91309,2.75885,0,0,0,0,0,0,0,-1,1679,624,8.91312,-2.75885
462,400,8.90356,2.37878,0,0,0,0,0,0,0,-1,1686,624,8.90353,-2.37878
469,400,9.14429,1.76849,0,0,0,0,0,0,0,-1,1693,624,9.14432,-1.76847
476,400,9.23254,1.25995,0,0,0,0,0,0,0,-1,1700,624,9.23252,-1.25994
483,400,9.59766,0.562439,0,0,0,0,0,0,0,-1,1707,624,9.59771,-0.56242
490,400,9.92578,-0.213745,0,0,0,0,0,0,0,-1,1714,624,9.92579,0.21376
497,400,9.19141,0.175232,0,0,0,0,0,0,0,-1,1721,624,9.19138,-0.175209
504,400,9.23438,0.00823975,0,0,0,0,0,0,0,-1,1728,624,9.23436,-0.00823766
511,400,6.16687,3.3501,0,0,0,0,0,0,0,-1,1735,624,6.16682,-3.35007
518,400,6.55237,1.74994,0,0,0,0,0,0,0,-1,1742,624,6.55236,-1.74993
525,400,6.99731,1.08783,0,0,0,0,0,0,0,-1,1749,624,6.99736,-1.08785
532,400,6.96582,-1.74982,0,0,0,0,0,0,0,-1,1756,624,6.96585,1.74983
539,400,16.0278,-8.40637,0,0,0,0,0,0,0,-1,1763,624,16.0278,8.40635
546,400,19.2238,-10.1089,0,0,0,0,0,0,0,-1,1770,624,19.2237,10.1089
553,400,19.1021,-9.56,0.00648342,0.00168793,0.00235884,0.0074492,0.000722146,0.388609,0.00474378,0.0342742,1777,624,19.102,9.55998
560,400,19.181,-8.99298,0.00509606,0.00118543,0.00170326,0.00573388,0.00054761,0.358306,0.00365376,0.0149357,1784,624,19.181,8.99297
567,400,19.2036,-8.4505,0.00380102,0.000863443,0.00121495,0.0042384,0.00042607,0.345548,0.00269482,0.0180893,1791,624,19.2036,8.45052
574,400,19.1696,-7.88916,0.00273156,0.000827127,0.000966765,0.00313631,0.00042238,0.396489,0.00196527,0.0203778,1798,624,19.1696,7.88915
581,400,19.105,-7.33179,0.00179249,0.00102134,0.000889188,0.0023761,0.000437728,0.580821,0.00146019,0.0189492,1805,624,19.105,7.33181
588,400,19.0945,-6.75348,0.000977284,0.00143692,0.000938864,0.00217369,0.000240521,0.905431,0.00137598,0.0151346,1812,624,19.0945,6.75346
595,400,19.094,-6.22467,0.000438275,0.00203183,0.00118056,0.00265934,-0.000189232,1.08224,0.00183922,0.0149808,1819,624,19.094,6.22465
602,400,19.0964,-5.67273,0.000180021,0.00289503,0.00165517,0.00367819,-0.000603133,1.12885,0.00267592,0.0148051,1826,624,19.0964,5.67271
609,400,19.0255,-5.08832,9.58346e-05,0.00396468,0.00227564,0.00501698,-0.000956469,1.13766,0.00370486,0.0142781,1833,624,19.0255,5.08832
616,400,19.0065,-4.50354,0.000126404,0.00516729,0.00292413,0.00650731,-0.00121362,1.14109,0.00479423,0.0185769,1840,624,19.0065,4.50355
623,400,19.0474,-3.89032,0,0,0,0,0,0,0,-1,1847,624,19.0474,3.89033
630,400,11.9432,0.09021,0,0,0,0,0,0,0,-1,1854,624,11.9432,-0.0902007
637,400,6.92896,1.01917,0,0,0,0,0,0,0,-1,1861,624,6.92899,-1.01918
644,400,8.65381,1.4599,0,0,0,0,0,0,0,-1,1868,624,8.65379,-1.45991
651,400,7.90601,0.424072,0,0,0,0,0,0,0,-1,1875,624,7.90598,-0.424097
658,400,8.69031,1.0484,0,0,0,0,0,0,0,-1,1882,624,8.6903,-1.0484
665,400,5.98438,0.522522,0,0,0,0,0,0,0,-1,1889,624,5.98442,-0.522552
672,400,0,0,0,0,0,0,0,0,0,-1,1896,624,0,0
679,400,0,0,0,0,0,0,0,0,0,-1,1903,624,0,0
686,400,0,0,0,0,0,0,0,0,0,-1,1910,624,0,0
693,400,0,0,0,0,0,0,0,0,0,-1,1917,624,0,0
700,400,0,0,0,0,0,0,0,0,0,-1,1924,624,0,0
707,400,0,0,0,0,0,0,0,0,0,-1,1931,624,0,0
714,400,0,0,0,0,0,0,0,0,0,-1,1938,624,0,0
721,400,0,0,0,0,0,0,0,0,0,-1,1945,624,0,0
728,400,0,0,0,0,0,0,0,0,0,-1,1952,624,0,0
735,400,0,0,0,0,0,0,0,0,0,-1,1959,624,0,0
742,400,0,0,0,0,0,0,0,0,0,-1,1966,624,0,0
749,400,0,0,0,0,0,0,0,0,0,-1,1973,624,0,0
756,400,0,0,0,0,0,0,0,0,0,-1,1980,624,0,0
763,400,0,0,0,0,0,0,0,0,0,-1,1987,624,0,0
770,400,0,0,0,0,0,0,0,0,0,-1,1994,624,0,0
777,400,0,0,0,0,0,0,0,0,0,-1,2001,624,0,0
784,400,0,0,0,0,0,0,0,0,0,-1,2008,624,0,0
791,400,0,0,0,0,0,0,0,0,0,-1,2015,624,0,0
798,400,0,0,0,0,0,0,0,0,0,-1,2022,624,0,0
805,400,0,0,0,0,0,0,0,0,0,-1,2029,624,0,0
812,400,0,0,0,0,0,0,0,0,0,-1,2036,624,0,0
-700,393,0,0,0,0,0,0,0,0,0,-1,524,631,0,0
-693,393,0,0,0,0,0,0,0,0,0,-1,531,631,0,0
-686,393,0,0,0,0,0,0,0,0,0,-1,538,631,0,0
-679,393,0,0,0,0,0,0,0,0,0,-1,545,631,0,0
-672,393,0,0,0,0,0,0,0,0,0,-1,552,631,0,0
-665,393,0,0,0,0,0,0,0,0,0,-1,559,631,0,0
-658,393,0,0,0,0,0,0,0,0,0,-1,566,631,0,0
-651,393,0,0,0,0,0,0,0,0,0,-1,573,631,0,0
-644,393,0,0,0,0,0,0,0,0,0,-1,580,631,0,0
-637,393,0,0,0,0,0,0,0,0,0,-1,587,631,0,0
-630,393,0,0,0,0,0,0,0,0,0,-1,594,631,0,0
-623,393,0,0,0,0,0,0,0,0,0,-1,601,631,0,0
-616,393,0,0,0,0,0,0,0,0,0,-1,608,631,0,0
-609,393,0,0,0,0,0,0,0,0,0,-1,615,631,0,0
-602,393,0,0,0,0,0,0,0,0,0,-1,622,631,0,0
-595,393,0,0,0,0,0,0,0,0,0,-1,629,631,0,0
-588,393,0,0,0,0,0,0,0,0,0,-1,636,631,0,0
-581,393,0,0,0,0,0,0,0,0,0,-1,643,631,0,0
-574,393,0,0,0,0,0,0,0,0,0,-1,650,631,0,0
-567,393,0,0,0,0,0,0,0,0,0,-1,657,631,0,0
-560,393,0,0,0,0,0,0,0,0,0,-1,664,631,0,0
-553,393,-2.35107,3.92633,0,0,0,0,0,0,0,-1,671,631,-2.35108,-3.92634
-546,393,-1.78778,2.4856,0,0,0,0,0,0,0,-1,678,631,-1.78778,-2.48557
-539,393,-5.2113,-2.20245,0,0,0,0,0,0,0,-1,685,631,-5.21128,2.20247
-532,393,-2.83643,-2.01624,0,0,0,0,0,0,0,-1,692,631,-2.83642,2.01626
-525,393,-5.9505,-0.952698,0,0,0,0,0,0,0,-1,699,631,-5.95053,0.95268
-518,393,-5.80219,-1.57739,0,0,0,0,0,0,0,-1,706,631,-5.80219,1.57738
-511,393,-6.15527,-2.09906,0,0,0,0,0,0,0,-1,713,631,-6.15526,2.09903
-504,393,-10.2025,-4.5719,0,0,0,0,0,0,0,-1,720,631,-10.2025,4.5719
-497,393,-9.91138,-5.38654,-0.000294477,0.00767123,-0.00369266,0.00911966,-0.00174291,-1.19699,0.00673632,0.0347494,727,631,-9.91139,5.38652
-490,393,-9.86664,-6.18414,-3.89224e-05,0.00587719,-0.0030246,0.00714978,-0.00131151,-1.17254,0.00525849,0.0183241,734,631,-9.86662,6.18411
-483,393,-9.87183,-6.73975,0.000126735,0.00435268,-0.00241271,0.00544686,-0.000967445,-1.14503,0.00399298,0.0206818,741,631,-9.87185,6.73976
-476,393,-9.90009,-7.25317,0.000361964,0.00313296,-0.00193728,0.0041292,-0.000634276,-1.09582,0.00298676,0.0176797,748,631,-9.90011,7.25316
-469,393,-9.92383,-7.82135,0.000610533,0.00217968,-0.00154805,0.00313062,-0.000340409,-1.01994,0.00220931,0.0134417,755,631,-9.92383,7.82134
-462,393,-9.94659,-8.42017,0.000724411,0.0012927,-0.00109839,0.0021431,-0.000125989,-0.91197,0.00147253,0.0156364,762,631,-9.94661,8.42014
-455,393,-9.95148,-8.94928,0.000551746,0.000171059,-0.000360667,0.000769216,-4.641e-05,-0.542596,0.000528959,0.0150949,769,631,-9.95147,8.94931
-448,393,-9.95856,-9.46716,0.000332881,-0.000911209,0.000429553,0.000466783,-0.00104511,0.302177,0.000893926,0.0147221,776,631,-9.95858,9.46713
-441,393,-9.98322,-9.95886,-0.000174555,-0.00199025,0.00140206,0.000587913,-0.00275271,0.498087,0.00205928,0.0132824,783,631,-9.9832,9.95884
-434,393,-10.0201,-10.4447,-0.00094556,-0.00330445,0.00263811,0.000764753,-0.00501476,0.575187,0.00362508,0.0116435,790,631,-10.0201,10.4447
-427,393,-9.98444,-11.0065,-0.00212125,-0.00500967,0.00429151,0.00096254,-0.00809346,0.623087,0.00574343,0.0211544,797,631,-9.98444,11.0066
-420,393,-10.0291,-11.4858,-0.00396788,-0.00729616,0.00661297,0.00118713,-0.0124512,0.662134,0.00872345,0.0463233,804,631,-10.0291,11.4859
-413,393,-10.0964,-11.9628,0,0,0,0,0,0,0,-1,811,631,-10.0964,11.9627
-406,393,-10.7375,-11.7292,0,0,0,0,0,0,0,-1,818,631,-10.7376,11.7292
-399,393,-5.07343,-5.92365,0,0,0,0,0,0,0,-1,825,631,-5.07344,5.92364
-392,393,-2.08063,-3.02386,0,0,0,0,0,0,0,-1,832,631,-2.08063,3.02384
-385,393,-3.16931,-0.624756,0,0,0,0,0,0,0,-1,839,631,-3.16928,0.624764
-378,393,-7.33081,-0.872314,0,0,0,0,0,0,0,-1,846,631,-7.33081,0.872325
-371,393,-7.47858,-0.811096,0,0,0,0,0,0,0,-1,853,631,-7.47859,0.811075
-364,393,-7.64917,-0.662415,0,0,0,0,0,0,0,-1,860,631,-7.64917,0.662406
-357,393,-8.09686,-0.726013,0,0,0,0,0,0,0,-1,867,631,-8.09689,0.726029
-350,393,-8.38788,-0.511841,0,0,0,0,0,0,0,-1,874,631,-8.38785,0.511811
-343,393,0,0,0,0,0,0,0,0,0,-1,881,631,0,0
-336,393,0,0,0,0,0,0,0,0,0,-1,888,631,0,0
-329,393,0,0,0,0,0,0,0,0,0,-1,895,631,0,0
-322,393,0,0,0,0,0,0,0,0,0,-1,902,631,0,0
-315,393,0,0,0,0,0,0,0,0,0,-1,909,631,0,0
-308,393,0,0,0,0,0,0,0,0,0,-1,916,631,0,0
-301,393,0,0,0,0,0,0,0,0,0,-1,923,631,0,0
-294,393,0,0,0,0,0,0,0,0,0,-1,930,631,0,0
-287,393,0,0,0,0,0,0,0,0,0,-1,937,631,0,0
-280,393,0,0,0,0,0,0,0,0,0,-1,944,631,0,0
-273,393,0,0,0,0,0,0,0,0,0,-1,951,631,0,0
-266,393,0,0,0,0,0,0,0,0,0,-1,958,631,0,0
-259,393,0,0,0,0,0,0,0,0,0,-1,965,631,0,0
-252,393,0,0,0,0,0,0,0,0,0,-1,972,631,0,0
-245,393,0,0,0,0,0,0,0,0,0,-1,979,631,0,0
-238,393,0,0,0,0,0,0,0,0,0,-1,986,631,0,0
-231,393,0,0,0,0,0,0,0,0,0,-1,993,631,0,0
-224,393,0,0,0,0,0,0,0,0,0,-1,1000,631,0,0
-217,393,0,0,0,0,0,0,0,0,0,-1,1007,631,0,0
-210,393,0,0,0,0,0,0,0,0,0,-1,1014,631,0,0
-203,393,0,0,0,0,0,0,0,0,0,-1,1021,631,0,0
-196,393,0,0,0,0,0,0,0,0,0,-1,1028,631,0,0
-189,393,0,0,0,0,0,0,0,0,0,-1,1035,631,0,0
-182,393,0,0,0,0,0,0,0,0,0,-1,1042,631,0,0
-175,393,0,0,0,0,0,0,0,0,0,-1,1049,631,0,0
-168,393,0,0,0,0,0,0,0,0,0,-1,1056,631,0,0
-161,393,0,0,0,0,0,0,0,0,0,-1,1063,631,0,0
-154,393,0,0,0,0,0,0,0,0,0,-1,1070,631,0,0
-147,393,0,0,0,0,0,0,0,0,0,-1,1077,631,0,0
-140,393,0,0,0,0,0,0,0,0,0,-1,1084,631,0,0
-133,393,0,0,0,0,0,0,0,0,0,-1,1091,631,0,0
-126,393,0,0,0,0,0,0,0,0,0,-1,1098,631,0,0
-119,393,0,0,0,0,0,0,0,0,0,-1,1105,631,0,0
-112,393,0,0,0,0,0,0,0,0,0,-1,1112,631,0,0
-105,393,0,0,0,0,0,0,0,0,0,-1,1119,631,0,0
-98,393,0,0,0,0,0,0,0,0,0,-1,1126,631,0,0
-91,393,0,0,0,0,0,0,0,0,0,-1,1133,631,0,0
-84,393,0,0,0,0,0,0,0,0,0,-1,1140,631,0,0
-77,393,0,0,0,0,0,0,0,0,0,-1,1147,631,0,0
-70,393,0,0,0,0,0,0,0,0,0,-1,1154,631,0,0
-63,393,0,0,0,0,0,0,0,0,0,-1,1161,631,0,0
-56,393,0,0,0,0,0,0,0,0,0,-1,1168,631,0,0
-49,393,0,0,0,0,0,0,0,0,0,-1,1175,631,0,0
-42,393,0,0,0,0,0,0,0,0,0,-1,1182,631,0,0
-35,393,0,0,0,0,0,0,0,0,0,-1,1189,631,0,0
-28,393,0,0,0,0,0,0,0,0,0,-1,1196,631,0,0
-21,393,0,0,0,0,0,0,0,0,0,-1,1203,631,0,0
-14,393,0,0,0,0,0,0,0,0,0,-1,1210,631,0,0
-7,393,0,0,0,0,0,0,0,0,0,-1,1217,631,0,0
0,393,0,0,0,0,0,0,0,0,0,-1,1224,631,0,0
7,393,0,0,0,0,0,0,0,0,0,-1,1231,631,0,0
14,393,0,0,0,0,0,0,0,0,0,-1,1238,631,0,0
21,393,0,0,0,0,0,0,0,0,0,-1,1245,631,0,0
28,393,0,0,0,0,0,0,0,0,0,-1,1252,631,0,0
35,393,0,0,0,0,0,0,0,0,0,-1,1259,631,0,0
42,393,0,0,0,0,0,0,0,0,0,-1,1266,631,0,0
49,393,0,0,0,0,0,0,0,0,0,-1,1273,631,0,0
56,393,0,0,0,0,0,0,0,0,0,-1,1280,631,0,0
63,393,0,0,0,0,0,0,0,0,0,-1,1287,631,0,0
70,393,0,0,0,0,0,0,0,0,0,-1,1294,631,0,0
77,393,0,0,0,0,0,0,0,0,0,-1,1301,631,0,0
84,393,0,0,0,0,0,0,0,0,0,-1,1308,631,0,0
91,393,0,0,0,0,0,0,0,0,0,-1,1315,631,0,0
98,393,0,0,0,0,0,0,0,0,0,-1,1322,631,0,0
105,393,0,0,0,0,0,0,0,0,0,-1,1329,631,0,0
112,393,0,0,0,0,0,0,0,0,0,-1,1336,631,0,0
119,393,0,0,0,0,0,0,0,0,0,-1,1343,631,0,0
126,393,0,0,0,0,0,0,0,0,0,-1,1350,631,0,0
133,393,0,0,0,0,0,0,0,0,0,-1,1357,631,0,0
140,393,0,0,0,0,0,0,0,0,0,-1,1364,631,0,0
147,393,0,0,0,0,0,0,0,0,0,-1,1371,631,0,0
154,393,0,0,0,0,0,0,0,0,0,-1,1378,631,0,0
161,393,0,0,0,0,0,0,0,0,0,-1,1385,631,0,0
168,393,0,0,0,0,0,0,0,0,0,-1,1392,631,0,0
175,393,0,0,0,0,0,0,0,0,0,-1,1399,631,0,0
182,393,0,0,0,0,0,0,0,0,0,-1,1406,631,0,0
189,393,0,0,0,0,0,0,0,0,0,-1,1413,631,0,0
196,393,0,0,0,0,0,0,0,0,0,-1,1420,631,0,0
203,393,0,0,0,0,0,0,0,0,0,-1,1427,631,0,0
210,393,0,0,0,0,0,0,0,0,0,-1,1434,631,0,0
217,393,0,0,0,0,0,0,0,0,0,-1,1441,631,0,0
224,393,0,0,0,0,0,0,0,0,0,-1,1448,631,0,0
231,393,0,0,0,0,0,0,0,0,0,-1,1455,631,0,0
238,393,0,0,0,0,0,0,0,0,0,-1,1462,631,0,0
245,393,0,0,0,0,0,0,0,0,0,-1,1469,631,0,0
252,393,0,0,0,0,0,0,0,0,0,-1,1476,631,0,0
259,393,0,0,0,0,0,0,0,0,0,-1,1483,631,0,0
266,393,0,0,0,0,0,0,0,0,0,-1,1490,631,0,0
273,393,0,0,0,0,0,0,0,0,0,-1,1497,631,0,0
280,393,0,0,0,0,0,0,0,0,0,-1,1504,631,0,0
287,393,0,0,0,0,0,0,0,0,0,-1,1511,631,0,0
294,393,0,0,0,0,0,0,0,0,0,-1,1518,631,0,0
301,393,0,0,0,0,0,0,0,0,0,-1,1525,631,0,0
308,393,0,0,0,0,0,0,0,0,0,-1,1532,631,0,0
315,393,0,0,0,0,0,0,0,0,0,-1,1539,631,0,0
322,393,0,0,0,0,0,0,0,0,0,-1,1546,631,0,0
329,393,0,0,0,0,0,0,0,0,0,-1,1553,631,0,0
336,393,0,0,0,0,0,0,0,0,0,-1,1560,631,0,0
343,393,0,0,0,0,0,0,0,0,0,-1,1567,631,0,0
350,393,0,0,0,0,0,0,0,0,0,-1,1574,631,0,0
357,393,0,0,0,0,0,0,0,0,0,-1,1581,631,0,0
364,393,0,0,0,0,0,0,0,0,0,-1,1588,631,0,0
371,393,0,0,0,0,0,0,0,0,0,-1,1595,631,0,0
378,393,0,0,0,0,0,0,0,0,0,-1,1602,631,0,0
385,393,0,0,0,0,0,0,0,0,0,-1,1609,631,0,0
392,393,0,0,0,0,0,0,0,0,0,-1,1616,631,0,0
399,393,0,0,0,0,0,0,0,0,0,-1,1623,631,0,0
406,393,0,0,0,0,0,0,0,0,0,-1,1630,631,0,0
413,393,0,0,0,0,0,0,0,0,0,-1,1637,631,0,0
420,393,0,0,0,0,0,0,0,0,0,-1,1644,631,0,0
427,393,0,0,0,0,0,0,0,0,0,-1,1651,631,0,0
434,393,0,0,0,0,0,0,0,0,0,-1,1658,631,0,0
441,393,0,0,0,0,0,0,0,0,0,-1,1665,631,0,0
448,393,0,0,0,0,0,0,0,0,0,-1,1672,631,0,0
455,393,0,0,0,0,0,0,0,0,0,-1,1679,631,0,0
462,393,8.51099,1.89502,0,0,0,0,0,0,0,-1,1686,631,8.51103,-1.89504
469,393,9.39465,1.51703,0,0,0,0,0,0,0,-1,1693,631,9.39465,-1.51703
476,393,9.95569,1.185,0,0,0,0,0,0,0,-1,1700,631,9.95575,-1.18497
483,393,10.5267,0.887329,0,0,0,0,0,0,0,-1,1707,631,10.5267,-0.887321
490,393,10.9303,0.761414,0,0,0,0,0,0,0,-1,1714,631,10.9303,-0.761386
497,393,8.32153,1.88104,0,0,0,0,0,0,0,-1,1721,631,8.32148,-1.88103
504,393,9.46985,1.78711,0,0,0,0,0,0,0,-1,1728,631,9.46986,-1.78713
511,393,9.66565,-0.375977,0,0,0,0,0,0,0,-1,1735,631,9.66571,0.375949
518,393,7.01599,1.62482,0,0,0,0,0,0,0,-1,1742,631,7.01597,-1.62483
525,393,7.88245,-1.13422,0,0,0,0,0,0,0,-1,1749,631,7.88246,1.13423
532,393,7.06335,-1.18103,0,0,0,0,0,0,0,-1,1756,631,7.06332,1.18101
539,393,9.91626,-2.46301,0,0,0,0,0,0,0,-1,1763,631,9.91625,2.46302
546,393,16.4094,-8.04651,0,0,0,0,0,0,0,-1,1770,631,16.4094,8.04649
553,393,19.5748,-9.7558,0,0,0,0,0,0,0,-1,1777,631,19.5748,9.75582
560,393,19.7288,-9.02625,0.00620884,0.00109531,0.00184613,0.00680568,0.000498463,0.312689,0.00438043,0.0334574,1784,631,19.7287,9.02624
567,393,19.7391,-8.42029,0.00465572,0.000684772,0.00122546,0.00500345,0.000337037,0.276491,0.00322916,0.0153107,1791,631,19.7391,8.42028
574,393,19.7418,-7.88422,0.00341434,0.000624498,0.000904473,0.00368191,0.000356928,0.287627,0.0023447,0.0163881,1798,631,19.7419,7.88422
581,393,19.672,-7.31787,0.00236406,0.000805719,0.000778047,0.00268601,0.00048377,0.392339,0.00165318,0.015982,1805,631,19.672,7.31786
588,393,19.6422,-6.72681,0.00150736,0.00118592,0.000803707,0.00216626,0.00052702,0.686714,0.00130448,0.0176723,1812,631,19.6422,6.72679
595,393,19.6466,-6.19366,0.000985753,0.00171746,0.00102269,0.00243776,0.000265448,0.957173,0.00154431,0.0156696,1819,631,19.6466,6.19367
602,393,19.6317,-5.64856,0.000797816,0.00249687,0.00149071,0.00336313,-6.84407e-05,1.04439,0.00226524,0.0173595,1826,631,19.6317,5.64853
609,393,19.5951,-5.06812,0.000748914,0.00343443,0.00207098,0.00455985,-0.000376515,1.07301,0.00317286,0.0159416,1833,631,19.5951,5.0681
616,393,19.5768,-4.51587,0.000764126,0.00436758,0.00257356,0.00570741,-0.00057571,1.09079,0.00401064,0.0160562,1840,631,19.5767,4.51586
623,393,19.6016,-3.86615,0.00133996,0.00529864,0.00328262,0.00715249,-0.000513893,1.0567,0.00494853,0.0312377,1847,631,19.6016,3.86616
630,393,19.6476,-3.08301,0,0,0,0,0,0,0,-1,1854,631,19.6475,3.08298
637,393,11.4626,0.608887,0,0,0,0,0,0,0,-1,1861,631,11.4627,-0.608904
644,393,8.97583,1.30585,0,0,0,0,0,0,0,-1,1868,631,8.97586,-1.30584
651,393,11.348,0.53302,0,0,0,0,0,0,0,-1,1875,631,11.348,-0.53305
658,393,9.21338,1.50836,0,0,0,0,0,0,0,-1,1882,631,9.21338,-1.50834
665,393,6.1001,2.32129,0,0,0,0,0,0,0,-1,1889,631,6.10012,-2.3213
672,393,7.14575,2.43225,0,0,0,0,0,0,0,-1,1896,631,7.14572,-2.43222
679,393,0,0,0,0,0,0,0,0,0,-1,1903,631,0,0
686,393,0,0,0,0,0,0,0,0,0,-1,1910,631,0,0
693,393,0,0,0,0,0,0,0,0,0,-1,1917,631,0,0
700,393,0,0,0,0,0,0,0,0,0,-1,1924,631,0,0
707,393,0,0,0,0,0,0,0,0,0,-1,1931,631,0,0
714,393,0,0,0,0,0,0,0,0,0,-1,1938,631,0,0
721,393,0,0,0,0,0,0,0,0,0,-1,1945,631,0,0
728,393,0,0,0,0,0,0,0,0,0,-1,1952,631,0,0
735,393,0,0,0,0,0,0,0,0,0,-1,1959,631,0,0
742,393,0,0,0,0,0,0,0,0,0,-1,1966,631,0,0
749,393,0,0,0,0,0,0,0,0,0,-1,1973,631,0,0
756,393,0,0,0,0,0,0,0,0,0,-1,1980,631,0,0
763,393,0,0,0,0,0,0,0,0,0,-1,1987,631,0,0
770,393,0,0,0,0,0,0,0,0,0,-1,1994,631,0,0
777,393,0,0,0,0,0,0,0,0,0,-1,2001,631,0,0
784,393,0,0,0,0,0,0,0,0,0,-1,2008,631,0,0
791,393,0,0,0,0,0,0,0,0,0,-1,2015,631,0,0
798,393,0,0,0,0,0,0,0,0,0,-1,2022,631,0,0
805,393,0,0,0,0,0,0,0,0,0,-1,2029,631,0,0
812,393,0,0,0,0,0,0,0,0,0,-1,2036,631,0,0
-700,386,0,0,0,0,0,0,0,0,0,-1,524,638,0,0
-693,386,0,0,0,0,0,0,0,0,0,-1,531,638,0,0
-686,386,0,0,0,0,0,0,0,0,0,-1,538,638,0,0
-679,386,0,0,0,0,0,0,0,0,0,-1,545,638,0,0
-672,386,0,0,0,0,0,0,0,0,0,-1,552,638,0,0
-665,386,0,0,0,0,0,0,0,0,0,-1,559,638,0,0
-658,386,0,0,0,0,0,0,0,0,0,-1,566,638,0,0
-651,386,0,0,0,0,0,0,0,0,0,-1,573,638,0,0
-644,386,0,0,0,0,0,0,0,0,0,-1,580,638,0,0
-637,386,0,0,0,0,0,0,0,0,0,-1,587,638,0,0
-630,386,0,0,0,0,0,0,0,0,0,-1,594,638,0,0
-623,386,0,0,0,0,0,0,0,0,0,-1,601,638,0,0
-616,386,0,0,0,0,0,0,0,0,0,-1,608,638,0,0
-609,386,0,0,0,0,0,0,0,0,0,-1,615,638,0,0
-602,386,0,0,0,0,0,0,0,0,0,-1,622,638,0,0
-595,386,0,0,0,0,0,0,0,0,0,-1,629,638,0,0
-588,386,0,0,0,0,0,0,0,0,0,-1,636,638,0,0
-581,386,0,0,0,0,0,0,0,0,0,-1,643,638,0,0
-574,386,0,0,0,0,0,0,0,0,0,-1,650,638,0,0
-567,386,0,0,0,0,0,0,0,0,0,-1,657,638,0,0
-560,386,-3.97229,-5.13898,0,0,0,0,0,0,0,-1,664,638,-3.97232,5.13897
-553,386,-4.94244,-5.54309,0,0,0,0,0,0,0,-1,671,638,-4.94242,5.5431
-546,386,-1.78668,1.72827,0,0,0,0,0,0,0,-1,678,638,-1.78668,-1.72829
-539,386,-0.879456,-2.90009,0,0,0,0,0,0,0,-1,685,638,-0.879442,2.90008
-532,386,-5.4884,1.73328,0,0,0,0,0,0,0,-1,692,638,-5.4884,-1.73325
-525,386,-6.64148,-1.50604,0,0,0,0,0,0,0,-1,699,638,-6.64149,1.50603
-518,386,-7.68927,-2.40173,0,0,0,0,0,0,0,-1,706,638,-7.68929,2.4017
-511,386,-10.3862,-3.69092,0,0,0,0,0,0,0,-1,713,638,-10.3861,3.6909
-504,386,-10.3704,-4.84491,0.00057812,0.00877943,-0.00463704,0.0108689,-0.00151134,-1.14744,0.00779867,0.0368492,720,638,-10.3704,4.84491
-497,386,-10.46,-5.63635,0.000350742,0.00656711,-0.0034652,0.00811386,-0.00119601,-1.15097,0.00584882,0.0176878,727,638,-10.4599,5.63636
-490,386,-10.4136,-6.24097,0.000209385,0.00462506,-0.00246425,0.00572585,-0.000891411,-1.15068,0.00414644,0.0134222,734,638,-10.4135,6.24098
-483,386,-10.4092,-6.79022,0.000314066,0.00342,-0.00194659,0.0043572,-0.00062313,-1.12209,0.00313323,0.0182039,741,638,-10.4092,6.79022
-476,386,-10.4252,-7.29388,0.000595713,0.00248436,-0.00163933,0.0034319,-0.000351831,-1.04671,0.00241377,0.0168313,748,638,-10.4252,7.29386
-469,386,-10.4529,-7.81989,0.000858989,0.00173928,-0.00136679,0.00273505,-0.000136778,-0.941169,0.00187063,0.0124816,755,638,-10.4529,7.8199
-462,386,-10.4716,-8.39227,0.000963137,0.00100478,-0.000994985,0.00197916,-1.12441e-05,-0.79586,0.00132321,0.0115531,762,638,-10.4716,8.39224
-455,386,-10.486,-8.90363,0.000765378,-6.29047e-05,-0.000270291,0.000845777,-0.000143304,-0.28912,0.00061719,0.0127872,769,638,-10.486,8.90365
-448,386,-10.4885,-9.42108,0.00054254,-0.00101576,0.000469368,0.000672995,-0.00114621,0.271095,0.0010621,0.0131909,776,638,-10.4885,9.42109
-441,386,-10.522,-9.9325,5.06615e-05,-0.00200572,0.00140717,0.000765258,-0.00272031,0.469888,0.00211529,0.0138497,783,638,-10.5221,9.9325
-434,386,-10.4962,-10.4929,-0.000744542,-0.0034148,0.00270186,0.000934065,-0.00509341,0.555919,0.00374598,0.0370678,790,638,-10.4962,10.4929
-427,386,-10.3795,-11.17,0,0,0,0,0,0,0,-1,797,638,-10.3795,11.17
-420,386,-10.5884,-11.5256,0,0,0,0,0,0,0,-1,804,638,-10.5884,11.5256
-413,386,-5.45691,-5.35785,0,0,0,0,0,0,0,-1,811,638,-5.45691,5.35783
-406,386,-4.51135,-4.10999,0,0,0,0,0,0,0,-1,818,638,-4.51135,4.10996
-399,386,-3.57117,-3.42126,0,0,0,0,0,0,0,-1,825,638,-3.57116,3.42129
-392,386,-4.00977,0.403625,0,0,0,0,0,0,0,-1,832,638,-4.0098,-0.403616
-385,386,-3.2406,-0.118469,0,0,0,0,0,0,0,-1,839,638,-3.24058,0.118485
-378,386,-2.55243,-1.22748,0,0,0,0,0,0,0,-1,846,638,-2.55243,1.22748
-371,386,-7.95807,-0.330261,0,0,0,0,0,0,0,-1,853,638,-7.95806,0.330284
-364,386,-8.90637,-0.665955,0,0,0,0,0,0,0,-1,860,638,-8.90635,0.665951
-357,386,-9.10364,-0.388733,0,0,0,0,0,0,0,-1,867,638,-9.10364,0.388744
-350,386,0,0,0,0,0,0,0,0,0,-1,874,638,0,0
-343,386,0,0,0,0,0,0,0,0,0,-1,881,638,0,0
-336,386,0,0,0,0,0,0,0,0,0,-1,888,638,0,0
-329,386,0,0,0,0,0,0,0,0,0,-1,895,638,0,0
-322,386,0,0,0,0,0,0,0,0,0,-1,902,638,0,0
-315,386,0,0,0,0,0,0,0,0,0,-1,909,638,0,0
-308,386,0,0,0,0,0,0,0,0,0,-1,916,638,0,0
-301,386,0,0,0,0,0,0,0,0,0,-1,923,638,0,0
-294,386,0,0,0,0,0,0,0,0,0,-1,930,638,0,0
-287,386,0,0,0,0,0,0,0,0,0,-1,937,638,0,0
-280,386,0,0,0,0,0,0,0,0,0,-1,944,638,0,0
-273,386,0,0,0,0,0,0,0,0,0,-1,951,638,0,0
-266,386,0,0,0,0,0,0,0,0,0,-1,958,638,0,0
-259,386,0,0,0,0,0,0,0,0,0,-1,965,638,0,0
-252,386,0,0,0,0,0,0,0,0,0,-1,972,638,0,0
-245,386,0,0,0,0,0,0,0,0,0,-1,979,638,0,0
-238,386,0,0,0,0,0,0,0,0,0,-1,986,638,0,0
-231,386,0,0,0,0,0,0,0,0,0,-1,993,638,0,0
-224,386,0,0,0,0,0,0,0,0,0,-1,1000,638,0,0
-217,386,0,0,0,0,0,0,0,0,0,-1,1007,638,0,0
-210,386,0,0,0,0,0,0,0,0,0,-1,1014,638,0,0
-203,386,0,0,0,0,0,0,0,0,0,-1,1021,638,0,0
-196,386,0,0,0,0,0,0,0,0,0,-1,1028,638,0,0
-189,386,0,0,0,0,0,0,0,0,0,-1,1035,638,0,0
-182,386,0,0,0,0,0,0,0,0,0,-1,1042,638,0,0
-175,386,0,0,0,0,0,0,0,0,0,-1,1049,638,0,0
-168,386,0,0,0,0,0,0,0,0,0,-1,1056,638,0,0
-161,386,0,0,0,0,0,0,0,0,0,-1,1063,638,0,0
-154,386,0,0,0,0,0,0,0,0,0,-1,1070,638,0,0
-147,386,0,0,0,0,0,0,0,0,0,-1,1077,638,0,0
-140,386,0,0,0,0,0,0,0,0,0,-1,1084,638,0,0
-133,386,0,0,0,0,0,0,0,0,0,-1,1091,638,0,0
-126,386,0,0,0,0,0,0,0,0,0,-1,1098,638,0,0
-119,386,0,0,0,0,0,0,0,0,0,-1,1105,638,0,0
-112,386,0,0,0,0,0,0,0,0,0,-1,1112,638,0,0
-105,386,0,0,0,0,0,0,0,0,0,-1,1119,638,0,0
-98,386,0,0,0,0,0,0,0,0,0,-1,1126,638,0,0
-91,386,0,0,0,0,0,0,0,0,0,-1,1133,638,0,0
-84,386,0,0,0,0,0,0,0,0,0,-1,1140,638,0,0
-77,386,0,0,0,0,0,0,0,0,0,-1,1147,638,0,0
-70,386,0,0,0,0,0,0,0,0,0,-1,1154,638,0,0
-63,386,0,0,0,0,0,0,0,0,0,-1,1161,638,0,0
-56,386,0,0,0,0,0,0,0,0,0,-1,1168,638,0,0
-49,386,0,0,0,0,0,0,0,0,0,-1,1175,638,0,0
-42,386,0,0,0,0,0,0,0,0,0,-1,1182,638,0,0
-35,386,0,0,0,0,0,0,0,0,0,-1,1189,638,0,0
-28,386,0,0,0,0,0,0,0,0,0,-1,1196,638,0,0
-21,386,0,0,0,0,0,0,0,0,0,-1,1203,638,0,0
-14,386,0,0,0,0,0,0,0,0,0,-1,1210,638,0,0
-7,386,0,0,0,0,0,0,0,0,0,-1,1217,638,0,0
0,386,0,0,0,0,0,0,0,0,0,-1,1224,638,0,0
7,386,0,0,0,0,0,0,0,0,0,-1,1231,638,0,0
14,386,0,0,0,0,0,0,0,0,0,-1,1238,638,0,0
21,386,0,0,0,0,0,0,0,0,0,-1,1245,638,0,0
28,386,0,0,0,0,0,0,0,0,0,-1,1252,638,0,0
35,386,0,0,0,0,0,0,0,0,0,-1,1259,638,0,0
42,386,0,0,0,0,0,0,0,0,0,-1,1266,638,0,0
49,386,0,0,0,0,0,0,0,0,0,-1,1273,638,0,0
56,386,0,0,0,0,0,0,0,0,0,-1,1280,638,0,0
63,386,0,0,0,0,0,0,0,0,0,-1,1287,638,0,0
70,386,0,0,0,0,0,0,0,0,0,-1,1294,638,0,0
77,386,0,0,0,0,0,0,0,0,0,-1,1301,638,0,0
84,386,0,0,0,0,0,0,0,0,0,-1,1308,638,0,0
91,386,0,0,0,0,0,0,0,0,0,-1,1315,638,0,0
98,386,0,0,0,0,0,0,0,0,0,-1,1322,638,0,0
105,386,0,0,0,0,0,0,0,0,0,-1,1329,638,0,0
112,386,0,0,0,0,0,0,0,0,0,-1,1336,638,0,0
119,386,0,0,0,0,0,0,0,0,0,-1,1343,638,0,0
126,386,0,0,0,0,0,0,0,0,0,-1,1350,638,0,0
133,386,0,0,0,0,0,0,0,0,0,-1,1357,638,0,0
140,386,0,0,0,0,0,0,0,0,0,-1,1364,638,0,0
147,386,0,0,0,0,0,0,0,0,0,-1,1371,638,0,0
154,386,0,0,0,0,0,0,0,0,0,-1,1378,638,0,0
161,386,0,0,0,0,0,0,0,0,0,-1,1385,638,0,0
168,386,0,0,0,0,0,0,0,0,0,-1,1392,638,0,0
175,386,0,0,0,0,0,0,0,0,0,-1,1399,638,0,0
182,386,0,0,0,0,0,0,0,0,0,-1,1406,638,0,0
189,386,0,0,0,0,0,0,0,0,0,-1,1413,638,0,0
196,386,0,0,0,0,0,0,0,0,0,-1,1420,638,0,0
203,386,0,0,0,0,0,0,0,0,0,-1,1427,638,0,0
210,386,0,0,0,0,0,0,0,0,0,-1,1434,638,0,0
217,386,0,0,0,0,0,0,0,0,0,-1,1441,638,0,0
224,386,0,0,0,0,0,0,0,0,0,-1,1448,638,0,0
231,386,0,0,0,0,0,0,0,0,0,-1,1455,638,0,0
238,386,0,0,0,0,0,0,0,0,0,-1,1462,638,0,0
245,386,0,0,0,0,0,0,0,0,0,-1,1469,638,0,0
252,386,0,0,0,0,0,0,0,0,0,-1,1476,638,0,0
259,386,0,0,0,0,0,0,0,0,0,-1,1483,638,0,0
266,386,0,0,0,0,0,0,0,0,0,-1,1490,638,0,0
273,386,0,0,0,0,0,0,0,0,0,-1,1497,638,0,0
280,386,0,0,0,0,0,0,0,0,0,-1,1504,638,0,0
287,386,0,0,0,0,0,0,0,0,0,-1,1511,638,0,0
294,386,0,0,0,0,0,0,0,0,0,-1,1518,638,0,0
301,386,0,0,0,0,0,0,0,0,0,-1,1525,638,0,0
308,386,0,0,0,0,0,0,0,0,0,-1,1532,638,0,0
315,386,0,0,0,0,0,0,0,0,0,-1,1539,638,0,0
322,386,0,0,0,0,0,0,0,0,0,-1,1546,638,0,0
329,386,0,0,0,0,0,0,0,0,0,-1,1553,638,0,0
336,386,0,0,0,0,0,0,0,0,0,-1,1560,638,0,0
343,386,0,0,0,0,0,0,0,0,0,-1,1567,638,0,0
350,386,0,0,0,0,0,0,0,0,0,-1,1574,638,0,0
357,386,0,0,0,0,0,0,0,0,0,-1,1581,638,0,0
364,386,0,0,0,0,0,0,0,0,0,-1,1588,638,0,0
371,386,0,0,0,0,0,0,0,0,0,-1,1595,638,0,0
378,386,0,0,0,0,0,0,0,0,0,-1,1602,638,0,0
385,386,0,0,0,0,0,0,0,0,0,-1,1609,638,0,0
392,386,0,0,0,0,0,0,0,0,0,-1,1616,638,0,0
399,386,0,0,0,0,0,0,0,0,0,-1,1623,638,0,0
406,386,0,0,0,0,0,0,0,0,0,-1,1630,638,0,0
413,386,0,0,0,0,0,0,0,0,0,-1,1637,638,0,0
420,386,0,0,0,0,0,0,0,0,0,-1,1644,638,0,0
427,386,0,0,0,0,0,0,0,0,0,-1,1651,638,0,0
434,386,0,0,0,0,0,0,0,0,0,-1,1658,638,0,0
441,386,0,0,0,0,0,0,0,0,0,-1,1665,638,0,0
448,386,0,0,0,0,0,0,0,0,0,-1,1672,638,0,0
455,386,0,0,0,0,0,0,0,0,0,-1,1679,638,0,0
462,386,0,0,0,0,0,0,0,0,0,-1,1686,638,0,0
469,386,9.84692,1.55804,0,0,0,0,0,0,0,-1,1693,638,9.84691,-1.55807
476,386,10.6145,0.986511,0,0,0,0,0,0,0,-1,1700,638,10.6145,-0.986529
483,386,11.4113,0.732971,0,0,0,0,0,0,0,-1,1707,638,11.4112,-0.732958
490,386,7.79785,1.79572,0,0,0,0,0,0,0,-1,1714,638,7.79788,-1.7957
497,386,8.96362,1.77081,0,0,0,0,0,0,0,-1,1721,638,8.96357,-1.77081
504,386,10.0555,1.69427,0,0,0,0,0,0,0,-1,1728,638,10.0555,-1.69426
511,386,11.2172,1.534,0,0,0,0,0,0,0,-1,1735,638,11.2172,-1.53398
518,386,7.41553,1.75238,0,0,0,0,0,0,0,-1,1742,638,7.41547,-1.75238
525,386,8.82422,-1.1449,0,0,0,0,0,0,0,-1,1749,638,8.82426,1.14492
532,386,10.6432,0.617371,0,0,0,0,0,0,0,-1,1756,638,10.6432,-0.617359
539,386,9.62061,-0.393616,0,0,0,0,0,0,0,-1,1763,638,9.62059,0.393634
546,386,10.7963,-2.854,0,0,0,0,0,0,0,-1,1770,638,10.7962,2.854
553,386,16.9939,-7.27942,0,0,0,0,0,0,0,-1,1777,638,16.9939,7.27944
560,386,20.05,-8.98175,0,0,0,0,0,0,0,-1,1784,638,20.05,8.98173
567,386,20.1987,-8.36017,0.00559322,0.000559358,0.00127349,0.00589706,0.000255524,0.234206,0.00384902,0.0266743,1791,638,20.1987,8.36015
574,386,20.271,-7.81775,0.00410266,0.000437872,0.000850278,0.00429032,0.000250206,0.217228,0.00278057,0.0150368,1798,638,20.271,7.81772
581,386,20.2091,-7.3006,0.00287954,0.000568361,0.000644016,0.00304688,0.000401021,0.254217,0.00191165,0.0142578,1805,638,20.2091,7.30059
588,386,20.2076,-6.73035,0.00193173,0.000872851,0.000620645,0.00221807,0.000586504,0.432268,0.00132714,0.0133382,1812,638,20.2077,6.73035
595,386,20.1996,-6.17493,0.00136516,0.0013256,0.000790388,0.00213602,0.000554747,0.772887,0.00127982,0.0147396,1819,638,20.1996,6.17495
602,386,20.1671,-5.63269,0.00116819,0.00200778,0.0012104,0.00286912,0.000306855,0.952319,0.00181911,0.0157062,1826,638,20.1671,5.63269
609,386,20.1624,-5.07898,0.00109748,0.00282151,0.00171631,0.00388012,3.8871e-05,1.01812,0.00257389,0.0155758,1833,638,20.1623,5.07896
616,386,20.1503,-4.50958,0.00104986,0.00356487,0.00208866,0.00474536,-0.000130631,1.05637,0.00320801,0.0129527,1840,638,20.1503,4.50958
623,386,20.1163,-3.94495,0.00143233,0.00429104,0.00256887,0.00580144,-7.80711e-05,1.03928,0.00389391,0.0110176,1847,638,20.1164,3.94493
630,386,20.191,-3.32068,0.00173086,0.00495457,0.00287175,0.00663589,4.95354e-05,1.04113,0.00440751,0.0356577,1854,638,20.191,3.32065
637,386,20.3315,-2.67438,0,0,0,0,0,0,0,-1,1861,638,20.3315,2.67441
644,386,11.6521,0.723328,0,0,0,0,0,0,0,-1,1868,638,11.6521,-0.723355
651,386,9.3866,1.31097,0,0,0,0,0,0,0,-1,1875,638,9.3866,-1.31095
658,386,12.0731,-0.00415039,0,0,0,0,0,0,0,-1,1882,638,12.0731,0.00412803
665,386,6.33167,1.78601,0,0,0,0,0,0,0,-1,1889,638,6.33171,-1.78601
672,386,7.23352,2.14435,0,0,0,0,0,0,0,-1,1896,638,7.23353,-2.14433
679,386,8.07764,2.57104,0,0,0,0,0,0,0,-1,1903,638,8.07758,-2.57103
686,386,0,0,0,0,0,0,0,0,0,-1,1910,638,0,0
693,386,0,0,0,0,0,0,0,0,0,-1,1917,638,0,0
700,386,0,0,0,0,0,0,0,0,0,-1,1924,638,0,0
707,386,0,0,0,0,0,0,0,0,0,-1,1931,638,0,0
714,386,0,0,0,0,0,0,0,0,0,-1,1938,638,0,0
721,386,0,0,0,0,0,0,0,0,0,-1,1945,638,0,0
728,386,0,0,0,0,0,0,0,0,0,-1,1952,638,0,0
735,386,0,0,0,0,0,0,0,0,0,-1,1959,638,0,0
742,386,0,0,0,0,0,0,0,0,0,-1,1966,638,0,0
749,386,0,0,0,0,0,0,0,0,0,-1,1973,638,0,0
756,386,0,0,0,0,0,0,0,0,0,-1,1980,638,0,0
763,386,0,0,0,0,0,0,0,0,0,-1,1987,638,0,0
770,386,0,0,0,0,0,0,0,0,0,-1,1994,638,0,0
777,386,0,0,0,0,0,0,0,0,0,-1,2001,638,0,0
784,386,0,0,0,0,0,0,0,0,0,-1,2008,638,0,0
791,386,0,0,0,0,0,0,0,0,0,-1,2015,638,0,0
798,386,0,0,0,0,0,0,0,0,0,-1,2022,638,0,0
805,386,0,0,0,0,0,0,0,0,0,-1,2029,638,0,0
812,386,0,0,0,0,0,0,0,0,0,-1,2036,638,0,0
-700,379,0,0,0,0,0,0,0,0,0,-1,524,645,0,0
-693,379,0,0,0,0,0,0,0,0,0,-1,531,645,0,0
-686,379,0,0,0,0,0,0,0,0,0,-1,538,645,0,0
-679,379,0,0,0,0,0,0,0,0,0,-1,545,645,0,0
-672,379,0,0,0,0,0,0,0,0,0,-1,552,645,0,0
-665,379,0,0,0,0,0,0,0,0,0,-1,559,645,0,0
-658,379,0,0,0,0,0,0,0,0,0,-1,566,645,0,0
-651,379,0,0,0,0,0,0,0,0,0,-1,573,645,0,0
-644,379,0,0,0,0,0,0,0,0,0,-1,580,645,0,0
-637,379,0,0,0,0,0,0,0,0,0,-1,587,645,0,0
-630,379,0,0,0,0,0,0,0,0,0,-1,594,645,0,0
-623,379,0,0,0,0,0,0,0,0,0,-1,601,645,0,0
-616,379,0,0,0,0,0,0,0,0,0,-1,608,645,0,0
-609,379,0,0,0,0,0,0,0,0,0,-1,615,645,0,0
-602,379,0,0,0,0,0,0,0,0,0,-1,622,645,0,0
-595,379,0,0,0,0,0,0,0,0,0,-1,629,645,0,0
-588,379,0,0,0,0,0,0,0,0,0,-1,636,645,0,0
-581,379,0,0,0,0,0,0,0,0,0,-1,643,645,0,0
-574,379,0,0,0,0,0,0,0,0,0,-1,650,645,0,0
-567,379,-8.78058,0.59668,0,0,0,0,0,0,0,-1,657,645,-8.7806,-0.596692
-560,379,-9.53485,-0.211304,0,0,0,0,0,0,0,-1,664,645,-9.53487,0.211282
-553,379,-5.17108,-4.53119,0,0,0,0,0,0,0,-1,671,645,-5.17106,4.53117
-546,379,-6.23053,-4.92102,0,0,0,0,0,0,0,-1,678,645,-6.23054,4.92105
-539,379,-0.71698,-2.19427,0,0,0,0,0,0,0,-1,685,645,-0.716959,2.19427
-532,379,-7.69611,0.217224,0,0,0,0,0,0,0,-1,692,645,-7.69614,-0.217204
-525,379,-7.09833,-1.13043,0,0,0,0,0,0,0,-1,699,645,-7.0983,1.13041
-518,379,-10.5613,-3.82849,0,0,0,0,0,0,0,-1,706,645,-10.5613,3.82849
-511,379,-10.8525,-4.55884,0,0,0,0,0,0,0,-1,713,645,-10.8525,4.55885
-504,379,-10.853,-5.16656,0.000661646,0.00746688,-0.00388411,0.009228,-0.00109947,-1.14511,0.00654932,0.0262252,720,645,-10.853,5.16654
-497,379,-10.939,-5.65424,0.000525116,0.00537582,-0.00279079,0.00664788,-0.000746942,-1.14312,0.00470072,0.013881,727,645,-10.939,5.65426
-490,379,-10.9333,-6.21796,0.000386494,0.00343283,-0.00179655,0.004265,-0.000445678,-1.13701,0.00300294,0.0120371,734,645,-10.9333,6.21795
-483,379,-10.9422,-6.76587,0.00055327,0.00251096,-0.00142575,0.00326154,-0.00019731,-1.08622,0.00224303,0.0143548,741,645,-10.9422,6.76586
-476,379,-10.9483,-7.26208,0.000890476,0.00183515,-0.00128208,0.00272914,-3.50608e-06,-0.961891,0.00182059,0.0140765,748,645,-10.9483,7.26206
-469,379,-10.9871,-7.78198,0.00116923,0.00130782,-0.00114807,0.00238868,8.83646e-05,-0.81554,0.00156383,0.0127547,755,645,-10.987,7.78201
-462,379,-11.015,-8.32275,0.0012812,0.000769418,-0.000908823,0.00196947,8.1147e-05,-0.64817,0.00128678,0.010013,762,645,-11.015,8.32277
-455,379,-11.0266,-8.84027,0.00107775,-0.000167199,-0.000281645,0.0011385,-0.000227951,-0.212449,0.000845295,0.00979498,769,645,-11.0266,8.84026
-448,379,-11.0292,-9.35352,0.000841672,-0.000881735,0.000311748,0.000896331,-0.000936394,0.173566,0.00105821,0.0119342,776,645,-11.0292,9.35353
-441,379,-11.0429,-9.94073,0.000360402,-0.00167474,0.00110392,0.000844196,-0.00215854,0.413039,0.00178813,0.0235089,783,645,-11.0429,9.94072
-434,379,-10.8833,-10.5947,0,0,0,0,0,0,0,-1,790,645,-10.8833,10.5947
-427,379,-4.16113,-4.13452,0,0,0,0,0,0,0,-1,797,645,-4.16116,4.1345
-420,379,-4.63953,-3.46869,0,0,0,0,0,0,0,-1,804,645,-4.63953,3.46872
-413,379,-4.62543,-3.7912,0,0,0,0,0,0,0,-1,811,645,-4.62541,3.79123
-406,379,-4.64063,-4.38489,0,0,0,0,0,0,0,-1,818,645,-4.64065,4.3849
-399,379,-2.93536,-1.40118,0,0,0,0,0,0,0,-1,825,645,-2.93534,1.40119
-392,379,-4.16711,-0.466003,0,0,0,0,0,0,0,-1,832,645,-4.16714,0.465992
-385,379,-3.51862,0.441101,0,0,0,0,0,0,0,-1,839,645,-3.51859,-0.441072
-378,379,-5.3504,0.212219,0,0,0,0,0,0,0,-1,846,645,-5.35038,-0.212241
-371,379,-4.32092,-0.186707,0,0,0,0,0,0,0,-1,853,645,-4.3209,0.186707
-364,379,-3.40887,-0.549805,0,0,0,0,0,0,0,-1,860,645,-3.4089,0.549802
-357,379,0,0,0,0,0,0,0,0,0,-1,867,645,0,0
-350,379,0,0,0,0,0,0,0,0,0,-1,874,645,0,0
-343,379,0,0,0,0,0,0,0,0,0,-1,881,645,0,0
-336,379,0,0,0,0,0,0,0,0,0,-1,888,645,0,0
-329,379,0,0,0,0,0,0,0,0,0,-1,895,645,0,0
-322,379,0,0,0,0,0,0,0,0,0,-1,902,645,0,0
-315,379,0,0,0,0,0,0,0,0,0,-1,909,645,0,0
-308,379,0,0,0,0,0,0,0,0,0,-1,916,645,0,0
-301,379,0,0,0,0,0,0,0,0,0,-1,923,645,0,0
-294,379,0,0,0,0,0,0,0,0,0,-1,930,645,0,0
-287,379,0,0,0,0,0,0,0,0,0,-1,937,645,0,0
-280,379,0,0,0,0,0,0,0,0,0,-1,944,645,0,0
-273,379,0,0,0,0,0,0,0,0,0,-1,951,645,0,0
-266,379,0,0,0,0,0,0,0,0,0,-1,958,645,0,0
-259,379,0,0,0,0,0,0,0,0,0,-1,965,645,0,0
-252,379,0,0,0,0,0,0,0,0,0,-1,972,645,0,0
-245,379,0,0,0,0,0,0,0,0,0,-1,979,645,0,0
-238,379,0,0,0,0,0,0,0,0,0,-1,986,645,0,0
-231,379,0,0,0,0,0,0,0,0,0,-1,993,645,0,0
-224,379,0,0,0,0,0,0,0,0,0,-1,1000,645,0,0
-217,379,0,0,0,0,0,0,0,0,0,-1,1007,645,0,0
-210,379,0,0,0,0,0,0,0,0,0,-1,1014,645,0,0
-203,379,0,0,0,0,0,0,0,0,0,-1,1021,645,0,0
-196,379,0,0,0,0,0,0,0,0,0,-1,1028,645,0,0
-189,379,0,0,0,0,0,0,0,0,0,-1,1035,645,0,0
-182,379,0,0,0,0,0,0,0,0,0,-1,1042,645,0,0
-175,379,0,0,0,0,0,0,0,0,0,-1,1049,645,0,0
-168,379,0,0,0,0,0,0,0,0,0,-1,1056,645,0,0
-161,379,0,0,0,0,0,0,0,0,0,-1,1063,645,0,0
-154,379,0,0,0,0,0,0,0,0,0,-1,1070,645,0,0
-147,379,0,0,0,0,0,0,0,0,0,-1,1077,645,0,0
-140,379,0,0,0,0,0,0,0,0,0,-1,1084,645,0,0
-133,379,0,0,0,0,0,0,0,0,0,-1,1091,645,0,0
-126,379,0,0,0,0,0,0,0,0,0,-1,1098,645,0,0
-119,379,0,0,0,0,0,0,0,0,0,-1,1105,645,0,0
-112,379,0,0,0,0,0,0,0,0,0,-1,1112,645,0,0
-105,379,0,0,0,0,0,0,0,0,0,-1,1119,645,0,0
-98,379,0,0,0,0,0,0,0,0,0,-1,1126,645,0,0
-91,379,0,0,0,0,0,0,0,0,0,-1,1133,645,0,0
-84,379,0,0,0,0,0,0,0,0,0,-1,1140,645,0,0
-77,379,0,0,0,0,0,0,0,0,0,-1,1147,645,0,0
-70,379,0,0,0,0,0,0,0,0,0,-1,1154,645,0,0
-63,379,0,0,0,0,0,0,0,0,0,-1,1161,645,0,0
-56,379,0,0,0,0,0,0,0,0,0,-1,1168,645,0,0
-49,379,0,0,0,0,0,0,0,0,0,-1,1175,645,0,0
-42,379,0,0,0,0,0,0,0,0,0,-1,1182,645,0,0
-35,379,0,0,0,0,0,0,0,0,0,-1,1189,645,0,0
-28,379,0,0,0,0,0,0,0,0,0,-1,1196,645,0,0
-21,379,0,0,0,0,0,0,0,0,0,-1,1203,645,0,0
-14,379,0,0,0,0,0,0,0,0,0,-1,1210,645,0,0
-7,379,0,0,0,0,0,0,0,0,0,-1,1217,645,0,0
0,379,0,0,0,0,0,0,0,0,0,-1,1224,645,0,0
7,379,0,0,0,0,0,0,0,0,0,-1,1231,645,0,0
14,379,0,0,0,0,0,0,0,0,0,-1,1238,645,0,0
21,379,0,0,0,0,0,0,0,0,0,-1,1245,645,0,0
28,379,0,0,0,0,0,0,0,0,0,-1,1252,645,0,0
35,379,0,0,0,0,0,0,0,0,0,-1,1259,645,0,0
42,379,0,0,0,0,0,0,0,0,0,-1,1266,645,0,0
49,379,0,0,0,0,0,0,0,0,0,-1,1273,645,0,0
56,379,0,0,0,0,0,0,0,0,0,-1,1280,645,0,0
63,379,0,0,0,0,0,0,0,0,0,-1,1287,645,0,0
70,379,0,0,0,0,0,0,0,0,0,-1,1294,645,0,0
77,379,0,0,0,0,0,0,0,0,0,-1,1301,645,0,0
84,379,0,0,0,0,0,0,0,0,0,-1,1308,645,0,0
91,379,0,0,0,0,0,0,0,0,0,-1,1315,645,0,0
98,379,0,0,0,0,0,0,0,0,0,-1,1322,645,0,0
105,379,0,0,0,0,0,0,0,0,0,-1,1329,645,0,0
112,379,0,0,0,0,0,0,0,0,0,-1,1336,645,0,0
119,379,0,0,0,0,0,0,0,0,0,-1,1343,645,0,0
126,379,0,0,0,0,0,0,0,0,0,-1,1350,645,0,0
133,379,0,0,0,0,0,0,0,0,0,-1,1357,645,0,0
140,379,0,0,0,0,0,0,0,0,0,-1,1364,645,0,0
147,379,0,0,0,0,0,0,0,0,0,-1,1371,645,0,0
154,379,0,0,0,0,0,0,0,0,0,-1,1378,645,0,0
161,379,0,0,0,0,0,0,0,0,0,-1,1385,645,0,0
168,379,0,0,0,0,0,0,0,0,0,-1,1392,645,0,0
175,379,0,0,0,0,0,0,0,0,0,-1,1399,645,0,0
182,379,0,0,0,0,0,0,0,0,0,-1,1406,645,0,0
189,379,0,0,0,0,0,0,0,0,0,-1,1413,645,0,0
196,379,0,0,0,0,0,0,0,0,0,-1,1420,645,0,0
203,379,0,0,0,0,0,0,0,0,0,-1,1427,645,0,0
210,379,0,0,0,0,0,0,0,0,0,-1,1434,645,0,0
217,379,0,0,0,0,0,0,0,0,0,-1,1441,645,0,0
224,379,0,0,0,0,0,0,0,0,0,-1,1448,645,0,0
231,379,0,0,0,0,0,0,0,0,0,-1,1455,645,0,0
238,379,0,0,0,0,0,0,0,0,0,-1,1462,645,0,0
245,379,0,0,0,0,0,0,0,0,0,-1,1469,645,0,0
252,379,0,0,0,0,0,0,0,0,0,-1,1476,645,0,0
259,379,0,0,0,0,0,0,0,0,0,-1,1483,645,0,0
266,379,0,0,0,0,0,0,0,0,0,-1,1490,645,0,0
273,379,0,0,0,0,0,0,0,0,0,-1,1497,645,0,0
280,379,0,0,0,0,0,0,0,0,0,-1,1504,645,0,0
287,379,0,0,0,0,0,0,0,0,0,-1,1511,645,0,0
294,379,0,0,0,0,0,0,0,0,0,-1,1518,645,0,0
301,379,0,0,0,0,0,0,0,0,0,-1,1525,645,0,0
308,379,0,0,0,0,0,0,0,0,0,-1,1532,645,0,0
315,379,0,0,0,0,0,0,0,0,0,-1,1539,645,0,0
322,379,0,0,0,0,0,0,0,0,0,-1,1546,645,0,0
329,379,0,0,0,0,0,0,0,0,0,-1,1553,645,0,0
336,379,0,0,0,0,0,0,0,0,0,-1,1560,645,0,0
343,379,0,0,0,0,0,0,0,0,0,-1,1567,645,0,0
350,379,0,0,0,0,0,0,0,0,0,-1,1574,645,0,0
357,379,0,0,0,0,0,0,0,0,0,-1,1581,645,0,0
364,379,0,0,0,0,0,0,0,0,0,-1,1588,645,0,0
371,379,0,0,0,0,0,0,0,0,0,-1,1595,645,0,0
378,379,0,0,0,0,0,0,0,0,0,-1,1602,645,0,0
385,379,0,0,0,0,0,0,0,0,0,-1,1609,645,0,0
392,379,0,0,0,0,0,0,0,0,0,-1,1616,645,0,0
399,379,0,0,0,0,0,0,0,0,0,-1,1623,645,0,0
406,379,0,0,0,0,0,0,0,0,0,-1,1630,645,0,0
413,379,0,0,0,0,0,0,0,0,0,-1,1637,645,0,0
420,379,0,0,0,0,0,0,0,0,0,-1,1644,645,0,0
427,379,0,0,0,0,0,0,0,0,0,-1,1651,645,0,0
434,379,0,0,0,0,0,0,0,0,0,-1,1658,645,0,0
441,379,0,0,0,0,0,0,0,0,0,-1,1665,645,0,0
448,379,0,0,0,0,0,0,0,0,0,-1,1672,645,0,0
455,379,0,0,0,0,0,0,0,0,0,-1,1679,645,0,0
462,379,0,0,0,0,0,0,0,0,0,-1,1686,645,0,0
469,379,0,0,0,0,0,0,0,0,0,-1,1693,645,0,0
476,379,11.1787,0.830383,0,0,0,0,0,0,0,-1,1700,645,11.1787,-0.830365
483,379,7.4231,1.54321,0,0,0,0,0,0,0,-1,1707,645,7.42314,-1.54324
490,379,8.52881,1.56677,0,0,0,0,0,0,0,-1,1714,645,8.52878,-1.56677
497,379,9.63599,1.49573,0,0,0,0,0,0,0,-1,1721,645,9.63604,-1.4957
504,379,10.0833,1.35229,0,0,0,0,0,0,0,-1,1728,645,10.0832,-1.35227
511,379,8.14343,1.59912,0,0,0,0,0,0,0,-1,1735,645,8.14347,-1.59912
518,379,12.7955,-0.324097,0,0,0,0,0,0,0,-1,1742,645,12.7955,0.324101
525,379,6.03711,1.10352,0,0,0,0,0,0,0,-1,1749,645,6.03711,-1.10351
532,379,8.70947,0.887817,0,0,0,0,0,0,0,-1,1756,645,8.70953,-0.887808
539,379,9.87097,0.111389,0,0,0,0,0,0,0,-1,1763,645,9.87095,-0.111395
546,379,8.42383,-0.730652,0,0,0,0,0,0,0,-1,1770,645,8.42378,0.730638
553,379,19.2905,-7.67834,0,0,0,0,0,0,0,-1,1777,645,19.2905,7.67837
560,379,20.4377,-8.82196,0,0,0,0,0,0,0,-1,1784,645,20.4377,8.82195
567,379,20.6171,-8.29517,0.00632475,0.000174055,0.00113265,0.0065267,-2.78912e-05,0.176441,0.00436046,0.0350603,1791,645,20.6171,8.29516
574,379,20.8085,-7.79102,0.00460595,0.000103703,0.000677375,0.00470566,3.99793e-06,0.146144,0.00313577,0.0135359,1798,645,20.8085,7.791
581,379,20.7834,-7.25482,0.00328076,0.000271037,0.000449076,0.00334634,0.00020546,0.145002,0.00216566,0.0148109,1805,645,20.7835,7.25481
588,379,20.7815,-6.69397,0.0023068,0.000561889,0.000428208,0.00240622,0.00046247,0.228134,0.00147437,0.0170263,1812,645,20.7815,6.69396
595,379,20.7671,-6.16766,0.00173094,0.00100476,0.000582799,0.0020545,0.000681203,0.506815,0.00120839,0.0149765,1819,645,20.767,6.16768
602,379,20.7284,-5.62756,0.00152712,0.00163498,0.000962266,0.00254483,0.000617275,0.813389,0.0015328,0.0152444,1826,645,20.7284,5.62754
609,379,20.6897,-5.08722,0.00142653,0.00235297,0.00140207,0.00336636,0.000413145,0.944944,0.00211999,0.0156678,1833,645,20.6897,5.08721
616,379,20.6724,-4.5199,0.0013013,0.002942,0.00166935,0.00398167,0.000261624,1.01378,0.00257168,0.0129817,1840,645,20.6724,4.5199
623,379,20.6743,-3.91284,0.00142033,0.00349769,0.00196433,0.00468105,0.000236972,1.0286,0.00304478,0.0119045,1847,645,20.6743,3.91283
630,379,20.636,-3.36072,0.00131428,0.00393259,0.00205527,0.00506024,0.000186631,1.06898,0.00331303,0.0137317,1854,645,20.636,3.3607
637,379,20.6355,-2.70099,0.000884949,0.00425725,0.00187045,0.00508937,5.28304e-05,1.15221,0.00337544,0.0390967,1861,645,20.6355,2.70097
644,379,20.8051,-1.9425,0,0,0,0,0,0,0,-1,1868,645,20.805,1.94249
651,379,12.9515,0.220825,0,0,0,0,0,0,0,-1,1875,645,12.9515,-0.220814
658,379,13.7498,0.37439,0,0,0,0,0,0,0,-1,1882,645,13.7498,-0.374371
665,379,11.9719,0.353333,0,0,0,0,0,0,0,-1,1889,645,11.9719,-0.353321
672,379,7.57605,2.15326,0,0,0,0,0,0,0,-1,1896,645,7.57599,-2.15326
679,379,8.55078,2.50409,0,0,0,0,0,0,0,-1,1903,645,8.55073,-2.50406
686,379,0,0,0,0,0,0,0,0,0,-1,1910,645,0,0
693,379,0,0,0,0,0,0,0,0,0,-1,1917,645,0,0
700,379,0,0,0,0,0,0,0,0,0,-1,1924,645,0,0
707,379,0,0,0,0,0,0,0,0,0,-1,1931,645,0,0
714,379,0,0,0,0,0,0,0,0,0,-1,1938,645,0,0
721,379,0,0,0,0,0,0,0,0,0,-1,1945,645,0,0
728,379,0,0,0,0,0,0,0,0,0,-1,1952,645,0,0
735,379,0,0,0,0,0,0,0,0,0,-1,1959,645,0,0
742,379,0,0,0,0,0,0,0,0,0,-1,1966,645,0,0
749,379,0,0,0,0,0,0,0,0,0,-1,1973,645,0,0
756,379,0,0,0,0,0,0,0,0,0,-1,1980,645,0,0
763,379,0,0,0,0,0,0,0,0,0,-1,1987,645,0,0
770,379,0,0,0,0,0,0,0,0,0,-1,1994,645,0,0
777,379,0,0,0,0,0,0,0,0,0,-1,2001,645,0,0
784,379,0,0,0,0,0,0,0,0,0,-1,2008,645,0,0
791,379,0,0,0,0,0,0,0,0,0,-1,2015,645,0,0
798,379,0,0,0,0,0,0,0,0,0,-1,2022,645,0,0
805,379,0,0,0,0,0,0,0,0,0,-1,2029,645,0,0
812,379,0,0,0,0,0,0,0,0,0,-1,2036,645,0,0
-700,372,0,0,0,0,0,0,0,0,0,-1,524,652,0,0
-693,372,0,0,0,0,0,0,0,0,0,-1,531,652,0,0
-686,372,0,0,0,0,0,0,0,0,0,-1,538,652,0,0
-679,372,0,0,0,0,0,0,0,0,0,-1,545,652,0,0
-672,372,0,0,0,0,0,0,0,0,0,-1,552,652,0,0
-665,372,0,0,0,0,0,0,0,0,0,-1,559,652,0,0
-658,372,0,0,0,0,0,0,0,0,0,-1,566,652,0,0
-651,372,0,0,0,0,0,0,0,0,0,-1,573,652,0,0
-644,372,0,0,0,0,0,0,0,0,0,-1,580,652,0,0
-637,372,0,0,0,0,0,0,0,0,0,-1,587,652,0,0
-630,372,0,0,0,0,0,0,0,0,0,-1,594,652,0,0
-623,372,0,0,0,0,0,0,0,0,0,-1,601,652,0,0
-616,372,0,0,0,0,0,0,0,0,0,-1,608,652,0,0
-609,372,0,0,0,0,0,0,0,0,0,-1,615,652,0,0
-602,372,0,0,0,0,0,0,0,0,0,-1,622,652,0,0
-595,372,0,0,0,0,0,0,0,0,0,-1,629,652,0,0
-588,372,0,0,0,0,0,0,0,0,0,-1,636,652,0,0
-581,372,0,0,0,0,0,0,0,0,0,-1,643,652,0,0
-574,372,0,0,0,0,0,0,0,0,0,-1,650,652,0,0
-567,372,-7.93744,0.73407,0,0,0,0,0,0,0,-1,657,652,-7.93741,-0.734076
-560,372,-8.78552,-0.158203,0,0,0,0,0,0,0,-1,664,652,-8.78552,0.158216
-553,372,-7.95551,1.61694,0,0,0,0,0,0,0,-1,671,652,-7.95552,-1.61697
-546,372,-4.2403,-3.75372,0,0,0,0,0,0,0,-1,678,652,-4.24028,3.75369
-539,372,-7.92285,-0.0650024,0,0,0,0,0,0,0,-1,685,652,-7.92287,0.0649772
-532,372,-8.59589,-0.419556,0,0,0,0,0,0,0,-1,692,652,-8.59591,0.419539
-525,372,-8.03674,-1.36804,0,0,0,0,0,0,0,-1,699,652,-8.03676,1.36806
-518,372,-11.4485,-3.94501,0,0,0,0,0,0,0,-1,706,652,-11.4485,3.945
-511,372,-11.4153,-4.59686,0.00125983,0.0087001,-0.00469566,0.0109707,-0.00101075,-1.1204,0.00767292,0.0307204,713,652,-11.4154,4.59685
-504,372,-11.4432,-5.09912,0.000891824,0.00612357,-0.00326311,0.00768988,-0.000674489,-1.12327,0.00536557,0.0148564,720,652,-11.4432,5.09911
-497,372,-11.4316,-5.65607,0.000789737,0.0043068,-0.00234659,0.00548066,-0.000384124,-1.10696,0.00378831,0.0121974,727,652,-11.4316,5.65608
-490,372,-11.4517,-6.18536,0.000636734,0.00250557,-0.0014477,0.00329422,-0.000151921,-1.07198,0.0022485,0.0129648,734,652,-11.4517,6.18535
-483,372,-11.473,-6.70886,0.000835078,0.00182565,-0.00119646,0.00262528,3.54463e-05,-0.98164,0.00173849,0.0133665,741,652,-11.473,6.70888
-476,372,-11.4743,-7.22223,0.0011978,0.00136998,-0.00116269,0.00244976,0.000118021,-0.822354,0.00159529,0.0142549,748,652,-11.4743,7.22223
-469,372,-11.5096,-7.7406,0.00147098,0.00102849,-0.00111181,0.00238334,0.000116123,-0.687183,0.00155164,0.0114981,755,652,-11.5097,7.74059
-462,372,-11.5315,-8.28064,0.00158045,0.000682188,-0.000954901,0.00218657,7.60687e-05,-0.565577,0.00143303,0.0101346,762,652,-11.5315,8.28066
-455,372,-11.5584,-8.80756,0.00137678,-9.71153e-05,-0.00038783,0.0014726,-0.000192936,-0.242219,0.00105196,0.0100873,769,652,-11.5584,8.80753
-448,372,-11.5553,-9.32849,0.00111249,-0.000512503,0.000105426,0.00111931,-0.000519314,0.0645173,0.000966967,0.0123761,776,652,-11.5553,9.32847
-441,372,-11.4137,-10.0554,0,0,0,0,0,0,0,-1,783,652,-11.4137,10.0554
-434,372,-9.86865,-9.68494,0,0,0,0,0,0,0,-1,790,652,-9.86863,9.68492
-427,372,-4.54248,-3.56268,0,0,0,0,0,0,0,-1,797,652,-4.54247,3.56266
-420,372,-4.66168,-2.93597,0,0,0,0,0,0,0,-1,804,652,-4.66166,2.93599
-413,372,-4.74762,-3.29541,0,0,0,0,0,0,0,-1,811,652,-4.74763,3.29542
-406,372,-0.885437,-0.583923,0,0,0,0,0,0,0,-1,818,652,-0.885437,0.5839
-399,372,-3.97357,-0.825012,0,0,0,0,0,0,0,-1,825,652,-3.97359,0.825037
-392,372,-7.64337,0.173035,0,0,0,0,0,0,0,-1,832,652,-7.64337,-0.173019
-385,372,-6.48871,-0.0271606,0,0,0,0,0,0,0,-1,839,652,-6.48874,0.0271353
-378,372,-5.33044,-0.242432,0,0,0,0,0,0,0,-1,846,652,-5.33042,0.242457
-371,372,-4.40802,-0.495667,0,0,0,0,0,0,0,-1,853,652,-4.40802,0.495661
-364,372,0,0,0,0,0,0,0,0,0,-1,860,652,0,0
-357,372,0,0,0,0,0,0,0,0,0,-1,867,652,0,0
-350,372,0,0,0,0,0,0,0,0,0,-1,874,652,0,0
-343,372,0,0,0,0,0,0,0,0,0,-1,881,652,0,0
-336,372,0,0,0,0,0,0,0,0,0,-1,888,652,0,0
-329,372,0,0,0,0,0,0,0,0,0,-1,895,652,0,0
-322,372,0,0,0,0,0,0,0,0,0,-1,902,652,0,0
-315,372,0,0,0,0,0,0,0,0,0,-1,909,652,0,0
-308,372,0,0,0,0,0,0,0,0,0,-1,916,652,0,0
-301,372,0,0,0,0,0,0,0,0,0,-1,923,652,0,0
-294,372,0,0,0,0,0,0,0,0,0,-1,930,652,0,0
-287,372,0,0,0,0,0,0,0,0,0,-1,937,652,0,0
-280,372,0,0,0,0,0,0,0,0,0,-1,944,652,0,0
-273,372,0,0,0,0,0,0,0,0,0,-1,951,652,0,0
-266,372,0,0,0,0,0,0,0,0,0,-1,958,652,0,0
-259,372,0,0,0,0,0,0,0,0,0,-1,965,652,0,0
-252,372,0,0,0,0,0,0,0,0,0,-1,972,652,0,0
-245,372,0,0,0,0,0,0,0,0,0,-1,979,652,0,0
-238,372,0,0,0,0,0,0,0,0,0,-1,986,652,0,0
-231,372,0,0,0,0,0,0,0,0,0,-1,993,652,0,0
-224,372,0,0,0,0,0,0,0,0,0,-1,1000,652,0,0
-217,372,0,0,0,0,0,0,0,0,0,-1,1007,652,0,0
-210,372,0,0,0,0,0,0,0,0,0,-1,1014,652,0,0
-203,372,0,0,0,0,0,0,0,0,0,-1,1021,652,0,0
-196,372,0,0,0,0,0,0,0,0,0,-1,1028,652,0,0
-189,372,0,0,0,0,0,0,0,0,0,-1,1035,652,0,0
-182,372,0,0,0,0,0,0,0,0,0,-1,1042,652,0,0
-175,372,0,0,0,0,0,0,0,0,0,-1,1049,652,0,0
-168,372,0,0,0,0,0,0,0,0,0,-1,1056,652,0,0
-161,372,0,0,0,0,0,0,0,0,0,-1,1063,652,0,0
-154,372,0,0,0,0,0,0,0,0,0,-1,1070,652,0,0
-147,372,0,0,0,0,0,0,0,0,0,-1,1077,652,0,0
-140,372,0,0,0,0,0,0,0,0,0,-1,1084,652,0,0
-133,372,0,0,0,0,0,0,0,0,0,-1,1091,652,0,0
-126,372,0,0,0,0,0,0,0,0,0,-1,1098,652,0,0
-119,372,0,0,0,0,0,0,0,0,0,-1,1105,652,0,0
-112,372,0,0,0,0,0,0,0,0,0,-1,1112,652,0,0
-105,372,0,0,0,0,0,0,0,0,0,-1,1119,652,0,0
-98,372,0,0,0,0,0,0,0,0,0,-1,1126,652,0,0
-91,372,0,0,0,0,0,0,0,0,0,-1,1133,652,0,0
-84,372,0,0,0,0,0,0,0,0,0,-1,1140,652,0,0
-77,372,0,0,0,0,0,0,0,0,0,-1,1147,652,0,0
-70,372,0,0,0,0,0,0,0,0,0,-1,1154,652,0,0
-63,372,0,0,0,0,0,0,0,0,0,-1,1161,652,0,0
-56,372,0,0,0,0,0,0,0,0,0,-1,1168,652,0,0
-49,372,0,0,0,0,0,0,0,0,0,-1,1175,652,0,0
-42,372,0,0,0,0,0,0,0,0,0,-1,1182,652,0,0
-35,372,0,0,0,0,0,0,0,0,0,-1,1189,652,0,0
-28,372,0,0,0,0,0,0,0,0,0,-1,1196,652,0,0
-21,372,0,0,0,0,0,0,0,0,0,-1,1203,652,0,0
-14,372,0,0,0,0,0,0,0,0,0,-1,1210,652,0,0
-7,372,0,0,0,0,0,0,0,0,0,-1,1217,652,0,0
0,372,0,0,0,0,0,0,0,0,0,-1,1224,652,0,0
7,372,0,0,0,0,0,0,0,0,0,-1,1231,652,0,0
14,372,0,0,0,0,0,0,0,0,0,-1,1238,652,0,0
21,372,0,0,0,0,0,0,0,0,0,-1,1245,652,0,0
28,372,0,0,0,0,0,0,0,0,0,-1,1252,652,0,0
35,372,0,0,0,0,0,0,0,0,0,-1,1259,652,0,0
42,372,0,0,0,0,0,0,0,0,0,-1,1266,652,0,0
49,372,0,0,0,0,0,0,0,0,0,-1,1273,652,0,0
56,372,0,0,0,0,0,0,0,0,0,-1,1280,652,0,0
63,372,0,0,0,0,0,0,0,0,0,-1,1287,652,0,0
70,372,0,0,0,0,0,0,0,0,0,-1,1294,652,0,0
77,372,0,0,0,0,0,0,0,0,0,-1,1301,652,0,0
84,372,0,0,0,0,0,0,0,0,0,-1,1308,652,0,0
91,372,0,0,0,0,0,0,0,0,0,-1,1315,652,0,0
98,372,0,0,0,0,0,0,0,0,0,-1,1322,652,0,0
105,372,0,0,0,0,0,0,0,0,0,-1,1329,652,0,0
112,372,0,0,0,0,0,0,0,0,0,-1,1336,652,0,0
119,372,0,0,0,0,0,0,0,0,0,-1,1343,652,0,0
126,372,0,0,0,0,0,0,0,0,0,-1,1350,652,0,0
133,372,0,0,0,0,0,0,0,0,0,-1,1357,652,0,0
140,372,0,0,0,0,0,0,0,0,0,-1,1364,652,0,0
147,372,0,0,0,0,0,0,0,0,0,-1,1371,652,0,0
154,372,0,0,0,0,0,0,0,0,0,-1,1378,652,0,0
161,372,0,0,0,0,0,0,0,0,0,-1,1385,652,0,0
168,372,0,0,0,0,0,0,0,0,0,-1,1392,652,0,0
175,372,0,0,0,0,0,0,0,0,0,-1,1399,652,0,0
182,372,0,0,0,0,0,0,0,0,0,-1,1406,652,0,0
189,372,0,0,0,0,0,0,0,0,0,-1,1413,652,0,0
196,372,0,0,0,0,0,0,0,0,0,-1,1420,652,0,0
203,372,0,0,0,0,0,0,0,0,0,-1,1427,652,0,0
210,372,0,0,0,0,0,0,0,0,0,-1,1434,652,0,0
217,372,0,0,0,0,0,0,0,0,0,-1,1441,652,0,0
224,372,0,0,0,0,0,0,0,0,0,-1,1448,652,0,0
231,372,0,0,0,0,0,0,0,0,0,-1,1455,652,0,0
238,372,0,0,0,0,0,0,0,0,0,-1,1462,652,0,0
245,372,0,0,0,0,0,0,0,0,0,-1,1469,652,0,0
252,372,0,0,0,0,0,0,0,0,0,-1,1476,652,0,0
259,372,0,0,0,0,0,0,0,0,0,-1,1483,652,0,0
266,372,0,0,0,0,0,0,0,0,0,-1,1490,652,0,0
273,372,0,0,0,0,0,0,0,0,0,-1,1497,652,0,0
280,372,0,0,0,0,0,0,0,0,0,-1,1504,652,0,0
287,372,0,0,0,0,0,0,0,0,0,-1,1511,652,0,0
294,372,0,0,0,0,0,0,0,0,0,-1,1518,652,0,0
301,372,0,0,0,0,0,0,0,0,0,-1,1525,652,0,0
308,372,0,0,0,0,0,0,0,0,0,-1,1532,652,0,0
315,372,0,0,0,0,0,0,0,0,0,-1,1539,652,0,0
322,372,0,0,0,0,0,0,0,0,0,-1,1546,652,0,0
329,372,0,0,0,0,0,0,0,0,0,-1,1553,652,0,0
336,372,0,0,0,0,0,0,0,0,0,-1,1560,652,0,0
343,372,0,0,0,0,0,0,0,0,0,-1,1567,652,0,0
350,372,0,0,0,0,0,0,0,0,0,-1,1574,652,0,0
357,372,0,0,0,0,0,0,0,0,0,-1,1581,652,0,0
364,372,0,0,0,0,0,0,0,0,0,-1,1588,652,0,0
371,372,0,0,0,0,0,0,0,0,0,-1,1595,652,0,0
378,372,0,0,0,0,0,0,0,0,0,-1,1602,652,0,0
385,372,0,0,0,0,0,0,0,0,0,-1,1609,652,0,0
392,372,0,0,0,0,0,0,0,0,0,-1,1616,652,0,0
399,372,0,0,0,0,0,0,0,0,0,-1,1623,652,0,0
406,372,0,0,0,0,0,0,0,0,0,-1,1630,652,0,0
413,372,0,0,0,0,0,0,0,0,0,-1,1637,652,0,0
420,372,0,0,0,0,0,0,0,0,0,-1,1644,652,0,0
427,372,0,0,0,0,0,0,0,0,0,-1,1651,652,0,0
434,372,0,0,0,0,0,0,0,0,0,-1,1658,652,0,0
441,372,0,0,0,0,0,0,0,0,0,-1,1665,652,0,0
448,372,0,0,0,0,0,0,0,0,0,-1,1672,652,0,0
455,372,0,0,0,0,0,0,0,0,0,-1,1679,652,0,0
462,372,0,0,0,0,0,0,0,0,0,-1,1686,652,0,0
469,372,0,0,0,0,0,0,0,0,0,-1,1693,652,0,0
476,372,0,0,0,0,0,0,0,0,0,-1,1700,652,0,0
483,372,8.74182,1.53125,0,0,0,0,0,0,0,-1,1707,652,8.74186,-1.53126
490,372,9.78455,1.67096,0,0,0,0,0,0,0,-1,1714,652,9.7846,-1.67093
497,372,9.97644,1.46069,0,0,0,0,0,0,0,-1,1721,652,9.97647,-1.46071
504,372,10.1216,1.28375,0,0,0,0,0,0,0,-1,1728,652,10.1216,-1.28376
511,372,11.7367,-0.0272217,0,0,0,0,0,0,0,-1,1735,652,11.7367,0.0272326
518,372,12.0657,-0.0995483,0,0,0,0,0,0,0,-1,1742,652,12.0657,0.0995285
525,372,12.3947,-0.171814,0,0,0,0,0,0,0,-1,1749,652,12.3946,0.171824
532,372,9.36597,1.72034,0,0,0,0,0,0,0,-1,1756,652,9.36597,-1.72036
539,372,7.82886,-0.0865479,0,0,0,0,0,0,0,-1,1763,652,7.82882,0.0865771
546,372,10.953,-0.187195,0,0,0,0,0,0,0,-1,1770,652,10.953,0.187181
553,372,14.1201,-4.83234,0,0,0,0,0,0,0,-1,1777,652,14.1201,4.83235
560,372,20.1057,-8.06934,0,0,0,0,0,0,0,-1,1784,652,20.1058,8.06936
567,372,21.0262,-8.27551,0,0,0,0,0,0,0,-1,1791,652,21.0262,8.27553
574,372,21.3746,-7.71729,0.00481451,-1.08577e-05,0.000375902,0.00484362,-3.99654e-05,0.0772799,0.00324248,0.0308496,1798,652,21.3746,7.7173
581,372,21.3522,-7.25171,0.00338471,0.000106156,0.000120752,0.00338915,0.000101715,0.0367644,0.0022263,0.0197602,1805,652,21.3522,7.25169
588,372,21.3295,-6.70795,0.00238583,0.000286277,0.000108463,0.00239142,0.000280689,0.0514775,0.00150944,0.016085,1812,652,21.3295,6.70797
595,372,21.3066,-6.16748,0.00179965,0.000640761,0.000250216,0.00185136,0.000589045,0.203817,0.00109219,0.0144129,1819,652,21.3067,6.16747
602,372,21.2981,-5.62518,0.00158864,0.0011466,0.000592497,0.002,0.000735241,0.606877,0.00116811,0.0149727,1826,652,21.2981,5.62518
609,372,21.228,-5.07037,0.00149808,0.00171993,0.000996128,0.00261129,0.000606718,0.840847,0.00157799,0.0153761,1833,652,21.228,5.07036
616,372,21.2197,-4.49146,0.00136056,0.00215389,0.00121481,0.00303516,0.000479294,0.943202,0.00188411,0.0152089,1840,652,21.2197,4.49143
623,372,21.2432,-3.8927,0.00133083,0.0025647,0.00140269,0.00348013,0.000415403,0.992577,0.00219476,0.0128412,1847,652,21.2432,3.8927
630,372,21.2189,-3.34668,0.00105482,0.00283792,0.00138875,0.00359667,0.000296071,1.07076,0.00230543,0.0172126,1854,652,21.2188,3.3467
637,372,21.2313,-2.80792,0.000505681,0.00296524,0.00109756,0.0033838,8.71271e-05,1.20647,0.00222739,0.0253712,1861,652,21.2313,2.80795
644,372,21.2157,-2.16071,0,0,0,0,0,0,0,-1,1868,652,21.2157,2.16072
651,372,21.3998,-0.888,0,0,0,0,0,0,0,-1,1875,652,21.3998,0.887992
658,372,14.157,0.280273,0,0,0,0,0,0,0,-1,1882,652,14.157,-0.280264
665,372,15.2286,0.463867,0,0,0,0,0,0,0,-1,1889,652,15.2287,-0.463854
672,372,9.34106,1.48444,0,0,0,0,0,0,0,-1,1896,652,9.34109,-1.48444
679,372,10.7308,2.32391,0,0,0,0,0,0,0,-1,1903,652,10.7309,-2.3239
686,372,11.6295,2.52997,0,0,0,0,0,0,0,-1,1910,652,11.6296,-2.52996
693,372,0,0,0,0,0,0,0,0,0,-1,1917,652,0,0
700,372,0,0,0,0,0,0,0,0,0,-1,1924,652,0,0
707,372,0,0,0,0,0,0,0,0,0,-1,1931,652,0,0
714,372,0,0,0,0,0,0,0,0,0,-1,1938,652,0,0
721,372,0,0,0,0,0,0,0,0,0,-1,1945,652,0,0
728,372,0,0,0,0,0,0,0,0,0,-1,1952,652,0,0
735,372,0,0,0,0,0,0,0,0,0,-1,1959,652,0,0
742,372,0,0,0,0,0,0,0,0,0,-1,1966,652,0,0
749,372,0,0,0,0,0,0,0,0,0,-1,1973,652,0,0
756,372,0,0,0,0,0,0,0,0,0,-1,1980,652,0,0
763,372,0,0,0,0,0,0,0,0,0,-1,1987,652,0,0
770,372,0,0,0,0,0,0,0,0,0,-1,1994,652,0,0
777,372,0,0,0,0,0,0,0,0,0,-1,2001,652,0,0
784,372,0,0,0,0,0,0,0,0,0,-1,2008,652,0,0
791,372,0,0,0,0,0,0,0,0,0,-1,2015,652,0,0
798,372,0,0,0,0,0,0,0,0,0,-1,2022,652,0,0
805,372,0,0,0,0,0,0,0,0,0,-1,2029,652,0,0
812,372,0,0,0,0,0,0,0,0,0,-1,2036,652,0,0
-700,365,0,0,0,0,0,0,0,0,0,-1,524,659,0,0
-693,365,0,0,0,0,0,0,0,0,0,-1,531,659,0,0
-686,365,0,0,0,0,0,0,0,0,0,-1,538,659,0,0
-679,365,0,0,0,0,0,0,0,0,0,-1,545,659,0,0
-672,365,0,0,0,0,0,0,0,0,0,-1,552,659,0,0
-665,365,0,0,0,0,0,0,0,0,0,-1,559,659,0,0
-658,365,0,0,0,0,0,0,0,0,0,-1,566,659,0,0
-651,365,0,0,0,0,0,0,0,0,0,-1,573,659,0,0
-644,365,0,0,0,0,0,0,0,0,0,-1,580,659,0,0
-637,365,0,0,0,0,0,0,0,0,0,-1,587,659,0,0
-630,365,0,0,0,0,0,0,0,0,0,-1,594,659,0,0
-623,365,0,0,0,0,0,0,0,0,0,-1,601,659,0,0
-616,365,0,0,0,0,0,0,0,0,0,-1,608,659,0,0
-609,365,0,0,0,0,0,0,0,0,0,-1,615,659,0,0
-602,365,0,0,0,0,0,0,0,0,0,-1,622,659,0,0
-595,365,0,0,0,0,0,0,0,0,0,-1,629,659,0,0
-588,365,0,0,0,0,0,0,0,0,0,-1,636,659,0,0
-581,365,0,0,0,0,0,0,0,0,0,-1,643,659,0,0
-574,365,-7.69281,1.59015,0,0,0,0,0,0,0,-1,650,659,-7.69282,-1.59018
-567,365,-8.2583,1.72638,0,0,0,0,0,0,0,-1,657,659,-8.25827,-1.72637
-560,365,-7.17767,0.275757,0,0,0,0,0,0,0,-1,664,659,-7.17768,-0.27577
-553,365,-10.0349,-0.169617,0,0,0,0,0,0,0,-1,671,659,-10.0349,0.169593
-546,365,-10.6303,-1.51642,0,0,0,0,0,0,0,-1,678,659,-10.6303,1.5164
-539,365,-8.38599,1.52936,0,0,0,0,0,0,0,-1,685,659,-8.38598,-1.52935
-532,365,-8.52863,0.166504,0,0,0,0,0,0,0,-1,692,659,-8.52863,-0.166501
-525,365,-9.28229,-2.62726,0,0,0,0,0,0,0,-1,699,659,-9.28227,2.62724
-518,365,-11.9845,-3.8985,0,0,0,0,0,0,0,-1,706,659,-11.9845,3.89851
-511,365,-11.9876,-4.53345,0.0013245,0.00735187,-0.00402433,0.00936586,-0.000689496,-1.10679,0.00648597,0.0315807,713,659,-11.9876,4.53346
-504,365,-11.9706,-5.08661,0.0010512,0.00505491,-0.00278206,0.00648048,-0.000374378,-1.09726,0.00445037,0.0128899,720,659,-11.9707,5.08663
-497,365,-11.9721,-5.63025,0.00102683,0.00349665,-0.00202736,0.0046356,-0.000112109,-1.05895,0.00312844,0.0132914,727,659,-11.9721,5.63023
-490,365,-11.9911,-6.16833,0.000867526,0.00186386,-0.00122013,0.00268361,4.77782e-05,-0.979214,0.00177336,0.0139343,734,659,-11.9912,6.16832
-483,365,-12.0132,-6.69385,0.0010739,0.00139272,-0.00106997,0.00231509,0.000151533,-0.859347,0.00149544,0.0131863,741,659,-12.0132,6.69386
-476,365,-11.9771,-7.21918,0.0014337,0.00113126,-0.00112572,0.00241831,0.000146652,-0.71863,0.00156561,0.016859,748,659,-11.9771,7.21919
-469,365,-11.9965,-7.73865,0.00168671,0.00093927,-0.00113596,0.00250885,0.00011713,-0.62648,0.00163492,0.0165285,755,659,-11.9965,7.73862
-462,365,-12.0506,-8.26251,0.00180608,0.000771455,-0.00105664,0.00246524,0.000112292,-0.557758,0.00160737,0.0139078,762,659,-12.0506,8.26253
-455,365,-12.0768,-8.79254,0.00162973,0.000146198,-0.000555602,0.00181474,-3.88099e-05,-0.321439,0.00122297,0.0152913,769,659,-12.0768,8.79253
-448,365,-11.9954,-9.3924,0.00136641,7.55958e-05,-0.000178141,0.00139054,5.14624e-05,-0.134654,0.00091036,0.0346381,776,659,-11.9954,9.39241
-441,365,-11.7712,-10.0749,0,0,0,0,0,0,0,-1,783,659,-11.7712,10.0749
-434,365,-5.45056,-3.98041,0,0,0,0,0,0,0,-1,790,659,-5.45055,3.98042
-427,365,-5.05377,-4.74689,0,0,0,0,0,0,0,-1,797,659,-5.05376,4.7469
-420,365,-4.58813,-3.16376,0,0,0,0,0,0,0,-1,804,659,-4.58816,3.16374
-413,365,0.141357,0.672729,0,0,0,0,0,0,0,-1,811,659,0.141365,-0.672714
-406,365,-1.75067,-0.934448,0,0,0,0,0,0,0,-1,818,659,-1.7507,0.934424
-399,365,-4.10242,-1.25439,0,0,0,0,0,0,0,-1,825,659,-4.10244,1.25438
-392,365,-7.46545,-0.779724,0,0,0,0,0,0,0,-1,832,659,-7.46543,0.779744
-385,365,-6.27875,-0.887573,0,0,0,0,0,0,0,-1,839,659,-6.27874,0.887545
-378,365,-5.34503,-0.263306,0,0,0,0,0,0,0,-1,846,659,-5.34504,0.263275
-371,365,0,0,0,0,0,0,0,0,0,-1,853,659,0,0
-364,365,0,0,0,0,0,0,0,0,0,-1,860,659,0,0
-357,365,0,0,0,0,0,0,0,0,0,-1,867,659,0,0
-350,365,0,0,0,0,0,0,0,0,0,-1,874,659,0,0
-343,365,0,0,0,0,0,0,0,0,0,-1,881,659,0,0
-336,365,0,0,0,0,0,0,0,0,0,-1,888,659,0,0
-329,365,0,0,0,0,0,0,0,0,0,-1,895,659,0,0
-322,365,0,0,0,0,0,0,0,0,0,-1,902,659,0,0
-315,365,0,0,0,0,0,0,0,0,0,-1,909,659,0,0
-308,365,0,0,0,0,0,0,0,0,0,-1,916,659,0,0
-301,365,0,0,0,0,0,0,0,0,0,-1,923,659,0,0
-294,365,0,0,0,0,0,0,0,0,0,-1,930,659,0,0
-287,365,0,0,0,0,0,0,0,0,0,-1,937,659,0,0
-280,365,0,0,0,0,0,0,0,0,0,-1,944,659,0,0
-273,365,0,0,0,0,0,0,0,0,0,-1,951,659,0,0
-266,365,0,0,0,0,0,0,0,0,0,-1,958,659,0,0
-259,365,0,0,0,0,0,0,0,0,0,-1,965,659,0,0
-252,365,0,0,0,0,0,0,0,0,0,-1,972,659,0,0
-245,365,0,0,0,0,0,0,0,0,0,-1,979,659,0,0
-238,365,0,0,0,0,0,0,0,0,0,-1,986,659,0,0
-231,365,0,0,0,0,0,0,0,0,0,-1,993,659,0,0
-224,365,0,0,0,0,0,0,0,0,0,-1,1000,659,0,0
-217,365,0,0,0,0,0,0,0,0,0,-1,1007,659,0,0
-210,365,0,0,0,0,0,0,0,0,0,-1,1014,659,0,0
-203,365,0,0,0,0,0,0,0,0,0,-1,1021,659,0,0
-196,365,0,0,0,0,0,0,0,0,0,-1,1028,659,0,0
-189,365,0,0,0,0,0,0,0,0,0,-1,1035,659,0,0
-182,365,0,0,0,0,0,0,0,0,0,-1,1042,659,0,0
-175,365,0,0,0,0,0,0,0,0,0,-1,1049,659,0,0
-168,365,0,0,0,0,0,0,0,0,0,-1,1056,659,0,0
-161,365,0,0,0,0,0,0,0,0,0,-1,1063,659,0,0
-154,365,0,0,0,0,0,0,0,0,0,-1,1070,659,0,0
-147,365,0,0,0,0,0,0,0,0,0,-1,1077,659,0,0
-140,365,0,0,0,0,0,0,0,0,0,-1,1084,659,0,0
-133,365,0,0,0,0,0,0,0,0,0,-1,1091,659,0,0
-126,365,0,0,0,0,0,0,0,0,0,-1,1098,659,0,0
-119,365,0,0,0,0,0,0,0,0,0,-1,1105,659,0,0
-112,365,0,0,0,0,0,0,0,0,0,-1,1112,659,0,0
-105,365,0,0,0,0,0,0,0,0,0,-1,1119,659,0,0
-98,365,0,0,0,0,0,0,0,0,0,-1,1126,659,0,0
-91,365,0,0,0,0,0,0,0,0,0,-1,1133,659,0,0
-84,365,0,0,0,0,0,0,0,0,0,-1,1140,659,0,0
-77,365,0,0,0,0,0,0,0,0,0,-1,1147,659,0,0
-70,365,0,0,0,0,0,0,0,0,0,-1,1154,659,0,0
-63,365,0,0,0,0,0,0,0,0,0,-1,1161,659,0,0
-56,365,0,0,0,0,0,0,0,0,0,-1,1168,659,0,0
-49,365,0,0,0,0,0,0,0,0,0,-1,1175,659,0,0
-42,365,0,0,0,0,0,0,0,0,0,-1,1182,659,0,0
-35,365,0,0,0,0,0,0,0,0,0,-1,1189,659,0,0
-28,365,0,0,0,0,0,0,0,0,0,-1,1196,659,0,0
-21,365,0,0,0,0,0,0,0,0,0,-1,1203,659,0,0
-14,365,0,0,0,0,0,0,0,0,0,-1,1210,659,0,0
-7,365,0,0,0,0,0,0,0,0,0,-1,1217,659,0,0
0,365,0,0,0,0,0,0,0,0,0,-1,1224,659,0,0
7,365,0,0,0,0,0,0,0,0,0,-1,1231,659,0,0
14,365,0,0,0,0,0,0,0,0,0,-1,1238,659,0,0
21,365,0,0,0,0,0,0,0,0,0,-1,1245,659,0,0
28,365,0,0,0,0,0,0,0,0,0,-1,1252,659,0,0
35,365,0,0,0,0,0,0,0,0,0,-1,1259,659,0,0
42,365,0,0,0,0,0,0,0,0,0,-1,1266,659,0,0
49,365,0,0,0,0,0,0,0,0,0,-1,1273,659,0,0
56,365,0,0,0,0,0,0,0,0,0,-1,1280,659,0,0
63,365,0,0,0,0,0,0,0,0,0,-1,1287,659,0,0
70,365,0,0,0,0,0,0,0,0,0,-1,1294,659,0,0
77,365,0,0,0,0,0,0,0,0,0,-1,1301,659,0,0
84,365,0,0,0,0,0,0,0,0,0,-1,1308,659,0,0
91,365,0,0,0,0,0,0,0,0,0,-1,1315,659,0,0
98,365,0,0,0,0,0,0,0,0,0,-1,1322,659,0,0
105,365,0,0,0,0,0,0,0,0,0,-1,1329,659,0,0
112,365,0,0,0,0,0,0,0,0,0,-1,1336,659,0,0
119,365,0,0,0,0,0,0,0,0,0,-1,1343,659,0,0
126,365,0,0,0,0,0,0,0,0,0,-1,1350,659,0,0
133,365,0,0,0,0,0,0,0,0,0,-1,1357,659,0,0
140,365,0,0,0,0,0,0,0,0,0,-1,1364,659,0,0
147,365,0,0,0,0,0,0,0,0,0,-1,1371,659,0,0
154,365,0,0,0,0,0,0,0,0,0,-1,1378,659,0,0
161,365,0,0,0,0,0,0,0,0,0,-1,1385,659,0,0
168,365,0,0,0,0,0,0,0,0,0,-1,1392,659,0,0
175,365,0,0,0,0,0,0,0,0,0,-1,1399,659,0,0
182,365,0,0,0,0,0,0,0,0,0,-1,1406,659,0,0
189,365,0,0,0,0,0,0,0,0,0,-1,1413,659,0,0
196,365,0,0,0,0,0,0,0,0,0,-1,1420,659,0,0
203,365,0,0,0,0,0,0,0,0,0,-1,1427,659,0,0
210,365,0,0,0,0,0,0,0,0,0,-1,1434,659,0,0
217,365,0,0,0,0,0,0,0,0,0,-1,1441,659,0,0
224,365,0,0,0,0,0,0,0,0,0,-1,1448,659,0,0
231,365,0,0,0,0,0,0,0,0,0,-1,1455,659,0,0
238,365,0,0,0,0,0,0,0,0,0,-1,1462,659,0,0
245,365,0,0,0,0,0,0,0,0,0,-1,1469,659,0,0
252,365,0,0,0,0,0,0,0,0,0,-1,1476,659,0,0
259,365,0,0,0,0,0,0,0,0,0,-1,1483,659,0,0
266,365,0,0,0,0,0,0,0,0,0,-1,1490,659,0,0
273,365,0,0,0,0,0,0,0,0,0,-1,1497,659,0,0
280,365,0,0,0,0,0,0,0,0,0,-1,1504,659,0,0
287,365,0,0,0,0,0,0,0,0,0,-1,1511,659,0,0
294,365,0,0,0,0,0,0,0,0,0,-1,1518,659,0,0
301,365,0,0,0,0,0,0,0,0,0,-1,1525,659,0,0
308,365,0,0,0,0,0,0,0,0,0,-1,1532,659,0,0
315,365,0,0,0,0,0,0,0,0,0,-1,1539,659,0,0
322,365,0,0,0,0,0,0,0,0,0,-1,1546,659,0,0
329,365,0,0,0,0,0,0,0,0,0,-1,1553,659,0,0
336,365,0,0,0,0,0,0,0,0,0,-1,1560,659,0,0
343,365,0,0,0,0,0,0,0,0,0,-1,1567,659,0,0
350,365,0,0,0,0,0,0,0,0,0,-1,1574,659,0,0
357,365,0,0,0,0,0,0,0,0,0,-1,1581,659,0,0
364,365,0,0,0,0,0,0,0,0,0,-1,1588,659,0,0
371,365,0,0,0,0,0,0,0,0,0,-1,1595,659,0,0
378,365,0,0,0,0,0,0,0,0,0,-1,1602,659,0,0
385,365,0,0,0,0,0,0,0,0,0,-1,1609,659,0,0
392,365,0,0,0,0,0,0,0,0,0,-1,1616,659,0,0
399,365,0,0,0,0,0,0,0,0,0,-1,1623,659,0,0
406,365,0,0,0,0,0,0,0,0,0,-1,1630,659,0,0
413,365,0,0,0,0,0,0,0,0,0,-1,1637,659,0,0
420,365,0,0,0,0,0,0,0,0,0,-1,1644,659,0,0
427,365,0,0,0,0,0,0,0,0,0,-1,1651,659,0,0
434,365,0,0,0,0,0,0,0,0,0,-1,1658,659,0,0
441,365,0,0,0,0,0,0,0,0,0,-1,1665,659,0,0
448,365,0,0,0,0,0,0,0,0,0,-1,1672,659,0,0
455,365,0,0,0,0,0,0,0,0,0,-1,1679,659,0,0
462,365,0,0,0,0,0,0,0,0,0,-1,1686,659,0,0
469,365,0,0,0,0,0,0,0,0,0,-1,1693,659,0,0
476,365,0,0,0,0,0,0,0,0,0,-1,1700,659,0,0
483,365,0,0,0,0,0,0,0,0,0,-1,1707,659,0,0
490,365,8.39551,0.471252,0,0,0,0,0,0,0,-1,1714,659,8.39551,-0.471241
497,365,9.89233,1.35394,0,0,0,0,0,0,0,-1,1721,659,9.89237,-1.35396
504,365,10.1414,1.18005,0,0,0,0,0,0,0,-1,1728,659,10.1413,-1.18004
511,365,10.5151,0.993896,0,0,0,0,0,0,0,-1,1735,659,10.5152,-0.993894
518,365,11.2029,0.398132,0,0,0,0,0,0,0,-1,1742,659,11.2029,-0.398136
525,365,15.5748,3.85303,0,0,0,0,0,0,0,-1,1749,659,15.5748,-3.85303
532,365,11.2446,1.00629,0,0,0,0,0,0,0,-1,1756,659,11.2446,-1.00631
539,365,12.6301,1.03204,0,0,0,0,0,0,0,-1,1763,659,12.6302,-1.03204
546,365,11.647,0.84198,0,0,0,0,0,0,0,-1,1770,659,11.6469,-0.841955
553,365,12.028,-0.558899,0,0,0,0,0,0,0,-1,1777,659,12.028,0.558873
560,365,14.5372,-4.55548,0,0,0,0,0,0,0,-1,1784,659,14.5373,4.55547
567,365,20.5676,-7.53888,0,0,0,0,0,0,0,-1,1791,659,20.5676,7.53887
574,365,22.0972,-7.62512,0,0,0,0,0,0,0,-1,1798,659,22.0971,7.62513
581,365,21.9037,-7.17975,0,0,0,0,0,0,0,-1,1805,659,21.9037,7.17972
588,365,21.8223,-6.78961,0.00236459,2.43734e-05,-0.000226862,0.00238638,2.58419e-06,-0.0957524,0.00159006,0.0216901,1812,659,21.8223,6.78961
595,365,21.8508,-6.14795,0.0017245,0.000343319,-8.08758e-05,0.00172922,0.0003386,-0.05829,0.00105816,0.0134161,1819,659,21.8508,6.14794
602,365,21.8289,-5.58069,0.00145255,0.000755391,0.000216812,0.00151447,0.000693465,0.278216,0.000875415,0.0153888,1826,659,21.8289,5.58068
609,365,21.7808,-5.01111,0.00136569,0.0012252,0.00059444,0.00189402,0.000696868,0.726587,0.00110615,0.0160771,1833,659,21.7808,5.01111
616,365,21.7886,-4.44177,0.00123354,0.00156874,0.000796821,0.0022154,0.000586885,0.889053,0.00132535,0.0176375,1840,659,21.7886,4.44177
623,365,21.8137,-3.88458,0.00109314,0.0018726,0.000903331,0.00246669,0.000499057,0.989053,0.00150593,0.0121474,1847,659,21.8137,3.88456
630,365,21.7744,-3.33844,0.000681823,0.00203075,0.00082166,0.00241932,0.00029326,1.12906,0.00152455,0.0163198,1854,659,21.7744,3.33843
637,365,21.7429,-2.80042,-5.14047e-05,0.00201431,0.000446502,0.00210669,-0.000143784,1.36678,0.00145476,0.021582,1861,659,21.743,2.80043
644,365,21.7457,-2.22345,-0.00122581,0.00183766,-0.000264462,0.00186032,-0.00124847,-1.48531,0.00180642,0.0212218,1868,659,21.7458,2.22347
651,365,21.881,-1.5351,0,0,0,0,0,0,0,-1,1875,659,21.881,1.53508
658,365,20.9567,-0.394592,0,0,0,0,0,0,0,-1,1882,659,20.9567,0.394603
665,365,14.0961,0.769043,0,0,0,0,0,0,0,-1,1889,659,14.0961,-0.769063
672,365,10.0579,2.15088,0,0,0,0,0,0,0,-1,1896,659,10.0579,-2.15088
679,365,10.9718,2.19208,0,0,0,0,0,0,0,-1,1903,659,10.9718,-2.19211
686,365,12.2134,2.17108,0,0,0,0,0,0,0,-1,1910,659,12.2134,-2.17109
693,365,13.7141,1.98279,0,0,0,0,0,0,0,-1,1917,659,13.7141,-1.98278
700,365,0,0,0,0,0,0,0,0,0,-1,1924,659,0,0
707,365,0,0,0,0,0,0,0,0,0,-1,1931,659,0,0
714,365,0,0,0,0,0,0,0,0,0,-1,1938,659,0,0
721,365,0,0,0,0,0,0,0,0,0,-1,1945,659,0,0
728,365,0,0,0,0,0,0,0,0,0,-1,1952,659,0,0
735,365,0,0,0,0,0,0,0,0,0,-1,1959,659,0,0
742,365,0,0,0,0,0,0,0,0,0,-1,1966,659,0,0
749,365,0,0,0,0,0,0,0,0,0,-1,1973,659,0,0
756,365,0,0,0,0,0,0,0,0,0,-1,1980,659,0,0
763,365,0,0,0,0,0,0,0,0,0,-1,1987,659,0,0
770,365,0,0,0,0,0,0,0,0,0,-1,1994,659,0,0
777,365,0,0,0,0,0,0,0,0,0,-1,2001,659,0,0
784,365,0,0,0,0,0,0,0,0,0,-1,2008,659,0,0
791,365,0,0,0,0,0,0,0,0,0,-1,2015,659,0,0
798,365,0,0,0,0,0,0,0,0,0,-1,2022,659,0,0
805,365,0,0,0,0,0,0,0,0,0,-1,2029,659,0,0
812,365,0,0,0,0,0,0,0,0,0,-1,2036,659,0,0
-700,358,0,0,0,0,0,0,0,0,0,-1,524,666,0,0
-693,358,0,0,0,0,0,0,0,0,0,-1,531,666,0,0
-686,358,0,0,0,0,0,0,0,0,0,-1,538,666,0,0
-679,358,0,0,0,0,0,0,0,0,0,-1,545,666,0,0
-672,358,0,0,0,0,0,0,0,0,0,-1,552,666,0,0
-665,358,0,0,0,0,0,0,0,0,0,-1,559,666,0,0
-658,358,0,0,0,0,0,0,0,0,0,-1,566,666,0,0
-651,358,0,0,0,0,0,0,0,0,0,-1,573,666,0,0
-644,358,0,0,0,0,0,0,0,0,0,-1,580,666,0,0
-637,358,0,0,0,0,0,0,0,0,0,-1,587,666,0,0
-630,358,0,0,0,0,0,0,0,0,0,-1,594,666,0,0
-623,358,0,0,0,0,0,0,0,0,0,-1,601,666,0,0
-616,358,0,0,0,0,0,0,0,0,0,-1,608,666,0,0
-609,358,0,0,0,0,0,0,0,0,0,-1,615,666,0,0
-602,358,0,0,0,0,0,0,0,0,0,-1,622,666,0,0
-595,358,0,0,0,0,0,0,0,0,0,-1,629,666,0,0
-588,358,0,0,0,0,0,0,0,0,0,-1,636,666,0,0
-581,358,-8.31616,1.61993,0,0,0,0,0,0,0,-1,643,666,-8.31614,-1.61993
-574,358,-8.22406,1.75385,0,0,0,0,0,0,0,-1,650,666,-8.22408,-1.75383
-567,358,-8.14215,1.91577,0,0,0,0,0,0,0,-1,657,666,-8.14214,-1.91579
-560,358,-10.6086,2.18872,0,0,0,0,0,0,0,-1,664,666,-10.6086,-2.18873
-553,358,-13.4767,1.09552,0,0,0,0,0,0,0,-1,671,666,-13.4767,-1.09551
-546,358,-13.3743,-0.185059,0,0,0,0,0,0,0,-1,678,666,-13.3743,0.185037
-539,358,-9.43884,-2.04785,0,0,0,0,0,0,0,-1,685,666,-9.43884,2.04785
-532,358,-12.4141,-2.36572,0,0,0,0,0,0,0,-1,692,666,-12.4141,2.3657
-525,358,-12.4014,-3.56982,0,0,0,0,0,0,0,-1,699,666,-12.4013,3.56982
-518,358,-12.4647,-3.84674,0,0,0,0,0,0,0,-1,706,666,-12.4647,3.84675
-511,358,-12.4893,-4.50928,0.00130273,0.00621203,-0.00338634,0.00793979,-0.000425038,-1.09901,0.00544041,0.0166705,713,666,-12.4893,4.50927
-504,358,-12.4928,-5.05554,0.00109959,0.00415961,-0.00229676,0.00538931,-0.000130119,-1.07922,0.00363703,0.0125164,720,666,-12.4928,5.05552
-497,358,-12.4966,-5.60742,0.00113959,0.00283115,-0.00167949,0.00386581,0.00010493,-1.01866,0.00254295,0.0121632,727,666,-12.4966,5.60744
-490,358,-12.5073,-6.14429,0.00102002,0.00139887,-0.00099379,0.00222112,0.000197759,-0.879573,0.00141943,0.0114248,734,666,-12.5073,6.1443
-483,358,-12.5466,-6.6557,0.00126681,0.00112665,-0.000963346,0.00216262,0.000230837,-0.749089,0.00137129,0.0107271,741,666,-12.5466,6.6557
-476,358,-12.5126,-7.1535,0.00163756,0.00104387,-0.00111871,0.00249814,0.000183288,-0.655714,0.00160782,0.0135632,748,666,-12.5126,7.15351
-469,358,-12.5428,-7.68793,0.00190555,0.000975417,-0.0012103,0.00273706,0.000143908,-0.601966,0.00177868,0.0171187,755,666,-12.5429,7.68796
-462,358,-12.6118,-8.24957,0.0020959,0.000988008,-0.00125278,0.00291174,0.000172167,-0.577236,0.00188639,0.0177701,762,666,-12.6118,8.24958
-455,358,-12.5427,-8.80823,0.00205424,0.000562425,-0.000905236,0.00248129,0.000135376,-0.440798,0.00161097,0.0390613,769,666,-12.5427,8.80825
-448,358,-12.361,-9.45721,0,0,0,0,0,0,0,-1,776,666,-12.361,9.45721
-441,358,-5.56293,-3.98041,0,0,0,0,0,0,0,-1,783,666,-5.56291,3.98043
-434,358,-5.21558,-4.43127,0,0,0,0,0,0,0,-1,790,666,-5.21559,4.43125
-427,358,-3.56189,-3.15729,0,0,0,0,0,0,0,-1,797,666,-3.56192,3.15729
-420,358,0.200195,1.08234,0,0,0,0,0,0,0,-1,804,666,0.200174,-1.08231
-413,358,0.0325317,0.161072,0,0,0,0,0,0,0,-1,811,666,0.0325501,-0.161098
-406,358,-3.85846,0.753113,0,0,0,0,0,0,0,-1,818,666,-3.85846,-0.753129
-399,358,-1.31213,0.190735,0,0,0,0,0,0,0,-1,825,666,-1.31215,-0.190763
-392,358,-3.73914,-0.832214,0,0,0,0,0,0,0,-1,832,666,-3.73915,0.832202
-385,358,-5.95178,-1.69141,0,0,0,0,0,0,0,-1,839,666,-5.9518,1.69143
-378,358,0,0,0,0,0,0,0,0,0,-1,846,666,0,0
-371,358,0,0,0,0,0,0,0,0,0,-1,853,666,0,0
-364,358,0,0,0,0,0,0,0,0,0,-1,860,666,0,0
-357,358,0,0,0,0,0,0,0,0,0,-1,867,666,0,0
-350,358,0,0,0,0,0,0,0,0,0,-1,874,666,0,0
-343,358,0,0,0,0,0,0,0,0,0,-1,881,666,0,0
-336,358,0,0,0,0,0,0,0,0,0,-1,888,666,0,0
-329,358,0,0,0,0,0,0,0,0,0,-1,895,666,0,0
-322,358,0,0,0,0,0,0,0,0,0,-1,902,666,0,0
-315,358,0,0,0,0,0,0,0,0,0,-1,909,666,0,0
-308,358,0,0,0,0,0,0,0,0,0,-1,916,666,0,0
-301,358,0,0,0,0,0,0,0,0,0,-1,923,666,0,0
-294,358,0,0,0,0,0,0,0,0,0,-1,930,666,0,0
-287,358,0,0,0,0,0,0,0,0,0,-1,937,666,0,0
-280,358,0,0,0,0,0,0,0,0,0,-1,944,666,0,0
-273,358,0,0,0,0,0,0,0,0,0,-1,951,666,0,0
-266,358,0,0,0,0,0,0,0,0,0,-1,958,666,0,0
-259,358,0,0,0,0,0,0,0,0,0,-1,965,666,0,0
-252,358,0,0,0,0,0,0,0,0,0,-1,972,666,0,0
-245,358,0,0,0,0,0,0,0,0,0,-1,979,666,0,0
-238,358,0,0,0,0,0,0,0,0,0,-1,986,666,0,0
-231,358,0,0,0,0,0,0,0,0,0,-1,993,666,0,0
-224,358,0,0,0,0,0,0,0,0,0,-1,1000,666,0,0
-217,358,0,0,0,0,0,0,0,0,0,-1,1007,666,0,0
-210,358,0,0,0,0,0,0,0,0,0,-1,1014,666,0,0
-203,358,0,0,0,0,0,0,0,0,0,-1,1021,666,0,0
-196,358,0,0,0,0,0,0,0,0,0,-1,1028,666,0,0
-189,358,0,0,0,0,0,0,0,0,0,-1,1035,666,0,0
-182,358,0,0,0,0,0,0,0,0,0,-1,1042,666,0,0
-175,358,0,0,0,0,0,0,0,0,0,-1,1049,666,0,0
-168,358,0,0,0,0,0,0,0,0,0,-1,1056,666,0,0
-161,358,0,0,0,0,0,0,0,0,0,-1,1063,666,0,0
-154,358,0,0,0,0,0,0,0,0,0,-1,1070,666,0,0
-147,358,0,0,0,0,0,0,0,0,0,-1,1077,666,0,0
-140,358,0,0,0,0,0,0,0,0,0,-1,1084,666,0,0
-133,358,0,0,0,0,0,0,0,0,0,-1,1091,666,0,0
-126,358,0,0,0,0,0,0,0,0,0,-1,1098,666,0,0
-119,358,0,0,0,0,0,0,0,0,0,-1,1105,666,0,0
-112,358,0,0,0,0,0,0,0,0,0,-1,1112,666,0,0
-105,358,0,0,0,0,0,0,0,0,0,-1,1119,666,0,0
-98,358,0,0,0,0,0,0,0,0,0,-1,1126,666,0,0
-91,358,0,0,0,0,0,0,0,0,0,-1,1133,666,0,0
-84,358,0,0,0,0,0,0,0,0,0,-1,1140,666,0,0
-77,358,0,0,0,0,0,0,0,0,0,-1,1147,666,0,0
-70,358,0,0,0,0,0,0,0,0,0,-1,1154,666,0,0
-63,358,0,0,0,0,0,0,0,0,0,-1,1161,666,0,0
-56,358,0,0,0,0,0,0,0,0,0,-1,1168,666,0,0
-49,358,0,0,0,0,0,0,0,0,0,-1,1175,666,0,0
-42,358,0,0,0,0,0,0,0,0,0,-1,1182,666,0,0
-35,358,0,0,0,0,0,0,0,0,0,-1,1189,666,0,0
-28,358,0,0,0,0,0,0,0,0,0,-1,1196,666,0,0
-21,358,0,0,0,0,0,0,0,0,0,-1,1203,666,0,0
-14,358,0,0,0,0,0,0,0,0,0,-1,1210,666,0,0
-7,358,0,0,0,0,0,0,0,0,0,-1,1217,666,0,0
0,358,0,0,0,0,0,0,0,0,0,-1,1224,666,0,0
7,358,0,0,0,0,0,0,0,0,0,-1,1231,666,0,0
14,358,0,0,0,0,0,0,0,0,0,-1,1238,666,0,0
21,358,0,0,0,0,0,0,0,0,0,-1,1245,666,0,0
28,358,0,0,0,0,0,0,0,0,0,-1,1252,666,0,0
35,358,0,0,0,0,0,0,0,0,0,-1,1259,666,0,0
42,358,0,0,0,0,0,0,0,0,0,-1,1266,666,0,0
49,358,0,0,0,0,0,0,0,0,0,-1,1273,666,0,0
56,358,0,0,0,0,0,0,0,0,0,-1,1280,666,0,0
63,358,0,0,0,0,0,0,0,0,0,-1,1287,666,0,0
70,358,0,0,0,0,0,0,0,0,0,-1,1294,666,0,0
77,358,0,0,0,0,0,0,0,0,0,-1,1301,666,0,0
84,358,0,0,0,0,0,0,0,0,0,-1,1308,666,0,0
91,358,0,0,0,0,0,0,0,0,0,-1,1315,666,0,0
98,358,0,0,0,0,0,0,0,0,0,-1,1322,666,0,0
105,358,0,0,0,0,0,0,0,0,0,-1,1329,666,0,0
112,358,0,0,0,0,0,0,0,0,0,-1,1336,666,0,0
119,358,0,0,0,0,0,0,0,0,0,-1,1343,666,0,0
126,358,0,0,0,0,0,0,0,0,0,-1,1350,666,0,0
133,358,0,0,0,0,0,0,0,0,0,-1,1357,666,0,0
140,358,0,0,0,0,0,0,0,0,0,-1,1364,666,0,0
147,358,0,0,0,0,0,0,0,0,0,-1,1371,666,0,0
154,358,0,0,0,0,0,0,0,0,0,-1,1378,666,0,0
161,358,0,0,0,0,0,0,0,0,0,-1,1385,666,0,0
168,358,0,0,0,0,0,0,0,0,0,-1,1392,666,0,0
175,358,0,0,0,0,0,0,0,0,0,-1,1399,666,0,0
182,358,0,0,0,0,0,0,0,0,0,-1,1406,666,0,0
189,358,0,0,0,0,0,0,0,0,0,-1,1413,666,0,0
196,358,0,0,0,0,0,0,0,0,0,-1,1420,666,0,0
203,358,0,0,0,0,0,0,0,0,0,-1,1427,666,0,0
210,358,0,0,0,0,0,0,0,0,0,-1,1434,666,0,0
217,358,0,0,0,0,0,0,0,0,0,-1,1441,666,0,0
224,358,0,0,0,0,0,0,0,0,0,-1,1448,666,0,0
231,358,0,0,0,0,0,0,0,0,0,-1,1455,666,0,0
238,358,0,0,0,0,0,0,0,0,0,-1,1462,666,0,0
245,358,0,0,0,0,0,0,0,0,0,-1,1469,666,0,0
252,358,0,0,0,0,0,0,0,0,0,-1,1476,666,0,0
259,358,0,0,0,0,0,0,0,0,0,-1,1483,666,0,0
266,358,0,0,0,0,0,0,0,0,0,-1,1490,666,0,0
273,358,0,0,0,0,0,0,0,0,0,-1,1497,666,0,0
280,358,0,0,0,0,0,0,0,0,0,-1,1504,666,0,0
287,358,0,0,0,0,0,0,0,0,0,-1,1511,666,0,0
294,358,0,0,0,0,0,0,0,0,0,-1,1518,666,0,0
301,358,0,0,0,0,0,0,0,0,0,-1,1525,666,0,0
308,358,0,0,0,0,0,0,0,0,0,-1,1532,666,0,0
315,358,0,0,0,0,0,0,0,0,0,-1,1539,666,0,0
322,358,0,0,0,0,0,0,0,0,0,-1,1546,666,0,0
329,358,0,0,0,0,0,0,0,0,0,-1,1553,666,0,0
336,358,0,0,0,0,0,0,0,0,0,-1,1560,666,0,0
343,358,0,0,0,0,0,0,0,0,0,-1,1567,666,0,0
350,358,0,0,0,0,0,0,0,0,0,-1,1574,666,0,0
357,358,0,0,0,0,0,0,0,0,0,-1,1581,666,0,0
364,358,0,0,0,0,0,0,0,0,0,-1,1588,666,0,0
371,358,0,0,0,0,0,0,0,0,0,-1,1595,666,0,0
378,358,0,0,0,0,0,0,0,0,0,-1,1602,666,0,0
385,358,0,0,0,0,0,0,0,0,0,-1,1609,666,0,0
392,358,0,0,0,0,0,0,0,0,0,-1,1616,666,0,0
399,358,0,0,0,0,0,0,0,0,0,-1,1623,666,0,0
406,358,0,0,0,0,0,0,0,0,0,-1,1630,666,0,0
413,358,0,0,0,0,0,0,0,0,0,-1,1637,666,0,0
420,358,0,0,0,0,0,0,0,0,0,-1,1644,666,0,0
427,358,0,0,0,0,0,0,0,0,0,-1,1651,666,0,0
434,358,0,0,0,0,0,0,0,0,0,-1,1658,666,0,0
441,358,0,0,0,0,0,0,0,0,0,-1,1665,666,0,0
448,358,0,0,0,0,0,0,0,0,0,-1,1672,666,0,0
455,358,0,0,0,0,0,0,0,0,0,-1,1679,666,0,0
462,358,0,0,0,0,0,0,0,0,0,-1,1686,666,0,0
469,358,0,0,0,0,0,0,0,0,0,-1,1693,666,0,0
476,358,0,0,0,0,0,0,0,0,0,-1,1700,666,0,0
483,358,0,0,0,0,0,0,0,0,0,-1,1707,666,0,0
490,358,0,0,0,0,0,0,0,0,0,-1,1714,666,0,0
497,358,8.57239,1.1322,0,0,0,0,0,0,0,-1,1721,666,8.57234,-1.13219
504,358,10.5972,0.832947,0,0,0,0,0,0,0,-1,1728,666,10.5972,-0.832968
511,358,10.6873,0.868469,0,0,0,0,0,0,0,-1,1735,666,10.6872,-0.868484
518,358,16.5884,2.34894,0,0,0,0,0,0,0,-1,1742,666,16.5884,-2.34894
525,358,15.7626,3.65344,0,0,0,0,0,0,0,-1,1749,666,15.7626,-3.65342
532,358,14.9368,4.95789,0,0,0,0,0,0,0,-1,1756,666,14.9367,-4.9579
539,358,15.1597,3.42694,0,0,0,0,0,0,0,-1,1763,666,15.1597,-3.42692
546,358,12.3792,1.53558,0,0,0,0,0,0,0,-1,1770,666,12.3792,-1.5356
553,358,11.6584,1.26172,0,0,0,0,0,0,0,-1,1777,666,11.6585,-1.26175
560,358,10.8234,1.43042,0,0,0,0,0,0,0,-1,1784,666,10.8233,-1.43041
567,358,10.1333,-0.955139,0,0,0,0,0,0,0,-1,1791,666,10.1333,0.955132
574,358,14.7886,-2.69293,0,0,0,0,0,0,0,-1,1798,666,14.7885,2.6929
581,358,20.1738,-6.76135,0,0,0,0,0,0,0,-1,1805,666,20.1738,6.76137
588,358,22.3933,-6.70795,0,0,0,0,0,0,0,-1,1812,666,22.3933,6.70796
595,358,22.3989,-6.12207,0.00153955,0.00109765,-0.000557991,0.00191874,0.000718457,-0.596885,0.00111937,0.0156609,1819,666,22.3989,6.12209
602,358,22.3785,-5.53784,0.0012848,0.000456976,-4.90181e-05,0.00128769,0.000454084,-0.0589387,0.000754136,0.0133908,1826,666,22.3785,5.53782
609,358,22.3275,-4.99988,0.00120693,0.000859227,0.000293479,0.00137419,0.000691972,0.517997,0.000793395,0.0166222,1833,666,22.3276,4.99988
616,358,22.3165,-4.44476,0.00110108,0.00116196,0.000503519,0.00163596,0.000627081,0.815591,0.000953056,0.0158053,1840,666,22.3166,4.44474
623,358,22.3496,-3.89111,0.000879208,0.00138188,0.000545746,0.00173139,0.000529705,1.00119,0.00102441,0.0142045,1847,666,22.3496,3.89109
630,358,22.3193,-3.34662,0.000390988,0.00144726,0.000412304,0.00158914,0.000249108,1.23937,0.000986926,0.0177659,1854,666,22.3194,3.34664
637,358,22.2579,-2.81476,-0.000425497,0.00133769,-6.72666e-06,0.00133772,-0.000425523,-1.56698,0.00106245,0.0243536,1861,666,22.258,2.81474
644,358,22.2878,-2.23932,-0.00164932,0.00104095,-0.000748162,0.00123502,-0.00184339,-1.317,0.00178885,0.0196978,1868,666,22.2879,2.2393
651,358,22.4236,-1.5473,-0.0034807,0.000497296,-0.00191713,0.00127082,-0.00425422,-1.1873,0.00334131,0.0336157,1875,666,22.4236,1.54732
658,358,22.2208,-0.89917,0,0,0,0,0,0,0,-1,1882,666,22.2208,0.899187
665,358,21.4069,-0.5271,0,0,0,0,0,0,0,-1,1889,666,21.4068,0.527096
672,358,12.4299,1.47272,0,0,0,0,0,0,0,-1,1896,666,12.4299,-1.4727
679,358,12.1294,2.19702,0,0,0,0,0,0,0,-1,1903,666,12.1294,-2.19703
686,358,11.9557,2.2002,0,0,0,0,0,0,0,-1,1910,666,11.9557,-2.20021
693,358,13.188,2.52203,0,0,0,0,0,0,0,-1,1917,666,13.188,-2.52202
700,358,0,0,0,0,0,0,0,0,0,-1,1924,666,0,0
707,358,0,0,0,0,0,0,0,0,0,-1,1931,666,0,0
714,358,0,0,0,0,0,0,0,0,0,-1,1938,666,0,0
721,358,0,0,0,0,0,0,0,0,0,-1,1945,666,0,0
728,358,0,0,0,0,0,0,0,0,0,-1,1952,666,0,0
735,358,0,0,0,0,0,0,0,0,0,-1,1959,666,0,0
742,358,0,0,0,0,0,0,0,0,0,-1,1966,666,0,0
749,358,0,0,0,0,0,0,0,0,0,-1,1973,666,0,0
756,358,0,0,0,0,0,0,0,0,0,-1,1980,666,0,0
763,358,0,0,0,0,0,0,0,0,0,-1,1987,666,0,0
770,358,0,0,0,0,0,0,0,0,0,-1,1994,666,0,0
777,358,0,0,0,0,0,0,0,0,0,-1,2001,666,0,0
784,358,0,0,0,0,0,0,0,0,0,-1,2008,666,0,0
791,358,0,0,0,0,0,0,0,0,0,-1,2015,666,0,0
798,358,0,0,0,0,0,0,0,0,0,-1,2022,666,0,0
805,358,0,0,0,0,0,0,0,0,0,-1,2029,666,0,0
812,358,0,0,0,0,0,0,0,0,0,-1,2036,666,0,0
-700,351,0,0,0,0,0,0,0,0,0,-1,524,673,0,0
-693,351,0,0,0,0,0,0,0,0,0,-1,531,673,0,0
-686,351,0,0,0,0,0,0,0,0,0,-1,538,673,0,0
-679,351,0,0,0,0,0,0,0,0,0,-1,545,673,0,0
-672,351,0,0,0,0,0,0,0,0,0,-1,552,673,0,0
-665,351,0,0,0,0,0,0,0,0,0,-1,559,673,0,0
-658,351,0,0,0,0,0,0,0,0,0,-1,566,673,0,0
-651,351,0,0,0,0,0,0,0,0,0,-1,573,673,0,0
-644,351,0,0,0,0,0,0,0,0,0,-1,580,673,0,0
-637,351,0,0,0,0,0,0,0,0,0,-1,587,673,0,0
-630,351,0,0,0,0,0,0,0,0,0,-1,594,673,0,0
-623,351,0,0,0,0,0,0,0,0,0,-1,601,673,0,0
-616,351,0,0,0,0,0,0,0,0,0,-1,608,673,0,0
-609,351,0,0,0,0,0,0,0,0,0,-1,615,673,0,0
-602,351,0,0,0,0,0,0,0,0,0,-1,622,673,0,0
-595,351,0,0,0,0,0,0,0,0,0,-1,629,673,0,0
-588,351,0,0,0,0,0,0,0,0,0,-1,636,673,0,0
-581,351,-9.0647,1.71906,0,0,0,0,0,0,0,-1,643,673,-9.06472,-1.71908
-574,351,-8.23584,2.64764,0,0,0,0,0,0,0,-1,650,673,-8.23584,-2.64764
-567,351,-10.8027,4.56836,0,0,0,0,0,0,0,-1,657,673,-10.8027,-4.56839
-560,351,-14.2001,2.17084,0,0,0,0,0,0,0,-1,664,673,-14.2002,-2.17086
-553,351,-13.4979,0.779541,0,0,0,0,0,0,0,-1,671,673,-13.4978,-0.779519
-546,351,-14.0065,0.73645,0,0,0,0,0,0,0,-1,678,673,-14.0065,-0.736473
-539,351,-12.8123,-1.46393,0,0,0,0,0,0,0,-1,685,673,-12.8123,1.46395
-532,351,-12.7971,-2.8905,0,0,0,0,0,0,0,-1,692,673,-12.7971,2.89049
-525,351,-12.9219,-3.5722,0.00252897,0.012042,-0.00666435,0.0154731,-0.000902202,-1.09534,0.0106289,0.0468111,699,673,-12.9219,3.57219
-518,351,-13.0181,-3.9054,0.00174805,0.00799234,-0.00434515,0.0102207,-0.000480324,-1.09693,0.00697943,0.0187092,706,673,-13.0181,3.9054
-511,351,-13.0043,-4.49152,0.00132024,0.00530723,-0.00284886,0.00679081,-0.000163336,-1.09068,0.00458262,0.0120443,713,673,-13.0043,4.4915
-504,351,-13.027,-5.03461,0.00113715,0.00343299,-0.0018715,0.00448058,8.9562e-05,-1.06049,0.00295765,0.0115537,720,673,-13.0271,5.03463
-497,351,-13.0405,-5.56433,0.00119437,0.00226255,-0.00135134,0.00318151,0.000275409,-0.973592,0.00203543,0.0118112,727,673,-13.0404,5.56436
-490,351,-13.0418,-6.09686,0.00113081,0.00106717,-0.000821414,0.00192102,0.00027696,-0.76604,0.00119907,0.0115342,734,673,-13.0418,6.09689
-483,351,-13.059,-6.61407,0.00142184,0.000969409,-0.000920665,0.00214368,0.000247576,-0.66493,0.00135416,0.013078,741,673,-13.059,6.61404
-476,351,-13.0992,-7.13379,0.00177899,0.00104457,-0.00117327,0.00264118,0.000182388,-0.633737,0.00170325,0.0120817,748,673,-13.0992,7.13379
-469,351,-13.1159,-7.64856,0.00205498,0.00108837,-0.00135772,0.00301285,0.000130496,-0.614407,0.00196651,0.0143602,755,673,-13.1159,7.64853
-462,351,-13.1366,-8.22522,0.00235728,0.00133718,-0.00159212,0.00351905,0.000175408,-0.630385,0.00228981,0.0278983,762,673,-13.1366,8.22519
-455,351,-12.9103,-8.90936,0,0,0,0,0,0,0,-1,769,673,-12.9103,8.90934
-448,351,-6.61456,-4.38654,0,0,0,0,0,0,0,-1,776,673,-6.61456,4.38654
-441,351,-4.31567,-2.3009,0,0,0,0,0,0,0,-1,783,673,-4.31565,2.30089
-434,351,-3.81708,-2.28003,0,0,0,0,0,0,0,-1,790,673,-3.81706,2.28006
-427,351,-2.05157,-2.7785,0,0,0,0,0,0,0,-1,797,673,-2.05157,2.77848
-420,351,-1.06989,-2.43665,0,0,0,0,0,0,0,-1,804,673,-1.06991,2.43663
-413,351,-0.392334,-2.06671,0,0,0,0,0,0,0,-1,811,673,-0.392363,2.06672
-406,351,-1.86316,-2.58105,0,0,0,0,0,0,0,-1,818,673,-1.86313,2.58106
-399,351,1.00952,-1.53455,0,0,0,0,0,0,0,-1,825,673,1.00954,1.53457
-392,351,-1.02197,0.877136,0,0,0,0,0,0,0,-1,832,673,-1.02195,-0.877143
-385,351,-1.47205,1.04437,0,0,0,0,0,0,0,-1,839,673,-1.47207,-1.04435
-378,351,0,0,0,0,0,0,0,0,0,-1,846,673,0,0
-371,351,0,0,0,0,0,0,0,0,0,-1,853,673,0,0
-364,351,0,0,0,0,0,0,0,0,0,-1,860,673,0,0
-357,351,0,0,0,0,0,0,0,0,0,-1,867,673,0,0
-350,351,0,0,0,0,0,0,0,0,0,-1,874,673,0,0
-343,351,0,0,0,0,0,0,0,0,0,-1,881,673,0,0
-336,351,0,0,0,0,0,0,0,0,0,-1,888,673,0,0
-329,351,0,0,0,0,0,0,0,0,0,-1,895,673,0,0
-322,351,0,0,0,0,0,0,0,0,0,-1,902,673,0,0
-315,351,0,0,0,0,0,0,0,0,0,-1,909,673,0,0
-308,351,0,0,0,0,0,0,0,0,0,-1,916,673,0,0
-301,351,0,0,0,0,0,0,0,0,0,-1,923,673,0,0
-294,351,0,0,0,0,0,0,0,0,0,-1,930,673,0,0
-287,351,0,0,0,0,0,0,0,0,0,-1,937,673,0,0
-280,351,0,0,0,0,0,0,0,0,0,-1,944,673,0,0
-273,351,0,0,0,0,0,0,0,0,0,-1,951,673,0,0
-266,351,0,0,0,0,0,0,0,0,0,-1,958,673,0,0
-259,351,0,0,0,0,0,0,0,0,0,-1,965,673,0,0
-252,351,0,0,0,0,0,0,0,0,0,-1,972,673,0,0
-245,351,0,0,0,0,0,0,0,0,0,-1,979,673,0,0
-238,351,0,0,0,0,0,0,0,0,0,-1,986,673,0,0
-231,351,0,0,0,0,0,0,0,0,0,-1,993,673,0,0
-224,351,0,0,0,0,0,0,0,0,0,-1,1000,673,0,0
-217,351,0,0,0,0,0,0,0,0,0,-1,1007,673,0,0
-210,351,0,0,0,0,0,0,0,0,0,-1,1014,673,0,0
-203,351,0,0,0,0,0,0,0,0,0,-1,1021,673,0,0
-196,351,0,0,0,0,0,0,0,0,0,-1,1028,673,0,0
-189,351,0,0,0,0,0,0,0,0,0,-1,1035,673,0,0
-182,351,0,0,0,0,0,0,0,0,0,-1,1042,673,0,0
-175,351,0,0,0,0,0,0,0,0,0,-1,1049,673,0,0
-168,351,0,0,0,0,0,0,0,0,0,-1,1056,673,0,0
-161,351,0,0,0,0,0,0,0,0,0,-1,1063,673,0,0
-154,351,0,0,0,0,0,0,0,0,0,-1,1070,673,0,0
-147,351,0,0,0,0,0,0,0,0,0,-1,1077,673,0,0
-140,351,0,0,0,0,0,0,0,0,0,-1,1084,673,0,0
-133,351,0,0,0,0,0,0,0,0,0,-1,1091,673,0,0
-126,351,0,0,0,0,0,0,0,0,0,-1,1098,673,0,0
-119,351,0,0,0,0,0,0,0,0,0,-1,1105,673,0,0
-112,351,0,0,0,0,0,0,0,0,0,-1,1112,673,0,0
-105,351,0,0,0,0,0,0,0,0,0,-1,1119,673,0,0
-98,351,0,0,0,0,0,0,0,0,0,-1,1126,673,0,0
-91,351,0,0,0,0,0,0,0,0,0,-1,1133,673,0,0
-84,351,0,0,0,0,0,0,0,0,0,-1,1140,673,0,0
-77,351,0,0,0,0,0,0,0,0,0,-1,1147,673,0,0
-70,351,0,0,0,0,0,0,0,0,0,-1,1154,673,0,0
-63,351,0,0,0,0,0,0,0,0,0,-1,1161,673,0,0
-56,351,0,0,0,0,0,0,0,0,0,-1,1168,673,0,0
-49,351,0,0,0,0,0,0,0,0,0,-1,1175,673,0,0
-42,351,0,0,0,0,0,0,0,0,0,-1,1182,673,0,0
-35,351,0,0,0,0,0,0,0,0,0,-1,1189,673,0,0
-28,351,0,0,0,0,0,0,0,0,0,-1,1196,673,0,0
-21,351,0,0,0,0,0,0,0,0,0,-1,1203,673,0,0
-14,351,0,0,0,0,0,0,0,0,0,-1,1210,673,0,0
-7,351,0,0,0,0,0,0,0,0,0,-1,1217,673,0,0
0,351,0,0,0,0,0,0,0,0,0,-1,1224,673,0,0
7,351,0,0,0,0,0,0,0,0,0,-1,1231,673,0,0
14,351,0,0,0,0,0,0,0,0,0,-1,1238,673,0,0
21,351,0,0,0,0,0,0,0,0,0,-1,1245,673,0,0
28,351,0,0,0,0,0,0,0,0,0,-1,1252,673,0,0
35,351,0,0,0,0,0,0,0,0,0,-1,1259,673,0,0
42,351,0,0,0,0,0,0,0,0,0,-1,1266,673,0,0
49,351,0,0,0,0,0,0,0,0,0,-1,1273,673,0,0
56,351,0,0,0,0,0,0,0,0,0,-1,1280,673,0,0
63,351,0,0,0,0,0,0,0,0,0,-1,1287,673,0,0
70,351,0,0,0,0,0,0,0,0,0,-1,1294,673,0,0
77,351,0,0,0,0,0,0,0,0,0,-1,1301,673,0,0
84,351,0,0,0,0,0,0,0,0,0,-1,1308,673,0,0
91,351,0,0,0,0,0,0,0,0,0,-1,1315,673,0,0
98,351,0,0,0,0,0,0,0,0,0,-1,1322,673,0,0
105,351,0,0,0,0,0,0,0,0,0,-1,1329,673,0,0
112,351,0,0,0,0,0,0,0,0,0,-1,1336,673,0,0
119,351,0,0,0,0,0,0,0,0,0,-1,1343,673,0,0
126,351,0,0,0,0,0,0,0,0,0,-1,1350,673,0,0
133,351,0,0,0,0,0,0,0,0,0,-1,1357,673,0,0
140,351,0,0,0,0,0,0,0,0,0,-1,1364,673,0,0
147,351,0,0,0,0,0,0,0,0,0,-1,1371,673,0,0
154,351,0,0,0,0,0,0,0,0,0,-1,1378,673,0,0
161,351,0,0,0,0,0,0,0,0,0,-1,1385,673,0,0
168,351,0,0,0,0,0,0,0,0,0,-1,1392,673,0,0
175,351,0,0,0,0,0,0,0,0,0,-1,1399,673,0,0
182,351,0,0,0,0,0,0,0,0,0,-1,1406,673,0,0
189,351,0,0,0,0,0,0,0,0,0,-1,1413,673,0,0
196,351,0,0,0,0,0,0,0,0,0,-1,1420,673,0,0
203,351,0,0,0,0,0,0,0,0,0,-1,1427,673,0,0
210,351,0,0,0,0,0,0,0,0,0,-1,1434,673,0,0
217,351,0,0,0,0,0,0,0,0,0,-1,1441,673,0,0
224,351,0,0,0,0,0,0,0,0,0,-1,1448,673,0,0
231,351,0,0,0,0,0,0,0,0,0,-1,1455,673,0,0
238,351,0,0,0,0,0,0,0,0,0,-1,1462,673,0,0
245,351,0,0,0,0,0,0,0,0,0,-1,1469,673,0,0
252,351,0,0,0,0,0,0,0,0,0,-1,1476,673,0,0
259,351,0,0,0,0,0,0,0,0,0,-1,1483,673,0,0
266,351,0,0,0,0,0,0,0,0,0,-1,1490,673,0,0
273,351,0,0,0,0,0,0,0,0,0,-1,1497,673,0,0
280,351,0,0,0,0,0,0,0,0,0,-1,1504,673,0,0
287,351,0,0,0,0,0,0,0,0,0,-1,1511,673,0,0
294,351,0,0,0,0,0,0,0,0,0,-1,1518,673,0,0
301,351,0,0,0,0,0,0,0,0,0,-1,1525,673,0,0
308,351,0,0,0,0,0,0,0,0,0,-1,1532,673,0,0
315,351,0,0,0,0,0,0,0,0,0,-1,1539,673,0,0
322,351,0,0,0,0,0,0,0,0,0,-1,1546,673,0,0
329,351,0,0,0,0,0,0,0,0,0,-1,1553,673,0,0
336,351,0,0,0,0,0,0,0,0,0,-1,1560,673,0,0
343,351,0,0,0,0,0,0,0,0,0,-1,1567,673,0,0
350,351,0,0,0,0,0,0,0,0,0,-1,1574,673,0,0
357,351,0,0,0,0,0,0,0,0,0,-1,1581,673,0,0
364,351,0,0,0,0,0,0,0,0,0,-1,1588,673,0,0
371,351,0,0,0,0,0,0,0,0,0,-1,1595,673,0,0
378,351,0,0,0,0,0,0,0,0,0,-1,1602,673,0,0
385,351,0,0,0,0,0,0,0,0,0,-1,1609,673,0,0
392,351,0,0,0,0,0,0,0,0,0,-1,1616,673,0,0
399,351,0,0,0,0,0,0,0,0,0,-1,1623,673,0,0
406,351,0,0,0,0,0,0,0,0,0,-1,1630,673,0,0
413,351,0,0,0,0,0,0,0,0,0,-1,1637,673,0,0
420,351,0,0,0,0,0,0,0,0,0,-1,1644,673,0,0
427,351,0,0,0,0,0,0,0,0,0,-1,1651,673,0,0
434,351,0,0,0,0,0,0,0,0,0,-1,1658,673,0,0
441,351,0,0,0,0,0,0,0,0,0,-1,1665,673,0,0
448,351,0,0,0,0,0,0,0,0,0,-1,1672,673,0,0
455,351,0,0,0,0,0,0,0,0,0,-1,1679,673,0,0
462,351,0,0,0,0,0,0,0,0,0,-1,1686,673,0,0
469,351,0,0,0,0,0,0,0,0,0,-1,1693,673,0,0
476,351,0,0,0,0,0,0,0,0,0,-1,1700,673,0,0
483,351,0,0,0,0,0,0,0,0,0,-1,1707,673,0,0
490,351,0,0,0,0,0,0,0,0,0,-1,1714,673,0,0
497,351,0,0,0,0,0,0,0,0,0,-1,1721,673,0,0
504,351,10.8842,1.61615,0,0,0,0,0,0,0,-1,1728,673,10.8842,-1.61618
511,351,15.4548,0.0236816,0,0,0,0,0,0,0,-1,1735,673,15.4549,-0.0236664
518,351,16.7448,2.49268,0,0,0,0,0,0,0,-1,1742,673,16.7448,-2.49269
525,351,16.0701,3.43225,0,0,0,0,0,0,0,-1,1749,673,16.07,-3.43227
532,351,32.3822,3.03021,0,0,0,0,0,0,0,-1,1756,673,32.3822,-3.03019
539,351,15.3387,3.54486,0,0,0,0,0,0,0,-1,1763,673,15.3387,-3.54485
546,351,13.9387,4.59357,0,0,0,0,0,0,0,-1,1770,673,13.9388,-4.59359
553,351,12.0682,2.02832,0,0,0,0,0,0,0,-1,1777,673,12.0683,-2.02831
560,351,12.0173,0.55304,0,0,0,0,0,0,0,-1,1784,673,12.0174,-0.553028
567,351,10.7827,0.130188,0,0,0,0,0,0,0,-1,1791,673,10.7827,-0.130183
574,351,13.405,-1.09204,0,0,0,0,0,0,0,-1,1798,673,13.405,1.09207
581,351,15.2351,-3.06049,0,0,0,0,0,0,0,-1,1805,673,15.2351,3.06046
588,351,22.875,-6.75616,0,0,0,0,0,0,0,-1,1812,673,22.8749,6.75614
595,351,22.9729,-6.1543,0.00132761,0.00184946,-0.000852167,0.00247975,0.000697317,-0.933962,0.00147667,0.0374943,1819,673,22.9729,6.1543
602,351,22.9502,-5.55298,0.00104779,0.000242475,-0.000230023,0.00110886,0.000181404,-0.259511,0.000686804,0.018603,1826,673,22.9501,5.55297
609,351,22.9376,-5.00977,0.00101632,0.000528898,5.33226e-05,0.00102209,0.000523133,0.1077,0.000590157,0.0175132,1833,673,22.9376,5.00977
616,351,22.8912,-4.44476,0.00098207,0.000786174,0.000285277,0.00118575,0.000582498,0.620032,0.000684625,0.0142126,1840,673,22.8912,4.44478
623,351,22.9182,-3.89282,0.000729771,0.000927864,0.000279966,0.00112579,0.000531847,0.955418,0.000650303,0.0147537,1847,673,22.9182,3.89283
630,351,22.8853,-3.36646,0.000234018,0.00092167,0.000119286,0.000941774,0.000213914,1.40382,0.000570083,0.0246374,1854,673,22.8852,3.36643
637,351,22.8479,-2.78534,-0.000588061,0.000773338,-0.000300351,0.000836656,-0.00065138,-1.36302,0.000861335,0.0289708,1861,673,22.8479,2.78532
644,351,22.8457,-2.18719,-0.00178523,0.000440822,-0.00100943,0.000830383,-0.00217479,-1.20248,0.00179198,0.0216091,1868,673,22.8457,2.18717
651,351,22.8673,-1.56592,-0.0035037,-6.41463e-05,-0.00205227,0.00089366,-0.0044615,-1.13414,0.00331265,0.0169015,1875,673,22.8673,1.56589
658,351,22.8153,-1.005,-0.00595447,-0.000878619,-0.00361278,0.000998574,-0.00783166,-1.09159,0.00558381,0.0333414,1882,673,22.8153,1.00502
665,351,22.3503,-0.748718,-0.00920312,-0.00205501,-0.00563589,0.00104455,-0.0123027,-1.06798,0.00857121,0.0436275,1889,673,22.3503,0.748711
672,351,22.0186,-0.232483,0,0,0,0,0,0,0,-1,1896,673,22.0186,0.232492
679,351,14.1252,1.85681,0,0,0,0,0,0,0,-1,1903,673,14.1253,-1.85682
686,351,13.0294,2.1189,0,0,0,0,0,0,0,-1,1910,673,13.0294,-2.11892
693,351,13.5187,2.34595,0,0,0,0,0,0,0,-1,1917,673,13.5187,-2.34596
700,351,14.5629,-2.40173,0,0,0,0,0,0,0,-1,1924,673,14.5629,2.40172
707,351,0,0,0,0,0,0,0,0,0,-1,1931,673,0,0
714,351,0,0,0,0,0,0,0,0,0,-1,1938,673,0,0
721,351,0,0,0,0,0,0,0,0,0,-1,1945,673,0,0
728,351,0,0,0,0,0,0,0,0,0,-1,1952,673,0,0
735,351,0,0,0,0,0,0,0,0,0,-1,1959,673,0,0
742,351,0,0,0,0,0,0,0,0,0,-1,1966,673,0,0
749,351,0,0,0,0,0,0,0,0,0,-1,1973,673,0,0
756,351,0,0,0,0,0,0,0,0,0,-1,1980,673,0,0
763,351,0,0,0,0,0,0,0,0,0,-1,1987,673,0,0
770,351,0,0,0,0,0,0,0,0,0,-1,1994,673,0,0
777,351,0,0,0,0,0,0,0,0,0,-1,2001,673,0,0
784,351,0,0,0,0,0,0,0,0,0,-1,2008,673,0,0
791,351,0,0,0,0,0,0,0,0,0,-1,2015,673,0,0
798,351,0,0,0,0,0,0,0,0,0,-1,2022,673,0,0
805,351,0,0,0,0,0,0,0,0,0,-1,2029,673,0,0
812,351,0,0,0,0,0,0,0,0,0,-1,2036,673,0,0
-700,344,0,0,0,0,0,0,0,0,0,-1,524,680,0,0
-693,344,0,0,0,0,0,0,0,0,0,-1,531,680,0,0
-686,344,0,0,0,0,0,0,0,0,0,-1,538,680,0,0
-679,344,0,0,0,0,0,0,0,0,0,-1,545,680,0,0
-672,344,0,0,0,0,0,0,0,0,0,-1,552,680,0,0
-665,344,0,0,0,0,0,0,0,0,0,-1,559,680,0,0
-658,344,0,0,0,0,0,0,0,0,0,-1,566,680,0,0
-651,344,0,0,0,0,0,0,0,0,0,-1,573,680,0,0
-644,344,0,0,0,0,0,0,0,0,0,-1,580,680,0,0
-637,344,0,0,0,0,0,0,0,0,0,-1,587,680,0,0
-630,344,0,0,0,0,0,0,0,0,0,-1,594,680,0,0
-623,344,0,0,0,0,0,0,0,0,0,-1,601,680,0,0
-616,344,0,0,0,0,0,0,0,0,0,-1,608,680,0,0
-609,344,0,0,0,0,0,0,0,0,0,-1,615,680,0,0
-602,344,0,0,0,0,0,0,0,0,0,-1,622,680,0,0
-595,344,0,0,0,0,0,0,0,0,0,-1,629,680,0,0
-588,344,-9.27826,1.47302,0,0,0,0,0,0,0,-1,636,680,-9.27829,-1.473
-581,344,-10.0098,1.71753,0,0,0,0,0,0,0,-1,643,680,-10.0098,-1.7175
-574,344,-10.2208,3.04871,0,0,0,0,0,0,0,-1,650,680,-10.2208,-3.04869
-567,344,-14.3779,2.29016,0,0,0,0,0,0,0,-1,657,680,-14.3779,-2.29014
-560,344,-14.1238,1.8374,0,0,0,0,0,0,0,-1,664,680,-14.1238,-1.83743
-553,344,-14.7884,2.00116,0,0,0,0,0,0,0,-1,671,680,-14.7884,-2.00115
-546,344,-14.2758,0.240479,0,0,0,0,0,0,0,-1,678,680,-14.2758,-0.240465
-539,344,-13.4968,-1.88678,0,0,0,0,0,0,0,-1,685,680,-13.4968,1.88676
-532,344,-13.3492,-2.91455,0.00346437,0.0150762,-0.00835908,0.0194479,-0.000907274,-1.08893,0.013278,0.0370703,692,680,-13.3493,2.91458
-525,344,-13.5714,-3.31384,0.00236777,0.0103361,-0.00561138,0.0132339,-0.000529998,-1.09411,0.00900447,0.036477,699,680,-13.5713,3.31384
-518,344,-13.543,-3.91461,0.00168813,0.00680062,-0.00363127,0.00868516,-0.000196403,-1.09209,0.00585667,0.0200036,706,680,-13.543,3.91461
-511,344,-13.5458,-4.48627,0.00129509,0.00434733,-0.00230488,0.00558554,5.68843e-05,-1.07782,0.00370488,0.0178518,713,680,-13.5458,4.48627
-504,344,-13.5357,-5.03149,0.0011374,0.00263189,-0.00144657,0.00351281,0.000256467,-1.0238,0.00226124,0.0181079,720,680,-13.5357,5.03147
-497,344,-13.5679,-5.56415,0.00120294,0.0015901,-0.00101618,0.00243098,0.000362065,-0.879519,0.00151446,0.0157703,727,680,-13.5679,5.56414
-490,344,-13.5875,-6.09192,0.00121983,0.000713831,-0.000695852,0.00170725,0.000226412,-0.611037,0.0010707,0.0149197,734,680,-13.5875,6.09191
-483,344,-13.5775,-6.59198,0.00155294,0.000792219,-0.000943549,0.00218991,0.000155251,-0.593803,0.00141104,0.0150719,741,680,-13.5774,6.59196
-476,344,-13.6122,-7.11273,0.00185192,0.00102879,-0.00129232,0.00279662,8.40778e-05,-0.631241,0.00183703,0.0156896,748,680,-13.6122,7.11274
-469,344,-13.6448,-7.66266,0.00211207,0.00121373,-0.00159567,0.00332059,5.21028e-06,-0.648202,0.00221199,0.0179118,755,680,-13.6448,7.66267
-462,344,-13.6318,-8.21313,0,0,0,0,0,0,0,-1,762,680,-13.6318,8.21314
-455,344,-12.1653,-7.99176,0,0,0,0,0,0,0,-1,769,680,-12.1653,7.99174
-448,344,-5.67657,-2.72864,0,0,0,0,0,0,0,-1,776,680,-5.6766,2.72863
-441,344,-5.09229,-2.34167,0,0,0,0,0,0,0,-1,783,680,-5.09229,2.34168
-434,344,-4.28778,-2.08807,0,0,0,0,0,0,0,-1,790,680,-4.28778,2.08809
-427,344,-3.06506,-1.45404,0,0,0,0,0,0,0,-1,797,680,-3.06505,1.45402
-420,344,-1.96582,-1.57574,0,0,0,0,0,0,0,-1,804,680,-1.96579,1.57574
-413,344,-0.817993,-1.4751,0,0,0,0,0,0,0,-1,811,680,-0.818017,1.47511
-406,344,-0.00714111,-1.25189,0,0,0,0,0,0,0,-1,818,680,-0.00714956,1.25191
-399,344,0.240051,-1.75769,0,0,0,0,0,0,0,-1,825,680,0.240079,1.75767
-392,344,1.11353,-2.05615,0,0,0,0,0,0,0,-1,832,680,1.11351,2.05616
-385,344,0,0,0,0,0,0,0,0,0,-1,839,680,0,0
-378,344,0,0,0,0,0,0,0,0,0,-1,846,680,0,0
-371,344,0,0,0,0,0,0,0,0,0,-1,853,680,0,0
-364,344,0,0,0,0,0,0,0,0,0,-1,860,680,0,0
-357,344,0,0,0,0,0,0,0,0,0,-1,867,680,0,0
-350,344,0,0,0,0,0,0,0,0,0,-1,874,680,0,0
-343,344,0,0,0,0,0,0,0,0,0,-1,881,680,0,0
-336,344,0,0,0,0,0,0,0,0,0,-1,888,680,0,0
-329,344,0,0,0,0,0,0,0,0,0,-1,895,680,0,0
-322,344,0,0,0,0,0,0,0,0,0,-1,902,680,0,0
-315,344,0,0,0,0,0,0,0,0,0,-1,909,680,0,0
-308,344,0,0,0,0,0,0,0,0,0,-1,916,680,0,0
-301,344,0,0,0,0,0,0,0,0,0,-1,923,680,0,0
-294,344,0,0,0,0,0,0,0,0,0,-1,930,680,0,0
-287,344,0,0,0,0,0,0,0,0,0,-1,937,680,0,0
-280,344,0,0,0,0,0,0,0,0,0,-1,944,680,0,0
-273,344,0,0,0,0,0,0,0,0,0,-1,951,680,0,0
-266,344,0,0,0,0,0,0,0,0,0,-1,958,680,0,0
-259,344,0,0,0,0,0,0,0,0,0,-1,965,680,0,0
-252,344,0,0,0,0,0,0,0,0,0,-1,972,680,0,0
-245,344,0,0,0,0,0,0,0,0,0,-1,979,680,0,0
-238,344,0,0,0,0,0,0,0,0,0,-1,986,680,0,0
-231,344,0,0,0,0,0,0,0,0,0,-1,993,680,0,0
-224,344,0,0,0,0,0,0,0,0,0,-1,1000,680,0,0
-217,344,0,0,0,0,0,0,0,0,0,-1,1007,680,0,0
-210,344,0,0,0,0,0,0,0,0,0,-1,1014,680,0,0
-203,344,0,0,0,0,0,0,0,0,0,-1,1021,680,0,0
-196,344,0,0,0,0,0,0,0,0,0,-1,1028,680,0,0
-189,344,0,0,0,0,0,0,0,0,0,-1,1035,680,0,0
-182,344,0,0,0,0,0,0,0,0,0,-1,1042,680,0,0
-175,344,0,0,0,0,0,0,0,0,0,-1,1049,680,0,0
-168,344,0,0,0,0,0,0,0,0,0,-1,1056,680,0,0
-161,344,0,0,0,0,0,0,0,0,0,-1,1063,680,0,0
-154,344,0,0,0,0,0,0,0,0,0,-1,1070,680,0,0
-147,344,0,0,0,0,0,0,0,0,0,-1,1077,680,0,0
-140,344,0,0,0,0,0,0,0,0,0,-1,1084,680,0,0
-133,344,0,0,0,0,0,0,0,0,0,-1,1091,680,0,0
-126,344,0,0,0,0,0,0,0,0,0,-1,1098,680,0,0
-119,344,0,0,0,0,0,0,0,0,0,-1,1105,680,0,0
-112,344,0,0,0,0,0,0,0,0,0,-1,1112,680,0,0
-105,344,0,0,0,0,0,0,0,0,0,-1,1119,680,0,0
-98,344,0,0,0,0,0,0,0,0,0,-1,1126,680,0,0
-91,344,0,0,0,0,0,0,0,0,0,-1,1133,680,0,0
-84,344,0,0,0,0,0,0,0,0,0,-1,1140,680,0,0
-77,344,0,0,0,0,0,0,0,0,0,-1,1147,680,0,0
-70,344,0,0,0,0,0,0,0,0,0,-1,1154,680,0,0
-63,344,0,0,0,0,0,0,0,0,0,-1,1161,680,0,0
-56,344,0,0,0,0,0,0,0,0,0,-1,1168,680,0,0
-49,344,0,0,0,0,0,0,0,0,0,-1,1175,680,0,0
-42,344,0,0,0,0,0,0,0,0,0,-1,1182,680,0,0
-35,344,0,0,0,0,0,0,0,0,0,-1,1189,680,0,0
-28,344,0,0,0,0,0,0,0,0,0,-1,1196,680,0,0
-21,344,0,0,0,0,0,0,0,0,0,-1,1203,680,0,0
-14,344,0,0,0,0,0,0,0,0,0,-1,1210,680,0,0
-7,344,0,0,0,0,0,0,0,0,0,-1,1217,680,0,0
0,344,0,0,0,0,0,0,0,0,0,-1,1224,680,0,0
7,344,0,0,0,0,0,0,0,0,0,-1,1231,680,0,0
14,344,0,0,0,0,0,0,0,0,0,-1,1238,680,0,0
21,344,0,0,0,0,0,0,0,0,0,-1,1245,680,0,0
28,344,0,0,0,0,0,0,0,0,0,-1,1252,680,0,0
35,344,0,0,0,0,0,0,0,0,0,-1,1259,680,0,0
42,344,0,0,0,0,0,0,0,0,0,-1,1266,680,0,0
49,344,0,0,0,0,0,0,0,0,0,-1,1273,680,0,0
56,344,0,0,0,0,0,0,0,0,0,-1,1280,680,0,0
63,344,0,0,0,0,0,0,0,0,0,-1,1287,680,0,0
70,344,0,0,0,0,0,0,0,0,0,-1,1294,680,0,0
77,344,0,0,0,0,0,0,0,0,0,-1,1301,680,0,0
84,344,0,0,0,0,0,0,0,0,0,-1,1308,680,0,0
91,344,0,0,0,0,0,0,0,0,0,-1,1315,680,0,0
98,344,0,0,0,0,0,0,0,0,0,-1,1322,680,0,0
105,344,0,0,0,0,0,0,0,0,0,-1,1329,680,0,0
112,344,0,0,0,0,0,0,0,0,0,-1,1336,680,0,0
119,344,0,0,0,0,0,0,0,0,0,-1,1343,680,0,0
126,344,0,0,0,0,0,0,0,0,0,-1,1350,680,0,0
133,344,0,0,0,0,0,0,0,0,0,-1,1357,680,0,0
140,344,0,0,0,0,0,0,0,0,0,-1,1364,680,0,0
147,344,0,0,0,0,0,0,0,0,0,-1,1371,680,0,0
154,344,0,0,0,0,0,0,0,0,0,-1,1378,680,0,0
161,344,0,0,0,0,0,0,0,0,0,-1,1385,680,0,0
168,344,0,0,0,0,0,0,0,0,0,-1,1392,680,0,0
175,344,0,0,0,0,0,0,0,0,0,-1,1399,680,0,0
182,344,0,0,0,0,0,0,0,0,0,-1,1406,680,0,0
189,344,0,0,0,0,0,0,0,0,0,-1,1413,680,0,0
196,344,0,0,0,0,0,0,0,0,0,-1,1420,680,0,0
203,344,0,0,0,0,0,0,0,0,0,-1,1427,680,0,0
210,344,0,0,0,0,0,0,0,0,0,-1,1434,680,0,0
217,344,0,0,0,0,0,0,0,0,0,-1,1441,680,0,0
224,344,0,0,0,0,0,0,0,0,0,-1,1448,680,0,0
231,344,0,0,0,0,0,0,0,0,0,-1,1455,680,0,0
238,344,0,0,0,0,0,0,0,0,0,-1,1462,680,0,0
245,344,0,0,0,0,0,0,0,0,0,-1,1469,680,0,0
252,344,0,0,0,0,0,0,0,0,0,-1,1476,680,0,0
259,344,0,0,0,0,0,0,0,0,0,-1,1483,680,0,0
266,344,0,0,0,0,0,0,0,0,0,-1,1490,680,0,0
273,344,0,0,0,0,0,0,0,0,0,-1,1497,680,0,0
280,344,0,0,0,0,0,0,0,0,0,-1,1504,680,0,0
287,344,0,0,0,0,0,0,0,0,0,-1,1511,680,0,0
294,344,0,0,0,0,0,0,0,0,0,-1,1518,680,0,0
301,344,0,0,0,0,0,0,0,0,0,-1,1525,680,0,0
308,344,0,0,0,0,0,0,0,0,0,-1,1532,680,0,0
315,344,0,0,0,0,0,0,0,0,0,-1,1539,680,0,0
322,344,0,0,0,0,0,0,0,0,0,-1,1546,680,0,0
329,344,0,0,0,0,0,0,0,0,0,-1,1553,680,0,0
336,344,0,0,0,0,0,0,0,0,0,-1,1560,680,0,0
343,344,0,0,0,0,0,0,0,0,0,-1,1567,680,0,0
350,344,0,0,0,0,0,0,0,0,0,-1,1574,680,0,0
357,344,0,0,0,0,0,0,0,0,0,-1,1581,680,0,0
364,344,0,0,0,0,0,0,0,0,0,-1,1588,680,0,0
371,344,0,0,0,0,0,0,0,0,0,-1,1595,680,0,0
378,344,0,0,0,0,0,0,0,0,0,-1,1602,680,0,0
385,344,0,0,0,0,0,0,0,0,0,-1,1609,680,0,0
392,344,0,0,0,0,0,0,0,0,0,-1,1616,680,0,0
399,344,0,0,0,0,0,0,0,0,0,-1,1623,680,0,0
406,344,0,0,0,0,0,0,0,0,0,-1,1630,680,0,0
413,344,0,0,0,0,0,0,0,0,0,-1,1637,680,0,0
420,344,0,0,0,0,0,0,0,0,0,-1,1644,680,0,0
427,344,0,0,0,0,0,0,0,0,0,-1,1651,680,0,0
434,344,0,0,0,0,0,0,0,0,0,-1,1658,680,0,0
441,344,0,0,0,0,0,0,0,0,0,-1,1665,680,0,0
448,344,0,0,0,0,0,0,0,0,0,-1,1672,680,0,0
455,344,0,0,0,0,0,0,0,0,0,-1,1679,680,0,0
462,344,0,0,0,0,0,0,0,0,0,-1,1686,680,0,0
469,344,0,0,0,0,0,0,0,0,0,-1,1693,680,0,0
476,344,0,0,0,0,0,0,0,0,0,-1,1700,680,0,0
483,344,0,0,0,0,0,0,0,0,0,-1,1707,680,0,0
490,344,0,0,0,0,0,0,0,0,0,-1,1714,680,0,0
497,344,0,0,0,0,0,0,0,0,0,-1,1721,680,0,0
504,344,0,0,0,0,0,0,0,0,0,-1,1728,680,0,0
511,344,15.4819,0.452637,0,0,0,0,0,0,0,-1,1735,680,15.4819,-0.452656
518,344,17.1357,2.31207,0,0,0,0,0,0,0,-1,1742,680,17.1358,-2.31207
525,344,31.5201,2.6217,0,0,0,0,0,0,0,-1,1749,680,31.5201,-2.62168
532,344,31.9766,2.61047,0,0,0,0,0,0,0,-1,1756,680,31.9765,-2.6105
539,344,32.4379,2.65314,0,0,0,0,0,0,0,-1,1763,680,32.4378,-2.65316
546,344,14.6722,4.30243,0,0,0,0,0,0,0,-1,1770,680,14.6722,-4.30241
553,344,14.8136,4.35681,0,0,0,0,0,0,0,-1,1777,680,14.8136,-4.35679
560,344,11.9363,2.14185,0,0,0,0,0,0,0,-1,1784,680,11.9362,-2.14182
567,344,11.397,0.925842,0,0,0,0,0,0,0,-1,1791,680,11.397,-0.92583
574,344,10.0004,0.504639,0,0,0,0,0,0,0,-1,1798,680,10.0004,-0.504645
581,344,13.6709,-0.969604,0,0,0,0,0,0,0,-1,1805,680,13.6709,0.969629
588,344,16.1447,-3.15948,0,0,0,0,0,0,0,-1,1812,680,16.1447,3.15946
595,344,23.4767,-6.21136,0,0,0,0,0,0,0,-1,1819,680,23.4766,6.21139
602,344,23.6548,-5.49713,0.00231878,0.000567714,-0.000431118,0.00241917,0.000467326,-0.228777,0.00148178,0.0459551,1826,680,23.6548,5.49713
609,344,23.5212,-4.96899,0.00162337,0.000555993,-0.000109146,0.00163442,0.000544947,-0.100865,0.000960929,0.0166685,1833,680,23.5213,4.96897
616,344,23.4944,-4.41241,0.00113054,0.000630015,0.000206341,0.00120463,0.000555919,0.344752,0.000696182,0.0207515,1840,680,23.4943,4.41242
623,344,23.5087,-3.86316,0.000687594,0.000669221,0.000234189,0.000912777,0.000444038,0.765795,0.000527056,0.0182673,1847,680,23.5087,3.86314
630,344,23.4576,-3.34106,0.000231429,0.000601113,7.0684e-05,0.000614167,0.000218375,1.38817,0.000359487,0.0243306,1854,680,23.4576,3.34105
637,344,23.4242,-2.78027,-0.000565573,0.000428619,-0.000325382,0.000525642,-0.000662596,-1.28101,0.000687547,0.0241211,1861,680,23.4242,2.78025
644,344,23.413,-2.18042,-0.00169834,9.64591e-05,-0.000970745,0.000521054,-0.00212294,-1.15848,0.0016172,0.0166959,1868,680,23.413,2.1804
651,344,23.4027,-1.58514,-0.00327928,-0.000345672,-0.00187254,0.000566167,-0.00419111,-1.11764,0.00300066,0.0118669,1875,680,23.4027,1.58516
658,344,23.3949,-0.966553,-0.00545713,-0.000982101,-0.00314001,0.000636042,-0.00707528,-1.09496,0.00494253,0.0226679,1882,680,23.3949,0.966528
665,344,23.2679,-0.458069,-0.00831374,-0.00185604,-0.00475596,0.000663552,-0.0108333,-1.08361,0.00745326,0.0366659,1889,680,23.2679,0.458079
672,344,23.293,-0.0687256,-0.0121118,-0.00301351,-0.00701314,0.000796696,-0.015922,-1.07312,0.01089,0.0392639,1896,680,23.2929,0.0687236
679,344,23.6669,0.260864,0,0,0,0,0,0,0,-1,1903,680,23.6669,-0.260887
686,344,15.024,1.82709,0,0,0,0,0,0,0,-1,1910,680,15.024,-1.82706
693,344,12.4362,-1.42346,0,0,0,0,0,0,0,-1,1917,680,12.4361,1.42348
700,344,17.5396,2.61206,0,0,0,0,0,0,0,-1,1924,680,17.5396,-2.61204
707,344,18.5829,3.29352,0,0,0,0,0,0,0,-1,1931,680,18.5828,-3.2935
714,344,0,0,0,0,0,0,0,0,0,-1,1938,680,0,0
721,344,0,0,0,0,0,0,0,0,0,-1,1945,680,0,0
728,344,0,0,0,0,0,0,0,0,0,-1,1952,680,0,0
735,344,0,0,0,0,0,0,0,0,0,-1,1959,680,0,0
742,344,0,0,0,0,0,0,0,0,0,-1,1966,680,0,0
749,344,0,0,0,0,0,0,0,0,0,-1,1973,680,0,0
756,344,0,0,0,0,0,0,0,0,0,-1,1980,680,0,0
763,344,0,0,0,0,0,0,0,0,0,-1,1987,680,0,0
770,344,0,0,0,0,0,0,0,0,0,-1,1994,680,0,0
777,344,0,0,0,0,0,0,0,0,0,-1,2001,680,0,0
784,344,0,0,0,0,0,0,0,0,0,-1,2008,680,0,0
791,344,0,0,0,0,0,0,0,0,0,-1,2015,680,0,0
798,344,0,0,0,0,0,0,0,0,0,-1,2022,680,0,0
805,344,0,0,0,0,0,0,0,0,0,-1,2029,680,0,0
812,344,0,0,0,0,0,0,0,0,0,-1,2036,680,0,0
-700,337,0,0,0,0,0,0,0,0,0,-1,524,687,0,0
-693,337,0,0,0,0,0,0,0,0,0,-1,531,687,0,0
-686,337,0,0,0,0,0,0,0,0,0,-1,538,687,0,0
-679,337,0,0,0,0,0,0,0,0,0,-1,545,687,0,0
-672,337,0,0,0,0,0,0,0,0,0,-1,552,687,0,0
-665,337,0,0,0,0,0,0,0,0,0,-1,559,687,0,0
-658,337,0,0,0,0,0,0,0,0,0,-1,566,687,0,0
-651,337,0,0,0,0,0,0,0,0,0,-1,573,687,0,0
-644,337,0,0,0,0,0,0,0,0,0,-1,580,687,0,0
-637,337,0,0,0,0,0,0,0,0,0,-1,587,687,0,0
-630,337,0,0,0,0,0,0,0,0,0,-1,594,687,0,0
-623,337,0,0,0,0,0,0,0,0,0,-1,601,687,0,0
-616,337,0,0,0,0,0,0,0,0,0,-1,608,687,0,0
-609,337,0,0,0,0,0,0,0,0,0,-1,615,687,0,0
-602,337,0,0,0,0,0,0,0,0,0,-1,622,687,0,0
-595,337,0,0,0,0,0,0,0,0,0,-1,629,687,0,0
-588,337,-10.8413,1.27863,0,0,0,0,0,0,0,-1,636,687,-10.8413,-1.27861
-581,337,-11.2157,1.31567,0,0,0,0,0,0,0,-1,643,687,-11.2157,-1.3157
-574,337,-6.03339,2.0321,0,0,0,0,0,0,0,-1,650,687,-6.03337,-2.03213
-567,337,-13.8102,1.56787,0,0,0,0,0,0,0,-1,657,687,-13.8102,-1.56789
-560,337,-15.5435,2.34247,0,0,0,0,0,0,0,-1,664,687,-15.5435,-2.34247
-553,337,-14.7052,0.96582,0,0,0,0,0,0,0,-1,671,687,-14.7052,-0.965827
-546,337,-14.3722,-0.54364,0.00530374,0.0239225,-0.0133627,0.0308989,-0.00167266,-1.08964,0.0211788,0.0464344,678,687,-14.3722,0.543666
-539,337,-13.9495,-2.12622,0.00373535,0.0173902,-0.0095753,0.0223229,-0.00119734,-1.0951,0.0152966,0.038364,685,687,-13.9495,2.12623
-532,337,-13.9828,-2.86292,0.00264459,0.0123488,-0.00671437,0.0157807,-0.00078738,-1.09828,0.0107925,0.0272506,692,687,-13.9829,2.86289
-525,337,-14.0836,-3.37738,0.00188908,0.00836308,-0.00448094,0.0106539,-0.00040176,-1.0982,0.00724025,0.0169576,699,687,-14.0835,3.37736
-518,337,-14.0901,-3.909,0.00139595,0.00536161,-0.00283106,0.00683516,-7.75892e-05,-1.09089,0.00458285,0.0230959,706,687,-14.0902,3.90901
-511,337,-14.093,-4.46863,0.0011358,0.00320189,-0.00169025,0.00414979,0.000187899,-1.0597,0.00270607,0.0247053,713,687,-14.093,4.46865
-504,337,-14.0616,-5.03613,0.00104432,0.00170324,-0.000943852,0.00237348,0.000374082,-0.953317,0.00147354,0.0242682,720,687,-14.0616,5.03611
-497,337,-14.0862,-5.55591,0.00113466,0.00083634,-0.000590661,0.00159471,0.000376297,-0.661717,0.000962543,0.016624,727,687,-14.0862,5.55591
-490,337,-14.12,-6.07947,0.00136132,0.000378306,-0.000469119,0.00154926,0.000190363,-0.381048,0.000975598,0.0144559,734,687,-14.12,6.07949
-483,337,-14.1212,-6.60797,0.00185915,0.000646082,-0.000818859,0.00227164,0.00023359,-0.466635,0.00144288,0.0147739,741,687,-14.1212,6.608
-476,337,-14.1248,-7.15131,0.00228058,0.00100887,-0.00116314,0.00297033,0.000319128,-0.535257,0.00188288,0.0149958,748,687,-14.1248,7.1513
-469,337,-14.1181,-7.82703,0.00284245,0.00125317,-0.00143557,0.00368864,0.00040698,-0.53262,0.00233529,0.0474553,755,687,-14.1181,7.82702
-462,337,-13.7659,-8.40094,0,0,0,0,0,0,0,-1,762,687,-13.7659,8.40092
-455,337,-6.00574,-3.12933,0,0,0,0,0,0,0,-1,769,687,-6.00576,3.12934
-448,337,-5.30627,-2.07202,0,0,0,0,0,0,0,-1,776,687,-5.30628,2.07205
-441,337,-4.24762,-1.49597,0,0,0,0,0,0,0,-1,783,687,-4.24762,1.49598
-434,337,-6.86908,1.37531,0,0,0,0,0,0,0,-1,790,687,-6.86908,-1.3753
-427,337,-9.92004,2.487,0,0,0,0,0,0,0,-1,797,687,-9.92002,-2.48701
-420,337,-2.95996,-1.76697,0,0,0,0,0,0,0,-1,804,687,-2.95998,1.76696
-413,337,-1.29169,-1.99487,0,0,0,0,0,0,0,-1,811,687,-1.29171,1.9949
-406,337,-1.02356,-1.89563,0,0,0,0,0,0,0,-1,818,687,-1.02357,1.89564
-399,337,-0.472839,-2.21338,0,0,0,0,0,0,0,-1,825,687,-0.472837,2.2134
-392,337,0,0,0,0,0,0,0,0,0,-1,832,687,0,0
-385,337,0,0,0,0,0,0,0,0,0,-1,839,687,0,0
-378,337,0,0,0,0,0,0,0,0,0,-1,846,687,0,0
-371,337,0,0,0,0,0,0,0,0,0,-1,853,687,0,0
-364,337,0,0,0,0,0,0,0,0,0,-1,860,687,0,0
-357,337,0,0,0,0,0,0,0,0,0,-1,867,687,0,0
-350,337,0,0,0,0,0,0,0,0,0,-1,874,687,0,0
-343,337,0,0,0,0,0,0,0,0,0,-1,881,687,0,0
-336,337,0,0,0,0,0,0,0,0,0,-1,888,687,0,0
-329,337,0,0,0,0,0,0,0,0,0,-1,895,687,0,0
-322,337,0,0,0,0,0,0,0,0,0,-1,902,687,0,0
-315,337,0,0,0,0,0,0,0,0,0,-1,909,687,0,0
-308,337,0,0,0,0,0,0,0,0,0,-1,916,687,0,0
-301,337,0,0,0,0,0,0,0,0,0,-1,923,687,0,0
-294,337,0,0,0,0,0,0,0,0,0,-1,930,687,0,0
-287,337,0,0,0,0,0,0,0,0,0,-1,937,687,0,0
-280,337,0,0,0,0,0,0,0,0,0,-1,944,687,0,0
-273,337,0,0,0,0,0,0,0,0,0,-1,951,687,0,0
-266,337,0,0,0,0,0,0,0,0,0,-1,958,687,0,0
-259,337,0,0,0,0,0,0,0,0,0,-1,965,687,0,0
-252,337,0,0,0,0,0,0,0,0,0,-1,972,687,0,0
-245,337,0,0,0,0,0,0,0,0,0,-1,979,687,0,0
-238,337,0,0,0,0,0,0,0,0,0,-1,986,687,0,0
-231,337,0,0,0,0,0,0,0,0,0,-1,993,687,0,0
-224,337,0,0,0,0,0,0,0,0,0,-1,1000,687,0,0
-217,337,0,0,0,0,0,0,0,0,0,-1,1007,687,0,0
-210,337,0,0,0,0,0,0,0,0,0,-1,1014,687,0,0
-203,337,0,0,0,0,0,0,0,0,0,-1,1021,687,0,0
-196,337,0,0,0,0,0,0,0,0,0,-1,1028,687,0,0
-189,337,0,0,0,0,0,0,0,0,0,-1,1035,687,0,0
-182,337,0,0,0,0,0,0,0,0,0,-1,1042,687,0,0
-175,337,0,0,0,0,0,0,0,0,0,-1,1049,687,0,0
-168,337,0,0,0,0,0,0,0,0,0,-1,1056,687,0,0
-161,337,0,0,0,0,0,0,0,0,0,-1,1063,687,0,0
-154,337,0,0,0,0,0,0,0,0,0,-1,1070,687,0,0
-147,337,0,0,0,0,0,0,0,0,0,-1,1077,687,0,0
-140,337,0,0,0,0,0,0,0,0,0,-1,1084,687,0,0
-133,337,0,0,0,0,0,0,0,0,0,-1,1091,687,0,0
-126,337,0,0,0,0,0,0,0,0,0,-1,1098,687,0,0
-119,337,0,0,0,0,0,0,0,0,0,-1,1105,687,0,0
-112,337,0,0,0,0,0,0,0,0,0,-1,1112,687,0,0
-105,337,0,0,0,0,0,0,0,0,0,-1,1119,687,0,0
-98,337,0,0,0,0,0,0,0,0,0,-1,1126,687,0,0
-91,337,0,0,0,0,0,0,0,0,0,-1,1133,687,0,0
-84,337,0,0,0,0,0,0,0,0,0,-1,1140,687,0,0
-77,337,0,0,0,0,0,0,0,0,0,-1,1147,687,0,0
-70,337,0,0,0,0,0,0,0,0,0,-1,1154,687,0,0
-63,337,0,0,0,0,0,0,0,0,0,-1,1161,687,0,0
-56,337,0,0,0,0,0,0,0,0,0,-1,1168,687,0,0
-49,337,0,0,0,0,0,0,0,0,0,-1,1175,687,0,0
-42,337,0,0,0,0,0,0,0,0,0,-1,1182,687,0,0
-35,337,0,0,0,0,0,0,0,0,0,-1,1189,687,0,0
-28,337,0,0,0,0,0,0,0,0,0,-1,1196,687,0,0
-21,337,0,0,0,0,0,0,0,0,0,-1,1203,687,0,0
-14,337,0,0,0,0,0,0,0,0,0,-1,1210,687,0,0
-7,337,0,0,0,0,0,0,0,0,0,-1,1217,687,0,0
0,337,0,0,0,0,0,0,0,0,0,-1,1224,687,0,0
7,337,0,0,0,0,0,0,0,0,0,-1,1231,687,0,0
14,337,0,0,0,0,0,0,0,0,0,-1,1238,687,0,0
21,337,0,0,0,0,0,0,0,0,0,-1,1245,687,0,0
28,337,0,0,0,0,0,0,0,0,0,-1,1252,687,0,0
35,337,0,0,0,0,0,0,0,0,0,-1,1259,687,0,0
42,337,0,0,0,0,0,0,0,0,0,-1,1266,687,0,0
49,337,0,0,0,0,0,0,0,0,0,-1,1273,687,0,0
56,337,0,0,0,0,0,0,0,0,0,-1,1280,687,0,0
63,337,0,0,0,0,0,0,0,0,0,-1,1287,687,0,0
70,337,0,0,0,0,0,0,0,0,0,-1,1294,687,0,0
77,337,0,0,0,0,0,0,0,0,0,-1,1301,687,0,0
84,337,0,0,0,0,0,0,0,0,0,-1,1308,687,0,0
91,337,0,0,0,0,0,0,0,0,0,-1,1315,687,0,0
98,337,0,0,0,0,0,0,0,0,0,-1,1322,687,0,0
105,337,0,0,0,0,0,0,0,0,0,-1,1329,687,0,0
112,337,0,0,0,0,0,0,0,0,0,-1,1336,687,0,0
119,337,0,0,0,0,0,0,0,0,0,-1,1343,687,0,0
126,337,0,0,0,0,0,0,0,0,0,-1,1350,687,0,0
133,337,0,0,0,0,0,0,0,0,0,-1,1357,687,0,0
140,337,0,0,0,0,0,0,0,0,0,-1,1364,687,0,0
147,337,0,0,0,0,0,0,0,0,0,-1,1371,687,0,0
154,337,0,0,0,0,0,0,0,0,0,-1,1378,687,0,0
161,337,0,0,0,0,0,0,0,0,0,-1,1385,687,0,0
168,337,0,0,0,0,0,0,0,0,0,-1,1392,687,0,0
175,337,0,0,0,0,0,0,0,0,0,-1,1399,687,0,0
182,337,0,0,0,0,0,0,0,0,0,-1,1406,687,0,0
189,337,0,0,0,0,0,0,0,0,0,-1,1413,687,0,0
196,337,0,0,0,0,0,0,0,0,0,-1,1420,687,0,0
203,337,0,0,0,0,0,0,0,0,0,-1,1427,687,0,0
210,337,0,0,0,0,0,0,0,0,0,-1,1434,687,0,0
217,337,0,0,0,0,0,0,0,0,0,-1,1441,687,0,0
224,337,0,0,0,0,0,0,0,0,0,-1,1448,687,0,0
231,337,0,0,0,0,0,0,0,0,0,-1,1455,687,0,0
238,337,0,0,0,0,0,0,0,0,0,-1,1462,687,0,0
245,337,0,0,0,0,0,0,0,0,0,-1,1469,687,0,0
252,337,0,0,0,0,0,0,0,0,0,-1,1476,687,0,0
259,337,0,0,0,0,0,0,0,0,0,-1,1483,687,0,0
266,337,0,0,0,0,0,0,0,0,0,-1,1490,687,0,0
273,337,0,0,0,0,0,0,0,0,0,-1,1497,687,0,0
280,337,0,0,0,0,0,0,0,0,0,-1,1504,687,0,0
287,337,0,0,0,0,0,0,0,0,0,-1,1511,687,0,0
294,337,0,0,0,0,0,0,0,0,0,-1,1518,687,0,0
301,337,0,0,0,0,0,0,0,0,0,-1,1525,687,0,0
308,337,0,0,0,0,0,0,0,0,0,-1,1532,687,0,0
315,337,0,0,0,0,0,0,0,0,0,-1,1539,687,0,0
322,337,0,0,0,0,0,0,0,0,0,-1,1546,687,0,0
329,337,0,0,0,0,0,0,0,0,0,-1,1553,687,0,0
336,337,0,0,0,0,0,0,0,0,0,-1,1560,687,0,0
343,337,0,0,0,0,0,0,0,0,0,-1,1567,687,0,0
350,337,0,0,0,0,0,0,0,0,0,-1,1574,687,0,0
357,337,0,0,0,0,0,0,0,0,0,-1,1581,687,0,0
364,337,0,0,0,0,0,0,0,0,0,-1,1588,687,0,0
371,337,0,0,0,0,0,0,0,0,0,-1,1595,687,0,0
378,337,0,0,0,0,0,0,0,0,0,-1,1602,687,0,0
385,337,0,0,0,0,0,0,0,0,0,-1,1609,687,0,0
392,337,0,0,0,0,0,0,0,0,0,-1,1616,687,0,0
399,337,0,0,0,0,0,0,0,0,0,-1,1623,687,0,0
406,337,0,0,0,0,0,0,0,0,0,-1,1630,687,0,0
413,337,0,0,0,0,0,0,0,0,0,-1,1637,687,0,0
420,337,0,0,0,0,0,0,0,0,0,-1,1644,687,0,0
427,337,0,0,0,0,0,0,0,0,0,-1,1651,687,0,0
434,337,0,0,0,0,0,0,0,0,0,-1,1658,687,0,0
441,337,0,0,0,0,0,0,0,0,0,-1,1665,687,0,0
448,337,0,0,0,0,0,0,0,0,0,-1,1672,687,0,0
455,337,0,0,0,0,0,0,0,0,0,-1,1679,687,0,0
462,337,0,0,0,0,0,0,0,0,0,-1,1686,687,0,0
469,337,0,0,0,0,0,0,0,0,0,-1,1693,687,0,0
476,337,0,0,0,0,0,0,0,0,0,-1,1700,687,0,0
483,337,0,0,0,0,0,0,0,0,0,-1,1707,687,0,0
490,337,0,0,0,0,0,0,0,0,0,-1,1714,687,0,0
497,337,0,0,0,0,0,0,0,0,0,-1,1721,687,0,0
504,337,0,0,0,0,0,0,0,0,0,-1,1728,687,0,0
511,337,0,0,0,0,0,0,0,0,0,-1,1735,687,0,0
518,337,18.0369,1.64581,0,0,0,0,0,0,0,-1,1742,687,18.0368,-1.64581
525,337,31.0717,2.13745,0,0,0,0,0,0,0,-1,1749,687,31.0717,-2.13747
532,337,31.5126,2.13904,0,0,0,0,0,0,0,-1,1756,687,31.5125,-2.13905
539,337,31.9684,2.15594,0,0,0,0,0,0,0,-1,1763,687,31.9684,-2.15596
546,337,32.3584,1.43719,0,0,0,0,0,0,0,-1,1770,687,32.3585,-1.43722
553,337,32.1809,1.36395,0,0,0,0,0,0,0,-1,1777,687,32.181,-1.36396
560,337,18.4053,3.62793,0,0,0,0,0,0,0,-1,1784,687,18.4052,-3.6279
567,337,11.9288,1.38776,0,0,0,0,0,0,0,-1,1791,687,11.9288,-1.38777
574,337,10.704,1.19476,0,0,0,0,0,0,0,-1,1798,687,10.704,-1.19478
581,337,8.50427,0.561768,0,0,0,0,0,0,0,-1,1805,687,8.5043,-0.561754
588,337,8.5885,-0.0536499,0,0,0,0,0,0,0,-1,1812,687,8.58844,0.0536788
595,337,13.8816,-1.70703,0,0,0,0,0,0,0,-1,1819,687,13.8816,1.70702
602,337,24.0637,-5.51581,0,0,0,0,0,0,0,-1,1826,687,24.0638,5.51581
609,337,24.075,-4.90228,0.00340503,0.000757395,-8.4914e-05,0.00340775,0.000754675,-0.0320277,0.00206673,0.0283609,1833,687,24.0749,4.90225
616,337,24.0558,-4.37891,0.00169991,0.000582635,0.000260041,0.00175747,0.000525077,0.217831,0.00104171,0.0170543,1840,687,24.0558,4.37892
623,337,24.0504,-3.83472,0.000724674,0.00052304,0.000319887,0.000959256,0.000288459,0.632743,0.000568301,0.0145608,1847,687,24.0504,3.83474
630,337,24.009,-3.27332,0.000313748,0.000405744,0.000151915,0.000518472,0.00020102,0.932405,0.000301845,0.0189855,1854,687,24.009,3.27333
637,337,23.9917,-2.72211,-0.000454501,0.000228177,-0.000221346,0.000293663,-0.000519987,-1.28315,0.00047578,0.01726,1861,687,23.9916,2.7221
644,337,23.9705,-2.1366,-0.00151936,-6.20315e-05,-0.000791257,0.000284961,-0.00186636,-1.15752,0.00134929,0.0115231,1868,687,23.9705,2.13661
651,337,23.9285,-1.58673,-0.00296296,-0.000366728,-0.00153449,0.000345069,-0.00367476,-1.13647,0.00257259,0.0106987,1875,687,23.9284,1.58672
658,337,23.9364,-1.02649,-0.00488544,-0.000784311,-0.00252722,0.000419605,-0.00608936,-1.12622,0.00420642,0.0121062,1882,687,23.9364,1.02649
665,337,23.9572,-0.476135,-0.00737033,-0.00131254,-0.00376294,0.000489084,-0.00917195,-1.12427,0.00628401,0.0149866,1889,687,23.9572,0.476123
672,337,23.9071,0.0285034,-0.0105898,-0.00192968,-0.00537963,0.000646058,-0.0131655,-1.12426,0.00900008,0.031628,1896,687,23.9072,-0.0284792
679,337,24.1371,0.490845,0,0,0,0,0,0,0,-1,1903,687,24.137,-0.490865
686,337,18.5614,1.68597,0,0,0,0,0,0,0,-1,1910,687,18.5614,-1.68598
693,337,16.5415,2.21411,0,0,0,0,0,0,0,-1,1917,687,16.5415,-2.2141
700,337,17.2661,2.44379,0,0,0,0,0,0,0,-1,1924,687,17.2661,-2.44378
707,337,17.3544,5.61853,0,0,0,0,0,0,0,-1,1931,687,17.3543,-5.61851
714,337,0,0,0,0,0,0,0,0,0,-1,1938,687,0,0
721,337,0,0,0,0,0,0,0,0,0,-1,1945,687,0,0
728,337,0,0,0,0,0,0,0,0,0,-1,1952,687,0,0
735,337,0,0,0,0,0,0,0,0,0,-1,1959,687,0,0
742,337,0,0,0,0,0,0,0,0,0,-1,1966,687,0,0
749,337,0,0,0,0,0,0,0,0,0,-1,1973,687,0,0
756,337,0,0,0,0,0,0,0,0,0,-1,1980,687,0,0
763,337,0,0,0,0,0,0,0,0,0,-1,1987,687,0,0
770,337,0,0,0,0,0,0,0,0,0,-1,1994,687,0,0
777,337,0,0,0,0,0,0,0,0,0,-1,2001,687,0,0
784,337,0,0,0,0,0,0,0,0,0,-1,2008,687,0,0
791,337,0,0,0,0,0,0,0,0,0,-1,2015,687,0,0
798,337,0,0,0,0,0,0,0,0,0,-1,2022,687,0,0
805,337,0,0,0,0,0,0,0,0,0,-1,2029,687,0,0
812,337,0,0,0,0,0,0,0,0,0,-1,2036,687,0,0
-700,330,0,0,0,0,0,0,0,0,0,-1,524,694,0,0
-693,330,0,0,0,0,0,0,0,0,0,-1,531,694,0,0
-686,330,0,0,0,0,0,0,0,0,0,-1,538,694,0,0
-679,330,0,0,0,0,0,0,0,0,0,-1,545,694,0,0
-672,330,0,0,0,0,0,0,0,0,0,-1,552,694,0,0
-665,330,0,0,0,0,0,0,0,0,0,-1,559,694,0,0
-658,330,0,0,0,0,0,0,0,0,0,-1,566,694,0,0
-651,330,0,0,0,0,0,0,0,0,0,-1,573,694,0,0
-644,330,0,0,0,0,0,0,0,0,0,-1,580,694,0,0
-637,330,0,0,0,0,0,0,0,0,0,-1,587,694,0,0
-630,330,0,0,0,0,0,0,0,0,0,-1,594,694,0,0
-623,330,0,0,0,0,0,0,0,0,0,-1,601,694,0,0
-616,330,0,0,0,0,0,0,0,0,0,-1,608,694,0,0
-609,330,0,0,0,0,0,0,0,0,0,-1,615,694,0,0
-602,330,0,0,0,0,0,0,0,0,0,-1,622,694,0,0
-595,330,-4.67883,1.65515,0,0,0,0,0,0,0,-1,629,694,-4.67881,-1.65515
-588,330,-8.5047,2.67346,0,0,0,0,0,0,0,-1,636,694,-8.50469,-2.67348
-581,330,-12.4227,0.947083,0,0,0,0,0,0,0,-1,643,694,-12.4227,-0.947109
-574,330,-9.02118,1.87952,0,0,0,0,0,0,0,-1,650,694,-9.02115,-1.87953
-567,330,-8.35577,0.909973,0,0,0,0,0,0,0,-1,657,694,-8.35575,-0.909945
-560,330,-13.1036,-0.584656,0,0,0,0,0,0,0,-1,664,694,-13.1035,0.584658
-553,330,-14.476,-0.836853,0,0,0,0,0,0,0,-1,671,694,-14.476,0.83686
-546,330,-14.4275,-1.57495,0.00316606,0.0185853,-0.00979853,0.0233436,-0.00159226,-1.11872,0.0161194,0.0395691,678,694,-14.4275,1.57498
-539,330,-14.4409,-2.32184,0.00242,0.0136476,-0.00715305,0.0171267,-0.0010591,-1.1181,0.0117867,0.0204557,685,694,-14.4408,2.32184
-532,330,-14.6399,-2.83368,0.00186064,0.00965131,-0.00503142,0.0121191,-0.000607112,-1.1148,0.00828916,0.0154683,692,694,-14.6399,2.83369
-525,330,-14.6129,-3.40991,0.00146152,0.00640959,-0.00330885,0.00806706,-0.000195947,-1.10641,0.00544453,0.0116768,699,694,-14.6128,3.4099
-518,330,-14.623,-3.90973,0.00122048,0.00395934,-0.00201699,0.00502786,0.000151959,-1.08363,0.00330242,0.0147415,706,694,-14.623,3.90972
-511,330,-14.6503,-4.45428,0.00112398,0.00213993,-0.00109254,0.00283682,0.000427096,-1.003,0.00176614,0.0203279,713,694,-14.6503,4.4543
-504,330,-14.6314,-5.00519,0.00131025,0.000949111,-0.00052417,0.00168408,0.00057528,-0.619522,0.000988434,0.0196792,720,694,-14.6314,5.0052
-497,330,-14.6382,-5.51465,0.001708,0.000336474,-0.000309686,0.00177469,0.00026979,-0.212089,0.00110424,0.0143218,727,694,-14.6382,5.51467
-490,330,-14.64,-6.05585,0.00257314,0.000423249,-0.000484207,0.00267717,0.000319227,-0.211613,0.00168846,0.0142394,734,694,-14.64,6.05585
-483,330,-14.6544,-6.62415,0.00392,0.00102005,-0.00107071,0.00427248,0.000667567,-0.31803,0.00265393,0.0146443,741,694,-14.6543,6.62415
-476,330,-14.6412,-7.16699,0.00548943,0.00170158,-0.00162624,0.00609183,0.00109918,-0.354751,0.00374893,0.0416317,748,694,-14.6412,7.16702
-469,330,-14.4297,-7.8385,0,0,0,0,0,0,0,-1,755,694,-14.4297,7.83849
-462,330,-7.26733,-3.84833,0,0,0,0,0,0,0,-1,762,694,-7.26731,3.84832
-455,330,-5.04254,-1.79303,0,0,0,0,0,0,0,-1,769,694,-5.04252,1.79305
-448,330,-4.89886,-1.66156,0,0,0,0,0,0,0,-1,776,694,-4.89886,1.66157
-441,330,-5.30676,-2.34045,0,0,0,0,0,0,0,-1,783,694,-5.30679,2.34048
-434,330,-7.20428,1.00024,0,0,0,0,0,0,0,-1,790,694,-7.20431,-1.00027
-427,330,-16.0428,2.89258,0,0,0,0,0,0,0,-1,797,694,-16.0428,-2.89259
-420,330,-29.0331,0.271606,0,0,0,0,0,0,0,-1,804,694,-29.0331,-0.27158
-413,330,-29.0896,0.56366,0,0,0,0,0,0,0,-1,811,694,-29.0896,-0.563671
-406,330,-1.65375,-1.74371,0,0,0,0,0,0,0,-1,818,694,-1.65375,1.74371
-399,330,0,0,0,0,0,0,0,0,0,-1,825,694,0,0
-392,330,0,0,0,0,0,0,0,0,0,-1,832,694,0,0
-385,330,0,0,0,0,0,0,0,0,0,-1,839,694,0,0
-378,330,0,0,0,0,0,0,0,0,0,-1,846,694,0,0
-371,330,0,0,0,0,0,0,0,0,0,-1,853,694,0,0
-364,330,0,0,0,0,0,0,0,0,0,-1,860,694,0,0
-357,330,0,0,0,0,0,0,0,0,0,-1,867,694,0,0
-350,330,0,0,0,0,0,0,0,0,0,-1,874,694,0,0
-343,330,0,0,0,0,0,0,0,0,0,-1,881,694,0,0
-336,330,0,0,0,0,0,0,0,0,0,-1,888,694,0,0
-329,330,0,0,0,0,0,0,0,0,0,-1,895,694,0,0
-322,330,0,0,0,0,0,0,0,0,0,-1,902,694,0,0
-315,330,0,0,0,0,0,0,0,0,0,-1,909,694,0,0
-308,330,0,0,0,0,0,0,0,0,0,-1,916,694,0,0
-301,330,0,0,0,0,0,0,0,0,0,-1,923,694,0,0
-294,330,0,0,0,0,0,0,0,0,0,-1,930,694,0,0
-287,330,0,0,0,0,0,0,0,0,0,-1,937,694,0,0
-280,330,0,0,0,0,0,0,0,0,0,-1,944,694,0,0
-273,330,0,0,0,0,0,0,0,0,0,-1,951,694,0,0
-266,330,0,0,0,0,0,0,0,0,0,-1,958,694,0,0
-259,330,0,0,0,0,0,0,0,0,0,-1,965,694,0,0
-252,330,0,0,0,0,0,0,0,0,0,-1,972,694,0,0
-245,330,0,0,0,0,0,0,0,0,0,-1,979,694,0,0
-238,330,0,0,0,0,0,0,0,0,0,-1,986,694,0,0
-231,330,0,0,0,0,0,0,0,0,0,-1,993,694,0,0
-224,330,0,0,0,0,0,0,0,0,0,-1,1000,694,0,0
-217,330,0,0,0,0,0,0,0,0,0,-1,1007,694,0,0
-210,330,0,0,0,0,0,0,0,0,0,-1,1014,694,0,0
-203,330,0,0,0,0,0,0,0,0,0,-1,1021,694,0,0
-196,330,0,0,0,0,0,0,0,0,0,-1,1028,694,0,0
-189,330,0,0,0,0,0,0,0,0,0,-1,1035,694,0,0
-182,330,0,0,0,0,0,0,0,0,0,-1,1042,694,0,0
-175,330,0,0,0,0,0,0,0,0,0,-1,1049,694,0,0
-168,330,0,0,0,0,0,0,0,0,0,-1,1056,694,0,0
-161,330,0,0,0,0,0,0,0,0,0,-1,1063,694,0,0
-154,330,0,0,0,0,0,0,0,0,0,-1,1070,694,0,0
-147,330,0,0,0,0,0,0,0,0,0,-1,1077,694,0,0
-140,330,0,0,0,0,0,0,0,0,0,-1,1084,694,0,0
-133,330,0,0,0,0,0,0,0,0,0,-1,1091,694,0,0
-126,330,0,0,0,0,0,0,0,0,0,-1,1098,694,0,0
-119,330,0,0,0,0,0,0,0,0,0,-1,1105,694,0,0
-112,330,0,0,0,0,0,0,0,0,0,-1,1112,694,0,0
-105,330,0,0,0,0,0,0,0,0,0,-1,1119,694,0,0
-98,330,0,0,0,0,0,0,0,0,0,-1,1126,694,0,0
-91,330,0,0,0,0,0,0,0,0,0,-1,1133,694,0,0
-84,330,0,0,0,0,0,0,0,0,0,-1,1140,694,0,0
-77,330,0,0,0,0,0,0,0,0,0,-1,1147,694,0,0
-70,330,0,0,0,0,0,0,0,0,0,-1,1154,694,0,0
-63,330,0,0,0,0,0,0,0,0,0,-1,1161,694,0,0
-56,330,0,0,0,0,0,0,0,0,0,-1,1168,694,0,0
-49,330,0,0,0,0,0,0,0,0,0,-1,1175,694,0,0
-42,330,0,0,0,0,0,0,0,0,0,-1,1182,694,0,0
-35,330,0,0,0,0,0,0,0,0,0,-1,1189,694,0,0
-28,330,0,0,0,0,0,0,0,0,0,-1,1196,694,0,0
-21,330,0,0,0,0,0,0,0,0,0,-1,1203,694,0,0
-14,330,0,0,0,0,0,0,0,0,0,-1,1210,694,0,0
-7,330,0,0,0,0,0,0,0,0,0,-1,1217,694,0,0
0,330,0,0,0,0,0,0,0,0,0,-1,1224,694,0,0
7,330,0,0,0,0,0,0,0,0,0,-1,1231,694,0,0
14,330,0,0,0,0,0,0,0,0,0,-1,1238,694,0,0
21,330,0,0,0,0,0,0,0,0,0,-1,1245,694,0,0
28,330,0,0,0,0,0,0,0,0,0,-1,1252,694,0,0
35,330,0,0,0,0,0,0,0,0,0,-1,1259,694,0,0
42,330,0,0,0,0,0,0,0,0,0,-1,1266,694,0,0
49,330,0,0,0,0,0,0,0,0,0,-1,1273,694,0,0
56,330,0,0,0,0,0,0,0,0,0,-1,1280,694,0,0
63,330,0,0,0,0,0,0,0,0,0,-1,1287,694,0,0
70,330,0,0,0,0,0,0,0,0,0,-1,1294,694,0,0
77,330,0,0,0,0,0,0,0,0,0,-1,1301,694,0,0
84,330,0,0,0,0,0,0,0,0,0,-1,1308,694,0,0
91,330,0,0,0,0,0,0,0,0,0,-1,1315,694,0,0
98,330,0,0,0,0,0,0,0,0,0,-1,1322,694,0,0
105,330,0,0,0,0,0,0,0,0,0,-1,1329,694,0,0
112,330,0,0,0,0,0,0,0,0,0,-1,1336,694,0,0
119,330,0,0,0,0,0,0,0,0,0,-1,1343,694,0,0
126,330,0,0,0,0,0,0,0,0,0,-1,1350,694,0,0
133,330,0,0,0,0,0,0,0,0,0,-1,1357,694,0,0
140,330,0,0,0,0,0,0,0,0,0,-1,1364,694,0,0
147,330,0,0,0,0,0,0,0,0,0,-1,1371,694,0,0
154,330,0,0,0,0,0,0,0,0,0,-1,1378,694,0,0
161,330,0,0,0,0,0,0,0,0,0,-1,1385,694,0,0
168,330,0,0,0,0,0,0,0,0,0,-1,1392,694,0,0
175,330,0,0,0,0,0,0,0,0,0,-1,1399,694,0,0
182,330,0,0,0,0,0,0,0,0,0,-1,1406,694,0,0
189,330,0,0,0,0,0,0,0,0,0,-1,1413,694,0,0
196,330,0,0,0,0,0,0,0,0,0,-1,1420,694,0,0
203,330,0,0,0,0,0,0,0,0,0,-1,1427,694,0,0
210,330,0,0,0,0,0,0,0,0,0,-1,1434,694,0,0
217,330,0,0,0,0,0,0,0,0,0,-1,1441,694,0,0
224,330,0,0,0,0,0,0,0,0,0,-1,1448,694,0,0
231,330,0,0,0,0,0,0,0,0,0,-1,1455,694,0,0
238,330,0,0,0,0,0,0,0,0,0,-1,1462,694,0,0
245,330,0,0,0,0,0,0,0,0,0,-1,1469,694,0,0
252,330,0,0,0,0,0,0,0,0,0,-1,1476,694,0,0
259,330,0,0,0,0,0,0,0,0,0,-1,1483,694,0,0
266,330,0,0,0,0,0,0,0,0,0,-1,1490,694,0,0
273,330,0,0,0,0,0,0,0,0,0,-1,1497,694,0,0
280,330,0,0,0,0,0,0,0,0,0,-1,1504,694,0,0
287,330,0,0,0,0,0,0,0,0,0,-1,1511,694,0,0
294,330,0,0,0,0,0,0,0,0,0,-1,1518,694,0,0
301,330,0,0,0,0,0,0,0,0,0,-1,1525,694,0,0
308,330,0,0,0,0,0,0,0,0,0,-1,1532,694,0,0
315,330,0,0,0,0,0,0,0,0,0,-1,1539,694,0,0
322,330,0,0,0,0,0,0,0,0,0,-1,1546,694,0,0
329,330,0,0,0,0,0,0,0,0,0,-1,1553,694,0,0
336,330,0,0,0,0,0,0,0,0,0,-1,1560,694,0,0
343,330,0,0,0,0,0,0,0,0,0,-1,1567,694,0,0
350,330,0,0,0,0,0,0,0,0,0,-1,1574,694,0,0
357,330,0,0,0,0,0,0,0,0,0,-1,1581,694,0,0
364,330,0,0,0,0,0,0,0,0,0,-1,1588,694,0,0
371,330,0,0,0,0,0,0,0,0,0,-1,1595,694,0,0
378,330,0,0,0,0,0,0,0,0,0,-1,1602,694,0,0
385,330,0,0,0,0,0,0,0,0,0,-1,1609,694,0,0
392,330,0,0,0,0,0,0,0,0,0,-1,1616,694,0,0
399,330,0,0,0,0,0,0,0,0,0,-1,1623,694,0,0
406,330,0,0,0,0,0,0,0,0,0,-1,1630,694,0,0
413,330,0,0,0,0,0,0,0,0,0,-1,1637,694,0,0
420,330,0,0,0,0,0,0,0,0,0,-1,1644,694,0,0
427,330,0,0,0,0,0,0,0,0,0,-1,1651,694,0,0
434,330,0,0,0,0,0,0,0,0,0,-1,1658,694,0,0
441,330,0,0,0,0,0,0,0,0,0,-1,1665,694,0,0
448,330,0,0,0,0,0,0,0,0,0,-1,1672,694,0,0
455,330,0,0,0,0,0,0,0,0,0,-1,1679,694,0,0
462,330,0,0,0,0,0,0,0,0,0,-1,1686,694,0,0
469,330,0,0,0,0,0,0,0,0,0,-1,1693,694,0,0
476,330,0,0,0,0,0,0,0,0,0,-1,1700,694,0,0
483,330,0,0,0,0,0,0,0,0,0,-1,1707,694,0,0
490,330,0,0,0,0,0,0,0,0,0,-1,1714,694,0,0
497,330,0,0,0,0,0,0,0,0,0,-1,1721,694,0,0
504,330,0,0,0,0,0,0,0,0,0,-1,1728,694,0,0
511,330,0,0,0,0,0,0,0,0,0,-1,1735,694,0,0
518,330,0,0,0,0,0,0,0,0,0,-1,1742,694,0,0
525,330,30.6694,0.69519,0,0,0,0,0,0,0,-1,1749,694,30.6694,-0.695206
532,330,30.9469,1.32501,0,0,0,0,0,0,0,-1,1756,694,30.9469,-1.32501
539,330,31.5155,1.62506,0,0,0,0,0,0,0,-1,1763,694,31.5155,-1.62507
546,330,31.4187,1.85651,0,0,0,0,0,0,0,-1,1770,694,31.4187,-1.85651
553,330,31.8452,1.81476,0,0,0,0,0,0,0,-1,1777,694,31.8452,-1.81475
560,330,32.2401,2.43225,0,0,0,0,0,0,0,-1,1784,694,32.2401,-2.43227
567,330,18.0321,3.98578,0,0,0,0,0,0,0,-1,1791,694,18.0321,-3.98576
574,330,12.0454,2.1662,0,0,0,0,0,0,0,-1,1798,694,12.0455,-2.16618
581,330,11.4215,4.50836,0,0,0,0,0,0,0,-1,1805,694,11.4215,-4.50837
588,330,6.45667,-0.0630493,0,0,0,0,0,0,0,-1,1812,694,6.45661,0.0630695
595,330,8.23193,-0.258484,0,0,0,0,0,0,0,-1,1819,694,8.23188,0.258459
602,330,24.3022,-5.63849,0,0,0,0,0,0,0,-1,1826,694,24.3023,5.6385
609,330,24.5045,-4.92157,0.00525028,0.0011157,1.23076e-05,0.00525032,0.00111566,0.0029767,0.00319395,0.0425319,1833,694,24.5045,4.92159
616,330,24.5902,-4.34375,0.00246885,0.000673318,0.000401112,0.00255439,0.000587786,0.21009,0.00154473,0.0115607,1840,694,24.5902,4.34377
623,330,24.5782,-3.79388,0.000849521,0.00047239,0.000524702,0.00121851,0.000103399,0.612896,0.000780162,0.0129683,1847,694,24.5782,3.79391
630,330,24.5671,-3.23242,0.000493979,0.000316249,0.000337051,0.000753683,5.65455e-05,0.656504,0.000484707,0.0139126,1854,694,24.5672,3.23244
637,330,24.5798,-2.6853,-0.000240448,0.000143767,-2.69013e-05,0.000145641,-0.000242322,-1.50123,0.000226297,0.0129985,1861,694,24.5798,2.68532
644,330,24.5297,-2.11639,-0.00123736,-8.47709e-05,-0.000534102,0.000124671,-0.0014468,-1.19709,0.00100866,0.00823832,1868,694,24.5297,2.11638
651,330,24.5073,-1.5647,-0.00254219,-0.000259201,-0.00114904,0.000218966,-0.00302036,-1.17645,0.00209039,0.011379,1875,694,24.5073,1.56469
658,330,24.4871,-1.0249,-0.00422396,-0.000484094,-0.00192385,0.000328853,-0.00503691,-1.17099,0.00347275,0.0116517,1882,694,24.4871,1.0249
665,330,24.4703,-0.466125,-0.00635806,-0.000733267,-0.002861,0.00046618,-0.0075575,-1.17381,0.0052007,0.0107476,1889,694,24.4703,0.466143
672,330,24.519,0.131836,-0.00904291,-0.000951786,-0.00400148,0.000692855,-0.0106875,-1.18084,0.00736685,0.0234246,1896,694,24.5191,-0.131843
679,330,24.134,0.625732,-0.0126684,-0.00119041,-0.00539921,0.000950154,-0.014809,-1.19335,0.0102041,0.0381692,1903,694,24.1341,-0.62576
686,330,23.8033,1.24475,0,0,0,0,0,0,0,-1,1910,694,23.8033,-1.24476
693,330,17.3999,2.5976,0,0,0,0,0,0,0,-1,1917,694,17.4,-2.59759
700,330,17.1072,4.13,0,0,0,0,0,0,0,-1,1924,694,17.1071,-4.13002
707,330,16.663,4.88672,0,0,0,0,0,0,0,-1,1931,694,16.6629,-4.88673
714,330,16.5454,5.80896,0,0,0,0,0,0,0,-1,1938,694,16.5454,-5.80899
721,330,0,0,0,0,0,0,0,0,0,-1,1945,694,0,0
728,330,0,0,0,0,0,0,0,0,0,-1,1952,694,0,0
735,330,0,0,0,0,0,0,0,0,0,-1,1959,694,0,0
742,330,0,0,0,0,0,0,0,0,0,-1,1966,694,0,0
749,330,0,0,0,0,0,0,0,0,0,-1,1973,694,0,0
756,330,0,0,0,0,0,0,0,0,0,-1,1980,694,0,0
763,330,0,0,0,0,0,0,0,0,0,-1,1987,694,0,0
770,330,0,0,0,0,0,0,0,0,0,-1,1994,694,0,0
777,330,0,0,0,0,0,0,0,0,0,-1,2001,694,0,0
784,330,0,0,0,0,0,0,0,0,0,-1,2008,694,0,0
791,330,0,0,0,0,0,0,0,0,0,-1,2015,694,0,0
798,330,0,0,0,0,0,0,0,0,0,-1,2022,694,0,0
805,330,0,0,0,0,0,0,0,0,0,-1,2029,694,0,0
812,330,0,0,0,0,0,0,0,0,0,-1,2036,694,0,0
-700,323,0,0,0,0,0,0,0,0,0,-1,524,701,0,0
-693,323,0,0,0,0,0,0,0,0,0,-1,531,701,0,0
-686,323,0,0,0,0,0,0,0,0,0,-1,538,701,0,0
-679,323,0,0,0,0,0,0,0,0,0,-1,545,701,0,0
-672,323,0,0,0,0,0,0,0,0,0,-1,552,701,0,0
-665,323,0,0,0,0,0,0,0,0,0,-1,559,701,0,0
-658,323,0,0,0,0,0,0,0,0,0,-1,566,701,0,0
-651,323,0,0,0,0,0,0,0,0,0,-1,573,701,0,0
-644,323,0,0,0,0,0,0,0,0,0,-1,580,701,0,0
-637,323,0,0,0,0,0,0,0,0,0,-1,587,701,0,0
-630,323,0,0,0,0,0,0,0,0,0,-1,594,701,0,0
-623,323,0,0,0,0,0,0,0,0,0,-1,601,701,0,0
-616,323,0,0,0,0,0,0,0,0,0,-1,608,701,0,0
-609,323,0,0,0,0,0,0,0,0,0,-1,615,701,0,0
-602,323,-4.15833,2.12256,0,0,0,0,0,0,0,-1,622,701,-4.1583,-2.12257
-595,323,-4.052,1.79156,0,0,0,0,0,0,0,-1,629,701,-4.05198,-1.79158
-588,323,-4.07019,1.94543,0,0,0,0,0,0,0,-1,636,701,-4.07019,-1.94542
-581,323,-6.63727,0.562805,0,0,0,0,0,0,0,-1,643,701,-6.63728,-0.56279
-574,323,-6.15887,0.426697,0,0,0,0,0,0,0,-1,650,701,-6.15887,-0.426727
-567,323,-10.0015,0.0371094,0,0,0,0,0,0,0,-1,657,701,-10.0015,-0.037126
-560,323,-15.2223,-0.944397,0,0,0,0,0,0,0,-1,664,701,-15.2223,0.944378
-553,323,-15.0797,-1.4198,0.00192849,0.0183737,-0.00902638,0.0223612,-0.00205901,-1.15482,0.0156391,0.0462805,671,701,-15.0797,1.41979
-546,323,-15.0591,-1.78931,0.00170895,0.0140393,-0.00696712,0.0171774,-0.00142911,-1.1476,0.0119564,0.0211838,678,701,-15.0591,1.78932
-539,323,-15.0586,-2.2561,0.00149497,0.0104803,-0.00519166,0.0128533,-0.000878038,-1.14207,0.00887603,0.0183976,685,701,-15.0586,2.25609
-532,323,-15.1188,-2.83008,0.00130265,0.00741962,-0.00367746,0.00914423,-0.000421959,-1.13228,0.00624156,0.0108818,692,701,-15.1188,2.83006
-525,323,-15.1574,-3.37848,0.00114651,0.00487363,-0.00239274,0.0060429,-2.27601e-05,-1.11625,0.00403621,0.00860763,699,701,-15.1574,3.37849
-518,323,-15.1643,-3.90338,0.00107999,0.00285843,-0.00140553,0.00363241,0.000306012,-1.06744,0.00232632,0.0102717,706,701,-15.1643,3.90336
-511,323,-15.1752,-4.43097,0.00117104,0.00130951,-0.000696537,0.00194025,0.000540309,-0.834935,0.00115627,0.0135171,713,701,-15.1752,4.43097
-504,323,-15.1868,-4.9538,0.00183533,0.000403374,-0.000372555,0.00192646,0.000312245,-0.239895,0.00119391,0.0154739,720,701,-15.1868,4.95382
-497,323,-15.1934,-5.46808,0.00274979,-1.60088e-05,-0.00035647,0.00279499,-6.12136e-05,-0.126139,0.00188406,0.0131018,727,701,-15.1933,5.46806
-490,323,-15.1923,-6.00482,0.00456785,0.000489452,-0.000864571,0.00474356,0.000313744,-0.200502,0.00306315,0.013905,734,701,-15.1923,6.00485
-483,323,-15.1987,-6.5481,0.00723535,0.00134544,-0.00179878,0.00774124,0.00083954,-0.274162,0.00490499,0.0264195,741,701,-15.1986,6.54812
-476,323,-15.1154,-7.22876,0,0,0,0,0,0,0,-1,748,701,-15.1154,7.22876
-469,323,-8.33301,-3.64001,0,0,0,0,0,0,0,-1,755,701,-8.33298,3.64
-462,323,-5.29431,-1.45697,0,0,0,0,0,0,0,-1,762,701,-5.29431,1.45699
-455,323,-5.0658,-1.36639,0,0,0,0,0,0,0,-1,769,701,-5.06578,1.3664
-448,323,-4.91608,-1.59601,0,0,0,0,0,0,0,-1,776,701,-4.91606,1.59604
-441,323,-14.4006,0.535217,0,0,0,0,0,0,0,-1,783,701,-14.4006,-0.535203
-434,323,-15.3158,2.479,0,0,0,0,0,0,0,-1,790,701,-15.3158,-2.47898
-427,323,-28.3923,1.16797,0,0,0,0,0,0,0,-1,797,701,-28.3923,-1.16796
-420,323,-28.7292,1.09302,0,0,0,0,0,0,0,-1,804,701,-28.7292,-1.09304
-413,323,-28.7955,1.22418,0,0,0,0,0,0,0,-1,811,701,-28.7956,-1.22419
-406,323,0,0,0,0,0,0,0,0,0,-1,818,701,0,0
-399,323,0,0,0,0,0,0,0,0,0,-1,825,701,0,0
-392,323,0,0,0,0,0,0,0,0,0,-1,832,701,0,0
-385,323,0,0,0,0,0,0,0,0,0,-1,839,701,0,0
-378,323,0,0,0,0,0,0,0,0,0,-1,846,701,0,0
-371,323,0,0,0,0,0,0,0,0,0,-1,853,701,0,0
-364,323,0,0,0,0,0,0,0,0,0,-1,860,701,0,0
-357,323,0,0,0,0,0,0,0,0,0,-1,867,701,0,0
-350,323,0,0,0,0,0,0,0,0,0,-1,874,701,0,0
-343,323,0,0,0,0,0,0,0,0,0,-1,881,701,0,0
-336,323,0,0,0,0,0,0,0,0,0,-1,888,701,0,0
-329,323,0,0,0,0,0,0,0,0,0,-1,895,701,0,0
-322,323,0,0,0,0,0,0,0,0,0,-1,902,701,0,0
-315,323,0,0,0,0,0,0,0,0,0,-1,909,701,0,0
-308,323,0,0,0,0,0,0,0,0,0,-1,916,701,0,0
-301,323,0,0,0,0,0,0,0,0,0,-1,923,701,0,0
-294,323,0,0,0,0,0,0,0,0,0,-1,930,701,0,0
-287,323,0,0,0,0,0,0,0,0,0,-1,937,701,0,0
-280,323,0,0,0,0,0,0,0,0,0,-1,944,701,0,0
-273,323,0,0,0,0,0,0,0,0,0,-1,951,701,0,0
-266,323,0,0,0,0,0,0,0,0,0,-1,958,701,0,0
-259,323,0,0,0,0,0,0,0,0,0,-1,965,701,0,0
-252,323,0,0,0,0,0,0,0,0,0,-1,972,701,0,0
-245,323,0,0,0,0,0,0,0,0,0,-1,979,701,0,0
-238,323,0,0,0,0,0,0,0,0,0,-1,986,701,0,0
-231,323,0,0,0,0,0,0,0,0,0,-1,993,701,0,0
-224,323,0,0,0,0,0,0,0,0,0,-1,1000,701,0,0
-217,323,0,0,0,0,0,0,0,0,0,-1,1007,701,0,0
-210,323,0,0,0,0,0,0,0,0,0,-1,1014,701,0,0
-203,323,0,0,0,0,0,0,0,0,0,-1,1021,701,0,0
-196,323,0,0,0,0,0,0,0,0,0,-1,1028,701,0,0
-189,323,0,0,0,0,0,0,0,0,0,-1,1035,701,0,0
-182,323,0,0,0,0,0,0,0,0,0,-1,1042,701,0,0
-175,323,0,0,0,0,0,0,0,0,0,-1,1049,701,0,0
-168,323,0,0,0,0,0,0,0,0,0,-1,1056,701,0,0
-161,323,0,0,0,0,0,0,0,0,0,-1,1063,701,0,0
-154,323,0,0,0,0,0,0,0,0,0,-1,1070,701,0,0
-147,323,0,0,0,0,0,0,0,0,0,-1,1077,701,0,0
-140,323,0,0,0,0,0,0,0,0,0,-1,1084,701,0,0
-133,323,0,0,0,0,0,0,0,0,0,-1,1091,701,0,0
-126,323,0,0,0,0,0,0,0,0,0,-1,1098,701,0,0
-119,323,0,0,0,0,0,0,0,0,0,-1,1105,701,0,0
-112,323,0,0,0,0,0,0,0,0,0,-1,1112,701,0,0
-105,323,0,0,0,0,0,0,0,0,0,-1,1119,701,0,0
-98,323,0,0,0,0,0,0,0,0,0,-1,1126,701,0,0
-91,323,0,0,0,0,0,0,0,0,0,-1,1133,701,0,0
-84,323,0,0,0,0,0,0,0,0,0,-1,1140,701,0,0
-77,323,0,0,0,0,0,0,0,0,0,-1,1147,701,0,0
-70,323,0,0,0,0,0,0,0,0,0,-1,1154,701,0,0
-63,323,0,0,0,0,0,0,0,0,0,-1,1161,701,0,0
-56,323,0,0,0,0,0,0,0,0,0,-1,1168,701,0,0
-49,323,0,0,0,0,0,0,0,0,0,-1,1175,701,0,0
-42,323,0,0,0,0,0,0,0,0,0,-1,1182,701,0,0
-35,323,0,0,0,0,0,0,0,0,0,-1,1189,701,0,0
-28,323,0,0,0,0,0,0,0,0,0,-1,1196,701,0,0
-21,323,0,0,0,0,0,0,0,0,0,-1,1203,701,0,0
-14,323,0,0,0,0,0,0,0,0,0,-1,1210,701,0,0
-7,323,0,0,0,0,0,0,0,0,0,-1,1217,701,0,0
0,323,0,0,0,0,0,0,0,0,0,-1,1224,701,0,0
7,323,0,0,0,0,0,0,0,0,0,-1,1231,701,0,0
14,323,0,0,0,0,0,0,0,0,0,-1,1238,701,0,0
21,323,0,0,0,0,0,0,0,0,0,-1,1245,701,0,0
28,323,0,0,0,0,0,0,0,0,0,-1,1252,701,0,0
35,323,0,0,0,0,0,0,0,0,0,-1,1259,701,0,0
42,323,0,0,0,0,0,0,0,0,0,-1,1266,701,0,0
49,323,0,0,0,0,0,0,0,0,0,-1,1273,701,0,0
56,323,0,0,0,0,0,0,0,0,0,-1,1280,701,0,0
63,323,0,0,0,0,0,0,0,0,0,-1,1287,701,0,0
70,323,0,0,0,0,0,0,0,0,0,-1,1294,701,0,0
77,323,0,0,0,0,0,0,0,0,0,-1,1301,701,0,0
84,323,0,0,0,0,0,0,0,0,0,-1,1308,701,0,0
91,323,0,0,0,0,0,0,0,0,0,-1,1315,701,0,0
98,323,0,0,0,0,0,0,0,0,0,-1,1322,701,0,0
105,323,0,0,0,0,0,0,0,0,0,-1,1329,701,0,0
112,323,0,0,0,0,0,0,0,0,0,-1,1336,701,0,0
119,323,0,0,0,0,0,0,0,0,0,-1,1343,701,0,0
126,323,0,0,0,0,0,0,0,0,0,-1,1350,701,0,0
133,323,0,0,0,0,0,0,0,0,0,-1,1357,701,0,0
140,323,0,0,0,0,0,0,0,0,0,-1,1364,701,0,0
147,323,0,0,0,0,0,0,0,0,0,-1,1371,701,0,0
154,323,0,0,0,0,0,0,0,0,0,-1,1378,701,0,0
161,323,0,0,0,0,0,0,0,0,0,-1,1385,701,0,0
168,323,0,0,0,0,0,0,0,0,0,-1,1392,701,0,0
175,323,0,0,0,0,0,0,0,0,0,-1,1399,701,0,0
182,323,0,0,0,0,0,0,0,0,0,-1,1406,701,0,0
189,323,0,0,0,0,0,0,0,0,0,-1,1413,701,0,0
196,323,0,0,0,0,0,0,0,0,0,-1,1420,701,0,0
203,323,0,0,0,0,0,0,0,0,0,-1,1427,701,0,0
210,323,0,0,0,0,0,0,0,0,0,-1,1434,701,0,0
217,323,0,0,0,0,0,0,0,0,0,-1,1441,701,0,0
224,323,0,0,0,0,0,0,0,0,0,-1,1448,701,0,0
231,323,0,0,0,0,0,0,0,0,0,-1,1455,701,0,0
238,323,0,0,0,0,0,0,0,0,0,-1,1462,701,0,0
245,323,0,0,0,0,0,0,0,0,0,-1,1469,701,0,0
252,323,0,0,0,0,0,0,0,0,0,-1,1476,701,0,0
259,323,0,0,0,0,0,0,0,0,0,-1,1483,701,0,0
266,323,0,0,0,0,0,0,0,0,0,-1,1490,701,0,0
273,323,0,0,0,0,0,0,0,0,0,-1,1497,701,0,0
280,323,0,0,0,0,0,0,0,0,0,-1,1504,701,0,0
287,323,0,0,0,0,0,0,0,0,0,-1,1511,701,0,0
294,323,0,0,0,0,0,0,0,0,0,-1,1518,701,0,0
301,323,0,0,0,0,0,0,0,0,0,-1,1525,701,0,0
308,323,0,0,0,0,0,0,0,0,0,-1,1532,701,0,0
315,323,0,0,0,0,0,0,0,0,0,-1,1539,701,0,0
322,323,0,0,0,0,0,0,0,0,0,-1,1546,701,0,0
329,323,0,0,0,0,0,0,0,0,0,-1,1553,701,0,0
336,323,0,0,0,0,0,0,0,0,0,-1,1560,701,0,0
343,323,0,0,0,0,0,0,0,0,0,-1,1567,701,0,0
350,323,0,0,0,0,0,0,0,0,0,-1,1574,701,0,0
357,323,0,0,0,0,0,0,0,0,0,-1,1581,701,0,0
364,323,0,0,0,0,0,0,0,0,0,-1,1588,701,0,0
371,323,0,0,0,0,0,0,0,0,0,-1,1595,701,0,0
378,323,0,0,0,0,0,0,0,0,0,-1,1602,701,0,0
385,323,0,0,0,0,0,0,0,0,0,-1,1609,701,0,0
392,323,0,0,0,0,0,0,0,0,0,-1,1616,701,0,0
399,323,0,0,0,0,0,0,0,0,0,-1,1623,701,0,0
406,323,0,0,0,0,0,0,0,0,0,-1,1630,701,0,0
413,323,0,0,0,0,0,0,0,0,0,-1,1637,701,0,0
420,323,0,0,0,0,0,0,0,0,0,-1,1644,701,0,0
427,323,0,0,0,0,0,0,0,0,0,-1,1651,701,0,0
434,323,0,0,0,0,0,0,0,0,0,-1,1658,701,0,0
441,323,0,0,0,0,0,0,0,0,0,-1,1665,701,0,0
448,323,0,0,0,0,0,0,0,0,0,-1,1672,701,0,0
455,323,0,0,0,0,0,0,0,0,0,-1,1679,701,0,0
462,323,0,0,0,0,0,0,0,0,0,-1,1686,701,0,0
469,323,0,0,0,0,0,0,0,0,0,-1,1693,701,0,0
476,323,0,0,0,0,0,0,0,0,0,-1,1700,701,0,0
483,323,0,0,0,0,0,0,0,0,0,-1,1707,701,0,0
490,323,0,0,0,0,0,0,0,0,0,-1,1714,701,0,0
497,323,0,0,0,0,0,0,0,0,0,-1,1721,701,0,0
504,323,0,0,0,0,0,0,0,0,0,-1,1728,701,0,0
511,323,0,0,0,0,0,0,0,0,0,-1,1735,701,0,0
518,323,0,0,0,0,0,0,0,0,0,-1,1742,701,0,0
525,323,0,0,0,0,0,0,0,0,0,-1,1749,701,0,0
532,323,33.6193,1.69446,0,0,0,0,0,0,0,-1,1756,701,33.6193,-1.69444
539,323,32.2698,2.44037,0,0,0,0,0,0,0,-1,1763,701,32.2697,-2.44036
546,323,31.1644,3.9444,0,0,0,0,0,0,0,-1,1770,701,31.1644,-3.94438
553,323,30.2488,5.8775,0,0,0,0,0,0,0,-1,1777,701,30.2487,-5.87752
560,323,40.6711,1.25153,0,0,0,0,0,0,0,-1,1784,701,40.6711,-1.25154
567,323,42.1637,2.01208,0,0,0,0,0,0,0,-1,1791,701,42.1637,-2.01207
574,323,12.514,5.89685,0,0,0,0,0,0,0,-1,1798,701,12.5141,-5.89683
581,323,11.821,5.3476,0,0,0,0,0,0,0,-1,1805,701,11.821,-5.34762
588,323,11.7933,7.00818,0,0,0,0,0,0,0,-1,1812,701,11.7933,-7.00819
595,323,6.67847,0.06604,0,0,0,0,0,0,0,-1,1819,701,6.67841,-0.0660418
602,323,11.2856,-0.595459,0,0,0,0,0,0,0,-1,1826,701,11.2856,0.595433
609,323,24.9264,-4.98993,0,0,0,0,0,0,0,-1,1833,701,24.9264,4.98993
616,323,25.1473,-4.31573,0.00333109,0.000812748,0.000559557,0.00344982,0.000694016,0.209087,0.00210699,0.0141262,1840,701,25.1474,4.31572
623,323,25.145,-3.75507,0.000998469,0.000487435,0.000769987,0.00155423,-6.83247e-05,0.625192,0.00105966,0.0126227,1847,701,25.145,3.75507
630,323,25.1298,-3.18994,0.000760245,0.000288728,0.000563279,0.00113511,-8.61401e-05,0.587202,0.000787028,0.0134038,1854,701,25.1297,3.18995
637,323,25.1188,-2.65271,9.74176e-05,0.000114505,0.000213364,0.000319497,-0.000107574,0.805409,0.000256489,0.0108783,1861,701,25.1187,2.6527
644,323,25.0897,-2.11511,-0.000816765,-5.94983e-05,-0.00023381,6.87415e-06,-0.000883137,-1.2942,0.000591063,0.00820873,1868,701,25.0898,2.11509
651,323,25.0828,-1.53729,-0.00198484,-0.000131613,-0.000735882,0.000125047,-0.0022415,-1.23521,0.00153771,0.00962661,1875,701,25.0827,1.53727
658,323,25.0359,-0.965881,-0.00344996,-0.000197378,-0.00133316,0.000279221,-0.00392656,-1.22746,0.00271557,0.0143621,1882,701,25.0359,0.965912
665,323,24.995,-0.427368,-0.00528022,-0.000235198,-0.00203315,0.000482162,-0.00599758,-1.2316,0.00416841,0.0128212,1889,701,24.995,0.427378
672,323,25.0194,0.175598,-0.00751619,-0.000173698,-0.00281925,0.000783905,-0.00847379,-1.24336,0.0059278,0.0134071,1896,701,25.0194,-0.175591
679,323,24.9043,0.735901,-0.010432,-1.99397e-05,-0.00372299,0.00117429,-0.0116263,-1.26039,0.00817045,0.0327286,1903,701,24.9043,-0.735873
686,323,24.7914,1.15253,0,0,0,0,0,0,0,-1,1910,701,24.7913,-1.15252
693,323,23.8806,1.08844,0,0,0,0,0,0,0,-1,1917,701,23.8806,-1.08845
700,323,10.7705,0.828613,0,0,0,0,0,0,0,-1,1924,701,10.7705,-0.828591
707,323,16.9005,4.79193,0,0,0,0,0,0,0,-1,1931,701,16.9005,-4.7919
714,323,16.2346,6.25958,0,0,0,0,0,0,0,-1,1938,701,16.2346,-6.25956
721,323,0,0,0,0,0,0,0,0,0,-1,1945,701,0,0
728,323,0,0,0,0,0,0,0,0,0,-1,1952,701,0,0
735,323,0,0,0,0,0,0,0,0,0,-1,1959,701,0,0
742,323,0,0,0,0,0,0,0,0,0,-1,1966,701,0,0
749,323,0,0,0,0,0,0,0,0,0,-1,1973,701,0,0
756,323,0,0,0,0,0,0,0,0,0,-1,1980,701,0,0
763,323,0,0,0,0,0,0,0,0,0,-1,1987,701,0,0
770,323,0,0,0,0,0,0,0,0,0,-1,1994,701,0,0
777,323,0,0,0,0,0,0,0,0,0,-1,2001,701,0,0
784,323,0,0,0,0,0,0,0,0,0,-1,2008,701,0,0
791,323,0,0,0,0,0,0,0,0,0,-1,2015,701,0,0
798,323,0,0,0,0,0,0,0,0,0,-1,2022,701,0,0
805,323,0,0,0,0,0,0,0,0,0,-1,2029,701,0,0
812,323,0,0,0,0,0,0,0,0,0,-1,2036,701,0,0
-700,316,0,0,0,0,0,0,0,0,0,-1,524,708,0,0
-693,316,0,0,0,0,0,0,0,0,0,-1,531,708,0,0
-686,316,0,0,0,0,0,0,0,0,0,-1,538,708,0,0
-679,316,0,0,0,0,0,0,0,0,0,-1,545,708,0,0
-672,316,0,0,0,0,0,0,0,0,0,-1,552,708,0,0
-665,316,0,0,0,0,0,0,0,0,0,-1,559,708,0,0
-658,316,0,0,0,0,0,0,0,0,0,-1,566,708,0,0
-651,316,0,0,0,0,0,0,0,0,0,-1,573,708,0,0
-644,316,0,0,0,0,0,0,0,0,0,-1,580,708,0,0
-637,316,0,0,0,0,0,0,0,0,0,-1,587,708,0,0
-630,316,0,0,0,0,0,0,0,0,0,-1,594,708,0,0
-623,316,0,0,0,0,0,0,0,0,0,-1,601,708,0,0
-616,316,0,0,0,0,0,0,0,0,0,-1,608,708,0,0
-609,316,0,0,0,0,0,0,0,0,0,-1,615,708,0,0
-602,316,-0.451782,-0.0494995,0,0,0,0,0,0,0,-1,622,708,-0.451768,0.0495022
-595,316,-3.3761,2.17188,0,0,0,0,0,0,0,-1,629,708,-3.37609,-2.17189
-588,316,-5.00177,2.60675,0,0,0,0,0,0,0,-1,636,708,-5.00175,-2.60676
-581,316,-3.94653,0.393433,0,0,0,0,0,0,0,-1,643,708,-3.94655,-0.39342
-574,316,-9.67395,1.06067,0,0,0,0,0,0,0,-1,650,708,-9.67396,-1.06065
-567,316,-10.1962,0.448425,0,0,0,0,0,0,0,-1,657,708,-10.1962,-0.448411
-560,316,-15.3679,-1.08453,0,0,0,0,0,0,0,-1,664,708,-15.3679,1.08456
-553,316,-15.485,-1.3952,5.6749e-05,0.0140718,-0.0059472,0.0162553,-0.00212673,-1.21893,0.0116109,0.041864,671,708,-15.485,1.39522
-546,316,-15.6785,-1.70282,0.000430396,0.0107812,-0.00475147,0.0126315,-0.00141996,-1.19944,0.00893204,0.0252004,678,708,-15.6785,1.70284
-539,316,-15.6011,-2.26978,0.000677354,0.00788215,-0.00363566,0.00939788,-0.000838382,-1.1758,0.00656259,0.0129991,685,708,-15.6011,2.26978
-532,316,-15.6486,-2.80426,0.000768741,0.00552192,-0.00255553,0.00663516,-0.000344499,-1.15996,0.00454263,0.0110282,692,708,-15.6486,2.80426
-525,316,-15.658,-3.3335,0.000813197,0.00349083,-0.00158446,0.00422637,7.76632e-05,-1.13618,0.00279205,0.0100814,699,708,-15.658,3.33351
-518,316,-15.6674,-3.87756,0.000896432,0.00184099,-0.000855891,0.00234626,0.000391166,-1.03751,0.00145146,0.010307,706,708,-15.6673,3.87755
-511,316,-15.6977,-4.41534,0.00122729,0.00058887,-0.000439852,0.00145156,0.000364606,-0.471507,0.00087196,0.0112867,713,708,-15.6977,4.41533
-504,316,-15.7004,-4.93311,0.00252183,7.86523e-05,-0.000537164,0.00263472,-3.42343e-05,-0.207139,0.001768,0.014187,720,708,-15.7004,4.93308
-497,316,-15.7082,-5.43903,0.00405578,-2.52733e-05,-0.000961577,0.00427099,-0.000240491,-0.220188,0.00293078,0.0127912,727,708,-15.7082,5.43901
-490,316,-15.736,-5.97455,0.00679539,0.000908482,-0.00202733,0.007426,0.000277867,-0.30157,0.00486069,0.0174171,734,708,-15.736,5.97454
-483,316,-15.6848,-6.50293,0,0,0,0,0,0,0,-1,741,708,-15.6848,6.50294
-476,316,-8.90894,-3.31207,0,0,0,0,0,0,0,-1,748,708,-8.90896,3.31206
-469,316,-6.24194,-1.42725,0,0,0,0,0,0,0,-1,755,708,-6.24192,1.42725
-462,316,-5.74237,-1.40039,0,0,0,0,0,0,0,-1,762,708,-5.74238,1.40039
-455,316,-5.44745,-1.21899,0,0,0,0,0,0,0,-1,769,708,-5.44746,1.21898
-448,316,-14.8945,0.655396,0,0,0,0,0,0,0,-1,776,708,-14.8946,-0.655396
-441,316,-14.9626,0.576111,0,0,0,0,0,0,0,-1,783,708,-14.9626,-0.576115
-434,316,-27.7723,1.15576,0,0,0,0,0,0,0,-1,790,708,-27.7723,-1.15579
-427,316,-28.0504,1.31427,0,0,0,0,0,0,0,-1,797,708,-28.0504,-1.31427
-420,316,-28.198,1.62891,0,0,0,0,0,0,0,-1,804,708,-28.198,-1.62889
-413,316,0,0,0,0,0,0,0,0,0,-1,811,708,0,0
-406,316,0,0,0,0,0,0,0,0,0,-1,818,708,0,0
-399,316,0,0,0,0,0,0,0,0,0,-1,825,708,0,0
-392,316,0,0,0,0,0,0,0,0,0,-1,832,708,0,0
-385,316,0,0,0,0,0,0,0,0,0,-1,839,708,0,0
-378,316,0,0,0,0,0,0,0,0,0,-1,846,708,0,0
-371,316,0,0,0,0,0,0,0,0,0,-1,853,708,0,0
-364,316,0,0,0,0,0,0,0,0,0,-1,860,708,0,0
-357,316,0,0,0,0,0,0,0,0,0,-1,867,708,0,0
-350,316,0,0,0,0,0,0,0,0,0,-1,874,708,0,0
-343,316,0,0,0,0,0,0,0,0,0,-1,881,708,0,0
-336,316,0,0,0,0,0,0,0,0,0,-1,888,708,0,0
-329,316,0,0,0,0,0,0,0,0,0,-1,895,708,0,0
-322,316,0,0,0,0,0,0,0,0,0,-1,902,708,0,0
-315,316,0,0,0,0,0,0,0,0,0,-1,909,708,0,0
-308,316,0,0,0,0,0,0,0,0,0,-1,916,708,0,0
-301,316,0,0,0,0,0,0,0,0,0,-1,923,708,0,0
-294,316,0,0,0,0,0,0,0,0,0,-1,930,708,0,0
-287,316,0,0,0,0,0,0,0,0,0,-1,937,708,0,0
-280,316,0,0,0,0,0,0,0,0,0,-1,944,708,0,0
-273,316,0,0,0,0,0,0,0,0,0,-1,951,708,0,0
-266,316,0,0,0,0,0,0,0,0,0,-1,958,708,0,0
-259,316,0,0,0,0,0,0,0,0,0,-1,965,708,0,0
-252,316,0,0,0,0,0,0,0,0,0,-1,972,708,0,0
-245,316,0,0,0,0,0,0,0,0,0,-1,979,708,0,0
-238,316,0,0,0,0,0,0,0,0,0,-1,986,708,0,0
-231,316,0,0,0,0,0,0,0,0,0,-1,993,708,0,0
-224,316,0,0,0,0,0,0,0,0,0,-1,1000,708,0,0
-217,316,0,0,0,0,0,0,0,0,0,-1,1007,708,0,0
-210,316,0,0,0,0,0,0,0,0,0,-1,1014,708,0,0
-203,316,0,0,0,0,0,0,0,0,0,-1,1021,708,0,0
-196,316,0,0,0,0,0,0,0,0,0,-1,1028,708,0,0
-189,316,0,0,0,0,0,0,0,0,0,-1,1035,708,0,0
-182,316,0,0,0,0,0,0,0,0,0,-1,1042,708,0,0
-175,316,0,0,0,0,0,0,0,0,0,-1,1049,708,0,0
-168,316,0,0,0,0,0,0,0,0,0,-1,1056,708,0,0
-161,316,0,0,0,0,0,0,0,0,0,-1,1063,708,0,0
-154,316,0,0,0,0,0,0,0,0,0,-1,1070,708,0,0
-147,316,0,0,0,0,0,0,0,0,0,-1,1077,708,0,0
-140,316,0,0,0,0,0,0,0,0,0,-1,1084,708,0,0
-133,316,0,0,0,0,0,0,0,0,0,-1,1091,708,0,0
-126,316,0,0,0,0,0,0,0,0,0,-1,1098,708,0,0
-119,316,0,0,0,0,0,0,0,0,0,-1,1105,708,0,0
-112,316,0,0,0,0,0,0,0,0,0,-1,1112,708,0,0
-105,316,0,0,0,0,0,0,0,0,0,-1,1119,708,0,0
-98,316,0,0,0,0,0,0,0,0,0,-1,1126,708,0,0
-91,316,0,0,0,0,0,0,0,0,0,-1,1133,708,0,0
-84,316,0,0,0,0,0,0,0,0,0,-1,1140,708,0,0
-77,316,0,0,0,0,0,0,0,0,0,-1,1147,708,0,0
-70,316,0,0,0,0,0,0,0,0,0,-1,1154,708,0,0
-63,316,0,0,0,0,0,0,0,0,0,-1,1161,708,0,0
-56,316,0,0,0,0,0,0,0,0,0,-1,1168,708,0,0
-49,316,0,0,0,0,0,0,0,0,0,-1,1175,708,0,0
-42,316,0,0,0,0,0,0,0,0,0,-1,1182,708,0,0
-35,316,0,0,0,0,0,0,0,0,0,-1,1189,708,0,0
-28,316,0,0,0,0,0,0,0,0,0,-1,1196,708,0,0
-21,316,0,0,0,0,0,0,0,0,0,-1,1203,708,0,0
-14,316,0,0,0,0,0,0,0,0,0,-1,1210,708,0,0
-7,316,0,0,0,0,0,0,0,0,0,-1,1217,708,0,0
0,316,0,0,0,0,0,0,0,0,0,-1,1224,708,0,0
7,316,0,0,0,0,0,0,0,0,0,-1,1231,708,0,0
14,316,0,0,0,0,0,0,0,0,0,-1,1238,708,0,0
21,316,0,0,0,0,0,0,0,0,0,-1,1245,708,0,0
28,316,0,0,0,0,0,0,0,0,0,-1,1252,708,0,0
35,316,0,0,0,0,0,0,0,0,0,-1,1259,708,0,0
42,316,0,0,0,0,0,0,0,0,0,-1,1266,708,0,0
49,316,0,0,0,0,0,0,0,0,0,-1,1273,708,0,0
56,316,0,0,0,0,0,0,0,0,0,-1,1280,708,0,0
63,316,0,0,0,0,0,0,0,0,0,-1,1287,708,0,0
70,316,0,0,0,0,0,0,0,0,0,-1,1294,708,0,0
77,316,0,0,0,0,0,0,0,0,0,-1,1301,708,0,0
84,316,0,0,0,0,0,0,0,0,0,-1,1308,708,0,0
91,316,0,0,0,0,0,0,0,0,0,-1,1315,708,0,0
98,316,0,0,0,0,0,0,0,0,0,-1,1322,708,0,0
105,316,0,0,0,0,0,0,0,0,0,-1,1329,708,0,0
112,316,0,0,0,0,0,0,0,0,0,-1,1336,708,0,0
119,316,0,0,0,0,0,0,0,0,0,-1,1343,708,0,0
126,316,0,0,0,0,0,0,0,0,0,-1,1350,708,0,0
133,316,0,0,0,0,0,0,0,0,0,-1,1357,708,0,0
140,316,0,0,0,0,0,0,0,0,0,-1,1364,708,0,0
147,316,0,0,0,0,0,0,0,0,0,-1,1371,708,0,0
154,316,0,0,0,0,0,0,0,0,0,-1,1378,708,0,0
161,316,0,0,0,0,0,0,0,0,0,-1,1385,708,0,0
168,316,0,0,0,0,0,0,0,0,0,-1,1392,708,0,0
175,316,0,0,0,0,0,0,0,0,0,-1,1399,708,0,0
182,316,0,0,0,0,0,0,0,0,0,-1,1406,708,0,0
189,316,0,0,0,0,0,0,0,0,0,-1,1413,708,0,0
196,316,0,0,0,0,0,0,0,0,0,-1,1420,708,0,0
203,316,0,0,0,0,0,0,0,0,0,-1,1427,708,0,0
210,316,0,0,0,0,0,0,0,0,0,-1,1434,708,0,0
217,316,0,0,0,0,0,0,0,0,0,-1,1441,708,0,0
224,316,0,0,0,0,0,0,0,0,0,-1,1448,708,0,0
231,316,0,0,0,0,0,0,0,0,0,-1,1455,708,0,0
238,316,0,0,0,0,0,0,0,0,0,-1,1462,708,0,0
245,316,0,0,0,0,0,0,0,0,0,-1,1469,708,0,0
252,316,0,0,0,0,0,0,0,0,0,-1,1476,708,0,0
259,316,0,0,0,0,0,0,0,0,0,-1,1483,708,0,0
266,316,0,0,0,0,0,0,0,0,0,-1,1490,708,0,0
273,316,0,0,0,0,0,0,0,0,0,-1,1497,708,0,0
280,316,0,0,0,0,0,0,0,0,0,-1,1504,708,0,0
287,316,0,0,0,0,0,0,0,0,0,-1,1511,708,0,0
294,316,0,0,0,0,0,0,0,0,0,-1,1518,708,0,0
301,316,0,0,0,0,0,0,0,0,0,-1,1525,708,0,0
308,316,0,0,0,0,0,0,0,0,0,-1,1532,708,0,0
315,316,0,0,0,0,0,0,0,0,0,-1,1539,708,0,0
322,316,0,0,0,0,0,0,0,0,0,-1,1546,708,0,0
329,316,0,0,0,0,0,0,0,0,0,-1,1553,708,0,0
336,316,0,0,0,0,0,0,0,0,0,-1,1560,708,0,0
343,316,0,0,0,0,0,0,0,0,0,-1,1567,708,0,0
350,316,0,0,0,0,0,0,0,0,0,-1,1574,708,0,0
357,316,0,0,0,0,0,0,0,0,0,-1,1581,708,0,0
364,316,0,0,0,0,0,0,0,0,0,-1,1588,708,0,0
371,316,0,0,0,0,0,0,0,0,0,-1,1595,708,0,0
378,316,0,0,0,0,0,0,0,0,0,-1,1602,708,0,0
385,316,0,0,0,0,0,0,0,0,0,-1,1609,708,0,0
392,316,0,0,0,0,0,0,0,0,0,-1,1616,708,0,0
399,316,0,0,0,0,0,0,0,0,0,-1,1623,708,0,0
406,316,0,0,0,0,0,0,0,0,0,-1,1630,708,0,0
413,316,0,0,0,0,0,0,0,0,0,-1,1637,708,0,0
420,316,0,0,0,0,0,0,0,0,0,-1,1644,708,0,0
427,316,0,0,0,0,0,0,0,0,0,-1,1651,708,0,0
434,316,0,0,0,0,0,0,0,0,0,-1,1658,708,0,0
441,316,0,0,0,0,0,0,0,0,0,-1,1665,708,0,0
448,316,0,0,0,0,0,0,0,0,0,-1,1672,708,0,0
455,316,0,0,0,0,0,0,0,0,0,-1,1679,708,0,0
462,316,0,0,0,0,0,0,0,0,0,-1,1686,708,0,0
469,316,0,0,0,0,0,0,0,0,0,-1,1693,708,0,0
476,316,0,0,0,0,0,0,0,0,0,-1,1700,708,0,0
483,316,0,0,0,0,0,0,0,0,0,-1,1707,708,0,0
490,316,0,0,0,0,0,0,0,0,0,-1,1714,708,0,0
497,316,0,0,0,0,0,0,0,0,0,-1,1721,708,0,0
504,316,0,0,0,0,0,0,0,0,0,-1,1728,708,0,0
511,316,0,0,0,0,0,0,0,0,0,-1,1735,708,0,0
518,316,0,0,0,0,0,0,0,0,0,-1,1742,708,0,0
525,316,0,0,0,0,0,0,0,0,0,-1,1749,708,0,0
532,316,33.8604,0.531128,0,0,0,0,0,0,0,-1,1756,708,33.8604,-0.531151
539,316,39.8842,5.88678,0,0,0,0,0,0,0,-1,1763,708,39.8841,-5.88681
546,316,39.8517,6.04572,0,0,0,0,0,0,0,-1,1770,708,39.8517,-6.04572
553,316,39.9031,6.57275,0,0,0,0,0,0,0,-1,1777,708,39.9031,-6.57274
560,316,39.1196,1.10046,0,0,0,0,0,0,0,-1,1784,708,39.1197,-1.10048
567,316,40.3279,1.98065,0,0,0,0,0,0,0,-1,1791,708,40.3279,-1.98067
574,316,40.1323,2.25415,0,0,0,0,0,0,0,-1,1798,708,40.1324,-2.25415
581,316,24.6815,7.77496,0,0,0,0,0,0,0,-1,1805,708,24.6815,-7.77499
588,316,19.7659,2.90198,0,0,0,0,0,0,0,-1,1812,708,19.7659,-2.902
595,316,12.5363,1.50702,0,0,0,0,0,0,0,-1,1819,708,12.5363,-1.50701
602,316,7.79919,0.0422363,0,0,0,0,0,0,0,-1,1826,708,7.79923,-0.0422066
609,316,25.6631,-4.86639,0,0,0,0,0,0,0,-1,1833,708,25.6631,4.86637
616,316,25.7157,-4.29083,0.000303745,0.00142103,0.00312406,0.004036,-0.00231123,0.873872,0.0037094,0.0173842,1840,708,25.7157,4.29082
623,316,25.7174,-3.73743,-0.00156397,0.000798409,0.00263065,0.00250089,-0.00326645,0.996414,0.00333954,0.0110614,1847,708,25.7175,3.7374
630,316,25.6736,-3.1969,-0.00057061,0.000347608,0.0016451,0.00159646,-0.00181946,0.921474,0.00197359,0.0126927,1854,708,25.6736,3.1969
637,316,25.6501,-2.60724,-0.000408143,0.000105872,0.000879551,0.000765195,-0.00106747,0.927542,0.00106287,0.0129304,1861,708,25.6502,2.60722
644,316,25.6564,-2.05457,-0.000797064,2.57094e-07,0.000246964,7.05546e-05,-0.000867361,1.29348,0.000603136,0.0128127,1868,708,25.6564,2.05456
651,316,25.6199,-1.50751,-0.00151157,2.95669e-05,-0.000311282,9.00654e-05,-0.00157207,-1.37884,0.00107932,0.0135283,1875,708,25.6198,1.50753
658,316,25.5835,-0.946411,-0.00265398,0.000112691,-0.000784591,0.000319702,-0.00286099,-1.31283,0.00202233,0.0241374,1882,708,25.5835,0.946426
665,316,25.5433,-0.3927,-0.00411848,0.000251807,-0.00127019,0.000594158,-0.00446083,-1.30752,0.00319043,0.0188848,1889,708,25.5434,0.392721
672,316,25.5623,0.153809,-0.00587009,0.000526555,-0.00177368,0.000985448,-0.00632898,-1.31762,0.00458325,0.0139511,1896,708,25.5623,-0.153801
679,316,25.5758,0.780762,-0.00805071,0.000954391,-0.00230634,0.00151071,-0.00860702,-1.33411,0.00630223,0.029438,1903,708,25.5758,-0.780774
686,316,25.1852,1.37427,-0.0107423,0.00155685,-0.00281862,0.00217203,-0.0113575,-1.35591,0.00838993,0.0422084,1910,708,25.1852,-1.37428
693,316,24.7468,2.0639,0,0,0,0,0,0,0,-1,1917,708,24.7469,-2.06389
700,316,12.8749,2.89136,0,0,0,0,0,0,0,-1,1924,708,12.8748,-2.89137
707,316,15.7089,5.41486,0,0,0,0,0,0,0,-1,1931,708,15.7088,-5.41487
714,316,16.1727,5.52045,0,0,0,0,0,0,0,-1,1938,708,16.1728,-5.52042
721,316,16.7094,6.53351,0,0,0,0,0,0,0,-1,1945,708,16.7094,-6.5335
728,316,0,0,0,0,0,0,0,0,0,-1,1952,708,0,0
735,316,0,0,0,0,0,0,0,0,0,-1,1959,708,0,0
742,316,0,0,0,0,0,0,0,0,0,-1,1966,708,0,0
749,316,0,0,0,0,0,0,0,0,0,-1,1973,708,0,0
756,316,0,0,0,0,0,0,0,0,0,-1,1980,708,0,0
763,316,0,0,0,0,0,0,0,0,0,-1,1987,708,0,0
770,316,0,0,0,0,0,0,0,0,0,-1,1994,708,0,0
777,316,0,0,0,0,0,0,0,0,0,-1,2001,708,0,0
784,316,0,0,0,0,0,0,0,0,0,-1,2008,708,0,0
791,316,0,0,0,0,0,0,0,0,0,-1,2015,708,0,0
798,316,0,0,0,0,0,0,0,0,0,-1,2022,708,0,0
805,316,0,0,0,0,0,0,0,0,0,-1,2029,708,0,0
812,316,0,0,0,0,0,0,0,0,0,-1,2036,708,0,0
-700,309,0,0,0,0,0,0,0,0,0,-1,524,715,0,0
-693,309,0,0,0,0,0,0,0,0,0,-1,531,715,0,0
-686,309,0,0,0,0,0,0,0,0,0,-1,538,715,0,0
-679,309,0,0,0,0,0,0,0,0,0,-1,545,715,0,0
-672,309,0,0,0,0,0,0,0,0,0,-1,552,715,0,0
-665,309,0,0,0,0,0,0,0,0,0,-1,559,715,0,0
-658,309,0,0,0,0,0,0,0,0,0,-1,566,715,0,0
-651,309,0,0,0,0,0,0,0,0,0,-1,573,715,0,0
-644,309,0,0,0,0,0,0,0,0,0,-1,580,715,0,0
-637,309,0,0,0,0,0,0,0,0,0,-1,587,715,0,0
-630,309,0,0,0,0,0,0,0,0,0,-1,594,715,0,0
-623,309,0,0,0,0,0,0,0,0,0,-1,601,715,0,0
-616,309,0,0,0,0,0,0,0,0,0,-1,608,715,0,0
-609,309,-5.95392,-3.93689,0,0,0,0,0,0,0,-1,615,715,-5.95392,3.93686
-602,309,-4.99786,-3.31287,0,0,0,0,0,0,0,-1,622,715,-4.99786,3.31284
-595,309,-6.80847,2.4046,0,0,0,0,0,0,0,-1,629,715,-6.80845,-2.40458
-588,309,-6.08795,2.19324,0,0,0,0,0,0,0,-1,636,715,-6.08793,-2.19325
-581,309,-5.97552,1.3277,0,0,0,0,0,0,0,-1,643,715,-5.97552,-1.32769
-574,309,-8.73602,0.208435,0,0,0,0,0,0,0,-1,650,715,-8.73604,-0.208437
-567,309,-10.3909,0.85968,0,0,0,0,0,0,0,-1,657,715,-10.3909,-0.859696
-560,309,-16.0064,-1.13489,0,0,0,0,0,0,0,-1,664,715,-16.0064,1.13491
-553,309,-16.0914,-1.24811,-0.00104978,0.0103889,-0.00356194,0.0114074,-0.00206826,-1.29229,0.00837988,0.0428433,671,715,-16.0914,1.24812
-546,309,-16.2044,-1.68909,-0.000406351,0.00792391,-0.00292785,0.00885001,-0.00133245,-1.26445,0.00639063,0.0224754,678,715,-16.2044,1.68909
-539,309,-16.153,-2.26648,7.51211e-05,0.0056216,-0.00225867,0.00642502,-0.000728292,-1.22905,0.0045456,0.0151526,685,715,-16.153,2.26647
-532,309,-16.1398,-2.79388,0.000345424,0.00379317,-0.00151862,0.00436668,-0.000228084,-1.2097,0.00299005,0.012646,692,715,-16.1398,2.79387
-525,309,-16.1283,-3.34888,0.000519273,0.00219349,-0.000842308,0.00254391,0.000168848,-1.17655,0.00164255,0.0160998,699,715,-16.1283,3.34886
-518,309,-16.1808,-3.86975,0.000704529,0.000986918,-0.000494297,0.00135979,0.000331656,-0.924517,0.000818683,0.0165308,706,715,-16.1808,3.86976
-511,309,-16.2257,-4.37994,0.00123835,0.000145659,-0.0005208,0.0014468,-6.27983e-05,-0.380733,0.000986135,0.0127719,713,715,-16.2257,4.37994
-504,309,-16.2153,-4.90564,0.0030796,0.000142804,-0.00118955,0.00350096,-0.000278563,-0.340434,0.00243215,0.00988622,720,715,-16.2153,4.90565
-497,309,-16.2341,-5.4129,0.00504406,0.000504053,-0.00226299,0.00597937,-0.000431255,-0.391925,0.0041375,0.0138968,727,715,-16.2341,5.41292
-490,309,-16.2107,-5.94287,0.00834948,0.00187508,-0.00398128,0.0102436,-1.90027e-05,-0.444057,0.00683538,0.0483944,734,715,-16.2107,5.94287
-483,309,-15.867,-6.80249,0,0,0,0,0,0,0,-1,741,715,-15.867,6.80248
-476,309,-5.29486,-1.2262,0,0,0,0,0,0,0,-1,748,715,-5.29484,1.22622
-469,309,-4.22717,-0.592896,0,0,0,0,0,0,0,-1,755,715,-4.2272,0.592905
-462,309,-10.428,2.46948,0,0,0,0,0,0,0,-1,762,715,-10.428,-2.46947
-455,309,-15.8216,0.00915527,0,0,0,0,0,0,0,-1,769,715,-15.8216,-0.00913359
-448,309,-19.2673,1.19257,0,0,0,0,0,0,0,-1,776,715,-19.2673,-1.19254
-441,309,-19.8181,1.4425,0,0,0,0,0,0,0,-1,783,715,-19.8181,-1.44249
-434,309,-28.3196,0.95105,0,0,0,0,0,0,0,-1,790,715,-28.3196,-0.951068
-427,309,-27.8553,1.40332,0,0,0,0,0,0,0,-1,797,715,-27.8553,-1.40334
-420,309,-27.3148,1.90747,0,0,0,0,0,0,0,-1,804,715,-27.3148,-1.90745
-413,309,0,0,0,0,0,0,0,0,0,-1,811,715,0,0
-406,309,0,0,0,0,0,0,0,0,0,-1,818,715,0,0
-399,309,0,0,0,0,0,0,0,0,0,-1,825,715,0,0
-392,309,0,0,0,0,0,0,0,0,0,-1,832,715,0,0
-385,309,0,0,0,0,0,0,0,0,0,-1,839,715,0,0
-378,309,0,0,0,0,0,0,0,0,0,-1,846,715,0,0
-371,309,0,0,0,0,0,0,0,0,0,-1,853,715,0,0
-364,309,0,0,0,0,0,0,0,0,0,-1,860,715,0,0
-357,309,0,0,0,0,0,0,0,0,0,-1,867,715,0,0
-350,309,0,0,0,0,0,0,0,0,0,-1,874,715,0,0
-343,309,0,0,0,0,0,0,0,0,0,-1,881,715,0,0
-336,309,0,0,0,0,0,0,0,0,0,-1,888,715,0,0
-329,309,0,0,0,0,0,0,0,0,0,-1,895,715,0,0
-322,309,0,0,0,0,0,0,0,0,0,-1,902,715,0,0
-315,309,0,0,0,0,0,0,0,0,0,-1,909,715,0,0
-308,309,0,0,0,0,0,0,0,0,0,-1,916,715,0,0
-301,309,0,0,0,0,0,0,0,0,0,-1,923,715,0,0
-294,309,0,0,0,0,0,0,0,0,0,-1,930,715,0,0
-287,309,0,0,0,0,0,0,0,0,0,-1,937,715,0,0
-280,309,0,0,0,0,0,0,0,0,0,-1,944,715,0,0
-273,309,0,0,0,0,0,0,0,0,0,-1,951,715,0,0
-266,309,0,0,0,0,0,0,0,0,0,-1,958,715,0,0
-259,309,0,0,0,0,0,0,0,0,0,-1,965,715,0,0
-252,309,0,0,0,0,0,0,0,0,0,-1,972,715,0,0
-245,309,0,0,0,0,0,0,0,0,0,-1,979,715,0,0
-238,309,0,0,0,0,0,0,0,0,0,-1,986,715,0,0
-231,309,0,0,0,0,0,0,0,0,0,-1,993,715,0,0
-224,309,0,0,0,0,0,0,0,0,0,-1,1000,715,0,0
-217,309,0,0,0,0,0,0,0,0,0,-1,1007,715,0,0
-210,309,0,0,0,0,0,0,0,0,0,-1,1014,715,0,0
-203,309,0,0,0,0,0,0,0,0,0,-1,1021,715,0,0
-196,309,0,0,0,0,0,0,0,0,0,-1,1028,715,0,0
-189,309,0,0,0,0,0,0,0,0,0,-1,1035,715,0,0
-182,309,0,0,0,0,0,0,0,0,0,-1,1042,715,0,0
-175,309,0,0,0,0,0,0,0,0,0,-1,1049,715,0,0
-168,309,0,0,0,0,0,0,0,0,0,-1,1056,715,0,0
-161,309,0,0,0,0,0,0,0,0,0,-1,1063,715,0,0
-154,309,0,0,0,0,0,0,0,0,0,-1,1070,715,0,0
-147,309,0,0,0,0,0,0,0,0,0,-1,1077,715,0,0
-140,309,0,0,0,0,0,0,0,0,0,-1,1084,715,0,0
-133,309,0,0,0,0,0,0,0,0,0,-1,1091,715,0,0
-126,309,0,0,0,0,0,0,0,0,0,-1,1098,715,0,0
-119,309,0,0,0,0,0,0,0,0,0,-1,1105,715,0,0
-112,309,0,0,0,0,0,0,0,0,0,-1,1112,715,0,0
-105,309,0,0,0,0,0,0,0,0,0,-1,1119,715,0,0
-98,309,0,0,0,0,0,0,0,0,0,-1,1126,715,0,0
-91,309,0,0,0,0,0,0,0,0,0,-1,1133,715,0,0
-84,309,0,0,0,0,0,0,0,0,0,-1,1140,715,0,0
-77,309,0,0,0,0,0,0,0,0,0,-1,1147,715,0,0
-70,309,0,0,0,0,0,0,0,0,0,-1,1154,715,0,0
-63,309,0,0,0,0,0,0,0,0,0,-1,1161,715,0,0
-56,309,0,0,0,0,0,0,0,0,0,-1,1168,715,0,0
-49,309,0,0,0,0,0,0,0,0,0,-1,1175,715,0,0
-42,309,0,0,0,0,0,0,0,0,0,-1,1182,715,0,0
-35,309,0,0,0,0,0,0,0,0,0,-1,1189,715,0,0
-28,309,0,0,0,0,0,0,0,0,0,-1,1196,715,0,0
-21,309,0,0,0,0,0,0,0,0,0,-1,1203,715,0,0
-14,309,0,0,0,0,0,0,0,0,0,-1,1210,715,0,0
-7,309,0,0,0,0,0,0,0,0,0,-1,1217,715,0,0
0,309,0,0,0,0,0,0,0,0,0,-1,1224,715,0,0
7,309,0,0,0,0,0,0,0,0,0,-1,1231,715,0,0
14,309,0,0,0,0,0,0,0,0,0,-1,1238,715,0,0
21,309,0,0,0,0,0,0,0,0,0,-1,1245,715,0,0
28,309,0,0,0,0,0,0,0,0,0,-1,1252,715,0,0
35,309,0,0,0,0,0,0,0,0,0,-1,1259,715,0,0
42,309,0,0,0,0,0,0,0,0,0,-1,1266,715,0,0
49,309,0,0,0,0,0,0,0,0,0,-1,1273,715,0,0
56,309,0,0,0,0,0,0,0,0,0,-1,1280,715,0,0
63,309,0,0,0,0,0,0,0,0,0,-1,1287,715,0,0
70,309,0,0,0,0,0,0,0,0,0,-1,1294,715,0,0
77,309,0,0,0,0,0,0,0,0,0,-1,1301,715,0,0
84,309,0,0,0,0,0,0,0,0,0,-1,1308,715,0,0
91,309,0,0,0,0,0,0,0,0,0,-1,1315,715,0,0
98,309,0,0,0,0,0,0,0,0,0,-1,1322,715,0,0
105,309,0,0,0,0,0,0,0,0,0,-1,1329,715,0,0
112,309,0,0,0,0,0,0,0,0,0,-1,1336,715,0,0
119,309,0,0,0,0,0,0,0,0,0,-1,1343,715,0,0
126,309,0,0,0,0,0,0,0,0,0,-1,1350,715,0,0
133,309,0,0,0,0,0,0,0,0,0,-1,1357,715,0,0
140,309,0,0,0,0,0,0,0,0,0,-1,1364,715,0,0
147,309,0,0,0,0,0,0,0,0,0,-1,1371,715,0,0
154,309,0,0,0,0,0,0,0,0,0,-1,1378,715,0,0
161,309,0,0,0,0,0,0,0,0,0,-1,1385,715,0,0
168,309,0,0,0,0,0,0,0,0,0,-1,1392,715,0,0
175,309,0,0,0,0,0,0,0,0,0,-1,1399,715,0,0
182,309,0,0,0,0,0,0,0,0,0,-1,1406,715,0,0
189,309,0,0,0,0,0,0,0,0,0,-1,1413,715,0,0
196,309,0,0,0,0,0,0,0,0,0,-1,1420,715,0,0
203,309,0,0,0,0,0,0,0,0,0,-1,1427,715,0,0
210,309,0,0,0,0,0,0,0,0,0,-1,1434,715,0,0
217,309,0,0,0,0,0,0,0,0,0,-1,1441,715,0,0
224,309,0,0,0,0,0,0,0,0,0,-1,1448,715,0,0
231,309,0,0,0,0,0,0,0,0,0,-1,1455,715,0,0
238,309,0,0,0,0,0,0,0,0,0,-1,1462,715,0,0
245,309,0,0,0,0,0,0,0,0,0,-1,1469,715,0,0
252,309,0,0,0,0,0,0,0,0,0,-1,1476,715,0,0
259,309,0,0,0,0,0,0,0,0,0,-1,1483,715,0,0
266,309,0,0,0,0,0,0,0,0,0,-1,1490,715,0,0
273,309,0,0,0,0,0,0,0,0,0,-1,1497,715,0,0
280,309,0,0,0,0,0,0,0,0,0,-1,1504,715,0,0
287,309,0,0,0,0,0,0,0,0,0,-1,1511,715,0,0
294,309,0,0,0,0,0,0,0,0,0,-1,1518,715,0,0
301,309,0,0,0,0,0,0,0,0,0,-1,1525,715,0,0
308,309,0,0,0,0,0,0,0,0,0,-1,1532,715,0,0
315,309,0,0,0,0,0,0,0,0,0,-1,1539,715,0,0
322,309,0,0,0,0,0,0,0,0,0,-1,1546,715,0,0
329,309,0,0,0,0,0,0,0,0,0,-1,1553,715,0,0
336,309,0,0,0,0,0,0,0,0,0,-1,1560,715,0,0
343,309,0,0,0,0,0,0,0,0,0,-1,1567,715,0,0
350,309,0,0,0,0,0,0,0,0,0,-1,1574,715,0,0
357,309,0,0,0,0,0,0,0,0,0,-1,1581,715,0,0
364,309,0,0,0,0,0,0,0,0,0,-1,1588,715,0,0
371,309,0,0,0,0,0,0,0,0,0,-1,1595,715,0,0
378,309,0,0,0,0,0,0,0,0,0,-1,1602,715,0,0
385,309,0,0,0,0,0,0,0,0,0,-1,1609,715,0,0
392,309,0,0,0,0,0,0,0,0,0,-1,1616,715,0,0
399,309,0,0,0,0,0,0,0,0,0,-1,1623,715,0,0
406,309,0,0,0,0,0,0,0,0,0,-1,1630,715,0,0
413,309,0,0,0,0,0,0,0,0,0,-1,1637,715,0,0
420,309,0,0,0,0,0,0,0,0,0,-1,1644,715,0,0
427,309,0,0,0,0,0,0,0,0,0,-1,1651,715,0,0
434,309,0,0,0,0,0,0,0,0,0,-1,1658,715,0,0
441,309,0,0,0,0,0,0,0,0,0,-1,1665,715,0,0
448,309,0,0,0,0,0,0,0,0,0,-1,1672,715,0,0
455,309,0,0,0,0,0,0,0,0,0,-1,1679,715,0,0
462,309,0,0,0,0,0,0,0,0,0,-1,1686,715,0,0
469,309,0,0,0,0,0,0,0,0,0,-1,1693,715,0,0
476,309,0,0,0,0,0,0,0,0,0,-1,1700,715,0,0
483,309,0,0,0,0,0,0,0,0,0,-1,1707,715,0,0
490,309,0,0,0,0,0,0,0,0,0,-1,1714,715,0,0
497,309,0,0,0,0,0,0,0,0,0,-1,1721,715,0,0
504,309,0,0,0,0,0,0,0,0,0,-1,1728,715,0,0
511,309,0,0,0,0,0,0,0,0,0,-1,1735,715,0,0
518,309,0,0,0,0,0,0,0,0,0,-1,1742,715,0,0
525,309,0,0,0,0,0,0,0,0,0,-1,1749,715,0,0
532,309,0,0,0,0,0,0,0,0,0,-1,1756,715,0,0
539,309,40.9202,4.59381,0,0,0,0,0,0,0,-1,1763,715,40.9201,-4.5938
546,309,40.9192,4.94757,0.0463526,0.0837852,-0.0379763,0.107407,0.022731,-1.01435,0.0653587,0.0464593,1770,715,40.9192,-4.94758
553,309,40.8143,5.42181,0,0,0,0,0,0,0,-1,1777,715,40.8144,-5.42181
560,309,41.0339,6.12061,0,0,0,0,0,0,0,-1,1784,715,41.034,-6.1206
567,309,38.2872,1.72437,0,0,0,0,0,0,0,-1,1791,715,38.2872,-1.72434
574,309,39.0372,2.01044,0,0,0,0,0,0,0,-1,1798,715,39.0372,-2.01045
581,309,39.9871,2.35028,0,0,0,0,0,0,0,-1,1805,715,39.9871,-2.3503
588,309,26.2064,7.76422,0,0,0,0,0,0,0,-1,1812,715,26.2064,-7.7642
595,309,19.585,3.71558,0,0,0,0,0,0,0,-1,1819,715,19.5849,-3.71555
602,309,11.0811,3.47772,0,0,0,0,0,0,0,-1,1826,715,11.0811,-3.47772
609,309,26.2109,-4.97565,0,0,0,0,0,0,0,-1,1833,715,26.2109,4.97567
616,309,26.2634,-4.32526,-0.00423044,0.00190097,0.00740213,0.00684714,-0.00917661,0.981727,0.00928385,0.028029,1840,715,26.2634,4.32523
623,309,26.2791,-3.71051,-0.00562823,0.00104179,0.00618003,0.00472925,-0.00931569,1.03283,0.00825171,0.0111383,1847,715,26.279,3.71048
630,309,26.2272,-3.16681,-0.00322512,0.00032869,0.00399171,0.00292113,-0.00581756,0.994804,0.00513683,0.0113559,1854,715,26.2271,3.16684
637,309,26.1732,-2.60553,-0.001855,-2.2247e-05,0.00234969,0.00158344,-0.00346068,0.971325,0.00297869,0.0148113,1861,715,26.1732,2.60553
644,309,26.1437,-2.03699,-0.00135492,-3.54731e-05,0.00115335,0.000633509,-0.0020239,1.04519,0.00160273,0.0160062,1868,715,26.1437,2.03698
651,309,26.1379,-1.4823,-0.00131592,8.49303e-05,0.000219383,0.000118484,-0.00134948,1.41903,0.000941633,0.0139052,1875,715,26.1379,1.48229
658,309,26.1334,-0.952148,-0.00196747,0.000298135,-0.000340605,0.000348233,-0.00201757,-1.42476,0.00147489,0.0189952,1882,715,26.1334,0.952147
665,309,26.1454,-0.398254,-0.00309789,0.000572817,-0.000689423,0.000698032,-0.0032231,-1.39113,0.00241527,0.0175686,1889,715,26.1454,0.398265
672,309,26.1196,0.165161,-0.00446117,0.000998299,-0.000992193,0.00117303,-0.0046359,-1.39648,0.00354687,0.0160464,1896,715,26.1197,-0.165187
679,309,26.1239,0.757263,-0.00608115,0.00160788,-0.00127313,0.0018132,-0.00628647,-1.4109,0.00490831,0.0195944,1903,715,26.1239,-0.757258
686,309,25.9536,1.44086,-0.00798776,0.00242147,-0.00148123,0.00262814,-0.00819444,-1.43216,0.00651808,0.032199,1910,715,25.9536,-1.44085
693,309,25.5457,2.07434,0,0,0,0,0,0,0,-1,1917,715,25.5456,-2.07432
700,309,23.0179,3.08337,0,0,0,0,0,0,0,-1,1924,715,23.018,-3.08336
707,309,15.6318,4.58655,0,0,0,0,0,0,0,-1,1931,715,15.6318,-4.58657
714,309,16.7573,6.68286,0,0,0,0,0,0,0,-1,1938,715,16.7574,-6.68284
721,309,16.8337,5.4458,0,0,0,0,0,0,0,-1,1945,715,16.8338,-5.44582
728,309,0,0,0,0,0,0,0,0,0,-1,1952,715,0,0
735,309,0,0,0,0,0,0,0,0,0,-1,1959,715,0,0
742,309,0,0,0,0,0,0,0,0,0,-1,1966,715,0,0
749,309,0,0,0,0,0,0,0,0,0,-1,1973,715,0,0
756,309,0,0,0,0,0,0,0,0,0,-1,1980,715,0,0
763,309,0,0,0,0,0,0,0,0,0,-1,1987,715,0,0
770,309,0,0,0,0,0,0,0,0,0,-1,1994,715,0,0
777,309,0,0,0,0,0,0,0,0,0,-1,2001,715,0,0
784,309,0,0,0,0,0,0,0,0,0,-1,2008,715,0,0
791,309,0,0,0,0,0,0,0,0,0,-1,2015,715,0,0
798,309,0,0,0,0,0,0,0,0,0,-1,2022,715,0,0
805,309,0,0,0,0,0,0,0,0,0,-1,2029,715,0,0
812,309,0,0,0,0,0,0,0,0,0,-1,2036,715,0,0
-700,302,0,0,0,0,0,0,0,0,0,-1,524,722,0,0
-693,302,0,0,0,0,0,0,0,0,0,-1,531,722,0,0
-686,302,0,0,0,0,0,0,0,0,0,-1,538,722,0,0
-679,302,0,0,0,0,0,0,0,0,0,-1,545,722,0,0
-672,302,0,0,0,0,0,0,0,0,0,-1,552,722,0,0
-665,302,0,0,0,0,0,0,0,0,0,-1,559,722,0,0
-658,302,0,0,0,0,0,0,0,0,0,-1,566,722,0,0
-651,302,0,0,0,0,0,0,0,0,0,-1,573,722,0,0
-644,302,0,0,0,0,0,0,0,0,0,-1,580,722,0,0
-637,302,0,0,0,0,0,0,0,0,0,-1,587,722,0,0
-630,302,0,0,0,0,0,0,0,0,0,-1,594,722,0,0
-623,302,0,0,0,0,0,0,0,0,0,-1,601,722,0,0
-616,302,0,0,0,0,0,0,0,0,0,-1,608,722,0,0
-609,302,-7.79266,-3.71649,0,0,0,0,0,0,0,-1,615,722,-7.79267,3.7165
-602,302,0.92865,-1.99158,0,0,0,0,0,0,0,-1,622,722,0.928637,1.99157
-595,302,-7.89941,2.13641,0,0,0,0,0,0,0,-1,629,722,-7.89939,-2.13639
-588,302,-7.10895,1.79163,0,0,0,0,0,0,0,-1,636,722,-7.10896,-1.79163
-581,302,-9.17566,1.09448,0,0,0,0,0,0,0,-1,643,722,-9.17569,-1.09445
-574,302,-11.5183,-0.344543,0,0,0,0,0,0,0,-1,650,722,-11.5183,0.344557
-567,302,-12.1534,-0.672241,0,0,0,0,0,0,0,-1,657,722,-12.1535,0.672246
-560,302,-16.7512,-0.58606,0,0,0,0,0,0,0,-1,664,722,-16.7512,0.58603
-553,302,-16.6748,-1.12946,-0.00136692,0.00727662,-0.00195615,0.00769872,-0.00178901,-1.35828,0.00582118,0.0245009,671,722,-16.6748,1.12949
-546,302,-16.6853,-1.71893,-0.000741902,0.00547291,-0.00161075,0.00586557,-0.00113457,-1.33168,0.00433831,0.0167605,678,722,-16.6853,1.71895
-539,302,-16.7021,-2.23047,-0.000215618,0.00364825,-0.00120932,0.00399553,-0.000562898,-1.29115,0.00286978,0.0148368,685,722,-16.7021,2.2305
-532,302,-16.665,-2.77826,7.20678e-05,0.00228841,-0.000674476,0.00247753,-0.00011705,-1.29742,0.00169205,0.0144334,692,722,-16.665,2.77829
-525,302,-16.6492,-3.33649,0.000300692,0.00107895,-0.000285836,0.00117265,0.000206992,-1.25402,0.000722717,0.0195487,699,722,-16.6492,3.33646
-518,302,-16.6912,-3.84662,0.000563052,0.000321263,-0.000394722,0.000854978,2.93364e-05,-0.636795,0.000560463,0.0205601,706,722,-16.6912,3.84664
-511,302,-16.7311,-4.33832,0.00132059,-8.80958e-05,-0.000944262,0.00179427,-0.000561771,-0.464955,0.00142095,0.0113259,713,722,-16.7311,4.33833
-504,302,-16.7408,-4.883,0.00376977,0.000448814,-0.00226973,0.00492157,-0.000702982,-0.469596,0.00353872,0.010083,720,722,-16.7408,4.88298
-497,302,-16.8007,-5.3822,0.00621323,0.00134162,-0.00411235,0.00855702,-0.00100217,-0.518024,0.00606639,0.0153028,727,722,-16.8007,5.38218
-490,302,-16.6228,-5.88617,0,0,0,0,0,0,0,-1,734,722,-16.6228,5.88616
-483,302,-9.53412,-3.1673,0,0,0,0,0,0,0,-1,741,722,-9.53411,3.1673
-476,302,-4.29749,-0.203491,0,0,0,0,0,0,0,-1,748,722,-4.29751,0.203464
-469,302,-12.369,1.42859,0,0,0,0,0,0,0,-1,755,722,-12.3689,-1.42857
-462,302,-17.4766,0.310791,0,0,0,0,0,0,0,-1,762,722,-17.4766,-0.310788
-455,302,-28.6006,-0.598206,0,0,0,0,0,0,0,-1,769,722,-28.6006,0.598234
-448,302,-29.7947,1.49585,0,0,0,0,0,0,0,-1,776,722,-29.7948,-1.49585
-441,302,-27.6344,0.371826,0,0,0,0,0,0,0,-1,783,722,-27.6344,-0.371825
-434,302,-27.6,1.27759,0,0,0,0,0,0,0,-1,790,722,-27.6,-1.27759
-427,302,-27.1735,1.81506,0,0,0,0,0,0,0,-1,797,722,-27.1735,-1.81504
-420,302,0,0,0,0,0,0,0,0,0,-1,804,722,0,0
-413,302,0,0,0,0,0,0,0,0,0,-1,811,722,0,0
-406,302,0,0,0,0,0,0,0,0,0,-1,818,722,0,0
-399,302,0,0,0,0,0,0,0,0,0,-1,825,722,0,0
-392,302,0,0,0,0,0,0,0,0,0,-1,832,722,0,0
-385,302,0,0,0,0,0,0,0,0,0,-1,839,722,0,0
-378,302,0,0,0,0,0,0,0,0,0,-1,846,722,0,0
-371,302,0,0,0,0,0,0,0,0,0,-1,853,722,0,0
-364,302,0,0,0,0,0,0,0,0,0,-1,860,722,0,0
-357,302,0,0,0,0,0,0,0,0,0,-1,867,722,0,0
-350,302,0,0,0,0,0,0,0,0,0,-1,874,722,0,0
-343,302,0,0,0,0,0,0,0,0,0,-1,881,722,0,0
-336,302,0,0,0,0,0,0,0,0,0,-1,888,722,0,0
-329,302,0,0,0,0,0,0,0,0,0,-1,895,722,0,0
-322,302,0,0,0,0,0,0,0,0,0,-1,902,722,0,0
-315,302,0,0,0,0,0,0,0,0,0,-1,909,722,0,0
-308,302,0,0,0,0,0,0,0,0,0,-1,916,722,0,0
-301,302,0,0,0,0,0,0,0,0,0,-1,923,722,0,0
-294,302,0,0,0,0,0,0,0,0,0,-1,930,722,0,0
-287,302,0,0,0,0,0,0,0,0,0,-1,937,722,0,0
-280,302,0,0,0,0,0,0,0,0,0,-1,944,722,0,0
-273,302,0,0,0,0,0,0,0,0,0,-1,951,722,0,0
-266,302,0,0,0,0,0,0,0,0,0,-1,958,722,0,0
-259,302,0,0,0,0,0,0,0,0,0,-1,965,722,0,0
-252,302,0,0,0,0,0,0,0,0,0,-1,972,722,0,0
-245,302,0,0,0,0,0,0,0,0,0,-1,979,722,0,0
-238,302,0,0,0,0,0,0,0,0,0,-1,986,722,0,0
-231,302,0,0,0,0,0,0,0,0,0,-1,993,722,0,0
-224,302,0,0,0,0,0,0,0,0,0,-1,1000,722,0,0
-217,302,0,0,0,0,0,0,0,0,0,-1,1007,722,0,0
-210,302,0,0,0,0,0,0,0,0,0,-1,1014,722,0,0
-203,302,0,0,0,0,0,0,0,0,0,-1,1021,722,0,0
-196,302,0,0,0,0,0,0,0,0,0,-1,1028,722,0,0
-189,302,0,0,0,0,0,0,0,0,0,-1,1035,722,0,0
-182,302,0,0,0,0,0,0,0,0,0,-1,1042,722,0,0
-175,302,0,0,0,0,0,0,0,0,0,-1,1049,722,0,0
-168,302,0,0,0,0,0,0,0,0,0,-1,1056,722,0,0
-161,302,0,0,0,0,0,0,0,0,0,-1,1063,722,0,0
-154,302,0,0,0,0,0,0,0,0,0,-1,1070,722,0,0
-147,302,0,0,0,0,0,0,0,0,0,-1,1077,722,0,0
-140,302,0,0,0,0,0,0,0,0,0,-1,1084,722,0,0
-133,302,0,0,0,0,0,0,0,0,0,-1,1091,722,0,0
-126,302,0,0,0,0,0,0,0,0,0,-1,1098,722,0,0
-119,302,0,0,0,0,0,0,0,0,0,-1,1105,722,0,0
-112,302,0,0,0,0,0,0,0,0,0,-1,1112,722,0,0
-105,302,0,0,0,0,0,0,0,0,0,-1,1119,722,0,0
-98,302,0,0,0,0,0,0,0,0,0,-1,1126,722,0,0
-91,302,0,0,0,0,0,0,0,0,0,-1,1133,722,0,0
-84,302,0,0,0,0,0,0,0,0,0,-1,1140,722,0,0
-77,302,0,0,0,0,0,0,0,0,0,-1,1147,722,0,0
-70,302,0,0,0,0,0,0,0,0,0,-1,1154,722,0,0
-63,302,0,0,0,0,0,0,0,0,0,-1,1161,722,0,0
-56,302,0,0,0,0,0,0,0,0,0,-1,1168,722,0,0
-49,302,0,0,0,0,0,0,0,0,0,-1,1175,722,0,0
-42,302,0,0,0,0,0,0,0,0,0,-1,1182,722,0,0
-35,302,0,0,0,0,0,0,0,0,0,-1,1189,722,0,0
-28,302,0,0,0,0,0,0,0,0,0,-1,1196,722,0,0
-21,302,0,0,0,0,0,0,0,0,0,-1,1203,722,0,0
-14,302,0,0,0,0,0,0,0,0,0,-1,1210,722,0,0
-7,302,0,0,0,0,0,0,0,0,0,-1,1217,722,0,0
0,302,0,0,0,0,0,0,0,0,0,-1,1224,722,0,0
7,302,0,0,0,0,0,0,0,0,0,-1,1231,722,0,0
14,302,0,0,0,0,0,0,0,0,0,-1,1238,722,0,0
21,302,0,0,0,0,0,0,0,0,0,-1,1245,722,0,0
28,302,0,0,0,0,0,0,0,0,0,-1,1252,722,0,0
35,302,0,0,0,0,0,0,0,0,0,-1,1259,722,0,0
42,302,0,0,0,0,0,0,0,0,0,-1,1266,722,0,0
49,302,0,0,0,0,0,0,0,0,0,-1,1273,722,0,0
56,302,0,0,0,0,0,0,0,0,0,-1,1280,722,0,0
63,302,0,0,0,0,0,0,0,0,0,-1,1287,722,0,0
70,302,0,0,0,0,0,0,0,0,0,-1,1294,722,0,0
77,302,0,0,0,0,0,0,0,0,0,-1,1301,722,0,0
84,302,0,0,0,0,0,0,0,0,0,-1,1308,722,0,0
91,302,0,0,0,0,0,0,0,0,0,-1,1315,722,0,0
98,302,0,0,0,0,0,0,0,0,0,-1,1322,722,0,0
105,302,0,0,0,0,0,0,0,0,0,-1,1329,722,0,0
112,302,0,0,0,0,0,0,0,0,0,-1,1336,722,0,0
119,302,0,0,0,0,0,0,0,0,0,-1,1343,722,0,0
126,302,0,0,0,0,0,0,0,0,0,-1,1350,722,0,0
133,302,0,0,0,0,0,0,0,0,0,-1,1357,722,0,0
140,302,0,0,0,0,0,0,0,0,0,-1,1364,722,0,0
147,302,0,0,0,0,0,0,0,0,0,-1,1371,722,0,0
154,302,0,0,0,0,0,0,0,0,0,-1,1378,722,0,0
161,302,0,0,0,0,0,0,0,0,0,-1,1385,722,0,0
168,302,0,0,0,0,0,0,0,0,0,-1,1392,722,0,0
175,302,0,0,0,0,0,0,0,0,0,-1,1399,722,0,0
182,302,0,0,0,0,0,0,0,0,0,-1,1406,722,0,0
189,302,0,0,0,0,0,0,0,0,0,-1,1413,722,0,0
196,302,0,0,0,0,0,0,0,0,0,-1,1420,722,0,0
203,302,0,0,0,0,0,0,0,0,0,-1,1427,722,0,0
210,302,0,0,0,0,0,0,0,0,0,-1,1434,722,0,0
217,302,0,0,0,0,0,0,0,0,0,-1,1441,722,0,0
224,302,0,0,0,0,0,0,0,0,0,-1,1448,722,0,0
231,302,0,0,0,0,0,0,0,0,0,-1,1455,722,0,0
238,302,0,0,0,0,0,0,0,0,0,-1,1462,722,0,0
245,302,0,0,0,0,0,0,0,0,0,-1,1469,722,0,0
252,302,0,0,0,0,0,0,0,0,0,-1,1476,722,0,0
259,302,0,0,0,0,0,0,0,0,0,-1,1483,722,0,0
266,302,0,0,0,0,0,0,0,0,0,-1,1490,722,0,0
273,302,0,0,0,0,0,0,0,0,0,-1,1497,722,0,0
280,302,0,0,0,0,0,0,0,0,0,-1,1504,722,0,0
287,302,0,0,0,0,0,0,0,0,0,-1,1511,722,0,0
294,302,0,0,0,0,0,0,0,0,0,-1,1518,722,0,0
301,302,0,0,0,0,0,0,0,0,0,-1,1525,722,0,0
308,302,0,0,0,0,0,0,0,0,0,-1,1532,722,0,0
315,302,0,0,0,0,0,0,0,0,0,-1,1539,722,0,0
322,302,0,0,0,0,0,0,0,0,0,-1,1546,722,0,0
329,302,0,0,0,0,0,0,0,0,0,-1,1553,722,0,0
336,302,0,0,0,0,0,0,0,0,0,-1,1560,722,0,0
343,302,0,0,0,0,0,0,0,0,0,-1,1567,722,0,0
350,302,0,0,0,0,0,0,0,0,0,-1,1574,722,0,0
357,302,0,0,0,0,0,0,0,0,0,-1,1581,722,0,0
364,302,0,0,0,0,0,0,0,0,0,-1,1588,722,0,0
371,302,0,0,0,0,0,0,0,0,0,-1,1595,722,0,0
378,302,0,0,0,0,0,0,0,0,0,-1,1602,722,0,0
385,302,0,0,0,0,0,0,0,0,0,-1,1609,722,0,0
392,302,0,0,0,0,0,0,0,0,0,-1,1616,722,0,0
399,302,0,0,0,0,0,0,0,0,0,-1,1623,722,0,0
406,302,0,0,0,0,0,0,0,0,0,-1,1630,722,0,0
413,302,0,0,0,0,0,0,0,0,0,-1,1637,722,0,0
420,302,0,0,0,0,0,0,0,0,0,-1,1644,722,0,0
427,302,0,0,0,0,0,0,0,0,0,-1,1651,722,0,0
434,302,0,0,0,0,0,0,0,0,0,-1,1658,722,0,0
441,302,0,0,0,0,0,0,0,0,0,-1,1665,722,0,0
448,302,0,0,0,0,0,0,0,0,0,-1,1672,722,0,0
455,302,0,0,0,0,0,0,0,0,0,-1,1679,722,0,0
462,302,0,0,0,0,0,0,0,0,0,-1,1686,722,0,0
469,302,0,0,0,0,0,0,0,0,0,-1,1693,722,0,0
476,302,0,0,0,0,0,0,0,0,0,-1,1700,722,0,0
483,302,0,0,0,0,0,0,0,0,0,-1,1707,722,0,0
490,302,0,0,0,0,0,0,0,0,0,-1,1714,722,0,0
497,302,0,0,0,0,0,0,0,0,0,-1,1721,722,0,0
504,302,0,0,0,0,0,0,0,0,0,-1,1728,722,0,0
511,302,0,0,0,0,0,0,0,0,0,-1,1735,722,0,0
518,302,0,0,0,0,0,0,0,0,0,-1,1742,722,0,0
525,302,0,0,0,0,0,0,0,0,0,-1,1749,722,0,0
532,302,0,0,0,0,0,0,0,0,0,-1,1756,722,0,0
539,302,0,0,0,0,0,0,0,0,0,-1,1763,722,0,0
546,302,42.0569,4.19849,0,0,0,0,0,0,0,-1,1770,722,42.0569,-4.19847
553,302,43.0659,3.64856,0,0,0,0,0,0,0,-1,1777,722,43.066,-3.64857
560,302,43.4312,3.49261,0,0,0,0,0,0,0,-1,1784,722,43.4312,-3.4926
567,302,43.6692,3.55615,0,0,0,0,0,0,0,-1,1791,722,43.6691,-3.55613
574,302,37.9297,1.69781,0,0,0,0,0,0,0,-1,1798,722,37.9297,-1.69781
581,302,38.2401,2.2843,0,0,0,0,0,0,0,-1,1805,722,38.2402,-2.28431
588,302,26.9731,7.19983,0,0,0,0,0,0,0,-1,1812,722,26.9732,-7.19981
595,302,27.3826,8.13104,0,0,0,0,0,0,0,-1,1819,722,27.3825,-8.13102
602,302,14.7349,5.21246,0,0,0,0,0,0,0,-1,1826,722,14.7349,-5.21247
609,302,11.1578,-0.125854,0,0,0,0,0,0,0,-1,1833,722,11.1579,0.125839
616,302,26.8822,-4.24561,0,0,0,0,0,0,0,-1,1840,722,26.8823,4.24558
623,302,26.8179,-3.67871,-0.0090607,0.00082996,0.00988379,0.00693658,-0.0151673,1.01736,0.0130533,0.0150247,1847,722,26.8179,3.67874
630,302,26.7556,-3.12512,-0.00612684,-6.06304e-05,0.00697572,0.00451287,-0.0107003,0.990473,0.00902226,0.0109882,1854,722,26.7556,3.12514
637,302,26.694,-2.58954,-0.00387415,-0.000439172,0.00449422,0.00265456,-0.00696788,0.967913,0.00573855,0.0143045,1861,722,26.694,2.58952
644,302,26.689,-2.0368,-0.00248733,-0.000312023,0.00252577,0.00135032,-0.00414968,0.98871,0.00330969,0.0167113,1868,722,26.689,2.03678
651,302,26.6995,-1.45789,-0.00157942,-3.73495e-05,0.000998964,0.000453528,-0.0020703,1.11406,0.0015536,0.0154192,1875,722,26.6995,1.45789
658,302,26.7068,-0.928589,-0.00156537,0.000350542,9.42515e-05,0.000355167,-0.00157,1.52176,0.00118296,0.0154852,1882,722,26.7068,0.928562
665,302,26.6984,-0.37915,-0.00227212,0.0007346,-0.000305523,0.000765331,-0.00230285,-1.47055,0.00184406,0.0150176,1889,722,26.6983,0.379172
672,302,26.6647,0.180359,-0.00327778,0.00127364,-0.000462448,0.00132015,-0.00332429,-1.47056,0.00276344,0.012093,1896,722,26.6646,-0.18034
679,302,26.6353,0.748291,-0.00441785,0.00199425,-0.000569706,0.00204447,-0.00446808,-1.48287,0.00384583,0.00996714,1903,722,26.6353,-0.748318
686,302,26.6334,1.33984,-0.00567251,0.00292762,-0.000568767,0.00296507,-0.00570997,-1.50504,0.00509142,0.0183063,1910,722,26.6334,-1.33985
693,302,26.5955,1.92712,0,0,0,0,0,0,0,-1,1917,722,26.5955,-1.9271
700,302,25.4069,1.97308,0,0,0,0,0,0,0,-1,1924,722,25.4068,-1.97311
707,302,16.7321,4.76685,0,0,0,0,0,0,0,-1,1931,722,16.7321,-4.76687
714,302,17.2,5.77594,0,0,0,0,0,0,0,-1,1938,722,17.2,-5.77595
721,302,17.7914,6.60394,0,0,0,0,0,0,0,-1,1945,722,17.7914,-6.60395
728,302,17.2798,4.81702,0,0,0,0,0,0,0,-1,1952,722,17.2798,-4.81703
735,302,0,0,0,0,0,0,0,0,0,-1,1959,722,0,0
742,302,0,0,0,0,0,0,0,0,0,-1,1966,722,0,0
749,302,0,0,0,0,0,0,0,0,0,-1,1973,722,0,0
756,302,0,0,0,0,0,0,0,0,0,-1,1980,722,0,0
763,302,0,0,0,0,0,0,0,0,0,-1,1987,722,0,0
770,302,0,0,0,0,0,0,0,0,0,-1,1994,722,0,0
777,302,0,0,0,0,0,0,0,0,0,-1,2001,722,0,0
784,302,0,0,0,0,0,0,0,0,0,-1,2008,722,0,0
791,302,0,0,0,0,0,0,0,0,0,-1,2015,722,0,0
798,302,0,0,0,0,0,0,0,0,0,-1,2022,722,0,0
805,302,0,0,0,0,0,0,0,0,0,-1,2029,722,0,0
812,302,0,0,0,0,0,0,0,0,0,-1,2036,722,0,0
-700,295,0,0,0,0,0,0,0,0,0,-1,524,729,0,0
-693,295,0,0,0,0,0,0,0,0,0,-1,531,729,0,0
-686,295,0,0,0,0,0,0,0,0,0,-1,538,729,0,0
-679,295,0,0,0,0,0,0,0,0,0,-1,545,729,0,0
-672,295,0,0,0,0,0,0,0,0,0,-1,552,729,0,0
-665,295,0,0,0,0,0,0,0,0,0,-1,559,729,0,0
-658,295,0,0,0,0,0,0,0,0,0,-1,566,729,0,0
-651,295,0,0,0,0,0,0,0,0,0,-1,573,729,0,0
-644,295,0,0,0,0,0,0,0,0,0,-1,580,729,0,0
-637,295,0,0,0,0,0,0,0,0,0,-1,587,729,0,0
-630,295,0,0,0,0,0,0,0,0,0,-1,594,729,0,0
-623,295,0,0,0,0,0,0,0,0,0,-1,601,729,0,0
-616,295,-13.4911,1.31738,0,0,0,0,0,0,0,-1,608,729,-13.4911,-1.3174
-609,295,-10.2864,0.832031,0,0,0,0,0,0,0,-1,615,729,-10.2863,-0.832034
-602,295,-8.19006,3.01587,0,0,0,0,0,0,0,-1,622,729,-8.19005,-3.01588
-595,295,-0.615479,-1.95447,0,0,0,0,0,0,0,-1,629,729,-0.615481,1.95445
-588,295,-7.98999,1.56903,0,0,0,0,0,0,0,-1,636,729,-7.98997,-1.56905
-581,295,-12.0404,0.150574,0,0,0,0,0,0,0,-1,643,729,-12.0404,-0.150604
-574,295,-12.1605,-0.0739746,0,0,0,0,0,0,0,-1,650,729,-12.1605,0.0739856
-567,295,-16.9251,-0.0236816,0,0,0,0,0,0,0,-1,657,729,-16.9251,0.023703
-560,295,-17.1347,-0.658264,-0.00249782,0.00660608,-0.0011076,0.0067389,-0.00263063,-1.45145,0.00558015,0.0341033,664,729,-17.1347,0.658275
-553,295,-17.1516,-1.21503,-0.00157843,0.00511446,-0.0010466,0.0052743,-0.00173827,-1.41924,0.00421679,0.0197062,671,729,-17.1516,1.21503
-546,295,-17.2097,-1.73511,-0.00095835,0.00371195,-0.000805676,0.00384703,-0.00109343,-1.40468,0.00299642,0.0219357,678,729,-17.2096,1.73511
-539,295,-17.2318,-2.20862,-0.000419181,0.00217842,-0.000520867,0.00227897,-0.000519732,-1.3801,0.00171895,0.0184223,685,729,-17.2318,2.20865
-532,295,-17.224,-2.75977,-0.000126857,0.00110216,-6.15367e-05,0.00110523,-0.000129931,-1.52089,0.00078373,0.0158092,692,729,-17.224,2.75978
-525,295,-17.2141,-3.30676,0.000128392,0.000190686,9.84652e-05,0.000262813,5.62652e-05,0.93858,0.000159791,0.0151507,699,729,-17.2141,3.30679
-518,295,-17.2256,-3.8103,0.000445133,-0.000170985,-0.00044052,0.000674622,-0.000400474,-0.480267,0.000627398,0.0112507,706,729,-17.2256,3.81029
-511,295,-17.24,-4.3139,0.00142649,-0.000176072,-0.00145707,0.00228807,-0.00103765,-0.534005,0.00196483,0.00997155,713,729,-17.24,4.31389
-504,295,-17.265,-4.84125,0.00444514,0.000838874,-0.00332877,0.00642776,-0.00114375,-0.537181,0.00471292,0.0117461,720,729,-17.265,4.84127
-497,295,-17.3308,-5.30121,0.00728725,0.00218678,-0.00574758,0.011025,-0.00155094,-0.576595,0.00791776,0.0222464,727,729,-17.3308,5.30119
-490,295,-17.4036,-5.7182,0,0,0,0,0,0,0,-1,734,729,-17.4036,5.71818
-483,295,-6.84503,-0.454651,0,0,0,0,0,0,0,-1,741,729,-6.84505,0.454639
-476,295,-13.1738,-0.836243,0,0,0,0,0,0,0,-1,748,729,-13.1738,0.836223
-469,295,-26.5608,-0.466187,0,0,0,0,0,0,0,-1,755,729,-26.5608,0.466162
-462,295,-29.7701,-0.792664,0,0,0,0,0,0,0,-1,762,729,-29.7701,0.792642
-455,295,-33.181,-0.472229,0,0,0,0,0,0,0,-1,769,729,-33.181,0.472208
-448,295,-30.5955,2.21436,0,0,0,0,0,0,0,-1,776,729,-30.5955,-2.21439
-441,295,-33.0787,0.852539,0,0,0,0,0,0,0,-1,783,729,-33.0787,-0.852561
-434,295,-33.2675,0.936279,0,0,0,0,0,0,0,-1,790,729,-33.2675,-0.936288
-427,295,0,0,0,0,0,0,0,0,0,-1,797,729,0,0
-420,295,0,0,0,0,0,0,0,0,0,-1,804,729,0,0
-413,295,0,0,0,0,0,0,0,0,0,-1,811,729,0,0
-406,295,0,0,0,0,0,0,0,0,0,-1,818,729,0,0
-399,295,0,0,0,0,0,0,0,0,0,-1,825,729,0,0
-392,295,0,0,0,0,0,0,0,0,0,-1,832,729,0,0
-385,295,0,0,0,0,0,0,0,0,0,-1,839,729,0,0
-378,295,0,0,0,0,0,0,0,0,0,-1,846,729,0,0
-371,295,0,0,0,0,0,0,0,0,0,-1,853,729,0,0
-364,295,0,0,0,0,0,0,0,0,0,-1,860,729,0,0
-357,295,0,0,0,0,0,0,0,0,0,-1,867,729,0,0
-350,295,0,0,0,0,0,0,0,0,0,-1,874,729,0,0
-343,295,0,0,0,0,0,0,0,0,0,-1,881,729,0,0
-336,295,0,0,0,0,0,0,0,0,0,-1,888,729,0,0
-329,295,0,0,0,0,0,0,0,0,0,-1,895,729,0,0
-322,295,0,0,0,0,0,0,0,0,0,-1,902,729,0,0
-315,295,0,0,0,0,0,0,0,0,0,-1,909,729,0,0
-308,295,0,0,0,0,0,0,0,0,0,-1,916,729,0,0
-301,295,0,0,0,0,0,0,0,0,0,-1,923,729,0,0
-294,295,0,0,0,0,0,0,0,0,0,-1,930,729,0,0
-287,295,0,0,0,0,0,0,0,0,0,-1,937,729,0,0
-280,295,0,0,0,0,0,0,0,0,0,-1,944,729,0,0
-273,295,0,0,0,0,0,0,0,0,0,-1,951,729,0,0
-266,295,0,0,0,0,0,0,0,0,0,-1,958,729,0,0
-259,295,0,0,0,0,0,0,0,0,0,-1,965,729,0,0
-252,295,0,0,0,0,0,0,0,0,0,-1,972,729,0,0
-245,295,0,0,0,0,0,0,0,0,0,-1,979,729,0,0
-238,295,0,0,0,0,0,0,0,0,0,-1,986,729,0,0
-231,295,0,0,0,0,0,0,0,0,0,-1,993,729,0,0
-224,295,0,0,0,0,0,0,0,0,0,-1,1000,729,0,0
-217,295,0,0,0,0,0,0,0,0,0,-1,1007,729,0,0
-210,295,0,0,0,0,0,0,0,0,0,-1,1014,729,0,0
-203,295,0,0,0,0,0,0,0,0,0,-1,1021,729,0,0
-196,295,0,0,0,0,0,0,0,0,0,-1,1028,729,0,0
-189,295,0,0,0,0,0,0,0,0,0,-1,1035,729,0,0
-182,295,0,0,0,0,0,0,0,0,0,-1,1042,729,0,0
-175,295,0,0,0,0,0,0,0,0,0,-1,1049,729,0,0
-168,295,0,0,0,0,0,0,0,0,0,-1,1056,729,0,0
-161,295,0,0,0,0,0,0,0,0,0,-1,1063,729,0,0
-154,295,0,0,0,0,0,0,0,0,0,-1,1070,729,0,0
-147,295,0,0,0,0,0,0,0,0,0,-1,1077,729,0,0
-140,295,0,0,0,0,0,0,0,0,0,-1,1084,729,0,0
-133,295,0,0,0,0,0,0,0,0,0,-1,1091,729,0,0
-126,295,0,0,0,0,0,0,0,0,0,-1,1098,729,0,0
-119,295,0,0,0,0,0,0,0,0,0,-1,1105,729,0,0
-112,295,0,0,0,0,0,0,0,0,0,-1,1112,729,0,0
-105,295,0,0,0,0,0,0,0,0,0,-1,1119,729,0,0
-98,295,0,0,0,0,0,0,0,0,0,-1,1126,729,0,0
-91,295,0,0,0,0,0,0,0,0,0,-1,1133,729,0,0
-84,295,0,0,0,0,0,0,0,0,0,-1,1140,729,0,0
-77,295,0,0,0,0,0,0,0,0,0,-1,1147,729,0,0
-70,295,0,0,0,0,0,0,0,0,0,-1,1154,729,0,0
-63,295,0,0,0,0,0,0,0,0,0,-1,1161,729,0,0
-56,295,0,0,0,0,0,0,0,0,0,-1,1168,729,0,0
-49,295,0,0,0,0,0,0,0,0,0,-1,1175,729,0,0
-42,295,0,0,0,0,0,0,0,0,0,-1,1182,729,0,0
-35,295,0,0,0,0,0,0,0,0,0,-1,1189,729,0,0
-28,295,0,0,0,0,0,0,0,0,0,-1,1196,729,0,0
-21,295,0,0,0,0,0,0,0,0,0,-1,1203,729,0,0
-14,295,0,0,0,0,0,0,0,0,0,-1,1210,729,0,0
-7,295,0,0,0,0,0,0,0,0,0,-1,1217,729,0,0
0,295,0,0,0,0,0,0,0,0,0,-1,1224,729,0,0
7,295,0,0,0,0,0,0,0,0,0,-1,1231,729,0,0
14,295,0,0,0,0,0,0,0,0,0,-1,1238,729,0,0
21,295,0,0,0,0,0,0,0,0,0,-1,1245,729,0,0
28,295,0,0,0,0,0,0,0,0,0,-1,1252,729,0,0
35,295,0,0,0,0,0,0,0,0,0,-1,1259,729,0,0
42,295,0,0,0,0,0,0,0,0,0,-1,1266,729,0,0
49,295,0,0,0,0,0,0,0,0,0,-1,1273,729,0,0
56,295,0,0,0,0,0,0,0,0,0,-1,1280,729,0,0
63,295,0,0,0,0,0,0,0,0,0,-1,1287,729,0,0
70,295,0,0,0,0,0,0,0,0,0,-1,1294,729,0,0
77,295,0,0,0,0,0,0,0,0,0,-1,1301,729,0,0
84,295,0,0,0,0,0,0,0,0,0,-1,1308,729,0,0
91,295,0,0,0,0,0,0,0,0,0,-1,1315,729,0,0
98,295,0,0,0,0,0,0,0,0,0,-1,1322,729,0,0
105,295,0,0,0,0,0,0,0,0,0,-1,1329,729,0,0
112,295,0,0,0,0,0,0,0,0,0,-1,1336,729,0,0
119,295,0,0,0,0,0,0,0,0,0,-1,1343,729,0,0
126,295,0,0,0,0,0,0,0,0,0,-1,1350,729,0,0
133,295,0,0,0,0,0,0,0,0,0,-1,1357,729,0,0
140,295,0,0,0,0,0,0,0,0,0,-1,1364,729,0,0
147,295,0,0,0,0,0,0,0,0,0,-1,1371,729,0,0
154,295,0,0,0,0,0,0,0,0,0,-1,1378,729,0,0
161,295,0,0,0,0,0,0,0,0,0,-1,1385,729,0,0
168,295,0,0,0,0,0,0,0,0,0,-1,1392,729,0,0
175,295,0,0,0,0,0,0,0,0,0,-1,1399,729,0,0
182,295,0,0,0,0,0,0,0,0,0,-1,1406,729,0,0
189,295,0,0,0,0,0,0,0,0,0,-1,1413,729,0,0
196,295,0,0,0,0,0,0,0,0,0,-1,1420,729,0,0
203,295,0,0,0,0,0,0,0,0,0,-1,1427,729,0,0
210,295,0,0,0,0,0,0,0,0,0,-1,1434,729,0,0
217,295,0,0,0,0,0,0,0,0,0,-1,1441,729,0,0
224,295,0,0,0,0,0,0,0,0,0,-1,1448,729,0,0
231,295,0,0,0,0,0,0,0,0,0,-1,1455,729,0,0
238,295,0,0,0,0,0,0,0,0,0,-1,1462,729,0,0
245,295,0,0,0,0,0,0,0,0,0,-1,1469,729,0,0
252,295,0,0,0,0,0,0,0,0,0,-1,1476,729,0,0
259,295,0,0,0,0,0,0,0,0,0,-1,1483,729,0,0
266,295,0,0,0,0,0,0,0,0,0,-1,1490,729,0,0
273,295,0,0,0,0,0,0,0,0,0,-1,1497,729,0,0
280,295,0,0,0,0,0,0,0,0,0,-1,1504,729,0,0
287,295,0,0,0,0,0,0,0,0,0,-1,1511,729,0,0
294,295,0,0,0,0,0,0,0,0,0,-1,1518,729,0,0
301,295,0,0,0,0,0,0,0,0,0,-1,1525,729,0,0
308,295,0,0,0,0,0,0,0,0,0,-1,1532,729,0,0
315,295,0,0,0,0,0,0,0,0,0,-1,1539,729,0,0
322,295,0,0,0,0,0,0,0,0,0,-1,1546,729,0,0
329,295,0,0,0,0,0,0,0,0,0,-1,1553,729,0,0
336,295,0,0,0,0,0,0,0,0,0,-1,1560,729,0,0
343,295,0,0,0,0,0,0,0,0,0,-1,1567,729,0,0
350,295,0,0,0,0,0,0,0,0,0,-1,1574,729,0,0
357,295,0,0,0,0,0,0,0,0,0,-1,1581,729,0,0
364,295,0,0,0,0,0,0,0,0,0,-1,1588,729,0,0
371,295,0,0,0,0,0,0,0,0,0,-1,1595,729,0,0
378,295,0,0,0,0,0,0,0,0,0,-1,1602,729,0,0
385,295,0,0,0,0,0,0,0,0,0,-1,1609,729,0,0
392,295,0,0,0,0,0,0,0,0,0,-1,1616,729,0,0
399,295,0,0,0,0,0,0,0,0,0,-1,1623,729,0,0
406,295,0,0,0,0,0,0,0,0,0,-1,1630,729,0,0
413,295,0,0,0,0,0,0,0,0,0,-1,1637,729,0,0
420,295,0,0,0,0,0,0,0,0,0,-1,1644,729,0,0
427,295,0,0,0,0,0,0,0,0,0,-1,1651,729,0,0
434,295,0,0,0,0,0,0,0,0,0,-1,1658,729,0,0
441,295,0,0,0,0,0,0,0,0,0,-1,1665,729,0,0
448,295,0,0,0,0,0,0,0,0,0,-1,1672,729,0,0
455,295,0,0,0,0,0,0,0,0,0,-1,1679,729,0,0
462,295,0,0,0,0,0,0,0,0,0,-1,1686,729,0,0
469,295,0,0,0,0,0,0,0,0,0,-1,1693,729,0,0
476,295,0,0,0,0,0,0,0,0,0,-1,1700,729,0,0
483,295,0,0,0,0,0,0,0,0,0,-1,1707,729,0,0
490,295,0,0,0,0,0,0,0,0,0,-1,1714,729,0,0
497,295,0,0,0,0,0,0,0,0,0,-1,1721,729,0,0
504,295,0,0,0,0,0,0,0,0,0,-1,1728,729,0,0
511,295,0,0,0,0,0,0,0,0,0,-1,1735,729,0,0
518,295,0,0,0,0,0,0,0,0,0,-1,1742,729,0,0
525,295,0,0,0,0,0,0,0,0,0,-1,1749,729,0,0
532,295,0,0,0,0,0,0,0,0,0,-1,1756,729,0,0
539,295,0,0,0,0,0,0,0,0,0,-1,1763,729,0,0
546,295,43.1605,3.42542,0,0,0,0,0,0,0,-1,1770,729,43.1605,-3.42542
553,295,43.3923,3.29327,0,0,0,0,0,0,0,-1,1777,729,43.3923,-3.29329
560,295,43.5403,3.28613,0.0512043,0.0381058,-0.0130343,0.0592423,0.0300679,-0.552591,0.0342048,0.0455489,1784,729,43.5403,-3.28613
567,295,43.9537,3.44672,0.0421122,0.0299517,-0.00716442,0.0454286,0.0266352,-0.433537,0.0263582,0.0486383,1791,729,43.9537,-3.44675
574,295,44.4241,3.6601,0,0,0,0,0,0,0,-1,1798,729,44.4241,-3.66012
581,295,37.8191,2.19592,0,0,0,0,0,0,0,-1,1805,729,37.8191,-2.19594
588,295,39.0542,2.45679,0,0,0,0,0,0,0,-1,1812,729,39.0542,-2.45676
595,295,27.2102,6.99121,0,0,0,0,0,0,0,-1,1819,729,27.2103,-6.99121
602,295,26.9065,7.82141,0,0,0,0,0,0,0,-1,1826,729,26.9064,-7.8214
609,295,11.7737,2.19989,0,0,0,0,0,0,0,-1,1833,729,11.7736,-2.19988
616,295,27.4906,-4.245,0,0,0,0,0,0,0,-1,1840,729,27.4906,4.24499
623,295,27.3729,-3.6806,-0.0125798,0.000371019,0.0130346,0.00845007,-0.0206588,1.01593,0.0172917,0.0313353,1847,729,27.3729,3.6806
630,295,27.3022,-3.09888,-0.00936646,-0.000551943,0.00987602,0.00585559,-0.015774,0.995267,0.0129181,0.011936,1854,729,27.3023,3.09889
637,295,27.2797,-2.54688,-0.00639347,-0.000883503,0.00692285,0.0038124,-0.0110894,0.974769,0.00893895,0.0130697,1861,729,27.2796,2.54685
644,295,27.2762,-2.00201,-0.00398513,-0.000606983,0.00427104,0.00229684,-0.00688896,0.973697,0.00551991,0.0137515,1868,729,27.2762,2.00199
651,295,27.2604,-1.45001,-0.00199121,-0.000184259,0.00208502,0.00118461,-0.00336008,0.989845,0.00272224,0.0141974,1875,729,27.2604,1.45002
658,295,27.2412,-0.903137,-0.00108922,0.0003846,0.00073299,0.000687069,-0.00139169,1.17943,0.00122294,0.0135252,1882,729,27.2412,0.903136
665,295,27.2233,-0.353149,-0.00124983,0.000866555,0.000193293,0.000884064,-0.00126734,1.48046,0.00124867,0.0125155,1889,729,27.2232,0.353155
672,295,27.1991,0.196289,-0.00187588,0.00148008,0.000105059,0.00148337,-0.00187916,1.53953,0.00194583,0.0135163,1896,729,27.1991,-0.19627
679,295,27.1705,0.750305,-0.00257158,0.00227044,0.000172069,0.00227654,-0.00257769,1.53532,0.00280439,0.0102621,1903,729,27.1706,-0.7503
686,295,27.1787,1.28644,-0.00331653,0.00324673,0.000339284,0.00326422,-0.00333403,1.51928,0.00380957,0.0104305,1910,729,27.1787,-1.28646
693,295,27.135,1.8374,-0.00404235,0.00443501,0.00060944,0.0044786,-0.00408594,1.4994,0.00494647,0.0431317,1917,729,27.135,-1.83742
700,295,27.1696,2.39148,0,0,0,0,0,0,0,-1,1924,729,27.1696,-2.3915
707,295,22.2661,3.05206,0,0,0,0,0,0,0,-1,1931,729,22.2662,-3.05207
714,295,17.4906,4.63068,0,0,0,0,0,0,0,-1,1938,729,17.4906,-4.63066
721,295,18.3792,5.32281,0,0,0,0,0,0,0,-1,1945,729,18.3791,-5.32283
728,295,17.379,3.74866,0,0,0,0,0,0,0,-1,1952,729,17.379,-3.74863
735,295,0,0,0,0,0,0,0,0,0,-1,1959,729,0,0
742,295,0,0,0,0,0,0,0,0,0,-1,1966,729,0,0
749,295,0,0,0,0,0,0,0,0,0,-1,1973,729,0,0
756,295,0,0,0,0,0,0,0,0,0,-1,1980,729,0,0
763,295,0,0,0,0,0,0,0,0,0,-1,1987,729,0,0
770,295,0,0,0,0,0,0,0,0,0,-1,1994,729,0,0
777,295,0,0,0,0,0,0,0,0,0,-1,2001,729,0,0
784,295,0,0,0,0,0,0,0,0,0,-1,2008,729,0,0
791,295,0,0,0,0,0,0,0,0,0,-1,2015,729,0,0
798,295,0,0,0,0,0,0,0,0,0,-1,2022,729,0,0
805,295,0,0,0,0,0,0,0,0,0,-1,2029,729,0,0
812,295,0,0,0,0,0,0,0,0,0,-1,2036,729,0,0
-700,288,0,0,0,0,0,0,0,0,0,-1,524,736,0,0
-693,288,0,0,0,0,0,0,0,0,0,-1,531,736,0,0
-686,288,0,0,0,0,0,0,0,0,0,-1,538,736,0,0
-679,288,0,0,0,0,0,0,0,0,0,-1,545,736,0,0
-672,288,0,0,0,0,0,0,0,0,0,-1,552,736,0,0
-665,288,0,0,0,0,0,0,0,0,0,-1,559,736,0,0
-658,288,0,0,0,0,0,0,0,0,0,-1,566,736,0,0
-651,288,0,0,0,0,0,0,0,0,0,-1,573,736,0,0
-644,288,0,0,0,0,0,0,0,0,0,-1,580,736,0,0
-637,288,0,0,0,0,0,0,0,0,0,-1,587,736,0,0
-630,288,0,0,0,0,0,0,0,0,0,-1,594,736,0,0
-623,288,0,0,0,0,0,0,0,0,0,-1,601,736,0,0
-616,288,-11.7584,2.4425,0,0,0,0,0,0,0,-1,608,736,-11.7584,-2.44251
-609,288,-10.3007,2.32178,0,0,0,0,0,0,0,-1,615,736,-10.3007,-2.32178
-602,288,-10.1458,-1.85559,0,0,0,0,0,0,0,-1,622,736,-10.1458,1.85556
-595,288,-7.63208,1.81769,0,0,0,0,0,0,0,-1,629,736,-7.63205,-1.81766
-588,288,-8.19269,1.50598,0,0,0,0,0,0,0,-1,636,736,-8.19268,-1.50601
-581,288,-13.1915,0.659241,0,0,0,0,0,0,0,-1,643,736,-13.1915,-0.659228
-574,288,-17.2284,0.458557,0,0,0,0,0,0,0,-1,650,736,-17.2284,-0.458535
-567,288,-17.4112,-0.109741,-0.00319112,0.00667017,-0.0010382,0.00677829,-0.00329923,-1.46703,0.00593271,0.0370224,657,736,-17.4112,0.109721
-560,288,-17.6925,-0.706116,-0.00222249,0.00494436,-0.000821469,0.00503732,-0.00231544,-1.45812,0.00434099,0.0179271,664,736,-17.6925,0.706135
-553,288,-17.671,-1.20917,-0.00147763,0.00360525,-0.000597308,0.0036745,-0.00154688,-1.45538,0.00309687,0.0195368,671,736,-17.6709,1.20915
-546,288,-17.7026,-1.71387,-0.000944958,0.00236177,-0.000284705,0.0023861,-0.000969291,-1.48553,0.00199397,0.0208444,678,736,-17.7026,1.71385
-539,288,-17.7316,-2.19635,-0.000480064,0.000921563,5.746e-05,0.000923915,-0.000482416,1.52989,0.000825175,0.0174236,685,736,-17.7315,2.19638
-532,288,-17.723,-2.71649,-0.000234978,-2.59181e-05,0.00052643,0.000406259,-0.000667156,0.883405,0.000625809,0.0142712,692,736,-17.723,2.71651
-525,288,-17.7492,-3.24603,1.50904e-05,-0.000711903,0.000496154,0.000266653,-0.000963466,0.469253,0.000747226,0.0133408,699,736,-17.7492,3.24602
-518,288,-17.7898,-3.77875,0.00034368,-0.000763977,-0.00040513,0.000476041,-0.000896338,-0.31578,0.000804634,0.0122233,706,736,-17.7898,3.77877
-511,288,-17.7897,-4.29437,0.00145718,-0.000507659,-0.00172399,0.00245902,-0.0015095,-0.52642,0.00231299,0.00934745,713,736,-17.7897,4.29436
-504,288,-17.804,-4.8125,0.004755,0.000753305,-0.00388041,0.00712004,-0.00161174,-0.547362,0.00536525,0.0114206,720,736,-17.804,4.81252
-497,288,-17.8115,-5.13452,0.0076812,0.00227779,-0.00651428,0.0120318,-0.00207281,-0.588826,0.00879395,0.0325451,727,736,-17.8115,5.1345
-490,288,-17.6938,-5.37708,0,0,0,0,0,0,0,-1,734,736,-17.6938,5.37708
-483,288,-17.3287,0.564758,0,0,0,0,0,0,0,-1,741,736,-17.3287,-0.56477
-476,288,-26.136,0.452148,0,0,0,0,0,0,0,-1,748,736,-26.136,-0.452177
-469,288,-27.7904,0.649841,0,0,0,0,0,0,0,-1,755,736,-27.7904,-0.649854
-462,288,-32.1728,0.637939,0,0,0,0,0,0,0,-1,762,736,-32.1728,-0.637932
-455,288,-34.752,1.40771,0,0,0,0,0,0,0,-1,769,736,-34.752,-1.40769
-448,288,-33.851,1.07935,0,0,0,0,0,0,0,-1,776,736,-33.851,-1.07937
-441,288,-33.1253,1.11163,0.0806224,0.00460872,-0.00604615,0.0811003,0.00413081,-0.0788794,0.0527439,0.0440864,783,736,-33.1253,-1.11164
-434,288,-32.9424,1.30786,0,0,0,0,0,0,0,-1,790,736,-32.9424,-1.30786
-427,288,0,0,0,0,0,0,0,0,0,-1,797,736,0,0
-420,288,0,0,0,0,0,0,0,0,0,-1,804,736,0,0
-413,288,0,0,0,0,0,0,0,0,0,-1,811,736,0,0
-406,288,0,0,0,0,0,0,0,0,0,-1,818,736,0,0
-399,288,0,0,0,0,0,0,0,0,0,-1,825,736,0,0
-392,288,0,0,0,0,0,0,0,0,0,-1,832,736,0,0
-385,288,0,0,0,0,0,0,0,0,0,-1,839,736,0,0
-378,288,0,0,0,0,0,0,0,0,0,-1,846,736,0,0
-371,288,0,0,0,0,0,0,0,0,0,-1,853,736,0,0
-364,288,0,0,0,0,0,0,0,0,0,-1,860,736,0,0
-357,288,0,0,0,0,0,0,0,0,0,-1,867,736,0,0
-350,288,0,0,0,0,0,0,0,0,0,-1,874,736,0,0
-343,288,0,0,0,0,0,0,0,0,0,-1,881,736,0,0
-336,288,0,0,0,0,0,0,0,0,0,-1,888,736,0,0
-329,288,0,0,0,0,0,0,0,0,0,-1,895,736,0,0
-322,288,0,0,0,0,0,0,0,0,0,-1,902,736,0,0
-315,288,0,0,0,0,0,0,0,0,0,-1,909,736,0,0
-308,288,0,0,0,0,0,0,0,0,0,-1,916,736,0,0
-301,288,0,0,0,0,0,0,0,0,0,-1,923,736,0,0
-294,288,0,0,0,0,0,0,0,0,0,-1,930,736,0,0
-287,288,0,0,0,0,0,0,0,0,0,-1,937,736,0,0
-280,288,0,0,0,0,0,0,0,0,0,-1,944,736,0,0
-273,288,0,0,0,0,0,0,0,0,0,-1,951,736,0,0
-266,288,0,0,0,0,0,0,0,0,0,-1,958,736,0,0
-259,288,0,0,0,0,0,0,0,0,0,-1,965,736,0,0
-252,288,0,0,0,0,0,0,0,0,0,-1,972,736,0,0
-245,288,0,0,0,0,0,0,0,0,0,-1,979,736,0,0
-238,288,0,0,0,0,0,0,0,0,0,-1,986,736,0,0
-231,288,0,0,0,0,0,0,0,0,0,-1,993,736,0,0
-224,288,0,0,0,0,0,0,0,0,0,-1,1000,736,0,0
-217,288,0,0,0,0,0,0,0,0,0,-1,1007,736,0,0
-210,288,0,0,0,0,0,0,0,0,0,-1,1014,736,0,0
-203,288,0,0,0,0,0,0,0,0,0,-1,1021,736,0,0
-196,288,0,0,0,0,0,0,0,0,0,-1,1028,736,0,0
-189,288,0,0,0,0,0,0,0,0,0,-1,1035,736,0,0
-182,288,0,0,0,0,0,0,0,0,0,-1,1042,736,0,0
-175,288,0,0,0,0,0,0,0,0,0,-1,1049,736,0,0
-168,288,0,0,0,0,0,0,0,0,0,-1,1056,736,0,0
-161,288,0,0,0,0,0,0,0,0,0,-1,1063,736,0,0
-154,288,0,0,0,0,0,0,0,0,0,-1,1070,736,0,0
-147,288,0,0,0,0,0,0,0,0,0,-1,1077,736,0,0
-140,288,0,0,0,0,0,0,0,0,0,-1,1084,736,0,0
-133,288,0,0,0,0,0,0,0,0,0,-1,1091,736,0,0
-126,288,0,0,0,0,0,0,0,0,0,-1,1098,736,0,0
-119,288,0,0,0,0,0,0,0,0,0,-1,1105,736,0,0
-112,288,0,0,0,0,0,0,0,0,0,-1,1112,736,0,0
-105,288,0,0,0,0,0,0,0,0,0,-1,1119,736,0,0
-98,288,0,0,0,0,0,0,0,0,0,-1,1126,736,0,0
-91,288,0,0,0,0,0,0,0,0,0,-1,1133,736,0,0
-84,288,0,0,0,0,0,0,0,0,0,-1,1140,736,0,0
-77,288,0,0,0,0,0,0,0,0,0,-1,1147,736,0,0
-70,288,0,0,0,0,0,0,0,0,0,-1,1154,736,0,0
-63,288,0,0,0,0,0,0,0,0,0,-1,1161,736,0,0
-56,288,0,0,0,0,0,0,0,0,0,-1,1168,736,0,0
-49,288,0,0,0,0,0,0,0,0,0,-1,1175,736,0,0
-42,288,0,0,0,0,0,0,0,0,0,-1,1182,736,0,0
-35,288,0,0,0,0,0,0,0,0,0,-1,1189,736,0,0
-28,288,0,0,0,0,0,0,0,0,0,-1,1196,736,0,0
-21,288,0,0,0,0,0,0,0,0,0,-1,1203,736,0,0
-14,288,0,0,0,0,0,0,0,0,0,-1,1210,736,0,0
-7,288,0,0,0,0,0,0,0,0,0,-1,1217,736,0,0
0,288,0,0,0,0,0,0,0,0,0,-1,1224,736,0,0
7,288,0,0,0,0,0,0,0,0,0,-1,1231,736,0,0
14,288,0,0,0,0,0,0,0,0,0,-1,1238,736,0,0
21,288,0,0,0,0,0,0,0,0,0,-1,1245,736,0,0
28,288,0,0,0,0,0,0,0,0,0,-1,1252,736,0,0
35,288,0,0,0,0,0,0,0,0,0,-1,1259,736,0,0
42,288,0,0,0,0,0,0,0,0,0,-1,1266,736,0,0
49,288,0,0,0,0,0,0,0,0,0,-1,1273,736,0,0
56,288,0,0,0,0,0,0,0,0,0,-1,1280,736,0,0
63,288,0,0,0,0,0,0,0,0,0,-1,1287,736,0,0
70,288,0,0,0,0,0,0,0,0,0,-1,1294,736,0,0
77,288,0,0,0,0,0,0,0,0,0,-1,1301,736,0,0
84,288,0,0,0,0,0,0,0,0,0,-1,1308,736,0,0
91,288,0,0,0,0,0,0,0,0,0,-1,1315,736,0,0
98,288,0,0,0,0,0,0,0,0,0,-1,1322,736,0,0
105,288,0,0,0,0,0,0,0,0,0,-1,1329,736,0,0
112,288,0,0,0,0,0,0,0,0,0,-1,1336,736,0,0
119,288,0,0,0,0,0,0,0,0,0,-1,1343,736,0,0
126,288,0,0,0,0,0,0,0,0,0,-1,1350,736,0,0
133,288,0,0,0,0,0,0,0,0,0,-1,1357,736,0,0
140,288,0,0,0,0,0,0,0,0,0,-1,1364,736,0,0
147,288,0,0,0,0,0,0,0,0,0,-1,1371,736,0,0
154,288,0,0,0,0,0,0,0,0,0,-1,1378,736,0,0
161,288,0,0,0,0,0,0,0,0,0,-1,1385,736,0,0
168,288,0,0,0,0,0,0,0,0,0,-1,1392,736,0,0
175,288,0,0,0,0,0,0,0,0,0,-1,1399,736,0,0
182,288,0,0,0,0,0,0,0,0,0,-1,1406,736,0,0
189,288,0,0,0,0,0,0,0,0,0,-1,1413,736,0,0
196,288,0,0,0,0,0,0,0,0,0,-1,1420,736,0,0
203,288,0,0,0,0,0,0,0,0,0,-1,1427,736,0,0
210,288,0,0,0,0,0,0,0,0,0,-1,1434,736,0,0
217,288,0,0,0,0,0,0,0,0,0,-1,1441,736,0,0
224,288,0,0,0,0,0,0,0,0,0,-1,1448,736,0,0
231,288,0,0,0,0,0,0,0,0,0,-1,1455,736,0,0
238,288,0,0,0,0,0,0,0,0,0,-1,1462,736,0,0
245,288,0,0,0,0,0,0,0,0,0,-1,1469,736,0,0
252,288,0,0,0,0,0,0,0,0,0,-1,1476,736,0,0
259,288,0,0,0,0,0,0,0,0,0,-1,1483,736,0,0
266,288,0,0,0,0,0,0,0,0,0,-1,1490,736,0,0
273,288,0,0,0,0,0,0,0,0,0,-1,1497,736,0,0
280,288,0,0,0,0,0,0,0,0,0,-1,1504,736,0,0
287,288,0,0,0,0,0,0,0,0,0,-1,1511,736,0,0
294,288,0,0,0,0,0,0,0,0,0,-1,1518,736,0,0
301,288,0,0,0,0,0,0,0,0,0,-1,1525,736,0,0
308,288,0,0,0,0,0,0,0,0,0,-1,1532,736,0,0
315,288,0,0,0,0,0,0,0,0,0,-1,1539,736,0,0
322,288,0,0,0,0,0,0,0,0,0,-1,1546,736,0,0
329,288,0,0,0,0,0,0,0,0,0,-1,1553,736,0,0
336,288,0,0,0,0,0,0,0,0,0,-1,1560,736,0,0
343,288,0,0,0,0,0,0,0,0,0,-1,1567,736,0,0
350,288,0,0,0,0,0,0,0,0,0,-1,1574,736,0,0
357,288,0,0,0,0,0,0,0,0,0,-1,1581,736,0,0
364,288,0,0,0,0,0,0,0,0,0,-1,1588,736,0,0
371,288,0,0,0,0,0,0,0,0,0,-1,1595,736,0,0
378,288,0,0,0,0,0,0,0,0,0,-1,1602,736,0,0
385,288,0,0,0,0,0,0,0,0,0,-1,1609,736,0,0
392,288,0,0,0,0,0,0,0,0,0,-1,1616,736,0,0
399,288,0,0,0,0,0,0,0,0,0,-1,1623,736,0,0
406,288,0,0,0,0,0,0,0,0,0,-1,1630,736,0,0
413,288,0,0,0,0,0,0,0,0,0,-1,1637,736,0,0
420,288,0,0,0,0,0,0,0,0,0,-1,1644,736,0,0
427,288,0,0,0,0,0,0,0,0,0,-1,1651,736,0,0
434,288,0,0,0,0,0,0,0,0,0,-1,1658,736,0,0
441,288,0,0,0,0,0,0,0,0,0,-1,1665,736,0,0
448,288,0,0,0,0,0,0,0,0,0,-1,1672,736,0,0
455,288,0,0,0,0,0,0,0,0,0,-1,1679,736,0,0
462,288,0,0,0,0,0,0,0,0,0,-1,1686,736,0,0
469,288,0,0,0,0,0,0,0,0,0,-1,1693,736,0,0
476,288,0,0,0,0,0,0,0,0,0,-1,1700,736,0,0
483,288,0,0,0,0,0,0,0,0,0,-1,1707,736,0,0
490,288,0,0,0,0,0,0,0,0,0,-1,1714,736,0,0
497,288,0,0,0,0,0,0,0,0,0,-1,1721,736,0,0
504,288,0,0,0,0,0,0,0,0,0,-1,1728,736,0,0
511,288,0,0,0,0,0,0,0,0,0,-1,1735,736,0,0
518,288,0,0,0,0,0,0,0,0,0,-1,1742,736,0,0
525,288,0,0,0,0,0,0,0,0,0,-1,1749,736,0,0
532,288,0,0,0,0,0,0,0,0,0,-1,1756,736,0,0
539,288,0,0,0,0,0,0,0,0,0,-1,1763,736,0,0
546,288,0,0,0,0,0,0,0,0,0,-1,1770,736,0,0
553,288,43.0389,3.20538,0,0,0,0,0,0,0,-1,1777,736,43.0389,-3.20541
560,288,43.6901,3.17664,0.0502444,0.0352521,-0.010564,0.0557017,0.0297949,-0.47683,0.0321855,0.0429896,1784,736,43.6901,-3.17663
567,288,44.2827,3.40625,0.0380821,0.027526,-0.00220352,0.0385236,0.0270845,-0.197744,0.0228448,0.0443743,1791,736,44.2828,-3.40628
574,288,44.4863,3.65881,0,0,0,0,0,0,0,-1,1798,736,44.4863,-3.65883
581,288,44.8635,3.56885,0,0,0,0,0,0,0,-1,1805,736,44.8636,-3.56884
588,288,44.3285,4.1286,0,0,0,0,0,0,0,-1,1812,736,44.3285,-4.12857
595,288,40.1831,2.50763,0,0,0,0,0,0,0,-1,1819,736,40.1831,-2.50762
602,288,26.7634,7.61279,0,0,0,0,0,0,0,-1,1826,736,26.7635,-7.61279
609,288,17.5223,4.86414,0,0,0,0,0,0,0,-1,1833,736,17.5223,-4.86412
616,288,13.4886,0.801331,0,0,0,0,0,0,0,-1,1840,736,13.4886,-0.80132
623,288,27.947,-3.73419,0,0,0,0,0,0,0,-1,1847,736,27.947,3.73419
630,288,27.8517,-3.10388,-0.0114435,-0.000495815,0.0120069,0.00722607,-0.0191654,0.999271,0.0157483,0.0246429,1854,736,27.8517,3.10385
637,288,27.8599,-2.52911,-0.00842272,-0.000916729,0.00904069,0.005119,-0.0144585,0.982136,0.0117239,0.0106645,1861,736,27.8598,2.52911
644,288,27.8346,-1.98175,-0.00548384,-0.000700523,0.0059866,0.00335448,-0.00953884,0.975437,0.00772413,0.0099394,1868,736,27.8346,1.98174
651,288,27.8029,-1.44208,-0.00265672,-0.000333939,0.00319324,0.00190255,-0.00489321,0.959813,0.0040482,0.0110943,1875,736,27.8028,1.44208
658,288,27.7877,-0.84906,-0.000985351,0.00027954,0.00130244,0.00109497,-0.00180078,1.01142,0.00168833,0.0169608,1882,736,27.7877,0.849041
665,288,27.7654,-0.319275,-0.000685941,0.00077119,0.000528087,0.000942448,-0.0008572,1.2572,0.00103942,0.0176792,1889,736,27.7653,0.319285
672,288,27.7552,0.210388,-0.00106189,0.00141451,0.000417376,0.00148296,-0.00113034,1.40824,0.00151336,0.0156375,1896,736,27.7553,-0.210412
679,288,27.7261,0.763062,-0.00153779,0.00223886,0.00057724,0.00232512,-0.00162405,1.42246,0.002292,0.0133476,1903,736,27.726,-0.763083
686,288,27.7056,1.25677,-0.00202541,0.00321824,0.000817384,0.0033427,-0.00214987,1.41969,0.00319597,0.0107313,1910,736,27.7056,-1.2568
693,288,27.7281,1.88348,-0.00242929,0.00439186,0.0011806,0.00459042,-0.00262785,1.40417,0.0042185,0.0207324,1917,736,27.7281,-1.88348
700,288,27.6387,2.6012,-0.00264806,0.00585861,0.00175777,0.00620751,-0.00299697,1.37485,0.0054209,0.0451479,1924,736,27.6387,-2.60121
707,288,27.7333,3.37762,0,0,0,0,0,0,0,-1,1931,736,27.7332,-3.37763
714,288,23.0149,3.82544,0,0,0,0,0,0,0,-1,1938,736,23.0149,-3.82541
721,288,18.0732,3.69385,0,0,0,0,0,0,0,-1,1945,736,18.0732,-3.69387
728,288,19.3208,3.91455,0,0,0,0,0,0,0,-1,1952,736,19.3209,-3.91455
735,288,18.7712,3.51312,0,0,0,0,0,0,0,-1,1959,736,18.7713,-3.51309
742,288,0,0,0,0,0,0,0,0,0,-1,1966,736,0,0
749,288,0,0,0,0,0,0,0,0,0,-1,1973,736,0,0
756,288,0,0,0,0,0,0,0,0,0,-1,1980,736,0,0
763,288,0,0,0,0,0,0,0,0,0,-1,1987,736,0,0
770,288,0,0,0,0,0,0,0,0,0,-1,1994,736,0,0
777,288,0,0,0,0,0,0,0,0,0,-1,2001,736,0,0
784,288,0,0,0,0,0,0,0,0,0,-1,2008,736,0,0
791,288,0,0,0,0,0,0,0,0,0,-1,2015,736,0,0
798,288,0,0,0,0,0,0,0,0,0,-1,2022,736,0,0
805,288,0,0,0,0,0,0,0,0,0,-1,2029,736,0,0
812,288,0,0,0,0,0,0,0,0,0,-1,2036,736,0,0
-700,281,0,0,0,0,0,0,0,0,0,-1,524,743,0,0
-693,281,0,0,0,0,0,0,0,0,0,-1,531,743,0,0
-686,281,0,0,0,0,0,0,0,0,0,-1,538,743,0,0
-679,281,0,0,0,0,0,0,0,0,0,-1,545,743,0,0
-672,281,0,0,0,0,0,0,0,0,0,-1,552,743,0,0
-665,281,0,0,0,0,0,0,0,0,0,-1,559,743,0,0
-658,281,0,0,0,0,0,0,0,0,0,-1,566,743,0,0
-651,281,0,0,0,0,0,0,0,0,0,-1,573,743,0,0
-644,281,0,0,0,0,0,0,0,0,0,-1,580,743,0,0
-637,281,0,0,0,0,0,0,0,0,0,-1,587,743,0,0
-630,281,0,0,0,0,0,0,0,0,0,-1,594,743,0,0
-623,281,-19.1697,5.67017,0,0,0,0,0,0,0,-1,601,743,-19.1697,-5.67019
-616,281,-11.5906,2.6853,0,0,0,0,0,0,0,-1,608,743,-11.5906,-2.68529
-609,281,-16.1972,4.14838,0,0,0,0,0,0,0,-1,615,743,-16.1972,-4.14837
-602,281,-12.7697,3.94086,0,0,0,0,0,0,0,-1,622,743,-12.7697,-3.94086
-595,281,-10.4797,-1.07404,0,0,0,0,0,0,0,-1,629,743,-10.4798,1.07402
-588,281,-13.277,1.49817,0,0,0,0,0,0,0,-1,636,743,-13.2771,-1.49817
-581,281,-18.2736,0.810852,0,0,0,0,0,0,0,-1,643,743,-18.2736,-0.810834
-574,281,-18.0121,0.346191,-0.00431376,0.0065958,-0.000429447,0.00661268,-0.00433064,-1.53151,0.00636376,0.0393126,650,743,-18.0121,-0.346192
-567,281,-18.1835,-0.108582,-0.00330226,0.0044479,-8.47996e-05,0.00444883,-0.00330318,-1.55986,0.00449189,0.0189661,657,743,-18.1835,0.108604
-560,281,-18.2387,-0.651489,-0.0025634,0.00288176,0.000227129,0.00289122,-0.00257286,1.52918,0.00315647,0.00923966,664,743,-18.2387,0.651495
-553,281,-18.212,-1.17773,-0.00193651,0.00170592,0.000473496,0.00176646,-0.00199706,1.44362,0.00217423,0.014373,671,743,-18.212,1.17774
-546,281,-18.2315,-1.66498,-0.00141423,0.000677474,0.000721566,0.000902238,-0.00163899,1.26883,0.00148759,0.0154507,678,743,-18.2315,1.66496
-539,281,-18.2484,-2.17487,-0.000926991,-0.000587577,0.000983904,0.000241148,-0.00175572,0.870799,0.00125858,0.0134154,685,743,-18.2484,2.17487
-532,281,-18.2521,-2.67059,-0.000597738,-0.00132325,0.00131864,0.000407133,-0.00232812,0.65117,0.00170408,0.0138723,692,743,-18.2521,2.67062
-525,281,-18.3042,-3.20245,-0.000226607,-0.00166771,0.000944782,0.000241037,-0.00213535,0.45962,0.00151034,0.0158972,699,743,-18.3042,3.20246
-518,281,-18.3203,-3.75134,0.000210317,-0.00135865,-0.000399495,0.00030618,-0.00145452,-0.235508,0.00108622,0.0129134,706,743,-18.3203,3.75137
-511,281,-18.3239,-4.28851,0.00150668,-0.000858687,-0.00202958,0.00267302,-0.00202503,-0.521589,0.00272101,0.011873,713,743,-18.3239,4.2885
-504,281,-18.3715,-4.8078,0.00498333,0.000577942,-0.00441897,0.00771817,-0.00215689,-0.554189,0.00599516,0.0154718,720,743,-18.3716,4.80781
-497,281,-18.1822,-5.21655,0.00795888,0.00222544,-0.00723625,0.0128756,-0.00269125,-0.596802,0.00960727,0.0484187,727,743,-18.1822,5.21657
-490,281,-17.9144,-5.50037,0,0,0,0,0,0,0,-1,734,743,-17.9143,5.50038
-483,281,-22.1078,-2.34973,0,0,0,0,0,0,0,-1,741,743,-22.1078,2.3497
-476,281,-28.0016,2.17786,0,0,0,0,0,0,0,-1,748,743,-28.0016,-2.17786
-469,281,-31.5054,1.99506,0,0,0,0,0,0,0,-1,755,743,-31.5054,-1.99505
-462,281,-35.2067,1.52863,0,0,0,0,0,0,0,-1,762,743,-35.2067,-1.52865
-455,281,-34.5995,1.30475,0.0555279,0.0139035,-0.0226909,0.0655057,0.00392566,-0.414279,0.0424225,0.0459513,769,743,-34.5995,-1.30473
-448,281,-33.7681,1.11536,0,0,0,0,0,0,0,-1,776,743,-33.7681,-1.11535
-441,281,-33.157,1.22894,0,0,0,0,0,0,0,-1,783,743,-33.157,-1.22896
-434,281,0,0,0,0,0,0,0,0,0,-1,790,743,0,0
-427,281,0,0,0,0,0,0,0,0,0,-1,797,743,0,0
-420,281,0,0,0,0,0,0,0,0,0,-1,804,743,0,0
-413,281,0,0,0,0,0,0,0,0,0,-1,811,743,0,0
-406,281,0,0,0,0,0,0,0,0,0,-1,818,743,0,0
-399,281,0,0,0,0,0,0,0,0,0,-1,825,743,0,0
-392,281,0,0,0,0,0,0,0,0,0,-1,832,743,0,0
-385,281,0,0,0,0,0,0,0,0,0,-1,839,743,0,0
-378,281,0,0,0,0,0,0,0,0,0,-1,846,743,0,0
-371,281,0,0,0,0,0,0,0,0,0,-1,853,743,0,0
-364,281,0,0,0,0,0,0,0,0,0,-1,860,743,0,0
-357,281,0,0,0,0,0,0,0,0,0,-1,867,743,0,0
-350,281,0,0,0,0,0,0,0,0,0,-1,874,743,0,0
-343,281,0,0,0,0,0,0,0,0,0,-1,881,743,0,0
-336,281,0,0,0,0,0,0,0,0,0,-1,888,743,0,0
-329,281,0,0,0,0,0,0,0,0,0,-1,895,743,0,0
-322,281,0,0,0,0,0,0,0,0,0,-1,902,743,0,0
-315,281,0,0,0,0,0,0,0,0,0,-1,909,743,0,0
-308,281,0,0,0,0,0,0,0,0,0,-1,916,743,0,0
-301,281,0,0,0,0,0,0,0,0,0,-1,923,743,0,0
-294,281,0,0,0,0,0,0,0,0,0,-1,930,743,0,0
-287,281,0,0,0,0,0,0,0,0,0,-1,937,743,0,0
-280,281,0,0,0,0,0,0,0,0,0,-1,944,743,0,0
-273,281,0,0,0,0,0,0,0,0,0,-1,951,743,0,0
-266,281,0,0,0,0,0,0,0,0,0,-1,958,743,0,0
-259,281,0,0,0,0,0,0,0,0,0,-1,965,743,0,0
-252,281,0,0,0,0,0,0,0,0,0,-1,972,743,0,0
-245,281,0,0,0,0,0,0,0,0,0,-1,979,743,0,0
-238,281,0,0,0,0,0,0,0,0,0,-1,986,743,0,0
-231,281,0,0,0,0,0,0,0,0,0,-1,993,743,0,0
-224,281,0,0,0,0,0,0,0,0,0,-1,1000,743,0,0
-217,281,0,0,0,0,0,0,0,0,0,-1,1007,743,0,0
-210,281,0,0,0,0,0,0,0,0,0,-1,1014,743,0,0
-203,281,0,0,0,0,0,0,0,0,0,-1,1021,743,0,0
-196,281,0,0,0,0,0,0,0,0,0,-1,1028,743,0,0
-189,281,0,0,0,0,0,0,0,0,0,-1,1035,743,0,0
-182,281,0,0,0,0,0,0,0,0,0,-1,1042,743,0,0
-175,281,0,0,0,0,0,0,0,0,0,-1,1049,743,0,0
-168,281,0,0,0,0,0,0,0,0,0,-1,1056,743,0,0
-161,281,0,0,0,0,0,0,0,0,0,-1,1063,743,0,0
-154,281,0,0,0,0,0,0,0,0,0,-1,1070,743,0,0
-147,281,0,0,0,0,0,0,0,0,0,-1,1077,743,0,0
-140,281,0,0,0,0,0,0,0,0,0,-1,1084,743,0,0
-133,281,0,0,0,0,0,0,0,0,0,-1,1091,743,0,0
-126,281,0,0,0,0,0,0,0,0,0,-1,1098,743,0,0
-119,281,0,0,0,0,0,0,0,0,0,-1,1105,743,0,0
-112,281,0,0,0,0,0,0,0,0,0,-1,1112,743,0,0
-105,281,0,0,0,0,0,0,0,0,0,-1,1119,743,0,0
-98,281,0,0,0,0,0,0,0,0,0,-1,1126,743,0,0
-91,281,0,0,0,0,0,0,0,0,0,-1,1133,743,0,0
-84,281,0,0,0,0,0,0,0,0,0,-1,1140,743,0,0
-77,281,0,0,0,0,0,0,0,0,0,-1,1147,743,0,0
-70,281,0,0,0,0,0,0,0,0,0,-1,1154,743,0,0
-63,281,0,0,0,0,0,0,0,0,0,-1,1161,743,0,0
-56,281,0,0,0,0,0,0,0,0,0,-1,1168,743,0,0
-49,281,0,0,0,0,0,0,0,0,0,-1,1175,743,0,0
-42,281,0,0,0,0,0,0,0,0,0,-1,1182,743,0,0
-35,281,0,0,0,0,0,0,0,0,0,-1,1189,743,0,0
-28,281,0,0,0,0,0,0,0,0,0,-1,1196,743,0,0
-21,281,0,0,0,0,0,0,0,0,0,-1,1203,743,0,0
-14,281,0,0,0,0,0,0,0,0,0,-1,1210,743,0,0
-7,281,0,0,0,0,0,0,0,0,0,-1,1217,743,0,0
0,281,0,0,0,0,0,0,0,0,0,-1,1224,743,0,0
7,281,0,0,0,0,0,0,0,0,0,-1,1231,743,0,0
14,281,0,0,0,0,0,0,0,0,0,-1,1238,743,0,0
21,281,0,0,0,0,0,0,0,0,0,-1,1245,743,0,0
28,281,0,0,0,0,0,0,0,0,0,-1,1252,743,0,0
35,281,0,0,0,0,0,0,0,0,0,-1,1259,743,0,0
42,281,0,0,0,0,0,0,0,0,0,-1,1266,743,0,0
49,281,0,0,0,0,0,0,0,0,0,-1,1273,743,0,0
56,281,0,0,0,0,0,0,0,0,0,-1,1280,743,0,0
63,281,0,0,0,0,0,0,0,0,0,-1,1287,743,0,0
70,281,0,0,0,0,0,0,0,0,0,-1,1294,743,0,0
77,281,0,0,0,0,0,0,0,0,0,-1,1301,743,0,0
84,281,0,0,0,0,0,0,0,0,0,-1,1308,743,0,0
91,281,0,0,0,0,0,0,0,0,0,-1,1315,743,0,0
98,281,0,0,0,0,0,0,0,0,0,-1,1322,743,0,0
105,281,0,0,0,0,0,0,0,0,0,-1,1329,743,0,0
112,281,0,0,0,0,0,0,0,0,0,-1,1336,743,0,0
119,281,0,0,0,0,0,0,0,0,0,-1,1343,743,0,0
126,281,0,0,0,0,0,0,0,0,0,-1,1350,743,0,0
133,281,0,0,0,0,0,0,0,0,0,-1,1357,743,0,0
140,281,0,0,0,0,0,0,0,0,0,-1,1364,743,0,0
147,281,0,0,0,0,0,0,0,0,0,-1,1371,743,0,0
154,281,0,0,0,0,0,0,0,0,0,-1,1378,743,0,0
161,281,0,0,0,0,0,0,0,0,0,-1,1385,743,0,0
168,281,0,0,0,0,0,0,0,0,0,-1,1392,743,0,0
175,281,0,0,0,0,0,0,0,0,0,-1,1399,743,0,0
182,281,0,0,0,0,0,0,0,0,0,-1,1406,743,0,0
189,281,0,0,0,0,0,0,0,0,0,-1,1413,743,0,0
196,281,0,0,0,0,0,0,0,0,0,-1,1420,743,0,0
203,281,0,0,0,0,0,0,0,0,0,-1,1427,743,0,0
210,281,0,0,0,0,0,0,0,0,0,-1,1434,743,0,0
217,281,0,0,0,0,0,0,0,0,0,-1,1441,743,0,0
224,281,0,0,0,0,0,0,0,0,0,-1,1448,743,0,0
231,281,0,0,0,0,0,0,0,0,0,-1,1455,743,0,0
238,281,0,0,0,0,0,0,0,0,0,-1,1462,743,0,0
245,281,0,0,0,0,0,0,0,0,0,-1,1469,743,0,0
252,281,0,0,0,0,0,0,0,0,0,-1,1476,743,0,0
259,281,0,0,0,0,0,0,0,0,0,-1,1483,743,0,0
266,281,0,0,0,0,0,0,0,0,0,-1,1490,743,0,0
273,281,0,0,0,0,0,0,0,0,0,-1,1497,743,0,0
280,281,0,0,0,0,0,0,0,0,0,-1,1504,743,0,0
287,281,0,0,0,0,0,0,0,0,0,-1,1511,743,0,0
294,281,0,0,0,0,0,0,0,0,0,-1,1518,743,0,0
301,281,0,0,0,0,0,0,0,0,0,-1,1525,743,0,0
308,281,0,0,0,0,0,0,0,0,0,-1,1532,743,0,0
315,281,0,0,0,0,0,0,0,0,0,-1,1539,743,0,0
322,281,0,0,0,0,0,0,0,0,0,-1,1546,743,0,0
329,281,0,0,0,0,0,0,0,0,0,-1,1553,743,0,0
336,281,0,0,0,0,0,0,0,0,0,-1,1560,743,0,0
343,281,0,0,0,0,0,0,0,0,0,-1,1567,743,0,0
350,281,0,0,0,0,0,0,0,0,0,-1,1574,743,0,0
357,281,0,0,0,0,0,0,0,0,0,-1,1581,743,0,0
364,281,0,0,0,0,0,0,0,0,0,-1,1588,743,0,0
371,281,0,0,0,0,0,0,0,0,0,-1,1595,743,0,0
378,281,0,0,0,0,0,0,0,0,0,-1,1602,743,0,0
385,281,0,0,0,0,0,0,0,0,0,-1,1609,743,0,0
392,281,0,0,0,0,0,0,0,0,0,-1,1616,743,0,0
399,281,0,0,0,0,0,0,0,0,0,-1,1623,743,0,0
406,281,0,0,0,0,0,0,0,0,0,-1,1630,743,0,0
413,281,0,0,0,0,0,0,0,0,0,-1,1637,743,0,0
420,281,0,0,0,0,0,0,0,0,0,-1,1644,743,0,0
427,281,0,0,0,0,0,0,0,0,0,-1,1651,743,0,0
434,281,0,0,0,0,0,0,0,0,0,-1,1658,743,0,0
441,281,0,0,0,0,0,0,0,0,0,-1,1665,743,0,0
448,281,0,0,0,0,0,0,0,0,0,-1,1672,743,0,0
455,281,0,0,0,0,0,0,0,0,0,-1,1679,743,0,0
462,281,0,0,0,0,0,0,0,0,0,-1,1686,743,0,0
469,281,0,0,0,0,0,0,0,0,0,-1,1693,743,0,0
476,281,0,0,0,0,0,0,0,0,0,-1,1700,743,0,0
483,281,0,0,0,0,0,0,0,0,0,-1,1707,743,0,0
490,281,0,0,0,0,0,0,0,0,0,-1,1714,743,0,0
497,281,0,0,0,0,0,0,0,0,0,-1,1721,743,0,0
504,281,0,0,0,0,0,0,0,0,0,-1,1728,743,0,0
511,281,0,0,0,0,0,0,0,0,0,-1,1735,743,0,0
518,281,0,0,0,0,0,0,0,0,0,-1,1742,743,0,0
525,281,0,0,0,0,0,0,0,0,0,-1,1749,743,0,0
532,281,0,0,0,0,0,0,0,0,0,-1,1756,743,0,0
539,281,0,0,0,0,0,0,0,0,0,-1,1763,743,0,0
546,281,0,0,0,0,0,0,0,0,0,-1,1770,743,0,0
553,281,0,0,0,0,0,0,0,0,0,-1,1777,743,0,0
560,281,44.1681,3.32928,0,0,0,0,0,0,0,-1,1784,743,44.168,-3.32926
567,281,44.3419,3.42181,0.0336923,0.0254268,0.000479601,0.03372,0.0253991,0.0577663,0.0202835,0.0442485,1791,743,44.3419,-3.42179
574,281,44.615,3.53369,0,0,0,0,0,0,0,-1,1798,743,44.6149,-3.53372
581,281,44.9973,3.37958,0,0,0,0,0,0,0,-1,1805,743,44.9973,-3.37957
588,281,45.0886,3.42609,0,0,0,0,0,0,0,-1,1812,743,45.0886,-3.42609
595,281,45.0981,4.04681,0,0,0,0,0,0,0,-1,1819,743,45.0981,-4.0468
602,281,43.4924,3.27167,0,0,0,0,0,0,0,-1,1826,743,43.4925,-3.27166
609,281,32.7925,1.28723,0,0,0,0,0,0,0,-1,1833,743,32.7925,-1.28722
616,281,21.3191,-0.253906,0,0,0,0,0,0,0,-1,1840,743,21.3191,0.253931
623,281,28.2603,-3.58325,0,0,0,0,0,0,0,-1,1847,743,28.2602,3.58326
630,281,28.3386,-3.07306,-0.0123705,-0.000364529,0.0132706,0.00819767,-0.0209327,0.997803,0.0173459,0.0465163,1854,743,28.3386,3.07308
637,281,28.3727,-2.5199,-0.00956043,-0.000880917,0.0104866,0.00612845,-0.0165698,0.981587,0.0135591,0.0155396,1861,743,28.3727,2.51987
644,281,28.3744,-1.94714,-0.00662332,-0.00079725,0.00744718,0.00428636,-0.0117069,0.971829,0.00955929,0.010861,1868,743,28.3743,1.94716
651,281,28.3584,-1.40186,-0.00334561,-0.000538246,0.00426757,0.00255056,-0.00643442,0.944284,0.00534659,0.0115844,1875,743,28.3584,1.40188
658,281,28.318,-0.860535,-0.00103733,3.75293e-05,0.00183902,0.00141604,-0.00241585,0.927558,0.0022373,0.0200149,1882,743,28.3181,0.860543
665,281,28.2831,-0.313232,-0.000279031,0.00045616,0.000716754,0.000894084,-0.000716955,1.02234,0.000932006,0.0207972,1889,743,28.2831,0.313214
672,281,28.2902,0.226135,-0.000393155,0.00109519,0.000478204,0.00123559,-0.000533557,1.28522,0.00104788,0.0129738,1896,743,28.2901,-0.226165
679,281,28.2705,0.740784,-0.000671135,0.00195265,0.00067709,0.00211707,-0.00083556,1.33257,0.00175741,0.020667,1903,743,28.2705,-0.740759
686,281,28.2266,1.23688,-0.00092552,0.00294373,0.000946553,0.00316288,-0.00114467,1.34328,0.00257635,0.0172035,1910,743,28.2266,-1.23687
693,281,28.2267,1.8056,-0.00105188,0.00412254,0.00134929,0.00445325,-0.00138259,1.33044,0.00352136,0.0127512,1917,743,28.2267,-1.80563
700,281,28.2101,2.40448,-0.000965206,0.00556872,0.00195253,0.00610773,-0.00150421,1.30145,0.00465495,0.0287841,1924,743,28.21,-2.4045
707,281,28.2532,2.98297,0,0,0,0,0,0,0,-1,1931,743,28.2532,-2.98297
714,281,25.0125,2.5105,0,0,0,0,0,0,0,-1,1938,743,25.0124,-2.51053
721,281,16.9656,3.22174,0,0,0,0,0,0,0,-1,1945,743,16.9656,-3.22172
728,281,19.0251,3.63934,0,0,0,0,0,0,0,-1,1952,743,19.0252,-3.63932
735,281,19.0869,2.50311,0,0,0,0,0,0,0,-1,1959,743,19.0869,-2.5031
742,281,0,0,0,0,0,0,0,0,0,-1,1966,743,0,0
749,281,0,0,0,0,0,0,0,0,0,-1,1973,743,0,0
756,281,0,0,0,0,0,0,0,0,0,-1,1980,743,0,0
763,281,0,0,0,0,0,0,0,0,0,-1,1987,743,0,0
770,281,0,0,0,0,0,0,0,0,0,-1,1994,743,0,0
777,281,0,0,0,0,0,0,0,0,0,-1,2001,743,0,0
784,281,0,0,0,0,0,0,0,0,0,-1,2008,743,0,0
791,281,0,0,0,0,0,0,0,0,0,-1,2015,743,0,0
798,281,0,0,0,0,0,0,0,0,0,-1,2022,743,0,0
805,281,0,0,0,0,0,0,0,0,0,-1,2029,743,0,0
812,281,0,0,0,0,0,0,0,0,0,-1,2036,743,0,0
-700,274,0,0,0,0,0,0,0,0,0,-1,524,750,0,0
-693,274,0,0,0,0,0,0,0,0,0,-1,531,750,0,0
-686,274,0,0,0,0,0,0,0,0,0,-1,538,750,0,0
-679,274,0,0,0,0,0,0,0,0,0,-1,545,750,0,0
-672,274,0,0,0,0,0,0,0,0,0,-1,552,750,0,0
-665,274,0,0,0,0,0,0,0,0,0,-1,559,750,0,0
-658,274,0,0,0,0,0,0,0,0,0,-1,566,750,0,0
-651,274,0,0,0,0,0,0,0,0,0,-1,573,750,0,0
-644,274,0,0,0,0,0,0,0,0,0,-1,580,750,0,0
-637,274,0,0,0,0,0,0,0,0,0,-1,587,750,0,0
-630,274,0,0,0,0,0,0,0,0,0,-1,594,750,0,0
-623,274,-19.6909,5.12701,0,0,0,0,0,0,0,-1,601,750,-19.6908,-5.12703
-616,274,-17.9133,3.9024,0,0,0,0,0,0,0,-1,608,750,-17.9133,-3.90239
-609,274,-18.6586,4.92523,0,0,0,0,0,0,0,-1,615,750,-18.6586,-4.92526
-602,274,-18.191,4.28918,0,0,0,0,0,0,0,-1,622,750,-18.191,-4.28919
-595,274,-17.5515,3.23419,0,0,0,0,0,0,0,-1,629,750,-17.5514,-3.23422
-588,274,-18.58,1.4209,0,0,0,0,0,0,0,-1,636,750,-18.58,-1.42091
-581,274,-18.6007,0.882629,-0.00327249,0.00869577,-0.00193333,0.00900032,-0.00357705,-1.41455,0.00748318,0.0480258,643,750,-18.6007,-0.882614
-574,274,-18.5609,0.350647,-0.00266408,0.00557473,-0.00104094,0.00570421,-0.00279356,-1.44704,0.0050012,0.0243441,650,750,-18.5609,-0.350647
-567,274,-18.7316,-0.12738,-0.00216913,0.00350296,-0.000401806,0.00353128,-0.00219745,-1.50043,0.00333723,0.0231987,657,750,-18.7316,0.12739
-560,274,-18.7353,-0.633545,-0.00180631,0.00199133,0.000115585,0.00199484,-0.00180982,1.5404,0.00219749,0.0152852,664,750,-18.7353,0.633573
-553,274,-18.7587,-1.15088,-0.0014755,0.000846892,0.000526129,0.000960525,-0.00158913,1.35809,0.00148688,0.0098082,671,750,-18.7587,1.1509
-546,274,-18.787,-1.66028,-0.0011653,-0.000108487,0.000879139,0.000388825,-0.00166261,1.05599,0.00125821,0.0110571,678,750,-18.7871,1.66027
-539,274,-18.7847,-2.17767,-0.000874147,-0.0013318,0.00123254,0.000150626,-0.00235658,0.693615,0.00162359,0.0115976,685,750,-18.7848,2.17769
-532,274,-18.7993,-2.66803,-0.000666399,-0.0020184,0.00159034,0.000385648,-0.00307044,0.584434,0.00218688,0.0128732,692,750,-18.7993,2.66805
-525,274,-18.8236,-3.17322,-0.000331973,-0.00215069,0.000999269,0.000109768,-0.00259243,0.416235,0.00176602,0.0131114,699,750,-18.8236,3.1732
-518,274,-18.8353,-3.71942,0.000101874,-0.00162177,-0.00062879,0.000306876,-0.00182677,-0.31516,0.00133198,0.0129172,706,750,-18.8354,3.71944
-511,274,-18.8477,-4.25183,0.00142513,-0.00101876,-0.00239607,0.00289285,-0.00248648,-0.549598,0.00310871,0.0136141,713,750,-18.8477,4.2518
-504,274,-18.8939,-4.80359,0.00479998,0.000453896,-0.00485567,0.00794668,-0.0026928,-0.575,0.00638748,0.0255701,720,750,-18.8939,4.8036
-497,274,-18.6363,-5.30188,0,0,0,0,0,0,0,-1,727,750,-18.6363,5.30187
-490,274,-13.6545,-3.58826,0,0,0,0,0,0,0,-1,734,750,-13.6546,3.58825
-483,274,-27.8608,1.30981,0,0,0,0,0,0,0,-1,741,750,-27.8608,-1.30979
-476,274,-31.7294,1.66565,0,0,0,0,0,0,0,-1,748,750,-31.7293,-1.66563
-469,274,-35.2524,1.87878,0,0,0,0,0,0,0,-1,755,750,-35.2525,-1.87878
-462,274,-35.027,1.42426,0.0423355,0.0143512,-0.0244022,0.0564725,0.000214225,-0.525085,0.0375771,0.04805,762,750,-35.027,-1.42424
-455,274,-34.4875,1.17871,0.0537494,0.0160155,-0.0259776,0.0669884,0.00277642,-0.471325,0.0437629,0.0459059,769,750,-34.4875,-1.17869
-448,274,-33.9085,0.95105,0,0,0,0,0,0,0,-1,776,750,-33.9085,-0.95106
-441,274,0,0,0,0,0,0,0,0,0,-1,783,750,0,0
-434,274,0,0,0,0,0,0,0,0,0,-1,790,750,0,0
-427,274,0,0,0,0,0,0,0,0,0,-1,797,750,0,0
-420,274,0,0,0,0,0,0,0,0,0,-1,804,750,0,0
-413,274,0,0,0,0,0,0,0,0,0,-1,811,750,0,0
-406,274,0,0,0,0,0,0,0,0,0,-1,818,750,0,0
-399,274,0,0,0,0,0,0,0,0,0,-1,825,750,0,0
-392,274,0,0,0,0,0,0,0,0,0,-1,832,750,0,0
-385,274,0,0,0,0,0,0,0,0,0,-1,839,750,0,0
-378,274,0,0,0,0,0,0,0,0,0,-1,846,750,0,0
-371,274,0,0,0,0,0,0,0,0,0,-1,853,750,0,0
-364,274,0,0,0,0,0,0,0,0,0,-1,860,750,0,0
-357,274,0,0,0,0,0,0,0,0,0,-1,867,750,0,0
-350,274,0,0,0,0,0,0,0,0,0,-1,874,750,0,0
-343,274,0,0,0,0,0,0,0,0,0,-1,881,750,0,0
-336,274,0,0,0,0,0,0,0,0,0,-1,888,750,0,0
-329,274,0,0,0,0,0,0,0,0,0,-1,895,750,0,0
-322,274,0,0,0,0,0,0,0,0,0,-1,902,750,0,0
-315,274,0,0,0,0,0,0,0,0,0,-1,909,750,0,0
-308,274,0,0,0,0,0,0,0,0,0,-1,916,750,0,0
-301,274,0,0,0,0,0,0,0,0,0,-1,923,750,0,0
-294,274,0,0,0,0,0,0,0,0,0,-1,930,750,0,0
-287,274,0,0,0,0,0,0,0,0,0,-1,937,750,0,0
-280,274,0,0,0,0,0,0,0,0,0,-1,944,750,0,0
-273,274,0,0,0,0,0,0,0,0,0,-1,951,750,0,0
-266,274,0,0,0,0,0,0,0,0,0,-1,958,750,0,0
-259,274,0,0,0,0,0,0,0,0,0,-1,965,750,0,0
-252,274,0,0,0,0,0,0,0,0,0,-1,972,750,0,0
-245,274,0,0,0,0,0,0,0,0,0,-1,979,750,0,0
-238,274,0,0,0,0,0,0,0,0,0,-1,986,750,0,0
-231,274,0,0,0,0,0,0,0,0,0,-1,993,750,0,0
-224,274,0,0,0,0,0,0,0,0,0,-1,1000,750,0,0
-217,274,0,0,0,0,0,0,0,0,0,-1,1007,750,0,0
-210,274,0,0,0,0,0,0,0,0,0,-1,1014,750,0,0
-203,274,0,0,0,0,0,0,0,0,0,-1,1021,750,0,0
-196,274,0,0,0,0,0,0,0,0,0,-1,1028,750,0,0
-189,274,0,0,0,0,0,0,0,0,0,-1,1035,750,0,0
-182,274,0,0,0,0,0,0,0,0,0,-1,1042,750,0,0
-175,274,0,0,0,0,0,0,0,0,0,-1,1049,750,0,0
-168,274,0,0,0,0,0,0,0,0,0,-1,1056,750,0,0
-161,274,0,0,0,0,0,0,0,0,0,-1,1063,750,0,0
-154,274,0,0,0,0,0,0,0,0,0,-1,1070,750,0,0
-147,274,0,0,0,0,0,0,0,0,0,-1,1077,750,0,0
-140,274,0,0,0,0,0,0,0,0,0,-1,1084,750,0,0
-133,274,0,0,0,0,0,0,0,0,0,-1,1091,750,0,0
-126,274,0,0,0,0,0,0,0,0,0,-1,1098,750,0,0
-119,274,0,0,0,0,0,0,0,0,0,-1,1105,750,0,0
-112,274,0,0,0,0,0,0,0,0,0,-1,1112,750,0,0
-105,274,0,0,0,0,0,0,0,0,0,-1,1119,750,0,0
-98,274,0,0,0,0,0,0,0,0,0,-1,1126,750,0,0
-91,274,0,0,0,0,0,0,0,0,0,-1,1133,750,0,0
-84,274,0,0,0,0,0,0,0,0,0,-1,1140,750,0,0
-77,274,0,0,0,0,0,0,0,0,0,-1,1147,750,0,0
-70,274,0,0,0,0,0,0,0,0,0,-1,1154,750,0,0
-63,274,0,0,0,0,0,0,0,0,0,-1,1161,750,0,0
-56,274,0,0,0,0,0,0,0,0,0,-1,1168,750,0,0
-49,274,0,0,0,0,0,0,0,0,0,-1,1175,750,0,0
-42,274,0,0,0,0,0,0,0,0,0,-1,1182,750,0,0
-35,274,0,0,0,0,0,0,0,0,0,-1,1189,750,0,0
-28,274,0,0,0,0,0,0,0,0,0,-1,1196,750,0,0
-21,274,0,0,0,0,0,0,0,0,0,-1,1203,750,0,0
-14,274,0,0,0,0,0,0,0,0,0,-1,1210,750,0,0
-7,274,0,0,0,0,0,0,0,0,0,-1,1217,750,0,0
0,274,0,0,0,0,0,0,0,0,0,-1,1224,750,0,0
7,274,0,0,0,0,0,0,0,0,0,-1,1231,750,0,0
14,274,0,0,0,0,0,0,0,0,0,-1,1238,750,0,0
21,274,0,0,0,0,0,0,0,0,0,-1,1245,750,0,0
28,274,0,0,0,0,0,0,0,0,0,-1,1252,750,0,0
35,274,0,0,0,0,0,0,0,0,0,-1,1259,750,0,0
42,274,0,0,0,0,0,0,0,0,0,-1,1266,750,0,0
49,274,0,0,0,0,0,0,0,0,0,-1,1273,750,0,0
56,274,0,0,0,0,0,0,0,0,0,-1,1280,750,0,0
63,274,0,0,0,0,0,0,0,0,0,-1,1287,750,0,0
70,274,0,0,0,0,0,0,0,0,0,-1,1294,750,0,0
77,274,0,0,0,0,0,0,0,0,0,-1,1301,750,0,0
84,274,0,0,0,0,0,0,0,0,0,-1,1308,750,0,0
91,274,0,0,0,0,0,0,0,0,0,-1,1315,750,0,0
98,274,0,0,0,0,0,0,0,0,0,-1,1322,750,0,0
105,274,0,0,0,0,0,0,0,0,0,-1,1329,750,0,0
112,274,0,0,0,0,0,0,0,0,0,-1,1336,750,0,0
119,274,0,0,0,0,0,0,0,0,0,-1,1343,750,0,0
126,274,0,0,0,0,0,0,0,0,0,-1,1350,750,0,0
133,274,0,0,0,0,0,0,0,0,0,-1,1357,750,0,0
140,274,0,0,0,0,0,0,0,0,0,-1,1364,750,0,0
147,274,0,0,0,0,0,0,0,0,0,-1,1371,750,0,0
154,274,0,0,0,0,0,0,0,0,0,-1,1378,750,0,0
161,274,0,0,0,0,0,0,0,0,0,-1,1385,750,0,0
168,274,0,0,0,0,0,0,0,0,0,-1,1392,750,0,0
175,274,0,0,0,0,0,0,0,0,0,-1,1399,750,0,0
182,274,0,0,0,0,0,0,0,0,0,-1,1406,750,0,0
189,274,0,0,0,0,0,0,0,0,0,-1,1413,750,0,0
196,274,0,0,0,0,0,0,0,0,0,-1,1420,750,0,0
203,274,0,0,0,0,0,0,0,0,0,-1,1427,750,0,0
210,274,0,0,0,0,0,0,0,0,0,-1,1434,750,0,0
217,274,0,0,0,0,0,0,0,0,0,-1,1441,750,0,0
224,274,0,0,0,0,0,0,0,0,0,-1,1448,750,0,0
231,274,0,0,0,0,0,0,0,0,0,-1,1455,750,0,0
238,274,0,0,0,0,0,0,0,0,0,-1,1462,750,0,0
245,274,0,0,0,0,0,0,0,0,0,-1,1469,750,0,0
252,274,0,0,0,0,0,0,0,0,0,-1,1476,750,0,0
259,274,0,0,0,0,0,0,0,0,0,-1,1483,750,0,0
266,274,0,0,0,0,0,0,0,0,0,-1,1490,750,0,0
273,274,0,0,0,0,0,0,0,0,0,-1,1497,750,0,0
280,274,0,0,0,0,0,0,0,0,0,-1,1504,750,0,0
287,274,0,0,0,0,0,0,0,0,0,-1,1511,750,0,0
294,274,0,0,0,0,0,0,0,0,0,-1,1518,750,0,0
301,274,0,0,0,0,0,0,0,0,0,-1,1525,750,0,0
308,274,0,0,0,0,0,0,0,0,0,-1,1532,750,0,0
315,274,0,0,0,0,0,0,0,0,0,-1,1539,750,0,0
322,274,0,0,0,0,0,0,0,0,0,-1,1546,750,0,0
329,274,0,0,0,0,0,0,0,0,0,-1,1553,750,0,0
336,274,0,0,0,0,0,0,0,0,0,-1,1560,750,0,0
343,274,0,0,0,0,0,0,0,0,0,-1,1567,750,0,0
350,274,0,0,0,0,0,0,0,0,0,-1,1574,750,0,0
357,274,0,0,0,0,0,0,0,0,0,-1,1581,750,0,0
364,274,0,0,0,0,0,0,0,0,0,-1,1588,750,0,0
371,274,0,0,0,0,0,0,0,0,0,-1,1595,750,0,0
378,274,0,0,0,0,0,0,0,0,0,-1,1602,750,0,0
385,274,0,0,0,0,0,0,0,0,0,-1,1609,750,0,0
392,274,0,0,0,0,0,0,0,0,0,-1,1616,750,0,0
399,274,0,0,0,0,0,0,0,0,0,-1,1623,750,0,0
406,274,0,0,0,0,0,0,0,0,0,-1,1630,750,0,0
413,274,0,0,0,0,0,0,0,0,0,-1,1637,750,0,0
420,274,0,0,0,0,0,0,0,0,0,-1,1644,750,0,0
427,274,0,0,0,0,0,0,0,0,0,-1,1651,750,0,0
434,274,0,0,0,0,0,0,0,0,0,-1,1658,750,0,0
441,274,0,0,0,0,0,0,0,0,0,-1,1665,750,0,0
448,274,0,0,0,0,0,0,0,0,0,-1,1672,750,0,0
455,274,0,0,0,0,0,0,0,0,0,-1,1679,750,0,0
462,274,0,0,0,0,0,0,0,0,0,-1,1686,750,0,0
469,274,0,0,0,0,0,0,0,0,0,-1,1693,750,0,0
476,274,0,0,0,0,0,0,0,0,0,-1,1700,750,0,0
483,274,0,0,0,0,0,0,0,0,0,-1,1707,750,0,0
490,274,0,0,0,0,0,0,0,0,0,-1,1714,750,0,0
497,274,0,0,0,0,0,0,0,0,0,-1,1721,750,0,0
504,274,0,0,0,0,0,0,0,0,0,-1,1728,750,0,0
511,274,0,0,0,0,0,0,0,0,0,-1,1735,750,0,0
518,274,0,0,0,0,0,0,0,0,0,-1,1742,750,0,0
525,274,0,0,0,0,0,0,0,0,0,-1,1749,750,0,0
532,274,0,0,0,0,0,0,0,0,0,-1,1756,750,0,0
539,274,0,0,0,0,0,0,0,0,0,-1,1763,750,0,0
546,274,0,0,0,0,0,0,0,0,0,-1,1770,750,0,0
553,274,0,0,0,0,0,0,0,0,0,-1,1777,750,0,0
560,274,44.4724,3.224,0,0,0,0,0,0,0,-1,1784,750,44.4725,-3.22401
567,274,44.541,3.26538,0,0,0,0,0,0,0,-1,1791,750,44.5411,-3.26538
574,274,44.7032,3.28381,0,0,0,0,0,0,0,-1,1798,750,44.7033,-3.28382
581,274,44.5505,3.47986,0,0,0,0,0,0,0,-1,1805,750,44.5505,-3.47987
588,274,44.1691,3.40942,0,0,0,0,0,0,0,-1,1812,750,44.1691,-3.40943
595,274,47.9197,1.88501,0,0,0,0,0,0,0,-1,1819,750,47.9197,-1.88499
602,274,47.0735,2.26465,0,0,0,0,0,0,0,-1,1826,750,47.0735,-2.26467
609,274,42.8204,3.33069,0,0,0,0,0,0,0,-1,1833,750,42.8205,-3.33069
616,274,32.7869,1.78436,0,0,0,0,0,0,0,-1,1840,750,32.7868,-1.78437
623,274,24.8231,-1.80353,0,0,0,0,0,0,0,-1,1847,750,24.8232,1.80351
630,274,28.9257,-3.1524,0,0,0,0,0,0,0,-1,1854,750,28.9257,3.15244
637,274,28.877,-2.51465,-0.0100553,-0.00068812,0.0114105,0.00696257,-0.017706,0.980146,0.0146857,0.0172118,1861,750,28.8769,2.51462
644,274,28.8921,-1.92334,-0.00733774,-0.000728782,0.00857433,0.0051558,-0.0132223,0.969323,0.010946,0.013247,1868,750,28.8921,1.92335
651,274,28.8828,-1.38501,-0.00393056,-0.000607626,0.00525442,0.00324175,-0.00777993,0.938526,0.00654071,0.0146803,1875,750,28.8829,1.38499
658,274,28.8536,-0.858643,-0.00117813,-0.000112237,0.00239106,0.00180455,-0.00309492,0.895052,0.00286123,0.0165096,1882,750,28.8536,0.858663
665,274,28.8347,-0.315063,2.22803e-05,0.000157438,0.000876914,0.000969374,-0.000789655,0.823855,0.00101734,0.0157878,1889,750,28.8347,0.315078
672,274,28.8447,0.226624,0.000195046,0.000728399,0.000435212,0.00097214,-4.86952e-05,1.06027,0.00066492,0.0137906,1896,750,28.8448,-0.226643
679,274,28.8165,0.769775,0.000115915,0.00157075,0.000633521,0.00180795,-0.000121284,1.21254,0.00124769,0.0159434,1903,750,28.8166,-0.769783
686,274,28.7948,1.29108,0.000120196,0.00256781,0.000938875,0.00288647,-0.000198459,1.2436,0.00199376,0.0175647,1910,750,28.7949,-1.29109
693,274,28.7571,1.83771,0.000269831,0.00373393,0.00138599,0.0042202,-0.000216444,1.23336,0.00288832,0.0129346,1917,750,28.7571,-1.8377
700,274,28.7468,2.42487,0.000627298,0.00511671,0.00201203,0.00588646,-0.000142458,1.2054,0.00397265,0.0149951,1924,750,28.7468,-2.42488
707,274,28.6753,2.99152,0.00132828,0.00668828,0.00292885,0.00797824,3.83216e-05,1.15593,0.0053061,0.0262179,1931,750,28.6753,-2.99153
714,274,28.5756,3.56604,0,0,0,0,0,0,0,-1,1938,750,28.5755,-3.56605
721,274,25.6215,3.91144,0,0,0,0,0,0,0,-1,1945,750,25.6214,-3.91141
728,274,19.2209,3.95154,0,0,0,0,0,0,0,-1,1952,750,19.221,-3.95151
735,274,20.6608,4.10931,0,0,0,0,0,0,0,-1,1959,750,20.6607,-4.10932
742,274,11.7815,-0.740234,0,0,0,0,0,0,0,-1,1966,750,11.7815,0.740253
749,274,0,0,0,0,0,0,0,0,0,-1,1973,750,0,0
756,274,0,0,0,0,0,0,0,0,0,-1,1980,750,0,0
763,274,0,0,0,0,0,0,0,0,0,-1,1987,750,0,0
770,274,0,0,0,0,0,0,0,0,0,-1,1994,750,0,0
777,274,0,0,0,0,0,0,0,0,0,-1,2001,750,0,0
784,274,0,0,0,0,0,0,0,0,0,-1,2008,750,0,0
791,274,0,0,0,0,0,0,0,0,0,-1,2015,750,0,0
798,274,0,0,0,0,0,0,0,0,0,-1,2022,750,0,0
805,274,0,0,0,0,0,0,0,0,0,-1,2029,750,0,0
812,274,0,0,0,0,0,0,0,0,0,-1,2036,750,0,0
-700,267,0,0,0,0,0,0,0,0,0,-1,524,757,0,0
-693,267,0,0,0,0,0,0,0,0,0,-1,531,757,0,0
-686,267,0,0,0,0,0,0,0,0,0,-1,538,757,0,0
-679,267,0,0,0,0,0,0,0,0,0,-1,545,757,0,0
-672,267,0,0,0,0,0,0,0,0,0,-1,552,757,0,0
-665,267,0,0,0,0,0,0,0,0,0,-1,559,757,0,0
-658,267,0,0,0,0,0,0,0,0,0,-1,566,757,0,0
-651,267,0,0,0,0,0,0,0,0,0,-1,573,757,0,0
-644,267,0,0,0,0,0,0,0,0,0,-1,580,757,0,0
-637,267,0,0,0,0,0,0,0,0,0,-1,587,757,0,0
-630,267,-21.3979,5.17529,0,0,0,0,0,0,0,-1,594,757,-21.3979,-5.17529
-623,267,-20.043,4.43115,0,0,0,0,0,0,0,-1,601,757,-20.043,-4.43116
-616,267,-18.6576,5.19214,0,0,0,0,0,0,0,-1,608,757,-18.6576,-5.19215
-609,267,-18.6078,4.34973,0,0,0,0,0,0,0,-1,615,757,-18.6078,-4.34976
-602,267,-18.6019,3.52838,0,0,0,0,0,0,0,-1,622,757,-18.602,-3.52839
-595,267,-18.459,2.58313,-0.000471619,0.0200312,-0.00697936,0.0221815,-0.00262194,-1.27193,0.0157346,0.0491288,629,757,-18.4591,-2.58312
-588,267,-18.6732,1.89374,0,0,0,0,0,0,0,-1,636,757,-18.6732,-1.89375
-581,267,-19.0424,1.10492,-0.00137417,0.00820668,-0.00315985,0.00915497,-0.00232246,-1.27924,0.00700696,0.0355055,643,757,-19.0424,-1.10491
-574,267,-19.1314,0.427429,-0.00132006,0.00529145,-0.00193116,0.0058142,-0.0018428,-1.30644,0.00461472,0.0208036,650,757,-19.1314,-0.427449
-567,267,-19.2291,-0.0945435,-0.00126176,0.00326532,-0.00100209,0.00347722,-0.00147366,-1.36241,0.00293538,0.0266711,657,757,-19.2291,0.0945382
-560,267,-19.215,-0.611084,-0.00122923,0.0017452,-0.000249225,0.00176594,-0.00124997,-1.48778,0.00174971,0.0236398,664,757,-19.215,0.611108
-553,267,-19.2574,-1.13116,-0.00117173,0.0005392,0.000377822,0.000618919,-0.00125145,1.36285,0.00110025,0.0180294,671,757,-19.2574,1.13115
-546,267,-19.2977,-1.65045,-0.00107641,-0.000452651,0.00090718,0.000194764,-0.00172382,0.950964,0.00121933,0.011925,678,757,-19.2977,1.65045
-539,267,-19.2924,-2.17487,-0.000962464,-0.00173377,0.00141404,0.00011757,-0.0028138,0.652271,0.00191626,0.0114466,685,757,-19.2923,2.17484
-532,267,-19.2834,-2.67548,-0.000834334,-0.00250558,0.00183338,0.000344877,-0.00368479,0.571572,0.00257918,0.011882,692,757,-19.2834,2.67549
-525,267,-19.3248,-3.15637,-0.000479899,-0.00251285,0.00106352,-2.52172e-05,-0.00296753,0.404007,0.00197,0.0112246,699,757,-19.3248,3.1564
-518,267,-19.3588,-3.67255,-1.77e-05,-0.0018727,-0.000746004,0.000245085,-0.00213548,-0.338684,0.00151199,0.0113608,706,757,-19.3588,3.67252
-511,267,-19.3422,-4.18481,0.00129677,-0.00125124,-0.00255562,0.00287833,-0.0028328,-0.55417,0.00329736,0.0171732,713,757,-19.3422,4.18482
-504,267,-19.4299,-4.58545,0.00443348,0.000168266,-0.00499844,0.00773524,-0.0031335,-0.583763,0.00645983,0.0333529,720,757,-19.4299,4.58544
-497,267,-19.5701,-4.97021,0,0,0,0,0,0,0,-1,727,757,-19.5701,4.97022
-490,267,-23.4949,-0.494995,0,0,0,0,0,0,0,-1,734,757,-23.4949,0.494981
-483,267,-33.1655,0.310303,0,0,0,0,0,0,0,-1,741,757,-33.1655,-0.310331
-476,267,-34.9503,1.95837,0,0,0,0,0,0,0,-1,748,757,-34.9503,-1.95838
-469,267,-34.9824,1.66541,0.0295044,0.0123377,-0.0225038,0.0450063,-0.00316415,-0.603205,0.0311126,0.0469091,755,757,-34.9823,-1.6654
-462,267,-34.8806,1.36182,0.0387456,0.0150896,-0.0258286,0.0553257,-0.00149046,-0.570679,0.0373905,0.0477462,762,757,-34.8805,-1.36179
-455,267,-34.4133,0.98645,0.0487803,0.0171082,-0.0277611,0.0649045,0.000984021,-0.526197,0.0429454,0.0483737,769,757,-34.4133,-0.986455
-448,267,-33.954,0.685242,0,0,0,0,0,0,0,-1,776,757,-33.954,-0.685222
-441,267,0,0,0,0,0,0,0,0,0,-1,783,757,0,0
-434,267,0,0,0,0,0,0,0,0,0,-1,790,757,0,0
-427,267,0,0,0,0,0,0,0,0,0,-1,797,757,0,0
-420,267,0,0,0,0,0,0,0,0,0,-1,804,757,0,0
-413,267,0,0,0,0,0,0,0,0,0,-1,811,757,0,0
-406,267,0,0,0,0,0,0,0,0,0,-1,818,757,0,0
-399,267,0,0,0,0,0,0,0,0,0,-1,825,757,0,0
-392,267,0,0,0,0,0,0,0,0,0,-1,832,757,0,0
-385,267,0,0,0,0,0,0,0,0,0,-1,839,757,0,0
-378,267,0,0,0,0,0,0,0,0,0,-1,846,757,0,0
-371,267,0,0,0,0,0,0,0,0,0,-1,853,757,0,0
-364,267,0,0,0,0,0,0,0,0,0,-1,860,757,0,0
-357,267,0,0,0,0,0,0,0,0,0,-1,867,757,0,0
-350,267,0,0,0,0,0,0,0,0,0,-1,874,757,0,0
-343,267,0,0,0,0,0,0,0,0,0,-1,881,757,0,0
-336,267,0,0,0,0,0,0,0,0,0,-1,888,757,0,0
-329,267,0,0,0,0,0,0,0,0,0,-1,895,757,0,0
-322,267,0,0,0,0,0,0,0,0,0,-1,902,757,0,0
-315,267,0,0,0,0,0,0,0,0,0,-1,909,757,0,0
-308,267,0,0,0,0,0,0,0,0,0,-1,916,757,0,0
-301,267,0,0,0,0,0,0,0,0,0,-1,923,757,0,0
-294,267,0,0,0,0,0,0,0,0,0,-1,930,757,0,0
-287,267,0,0,0,0,0,0,0,0,0,-1,937,757,0,0
-280,267,0,0,0,0,0,0,0,0,0,-1,944,757,0,0
-273,267,0,0,0,0,0,0,0,0,0,-1,951,757,0,0
-266,267,0,0,0,0,0,0,0,0,0,-1,958,757,0,0
-259,267,0,0,0,0,0,0,0,0,0,-1,965,757,0,0
-252,267,0,0,0,0,0,0,0,0,0,-1,972,757,0,0
-245,267,0,0,0,0,0,0,0,0,0,-1,979,757,0,0
-238,267,0,0,0,0,0,0,0,0,0,-1,986,757,0,0
-231,267,0,0,0,0,0,0,0,0,0,-1,993,757,0,0
-224,267,0,0,0,0,0,0,0,0,0,-1,1000,757,0,0
-217,267,0,0,0,0,0,0,0,0,0,-1,1007,757,0,0
-210,267,0,0,0,0,0,0,0,0,0,-1,1014,757,0,0
-203,267,0,0,0,0,0,0,0,0,0,-1,1021,757,0,0
-196,267,0,0,0,0,0,0,0,0,0,-1,1028,757,0,0
-189,267,0,0,0,0,0,0,0,0,0,-1,1035,757,0,0
-182,267,0,0,0,0,0,0,0,0,0,-1,1042,757,0,0
-175,267,0,0,0,0,0,0,0,0,0,-1,1049,757,0,0
-168,267,0,0,0,0,0,0,0,0,0,-1,1056,757,0,0
-161,267,0,0,0,0,0,0,0,0,0,-1,1063,757,0,0
-154,267,0,0,0,0,0,0,0,0,0,-1,1070,757,0,0
-147,267,0,0,0,0,0,0,0,0,0,-1,1077,757,0,0
-140,267,0,0,0,0,0,0,0,0,0,-1,1084,757,0,0
-133,267,0,0,0,0,0,0,0,0,0,-1,1091,757,0,0
-126,267,0,0,0,0,0,0,0,0,0,-1,1098,757,0,0
-119,267,0,0,0,0,0,0,0,0,0,-1,1105,757,0,0
-112,267,0,0,0,0,0,0,0,0,0,-1,1112,757,0,0
-105,267,0,0,0,0,0,0,0,0,0,-1,1119,757,0,0
-98,267,0,0,0,0,0,0,0,0,0,-1,1126,757,0,0
-91,267,0,0,0,0,0,0,0,0,0,-1,1133,757,0,0
-84,267,0,0,0,0,0,0,0,0,0,-1,1140,757,0,0
-77,267,0,0,0,0,0,0,0,0,0,-1,1147,757,0,0
-70,267,0,0,0,0,0,0,0,0,0,-1,1154,757,0,0
-63,267,0,0,0,0,0,0,0,0,0,-1,1161,757,0,0
-56,267,0,0,0,0,0,0,0,0,0,-1,1168,757,0,0
-49,267,0,0,0,0,0,0,0,0,0,-1,1175,757,0,0
-42,267,0,0,0,0,0,0,0,0,0,-1,1182,757,0,0
-35,267,0,0,0,0,0,0,0,0,0,-1,1189,757,0,0
-28,267,0,0,0,0,0,0,0,0,0,-1,1196,757,0,0
-21,267,0,0,0,0,0,0,0,0,0,-1,1203,757,0,0
-14,267,0,0,0,0,0,0,0,0,0,-1,1210,757,0,0
-7,267,0,0,0,0,0,0,0,0,0,-1,1217,757,0,0
0,267,0,0,0,0,0,0,0,0,0,-1,1224,757,0,0
7,267,0,0,0,0,0,0,0,0,0,-1,1231,757,0,0
14,267,0,0,0,0,0,0,0,0,0,-1,1238,757,0,0
21,267,0,0,0,0,0,0,0,0,0,-1,1245,757,0,0
28,267,0,0,0,0,0,0,0,0,0,-1,1252,757,0,0
35,267,0,0,0,0,0,0,0,0,0,-1,1259,757,0,0
42,267,0,0,0,0,0,0,0,0,0,-1,1266,757,0,0
49,267,0,0,0,0,0,0,0,0,0,-1,1273,757,0,0
56,267,0,0,0,0,0,0,0,0,0,-1,1280,757,0,0
63,267,0,0,0,0,0,0,0,0,0,-1,1287,757,0,0
70,267,0,0,0,0,0,0,0,0,0,-1,1294,757,0,0
77,267,0,0,0,0,0,0,0,0,0,-1,1301,757,0,0
84,267,0,0,0,0,0,0,0,0,0,-1,1308,757,0,0
91,267,0,0,0,0,0,0,0,0,0,-1,1315,757,0,0
98,267,0,0,0,0,0,0,0,0,0,-1,1322,757,0,0
105,267,0,0,0,0,0,0,0,0,0,-1,1329,757,0,0
112,267,0,0,0,0,0,0,0,0,0,-1,1336,757,0,0
119,267,0,0,0,0,0,0,0,0,0,-1,1343,757,0,0
126,267,0,0,0,0,0,0,0,0,0,-1,1350,757,0,0
133,267,0,0,0,0,0,0,0,0,0,-1,1357,757,0,0
140,267,0,0,0,0,0,0,0,0,0,-1,1364,757,0,0
147,267,0,0,0,0,0,0,0,0,0,-1,1371,757,0,0
154,267,0,0,0,0,0,0,0,0,0,-1,1378,757,0,0
161,267,0,0,0,0,0,0,0,0,0,-1,1385,757,0,0
168,267,0,0,0,0,0,0,0,0,0,-1,1392,757,0,0
175,267,0,0,0,0,0,0,0,0,0,-1,1399,757,0,0
182,267,0,0,0,0,0,0,0,0,0,-1,1406,757,0,0
189,267,0,0,0,0,0,0,0,0,0,-1,1413,757,0,0
196,267,0,0,0,0,0,0,0,0,0,-1,1420,757,0,0
203,267,0,0,0,0,0,0,0,0,0,-1,1427,757,0,0
210,267,0,0,0,0,0,0,0,0,0,-1,1434,757,0,0
217,267,0,0,0,0,0,0,0,0,0,-1,1441,757,0,0
224,267,0,0,0,0,0,0,0,0,0,-1,1448,757,0,0
231,267,0,0,0,0,0,0,0,0,0,-1,1455,757,0,0
238,267,0,0,0,0,0,0,0,0,0,-1,1462,757,0,0
245,267,0,0,0,0,0,0,0,0,0,-1,1469,757,0,0
252,267,0,0,0,0,0,0,0,0,0,-1,1476,757,0,0
259,267,0,0,0,0,0,0,0,0,0,-1,1483,757,0,0
266,267,0,0,0,0,0,0,0,0,0,-1,1490,757,0,0
273,267,0,0,0,0,0,0,0,0,0,-1,1497,757,0,0
280,267,0,0,0,0,0,0,0,0,0,-1,1504,757,0,0
287,267,0,0,0,0,0,0,0,0,0,-1,1511,757,0,0
294,267,0,0,0,0,0,0,0,0,0,-1,1518,757,0,0
301,267,0,0,0,0,0,0,0,0,0,-1,1525,757,0,0
308,267,0,0,0,0,0,0,0,0,0,-1,1532,757,0,0
315,267,0,0,0,0,0,0,0,0,0,-1,1539,757,0,0
322,267,0,0,0,0,0,0,0,0,0,-1,1546,757,0,0
329,267,0,0,0,0,0,0,0,0,0,-1,1553,757,0,0
336,267,0,0,0,0,0,0,0,0,0,-1,1560,757,0,0
343,267,0,0,0,0,0,0,0,0,0,-1,1567,757,0,0
350,267,0,0,0,0,0,0,0,0,0,-1,1574,757,0,0
357,267,0,0,0,0,0,0,0,0,0,-1,1581,757,0,0
364,267,0,0,0,0,0,0,0,0,0,-1,1588,757,0,0
371,267,0,0,0,0,0,0,0,0,0,-1,1595,757,0,0
378,267,0,0,0,0,0,0,0,0,0,-1,1602,757,0,0
385,267,0,0,0,0,0,0,0,0,0,-1,1609,757,0,0
392,267,0,0,0,0,0,0,0,0,0,-1,1616,757,0,0
399,267,0,0,0,0,0,0,0,0,0,-1,1623,757,0,0
406,267,0,0,0,0,0,0,0,0,0,-1,1630,757,0,0
413,267,0,0,0,0,0,0,0,0,0,-1,1637,757,0,0
420,267,0,0,0,0,0,0,0,0,0,-1,1644,757,0,0
427,267,0,0,0,0,0,0,0,0,0,-1,1651,757,0,0
434,267,0,0,0,0,0,0,0,0,0,-1,1658,757,0,0
441,267,0,0,0,0,0,0,0,0,0,-1,1665,757,0,0
448,267,0,0,0,0,0,0,0,0,0,-1,1672,757,0,0
455,267,0,0,0,0,0,0,0,0,0,-1,1679,757,0,0
462,267,0,0,0,0,0,0,0,0,0,-1,1686,757,0,0
469,267,0,0,0,0,0,0,0,0,0,-1,1693,757,0,0
476,267,0,0,0,0,0,0,0,0,0,-1,1700,757,0,0
483,267,0,0,0,0,0,0,0,0,0,-1,1707,757,0,0
490,267,0,0,0,0,0,0,0,0,0,-1,1714,757,0,0
497,267,0,0,0,0,0,0,0,0,0,-1,1721,757,0,0
504,267,0,0,0,0,0,0,0,0,0,-1,1728,757,0,0
511,267,0,0,0,0,0,0,0,0,0,-1,1735,757,0,0
518,267,0,0,0,0,0,0,0,0,0,-1,1742,757,0,0
525,267,0,0,0,0,0,0,0,0,0,-1,1749,757,0,0
532,267,0,0,0,0,0,0,0,0,0,-1,1756,757,0,0
539,267,0,0,0,0,0,0,0,0,0,-1,1763,757,0,0
546,267,0,0,0,0,0,0,0,0,0,-1,1770,757,0,0
553,267,0,0,0,0,0,0,0,0,0,-1,1777,757,0,0
560,267,0,0,0,0,0,0,0,0,0,-1,1784,757,0,0
567,267,44.7284,3.05975,0,0,0,0,0,0,0,-1,1791,757,44.7284,-3.05973
574,267,44.7,3.16571,0.0140744,0.017375,0.00836291,0.0242489,0.00720053,0.882815,0.0143798,0.0467042,1798,757,44.6999,-3.16569
581,267,44.5697,3.40198,0.00105947,0.0130642,0.0162352,0.0243711,-0.0102475,0.962461,0.020534,0.0435789,1805,757,44.5698,-3.40199
588,267,48.1322,1.30206,0,0,0,0,0,0,0,-1,1812,757,48.1322,-1.30205
595,267,47.2861,1.56311,-0.0120058,0.00705589,0.0212858,0.0208472,-0.0257971,0.995891,0.0269806,0.0480802,1819,757,47.2861,-1.56309
602,267,46.4735,2.16528,-0.0147775,0.00440592,0.0216497,0.0184936,-0.0288652,0.993924,0.0275603,0.0471438,1826,757,46.4735,-2.16527
609,267,45.8667,3.255,0,0,0,0,0,0,0,-1,1833,757,45.8667,-3.25503
616,267,41.4904,3.89758,0,0,0,0,0,0,0,-1,1840,757,41.4903,-3.89759
623,267,24.1475,-1.1391,0,0,0,0,0,0,0,-1,1847,757,24.1475,1.13913
630,267,29.7172,-2.93671,0,0,0,0,0,0,0,-1,1854,757,29.7171,2.93668
637,267,29.526,-2.42224,-0.00969396,-0.000263714,0.0117776,0.00770754,-0.0176652,0.975801,0.0150203,0.0359954,1861,757,29.526,2.42222
644,267,29.4253,-1.91748,-0.00721689,-0.000387308,0.00915494,0.00596897,-0.0135732,0.963906,0.0115639,0.0132072,1868,757,29.4253,1.91747
651,267,29.4014,-1.36566,-0.00399799,-0.00043992,0.0059484,0.00398978,-0.00842769,0.930704,0.00732026,0.0150252,1875,757,29.4014,1.36564
658,267,29.3997,-0.842041,-0.00112648,-6.91124e-05,0.00286077,0.00231142,-0.00350701,0.87677,0.00338283,0.0146038,1882,757,29.3997,0.842042
665,267,29.3983,-0.307373,0.000273933,-3.0994e-05,0.00100443,0.0011374,-0.000894462,0.710077,0.00117589,0.0147856,1889,757,29.3983,0.307348
672,267,29.4016,0.238525,0.000536939,0.000368017,0.000311289,0.000775022,0.000129934,0.652924,0.000479277,0.0134257,1896,757,29.4016,-0.238508
679,267,29.3745,0.791016,0.000467988,0.00109205,0.000462914,0.00133827,0.000221759,1.08195,0.000828219,0.0134935,1903,757,29.3745,-0.791044
686,267,29.3577,1.34283,0.000595432,0.00201503,0.000779006,0.00235911,0.00025135,1.15487,0.00149601,0.0142296,1910,757,29.3577,-1.34283
693,267,29.3121,1.8512,0.000947405,0.0031252,0.00127405,0.00371229,0.000360323,1.139,0.00236392,0.013474,1917,757,29.3121,-1.85121
700,267,29.3073,2.41608,0.00151834,0.00440492,0.00193579,0.00537625,0.000547017,1.10573,0.00341645,0.0141734,1924,757,29.3073,-2.41607
707,267,29.2792,2.96368,0.00242243,0.00584535,0.00285915,0.00746614,0.000801649,1.05509,0.00473289,0.014637,1931,757,29.2792,-2.96365
714,267,29.3713,3.46124,0.00394329,0.007727,0.00429977,0.0105327,0.00113758,0.992647,0.00667501,0.0341784,1938,757,29.3713,-3.46123
721,267,29.5131,3.9458,0,0,0,0,0,0,0,-1,1945,757,29.513,-3.94583
728,267,26.7886,3.90027,0,0,0,0,0,0,0,-1,1952,757,26.7886,-3.90028
735,267,24.6713,2.82483,0,0,0,0,0,0,0,-1,1959,757,24.6713,-2.82483
742,267,18.1177,3.56561,0,0,0,0,0,0,0,-1,1966,757,18.1176,-3.56564
749,267,0,0,0,0,0,0,0,0,0,-1,1973,757,0,0
756,267,0,0,0,0,0,0,0,0,0,-1,1980,757,0,0
763,267,0,0,0,0,0,0,0,0,0,-1,1987,757,0,0
770,267,0,0,0,0,0,0,0,0,0,-1,1994,757,0,0
777,267,0,0,0,0,0,0,0,0,0,-1,2001,757,0,0
784,267,0,0,0,0,0,0,0,0,0,-1,2008,757,0,0
791,267,0,0,0,0,0,0,0,0,0,-1,2015,757,0,0
798,267,0,0,0,0,0,0,0,0,0,-1,2022,757,0,0
805,267,0,0,0,0,0,0,0,0,0,-1,2029,757,0,0
812,267,0,0,0,0,0,0,0,0,0,-1,2036,757,0,0
-700,260,0,0,0,0,0,0,0,0,0,-1,524,764,0,0
-693,260,0,0,0,0,0,0,0,0,0,-1,531,764,0,0
-686,260,0,0,0,0,0,0,0,0,0,-1,538,764,0,0
-679,260,0,0,0,0,0,0,0,0,0,-1,545,764,0,0
-672,260,0,0,0,0,0,0,0,0,0,-1,552,764,0,0
-665,260,0,0,0,0,0,0,0,0,0,-1,559,764,0,0
-658,260,0,0,0,0,0,0,0,0,0,-1,566,764,0,0
-651,260,0,0,0,0,0,0,0,0,0,-1,573,764,0,0
-644,260,0,0,0,0,0,0,0,0,0,-1,580,764,0,0
-637,260,0,0,0,0,0,0,0,0,0,-1,587,764,0,0
-630,260,-21.8905,4.49341,0,0,0,0,0,0,0,-1,594,764,-21.8905,-4.49342
-623,260,-20.3127,3.53546,0,0,0,0,0,0,0,-1,601,764,-20.3127,-3.53544
-616,260,-23.4346,3.65009,0,0,0,0,0,0,0,-1,608,764,-23.4345,-3.65008
-609,260,-18.557,3.77429,0,0,0,0,0,0,0,-1,615,764,-18.557,-3.77426
-602,260,-19.5761,2.78387,0,0,0,0,0,0,0,-1,622,764,-19.5761,-2.78388
-595,260,-19.4908,1.97205,0,0,0,0,0,0,0,-1,629,764,-19.4908,-1.97203
-588,260,-19.5926,1.31195,0,0,0,0,0,0,0,-1,636,764,-19.5926,-1.31197
-581,260,-19.7429,0.882813,3.68493e-05,0.00771318,-0.00395963,0.00938956,-0.00163953,-1.17031,0.00687172,0.0271999,643,764,-19.7428,-0.882813
-574,260,-19.7385,0.412781,-0.000247989,0.00501648,-0.00251737,0.00602647,-0.00125798,-1.18925,0.00449603,0.0183319,650,764,-19.7385,-0.412777
-567,260,-19.7408,-0.0747681,-0.000498439,0.00302673,-0.00137368,0.0034988,-0.000970511,-1.23978,0.0027145,0.0184487,657,764,-19.7408,0.0747494
-560,260,-19.7254,-0.594666,-0.000728051,0.00147167,-0.000431894,0.00155343,-0.000809811,-1.38371,0.00138675,0.0204439,664,764,-19.7254,0.594648
-553,260,-19.7581,-1.10657,-0.000911741,0.000177053,0.000371796,0.000291898,-0.00102659,1.2712,0.000799651,0.0173269,671,764,-19.7581,1.10657
-546,260,-19.8004,-1.60693,-0.00102513,-0.000892654,0.00103952,8.27397e-05,-0.00200052,0.817215,0.0013621,0.011557,678,764,-19.8004,1.60695
-539,260,-19.7913,-2.12048,-0.0010486,-0.00224661,0.00165253,0.00011014,-0.00340535,0.611525,0.00230783,0.0123625,685,764,-19.7913,2.12051
-532,260,-19.7848,-2.61823,-0.000933882,-0.00314096,0.00206873,0.000307241,-0.00438209,0.540379,0.003029,0.0158115,692,764,-19.7848,2.61824
-525,260,-19.8319,-3.15424,-0.000497846,-0.00303105,0.00111524,-7.68322e-05,-0.00345206,0.360968,0.0022762,0.0141922,699,764,-19.8319,3.15421
-518,260,-19.8939,-3.63025,1.34855e-05,-0.00233441,-0.000781623,0.000249888,-0.00257082,-0.293703,0.00180295,0.0165168,706,764,-19.8939,3.63022
-511,260,-19.9109,-4.11346,0.00127635,-0.00175048,-0.00252705,0.00270851,-0.00318264,-0.515598,0.00340493,0.0293227,713,764,-19.911,4.11347
-504,260,-19.9564,-4.46033,0,0,0,0,0,0,0,-1,720,764,-19.9564,4.46033
-497,260,-16.6542,-3.67334,0,0,0,0,0,0,0,-1,727,764,-16.6542,3.67331
-490,260,-29.4557,0.921387,0,0,0,0,0,0,0,-1,734,764,-29.4557,-0.921369
-483,260,-34.5748,1.82428,0,0,0,0,0,0,0,-1,741,764,-34.5748,-1.82425
-476,260,-34.4942,1.67664,0.019053,0.00841954,-0.0182081,0.0327048,-0.0052322,-0.643348,0.0237402,0.0422273,748,764,-34.4942,-1.67662
-469,260,-34.5557,1.41406,0.0259019,0.0116661,-0.0223346,0.0422253,-0.00465735,-0.63114,0.0298241,0.0464542,755,764,-34.5556,-1.41407
-462,260,-34.5154,1.15735,0,0,0,0,0,0,0,-1,762,764,-34.5154,-1.15734
-455,260,-34.3667,0.967651,0,0,0,0,0,0,0,-1,769,764,-34.3667,-0.967636
-448,260,0,0,0,0,0,0,0,0,0,-1,776,764,0,0
-441,260,0,0,0,0,0,0,0,0,0,-1,783,764,0,0
-434,260,0,0,0,0,0,0,0,0,0,-1,790,764,0,0
-427,260,0,0,0,0,0,0,0,0,0,-1,797,764,0,0
-420,260,0,0,0,0,0,0,0,0,0,-1,804,764,0,0
-413,260,0,0,0,0,0,0,0,0,0,-1,811,764,0,0
-406,260,0,0,0,0,0,0,0,0,0,-1,818,764,0,0
-399,260,0,0,0,0,0,0,0,0,0,-1,825,764,0,0
-392,260,0,0,0,0,0,0,0,0,0,-1,832,764,0,0
-385,260,0,0,0,0,0,0,0,0,0,-1,839,764,0,0
-378,260,0,0,0,0,0,0,0,0,0,-1,846,764,0,0
-371,260,0,0,0,0,0,0,0,0,0,-1,853,764,0,0
-364,260,0,0,0,0,0,0,0,0,0,-1,860,764,0,0
-357,260,0,0,0,0,0,0,0,0,0,-1,867,764,0,0
-350,260,0,0,0,0,0,0,0,0,0,-1,874,764,0,0
-343,260,0,0,0,0,0,0,0,0,0,-1,881,764,0,0
-336,260,0,0,0,0,0,0,0,0,0,-1,888,764,0,0
-329,260,0,0,0,0,0,0,0,0,0,-1,895,764,0,0
-322,260,0,0,0,0,0,0,0,0,0,-1,902,764,0,0
-315,260,0,0,0,0,0,0,0,0,0,-1,909,764,0,0
-308,260,0,0,0,0,0,0,0,0,0,-1,916,764,0,0
-301,260,0,0,0,0,0,0,0,0,0,-1,923,764,0,0
-294,260,0,0,0,0,0,0,0,0,0,-1,930,764,0,0
-287,260,0,0,0,0,0,0,0,0,0,-1,937,764,0,0
-280,260,0,0,0,0,0,0,0,0,0,-1,944,764,0,0
-273,260,0,0,0,0,0,0,0,0,0,-1,951,764,0,0
-266,260,0,0,0,0,0,0,0,0,0,-1,958,764,0,0
-259,260,0,0,0,0,0,0,0,0,0,-1,965,764,0,0
-252,260,0,0,0,0,0,0,0,0,0,-1,972,764,0,0
-245,260,0,0,0,0,0,0,0,0,0,-1,979,764,0,0
-238,260,0,0,0,0,0,0,0,0,0,-1,986,764,0,0
-231,260,0,0,0,0,0,0,0,0,0,-1,993,764,0,0
-224,260,0,0,0,0,0,0,0,0,0,-1,1000,764,0,0
-217,260,0,0,0,0,0,0,0,0,0,-1,1007,764,0,0
-210,260,0,0,0,0,0,0,0,0,0,-1,1014,764,0,0
-203,260,0,0,0,0,0,0,0,0,0,-1,1021,764,0,0
-196,260,0,0,0,0,0,0,0,0,0,-1,1028,764,0,0
-189,260,0,0,0,0,0,0,0,0,0,-1,1035,764,0,0
-182,260,0,0,0,0,0,0,0,0,0,-1,1042,764,0,0
-175,260,0,0,0,0,0,0,0,0,0,-1,1049,764,0,0
-168,260,0,0,0,0,0,0,0,0,0,-1,1056,764,0,0
-161,260,0,0,0,0,0,0,0,0,0,-1,1063,764,0,0
-154,260,0,0,0,0,0,0,0,0,0,-1,1070,764,0,0
-147,260,0,0,0,0,0,0,0,0,0,-1,1077,764,0,0
-140,260,0,0,0,0,0,0,0,0,0,-1,1084,764,0,0
-133,260,0,0,0,0,0,0,0,0,0,-1,1091,764,0,0
-126,260,0,0,0,0,0,0,0,0,0,-1,1098,764,0,0
-119,260,0,0,0,0,0,0,0,0,0,-1,1105,764,0,0
-112,260,0,0,0,0,0,0,0,0,0,-1,1112,764,0,0
-105,260,0,0,0,0,0,0,0,0,0,-1,1119,764,0,0
-98,260,0,0,0,0,0,0,0,0,0,-1,1126,764,0,0
-91,260,0,0,0,0,0,0,0,0,0,-1,1133,764,0,0
-84,260,0,0,0,0,0,0,0,0,0,-1,1140,764,0,0
-77,260,0,0,0,0,0,0,0,0,0,-1,1147,764,0,0
-70,260,0,0,0,0,0,0,0,0,0,-1,1154,764,0,0
-63,260,0,0,0,0,0,0,0,0,0,-1,1161,764,0,0
-56,260,0,0,0,0,0,0,0,0,0,-1,1168,764,0,0
-49,260,0,0,0,0,0,0,0,0,0,-1,1175,764,0,0
-42,260,0,0,0,0,0,0,0,0,0,-1,1182,764,0,0
-35,260,0,0,0,0,0,0,0,0,0,-1,1189,764,0,0
-28,260,0,0,0,0,0,0,0,0,0,-1,1196,764,0,0
-21,260,0,0,0,0,0,0,0,0,0,-1,1203,764,0,0
-14,260,0,0,0,0,0,0,0,0,0,-1,1210,764,0,0
-7,260,0,0,0,0,0,0,0,0,0,-1,1217,764,0,0
0,260,0,0,0,0,0,0,0,0,0,-1,1224,764,0,0
7,260,0,0,0,0,0,0,0,0,0,-1,1231,764,0,0
14,260,0,0,0,0,0,0,0,0,0,-1,1238,764,0,0
21,260,0,0,0,0,0,0,0,0,0,-1,1245,764,0,0
28,260,0,0,0,0,0,0,0,0,0,-1,1252,764,0,0
35,260,0,0,0,0,0,0,0,0,0,-1,1259,764,0,0
42,260,0,0,0,0,0,0,0,0,0,-1,1266,764,0,0
49,260,0,0,0,0,0,0,0,0,0,-1,1273,764,0,0
56,260,0,0,0,0,0,0,0,0,0,-1,1280,764,0,0
63,260,0,0,0,0,0,0,0,0,0,-1,1287,764,0,0
70,260,0,0,0,0,0,0,0,0,0,-1,1294,764,0,0
77,260,0,0,0,0,0,0,0,0,0,-1,1301,764,0,0
84,260,0,0,0,0,0,0,0,0,0,-1,1308,764,0,0
91,260,0,0,0,0,0,0,0,0,0,-1,1315,764,0,0
98,260,0,0,0,0,0,0,0,0,0,-1,1322,764,0,0
105,260,0,0,0,0,0,0,0,0,0,-1,1329,764,0,0
112,260,0,0,0,0,0,0,0,0,0,-1,1336,764,0,0
119,260,0,0,0,0,0,0,0,0,0,-1,1343,764,0,0
126,260,0,0,0,0,0,0,0,0,0,-1,1350,764,0,0
133,260,0,0,0,0,0,0,0,0,0,-1,1357,764,0,0
140,260,0,0,0,0,0,0,0,0,0,-1,1364,764,0,0
147,260,0,0,0,0,0,0,0,0,0,-1,1371,764,0,0
154,260,0,0,0,0,0,0,0,0,0,-1,1378,764,0,0
161,260,0,0,0,0,0,0,0,0,0,-1,1385,764,0,0
168,260,0,0,0,0,0,0,0,0,0,-1,1392,764,0,0
175,260,0,0,0,0,0,0,0,0,0,-1,1399,764,0,0
182,260,0,0,0,0,0,0,0,0,0,-1,1406,764,0,0
189,260,0,0,0,0,0,0,0,0,0,-1,1413,764,0,0
196,260,0,0,0,0,0,0,0,0,0,-1,1420,764,0,0
203,260,0,0,0,0,0,0,0,0,0,-1,1427,764,0,0
210,260,0,0,0,0,0,0,0,0,0,-1,1434,764,0,0
217,260,0,0,0,0,0,0,0,0,0,-1,1441,764,0,0
224,260,0,0,0,0,0,0,0,0,0,-1,1448,764,0,0
231,260,0,0,0,0,0,0,0,0,0,-1,1455,764,0,0
238,260,0,0,0,0,0,0,0,0,0,-1,1462,764,0,0
245,260,0,0,0,0,0,0,0,0,0,-1,1469,764,0,0
252,260,0,0,0,0,0,0,0,0,0,-1,1476,764,0,0
259,260,0,0,0,0,0,0,0,0,0,-1,1483,764,0,0
266,260,0,0,0,0,0,0,0,0,0,-1,1490,764,0,0
273,260,0,0,0,0,0,0,0,0,0,-1,1497,764,0,0
280,260,0,0,0,0,0,0,0,0,0,-1,1504,764,0,0
287,260,0,0,0,0,0,0,0,0,0,-1,1511,764,0,0
294,260,0,0,0,0,0,0,0,0,0,-1,1518,764,0,0
301,260,0,0,0,0,0,0,0,0,0,-1,1525,764,0,0
308,260,0,0,0,0,0,0,0,0,0,-1,1532,764,0,0
315,260,0,0,0,0,0,0,0,0,0,-1,1539,764,0,0
322,260,0,0,0,0,0,0,0,0,0,-1,1546,764,0,0
329,260,0,0,0,0,0,0,0,0,0,-1,1553,764,0,0
336,260,0,0,0,0,0,0,0,0,0,-1,1560,764,0,0
343,260,0,0,0,0,0,0,0,0,0,-1,1567,764,0,0
350,260,0,0,0,0,0,0,0,0,0,-1,1574,764,0,0
357,260,0,0,0,0,0,0,0,0,0,-1,1581,764,0,0
364,260,0,0,0,0,0,0,0,0,0,-1,1588,764,0,0
371,260,0,0,0,0,0,0,0,0,0,-1,1595,764,0,0
378,260,0,0,0,0,0,0,0,0,0,-1,1602,764,0,0
385,260,0,0,0,0,0,0,0,0,0,-1,1609,764,0,0
392,260,0,0,0,0,0,0,0,0,0,-1,1616,764,0,0
399,260,0,0,0,0,0,0,0,0,0,-1,1623,764,0,0
406,260,0,0,0,0,0,0,0,0,0,-1,1630,764,0,0
413,260,0,0,0,0,0,0,0,0,0,-1,1637,764,0,0
420,260,0,0,0,0,0,0,0,0,0,-1,1644,764,0,0
427,260,0,0,0,0,0,0,0,0,0,-1,1651,764,0,0
434,260,0,0,0,0,0,0,0,0,0,-1,1658,764,0,0
441,260,0,0,0,0,0,0,0,0,0,-1,1665,764,0,0
448,260,0,0,0,0,0,0,0,0,0,-1,1672,764,0,0
455,260,0,0,0,0,0,0,0,0,0,-1,1679,764,0,0
462,260,0,0,0,0,0,0,0,0,0,-1,1686,764,0,0
469,260,0,0,0,0,0,0,0,0,0,-1,1693,764,0,0
476,260,0,0,0,0,0,0,0,0,0,-1,1700,764,0,0
483,260,0,0,0,0,0,0,0,0,0,-1,1707,764,0,0
490,260,0,0,0,0,0,0,0,0,0,-1,1714,764,0,0
497,260,0,0,0,0,0,0,0,0,0,-1,1721,764,0,0
504,260,0,0,0,0,0,0,0,0,0,-1,1728,764,0,0
511,260,0,0,0,0,0,0,0,0,0,-1,1735,764,0,0
518,260,0,0,0,0,0,0,0,0,0,-1,1742,764,0,0
525,260,0,0,0,0,0,0,0,0,0,-1,1749,764,0,0
532,260,0,0,0,0,0,0,0,0,0,-1,1756,764,0,0
539,260,0,0,0,0,0,0,0,0,0,-1,1763,764,0,0
546,260,0,0,0,0,0,0,0,0,0,-1,1770,764,0,0
553,260,0,0,0,0,0,0,0,0,0,-1,1777,764,0,0
560,260,0,0,0,0,0,0,0,0,0,-1,1784,764,0,0
567,260,0,0,0,0,0,0,0,0,0,-1,1791,764,0,0
574,260,44.6958,2.96582,0.0150643,0.0165901,0.00340738,0.0193189,0.0123354,0.895533,0.0112956,0.0379254,1798,764,44.6958,-2.96581
581,260,44.6526,3.22253,-0.00105602,0.0120813,0.0150506,0.0219343,-0.010909,0.991158,0.0193149,0.0424197,1805,764,44.6526,-3.22254
588,260,47.299,1.0589,0,0,0,0,0,0,0,-1,1812,764,47.2989,-1.05889
595,260,46.6627,1.55865,-0.015019,0.00626473,0.0225361,0.0205452,-0.0292995,1.00598,0.0289255,0.0485821,1819,764,46.6627,-1.55865
602,260,45.9474,2.16321,-0.0169513,0.00401861,0.0226295,0.0184741,-0.0314068,1.00234,0.0291197,0.0450587,1826,764,45.9474,-2.16318
609,260,45.256,3.01398,-0.0167495,0.00277567,0.0211301,0.0162895,-0.0302633,1.0018,0.0272779,0.0420232,1833,764,45.256,-3.01397
616,260,44.4238,3.83069,0,0,0,0,0,0,0,-1,1840,764,44.4239,-3.83071
623,260,32.2268,3.25836,0,0,0,0,0,0,0,-1,1847,764,32.2268,-3.25833
630,260,24.3739,-0.536316,0,0,0,0,0,0,0,-1,1854,764,24.3739,0.536343
637,260,30.0789,-2.40088,0,0,0,0,0,0,0,-1,1861,764,30.0789,2.40087
644,260,30.0457,-1.87262,-0.00680367,-0.000148592,0.00929131,0.00639306,-0.0133453,0.95735,0.0116292,0.0311123,1868,764,30.0456,1.87261
651,260,29.9979,-1.32129,-0.00391398,-0.00030827,0.00633844,0.00447872,-0.00870097,0.923955,0.00773836,0.0151745,1875,764,29.9979,1.3213
658,260,29.9562,-0.787537,-0.00111556,-1.07248e-05,0.00321259,0.00269659,-0.00382288,0.870542,0.00378269,0.0158356,1882,764,29.9562,0.787532
665,260,29.9265,-0.261963,0.000378486,-0.000157439,0.00112351,0.00126554,-0.0010445,0.668332,0.00133574,0.0157226,1889,764,29.9265,0.26198
672,260,29.9182,0.272827,0.000710425,6.51307e-05,0.000177696,0.000756122,1.94342e-05,0.251707,0.00049773,0.0133222,1896,764,29.9182,-0.272809
679,260,29.8933,0.8255,0.000652003,0.000635509,0.000241333,0.00088523,0.000402283,0.768318,0.000511794,0.0126958,1903,764,29.8933,-0.825523
686,260,29.8727,1.36768,0.000918436,0.00143955,0.00054429,0.00178243,0.00057555,1.00863,0.00105038,0.0167124,1910,764,29.8726,-1.36767
693,260,29.8385,1.85864,0.00151744,0.00251448,0.00111025,0.003233,0.000798918,0.996416,0.00194453,0.0167725,1917,764,29.8385,-1.85863
700,260,29.8301,2.40112,0.00234459,0.00372276,0.00183379,0.00499266,0.00107469,0.96512,0.00303433,0.014517,1924,764,29.83,-2.40111
707,260,29.8271,2.94336,0.00348512,0.00509304,0.0028051,0.00720712,0.00137104,0.92496,0.0044192,0.014235,1931,764,29.8272,-2.94339
714,260,29.8167,3.48914,0.00519643,0.00683871,0.00424757,0.0103438,0.00169135,0.88088,0.00640692,0.0255822,1938,764,29.8166,-3.48911
721,260,29.8243,4.04938,0,0,0,0,0,0,0,-1,1945,764,29.8243,-4.04937
728,260,30.104,4.80133,0,0,0,0,0,0,0,-1,1952,764,30.104,-4.80133
735,260,26.9788,4.85681,0,0,0,0,0,0,0,-1,1959,764,26.9787,-4.85678
742,260,32.1443,1.73688,0,0,0,0,0,0,0,-1,1966,764,32.1442,-1.73688
749,260,33.6013,2.94733,0,0,0,0,0,0,0,-1,1973,764,33.6013,-2.9473
756,260,0,0,0,0,0,0,0,0,0,-1,1980,764,0,0
763,260,0,0,0,0,0,0,0,0,0,-1,1987,764,0,0
770,260,0,0,0,0,0,0,0,0,0,-1,1994,764,0,0
777,260,0,0,0,0,0,0,0,0,0,-1,2001,764,0,0
784,260,0,0,0,0,0,0,0,0,0,-1,2008,764,0,0
791,260,0,0,0,0,0,0,0,0,0,-1,2015,764,0,0
798,260,0,0,0,0,0,0,0,0,0,-1,2022,764,0,0
805,260,0,0,0,0,0,0,0,0,0,-1,2029,764,0,0
812,260,0,0,0,0,0,0,0,0,0,-1,2036,764,0,0
-700,253,0,0,0,0,0,0,0,0,0,-1,524,771,0,0
-693,253,0,0,0,0,0,0,0,0,0,-1,531,771,0,0
-686,253,0,0,0,0,0,0,0,0,0,-1,538,771,0,0
-679,253,0,0,0,0,0,0,0,0,0,-1,545,771,0,0
-672,253,0,0,0,0,0,0,0,0,0,-1,552,771,0,0
-665,253,0,0,0,0,0,0,0,0,0,-1,559,771,0,0
-658,253,0,0,0,0,0,0,0,0,0,-1,566,771,0,0
-651,253,0,0,0,0,0,0,0,0,0,-1,573,771,0,0
-644,253,0,0,0,0,0,0,0,0,0,-1,580,771,0,0
-637,253,-24.7979,-0.491394,0,0,0,0,0,0,0,-1,587,771,-24.7978,0.491371
-630,253,-25.156,0.540405,0,0,0,0,0,0,0,-1,594,771,-25.156,-0.540421
-623,253,-20.808,2.84314,0,0,0,0,0,0,0,-1,601,771,-20.8081,-2.84312
-616,253,-25.0877,2.96875,0,0,0,0,0,0,0,-1,608,771,-25.0877,-2.96876
-609,253,-24.28,2.08228,0,0,0,0,0,0,0,-1,615,771,-24.2801,-2.08227
-602,253,-20.4514,2.16998,0,0,0,0,0,0,0,-1,622,771,-20.4514,-2.17001
-595,253,-20.753,1.11877,0,0,0,0,0,0,0,-1,629,771,-20.753,-1.11878
-588,253,-20.5448,1.27307,0.00145532,0.0106143,-0.00623159,0.0137681,-0.00169853,-1.10228,0.00979415,0.0379701,636,771,-20.5448,-1.27305
-581,253,-20.2503,0.861938,0.000843129,0.00713259,-0.00435113,0.00935644,-0.00138072,-1.09831,0.00674514,0.0254237,643,771,-20.2503,-0.861963
-574,253,-20.227,0.413208,0.000353367,0.00463467,-0.00278231,0.00600452,-0.00101649,-1.11329,0.00438133,0.0210665,650,771,-20.227,-0.413191
-567,253,-20.2771,-0.0893555,-0.000100746,0.00268957,-0.00149057,0.00333605,-0.000747221,-1.16157,0.00251045,0.0172733,657,771,-20.2771,0.0893821
-560,253,-20.2374,-0.56543,-0.000510762,0.00111489,-0.000407646,0.00121138,-0.000607256,-1.33837,0.00106913,0.0138424,664,771,-20.2374,0.56545
-553,253,-20.256,-1.06506,-0.000860286,-0.000247714,0.000529676,5.78565e-05,-0.00116586,1.04754,0.000797223,0.0125171,671,771,-20.256,1.06509
-546,253,-20.3144,-1.54108,-0.00110295,-0.0013632,0.0012775,5.10335e-05,-0.00251718,0.734642,0.00169539,0.0108181,678,771,-20.3144,1.54106
-539,253,-20.3399,-2.07666,-0.00114522,-0.00273732,0.0019197,0.000136936,-0.00401948,0.588852,0.00272644,0.0123589,685,771,-20.3399,2.07668
-532,253,-20.3185,-2.61938,-0.000907938,-0.00371433,0.00226509,0.000353374,-0.00497564,0.508086,0.00344094,0.0163642,692,771,-20.3185,2.61936
-525,253,-20.3255,-3.14246,-0.00035039,-0.00352191,0.00119129,4.72344e-05,-0.00391953,0.322149,0.00262891,0.0142424,699,771,-20.3255,3.14245
-518,253,-20.4044,-3.61835,0.000218842,-0.00285064,-0.000676082,0.000361157,-0.00299295,-0.207471,0.00212594,0.0235059,706,771,-20.4044,3.61835
-511,253,-20.4948,-4.07379,0,0,0,0,0,0,0,-1,713,771,-20.4948,4.07382
-504,253,-19.317,-4.1723,0,0,0,0,0,0,0,-1,720,771,-19.317,4.1723
-497,253,-21.7737,-1.76837,0,0,0,0,0,0,0,-1,727,771,-21.7738,1.7684
-490,253,-29.7674,0.438354,0,0,0,0,0,0,0,-1,734,771,-29.7674,-0.438339
-483,253,-33.9467,1.55676,0,0,0,0,0,0,0,-1,741,771,-33.9467,-1.55677
-476,253,-33.8751,1.46118,0.0163513,0.00705367,-0.0171811,0.0295014,-0.00609646,-0.653274,0.0219834,0.0458496,748,771,-33.875,-1.46119
-469,253,-33.8671,1.23505,0.0220997,0.0103459,-0.021283,0.0383023,-0.00585663,-0.650689,0.0276942,0.0447949,755,771,-33.8671,-1.23503
-462,253,-33.762,1.04089,0,0,0,0,0,0,0,-1,762,771,-33.762,-1.04092
-455,253,-32.4379,1.18732,0,0,0,0,0,0,0,-1,769,771,-32.4379,-1.18731
-448,253,0,0,0,0,0,0,0,0,0,-1,776,771,0,0
-441,253,0,0,0,0,0,0,0,0,0,-1,783,771,0,0
-434,253,0,0,0,0,0,0,0,0,0,-1,790,771,0,0
-427,253,0,0,0,0,0,0,0,0,0,-1,797,771,0,0
-420,253,0,0,0,0,0,0,0,0,0,-1,804,771,0,0
-413,253,0,0,0,0,0,0,0,0,0,-1,811,771,0,0
-406,253,0,0,0,0,0,0,0,0,0,-1,818,771,0,0
-399,253,0,0,0,0,0,0,0,0,0,-1,825,771,0,0
-392,253,0,0,0,0,0,0,0,0,0,-1,832,771,0,0
-385,253,0,0,0,0,0,0,0,0,0,-1,839,771,0,0
-378,253,0,0,0,0,0,0,0,0,0,-1,846,771,0,0
-371,253,0,0,0,0,0,0,0,0,0,-1,853,771,0,0
-364,253,0,0,0,0,0,0,0,0,0,-1,860,771,0,0
-357,253,0,0,0,0,0,0,0,0,0,-1,867,771,0,0
-350,253,0,0,0,0,0,0,0,0,0,-1,874,771,0,0
-343,253,0,0,0,0,0,0,0,0,0,-1,881,771,0,0
-336,253,0,0,0,0,0,0,0,0,0,-1,888,771,0,0
-329,253,0,0,0,0,0,0,0,0,0,-1,895,771,0,0
-322,253,0,0,0,0,0,0,0,0,0,-1,902,771,0,0
-315,253,0,0,0,0,0,0,0,0,0,-1,909,771,0,0
-308,253,0,0,0,0,0,0,0,0,0,-1,916,771,0,0
-301,253,0,0,0,0,0,0,0,0,0,-1,923,771,0,0
-294,253,0,0,0,0,0,0,0,0,0,-1,930,771,0,0
-287,253,0,0,0,0,0,0,0,0,0,-1,937,771,0,0
-280,253,0,0,0,0,0,0,0,0,0,-1,944,771,0,0
-273,253,0,0,0,0,0,0,0,0,0,-1,951,771,0,0
-266,253,0,0,0,0,0,0,0,0,0,-1,958,771,0,0
-259,253,0,0,0,0,0,0,0,0,0,-1,965,771,0,0
-252,253,0,0,0,0,0,0,0,0,0,-1,972,771,0,0
-245,253,0,0,0,0,0,0,0,0,0,-1,979,771,0,0
-238,253,0,0,0,0,0,0,0,0,0,-1,986,771,0,0
-231,253,0,0,0,0,0,0,0,0,0,-1,993,771,0,0
-224,253,0,0,0,0,0,0,0,0,0,-1,1000,771,0,0
-217,253,0,0,0,0,0,0,0,0,0,-1,1007,771,0,0
-210,253,0,0,0,0,0,0,0,0,0,-1,1014,771,0,0
-203,253,0,0,0,0,0,0,0,0,0,-1,1021,771,0,0
-196,253,0,0,0,0,0,0,0,0,0,-1,1028,771,0,0
-189,253,0,0,0,0,0,0,0,0,0,-1,1035,771,0,0
-182,253,0,0,0,0,0,0,0,0,0,-1,1042,771,0,0
-175,253,0,0,0,0,0,0,0,0,0,-1,1049,771,0,0
-168,253,0,0,0,0,0,0,0,0,0,-1,1056,771,0,0
-161,253,0,0,0,0,0,0,0,0,0,-1,1063,771,0,0
-154,253,0,0,0,0,0,0,0,0,0,-1,1070,771,0,0
-147,253,0,0,0,0,0,0,0,0,0,-1,1077,771,0,0
-140,253,0,0,0,0,0,0,0,0,0,-1,1084,771,0,0
-133,253,0,0,0,0,0,0,0,0,0,-1,1091,771,0,0
-126,253,0,0,0,0,0,0,0,0,0,-1,1098,771,0,0
-119,253,0,0,0,0,0,0,0,0,0,-1,1105,771,0,0
-112,253,0,0,0,0,0,0,0,0,0,-1,1112,771,0,0
-105,253,0,0,0,0,0,0,0,0,0,-1,1119,771,0,0
-98,253,0,0,0,0,0,0,0,0,0,-1,1126,771,0,0
-91,253,0,0,0,0,0,0,0,0,0,-1,1133,771,0,0
-84,253,0,0,0,0,0,0,0,0,0,-1,1140,771,0,0
-77,253,0,0,0,0,0,0,0,0,0,-1,1147,771,0,0
-70,253,0,0,0,0,0,0,0,0,0,-1,1154,771,0,0
-63,253,0,0,0,0,0,0,0,0,0,-1,1161,771,0,0
-56,253,0,0,0,0,0,0,0,0,0,-1,1168,771,0,0
-49,253,0,0,0,0,0,0,0,0,0,-1,1175,771,0,0
-42,253,0,0,0,0,0,0,0,0,0,-1,1182,771,0,0
-35,253,0,0,0,0,0,0,0,0,0,-1,1189,771,0,0
-28,253,0,0,0,0,0,0,0,0,0,-1,1196,771,0,0
-21,253,0,0,0,0,0,0,0,0,0,-1,1203,771,0,0
-14,253,0,0,0,0,0,0,0,0,0,-1,1210,771,0,0
-7,253,0,0,0,0,0,0,0,0,0,-1,1217,771,0,0
0,253,0,0,0,0,0,0,0,0,0,-1,1224,771,0,0
7,253,0,0,0,0,0,0,0,0,0,-1,1231,771,0,0
14,253,0,0,0,0,0,0,0,0,0,-1,1238,771,0,0
21,253,0,0,0,0,0,0,0,0,0,-1,1245,771,0,0
28,253,0,0,0,0,0,0,0,0,0,-1,1252,771,0,0
35,253,0,0,0,0,0,0,0,0,0,-1,1259,771,0,0
42,253,0,0,0,0,0,0,0,0,0,-1,1266,771,0,0
49,253,0,0,0,0,0,0,0,0,0,-1,1273,771,0,0
56,253,0,0,0,0,0,0,0,0,0,-1,1280,771,0,0
63,253,0,0,0,0,0,0,0,0,0,-1,1287,771,0,0
70,253,0,0,0,0,0,0,0,0,0,-1,1294,771,0,0
77,253,0,0,0,0,0,0,0,0,0,-1,1301,771,0,0
84,253,0,0,0,0,0,0,0,0,0,-1,1308,771,0,0
91,253,0,0,0,0,0,0,0,0,0,-1,1315,771,0,0
98,253,0,0,0,0,0,0,0,0,0,-1,1322,771,0,0
105,253,0,0,0,0,0,0,0,0,0,-1,1329,771,0,0
112,253,0,0,0,0,0,0,0,0,0,-1,1336,771,0,0
119,253,0,0,0,0,0,0,0,0,0,-1,1343,771,0,0
126,253,0,0,0,0,0,0,0,0,0,-1,1350,771,0,0
133,253,0,0,0,0,0,0,0,0,0,-1,1357,771,0,0
140,253,0,0,0,0,0,0,0,0,0,-1,1364,771,0,0
147,253,0,0,0,0,0,0,0,0,0,-1,1371,771,0,0
154,253,0,0,0,0,0,0,0,0,0,-1,1378,771,0,0
161,253,0,0,0,0,0,0,0,0,0,-1,1385,771,0,0
168,253,0,0,0,0,0,0,0,0,0,-1,1392,771,0,0
175,253,0,0,0,0,0,0,0,0,0,-1,1399,771,0,0
182,253,0,0,0,0,0,0,0,0,0,-1,1406,771,0,0
189,253,0,0,0,0,0,0,0,0,0,-1,1413,771,0,0
196,253,0,0,0,0,0,0,0,0,0,-1,1420,771,0,0
203,253,0,0,0,0,0,0,0,0,0,-1,1427,771,0,0
210,253,0,0,0,0,0,0,0,0,0,-1,1434,771,0,0
217,253,0,0,0,0,0,0,0,0,0,-1,1441,771,0,0
224,253,0,0,0,0,0,0,0,0,0,-1,1448,771,0,0
231,253,0,0,0,0,0,0,0,0,0,-1,1455,771,0,0
238,253,0,0,0,0,0,0,0,0,0,-1,1462,771,0,0
245,253,0,0,0,0,0,0,0,0,0,-1,1469,771,0,0
252,253,0,0,0,0,0,0,0,0,0,-1,1476,771,0,0
259,253,0,0,0,0,0,0,0,0,0,-1,1483,771,0,0
266,253,0,0,0,0,0,0,0,0,0,-1,1490,771,0,0
273,253,0,0,0,0,0,0,0,0,0,-1,1497,771,0,0
280,253,0,0,0,0,0,0,0,0,0,-1,1504,771,0,0
287,253,0,0,0,0,0,0,0,0,0,-1,1511,771,0,0
294,253,0,0,0,0,0,0,0,0,0,-1,1518,771,0,0
301,253,0,0,0,0,0,0,0,0,0,-1,1525,771,0,0
308,253,0,0,0,0,0,0,0,0,0,-1,1532,771,0,0
315,253,0,0,0,0,0,0,0,0,0,-1,1539,771,0,0
322,253,0,0,0,0,0,0,0,0,0,-1,1546,771,0,0
329,253,0,0,0,0,0,0,0,0,0,-1,1553,771,0,0
336,253,0,0,0,0,0,0,0,0,0,-1,1560,771,0,0
343,253,0,0,0,0,0,0,0,0,0,-1,1567,771,0,0
350,253,0,0,0,0,0,0,0,0,0,-1,1574,771,0,0
357,253,0,0,0,0,0,0,0,0,0,-1,1581,771,0,0
364,253,0,0,0,0,0,0,0,0,0,-1,1588,771,0,0
371,253,0,0,0,0,0,0,0,0,0,-1,1595,771,0,0
378,253,0,0,0,0,0,0,0,0,0,-1,1602,771,0,0
385,253,0,0,0,0,0,0,0,0,0,-1,1609,771,0,0
392,253,0,0,0,0,0,0,0,0,0,-1,1616,771,0,0
399,253,0,0,0,0,0,0,0,0,0,-1,1623,771,0,0
406,253,0,0,0,0,0,0,0,0,0,-1,1630,771,0,0
413,253,0,0,0,0,0,0,0,0,0,-1,1637,771,0,0
420,253,0,0,0,0,0,0,0,0,0,-1,1644,771,0,0
427,253,0,0,0,0,0,0,0,0,0,-1,1651,771,0,0
434,253,0,0,0,0,0,0,0,0,0,-1,1658,771,0,0
441,253,0,0,0,0,0,0,0,0,0,-1,1665,771,0,0
448,253,0,0,0,0,0,0,0,0,0,-1,1672,771,0,0
455,253,0,0,0,0,0,0,0,0,0,-1,1679,771,0,0
462,253,0,0,0,0,0,0,0,0,0,-1,1686,771,0,0
469,253,0,0,0,0,0,0,0,0,0,-1,1693,771,0,0
476,253,0,0,0,0,0,0,0,0,0,-1,1700,771,0,0
483,253,0,0,0,0,0,0,0,0,0,-1,1707,771,0,0
490,253,0,0,0,0,0,0,0,0,0,-1,1714,771,0,0
497,253,0,0,0,0,0,0,0,0,0,-1,1721,771,0,0
504,253,0,0,0,0,0,0,0,0,0,-1,1728,771,0,0
511,253,0,0,0,0,0,0,0,0,0,-1,1735,771,0,0
518,253,0,0,0,0,0,0,0,0,0,-1,1742,771,0,0
525,253,0,0,0,0,0,0,0,0,0,-1,1749,771,0,0
532,253,0,0,0,0,0,0,0,0,0,-1,1756,771,0,0
539,253,0,0,0,0,0,0,0,0,0,-1,1763,771,0,0
546,253,0,0,0,0,0,0,0,0,0,-1,1770,771,0,0
553,253,0,0,0,0,0,0,0,0,0,-1,1777,771,0,0
560,253,0,0,0,0,0,0,0,0,0,-1,1784,771,0,0
567,253,0,0,0,0,0,0,0,0,0,-1,1791,771,0,0
574,253,44.6578,2.74634,0.0197302,0.0144301,-0.00398684,0.0218674,0.0122929,-0.492079,0.0126576,0.0374897,1798,771,44.6579,-2.74632
581,253,44.6326,2.8894,0.000547923,0.0103597,0.0108652,0.0173753,-0.00646764,0.997458,0.0142378,0.0399242,1805,771,44.6326,-2.88938
588,253,44.7986,3.04053,-0.0106394,0.00750347,0.0190857,0.0195638,-0.0226998,1.00725,0.0244233,0.0445304,1812,771,44.7985,-3.04055
595,253,45.9149,2.16223,0,0,0,0,0,0,0,-1,1819,771,45.915,-2.16223
602,253,45.3435,2.46643,-0.0173839,0.00373876,0.0223667,0.0179122,-0.0315574,1.00598,0.0289212,0.0463096,1826,771,45.3435,-2.46641
609,253,44.8224,3.02893,-0.0165321,0.00268087,0.0208879,0.0160655,-0.0299167,1.00093,0.0269463,0.0426575,1833,771,44.8224,-3.02894
616,253,44.324,3.8783,-0.0150544,0.00186,0.018705,0.0139309,-0.0271253,0.997712,0.0241084,0.0434733,1840,771,44.324,-3.87829
623,253,43.9686,4.74738,0,0,0,0,0,0,0,-1,1847,771,43.9687,-4.74736
630,253,33.561,2.96838,0,0,0,0,0,0,0,-1,1854,771,33.561,-2.96836
637,253,22.3192,-0.604004,0,0,0,0,0,0,0,-1,1861,771,22.3192,0.603986
644,253,30.5272,-1.75891,0,0,0,0,0,0,0,-1,1868,771,30.5272,1.75893
651,253,30.4823,-1.24561,-0.00345838,2.49654e-05,0.006467,0.00498072,-0.00841413,0.916936,0.00781774,0.0278989,1875,771,30.4823,1.24562
658,253,30.4861,-0.74054,-0.000911551,0.000283031,0.00351181,0.00324798,-0.0038765,0.869632,0.00411865,0.0195845,1882,771,30.4861,0.740545
665,253,30.3977,-0.238403,0.000525625,-1.80137e-05,0.00136003,0.00164073,-0.00113312,0.686767,0.0016104,0.0209303,1889,771,30.3977,0.238393
672,253,30.3857,0.296387,0.000799751,1.73725e-06,0.000208917,0.000851136,-4.96478e-05,0.241172,0.000584677,0.0158631,1896,771,30.3857,-0.296367
679,253,30.4219,0.864441,0.000599865,0.00033775,0.0001125,0.000641528,0.000296087,0.354675,0.000370751,0.013043,1903,771,30.4219,-0.864411
686,253,30.3937,1.39948,0.000819167,0.000932174,0.000298744,0.00117971,0.000571629,0.878862,0.000681215,0.0195818,1910,771,30.3937,-1.39946
693,253,30.3508,1.91077,0.00145849,0.0019048,0.000808223,0.00252011,0.000843183,0.920096,0.00148129,0.0198147,1917,771,30.3509,-1.91079
700,253,30.3577,2.41223,0.00230938,0.00290285,0.00160902,0.00424227,0.00096996,0.876585,0.0025667,0.017073,1924,771,30.3577,-2.41225
707,253,30.3688,2.93762,0.00337225,0.00413879,0.00273889,0.0065211,0.000989944,0.854915,0.00405787,0.0157102,1931,771,30.3688,-2.93761
714,253,30.3398,3.48431,0.00493849,0.00585957,0.00443675,0.00985962,0.000938438,0.837114,0.00628367,0.0198981,1938,771,30.3398,-3.48431
721,253,30.4207,4.12897,0.00668149,0.00765563,0.00664052,0.0138269,0.000510201,0.822007,0.00905267,0.0378421,1945,771,30.4206,-4.12898
728,253,30.5317,4.75305,0,0,0,0,0,0,0,-1,1952,771,30.5317,-4.75307
735,253,31.1969,5.53528,0,0,0,0,0,0,0,-1,1959,771,31.1969,-5.53525
742,253,31.0571,5.7337,0,0,0,0,0,0,0,-1,1966,771,31.0571,-5.73373
749,253,33.7754,3.21533,0,0,0,0,0,0,0,-1,1973,771,33.7754,-3.21533
756,253,0,0,0,0,0,0,0,0,0,-1,1980,771,0,0
763,253,0,0,0,0,0,0,0,0,0,-1,1987,771,0,0
770,253,0,0,0,0,0,0,0,0,0,-1,1994,771,0,0
777,253,0,0,0,0,0,0,0,0,0,-1,2001,771,0,0
784,253,0,0,0,0,0,0,0,0,0,-1,2008,771,0,0
791,253,0,0,0,0,0,0,0,0,0,-1,2015,771,0,0
798,253,0,0,0,0,0,0,0,0,0,-1,2022,771,0,0
805,253,0,0,0,0,0,0,0,0,0,-1,2029,771,0,0
812,253,0,0,0,0,0,0,0,0,0,-1,2036,771,0,0
-700,246,0,0,0,0,0,0,0,0,0,-1,524,778,0,0
-693,246,0,0,0,0,0,0,0,0,0,-1,531,778,0,0
-686,246,0,0,0,0,0,0,0,0,0,-1,538,778,0,0
-679,246,0,0,0,0,0,0,0,0,0,-1,545,778,0,0
-672,246,0,0,0,0,0,0,0,0,0,-1,552,778,0,0
-665,246,0,0,0,0,0,0,0,0,0,-1,559,778,0,0
-658,246,0,0,0,0,0,0,0,0,0,-1,566,778,0,0
-651,246,0,0,0,0,0,0,0,0,0,-1,573,778,0,0
-644,246,0,0,0,0,0,0,0,0,0,-1,580,778,0,0
-637,246,-24.1234,0.130432,0,0,0,0,0,0,0,-1,587,778,-24.1234,-0.130438
-630,246,-24.0781,1.38916,0,0,0,0,0,0,0,-1,594,778,-24.0781,-1.38913
-623,246,-23.9183,2.49573,0,0,0,0,0,0,0,-1,601,778,-23.9183,-2.49575
-616,246,-26.8182,2.0705,0,0,0,0,0,0,0,-1,608,778,-26.8182,-2.07052
-609,246,-26.0615,1.16388,0,0,0,0,0,0,0,-1,615,778,-26.0615,-1.16388
-602,246,-21.0929,2.36456,0,0,0,0,0,0,0,-1,622,778,-21.0929,-2.36455
-595,246,-20.5573,2.30481,0,0,0,0,0,0,0,-1,629,778,-20.5573,-2.30479
-588,246,-20.6435,1.58704,0.00155247,0.0094561,-0.00616564,0.0128277,-0.0018191,-1.07039,0.00921817,0.0318408,636,778,-20.6435,-1.58706
-581,246,-20.7401,0.963257,0.00103296,0.0064389,-0.00432176,0.00883335,-0.00136148,-1.06485,0.00639125,0.0180243,643,778,-20.7401,-0.963228
-574,246,-20.7028,0.418213,0.000507363,0.00413638,-0.00271927,0.00559095,-0.000947203,-1.07961,0.00407985,0.0187858,650,778,-20.7028,-0.418213
-567,246,-20.7538,-0.086731,-3.41599e-05,0.00225062,-0.00134434,0.0028724,-0.000655942,-1.13758,0.00216693,0.0214837,657,778,-20.7538,0.0867423
-560,246,-20.7852,-0.566711,-0.000527859,0.000678914,-0.000165023,0.000701074,-0.000550018,-1.43731,0.000724071,0.0171026,664,778,-20.7852,0.566686
-553,246,-20.7787,-1.02875,-0.000976357,-0.000742929,0.000853207,1.51043e-06,-0.0017208,0.853373,0.0011477,0.0135007,671,778,-20.7787,1.02876
-546,246,-20.8295,-1.50964,-0.0012703,-0.00187797,0.00161259,6.68265e-05,-0.00321509,0.692283,0.00216601,0.0111746,678,778,-20.8295,1.50963
-539,246,-20.8387,-2.05176,-0.00121975,-0.00321575,0.0021837,0.000183198,-0.0046187,0.571059,0.00314198,0.011148,685,778,-20.8387,2.05173
-532,246,-20.8245,-2.59564,-0.00078577,-0.00422511,0.00239223,0.000440746,-0.00545163,0.473763,0.00378989,0.0129038,692,778,-20.8245,2.59567
-525,246,-20.8594,-3.08667,-9.83772e-05,-0.00400682,0.00125832,0.000271695,-0.00437689,0.286036,0.00301258,0.0206195,699,778,-20.8594,3.08668
-518,246,-21.0081,-3.4306,0.000531688,-0.0034453,-0.000475884,0.000587839,-0.00350145,-0.11745,0.00255291,0.0340087,706,778,-21.008,3.43062
-511,246,-21.2501,-3.6712,0,0,0,0,0,0,0,-1,713,778,-21.2501,3.6712
-504,246,-20.0047,-2.88214,0,0,0,0,0,0,0,-1,720,778,-20.0047,2.88216
-497,246,-29.4669,1.82684,0,0,0,0,0,0,0,-1,727,778,-29.4669,-1.82687
-490,246,-33.4575,0.714417,0,0,0,0,0,0,0,-1,734,778,-33.4575,-0.714418
-483,246,-33.4904,0.842773,0,0,0,0,0,0,0,-1,741,778,-33.4904,-0.842788
-476,246,-33.5361,1.31158,0.0140007,0.00523485,-0.0155061,0.0257314,-0.00649587,-0.647663,0.0196802,0.0468681,748,778,-33.5361,-1.3116
-469,246,-33.3668,1.1701,0.0186794,0.00848044,-0.019367,0.033607,-0.00644721,-0.656667,0.0248343,0.0422283,755,778,-33.3668,-1.17011
-462,246,-33.4255,1.11401,0.0239346,0.0114205,-0.0221849,0.0407279,-0.00537285,-0.647947,0.0291087,0.0446281,762,778,-33.4256,-1.11399
-455,246,0,0,0,0,0,0,0,0,0,-1,769,778,0,0
-448,246,0,0,0,0,0,0,0,0,0,-1,776,778,0,0
-441,246,0,0,0,0,0,0,0,0,0,-1,783,778,0,0
-434,246,0,0,0,0,0,0,0,0,0,-1,790,778,0,0
-427,246,0,0,0,0,0,0,0,0,0,-1,797,778,0,0
-420,246,0,0,0,0,0,0,0,0,0,-1,804,778,0,0
-413,246,0,0,0,0,0,0,0,0,0,-1,811,778,0,0
-406,246,0,0,0,0,0,0,0,0,0,-1,818,778,0,0
-399,246,0,0,0,0,0,0,0,0,0,-1,825,778,0,0
-392,246,0,0,0,0,0,0,0,0,0,-1,832,778,0,0
-385,246,0,0,0,0,0,0,0,0,0,-1,839,778,0,0
-378,246,0,0,0,0,0,0,0,0,0,-1,846,778,0,0
-371,246,0,0,0,0,0,0,0,0,0,-1,853,778,0,0
-364,246,0,0,0,0,0,0,0,0,0,-1,860,778,0,0
-357,246,0,0,0,0,0,0,0,0,0,-1,867,778,0,0
-350,246,0,0,0,0,0,0,0,0,0,-1,874,778,0,0
-343,246,0,0,0,0,0,0,0,0,0,-1,881,778,0,0
-336,246,0,0,0,0,0,0,0,0,0,-1,888,778,0,0
-329,246,0,0,0,0,0,0,0,0,0,-1,895,778,0,0
-322,246,0,0,0,0,0,0,0,0,0,-1,902,778,0,0
-315,246,0,0,0,0,0,0,0,0,0,-1,909,778,0,0
-308,246,0,0,0,0,0,0,0,0,0,-1,916,778,0,0
-301,246,0,0,0,0,0,0,0,0,0,-1,923,778,0,0
-294,246,0,0,0,0,0,0,0,0,0,-1,930,778,0,0
-287,246,0,0,0,0,0,0,0,0,0,-1,937,778,0,0
-280,246,0,0,0,0,0,0,0,0,0,-1,944,778,0,0
-273,246,0,0,0,0,0,0,0,0,0,-1,951,778,0,0
-266,246,0,0,0,0,0,0,0,0,0,-1,958,778,0,0
-259,246,0,0,0,0,0,0,0,0,0,-1,965,778,0,0
-252,246,0,0,0,0,0,0,0,0,0,-1,972,778,0,0
-245,246,0,0,0,0,0,0,0,0,0,-1,979,778,0,0
-238,246,0,0,0,0,0,0,0,0,0,-1,986,778,0,0
-231,246,0,0,0,0,0,0,0,0,0,-1,993,778,0,0
-224,246,0,0,0,0,0,0,0,0,0,-1,1000,778,0,0
-217,246,0,0,0,0,0,0,0,0,0,-1,1007,778,0,0
-210,246,0,0,0,0,0,0,0,0,0,-1,1014,778,0,0
-203,246,0,0,0,0,0,0,0,0,0,-1,1021,778,0,0
-196,246,0,0,0,0,0,0,0,0,0,-1,1028,778,0,0
-189,246,0,0,0,0,0,0,0,0,0,-1,1035,778,0,0
-182,246,0,0,0,0,0,0,0,0,0,-1,1042,778,0,0
-175,246,0,0,0,0,0,0,0,0,0,-1,1049,778,0,0
-168,246,0,0,0,0,0,0,0,0,0,-1,1056,778,0,0
-161,246,0,0,0,0,0,0,0,0,0,-1,1063,778,0,0
-154,246,0,0,0,0,0,0,0,0,0,-1,1070,778,0,0
-147,246,0,0,0,0,0,0,0,0,0,-1,1077,778,0,0
-140,246,0,0,0,0,0,0,0,0,0,-1,1084,778,0,0
-133,246,0,0,0,0,0,0,0,0,0,-1,1091,778,0,0
-126,246,0,0,0,0,0,0,0,0,0,-1,1098,778,0,0
-119,246,0,0,0,0,0,0,0,0,0,-1,1105,778,0,0
-112,246,0,0,0,0,0,0,0,0,0,-1,1112,778,0,0
-105,246,0,0,0,0,0,0,0,0,0,-1,1119,778,0,0
-98,246,0,0,0,0,0,0,0,0,0,-1,1126,778,0,0
-91,246,0,0,0,0,0,0,0,0,0,-1,1133,778,0,0
-84,246,0,0,0,0,0,0,0,0,0,-1,1140,778,0,0
-77,246,0,0,0,0,0,0,0,0,0,-1,1147,778,0,0
-70,246,0,0,0,0,0,0,0,0,0,-1,1154,778,0,0
-63,246,0,0,0,0,0,0,0,0,0,-1,1161,778,0,0
-56,246,0,0,0,0,0,0,0,0,0,-1,1168,778,0,0
-49,246,0,0,0,0,0,0,0,0,0,-1,1175,778,0,0
-42,246,0,0,0,0,0,0,0,0,0,-1,1182,778,0,0
-35,246,0,0,0,0,0,0,0,0,0,-1,1189,778,0,0
-28,246,0,0,0,0,0,0,0,0,0,-1,1196,778,0,0
-21,246,0,0,0,0,0,0,0,0,0,-1,1203,778,0,0
-14,246,0,0,0,0,0,0,0,0,0,-1,1210,778,0,0
-7,246,0,0,0,0,0,0,0,0,0,-1,1217,778,0,0
0,246,0,0,0,0,0,0,0,0,0,-1,1224,778,0,0
7,246,0,0,0,0,0,0,0,0,0,-1,1231,778,0,0
14,246,0,0,0,0,0,0,0,0,0,-1,1238,778,0,0
21,246,0,0,0,0,0,0,0,0,0,-1,1245,778,0,0
28,246,0,0,0,0,0,0,0,0,0,-1,1252,778,0,0
35,246,0,0,0,0,0,0,0,0,0,-1,1259,778,0,0
42,246,0,0,0,0,0,0,0,0,0,-1,1266,778,0,0
49,246,0,0,0,0,0,0,0,0,0,-1,1273,778,0,0
56,246,0,0,0,0,0,0,0,0,0,-1,1280,778,0,0
63,246,0,0,0,0,0,0,0,0,0,-1,1287,778,0,0
70,246,0,0,0,0,0,0,0,0,0,-1,1294,778,0,0
77,246,0,0,0,0,0,0,0,0,0,-1,1301,778,0,0
84,246,0,0,0,0,0,0,0,0,0,-1,1308,778,0,0
91,246,0,0,0,0,0,0,0,0,0,-1,1315,778,0,0
98,246,0,0,0,0,0,0,0,0,0,-1,1322,778,0,0
105,246,0,0,0,0,0,0,0,0,0,-1,1329,778,0,0
112,246,0,0,0,0,0,0,0,0,0,-1,1336,778,0,0
119,246,0,0,0,0,0,0,0,0,0,-1,1343,778,0,0
126,246,0,0,0,0,0,0,0,0,0,-1,1350,778,0,0
133,246,0,0,0,0,0,0,0,0,0,-1,1357,778,0,0
140,246,0,0,0,0,0,0,0,0,0,-1,1364,778,0,0
147,246,0,0,0,0,0,0,0,0,0,-1,1371,778,0,0
154,246,0,0,0,0,0,0,0,0,0,-1,1378,778,0,0
161,246,0,0,0,0,0,0,0,0,0,-1,1385,778,0,0
168,246,0,0,0,0,0,0,0,0,0,-1,1392,778,0,0
175,246,0,0,0,0,0,0,0,0,0,-1,1399,778,0,0
182,246,0,0,0,0,0,0,0,0,0,-1,1406,778,0,0
189,246,0,0,0,0,0,0,0,0,0,-1,1413,778,0,0
196,246,0,0,0,0,0,0,0,0,0,-1,1420,778,0,0
203,246,0,0,0,0,0,0,0,0,0,-1,1427,778,0,0
210,246,0,0,0,0,0,0,0,0,0,-1,1434,778,0,0
217,246,0,0,0,0,0,0,0,0,0,-1,1441,778,0,0
224,246,0,0,0,0,0,0,0,0,0,-1,1448,778,0,0
231,246,0,0,0,0,0,0,0,0,0,-1,1455,778,0,0
238,246,0,0,0,0,0,0,0,0,0,-1,1462,778,0,0
245,246,0,0,0,0,0,0,0,0,0,-1,1469,778,0,0
252,246,0,0,0,0,0,0,0,0,0,-1,1476,778,0,0
259,246,0,0,0,0,0,0,0,0,0,-1,1483,778,0,0
266,246,0,0,0,0,0,0,0,0,0,-1,1490,778,0,0
273,246,0,0,0,0,0,0,0,0,0,-1,1497,778,0,0
280,246,0,0,0,0,0,0,0,0,0,-1,1504,778,0,0
287,246,0,0,0,0,0,0,0,0,0,-1,1511,778,0,0
294,246,0,0,0,0,0,0,0,0,0,-1,1518,778,0,0
301,246,0,0,0,0,0,0,0,0,0,-1,1525,778,0,0
308,246,0,0,0,0,0,0,0,0,0,-1,1532,778,0,0
315,246,0,0,0,0,0,0,0,0,0,-1,1539,778,0,0
322,246,0,0,0,0,0,0,0,0,0,-1,1546,778,0,0
329,246,0,0,0,0,0,0,0,0,0,-1,1553,778,0,0
336,246,0,0,0,0,0,0,0,0,0,-1,1560,778,0,0
343,246,0,0,0,0,0,0,0,0,0,-1,1567,778,0,0
350,246,0,0,0,0,0,0,0,0,0,-1,1574,778,0,0
357,246,0,0,0,0,0,0,0,0,0,-1,1581,778,0,0
364,246,0,0,0,0,0,0,0,0,0,-1,1588,778,0,0
371,246,0,0,0,0,0,0,0,0,0,-1,1595,778,0,0
378,246,0,0,0,0,0,0,0,0,0,-1,1602,778,0,0
385,246,0,0,0,0,0,0,0,0,0,-1,1609,778,0,0
392,246,0,0,0,0,0,0,0,0,0,-1,1616,778,0,0
399,246,0,0,0,0,0,0,0,0,0,-1,1623,778,0,0
406,246,0,0,0,0,0,0,0,0,0,-1,1630,778,0,0
413,246,0,0,0,0,0,0,0,0,0,-1,1637,778,0,0
420,246,0,0,0,0,0,0,0,0,0,-1,1644,778,0,0
427,246,0,0,0,0,0,0,0,0,0,-1,1651,778,0,0
434,246,0,0,0,0,0,0,0,0,0,-1,1658,778,0,0
441,246,0,0,0,0,0,0,0,0,0,-1,1665,778,0,0
448,246,0,0,0,0,0,0,0,0,0,-1,1672,778,0,0
455,246,0,0,0,0,0,0,0,0,0,-1,1679,778,0,0
462,246,0,0,0,0,0,0,0,0,0,-1,1686,778,0,0
469,246,0,0,0,0,0,0,0,0,0,-1,1693,778,0,0
476,246,0,0,0,0,0,0,0,0,0,-1,1700,778,0,0
483,246,0,0,0,0,0,0,0,0,0,-1,1707,778,0,0
490,246,0,0,0,0,0,0,0,0,0,-1,1714,778,0,0
497,246,0,0,0,0,0,0,0,0,0,-1,1721,778,0,0
504,246,0,0,0,0,0,0,0,0,0,-1,1728,778,0,0
511,246,0,0,0,0,0,0,0,0,0,-1,1735,778,0,0
518,246,0,0,0,0,0,0,0,0,0,-1,1742,778,0,0
525,246,0,0,0,0,0,0,0,0,0,-1,1749,778,0,0
532,246,0,0,0,0,0,0,0,0,0,-1,1756,778,0,0
539,246,0,0,0,0,0,0,0,0,0,-1,1763,778,0,0
546,246,0,0,0,0,0,0,0,0,0,-1,1770,778,0,0
553,246,0,0,0,0,0,0,0,0,0,-1,1777,778,0,0
560,246,0,0,0,0,0,0,0,0,0,-1,1784,778,0,0
567,246,0,0,0,0,0,0,0,0,0,-1,1791,778,0,0
574,246,0,0,0,0,0,0,0,0,0,-1,1798,778,0,0
581,246,44.7524,2.85779,0.00424745,0.00993761,0.00340487,0.0115296,0.00265546,1.13343,0.00697191,0.0375164,1805,778,44.7524,-2.85779
588,246,44.7518,2.89417,-0.00815173,0.00724031,0.0142201,0.0157134,-0.0166248,1.03343,0.018673,0.0404871,1812,778,44.7518,-2.89419
595,246,45.3088,2.61426,0,0,0,0,0,0,0,-1,1819,778,45.3089,-2.61428
602,246,45.0061,2.88373,-0.0158077,0.00375287,0.0205627,0.0167427,-0.0287975,1.00738,0.026598,0.0454593,1826,778,45.0061,-2.88371
609,246,44.5494,3.26617,-0.0148154,0.00284883,0.0195739,0.0154909,-0.0274575,0.997332,0.0251151,0.0463608,1833,778,44.5495,-3.2662
616,246,44.1224,3.91187,-0.0130071,0.0021289,0.0174896,0.0136176,-0.0244959,0.989592,0.0223016,0.0470848,1840,778,44.1225,-3.91185
623,246,43.7205,4.59576,0,0,0,0,0,0,0,-1,1847,778,43.7205,-4.59576
630,246,42.2563,4.94934,0,0,0,0,0,0,0,-1,1854,778,42.2564,-4.94931
637,246,29.5785,0.837585,0,0,0,0,0,0,0,-1,1861,778,29.5785,-0.837606
644,246,28.1232,-1.43188,0,0,0,0,0,0,0,-1,1868,778,28.1232,1.43188
651,246,30.9413,-1.22321,0,0,0,0,0,0,0,-1,1875,778,30.9412,1.22318
658,246,30.9126,-0.771729,-0.000531858,0.00050748,0.00354801,0.00357367,-0.00359805,0.858115,0.00414061,0.030758,1882,778,30.9127,0.77172
665,246,30.9387,-0.205261,0.000720921,9.4302e-05,0.0014889,0.00192912,-0.00111389,0.681696,0.00177778,0.0225072,1889,778,30.9388,0.20524
672,246,30.9343,0.338135,0.000858735,-5.21321e-05,0.000232701,0.00091474,-0.000108137,0.236182,0.000648883,0.0205221,1896,778,30.9343,-0.33813
679,246,30.9363,0.855591,0.000452978,6.56536e-05,-2.11665e-05,0.000454131,6.45004e-05,-0.054432,0.000283709,0.0210381,1903,778,30.9362,-0.855605
686,246,30.9475,1.41785,0.000524002,0.000479487,3.71066e-05,0.000545015,0.000458475,0.515253,0.000338207,0.0217861,1910,778,30.9476,-1.41785
693,246,30.9351,1.94073,0.00108192,0.00135787,0.000485178,0.00172431,0.000715478,0.923932,0.00100032,0.0182089,1917,778,30.935,-1.94073
700,246,30.9277,2.42621,0.00188948,0.0022006,0.00134233,0.00339636,0.000693725,0.843084,0.00207208,0.0165193,1924,778,30.9277,-2.42618
707,246,30.9078,2.95703,0.00286918,0.00335795,0.00255176,0.005677,0.000550136,0.833139,0.00361527,0.0152533,1931,778,30.9078,-2.95704
714,246,30.8783,3.51489,0.00425358,0.00514018,0.00431461,0.0090342,0.000359559,0.836591,0.0059066,0.0130414,1938,778,30.8783,-3.51487
721,246,30.8497,4.01947,0.0056754,0.0069383,0.0066009,0.0129379,-0.000324184,0.833084,0.00873532,0.0190394,1945,778,30.8497,-4.01945
728,246,31.0659,4.73077,0.00717572,0.00933993,0.0097723,0.0180899,-0.00157421,0.840539,0.0126174,0.0429111,1952,778,31.0659,-4.73077
735,246,31.533,5.54425,0,0,0,0,0,0,0,-1,1959,778,31.5329,-5.54425
742,246,31.7356,6.70013,0,0,0,0,0,0,0,-1,1966,778,31.7356,-6.70011
749,246,32.3883,7.69324,0,0,0,0,0,0,0,-1,1973,778,32.3883,-7.69322
756,246,33.6919,3.45264,0,0,0,0,0,0,0,-1,1980,778,33.6919,-3.45262
763,246,0,0,0,0,0,0,0,0,0,-1,1987,778,0,0
770,246,0,0,0,0,0,0,0,0,0,-1,1994,778,0,0
777,246,0,0,0,0,0,0,0,0,0,-1,2001,778,0,0
784,246,0,0,0,0,0,0,0,0,0,-1,2008,778,0,0
791,246,0,0,0,0,0,0,0,0,0,-1,2015,778,0,0
798,246,0,0,0,0,0,0,0,0,0,-1,2022,778,0,0
805,246,0,0,0,0,0,0,0,0,0,-1,2029,778,0,0
812,246,0,0,0,0,0,0,0,0,0,-1,2036,778,0,0
-700,239,0,0,0,0,0,0,0,0,0,-1,524,785,0,0
-693,239,0,0,0,0,0,0,0,0,0,-1,531,785,0,0
-686,239,0,0,0,0,0,0,0,0,0,-1,538,785,0,0
-679,239,0,0,0,0,0,0,0,0,0,-1,545,785,0,0
-672,239,0,0,0,0,0,0,0,0,0,-1,552,785,0,0
-665,239,0,0,0,0,0,0,0,0,0,-1,559,785,0,0
-658,239,0,0,0,0,0,0,0,0,0,-1,566,785,0,0
-651,239,0,0,0,0,0,0,0,0,0,-1,573,785,0,0
-644,239,0,0,0,0,0,0,0,0,0,-1,580,785,0,0
-637,239,-23.2709,0.465088,0,0,0,0,0,0,0,-1,587,785,-23.271,-0.465116
-630,239,-23.4006,0.956299,0,0,0,0,0,0,0,-1,594,785,-23.4005,-0.956285
-623,239,-30.6328,2.52185,0,0,0,0,0,0,0,-1,601,785,-30.6328,-2.52183
-616,239,-29.1425,1.42139,0,0,0,0,0,0,0,-1,608,785,-29.1425,-1.42139
-609,239,-27.8569,0.322937,0,0,0,0,0,0,0,-1,615,785,-27.857,-0.322963
-602,239,-21.1328,4.07538,0,0,0,0,0,0,0,-1,622,785,-21.1328,-4.07536
-595,239,-21.1432,2.8562,0.00058991,0.0130599,-0.0076156,0.0166673,-0.00301747,-1.12842,0.012242,0.0428926,629,785,-21.1432,-2.85617
-588,239,-21.1577,1.60303,0.000678248,0.00904073,-0.0055821,0.0118339,-0.00211493,-1.10684,0.00868056,0.0211242,636,785,-21.1576,-1.60306
-581,239,-21.2583,0.978333,0.0005946,0.00606995,-0.00393391,0.00812503,-0.00146049,-1.08939,0.00596343,0.0115294,643,785,-21.2583,-0.978352
-574,239,-21.2476,0.443359,0.000265097,0.00375621,-0.00241508,0.00499052,-0.00096921,-1.09832,0.00369273,0.0125714,650,785,-21.2476,-0.443329
-567,239,-21.2675,-0.0728149,-0.000149055,0.00173347,-0.00106677,0.00221487,-0.000630459,-1.14689,0.00172556,0.0164455,657,785,-21.2675,0.0728079
-560,239,-21.2931,-0.544312,-0.000590186,0.000197838,0.00016545,0.000231166,-0.000623514,1.37202,0.000510486,0.0166252,664,785,-21.2931,0.54431
-553,239,-21.3143,-1.02399,-0.000993109,-0.00121657,0.0012124,0.000112694,-0.00232238,0.739449,0.00158715,0.0145882,671,785,-21.3143,1.024
-546,239,-21.3734,-1.51678,-0.00119557,-0.00229179,0.0019541,0.000285835,-0.00377319,0.648665,0.00261595,0.0149736,678,785,-21.3734,1.51679
-539,239,-21.3849,-2.0387,-0.000931864,-0.00352825,0.00243575,0.000530048,-0.00499016,0.540559,0.0035168,0.0158043,685,785,-21.3849,2.03871
-532,239,-21.3556,-2.5434,-0.000263804,-0.00450817,0.00252603,0.000913176,-0.00568515,0.436031,0.0041283,0.01731,692,785,-21.3556,2.5434
-525,239,-21.4212,-2.92255,0.000546471,-0.00429805,0.00140356,0.000923732,-0.00467531,0.262583,0.00346606,0.0275593,699,785,-21.4212,2.92255
-518,239,-21.6642,-3.17188,0,0,0,0,0,0,0,-1,706,785,-21.6643,3.17187
-511,239,-20.9849,-2.09235,0,0,0,0,0,0,0,-1,713,785,-20.9848,2.09234
-504,239,-25.5015,2.00421,0,0,0,0,0,0,0,-1,720,785,-25.5015,-2.00422
-497,239,-33.5215,0.799011,0,0,0,0,0,0,0,-1,727,785,-33.5215,-0.799028
-490,239,-33.4478,0.7771,0.00717346,-0.00113423,-0.00714766,0.0112866,-0.00524739,-0.522177,0.00975587,0.0482315,734,785,-33.4478,-0.777074
-483,239,-33.4429,0.897156,0.00928901,0.000668206,-0.0100429,0.0159074,-0.00595022,-0.582687,0.0130487,0.0479143,741,785,-33.4429,-0.897176
-476,239,-33.4197,1.12714,0.0122141,0.00323507,-0.0135132,0.021964,-0.00651485,-0.625018,0.0172299,0.0416739,748,785,-33.4198,-1.12711
-469,239,-33.4015,1.1106,0.0157329,0.00620727,-0.0168951,0.0285236,-0.00658346,-0.64801,0.0215481,0.0423818,755,785,-33.4015,-1.11057
-462,239,-33.4489,1.11426,0.0194349,0.00874174,-0.018759,0.0335943,-0.00541767,-0.646571,0.0244034,0.0440595,762,785,-33.4489,-1.11425
-455,239,0,0,0,0,0,0,0,0,0,-1,769,785,0,0
-448,239,0,0,0,0,0,0,0,0,0,-1,776,785,0,0
-441,239,0,0,0,0,0,0,0,0,0,-1,783,785,0,0
-434,239,0,0,0,0,0,0,0,0,0,-1,790,785,0,0
-427,239,0,0,0,0,0,0,0,0,0,-1,797,785,0,0
-420,239,0,0,0,0,0,0,0,0,0,-1,804,785,0,0
-413,239,0,0,0,0,0,0,0,0,0,-1,811,785,0,0
-406,239,0,0,0,0,0,0,0,0,0,-1,818,785,0,0
-399,239,0,0,0,0,0,0,0,0,0,-1,825,785,0,0
-392,239,0,0,0,0,0,0,0,0,0,-1,832,785,0,0
-385,239,0,0,0,0,0,0,0,0,0,-1,839,785,0,0
-378,239,0,0,0,0,0,0,0,0,0,-1,846,785,0,0
-371,239,0,0,0,0,0,0,0,0,0,-1,853,785,0,0
-364,239,0,0,0,0,0,0,0,0,0,-1,860,785,0,0
-357,239,0,0,0,0,0,0,0,0,0,-1,867,785,0,0
-350,239,0,0,0,0,0,0,0,0,0,-1,874,785,0,0
-343,239,0,0,0,0,0,0,0,0,0,-1,881,785,0,0
-336,239,0,0,0,0,0,0,0,0,0,-1,888,785,0,0
-329,239,0,0,0,0,0,0,0,0,0,-1,895,785,0,0
-322,239,0,0,0,0,0,0,0,0,0,-1,902,785,0,0
-315,239,0,0,0,0,0,0,0,0,0,-1,909,785,0,0
-308,239,0,0,0,0,0,0,0,0,0,-1,916,785,0,0
-301,239,0,0,0,0,0,0,0,0,0,-1,923,785,0,0
-294,239,0,0,0,0,0,0,0,0,0,-1,930,785,0,0
-287,239,0,0,0,0,0,0,0,0,0,-1,937,785,0,0
-280,239,0,0,0,0,0,0,0,0,0,-1,944,785,0,0
-273,239,0,0,0,0,0,0,0,0,0,-1,951,785,0,0
-266,239,0,0,0,0,0,0,0,0,0,-1,958,785,0,0
-259,239,0,0,0,0,0,0,0,0,0,-1,965,785,0,0
-252,239,0,0,0,0,0,0,0,0,0,-1,972,785,0,0
-245,239,0,0,0,0,0,0,0,0,0,-1,979,785,0,0
-238,239,0,0,0,0,0,0,0,0,0,-1,986,785,0,0
-231,239,0,0,0,0,0,0,0,0,0,-1,993,785,0,0
-224,239,0,0,0,0,0,0,0,0,0,-1,1000,785,0,0
-217,239,0,0,0,0,0,0,0,0,0,-1,1007,785,0,0
-210,239,0,0,0,0,0,0,0,0,0,-1,1014,785,0,0
-203,239,0,0,0,0,0,0,0,0,0,-1,1021,785,0,0
-196,239,0,0,0,0,0,0,0,0,0,-1,1028,785,0,0
-189,239,0,0,0,0,0,0,0,0,0,-1,1035,785,0,0
-182,239,0,0,0,0,0,0,0,0,0,-1,1042,785,0,0
-175,239,0,0,0,0,0,0,0,0,0,-1,1049,785,0,0
-168,239,0,0,0,0,0,0,0,0,0,-1,1056,785,0,0
-161,239,0,0,0,0,0,0,0,0,0,-1,1063,785,0,0
-154,239,0,0,0,0,0,0,0,0,0,-1,1070,785,0,0
-147,239,0,0,0,0,0,0,0,0,0,-1,1077,785,0,0
-140,239,0,0,0,0,0,0,0,0,0,-1,1084,785,0,0
-133,239,0,0,0,0,0,0,0,0,0,-1,1091,785,0,0
-126,239,0,0,0,0,0,0,0,0,0,-1,1098,785,0,0
-119,239,0,0,0,0,0,0,0,0,0,-1,1105,785,0,0
-112,239,0,0,0,0,0,0,0,0,0,-1,1112,785,0,0
-105,239,0,0,0,0,0,0,0,0,0,-1,1119,785,0,0
-98,239,0,0,0,0,0,0,0,0,0,-1,1126,785,0,0
-91,239,0,0,0,0,0,0,0,0,0,-1,1133,785,0,0
-84,239,0,0,0,0,0,0,0,0,0,-1,1140,785,0,0
-77,239,0,0,0,0,0,0,0,0,0,-1,1147,785,0,0
-70,239,0,0,0,0,0,0,0,0,0,-1,1154,785,0,0
-63,239,0,0,0,0,0,0,0,0,0,-1,1161,785,0,0
-56,239,0,0,0,0,0,0,0,0,0,-1,1168,785,0,0
-49,239,0,0,0,0,0,0,0,0,0,-1,1175,785,0,0
-42,239,0,0,0,0,0,0,0,0,0,-1,1182,785,0,0
-35,239,0,0,0,0,0,0,0,0,0,-1,1189,785,0,0
-28,239,0,0,0,0,0,0,0,0,0,-1,1196,785,0,0
-21,239,0,0,0,0,0,0,0,0,0,-1,1203,785,0,0
-14,239,0,0,0,0,0,0,0,0,0,-1,1210,785,0,0
-7,239,0,0,0,0,0,0,0,0,0,-1,1217,785,0,0
0,239,0,0,0,0,0,0,0,0,0,-1,1224,785,0,0
7,239,0,0,0,0,0,0,0,0,0,-1,1231,785,0,0
14,239,0,0,0,0,0,0,0,0,0,-1,1238,785,0,0
21,239,0,0,0,0,0,0,0,0,0,-1,1245,785,0,0
28,239,0,0,0,0,0,0,0,0,0,-1,1252,785,0,0
35,239,0,0,0,0,0,0,0,0,0,-1,1259,785,0,0
42,239,0,0,0,0,0,0,0,0,0,-1,1266,785,0,0
49,239,0,0,0,0,0,0,0,0,0,-1,1273,785,0,0
56,239,0,0,0,0,0,0,0,0,0,-1,1280,785,0,0
63,239,0,0,0,0,0,0,0,0,0,-1,1287,785,0,0
70,239,0,0,0,0,0,0,0,0,0,-1,1294,785,0,0
77,239,0,0,0,0,0,0,0,0,0,-1,1301,785,0,0
84,239,0,0,0,0,0,0,0,0,0,-1,1308,785,0,0
91,239,0,0,0,0,0,0,0,0,0,-1,1315,785,0,0
98,239,0,0,0,0,0,0,0,0,0,-1,1322,785,0,0
105,239,0,0,0,0,0,0,0,0,0,-1,1329,785,0,0
112,239,0,0,0,0,0,0,0,0,0,-1,1336,785,0,0
119,239,0,0,0,0,0,0,0,0,0,-1,1343,785,0,0
126,239,0,0,0,0,0,0,0,0,0,-1,1350,785,0,0
133,239,0,0,0,0,0,0,0,0,0,-1,1357,785,0,0
140,239,0,0,0,0,0,0,0,0,0,-1,1364,785,0,0
147,239,0,0,0,0,0,0,0,0,0,-1,1371,785,0,0
154,239,0,0,0,0,0,0,0,0,0,-1,1378,785,0,0
161,239,0,0,0,0,0,0,0,0,0,-1,1385,785,0,0
168,239,0,0,0,0,0,0,0,0,0,-1,1392,785,0,0
175,239,0,0,0,0,0,0,0,0,0,-1,1399,785,0,0
182,239,0,0,0,0,0,0,0,0,0,-1,1406,785,0,0
189,239,0,0,0,0,0,0,0,0,0,-1,1413,785,0,0
196,239,0,0,0,0,0,0,0,0,0,-1,1420,785,0,0
203,239,0,0,0,0,0,0,0,0,0,-1,1427,785,0,0
210,239,0,0,0,0,0,0,0,0,0,-1,1434,785,0,0
217,239,0,0,0,0,0,0,0,0,0,-1,1441,785,0,0
224,239,0,0,0,0,0,0,0,0,0,-1,1448,785,0,0
231,239,0,0,0,0,0,0,0,0,0,-1,1455,785,0,0
238,239,0,0,0,0,0,0,0,0,0,-1,1462,785,0,0
245,239,0,0,0,0,0,0,0,0,0,-1,1469,785,0,0
252,239,0,0,0,0,0,0,0,0,0,-1,1476,785,0,0
259,239,0,0,0,0,0,0,0,0,0,-1,1483,785,0,0
266,239,0,0,0,0,0,0,0,0,0,-1,1490,785,0,0
273,239,0,0,0,0,0,0,0,0,0,-1,1497,785,0,0
280,239,0,0,0,0,0,0,0,0,0,-1,1504,785,0,0
287,239,0,0,0,0,0,0,0,0,0,-1,1511,785,0,0
294,239,0,0,0,0,0,0,0,0,0,-1,1518,785,0,0
301,239,0,0,0,0,0,0,0,0,0,-1,1525,785,0,0
308,239,0,0,0,0,0,0,0,0,0,-1,1532,785,0,0
315,239,0,0,0,0,0,0,0,0,0,-1,1539,785,0,0
322,239,0,0,0,0,0,0,0,0,0,-1,1546,785,0,0
329,239,0,0,0,0,0,0,0,0,0,-1,1553,785,0,0
336,239,0,0,0,0,0,0,0,0,0,-1,1560,785,0,0
343,239,0,0,0,0,0,0,0,0,0,-1,1567,785,0,0
350,239,0,0,0,0,0,0,0,0,0,-1,1574,785,0,0
357,239,0,0,0,0,0,0,0,0,0,-1,1581,785,0,0
364,239,0,0,0,0,0,0,0,0,0,-1,1588,785,0,0
371,239,0,0,0,0,0,0,0,0,0,-1,1595,785,0,0
378,239,0,0,0,0,0,0,0,0,0,-1,1602,785,0,0
385,239,0,0,0,0,0,0,0,0,0,-1,1609,785,0,0
392,239,0,0,0,0,0,0,0,0,0,-1,1616,785,0,0
399,239,0,0,0,0,0,0,0,0,0,-1,1623,785,0,0
406,239,0,0,0,0,0,0,0,0,0,-1,1630,785,0,0
413,239,0,0,0,0,0,0,0,0,0,-1,1637,785,0,0
420,239,0,0,0,0,0,0,0,0,0,-1,1644,785,0,0
427,239,0,0,0,0,0,0,0,0,0,-1,1651,785,0,0
434,239,0,0,0,0,0,0,0,0,0,-1,1658,785,0,0
441,239,0,0,0,0,0,0,0,0,0,-1,1665,785,0,0
448,239,0,0,0,0,0,0,0,0,0,-1,1672,785,0,0
455,239,0,0,0,0,0,0,0,0,0,-1,1679,785,0,0
462,239,0,0,0,0,0,0,0,0,0,-1,1686,785,0,0
469,239,0,0,0,0,0,0,0,0,0,-1,1693,785,0,0
476,239,0,0,0,0,0,0,0,0,0,-1,1700,785,0,0
483,239,0,0,0,0,0,0,0,0,0,-1,1707,785,0,0
490,239,0,0,0,0,0,0,0,0,0,-1,1714,785,0,0
497,239,0,0,0,0,0,0,0,0,0,-1,1721,785,0,0
504,239,0,0,0,0,0,0,0,0,0,-1,1728,785,0,0
511,239,0,0,0,0,0,0,0,0,0,-1,1735,785,0,0
518,239,0,0,0,0,0,0,0,0,0,-1,1742,785,0,0
525,239,0,0,0,0,0,0,0,0,0,-1,1749,785,0,0
532,239,0,0,0,0,0,0,0,0,0,-1,1756,785,0,0
539,239,0,0,0,0,0,0,0,0,0,-1,1763,785,0,0
546,239,0,0,0,0,0,0,0,0,0,-1,1770,785,0,0
553,239,0,0,0,0,0,0,0,0,0,-1,1777,785,0,0
560,239,0,0,0,0,0,0,0,0,0,-1,1784,785,0,0
567,239,0,0,0,0,0,0,0,0,0,-1,1791,785,0,0
574,239,0,0,0,0,0,0,0,0,0,-1,1798,785,0,0
581,239,44.7327,3.06274,0.00704946,0.00921806,-0.00367719,0.0119675,0.00430004,-0.928771,0.00700001,0.0351222,1805,785,44.7326,-3.06276
588,239,44.7013,3.0224,-0.0052636,0.00685922,0.00836867,0.011131,-0.0095354,1.09882,0.0119436,0.0358085,1812,785,44.7013,-3.02237
595,239,44.7859,2.75867,-0.0115036,0.00504384,0.0151668,0.0140469,-0.0205066,1.03509,0.0200654,0.0338939,1819,785,44.7859,-2.75867
602,239,44.8395,2.86627,-0.013498,0.00379729,0.0178188,0.014956,-0.0246566,1.01131,0.0230978,0.0370222,1826,785,44.8394,-2.86626
609,239,44.6426,3.21838,-0.0125526,0.00302723,0.0176384,0.0145193,-0.0240447,0.99334,0.0224902,0.0479416,1833,785,44.6426,-3.21837
616,239,44.9639,3.06445,0,0,0,0,0,0,0,-1,1840,785,44.9639,-3.06446
623,239,45.1804,3.05084,0,0,0,0,0,0,0,-1,1847,785,45.1804,-3.05083
630,239,45.1868,3.14038,0,0,0,0,0,0,0,-1,1854,785,45.1868,-3.14038
637,239,39.5542,2.54114,0,0,0,0,0,0,0,-1,1861,785,39.5543,-2.54114
644,239,18.3466,0.735413,0,0,0,0,0,0,0,-1,1868,785,18.3465,-0.735414
651,239,31.1324,-1.4812,0,0,0,0,0,0,0,-1,1875,785,31.1325,1.48117
658,239,31.3866,-0.784851,3.12949e-05,0.000688415,0.00335877,0.00373466,-0.00301495,0.834154,0.00390426,0.0418271,1882,785,31.3866,0.784821
665,239,31.4989,-0.158081,0.00103747,0.000247111,0.00149312,0.00218682,-0.000902236,0.65603,0.00183415,0.017804,1889,785,31.499,0.158092
672,239,31.4628,0.346497,0.000998311,1.56156e-05,0.000242536,0.00105491,-4.09842e-05,0.229263,0.000717326,0.0201755,1896,785,31.4627,-0.346511
679,239,31.4502,0.872864,0.000396532,-3.8998e-05,-0.000133719,0.000434311,-7.67764e-05,-0.275344,0.000318235,0.0219958,1903,785,31.4502,-0.872865
686,239,31.4485,1.44513,0.000275746,0.000189563,-0.000184072,0.000421703,4.36059e-05,-0.670418,0.000267786,0.0234901,1910,785,31.4485,-1.44516
693,239,31.4714,1.95856,0.00069805,0.000953184,0.000171242,0.00103915,0.000612082,1.10553,0.000603116,0.0161197,1917,785,31.4714,-1.95856
700,239,31.4603,2.46179,0.0014236,0.00166838,0.00104727,0.00260039,0.000491595,0.843566,0.00159518,0.0132645,1924,785,31.4603,-2.46177
707,239,31.4298,2.98663,0.00228349,0.00278007,0.00234862,0.00489348,0.000170072,0.838061,0.00320713,0.0124265,1931,785,31.4298,-2.98663
714,239,31.4065,3.51208,0.0034697,0.0045286,0.00416852,0.00820116,-0.000202854,0.848566,0.0055363,0.0103758,1938,785,31.4065,-3.51208
721,239,31.3625,4.06897,0.00458717,0.00627601,0.00652156,0.0120076,-0.00114442,0.849781,0.00841252,0.023709,1945,785,31.3625,-4.06895
728,239,31.3696,4.62292,0.00562972,0.00858119,0.009702,0.016919,-0.00270814,0.860873,0.012282,0.0442822,1952,785,31.3696,-4.62294
735,239,31.6715,5.27777,0,0,0,0,0,0,0,-1,1959,785,31.6715,-5.27779
742,239,32.4141,7.6665,0,0,0,0,0,0,0,-1,1966,785,32.4141,-7.6665
749,239,32.1489,3.4411,0,0,0,0,0,0,0,-1,1973,785,32.149,-3.44109
756,239,32.9064,3.6687,0,0,0,0,0,0,0,-1,1980,785,32.9063,-3.66873
763,239,0,0,0,0,0,0,0,0,0,-1,1987,785,0,0
770,239,0,0,0,0,0,0,0,0,0,-1,1994,785,0,0
777,239,0,0,0,0,0,0,0,0,0,-1,2001,785,0,0
784,239,0,0,0,0,0,0,0,0,0,-1,2008,785,0,0
791,239,0,0,0,0,0,0,0,0,0,-1,2015,785,0,0
798,239,0,0,0,0,0,0,0,0,0,-1,2022,785,0,0
805,239,0,0,0,0,0,0,0,0,0,-1,2029,785,0,0
812,239,0,0,0,0,0,0,0,0,0,-1,2036,785,0,0
-700,232,0,0,0,0,0,0,0,0,0,-1,524,792,0,0
-693,232,0,0,0,0,0,0,0,0,0,-1,531,792,0,0
-686,232,0,0,0,0,0,0,0,0,0,-1,538,792,0,0
-679,232,0,0,0,0,0,0,0,0,0,-1,545,792,0,0
-672,232,0,0,0,0,0,0,0,0,0,-1,552,792,0,0
-665,232,0,0,0,0,0,0,0,0,0,-1,559,792,0,0
-658,232,0,0,0,0,0,0,0,0,0,-1,566,792,0,0
-651,232,0,0,0,0,0,0,0,0,0,-1,573,792,0,0
-644,232,-22.5826,0.269348,0,0,0,0,0,0,0,-1,580,792,-22.5826,-0.269357
-637,232,-30.1556,5.06824,0,0,0,0,0,0,0,-1,587,792,-30.1556,-5.06823
-630,232,-32.2345,1.80212,0,0,0,0,0,0,0,-1,594,792,-32.2345,-1.80211
-623,232,-31.5665,1.05115,0,0,0,0,0,0,0,-1,601,792,-31.5664,-1.05112
-616,232,-30.6812,0.432861,0,0,0,0,0,0,0,-1,608,792,-30.6812,-0.432881
-609,232,-29.7142,-0.478943,0,0,0,0,0,0,0,-1,615,792,-29.7142,0.478965
-602,232,-21.7849,3.39722,0,0,0,0,0,0,0,-1,622,792,-21.7848,-3.39722
-595,232,-21.7181,2.47894,0.00102259,0.0118725,-0.00548547,0.0141625,-0.00126742,-1.17532,0.00989123,0.0370912,629,792,-21.7181,-2.47896
-588,232,-21.7136,1.55939,0.000868231,0.00824776,-0.00427266,0.0102033,-0.00108735,-1.14156,0.00719213,0.0144092,636,792,-21.7136,-1.5594
-581,232,-21.7445,0.972168,0.000439003,0.00546638,-0.00316466,0.00699419,-0.00108881,-1.12103,0.00506489,0.00863485,643,792,-21.7445,-0.972192
-574,232,-21.7547,0.474243,0.000140922,0.00321167,-0.00184949,0.00408005,-0.000727451,-1.13183,0.00299214,0.00896247,650,792,-21.7547,-0.474227
-567,232,-21.7764,-0.013916,-0.00024593,0.00115169,-0.000642522,0.00140218,-0.00049642,-1.19907,0.00113697,0.0111528,657,792,-21.7764,0.0138897
-560,232,-21.801,-0.496826,-0.000647156,-0.00034523,0.00056794,9.14682e-05,-0.00108385,0.915298,0.000754908,0.0145956,664,792,-21.801,0.496855
-553,232,-21.8575,-0.999023,-0.00100072,-0.00175068,0.00158577,0.0002538,-0.0030052,0.669297,0.0020932,0.0151043,671,792,-21.8575,0.999004
-546,232,-21.9196,-1.51068,-0.0011012,-0.00278247,0.00222105,0.000432974,-0.00431665,0.604487,0.00303241,0.0227446,678,792,-21.9195,1.51068
-539,232,-21.9489,-1.98407,-0.000605258,-0.00391849,0.00255282,0.000781362,-0.00530511,0.497585,0.0038239,0.0292362,685,792,-21.9489,1.98405
-532,232,-21.9562,-2.45892,0.000234181,-0.00484797,0.00253144,0.00127992,-0.00589371,0.39175,0.00441802,0.0290806,692,792,-21.9562,2.45892
-525,232,-21.9594,-2.69452,0,0,0,0,0,0,0,-1,699,792,-21.9594,2.69454
-518,232,-20.8098,-3.08154,0,0,0,0,0,0,0,-1,706,792,-20.8098,3.08155
-511,232,-21.6708,-0.962708,0,0,0,0,0,0,0,-1,713,792,-21.6708,0.962731
-504,232,-31.5711,1.60474,0,0,0,0,0,0,0,-1,720,792,-31.5711,-1.60476
-497,232,-33.55,1.1048,0,0,0,0,0,0,0,-1,727,792,-33.55,-1.10477
-490,232,-33.5405,1.0318,0.00710232,-0.00249805,-0.00604537,0.0100215,-0.00541721,-0.449854,0.0090447,0.0441773,734,792,-33.5405,-1.03183
-483,232,-33.418,1.13153,0.00881785,-0.000913096,-0.00868297,0.0139056,-0.00600085,-0.530022,0.0117912,0.0425421,741,792,-33.418,-1.13156
-476,232,-33.3779,1.05261,0.0111313,0.00150342,-0.0118489,0.0191068,-0.0064721,-0.592445,0.0153568,0.0357222,748,792,-33.3779,-1.05262
-469,232,-33.3709,1.08765,0.013655,0.00433076,-0.0147168,0.0244305,-0.00644475,-0.632005,0.018807,0.0335798,755,792,-33.3709,-1.08765
-462,232,0,0,0,0,0,0,0,0,0,-1,762,792,0,0
-455,232,0,0,0,0,0,0,0,0,0,-1,769,792,0,0
-448,232,0,0,0,0,0,0,0,0,0,-1,776,792,0,0
-441,232,0,0,0,0,0,0,0,0,0,-1,783,792,0,0
-434,232,0,0,0,0,0,0,0,0,0,-1,790,792,0,0
-427,232,0,0,0,0,0,0,0,0,0,-1,797,792,0,0
-420,232,0,0,0,0,0,0,0,0,0,-1,804,792,0,0
-413,232,0,0,0,0,0,0,0,0,0,-1,811,792,0,0
-406,232,0,0,0,0,0,0,0,0,0,-1,818,792,0,0
-399,232,0,0,0,0,0,0,0,0,0,-1,825,792,0,0
-392,232,0,0,0,0,0,0,0,0,0,-1,832,792,0,0
-385,232,0,0,0,0,0,0,0,0,0,-1,839,792,0,0
-378,232,0,0,0,0,0,0,0,0,0,-1,846,792,0,0
-371,232,0,0,0,0,0,0,0,0,0,-1,853,792,0,0
-364,232,0,0,0,0,0,0,0,0,0,-1,860,792,0,0
-357,232,0,0,0,0,0,0,0,0,0,-1,867,792,0,0
-350,232,0,0,0,0,0,0,0,0,0,-1,874,792,0,0
-343,232,0,0,0,0,0,0,0,0,0,-1,881,792,0,0
-336,232,0,0,0,0,0,0,0,0,0,-1,888,792,0,0
-329,232,0,0,0,0,0,0,0,0,0,-1,895,792,0,0
-322,232,0,0,0,0,0,0,0,0,0,-1,902,792,0,0
-315,232,0,0,0,0,0,0,0,0,0,-1,909,792,0,0
-308,232,0,0,0,0,0,0,0,0,0,-1,916,792,0,0
-301,232,0,0,0,0,0,0,0,0,0,-1,923,792,0,0
-294,232,0,0,0,0,0,0,0,0,0,-1,930,792,0,0
-287,232,0,0,0,0,0,0,0,0,0,-1,937,792,0,0
-280,232,0,0,0,0,0,0,0,0,0,-1,944,792,0,0
-273,232,0,0,0,0,0,0,0,0,0,-1,951,792,0,0
-266,232,0,0,0,0,0,0,0,0,0,-1,958,792,0,0
-259,232,0,0,0,0,0,0,0,0,0,-1,965,792,0,0
-252,232,0,0,0,0,0,0,0,0,0,-1,972,792,0,0
-245,232,0,0,0,0,0,0,0,0,0,-1,979,792,0,0
-238,232,0,0,0,0,0,0,0,0,0,-1,986,792,0,0
-231,232,0,0,0,0,0,0,0,0,0,-1,993,792,0,0
-224,232,0,0,0,0,0,0,0,0,0,-1,1000,792,0,0
-217,232,0,0,0,0,0,0,0,0,0,-1,1007,792,0,0
-210,232,0,0,0,0,0,0,0,0,0,-1,1014,792,0,0
-203,232,0,0,0,0,0,0,0,0,0,-1,1021,792,0,0
-196,232,0,0,0,0,0,0,0,0,0,-1,1028,792,0,0
-189,232,0,0,0,0,0,0,0,0,0,-1,1035,792,0,0
-182,232,0,0,0,0,0,0,0,0,0,-1,1042,792,0,0
-175,232,0,0,0,0,0,0,0,0,0,-1,1049,792,0,0
-168,232,0,0,0,0,0,0,0,0,0,-1,1056,792,0,0
-161,232,0,0,0,0,0,0,0,0,0,-1,1063,792,0,0
-154,232,0,0,0,0,0,0,0,0,0,-1,1070,792,0,0
-147,232,0,0,0,0,0,0,0,0,0,-1,1077,792,0,0
-140,232,0,0,0,0,0,0,0,0,0,-1,1084,792,0,0
-133,232,0,0,0,0,0,0,0,0,0,-1,1091,792,0,0
-126,232,0,0,0,0,0,0,0,0,0,-1,1098,792,0,0
-119,232,0,0,0,0,0,0,0,0,0,-1,1105,792,0,0
-112,232,0,0,0,0,0,0,0,0,0,-1,1112,792,0,0
-105,232,0,0,0,0,0,0,0,0,0,-1,1119,792,0,0
-98,232,0,0,0,0,0,0,0,0,0,-1,1126,792,0,0
-91,232,0,0,0,0,0,0,0,0,0,-1,1133,792,0,0
-84,232,0,0,0,0,0,0,0,0,0,-1,1140,792,0,0
-77,232,0,0,0,0,0,0,0,0,0,-1,1147,792,0,0
-70,232,0,0,0,0,0,0,0,0,0,-1,1154,792,0,0
-63,232,0,0,0,0,0,0,0,0,0,-1,1161,792,0,0
-56,232,0,0,0,0,0,0,0,0,0,-1,1168,792,0,0
-49,232,0,0,0,0,0,0,0,0,0,-1,1175,792,0,0
-42,232,0,0,0,0,0,0,0,0,0,-1,1182,792,0,0
-35,232,0,0,0,0,0,0,0,0,0,-1,1189,792,0,0
-28,232,0,0,0,0,0,0,0,0,0,-1,1196,792,0,0
-21,232,0,0,0,0,0,0,0,0,0,-1,1203,792,0,0
-14,232,0,0,0,0,0,0,0,0,0,-1,1210,792,0,0
-7,232,0,0,0,0,0,0,0,0,0,-1,1217,792,0,0
0,232,0,0,0,0,0,0,0,0,0,-1,1224,792,0,0
7,232,0,0,0,0,0,0,0,0,0,-1,1231,792,0,0
14,232,0,0,0,0,0,0,0,0,0,-1,1238,792,0,0
21,232,0,0,0,0,0,0,0,0,0,-1,1245,792,0,0
28,232,0,0,0,0,0,0,0,0,0,-1,1252,792,0,0
35,232,0,0,0,0,0,0,0,0,0,-1,1259,792,0,0
42,232,0,0,0,0,0,0,0,0,0,-1,1266,792,0,0
49,232,0,0,0,0,0,0,0,0,0,-1,1273,792,0,0
56,232,0,0,0,0,0,0,0,0,0,-1,1280,792,0,0
63,232,0,0,0,0,0,0,0,0,0,-1,1287,792,0,0
70,232,0,0,0,0,0,0,0,0,0,-1,1294,792,0,0
77,232,0,0,0,0,0,0,0,0,0,-1,1301,792,0,0
84,232,0,0,0,0,0,0,0,0,0,-1,1308,792,0,0
91,232,0,0,0,0,0,0,0,0,0,-1,1315,792,0,0
98,232,0,0,0,0,0,0,0,0,0,-1,1322,792,0,0
105,232,0,0,0,0,0,0,0,0,0,-1,1329,792,0,0
112,232,0,0,0,0,0,0,0,0,0,-1,1336,792,0,0
119,232,0,0,0,0,0,0,0,0,0,-1,1343,792,0,0
126,232,0,0,0,0,0,0,0,0,0,-1,1350,792,0,0
133,232,0,0,0,0,0,0,0,0,0,-1,1357,792,0,0
140,232,0,0,0,0,0,0,0,0,0,-1,1364,792,0,0
147,232,0,0,0,0,0,0,0,0,0,-1,1371,792,0,0
154,232,0,0,0,0,0,0,0,0,0,-1,1378,792,0,0
161,232,0,0,0,0,0,0,0,0,0,-1,1385,792,0,0
168,232,0,0,0,0,0,0,0,0,0,-1,1392,792,0,0
175,232,0,0,0,0,0,0,0,0,0,-1,1399,792,0,0
182,232,0,0,0,0,0,0,0,0,0,-1,1406,792,0,0
189,232,0,0,0,0,0,0,0,0,0,-1,1413,792,0,0
196,232,0,0,0,0,0,0,0,0,0,-1,1420,792,0,0
203,232,0,0,0,0,0,0,0,0,0,-1,1427,792,0,0
210,232,0,0,0,0,0,0,0,0,0,-1,1434,792,0,0
217,232,0,0,0,0,0,0,0,0,0,-1,1441,792,0,0
224,232,0,0,0,0,0,0,0,0,0,-1,1448,792,0,0
231,232,0,0,0,0,0,0,0,0,0,-1,1455,792,0,0
238,232,0,0,0,0,0,0,0,0,0,-1,1462,792,0,0
245,232,0,0,0,0,0,0,0,0,0,-1,1469,792,0,0
252,232,0,0,0,0,0,0,0,0,0,-1,1476,792,0,0
259,232,0,0,0,0,0,0,0,0,0,-1,1483,792,0,0
266,232,0,0,0,0,0,0,0,0,0,-1,1490,792,0,0
273,232,0,0,0,0,0,0,0,0,0,-1,1497,792,0,0
280,232,0,0,0,0,0,0,0,0,0,-1,1504,792,0,0
287,232,0,0,0,0,0,0,0,0,0,-1,1511,792,0,0
294,232,0,0,0,0,0,0,0,0,0,-1,1518,792,0,0
301,232,0,0,0,0,0,0,0,0,0,-1,1525,792,0,0
308,232,0,0,0,0,0,0,0,0,0,-1,1532,792,0,0
315,232,0,0,0,0,0,0,0,0,0,-1,1539,792,0,0
322,232,0,0,0,0,0,0,0,0,0,-1,1546,792,0,0
329,232,0,0,0,0,0,0,0,0,0,-1,1553,792,0,0
336,232,0,0,0,0,0,0,0,0,0,-1,1560,792,0,0
343,232,0,0,0,0,0,0,0,0,0,-1,1567,792,0,0
350,232,0,0,0,0,0,0,0,0,0,-1,1574,792,0,0
357,232,0,0,0,0,0,0,0,0,0,-1,1581,792,0,0
364,232,0,0,0,0,0,0,0,0,0,-1,1588,792,0,0
371,232,0,0,0,0,0,0,0,0,0,-1,1595,792,0,0
378,232,0,0,0,0,0,0,0,0,0,-1,1602,792,0,0
385,232,0,0,0,0,0,0,0,0,0,-1,1609,792,0,0
392,232,0,0,0,0,0,0,0,0,0,-1,1616,792,0,0
399,232,0,0,0,0,0,0,0,0,0,-1,1623,792,0,0
406,232,0,0,0,0,0,0,0,0,0,-1,1630,792,0,0
413,232,0,0,0,0,0,0,0,0,0,-1,1637,792,0,0
420,232,0,0,0,0,0,0,0,0,0,-1,1644,792,0,0
427,232,0,0,0,0,0,0,0,0,0,-1,1651,792,0,0
434,232,0,0,0,0,0,0,0,0,0,-1,1658,792,0,0
441,232,0,0,0,0,0,0,0,0,0,-1,1665,792,0,0
448,232,0,0,0,0,0,0,0,0,0,-1,1672,792,0,0
455,232,0,0,0,0,0,0,0,0,0,-1,1679,792,0,0
462,232,0,0,0,0,0,0,0,0,0,-1,1686,792,0,0
469,232,0,0,0,0,0,0,0,0,0,-1,1693,792,0,0
476,232,0,0,0,0,0,0,0,0,0,-1,1700,792,0,0
483,232,0,0,0,0,0,0,0,0,0,-1,1707,792,0,0
490,232,0,0,0,0,0,0,0,0,0,-1,1714,792,0,0
497,232,0,0,0,0,0,0,0,0,0,-1,1721,792,0,0
504,232,0,0,0,0,0,0,0,0,0,-1,1728,792,0,0
511,232,0,0,0,0,0,0,0,0,0,-1,1735,792,0,0
518,232,0,0,0,0,0,0,0,0,0,-1,1742,792,0,0
525,232,0,0,0,0,0,0,0,0,0,-1,1749,792,0,0
532,232,0,0,0,0,0,0,0,0,0,-1,1756,792,0,0
539,232,0,0,0,0,0,0,0,0,0,-1,1763,792,0,0
546,232,0,0,0,0,0,0,0,0,0,-1,1770,792,0,0
553,232,0,0,0,0,0,0,0,0,0,-1,1777,792,0,0
560,232,0,0,0,0,0,0,0,0,0,-1,1784,792,0,0
567,232,0,0,0,0,0,0,0,0,0,-1,1791,792,0,0
574,232,0,0,0,0,0,0,0,0,0,-1,1798,792,0,0
581,232,0,0,0,0,0,0,0,0,0,-1,1805,792,0,0
588,232,44.6753,3.04999,-0.00203246,0.00640033,0.00189477,0.0068065,-0.00243863,1.35963,0.00553269,0.0367406,1812,792,44.6753,-3.05001
595,232,44.7305,2.69287,-0.00783429,0.00496941,0.0096239,0.0101262,-0.0129911,1.07889,0.0133809,0.0367436,1819,792,44.7305,-2.69288
602,232,44.7994,2.64313,-0.0101166,0.00404579,0.0136877,0.0123755,-0.0184463,1.02411,0.0179096,0.0344836,1826,792,44.7994,-2.6431
609,232,44.7678,2.9032,-0.00959758,0.00345661,0.0147076,0.0130204,-0.0191613,0.994238,0.0186925,0.0385837,1833,792,44.7678,-2.90319
616,232,44.8939,2.94543,-0.00773765,0.00292622,0.0136037,0.0122056,-0.017017,0.972171,0.0169478,0.0485215,1840,792,44.8939,-2.94541
623,232,45.0665,2.94183,-0.00580508,0.00241655,0.0115951,0.010608,-0.0139965,0.955751,0.0142502,0.0461229,1847,792,45.0665,-2.94181
630,232,45.1832,2.99561,0,0,0,0,0,0,0,-1,1854,792,45.1832,-2.99559
637,232,44.1359,3.50415,0,0,0,0,0,0,0,-1,1861,792,44.1359,-3.50413
644,232,30.7756,4.24139,0,0,0,0,0,0,0,-1,1868,792,30.7757,-4.24141
651,232,31.6797,-0.564087,0,0,0,0,0,0,0,-1,1875,792,31.6797,0.564059
658,232,31.952,-0.7547,0,0,0,0,0,0,0,-1,1882,792,31.952,0.754687
665,232,32.0814,-0.118103,0.00105426,0.000511273,0.00130773,0.00211838,-0.00055285,0.683049,0.00162813,0.0195463,1889,792,32.0814,0.118111
672,232,32.0012,0.417664,0.000861531,0.000178144,0.000166071,0.000899751,0.000139924,0.226201,0.00055906,0.0215846,1896,792,32.0013,-0.417679
679,232,31.9821,0.916077,0.000174042,-9.67915e-05,-0.000284583,0.000353784,-0.000276534,-0.56333,0.000364824,0.0196246,1903,792,31.982,-0.916095
686,232,31.9813,1.46405,-6.93679e-05,-0.000104459,-0.000436278,0.000349717,-0.000523544,-0.765301,0.000507496,0.0190521,1910,792,31.9813,-1.46408
693,232,31.9965,1.96338,0.000223296,0.00051306,-0.000203928,0.000618333,0.000118023,-1.09425,0.000379056,0.0115155,1917,792,31.9965,-1.9634
700,232,31.9944,2.47656,0.000863661,0.00111523,0.000660526,0.00166184,0.000317051,0.879488,0.00101879,0.0136307,1924,792,31.9944,-2.47655
707,232,31.9583,3.01074,0.00163763,0.00233991,0.00200644,0.00402571,-4.81659e-05,0.872024,0.0027,0.0131132,1931,792,31.9583,-3.01074
714,232,31.9413,3.53467,0.00269251,0.00420799,0.00386884,0.0073926,-0.000492104,0.882103,0.00510035,0.0131614,1938,792,31.9413,-3.53465
721,232,31.9246,4.04828,0.00362251,0.00616529,0.00625886,0.0112806,-0.00149278,0.885602,0.00806417,0.0222236,1945,792,31.9245,-4.04827
728,232,31.8784,4.51282,0.00440831,0.0087571,0.00941033,0.016241,-0.00307557,0.898938,0.0119848,0.0450549,1952,792,31.8784,-4.51285
735,232,32.0691,5.1405,0,0,0,0,0,0,0,-1,1959,792,32.0691,-5.14051
742,232,25.6461,6.00684,0,0,0,0,0,0,0,-1,1966,792,25.6461,-6.00684
749,232,31.2874,3.74713,0,0,0,0,0,0,0,-1,1973,792,31.2874,-3.74713
756,232,32.1207,3.896,0,0,0,0,0,0,0,-1,1980,792,32.1207,-3.89597
763,232,32.7255,4.05878,0,0,0,0,0,0,0,-1,1987,792,32.7255,-4.05881
770,232,0,0,0,0,0,0,0,0,0,-1,1994,792,0,0
777,232,0,0,0,0,0,0,0,0,0,-1,2001,792,0,0
784,232,0,0,0,0,0,0,0,0,0,-1,2008,792,0,0
791,232,0,0,0,0,0,0,0,0,0,-1,2015,792,0,0
798,232,0,0,0,0,0,0,0,0,0,-1,2022,792,0,0
805,232,0,0,0,0,0,0,0,0,0,-1,2029,792,0,0
812,232,0,0,0,0,0,0,0,0,0,-1,2036,792,0,0
-700,225,0,0,0,0,0,0,0,0,0,-1,524,799,0,0
-693,225,0,0,0,0,0,0,0,0,0,-1,531,799,0,0
-686,225,0,0,0,0,0,0,0,0,0,-1,538,799,0,0
-679,225,0,0,0,0,0,0,0,0,0,-1,545,799,0,0
-672,225,0,0,0,0,0,0,0,0,0,-1,552,799,0,0
-665,225,0,0,0,0,0,0,0,0,0,-1,559,799,0,0
-658,225,0,0,0,0,0,0,0,0,0,-1,566,799,0,0
-651,225,0,0,0,0,0,0,0,0,0,-1,573,799,0,0
-644,225,-29.6308,5.53137,0,0,0,0,0,0,0,-1,580,799,-29.6308,-5.53137
-637,225,-29.8104,5.12939,0,0,0,0,0,0,0,-1,587,799,-29.8104,-5.12942
-630,225,-29.8912,5.02606,0,0,0,0,0,0,0,-1,594,799,-29.8912,-5.02606
-623,225,-32.8276,-0.00836182,0,0,0,0,0,0,0,-1,601,799,-32.8276,0.00837668
-616,225,-32.0569,-0.549255,0,0,0,0,0,0,0,-1,608,799,-32.0569,0.549265
-609,225,-21.2455,3.96423,0,0,0,0,0,0,0,-1,615,799,-21.2456,-3.96423
-602,225,-22.4606,2.72803,0,0,0,0,0,0,0,-1,622,799,-22.4606,-2.72804
-595,225,-22.3442,2.08704,0.00175951,0.0106779,-0.00378442,0.0120673,0.000370097,-1.21893,0.0079244,0.0321989,629,799,-22.3442,-2.08704
-588,225,-22.2489,1.46521,0.000813668,0.00725407,-0.00314206,0.00853301,-0.000465272,-1.18424,0.00584993,0.0136921,636,799,-22.2489,-1.46518
-581,225,-22.2369,0.98291,3.16204e-05,0.00467658,-0.00238255,0.00568133,-0.000973128,-1.17171,0.00415014,0.0107169,643,799,-22.237,-0.982898
-574,225,-22.2385,0.492493,-0.000211328,0.00250092,-0.0012148,0.00296546,-0.000675868,-1.20555,0.00223657,0.00897375,650,799,-22.2385,-0.492471
-567,225,-22.2746,-0.0147095,-0.000506731,0.000473599,-0.000112831,0.000486418,-0.00051955,-1.45767,0.000580901,0.0117615,657,799,-22.2746,0.0146884
-560,225,-22.3121,-0.487183,-0.000774728,-0.000984131,0.00104847,0.000174259,-0.00193312,0.735633,0.00135058,0.0130073,664,799,-22.312,0.487166
-553,225,-22.3575,-0.974792,-0.000988205,-0.00238969,0.00197518,0.000406855,-0.00378475,0.614938,0.00266914,0.0123353,671,799,-22.3576,0.974806
-546,225,-22.4062,-1.4859,-0.000975042,-0.00337325,0.00245639,0.000559296,-0.00490758,0.558334,0.0034732,0.0216662,678,799,-22.4062,1.48593
-539,225,-22.3923,-1.98395,-0.000334237,-0.00440863,0.00263189,0.000956778,-0.00569965,0.456042,0.00415557,0.0394684,685,799,-22.3922,1.98395
-532,225,-22.4814,-2.36993,0.000579697,-0.00527717,0.00253749,0.00152613,-0.0062236,0.356998,0.00474038,0.0395316,692,799,-22.4815,2.36995
-525,225,-22.8189,-2.58673,0,0,0,0,0,0,0,-1,699,799,-22.8189,2.58671
-518,225,-21.963,0.171326,0,0,0,0,0,0,0,-1,706,799,-21.9629,-0.171319
-511,225,-31.7129,1.82031,0,0,0,0,0,0,0,-1,713,799,-31.7129,-1.82029
-504,225,-33.434,1.19067,0,0,0,0,0,0,0,-1,720,799,-33.434,-1.19068
-497,225,-33.3923,1.13519,0.00550903,-0.00469558,-0.00310325,0.00637864,-0.00556518,-0.273216,0.0069011,0.0426812,727,799,-33.3923,-1.13517
-490,225,-33.3994,1.07428,0.00669771,-0.00389323,-0.0049637,0.00866036,-0.00585588,-0.376536,0.00843293,0.0385299,734,799,-33.3993,-1.07429
-483,225,-33.3708,1.09607,0.00802498,-0.00251313,-0.00732597,0.0117799,-0.00626809,-0.47364,0.0105808,0.0347051,741,799,-33.3709,-1.09608
-476,225,-33.3152,1.09369,0.00968272,-0.000315129,-0.0100031,0.0158665,-0.00649887,-0.55368,0.0132848,0.0321988,748,799,-33.3152,-1.09371
-469,225,-33.2808,1.1521,0.011127,0.00210821,-0.0119443,0.0193848,-0.00614958,-0.604903,0.0153882,0.0362292,755,799,-33.2808,-1.15211
-462,225,0,0,0,0,0,0,0,0,0,-1,762,799,0,0
-455,225,0,0,0,0,0,0,0,0,0,-1,769,799,0,0
-448,225,0,0,0,0,0,0,0,0,0,-1,776,799,0,0
-441,225,0,0,0,0,0,0,0,0,0,-1,783,799,0,0
-434,225,0,0,0,0,0,0,0,0,0,-1,790,799,0,0
-427,225,0,0,0,0,0,0,0,0,0,-1,797,799,0,0
-420,225,0,0,0,0,0,0,0,0,0,-1,804,799,0,0
-413,225,0,0,0,0,0,0,0,0,0,-1,811,799,0,0
-406,225,0,0,0,0,0,0,0,0,0,-1,818,799,0,0
-399,225,0,0,0,0,0,0,0,0,0,-1,825,799,0,0
-392,225,0,0,0,0,0,0,0,0,0,-1,832,799,0,0
-385,225,0,0,0,0,0,0,0,0,0,-1,839,799,0,0
-378,225,0,0,0,0,0,0,0,0,0,-1,846,799,0,0
-371,225,0,0,0,0,0,0,0,0,0,-1,853,799,0,0
-364,225,0,0,0,0,0,0,0,0,0,-1,860,799,0,0
-357,225,0,0,0,0,0,0,0,0,0,-1,867,799,0,0
-350,225,0,0,0,0,0,0,0,0,0,-1,874,799,0,0
-343,225,0,0,0,0,0,0,0,0,0,-1,881,799,0,0
-336,225,0,0,0,0,0,0,0,0,0,-1,888,799,0,0
-329,225,0,0,0,0,0,0,0,0,0,-1,895,799,0,0
-322,225,0,0,0,0,0,0,0,0,0,-1,902,799,0,0
-315,225,0,0,0,0,0,0,0,0,0,-1,909,799,0,0
-308,225,0,0,0,0,0,0,0,0,0,-1,916,799,0,0
-301,225,0,0,0,0,0,0,0,0,0,-1,923,799,0,0
-294,225,0,0,0,0,0,0,0,0,0,-1,930,799,0,0
-287,225,0,0,0,0,0,0,0,0,0,-1,937,799,0,0
-280,225,0,0,0,0,0,0,0,0,0,-1,944,799,0,0
-273,225,0,0,0,0,0,0,0,0,0,-1,951,799,0,0
-266,225,0,0,0,0,0,0,0,0,0,-1,958,799,0,0
-259,225,0,0,0,0,0,0,0,0,0,-1,965,799,0,0
-252,225,0,0,0,0,0,0,0,0,0,-1,972,799,0,0
-245,225,0,0,0,0,0,0,0,0,0,-1,979,799,0,0
-238,225,0,0,0,0,0,0,0,0,0,-1,986,799,0,0
-231,225,0,0,0,0,0,0,0,0,0,-1,993,799,0,0
-224,225,0,0,0,0,0,0,0,0,0,-1,1000,799,0,0
-217,225,0,0,0,0,0,0,0,0,0,-1,1007,799,0,0
-210,225,0,0,0,0,0,0,0,0,0,-1,1014,799,0,0
-203,225,0,0,0,0,0,0,0,0,0,-1,1021,799,0,0
-196,225,0,0,0,0,0,0,0,0,0,-1,1028,799,0,0
-189,225,0,0,0,0,0,0,0,0,0,-1,1035,799,0,0
-182,225,0,0,0,0,0,0,0,0,0,-1,1042,799,0,0
-175,225,0,0,0,0,0,0,0,0,0,-1,1049,799,0,0
-168,225,0,0,0,0,0,0,0,0,0,-1,1056,799,0,0
-161,225,0,0,0,0,0,0,0,0,0,-1,1063,799,0,0
-154,225,0,0,0,0,0,0,0,0,0,-1,1070,799,0,0
-147,225,0,0,0,0,0,0,0,0,0,-1,1077,799,0,0
-140,225,0,0,0,0,0,0,0,0,0,-1,1084,799,0,0
-133,225,0,0,0,0,0,0,0,0,0,-1,1091,799,0,0
-126,225,0,0,0,0,0,0,0,0,0,-1,1098,799,0,0
-119,225,0,0,0,0,0,0,0,0,0,-1,1105,799,0,0
-112,225,0,0,0,0,0,0,0,0,0,-1,1112,799,0,0
-105,225,0,0,0,0,0,0,0,0,0,-1,1119,799,0,0
-98,225,0,0,0,0,0,0,0,0,0,-1,1126,799,0,0
-91,225,0,0,0,0,0,0,0,0,0,-1,1133,799,0,0
-84,225,0,0,0,0,0,0,0,0,0,-1,1140,799,0,0
-77,225,0,0,0,0,0,0,0,0,0,-1,1147,799,0,0
-70,225,0,0,0,0,0,0,0,0,0,-1,1154,799,0,0
-63,225,0,0,0,0,0,0,0,0,0,-1,1161,799,0,0
-56,225,0,0,0,0,0,0,0,0,0,-1,1168,799,0,0
-49,225,0,0,0,0,0,0,0,0,0,-1,1175,799,0,0
-42,225,0,0,0,0,0,0,0,0,0,-1,1182,799,0,0
-35,225,0,0,0,0,0,0,0,0,0,-1,1189,799,0,0
-28,225,0,0,0,0,0,0,0,0,0,-1,1196,799,0,0
-21,225,0,0,0,0,0,0,0,0,0,-1,1203,799,0,0
-14,225,0,0,0,0,0,0,0,0,0,-1,1210,799,0,0
-7,225,0,0,0,0,0,0,0,0,0,-1,1217,799,0,0
0,225,0,0,0,0,0,0,0,0,0,-1,1224,799,0,0
7,225,0,0,0,0,0,0,0,0,0,-1,1231,799,0,0
14,225,0,0,0,0,0,0,0,0,0,-1,1238,799,0,0
21,225,0,0,0,0,0,0,0,0,0,-1,1245,799,0,0
28,225,0,0,0,0,0,0,0,0,0,-1,1252,799,0,0
35,225,0,0,0,0,0,0,0,0,0,-1,1259,799,0,0
42,225,0,0,0,0,0,0,0,0,0,-1,1266,799,0,0
49,225,0,0,0,0,0,0,0,0,0,-1,1273,799,0,0
56,225,0,0,0,0,0,0,0,0,0,-1,1280,799,0,0
63,225,0,0,0,0,0,0,0,0,0,-1,1287,799,0,0
70,225,0,0,0,0,0,0,0,0,0,-1,1294,799,0,0
77,225,0,0,0,0,0,0,0,0,0,-1,1301,799,0,0
84,225,0,0,0,0,0,0,0,0,0,-1,1308,799,0,0
91,225,0,0,0,0,0,0,0,0,0,-1,1315,799,0,0
98,225,0,0,0,0,0,0,0,0,0,-1,1322,799,0,0
105,225,0,0,0,0,0,0,0,0,0,-1,1329,799,0,0
112,225,0,0,0,0,0,0,0,0,0,-1,1336,799,0,0
119,225,0,0,0,0,0,0,0,0,0,-1,1343,799,0,0
126,225,0,0,0,0,0,0,0,0,0,-1,1350,799,0,0
133,225,0,0,0,0,0,0,0,0,0,-1,1357,799,0,0
140,225,0,0,0,0,0,0,0,0,0,-1,1364,799,0,0
147,225,0,0,0,0,0,0,0,0,0,-1,1371,799,0,0
154,225,0,0,0,0,0,0,0,0,0,-1,1378,799,0,0
161,225,0,0,0,0,0,0,0,0,0,-1,1385,799,0,0
168,225,0,0,0,0,0,0,0,0,0,-1,1392,799,0,0
175,225,0,0,0,0,0,0,0,0,0,-1,1399,799,0,0
182,225,0,0,0,0,0,0,0,0,0,-1,1406,799,0,0
189,225,0,0,0,0,0,0,0,0,0,-1,1413,799,0,0
196,225,0,0,0,0,0,0,0,0,0,-1,1420,799,0,0
203,225,0,0,0,0,0,0,0,0,0,-1,1427,799,0,0
210,225,0,0,0,0,0,0,0,0,0,-1,1434,799,0,0
217,225,0,0,0,0,0,0,0,0,0,-1,1441,799,0,0
224,225,0,0,0,0,0,0,0,0,0,-1,1448,799,0,0
231,225,0,0,0,0,0,0,0,0,0,-1,1455,799,0,0
238,225,0,0,0,0,0,0,0,0,0,-1,1462,799,0,0
245,225,0,0,0,0,0,0,0,0,0,-1,1469,799,0,0
252,225,0,0,0,0,0,0,0,0,0,-1,1476,799,0,0
259,225,0,0,0,0,0,0,0,0,0,-1,1483,799,0,0
266,225,0,0,0,0,0,0,0,0,0,-1,1490,799,0,0
273,225,0,0,0,0,0,0,0,0,0,-1,1497,799,0,0
280,225,0,0,0,0,0,0,0,0,0,-1,1504,799,0,0
287,225,0,0,0,0,0,0,0,0,0,-1,1511,799,0,0
294,225,0,0,0,0,0,0,0,0,0,-1,1518,799,0,0
301,225,0,0,0,0,0,0,0,0,0,-1,1525,799,0,0
308,225,0,0,0,0,0,0,0,0,0,-1,1532,799,0,0
315,225,0,0,0,0,0,0,0,0,0,-1,1539,799,0,0
322,225,0,0,0,0,0,0,0,0,0,-1,1546,799,0,0
329,225,0,0,0,0,0,0,0,0,0,-1,1553,799,0,0
336,225,0,0,0,0,0,0,0,0,0,-1,1560,799,0,0
343,225,0,0,0,0,0,0,0,0,0,-1,1567,799,0,0
350,225,0,0,0,0,0,0,0,0,0,-1,1574,799,0,0
357,225,0,0,0,0,0,0,0,0,0,-1,1581,799,0,0
364,225,0,0,0,0,0,0,0,0,0,-1,1588,799,0,0
371,225,0,0,0,0,0,0,0,0,0,-1,1595,799,0,0
378,225,0,0,0,0,0,0,0,0,0,-1,1602,799,0,0
385,225,0,0,0,0,0,0,0,0,0,-1,1609,799,0,0
392,225,0,0,0,0,0,0,0,0,0,-1,1616,799,0,0
399,225,0,0,0,0,0,0,0,0,0,-1,1623,799,0,0
406,225,0,0,0,0,0,0,0,0,0,-1,1630,799,0,0
413,225,0,0,0,0,0,0,0,0,0,-1,1637,799,0,0
420,225,0,0,0,0,0,0,0,0,0,-1,1644,799,0,0
427,225,0,0,0,0,0,0,0,0,0,-1,1651,799,0,0
434,225,0,0,0,0,0,0,0,0,0,-1,1658,799,0,0
441,225,0,0,0,0,0,0,0,0,0,-1,1665,799,0,0
448,225,0,0,0,0,0,0,0,0,0,-1,1672,799,0,0
455,225,0,0,0,0,0,0,0,0,0,-1,1679,799,0,0
462,225,0,0,0,0,0,0,0,0,0,-1,1686,799,0,0
469,225,0,0,0,0,0,0,0,0,0,-1,1693,799,0,0
476,225,0,0,0,0,0,0,0,0,0,-1,1700,799,0,0
483,225,0,0,0,0,0,0,0,0,0,-1,1707,799,0,0
490,225,0,0,0,0,0,0,0,0,0,-1,1714,799,0,0
497,225,0,0,0,0,0,0,0,0,0,-1,1721,799,0,0
504,225,0,0,0,0,0,0,0,0,0,-1,1728,799,0,0
511,225,0,0,0,0,0,0,0,0,0,-1,1735,799,0,0
518,225,0,0,0,0,0,0,0,0,0,-1,1742,799,0,0
525,225,0,0,0,0,0,0,0,0,0,-1,1749,799,0,0
532,225,0,0,0,0,0,0,0,0,0,-1,1756,799,0,0
539,225,0,0,0,0,0,0,0,0,0,-1,1763,799,0,0
546,225,0,0,0,0,0,0,0,0,0,-1,1770,799,0,0
553,225,0,0,0,0,0,0,0,0,0,-1,1777,799,0,0
560,225,0,0,0,0,0,0,0,0,0,-1,1784,799,0,0
567,225,0,0,0,0,0,0,0,0,0,-1,1791,799,0,0
574,225,0,0,0,0,0,0,0,0,0,-1,1798,799,0,0
581,225,0,0,0,0,0,0,0,0,0,-1,1805,799,0,0
588,225,44.7085,2.99329,0.00218187,0.0056403,-0.00386988,0.00814973,-0.000327565,-0.99551,0.00554557,0.0367642,1812,799,44.7084,-2.99327
595,225,44.7526,2.86786,-0.00317644,0.00464057,0.00394856,0.00628792,-0.00482379,1.17555,0.00643388,0.0377551,1819,799,44.7526,-2.86788
602,225,44.7754,2.69049,-0.00590709,0.00409377,0.00900768,0.0093959,-0.0112092,1.03878,0.0119117,0.0346595,1826,799,44.7753,-2.69052
609,225,44.7463,2.86847,-0.00620513,0.0037059,0.0113166,0.0111045,-0.0136037,0.99177,0.0142896,0.032914,1833,799,44.7463,-2.86846
616,225,44.7811,2.87701,-0.00501037,0.0032678,0.0112074,0.011076,-0.0128186,0.962287,0.0138078,0.0405755,1840,799,44.7811,-2.87704
623,225,44.8887,2.94324,-0.00356071,0.00274211,0.00973257,0.00982077,-0.0106394,0.941971,0.0118158,0.0424864,1847,799,44.8887,-2.94322
630,225,45.0612,3.06226,-0.00229509,0.00230513,0.00804416,0.00837156,-0.00836152,0.92465,0.00966085,0.0445488,1854,799,45.0612,-3.06227
637,225,45.2407,2.8761,0,0,0,0,0,0,0,-1,1861,799,45.2407,-2.87607
644,225,42.0298,2.46411,0,0,0,0,0,0,0,-1,1868,799,42.0298,-2.4641
651,225,27.9657,0.579529,0,0,0,0,0,0,0,-1,1875,799,27.9657,-0.579541
658,225,33.0909,-0.293762,0,0,0,0,0,0,0,-1,1882,799,33.0909,0.293735
665,225,32.7538,0.0356445,0.00090166,0.000542079,0.00111159,0.0018479,-0.000404163,0.705221,0.00138643,0.0256006,1889,799,32.7537,-0.0356732
672,225,32.5614,0.522705,0.000551799,0.000195806,0.000122902,0.000590107,0.000157498,0.302152,0.000352825,0.0228591,1896,799,32.5614,-0.522715
679,225,32.5189,1.02148,-0.000185439,-0.000190705,-0.000356768,0.000168706,-0.00054485,-0.781709,0.000430629,0.0191682,1903,799,32.5189,-1.02148
686,225,32.5155,1.48138,-0.000503008,-0.000345249,-0.000596462,0.000177527,-0.00102578,-0.851139,0.000750067,0.0117861,1910,799,32.5155,-1.48141
693,225,32.5035,1.97516,-0.000332677,0.000152786,-0.000505973,0.000471238,-0.000651129,-1.00905,0.000650768,0.0110714,1917,799,32.5035,-1.97519
700,225,32.4915,2.495,0.00024302,0.000681059,0.00026217,0.000803657,0.000120422,1.13338,0.000500484,0.0114562,1924,799,32.4914,-2.495
707,225,32.4547,3.01544,0.00108131,0.00217069,0.00144014,0.0031657,8.62969e-05,0.966194,0.0020823,0.0112763,1931,799,32.4547,-3.01541
714,225,32.459,3.53833,0.00218267,0.00426047,0.00319074,0.00657718,-0.000134043,0.942785,0.00443015,0.0127199,1938,799,32.459,-3.53831
721,225,32.4885,4.04529,0.00319796,0.00656848,0.00538912,0.0105297,-0.000763259,0.936939,0.00728755,0.0158418,1945,799,32.4885,-4.04528
728,225,32.3895,4.39447,0.00410323,0.00960911,0.00821241,0.0155177,-0.00180538,0.947121,0.0109964,0.0317299,1952,799,32.3895,-4.39448
735,225,32.7157,5.289,0,0,0,0,0,0,0,-1,1959,799,32.7157,-5.28897
742,225,29.0922,3.2132,0,0,0,0,0,0,0,-1,1966,799,29.0921,-3.21322
749,225,29.9529,4.45538,0,0,0,0,0,0,0,-1,1973,799,29.9529,-4.45537
756,225,31.8855,3.83466,0,0,0,0,0,0,0,-1,1980,799,31.8855,-3.83463
763,225,28.3649,5.54443,0,0,0,0,0,0,0,-1,1987,799,28.3649,-5.54444
770,225,0,0,0,0,0,0,0,0,0,-1,1994,799,0,0
777,225,0,0,0,0,0,0,0,0,0,-1,2001,799,0,0
784,225,0,0,0,0,0,0,0,0,0,-1,2008,799,0,0
791,225,0,0,0,0,0,0,0,0,0,-1,2015,799,0,0
798,225,0,0,0,0,0,0,0,0,0,-1,2022,799,0,0
805,225,0,0,0,0,0,0,0,0,0,-1,2029,799,0,0
812,225,0,0,0,0,0,0,0,0,0,-1,2036,799,0,0
-700,218,0,0,0,0,0,0,0,0,0,-1,524,806,0,0
-693,218,0,0,0,0,0,0,0,0,0,-1,531,806,0,0
-686,218,0,0,0,0,0,0,0,0,0,-1,538,806,0,0
-679,218,0,0,0,0,0,0,0,0,0,-1,545,806,0,0
-672,218,0,0,0,0,0,0,0,0,0,-1,552,806,0,0
-665,218,0,0,0,0,0,0,0,0,0,-1,559,806,0,0
-658,218,0,0,0,0,0,0,0,0,0,-1,566,806,0,0
-651,218,-32.1339,2.1004,0,0,0,0,0,0,0,-1,573,806,-32.1339,-2.10038
-644,218,-32.6035,3.86414,0,0,0,0,0,0,0,-1,580,806,-32.6035,-3.86413
-637,218,-29.4564,5.19836,0,0,0,0,0,0,0,-1,587,806,-29.4564,-5.19835
-630,218,-29.4624,4.92188,0,0,0,0,0,0,0,-1,594,806,-29.4624,-4.92185
-623,218,-29.4469,4.34161,0,0,0,0,0,0,0,-1,601,806,-29.4469,-4.34164
-616,218,-20.0258,1.87585,0,0,0,0,0,0,0,-1,608,806,-20.0258,-1.87585
-609,218,-22.8369,2.95746,0,0,0,0,0,0,0,-1,615,806,-22.8369,-2.95744
-602,218,-22.8342,2.4433,0.00551585,0.0147641,-0.000459566,0.0147869,0.00549307,-1.52127,0.00863073,0.0441502,622,806,-22.8342,-2.44332
-595,218,-22.807,1.96344,0.00301082,0.0104505,-0.00129278,0.0106687,0.00279258,-1.40356,0.00638842,0.0195405,629,806,-22.807,-1.96347
-588,218,-22.7522,1.46075,0.00106045,0.00685898,-0.00144643,0.00719976,0.000719666,-1.33941,0.00457884,0.0118533,636,806,-22.7522,-1.46073
-581,218,-22.7429,1.00293,-0.000351277,0.00426226,-0.00118489,0.00454878,-0.000637796,-1.33354,0.00326594,0.0112401,643,806,-22.7429,-1.0029
-574,218,-22.7612,0.517456,-0.000696555,0.00195707,-0.000361451,0.00200542,-0.000744907,-1.43781,0.00164255,0.0103466,650,806,-22.7613,-0.517432
-567,218,-22.7856,0.00848389,-0.000772766,1.60253e-05,0.000608376,0.000346661,-0.0011034,1.07298,0.000874369,0.0170706,657,806,-22.7856,-0.00845525
-560,218,-22.8084,-0.457336,-0.00078816,-0.00133484,0.00164289,0.000603977,-0.00272698,0.702965,0.0020492,0.0173732,664,806,-22.8084,0.457311
-553,218,-22.7784,-1.01288,-0.000782562,-0.0025496,0.00240087,0.000892193,-0.00422436,0.609088,0.00315596,0.0164377,671,806,-22.7784,1.01288
-546,218,-22.8746,-1.61591,-0.000619361,-0.00330747,0.00267331,0.00102875,-0.00495558,0.552468,0.00369469,0.019938,678,806,-22.8747,1.6159
-539,218,-22.8905,-2.11035,0.000110596,-0.00420973,0.00274535,0.00144374,-0.00554288,0.452064,0.00425887,0.0319336,685,806,-22.8905,2.11034
-532,218,-22.9941,-2.31732,0.00104688,-0.00496686,0.00261951,0.00202788,-0.00594786,0.358329,0.00478659,0.0408046,692,806,-22.9941,2.31732
-525,218,-23.3629,-2.43121,0,0,0,0,0,0,0,-1,699,806,-23.3629,2.43119
-518,218,-23.61,2.54181,0,0,0,0,0,0,0,-1,706,806,-23.61,-2.54183
-511,218,-33.3173,1.1109,0,0,0,0,0,0,0,-1,713,806,-33.3172,-1.11087
-504,218,-33.3106,1.12451,0,0,0,0,0,0,0,-1,720,806,-33.3106,-1.12449
-497,218,-33.3206,1.1178,0.00562718,-0.00494136,-0.002283,0.00609926,-0.00541344,-0.203908,0.00665079,0.048059,727,806,-33.3206,-1.11781
-490,218,-33.322,1.12073,0.00658277,-0.00433183,-0.00395831,0.00786716,-0.00561622,-0.31376,0.00782071,0.0360602,734,806,-33.322,-1.1207
-483,218,-33.2816,1.15472,0.00755669,-0.0032173,-0.00609135,0.0103014,-0.00596199,-0.423343,0.00950042,0.0337445,741,806,-33.2815,-1.15472
-476,218,-33.2129,1.13367,0.00845811,-0.00142078,-0.00828361,0.0131632,-0.00612583,-0.516554,0.0113809,0.0367182,748,806,-33.2129,-1.13367
-469,218,0,0,0,0,0,0,0,0,0,-1,755,806,0,0
-462,218,0,0,0,0,0,0,0,0,0,-1,762,806,0,0
-455,218,0,0,0,0,0,0,0,0,0,-1,769,806,0,0
-448,218,0,0,0,0,0,0,0,0,0,-1,776,806,0,0
-441,218,0,0,0,0,0,0,0,0,0,-1,783,806,0,0
-434,218,0,0,0,0,0,0,0,0,0,-1,790,806,0,0
-427,218,0,0,0,0,0,0,0,0,0,-1,797,806,0,0
-420,218,0,0,0,0,0,0,0,0,0,-1,804,806,0,0
-413,218,0,0,0,0,0,0,0,0,0,-1,811,806,0,0
-406,218,0,0,0,0,0,0,0,0,0,-1,818,806,0,0
-399,218,0,0,0,0,0,0,0,0,0,-1,825,806,0,0
-392,218,0,0,0,0,0,0,0,0,0,-1,832,806,0,0
-385,218,0,0,0,0,0,0,0,0,0,-1,839,806,0,0
-378,218,0,0,0,0,0,0,0,0,0,-1,846,806,0,0
-371,218,0,0,0,0,0,0,0,0,0,-1,853,806,0,0
-364,218,0,0,0,0,0,0,0,0,0,-1,860,806,0,0
-357,218,0,0,0,0,0,0,0,0,0,-1,867,806,0,0
-350,218,0,0,0,0,0,0,0,0,0,-1,874,806,0,0
-343,218,0,0,0,0,0,0,0,0,0,-1,881,806,0,0
-336,218,0,0,0,0,0,0,0,0,0,-1,888,806,0,0
-329,218,0,0,0,0,0,0,0,0,0,-1,895,806,0,0
-322,218,0,0,0,0,0,0,0,0,0,-1,902,806,0,0
-315,218,0,0,0,0,0,0,0,0,0,-1,909,806,0,0
-308,218,0,0,0,0,0,0,0,0,0,-1,916,806,0,0
-301,218,0,0,0,0,0,0,0,0,0,-1,923,806,0,0
-294,218,0,0,0,0,0,0,0,0,0,-1,930,806,0,0
-287,218,0,0,0,0,0,0,0,0,0,-1,937,806,0,0
-280,218,0,0,0,0,0,0,0,0,0,-1,944,806,0,0
-273,218,0,0,0,0,0,0,0,0,0,-1,951,806,0,0
-266,218,0,0,0,0,0,0,0,0,0,-1,958,806,0,0
-259,218,0,0,0,0,0,0,0,0,0,-1,965,806,0,0
-252,218,0,0,0,0,0,0,0,0,0,-1,972,806,0,0
-245,218,0,0,0,0,0,0,0,0,0,-1,979,806,0,0
-238,218,0,0,0,0,0,0,0,0,0,-1,986,806,0,0
-231,218,0,0,0,0,0,0,0,0,0,-1,993,806,0,0
-224,218,0,0,0,0,0,0,0,0,0,-1,1000,806,0,0
-217,218,0,0,0,0,0,0,0,0,0,-1,1007,806,0,0
-210,218,0,0,0,0,0,0,0,0,0,-1,1014,806,0,0
-203,218,0,0,0,0,0,0,0,0,0,-1,1021,806,0,0
-196,218,0,0,0,0,0,0,0,0,0,-1,1028,806,0,0
-189,218,0,0,0,0,0,0,0,0,0,-1,1035,806,0,0
-182,218,0,0,0,0,0,0,0,0,0,-1,1042,806,0,0
-175,218,0,0,0,0,0,0,0,0,0,-1,1049,806,0,0
-168,218,0,0,0,0,0,0,0,0,0,-1,1056,806,0,0
-161,218,0,0,0,0,0,0,0,0,0,-1,1063,806,0,0
-154,218,0,0,0,0,0,0,0,0,0,-1,1070,806,0,0
-147,218,0,0,0,0,0,0,0,0,0,-1,1077,806,0,0
-140,218,0,0,0,0,0,0,0,0,0,-1,1084,806,0,0
-133,218,0,0,0,0,0,0,0,0,0,-1,1091,806,0,0
-126,218,0,0,0,0,0,0,0,0,0,-1,1098,806,0,0
-119,218,0,0,0,0,0,0,0,0,0,-1,1105,806,0,0
-112,218,0,0,0,0,0,0,0,0,0,-1,1112,806,0,0
-105,218,0,0,0,0,0,0,0,0,0,-1,1119,806,0,0
-98,218,0,0,0,0,0,0,0,0,0,-1,1126,806,0,0
-91,218,0,0,0,0,0,0,0,0,0,-1,1133,806,0,0
-84,218,0,0,0,0,0,0,0,0,0,-1,1140,806,0,0
-77,218,0,0,0,0,0,0,0,0,0,-1,1147,806,0,0
-70,218,0,0,0,0,0,0,0,0,0,-1,1154,806,0,0
-63,218,0,0,0,0,0,0,0,0,0,-1,1161,806,0,0
-56,218,0,0,0,0,0,0,0,0,0,-1,1168,806,0,0
-49,218,0,0,0,0,0,0,0,0,0,-1,1175,806,0,0
-42,218,0,0,0,0,0,0,0,0,0,-1,1182,806,0,0
-35,218,0,0,0,0,0,0,0,0,0,-1,1189,806,0,0
-28,218,0,0,0,0,0,0,0,0,0,-1,1196,806,0,0
-21,218,0,0,0,0,0,0,0,0,0,-1,1203,806,0,0
-14,218,0,0,0,0,0,0,0,0,0,-1,1210,806,0,0
-7,218,0,0,0,0,0,0,0,0,0,-1,1217,806,0,0
0,218,0,0,0,0,0,0,0,0,0,-1,1224,806,0,0
7,218,0,0,0,0,0,0,0,0,0,-1,1231,806,0,0
14,218,0,0,0,0,0,0,0,0,0,-1,1238,806,0,0
21,218,0,0,0,0,0,0,0,0,0,-1,1245,806,0,0
28,218,0,0,0,0,0,0,0,0,0,-1,1252,806,0,0
35,218,0,0,0,0,0,0,0,0,0,-1,1259,806,0,0
42,218,0,0,0,0,0,0,0,0,0,-1,1266,806,0,0
49,218,0,0,0,0,0,0,0,0,0,-1,1273,806,0,0
56,218,0,0,0,0,0,0,0,0,0,-1,1280,806,0,0
63,218,0,0,0,0,0,0,0,0,0,-1,1287,806,0,0
70,218,0,0,0,0,0,0,0,0,0,-1,1294,806,0,0
77,218,0,0,0,0,0,0,0,0,0,-1,1301,806,0,0
84,218,0,0,0,0,0,0,0,0,0,-1,1308,806,0,0
91,218,0,0,0,0,0,0,0,0,0,-1,1315,806,0,0
98,218,0,0,0,0,0,0,0,0,0,-1,1322,806,0,0
105,218,0,0,0,0,0,0,0,0,0,-1,1329,806,0,0
112,218,0,0,0,0,0,0,0,0,0,-1,1336,806,0,0
119,218,0,0,0,0,0,0,0,0,0,-1,1343,806,0,0
126,218,0,0,0,0,0,0,0,0,0,-1,1350,806,0,0
133,218,0,0,0,0,0,0,0,0,0,-1,1357,806,0,0
140,218,0,0,0,0,0,0,0,0,0,-1,1364,806,0,0
147,218,0,0,0,0,0,0,0,0,0,-1,1371,806,0,0
154,218,0,0,0,0,0,0,0,0,0,-1,1378,806,0,0
161,218,0,0,0,0,0,0,0,0,0,-1,1385,806,0,0
168,218,0,0,0,0,0,0,0,0,0,-1,1392,806,0,0
175,218,0,0,0,0,0,0,0,0,0,-1,1399,806,0,0
182,218,0,0,0,0,0,0,0,0,0,-1,1406,806,0,0
189,218,0,0,0,0,0,0,0,0,0,-1,1413,806,0,0
196,218,0,0,0,0,0,0,0,0,0,-1,1420,806,0,0
203,218,0,0,0,0,0,0,0,0,0,-1,1427,806,0,0
210,218,0,0,0,0,0,0,0,0,0,-1,1434,806,0,0
217,218,0,0,0,0,0,0,0,0,0,-1,1441,806,0,0
224,218,0,0,0,0,0,0,0,0,0,-1,1448,806,0,0
231,218,0,0,0,0,0,0,0,0,0,-1,1455,806,0,0
238,218,0,0,0,0,0,0,0,0,0,-1,1462,806,0,0
245,218,0,0,0,0,0,0,0,0,0,-1,1469,806,0,0
252,218,0,0,0,0,0,0,0,0,0,-1,1476,806,0,0
259,218,0,0,0,0,0,0,0,0,0,-1,1483,806,0,0
266,218,0,0,0,0,0,0,0,0,0,-1,1490,806,0,0
273,218,0,0,0,0,0,0,0,0,0,-1,1497,806,0,0
280,218,0,0,0,0,0,0,0,0,0,-1,1504,806,0,0
287,218,0,0,0,0,0,0,0,0,0,-1,1511,806,0,0
294,218,0,0,0,0,0,0,0,0,0,-1,1518,806,0,0
301,218,0,0,0,0,0,0,0,0,0,-1,1525,806,0,0
308,218,0,0,0,0,0,0,0,0,0,-1,1532,806,0,0
315,218,0,0,0,0,0,0,0,0,0,-1,1539,806,0,0
322,218,0,0,0,0,0,0,0,0,0,-1,1546,806,0,0
329,218,0,0,0,0,0,0,0,0,0,-1,1553,806,0,0
336,218,0,0,0,0,0,0,0,0,0,-1,1560,806,0,0
343,218,0,0,0,0,0,0,0,0,0,-1,1567,806,0,0
350,218,0,0,0,0,0,0,0,0,0,-1,1574,806,0,0
357,218,0,0,0,0,0,0,0,0,0,-1,1581,806,0,0
364,218,0,0,0,0,0,0,0,0,0,-1,1588,806,0,0
371,218,0,0,0,0,0,0,0,0,0,-1,1595,806,0,0
378,218,0,0,0,0,0,0,0,0,0,-1,1602,806,0,0
385,218,0,0,0,0,0,0,0,0,0,-1,1609,806,0,0
392,218,0,0,0,0,0,0,0,0,0,-1,1616,806,0,0
399,218,0,0,0,0,0,0,0,0,0,-1,1623,806,0,0
406,218,0,0,0,0,0,0,0,0,0,-1,1630,806,0,0
413,218,0,0,0,0,0,0,0,0,0,-1,1637,806,0,0
420,218,0,0,0,0,0,0,0,0,0,-1,1644,806,0,0
427,218,0,0,0,0,0,0,0,0,0,-1,1651,806,0,0
434,218,0,0,0,0,0,0,0,0,0,-1,1658,806,0,0
441,218,0,0,0,0,0,0,0,0,0,-1,1665,806,0,0
448,218,0,0,0,0,0,0,0,0,0,-1,1672,806,0,0
455,218,0,0,0,0,0,0,0,0,0,-1,1679,806,0,0
462,218,0,0,0,0,0,0,0,0,0,-1,1686,806,0,0
469,218,0,0,0,0,0,0,0,0,0,-1,1693,806,0,0
476,218,0,0,0,0,0,0,0,0,0,-1,1700,806,0,0
483,218,0,0,0,0,0,0,0,0,0,-1,1707,806,0,0
490,218,0,0,0,0,0,0,0,0,0,-1,1714,806,0,0
497,218,0,0,0,0,0,0,0,0,0,-1,1721,806,0,0
504,218,0,0,0,0,0,0,0,0,0,-1,1728,806,0,0
511,218,0,0,0,0,0,0,0,0,0,-1,1735,806,0,0
518,218,0,0,0,0,0,0,0,0,0,-1,1742,806,0,0
525,218,0,0,0,0,0,0,0,0,0,-1,1749,806,0,0
532,218,0,0,0,0,0,0,0,0,0,-1,1756,806,0,0
539,218,0,0,0,0,0,0,0,0,0,-1,1763,806,0,0
546,218,0,0,0,0,0,0,0,0,0,-1,1770,806,0,0
553,218,0,0,0,0,0,0,0,0,0,-1,1777,806,0,0
560,218,0,0,0,0,0,0,0,0,0,-1,1784,806,0,0
567,218,0,0,0,0,0,0,0,0,0,-1,1791,806,0,0
574,218,0,0,0,0,0,0,0,0,0,-1,1798,806,0,0
581,218,0,0,0,0,0,0,0,0,0,-1,1805,806,0,0
588,218,0,0,0,0,0,0,0,0,0,-1,1812,806,0,0
595,218,44.851,2.68475,0.00089149,0.00344962,-0.000795484,0.00367681,0.000664301,-1.2926,0.00226252,0.0395847,1819,806,44.8509,-2.68478
602,218,44.8295,2.71588,-0.001877,0.00336998,0.00445536,0.00591688,-0.0044239,1.05148,0.00599096,0.0341269,1826,806,44.8295,-2.71588
609,218,44.7742,2.77747,-0.00284537,0.00334835,0.0076964,0.00854759,-0.0080446,0.976675,0.00958097,0.0305857,1833,806,44.7742,-2.77747
616,218,44.74,2.84174,-0.0023479,0.00316609,0.00865169,0.00948944,-0.00867125,0.939644,0.0104886,0.0339108,1840,806,44.7399,-2.84173
623,218,44.7615,2.87732,-0.00149951,0.00271535,0.00789372,0.00877811,-0.00756227,0.915843,0.00944282,0.0372067,1847,806,44.7615,-2.8773
630,218,44.908,2.85138,-0.000715961,0.0023384,0.00662666,0.00761158,-0.00598914,0.898651,0.00787098,0.0403652,1854,806,44.9079,-2.85141
637,218,45.1693,2.78992,-0.000323131,0.00190844,0.00539117,0.00629808,-0.00471277,0.88744,0.00637904,0.0451435,1861,806,45.1693,-2.78994
644,218,45.2583,2.89453,0,0,0,0,0,0,0,-1,1868,806,45.2583,-2.89455
651,218,41.7338,1.99164,0,0,0,0,0,0,0,-1,1875,806,41.7338,-1.99162
658,218,28.41,0.514954,0,0,0,0,0,0,0,-1,1882,806,28.41,-0.514983
665,218,33.4659,0.312012,0,0,0,0,0,0,0,-1,1889,806,33.4659,-0.312032
672,218,33.2335,0.578735,0.000195039,0.000222589,0.000135272,0.000344786,7.28416e-05,0.836139,0.000209834,0.0202729,1896,806,33.2335,-0.578721
679,218,33.1073,1.03943,-0.000522435,-0.000155799,-0.000351258,5.70996e-05,-0.000735333,-1.0259,0.000510321,0.0165918,1903,806,33.1073,-1.03943
686,218,33.05,1.48541,-0.000853758,-0.000412499,-0.000660894,6.36198e-05,-0.00132988,-0.946499,0.000908534,0.0123538,1910,806,33.0501,-1.4854
693,218,33.0291,1.99445,-0.000795257,-6.73897e-05,-0.000708937,0.00036557,-0.00122822,-1.02253,0.000964056,0.0119325,1917,806,33.0291,-1.99445
700,218,32.9917,2.49976,-0.000345382,0.000338985,-6.57772e-05,0.00034525,-0.000351647,-1.47584,0.000402359,0.0091048,1924,806,32.9916,-2.49978
707,218,32.9556,3.00134,0.000412509,0.00184051,0.001014,0.00236666,-0.000113647,1.09215,0.00161699,0.00761035,1931,806,32.9556,-3.00136
714,218,32.9598,3.52466,0.00144581,0.00397201,0.00270737,0.00569643,-0.000278603,1.00366,0.00389381,0.0102793,1938,806,32.9598,-3.52468
721,218,32.984,4.03668,0.00240681,0.00638339,0.004822,0.00961095,-0.000820741,0.980946,0.00669766,0.0135945,1945,806,32.984,-4.03671
728,218,32.9908,4.57147,0.0032546,0.00953382,0.00748559,0.0145115,-0.00172313,0.983966,0.0102969,0.0239282,1952,806,32.9908,-4.57145
735,218,33.1187,5.18854,0.00404328,0.013883,0.0109718,0.0209875,-0.00306119,0.996164,0.0151157,0.0417164,1959,806,33.1186,-5.18853
742,218,33.5889,5.90851,0,0,0,0,0,0,0,-1,1966,806,33.5888,-5.90851
749,218,32.3662,5.508,0,0,0,0,0,0,0,-1,1973,806,32.3662,-5.50799
756,218,32.0544,6.07904,0,0,0,0,0,0,0,-1,1980,806,32.0545,-6.07904
763,218,31.1039,4.53247,0,0,0,0,0,0,0,-1,1987,806,31.1038,-4.53247
770,218,0,0,0,0,0,0,0,0,0,-1,1994,806,0,0
777,218,0,0,0,0,0,0,0,0,0,-1,2001,806,0,0
784,218,0,0,0,0,0,0,0,0,0,-1,2008,806,0,0
791,218,0,0,0,0,0,0,0,0,0,-1,2015,806,0,0
798,218,0,0,0,0,0,0,0,0,0,-1,2022,806,0,0
805,218,0,0,0,0,0,0,0,0,0,-1,2029,806,0,0
812,218,0,0,0,0,0,0,0,0,0,-1,2036,806,0,0
-700,211,0,0,0,0,0,0,0,0,0,-1,524,813,0,0
-693,211,0,0,0,0,0,0,0,0,0,-1,531,813,0,0
-686,211,0,0,0,0,0,0,0,0,0,-1,538,813,0,0
-679,211,0,0,0,0,0,0,0,0,0,-1,545,813,0,0
-672,211,0,0,0,0,0,0,0,0,0,-1,552,813,0,0
-665,211,0,0,0,0,0,0,0,0,0,-1,559,813,0,0
-658,211,0,0,0,0,0,0,0,0,0,-1,566,813,0,0
-651,211,-31.6703,2.68042,0,0,0,0,0,0,0,-1,573,813,-31.6703,-2.68041
-644,211,-31.6545,4.41211,0,0,0,0,0,0,0,-1,580,813,-31.6545,-4.4121
-637,211,-31.5224,6.12036,0,0,0,0,0,0,0,-1,587,813,-31.5224,-6.12039
-630,211,-24.548,5.93097,0,0,0,0,0,0,0,-1,594,813,-24.548,-5.93094
-623,211,-23.3645,3.88855,0,0,0,0,0,0,0,-1,601,813,-23.3645,-3.88856
-616,211,-23.0951,3.39526,0,0,0,0,0,0,0,-1,608,813,-23.0951,-3.39525
-609,211,-23.1093,2.90698,0.0133125,0.0185017,0.0054125,0.0219094,0.00990485,1.0089,0.0126687,0.0396943,615,813,-23.1093,-2.90699
-602,211,-23.1606,2.42511,0.00784485,0.0132771,0.00250249,0.0142542,0.00686777,1.19855,0.00823147,0.0215472,622,813,-23.1606,-2.42508
-595,211,-23.2305,1.97589,0.00431031,0.00917639,0.000959756,0.00935884,0.00412785,1.38293,0.00541583,0.0109608,629,813,-23.2305,-1.9759
-588,211,-23.2278,1.4931,0.00164452,0.00573687,0.000230308,0.00574979,0.0016316,1.51475,0.00342156,0.010767,636,813,-23.2278,-1.49309
-581,211,-23.2419,1.00623,-0.000385611,0.00332097,2.5128e-05,0.00332114,-0.000385781,1.56402,0.00235325,0.0116076,643,813,-23.2419,-1.00623
-574,211,-23.2855,0.522095,-0.000918549,0.00106555,0.000414926,0.00114882,-0.00100183,1.37273,0.00124264,0.0124735,650,813,-23.2855,-0.522072
-567,211,-23.2969,0.0413818,-0.000834347,-0.000590446,0.00116896,0.000462907,-0.0018877,0.837372,0.00143783,0.0188069,657,813,-23.2969,-0.0414013
-560,211,-23.3282,-0.441101,-0.00058622,-0.00171948,0.00201245,0.000937849,-0.00324355,0.64817,0.00253352,0.022519,664,813,-23.3282,0.441096
-553,211,-23.1627,-0.973511,-0.000312647,-0.00266067,0.00257666,0.00134486,-0.00431817,0.571635,0.00341647,0.0318557,671,813,-23.1627,0.973521
-546,211,-23.4742,-1.33759,3.44962e-05,-0.00313002,0.00271028,0.00159057,-0.00468609,0.521187,0.00376787,0.0426887,678,813,-23.4742,1.33758
-539,211,-23.4594,-1.87921,0.00082437,-0.00389905,0.00274393,0.002083,-0.00515768,0.430061,0.00430421,0.0284762,685,813,-23.4594,1.87919
-532,211,-23.3879,-2.51965,0,0,0,0,0,0,0,-1,692,813,-23.388,2.51966
-525,211,-14.3009,2.3233,0,0,0,0,0,0,0,-1,699,813,-14.3009,-2.3233
-518,211,-33.4044,0.0662231,0,0,0,0,0,0,0,-1,706,813,-33.4044,-0.0662305
-511,211,-33.1967,0.373291,0,0,0,0,0,0,0,-1,713,813,-33.1967,-0.373282
-504,211,-33.2342,1.12231,0,0,0,0,0,0,0,-1,720,813,-33.2342,-1.12234
-497,211,-33.3802,1.04736,0,0,0,0,0,0,0,-1,727,813,-33.3803,-1.04738
-490,211,-33.2833,1.15771,0.00702576,-0.00440497,-0.00278419,0.00766784,-0.00504705,-0.226654,0.00739274,0.0360777,734,813,-33.2833,-1.15772
-483,211,-33.1879,1.2002,0.00768602,-0.00347684,-0.00458938,0.00933057,-0.00512139,-0.344084,0.00846099,0.032836,741,813,-33.1879,-1.20017
-476,211,-33.1003,1.19952,0.00772212,-0.00189374,-0.00609575,0.0106778,-0.00484947,-0.451481,0.0091728,0.0373352,748,813,-33.1004,-1.1995
-469,211,0,0,0,0,0,0,0,0,0,-1,755,813,0,0
-462,211,0,0,0,0,0,0,0,0,0,-1,762,813,0,0
-455,211,0,0,0,0,0,0,0,0,0,-1,769,813,0,0
-448,211,0,0,0,0,0,0,0,0,0,-1,776,813,0,0
-441,211,0,0,0,0,0,0,0,0,0,-1,783,813,0,0
-434,211,0,0,0,0,0,0,0,0,0,-1,790,813,0,0
-427,211,0,0,0,0,0,0,0,0,0,-1,797,813,0,0
-420,211,0,0,0,0,0,0,0,0,0,-1,804,813,0,0
-413,211,0,0,0,0,0,0,0,0,0,-1,811,813,0,0
-406,211,0,0,0,0,0,0,0,0,0,-1,818,813,0,0
-399,211,0,0,0,0,0,0,0,0,0,-1,825,813,0,0
-392,211,0,0,0,0,0,0,0,0,0,-1,832,813,0,0
-385,211,0,0,0,0,0,0,0,0,0,-1,839,813,0,0
-378,211,0,0,0,0,0,0,0,0,0,-1,846,813,0,0
-371,211,0,0,0,0,0,0,0,0,0,-1,853,813,0,0
-364,211,0,0,0,0,0,0,0,0,0,-1,860,813,0,0
-357,211,0,0,0,0,0,0,0,0,0,-1,867,813,0,0
-350,211,0,0,0,0,0,0,0,0,0,-1,874,813,0,0
-343,211,0,0,0,0,0,0,0,0,0,-1,881,813,0,0
-336,211,0,0,0,0,0,0,0,0,0,-1,888,813,0,0
-329,211,0,0,0,0,0,0,0,0,0,-1,895,813,0,0
-322,211,0,0,0,0,0,0,0,0,0,-1,902,813,0,0
-315,211,0,0,0,0,0,0,0,0,0,-1,909,813,0,0
-308,211,0,0,0,0,0,0,0,0,0,-1,916,813,0,0
-301,211,0,0,0,0,0,0,0,0,0,-1,923,813,0,0
-294,211,0,0,0,0,0,0,0,0,0,-1,930,813,0,0
-287,211,0,0,0,0,0,0,0,0,0,-1,937,813,0,0
-280,211,0,0,0,0,0,0,0,0,0,-1,944,813,0,0
-273,211,0,0,0,0,0,0,0,0,0,-1,951,813,0,0
-266,211,0,0,0,0,0,0,0,0,0,-1,958,813,0,0
-259,211,0,0,0,0,0,0,0,0,0,-1,965,813,0,0
-252,211,0,0,0,0,0,0,0,0,0,-1,972,813,0,0
-245,211,0,0,0,0,0,0,0,0,0,-1,979,813,0,0
-238,211,0,0,0,0,0,0,0,0,0,-1,986,813,0,0
-231,211,0,0,0,0,0,0,0,0,0,-1,993,813,0,0
-224,211,0,0,0,0,0,0,0,0,0,-1,1000,813,0,0
-217,211,0,0,0,0,0,0,0,0,0,-1,1007,813,0,0
-210,211,0,0,0,0,0,0,0,0,0,-1,1014,813,0,0
-203,211,0,0,0,0,0,0,0,0,0,-1,1021,813,0,0
-196,211,0,0,0,0,0,0,0,0,0,-1,1028,813,0,0
-189,211,0,0,0,0,0,0,0,0,0,-1,1035,813,0,0
-182,211,0,0,0,0,0,0,0,0,0,-1,1042,813,0,0
-175,211,0,0,0,0,0,0,0,0,0,-1,1049,813,0,0
-168,211,0,0,0,0,0,0,0,0,0,-1,1056,813,0,0
-161,211,0,0,0,0,0,0,0,0,0,-1,1063,813,0,0
-154,211,0,0,0,0,0,0,0,0,0,-1,1070,813,0,0
-147,211,0,0,0,0,0,0,0,0,0,-1,1077,813,0,0
-140,211,0,0,0,0,0,0,0,0,0,-1,1084,813,0,0
-133,211,0,0,0,0,0,0,0,0,0,-1,1091,813,0,0
-126,211,0,0,0,0,0,0,0,0,0,-1,1098,813,0,0
-119,211,0,0,0,0,0,0,0,0,0,-1,1105,813,0,0
-112,211,0,0,0,0,0,0,0,0,0,-1,1112,813,0,0
-105,211,0,0,0,0,0,0,0,0,0,-1,1119,813,0,0
-98,211,0,0,0,0,0,0,0,0,0,-1,1126,813,0,0
-91,211,0,0,0,0,0,0,0,0,0,-1,1133,813,0,0
-84,211,0,0,0,0,0,0,0,0,0,-1,1140,813,0,0
-77,211,0,0,0,0,0,0,0,0,0,-1,1147,813,0,0
-70,211,0,0,0,0,0,0,0,0,0,-1,1154,813,0,0
-63,211,0,0,0,0,0,0,0,0,0,-1,1161,813,0,0
-56,211,0,0,0,0,0,0,0,0,0,-1,1168,813,0,0
-49,211,0,0,0,0,0,0,0,0,0,-1,1175,813,0,0
-42,211,0,0,0,0,0,0,0,0,0,-1,1182,813,0,0
-35,211,0,0,0,0,0,0,0,0,0,-1,1189,813,0,0
-28,211,0,0,0,0,0,0,0,0,0,-1,1196,813,0,0
-21,211,0,0,0,0,0,0,0,0,0,-1,1203,813,0,0
-14,211,0,0,0,0,0,0,0,0,0,-1,1210,813,0,0
-7,211,0,0,0,0,0,0,0,0,0,-1,1217,813,0,0
0,211,0,0,0,0,0,0,0,0,0,-1,1224,813,0,0
7,211,0,0,0,0,0,0,0,0,0,-1,1231,813,0,0
14,211,0,0,0,0,0,0,0,0,0,-1,1238,813,0,0
21,211,0,0,0,0,0,0,0,0,0,-1,1245,813,0,0
28,211,0,0,0,0,0,0,0,0,0,-1,1252,813,0,0
35,211,0,0,0,0,0,0,0,0,0,-1,1259,813,0,0
42,211,0,0,0,0,0,0,0,0,0,-1,1266,813,0,0
49,211,0,0,0,0,0,0,0,0,0,-1,1273,813,0,0
56,211,0,0,0,0,0,0,0,0,0,-1,1280,813,0,0
63,211,0,0,0,0,0,0,0,0,0,-1,1287,813,0,0
70,211,0,0,0,0,0,0,0,0,0,-1,1294,813,0,0
77,211,0,0,0,0,0,0,0,0,0,-1,1301,813,0,0
84,211,0,0,0,0,0,0,0,0,0,-1,1308,813,0,0
91,211,0,0,0,0,0,0,0,0,0,-1,1315,813,0,0
98,211,0,0,0,0,0,0,0,0,0,-1,1322,813,0,0
105,211,0,0,0,0,0,0,0,0,0,-1,1329,813,0,0
112,211,0,0,0,0,0,0,0,0,0,-1,1336,813,0,0
119,211,0,0,0,0,0,0,0,0,0,-1,1343,813,0,0
126,211,0,0,0,0,0,0,0,0,0,-1,1350,813,0,0
133,211,0,0,0,0,0,0,0,0,0,-1,1357,813,0,0
140,211,0,0,0,0,0,0,0,0,0,-1,1364,813,0,0
147,211,0,0,0,0,0,0,0,0,0,-1,1371,813,0,0
154,211,0,0,0,0,0,0,0,0,0,-1,1378,813,0,0
161,211,0,0,0,0,0,0,0,0,0,-1,1385,813,0,0
168,211,0,0,0,0,0,0,0,0,0,-1,1392,813,0,0
175,211,0,0,0,0,0,0,0,0,0,-1,1399,813,0,0
182,211,0,0,0,0,0,0,0,0,0,-1,1406,813,0,0
189,211,0,0,0,0,0,0,0,0,0,-1,1413,813,0,0
196,211,0,0,0,0,0,0,0,0,0,-1,1420,813,0,0
203,211,0,0,0,0,0,0,0,0,0,-1,1427,813,0,0
210,211,0,0,0,0,0,0,0,0,0,-1,1434,813,0,0
217,211,0,0,0,0,0,0,0,0,0,-1,1441,813,0,0
224,211,0,0,0,0,0,0,0,0,0,-1,1448,813,0,0
231,211,0,0,0,0,0,0,0,0,0,-1,1455,813,0,0
238,211,0,0,0,0,0,0,0,0,0,-1,1462,813,0,0
245,211,0,0,0,0,0,0,0,0,0,-1,1469,813,0,0
252,211,0,0,0,0,0,0,0,0,0,-1,1476,813,0,0
259,211,0,0,0,0,0,0,0,0,0,-1,1483,813,0,0
266,211,0,0,0,0,0,0,0,0,0,-1,1490,813,0,0
273,211,0,0,0,0,0,0,0,0,0,-1,1497,813,0,0
280,211,0,0,0,0,0,0,0,0,0,-1,1504,813,0,0
287,211,0,0,0,0,0,0,0,0,0,-1,1511,813,0,0
294,211,0,0,0,0,0,0,0,0,0,-1,1518,813,0,0
301,211,0,0,0,0,0,0,0,0,0,-1,1525,813,0,0
308,211,0,0,0,0,0,0,0,0,0,-1,1532,813,0,0
315,211,0,0,0,0,0,0,0,0,0,-1,1539,813,0,0
322,211,0,0,0,0,0,0,0,0,0,-1,1546,813,0,0
329,211,0,0,0,0,0,0,0,0,0,-1,1553,813,0,0
336,211,0,0,0,0,0,0,0,0,0,-1,1560,813,0,0
343,211,0,0,0,0,0,0,0,0,0,-1,1567,813,0,0
350,211,0,0,0,0,0,0,0,0,0,-1,1574,813,0,0
357,211,0,0,0,0,0,0,0,0,0,-1,1581,813,0,0
364,211,0,0,0,0,0,0,0,0,0,-1,1588,813,0,0
371,211,0,0,0,0,0,0,0,0,0,-1,1595,813,0,0
378,211,0,0,0,0,0,0,0,0,0,-1,1602,813,0,0
385,211,0,0,0,0,0,0,0,0,0,-1,1609,813,0,0
392,211,0,0,0,0,0,0,0,0,0,-1,1616,813,0,0
399,211,0,0,0,0,0,0,0,0,0,-1,1623,813,0,0
406,211,0,0,0,0,0,0,0,0,0,-1,1630,813,0,0
413,211,0,0,0,0,0,0,0,0,0,-1,1637,813,0,0
420,211,0,0,0,0,0,0,0,0,0,-1,1644,813,0,0
427,211,0,0,0,0,0,0,0,0,0,-1,1651,813,0,0
434,211,0,0,0,0,0,0,0,0,0,-1,1658,813,0,0
441,211,0,0,0,0,0,0,0,0,0,-1,1665,813,0,0
448,211,0,0,0,0,0,0,0,0,0,-1,1672,813,0,0
455,211,0,0,0,0,0,0,0,0,0,-1,1679,813,0,0
462,211,0,0,0,0,0,0,0,0,0,-1,1686,813,0,0
469,211,0,0,0,0,0,0,0,0,0,-1,1693,813,0,0
476,211,0,0,0,0,0,0,0,0,0,-1,1700,813,0,0
483,211,0,0,0,0,0,0,0,0,0,-1,1707,813,0,0
490,211,0,0,0,0,0,0,0,0,0,-1,1714,813,0,0
497,211,0,0,0,0,0,0,0,0,0,-1,1721,813,0,0
504,211,0,0,0,0,0,0,0,0,0,-1,1728,813,0,0
511,211,0,0,0,0,0,0,0,0,0,-1,1735,813,0,0
518,211,0,0,0,0,0,0,0,0,0,-1,1742,813,0,0
525,211,0,0,0,0,0,0,0,0,0,-1,1749,813,0,0
532,211,0,0,0,0,0,0,0,0,0,-1,1756,813,0,0
539,211,0,0,0,0,0,0,0,0,0,-1,1763,813,0,0
546,211,0,0,0,0,0,0,0,0,0,-1,1770,813,0,0
553,211,0,0,0,0,0,0,0,0,0,-1,1777,813,0,0
560,211,0,0,0,0,0,0,0,0,0,-1,1784,813,0,0
567,211,0,0,0,0,0,0,0,0,0,-1,1791,813,0,0
574,211,0,0,0,0,0,0,0,0,0,-1,1798,813,0,0
581,211,0,0,0,0,0,0,0,0,0,-1,1805,813,0,0
588,211,0,0,0,0,0,0,0,0,0,-1,1812,813,0,0
595,211,44.9353,2.52661,0.00336038,0.0017493,-0.004083,0.00671654,-0.00160687,-0.688004,0.00509843,0.0400095,1819,813,44.9353,-2.5266
602,211,44.8248,2.66351,0.00128135,0.00214242,0.000549287,0.00240979,0.00101398,1.11779,0.0013971,0.0355422,1826,813,44.8248,-2.66354
609,211,44.7904,2.74078,0.000261322,0.00261395,0.00405834,0.00566301,-0.00278774,0.926458,0.00497229,0.0341576,1833,813,44.7904,-2.74081
616,211,44.7881,2.74512,0.000319676,0.00289849,0.00588856,0.00763716,-0.004419,0.893181,0.0070428,0.0307504,1840,813,44.7881,-2.74509
623,211,44.7813,2.78931,0.000618961,0.00271034,0.00594263,0.00769858,-0.00436928,0.872489,0.00705521,0.0318031,1847,813,44.7813,-2.78933
630,211,44.8427,2.74976,0.000869737,0.00248374,0.00521081,0.00694967,-0.00359619,0.862223,0.00619042,0.0361248,1854,813,44.8426,-2.74978
637,211,44.9349,2.79126,0.000847221,0.00208017,0.00426521,0.00577322,-0.00284583,0.857169,0.00507098,0.0402734,1861,813,44.9349,-2.79128
644,211,44.979,2.87006,0,0,0,0,0,0,0,-1,1868,813,44.979,-2.87008
651,211,43.2537,2.62592,0,0,0,0,0,0,0,-1,1875,813,43.2537,-2.62594
658,211,27.7909,1.52234,0,0,0,0,0,0,0,-1,1882,813,27.7909,-1.52234
665,211,33.9851,0.31134,0,0,0,0,0,0,0,-1,1889,813,33.9851,-0.311343
672,211,33.8494,0.637756,-0.000100271,0.000356877,0.000123054,0.000387896,-0.00013129,1.32387,0.000311717,0.0377011,1896,813,33.8494,-0.637737
679,211,33.7175,1.03479,-0.000778182,-1.92837e-05,-0.000328679,0.000103274,-0.00090074,-1.21388,0.000637712,0.0219688,1903,813,33.7175,-1.0348
686,211,33.5692,1.51355,-0.00111758,-0.000372339,-0.000657714,1.09736e-05,-0.00150089,-1.04312,0.00100427,0.0123203,1910,813,33.5692,-1.51354
693,211,33.5507,2.00867,-0.00118506,-0.000217292,-0.000846047,0.000273473,-0.00167582,-1.04516,0.00121864,0.0118123,1917,813,33.5506,-2.00869
700,211,33.4525,2.48798,-0.000912067,2.4734e-05,-0.000380952,0.000160091,-0.00104742,-1.2294,0.000757308,0.0134303,1924,813,33.4525,-2.48795
707,211,33.458,3.02087,-0.000316874,0.00146895,0.000525601,0.00161216,-0.000460084,1.30478,0.00125653,0.0200938,1931,813,33.458,-3.02087
714,211,33.486,3.57147,0.000586974,0.00360961,0.00210239,0.00468752,-0.000490941,1.09703,0.00330085,0.0211572,1938,813,33.4859,-3.57146
721,211,33.4866,4.05438,0.00145966,0.00613312,0.00409266,0.00850915,-0.000916375,1.04479,0.00600159,0.0174555,1945,813,33.4866,-4.0544
728,211,33.5051,4.54401,0.00222779,0.00940886,0.00655495,0.0132922,-0.00165559,1.03596,0.00946176,0.0166526,1952,813,33.5051,-4.54403
735,211,33.5728,5.10223,0.00291445,0.0138168,0.00965935,0.019457,-0.00272572,1.04229,0.0139689,0.0268401,1959,813,33.5727,-5.10221
742,211,33.7694,5.73932,0.00364928,0.0197667,0.0137365,0.0276339,-0.00421791,1.05068,0.0199776,0.0474672,1966,813,33.7694,-5.73929
749,211,33.8723,6.21594,0,0,0,0,0,0,0,-1,1973,813,33.8723,-6.21592
756,211,32.5559,7.93188,0,0,0,0,0,0,0,-1,1980,813,32.556,-7.93189
763,211,32.7439,9.03937,0,0,0,0,0,0,0,-1,1987,813,32.7438,-9.03939
770,211,27.9138,9.25177,0,0,0,0,0,0,0,-1,1994,813,27.9139,-9.25176
777,211,0,0,0,0,0,0,0,0,0,-1,2001,813,0,0
784,211,0,0,0,0,0,0,0,0,0,-1,2008,813,0,0
791,211,0,0,0,0,0,0,0,0,0,-1,2015,813,0,0
798,211,0,0,0,0,0,0,0,0,0,-1,2022,813,0,0
805,211,0,0,0,0,0,0,0,0,0,-1,2029,813,0,0
812,211,0,0,0,0,0,0,0,0,0,-1,2036,813,0,0
-700,204,0,0,0,0,0,0,0,0,0,-1,524,820,0,0
-693,204,0,0,0,0,0,0,0,0,0,-1,531,820,0,0
-686,204,0,0,0,0,0,0,0,0,0,-1,538,820,0,0
-679,204,0,0,0,0,0,0,0,0,0,-1,545,820,0,0
-672,204,0,0,0,0,0,0,0,0,0,-1,552,820,0,0
-665,204,0,0,0,0,0,0,0,0,0,-1,559,820,0,0
-658,204,0,0,0,0,0,0,0,0,0,-1,566,820,0,0
-651,204,-30.9467,3.40283,0,0,0,0,0,0,0,-1,573,820,-30.9467,-3.40284
-644,204,-30.6304,4.97833,0,0,0,0,0,0,0,-1,580,820,-30.6304,-4.97831
-637,204,-24.3679,6.19324,0,0,0,0,0,0,0,-1,587,820,-24.3679,-6.19322
-630,204,-24.3862,5.71533,0,0,0,0,0,0,0,-1,594,820,-24.3862,-5.71536
-623,204,-23.5259,3.22345,0,0,0,0,0,0,0,-1,601,820,-23.5259,-3.22344
-616,204,-23.5128,3.44995,0,0,0,0,0,0,0,-1,608,820,-23.5128,-3.44996
-609,204,-23.5809,2.96094,0.0143325,0.017584,0.00820688,0.0243246,0.00759189,0.883183,0.0143706,0.0335503,615,820,-23.5809,-2.96091
-602,204,-23.6797,2.47827,0.00827188,0.0124434,0.00480108,0.0155922,0.00512305,0.990314,0.00917684,0.0153917,622,820,-23.6797,-2.4783
-595,204,-23.7173,1.99731,0.00433978,0.00838183,0.00273431,0.00976095,0.00296066,1.10365,0.00577899,0.0142992,629,820,-23.7173,-1.9973
-588,204,-23.7305,1.49274,0.00140734,0.00493476,0.00154063,0.00551289,0.000829209,1.2118,0.00343241,0.0124124,636,820,-23.7305,-1.49276
-581,204,-23.7481,0.998535,-0.000783166,0.00256209,0.000934199,0.0028053,-0.00102637,1.31612,0.00229031,0.0119707,643,820,-23.7481,-0.998542
-574,204,-23.7788,0.526611,-0.00122565,0.000315726,0.000948705,0.000767333,-0.00167725,1.12651,0.0014436,0.0127036,650,820,-23.7788,-0.526583
-567,204,-23.7595,0.0622559,-0.000881798,-0.00117002,0.00147498,0.000456093,-0.00250791,0.736701,0.00184288,0.0127127,657,820,-23.7595,-0.0622343
-560,204,-23.7576,-0.437012,-0.000393148,-0.00221327,0.00207559,0.000963133,-0.00356955,0.578791,0.0027574,0.0149571,664,820,-23.7576,0.436997
-553,204,-23.8383,-0.855774,2.03074e-05,-0.00307488,0.00244419,0.00136565,-0.00442023,0.50317,0.00349221,0.018729,671,820,-23.8383,0.855752
-546,204,-23.9649,-1.24957,0.000403194,-0.00345059,0.00248175,0.00161828,-0.00466567,0.455299,0.00376756,0.0241721,678,820,-23.9649,1.24956
-539,204,-23.8957,-1.80695,0.00114859,-0.00417386,0.00250746,0.0021438,-0.00516906,0.377829,0.00434084,0.0463697,685,820,-23.8957,1.80695
-532,204,-23.8054,-2.55658,0,0,0,0,0,0,0,-1,692,820,-23.8054,2.55659
-525,204,-25.7137,1.52496,0,0,0,0,0,0,0,-1,699,820,-25.7137,-1.52496
-518,204,-33.3513,0.859619,0,0,0,0,0,0,0,-1,706,820,-33.3513,-0.859633
-511,204,-32.748,1.04297,0,0,0,0,0,0,0,-1,713,820,-32.7481,-1.04298
-504,204,-33.3678,0.977539,0,0,0,0,0,0,0,-1,720,820,-33.3678,-0.97751
-497,204,-33.3204,1.11774,0.00664033,-0.00543717,-0.000685136,0.00667907,-0.00547591,-0.0564868,0.00702913,0.0441444,727,820,-33.3204,-1.11776
-490,204,-33.2283,1.22144,0.00732754,-0.00496516,-0.00192573,0.00762216,-0.00525978,-0.151813,0.00747896,0.0359264,734,820,-33.2283,-1.22145
-483,204,-33.0659,1.26904,0.00780481,-0.00386584,-0.00360439,0.00882825,-0.00488928,-0.276661,0.00802792,0.0406039,741,820,-33.0659,-1.26905
-476,204,0,0,0,0,0,0,0,0,0,-1,748,820,0,0
-469,204,0,0,0,0,0,0,0,0,0,-1,755,820,0,0
-462,204,0,0,0,0,0,0,0,0,0,-1,762,820,0,0
-455,204,0,0,0,0,0,0,0,0,0,-1,769,820,0,0
-448,204,0,0,0,0,0,0,0,0,0,-1,776,820,0,0
-441,204,0,0,0,0,0,0,0,0,0,-1,783,820,0,0
-434,204,0,0,0,0,0,0,0,0,0,-1,790,820,0,0
-427,204,0,0,0,0,0,0,0,0,0,-1,797,820,0,0
-420,204,0,0,0,0,0,0,0,0,0,-1,804,820,0,0
-413,204,0,0,0,0,0,0,0,0,0,-1,811,820,0,0
-406,204,0,0,0,0,0,0,0,0,0,-1,818,820,0,0
-399,204,0,0,0,0,0,0,0,0,0,-1,825,820,0,0
-392,204,0,0,0,0,0,0,0,0,0,-1,832,820,0,0
-385,204,0,0,0,0,0,0,0,0,0,-1,839,820,0,0
-378,204,0,0,0,0,0,0,0,0,0,-1,846,820,0,0
-371,204,0,0,0,0,0,0,0,0,0,-1,853,820,0,0
-364,204,0,0,0,0,0,0,0,0,0,-1,860,820,0,0
-357,204,0,0,0,0,0,0,0,0,0,-1,867,820,0,0
-350,204,0,0,0,0,0,0,0,0,0,-1,874,820,0,0
-343,204,0,0,0,0,0,0,0,0,0,-1,881,820,0,0
-336,204,0,0,0,0,0,0,0,0,0,-1,888,820,0,0
-329,204,0,0,0,0,0,0,0,0,0,-1,895,820,0,0
-322,204,0,0,0,0,0,0,0,0,0,-1,902,820,0,0
-315,204,0,0,0,0,0,0,0,0,0,-1,909,820,0,0
-308,204,0,0,0,0,0,0,0,0,0,-1,916,820,0,0
-301,204,0,0,0,0,0,0,0,0,0,-1,923,820,0,0
-294,204,0,0,0,0,0,0,0,0,0,-1,930,820,0,0
-287,204,0,0,0,0,0,0,0,0,0,-1,937,820,0,0
-280,204,0,0,0,0,0,0,0,0,0,-1,944,820,0,0
-273,204,0,0,0,0,0,0,0,0,0,-1,951,820,0,0
-266,204,0,0,0,0,0,0,0,0,0,-1,958,820,0,0
-259,204,0,0,0,0,0,0,0,0,0,-1,965,820,0,0
-252,204,0,0,0,0,0,0,0,0,0,-1,972,820,0,0
-245,204,0,0,0,0,0,0,0,0,0,-1,979,820,0,0
-238,204,0,0,0,0,0,0,0,0,0,-1,986,820,0,0
-231,204,0,0,0,0,0,0,0,0,0,-1,993,820,0,0
-224,204,0,0,0,0,0,0,0,0,0,-1,1000,820,0,0
-217,204,0,0,0,0,0,0,0,0,0,-1,1007,820,0,0
-210,204,0,0,0,0,0,0,0,0,0,-1,1014,820,0,0
-203,204,0,0,0,0,0,0,0,0,0,-1,1021,820,0,0
-196,204,0,0,0,0,0,0,0,0,0,-1,1028,820,0,0
-189,204,0,0,0,0,0,0,0,0,0,-1,1035,820,0,0
-182,204,0,0,0,0,0,0,0,0,0,-1,1042,820,0,0
-175,204,0,0,0,0,0,0,0,0,0,-1,1049,820,0,0
-168,204,0,0,0,0,0,0,0,0,0,-1,1056,820,0,0
-161,204,0,0,0,0,0,0,0,0,0,-1,1063,820,0,0
-154,204,0,0,0,0,0,0,0,0,0,-1,1070,820,0,0
-147,204,0,0,0,0,0,0,0,0,0,-1,1077,820,0,0
-140,204,0,0,0,0,0,0,0,0,0,-1,1084,820,0,0
-133,204,0,0,0,0,0,0,0,0,0,-1,1091,820,0,0
-126,204,0,0,0,0,0,0,0,0,0,-1,1098,820,0,0
-119,204,0,0,0,0,0,0,0,0,0,-1,1105,820,0,0
-112,204,0,0,0,0,0,0,0,0,0,-1,1112,820,0,0
-105,204,0,0,0,0,0,0,0,0,0,-1,1119,820,0,0
-98,204,0,0,0,0,0,0,0,0,0,-1,1126,820,0,0
-91,204,0,0,0,0,0,0,0,0,0,-1,1133,820,0,0
-84,204,0,0,0,0,0,0,0,0,0,-1,1140,820,0,0
-77,204,0,0,0,0,0,0,0,0,0,-1,1147,820,0,0
-70,204,0,0,0,0,0,0,0,0,0,-1,1154,820,0,0
-63,204,0,0,0,0,0,0,0,0,0,-1,1161,820,0,0
-56,204,0,0,0,0,0,0,0,0,0,-1,1168,820,0,0
-49,204,0,0,0,0,0,0,0,0,0,-1,1175,820,0,0
-42,204,0,0,0,0,0,0,0,0,0,-1,1182,820,0,0
-35,204,0,0,0,0,0,0,0,0,0,-1,1189,820,0,0
-28,204,0,0,0,0,0,0,0,0,0,-1,1196,820,0,0
-21,204,0,0,0,0,0,0,0,0,0,-1,1203,820,0,0
-14,204,0,0,0,0,0,0,0,0,0,-1,1210,820,0,0
-7,204,0,0,0,0,0,0,0,0,0,-1,1217,820,0,0
0,204,0,0,0,0,0,0,0,0,0,-1,1224,820,0,0
7,204,0,0,0,0,0,0,0,0,0,-1,1231,820,0,0
14,204,0,0,0,0,0,0,0,0,0,-1,1238,820,0,0
21,204,0,0,0,0,0,0,0,0,0,-1,1245,820,0,0
28,204,0,0,0,0,0,0,0,0,0,-1,1252,820,0,0
35,204,0,0,0,0,0,0,0,0,0,-1,1259,820,0,0
42,204,0,0,0,0,0,0,0,0,0,-1,1266,820,0,0
49,204,0,0,0,0,0,0,0,0,0,-1,1273,820,0,0
56,204,0,0,0,0,0,0,0,0,0,-1,1280,820,0,0
63,204,0,0,0,0,0,0,0,0,0,-1,1287,820,0,0
70,204,0,0,0,0,0,0,0,0,0,-1,1294,820,0,0
77,204,0,0,0,0,0,0,0,0,0,-1,1301,820,0,0
84,204,0,0,0,0,0,0,0,0,0,-1,1308,820,0,0
91,204,0,0,0,0,0,0,0,0,0,-1,1315,820,0,0
98,204,0,0,0,0,0,0,0,0,0,-1,1322,820,0,0
105,204,0,0,0,0,0,0,0,0,0,-1,1329,820,0,0
112,204,0,0,0,0,0,0,0,0,0,-1,1336,820,0,0
119,204,0,0,0,0,0,0,0,0,0,-1,1343,820,0,0
126,204,0,0,0,0,0,0,0,0,0,-1,1350,820,0,0
133,204,0,0,0,0,0,0,0,0,0,-1,1357,820,0,0
140,204,0,0,0,0,0,0,0,0,0,-1,1364,820,0,0
147,204,0,0,0,0,0,0,0,0,0,-1,1371,820,0,0
154,204,0,0,0,0,0,0,0,0,0,-1,1378,820,0,0
161,204,0,0,0,0,0,0,0,0,0,-1,1385,820,0,0
168,204,0,0,0,0,0,0,0,0,0,-1,1392,820,0,0
175,204,0,0,0,0,0,0,0,0,0,-1,1399,820,0,0
182,204,0,0,0,0,0,0,0,0,0,-1,1406,820,0,0
189,204,0,0,0,0,0,0,0,0,0,-1,1413,820,0,0
196,204,0,0,0,0,0,0,0,0,0,-1,1420,820,0,0
203,204,0,0,0,0,0,0,0,0,0,-1,1427,820,0,0
210,204,0,0,0,0,0,0,0,0,0,-1,1434,820,0,0
217,204,0,0,0,0,0,0,0,0,0,-1,1441,820,0,0
224,204,0,0,0,0,0,0,0,0,0,-1,1448,820,0,0
231,204,0,0,0,0,0,0,0,0,0,-1,1455,820,0,0
238,204,0,0,0,0,0,0,0,0,0,-1,1462,820,0,0
245,204,0,0,0,0,0,0,0,0,0,-1,1469,820,0,0
252,204,0,0,0,0,0,0,0,0,0,-1,1476,820,0,0
259,204,0,0,0,0,0,0,0,0,0,-1,1483,820,0,0
266,204,0,0,0,0,0,0,0,0,0,-1,1490,820,0,0
273,204,0,0,0,0,0,0,0,0,0,-1,1497,820,0,0
280,204,0,0,0,0,0,0,0,0,0,-1,1504,820,0,0
287,204,0,0,0,0,0,0,0,0,0,-1,1511,820,0,0
294,204,0,0,0,0,0,0,0,0,0,-1,1518,820,0,0
301,204,0,0,0,0,0,0,0,0,0,-1,1525,820,0,0
308,204,0,0,0,0,0,0,0,0,0,-1,1532,820,0,0
315,204,0,0,0,0,0,0,0,0,0,-1,1539,820,0,0
322,204,0,0,0,0,0,0,0,0,0,-1,1546,820,0,0
329,204,0,0,0,0,0,0,0,0,0,-1,1553,820,0,0
336,204,0,0,0,0,0,0,0,0,0,-1,1560,820,0,0
343,204,0,0,0,0,0,0,0,0,0,-1,1567,820,0,0
350,204,0,0,0,0,0,0,0,0,0,-1,1574,820,0,0
357,204,0,0,0,0,0,0,0,0,0,-1,1581,820,0,0
364,204,0,0,0,0,0,0,0,0,0,-1,1588,820,0,0
371,204,0,0,0,0,0,0,0,0,0,-1,1595,820,0,0
378,204,0,0,0,0,0,0,0,0,0,-1,1602,820,0,0
385,204,0,0,0,0,0,0,0,0,0,-1,1609,820,0,0
392,204,0,0,0,0,0,0,0,0,0,-1,1616,820,0,0
399,204,0,0,0,0,0,0,0,0,0,-1,1623,820,0,0
406,204,0,0,0,0,0,0,0,0,0,-1,1630,820,0,0
413,204,0,0,0,0,0,0,0,0,0,-1,1637,820,0,0
420,204,0,0,0,0,0,0,0,0,0,-1,1644,820,0,0
427,204,0,0,0,0,0,0,0,0,0,-1,1651,820,0,0
434,204,0,0,0,0,0,0,0,0,0,-1,1658,820,0,0
441,204,0,0,0,0,0,0,0,0,0,-1,1665,820,0,0
448,204,0,0,0,0,0,0,0,0,0,-1,1672,820,0,0
455,204,0,0,0,0,0,0,0,0,0,-1,1679,820,0,0
462,204,0,0,0,0,0,0,0,0,0,-1,1686,820,0,0
469,204,0,0,0,0,0,0,0,0,0,-1,1693,820,0,0
476,204,0,0,0,0,0,0,0,0,0,-1,1700,820,0,0
483,204,0,0,0,0,0,0,0,0,0,-1,1707,820,0,0
490,204,0,0,0,0,0,0,0,0,0,-1,1714,820,0,0
497,204,0,0,0,0,0,0,0,0,0,-1,1721,820,0,0
504,204,0,0,0,0,0,0,0,0,0,-1,1728,820,0,0
511,204,0,0,0,0,0,0,0,0,0,-1,1735,820,0,0
518,204,0,0,0,0,0,0,0,0,0,-1,1742,820,0,0
525,204,0,0,0,0,0,0,0,0,0,-1,1749,820,0,0
532,204,0,0,0,0,0,0,0,0,0,-1,1756,820,0,0
539,204,0,0,0,0,0,0,0,0,0,-1,1763,820,0,0
546,204,0,0,0,0,0,0,0,0,0,-1,1770,820,0,0
553,204,0,0,0,0,0,0,0,0,0,-1,1777,820,0,0
560,204,0,0,0,0,0,0,0,0,0,-1,1784,820,0,0
567,204,0,0,0,0,0,0,0,0,0,-1,1791,820,0,0
574,204,0,0,0,0,0,0,0,0,0,-1,1798,820,0,0
581,204,0,0,0,0,0,0,0,0,0,-1,1805,820,0,0
588,204,0,0,0,0,0,0,0,0,0,-1,1812,820,0,0
595,204,0,0,0,0,0,0,0,0,0,-1,1819,820,0,0
602,204,44.7841,2.75348,0.00305831,0.00142911,-0.00214199,0.00453536,-4.79452e-05,-0.603693,0.00303968,0.0371589,1826,820,44.784,-2.7535
609,204,44.7848,2.8302,0.00236068,0.00216914,0.000874571,0.00314471,0.00138511,0.730862,0.00181988,0.0349195,1833,820,44.7848,-2.83022
616,204,44.7705,2.87677,0.00231339,0.00277834,0.00303464,0.0055894,-0.000497669,0.823627,0.00390275,0.0353469,1840,820,44.7705,-2.87676
623,204,44.7714,2.80444,0.00226473,0.00283965,0.00378367,0.00634676,-0.00124239,0.823312,0.00470036,0.0293783,1847,820,44.7714,-2.80444
630,204,44.7592,2.75885,0.00206072,0.00275245,0.00365302,0.00607594,-0.00126277,0.832596,0.0045306,0.0275156,1854,820,44.7592,-2.75884
637,204,44.7876,2.80542,0.00166493,0.00236881,0.00307331,0.00511027,-0.00107652,0.842407,0.00381663,0.0323409,1861,820,44.7877,-2.80545
644,204,44.8511,2.90509,0.00119542,0.00188814,0.00249068,0.00405643,-0.000972866,0.854486,0.00308022,0.0400744,1868,820,44.851,-2.90506
651,204,44.9722,2.98834,0,0,0,0,0,0,0,-1,1875,820,44.9722,-2.98834
658,204,34.9631,1.64844,0,0,0,0,0,0,0,-1,1882,820,34.9631,-1.64842
665,204,21.8292,1.51099,0,0,0,0,0,0,0,-1,1889,820,21.8292,-1.51099
672,204,34.3727,0.550842,0,0,0,0,0,0,0,-1,1896,820,34.3726,-0.550841
679,204,34.1212,0.887695,-0.00101121,1.30535e-05,-0.000322792,0.000106293,-0.00110445,-1.2896,0.000774166,0.0379959,1903,820,34.1212,-0.887713
686,204,34.0665,1.4928,-0.00128361,-0.000398393,-0.000637691,-6.47597e-05,-0.00161725,-1.08877,0.00105724,0.0176981,1910,820,34.0665,-1.4928
693,204,34.0071,2.00073,-0.00141574,-0.000410505,-0.000936709,0.000149914,-0.00197616,-1.03164,0.00137015,0.016318,1917,820,34.0071,-2.00072
700,204,34.0444,2.52228,-0.00129561,-0.000327028,-0.000687562,2.96806e-05,-0.00165232,-1.09222,0.00111157,0.0180952,1924,820,34.0444,-2.52228
707,204,33.99,3.05078,-0.000867344,0.00101719,-1.30967e-05,0.00101728,-0.000867434,-1.56385,0.00108928,0.0168822,1931,820,33.99,-3.05077
714,204,33.9967,3.63177,-2.71275e-05,0.0031107,0.00134379,0.00360752,-0.000523947,1.21667,0.00259734,0.0241801,1938,820,33.9967,-3.63179
721,204,33.9846,4.07751,0.000812692,0.00571301,0.00312239,0.0072318,-0.000706104,1.11807,0.00507298,0.0219825,1945,820,33.9846,-4.0775
728,204,33.9603,4.54218,0.00184444,0.00902202,0.0052771,0.011815,-0.000948552,1.08401,0.00821114,0.0134727,1952,820,33.9604,-4.54215
735,204,33.9272,5.08337,0.00313473,0.0133685,0.00780947,0.0175881,-0.00108489,1.07541,0.0121033,0.0153213,1959,820,33.9272,-5.08337
742,204,33.9585,5.53906,0.0046362,0.0191224,0.0110278,0.0250731,-0.00131448,1.07597,0.0171703,0.0310697,1966,820,33.9585,-5.53904
749,204,33.9547,5.95874,0.00691616,0.0266971,0.0150614,0.0348251,-0.00121193,1.07592,0.0236311,0.0451005,1973,820,33.9547,-5.95871
756,204,33.2184,7.68756,0.0104321,0.0363916,0.0198228,0.0471061,-0.000282358,1.07527,0.0314986,0.0490269,1980,820,33.2184,-7.68754
763,204,33.3907,8.75122,0.015992,0.0485446,0.0251275,0.0622067,0.00232989,1.07279,0.0407167,0.0487647,1987,820,33.3907,-8.75124
770,204,33.6228,9.7973,0,0,0,0,0,0,0,-1,1994,820,33.6228,-9.79728
777,204,0,0,0,0,0,0,0,0,0,-1,2001,820,0,0
784,204,0,0,0,0,0,0,0,0,0,-1,2008,820,0,0
791,204,0,0,0,0,0,0,0,0,0,-1,2015,820,0,0
798,204,0,0,0,0,0,0,0,0,0,-1,2022,820,0,0
805,204,0,0,0,0,0,0,0,0,0,-1,2029,820,0,0
812,204,0,0,0,0,0,0,0,0,0,-1,2036,820,0,0
-700,197,0,0,0,0,0,0,0,0,0,-1,524,827,0,0
-693,197,0,0,0,0,0,0,0,0,0,-1,531,827,0,0
-686,197,0,0,0,0,0,0,0,0,0,-1,538,827,0,0
-679,197,0,0,0,0,0,0,0,0,0,-1,545,827,0,0
-672,197,0,0,0,0,0,0,0,0,0,-1,552,827,0,0
-665,197,0,0,0,0,0,0,0,0,0,-1,559,827,0,0
-658,197,-30.4204,2.35925,0,0,0,0,0,0,0,-1,566,827,-30.4204,-2.35925
-651,197,-30.2333,3.96747,0,0,0,0,0,0,0,-1,573,827,-30.2333,-3.96747
-644,197,-29.4877,5.617,0,0,0,0,0,0,0,-1,580,827,-29.4877,-5.617
-637,197,-24.3416,6.20563,0,0,0,0,0,0,0,-1,587,827,-24.3416,-6.20564
-630,197,-24.4034,5.27606,0,0,0,0,0,0,0,-1,594,827,-24.4035,-5.27608
-623,197,-23.675,3.79889,0,0,0,0,0,0,0,-1,601,827,-23.6751,-3.79888
-616,197,-23.8581,3.3504,0.0254737,0.0239787,0.0160103,0.040754,0.0086985,0.762071,0.024784,0.0475168,608,827,-23.8581,-3.3504
-609,197,-24.0388,2.90857,0.0151318,0.0170862,0.0104741,0.0266286,0.00558937,0.831912,0.0162137,0.0327935,615,827,-24.0387,-2.90855
-602,197,-24.2016,2.4527,0.00855225,0.0119791,0.0066949,0.0171763,0.00335498,0.910673,0.0105126,0.0170624,622,827,-24.2016,-2.45273
-595,197,-24.2357,2.00043,0.00430471,0.00790795,0.00423826,0.0107116,0.00150104,0.986369,0.00669704,0.0182488,629,827,-24.2357,-2.00045
-588,197,-24.2288,1.49902,0.0012085,0.00441935,0.00269225,0.0059485,-0.000320652,1.05425,0.00407676,0.0194761,636,827,-24.2288,-1.49904
-581,197,-24.2502,1.01239,-0.000997455,0.00208806,0.00176297,0.00288798,-0.00179738,1.14484,0.00272942,0.0111489,643,827,-24.2502,-1.0124
-574,197,-24.2552,0.558777,-0.00129367,-9.85527e-05,0.0014537,0.000875611,-0.00226784,0.980401,0.00187326,0.0119642,650,827,-24.2553,-0.558757
-567,197,-24.2189,0.0873413,-0.000693742,-0.00134886,0.0017924,0.00080079,-0.00284339,0.695022,0.00221139,0.0132082,657,827,-24.2189,-0.0873358
-560,197,-24.1998,-0.37677,-1.10027e-05,-0.00224595,0.00218503,0.00132572,-0.00358267,0.549026,0.00293202,0.0221111,664,827,-24.1998,0.376746
-553,197,-24.5369,-0.767883,0.000472173,-0.00293618,0.00241516,0.00172387,-0.00418788,0.478155,0.00351058,0.024139,671,827,-24.5369,0.76789
-546,197,-24.4421,-1.20679,0.000845509,-0.00319761,0.00239919,0.00196127,-0.00431337,0.435307,0.00370654,0.0388622,678,827,-24.4421,1.20676
-539,197,-24.2701,-1.69208,0,0,0,0,0,0,0,-1,685,827,-24.2702,1.69208
-532,197,-16.0519,0.0410156,0,0,0,0,0,0,0,-1,692,827,-16.0519,-0.0410415
-525,197,-33.4587,0.677856,0,0,0,0,0,0,0,-1,699,827,-33.4587,-0.677857
-518,197,-33.3199,0.927429,0,0,0,0,0,0,0,-1,706,827,-33.32,-0.92746
-511,197,-33.1812,1.17706,0,0,0,0,0,0,0,-1,713,827,-33.1812,-1.17706
-504,197,-33.302,1.07495,0.00592366,-0.00532054,0.000804838,0.00598098,-0.00537786,0.0710951,0.00656111,0.0440429,720,827,-33.302,-1.07493
-497,197,-33.2606,1.18549,0.00677054,-0.00515347,-9.94089e-05,0.00677136,-0.0051543,-0.0083361,0.00690635,0.042845,727,827,-33.2605,-1.18546
-490,197,-33.1822,1.29108,0.0071522,-0.00457611,-0.00122456,0.0072787,-0.00470261,-0.102931,0.0069705,0.038458,734,827,-33.1822,-1.29109
-483,197,-33.0563,1.33508,0.00707245,-0.00315404,-0.00289691,0.00783606,-0.00391764,-0.25773,0.00691056,0.0416881,741,827,-33.0563,-1.33509
-476,197,0,0,0,0,0,0,0,0,0,-1,748,827,0,0
-469,197,0,0,0,0,0,0,0,0,0,-1,755,827,0,0
-462,197,0,0,0,0,0,0,0,0,0,-1,762,827,0,0
-455,197,0,0,0,0,0,0,0,0,0,-1,769,827,0,0
-448,197,0,0,0,0,0,0,0,0,0,-1,776,827,0,0
-441,197,0,0,0,0,0,0,0,0,0,-1,783,827,0,0
-434,197,0,0,0,0,0,0,0,0,0,-1,790,827,0,0
-427,197,0,0,0,0,0,0,0,0,0,-1,797,827,0,0
-420,197,0,0,0,0,0,0,0,0,0,-1,804,827,0,0
-413,197,0,0,0,0,0,0,0,0,0,-1,811,827,0,0
-406,197,0,0,0,0,0,0,0,0,0,-1,818,827,0,0
-399,197,0,0,0,0,0,0,0,0,0,-1,825,827,0,0
-392,197,0,0,0,0,0,0,0,0,0,-1,832,827,0,0
-385,197,0,0,0,0,0,0,0,0,0,-1,839,827,0,0
-378,197,0,0,0,0,0,0,0,0,0,-1,846,827,0,0
-371,197,0,0,0,0,0,0,0,0,0,-1,853,827,0,0
-364,197,0,0,0,0,0,0,0,0,0,-1,860,827,0,0
-357,197,0,0,0,0,0,0,0,0,0,-1,867,827,0,0
-350,197,0,0,0,0,0,0,0,0,0,-1,874,827,0,0
-343,197,0,0,0,0,0,0,0,0,0,-1,881,827,0,0
-336,197,0,0,0,0,0,0,0,0,0,-1,888,827,0,0
-329,197,0,0,0,0,0,0,0,0,0,-1,895,827,0,0
-322,197,0,0,0,0,0,0,0,0,0,-1,902,827,0,0
-315,197,0,0,0,0,0,0,0,0,0,-1,909,827,0,0
-308,197,0,0,0,0,0,0,0,0,0,-1,916,827,0,0
-301,197,0,0,0,0,0,0,0,0,0,-1,923,827,0,0
-294,197,0,0,0,0,0,0,0,0,0,-1,930,827,0,0
-287,197,0,0,0,0,0,0,0,0,0,-1,937,827,0,0
-280,197,0,0,0,0,0,0,0,0,0,-1,944,827,0,0
-273,197,0,0,0,0,0,0,0,0,0,-1,951,827,0,0
-266,197,0,0,0,0,0,0,0,0,0,-1,958,827,0,0
-259,197,0,0,0,0,0,0,0,0,0,-1,965,827,0,0
-252,197,0,0,0,0,0,0,0,0,0,-1,972,827,0,0
-245,197,0,0,0,0,0,0,0,0,0,-1,979,827,0,0
-238,197,0,0,0,0,0,0,0,0,0,-1,986,827,0,0
-231,197,0,0,0,0,0,0,0,0,0,-1,993,827,0,0
-224,197,0,0,0,0,0,0,0,0,0,-1,1000,827,0,0
-217,197,0,0,0,0,0,0,0,0,0,-1,1007,827,0,0
-210,197,0,0,0,0,0,0,0,0,0,-1,1014,827,0,0
-203,197,0,0,0,0,0,0,0,0,0,-1,1021,827,0,0
-196,197,0,0,0,0,0,0,0,0,0,-1,1028,827,0,0
-189,197,0,0,0,0,0,0,0,0,0,-1,1035,827,0,0
-182,197,0,0,0,0,0,0,0,0,0,-1,1042,827,0,0
-175,197,0,0,0,0,0,0,0,0,0,-1,1049,827,0,0
-168,197,0,0,0,0,0,0,0,0,0,-1,1056,827,0,0
-161,197,0,0,0,0,0,0,0,0,0,-1,1063,827,0,0
-154,197,0,0,0,0,0,0,0,0,0,-1,1070,827,0,0
-147,197,0,0,0,0,0,0,0,0,0,-1,1077,827,0,0
-140,197,0,0,0,0,0,0,0,0,0,-1,1084,827,0,0
-133,197,0,0,0,0,0,0,0,0,0,-1,1091,827,0,0
-126,197,0,0,0,0,0,0,0,0,0,-1,1098,827,0,0
-119,197,0,0,0,0,0,0,0,0,0,-1,1105,827,0,0
-112,197,0,0,0,0,0,0,0,0,0,-1,1112,827,0,0
-105,197,0,0,0,0,0,0,0,0,0,-1,1119,827,0,0
-98,197,0,0,0,0,0,0,0,0,0,-1,1126,827,0,0
-91,197,0,0,0,0,0,0,0,0,0,-1,1133,827,0,0
-84,197,0,0,0,0,0,0,0,0,0,-1,1140,827,0,0
-77,197,0,0,0,0,0,0,0,0,0,-1,1147,827,0,0
-70,197,0,0,0,0,0,0,0,0,0,-1,1154,827,0,0
-63,197,0,0,0,0,0,0,0,0,0,-1,1161,827,0,0
-56,197,0,0,0,0,0,0,0,0,0,-1,1168,827,0,0
-49,197,0,0,0,0,0,0,0,0,0,-1,1175,827,0,0
-42,197,0,0,0,0,0,0,0,0,0,-1,1182,827,0,0
-35,197,0,0,0,0,0,0,0,0,0,-1,1189,827,0,0
-28,197,0,0,0,0,0,0,0,0,0,-1,1196,827,0,0
-21,197,0,0,0,0,0,0,0,0,0,-1,1203,827,0,0
-14,197,0,0,0,0,0,0,0,0,0,-1,1210,827,0,0
-7,197,0,0,0,0,0,0,0,0,0,-1,1217,827,0,0
0,197,0,0,0,0,0,0,0,0,0,-1,1224,827,0,0
7,197,0,0,0,0,0,0,0,0,0,-1,1231,827,0,0
14,197,0,0,0,0,0,0,0,0,0,-1,1238,827,0,0
21,197,0,0,0,0,0,0,0,0,0,-1,1245,827,0,0
28,197,0,0,0,0,0,0,0,0,0,-1,1252,827,0,0
35,197,0,0,0,0,0,0,0,0,0,-1,1259,827,0,0
42,197,0,0,0,0,0,0,0,0,0,-1,1266,827,0,0
49,197,0,0,0,0,0,0,0,0,0,-1,1273,827,0,0
56,197,0,0,0,0,0,0,0,0,0,-1,1280,827,0,0
63,197,0,0,0,0,0,0,0,0,0,-1,1287,827,0,0
70,197,0,0,0,0,0,0,0,0,0,-1,1294,827,0,0
77,197,0,0,0,0,0,0,0,0,0,-1,1301,827,0,0
84,197,0,0,0,0,0,0,0,0,0,-1,1308,827,0,0
91,197,0,0,0,0,0,0,0,0,0,-1,1315,827,0,0
98,197,0,0,0,0,0,0,0,0,0,-1,1322,827,0,0
105,197,0,0,0,0,0,0,0,0,0,-1,1329,827,0,0
112,197,0,0,0,0,0,0,0,0,0,-1,1336,827,0,0
119,197,0,0,0,0,0,0,0,0,0,-1,1343,827,0,0
126,197,0,0,0,0,0,0,0,0,0,-1,1350,827,0,0
133,197,0,0,0,0,0,0,0,0,0,-1,1357,827,0,0
140,197,0,0,0,0,0,0,0,0,0,-1,1364,827,0,0
147,197,0,0,0,0,0,0,0,0,0,-1,1371,827,0,0
154,197,0,0,0,0,0,0,0,0,0,-1,1378,827,0,0
161,197,0,0,0,0,0,0,0,0,0,-1,1385,827,0,0
168,197,0,0,0,0,0,0,0,0,0,-1,1392,827,0,0
175,197,0,0,0,0,0,0,0,0,0,-1,1399,827,0,0
182,197,0,0,0,0,0,0,0,0,0,-1,1406,827,0,0
189,197,0,0,0,0,0,0,0,0,0,-1,1413,827,0,0
196,197,0,0,0,0,0,0,0,0,0,-1,1420,827,0,0
203,197,0,0,0,0,0,0,0,0,0,-1,1427,827,0,0
210,197,0,0,0,0,0,0,0,0,0,-1,1434,827,0,0
217,197,0,0,0,0,0,0,0,0,0,-1,1441,827,0,0
224,197,0,0,0,0,0,0,0,0,0,-1,1448,827,0,0
231,197,0,0,0,0,0,0,0,0,0,-1,1455,827,0,0
238,197,0,0,0,0,0,0,0,0,0,-1,1462,827,0,0
245,197,0,0,0,0,0,0,0,0,0,-1,1469,827,0,0
252,197,0,0,0,0,0,0,0,0,0,-1,1476,827,0,0
259,197,0,0,0,0,0,0,0,0,0,-1,1483,827,0,0
266,197,0,0,0,0,0,0,0,0,0,-1,1490,827,0,0
273,197,0,0,0,0,0,0,0,0,0,-1,1497,827,0,0
280,197,0,0,0,0,0,0,0,0,0,-1,1504,827,0,0
287,197,0,0,0,0,0,0,0,0,0,-1,1511,827,0,0
294,197,0,0,0,0,0,0,0,0,0,-1,1518,827,0,0
301,197,0,0,0,0,0,0,0,0,0,-1,1525,827,0,0
308,197,0,0,0,0,0,0,0,0,0,-1,1532,827,0,0
315,197,0,0,0,0,0,0,0,0,0,-1,1539,827,0,0
322,197,0,0,0,0,0,0,0,0,0,-1,1546,827,0,0
329,197,0,0,0,0,0,0,0,0,0,-1,1553,827,0,0
336,197,0,0,0,0,0,0,0,0,0,-1,1560,827,0,0
343,197,0,0,0,0,0,0,0,0,0,-1,1567,827,0,0
350,197,0,0,0,0,0,0,0,0,0,-1,1574,827,0,0
357,197,0,0,0,0,0,0,0,0,0,-1,1581,827,0,0
364,197,0,0,0,0,0,0,0,0,0,-1,1588,827,0,0
371,197,0,0,0,0,0,0,0,0,0,-1,1595,827,0,0
378,197,0,0,0,0,0,0,0,0,0,-1,1602,827,0,0
385,197,0,0,0,0,0,0,0,0,0,-1,1609,827,0,0
392,197,0,0,0,0,0,0,0,0,0,-1,1616,827,0,0
399,197,0,0,0,0,0,0,0,0,0,-1,1623,827,0,0
406,197,0,0,0,0,0,0,0,0,0,-1,1630,827,0,0
413,197,0,0,0,0,0,0,0,0,0,-1,1637,827,0,0
420,197,0,0,0,0,0,0,0,0,0,-1,1644,827,0,0
427,197,0,0,0,0,0,0,0,0,0,-1,1651,827,0,0
434,197,0,0,0,0,0,0,0,0,0,-1,1658,827,0,0
441,197,0,0,0,0,0,0,0,0,0,-1,1665,827,0,0
448,197,0,0,0,0,0,0,0,0,0,-1,1672,827,0,0
455,197,0,0,0,0,0,0,0,0,0,-1,1679,827,0,0
462,197,0,0,0,0,0,0,0,0,0,-1,1686,827,0,0
469,197,0,0,0,0,0,0,0,0,0,-1,1693,827,0,0
476,197,0,0,0,0,0,0,0,0,0,-1,1700,827,0,0
483,197,0,0,0,0,0,0,0,0,0,-1,1707,827,0,0
490,197,0,0,0,0,0,0,0,0,0,-1,1714,827,0,0
497,197,0,0,0,0,0,0,0,0,0,-1,1721,827,0,0
504,197,0,0,0,0,0,0,0,0,0,-1,1728,827,0,0
511,197,0,0,0,0,0,0,0,0,0,-1,1735,827,0,0
518,197,0,0,0,0,0,0,0,0,0,-1,1742,827,0,0
525,197,0,0,0,0,0,0,0,0,0,-1,1749,827,0,0
532,197,0,0,0,0,0,0,0,0,0,-1,1756,827,0,0
539,197,0,0,0,0,0,0,0,0,0,-1,1763,827,0,0
546,197,0,0,0,0,0,0,0,0,0,-1,1770,827,0,0
553,197,0,0,0,0,0,0,0,0,0,-1,1777,827,0,0
560,197,0,0,0,0,0,0,0,0,0,-1,1784,827,0,0
567,197,0,0,0,0,0,0,0,0,0,-1,1791,827,0,0
574,197,0,0,0,0,0,0,0,0,0,-1,1798,827,0,0
581,197,0,0,0,0,0,0,0,0,0,-1,1805,827,0,0
588,197,0,0,0,0,0,0,0,0,0,-1,1812,827,0,0
595,197,0,0,0,0,0,0,0,0,0,-1,1819,827,0,0
602,197,44.6962,2.80872,0.00373422,0.000627526,-0.00352235,0.00603052,-0.00166878,-0.577727,0.00467692,0.0415519,1826,827,44.6961,-2.8087
609,197,44.7335,2.75122,0.00327498,0.00167609,-0.00121847,0.00393285,0.00101821,-0.495071,0.00235699,0.0395903,1833,827,44.7335,-2.7512
616,197,44.7896,2.73206,0.00325726,0.00255281,0.000801407,0.00378043,0.00202964,0.578352,0.00218461,0.0391249,1840,827,44.7895,-2.73204
623,197,44.7557,2.7066,0.00310225,0.00284578,0.00193988,0.00491813,0.0010299,0.752395,0.00299507,0.0378373,1847,827,44.7557,-2.70659
630,197,44.6821,2.72772,0.00265053,0.00286152,0.00228974,0.00504819,0.00046386,0.808419,0.00322199,0.0305276,1854,827,44.6822,-2.7277
637,197,44.7168,2.75061,0.00202612,0.0024866,0.00205932,0.00432851,0.000184206,0.84107,0.00282628,0.0270821,1861,827,44.7168,-2.7506
644,197,44.8313,2.77063,0.00139383,0.00197534,0.00170913,0.00341827,-4.90955e-05,0.86965,0.00229539,0.035978,1868,827,44.8313,-2.77061
651,197,44.9928,2.96326,0,0,0,0,0,0,0,-1,1875,827,44.9929,-2.96325
658,197,40.4694,3.05927,0,0,0,0,0,0,0,-1,1882,827,40.4694,-3.05926
665,197,14.0618,1.80304,0,0,0,0,0,0,0,-1,1889,827,14.0617,-1.80303
672,197,33.3518,0.135193,0,0,0,0,0,0,0,-1,1896,827,33.3518,-0.135171
679,197,34.484,0.724915,0,0,0,0,0,0,0,-1,1903,827,34.4841,-0.724925
686,197,34.5908,1.54626,-0.00139094,-0.000519182,-0.000551565,-0.000252057,-0.00165807,-1.11979,0.00103167,0.03072,1910,827,34.5908,-1.54628
693,197,34.5299,2.07513,-0.00154212,-0.000633496,-0.000889819,-8.87183e-05,-0.00208689,-1.02143,0.00136265,0.0170627,1917,827,34.53,-2.07512
700,197,34.525,2.57648,-0.00156437,-0.000663478,-0.000833508,-0.000166487,-0.00206136,-1.03313,0.00132224,0.0222167,1924,827,34.525,-2.57649
707,197,34.5525,3.07202,-0.0013331,0.000565264,-0.00042435,0.000655803,-0.00142364,-1.36059,0.00122755,0.0105194,1931,827,34.5525,-3.07203
714,197,34.5228,3.56342,-0.000668939,0.00258559,0.000653658,0.00271197,-0.000795316,1.37981,0.00212333,0.0124146,1938,827,34.5229,-3.56343
721,197,34.4935,4.05096,6.6192e-05,0.00521482,0.00214342,0.00599033,-0.000709323,1.22364,0.00424977,0.0118209,1945,827,34.4935,-4.05098
728,197,34.4668,4.54968,0.00139341,0.00852133,0.00390689,0.0102456,-0.00033088,1.15516,0.00694334,0.010396,1952,827,34.4668,-4.54965
735,197,34.4281,5.06262,0.00339362,0.0127546,0.00581985,0.0155425,0.000605658,1.12405,0.0101658,0.0111796,1959,827,34.4281,-5.06259
742,197,34.3849,5.56702,0.00576499,0.0182395,0.00815989,0.0222729,0.00173154,1.11172,0.0143064,0.0212418,1966,827,34.3848,-5.56702
749,197,33.9535,6.47394,0.00954506,0.0252496,0.0109106,0.0308397,0.00395489,1.09731,0.0193765,0.0452721,1973,827,33.9535,-6.47396
756,197,33.8351,7.46307,0.0156379,0.033977,0.0139813,0.0415274,0.0080875,1.07563,0.0254216,0.0482047,1980,827,33.8351,-7.46309
763,197,33.9271,8.19739,0.0251352,0.0443904,0.0170212,0.0543181,0.0152074,1.04278,0.0323569,0.0471422,1987,827,33.9272,-8.19739
770,197,34.2562,9.11902,0,0,0,0,0,0,0,-1,1994,827,34.2563,-9.119
777,197,0,0,0,0,0,0,0,0,0,-1,2001,827,0,0
784,197,0,0,0,0,0,0,0,0,0,-1,2008,827,0,0
791,197,0,0,0,0,0,0,0,0,0,-1,2015,827,0,0
798,197,0,0,0,0,0,0,0,0,0,-1,2022,827,0,0
805,197,0,0,0,0,0,0,0,0,0,-1,2029,827,0,0
812,197,0,0,0,0,0,0,0,0,0,-1,2036,827,0,0
-700,190,0,0,0,0,0,0,0,0,0,-1,524,834,0,0
-693,190,0,0,0,0,0,0,0,0,0,-1,531,834,0,0
-686,190,0,0,0,0,0,0,0,0,0,-1,538,834,0,0
-679,190,0,0,0,0,0,0,0,0,0,-1,545,834,0,0
-672,190,0,0,0,0,0,0,0,0,0,-1,552,834,0,0
-665,190,0,0,0,0,0,0,0,0,0,-1,559,834,0,0
-658,190,-30.1389,2.94177,0,0,0,0,0,0,0,-1,566,834,-30.1389,-2.94175
-651,190,-26.9968,5.7478,0,0,0,0,0,0,0,-1,573,834,-26.9968,-5.74781
-644,190,-22.9308,4.65051,0,0,0,0,0,0,0,-1,580,834,-22.9308,-4.65049
-637,190,-25.3365,3.87677,0,0,0,0,0,0,0,-1,587,834,-25.3366,-3.87677
-630,190,-23.1201,5.22748,0,0,0,0,0,0,0,-1,594,834,-23.1201,-5.22748
-623,190,-23.7502,4.18652,0.0438747,0.0314014,0.0257939,0.0641752,0.0111009,0.666781,0.0396052,0.0493513,601,834,-23.7502,-4.18651
-616,190,-24.2977,3.36102,0.02739,0.022993,0.0179425,0.0432682,0.00711486,0.724436,0.0267906,0.0463066,608,834,-24.2977,-3.36105
-609,190,-24.6224,2.8429,0.0164428,0.0163104,0.0121602,0.028537,0.00421625,0.782676,0.0177866,0.0268086,615,834,-24.6224,-2.84289
-602,190,-24.6878,2.45428,0.00932281,0.011233,0.00812662,0.0184605,0.00209536,0.843894,0.0116714,0.0167981,622,834,-24.6878,-2.45428
-595,190,-24.7222,1.98425,0.00471159,0.0071669,0.00539546,0.0114726,0.000405882,0.897261,0.00751677,0.0188365,629,834,-24.7222,-1.98427
-588,190,-24.7167,1.51074,0.00141896,0.00370409,0.00359251,0.00633135,-0.0012083,0.93936,0.00467599,0.017627,636,834,-24.7167,-1.51074
-581,190,-24.7255,1.05103,-0.000799572,0.00150603,0.00241846,0.00303239,-0.00232593,1.0078,0.00310258,0.0120077,643,834,-24.7255,-1.05101
-574,190,-24.7212,0.574402,-0.00104385,-0.000476877,0.00183047,0.00109193,-0.00261266,0.862223,0.00219809,0.0108499,650,834,-24.7212,-0.574403
-567,190,-24.6509,0.019043,-0.000317782,-0.00141888,0.00199499,0.00120123,-0.00293789,0.650766,0.00245884,0.0198906,657,834,-24.6509,-0.0190561
-560,190,-24.7642,-0.364075,0.000428514,-0.00213141,0.00219772,0.00169183,-0.00339472,0.521707,0.00299108,0.0413684,664,834,-24.7642,0.364056
-553,190,-25.2201,-0.814941,0,0,0,0,0,0,0,-1,671,834,-25.2201,0.814915
-546,190,-24.955,-1.24542,0,0,0,0,0,0,0,-1,678,834,-24.9549,1.24543
-539,190,-16.4624,-0.542542,0,0,0,0,0,0,0,-1,685,834,-16.4624,0.542527
-532,190,-21.6292,2.06122,0,0,0,0,0,0,0,-1,692,834,-21.6292,-2.06123
-525,190,-33.5275,0.685974,0,0,0,0,0,0,0,-1,699,834,-33.5275,-0.685968
-518,190,-33.3501,0.937378,0.00411084,-0.00424078,0.00176663,0.00446917,-0.0045991,0.200115,0.00523575,0.0480296,706,834,-33.3501,-0.937385
-511,190,-33.147,1.18304,0.00488093,-0.00445119,0.00146363,0.0051051,-0.00467536,0.151978,0.00564857,0.0448811,713,834,-33.147,-1.18307
-504,190,-33.0043,1.24377,0.00590274,-0.00452994,0.00100901,0.00599944,-0.00462664,0.0955367,0.00615201,0.0460148,720,834,-33.0043,-1.24377
-497,190,-32.8647,1.3634,0,0,0,0,0,0,0,-1,727,834,-32.8647,-1.3634
-490,190,-33.1849,1.22955,0,0,0,0,0,0,0,-1,734,834,-33.1849,-1.22953
-483,190,0,0,0,0,0,0,0,0,0,-1,741,834,0,0
-476,190,0,0,0,0,0,0,0,0,0,-1,748,834,0,0
-469,190,0,0,0,0,0,0,0,0,0,-1,755,834,0,0
-462,190,0,0,0,0,0,0,0,0,0,-1,762,834,0,0
-455,190,0,0,0,0,0,0,0,0,0,-1,769,834,0,0
-448,190,0,0,0,0,0,0,0,0,0,-1,776,834,0,0
-441,190,0,0,0,0,0,0,0,0,0,-1,783,834,0,0
-434,190,0,0,0,0,0,0,0,0,0,-1,790,834,0,0
-427,190,0,0,0,0,0,0,0,0,0,-1,797,834,0,0
-420,190,0,0,0,0,0,0,0,0,0,-1,804,834,0,0
-413,190,0,0,0,0,0,0,0,0,0,-1,811,834,0,0
-406,190,0,0,0,0,0,0,0,0,0,-1,818,834,0,0
-399,190,0,0,0,0,0,0,0,0,0,-1,825,834,0,0
-392,190,0,0,0,0,0,0,0,0,0,-1,832,834,0,0
-385,190,0,0,0,0,0,0,0,0,0,-1,839,834,0,0
-378,190,0,0,0,0,0,0,0,0,0,-1,846,834,0,0
-371,190,0,0,0,0,0,0,0,0,0,-1,853,834,0,0
-364,190,0,0,0,0,0,0,0,0,0,-1,860,834,0,0
-357,190,0,0,0,0,0,0,0,0,0,-1,867,834,0,0
-350,190,0,0,0,0,0,0,0,0,0,-1,874,834,0,0
-343,190,0,0,0,0,0,0,0,0,0,-1,881,834,0,0
-336,190,0,0,0,0,0,0,0,0,0,-1,888,834,0,0
-329,190,0,0,0,0,0,0,0,0,0,-1,895,834,0,0
-322,190,0,0,0,0,0,0,0,0,0,-1,902,834,0,0
-315,190,0,0,0,0,0,0,0,0,0,-1,909,834,0,0
-308,190,0,0,0,0,0,0,0,0,0,-1,916,834,0,0
-301,190,0,0,0,0,0,0,0,0,0,-1,923,834,0,0
-294,190,0,0,0,0,0,0,0,0,0,-1,930,834,0,0
-287,190,0,0,0,0,0,0,0,0,0,-1,937,834,0,0
-280,190,0,0,0,0,0,0,0,0,0,-1,944,834,0,0
-273,190,0,0,0,0,0,0,0,0,0,-1,951,834,0,0
-266,190,0,0,0,0,0,0,0,0,0,-1,958,834,0,0
-259,190,0,0,0,0,0,0,0,0,0,-1,965,834,0,0
-252,190,0,0,0,0,0,0,0,0,0,-1,972,834,0,0
-245,190,0,0,0,0,0,0,0,0,0,-1,979,834,0,0
-238,190,0,0,0,0,0,0,0,0,0,-1,986,834,0,0
-231,190,0,0,0,0,0,0,0,0,0,-1,993,834,0,0
-224,190,0,0,0,0,0,0,0,0,0,-1,1000,834,0,0
-217,190,0,0,0,0,0,0,0,0,0,-1,1007,834,0,0
-210,190,0,0,0,0,0,0,0,0,0,-1,1014,834,0,0
-203,190,0,0,0,0,0,0,0,0,0,-1,1021,834,0,0
-196,190,0,0,0,0,0,0,0,0,0,-1,1028,834,0,0
-189,190,0,0,0,0,0,0,0,0,0,-1,1035,834,0,0
-182,190,0,0,0,0,0,0,0,0,0,-1,1042,834,0,0
-175,190,0,0,0,0,0,0,0,0,0,-1,1049,834,0,0
-168,190,0,0,0,0,0,0,0,0,0,-1,1056,834,0,0
-161,190,0,0,0,0,0,0,0,0,0,-1,1063,834,0,0
-154,190,0,0,0,0,0,0,0,0,0,-1,1070,834,0,0
-147,190,0,0,0,0,0,0,0,0,0,-1,1077,834,0,0
-140,190,0,0,0,0,0,0,0,0,0,-1,1084,834,0,0
-133,190,0,0,0,0,0,0,0,0,0,-1,1091,834,0,0
-126,190,0,0,0,0,0,0,0,0,0,-1,1098,834,0,0
-119,190,0,0,0,0,0,0,0,0,0,-1,1105,834,0,0
-112,190,0,0,0,0,0,0,0,0,0,-1,1112,834,0,0
-105,190,0,0,0,0,0,0,0,0,0,-1,1119,834,0,0
-98,190,0,0,0,0,0,0,0,0,0,-1,1126,834,0,0
-91,190,0,0,0,0,0,0,0,0,0,-1,1133,834,0,0
-84,190,0,0,0,0,0,0,0,0,0,-1,1140,834,0,0
-77,190,0,0,0,0,0,0,0,0,0,-1,1147,834,0,0
-70,190,0,0,0,0,0,0,0,0,0,-1,1154,834,0,0
-63,190,0,0,0,0,0,0,0,0,0,-1,1161,834,0,0
-56,190,0,0,0,0,0,0,0,0,0,-1,1168,834,0,0
-49,190,0,0,0,0,0,0,0,0,0,-1,1175,834,0,0
-42,190,0,0,0,0,0,0,0,0,0,-1,1182,834,0,0
-35,190,0,0,0,0,0,0,0,0,0,-1,1189,834,0,0
-28,190,0,0,0,0,0,0,0,0,0,-1,1196,834,0,0
-21,190,0,0,0,0,0,0,0,0,0,-1,1203,834,0,0
-14,190,0,0,0,0,0,0,0,0,0,-1,1210,834,0,0
-7,190,0,0,0,0,0,0,0,0,0,-1,1217,834,0,0
0,190,0,0,0,0,0,0,0,0,0,-1,1224,834,0,0
7,190,0,0,0,0,0,0,0,0,0,-1,1231,834,0,0
14,190,0,0,0,0,0,0,0,0,0,-1,1238,834,0,0
21,190,0,0,0,0,0,0,0,0,0,-1,1245,834,0,0
28,190,0,0,0,0,0,0,0,0,0,-1,1252,834,0,0
35,190,0,0,0,0,0,0,0,0,0,-1,1259,834,0,0
42,190,0,0,0,0,0,0,0,0,0,-1,1266,834,0,0
49,190,0,0,0,0,0,0,0,0,0,-1,1273,834,0,0
56,190,0,0,0,0,0,0,0,0,0,-1,1280,834,0,0
63,190,0,0,0,0,0,0,0,0,0,-1,1287,834,0,0
70,190,0,0,0,0,0,0,0,0,0,-1,1294,834,0,0
77,190,0,0,0,0,0,0,0,0,0,-1,1301,834,0,0
84,190,0,0,0,0,0,0,0,0,0,-1,1308,834,0,0
91,190,0,0,0,0,0,0,0,0,0,-1,1315,834,0,0
98,190,0,0,0,0,0,0,0,0,0,-1,1322,834,0,0
105,190,0,0,0,0,0,0,0,0,0,-1,1329,834,0,0
112,190,0,0,0,0,0,0,0,0,0,-1,1336,834,0,0
119,190,0,0,0,0,0,0,0,0,0,-1,1343,834,0,0
126,190,0,0,0,0,0,0,0,0,0,-1,1350,834,0,0
133,190,0,0,0,0,0,0,0,0,0,-1,1357,834,0,0
140,190,0,0,0,0,0,0,0,0,0,-1,1364,834,0,0
147,190,0,0,0,0,0,0,0,0,0,-1,1371,834,0,0
154,190,0,0,0,0,0,0,0,0,0,-1,1378,834,0,0
161,190,0,0,0,0,0,0,0,0,0,-1,1385,834,0,0
168,190,0,0,0,0,0,0,0,0,0,-1,1392,834,0,0
175,190,0,0,0,0,0,0,0,0,0,-1,1399,834,0,0
182,190,0,0,0,0,0,0,0,0,0,-1,1406,834,0,0
189,190,0,0,0,0,0,0,0,0,0,-1,1413,834,0,0
196,190,0,0,0,0,0,0,0,0,0,-1,1420,834,0,0
203,190,0,0,0,0,0,0,0,0,0,-1,1427,834,0,0
210,190,0,0,0,0,0,0,0,0,0,-1,1434,834,0,0
217,190,0,0,0,0,0,0,0,0,0,-1,1441,834,0,0
224,190,0,0,0,0,0,0,0,0,0,-1,1448,834,0,0
231,190,0,0,0,0,0,0,0,0,0,-1,1455,834,0,0
238,190,0,0,0,0,0,0,0,0,0,-1,1462,834,0,0
245,190,0,0,0,0,0,0,0,0,0,-1,1469,834,0,0
252,190,0,0,0,0,0,0,0,0,0,-1,1476,834,0,0
259,190,0,0,0,0,0,0,0,0,0,-1,1483,834,0,0
266,190,0,0,0,0,0,0,0,0,0,-1,1490,834,0,0
273,190,0,0,0,0,0,0,0,0,0,-1,1497,834,0,0
280,190,0,0,0,0,0,0,0,0,0,-1,1504,834,0,0
287,190,0,0,0,0,0,0,0,0,0,-1,1511,834,0,0
294,190,0,0,0,0,0,0,0,0,0,-1,1518,834,0,0
301,190,0,0,0,0,0,0,0,0,0,-1,1525,834,0,0
308,190,0,0,0,0,0,0,0,0,0,-1,1532,834,0,0
315,190,0,0,0,0,0,0,0,0,0,-1,1539,834,0,0
322,190,0,0,0,0,0,0,0,0,0,-1,1546,834,0,0
329,190,0,0,0,0,0,0,0,0,0,-1,1553,834,0,0
336,190,0,0,0,0,0,0,0,0,0,-1,1560,834,0,0
343,190,0,0,0,0,0,0,0,0,0,-1,1567,834,0,0
350,190,0,0,0,0,0,0,0,0,0,-1,1574,834,0,0
357,190,0,0,0,0,0,0,0,0,0,-1,1581,834,0,0
364,190,0,0,0,0,0,0,0,0,0,-1,1588,834,0,0
371,190,0,0,0,0,0,0,0,0,0,-1,1595,834,0,0
378,190,0,0,0,0,0,0,0,0,0,-1,1602,834,0,0
385,190,0,0,0,0,0,0,0,0,0,-1,1609,834,0,0
392,190,0,0,0,0,0,0,0,0,0,-1,1616,834,0,0
399,190,0,0,0,0,0,0,0,0,0,-1,1623,834,0,0
406,190,0,0,0,0,0,0,0,0,0,-1,1630,834,0,0
413,190,0,0,0,0,0,0,0,0,0,-1,1637,834,0,0
420,190,0,0,0,0,0,0,0,0,0,-1,1644,834,0,0
427,190,0,0,0,0,0,0,0,0,0,-1,1651,834,0,0
434,190,0,0,0,0,0,0,0,0,0,-1,1658,834,0,0
441,190,0,0,0,0,0,0,0,0,0,-1,1665,834,0,0
448,190,0,0,0,0,0,0,0,0,0,-1,1672,834,0,0
455,190,0,0,0,0,0,0,0,0,0,-1,1679,834,0,0
462,190,0,0,0,0,0,0,0,0,0,-1,1686,834,0,0
469,190,0,0,0,0,0,0,0,0,0,-1,1693,834,0,0
476,190,0,0,0,0,0,0,0,0,0,-1,1700,834,0,0
483,190,0,0,0,0,0,0,0,0,0,-1,1707,834,0,0
490,190,0,0,0,0,0,0,0,0,0,-1,1714,834,0,0
497,190,0,0,0,0,0,0,0,0,0,-1,1721,834,0,0
504,190,0,0,0,0,0,0,0,0,0,-1,1728,834,0,0
511,190,0,0,0,0,0,0,0,0,0,-1,1735,834,0,0
518,190,0,0,0,0,0,0,0,0,0,-1,1742,834,0,0
525,190,0,0,0,0,0,0,0,0,0,-1,1749,834,0,0
532,190,0,0,0,0,0,0,0,0,0,-1,1756,834,0,0
539,190,0,0,0,0,0,0,0,0,0,-1,1763,834,0,0
546,190,0,0,0,0,0,0,0,0,0,-1,1770,834,0,0
553,190,0,0,0,0,0,0,0,0,0,-1,1777,834,0,0
560,190,0,0,0,0,0,0,0,0,0,-1,1784,834,0,0
567,190,0,0,0,0,0,0,0,0,0,-1,1791,834,0,0
574,190,0,0,0,0,0,0,0,0,0,-1,1798,834,0,0
581,190,0,0,0,0,0,0,0,0,0,-1,1805,834,0,0
588,190,0,0,0,0,0,0,0,0,0,-1,1812,834,0,0
595,190,0,0,0,0,0,0,0,0,0,-1,1819,834,0,0
602,190,44.6968,2.79144,0.00470634,0.00082644,-0.00404807,0.0072553,-0.00172252,-0.561952,0.00550167,0.0425934,1826,834,44.6968,-2.79146
609,190,44.7339,2.78625,0.00411637,0.00170139,-0.0022772,0.00548641,0.000331345,-0.54162,0.00355232,0.0421385,1833,834,44.7339,-2.78623
616,190,44.8527,2.828,0.00386705,0.00242639,-0.000554298,0.00405563,0.0022378,-0.327935,0.0023457,0.0418355,1840,834,44.8526,-2.82802
623,190,45.1179,2.96277,0,0,0,0,0,0,0,-1,1847,834,45.1179,-2.96275
630,190,44.7313,2.99786,0.00283452,0.00274233,0.00138434,0.00417354,0.00140332,0.768755,0.00245229,0.0409552,1854,834,44.7314,-2.99787
637,190,44.7357,2.76971,0.00202186,0.0023839,0.00143309,0.00364736,0.000758403,0.848224,0.00222233,0.0353594,1861,834,44.7357,-2.7697
644,190,44.7209,2.79688,0.00127401,0.00186679,0.00126199,0.00286672,0.000274077,0.900736,0.00182666,0.0311726,1868,834,44.721,-2.7969
651,190,44.837,2.90509,0.000699029,0.00127907,0.000986051,0.00201687,-3.87685e-05,0.928426,0.00135768,0.0443685,1875,834,44.837,-2.90509
658,190,44.9769,2.96069,0,0,0,0,0,0,0,-1,1882,834,44.9769,-2.96067
665,190,25.9916,3.05157,0,0,0,0,0,0,0,-1,1889,834,25.9916,-3.05156
672,190,27.2662,1.70862,0,0,0,0,0,0,0,-1,1896,834,27.2662,-1.70861
679,190,35.1639,1.27777,0,0,0,0,0,0,0,-1,1903,834,35.1639,-1.27776
686,190,35.0714,1.67188,-0.00156685,-0.000491734,-0.000426168,-0.000343298,-0.00171529,-1.23563,0.001048,0.0250485,1910,834,35.0714,-1.67188
693,190,35.098,2.11548,-0.00169343,-0.000605985,-0.000743888,-0.000228292,-0.00207112,-1.10099,0.00131129,0.0167208,1917,834,35.098,-2.11551
700,190,35.0162,2.59601,-0.00180127,-0.000662334,-0.000808452,-0.000242919,-0.00222068,-1.09223,0.00140649,0.0120007,1924,834,35.0162,-2.596
707,190,35.0284,3.0899,-0.00170211,0.000445961,-0.000647267,0.000625922,-0.00188207,-1.29961,0.00150731,0.0131965,1931,834,35.0284,-3.08992
714,190,35.0278,3.57373,-0.00110704,0.00231029,0.000103804,0.00231344,-0.00111019,1.54046,0.00201692,0.0115938,1938,834,35.0278,-3.57376
721,190,35.0125,4.07123,-0.000397372,0.00483916,0.00120853,0.00510461,-0.00066283,1.35458,0.00364417,0.0108507,1945,834,35.0124,-4.07123
728,190,34.9922,4.55695,0.00134288,0.00801567,0.00247476,0.00883331,0.000525245,1.2517,0.00572183,0.0125716,1952,834,34.9922,-4.55696
735,190,34.9733,5.0354,0.00421387,0.0119933,0.00373112,0.0134935,0.00271367,1.1885,0.00824138,0.011563,1959,834,34.9732,-5.03541
742,190,34.8958,5.60443,0.00762288,0.0170401,0.00520492,0.0193502,0.00531277,1.15308,0.0115441,0.0165207,1966,834,34.8958,-5.60441
749,190,34.7855,6.56195,0.0129884,0.0232637,0.00677638,0.0266298,0.0096222,1.10975,0.0155706,0.0394516,1973,834,34.7856,-6.56197
756,190,34.5297,7.43945,0.0214249,0.0307718,0.0083936,0.0357053,0.0164914,1.03942,0.0206345,0.0476484,1980,834,34.5296,-7.43947
763,190,34.5173,8.08612,0,0,0,0,0,0,0,-1,1987,834,34.5173,-8.08614
770,190,34.1694,8.19507,0,0,0,0,0,0,0,-1,1994,834,34.1694,-8.19508
777,190,34.9115,4.44727,0,0,0,0,0,0,0,-1,2001,834,34.9115,-4.44725
784,190,0,0,0,0,0,0,0,0,0,-1,2008,834,0,0
791,190,0,0,0,0,0,0,0,0,0,-1,2015,834,0,0
798,190,0,0,0,0,0,0,0,0,0,-1,2022,834,0,0
805,190,0,0,0,0,0,0,0,0,0,-1,2029,834,0,0
812,190,0,0,0,0,0,0,0,0,0,-1,2036,834,0,0
-700,183,0,0,0,0,0,0,0,0,0,-1,524,841,0,0
-693,183,0,0,0,0,0,0,0,0,0,-1,531,841,0,0
-686,183,0,0,0,0,0,0,0,0,0,-1,538,841,0,0
-679,183,0,0,0,0,0,0,0,0,0,-1,545,841,0,0
-672,183,0,0,0,0,0,0,0,0,0,-1,552,841,0,0
-665,183,0,0,0,0,0,0,0,0,0,-1,559,841,0,0
-658,183,-28.5403,5.31598,0,0,0,0,0,0,0,-1,566,841,-28.5403,-5.31601
-651,183,-27.9584,5.27997,0,0,0,0,0,0,0,-1,573,841,-27.9584,-5.27997
-644,183,-27.0301,4.28809,0,0,0,0,0,0,0,-1,580,841,-27.0301,-4.28808
-637,183,-26.2134,3.83899,0.101236,0.0521559,0.0503961,0.132749,0.0206424,0.558826,0.0824841,0.0475762,587,841,-26.2134,-3.83901
-630,183,-25.2057,3.51776,0,0,0,0,0,0,0,-1,594,841,-25.2058,-3.51776
-623,183,-25.0383,3.37628,0.0454774,0.0297832,0.0273167,0.0660517,0.00920884,0.645532,0.0413084,0.0486007,601,841,-25.0383,-3.37631
-616,183,-25.1393,3.30688,0.0287032,0.0216317,0.0193967,0.0448838,0.00545111,0.695246,0.0282812,0.0404579,608,841,-25.1393,-3.30689
-609,183,-25.1526,2.90515,0.0173081,0.0151525,0.0134667,0.02974,0.00272061,0.745466,0.0189849,0.0181011,615,841,-25.1527,-2.90517
-602,183,-25.1639,2.4668,0.00975269,0.0101506,0.0092143,0.0191681,0.000735216,0.796194,0.0125409,0.0117457,622,841,-25.1639,-2.46682
-595,183,-25.1719,1.99359,0.00485266,0.00617099,0.00622694,0.0117736,-0.000749906,0.838131,0.00811057,0.0113293,629,841,-25.1719,-1.99361
-588,183,-25.1623,1.51935,0.00146723,0.00289116,0.00418118,0.00642056,-0.00206217,0.869728,0.00510844,0.0129904,636,841,-25.1623,-1.51937
-581,183,-25.2046,1.05664,-0.000635428,0.000964654,0.00278381,0.0030611,-0.00273187,0.925323,0.00334638,0.0131097,643,841,-25.2046,-1.05664
-574,183,-25.202,0.61145,-0.00080771,-0.000714697,0.00195355,0.0011929,-0.00271531,0.797299,0.00231277,0.0131156,650,841,-25.202,-0.611429
-567,183,-25.0394,0.102173,-1.84236e-05,-0.00143401,0.00200778,0.00140267,-0.0028551,0.615937,0.00250545,0.0405989,657,841,-25.0395,-0.102144
-560,183,-25.3008,-0.29895,0.000755487,-0.0020636,0.00210281,0.00187747,-0.00318558,0.490137,0.0029555,0.0465771,664,841,-25.3008,0.298975
-553,183,-25.6243,-0.977356,0,0,0,0,0,0,0,-1,671,841,-25.6244,0.977378
-546,183,-23.2448,-1.43811,0,0,0,0,0,0,0,-1,678,841,-23.2448,1.43813
-539,183,-16.8032,-0.417297,0,0,0,0,0,0,0,-1,685,841,-16.8032,0.41732
-532,183,-29.9686,0.953613,0,0,0,0,0,0,0,-1,692,841,-29.9686,-0.953627
-525,183,-33.5079,0.747192,0,0,0,0,0,0,0,-1,699,841,-33.5079,-0.747221
-518,183,-33.3331,0.941345,0.00421006,-0.00371331,0.00168975,0.00455537,-0.00405863,0.20158,0.00497605,0.0454838,706,841,-33.333,-0.941339
-511,183,-33.1003,1.13513,0.0049613,-0.00383852,0.00142512,0.00518634,-0.00406356,0.156617,0.00535353,0.040386,713,841,-33.1003,-1.13512
-504,183,-33.0338,1.2052,0.00581818,-0.00375261,0.00102899,0.00592756,-0.00386199,0.105902,0.00569378,0.0426019,720,841,-33.0338,-1.20519
-497,183,-33.3176,1.2807,0.00592138,-0.00324466,0.000496922,0.00594824,-0.00327152,0.0540024,0.00539729,0.0446058,727,841,-33.3175,-1.28068
-490,183,-33.2277,1.22705,0.00506297,-0.00219131,-0.000158415,0.00506643,-0.00219477,-0.0218235,0.00430015,0.0423815,734,841,-33.2276,-1.22706
-483,183,0,0,0,0,0,0,0,0,0,-1,741,841,0,0
-476,183,0,0,0,0,0,0,0,0,0,-1,748,841,0,0
-469,183,0,0,0,0,0,0,0,0,0,-1,755,841,0,0
-462,183,0,0,0,0,0,0,0,0,0,-1,762,841,0,0
-455,183,0,0,0,0,0,0,0,0,0,-1,769,841,0,0
-448,183,0,0,0,0,0,0,0,0,0,-1,776,841,0,0
-441,183,0,0,0,0,0,0,0,0,0,-1,783,841,0,0
-434,183,0,0,0,0,0,0,0,0,0,-1,790,841,0,0
-427,183,0,0,0,0,0,0,0,0,0,-1,797,841,0,0
-420,183,0,0,0,0,0,0,0,0,0,-1,804,841,0,0
-413,183,0,0,0,0,0,0,0,0,0,-1,811,841,0,0
-406,183,0,0,0,0,0,0,0,0,0,-1,818,841,0,0
-399,183,0,0,0,0,0,0,0,0,0,-1,825,841,0,0
-392,183,0,0,0,0,0,0,0,0,0,-1,832,841,0,0
-385,183,0,0,0,0,0,0,0,0,0,-1,839,841,0,0
-378,183,0,0,0,0,0,0,0,0,0,-1,846,841,0,0
-371,183,0,0,0,0,0,0,0,0,0,-1,853,841,0,0
-364,183,0,0,0,0,0,0,0,0,0,-1,860,841,0,0
-357,183,0,0,0,0,0,0,0,0,0,-1,867,841,0,0
-350,183,0,0,0,0,0,0,0,0,0,-1,874,841,0,0
-343,183,0,0,0,0,0,0,0,0,0,-1,881,841,0,0
-336,183,0,0,0,0,0,0,0,0,0,-1,888,841,0,0
-329,183,0,0,0,0,0,0,0,0,0,-1,895,841,0,0
-322,183,0,0,0,0,0,0,0,0,0,-1,902,841,0,0
-315,183,0,0,0,0,0,0,0,0,0,-1,909,841,0,0
-308,183,0,0,0,0,0,0,0,0,0,-1,916,841,0,0
-301,183,0,0,0,0,0,0,0,0,0,-1,923,841,0,0
-294,183,0,0,0,0,0,0,0,0,0,-1,930,841,0,0
-287,183,0,0,0,0,0,0,0,0,0,-1,937,841,0,0
-280,183,0,0,0,0,0,0,0,0,0,-1,944,841,0,0
-273,183,0,0,0,0,0,0,0,0,0,-1,951,841,0,0
-266,183,0,0,0,0,0,0,0,0,0,-1,958,841,0,0
-259,183,0,0,0,0,0,0,0,0,0,-1,965,841,0,0
-252,183,0,0,0,0,0,0,0,0,0,-1,972,841,0,0
-245,183,0,0,0,0,0,0,0,0,0,-1,979,841,0,0
-238,183,0,0,0,0,0,0,0,0,0,-1,986,841,0,0
-231,183,0,0,0,0,0,0,0,0,0,-1,993,841,0,0
-224,183,0,0,0,0,0,0,0,0,0,-1,1000,841,0,0
-217,183,0,0,0,0,0,0,0,0,0,-1,1007,841,0,0
-210,183,0,0,0,0,0,0,0,0,0,-1,1014,841,0,0
-203,183,0,0,0,0,0,0,0,0,0,-1,1021,841,0,0
-196,183,0,0,0,0,0,0,0,0,0,-1,1028,841,0,0
-189,183,0,0,0,0,0,0,0,0,0,-1,1035,841,0,0
-182,183,0,0,0,0,0,0,0,0,0,-1,1042,841,0,0
-175,183,0,0,0,0,0,0,0,0,0,-1,1049,841,0,0
-168,183,0,0,0,0,0,0,0,0,0,-1,1056,841,0,0
-161,183,0,0,0,0,0,0,0,0,0,-1,1063,841,0,0
-154,183,0,0,0,0,0,0,0,0,0,-1,1070,841,0,0
-147,183,0,0,0,0,0,0,0,0,0,-1,1077,841,0,0
-140,183,0,0,0,0,0,0,0,0,0,-1,1084,841,0,0
-133,183,0,0,0,0,0,0,0,0,0,-1,1091,841,0,0
-126,183,0,0,0,0,0,0,0,0,0,-1,1098,841,0,0
-119,183,0,0,0,0,0,0,0,0,0,-1,1105,841,0,0
-112,183,0,0,0,0,0,0,0,0,0,-1,1112,841,0,0
-105,183,0,0,0,0,0,0,0,0,0,-1,1119,841,0,0
-98,183,0,0,0,0,0,0,0,0,0,-1,1126,841,0,0
-91,183,0,0,0,0,0,0,0,0,0,-1,1133,841,0,0
-84,183,0,0,0,0,0,0,0,0,0,-1,1140,841,0,0
-77,183,0,0,0,0,0,0,0,0,0,-1,1147,841,0,0
-70,183,0,0,0,0,0,0,0,0,0,-1,1154,841,0,0
-63,183,0,0,0,0,0,0,0,0,0,-1,1161,841,0,0
-56,183,0,0,0,0,0,0,0,0,0,-1,1168,841,0,0
-49,183,0,0,0,0,0,0,0,0,0,-1,1175,841,0,0
-42,183,0,0,0,0,0,0,0,0,0,-1,1182,841,0,0
-35,183,0,0,0,0,0,0,0,0,0,-1,1189,841,0,0
-28,183,0,0,0,0,0,0,0,0,0,-1,1196,841,0,0
-21,183,0,0,0,0,0,0,0,0,0,-1,1203,841,0,0
-14,183,0,0,0,0,0,0,0,0,0,-1,1210,841,0,0
-7,183,0,0,0,0,0,0,0,0,0,-1,1217,841,0,0
0,183,0,0,0,0,0,0,0,0,0,-1,1224,841,0,0
7,183,0,0,0,0,0,0,0,0,0,-1,1231,841,0,0
14,183,0,0,0,0,0,0,0,0,0,-1,1238,841,0,0
21,183,0,0,0,0,0,0,0,0,0,-1,1245,841,0,0
28,183,0,0,0,0,0,0,0,0,0,-1,1252,841,0,0
35,183,0,0,0,0,0,0,0,0,0,-1,1259,841,0,0
42,183,0,0,0,0,0,0,0,0,0,-1,1266,841,0,0
49,183,0,0,0,0,0,0,0,0,0,-1,1273,841,0,0
56,183,0,0,0,0,0,0,0,0,0,-1,1280,841,0,0
63,183,0,0,0,0,0,0,0,0,0,-1,1287,841,0,0
70,183,0,0,0,0,0,0,0,0,0,-1,1294,841,0,0
77,183,0,0,0,0,0,0,0,0,0,-1,1301,841,0,0
84,183,0,0,0,0,0,0,0,0,0,-1,1308,841,0,0
91,183,0,0,0,0,0,0,0,0,0,-1,1315,841,0,0
98,183,0,0,0,0,0,0,0,0,0,-1,1322,841,0,0
105,183,0,0,0,0,0,0,0,0,0,-1,1329,841,0,0
112,183,0,0,0,0,0,0,0,0,0,-1,1336,841,0,0
119,183,0,0,0,0,0,0,0,0,0,-1,1343,841,0,0
126,183,0,0,0,0,0,0,0,0,0,-1,1350,841,0,0
133,183,0,0,0,0,0,0,0,0,0,-1,1357,841,0,0
140,183,0,0,0,0,0,0,0,0,0,-1,1364,841,0,0
147,183,0,0,0,0,0,0,0,0,0,-1,1371,841,0,0
154,183,0,0,0,0,0,0,0,0,0,-1,1378,841,0,0
161,183,0,0,0,0,0,0,0,0,0,-1,1385,841,0,0
168,183,0,0,0,0,0,0,0,0,0,-1,1392,841,0,0
175,183,0,0,0,0,0,0,0,0,0,-1,1399,841,0,0
182,183,0,0,0,0,0,0,0,0,0,-1,1406,841,0,0
189,183,0,0,0,0,0,0,0,0,0,-1,1413,841,0,0
196,183,0,0,0,0,0,0,0,0,0,-1,1420,841,0,0
203,183,0,0,0,0,0,0,0,0,0,-1,1427,841,0,0
210,183,0,0,0,0,0,0,0,0,0,-1,1434,841,0,0
217,183,0,0,0,0,0,0,0,0,0,-1,1441,841,0,0
224,183,0,0,0,0,0,0,0,0,0,-1,1448,841,0,0
231,183,0,0,0,0,0,0,0,0,0,-1,1455,841,0,0
238,183,0,0,0,0,0,0,0,0,0,-1,1462,841,0,0
245,183,0,0,0,0,0,0,0,0,0,-1,1469,841,0,0
252,183,0,0,0,0,0,0,0,0,0,-1,1476,841,0,0
259,183,0,0,0,0,0,0,0,0,0,-1,1483,841,0,0
266,183,0,0,0,0,0,0,0,0,0,-1,1490,841,0,0
273,183,0,0,0,0,0,0,0,0,0,-1,1497,841,0,0
280,183,0,0,0,0,0,0,0,0,0,-1,1504,841,0,0
287,183,0,0,0,0,0,0,0,0,0,-1,1511,841,0,0
294,183,0,0,0,0,0,0,0,0,0,-1,1518,841,0,0
301,183,0,0,0,0,0,0,0,0,0,-1,1525,841,0,0
308,183,0,0,0,0,0,0,0,0,0,-1,1532,841,0,0
315,183,0,0,0,0,0,0,0,0,0,-1,1539,841,0,0
322,183,0,0,0,0,0,0,0,0,0,-1,1546,841,0,0
329,183,0,0,0,0,0,0,0,0,0,-1,1553,841,0,0
336,183,0,0,0,0,0,0,0,0,0,-1,1560,841,0,0
343,183,0,0,0,0,0,0,0,0,0,-1,1567,841,0,0
350,183,0,0,0,0,0,0,0,0,0,-1,1574,841,0,0
357,183,0,0,0,0,0,0,0,0,0,-1,1581,841,0,0
364,183,0,0,0,0,0,0,0,0,0,-1,1588,841,0,0
371,183,0,0,0,0,0,0,0,0,0,-1,1595,841,0,0
378,183,0,0,0,0,0,0,0,0,0,-1,1602,841,0,0
385,183,0,0,0,0,0,0,0,0,0,-1,1609,841,0,0
392,183,0,0,0,0,0,0,0,0,0,-1,1616,841,0,0
399,183,0,0,0,0,0,0,0,0,0,-1,1623,841,0,0
406,183,0,0,0,0,0,0,0,0,0,-1,1630,841,0,0
413,183,0,0,0,0,0,0,0,0,0,-1,1637,841,0,0
420,183,0,0,0,0,0,0,0,0,0,-1,1644,841,0,0
427,183,0,0,0,0,0,0,0,0,0,-1,1651,841,0,0
434,183,0,0,0,0,0,0,0,0,0,-1,1658,841,0,0
441,183,0,0,0,0,0,0,0,0,0,-1,1665,841,0,0
448,183,0,0,0,0,0,0,0,0,0,-1,1672,841,0,0
455,183,0,0,0,0,0,0,0,0,0,-1,1679,841,0,0
462,183,0,0,0,0,0,0,0,0,0,-1,1686,841,0,0
469,183,0,0,0,0,0,0,0,0,0,-1,1693,841,0,0
476,183,0,0,0,0,0,0,0,0,0,-1,1700,841,0,0
483,183,0,0,0,0,0,0,0,0,0,-1,1707,841,0,0
490,183,0,0,0,0,0,0,0,0,0,-1,1714,841,0,0
497,183,0,0,0,0,0,0,0,0,0,-1,1721,841,0,0
504,183,0,0,0,0,0,0,0,0,0,-1,1728,841,0,0
511,183,0,0,0,0,0,0,0,0,0,-1,1735,841,0,0
518,183,0,0,0,0,0,0,0,0,0,-1,1742,841,0,0
525,183,0,0,0,0,0,0,0,0,0,-1,1749,841,0,0
532,183,0,0,0,0,0,0,0,0,0,-1,1756,841,0,0
539,183,0,0,0,0,0,0,0,0,0,-1,1763,841,0,0
546,183,0,0,0,0,0,0,0,0,0,-1,1770,841,0,0
553,183,0,0,0,0,0,0,0,0,0,-1,1777,841,0,0
560,183,0,0,0,0,0,0,0,0,0,-1,1784,841,0,0
567,183,0,0,0,0,0,0,0,0,0,-1,1791,841,0,0
574,183,0,0,0,0,0,0,0,0,0,-1,1798,841,0,0
581,183,0,0,0,0,0,0,0,0,0,-1,1805,841,0,0
588,183,0,0,0,0,0,0,0,0,0,-1,1812,841,0,0
595,183,0,0,0,0,0,0,0,0,0,-1,1819,841,0,0
602,183,0,0,0,0,0,0,0,0,0,-1,1826,841,0,0
609,183,44.7086,2.85645,0.00464333,0.00189113,-0.00259516,0.00620466,0.000329796,-0.541618,0.00403101,0.0407438,1833,841,44.7086,-2.85645
616,183,44.9176,2.83826,0.00390912,0.00227286,-0.00111285,0.00447221,0.00170977,-0.468431,0.00260577,0.0413282,1840,841,44.9177,-2.83828
623,183,45.0446,2.75629,0.00322068,0.00248507,0.000185643,0.00326488,0.00244088,0.233712,0.00196052,0.0470307,1847,841,45.0445,-2.75631
630,183,44.9199,2.8031,0.00240804,0.00251146,0.000976086,0.00343721,0.0014823,0.811861,0.00199072,0.0444311,1854,841,44.9199,-2.80312
637,183,44.795,2.77496,0.00153023,0.00225116,0.00120749,0.00315084,0.000630544,0.930449,0.00192511,0.0373139,1861,841,44.795,-2.77495
644,183,44.6321,2.80573,0.000790685,0.00180051,0.0011352,0.00253802,5.31691e-05,0.994648,0.00167457,0.0300079,1868,841,44.6321,-2.80575
651,183,44.7,2.83215,0.000272347,0.00126471,0.000907009,0.00180239,-0.000265329,1.03569,0.0012991,0.0260705,1875,841,44.6999,-2.83216
658,183,44.826,2.79889,0,0,0,0,0,0,0,-1,1882,841,44.8261,-2.79892
665,183,38.4337,2.66992,0,0,0,0,0,0,0,-1,1889,841,38.4337,-2.6699
672,183,29.168,1.54572,0,0,0,0,0,0,0,-1,1896,841,29.168,-1.54574
679,183,35.7666,1.29858,0,0,0,0,0,0,0,-1,1903,841,35.7666,-1.29861
686,183,35.6802,1.70337,-0.00156329,-0.000281901,-0.000311794,-0.000210061,-0.00163513,-1.34434,0.00102725,0.0262378,1910,841,35.6801,-1.70336
693,183,35.6526,2.14667,-0.0016355,-0.000395024,-0.000589643,-0.000159473,-0.00187105,-1.19074,0.00119775,0.0224917,1917,841,35.6525,-2.14669
700,183,35.58,2.64484,-0.00173861,-0.000481684,-0.000714986,-0.000158216,-0.00206207,-1.14594,0.00132513,0.0205142,1924,841,35.58,-2.64482
707,183,35.5179,3.12531,-0.00168908,0.000466777,-0.000741012,0.000696911,-0.00191922,-1.26967,0.00156441,0.0120935,1931,841,35.518,-3.12533
714,183,35.5309,3.60254,-0.00116606,0.00209159,-0.000260582,0.0021123,-0.00118677,-1.49148,0.00192954,0.0154506,1938,841,35.5308,-3.60255
721,183,35.5054,4.07458,-0.000519496,0.00441751,0.000489893,0.00446566,-0.000567638,1.47284,0.00318323,0.0141703,1945,841,35.5054,-4.07458
728,183,35.4795,4.55884,0.0014374,0.00740068,0.00132002,0.00767981,0.00115827,1.36241,0.00478079,0.0125041,1952,841,35.4795,-4.55885
735,183,35.4674,5.03308,0.00485554,0.0111209,0.00202355,0.0117176,0.00425881,1.28403,0.00684874,0.0116708,1959,841,35.4674,-5.03311
742,183,35.4313,5.55688,0.00893055,0.015756,0.00280058,0.016758,0.00792853,1.2272,0.00967989,0.011812,1966,841,35.4312,-5.55691
749,183,35.2836,6.42114,0.015297,0.021306,0.00345214,0.022878,0.013725,1.14349,0.0132962,0.0325819,1973,841,35.2836,-6.42117
756,183,35.1713,7.33325,0.0251812,0.0277859,0.0038922,0.0305879,0.0223793,0.946846,0.0182807,0.0478718,1980,841,35.1712,-7.33326
763,183,35.1001,8.1637,0,0,0,0,0,0,0,-1,1987,841,35.1001,-8.16369
770,183,35.5146,4.29053,0,0,0,0,0,0,0,-1,1994,841,35.5146,-4.29052
777,183,35.8634,3.97717,0,0,0,0,0,0,0,-1,2001,841,35.8634,-3.97714
784,183,0,0,0,0,0,0,0,0,0,-1,2008,841,0,0
791,183,0,0,0,0,0,0,0,0,0,-1,2015,841,0,0
798,183,0,0,0,0,0,0,0,0,0,-1,2022,841,0,0
805,183,0,0,0,0,0,0,0,0,0,-1,2029,841,0,0
812,183,0,0,0,0,0,0,0,0,0,-1,2036,841,0,0
-700,176,0,0,0,0,0,0,0,0,0,-1,524,848,0,0
-693,176,0,0,0,0,0,0,0,0,0,-1,531,848,0,0
-686,176,0,0,0,0,0,0,0,0,0,-1,538,848,0,0
-679,176,0,0,0,0,0,0,0,0,0,-1,545,848,0,0
-672,176,0,0,0,0,0,0,0,0,0,-1,552,848,0,0
-665,176,-28.4487,2.87634,0,0,0,0,0,0,0,-1,559,848,-28.4487,-2.87632
-658,176,-29.4591,5.03693,0,0,0,0,0,0,0,-1,566,848,-29.4591,-5.03691
-651,176,-28.8934,4.80615,0,0,0,0,0,0,0,-1,573,848,-28.8934,-4.80614
-644,176,-28.1279,4.24384,0.143293,0.064572,0.0655892,0.180426,0.0274395,0.515148,0.112261,0.0436356,580,848,-28.1279,-4.24385
-637,176,-27.1434,3.78888,0.101888,0.0502319,0.0504422,0.13273,0.0193898,0.548784,0.0827838,0.0422972,587,848,-27.1435,-3.78891
-630,176,-25.7702,3.26508,0,0,0,0,0,0,0,-1,594,848,-25.7702,-3.26506
-623,176,-25.573,3.76038,0.0461123,0.028323,0.0275683,0.0661853,0.00824996,0.62935,0.0416468,0.0433779,601,848,-25.573,-3.76037
-616,176,-25.6142,3.36908,0.0292276,0.0203603,0.0197147,0.045001,0.00458689,0.674794,0.0285946,0.027222,608,848,-25.6142,-3.36909
-609,176,-25.6312,2.94318,0.0176205,0.0140503,0.0137925,0.0297429,0.00192785,0.721044,0.0192182,0.0115024,615,848,-25.6312,-2.94317
-602,176,-25.6488,2.46356,0.0098066,0.00913012,0.00946659,0.018941,-4.26546e-06,0.767541,0.0126287,0.0119637,622,848,-25.6488,-2.46356
-595,176,-25.6531,1.98315,0.00476111,0.00526671,0.00638906,0.011408,-0.00138015,0.805171,0.00810463,0.0116491,629,848,-25.6532,-1.98317
-588,176,-25.6359,1.52313,0.00144465,0.00222577,0.00428695,0.00613992,-0.00246949,0.830825,0.005119,0.0136066,636,848,-25.6359,-1.52312
-581,176,-25.6781,1.09729,-0.000414495,0.000588392,0.0028573,0.00298792,-0.00281402,0.872261,0.00335025,0.0121075,643,848,-25.6781,-1.09726
-574,176,-25.7123,0.637024,-0.000535143,-0.000846831,0.00197421,0.00128937,-0.00267134,0.74601,0.00233265,0.0183241,650,848,-25.7123,-0.63705
-567,176,-25.5408,0.307678,0.000244569,-0.00145293,0.00202222,0.00158894,-0.0027973,0.586707,0.00256423,0.0486313,657,848,-25.5408,-0.307696
-560,176,-25.7174,-0.260742,0.000996935,-0.00206529,0.0020941,0.00205996,-0.00312832,0.469732,0.00301655,0.0369962,664,848,-25.7174,0.260746
-553,176,-25.6609,-0.811951,0,0,0,0,0,0,0,-1,671,848,-25.6609,0.811922
-546,176,-16.657,-0.403198,0,0,0,0,0,0,0,-1,678,848,-16.657,0.403182
-539,176,-22.7061,1.48657,0,0,0,0,0,0,0,-1,685,848,-22.7061,-1.48657
-532,176,-33.2313,1.11401,0,0,0,0,0,0,0,-1,692,848,-33.2313,-1.11401
-525,176,-33.3716,0.830688,0,0,0,0,0,0,0,-1,699,848,-33.3717,-0.830669
-518,176,-33.185,1.04218,0.00402878,-0.00335324,0.00190129,0.00448969,-0.00381415,0.237832,0.00479951,0.0424399,706,848,-33.185,-1.04216
-511,176,-33.0759,1.26263,0.00464833,-0.00335204,0.00174754,0.00501339,-0.0037171,0.205938,0.00505904,0.0391167,713,848,-33.0759,-1.26264
-504,176,-32.9825,1.40546,0.005174,-0.00301132,0.00150765,0.00544286,-0.00328018,0.176476,0.00508758,0.0412289,720,848,-32.9825,-1.40543
-497,176,-33.1682,1.39386,0.00476845,-0.00216844,0.00130378,0.0050054,-0.0024054,0.179779,0.00436552,0.0417506,727,848,-33.1682,-1.39387
-490,176,-33.259,1.28717,0.00341412,-0.000719088,0.00101306,0.00364907,-0.000954036,0.227891,0.00280533,0.0392724,734,848,-33.259,-1.28716
-483,176,0,0,0,0,0,0,0,0,0,-1,741,848,0,0
-476,176,0,0,0,0,0,0,0,0,0,-1,748,848,0,0
-469,176,0,0,0,0,0,0,0,0,0,-1,755,848,0,0
-462,176,0,0,0,0,0,0,0,0,0,-1,762,848,0,0
-455,176,0,0,0,0,0,0,0,0,0,-1,769,848,0,0
-448,176,0,0,0,0,0,0,0,0,0,-1,776,848,0,0
-441,176,0,0,0,0,0,0,0,0,0,-1,783,848,0,0
-434,176,0,0,0,0,0,0,0,0,0,-1,790,848,0,0
-427,176,0,0,0,0,0,0,0,0,0,-1,797,848,0,0
-420,176,0,0,0,0,0,0,0,0,0,-1,804,848,0,0
-413,176,0,0,0,0,0,0,0,0,0,-1,811,848,0,0
-406,176,0,0,0,0,0,0,0,0,0,-1,818,848,0,0
-399,176,0,0,0,0,0,0,0,0,0,-1,825,848,0,0
-392,176,0,0,0,0,0,0,0,0,0,-1,832,848,0,0
-385,176,0,0,0,0,0,0,0,0,0,-1,839,848,0,0
-378,176,0,0,0,0,0,0,0,0,0,-1,846,848,0,0
-371,176,0,0,0,0,0,0,0,0,0,-1,853,848,0,0
-364,176,0,0,0,0,0,0,0,0,0,-1,860,848,0,0
-357,176,0,0,0,0,0,0,0,0,0,-1,867,848,0,0
-350,176,0,0,0,0,0,0,0,0,0,-1,874,848,0,0
-343,176,0,0,0,0,0,0,0,0,0,-1,881,848,0,0
-336,176,0,0,0,0,0,0,0,0,0,-1,888,848,0,0
-329,176,0,0,0,0,0,0,0,0,0,-1,895,848,0,0
-322,176,0,0,0,0,0,0,0,0,0,-1,902,848,0,0
-315,176,0,0,0,0,0,0,0,0,0,-1,909,848,0,0
-308,176,0,0,0,0,0,0,0,0,0,-1,916,848,0,0
-301,176,0,0,0,0,0,0,0,0,0,-1,923,848,0,0
-294,176,0,0,0,0,0,0,0,0,0,-1,930,848,0,0
-287,176,0,0,0,0,0,0,0,0,0,-1,937,848,0,0
-280,176,0,0,0,0,0,0,0,0,0,-1,944,848,0,0
-273,176,0,0,0,0,0,0,0,0,0,-1,951,848,0,0
-266,176,0,0,0,0,0,0,0,0,0,-1,958,848,0,0
-259,176,0,0,0,0,0,0,0,0,0,-1,965,848,0,0
-252,176,0,0,0,0,0,0,0,0,0,-1,972,848,0,0
-245,176,0,0,0,0,0,0,0,0,0,-1,979,848,0,0
-238,176,0,0,0,0,0,0,0,0,0,-1,986,848,0,0
-231,176,0,0,0,0,0,0,0,0,0,-1,993,848,0,0
-224,176,0,0,0,0,0,0,0,0,0,-1,1000,848,0,0
-217,176,0,0,0,0,0,0,0,0,0,-1,1007,848,0,0
-210,176,0,0,0,0,0,0,0,0,0,-1,1014,848,0,0
-203,176,0,0,0,0,0,0,0,0,0,-1,1021,848,0,0
-196,176,0,0,0,0,0,0,0,0,0,-1,1028,848,0,0
-189,176,0,0,0,0,0,0,0,0,0,-1,1035,848,0,0
-182,176,0,0,0,0,0,0,0,0,0,-1,1042,848,0,0
-175,176,0,0,0,0,0,0,0,0,0,-1,1049,848,0,0
-168,176,0,0,0,0,0,0,0,0,0,-1,1056,848,0,0
-161,176,0,0,0,0,0,0,0,0,0,-1,1063,848,0,0
-154,176,0,0,0,0,0,0,0,0,0,-1,1070,848,0,0
-147,176,0,0,0,0,0,0,0,0,0,-1,1077,848,0,0
-140,176,0,0,0,0,0,0,0,0,0,-1,1084,848,0,0
-133,176,0,0,0,0,0,0,0,0,0,-1,1091,848,0,0
-126,176,0,0,0,0,0,0,0,0,0,-1,1098,848,0,0
-119,176,0,0,0,0,0,0,0,0,0,-1,1105,848,0,0
-112,176,0,0,0,0,0,0,0,0,0,-1,1112,848,0,0
-105,176,0,0,0,0,0,0,0,0,0,-1,1119,848,0,0
-98,176,0,0,0,0,0,0,0,0,0,-1,1126,848,0,0
-91,176,0,0,0,0,0,0,0,0,0,-1,1133,848,0,0
-84,176,0,0,0,0,0,0,0,0,0,-1,1140,848,0,0
-77,176,0,0,0,0,0,0,0,0,0,-1,1147,848,0,0
-70,176,0,0,0,0,0,0,0,0,0,-1,1154,848,0,0
-63,176,0,0,0,0,0,0,0,0,0,-1,1161,848,0,0
-56,176,0,0,0,0,0,0,0,0,0,-1,1168,848,0,0
-49,176,0,0,0,0,0,0,0,0,0,-1,1175,848,0,0
-42,176,0,0,0,0,0,0,0,0,0,-1,1182,848,0,0
-35,176,0,0,0,0,0,0,0,0,0,-1,1189,848,0,0
-28,176,0,0,0,0,0,0,0,0,0,-1,1196,848,0,0
-21,176,0,0,0,0,0,0,0,0,0,-1,1203,848,0,0
-14,176,0,0,0,0,0,0,0,0,0,-1,1210,848,0,0
-7,176,0,0,0,0,0,0,0,0,0,-1,1217,848,0,0
0,176,0,0,0,0,0,0,0,0,0,-1,1224,848,0,0
7,176,0,0,0,0,0,0,0,0,0,-1,1231,848,0,0
14,176,0,0,0,0,0,0,0,0,0,-1,1238,848,0,0
21,176,0,0,0,0,0,0,0,0,0,-1,1245,848,0,0
28,176,0,0,0,0,0,0,0,0,0,-1,1252,848,0,0
35,176,0,0,0,0,0,0,0,0,0,-1,1259,848,0,0
42,176,0,0,0,0,0,0,0,0,0,-1,1266,848,0,0
49,176,0,0,0,0,0,0,0,0,0,-1,1273,848,0,0
56,176,0,0,0,0,0,0,0,0,0,-1,1280,848,0,0
63,176,0,0,0,0,0,0,0,0,0,-1,1287,848,0,0
70,176,0,0,0,0,0,0,0,0,0,-1,1294,848,0,0
77,176,0,0,0,0,0,0,0,0,0,-1,1301,848,0,0
84,176,0,0,0,0,0,0,0,0,0,-1,1308,848,0,0
91,176,0,0,0,0,0,0,0,0,0,-1,1315,848,0,0
98,176,0,0,0,0,0,0,0,0,0,-1,1322,848,0,0
105,176,0,0,0,0,0,0,0,0,0,-1,1329,848,0,0
112,176,0,0,0,0,0,0,0,0,0,-1,1336,848,0,0
119,176,0,0,0,0,0,0,0,0,0,-1,1343,848,0,0
126,176,0,0,0,0,0,0,0,0,0,-1,1350,848,0,0
133,176,0,0,0,0,0,0,0,0,0,-1,1357,848,0,0
140,176,0,0,0,0,0,0,0,0,0,-1,1364,848,0,0
147,176,0,0,0,0,0,0,0,0,0,-1,1371,848,0,0
154,176,0,0,0,0,0,0,0,0,0,-1,1378,848,0,0
161,176,0,0,0,0,0,0,0,0,0,-1,1385,848,0,0
168,176,0,0,0,0,0,0,0,0,0,-1,1392,848,0,0
175,176,0,0,0,0,0,0,0,0,0,-1,1399,848,0,0
182,176,0,0,0,0,0,0,0,0,0,-1,1406,848,0,0
189,176,0,0,0,0,0,0,0,0,0,-1,1413,848,0,0
196,176,0,0,0,0,0,0,0,0,0,-1,1420,848,0,0
203,176,0,0,0,0,0,0,0,0,0,-1,1427,848,0,0
210,176,0,0,0,0,0,0,0,0,0,-1,1434,848,0,0
217,176,0,0,0,0,0,0,0,0,0,-1,1441,848,0,0
224,176,0,0,0,0,0,0,0,0,0,-1,1448,848,0,0
231,176,0,0,0,0,0,0,0,0,0,-1,1455,848,0,0
238,176,0,0,0,0,0,0,0,0,0,-1,1462,848,0,0
245,176,0,0,0,0,0,0,0,0,0,-1,1469,848,0,0
252,176,0,0,0,0,0,0,0,0,0,-1,1476,848,0,0
259,176,0,0,0,0,0,0,0,0,0,-1,1483,848,0,0
266,176,0,0,0,0,0,0,0,0,0,-1,1490,848,0,0
273,176,0,0,0,0,0,0,0,0,0,-1,1497,848,0,0
280,176,0,0,0,0,0,0,0,0,0,-1,1504,848,0,0
287,176,0,0,0,0,0,0,0,0,0,-1,1511,848,0,0
294,176,0,0,0,0,0,0,0,0,0,-1,1518,848,0,0
301,176,0,0,0,0,0,0,0,0,0,-1,1525,848,0,0
308,176,0,0,0,0,0,0,0,0,0,-1,1532,848,0,0
315,176,0,0,0,0,0,0,0,0,0,-1,1539,848,0,0
322,176,0,0,0,0,0,0,0,0,0,-1,1546,848,0,0
329,176,0,0,0,0,0,0,0,0,0,-1,1553,848,0,0
336,176,0,0,0,0,0,0,0,0,0,-1,1560,848,0,0
343,176,0,0,0,0,0,0,0,0,0,-1,1567,848,0,0
350,176,0,0,0,0,0,0,0,0,0,-1,1574,848,0,0
357,176,0,0,0,0,0,0,0,0,0,-1,1581,848,0,0
364,176,0,0,0,0,0,0,0,0,0,-1,1588,848,0,0
371,176,0,0,0,0,0,0,0,0,0,-1,1595,848,0,0
378,176,0,0,0,0,0,0,0,0,0,-1,1602,848,0,0
385,176,0,0,0,0,0,0,0,0,0,-1,1609,848,0,0
392,176,0,0,0,0,0,0,0,0,0,-1,1616,848,0,0
399,176,0,0,0,0,0,0,0,0,0,-1,1623,848,0,0
406,176,0,0,0,0,0,0,0,0,0,-1,1630,848,0,0
413,176,0,0,0,0,0,0,0,0,0,-1,1637,848,0,0
420,176,0,0,0,0,0,0,0,0,0,-1,1644,848,0,0
427,176,0,0,0,0,0,0,0,0,0,-1,1651,848,0,0
434,176,0,0,0,0,0,0,0,0,0,-1,1658,848,0,0
441,176,0,0,0,0,0,0,0,0,0,-1,1665,848,0,0
448,176,0,0,0,0,0,0,0,0,0,-1,1672,848,0,0
455,176,0,0,0,0,0,0,0,0,0,-1,1679,848,0,0
462,176,0,0,0,0,0,0,0,0,0,-1,1686,848,0,0
469,176,0,0,0,0,0,0,0,0,0,-1,1693,848,0,0
476,176,0,0,0,0,0,0,0,0,0,-1,1700,848,0,0
483,176,0,0,0,0,0,0,0,0,0,-1,1707,848,0,0
490,176,0,0,0,0,0,0,0,0,0,-1,1714,848,0,0
497,176,0,0,0,0,0,0,0,0,0,-1,1721,848,0,0
504,176,0,0,0,0,0,0,0,0,0,-1,1728,848,0,0
511,176,0,0,0,0,0,0,0,0,0,-1,1735,848,0,0
518,176,0,0,0,0,0,0,0,0,0,-1,1742,848,0,0
525,176,0,0,0,0,0,0,0,0,0,-1,1749,848,0,0
532,176,0,0,0,0,0,0,0,0,0,-1,1756,848,0,0
539,176,0,0,0,0,0,0,0,0,0,-1,1763,848,0,0
546,176,0,0,0,0,0,0,0,0,0,-1,1770,848,0,0
553,176,0,0,0,0,0,0,0,0,0,-1,1777,848,0,0
560,176,0,0,0,0,0,0,0,0,0,-1,1784,848,0,0
567,176,0,0,0,0,0,0,0,0,0,-1,1791,848,0,0
574,176,0,0,0,0,0,0,0,0,0,-1,1798,848,0,0
581,176,0,0,0,0,0,0,0,0,0,-1,1805,848,0,0
588,176,0,0,0,0,0,0,0,0,0,-1,1812,848,0,0
595,176,0,0,0,0,0,0,0,0,0,-1,1819,848,0,0
602,176,0,0,0,0,0,0,0,0,0,-1,1826,848,0,0
609,176,44.7423,2.80579,0.00547401,0.00208766,-0.00280186,0.00705456,0.000507105,-0.513609,0.00454345,0.0384531,1833,848,44.7423,-2.80577
616,176,44.9196,2.69275,0.00410617,0.00223238,-0.0015927,0.0050171,0.00132145,-0.519532,0.00300279,0.0408983,1840,848,44.9196,-2.69273
623,176,45.1174,2.591,0.00300429,0.00235658,-0.000355282,0.00316117,0.0021997,-0.41582,0.00187119,0.0477226,1847,848,45.1174,-2.591
630,176,45.1271,2.62659,0.00203133,0.00235839,0.000519105,0.00273911,0.00165061,0.937987,0.00159249,0.0435042,1854,848,45.1271,-2.62661
637,176,44.7869,2.77783,0.00115618,0.00219893,0.000949615,0.00276088,0.000594224,1.03645,0.00167796,0.033147,1861,848,44.7869,-2.77781
644,176,44.6442,2.84546,0.000482529,0.00181871,0.0010096,0.00236125,-6.00172e-05,1.07769,0.00159455,0.0304426,1868,848,44.6441,-2.84543
651,176,44.6769,2.87549,6.47823e-05,0.00131906,0.000861816,0.00175777,-0.000373926,1.09993,0.00131434,0.0316917,1875,848,44.6768,-2.87551
658,176,44.7639,2.79773,-0.00029427,0.000980484,0.000595557,0.00121542,-0.00052921,1.19505,0.00103291,0.0400014,1882,848,44.764,-2.7977
665,176,44.8724,2.75146,0,0,0,0,0,0,0,-1,1889,848,44.8724,-2.75146
672,176,16.9304,2.80719,0,0,0,0,0,0,0,-1,1896,848,16.9305,-2.80719
679,176,36.4615,1.23242,0,0,0,0,0,0,0,-1,1903,848,36.4616,-1.23239
686,176,36.3229,1.76874,-0.00126444,-0.000198343,-0.000150721,-0.000177444,-0.00128534,-1.43302,0.000804293,0.0369899,1910,848,36.3228,-1.76871
693,176,36.1805,2.26611,-0.00130167,-0.000323161,-0.000384528,-0.000190135,-0.00143469,-1.23774,0.000899806,0.020537,1917,848,36.1805,-2.26612
700,176,36.054,2.74805,-0.00136003,-0.000441378,-0.000538677,-0.000192782,-0.00160863,-1.13843,0.00101428,0.0229937,1924,848,36.0539,-2.74803
707,176,36.0571,3.19623,-0.00131614,0.00036982,-0.000710957,0.000629599,-0.00157591,-1.22048,0.00131184,0.0148408,1931,848,36.0571,-3.19622
714,176,36.0194,3.62207,-0.00091298,0.00172944,-0.000480179,0.001814,-0.000997532,-1.3965,0.00164589,0.0123102,1938,848,36.0194,-3.6221
721,176,35.9896,4.07214,-0.000407377,0.00379628,-6.44345e-05,0.00379726,-0.000408364,-1.55547,0.00267803,0.0119813,1945,848,35.9897,-4.07215
728,176,35.9767,4.56628,0.00166426,0.00652123,0.00035158,0.00654655,0.00163894,1.49891,0.00393356,0.0148859,1952,848,35.9767,-4.56628
735,176,35.9567,5.04449,0.00552407,0.00993042,0.000555888,0.00999947,0.00545502,1.44722,0.00578117,0.0143849,1959,848,35.9566,-5.04449
742,176,35.9388,5.51678,0.0101731,0.0141191,0.000739331,0.0142531,0.0100391,1.39153,0.00845498,0.0184454,1966,848,35.9389,-5.51679
749,176,35.9347,6.00671,0.0173856,0.0189743,0.000643021,0.0192019,0.017158,1.23054,0.0121773,0.0313551,1973,848,35.9347,-6.00673
756,176,36.6876,5.84064,0.0284489,0.0244427,0.000163629,0.0284556,0.024436,0.0407533,0.0177826,0.0482356,1980,848,36.6876,-5.84066
763,176,37.3953,5.80676,0,0,0,0,0,0,0,-1,1987,848,37.3953,-5.80674
770,176,36.4186,4.25641,0,0,0,0,0,0,0,-1,1994,848,36.4186,-4.25639
777,176,36.828,3.72211,0,0,0,0,0,0,0,-1,2001,848,36.828,-3.72213
784,176,0,0,0,0,0,0,0,0,0,-1,2008,848,0,0
791,176,0,0,0,0,0,0,0,0,0,-1,2015,848,0,0
798,176,0,0,0,0,0,0,0,0,0,-1,2022,848,0,0
805,176,0,0,0,0,0,0,0,0,0,-1,2029,848,0,0
812,176,0,0,0,0,0,0,0,0,0,-1,2036,848,0,0
-700,169,0,0,0,0,0,0,0,0,0,-1,524,855,0,0
-693,169,0,0,0,0,0,0,0,0,0,-1,531,855,0,0
-686,169,0,0,0,0,0,0,0,0,0,-1,538,855,0,0
-679,169,0,0,0,0,0,0,0,0,0,-1,545,855,0,0
-672,169,0,0,0,0,0,0,0,0,0,-1,552,855,0,0
-665,169,-27.82,3.31958,0,0,0,0,0,0,0,-1,559,855,-27.82,-3.3196
-658,169,-27.4872,4.75085,0,0,0,0,0,0,0,-1,566,855,-27.4872,-4.75087
-651,169,-29.8133,4.33142,0,0,0,0,0,0,0,-1,573,855,-29.8133,-4.33141
-644,169,-28.8611,3.71881,0.140955,0.0615483,0.0631096,0.175811,0.0266917,0.504621,0.109401,0.0482728,580,855,-28.8611,-3.71882
-637,169,-27.9979,3.68396,0.100146,0.0475874,0.0483851,0.128927,0.0188056,0.536623,0.0804194,0.0468275,587,855,-27.9979,-3.68393
-630,169,-25.999,4.36847,0.0690324,0.035902,0.036163,0.0922437,0.0126908,0.570626,0.0577324,0.0463952,594,855,-25.999,-4.36845
-623,169,-26.0364,3.80603,0.0455058,0.0265481,0.0264715,0.0641444,0.00790955,0.613471,0.0403854,0.0391882,601,855,-26.0364,-3.80605
-616,169,-26.0789,3.35632,0.0288775,0.0189094,0.0189476,0.0434856,0.00430134,0.65679,0.0276683,0.0214531,608,855,-26.0789,-3.35633
-609,169,-26.1031,2.92621,0.0173568,0.0128546,0.0132437,0.0285394,0.001672,0.701216,0.0184941,0.0126573,615,855,-26.1032,-2.92621
-602,169,-26.1254,2.46289,0.00950372,0.0080846,0.0090171,0.0178391,-0.000250813,0.746134,0.0119772,0.0124159,622,855,-26.1254,-2.46287
-595,169,-26.1277,1.98322,0.00450417,0.00439212,0.00602181,0.0104702,-0.00157393,0.780747,0.0075596,0.0118217,629,855,-26.1278,-1.98322
-588,169,-26.117,1.54535,0.00144791,0.00164347,0.00403703,0.0055839,-0.00249252,0.797506,0.00477543,0.0104359,636,855,-26.117,-1.54533
-581,169,-26.1528,1.13458,-0.000104265,0.000291018,0.00273252,0.00283303,-0.00264628,0.8215,0.0031641,0.0143556,643,855,-26.1528,-1.13457
-574,169,-26.3362,0.663025,-0.000234714,-0.000910328,0.00191175,0.00136885,-0.00251389,0.697951,0.00227396,0.0260551,650,855,-26.3362,-0.663048
-567,169,-26.1115,0.314148,0.000470982,-0.00142865,0.00199438,0.00173017,-0.00268784,0.563166,0.00257064,0.0375506,657,855,-26.1114,-0.314151
-560,169,-26.1641,-0.036377,0.00118886,-0.00200579,0.00206935,0.00220566,-0.00302259,0.456713,0.00303079,0.0423576,664,855,-26.164,0.0363991
-553,169,-26.0517,-0.421875,0,0,0,0,0,0,0,-1,671,855,-26.0517,0.421904
-546,169,-19.0852,-1.05609,0,0,0,0,0,0,0,-1,678,855,-19.0852,1.05612
-539,169,-33.2307,1.10706,0,0,0,0,0,0,0,-1,685,855,-33.2307,-1.10708
-532,169,-33.2369,1.0827,0.00297917,-0.00280438,0.00224892,0.00375072,-0.00357594,0.330496,0.00423045,0.04998,692,855,-33.2369,-1.08268
-525,169,-33.2885,0.884399,0.00354404,-0.00298074,0.00219275,0.00421247,-0.00364917,0.295888,0.0045428,0.0450934,699,855,-33.2885,-0.884422
-518,169,-33.0867,1.03302,0.00384811,-0.00292246,0.00222292,0.00451271,-0.00358706,0.290515,0.00468657,0.0414593,706,855,-33.0867,-1.033
-511,169,-32.9721,1.38513,0.00433245,-0.00274076,0.00225092,0.00498801,-0.00339632,0.2834,0.00486968,0.040556,713,855,-32.9721,-1.38512
-504,169,-33.0819,1.51825,0.0044675,-0.00199314,0.00227421,0.00518775,-0.00271339,0.306709,0.00463569,0.041472,720,855,-33.0819,-1.51822
-497,169,-33.1813,1.35858,0.00359267,-0.000652251,0.00248817,0.00474065,-0.00180024,0.432275,0.0039015,0.0426756,727,855,-33.1813,-1.35857
-490,169,0,0,0,0,0,0,0,0,0,-1,734,855,0,0
-483,169,0,0,0,0,0,0,0,0,0,-1,741,855,0,0
-476,169,0,0,0,0,0,0,0,0,0,-1,748,855,0,0
-469,169,0,0,0,0,0,0,0,0,0,-1,755,855,0,0
-462,169,0,0,0,0,0,0,0,0,0,-1,762,855,0,0
-455,169,0,0,0,0,0,0,0,0,0,-1,769,855,0,0
-448,169,0,0,0,0,0,0,0,0,0,-1,776,855,0,0
-441,169,0,0,0,0,0,0,0,0,0,-1,783,855,0,0
-434,169,0,0,0,0,0,0,0,0,0,-1,790,855,0,0
-427,169,0,0,0,0,0,0,0,0,0,-1,797,855,0,0
-420,169,0,0,0,0,0,0,0,0,0,-1,804,855,0,0
-413,169,0,0,0,0,0,0,0,0,0,-1,811,855,0,0
-406,169,0,0,0,0,0,0,0,0,0,-1,818,855,0,0
-399,169,0,0,0,0,0,0,0,0,0,-1,825,855,0,0
-392,169,0,0,0,0,0,0,0,0,0,-1,832,855,0,0
-385,169,0,0,0,0,0,0,0,0,0,-1,839,855,0,0
-378,169,0,0,0,0,0,0,0,0,0,-1,846,855,0,0
-371,169,0,0,0,0,0,0,0,0,0,-1,853,855,0,0
-364,169,0,0,0,0,0,0,0,0,0,-1,860,855,0,0
-357,169,0,0,0,0,0,0,0,0,0,-1,867,855,0,0
-350,169,0,0,0,0,0,0,0,0,0,-1,874,855,0,0
-343,169,0,0,0,0,0,0,0,0,0,-1,881,855,0,0
-336,169,0,0,0,0,0,0,0,0,0,-1,888,855,0,0
-329,169,0,0,0,0,0,0,0,0,0,-1,895,855,0,0
-322,169,0,0,0,0,0,0,0,0,0,-1,902,855,0,0
-315,169,0,0,0,0,0,0,0,0,0,-1,909,855,0,0
-308,169,0,0,0,0,0,0,0,0,0,-1,916,855,0,0
-301,169,0,0,0,0,0,0,0,0,0,-1,923,855,0,0
-294,169,0,0,0,0,0,0,0,0,0,-1,930,855,0,0
-287,169,0,0,0,0,0,0,0,0,0,-1,937,855,0,0
-280,169,0,0,0,0,0,0,0,0,0,-1,944,855,0,0
-273,169,0,0,0,0,0,0,0,0,0,-1,951,855,0,0
-266,169,0,0,0,0,0,0,0,0,0,-1,958,855,0,0
-259,169,0,0,0,0,0,0,0,0,0,-1,965,855,0,0
-252,169,0,0,0,0,0,0,0,0,0,-1,972,855,0,0
-245,169,0,0,0,0,0,0,0,0,0,-1,979,855,0,0
-238,169,0,0,0,0,0,0,0,0,0,-1,986,855,0,0
-231,169,0,0,0,0,0,0,0,0,0,-1,993,855,0,0
-224,169,0,0,0,0,0,0,0,0,0,-1,1000,855,0,0
-217,169,0,0,0,0,0,0,0,0,0,-1,1007,855,0,0
-210,169,0,0,0,0,0,0,0,0,0,-1,1014,855,0,0
-203,169,0,0,0,0,0,0,0,0,0,-1,1021,855,0,0
-196,169,0,0,0,0,0,0,0,0,0,-1,1028,855,0,0
-189,169,0,0,0,0,0,0,0,0,0,-1,1035,855,0,0
-182,169,0,0,0,0,0,0,0,0,0,-1,1042,855,0,0
-175,169,0,0,0,0,0,0,0,0,0,-1,1049,855,0,0
-168,169,0,0,0,0,0,0,0,0,0,-1,1056,855,0,0
-161,169,0,0,0,0,0,0,0,0,0,-1,1063,855,0,0
-154,169,0,0,0,0,0,0,0,0,0,-1,1070,855,0,0
-147,169,0,0,0,0,0,0,0,0,0,-1,1077,855,0,0
-140,169,0,0,0,0,0,0,0,0,0,-1,1084,855,0,0
-133,169,0,0,0,0,0,0,0,0,0,-1,1091,855,0,0
-126,169,0,0,0,0,0,0,0,0,0,-1,1098,855,0,0
-119,169,0,0,0,0,0,0,0,0,0,-1,1105,855,0,0
-112,169,0,0,0,0,0,0,0,0,0,-1,1112,855,0,0
-105,169,0,0,0,0,0,0,0,0,0,-1,1119,855,0,0
-98,169,0,0,0,0,0,0,0,0,0,-1,1126,855,0,0
-91,169,0,0,0,0,0,0,0,0,0,-1,1133,855,0,0
-84,169,0,0,0,0,0,0,0,0,0,-1,1140,855,0,0
-77,169,0,0,0,0,0,0,0,0,0,-1,1147,855,0,0
-70,169,0,0,0,0,0,0,0,0,0,-1,1154,855,0,0
-63,169,0,0,0,0,0,0,0,0,0,-1,1161,855,0,0
-56,169,0,0,0,0,0,0,0,0,0,-1,1168,855,0,0
-49,169,0,0,0,0,0,0,0,0,0,-1,1175,855,0,0
-42,169,0,0,0,0,0,0,0,0,0,-1,1182,855,0,0
-35,169,0,0,0,0,0,0,0,0,0,-1,1189,855,0,0
-28,169,0,0,0,0,0,0,0,0,0,-1,1196,855,0,0
-21,169,0,0,0,0,0,0,0,0,0,-1,1203,855,0,0
-14,169,0,0,0,0,0,0,0,0,0,-1,1210,855,0,0
-7,169,0,0,0,0,0,0,0,0,0,-1,1217,855,0,0
0,169,0,0,0,0,0,0,0,0,0,-1,1224,855,0,0
7,169,0,0,0,0,0,0,0,0,0,-1,1231,855,0,0
14,169,0,0,0,0,0,0,0,0,0,-1,1238,855,0,0
21,169,0,0,0,0,0,0,0,0,0,-1,1245,855,0,0
28,169,0,0,0,0,0,0,0,0,0,-1,1252,855,0,0
35,169,0,0,0,0,0,0,0,0,0,-1,1259,855,0,0
42,169,0,0,0,0,0,0,0,0,0,-1,1266,855,0,0
49,169,0,0,0,0,0,0,0,0,0,-1,1273,855,0,0
56,169,0,0,0,0,0,0,0,0,0,-1,1280,855,0,0
63,169,0,0,0,0,0,0,0,0,0,-1,1287,855,0,0
70,169,0,0,0,0,0,0,0,0,0,-1,1294,855,0,0
77,169,0,0,0,0,0,0,0,0,0,-1,1301,855,0,0
84,169,0,0,0,0,0,0,0,0,0,-1,1308,855,0,0
91,169,0,0,0,0,0,0,0,0,0,-1,1315,855,0,0
98,169,0,0,0,0,0,0,0,0,0,-1,1322,855,0,0
105,169,0,0,0,0,0,0,0,0,0,-1,1329,855,0,0
112,169,0,0,0,0,0,0,0,0,0,-1,1336,855,0,0
119,169,0,0,0,0,0,0,0,0,0,-1,1343,855,0,0
126,169,0,0,0,0,0,0,0,0,0,-1,1350,855,0,0
133,169,0,0,0,0,0,0,0,0,0,-1,1357,855,0,0
140,169,0,0,0,0,0,0,0,0,0,-1,1364,855,0,0
147,169,0,0,0,0,0,0,0,0,0,-1,1371,855,0,0
154,169,0,0,0,0,0,0,0,0,0,-1,1378,855,0,0
161,169,0,0,0,0,0,0,0,0,0,-1,1385,855,0,0
168,169,0,0,0,0,0,0,0,0,0,-1,1392,855,0,0
175,169,0,0,0,0,0,0,0,0,0,-1,1399,855,0,0
182,169,0,0,0,0,0,0,0,0,0,-1,1406,855,0,0
189,169,0,0,0,0,0,0,0,0,0,-1,1413,855,0,0
196,169,0,0,0,0,0,0,0,0,0,-1,1420,855,0,0
203,169,0,0,0,0,0,0,0,0,0,-1,1427,855,0,0
210,169,0,0,0,0,0,0,0,0,0,-1,1434,855,0,0
217,169,0,0,0,0,0,0,0,0,0,-1,1441,855,0,0
224,169,0,0,0,0,0,0,0,0,0,-1,1448,855,0,0
231,169,0,0,0,0,0,0,0,0,0,-1,1455,855,0,0
238,169,0,0,0,0,0,0,0,0,0,-1,1462,855,0,0
245,169,0,0,0,0,0,0,0,0,0,-1,1469,855,0,0
252,169,0,0,0,0,0,0,0,0,0,-1,1476,855,0,0
259,169,0,0,0,0,0,0,0,0,0,-1,1483,855,0,0
266,169,0,0,0,0,0,0,0,0,0,-1,1490,855,0,0
273,169,0,0,0,0,0,0,0,0,0,-1,1497,855,0,0
280,169,0,0,0,0,0,0,0,0,0,-1,1504,855,0,0
287,169,0,0,0,0,0,0,0,0,0,-1,1511,855,0,0
294,169,0,0,0,0,0,0,0,0,0,-1,1518,855,0,0
301,169,0,0,0,0,0,0,0,0,0,-1,1525,855,0,0
308,169,0,0,0,0,0,0,0,0,0,-1,1532,855,0,0
315,169,0,0,0,0,0,0,0,0,0,-1,1539,855,0,0
322,169,0,0,0,0,0,0,0,0,0,-1,1546,855,0,0
329,169,0,0,0,0,0,0,0,0,0,-1,1553,855,0,0
336,169,0,0,0,0,0,0,0,0,0,-1,1560,855,0,0
343,169,0,0,0,0,0,0,0,0,0,-1,1567,855,0,0
350,169,0,0,0,0,0,0,0,0,0,-1,1574,855,0,0
357,169,0,0,0,0,0,0,0,0,0,-1,1581,855,0,0
364,169,0,0,0,0,0,0,0,0,0,-1,1588,855,0,0
371,169,0,0,0,0,0,0,0,0,0,-1,1595,855,0,0
378,169,0,0,0,0,0,0,0,0,0,-1,1602,855,0,0
385,169,0,0,0,0,0,0,0,0,0,-1,1609,855,0,0
392,169,0,0,0,0,0,0,0,0,0,-1,1616,855,0,0
399,169,0,0,0,0,0,0,0,0,0,-1,1623,855,0,0
406,169,0,0,0,0,0,0,0,0,0,-1,1630,855,0,0
413,169,0,0,0,0,0,0,0,0,0,-1,1637,855,0,0
420,169,0,0,0,0,0,0,0,0,0,-1,1644,855,0,0
427,169,0,0,0,0,0,0,0,0,0,-1,1651,855,0,0
434,169,0,0,0,0,0,0,0,0,0,-1,1658,855,0,0
441,169,0,0,0,0,0,0,0,0,0,-1,1665,855,0,0
448,169,0,0,0,0,0,0,0,0,0,-1,1672,855,0,0
455,169,0,0,0,0,0,0,0,0,0,-1,1679,855,0,0
462,169,0,0,0,0,0,0,0,0,0,-1,1686,855,0,0
469,169,0,0,0,0,0,0,0,0,0,-1,1693,855,0,0
476,169,0,0,0,0,0,0,0,0,0,-1,1700,855,0,0
483,169,0,0,0,0,0,0,0,0,0,-1,1707,855,0,0
490,169,0,0,0,0,0,0,0,0,0,-1,1714,855,0,0
497,169,0,0,0,0,0,0,0,0,0,-1,1721,855,0,0
504,169,0,0,0,0,0,0,0,0,0,-1,1728,855,0,0
511,169,0,0,0,0,0,0,0,0,0,-1,1735,855,0,0
518,169,0,0,0,0,0,0,0,0,0,-1,1742,855,0,0
525,169,0,0,0,0,0,0,0,0,0,-1,1749,855,0,0
532,169,0,0,0,0,0,0,0,0,0,-1,1756,855,0,0
539,169,0,0,0,0,0,0,0,0,0,-1,1763,855,0,0
546,169,0,0,0,0,0,0,0,0,0,-1,1770,855,0,0
553,169,0,0,0,0,0,0,0,0,0,-1,1777,855,0,0
560,169,0,0,0,0,0,0,0,0,0,-1,1784,855,0,0
567,169,0,0,0,0,0,0,0,0,0,-1,1791,855,0,0
574,169,0,0,0,0,0,0,0,0,0,-1,1798,855,0,0
581,169,0,0,0,0,0,0,0,0,0,-1,1805,855,0,0
588,169,0,0,0,0,0,0,0,0,0,-1,1812,855,0,0
595,169,0,0,0,0,0,0,0,0,0,-1,1819,855,0,0
602,169,0,0,0,0,0,0,0,0,0,-1,1826,855,0,0
609,169,0,0,0,0,0,0,0,0,0,-1,1833,855,0,0
616,169,44.8209,2.93024,0.00442656,0.00233343,-0.00182801,0.0054864,0.00127359,-0.525416,0.00331563,0.0427213,1840,855,44.8209,-2.93022
623,169,45.0889,2.70831,0.0028867,0.00224089,-0.000752326,0.00338249,0.0017451,-0.582683,0.00195321,0.0477584,1847,855,45.0889,-2.70828
630,169,44.9457,2.74426,0.00173343,0.00208179,9.21089e-05,0.00210464,0.00171057,1.32758,0.00129193,0.0450608,1854,855,44.9457,-2.74429
637,169,44.8048,2.78052,0.000853542,0.00192041,0.000655822,0.00223235,0.000541603,1.12682,0.00134456,0.0383119,1861,855,44.8048,-2.7805
644,169,44.7284,2.91357,0.000251695,0.00157543,0.000851975,0.00199242,-0.000165295,1.11563,0.00138666,0.0353887,1868,855,44.7283,-2.91358
651,169,44.6871,2.91028,-5.44075e-05,0.00111158,0.00080242,0.00152044,-0.00046326,1.09956,0.00119827,0.0369901,1875,855,44.6871,-2.91027
658,169,44.708,2.82922,-0.000318187,0.000789838,0.000619568,0.00106697,-0.000595315,1.1502,0.00097251,0.0382872,1882,855,44.708,-2.82923
665,169,44.7574,2.90845,0,0,0,0,0,0,0,-1,1889,855,44.7574,-2.90843
672,169,31.2465,2.96387,0,0,0,0,0,0,0,-1,1896,855,31.2464,-2.9639
679,169,36.7394,1.3103,0,0,0,0,0,0,0,-1,1903,855,36.7394,-1.31031
686,169,36.7252,1.80859,-0.000972778,-0.000307021,1.0797e-05,-0.000306846,-0.000972953,1.55458,0.000574358,0.0461147,1910,855,36.7252,-1.80858
693,169,36.693,2.29889,-0.00102532,-0.000401002,-0.000186577,-0.000349493,-0.00107683,-1.30143,0.000634337,0.0203886,1917,855,36.6929,-2.29892
700,169,36.688,2.80023,-0.0010625,-0.000466483,-0.000349906,-0.000304879,-0.0012241,-1.13813,0.000735805,0.0189165,1924,855,36.688,-2.80024
707,169,36.6069,3.22699,-0.00100357,0.000285178,-0.000611749,0.000529318,-0.00124771,-1.19108,0.00105354,0.0191738,1931,855,36.6069,-3.22699
714,169,36.4867,3.61108,-0.000658945,0.00139653,-0.000576417,0.00154714,-0.000809554,-1.31523,0.00138267,0.0153342,1938,855,36.4867,-3.61108
721,169,36.4535,4.08813,-0.000185465,0.00313258,-0.000467622,0.00319722,-0.000250109,-1.43343,0.00221955,0.0163041,1945,855,36.4535,-4.08812
728,169,36.479,4.59253,0.00204566,0.00551134,-0.000431252,0.0055642,0.0019928,-1.44884,0.0032553,0.0134527,1952,855,36.479,-4.59254
735,169,36.4474,5.06348,0.00636608,0.00850216,-0.000664791,0.00869215,0.00617608,-1.29242,0.00516458,0.0199089,1959,855,36.4474,-5.06351
742,169,36.4243,5.53406,0.0116535,0.0121383,-0.000987624,0.0129129,0.010879,-0.905753,0.00801707,0.0159418,1966,855,36.4243,-5.53407
749,169,36.3662,5.96588,0.0197208,0.0162172,-0.00167681,0.0203939,0.015544,-0.381764,0.0123022,0.0268664,1973,855,36.3662,-5.96588
756,169,36.4398,6.38666,0,0,0,0,0,0,0,-1,1980,855,36.4398,-6.38665
763,169,36.3302,6.63281,0,0,0,0,0,0,0,-1,1987,855,36.3302,-6.6328
770,169,37.2059,3.97021,0,0,0,0,0,0,0,-1,1994,855,37.2059,-3.97022
777,169,37.9381,9.14392,0,0,0,0,0,0,0,-1,2001,855,37.9381,-9.1439
784,169,37.6997,9.83215,0,0,0,0,0,0,0,-1,2008,855,37.6997,-9.83216
791,169,0,0,0,0,0,0,0,0,0,-1,2015,855,0,0
798,169,0,0,0,0,0,0,0,0,0,-1,2022,855,0,0
805,169,0,0,0,0,0,0,0,0,0,-1,2029,855,0,0
812,169,0,0,0,0,0,0,0,0,0,-1,2036,855,0,0
-700,162,0,0,0,0,0,0,0,0,0,-1,524,862,0,0
-693,162,0,0,0,0,0,0,0,0,0,-1,531,862,0,0
-686,162,0,0,0,0,0,0,0,0,0,-1,538,862,0,0
-679,162,0,0,0,0,0,0,0,0,0,-1,545,862,0,0
-672,162,0,0,0,0,0,0,0,0,0,-1,552,862,0,0
-665,162,-33.9628,5.87836,0,0,0,0,0,0,0,-1,559,862,-33.9627,-5.87838
-658,162,-26.8021,5.25452,0,0,0,0,0,0,0,-1,566,862,-26.802,-5.25454
-651,162,-25.6083,3.5105,0,0,0,0,0,0,0,-1,573,862,-25.6083,-3.51047
-644,162,-29.7795,4.09979,0,0,0,0,0,0,0,-1,580,862,-29.7795,-4.0998
-637,162,-28.7462,3.66223,0.094854,0.0435755,0.0451017,0.121095,0.0173347,0.526939,0.0756169,0.0492059,587,862,-28.7462,-3.66225
-630,162,-27.7712,3.48175,0.0652607,0.0327596,0.033682,0.0864074,0.0116129,0.560635,0.0541506,0.048817,594,862,-27.7712,-3.48178
-623,162,-26.5841,3.70923,0.0430107,0.0242047,0.024698,0.0600351,0.00718026,0.603511,0.0378576,0.0355022,601,862,-26.5841,-3.7092
-616,162,-26.4988,3.36676,0.027212,0.0171601,0.0176907,0.0405768,0.00379533,0.646995,0.025879,0.0195335,608,862,-26.4989,-3.36674
-609,162,-26.5624,2.92078,0.0161869,0.0115381,0.0123341,0.0264137,0.00131128,0.692264,0.0171887,0.0134456,615,862,-26.5624,-2.92075
-602,162,-26.5939,2.45367,0.00861748,0.00707189,0.00831582,0.0161963,-0.000506961,0.739066,0.0109704,0.0115883,622,862,-26.5939,-2.45369
-595,162,-26.5916,2.01074,0.00392414,0.00370162,0.00549975,0.00931375,-0.00168799,0.775285,0.0068416,0.0110986,629,862,-26.5916,-2.01072
-588,162,-26.5892,1.57367,0.00130744,0.00135544,0.003687,0.00501852,-0.00235564,0.788653,0.00434902,0.0112979,636,862,-26.5892,-1.57364
-581,162,-26.7427,1.13928,0.000102746,0.000306761,0.00250205,0.00270889,-0.00229938,0.805772,0.00289474,0.0221977,643,862,-26.7427,-1.13929
-574,162,-26.9594,0.685486,-5.15974e-05,-0.000678303,0.00172523,0.00138851,-0.00211841,0.695563,0.00203928,0.0340192,650,862,-26.9594,-0.685494
-567,162,-26.8825,0.230652,0.000558923,-0.00110812,0.00180498,0.00171354,-0.00226274,0.569091,0.00230299,0.041648,657,862,-26.8825,-0.230679
-560,162,-26.7109,-0.399475,0.00123624,-0.00161464,0.00186816,0.00216067,-0.00253907,0.459507,0.00271633,0.0375466,664,862,-26.7109,0.399502
-553,162,-26.3803,-0.98999,0,0,0,0,0,0,0,-1,671,862,-26.3803,0.990002
-546,162,-22.8181,-1.51154,0,0,0,0,0,0,0,-1,678,862,-22.8181,1.51155
-539,162,-33.2348,1.12183,0,0,0,0,0,0,0,-1,685,862,-33.2348,-1.12183
-532,162,-33.2064,1.05457,0.00290462,-0.00217774,0.00209835,0.00365899,-0.00293211,0.345119,0.00381308,0.0357606,692,862,-33.2064,-1.05458
-525,162,-33.2084,0.941223,0.00331924,-0.00229968,0.00214043,0.00404171,-0.00302214,0.325526,0.00409246,0.0380181,699,862,-33.2084,-0.94121
-518,162,-33.1698,0.96283,0.00345841,-0.00212238,0.00233601,0.00430714,-0.00297111,0.348496,0.00422563,0.0401311,706,862,-33.1698,-0.962824
-511,162,-33.4769,0.897949,0,0,0,0,0,0,0,-1,713,862,-33.477,-0.897965
-504,162,-33.4399,0.888123,0.00342081,-0.000486032,0.00316439,0.00518615,-0.00225138,0.508872,0.00440408,0.0465196,720,862,-33.4399,-0.888119
-497,162,-33.2708,1.03009,0.00220828,0.00133731,0.00397318,0.00576977,-0.00222418,0.730813,0.00476423,0.0441479,727,862,-33.2708,-1.03007
-490,162,0,0,0,0,0,0,0,0,0,-1,734,862,0,0
-483,162,0,0,0,0,0,0,0,0,0,-1,741,862,0,0
-476,162,0,0,0,0,0,0,0,0,0,-1,748,862,0,0
-469,162,0,0,0,0,0,0,0,0,0,-1,755,862,0,0
-462,162,0,0,0,0,0,0,0,0,0,-1,762,862,0,0
-455,162,0,0,0,0,0,0,0,0,0,-1,769,862,0,0
-448,162,0,0,0,0,0,0,0,0,0,-1,776,862,0,0
-441,162,0,0,0,0,0,0,0,0,0,-1,783,862,0,0
-434,162,0,0,0,0,0,0,0,0,0,-1,790,862,0,0
-427,162,0,0,0,0,0,0,0,0,0,-1,797,862,0,0
-420,162,0,0,0,0,0,0,0,0,0,-1,804,862,0,0
-413,162,0,0,0,0,0,0,0,0,0,-1,811,862,0,0
-406,162,0,0,0,0,0,0,0,0,0,-1,818,862,0,0
-399,162,0,0,0,0,0,0,0,0,0,-1,825,862,0,0
-392,162,0,0,0,0,0,0,0,0,0,-1,832,862,0,0
-385,162,0,0,0,0,0,0,0,0,0,-1,839,862,0,0
-378,162,0,0,0,0,0,0,0,0,0,-1,846,862,0,0
-371,162,0,0,0,0,0,0,0,0,0,-1,853,862,0,0
-364,162,0,0,0,0,0,0,0,0,0,-1,860,862,0,0
-357,162,0,0,0,0,0,0,0,0,0,-1,867,862,0,0
-350,162,0,0,0,0,0,0,0,0,0,-1,874,862,0,0
-343,162,0,0,0,0,0,0,0,0,0,-1,881,862,0,0
-336,162,0,0,0,0,0,0,0,0,0,-1,888,862,0,0
-329,162,0,0,0,0,0,0,0,0,0,-1,895,862,0,0
-322,162,0,0,0,0,0,0,0,0,0,-1,902,862,0,0
-315,162,0,0,0,0,0,0,0,0,0,-1,909,862,0,0
-308,162,0,0,0,0,0,0,0,0,0,-1,916,862,0,0
-301,162,0,0,0,0,0,0,0,0,0,-1,923,862,0,0
-294,162,0,0,0,0,0,0,0,0,0,-1,930,862,0,0
-287,162,0,0,0,0,0,0,0,0,0,-1,937,862,0,0
-280,162,0,0,0,0,0,0,0,0,0,-1,944,862,0,0
-273,162,0,0,0,0,0,0,0,0,0,-1,951,862,0,0
-266,162,0,0,0,0,0,0,0,0,0,-1,958,862,0,0
-259,162,0,0,0,0,0,0,0,0,0,-1,965,862,0,0
-252,162,0,0,0,0,0,0,0,0,0,-1,972,862,0,0
-245,162,0,0,0,0,0,0,0,0,0,-1,979,862,0,0
-238,162,0,0,0,0,0,0,0,0,0,-1,986,862,0,0
-231,162,0,0,0,0,0,0,0,0,0,-1,993,862,0,0
-224,162,0,0,0,0,0,0,0,0,0,-1,1000,862,0,0
-217,162,0,0,0,0,0,0,0,0,0,-1,1007,862,0,0
-210,162,0,0,0,0,0,0,0,0,0,-1,1014,862,0,0
-203,162,0,0,0,0,0,0,0,0,0,-1,1021,862,0,0
-196,162,0,0,0,0,0,0,0,0,0,-1,1028,862,0,0
-189,162,0,0,0,0,0,0,0,0,0,-1,1035,862,0,0
-182,162,0,0,0,0,0,0,0,0,0,-1,1042,862,0,0
-175,162,0,0,0,0,0,0,0,0,0,-1,1049,862,0,0
-168,162,0,0,0,0,0,0,0,0,0,-1,1056,862,0,0
-161,162,0,0,0,0,0,0,0,0,0,-1,1063,862,0,0
-154,162,0,0,0,0,0,0,0,0,0,-1,1070,862,0,0
-147,162,0,0,0,0,0,0,0,0,0,-1,1077,862,0,0
-140,162,0,0,0,0,0,0,0,0,0,-1,1084,862,0,0
-133,162,0,0,0,0,0,0,0,0,0,-1,1091,862,0,0
-126,162,0,0,0,0,0,0,0,0,0,-1,1098,862,0,0
-119,162,0,0,0,0,0,0,0,0,0,-1,1105,862,0,0
-112,162,0,0,0,0,0,0,0,0,0,-1,1112,862,0,0
-105,162,0,0,0,0,0,0,0,0,0,-1,1119,862,0,0
-98,162,0,0,0,0,0,0,0,0,0,-1,1126,862,0,0
-91,162,0,0,0,0,0,0,0,0,0,-1,1133,862,0,0
-84,162,0,0,0,0,0,0,0,0,0,-1,1140,862,0,0
-77,162,0,0,0,0,0,0,0,0,0,-1,1147,862,0,0
-70,162,0,0,0,0,0,0,0,0,0,-1,1154,862,0,0
-63,162,0,0,0,0,0,0,0,0,0,-1,1161,862,0,0
-56,162,0,0,0,0,0,0,0,0,0,-1,1168,862,0,0
-49,162,0,0,0,0,0,0,0,0,0,-1,1175,862,0,0
-42,162,0,0,0,0,0,0,0,0,0,-1,1182,862,0,0
-35,162,0,0,0,0,0,0,0,0,0,-1,1189,862,0,0
-28,162,0,0,0,0,0,0,0,0,0,-1,1196,862,0,0
-21,162,0,0,0,0,0,0,0,0,0,-1,1203,862,0,0
-14,162,0,0,0,0,0,0,0,0,0,-1,1210,862,0,0
-7,162,0,0,0,0,0,0,0,0,0,-1,1217,862,0,0
0,162,0,0,0,0,0,0,0,0,0,-1,1224,862,0,0
7,162,0,0,0,0,0,0,0,0,0,-1,1231,862,0,0
14,162,0,0,0,0,0,0,0,0,0,-1,1238,862,0,0
21,162,0,0,0,0,0,0,0,0,0,-1,1245,862,0,0
28,162,0,0,0,0,0,0,0,0,0,-1,1252,862,0,0
35,162,0,0,0,0,0,0,0,0,0,-1,1259,862,0,0
42,162,0,0,0,0,0,0,0,0,0,-1,1266,862,0,0
49,162,0,0,0,0,0,0,0,0,0,-1,1273,862,0,0
56,162,0,0,0,0,0,0,0,0,0,-1,1280,862,0,0
63,162,0,0,0,0,0,0,0,0,0,-1,1287,862,0,0
70,162,0,0,0,0,0,0,0,0,0,-1,1294,862,0,0
77,162,0,0,0,0,0,0,0,0,0,-1,1301,862,0,0
84,162,0,0,0,0,0,0,0,0,0,-1,1308,862,0,0
91,162,0,0,0,0,0,0,0,0,0,-1,1315,862,0,0
98,162,0,0,0,0,0,0,0,0,0,-1,1322,862,0,0
105,162,0,0,0,0,0,0,0,0,0,-1,1329,862,0,0
112,162,0,0,0,0,0,0,0,0,0,-1,1336,862,0,0
119,162,0,0,0,0,0,0,0,0,0,-1,1343,862,0,0
126,162,0,0,0,0,0,0,0,0,0,-1,1350,862,0,0
133,162,0,0,0,0,0,0,0,0,0,-1,1357,862,0,0
140,162,0,0,0,0,0,0,0,0,0,-1,1364,862,0,0
147,162,0,0,0,0,0,0,0,0,0,-1,1371,862,0,0
154,162,0,0,0,0,0,0,0,0,0,-1,1378,862,0,0
161,162,0,0,0,0,0,0,0,0,0,-1,1385,862,0,0
168,162,0,0,0,0,0,0,0,0,0,-1,1392,862,0,0
175,162,0,0,0,0,0,0,0,0,0,-1,1399,862,0,0
182,162,0,0,0,0,0,0,0,0,0,-1,1406,862,0,0
189,162,0,0,0,0,0,0,0,0,0,-1,1413,862,0,0
196,162,0,0,0,0,0,0,0,0,0,-1,1420,862,0,0
203,162,0,0,0,0,0,0,0,0,0,-1,1427,862,0,0
210,162,0,0,0,0,0,0,0,0,0,-1,1434,862,0,0
217,162,0,0,0,0,0,0,0,0,0,-1,1441,862,0,0
224,162,0,0,0,0,0,0,0,0,0,-1,1448,862,0,0
231,162,0,0,0,0,0,0,0,0,0,-1,1455,862,0,0
238,162,0,0,0,0,0,0,0,0,0,-1,1462,862,0,0
245,162,0,0,0,0,0,0,0,0,0,-1,1469,862,0,0
252,162,0,0,0,0,0,0,0,0,0,-1,1476,862,0,0
259,162,0,0,0,0,0,0,0,0,0,-1,1483,862,0,0
266,162,0,0,0,0,0,0,0,0,0,-1,1490,862,0,0
273,162,0,0,0,0,0,0,0,0,0,-1,1497,862,0,0
280,162,0,0,0,0,0,0,0,0,0,-1,1504,862,0,0
287,162,0,0,0,0,0,0,0,0,0,-1,1511,862,0,0
294,162,0,0,0,0,0,0,0,0,0,-1,1518,862,0,0
301,162,0,0,0,0,0,0,0,0,0,-1,1525,862,0,0
308,162,0,0,0,0,0,0,0,0,0,-1,1532,862,0,0
315,162,0,0,0,0,0,0,0,0,0,-1,1539,862,0,0
322,162,0,0,0,0,0,0,0,0,0,-1,1546,862,0,0
329,162,0,0,0,0,0,0,0,0,0,-1,1553,862,0,0
336,162,0,0,0,0,0,0,0,0,0,-1,1560,862,0,0
343,162,0,0,0,0,0,0,0,0,0,-1,1567,862,0,0
350,162,0,0,0,0,0,0,0,0,0,-1,1574,862,0,0
357,162,0,0,0,0,0,0,0,0,0,-1,1581,862,0,0
364,162,0,0,0,0,0,0,0,0,0,-1,1588,862,0,0
371,162,0,0,0,0,0,0,0,0,0,-1,1595,862,0,0
378,162,0,0,0,0,0,0,0,0,0,-1,1602,862,0,0
385,162,0,0,0,0,0,0,0,0,0,-1,1609,862,0,0
392,162,0,0,0,0,0,0,0,0,0,-1,1616,862,0,0
399,162,0,0,0,0,0,0,0,0,0,-1,1623,862,0,0
406,162,0,0,0,0,0,0,0,0,0,-1,1630,862,0,0
413,162,0,0,0,0,0,0,0,0,0,-1,1637,862,0,0
420,162,0,0,0,0,0,0,0,0,0,-1,1644,862,0,0
427,162,0,0,0,0,0,0,0,0,0,-1,1651,862,0,0
434,162,0,0,0,0,0,0,0,0,0,-1,1658,862,0,0
441,162,0,0,0,0,0,0,0,0,0,-1,1665,862,0,0
448,162,0,0,0,0,0,0,0,0,0,-1,1672,862,0,0
455,162,0,0,0,0,0,0,0,0,0,-1,1679,862,0,0
462,162,0,0,0,0,0,0,0,0,0,-1,1686,862,0,0
469,162,0,0,0,0,0,0,0,0,0,-1,1693,862,0,0
476,162,0,0,0,0,0,0,0,0,0,-1,1700,862,0,0
483,162,0,0,0,0,0,0,0,0,0,-1,1707,862,0,0
490,162,0,0,0,0,0,0,0,0,0,-1,1714,862,0,0
497,162,0,0,0,0,0,0,0,0,0,-1,1721,862,0,0
504,162,0,0,0,0,0,0,0,0,0,-1,1728,862,0,0
511,162,0,0,0,0,0,0,0,0,0,-1,1735,862,0,0
518,162,0,0,0,0,0,0,0,0,0,-1,1742,862,0,0
525,162,0,0,0,0,0,0,0,0,0,-1,1749,862,0,0
532,162,0,0,0,0,0,0,0,0,0,-1,1756,862,0,0
539,162,0,0,0,0,0,0,0,0,0,-1,1763,862,0,0
546,162,0,0,0,0,0,0,0,0,0,-1,1770,862,0,0
553,162,0,0,0,0,0,0,0,0,0,-1,1777,862,0,0
560,162,0,0,0,0,0,0,0,0,0,-1,1784,862,0,0
567,162,0,0,0,0,0,0,0,0,0,-1,1791,862,0,0
574,162,0,0,0,0,0,0,0,0,0,-1,1798,862,0,0
581,162,0,0,0,0,0,0,0,0,0,-1,1805,862,0,0
588,162,0,0,0,0,0,0,0,0,0,-1,1812,862,0,0
595,162,0,0,0,0,0,0,0,0,0,-1,1819,862,0,0
602,162,0,0,0,0,0,0,0,0,0,-1,1826,862,0,0
609,162,0,0,0,0,0,0,0,0,0,-1,1833,862,0,0
616,162,44.6833,3.23761,0.00509112,0.00212478,-0.0018187,0.00595475,0.00126116,-0.443334,0.00362336,0.042519,1840,862,44.6834,-3.2376
623,162,44.7207,3.23529,0.0030351,0.00190699,-0.000884117,0.00351977,0.00142232,-0.501456,0.00204456,0.0460366,1847,862,44.7207,-3.23527
630,162,44.7512,2.76263,0.0015726,0.00166009,-0.000127052,0.00175072,0.00148197,-0.951185,0.00108868,0.0437124,1854,862,44.7512,-2.76261
637,162,44.7938,2.73944,0.000563999,0.00151453,0.000454513,0.00169688,0.000381648,1.18926,0.00102793,0.0416377,1861,862,44.7938,-2.73945
644,162,44.7634,2.75928,-4.68402e-05,0.00122157,0.000721266,0.0015478,-0.000373073,1.14603,0.00117612,0.037961,1868,862,44.7634,-2.75928
651,162,44.7067,2.79297,-0.000279025,0.00082269,0.000741814,0.00119581,-0.000652144,1.10477,0.0010822,0.0356475,1875,862,44.7066,-2.79294
658,162,44.6824,2.83588,-0.000436733,0.000545816,0.000634809,0.000857244,-0.000748162,1.11471,0.000927595,0.0365739,1882,862,44.6824,-2.83589
665,162,44.7126,2.88843,-0.000810531,0.000279798,0.000452146,0.000442899,-0.000973632,1.2246,0.00083675,0.0453915,1889,862,44.7127,-2.88843
672,162,44.7419,2.92566,0,0,0,0,0,0,0,-1,1896,862,44.742,-2.92567
679,162,26.5077,2.54785,0,0,0,0,0,0,0,-1,1903,862,26.5077,-2.54787
686,162,37.1646,1.7392,0,0,0,0,0,0,0,-1,1910,862,37.1646,-1.73922
693,162,37.1383,2.34424,-0.000810795,-0.000397854,-8.92725e-05,-0.00037938,-0.000829268,-1.36675,0.000479355,0.0229801,1917,862,37.1383,-2.34421
700,162,37.162,2.79999,-0.000815215,-0.000368766,-0.000252234,-0.000255165,-0.000928816,-1.14763,0.000554098,0.0231432,1924,862,37.162,-2.79997
707,162,37.0906,3.19781,-0.000706389,0.000361918,-0.000547421,0.00059261,-0.000937081,-1.17196,0.000890601,0.0177082,1931,862,37.0906,-3.1978
714,162,36.964,3.63428,-0.000364017,0.00124922,-0.000636315,0.00146999,-0.000584789,-1.23684,0.00122247,0.0208963,1938,862,36.9639,-3.6343
721,162,36.8588,4.1947,0.000109315,0.00260987,-0.000731355,0.00280807,-8.88805e-05,-1.30615,0.00190236,0.0304516,1945,862,36.8588,-4.19473
728,162,36.8831,4.65369,0.00239381,0.00457561,-0.000983823,0.00495371,0.00201571,-1.20388,0.0028765,0.023262,1952,862,36.8831,-4.65372
735,162,36.9373,5.09674,0.00697433,0.00708277,-0.00153604,0.00856555,0.00549156,-0.80304,0.00501055,0.0117698,1959,862,36.9373,-5.09676
742,162,36.91,5.55475,0.0127225,0.0101279,-0.00222741,0.0140029,0.00884755,-0.521701,0.00817771,0.0141811,1966,862,36.9101,-5.55474
749,162,36.858,6.02716,0.0214011,0.0134447,-0.00330729,0.0225963,0.0122495,-0.346783,0.0130614,0.0199037,1973,862,36.858,-6.02714
756,162,36.6169,6.48187,0.0342105,0.0168848,-0.00488087,0.0354909,0.0156044,-0.256546,0.0205403,0.0435837,1980,862,36.617,-6.48188
763,162,36.4305,6.94476,0,0,0,0,0,0,0,-1,1987,862,36.4306,-6.94475
770,162,37.8954,6.94592,0,0,0,0,0,0,0,-1,1994,862,37.8954,-6.94592
777,162,38.9558,7.25244,0,0,0,0,0,0,0,-1,2001,862,38.9558,-7.25246
784,162,39.6116,7.495,0,0,0,0,0,0,0,-1,2008,862,39.6116,-7.49501
791,162,0,0,0,0,0,0,0,0,0,-1,2015,862,0,0
798,162,0,0,0,0,0,0,0,0,0,-1,2022,862,0,0
805,162,0,0,0,0,0,0,0,0,0,-1,2029,862,0,0
812,162,0,0,0,0,0,0,0,0,0,-1,2036,862,0,0
-700,155,0,0,0,0,0,0,0,0,0,-1,524,869,0,0
-693,155,0,0,0,0,0,0,0,0,0,-1,531,869,0,0
-686,155,0,0,0,0,0,0,0,0,0,-1,538,869,0,0
-679,155,0,0,0,0,0,0,0,0,0,-1,545,869,0,0
-672,155,0,0,0,0,0,0,0,0,0,-1,552,869,0,0
-665,155,-33.6031,5.34753,0,0,0,0,0,0,0,-1,559,869,-33.6031,-5.34756
-658,155,-26.0653,2.76367,0,0,0,0,0,0,0,-1,566,869,-26.0653,-2.7637
-651,155,-26.2028,2.80627,0,0,0,0,0,0,0,-1,573,869,-26.2027,-2.80629
-644,155,-26.4688,2.80701,0,0,0,0,0,0,0,-1,580,869,-26.4688,-2.80702
-637,155,-29.4581,3.62897,0,0,0,0,0,0,0,-1,587,869,-29.4581,-3.62895
-630,155,-26.8938,4.40997,0,0,0,0,0,0,0,-1,594,869,-26.8938,-4.41
-623,155,-26.9134,3.91479,0.0364858,0.0202943,0.0215325,0.0513942,0.00538595,0.605584,0.0326161,0.0292365,601,869,-26.9134,-3.9148
-616,155,-26.9485,3.41278,0.023319,0.0146,0.0156047,0.0351617,0.0027573,0.649186,0.0225782,0.0154873,608,869,-26.9485,-3.41276
-609,155,-27.0118,2.91809,0.0138632,0.00993169,0.0109257,0.0229986,0.000796301,0.69639,0.015074,0.013906,615,869,-27.0118,-2.91812
-602,155,-27.0552,2.47174,0.00721589,0.00598903,0.00731249,0.0139406,-0.000735713,0.743552,0.00954844,0.013359,622,869,-27.0552,-2.47177
-595,155,-27.0648,2.03528,0.00327007,0.00302363,0.00480259,0.00795102,-0.00165732,0.772573,0.00593082,0.0121783,629,869,-27.0648,-2.03527
-588,155,-27.0474,1.61041,0.00130152,0.00110373,0.00322036,0.0044245,-0.00201926,0.770048,0.00380571,0.0148922,636,869,-27.0474,-1.61042
-581,155,-27.2606,1.2793,0.000451722,0.000308634,0.00218348,0.00256483,-0.00180448,0.769021,0.00253532,0.027707,643,869,-27.2606,-1.27927
-574,155,-27.3638,0.925842,0.00023743,-0.000537925,0.00145239,0.00135299,-0.00165349,0.654977,0.00173868,0.033678,650,869,-27.3638,-0.925873
-567,155,-27.3219,0.259644,0.000693935,-0.000918047,0.00152512,0.00161294,-0.00183705,0.542313,0.00199325,0.040266,657,869,-27.3219,-0.259639
-560,155,-27.2017,-0.264343,0.00129176,-0.00137318,0.00158367,0.00202895,-0.00211037,0.435663,0.00238999,0.0347108,664,869,-27.2017,0.264365
-553,155,-26.9717,-1.03772,0,0,0,0,0,0,0,-1,671,869,-26.9717,1.03772
-546,155,-22.7988,0.873657,0,0,0,0,0,0,0,-1,678,869,-22.7988,-0.873645
-539,155,-33.2164,1.03687,0,0,0,0,0,0,0,-1,685,869,-33.2164,-1.03687
-532,155,-33.1561,1.11255,0.00257446,-0.00169949,0.00187754,0.0032821,-0.00240713,0.360432,0.0032976,0.034174,692,869,-33.1561,-1.11254
-525,155,-33.1245,1.10797,0.00270385,-0.00174778,0.00204715,0.00350212,-0.00254605,0.371805,0.00350643,0.0358712,699,869,-33.1245,-1.108
-518,155,-33.2288,1.06653,0.00259785,-0.00145016,0.0024577,0.00375769,-0.00261001,0.440934,0.00369624,0.0400014,706,869,-33.2288,-1.06653
-511,155,-33.3671,1.1059,0.00262225,-0.000848224,0.00313996,0.00447455,-0.00270052,0.532968,0.00418452,0.0435846,713,869,-33.3671,-1.10592
-504,155,-33.3871,1.23889,0.00183023,0.000750816,0.0041531,0.00547855,-0.0028975,0.720784,0.00491185,0.0434124,720,869,-33.3871,-1.23889
-497,155,0,0,0,0,0,0,0,0,0,-1,727,869,0,0
-490,155,0,0,0,0,0,0,0,0,0,-1,734,869,0,0
-483,155,0,0,0,0,0,0,0,0,0,-1,741,869,0,0
-476,155,0,0,0,0,0,0,0,0,0,-1,748,869,0,0
-469,155,0,0,0,0,0,0,0,0,0,-1,755,869,0,0
-462,155,0,0,0,0,0,0,0,0,0,-1,762,869,0,0
-455,155,0,0,0,0,0,0,0,0,0,-1,769,869,0,0
-448,155,0,0,0,0,0,0,0,0,0,-1,776,869,0,0
-441,155,0,0,0,0,0,0,0,0,0,-1,783,869,0,0
-434,155,0,0,0,0,0,0,0,0,0,-1,790,869,0,0
-427,155,0,0,0,0,0,0,0,0,0,-1,797,869,0,0
-420,155,0,0,0,0,0,0,0,0,0,-1,804,869,0,0
-413,155,0,0,0,0,0,0,0,0,0,-1,811,869,0,0
-406,155,0,0,0,0,0,0,0,0,0,-1,818,869,0,0
-399,155,0,0,0,0,0,0,0,0,0,-1,825,869,0,0
-392,155,0,0,0,0,0,0,0,0,0,-1,832,869,0,0
-385,155,0,0,0,0,0,0,0,0,0,-1,839,869,0,0
-378,155,0,0,0,0,0,0,0,0,0,-1,846,869,0,0
-371,155,0,0,0,0,0,0,0,0,0,-1,853,869,0,0
-364,155,0,0,0,0,0,0,0,0,0,-1,860,869,0,0
-357,155,0,0,0,0,0,0,0,0,0,-1,867,869,0,0
-350,155,0,0,0,0,0,0,0,0,0,-1,874,869,0,0
-343,155,0,0,0,0,0,0,0,0,0,-1,881,869,0,0
-336,155,0,0,0,0,0,0,0,0,0,-1,888,869,0,0
-329,155,0,0,0,0,0,0,0,0,0,-1,895,869,0,0
-322,155,0,0,0,0,0,0,0,0,0,-1,902,869,0,0
-315,155,0,0,0,0,0,0,0,0,0,-1,909,869,0,0
-308,155,0,0,0,0,0,0,0,0,0,-1,916,869,0,0
-301,155,0,0,0,0,0,0,0,0,0,-1,923,869,0,0
-294,155,0,0,0,0,0,0,0,0,0,-1,930,869,0,0
-287,155,0,0,0,0,0,0,0,0,0,-1,937,869,0,0
-280,155,0,0,0,0,0,0,0,0,0,-1,944,869,0,0
-273,155,0,0,0,0,0,0,0,0,0,-1,951,869,0,0
-266,155,0,0,0,0,0,0,0,0,0,-1,958,869,0,0
-259,155,0,0,0,0,0,0,0,0,0,-1,965,869,0,0
-252,155,0,0,0,0,0,0,0,0,0,-1,972,869,0,0
-245,155,0,0,0,0,0,0,0,0,0,-1,979,869,0,0
-238,155,0,0,0,0,0,0,0,0,0,-1,986,869,0,0
-231,155,0,0,0,0,0,0,0,0,0,-1,993,869,0,0
-224,155,0,0,0,0,0,0,0,0,0,-1,1000,869,0,0
-217,155,0,0,0,0,0,0,0,0,0,-1,1007,869,0,0
-210,155,0,0,0,0,0,0,0,0,0,-1,1014,869,0,0
-203,155,0,0,0,0,0,0,0,0,0,-1,1021,869,0,0
-196,155,0,0,0,0,0,0,0,0,0,-1,1028,869,0,0
-189,155,0,0,0,0,0,0,0,0,0,-1,1035,869,0,0
-182,155,0,0,0,0,0,0,0,0,0,-1,1042,869,0,0
-175,155,0,0,0,0,0,0,0,0,0,-1,1049,869,0,0
-168,155,0,0,0,0,0,0,0,0,0,-1,1056,869,0,0
-161,155,0,0,0,0,0,0,0,0,0,-1,1063,869,0,0
-154,155,0,0,0,0,0,0,0,0,0,-1,1070,869,0,0
-147,155,0,0,0,0,0,0,0,0,0,-1,1077,869,0,0
-140,155,0,0,0,0,0,0,0,0,0,-1,1084,869,0,0
-133,155,0,0,0,0,0,0,0,0,0,-1,1091,869,0,0
-126,155,0,0,0,0,0,0,0,0,0,-1,1098,869,0,0
-119,155,0,0,0,0,0,0,0,0,0,-1,1105,869,0,0
-112,155,0,0,0,0,0,0,0,0,0,-1,1112,869,0,0
-105,155,0,0,0,0,0,0,0,0,0,-1,1119,869,0,0
-98,155,0,0,0,0,0,0,0,0,0,-1,1126,869,0,0
-91,155,0,0,0,0,0,0,0,0,0,-1,1133,869,0,0
-84,155,0,0,0,0,0,0,0,0,0,-1,1140,869,0,0
-77,155,0,0,0,0,0,0,0,0,0,-1,1147,869,0,0
-70,155,0,0,0,0,0,0,0,0,0,-1,1154,869,0,0
-63,155,0,0,0,0,0,0,0,0,0,-1,1161,869,0,0
-56,155,0,0,0,0,0,0,0,0,0,-1,1168,869,0,0
-49,155,0,0,0,0,0,0,0,0,0,-1,1175,869,0,0
-42,155,0,0,0,0,0,0,0,0,0,-1,1182,869,0,0
-35,155,0,0,0,0,0,0,0,0,0,-1,1189,869,0,0
-28,155,0,0,0,0,0,0,0,0,0,-1,1196,869,0,0
-21,155,0,0,0,0,0,0,0,0,0,-1,1203,869,0,0
-14,155,0,0,0,0,0,0,0,0,0,-1,1210,869,0,0
-7,155,0,0,0,0,0,0,0,0,0,-1,1217,869,0,0
0,155,0,0,0,0,0,0,0,0,0,-1,1224,869,0,0
7,155,0,0,0,0,0,0,0,0,0,-1,1231,869,0,0
14,155,0,0,0,0,0,0,0,0,0,-1,1238,869,0,0
21,155,0,0,0,0,0,0,0,0,0,-1,1245,869,0,0
28,155,0,0,0,0,0,0,0,0,0,-1,1252,869,0,0
35,155,0,0,0,0,0,0,0,0,0,-1,1259,869,0,0
42,155,0,0,0,0,0,0,0,0,0,-1,1266,869,0,0
49,155,0,0,0,0,0,0,0,0,0,-1,1273,869,0,0
56,155,0,0,0,0,0,0,0,0,0,-1,1280,869,0,0
63,155,0,0,0,0,0,0,0,0,0,-1,1287,869,0,0
70,155,0,0,0,0,0,0,0,0,0,-1,1294,869,0,0
77,155,0,0,0,0,0,0,0,0,0,-1,1301,869,0,0
84,155,0,0,0,0,0,0,0,0,0,-1,1308,869,0,0
91,155,0,0,0,0,0,0,0,0,0,-1,1315,869,0,0
98,155,0,0,0,0,0,0,0,0,0,-1,1322,869,0,0
105,155,0,0,0,0,0,0,0,0,0,-1,1329,869,0,0
112,155,0,0,0,0,0,0,0,0,0,-1,1336,869,0,0
119,155,0,0,0,0,0,0,0,0,0,-1,1343,869,0,0
126,155,0,0,0,0,0,0,0,0,0,-1,1350,869,0,0
133,155,0,0,0,0,0,0,0,0,0,-1,1357,869,0,0
140,155,0,0,0,0,0,0,0,0,0,-1,1364,869,0,0
147,155,0,0,0,0,0,0,0,0,0,-1,1371,869,0,0
154,155,0,0,0,0,0,0,0,0,0,-1,1378,869,0,0
161,155,0,0,0,0,0,0,0,0,0,-1,1385,869,0,0
168,155,0,0,0,0,0,0,0,0,0,-1,1392,869,0,0
175,155,0,0,0,0,0,0,0,0,0,-1,1399,869,0,0
182,155,0,0,0,0,0,0,0,0,0,-1,1406,869,0,0
189,155,0,0,0,0,0,0,0,0,0,-1,1413,869,0,0
196,155,0,0,0,0,0,0,0,0,0,-1,1420,869,0,0
203,155,0,0,0,0,0,0,0,0,0,-1,1427,869,0,0
210,155,0,0,0,0,0,0,0,0,0,-1,1434,869,0,0
217,155,0,0,0,0,0,0,0,0,0,-1,1441,869,0,0
224,155,0,0,0,0,0,0,0,0,0,-1,1448,869,0,0
231,155,0,0,0,0,0,0,0,0,0,-1,1455,869,0,0
238,155,0,0,0,0,0,0,0,0,0,-1,1462,869,0,0
245,155,0,0,0,0,0,0,0,0,0,-1,1469,869,0,0
252,155,0,0,0,0,0,0,0,0,0,-1,1476,869,0,0
259,155,0,0,0,0,0,0,0,0,0,-1,1483,869,0,0
266,155,0,0,0,0,0,0,0,0,0,-1,1490,869,0,0
273,155,0,0,0,0,0,0,0,0,0,-1,1497,869,0,0
280,155,0,0,0,0,0,0,0,0,0,-1,1504,869,0,0
287,155,0,0,0,0,0,0,0,0,0,-1,1511,869,0,0
294,155,0,0,0,0,0,0,0,0,0,-1,1518,869,0,0
301,155,0,0,0,0,0,0,0,0,0,-1,1525,869,0,0
308,155,0,0,0,0,0,0,0,0,0,-1,1532,869,0,0
315,155,0,0,0,0,0,0,0,0,0,-1,1539,869,0,0
322,155,0,0,0,0,0,0,0,0,0,-1,1546,869,0,0
329,155,0,0,0,0,0,0,0,0,0,-1,1553,869,0,0
336,155,0,0,0,0,0,0,0,0,0,-1,1560,869,0,0
343,155,0,0,0,0,0,0,0,0,0,-1,1567,869,0,0
350,155,0,0,0,0,0,0,0,0,0,-1,1574,869,0,0
357,155,0,0,0,0,0,0,0,0,0,-1,1581,869,0,0
364,155,0,0,0,0,0,0,0,0,0,-1,1588,869,0,0
371,155,0,0,0,0,0,0,0,0,0,-1,1595,869,0,0
378,155,0,0,0,0,0,0,0,0,0,-1,1602,869,0,0
385,155,0,0,0,0,0,0,0,0,0,-1,1609,869,0,0
392,155,0,0,0,0,0,0,0,0,0,-1,1616,869,0,0
399,155,0,0,0,0,0,0,0,0,0,-1,1623,869,0,0
406,155,0,0,0,0,0,0,0,0,0,-1,1630,869,0,0
413,155,0,0,0,0,0,0,0,0,0,-1,1637,869,0,0
420,155,0,0,0,0,0,0,0,0,0,-1,1644,869,0,0
427,155,0,0,0,0,0,0,0,0,0,-1,1651,869,0,0
434,155,0,0,0,0,0,0,0,0,0,-1,1658,869,0,0
441,155,0,0,0,0,0,0,0,0,0,-1,1665,869,0,0
448,155,0,0,0,0,0,0,0,0,0,-1,1672,869,0,0
455,155,0,0,0,0,0,0,0,0,0,-1,1679,869,0,0
462,155,0,0,0,0,0,0,0,0,0,-1,1686,869,0,0
469,155,0,0,0,0,0,0,0,0,0,-1,1693,869,0,0
476,155,0,0,0,0,0,0,0,0,0,-1,1700,869,0,0
483,155,0,0,0,0,0,0,0,0,0,-1,1707,869,0,0
490,155,0,0,0,0,0,0,0,0,0,-1,1714,869,0,0
497,155,0,0,0,0,0,0,0,0,0,-1,1721,869,0,0
504,155,0,0,0,0,0,0,0,0,0,-1,1728,869,0,0
511,155,0,0,0,0,0,0,0,0,0,-1,1735,869,0,0
518,155,0,0,0,0,0,0,0,0,0,-1,1742,869,0,0
525,155,0,0,0,0,0,0,0,0,0,-1,1749,869,0,0
532,155,0,0,0,0,0,0,0,0,0,-1,1756,869,0,0
539,155,0,0,0,0,0,0,0,0,0,-1,1763,869,0,0
546,155,0,0,0,0,0,0,0,0,0,-1,1770,869,0,0
553,155,0,0,0,0,0,0,0,0,0,-1,1777,869,0,0
560,155,0,0,0,0,0,0,0,0,0,-1,1784,869,0,0
567,155,0,0,0,0,0,0,0,0,0,-1,1791,869,0,0
574,155,0,0,0,0,0,0,0,0,0,-1,1798,869,0,0
581,155,0,0,0,0,0,0,0,0,0,-1,1805,869,0,0
588,155,0,0,0,0,0,0,0,0,0,-1,1812,869,0,0
595,155,0,0,0,0,0,0,0,0,0,-1,1819,869,0,0
602,155,0,0,0,0,0,0,0,0,0,-1,1826,869,0,0
609,155,0,0,0,0,0,0,0,0,0,-1,1833,869,0,0
616,155,44.7881,2.96753,0.00595828,0.00215416,-0.00163584,0.00656496,0.00154748,-0.355146,0.00396284,0.0452358,1840,869,44.788,-2.96751
623,155,44.7518,3.0484,0.00347385,0.00185919,-0.000830811,0.00382498,0.00150806,-0.399866,0.00222475,0.0448523,1847,869,44.7519,-3.04842
630,155,44.6376,2.75177,0.00175051,0.0015853,-0.000179131,0.00186517,0.00147065,-0.569356,0.00113503,0.0440594,1854,869,44.6375,-2.75179
637,155,44.7483,2.68317,0.000617507,0.00145249,0.000330599,0.00156753,0.000502463,1.23591,0.000924243,0.0419719,1861,869,44.7483,-2.68314
644,155,44.8239,2.73938,-2.94532e-05,0.00119032,0.000593846,0.00143167,-0.00027081,1.18476,0.00105635,0.0390259,1868,869,44.8239,-2.73939
651,155,44.7729,2.73602,-0.000236474,0.000834283,0.000654937,0.00114482,-0.000547011,1.12804,0.000996898,0.034181,1875,869,44.7729,-2.736
658,155,44.7209,2.784,-0.00031265,0.000587596,0.000616971,0.00090119,-0.000626244,1.10055,0.000886614,0.0278146,1882,869,44.721,-2.78397
665,155,44.6627,2.86475,-0.000569574,0.000341983,0.000475311,0.00054473,-0.00077232,1.16761,0.000764174,0.0330527,1889,869,44.6627,-2.86475
672,155,44.6229,2.94165,0,0,0,0,0,0,0,-1,1896,869,44.623,-2.94162
679,155,35.1565,2.78528,0,0,0,0,0,0,0,-1,1903,869,35.1565,-2.7853
686,155,37.6536,1.96826,0,0,0,0,0,0,0,-1,1910,869,37.6536,-1.96825
693,155,37.573,2.36493,-0.000489562,-0.000213503,-3.17265e-05,-0.000209904,-0.000493161,-1.45783,0.000285775,0.038011,1917,869,37.573,-2.36492
700,155,37.6401,2.87073,-0.000463496,-0.000137423,-0.00018618,-5.29843e-05,-0.000547934,-1.14501,0.000348972,0.0284981,1924,869,37.6401,-2.87072
707,155,37.6976,3.35858,-0.000301179,0.000545073,-0.000478721,0.00076086,-0.000516965,-1.14731,0.000742219,0.0207329,1931,869,37.6976,-3.35857
714,155,37.6317,3.73285,3.37478e-05,0.00123699,-0.00062945,0.00150609,-0.000235353,-1.1668,0.001091,0.0396689,1938,869,37.6317,-3.73285
721,155,37.4011,4.17755,0.00040924,0.00223429,-0.000846966,0.00256677,7.67531e-05,-1.19672,0.00168618,0.0301127,1945,869,37.4012,-4.17757
728,155,37.3944,4.66504,0.00248769,0.00373958,-0.00129718,0.00455394,0.00167333,-1.01019,0.00265984,0.0203905,1952,869,37.3944,-4.66501
735,155,37.4257,5.10516,0.00690614,0.00573539,-0.0020566,0.00845905,0.00418247,-0.646748,0.00488394,0.0160558,1959,869,37.4257,-5.10516
742,155,37.4232,5.56592,0.0126107,0.00816956,-0.00300089,0.0141233,0.00665701,-0.466871,0.00815855,0.0184765,1966,869,37.4232,-5.56594
749,155,37.3469,6.0177,0.0212417,0.0107551,-0.0043103,0.022786,0.00921085,-0.344024,0.0132357,0.0173583,1973,869,37.3469,-6.01773
756,155,37.1869,6.5014,0.0338273,0.0132969,-0.0060602,0.0354827,0.0116415,-0.266651,0.0208857,0.0289648,1980,869,37.1868,-6.50141
763,155,36.9845,7.05579,0.0516105,0.0157285,-0.00830044,0.0534376,0.0139014,-0.216663,0.0320136,0.0432899,1987,869,36.9845,-7.05576
770,155,38.376,6.91351,0,0,0,0,0,0,0,-1,1994,869,38.376,-6.91354
777,155,39.4199,7.27161,0.1084,0.0186462,-0.014989,0.110837,0.0162092,-0.161176,0.0691248,0.0422014,2001,869,39.42,-7.27162
784,155,40.4202,7.72455,0.149934,0.0179775,-0.0194753,0.152748,0.0151632,-0.143513,0.097173,0.043716,2008,869,40.4202,-7.72452
791,155,0,0,0,0,0,0,0,0,0,-1,2015,869,0,0
798,155,0,0,0,0,0,0,0,0,0,-1,2022,869,0,0
805,155,0,0,0,0,0,0,0,0,0,-1,2029,869,0,0
812,155,0,0,0,0,0,0,0,0,0,-1,2036,869,0,0
-700,148,0,0,0,0,0,0,0,0,0,-1,524,876,0,0
-693,148,0,0,0,0,0,0,0,0,0,-1,531,876,0,0
-686,148,0,0,0,0,0,0,0,0,0,-1,538,876,0,0
-679,148,0,0,0,0,0,0,0,0,0,-1,545,876,0,0
-672,148,-32.0291,4.58417,0,0,0,0,0,0,0,-1,552,876,-32.0291,-4.58417
-665,148,-33.2484,4.7738,0,0,0,0,0,0,0,-1,559,876,-33.2484,-4.77379
-658,148,-34.3625,5.37897,0,0,0,0,0,0,0,-1,566,876,-34.3625,-5.37897
-651,148,-27.1993,2.35455,0,0,0,0,0,0,0,-1,573,876,-27.1993,-2.35458
-644,148,-27.428,2.4422,0,0,0,0,0,0,0,-1,580,876,-27.428,-2.44218
-637,148,-27.6625,2.17377,0,0,0,0,0,0,0,-1,587,876,-27.6625,-2.17374
-630,148,-27.1427,4.51617,0,0,0,0,0,0,0,-1,594,876,-27.1427,-4.51615
-623,148,-27.2754,3.94647,0.0297602,0.0158556,0.0174158,0.0415601,0.00405569,0.595492,0.0264587,0.0252383,601,876,-27.2754,-3.94645
-616,148,-27.3912,3.39801,0.0192125,0.0119337,0.0129673,0.0290415,0.00210476,0.648589,0.0186989,0.0132425,608,876,-27.3912,-3.39804
-609,148,-27.4725,2.90961,0.0112994,0.00827346,0.00917647,0.0190868,0.000486068,0.703695,0.0125656,0.0130373,615,876,-27.4725,-2.9096
-602,148,-27.5194,2.47845,0.00571172,0.00494226,0.00616152,0.0115005,-0.000846538,0.754218,0.0079642,0.0145753,622,876,-27.5194,-2.47844
-595,148,-27.5291,2.04767,0.00261869,0.00240775,0.00409768,0.00661226,-0.00158582,0.772531,0.00502096,0.0123117,629,876,-27.5291,-2.04769
-588,148,-27.5554,1.5564,0.00129048,0.00085109,0.00282396,0.00390328,-0.00176171,0.746578,0.00334768,0.021911,636,876,-27.5554,-1.55641
-581,148,-27.682,1.22662,0.000657985,0.000223037,0.0019425,0.00239515,-0.00151412,0.729652,0.00227604,0.0370147,643,876,-27.682,-1.22664
-574,148,-27.4127,0.921021,0.000332337,-0.000553242,0.00126606,0.0012308,-0.00145171,0.617177,0.0015505,0.0404493,650,876,-27.4127,-0.921043
-567,148,-27.1061,0.722778,0,0,0,0,0,0,0,-1,657,876,-27.1061,-0.722787
-560,148,-27.73,-0.174927,0,0,0,0,0,0,0,-1,664,876,-27.73,0.174914
-553,148,-18.3896,-0.00280762,0,0,0,0,0,0,0,-1,671,876,-18.3897,0.00278524
-546,148,-33.1476,1.04675,0,0,0,0,0,0,0,-1,678,876,-33.1476,-1.04678
-539,148,-33.1451,1.09143,0.00169822,-0.00152068,0.00156407,0.00233301,-0.00215548,0.38555,0.00259211,0.0354334,685,876,-33.1451,-1.09142
-532,148,-33.1509,1.14606,0.00194765,-0.00150918,0.00172469,0.00266095,-0.00222248,0.392159,0.00282324,0.0360013,692,876,-33.1509,-1.14607
-525,148,-33.1122,1.16046,0.00174321,-0.00147373,0.00200065,0.00270179,-0.00243231,0.446818,0.00296554,0.0356358,699,876,-33.1123,-1.16044
-518,148,-33.1035,1.19751,0.00134459,-0.00104088,0.00261186,0.00302317,-0.00271946,0.571208,0.00331705,0.0393979,706,876,-33.1035,-1.19751
-511,148,-33.1198,1.27148,0.00102941,-0.000194922,0.00360779,0.0040766,-0.00324211,0.701359,0.0042346,0.0412468,713,876,-33.1198,-1.27148
-504,148,-33.1002,1.41132,-0.000141807,0.001765,0.00501606,0.00591746,-0.00429427,0.879313,0.00592052,0.0430163,720,876,-33.1002,-1.4113
-497,148,0,0,0,0,0,0,0,0,0,-1,727,876,0,0
-490,148,0,0,0,0,0,0,0,0,0,-1,734,876,0,0
-483,148,0,0,0,0,0,0,0,0,0,-1,741,876,0,0
-476,148,0,0,0,0,0,0,0,0,0,-1,748,876,0,0
-469,148,0,0,0,0,0,0,0,0,0,-1,755,876,0,0
-462,148,0,0,0,0,0,0,0,0,0,-1,762,876,0,0
-455,148,0,0,0,0,0,0,0,0,0,-1,769,876,0,0
-448,148,0,0,0,0,0,0,0,0,0,-1,776,876,0,0
-441,148,0,0,0,0,0,0,0,0,0,-1,783,876,0,0
-434,148,0,0,0,0,0,0,0,0,0,-1,790,876,0,0
-427,148,0,0,0,0,0,0,0,0,0,-1,797,876,0,0
-420,148,0,0,0,0,0,0,0,0,0,-1,804,876,0,0
-413,148,0,0,0,0,0,0,0,0,0,-1,811,876,0,0
-406,148,0,0,0,0,0,0,0,0,0,-1,818,876,0,0
-399,148,0,0,0,0,0,0,0,0,0,-1,825,876,0,0
-392,148,0,0,0,0,0,0,0,0,0,-1,832,876,0,0
-385,148,0,0,0,0,0,0,0,0,0,-1,839,876,0,0
-378,148,0,0,0,0,0,0,0,0,0,-1,846,876,0,0
-371,148,0,0,0,0,0,0,0,0,0,-1,853,876,0,0
-364,148,0,0,0,0,0,0,0,0,0,-1,860,876,0,0
-357,148,0,0,0,0,0,0,0,0,0,-1,867,876,0,0
-350,148,0,0,0,0,0,0,0,0,0,-1,874,876,0,0
-343,148,0,0,0,0,0,0,0,0,0,-1,881,876,0,0
-336,148,0,0,0,0,0,0,0,0,0,-1,888,876,0,0
-329,148,0,0,0,0,0,0,0,0,0,-1,895,876,0,0
-322,148,0,0,0,0,0,0,0,0,0,-1,902,876,0,0
-315,148,0,0,0,0,0,0,0,0,0,-1,909,876,0,0
-308,148,0,0,0,0,0,0,0,0,0,-1,916,876,0,0
-301,148,0,0,0,0,0,0,0,0,0,-1,923,876,0,0
-294,148,0,0,0,0,0,0,0,0,0,-1,930,876,0,0
-287,148,0,0,0,0,0,0,0,0,0,-1,937,876,0,0
-280,148,0,0,0,0,0,0,0,0,0,-1,944,876,0,0
-273,148,0,0,0,0,0,0,0,0,0,-1,951,876,0,0
-266,148,0,0,0,0,0,0,0,0,0,-1,958,876,0,0
-259,148,0,0,0,0,0,0,0,0,0,-1,965,876,0,0
-252,148,0,0,0,0,0,0,0,0,0,-1,972,876,0,0
-245,148,0,0,0,0,0,0,0,0,0,-1,979,876,0,0
-238,148,0,0,0,0,0,0,0,0,0,-1,986,876,0,0
-231,148,0,0,0,0,0,0,0,0,0,-1,993,876,0,0
-224,148,0,0,0,0,0,0,0,0,0,-1,1000,876,0,0
-217,148,0,0,0,0,0,0,0,0,0,-1,1007,876,0,0
-210,148,0,0,0,0,0,0,0,0,0,-1,1014,876,0,0
-203,148,0,0,0,0,0,0,0,0,0,-1,1021,876,0,0
-196,148,0,0,0,0,0,0,0,0,0,-1,1028,876,0,0
-189,148,0,0,0,0,0,0,0,0,0,-1,1035,876,0,0
-182,148,0,0,0,0,0,0,0,0,0,-1,1042,876,0,0
-175,148,0,0,0,0,0,0,0,0,0,-1,1049,876,0,0
-168,148,0,0,0,0,0,0,0,0,0,-1,1056,876,0,0
-161,148,0,0,0,0,0,0,0,0,0,-1,1063,876,0,0
-154,148,0,0,0,0,0,0,0,0,0,-1,1070,876,0,0
-147,148,0,0,0,0,0,0,0,0,0,-1,1077,876,0,0
-140,148,0,0,0,0,0,0,0,0,0,-1,1084,876,0,0
-133,148,0,0,0,0,0,0,0,0,0,-1,1091,876,0,0
-126,148,0,0,0,0,0,0,0,0,0,-1,1098,876,0,0
-119,148,0,0,0,0,0,0,0,0,0,-1,1105,876,0,0
-112,148,0,0,0,0,0,0,0,0,0,-1,1112,876,0,0
-105,148,0,0,0,0,0,0,0,0,0,-1,1119,876,0,0
-98,148,0,0,0,0,0,0,0,0,0,-1,1126,876,0,0
-91,148,0,0,0,0,0,0,0,0,0,-1,1133,876,0,0
-84,148,0,0,0,0,0,0,0,0,0,-1,1140,876,0,0
-77,148,0,0,0,0,0,0,0,0,0,-1,1147,876,0,0
-70,148,0,0,0,0,0,0,0,0,0,-1,1154,876,0,0
-63,148,0,0,0,0,0,0,0,0,0,-1,1161,876,0,0
-56,148,0,0,0,0,0,0,0,0,0,-1,1168,876,0,0
-49,148,0,0,0,0,0,0,0,0,0,-1,1175,876,0,0
-42,148,0,0,0,0,0,0,0,0,0,-1,1182,876,0,0
-35,148,0,0,0,0,0,0,0,0,0,-1,1189,876,0,0
-28,148,0,0,0,0,0,0,0,0,0,-1,1196,876,0,0
-21,148,0,0,0,0,0,0,0,0,0,-1,1203,876,0,0
-14,148,0,0,0,0,0,0,0,0,0,-1,1210,876,0,0
-7,148,0,0,0,0,0,0,0,0,0,-1,1217,876,0,0
0,148,0,0,0,0,0,0,0,0,0,-1,1224,876,0,0
7,148,0,0,0,0,0,0,0,0,0,-1,1231,876,0,0
14,148,0,0,0,0,0,0,0,0,0,-1,1238,876,0,0
21,148,0,0,0,0,0,0,0,0,0,-1,1245,876,0,0
28,148,0,0,0,0,0,0,0,0,0,-1,1252,876,0,0
35,148,0,0,0,0,0,0,0,0,0,-1,1259,876,0,0
42,148,0,0,0,0,0,0,0,0,0,-1,1266,876,0,0
49,148,0,0,0,0,0,0,0,0,0,-1,1273,876,0,0
56,148,0,0,0,0,0,0,0,0,0,-1,1280,876,0,0
63,148,0,0,0,0,0,0,0,0,0,-1,1287,876,0,0
70,148,0,0,0,0,0,0,0,0,0,-1,1294,876,0,0
77,148,0,0,0,0,0,0,0,0,0,-1,1301,876,0,0
84,148,0,0,0,0,0,0,0,0,0,-1,1308,876,0,0
91,148,0,0,0,0,0,0,0,0,0,-1,1315,876,0,0
98,148,0,0,0,0,0,0,0,0,0,-1,1322,876,0,0
105,148,0,0,0,0,0,0,0,0,0,-1,1329,876,0,0
112,148,0,0,0,0,0,0,0,0,0,-1,1336,876,0,0
119,148,0,0,0,0,0,0,0,0,0,-1,1343,876,0,0
126,148,0,0,0,0,0,0,0,0,0,-1,1350,876,0,0
133,148,0,0,0,0,0,0,0,0,0,-1,1357,876,0,0
140,148,0,0,0,0,0,0,0,0,0,-1,1364,876,0,0
147,148,0,0,0,0,0,0,0,0,0,-1,1371,876,0,0
154,148,0,0,0,0,0,0,0,0,0,-1,1378,876,0,0
161,148,0,0,0,0,0,0,0,0,0,-1,1385,876,0,0
168,148,0,0,0,0,0,0,0,0,0,-1,1392,876,0,0
175,148,0,0,0,0,0,0,0,0,0,-1,1399,876,0,0
182,148,0,0,0,0,0,0,0,0,0,-1,1406,876,0,0
189,148,0,0,0,0,0,0,0,0,0,-1,1413,876,0,0
196,148,0,0,0,0,0,0,0,0,0,-1,1420,876,0,0
203,148,0,0,0,0,0,0,0,0,0,-1,1427,876,0,0
210,148,0,0,0,0,0,0,0,0,0,-1,1434,876,0,0
217,148,0,0,0,0,0,0,0,0,0,-1,1441,876,0,0
224,148,0,0,0,0,0,0,0,0,0,-1,1448,876,0,0
231,148,0,0,0,0,0,0,0,0,0,-1,1455,876,0,0
238,148,0,0,0,0,0,0,0,0,0,-1,1462,876,0,0
245,148,0,0,0,0,0,0,0,0,0,-1,1469,876,0,0
252,148,0,0,0,0,0,0,0,0,0,-1,1476,876,0,0
259,148,0,0,0,0,0,0,0,0,0,-1,1483,876,0,0
266,148,0,0,0,0,0,0,0,0,0,-1,1490,876,0,0
273,148,0,0,0,0,0,0,0,0,0,-1,1497,876,0,0
280,148,0,0,0,0,0,0,0,0,0,-1,1504,876,0,0
287,148,0,0,0,0,0,0,0,0,0,-1,1511,876,0,0
294,148,0,0,0,0,0,0,0,0,0,-1,1518,876,0,0
301,148,0,0,0,0,0,0,0,0,0,-1,1525,876,0,0
308,148,0,0,0,0,0,0,0,0,0,-1,1532,876,0,0
315,148,0,0,0,0,0,0,0,0,0,-1,1539,876,0,0
322,148,0,0,0,0,0,0,0,0,0,-1,1546,876,0,0
329,148,0,0,0,0,0,0,0,0,0,-1,1553,876,0,0
336,148,0,0,0,0,0,0,0,0,0,-1,1560,876,0,0
343,148,0,0,0,0,0,0,0,0,0,-1,1567,876,0,0
350,148,0,0,0,0,0,0,0,0,0,-1,1574,876,0,0
357,148,0,0,0,0,0,0,0,0,0,-1,1581,876,0,0
364,148,0,0,0,0,0,0,0,0,0,-1,1588,876,0,0
371,148,0,0,0,0,0,0,0,0,0,-1,1595,876,0,0
378,148,0,0,0,0,0,0,0,0,0,-1,1602,876,0,0
385,148,0,0,0,0,0,0,0,0,0,-1,1609,876,0,0
392,148,0,0,0,0,0,0,0,0,0,-1,1616,876,0,0
399,148,0,0,0,0,0,0,0,0,0,-1,1623,876,0,0
406,148,0,0,0,0,0,0,0,0,0,-1,1630,876,0,0
413,148,0,0,0,0,0,0,0,0,0,-1,1637,876,0,0
420,148,0,0,0,0,0,0,0,0,0,-1,1644,876,0,0
427,148,0,0,0,0,0,0,0,0,0,-1,1651,876,0,0
434,148,0,0,0,0,0,0,0,0,0,-1,1658,876,0,0
441,148,0,0,0,0,0,0,0,0,0,-1,1665,876,0,0
448,148,0,0,0,0,0,0,0,0,0,-1,1672,876,0,0
455,148,0,0,0,0,0,0,0,0,0,-1,1679,876,0,0
462,148,0,0,0,0,0,0,0,0,0,-1,1686,876,0,0
469,148,0,0,0,0,0,0,0,0,0,-1,1693,876,0,0
476,148,0,0,0,0,0,0,0,0,0,-1,1700,876,0,0
483,148,0,0,0,0,0,0,0,0,0,-1,1707,876,0,0
490,148,0,0,0,0,0,0,0,0,0,-1,1714,876,0,0
497,148,0,0,0,0,0,0,0,0,0,-1,1721,876,0,0
504,148,0,0,0,0,0,0,0,0,0,-1,1728,876,0,0
511,148,0,0,0,0,0,0,0,0,0,-1,1735,876,0,0
518,148,0,0,0,0,0,0,0,0,0,-1,1742,876,0,0
525,148,0,0,0,0,0,0,0,0,0,-1,1749,876,0,0
532,148,0,0,0,0,0,0,0,0,0,-1,1756,876,0,0
539,148,0,0,0,0,0,0,0,0,0,-1,1763,876,0,0
546,148,0,0,0,0,0,0,0,0,0,-1,1770,876,0,0
553,148,0,0,0,0,0,0,0,0,0,-1,1777,876,0,0
560,148,0,0,0,0,0,0,0,0,0,-1,1784,876,0,0
567,148,0,0,0,0,0,0,0,0,0,-1,1791,876,0,0
574,148,0,0,0,0,0,0,0,0,0,-1,1798,876,0,0
581,148,0,0,0,0,0,0,0,0,0,-1,1805,876,0,0
588,148,0,0,0,0,0,0,0,0,0,-1,1812,876,0,0
595,148,0,0,0,0,0,0,0,0,0,-1,1819,876,0,0
602,148,0,0,0,0,0,0,0,0,0,-1,1826,876,0,0
609,148,0,0,0,0,0,0,0,0,0,-1,1833,876,0,0
616,148,0,0,0,0,0,0,0,0,0,-1,1840,876,0,0
623,148,44.7834,2.83264,0.00370832,0.00256835,-0.000674708,0.00402158,0.0022551,-0.434668,0.00232756,0.0442438,1847,876,44.7834,-2.83264
630,148,44.6583,2.73468,0.00186709,0.00211633,-0.000118998,0.00216402,0.0018194,-1.18963,0.00134263,0.0442868,1854,876,44.6583,-2.73469
637,148,44.7102,2.60693,0.000639946,0.00180169,0.000246253,0.00185173,0.000589904,1.37031,0.00109231,0.0396532,1861,876,44.7102,-2.60693
644,148,44.7028,2.5979,-8.3348e-05,0.0014246,0.000424318,0.0015358,-0.000194545,1.3145,0.00109449,0.0374557,1868,876,44.7028,-2.59789
651,148,44.6364,2.75354,-0.000325044,0.00101283,0.000464482,0.00115827,-0.000470491,1.26733,0.00096791,0.0378005,1875,876,44.6364,-2.75355
658,148,44.6605,2.89777,-0.000348839,0.000746774,0.000469247,0.000920275,-0.00052234,1.21664,0.00084339,0.0330854,1882,876,44.6605,-2.89777
665,148,44.6515,2.8772,-0.000489592,0.000488427,0.000368182,0.000611535,-0.0006127,1.24811,0.000706813,0.0252059,1889,876,44.6515,-2.87722
672,148,44.698,2.79199,-0.000536027,0.000262887,0.000289242,0.00035661,-0.000629751,1.25744,0.000576708,0.0313301,1896,876,44.698,-2.79198
679,148,44.6965,2.85681,0,0,0,0,0,0,0,-1,1903,876,44.6966,-2.85684
686,148,21.6195,2.40845,0,0,0,0,0,0,0,-1,1910,876,21.6196,-2.40846
693,148,38.1415,2.45642,0,0,0,0,0,0,0,-1,1917,876,38.1415,-2.4564
700,148,38.1445,2.93414,-0.000147808,8.48145e-05,-0.000168793,0.000173489,-0.000236483,-1.08708,0.000237627,0.0307779,1924,876,38.1446,-2.93416
707,148,38.2649,3.5307,9.72094e-05,0.000652039,-0.000447785,0.000901379,-0.00015213,-1.06273,0.000657522,0.0258732,1931,876,38.2649,-3.53071
714,148,38.1525,3.82971,0.000492777,0.00117087,-0.000641185,0.00155713,0.000106516,-1.0286,0.00100447,0.0260613,1938,876,38.1525,-3.82969
721,148,37.9061,4.20532,0.000852707,0.00190689,-0.000951905,0.00246789,0.000291705,-1.03825,0.00155716,0.0216167,1945,876,37.9062,-4.2053
728,148,37.8971,4.64514,0.00268886,0.00304228,-0.00157198,0.00444745,0.00128369,-0.841369,0.0026431,0.0216853,1952,876,37.8971,-4.64514
735,148,37.9163,5.12274,0.00680209,0.00461482,-0.00253532,0.00846959,0.00294732,-0.581776,0.00496468,0.0195114,1959,876,37.9163,-5.12276
742,148,37.8805,5.59613,0.0123175,0.00652858,-0.00379813,0.0141984,0.00464772,-0.459806,0.00835875,0.0208767,1966,876,37.8805,-5.59612
749,148,37.7904,6.01727,0.0207272,0.00850249,-0.00543543,0.0227944,0.00643532,-0.363422,0.0135697,0.0205567,1973,876,37.7904,-6.01729
756,148,37.689,6.51947,0.0328291,0.0103076,-0.00745354,0.0350724,0.00806424,-0.292349,0.0212108,0.0245307,1980,876,37.6889,-6.51944
763,148,37.5741,7.21405,0.0497487,0.0118736,-0.00986778,0.0521654,0.00945694,-0.24018,0.0320925,0.0429226,1987,876,37.5741,-7.21405
770,148,37.4519,7.90393,0,0,0,0,0,0,0,-1,1994,876,37.4519,-7.90395
777,148,39.8684,7.34644,0.103778,0.012763,-0.0166415,0.106725,0.00981567,-0.17529,0.0681145,0.0406708,2001,876,39.8685,-7.34641
784,148,41.1113,7.52332,0.143249,0.0110837,-0.0209191,0.146481,0.00785162,-0.153289,0.0951447,0.0424226,2008,876,41.1112,-7.5233
791,148,42.314,7.74591,0,0,0,0,0,0,0,-1,2015,876,42.3139,-7.74589
798,148,0,0,0,0,0,0,0,0,0,-1,2022,876,0,0
805,148,0,0,0,0,0,0,0,0,0,-1,2029,876,0,0
812,148,0,0,0,0,0,0,0,0,0,-1,2036,876,0,0
-700,141,0,0,0,0,0,0,0,0,0,-1,524,883,0,0
-693,141,0,0,0,0,0,0,0,0,0,-1,531,883,0,0
-686,141,0,0,0,0,0,0,0,0,0,-1,538,883,0,0
-679,141,0,0,0,0,0,0,0,0,0,-1,545,883,0,0
-672,141,-32.0271,3.33704,0,0,0,0,0,0,0,-1,552,883,-32.0271,-3.33701
-665,141,-32.7621,4.28101,0,0,0,0,0,0,0,-1,559,883,-32.7621,-4.28099
-658,141,-32.8097,4.85199,0,0,0,0,0,0,0,-1,566,883,-32.8097,-4.85199
-651,141,-26.8701,4.42352,0,0,0,0,0,0,0,-1,573,883,-26.87,-4.42354
-644,141,-28.4802,2.24866,0,0,0,0,0,0,0,-1,580,883,-28.4802,-2.24866
-637,141,-29.0427,4.64508,0,0,0,0,0,0,0,-1,587,883,-29.0427,-4.64507
-630,141,-28.4115,4.34821,0,0,0,0,0,0,0,-1,594,883,-28.4115,-4.34823
-623,141,-27.6853,3.85254,0.0234967,0.0126399,0.0137164,0.0328198,0.00331671,0.596976,0.0208624,0.028307,601,883,-27.6853,-3.85255
-616,141,-27.8536,3.34399,0.0152246,0.00996447,0.0105127,0.0234312,0.00175781,0.662825,0.0150691,0.0139385,608,883,-27.8536,-3.34401
-609,141,-27.9224,2.89911,0.00867796,0.00696049,0.00752678,0.0153948,0.000243613,0.728598,0.010183,0.0150691,615,883,-27.9224,-2.8991
-602,141,-27.9492,2.47449,0.00403902,0.00410421,0.00513542,0.00920714,-0.00106391,0.788572,0.00652172,0.0147517,622,883,-27.9492,-2.4745
-595,141,-27.9456,2.0484,0.00163131,0.00191743,0.00355126,0.00532851,-0.00177977,0.805529,0.00427104,0.0135992,629,883,-27.9456,-2.04841
-588,141,-28.2232,1.63861,0.000736237,0.000628159,0.00254618,0.00322896,-0.00186456,0.774788,0.0029757,0.0267174,636,883,-28.2232,-1.63864
-581,141,-28.1731,1.24414,0.000177858,0.000123736,0.00177499,0.001926,-0.0016244,0.777776,0.00205229,0.0362906,643,883,-28.1731,-1.24414
-574,141,-27.8579,0.997009,-0.000218592,-0.00058107,0.00113783,0.000752341,-0.001552,0.706419,0.00135685,0.0467978,650,883,-27.8579,-0.997029
-567,141,-27.9252,0.587341,0,0,0,0,0,0,0,-1,657,883,-27.9252,-0.587324
-560,141,-27.9371,0.269775,0,0,0,0,0,0,0,-1,664,883,-27.9371,-0.269772
-553,141,-32.0876,1.39459,0,0,0,0,0,0,0,-1,671,883,-32.0876,-1.3946
-546,141,-33.1343,1.03784,0,0,0,0,0,0,0,-1,678,883,-33.1343,-1.03784
-539,141,-33.1206,1.08331,0.000913494,-0.00132014,0.00139567,0.00158418,-0.00199083,0.447967,0.00206848,0.029948,685,883,-33.1206,-1.08333
-532,141,-33.2053,1.0058,0.00102518,-0.00121977,0.00162211,0.00187531,-0.00206991,0.482736,0.0022787,0.0310079,692,883,-33.2053,-1.00579
-525,141,-33.1512,0.990417,0.000571399,-0.00106126,0.0020312,0.00194417,-0.00243403,0.594328,0.00253302,0.0377692,699,883,-33.1512,-0.990403
-518,141,-33.1231,0.974182,-9.68979e-05,-0.000475658,0.00286238,0.00258236,-0.00315492,0.752365,0.00331791,0.04031,706,883,-33.1231,-0.97417
-511,141,-33.1071,1.12561,-0.00078435,0.000589736,0.00413099,0.00409042,-0.00428504,0.867801,0.00483601,0.0383749,713,883,-33.1071,-1.12558
-504,141,-33.1354,1.23792,-0.00211973,0.00275834,0.00579956,0.00661086,-0.00597226,0.984448,0.00726799,0.0402044,720,883,-33.1354,-1.23789
-497,141,0,0,0,0,0,0,0,0,0,-1,727,883,0,0
-490,141,0,0,0,0,0,0,0,0,0,-1,734,883,0,0
-483,141,0,0,0,0,0,0,0,0,0,-1,741,883,0,0
-476,141,0,0,0,0,0,0,0,0,0,-1,748,883,0,0
-469,141,0,0,0,0,0,0,0,0,0,-1,755,883,0,0
-462,141,0,0,0,0,0,0,0,0,0,-1,762,883,0,0
-455,141,0,0,0,0,0,0,0,0,0,-1,769,883,0,0
-448,141,0,0,0,0,0,0,0,0,0,-1,776,883,0,0
-441,141,0,0,0,0,0,0,0,0,0,-1,783,883,0,0
-434,141,0,0,0,0,0,0,0,0,0,-1,790,883,0,0
-427,141,0,0,0,0,0,0,0,0,0,-1,797,883,0,0
-420,141,0,0,0,0,0,0,0,0,0,-1,804,883,0,0
-413,141,0,0,0,0,0,0,0,0,0,-1,811,883,0,0
-406,141,0,0,0,0,0,0,0,0,0,-1,818,883,0,0
-399,141,0,0,0,0,0,0,0,0,0,-1,825,883,0,0
-392,141,0,0,0,0,0,0,0,0,0,-1,832,883,0,0
-385,141,0,0,0,0,0,0,0,0,0,-1,839,883,0,0
-378,141,0,0,0,0,0,0,0,0,0,-1,846,883,0,0
-371,141,0,0,0,0,0,0,0,0,0,-1,853,883,0,0
-364,141,0,0,0,0,0,0,0,0,0,-1,860,883,0,0
-357,141,0,0,0,0,0,0,0,0,0,-1,867,883,0,0
-350,141,0,0,0,0,0,0,0,0,0,-1,874,883,0,0
-343,141,0,0,0,0,0,0,0,0,0,-1,881,883,0,0
-336,141,0,0,0,0,0,0,0,0,0,-1,888,883,0,0
-329,141,0,0,0,0,0,0,0,0,0,-1,895,883,0,0
-322,141,0,0,0,0,0,0,0,0,0,-1,902,883,0,0
-315,141,0,0,0,0,0,0,0,0,0,-1,909,883,0,0
-308,141,0,0,0,0,0,0,0,0,0,-1,916,883,0,0
-301,141,0,0,0,0,0,0,0,0,0,-1,923,883,0,0
-294,141,0,0,0,0,0,0,0,0,0,-1,930,883,0,0
-287,141,0,0,0,0,0,0,0,0,0,-1,937,883,0,0
-280,141,0,0,0,0,0,0,0,0,0,-1,944,883,0,0
-273,141,0,0,0,0,0,0,0,0,0,-1,951,883,0,0
-266,141,0,0,0,0,0,0,0,0,0,-1,958,883,0,0
-259,141,0,0,0,0,0,0,0,0,0,-1,965,883,0,0
-252,141,0,0,0,0,0,0,0,0,0,-1,972,883,0,0
-245,141,0,0,0,0,0,0,0,0,0,-1,979,883,0,0
-238,141,0,0,0,0,0,0,0,0,0,-1,986,883,0,0
-231,141,0,0,0,0,0,0,0,0,0,-1,993,883,0,0
-224,141,0,0,0,0,0,0,0,0,0,-1,1000,883,0,0
-217,141,0,0,0,0,0,0,0,0,0,-1,1007,883,0,0
-210,141,0,0,0,0,0,0,0,0,0,-1,1014,883,0,0
-203,141,0,0,0,0,0,0,0,0,0,-1,1021,883,0,0
-196,141,0,0,0,0,0,0,0,0,0,-1,1028,883,0,0
-189,141,0,0,0,0,0,0,0,0,0,-1,1035,883,0,0
-182,141,0,0,0,0,0,0,0,0,0,-1,1042,883,0,0
-175,141,0,0,0,0,0,0,0,0,0,-1,1049,883,0,0
-168,141,0,0,0,0,0,0,0,0,0,-1,1056,883,0,0
-161,141,0,0,0,0,0,0,0,0,0,-1,1063,883,0,0
-154,141,0,0,0,0,0,0,0,0,0,-1,1070,883,0,0
-147,141,0,0,0,0,0,0,0,0,0,-1,1077,883,0,0
-140,141,0,0,0,0,0,0,0,0,0,-1,1084,883,0,0
-133,141,0,0,0,0,0,0,0,0,0,-1,1091,883,0,0
-126,141,0,0,0,0,0,0,0,0,0,-1,1098,883,0,0
-119,141,0,0,0,0,0,0,0,0,0,-1,1105,883,0,0
-112,141,0,0,0,0,0,0,0,0,0,-1,1112,883,0,0
-105,141,0,0,0,0,0,0,0,0,0,-1,1119,883,0,0
-98,141,0,0,0,0,0,0,0,0,0,-1,1126,883,0,0
-91,141,0,0,0,0,0,0,0,0,0,-1,1133,883,0,0
-84,141,0,0,0,0,0,0,0,0,0,-1,1140,883,0,0
-77,141,0,0,0,0,0,0,0,0,0,-1,1147,883,0,0
-70,141,0,0,0,0,0,0,0,0,0,-1,1154,883,0,0
-63,141,0,0,0,0,0,0,0,0,0,-1,1161,883,0,0
-56,141,0,0,0,0,0,0,0,0,0,-1,1168,883,0,0
-49,141,0,0,0,0,0,0,0,0,0,-1,1175,883,0,0
-42,141,0,0,0,0,0,0,0,0,0,-1,1182,883,0,0
-35,141,0,0,0,0,0,0,0,0,0,-1,1189,883,0,0
-28,141,0,0,0,0,0,0,0,0,0,-1,1196,883,0,0
-21,141,0,0,0,0,0,0,0,0,0,-1,1203,883,0,0
-14,141,0,0,0,0,0,0,0,0,0,-1,1210,883,0,0
-7,141,0,0,0,0,0,0,0,0,0,-1,1217,883,0,0
0,141,0,0,0,0,0,0,0,0,0,-1,1224,883,0,0
7,141,0,0,0,0,0,0,0,0,0,-1,1231,883,0,0
14,141,0,0,0,0,0,0,0,0,0,-1,1238,883,0,0
21,141,0,0,0,0,0,0,0,0,0,-1,1245,883,0,0
28,141,0,0,0,0,0,0,0,0,0,-1,1252,883,0,0
35,141,0,0,0,0,0,0,0,0,0,-1,1259,883,0,0
42,141,0,0,0,0,0,0,0,0,0,-1,1266,883,0,0
49,141,0,0,0,0,0,0,0,0,0,-1,1273,883,0,0
56,141,0,0,0,0,0,0,0,0,0,-1,1280,883,0,0
63,141,0,0,0,0,0,0,0,0,0,-1,1287,883,0,0
70,141,0,0,0,0,0,0,0,0,0,-1,1294,883,0,0
77,141,0,0,0,0,0,0,0,0,0,-1,1301,883,0,0
84,141,0,0,0,0,0,0,0,0,0,-1,1308,883,0,0
91,141,0,0,0,0,0,0,0,0,0,-1,1315,883,0,0
98,141,0,0,0,0,0,0,0,0,0,-1,1322,883,0,0
105,141,0,0,0,0,0,0,0,0,0,-1,1329,883,0,0
112,141,0,0,0,0,0,0,0,0,0,-1,1336,883,0,0
119,141,0,0,0,0,0,0,0,0,0,-1,1343,883,0,0
126,141,0,0,0,0,0,0,0,0,0,-1,1350,883,0,0
133,141,0,0,0,0,0,0,0,0,0,-1,1357,883,0,0
140,141,0,0,0,0,0,0,0,0,0,-1,1364,883,0,0
147,141,0,0,0,0,0,0,0,0,0,-1,1371,883,0,0
154,141,0,0,0,0,0,0,0,0,0,-1,1378,883,0,0
161,141,0,0,0,0,0,0,0,0,0,-1,1385,883,0,0
168,141,0,0,0,0,0,0,0,0,0,-1,1392,883,0,0
175,141,0,0,0,0,0,0,0,0,0,-1,1399,883,0,0
182,141,0,0,0,0,0,0,0,0,0,-1,1406,883,0,0
189,141,0,0,0,0,0,0,0,0,0,-1,1413,883,0,0
196,141,0,0,0,0,0,0,0,0,0,-1,1420,883,0,0
203,141,0,0,0,0,0,0,0,0,0,-1,1427,883,0,0
210,141,0,0,0,0,0,0,0,0,0,-1,1434,883,0,0
217,141,0,0,0,0,0,0,0,0,0,-1,1441,883,0,0
224,141,0,0,0,0,0,0,0,0,0,-1,1448,883,0,0
231,141,0,0,0,0,0,0,0,0,0,-1,1455,883,0,0
238,141,0,0,0,0,0,0,0,0,0,-1,1462,883,0,0
245,141,0,0,0,0,0,0,0,0,0,-1,1469,883,0,0
252,141,0,0,0,0,0,0,0,0,0,-1,1476,883,0,0
259,141,0,0,0,0,0,0,0,0,0,-1,1483,883,0,0
266,141,0,0,0,0,0,0,0,0,0,-1,1490,883,0,0
273,141,0,0,0,0,0,0,0,0,0,-1,1497,883,0,0
280,141,0,0,0,0,0,0,0,0,0,-1,1504,883,0,0
287,141,0,0,0,0,0,0,0,0,0,-1,1511,883,0,0
294,141,0,0,0,0,0,0,0,0,0,-1,1518,883,0,0
301,141,0,0,0,0,0,0,0,0,0,-1,1525,883,0,0
308,141,0,0,0,0,0,0,0,0,0,-1,1532,883,0,0
315,141,0,0,0,0,0,0,0,0,0,-1,1539,883,0,0
322,141,0,0,0,0,0,0,0,0,0,-1,1546,883,0,0
329,141,0,0,0,0,0,0,0,0,0,-1,1553,883,0,0
336,141,0,0,0,0,0,0,0,0,0,-1,1560,883,0,0
343,141,0,0,0,0,0,0,0,0,0,-1,1567,883,0,0
350,141,0,0,0,0,0,0,0,0,0,-1,1574,883,0,0
357,141,0,0,0,0,0,0,0,0,0,-1,1581,883,0,0
364,141,0,0,0,0,0,0,0,0,0,-1,1588,883,0,0
371,141,0,0,0,0,0,0,0,0,0,-1,1595,883,0,0
378,141,0,0,0,0,0,0,0,0,0,-1,1602,883,0,0
385,141,0,0,0,0,0,0,0,0,0,-1,1609,883,0,0
392,141,0,0,0,0,0,0,0,0,0,-1,1616,883,0,0
399,141,0,0,0,0,0,0,0,0,0,-1,1623,883,0,0
406,141,0,0,0,0,0,0,0,0,0,-1,1630,883,0,0
413,141,0,0,0,0,0,0,0,0,0,-1,1637,883,0,0
420,141,0,0,0,0,0,0,0,0,0,-1,1644,883,0,0
427,141,0,0,0,0,0,0,0,0,0,-1,1651,883,0,0
434,141,0,0,0,0,0,0,0,0,0,-1,1658,883,0,0
441,141,0,0,0,0,0,0,0,0,0,-1,1665,883,0,0
448,141,0,0,0,0,0,0,0,0,0,-1,1672,883,0,0
455,141,0,0,0,0,0,0,0,0,0,-1,1679,883,0,0
462,141,0,0,0,0,0,0,0,0,0,-1,1686,883,0,0
469,141,0,0,0,0,0,0,0,0,0,-1,1693,883,0,0
476,141,0,0,0,0,0,0,0,0,0,-1,1700,883,0,0
483,141,0,0,0,0,0,0,0,0,0,-1,1707,883,0,0
490,141,0,0,0,0,0,0,0,0,0,-1,1714,883,0,0
497,141,0,0,0,0,0,0,0,0,0,-1,1721,883,0,0
504,141,0,0,0,0,0,0,0,0,0,-1,1728,883,0,0
511,141,0,0,0,0,0,0,0,0,0,-1,1735,883,0,0
518,141,0,0,0,0,0,0,0,0,0,-1,1742,883,0,0
525,141,0,0,0,0,0,0,0,0,0,-1,1749,883,0,0
532,141,0,0,0,0,0,0,0,0,0,-1,1756,883,0,0
539,141,0,0,0,0,0,0,0,0,0,-1,1763,883,0,0
546,141,0,0,0,0,0,0,0,0,0,-1,1770,883,0,0
553,141,0,0,0,0,0,0,0,0,0,-1,1777,883,0,0
560,141,0,0,0,0,0,0,0,0,0,-1,1784,883,0,0
567,141,0,0,0,0,0,0,0,0,0,-1,1791,883,0,0
574,141,0,0,0,0,0,0,0,0,0,-1,1798,883,0,0
581,141,0,0,0,0,0,0,0,0,0,-1,1805,883,0,0
588,141,0,0,0,0,0,0,0,0,0,-1,1812,883,0,0
595,141,0,0,0,0,0,0,0,0,0,-1,1819,883,0,0
602,141,0,0,0,0,0,0,0,0,0,-1,1826,883,0,0
609,141,0,0,0,0,0,0,0,0,0,-1,1833,883,0,0
616,141,0,0,0,0,0,0,0,0,0,-1,1840,883,0,0
623,141,44.7969,2.59973,0.00401611,0.00289928,-0.000350026,0.00411675,0.00279864,-0.279953,0.0024275,0.0440818,1847,883,44.7968,-2.59972
630,141,44.7391,2.64374,0.00204452,0.00234193,0.000106553,0.00237617,0.00201029,1.25993,0.00147733,0.0462193,1854,883,44.7391,-2.64374
637,141,44.7109,2.54517,0.000721337,0.00195051,0.000339347,0.00203797,0.000633874,1.31855,0.00120431,0.0420132,1861,883,44.711,-2.54519
644,141,44.7109,2.6311,-9.11623e-05,0.00154372,0.000427637,0.00164882,-0.000196263,1.3298,0.00117013,0.0379858,1868,883,44.711,-2.63112
651,141,44.6877,2.91656,-0.000399185,0.0011168,0.00043155,0.00123104,-0.000513424,1.31201,0.00103518,0.0391187,1875,883,44.6877,-2.91658
658,141,44.6449,2.9873,-0.000393311,0.000847965,0.000457918,0.000998612,-0.000543958,1.25297,0.000903406,0.0373966,1882,883,44.6449,-2.98731
665,141,44.5767,2.88245,-0.00040558,0.000588217,0.000394914,0.000726035,-0.000543398,1.23503,0.000735431,0.0283613,1889,883,44.5767,-2.88246
672,141,44.668,2.82037,-0.000321681,0.000346905,0.000346094,0.00049379,-0.000468567,1.16943,0.000555681,0.0242133,1896,883,44.668,-2.82039
679,141,44.6932,2.74335,5.24768e-06,5.51933e-05,0.000270552,0.000301923,-0.000241482,0.831419,0.000314381,0.0432023,1903,883,44.6932,-2.74334
686,141,44.7102,2.6629,0,0,0,0,0,0,0,-1,1910,883,44.7102,-2.66291
693,141,38.1997,2.23981,0,0,0,0,0,0,0,-1,1917,883,38.1998,-2.2398
700,141,38.5775,2.90497,0.000143863,0.00016989,-4.3414e-05,0.000202199,0.000111554,-0.931014,0.000116948,0.0298078,1924,883,38.5775,-2.90496
707,141,38.5532,3.45844,0.00042996,0.000607649,-0.000294168,0.000826097,0.000211513,-0.932052,0.00049551,0.025245,1931,883,38.5533,-3.45846
714,141,38.3308,3.79395,0.000882508,0.000996187,-0.000525996,0.00146841,0.000410289,-0.83922,0.000874854,0.0246747,1938,883,38.3309,-3.79393
721,141,38.3192,4.20093,0.00124185,0.00155404,-0.000856127,0.00226818,0.000527703,-0.875572,0.00137052,0.0156547,1945,883,38.3192,-4.2009
728,141,38.3658,4.60516,0.00278215,0.00240758,-0.00147884,0.00408552,0.00110421,-0.72241,0.00244035,0.0166192,1952,883,38.3658,-4.60518
735,141,38.3588,5.13098,0.00638732,0.00360045,-0.00242282,0.00778883,0.00219894,-0.524433,0.00463676,0.0176856,1959,883,38.3588,-5.13101
742,141,38.3151,5.5907,0.0114919,0.0050633,-0.0037274,0.0131996,0.00335569,-0.429588,0.00792171,0.0178831,1966,883,38.3151,-5.59068
749,141,38.291,5.99518,0.0194242,0.00654142,-0.0053899,0.0213818,0.00458385,-0.348378,0.0129988,0.0143132,1973,883,38.291,-5.99521
756,141,38.3148,6.5072,0.0307131,0.0077829,-0.0073435,0.0328633,0.00563273,-0.284837,0.0202935,0.0202757,1980,883,38.3148,-6.50722
763,141,38.7168,6.90442,0.0462827,0.00872103,-0.0095701,0.0485804,0.00642328,-0.235636,0.0304724,0.0430279,1987,883,38.7168,-6.90443
770,141,39.4645,7.21613,0,0,0,0,0,0,0,-1,1994,883,39.4645,-7.21612
777,141,40.3793,7.42285,0.0958555,0.0082519,-0.0156015,0.098551,0.00555633,-0.171087,0.0639291,0.0434992,2001,883,40.3792,-7.42282
784,141,41.4417,7.61206,0.132077,0.00593658,-0.0193137,0.134968,0.00304565,-0.14858,0.0889805,0.0449969,2008,883,41.4418,-7.61209
791,141,42.5815,7.74707,0,0,0,0,0,0,0,-1,2015,883,42.5815,-7.74706
798,141,0,0,0,0,0,0,0,0,0,-1,2022,883,0,0
805,141,0,0,0,0,0,0,0,0,0,-1,2029,883,0,0
812,141,0,0,0,0,0,0,0,0,0,-1,2036,883,0,0
-700,134,0,0,0,0,0,0,0,0,0,-1,524,890,0,0
-693,134,0,0,0,0,0,0,0,0,0,-1,531,890,0,0
-686,134,0,0,0,0,0,0,0,0,0,-1,538,890,0,0
-679,134,0,0,0,0,0,0,0,0,0,-1,545,890,0,0
-672,134,-31.9099,3.664,0,0,0,0,0,0,0,-1,552,890,-31.9099,-3.66399
-665,134,-32.3326,4.15088,0,0,0,0,0,0,0,-1,559,890,-32.3326,-4.1509
-658,134,-32.6867,4.81049,0,0,0,0,0,0,0,-1,566,890,-32.6867,-4.8105
-651,134,-33.2283,5.46851,0,0,0,0,0,0,0,-1,573,890,-33.2283,-5.46848
-644,134,-29.0103,0.935974,0,0,0,0,0,0,0,-1,580,890,-29.0103,-0.936002
-637,134,-28.7275,0.339355,0,0,0,0,0,0,0,-1,587,890,-28.7275,-0.339377
-630,134,-28.0891,4.07471,0,0,0,0,0,0,0,-1,594,890,-28.0891,-4.07469
-623,134,-28.1676,3.72253,0.0176693,0.00968801,0.0102949,0.0247199,0.00263736,0.600498,0.015675,0.0270673,601,890,-28.1676,-3.72252
-616,134,-28.3203,3.31458,0.0114384,0.00795088,0.00820678,0.0180846,0.00130464,0.680717,0.0116459,0.0132922,608,890,-28.3203,-3.31458
-609,134,-28.3918,2.90314,0.00625853,0.00545025,0.00612151,0.0119892,-0.000280449,0.752436,0.00808792,0.012675,615,890,-28.3918,-2.90315
-602,134,-28.3882,2.47906,0.00251312,0.00314033,0.00433131,0.00716937,-0.00151592,0.821537,0.00535687,0.0133499,622,890,-28.3883,-2.47908
-595,134,-28.351,2.13177,0.000709666,0.00134525,0.00317342,0.00421675,-0.00216184,0.835303,0.00374584,0.0187896,629,890,-28.351,-2.13176
-588,134,-28.7497,1.81287,9.66939e-05,0.000310679,0.00237192,0.00257802,-0.00217065,0.807937,0.002745,0.0335198,636,890,-28.7497,-1.81284
-581,134,-28.6434,1.15125,-0.000455404,-8.1852e-05,0.00166504,0.00140685,-0.00194411,0.841252,0.00194295,0.049293,643,890,-28.6434,-1.15126
-574,134,-28.4234,0.865662,0,0,0,0,0,0,0,-1,650,890,-28.4234,-0.865686
-567,134,-28.2318,0.482849,0,0,0,0,0,0,0,-1,657,890,-28.2318,-0.48287
-560,134,-22.9123,0.106567,0,0,0,0,0,0,0,-1,664,890,-22.9123,-0.106594
-553,134,-33.1481,0.958008,0,0,0,0,0,0,0,-1,671,890,-33.1481,-0.958025
-546,134,-33.1401,0.997437,-0.000243972,-0.0011808,0.00112987,0.000510734,-0.00193551,0.588895,0.00149005,0.0286372,678,890,-33.1401,-0.997439
-539,134,-33.157,1.00592,-0.000153945,-0.00110598,0.00118961,0.000651349,-0.00191127,0.595082,0.00153798,0.0181026,685,890,-33.157,-1.0059
-532,134,-33.1593,1.01794,-0.000196705,-0.000914839,0.00145086,0.000938858,-0.0020504,0.664093,0.00176517,0.0244117,692,890,-33.1593,-1.01794
-525,134,-33.111,0.934143,-0.000861124,-0.000612401,0.00193838,0.0012056,-0.00267913,0.817433,0.002296,0.0358176,699,890,-33.111,-0.934123
-518,134,-33.0867,1.08075,-0.00177381,9.88043e-05,0.00286849,0.00217993,-0.00385494,0.943152,0.00352869,0.0400943,706,890,-33.0867,-1.08075
-511,134,-33.0338,1.23859,-0.00266798,0.00132943,0.00420791,0.00398919,-0.00532774,1.00712,0.00539761,0.0416445,713,890,-33.0338,-1.23859
-504,134,0,0,0,0,0,0,0,0,0,-1,720,890,0,0
-497,134,0,0,0,0,0,0,0,0,0,-1,727,890,0,0
-490,134,0,0,0,0,0,0,0,0,0,-1,734,890,0,0
-483,134,0,0,0,0,0,0,0,0,0,-1,741,890,0,0
-476,134,0,0,0,0,0,0,0,0,0,-1,748,890,0,0
-469,134,0,0,0,0,0,0,0,0,0,-1,755,890,0,0
-462,134,0,0,0,0,0,0,0,0,0,-1,762,890,0,0
-455,134,0,0,0,0,0,0,0,0,0,-1,769,890,0,0
-448,134,0,0,0,0,0,0,0,0,0,-1,776,890,0,0
-441,134,0,0,0,0,0,0,0,0,0,-1,783,890,0,0
-434,134,0,0,0,0,0,0,0,0,0,-1,790,890,0,0
-427,134,0,0,0,0,0,0,0,0,0,-1,797,890,0,0
-420,134,0,0,0,0,0,0,0,0,0,-1,804,890,0,0
-413,134,0,0,0,0,0,0,0,0,0,-1,811,890,0,0
-406,134,0,0,0,0,0,0,0,0,0,-1,818,890,0,0
-399,134,0,0,0,0,0,0,0,0,0,-1,825,890,0,0
-392,134,0,0,0,0,0,0,0,0,0,-1,832,890,0,0
-385,134,0,0,0,0,0,0,0,0,0,-1,839,890,0,0
-378,134,0,0,0,0,0,0,0,0,0,-1,846,890,0,0
-371,134,0,0,0,0,0,0,0,0,0,-1,853,890,0,0
-364,134,0,0,0,0,0,0,0,0,0,-1,860,890,0,0
-357,134,0,0,0,0,0,0,0,0,0,-1,867,890,0,0
-350,134,0,0,0,0,0,0,0,0,0,-1,874,890,0,0
-343,134,0,0,0,0,0,0,0,0,0,-1,881,890,0,0
-336,134,0,0,0,0,0,0,0,0,0,-1,888,890,0,0
-329,134,0,0,0,0,0,0,0,0,0,-1,895,890,0,0
-322,134,0,0,0,0,0,0,0,0,0,-1,902,890,0,0
-315,134,0,0,0,0,0,0,0,0,0,-1,909,890,0,0
-308,134,0,0,0,0,0,0,0,0,0,-1,916,890,0,0
-301,134,0,0,0,0,0,0,0,0,0,-1,923,890,0,0
-294,134,0,0,0,0,0,0,0,0,0,-1,930,890,0,0
-287,134,0,0,0,0,0,0,0,0,0,-1,937,890,0,0
-280,134,0,0,0,0,0,0,0,0,0,-1,944,890,0,0
-273,134,0,0,0,0,0,0,0,0,0,-1,951,890,0,0
-266,134,0,0,0,0,0,0,0,0,0,-1,958,890,0,0
-259,134,0,0,0,0,0,0,0,0,0,-1,965,890,0,0
-252,134,0,0,0,0,0,0,0,0,0,-1,972,890,0,0
-245,134,0,0,0,0,0,0,0,0,0,-1,979,890,0,0
-238,134,0,0,0,0,0,0,0,0,0,-1,986,890,0,0
-231,134,0,0,0,0,0,0,0,0,0,-1,993,890,0,0
-224,134,0,0,0,0,0,0,0,0,0,-1,1000,890,0,0
-217,134,0,0,0,0,0,0,0,0,0,-1,1007,890,0,0
-210,134,0,0,0,0,0,0,0,0,0,-1,1014,890,0,0
-203,134,0,0,0,0,0,0,0,0,0,-1,1021,890,0,0
-196,134,0,0,0,0,0,0,0,0,0,-1,1028,890,0,0
-189,134,0,0,0,0,0,0,0,0,0,-1,1035,890,0,0
-182,134,0,0,0,0,0,0,0,0,0,-1,1042,890,0,0
-175,134,0,0,0,0,0,0,0,0,0,-1,1049,890,0,0
-168,134,0,0,0,0,0,0,0,0,0,-1,1056,890,0,0
-161,134,0,0,0,0,0,0,0,0,0,-1,1063,890,0,0
-154,134,0,0,0,0,0,0,0,0,0,-1,1070,890,0,0
-147,134,0,0,0,0,0,0,0,0,0,-1,1077,890,0,0
-140,134,0,0,0,0,0,0,0,0,0,-1,1084,890,0,0
-133,134,0,0,0,0,0,0,0,0,0,-1,1091,890,0,0
-126,134,0,0,0,0,0,0,0,0,0,-1,1098,890,0,0
-119,134,0,0,0,0,0,0,0,0,0,-1,1105,890,0,0
-112,134,0,0,0,0,0,0,0,0,0,-1,1112,890,0,0
-105,134,0,0,0,0,0,0,0,0,0,-1,1119,890,0,0
-98,134,0,0,0,0,0,0,0,0,0,-1,1126,890,0,0
-91,134,0,0,0,0,0,0,0,0,0,-1,1133,890,0,0
-84,134,0,0,0,0,0,0,0,0,0,-1,1140,890,0,0
-77,134,0,0,0,0,0,0,0,0,0,-1,1147,890,0,0
-70,134,0,0,0,0,0,0,0,0,0,-1,1154,890,0,0
-63,134,0,0,0,0,0,0,0,0,0,-1,1161,890,0,0
-56,134,0,0,0,0,0,0,0,0,0,-1,1168,890,0,0
-49,134,0,0,0,0,0,0,0,0,0,-1,1175,890,0,0
-42,134,0,0,0,0,0,0,0,0,0,-1,1182,890,0,0
-35,134,0,0,0,0,0,0,0,0,0,-1,1189,890,0,0
-28,134,0,0,0,0,0,0,0,0,0,-1,1196,890,0,0
-21,134,0,0,0,0,0,0,0,0,0,-1,1203,890,0,0
-14,134,0,0,0,0,0,0,0,0,0,-1,1210,890,0,0
-7,134,0,0,0,0,0,0,0,0,0,-1,1217,890,0,0
0,134,0,0,0,0,0,0,0,0,0,-1,1224,890,0,0
7,134,0,0,0,0,0,0,0,0,0,-1,1231,890,0,0
14,134,0,0,0,0,0,0,0,0,0,-1,1238,890,0,0
21,134,0,0,0,0,0,0,0,0,0,-1,1245,890,0,0
28,134,0,0,0,0,0,0,0,0,0,-1,1252,890,0,0
35,134,0,0,0,0,0,0,0,0,0,-1,1259,890,0,0
42,134,0,0,0,0,0,0,0,0,0,-1,1266,890,0,0
49,134,0,0,0,0,0,0,0,0,0,-1,1273,890,0,0
56,134,0,0,0,0,0,0,0,0,0,-1,1280,890,0,0
63,134,0,0,0,0,0,0,0,0,0,-1,1287,890,0,0
70,134,0,0,0,0,0,0,0,0,0,-1,1294,890,0,0
77,134,0,0,0,0,0,0,0,0,0,-1,1301,890,0,0
84,134,0,0,0,0,0,0,0,0,0,-1,1308,890,0,0
91,134,0,0,0,0,0,0,0,0,0,-1,1315,890,0,0
98,134,0,0,0,0,0,0,0,0,0,-1,1322,890,0,0
105,134,0,0,0,0,0,0,0,0,0,-1,1329,890,0,0
112,134,0,0,0,0,0,0,0,0,0,-1,1336,890,0,0
119,134,0,0,0,0,0,0,0,0,0,-1,1343,890,0,0
126,134,0,0,0,0,0,0,0,0,0,-1,1350,890,0,0
133,134,0,0,0,0,0,0,0,0,0,-1,1357,890,0,0
140,134,0,0,0,0,0,0,0,0,0,-1,1364,890,0,0
147,134,0,0,0,0,0,0,0,0,0,-1,1371,890,0,0
154,134,0,0,0,0,0,0,0,0,0,-1,1378,890,0,0
161,134,0,0,0,0,0,0,0,0,0,-1,1385,890,0,0
168,134,0,0,0,0,0,0,0,0,0,-1,1392,890,0,0
175,134,0,0,0,0,0,0,0,0,0,-1,1399,890,0,0
182,134,0,0,0,0,0,0,0,0,0,-1,1406,890,0,0
189,134,0,0,0,0,0,0,0,0,0,-1,1413,890,0,0
196,134,0,0,0,0,0,0,0,0,0,-1,1420,890,0,0
203,134,0,0,0,0,0,0,0,0,0,-1,1427,890,0,0
210,134,0,0,0,0,0,0,0,0,0,-1,1434,890,0,0
217,134,0,0,0,0,0,0,0,0,0,-1,1441,890,0,0
224,134,0,0,0,0,0,0,0,0,0,-1,1448,890,0,0
231,134,0,0,0,0,0,0,0,0,0,-1,1455,890,0,0
238,134,0,0,0,0,0,0,0,0,0,-1,1462,890,0,0
245,134,0,0,0,0,0,0,0,0,0,-1,1469,890,0,0
252,134,0,0,0,0,0,0,0,0,0,-1,1476,890,0,0
259,134,0,0,0,0,0,0,0,0,0,-1,1483,890,0,0
266,134,0,0,0,0,0,0,0,0,0,-1,1490,890,0,0
273,134,0,0,0,0,0,0,0,0,0,-1,1497,890,0,0
280,134,0,0,0,0,0,0,0,0,0,-1,1504,890,0,0
287,134,0,0,0,0,0,0,0,0,0,-1,1511,890,0,0
294,134,0,0,0,0,0,0,0,0,0,-1,1518,890,0,0
301,134,0,0,0,0,0,0,0,0,0,-1,1525,890,0,0
308,134,0,0,0,0,0,0,0,0,0,-1,1532,890,0,0
315,134,0,0,0,0,0,0,0,0,0,-1,1539,890,0,0
322,134,0,0,0,0,0,0,0,0,0,-1,1546,890,0,0
329,134,0,0,0,0,0,0,0,0,0,-1,1553,890,0,0
336,134,0,0,0,0,0,0,0,0,0,-1,1560,890,0,0
343,134,0,0,0,0,0,0,0,0,0,-1,1567,890,0,0
350,134,0,0,0,0,0,0,0,0,0,-1,1574,890,0,0
357,134,0,0,0,0,0,0,0,0,0,-1,1581,890,0,0
364,134,0,0,0,0,0,0,0,0,0,-1,1588,890,0,0
371,134,0,0,0,0,0,0,0,0,0,-1,1595,890,0,0
378,134,0,0,0,0,0,0,0,0,0,-1,1602,890,0,0
385,134,0,0,0,0,0,0,0,0,0,-1,1609,890,0,0
392,134,0,0,0,0,0,0,0,0,0,-1,1616,890,0,0
399,134,0,0,0,0,0,0,0,0,0,-1,1623,890,0,0
406,134,0,0,0,0,0,0,0,0,0,-1,1630,890,0,0
413,134,0,0,0,0,0,0,0,0,0,-1,1637,890,0,0
420,134,0,0,0,0,0,0,0,0,0,-1,1644,890,0,0
427,134,0,0,0,0,0,0,0,0,0,-1,1651,890,0,0
434,134,0,0,0,0,0,0,0,0,0,-1,1658,890,0,0
441,134,0,0,0,0,0,0,0,0,0,-1,1665,890,0,0
448,134,0,0,0,0,0,0,0,0,0,-1,1672,890,0,0
455,134,0,0,0,0,0,0,0,0,0,-1,1679,890,0,0
462,134,0,0,0,0,0,0,0,0,0,-1,1686,890,0,0
469,134,0,0,0,0,0,0,0,0,0,-1,1693,890,0,0
476,134,0,0,0,0,0,0,0,0,0,-1,1700,890,0,0
483,134,0,0,0,0,0,0,0,0,0,-1,1707,890,0,0
490,134,0,0,0,0,0,0,0,0,0,-1,1714,890,0,0
497,134,0,0,0,0,0,0,0,0,0,-1,1721,890,0,0
504,134,0,0,0,0,0,0,0,0,0,-1,1728,890,0,0
511,134,0,0,0,0,0,0,0,0,0,-1,1735,890,0,0
518,134,0,0,0,0,0,0,0,0,0,-1,1742,890,0,0
525,134,0,0,0,0,0,0,0,0,0,-1,1749,890,0,0
532,134,0,0,0,0,0,0,0,0,0,-1,1756,890,0,0
539,134,0,0,0,0,0,0,0,0,0,-1,1763,890,0,0
546,134,0,0,0,0,0,0,0,0,0,-1,1770,890,0,0
553,134,0,0,0,0,0,0,0,0,0,-1,1777,890,0,0
560,134,0,0,0,0,0,0,0,0,0,-1,1784,890,0,0
567,134,0,0,0,0,0,0,0,0,0,-1,1791,890,0,0
574,134,0,0,0,0,0,0,0,0,0,-1,1798,890,0,0
581,134,0,0,0,0,0,0,0,0,0,-1,1805,890,0,0
588,134,0,0,0,0,0,0,0,0,0,-1,1812,890,0,0
595,134,0,0,0,0,0,0,0,0,0,-1,1819,890,0,0
602,134,0,0,0,0,0,0,0,0,0,-1,1826,890,0,0
609,134,0,0,0,0,0,0,0,0,0,-1,1833,890,0,0
616,134,0,0,0,0,0,0,0,0,0,-1,1840,890,0,0
623,134,44.7605,2.49591,0.00422966,0.00277527,8.79077e-05,0.00423496,0.00276998,0.0601511,0.00248345,0.0451192,1847,890,44.7606,-2.49591
630,134,44.5853,2.6499,0.00217534,0.00213006,0.000455338,0.0026086,0.0016968,0.76056,0.00152864,0.0452936,1854,890,44.5853,-2.6499
637,134,44.6809,2.66174,0.000815238,0.00171659,0.0005113,0.00194749,0.000584345,1.14663,0.00115396,0.0423963,1861,890,44.6809,-2.66176
644,134,44.7869,2.836,-6.61285e-05,0.00135411,0.00045734,0.00148864,-0.000200656,1.28471,0.00106563,0.0402796,1868,890,44.7868,-2.836
651,134,44.6678,2.94153,-0.000447969,0.000974544,0.000374437,0.00106708,-0.000540509,1.32851,0.000944596,0.0420669,1875,890,44.6679,-2.9415
658,134,44.6132,2.89032,-0.000442102,0.000743439,0.000370928,0.000849928,-0.000548592,1.29123,0.00081366,0.0391728,1882,890,44.6132,-2.89032
665,134,44.603,2.72076,-0.000350607,0.000524135,0.000325974,0.000632248,-0.00045872,1.25055,0.000632521,0.0332575,1889,890,44.603,-2.72078
672,134,44.6451,2.797,-0.000160495,0.000304401,0.00031862,0.000466352,-0.000322446,1.10054,0.000457932,0.0249073,1896,890,44.6452,-2.797
679,134,44.6735,2.70166,0.000194308,3.20647e-05,0.000282375,0.000406983,-0.00018061,0.645523,0.000347538,0.0222625,1903,890,44.6734,-2.70164
686,134,44.7316,2.61993,0,0,0,0,0,0,0,-1,1910,890,44.7315,-2.61994
693,134,34.5778,2.48096,0,0,0,0,0,0,0,-1,1917,890,34.5777,-2.48099
700,134,38.7667,2.71991,0,0,0,0,0,0,0,-1,1924,890,38.7667,-2.71992
707,134,38.5911,3.07928,0.000628032,0.000555202,-0.0002004,0.000795299,0.000387935,-0.695523,0.000459212,0.0217293,1931,890,38.591,-3.07929
714,134,38.6268,3.61499,0.00111786,0.000887077,-0.000445748,0.00146291,0.000542028,-0.658741,0.000854001,0.0220444,1938,890,38.6269,-3.61499
721,134,38.8043,4.15204,0.00146641,0.00133426,-0.000745865,0.00214912,0.000651548,-0.741217,0.00127244,0.0196476,1945,890,38.8043,-4.15201
728,134,38.8617,4.60364,0.00265548,0.00200999,-0.0012608,0.00363419,0.00103129,-0.660096,0.00216261,0.0179194,1952,890,38.8617,-4.60363
735,134,38.8339,5.11658,0.0055954,0.00291487,-0.00205458,0.00670822,0.00180205,-0.496393,0.00400882,0.0251485,1959,890,38.8339,-5.1166
742,134,38.7867,5.59418,0.00998841,0.00405279,-0.00324716,0.0114197,0.00262151,-0.415158,0.00690715,0.0168921,1966,890,38.7867,-5.59419
749,134,38.7942,6,0.0170102,0.00522986,-0.00475303,0.0186888,0.00355131,-0.33948,0.0114603,0.0121573,1973,890,38.7941,-6.00001
756,134,38.7876,6.42816,0.0270056,0.00619354,-0.00645031,0.0288426,0.00435653,-0.277449,0.0179533,0.016519,1980,890,38.7876,-6.42816
763,134,38.8318,6.81012,0.0405902,0.0068732,-0.00827914,0.0425134,0.00494998,-0.22825,0.0268448,0.0393652,1987,890,38.8318,-6.81011
770,134,38.8625,7.17474,0,0,0,0,0,0,0,-1,1994,890,38.8626,-7.17472
777,134,41.01,7.33026,0,0,0,0,0,0,0,-1,2001,890,41.01,-7.33024
784,134,42.3352,7.4964,0,0,0,0,0,0,0,-1,2008,890,42.3352,-7.49641
791,134,42.2061,9.63593,0,0,0,0,0,0,0,-1,2015,890,42.2061,-9.63591
798,134,0,0,0,0,0,0,0,0,0,-1,2022,890,0,0
805,134,0,0,0,0,0,0,0,0,0,-1,2029,890,0,0
812,134,0,0,0,0,0,0,0,0,0,-1,2036,890,0,0
-700,127,0,0,0,0,0,0,0,0,0,-1,524,897,0,0
-693,127,0,0,0,0,0,0,0,0,0,-1,531,897,0,0
-686,127,0,0,0,0,0,0,0,0,0,-1,538,897,0,0
-679,127,-30.8856,3.76727,0,0,0,0,0,0,0,-1,545,897,-30.8856,-3.76728
-672,127,-31.7971,4.0285,0,0,0,0,0,0,0,-1,552,897,-31.797,-4.02849
-665,127,-32.3314,4.39307,0,0,0,0,0,0,0,-1,559,897,-32.3314,-4.39306
-658,127,-32.7308,5.04974,0,0,0,0,0,0,0,-1,566,897,-32.7309,-5.04974
-651,127,-33.2594,5.69147,0,0,0,0,0,0,0,-1,573,897,-33.2594,-5.69147
-644,127,-29.3811,0.996094,0,0,0,0,0,0,0,-1,580,897,-29.3811,-0.996079
-637,127,-29.1029,4.33527,0,0,0,0,0,0,0,-1,587,897,-29.1029,-4.33526
-630,127,-28.6356,4.05371,0,0,0,0,0,0,0,-1,594,897,-28.6356,-4.05368
-623,127,-28.7123,3.64063,0.0120247,0.00764239,0.00659827,0.0167861,0.00288096,0.625087,0.0103648,0.0164898,601,897,-28.7123,-3.64061
-616,127,-28.7745,3.30316,0.00733356,0.00655095,0.00573612,0.0126917,0.0011928,0.751342,0.00809289,0.01058,608,897,-28.7745,-3.30314
-609,127,-28.8244,2.89349,0.00333954,0.00446958,0.00465671,0.00859543,-0.000786307,0.84577,0.00600956,0.0144018,615,897,-28.8244,-2.89348
-602,127,-28.816,2.49146,0.00060838,0.00257943,0.00348463,0.00521522,-0.00202741,0.923209,0.00431444,0.0163599,622,897,-28.816,-2.49147
-595,127,-28.7949,2.16376,-0.000582489,0.00106475,0.00271745,0.00308065,-0.0025984,0.93254,0.00328274,0.0240949,629,897,-28.7949,-2.16376
-588,127,-28.9493,1.72278,-0.000906056,0.000193405,0.00209309,0.00180776,-0.00252041,0.913818,0.00251013,0.0324419,636,897,-28.9494,-1.72279
-581,127,-28.818,1.24854,0,0,0,0,0,0,0,-1,643,897,-28.818,-1.24856
-574,127,-25.2603,0.511169,0,0,0,0,0,0,0,-1,650,897,-25.2603,-0.51117
-567,127,-24.5417,-0.0447388,0,0,0,0,0,0,0,-1,657,897,-24.5417,0.0447226
-560,127,-18.9678,1.21667,0,0,0,0,0,0,0,-1,664,897,-18.9677,-1.2167
-553,127,-33.1888,0.883118,0,0,0,0,0,0,0,-1,671,897,-33.1888,-0.883121
-546,127,-33.1409,0.941528,-0.00120078,-0.000945238,0.000902343,-0.000161667,-0.00198436,0.855731,0.00127244,0.0227891,678,897,-33.1409,-0.941512
-539,127,-33.0933,1.00305,-0.00114498,-0.00077224,0.000958538,1.78797e-05,-0.0019351,0.881415,0.00129607,0.0204932,685,897,-33.0933,-1.00304
-532,127,-33.1033,1.04742,-0.0012959,-0.000450193,0.00124315,0.00044005,-0.00218614,0.949333,0.00162411,0.0175399,692,897,-33.1033,-1.04745
-525,127,-33.1349,1.10791,-0.00209109,6.14919e-05,0.00178302,0.00106788,-0.00309748,1.05694,0.00249822,0.032934,699,897,-33.1349,-1.1079
-518,127,-33.163,1.245,-0.00333418,0.000957091,0.00274504,0.00229556,-0.00467265,1.11712,0.00410038,0.0401877,706,897,-33.163,-1.245
-511,127,-33.121,1.32117,-0.0044646,0.00244147,0.00403671,0.00430054,-0.00632368,1.13921,0.00617086,0.0414477,713,897,-33.121,-1.32114
-504,127,0,0,0,0,0,0,0,0,0,-1,720,897,0,0
-497,127,0,0,0,0,0,0,0,0,0,-1,727,897,0,0
-490,127,0,0,0,0,0,0,0,0,0,-1,734,897,0,0
-483,127,0,0,0,0,0,0,0,0,0,-1,741,897,0,0
-476,127,0,0,0,0,0,0,0,0,0,-1,748,897,0,0
-469,127,0,0,0,0,0,0,0,0,0,-1,755,897,0,0
-462,127,0,0,0,0,0,0,0,0,0,-1,762,897,0,0
-455,127,0,0,0,0,0,0,0,0,0,-1,769,897,0,0
-448,127,0,0,0,0,0,0,0,0,0,-1,776,897,0,0
-441,127,0,0,0,0,0,0,0,0,0,-1,783,897,0,0
-434,127,0,0,0,0,0,0,0,0,0,-1,790,897,0,0
-427,127,0,0,0,0,0,0,0,0,0,-1,797,897,0,0
-420,127,0,0,0,0,0,0,0,0,0,-1,804,897,0,0
-413,127,0,0,0,0,0,0,0,0,0,-1,811,897,0,0
-406,127,0,0,0,0,0,0,0,0,0,-1,818,897,0,0
-399,127,0,0,0,0,0,0,0,0,0,-1,825,897,0,0
-392,127,0,0,0,0,0,0,0,0,0,-1,832,897,0,0
-385,127,0,0,0,0,0,0,0,0,0,-1,839,897,0,0
-378,127,0,0,0,0,0,0,0,0,0,-1,846,897,0,0
-371,127,0,0,0,0,0,0,0,0,0,-1,853,897,0,0
-364,127,0,0,0,0,0,0,0,0,0,-1,860,897,0,0
-357,127,0,0,0,0,0,0,0,0,0,-1,867,897,0,0
-350,127,0,0,0,0,0,0,0,0,0,-1,874,897,0,0
-343,127,0,0,0,0,0,0,0,0,0,-1,881,897,0,0
-336,127,0,0,0,0,0,0,0,0,0,-1,888,897,0,0
-329,127,0,0,0,0,0,0,0,0,0,-1,895,897,0,0
-322,127,0,0,0,0,0,0,0,0,0,-1,902,897,0,0
-315,127,0,0,0,0,0,0,0,0,0,-1,909,897,0,0
-308,127,0,0,0,0,0,0,0,0,0,-1,916,897,0,0
-301,127,0,0,0,0,0,0,0,0,0,-1,923,897,0,0
-294,127,0,0,0,0,0,0,0,0,0,-1,930,897,0,0
-287,127,0,0,0,0,0,0,0,0,0,-1,937,897,0,0
-280,127,0,0,0,0,0,0,0,0,0,-1,944,897,0,0
-273,127,0,0,0,0,0,0,0,0,0,-1,951,897,0,0
-266,127,0,0,0,0,0,0,0,0,0,-1,958,897,0,0
-259,127,0,0,0,0,0,0,0,0,0,-1,965,897,0,0
-252,127,0,0,0,0,0,0,0,0,0,-1,972,897,0,0
-245,127,0,0,0,0,0,0,0,0,0,-1,979,897,0,0
-238,127,0,0,0,0,0,0,0,0,0,-1,986,897,0,0
-231,127,0,0,0,0,0,0,0,0,0,-1,993,897,0,0
-224,127,0,0,0,0,0,0,0,0,0,-1,1000,897,0,0
-217,127,0,0,0,0,0,0,0,0,0,-1,1007,897,0,0
-210,127,0,0,0,0,0,0,0,0,0,-1,1014,897,0,0
-203,127,0,0,0,0,0,0,0,0,0,-1,1021,897,0,0
-196,127,0,0,0,0,0,0,0,0,0,-1,1028,897,0,0
-189,127,0,0,0,0,0,0,0,0,0,-1,1035,897,0,0
-182,127,0,0,0,0,0,0,0,0,0,-1,1042,897,0,0
-175,127,0,0,0,0,0,0,0,0,0,-1,1049,897,0,0
-168,127,0,0,0,0,0,0,0,0,0,-1,1056,897,0,0
-161,127,0,0,0,0,0,0,0,0,0,-1,1063,897,0,0
-154,127,0,0,0,0,0,0,0,0,0,-1,1070,897,0,0
-147,127,0,0,0,0,0,0,0,0,0,-1,1077,897,0,0
-140,127,0,0,0,0,0,0,0,0,0,-1,1084,897,0,0
-133,127,0,0,0,0,0,0,0,0,0,-1,1091,897,0,0
-126,127,0,0,0,0,0,0,0,0,0,-1,1098,897,0,0
-119,127,0,0,0,0,0,0,0,0,0,-1,1105,897,0,0
-112,127,0,0,0,0,0,0,0,0,0,-1,1112,897,0,0
-105,127,0,0,0,0,0,0,0,0,0,-1,1119,897,0,0
-98,127,0,0,0,0,0,0,0,0,0,-1,1126,897,0,0
-91,127,0,0,0,0,0,0,0,0,0,-1,1133,897,0,0
-84,127,0,0,0,0,0,0,0,0,0,-1,1140,897,0,0
-77,127,0,0,0,0,0,0,0,0,0,-1,1147,897,0,0
-70,127,0,0,0,0,0,0,0,0,0,-1,1154,897,0,0
-63,127,0,0,0,0,0,0,0,0,0,-1,1161,897,0,0
-56,127,0,0,0,0,0,0,0,0,0,-1,1168,897,0,0
-49,127,0,0,0,0,0,0,0,0,0,-1,1175,897,0,0
-42,127,0,0,0,0,0,0,0,0,0,-1,1182,897,0,0
-35,127,0,0,0,0,0,0,0,0,0,-1,1189,897,0,0
-28,127,0,0,0,0,0,0,0,0,0,-1,1196,897,0,0
-21,127,0,0,0,0,0,0,0,0,0,-1,1203,897,0,0
-14,127,0,0,0,0,0,0,0,0,0,-1,1210,897,0,0
-7,127,0,0,0,0,0,0,0,0,0,-1,1217,897,0,0
0,127,0,0,0,0,0,0,0,0,0,-1,1224,897,0,0
7,127,0,0,0,0,0,0,0,0,0,-1,1231,897,0,0
14,127,0,0,0,0,0,0,0,0,0,-1,1238,897,0,0
21,127,0,0,0,0,0,0,0,0,0,-1,1245,897,0,0
28,127,0,0,0,0,0,0,0,0,0,-1,1252,897,0,0
35,127,0,0,0,0,0,0,0,0,0,-1,1259,897,0,0
42,127,0,0,0,0,0,0,0,0,0,-1,1266,897,0,0
49,127,0,0,0,0,0,0,0,0,0,-1,1273,897,0,0
56,127,0,0,0,0,0,0,0,0,0,-1,1280,897,0,0
63,127,0,0,0,0,0,0,0,0,0,-1,1287,897,0,0
70,127,0,0,0,0,0,0,0,0,0,-1,1294,897,0,0
77,127,0,0,0,0,0,0,0,0,0,-1,1301,897,0,0
84,127,0,0,0,0,0,0,0,0,0,-1,1308,897,0,0
91,127,0,0,0,0,0,0,0,0,0,-1,1315,897,0,0
98,127,0,0,0,0,0,0,0,0,0,-1,1322,897,0,0
105,127,0,0,0,0,0,0,0,0,0,-1,1329,897,0,0
112,127,0,0,0,0,0,0,0,0,0,-1,1336,897,0,0
119,127,0,0,0,0,0,0,0,0,0,-1,1343,897,0,0
126,127,0,0,0,0,0,0,0,0,0,-1,1350,897,0,0
133,127,0,0,0,0,0,0,0,0,0,-1,1357,897,0,0
140,127,0,0,0,0,0,0,0,0,0,-1,1364,897,0,0
147,127,0,0,0,0,0,0,0,0,0,-1,1371,897,0,0
154,127,0,0,0,0,0,0,0,0,0,-1,1378,897,0,0
161,127,0,0,0,0,0,0,0,0,0,-1,1385,897,0,0
168,127,0,0,0,0,0,0,0,0,0,-1,1392,897,0,0
175,127,0,0,0,0,0,0,0,0,0,-1,1399,897,0,0
182,127,0,0,0,0,0,0,0,0,0,-1,1406,897,0,0
189,127,0,0,0,0,0,0,0,0,0,-1,1413,897,0,0
196,127,0,0,0,0,0,0,0,0,0,-1,1420,897,0,0
203,127,0,0,0,0,0,0,0,0,0,-1,1427,897,0,0
210,127,0,0,0,0,0,0,0,0,0,-1,1434,897,0,0
217,127,0,0,0,0,0,0,0,0,0,-1,1441,897,0,0
224,127,0,0,0,0,0,0,0,0,0,-1,1448,897,0,0
231,127,0,0,0,0,0,0,0,0,0,-1,1455,897,0,0
238,127,0,0,0,0,0,0,0,0,0,-1,1462,897,0,0
245,127,0,0,0,0,0,0,0,0,0,-1,1469,897,0,0
252,127,0,0,0,0,0,0,0,0,0,-1,1476,897,0,0
259,127,0,0,0,0,0,0,0,0,0,-1,1483,897,0,0
266,127,0,0,0,0,0,0,0,0,0,-1,1490,897,0,0
273,127,0,0,0,0,0,0,0,0,0,-1,1497,897,0,0
280,127,0,0,0,0,0,0,0,0,0,-1,1504,897,0,0
287,127,0,0,0,0,0,0,0,0,0,-1,1511,897,0,0
294,127,0,0,0,0,0,0,0,0,0,-1,1518,897,0,0
301,127,0,0,0,0,0,0,0,0,0,-1,1525,897,0,0
308,127,0,0,0,0,0,0,0,0,0,-1,1532,897,0,0
315,127,0,0,0,0,0,0,0,0,0,-1,1539,897,0,0
322,127,0,0,0,0,0,0,0,0,0,-1,1546,897,0,0
329,127,0,0,0,0,0,0,0,0,0,-1,1553,897,0,0
336,127,0,0,0,0,0,0,0,0,0,-1,1560,897,0,0
343,127,0,0,0,0,0,0,0,0,0,-1,1567,897,0,0
350,127,0,0,0,0,0,0,0,0,0,-1,1574,897,0,0
357,127,0,0,0,0,0,0,0,0,0,-1,1581,897,0,0
364,127,0,0,0,0,0,0,0,0,0,-1,1588,897,0,0
371,127,0,0,0,0,0,0,0,0,0,-1,1595,897,0,0
378,127,0,0,0,0,0,0,0,0,0,-1,1602,897,0,0
385,127,0,0,0,0,0,0,0,0,0,-1,1609,897,0,0
392,127,0,0,0,0,0,0,0,0,0,-1,1616,897,0,0
399,127,0,0,0,0,0,0,0,0,0,-1,1623,897,0,0
406,127,0,0,0,0,0,0,0,0,0,-1,1630,897,0,0
413,127,0,0,0,0,0,0,0,0,0,-1,1637,897,0,0
420,127,0,0,0,0,0,0,0,0,0,-1,1644,897,0,0
427,127,0,0,0,0,0,0,0,0,0,-1,1651,897,0,0
434,127,0,0,0,0,0,0,0,0,0,-1,1658,897,0,0
441,127,0,0,0,0,0,0,0,0,0,-1,1665,897,0,0
448,127,0,0,0,0,0,0,0,0,0,-1,1672,897,0,0
455,127,0,0,0,0,0,0,0,0,0,-1,1679,897,0,0
462,127,0,0,0,0,0,0,0,0,0,-1,1686,897,0,0
469,127,0,0,0,0,0,0,0,0,0,-1,1693,897,0,0
476,127,0,0,0,0,0,0,0,0,0,-1,1700,897,0,0
483,127,0,0,0,0,0,0,0,0,0,-1,1707,897,0,0
490,127,0,0,0,0,0,0,0,0,0,-1,1714,897,0,0
497,127,0,0,0,0,0,0,0,0,0,-1,1721,897,0,0
504,127,0,0,0,0,0,0,0,0,0,-1,1728,897,0,0
511,127,0,0,0,0,0,0,0,0,0,-1,1735,897,0,0
518,127,0,0,0,0,0,0,0,0,0,-1,1742,897,0,0
525,127,0,0,0,0,0,0,0,0,0,-1,1749,897,0,0
532,127,0,0,0,0,0,0,0,0,0,-1,1756,897,0,0
539,127,0,0,0,0,0,0,0,0,0,-1,1763,897,0,0
546,127,0,0,0,0,0,0,0,0,0,-1,1770,897,0,0
553,127,0,0,0,0,0,0,0,0,0,-1,1777,897,0,0
560,127,0,0,0,0,0,0,0,0,0,-1,1784,897,0,0
567,127,0,0,0,0,0,0,0,0,0,-1,1791,897,0,0
574,127,0,0,0,0,0,0,0,0,0,-1,1798,897,0,0
581,127,0,0,0,0,0,0,0,0,0,-1,1805,897,0,0
588,127,0,0,0,0,0,0,0,0,0,-1,1812,897,0,0
595,127,0,0,0,0,0,0,0,0,0,-1,1819,897,0,0
602,127,0,0,0,0,0,0,0,0,0,-1,1826,897,0,0
609,127,0,0,0,0,0,0,0,0,0,-1,1833,897,0,0
616,127,0,0,0,0,0,0,0,0,0,-1,1840,897,0,0
623,127,0,0,0,0,0,0,0,0,0,-1,1847,897,0,0
630,127,44.5464,2.75146,0.00219716,0.00146116,0.000734913,0.00265106,0.00100726,0.553276,0.00154523,0.0437268,1854,897,44.5464,-2.75148
637,127,44.7535,2.66772,0.000962611,0.00118295,0.000666442,0.00174827,0.000397294,0.867312,0.00105824,0.0405332,1861,897,44.7535,-2.66773
644,127,44.8979,2.74268,0.000131078,0.000992115,0.000531717,0.00124575,-0.000122559,1.1257,0.000874223,0.0413541,1868,897,44.8979,-2.74268
651,127,44.5813,2.6933,-0.000275352,0.000777394,0.000413876,0.000920619,-0.000418577,1.23764,0.000791088,0.0420885,1875,897,44.5813,-2.69331
658,127,44.5032,2.7439,-0.000284801,0.000676906,0.000408506,0.000827002,-0.000434897,1.21868,0.000740188,0.0419085,1882,897,44.5032,-2.7439
665,127,44.5955,2.63043,-0.00011971,0.000566209,0.000400069,0.000750199,-0.0003037,1.13974,0.000626407,0.0389167,1889,897,44.5954,-2.63045
672,127,44.6237,2.69659,0.000144556,0.000401882,0.000441247,0.000732842,-0.000186404,0.92726,0.000561113,0.0334314,1896,897,44.6237,-2.69662
679,127,44.6875,2.72168,0.0005079,0.000170246,0.00044688,0.00081678,-0.000138634,0.60479,0.000596129,0.0261821,1903,897,44.6875,-2.72168
686,127,44.7131,2.70313,0.000577567,0.000180792,0.000390638,0.000817306,-5.89482e-05,0.550442,0.000565545,0.0442181,1910,897,44.7131,-2.70313
693,127,44.6882,2.67578,0,0,0,0,0,0,0,-1,1917,897,44.6882,-2.67578
700,127,39.1245,2.664,0,0,0,0,0,0,0,-1,1924,897,39.1246,-2.66401
707,127,38.9923,3.11517,0.000838959,0.000531225,9.77871e-06,0.000839269,0.000530915,0.0317339,0.000490199,0.0266043,1931,897,38.9923,-3.1152
714,127,39.1992,3.62378,0.00130571,0.000782726,-0.000267241,0.00141811,0.000670326,-0.398136,0.000819153,0.0215924,1938,897,39.1992,-3.6238
721,127,39.3806,4.24011,0.00160662,0.00109124,-0.000565234,0.00197013,0.000727728,-0.571525,0.00115032,0.0186813,1945,897,39.3806,-4.24012
728,127,39.3262,4.65881,0.00241128,0.00156973,-0.00100831,0.00308308,0.000897922,-0.587729,0.001831,0.0164906,1952,897,39.3262,-4.65879
735,127,39.3021,5.11359,0.0046259,0.00219711,-0.00165791,0.0054666,0.0013564,-0.4693,0.00328692,0.0205667,1959,897,39.3022,-5.11361
742,127,39.2749,5.56464,0.00815635,0.00288684,-0.00275348,0.00933258,0.00171061,-0.403715,0.00573716,0.0189149,1966,897,39.2749,-5.56464
749,127,39.2448,5.99542,0.0140934,0.00351071,-0.00419434,0.0155541,0.00204995,-0.335131,0.00975814,0.0127585,1973,897,39.2447,-5.99539
756,127,39.1967,6.37109,0.0227143,0.0037653,-0.00590875,0.0244058,0.00207381,-0.278813,0.0156252,0.0146674,1980,897,39.1966,-6.37108
763,127,39.156,6.72571,0.0342664,0.00365954,-0.00778062,0.0361307,0.00179518,-0.235182,0.0235116,0.0254511,1987,897,39.156,-6.72572
770,127,39.9386,6.57886,0,0,0,0,0,0,0,-1,1994,897,39.9386,-6.57885
777,127,42.703,5.33789,0,0,0,0,0,0,0,-1,2001,897,42.7031,-5.33791
784,127,42.6145,8.47131,0,0,0,0,0,0,0,-1,2008,897,42.6146,-8.47131
791,127,42.238,8.97205,0,0,0,0,0,0,0,-1,2015,897,42.2381,-8.97204
798,127,0,0,0,0,0,0,0,0,0,-1,2022,897,0,0
805,127,0,0,0,0,0,0,0,0,0,-1,2029,897,0,0
812,127,0,0,0,0,0,0,0,0,0,-1,2036,897,0,0
-700,120,0,0,0,0,0,0,0,0,0,-1,524,904,0,0
-693,120,0,0,0,0,0,0,0,0,0,-1,531,904,0,0
-686,120,0,0,0,0,0,0,0,0,0,-1,538,904,0,0
-679,120,-30.7464,3.828,0,0,0,0,0,0,0,-1,545,904,-30.7464,-3.82801
-672,120,-31.6151,4.30103,0,0,0,0,0,0,0,-1,552,904,-31.6151,-4.30102
-665,120,-32.4675,4.73322,0,0,0,0,0,0,0,-1,559,904,-32.4675,-4.73322
-658,120,-33.3765,5.32861,0,0,0,0,0,0,0,-1,566,904,-33.3765,-5.32862
-651,120,-34.3669,5.85089,0,0,0,0,0,0,0,-1,573,904,-34.3669,-5.85086
-644,120,-30.4558,3.86719,0,0,0,0,0,0,0,-1,580,904,-30.4558,-3.86717
-637,120,-29.7884,4.0058,0.0135677,0.00178253,0.00219816,0.0139644,0.00138589,0.178524,0.00888374,0.0464315,587,904,-29.7884,-4.00579
-630,120,-29.1615,3.99823,0.00983219,0.00492132,0.00338877,0.0115616,0.00319191,0.471881,0.00689461,0.0286991,594,904,-29.1615,-3.99824
-623,120,-29.201,3.64972,0.00674524,0.00607702,0.0039948,0.0104199,0.00240238,0.743677,0.00630037,0.0119183,601,904,-29.201,-3.64969
-616,120,-29.2064,3.2785,0.00343394,0.00550614,0.00405026,0.00865072,0.000289357,0.910619,0.00567316,0.0106249,608,904,-29.2064,-3.27849
-609,120,-29.2256,2.8927,0.000538476,0.00376567,0.00369049,0.0061799,-0.00187576,0.991491,0.0048672,0.0138858,615,904,-29.2257,-2.89269
-602,120,-29.2435,2.50824,-0.00137182,0.00219011,0.00292173,0.00383089,-0.0030126,1.05911,0.0039605,0.0157696,622,904,-29.2436,-2.50826
-595,120,-29.2087,2.16351,-0.00213071,0.000841734,0.00237608,0.00215812,-0.00344709,1.06488,0.00326457,0.0273263,629,904,-29.2088,-2.16351
-588,120,-29.246,1.68793,-0.00220211,9.02105e-05,0.00183837,0.00111045,-0.00322235,1.06415,0.00259871,0.0368544,636,904,-29.246,-1.68793
-581,120,-29.0848,1.09045,0,0,0,0,0,0,0,-1,643,904,-29.0848,-1.09044
-574,120,-27.5438,0.505066,0,0,0,0,0,0,0,-1,650,904,-27.5438,-0.505085
-567,120,-25.2822,-0.410645,0,0,0,0,0,0,0,-1,657,904,-25.2821,0.410629
-560,120,-27.3358,1.10327,0,0,0,0,0,0,0,-1,664,904,-27.3358,-1.10324
-553,120,-33.1385,1.23065,0,0,0,0,0,0,0,-1,671,904,-33.1385,-1.23064
-546,120,-33.1475,0.989319,-0.00228389,-0.00067691,0.000632838,-0.00045762,-0.00250318,1.23723,0.0015391,0.0323908,678,904,-33.1474,-0.989295
-539,120,-33.0684,1.00018,-0.00216926,-0.000367693,0.000690136,-0.000133709,-0.00240325,1.24392,0.00155951,0.025864,685,904,-33.0684,-1.00019
-532,120,-33.0385,1.04919,-0.00230239,0.000139155,0.000989272,0.00048967,-0.0026529,1.23028,0.0019524,0.0277109,692,904,-33.0385,-1.04921
-525,120,-33.2332,1.23279,-0.00306955,0.000941631,0.00154303,0.00146652,-0.00359444,1.24291,0.00300681,0.0361853,699,904,-33.2332,-1.23279
-518,120,-33.3962,1.39825,-0.00468163,0.00209916,0.00245711,0.0028959,-0.00547838,1.25723,0.00491093,0.039459,706,904,-33.3962,-1.39824
-511,120,-33.2278,1.38373,-0.0059695,0.00385941,0.00364497,0.00506359,-0.00717368,1.25172,0.00710011,0.0374386,713,904,-33.2278,-1.38372
-504,120,0,0,0,0,0,0,0,0,0,-1,720,904,0,0
-497,120,0,0,0,0,0,0,0,0,0,-1,727,904,0,0
-490,120,0,0,0,0,0,0,0,0,0,-1,734,904,0,0
-483,120,0,0,0,0,0,0,0,0,0,-1,741,904,0,0
-476,120,0,0,0,0,0,0,0,0,0,-1,748,904,0,0
-469,120,0,0,0,0,0,0,0,0,0,-1,755,904,0,0
-462,120,0,0,0,0,0,0,0,0,0,-1,762,904,0,0
-455,120,0,0,0,0,0,0,0,0,0,-1,769,904,0,0
-448,120,0,0,0,0,0,0,0,0,0,-1,776,904,0,0
-441,120,0,0,0,0,0,0,0,0,0,-1,783,904,0,0
-434,120,0,0,0,0,0,0,0,0,0,-1,790,904,0,0
-427,120,0,0,0,0,0,0,0,0,0,-1,797,904,0,0
-420,120,0,0,0,0,0,0,0,0,0,-1,804,904,0,0
-413,120,0,0,0,0,0,0,0,0,0,-1,811,904,0,0
-406,120,0,0,0,0,0,0,0,0,0,-1,818,904,0,0
-399,120,0,0,0,0,0,0,0,0,0,-1,825,904,0,0
-392,120,0,0,0,0,0,0,0,0,0,-1,832,904,0,0
-385,120,0,0,0,0,0,0,0,0,0,-1,839,904,0,0
-378,120,0,0,0,0,0,0,0,0,0,-1,846,904,0,0
-371,120,0,0,0,0,0,0,0,0,0,-1,853,904,0,0
-364,120,0,0,0,0,0,0,0,0,0,-1,860,904,0,0
-357,120,0,0,0,0,0,0,0,0,0,-1,867,904,0,0
-350,120,0,0,0,0,0,0,0,0,0,-1,874,904,0,0
-343,120,0,0,0,0,0,0,0,0,0,-1,881,904,0,0
-336,120,0,0,0,0,0,0,0,0,0,-1,888,904,0,0
-329,120,0,0,0,0,0,0,0,0,0,-1,895,904,0,0
-322,120,0,0,0,0,0,0,0,0,0,-1,902,904,0,0
-315,120,0,0,0,0,0,0,0,0,0,-1,909,904,0,0
-308,120,0,0,0,0,0,0,0,0,0,-1,916,904,0,0
-301,120,0,0,0,0,0,0,0,0,0,-1,923,904,0,0
-294,120,0,0,0,0,0,0,0,0,0,-1,930,904,0,0
-287,120,0,0,0,0,0,0,0,0,0,-1,937,904,0,0
-280,120,0,0,0,0,0,0,0,0,0,-1,944,904,0,0
-273,120,0,0,0,0,0,0,0,0,0,-1,951,904,0,0
-266,120,0,0,0,0,0,0,0,0,0,-1,958,904,0,0
-259,120,0,0,0,0,0,0,0,0,0,-1,965,904,0,0
-252,120,0,0,0,0,0,0,0,0,0,-1,972,904,0,0
-245,120,0,0,0,0,0,0,0,0,0,-1,979,904,0,0
-238,120,0,0,0,0,0,0,0,0,0,-1,986,904,0,0
-231,120,0,0,0,0,0,0,0,0,0,-1,993,904,0,0
-224,120,0,0,0,0,0,0,0,0,0,-1,1000,904,0,0
-217,120,0,0,0,0,0,0,0,0,0,-1,1007,904,0,0
-210,120,0,0,0,0,0,0,0,0,0,-1,1014,904,0,0
-203,120,0,0,0,0,0,0,0,0,0,-1,1021,904,0,0
-196,120,0,0,0,0,0,0,0,0,0,-1,1028,904,0,0
-189,120,0,0,0,0,0,0,0,0,0,-1,1035,904,0,0
-182,120,0,0,0,0,0,0,0,0,0,-1,1042,904,0,0
-175,120,0,0,0,0,0,0,0,0,0,-1,1049,904,0,0
-168,120,0,0,0,0,0,0,0,0,0,-1,1056,904,0,0
-161,120,0,0,0,0,0,0,0,0,0,-1,1063,904,0,0
-154,120,0,0,0,0,0,0,0,0,0,-1,1070,904,0,0
-147,120,0,0,0,0,0,0,0,0,0,-1,1077,904,0,0
-140,120,0,0,0,0,0,0,0,0,0,-1,1084,904,0,0
-133,120,0,0,0,0,0,0,0,0,0,-1,1091,904,0,0
-126,120,0,0,0,0,0,0,0,0,0,-1,1098,904,0,0
-119,120,0,0,0,0,0,0,0,0,0,-1,1105,904,0,0
-112,120,0,0,0,0,0,0,0,0,0,-1,1112,904,0,0
-105,120,0,0,0,0,0,0,0,0,0,-1,1119,904,0,0
-98,120,0,0,0,0,0,0,0,0,0,-1,1126,904,0,0
-91,120,0,0,0,0,0,0,0,0,0,-1,1133,904,0,0
-84,120,0,0,0,0,0,0,0,0,0,-1,1140,904,0,0
-77,120,0,0,0,0,0,0,0,0,0,-1,1147,904,0,0
-70,120,0,0,0,0,0,0,0,0,0,-1,1154,904,0,0
-63,120,0,0,0,0,0,0,0,0,0,-1,1161,904,0,0
-56,120,0,0,0,0,0,0,0,0,0,-1,1168,904,0,0
-49,120,0,0,0,0,0,0,0,0,0,-1,1175,904,0,0
-42,120,0,0,0,0,0,0,0,0,0,-1,1182,904,0,0
-35,120,0,0,0,0,0,0,0,0,0,-1,1189,904,0,0
-28,120,0,0,0,0,0,0,0,0,0,-1,1196,904,0,0
-21,120,0,0,0,0,0,0,0,0,0,-1,1203,904,0,0
-14,120,0,0,0,0,0,0,0,0,0,-1,1210,904,0,0
-7,120,0,0,0,0,0,0,0,0,0,-1,1217,904,0,0
0,120,0,0,0,0,0,0,0,0,0,-1,1224,904,0,0
7,120,0,0,0,0,0,0,0,0,0,-1,1231,904,0,0
14,120,0,0,0,0,0,0,0,0,0,-1,1238,904,0,0
21,120,0,0,0,0,0,0,0,0,0,-1,1245,904,0,0
28,120,0,0,0,0,0,0,0,0,0,-1,1252,904,0,0
35,120,0,0,0,0,0,0,0,0,0,-1,1259,904,0,0
42,120,0,0,0,0,0,0,0,0,0,-1,1266,904,0,0
49,120,0,0,0,0,0,0,0,0,0,-1,1273,904,0,0
56,120,0,0,0,0,0,0,0,0,0,-1,1280,904,0,0
63,120,0,0,0,0,0,0,0,0,0,-1,1287,904,0,0
70,120,0,0,0,0,0,0,0,0,0,-1,1294,904,0,0
77,120,0,0,0,0,0,0,0,0,0,-1,1301,904,0,0
84,120,0,0,0,0,0,0,0,0,0,-1,1308,904,0,0
91,120,0,0,0,0,0,0,0,0,0,-1,1315,904,0,0
98,120,0,0,0,0,0,0,0,0,0,-1,1322,904,0,0
105,120,0,0,0,0,0,0,0,0,0,-1,1329,904,0,0
112,120,0,0,0,0,0,0,0,0,0,-1,1336,904,0,0
119,120,0,0,0,0,0,0,0,0,0,-1,1343,904,0,0
126,120,0,0,0,0,0,0,0,0,0,-1,1350,904,0,0
133,120,0,0,0,0,0,0,0,0,0,-1,1357,904,0,0
140,120,0,0,0,0,0,0,0,0,0,-1,1364,904,0,0
147,120,0,0,0,0,0,0,0,0,0,-1,1371,904,0,0
154,120,0,0,0,0,0,0,0,0,0,-1,1378,904,0,0
161,120,0,0,0,0,0,0,0,0,0,-1,1385,904,0,0
168,120,0,0,0,0,0,0,0,0,0,-1,1392,904,0,0
175,120,0,0,0,0,0,0,0,0,0,-1,1399,904,0,0
182,120,0,0,0,0,0,0,0,0,0,-1,1406,904,0,0
189,120,0,0,0,0,0,0,0,0,0,-1,1413,904,0,0
196,120,0,0,0,0,0,0,0,0,0,-1,1420,904,0,0
203,120,0,0,0,0,0,0,0,0,0,-1,1427,904,0,0
210,120,0,0,0,0,0,0,0,0,0,-1,1434,904,0,0
217,120,0,0,0,0,0,0,0,0,0,-1,1441,904,0,0
224,120,0,0,0,0,0,0,0,0,0,-1,1448,904,0,0
231,120,0,0,0,0,0,0,0,0,0,-1,1455,904,0,0
238,120,0,0,0,0,0,0,0,0,0,-1,1462,904,0,0
245,120,0,0,0,0,0,0,0,0,0,-1,1469,904,0,0
252,120,0,0,0,0,0,0,0,0,0,-1,1476,904,0,0
259,120,0,0,0,0,0,0,0,0,0,-1,1483,904,0,0
266,120,0,0,0,0,0,0,0,0,0,-1,1490,904,0,0
273,120,0,0,0,0,0,0,0,0,0,-1,1497,904,0,0
280,120,0,0,0,0,0,0,0,0,0,-1,1504,904,0,0
287,120,0,0,0,0,0,0,0,0,0,-1,1511,904,0,0
294,120,0,0,0,0,0,0,0,0,0,-1,1518,904,0,0
301,120,0,0,0,0,0,0,0,0,0,-1,1525,904,0,0
308,120,0,0,0,0,0,0,0,0,0,-1,1532,904,0,0
315,120,0,0,0,0,0,0,0,0,0,-1,1539,904,0,0
322,120,0,0,0,0,0,0,0,0,0,-1,1546,904,0,0
329,120,0,0,0,0,0,0,0,0,0,-1,1553,904,0,0
336,120,0,0,0,0,0,0,0,0,0,-1,1560,904,0,0
343,120,0,0,0,0,0,0,0,0,0,-1,1567,904,0,0
350,120,0,0,0,0,0,0,0,0,0,-1,1574,904,0,0
357,120,0,0,0,0,0,0,0,0,0,-1,1581,904,0,0
364,120,0,0,0,0,0,0,0,0,0,-1,1588,904,0,0
371,120,0,0,0,0,0,0,0,0,0,-1,1595,904,0,0
378,120,0,0,0,0,0,0,0,0,0,-1,1602,904,0,0
385,120,0,0,0,0,0,0,0,0,0,-1,1609,904,0,0
392,120,0,0,0,0,0,0,0,0,0,-1,1616,904,0,0
399,120,0,0,0,0,0,0,0,0,0,-1,1623,904,0,0
406,120,0,0,0,0,0,0,0,0,0,-1,1630,904,0,0
413,120,0,0,0,0,0,0,0,0,0,-1,1637,904,0,0
420,120,0,0,0,0,0,0,0,0,0,-1,1644,904,0,0
427,120,0,0,0,0,0,0,0,0,0,-1,1651,904,0,0
434,120,0,0,0,0,0,0,0,0,0,-1,1658,904,0,0
441,120,0,0,0,0,0,0,0,0,0,-1,1665,904,0,0
448,120,0,0,0,0,0,0,0,0,0,-1,1672,904,0,0
455,120,0,0,0,0,0,0,0,0,0,-1,1679,904,0,0
462,120,0,0,0,0,0,0,0,0,0,-1,1686,904,0,0
469,120,0,0,0,0,0,0,0,0,0,-1,1693,904,0,0
476,120,0,0,0,0,0,0,0,0,0,-1,1700,904,0,0
483,120,0,0,0,0,0,0,0,0,0,-1,1707,904,0,0
490,120,0,0,0,0,0,0,0,0,0,-1,1714,904,0,0
497,120,0,0,0,0,0,0,0,0,0,-1,1721,904,0,0
504,120,0,0,0,0,0,0,0,0,0,-1,1728,904,0,0
511,120,0,0,0,0,0,0,0,0,0,-1,1735,904,0,0
518,120,0,0,0,0,0,0,0,0,0,-1,1742,904,0,0
525,120,0,0,0,0,0,0,0,0,0,-1,1749,904,0,0
532,120,0,0,0,0,0,0,0,0,0,-1,1756,904,0,0
539,120,0,0,0,0,0,0,0,0,0,-1,1763,904,0,0
546,120,0,0,0,0,0,0,0,0,0,-1,1770,904,0,0
553,120,0,0,0,0,0,0,0,0,0,-1,1777,904,0,0
560,120,0,0,0,0,0,0,0,0,0,-1,1784,904,0,0
567,120,0,0,0,0,0,0,0,0,0,-1,1791,904,0,0
574,120,0,0,0,0,0,0,0,0,0,-1,1798,904,0,0
581,120,0,0,0,0,0,0,0,0,0,-1,1805,904,0,0
588,120,0,0,0,0,0,0,0,0,0,-1,1812,904,0,0
595,120,0,0,0,0,0,0,0,0,0,-1,1819,904,0,0
602,120,0,0,0,0,0,0,0,0,0,-1,1826,904,0,0
609,120,0,0,0,0,0,0,0,0,0,-1,1833,904,0,0
616,120,0,0,0,0,0,0,0,0,0,-1,1840,904,0,0
623,120,0,0,0,0,0,0,0,0,0,-1,1847,904,0,0
630,120,44.6533,2.65625,0.00208582,0.000949419,0.000932822,0.00260987,0.000425369,0.51185,0.00161688,0.041392,1854,904,44.6533,-2.65627
637,120,44.7452,2.80652,0.000951749,0.00083206,0.000753083,0.00164736,0.000136448,0.745748,0.0010557,0.0424704,1861,904,44.7452,-2.80652
644,120,44.9309,2.79877,0.000184882,0.000811546,0.000534984,0.0011182,-0.000121774,1.05031,0.000789197,0.0406999,1868,904,44.9309,-2.79879
651,120,44.7021,2.72394,-0.000216975,0.000734354,0.000377259,0.000865799,-0.000348419,1.23553,0.00072193,0.0383384,1875,904,44.7021,-2.72393
658,120,44.5889,2.72174,-0.00024549,0.00072902,0.000353063,0.000843488,-0.000359958,1.25727,0.000713259,0.0406218,1882,904,44.5888,-2.72172
665,120,44.5951,2.73596,-2.87891e-05,0.000695314,0.000366659,0.000848549,-0.000182024,1.17494,0.000635129,0.0381884,1889,904,44.5951,-2.73596
672,120,44.6447,2.74622,0.000265149,0.000548516,0.000448663,0.000877336,-6.36701e-05,0.938338,0.000607227,0.0351279,1896,904,44.6447,-2.74622
679,120,44.6633,2.75751,0.000618571,0.000319874,0.000499399,0.000990476,-5.20305e-05,0.640103,0.000678326,0.0307504,1903,904,44.6634,-2.75753
686,120,44.6729,2.75812,0.000678676,0.000313635,0.000462621,0.00099348,-1.16945e-06,0.597504,0.000662711,0.025606,1910,904,44.6729,-2.7581
693,120,44.6324,2.71008,0,0,0,0,0,0,0,-1,1917,904,44.6325,-2.71006
700,120,38.8206,3.08911,0,0,0,0,0,0,0,-1,1924,904,38.8206,-3.0891
707,120,39.6775,3.39771,0,0,0,0,0,0,0,-1,1931,904,39.6774,-3.39769
714,120,39.8386,3.87653,0.00108753,0.000604442,-5.11092e-05,0.00109288,0.000599094,-0.104259,0.00063195,0.0214368,1938,904,39.8386,-3.87653
721,120,39.8398,4.30841,0.00130727,0.000795346,-0.000294544,0.00144153,0.000661087,-0.427682,0.00083322,0.0161286,1945,904,39.8398,-4.3084
728,120,39.7739,4.74976,0.00173663,0.00110934,-0.000589398,0.00209064,0.00075533,-0.540885,0.00122241,0.0118902,1952,904,39.7739,-4.74978
735,120,39.7368,5.13025,0.00317583,0.00152735,-0.000992789,0.00364194,0.00106124,-0.438947,0.00216282,0.0139717,1959,904,39.7368,-5.13023
742,120,39.7144,5.57965,0.00571914,0.00183154,-0.00188605,0.00648376,0.00106692,-0.385161,0.00401441,0.0145732,1966,904,39.7143,-5.57964
749,120,39.6833,5.98322,0.0104098,0.00189144,-0.00317155,0.0114609,0.000840306,-0.320032,0.00737646,0.0111296,1973,904,39.6833,-5.98324
756,120,39.627,6.37274,0.0176032,0.00131646,-0.00490382,0.0189657,-4.60604e-05,-0.271013,0.0126592,0.0135812,1980,904,39.6269,-6.37274
763,120,39.5414,6.77039,0.0272686,0.000265754,-0.00690945,0.0289339,-0.00139953,-0.236505,0.0197723,0.0274974,1987,904,39.5414,-6.7704
770,120,40.2992,6.84192,0.0403255,-0.00195502,-0.00972973,0.0424571,-0.00408659,-0.215671,0.0297606,0.0490945,1994,904,40.2992,-6.8419
777,120,41.3512,6.78638,0,0,0,0,0,0,0,-1,2001,904,41.3512,-6.78635
784,120,42.5986,7.98151,0,0,0,0,0,0,0,-1,2008,904,42.5987,-7.98152
791,120,42.2107,8.33081,0,0,0,0,0,0,0,-1,2015,904,42.2107,-8.33081
798,120,41.7688,8.52698,0,0,0,0,0,0,0,-1,2022,904,41.7688,-8.52699
805,120,0,0,0,0,0,0,0,0,0,-1,2029,904,0,0
812,120,0,0,0,0,0,0,0,0,0,-1,2036,904,0,0
-700,113,0,0,0,0,0,0,0,0,0,-1,524,911,0,0
-693,113,0,0,0,0,0,0,0,0,0,-1,531,911,0,0
-686,113,0,0,0,0,0,0,0,0,0,-1,538,911,0,0
-679,113,-30.5837,5.3197,0,0,0,0,0,0,0,-1,545,911,-30.5837,-5.31971
-672,113,-31.4363,4.60126,0,0,0,0,0,0,0,-1,552,911,-31.4363,-4.60123
-665,113,-29.8246,5.37427,0,0,0,0,0,0,0,-1,559,911,-29.8246,-5.37426
-658,113,-29.9421,5.29852,0,0,0,0,0,0,0,-1,566,911,-29.9421,-5.29854
-651,113,-30.9276,5.34918,0,0,0,0,0,0,0,-1,573,911,-30.9276,-5.34919
-644,113,-30.0254,3.758,0,0,0,0,0,0,0,-1,580,911,-30.0254,-3.75798
-637,113,-29.8033,3.86664,0.00574392,-0.00154044,-0.00316317,0.00692575,-0.00272228,-0.357564,0.00574381,0.0425226,587,911,-29.8033,-3.86665
-630,113,-29.5526,4.0119,0.00369577,0.00265825,-0.000778275,0.00411233,0.00224169,-0.491438,0.00237747,0.0198201,594,911,-29.5526,-4.01188
-623,113,-29.6212,3.64587,0.0019173,0.00435583,0.000946905,0.00468034,0.00159279,1.24064,0.00274775,0.0117827,601,911,-29.6212,-3.64588
-616,113,-29.6262,3.26031,-0.000273053,0.00423584,0.00199405,0.00499118,-0.00102839,1.2087,0.00371796,0.0104451,608,911,-29.6262,-3.26033
-609,113,-29.6302,2.89832,-0.0022561,0.00275955,0.00242943,0.00374333,-0.00323989,1.18604,0.00403525,0.011537,615,911,-29.6303,-2.8983
-602,113,-29.6374,2.50348,-0.003475,0.00149852,0.00207601,0.00225117,-0.00422765,1.22299,0.00379813,0.0178652,622,911,-29.6374,-2.50345
-595,113,-29.6572,2.21313,-0.00388255,0.000336607,0.00172487,0.000952005,-0.00449794,1.22809,0.00336121,0.0240105,629,911,-29.6572,-2.21312
-588,113,-29.6456,1.83344,-0.003754,-0.000277171,0.00126999,0.000137307,-0.00416848,1.25533,0.00282587,0.0276565,636,911,-29.6456,-1.83343
-581,113,-29.6865,1.44751,-0.00387406,-0.000456444,0.000781774,-0.000286104,-0.0040444,1.35626,0.00260614,0.0279388,643,911,-29.6865,-1.4475
-574,113,-29.6725,0.898193,0,0,0,0,0,0,0,-1,650,911,-29.6725,-0.898169
-567,113,-21.8396,0.437378,0,0,0,0,0,0,0,-1,657,911,-21.8396,-0.437351
-560,113,-33.0621,1.20978,0,0,0,0,0,0,0,-1,664,911,-33.0621,-1.2098
-553,113,-33.1559,1.12274,-0.0036564,-0.000825135,0.000222175,-0.000807807,-0.00367373,1.49296,0.00222922,0.0406695,671,911,-33.1559,-1.12275
-546,113,-33.2131,1.01257,-0.00352222,-0.000536745,0.000190562,-0.000524631,-0.00353434,1.50731,0.00220228,0.0357355,678,911,-33.2132,-1.01255
-539,113,-33.1447,1.03314,-0.00333245,-9.41868e-05,0.000262489,-7.30477e-05,-0.00335359,1.49044,0.00221178,0.0362516,685,911,-33.1447,-1.03315
-532,113,-32.9946,1.03027,-0.00336621,0.0005921,0.000585434,0.00067687,-0.00345098,1.427,0.00255632,0.0371801,692,911,-32.9946,-1.03029
-525,113,-33.177,1.07965,-0.00404764,0.0016297,0.00113984,0.00184999,-0.00426794,1.37988,0.00362298,0.0376386,699,911,-33.177,-1.07963
-518,113,-33.325,1.23364,-0.00616457,0.00287939,0.00194699,0.00328073,-0.00656591,1.36751,0.00578947,0.0402186,706,911,-33.325,-1.23366
-511,113,-33.2501,1.23358,-0.00773889,0.00455407,0.00292997,0.0052167,-0.00840151,1.34838,0.00793382,0.040434,713,911,-33.2501,-1.23361
-504,113,0,0,0,0,0,0,0,0,0,-1,720,911,0,0
-497,113,0,0,0,0,0,0,0,0,0,-1,727,911,0,0
-490,113,0,0,0,0,0,0,0,0,0,-1,734,911,0,0
-483,113,0,0,0,0,0,0,0,0,0,-1,741,911,0,0
-476,113,0,0,0,0,0,0,0,0,0,-1,748,911,0,0
-469,113,0,0,0,0,0,0,0,0,0,-1,755,911,0,0
-462,113,0,0,0,0,0,0,0,0,0,-1,762,911,0,0
-455,113,0,0,0,0,0,0,0,0,0,-1,769,911,0,0
-448,113,0,0,0,0,0,0,0,0,0,-1,776,911,0,0
-441,113,0,0,0,0,0,0,0,0,0,-1,783,911,0,0
-434,113,0,0,0,0,0,0,0,0,0,-1,790,911,0,0
-427,113,0,0,0,0,0,0,0,0,0,-1,797,911,0,0
-420,113,0,0,0,0,0,0,0,0,0,-1,804,911,0,0
-413,113,0,0,0,0,0,0,0,0,0,-1,811,911,0,0
-406,113,0,0,0,0,0,0,0,0,0,-1,818,911,0,0
-399,113,0,0,0,0,0,0,0,0,0,-1,825,911,0,0
-392,113,0,0,0,0,0,0,0,0,0,-1,832,911,0,0
-385,113,0,0,0,0,0,0,0,0,0,-1,839,911,0,0
-378,113,0,0,0,0,0,0,0,0,0,-1,846,911,0,0
-371,113,0,0,0,0,0,0,0,0,0,-1,853,911,0,0
-364,113,0,0,0,0,0,0,0,0,0,-1,860,911,0,0
-357,113,0,0,0,0,0,0,0,0,0,-1,867,911,0,0
-350,113,0,0,0,0,0,0,0,0,0,-1,874,911,0,0
-343,113,0,0,0,0,0,0,0,0,0,-1,881,911,0,0
-336,113,0,0,0,0,0,0,0,0,0,-1,888,911,0,0
-329,113,0,0,0,0,0,0,0,0,0,-1,895,911,0,0
-322,113,0,0,0,0,0,0,0,0,0,-1,902,911,0,0
-315,113,0,0,0,0,0,0,0,0,0,-1,909,911,0,0
-308,113,0,0,0,0,0,0,0,0,0,-1,916,911,0,0
-301,113,0,0,0,0,0,0,0,0,0,-1,923,911,0,0
-294,113,0,0,0,0,0,0,0,0,0,-1,930,911,0,0
-287,113,0,0,0,0,0,0,0,0,0,-1,937,911,0,0
-280,113,0,0,0,0,0,0,0,0,0,-1,944,911,0,0
-273,113,0,0,0,0,0,0,0,0,0,-1,951,911,0,0
-266,113,0,0,0,0,0,0,0,0,0,-1,958,911,0,0
-259,113,0,0,0,0,0,0,0,0,0,-1,965,911,0,0
-252,113,0,0,0,0,0,0,0,0,0,-1,972,911,0,0
-245,113,0,0,0,0,0,0,0,0,0,-1,979,911,0,0
-238,113,0,0,0,0,0,0,0,0,0,-1,986,911,0,0
-231,113,0,0,0,0,0,0,0,0,0,-1,993,911,0,0
-224,113,0,0,0,0,0,0,0,0,0,-1,1000,911,0,0
-217,113,0,0,0,0,0,0,0,0,0,-1,1007,911,0,0
-210,113,0,0,0,0,0,0,0,0,0,-1,1014,911,0,0
-203,113,0,0,0,0,0,0,0,0,0,-1,1021,911,0,0
-196,113,0,0,0,0,0,0,0,0,0,-1,1028,911,0,0
-189,113,0,0,0,0,0,0,0,0,0,-1,1035,911,0,0
-182,113,0,0,0,0,0,0,0,0,0,-1,1042,911,0,0
-175,113,0,0,0,0,0,0,0,0,0,-1,1049,911,0,0
-168,113,0,0,0,0,0,0,0,0,0,-1,1056,911,0,0
-161,113,0,0,0,0,0,0,0,0,0,-1,1063,911,0,0
-154,113,0,0,0,0,0,0,0,0,0,-1,1070,911,0,0
-147,113,0,0,0,0,0,0,0,0,0,-1,1077,911,0,0
-140,113,0,0,0,0,0,0,0,0,0,-1,1084,911,0,0
-133,113,0,0,0,0,0,0,0,0,0,-1,1091,911,0,0
-126,113,0,0,0,0,0,0,0,0,0,-1,1098,911,0,0
-119,113,0,0,0,0,0,0,0,0,0,-1,1105,911,0,0
-112,113,0,0,0,0,0,0,0,0,0,-1,1112,911,0,0
-105,113,0,0,0,0,0,0,0,0,0,-1,1119,911,0,0
-98,113,0,0,0,0,0,0,0,0,0,-1,1126,911,0,0
-91,113,0,0,0,0,0,0,0,0,0,-1,1133,911,0,0
-84,113,0,0,0,0,0,0,0,0,0,-1,1140,911,0,0
-77,113,0,0,0,0,0,0,0,0,0,-1,1147,911,0,0
-70,113,0,0,0,0,0,0,0,0,0,-1,1154,911,0,0
-63,113,0,0,0,0,0,0,0,0,0,-1,1161,911,0,0
-56,113,0,0,0,0,0,0,0,0,0,-1,1168,911,0,0
-49,113,0,0,0,0,0,0,0,0,0,-1,1175,911,0,0
-42,113,0,0,0,0,0,0,0,0,0,-1,1182,911,0,0
-35,113,0,0,0,0,0,0,0,0,0,-1,1189,911,0,0
-28,113,0,0,0,0,0,0,0,0,0,-1,1196,911,0,0
-21,113,0,0,0,0,0,0,0,0,0,-1,1203,911,0,0
-14,113,0,0,0,0,0,0,0,0,0,-1,1210,911,0,0
-7,113,0,0,0,0,0,0,0,0,0,-1,1217,911,0,0
0,113,0,0,0,0,0,0,0,0,0,-1,1224,911,0,0
7,113,0,0,0,0,0,0,0,0,0,-1,1231,911,0,0
14,113,0,0,0,0,0,0,0,0,0,-1,1238,911,0,0
21,113,0,0,0,0,0,0,0,0,0,-1,1245,911,0,0
28,113,0,0,0,0,0,0,0,0,0,-1,1252,911,0,0
35,113,0,0,0,0,0,0,0,0,0,-1,1259,911,0,0
42,113,0,0,0,0,0,0,0,0,0,-1,1266,911,0,0
49,113,0,0,0,0,0,0,0,0,0,-1,1273,911,0,0
56,113,0,0,0,0,0,0,0,0,0,-1,1280,911,0,0
63,113,0,0,0,0,0,0,0,0,0,-1,1287,911,0,0
70,113,0,0,0,0,0,0,0,0,0,-1,1294,911,0,0
77,113,0,0,0,0,0,0,0,0,0,-1,1301,911,0,0
84,113,0,0,0,0,0,0,0,0,0,-1,1308,911,0,0
91,113,0,0,0,0,0,0,0,0,0,-1,1315,911,0,0
98,113,0,0,0,0,0,0,0,0,0,-1,1322,911,0,0
105,113,0,0,0,0,0,0,0,0,0,-1,1329,911,0,0
112,113,0,0,0,0,0,0,0,0,0,-1,1336,911,0,0
119,113,0,0,0,0,0,0,0,0,0,-1,1343,911,0,0
126,113,0,0,0,0,0,0,0,0,0,-1,1350,911,0,0
133,113,0,0,0,0,0,0,0,0,0,-1,1357,911,0,0
140,113,0,0,0,0,0,0,0,0,0,-1,1364,911,0,0
147,113,0,0,0,0,0,0,0,0,0,-1,1371,911,0,0
154,113,0,0,0,0,0,0,0,0,0,-1,1378,911,0,0
161,113,0,0,0,0,0,0,0,0,0,-1,1385,911,0,0
168,113,0,0,0,0,0,0,0,0,0,-1,1392,911,0,0
175,113,0,0,0,0,0,0,0,0,0,-1,1399,911,0,0
182,113,0,0,0,0,0,0,0,0,0,-1,1406,911,0,0
189,113,0,0,0,0,0,0,0,0,0,-1,1413,911,0,0
196,113,0,0,0,0,0,0,0,0,0,-1,1420,911,0,0
203,113,0,0,0,0,0,0,0,0,0,-1,1427,911,0,0
210,113,0,0,0,0,0,0,0,0,0,-1,1434,911,0,0
217,113,0,0,0,0,0,0,0,0,0,-1,1441,911,0,0
224,113,0,0,0,0,0,0,0,0,0,-1,1448,911,0,0
231,113,0,0,0,0,0,0,0,0,0,-1,1455,911,0,0
238,113,0,0,0,0,0,0,0,0,0,-1,1462,911,0,0
245,113,0,0,0,0,0,0,0,0,0,-1,1469,911,0,0
252,113,0,0,0,0,0,0,0,0,0,-1,1476,911,0,0
259,113,0,0,0,0,0,0,0,0,0,-1,1483,911,0,0
266,113,0,0,0,0,0,0,0,0,0,-1,1490,911,0,0
273,113,0,0,0,0,0,0,0,0,0,-1,1497,911,0,0
280,113,0,0,0,0,0,0,0,0,0,-1,1504,911,0,0
287,113,0,0,0,0,0,0,0,0,0,-1,1511,911,0,0
294,113,0,0,0,0,0,0,0,0,0,-1,1518,911,0,0
301,113,0,0,0,0,0,0,0,0,0,-1,1525,911,0,0
308,113,0,0,0,0,0,0,0,0,0,-1,1532,911,0,0
315,113,0,0,0,0,0,0,0,0,0,-1,1539,911,0,0
322,113,0,0,0,0,0,0,0,0,0,-1,1546,911,0,0
329,113,0,0,0,0,0,0,0,0,0,-1,1553,911,0,0
336,113,0,0,0,0,0,0,0,0,0,-1,1560,911,0,0
343,113,0,0,0,0,0,0,0,0,0,-1,1567,911,0,0
350,113,0,0,0,0,0,0,0,0,0,-1,1574,911,0,0
357,113,0,0,0,0,0,0,0,0,0,-1,1581,911,0,0
364,113,0,0,0,0,0,0,0,0,0,-1,1588,911,0,0
371,113,0,0,0,0,0,0,0,0,0,-1,1595,911,0,0
378,113,0,0,0,0,0,0,0,0,0,-1,1602,911,0,0
385,113,0,0,0,0,0,0,0,0,0,-1,1609,911,0,0
392,113,0,0,0,0,0,0,0,0,0,-1,1616,911,0,0
399,113,0,0,0,0,0,0,0,0,0,-1,1623,911,0,0
406,113,0,0,0,0,0,0,0,0,0,-1,1630,911,0,0
413,113,0,0,0,0,0,0,0,0,0,-1,1637,911,0,0
420,113,0,0,0,0,0,0,0,0,0,-1,1644,911,0,0
427,113,0,0,0,0,0,0,0,0,0,-1,1651,911,0,0
434,113,0,0,0,0,0,0,0,0,0,-1,1658,911,0,0
441,113,0,0,0,0,0,0,0,0,0,-1,1665,911,0,0
448,113,0,0,0,0,0,0,0,0,0,-1,1672,911,0,0
455,113,0,0,0,0,0,0,0,0,0,-1,1679,911,0,0
462,113,0,0,0,0,0,0,0,0,0,-1,1686,911,0,0
469,113,0,0,0,0,0,0,0,0,0,-1,1693,911,0,0
476,113,0,0,0,0,0,0,0,0,0,-1,1700,911,0,0
483,113,0,0,0,0,0,0,0,0,0,-1,1707,911,0,0
490,113,0,0,0,0,0,0,0,0,0,-1,1714,911,0,0
497,113,0,0,0,0,0,0,0,0,0,-1,1721,911,0,0
504,113,0,0,0,0,0,0,0,0,0,-1,1728,911,0,0
511,113,0,0,0,0,0,0,0,0,0,-1,1735,911,0,0
518,113,0,0,0,0,0,0,0,0,0,-1,1742,911,0,0
525,113,0,0,0,0,0,0,0,0,0,-1,1749,911,0,0
532,113,0,0,0,0,0,0,0,0,0,-1,1756,911,0,0
539,113,0,0,0,0,0,0,0,0,0,-1,1763,911,0,0
546,113,0,0,0,0,0,0,0,0,0,-1,1770,911,0,0
553,113,0,0,0,0,0,0,0,0,0,-1,1777,911,0,0
560,113,0,0,0,0,0,0,0,0,0,-1,1784,911,0,0
567,113,0,0,0,0,0,0,0,0,0,-1,1791,911,0,0
574,113,0,0,0,0,0,0,0,0,0,-1,1798,911,0,0
581,113,0,0,0,0,0,0,0,0,0,-1,1805,911,0,0
588,113,0,0,0,0,0,0,0,0,0,-1,1812,911,0,0
595,113,0,0,0,0,0,0,0,0,0,-1,1819,911,0,0
602,113,0,0,0,0,0,0,0,0,0,-1,1826,911,0,0
609,113,0,0,0,0,0,0,0,0,0,-1,1833,911,0,0
616,113,0,0,0,0,0,0,0,0,0,-1,1840,911,0,0
623,113,0,0,0,0,0,0,0,0,0,-1,1847,911,0,0
630,113,44.7219,2.75635,0.00248212,0.000802733,0.000635044,0.00269522,0.000589637,0.323754,0.00163608,0.0401073,1854,911,44.7219,-2.75633
637,113,44.7974,2.87842,0.00131917,0.000669519,0.000484744,0.00157786,0.000410831,0.490211,0.000945207,0.0401292,1861,911,44.7973,-2.87845
644,113,44.8849,3.008,0.000505194,0.00069293,0.000283405,0.000897607,0.000300516,0.94532,0.000527579,0.0384842,1868,911,44.8849,-3.00802
651,113,44.8522,2.82874,1.33093e-05,0.000648037,0.000160097,0.000686132,-2.47854e-05,1.33719,0.000465903,0.0396795,1875,911,44.8522,-2.82874
658,113,44.7598,2.70483,-0.000124941,0.000654701,0.000154241,0.000684106,-0.000154346,1.38241,0.000515283,0.0413858,1882,911,44.7598,-2.70484
665,113,44.7502,2.76941,5.14799e-05,0.000641004,0.000208918,0.000707534,-1.50496e-05,1.2625,0.000476785,0.0376197,1889,911,44.7502,-2.76941
672,113,44.6759,2.96112,0.00029571,0.000480486,0.00034054,0.000740948,3.5248e-05,0.917859,0.000482645,0.0338944,1896,911,44.6759,-2.96111
679,113,44.6245,2.91443,0.000583367,0.000231335,0.000447784,0.000888487,-7.37854e-05,0.598134,0.000618389,0.0291412,1903,911,44.6245,-2.91445
686,113,44.6313,2.73987,0.000633712,0.000195008,0.000435362,0.000901859,-7.31394e-05,0.552042,0.000627043,0.0297808,1910,911,44.6313,-2.73987
693,113,44.7625,2.57806,0,0,0,0,0,0,0,-1,1917,911,44.7625,-2.57804
700,113,43.897,2.79669,0,0,0,0,0,0,0,-1,1924,911,43.897,-2.79671
707,113,40.1077,3.43726,0,0,0,0,0,0,0,-1,1931,911,40.1077,-3.43725
714,113,40.1742,3.8407,0.000826331,0.000496949,-4.16149e-05,0.000831507,0.000491773,-0.123752,0.000482739,0.0221353,1938,911,40.1742,-3.84071
721,113,40.1887,4.27557,0.00100229,0.000688081,-0.000271862,0.00115917,0.000531193,-0.523402,0.000670027,0.0204584,1945,911,40.1887,-4.2756
728,113,40.2412,4.77209,0.00118244,0.00101919,-0.000494533,0.00160204,0.000599592,-0.703611,0.000934635,0.0213973,1952,911,40.2412,-4.77208
735,113,40.1832,5.1911,0.00211228,0.00147804,-0.000779776,0.00263696,0.000953372,-0.592272,0.00154178,0.0195412,1959,911,40.1832,-5.1911
742,113,40.1393,5.57971,0.00398578,0.00172767,-0.0016434,0.0048506,0.000862852,-0.484416,0.00298794,0.0135278,1966,911,40.1392,-5.57971
749,113,40.1375,5.97144,0.00778708,0.0015577,-0.00300162,0.00899802,0.000346764,-0.383456,0.00588649,0.00943532,1973,911,40.1374,-5.97143
756,113,40.0824,6.38489,0.0140368,0.000400415,-0.00501863,0.0156847,-0.00124747,-0.317262,0.0108961,0.0130956,1980,911,40.0825,-6.38487
763,113,39.969,6.85632,0.0224262,-0.00144018,-0.00737556,0.0245216,-0.00353553,-0.2768,0.0176447,0.0278297,1987,911,39.969,-6.85632
770,113,40.6807,6.96277,0.0338541,-0.0048415,-0.010727,0.0366288,-0.00761622,-0.253119,0.0273142,0.0496829,1994,911,40.6806,-6.96278
777,113,41.6749,6.92761,0,0,0,0,0,0,0,-1,2001,911,41.6749,-6.92759
784,113,42.5828,7.4917,0,0,0,0,0,0,0,-1,2008,911,42.5828,-7.49173
791,113,41.9653,7.89362,0,0,0,0,0,0,0,-1,2015,911,41.9653,-7.8936
798,113,41.8872,8.34021,0,0,0,0,0,0,0,-1,2022,911,41.8873,-8.34019
805,113,0,0,0,0,0,0,0,0,0,-1,2029,911,0,0
812,113,0,0,0,0,0,0,0,0,0,-1,2036,911,0,0
-700,106,0,0,0,0,0,0,0,0,0,-1,524,918,0,0
-693,106,0,0,0,0,0,0,0,0,0,-1,531,918,0,0
-686,106,0,0,0,0,0,0,0,0,0,-1,538,918,0,0
-679,106,-30.6829,6.29108,0,0,0,0,0,0,0,-1,545,918,-30.6829,-6.29106
-672,106,-30.122,5.94647,0,0,0,0,0,0,0,-1,552,918,-30.122,-5.94645
-665,106,-30.1222,5.73346,0.0087045,-0.042053,-0.0202535,0.0157955,-0.049144,-0.336776,0.0391061,0.0490757,559,918,-30.1222,-5.73347
-658,106,-30.1614,5.54895,0.00712902,-0.0266368,-0.0168632,0.0141082,-0.033616,-0.392406,0.0283105,0.0468701,566,918,-30.1614,-5.54896
-651,106,-30.5344,5.39191,0.00519208,-0.0152322,-0.0130649,0.0115624,-0.0216025,-0.453673,0.0194381,0.0465917,573,918,-30.5344,-5.39193
-644,106,-29.9359,4.75397,0,0,0,0,0,0,0,-1,580,918,-29.9359,-4.75398
-637,106,-29.7574,4.18054,0.00130368,-0.00198585,-0.00594829,0.00583041,-0.00651258,-0.650513,0.00712986,0.0341962,587,918,-29.7574,-4.18055
-630,106,-29.9204,4.05402,1.93313e-05,0.00218509,-0.00300607,0.00429738,-0.00209295,-0.958278,0.00376192,0.0145181,594,918,-29.9204,-4.05403
-623,106,-30.0268,3.61566,-0.00123786,0.0038614,-0.000759062,0.00397199,-0.00134846,-1.42612,0.00319382,0.0136853,601,918,-30.0268,-3.61568
-616,106,-30.0576,3.22522,-0.00287289,0.00377866,0.000773564,0.00386744,-0.00296167,1.45653,0.00395433,0.0136596,608,918,-30.0576,-3.22521
-609,106,-30.0475,2.88788,-0.00439707,0.00233283,0.00161446,0.00270009,-0.00476433,1.34712,0.00436417,0.0114851,615,918,-30.0476,-2.88787
-602,106,-30.0496,2.50195,-0.00522593,0.00120437,0.00147603,0.001527,-0.00554856,1.3556,0.0042994,0.0175943,622,918,-30.0496,-2.50196
-595,106,-30.1618,2.16943,-0.00543151,0.000145861,0.00127452,0.00042331,-0.00570896,1.35645,0.00395463,0.0221119,629,918,-30.1618,-2.16944
-588,106,-30.1451,1.80609,-0.00522691,-0.0004104,0.000903194,-0.000246603,-0.00539071,1.39139,0.00351449,0.025472,636,918,-30.1451,-1.80612
-581,106,-29.9939,1.38934,-0.00522338,-0.0005501,0.000496456,-0.000497942,-0.00527554,1.46612,0.00336335,0.0165732,643,918,-29.9939,-1.38933
-574,106,-29.9529,0.988403,0,0,0,0,0,0,0,-1,650,918,-29.9529,-0.988377
-567,106,-32.5684,0.890198,0,0,0,0,0,0,0,-1,657,918,-32.5684,-0.890181
-560,106,-33.097,1.02844,0,0,0,0,0,0,0,-1,664,918,-33.097,-1.02846
-553,106,-33.1318,1.09991,-0.00491942,-0.000603752,-2.7075e-05,-0.000603582,-0.00491959,-1.56452,0.0030982,0.0365488,671,918,-33.1319,-1.09991
-546,106,-33.1521,0.932068,-0.00473511,-0.000255028,-0.000101206,-0.000252743,-0.0047374,-1.54822,0.00307748,0.0398202,678,918,-33.1521,-0.932041
-539,106,-32.924,1.07306,-0.0044603,0.000299567,-8.19257e-05,0.000300977,-0.00446171,-1.55359,0.0030797,0.0424334,685,918,-32.9239,-1.07307
-532,106,-32.8871,1.11566,-0.00438454,0.00109361,0.000128297,0.00109661,-0.00438754,1.54739,0.00335092,0.0392987,692,918,-32.8871,-1.11563
-525,106,-33.1295,1.08441,-0.00509631,0.00222195,0.000436236,0.00224786,-0.00512222,1.51147,0.00436165,0.0378341,699,918,-33.1295,-1.08442
-518,106,-33.2962,1.03333,-0.00806394,0.00337318,0.000851739,0.00343626,-0.00812702,1.49687,0.00685672,0.0394366,706,918,-33.2962,-1.03331
-511,106,0,0,0,0,0,0,0,0,0,-1,713,918,0,0
-504,106,0,0,0,0,0,0,0,0,0,-1,720,918,0,0
-497,106,0,0,0,0,0,0,0,0,0,-1,727,918,0,0
-490,106,0,0,0,0,0,0,0,0,0,-1,734,918,0,0
-483,106,0,0,0,0,0,0,0,0,0,-1,741,918,0,0
-476,106,0,0,0,0,0,0,0,0,0,-1,748,918,0,0
-469,106,0,0,0,0,0,0,0,0,0,-1,755,918,0,0
-462,106,0,0,0,0,0,0,0,0,0,-1,762,918,0,0
-455,106,0,0,0,0,0,0,0,0,0,-1,769,918,0,0
-448,106,0,0,0,0,0,0,0,0,0,-1,776,918,0,0
-441,106,0,0,0,0,0,0,0,0,0,-1,783,918,0,0
-434,106,0,0,0,0,0,0,0,0,0,-1,790,918,0,0
-427,106,0,0,0,0,0,0,0,0,0,-1,797,918,0,0
-420,106,0,0,0,0,0,0,0,0,0,-1,804,918,0,0
-413,106,0,0,0,0,0,0,0,0,0,-1,811,918,0,0
-406,106,0,0,0,0,0,0,0,0,0,-1,818,918,0,0
-399,106,0,0,0,0,0,0,0,0,0,-1,825,918,0,0
-392,106,0,0,0,0,0,0,0,0,0,-1,832,918,0,0
-385,106,0,0,0,0,0,0,0,0,0,-1,839,918,0,0
-378,106,0,0,0,0,0,0,0,0,0,-1,846,918,0,0
-371,106,0,0,0,0,0,0,0,0,0,-1,853,918,0,0
-364,106,0,0,0,0,0,0,0,0,0,-1,860,918,0,0
-357,106,0,0,0,0,0,0,0,0,0,-1,867,918,0,0
-350,106,0,0,0,0,0,0,0,0,0,-1,874,918,0,0
-343,106,0,0,0,0,0,0,0,0,0,-1,881,918,0,0
-336,106,0,0,0,0,0,0,0,0,0,-1,888,918,0,0
-329,106,0,0,0,0,0,0,0,0,0,-1,895,918,0,0
-322,106,0,0,0,0,0,0,0,0,0,-1,902,918,0,0
-315,106,0,0,0,0,0,0,0,0,0,-1,909,918,0,0
-308,106,0,0,0,0,0,0,0,0,0,-1,916,918,0,0
-301,106,0,0,0,0,0,0,0,0,0,-1,923,918,0,0
-294,106,0,0,0,0,0,0,0,0,0,-1,930,918,0,0
-287,106,0,0,0,0,0,0,0,0,0,-1,937,918,0,0
-280,106,0,0,0,0,0,0,0,0,0,-1,944,918,0,0
-273,106,0,0,0,0,0,0,0,0,0,-1,951,918,0,0
-266,106,0,0,0,0,0,0,0,0,0,-1,958,918,0,0
-259,106,0,0,0,0,0,0,0,0,0,-1,965,918,0,0
-252,106,0,0,0,0,0,0,0,0,0,-1,972,918,0,0
-245,106,0,0,0,0,0,0,0,0,0,-1,979,918,0,0
-238,106,0,0,0,0,0,0,0,0,0,-1,986,918,0,0
-231,106,0,0,0,0,0,0,0,0,0,-1,993,918,0,0
-224,106,0,0,0,0,0,0,0,0,0,-1,1000,918,0,0
-217,106,0,0,0,0,0,0,0,0,0,-1,1007,918,0,0
-210,106,0,0,0,0,0,0,0,0,0,-1,1014,918,0,0
-203,106,0,0,0,0,0,0,0,0,0,-1,1021,918,0,0
-196,106,0,0,0,0,0,0,0,0,0,-1,1028,918,0,0
-189,106,0,0,0,0,0,0,0,0,0,-1,1035,918,0,0
-182,106,0,0,0,0,0,0,0,0,0,-1,1042,918,0,0
-175,106,0,0,0,0,0,0,0,0,0,-1,1049,918,0,0
-168,106,0,0,0,0,0,0,0,0,0,-1,1056,918,0,0
-161,106,0,0,0,0,0,0,0,0,0,-1,1063,918,0,0
-154,106,0,0,0,0,0,0,0,0,0,-1,1070,918,0,0
-147,106,0,0,0,0,0,0,0,0,0,-1,1077,918,0,0
-140,106,0,0,0,0,0,0,0,0,0,-1,1084,918,0,0
-133,106,0,0,0,0,0,0,0,0,0,-1,1091,918,0,0
-126,106,0,0,0,0,0,0,0,0,0,-1,1098,918,0,0
-119,106,0,0,0,0,0,0,0,0,0,-1,1105,918,0,0
-112,106,0,0,0,0,0,0,0,0,0,-1,1112,918,0,0
-105,106,0,0,0,0,0,0,0,0,0,-1,1119,918,0,0
-98,106,0,0,0,0,0,0,0,0,0,-1,1126,918,0,0
-91,106,0,0,0,0,0,0,0,0,0,-1,1133,918,0,0
-84,106,0,0,0,0,0,0,0,0,0,-1,1140,918,0,0
-77,106,0,0,0,0,0,0,0,0,0,-1,1147,918,0,0
-70,106,0,0,0,0,0,0,0,0,0,-1,1154,918,0,0
-63,106,0,0,0,0,0,0,0,0,0,-1,1161,918,0,0
-56,106,0,0,0,0,0,0,0,0,0,-1,1168,918,0,0
-49,106,0,0,0,0,0,0,0,0,0,-1,1175,918,0,0
-42,106,0,0,0,0,0,0,0,0,0,-1,1182,918,0,0
-35,106,0,0,0,0,0,0,0,0,0,-1,1189,918,0,0
-28,106,0,0,0,0,0,0,0,0,0,-1,1196,918,0,0
-21,106,0,0,0,0,0,0,0,0,0,-1,1203,918,0,0
-14,106,0,0,0,0,0,0,0,0,0,-1,1210,918,0,0
-7,106,0,0,0,0,0,0,0,0,0,-1,1217,918,0,0
0,106,0,0,0,0,0,0,0,0,0,-1,1224,918,0,0
7,106,0,0,0,0,0,0,0,0,0,-1,1231,918,0,0
14,106,0,0,0,0,0,0,0,0,0,-1,1238,918,0,0
21,106,0,0,0,0,0,0,0,0,0,-1,1245,918,0,0
28,106,0,0,0,0,0,0,0,0,0,-1,1252,918,0,0
35,106,0,0,0,0,0,0,0,0,0,-1,1259,918,0,0
42,106,0,0,0,0,0,0,0,0,0,-1,1266,918,0,0
49,106,0,0,0,0,0,0,0,0,0,-1,1273,918,0,0
56,106,0,0,0,0,0,0,0,0,0,-1,1280,918,0,0
63,106,0,0,0,0,0,0,0,0,0,-1,1287,918,0,0
70,106,0,0,0,0,0,0,0,0,0,-1,1294,918,0,0
77,106,0,0,0,0,0,0,0,0,0,-1,1301,918,0,0
84,106,0,0,0,0,0,0,0,0,0,-1,1308,918,0,0
91,106,0,0,0,0,0,0,0,0,0,-1,1315,918,0,0
98,106,0,0,0,0,0,0,0,0,0,-1,1322,918,0,0
105,106,0,0,0,0,0,0,0,0,0,-1,1329,918,0,0
112,106,0,0,0,0,0,0,0,0,0,-1,1336,918,0,0
119,106,0,0,0,0,0,0,0,0,0,-1,1343,918,0,0
126,106,0,0,0,0,0,0,0,0,0,-1,1350,918,0,0
133,106,0,0,0,0,0,0,0,0,0,-1,1357,918,0,0
140,106,0,0,0,0,0,0,0,0,0,-1,1364,918,0,0
147,106,0,0,0,0,0,0,0,0,0,-1,1371,918,0,0
154,106,0,0,0,0,0,0,0,0,0,-1,1378,918,0,0
161,106,0,0,0,0,0,0,0,0,0,-1,1385,918,0,0
168,106,0,0,0,0,0,0,0,0,0,-1,1392,918,0,0
175,106,0,0,0,0,0,0,0,0,0,-1,1399,918,0,0
182,106,0,0,0,0,0,0,0,0,0,-1,1406,918,0,0
189,106,0,0,0,0,0,0,0,0,0,-1,1413,918,0,0
196,106,0,0,0,0,0,0,0,0,0,-1,1420,918,0,0
203,106,0,0,0,0,0,0,0,0,0,-1,1427,918,0,0
210,106,0,0,0,0,0,0,0,0,0,-1,1434,918,0,0
217,106,0,0,0,0,0,0,0,0,0,-1,1441,918,0,0
224,106,0,0,0,0,0,0,0,0,0,-1,1448,918,0,0
231,106,0,0,0,0,0,0,0,0,0,-1,1455,918,0,0
238,106,0,0,0,0,0,0,0,0,0,-1,1462,918,0,0
245,106,0,0,0,0,0,0,0,0,0,-1,1469,918,0,0
252,106,0,0,0,0,0,0,0,0,0,-1,1476,918,0,0
259,106,0,0,0,0,0,0,0,0,0,-1,1483,918,0,0
266,106,0,0,0,0,0,0,0,0,0,-1,1490,918,0,0
273,106,0,0,0,0,0,0,0,0,0,-1,1497,918,0,0
280,106,0,0,0,0,0,0,0,0,0,-1,1504,918,0,0
287,106,0,0,0,0,0,0,0,0,0,-1,1511,918,0,0
294,106,0,0,0,0,0,0,0,0,0,-1,1518,918,0,0
301,106,0,0,0,0,0,0,0,0,0,-1,1525,918,0,0
308,106,0,0,0,0,0,0,0,0,0,-1,1532,918,0,0
315,106,0,0,0,0,0,0,0,0,0,-1,1539,918,0,0
322,106,0,0,0,0,0,0,0,0,0,-1,1546,918,0,0
329,106,0,0,0,0,0,0,0,0,0,-1,1553,918,0,0
336,106,0,0,0,0,0,0,0,0,0,-1,1560,918,0,0
343,106,0,0,0,0,0,0,0,0,0,-1,1567,918,0,0
350,106,0,0,0,0,0,0,0,0,0,-1,1574,918,0,0
357,106,0,0,0,0,0,0,0,0,0,-1,1581,918,0,0
364,106,0,0,0,0,0,0,0,0,0,-1,1588,918,0,0
371,106,0,0,0,0,0,0,0,0,0,-1,1595,918,0,0
378,106,0,0,0,0,0,0,0,0,0,-1,1602,918,0,0
385,106,0,0,0,0,0,0,0,0,0,-1,1609,918,0,0
392,106,0,0,0,0,0,0,0,0,0,-1,1616,918,0,0
399,106,0,0,0,0,0,0,0,0,0,-1,1623,918,0,0
406,106,0,0,0,0,0,0,0,0,0,-1,1630,918,0,0
413,106,0,0,0,0,0,0,0,0,0,-1,1637,918,0,0
420,106,0,0,0,0,0,0,0,0,0,-1,1644,918,0,0
427,106,0,0,0,0,0,0,0,0,0,-1,1651,918,0,0
434,106,0,0,0,0,0,0,0,0,0,-1,1658,918,0,0
441,106,0,0,0,0,0,0,0,0,0,-1,1665,918,0,0
448,106,0,0,0,0,0,0,0,0,0,-1,1672,918,0,0
455,106,0,0,0,0,0,0,0,0,0,-1,1679,918,0,0
462,106,0,0,0,0,0,0,0,0,0,-1,1686,918,0,0
469,106,0,0,0,0,0,0,0,0,0,-1,1693,918,0,0
476,106,0,0,0,0,0,0,0,0,0,-1,1700,918,0,0
483,106,0,0,0,0,0,0,0,0,0,-1,1707,918,0,0
490,106,0,0,0,0,0,0,0,0,0,-1,1714,918,0,0
497,106,0,0,0,0,0,0,0,0,0,-1,1721,918,0,0
504,106,0,0,0,0,0,0,0,0,0,-1,1728,918,0,0
511,106,0,0,0,0,0,0,0,0,0,-1,1735,918,0,0
518,106,0,0,0,0,0,0,0,0,0,-1,1742,918,0,0
525,106,0,0,0,0,0,0,0,0,0,-1,1749,918,0,0
532,106,0,0,0,0,0,0,0,0,0,-1,1756,918,0,0
539,106,0,0,0,0,0,0,0,0,0,-1,1763,918,0,0
546,106,0,0,0,0,0,0,0,0,0,-1,1770,918,0,0
553,106,0,0,0,0,0,0,0,0,0,-1,1777,918,0,0
560,106,0,0,0,0,0,0,0,0,0,-1,1784,918,0,0
567,106,0,0,0,0,0,0,0,0,0,-1,1791,918,0,0
574,106,0,0,0,0,0,0,0,0,0,-1,1798,918,0,0
581,106,0,0,0,0,0,0,0,0,0,-1,1805,918,0,0
588,106,0,0,0,0,0,0,0,0,0,-1,1812,918,0,0
595,106,0,0,0,0,0,0,0,0,0,-1,1819,918,0,0
602,106,0,0,0,0,0,0,0,0,0,-1,1826,918,0,0
609,106,0,0,0,0,0,0,0,0,0,-1,1833,918,0,0
616,106,0,0,0,0,0,0,0,0,0,-1,1840,918,0,0
623,106,0,0,0,0,0,0,0,0,0,-1,1847,918,0,0
630,106,44.6475,2.90466,0.00287189,0.000266327,0.000165117,0.00288231,0.000255905,0.0630348,0.00184217,0.0404205,1854,918,44.6474,-2.90464
637,106,44.7731,2.9953,0.00163005,0.000347415,4.79015e-05,0.00163183,0.000345628,0.037277,0.000992937,0.0378214,1861,918,44.7731,-2.9953
644,106,44.8187,3.02771,0.000765747,0.000533834,-0.000110374,0.000809879,0.000489702,-0.38037,0.000470986,0.0354934,1868,918,44.8187,-3.02769
651,106,44.8008,2.92896,0.000200385,0.000578121,-0.000160915,0.000637375,0.000141131,-1.21797,0.000386558,0.0378596,1875,918,44.8008,-2.92897
658,106,44.7804,2.79712,-5.63548e-05,0.000642266,-0.000116845,0.00066129,-7.53793e-05,-1.40939,0.000468014,0.0404079,1882,918,44.7804,-2.79711
665,106,44.7795,2.7251,4.0377e-05,0.00068411,-4.02766e-06,0.000684135,4.03518e-05,-1.56454,0.000443252,0.0395258,1889,918,44.7796,-2.72507
672,106,44.668,2.88568,0.000169833,0.000525347,0.000197486,0.000613293,8.18872e-05,1.15183,0.000384484,0.0371763,1896,918,44.668,-2.88566
679,106,44.5835,2.73602,0.00035739,0.000257034,0.000372192,0.000682771,-6.83474e-05,0.718393,0.000479589,0.034819,1903,918,44.5835,-2.736
686,106,44.6254,2.64697,0.000400706,0.000177641,0.000383891,0.000688938,-0.000110592,0.644024,0.000500247,0.0348616,1910,918,44.6254,-2.64699
693,106,44.6865,2.5802,0.00031883,0.000165513,0.000364733,0.000614873,-0.00013053,0.681818,0.000459646,0.0348893,1917,918,44.6865,-2.58021
700,106,44.9562,2.28503,0,0,0,0,0,0,0,-1,1924,918,44.9562,-2.28502
707,106,40.4652,3.34613,0,0,0,0,0,0,0,-1,1931,918,40.4652,-3.34614
714,106,40.6028,3.82007,0.000361251,0.000442037,-1.82621e-05,0.000445974,0.000357314,-1.35849,0.000272611,0.0317842,1938,918,40.6028,-3.82006
721,106,40.6475,4.30981,0.00048244,0.000630463,-0.000231348,0.00079935,0.000313553,-0.940211,0.000465063,0.0251527,1945,918,40.6474,-4.3098
728,106,40.7135,4.81525,0.000478568,0.000970981,-0.000399395,0.00119396,0.00025559,-1.06161,0.000725933,0.0242841,1952,918,40.7135,-4.81522
735,106,40.6566,5.21222,0.00109416,0.0014748,-0.0005873,0.00190185,0.000667113,-0.942088,0.00111422,0.0212415,1959,918,40.6566,-5.21223
742,106,40.5941,5.55524,0.00260696,0.00166569,-0.00140438,0.00361746,0.000655187,-0.623719,0.00222563,0.012392,1966,918,40.5941,-5.55525
749,106,40.5671,5.94501,0.0057657,0.00138532,-0.0027504,0.00709142,5.95923e-05,-0.449153,0.00470788,0.00937764,1973,918,40.5672,-5.94504
756,106,40.5149,6.33392,0.0113012,-0.000114138,-0.0048547,0.0130866,-0.0018995,-0.352408,0.0094216,0.01202,1980,918,40.5149,-6.33391
763,106,40.4403,6.79852,0.0187748,-0.00245635,-0.00732762,0.0210582,-0.00473979,-0.302084,0.0158566,0.0231155,1987,918,40.4403,-6.79852
770,106,40.2306,7.11548,0.0289694,-0.00655065,-0.0108238,0.0320078,-0.00958902,-0.273669,0.0251517,0.043322,1994,918,40.2306,-7.11548
777,106,39.9572,7.42206,0.0433391,-0.0135912,-0.0160046,0.04753,-0.0177821,-0.256101,0.0389899,0.0470141,2001,918,39.9571,-7.42207
784,106,39.4227,7.74042,0,0,0,0,0,0,0,-1,2008,918,39.4228,-7.74041
791,106,38.1377,8.40277,0,0,0,0,0,0,0,-1,2015,918,38.1377,-8.40278
798,106,41.9639,8.36554,0,0,0,0,0,0,0,-1,2022,918,41.9638,-8.36557
805,106,0,0,0,0,0,0,0,0,0,-1,2029,918,0,0
812,106,0,0,0,0,0,0,0,0,0,-1,2036,918,0,0
-700,99,0,0,0,0,0,0,0,0,0,-1,524,925,0,0
-693,99,0,0,0,0,0,0,0,0,0,-1,531,925,0,0
-686,99,0,0,0,0,0,0,0,0,0,-1,538,925,0,0
-679,99,-30.7822,7.29901,0.0143188,-0.0725312,-0.0296505,0.023476,-0.0816884,-0.299544,0.063742,0.0456429,545,925,-30.7822,-7.29899
-672,99,-30.8392,6.85126,0.0130446,-0.0505371,-0.0261679,0.0224292,-0.0599217,-0.344342,0.0491604,0.0472915,552,925,-30.8392,-6.85128
-665,99,-30.5576,6.18115,0.0108342,-0.0336682,-0.0221503,0.0199797,-0.0428136,-0.391563,0.0370441,0.0491318,559,925,-30.5575,-6.18117
-658,99,-30.374,5.76929,0.00830886,-0.0208106,-0.01791,0.0168306,-0.0293324,-0.444107,0.026976,0.0453583,566,925,-30.3739,-5.76928
-651,99,-30.4021,5.24841,0.00577702,-0.0112555,-0.0136618,0.0133596,-0.0188381,-0.506687,0.0186788,0.0486169,573,925,-30.4021,-5.24844
-644,99,-30.2872,4.77679,0.00336443,-0.00454015,-0.00968465,0.0098722,-0.0110479,-0.591664,0.0120846,0.0445363,580,925,-30.2872,-4.77677
-637,99,-30.1814,4.34387,0.00133508,-0.000166755,-0.00626547,0.00689447,-0.00572615,-0.725758,0.00729692,0.0293994,587,925,-30.1814,-4.34389
-630,99,-30.3163,3.9978,-0.000260787,0.00346615,-0.00331373,0.00540444,-0.00219907,-1.04154,0.00451805,0.0147105,594,925,-30.3163,-3.9978
-623,99,-30.4589,3.59253,-0.00184381,0.00460981,-0.000991973,0.00475885,-0.00199284,-1.42167,0.00400564,0.0100832,601,925,-30.4588,-3.59254
-616,99,-30.467,3.23633,-0.00360705,0.00418864,0.000598773,0.00423436,-0.00365277,1.49458,0.00455776,0.011498,608,925,-30.467,-3.23631
-609,99,-30.4496,2.90936,-0.00522246,0.00254738,0.00148362,0.00282104,-0.00549611,1.3884,0.004884,0.0116444,615,925,-30.4497,-2.90936
-602,99,-30.4508,2.58026,-0.0060855,0.00136467,0.00131371,0.00158953,-0.00631036,1.40127,0.00482483,0.0146487,622,925,-30.4508,-2.58029
-595,99,-30.5426,2.24524,-0.00636646,0.000274445,0.00111603,0.000456983,-0.00654899,1.40867,0.00452602,0.0194403,629,925,-30.5426,-2.24524
-588,99,-30.5193,1.87024,-0.0062713,-0.000288148,0.000735535,-0.000199053,-0.00636039,1.45025,0.00417549,0.0209098,636,925,-30.5193,-1.87027
-581,99,-30.4424,1.41229,-0.00631807,-0.000401325,0.000317468,-0.00038434,-0.00633505,1.51734,0.00410126,0.015644,643,925,-30.4424,-1.41229
-574,99,-30.4494,0.976318,0,0,0,0,0,0,0,-1,650,925,-30.4494,-0.976305
-567,99,-33.0698,1.00861,0,0,0,0,0,0,0,-1,657,925,-33.0698,-1.00862
-560,99,-32.991,1.03986,-0.00618626,-0.000423857,-0.000221891,-0.000415325,-0.00619479,-1.53237,0.00399861,0.0429683,664,925,-32.991,-1.03983
-553,99,-33.0829,1.26569,-0.00595444,-0.000106063,-0.000353593,-8.47625e-05,-0.00597574,-1.51063,0.00395588,0.0393557,671,925,-33.0829,-1.2657
-546,99,-33.0087,1.16876,-0.00558058,0.000406327,-0.00046249,0.000441844,-0.00561609,-1.49415,0.0038997,0.0456835,678,925,-33.0087,-1.16877
-539,99,-32.885,1.21069,-0.00505255,0.00114621,-0.000500956,0.00118644,-0.00509277,-1.49067,0.00385205,0.0426391,685,925,-32.885,-1.21068
-532,99,-32.822,1.2688,-0.00463808,0.00212712,-0.00041482,0.00215247,-0.00466342,-1.50978,0.00402318,0.0408833,692,925,-32.8219,-1.26879
-525,99,-33.0869,1.104,-0.00517539,0.00349536,-0.000376705,0.0035117,-0.00519172,-1.52746,0.00505603,0.0408163,699,925,-33.0868,-1.10403
-518,99,-33.3448,1.05884,-0.00879182,0.00488084,-0.000226124,0.00488458,-0.00879556,-1.55426,0.0080051,0.0392633,706,925,-33.3448,-1.05883
-511,99,0,0,0,0,0,0,0,0,0,-1,713,925,0,0
-504,99,0,0,0,0,0,0,0,0,0,-1,720,925,0,0
-497,99,0,0,0,0,0,0,0,0,0,-1,727,925,0,0
-490,99,0,0,0,0,0,0,0,0,0,-1,734,925,0,0
-483,99,0,0,0,0,0,0,0,0,0,-1,741,925,0,0
-476,99,0,0,0,0,0,0,0,0,0,-1,748,925,0,0
-469,99,0,0,0,0,0,0,0,0,0,-1,755,925,0,0
-462,99,0,0,0,0,0,0,0,0,0,-1,762,925,0,0
-455,99,0,0,0,0,0,0,0,0,0,-1,769,925,0,0
-448,99,0,0,0,0,0,0,0,0,0,-1,776,925,0,0
-441,99,0,0,0,0,0,0,0,0,0,-1,783,925,0,0
-434,99,0,0,0,0,0,0,0,0,0,-1,790,925,0,0
-427,99,0,0,0,0,0,0,0,0,0,-1,797,925,0,0
-420,99,0,0,0,0,0,0,0,0,0,-1,804,925,0,0
-413,99,0,0,0,0,0,0,0,0,0,-1,811,925,0,0
-406,99,0,0,0,0,0,0,0,0,0,-1,818,925,0,0
-399,99,0,0,0,0,0,0,0,0,0,-1,825,925,0,0
-392,99,0,0,0,0,0,0,0,0,0,-1,832,925,0,0
-385,99,0,0,0,0,0,0,0,0,0,-1,839,925,0,0
-378,99,0,0,0,0,0,0,0,0,0,-1,846,925,0,0
-371,99,0,0,0,0,0,0,0,0,0,-1,853,925,0,0
-364,99,0,0,0,0,0,0,0,0,0,-1,860,925,0,0
-357,99,0,0,0,0,0,0,0,0,0,-1,867,925,0,0
-350,99,0,0,0,0,0,0,0,0,0,-1,874,925,0,0
-343,99,0,0,0,0,0,0,0,0,0,-1,881,925,0,0
-336,99,0,0,0,0,0,0,0,0,0,-1,888,925,0,0
-329,99,0,0,0,0,0,0,0,0,0,-1,895,925,0,0
-322,99,0,0,0,0,0,0,0,0,0,-1,902,925,0,0
-315,99,0,0,0,0,0,0,0,0,0,-1,909,925,0,0
-308,99,0,0,0,0,0,0,0,0,0,-1,916,925,0,0
-301,99,0,0,0,0,0,0,0,0,0,-1,923,925,0,0
-294,99,0,0,0,0,0,0,0,0,0,-1,930,925,0,0
-287,99,0,0,0,0,0,0,0,0,0,-1,937,925,0,0
-280,99,0,0,0,0,0,0,0,0,0,-1,944,925,0,0
-273,99,0,0,0,0,0,0,0,0,0,-1,951,925,0,0
-266,99,0,0,0,0,0,0,0,0,0,-1,958,925,0,0
-259,99,0,0,0,0,0,0,0,0,0,-1,965,925,0,0
-252,99,0,0,0,0,0,0,0,0,0,-1,972,925,0,0
-245,99,0,0,0,0,0,0,0,0,0,-1,979,925,0,0
-238,99,0,0,0,0,0,0,0,0,0,-1,986,925,0,0
-231,99,0,0,0,0,0,0,0,0,0,-1,993,925,0,0
-224,99,0,0,0,0,0,0,0,0,0,-1,1000,925,0,0
-217,99,0,0,0,0,0,0,0,0,0,-1,1007,925,0,0
-210,99,0,0,0,0,0,0,0,0,0,-1,1014,925,0,0
-203,99,0,0,0,0,0,0,0,0,0,-1,1021,925,0,0
-196,99,0,0,0,0,0,0,0,0,0,-1,1028,925,0,0
-189,99,0,0,0,0,0,0,0,0,0,-1,1035,925,0,0
-182,99,0,0,0,0,0,0,0,0,0,-1,1042,925,0,0
-175,99,0,0,0,0,0,0,0,0,0,-1,1049,925,0,0
-168,99,0,0,0,0,0,0,0,0,0,-1,1056,925,0,0
-161,99,0,0,0,0,0,0,0,0,0,-1,1063,925,0,0
-154,99,0,0,0,0,0,0,0,0,0,-1,1070,925,0,0
-147,99,0,0,0,0,0,0,0,0,0,-1,1077,925,0,0
-140,99,0,0,0,0,0,0,0,0,0,-1,1084,925,0,0
-133,99,0,0,0,0,0,0,0,0,0,-1,1091,925,0,0
-126,99,0,0,0,0,0,0,0,0,0,-1,1098,925,0,0
-119,99,0,0,0,0,0,0,0,0,0,-1,1105,925,0,0
-112,99,0,0,0,0,0,0,0,0,0,-1,1112,925,0,0
-105,99,0,0,0,0,0,0,0,0,0,-1,1119,925,0,0
-98,99,0,0,0,0,0,0,0,0,0,-1,1126,925,0,0
-91,99,0,0,0,0,0,0,0,0,0,-1,1133,925,0,0
-84,99,0,0,0,0,0,0,0,0,0,-1,1140,925,0,0
-77,99,0,0,0,0,0,0,0,0,0,-1,1147,925,0,0
-70,99,0,0,0,0,0,0,0,0,0,-1,1154,925,0,0
-63,99,0,0,0,0,0,0,0,0,0,-1,1161,925,0,0
-56,99,0,0,0,0,0,0,0,0,0,-1,1168,925,0,0
-49,99,0,0,0,0,0,0,0,0,0,-1,1175,925,0,0
-42,99,0,0,0,0,0,0,0,0,0,-1,1182,925,0,0
-35,99,0,0,0,0,0,0,0,0,0,-1,1189,925,0,0
-28,99,0,0,0,0,0,0,0,0,0,-1,1196,925,0,0
-21,99,0,0,0,0,0,0,0,0,0,-1,1203,925,0,0
-14,99,0,0,0,0,0,0,0,0,0,-1,1210,925,0,0
-7,99,0,0,0,0,0,0,0,0,0,-1,1217,925,0,0
0,99,0,0,0,0,0,0,0,0,0,-1,1224,925,0,0
7,99,0,0,0,0,0,0,0,0,0,-1,1231,925,0,0
14,99,0,0,0,0,0,0,0,0,0,-1,1238,925,0,0
21,99,0,0,0,0,0,0,0,0,0,-1,1245,925,0,0
28,99,0,0,0,0,0,0,0,0,0,-1,1252,925,0,0
35,99,0,0,0,0,0,0,0,0,0,-1,1259,925,0,0
42,99,0,0,0,0,0,0,0,0,0,-1,1266,925,0,0
49,99,0,0,0,0,0,0,0,0,0,-1,1273,925,0,0
56,99,0,0,0,0,0,0,0,0,0,-1,1280,925,0,0
63,99,0,0,0,0,0,0,0,0,0,-1,1287,925,0,0
70,99,0,0,0,0,0,0,0,0,0,-1,1294,925,0,0
77,99,0,0,0,0,0,0,0,0,0,-1,1301,925,0,0
84,99,0,0,0,0,0,0,0,0,0,-1,1308,925,0,0
91,99,0,0,0,0,0,0,0,0,0,-1,1315,925,0,0
98,99,0,0,0,0,0,0,0,0,0,-1,1322,925,0,0
105,99,0,0,0,0,0,0,0,0,0,-1,1329,925,0,0
112,99,0,0,0,0,0,0,0,0,0,-1,1336,925,0,0
119,99,0,0,0,0,0,0,0,0,0,-1,1343,925,0,0
126,99,0,0,0,0,0,0,0,0,0,-1,1350,925,0,0
133,99,0,0,0,0,0,0,0,0,0,-1,1357,925,0,0
140,99,0,0,0,0,0,0,0,0,0,-1,1364,925,0,0
147,99,0,0,0,0,0,0,0,0,0,-1,1371,925,0,0
154,99,0,0,0,0,0,0,0,0,0,-1,1378,925,0,0
161,99,0,0,0,0,0,0,0,0,0,-1,1385,925,0,0
168,99,0,0,0,0,0,0,0,0,0,-1,1392,925,0,0
175,99,0,0,0,0,0,0,0,0,0,-1,1399,925,0,0
182,99,0,0,0,0,0,0,0,0,0,-1,1406,925,0,0
189,99,0,0,0,0,0,0,0,0,0,-1,1413,925,0,0
196,99,0,0,0,0,0,0,0,0,0,-1,1420,925,0,0
203,99,0,0,0,0,0,0,0,0,0,-1,1427,925,0,0
210,99,0,0,0,0,0,0,0,0,0,-1,1434,925,0,0
217,99,0,0,0,0,0,0,0,0,0,-1,1441,925,0,0
224,99,0,0,0,0,0,0,0,0,0,-1,1448,925,0,0
231,99,0,0,0,0,0,0,0,0,0,-1,1455,925,0,0
238,99,0,0,0,0,0,0,0,0,0,-1,1462,925,0,0
245,99,0,0,0,0,0,0,0,0,0,-1,1469,925,0,0
252,99,0,0,0,0,0,0,0,0,0,-1,1476,925,0,0
259,99,0,0,0,0,0,0,0,0,0,-1,1483,925,0,0
266,99,0,0,0,0,0,0,0,0,0,-1,1490,925,0,0
273,99,0,0,0,0,0,0,0,0,0,-1,1497,925,0,0
280,99,0,0,0,0,0,0,0,0,0,-1,1504,925,0,0
287,99,0,0,0,0,0,0,0,0,0,-1,1511,925,0,0
294,99,0,0,0,0,0,0,0,0,0,-1,1518,925,0,0
301,99,0,0,0,0,0,0,0,0,0,-1,1525,925,0,0
308,99,0,0,0,0,0,0,0,0,0,-1,1532,925,0,0
315,99,0,0,0,0,0,0,0,0,0,-1,1539,925,0,0
322,99,0,0,0,0,0,0,0,0,0,-1,1546,925,0,0
329,99,0,0,0,0,0,0,0,0,0,-1,1553,925,0,0
336,99,0,0,0,0,0,0,0,0,0,-1,1560,925,0,0
343,99,0,0,0,0,0,0,0,0,0,-1,1567,925,0,0
350,99,0,0,0,0,0,0,0,0,0,-1,1574,925,0,0
357,99,0,0,0,0,0,0,0,0,0,-1,1581,925,0,0
364,99,0,0,0,0,0,0,0,0,0,-1,1588,925,0,0
371,99,0,0,0,0,0,0,0,0,0,-1,1595,925,0,0
378,99,0,0,0,0,0,0,0,0,0,-1,1602,925,0,0
385,99,0,0,0,0,0,0,0,0,0,-1,1609,925,0,0
392,99,0,0,0,0,0,0,0,0,0,-1,1616,925,0,0
399,99,0,0,0,0,0,0,0,0,0,-1,1623,925,0,0
406,99,0,0,0,0,0,0,0,0,0,-1,1630,925,0,0
413,99,0,0,0,0,0,0,0,0,0,-1,1637,925,0,0
420,99,0,0,0,0,0,0,0,0,0,-1,1644,925,0,0
427,99,0,0,0,0,0,0,0,0,0,-1,1651,925,0,0
434,99,0,0,0,0,0,0,0,0,0,-1,1658,925,0,0
441,99,0,0,0,0,0,0,0,0,0,-1,1665,925,0,0
448,99,0,0,0,0,0,0,0,0,0,-1,1672,925,0,0
455,99,0,0,0,0,0,0,0,0,0,-1,1679,925,0,0
462,99,0,0,0,0,0,0,0,0,0,-1,1686,925,0,0
469,99,0,0,0,0,0,0,0,0,0,-1,1693,925,0,0
476,99,0,0,0,0,0,0,0,0,0,-1,1700,925,0,0
483,99,0,0,0,0,0,0,0,0,0,-1,1707,925,0,0
490,99,0,0,0,0,0,0,0,0,0,-1,1714,925,0,0
497,99,0,0,0,0,0,0,0,0,0,-1,1721,925,0,0
504,99,0,0,0,0,0,0,0,0,0,-1,1728,925,0,0
511,99,0,0,0,0,0,0,0,0,0,-1,1735,925,0,0
518,99,0,0,0,0,0,0,0,0,0,-1,1742,925,0,0
525,99,0,0,0,0,0,0,0,0,0,-1,1749,925,0,0
532,99,0,0,0,0,0,0,0,0,0,-1,1756,925,0,0
539,99,0,0,0,0,0,0,0,0,0,-1,1763,925,0,0
546,99,0,0,0,0,0,0,0,0,0,-1,1770,925,0,0
553,99,0,0,0,0,0,0,0,0,0,-1,1777,925,0,0
560,99,0,0,0,0,0,0,0,0,0,-1,1784,925,0,0
567,99,0,0,0,0,0,0,0,0,0,-1,1791,925,0,0
574,99,0,0,0,0,0,0,0,0,0,-1,1798,925,0,0
581,99,0,0,0,0,0,0,0,0,0,-1,1805,925,0,0
588,99,0,0,0,0,0,0,0,0,0,-1,1812,925,0,0
595,99,0,0,0,0,0,0,0,0,0,-1,1819,925,0,0
602,99,0,0,0,0,0,0,0,0,0,-1,1826,925,0,0
609,99,0,0,0,0,0,0,0,0,0,-1,1833,925,0,0
616,99,0,0,0,0,0,0,0,0,0,-1,1840,925,0,0
623,99,0,0,0,0,0,0,0,0,0,-1,1847,925,0,0
630,99,0,0,0,0,0,0,0,0,0,-1,1854,925,0,0
637,99,44.7754,2.83984,0.00174299,-0.000264253,-0.00053241,0.00187546,-0.000396729,-0.243871,0.0014014,0.0427175,1861,925,44.7754,-2.83986
644,99,44.8198,2.77985,0.000889138,0.000303855,-0.000607675,0.00127097,-7.79716e-05,-0.560998,0.00087446,0.0374695,1868,925,44.8198,-2.77985
651,99,44.8081,2.78821,0.000319108,0.000555119,-0.00053616,0.000986106,-0.000111879,-0.893718,0.000697693,0.0382256,1875,925,44.8081,-2.78819
658,99,44.8082,2.69781,-2.04265e-05,0.000763162,-0.000380285,0.000917371,-0.000174635,-1.18555,0.000677339,0.0401224,1882,925,44.8082,-2.69779
665,99,44.7283,2.65088,-2.67854e-05,0.000923214,-0.000153532,0.000947411,-5.09819e-05,-1.41448,0.000649269,0.0397587,1889,925,44.7283,-2.65086
672,99,44.61,2.71844,-4.98121e-05,0.000802337,0.000151362,0.000828424,-7.5899e-05,1.40013,0.000579242,0.0386148,1896,925,44.61,-2.71845
679,99,44.5586,2.70203,7.01622e-06,0.000534886,0.000407348,0.000756331,-0.000214429,1.07286,0.000588858,0.0368445,1903,925,44.5586,-2.70205
686,99,44.5856,2.6366,2.76751e-05,0.000403701,0.000457376,0.000710199,-0.000278823,0.980404,0.000588839,0.03263,1910,925,44.5856,-2.63657
693,99,44.6249,2.6795,-4.15873e-05,0.00034528,0.000466408,0.000656775,-0.000353082,0.981969,0.000591764,0.0343898,1917,925,44.6249,-2.67949
700,99,44.7449,2.60742,0,0,0,0,0,0,0,-1,1924,925,44.7449,-2.6074
707,99,40.7483,3.29565,0,0,0,0,0,0,0,-1,1931,925,40.7483,-3.29567
714,99,41.0897,3.78735,0,0,0,0,0,0,0,-1,1938,925,41.0897,-3.78733
721,99,41.0511,4.29681,-0.000268536,0.000767072,-8.4562e-05,0.000773931,-0.000275396,-1.48986,0.000628207,0.0290528,1945,925,41.0511,-4.29681
728,99,41.0931,4.76086,-0.000473553,0.00110472,-0.000231528,0.00113798,-0.000506817,-1.4281,0.000972652,0.022855,1952,925,41.0932,-4.76085
735,99,41.0688,5.16895,-0.00019562,0.00162036,-0.000376524,0.00169534,-0.000270593,-1.37425,0.00123038,0.0180215,1959,925,41.0688,-5.16897
742,99,41.0291,5.53033,0.000873749,0.00176137,-0.00118948,0.00258713,4.79851e-05,-0.963956,0.00170899,0.0133071,1966,925,41.0291,-5.53034
749,99,40.9788,5.91431,0.00325754,0.00137746,-0.00254812,0.00503349,-0.000398494,-0.608685,0.00349607,0.012101,1973,925,40.9788,-5.91431
756,99,40.9342,6.28375,0.00782908,-0.00042522,-0.00475969,0.0100018,-0.00259792,-0.428228,0.00768168,0.0132134,1980,925,40.9343,-6.28375
763,99,40.8751,6.67023,0.0141017,-0.00321424,-0.00738028,0.0168204,-0.00593295,-0.35295,0.0136288,0.0157007,1987,925,40.8751,-6.67024
770,99,40.7719,7.13763,0.0227816,-0.0079309,-0.0110702,0.0263558,-0.0115051,-0.312305,0.0224126,0.0289473,1994,925,40.7718,-7.13764
777,99,40.3236,7.59814,0.0350942,-0.0159201,-0.0165257,0.0399797,-0.0208056,-0.287444,0.0356716,0.0408887,2001,925,40.3236,-7.59813
784,99,39.8638,8.0061,0,0,0,0,0,0,0,-1,2008,925,39.8638,-8.00609
791,99,39.0459,8.31476,0,0,0,0,0,0,0,-1,2015,925,39.0458,-8.31474
798,99,38.2642,8.64825,0,0,0,0,0,0,0,-1,2022,925,38.2642,-8.64826
805,99,0,0,0,0,0,0,0,0,0,-1,2029,925,0,0
812,99,0,0,0,0,0,0,0,0,0,-1,2036,925,0,0
-700,92,0,0,0,0,0,0,0,0,0,-1,524,932,0,0
-693,92,0,0,0,0,0,0,0,0,0,-1,531,932,0,0
-686,92,-30.9968,8.99359,0.0258518,-0.0882053,-0.0346852,0.0355714,-0.0979249,-0.273216,0.0798274,0.0454707,538,932,-30.9968,-8.99357
-679,92,-30.9152,8.29114,0.0224031,-0.0616271,-0.0322054,0.0333263,-0.0725502,-0.326995,0.0625104,0.0441211,545,932,-30.9152,-8.29114
-672,92,-31.0592,7.61121,0.0183417,-0.0419924,-0.0280476,0.0293659,-0.0530166,-0.374503,0.0482125,0.0429103,552,932,-31.0592,-7.61123
-665,92,-30.6332,6.41046,0,0,0,0,0,0,0,-1,559,932,-30.6333,-6.41048
-658,92,-30.4582,5.73199,0,0,0,0,0,0,0,-1,566,932,-30.4582,-5.73199
-651,92,-30.5891,5.15436,0.00689198,-0.00772913,-0.0141282,0.0154889,-0.0163261,-0.546645,0.0183705,0.0468461,573,932,-30.5891,-5.15436
-644,92,-30.66,4.64972,0.00395516,-0.00206708,-0.00994493,0.0113348,-0.00944675,-0.638396,0.0120147,0.0416277,580,932,-30.66,-4.64971
-637,92,-30.6666,4.2644,0.00148273,0.00165364,-0.0065183,0.00808705,-0.00495067,-0.791953,0.00759959,0.0239421,587,932,-30.6666,-4.26443
-630,92,-30.7266,3.88776,-0.000559802,0.0048034,-0.00360581,0.00661545,-0.00237185,-1.10512,0.00537817,0.0124205,594,932,-30.7266,-3.88774
-623,92,-30.8131,3.56787,-0.00247344,0.00536264,-0.00125866,0.00555985,-0.00267064,-1.41538,0.00484849,0.00918401,601,932,-30.8131,-3.56788
-616,92,-30.8256,3.24255,-0.0043337,0.00457406,0.000310317,0.00458486,-0.0043445,1.53602,0.00515599,0.00876778,608,932,-30.8256,-3.24255
-609,92,-30.8414,2.91254,-0.00600364,0.00272476,0.00117566,0.00288034,-0.00615923,1.43923,0.00533221,0.00928334,615,932,-30.8414,-2.91255
-602,92,-30.8334,2.57385,-0.00688286,0.00145284,0.000933455,0.0015561,-0.00698611,1.46063,0.0052535,0.0104812,622,932,-30.8334,-2.57384
-595,92,-30.7688,2.1925,-0.00723562,0.00028481,0.000700741,0.000349546,-0.00730036,1.47867,0.0049875,0.0204922,629,932,-30.7688,-2.19253
-588,92,-30.8015,1.86639,-0.00727053,-0.000335618,0.000264132,-0.000325572,-0.00728057,1.53278,0.00474891,0.0234637,636,932,-30.8015,-1.86637
-581,92,-30.9849,1.48212,-0.00737299,-0.00042671,-0.000184635,-0.000421806,-0.0073779,-1.54424,0.0047842,0.0223255,643,932,-30.9849,-1.48211
-574,92,-31.5915,1.10028,-0.00750081,-0.000477315,-0.000484687,-0.000444025,-0.0075341,-1.50222,0.00488146,0.0426815,650,932,-31.5915,-1.10028
-567,92,-32.494,0.726807,0,0,0,0,0,0,0,-1,657,932,-32.494,-0.726801
-560,92,-32.9856,0.955139,-0.0072301,-0.000304075,-0.000827464,-0.000206589,-0.00732759,-1.45352,0.00481767,0.0396294,664,932,-32.9856,-0.955111
-553,92,-33.0021,1.25568,-0.00683187,0.000117036,-0.000972337,0.000250528,-0.00696536,-1.43436,0.00472929,0.0393822,671,932,-33.0021,-1.2557
-546,92,-32.9967,1.34497,-0.006201,0.000761157,-0.00107286,0.000922734,-0.00636257,-1.42132,0.00458038,0.0433899,678,932,-32.9967,-1.34497
-539,92,-32.9473,1.2738,-0.0053738,0.00164507,-0.00109044,0.00181057,-0.00553931,-1.42017,0.00442174,0.0410357,685,932,-32.9473,-1.27381
-532,92,-32.9626,1.15283,-0.00461801,0.00275953,-0.00100834,0.00289486,-0.00475335,-1.43738,0.00445894,0.0426046,692,932,-32.9626,-1.15281
-525,92,-33.0953,1.1087,-0.00512576,0.00430584,-0.00107859,0.00442761,-0.00524754,-1.45837,0.00559263,0.0411473,699,932,-33.0954,-1.10869
-518,92,-33.3094,1.14362,-0.00956055,0.00583445,-0.00104251,0.00590472,-0.00963082,-1.50349,0.00905504,0.0386308,706,932,-33.3095,-1.14363
-511,92,0,0,0,0,0,0,0,0,0,-1,713,932,0,0
-504,92,0,0,0,0,0,0,0,0,0,-1,720,932,0,0
-497,92,0,0,0,0,0,0,0,0,0,-1,727,932,0,0
-490,92,0,0,0,0,0,0,0,0,0,-1,734,932,0,0
-483,92,0,0,0,0,0,0,0,0,0,-1,741,932,0,0
-476,92,0,0,0,0,0,0,0,0,0,-1,748,932,0,0
-469,92,0,0,0,0,0,0,0,0,0,-1,755,932,0,0
-462,92,0,0,0,0,0,0,0,0,0,-1,762,932,0,0
-455,92,0,0,0,0,0,0,0,0,0,-1,769,932,0,0
-448,92,0,0,0,0,0,0,0,0,0,-1,776,932,0,0
-441,92,0,0,0,0,0,0,0,0,0,-1,783,932,0,0
-434,92,0,0,0,0,0,0,0,0,0,-1,790,932,0,0
-427,92,0,0,0,0,0,0,0,0,0,-1,797,932,0,0
-420,92,0,0,0,0,0,0,0,0,0,-1,804,932,0,0
-413,92,0,0,0,0,0,0,0,0,0,-1,811,932,0,0
-406,92,0,0,0,0,0,0,0,0,0,-1,818,932,0,0
-399,92,0,0,0,0,0,0,0,0,0,-1,825,932,0,0
-392,92,0,0,0,0,0,0,0,0,0,-1,832,932,0,0
-385,92,0,0,0,0,0,0,0,0,0,-1,839,932,0,0
-378,92,0,0,0,0,0,0,0,0,0,-1,846,932,0,0
-371,92,0,0,0,0,0,0,0,0,0,-1,853,932,0,0
-364,92,0,0,0,0,0,0,0,0,0,-1,860,932,0,0
-357,92,0,0,0,0,0,0,0,0,0,-1,867,932,0,0
-350,92,0,0,0,0,0,0,0,0,0,-1,874,932,0,0
-343,92,0,0,0,0,0,0,0,0,0,-1,881,932,0,0
-336,92,0,0,0,0,0,0,0,0,0,-1,888,932,0,0
-329,92,0,0,0,0,0,0,0,0,0,-1,895,932,0,0
-322,92,0,0,0,0,0,0,0,0,0,-1,902,932,0,0
-315,92,0,0,0,0,0,0,0,0,0,-1,909,932,0,0
-308,92,0,0,0,0,0,0,0,0,0,-1,916,932,0,0
-301,92,0,0,0,0,0,0,0,0,0,-1,923,932,0,0
-294,92,0,0,0,0,0,0,0,0,0,-1,930,932,0,0
-287,92,0,0,0,0,0,0,0,0,0,-1,937,932,0,0
-280,92,0,0,0,0,0,0,0,0,0,-1,944,932,0,0
-273,92,0,0,0,0,0,0,0,0,0,-1,951,932,0,0
-266,92,0,0,0,0,0,0,0,0,0,-1,958,932,0,0
-259,92,0,0,0,0,0,0,0,0,0,-1,965,932,0,0
-252,92,0,0,0,0,0,0,0,0,0,-1,972,932,0,0
-245,92,0,0,0,0,0,0,0,0,0,-1,979,932,0,0
-238,92,0,0,0,0,0,0,0,0,0,-1,986,932,0,0
-231,92,0,0,0,0,0,0,0,0,0,-1,993,932,0,0
-224,92,0,0,0,0,0,0,0,0,0,-1,1000,932,0,0
-217,92,0,0,0,0,0,0,0,0,0,-1,1007,932,0,0
-210,92,0,0,0,0,0,0,0,0,0,-1,1014,932,0,0
-203,92,0,0,0,0,0,0,0,0,0,-1,1021,932,0,0
-196,92,0,0,0,0,0,0,0,0,0,-1,1028,932,0,0
-189,92,0,0,0,0,0,0,0,0,0,-1,1035,932,0,0
-182,92,0,0,0,0,0,0,0,0,0,-1,1042,932,0,0
-175,92,0,0,0,0,0,0,0,0,0,-1,1049,932,0,0
-168,92,0,0,0,0,0,0,0,0,0,-1,1056,932,0,0
-161,92,0,0,0,0,0,0,0,0,0,-1,1063,932,0,0
-154,92,0,0,0,0,0,0,0,0,0,-1,1070,932,0,0
-147,92,0,0,0,0,0,0,0,0,0,-1,1077,932,0,0
-140,92,0,0,0,0,0,0,0,0,0,-1,1084,932,0,0
-133,92,0,0,0,0,0,0,0,0,0,-1,1091,932,0,0
-126,92,0,0,0,0,0,0,0,0,0,-1,1098,932,0,0
-119,92,0,0,0,0,0,0,0,0,0,-1,1105,932,0,0
-112,92,0,0,0,0,0,0,0,0,0,-1,1112,932,0,0
-105,92,0,0,0,0,0,0,0,0,0,-1,1119,932,0,0
-98,92,0,0,0,0,0,0,0,0,0,-1,1126,932,0,0
-91,92,0,0,0,0,0,0,0,0,0,-1,1133,932,0,0
-84,92,0,0,0,0,0,0,0,0,0,-1,1140,932,0,0
-77,92,0,0,0,0,0,0,0,0,0,-1,1147,932,0,0
-70,92,0,0,0,0,0,0,0,0,0,-1,1154,932,0,0
-63,92,0,0,0,0,0,0,0,0,0,-1,1161,932,0,0
-56,92,0,0,0,0,0,0,0,0,0,-1,1168,932,0,0
-49,92,0,0,0,0,0,0,0,0,0,-1,1175,932,0,0
-42,92,0,0,0,0,0,0,0,0,0,-1,1182,932,0,0
-35,92,0,0,0,0,0,0,0,0,0,-1,1189,932,0,0
-28,92,0,0,0,0,0,0,0,0,0,-1,1196,932,0,0
-21,92,0,0,0,0,0,0,0,0,0,-1,1203,932,0,0
-14,92,0,0,0,0,0,0,0,0,0,-1,1210,932,0,0
-7,92,0,0,0,0,0,0,0,0,0,-1,1217,932,0,0
0,92,0,0,0,0,0,0,0,0,0,-1,1224,932,0,0
7,92,0,0,0,0,0,0,0,0,0,-1,1231,932,0,0
14,92,0,0,0,0,0,0,0,0,0,-1,1238,932,0,0
21,92,0,0,0,0,0,0,0,0,0,-1,1245,932,0,0
28,92,0,0,0,0,0,0,0,0,0,-1,1252,932,0,0
35,92,0,0,0,0,0,0,0,0,0,-1,1259,932,0,0
42,92,0,0,0,0,0,0,0,0,0,-1,1266,932,0,0
49,92,0,0,0,0,0,0,0,0,0,-1,1273,932,0,0
56,92,0,0,0,0,0,0,0,0,0,-1,1280,932,0,0
63,92,0,0,0,0,0,0,0,0,0,-1,1287,932,0,0
70,92,0,0,0,0,0,0,0,0,0,-1,1294,932,0,0
77,92,0,0,0,0,0,0,0,0,0,-1,1301,932,0,0
84,92,0,0,0,0,0,0,0,0,0,-1,1308,932,0,0
91,92,0,0,0,0,0,0,0,0,0,-1,1315,932,0,0
98,92,0,0,0,0,0,0,0,0,0,-1,1322,932,0,0
105,92,0,0,0,0,0,0,0,0,0,-1,1329,932,0,0
112,92,0,0,0,0,0,0,0,0,0,-1,1336,932,0,0
119,92,0,0,0,0,0,0,0,0,0,-1,1343,932,0,0
126,92,0,0,0,0,0,0,0,0,0,-1,1350,932,0,0
133,92,0,0,0,0,0,0,0,0,0,-1,1357,932,0,0
140,92,0,0,0,0,0,0,0,0,0,-1,1364,932,0,0
147,92,0,0,0,0,0,0,0,0,0,-1,1371,932,0,0
154,92,0,0,0,0,0,0,0,0,0,-1,1378,932,0,0
161,92,0,0,0,0,0,0,0,0,0,-1,1385,932,0,0
168,92,0,0,0,0,0,0,0,0,0,-1,1392,932,0,0
175,92,0,0,0,0,0,0,0,0,0,-1,1399,932,0,0
182,92,0,0,0,0,0,0,0,0,0,-1,1406,932,0,0
189,92,0,0,0,0,0,0,0,0,0,-1,1413,932,0,0
196,92,0,0,0,0,0,0,0,0,0,-1,1420,932,0,0
203,92,0,0,0,0,0,0,0,0,0,-1,1427,932,0,0
210,92,0,0,0,0,0,0,0,0,0,-1,1434,932,0,0
217,92,0,0,0,0,0,0,0,0,0,-1,1441,932,0,0
224,92,0,0,0,0,0,0,0,0,0,-1,1448,932,0,0
231,92,0,0,0,0,0,0,0,0,0,-1,1455,932,0,0
238,92,0,0,0,0,0,0,0,0,0,-1,1462,932,0,0
245,92,0,0,0,0,0,0,0,0,0,-1,1469,932,0,0
252,92,0,0,0,0,0,0,0,0,0,-1,1476,932,0,0
259,92,0,0,0,0,0,0,0,0,0,-1,1483,932,0,0
266,92,0,0,0,0,0,0,0,0,0,-1,1490,932,0,0
273,92,0,0,0,0,0,0,0,0,0,-1,1497,932,0,0
280,92,0,0,0,0,0,0,0,0,0,-1,1504,932,0,0
287,92,0,0,0,0,0,0,0,0,0,-1,1511,932,0,0
294,92,0,0,0,0,0,0,0,0,0,-1,1518,932,0,0
301,92,0,0,0,0,0,0,0,0,0,-1,1525,932,0,0
308,92,0,0,0,0,0,0,0,0,0,-1,1532,932,0,0
315,92,0,0,0,0,0,0,0,0,0,-1,1539,932,0,0
322,92,0,0,0,0,0,0,0,0,0,-1,1546,932,0,0
329,92,0,0,0,0,0,0,0,0,0,-1,1553,932,0,0
336,92,0,0,0,0,0,0,0,0,0,-1,1560,932,0,0
343,92,0,0,0,0,0,0,0,0,0,-1,1567,932,0,0
350,92,0,0,0,0,0,0,0,0,0,-1,1574,932,0,0
357,92,0,0,0,0,0,0,0,0,0,-1,1581,932,0,0
364,92,0,0,0,0,0,0,0,0,0,-1,1588,932,0,0
371,92,0,0,0,0,0,0,0,0,0,-1,1595,932,0,0
378,92,0,0,0,0,0,0,0,0,0,-1,1602,932,0,0
385,92,0,0,0,0,0,0,0,0,0,-1,1609,932,0,0
392,92,0,0,0,0,0,0,0,0,0,-1,1616,932,0,0
399,92,0,0,0,0,0,0,0,0,0,-1,1623,932,0,0
406,92,0,0,0,0,0,0,0,0,0,-1,1630,932,0,0
413,92,0,0,0,0,0,0,0,0,0,-1,1637,932,0,0
420,92,0,0,0,0,0,0,0,0,0,-1,1644,932,0,0
427,92,0,0,0,0,0,0,0,0,0,-1,1651,932,0,0
434,92,0,0,0,0,0,0,0,0,0,-1,1658,932,0,0
441,92,0,0,0,0,0,0,0,0,0,-1,1665,932,0,0
448,92,0,0,0,0,0,0,0,0,0,-1,1672,932,0,0
455,92,0,0,0,0,0,0,0,0,0,-1,1679,932,0,0
462,92,0,0,0,0,0,0,0,0,0,-1,1686,932,0,0
469,92,0,0,0,0,0,0,0,0,0,-1,1693,932,0,0
476,92,0,0,0,0,0,0,0,0,0,-1,1700,932,0,0
483,92,0,0,0,0,0,0,0,0,0,-1,1707,932,0,0
490,92,0,0,0,0,0,0,0,0,0,-1,1714,932,0,0
497,92,0,0,0,0,0,0,0,0,0,-1,1721,932,0,0
504,92,0,0,0,0,0,0,0,0,0,-1,1728,932,0,0
511,92,0,0,0,0,0,0,0,0,0,-1,1735,932,0,0
518,92,0,0,0,0,0,0,0,0,0,-1,1742,932,0,0
525,92,0,0,0,0,0,0,0,0,0,-1,1749,932,0,0
532,92,0,0,0,0,0,0,0,0,0,-1,1756,932,0,0
539,92,0,0,0,0,0,0,0,0,0,-1,1763,932,0,0
546,92,0,0,0,0,0,0,0,0,0,-1,1770,932,0,0
553,92,0,0,0,0,0,0,0,0,0,-1,1777,932,0,0
560,92,0,0,0,0,0,0,0,0,0,-1,1784,932,0,0
567,92,0,0,0,0,0,0,0,0,0,-1,1791,932,0,0
574,92,0,0,0,0,0,0,0,0,0,-1,1798,932,0,0
581,92,0,0,0,0,0,0,0,0,0,-1,1805,932,0,0
588,92,0,0,0,0,0,0,0,0,0,-1,1812,932,0,0
595,92,0,0,0,0,0,0,0,0,0,-1,1819,932,0,0
602,92,0,0,0,0,0,0,0,0,0,-1,1826,932,0,0
609,92,0,0,0,0,0,0,0,0,0,-1,1833,932,0,0
616,92,0,0,0,0,0,0,0,0,0,-1,1840,932,0,0
623,92,0,0,0,0,0,0,0,0,0,-1,1847,932,0,0
630,92,0,0,0,0,0,0,0,0,0,-1,1854,932,0,0
637,92,44.7661,2.72284,0.00203905,-0.000740829,-0.00118738,0.00247717,-0.00117895,-0.353482,0.00215476,0.046551,1861,932,44.7661,-2.72281
644,92,44.7858,2.5589,0.00112261,9.88267e-06,-0.00114003,0.0018348,-0.000702302,-0.558387,0.00151266,0.0409889,1868,932,44.7857,-2.5589
651,92,44.8137,2.29785,0.000511232,0.00035668,-0.000921406,0.0013586,-0.000490685,-0.743562,0.00110619,0.0406276,1875,932,44.8137,-2.29785
658,92,44.7147,2.52002,6.81424e-05,0.000629921,-0.000644762,0.00105232,-0.000354258,-0.990826,0.000844768,0.0422498,1882,932,44.7147,-2.52001
665,92,44.6445,2.7915,-7.34586e-05,0.00084259,-0.000321295,0.000944045,-0.000174914,-1.26494,0.000695043,0.0404389,1889,932,44.6445,-2.79152
672,92,44.5291,2.82336,-0.000252131,0.000744671,5.66686e-05,0.000747883,-0.000255343,1.51419,0.000602032,0.0385436,1896,932,44.5291,-2.82336
679,92,44.6145,2.73407,-0.000336133,0.000490995,0.00036517,0.000629141,-0.000474279,1.20913,0.000639148,0.0354028,1903,932,44.6145,-2.73409
686,92,44.6442,2.68524,-0.000347094,0.000323921,0.000434632,0.000537476,-0.00056065,1.11409,0.00063405,0.0294584,1910,932,44.6442,-2.68522
693,92,44.6418,2.82874,-0.000405233,0.000230318,0.000450635,0.000463952,-0.000638868,1.09249,0.000639377,0.0274693,1917,932,44.6419,-2.82876
700,92,44.6201,2.83026,0,0,0,0,0,0,0,-1,1924,932,44.6201,-2.83023
707,92,32.9893,3.26874,0,0,0,0,0,0,0,-1,1931,932,32.9893,-3.26874
714,92,41.6512,3.92163,0,0,0,0,0,0,0,-1,1938,932,41.6513,-3.9216
721,92,41.5485,4.42596,-0.000928445,0.000697218,-0.000103173,0.00070374,-0.000934967,-1.50767,0.000949242,0.0309799,1945,932,41.5484,-4.42595
728,92,41.4362,4.8468,-0.00128674,0.00107714,-0.000229772,0.00109926,-0.00130887,-1.47479,0.00139209,0.0229508,1952,932,41.4362,-4.84683
735,92,41.4343,5.1756,-0.00123252,0.00164852,-0.000330754,0.00168601,-0.00127001,-1.45795,0.00171228,0.0178389,1959,932,41.4343,-5.17558
742,92,41.4738,5.48621,-0.000406222,0.00174834,-0.00112587,0.0022293,-0.00088718,-1.16707,0.00185408,0.0192393,1966,932,41.4738,-5.4862
749,92,41.4115,5.87921,0.00147327,0.00129585,-0.00246763,0.00385378,-0.00108467,-0.767431,0.0029969,0.0173543,1973,932,41.4115,-5.87923
756,92,41.3367,6.25201,0.005395,-0.000704726,-0.00473503,0.00797737,-0.00328711,-0.499288,0.00668883,0.0151183,1980,932,41.3367,-6.25204
763,92,41.3066,6.62579,0.0108451,-0.00382416,-0.00746518,0.0139759,-0.00695499,-0.39711,0.012309,0.0165985,1987,932,41.3067,-6.62582
770,92,41.2386,7.09637,0.0184397,-0.0089844,-0.0112957,0.0224931,-0.0130379,-0.344537,0.0207545,0.0255074,1994,932,41.2386,-7.09638
777,92,41.1011,7.76086,0.0291122,-0.0175149,-0.0169063,0.034597,-0.0229997,-0.31371,0.0334775,0.0443795,2001,932,41.1011,-7.76087
784,92,41.0759,8.46375,0,0,0,0,0,0,0,-1,2008,932,41.076,-8.46374
791,92,39.9399,8.24207,0,0,0,0,0,0,0,-1,2015,932,39.94,-8.24205
798,92,39.1699,8.55151,0,0,0,0,0,0,0,-1,2022,932,39.1699,-8.55153
805,92,0,0,0,0,0,0,0,0,0,-1,2029,932,0,0
812,92,0,0,0,0,0,0,0,0,0,-1,2036,932,0,0
-700,85,0,0,0,0,0,0,0,0,0,-1,524,939,0,0
-693,85,0,0,0,0,0,0,0,0,0,-1,531,939,0,0
-686,85,-31.243,9.89539,0.03757,-0.0797145,-0.0347722,0.0471041,-0.0892486,-0.267612,0.0799669,0.0461912,538,939,-31.243,-9.89539
-679,85,-31.4039,8.67798,0.0303567,-0.0540941,-0.0327092,0.0415436,-0.065281,-0.329541,0.0621807,0.0431454,545,939,-31.4039,-8.67801
-672,85,-31.4085,8.16339,0.0234378,-0.0353828,-0.0286912,0.0351145,-0.0470596,-0.386511,0.04761,0.042463,552,939,-31.4085,-8.16342
-665,85,-31.6055,7.82983,0.0172437,-0.0214819,-0.0239951,0.028714,-0.0329522,-0.445917,0.035631,0.0428126,559,939,-31.6055,-7.82982
-658,85,-30.2599,4.70551,0,0,0,0,0,0,0,-1,566,939,-30.26,-4.7055
-651,85,-30.533,4.52698,0.00760386,-0.00396551,-0.014438,0.0173729,-0.0137346,-0.594862,0.0180008,0.0425734,573,939,-30.533,-4.52695
-644,85,-30.9427,4.35181,0.00417833,0.000805546,-0.0101443,0.0127755,-0.0077916,-0.703031,0.0119901,0.033658,580,939,-30.9427,-4.35182
-637,85,-31.0188,4.14667,0.00137605,0.00387429,-0.00674235,0.00948225,-0.00423192,-0.876992,0.00810899,0.0184827,587,939,-31.0188,-4.14669
-630,85,-31.114,3.81451,-0.000961634,0.00644481,-0.00392618,0.00813869,-0.00265552,-1.16349,0.00649453,0.0114898,594,939,-31.114,-3.81449
-623,85,-31.1827,3.50983,-0.00304859,0.00635615,-0.00163007,0.00663066,-0.00332311,-1.40395,0.00585162,0.00966062,601,939,-31.1827,-3.50983
-616,85,-31.1885,3.22064,-0.00489571,0.00514198,-0.000145386,0.00514409,-0.00489782,-1.55632,0.00579828,0.0095475,608,939,-31.1885,-3.22065
-609,85,-31.2093,2.90302,-0.00650773,0.00306881,0.000670695,0.00311555,-0.00655447,1.50121,0.00569946,0.0114206,615,939,-31.2093,-2.90299
-602,85,-31.2318,2.59546,-0.0073425,0.0016913,0.0003657,0.00170608,-0.00735728,1.5304,0.00556147,0.0160074,622,939,-31.2318,-2.59546
-595,85,-31.1606,2.26288,-0.00772792,0.000455048,9.51128e-05,0.000456153,-0.00772903,1.55918,0.00531127,0.0199309,629,939,-31.1606,-2.26289
-588,85,-31.1626,1.91003,-0.00782463,-0.000228061,-0.000378543,-0.000209245,-0.00784345,-1.52113,0.00516063,0.0189614,636,939,-31.1626,-1.91006
-581,85,-31.3152,1.59021,-0.00795577,-0.000333919,-0.000838109,-0.000242847,-0.00804684,-1.46256,0.00528547,0.0253073,643,939,-31.3152,-1.59023
-574,85,-31.9312,1.28979,-0.00806141,-0.00039404,-0.00113034,-0.000230873,-0.00822457,-1.42744,0.00540774,0.0419831,650,939,-31.9312,-1.28982
-567,85,-32.7893,0.993774,0,0,0,0,0,0,0,-1,657,939,-32.7893,-0.993787
-560,85,-33.029,1.01831,-0.00769333,-9.12572e-05,-0.001492,0.000191081,-0.00797566,-1.38377,0.00538193,0.0370554,664,939,-33.029,-1.01832
-553,85,-33.0099,1.09265,-0.00707641,0.000377908,-0.00160956,0.000710601,-0.0074091,-1.36697,0.0051925,0.0400456,671,939,-33.0099,-1.09267
-546,85,-32.9729,1.23083,-0.00614421,0.00107873,-0.0016622,0.00144289,-0.00650837,-1.35512,0.00489134,0.0403316,678,939,-32.9729,-1.23083
-539,85,-33.0034,1.23676,-0.00498387,0.0019908,-0.00162948,0.00235271,-0.00534578,-1.35224,0.00455532,0.0380401,685,939,-33.0034,-1.23677
-532,85,-33.0209,1.02216,-0.00387413,0.00308459,-0.00158304,0.00342779,-0.00421732,-1.3573,0.00442175,0.0397159,692,939,-33.0209,-1.02214
-525,85,-33.054,1.00031,-0.00442404,0.00460793,-0.00190489,0.00499324,-0.00480936,-1.37121,0.00565986,0.0393846,699,939,-33.054,-1.00032
-518,85,-33.1859,1.12958,-0.00962674,0.00610114,-0.00222429,0.00640966,-0.00993526,-1.43297,0.00950964,0.037119,706,939,-33.1859,-1.12959
-511,85,0,0,0,0,0,0,0,0,0,-1,713,939,0,0
-504,85,0,0,0,0,0,0,0,0,0,-1,720,939,0,0
-497,85,0,0,0,0,0,0,0,0,0,-1,727,939,0,0
-490,85,0,0,0,0,0,0,0,0,0,-1,734,939,0,0
-483,85,0,0,0,0,0,0,0,0,0,-1,741,939,0,0
-476,85,0,0,0,0,0,0,0,0,0,-1,748,939,0,0
-469,85,0,0,0,0,0,0,0,0,0,-1,755,939,0,0
-462,85,0,0,0,0,0,0,0,0,0,-1,762,939,0,0
-455,85,0,0,0,0,0,0,0,0,0,-1,769,939,0,0
-448,85,0,0,0,0,0,0,0,0,0,-1,776,939,0,0
-441,85,0,0,0,0,0,0,0,0,0,-1,783,939,0,0
-434,85,0,0,0,0,0,0,0,0,0,-1,790,939,0,0
-427,85,0,0,0,0,0,0,0,0,0,-1,797,939,0,0
-420,85,0,0,0,0,0,0,0,0,0,-1,804,939,0,0
-413,85,0,0,0,0,0,0,0,0,0,-1,811,939,0,0
-406,85,0,0,0,0,0,0,0,0,0,-1,818,939,0,0
-399,85,0,0,0,0,0,0,0,0,0,-1,825,939,0,0
-392,85,0,0,0,0,0,0,0,0,0,-1,832,939,0,0
-385,85,0,0,0,0,0,0,0,0,0,-1,839,939,0,0
-378,85,0,0,0,0,0,0,0,0,0,-1,846,939,0,0
-371,85,0,0,0,0,0,0,0,0,0,-1,853,939,0,0
-364,85,0,0,0,0,0,0,0,0,0,-1,860,939,0,0
-357,85,0,0,0,0,0,0,0,0,0,-1,867,939,0,0
-350,85,0,0,0,0,0,0,0,0,0,-1,874,939,0,0
-343,85,0,0,0,0,0,0,0,0,0,-1,881,939,0,0
-336,85,0,0,0,0,0,0,0,0,0,-1,888,939,0,0
-329,85,0,0,0,0,0,0,0,0,0,-1,895,939,0,0
-322,85,0,0,0,0,0,0,0,0,0,-1,902,939,0,0
-315,85,0,0,0,0,0,0,0,0,0,-1,909,939,0,0
-308,85,0,0,0,0,0,0,0,0,0,-1,916,939,0,0
-301,85,0,0,0,0,0,0,0,0,0,-1,923,939,0,0
-294,85,0,0,0,0,0,0,0,0,0,-1,930,939,0,0
-287,85,0,0,0,0,0,0,0,0,0,-1,937,939,0,0
-280,85,0,0,0,0,0,0,0,0,0,-1,944,939,0,0
-273,85,0,0,0,0,0,0,0,0,0,-1,951,939,0,0
-266,85,0,0,0,0,0,0,0,0,0,-1,958,939,0,0
-259,85,0,0,0,0,0,0,0,0,0,-1,965,939,0,0
-252,85,0,0,0,0,0,0,0,0,0,-1,972,939,0,0
-245,85,0,0,0,0,0,0,0,0,0,-1,979,939,0,0
-238,85,0,0,0,0,0,0,0,0,0,-1,986,939,0,0
-231,85,0,0,0,0,0,0,0,0,0,-1,993,939,0,0
-224,85,0,0,0,0,0,0,0,0,0,-1,1000,939,0,0
-217,85,0,0,0,0,0,0,0,0,0,-1,1007,939,0,0
-210,85,0,0,0,0,0,0,0,0,0,-1,1014,939,0,0
-203,85,0,0,0,0,0,0,0,0,0,-1,1021,939,0,0
-196,85,0,0,0,0,0,0,0,0,0,-1,1028,939,0,0
-189,85,0,0,0,0,0,0,0,0,0,-1,1035,939,0,0
-182,85,0,0,0,0,0,0,0,0,0,-1,1042,939,0,0
-175,85,0,0,0,0,0,0,0,0,0,-1,1049,939,0,0
-168,85,0,0,0,0,0,0,0,0,0,-1,1056,939,0,0
-161,85,0,0,0,0,0,0,0,0,0,-1,1063,939,0,0
-154,85,0,0,0,0,0,0,0,0,0,-1,1070,939,0,0
-147,85,0,0,0,0,0,0,0,0,0,-1,1077,939,0,0
-140,85,0,0,0,0,0,0,0,0,0,-1,1084,939,0,0
-133,85,0,0,0,0,0,0,0,0,0,-1,1091,939,0,0
-126,85,0,0,0,0,0,0,0,0,0,-1,1098,939,0,0
-119,85,0,0,0,0,0,0,0,0,0,-1,1105,939,0,0
-112,85,0,0,0,0,0,0,0,0,0,-1,1112,939,0,0
-105,85,0,0,0,0,0,0,0,0,0,-1,1119,939,0,0
-98,85,0,0,0,0,0,0,0,0,0,-1,1126,939,0,0
-91,85,0,0,0,0,0,0,0,0,0,-1,1133,939,0,0
-84,85,0,0,0,0,0,0,0,0,0,-1,1140,939,0,0
-77,85,0,0,0,0,0,0,0,0,0,-1,1147,939,0,0
-70,85,0,0,0,0,0,0,0,0,0,-1,1154,939,0,0
-63,85,0,0,0,0,0,0,0,0,0,-1,1161,939,0,0
-56,85,0,0,0,0,0,0,0,0,0,-1,1168,939,0,0
-49,85,0,0,0,0,0,0,0,0,0,-1,1175,939,0,0
-42,85,0,0,0,0,0,0,0,0,0,-1,1182,939,0,0
-35,85,0,0,0,0,0,0,0,0,0,-1,1189,939,0,0
-28,85,0,0,0,0,0,0,0,0,0,-1,1196,939,0,0
-21,85,0,0,0,0,0,0,0,0,0,-1,1203,939,0,0
-14,85,0,0,0,0,0,0,0,0,0,-1,1210,939,0,0
-7,85,0,0,0,0,0,0,0,0,0,-1,1217,939,0,0
0,85,0,0,0,0,0,0,0,0,0,-1,1224,939,0,0
7,85,0,0,0,0,0,0,0,0,0,-1,1231,939,0,0
14,85,0,0,0,0,0,0,0,0,0,-1,1238,939,0,0
21,85,0,0,0,0,0,0,0,0,0,-1,1245,939,0,0
28,85,0,0,0,0,0,0,0,0,0,-1,1252,939,0,0
35,85,0,0,0,0,0,0,0,0,0,-1,1259,939,0,0
42,85,0,0,0,0,0,0,0,0,0,-1,1266,939,0,0
49,85,0,0,0,0,0,0,0,0,0,-1,1273,939,0,0
56,85,0,0,0,0,0,0,0,0,0,-1,1280,939,0,0
63,85,0,0,0,0,0,0,0,0,0,-1,1287,939,0,0
70,85,0,0,0,0,0,0,0,0,0,-1,1294,939,0,0
77,85,0,0,0,0,0,0,0,0,0,-1,1301,939,0,0
84,85,0,0,0,0,0,0,0,0,0,-1,1308,939,0,0
91,85,0,0,0,0,0,0,0,0,0,-1,1315,939,0,0
98,85,0,0,0,0,0,0,0,0,0,-1,1322,939,0,0
105,85,0,0,0,0,0,0,0,0,0,-1,1329,939,0,0
112,85,0,0,0,0,0,0,0,0,0,-1,1336,939,0,0
119,85,0,0,0,0,0,0,0,0,0,-1,1343,939,0,0
126,85,0,0,0,0,0,0,0,0,0,-1,1350,939,0,0
133,85,0,0,0,0,0,0,0,0,0,-1,1357,939,0,0
140,85,0,0,0,0,0,0,0,0,0,-1,1364,939,0,0
147,85,0,0,0,0,0,0,0,0,0,-1,1371,939,0,0
154,85,0,0,0,0,0,0,0,0,0,-1,1378,939,0,0
161,85,0,0,0,0,0,0,0,0,0,-1,1385,939,0,0
168,85,0,0,0,0,0,0,0,0,0,-1,1392,939,0,0
175,85,0,0,0,0,0,0,0,0,0,-1,1399,939,0,0
182,85,0,0,0,0,0,0,0,0,0,-1,1406,939,0,0
189,85,0,0,0,0,0,0,0,0,0,-1,1413,939,0,0
196,85,0,0,0,0,0,0,0,0,0,-1,1420,939,0,0
203,85,0,0,0,0,0,0,0,0,0,-1,1427,939,0,0
210,85,0,0,0,0,0,0,0,0,0,-1,1434,939,0,0
217,85,0,0,0,0,0,0,0,0,0,-1,1441,939,0,0
224,85,0,0,0,0,0,0,0,0,0,-1,1448,939,0,0
231,85,0,0,0,0,0,0,0,0,0,-1,1455,939,0,0
238,85,0,0,0,0,0,0,0,0,0,-1,1462,939,0,0
245,85,0,0,0,0,0,0,0,0,0,-1,1469,939,0,0
252,85,0,0,0,0,0,0,0,0,0,-1,1476,939,0,0
259,85,0,0,0,0,0,0,0,0,0,-1,1483,939,0,0
266,85,0,0,0,0,0,0,0,0,0,-1,1490,939,0,0
273,85,0,0,0,0,0,0,0,0,0,-1,1497,939,0,0
280,85,0,0,0,0,0,0,0,0,0,-1,1504,939,0,0
287,85,0,0,0,0,0,0,0,0,0,-1,1511,939,0,0
294,85,0,0,0,0,0,0,0,0,0,-1,1518,939,0,0
301,85,0,0,0,0,0,0,0,0,0,-1,1525,939,0,0
308,85,0,0,0,0,0,0,0,0,0,-1,1532,939,0,0
315,85,0,0,0,0,0,0,0,0,0,-1,1539,939,0,0
322,85,0,0,0,0,0,0,0,0,0,-1,1546,939,0,0
329,85,0,0,0,0,0,0,0,0,0,-1,1553,939,0,0
336,85,0,0,0,0,0,0,0,0,0,-1,1560,939,0,0
343,85,0,0,0,0,0,0,0,0,0,-1,1567,939,0,0
350,85,0,0,0,0,0,0,0,0,0,-1,1574,939,0,0
357,85,0,0,0,0,0,0,0,0,0,-1,1581,939,0,0
364,85,0,0,0,0,0,0,0,0,0,-1,1588,939,0,0
371,85,0,0,0,0,0,0,0,0,0,-1,1595,939,0,0
378,85,0,0,0,0,0,0,0,0,0,-1,1602,939,0,0
385,85,0,0,0,0,0,0,0,0,0,-1,1609,939,0,0
392,85,0,0,0,0,0,0,0,0,0,-1,1616,939,0,0
399,85,0,0,0,0,0,0,0,0,0,-1,1623,939,0,0
406,85,0,0,0,0,0,0,0,0,0,-1,1630,939,0,0
413,85,0,0,0,0,0,0,0,0,0,-1,1637,939,0,0
420,85,0,0,0,0,0,0,0,0,0,-1,1644,939,0,0
427,85,0,0,0,0,0,0,0,0,0,-1,1651,939,0,0
434,85,0,0,0,0,0,0,0,0,0,-1,1658,939,0,0
441,85,0,0,0,0,0,0,0,0,0,-1,1665,939,0,0
448,85,0,0,0,0,0,0,0,0,0,-1,1672,939,0,0
455,85,0,0,0,0,0,0,0,0,0,-1,1679,939,0,0
462,85,0,0,0,0,0,0,0,0,0,-1,1686,939,0,0
469,85,0,0,0,0,0,0,0,0,0,-1,1693,939,0,0
476,85,0,0,0,0,0,0,0,0,0,-1,1700,939,0,0
483,85,0,0,0,0,0,0,0,0,0,-1,1707,939,0,0
490,85,0,0,0,0,0,0,0,0,0,-1,1714,939,0,0
497,85,0,0,0,0,0,0,0,0,0,-1,1721,939,0,0
504,85,0,0,0,0,0,0,0,0,0,-1,1728,939,0,0
511,85,0,0,0,0,0,0,0,0,0,-1,1735,939,0,0
518,85,0,0,0,0,0,0,0,0,0,-1,1742,939,0,0
525,85,0,0,0,0,0,0,0,0,0,-1,1749,939,0,0
532,85,0,0,0,0,0,0,0,0,0,-1,1756,939,0,0
539,85,0,0,0,0,0,0,0,0,0,-1,1763,939,0,0
546,85,0,0,0,0,0,0,0,0,0,-1,1770,939,0,0
553,85,0,0,0,0,0,0,0,0,0,-1,1777,939,0,0
560,85,0,0,0,0,0,0,0,0,0,-1,1784,939,0,0
567,85,0,0,0,0,0,0,0,0,0,-1,1791,939,0,0
574,85,0,0,0,0,0,0,0,0,0,-1,1798,939,0,0
581,85,0,0,0,0,0,0,0,0,0,-1,1805,939,0,0
588,85,0,0,0,0,0,0,0,0,0,-1,1812,939,0,0
595,85,0,0,0,0,0,0,0,0,0,-1,1819,939,0,0
602,85,0,0,0,0,0,0,0,0,0,-1,1826,939,0,0
609,85,0,0,0,0,0,0,0,0,0,-1,1833,939,0,0
616,85,0,0,0,0,0,0,0,0,0,-1,1840,939,0,0
623,85,0,0,0,0,0,0,0,0,0,-1,1847,939,0,0
630,85,0,0,0,0,0,0,0,0,0,-1,1854,939,0,0
637,85,44.7086,2.77856,0.00203617,-0.00124492,-0.00225736,0.00318616,-0.0023949,-0.47117,0.003233,0.0483517,1861,939,44.7086,-2.77856
644,85,44.6752,2.61084,0.00115139,-0.000467948,-0.00192207,0.00242737,-0.00174392,-0.586054,0.00241905,0.0420673,1868,939,44.6752,-2.61085
651,85,44.6946,2.36682,0.000555657,-0.00012996,-0.00146522,0.00171764,-0.00129194,-0.670483,0.00174336,0.0411816,1875,939,44.6946,-2.36683
658,85,44.5972,2.62494,8.67798e-05,0.000144,-0.001007,0.00112279,-0.000892013,-0.7996,0.00116579,0.0407881,1882,939,44.5971,-2.62497
665,85,44.5258,3.04108,-0.000128035,0.000344465,-0.000564138,0.000719824,-0.000503394,-0.983693,0.000709901,0.0406702,1889,939,44.5257,-3.0411
672,85,44.624,3.1264,-0.000434822,0.000246334,-0.000116165,0.0002656,-0.000454088,-1.40644,0.000420235,0.0400189,1896,939,44.624,-3.12641
679,85,44.8567,2.70959,-0.000655039,-2.16546e-06,0.000243944,7.89144e-05,-0.000736119,1.24991,0.000519054,0.0384515,1903,939,44.8567,-2.70961
686,85,44.7146,2.6557,-0.000715539,-0.000198007,0.000335682,-3.29302e-05,-0.000880615,1.11376,0.000576414,0.0333779,1910,939,44.7146,-2.65568
693,85,44.6444,2.81421,-0.000786671,-0.000320529,0.000358294,-0.00012617,-0.00098103,1.07376,0.000616283,0.0293799,1917,939,44.6445,-2.81419
700,85,44.6306,2.7998,-0.00106295,-0.000342557,0.00037472,-0.000182988,-0.00122252,1.16822,0.000761382,0.0431198,1924,939,44.6306,-2.7998
707,85,44.6774,2.81805,0,0,0,0,0,0,0,-1,1931,939,44.6773,-2.81803
714,85,41.9811,4.01251,0,0,0,0,0,0,0,-1,1938,939,41.9811,-4.01253
721,85,41.896,4.46002,-0.00176844,0.000309107,-0.000160157,0.000321381,-0.00178072,-1.49431,0.0013075,0.0291351,1945,939,41.896,-4.46
728,85,41.7937,4.94031,-0.00226664,0.000778499,-0.000255513,0.00079979,-0.00228794,-1.48766,0.00185043,0.0243341,1952,939,41.7937,-4.94028
735,85,41.8254,5.20599,-0.00238635,0.00146053,-0.000322691,0.00148742,-0.00241323,-1.48769,0.00227309,0.0218725,1959,939,41.8254,-5.20602
742,85,41.895,5.52222,-0.00169996,0.00157396,-0.00108869,0.00190293,-0.00202893,-1.27735,0.00227045,0.0169985,1966,939,41.895,-5.5222
749,85,41.8231,5.88562,-0.000123889,0.00115858,-0.00240561,0.00300696,-0.00197226,-0.915649,0.00289537,0.0146032,1973,939,41.8232,-5.8856
756,85,41.7247,6.20386,0.00341188,-0.00085382,-0.00471324,0.00645239,-0.00389433,-0.572923,0.00603423,0.0133642,1980,939,41.7247,-6.20387
763,85,41.6973,6.54102,0.00844065,-0.00409848,-0.0075589,0.0119917,-0.00764953,-0.439183,0.0114319,0.013178,1987,939,41.6972,-6.54104
770,85,41.6387,6.9314,0.0155223,-0.00946958,-0.0115528,0.0200445,-0.0139917,-0.3731,0.0197541,0.0192202,1994,939,41.6387,-6.93142
777,85,41.4641,7.6723,0.0253827,-0.0181477,-0.0173192,0.0314326,-0.0241975,-0.336066,0.0322085,0.0414423,2001,939,41.4641,-7.67229
784,85,41.3872,8.41522,0,0,0,0,0,0,0,-1,2008,939,41.3872,-8.41521
791,85,40.8655,8.17065,0,0,0,0,0,0,0,-1,2015,939,40.8656,-8.17066
798,85,42.667,4.39233,0,0,0,0,0,0,0,-1,2022,939,42.6671,-4.39235
805,85,43.3367,3.89349,0,0,0,0,0,0,0,-1,2029,939,43.3366,-3.89351
812,85,0,0,0,0,0,0,0,0,0,-1,2036,939,0,0
-700,78,0,0,0,0,0,0,0,0,0,-1,524,946,0,0
-693,78,0,0,0,0,0,0,0,0,0,-1,531,946,0,0
-686,78,-31.258,10.6699,0,0,0,0,0,0,0,-1,538,946,-31.258,-10.6699
-679,78,-31.6303,8.61993,0.0333955,-0.0482567,-0.0308136,0.0437187,-0.0585799,-0.323268,0.0592695,0.0454122,545,946,-31.6303,-8.61995
-672,78,-31.788,8.19934,0.0251304,-0.0299479,-0.0274417,0.0364686,-0.0412861,-0.391812,0.0449204,0.0499844,552,946,-31.788,-8.19932
-665,78,-30.8331,6.98425,0.0179673,-0.0165351,-0.023175,0.029607,-0.0281748,-0.465447,0.0333637,0.0463639,559,946,-30.8331,-6.98424
-658,78,-30.7969,4.81677,0,0,0,0,0,0,0,-1,566,946,-30.797,-4.81677
-651,78,-30.9919,4.5658,0.0072663,-0.000308254,-0.0140553,0.0180356,-0.0110775,-0.653796,0.0169677,0.0466349,573,946,-30.9919,-4.56581
-644,78,-31.1772,4.3338,0.0036804,0.00372545,-0.00989189,0.0135948,-0.00618899,-0.786537,0.0116859,0.0285063,580,946,-31.1772,-4.3338
-637,78,-31.3593,4.06512,0.000774779,0.00624432,-0.00668871,0.0107357,-0.00371665,-0.97946,0.00866591,0.0155042,587,946,-31.3592,-4.0651
-630,78,-31.4883,3.77521,-0.00149695,0.00825564,-0.00411283,0.0097585,-0.00299981,-1.22046,0.00770284,0.0144019,594,946,-31.4883,-3.77518
-623,78,-31.526,3.47534,-0.00357151,0.00749605,-0.00195342,0.00783071,-0.00390617,-1.40112,0.00690141,0.0135616,601,946,-31.526,-3.47534
-616,78,-31.5306,3.17859,-0.00527701,0.00583442,-0.000626528,0.00586964,-0.00531222,-1.51465,0.00645852,0.0117712,608,946,-31.5306,-3.17857
-609,78,-31.4944,2.91278,-0.00671669,0.00353476,7.77978e-05,0.00353535,-0.00671728,1.56321,0.00601363,0.0115021,615,946,-31.4944,-2.91281
-602,78,-31.5247,2.62311,-0.00741067,0.0020058,-0.000283912,0.00201435,-0.00741922,-1.54068,0.00573672,0.0157558,622,946,-31.5246,-2.62309
-595,78,-31.4865,2.2627,-0.00776633,0.000663024,-0.000593708,0.000704636,-0.00780794,-1.50082,0.00545536,0.0158186,629,946,-31.4864,-2.26272
-588,78,-31.4816,1.99249,-0.00788188,-7.89989e-05,-0.00111807,7.80486e-05,-0.00803893,-1.43125,0.00538549,0.0135622,636,946,-31.4817,-1.99247
-581,78,-31.616,1.73389,-0.00799305,-0.000200544,-0.00159433,0.000113033,-0.00830663,-1.37659,0.00557581,0.0302051,643,946,-31.616,-1.7339
-574,78,-32.2869,1.38019,-0.00805572,-0.000243448,-0.00187433,0.000182966,-0.00848214,-1.3471,0.00571672,0.0367341,650,946,-32.2869,-1.38019
-567,78,-33.0387,1.12976,0,0,0,0,0,0,0,-1,657,946,-33.0387,-1.12977
-560,78,-33.0524,1.11505,-0.00752834,0.000247974,-0.00222277,0.000838486,-0.00811885,-1.31113,0.00571261,0.0338975,664,946,-33.0525,-1.11505
-553,78,-33.0164,1.09686,-0.00670193,0.000815012,-0.00229554,0.00146059,-0.00734751,-1.29665,0.00545082,0.0403772,671,946,-33.0164,-1.09683
-546,78,-33.0238,1.06586,-0.00549396,0.00159845,-0.00229258,0.00227498,-0.00617049,-1.28385,0.00504593,0.0399655,678,946,-33.0238,-1.06583
-539,78,-33.0077,1.10297,-0.00402119,0.00255588,-0.00220797,0.00322835,-0.00469366,-1.27516,0.00459978,0.0366353,685,946,-33.0077,-1.10298
-532,78,-32.9147,0.982178,-0.0025606,0.00364323,-0.00220547,0.00434736,-0.00326472,-1.26176,0.00440963,0.0371413,692,946,-32.9147,-0.982207
-525,78,-32.883,0.947998,-0.00303511,0.00514926,-0.00278112,0.00600486,-0.00389071,-1.27234,0.00575651,0.0371022,699,946,-32.883,-0.948001
-518,78,-33.0006,1.07837,-0.00855074,0.00671168,-0.003456,0.00745778,-0.00929684,-1.35817,0.00969269,0.0393132,706,946,-33.0006,-1.07839
-511,78,0,0,0,0,0,0,0,0,0,-1,713,946,0,0
-504,78,0,0,0,0,0,0,0,0,0,-1,720,946,0,0
-497,78,0,0,0,0,0,0,0,0,0,-1,727,946,0,0
-490,78,0,0,0,0,0,0,0,0,0,-1,734,946,0,0
-483,78,0,0,0,0,0,0,0,0,0,-1,741,946,0,0
-476,78,0,0,0,0,0,0,0,0,0,-1,748,946,0,0
-469,78,0,0,0,0,0,0,0,0,0,-1,755,946,0,0
-462,78,0,0,0,0,0,0,0,0,0,-1,762,946,0,0
-455,78,0,0,0,0,0,0,0,0,0,-1,769,946,0,0
-448,78,0,0,0,0,0,0,0,0,0,-1,776,946,0,0
-441,78,0,0,0,0,0,0,0,0,0,-1,783,946,0,0
-434,78,0,0,0,0,0,0,0,0,0,-1,790,946,0,0
-427,78,0,0,0,0,0,0,0,0,0,-1,797,946,0,0
-420,78,0,0,0,0,0,0,0,0,0,-1,804,946,0,0
-413,78,0,0,0,0,0,0,0,0,0,-1,811,946,0,0
-406,78,0,0,0,0,0,0,0,0,0,-1,818,946,0,0
-399,78,0,0,0,0,0,0,0,0,0,-1,825,946,0,0
-392,78,0,0,0,0,0,0,0,0,0,-1,832,946,0,0
-385,78,0,0,0,0,0,0,0,0,0,-1,839,946,0,0
-378,78,0,0,0,0,0,0,0,0,0,-1,846,946,0,0
-371,78,0,0,0,0,0,0,0,0,0,-1,853,946,0,0
-364,78,0,0,0,0,0,0,0,0,0,-1,860,946,0,0
-357,78,0,0,0,0,0,0,0,0,0,-1,867,946,0,0
-350,78,0,0,0,0,0,0,0,0,0,-1,874,946,0,0
-343,78,0,0,0,0,0,0,0,0,0,-1,881,946,0,0
-336,78,0,0,0,0,0,0,0,0,0,-1,888,946,0,0
-329,78,0,0,0,0,0,0,0,0,0,-1,895,946,0,0
-322,78,0,0,0,0,0,0,0,0,0,-1,902,946,0,0
-315,78,0,0,0,0,0,0,0,0,0,-1,909,946,0,0
-308,78,0,0,0,0,0,0,0,0,0,-1,916,946,0,0
-301,78,0,0,0,0,0,0,0,0,0,-1,923,946,0,0
-294,78,0,0,0,0,0,0,0,0,0,-1,930,946,0,0
-287,78,0,0,0,0,0,0,0,0,0,-1,937,946,0,0
-280,78,0,0,0,0,0,0,0,0,0,-1,944,946,0,0
-273,78,0,0,0,0,0,0,0,0,0,-1,951,946,0,0
-266,78,0,0,0,0,0,0,0,0,0,-1,958,946,0,0
-259,78,0,0,0,0,0,0,0,0,0,-1,965,946,0,0
-252,78,0,0,0,0,0,0,0,0,0,-1,972,946,0,0
-245,78,0,0,0,0,0,0,0,0,0,-1,979,946,0,0
-238,78,0,0,0,0,0,0,0,0,0,-1,986,946,0,0
-231,78,0,0,0,0,0,0,0,0,0,-1,993,946,0,0
-224,78,0,0,0,0,0,0,0,0,0,-1,1000,946,0,0
-217,78,0,0,0,0,0,0,0,0,0,-1,1007,946,0,0
-210,78,0,0,0,0,0,0,0,0,0,-1,1014,946,0,0
-203,78,0,0,0,0,0,0,0,0,0,-1,1021,946,0,0
-196,78,0,0,0,0,0,0,0,0,0,-1,1028,946,0,0
-189,78,0,0,0,0,0,0,0,0,0,-1,1035,946,0,0
-182,78,0,0,0,0,0,0,0,0,0,-1,1042,946,0,0
-175,78,0,0,0,0,0,0,0,0,0,-1,1049,946,0,0
-168,78,0,0,0,0,0,0,0,0,0,-1,1056,946,0,0
-161,78,0,0,0,0,0,0,0,0,0,-1,1063,946,0,0
-154,78,0,0,0,0,0,0,0,0,0,-1,1070,946,0,0
-147,78,0,0,0,0,0,0,0,0,0,-1,1077,946,0,0
-140,78,0,0,0,0,0,0,0,0,0,-1,1084,946,0,0
-133,78,0,0,0,0,0,0,0,0,0,-1,1091,946,0,0
-126,78,0,0,0,0,0,0,0,0,0,-1,1098,946,0,0
-119,78,0,0,0,0,0,0,0,0,0,-1,1105,946,0,0
-112,78,0,0,0,0,0,0,0,0,0,-1,1112,946,0,0
-105,78,0,0,0,0,0,0,0,0,0,-1,1119,946,0,0
-98,78,0,0,0,0,0,0,0,0,0,-1,1126,946,0,0
-91,78,0,0,0,0,0,0,0,0,0,-1,1133,946,0,0
-84,78,0,0,0,0,0,0,0,0,0,-1,1140,946,0,0
-77,78,0,0,0,0,0,0,0,0,0,-1,1147,946,0,0
-70,78,0,0,0,0,0,0,0,0,0,-1,1154,946,0,0
-63,78,0,0,0,0,0,0,0,0,0,-1,1161,946,0,0
-56,78,0,0,0,0,0,0,0,0,0,-1,1168,946,0,0
-49,78,0,0,0,0,0,0,0,0,0,-1,1175,946,0,0
-42,78,0,0,0,0,0,0,0,0,0,-1,1182,946,0,0
-35,78,0,0,0,0,0,0,0,0,0,-1,1189,946,0,0
-28,78,0,0,0,0,0,0,0,0,0,-1,1196,946,0,0
-21,78,0,0,0,0,0,0,0,0,0,-1,1203,946,0,0
-14,78,0,0,0,0,0,0,0,0,0,-1,1210,946,0,0
-7,78,0,0,0,0,0,0,0,0,0,-1,1217,946,0,0
0,78,0,0,0,0,0,0,0,0,0,-1,1224,946,0,0
7,78,0,0,0,0,0,0,0,0,0,-1,1231,946,0,0
14,78,0,0,0,0,0,0,0,0,0,-1,1238,946,0,0
21,78,0,0,0,0,0,0,0,0,0,-1,1245,946,0,0
28,78,0,0,0,0,0,0,0,0,0,-1,1252,946,0,0
35,78,0,0,0,0,0,0,0,0,0,-1,1259,946,0,0
42,78,0,0,0,0,0,0,0,0,0,-1,1266,946,0,0
49,78,0,0,0,0,0,0,0,0,0,-1,1273,946,0,0
56,78,0,0,0,0,0,0,0,0,0,-1,1280,946,0,0
63,78,0,0,0,0,0,0,0,0,0,-1,1287,946,0,0
70,78,0,0,0,0,0,0,0,0,0,-1,1294,946,0,0
77,78,0,0,0,0,0,0,0,0,0,-1,1301,946,0,0
84,78,0,0,0,0,0,0,0,0,0,-1,1308,946,0,0
91,78,0,0,0,0,0,0,0,0,0,-1,1315,946,0,0
98,78,0,0,0,0,0,0,0,0,0,-1,1322,946,0,0
105,78,0,0,0,0,0,0,0,0,0,-1,1329,946,0,0
112,78,0,0,0,0,0,0,0,0,0,-1,1336,946,0,0
119,78,0,0,0,0,0,0,0,0,0,-1,1343,946,0,0
126,78,0,0,0,0,0,0,0,0,0,-1,1350,946,0,0
133,78,0,0,0,0,0,0,0,0,0,-1,1357,946,0,0
140,78,0,0,0,0,0,0,0,0,0,-1,1364,946,0,0
147,78,0,0,0,0,0,0,0,0,0,-1,1371,946,0,0
154,78,0,0,0,0,0,0,0,0,0,-1,1378,946,0,0
161,78,0,0,0,0,0,0,0,0,0,-1,1385,946,0,0
168,78,0,0,0,0,0,0,0,0,0,-1,1392,946,0,0
175,78,0,0,0,0,0,0,0,0,0,-1,1399,946,0,0
182,78,0,0,0,0,0,0,0,0,0,-1,1406,946,0,0
189,78,0,0,0,0,0,0,0,0,0,-1,1413,946,0,0
196,78,0,0,0,0,0,0,0,0,0,-1,1420,946,0,0
203,78,0,0,0,0,0,0,0,0,0,-1,1427,946,0,0
210,78,0,0,0,0,0,0,0,0,0,-1,1434,946,0,0
217,78,0,0,0,0,0,0,0,0,0,-1,1441,946,0,0
224,78,0,0,0,0,0,0,0,0,0,-1,1448,946,0,0
231,78,0,0,0,0,0,0,0,0,0,-1,1455,946,0,0
238,78,0,0,0,0,0,0,0,0,0,-1,1462,946,0,0
245,78,0,0,0,0,0,0,0,0,0,-1,1469,946,0,0
252,78,0,0,0,0,0,0,0,0,0,-1,1476,946,0,0
259,78,0,0,0,0,0,0,0,0,0,-1,1483,946,0,0
266,78,0,0,0,0,0,0,0,0,0,-1,1490,946,0,0
273,78,0,0,0,0,0,0,0,0,0,-1,1497,946,0,0
280,78,0,0,0,0,0,0,0,0,0,-1,1504,946,0,0
287,78,0,0,0,0,0,0,0,0,0,-1,1511,946,0,0
294,78,0,0,0,0,0,0,0,0,0,-1,1518,946,0,0
301,78,0,0,0,0,0,0,0,0,0,-1,1525,946,0,0
308,78,0,0,0,0,0,0,0,0,0,-1,1532,946,0,0
315,78,0,0,0,0,0,0,0,0,0,-1,1539,946,0,0
322,78,0,0,0,0,0,0,0,0,0,-1,1546,946,0,0
329,78,0,0,0,0,0,0,0,0,0,-1,1553,946,0,0
336,78,0,0,0,0,0,0,0,0,0,-1,1560,946,0,0
343,78,0,0,0,0,0,0,0,0,0,-1,1567,946,0,0
350,78,0,0,0,0,0,0,0,0,0,-1,1574,946,0,0
357,78,0,0,0,0,0,0,0,0,0,-1,1581,946,0,0
364,78,0,0,0,0,0,0,0,0,0,-1,1588,946,0,0
371,78,0,0,0,0,0,0,0,0,0,-1,1595,946,0,0
378,78,0,0,0,0,0,0,0,0,0,-1,1602,946,0,0
385,78,0,0,0,0,0,0,0,0,0,-1,1609,946,0,0
392,78,0,0,0,0,0,0,0,0,0,-1,1616,946,0,0
399,78,0,0,0,0,0,0,0,0,0,-1,1623,946,0,0
406,78,0,0,0,0,0,0,0,0,0,-1,1630,946,0,0
413,78,0,0,0,0,0,0,0,0,0,-1,1637,946,0,0
420,78,0,0,0,0,0,0,0,0,0,-1,1644,946,0,0
427,78,0,0,0,0,0,0,0,0,0,-1,1651,946,0,0
434,78,0,0,0,0,0,0,0,0,0,-1,1658,946,0,0
441,78,0,0,0,0,0,0,0,0,0,-1,1665,946,0,0
448,78,0,0,0,0,0,0,0,0,0,-1,1672,946,0,0
455,78,0,0,0,0,0,0,0,0,0,-1,1679,946,0,0
462,78,0,0,0,0,0,0,0,0,0,-1,1686,946,0,0
469,78,0,0,0,0,0,0,0,0,0,-1,1693,946,0,0
476,78,0,0,0,0,0,0,0,0,0,-1,1700,946,0,0
483,78,0,0,0,0,0,0,0,0,0,-1,1707,946,0,0
490,78,0,0,0,0,0,0,0,0,0,-1,1714,946,0,0
497,78,0,0,0,0,0,0,0,0,0,-1,1721,946,0,0
504,78,0,0,0,0,0,0,0,0,0,-1,1728,946,0,0
511,78,0,0,0,0,0,0,0,0,0,-1,1735,946,0,0
518,78,0,0,0,0,0,0,0,0,0,-1,1742,946,0,0
525,78,0,0,0,0,0,0,0,0,0,-1,1749,946,0,0
532,78,0,0,0,0,0,0,0,0,0,-1,1756,946,0,0
539,78,0,0,0,0,0,0,0,0,0,-1,1763,946,0,0
546,78,0,0,0,0,0,0,0,0,0,-1,1770,946,0,0
553,78,0,0,0,0,0,0,0,0,0,-1,1777,946,0,0
560,78,0,0,0,0,0,0,0,0,0,-1,1784,946,0,0
567,78,0,0,0,0,0,0,0,0,0,-1,1791,946,0,0
574,78,0,0,0,0,0,0,0,0,0,-1,1798,946,0,0
581,78,0,0,0,0,0,0,0,0,0,-1,1805,946,0,0
588,78,0,0,0,0,0,0,0,0,0,-1,1812,946,0,0
595,78,0,0,0,0,0,0,0,0,0,-1,1819,946,0,0
602,78,0,0,0,0,0,0,0,0,0,-1,1826,946,0,0
609,78,0,0,0,0,0,0,0,0,0,-1,1833,946,0,0
616,78,0,0,0,0,0,0,0,0,0,-1,1840,946,0,0
623,78,0,0,0,0,0,0,0,0,0,-1,1847,946,0,0
630,78,0,0,0,0,0,0,0,0,0,-1,1854,946,0,0
637,78,44.7211,2.87024,0.00198581,-0.00173946,-0.00284163,0.00352086,-0.00327452,-0.495289,0.00392417,0.0462468,1861,946,44.7211,-2.87021
644,78,44.575,2.67828,0.00117745,-0.000997102,-0.00230676,0.00264033,-0.00245999,-0.565168,0.00294528,0.0428366,1868,946,44.5749,-2.67831
651,78,44.6049,2.53345,0.000616876,-0.000674147,-0.00171347,0.00180239,-0.00185966,-0.605255,0.00211437,0.04199,1875,946,44.6048,-2.53347
658,78,44.6465,2.65973,0.000145285,-0.000383668,-0.00115647,0.00106713,-0.00130552,-0.672985,0.00137215,0.0395366,1882,946,44.6464,-2.6597
665,78,44.7434,3.03522,-0.000149723,-0.000123878,-0.000621184,0.000484518,-0.000758119,-0.795798,0.00072321,0.0411979,1889,946,44.7434,-3.03524
672,78,44.9003,3.1991,-0.000605345,-0.000141625,-0.000104501,-0.000119163,-0.000627807,-1.35908,0.000385013,0.0437387,1896,946,44.9002,-3.19908
679,78,45.0316,3.29138,0,0,0,0,0,0,0,-1,1903,946,45.0316,-3.2914
686,78,44.682,2.58734,-0.0011645,-0.000504652,0.000471231,-0.000259329,-0.00140982,1.09081,0.000866472,0.0377817,1910,946,44.682,-2.58733
693,78,44.6442,2.66034,-0.00128494,-0.000629301,0.000518499,-0.000343682,-0.00157056,1.06729,0.000953355,0.0309013,1917,946,44.6442,-2.66032
700,78,44.5847,2.72955,-0.0016262,-0.000632032,0.000539925,-0.000395214,-0.00186302,1.15745,0.00113348,0.0307778,1924,946,44.5847,-2.72953
707,78,44.6433,2.89966,0,0,0,0,0,0,0,-1,1931,946,44.6433,-2.89964
714,78,42.1389,4.19843,0,0,0,0,0,0,0,-1,1938,946,42.1389,-4.19844
721,78,42.1691,4.52173,-0.00261266,0.000200006,1.20837e-05,0.000200058,-0.00261271,1.5665,0.00181218,0.0305453,1945,946,42.169,-4.52171
728,78,42.1853,4.96039,-0.00308726,0.000745151,-8.67544e-05,0.000747114,-0.00308922,-1.54817,0.00234847,0.0290642,1952,946,42.1853,-4.96036
735,78,42.2573,5.27222,-0.00313482,0.00148098,-0.000186017,0.00148847,-0.00314231,-1.53058,0.00272982,0.0205695,1959,946,42.2573,-5.27223
742,78,42.2896,5.56824,-0.00232339,0.00158184,-0.000993045,0.00181985,-0.0025614,-1.33556,0.00254156,0.0168691,1966,946,42.2895,-5.56821
749,78,42.1824,5.8703,-0.000663112,0.00120835,-0.00234055,0.00279329,-0.00224805,-0.975561,0.00291629,0.0156405,1973,946,42.1823,-5.87032
756,78,42.1307,6.14105,0.00294946,-0.000689958,-0.00468421,0.00615501,-0.0038955,-0.600131,0.00585134,0.0162081,1980,946,42.1307,-6.14102
763,78,42.0703,6.44067,0.00821104,-0.00386873,-0.00762262,0.0118966,-0.00755431,-0.450365,0.0113229,0.0160568,1987,946,42.0703,-6.44066
770,78,41.989,6.72485,0.0155951,-0.00918505,-0.0117065,0.0202507,-0.0138407,-0.37852,0.0197983,0.0219045,1994,946,41.989,-6.72485
777,78,41.9082,7.28778,0.0256597,-0.017603,-0.01748,0.0318396,-0.0237829,-0.339826,0.0322258,0.0429929,2001,946,41.9082,-7.2878
784,78,41.8601,7.89758,0,0,0,0,0,0,0,-1,2008,946,41.86,-7.89759
791,78,42.5186,5.41907,0.0579363,-0.0477079,-0.0371029,0.069665,-0.0594366,-0.306171,0.0746148,0.0481693,2015,946,42.5185,-5.41909
798,78,43.1021,4.99615,0.0807901,-0.0704196,-0.0523521,0.0971463,-0.0867758,-0.302819,0.106244,0.0455573,2022,946,43.1021,-4.99615
805,78,43.6921,4.52673,0.107465,-0.0984453,-0.0717619,0.130007,-0.120987,-0.304362,0.144943,0.0497127,2029,946,43.6921,-4.52676
812,78,0,0,0,0,0,0,0,0,0,-1,2036,946,0,0
-700,71,0,0,0,0,0,0,0,0,0,-1,524,953,0,0
-693,71,0,0,0,0,0,0,0,0,0,-1,531,953,0,0
-686,71,-32.0617,9.24506,0,0,0,0,0,0,0,-1,538,953,-32.0617,-9.24504
-679,71,-31.6734,8.49371,0.0360823,-0.0442188,-0.0273029,0.044486,-0.0526225,-0.298593,0.0561312,0.0475424,545,953,-31.6734,-8.4937
-672,71,-31.2256,7.7533,0.0268194,-0.0260051,-0.0246762,0.036553,-0.0357387,-0.375714,0.0417385,0.0465994,552,953,-31.2257,-7.7533
-665,71,-30.8625,6.98901,0.018887,-0.0127835,-0.0210401,0.029385,-0.0232816,-0.46281,0.0304751,0.0474373,559,953,-30.8625,-6.98903
-658,71,-30.4992,6.22412,0,0,0,0,0,0,0,-1,566,953,-30.4992,-6.22413
-651,71,-31.36,4.53741,0,0,0,0,0,0,0,-1,573,953,-31.36,-4.53744
-644,71,-31.5172,4.30853,0.00340177,0.00615591,-0.00898299,0.0138668,-0.00430909,-0.861455,0.0109668,0.0356975,580,953,-31.5172,-4.30854
-637,71,-31.715,3.99756,0.000330337,0.00830846,-0.00615967,0.0116579,-0.00301914,-1.07274,0.00894973,0.0166806,587,953,-31.7151,-3.99753
-630,71,-31.819,3.73383,-0.00193479,0.00986913,-0.00396019,0.0110746,-0.0031403,-1.2753,0.00862264,0.0153878,594,953,-31.819,-3.73385
-623,71,-31.8568,3.44385,-0.00392023,0.00853404,-0.00209361,0.00887656,-0.00426276,-1.40863,0.00774031,0.0147482,601,953,-31.8567,-3.44385
-616,71,-31.8636,3.11566,-0.00546122,0.00653883,-0.00107279,0.00663398,-0.00555637,-1.48233,0.00704727,0.0145767,608,953,-31.8636,-3.11564
-609,71,-31.8132,2.87177,-0.00669082,0.0040722,-0.000611446,0.00410683,-0.00672544,-1.51423,0.00631463,0.0154576,615,953,-31.8132,-2.87178
-602,71,-31.7799,2.60126,-0.00718702,0.00239056,-0.00109813,0.00251485,-0.00731132,-1.45809,0.00589413,0.016483,622,953,-31.7799,-2.60124
-595,71,-31.7968,2.34308,-0.00746771,0.000953028,-0.00149827,0.00121167,-0.00772635,-1.39986,0.00559867,0.0171438,629,953,-31.7967,-2.34307
-588,71,-31.7878,2.12732,-0.00753637,0.000137881,-0.00210462,0.000677163,-0.00807566,-1.31996,0.0056231,0.0210174,636,953,-31.7878,-2.12732
-581,71,-32.0381,1.64185,-0.00757944,-2.84056e-05,-0.00260981,0.00078581,-0.00839366,-1.26838,0.00587525,0.0366282,643,953,-32.0382,-1.64182
-574,71,-32.7483,1.2215,-0.00756721,-7.89268e-05,-0.00287427,0.000897102,-0.00854324,-1.24344,0.00601686,0.0391289,650,953,-32.7483,-1.22151
-567,71,-33.3223,0.916199,0,0,0,0,0,0,0,-1,657,953,-33.3222,-0.916192
-560,71,-33.0618,1.11517,-0.00682587,0.000488492,-0.00311211,0.00163341,-0.00797079,-1.21827,0.00593375,0.0286012,664,953,-33.0618,-1.11514
-553,71,-33.0038,1.17145,-0.00581374,0.00108932,-0.00307022,0.00225724,-0.00698166,-1.2073,0.0055617,0.0390986,671,953,-33.0038,-1.17143
-546,71,-33.0522,1.1413,-0.00438192,0.00188159,-0.0029285,0.00303749,-0.00553783,-1.19486,0.00502062,0.03939,678,953,-33.0522,-1.14129
-539,71,-33.0007,1.03162,-0.00265465,0.00280412,-0.00270076,0.00391448,-0.00376501,-1.18073,0.00443404,0.0387643,685,953,-33.0007,-1.03164
-532,71,-32.8444,0.904358,-0.000911393,0.00382419,-0.0026573,0.00501556,-0.00210277,-1.14932,0.0042229,0.0412145,692,953,-32.8444,-0.904331
-525,71,-32.8212,0.877563,-0.00120485,0.0053288,-0.00347206,0.0068293,-0.00270535,-1.16287,0.00567387,0.041368,699,953,-32.8212,-0.877538
-518,71,0,0,0,0,0,0,0,0,0,-1,706,953,0,0
-511,71,0,0,0,0,0,0,0,0,0,-1,713,953,0,0
-504,71,0,0,0,0,0,0,0,0,0,-1,720,953,0,0
-497,71,0,0,0,0,0,0,0,0,0,-1,727,953,0,0
-490,71,0,0,0,0,0,0,0,0,0,-1,734,953,0,0
-483,71,0,0,0,0,0,0,0,0,0,-1,741,953,0,0
-476,71,0,0,0,0,0,0,0,0,0,-1,748,953,0,0
-469,71,0,0,0,0,0,0,0,0,0,-1,755,953,0,0
-462,71,0,0,0,0,0,0,0,0,0,-1,762,953,0,0
-455,71,0,0,0,0,0,0,0,0,0,-1,769,953,0,0
-448,71,0,0,0,0,0,0,0,0,0,-1,776,953,0,0
-441,71,0,0,0,0,0,0,0,0,0,-1,783,953,0,0
-434,71,0,0,0,0,0,0,0,0,0,-1,790,953,0,0
-427,71,0,0,0,0,0,0,0,0,0,-1,797,953,0,0
-420,71,0,0,0,0,0,0,0,0,0,-1,804,953,0,0
-413,71,0,0,0,0,0,0,0,0,0,-1,811,953,0,0
-406,71,0,0,0,0,0,0,0,0,0,-1,818,953,0,0
-399,71,0,0,0,0,0,0,0,0,0,-1,825,953,0,0
-392,71,0,0,0,0,0,0,0,0,0,-1,832,953,0,0
-385,71,0,0,0,0,0,0,0,0,0,-1,839,953,0,0
-378,71,0,0,0,0,0,0,0,0,0,-1,846,953,0,0
-371,71,0,0,0,0,0,0,0,0,0,-1,853,953,0,0
-364,71,0,0,0,0,0,0,0,0,0,-1,860,953,0,0
-357,71,0,0,0,0,0,0,0,0,0,-1,867,953,0,0
-350,71,0,0,0,0,0,0,0,0,0,-1,874,953,0,0
-343,71,0,0,0,0,0,0,0,0,0,-1,881,953,0,0
-336,71,0,0,0,0,0,0,0,0,0,-1,888,953,0,0
-329,71,0,0,0,0,0,0,0,0,0,-1,895,953,0,0
-322,71,0,0,0,0,0,0,0,0,0,-1,902,953,0,0
-315,71,0,0,0,0,0,0,0,0,0,-1,909,953,0,0
-308,71,0,0,0,0,0,0,0,0,0,-1,916,953,0,0
-301,71,0,0,0,0,0,0,0,0,0,-1,923,953,0,0
-294,71,0,0,0,0,0,0,0,0,0,-1,930,953,0,0
-287,71,0,0,0,0,0,0,0,0,0,-1,937,953,0,0
-280,71,0,0,0,0,0,0,0,0,0,-1,944,953,0,0
-273,71,0,0,0,0,0,0,0,0,0,-1,951,953,0,0
-266,71,0,0,0,0,0,0,0,0,0,-1,958,953,0,0
-259,71,0,0,0,0,0,0,0,0,0,-1,965,953,0,0
-252,71,0,0,0,0,0,0,0,0,0,-1,972,953,0,0
-245,71,0,0,0,0,0,0,0,0,0,-1,979,953,0,0
-238,71,0,0,0,0,0,0,0,0,0,-1,986,953,0,0
-231,71,0,0,0,0,0,0,0,0,0,-1,993,953,0,0
-224,71,0,0,0,0,0,0,0,0,0,-1,1000,953,0,0
-217,71,0,0,0,0,0,0,0,0,0,-1,1007,953,0,0
-210,71,0,0,0,0,0,0,0,0,0,-1,1014,953,0,0
-203,71,0,0,0,0,0,0,0,0,0,-1,1021,953,0,0
-196,71,0,0,0,0,0,0,0,0,0,-1,1028,953,0,0
-189,71,0,0,0,0,0,0,0,0,0,-1,1035,953,0,0
-182,71,0,0,0,0,0,0,0,0,0,-1,1042,953,0,0
-175,71,0,0,0,0,0,0,0,0,0,-1,1049,953,0,0
-168,71,0,0,0,0,0,0,0,0,0,-1,1056,953,0,0
-161,71,0,0,0,0,0,0,0,0,0,-1,1063,953,0,0
-154,71,0,0,0,0,0,0,0,0,0,-1,1070,953,0,0
-147,71,0,0,0,0,0,0,0,0,0,-1,1077,953,0,0
-140,71,0,0,0,0,0,0,0,0,0,-1,1084,953,0,0
-133,71,0,0,0,0,0,0,0,0,0,-1,1091,953,0,0
-126,71,0,0,0,0,0,0,0,0,0,-1,1098,953,0,0
-119,71,0,0,0,0,0,0,0,0,0,-1,1105,953,0,0
-112,71,0,0,0,0,0,0,0,0,0,-1,1112,953,0,0
-105,71,0,0,0,0,0,0,0,0,0,-1,1119,953,0,0
-98,71,0,0,0,0,0,0,0,0,0,-1,1126,953,0,0
-91,71,0,0,0,0,0,0,0,0,0,-1,1133,953,0,0
-84,71,0,0,0,0,0,0,0,0,0,-1,1140,953,0,0
-77,71,0,0,0,0,0,0,0,0,0,-1,1147,953,0,0
-70,71,0,0,0,0,0,0,0,0,0,-1,1154,953,0,0
-63,71,0,0,0,0,0,0,0,0,0,-1,1161,953,0,0
-56,71,0,0,0,0,0,0,0,0,0,-1,1168,953,0,0
-49,71,0,0,0,0,0,0,0,0,0,-1,1175,953,0,0
-42,71,0,0,0,0,0,0,0,0,0,-1,1182,953,0,0
-35,71,0,0,0,0,0,0,0,0,0,-1,1189,953,0,0
-28,71,0,0,0,0,0,0,0,0,0,-1,1196,953,0,0
-21,71,0,0,0,0,0,0,0,0,0,-1,1203,953,0,0
-14,71,0,0,0,0,0,0,0,0,0,-1,1210,953,0,0
-7,71,0,0,0,0,0,0,0,0,0,-1,1217,953,0,0
0,71,0,0,0,0,0,0,0,0,0,-1,1224,953,0,0
7,71,0,0,0,0,0,0,0,0,0,-1,1231,953,0,0
14,71,0,0,0,0,0,0,0,0,0,-1,1238,953,0,0
21,71,0,0,0,0,0,0,0,0,0,-1,1245,953,0,0
28,71,0,0,0,0,0,0,0,0,0,-1,1252,953,0,0
35,71,0,0,0,0,0,0,0,0,0,-1,1259,953,0,0
42,71,0,0,0,0,0,0,0,0,0,-1,1266,953,0,0
49,71,0,0,0,0,0,0,0,0,0,-1,1273,953,0,0
56,71,0,0,0,0,0,0,0,0,0,-1,1280,953,0,0
63,71,0,0,0,0,0,0,0,0,0,-1,1287,953,0,0
70,71,0,0,0,0,0,0,0,0,0,-1,1294,953,0,0
77,71,0,0,0,0,0,0,0,0,0,-1,1301,953,0,0
84,71,0,0,0,0,0,0,0,0,0,-1,1308,953,0,0
91,71,0,0,0,0,0,0,0,0,0,-1,1315,953,0,0
98,71,0,0,0,0,0,0,0,0,0,-1,1322,953,0,0
105,71,0,0,0,0,0,0,0,0,0,-1,1329,953,0,0
112,71,0,0,0,0,0,0,0,0,0,-1,1336,953,0,0
119,71,0,0,0,0,0,0,0,0,0,-1,1343,953,0,0
126,71,0,0,0,0,0,0,0,0,0,-1,1350,953,0,0
133,71,0,0,0,0,0,0,0,0,0,-1,1357,953,0,0
140,71,0,0,0,0,0,0,0,0,0,-1,1364,953,0,0
147,71,0,0,0,0,0,0,0,0,0,-1,1371,953,0,0
154,71,0,0,0,0,0,0,0,0,0,-1,1378,953,0,0
161,71,0,0,0,0,0,0,0,0,0,-1,1385,953,0,0
168,71,0,0,0,0,0,0,0,0,0,-1,1392,953,0,0
175,71,0,0,0,0,0,0,0,0,0,-1,1399,953,0,0
182,71,0,0,0,0,0,0,0,0,0,-1,1406,953,0,0
189,71,0,0,0,0,0,0,0,0,0,-1,1413,953,0,0
196,71,0,0,0,0,0,0,0,0,0,-1,1420,953,0,0
203,71,0,0,0,0,0,0,0,0,0,-1,1427,953,0,0
210,71,0,0,0,0,0,0,0,0,0,-1,1434,953,0,0
217,71,0,0,0,0,0,0,0,0,0,-1,1441,953,0,0
224,71,0,0,0,0,0,0,0,0,0,-1,1448,953,0,0
231,71,0,0,0,0,0,0,0,0,0,-1,1455,953,0,0
238,71,0,0,0,0,0,0,0,0,0,-1,1462,953,0,0
245,71,0,0,0,0,0,0,0,0,0,-1,1469,953,0,0
252,71,0,0,0,0,0,0,0,0,0,-1,1476,953,0,0
259,71,0,0,0,0,0,0,0,0,0,-1,1483,953,0,0
266,71,0,0,0,0,0,0,0,0,0,-1,1490,953,0,0
273,71,0,0,0,0,0,0,0,0,0,-1,1497,953,0,0
280,71,0,0,0,0,0,0,0,0,0,-1,1504,953,0,0
287,71,0,0,0,0,0,0,0,0,0,-1,1511,953,0,0
294,71,0,0,0,0,0,0,0,0,0,-1,1518,953,0,0
301,71,0,0,0,0,0,0,0,0,0,-1,1525,953,0,0
308,71,0,0,0,0,0,0,0,0,0,-1,1532,953,0,0
315,71,0,0,0,0,0,0,0,0,0,-1,1539,953,0,0
322,71,0,0,0,0,0,0,0,0,0,-1,1546,953,0,0
329,71,0,0,0,0,0,0,0,0,0,-1,1553,953,0,0
336,71,0,0,0,0,0,0,0,0,0,-1,1560,953,0,0
343,71,0,0,0,0,0,0,0,0,0,-1,1567,953,0,0
350,71,0,0,0,0,0,0,0,0,0,-1,1574,953,0,0
357,71,0,0,0,0,0,0,0,0,0,-1,1581,953,0,0
364,71,0,0,0,0,0,0,0,0,0,-1,1588,953,0,0
371,71,0,0,0,0,0,0,0,0,0,-1,1595,953,0,0
378,71,0,0,0,0,0,0,0,0,0,-1,1602,953,0,0
385,71,0,0,0,0,0,0,0,0,0,-1,1609,953,0,0
392,71,0,0,0,0,0,0,0,0,0,-1,1616,953,0,0
399,71,0,0,0,0,0,0,0,0,0,-1,1623,953,0,0
406,71,0,0,0,0,0,0,0,0,0,-1,1630,953,0,0
413,71,0,0,0,0,0,0,0,0,0,-1,1637,953,0,0
420,71,0,0,0,0,0,0,0,0,0,-1,1644,953,0,0
427,71,0,0,0,0,0,0,0,0,0,-1,1651,953,0,0
434,71,0,0,0,0,0,0,0,0,0,-1,1658,953,0,0
441,71,0,0,0,0,0,0,0,0,0,-1,1665,953,0,0
448,71,0,0,0,0,0,0,0,0,0,-1,1672,953,0,0
455,71,0,0,0,0,0,0,0,0,0,-1,1679,953,0,0
462,71,0,0,0,0,0,0,0,0,0,-1,1686,953,0,0
469,71,0,0,0,0,0,0,0,0,0,-1,1693,953,0,0
476,71,0,0,0,0,0,0,0,0,0,-1,1700,953,0,0
483,71,0,0,0,0,0,0,0,0,0,-1,1707,953,0,0
490,71,0,0,0,0,0,0,0,0,0,-1,1714,953,0,0
497,71,0,0,0,0,0,0,0,0,0,-1,1721,953,0,0
504,71,0,0,0,0,0,0,0,0,0,-1,1728,953,0,0
511,71,0,0,0,0,0,0,0,0,0,-1,1735,953,0,0
518,71,0,0,0,0,0,0,0,0,0,-1,1742,953,0,0
525,71,0,0,0,0,0,0,0,0,0,-1,1749,953,0,0
532,71,0,0,0,0,0,0,0,0,0,-1,1756,953,0,0
539,71,0,0,0,0,0,0,0,0,0,-1,1763,953,0,0
546,71,0,0,0,0,0,0,0,0,0,-1,1770,953,0,0
553,71,0,0,0,0,0,0,0,0,0,-1,1777,953,0,0
560,71,0,0,0,0,0,0,0,0,0,-1,1784,953,0,0
567,71,0,0,0,0,0,0,0,0,0,-1,1791,953,0,0
574,71,0,0,0,0,0,0,0,0,0,-1,1798,953,0,0
581,71,0,0,0,0,0,0,0,0,0,-1,1805,953,0,0
588,71,0,0,0,0,0,0,0,0,0,-1,1812,953,0,0
595,71,0,0,0,0,0,0,0,0,0,-1,1819,953,0,0
602,71,0,0,0,0,0,0,0,0,0,-1,1826,953,0,0
609,71,0,0,0,0,0,0,0,0,0,-1,1833,953,0,0
616,71,0,0,0,0,0,0,0,0,0,-1,1840,953,0,0
623,71,0,0,0,0,0,0,0,0,0,-1,1847,953,0,0
630,71,0,0,0,0,0,0,0,0,0,-1,1854,953,0,0
637,71,44.66,2.82257,0.00174005,-0.00144133,-0.00245268,0.00307271,-0.00277399,-0.49772,0.00337706,0.0415916,1861,953,44.66,-2.82256
644,71,44.4078,2.75446,0.00112719,-0.000784226,-0.0020366,0.00242118,-0.00207822,-0.566019,0.00260024,0.0432959,1868,953,44.4078,-2.75445
651,71,44.5787,2.64764,0.00064076,-0.000489885,-0.00152448,0.00170137,-0.00155049,-0.607844,0.00187813,0.0403618,1875,953,44.5788,-2.64762
658,71,44.7732,2.74176,0.000183199,-0.00023196,-0.00103131,0.00102762,-0.00107638,-0.686087,0.00121485,0.0384139,1882,953,44.7732,-2.74179
665,71,44.8303,2.90674,-0.000189169,6.2396e-05,-0.000520757,0.000472346,-0.000599118,-0.903897,0.000620052,0.039799,1889,953,44.8304,-2.90677
672,71,44.7068,2.81665,-0.000773515,0.000123203,4.36777e-06,0.000123224,-0.000773537,1.56593,0.000561293,0.0416901,1896,953,44.7068,-2.81666
679,71,44.5229,2.57965,-0.00132684,4.64062e-06,0.000467068,0.000152143,-0.00147434,1.2649,0.00103733,0.0402704,1903,953,44.523,-2.57964
686,71,44.5659,2.5459,-0.00158101,-0.000168057,0.000654204,8.83224e-05,-0.00183739,1.1973,0.0012554,0.0364596,1910,953,44.566,-2.54587
693,71,44.6189,2.56152,-0.00175987,-0.000312703,0.000725804,-1.14139e-05,-0.00206116,1.17733,0.00137032,0.0307281,1917,953,44.6189,-2.56151
700,71,44.5829,2.63751,-0.00216424,-0.000323396,0.000741243,-6.20317e-05,-0.0024256,1.2318,0.00159679,0.0360039,1924,953,44.5829,-2.6375
707,71,44.6151,2.86957,0,0,0,0,0,0,0,-1,1931,953,44.6151,-2.86955
714,71,42.8865,4.32428,0,0,0,0,0,0,0,-1,1938,953,42.8864,-4.3243
721,71,42.6898,4.59515,-0.00333077,0.000525642,0.000244169,0.000541041,-0.00334617,1.50782,0.00243128,0.0416082,1945,953,42.6898,-4.59514
728,71,42.5242,4.98718,-0.00376134,0.00109448,0.000119816,0.00109743,-0.00376429,1.54614,0.00294432,0.0252691,1952,953,42.5241,-4.98721
735,71,42.5625,5.32172,-0.00372349,0.00182247,-2.9231e-05,0.00182262,-0.00372365,-1.56553,0.00326424,0.0191184,1959,953,42.5625,-5.3217
742,71,42.6068,5.59564,-0.00280067,0.0018727,-0.000871513,0.00202993,-0.0029579,-1.3923,0.00289629,0.0197599,1966,953,42.6068,-5.59563
749,71,42.5587,5.8512,-0.00109927,0.00150906,-0.00223314,0.00279097,-0.00238118,-1.04969,0.00298926,0.0204479,1973,953,42.5588,-5.85117
756,71,42.5133,6.12354,0.00249538,-0.000229462,-0.00455621,0.00588851,-0.00362259,-0.640117,0.00554294,0.0185431,1980,953,42.5133,-6.12352
763,71,42.4617,6.44507,0.00786476,-0.00324598,-0.00750956,0.0116505,-0.00703168,-0.466936,0.0108955,0.0205527,1987,953,42.4617,-6.44505
770,71,42.2579,6.63666,0.0154408,-0.008387,-0.0116008,0.0201558,-0.0131019,-0.386041,0.0193448,0.0248608,1994,953,42.258,-6.63667
777,71,42.1449,7.01459,0.0256392,-0.0164517,-0.0172713,0.0318189,-0.0226314,-0.343608,0.0315857,0.0456286,2001,953,42.1449,-7.01459
784,71,42.0994,7.46973,0,0,0,0,0,0,0,-1,2008,953,42.0994,-7.4697
791,71,43.0098,6.13232,0.0580467,-0.0454594,-0.0362769,0.0694949,-0.0569076,-0.305686,0.073099,0.0426251,2015,953,43.0098,-6.13235
798,71,43.6797,5.65979,0.08116,-0.0676323,-0.0510185,0.0969729,-0.0834452,-0.300555,0.104262,0.0460361,2022,953,43.6796,-5.65978
805,71,44.1985,5.08685,0.108454,-0.0952874,-0.0698593,0.130106,-0.11694,-0.300554,0.1427,0.0479633,2029,953,44.1985,-5.08686
812,71,0,0,0,0,0,0,0,0,0,-1,2036,953,0,0
-700,64,0,0,0,0,0,0,0,0,0,-1,524,960,0,0
-693,64,0,0,0,0,0,0,0,0,0,-1,531,960,0,0
-686,64,-32.1537,9.16119,0.0472451,-0.0664425,-0.0222678,0.0514511,-0.0706485,-0.186681,0.070784,0.0479554,538,960,-32.1537,-9.16119
-679,64,-31.7472,8.4632,0.0358002,-0.0410905,-0.0228774,0.0420921,-0.0473824,-0.268391,0.0516883,0.0475153,545,960,-31.7472,-8.46322
-672,64,-31.2856,7.73822,0.0259484,-0.0227179,-0.0212068,0.0338926,-0.0306621,-0.358428,0.0372863,0.0483408,552,960,-31.2856,-7.73821
-665,64,-30.7302,6.6698,0.0176904,-0.00952637,-0.0183861,0.0269564,-0.0187924,-0.466817,0.0265529,0.0454492,559,960,-30.7302,-6.66979
-658,64,-31.6964,4.87756,0,0,0,0,0,0,0,-1,566,960,-31.6963,-4.87755
-651,64,-31.8707,4.55841,0.00586921,0.00531255,-0.0114035,0.0169978,-0.00581606,-0.773197,0.0136888,0.0495933,573,960,-31.8707,-4.55841
-644,64,-31.9443,4.17389,0.00213876,0.00835336,-0.00802175,0.0138486,-0.00335648,-0.970179,0.0105311,0.0351632,580,960,-31.9443,-4.17386
-637,64,-32.0622,3.85425,-0.000851363,0.0102045,-0.0056513,0.012582,-0.00322882,-1.17258,0.0096461,0.0180119,587,960,-32.0622,-3.85428
-630,64,-32.1183,3.64471,-0.00287592,0.011331,-0.00385576,0.01231,-0.00385492,-1.32215,0.0097491,0.0141549,594,960,-32.1184,-3.64473
-623,64,-32.1442,3.40363,-0.00456518,0.00946488,-0.00231423,0.00983675,-0.00493705,-1.41147,0.00868461,0.0137831,601,960,-32.1441,-3.40364
-616,64,-32.1675,3.13715,-0.00576026,0.00718206,-0.00159144,0.00737488,-0.00595308,-1.45022,0.00770948,0.0172927,608,960,-32.1676,-3.13717
-609,64,-32.1313,2.91266,-0.00663646,0.00456072,-0.00137344,0.00472672,-0.00680247,-1.45051,0.00669225,0.0173769,615,960,-32.1313,-2.91268
-602,64,-32.0941,2.66028,-0.00685485,0.00268812,-0.00193082,0.00306398,-0.00723071,-1.37854,0.00610376,0.017245,622,960,-32.0941,-2.66026
-595,64,-32.1074,2.43066,-0.00701016,0.00113986,-0.00240353,0.00179588,-0.00766618,-1.30435,0.0058028,0.0186892,629,960,-32.1073,-2.43065
-588,64,-32.08,2.26514,-0.00697658,0.000231635,-0.00307126,0.00136274,-0.00810768,-1.21792,0.00591196,0.0299148,636,960,-32.0799,-2.26512
-581,64,-32.3636,1.70868,-0.00687305,-1.7779e-05,-0.00359011,0.00151821,-0.00840904,-1.16652,0.00617463,0.0408838,643,960,-32.3636,-1.70865
-574,64,-32.9135,1.16083,-0.00674009,-0.000146916,-0.00381841,0.00160107,-0.00848808,-1.14149,0.00626102,0.0405659,650,960,-32.9134,-1.16086
-567,64,-33.0157,0.947876,-0.00651342,-4.35965e-05,-0.00391579,0.00180067,-0.00835769,-1.13063,0.00625896,0.0254664,657,960,-33.0158,-0.947864
-560,64,-33.0875,1.10132,-0.0058158,0.000283883,-0.00383987,0.00213773,-0.00766965,-1.12101,0.00595498,0.0349289,664,960,-33.0875,-1.10132
-553,64,-32.7715,0.688721,0,0,0,0,0,0,0,-1,671,960,-32.7715,-0.688706
-546,64,-32.9604,1.28357,-0.00309233,0.00147935,-0.00329144,0.00320084,-0.00481381,-1.0889,0.00465839,0.0395256,678,960,-32.9604,-1.28359
-539,64,-33.0112,0.944641,-0.00117455,0.00223392,-0.0028862,0.00388148,-0.00282211,-1.05209,0.0038864,0.0410976,685,960,-33.0113,-0.944652
-532,64,-33.0037,0.618164,0.000776526,0.00308732,-0.00280245,0.0049632,-0.00109936,-0.980922,0.00372966,0.0419957,692,960,-33.0037,-0.618171
-525,64,-32.9976,0.742432,0.000654765,0.00446693,-0.00384258,0.0068502,-0.00172851,-1.01564,0.0052389,0.0428465,699,960,-32.9976,-0.742434
-518,64,0,0,0,0,0,0,0,0,0,-1,706,960,0,0
-511,64,0,0,0,0,0,0,0,0,0,-1,713,960,0,0
-504,64,0,0,0,0,0,0,0,0,0,-1,720,960,0,0
-497,64,0,0,0,0,0,0,0,0,0,-1,727,960,0,0
-490,64,0,0,0,0,0,0,0,0,0,-1,734,960,0,0
-483,64,0,0,0,0,0,0,0,0,0,-1,741,960,0,0
-476,64,0,0,0,0,0,0,0,0,0,-1,748,960,0,0
-469,64,0,0,0,0,0,0,0,0,0,-1,755,960,0,0
-462,64,0,0,0,0,0,0,0,0,0,-1,762,960,0,0
-455,64,0,0,0,0,0,0,0,0,0,-1,769,960,0,0
-448,64,0,0,0,0,0,0,0,0,0,-1,776,960,0,0
-441,64,0,0,0,0,0,0,0,0,0,-1,783,960,0,0
-434,64,0,0,0,0,0,0,0,0,0,-1,790,960,0,0
-427,64,0,0,0,0,0,0,0,0,0,-1,797,960,0,0
-420,64,0,0,0,0,0,0,0,0,0,-1,804,960,0,0
-413,64,0,0,0,0,0,0,0,0,0,-1,811,960,0,0
-406,64,0,0,0,0,0,0,0,0,0,-1,818,960,0,0
-399,64,0,0,0,0,0,0,0,0,0,-1,825,960,0,0
-392,64,0,0,0,0,0,0,0,0,0,-1,832,960,0,0
-385,64,0,0,0,0,0,0,0,0,0,-1,839,960,0,0
-378,64,0,0,0,0,0,0,0,0,0,-1,846,960,0,0
-371,64,0,0,0,0,0,0,0,0,0,-1,853,960,0,0
-364,64,0,0,0,0,0,0,0,0,0,-1,860,960,0,0
-357,64,0,0,0,0,0,0,0,0,0,-1,867,960,0,0
-350,64,0,0,0,0,0,0,0,0,0,-1,874,960,0,0
-343,64,0,0,0,0,0,0,0,0,0,-1,881,960,0,0
-336,64,0,0,0,0,0,0,0,0,0,-1,888,960,0,0
-329,64,0,0,0,0,0,0,0,0,0,-1,895,960,0,0
-322,64,0,0,0,0,0,0,0,0,0,-1,902,960,0,0
-315,64,0,0,0,0,0,0,0,0,0,-1,909,960,0,0
-308,64,0,0,0,0,0,0,0,0,0,-1,916,960,0,0
-301,64,0,0,0,0,0,0,0,0,0,-1,923,960,0,0
-294,64,0,0,0,0,0,0,0,0,0,-1,930,960,0,0
-287,64,0,0,0,0,0,0,0,0,0,-1,937,960,0,0
-280,64,0,0,0,0,0,0,0,0,0,-1,944,960,0,0
-273,64,0,0,0,0,0,0,0,0,0,-1,951,960,0,0
-266,64,0,0,0,0,0,0,0,0,0,-1,958,960,0,0
-259,64,0,0,0,0,0,0,0,0,0,-1,965,960,0,0
-252,64,0,0,0,0,0,0,0,0,0,-1,972,960,0,0
-245,64,0,0,0,0,0,0,0,0,0,-1,979,960,0,0
-238,64,0,0,0,0,0,0,0,0,0,-1,986,960,0,0
-231,64,0,0,0,0,0,0,0,0,0,-1,993,960,0,0
-224,64,0,0,0,0,0,0,0,0,0,-1,1000,960,0,0
-217,64,0,0,0,0,0,0,0,0,0,-1,1007,960,0,0
-210,64,0,0,0,0,0,0,0,0,0,-1,1014,960,0,0
-203,64,0,0,0,0,0,0,0,0,0,-1,1021,960,0,0
-196,64,0,0,0,0,0,0,0,0,0,-1,1028,960,0,0
-189,64,0,0,0,0,0,0,0,0,0,-1,1035,960,0,0
-182,64,0,0,0,0,0,0,0,0,0,-1,1042,960,0,0
-175,64,0,0,0,0,0,0,0,0,0,-1,1049,960,0,0
-168,64,0,0,0,0,0,0,0,0,0,-1,1056,960,0,0
-161,64,0,0,0,0,0,0,0,0,0,-1,1063,960,0,0
-154,64,0,0,0,0,0,0,0,0,0,-1,1070,960,0,0
-147,64,0,0,0,0,0,0,0,0,0,-1,1077,960,0,0
-140,64,0,0,0,0,0,0,0,0,0,-1,1084,960,0,0
-133,64,0,0,0,0,0,0,0,0,0,-1,1091,960,0,0
-126,64,0,0,0,0,0,0,0,0,0,-1,1098,960,0,0
-119,64,0,0,0,0,0,0,0,0,0,-1,1105,960,0,0
-112,64,0,0,0,0,0,0,0,0,0,-1,1112,960,0,0
-105,64,0,0,0,0,0,0,0,0,0,-1,1119,960,0,0
-98,64,0,0,0,0,0,0,0,0,0,-1,1126,960,0,0
-91,64,0,0,0,0,0,0,0,0,0,-1,1133,960,0,0
-84,64,0,0,0,0,0,0,0,0,0,-1,1140,960,0,0
-77,64,0,0,0,0,0,0,0,0,0,-1,1147,960,0,0
-70,64,0,0,0,0,0,0,0,0,0,-1,1154,960,0,0
-63,64,0,0,0,0,0,0,0,0,0,-1,1161,960,0,0
-56,64,0,0,0,0,0,0,0,0,0,-1,1168,960,0,0
-49,64,0,0,0,0,0,0,0,0,0,-1,1175,960,0,0
-42,64,0,0,0,0,0,0,0,0,0,-1,1182,960,0,0
-35,64,0,0,0,0,0,0,0,0,0,-1,1189,960,0,0
-28,64,0,0,0,0,0,0,0,0,0,-1,1196,960,0,0
-21,64,0,0,0,0,0,0,0,0,0,-1,1203,960,0,0
-14,64,0,0,0,0,0,0,0,0,0,-1,1210,960,0,0
-7,64,0,0,0,0,0,0,0,0,0,-1,1217,960,0,0
0,64,0,0,0,0,0,0,0,0,0,-1,1224,960,0,0
7,64,0,0,0,0,0,0,0,0,0,-1,1231,960,0,0
14,64,0,0,0,0,0,0,0,0,0,-1,1238,960,0,0
21,64,0,0,0,0,0,0,0,0,0,-1,1245,960,0,0
28,64,0,0,0,0,0,0,0,0,0,-1,1252,960,0,0
35,64,0,0,0,0,0,0,0,0,0,-1,1259,960,0,0
42,64,0,0,0,0,0,0,0,0,0,-1,1266,960,0,0
49,64,0,0,0,0,0,0,0,0,0,-1,1273,960,0,0
56,64,0,0,0,0,0,0,0,0,0,-1,1280,960,0,0
63,64,0,0,0,0,0,0,0,0,0,-1,1287,960,0,0
70,64,0,0,0,0,0,0,0,0,0,-1,1294,960,0,0
77,64,0,0,0,0,0,0,0,0,0,-1,1301,960,0,0
84,64,0,0,0,0,0,0,0,0,0,-1,1308,960,0,0
91,64,0,0,0,0,0,0,0,0,0,-1,1315,960,0,0
98,64,0,0,0,0,0,0,0,0,0,-1,1322,960,0,0
105,64,0,0,0,0,0,0,0,0,0,-1,1329,960,0,0
112,64,0,0,0,0,0,0,0,0,0,-1,1336,960,0,0
119,64,0,0,0,0,0,0,0,0,0,-1,1343,960,0,0
126,64,0,0,0,0,0,0,0,0,0,-1,1350,960,0,0
133,64,0,0,0,0,0,0,0,0,0,-1,1357,960,0,0
140,64,0,0,0,0,0,0,0,0,0,-1,1364,960,0,0
147,64,0,0,0,0,0,0,0,0,0,-1,1371,960,0,0
154,64,0,0,0,0,0,0,0,0,0,-1,1378,960,0,0
161,64,0,0,0,0,0,0,0,0,0,-1,1385,960,0,0
168,64,0,0,0,0,0,0,0,0,0,-1,1392,960,0,0
175,64,0,0,0,0,0,0,0,0,0,-1,1399,960,0,0
182,64,0,0,0,0,0,0,0,0,0,-1,1406,960,0,0
189,64,0,0,0,0,0,0,0,0,0,-1,1413,960,0,0
196,64,0,0,0,0,0,0,0,0,0,-1,1420,960,0,0
203,64,0,0,0,0,0,0,0,0,0,-1,1427,960,0,0
210,64,0,0,0,0,0,0,0,0,0,-1,1434,960,0,0
217,64,0,0,0,0,0,0,0,0,0,-1,1441,960,0,0
224,64,0,0,0,0,0,0,0,0,0,-1,1448,960,0,0
231,64,0,0,0,0,0,0,0,0,0,-1,1455,960,0,0
238,64,0,0,0,0,0,0,0,0,0,-1,1462,960,0,0
245,64,0,0,0,0,0,0,0,0,0,-1,1469,960,0,0
252,64,0,0,0,0,0,0,0,0,0,-1,1476,960,0,0
259,64,0,0,0,0,0,0,0,0,0,-1,1483,960,0,0
266,64,0,0,0,0,0,0,0,0,0,-1,1490,960,0,0
273,64,0,0,0,0,0,0,0,0,0,-1,1497,960,0,0
280,64,0,0,0,0,0,0,0,0,0,-1,1504,960,0,0
287,64,0,0,0,0,0,0,0,0,0,-1,1511,960,0,0
294,64,0,0,0,0,0,0,0,0,0,-1,1518,960,0,0
301,64,0,0,0,0,0,0,0,0,0,-1,1525,960,0,0
308,64,0,0,0,0,0,0,0,0,0,-1,1532,960,0,0
315,64,0,0,0,0,0,0,0,0,0,-1,1539,960,0,0
322,64,0,0,0,0,0,0,0,0,0,-1,1546,960,0,0
329,64,0,0,0,0,0,0,0,0,0,-1,1553,960,0,0
336,64,0,0,0,0,0,0,0,0,0,-1,1560,960,0,0
343,64,0,0,0,0,0,0,0,0,0,-1,1567,960,0,0
350,64,0,0,0,0,0,0,0,0,0,-1,1574,960,0,0
357,64,0,0,0,0,0,0,0,0,0,-1,1581,960,0,0
364,64,0,0,0,0,0,0,0,0,0,-1,1588,960,0,0
371,64,0,0,0,0,0,0,0,0,0,-1,1595,960,0,0
378,64,0,0,0,0,0,0,0,0,0,-1,1602,960,0,0
385,64,0,0,0,0,0,0,0,0,0,-1,1609,960,0,0
392,64,0,0,0,0,0,0,0,0,0,-1,1616,960,0,0
399,64,0,0,0,0,0,0,0,0,0,-1,1623,960,0,0
406,64,0,0,0,0,0,0,0,0,0,-1,1630,960,0,0
413,64,0,0,0,0,0,0,0,0,0,-1,1637,960,0,0
420,64,0,0,0,0,0,0,0,0,0,-1,1644,960,0,0
427,64,0,0,0,0,0,0,0,0,0,-1,1651,960,0,0
434,64,0,0,0,0,0,0,0,0,0,-1,1658,960,0,0
441,64,0,0,0,0,0,0,0,0,0,-1,1665,960,0,0
448,64,0,0,0,0,0,0,0,0,0,-1,1672,960,0,0
455,64,0,0,0,0,0,0,0,0,0,-1,1679,960,0,0
462,64,0,0,0,0,0,0,0,0,0,-1,1686,960,0,0
469,64,0,0,0,0,0,0,0,0,0,-1,1693,960,0,0
476,64,0,0,0,0,0,0,0,0,0,-1,1700,960,0,0
483,64,0,0,0,0,0,0,0,0,0,-1,1707,960,0,0
490,64,0,0,0,0,0,0,0,0,0,-1,1714,960,0,0
497,64,0,0,0,0,0,0,0,0,0,-1,1721,960,0,0
504,64,0,0,0,0,0,0,0,0,0,-1,1728,960,0,0
511,64,0,0,0,0,0,0,0,0,0,-1,1735,960,0,0
518,64,0,0,0,0,0,0,0,0,0,-1,1742,960,0,0
525,64,0,0,0,0,0,0,0,0,0,-1,1749,960,0,0
532,64,0,0,0,0,0,0,0,0,0,-1,1756,960,0,0
539,64,0,0,0,0,0,0,0,0,0,-1,1763,960,0,0
546,64,0,0,0,0,0,0,0,0,0,-1,1770,960,0,0
553,64,0,0,0,0,0,0,0,0,0,-1,1777,960,0,0
560,64,0,0,0,0,0,0,0,0,0,-1,1784,960,0,0
567,64,0,0,0,0,0,0,0,0,0,-1,1791,960,0,0
574,64,0,0,0,0,0,0,0,0,0,-1,1798,960,0,0
581,64,0,0,0,0,0,0,0,0,0,-1,1805,960,0,0
588,64,0,0,0,0,0,0,0,0,0,-1,1812,960,0,0
595,64,0,0,0,0,0,0,0,0,0,-1,1819,960,0,0
602,64,0,0,0,0,0,0,0,0,0,-1,1826,960,0,0
609,64,0,0,0,0,0,0,0,0,0,-1,1833,960,0,0
616,64,0,0,0,0,0,0,0,0,0,-1,1840,960,0,0
623,64,0,0,0,0,0,0,0,0,0,-1,1847,960,0,0
630,64,0,0,0,0,0,0,0,0,0,-1,1854,960,0,0
637,64,0,0,0,0,0,0,0,0,0,-1,1861,960,0,0
644,64,44.4857,2.9032,0.00151986,0.000265036,-0.00170959,0.00271354,-0.000928639,-0.609531,0.00218536,0.0428456,1868,960,44.4857,-2.90318
651,64,44.6505,2.81738,0.000967764,0.000378411,-0.00126888,0.00197574,-0.000629561,-0.671304,0.00156967,0.0402329,1875,960,44.6505,-2.81739
658,64,44.6936,2.76892,0.000430481,0.000453698,-0.000834493,0.00127666,-0.000392484,-0.792353,0.00100774,0.037746,1882,960,44.6935,-2.76895
665,64,44.6442,2.72339,-2.14535e-05,0.000615365,-0.000358891,0.000776734,-0.000182822,-1.14825,0.00058831,0.0400312,1889,960,44.6442,-2.72342
672,64,44.632,2.67841,-0.000672081,0.000624576,0.000162836,0.000644712,-0.000692218,1.44776,0.000772039,0.043781,1896,960,44.632,-2.67842
679,64,44.5557,2.59204,-0.00132107,0.000474925,0.000648441,0.000684571,-0.00153072,1.2581,0.00130973,0.0409004,1903,960,44.5557,-2.59207
686,64,44.5309,2.63763,-0.0016503,0.000259185,0.000892202,0.000611178,-0.00200229,1.19502,0.00157853,0.0348167,1910,960,44.5309,-2.63763
693,64,44.61,2.63916,-0.00187473,7.4617e-05,0.000993283,0.000491562,-0.00229167,1.17337,0.00171528,0.0307637,1917,960,44.61,-2.63913
700,64,44.6232,2.66711,-0.00231683,1.73109e-05,0.00100239,0.000388693,-0.00268822,1.21598,0.00193477,0.0315467,1924,960,44.6232,-2.66714
707,64,44.7189,2.7644,0,0,0,0,0,0,0,-1,1931,960,44.7189,-2.76442
714,64,43.6827,4.46698,0,0,0,0,0,0,0,-1,1938,960,43.6827,-4.46696
721,64,43.0468,4.61444,-0.00373931,0.000869744,0.000544332,0.000933158,-0.00380272,1.45482,0.00289674,0.0402557,1945,960,43.0468,-4.61444
728,64,42.806,5.01495,-0.00418576,0.00148689,0.000389266,0.00151348,-0.00421234,1.5026,0.00342603,0.0189921,1952,960,42.8061,-5.01495
735,64,42.8112,5.35156,-0.00416174,0.00221923,0.000193885,0.00222512,-0.00416763,1.54045,0.00374722,0.0272577,1959,960,42.8111,-5.35159
742,64,42.9071,5.59357,-0.00326234,0.00227293,-0.000650689,0.00234839,-0.0033378,-1.45534,0.00329945,0.0247529,1966,960,42.9071,-5.59359
749,64,42.8705,5.8468,-0.00168931,0.00198171,-0.00198665,0.00285099,-0.00255859,-1.15834,0.00312474,0.0172831,1973,960,42.8705,-5.8468
756,64,42.8285,6.12701,0.00165479,0.000480282,-0.00422426,0.00533242,-0.00319735,-0.716331,0.00497583,0.0160006,1980,960,42.8285,-6.12701
763,64,42.8124,6.43616,0.00680249,-0.00223841,-0.00708163,0.0106835,-0.00611939,-0.501333,0.0098197,0.0180017,1987,960,42.8124,-6.43615
770,64,42.6284,6.60498,0.0142741,-0.00705268,-0.0110569,0.0189718,-0.0117504,-0.401757,0.0179,0.0193166,1994,960,42.6285,-6.60501
777,64,42.4796,6.91467,0.0243771,-0.0146571,-0.0165098,0.0304235,-0.0207035,-0.35106,0.0296954,0.0359151,2001,960,42.4796,-6.9147
784,64,42.7329,6.80487,0.0381308,-0.02614,-0.0241126,0.0461713,-0.0341805,-0.321861,0.046563,0.0425879,2008,960,42.7329,-6.80486
791,64,43.4619,6.85437,0.0567153,-0.0424375,-0.0347071,0.0676567,-0.0533789,-0.305388,0.0700418,0.045448,2015,960,43.4618,-6.85435
798,64,44.1897,6.53931,0.080213,-0.0640892,-0.048957,0.0952546,-0.0791308,-0.298087,0.100825,0.04775,2022,960,44.1898,-6.53931
805,64,44.9316,5.92487,0.108447,-0.0915592,-0.0673832,0.12903,-0.112143,-0.296467,0.139355,0.0469372,2029,960,44.9317,-5.92485
812,64,0,0,0,0,0,0,0,0,0,-1,2036,960,0,0
-700,57,0,0,0,0,0,0,0,0,0,-1,524,967,0,0
-693,57,0,0,0,0,0,0,0,0,0,-1,531,967,0,0
-686,57,-32.6341,10.4014,0,0,0,0,0,0,0,-1,538,967,-32.6341,-10.4014
-679,57,-31.8508,8.51239,0,0,0,0,0,0,0,-1,545,967,-31.8508,-8.51239
-672,57,-31.5807,7.38629,0,0,0,0,0,0,0,-1,552,967,-31.5807,-7.38626
-665,57,-31.1804,5.91272,0,0,0,0,0,0,0,-1,559,967,-31.1804,-5.9127
-658,57,-32.0373,4.62695,0,0,0,0,0,0,0,-1,566,967,-32.0373,-4.62695
-651,57,-32.2413,4.28949,0.00380425,0.00731217,-0.00962403,0.0153408,-0.00422435,-0.875533,0.0118882,0.0480307,573,967,-32.2413,-4.28949
-644,57,-32.3792,3.91687,0.000531404,0.0100615,-0.00676339,0.0135698,-0.00297696,-1.09228,0.0101849,0.0324352,580,967,-32.3792,-3.91685
-637,57,-32.3394,3.72394,-0.00212405,0.0117366,-0.0048921,0.0132894,-0.00367676,-1.26346,0.0103061,0.0195655,587,967,-32.3393,-3.72393
-630,57,-32.4012,3.55212,-0.00368718,0.0124742,-0.00353536,0.0132137,-0.00442672,-1.36459,0.0105975,0.0142984,594,967,-32.4012,-3.55214
-623,57,-32.4225,3.37402,-0.00487048,0.0102003,-0.00236401,0.0105625,-0.0052326,-1.4188,0.00929073,0.012685,601,967,-32.4225,-3.374
-616,57,-32.4402,3.15594,-0.00563891,0.00769067,-0.00198603,0.00798029,-0.00592852,-1.42599,0.00805933,0.014675,608,967,-32.4403,-3.15592
-609,57,-32.4284,2.92743,-0.00616228,0.00494105,-0.00204308,0.00530505,-0.00652629,-1.39448,0.00684295,0.0148524,615,967,-32.4284,-2.92743
-602,57,-32.3929,2.68011,-0.00615704,0.00288678,-0.00266361,0.00361296,-0.00688322,-1.30463,0.00615724,0.011527,622,967,-32.3929,-2.68013
-595,57,-32.3836,2.48096,-0.00619955,0.00121499,-0.00319411,0.0024012,-0.00738577,-1.21521,0.00588973,0.0133303,629,967,-32.3836,-2.48098
-588,57,-32.3809,2.32959,-0.00606611,0.000206539,-0.00390252,0.00207683,-0.0079364,-1.12388,0.00610217,0.0214191,636,967,-32.3809,-2.32959
-581,57,-32.6177,1.70905,-0.00585694,-0.000136206,-0.00441084,0.00226054,-0.00825369,-1.07305,0.00639066,0.0316734,643,967,-32.6177,-1.70906
-574,57,-33.0148,1.03815,0,0,0,0,0,0,0,-1,650,967,-33.0148,-1.03815
-567,57,-33.0231,0.916931,-0.00535047,-0.000344593,-0.00456472,0.00235836,-0.00805343,-1.03618,0.00630388,0.0309538,657,967,-33.0231,-0.916951
-560,57,-32.9852,0.742004,-0.00461015,-0.00011071,-0.00432108,0.00251122,-0.00723208,-1.02541,0.00584126,0.0411138,664,967,-32.9852,-0.741998
-553,57,-32.8247,0.727051,-0.00339972,0.000310908,-0.00391206,0.00278531,-0.00587412,-1.00682,0.00510444,0.0417554,671,967,-32.8247,-0.727065
-546,57,-32.8326,0.994019,-0.00171852,0.000865721,-0.00336252,0.00317584,-0.00402864,-0.968835,0.00416921,0.0423255,678,967,-32.8326,-0.994047
-539,57,-33.1119,1.05225,0.000358675,0.00144858,-0.00277525,0.00373188,-0.00192462,-0.882346,0.00332088,0.0446164,685,967,-33.1119,-1.05225
-532,57,-33.1169,0.783936,0.002555,0.00216523,-0.00271791,0.005085,-0.000364774,-0.749607,0.0035179,0.0417044,692,967,-33.1169,-0.783915
-525,57,-33.1407,0.645508,0.00275022,0.00341085,-0.00406172,0.00715566,-0.000994593,-0.825971,0.00513419,0.0428399,699,967,-33.1407,-0.645493
-518,57,0,0,0,0,0,0,0,0,0,-1,706,967,0,0
-511,57,0,0,0,0,0,0,0,0,0,-1,713,967,0,0
-504,57,0,0,0,0,0,0,0,0,0,-1,720,967,0,0
-497,57,0,0,0,0,0,0,0,0,0,-1,727,967,0,0
-490,57,0,0,0,0,0,0,0,0,0,-1,734,967,0,0
-483,57,0,0,0,0,0,0,0,0,0,-1,741,967,0,0
-476,57,0,0,0,0,0,0,0,0,0,-1,748,967,0,0
-469,57,0,0,0,0,0,0,0,0,0,-1,755,967,0,0
-462,57,0,0,0,0,0,0,0,0,0,-1,762,967,0,0
-455,57,0,0,0,0,0,0,0,0,0,-1,769,967,0,0
-448,57,0,0,0,0,0,0,0,0,0,-1,776,967,0,0
-441,57,0,0,0,0,0,0,0,0,0,-1,783,967,0,0
-434,57,0,0,0,0,0,0,0,0,0,-1,790,967,0,0
-427,57,0,0,0,0,0,0,0,0,0,-1,797,967,0,0
-420,57,0,0,0,0,0,0,0,0,0,-1,804,967,0,0
-413,57,0,0,0,0,0,0,0,0,0,-1,811,967,0,0
-406,57,0,0,0,0,0,0,0,0,0,-1,818,967,0,0
-399,57,0,0,0,0,0,0,0,0,0,-1,825,967,0,0
-392,57,0,0,0,0,0,0,0,0,0,-1,832,967,0,0
-385,57,0,0,0,0,0,0,0,0,0,-1,839,967,0,0
-378,57,0,0,0,0,0,0,0,0,0,-1,846,967,0,0
-371,57,0,0,0,0,0,0,0,0,0,-1,853,967,0,0
-364,57,0,0,0,0,0,0,0,0,0,-1,860,967,0,0
-357,57,0,0,0,0,0,0,0,0,0,-1,867,967,0,0
-350,57,0,0,0,0,0,0,0,0,0,-1,874,967,0,0
-343,57,0,0,0,0,0,0,0,0,0,-1,881,967,0,0
-336,57,0,0,0,0,0,0,0,0,0,-1,888,967,0,0
-329,57,0,0,0,0,0,0,0,0,0,-1,895,967,0,0
-322,57,0,0,0,0,0,0,0,0,0,-1,902,967,0,0
-315,57,0,0,0,0,0,0,0,0,0,-1,909,967,0,0
-308,57,0,0,0,0,0,0,0,0,0,-1,916,967,0,0
-301,57,0,0,0,0,0,0,0,0,0,-1,923,967,0,0
-294,57,0,0,0,0,0,0,0,0,0,-1,930,967,0,0
-287,57,0,0,0,0,0,0,0,0,0,-1,937,967,0,0
-280,57,0,0,0,0,0,0,0,0,0,-1,944,967,0,0
-273,57,0,0,0,0,0,0,0,0,0,-1,951,967,0,0
-266,57,0,0,0,0,0,0,0,0,0,-1,958,967,0,0
-259,57,0,0,0,0,0,0,0,0,0,-1,965,967,0,0
-252,57,0,0,0,0,0,0,0,0,0,-1,972,967,0,0
-245,57,0,0,0,0,0,0,0,0,0,-1,979,967,0,0
-238,57,0,0,0,0,0,0,0,0,0,-1,986,967,0,0
-231,57,0,0,0,0,0,0,0,0,0,-1,993,967,0,0
-224,57,0,0,0,0,0,0,0,0,0,-1,1000,967,0,0
-217,57,0,0,0,0,0,0,0,0,0,-1,1007,967,0,0
-210,57,0,0,0,0,0,0,0,0,0,-1,1014,967,0,0
-203,57,0,0,0,0,0,0,0,0,0,-1,1021,967,0,0
-196,57,0,0,0,0,0,0,0,0,0,-1,1028,967,0,0
-189,57,0,0,0,0,0,0,0,0,0,-1,1035,967,0,0
-182,57,0,0,0,0,0,0,0,0,0,-1,1042,967,0,0
-175,57,0,0,0,0,0,0,0,0,0,-1,1049,967,0,0
-168,57,0,0,0,0,0,0,0,0,0,-1,1056,967,0,0
-161,57,0,0,0,0,0,0,0,0,0,-1,1063,967,0,0
-154,57,0,0,0,0,0,0,0,0,0,-1,1070,967,0,0
-147,57,0,0,0,0,0,0,0,0,0,-1,1077,967,0,0
-140,57,0,0,0,0,0,0,0,0,0,-1,1084,967,0,0
-133,57,0,0,0,0,0,0,0,0,0,-1,1091,967,0,0
-126,57,0,0,0,0,0,0,0,0,0,-1,1098,967,0,0
-119,57,0,0,0,0,0,0,0,0,0,-1,1105,967,0,0
-112,57,0,0,0,0,0,0,0,0,0,-1,1112,967,0,0
-105,57,0,0,0,0,0,0,0,0,0,-1,1119,967,0,0
-98,57,0,0,0,0,0,0,0,0,0,-1,1126,967,0,0
-91,57,0,0,0,0,0,0,0,0,0,-1,1133,967,0,0
-84,57,0,0,0,0,0,0,0,0,0,-1,1140,967,0,0
-77,57,0,0,0,0,0,0,0,0,0,-1,1147,967,0,0
-70,57,0,0,0,0,0,0,0,0,0,-1,1154,967,0,0
-63,57,0,0,0,0,0,0,0,0,0,-1,1161,967,0,0
-56,57,0,0,0,0,0,0,0,0,0,-1,1168,967,0,0
-49,57,0,0,0,0,0,0,0,0,0,-1,1175,967,0,0
-42,57,0,0,0,0,0,0,0,0,0,-1,1182,967,0,0
-35,57,0,0,0,0,0,0,0,0,0,-1,1189,967,0,0
-28,57,0,0,0,0,0,0,0,0,0,-1,1196,967,0,0
-21,57,0,0,0,0,0,0,0,0,0,-1,1203,967,0,0
-14,57,0,0,0,0,0,0,0,0,0,-1,1210,967,0,0
-7,57,0,0,0,0,0,0,0,0,0,-1,1217,967,0,0
0,57,0,0,0,0,0,0,0,0,0,-1,1224,967,0,0
7,57,0,0,0,0,0,0,0,0,0,-1,1231,967,0,0
14,57,0,0,0,0,0,0,0,0,0,-1,1238,967,0,0
21,57,0,0,0,0,0,0,0,0,0,-1,1245,967,0,0
28,57,0,0,0,0,0,0,0,0,0,-1,1252,967,0,0
35,57,0,0,0,0,0,0,0,0,0,-1,1259,967,0,0
42,57,0,0,0,0,0,0,0,0,0,-1,1266,967,0,0
49,57,0,0,0,0,0,0,0,0,0,-1,1273,967,0,0
56,57,0,0,0,0,0,0,0,0,0,-1,1280,967,0,0
63,57,0,0,0,0,0,0,0,0,0,-1,1287,967,0,0
70,57,0,0,0,0,0,0,0,0,0,-1,1294,967,0,0
77,57,0,0,0,0,0,0,0,0,0,-1,1301,967,0,0
84,57,0,0,0,0,0,0,0,0,0,-1,1308,967,0,0
91,57,0,0,0,0,0,0,0,0,0,-1,1315,967,0,0
98,57,0,0,0,0,0,0,0,0,0,-1,1322,967,0,0
105,57,0,0,0,0,0,0,0,0,0,-1,1329,967,0,0
112,57,0,0,0,0,0,0,0,0,0,-1,1336,967,0,0
119,57,0,0,0,0,0,0,0,0,0,-1,1343,967,0,0
126,57,0,0,0,0,0,0,0,0,0,-1,1350,967,0,0
133,57,0,0,0,0,0,0,0,0,0,-1,1357,967,0,0
140,57,0,0,0,0,0,0,0,0,0,-1,1364,967,0,0
147,57,0,0,0,0,0,0,0,0,0,-1,1371,967,0,0
154,57,0,0,0,0,0,0,0,0,0,-1,1378,967,0,0
161,57,0,0,0,0,0,0,0,0,0,-1,1385,967,0,0
168,57,0,0,0,0,0,0,0,0,0,-1,1392,967,0,0
175,57,0,0,0,0,0,0,0,0,0,-1,1399,967,0,0
182,57,0,0,0,0,0,0,0,0,0,-1,1406,967,0,0
189,57,0,0,0,0,0,0,0,0,0,-1,1413,967,0,0
196,57,0,0,0,0,0,0,0,0,0,-1,1420,967,0,0
203,57,0,0,0,0,0,0,0,0,0,-1,1427,967,0,0
210,57,0,0,0,0,0,0,0,0,0,-1,1434,967,0,0
217,57,0,0,0,0,0,0,0,0,0,-1,1441,967,0,0
224,57,0,0,0,0,0,0,0,0,0,-1,1448,967,0,0
231,57,0,0,0,0,0,0,0,0,0,-1,1455,967,0,0
238,57,0,0,0,0,0,0,0,0,0,-1,1462,967,0,0
245,57,0,0,0,0,0,0,0,0,0,-1,1469,967,0,0
252,57,0,0,0,0,0,0,0,0,0,-1,1476,967,0,0
259,57,0,0,0,0,0,0,0,0,0,-1,1483,967,0,0
266,57,0,0,0,0,0,0,0,0,0,-1,1490,967,0,0
273,57,0,0,0,0,0,0,0,0,0,-1,1497,967,0,0
280,57,0,0,0,0,0,0,0,0,0,-1,1504,967,0,0
287,57,0,0,0,0,0,0,0,0,0,-1,1511,967,0,0
294,57,0,0,0,0,0,0,0,0,0,-1,1518,967,0,0
301,57,0,0,0,0,0,0,0,0,0,-1,1525,967,0,0
308,57,0,0,0,0,0,0,0,0,0,-1,1532,967,0,0
315,57,0,0,0,0,0,0,0,0,0,-1,1539,967,0,0
322,57,0,0,0,0,0,0,0,0,0,-1,1546,967,0,0
329,57,0,0,0,0,0,0,0,0,0,-1,1553,967,0,0
336,57,0,0,0,0,0,0,0,0,0,-1,1560,967,0,0
343,57,0,0,0,0,0,0,0,0,0,-1,1567,967,0,0
350,57,0,0,0,0,0,0,0,0,0,-1,1574,967,0,0
357,57,0,0,0,0,0,0,0,0,0,-1,1581,967,0,0
364,57,0,0,0,0,0,0,0,0,0,-1,1588,967,0,0
371,57,0,0,0,0,0,0,0,0,0,-1,1595,967,0,0
378,57,0,0,0,0,0,0,0,0,0,-1,1602,967,0,0
385,57,0,0,0,0,0,0,0,0,0,-1,1609,967,0,0
392,57,0,0,0,0,0,0,0,0,0,-1,1616,967,0,0
399,57,0,0,0,0,0,0,0,0,0,-1,1623,967,0,0
406,57,0,0,0,0,0,0,0,0,0,-1,1630,967,0,0
413,57,0,0,0,0,0,0,0,0,0,-1,1637,967,0,0
420,57,0,0,0,0,0,0,0,0,0,-1,1644,967,0,0
427,57,0,0,0,0,0,0,0,0,0,-1,1651,967,0,0
434,57,0,0,0,0,0,0,0,0,0,-1,1658,967,0,0
441,57,0,0,0,0,0,0,0,0,0,-1,1665,967,0,0
448,57,0,0,0,0,0,0,0,0,0,-1,1672,967,0,0
455,57,0,0,0,0,0,0,0,0,0,-1,1679,967,0,0
462,57,0,0,0,0,0,0,0,0,0,-1,1686,967,0,0
469,57,0,0,0,0,0,0,0,0,0,-1,1693,967,0,0
476,57,0,0,0,0,0,0,0,0,0,-1,1700,967,0,0
483,57,0,0,0,0,0,0,0,0,0,-1,1707,967,0,0
490,57,0,0,0,0,0,0,0,0,0,-1,1714,967,0,0
497,57,0,0,0,0,0,0,0,0,0,-1,1721,967,0,0
504,57,0,0,0,0,0,0,0,0,0,-1,1728,967,0,0
511,57,0,0,0,0,0,0,0,0,0,-1,1735,967,0,0
518,57,0,0,0,0,0,0,0,0,0,-1,1742,967,0,0
525,57,0,0,0,0,0,0,0,0,0,-1,1749,967,0,0
532,57,0,0,0,0,0,0,0,0,0,-1,1756,967,0,0
539,57,0,0,0,0,0,0,0,0,0,-1,1763,967,0,0
546,57,0,0,0,0,0,0,0,0,0,-1,1770,967,0,0
553,57,0,0,0,0,0,0,0,0,0,-1,1777,967,0,0
560,57,0,0,0,0,0,0,0,0,0,-1,1784,967,0,0
567,57,0,0,0,0,0,0,0,0,0,-1,1791,967,0,0
574,57,0,0,0,0,0,0,0,0,0,-1,1798,967,0,0
581,57,0,0,0,0,0,0,0,0,0,-1,1805,967,0,0
588,57,0,0,0,0,0,0,0,0,0,-1,1812,967,0,0
595,57,0,0,0,0,0,0,0,0,0,-1,1819,967,0,0
602,57,0,0,0,0,0,0,0,0,0,-1,1826,967,0,0
609,57,0,0,0,0,0,0,0,0,0,-1,1833,967,0,0
616,57,0,0,0,0,0,0,0,0,0,-1,1840,967,0,0
623,57,0,0,0,0,0,0,0,0,0,-1,1847,967,0,0
630,57,0,0,0,0,0,0,0,0,0,-1,1854,967,0,0
637,57,0,0,0,0,0,0,0,0,0,-1,1861,967,0,0
644,57,44.6145,3.0686,0.00194119,0.00154698,-0.0013649,0.00312315,0.000365028,-0.713689,0.00197172,0.0426511,1868,967,44.6145,-3.06858
651,57,44.6713,2.94995,0.00129822,0.00127673,-0.0010062,0.00229374,0.000281218,-0.780059,0.00144457,0.0370156,1875,967,44.6713,-2.94996
658,57,44.7428,2.69238,0.000680634,0.00102491,-0.000635702,0.00151137,0.000194176,-0.917619,0.000949495,0.0369278,1882,967,44.7428,-2.69236
665,57,44.7491,2.54816,0.000171652,0.00093055,-0.000204241,0.000982025,0.000120176,-1.3239,0.000618529,0.0434166,1889,967,44.7492,-2.54814
672,57,44.7506,2.55731,-0.000507508,0.000801684,0.000304215,0.000868921,-0.000574745,1.35328,0.000839249,0.0464122,1896,967,44.7507,-2.55734
679,57,44.6912,2.67261,-0.00122286,0.000582424,0.000802699,0.000887709,-0.00152814,1.20737,0.00141104,0.043318,1903,967,44.6911,-2.67262
686,57,44.5929,2.79669,-0.00159398,0.00031215,0.0010918,0.000808347,-0.00209018,1.14423,0.00172715,0.038906,1910,967,44.5929,-2.7967
693,57,44.5996,2.76947,-0.00184918,0.000106011,0.00122302,0.000694133,-0.0024373,1.12256,0.00189902,0.031167,1917,967,44.5996,-2.76945
700,57,44.6298,2.70758,-0.00230751,2.51767e-05,0.00122953,0.000553563,-0.0028359,1.16491,0.00209959,0.0260056,1924,967,44.6298,-2.70755
707,57,44.6903,2.66565,0,0,0,0,0,0,0,-1,1931,967,44.6903,-2.66563
714,57,44.0421,4.56921,0,0,0,0,0,0,0,-1,1938,967,44.0421,-4.56922
721,57,43.3628,4.68378,-0.00388181,0.000950672,0.000784458,0.00107482,-0.00400596,1.41383,0.00309183,0.0455747,1945,967,43.3627,-4.6838
728,57,43.0994,5.08447,-0.00434469,0.00166037,0.00059745,0.00171923,-0.00440356,1.47259,0.00364648,0.0208829,1952,967,43.0993,-5.08448
735,57,43.1537,5.40533,-0.00433383,0.002434,0.000346794,0.00245172,-0.00435155,1.51973,0.0039786,0.0269045,1959,967,43.1536,-5.40531
742,57,43.1952,5.55243,-0.00356387,0.00251594,-0.000499339,0.00255668,-0.00360461,-1.48939,0.00357433,0.0199689,1966,967,43.1952,-5.55241
749,57,43.1377,5.83838,-0.00229904,0.00232898,-0.00177381,0.00293063,-0.00290069,-1.24379,0.00336673,0.014098,1973,967,43.1377,-5.83836
756,57,43.1061,6.0946,0.000526056,0.00110717,-0.00385585,0.00468339,-0.00305017,-0.823004,0.00449804,0.0113195,1980,967,43.106,-6.09462
763,57,43.0583,6.3266,0.00498386,-0.00125335,-0.00651569,0.00908882,-0.00535831,-0.562195,0.00843323,0.0121188,1987,967,43.0583,-6.32658
770,57,42.9778,6.53113,0.0116907,-0.00563875,-0.0102217,0.016426,-0.0103741,-0.433826,0.015604,0.0124455,1994,967,42.9778,-6.53115
777,57,42.9263,6.73688,0.0208036,-0.0126761,-0.0152476,0.0267069,-0.0185794,-0.36939,0.0262861,0.0270465,2001,967,42.9263,-6.7369
784,57,42.9177,6.88361,0.0331841,-0.023414,-0.0221914,0.0408475,-0.0310773,-0.332508,0.0416533,0.0445482,2008,967,42.9177,-6.88362
791,57,43.998,7.53528,0.0501533,-0.0389482,-0.0319071,0.0604006,-0.0491955,-0.310757,0.0633855,0.049349,2015,967,43.9981,-7.5353
798,57,44.885,7.38043,0,0,0,0,0,0,0,-1,2022,967,44.8849,-7.38045
805,57,45.6848,6.65247,0,0,0,0,0,0,0,-1,2029,967,45.6848,-6.65249
812,57,0,0,0,0,0,0,0,0,0,-1,2036,967,0,0
-700,50,0,0,0,0,0,0,0,0,0,-1,524,974,0,0
-693,50,-33.8374,12.1503,0.0511591,-0.0985128,-0.00416406,0.0512748,-0.0986285,-0.0277926,0.0879744,0.0497138,531,974,-33.8374,-12.1503
-686,50,-33.2953,11.4839,0.0379762,-0.0620499,-0.0108833,0.0391467,-0.0632204,-0.107134,0.0596439,0.0452121,538,974,-33.2952,-11.4839
-679,50,-32.7977,10.7984,0,0,0,0,0,0,0,-1,545,974,-32.7977,-10.7984
-672,50,-31.2515,4.48853,0,0,0,0,0,0,0,-1,552,974,-31.2514,-4.48855
-665,50,-31.7043,5.12366,0,0,0,0,0,0,0,-1,559,974,-31.7043,-5.12367
-658,50,-32.4153,4.64465,0,0,0,0,0,0,0,-1,566,974,-32.4153,-4.64464
-651,50,-32.4607,4.19482,0.00211678,0.00928217,-0.00771917,0.0142095,-0.00281059,-1.00267,0.0105356,0.0450816,573,974,-32.4607,-4.1948
-644,50,-32.4796,3.74487,-0.000642817,0.0117282,-0.00540455,0.0137567,-0.00267129,-1.21174,0.0101791,0.0306852,580,974,-32.4796,-3.74489
-637,50,-32.5657,3.61591,-0.00292424,0.0131993,-0.00405733,0.0141627,-0.00388766,-1.33766,0.0109698,0.01801,587,974,-32.5657,-3.61592
-630,50,-32.6404,3.48114,-0.00397174,0.0135207,-0.0031652,0.0140758,-0.00452685,-1.39718,0.011202,0.0115027,594,974,-32.6404,-3.48115
-623,50,-32.6684,3.3363,-0.00464832,0.0108315,-0.00243433,0.0112053,-0.00502212,-1.41844,0.0095929,0.0116446,601,974,-32.6684,-3.33633
-616,50,-32.6646,3.15424,-0.00501098,0.00809841,-0.00245427,0.00854282,-0.00545538,-1.39166,0.00814713,0.0118362,608,974,-32.6646,-3.15425
-609,50,-32.6624,2.91272,-0.00518865,0.00520264,-0.00285043,0.00593318,-0.00591919,-1.3199,0.00684297,0.0110307,615,974,-32.6623,-2.91274
-602,50,-32.6736,2.71082,-0.00500894,0.00299847,-0.00357732,0.00436383,-0.0063743,-1.20619,0.00623578,0.011526,622,974,-32.6736,-2.71082
-595,50,-32.6622,2.52594,-0.00499552,0.00125513,-0.00420489,0.00336896,-0.00710935,-1.10498,0.0061768,0.0118034,629,974,-32.6621,-2.52594
-588,50,-32.6765,2.23541,-0.00479076,0.000192614,-0.00495696,0.0032489,-0.00784705,-1.01829,0.00658705,0.0165599,636,974,-32.6765,-2.23544
-581,50,-32.8752,1.48682,-0.00452571,-0.000207615,-0.00545608,0.00350107,-0.00823439,-0.973801,0.00695675,0.0207638,643,974,-32.8753,-1.48682
-574,50,-33.084,0.761658,0,0,0,0,0,0,0,-1,650,974,-33.0841,-0.761643
-567,50,-33.0034,0.931091,-0.00398527,-0.000521728,-0.00540863,0.00342561,-0.00793261,-0.940334,0.00672756,0.0359132,657,974,-33.0034,-0.931091
-560,50,-32.9572,0.829102,-0.00326006,-0.000326226,-0.00497421,0.00339286,-0.00697914,-0.928786,0.00610643,0.0456212,664,974,-32.9572,-0.8291
-553,50,-32.9148,0.776855,-0.00207031,5.45425e-05,-0.00434354,0.0034637,-0.00547947,-0.905343,0.00520688,0.042457,671,974,-32.9148,-0.776827
-546,50,-32.9243,0.953369,-0.000380883,0.00055129,-0.00356601,0.00368155,-0.00351114,-0.850381,0.00415309,0.0398649,678,974,-32.9243,-0.953398
-539,50,-33.1096,0.998169,0.0017883,0.00104481,-0.00281476,0.00425576,-0.00142264,-0.719743,0.00341173,0.0415588,685,974,-33.1096,-0.998186
-532,50,-33.1532,1.00842,0.00422505,0.0017507,-0.00289469,0.00613587,-0.000160119,-0.583449,0.00414498,0.042447,692,974,-33.1532,-1.00842
-525,50,-33.0534,0.755371,0.0048913,0.00298964,-0.00469347,0.00872928,-0.000848345,-0.685458,0.00612193,0.0439255,699,974,-33.0534,-0.755343
-518,50,0,0,0,0,0,0,0,0,0,-1,706,974,0,0
-511,50,0,0,0,0,0,0,0,0,0,-1,713,974,0,0
-504,50,0,0,0,0,0,0,0,0,0,-1,720,974,0,0
-497,50,0,0,0,0,0,0,0,0,0,-1,727,974,0,0
-490,50,0,0,0,0,0,0,0,0,0,-1,734,974,0,0
-483,50,0,0,0,0,0,0,0,0,0,-1,741,974,0,0
-476,50,0,0,0,0,0,0,0,0,0,-1,748,974,0,0
-469,50,0,0,0,0,0,0,0,0,0,-1,755,974,0,0
-462,50,0,0,0,0,0,0,0,0,0,-1,762,974,0,0
-455,50,0,0,0,0,0,0,0,0,0,-1,769,974,0,0
-448,50,0,0,0,0,0,0,0,0,0,-1,776,974,0,0
-441,50,0,0,0,0,0,0,0,0,0,-1,783,974,0,0
-434,50,0,0,0,0,0,0,0,0,0,-1,790,974,0,0
-427,50,0,0,0,0,0,0,0,0,0,-1,797,974,0,0
-420,50,0,0,0,0,0,0,0,0,0,-1,804,974,0,0
-413,50,0,0,0,0,0,0,0,0,0,-1,811,974,0,0
-406,50,0,0,0,0,0,0,0,0,0,-1,818,974,0,0
-399,50,0,0,0,0,0,0,0,0,0,-1,825,974,0,0
-392,50,0,0,0,0,0,0,0,0,0,-1,832,974,0,0
-385,50,0,0,0,0,0,0,0,0,0,-1,839,974,0,0
-378,50,0,0,0,0,0,0,0,0,0,-1,846,974,0,0
-371,50,0,0,0,0,0,0,0,0,0,-1,853,974,0,0
-364,50,0,0,0,0,0,0,0,0,0,-1,860,974,0,0
-357,50,0,0,0,0,0,0,0,0,0,-1,867,974,0,0
-350,50,0,0,0,0,0,0,0,0,0,-1,874,974,0,0
-343,50,0,0,0,0,0,0,0,0,0,-1,881,974,0,0
-336,50,0,0,0,0,0,0,0,0,0,-1,888,974,0,0
-329,50,0,0,0,0,0,0,0,0,0,-1,895,974,0,0
-322,50,0,0,0,0,0,0,0,0,0,-1,902,974,0,0
-315,50,0,0,0,0,0,0,0,0,0,-1,909,974,0,0
-308,50,0,0,0,0,0,0,0,0,0,-1,916,974,0,0
-301,50,0,0,0,0,0,0,0,0,0,-1,923,974,0,0
-294,50,0,0,0,0,0,0,0,0,0,-1,930,974,0,0
-287,50,0,0,0,0,0,0,0,0,0,-1,937,974,0,0
-280,50,0,0,0,0,0,0,0,0,0,-1,944,974,0,0
-273,50,0,0,0,0,0,0,0,0,0,-1,951,974,0,0
-266,50,0,0,0,0,0,0,0,0,0,-1,958,974,0,0
-259,50,0,0,0,0,0,0,0,0,0,-1,965,974,0,0
-252,50,0,0,0,0,0,0,0,0,0,-1,972,974,0,0
-245,50,0,0,0,0,0,0,0,0,0,-1,979,974,0,0
-238,50,0,0,0,0,0,0,0,0,0,-1,986,974,0,0
-231,50,0,0,0,0,0,0,0,0,0,-1,993,974,0,0
-224,50,0,0,0,0,0,0,0,0,0,-1,1000,974,0,0
-217,50,0,0,0,0,0,0,0,0,0,-1,1007,974,0,0
-210,50,0,0,0,0,0,0,0,0,0,-1,1014,974,0,0
-203,50,0,0,0,0,0,0,0,0,0,-1,1021,974,0,0
-196,50,0,0,0,0,0,0,0,0,0,-1,1028,974,0,0
-189,50,0,0,0,0,0,0,0,0,0,-1,1035,974,0,0
-182,50,0,0,0,0,0,0,0,0,0,-1,1042,974,0,0
-175,50,0,0,0,0,0,0,0,0,0,-1,1049,974,0,0
-168,50,0,0,0,0,0,0,0,0,0,-1,1056,974,0,0
-161,50,0,0,0,0,0,0,0,0,0,-1,1063,974,0,0
-154,50,0,0,0,0,0,0,0,0,0,-1,1070,974,0,0
-147,50,0,0,0,0,0,0,0,0,0,-1,1077,974,0,0
-140,50,0,0,0,0,0,0,0,0,0,-1,1084,974,0,0
-133,50,0,0,0,0,0,0,0,0,0,-1,1091,974,0,0
-126,50,0,0,0,0,0,0,0,0,0,-1,1098,974,0,0
-119,50,0,0,0,0,0,0,0,0,0,-1,1105,974,0,0
-112,50,0,0,0,0,0,0,0,0,0,-1,1112,974,0,0
-105,50,0,0,0,0,0,0,0,0,0,-1,1119,974,0,0
-98,50,0,0,0,0,0,0,0,0,0,-1,1126,974,0,0
-91,50,0,0,0,0,0,0,0,0,0,-1,1133,974,0,0
-84,50,0,0,0,0,0,0,0,0,0,-1,1140,974,0,0
-77,50,0,0,0,0,0,0,0,0,0,-1,1147,974,0,0
-70,50,0,0,0,0,0,0,0,0,0,-1,1154,974,0,0
-63,50,0,0,0,0,0,0,0,0,0,-1,1161,974,0,0
-56,50,0,0,0,0,0,0,0,0,0,-1,1168,974,0,0
-49,50,0,0,0,0,0,0,0,0,0,-1,1175,974,0,0
-42,50,0,0,0,0,0,0,0,0,0,-1,1182,974,0,0
-35,50,0,0,0,0,0,0,0,0,0,-1,1189,974,0,0
-28,50,0,0,0,0,0,0,0,0,0,-1,1196,974,0,0
-21,50,0,0,0,0,0,0,0,0,0,-1,1203,974,0,0
-14,50,0,0,0,0,0,0,0,0,0,-1,1210,974,0,0
-7,50,0,0,0,0,0,0,0,0,0,-1,1217,974,0,0
0,50,0,0,0,0,0,0,0,0,0,-1,1224,974,0,0
7,50,0,0,0,0,0,0,0,0,0,-1,1231,974,0,0
14,50,0,0,0,0,0,0,0,0,0,-1,1238,974,0,0
21,50,0,0,0,0,0,0,0,0,0,-1,1245,974,0,0
28,50,0,0,0,0,0,0,0,0,0,-1,1252,974,0,0
35,50,0,0,0,0,0,0,0,0,0,-1,1259,974,0,0
42,50,0,0,0,0,0,0,0,0,0,-1,1266,974,0,0
49,50,0,0,0,0,0,0,0,0,0,-1,1273,974,0,0
56,50,0,0,0,0,0,0,0,0,0,-1,1280,974,0,0
63,50,0,0,0,0,0,0,0,0,0,-1,1287,974,0,0
70,50,0,0,0,0,0,0,0,0,0,-1,1294,974,0,0
77,50,0,0,0,0,0,0,0,0,0,-1,1301,974,0,0
84,50,0,0,0,0,0,0,0,0,0,-1,1308,974,0,0
91,50,0,0,0,0,0,0,0,0,0,-1,1315,974,0,0
98,50,0,0,0,0,0,0,0,0,0,-1,1322,974,0,0
105,50,0,0,0,0,0,0,0,0,0,-1,1329,974,0,0
112,50,0,0,0,0,0,0,0,0,0,-1,1336,974,0,0
119,50,0,0,0,0,0,0,0,0,0,-1,1343,974,0,0
126,50,0,0,0,0,0,0,0,0,0,-1,1350,974,0,0
133,50,0,0,0,0,0,0,0,0,0,-1,1357,974,0,0
140,50,0,0,0,0,0,0,0,0,0,-1,1364,974,0,0
147,50,0,0,0,0,0,0,0,0,0,-1,1371,974,0,0
154,50,0,0,0,0,0,0,0,0,0,-1,1378,974,0,0
161,50,0,0,0,0,0,0,0,0,0,-1,1385,974,0,0
168,50,0,0,0,0,0,0,0,0,0,-1,1392,974,0,0
175,50,0,0,0,0,0,0,0,0,0,-1,1399,974,0,0
182,50,0,0,0,0,0,0,0,0,0,-1,1406,974,0,0
189,50,0,0,0,0,0,0,0,0,0,-1,1413,974,0,0
196,50,0,0,0,0,0,0,0,0,0,-1,1420,974,0,0
203,50,0,0,0,0,0,0,0,0,0,-1,1427,974,0,0
210,50,0,0,0,0,0,0,0,0,0,-1,1434,974,0,0
217,50,0,0,0,0,0,0,0,0,0,-1,1441,974,0,0
224,50,0,0,0,0,0,0,0,0,0,-1,1448,974,0,0
231,50,0,0,0,0,0,0,0,0,0,-1,1455,974,0,0
238,50,0,0,0,0,0,0,0,0,0,-1,1462,974,0,0
245,50,0,0,0,0,0,0,0,0,0,-1,1469,974,0,0
252,50,0,0,0,0,0,0,0,0,0,-1,1476,974,0,0
259,50,0,0,0,0,0,0,0,0,0,-1,1483,974,0,0
266,50,0,0,0,0,0,0,0,0,0,-1,1490,974,0,0
273,50,0,0,0,0,0,0,0,0,0,-1,1497,974,0,0
280,50,0,0,0,0,0,0,0,0,0,-1,1504,974,0,0
287,50,0,0,0,0,0,0,0,0,0,-1,1511,974,0,0
294,50,0,0,0,0,0,0,0,0,0,-1,1518,974,0,0
301,50,0,0,0,0,0,0,0,0,0,-1,1525,974,0,0
308,50,0,0,0,0,0,0,0,0,0,-1,1532,974,0,0
315,50,0,0,0,0,0,0,0,0,0,-1,1539,974,0,0
322,50,0,0,0,0,0,0,0,0,0,-1,1546,974,0,0
329,50,0,0,0,0,0,0,0,0,0,-1,1553,974,0,0
336,50,0,0,0,0,0,0,0,0,0,-1,1560,974,0,0
343,50,0,0,0,0,0,0,0,0,0,-1,1567,974,0,0
350,50,0,0,0,0,0,0,0,0,0,-1,1574,974,0,0
357,50,0,0,0,0,0,0,0,0,0,-1,1581,974,0,0
364,50,0,0,0,0,0,0,0,0,0,-1,1588,974,0,0
371,50,0,0,0,0,0,0,0,0,0,-1,1595,974,0,0
378,50,0,0,0,0,0,0,0,0,0,-1,1602,974,0,0
385,50,0,0,0,0,0,0,0,0,0,-1,1609,974,0,0
392,50,0,0,0,0,0,0,0,0,0,-1,1616,974,0,0
399,50,0,0,0,0,0,0,0,0,0,-1,1623,974,0,0
406,50,0,0,0,0,0,0,0,0,0,-1,1630,974,0,0
413,50,0,0,0,0,0,0,0,0,0,-1,1637,974,0,0
420,50,0,0,0,0,0,0,0,0,0,-1,1644,974,0,0
427,50,0,0,0,0,0,0,0,0,0,-1,1651,974,0,0
434,50,0,0,0,0,0,0,0,0,0,-1,1658,974,0,0
441,50,0,0,0,0,0,0,0,0,0,-1,1665,974,0,0
448,50,0,0,0,0,0,0,0,0,0,-1,1672,974,0,0
455,50,0,0,0,0,0,0,0,0,0,-1,1679,974,0,0
462,50,0,0,0,0,0,0,0,0,0,-1,1686,974,0,0
469,50,0,0,0,0,0,0,0,0,0,-1,1693,974,0,0
476,50,0,0,0,0,0,0,0,0,0,-1,1700,974,0,0
483,50,0,0,0,0,0,0,0,0,0,-1,1707,974,0,0
490,50,0,0,0,0,0,0,0,0,0,-1,1714,974,0,0
497,50,0,0,0,0,0,0,0,0,0,-1,1721,974,0,0
504,50,0,0,0,0,0,0,0,0,0,-1,1728,974,0,0
511,50,0,0,0,0,0,0,0,0,0,-1,1735,974,0,0
518,50,0,0,0,0,0,0,0,0,0,-1,1742,974,0,0
525,50,0,0,0,0,0,0,0,0,0,-1,1749,974,0,0
532,50,0,0,0,0,0,0,0,0,0,-1,1756,974,0,0
539,50,0,0,0,0,0,0,0,0,0,-1,1763,974,0,0
546,50,0,0,0,0,0,0,0,0,0,-1,1770,974,0,0
553,50,0,0,0,0,0,0,0,0,0,-1,1777,974,0,0
560,50,0,0,0,0,0,0,0,0,0,-1,1784,974,0,0
567,50,0,0,0,0,0,0,0,0,0,-1,1791,974,0,0
574,50,0,0,0,0,0,0,0,0,0,-1,1798,974,0,0
581,50,0,0,0,0,0,0,0,0,0,-1,1805,974,0,0
588,50,0,0,0,0,0,0,0,0,0,-1,1812,974,0,0
595,50,0,0,0,0,0,0,0,0,0,-1,1819,974,0,0
602,50,0,0,0,0,0,0,0,0,0,-1,1826,974,0,0
609,50,0,0,0,0,0,0,0,0,0,-1,1833,974,0,0
616,50,0,0,0,0,0,0,0,0,0,-1,1840,974,0,0
623,50,0,0,0,0,0,0,0,0,0,-1,1847,974,0,0
630,50,0,0,0,0,0,0,0,0,0,-1,1854,974,0,0
637,50,0,0,0,0,0,0,0,0,0,-1,1861,974,0,0
644,50,44.7473,2.86334,0.00231084,0.00219548,-0.00095819,0.00321309,0.00129324,-0.755334,0.0018668,0.0402351,1868,974,44.7473,-2.86335
651,50,44.6639,2.76794,0.00153085,0.00164051,-0.000735592,0.00232331,0.000848047,-0.822597,0.00135756,0.0343755,1875,974,44.6639,-2.76796
658,50,44.7251,2.5708,0.000812503,0.00117963,-0.000462823,0.00149396,0.00049817,-0.974192,0.000878345,0.0382905,1882,974,44.7251,-2.57083
665,50,44.7688,2.40002,0.000241175,0.000940304,-0.000101676,0.000954791,0.000226688,-1.42927,0.00057603,0.0409862,1889,974,44.7689,-2.40005
672,50,44.7351,2.43146,-0.000449441,0.000779581,0.000372962,0.000883905,-0.000553765,1.29805,0.000837303,0.0424796,1896,974,44.7351,-2.43148
679,50,44.6675,2.55927,-0.00119891,0.000579737,0.000870883,0.000935136,-0.00155431,1.18333,0.00145202,0.0435741,1903,974,44.6675,-2.55927
686,50,44.5829,2.71045,-0.00157988,0.000322014,0.00119783,0.000900482,-0.00215834,1.1209,0.00181511,0.043555,1910,974,44.5829,-2.71047
693,50,44.5736,2.776,-0.00183576,0.000134509,0.00135965,0.000828405,-0.00252966,1.0989,0.00202001,0.036927,1917,974,44.5736,-2.77603
700,50,44.5676,2.75366,-0.0022701,6.36707e-05,0.00136532,0.000692815,-0.00289924,1.13899,0.00220043,0.0232724,1924,974,44.5677,-2.75367
707,50,44.5917,2.88226,-0.00274601,0.000196045,0.0013148,0.00069799,-0.00324796,1.20611,0.00243159,0.0403182,1931,974,44.5916,-2.88225
714,50,44.2412,4.07031,0,0,0,0,0,0,0,-1,1938,974,44.2412,-4.07032
721,50,43.618,4.7655,-0.00373869,0.00106028,0.000958219,0.00124454,-0.00392294,1.38083,0.00311417,0.0433251,1945,974,43.6181,-4.76548
728,50,43.4026,5.09259,-0.00415803,0.00185723,0.000739439,0.00194679,-0.0042476,1.45026,0.00365764,0.02176,1952,974,43.4026,-5.09259
735,50,43.4523,5.34955,-0.00413351,0.00264187,0.000437386,0.00266999,-0.00416163,1.5066,0.00397545,0.0204864,1959,974,43.4523,-5.34956
742,50,43.4424,5.57556,-0.00351989,0.0027406,-0.000407195,0.00276698,-0.00354626,-1.50612,0.00365419,0.0153546,1966,974,43.4423,-5.57554
749,50,43.4215,5.75031,-0.00261648,0.00265826,-0.00163894,0.00312603,-0.00308424,-1.29278,0.00358553,0.0155153,1973,974,43.4214,-5.7503
756,50,43.3887,6.00415,-0.000531235,0.00173796,-0.00359634,0.00437444,-0.00316771,-0.9382,0.004373,0.01262,1980,974,43.3887,-6.00413
763,50,43.3055,6.25006,0.00270924,-0.000217139,-0.00613396,0.00755211,-0.00506001,-0.668317,0.00732885,0.0132707,1987,974,43.3055,-6.25006
770,50,43.234,6.44733,0.00784864,-0.00404403,-0.00963819,0.0132272,-0.0094226,-0.509001,0.0131382,0.013179,1994,974,43.234,-6.4473
777,50,43.212,6.65686,0.0146859,-0.0102711,-0.014314,0.021197,-0.0167821,-0.4269,0.0219766,0.0238445,2001,974,43.2121,-6.65688
784,50,43.2659,6.8512,0.0235891,-0.0197991,-0.0206523,0.0318475,-0.0280574,-0.3804,0.0346092,0.0422917,2008,974,43.266,-6.85122
791,50,44.5317,8.22546,0,0,0,0,0,0,0,-1,2015,974,44.5317,-8.22545
798,50,42.1746,7.39447,0,0,0,0,0,0,0,-1,2022,974,42.1746,-7.3945
805,50,42.0984,7.63586,0,0,0,0,0,0,0,-1,2029,974,42.0984,-7.63587
812,50,0,0,0,0,0,0,0,0,0,-1,2036,974,0,0
-700,43,0,0,0,0,0,0,0,0,0,-1,524,981,0,0
-693,43,-34.7187,13.1673,0.0437186,-0.0813316,-0.0073569,0.0441499,-0.081763,-0.0585623,0.0737691,0.0483744,531,981,-34.7187,-13.1673
-686,43,-34.0031,12.4883,0.0307832,-0.0486576,-0.0117483,0.0324842,-0.0503586,-0.143789,0.048199,0.0469785,538,981,-34.0031,-12.4883
-679,43,-33.5019,11.8116,0,0,0,0,0,0,0,-1,545,981,-33.5019,-11.8117
-672,43,-31.6709,4.1825,0,0,0,0,0,0,0,-1,552,981,-31.6709,-4.1825
-665,43,-32.4821,4.01019,0,0,0,0,0,0,0,-1,559,981,-32.482,-4.0102
-658,43,-32.6154,3.90173,0,0,0,0,0,0,0,-1,566,981,-32.6154,-3.90174
-651,43,-32.644,3.78394,-0.000750087,0.0123307,-0.00641053,0.0149485,-0.00336784,-1.18311,0.0112574,0.0422601,573,981,-32.644,-3.78395
-644,43,-32.7194,3.67114,-0.00275363,0.0138882,-0.00441547,0.0149871,-0.00385259,-1.32686,0.0114929,0.0240063,580,981,-32.7194,-3.67117
-637,43,-32.7983,3.53809,-0.00442855,0.0147014,-0.00338363,0.0152822,-0.0050094,-1.40079,0.0122056,0.0172705,587,981,-32.7983,-3.53807
-630,43,-32.8407,3.40521,-0.00475667,0.0143934,-0.00285461,0.0148099,-0.00517313,-1.42593,0.011976,0.0136039,594,981,-32.8407,-3.40522
-623,43,-32.8501,3.26624,-0.0047414,0.0112019,-0.00255783,0.0116022,-0.00514171,-1.41555,0.00990407,0.0117996,601,981,-32.8501,-3.26624
-616,43,-32.8483,3.09149,-0.00453737,0.00826228,-0.00298893,0.00892585,-0.00520094,-1.35233,0.00825007,0.010985,608,981,-32.8483,-3.09149
-609,43,-32.8597,2.92377,-0.00425042,0.00529041,-0.00373078,0.00657603,-0.00553604,-1.23894,0.0070015,0.0132345,615,981,-32.8597,-2.92376
-602,43,-32.8489,2.77307,-0.00381852,0.00301018,-0.00454674,0.00528183,-0.00609017,-1.10745,0.00657115,0.0162987,622,981,-32.8489,-2.77308
-595,43,-32.8929,2.58997,-0.00368203,0.00126935,-0.00524242,0.00459124,-0.00700393,-1.006,0.00674261,0.0147887,629,981,-32.8929,-2.58994
-588,43,-32.8763,2.12823,-0.00337359,0.000194607,-0.00601103,0.00468072,-0.0078597,-0.929659,0.00731735,0.020527,636,981,-32.8764,-2.12824
-581,43,-32.9315,1.32166,-0.00303636,-0.000258342,-0.00647089,0.00497094,-0.00826564,-0.891121,0.00772065,0.024318,643,981,-32.9315,-1.32165
-574,43,-32.9739,1.00238,-0.00280775,-0.000597735,-0.00650122,0.00489171,-0.0082972,-0.869578,0.00769877,0.0247489,650,981,-32.9739,-1.00239
-567,43,-32.9529,0.992126,-0.00252026,-0.000670292,-0.00619581,0.0046692,-0.00785975,-0.859497,0.00731136,0.0378176,657,981,-32.9529,-0.992099
-560,43,-32.9109,0.969849,-0.00187607,-0.000528134,-0.00556785,0.00440639,-0.0068106,-0.845628,0.00652553,0.0447431,664,981,-32.9109,-0.96985
-553,43,-32.9288,0.972229,-0.000796437,-0.00021468,-0.0047129,0.00421631,-0.00522743,-0.816219,0.00546275,0.0417116,671,981,-32.9288,-0.972254
-546,43,-32.9234,1.07501,0.00079795,0.000185783,-0.003705,0.00420949,-0.00322576,-0.744185,0.00430525,0.041914,678,981,-32.9234,-1.07499
-539,43,-32.8845,0.810364,0.00294564,0.000541178,-0.0027995,0.00479013,-0.00130332,-0.582584,0.00370508,0.0433057,685,981,-32.8844,-0.810384
-532,43,-33.0067,0.5401,0.00554947,0.00121171,-0.00307217,0.00714121,-0.000380036,-0.478035,0.00489241,0.0436198,692,981,-33.0067,-0.540098
-525,43,-33.0049,0.870239,0.00670068,0.00236854,-0.00528651,0.0102477,-0.00117845,-0.590963,0.00725657,0.0445483,699,981,-33.0049,-0.870238
-518,43,0,0,0,0,0,0,0,0,0,-1,706,981,0,0
-511,43,0,0,0,0,0,0,0,0,0,-1,713,981,0,0
-504,43,0,0,0,0,0,0,0,0,0,-1,720,981,0,0
-497,43,0,0,0,0,0,0,0,0,0,-1,727,981,0,0
-490,43,0,0,0,0,0,0,0,0,0,-1,734,981,0,0
-483,43,0,0,0,0,0,0,0,0,0,-1,741,981,0,0
-476,43,0,0,0,0,0,0,0,0,0,-1,748,981,0,0
-469,43,0,0,0,0,0,0,0,0,0,-1,755,981,0,0
-462,43,0,0,0,0,0,0,0,0,0,-1,762,981,0,0
-455,43,0,0,0,0,0,0,0,0,0,-1,769,981,0,0
-448,43,0,0,0,0,0,0,0,0,0,-1,776,981,0,0
-441,43,0,0,0,0,0,0,0,0,0,-1,783,981,0,0
-434,43,0,0,0,0,0,0,0,0,0,-1,790,981,0,0
-427,43,0,0,0,0,0,0,0,0,0,-1,797,981,0,0
-420,43,0,0,0,0,0,0,0,0,0,-1,804,981,0,0
-413,43,0,0,0,0,0,0,0,0,0,-1,811,981,0,0
-406,43,0,0,0,0,0,0,0,0,0,-1,818,981,0,0
-399,43,0,0,0,0,0,0,0,0,0,-1,825,981,0,0
-392,43,0,0,0,0,0,0,0,0,0,-1,832,981,0,0
-385,43,0,0,0,0,0,0,0,0,0,-1,839,981,0,0
-378,43,0,0,0,0,0,0,0,0,0,-1,846,981,0,0
-371,43,0,0,0,0,0,0,0,0,0,-1,853,981,0,0
-364,43,0,0,0,0,0,0,0,0,0,-1,860,981,0,0
-357,43,0,0,0,0,0,0,0,0,0,-1,867,981,0,0
-350,43,0,0,0,0,0,0,0,0,0,-1,874,981,0,0
-343,43,0,0,0,0,0,0,0,0,0,-1,881,981,0,0
-336,43,0,0,0,0,0,0,0,0,0,-1,888,981,0,0
-329,43,0,0,0,0,0,0,0,0,0,-1,895,981,0,0
-322,43,0,0,0,0,0,0,0,0,0,-1,902,981,0,0
-315,43,0,0,0,0,0,0,0,0,0,-1,909,981,0,0
-308,43,0,0,0,0,0,0,0,0,0,-1,916,981,0,0
-301,43,0,0,0,0,0,0,0,0,0,-1,923,981,0,0
-294,43,0,0,0,0,0,0,0,0,0,-1,930,981,0,0
-287,43,0,0,0,0,0,0,0,0,0,-1,937,981,0,0
-280,43,0,0,0,0,0,0,0,0,0,-1,944,981,0,0
-273,43,0,0,0,0,0,0,0,0,0,-1,951,981,0,0
-266,43,0,0,0,0,0,0,0,0,0,-1,958,981,0,0
-259,43,0,0,0,0,0,0,0,0,0,-1,965,981,0,0
-252,43,0,0,0,0,0,0,0,0,0,-1,972,981,0,0
-245,43,0,0,0,0,0,0,0,0,0,-1,979,981,0,0
-238,43,0,0,0,0,0,0,0,0,0,-1,986,981,0,0
-231,43,0,0,0,0,0,0,0,0,0,-1,993,981,0,0
-224,43,0,0,0,0,0,0,0,0,0,-1,1000,981,0,0
-217,43,0,0,0,0,0,0,0,0,0,-1,1007,981,0,0
-210,43,0,0,0,0,0,0,0,0,0,-1,1014,981,0,0
-203,43,0,0,0,0,0,0,0,0,0,-1,1021,981,0,0
-196,43,0,0,0,0,0,0,0,0,0,-1,1028,981,0,0
-189,43,0,0,0,0,0,0,0,0,0,-1,1035,981,0,0
-182,43,0,0,0,0,0,0,0,0,0,-1,1042,981,0,0
-175,43,0,0,0,0,0,0,0,0,0,-1,1049,981,0,0
-168,43,0,0,0,0,0,0,0,0,0,-1,1056,981,0,0
-161,43,0,0,0,0,0,0,0,0,0,-1,1063,981,0,0
-154,43,0,0,0,0,0,0,0,0,0,-1,1070,981,0,0
-147,43,0,0,0,0,0,0,0,0,0,-1,1077,981,0,0
-140,43,0,0,0,0,0,0,0,0,0,-1,1084,981,0,0
-133,43,0,0,0,0,0,0,0,0,0,-1,1091,981,0,0
-126,43,0,0,0,0,0,0,0,0,0,-1,1098,981,0,0
-119,43,0,0,0,0,0,0,0,0,0,-1,1105,981,0,0
-112,43,0,0,0,0,0,0,0,0,0,-1,1112,981,0,0
-105,43,0,0,0,0,0,0,0,0,0,-1,1119,981,0,0
-98,43,0,0,0,0,0,0,0,0,0,-1,1126,981,0,0
-91,43,0,0,0,0,0,0,0,0,0,-1,1133,981,0,0
-84,43,0,0,0,0,0,0,0,0,0,-1,1140,981,0,0
-77,43,0,0,0,0,0,0,0,0,0,-1,1147,981,0,0
-70,43,0,0,0,0,0,0,0,0,0,-1,1154,981,0,0
-63,43,0,0,0,0,0,0,0,0,0,-1,1161,981,0,0
-56,43,0,0,0,0,0,0,0,0,0,-1,1168,981,0,0
-49,43,0,0,0,0,0,0,0,0,0,-1,1175,981,0,0
-42,43,0,0,0,0,0,0,0,0,0,-1,1182,981,0,0
-35,43,0,0,0,0,0,0,0,0,0,-1,1189,981,0,0
-28,43,0,0,0,0,0,0,0,0,0,-1,1196,981,0,0
-21,43,0,0,0,0,0,0,0,0,0,-1,1203,981,0,0
-14,43,0,0,0,0,0,0,0,0,0,-1,1210,981,0,0
-7,43,0,0,0,0,0,0,0,0,0,-1,1217,981,0,0
0,43,0,0,0,0,0,0,0,0,0,-1,1224,981,0,0
7,43,0,0,0,0,0,0,0,0,0,-1,1231,981,0,0
14,43,0,0,0,0,0,0,0,0,0,-1,1238,981,0,0
21,43,0,0,0,0,0,0,0,0,0,-1,1245,981,0,0
28,43,0,0,0,0,0,0,0,0,0,-1,1252,981,0,0
35,43,0,0,0,0,0,0,0,0,0,-1,1259,981,0,0
42,43,0,0,0,0,0,0,0,0,0,-1,1266,981,0,0
49,43,0,0,0,0,0,0,0,0,0,-1,1273,981,0,0
56,43,0,0,0,0,0,0,0,0,0,-1,1280,981,0,0
63,43,0,0,0,0,0,0,0,0,0,-1,1287,981,0,0
70,43,0,0,0,0,0,0,0,0,0,-1,1294,981,0,0
77,43,0,0,0,0,0,0,0,0,0,-1,1301,981,0,0
84,43,0,0,0,0,0,0,0,0,0,-1,1308,981,0,0
91,43,0,0,0,0,0,0,0,0,0,-1,1315,981,0,0
98,43,0,0,0,0,0,0,0,0,0,-1,1322,981,0,0
105,43,0,0,0,0,0,0,0,0,0,-1,1329,981,0,0
112,43,0,0,0,0,0,0,0,0,0,-1,1336,981,0,0
119,43,0,0,0,0,0,0,0,0,0,-1,1343,981,0,0
126,43,0,0,0,0,0,0,0,0,0,-1,1350,981,0,0
133,43,0,0,0,0,0,0,0,0,0,-1,1357,981,0,0
140,43,0,0,0,0,0,0,0,0,0,-1,1364,981,0,0
147,43,0,0,0,0,0,0,0,0,0,-1,1371,981,0,0
154,43,0,0,0,0,0,0,0,0,0,-1,1378,981,0,0
161,43,0,0,0,0,0,0,0,0,0,-1,1385,981,0,0
168,43,0,0,0,0,0,0,0,0,0,-1,1392,981,0,0
175,43,0,0,0,0,0,0,0,0,0,-1,1399,981,0,0
182,43,0,0,0,0,0,0,0,0,0,-1,1406,981,0,0
189,43,0,0,0,0,0,0,0,0,0,-1,1413,981,0,0
196,43,0,0,0,0,0,0,0,0,0,-1,1420,981,0,0
203,43,0,0,0,0,0,0,0,0,0,-1,1427,981,0,0
210,43,0,0,0,0,0,0,0,0,0,-1,1434,981,0,0
217,43,0,0,0,0,0,0,0,0,0,-1,1441,981,0,0
224,43,0,0,0,0,0,0,0,0,0,-1,1448,981,0,0
231,43,0,0,0,0,0,0,0,0,0,-1,1455,981,0,0
238,43,0,0,0,0,0,0,0,0,0,-1,1462,981,0,0
245,43,0,0,0,0,0,0,0,0,0,-1,1469,981,0,0
252,43,0,0,0,0,0,0,0,0,0,-1,1476,981,0,0
259,43,0,0,0,0,0,0,0,0,0,-1,1483,981,0,0
266,43,0,0,0,0,0,0,0,0,0,-1,1490,981,0,0
273,43,0,0,0,0,0,0,0,0,0,-1,1497,981,0,0
280,43,0,0,0,0,0,0,0,0,0,-1,1504,981,0,0
287,43,0,0,0,0,0,0,0,0,0,-1,1511,981,0,0
294,43,0,0,0,0,0,0,0,0,0,-1,1518,981,0,0
301,43,0,0,0,0,0,0,0,0,0,-1,1525,981,0,0
308,43,0,0,0,0,0,0,0,0,0,-1,1532,981,0,0
315,43,0,0,0,0,0,0,0,0,0,-1,1539,981,0,0
322,43,0,0,0,0,0,0,0,0,0,-1,1546,981,0,0
329,43,0,0,0,0,0,0,0,0,0,-1,1553,981,0,0
336,43,0,0,0,0,0,0,0,0,0,-1,1560,981,0,0
343,43,0,0,0,0,0,0,0,0,0,-1,1567,981,0,0
350,43,0,0,0,0,0,0,0,0,0,-1,1574,981,0,0
357,43,0,0,0,0,0,0,0,0,0,-1,1581,981,0,0
364,43,0,0,0,0,0,0,0,0,0,-1,1588,981,0,0
371,43,0,0,0,0,0,0,0,0,0,-1,1595,981,0,0
378,43,0,0,0,0,0,0,0,0,0,-1,1602,981,0,0
385,43,0,0,0,0,0,0,0,0,0,-1,1609,981,0,0
392,43,0,0,0,0,0,0,0,0,0,-1,1616,981,0,0
399,43,0,0,0,0,0,0,0,0,0,-1,1623,981,0,0
406,43,0,0,0,0,0,0,0,0,0,-1,1630,981,0,0
413,43,0,0,0,0,0,0,0,0,0,-1,1637,981,0,0
420,43,0,0,0,0,0,0,0,0,0,-1,1644,981,0,0
427,43,0,0,0,0,0,0,0,0,0,-1,1651,981,0,0
434,43,0,0,0,0,0,0,0,0,0,-1,1658,981,0,0
441,43,0,0,0,0,0,0,0,0,0,-1,1665,981,0,0
448,43,0,0,0,0,0,0,0,0,0,-1,1672,981,0,0
455,43,0,0,0,0,0,0,0,0,0,-1,1679,981,0,0
462,43,0,0,0,0,0,0,0,0,0,-1,1686,981,0,0
469,43,0,0,0,0,0,0,0,0,0,-1,1693,981,0,0
476,43,0,0,0,0,0,0,0,0,0,-1,1700,981,0,0
483,43,0,0,0,0,0,0,0,0,0,-1,1707,981,0,0
490,43,0,0,0,0,0,0,0,0,0,-1,1714,981,0,0
497,43,0,0,0,0,0,0,0,0,0,-1,1721,981,0,0
504,43,0,0,0,0,0,0,0,0,0,-1,1728,981,0,0
511,43,0,0,0,0,0,0,0,0,0,-1,1735,981,0,0
518,43,0,0,0,0,0,0,0,0,0,-1,1742,981,0,0
525,43,0,0,0,0,0,0,0,0,0,-1,1749,981,0,0
532,43,0,0,0,0,0,0,0,0,0,-1,1756,981,0,0
539,43,0,0,0,0,0,0,0,0,0,-1,1763,981,0,0
546,43,0,0,0,0,0,0,0,0,0,-1,1770,981,0,0
553,43,0,0,0,0,0,0,0,0,0,-1,1777,981,0,0
560,43,0,0,0,0,0,0,0,0,0,-1,1784,981,0,0
567,43,0,0,0,0,0,0,0,0,0,-1,1791,981,0,0
574,43,0,0,0,0,0,0,0,0,0,-1,1798,981,0,0
581,43,0,0,0,0,0,0,0,0,0,-1,1805,981,0,0
588,43,0,0,0,0,0,0,0,0,0,-1,1812,981,0,0
595,43,0,0,0,0,0,0,0,0,0,-1,1819,981,0,0
602,43,0,0,0,0,0,0,0,0,0,-1,1826,981,0,0
609,43,0,0,0,0,0,0,0,0,0,-1,1833,981,0,0
616,43,0,0,0,0,0,0,0,0,0,-1,1840,981,0,0
623,43,0,0,0,0,0,0,0,0,0,-1,1847,981,0,0
630,43,0,0,0,0,0,0,0,0,0,-1,1854,981,0,0
637,43,0,0,0,0,0,0,0,0,0,-1,1861,981,0,0
644,43,44.6793,2.67645,0.00292137,0.00230075,-7.80961e-05,0.00293104,0.00229107,-0.123276,0.00177949,0.0385216,1868,981,44.6793,-2.67648
651,43,44.7119,2.72797,0.00188837,0.00168018,-0.00019347,0.00200397,0.00156458,-0.538598,0.00121627,0.0389202,1875,981,44.7119,-2.72797
658,43,44.8346,2.60657,0.00100731,0.0011903,-0.000140837,0.00126675,0.000930856,-1.07347,0.000757773,0.0392095,1882,981,44.8346,-2.60654
665,43,44.7939,2.43317,0.000343733,0.000932317,6.1705e-05,0.000938717,0.000337333,1.46746,0.000549069,0.0365819,1889,981,44.794,-2.43317
672,43,44.676,2.44232,-0.000353668,0.000826597,0.000433753,0.000968857,-0.000495927,1.25388,0.000860261,0.0378399,1896,981,44.676,-2.44231
679,43,44.5913,2.58325,-0.00110623,0.000706651,0.000883901,0.00106627,-0.00146585,1.18439,0.00146798,0.0404803,1903,981,44.5913,-2.58324
686,43,44.5359,2.68042,-0.00147154,0.000497533,0.00121169,0.00107425,-0.00204826,1.12656,0.00183178,0.040559,1910,981,44.5359,-2.68044
693,43,44.54,2.69391,-0.00169774,0.0003378,0.00139659,0.00104812,-0.00240807,1.10028,0.00204627,0.0355904,1917,981,44.54,-2.69388
700,43,44.5392,2.7442,-0.00207814,0.000268187,0.00140143,0.000922676,-0.00273263,1.13388,0.00219494,0.033981,1924,981,44.5391,-2.74423
707,43,44.6226,2.70813,-0.00248993,0.00039911,0.00137047,0.000945776,-0.0030366,1.19125,0.00240253,0.0335883,1931,981,44.6225,-2.70815
714,43,44.6503,2.77148,0,0,0,0,0,0,0,-1,1938,981,44.6503,-2.77151
721,43,43.8373,4.6806,0,0,0,0,0,0,0,-1,1945,981,43.8373,-4.68058
728,43,43.781,5.06891,-0.00381449,0.00211762,0.000837546,0.0022336,-0.00393047,1.43319,0.0036035,0.0212736,1952,981,43.781,-5.06892
735,43,43.7153,5.34601,-0.00381697,0.00287142,0.000522572,0.002912,-0.00385755,1.49329,0.0039211,0.0148208,1959,981,43.7153,-5.34598
742,43,43.6819,5.53979,-0.00345975,0.00297681,-0.000286143,0.0029895,-0.00347244,-1.52646,0.00373428,0.0162197,1966,981,43.6819,-5.5398
749,43,43.6681,5.73492,-0.00304542,0.0029995,-0.00144291,0.00332626,-0.00337218,-1.3481,0.00386738,0.017571,1973,981,43.6681,-5.73492
756,43,43.6705,5.94824,-0.00183777,0.0024497,-0.00325298,0.00420179,-0.00358986,-1.07674,0.00450314,0.0189746,1980,981,43.6705,-5.94827
763,43,43.619,6.1272,7.87988e-06,0.00115251,-0.00564371,0.00625285,-0.00509246,-0.835929,0.00656163,0.0235847,1987,981,43.619,-6.12721
770,43,43.5056,6.38495,0.00333069,-0.00178393,-0.00892866,0.010061,-0.00851429,-0.645924,0.0107369,0.0196869,1994,981,43.5056,-6.38493
777,43,43.5151,6.59296,0.00774725,-0.00667652,-0.0132774,0.015645,-0.0145742,-0.536605,0.0174507,0.0237092,2001,981,43.5151,-6.59295
784,43,43.5344,6.83545,0.0132306,-0.0141459,-0.0190783,0.0230232,-0.0239385,-0.474218,0.027115,0.0438891,2008,981,43.5344,-6.83544
791,43,43.7888,6.35242,0,0,0,0,0,0,0,-1,2015,981,43.7888,-6.3524
798,43,42.8833,7.34174,0,0,0,0,0,0,0,-1,2022,981,42.8832,-7.34173
805,43,42.9795,7.03192,0,0,0,0,0,0,0,-1,2029,981,42.9795,-7.03192
812,43,43.6873,6.18652,0,0,0,0,0,0,0,-1,2036,981,43.6874,-6.18655
-700,36,0,0,0,0,0,0,0,0,0,-1,524,988,0,0
-693,36,-35.7271,14.362,0,0,0,0,0,0,0,-1,531,988,-35.7271,-14.362
-686,36,-34.0806,3.21118,0,0,0,0,0,0,0,-1,538,988,-34.0806,-3.21115
-679,36,-35.535,3.47699,0,0,0,0,0,0,0,-1,545,988,-35.535,-3.477
-672,36,-32.0673,3.88123,0,0,0,0,0,0,0,-1,552,988,-32.0673,-3.88123
-665,36,-32.4091,3.69708,0.00252505,0.00699976,-0.0100346,0.0150434,-0.00551856,-0.895086,0.0122887,0.0442606,559,988,-32.409,-3.69706
-658,36,-32.8452,3.60596,-0.00107229,0.012356,-0.00772285,0.0158753,-0.00459153,-1.14322,0.0124007,0.0466689,566,988,-32.8452,-3.60595
-651,36,-32.8744,3.55511,-0.00338071,0.0150246,-0.0055285,0.0165576,-0.00491365,-1.30031,0.0129898,0.0365676,573,988,-32.8744,-3.55515
-644,36,-32.9388,3.48163,-0.00462489,0.0155122,-0.00365431,0.0161548,-0.00526754,-1.39672,0.0128896,0.0234751,580,988,-32.9389,-3.48162
-637,36,-33.0111,3.39697,-0.00565003,0.0154348,-0.00270395,0.015776,-0.00599126,-1.44526,0.0129837,0.0193579,587,988,-33.0111,-3.39695
-630,36,-33.0085,3.33911,-0.00528767,0.0144025,-0.00244727,0.0147021,-0.00558728,-1.44898,0.0121017,0.0147708,594,988,-33.0085,-3.33909
-623,36,-33.0331,3.22668,-0.00465742,0.0110074,-0.00253079,0.0114061,-0.00505615,-1.41453,0.00973732,0.0120325,601,988,-33.0331,-3.2267
-616,36,-33.0361,3.07806,-0.00396308,0.00807012,-0.00331945,0.00892507,-0.00481803,-1.31872,0.00805182,0.0101315,608,988,-33.0361,-3.07805
-609,36,-33.0231,2.95569,-0.00328917,0.00521017,-0.00431323,0.00701555,-0.00509455,-1.17439,0.00702103,0.0147417,615,988,-33.0231,-2.95572
-602,36,-33.0255,2.81445,-0.0026346,0.00297856,-0.00514317,0.00603109,-0.00568712,-1.03516,0.00676648,0.0196231,622,988,-33.0254,-2.81444
-595,36,-33.0956,2.64539,-0.00234995,0.00131244,-0.00587723,0.00563715,-0.00667466,-0.936419,0.00711663,0.0215085,629,988,-33.0956,-2.6454
-588,36,-33.0525,1.97467,-0.00191403,0.000242958,-0.00663664,0.00588816,-0.00755924,-0.865947,0.00778382,0.0276982,636,988,-33.0525,-1.97466
-581,36,-32.9451,1.17511,-0.00150367,-0.000262755,-0.0070567,0.00620071,-0.00796713,-0.829248,0.00820097,0.0280042,643,988,-32.945,-1.17509
-574,36,-32.9582,1.0318,-0.00129035,-0.000649612,-0.00701995,0.00605728,-0.00799724,-0.808201,0.0081401,0.0247934,650,988,-32.9582,-1.03183
-567,36,-32.9822,1.0379,-0.00107839,-0.000771088,-0.00660462,0.00568167,-0.00753115,-0.797028,0.00765329,0.0330987,657,988,-32.9822,-1.03789
-560,36,-33.0108,1.01001,-0.000594669,-0.000701013,-0.00584585,0.00519826,-0.00649394,-0.78085,0.00676429,0.0385442,664,988,-33.0108,-1.00999
-553,36,-33.0172,1.15063,0.000253583,-0.000489505,-0.00484488,0.00474114,-0.00497707,-0.747129,0.00561136,0.0412339,671,988,-33.0172,-1.15061
-546,36,-33.0573,1.21667,0.00158189,-0.000235677,-0.00369772,0.00448086,-0.00313465,-0.664902,0.00441966,0.0452225,678,988,-33.0572,-1.21668
-539,36,-32.7867,1.06781,0.00346515,-6.45335e-05,-0.00275984,0.00497619,-0.00157557,-0.500929,0.00394885,0.0456876,685,988,-32.7867,-1.06779
-532,36,-32.6281,0.553345,0,0,0,0,0,0,0,-1,692,988,-32.6281,-0.553344
-525,36,-33.0569,0.991943,0,0,0,0,0,0,0,-1,699,988,-33.0569,-0.991927
-518,36,0,0,0,0,0,0,0,0,0,-1,706,988,0,0
-511,36,0,0,0,0,0,0,0,0,0,-1,713,988,0,0
-504,36,0,0,0,0,0,0,0,0,0,-1,720,988,0,0
-497,36,0,0,0,0,0,0,0,0,0,-1,727,988,0,0
-490,36,0,0,0,0,0,0,0,0,0,-1,734,988,0,0
-483,36,0,0,0,0,0,0,0,0,0,-1,741,988,0,0
-476,36,0,0,0,0,0,0,0,0,0,-1,748,988,0,0
-469,36,0,0,0,0,0,0,0,0,0,-1,755,988,0,0
-462,36,0,0,0,0,0,0,0,0,0,-1,762,988,0,0
-455,36,0,0,0,0,0,0,0,0,0,-1,769,988,0,0
-448,36,0,0,0,0,0,0,0,0,0,-1,776,988,0,0
-441,36,0,0,0,0,0,0,0,0,0,-1,783,988,0,0
-434,36,0,0,0,0,0,0,0,0,0,-1,790,988,0,0
-427,36,0,0,0,0,0,0,0,0,0,-1,797,988,0,0
-420,36,0,0,0,0,0,0,0,0,0,-1,804,988,0,0
-413,36,0,0,0,0,0,0,0,0,0,-1,811,988,0,0
-406,36,0,0,0,0,0,0,0,0,0,-1,818,988,0,0
-399,36,0,0,0,0,0,0,0,0,0,-1,825,988,0,0
-392,36,0,0,0,0,0,0,0,0,0,-1,832,988,0,0
-385,36,0,0,0,0,0,0,0,0,0,-1,839,988,0,0
-378,36,0,0,0,0,0,0,0,0,0,-1,846,988,0,0
-371,36,0,0,0,0,0,0,0,0,0,-1,853,988,0,0
-364,36,0,0,0,0,0,0,0,0,0,-1,860,988,0,0
-357,36,0,0,0,0,0,0,0,0,0,-1,867,988,0,0
-350,36,0,0,0,0,0,0,0,0,0,-1,874,988,0,0
-343,36,0,0,0,0,0,0,0,0,0,-1,881,988,0,0
-336,36,0,0,0,0,0,0,0,0,0,-1,888,988,0,0
-329,36,0,0,0,0,0,0,0,0,0,-1,895,988,0,0
-322,36,0,0,0,0,0,0,0,0,0,-1,902,988,0,0
-315,36,0,0,0,0,0,0,0,0,0,-1,909,988,0,0
-308,36,0,0,0,0,0,0,0,0,0,-1,916,988,0,0
-301,36,0,0,0,0,0,0,0,0,0,-1,923,988,0,0
-294,36,0,0,0,0,0,0,0,0,0,-1,930,988,0,0
-287,36,0,0,0,0,0,0,0,0,0,-1,937,988,0,0
-280,36,0,0,0,0,0,0,0,0,0,-1,944,988,0,0
-273,36,0,0,0,0,0,0,0,0,0,-1,951,988,0,0
-266,36,0,0,0,0,0,0,0,0,0,-1,958,988,0,0
-259,36,0,0,0,0,0,0,0,0,0,-1,965,988,0,0
-252,36,0,0,0,0,0,0,0,0,0,-1,972,988,0,0
-245,36,0,0,0,0,0,0,0,0,0,-1,979,988,0,0
-238,36,0,0,0,0,0,0,0,0,0,-1,986,988,0,0
-231,36,0,0,0,0,0,0,0,0,0,-1,993,988,0,0
-224,36,0,0,0,0,0,0,0,0,0,-1,1000,988,0,0
-217,36,0,0,0,0,0,0,0,0,0,-1,1007,988,0,0
-210,36,0,0,0,0,0,0,0,0,0,-1,1014,988,0,0
-203,36,0,0,0,0,0,0,0,0,0,-1,1021,988,0,0
-196,36,0,0,0,0,0,0,0,0,0,-1,1028,988,0,0
-189,36,0,0,0,0,0,0,0,0,0,-1,1035,988,0,0
-182,36,0,0,0,0,0,0,0,0,0,-1,1042,988,0,0
-175,36,0,0,0,0,0,0,0,0,0,-1,1049,988,0,0
-168,36,0,0,0,0,0,0,0,0,0,-1,1056,988,0,0
-161,36,0,0,0,0,0,0,0,0,0,-1,1063,988,0,0
-154,36,0,0,0,0,0,0,0,0,0,-1,1070,988,0,0
-147,36,0,0,0,0,0,0,0,0,0,-1,1077,988,0,0
-140,36,0,0,0,0,0,0,0,0,0,-1,1084,988,0,0
-133,36,0,0,0,0,0,0,0,0,0,-1,1091,988,0,0
-126,36,0,0,0,0,0,0,0,0,0,-1,1098,988,0,0
-119,36,0,0,0,0,0,0,0,0,0,-1,1105,988,0,0
-112,36,0,0,0,0,0,0,0,0,0,-1,1112,988,0,0
-105,36,0,0,0,0,0,0,0,0,0,-1,1119,988,0,0
-98,36,0,0,0,0,0,0,0,0,0,-1,1126,988,0,0
-91,36,0,0,0,0,0,0,0,0,0,-1,1133,988,0,0
-84,36,0,0,0,0,0,0,0,0,0,-1,1140,988,0,0
-77,36,0,0,0,0,0,0,0,0,0,-1,1147,988,0,0
-70,36,0,0,0,0,0,0,0,0,0,-1,1154,988,0,0
-63,36,0,0,0,0,0,0,0,0,0,-1,1161,988,0,0
-56,36,0,0,0,0,0,0,0,0,0,-1,1168,988,0,0
-49,36,0,0,0,0,0,0,0,0,0,-1,1175,988,0,0
-42,36,0,0,0,0,0,0,0,0,0,-1,1182,988,0,0
-35,36,0,0,0,0,0,0,0,0,0,-1,1189,988,0,0
-28,36,0,0,0,0,0,0,0,0,0,-1,1196,988,0,0
-21,36,0,0,0,0,0,0,0,0,0,-1,1203,988,0,0
-14,36,0,0,0,0,0,0,0,0,0,-1,1210,988,0,0
-7,36,0,0,0,0,0,0,0,0,0,-1,1217,988,0,0
0,36,0,0,0,0,0,0,0,0,0,-1,1224,988,0,0
7,36,0,0,0,0,0,0,0,0,0,-1,1231,988,0,0
14,36,0,0,0,0,0,0,0,0,0,-1,1238,988,0,0
21,36,0,0,0,0,0,0,0,0,0,-1,1245,988,0,0
28,36,0,0,0,0,0,0,0,0,0,-1,1252,988,0,0
35,36,0,0,0,0,0,0,0,0,0,-1,1259,988,0,0
42,36,0,0,0,0,0,0,0,0,0,-1,1266,988,0,0
49,36,0,0,0,0,0,0,0,0,0,-1,1273,988,0,0
56,36,0,0,0,0,0,0,0,0,0,-1,1280,988,0,0
63,36,0,0,0,0,0,0,0,0,0,-1,1287,988,0,0
70,36,0,0,0,0,0,0,0,0,0,-1,1294,988,0,0
77,36,0,0,0,0,0,0,0,0,0,-1,1301,988,0,0
84,36,0,0,0,0,0,0,0,0,0,-1,1308,988,0,0
91,36,0,0,0,0,0,0,0,0,0,-1,1315,988,0,0
98,36,0,0,0,0,0,0,0,0,0,-1,1322,988,0,0
105,36,0,0,0,0,0,0,0,0,0,-1,1329,988,0,0
112,36,0,0,0,0,0,0,0,0,0,-1,1336,988,0,0
119,36,0,0,0,0,0,0,0,0,0,-1,1343,988,0,0
126,36,0,0,0,0,0,0,0,0,0,-1,1350,988,0,0
133,36,0,0,0,0,0,0,0,0,0,-1,1357,988,0,0
140,36,0,0,0,0,0,0,0,0,0,-1,1364,988,0,0
147,36,0,0,0,0,0,0,0,0,0,-1,1371,988,0,0
154,36,0,0,0,0,0,0,0,0,0,-1,1378,988,0,0
161,36,0,0,0,0,0,0,0,0,0,-1,1385,988,0,0
168,36,0,0,0,0,0,0,0,0,0,-1,1392,988,0,0
175,36,0,0,0,0,0,0,0,0,0,-1,1399,988,0,0
182,36,0,0,0,0,0,0,0,0,0,-1,1406,988,0,0
189,36,0,0,0,0,0,0,0,0,0,-1,1413,988,0,0
196,36,0,0,0,0,0,0,0,0,0,-1,1420,988,0,0
203,36,0,0,0,0,0,0,0,0,0,-1,1427,988,0,0
210,36,0,0,0,0,0,0,0,0,0,-1,1434,988,0,0
217,36,0,0,0,0,0,0,0,0,0,-1,1441,988,0,0
224,36,0,0,0,0,0,0,0,0,0,-1,1448,988,0,0
231,36,0,0,0,0,0,0,0,0,0,-1,1455,988,0,0
238,36,0,0,0,0,0,0,0,0,0,-1,1462,988,0,0
245,36,0,0,0,0,0,0,0,0,0,-1,1469,988,0,0
252,36,0,0,0,0,0,0,0,0,0,-1,1476,988,0,0
259,36,0,0,0,0,0,0,0,0,0,-1,1483,988,0,0
266,36,0,0,0,0,0,0,0,0,0,-1,1490,988,0,0
273,36,0,0,0,0,0,0,0,0,0,-1,1497,988,0,0
280,36,0,0,0,0,0,0,0,0,0,-1,1504,988,0,0
287,36,0,0,0,0,0,0,0,0,0,-1,1511,988,0,0
294,36,0,0,0,0,0,0,0,0,0,-1,1518,988,0,0
301,36,0,0,0,0,0,0,0,0,0,-1,1525,988,0,0
308,36,0,0,0,0,0,0,0,0,0,-1,1532,988,0,0
315,36,0,0,0,0,0,0,0,0,0,-1,1539,988,0,0
322,36,0,0,0,0,0,0,0,0,0,-1,1546,988,0,0
329,36,0,0,0,0,0,0,0,0,0,-1,1553,988,0,0
336,36,0,0,0,0,0,0,0,0,0,-1,1560,988,0,0
343,36,0,0,0,0,0,0,0,0,0,-1,1567,988,0,0
350,36,0,0,0,0,0,0,0,0,0,-1,1574,988,0,0
357,36,0,0,0,0,0,0,0,0,0,-1,1581,988,0,0
364,36,0,0,0,0,0,0,0,0,0,-1,1588,988,0,0
371,36,0,0,0,0,0,0,0,0,0,-1,1595,988,0,0
378,36,0,0,0,0,0,0,0,0,0,-1,1602,988,0,0
385,36,0,0,0,0,0,0,0,0,0,-1,1609,988,0,0
392,36,0,0,0,0,0,0,0,0,0,-1,1616,988,0,0
399,36,0,0,0,0,0,0,0,0,0,-1,1623,988,0,0
406,36,0,0,0,0,0,0,0,0,0,-1,1630,988,0,0
413,36,0,0,0,0,0,0,0,0,0,-1,1637,988,0,0
420,36,0,0,0,0,0,0,0,0,0,-1,1644,988,0,0
427,36,0,0,0,0,0,0,0,0,0,-1,1651,988,0,0
434,36,0,0,0,0,0,0,0,0,0,-1,1658,988,0,0
441,36,0,0,0,0,0,0,0,0,0,-1,1665,988,0,0
448,36,0,0,0,0,0,0,0,0,0,-1,1672,988,0,0
455,36,0,0,0,0,0,0,0,0,0,-1,1679,988,0,0
462,36,0,0,0,0,0,0,0,0,0,-1,1686,988,0,0
469,36,0,0,0,0,0,0,0,0,0,-1,1693,988,0,0
476,36,0,0,0,0,0,0,0,0,0,-1,1700,988,0,0
483,36,0,0,0,0,0,0,0,0,0,-1,1707,988,0,0
490,36,0,0,0,0,0,0,0,0,0,-1,1714,988,0,0
497,36,0,0,0,0,0,0,0,0,0,-1,1721,988,0,0
504,36,0,0,0,0,0,0,0,0,0,-1,1728,988,0,0
511,36,0,0,0,0,0,0,0,0,0,-1,1735,988,0,0
518,36,0,0,0,0,0,0,0,0,0,-1,1742,988,0,0
525,36,0,0,0,0,0,0,0,0,0,-1,1749,988,0,0
532,36,0,0,0,0,0,0,0,0,0,-1,1756,988,0,0
539,36,0,0,0,0,0,0,0,0,0,-1,1763,988,0,0
546,36,0,0,0,0,0,0,0,0,0,-1,1770,988,0,0
553,36,0,0,0,0,0,0,0,0,0,-1,1777,988,0,0
560,36,0,0,0,0,0,0,0,0,0,-1,1784,988,0,0
567,36,0,0,0,0,0,0,0,0,0,-1,1791,988,0,0
574,36,0,0,0,0,0,0,0,0,0,-1,1798,988,0,0
581,36,0,0,0,0,0,0,0,0,0,-1,1805,988,0,0
588,36,0,0,0,0,0,0,0,0,0,-1,1812,988,0,0
595,36,0,0,0,0,0,0,0,0,0,-1,1819,988,0,0
602,36,0,0,0,0,0,0,0,0,0,-1,1826,988,0,0
609,36,0,0,0,0,0,0,0,0,0,-1,1833,988,0,0
616,36,0,0,0,0,0,0,0,0,0,-1,1840,988,0,0
623,36,0,0,0,0,0,0,0,0,0,-1,1847,988,0,0
630,36,0,0,0,0,0,0,0,0,0,-1,1854,988,0,0
637,36,0,0,0,0,0,0,0,0,0,-1,1861,988,0,0
644,36,44.6396,2.61493,0,0,0,0,0,0,0,-1,1868,988,44.6396,-2.61494
651,36,44.6665,3.00592,0,0,0,0,0,0,0,-1,1875,988,44.6665,-3.0059
658,36,44.8002,2.85388,0.0012843,0.00177574,0.000277517,0.00190069,0.00115935,1.14775,0.00110617,0.0387907,1882,988,44.8002,-2.85391
665,36,44.7511,2.79034,0.000476537,0.00139352,0.000302798,0.00148449,0.000385574,1.27896,0.000889441,0.0363282,1889,988,44.7511,-2.79037
672,36,44.6012,2.83728,-0.000250062,0.00123088,0.000566108,0.00142249,-0.000441672,1.24443,0.00112484,0.0380161,1896,988,44.6012,-2.83727
679,36,44.6344,2.84082,-0.000994019,0.0010938,0.00097076,0.00147542,-0.00137563,1.19624,0.00164639,0.0403465,1903,988,44.6344,-2.84081
686,36,44.6478,2.82086,-0.00133546,0.00085746,0.0013009,0.00146234,-0.00194035,1.13556,0.00197099,0.0383833,1910,988,44.6478,-2.82086
693,36,44.6156,2.70697,-0.00151448,0.000669014,0.00151181,0.00144207,-0.00228753,1.09811,0.00217165,0.0384497,1917,988,44.6156,-2.70696
700,36,44.6014,2.73468,-0.00181888,0.000562606,0.00151712,0.00130047,-0.00255675,1.11812,0.002266,0.0354209,1924,988,44.6014,-2.73466
707,36,44.6328,2.69098,-0.00215343,0.000655497,0.00150629,0.0013105,-0.00280844,1.16061,0.00242993,0.0271619,1931,988,44.6328,-2.69097
714,36,44.7535,2.48773,0,0,0,0,0,0,0,-1,1938,988,44.7536,-2.48776
721,36,44.1606,4.81763,0,0,0,0,0,0,0,-1,1945,988,44.1606,-4.81761
728,36,44.0283,5.11261,-0.00346697,0.00232499,0.000993451,0.00249065,-0.00363263,1.40556,0.00355571,0.0226829,1952,988,44.0283,-5.11262
735,36,43.9222,5.39111,-0.00353328,0.00304164,0.000658027,0.00310685,-0.00359849,1.47202,0.00387479,0.0202026,1959,988,43.9222,-5.39114
742,36,43.8782,5.55188,-0.00348742,0.0031662,-0.000115501,0.00316821,-0.00348943,-1.55344,0.00384528,0.0166161,1966,988,43.8781,-5.55189
749,36,43.8761,5.74841,-0.00359519,0.00329712,-0.0012021,0.00350077,-0.00379883,-1.40298,0.0042156,0.0171797,1973,988,43.8761,-5.74843
756,36,43.8573,5.9256,-0.00331101,0.00317797,-0.00296427,0.00432821,-0.00446124,-1.20065,0.00507478,0.0158826,1980,988,43.8573,-5.92557
763,36,43.7924,6.07343,-0.00288051,0.00268362,-0.00537584,0.00595462,-0.0061515,-1.02418,0.00698978,0.0182199,1987,988,43.7923,-6.07343
770,36,43.7368,6.26849,-0.00143164,0.000858515,-0.00863164,0.0084207,-0.00899383,-0.851343,0.0100561,0.015596,1994,988,43.7368,-6.26848
777,36,43.6995,6.5639,0.000624144,-0.00237235,-0.0129455,0.0121578,-0.0139061,-0.727787,0.0150593,0.0243798,2001,988,43.6994,-6.56393
784,36,43.7883,6.59906,0.00302691,-0.00732786,-0.0186511,0.0172059,-0.0215068,-0.650011,0.0223967,0.0439753,2008,988,43.7882,-6.59907
791,36,43.9658,6.49518,0,0,0,0,0,0,0,-1,2015,988,43.9658,-6.49517
798,36,44.2239,6.69495,0,0,0,0,0,0,0,-1,2022,988,44.2238,-6.69492
805,36,42.8298,6.74786,0,0,0,0,0,0,0,-1,2029,988,42.8297,-6.74789
812,36,43.4778,6.12805,0,0,0,0,0,0,0,-1,2036,988,43.4779,-6.12806
-700,29,0,0,0,0,0,0,0,0,0,-1,524,995,0,0
-693,29,-32.3595,2.59174,0,0,0,0,0,0,0,-1,531,995,-32.3595,-2.59171
-686,29,-33.7599,3.14203,0.0178524,-0.0166812,-0.0175775,0.0252252,-0.024054,-0.397157,0.0284541,0.0472131,538,995,-33.7599,-3.14204
-679,29,-35.1821,3.62042,0,0,0,0,0,0,0,-1,545,995,-35.1821,-3.62044
-672,29,-33.1744,3.53638,0,0,0,0,0,0,0,-1,552,995,-33.1744,-3.53639
-665,29,-32.2778,3.38226,-0.000765127,0.0124148,-0.0104847,0.0182085,-0.00655889,-1.06596,0.0148174,0.0419774,559,995,-32.2778,-3.38227
-658,29,-32.6404,3.26245,-0.00348027,0.0157677,-0.00790179,0.018596,-0.00630857,-1.22707,0.0149507,0.0434167,566,995,-32.6404,-3.26245
-651,29,-32.6458,2.96082,-0.00502792,0.0169875,-0.00557415,0.0183183,-0.00635881,-1.33642,0.0147946,0.0423649,573,995,-32.6458,-2.96082
-644,29,-32.9966,3.13281,-0.00563613,0.0164744,-0.00369556,0.0170757,-0.00623745,-1.40949,0.0139363,0.0262469,580,995,-32.9966,-3.13282
-637,29,-33.1539,3.27014,-0.00612612,0.0154324,-0.00268412,0.0157616,-0.00645528,-1.44877,0.0131967,0.0179912,587,995,-33.1539,-3.27015
-630,29,-33.1683,3.2652,-0.00527724,0.0138511,-0.0025148,0.0141762,-0.00560233,-1.44224,0.0117713,0.0129238,594,995,-33.1684,-3.26519
-623,29,-33.175,3.19965,-0.00424765,0.010478,-0.00277915,0.010985,-0.0047547,-1.39033,0.00932161,0.0112413,601,995,-33.175,-3.19966
-616,29,-33.1973,3.08234,-0.0032466,0.00763321,-0.00377771,0.00881627,-0.00442966,-1.2673,0.00778607,0.0126297,608,995,-33.1973,-3.08232
-609,29,-33.2006,2.98694,-0.00234489,0.00492305,-0.00495259,0.00743187,-0.00485371,-1.10191,0.00714495,0.0190369,615,995,-33.2006,-2.98696
-602,29,-33.216,2.86322,-0.00160542,0.00273955,-0.00570784,0.00667436,-0.00554024,-0.96724,0.00706222,0.0209721,622,995,-33.216,-2.86324
-595,29,-33.247,2.69299,-0.00126541,0.00114439,-0.00643608,0.00648738,-0.00660841,-0.877932,0.00756097,0.0220527,629,995,-33.247,-2.693
-588,29,-33.0861,2.02368,-0.000780876,9.60434e-05,-0.00715002,0.00682104,-0.00750587,-0.816021,0.00827479,0.0342906,636,995,-33.0862,-2.02369
-581,29,-32.9379,1.30817,-0.000347467,-0.000453565,-0.00751147,0.00711115,-0.00791218,-0.781867,0.00867783,0.0406857,643,995,-32.9379,-1.30815
-574,29,-32.9539,0.971802,-0.000187041,-0.000876519,-0.00740476,0.006881,-0.00794456,-0.762137,0.00856688,0.0295941,650,995,-32.9539,-0.971815
-567,29,-32.9895,0.908997,-9.52256e-05,-0.00104345,-0.00689425,0.0063412,-0.00747988,-0.751068,0.00798862,0.0311868,657,995,-32.9895,-0.909005
-560,29,-33.0692,0.903259,0.000173334,-0.00103922,-0.00603149,0.00562894,-0.00649482,-0.735307,0.0070056,0.0352382,664,995,-33.0692,-0.903265
-553,29,-33.1791,1.0282,0.0007062,-0.000930003,-0.00492663,0.0048822,-0.005106,-0.70312,0.00576717,0.0396277,671,995,-33.1791,-1.02818
-546,29,-33.0302,1.25104,0.00164985,-0.000831298,-0.00369719,0.00430905,-0.0034905,-0.623528,0.00451133,0.0449032,678,995,-33.0302,-1.25103
-539,29,-32.8741,1.11267,0.00311344,-0.000860896,-0.00281186,0.00456944,-0.0023169,-0.477791,0.00404611,0.0454115,685,995,-32.8741,-1.11266
-532,29,-32.6829,0.746399,0.00527995,-0.000337471,-0.00380152,0.0071978,-0.00225533,-0.467238,0.005701,0.0485923,692,995,-32.6829,-0.746421
-525,29,-32.5172,0.544739,0,0,0,0,0,0,0,-1,699,995,-32.5172,-0.544762
-518,29,0,0,0,0,0,0,0,0,0,-1,706,995,0,0
-511,29,0,0,0,0,0,0,0,0,0,-1,713,995,0,0
-504,29,0,0,0,0,0,0,0,0,0,-1,720,995,0,0
-497,29,0,0,0,0,0,0,0,0,0,-1,727,995,0,0
-490,29,0,0,0,0,0,0,0,0,0,-1,734,995,0,0
-483,29,0,0,0,0,0,0,0,0,0,-1,741,995,0,0
-476,29,0,0,0,0,0,0,0,0,0,-1,748,995,0,0
-469,29,0,0,0,0,0,0,0,0,0,-1,755,995,0,0
-462,29,0,0,0,0,0,0,0,0,0,-1,762,995,0,0
-455,29,0,0,0,0,0,0,0,0,0,-1,769,995,0,0
-448,29,0,0,0,0,0,0,0,0,0,-1,776,995,0,0
-441,29,0,0,0,0,0,0,0,0,0,-1,783,995,0,0
-434,29,0,0,0,0,0,0,0,0,0,-1,790,995,0,0
-427,29,0,0,0,0,0,0,0,0,0,-1,797,995,0,0
-420,29,0,0,0,0,0,0,0,0,0,-1,804,995,0,0
-413,29,0,0,0,0,0,0,0,0,0,-1,811,995,0,0
-406,29,0,0,0,0,0,0,0,0,0,-1,818,995,0,0
-399,29,0,0,0,0,0,0,0,0,0,-1,825,995,0,0
-392,29,0,0,0,0,0,0,0,0,0,-1,832,995,0,0
-385,29,0,0,0,0,0,0,0,0,0,-1,839,995,0,0
-378,29,0,0,0,0,0,0,0,0,0,-1,846,995,0,0
-371,29,0,0,0,0,0,0,0,0,0,-1,853,995,0,0
-364,29,0,0,0,0,0,0,0,0,0,-1,860,995,0,0
-357,29,0,0,0,0,0,0,0,0,0,-1,867,995,0,0
-350,29,0,0,0,0,0,0,0,0,0,-1,874,995,0,0
-343,29,0,0,0,0,0,0,0,0,0,-1,881,995,0,0
-336,29,0,0,0,0,0,0,0,0,0,-1,888,995,0,0
-329,29,0,0,0,0,0,0,0,0,0,-1,895,995,0,0
-322,29,0,0,0,0,0,0,0,0,0,-1,902,995,0,0
-315,29,0,0,0,0,0,0,0,0,0,-1,909,995,0,0
-308,29,0,0,0,0,0,0,0,0,0,-1,916,995,0,0
-301,29,0,0,0,0,0,0,0,0,0,-1,923,995,0,0
-294,29,0,0,0,0,0,0,0,0,0,-1,930,995,0,0
-287,29,0,0,0,0,0,0,0,0,0,-1,937,995,0,0
-280,29,0,0,0,0,0,0,0,0,0,-1,944,995,0,0
-273,29,0,0,0,0,0,0,0,0,0,-1,951,995,0,0
-266,29,0,0,0,0,0,0,0,0,0,-1,958,995,0,0
-259,29,0,0,0,0,0,0,0,0,0,-1,965,995,0,0
-252,29,0,0,0,0,0,0,0,0,0,-1,972,995,0,0
-245,29,0,0,0,0,0,0,0,0,0,-1,979,995,0,0
-238,29,0,0,0,0,0,0,0,0,0,-1,986,995,0,0
-231,29,0,0,0,0,0,0,0,0,0,-1,993,995,0,0
-224,29,0,0,0,0,0,0,0,0,0,-1,1000,995,0,0
-217,29,0,0,0,0,0,0,0,0,0,-1,1007,995,0,0
-210,29,0,0,0,0,0,0,0,0,0,-1,1014,995,0,0
-203,29,0,0,0,0,0,0,0,0,0,-1,1021,995,0,0
-196,29,0,0,0,0,0,0,0,0,0,-1,1028,995,0,0
-189,29,0,0,0,0,0,0,0,0,0,-1,1035,995,0,0
-182,29,0,0,0,0,0,0,0,0,0,-1,1042,995,0,0
-175,29,0,0,0,0,0,0,0,0,0,-1,1049,995,0,0
-168,29,0,0,0,0,0,0,0,0,0,-1,1056,995,0,0
-161,29,0,0,0,0,0,0,0,0,0,-1,1063,995,0,0
-154,29,0,0,0,0,0,0,0,0,0,-1,1070,995,0,0
-147,29,0,0,0,0,0,0,0,0,0,-1,1077,995,0,0
-140,29,0,0,0,0,0,0,0,0,0,-1,1084,995,0,0
-133,29,0,0,0,0,0,0,0,0,0,-1,1091,995,0,0
-126,29,0,0,0,0,0,0,0,0,0,-1,1098,995,0,0
-119,29,0,0,0,0,0,0,0,0,0,-1,1105,995,0,0
-112,29,0,0,0,0,0,0,0,0,0,-1,1112,995,0,0
-105,29,0,0,0,0,0,0,0,0,0,-1,1119,995,0,0
-98,29,0,0,0,0,0,0,0,0,0,-1,1126,995,0,0
-91,29,0,0,0,0,0,0,0,0,0,-1,1133,995,0,0
-84,29,0,0,0,0,0,0,0,0,0,-1,1140,995,0,0
-77,29,0,0,0,0,0,0,0,0,0,-1,1147,995,0,0
-70,29,0,0,0,0,0,0,0,0,0,-1,1154,995,0,0
-63,29,0,0,0,0,0,0,0,0,0,-1,1161,995,0,0
-56,29,0,0,0,0,0,0,0,0,0,-1,1168,995,0,0
-49,29,0,0,0,0,0,0,0,0,0,-1,1175,995,0,0
-42,29,0,0,0,0,0,0,0,0,0,-1,1182,995,0,0
-35,29,0,0,0,0,0,0,0,0,0,-1,1189,995,0,0
-28,29,0,0,0,0,0,0,0,0,0,-1,1196,995,0,0
-21,29,0,0,0,0,0,0,0,0,0,-1,1203,995,0,0
-14,29,0,0,0,0,0,0,0,0,0,-1,1210,995,0,0
-7,29,0,0,0,0,0,0,0,0,0,-1,1217,995,0,0
0,29,0,0,0,0,0,0,0,0,0,-1,1224,995,0,0
7,29,0,0,0,0,0,0,0,0,0,-1,1231,995,0,0
14,29,0,0,0,0,0,0,0,0,0,-1,1238,995,0,0
21,29,0,0,0,0,0,0,0,0,0,-1,1245,995,0,0
28,29,0,0,0,0,0,0,0,0,0,-1,1252,995,0,0
35,29,0,0,0,0,0,0,0,0,0,-1,1259,995,0,0
42,29,0,0,0,0,0,0,0,0,0,-1,1266,995,0,0
49,29,0,0,0,0,0,0,0,0,0,-1,1273,995,0,0
56,29,0,0,0,0,0,0,0,0,0,-1,1280,995,0,0
63,29,0,0,0,0,0,0,0,0,0,-1,1287,995,0,0
70,29,0,0,0,0,0,0,0,0,0,-1,1294,995,0,0
77,29,0,0,0,0,0,0,0,0,0,-1,1301,995,0,0
84,29,0,0,0,0,0,0,0,0,0,-1,1308,995,0,0
91,29,0,0,0,0,0,0,0,0,0,-1,1315,995,0,0
98,29,0,0,0,0,0,0,0,0,0,-1,1322,995,0,0
105,29,0,0,0,0,0,0,0,0,0,-1,1329,995,0,0
112,29,0,0,0,0,0,0,0,0,0,-1,1336,995,0,0
119,29,0,0,0,0,0,0,0,0,0,-1,1343,995,0,0
126,29,0,0,0,0,0,0,0,0,0,-1,1350,995,0,0
133,29,0,0,0,0,0,0,0,0,0,-1,1357,995,0,0
140,29,0,0,0,0,0,0,0,0,0,-1,1364,995,0,0
147,29,0,0,0,0,0,0,0,0,0,-1,1371,995,0,0
154,29,0,0,0,0,0,0,0,0,0,-1,1378,995,0,0
161,29,0,0,0,0,0,0,0,0,0,-1,1385,995,0,0
168,29,0,0,0,0,0,0,0,0,0,-1,1392,995,0,0
175,29,0,0,0,0,0,0,0,0,0,-1,1399,995,0,0
182,29,0,0,0,0,0,0,0,0,0,-1,1406,995,0,0
189,29,0,0,0,0,0,0,0,0,0,-1,1413,995,0,0
196,29,0,0,0,0,0,0,0,0,0,-1,1420,995,0,0
203,29,0,0,0,0,0,0,0,0,0,-1,1427,995,0,0
210,29,0,0,0,0,0,0,0,0,0,-1,1434,995,0,0
217,29,0,0,0,0,0,0,0,0,0,-1,1441,995,0,0
224,29,0,0,0,0,0,0,0,0,0,-1,1448,995,0,0
231,29,0,0,0,0,0,0,0,0,0,-1,1455,995,0,0
238,29,0,0,0,0,0,0,0,0,0,-1,1462,995,0,0
245,29,0,0,0,0,0,0,0,0,0,-1,1469,995,0,0
252,29,0,0,0,0,0,0,0,0,0,-1,1476,995,0,0
259,29,0,0,0,0,0,0,0,0,0,-1,1483,995,0,0
266,29,0,0,0,0,0,0,0,0,0,-1,1490,995,0,0
273,29,0,0,0,0,0,0,0,0,0,-1,1497,995,0,0
280,29,0,0,0,0,0,0,0,0,0,-1,1504,995,0,0
287,29,0,0,0,0,0,0,0,0,0,-1,1511,995,0,0
294,29,0,0,0,0,0,0,0,0,0,-1,1518,995,0,0
301,29,0,0,0,0,0,0,0,0,0,-1,1525,995,0,0
308,29,0,0,0,0,0,0,0,0,0,-1,1532,995,0,0
315,29,0,0,0,0,0,0,0,0,0,-1,1539,995,0,0
322,29,0,0,0,0,0,0,0,0,0,-1,1546,995,0,0
329,29,0,0,0,0,0,0,0,0,0,-1,1553,995,0,0
336,29,0,0,0,0,0,0,0,0,0,-1,1560,995,0,0
343,29,0,0,0,0,0,0,0,0,0,-1,1567,995,0,0
350,29,0,0,0,0,0,0,0,0,0,-1,1574,995,0,0
357,29,0,0,0,0,0,0,0,0,0,-1,1581,995,0,0
364,29,0,0,0,0,0,0,0,0,0,-1,1588,995,0,0
371,29,0,0,0,0,0,0,0,0,0,-1,1595,995,0,0
378,29,0,0,0,0,0,0,0,0,0,-1,1602,995,0,0
385,29,0,0,0,0,0,0,0,0,0,-1,1609,995,0,0
392,29,0,0,0,0,0,0,0,0,0,-1,1616,995,0,0
399,29,0,0,0,0,0,0,0,0,0,-1,1623,995,0,0
406,29,0,0,0,0,0,0,0,0,0,-1,1630,995,0,0
413,29,0,0,0,0,0,0,0,0,0,-1,1637,995,0,0
420,29,0,0,0,0,0,0,0,0,0,-1,1644,995,0,0
427,29,0,0,0,0,0,0,0,0,0,-1,1651,995,0,0
434,29,0,0,0,0,0,0,0,0,0,-1,1658,995,0,0
441,29,0,0,0,0,0,0,0,0,0,-1,1665,995,0,0
448,29,0,0,0,0,0,0,0,0,0,-1,1672,995,0,0
455,29,0,0,0,0,0,0,0,0,0,-1,1679,995,0,0
462,29,0,0,0,0,0,0,0,0,0,-1,1686,995,0,0
469,29,0,0,0,0,0,0,0,0,0,-1,1693,995,0,0
476,29,0,0,0,0,0,0,0,0,0,-1,1700,995,0,0
483,29,0,0,0,0,0,0,0,0,0,-1,1707,995,0,0
490,29,0,0,0,0,0,0,0,0,0,-1,1714,995,0,0
497,29,0,0,0,0,0,0,0,0,0,-1,1721,995,0,0
504,29,0,0,0,0,0,0,0,0,0,-1,1728,995,0,0
511,29,0,0,0,0,0,0,0,0,0,-1,1735,995,0,0
518,29,0,0,0,0,0,0,0,0,0,-1,1742,995,0,0
525,29,0,0,0,0,0,0,0,0,0,-1,1749,995,0,0
532,29,0,0,0,0,0,0,0,0,0,-1,1756,995,0,0
539,29,0,0,0,0,0,0,0,0,0,-1,1763,995,0,0
546,29,0,0,0,0,0,0,0,0,0,-1,1770,995,0,0
553,29,0,0,0,0,0,0,0,0,0,-1,1777,995,0,0
560,29,0,0,0,0,0,0,0,0,0,-1,1784,995,0,0
567,29,0,0,0,0,0,0,0,0,0,-1,1791,995,0,0
574,29,0,0,0,0,0,0,0,0,0,-1,1798,995,0,0
581,29,0,0,0,0,0,0,0,0,0,-1,1805,995,0,0
588,29,0,0,0,0,0,0,0,0,0,-1,1812,995,0,0
595,29,0,0,0,0,0,0,0,0,0,-1,1819,995,0,0
602,29,0,0,0,0,0,0,0,0,0,-1,1826,995,0,0
609,29,0,0,0,0,0,0,0,0,0,-1,1833,995,0,0
616,29,0,0,0,0,0,0,0,0,0,-1,1840,995,0,0
623,29,0,0,0,0,0,0,0,0,0,-1,1847,995,0,0
630,29,0,0,0,0,0,0,0,0,0,-1,1854,995,0,0
637,29,0,0,0,0,0,0,0,0,0,-1,1861,995,0,0
644,29,44.6239,2.56213,0.00444623,0.00346859,0.00219335,0.00620457,0.00171025,0.675758,0.00370046,0.0384936,1868,995,44.6239,-2.56214
651,29,44.5157,2.9198,0.0027008,0.00259245,0.00133089,0.00397862,0.00131463,0.765057,0.00234068,0.0405269,1875,995,44.5158,-2.9198
658,29,44.656,3.17291,0.00137251,0.00187343,0.000884534,0.00254228,0.000703661,0.923364,0.00151576,0.0428724,1882,995,44.656,-3.17294
665,29,44.7648,3.0177,0.000459382,0.00142364,0.00074746,0.00183097,5.20474e-05,1.07183,0.00120368,0.0414833,1889,995,44.7647,-3.0177
672,29,44.5845,2.98096,-0.000264245,0.00125242,0.000888845,0.00166247,-0.000674293,1.13856,0.00138876,0.0396384,1896,995,44.5844,-2.98095
679,29,44.5796,2.86041,-0.000957591,0.00112561,0.00120834,0.00167932,-0.00151131,1.14111,0.00184296,0.0405193,1903,995,44.5796,-2.8604
686,29,44.6754,2.78485,-0.00125218,0.000898785,0.00149437,0.00166444,-0.00201784,1.09731,0.00212923,0.0395715,1910,995,44.6754,-2.78487
693,29,44.6835,2.88287,-0.00136819,0.000715637,0.00169154,0.0016604,-0.00231296,1.06143,0.00230431,0.0399337,1917,995,44.6835,-2.88288
700,29,44.6255,2.7746,-0.00158395,0.000600085,0.0016806,0.0015123,-0.00249616,1.07351,0.0023374,0.0346176,1924,995,44.6255,-2.77461
707,29,44.5714,2.74072,-0.00183162,0.00069403,0.00166838,0.00152363,-0.00266121,1.10935,0.00244569,0.0242498,1931,995,44.5714,-2.74073
714,29,44.5754,3.21332,-0.00218691,0.00104193,0.00158236,0.00168809,-0.00283308,1.18311,0.00263805,0.039899,1938,995,44.5754,-3.21333
721,29,44.1897,4.88916,0,0,0,0,0,0,0,-1,1945,995,44.1897,-4.88913
728,29,44.1619,5.1991,-0.00314081,0.00238384,0.00112779,0.00260519,-0.00336217,1.37699,0.00345448,0.0277087,1952,995,44.1619,-5.1991
735,29,44.0852,5.47272,-0.00330104,0.00307526,0.000780338,0.00316937,-0.00339515,1.45077,0.00379077,0.0169434,1959,995,44.0852,-5.47275
742,29,44.0828,5.58392,-0.00358573,0.00323684,4.79834e-05,0.00323718,-0.00358606,1.56376,0.00394111,0.0147603,1966,995,44.0828,-5.58394
749,29,44.0468,5.72974,-0.00419636,0.00346064,-0.000971719,0.00358204,-0.00431776,-1.44651,0.00456754,0.0152332,1973,995,44.0468,-5.72972
756,29,44.028,5.9082,-0.00476869,0.00365248,-0.00264968,0.00441681,-0.00553303,-1.28996,0.00575658,0.0136148,1980,995,44.028,-5.90819
763,29,43.9962,6.02234,-0.00560296,0.00368578,-0.00501024,0.00587315,-0.00779034,-1.15916,0.00791446,0.0125459,1987,995,43.9962,-6.02235
770,29,43.9259,6.11542,-0.00592551,0.00264973,-0.00815806,0.00757827,-0.0108541,-1.02734,0.0106978,0.0157327,1994,995,43.9259,-6.11541
777,29,43.8292,6.35785,-0.00607961,0.000595147,-0.0123198,0.0100216,-0.015506,-0.917672,0.0148513,0.0259968,2001,995,43.8292,-6.35782
784,29,43.8132,6.6438,-0.00641691,-0.00264591,-0.0177416,0.0133101,-0.0223729,-0.838337,0.0208219,0.043742,2008,995,43.8133,-6.6438
791,29,43.7959,6.90601,0,0,0,0,0,0,0,-1,2015,995,43.7958,-6.90602
798,29,43.2646,7.28088,0,0,0,0,0,0,0,-1,2022,995,43.2646,-7.28089
805,29,42.8967,6.46051,0,0,0,0,0,0,0,-1,2029,995,42.8967,-6.46054
812,29,43.1357,6.52228,0,0,0,0,0,0,0,-1,2036,995,43.1358,-6.5223
-700,22,0,0,0,0,0,0,0,0,0,-1,524,1002,0,0
-693,22,-31.8923,2.29932,0,0,0,0,0,0,0,-1,531,1002,-31.8923,-2.29934
-686,22,-33.4337,3.07977,0,0,0,0,0,0,0,-1,538,1002,-33.4337,-3.07978
-679,22,-34.7649,3.62012,0,0,0,0,0,0,0,-1,545,1002,-34.7649,-3.62011
-672,22,-33.4302,3.46124,-0.00351313,0.0128216,-0.0140056,0.0208672,-0.0115588,-1.04937,0.0189766,0.0483851,552,1002,-33.4302,-3.46121
-665,22,-33.2629,3.32813,-0.00617883,0.0168366,-0.0109131,0.0211884,-0.0105306,-1.19135,0.0186544,0.0447346,559,1002,-33.2629,-3.32815
-658,22,-33.9747,3.38562,0,0,0,0,0,0,0,-1,566,1002,-33.9748,-3.38559
-651,22,-32.6101,2.67578,0,0,0,0,0,0,0,-1,573,1002,-32.6101,-2.67577
-644,22,-33.0267,2.86566,-0.00769574,0.017432,-0.00379906,0.0179938,-0.00825756,-1.42398,0.0154998,0.0276836,580,1002,-33.0267,-2.86565
-637,22,-33.262,3.17523,-0.00736377,0.0155376,-0.00273655,0.01586,-0.00768623,-1.4535,0.0138648,0.0189897,587,1002,-33.2619,-3.17522
-630,22,-33.2744,3.18457,-0.00586068,0.0134935,-0.00255993,0.0138263,-0.00619355,-1.44149,0.0118352,0.013482,594,1002,-33.2744,-3.18459
-623,22,-33.2925,3.13123,-0.00429604,0.0100847,-0.00295379,0.0106677,-0.00487911,-1.37591,0.00918103,0.0115115,601,1002,-33.2925,-3.13123
-616,22,-33.3038,3.03473,-0.00288409,0.0072583,-0.00415901,0.00874564,-0.00437143,-1.22735,0.00771223,0.0167921,608,1002,-33.3038,-3.03474
-609,22,-33.3465,2.97339,-0.00166914,0.00451292,-0.00548716,0.00771978,-0.004876,-1.0419,0.0073337,0.0261174,615,1002,-33.3465,-2.97341
-602,22,-33.4082,2.88959,-0.000835303,0.00238327,-0.00611294,0.0070952,-0.00554723,-0.914108,0.00731733,0.0272362,622,1002,-33.4082,-2.88959
-595,22,-33.2527,2.86176,0,0,0,0,0,0,0,-1,629,1002,-33.2528,-2.86175
-588,22,-33.09,2.01904,6.1781e-05,-0.000147274,-0.00736978,0.00732777,-0.00741327,-0.778307,0.00851079,0.0411974,636,1002,-33.09,-2.01901
-581,22,-32.9061,1.38275,0.000479095,-0.000716898,-0.0076376,0.00754208,-0.00777988,-0.74633,0.00884649,0.0437863,643,1002,-32.906,-1.38278
-574,22,-32.949,0.934509,0.000564702,-0.00113357,-0.00743292,0.00719683,-0.0077657,-0.728525,0.0086407,0.034848,650,1002,-32.949,-0.934528
-567,22,-32.9525,0.80304,0.000520642,-0.00129622,-0.0068111,0.00648362,-0.0072592,-0.719102,0.00793863,0.0343105,657,1002,-32.9524,-0.803013
-560,22,-32.9739,0.841675,0.000563889,-0.00129372,-0.00583749,0.005546,-0.00627584,-0.706504,0.00682968,0.0375393,664,1002,-32.9739,-0.841695
-553,22,-33.0142,1.11078,0.000770776,-0.00122202,-0.00463075,0.00451112,-0.00496236,-0.679429,0.00547158,0.0382579,671,1002,-33.0142,-1.1108
-546,22,-33.018,1.14099,0.00132172,-0.0012261,-0.00333016,0.00361331,-0.00351769,-0.602717,0.00411721,0.041099,678,1002,-33.018,-1.14102
-539,22,-32.9641,1.0517,0.00236621,-0.00143251,-0.00251398,0.00361767,-0.00268397,-0.461886,0.00365154,0.044254,685,1002,-32.9641,-1.05169
-532,22,-32.8036,0.864197,0.00420185,-0.00101573,-0.0038763,0.00626547,-0.00307936,-0.489207,0.00549878,0.0473509,692,1002,-32.8036,-0.864194
-525,22,0,0,0,0,0,0,0,0,0,-1,699,1002,0,0
-518,22,0,0,0,0,0,0,0,0,0,-1,706,1002,0,0
-511,22,0,0,0,0,0,0,0,0,0,-1,713,1002,0,0
-504,22,0,0,0,0,0,0,0,0,0,-1,720,1002,0,0
-497,22,0,0,0,0,0,0,0,0,0,-1,727,1002,0,0
-490,22,0,0,0,0,0,0,0,0,0,-1,734,1002,0,0
-483,22,0,0,0,0,0,0,0,0,0,-1,741,1002,0,0
-476,22,0,0,0,0,0,0,0,0,0,-1,748,1002,0,0
-469,22,0,0,0,0,0,0,0,0,0,-1,755,1002,0,0
-462,22,0,0,0,0,0,0,0,0,0,-1,762,1002,0,0
-455,22,0,0,0,0,0,0,0,0,0,-1,769,1002,0,0
-448,22,0,0,0,0,0,0,0,0,0,-1,776,1002,0,0
-441,22,0,0,0,0,0,0,0,0,0,-1,783,1002,0,0
-434,22,0,0,0,0,0,0,0,0,0,-1,790,1002,0,0
-427,22,0,0,0,0,0,0,0,0,0,-1,797,1002,0,0
-420,22,0,0,0,0,0,0,0,0,0,-1,804,1002,0,0
-413,22,0,0,0,0,0,0,0,0,0,-1,811,1002,0,0
-406,22,0,0,0,0,0,0,0,0,0,-1,818,1002,0,0
-399,22,0,0,0,0,0,0,0,0,0,-1,825,1002,0,0
-392,22,0,0,0,0,0,0,0,0,0,-1,832,1002,0,0
-385,22,0,0,0,0,0,0,0,0,0,-1,839,1002,0,0
-378,22,0,0,0,0,0,0,0,0,0,-1,846,1002,0,0
-371,22,0,0,0,0,0,0,0,0,0,-1,853,1002,0,0
-364,22,0,0,0,0,0,0,0,0,0,-1,860,1002,0,0
-357,22,0,0,0,0,0,0,0,0,0,-1,867,1002,0,0
-350,22,0,0,0,0,0,0,0,0,0,-1,874,1002,0,0
-343,22,0,0,0,0,0,0,0,0,0,-1,881,1002,0,0
-336,22,0,0,0,0,0,0,0,0,0,-1,888,1002,0,0
-329,22,0,0,0,0,0,0,0,0,0,-1,895,1002,0,0
-322,22,0,0,0,0,0,0,0,0,0,-1,902,1002,0,0
-315,22,0,0,0,0,0,0,0,0,0,-1,909,1002,0,0
-308,22,0,0,0,0,0,0,0,0,0,-1,916,1002,0,0
-301,22,0,0,0,0,0,0,0,0,0,-1,923,1002,0,0
-294,22,0,0,0,0,0,0,0,0,0,-1,930,1002,0,0
-287,22,0,0,0,0,0,0,0,0,0,-1,937,1002,0,0
-280,22,0,0,0,0,0,0,0,0,0,-1,944,1002,0,0
-273,22,0,0,0,0,0,0,0,0,0,-1,951,1002,0,0
-266,22,0,0,0,0,0,0,0,0,0,-1,958,1002,0,0
-259,22,0,0,0,0,0,0,0,0,0,-1,965,1002,0,0
-252,22,0,0,0,0,0,0,0,0,0,-1,972,1002,0,0
-245,22,0,0,0,0,0,0,0,0,0,-1,979,1002,0,0
-238,22,0,0,0,0,0,0,0,0,0,-1,986,1002,0,0
-231,22,0,0,0,0,0,0,0,0,0,-1,993,1002,0,0
-224,22,0,0,0,0,0,0,0,0,0,-1,1000,1002,0,0
-217,22,0,0,0,0,0,0,0,0,0,-1,1007,1002,0,0
-210,22,0,0,0,0,0,0,0,0,0,-1,1014,1002,0,0
-203,22,0,0,0,0,0,0,0,0,0,-1,1021,1002,0,0
-196,22,0,0,0,0,0,0,0,0,0,-1,1028,1002,0,0
-189,22,0,0,0,0,0,0,0,0,0,-1,1035,1002,0,0
-182,22,0,0,0,0,0,0,0,0,0,-1,1042,1002,0,0
-175,22,0,0,0,0,0,0,0,0,0,-1,1049,1002,0,0
-168,22,0,0,0,0,0,0,0,0,0,-1,1056,1002,0,0
-161,22,0,0,0,0,0,0,0,0,0,-1,1063,1002,0,0
-154,22,0,0,0,0,0,0,0,0,0,-1,1070,1002,0,0
-147,22,0,0,0,0,0,0,0,0,0,-1,1077,1002,0,0
-140,22,0,0,0,0,0,0,0,0,0,-1,1084,1002,0,0
-133,22,0,0,0,0,0,0,0,0,0,-1,1091,1002,0,0
-126,22,0,0,0,0,0,0,0,0,0,-1,1098,1002,0,0
-119,22,0,0,0,0,0,0,0,0,0,-1,1105,1002,0,0
-112,22,0,0,0,0,0,0,0,0,0,-1,1112,1002,0,0
-105,22,0,0,0,0,0,0,0,0,0,-1,1119,1002,0,0
-98,22,0,0,0,0,0,0,0,0,0,-1,1126,1002,0,0
-91,22,0,0,0,0,0,0,0,0,0,-1,1133,1002,0,0
-84,22,0,0,0,0,0,0,0,0,0,-1,1140,1002,0,0
-77,22,0,0,0,0,0,0,0,0,0,-1,1147,1002,0,0
-70,22,0,0,0,0,0,0,0,0,0,-1,1154,1002,0,0
-63,22,0,0,0,0,0,0,0,0,0,-1,1161,1002,0,0
-56,22,0,0,0,0,0,0,0,0,0,-1,1168,1002,0,0
-49,22,0,0,0,0,0,0,0,0,0,-1,1175,1002,0,0
-42,22,0,0,0,0,0,0,0,0,0,-1,1182,1002,0,0
-35,22,0,0,0,0,0,0,0,0,0,-1,1189,1002,0,0
-28,22,0,0,0,0,0,0,0,0,0,-1,1196,1002,0,0
-21,22,0,0,0,0,0,0,0,0,0,-1,1203,1002,0,0
-14,22,0,0,0,0,0,0,0,0,0,-1,1210,1002,0,0
-7,22,0,0,0,0,0,0,0,0,0,-1,1217,1002,0,0
0,22,0,0,0,0,0,0,0,0,0,-1,1224,1002,0,0
7,22,0,0,0,0,0,0,0,0,0,-1,1231,1002,0,0
14,22,0,0,0,0,0,0,0,0,0,-1,1238,1002,0,0
21,22,0,0,0,0,0,0,0,0,0,-1,1245,1002,0,0
28,22,0,0,0,0,0,0,0,0,0,-1,1252,1002,0,0
35,22,0,0,0,0,0,0,0,0,0,-1,1259,1002,0,0
42,22,0,0,0,0,0,0,0,0,0,-1,1266,1002,0,0
49,22,0,0,0,0,0,0,0,0,0,-1,1273,1002,0,0
56,22,0,0,0,0,0,0,0,0,0,-1,1280,1002,0,0
63,22,0,0,0,0,0,0,0,0,0,-1,1287,1002,0,0
70,22,0,0,0,0,0,0,0,0,0,-1,1294,1002,0,0
77,22,0,0,0,0,0,0,0,0,0,-1,1301,1002,0,0
84,22,0,0,0,0,0,0,0,0,0,-1,1308,1002,0,0
91,22,0,0,0,0,0,0,0,0,0,-1,1315,1002,0,0
98,22,0,0,0,0,0,0,0,0,0,-1,1322,1002,0,0
105,22,0,0,0,0,0,0,0,0,0,-1,1329,1002,0,0
112,22,0,0,0,0,0,0,0,0,0,-1,1336,1002,0,0
119,22,0,0,0,0,0,0,0,0,0,-1,1343,1002,0,0
126,22,0,0,0,0,0,0,0,0,0,-1,1350,1002,0,0
133,22,0,0,0,0,0,0,0,0,0,-1,1357,1002,0,0
140,22,0,0,0,0,0,0,0,0,0,-1,1364,1002,0,0
147,22,0,0,0,0,0,0,0,0,0,-1,1371,1002,0,0
154,22,0,0,0,0,0,0,0,0,0,-1,1378,1002,0,0
161,22,0,0,0,0,0,0,0,0,0,-1,1385,1002,0,0
168,22,0,0,0,0,0,0,0,0,0,-1,1392,1002,0,0
175,22,0,0,0,0,0,0,0,0,0,-1,1399,1002,0,0
182,22,0,0,0,0,0,0,0,0,0,-1,1406,1002,0,0
189,22,0,0,0,0,0,0,0,0,0,-1,1413,1002,0,0
196,22,0,0,0,0,0,0,0,0,0,-1,1420,1002,0,0
203,22,0,0,0,0,0,0,0,0,0,-1,1427,1002,0,0
210,22,0,0,0,0,0,0,0,0,0,-1,1434,1002,0,0
217,22,0,0,0,0,0,0,0,0,0,-1,1441,1002,0,0
224,22,0,0,0,0,0,0,0,0,0,-1,1448,1002,0,0
231,22,0,0,0,0,0,0,0,0,0,-1,1455,1002,0,0
238,22,0,0,0,0,0,0,0,0,0,-1,1462,1002,0,0
245,22,0,0,0,0,0,0,0,0,0,-1,1469,1002,0,0
252,22,0,0,0,0,0,0,0,0,0,-1,1476,1002,0,0
259,22,0,0,0,0,0,0,0,0,0,-1,1483,1002,0,0
266,22,0,0,0,0,0,0,0,0,0,-1,1490,1002,0,0
273,22,0,0,0,0,0,0,0,0,0,-1,1497,1002,0,0
280,22,0,0,0,0,0,0,0,0,0,-1,1504,1002,0,0
287,22,0,0,0,0,0,0,0,0,0,-1,1511,1002,0,0
294,22,0,0,0,0,0,0,0,0,0,-1,1518,1002,0,0
301,22,0,0,0,0,0,0,0,0,0,-1,1525,1002,0,0
308,22,0,0,0,0,0,0,0,0,0,-1,1532,1002,0,0
315,22,0,0,0,0,0,0,0,0,0,-1,1539,1002,0,0
322,22,0,0,0,0,0,0,0,0,0,-1,1546,1002,0,0
329,22,0,0,0,0,0,0,0,0,0,-1,1553,1002,0,0
336,22,0,0,0,0,0,0,0,0,0,-1,1560,1002,0,0
343,22,0,0,0,0,0,0,0,0,0,-1,1567,1002,0,0
350,22,0,0,0,0,0,0,0,0,0,-1,1574,1002,0,0
357,22,0,0,0,0,0,0,0,0,0,-1,1581,1002,0,0
364,22,0,0,0,0,0,0,0,0,0,-1,1588,1002,0,0
371,22,0,0,0,0,0,0,0,0,0,-1,1595,1002,0,0
378,22,0,0,0,0,0,0,0,0,0,-1,1602,1002,0,0
385,22,0,0,0,0,0,0,0,0,0,-1,1609,1002,0,0
392,22,0,0,0,0,0,0,0,0,0,-1,1616,1002,0,0
399,22,0,0,0,0,0,0,0,0,0,-1,1623,1002,0,0
406,22,0,0,0,0,0,0,0,0,0,-1,1630,1002,0,0
413,22,0,0,0,0,0,0,0,0,0,-1,1637,1002,0,0
420,22,0,0,0,0,0,0,0,0,0,-1,1644,1002,0,0
427,22,0,0,0,0,0,0,0,0,0,-1,1651,1002,0,0
434,22,0,0,0,0,0,0,0,0,0,-1,1658,1002,0,0
441,22,0,0,0,0,0,0,0,0,0,-1,1665,1002,0,0
448,22,0,0,0,0,0,0,0,0,0,-1,1672,1002,0,0
455,22,0,0,0,0,0,0,0,0,0,-1,1679,1002,0,0
462,22,0,0,0,0,0,0,0,0,0,-1,1686,1002,0,0
469,22,0,0,0,0,0,0,0,0,0,-1,1693,1002,0,0
476,22,0,0,0,0,0,0,0,0,0,-1,1700,1002,0,0
483,22,0,0,0,0,0,0,0,0,0,-1,1707,1002,0,0
490,22,0,0,0,0,0,0,0,0,0,-1,1714,1002,0,0
497,22,0,0,0,0,0,0,0,0,0,-1,1721,1002,0,0
504,22,0,0,0,0,0,0,0,0,0,-1,1728,1002,0,0
511,22,0,0,0,0,0,0,0,0,0,-1,1735,1002,0,0
518,22,0,0,0,0,0,0,0,0,0,-1,1742,1002,0,0
525,22,0,0,0,0,0,0,0,0,0,-1,1749,1002,0,0
532,22,0,0,0,0,0,0,0,0,0,-1,1756,1002,0,0
539,22,0,0,0,0,0,0,0,0,0,-1,1763,1002,0,0
546,22,0,0,0,0,0,0,0,0,0,-1,1770,1002,0,0
553,22,0,0,0,0,0,0,0,0,0,-1,1777,1002,0,0
560,22,0,0,0,0,0,0,0,0,0,-1,1784,1002,0,0
567,22,0,0,0,0,0,0,0,0,0,-1,1791,1002,0,0
574,22,0,0,0,0,0,0,0,0,0,-1,1798,1002,0,0
581,22,0,0,0,0,0,0,0,0,0,-1,1805,1002,0,0
588,22,0,0,0,0,0,0,0,0,0,-1,1812,1002,0,0
595,22,0,0,0,0,0,0,0,0,0,-1,1819,1002,0,0
602,22,0,0,0,0,0,0,0,0,0,-1,1826,1002,0,0
609,22,0,0,0,0,0,0,0,0,0,-1,1833,1002,0,0
616,22,0,0,0,0,0,0,0,0,0,-1,1840,1002,0,0
623,22,0,0,0,0,0,0,0,0,0,-1,1847,1002,0,0
630,22,0,0,0,0,0,0,0,0,0,-1,1854,1002,0,0
637,22,0,0,0,0,0,0,0,0,0,-1,1861,1002,0,0
644,22,44.5369,2.65912,0.00460731,0.00342784,0.00343356,0.00750142,0.000533739,0.70035,0.00483287,0.0379041,1868,1002,44.5368,-2.65909
651,22,44.6361,3.05756,0.00262869,0.00235123,0.00215916,0.00465357,0.000326354,0.753317,0.00299952,0.0423777,1875,1002,44.6361,-3.05756
658,22,44.6554,3.0307,0.00118588,0.00150721,0.00141038,0.00276605,-7.2961e-05,0.842113,0.00186883,0.0415378,1882,1002,44.6554,-3.03068
665,22,44.6434,2.89459,0.000247952,0.000979135,0.00105703,0.00173201,-0.000504919,0.951893,0.00135471,0.039084,1889,1002,44.6434,-2.89462
672,22,44.5944,2.81799,-0.000411794,0.000806793,0.00103614,0.00139951,-0.00100451,1.05119,0.00139419,0.0396605,1896,1002,44.5943,-2.818
679,22,44.5774,2.80621,-0.00100907,0.00071532,0.00124311,0.00136597,-0.00165972,1.0886,0.00174963,0.0394627,1903,1002,44.5773,-2.8062
686,22,44.6593,2.77869,-0.00123222,0.000535572,0.00148302,0.00137812,-0.00207476,1.05414,0.002007,0.0376258,1910,1002,44.6593,-2.77871
693,22,44.6156,2.77856,-0.00127025,0.000396395,0.00168055,0.00143889,-0.00231275,1.01556,0.00218551,0.0384577,1917,1002,44.6156,-2.77853
700,22,44.5933,2.84015,-0.00138951,0.000308909,0.00168473,0.00134635,-0.00242696,1.01885,0.0022081,0.0353685,1924,1002,44.5933,-2.84014
707,22,44.5237,2.80664,-0.00153838,0.00043366,0.0016883,0.00140279,-0.00250751,1.0497,0.00228744,0.0323522,1931,1002,44.5237,-2.80662
714,22,44.5295,2.98303,-0.00182696,0.000833015,0.00162868,0.00160575,-0.0025997,1.12779,0.00245052,0.0391447,1938,1002,44.5295,-2.98301
721,22,44.6417,3.37268,0,0,0,0,0,0,0,-1,1945,1002,44.6418,-3.37269
728,22,44.1875,5.45538,0,0,0,0,0,0,0,-1,1952,1002,44.1875,-5.45537
735,22,44.2197,5.54858,-0.00313021,0.00295696,0.000936904,0.0030979,-0.00327115,1.42148,0.00367763,0.0162806,1959,1002,44.2197,-5.54861
742,22,44.2379,5.64307,-0.0037499,0.00323336,0.000291846,0.00324553,-0.00376207,1.5291,0.00404951,0.0173813,1966,1002,44.2379,-5.6431
749,22,44.182,5.7262,-0.00483723,0.00373759,-0.000622646,0.00378257,-0.00488221,-1.49869,0.00501602,0.0132617,1973,1002,44.1821,-5.72622
756,22,44.1643,5.83209,-0.00626573,0.00441181,-0.00216099,0.00483258,-0.0066865,-1.37849,0.0066792,0.0173818,1980,1002,44.1644,-5.8321
763,22,44.131,5.9762,-0.0083283,0.00521977,-0.00440909,0.00652828,-0.00963682,-1.2823,0.00939027,0.0200375,1987,1002,44.131,-5.97621
770,22,44.025,6.04071,-0.0104558,0.00536728,-0.00736561,0.00826521,-0.0133537,-1.19596,0.0125964,0.0177128,1994,1002,44.025,-6.0407
777,22,43.8131,5.9895,-0.0128699,0.00498387,-0.0112787,0.010441,-0.018327,-1.12016,0.0168159,0.035862,2001,1002,43.8131,-5.9895
784,22,43.6313,5.97571,0,0,0,0,0,0,0,-1,2008,1002,43.6315,-5.97573
791,22,42.3975,5.7442,0,0,0,0,0,0,0,-1,2015,1002,42.3975,-5.74421
798,22,42.9731,5.93829,0,0,0,0,0,0,0,-1,2022,1002,42.9732,-5.93827
805,22,43.217,6.22693,0,0,0,0,0,0,0,-1,2029,1002,43.2169,-6.22695
812,22,43.4707,6.27258,0,0,0,0,0,0,0,-1,2036,1002,43.4708,-6.27256
-700,15,0,0,0,0,0,0,0,0,0,-1,524,1009,0,0
-693,15,-32.5487,3.17999,0,0,0,0,0,0,0,-1,531,1009,-32.5487,-3.17999
-686,15,-33.113,3.36261,0,0,0,0,0,0,0,-1,538,1009,-33.113,-3.36261
-679,15,-33.4279,3.55219,0,0,0,0,0,0,0,-1,545,1009,-33.428,-3.55219
-672,15,-33.6171,3.43835,-0.007042,0.0184564,-0.0154969,0.0257745,-0.0143601,-1.12961,0.023482,0.0481295,552,1009,-33.6171,-3.43837
-665,15,-33.8818,3.17365,-0.00848236,0.0207975,-0.0119103,0.0250304,-0.0127152,-1.22932,0.0221757,0.0450434,559,1009,-33.8819,-3.17364
-658,15,-34.1384,3.04382,-0.00898602,0.021321,-0.00876952,0.0236756,-0.0113406,-1.30849,0.0206305,0.0485566,566,1009,-34.1384,-3.04382
-651,15,-34.1489,2.92688,0,0,0,0,0,0,0,-1,573,1009,-34.1489,-2.92688
-644,15,-33.2511,3.08063,0,0,0,0,0,0,0,-1,580,1009,-33.2511,-3.08066
-637,15,-33.252,3.11835,-0.00731822,0.0156403,-0.0029468,0.0160125,-0.00769042,-1.44516,0.0139632,0.0266721,587,1009,-33.252,-3.11836
-630,15,-33.2839,3.11542,-0.00557035,0.013123,-0.00266793,0.0134963,-0.00594366,-1.43177,0.0115026,0.0149374,594,1009,-33.2839,-3.11543
-623,15,-33.3376,3.07739,-0.00380038,0.00967946,-0.00309709,0.010357,-0.00447791,-1.35543,0.00878626,0.0104396,601,1009,-33.3376,-3.07742
-616,15,-33.3728,3.03278,-0.00228233,0.00684495,-0.00444194,0.0086498,-0.00408717,-1.18485,0.00750932,0.0160047,608,1009,-33.3728,-3.03278
-609,15,-33.3846,3.01105,-0.00109283,0.004024,-0.00584488,0.00784587,-0.0049147,-0.991695,0.00743183,0.0228038,615,1009,-33.3846,-3.01102
-602,15,-33.3837,2.94391,-0.000272742,0.00197897,-0.00634309,0.00729535,-0.00558912,-0.87323,0.00746056,0.0230093,622,1009,-33.3837,-2.94391
-595,15,-33.1545,2.26898,0,0,0,0,0,0,0,-1,629,1009,-33.1545,-2.26896
-588,15,-32.9722,1.64709,0,0,0,0,0,0,0,-1,636,1009,-32.9722,-1.64707
-581,15,-32.9617,0.880005,0,0,0,0,0,0,0,-1,643,1009,-32.9616,-0.879985
-574,15,-32.9372,0.995178,0.000961708,-0.00141962,-0.00723223,0.00710063,-0.00755855,-0.703813,0.00846486,0.0344002,650,1009,-32.9372,-0.995163
-567,15,-32.972,0.966309,0.000751237,-0.00157556,-0.00652583,0.00621656,-0.00704089,-0.697187,0.00765912,0.0370477,657,1009,-32.972,-0.96632
-560,15,-32.9329,1.18005,0.000538721,-0.00157405,-0.00548022,0.00506345,-0.00609878,-0.690184,0.00645375,0.0395685,664,1009,-32.9329,-1.18004
-553,15,-32.9468,1.2934,0.000376256,-0.00153811,-0.00422397,0.00375014,-0.004912,-0.673976,0.00501606,0.0373903,671,1009,-32.9468,-1.29338
-546,15,-33.0477,1.09857,0.00045393,-0.00164614,-0.00292269,0.00250949,-0.0037017,-0.612944,0.00360798,0.039078,678,1009,-33.0477,-1.09855
-539,15,-33.0693,0.986694,0.000946881,-0.00204468,-0.00223717,0.00214225,-0.00324005,-0.490726,0.00312894,0.0420385,685,1009,-33.0693,-0.986725
-532,15,-32.978,0.97168,0.00222505,-0.00181673,-0.00390266,0.00459902,-0.0041907,-0.546496,0.00507657,0.0432502,692,1009,-32.978,-0.971706
-525,15,0,0,0,0,0,0,0,0,0,-1,699,1009,0,0
-518,15,0,0,0,0,0,0,0,0,0,-1,706,1009,0,0
-511,15,0,0,0,0,0,0,0,0,0,-1,713,1009,0,0
-504,15,0,0,0,0,0,0,0,0,0,-1,720,1009,0,0
-497,15,0,0,0,0,0,0,0,0,0,-1,727,1009,0,0
-490,15,0,0,0,0,0,0,0,0,0,-1,734,1009,0,0
-483,15,0,0,0,0,0,0,0,0,0,-1,741,1009,0,0
-476,15,0,0,0,0,0,0,0,0,0,-1,748,1009,0,0
-469,15,0,0,0,0,0,0,0,0,0,-1,755,1009,0,0
-462,15,0,0,0,0,0,0,0,0,0,-1,762,1009,0,0
-455,15,0,0,0,0,0,0,0,0,0,-1,769,1009,0,0
-448,15,0,0,0,0,0,0,0,0,0,-1,776,1009,0,0
-441,15,0,0,0,0,0,0,0,0,0,-1,783,1009,0,0
-434,15,0,0,0,0,0,0,0,0,0,-1,790,1009,0,0
-427,15,0,0,0,0,0,0,0,0,0,-1,797,1009,0,0
-420,15,0,0,0,0,0,0,0,0,0,-1,804,1009,0,0
-413,15,0,0,0,0,0,0,0,0,0,-1,811,1009,0,0
-406,15,0,0,0,0,0,0,0,0,0,-1,818,1009,0,0
-399,15,0,0,0,0,0,0,0,0,0,-1,825,1009,0,0
-392,15,0,0,0,0,0,0,0,0,0,-1,832,1009,0,0
-385,15,0,0,0,0,0,0,0,0,0,-1,839,1009,0,0
-378,15,0,0,0,0,0,0,0,0,0,-1,846,1009,0,0
-371,15,0,0,0,0,0,0,0,0,0,-1,853,1009,0,0
-364,15,0,0,0,0,0,0,0,0,0,-1,860,1009,0,0
-357,15,0,0,0,0,0,0,0,0,0,-1,867,1009,0,0
-350,15,0,0,0,0,0,0,0,0,0,-1,874,1009,0,0
-343,15,0,0,0,0,0,0,0,0,0,-1,881,1009,0,0
-336,15,0,0,0,0,0,0,0,0,0,-1,888,1009,0,0
-329,15,0,0,0,0,0,0,0,0,0,-1,895,1009,0,0
-322,15,0,0,0,0,0,0,0,0,0,-1,902,1009,0,0
-315,15,0,0,0,0,0,0,0,0,0,-1,909,1009,0,0
-308,15,0,0,0,0,0,0,0,0,0,-1,916,1009,0,0
-301,15,0,0,0,0,0,0,0,0,0,-1,923,1009,0,0
-294,15,0,0,0,0,0,0,0,0,0,-1,930,1009,0,0
-287,15,0,0,0,0,0,0,0,0,0,-1,937,1009,0,0
-280,15,0,0,0,0,0,0,0,0,0,-1,944,1009,0,0
-273,15,0,0,0,0,0,0,0,0,0,-1,951,1009,0,0
-266,15,0,0,0,0,0,0,0,0,0,-1,958,1009,0,0
-259,15,0,0,0,0,0,0,0,0,0,-1,965,1009,0,0
-252,15,0,0,0,0,0,0,0,0,0,-1,972,1009,0,0
-245,15,0,0,0,0,0,0,0,0,0,-1,979,1009,0,0
-238,15,0,0,0,0,0,0,0,0,0,-1,986,1009,0,0
-231,15,0,0,0,0,0,0,0,0,0,-1,993,1009,0,0
-224,15,0,0,0,0,0,0,0,0,0,-1,1000,1009,0,0
-217,15,0,0,0,0,0,0,0,0,0,-1,1007,1009,0,0
-210,15,0,0,0,0,0,0,0,0,0,-1,1014,1009,0,0
-203,15,0,0,0,0,0,0,0,0,0,-1,1021,1009,0,0
-196,15,0,0,0,0,0,0,0,0,0,-1,1028,1009,0,0
-189,15,0,0,0,0,0,0,0,0,0,-1,1035,1009,0,0
-182,15,0,0,0,0,0,0,0,0,0,-1,1042,1009,0,0
-175,15,0,0,0,0,0,0,0,0,0,-1,1049,1009,0,0
-168,15,0,0,0,0,0,0,0,0,0,-1,1056,1009,0,0
-161,15,0,0,0,0,0,0,0,0,0,-1,1063,1009,0,0
-154,15,0,0,0,0,0,0,0,0,0,-1,1070,1009,0,0
-147,15,0,0,0,0,0,0,0,0,0,-1,1077,1009,0,0
-140,15,0,0,0,0,0,0,0,0,0,-1,1084,1009,0,0
-133,15,0,0,0,0,0,0,0,0,0,-1,1091,1009,0,0
-126,15,0,0,0,0,0,0,0,0,0,-1,1098,1009,0,0
-119,15,0,0,0,0,0,0,0,0,0,-1,1105,1009,0,0
-112,15,0,0,0,0,0,0,0,0,0,-1,1112,1009,0,0
-105,15,0,0,0,0,0,0,0,0,0,-1,1119,1009,0,0
-98,15,0,0,0,0,0,0,0,0,0,-1,1126,1009,0,0
-91,15,0,0,0,0,0,0,0,0,0,-1,1133,1009,0,0
-84,15,0,0,0,0,0,0,0,0,0,-1,1140,1009,0,0
-77,15,0,0,0,0,0,0,0,0,0,-1,1147,1009,0,0
-70,15,0,0,0,0,0,0,0,0,0,-1,1154,1009,0,0
-63,15,0,0,0,0,0,0,0,0,0,-1,1161,1009,0,0
-56,15,0,0,0,0,0,0,0,0,0,-1,1168,1009,0,0
-49,15,0,0,0,0,0,0,0,0,0,-1,1175,1009,0,0
-42,15,0,0,0,0,0,0,0,0,0,-1,1182,1009,0,0
-35,15,0,0,0,0,0,0,0,0,0,-1,1189,1009,0,0
-28,15,0,0,0,0,0,0,0,0,0,-1,1196,1009,0,0
-21,15,0,0,0,0,0,0,0,0,0,-1,1203,1009,0,0
-14,15,0,0,0,0,0,0,0,0,0,-1,1210,1009,0,0
-7,15,0,0,0,0,0,0,0,0,0,-1,1217,1009,0,0
0,15,0,0,0,0,0,0,0,0,0,-1,1224,1009,0,0
7,15,0,0,0,0,0,0,0,0,0,-1,1231,1009,0,0
14,15,0,0,0,0,0,0,0,0,0,-1,1238,1009,0,0
21,15,0,0,0,0,0,0,0,0,0,-1,1245,1009,0,0
28,15,0,0,0,0,0,0,0,0,0,-1,1252,1009,0,0
35,15,0,0,0,0,0,0,0,0,0,-1,1259,1009,0,0
42,15,0,0,0,0,0,0,0,0,0,-1,1266,1009,0,0
49,15,0,0,0,0,0,0,0,0,0,-1,1273,1009,0,0
56,15,0,0,0,0,0,0,0,0,0,-1,1280,1009,0,0
63,15,0,0,0,0,0,0,0,0,0,-1,1287,1009,0,0
70,15,0,0,0,0,0,0,0,0,0,-1,1294,1009,0,0
77,15,0,0,0,0,0,0,0,0,0,-1,1301,1009,0,0
84,15,0,0,0,0,0,0,0,0,0,-1,1308,1009,0,0
91,15,0,0,0,0,0,0,0,0,0,-1,1315,1009,0,0
98,15,0,0,0,0,0,0,0,0,0,-1,1322,1009,0,0
105,15,0,0,0,0,0,0,0,0,0,-1,1329,1009,0,0
112,15,0,0,0,0,0,0,0,0,0,-1,1336,1009,0,0
119,15,0,0,0,0,0,0,0,0,0,-1,1343,1009,0,0
126,15,0,0,0,0,0,0,0,0,0,-1,1350,1009,0,0
133,15,0,0,0,0,0,0,0,0,0,-1,1357,1009,0,0
140,15,0,0,0,0,0,0,0,0,0,-1,1364,1009,0,0
147,15,0,0,0,0,0,0,0,0,0,-1,1371,1009,0,0
154,15,0,0,0,0,0,0,0,0,0,-1,1378,1009,0,0
161,15,0,0,0,0,0,0,0,0,0,-1,1385,1009,0,0
168,15,0,0,0,0,0,0,0,0,0,-1,1392,1009,0,0
175,15,0,0,0,0,0,0,0,0,0,-1,1399,1009,0,0
182,15,0,0,0,0,0,0,0,0,0,-1,1406,1009,0,0
189,15,0,0,0,0,0,0,0,0,0,-1,1413,1009,0,0
196,15,0,0,0,0,0,0,0,0,0,-1,1420,1009,0,0
203,15,0,0,0,0,0,0,0,0,0,-1,1427,1009,0,0
210,15,0,0,0,0,0,0,0,0,0,-1,1434,1009,0,0
217,15,0,0,0,0,0,0,0,0,0,-1,1441,1009,0,0
224,15,0,0,0,0,0,0,0,0,0,-1,1448,1009,0,0
231,15,0,0,0,0,0,0,0,0,0,-1,1455,1009,0,0
238,15,0,0,0,0,0,0,0,0,0,-1,1462,1009,0,0
245,15,0,0,0,0,0,0,0,0,0,-1,1469,1009,0,0
252,15,0,0,0,0,0,0,0,0,0,-1,1476,1009,0,0
259,15,0,0,0,0,0,0,0,0,0,-1,1483,1009,0,0
266,15,0,0,0,0,0,0,0,0,0,-1,1490,1009,0,0
273,15,0,0,0,0,0,0,0,0,0,-1,1497,1009,0,0
280,15,0,0,0,0,0,0,0,0,0,-1,1504,1009,0,0
287,15,0,0,0,0,0,0,0,0,0,-1,1511,1009,0,0
294,15,0,0,0,0,0,0,0,0,0,-1,1518,1009,0,0
301,15,0,0,0,0,0,0,0,0,0,-1,1525,1009,0,0
308,15,0,0,0,0,0,0,0,0,0,-1,1532,1009,0,0
315,15,0,0,0,0,0,0,0,0,0,-1,1539,1009,0,0
322,15,0,0,0,0,0,0,0,0,0,-1,1546,1009,0,0
329,15,0,0,0,0,0,0,0,0,0,-1,1553,1009,0,0
336,15,0,0,0,0,0,0,0,0,0,-1,1560,1009,0,0
343,15,0,0,0,0,0,0,0,0,0,-1,1567,1009,0,0
350,15,0,0,0,0,0,0,0,0,0,-1,1574,1009,0,0
357,15,0,0,0,0,0,0,0,0,0,-1,1581,1009,0,0
364,15,0,0,0,0,0,0,0,0,0,-1,1588,1009,0,0
371,15,0,0,0,0,0,0,0,0,0,-1,1595,1009,0,0
378,15,0,0,0,0,0,0,0,0,0,-1,1602,1009,0,0
385,15,0,0,0,0,0,0,0,0,0,-1,1609,1009,0,0
392,15,0,0,0,0,0,0,0,0,0,-1,1616,1009,0,0
399,15,0,0,0,0,0,0,0,0,0,-1,1623,1009,0,0
406,15,0,0,0,0,0,0,0,0,0,-1,1630,1009,0,0
413,15,0,0,0,0,0,0,0,0,0,-1,1637,1009,0,0
420,15,0,0,0,0,0,0,0,0,0,-1,1644,1009,0,0
427,15,0,0,0,0,0,0,0,0,0,-1,1651,1009,0,0
434,15,0,0,0,0,0,0,0,0,0,-1,1658,1009,0,0
441,15,0,0,0,0,0,0,0,0,0,-1,1665,1009,0,0
448,15,0,0,0,0,0,0,0,0,0,-1,1672,1009,0,0
455,15,0,0,0,0,0,0,0,0,0,-1,1679,1009,0,0
462,15,0,0,0,0,0,0,0,0,0,-1,1686,1009,0,0
469,15,0,0,0,0,0,0,0,0,0,-1,1693,1009,0,0
476,15,0,0,0,0,0,0,0,0,0,-1,1700,1009,0,0
483,15,0,0,0,0,0,0,0,0,0,-1,1707,1009,0,0
490,15,0,0,0,0,0,0,0,0,0,-1,1714,1009,0,0
497,15,0,0,0,0,0,0,0,0,0,-1,1721,1009,0,0
504,15,0,0,0,0,0,0,0,0,0,-1,1728,1009,0,0
511,15,0,0,0,0,0,0,0,0,0,-1,1735,1009,0,0
518,15,0,0,0,0,0,0,0,0,0,-1,1742,1009,0,0
525,15,0,0,0,0,0,0,0,0,0,-1,1749,1009,0,0
532,15,0,0,0,0,0,0,0,0,0,-1,1756,1009,0,0
539,15,0,0,0,0,0,0,0,0,0,-1,1763,1009,0,0
546,15,0,0,0,0,0,0,0,0,0,-1,1770,1009,0,0
553,15,0,0,0,0,0,0,0,0,0,-1,1777,1009,0,0
560,15,0,0,0,0,0,0,0,0,0,-1,1784,1009,0,0
567,15,0,0,0,0,0,0,0,0,0,-1,1791,1009,0,0
574,15,0,0,0,0,0,0,0,0,0,-1,1798,1009,0,0
581,15,0,0,0,0,0,0,0,0,0,-1,1805,1009,0,0
588,15,0,0,0,0,0,0,0,0,0,-1,1812,1009,0,0
595,15,0,0,0,0,0,0,0,0,0,-1,1819,1009,0,0
602,15,0,0,0,0,0,0,0,0,0,-1,1826,1009,0,0
609,15,0,0,0,0,0,0,0,0,0,-1,1833,1009,0,0
616,15,0,0,0,0,0,0,0,0,0,-1,1840,1009,0,0
623,15,0,0,0,0,0,0,0,0,0,-1,1847,1009,0,0
630,15,0,0,0,0,0,0,0,0,0,-1,1854,1009,0,0
637,15,0,0,0,0,0,0,0,0,0,-1,1861,1009,0,0
644,15,44.4187,2.58997,0.00446587,0.00363516,0.00472507,0.0087938,-0.000692775,0.741558,0.00610657,0.0381445,1868,1009,44.4188,-2.58998
651,15,44.6082,2.67523,0.00247835,0.00231244,0.00307803,0.00547454,-0.000683754,0.771926,0.00389765,0.0384105,1875,1009,44.6081,-2.67522
658,15,44.566,2.79065,0.00104709,0.00133178,0.00203204,0.00322646,-0.000847577,0.820366,0.00248221,0.0366774,1882,1009,44.566,-2.79062
665,15,44.4935,2.69037,0.000145099,0.00071388,0.00146108,0.00191799,-0.00105901,0.881519,0.00174246,0.0372498,1889,1009,44.4935,-2.69038
672,15,44.506,2.64117,-0.000435442,0.000514548,0.00127377,0.001399,-0.0013199,0.963865,0.00156998,0.0393287,1896,1009,44.5059,-2.64115
679,15,44.5922,2.64526,-0.000928498,0.000437032,0.00134546,0.00126305,-0.00175452,1.0202,0.00174988,0.0380658,1903,1009,44.5921,-2.64527
686,15,44.6978,2.57507,-0.00108137,0.000285443,0.00150733,0.00125705,-0.00205298,0.998233,0.00192938,0.0390113,1910,1009,44.6977,-2.57509
693,15,44.5536,2.50116,-0.00105259,0.000176308,0.00168203,0.00135261,-0.00222889,0.960519,0.00208831,0.0391979,1917,1009,44.5536,-2.50113
700,15,44.5359,2.72705,-0.00108145,0.000110258,0.00168986,0.00130624,-0.00227743,0.954895,0.00209421,0.0323958,1924,1009,44.5359,-2.72705
707,15,44.5278,2.82281,-0.00113936,0.000249701,0.00167777,0.00137101,-0.00226067,0.981639,0.00211762,0.0310814,1931,1009,44.5279,-2.82279
714,15,44.554,2.84076,-0.00137215,0.000673235,0.0016302,0.00157498,-0.00227389,1.06554,0.00223433,0.0359491,1938,1009,44.5539,-2.84076
721,15,44.6794,2.81445,0,0,0,0,0,0,0,-1,1945,1009,44.6794,-2.81443
728,15,44.376,5.44476,0,0,0,0,0,0,0,-1,1952,1009,44.376,-5.44474
735,15,44.2905,5.56317,-0.00286276,0.00289712,0.00106178,0.00308662,-0.00305226,1.39419,0.0035443,0.0173828,1959,1009,44.2905,-5.56316
742,15,44.2676,5.72974,-0.00371382,0.00329753,0.000488102,0.00333134,-0.00374764,1.50163,0.00408941,0.0290103,1966,1009,44.2676,-5.72972
749,15,44.2698,5.77167,-0.00511077,0.00405928,-0.000300652,0.00406913,-0.00512062,-1.53806,0.00531727,0.0179679,1973,1009,44.2697,-5.77165
756,15,44.2656,5.74756,-0.00717128,0.00517892,-0.00169409,0.00540708,-0.00739944,-1.43692,0.00742362,0.0152703,1980,1009,44.2656,-5.74754
763,15,44.2297,5.86804,-0.0101464,0.00669531,-0.00382281,0.00752241,-0.0109735,-1.35772,0.0107404,0.0138273,1987,1009,44.2298,-5.86802
770,15,44.1265,5.91388,-0.0137014,0.0079622,-0.00658107,0.00980473,-0.0155439,-1.29781,0.0147595,0.0189057,1994,1009,44.1265,-5.9139
777,15,43.8579,5.9386,-0.0179915,0.00917948,-0.010243,0.0126083,-0.0214203,-1.24778,0.0198648,0.0412326,2001,1009,43.8579,-5.93858
784,15,43.6667,5.94672,0,0,0,0,0,0,0,-1,2008,1009,43.6667,-5.94671
791,15,42.6589,4.36652,0,0,0,0,0,0,0,-1,2015,1009,42.6589,-4.36654
798,15,41.7888,4.98663,0,0,0,0,0,0,0,-1,2022,1009,41.7889,-4.98666
805,15,43.4771,5.65674,0,0,0,0,0,0,0,-1,2029,1009,43.477,-5.65674
812,15,39.7278,5.85449,0,0,0,0,0,0,0,-1,2036,1009,39.7278,-5.8545
-700,8,0,0,0,0,0,0,0,0,0,-1,524,1016,0,0
-693,8,-32.156,3.21399,0,0,0,0,0,0,0,-1,531,1016,-32.1561,-3.21401
-686,8,-32.7323,3.55109,0,0,0,0,0,0,0,-1,538,1016,-32.7323,-3.55107
-679,8,-33.2684,3.61835,-0.00961596,0.0226047,-0.0209142,0.0328941,-0.0199054,-1.11358,0.0307897,0.045384,545,1016,-33.2684,-3.61836
-672,8,-33.7451,3.55316,-0.0102954,0.0249771,-0.0163788,0.0314095,-0.0167278,-1.19657,0.0282197,0.0454199,552,1016,-33.7451,-3.55317
-665,8,-34.0739,3.62921,0,0,0,0,0,0,0,-1,559,1016,-34.0739,-3.62923
-658,8,-33.7986,2.60602,0,0,0,0,0,0,0,-1,566,1016,-33.7986,-2.60602
-651,8,-33.337,2.83484,0,0,0,0,0,0,0,-1,573,1016,-33.337,-2.83481
-644,8,-33.1242,2.80121,0,0,0,0,0,0,0,-1,580,1016,-33.1242,-2.80123
-637,8,-33.1454,2.9389,-0.00685107,0.0161498,-0.00311277,0.0165636,-0.00726488,-1.43863,0.0141022,0.0365916,587,1016,-33.1454,-2.9389
-630,8,-33.3153,3.0506,-0.00497832,0.0128909,-0.00279917,0.0133191,-0.00540654,-1.41899,0.0111284,0.0213258,594,1016,-33.3153,-3.05061
-623,8,-33.3077,3.07373,-0.00323808,0.00934647,-0.00328097,0.0101505,-0.0040421,-1.33047,0.00844329,0.0154507,601,1016,-33.3077,-3.07376
-616,8,-33.3335,3.0376,-0.00186442,0.00639349,-0.00475802,0.0085643,-0.00403523,-1.14276,0.00742935,0.0152662,608,1016,-33.3335,-3.03758
-609,8,-33.3495,3.00244,-0.000792655,0.00346079,-0.00622733,0.00791454,-0.0052464,-0.949946,0.00765034,0.0178112,615,1016,-33.3495,-3.00246
-602,8,-33.3145,3.03748,-1.98082e-06,0.00149783,-0.00658843,0.0073789,-0.00588305,-0.842065,0.00767301,0.0226209,622,1016,-33.3145,-3.03746
-595,8,-32.9561,2.05408,0,0,0,0,0,0,0,-1,629,1016,-32.9561,-2.05405
-588,8,-32.9551,1.23517,0,0,0,0,0,0,0,-1,636,1016,-32.9551,-1.23518
-581,8,-32.8892,1.00751,0.00109011,-0.00143582,-0.0073548,0.0072896,-0.00763531,-0.700368,0.00861767,0.0301224,643,1016,-32.8892,-1.00748
-574,8,-32.9113,1.09814,0.000970091,-0.00186979,-0.00696236,0.00665584,-0.00755553,-0.684805,0.00821042,0.0360991,650,1016,-32.9112,-1.09812
-567,8,-32.9346,1.14069,0.000605101,-0.00204369,-0.00616628,0.0055876,-0.0070262,-0.679615,0.00729835,0.0404581,657,1016,-32.9345,-1.14071
-560,8,-32.9109,1.25964,0.000167955,-0.00205452,-0.00505085,0.00422837,-0.00611493,-0.677118,0.00600473,0.0406523,664,1016,-32.9109,-1.25962
-553,8,-32.9716,1.35254,-0.000312617,-0.00203529,-0.00375816,0.00268165,-0.00502956,-0.672748,0.00452034,0.0383724,671,1016,-32.9716,-1.35254
-546,8,-33.1418,1.26764,-0.000656645,-0.00218765,-0.00248831,0.00118125,-0.00402555,-0.636172,0.00315211,0.0387355,678,1016,-33.1418,-1.26766
-539,8,-33.1013,1.16119,-0.000680472,-0.00269182,-0.00203001,0.000579321,-0.00395161,-0.555417,0.00284723,0.0397969,685,1016,-33.1013,-1.16118
-532,8,-33.0038,1.1228,2.84458e-05,-0.00256559,-0.00406245,0.0029959,-0.00553305,-0.630878,0.00499629,0.0407805,692,1016,-33.0038,-1.12279
-525,8,0,0,0,0,0,0,0,0,0,-1,699,1016,0,0
-518,8,0,0,0,0,0,0,0,0,0,-1,706,1016,0,0
-511,8,0,0,0,0,0,0,0,0,0,-1,713,1016,0,0
-504,8,0,0,0,0,0,0,0,0,0,-1,720,1016,0,0
-497,8,0,0,0,0,0,0,0,0,0,-1,727,1016,0,0
-490,8,0,0,0,0,0,0,0,0,0,-1,734,1016,0,0
-483,8,0,0,0,0,0,0,0,0,0,-1,741,1016,0,0
-476,8,0,0,0,0,0,0,0,0,0,-1,748,1016,0,0
-469,8,0,0,0,0,0,0,0,0,0,-1,755,1016,0,0
-462,8,0,0,0,0,0,0,0,0,0,-1,762,1016,0,0
-455,8,0,0,0,0,0,0,0,0,0,-1,769,1016,0,0
-448,8,0,0,0,0,0,0,0,0,0,-1,776,1016,0,0
-441,8,0,0,0,0,0,0,0,0,0,-1,783,1016,0,0
-434,8,0,0,0,0,0,0,0,0,0,-1,790,1016,0,0
-427,8,0,0,0,0,0,0,0,0,0,-1,797,1016,0,0
-420,8,0,0,0,0,0,0,0,0,0,-1,804,1016,0,0
-413,8,0,0,0,0,0,0,0,0,0,-1,811,1016,0,0
-406,8,0,0,0,0,0,0,0,0,0,-1,818,1016,0,0
-399,8,0,0,0,0,0,0,0,0,0,-1,825,1016,0,0
-392,8,0,0,0,0,0,0,0,0,0,-1,832,1016,0,0
-385,8,0,0,0,0,0,0,0,0,0,-1,839,1016,0,0
-378,8,0,0,0,0,0,0,0,0,0,-1,846,1016,0,0
-371,8,0,0,0,0,0,0,0,0,0,-1,853,1016,0,0
-364,8,0,0,0,0,0,0,0,0,0,-1,860,1016,0,0
-357,8,0,0,0,0,0,0,0,0,0,-1,867,1016,0,0
-350,8,0,0,0,0,0,0,0,0,0,-1,874,1016,0,0
-343,8,0,0,0,0,0,0,0,0,0,-1,881,1016,0,0
-336,8,0,0,0,0,0,0,0,0,0,-1,888,1016,0,0
-329,8,0,0,0,0,0,0,0,0,0,-1,895,1016,0,0
-322,8,0,0,0,0,0,0,0,0,0,-1,902,1016,0,0
-315,8,0,0,0,0,0,0,0,0,0,-1,909,1016,0,0
-308,8,0,0,0,0,0,0,0,0,0,-1,916,1016,0,0
-301,8,0,0,0,0,0,0,0,0,0,-1,923,1016,0,0
-294,8,0,0,0,0,0,0,0,0,0,-1,930,1016,0,0
-287,8,0,0,0,0,0,0,0,0,0,-1,937,1016,0,0
-280,8,0,0,0,0,0,0,0,0,0,-1,944,1016,0,0
-273,8,0,0,0,0,0,0,0,0,0,-1,951,1016,0,0
-266,8,0,0,0,0,0,0,0,0,0,-1,958,1016,0,0
-259,8,0,0,0,0,0,0,0,0,0,-1,965,1016,0,0
-252,8,0,0,0,0,0,0,0,0,0,-1,972,1016,0,0
-245,8,0,0,0,0,0,0,0,0,0,-1,979,1016,0,0
-238,8,0,0,0,0,0,0,0,0,0,-1,986,1016,0,0
-231,8,0,0,0,0,0,0,0,0,0,-1,993,1016,0,0
-224,8,0,0,0,0,0,0,0,0,0,-1,1000,1016,0,0
-217,8,0,0,0,0,0,0,0,0,0,-1,1007,1016,0,0
-210,8,0,0,0,0,0,0,0,0,0,-1,1014,1016,0,0
-203,8,0,0,0,0,0,0,0,0,0,-1,1021,1016,0,0
-196,8,0,0,0,0,0,0,0,0,0,-1,1028,1016,0,0
-189,8,0,0,0,0,0,0,0,0,0,-1,1035,1016,0,0
-182,8,0,0,0,0,0,0,0,0,0,-1,1042,1016,0,0
-175,8,0,0,0,0,0,0,0,0,0,-1,1049,1016,0,0
-168,8,0,0,0,0,0,0,0,0,0,-1,1056,1016,0,0
-161,8,0,0,0,0,0,0,0,0,0,-1,1063,1016,0,0
-154,8,0,0,0,0,0,0,0,0,0,-1,1070,1016,0,0
-147,8,0,0,0,0,0,0,0,0,0,-1,1077,1016,0,0
-140,8,0,0,0,0,0,0,0,0,0,-1,1084,1016,0,0
-133,8,0,0,0,0,0,0,0,0,0,-1,1091,1016,0,0
-126,8,0,0,0,0,0,0,0,0,0,-1,1098,1016,0,0
-119,8,0,0,0,0,0,0,0,0,0,-1,1105,1016,0,0
-112,8,0,0,0,0,0,0,0,0,0,-1,1112,1016,0,0
-105,8,0,0,0,0,0,0,0,0,0,-1,1119,1016,0,0
-98,8,0,0,0,0,0,0,0,0,0,-1,1126,1016,0,0
-91,8,0,0,0,0,0,0,0,0,0,-1,1133,1016,0,0
-84,8,0,0,0,0,0,0,0,0,0,-1,1140,1016,0,0
-77,8,0,0,0,0,0,0,0,0,0,-1,1147,1016,0,0
-70,8,0,0,0,0,0,0,0,0,0,-1,1154,1016,0,0
-63,8,0,0,0,0,0,0,0,0,0,-1,1161,1016,0,0
-56,8,0,0,0,0,0,0,0,0,0,-1,1168,1016,0,0
-49,8,0,0,0,0,0,0,0,0,0,-1,1175,1016,0,0
-42,8,0,0,0,0,0,0,0,0,0,-1,1182,1016,0,0
-35,8,0,0,0,0,0,0,0,0,0,-1,1189,1016,0,0
-28,8,0,0,0,0,0,0,0,0,0,-1,1196,1016,0,0
-21,8,0,0,0,0,0,0,0,0,0,-1,1203,1016,0,0
-14,8,0,0,0,0,0,0,0,0,0,-1,1210,1016,0,0
-7,8,0,0,0,0,0,0,0,0,0,-1,1217,1016,0,0
0,8,0,0,0,0,0,0,0,0,0,-1,1224,1016,0,0
7,8,0,0,0,0,0,0,0,0,0,-1,1231,1016,0,0
14,8,0,0,0,0,0,0,0,0,0,-1,1238,1016,0,0
21,8,0,0,0,0,0,0,0,0,0,-1,1245,1016,0,0
28,8,0,0,0,0,0,0,0,0,0,-1,1252,1016,0,0
35,8,0,0,0,0,0,0,0,0,0,-1,1259,1016,0,0
42,8,0,0,0,0,0,0,0,0,0,-1,1266,1016,0,0
49,8,0,0,0,0,0,0,0,0,0,-1,1273,1016,0,0
56,8,0,0,0,0,0,0,0,0,0,-1,1280,1016,0,0
63,8,0,0,0,0,0,0,0,0,0,-1,1287,1016,0,0
70,8,0,0,0,0,0,0,0,0,0,-1,1294,1016,0,0
77,8,0,0,0,0,0,0,0,0,0,-1,1301,1016,0,0
84,8,0,0,0,0,0,0,0,0,0,-1,1308,1016,0,0
91,8,0,0,0,0,0,0,0,0,0,-1,1315,1016,0,0
98,8,0,0,0,0,0,0,0,0,0,-1,1322,1016,0,0
105,8,0,0,0,0,0,0,0,0,0,-1,1329,1016,0,0
112,8,0,0,0,0,0,0,0,0,0,-1,1336,1016,0,0
119,8,0,0,0,0,0,0,0,0,0,-1,1343,1016,0,0
126,8,0,0,0,0,0,0,0,0,0,-1,1350,1016,0,0
133,8,0,0,0,0,0,0,0,0,0,-1,1357,1016,0,0
140,8,0,0,0,0,0,0,0,0,0,-1,1364,1016,0,0
147,8,0,0,0,0,0,0,0,0,0,-1,1371,1016,0,0
154,8,0,0,0,0,0,0,0,0,0,-1,1378,1016,0,0
161,8,0,0,0,0,0,0,0,0,0,-1,1385,1016,0,0
168,8,0,0,0,0,0,0,0,0,0,-1,1392,1016,0,0
175,8,0,0,0,0,0,0,0,0,0,-1,1399,1016,0,0
182,8,0,0,0,0,0,0,0,0,0,-1,1406,1016,0,0
189,8,0,0,0,0,0,0,0,0,0,-1,1413,1016,0,0
196,8,0,0,0,0,0,0,0,0,0,-1,1420,1016,0,0
203,8,0,0,0,0,0,0,0,0,0,-1,1427,1016,0,0
210,8,0,0,0,0,0,0,0,0,0,-1,1434,1016,0,0
217,8,0,0,0,0,0,0,0,0,0,-1,1441,1016,0,0
224,8,0,0,0,0,0,0,0,0,0,-1,1448,1016,0,0
231,8,0,0,0,0,0,0,0,0,0,-1,1455,1016,0,0
238,8,0,0,0,0,0,0,0,0,0,-1,1462,1016,0,0
245,8,0,0,0,0,0,0,0,0,0,-1,1469,1016,0,0
252,8,0,0,0,0,0,0,0,0,0,-1,1476,1016,0,0
259,8,0,0,0,0,0,0,0,0,0,-1,1483,1016,0,0
266,8,0,0,0,0,0,0,0,0,0,-1,1490,1016,0,0
273,8,0,0,0,0,0,0,0,0,0,-1,1497,1016,0,0
280,8,0,0,0,0,0,0,0,0,0,-1,1504,1016,0,0
287,8,0,0,0,0,0,0,0,0,0,-1,1511,1016,0,0
294,8,0,0,0,0,0,0,0,0,0,-1,1518,1016,0,0
301,8,0,0,0,0,0,0,0,0,0,-1,1525,1016,0,0
308,8,0,0,0,0,0,0,0,0,0,-1,1532,1016,0,0
315,8,0,0,0,0,0,0,0,0,0,-1,1539,1016,0,0
322,8,0,0,0,0,0,0,0,0,0,-1,1546,1016,0,0
329,8,0,0,0,0,0,0,0,0,0,-1,1553,1016,0,0
336,8,0,0,0,0,0,0,0,0,0,-1,1560,1016,0,0
343,8,0,0,0,0,0,0,0,0,0,-1,1567,1016,0,0
350,8,0,0,0,0,0,0,0,0,0,-1,1574,1016,0,0
357,8,0,0,0,0,0,0,0,0,0,-1,1581,1016,0,0
364,8,0,0,0,0,0,0,0,0,0,-1,1588,1016,0,0
371,8,0,0,0,0,0,0,0,0,0,-1,1595,1016,0,0
378,8,0,0,0,0,0,0,0,0,0,-1,1602,1016,0,0
385,8,0,0,0,0,0,0,0,0,0,-1,1609,1016,0,0
392,8,0,0,0,0,0,0,0,0,0,-1,1616,1016,0,0
399,8,0,0,0,0,0,0,0,0,0,-1,1623,1016,0,0
406,8,0,0,0,0,0,0,0,0,0,-1,1630,1016,0,0
413,8,0,0,0,0,0,0,0,0,0,-1,1637,1016,0,0
420,8,0,0,0,0,0,0,0,0,0,-1,1644,1016,0,0
427,8,0,0,0,0,0,0,0,0,0,-1,1651,1016,0,0
434,8,0,0,0,0,0,0,0,0,0,-1,1658,1016,0,0
441,8,0,0,0,0,0,0,0,0,0,-1,1665,1016,0,0
448,8,0,0,0,0,0,0,0,0,0,-1,1672,1016,0,0
455,8,0,0,0,0,0,0,0,0,0,-1,1679,1016,0,0
462,8,0,0,0,0,0,0,0,0,0,-1,1686,1016,0,0
469,8,0,0,0,0,0,0,0,0,0,-1,1693,1016,0,0
476,8,0,0,0,0,0,0,0,0,0,-1,1700,1016,0,0
483,8,0,0,0,0,0,0,0,0,0,-1,1707,1016,0,0
490,8,0,0,0,0,0,0,0,0,0,-1,1714,1016,0,0
497,8,0,0,0,0,0,0,0,0,0,-1,1721,1016,0,0
504,8,0,0,0,0,0,0,0,0,0,-1,1728,1016,0,0
511,8,0,0,0,0,0,0,0,0,0,-1,1735,1016,0,0
518,8,0,0,0,0,0,0,0,0,0,-1,1742,1016,0,0
525,8,0,0,0,0,0,0,0,0,0,-1,1749,1016,0,0
532,8,0,0,0,0,0,0,0,0,0,-1,1756,1016,0,0
539,8,0,0,0,0,0,0,0,0,0,-1,1763,1016,0,0
546,8,0,0,0,0,0,0,0,0,0,-1,1770,1016,0,0
553,8,0,0,0,0,0,0,0,0,0,-1,1777,1016,0,0
560,8,0,0,0,0,0,0,0,0,0,-1,1784,1016,0,0
567,8,0,0,0,0,0,0,0,0,0,-1,1791,1016,0,0
574,8,0,0,0,0,0,0,0,0,0,-1,1798,1016,0,0
581,8,0,0,0,0,0,0,0,0,0,-1,1805,1016,0,0
588,8,0,0,0,0,0,0,0,0,0,-1,1812,1016,0,0
595,8,0,0,0,0,0,0,0,0,0,-1,1819,1016,0,0
602,8,0,0,0,0,0,0,0,0,0,-1,1826,1016,0,0
609,8,0,0,0,0,0,0,0,0,0,-1,1833,1016,0,0
616,8,0,0,0,0,0,0,0,0,0,-1,1840,1016,0,0
623,8,0,0,0,0,0,0,0,0,0,-1,1847,1016,0,0
630,8,0,0,0,0,0,0,0,0,0,-1,1854,1016,0,0
637,8,0,0,0,0,0,0,0,0,0,-1,1861,1016,0,0
644,8,44.4569,2.45618,0.00356724,0.00374987,0.00572035,0.00937963,-0.00206252,0.793379,0.007042,0.0417907,1868,1016,44.457,-2.45615
651,8,44.5458,2.46667,0.00191949,0.0024453,0.0038226,0.00601403,-0.00164923,0.819732,0.00465747,0.0391788,1875,1016,44.5458,-2.4667
658,8,44.5081,2.57239,0.000687942,0.00150394,0.00255781,0.00368609,-0.00149421,0.864487,0.00307879,0.0381095,1882,1016,44.5081,-2.57241
665,8,44.4868,2.65479,-8.70926e-05,0.000895918,0.00181632,0.00228606,-0.00147723,0.917536,0.0021894,0.0407027,1889,1016,44.4868,-2.65478
672,8,44.5936,2.7832,-0.000559257,0.000690803,0.00149273,0.00168408,-0.00155253,0.983666,0.00186917,0.0424806,1896,1016,44.5936,-2.78323
679,8,44.5289,2.56866,-0.000935595,0.000614959,0.00143456,0.00147033,-0.00179096,1.03313,0.00188594,0.0380397,1903,1016,44.529,-2.56866
686,8,44.5636,2.64392,-0.00102939,0.000445173,0.00151054,0.00138876,-0.00197298,1.01244,0.00195065,0.040425,1910,1016,44.5636,-2.6439
693,8,44.5183,2.69458,-0.000941873,0.000298669,0.0016527,0.00144366,-0.00208687,0.964918,0.0020496,0.038833,1917,1016,44.5183,-2.6946
700,8,44.5386,2.78009,-0.000886292,0.000200181,0.00166023,0.00140379,-0.0020899,0.943511,0.00203,0.0296818,1924,1016,44.5386,-2.78012
707,8,44.5461,2.80743,-0.000880593,0.000310193,0.00163286,0.00145283,-0.00202323,0.960223,0.00201589,0.0266569,1931,1016,44.5462,-2.80742
714,8,44.5972,2.74774,-0.00108512,0.000690521,0.00159259,0.00162604,-0.00202064,1.03968,0.00210952,0.0314775,1938,1016,44.5971,-2.74773
721,8,44.748,2.67133,0,0,0,0,0,0,0,-1,1945,1016,44.7481,-2.67133
728,8,44.2821,5.49988,0,0,0,0,0,0,0,-1,1952,1016,44.2821,-5.49987
735,8,44.2202,5.57739,-0.00276498,0.0028421,0.00116293,0.00307373,-0.00299661,1.37419,0.0035048,0.0366829,1959,1016,44.2202,-5.57741
742,8,44.3909,5.52295,-0.00382661,0.00332273,0.000651981,0.0033817,-0.00388558,1.48059,0.00419913,0.047958,1966,1016,44.3909,-5.52293
749,8,44.3992,5.74597,-0.00551856,0.00425428,1.01497e-06,0.00425428,-0.00551856,1.57069,0.00565806,0.0370899,1973,1016,44.3991,-5.74597
756,8,44.3126,5.68732,-0.00814459,0.00563367,-0.00125466,0.00574699,-0.00825791,-1.48072,0.00812893,0.0239221,1980,1016,44.3127,-5.6873
763,8,44.3086,5.75543,-0.0118914,0.00748783,-0.00327404,0.00802602,-0.0124296,-1.40787,0.0119009,0.0145504,1987,1016,44.3086,-5.75542
770,8,44.215,5.74365,-0.0167082,0.0093864,-0.00584753,0.0106368,-0.0179587,-1.36013,0.016689,0.0212088,1994,1016,44.2149,-5.74368
777,8,43.901,5.78894,-0.02273,0.0115254,-0.00929486,0.0138849,-0.0250895,-1.32219,0.0228097,0.0380275,2001,1016,43.901,-5.78895
784,8,43.5771,5.80859,0,0,0,0,0,0,0,-1,2008,1016,43.5771,-5.8086
791,8,42.8254,4.84192,-0.0384541,0.0158548,-0.019506,0.0221347,-0.0447339,-1.25933,0.0393347,0.0451846,2015,1016,42.8254,-4.84193
798,8,42.23,5.1908,-0.0486739,0.0184017,-0.0270478,0.0279495,-0.0582217,-1.23145,0.050764,0.0489828,2022,1016,42.23,-5.19081
805,8,41.6646,5.3222,0,0,0,0,0,0,0,-1,2029,1016,41.6645,-5.32218
812,8,40.4968,5.69299,0,0,0,0,0,0,0,-1,2036,1016,40.4968,-5.693
-700,1,0,0,0,0,0,0,0,0,0,-1,524,1023,0,0
-693,1,-31.7184,3.22284,0,0,0,0,0,0,0,-1,531,1023,-31.7184,-3.22284
-686,1,-32.5374,3.70404,0,0,0,0,0,0,0,-1,538,1023,-32.5374,-3.70406
-679,1,-32.9524,3.7395,0,0,0,0,0,0,0,-1,545,1023,-32.9524,-3.73953
-672,1,-33.1556,3.89569,0,0,0,0,0,0,0,-1,552,1023,-33.1556,-3.89569
-665,1,-32.8444,2.03375,0,0,0,0,0,0,0,-1,559,1023,-32.8444,-2.03378
-658,1,-33.325,2.46014,0,0,0,0,0,0,0,-1,566,1023,-33.325,-2.46015
-651,1,-33.0983,2.79926,-0.00728033,0.0232158,-0.00768182,0.0250415,-0.00910604,-1.33746,0.0204181,0.0275833,573,1023,-33.0983,-2.79925
-644,1,-32.892,3.01068,0,0,0,0,0,0,0,-1,580,1023,-32.8921,-3.01069
-637,1,-33.1378,2.92584,-0.0057467,0.0161487,-0.00373161,0.0167672,-0.0063652,-1.40654,0.0137982,0.0333064,587,1023,-33.1378,-2.92586
-630,1,-33.3781,2.9422,-0.00413305,0.0125236,-0.0031404,0.013096,-0.00470546,-1.3905,0.0106514,0.0284391,594,1023,-33.3781,-2.94221
-623,1,-33.2793,3.04633,-0.00267354,0.00895087,-0.00343842,0.00989177,-0.00361444,-1.30369,0.00807367,0.0149752,601,1023,-33.2793,-3.04631
-616,1,-33.3655,2.99121,-0.0015668,0.00592868,-0.00486715,0.0083238,-0.00396192,-1.11349,0.00724064,0.0181717,608,1023,-33.3655,-2.99119
-609,1,-33.3682,3.04333,-0.00073578,0.00290623,-0.00626726,0.00761168,-0.00544123,-0.926784,0.00757075,0.0186947,615,1023,-33.3682,-3.04334
-602,1,-33.2379,3.08514,-5.69435e-05,0.00103757,-0.00650745,0.00702073,-0.00604011,-0.827348,0.00754776,0.0138004,622,1023,-33.2379,-3.08515
-595,1,-33.0891,3.07739,0.000308874,-0.000281429,-0.00678767,0.00680781,-0.00678036,-0.76367,0.00784514,0.0319767,629,1023,-33.0891,-3.07741
-588,1,-33.0143,2.07733,0.000588238,-0.00114841,-0.00697971,0.00675343,-0.0073136,-0.723513,0.00812375,0.0447915,636,1023,-33.0143,-2.07735
-581,1,-32.9041,1.05603,0.000734938,-0.0017667,-0.00694265,0.00653855,-0.00757031,-0.696272,0.00815301,0.0284582,643,1023,-32.904,-1.05603
-574,1,-32.8757,1.16718,0.00050953,-0.00215722,-0.0064785,0.00579045,-0.00743814,-0.683908,0.00765725,0.0339268,650,1023,-32.8757,-1.16717
-567,1,-32.8806,1.24194,1.61483e-05,-0.0022815,-0.00564933,0.00463228,-0.00689764,-0.685088,0.00669949,0.0411227,657,1023,-32.8805,-1.24193
-560,1,-32.8567,1.22388,-0.000583726,-0.00223182,-0.00452975,0.00319632,-0.00601187,-0.695423,0.00539855,0.041849,664,1023,-32.8567,-1.22385
-553,1,-32.9222,1.27765,-0.00126767,-0.00214617,-0.00325836,0.00158092,-0.00499476,-0.718399,0.00396334,0.0394287,671,1023,-32.9222,-1.27768
-546,1,-33.0756,1.35864,-0.00186779,-0.00224633,-0.00204542,-2.9006e-06,-0.00411122,-0.739263,0.00273984,0.0412231,678,1023,-33.0756,-1.35863
-539,1,-33.0329,1.09595,-0.0022085,-0.00275771,-0.00174381,-0.000717808,-0.0042484,-0.707302,0.00262591,0.0410379,685,1023,-33.0329,-1.09593
-532,1,-33.0529,0.777527,-0.001871,-0.00267993,-0.00386465,0.00161029,-0.00616121,-0.733259,0.00473638,0.041421,692,1023,-33.0529,-0.777537
-525,1,0,0,0,0,0,0,0,0,0,-1,699,1023,0,0
-518,1,0,0,0,0,0,0,0,0,0,-1,706,1023,0,0
-511,1,0,0,0,0,0,0,0,0,0,-1,713,1023,0,0
-504,1,0,0,0,0,0,0,0,0,0,-1,720,1023,0,0
-497,1,0,0,0,0,0,0,0,0,0,-1,727,1023,0,0
-490,1,0,0,0,0,0,0,0,0,0,-1,734,1023,0,0
-483,1,0,0,0,0,0,0,0,0,0,-1,741,1023,0,0
-476,1,0,0,0,0,0,0,0,0,0,-1,748,1023,0,0
-469,1,0,0,0,0,0,0,0,0,0,-1,755,1023,0,0
-462,1,0,0,0,0,0,0,0,0,0,-1,762,1023,0,0
-455,1,0,0,0,0,0,0,0,0,0,-1,769,1023,0,0
-448,1,0,0,0,0,0,0,0,0,0,-1,776,1023,0,0
-441,1,0,0,0,0,0,0,0,0,0,-1,783,1023,0,0
-434,1,0,0,0,0,0,0,0,0,0,-1,790,1023,0,0
-427,1,0,0,0,0,0,0,0,0,0,-1,797,1023,0,0
-420,1,0,0,0,0,0,0,0,0,0,-1,804,1023,0,0
-413,1,0,0,0,0,0,0,0,0,0,-1,811,1023,0,0
-406,1,0,0,0,0,0,0,0,0,0,-1,818,1023,0,0
-399,1,0,0,0,0,0,0,0,0,0,-1,825,1023,0,0
-392,1,0,0,0,0,0,0,0,0,0,-1,832,1023,0,0
-385,1,0,0,0,0,0,0,0,0,0,-1,839,1023,0,0
-378,1,0,0,0,0,0,0,0,0,0,-1,846,1023,0,0
-371,1,0,0,0,0,0,0,0,0,0,-1,853,1023,0,0
-364,1,0,0,0,0,0,0,0,0,0,-1,860,1023,0,0
-357,1,0,0,0,0,0,0,0,0,0,-1,867,1023,0,0
-350,1,0,0,0,0,0,0,0,0,0,-1,874,1023,0,0
-343,1,0,0,0,0,0,0,0,0,0,-1,881,1023,0,0
-336,1,0,0,0,0,0,0,0,0,0,-1,888,1023,0,0
-329,1,0,0,0,0,0,0,0,0,0,-1,895,1023,0,0
-322,1,0,0,0,0,0,0,0,0,0,-1,902,1023,0,0
-315,1,0,0,0,0,0,0,0,0,0,-1,909,1023,0,0
-308,1,0,0,0,0,0,0,0,0,0,-1,916,1023,0,0
-301,1,0,0,0,0,0,0,0,0,0,-1,923,1023,0,0
-294,1,0,0,0,0,0,0,0,0,0,-1,930,1023,0,0
-287,1,0,0,0,0,0,0,0,0,0,-1,937,1023,0,0
-280,1,0,0,0,0,0,0,0,0,0,-1,944,1023,0,0
-273,1,0,0,0,0,0,0,0,0,0,-1,951,1023,0,0
-266,1,0,0,0,0,0,0,0,0,0,-1,958,1023,0,0
-259,1,0,0,0,0,0,0,0,0,0,-1,965,1023,0,0
-252,1,0,0,0,0,0,0,0,0,0,-1,972,1023,0,0
-245,1,0,0,0,0,0,0,0,0,0,-1,979,1023,0,0
-238,1,0,0,0,0,0,0,0,0,0,-1,986,1023,0,0
-231,1,0,0,0,0,0,0,0,0,0,-1,993,1023,0,0
-224,1,0,0,0,0,0,0,0,0,0,-1,1000,1023,0,0
-217,1,0,0,0,0,0,0,0,0,0,-1,1007,1023,0,0
-210,1,0,0,0,0,0,0,0,0,0,-1,1014,1023,0,0
-203,1,0,0,0,0,0,0,0,0,0,-1,1021,1023,0,0
-196,1,0,0,0,0,0,0,0,0,0,-1,1028,1023,0,0
-189,1,0,0,0,0,0,0,0,0,0,-1,1035,1023,0,0
-182,1,0,0,0,0,0,0,0,0,0,-1,1042,1023,0,0
-175,1,0,0,0,0,0,0,0,0,0,-1,1049,1023,0,0
-168,1,0,0,0,0,0,0,0,0,0,-1,1056,1023,0,0
-161,1,0,0,0,0,0,0,0,0,0,-1,1063,1023,0,0
-154,1,0,0,0,0,0,0,0,0,0,-1,1070,1023,0,0
-147,1,0,0,0,0,0,0,0,0,0,-1,1077,1023,0,0
-140,1,0,0,0,0,0,0,0,0,0,-1,1084,1023,0,0
-133,1,0,0,0,0,0,0,0,0,0,-1,1091,1023,0,0
-126,1,0,0,0,0,0,0,0,0,0,-1,1098,1023,0,0
-119,1,0,0,0,0,0,0,0,0,0,-1,1105,1023,0,0
-112,1,0,0,0,0,0,0,0,0,0,-1,1112,1023,0,0
-105,1,0,0,0,0,0,0,0,0,0,-1,1119,1023,0,0
-98,1,0,0,0,0,0,0,0,0,0,-1,1126,1023,0,0
-91,1,0,0,0,0,0,0,0,0,0,-1,1133,1023,0,0
-84,1,0,0,0,0,0,0,0,0,0,-1,1140,1023,0,0
-77,1,0,0,0,0,0,0,0,0,0,-1,1147,1023,0,0
-70,1,0,0,0,0,0,0,0,0,0,-1,1154,1023,0,0
-63,1,0,0,0,0,0,0,0,0,0,-1,1161,1023,0,0
-56,1,0,0,0,0,0,0,0,0,0,-1,1168,1023,0,0
-49,1,0,0,0,0,0,0,0,0,0,-1,1175,1023,0,0
-42,1,0,0,0,0,0,0,0,0,0,-1,1182,1023,0,0
-35,1,0,0,0,0,0,0,0,0,0,-1,1189,1023,0,0
-28,1,0,0,0,0,0,0,0,0,0,-1,1196,1023,0,0
-21,1,0,0,0,0,0,0,0,0,0,-1,1203,1023,0,0
-14,1,0,0,0,0,0,0,0,0,0,-1,1210,1023,0,0
-7,1,0,0,0,0,0,0,0,0,0,-1,1217,1023,0,0
0,1,0,0,0,0,0,0,0,0,0,-1,1224,1023,0,0
7,1,0,0,0,0,0,0,0,0,0,-1,1231,1023,0,0
14,1,0,0,0,0,0,0,0,0,0,-1,1238,1023,0,0
21,1,0,0,0,0,0,0,0,0,0,-1,1245,1023,0,0
28,1,0,0,0,0,0,0,0,0,0,-1,1252,1023,0,0
35,1,0,0,0,0,0,0,0,0,0,-1,1259,1023,0,0
42,1,0,0,0,0,0,0,0,0,0,-1,1266,1023,0,0
49,1,0,0,0,0,0,0,0,0,0,-1,1273,1023,0,0
56,1,0,0,0,0,0,0,0,0,0,-1,1280,1023,0,0
63,1,0,0,0,0,0,0,0,0,0,-1,1287,1023,0,0
70,1,0,0,0,0,0,0,0,0,0,-1,1294,1023,0,0
77,1,0,0,0,0,0,0,0,0,0,-1,1301,1023,0,0
84,1,0,0,0,0,0,0,0,0,0,-1,1308,1023,0,0
91,1,0,0,0,0,0,0,0,0,0,-1,1315,1023,0,0
98,1,0,0,0,0,0,0,0,0,0,-1,1322,1023,0,0
105,1,0,0,0,0,0,0,0,0,0,-1,1329,1023,0,0
112,1,0,0,0,0,0,0,0,0,0,-1,1336,1023,0,0
119,1,0,0,0,0,0,0,0,0,0,-1,1343,1023,0,0
126,1,0,0,0,0,0,0,0,0,0,-1,1350,1023,0,0
133,1,0,0,0,0,0,0,0,0,0,-1,1357,1023,0,0
140,1,0,0,0,0,0,0,0,0,0,-1,1364,1023,0,0
147,1,0,0,0,0,0,0,0,0,0,-1,1371,1023,0,0
154,1,0,0,0,0,0,0,0,0,0,-1,1378,1023,0,0
161,1,0,0,0,0,0,0,0,0,0,-1,1385,1023,0,0
168,1,0,0,0,0,0,0,0,0,0,-1,1392,1023,0,0
175,1,0,0,0,0,0,0,0,0,0,-1,1399,1023,0,0
182,1,0,0,0,0,0,0,0,0,0,-1,1406,1023,0,0
189,1,0,0,0,0,0,0,0,0,0,-1,1413,1023,0,0
196,1,0,0,0,0,0,0,0,0,0,-1,1420,1023,0,0
203,1,0,0,0,0,0,0,0,0,0,-1,1427,1023,0,0
210,1,0,0,0,0,0,0,0,0,0,-1,1434,1023,0,0
217,1,0,0,0,0,0,0,0,0,0,-1,1441,1023,0,0
224,1,0,0,0,0,0,0,0,0,0,-1,1448,1023,0,0
231,1,0,0,0,0,0,0,0,0,0,-1,1455,1023,0,0
238,1,0,0,0,0,0,0,0,0,0,-1,1462,1023,0,0
245,1,0,0,0,0,0,0,0,0,0,-1,1469,1023,0,0
252,1,0,0,0,0,0,0,0,0,0,-1,1476,1023,0,0
259,1,0,0,0,0,0,0,0,0,0,-1,1483,1023,0,0
266,1,0,0,0,0,0,0,0,0,0,-1,1490,1023,0,0
273,1,0,0,0,0,0,0,0,0,0,-1,1497,1023,0,0
280,1,0,0,0,0,0,0,0,0,0,-1,1504,1023,0,0
287,1,0,0,0,0,0,0,0,0,0,-1,1511,1023,0,0
294,1,0,0,0,0,0,0,0,0,0,-1,1518,1023,0,0
301,1,0,0,0,0,0,0,0,0,0,-1,1525,1023,0,0
308,1,0,0,0,0,0,0,0,0,0,-1,1532,1023,0,0
315,1,0,0,0,0,0,0,0,0,0,-1,1539,1023,0,0
322,1,0,0,0,0,0,0,0,0,0,-1,1546,1023,0,0
329,1,0,0,0,0,0,0,0,0,0,-1,1553,1023,0,0
336,1,0,0,0,0,0,0,0,0,0,-1,1560,1023,0,0
343,1,0,0,0,0,0,0,0,0,0,-1,1567,1023,0,0
350,1,0,0,0,0,0,0,0,0,0,-1,1574,1023,0,0
357,1,0,0,0,0,0,0,0,0,0,-1,1581,1023,0,0
364,1,0,0,0,0,0,0,0,0,0,-1,1588,1023,0,0
371,1,0,0,0,0,0,0,0,0,0,-1,1595,1023,0,0
378,1,0,0,0,0,0,0,0,0,0,-1,1602,1023,0,0
385,1,0,0,0,0,0,0,0,0,0,-1,1609,1023,0,0
392,1,0,0,0,0,0,0,0,0,0,-1,1616,1023,0,0
399,1,0,0,0,0,0,0,0,0,0,-1,1623,1023,0,0
406,1,0,0,0,0,0,0,0,0,0,-1,1630,1023,0,0
413,1,0,0,0,0,0,0,0,0,0,-1,1637,1023,0,0
420,1,0,0,0,0,0,0,0,0,0,-1,1644,1023,0,0
427,1,0,0,0,0,0,0,0,0,0,-1,1651,1023,0,0
434,1,0,0,0,0,0,0,0,0,0,-1,1658,1023,0,0
441,1,0,0,0,0,0,0,0,0,0,-1,1665,1023,0,0
448,1,0,0,0,0,0,0,0,0,0,-1,1672,1023,0,0
455,1,0,0,0,0,0,0,0,0,0,-1,1679,1023,0,0
462,1,0,0,0,0,0,0,0,0,0,-1,1686,1023,0,0
469,1,0,0,0,0,0,0,0,0,0,-1,1693,1023,0,0
476,1,0,0,0,0,0,0,0,0,0,-1,1700,1023,0,0
483,1,0,0,0,0,0,0,0,0,0,-1,1707,1023,0,0
490,1,0,0,0,0,0,0,0,0,0,-1,1714,1023,0,0
497,1,0,0,0,0,0,0,0,0,0,-1,1721,1023,0,0
504,1,0,0,0,0,0,0,0,0,0,-1,1728,1023,0,0
511,1,0,0,0,0,0,0,0,0,0,-1,1735,1023,0,0
518,1,0,0,0,0,0,0,0,0,0,-1,1742,1023,0,0
525,1,0,0,0,0,0,0,0,0,0,-1,1749,1023,0,0
532,1,0,0,0,0,0,0,0,0,0,-1,1756,1023,0,0
539,1,0,0,0,0,0,0,0,0,0,-1,1763,1023,0,0
546,1,0,0,0,0,0,0,0,0,0,-1,1770,1023,0,0
553,1,0,0,0,0,0,0,0,0,0,-1,1777,1023,0,0
560,1,0,0,0,0,0,0,0,0,0,-1,1784,1023,0,0
567,1,0,0,0,0,0,0,0,0,0,-1,1791,1023,0,0
574,1,0,0,0,0,0,0,0,0,0,-1,1798,1023,0,0
581,1,0,0,0,0,0,0,0,0,0,-1,1805,1023,0,0
588,1,0,0,0,0,0,0,0,0,0,-1,1812,1023,0,0
595,1,0,0,0,0,0,0,0,0,0,-1,1819,1023,0,0
602,1,0,0,0,0,0,0,0,0,0,-1,1826,1023,0,0
609,1,0,0,0,0,0,0,0,0,0,-1,1833,1023,0,0
616,1,0,0,0,0,0,0,0,0,0,-1,1840,1023,0,0
623,1,0,0,0,0,0,0,0,0,0,-1,1847,1023,0,0
630,1,0,0,0,0,0,0,0,0,0,-1,1854,1023,0,0
637,1,0,0,0,0,0,0,0,0,0,-1,1861,1023,0,0
644,1,0,0,0,0,0,0,0,0,0,-1,1868,1023,0,0
651,1,44.6455,2.59064,0.00154855,0.00179332,0.00419037,0.00586309,-0.00252123,0.799997,0.00496721,0.0396166,1875,1023,44.6455,-2.59065
658,1,44.6494,2.47382,0.000455745,0.00104529,0.00280791,0.00357385,-0.00207282,0.837696,0.00329828,0.0410975,1882,1023,44.6495,-2.47379
665,1,44.6478,2.53168,-0.00023286,0.000582867,0.00197213,0.00218887,-0.00183886,0.887367,0.00232834,0.0419421,1889,1023,44.6478,-2.53167
672,1,44.6735,2.71722,-0.000632634,0.000465029,0.00158116,0.0015899,-0.0017575,0.952446,0.00193343,0.0420876,1896,1023,44.6734,-2.71721
679,1,44.5352,2.70148,-0.000922915,0.000465945,0.0014507,0.00137985,-0.00183682,1.00862,0.00186339,0.0388958,1903,1023,44.5352,-2.7015
686,1,44.4578,2.69409,-0.000992936,0.000330521,0.00148537,0.0012949,-0.00195731,0.99495,0.0018906,0.0391495,1910,1023,44.4578,-2.69409
693,1,44.5339,2.84656,-0.000878192,0.000187427,0.00162031,0.00136028,-0.00205105,0.944245,0.00198295,0.0351934,1917,1023,44.5339,-2.84655
700,1,44.5759,2.80127,-0.000766101,8.89521e-05,0.0016462,0.00136224,-0.00203939,0.912444,0.00197686,0.0291813,1924,1023,44.576,-2.80124
707,1,44.5511,2.763,-0.000725852,0.000192396,0.0016268,0.00142362,-0.00195708,0.922934,0.00195993,0.0284007,1931,1023,44.5512,-2.76299
714,1,44.5492,2.68689,-0.00091621,0.000550316,0.00160519,0.00158179,-0.00194768,0.999649,0.00204139,0.0320309,1938,1023,44.5492,-2.68691
721,1,44.723,2.66205,0,0,0,0,0,0,0,-1,1945,1023,44.723,-2.66206
728,1,44.1831,5.78717,0,0,0,0,0,0,0,-1,1952,1023,44.1831,-5.78718
735,1,44.1644,5.69916,-0.00272404,0.00262946,0.00128485,0.00292185,-0.00301644,1.34704,0.00342862,0.0351136,1959,1023,44.1644,-5.69918
742,1,44.3101,5.67639,-0.00392061,0.0031819,0.000788386,0.00326836,-0.00400707,1.46157,0.00420768,0.0441166,1966,1023,44.31,-5.67639
749,1,44.3459,5.70874,-0.005696,0.00420679,0.000174412,0.00420986,-0.00569907,1.55319,0.00574242,0.041633,1973,1023,44.3459,-5.70874
756,1,44.3799,5.72284,-0.00850754,0.00569424,-0.00115462,0.0057875,-0.0086008,-1.4902,0.00835985,0.0231952,1980,1023,44.3799,-5.72286
763,1,44.3127,5.68243,-0.0124968,0.00760313,-0.0032738,0.00812291,-0.0130166,-1.41334,0.0123134,0.0149962,1987,1023,44.3127,-5.6824
770,1,44.2793,5.66687,-0.0177029,0.00969904,-0.0060141,0.0109609,-0.0189648,-1.36398,0.0174824,0.017769,1994,1023,44.2793,-5.66688
777,1,44.0088,5.60022,-0.0243125,0.0121197,-0.00974789,0.0145639,-0.0267567,-1.32512,0.0242002,0.0259468,2001,1023,44.0089,-5.60022
784,1,43.8127,5.51276,-0.0319232,0.014568,-0.0143958,0.0186646,-0.0360198,-1.29355,0.0320977,0.0455373,2008,1023,43.8128,-5.51279
791,1,43.3005,5.32574,-0.0412187,0.0170912,-0.0205394,0.0235996,-0.0477272,-1.26393,0.0419586,0.0431204,2015,1023,43.3005,-5.32573
798,1,42.6924,5.42743,-0.0521238,0.0199712,-0.0283477,0.0297823,-0.061935,-1.2376,0.0540267,0.0478029,2022,1023,42.6925,-5.42746
805,1,41.8855,5.5766,-0.0646604,0.0236662,-0.0381764,0.0378795,-0.0788738,-1.21439,0.0687786,0.0474117,2029,1023,41.8854,-5.57658
812,1,41.2595,5.65234,-0.0793646,0.0287942,-0.0504525,0.0486745,-0.0992449,-1.19544,0.087049,0.0479369,2036,1023,41.2595,-5.65233
-700,-6,0,0,0,0,0,0,0,0,0,-1,524,1030,0,0
-693,-6,-32.4879,4.94495,-0.0126503,0.0320176,-0.0445719,0.059538,-0.0401708,-1.01765,0.0579277,0.040316,531,1030,-32.4879,-4.945
-686,-6,-32.5962,3.98767,-0.0102794,0.0343621,-0.0356668,0.0541167,-0.030034,-1.06499,0.0492431,0.0421206,538,1030,-32.5962,-3.98765
-679,-6,-32.786,3.34338,-0.00898192,0.0343807,-0.0282711,0.0483271,-0.0229283,-1.11252,0.0420015,0.0470363,545,1030,-32.786,-3.34343
-672,-6,-32.6608,3.26501,0,0,0,0,0,0,0,-1,552,1030,-32.6608,-3.26501
-665,-6,-32.4828,3.18628,0,0,0,0,0,0,0,-1,559,1030,-32.4829,-3.18622
-658,-6,-33.3134,2.22791,0,0,0,0,0,0,0,-1,566,1030,-33.3134,-2.22796
-651,-6,-33.1221,2.6073,0,0,0,0,0,0,0,-1,573,1030,-33.1221,-2.60734
-644,-6,-32.9554,3.11768,0,0,0,0,0,0,0,-1,580,1030,-32.9554,-3.11767
-637,-6,-33.1387,3.00256,-0.00453538,0.0162638,-0.00423732,0.0170939,-0.0053655,-1.37734,0.0135435,0.0370037,587,1030,-33.1387,-3.00258
-630,-6,-33.2685,2.91162,-0.0031528,0.0121113,-0.00334301,0.0128113,-0.00385285,-1.36437,0.0100738,0.0206547,594,1030,-33.2685,-2.91166
-623,-6,-33.2362,2.96863,-0.00200259,0.0084825,-0.00345533,0.00951877,-0.00303887,-1.27943,0.00756506,0.015788,601,1030,-33.2362,-2.96862
-616,-6,-33.2746,2.99976,-0.00121808,0.00540917,-0.00481096,0.00793724,-0.00374615,-1.08697,0.00688856,0.0178801,608,1030,-33.2746,-2.99971
-609,-6,-33.2495,3.07739,-0.000654846,0.00241233,-0.0061369,0.00720436,-0.00544688,-0.907839,0.00732765,0.0179208,615,1030,-33.2495,-3.07737
-602,-6,-33.1837,3.1615,-8.25424e-05,0.000745298,-0.00626184,0.00660689,-0.00594413,-0.818401,0.0072497,0.0134046,622,1030,-33.1837,-3.16147
-595,-6,-33.0348,3.19592,0.000220981,-0.000389689,-0.00642429,0.00634719,-0.0065159,-0.761652,0.00742672,0.0231476,629,1030,-33.0348,-3.19587
-588,-6,-32.9733,1.9729,0.000355894,-0.00111467,-0.0064995,0.00616157,-0.00692035,-0.729073,0.00755709,0.0267508,636,1030,-32.9733,-1.97286
-581,-6,-32.8962,0.791382,0,0,0,0,0,0,0,-1,643,1030,-32.8963,-0.791429
-574,-6,-32.955,1.12646,-6.72592e-06,-0.00188706,-0.00588562,0.00501335,-0.00690713,-0.706198,0.00691118,0.0282192,650,1030,-32.955,-1.1265
-567,-6,-32.9949,1.25659,-0.000640639,-0.00187631,-0.00504825,0.00382744,-0.00634439,-0.724508,0.00593234,0.0402111,657,1030,-32.995,-1.25656
-560,-6,-32.8824,1.26147,-0.00143546,-0.00171581,-0.00394106,0.00236792,-0.00551919,-0.767622,0.00467321,0.0437489,664,1030,-32.8824,-1.2615
-553,-6,-32.8419,1.20618,-0.00238074,-0.00157662,-0.00269071,0.000741902,-0.00469927,-0.859562,0.00340718,0.0419378,671,1030,-32.8419,-1.20621
-546,-6,-32.9376,1.18848,-0.00334113,-0.00172071,-0.00150574,-0.000821034,-0.0042408,-1.03222,0.00259715,0.0419927,678,1030,-32.9375,-1.18846
-539,-6,-32.9774,1.10327,-0.00417095,-0.00244977,-0.00127718,-0.00177029,-0.00485043,-1.08187,0.00283423,0.042391,685,1030,-32.9774,-1.10323
-532,-6,-33.0159,0.924438,-0.00446741,-0.00272059,-0.00327905,-0.000200621,-0.00698737,-0.915556,0.00459283,0.0423094,692,1030,-33.0159,-0.924417
-525,-6,0,0,0,0,0,0,0,0,0,-1,699,1030,0,0
-518,-6,0,0,0,0,0,0,0,0,0,-1,706,1030,0,0
-511,-6,0,0,0,0,0,0,0,0,0,-1,713,1030,0,0
-504,-6,0,0,0,0,0,0,0,0,0,-1,720,1030,0,0
-497,-6,0,0,0,0,0,0,0,0,0,-1,727,1030,0,0
-490,-6,0,0,0,0,0,0,0,0,0,-1,734,1030,0,0
-483,-6,0,0,0,0,0,0,0,0,0,-1,741,1030,0,0
-476,-6,0,0,0,0,0,0,0,0,0,-1,748,1030,0,0
-469,-6,0,0,0,0,0,0,0,0,0,-1,755,1030,0,0
-462,-6,0,0,0,0,0,0,0,0,0,-1,762,1030,0,0
-455,-6,0,0,0,0,0,0,0,0,0,-1,769,1030,0,0
-448,-6,0,0,0,0,0,0,0,0,0,-1,776,1030,0,0
-441,-6,0,0,0,0,0,0,0,0,0,-1,783,1030,0,0
-434,-6,0,0,0,0,0,0,0,0,0,-1,790,1030,0,0
-427,-6,0,0,0,0,0,0,0,0,0,-1,797,1030,0,0
-420,-6,0,0,0,0,0,0,0,0,0,-1,804,1030,0,0
-413,-6,0,0,0,0,0,0,0,0,0,-1,811,1030,0,0
-406,-6,0,0,0,0,0,0,0,0,0,-1,818,1030,0,0
-399,-6,0,0,0,0,0,0,0,0,0,-1,825,1030,0,0
-392,-6,0,0,0,0,0,0,0,0,0,-1,832,1030,0,0
-385,-6,0,0,0,0,0,0,0,0,0,-1,839,1030,0,0
-378,-6,0,0,0,0,0,0,0,0,0,-1,846,1030,0,0
-371,-6,0,0,0,0,0,0,0,0,0,-1,853,1030,0,0
-364,-6,0,0,0,0,0,0,0,0,0,-1,860,1030,0,0
-357,-6,0,0,0,0,0,0,0,0,0,-1,867,1030,0,0
-350,-6,0,0,0,0,0,0,0,0,0,-1,874,1030,0,0
-343,-6,0,0,0,0,0,0,0,0,0,-1,881,1030,0,0
-336,-6,0,0,0,0,0,0,0,0,0,-1,888,1030,0,0
-329,-6,0,0,0,0,0,0,0,0,0,-1,895,1030,0,0
-322,-6,0,0,0,0,0,0,0,0,0,-1,902,1030,0,0
-315,-6,0,0,0,0,0,0,0,0,0,-1,909,1030,0,0
-308,-6,0,0,0,0,0,0,0,0,0,-1,916,1030,0,0
-301,-6,0,0,0,0,0,0,0,0,0,-1,923,1030,0,0
-294,-6,0,0,0,0,0,0,0,0,0,-1,930,1030,0,0
-287,-6,0,0,0,0,0,0,0,0,0,-1,937,1030,0,0
-280,-6,0,0,0,0,0,0,0,0,0,-1,944,1030,0,0
-273,-6,0,0,0,0,0,0,0,0,0,-1,951,1030,0,0
-266,-6,0,0,0,0,0,0,0,0,0,-1,958,1030,0,0
-259,-6,0,0,0,0,0,0,0,0,0,-1,965,1030,0,0
-252,-6,0,0,0,0,0,0,0,0,0,-1,972,1030,0,0
-245,-6,0,0,0,0,0,0,0,0,0,-1,979,1030,0,0
-238,-6,0,0,0,0,0,0,0,0,0,-1,986,1030,0,0
-231,-6,0,0,0,0,0,0,0,0,0,-1,993,1030,0,0
-224,-6,0,0,0,0,0,0,0,0,0,-1,1000,1030,0,0
-217,-6,0,0,0,0,0,0,0,0,0,-1,1007,1030,0,0
-210,-6,0,0,0,0,0,0,0,0,0,-1,1014,1030,0,0
-203,-6,0,0,0,0,0,0,0,0,0,-1,1021,1030,0,0
-196,-6,0,0,0,0,0,0,0,0,0,-1,1028,1030,0,0
-189,-6,0,0,0,0,0,0,0,0,0,-1,1035,1030,0,0
-182,-6,0,0,0,0,0,0,0,0,0,-1,1042,1030,0,0
-175,-6,0,0,0,0,0,0,0,0,0,-1,1049,1030,0,0
-168,-6,0,0,0,0,0,0,0,0,0,-1,1056,1030,0,0
-161,-6,0,0,0,0,0,0,0,0,0,-1,1063,1030,0,0
-154,-6,0,0,0,0,0,0,0,0,0,-1,1070,1030,0,0
-147,-6,0,0,0,0,0,0,0,0,0,-1,1077,1030,0,0
-140,-6,0,0,0,0,0,0,0,0,0,-1,1084,1030,0,0
-133,-6,0,0,0,0,0,0,0,0,0,-1,1091,1030,0,0
-126,-6,0,0,0,0,0,0,0,0,0,-1,1098,1030,0,0
-119,-6,0,0,0,0,0,0,0,0,0,-1,1105,1030,0,0
-112,-6,0,0,0,0,0,0,0,0,0,-1,1112,1030,0,0
-105,-6,0,0,0,0,0,0,0,0,0,-1,1119,1030,0,0
-98,-6,0,0,0,0,0,0,0,0,0,-1,1126,1030,0,0
-91,-6,0,0,0,0,0,0,0,0,0,-1,1133,1030,0,0
-84,-6,0,0,0,0,0,0,0,0,0,-1,1140,1030,0,0
-77,-6,0,0,0,0,0,0,0,0,0,-1,1147,1030,0,0
-70,-6,0,0,0,0,0,0,0,0,0,-1,1154,1030,0,0
-63,-6,0,0,0,0,0,0,0,0,0,-1,1161,1030,0,0
-56,-6,0,0,0,0,0,0,0,0,0,-1,1168,1030,0,0
-49,-6,0,0,0,0,0,0,0,0,0,-1,1175,1030,0,0
-42,-6,0,0,0,0,0,0,0,0,0,-1,1182,1030,0,0
-35,-6,0,0,0,0,0,0,0,0,0,-1,1189,1030,0,0
-28,-6,0,0,0,0,0,0,0,0,0,-1,1196,1030,0,0
-21,-6,0,0,0,0,0,0,0,0,0,-1,1203,1030,0,0
-14,-6,0,0,0,0,0,0,0,0,0,-1,1210,1030,0,0
-7,-6,0,0,0,0,0,0,0,0,0,-1,1217,1030,0,0
0,-6,0,0,0,0,0,0,0,0,0,-1,1224,1030,0,0
7,-6,0,0,0,0,0,0,0,0,0,-1,1231,1030,0,0
14,-6,0,0,0,0,0,0,0,0,0,-1,1238,1030,0,0
21,-6,0,0,0,0,0,0,0,0,0,-1,1245,1030,0,0
28,-6,0,0,0,0,0,0,0,0,0,-1,1252,1030,0,0
35,-6,0,0,0,0,0,0,0,0,0,-1,1259,1030,0,0
42,-6,0,0,0,0,0,0,0,0,0,-1,1266,1030,0,0
49,-6,0,0,0,0,0,0,0,0,0,-1,1273,1030,0,0
56,-6,0,0,0,0,0,0,0,0,0,-1,1280,1030,0,0
63,-6,0,0,0,0,0,0,0,0,0,-1,1287,1030,0,0
70,-6,0,0,0,0,0,0,0,0,0,-1,1294,1030,0,0
77,-6,0,0,0,0,0,0,0,0,0,-1,1301,1030,0,0
84,-6,0,0,0,0,0,0,0,0,0,-1,1308,1030,0,0
91,-6,0,0,0,0,0,0,0,0,0,-1,1315,1030,0,0
98,-6,0,0,0,0,0,0,0,0,0,-1,1322,1030,0,0
105,-6,0,0,0,0,0,0,0,0,0,-1,1329,1030,0,0
112,-6,0,0,0,0,0,0,0,0,0,-1,1336,1030,0,0
119,-6,0,0,0,0,0,0,0,0,0,-1,1343,1030,0,0
126,-6,0,0,0,0,0,0,0,0,0,-1,1350,1030,0,0
133,-6,0,0,0,0,0,0,0,0,0,-1,1357,1030,0,0
140,-6,0,0,0,0,0,0,0,0,0,-1,1364,1030,0,0
147,-6,0,0,0,0,0,0,0,0,0,-1,1371,1030,0,0
154,-6,0,0,0,0,0,0,0,0,0,-1,1378,1030,0,0
161,-6,0,0,0,0,0,0,0,0,0,-1,1385,1030,0,0
168,-6,0,0,0,0,0,0,0,0,0,-1,1392,1030,0,0
175,-6,0,0,0,0,0,0,0,0,0,-1,1399,1030,0,0
182,-6,0,0,0,0,0,0,0,0,0,-1,1406,1030,0,0
189,-6,0,0,0,0,0,0,0,0,0,-1,1413,1030,0,0
196,-6,0,0,0,0,0,0,0,0,0,-1,1420,1030,0,0
203,-6,0,0,0,0,0,0,0,0,0,-1,1427,1030,0,0
210,-6,0,0,0,0,0,0,0,0,0,-1,1434,1030,0,0
217,-6,0,0,0,0,0,0,0,0,0,-1,1441,1030,0,0
224,-6,0,0,0,0,0,0,0,0,0,-1,1448,1030,0,0
231,-6,0,0,0,0,0,0,0,0,0,-1,1455,1030,0,0
238,-6,0,0,0,0,0,0,0,0,0,-1,1462,1030,0,0
245,-6,0,0,0,0,0,0,0,0,0,-1,1469,1030,0,0
252,-6,0,0,0,0,0,0,0,0,0,-1,1476,1030,0,0
259,-6,0,0,0,0,0,0,0,0,0,-1,1483,1030,0,0
266,-6,0,0,0,0,0,0,0,0,0,-1,1490,1030,0,0
273,-6,0,0,0,0,0,0,0,0,0,-1,1497,1030,0,0
280,-6,0,0,0,0,0,0,0,0,0,-1,1504,1030,0,0
287,-6,0,0,0,0,0,0,0,0,0,-1,1511,1030,0,0
294,-6,0,0,0,0,0,0,0,0,0,-1,1518,1030,0,0
301,-6,0,0,0,0,0,0,0,0,0,-1,1525,1030,0,0
308,-6,0,0,0,0,0,0,0,0,0,-1,1532,1030,0,0
315,-6,0,0,0,0,0,0,0,0,0,-1,1539,1030,0,0
322,-6,0,0,0,0,0,0,0,0,0,-1,1546,1030,0,0
329,-6,0,0,0,0,0,0,0,0,0,-1,1553,1030,0,0
336,-6,0,0,0,0,0,0,0,0,0,-1,1560,1030,0,0
343,-6,0,0,0,0,0,0,0,0,0,-1,1567,1030,0,0
350,-6,0,0,0,0,0,0,0,0,0,-1,1574,1030,0,0
357,-6,0,0,0,0,0,0,0,0,0,-1,1581,1030,0,0
364,-6,0,0,0,0,0,0,0,0,0,-1,1588,1030,0,0
371,-6,0,0,0,0,0,0,0,0,0,-1,1595,1030,0,0
378,-6,0,0,0,0,0,0,0,0,0,-1,1602,1030,0,0
385,-6,0,0,0,0,0,0,0,0,0,-1,1609,1030,0,0
392,-6,0,0,0,0,0,0,0,0,0,-1,1616,1030,0,0
399,-6,0,0,0,0,0,0,0,0,0,-1,1623,1030,0,0
406,-6,0,0,0,0,0,0,0,0,0,-1,1630,1030,0,0
413,-6,0,0,0,0,0,0,0,0,0,-1,1637,1030,0,0
420,-6,0,0,0,0,0,0,0,0,0,-1,1644,1030,0,0
427,-6,0,0,0,0,0,0,0,0,0,-1,1651,1030,0,0
434,-6,0,0,0,0,0,0,0,0,0,-1,1658,1030,0,0
441,-6,0,0,0,0,0,0,0,0,0,-1,1665,1030,0,0
448,-6,0,0,0,0,0,0,0,0,0,-1,1672,1030,0,0
455,-6,0,0,0,0,0,0,0,0,0,-1,1679,1030,0,0
462,-6,0,0,0,0,0,0,0,0,0,-1,1686,1030,0,0
469,-6,0,0,0,0,0,0,0,0,0,-1,1693,1030,0,0
476,-6,0,0,0,0,0,0,0,0,0,-1,1700,1030,0,0
483,-6,0,0,0,0,0,0,0,0,0,-1,1707,1030,0,0
490,-6,0,0,0,0,0,0,0,0,0,-1,1714,1030,0,0
497,-6,0,0,0,0,0,0,0,0,0,-1,1721,1030,0,0
504,-6,0,0,0,0,0,0,0,0,0,-1,1728,1030,0,0
511,-6,0,0,0,0,0,0,0,0,0,-1,1735,1030,0,0
518,-6,0,0,0,0,0,0,0,0,0,-1,1742,1030,0,0
525,-6,0,0,0,0,0,0,0,0,0,-1,1749,1030,0,0
532,-6,0,0,0,0,0,0,0,0,0,-1,1756,1030,0,0
539,-6,0,0,0,0,0,0,0,0,0,-1,1763,1030,0,0
546,-6,0,0,0,0,0,0,0,0,0,-1,1770,1030,0,0
553,-6,0,0,0,0,0,0,0,0,0,-1,1777,1030,0,0
560,-6,0,0,0,0,0,0,0,0,0,-1,1784,1030,0,0
567,-6,0,0,0,0,0,0,0,0,0,-1,1791,1030,0,0
574,-6,0,0,0,0,0,0,0,0,0,-1,1798,1030,0,0
581,-6,0,0,0,0,0,0,0,0,0,-1,1805,1030,0,0
588,-6,0,0,0,0,0,0,0,0,0,-1,1812,1030,0,0
595,-6,0,0,0,0,0,0,0,0,0,-1,1819,1030,0,0
602,-6,0,0,0,0,0,0,0,0,0,-1,1826,1030,0,0
609,-6,0,0,0,0,0,0,0,0,0,-1,1833,1030,0,0
616,-6,0,0,0,0,0,0,0,0,0,-1,1840,1030,0,0
623,-6,0,0,0,0,0,0,0,0,0,-1,1847,1030,0,0
630,-6,0,0,0,0,0,0,0,0,0,-1,1854,1030,0,0
637,-6,0,0,0,0,0,0,0,0,0,-1,1861,1030,0,0
644,-6,0,0,0,0,0,0,0,0,0,-1,1868,1030,0,0
651,-6,44.7258,2.646,0.00151878,0.00118822,0.00479631,0.00615266,-0.00344565,0.768175,0.00561457,0.0384609,1875,1030,44.7258,-2.64604
658,-6,44.6556,2.5448,0.000491067,0.000550782,0.0031926,0.00371366,-0.00267181,0.790074,0.00370298,0.0417537,1882,1030,44.6557,-2.54477
665,-6,44.6949,2.57153,-0.000184674,0.000160607,0.00217763,0.00217243,-0.0021965,0.824955,0.00252242,0.0420987,1889,1030,44.695,-2.57149
672,-6,44.8397,2.75537,-0.000581465,6.98837e-05,0.00166047,0.00143632,-0.0019479,0.882236,0.00196131,0.0408167,1896,1030,44.8397,-2.75531
679,-6,44.7067,2.68958,-0.00086092,9.34536e-05,0.00141964,0.00111396,-0.00188143,0.947532,0.00174821,0.0409957,1903,1030,44.7067,-2.68959
686,-6,44.5056,2.65613,-0.000959057,-2.81226e-05,0.00139325,0.000975357,-0.00196254,0.946613,0.00172782,0.0383609,1910,1030,44.5056,-2.65617
693,-6,44.4716,2.73779,-0.000858654,-0.000163443,0.00151249,0.00104087,-0.00206297,0.898348,0.0018241,0.0346612,1917,1030,44.4716,-2.73785
700,-6,44.5665,2.71094,-0.000729955,-0.000237397,0.00156782,0.00110337,-0.00207072,0.863304,0.00186071,0.0309475,1924,1030,44.5665,-2.71097
707,-6,44.5459,2.75293,-0.000684567,-0.000129373,0.00156215,0.00117965,-0.00199359,0.873331,0.00185205,0.0303959,1931,1030,44.5459,-2.75288
714,-6,44.5647,2.5863,-0.000867626,0.000221224,0.00156825,0.00133686,-0.00198326,0.952467,0.00192894,0.0417986,1938,1030,44.5647,-2.58634
721,-6,44.7245,2.34167,0,0,0,0,0,0,0,-1,1945,1030,44.7245,-2.3417
728,-6,44.1405,5.70715,0,0,0,0,0,0,0,-1,1952,1030,44.1405,-5.70712
735,-6,44.2061,5.65002,-0.00269532,0.00232785,0.0013977,0.00269057,-0.00305804,1.31689,0.00332122,0.0334204,1959,1030,44.2061,-5.65004
742,-6,44.3363,5.65417,-0.00382317,0.00294812,0.000944714,0.00307745,-0.0039525,1.43474,0.00406921,0.0331413,1966,1030,44.3363,-5.65421
749,-6,44.3333,5.74365,-0.0054969,0.00407123,0.00040099,0.00408801,-0.00551368,1.52899,0.00556387,0.0269428,1973,1030,44.3332,-5.74366
756,-6,44.3787,5.62341,-0.00819811,0.00561275,-0.000906413,0.00567198,-0.00825735,-1.50554,0.00808814,0.018743,1980,1030,44.3786,-5.62342
763,-6,44.2692,5.54199,-0.0120153,0.00756268,-0.00302912,0.00802064,-0.0124732,-1.42075,0.0119249,0.0182281,1987,1030,44.2692,-5.54203
770,-6,44.2108,5.51343,-0.0169631,0.00977682,-0.00578532,0.0109748,-0.0181611,-1.3666,0.0169913,0.0165971,1994,1030,44.2108,-5.51338
777,-6,44.1119,5.53137,-0.0233079,0.0123628,-0.00959873,0.0147817,-0.0257268,-1.32393,0.0236705,0.0184367,2001,1030,44.1119,-5.53138
784,-6,44.0754,5.48767,-0.0305346,0.0149673,-0.0143201,0.0190989,-0.0346662,-1.28991,0.031472,0.0417545,2008,1030,44.0753,-5.48762
791,-6,43.7349,5.5127,-0.0392559,0.0176362,-0.0204733,0.0242378,-0.0458575,-1.25888,0.0411062,0.0455964,2015,1030,43.7348,-5.51265
798,-6,43.1855,5.46082,-0.0493943,0.0205719,-0.0282736,0.030569,-0.0593913,-1.23093,0.0528197,0.0455084,2022,1030,43.1857,-5.46081
805,-6,42.5566,5.68311,-0.0608896,0.0241347,-0.0380251,0.0386593,-0.0754142,-1.20593,0.0669902,0.0444512,2029,1030,42.5567,-5.68309
812,-6,42.043,5.90393,-0.0741745,0.0287323,-0.0501129,0.0491033,-0.0945456,-1.1847,0.0843077,0.0478838,2036,1030,42.0429,-5.90398
-700,-13,0,0,0,0,0,0,0,0,0,-1,524,1037,0,0
-693,-13,-32.3999,4.24658,-0.0130575,0.0398813,-0.0491406,0.069228,-0.0424041,-1.03244,0.0650681,0.04592,531,1037,-32.3999,-4.24662
-686,-13,-32.6566,3.3822,-0.0100629,0.0403017,-0.0389424,0.0614946,-0.0312558,-1.07241,0.0544899,0.0438968,538,1037,-32.6566,-3.38224
-679,-13,-32.5928,2.96228,-0.00837103,0.0388945,-0.0306638,0.0539758,-0.0234523,-1.11371,0.0458464,0.0497055,545,1037,-32.5928,-2.9623
-672,-13,-32.6044,2.67798,0,0,0,0,0,0,0,-1,552,1037,-32.6044,-2.678
-665,-13,-32.6646,1.63171,0,0,0,0,0,0,0,-1,559,1037,-32.6645,-1.63176
-658,-13,-32.8793,2.44275,0,0,0,0,0,0,0,-1,566,1037,-32.8793,-2.44276
-651,-13,-32.9271,2.43701,-0.0049501,0.0253565,-0.00956655,0.0281236,-0.00771721,-1.28923,0.021782,0.0440568,573,1037,-32.9271,-2.43704
-644,-13,-32.9398,2.60583,-0.00466138,0.0216032,-0.00671725,0.0232215,-0.00627963,-1.33439,0.0179443,0.0331505,580,1037,-32.9398,-2.60579
-637,-13,-33.0201,2.80334,-0.00387666,0.0163793,-0.00455094,0.0173548,-0.00485215,-1.35964,0.0134815,0.0238947,587,1037,-33.0201,-2.80339
-630,-13,-33.1237,2.82263,-0.00261203,0.0117655,-0.00347864,0.0125629,-0.00340946,-1.34545,0.0097133,0.014619,594,1037,-33.1236,-2.82268
-623,-13,-33.133,2.91821,-0.00158877,0.00798324,-0.00345963,0.00910274,-0.00270826,-1.25784,0.00714445,0.0137427,601,1037,-33.133,-2.91823
-616,-13,-33.1147,3.02832,-0.00100233,0.00483415,-0.00472667,0.00747086,-0.00363905,-1.06196,0.00654024,0.0134027,608,1037,-33.1148,-3.02834
-609,-13,-33.0714,3.11584,-0.000653735,0.00192039,-0.00597136,0.00674182,-0.00547517,-0.891544,0.0070661,0.0186766,615,1037,-33.0714,-3.11581
-602,-13,-33.072,3.20715,-0.000132945,0.000456743,-0.00598837,0.00615753,-0.00583373,-0.809996,0.006924,0.0133117,622,1037,-33.072,-3.20717
-595,-13,-33.0894,3.29443,0,0,0,0,0,0,0,-1,629,1037,-33.0894,-3.29445
-588,-13,-32.821,1.76038,0,0,0,0,0,0,0,-1,636,1037,-32.821,-1.76034
-581,-13,-32.8749,0.981445,-3.75254e-05,-0.00154928,-0.00581501,0.00507053,-0.00665734,-0.720767,0.00679172,0.0169682,643,1037,-32.875,-0.981427
-574,-13,-32.9153,0.985352,-0.000474737,-0.00167625,-0.00528994,0.00424845,-0.00639944,-0.728857,0.00618923,0.0310072,650,1037,-32.9153,-0.985392
-567,-13,-33.0242,1.04199,-0.00121427,-0.0015617,-0.004449,0.00306441,-0.00584038,-0.765885,0.00522379,0.0411941,657,1037,-33.0242,-1.04199
-560,-13,-33.0826,1.16028,-0.00215698,-0.00130681,-0.00335251,0.00164745,-0.00511125,-0.84846,0.00406937,0.0434875,664,1037,-33.0826,-1.16031
-553,-13,-32.9382,1.13623,-0.00330085,-0.00110177,-0.00212369,0.000190138,-0.00459276,-1.02427,0.00312715,0.0436001,671,1037,-32.9382,-1.13626
-546,-13,-32.8896,1.06519,-0.00454431,-0.0012295,-0.000979053,-0.000961928,-0.00481188,-1.30401,0.00294021,0.0403393,678,1037,-32.8897,-1.06521
-539,-13,-32.8777,1.19373,-0.00578187,-0.00207347,-0.00084642,-0.00188941,-0.00596592,-1.35668,0.00352073,0.0413221,685,1037,-32.8777,-1.19376
-532,-13,-33.0532,0.99939,-0.00661094,-0.00256783,-0.00275016,-0.00117616,-0.00800261,-1.10234,0.00498944,0.0449814,692,1037,-33.0532,-0.999432
-525,-13,0,0,0,0,0,0,0,0,0,-1,699,1037,0,0
-518,-13,0,0,0,0,0,0,0,0,0,-1,706,1037,0,0
-511,-13,0,0,0,0,0,0,0,0,0,-1,713,1037,0,0
-504,-13,0,0,0,0,0,0,0,0,0,-1,720,1037,0,0
-497,-13,0,0,0,0,0,0,0,0,0,-1,727,1037,0,0
-490,-13,0,0,0,0,0,0,0,0,0,-1,734,1037,0,0
-483,-13,0,0,0,0,0,0,0,0,0,-1,741,1037,0,0
-476,-13,0,0,0,0,0,0,0,0,0,-1,748,1037,0,0
-469,-13,0,0,0,0,0,0,0,0,0,-1,755,1037,0,0
-462,-13,0,0,0,0,0,0,0,0,0,-1,762,1037,0,0
-455,-13,0,0,0,0,0,0,0,0,0,-1,769,1037,0,0
-448,-13,0,0,0,0,0,0,0,0,0,-1,776,1037,0,0
-441,-13,0,0,0,0,0,0,0,0,0,-1,783,1037,0,0
-434,-13,0,0,0,0,0,0,0,0,0,-1,790,1037,0,0
-427,-13,0,0,0,0,0,0,0,0,0,-1,797,1037,0,0
-420,-13,0,0,0,0,0,0,0,0,0,-1,804,1037,0,0
-413,-13,0,0,0,0,0,0,0,0,0,-1,811,1037,0,0
-406,-13,0,0,0,0,0,0,0,0,0,-1,818,1037,0,0
-399,-13,0,0,0,0,0,0,0,0,0,-1,825,1037,0,0
-392,-13,0,0,0,0,0,0,0,0,0,-1,832,1037,0,0
-385,-13,0,0,0,0,0,0,0,0,0,-1,839,1037,0,0
-378,-13,0,0,0,0,0,0,0,0,0,-1,846,1037,0,0
-371,-13,0,0,0,0,0,0,0,0,0,-1,853,1037,0,0
-364,-13,0,0,0,0,0,0,0,0,0,-1,860,1037,0,0
-357,-13,0,0,0,0,0,0,0,0,0,-1,867,1037,0,0
-350,-13,0,0,0,0,0,0,0,0,0,-1,874,1037,0,0
-343,-13,0,0,0,0,0,0,0,0,0,-1,881,1037,0,0
-336,-13,0,0,0,0,0,0,0,0,0,-1,888,1037,0,0
-329,-13,0,0,0,0,0,0,0,0,0,-1,895,1037,0,0
-322,-13,0,0,0,0,0,0,0,0,0,-1,902,1037,0,0
-315,-13,0,0,0,0,0,0,0,0,0,-1,909,1037,0,0
-308,-13,0,0,0,0,0,0,0,0,0,-1,916,1037,0,0
-301,-13,0,0,0,0,0,0,0,0,0,-1,923,1037,0,0
-294,-13,0,0,0,0,0,0,0,0,0,-1,930,1037,0,0
-287,-13,0,0,0,0,0,0,0,0,0,-1,937,1037,0,0
-280,-13,0,0,0,0,0,0,0,0,0,-1,944,1037,0,0
-273,-13,0,0,0,0,0,0,0,0,0,-1,951,1037,0,0
-266,-13,0,0,0,0,0,0,0,0,0,-1,958,1037,0,0
-259,-13,0,0,0,0,0,0,0,0,0,-1,965,1037,0,0
-252,-13,0,0,0,0,0,0,0,0,0,-1,972,1037,0,0
-245,-13,0,0,0,0,0,0,0,0,0,-1,979,1037,0,0
-238,-13,0,0,0,0,0,0,0,0,0,-1,986,1037,0,0
-231,-13,0,0,0,0,0,0,0,0,0,-1,993,1037,0,0
-224,-13,0,0,0,0,0,0,0,0,0,-1,1000,1037,0,0
-217,-13,0,0,0,0,0,0,0,0,0,-1,1007,1037,0,0
-210,-13,0,0,0,0,0,0,0,0,0,-1,1014,1037,0,0
-203,-13,0,0,0,0,0,0,0,0,0,-1,1021,1037,0,0
-196,-13,0,0,0,0,0,0,0,0,0,-1,1028,1037,0,0
-189,-13,0,0,0,0,0,0,0,0,0,-1,1035,1037,0,0
-182,-13,0,0,0,0,0,0,0,0,0,-1,1042,1037,0,0
-175,-13,0,0,0,0,0,0,0,0,0,-1,1049,1037,0,0
-168,-13,0,0,0,0,0,0,0,0,0,-1,1056,1037,0,0
-161,-13,0,0,0,0,0,0,0,0,0,-1,1063,1037,0,0
-154,-13,0,0,0,0,0,0,0,0,0,-1,1070,1037,0,0
-147,-13,0,0,0,0,0,0,0,0,0,-1,1077,1037,0,0
-140,-13,0,0,0,0,0,0,0,0,0,-1,1084,1037,0,0
-133,-13,0,0,0,0,0,0,0,0,0,-1,1091,1037,0,0
-126,-13,0,0,0,0,0,0,0,0,0,-1,1098,1037,0,0
-119,-13,0,0,0,0,0,0,0,0,0,-1,1105,1037,0,0
-112,-13,0,0,0,0,0,0,0,0,0,-1,1112,1037,0,0
-105,-13,0,0,0,0,0,0,0,0,0,-1,1119,1037,0,0
-98,-13,0,0,0,0,0,0,0,0,0,-1,1126,1037,0,0
-91,-13,0,0,0,0,0,0,0,0,0,-1,1133,1037,0,0
-84,-13,0,0,0,0,0,0,0,0,0,-1,1140,1037,0,0
-77,-13,0,0,0,0,0,0,0,0,0,-1,1147,1037,0,0
-70,-13,0,0,0,0,0,0,0,0,0,-1,1154,1037,0,0
-63,-13,0,0,0,0,0,0,0,0,0,-1,1161,1037,0,0
-56,-13,0,0,0,0,0,0,0,0,0,-1,1168,1037,0,0
-49,-13,0,0,0,0,0,0,0,0,0,-1,1175,1037,0,0
-42,-13,0,0,0,0,0,0,0,0,0,-1,1182,1037,0,0
-35,-13,0,0,0,0,0,0,0,0,0,-1,1189,1037,0,0
-28,-13,0,0,0,0,0,0,0,0,0,-1,1196,1037,0,0
-21,-13,0,0,0,0,0,0,0,0,0,-1,1203,1037,0,0
-14,-13,0,0,0,0,0,0,0,0,0,-1,1210,1037,0,0
-7,-13,0,0,0,0,0,0,0,0,0,-1,1217,1037,0,0
0,-13,0,0,0,0,0,0,0,0,0,-1,1224,1037,0,0
7,-13,0,0,0,0,0,0,0,0,0,-1,1231,1037,0,0
14,-13,0,0,0,0,0,0,0,0,0,-1,1238,1037,0,0
21,-13,0,0,0,0,0,0,0,0,0,-1,1245,1037,0,0
28,-13,0,0,0,0,0,0,0,0,0,-1,1252,1037,0,0
35,-13,0,0,0,0,0,0,0,0,0,-1,1259,1037,0,0
42,-13,0,0,0,0,0,0,0,0,0,-1,1266,1037,0,0
49,-13,0,0,0,0,0,0,0,0,0,-1,1273,1037,0,0
56,-13,0,0,0,0,0,0,0,0,0,-1,1280,1037,0,0
63,-13,0,0,0,0,0,0,0,0,0,-1,1287,1037,0,0
70,-13,0,0,0,0,0,0,0,0,0,-1,1294,1037,0,0
77,-13,0,0,0,0,0,0,0,0,0,-1,1301,1037,0,0
84,-13,0,0,0,0,0,0,0,0,0,-1,1308,1037,0,0
91,-13,0,0,0,0,0,0,0,0,0,-1,1315,1037,0,0
98,-13,0,0,0,0,0,0,0,0,0,-1,1322,1037,0,0
105,-13,0,0,0,0,0,0,0,0,0,-1,1329,1037,0,0
112,-13,0,0,0,0,0,0,0,0,0,-1,1336,1037,0,0
119,-13,0,0,0,0,0,0,0,0,0,-1,1343,1037,0,0
126,-13,0,0,0,0,0,0,0,0,0,-1,1350,1037,0,0
133,-13,0,0,0,0,0,0,0,0,0,-1,1357,1037,0,0
140,-13,0,0,0,0,0,0,0,0,0,-1,1364,1037,0,0
147,-13,0,0,0,0,0,0,0,0,0,-1,1371,1037,0,0
154,-13,0,0,0,0,0,0,0,0,0,-1,1378,1037,0,0
161,-13,0,0,0,0,0,0,0,0,0,-1,1385,1037,0,0
168,-13,0,0,0,0,0,0,0,0,0,-1,1392,1037,0,0
175,-13,0,0,0,0,0,0,0,0,0,-1,1399,1037,0,0
182,-13,0,0,0,0,0,0,0,0,0,-1,1406,1037,0,0
189,-13,0,0,0,0,0,0,0,0,0,-1,1413,1037,0,0
196,-13,0,0,0,0,0,0,0,0,0,-1,1420,1037,0,0
203,-13,0,0,0,0,0,0,0,0,0,-1,1427,1037,0,0
210,-13,0,0,0,0,0,0,0,0,0,-1,1434,1037,0,0
217,-13,0,0,0,0,0,0,0,0,0,-1,1441,1037,0,0
224,-13,0,0,0,0,0,0,0,0,0,-1,1448,1037,0,0
231,-13,0,0,0,0,0,0,0,0,0,-1,1455,1037,0,0
238,-13,0,0,0,0,0,0,0,0,0,-1,1462,1037,0,0
245,-13,0,0,0,0,0,0,0,0,0,-1,1469,1037,0,0
252,-13,0,0,0,0,0,0,0,0,0,-1,1476,1037,0,0
259,-13,0,0,0,0,0,0,0,0,0,-1,1483,1037,0,0
266,-13,0,0,0,0,0,0,0,0,0,-1,1490,1037,0,0
273,-13,0,0,0,0,0,0,0,0,0,-1,1497,1037,0,0
280,-13,0,0,0,0,0,0,0,0,0,-1,1504,1037,0,0
287,-13,0,0,0,0,0,0,0,0,0,-1,1511,1037,0,0
294,-13,0,0,0,0,0,0,0,0,0,-1,1518,1037,0,0
301,-13,0,0,0,0,0,0,0,0,0,-1,1525,1037,0,0
308,-13,0,0,0,0,0,0,0,0,0,-1,1532,1037,0,0
315,-13,0,0,0,0,0,0,0,0,0,-1,1539,1037,0,0
322,-13,0,0,0,0,0,0,0,0,0,-1,1546,1037,0,0
329,-13,0,0,0,0,0,0,0,0,0,-1,1553,1037,0,0
336,-13,0,0,0,0,0,0,0,0,0,-1,1560,1037,0,0
343,-13,0,0,0,0,0,0,0,0,0,-1,1567,1037,0,0
350,-13,0,0,0,0,0,0,0,0,0,-1,1574,1037,0,0
357,-13,0,0,0,0,0,0,0,0,0,-1,1581,1037,0,0
364,-13,0,0,0,0,0,0,0,0,0,-1,1588,1037,0,0
371,-13,0,0,0,0,0,0,0,0,0,-1,1595,1037,0,0
378,-13,0,0,0,0,0,0,0,0,0,-1,1602,1037,0,0
385,-13,0,0,0,0,0,0,0,0,0,-1,1609,1037,0,0
392,-13,0,0,0,0,0,0,0,0,0,-1,1616,1037,0,0
399,-13,0,0,0,0,0,0,0,0,0,-1,1623,1037,0,0
406,-13,0,0,0,0,0,0,0,0,0,-1,1630,1037,0,0
413,-13,0,0,0,0,0,0,0,0,0,-1,1637,1037,0,0
420,-13,0,0,0,0,0,0,0,0,0,-1,1644,1037,0,0
427,-13,0,0,0,0,0,0,0,0,0,-1,1651,1037,0,0
434,-13,0,0,0,0,0,0,0,0,0,-1,1658,1037,0,0
441,-13,0,0,0,0,0,0,0,0,0,-1,1665,1037,0,0
448,-13,0,0,0,0,0,0,0,0,0,-1,1672,1037,0,0
455,-13,0,0,0,0,0,0,0,0,0,-1,1679,1037,0,0
462,-13,0,0,0,0,0,0,0,0,0,-1,1686,1037,0,0
469,-13,0,0,0,0,0,0,0,0,0,-1,1693,1037,0,0
476,-13,0,0,0,0,0,0,0,0,0,-1,1700,1037,0,0
483,-13,0,0,0,0,0,0,0,0,0,-1,1707,1037,0,0
490,-13,0,0,0,0,0,0,0,0,0,-1,1714,1037,0,0
497,-13,0,0,0,0,0,0,0,0,0,-1,1721,1037,0,0
504,-13,0,0,0,0,0,0,0,0,0,-1,1728,1037,0,0
511,-13,0,0,0,0,0,0,0,0,0,-1,1735,1037,0,0
518,-13,0,0,0,0,0,0,0,0,0,-1,1742,1037,0,0
525,-13,0,0,0,0,0,0,0,0,0,-1,1749,1037,0,0
532,-13,0,0,0,0,0,0,0,0,0,-1,1756,1037,0,0
539,-13,0,0,0,0,0,0,0,0,0,-1,1763,1037,0,0
546,-13,0,0,0,0,0,0,0,0,0,-1,1770,1037,0,0
553,-13,0,0,0,0,0,0,0,0,0,-1,1777,1037,0,0
560,-13,0,0,0,0,0,0,0,0,0,-1,1784,1037,0,0
567,-13,0,0,0,0,0,0,0,0,0,-1,1791,1037,0,0
574,-13,0,0,0,0,0,0,0,0,0,-1,1798,1037,0,0
581,-13,0,0,0,0,0,0,0,0,0,-1,1805,1037,0,0
588,-13,0,0,0,0,0,0,0,0,0,-1,1812,1037,0,0
595,-13,0,0,0,0,0,0,0,0,0,-1,1819,1037,0,0
602,-13,0,0,0,0,0,0,0,0,0,-1,1826,1037,0,0
609,-13,0,0,0,0,0,0,0,0,0,-1,1833,1037,0,0
616,-13,0,0,0,0,0,0,0,0,0,-1,1840,1037,0,0
623,-13,0,0,0,0,0,0,0,0,0,-1,1847,1037,0,0
630,-13,0,0,0,0,0,0,0,0,0,-1,1854,1037,0,0
637,-13,0,0,0,0,0,0,0,0,0,-1,1861,1037,0,0
644,-13,0,0,0,0,0,0,0,0,0,-1,1868,1037,0,0
651,-13,44.7034,2.44531,0,0,0,0,0,0,0,-1,1875,1037,44.7034,-2.44535
658,-13,44.7126,2.27319,0,0,0,0,0,0,0,-1,1882,1037,44.7126,-2.27317
665,-13,44.7587,2.68738,-0.000115008,0.000390666,0.00252204,0.00267251,-0.00239685,0.835357,0.00292824,0.0449637,1889,1037,44.7587,-2.68739
672,-13,44.8951,2.72278,-0.000489501,0.0002865,0.00192361,0.00186085,-0.00206385,0.884915,0.00226694,0.0392767,1896,1037,44.8951,-2.72281
679,-13,44.77,2.66248,-0.000778649,0.000267305,0.00159993,0.00142756,-0.0019389,0.943362,0.00195109,0.0389702,1903,1037,44.77,-2.66252
686,-13,44.572,2.61462,-0.000940386,8.77145e-05,0.00151395,0.0011725,-0.00202517,0.949063,0.00186793,0.0399518,1910,1037,44.572,-2.61458
693,-13,44.4486,2.67529,-0.000904988,-0.00011541,0.00160013,0.00113792,-0.00215831,0.906344,0.00193324,0.0388571,1917,1037,44.4486,-2.67529
700,-13,44.501,2.67529,-0.000804982,-0.00023131,0.00167375,0.00118001,-0.0022163,0.87026,0.00199105,0.0361733,1924,1037,44.5009,-2.67532
707,-13,44.5798,2.71863,-0.000784994,-0.000167664,0.00166923,0.0012212,-0.00217386,0.876823,0.00198569,0.0330902,1931,1037,44.5798,-2.71864
714,-13,44.5455,2.9126,-0.000981864,0.000114175,0.00168311,0.00133624,-0.00220393,0.942785,0.00206428,0.0358454,1938,1037,44.5455,-2.91254
721,-13,44.4766,3.21753,0,0,0,0,0,0,0,-1,1945,1037,44.4765,-3.21758
728,-13,44.3099,5.78101,0,0,0,0,0,0,0,-1,1952,1037,44.3099,-5.78103
735,-13,44.2804,5.7804,-0.002813,0.00208365,0.00156217,0.00253958,-0.00326892,1.28683,0.00336234,0.0273327,1959,1037,44.2804,-5.78034
742,-13,44.2664,5.74365,-0.00382758,0.00276563,0.00112016,0.00295075,-0.0040127,1.40702,0.0040359,0.0176433,1966,1037,44.2663,-5.74369
749,-13,44.3062,5.66162,-0.00532632,0.00396822,0.00063503,0.0040114,-0.0053695,1.50289,0.00543496,0.023168,1973,1037,44.3061,-5.66157
756,-13,44.2913,5.59814,-0.00780043,0.0055421,-0.000657873,0.00557446,-0.00783279,-1.52165,0.0077772,0.0159835,1980,1037,44.2913,-5.59818
763,-13,44.2422,5.51672,-0.0112911,0.00748009,-0.00277408,0.00788147,-0.0116924,-1.4271,0.0113722,0.0232108,1987,1037,44.2422,-5.51674
770,-13,44.1724,5.47949,-0.015778,0.00977396,-0.00551976,0.0109154,-0.0169194,-1.36689,0.0161945,0.0206258,1994,1037,44.1723,-5.47946
777,-13,44.0532,5.41333,-0.0215503,0.0124448,-0.00934072,0.0148423,-0.0239478,-1.31955,0.0226002,0.0164049,2001,1037,44.0533,-5.41328
784,-13,44.0796,5.35681,-0.0280923,0.0150777,-0.014043,0.0192438,-0.0322583,-1.2824,0.0300496,0.0351064,2008,1037,44.0795,-5.35686
791,-13,44.1638,5.67651,0,0,0,0,0,0,0,-1,2015,1037,44.1638,-5.67654
798,-13,44.1169,4.78674,0,0,0,0,0,0,0,-1,2022,1037,44.117,-4.78676
805,-13,43.7229,4.87354,-0.0549619,0.0232781,-0.0372087,0.0381476,-0.0698314,-1.19061,0.0632299,0.0440311,2029,1037,43.7228,-4.87354
812,-13,43.1555,4.44434,-0.0664335,0.0266373,-0.0488892,0.0475978,-0.0873941,-1.16577,0.0790585,0.0413553,2036,1037,43.1555,-4.44432
-700,-20,-31.5753,2.73853,0,0,0,0,0,0,0,-1,524,1044,-31.5753,-2.73858
-693,-20,-32.0082,3.06934,-0.00449314,0.0353858,-0.0475414,0.0669999,-0.0361072,-0.983963,0.060413,0.0430147,531,1044,-32.0082,-3.06928
-686,-20,-32.1543,3.03748,-0.0041023,0.0378725,-0.0379978,0.0602937,-0.0265235,-1.03771,0.0513724,0.0445816,538,1044,-32.1543,-3.03751
-679,-20,-32.2193,2.71545,-0.00403298,0.0375993,-0.0300884,0.0533703,-0.019804,-1.08801,0.0437038,0.0485789,545,1044,-32.2193,-2.71546
-672,-20,-32.449,2.75256,0,0,0,0,0,0,0,-1,552,1044,-32.4491,-2.75261
-665,-20,-32.6082,2.55273,0,0,0,0,0,0,0,-1,559,1044,-32.6082,-2.55271
-658,-20,-33.1426,2.64661,-0.00375592,0.0292532,-0.0132154,0.0338921,-0.00839484,-1.23321,0.0258514,0.0481929,566,1044,-33.1426,-2.6466
-651,-20,-32.9299,2.47351,-0.00355321,0.02505,-0.00953497,0.0279371,-0.00644031,-1.27678,0.0211017,0.0412777,573,1044,-32.9299,-2.47348
-644,-20,-32.8213,2.44116,-0.00367717,0.0214206,-0.00672279,0.023108,-0.00536452,-1.32489,0.0174702,0.0293109,580,1044,-32.8213,-2.44112
-637,-20,-32.8953,2.59143,-0.00320382,0.0162383,-0.00456455,0.0172566,-0.00422214,-1.3513,0.0131399,0.0181955,587,1044,-32.8953,-2.59138
-630,-20,-32.9568,2.76111,-0.00220726,0.0114513,-0.00343207,0.0122652,-0.00302116,-1.33795,0.00934804,0.014669,594,1044,-32.9568,-2.76112
-623,-20,-32.9695,2.90198,-0.00127277,0.00750766,-0.00334559,0.00863713,-0.00240224,-1.24521,0.00670387,0.0140693,601,1044,-32.9696,-2.90199
-616,-20,-32.9713,3.01819,-0.000870904,0.00428727,-0.00453024,0.00692113,-0.00350476,-1.04417,0.00612616,0.0143947,608,1044,-32.9713,-3.01817
-609,-20,-32.9816,3.13086,-0.000748473,0.00143359,-0.00569768,0.00614376,-0.00545864,-0.879997,0.00670254,0.0160395,615,1044,-32.9815,-3.13082
-602,-20,-32.9656,3.22534,-0.000259761,9.31158e-05,-0.00564026,0.00555969,-0.00572634,-0.801034,0.00651623,0.012935,622,1044,-32.9657,-3.22539
-595,-20,-32.961,3.29236,-5.43756e-05,-0.000795398,-0.00556899,0.00515641,-0.00600618,-0.752182,0.00645095,0.0276593,629,1044,-32.961,-3.29231
-588,-20,-32.9142,3.10474,0,0,0,0,0,0,0,-1,636,1044,-32.9142,-3.10477
-581,-20,-32.8832,0.983887,-0.00045966,-0.00171935,-0.00524293,0.00419112,-0.00637014,-0.725618,0.00614065,0.0236316,643,1044,-32.8832,-0.983846
-574,-20,-32.9575,0.955688,-0.000971383,-0.00182563,-0.00471245,0.00333326,-0.00613027,-0.740203,0.00554275,0.0383675,650,1044,-32.9575,-0.955656
-567,-20,-33.0132,0.975098,-0.00178848,-0.00167961,-0.00389768,0.00216401,-0.0056321,-0.79238,0.00464717,0.0472391,657,1044,-33.0132,-0.975139
-560,-20,-33.0755,1.07727,0,0,0,0,0,0,0,-1,664,1044,-33.0755,-1.07732
-553,-20,-32.9756,0.870361,0,0,0,0,0,0,0,-1,671,1044,-32.9756,-0.870363
-546,-20,-32.6318,1.25037,0,0,0,0,0,0,0,-1,678,1044,-32.6318,-1.25031
-539,-20,-32.8195,1.13354,-0.00728579,-0.00150631,-0.000345311,-0.00148576,-0.00730635,-1.51133,0.00445893,0.0452002,685,1044,-32.8195,-1.13356
-532,-20,-33.0616,1.0675,-0.00866276,-0.00172169,-0.0018674,-0.00125119,-0.00913326,-1.32398,0.00571759,0.0463659,692,1044,-33.0616,-1.06749
-525,-20,0,0,0,0,0,0,0,0,0,-1,699,1044,0,0
-518,-20,0,0,0,0,0,0,0,0,0,-1,706,1044,0,0
-511,-20,0,0,0,0,0,0,0,0,0,-1,713,1044,0,0
-504,-20,0,0,0,0,0,0,0,0,0,-1,720,1044,0,0
-497,-20,0,0,0,0,0,0,0,0,0,-1,727,1044,0,0
-490,-20,0,0,0,0,0,0,0,0,0,-1,734,1044,0,0
-483,-20,0,0,0,0,0,0,0,0,0,-1,741,1044,0,0
-476,-20,0,0,0,0,0,0,0,0,0,-1,748,1044,0,0
-469,-20,0,0,0,0,0,0,0,0,0,-1,755,1044,0,0
-462,-20,0,0,0,0,0,0,0,0,0,-1,762,1044,0,0
-455,-20,0,0,0,0,0,0,0,0,0,-1,769,1044,0,0
-448,-20,0,0,0,0,0,0,0,0,0,-1,776,1044,0,0
-441,-20,0,0,0,0,0,0,0,0,0,-1,783,1044,0,0
-434,-20,0,0,0,0,0,0,0,0,0,-1,790,1044,0,0
-427,-20,0,0,0,0,0,0,0,0,0,-1,797,1044,0,0
-420,-20,0,0,0,0,0,0,0,0,0,-1,804,1044,0,0
-413,-20,0,0,0,0,0,0,0,0,0,-1,811,1044,0,0
-406,-20,0,0,0,0,0,0,0,0,0,-1,818,1044,0,0
-399,-20,0,0,0,0,0,0,0,0,0,-1,825,1044,0,0
-392,-20,0,0,0,0,0,0,0,0,0,-1,832,1044,0,0
-385,-20,0,0,0,0,0,0,0,0,0,-1,839,1044,0,0
-378,-20,0,0,0,0,0,0,0,0,0,-1,846,1044,0,0
-371,-20,0,0,0,0,0,0,0,0,0,-1,853,1044,0,0
-364,-20,0,0,0,0,0,0,0,0,0,-1,860,1044,0,0
-357,-20,0,0,0,0,0,0,0,0,0,-1,867,1044,0,0
-350,-20,0,0,0,0,0,0,0,0,0,-1,874,1044,0,0
-343,-20,0,0,0,0,0,0,0,0,0,-1,881,1044,0,0
-336,-20,0,0,0,0,0,0,0,0,0,-1,888,1044,0,0
-329,-20,0,0,0,0,0,0,0,0,0,-1,895,1044,0,0
-322,-20,0,0,0,0,0,0,0,0,0,-1,902,1044,0,0
-315,-20,0,0,0,0,0,0,0,0,0,-1,909,1044,0,0
-308,-20,0,0,0,0,0,0,0,0,0,-1,916,1044,0,0
-301,-20,0,0,0,0,0,0,0,0,0,-1,923,1044,0,0
-294,-20,0,0,0,0,0,0,0,0,0,-1,930,1044,0,0
-287,-20,0,0,0,0,0,0,0,0,0,-1,937,1044,0,0
-280,-20,0,0,0,0,0,0,0,0,0,-1,944,1044,0,0
-273,-20,0,0,0,0,0,0,0,0,0,-1,951,1044,0,0
-266,-20,0,0,0,0,0,0,0,0,0,-1,958,1044,0,0
-259,-20,0,0,0,0,0,0,0,0,0,-1,965,1044,0,0
-252,-20,0,0,0,0,0,0,0,0,0,-1,972,1044,0,0
-245,-20,0,0,0,0,0,0,0,0,0,-1,979,1044,0,0
-238,-20,0,0,0,0,0,0,0,0,0,-1,986,1044,0,0
-231,-20,0,0,0,0,0,0,0,0,0,-1,993,1044,0,0
-224,-20,0,0,0,0,0,0,0,0,0,-1,1000,1044,0,0
-217,-20,0,0,0,0,0,0,0,0,0,-1,1007,1044,0,0
-210,-20,0,0,0,0,0,0,0,0,0,-1,1014,1044,0,0
-203,-20,0,0,0,0,0,0,0,0,0,-1,1021,1044,0,0
-196,-20,0,0,0,0,0,0,0,0,0,-1,1028,1044,0,0
-189,-20,0,0,0,0,0,0,0,0,0,-1,1035,1044,0,0
-182,-20,0,0,0,0,0,0,0,0,0,-1,1042,1044,0,0
-175,-20,0,0,0,0,0,0,0,0,0,-1,1049,1044,0,0
-168,-20,0,0,0,0,0,0,0,0,0,-1,1056,1044,0,0
-161,-20,0,0,0,0,0,0,0,0,0,-1,1063,1044,0,0
-154,-20,0,0,0,0,0,0,0,0,0,-1,1070,1044,0,0
-147,-20,0,0,0,0,0,0,0,0,0,-1,1077,1044,0,0
-140,-20,0,0,0,0,0,0,0,0,0,-1,1084,1044,0,0
-133,-20,0,0,0,0,0,0,0,0,0,-1,1091,1044,0,0
-126,-20,0,0,0,0,0,0,0,0,0,-1,1098,1044,0,0
-119,-20,0,0,0,0,0,0,0,0,0,-1,1105,1044,0,0
-112,-20,0,0,0,0,0,0,0,0,0,-1,1112,1044,0,0
-105,-20,0,0,0,0,0,0,0,0,0,-1,1119,1044,0,0
-98,-20,0,0,0,0,0,0,0,0,0,-1,1126,1044,0,0
-91,-20,0,0,0,0,0,0,0,0,0,-1,1133,1044,0,0
-84,-20,0,0,0,0,0,0,0,0,0,-1,1140,1044,0,0
-77,-20,0,0,0,0,0,0,0,0,0,-1,1147,1044,0,0
-70,-20,0,0,0,0,0,0,0,0,0,-1,1154,1044,0,0
-63,-20,0,0,0,0,0,0,0,0,0,-1,1161,1044,0,0
-56,-20,0,0,0,0,0,0,0,0,0,-1,1168,1044,0,0
-49,-20,0,0,0,0,0,0,0,0,0,-1,1175,1044,0,0
-42,-20,0,0,0,0,0,0,0,0,0,-1,1182,1044,0,0
-35,-20,0,0,0,0,0,0,0,0,0,-1,1189,1044,0,0
-28,-20,0,0,0,0,0,0,0,0,0,-1,1196,1044,0,0
-21,-20,0,0,0,0,0,0,0,0,0,-1,1203,1044,0,0
-14,-20,0,0,0,0,0,0,0,0,0,-1,1210,1044,0,0
-7,-20,0,0,0,0,0,0,0,0,0,-1,1217,1044,0,0
0,-20,0,0,0,0,0,0,0,0,0,-1,1224,1044,0,0
7,-20,0,0,0,0,0,0,0,0,0,-1,1231,1044,0,0
14,-20,0,0,0,0,0,0,0,0,0,-1,1238,1044,0,0
21,-20,0,0,0,0,0,0,0,0,0,-1,1245,1044,0,0
28,-20,0,0,0,0,0,0,0,0,0,-1,1252,1044,0,0
35,-20,0,0,0,0,0,0,0,0,0,-1,1259,1044,0,0
42,-20,0,0,0,0,0,0,0,0,0,-1,1266,1044,0,0
49,-20,0,0,0,0,0,0,0,0,0,-1,1273,1044,0,0
56,-20,0,0,0,0,0,0,0,0,0,-1,1280,1044,0,0
63,-20,0,0,0,0,0,0,0,0,0,-1,1287,1044,0,0
70,-20,0,0,0,0,0,0,0,0,0,-1,1294,1044,0,0
77,-20,0,0,0,0,0,0,0,0,0,-1,1301,1044,0,0
84,-20,0,0,0,0,0,0,0,0,0,-1,1308,1044,0,0
91,-20,0,0,0,0,0,0,0,0,0,-1,1315,1044,0,0
98,-20,0,0,0,0,0,0,0,0,0,-1,1322,1044,0,0
105,-20,0,0,0,0,0,0,0,0,0,-1,1329,1044,0,0
112,-20,0,0,0,0,0,0,0,0,0,-1,1336,1044,0,0
119,-20,0,0,0,0,0,0,0,0,0,-1,1343,1044,0,0
126,-20,0,0,0,0,0,0,0,0,0,-1,1350,1044,0,0
133,-20,0,0,0,0,0,0,0,0,0,-1,1357,1044,0,0
140,-20,0,0,0,0,0,0,0,0,0,-1,1364,1044,0,0
147,-20,0,0,0,0,0,0,0,0,0,-1,1371,1044,0,0
154,-20,0,0,0,0,0,0,0,0,0,-1,1378,1044,0,0
161,-20,0,0,0,0,0,0,0,0,0,-1,1385,1044,0,0
168,-20,0,0,0,0,0,0,0,0,0,-1,1392,1044,0,0
175,-20,0,0,0,0,0,0,0,0,0,-1,1399,1044,0,0
182,-20,0,0,0,0,0,0,0,0,0,-1,1406,1044,0,0
189,-20,0,0,0,0,0,0,0,0,0,-1,1413,1044,0,0
196,-20,0,0,0,0,0,0,0,0,0,-1,1420,1044,0,0
203,-20,0,0,0,0,0,0,0,0,0,-1,1427,1044,0,0
210,-20,0,0,0,0,0,0,0,0,0,-1,1434,1044,0,0
217,-20,0,0,0,0,0,0,0,0,0,-1,1441,1044,0,0
224,-20,0,0,0,0,0,0,0,0,0,-1,1448,1044,0,0
231,-20,0,0,0,0,0,0,0,0,0,-1,1455,1044,0,0
238,-20,0,0,0,0,0,0,0,0,0,-1,1462,1044,0,0
245,-20,0,0,0,0,0,0,0,0,0,-1,1469,1044,0,0
252,-20,0,0,0,0,0,0,0,0,0,-1,1476,1044,0,0
259,-20,0,0,0,0,0,0,0,0,0,-1,1483,1044,0,0
266,-20,0,0,0,0,0,0,0,0,0,-1,1490,1044,0,0
273,-20,0,0,0,0,0,0,0,0,0,-1,1497,1044,0,0
280,-20,0,0,0,0,0,0,0,0,0,-1,1504,1044,0,0
287,-20,0,0,0,0,0,0,0,0,0,-1,1511,1044,0,0
294,-20,0,0,0,0,0,0,0,0,0,-1,1518,1044,0,0
301,-20,0,0,0,0,0,0,0,0,0,-1,1525,1044,0,0
308,-20,0,0,0,0,0,0,0,0,0,-1,1532,1044,0,0
315,-20,0,0,0,0,0,0,0,0,0,-1,1539,1044,0,0
322,-20,0,0,0,0,0,0,0,0,0,-1,1546,1044,0,0
329,-20,0,0,0,0,0,0,0,0,0,-1,1553,1044,0,0
336,-20,0,0,0,0,0,0,0,0,0,-1,1560,1044,0,0
343,-20,0,0,0,0,0,0,0,0,0,-1,1567,1044,0,0
350,-20,0,0,0,0,0,0,0,0,0,-1,1574,1044,0,0
357,-20,0,0,0,0,0,0,0,0,0,-1,1581,1044,0,0
364,-20,0,0,0,0,0,0,0,0,0,-1,1588,1044,0,0
371,-20,0,0,0,0,0,0,0,0,0,-1,1595,1044,0,0
378,-20,0,0,0,0,0,0,0,0,0,-1,1602,1044,0,0
385,-20,0,0,0,0,0,0,0,0,0,-1,1609,1044,0,0
392,-20,0,0,0,0,0,0,0,0,0,-1,1616,1044,0,0
399,-20,0,0,0,0,0,0,0,0,0,-1,1623,1044,0,0
406,-20,0,0,0,0,0,0,0,0,0,-1,1630,1044,0,0
413,-20,0,0,0,0,0,0,0,0,0,-1,1637,1044,0,0
420,-20,0,0,0,0,0,0,0,0,0,-1,1644,1044,0,0
427,-20,0,0,0,0,0,0,0,0,0,-1,1651,1044,0,0
434,-20,0,0,0,0,0,0,0,0,0,-1,1658,1044,0,0
441,-20,0,0,0,0,0,0,0,0,0,-1,1665,1044,0,0
448,-20,0,0,0,0,0,0,0,0,0,-1,1672,1044,0,0
455,-20,0,0,0,0,0,0,0,0,0,-1,1679,1044,0,0
462,-20,0,0,0,0,0,0,0,0,0,-1,1686,1044,0,0
469,-20,0,0,0,0,0,0,0,0,0,-1,1693,1044,0,0
476,-20,0,0,0,0,0,0,0,0,0,-1,1700,1044,0,0
483,-20,0,0,0,0,0,0,0,0,0,-1,1707,1044,0,0
490,-20,0,0,0,0,0,0,0,0,0,-1,1714,1044,0,0
497,-20,0,0,0,0,0,0,0,0,0,-1,1721,1044,0,0
504,-20,0,0,0,0,0,0,0,0,0,-1,1728,1044,0,0
511,-20,0,0,0,0,0,0,0,0,0,-1,1735,1044,0,0
518,-20,0,0,0,0,0,0,0,0,0,-1,1742,1044,0,0
525,-20,0,0,0,0,0,0,0,0,0,-1,1749,1044,0,0
532,-20,0,0,0,0,0,0,0,0,0,-1,1756,1044,0,0
539,-20,0,0,0,0,0,0,0,0,0,-1,1763,1044,0,0
546,-20,0,0,0,0,0,0,0,0,0,-1,1770,1044,0,0
553,-20,0,0,0,0,0,0,0,0,0,-1,1777,1044,0,0
560,-20,0,0,0,0,0,0,0,0,0,-1,1784,1044,0,0
567,-20,0,0,0,0,0,0,0,0,0,-1,1791,1044,0,0
574,-20,0,0,0,0,0,0,0,0,0,-1,1798,1044,0,0
581,-20,0,0,0,0,0,0,0,0,0,-1,1805,1044,0,0
588,-20,0,0,0,0,0,0,0,0,0,-1,1812,1044,0,0
595,-20,0,0,0,0,0,0,0,0,0,-1,1819,1044,0,0
602,-20,0,0,0,0,0,0,0,0,0,-1,1826,1044,0,0
609,-20,0,0,0,0,0,0,0,0,0,-1,1833,1044,0,0
616,-20,0,0,0,0,0,0,0,0,0,-1,1840,1044,0,0
623,-20,0,0,0,0,0,0,0,0,0,-1,1847,1044,0,0
630,-20,0,0,0,0,0,0,0,0,0,-1,1854,1044,0,0
637,-20,0,0,0,0,0,0,0,0,0,-1,1861,1044,0,0
644,-20,0,0,0,0,0,0,0,0,0,-1,1868,1044,0,0
651,-20,44.7111,2.57214,0.00147567,0.000698082,0.00540131,0.00650216,-0.00432841,0.749469,0.00629487,0.0426618,1875,1044,44.7111,-2.57214
658,-20,44.6284,2.6521,0.00072226,0.000488603,0.00374246,0.00434971,-0.00313885,0.769795,0.00434232,0.0441969,1882,1044,44.6284,-2.65209
665,-20,44.668,2.75659,0.00012728,0.0003717,0.00264314,0.00289545,-0.00239647,0.8085,0.00305982,0.0400528,1889,1044,44.668,-2.75664
672,-20,44.7311,2.74976,-0.000260287,0.00038315,0.00206357,0.00214993,-0.00202707,0.862728,0.00241194,0.0270569,1896,1044,44.7311,-2.74975
679,-20,44.6606,2.66357,-0.000582699,0.000442314,0.00173313,0.00173713,-0.00187751,0.929157,0.00208744,0.030547,1903,1044,44.6607,-2.66353
686,-20,44.6699,2.59851,-0.000821482,0.000286938,0.0016406,0.00146441,-0.00199895,0.948285,0.0020075,0.0398291,1910,1044,44.6699,-2.59847
693,-20,44.5054,2.68542,-0.00087544,6.82364e-05,0.00171711,0.00137716,-0.00218436,0.919482,0.00207377,0.0429929,1917,1044,44.5054,-2.68538
700,-20,44.4204,2.66833,-0.000830416,-7.64556e-05,0.00181168,0.00139705,-0.00230392,0.887976,0.00215804,0.0384677,1924,1044,44.4204,-2.66834
707,-20,44.5095,2.66309,-0.000851713,-4.45701e-05,0.00181728,0.00141341,-0.00230969,0.894662,0.00217019,0.0336998,1931,1044,44.5096,-2.66315
714,-20,44.5558,2.85657,-0.00108054,0.000177524,0.00184887,0.00150144,-0.00240445,0.949368,0.00227507,0.0337787,1938,1044,44.5558,-2.85653
721,-20,44.532,3.07568,0,0,0,0,0,0,0,-1,1945,1044,44.532,-3.07573
728,-20,44.561,5.79468,0,0,0,0,0,0,0,-1,1952,1044,44.5611,-5.79469
735,-20,44.3273,5.77625,-0.00287671,0.00191317,0.00174814,0.00248331,-0.00344685,1.25553,0.00343881,0.0282193,1959,1044,44.3273,-5.77628
742,-20,44.1538,5.6803,-0.00371596,0.00260157,0.00131951,0.00286609,-0.00398048,1.37295,0.00397029,0.0217863,1966,1044,44.1538,-5.68033
749,-20,44.2246,5.63074,-0.00499046,0.00381477,0.000899575,0.00390573,-0.00508142,1.47002,0.00520352,0.0237357,1973,1044,44.2246,-5.6307
756,-20,44.2146,5.57214,-0.00714279,0.00535262,-0.000347195,0.00536226,-0.00715243,-1.54304,0.00724996,0.0163505,1980,1044,44.2146,-5.57219
763,-20,44.149,5.50256,-0.0101743,0.00718337,-0.00240098,0.00750936,-0.0105003,-1.43585,0.0104455,0.0239231,1987,1044,44.1491,-5.50253
770,-20,44.0857,5.48157,-0.0140167,0.00944972,-0.0050728,0.0104994,-0.0150663,-1.36676,0.0148387,0.0208209,1994,1044,44.0857,-5.48161
777,-20,43.986,5.35278,-0.0189528,0.0120537,-0.00879881,0.0143766,-0.0212756,-1.31269,0.0207119,0.0146055,2001,1044,43.9859,-5.35283
784,-20,43.9785,5.28821,-0.0245425,0.0145265,-0.0133668,0.018662,-0.0286779,-1.27075,0.0275349,0.0200536,2008,1044,43.9786,-5.28818
791,-20,44.0347,5.13354,0,0,0,0,0,0,0,-1,2015,1044,44.0346,-5.13354
798,-20,45.1714,5.95349,0,0,0,0,0,0,0,-1,2022,1044,45.1713,-5.95351
805,-20,44.8386,4.15076,0,0,0,0,0,0,0,-1,2029,1044,44.8386,-4.15076
812,-20,43.9006,3.9729,0,0,0,0,0,0,0,-1,2036,1044,43.9007,-3.97293
-700,-27,-31.7061,3.47681,0,0,0,0,0,0,0,-1,524,1051,-31.7061,-3.47682
-693,-27,-31.1431,2.94568,0,0,0,0,0,0,0,-1,531,1051,-31.1431,-2.94568
-686,-27,-31.3469,2.83875,0.00173086,0.03494,-0.0365206,0.0584536,-0.0217827,-0.99876,0.04791,0.0445033,538,1051,-31.3469,-2.83879
-679,-27,-31.5383,2.71106,0.000634487,0.0357686,-0.0291253,0.0522145,-0.0158114,-1.05677,0.0411066,0.0465502,545,1051,-31.5383,-2.71106
-672,-27,-31.9714,2.64124,0,0,0,0,0,0,0,-1,552,1051,-31.9714,-2.64118
-665,-27,-32.3042,2.5188,-0.000915107,0.0320988,-0.0174105,0.0395836,-0.00839989,-1.16478,0.0295892,0.0493075,559,1051,-32.3042,-2.51881
-658,-27,-32.4233,2.52832,-0.00143133,0.028645,-0.0129162,0.0334304,-0.00621674,-1.21598,0.0246222,0.0447283,566,1051,-32.4233,-2.52833
-651,-27,-32.6261,2.40222,-0.00178055,0.0245165,-0.0093323,0.0274918,-0.00475578,-1.26217,0.0201015,0.0351282,573,1051,-32.6261,-2.40218
-644,-27,-32.6864,2.34106,-0.00241077,0.0210753,-0.00656268,0.0227847,-0.00412016,-1.31599,0.0167331,0.0181173,580,1051,-32.6864,-2.34103
-637,-27,-32.7507,2.46802,-0.0023419,0.0160057,-0.00443723,0.0170224,-0.00335867,-1.34554,0.0126177,0.014683,587,1051,-32.7507,-2.46797
-630,-27,-32.8024,2.72742,-0.00178955,0.011047,-0.00328228,0.0118376,-0.00258013,-1.33444,0.00887765,0.0188038,594,1051,-32.8024,-2.72742
-623,-27,-32.787,2.88989,-0.000987684,0.00701624,-0.00317586,0.00812327,-0.00209471,-1.23539,0.00623222,0.0167674,601,1051,-32.7871,-2.88994
-616,-27,-32.7883,3.04626,-0.000776924,0.00378417,-0.00425168,0.00632831,-0.00332107,-1.03156,0.00566054,0.0146538,608,1051,-32.7882,-3.0462
-609,-27,-32.7988,3.19739,-0.000821263,0.00101819,-0.00529334,0.00547112,-0.00527419,-0.871415,0.00620415,0.0137134,615,1051,-32.7988,-3.19739
-602,-27,-32.7526,3.34045,-0.000355377,-0.000212635,-0.00518144,0.00489792,-0.00546593,-0.792285,0.00598657,0.0121536,622,1051,-32.7527,-3.34051
-595,-27,-32.804,3.45117,-0.000199196,-0.00106525,-0.00502818,0.00441457,-0.00567902,-0.742444,0.00584275,0.0145218,629,1051,-32.804,-3.45114
-588,-27,-33.0214,3.51306,0,0,0,0,0,0,0,-1,636,1051,-33.0214,-3.51307
-581,-27,-32.8715,0.986328,-0.000801004,-0.00195736,-0.00458365,0.00324079,-0.00599915,-0.72266,0.00541334,0.0209402,643,1051,-32.8715,-0.986286
-574,-27,-32.9386,0.979248,-0.00136139,-0.00208635,-0.0040506,0.00234291,-0.00579066,-0.740773,0.0048345,0.0348512,650,1051,-32.9386,-0.97928
-567,-27,-32.946,0.958984,-0.00222417,-0.00196935,-0.00326551,0.00117124,-0.00536476,-0.804896,0.00402414,0.0464995,657,1051,-32.9461,-0.958941
-560,-27,-32.9279,0.997681,0,0,0,0,0,0,0,-1,664,1051,-32.9278,-0.997702
-553,-27,-32.8178,0.704956,-0.00477892,-0.00132739,-0.00109719,-0.00100814,-0.00509817,-1.28764,0.00311755,0.0409727,671,1051,-32.8178,-0.704952
-546,-27,-32.7612,0.975342,-0.00647559,-0.00116534,1.58429e-05,-0.00116529,-0.00647563,1.56781,0.00398585,0.0414745,678,1051,-32.7612,-0.975323
-539,-27,-32.8166,1.06287,-0.00849422,-0.00156785,0.000251481,-0.00155873,-0.00850334,1.53455,0.00522737,0.0468158,685,1051,-32.8166,-1.06289
-532,-27,-32.9287,1.15613,-0.0103466,-0.00162647,-0.000876897,-0.00153916,-0.0104339,-1.47156,0.00650386,0.0454998,692,1051,-32.9287,-1.15616
-525,-27,0,0,0,0,0,0,0,0,0,-1,699,1051,0,0
-518,-27,0,0,0,0,0,0,0,0,0,-1,706,1051,0,0
-511,-27,0,0,0,0,0,0,0,0,0,-1,713,1051,0,0
-504,-27,0,0,0,0,0,0,0,0,0,-1,720,1051,0,0
-497,-27,0,0,0,0,0,0,0,0,0,-1,727,1051,0,0
-490,-27,0,0,0,0,0,0,0,0,0,-1,734,1051,0,0
-483,-27,0,0,0,0,0,0,0,0,0,-1,741,1051,0,0
-476,-27,0,0,0,0,0,0,0,0,0,-1,748,1051,0,0
-469,-27,0,0,0,0,0,0,0,0,0,-1,755,1051,0,0
-462,-27,0,0,0,0,0,0,0,0,0,-1,762,1051,0,0
-455,-27,0,0,0,0,0,0,0,0,0,-1,769,1051,0,0
-448,-27,0,0,0,0,0,0,0,0,0,-1,776,1051,0,0
-441,-27,0,0,0,0,0,0,0,0,0,-1,783,1051,0,0
-434,-27,0,0,0,0,0,0,0,0,0,-1,790,1051,0,0
-427,-27,0,0,0,0,0,0,0,0,0,-1,797,1051,0,0
-420,-27,0,0,0,0,0,0,0,0,0,-1,804,1051,0,0
-413,-27,0,0,0,0,0,0,0,0,0,-1,811,1051,0,0
-406,-27,0,0,0,0,0,0,0,0,0,-1,818,1051,0,0
-399,-27,0,0,0,0,0,0,0,0,0,-1,825,1051,0,0
-392,-27,0,0,0,0,0,0,0,0,0,-1,832,1051,0,0
-385,-27,0,0,0,0,0,0,0,0,0,-1,839,1051,0,0
-378,-27,0,0,0,0,0,0,0,0,0,-1,846,1051,0,0
-371,-27,0,0,0,0,0,0,0,0,0,-1,853,1051,0,0
-364,-27,0,0,0,0,0,0,0,0,0,-1,860,1051,0,0
-357,-27,0,0,0,0,0,0,0,0,0,-1,867,1051,0,0
-350,-27,0,0,0,0,0,0,0,0,0,-1,874,1051,0,0
-343,-27,0,0,0,0,0,0,0,0,0,-1,881,1051,0,0
-336,-27,0,0,0,0,0,0,0,0,0,-1,888,1051,0,0
-329,-27,0,0,0,0,0,0,0,0,0,-1,895,1051,0,0
-322,-27,0,0,0,0,0,0,0,0,0,-1,902,1051,0,0
-315,-27,0,0,0,0,0,0,0,0,0,-1,909,1051,0,0
-308,-27,0,0,0,0,0,0,0,0,0,-1,916,1051,0,0
-301,-27,0,0,0,0,0,0,0,0,0,-1,923,1051,0,0
-294,-27,0,0,0,0,0,0,0,0,0,-1,930,1051,0,0
-287,-27,0,0,0,0,0,0,0,0,0,-1,937,1051,0,0
-280,-27,0,0,0,0,0,0,0,0,0,-1,944,1051,0,0
-273,-27,0,0,0,0,0,0,0,0,0,-1,951,1051,0,0
-266,-27,0,0,0,0,0,0,0,0,0,-1,958,1051,0,0
-259,-27,0,0,0,0,0,0,0,0,0,-1,965,1051,0,0
-252,-27,0,0,0,0,0,0,0,0,0,-1,972,1051,0,0
-245,-27,0,0,0,0,0,0,0,0,0,-1,979,1051,0,0
-238,-27,0,0,0,0,0,0,0,0,0,-1,986,1051,0,0
-231,-27,0,0,0,0,0,0,0,0,0,-1,993,1051,0,0
-224,-27,0,0,0,0,0,0,0,0,0,-1,1000,1051,0,0
-217,-27,0,0,0,0,0,0,0,0,0,-1,1007,1051,0,0
-210,-27,0,0,0,0,0,0,0,0,0,-1,1014,1051,0,0
-203,-27,0,0,0,0,0,0,0,0,0,-1,1021,1051,0,0
-196,-27,0,0,0,0,0,0,0,0,0,-1,1028,1051,0,0
-189,-27,0,0,0,0,0,0,0,0,0,-1,1035,1051,0,0
-182,-27,0,0,0,0,0,0,0,0,0,-1,1042,1051,0,0
-175,-27,0,0,0,0,0,0,0,0,0,-1,1049,1051,0,0
-168,-27,0,0,0,0,0,0,0,0,0,-1,1056,1051,0,0
-161,-27,0,0,0,0,0,0,0,0,0,-1,1063,1051,0,0
-154,-27,0,0,0,0,0,0,0,0,0,-1,1070,1051,0,0
-147,-27,0,0,0,0,0,0,0,0,0,-1,1077,1051,0,0
-140,-27,0,0,0,0,0,0,0,0,0,-1,1084,1051,0,0
-133,-27,0,0,0,0,0,0,0,0,0,-1,1091,1051,0,0
-126,-27,0,0,0,0,0,0,0,0,0,-1,1098,1051,0,0
-119,-27,0,0,0,0,0,0,0,0,0,-1,1105,1051,0,0
-112,-27,0,0,0,0,0,0,0,0,0,-1,1112,1051,0,0
-105,-27,0,0,0,0,0,0,0,0,0,-1,1119,1051,0,0
-98,-27,0,0,0,0,0,0,0,0,0,-1,1126,1051,0,0
-91,-27,0,0,0,0,0,0,0,0,0,-1,1133,1051,0,0
-84,-27,0,0,0,0,0,0,0,0,0,-1,1140,1051,0,0
-77,-27,0,0,0,0,0,0,0,0,0,-1,1147,1051,0,0
-70,-27,0,0,0,0,0,0,0,0,0,-1,1154,1051,0,0
-63,-27,0,0,0,0,0,0,0,0,0,-1,1161,1051,0,0
-56,-27,0,0,0,0,0,0,0,0,0,-1,1168,1051,0,0
-49,-27,0,0,0,0,0,0,0,0,0,-1,1175,1051,0,0
-42,-27,0,0,0,0,0,0,0,0,0,-1,1182,1051,0,0
-35,-27,0,0,0,0,0,0,0,0,0,-1,1189,1051,0,0
-28,-27,0,0,0,0,0,0,0,0,0,-1,1196,1051,0,0
-21,-27,0,0,0,0,0,0,0,0,0,-1,1203,1051,0,0
-14,-27,0,0,0,0,0,0,0,0,0,-1,1210,1051,0,0
-7,-27,0,0,0,0,0,0,0,0,0,-1,1217,1051,0,0
0,-27,0,0,0,0,0,0,0,0,0,-1,1224,1051,0,0
7,-27,0,0,0,0,0,0,0,0,0,-1,1231,1051,0,0
14,-27,0,0,0,0,0,0,0,0,0,-1,1238,1051,0,0
21,-27,0,0,0,0,0,0,0,0,0,-1,1245,1051,0,0
28,-27,0,0,0,0,0,0,0,0,0,-1,1252,1051,0,0
35,-27,0,0,0,0,0,0,0,0,0,-1,1259,1051,0,0
42,-27,0,0,0,0,0,0,0,0,0,-1,1266,1051,0,0
49,-27,0,0,0,0,0,0,0,0,0,-1,1273,1051,0,0
56,-27,0,0,0,0,0,0,0,0,0,-1,1280,1051,0,0
63,-27,0,0,0,0,0,0,0,0,0,-1,1287,1051,0,0
70,-27,0,0,0,0,0,0,0,0,0,-1,1294,1051,0,0
77,-27,0,0,0,0,0,0,0,0,0,-1,1301,1051,0,0
84,-27,0,0,0,0,0,0,0,0,0,-1,1308,1051,0,0
91,-27,0,0,0,0,0,0,0,0,0,-1,1315,1051,0,0
98,-27,0,0,0,0,0,0,0,0,0,-1,1322,1051,0,0
105,-27,0,0,0,0,0,0,0,0,0,-1,1329,1051,0,0
112,-27,0,0,0,0,0,0,0,0,0,-1,1336,1051,0,0
119,-27,0,0,0,0,0,0,0,0,0,-1,1343,1051,0,0
126,-27,0,0,0,0,0,0,0,0,0,-1,1350,1051,0,0
133,-27,0,0,0,0,0,0,0,0,0,-1,1357,1051,0,0
140,-27,0,0,0,0,0,0,0,0,0,-1,1364,1051,0,0
147,-27,0,0,0,0,0,0,0,0,0,-1,1371,1051,0,0
154,-27,0,0,0,0,0,0,0,0,0,-1,1378,1051,0,0
161,-27,0,0,0,0,0,0,0,0,0,-1,1385,1051,0,0
168,-27,0,0,0,0,0,0,0,0,0,-1,1392,1051,0,0
175,-27,0,0,0,0,0,0,0,0,0,-1,1399,1051,0,0
182,-27,0,0,0,0,0,0,0,0,0,-1,1406,1051,0,0
189,-27,0,0,0,0,0,0,0,0,0,-1,1413,1051,0,0
196,-27,0,0,0,0,0,0,0,0,0,-1,1420,1051,0,0
203,-27,0,0,0,0,0,0,0,0,0,-1,1427,1051,0,0
210,-27,0,0,0,0,0,0,0,0,0,-1,1434,1051,0,0
217,-27,0,0,0,0,0,0,0,0,0,-1,1441,1051,0,0
224,-27,0,0,0,0,0,0,0,0,0,-1,1448,1051,0,0
231,-27,0,0,0,0,0,0,0,0,0,-1,1455,1051,0,0
238,-27,0,0,0,0,0,0,0,0,0,-1,1462,1051,0,0
245,-27,0,0,0,0,0,0,0,0,0,-1,1469,1051,0,0
252,-27,0,0,0,0,0,0,0,0,0,-1,1476,1051,0,0
259,-27,0,0,0,0,0,0,0,0,0,-1,1483,1051,0,0
266,-27,0,0,0,0,0,0,0,0,0,-1,1490,1051,0,0
273,-27,0,0,0,0,0,0,0,0,0,-1,1497,1051,0,0
280,-27,0,0,0,0,0,0,0,0,0,-1,1504,1051,0,0
287,-27,0,0,0,0,0,0,0,0,0,-1,1511,1051,0,0
294,-27,0,0,0,0,0,0,0,0,0,-1,1518,1051,0,0
301,-27,0,0,0,0,0,0,0,0,0,-1,1525,1051,0,0
308,-27,0,0,0,0,0,0,0,0,0,-1,1532,1051,0,0
315,-27,0,0,0,0,0,0,0,0,0,-1,1539,1051,0,0
322,-27,0,0,0,0,0,0,0,0,0,-1,1546,1051,0,0
329,-27,0,0,0,0,0,0,0,0,0,-1,1553,1051,0,0
336,-27,0,0,0,0,0,0,0,0,0,-1,1560,1051,0,0
343,-27,0,0,0,0,0,0,0,0,0,-1,1567,1051,0,0
350,-27,0,0,0,0,0,0,0,0,0,-1,1574,1051,0,0
357,-27,0,0,0,0,0,0,0,0,0,-1,1581,1051,0,0
364,-27,0,0,0,0,0,0,0,0,0,-1,1588,1051,0,0
371,-27,0,0,0,0,0,0,0,0,0,-1,1595,1051,0,0
378,-27,0,0,0,0,0,0,0,0,0,-1,1602,1051,0,0
385,-27,0,0,0,0,0,0,0,0,0,-1,1609,1051,0,0
392,-27,0,0,0,0,0,0,0,0,0,-1,1616,1051,0,0
399,-27,0,0,0,0,0,0,0,0,0,-1,1623,1051,0,0
406,-27,0,0,0,0,0,0,0,0,0,-1,1630,1051,0,0
413,-27,0,0,0,0,0,0,0,0,0,-1,1637,1051,0,0
420,-27,0,0,0,0,0,0,0,0,0,-1,1644,1051,0,0
427,-27,0,0,0,0,0,0,0,0,0,-1,1651,1051,0,0
434,-27,0,0,0,0,0,0,0,0,0,-1,1658,1051,0,0
441,-27,0,0,0,0,0,0,0,0,0,-1,1665,1051,0,0
448,-27,0,0,0,0,0,0,0,0,0,-1,1672,1051,0,0
455,-27,0,0,0,0,0,0,0,0,0,-1,1679,1051,0,0
462,-27,0,0,0,0,0,0,0,0,0,-1,1686,1051,0,0
469,-27,0,0,0,0,0,0,0,0,0,-1,1693,1051,0,0
476,-27,0,0,0,0,0,0,0,0,0,-1,1700,1051,0,0
483,-27,0,0,0,0,0,0,0,0,0,-1,1707,1051,0,0
490,-27,0,0,0,0,0,0,0,0,0,-1,1714,1051,0,0
497,-27,0,0,0,0,0,0,0,0,0,-1,1721,1051,0,0
504,-27,0,0,0,0,0,0,0,0,0,-1,1728,1051,0,0
511,-27,0,0,0,0,0,0,0,0,0,-1,1735,1051,0,0
518,-27,0,0,0,0,0,0,0,0,0,-1,1742,1051,0,0
525,-27,0,0,0,0,0,0,0,0,0,-1,1749,1051,0,0
532,-27,0,0,0,0,0,0,0,0,0,-1,1756,1051,0,0
539,-27,0,0,0,0,0,0,0,0,0,-1,1763,1051,0,0
546,-27,0,0,0,0,0,0,0,0,0,-1,1770,1051,0,0
553,-27,0,0,0,0,0,0,0,0,0,-1,1777,1051,0,0
560,-27,0,0,0,0,0,0,0,0,0,-1,1784,1051,0,0
567,-27,0,0,0,0,0,0,0,0,0,-1,1791,1051,0,0
574,-27,0,0,0,0,0,0,0,0,0,-1,1798,1051,0,0
581,-27,0,0,0,0,0,0,0,0,0,-1,1805,1051,0,0
588,-27,0,0,0,0,0,0,0,0,0,-1,1812,1051,0,0
595,-27,0,0,0,0,0,0,0,0,0,-1,1819,1051,0,0
602,-27,0,0,0,0,0,0,0,0,0,-1,1826,1051,0,0
609,-27,0,0,0,0,0,0,0,0,0,-1,1833,1051,0,0
616,-27,0,0,0,0,0,0,0,0,0,-1,1840,1051,0,0
623,-27,0,0,0,0,0,0,0,0,0,-1,1847,1051,0,0
630,-27,0,0,0,0,0,0,0,0,0,-1,1854,1051,0,0
637,-27,0,0,0,0,0,0,0,0,0,-1,1861,1051,0,0
644,-27,0,0,0,0,0,0,0,0,0,-1,1868,1051,0,0
651,-27,44.7186,2.92603,0.00150997,0.000481256,0.00519487,0.00621589,-0.00422466,0.736053,0.00606429,0.04219,1875,1051,44.7186,-2.92597
658,-27,44.5406,3.03369,0.000821795,0.000313053,0.00363906,0.00421537,-0.00308052,0.750505,0.00422923,0.0392287,1882,1051,44.5406,-3.03365
665,-27,44.463,2.91821,0.000253172,0.000260157,0.00259194,0.00284861,-0.00233528,0.786072,0.00299781,0.0380647,1889,1051,44.4631,-2.91821
672,-27,44.5681,2.72839,-0.000129253,0.000293118,0.00203336,0.00212624,-0.00196237,0.837143,0.00236119,0.0316839,1896,1051,44.5682,-2.72842
679,-27,44.5913,2.71716,-0.000461433,0.000371842,0.00169192,0.00169767,-0.00178726,0.906122,0.00201225,0.031317,1903,1051,44.5913,-2.71722
686,-27,44.6935,2.82227,-0.000724236,0.000227944,0.00159518,0.00141657,-0.00191286,0.930417,0.00192935,0.0426047,1910,1051,44.6935,-2.82229
693,-27,44.6128,2.62183,-0.000814061,7.87473e-06,0.00166842,0.0013152,-0.00212139,0.906155,0.00200223,0.0423485,1917,1051,44.6127,-2.62187
700,-27,44.4746,2.73828,-0.000792583,-0.000148931,0.0017904,0.00134833,-0.00228985,0.874324,0.00212382,0.0393444,1924,1051,44.4746,-2.73825
707,-27,44.481,2.75037,-0.000831068,-0.0001383,0.00181057,0.00135872,-0.00232809,0.879912,0.00215296,0.0277056,1931,1051,44.4809,-2.75032
714,-27,44.5581,2.85779,-0.0010639,6.4031e-05,0.00187052,0.00145375,-0.00245362,0.931815,0.00228041,0.0263742,1938,1051,44.5581,-2.85785
721,-27,44.5861,3.08606,0,0,0,0,0,0,0,-1,1945,1051,44.586,-3.08606
728,-27,44.5984,5.87732,0,0,0,0,0,0,0,-1,1952,1051,44.5983,-5.87737
735,-27,44.1934,5.84607,-0.00275062,0.00165469,0.00181685,0.00230731,-0.00340325,1.22594,0.00331717,0.0305651,1959,1051,44.1934,-5.84604
742,-27,44.0354,5.77344,-0.00340019,0.00234375,0.00144408,0.00268637,-0.00374281,1.33785,0.00372855,0.0188403,1966,1051,44.0354,-5.77341
749,-27,44.1023,5.65649,-0.00444093,0.00356143,0.00111764,0.00371459,-0.00459409,1.4346,0.00480597,0.0142389,1973,1051,44.1023,-5.65646
756,-27,44.0923,5.55017,-0.00625862,0.00503832,-4.36725e-05,0.00503849,-0.00625879,-1.56693,0.00653516,0.0136588,1980,1051,44.0922,-5.55016
763,-27,44.0441,5.41956,-0.00881405,0.00670916,-0.00198154,0.00695811,-0.00906301,-1.44582,0.00927637,0.0149815,1987,1051,44.044,-5.41954
770,-27,43.9744,5.30688,-0.012009,0.00887862,-0.00453449,0.00982054,-0.0129509,-1.36599,0.0131885,0.0156684,1994,1051,43.9744,-5.30691
777,-27,43.9001,5.29126,-0.0160523,0.011254,-0.00808517,0.0134684,-0.0182667,-1.30347,0.0183919,0.0171392,2001,1051,43.9002,-5.29126
784,-27,43.8889,5.28528,-0.0206179,0.0133642,-0.0124236,0.0174217,-0.0246754,-1.25512,0.0244248,0.02568,2008,1051,43.8888,-5.28529
791,-27,44.0115,5.20166,0,0,0,0,0,0,0,-1,2015,1051,44.0114,-5.2016
798,-27,44.6384,4.99817,-0.0321869,0.0160708,-0.0249293,0.0266359,-0.0427521,-1.16994,0.0404198,0.0473289,2022,1051,44.6383,-4.99821
805,-27,44.6992,4.01733,0,0,0,0,0,0,0,-1,2029,1051,44.6992,-4.0173
812,-27,44.696,3.23596,0,0,0,0,0,0,0,-1,2036,1051,44.696,-3.23592
-700,-34,-31.1941,3.57153,0.00756559,0.0128754,-0.0495536,0.0598452,-0.0394041,-0.812161,0.0577053,0.0474363,524,1058,-31.1941,-3.5715
-693,-34,-30.8655,3.27478,0.00494289,0.0252186,-0.0406533,0.056979,-0.0268176,-0.907592,0.0494136,0.0490046,531,1058,-30.8655,-3.27473
-686,-34,-30.6828,2.90344,0.00295188,0.0316215,-0.0332698,0.0535133,-0.0189399,-0.988813,0.0433893,0.0486669,538,1058,-30.6828,-2.90343
-679,-34,-30.845,2.73962,0.00137923,0.0339121,-0.0268215,0.0490142,-0.0137229,-1.05798,0.0380837,0.0461479,545,1058,-30.845,-2.73957
-672,-34,-33.5395,1.21265,0,0,0,0,0,0,0,-1,552,1058,-33.5395,-1.21264
-665,-34,-33.0109,1.72668,-0.000655934,0.0317171,-0.0162584,0.0384726,-0.00741147,-1.17699,0.0284426,0.047267,559,1058,-33.0108,-1.72663
-658,-34,-32.1682,2.33789,-0.00127269,0.0285324,-0.0121172,0.032837,-0.00557725,-1.22946,0.0239677,0.0448022,566,1058,-32.1682,-2.3379
-651,-34,-32.3403,2.22009,-0.00167654,0.0244911,-0.00878951,0.0271694,-0.00435476,-1.27503,0.0197254,0.031244,573,1058,-32.3403,-2.22004
-644,-34,-32.5527,2.24329,-0.0023775,0.0211866,-0.00617668,0.0227075,-0.00389838,-1.32937,0.0165912,0.0166789,580,1058,-32.5527,-2.2433
-637,-34,-32.6005,2.40503,-0.00235478,0.0161935,-0.00419459,0.017098,-0.00325925,-1.35842,0.0126261,0.0175272,587,1058,-32.6005,-2.40504
-630,-34,-32.5907,2.64478,-0.0017758,0.0109786,-0.00311608,0.0116992,-0.00249639,-1.34354,0.00875112,0.0177158,594,1058,-32.5907,-2.64472
-623,-34,-32.5726,2.85388,-0.000937647,0.00674743,-0.00299145,0.00777458,-0.0019648,-1.24005,0.00594718,0.0139442,601,1058,-32.5726,-2.85387
-616,-34,-32.5663,3.07788,-0.000759561,0.00343063,-0.00389663,0.00575969,-0.00308862,-1.03206,0.00518559,0.0207326,608,1058,-32.5663,-3.07791
-609,-34,-32.5366,3.25256,-0.000849882,0.000765134,-0.00476495,0.00479051,-0.00487526,-0.869335,0.00558061,0.01972,615,1058,-32.5366,-3.25259
-602,-34,-32.522,3.39197,-0.000381663,-0.000396157,-0.00458143,0.00419252,-0.00497034,-0.784607,0.00529653,0.0151319,622,1058,-32.522,-3.39192
-595,-34,-32.6392,3.52527,-0.000249515,-0.00125938,-0.00434274,0.00361755,-0.00512644,-0.727523,0.00507334,0.0158958,629,1058,-32.6392,-3.52527
-588,-34,-32.8984,3.61792,0,0,0,0,0,0,0,-1,636,1058,-32.8984,-3.61796
-581,-34,-32.8447,1.01318,-0.000986755,-0.00206655,-0.00381054,0.00232195,-0.00537525,-0.715024,0.00455904,0.0218113,643,1058,-32.8447,-1.01318
-574,-34,-32.8684,1.0166,-0.00157268,-0.0021755,-0.00328532,0.00142503,-0.00517321,-0.739654,0.00400915,0.0333982,650,1058,-32.8684,-1.01661
-567,-34,-32.8432,0.916504,-0.00244414,-0.00204564,-0.00254641,0.000309308,-0.00479909,-0.824442,0.00330732,0.0406601,657,1058,-32.8432,-0.916475
-560,-34,-32.7883,0.796753,-0.00360291,-0.00173129,-0.00160943,-0.000805373,-0.00452882,-1.04873,0.00278978,0.0407426,664,1058,-32.7883,-0.7968
-553,-34,-32.7345,0.7771,-0.00507347,-0.00135787,-0.000551712,-0.00127768,-0.00515366,-1.42646,0.00309896,0.0420743,671,1058,-32.7345,-0.777091
-546,-34,-32.8043,0.988159,-0.00685581,-0.00112629,0.000455752,-0.00109026,-0.00689184,1.49191,0.0042777,0.0435749,678,1058,-32.8043,-0.988176
-539,-34,-32.927,1.14819,-0.00905623,-0.00142981,0.00061952,-0.00137982,-0.00910623,1.49027,0.00566715,0.0434831,685,1058,-32.927,-1.14816
-532,-34,-33.0123,1.19092,-0.0111809,-0.00145773,-0.000259715,-0.00145079,-0.0111878,-1.54411,0.00702505,0.0433716,692,1058,-33.0123,-1.19091
-525,-34,0,0,0,0,0,0,0,0,0,-1,699,1058,0,0
-518,-34,0,0,0,0,0,0,0,0,0,-1,706,1058,0,0
-511,-34,0,0,0,0,0,0,0,0,0,-1,713,1058,0,0
-504,-34,0,0,0,0,0,0,0,0,0,-1,720,1058,0,0
-497,-34,0,0,0,0,0,0,0,0,0,-1,727,1058,0,0
-490,-34,0,0,0,0,0,0,0,0,0,-1,734,1058,0,0
-483,-34,0,0,0,0,0,0,0,0,0,-1,741,1058,0,0
-476,-34,0,0,0,0,0,0,0,0,0,-1,748,1058,0,0
-469,-34,0,0,0,0,0,0,0,0,0,-1,755,1058,0,0
-462,-34,0,0,0,0,0,0,0,0,0,-1,762,1058,0,0
-455,-34,0,0,0,0,0,0,0,0,0,-1,769,1058,0,0
-448,-34,0,0,0,0,0,0,0,0,0,-1,776,1058,0,0
-441,-34,0,0,0,0,0,0,0,0,0,-1,783,1058,0,0
-434,-34,0,0,0,0,0,0,0,0,0,-1,790,1058,0,0
-427,-34,0,0,0,0,0,0,0,0,0,-1,797,1058,0,0
-420,-34,0,0,0,0,0,0,0,0,0,-1,804,1058,0,0
-413,-34,0,0,0,0,0,0,0,0,0,-1,811,1058,0,0
-406,-34,0,0,0,0,0,0,0,0,0,-1,818,1058,0,0
-399,-34,0,0,0,0,0,0,0,0,0,-1,825,1058,0,0
-392,-34,0,0,0,0,0,0,0,0,0,-1,832,1058,0,0
-385,-34,0,0,0,0,0,0,0,0,0,-1,839,1058,0,0
-378,-34,0,0,0,0,0,0,0,0,0,-1,846,1058,0,0
-371,-34,0,0,0,0,0,0,0,0,0,-1,853,1058,0,0
-364,-34,0,0,0,0,0,0,0,0,0,-1,860,1058,0,0
-357,-34,0,0,0,0,0,0,0,0,0,-1,867,1058,0,0
-350,-34,0,0,0,0,0,0,0,0,0,-1,874,1058,0,0
-343,-34,0,0,0,0,0,0,0,0,0,-1,881,1058,0,0
-336,-34,0,0,0,0,0,0,0,0,0,-1,888,1058,0,0
-329,-34,0,0,0,0,0,0,0,0,0,-1,895,1058,0,0
-322,-34,0,0,0,0,0,0,0,0,0,-1,902,1058,0,0
-315,-34,0,0,0,0,0,0,0,0,0,-1,909,1058,0,0
-308,-34,0,0,0,0,0,0,0,0,0,-1,916,1058,0,0
-301,-34,0,0,0,0,0,0,0,0,0,-1,923,1058,0,0
-294,-34,0,0,0,0,0,0,0,0,0,-1,930,1058,0,0
-287,-34,0,0,0,0,0,0,0,0,0,-1,937,1058,0,0
-280,-34,0,0,0,0,0,0,0,0,0,-1,944,1058,0,0
-273,-34,0,0,0,0,0,0,0,0,0,-1,951,1058,0,0
-266,-34,0,0,0,0,0,0,0,0,0,-1,958,1058,0,0
-259,-34,0,0,0,0,0,0,0,0,0,-1,965,1058,0,0
-252,-34,0,0,0,0,0,0,0,0,0,-1,972,1058,0,0
-245,-34,0,0,0,0,0,0,0,0,0,-1,979,1058,0,0
-238,-34,0,0,0,0,0,0,0,0,0,-1,986,1058,0,0
-231,-34,0,0,0,0,0,0,0,0,0,-1,993,1058,0,0
-224,-34,0,0,0,0,0,0,0,0,0,-1,1000,1058,0,0
-217,-34,0,0,0,0,0,0,0,0,0,-1,1007,1058,0,0
-210,-34,0,0,0,0,0,0,0,0,0,-1,1014,1058,0,0
-203,-34,0,0,0,0,0,0,0,0,0,-1,1021,1058,0,0
-196,-34,0,0,0,0,0,0,0,0,0,-1,1028,1058,0,0
-189,-34,0,0,0,0,0,0,0,0,0,-1,1035,1058,0,0
-182,-34,0,0,0,0,0,0,0,0,0,-1,1042,1058,0,0
-175,-34,0,0,0,0,0,0,0,0,0,-1,1049,1058,0,0
-168,-34,0,0,0,0,0,0,0,0,0,-1,1056,1058,0,0
-161,-34,0,0,0,0,0,0,0,0,0,-1,1063,1058,0,0
-154,-34,0,0,0,0,0,0,0,0,0,-1,1070,1058,0,0
-147,-34,0,0,0,0,0,0,0,0,0,-1,1077,1058,0,0
-140,-34,0,0,0,0,0,0,0,0,0,-1,1084,1058,0,0
-133,-34,0,0,0,0,0,0,0,0,0,-1,1091,1058,0,0
-126,-34,0,0,0,0,0,0,0,0,0,-1,1098,1058,0,0
-119,-34,0,0,0,0,0,0,0,0,0,-1,1105,1058,0,0
-112,-34,0,0,0,0,0,0,0,0,0,-1,1112,1058,0,0
-105,-34,0,0,0,0,0,0,0,0,0,-1,1119,1058,0,0
-98,-34,0,0,0,0,0,0,0,0,0,-1,1126,1058,0,0
-91,-34,0,0,0,0,0,0,0,0,0,-1,1133,1058,0,0
-84,-34,0,0,0,0,0,0,0,0,0,-1,1140,1058,0,0
-77,-34,0,0,0,0,0,0,0,0,0,-1,1147,1058,0,0
-70,-34,0,0,0,0,0,0,0,0,0,-1,1154,1058,0,0
-63,-34,0,0,0,0,0,0,0,0,0,-1,1161,1058,0,0
-56,-34,0,0,0,0,0,0,0,0,0,-1,1168,1058,0,0
-49,-34,0,0,0,0,0,0,0,0,0,-1,1175,1058,0,0
-42,-34,0,0,0,0,0,0,0,0,0,-1,1182,1058,0,0
-35,-34,0,0,0,0,0,0,0,0,0,-1,1189,1058,0,0
-28,-34,0,0,0,0,0,0,0,0,0,-1,1196,1058,0,0
-21,-34,0,0,0,0,0,0,0,0,0,-1,1203,1058,0,0
-14,-34,0,0,0,0,0,0,0,0,0,-1,1210,1058,0,0
-7,-34,0,0,0,0,0,0,0,0,0,-1,1217,1058,0,0
0,-34,0,0,0,0,0,0,0,0,0,-1,1224,1058,0,0
7,-34,0,0,0,0,0,0,0,0,0,-1,1231,1058,0,0
14,-34,0,0,0,0,0,0,0,0,0,-1,1238,1058,0,0
21,-34,0,0,0,0,0,0,0,0,0,-1,1245,1058,0,0
28,-34,0,0,0,0,0,0,0,0,0,-1,1252,1058,0,0
35,-34,0,0,0,0,0,0,0,0,0,-1,1259,1058,0,0
42,-34,0,0,0,0,0,0,0,0,0,-1,1266,1058,0,0
49,-34,0,0,0,0,0,0,0,0,0,-1,1273,1058,0,0
56,-34,0,0,0,0,0,0,0,0,0,-1,1280,1058,0,0
63,-34,0,0,0,0,0,0,0,0,0,-1,1287,1058,0,0
70,-34,0,0,0,0,0,0,0,0,0,-1,1294,1058,0,0
77,-34,0,0,0,0,0,0,0,0,0,-1,1301,1058,0,0
84,-34,0,0,0,0,0,0,0,0,0,-1,1308,1058,0,0
91,-34,0,0,0,0,0,0,0,0,0,-1,1315,1058,0,0
98,-34,0,0,0,0,0,0,0,0,0,-1,1322,1058,0,0
105,-34,0,0,0,0,0,0,0,0,0,-1,1329,1058,0,0
112,-34,0,0,0,0,0,0,0,0,0,-1,1336,1058,0,0
119,-34,0,0,0,0,0,0,0,0,0,-1,1343,1058,0,0
126,-34,0,0,0,0,0,0,0,0,0,-1,1350,1058,0,0
133,-34,0,0,0,0,0,0,0,0,0,-1,1357,1058,0,0
140,-34,0,0,0,0,0,0,0,0,0,-1,1364,1058,0,0
147,-34,0,0,0,0,0,0,0,0,0,-1,1371,1058,0,0
154,-34,0,0,0,0,0,0,0,0,0,-1,1378,1058,0,0
161,-34,0,0,0,0,0,0,0,0,0,-1,1385,1058,0,0
168,-34,0,0,0,0,0,0,0,0,0,-1,1392,1058,0,0
175,-34,0,0,0,0,0,0,0,0,0,-1,1399,1058,0,0
182,-34,0,0,0,0,0,0,0,0,0,-1,1406,1058,0,0
189,-34,0,0,0,0,0,0,0,0,0,-1,1413,1058,0,0
196,-34,0,0,0,0,0,0,0,0,0,-1,1420,1058,0,0
203,-34,0,0,0,0,0,0,0,0,0,-1,1427,1058,0,0
210,-34,0,0,0,0,0,0,0,0,0,-1,1434,1058,0,0
217,-34,0,0,0,0,0,0,0,0,0,-1,1441,1058,0,0
224,-34,0,0,0,0,0,0,0,0,0,-1,1448,1058,0,0
231,-34,0,0,0,0,0,0,0,0,0,-1,1455,1058,0,0
238,-34,0,0,0,0,0,0,0,0,0,-1,1462,1058,0,0
245,-34,0,0,0,0,0,0,0,0,0,-1,1469,1058,0,0
252,-34,0,0,0,0,0,0,0,0,0,-1,1476,1058,0,0
259,-34,0,0,0,0,0,0,0,0,0,-1,1483,1058,0,0
266,-34,0,0,0,0,0,0,0,0,0,-1,1490,1058,0,0
273,-34,0,0,0,0,0,0,0,0,0,-1,1497,1058,0,0
280,-34,0,0,0,0,0,0,0,0,0,-1,1504,1058,0,0
287,-34,0,0,0,0,0,0,0,0,0,-1,1511,1058,0,0
294,-34,0,0,0,0,0,0,0,0,0,-1,1518,1058,0,0
301,-34,0,0,0,0,0,0,0,0,0,-1,1525,1058,0,0
308,-34,0,0,0,0,0,0,0,0,0,-1,1532,1058,0,0
315,-34,0,0,0,0,0,0,0,0,0,-1,1539,1058,0,0
322,-34,0,0,0,0,0,0,0,0,0,-1,1546,1058,0,0
329,-34,0,0,0,0,0,0,0,0,0,-1,1553,1058,0,0
336,-34,0,0,0,0,0,0,0,0,0,-1,1560,1058,0,0
343,-34,0,0,0,0,0,0,0,0,0,-1,1567,1058,0,0
350,-34,0,0,0,0,0,0,0,0,0,-1,1574,1058,0,0
357,-34,0,0,0,0,0,0,0,0,0,-1,1581,1058,0,0
364,-34,0,0,0,0,0,0,0,0,0,-1,1588,1058,0,0
371,-34,0,0,0,0,0,0,0,0,0,-1,1595,1058,0,0
378,-34,0,0,0,0,0,0,0,0,0,-1,1602,1058,0,0
385,-34,0,0,0,0,0,0,0,0,0,-1,1609,1058,0,0
392,-34,0,0,0,0,0,0,0,0,0,-1,1616,1058,0,0
399,-34,0,0,0,0,0,0,0,0,0,-1,1623,1058,0,0
406,-34,0,0,0,0,0,0,0,0,0,-1,1630,1058,0,0
413,-34,0,0,0,0,0,0,0,0,0,-1,1637,1058,0,0
420,-34,0,0,0,0,0,0,0,0,0,-1,1644,1058,0,0
427,-34,0,0,0,0,0,0,0,0,0,-1,1651,1058,0,0
434,-34,0,0,0,0,0,0,0,0,0,-1,1658,1058,0,0
441,-34,0,0,0,0,0,0,0,0,0,-1,1665,1058,0,0
448,-34,0,0,0,0,0,0,0,0,0,-1,1672,1058,0,0
455,-34,0,0,0,0,0,0,0,0,0,-1,1679,1058,0,0
462,-34,0,0,0,0,0,0,0,0,0,-1,1686,1058,0,0
469,-34,0,0,0,0,0,0,0,0,0,-1,1693,1058,0,0
476,-34,0,0,0,0,0,0,0,0,0,-1,1700,1058,0,0
483,-34,0,0,0,0,0,0,0,0,0,-1,1707,1058,0,0
490,-34,0,0,0,0,0,0,0,0,0,-1,1714,1058,0,0
497,-34,0,0,0,0,0,0,0,0,0,-1,1721,1058,0,0
504,-34,0,0,0,0,0,0,0,0,0,-1,1728,1058,0,0
511,-34,0,0,0,0,0,0,0,0,0,-1,1735,1058,0,0
518,-34,0,0,0,0,0,0,0,0,0,-1,1742,1058,0,0
525,-34,0,0,0,0,0,0,0,0,0,-1,1749,1058,0,0
532,-34,0,0,0,0,0,0,0,0,0,-1,1756,1058,0,0
539,-34,0,0,0,0,0,0,0,0,0,-1,1763,1058,0,0
546,-34,0,0,0,0,0,0,0,0,0,-1,1770,1058,0,0
553,-34,0,0,0,0,0,0,0,0,0,-1,1777,1058,0,0
560,-34,0,0,0,0,0,0,0,0,0,-1,1784,1058,0,0
567,-34,0,0,0,0,0,0,0,0,0,-1,1791,1058,0,0
574,-34,0,0,0,0,0,0,0,0,0,-1,1798,1058,0,0
581,-34,0,0,0,0,0,0,0,0,0,-1,1805,1058,0,0
588,-34,0,0,0,0,0,0,0,0,0,-1,1812,1058,0,0
595,-34,0,0,0,0,0,0,0,0,0,-1,1819,1058,0,0
602,-34,0,0,0,0,0,0,0,0,0,-1,1826,1058,0,0
609,-34,0,0,0,0,0,0,0,0,0,-1,1833,1058,0,0
616,-34,0,0,0,0,0,0,0,0,0,-1,1840,1058,0,0
623,-34,0,0,0,0,0,0,0,0,0,-1,1847,1058,0,0
630,-34,0,0,0,0,0,0,0,0,0,-1,1854,1058,0,0
637,-34,0,0,0,0,0,0,0,0,0,-1,1861,1058,0,0
644,-34,0,0,0,0,0,0,0,0,0,-1,1868,1058,0,0
651,-34,44.567,2.78015,0.00120916,0.000161541,0.00513023,0.00584226,-0.00447156,0.734523,0.00597219,0.0413497,1875,1058,44.567,-2.78016
658,-34,44.4156,3.17651,0.00074303,-7.98278e-06,0.00362841,0.00401531,-0.00328026,0.733836,0.00421922,0.0429843,1882,1058,44.4156,-3.17649
665,-34,44.3975,3.09302,0.000303109,-4.28339e-05,0.00260221,0.00273809,-0.00247782,0.752212,0.00301266,0.0428779,1889,1058,44.3975,-3.09307
672,-34,44.4952,2.79578,-1.19476e-05,9.74199e-06,0.00205509,0.00205401,-0.00205622,0.788037,0.00237305,0.0397414,1896,1058,44.4953,-2.79573
679,-34,44.6111,2.82324,-0.000334225,9.65783e-05,0.00171445,0.00160911,-0.00184675,0.84789,0.00199682,0.0384451,1903,1058,44.6111,-2.82327
686,-34,44.655,3.05688,-0.000648859,-4.06562e-05,0.00163022,0.00131359,-0.0020031,0.877608,0.00192863,0.0424893,1910,1058,44.6551,-3.05688
693,-34,44.6584,2.91016,-0.000803093,-0.000250388,0.001715,0.00121038,-0.00226387,0.865281,0.00203637,0.0401538,1917,1058,44.6585,-2.91019
700,-34,44.5209,2.71753,-0.000834889,-0.000396137,0.00186656,0.00126389,-0.00249492,0.843895,0.00220861,0.0402212,1924,1058,44.5208,-2.71755
707,-34,44.499,2.72559,-0.000922934,-0.000384931,0.00190202,0.00126701,-0.00257488,0.855647,0.00226055,0.0279806,1931,1058,44.499,-2.72555
714,-34,44.5303,2.85901,-0.00118074,-0.000190369,0.00197976,0.0013552,-0.0027263,0.907946,0.00240037,0.0222298,1938,1058,44.5302,-2.85896
721,-34,44.5543,3.0697,0,0,0,0,0,0,0,-1,1945,1058,44.5543,-3.06971
728,-34,44.0598,5.99829,0,0,0,0,0,0,0,-1,1952,1058,44.0598,-5.99832
735,-34,43.9365,5.91882,-0.0027853,0.00132535,0.00199385,0.00213356,-0.0035935,1.18569,0.00334214,0.0200706,1959,1058,43.9366,-5.91884
742,-34,43.8912,5.80103,-0.003286,0.00202868,0.00167546,0.00251277,-0.0037701,1.28952,0.00365155,0.0166434,1966,1058,43.8912,-5.80099
749,-34,43.9371,5.677,-0.00413804,0.0032494,0.0014205,0.00351313,-0.00440177,1.38723,0.00457926,0.0139578,1973,1058,43.9371,-5.67694
756,-34,43.9496,5.53796,-0.00563374,0.00465798,0.000362316,0.00467072,-0.00564648,1.53565,0.00596551,0.0111559,1980,1058,43.9496,-5.53792
763,-34,43.8851,5.38062,-0.00774269,0.00612659,-0.00144086,0.0062747,-0.0078908,-1.46837,0.00819618,0.0129072,1987,1058,43.8851,-5.38055
770,-34,43.8053,5.25671,-0.0103572,0.00809617,-0.0038385,0.00886277,-0.0111238,-1.37368,0.0115639,0.0179802,1994,1058,43.8053,-5.25666
777,-34,43.7151,5.18079,-0.0136238,0.0100985,-0.00712983,0.0120765,-0.0156018,-1.30018,0.0160232,0.0192121,2001,1058,43.715,-5.1808
784,-34,43.7559,5.11768,-0.0173538,0.0116697,-0.0111633,0.0154667,-0.0211508,-1.24294,0.0212259,0.0359236,2008,1058,43.7558,-5.11766
791,-34,43.7498,4.80066,-0.0218101,0.0125104,-0.0163308,0.0190391,-0.0283388,-1.19048,0.0275288,0.0452925,2015,1058,43.7499,-4.80061
798,-34,44.0178,4.08228,-0.0269484,0.0122691,-0.0229142,0.0228193,-0.0374986,-1.13931,0.0351666,0.0478949,2022,1058,44.0179,-4.08226
805,-34,44.0205,3.15405,0,0,0,0,0,0,0,-1,2029,1058,44.0206,-3.15409
812,-34,42.896,1.77527,0,0,0,0,0,0,0,-1,2036,1058,42.8959,-1.77522
-700,-41,-30.6758,3.68384,0.00831397,0.00519934,-0.0427725,0.0495575,-0.0360442,-0.767202,0.049627,0.047208,524,1065,-30.6758,-3.68382
-693,-41,-30.7026,3.49097,0.00494079,0.020349,-0.0355172,0.0489881,-0.0236983,-0.8922,0.0428038,0.0456194,531,1065,-30.7026,-3.49101
-686,-41,-29.9915,2.85352,0,0,0,0,0,0,0,-1,538,1065,-29.9915,-2.85348
-679,-41,-30.135,2.71387,0,0,0,0,0,0,0,-1,545,1065,-30.135,-2.71391
-672,-41,-33.969,0.119995,7.20815e-05,0.0326343,-0.0187324,0.0411721,-0.00846573,-1.14315,0.030662,0.0458087,552,1065,-33.969,-0.12004
-665,-41,-33.08,0.773193,-0.000740991,0.0311315,-0.0143046,0.0366099,-0.00621938,-1.20505,0.0267221,0.0442867,559,1065,-33.08,-0.773188
-658,-41,-32.0699,2.16284,0,0,0,0,0,0,0,-1,566,1065,-32.0699,-2.16287
-651,-41,-32.0804,1.95483,-0.00170294,0.024207,-0.00751872,0.0262308,-0.0037267,-1.30786,0.0188526,0.0332013,573,1065,-32.0804,-1.95478
-644,-41,-32.3343,2.18958,-0.00241453,0.0210118,-0.00510704,0.0220767,-0.00347948,-1.36522,0.0160042,0.0180193,580,1065,-32.3343,-2.18953
-637,-41,-32.3813,2.37451,-0.00240182,0.0161486,-0.00337303,0.0167429,-0.0029961,-1.3964,0.012283,0.0189845,587,1065,-32.3813,-2.37452
-630,-41,-32.3832,2.59265,-0.00178333,0.0107564,-0.00252059,0.0112441,-0.00227103,-1.37967,0.00835657,0.0142965,594,1065,-32.3832,-2.59268
-623,-41,-32.354,2.82568,-0.000893462,0.00641057,-0.00250945,0.00718964,-0.00167254,-1.26977,0.00543705,0.0116495,601,1065,-32.354,-2.82569
-616,-41,-32.3413,3.08521,-0.000731692,0.00312438,-0.00335587,0.00506664,-0.00267395,-1.04614,0.00453964,0.0153363,608,1065,-32.3413,-3.08522
-609,-41,-32.2762,3.28979,-0.000838293,0.000630431,-0.00415272,0.00411322,-0.00432109,-0.872913,0.00487004,0.0225279,615,1065,-32.2762,-3.28977
-602,-41,-32.3341,3.44055,-0.000348968,-0.000444759,-0.00398305,0.00358647,-0.0043802,-0.779386,0.00460717,0.013495,622,1065,-32.3341,-3.4405
-595,-41,-32.4567,3.58484,-0.000220975,-0.00126696,-0.00374115,0.00303356,-0.00452149,-0.715951,0.00439002,0.0213848,629,1065,-32.4567,-3.58481
-588,-41,-32.7206,2.22937,0,0,0,0,0,0,0,-1,636,1065,-32.7206,-2.22942
-581,-41,-32.887,0.918823,0,0,0,0,0,0,0,-1,643,1065,-32.887,-0.91879
-574,-41,-32.8134,1.08887,-0.00161447,-0.00193965,-0.00274575,0.000973501,-0.00452762,-0.755825,0.00338983,0.0371674,650,1065,-32.8133,-1.08886
-567,-41,-32.7785,1.07104,-0.00247456,-0.00174296,-0.00207241,-4.31365e-06,-0.0042132,-0.872753,0.00280737,0.0400459,657,1065,-32.7785,-1.07102
-560,-41,-32.8278,0.835693,-0.00362939,-0.00134742,-0.00121724,-0.000820012,-0.0041568,-1.16194,0.00254233,0.0373442,664,1065,-32.8278,-0.83574
-553,-41,-32.7841,0.826416,-0.00509749,-0.00085476,-0.000243845,-0.000840792,-0.00511146,-1.51357,0.00316482,0.0405408,671,1065,-32.7841,-0.826371
-546,-41,-32.7925,1.23206,-0.00690019,-0.000436881,0.000702426,-0.000361423,-0.00697564,1.46378,0.00453476,0.041832,678,1065,-32.7926,-1.23205
-539,-41,-32.9756,1.33203,-0.00913836,-0.000468632,0.000892085,-0.000377791,-0.0092292,1.46932,0.00603081,0.040427,685,1065,-32.9756,-1.33206
-532,-41,-33.14,1.1897,-0.0113436,-0.000222683,0.000254312,-0.00021687,-0.0113494,1.54794,0.00749501,0.0411028,692,1065,-33.14,-1.18965
-525,-41,0,0,0,0,0,0,0,0,0,-1,699,1065,0,0
-518,-41,0,0,0,0,0,0,0,0,0,-1,706,1065,0,0
-511,-41,0,0,0,0,0,0,0,0,0,-1,713,1065,0,0
-504,-41,0,0,0,0,0,0,0,0,0,-1,720,1065,0,0
-497,-41,0,0,0,0,0,0,0,0,0,-1,727,1065,0,0
-490,-41,0,0,0,0,0,0,0,0,0,-1,734,1065,0,0
-483,-41,0,0,0,0,0,0,0,0,0,-1,741,1065,0,0
-476,-41,0,0,0,0,0,0,0,0,0,-1,748,1065,0,0
-469,-41,0,0,0,0,0,0,0,0,0,-1,755,1065,0,0
-462,-41,0,0,0,0,0,0,0,0,0,-1,762,1065,0,0
-455,-41,0,0,0,0,0,0,0,0,0,-1,769,1065,0,0
-448,-41,0,0,0,0,0,0,0,0,0,-1,776,1065,0,0
-441,-41,0,0,0,0,0,0,0,0,0,-1,783,1065,0,0
-434,-41,0,0,0,0,0,0,0,0,0,-1,790,1065,0,0
-427,-41,0,0,0,0,0,0,0,0,0,-1,797,1065,0,0
-420,-41,0,0,0,0,0,0,0,0,0,-1,804,1065,0,0
-413,-41,0,0,0,0,0,0,0,0,0,-1,811,1065,0,0
-406,-41,0,0,0,0,0,0,0,0,0,-1,818,1065,0,0
-399,-41,0,0,0,0,0,0,0,0,0,-1,825,1065,0,0
-392,-41,0,0,0,0,0,0,0,0,0,-1,832,1065,0,0
-385,-41,0,0,0,0,0,0,0,0,0,-1,839,1065,0,0
-378,-41,0,0,0,0,0,0,0,0,0,-1,846,1065,0,0
-371,-41,0,0,0,0,0,0,0,0,0,-1,853,1065,0,0
-364,-41,0,0,0,0,0,0,0,0,0,-1,860,1065,0,0
-357,-41,0,0,0,0,0,0,0,0,0,-1,867,1065,0,0
-350,-41,0,0,0,0,0,0,0,0,0,-1,874,1065,0,0
-343,-41,0,0,0,0,0,0,0,0,0,-1,881,1065,0,0
-336,-41,0,0,0,0,0,0,0,0,0,-1,888,1065,0,0
-329,-41,0,0,0,0,0,0,0,0,0,-1,895,1065,0,0
-322,-41,0,0,0,0,0,0,0,0,0,-1,902,1065,0,0
-315,-41,0,0,0,0,0,0,0,0,0,-1,909,1065,0,0
-308,-41,0,0,0,0,0,0,0,0,0,-1,916,1065,0,0
-301,-41,0,0,0,0,0,0,0,0,0,-1,923,1065,0,0
-294,-41,0,0,0,0,0,0,0,0,0,-1,930,1065,0,0
-287,-41,0,0,0,0,0,0,0,0,0,-1,937,1065,0,0
-280,-41,0,0,0,0,0,0,0,0,0,-1,944,1065,0,0
-273,-41,0,0,0,0,0,0,0,0,0,-1,951,1065,0,0
-266,-41,0,0,0,0,0,0,0,0,0,-1,958,1065,0,0
-259,-41,0,0,0,0,0,0,0,0,0,-1,965,1065,0,0
-252,-41,0,0,0,0,0,0,0,0,0,-1,972,1065,0,0
-245,-41,0,0,0,0,0,0,0,0,0,-1,979,1065,0,0
-238,-41,0,0,0,0,0,0,0,0,0,-1,986,1065,0,0
-231,-41,0,0,0,0,0,0,0,0,0,-1,993,1065,0,0
-224,-41,0,0,0,0,0,0,0,0,0,-1,1000,1065,0,0
-217,-41,0,0,0,0,0,0,0,0,0,-1,1007,1065,0,0
-210,-41,0,0,0,0,0,0,0,0,0,-1,1014,1065,0,0
-203,-41,0,0,0,0,0,0,0,0,0,-1,1021,1065,0,0
-196,-41,0,0,0,0,0,0,0,0,0,-1,1028,1065,0,0
-189,-41,0,0,0,0,0,0,0,0,0,-1,1035,1065,0,0
-182,-41,0,0,0,0,0,0,0,0,0,-1,1042,1065,0,0
-175,-41,0,0,0,0,0,0,0,0,0,-1,1049,1065,0,0
-168,-41,0,0,0,0,0,0,0,0,0,-1,1056,1065,0,0
-161,-41,0,0,0,0,0,0,0,0,0,-1,1063,1065,0,0
-154,-41,0,0,0,0,0,0,0,0,0,-1,1070,1065,0,0
-147,-41,0,0,0,0,0,0,0,0,0,-1,1077,1065,0,0
-140,-41,0,0,0,0,0,0,0,0,0,-1,1084,1065,0,0
-133,-41,0,0,0,0,0,0,0,0,0,-1,1091,1065,0,0
-126,-41,0,0,0,0,0,0,0,0,0,-1,1098,1065,0,0
-119,-41,0,0,0,0,0,0,0,0,0,-1,1105,1065,0,0
-112,-41,0,0,0,0,0,0,0,0,0,-1,1112,1065,0,0
-105,-41,0,0,0,0,0,0,0,0,0,-1,1119,1065,0,0
-98,-41,0,0,0,0,0,0,0,0,0,-1,1126,1065,0,0
-91,-41,0,0,0,0,0,0,0,0,0,-1,1133,1065,0,0
-84,-41,0,0,0,0,0,0,0,0,0,-1,1140,1065,0,0
-77,-41,0,0,0,0,0,0,0,0,0,-1,1147,1065,0,0
-70,-41,0,0,0,0,0,0,0,0,0,-1,1154,1065,0,0
-63,-41,0,0,0,0,0,0,0,0,0,-1,1161,1065,0,0
-56,-41,0,0,0,0,0,0,0,0,0,-1,1168,1065,0,0
-49,-41,0,0,0,0,0,0,0,0,0,-1,1175,1065,0,0
-42,-41,0,0,0,0,0,0,0,0,0,-1,1182,1065,0,0
-35,-41,0,0,0,0,0,0,0,0,0,-1,1189,1065,0,0
-28,-41,0,0,0,0,0,0,0,0,0,-1,1196,1065,0,0
-21,-41,0,0,0,0,0,0,0,0,0,-1,1203,1065,0,0
-14,-41,0,0,0,0,0,0,0,0,0,-1,1210,1065,0,0
-7,-41,0,0,0,0,0,0,0,0,0,-1,1217,1065,0,0
0,-41,0,0,0,0,0,0,0,0,0,-1,1224,1065,0,0
7,-41,0,0,0,0,0,0,0,0,0,-1,1231,1065,0,0
14,-41,0,0,0,0,0,0,0,0,0,-1,1238,1065,0,0
21,-41,0,0,0,0,0,0,0,0,0,-1,1245,1065,0,0
28,-41,0,0,0,0,0,0,0,0,0,-1,1252,1065,0,0
35,-41,0,0,0,0,0,0,0,0,0,-1,1259,1065,0,0
42,-41,0,0,0,0,0,0,0,0,0,-1,1266,1065,0,0
49,-41,0,0,0,0,0,0,0,0,0,-1,1273,1065,0,0
56,-41,0,0,0,0,0,0,0,0,0,-1,1280,1065,0,0
63,-41,0,0,0,0,0,0,0,0,0,-1,1287,1065,0,0
70,-41,0,0,0,0,0,0,0,0,0,-1,1294,1065,0,0
77,-41,0,0,0,0,0,0,0,0,0,-1,1301,1065,0,0
84,-41,0,0,0,0,0,0,0,0,0,-1,1308,1065,0,0
91,-41,0,0,0,0,0,0,0,0,0,-1,1315,1065,0,0
98,-41,0,0,0,0,0,0,0,0,0,-1,1322,1065,0,0
105,-41,0,0,0,0,0,0,0,0,0,-1,1329,1065,0,0
112,-41,0,0,0,0,0,0,0,0,0,-1,1336,1065,0,0
119,-41,0,0,0,0,0,0,0,0,0,-1,1343,1065,0,0
126,-41,0,0,0,0,0,0,0,0,0,-1,1350,1065,0,0
133,-41,0,0,0,0,0,0,0,0,0,-1,1357,1065,0,0
140,-41,0,0,0,0,0,0,0,0,0,-1,1364,1065,0,0
147,-41,0,0,0,0,0,0,0,0,0,-1,1371,1065,0,0
154,-41,0,0,0,0,0,0,0,0,0,-1,1378,1065,0,0
161,-41,0,0,0,0,0,0,0,0,0,-1,1385,1065,0,0
168,-41,0,0,0,0,0,0,0,0,0,-1,1392,1065,0,0
175,-41,0,0,0,0,0,0,0,0,0,-1,1399,1065,0,0
182,-41,0,0,0,0,0,0,0,0,0,-1,1406,1065,0,0
189,-41,0,0,0,0,0,0,0,0,0,-1,1413,1065,0,0
196,-41,0,0,0,0,0,0,0,0,0,-1,1420,1065,0,0
203,-41,0,0,0,0,0,0,0,0,0,-1,1427,1065,0,0
210,-41,0,0,0,0,0,0,0,0,0,-1,1434,1065,0,0
217,-41,0,0,0,0,0,0,0,0,0,-1,1441,1065,0,0
224,-41,0,0,0,0,0,0,0,0,0,-1,1448,1065,0,0
231,-41,0,0,0,0,0,0,0,0,0,-1,1455,1065,0,0
238,-41,0,0,0,0,0,0,0,0,0,-1,1462,1065,0,0
245,-41,0,0,0,0,0,0,0,0,0,-1,1469,1065,0,0
252,-41,0,0,0,0,0,0,0,0,0,-1,1476,1065,0,0
259,-41,0,0,0,0,0,0,0,0,0,-1,1483,1065,0,0
266,-41,0,0,0,0,0,0,0,0,0,-1,1490,1065,0,0
273,-41,0,0,0,0,0,0,0,0,0,-1,1497,1065,0,0
280,-41,0,0,0,0,0,0,0,0,0,-1,1504,1065,0,0
287,-41,0,0,0,0,0,0,0,0,0,-1,1511,1065,0,0
294,-41,0,0,0,0,0,0,0,0,0,-1,1518,1065,0,0
301,-41,0,0,0,0,0,0,0,0,0,-1,1525,1065,0,0
308,-41,0,0,0,0,0,0,0,0,0,-1,1532,1065,0,0
315,-41,0,0,0,0,0,0,0,0,0,-1,1539,1065,0,0
322,-41,0,0,0,0,0,0,0,0,0,-1,1546,1065,0,0
329,-41,0,0,0,0,0,0,0,0,0,-1,1553,1065,0,0
336,-41,0,0,0,0,0,0,0,0,0,-1,1560,1065,0,0
343,-41,0,0,0,0,0,0,0,0,0,-1,1567,1065,0,0
350,-41,0,0,0,0,0,0,0,0,0,-1,1574,1065,0,0
357,-41,0,0,0,0,0,0,0,0,0,-1,1581,1065,0,0
364,-41,0,0,0,0,0,0,0,0,0,-1,1588,1065,0,0
371,-41,0,0,0,0,0,0,0,0,0,-1,1595,1065,0,0
378,-41,0,0,0,0,0,0,0,0,0,-1,1602,1065,0,0
385,-41,0,0,0,0,0,0,0,0,0,-1,1609,1065,0,0
392,-41,0,0,0,0,0,0,0,0,0,-1,1616,1065,0,0
399,-41,0,0,0,0,0,0,0,0,0,-1,1623,1065,0,0
406,-41,0,0,0,0,0,0,0,0,0,-1,1630,1065,0,0
413,-41,0,0,0,0,0,0,0,0,0,-1,1637,1065,0,0
420,-41,0,0,0,0,0,0,0,0,0,-1,1644,1065,0,0
427,-41,0,0,0,0,0,0,0,0,0,-1,1651,1065,0,0
434,-41,0,0,0,0,0,0,0,0,0,-1,1658,1065,0,0
441,-41,0,0,0,0,0,0,0,0,0,-1,1665,1065,0,0
448,-41,0,0,0,0,0,0,0,0,0,-1,1672,1065,0,0
455,-41,0,0,0,0,0,0,0,0,0,-1,1679,1065,0,0
462,-41,0,0,0,0,0,0,0,0,0,-1,1686,1065,0,0
469,-41,0,0,0,0,0,0,0,0,0,-1,1693,1065,0,0
476,-41,0,0,0,0,0,0,0,0,0,-1,1700,1065,0,0
483,-41,0,0,0,0,0,0,0,0,0,-1,1707,1065,0,0
490,-41,0,0,0,0,0,0,0,0,0,-1,1714,1065,0,0
497,-41,0,0,0,0,0,0,0,0,0,-1,1721,1065,0,0
504,-41,0,0,0,0,0,0,0,0,0,-1,1728,1065,0,0
511,-41,0,0,0,0,0,0,0,0,0,-1,1735,1065,0,0
518,-41,0,0,0,0,0,0,0,0,0,-1,1742,1065,0,0
525,-41,0,0,0,0,0,0,0,0,0,-1,1749,1065,0,0
532,-41,0,0,0,0,0,0,0,0,0,-1,1756,1065,0,0
539,-41,0,0,0,0,0,0,0,0,0,-1,1763,1065,0,0
546,-41,0,0,0,0,0,0,0,0,0,-1,1770,1065,0,0
553,-41,0,0,0,0,0,0,0,0,0,-1,1777,1065,0,0
560,-41,0,0,0,0,0,0,0,0,0,-1,1784,1065,0,0
567,-41,0,0,0,0,0,0,0,0,0,-1,1791,1065,0,0
574,-41,0,0,0,0,0,0,0,0,0,-1,1798,1065,0,0
581,-41,0,0,0,0,0,0,0,0,0,-1,1805,1065,0,0
588,-41,0,0,0,0,0,0,0,0,0,-1,1812,1065,0,0
595,-41,0,0,0,0,0,0,0,0,0,-1,1819,1065,0,0
602,-41,0,0,0,0,0,0,0,0,0,-1,1826,1065,0,0
609,-41,0,0,0,0,0,0,0,0,0,-1,1833,1065,0,0
616,-41,0,0,0,0,0,0,0,0,0,-1,1840,1065,0,0
623,-41,0,0,0,0,0,0,0,0,0,-1,1847,1065,0,0
630,-41,0,0,0,0,0,0,0,0,0,-1,1854,1065,0,0
637,-41,0,0,0,0,0,0,0,0,0,-1,1861,1065,0,0
644,-41,0,0,0,0,0,0,0,0,0,-1,1868,1065,0,0
651,-41,44.4984,2.65417,0.00122468,-0.000787745,0.00534926,0.00566154,-0.0052246,0.692433,0.00628681,0.0372253,1875,1065,44.4984,-2.65421
658,-41,44.4602,2.8064,0.000889905,-0.000632782,0.00376367,0.00396846,-0.00371134,0.685601,0.00443476,0.0398235,1882,1065,44.4603,-2.80642
665,-41,44.5298,2.86902,0.000494496,-0.000471659,0.00267552,0.0027302,-0.00270737,0.696083,0.00313939,0.040555,1889,1065,44.5298,-2.86901
672,-41,44.616,2.86084,0.000181473,-0.000272256,0.00208737,0.00205427,-0.00214505,0.731268,0.00242467,0.0411836,1896,1065,44.6159,-2.86089
679,-41,44.6202,2.84521,-0.000184617,-8.56599e-05,0.00171522,0.00158079,-0.00185107,0.799818,0.00198344,0.0402483,1903,1065,44.6203,-2.84517
686,-41,44.6367,2.99182,-0.000565373,-0.00016967,0.00161606,0.00126061,-0.00199565,0.846309,0.0018959,0.042633,1910,1065,44.6367,-2.99184
693,-41,44.6649,2.87683,-0.00077117,-0.000360626,0.00168771,0.00113425,-0.00226605,0.845915,0.00199908,0.0437833,1917,1065,44.665,-2.8768
700,-41,44.6034,2.75403,-0.00084209,-0.000489958,0.00184413,0.00118649,-0.00251854,0.832991,0.00218469,0.0409995,1924,1065,44.6033,-2.75409
707,-41,44.5389,2.68628,-0.000972095,-0.000477341,0.00189048,0.00118187,-0.00263131,0.850456,0.00225394,0.0305628,1931,1065,44.539,-2.68623
714,-41,44.5249,2.79163,-0.0012443,-0.000312679,0.00198639,0.00126179,-0.00281876,0.900567,0.00241239,0.0217883,1938,1065,44.5249,-2.7916
721,-41,44.5472,3.01929,0,0,0,0,0,0,0,-1,1945,1065,44.5472,-3.01934
728,-41,43.9409,6.04602,0,0,0,0,0,0,0,-1,1952,1065,43.941,-6.04598
735,-41,43.8081,5.92041,-0.00271883,0.00106769,0.00206255,0.00197417,-0.00362531,1.15671,0.00327938,0.0190638,1959,1065,43.8081,-5.92037
742,-41,43.726,5.78369,-0.00306945,0.00175857,0.00179938,0.00235541,-0.00366629,1.25052,0.00350398,0.0168244,1966,1065,43.7259,-5.78365
749,-41,43.7551,5.66956,-0.00374535,0.00293499,0.0016011,0.0032989,-0.00410927,1.3473,0.00428563,0.0150875,1973,1065,43.7551,-5.66953
756,-41,43.7822,5.53101,-0.00493637,0.00428709,0.000633671,0.00433042,-0.0049797,1.50252,0.00537955,0.0141396,1980,1065,43.7822,-5.53099
763,-41,43.7174,5.34619,-0.00662218,0.00559757,-0.00103535,0.00568467,-0.00670929,-1.48687,0.0071638,0.0126416,1987,1065,43.7174,-5.34616
770,-41,43.6389,5.19568,-0.00870783,0.00740613,-0.00329686,0.00805457,-0.00935626,-1.37659,0.0100615,0.0136834,1994,1065,43.6389,-5.19571
777,-41,43.5436,5.03638,-0.0112702,0.00913456,-0.00635412,0.0109515,-0.0130872,-1.29229,0.013897,0.0152882,2001,1065,43.5436,-5.03637
784,-41,43.4509,4.81665,-0.0142476,0.0103201,-0.0101252,0.0139552,-0.0178827,-1.22611,0.0184282,0.0259243,2008,1065,43.451,-4.8166
791,-41,43.3892,4.4845,-0.0178894,0.0105757,-0.0150054,0.0170247,-0.0243384,-1.16488,0.0240051,0.0442346,2015,1065,43.3892,-4.48453
798,-41,42.9714,4.21106,-0.0221412,0.0094369,-0.0212911,0.0201546,-0.0328589,-1.10444,0.0308989,0.0478339,2022,1065,42.9714,-4.211
805,-41,42.6323,3.66211,-0.0269374,0.0063899,-0.0292099,0.023355,-0.0439025,-1.04461,0.0394306,0.0452429,2029,1065,42.6323,-3.66213
812,-41,42.4209,2.52966,-0.0327695,0.000375447,-0.0391213,0.0262897,-0.0586837,-0.985748,0.0502337,0.0472351,2036,1065,42.4208,-2.52969
-700,-48,-31.12,4.6239,0.00608181,-0.000829813,-0.036719,0.0395072,-0.0342552,-0.738479,0.0426227,0.0435264,524,1072,-31.12,-4.62391
-693,-48,-30.8228,3.8562,0.00267273,0.0165593,-0.0308864,0.0412732,-0.0220411,-0.895961,0.0371124,0.0414737,531,1072,-30.8228,-3.85619
-686,-48,-30.6985,3.70874,0,0,0,0,0,0,0,-1,538,1072,-30.6985,-3.7087
-679,-48,-34.7941,-0.871826,0,0,0,0,0,0,0,-1,545,1072,-34.7941,0.871784
-672,-48,-33.6634,-0.432373,0,0,0,0,0,0,0,-1,552,1072,-33.6634,0.43233
-665,-48,-33.0189,0.0152588,0,0,0,0,0,0,0,-1,559,1072,-33.0188,-0.015305
-658,-48,-31.9274,0.735474,0,0,0,0,0,0,0,-1,566,1072,-31.9274,-0.735428
-651,-48,-31.9059,1.54395,-0.00240794,0.0238695,-0.00615758,0.0252408,-0.00377928,-1.35167,0.0182181,0.0361162,573,1072,-31.9059,-1.54401
-644,-48,-32.0353,2.15039,-0.00295046,0.020674,-0.00398732,0.0213288,-0.00360529,-1.40802,0.0155608,0.019767,580,1072,-32.0354,-2.15036
-637,-48,-32.0469,2.297,-0.0027839,0.0158981,-0.00257172,0.0162456,-0.00313145,-1.43647,0.0120111,0.0198385,587,1072,-32.047,-2.29694
-630,-48,-32.0575,2.53931,-0.00197076,0.0103664,-0.00201267,0.0106864,-0.0022908,-1.4131,0.00799799,0.0210369,594,1072,-32.0575,-2.53925
-623,-48,-32.1301,2.78333,-0.000944322,0.00595878,-0.00214395,0.00657045,-0.00155599,-1.29288,0.00498065,0.0113488,601,1072,-32.1301,-2.78328
-616,-48,-32.1351,3.02832,-0.000659177,0.00277661,-0.00290068,0.00442993,-0.0023125,-1.05274,0.00395621,0.010301,608,1072,-32.1351,-3.02832
-609,-48,-32.1027,3.28784,-0.000652431,0.000464938,-0.00360375,0.00355305,-0.00374054,-0.8623,0.00421142,0.0127833,615,1072,-32.1027,-3.28781
-602,-48,-32.1321,3.4845,-8.69315e-05,-0.000580077,-0.00344775,0.00312305,-0.00379006,-0.7497,0.00399747,0.0125483,622,1072,-32.1321,-3.48452
-595,-48,-32.1797,3.63806,5.23782e-05,-0.00133322,-0.00324098,0.00267377,-0.00395462,-0.680102,0.00385065,0.0276294,629,1072,-32.1798,-3.63801
-588,-48,-32.3846,3.73584,0,0,0,0,0,0,0,-1,636,1072,-32.3846,-3.73585
-581,-48,-32.788,1.02844,0,0,0,0,0,0,0,-1,643,1072,-32.788,-1.02847
-574,-48,-32.6878,1.15247,-0.00137432,-0.0018273,-0.00235318,0.000763246,-0.00396486,-0.737421,0.00293097,0.0406521,650,1072,-32.6878,-1.15244
-567,-48,-32.6664,1.26941,-0.00222082,-0.00158444,-0.00176877,-0.000105467,-0.00369979,-0.874394,0.00243214,0.0396134,657,1072,-32.6664,-1.26941
-560,-48,-32.8929,1.22009,-0.00338932,-0.00111497,-0.0010254,-0.000720933,-0.00378336,-1.20392,0.00231958,0.0374608,664,1072,-32.8929,-1.22009
-553,-48,-32.9068,0.998169,-0.00490338,-0.00049735,-0.00016714,-0.000491018,-0.00490971,-1.53293,0.00312236,0.0401154,671,1072,-32.9068,-0.998218
-546,-48,-32.8594,1.22168,-0.00680426,0.000146041,0.000676234,0.000211225,-0.00686945,1.4747,0.00465164,0.0411838,678,1072,-32.8594,-1.22162
-539,-48,-32.9465,1.24329,-0.00916009,0.00046956,0.000838052,0.000541951,-0.00923248,1.48463,0.00634336,0.0408956,685,1072,-32.9465,-1.24332
-532,-48,-33.0394,1.33093,-0.0115275,0.00107797,0.00036004,0.00108825,-0.0115378,1.54227,0.00807908,0.0404957,692,1072,-33.0394,-1.33089
-525,-48,0,0,0,0,0,0,0,0,0,-1,699,1072,0,0
-518,-48,0,0,0,0,0,0,0,0,0,-1,706,1072,0,0
-511,-48,0,0,0,0,0,0,0,0,0,-1,713,1072,0,0
-504,-48,0,0,0,0,0,0,0,0,0,-1,720,1072,0,0
-497,-48,0,0,0,0,0,0,0,0,0,-1,727,1072,0,0
-490,-48,0,0,0,0,0,0,0,0,0,-1,734,1072,0,0
-483,-48,0,0,0,0,0,0,0,0,0,-1,741,1072,0,0
-476,-48,0,0,0,0,0,0,0,0,0,-1,748,1072,0,0
-469,-48,0,0,0,0,0,0,0,0,0,-1,755,1072,0,0
-462,-48,0,0,0,0,0,0,0,0,0,-1,762,1072,0,0
-455,-48,0,0,0,0,0,0,0,0,0,-1,769,1072,0,0
-448,-48,0,0,0,0,0,0,0,0,0,-1,776,1072,0,0
-441,-48,0,0,0,0,0,0,0,0,0,-1,783,1072,0,0
-434,-48,0,0,0,0,0,0,0,0,0,-1,790,1072,0,0
-427,-48,0,0,0,0,0,0,0,0,0,-1,797,1072,0,0
-420,-48,0,0,0,0,0,0,0,0,0,-1,804,1072,0,0
-413,-48,0,0,0,0,0,0,0,0,0,-1,811,1072,0,0
-406,-48,0,0,0,0,0,0,0,0,0,-1,818,1072,0,0
-399,-48,0,0,0,0,0,0,0,0,0,-1,825,1072,0,0
-392,-48,0,0,0,0,0,0,0,0,0,-1,832,1072,0,0
-385,-48,0,0,0,0,0,0,0,0,0,-1,839,1072,0,0
-378,-48,0,0,0,0,0,0,0,0,0,-1,846,1072,0,0
-371,-48,0,0,0,0,0,0,0,0,0,-1,853,1072,0,0
-364,-48,0,0,0,0,0,0,0,0,0,-1,860,1072,0,0
-357,-48,0,0,0,0,0,0,0,0,0,-1,867,1072,0,0
-350,-48,0,0,0,0,0,0,0,0,0,-1,874,1072,0,0
-343,-48,0,0,0,0,0,0,0,0,0,-1,881,1072,0,0
-336,-48,0,0,0,0,0,0,0,0,0,-1,888,1072,0,0
-329,-48,0,0,0,0,0,0,0,0,0,-1,895,1072,0,0
-322,-48,0,0,0,0,0,0,0,0,0,-1,902,1072,0,0
-315,-48,0,0,0,0,0,0,0,0,0,-1,909,1072,0,0
-308,-48,0,0,0,0,0,0,0,0,0,-1,916,1072,0,0
-301,-48,0,0,0,0,0,0,0,0,0,-1,923,1072,0,0
-294,-48,0,0,0,0,0,0,0,0,0,-1,930,1072,0,0
-287,-48,0,0,0,0,0,0,0,0,0,-1,937,1072,0,0
-280,-48,0,0,0,0,0,0,0,0,0,-1,944,1072,0,0
-273,-48,0,0,0,0,0,0,0,0,0,-1,951,1072,0,0
-266,-48,0,0,0,0,0,0,0,0,0,-1,958,1072,0,0
-259,-48,0,0,0,0,0,0,0,0,0,-1,965,1072,0,0
-252,-48,0,0,0,0,0,0,0,0,0,-1,972,1072,0,0
-245,-48,0,0,0,0,0,0,0,0,0,-1,979,1072,0,0
-238,-48,0,0,0,0,0,0,0,0,0,-1,986,1072,0,0
-231,-48,0,0,0,0,0,0,0,0,0,-1,993,1072,0,0
-224,-48,0,0,0,0,0,0,0,0,0,-1,1000,1072,0,0
-217,-48,0,0,0,0,0,0,0,0,0,-1,1007,1072,0,0
-210,-48,0,0,0,0,0,0,0,0,0,-1,1014,1072,0,0
-203,-48,0,0,0,0,0,0,0,0,0,-1,1021,1072,0,0
-196,-48,0,0,0,0,0,0,0,0,0,-1,1028,1072,0,0
-189,-48,0,0,0,0,0,0,0,0,0,-1,1035,1072,0,0
-182,-48,0,0,0,0,0,0,0,0,0,-1,1042,1072,0,0
-175,-48,0,0,0,0,0,0,0,0,0,-1,1049,1072,0,0
-168,-48,0,0,0,0,0,0,0,0,0,-1,1056,1072,0,0
-161,-48,0,0,0,0,0,0,0,0,0,-1,1063,1072,0,0
-154,-48,0,0,0,0,0,0,0,0,0,-1,1070,1072,0,0
-147,-48,0,0,0,0,0,0,0,0,0,-1,1077,1072,0,0
-140,-48,0,0,0,0,0,0,0,0,0,-1,1084,1072,0,0
-133,-48,0,0,0,0,0,0,0,0,0,-1,1091,1072,0,0
-126,-48,0,0,0,0,0,0,0,0,0,-1,1098,1072,0,0
-119,-48,0,0,0,0,0,0,0,0,0,-1,1105,1072,0,0
-112,-48,0,0,0,0,0,0,0,0,0,-1,1112,1072,0,0
-105,-48,0,0,0,0,0,0,0,0,0,-1,1119,1072,0,0
-98,-48,0,0,0,0,0,0,0,0,0,-1,1126,1072,0,0
-91,-48,0,0,0,0,0,0,0,0,0,-1,1133,1072,0,0
-84,-48,0,0,0,0,0,0,0,0,0,-1,1140,1072,0,0
-77,-48,0,0,0,0,0,0,0,0,0,-1,1147,1072,0,0
-70,-48,0,0,0,0,0,0,0,0,0,-1,1154,1072,0,0
-63,-48,0,0,0,0,0,0,0,0,0,-1,1161,1072,0,0
-56,-48,0,0,0,0,0,0,0,0,0,-1,1168,1072,0,0
-49,-48,0,0,0,0,0,0,0,0,0,-1,1175,1072,0,0
-42,-48,0,0,0,0,0,0,0,0,0,-1,1182,1072,0,0
-35,-48,0,0,0,0,0,0,0,0,0,-1,1189,1072,0,0
-28,-48,0,0,0,0,0,0,0,0,0,-1,1196,1072,0,0
-21,-48,0,0,0,0,0,0,0,0,0,-1,1203,1072,0,0
-14,-48,0,0,0,0,0,0,0,0,0,-1,1210,1072,0,0
-7,-48,0,0,0,0,0,0,0,0,0,-1,1217,1072,0,0
0,-48,0,0,0,0,0,0,0,0,0,-1,1224,1072,0,0
7,-48,0,0,0,0,0,0,0,0,0,-1,1231,1072,0,0
14,-48,0,0,0,0,0,0,0,0,0,-1,1238,1072,0,0
21,-48,0,0,0,0,0,0,0,0,0,-1,1245,1072,0,0
28,-48,0,0,0,0,0,0,0,0,0,-1,1252,1072,0,0
35,-48,0,0,0,0,0,0,0,0,0,-1,1259,1072,0,0
42,-48,0,0,0,0,0,0,0,0,0,-1,1266,1072,0,0
49,-48,0,0,0,0,0,0,0,0,0,-1,1273,1072,0,0
56,-48,0,0,0,0,0,0,0,0,0,-1,1280,1072,0,0
63,-48,0,0,0,0,0,0,0,0,0,-1,1287,1072,0,0
70,-48,0,0,0,0,0,0,0,0,0,-1,1294,1072,0,0
77,-48,0,0,0,0,0,0,0,0,0,-1,1301,1072,0,0
84,-48,0,0,0,0,0,0,0,0,0,-1,1308,1072,0,0
91,-48,0,0,0,0,0,0,0,0,0,-1,1315,1072,0,0
98,-48,0,0,0,0,0,0,0,0,0,-1,1322,1072,0,0
105,-48,0,0,0,0,0,0,0,0,0,-1,1329,1072,0,0
112,-48,0,0,0,0,0,0,0,0,0,-1,1336,1072,0,0
119,-48,0,0,0,0,0,0,0,0,0,-1,1343,1072,0,0
126,-48,0,0,0,0,0,0,0,0,0,-1,1350,1072,0,0
133,-48,0,0,0,0,0,0,0,0,0,-1,1357,1072,0,0
140,-48,0,0,0,0,0,0,0,0,0,-1,1364,1072,0,0
147,-48,0,0,0,0,0,0,0,0,0,-1,1371,1072,0,0
154,-48,0,0,0,0,0,0,0,0,0,-1,1378,1072,0,0
161,-48,0,0,0,0,0,0,0,0,0,-1,1385,1072,0,0
168,-48,0,0,0,0,0,0,0,0,0,-1,1392,1072,0,0
175,-48,0,0,0,0,0,0,0,0,0,-1,1399,1072,0,0
182,-48,0,0,0,0,0,0,0,0,0,-1,1406,1072,0,0
189,-48,0,0,0,0,0,0,0,0,0,-1,1413,1072,0,0
196,-48,0,0,0,0,0,0,0,0,0,-1,1420,1072,0,0
203,-48,0,0,0,0,0,0,0,0,0,-1,1427,1072,0,0
210,-48,0,0,0,0,0,0,0,0,0,-1,1434,1072,0,0
217,-48,0,0,0,0,0,0,0,0,0,-1,1441,1072,0,0
224,-48,0,0,0,0,0,0,0,0,0,-1,1448,1072,0,0
231,-48,0,0,0,0,0,0,0,0,0,-1,1455,1072,0,0
238,-48,0,0,0,0,0,0,0,0,0,-1,1462,1072,0,0
245,-48,0,0,0,0,0,0,0,0,0,-1,1469,1072,0,0
252,-48,0,0,0,0,0,0,0,0,0,-1,1476,1072,0,0
259,-48,0,0,0,0,0,0,0,0,0,-1,1483,1072,0,0
266,-48,0,0,0,0,0,0,0,0,0,-1,1490,1072,0,0
273,-48,0,0,0,0,0,0,0,0,0,-1,1497,1072,0,0
280,-48,0,0,0,0,0,0,0,0,0,-1,1504,1072,0,0
287,-48,0,0,0,0,0,0,0,0,0,-1,1511,1072,0,0
294,-48,0,0,0,0,0,0,0,0,0,-1,1518,1072,0,0
301,-48,0,0,0,0,0,0,0,0,0,-1,1525,1072,0,0
308,-48,0,0,0,0,0,0,0,0,0,-1,1532,1072,0,0
315,-48,0,0,0,0,0,0,0,0,0,-1,1539,1072,0,0
322,-48,0,0,0,0,0,0,0,0,0,-1,1546,1072,0,0
329,-48,0,0,0,0,0,0,0,0,0,-1,1553,1072,0,0
336,-48,0,0,0,0,0,0,0,0,0,-1,1560,1072,0,0
343,-48,0,0,0,0,0,0,0,0,0,-1,1567,1072,0,0
350,-48,0,0,0,0,0,0,0,0,0,-1,1574,1072,0,0
357,-48,0,0,0,0,0,0,0,0,0,-1,1581,1072,0,0
364,-48,0,0,0,0,0,0,0,0,0,-1,1588,1072,0,0
371,-48,0,0,0,0,0,0,0,0,0,-1,1595,1072,0,0
378,-48,0,0,0,0,0,0,0,0,0,-1,1602,1072,0,0
385,-48,0,0,0,0,0,0,0,0,0,-1,1609,1072,0,0
392,-48,0,0,0,0,0,0,0,0,0,-1,1616,1072,0,0
399,-48,0,0,0,0,0,0,0,0,0,-1,1623,1072,0,0
406,-48,0,0,0,0,0,0,0,0,0,-1,1630,1072,0,0
413,-48,0,0,0,0,0,0,0,0,0,-1,1637,1072,0,0
420,-48,0,0,0,0,0,0,0,0,0,-1,1644,1072,0,0
427,-48,0,0,0,0,0,0,0,0,0,-1,1651,1072,0,0
434,-48,0,0,0,0,0,0,0,0,0,-1,1658,1072,0,0
441,-48,0,0,0,0,0,0,0,0,0,-1,1665,1072,0,0
448,-48,0,0,0,0,0,0,0,0,0,-1,1672,1072,0,0
455,-48,0,0,0,0,0,0,0,0,0,-1,1679,1072,0,0
462,-48,0,0,0,0,0,0,0,0,0,-1,1686,1072,0,0
469,-48,0,0,0,0,0,0,0,0,0,-1,1693,1072,0,0
476,-48,0,0,0,0,0,0,0,0,0,-1,1700,1072,0,0
483,-48,0,0,0,0,0,0,0,0,0,-1,1707,1072,0,0
490,-48,0,0,0,0,0,0,0,0,0,-1,1714,1072,0,0
497,-48,0,0,0,0,0,0,0,0,0,-1,1721,1072,0,0
504,-48,0,0,0,0,0,0,0,0,0,-1,1728,1072,0,0
511,-48,0,0,0,0,0,0,0,0,0,-1,1735,1072,0,0
518,-48,0,0,0,0,0,0,0,0,0,-1,1742,1072,0,0
525,-48,0,0,0,0,0,0,0,0,0,-1,1749,1072,0,0
532,-48,0,0,0,0,0,0,0,0,0,-1,1756,1072,0,0
539,-48,0,0,0,0,0,0,0,0,0,-1,1763,1072,0,0
546,-48,0,0,0,0,0,0,0,0,0,-1,1770,1072,0,0
553,-48,0,0,0,0,0,0,0,0,0,-1,1777,1072,0,0
560,-48,0,0,0,0,0,0,0,0,0,-1,1784,1072,0,0
567,-48,0,0,0,0,0,0,0,0,0,-1,1791,1072,0,0
574,-48,0,0,0,0,0,0,0,0,0,-1,1798,1072,0,0
581,-48,0,0,0,0,0,0,0,0,0,-1,1805,1072,0,0
588,-48,0,0,0,0,0,0,0,0,0,-1,1812,1072,0,0
595,-48,0,0,0,0,0,0,0,0,0,-1,1819,1072,0,0
602,-48,0,0,0,0,0,0,0,0,0,-1,1826,1072,0,0
609,-48,0,0,0,0,0,0,0,0,0,-1,1833,1072,0,0
616,-48,0,0,0,0,0,0,0,0,0,-1,1840,1072,0,0
623,-48,0,0,0,0,0,0,0,0,0,-1,1847,1072,0,0
630,-48,0,0,0,0,0,0,0,0,0,-1,1854,1072,0,0
637,-48,0,0,0,0,0,0,0,0,0,-1,1861,1072,0,0
644,-48,0,0,0,0,0,0,0,0,0,-1,1868,1072,0,0
651,-48,44.5242,2.70129,0.00151523,-0.00130178,0.00550201,0.00578616,-0.00557271,0.66009,0.00655843,0.0332596,1875,1072,44.5242,-2.70131
658,-48,44.6089,2.61426,0.00123082,-0.000806803,0.00389205,0.00423519,-0.00381117,0.657387,0.00464772,0.0368835,1882,1072,44.6088,-2.61428
665,-48,44.6028,2.54956,0.000823784,-0.000459836,0.00279719,0.00305185,-0.0026879,0.672626,0.00331607,0.0413738,1889,1072,44.6027,-2.54953
672,-48,44.6761,2.49255,0.000468991,-0.000133654,0.0021907,0.00237899,-0.00204365,0.717054,0.00255586,0.0410065,1896,1072,44.6762,-2.49257
679,-48,44.6199,2.62122,2.31352e-05,0.000132162,0.00180042,0.00187889,-0.0017236,0.800533,0.00208054,0.0389392,1903,1072,44.6199,-2.62126
686,-48,44.5566,2.82129,-0.000449178,8.87042e-05,0.00168712,0.00152819,-0.00188866,0.864437,0.00197637,0.0415214,1910,1072,44.5567,-2.82131
693,-48,44.526,2.73914,-0.000731545,-9.26145e-05,0.00173165,0.00134879,-0.00217295,0.876616,0.00205175,0.0420691,1917,1072,44.526,-2.73912
700,-48,44.5742,2.72607,-0.000858089,-0.000226028,0.00186244,0.00134701,-0.00243113,0.869441,0.00221104,0.0362147,1924,1072,44.5743,-2.72605
707,-48,44.574,2.6665,-0.00103509,-0.000234429,0.00190742,0.00131422,-0.00258373,0.888837,0.00228992,0.0289056,1931,1072,44.574,-2.66653
714,-48,44.5453,2.89001,-0.00132791,-0.000125905,0.0020143,0.00137514,-0.00282895,0.930378,0.00247514,0.0362002,1938,1072,44.5453,-2.89004
721,-48,44.5497,3.26514,0,0,0,0,0,0,0,-1,1945,1072,44.5496,-3.26519
728,-48,43.7572,6.14685,0,0,0,0,0,0,0,-1,1952,1072,43.7572,-6.14685
735,-48,43.6348,6.00085,-0.00268969,0.00103234,0.00210319,0.00197966,-0.00363702,1.14759,0.00328952,0.0202252,1959,1072,43.6347,-6.00085
742,-48,43.5197,5.83276,-0.00287724,0.00169601,0.00190628,0.00238639,-0.00356762,1.22333,0.00346003,0.017033,1966,1072,43.5196,-5.83279
749,-48,43.5548,5.65186,-0.00334063,0.00282315,0.00175529,0.00328796,-0.00380544,1.31193,0.00409901,0.0149152,1973,1072,43.5548,-5.65181
756,-48,43.546,5.47986,-0.0042008,0.00414274,0.00086509,0.00423149,-0.00428955,1.46856,0.00491967,0.0126851,1980,1072,43.546,-5.47986
763,-48,43.4917,5.31531,-0.00544442,0.00539478,-0.000679679,0.00543724,-0.00548688,-1.50842,0.00630706,0.0121952,1987,1072,43.4917,-5.31529
770,-48,43.4667,5.13745,-0.00695882,0.00718162,-0.00281223,0.00772039,-0.00749758,-1.38151,0.00878641,0.0133728,1994,1072,43.4666,-5.13744
777,-48,43.3798,4.94434,-0.00879092,0.00888696,-0.00566416,0.0105461,-0.0104501,-1.28585,0.0121222,0.0118047,2001,1072,43.3798,-4.94436
784,-48,43.2742,4.72009,-0.0110153,0.0100558,-0.00922316,0.0135226,-0.014482,-1.21126,0.0161716,0.0224089,2008,1072,43.2741,-4.72015
791,-48,43.2261,4.32874,-0.0138714,0.0102997,-0.0138717,0.0166121,-0.0201838,-1.14375,0.0212775,0.0403665,2015,1072,43.2261,-4.32869
798,-48,43.177,3.97449,0,0,0,0,0,0,0,-1,2022,1072,43.1771,-3.97444
805,-48,42.1033,4.4071,-0.0214236,0.00600065,-0.0275799,0.023089,-0.038512,-1.01609,0.035935,0.0431686,2029,1072,42.1034,-4.40715
812,-48,41.915,3.46826,-0.0267712,-7.17292e-05,-0.0371549,0.0260589,-0.0529019,-0.957866,0.0464578,0.0447034,2036,1072,41.915,-3.46824
-700,-55,-31.0903,4.44055,0.00291593,-0.00438569,-0.0317737,0.0312479,-0.0327177,-0.728199,0.0369338,0.0449102,524,1079,-31.0903,-4.44052
-693,-55,-30.9162,4.16577,-0.000608449,0.0142588,-0.0269449,0.0347767,-0.0211264,-0.919991,0.0325948,0.0457022,531,1079,-30.9162,-4.16579
-686,-55,-29.4872,1.60596,0,0,0,0,0,0,0,-1,538,1079,-29.4872,-1.60599
-679,-55,-29.4201,1.7605,0,0,0,0,0,0,0,-1,545,1079,-29.4201,-1.76051
-672,-55,-33.3237,-0.977783,0,0,0,0,0,0,0,-1,552,1079,-33.3237,0.977812
-665,-55,-30.5751,2.07861,0,0,0,0,0,0,0,-1,559,1079,-30.5751,-2.07862
-658,-55,-31.593,1.11133,0,0,0,0,0,0,0,-1,566,1079,-31.593,-1.1113
-651,-55,-31.825,1.5863,0,0,0,0,0,0,0,-1,573,1079,-31.825,-1.58635
-644,-55,-31.819,2.04639,-0.00401805,0.0198919,-0.00297137,0.0202557,-0.00438177,-1.44899,0.0151767,0.0223766,580,1079,-31.819,-2.04634
-637,-55,-31.8091,2.23767,-0.00352364,0.0152651,-0.00183448,0.0154425,-0.00370108,-1.47437,0.011725,0.0177654,587,1079,-31.8091,-2.2377
-630,-55,-31.8004,2.51233,-0.00237511,0.00977465,-0.00145863,0.00994731,-0.00254777,-1.45297,0.00762404,0.0207353,594,1079,-31.8004,-2.51236
-623,-55,-31.9208,2.79724,-0.00111615,0.00545903,-0.00160952,0.00583188,-0.001489,-1.34316,0.00446774,0.0184185,601,1079,-31.9208,-2.79721
-616,-55,-31.9523,3.02405,-0.000643594,0.0024546,-0.00219135,0.0035891,-0.00177809,-1.09307,0.00315701,0.0165754,608,1079,-31.9523,-3.0241
-609,-55,-31.9147,3.33459,-0.000520188,0.000333993,-0.00271898,0.00265922,-0.00284541,-0.863301,0.0031787,0.0166136,615,1079,-31.9147,-3.33454
-602,-55,-31.8834,3.55798,6.82608e-05,-0.000684305,-0.00254458,0.00226423,-0.00288028,-0.711992,0.00297727,0.0138327,622,1079,-31.8833,-3.55803
-595,-55,-31.796,3.77759,0.000199075,-0.00140634,-0.00234281,0.00187288,-0.00308014,-0.620354,0.00288781,0.0284508,629,1079,-31.796,-3.77758
-588,-55,-31.8046,4.04626,0,0,0,0,0,0,0,-1,636,1079,-31.8046,-4.04622
-581,-55,-32.7868,1.02405,0,0,0,0,0,0,0,-1,643,1079,-32.7868,-1.02409
-574,-55,-32.6867,1.12354,-0.00121921,-0.00189422,-0.00149672,-2.2418e-05,-0.00309101,-0.674505,0.00205324,0.0388542,650,1079,-32.6867,-1.12354
-567,-55,-32.6166,1.01685,-0.00201991,-0.00168147,-0.00100276,-0.000833752,-0.00286763,-0.868988,0.00170327,0.038942,657,1079,-32.6166,-1.01687
-560,-55,-32.9506,1.073,-0.00315014,-0.00123501,-0.00038519,-0.00116044,-0.00322471,-1.37957,0.001886,0.0419038,664,1079,-32.9506,-1.07297
-553,-55,-32.79,0.845215,-0.00463993,-0.000609084,0.000331517,-0.000582,-0.00466701,1.48928,0.00293663,0.0428041,671,1079,-32.79,-0.845212
-546,-55,-32.8237,1.21118,-0.0065177,0.000116376,0.00105909,0.000281351,-0.00668268,1.41627,0.0045518,0.0399978,678,1079,-32.8237,-1.21122
-539,-55,-32.8803,1.31201,-0.00878284,0.000619314,0.00127479,0.000789091,-0.00895261,1.43839,0.00624807,0.0405504,685,1079,-32.8803,-1.31198
-532,-55,-33.0673,1.31116,-0.0111461,0.00131052,0.00121089,0.00142714,-0.0112627,1.47479,0.0080266,0.0406575,692,1079,-33.0673,-1.31111
-525,-55,0,0,0,0,0,0,0,0,0,-1,699,1079,0,0
-518,-55,0,0,0,0,0,0,0,0,0,-1,706,1079,0,0
-511,-55,0,0,0,0,0,0,0,0,0,-1,713,1079,0,0
-504,-55,0,0,0,0,0,0,0,0,0,-1,720,1079,0,0
-497,-55,0,0,0,0,0,0,0,0,0,-1,727,1079,0,0
-490,-55,0,0,0,0,0,0,0,0,0,-1,734,1079,0,0
-483,-55,0,0,0,0,0,0,0,0,0,-1,741,1079,0,0
-476,-55,0,0,0,0,0,0,0,0,0,-1,748,1079,0,0
-469,-55,0,0,0,0,0,0,0,0,0,-1,755,1079,0,0
-462,-55,0,0,0,0,0,0,0,0,0,-1,762,1079,0,0
-455,-55,0,0,0,0,0,0,0,0,0,-1,769,1079,0,0
-448,-55,0,0,0,0,0,0,0,0,0,-1,776,1079,0,0
-441,-55,0,0,0,0,0,0,0,0,0,-1,783,1079,0,0
-434,-55,0,0,0,0,0,0,0,0,0,-1,790,1079,0,0
-427,-55,0,0,0,0,0,0,0,0,0,-1,797,1079,0,0
-420,-55,0,0,0,0,0,0,0,0,0,-1,804,1079,0,0
-413,-55,0,0,0,0,0,0,0,0,0,-1,811,1079,0,0
-406,-55,0,0,0,0,0,0,0,0,0,-1,818,1079,0,0
-399,-55,0,0,0,0,0,0,0,0,0,-1,825,1079,0,0
-392,-55,0,0,0,0,0,0,0,0,0,-1,832,1079,0,0
-385,-55,0,0,0,0,0,0,0,0,0,-1,839,1079,0,0
-378,-55,0,0,0,0,0,0,0,0,0,-1,846,1079,0,0
-371,-55,0,0,0,0,0,0,0,0,0,-1,853,1079,0,0
-364,-55,0,0,0,0,0,0,0,0,0,-1,860,1079,0,0
-357,-55,0,0,0,0,0,0,0,0,0,-1,867,1079,0,0
-350,-55,0,0,0,0,0,0,0,0,0,-1,874,1079,0,0
-343,-55,0,0,0,0,0,0,0,0,0,-1,881,1079,0,0
-336,-55,0,0,0,0,0,0,0,0,0,-1,888,1079,0,0
-329,-55,0,0,0,0,0,0,0,0,0,-1,895,1079,0,0
-322,-55,0,0,0,0,0,0,0,0,0,-1,902,1079,0,0
-315,-55,0,0,0,0,0,0,0,0,0,-1,909,1079,0,0
-308,-55,0,0,0,0,0,0,0,0,0,-1,916,1079,0,0
-301,-55,0,0,0,0,0,0,0,0,0,-1,923,1079,0,0
-294,-55,0,0,0,0,0,0,0,0,0,-1,930,1079,0,0
-287,-55,0,0,0,0,0,0,0,0,0,-1,937,1079,0,0
-280,-55,0,0,0,0,0,0,0,0,0,-1,944,1079,0,0
-273,-55,0,0,0,0,0,0,0,0,0,-1,951,1079,0,0
-266,-55,0,0,0,0,0,0,0,0,0,-1,958,1079,0,0
-259,-55,0,0,0,0,0,0,0,0,0,-1,965,1079,0,0
-252,-55,0,0,0,0,0,0,0,0,0,-1,972,1079,0,0
-245,-55,0,0,0,0,0,0,0,0,0,-1,979,1079,0,0
-238,-55,0,0,0,0,0,0,0,0,0,-1,986,1079,0,0
-231,-55,0,0,0,0,0,0,0,0,0,-1,993,1079,0,0
-224,-55,0,0,0,0,0,0,0,0,0,-1,1000,1079,0,0
-217,-55,0,0,0,0,0,0,0,0,0,-1,1007,1079,0,0
-210,-55,0,0,0,0,0,0,0,0,0,-1,1014,1079,0,0
-203,-55,0,0,0,0,0,0,0,0,0,-1,1021,1079,0,0
-196,-55,0,0,0,0,0,0,0,0,0,-1,1028,1079,0,0
-189,-55,0,0,0,0,0,0,0,0,0,-1,1035,1079,0,0
-182,-55,0,0,0,0,0,0,0,0,0,-1,1042,1079,0,0
-175,-55,0,0,0,0,0,0,0,0,0,-1,1049,1079,0,0
-168,-55,0,0,0,0,0,0,0,0,0,-1,1056,1079,0,0
-161,-55,0,0,0,0,0,0,0,0,0,-1,1063,1079,0,0
-154,-55,0,0,0,0,0,0,0,0,0,-1,1070,1079,0,0
-147,-55,0,0,0,0,0,0,0,0,0,-1,1077,1079,0,0
-140,-55,0,0,0,0,0,0,0,0,0,-1,1084,1079,0,0
-133,-55,0,0,0,0,0,0,0,0,0,-1,1091,1079,0,0
-126,-55,0,0,0,0,0,0,0,0,0,-1,1098,1079,0,0
-119,-55,0,0,0,0,0,0,0,0,0,-1,1105,1079,0,0
-112,-55,0,0,0,0,0,0,0,0,0,-1,1112,1079,0,0
-105,-55,0,0,0,0,0,0,0,0,0,-1,1119,1079,0,0
-98,-55,0,0,0,0,0,0,0,0,0,-1,1126,1079,0,0
-91,-55,0,0,0,0,0,0,0,0,0,-1,1133,1079,0,0
-84,-55,0,0,0,0,0,0,0,0,0,-1,1140,1079,0,0
-77,-55,0,0,0,0,0,0,0,0,0,-1,1147,1079,0,0
-70,-55,0,0,0,0,0,0,0,0,0,-1,1154,1079,0,0
-63,-55,0,0,0,0,0,0,0,0,0,-1,1161,1079,0,0
-56,-55,0,0,0,0,0,0,0,0,0,-1,1168,1079,0,0
-49,-55,0,0,0,0,0,0,0,0,0,-1,1175,1079,0,0
-42,-55,0,0,0,0,0,0,0,0,0,-1,1182,1079,0,0
-35,-55,0,0,0,0,0,0,0,0,0,-1,1189,1079,0,0
-28,-55,0,0,0,0,0,0,0,0,0,-1,1196,1079,0,0
-21,-55,0,0,0,0,0,0,0,0,0,-1,1203,1079,0,0
-14,-55,0,0,0,0,0,0,0,0,0,-1,1210,1079,0,0
-7,-55,0,0,0,0,0,0,0,0,0,-1,1217,1079,0,0
0,-55,0,0,0,0,0,0,0,0,0,-1,1224,1079,0,0
7,-55,0,0,0,0,0,0,0,0,0,-1,1231,1079,0,0
14,-55,0,0,0,0,0,0,0,0,0,-1,1238,1079,0,0
21,-55,0,0,0,0,0,0,0,0,0,-1,1245,1079,0,0
28,-55,0,0,0,0,0,0,0,0,0,-1,1252,1079,0,0
35,-55,0,0,0,0,0,0,0,0,0,-1,1259,1079,0,0
42,-55,0,0,0,0,0,0,0,0,0,-1,1266,1079,0,0
49,-55,0,0,0,0,0,0,0,0,0,-1,1273,1079,0,0
56,-55,0,0,0,0,0,0,0,0,0,-1,1280,1079,0,0
63,-55,0,0,0,0,0,0,0,0,0,-1,1287,1079,0,0
70,-55,0,0,0,0,0,0,0,0,0,-1,1294,1079,0,0
77,-55,0,0,0,0,0,0,0,0,0,-1,1301,1079,0,0
84,-55,0,0,0,0,0,0,0,0,0,-1,1308,1079,0,0
91,-55,0,0,0,0,0,0,0,0,0,-1,1315,1079,0,0
98,-55,0,0,0,0,0,0,0,0,0,-1,1322,1079,0,0
105,-55,0,0,0,0,0,0,0,0,0,-1,1329,1079,0,0
112,-55,0,0,0,0,0,0,0,0,0,-1,1336,1079,0,0
119,-55,0,0,0,0,0,0,0,0,0,-1,1343,1079,0,0
126,-55,0,0,0,0,0,0,0,0,0,-1,1350,1079,0,0
133,-55,0,0,0,0,0,0,0,0,0,-1,1357,1079,0,0
140,-55,0,0,0,0,0,0,0,0,0,-1,1364,1079,0,0
147,-55,0,0,0,0,0,0,0,0,0,-1,1371,1079,0,0
154,-55,0,0,0,0,0,0,0,0,0,-1,1378,1079,0,0
161,-55,0,0,0,0,0,0,0,0,0,-1,1385,1079,0,0
168,-55,0,0,0,0,0,0,0,0,0,-1,1392,1079,0,0
175,-55,0,0,0,0,0,0,0,0,0,-1,1399,1079,0,0
182,-55,0,0,0,0,0,0,0,0,0,-1,1406,1079,0,0
189,-55,0,0,0,0,0,0,0,0,0,-1,1413,1079,0,0
196,-55,0,0,0,0,0,0,0,0,0,-1,1420,1079,0,0
203,-55,0,0,0,0,0,0,0,0,0,-1,1427,1079,0,0
210,-55,0,0,0,0,0,0,0,0,0,-1,1434,1079,0,0
217,-55,0,0,0,0,0,0,0,0,0,-1,1441,1079,0,0
224,-55,0,0,0,0,0,0,0,0,0,-1,1448,1079,0,0
231,-55,0,0,0,0,0,0,0,0,0,-1,1455,1079,0,0
238,-55,0,0,0,0,0,0,0,0,0,-1,1462,1079,0,0
245,-55,0,0,0,0,0,0,0,0,0,-1,1469,1079,0,0
252,-55,0,0,0,0,0,0,0,0,0,-1,1476,1079,0,0
259,-55,0,0,0,0,0,0,0,0,0,-1,1483,1079,0,0
266,-55,0,0,0,0,0,0,0,0,0,-1,1490,1079,0,0
273,-55,0,0,0,0,0,0,0,0,0,-1,1497,1079,0,0
280,-55,0,0,0,0,0,0,0,0,0,-1,1504,1079,0,0
287,-55,0,0,0,0,0,0,0,0,0,-1,1511,1079,0,0
294,-55,0,0,0,0,0,0,0,0,0,-1,1518,1079,0,0
301,-55,0,0,0,0,0,0,0,0,0,-1,1525,1079,0,0
308,-55,0,0,0,0,0,0,0,0,0,-1,1532,1079,0,0
315,-55,0,0,0,0,0,0,0,0,0,-1,1539,1079,0,0
322,-55,0,0,0,0,0,0,0,0,0,-1,1546,1079,0,0
329,-55,0,0,0,0,0,0,0,0,0,-1,1553,1079,0,0
336,-55,0,0,0,0,0,0,0,0,0,-1,1560,1079,0,0
343,-55,0,0,0,0,0,0,0,0,0,-1,1567,1079,0,0
350,-55,0,0,0,0,0,0,0,0,0,-1,1574,1079,0,0
357,-55,0,0,0,0,0,0,0,0,0,-1,1581,1079,0,0
364,-55,0,0,0,0,0,0,0,0,0,-1,1588,1079,0,0
371,-55,0,0,0,0,0,0,0,0,0,-1,1595,1079,0,0
378,-55,0,0,0,0,0,0,0,0,0,-1,1602,1079,0,0
385,-55,0,0,0,0,0,0,0,0,0,-1,1609,1079,0,0
392,-55,0,0,0,0,0,0,0,0,0,-1,1616,1079,0,0
399,-55,0,0,0,0,0,0,0,0,0,-1,1623,1079,0,0
406,-55,0,0,0,0,0,0,0,0,0,-1,1630,1079,0,0
413,-55,0,0,0,0,0,0,0,0,0,-1,1637,1079,0,0
420,-55,0,0,0,0,0,0,0,0,0,-1,1644,1079,0,0
427,-55,0,0,0,0,0,0,0,0,0,-1,1651,1079,0,0
434,-55,0,0,0,0,0,0,0,0,0,-1,1658,1079,0,0
441,-55,0,0,0,0,0,0,0,0,0,-1,1665,1079,0,0
448,-55,0,0,0,0,0,0,0,0,0,-1,1672,1079,0,0
455,-55,0,0,0,0,0,0,0,0,0,-1,1679,1079,0,0
462,-55,0,0,0,0,0,0,0,0,0,-1,1686,1079,0,0
469,-55,0,0,0,0,0,0,0,0,0,-1,1693,1079,0,0
476,-55,0,0,0,0,0,0,0,0,0,-1,1700,1079,0,0
483,-55,0,0,0,0,0,0,0,0,0,-1,1707,1079,0,0
490,-55,0,0,0,0,0,0,0,0,0,-1,1714,1079,0,0
497,-55,0,0,0,0,0,0,0,0,0,-1,1721,1079,0,0
504,-55,0,0,0,0,0,0,0,0,0,-1,1728,1079,0,0
511,-55,0,0,0,0,0,0,0,0,0,-1,1735,1079,0,0
518,-55,0,0,0,0,0,0,0,0,0,-1,1742,1079,0,0
525,-55,0,0,0,0,0,0,0,0,0,-1,1749,1079,0,0
532,-55,0,0,0,0,0,0,0,0,0,-1,1756,1079,0,0
539,-55,0,0,0,0,0,0,0,0,0,-1,1763,1079,0,0
546,-55,0,0,0,0,0,0,0,0,0,-1,1770,1079,0,0
553,-55,0,0,0,0,0,0,0,0,0,-1,1777,1079,0,0
560,-55,0,0,0,0,0,0,0,0,0,-1,1784,1079,0,0
567,-55,0,0,0,0,0,0,0,0,0,-1,1791,1079,0,0
574,-55,0,0,0,0,0,0,0,0,0,-1,1798,1079,0,0
581,-55,0,0,0,0,0,0,0,0,0,-1,1805,1079,0,0
588,-55,0,0,0,0,0,0,0,0,0,-1,1812,1079,0,0
595,-55,0,0,0,0,0,0,0,0,0,-1,1819,1079,0,0
602,-55,0,0,0,0,0,0,0,0,0,-1,1826,1079,0,0
609,-55,0,0,0,0,0,0,0,0,0,-1,1833,1079,0,0
616,-55,0,0,0,0,0,0,0,0,0,-1,1840,1079,0,0
623,-55,0,0,0,0,0,0,0,0,0,-1,1847,1079,0,0
630,-55,0,0,0,0,0,0,0,0,0,-1,1854,1079,0,0
637,-55,0,0,0,0,0,0,0,0,0,-1,1861,1079,0,0
644,-55,0,0,0,0,0,0,0,0,0,-1,1868,1079,0,0
651,-55,44.5565,2.55981,0.00233728,-0.00096536,0.00548584,0.00641494,-0.00504303,0.639204,0.00663105,0.0353034,1875,1079,44.5566,-2.55976
658,-55,44.6649,2.72717,0.00186417,-0.000523434,0.0039266,0.00477443,-0.0034337,0.637823,0.00475999,0.033751,1882,1079,44.6649,-2.72714
665,-55,44.6078,2.74854,0.00130842,-0.000221593,0.00286879,0.00351245,-0.00242563,0.655098,0.00344744,0.0393543,1889,1079,44.6078,-2.74856
672,-55,44.7795,2.61755,0.000826512,6.75212e-05,0.00225464,0.00273337,-0.00183934,0.702021,0.00265682,0.0395444,1896,1079,44.7796,-2.61753
679,-55,44.7842,2.75696,0.000252519,0.000293569,0.00185191,0.00212507,-0.00157898,0.79094,0.00214627,0.0370981,1903,1079,44.7841,-2.75697
686,-55,44.6232,2.70105,-0.000309228,0.000226037,0.00172432,0.00170337,-0.00178656,0.862389,0.0020151,0.0386525,1910,1079,44.6232,-2.70106
693,-55,44.5956,2.82043,-0.000655443,4.24421e-05,0.00174371,0.00147178,-0.00208478,0.884151,0.00206353,0.0397154,1917,1079,44.5956,-2.8204
700,-55,44.624,2.72888,-0.000841811,-8.82339e-05,0.00184172,0.00141485,-0.00234489,0.886298,0.00219271,0.0340069,1924,1079,44.624,-2.72892
707,-55,44.5588,2.67419,-0.00105989,-0.00010794,0.00188174,0.00135709,-0.00252492,0.909272,0.00227483,0.0298814,1931,1079,44.5589,-2.67416
714,-55,44.5514,2.86902,-0.00135858,-4.15123e-05,0.0020031,0.00140852,-0.00280861,0.944211,0.00247909,0.0468743,1938,1079,44.5513,-2.86905
721,-55,44.6528,3.15662,0,0,0,0,0,0,0,-1,1945,1079,44.6528,-3.15661
728,-55,43.4734,6.23157,0,0,0,0,0,0,0,-1,1952,1079,43.4733,-6.23161
735,-55,43.363,6.03455,-0.00263126,0.000991424,0.00212677,0.00197367,-0.0036135,1.13813,0.00327174,0.0194976,1959,1079,43.3631,-6.03453
742,-55,43.3674,5.84839,-0.00268409,0.00162784,0.00201058,0.00241986,-0.00347611,1.19554,0.0034222,0.0190876,1966,1079,43.3674,-5.84844
749,-55,43.3961,5.65295,-0.00295112,0.00270125,0.00193745,0.00330158,-0.00355146,1.27032,0.00395748,0.0137732,1973,1079,43.3961,-5.65296
756,-55,43.3062,5.46472,-0.00346888,0.0039933,0.00116879,0.00417209,-0.00364767,1.41901,0.00451812,0.0109911,1980,1079,43.3061,-5.46469
763,-55,43.2699,5.29053,-0.00426963,0.00521897,-0.000177022,0.00522227,-0.00427293,-1.55215,0.00549118,0.0133457,1987,1079,43.2699,-5.29048
770,-55,43.2462,5.08789,-0.00516556,0.00700859,-0.00208133,0.00735459,-0.00551156,-1.40606,0.00745363,0.0147781,1994,1079,43.2462,-5.08793
777,-55,43.1932,4.86536,-0.00618899,0.00875515,-0.00461697,0.0100665,-0.00750033,-1.29406,0.0101782,0.0128842,2001,1079,43.1932,-4.86534
784,-55,43.1011,4.61072,-0.00753962,0.0100361,-0.00785522,0.0130351,-0.0105387,-1.20609,0.0136358,0.0283926,2008,1079,43.1011,-4.61073
791,-55,42.9968,4.25586,-0.00940465,0.0104958,-0.0121659,0.0162623,-0.0151712,-1.12817,0.0181517,0.0424176,2015,1079,42.9969,-4.25588
798,-55,42.9683,3.89722,0,0,0,0,0,0,0,-1,2022,1079,42.9683,-3.89719
805,-55,42.9504,3.60474,0,0,0,0,0,0,0,-1,2029,1079,42.9505,-3.6048
812,-55,42.896,3.32983,0,0,0,0,0,0,0,-1,2036,1079,42.8961,-3.32986
-700,-62,-30.7914,4.24536,0,0,0,0,0,0,0,-1,524,1086,-30.7914,-4.24533
-693,-62,-31.017,4.44897,0,0,0,0,0,0,0,-1,531,1086,-31.017,-4.44898
-686,-62,-28.5671,0.947266,0,0,0,0,0,0,0,-1,538,1086,-28.5671,-0.94732
-679,-62,-29.1313,1.07996,-0.00656228,0.0287123,-0.0156262,0.0346388,-0.0124888,-1.20829,0.0281931,0.0493656,545,1086,-29.1313,-1.07996
-672,-62,-29.7034,1.16663,-0.00658393,0.0301368,-0.0117261,0.0335618,-0.010009,-1.28661,0.0263523,0.0442911,552,1086,-29.7034,-1.16663
-665,-62,-30.2844,1.25964,0,0,0,0,0,0,0,-1,559,1086,-30.2844,-1.25963
-658,-62,-31.0658,1.21179,-0.00597874,0.0261903,-0.00557891,0.0271303,-0.00691879,-1.40386,0.0207807,0.0462018,566,1086,-31.0658,-1.21177
-651,-62,-31.5327,1.552,-0.00533136,0.0221806,-0.00355073,0.0226314,-0.00578223,-1.44449,0.0173394,0.0422774,573,1086,-31.5326,-1.55201
-644,-62,-31.5716,1.95154,-0.0051261,0.0189254,-0.00185475,0.0190676,-0.00526829,-1.49428,0.0147841,0.0156817,580,1086,-31.5716,-1.95151
-637,-62,-31.5927,2.24902,-0.00426564,0.0144721,-0.00107263,0.0145334,-0.00432684,-1.5138,0.0114081,0.0135915,587,1086,-31.5927,-2.24906
-630,-62,-31.6263,2.51526,-0.0027589,0.00913576,-0.00091857,0.00920628,-0.00282942,-1.49418,0.00726666,0.0154635,594,1086,-31.6263,-2.51526
-623,-62,-31.6696,2.82166,-0.00125269,0.00495677,-0.00109792,0.00514518,-0.0014411,-1.40084,0.00399802,0.0182235,601,1086,-31.6696,-2.82167
-616,-62,-31.6774,3.11267,-0.000561196,0.00214067,-0.00151114,0.00281669,-0.00123722,-1.15014,0.00239901,0.017875,608,1086,-31.6773,-3.11267
-609,-62,-31.6461,3.36963,-0.000286797,0.000210891,-0.00186995,0.00184848,-0.00192439,-0.851547,0.00217842,0.0159041,615,1086,-31.6461,-3.36961
-602,-62,-31.5743,3.59705,0.000318763,-0.00076979,-0.00171547,0.00157423,-0.00202526,-0.631784,0.0020836,0.016285,622,1086,-31.5743,-3.59705
-595,-62,-31.45,3.83008,0.000449651,-0.00146739,-0.00160266,0.00135856,-0.00237629,-0.515895,0.00218284,0.0311264,629,1086,-31.45,-3.83012
-588,-62,-31.4006,4.04944,0,0,0,0,0,0,0,-1,636,1086,-31.4006,-4.04939
-581,-62,-32.7998,1.1322,0,0,0,0,0,0,0,-1,643,1086,-32.7998,-1.13216
-574,-62,-32.7213,1.00439,-0.000911584,-0.00202613,-0.000937792,-0.000377981,-0.00255973,-0.517313,0.00159549,0.0324265,650,1086,-32.7213,-1.00442
-567,-62,-32.6808,0.653442,-0.00168048,-0.00187895,-0.000585599,-0.00118577,-0.00237367,-0.701465,0.00137044,0.0371876,657,1086,-32.6808,-0.653436
-560,-62,-32.6522,0.372925,-0.00279109,-0.00150957,-0.000151878,-0.00149182,-0.00280884,-1.45443,0.00162273,0.0440876,664,1086,-32.6521,-0.372869
-553,-62,-32.675,0.719116,-0.00431241,-0.000945723,0.000351744,-0.000909366,-0.00434877,1.4678,0.00264862,0.040481,671,1086,-32.6751,-0.719095
-546,-62,-32.7732,1.07263,-0.00625009,-0.000241788,0.000889629,-0.000112831,-0.00637904,1.42684,0.00421559,0.0328923,678,1086,-32.7732,-1.07259
-539,-62,-32.9307,1.18091,-0.00849021,0.000299549,0.00112492,0.000441233,-0.00863189,1.44551,0.00590717,0.0388163,685,1086,-32.9307,-1.18087
-532,-62,-32.8744,1.14441,-0.0109112,0.00090723,0.00141454,0.00107418,-0.0110782,1.45332,0.0077683,0.0412743,692,1086,-32.8744,-1.14439
-525,-62,0,0,0,0,0,0,0,0,0,-1,699,1086,0,0
-518,-62,0,0,0,0,0,0,0,0,0,-1,706,1086,0,0
-511,-62,0,0,0,0,0,0,0,0,0,-1,713,1086,0,0
-504,-62,0,0,0,0,0,0,0,0,0,-1,720,1086,0,0
-497,-62,0,0,0,0,0,0,0,0,0,-1,727,1086,0,0
-490,-62,0,0,0,0,0,0,0,0,0,-1,734,1086,0,0
-483,-62,0,0,0,0,0,0,0,0,0,-1,741,1086,0,0
-476,-62,0,0,0,0,0,0,0,0,0,-1,748,1086,0,0
-469,-62,0,0,0,0,0,0,0,0,0,-1,755,1086,0,0
-462,-62,0,0,0,0,0,0,0,0,0,-1,762,1086,0,0
-455,-62,0,0,0,0,0,0,0,0,0,-1,769,1086,0,0
-448,-62,0,0,0,0,0,0,0,0,0,-1,776,1086,0,0
-441,-62,0,0,0,0,0,0,0,0,0,-1,783,1086,0,0
-434,-62,0,0,0,0,0,0,0,0,0,-1,790,1086,0,0
-427,-62,0,0,0,0,0,0,0,0,0,-1,797,1086,0,0
-420,-62,0,0,0,0,0,0,0,0,0,-1,804,1086,0,0
-413,-62,0,0,0,0,0,0,0,0,0,-1,811,1086,0,0
-406,-62,0,0,0,0,0,0,0,0,0,-1,818,1086,0,0
-399,-62,0,0,0,0,0,0,0,0,0,-1,825,1086,0,0
-392,-62,0,0,0,0,0,0,0,0,0,-1,832,1086,0,0
-385,-62,0,0,0,0,0,0,0,0,0,-1,839,1086,0,0
-378,-62,0,0,0,0,0,0,0,0,0,-1,846,1086,0,0
-371,-62,0,0,0,0,0,0,0,0,0,-1,853,1086,0,0
-364,-62,0,0,0,0,0,0,0,0,0,-1,860,1086,0,0
-357,-62,0,0,0,0,0,0,0,0,0,-1,867,1086,0,0
-350,-62,0,0,0,0,0,0,0,0,0,-1,874,1086,0,0
-343,-62,0,0,0,0,0,0,0,0,0,-1,881,1086,0,0
-336,-62,0,0,0,0,0,0,0,0,0,-1,888,1086,0,0
-329,-62,0,0,0,0,0,0,0,0,0,-1,895,1086,0,0
-322,-62,0,0,0,0,0,0,0,0,0,-1,902,1086,0,0
-315,-62,0,0,0,0,0,0,0,0,0,-1,909,1086,0,0
-308,-62,0,0,0,0,0,0,0,0,0,-1,916,1086,0,0
-301,-62,0,0,0,0,0,0,0,0,0,-1,923,1086,0,0
-294,-62,0,0,0,0,0,0,0,0,0,-1,930,1086,0,0
-287,-62,0,0,0,0,0,0,0,0,0,-1,937,1086,0,0
-280,-62,0,0,0,0,0,0,0,0,0,-1,944,1086,0,0
-273,-62,0,0,0,0,0,0,0,0,0,-1,951,1086,0,0
-266,-62,0,0,0,0,0,0,0,0,0,-1,958,1086,0,0
-259,-62,0,0,0,0,0,0,0,0,0,-1,965,1086,0,0
-252,-62,0,0,0,0,0,0,0,0,0,-1,972,1086,0,0
-245,-62,0,0,0,0,0,0,0,0,0,-1,979,1086,0,0
-238,-62,0,0,0,0,0,0,0,0,0,-1,986,1086,0,0
-231,-62,0,0,0,0,0,0,0,0,0,-1,993,1086,0,0
-224,-62,0,0,0,0,0,0,0,0,0,-1,1000,1086,0,0
-217,-62,0,0,0,0,0,0,0,0,0,-1,1007,1086,0,0
-210,-62,0,0,0,0,0,0,0,0,0,-1,1014,1086,0,0
-203,-62,0,0,0,0,0,0,0,0,0,-1,1021,1086,0,0
-196,-62,0,0,0,0,0,0,0,0,0,-1,1028,1086,0,0
-189,-62,0,0,0,0,0,0,0,0,0,-1,1035,1086,0,0
-182,-62,0,0,0,0,0,0,0,0,0,-1,1042,1086,0,0
-175,-62,0,0,0,0,0,0,0,0,0,-1,1049,1086,0,0
-168,-62,0,0,0,0,0,0,0,0,0,-1,1056,1086,0,0
-161,-62,0,0,0,0,0,0,0,0,0,-1,1063,1086,0,0
-154,-62,0,0,0,0,0,0,0,0,0,-1,1070,1086,0,0
-147,-62,0,0,0,0,0,0,0,0,0,-1,1077,1086,0,0
-140,-62,0,0,0,0,0,0,0,0,0,-1,1084,1086,0,0
-133,-62,0,0,0,0,0,0,0,0,0,-1,1091,1086,0,0
-126,-62,0,0,0,0,0,0,0,0,0,-1,1098,1086,0,0
-119,-62,0,0,0,0,0,0,0,0,0,-1,1105,1086,0,0
-112,-62,0,0,0,0,0,0,0,0,0,-1,1112,1086,0,0
-105,-62,0,0,0,0,0,0,0,0,0,-1,1119,1086,0,0
-98,-62,0,0,0,0,0,0,0,0,0,-1,1126,1086,0,0
-91,-62,0,0,0,0,0,0,0,0,0,-1,1133,1086,0,0
-84,-62,0,0,0,0,0,0,0,0,0,-1,1140,1086,0,0
-77,-62,0,0,0,0,0,0,0,0,0,-1,1147,1086,0,0
-70,-62,0,0,0,0,0,0,0,0,0,-1,1154,1086,0,0
-63,-62,0,0,0,0,0,0,0,0,0,-1,1161,1086,0,0
-56,-62,0,0,0,0,0,0,0,0,0,-1,1168,1086,0,0
-49,-62,0,0,0,0,0,0,0,0,0,-1,1175,1086,0,0
-42,-62,0,0,0,0,0,0,0,0,0,-1,1182,1086,0,0
-35,-62,0,0,0,0,0,0,0,0,0,-1,1189,1086,0,0
-28,-62,0,0,0,0,0,0,0,0,0,-1,1196,1086,0,0
-21,-62,0,0,0,0,0,0,0,0,0,-1,1203,1086,0,0
-14,-62,0,0,0,0,0,0,0,0,0,-1,1210,1086,0,0
-7,-62,0,0,0,0,0,0,0,0,0,-1,1217,1086,0,0
0,-62,0,0,0,0,0,0,0,0,0,-1,1224,1086,0,0
7,-62,0,0,0,0,0,0,0,0,0,-1,1231,1086,0,0
14,-62,0,0,0,0,0,0,0,0,0,-1,1238,1086,0,0
21,-62,0,0,0,0,0,0,0,0,0,-1,1245,1086,0,0
28,-62,0,0,0,0,0,0,0,0,0,-1,1252,1086,0,0
35,-62,0,0,0,0,0,0,0,0,0,-1,1259,1086,0,0
42,-62,0,0,0,0,0,0,0,0,0,-1,1266,1086,0,0
49,-62,0,0,0,0,0,0,0,0,0,-1,1273,1086,0,0
56,-62,0,0,0,0,0,0,0,0,0,-1,1280,1086,0,0
63,-62,0,0,0,0,0,0,0,0,0,-1,1287,1086,0,0
70,-62,0,0,0,0,0,0,0,0,0,-1,1294,1086,0,0
77,-62,0,0,0,0,0,0,0,0,0,-1,1301,1086,0,0
84,-62,0,0,0,0,0,0,0,0,0,-1,1308,1086,0,0
91,-62,0,0,0,0,0,0,0,0,0,-1,1315,1086,0,0
98,-62,0,0,0,0,0,0,0,0,0,-1,1322,1086,0,0
105,-62,0,0,0,0,0,0,0,0,0,-1,1329,1086,0,0
112,-62,0,0,0,0,0,0,0,0,0,-1,1336,1086,0,0
119,-62,0,0,0,0,0,0,0,0,0,-1,1343,1086,0,0
126,-62,0,0,0,0,0,0,0,0,0,-1,1350,1086,0,0
133,-62,0,0,0,0,0,0,0,0,0,-1,1357,1086,0,0
140,-62,0,0,0,0,0,0,0,0,0,-1,1364,1086,0,0
147,-62,0,0,0,0,0,0,0,0,0,-1,1371,1086,0,0
154,-62,0,0,0,0,0,0,0,0,0,-1,1378,1086,0,0
161,-62,0,0,0,0,0,0,0,0,0,-1,1385,1086,0,0
168,-62,0,0,0,0,0,0,0,0,0,-1,1392,1086,0,0
175,-62,0,0,0,0,0,0,0,0,0,-1,1399,1086,0,0
182,-62,0,0,0,0,0,0,0,0,0,-1,1406,1086,0,0
189,-62,0,0,0,0,0,0,0,0,0,-1,1413,1086,0,0
196,-62,0,0,0,0,0,0,0,0,0,-1,1420,1086,0,0
203,-62,0,0,0,0,0,0,0,0,0,-1,1427,1086,0,0
210,-62,0,0,0,0,0,0,0,0,0,-1,1434,1086,0,0
217,-62,0,0,0,0,0,0,0,0,0,-1,1441,1086,0,0
224,-62,0,0,0,0,0,0,0,0,0,-1,1448,1086,0,0
231,-62,0,0,0,0,0,0,0,0,0,-1,1455,1086,0,0
238,-62,0,0,0,0,0,0,0,0,0,-1,1462,1086,0,0
245,-62,0,0,0,0,0,0,0,0,0,-1,1469,1086,0,0
252,-62,0,0,0,0,0,0,0,0,0,-1,1476,1086,0,0
259,-62,0,0,0,0,0,0,0,0,0,-1,1483,1086,0,0
266,-62,0,0,0,0,0,0,0,0,0,-1,1490,1086,0,0
273,-62,0,0,0,0,0,0,0,0,0,-1,1497,1086,0,0
280,-62,0,0,0,0,0,0,0,0,0,-1,1504,1086,0,0
287,-62,0,0,0,0,0,0,0,0,0,-1,1511,1086,0,0
294,-62,0,0,0,0,0,0,0,0,0,-1,1518,1086,0,0
301,-62,0,0,0,0,0,0,0,0,0,-1,1525,1086,0,0
308,-62,0,0,0,0,0,0,0,0,0,-1,1532,1086,0,0
315,-62,0,0,0,0,0,0,0,0,0,-1,1539,1086,0,0
322,-62,0,0,0,0,0,0,0,0,0,-1,1546,1086,0,0
329,-62,0,0,0,0,0,0,0,0,0,-1,1553,1086,0,0
336,-62,0,0,0,0,0,0,0,0,0,-1,1560,1086,0,0
343,-62,0,0,0,0,0,0,0,0,0,-1,1567,1086,0,0
350,-62,0,0,0,0,0,0,0,0,0,-1,1574,1086,0,0
357,-62,0,0,0,0,0,0,0,0,0,-1,1581,1086,0,0
364,-62,0,0,0,0,0,0,0,0,0,-1,1588,1086,0,0
371,-62,0,0,0,0,0,0,0,0,0,-1,1595,1086,0,0
378,-62,0,0,0,0,0,0,0,0,0,-1,1602,1086,0,0
385,-62,0,0,0,0,0,0,0,0,0,-1,1609,1086,0,0
392,-62,0,0,0,0,0,0,0,0,0,-1,1616,1086,0,0
399,-62,0,0,0,0,0,0,0,0,0,-1,1623,1086,0,0
406,-62,0,0,0,0,0,0,0,0,0,-1,1630,1086,0,0
413,-62,0,0,0,0,0,0,0,0,0,-1,1637,1086,0,0
420,-62,0,0,0,0,0,0,0,0,0,-1,1644,1086,0,0
427,-62,0,0,0,0,0,0,0,0,0,-1,1651,1086,0,0
434,-62,0,0,0,0,0,0,0,0,0,-1,1658,1086,0,0
441,-62,0,0,0,0,0,0,0,0,0,-1,1665,1086,0,0
448,-62,0,0,0,0,0,0,0,0,0,-1,1672,1086,0,0
455,-62,0,0,0,0,0,0,0,0,0,-1,1679,1086,0,0
462,-62,0,0,0,0,0,0,0,0,0,-1,1686,1086,0,0
469,-62,0,0,0,0,0,0,0,0,0,-1,1693,1086,0,0
476,-62,0,0,0,0,0,0,0,0,0,-1,1700,1086,0,0
483,-62,0,0,0,0,0,0,0,0,0,-1,1707,1086,0,0
490,-62,0,0,0,0,0,0,0,0,0,-1,1714,1086,0,0
497,-62,0,0,0,0,0,0,0,0,0,-1,1721,1086,0,0
504,-62,0,0,0,0,0,0,0,0,0,-1,1728,1086,0,0
511,-62,0,0,0,0,0,0,0,0,0,-1,1735,1086,0,0
518,-62,0,0,0,0,0,0,0,0,0,-1,1742,1086,0,0
525,-62,0,0,0,0,0,0,0,0,0,-1,1749,1086,0,0
532,-62,0,0,0,0,0,0,0,0,0,-1,1756,1086,0,0
539,-62,0,0,0,0,0,0,0,0,0,-1,1763,1086,0,0
546,-62,0,0,0,0,0,0,0,0,0,-1,1770,1086,0,0
553,-62,0,0,0,0,0,0,0,0,0,-1,1777,1086,0,0
560,-62,0,0,0,0,0,0,0,0,0,-1,1784,1086,0,0
567,-62,0,0,0,0,0,0,0,0,0,-1,1791,1086,0,0
574,-62,0,0,0,0,0,0,0,0,0,-1,1798,1086,0,0
581,-62,0,0,0,0,0,0,0,0,0,-1,1805,1086,0,0
588,-62,0,0,0,0,0,0,0,0,0,-1,1812,1086,0,0
595,-62,0,0,0,0,0,0,0,0,0,-1,1819,1086,0,0
602,-62,0,0,0,0,0,0,0,0,0,-1,1826,1086,0,0
609,-62,0,0,0,0,0,0,0,0,0,-1,1833,1086,0,0
616,-62,0,0,0,0,0,0,0,0,0,-1,1840,1086,0,0
623,-62,0,0,0,0,0,0,0,0,0,-1,1847,1086,0,0
630,-62,0,0,0,0,0,0,0,0,0,-1,1854,1086,0,0
637,-62,0,0,0,0,0,0,0,0,0,-1,1861,1086,0,0
644,-62,0,0,0,0,0,0,0,0,0,-1,1868,1086,0,0
651,-62,44.4603,2.36646,0.00321945,-0.000546153,0.0050711,0.00674599,-0.00407269,0.607645,0.00630941,0.0391324,1875,1086,44.4604,-2.36644
658,-62,44.5094,2.44702,0.00249755,-0.000256909,0.00367878,0.00504845,-0.00280781,0.606289,0.00459689,0.0385119,1882,1086,44.5094,-2.447
665,-62,44.549,2.57532,0.00178005,-7.37811e-05,0.00273875,0.00374449,-0.00203822,0.622226,0.00338675,0.0394625,1889,1086,44.549,-2.57537
672,-62,44.5942,2.74695,0.00117209,0.000123503,0.00217558,0.00288566,-0.00159006,0.667157,0.0026199,0.0379405,1896,1086,44.5943,-2.74692
679,-62,44.6735,2.83484,0.00048655,0.000263115,0.00181127,0.00218954,-0.00143988,0.754598,0.00211029,0.0396581,1903,1086,44.6735,-2.83483
686,-62,44.7026,2.82019,-0.000128466,0.000147036,0.00170369,0.00171854,-0.00169997,0.825738,0.00197369,0.0396603,1910,1086,44.7027,-2.82022
693,-62,44.6382,2.77417,-0.000499492,-4.82071e-05,0.00171525,0.00145618,-0.00200388,0.850798,0.00200599,0.037653,1917,1086,44.6381,-2.7742
700,-62,44.6259,2.70886,-0.000715428,-0.000174115,0.00179033,0.0013659,-0.00225544,0.860419,0.0021117,0.03323,1924,1086,44.6259,-2.70891
707,-62,44.4994,2.65747,-0.000972796,-0.000189127,0.00183298,0.00129344,-0.00245536,0.890698,0.00219875,0.028254,1931,1086,44.4993,-2.65745
714,-62,44.5613,2.78101,-0.00127585,-0.000145794,0.00196987,0.00133848,-0.00276013,0.925067,0.00241332,0.0408451,1938,1086,44.5613,-2.78097
721,-62,44.7472,3.14661,0,0,0,0,0,0,0,-1,1945,1086,44.7472,-3.14658
728,-62,43.2087,6.35693,0,0,0,0,0,0,0,-1,1952,1086,43.2087,-6.35695
735,-62,43.1716,6.05225,-0.00249994,0.00082906,0.00207749,0.00182661,-0.00349749,1.12314,0.00312393,0.0227091,1959,1086,43.1717,-6.0522
742,-62,43.1658,5.86646,-0.00252095,0.00143776,0.00201951,0.00228617,-0.00336937,1.17308,0.00328513,0.022704,1966,1086,43.1658,-5.86644
749,-62,43.1194,5.62976,-0.00251908,0.00246563,0.00200526,0.00317216,-0.00322561,1.23204,0.0036938,0.0168358,1973,1086,43.1194,-5.6297
756,-62,43.0375,5.49072,-0.00265756,0.00377045,0.00138762,0.00405721,-0.00294431,1.36701,0.00405932,0.0136144,1980,1086,43.0375,-5.49067
763,-62,43.0433,5.2666,-0.00300777,0.00504311,0.000260327,0.00505152,-0.00301618,1.53851,0.00470704,0.0146757,1987,1086,43.0434,-5.26663
770,-62,43.033,5.02905,-0.00315457,0.00689627,-0.00134086,0.00707208,-0.00333038,-1.44043,0.006134,0.0122784,1994,1086,43.033,-5.02904
777,-62,42.9347,4.74182,-0.00314668,0.0088267,-0.00342046,0.00973493,-0.00405492,-1.31126,0.00818361,0.0143444,2001,1086,42.9347,-4.74183
784,-62,42.8428,4.40991,-0.00329223,0.0104048,-0.00611918,0.0127403,-0.00562775,-1.20619,0.0108666,0.029139,2008,1086,42.8427,-4.40995
791,-62,42.8315,3.98633,-0.00368091,0.011344,-0.00975034,0.0161403,-0.00847725,-1.11364,0.0144407,0.0449021,2015,1086,42.8316,-3.98633
798,-62,42.8713,3.57104,0,0,0,0,0,0,0,-1,2022,1086,42.8713,-3.57099
805,-62,43.908,3.9751,0,0,0,0,0,0,0,-1,2029,1086,43.9079,-3.97508
812,-62,44.3672,4.07129,0,0,0,0,0,0,0,-1,2036,1086,44.3672,-4.0713
-700,-69,-30.9086,4.0498,0,0,0,0,0,0,0,-1,524,1093,-30.9086,-4.04974
-693,-69,-27.7201,-0.0854492,0,0,0,0,0,0,0,-1,531,1093,-27.7201,0.0854906
-686,-69,-28.2618,0.0518799,0,0,0,0,0,0,0,-1,538,1093,-28.2618,-0.0518601
-679,-69,-28.8848,0.210693,-0.00886656,0.027725,-0.0129526,0.0318458,-0.0129874,-1.26277,0.0266368,0.0498608,545,1093,-28.8848,-0.21065
-672,-69,-29.5155,0.302979,-0.00849481,0.0290378,-0.00915658,0.0311526,-0.0106095,-1.34383,0.0250649,0.0469775,552,1093,-29.5155,-0.303005
-665,-69,-30.448,1.15454,0,0,0,0,0,0,0,-1,559,1093,-30.448,-1.15457
-658,-69,-30.8314,1.39197,-0.00725843,0.02484,-0.00367907,0.0252563,-0.00767472,-1.45812,0.0198955,0.0470396,566,1093,-30.8314,-1.39195
-651,-69,-31.1957,1.65869,-0.00631364,0.0207774,-0.00207629,0.0209356,-0.00647185,-1.49475,0.0165419,0.0350155,573,1093,-31.1957,-1.65874
-644,-69,-31.2615,1.93823,-0.00581878,0.0174552,-0.000730954,0.0174781,-0.00584171,-1.53943,0.0140113,0.0107235,580,1093,-31.2615,-1.93826
-637,-69,-31.2976,2.24573,-0.00468579,0.013247,-0.000386898,0.0132554,-0.00469414,-1.54923,0.0107489,0.0125429,587,1093,-31.2976,-2.24574
-630,-69,-31.3081,2.51843,-0.00291807,0.00819235,-0.000539918,0.00821853,-0.00294425,-1.52235,0.00668032,0.0147612,594,1093,-31.3081,-2.51841
-623,-69,-31.285,2.81335,-0.00123553,0.00422973,-0.000823753,0.00435119,-0.00135699,-1.4244,0.00344343,0.0160668,601,1093,-31.285,-2.81339
-616,-69,-31.2955,3.07825,-0.000360188,0.00166148,-0.00115671,0.0021868,-0.000885505,-1.1445,0.00182606,0.0182548,608,1093,-31.2955,-3.07821
-609,-69,-31.3185,3.31433,9.21788e-05,-3.80372e-05,-0.00142488,0.00145344,-0.00139929,-0.762567,0.00164712,0.0157574,615,1093,-31.3185,-3.31427
-602,-69,-31.2831,3.62097,0.000721945,-0.000960577,-0.00131481,0.0014416,-0.00168023,-0.500801,0.00180414,0.0196549,622,1093,-31.2831,-3.62094
-595,-69,-31.1807,3.84045,0.000840984,-0.00157414,-0.00130303,0.00140996,-0.00214312,-0.411704,0.00206588,0.0311608,629,1093,-31.1807,-3.8405
-588,-69,-31.1606,4.04333,0,0,0,0,0,0,0,-1,636,1093,-31.1606,-4.04337
-581,-69,-32.7806,1.07446,0,0,0,0,0,0,0,-1,643,1093,-32.7806,-1.07452
-574,-69,-32.7734,0.989746,-0.000462797,-0.00219758,-0.000734486,-0.000193599,-0.00246678,-0.351309,0.00158394,0.0290927,650,1093,-32.7734,-0.989798
-567,-69,-32.8036,0.868286,-0.00121106,-0.00212669,-0.000464964,-0.00101636,-0.00232139,-0.396575,0.00134371,0.0358878,657,1093,-32.8036,-0.868293
-560,-69,-32.8518,0.922485,-0.0023268,-0.00185422,-0.000137007,-0.00181737,-0.00236364,-1.30807,0.00142891,0.0417305,664,1093,-32.8518,-0.922477
-553,-69,-32.6934,1.19531,-0.00395129,-0.00139486,0.000232372,-0.00137391,-0.00397224,1.48088,0.00232941,0.0403751,671,1093,-32.6934,-1.19529
-546,-69,-32.7183,0.952026,-0.00608575,-0.00077453,0.000648802,-0.000696423,-0.00616386,1.45099,0.00389789,0.0353927,678,1093,-32.7183,-0.951989
-539,-69,-32.9291,0.909546,-0.0085495,-0.000286562,0.000898388,-0.000190014,-0.00864605,1.46374,0.00570175,0.0392598,685,1093,-32.9291,-0.909554
-532,-69,-32.7916,0.959229,-0.0112164,0.000230304,0.0012828,0.000372302,-0.0113584,1.46055,0.00769936,0.0427045,692,1093,-32.7916,-0.959203
-525,-69,0,0,0,0,0,0,0,0,0,-1,699,1093,0,0
-518,-69,0,0,0,0,0,0,0,0,0,-1,706,1093,0,0
-511,-69,0,0,0,0,0,0,0,0,0,-1,713,1093,0,0
-504,-69,0,0,0,0,0,0,0,0,0,-1,720,1093,0,0
-497,-69,0,0,0,0,0,0,0,0,0,-1,727,1093,0,0
-490,-69,0,0,0,0,0,0,0,0,0,-1,734,1093,0,0
-483,-69,0,0,0,0,0,0,0,0,0,-1,741,1093,0,0
-476,-69,0,0,0,0,0,0,0,0,0,-1,748,1093,0,0
-469,-69,0,0,0,0,0,0,0,0,0,-1,755,1093,0,0
-462,-69,0,0,0,0,0,0,0,0,0,-1,762,1093,0,0
-455,-69,0,0,0,0,0,0,0,0,0,-1,769,1093,0,0
-448,-69,0,0,0,0,0,0,0,0,0,-1,776,1093,0,0
-441,-69,0,0,0,0,0,0,0,0,0,-1,783,1093,0,0
-434,-69,0,0,0,0,0,0,0,0,0,-1,790,1093,0,0
-427,-69,0,0,0,0,0,0,0,0,0,-1,797,1093,0,0
-420,-69,0,0,0,0,0,0,0,0,0,-1,804,1093,0,0
-413,-69,0,0,0,0,0,0,0,0,0,-1,811,1093,0,0
-406,-69,0,0,0,0,0,0,0,0,0,-1,818,1093,0,0
-399,-69,0,0,0,0,0,0,0,0,0,-1,825,1093,0,0
-392,-69,0,0,0,0,0,0,0,0,0,-1,832,1093,0,0
-385,-69,0,0,0,0,0,0,0,0,0,-1,839,1093,0,0
-378,-69,0,0,0,0,0,0,0,0,0,-1,846,1093,0,0
-371,-69,0,0,0,0,0,0,0,0,0,-1,853,1093,0,0
-364,-69,0,0,0,0,0,0,0,0,0,-1,860,1093,0,0
-357,-69,0,0,0,0,0,0,0,0,0,-1,867,1093,0,0
-350,-69,0,0,0,0,0,0,0,0,0,-1,874,1093,0,0
-343,-69,0,0,0,0,0,0,0,0,0,-1,881,1093,0,0
-336,-69,0,0,0,0,0,0,0,0,0,-1,888,1093,0,0
-329,-69,0,0,0,0,0,0,0,0,0,-1,895,1093,0,0
-322,-69,0,0,0,0,0,0,0,0,0,-1,902,1093,0,0
-315,-69,0,0,0,0,0,0,0,0,0,-1,909,1093,0,0
-308,-69,0,0,0,0,0,0,0,0,0,-1,916,1093,0,0
-301,-69,0,0,0,0,0,0,0,0,0,-1,923,1093,0,0
-294,-69,0,0,0,0,0,0,0,0,0,-1,930,1093,0,0
-287,-69,0,0,0,0,0,0,0,0,0,-1,937,1093,0,0
-280,-69,0,0,0,0,0,0,0,0,0,-1,944,1093,0,0
-273,-69,0,0,0,0,0,0,0,0,0,-1,951,1093,0,0
-266,-69,0,0,0,0,0,0,0,0,0,-1,958,1093,0,0
-259,-69,0,0,0,0,0,0,0,0,0,-1,965,1093,0,0
-252,-69,0,0,0,0,0,0,0,0,0,-1,972,1093,0,0
-245,-69,0,0,0,0,0,0,0,0,0,-1,979,1093,0,0
-238,-69,0,0,0,0,0,0,0,0,0,-1,986,1093,0,0
-231,-69,0,0,0,0,0,0,0,0,0,-1,993,1093,0,0
-224,-69,0,0,0,0,0,0,0,0,0,-1,1000,1093,0,0
-217,-69,0,0,0,0,0,0,0,0,0,-1,1007,1093,0,0
-210,-69,0,0,0,0,0,0,0,0,0,-1,1014,1093,0,0
-203,-69,0,0,0,0,0,0,0,0,0,-1,1021,1093,0,0
-196,-69,0,0,0,0,0,0,0,0,0,-1,1028,1093,0,0
-189,-69,0,0,0,0,0,0,0,0,0,-1,1035,1093,0,0
-182,-69,0,0,0,0,0,0,0,0,0,-1,1042,1093,0,0
-175,-69,0,0,0,0,0,0,0,0,0,-1,1049,1093,0,0
-168,-69,0,0,0,0,0,0,0,0,0,-1,1056,1093,0,0
-161,-69,0,0,0,0,0,0,0,0,0,-1,1063,1093,0,0
-154,-69,0,0,0,0,0,0,0,0,0,-1,1070,1093,0,0
-147,-69,0,0,0,0,0,0,0,0,0,-1,1077,1093,0,0
-140,-69,0,0,0,0,0,0,0,0,0,-1,1084,1093,0,0
-133,-69,0,0,0,0,0,0,0,0,0,-1,1091,1093,0,0
-126,-69,0,0,0,0,0,0,0,0,0,-1,1098,1093,0,0
-119,-69,0,0,0,0,0,0,0,0,0,-1,1105,1093,0,0
-112,-69,0,0,0,0,0,0,0,0,0,-1,1112,1093,0,0
-105,-69,0,0,0,0,0,0,0,0,0,-1,1119,1093,0,0
-98,-69,0,0,0,0,0,0,0,0,0,-1,1126,1093,0,0
-91,-69,0,0,0,0,0,0,0,0,0,-1,1133,1093,0,0
-84,-69,0,0,0,0,0,0,0,0,0,-1,1140,1093,0,0
-77,-69,0,0,0,0,0,0,0,0,0,-1,1147,1093,0,0
-70,-69,0,0,0,0,0,0,0,0,0,-1,1154,1093,0,0
-63,-69,0,0,0,0,0,0,0,0,0,-1,1161,1093,0,0
-56,-69,0,0,0,0,0,0,0,0,0,-1,1168,1093,0,0
-49,-69,0,0,0,0,0,0,0,0,0,-1,1175,1093,0,0
-42,-69,0,0,0,0,0,0,0,0,0,-1,1182,1093,0,0
-35,-69,0,0,0,0,0,0,0,0,0,-1,1189,1093,0,0
-28,-69,0,0,0,0,0,0,0,0,0,-1,1196,1093,0,0
-21,-69,0,0,0,0,0,0,0,0,0,-1,1203,1093,0,0
-14,-69,0,0,0,0,0,0,0,0,0,-1,1210,1093,0,0
-7,-69,0,0,0,0,0,0,0,0,0,-1,1217,1093,0,0
0,-69,0,0,0,0,0,0,0,0,0,-1,1224,1093,0,0
7,-69,0,0,0,0,0,0,0,0,0,-1,1231,1093,0,0
14,-69,0,0,0,0,0,0,0,0,0,-1,1238,1093,0,0
21,-69,0,0,0,0,0,0,0,0,0,-1,1245,1093,0,0
28,-69,0,0,0,0,0,0,0,0,0,-1,1252,1093,0,0
35,-69,0,0,0,0,0,0,0,0,0,-1,1259,1093,0,0
42,-69,0,0,0,0,0,0,0,0,0,-1,1266,1093,0,0
49,-69,0,0,0,0,0,0,0,0,0,-1,1273,1093,0,0
56,-69,0,0,0,0,0,0,0,0,0,-1,1280,1093,0,0
63,-69,0,0,0,0,0,0,0,0,0,-1,1287,1093,0,0
70,-69,0,0,0,0,0,0,0,0,0,-1,1294,1093,0,0
77,-69,0,0,0,0,0,0,0,0,0,-1,1301,1093,0,0
84,-69,0,0,0,0,0,0,0,0,0,-1,1308,1093,0,0
91,-69,0,0,0,0,0,0,0,0,0,-1,1315,1093,0,0
98,-69,0,0,0,0,0,0,0,0,0,-1,1322,1093,0,0
105,-69,0,0,0,0,0,0,0,0,0,-1,1329,1093,0,0
112,-69,0,0,0,0,0,0,0,0,0,-1,1336,1093,0,0
119,-69,0,0,0,0,0,0,0,0,0,-1,1343,1093,0,0
126,-69,0,0,0,0,0,0,0,0,0,-1,1350,1093,0,0
133,-69,0,0,0,0,0,0,0,0,0,-1,1357,1093,0,0
140,-69,0,0,0,0,0,0,0,0,0,-1,1364,1093,0,0
147,-69,0,0,0,0,0,0,0,0,0,-1,1371,1093,0,0
154,-69,0,0,0,0,0,0,0,0,0,-1,1378,1093,0,0
161,-69,0,0,0,0,0,0,0,0,0,-1,1385,1093,0,0
168,-69,0,0,0,0,0,0,0,0,0,-1,1392,1093,0,0
175,-69,0,0,0,0,0,0,0,0,0,-1,1399,1093,0,0
182,-69,0,0,0,0,0,0,0,0,0,-1,1406,1093,0,0
189,-69,0,0,0,0,0,0,0,0,0,-1,1413,1093,0,0
196,-69,0,0,0,0,0,0,0,0,0,-1,1420,1093,0,0
203,-69,0,0,0,0,0,0,0,0,0,-1,1427,1093,0,0
210,-69,0,0,0,0,0,0,0,0,0,-1,1434,1093,0,0
217,-69,0,0,0,0,0,0,0,0,0,-1,1441,1093,0,0
224,-69,0,0,0,0,0,0,0,0,0,-1,1448,1093,0,0
231,-69,0,0,0,0,0,0,0,0,0,-1,1455,1093,0,0
238,-69,0,0,0,0,0,0,0,0,0,-1,1462,1093,0,0
245,-69,0,0,0,0,0,0,0,0,0,-1,1469,1093,0,0
252,-69,0,0,0,0,0,0,0,0,0,-1,1476,1093,0,0
259,-69,0,0,0,0,0,0,0,0,0,-1,1483,1093,0,0
266,-69,0,0,0,0,0,0,0,0,0,-1,1490,1093,0,0
273,-69,0,0,0,0,0,0,0,0,0,-1,1497,1093,0,0
280,-69,0,0,0,0,0,0,0,0,0,-1,1504,1093,0,0
287,-69,0,0,0,0,0,0,0,0,0,-1,1511,1093,0,0
294,-69,0,0,0,0,0,0,0,0,0,-1,1518,1093,0,0
301,-69,0,0,0,0,0,0,0,0,0,-1,1525,1093,0,0
308,-69,0,0,0,0,0,0,0,0,0,-1,1532,1093,0,0
315,-69,0,0,0,0,0,0,0,0,0,-1,1539,1093,0,0
322,-69,0,0,0,0,0,0,0,0,0,-1,1546,1093,0,0
329,-69,0,0,0,0,0,0,0,0,0,-1,1553,1093,0,0
336,-69,0,0,0,0,0,0,0,0,0,-1,1560,1093,0,0
343,-69,0,0,0,0,0,0,0,0,0,-1,1567,1093,0,0
350,-69,0,0,0,0,0,0,0,0,0,-1,1574,1093,0,0
357,-69,0,0,0,0,0,0,0,0,0,-1,1581,1093,0,0
364,-69,0,0,0,0,0,0,0,0,0,-1,1588,1093,0,0
371,-69,0,0,0,0,0,0,0,0,0,-1,1595,1093,0,0
378,-69,0,0,0,0,0,0,0,0,0,-1,1602,1093,0,0
385,-69,0,0,0,0,0,0,0,0,0,-1,1609,1093,0,0
392,-69,0,0,0,0,0,0,0,0,0,-1,1616,1093,0,0
399,-69,0,0,0,0,0,0,0,0,0,-1,1623,1093,0,0
406,-69,0,0,0,0,0,0,0,0,0,-1,1630,1093,0,0
413,-69,0,0,0,0,0,0,0,0,0,-1,1637,1093,0,0
420,-69,0,0,0,0,0,0,0,0,0,-1,1644,1093,0,0
427,-69,0,0,0,0,0,0,0,0,0,-1,1651,1093,0,0
434,-69,0,0,0,0,0,0,0,0,0,-1,1658,1093,0,0
441,-69,0,0,0,0,0,0,0,0,0,-1,1665,1093,0,0
448,-69,0,0,0,0,0,0,0,0,0,-1,1672,1093,0,0
455,-69,0,0,0,0,0,0,0,0,0,-1,1679,1093,0,0
462,-69,0,0,0,0,0,0,0,0,0,-1,1686,1093,0,0
469,-69,0,0,0,0,0,0,0,0,0,-1,1693,1093,0,0
476,-69,0,0,0,0,0,0,0,0,0,-1,1700,1093,0,0
483,-69,0,0,0,0,0,0,0,0,0,-1,1707,1093,0,0
490,-69,0,0,0,0,0,0,0,0,0,-1,1714,1093,0,0
497,-69,0,0,0,0,0,0,0,0,0,-1,1721,1093,0,0
504,-69,0,0,0,0,0,0,0,0,0,-1,1728,1093,0,0
511,-69,0,0,0,0,0,0,0,0,0,-1,1735,1093,0,0
518,-69,0,0,0,0,0,0,0,0,0,-1,1742,1093,0,0
525,-69,0,0,0,0,0,0,0,0,0,-1,1749,1093,0,0
532,-69,0,0,0,0,0,0,0,0,0,-1,1756,1093,0,0
539,-69,0,0,0,0,0,0,0,0,0,-1,1763,1093,0,0
546,-69,0,0,0,0,0,0,0,0,0,-1,1770,1093,0,0
553,-69,0,0,0,0,0,0,0,0,0,-1,1777,1093,0,0
560,-69,0,0,0,0,0,0,0,0,0,-1,1784,1093,0,0
567,-69,0,0,0,0,0,0,0,0,0,-1,1791,1093,0,0
574,-69,0,0,0,0,0,0,0,0,0,-1,1798,1093,0,0
581,-69,0,0,0,0,0,0,0,0,0,-1,1805,1093,0,0
588,-69,0,0,0,0,0,0,0,0,0,-1,1812,1093,0,0
595,-69,0,0,0,0,0,0,0,0,0,-1,1819,1093,0,0
602,-69,0,0,0,0,0,0,0,0,0,-1,1826,1093,0,0
609,-69,0,0,0,0,0,0,0,0,0,-1,1833,1093,0,0
616,-69,0,0,0,0,0,0,0,0,0,-1,1840,1093,0,0
623,-69,0,0,0,0,0,0,0,0,0,-1,1847,1093,0,0
630,-69,0,0,0,0,0,0,0,0,0,-1,1854,1093,0,0
637,-69,0,0,0,0,0,0,0,0,0,-1,1861,1093,0,0
644,-69,0,0,0,0,0,0,0,0,0,-1,1868,1093,0,0
651,-69,44.3953,2.56189,0.0040735,0.000180886,0.00419943,0.00675572,-0.00250134,0.568399,0.00552951,0.0395491,1875,1093,44.3952,-2.5619
658,-69,44.4636,2.48755,0.00307751,0.000240497,0.00312974,0.0050952,-0.00177719,0.572628,0.00411904,0.0427875,1882,1093,44.4636,-2.48757
665,-69,44.499,2.47314,0.00218681,0.000248073,0.00238809,0.00379477,-0.00135989,0.5926,0.00308474,0.0432793,1889,1093,44.4991,-2.47314
672,-69,44.4351,2.8186,0.00145839,0.000293394,0.00191771,0.00288012,-0.00112833,0.637952,0.00238681,0.037692,1896,1093,44.435,-2.81862
679,-69,44.4868,2.80188,0.000685302,0.000287638,0.00160421,0.00210296,-0.00113002,0.723741,0.00189453,0.0377102,1903,1093,44.4868,-2.80192
686,-69,44.5581,2.75195,6.70235e-05,8.82687e-05,0.00150757,0.00158525,-0.00142996,0.788921,0.0017416,0.0370451,1910,1093,44.5581,-2.7519
693,-69,44.5525,2.62378,-0.000282264,-0.000145208,0.00150281,0.00129063,-0.00171811,0.808182,0.00174293,0.035277,1917,1093,44.5525,-2.62378
700,-69,44.5377,2.58203,-0.000497688,-0.000299939,0.00155429,0.00115862,-0.00195625,0.817162,0.00181792,0.0308209,1924,1093,44.5377,-2.58209
707,-69,44.5105,2.66223,-0.000771079,-0.000319421,0.00160006,0.00107066,-0.00216117,0.855504,0.00190098,0.0253854,1931,1093,44.5105,-2.66224
714,-69,44.5475,2.68787,-0.00106601,-0.000286272,0.00174832,0.00111512,-0.0024674,0.895102,0.00211692,0.0323002,1938,1093,44.5475,-2.68785
721,-69,44.6277,2.75916,0,0,0,0,0,0,0,-1,1945,1093,44.6277,-2.75911
728,-69,42.6443,6.52002,0,0,0,0,0,0,0,-1,1952,1093,42.6443,-6.52007
735,-69,42.8953,6.19214,-0.00223894,0.000624206,0.00186562,0.00154422,-0.00315896,1.11265,0.00276821,0.0318707,1959,1093,42.8953,-6.19216
742,-69,42.8977,5.94751,-0.00228747,0.00120784,0.00186745,0.00201785,-0.00309749,1.16153,0.00297519,0.0243915,1966,1093,42.8978,-5.94753
749,-69,42.7247,5.67566,-0.00222665,0.00221955,0.00184762,0.0028871,-0.0028942,1.22409,0.00333784,0.0246371,1973,1093,42.7247,-5.67564
756,-69,42.772,5.48254,-0.00220599,0.00364124,0.00141183,0.00396428,-0.00252903,1.34586,0.00377932,0.0153998,1980,1093,42.7719,-5.48249
763,-69,42.7852,5.23376,-0.00232196,0.00520088,0.000548586,0.00524067,-0.00236176,1.49838,0.00449294,0.0164669,1987,1093,42.7852,-5.23377
770,-69,42.7354,5.01416,-0.00210432,0.00742183,-0.000706009,0.00747387,-0.00215636,-1.49722,0.00583572,0.0171252,1994,1093,42.7354,-5.0142
777,-69,42.6415,4.77515,-0.00156917,0.010011,-0.00227886,0.0104433,-0.00200149,-1.38332,0.0077164,0.0225564,2001,1093,42.6414,-4.77516
784,-69,42.6396,4.39771,-0.00101779,0.0125089,-0.00430961,0.0137653,-0.00227414,-1.28713,0.0100213,0.0338283,2008,1093,42.6397,-4.39776
791,-69,43.0488,3.86792,-0.000473517,0.0147548,-0.0070104,0.0174906,-0.00320929,-1.19873,0.0128643,0.0437364,2015,1093,43.0487,-3.86791
798,-69,43.6467,3.76428,0,0,0,0,0,0,0,-1,2022,1093,43.6467,-3.76427
805,-69,44.1602,3.9502,0,0,0,0,0,0,0,-1,2029,1093,44.1603,-3.95015
812,-69,44.6189,4.03284,0,0,0,0,0,0,0,-1,2036,1093,44.6189,-4.03288
-700,-76,0,0,0,0,0,0,0,0,0,-1,524,1100,0,0
-693,-76,-28.7539,-0.802979,0,0,0,0,0,0,0,-1,531,1100,-28.7539,0.802918
-686,-76,-28.0804,-0.907593,0,0,0,0,0,0,0,-1,538,1100,-28.0804,0.907623
-679,-76,-28.6687,-0.711304,0,0,0,0,0,0,0,-1,545,1100,-28.6687,0.711269
-672,-76,-29.3075,-0.584351,0,0,0,0,0,0,0,-1,552,1100,-29.3075,0.584408
-665,-76,-30.6293,1.23108,0,0,0,0,0,0,0,-1,559,1100,-30.6293,-1.23113
-658,-76,-30.6712,1.44775,-0.00515144,0.0236513,-0.00280956,0.0239228,-0.00542294,-1.47446,0.0180301,0.0464263,566,1100,-30.6712,-1.4478
-651,-76,-30.7759,1.61792,-0.00493531,0.0194586,-0.00129846,0.0195275,-0.00500424,-1.51777,0.0149679,0.0285851,573,1100,-30.7759,-1.61795
-644,-76,-30.8719,1.91138,-0.0048558,0.0159999,-0.000113589,0.0160005,-0.00485642,-1.56535,0.0126017,0.0105705,580,1100,-30.872,-1.91143
-637,-76,-30.9483,2.19495,-0.00399266,0.0120411,3.68716e-05,0.0120412,-0.00399274,1.5685,0.0096381,0.0142211,587,1100,-30.9483,-2.19496
-630,-76,-30.9641,2.47986,-0.00246047,0.00733036,-0.000280886,0.00733841,-0.00246853,-1.54214,0.00589014,0.0158575,594,1100,-30.9641,-2.47983
-623,-76,-30.9612,2.78186,-0.00091711,0.00364486,-0.000602635,0.00372312,-0.000995375,-1.44165,0.00287196,0.0161395,601,1100,-30.9612,-2.78187
-616,-76,-30.9941,3.08728,-8.20447e-05,0.00137086,-0.000807375,0.0017305,-0.00044168,-1.15174,0.00132565,0.015305,608,1100,-30.9942,-3.08724
-609,-76,-31.0028,3.36487,0.000406526,-9.76401e-05,-0.000929058,0.00111709,-0.000808207,-0.652922,0.00111633,0.0162486,615,1100,-31.0028,-3.36488
-602,-76,-30.9636,3.63892,0.00101913,-0.000920315,-0.000822169,0.00132075,-0.00122194,-0.351619,0.00146839,0.0191143,622,1100,-30.9636,-3.63896
-595,-76,-30.925,3.87842,0.00112184,-0.00142644,-0.000863373,0.00138681,-0.00169141,-0.297771,0.00178011,0.0281285,629,1100,-30.9251,-3.87839
-588,-76,-30.9066,4.15247,0,0,0,0,0,0,0,-1,636,1100,-30.9065,-4.15247
-581,-76,-32.7396,0.963867,0,0,0,0,0,0,0,-1,643,1100,-32.7396,-0.963887
-574,-76,-32.772,0.91333,-2.85251e-05,-0.00198665,-0.000308973,1.9071e-05,-0.00203424,-0.152845,0.00136256,0.0345722,650,1100,-32.772,-0.913319
-567,-76,-32.7624,0.870972,-0.000694828,-0.00193093,-9.41306e-05,-0.000687701,-0.00193806,-0.0755705,0.00113455,0.0402104,657,1100,-32.7624,-0.871006
-560,-76,-32.7308,1.43506,-0.00172708,-0.00168774,0.000142778,-0.00156328,-0.00185154,0.853861,0.00115037,0.0431239,664,1100,-32.7308,-1.43511
-553,-76,-32.6198,1.3645,-0.00333837,-0.00125648,0.000362115,-0.0011953,-0.00339955,1.40341,0.00199134,0.042844,671,1100,-32.6198,-1.3645
-546,-76,-32.7034,0.942993,-0.00554078,-0.000632961,0.000583657,-0.000564505,-0.00560924,1.45404,0.00356625,0.0406238,678,1100,-32.7034,-0.942941
-539,-76,-32.9184,0.834961,-0.00809091,-6.15551e-05,0.00069289,-2.20072e-06,-0.00815026,1.48534,0.00543278,0.0410972,685,1100,-32.9184,-0.834986
-532,-76,-32.8128,0.988403,-0.0108583,0.000543886,0.00100513,0.000631812,-0.0109463,1.48354,0.00751696,0.0414606,692,1100,-32.8128,-0.988364
-525,-76,0,0,0,0,0,0,0,0,0,-1,699,1100,0,0
-518,-76,0,0,0,0,0,0,0,0,0,-1,706,1100,0,0
-511,-76,0,0,0,0,0,0,0,0,0,-1,713,1100,0,0
-504,-76,0,0,0,0,0,0,0,0,0,-1,720,1100,0,0
-497,-76,0,0,0,0,0,0,0,0,0,-1,727,1100,0,0
-490,-76,0,0,0,0,0,0,0,0,0,-1,734,1100,0,0
-483,-76,0,0,0,0,0,0,0,0,0,-1,741,1100,0,0
-476,-76,0,0,0,0,0,0,0,0,0,-1,748,1100,0,0
-469,-76,0,0,0,0,0,0,0,0,0,-1,755,1100,0,0
-462,-76,0,0,0,0,0,0,0,0,0,-1,762,1100,0,0
-455,-76,0,0,0,0,0,0,0,0,0,-1,769,1100,0,0
-448,-76,0,0,0,0,0,0,0,0,0,-1,776,1100,0,0
-441,-76,0,0,0,0,0,0,0,0,0,-1,783,1100,0,0
-434,-76,0,0,0,0,0,0,0,0,0,-1,790,1100,0,0
-427,-76,0,0,0,0,0,0,0,0,0,-1,797,1100,0,0
-420,-76,0,0,0,0,0,0,0,0,0,-1,804,1100,0,0
-413,-76,0,0,0,0,0,0,0,0,0,-1,811,1100,0,0
-406,-76,0,0,0,0,0,0,0,0,0,-1,818,1100,0,0
-399,-76,0,0,0,0,0,0,0,0,0,-1,825,1100,0,0
-392,-76,0,0,0,0,0,0,0,0,0,-1,832,1100,0,0
-385,-76,0,0,0,0,0,0,0,0,0,-1,839,1100,0,0
-378,-76,0,0,0,0,0,0,0,0,0,-1,846,1100,0,0
-371,-76,0,0,0,0,0,0,0,0,0,-1,853,1100,0,0
-364,-76,0,0,0,0,0,0,0,0,0,-1,860,1100,0,0
-357,-76,0,0,0,0,0,0,0,0,0,-1,867,1100,0,0
-350,-76,0,0,0,0,0,0,0,0,0,-1,874,1100,0,0
-343,-76,0,0,0,0,0,0,0,0,0,-1,881,1100,0,0
-336,-76,0,0,0,0,0,0,0,0,0,-1,888,1100,0,0
-329,-76,0,0,0,0,0,0,0,0,0,-1,895,1100,0,0
-322,-76,0,0,0,0,0,0,0,0,0,-1,902,1100,0,0
-315,-76,0,0,0,0,0,0,0,0,0,-1,909,1100,0,0
-308,-76,0,0,0,0,0,0,0,0,0,-1,916,1100,0,0
-301,-76,0,0,0,0,0,0,0,0,0,-1,923,1100,0,0
-294,-76,0,0,0,0,0,0,0,0,0,-1,930,1100,0,0
-287,-76,0,0,0,0,0,0,0,0,0,-1,937,1100,0,0
-280,-76,0,0,0,0,0,0,0,0,0,-1,944,1100,0,0
-273,-76,0,0,0,0,0,0,0,0,0,-1,951,1100,0,0
-266,-76,0,0,0,0,0,0,0,0,0,-1,958,1100,0,0
-259,-76,0,0,0,0,0,0,0,0,0,-1,965,1100,0,0
-252,-76,0,0,0,0,0,0,0,0,0,-1,972,1100,0,0
-245,-76,0,0,0,0,0,0,0,0,0,-1,979,1100,0,0
-238,-76,0,0,0,0,0,0,0,0,0,-1,986,1100,0,0
-231,-76,0,0,0,0,0,0,0,0,0,-1,993,1100,0,0
-224,-76,0,0,0,0,0,0,0,0,0,-1,1000,1100,0,0
-217,-76,0,0,0,0,0,0,0,0,0,-1,1007,1100,0,0
-210,-76,0,0,0,0,0,0,0,0,0,-1,1014,1100,0,0
-203,-76,0,0,0,0,0,0,0,0,0,-1,1021,1100,0,0
-196,-76,0,0,0,0,0,0,0,0,0,-1,1028,1100,0,0
-189,-76,0,0,0,0,0,0,0,0,0,-1,1035,1100,0,0
-182,-76,0,0,0,0,0,0,0,0,0,-1,1042,1100,0,0
-175,-76,0,0,0,0,0,0,0,0,0,-1,1049,1100,0,0
-168,-76,0,0,0,0,0,0,0,0,0,-1,1056,1100,0,0
-161,-76,0,0,0,0,0,0,0,0,0,-1,1063,1100,0,0
-154,-76,0,0,0,0,0,0,0,0,0,-1,1070,1100,0,0
-147,-76,0,0,0,0,0,0,0,0,0,-1,1077,1100,0,0
-140,-76,0,0,0,0,0,0,0,0,0,-1,1084,1100,0,0
-133,-76,0,0,0,0,0,0,0,0,0,-1,1091,1100,0,0
-126,-76,0,0,0,0,0,0,0,0,0,-1,1098,1100,0,0
-119,-76,0,0,0,0,0,0,0,0,0,-1,1105,1100,0,0
-112,-76,0,0,0,0,0,0,0,0,0,-1,1112,1100,0,0
-105,-76,0,0,0,0,0,0,0,0,0,-1,1119,1100,0,0
-98,-76,0,0,0,0,0,0,0,0,0,-1,1126,1100,0,0
-91,-76,0,0,0,0,0,0,0,0,0,-1,1133,1100,0,0
-84,-76,0,0,0,0,0,0,0,0,0,-1,1140,1100,0,0
-77,-76,0,0,0,0,0,0,0,0,0,-1,1147,1100,0,0
-70,-76,0,0,0,0,0,0,0,0,0,-1,1154,1100,0,0
-63,-76,0,0,0,0,0,0,0,0,0,-1,1161,1100,0,0
-56,-76,0,0,0,0,0,0,0,0,0,-1,1168,1100,0,0
-49,-76,0,0,0,0,0,0,0,0,0,-1,1175,1100,0,0
-42,-76,0,0,0,0,0,0,0,0,0,-1,1182,1100,0,0
-35,-76,0,0,0,0,0,0,0,0,0,-1,1189,1100,0,0
-28,-76,0,0,0,0,0,0,0,0,0,-1,1196,1100,0,0
-21,-76,0,0,0,0,0,0,0,0,0,-1,1203,1100,0,0
-14,-76,0,0,0,0,0,0,0,0,0,-1,1210,1100,0,0
-7,-76,0,0,0,0,0,0,0,0,0,-1,1217,1100,0,0
0,-76,0,0,0,0,0,0,0,0,0,-1,1224,1100,0,0
7,-76,0,0,0,0,0,0,0,0,0,-1,1231,1100,0,0
14,-76,0,0,0,0,0,0,0,0,0,-1,1238,1100,0,0
21,-76,0,0,0,0,0,0,0,0,0,-1,1245,1100,0,0
28,-76,0,0,0,0,0,0,0,0,0,-1,1252,1100,0,0
35,-76,0,0,0,0,0,0,0,0,0,-1,1259,1100,0,0
42,-76,0,0,0,0,0,0,0,0,0,-1,1266,1100,0,0
49,-76,0,0,0,0,0,0,0,0,0,-1,1273,1100,0,0
56,-76,0,0,0,0,0,0,0,0,0,-1,1280,1100,0,0
63,-76,0,0,0,0,0,0,0,0,0,-1,1287,1100,0,0
70,-76,0,0,0,0,0,0,0,0,0,-1,1294,1100,0,0
77,-76,0,0,0,0,0,0,0,0,0,-1,1301,1100,0,0
84,-76,0,0,0,0,0,0,0,0,0,-1,1308,1100,0,0
91,-76,0,0,0,0,0,0,0,0,0,-1,1315,1100,0,0
98,-76,0,0,0,0,0,0,0,0,0,-1,1322,1100,0,0
105,-76,0,0,0,0,0,0,0,0,0,-1,1329,1100,0,0
112,-76,0,0,0,0,0,0,0,0,0,-1,1336,1100,0,0
119,-76,0,0,0,0,0,0,0,0,0,-1,1343,1100,0,0
126,-76,0,0,0,0,0,0,0,0,0,-1,1350,1100,0,0
133,-76,0,0,0,0,0,0,0,0,0,-1,1357,1100,0,0
140,-76,0,0,0,0,0,0,0,0,0,-1,1364,1100,0,0
147,-76,0,0,0,0,0,0,0,0,0,-1,1371,1100,0,0
154,-76,0,0,0,0,0,0,0,0,0,-1,1378,1100,0,0
161,-76,0,0,0,0,0,0,0,0,0,-1,1385,1100,0,0
168,-76,0,0,0,0,0,0,0,0,0,-1,1392,1100,0,0
175,-76,0,0,0,0,0,0,0,0,0,-1,1399,1100,0,0
182,-76,0,0,0,0,0,0,0,0,0,-1,1406,1100,0,0
189,-76,0,0,0,0,0,0,0,0,0,-1,1413,1100,0,0
196,-76,0,0,0,0,0,0,0,0,0,-1,1420,1100,0,0
203,-76,0,0,0,0,0,0,0,0,0,-1,1427,1100,0,0
210,-76,0,0,0,0,0,0,0,0,0,-1,1434,1100,0,0
217,-76,0,0,0,0,0,0,0,0,0,-1,1441,1100,0,0
224,-76,0,0,0,0,0,0,0,0,0,-1,1448,1100,0,0
231,-76,0,0,0,0,0,0,0,0,0,-1,1455,1100,0,0
238,-76,0,0,0,0,0,0,0,0,0,-1,1462,1100,0,0
245,-76,0,0,0,0,0,0,0,0,0,-1,1469,1100,0,0
252,-76,0,0,0,0,0,0,0,0,0,-1,1476,1100,0,0
259,-76,0,0,0,0,0,0,0,0,0,-1,1483,1100,0,0
266,-76,0,0,0,0,0,0,0,0,0,-1,1490,1100,0,0
273,-76,0,0,0,0,0,0,0,0,0,-1,1497,1100,0,0
280,-76,0,0,0,0,0,0,0,0,0,-1,1504,1100,0,0
287,-76,0,0,0,0,0,0,0,0,0,-1,1511,1100,0,0
294,-76,0,0,0,0,0,0,0,0,0,-1,1518,1100,0,0
301,-76,0,0,0,0,0,0,0,0,0,-1,1525,1100,0,0
308,-76,0,0,0,0,0,0,0,0,0,-1,1532,1100,0,0
315,-76,0,0,0,0,0,0,0,0,0,-1,1539,1100,0,0
322,-76,0,0,0,0,0,0,0,0,0,-1,1546,1100,0,0
329,-76,0,0,0,0,0,0,0,0,0,-1,1553,1100,0,0
336,-76,0,0,0,0,0,0,0,0,0,-1,1560,1100,0,0
343,-76,0,0,0,0,0,0,0,0,0,-1,1567,1100,0,0
350,-76,0,0,0,0,0,0,0,0,0,-1,1574,1100,0,0
357,-76,0,0,0,0,0,0,0,0,0,-1,1581,1100,0,0
364,-76,0,0,0,0,0,0,0,0,0,-1,1588,1100,0,0
371,-76,0,0,0,0,0,0,0,0,0,-1,1595,1100,0,0
378,-76,0,0,0,0,0,0,0,0,0,-1,1602,1100,0,0
385,-76,0,0,0,0,0,0,0,0,0,-1,1609,1100,0,0
392,-76,0,0,0,0,0,0,0,0,0,-1,1616,1100,0,0
399,-76,0,0,0,0,0,0,0,0,0,-1,1623,1100,0,0
406,-76,0,0,0,0,0,0,0,0,0,-1,1630,1100,0,0
413,-76,0,0,0,0,0,0,0,0,0,-1,1637,1100,0,0
420,-76,0,0,0,0,0,0,0,0,0,-1,1644,1100,0,0
427,-76,0,0,0,0,0,0,0,0,0,-1,1651,1100,0,0
434,-76,0,0,0,0,0,0,0,0,0,-1,1658,1100,0,0
441,-76,0,0,0,0,0,0,0,0,0,-1,1665,1100,0,0
448,-76,0,0,0,0,0,0,0,0,0,-1,1672,1100,0,0
455,-76,0,0,0,0,0,0,0,0,0,-1,1679,1100,0,0
462,-76,0,0,0,0,0,0,0,0,0,-1,1686,1100,0,0
469,-76,0,0,0,0,0,0,0,0,0,-1,1693,1100,0,0
476,-76,0,0,0,0,0,0,0,0,0,-1,1700,1100,0,0
483,-76,0,0,0,0,0,0,0,0,0,-1,1707,1100,0,0
490,-76,0,0,0,0,0,0,0,0,0,-1,1714,1100,0,0
497,-76,0,0,0,0,0,0,0,0,0,-1,1721,1100,0,0
504,-76,0,0,0,0,0,0,0,0,0,-1,1728,1100,0,0
511,-76,0,0,0,0,0,0,0,0,0,-1,1735,1100,0,0
518,-76,0,0,0,0,0,0,0,0,0,-1,1742,1100,0,0
525,-76,0,0,0,0,0,0,0,0,0,-1,1749,1100,0,0
532,-76,0,0,0,0,0,0,0,0,0,-1,1756,1100,0,0
539,-76,0,0,0,0,0,0,0,0,0,-1,1763,1100,0,0
546,-76,0,0,0,0,0,0,0,0,0,-1,1770,1100,0,0
553,-76,0,0,0,0,0,0,0,0,0,-1,1777,1100,0,0
560,-76,0,0,0,0,0,0,0,0,0,-1,1784,1100,0,0
567,-76,0,0,0,0,0,0,0,0,0,-1,1791,1100,0,0
574,-76,0,0,0,0,0,0,0,0,0,-1,1798,1100,0,0
581,-76,0,0,0,0,0,0,0,0,0,-1,1805,1100,0,0
588,-76,0,0,0,0,0,0,0,0,0,-1,1812,1100,0,0
595,-76,0,0,0,0,0,0,0,0,0,-1,1819,1100,0,0
602,-76,0,0,0,0,0,0,0,0,0,-1,1826,1100,0,0
609,-76,0,0,0,0,0,0,0,0,0,-1,1833,1100,0,0
616,-76,0,0,0,0,0,0,0,0,0,-1,1840,1100,0,0
623,-76,0,0,0,0,0,0,0,0,0,-1,1847,1100,0,0
630,-76,0,0,0,0,0,0,0,0,0,-1,1854,1100,0,0
637,-76,0,0,0,0,0,0,0,0,0,-1,1861,1100,0,0
644,-76,0,0,0,0,0,0,0,0,0,-1,1868,1100,0,0
651,-76,44.5587,2.77087,0.00446167,0.000934015,0.00351731,0.00663263,-0.00123695,0.552987,0.00488654,0.0386049,1875,1100,44.5587,-2.77091
658,-76,44.582,2.97253,0.0032753,0.000730207,0.00272027,0.00500596,-0.00100046,0.566619,0.00371596,0.0428679,1882,1100,44.582,-2.97248
665,-76,44.5425,2.90088,0.00227827,0.000542207,0.00214119,0.00372069,-0.000900214,0.592823,0.00282869,0.0408499,1889,1100,44.5425,-2.90082
672,-76,44.4801,2.72681,0.00148954,0.000404197,0.00175571,0.00278453,-0.000890789,0.63551,0.00221385,0.0364388,1896,1100,44.4801,-2.72676
679,-76,44.5192,2.7168,0.000693613,0.000254522,0.00148438,0.00197459,-0.00102646,0.711978,0.00176125,0.0368935,1903,1100,44.5191,-2.71679
686,-76,44.5328,2.71484,0.00012503,-1.65698e-05,0.00138169,0.00143773,-0.00132927,0.7598,0.00159794,0.0354933,1910,1100,44.5329,-2.71486
693,-76,44.4742,2.53918,-0.00016638,-0.000270893,0.0013498,0.00113218,-0.00156945,0.766051,0.00156658,0.0364032,1917,1100,44.4743,-2.53924
700,-76,44.4968,2.54932,-0.00035403,-0.000425911,0.00136086,0.000971359,-0.0017513,0.772196,0.00159328,0.0333704,1924,1100,44.4968,-2.54928
707,-76,44.5277,2.7124,-0.000618411,-0.000449582,0.00139249,0.000861055,-0.00192905,0.815672,0.00164973,0.0262982,1931,1100,44.5277,-2.71241
714,-76,44.5682,2.77795,0,0,0,0,0,0,0,-1,1938,1100,44.5682,-2.77795
721,-76,43.1929,6.03149,0,0,0,0,0,0,0,-1,1945,1100,43.1928,-6.03153
728,-76,41.9039,6.54956,0,0,0,0,0,0,0,-1,1952,1100,41.904,-6.54957
735,-76,42.3158,6.28711,-0.00198218,0.000440295,0.00162219,0.00125356,-0.00279544,1.10608,0.00239352,0.0379597,1959,1100,42.3158,-6.28708
742,-76,42.5573,5.99512,-0.00205783,0.000992503,0.00167914,0.00173574,-0.00280107,1.15409,0.00264329,0.0244254,1966,1100,42.5573,-5.99517
749,-76,42.4772,5.70044,-0.00194015,0.00197526,0.00167667,0.00259512,-0.00256,1.21668,0.00297633,0.0232444,1973,1100,42.4771,-5.70047
756,-76,42.538,5.48108,-0.00182253,0.00350883,0.00133437,0.00382416,-0.00213786,1.33874,0.00348777,0.0153643,1980,1100,42.538,-5.48109
763,-76,42.5201,5.2135,-0.00181594,0.00539214,0.000604636,0.00544251,-0.00186631,1.48769,0.00438489,0.0162479,1987,1100,42.5201,-5.21346
770,-76,42.4209,4.99036,-0.00136882,0.00804959,-0.000473171,0.0080733,-0.00139254,-1.52073,0.0059014,0.0173559,1994,1100,42.421,-4.9904
777,-76,42.3353,4.83679,-0.000542378,0.0113369,-0.00182373,0.0116106,-0.000816055,-1.42184,0.00802623,0.0215219,2001,1100,42.3353,-4.83684
784,-76,42.3657,4.5155,0.000402418,0.0149004,-0.00358986,0.0157406,-0.000437779,-1.34089,0.0106427,0.0319859,2008,1100,42.3658,-4.51547
791,-76,42.5569,4.16492,0.00144461,0.0187627,-0.00595898,0.020615,-0.000407696,-1.26942,0.0138812,0.0422175,2015,1100,42.5569,-4.1649
798,-76,42.7334,3.81201,0,0,0,0,0,0,0,-1,2022,1100,42.7334,-3.81199
805,-76,44.4363,3.94727,0,0,0,0,0,0,0,-1,2029,1100,44.4362,-3.94727
812,-76,43.2922,3.41309,0,0,0,0,0,0,0,-1,2036,1100,43.2922,-3.41312
-700,-83,0,0,0,0,0,0,0,0,0,-1,524,1107,0,0
-693,-83,-28.4854,-0.14502,0,0,0,0,0,0,0,-1,531,1107,-28.4854,0.145048
-686,-83,-28.5823,-0.821533,0,0,0,0,0,0,0,-1,538,1107,-28.5823,0.821493
-679,-83,-30.2076,0.151001,0,0,0,0,0,0,0,-1,545,1107,-30.2076,-0.151025
-672,-83,-30.1247,0.0131836,0,0,0,0,0,0,0,-1,552,1107,-30.1247,-0.0132014
-665,-83,-30.6126,1.28809,0,0,0,0,0,0,0,-1,559,1107,-30.6126,-1.28812
-658,-83,-30.602,1.33789,-0.00101779,0.0228852,-0.00289411,0.0232306,-0.00136321,-1.45201,0.0159609,0.0417397,566,1107,-30.602,-1.33783
-651,-83,-30.4856,1.49097,-0.00192364,0.0182529,-0.00130662,0.0183372,-0.00200791,-1.5064,0.0129461,0.031024,573,1107,-30.4856,-1.49099
-644,-83,-30.5352,1.83044,-0.00260284,0.0145144,-0.000148385,0.0145157,-0.00260412,-1.56213,0.0106518,0.0153317,580,1107,-30.5351,-1.83045
-637,-83,-30.6013,2.15674,-0.00236023,0.0106657,3.563e-05,0.0106658,-0.00236032,1.56806,0.00801401,0.0125239,587,1107,-30.6013,-2.15679
-630,-83,-30.5977,2.47937,-0.00143761,0.00642584,-0.000239434,0.00643313,-0.00144489,-1.54038,0.00484277,0.0177517,594,1107,-30.5977,-2.47931
-623,-83,-30.6198,2.76538,-0.000293102,0.0031212,-0.000462114,0.00318264,-0.000354542,-1.43862,0.00224928,0.0161964,601,1107,-30.6198,-2.76532
-616,-83,-30.678,3.06616,0.000355639,0.00115113,-0.000466248,0.00136624,0.000140532,-1.13854,0.000867784,0.0149008,608,1107,-30.678,-3.06616
-609,-83,-30.666,3.35229,0.000784016,-6.739e-05,-0.000406407,0.000946861,-0.000230236,-0.381107,0.000720357,0.017062,615,1107,-30.666,-3.3523
-602,-83,-30.686,3.66931,0.00132396,-0.00076074,-0.000299967,0.00136627,-0.000803044,-0.140104,0.00126644,0.0174412,622,1107,-30.686,-3.66929
-595,-83,-30.6333,3.97192,0.00139044,-0.00115111,-0.000414357,0.00145628,-0.00121695,-0.157599,0.00154546,0.0212523,629,1107,-30.6333,-3.97194
-588,-83,-30.604,4.229,0,0,0,0,0,0,0,-1,636,1107,-30.604,-4.22901
-581,-83,-32.7249,0.91748,0,0,0,0,0,0,0,-1,643,1107,-32.7248,-0.917441
-574,-83,-32.7684,0.845215,0.000311986,-0.00160361,3.24604e-05,0.000312536,-0.00160416,0.0169388,0.00118741,0.0375127,650,1107,-32.7684,-0.845194
-567,-83,-32.8575,1.27063,-0.000299851,-0.00154196,0.00016036,-0.000279482,-0.00156233,0.126343,0.000962024,0.0436001,657,1107,-32.8575,-1.27061
-560,-83,-32.7798,1.41382,-0.00127971,-0.0013135,0.000268027,-0.00102805,-0.00156517,0.753928,0.000918347,0.0444,664,1107,-32.7798,-1.41387
-553,-83,-32.7035,1.28381,-0.00292361,-0.000910801,0.000280181,-0.000872528,-0.00296188,1.43504,0.00175749,0.0436269,671,1107,-32.7035,-1.28378
-546,-83,-32.7377,1.15417,-0.00524173,-0.000318255,0.000231671,-0.000307378,-0.0052526,1.52388,0.0034039,0.0408214,678,1107,-32.7377,-1.15419
-539,-83,-32.7883,1.14563,-0.00796951,0.00023691,8.84249e-05,0.000237862,-0.00797047,1.56002,0.00539468,0.0416962,685,1107,-32.7883,-1.14562
-532,-83,-32.814,1.20374,-0.0108903,0.000837035,0.000241277,0.000841997,-0.0108952,1.55023,0.0075598,0.0432411,692,1107,-32.814,-1.20368
-525,-83,0,0,0,0,0,0,0,0,0,-1,699,1107,0,0
-518,-83,0,0,0,0,0,0,0,0,0,-1,706,1107,0,0
-511,-83,0,0,0,0,0,0,0,0,0,-1,713,1107,0,0
-504,-83,0,0,0,0,0,0,0,0,0,-1,720,1107,0,0
-497,-83,0,0,0,0,0,0,0,0,0,-1,727,1107,0,0
-490,-83,0,0,0,0,0,0,0,0,0,-1,734,1107,0,0
-483,-83,0,0,0,0,0,0,0,0,0,-1,741,1107,0,0
-476,-83,0,0,0,0,0,0,0,0,0,-1,748,1107,0,0
-469,-83,0,0,0,0,0,0,0,0,0,-1,755,1107,0,0
-462,-83,0,0,0,0,0,0,0,0,0,-1,762,1107,0,0
-455,-83,0,0,0,0,0,0,0,0,0,-1,769,1107,0,0
-448,-83,0,0,0,0,0,0,0,0,0,-1,776,1107,0,0
-441,-83,0,0,0,0,0,0,0,0,0,-1,783,1107,0,0
-434,-83,0,0,0,0,0,0,0,0,0,-1,790,1107,0,0
-427,-83,0,0,0,0,0,0,0,0,0,-1,797,1107,0,0
-420,-83,0,0,0,0,0,0,0,0,0,-1,804,1107,0,0
-413,-83,0,0,0,0,0,0,0,0,0,-1,811,1107,0,0
-406,-83,0,0,0,0,0,0,0,0,0,-1,818,1107,0,0
-399,-83,0,0,0,0,0,0,0,0,0,-1,825,1107,0,0
-392,-83,0,0,0,0,0,0,0,0,0,-1,832,1107,0,0
-385,-83,0,0,0,0,0,0,0,0,0,-1,839,1107,0,0
-378,-83,0,0,0,0,0,0,0,0,0,-1,846,1107,0,0
-371,-83,0,0,0,0,0,0,0,0,0,-1,853,1107,0,0
-364,-83,0,0,0,0,0,0,0,0,0,-1,860,1107,0,0
-357,-83,0,0,0,0,0,0,0,0,0,-1,867,1107,0,0
-350,-83,0,0,0,0,0,0,0,0,0,-1,874,1107,0,0
-343,-83,0,0,0,0,0,0,0,0,0,-1,881,1107,0,0
-336,-83,0,0,0,0,0,0,0,0,0,-1,888,1107,0,0
-329,-83,0,0,0,0,0,0,0,0,0,-1,895,1107,0,0
-322,-83,0,0,0,0,0,0,0,0,0,-1,902,1107,0,0
-315,-83,0,0,0,0,0,0,0,0,0,-1,909,1107,0,0
-308,-83,0,0,0,0,0,0,0,0,0,-1,916,1107,0,0
-301,-83,0,0,0,0,0,0,0,0,0,-1,923,1107,0,0
-294,-83,0,0,0,0,0,0,0,0,0,-1,930,1107,0,0
-287,-83,0,0,0,0,0,0,0,0,0,-1,937,1107,0,0
-280,-83,0,0,0,0,0,0,0,0,0,-1,944,1107,0,0
-273,-83,0,0,0,0,0,0,0,0,0,-1,951,1107,0,0
-266,-83,0,0,0,0,0,0,0,0,0,-1,958,1107,0,0
-259,-83,0,0,0,0,0,0,0,0,0,-1,965,1107,0,0
-252,-83,0,0,0,0,0,0,0,0,0,-1,972,1107,0,0
-245,-83,0,0,0,0,0,0,0,0,0,-1,979,1107,0,0
-238,-83,0,0,0,0,0,0,0,0,0,-1,986,1107,0,0
-231,-83,0,0,0,0,0,0,0,0,0,-1,993,1107,0,0
-224,-83,0,0,0,0,0,0,0,0,0,-1,1000,1107,0,0
-217,-83,0,0,0,0,0,0,0,0,0,-1,1007,1107,0,0
-210,-83,0,0,0,0,0,0,0,0,0,-1,1014,1107,0,0
-203,-83,0,0,0,0,0,0,0,0,0,-1,1021,1107,0,0
-196,-83,0,0,0,0,0,0,0,0,0,-1,1028,1107,0,0
-189,-83,0,0,0,0,0,0,0,0,0,-1,1035,1107,0,0
-182,-83,0,0,0,0,0,0,0,0,0,-1,1042,1107,0,0
-175,-83,0,0,0,0,0,0,0,0,0,-1,1049,1107,0,0
-168,-83,0,0,0,0,0,0,0,0,0,-1,1056,1107,0,0
-161,-83,0,0,0,0,0,0,0,0,0,-1,1063,1107,0,0
-154,-83,0,0,0,0,0,0,0,0,0,-1,1070,1107,0,0
-147,-83,0,0,0,0,0,0,0,0,0,-1,1077,1107,0,0
-140,-83,0,0,0,0,0,0,0,0,0,-1,1084,1107,0,0
-133,-83,0,0,0,0,0,0,0,0,0,-1,1091,1107,0,0
-126,-83,0,0,0,0,0,0,0,0,0,-1,1098,1107,0,0
-119,-83,0,0,0,0,0,0,0,0,0,-1,1105,1107,0,0
-112,-83,0,0,0,0,0,0,0,0,0,-1,1112,1107,0,0
-105,-83,0,0,0,0,0,0,0,0,0,-1,1119,1107,0,0
-98,-83,0,0,0,0,0,0,0,0,0,-1,1126,1107,0,0
-91,-83,0,0,0,0,0,0,0,0,0,-1,1133,1107,0,0
-84,-83,0,0,0,0,0,0,0,0,0,-1,1140,1107,0,0
-77,-83,0,0,0,0,0,0,0,0,0,-1,1147,1107,0,0
-70,-83,0,0,0,0,0,0,0,0,0,-1,1154,1107,0,0
-63,-83,0,0,0,0,0,0,0,0,0,-1,1161,1107,0,0
-56,-83,0,0,0,0,0,0,0,0,0,-1,1168,1107,0,0
-49,-83,0,0,0,0,0,0,0,0,0,-1,1175,1107,0,0
-42,-83,0,0,0,0,0,0,0,0,0,-1,1182,1107,0,0
-35,-83,0,0,0,0,0,0,0,0,0,-1,1189,1107,0,0
-28,-83,0,0,0,0,0,0,0,0,0,-1,1196,1107,0,0
-21,-83,0,0,0,0,0,0,0,0,0,-1,1203,1107,0,0
-14,-83,0,0,0,0,0,0,0,0,0,-1,1210,1107,0,0
-7,-83,0,0,0,0,0,0,0,0,0,-1,1217,1107,0,0
0,-83,0,0,0,0,0,0,0,0,0,-1,1224,1107,0,0
7,-83,0,0,0,0,0,0,0,0,0,-1,1231,1107,0,0
14,-83,0,0,0,0,0,0,0,0,0,-1,1238,1107,0,0
21,-83,0,0,0,0,0,0,0,0,0,-1,1245,1107,0,0
28,-83,0,0,0,0,0,0,0,0,0,-1,1252,1107,0,0
35,-83,0,0,0,0,0,0,0,0,0,-1,1259,1107,0,0
42,-83,0,0,0,0,0,0,0,0,0,-1,1266,1107,0,0
49,-83,0,0,0,0,0,0,0,0,0,-1,1273,1107,0,0
56,-83,0,0,0,0,0,0,0,0,0,-1,1280,1107,0,0
63,-83,0,0,0,0,0,0,0,0,0,-1,1287,1107,0,0
70,-83,0,0,0,0,0,0,0,0,0,-1,1294,1107,0,0
77,-83,0,0,0,0,0,0,0,0,0,-1,1301,1107,0,0
84,-83,0,0,0,0,0,0,0,0,0,-1,1308,1107,0,0
91,-83,0,0,0,0,0,0,0,0,0,-1,1315,1107,0,0
98,-83,0,0,0,0,0,0,0,0,0,-1,1322,1107,0,0
105,-83,0,0,0,0,0,0,0,0,0,-1,1329,1107,0,0
112,-83,0,0,0,0,0,0,0,0,0,-1,1336,1107,0,0
119,-83,0,0,0,0,0,0,0,0,0,-1,1343,1107,0,0
126,-83,0,0,0,0,0,0,0,0,0,-1,1350,1107,0,0
133,-83,0,0,0,0,0,0,0,0,0,-1,1357,1107,0,0
140,-83,0,0,0,0,0,0,0,0,0,-1,1364,1107,0,0
147,-83,0,0,0,0,0,0,0,0,0,-1,1371,1107,0,0
154,-83,0,0,0,0,0,0,0,0,0,-1,1378,1107,0,0
161,-83,0,0,0,0,0,0,0,0,0,-1,1385,1107,0,0
168,-83,0,0,0,0,0,0,0,0,0,-1,1392,1107,0,0
175,-83,0,0,0,0,0,0,0,0,0,-1,1399,1107,0,0
182,-83,0,0,0,0,0,0,0,0,0,-1,1406,1107,0,0
189,-83,0,0,0,0,0,0,0,0,0,-1,1413,1107,0,0
196,-83,0,0,0,0,0,0,0,0,0,-1,1420,1107,0,0
203,-83,0,0,0,0,0,0,0,0,0,-1,1427,1107,0,0
210,-83,0,0,0,0,0,0,0,0,0,-1,1434,1107,0,0
217,-83,0,0,0,0,0,0,0,0,0,-1,1441,1107,0,0
224,-83,0,0,0,0,0,0,0,0,0,-1,1448,1107,0,0
231,-83,0,0,0,0,0,0,0,0,0,-1,1455,1107,0,0
238,-83,0,0,0,0,0,0,0,0,0,-1,1462,1107,0,0
245,-83,0,0,0,0,0,0,0,0,0,-1,1469,1107,0,0
252,-83,0,0,0,0,0,0,0,0,0,-1,1476,1107,0,0
259,-83,0,0,0,0,0,0,0,0,0,-1,1483,1107,0,0
266,-83,0,0,0,0,0,0,0,0,0,-1,1490,1107,0,0
273,-83,0,0,0,0,0,0,0,0,0,-1,1497,1107,0,0
280,-83,0,0,0,0,0,0,0,0,0,-1,1504,1107,0,0
287,-83,0,0,0,0,0,0,0,0,0,-1,1511,1107,0,0
294,-83,0,0,0,0,0,0,0,0,0,-1,1518,1107,0,0
301,-83,0,0,0,0,0,0,0,0,0,-1,1525,1107,0,0
308,-83,0,0,0,0,0,0,0,0,0,-1,1532,1107,0,0
315,-83,0,0,0,0,0,0,0,0,0,-1,1539,1107,0,0
322,-83,0,0,0,0,0,0,0,0,0,-1,1546,1107,0,0
329,-83,0,0,0,0,0,0,0,0,0,-1,1553,1107,0,0
336,-83,0,0,0,0,0,0,0,0,0,-1,1560,1107,0,0
343,-83,0,0,0,0,0,0,0,0,0,-1,1567,1107,0,0
350,-83,0,0,0,0,0,0,0,0,0,-1,1574,1107,0,0
357,-83,0,0,0,0,0,0,0,0,0,-1,1581,1107,0,0
364,-83,0,0,0,0,0,0,0,0,0,-1,1588,1107,0,0
371,-83,0,0,0,0,0,0,0,0,0,-1,1595,1107,0,0
378,-83,0,0,0,0,0,0,0,0,0,-1,1602,1107,0,0
385,-83,0,0,0,0,0,0,0,0,0,-1,1609,1107,0,0
392,-83,0,0,0,0,0,0,0,0,0,-1,1616,1107,0,0
399,-83,0,0,0,0,0,0,0,0,0,-1,1623,1107,0,0
406,-83,0,0,0,0,0,0,0,0,0,-1,1630,1107,0,0
413,-83,0,0,0,0,0,0,0,0,0,-1,1637,1107,0,0
420,-83,0,0,0,0,0,0,0,0,0,-1,1644,1107,0,0
427,-83,0,0,0,0,0,0,0,0,0,-1,1651,1107,0,0
434,-83,0,0,0,0,0,0,0,0,0,-1,1658,1107,0,0
441,-83,0,0,0,0,0,0,0,0,0,-1,1665,1107,0,0
448,-83,0,0,0,0,0,0,0,0,0,-1,1672,1107,0,0
455,-83,0,0,0,0,0,0,0,0,0,-1,1679,1107,0,0
462,-83,0,0,0,0,0,0,0,0,0,-1,1686,1107,0,0
469,-83,0,0,0,0,0,0,0,0,0,-1,1693,1107,0,0
476,-83,0,0,0,0,0,0,0,0,0,-1,1700,1107,0,0
483,-83,0,0,0,0,0,0,0,0,0,-1,1707,1107,0,0
490,-83,0,0,0,0,0,0,0,0,0,-1,1714,1107,0,0
497,-83,0,0,0,0,0,0,0,0,0,-1,1721,1107,0,0
504,-83,0,0,0,0,0,0,0,0,0,-1,1728,1107,0,0
511,-83,0,0,0,0,0,0,0,0,0,-1,1735,1107,0,0
518,-83,0,0,0,0,0,0,0,0,0,-1,1742,1107,0,0
525,-83,0,0,0,0,0,0,0,0,0,-1,1749,1107,0,0
532,-83,0,0,0,0,0,0,0,0,0,-1,1756,1107,0,0
539,-83,0,0,0,0,0,0,0,0,0,-1,1763,1107,0,0
546,-83,0,0,0,0,0,0,0,0,0,-1,1770,1107,0,0
553,-83,0,0,0,0,0,0,0,0,0,-1,1777,1107,0,0
560,-83,0,0,0,0,0,0,0,0,0,-1,1784,1107,0,0
567,-83,0,0,0,0,0,0,0,0,0,-1,1791,1107,0,0
574,-83,0,0,0,0,0,0,0,0,0,-1,1798,1107,0,0
581,-83,0,0,0,0,0,0,0,0,0,-1,1805,1107,0,0
588,-83,0,0,0,0,0,0,0,0,0,-1,1812,1107,0,0
595,-83,0,0,0,0,0,0,0,0,0,-1,1819,1107,0,0
602,-83,0,0,0,0,0,0,0,0,0,-1,1826,1107,0,0
609,-83,0,0,0,0,0,0,0,0,0,-1,1833,1107,0,0
616,-83,0,0,0,0,0,0,0,0,0,-1,1840,1107,0,0
623,-83,0,0,0,0,0,0,0,0,0,-1,1847,1107,0,0
630,-83,0,0,0,0,0,0,0,0,0,-1,1854,1107,0,0
637,-83,0,0,0,0,0,0,0,0,0,-1,1861,1107,0,0
644,-83,44.573,2.63525,0.00692141,0.000403247,0.00365099,0.00855634,-0.00123168,0.421026,0.006156,0.0359907,1868,1107,44.5729,-2.6353
651,-83,44.5776,2.6377,0.00485381,0.000391427,0.00306845,0.00641651,-0.00117127,0.471043,0.00471682,0.0402229,1875,1107,44.5777,-2.63765
658,-83,44.6107,2.83899,0.00349062,0.000212648,0.00246377,0.00481076,-0.00110749,0.491893,0.00363305,0.0459895,1882,1107,44.6107,-2.83904
665,-83,44.3922,2.78162,0.00238753,6.5515e-05,0.00199339,0.00353337,-0.00108033,0.521699,0.0027864,0.0396074,1889,1107,44.3922,-2.78166
672,-83,44.3918,2.60095,0.00153939,-3.85241e-05,0.00165223,0.00258137,-0.0010805,0.562651,0.00217257,0.0348171,1896,1107,44.3918,-2.60093
679,-83,44.4913,2.63477,0.000726543,-0.000135373,0.00139829,0.00175878,-0.00116761,0.635915,0.001701,0.0372698,1903,1107,44.4913,-2.6348
686,-83,44.5466,2.67529,0.000193964,-0.00033817,0.0012707,0.00122615,-0.00137036,0.682196,0.00149987,0.0349586,1910,1107,44.5466,-2.67525
693,-83,44.5035,2.68408,-5.57836e-05,-0.000509468,0.00120467,0.000943213,-0.00150846,0.692337,0.00142796,0.0350788,1917,1107,44.5035,-2.68411
700,-83,44.4877,2.67896,-0.00022039,-0.00059391,0.00117179,0.000779434,-0.00159373,0.706373,0.00139678,0.0331967,1924,1107,44.4877,-2.67893
707,-83,44.5338,2.7168,-0.000489962,-0.000552898,0.00119658,0.000675568,-0.00171843,0.772252,0.00142522,0.0251686,1931,1107,44.5338,-2.71674
714,-83,44.528,2.68176,0,0,0,0,0,0,0,-1,1938,1107,44.528,-2.68177
721,-83,42.3164,6.81458,0,0,0,0,0,0,0,-1,1945,1107,42.3164,-6.81452
728,-83,42.3297,6.53296,-0.00141712,-6.31673e-05,0.00144777,0.00085808,-0.00233837,1.0041,0.0019103,0.0376394,1952,1107,42.3298,-6.53297
735,-83,42.0516,6.25757,-0.0017696,0.000359158,0.00138522,0.0010417,-0.00245215,1.11298,0.00207124,0.0378256,1959,1107,42.0517,-6.25752
742,-83,42.1897,5.99939,-0.00188887,0.000867231,0.00150402,0.00152906,-0.00255069,1.15626,0.00237994,0.0224517,1966,1107,42.1897,-5.9994
749,-83,42.2521,5.72852,-0.00171076,0.00177088,0.00153068,0.00234813,-0.00228801,1.21017,0.00267675,0.0158628,1973,1107,42.2521,-5.72855
756,-83,42.2939,5.47021,-0.00149606,0.00340299,0.00129539,0.00372442,-0.00181749,1.32757,0.00326215,0.0159718,1980,1107,42.2939,-5.4702
763,-83,42.2826,5.1792,-0.00135212,0.00560538,0.000712748,0.00567765,-0.00142439,1.46975,0.00433855,0.0124696,1987,1107,42.2826,-5.17916
770,-83,42.1768,4.96582,-0.000643632,0.00867157,-0.000152511,0.00867407,-0.000646128,-1.55443,0.00600968,0.0153918,1994,1107,42.1767,-4.96583
777,-83,42.0743,4.73828,0.000501335,0.0125953,-0.00123644,0.0127204,0.000376221,-1.46995,0.0083577,0.0171781,2001,1107,42.0743,-4.73822
784,-83,41.9788,4.53503,0.00187236,0.0171555,-0.00267932,0.0176116,0.00141625,-1.40218,0.0112986,0.0250891,2008,1107,41.9788,-4.53507
791,-83,41.8596,4.39929,0.00345147,0.0225394,-0.00464277,0.0236088,0.00238212,-1.34442,0.0150083,0.0418127,2015,1107,41.8596,-4.39923
798,-83,41.3875,4.29639,0.00524678,0.028899,-0.00729098,0.0309659,0.0031799,-1.29456,0.0196698,0.0474682,2022,1107,41.3875,-4.29642
805,-83,41.269,4.22778,0,0,0,0,0,0,0,-1,2029,1107,41.269,-4.22776
812,-83,42.6736,2.74866,0,0,0,0,0,0,0,-1,2036,1107,42.6736,-2.7486
-700,-90,0,0,0,0,0,0,0,0,0,-1,524,1114,0,0
-693,-90,-28.2109,0.485352,0,0,0,0,0,0,0,-1,531,1114,-28.2109,-0.4854
-686,-90,-28.8427,0.010376,0,0,0,0,0,0,0,-1,538,1114,-28.8428,-0.0104289
-679,-90,-28.997,0.0477295,0,0,0,0,0,0,0,-1,545,1114,-28.997,-0.0476698
-672,-90,-29.785,-0.453857,0,0,0,0,0,0,0,-1,552,1114,-29.785,0.453836
-665,-90,-30.4286,0.528931,0,0,0,0,0,0,0,-1,559,1114,-30.4286,-0.528958
-658,-90,-30.3292,0.924072,0.00128362,0.0225572,-0.00273855,0.022904,0.000936745,-1.4448,0.0149669,0.0460372,566,1114,-30.3292,-0.924124
-651,-90,-30.1672,1.23181,-6.5419e-05,0.0171652,-0.00133178,0.0172676,-0.000167746,-1.49411,0.011568,0.0307611,573,1114,-30.1672,-1.23185
-644,-90,-30.2475,1.71899,-0.00103275,0.0129641,-0.000397803,0.0129754,-0.00104405,-1.54241,0.00901843,0.0140888,580,1114,-30.2475,-1.71894
-637,-90,-30.2748,2.12915,-0.00111897,0.00916979,-0.000198412,0.00917362,-0.00112279,-1.55152,0.0065223,0.0126127,587,1114,-30.2749,-2.12913
-630,-90,-30.2855,2.4541,-0.000640509,0.00544016,-0.000356088,0.00546094,-0.000661291,-1.5125,0.00387989,0.011945,594,1114,-30.2855,-2.45414
-623,-90,-30.2913,2.7749,0.000164715,0.00254134,-0.000432142,0.00261747,8.85775e-05,-1.3964,0.00171622,0.010106,601,1114,-30.2913,-2.77485
-616,-90,-30.3127,3.11658,0.000660956,0.000849438,-0.000235978,0.0010093,0.000501097,-0.975377,0.000582723,0.0124147,608,1114,-30.3127,-3.11657
-609,-90,-30.316,3.42249,0.00105657,-0.000139975,-3.19288e-05,0.00105742,-0.000140827,-0.0266589,0.000756271,0.0178951,615,1114,-30.316,-3.42254
-602,-90,-30.4144,3.70227,0.0015229,-0.00068738,8.96006e-05,0.00152653,-0.000691006,0.0404497,0.00131023,0.0188218,622,1114,-30.4144,-3.70231
-595,-90,-30.2922,4.07483,0.0015454,-0.000935569,-7.84021e-05,0.00154787,-0.000938044,-0.0315594,0.00144957,0.0153068,629,1114,-30.2922,-4.0748
-588,-90,-30.2806,4.36609,0,0,0,0,0,0,0,-1,636,1114,-30.2807,-4.3661
-581,-90,-32.6953,0.720825,0,0,0,0,0,0,0,-1,643,1114,-32.6952,-0.720767
-574,-90,-32.7448,0.852905,0.000532682,-0.00124809,0.000285561,0.000577353,-0.00129276,0.155176,0.00110573,0.0376049,650,1114,-32.7448,-0.852847
-567,-90,-32.8596,1.07397,-1.28577e-05,-0.00116239,0.000356105,8.85175e-05,-0.00126376,0.277341,0.00087351,0.0373671,657,1114,-32.8596,-1.07395
-560,-90,-33.0594,1.38477,0,0,0,0,0,0,0,-1,664,1114,-33.0594,-1.38476
-553,-90,-32.7297,1.16931,-0.00251561,-0.000571292,0.000259745,-0.00053719,-0.00254971,1.44025,0.00155205,0.0423455,671,1114,-32.7297,-1.16935
-546,-90,-32.6617,1.30713,-0.00486705,-7.03208e-05,3.71967e-05,-7.00324e-05,-0.00486734,1.56304,0.0032218,0.0415903,678,1114,-32.6617,-1.30713
-539,-90,-32.6877,0.947144,-0.00771836,0.000318164,-0.000245587,0.000325662,-0.00772586,-1.54028,0.00526249,0.0413257,685,1114,-32.6877,-0.947175
-532,-90,-32.8263,1.11304,-0.0107606,0.0007413,-0.000174769,0.000743955,-0.0107633,-1.55561,0.0074359,0.0421557,692,1114,-32.8263,-1.11302
-525,-90,0,0,0,0,0,0,0,0,0,-1,699,1114,0,0
-518,-90,0,0,0,0,0,0,0,0,0,-1,706,1114,0,0
-511,-90,0,0,0,0,0,0,0,0,0,-1,713,1114,0,0
-504,-90,0,0,0,0,0,0,0,0,0,-1,720,1114,0,0
-497,-90,0,0,0,0,0,0,0,0,0,-1,727,1114,0,0
-490,-90,0,0,0,0,0,0,0,0,0,-1,734,1114,0,0
-483,-90,0,0,0,0,0,0,0,0,0,-1,741,1114,0,0
-476,-90,0,0,0,0,0,0,0,0,0,-1,748,1114,0,0
-469,-90,0,0,0,0,0,0,0,0,0,-1,755,1114,0,0
-462,-90,0,0,0,0,0,0,0,0,0,-1,762,1114,0,0
-455,-90,0,0,0,0,0,0,0,0,0,-1,769,1114,0,0
-448,-90,0,0,0,0,0,0,0,0,0,-1,776,1114,0,0
-441,-90,0,0,0,0,0,0,0,0,0,-1,783,1114,0,0
-434,-90,0,0,0,0,0,0,0,0,0,-1,790,1114,0,0
-427,-90,0,0,0,0,0,0,0,0,0,-1,797,1114,0,0
-420,-90,0,0,0,0,0,0,0,0,0,-1,804,1114,0,0
-413,-90,0,0,0,0,0,0,0,0,0,-1,811,1114,0,0
-406,-90,0,0,0,0,0,0,0,0,0,-1,818,1114,0,0
-399,-90,0,0,0,0,0,0,0,0,0,-1,825,1114,0,0
-392,-90,0,0,0,0,0,0,0,0,0,-1,832,1114,0,0
-385,-90,0,0,0,0,0,0,0,0,0,-1,839,1114,0,0
-378,-90,0,0,0,0,0,0,0,0,0,-1,846,1114,0,0
-371,-90,0,0,0,0,0,0,0,0,0,-1,853,1114,0,0
-364,-90,0,0,0,0,0,0,0,0,0,-1,860,1114,0,0
-357,-90,0,0,0,0,0,0,0,0,0,-1,867,1114,0,0
-350,-90,0,0,0,0,0,0,0,0,0,-1,874,1114,0,0
-343,-90,0,0,0,0,0,0,0,0,0,-1,881,1114,0,0
-336,-90,0,0,0,0,0,0,0,0,0,-1,888,1114,0,0
-329,-90,0,0,0,0,0,0,0,0,0,-1,895,1114,0,0
-322,-90,0,0,0,0,0,0,0,0,0,-1,902,1114,0,0
-315,-90,0,0,0,0,0,0,0,0,0,-1,909,1114,0,0
-308,-90,0,0,0,0,0,0,0,0,0,-1,916,1114,0,0
-301,-90,0,0,0,0,0,0,0,0,0,-1,923,1114,0,0
-294,-90,0,0,0,0,0,0,0,0,0,-1,930,1114,0,0
-287,-90,0,0,0,0,0,0,0,0,0,-1,937,1114,0,0
-280,-90,0,0,0,0,0,0,0,0,0,-1,944,1114,0,0
-273,-90,0,0,0,0,0,0,0,0,0,-1,951,1114,0,0
-266,-90,0,0,0,0,0,0,0,0,0,-1,958,1114,0,0
-259,-90,0,0,0,0,0,0,0,0,0,-1,965,1114,0,0
-252,-90,0,0,0,0,0,0,0,0,0,-1,972,1114,0,0
-245,-90,0,0,0,0,0,0,0,0,0,-1,979,1114,0,0
-238,-90,0,0,0,0,0,0,0,0,0,-1,986,1114,0,0
-231,-90,0,0,0,0,0,0,0,0,0,-1,993,1114,0,0
-224,-90,0,0,0,0,0,0,0,0,0,-1,1000,1114,0,0
-217,-90,0,0,0,0,0,0,0,0,0,-1,1007,1114,0,0
-210,-90,0,0,0,0,0,0,0,0,0,-1,1014,1114,0,0
-203,-90,0,0,0,0,0,0,0,0,0,-1,1021,1114,0,0
-196,-90,0,0,0,0,0,0,0,0,0,-1,1028,1114,0,0
-189,-90,0,0,0,0,0,0,0,0,0,-1,1035,1114,0,0
-182,-90,0,0,0,0,0,0,0,0,0,-1,1042,1114,0,0
-175,-90,0,0,0,0,0,0,0,0,0,-1,1049,1114,0,0
-168,-90,0,0,0,0,0,0,0,0,0,-1,1056,1114,0,0
-161,-90,0,0,0,0,0,0,0,0,0,-1,1063,1114,0,0
-154,-90,0,0,0,0,0,0,0,0,0,-1,1070,1114,0,0
-147,-90,0,0,0,0,0,0,0,0,0,-1,1077,1114,0,0
-140,-90,0,0,0,0,0,0,0,0,0,-1,1084,1114,0,0
-133,-90,0,0,0,0,0,0,0,0,0,-1,1091,1114,0,0
-126,-90,0,0,0,0,0,0,0,0,0,-1,1098,1114,0,0
-119,-90,0,0,0,0,0,0,0,0,0,-1,1105,1114,0,0
-112,-90,0,0,0,0,0,0,0,0,0,-1,1112,1114,0,0
-105,-90,0,0,0,0,0,0,0,0,0,-1,1119,1114,0,0
-98,-90,0,0,0,0,0,0,0,0,0,-1,1126,1114,0,0
-91,-90,0,0,0,0,0,0,0,0,0,-1,1133,1114,0,0
-84,-90,0,0,0,0,0,0,0,0,0,-1,1140,1114,0,0
-77,-90,0,0,0,0,0,0,0,0,0,-1,1147,1114,0,0
-70,-90,0,0,0,0,0,0,0,0,0,-1,1154,1114,0,0
-63,-90,0,0,0,0,0,0,0,0,0,-1,1161,1114,0,0
-56,-90,0,0,0,0,0,0,0,0,0,-1,1168,1114,0,0
-49,-90,0,0,0,0,0,0,0,0,0,-1,1175,1114,0,0
-42,-90,0,0,0,0,0,0,0,0,0,-1,1182,1114,0,0
-35,-90,0,0,0,0,0,0,0,0,0,-1,1189,1114,0,0
-28,-90,0,0,0,0,0,0,0,0,0,-1,1196,1114,0,0
-21,-90,0,0,0,0,0,0,0,0,0,-1,1203,1114,0,0
-14,-90,0,0,0,0,0,0,0,0,0,-1,1210,1114,0,0
-7,-90,0,0,0,0,0,0,0,0,0,-1,1217,1114,0,0
0,-90,0,0,0,0,0,0,0,0,0,-1,1224,1114,0,0
7,-90,0,0,0,0,0,0,0,0,0,-1,1231,1114,0,0
14,-90,0,0,0,0,0,0,0,0,0,-1,1238,1114,0,0
21,-90,0,0,0,0,0,0,0,0,0,-1,1245,1114,0,0
28,-90,0,0,0,0,0,0,0,0,0,-1,1252,1114,0,0
35,-90,0,0,0,0,0,0,0,0,0,-1,1259,1114,0,0
42,-90,0,0,0,0,0,0,0,0,0,-1,1266,1114,0,0
49,-90,0,0,0,0,0,0,0,0,0,-1,1273,1114,0,0
56,-90,0,0,0,0,0,0,0,0,0,-1,1280,1114,0,0
63,-90,0,0,0,0,0,0,0,0,0,-1,1287,1114,0,0
70,-90,0,0,0,0,0,0,0,0,0,-1,1294,1114,0,0
77,-90,0,0,0,0,0,0,0,0,0,-1,1301,1114,0,0
84,-90,0,0,0,0,0,0,0,0,0,-1,1308,1114,0,0
91,-90,0,0,0,0,0,0,0,0,0,-1,1315,1114,0,0
98,-90,0,0,0,0,0,0,0,0,0,-1,1322,1114,0,0
105,-90,0,0,0,0,0,0,0,0,0,-1,1329,1114,0,0
112,-90,0,0,0,0,0,0,0,0,0,-1,1336,1114,0,0
119,-90,0,0,0,0,0,0,0,0,0,-1,1343,1114,0,0
126,-90,0,0,0,0,0,0,0,0,0,-1,1350,1114,0,0
133,-90,0,0,0,0,0,0,0,0,0,-1,1357,1114,0,0
140,-90,0,0,0,0,0,0,0,0,0,-1,1364,1114,0,0
147,-90,0,0,0,0,0,0,0,0,0,-1,1371,1114,0,0
154,-90,0,0,0,0,0,0,0,0,0,-1,1378,1114,0,0
161,-90,0,0,0,0,0,0,0,0,0,-1,1385,1114,0,0
168,-90,0,0,0,0,0,0,0,0,0,-1,1392,1114,0,0
175,-90,0,0,0,0,0,0,0,0,0,-1,1399,1114,0,0
182,-90,0,0,0,0,0,0,0,0,0,-1,1406,1114,0,0
189,-90,0,0,0,0,0,0,0,0,0,-1,1413,1114,0,0
196,-90,0,0,0,0,0,0,0,0,0,-1,1420,1114,0,0
203,-90,0,0,0,0,0,0,0,0,0,-1,1427,1114,0,0
210,-90,0,0,0,0,0,0,0,0,0,-1,1434,1114,0,0
217,-90,0,0,0,0,0,0,0,0,0,-1,1441,1114,0,0
224,-90,0,0,0,0,0,0,0,0,0,-1,1448,1114,0,0
231,-90,0,0,0,0,0,0,0,0,0,-1,1455,1114,0,0
238,-90,0,0,0,0,0,0,0,0,0,-1,1462,1114,0,0
245,-90,0,0,0,0,0,0,0,0,0,-1,1469,1114,0,0
252,-90,0,0,0,0,0,0,0,0,0,-1,1476,1114,0,0
259,-90,0,0,0,0,0,0,0,0,0,-1,1483,1114,0,0
266,-90,0,0,0,0,0,0,0,0,0,-1,1490,1114,0,0
273,-90,0,0,0,0,0,0,0,0,0,-1,1497,1114,0,0
280,-90,0,0,0,0,0,0,0,0,0,-1,1504,1114,0,0
287,-90,0,0,0,0,0,0,0,0,0,-1,1511,1114,0,0
294,-90,0,0,0,0,0,0,0,0,0,-1,1518,1114,0,0
301,-90,0,0,0,0,0,0,0,0,0,-1,1525,1114,0,0
308,-90,0,0,0,0,0,0,0,0,0,-1,1532,1114,0,0
315,-90,0,0,0,0,0,0,0,0,0,-1,1539,1114,0,0
322,-90,0,0,0,0,0,0,0,0,0,-1,1546,1114,0,0
329,-90,0,0,0,0,0,0,0,0,0,-1,1553,1114,0,0
336,-90,0,0,0,0,0,0,0,0,0,-1,1560,1114,0,0
343,-90,0,0,0,0,0,0,0,0,0,-1,1567,1114,0,0
350,-90,0,0,0,0,0,0,0,0,0,-1,1574,1114,0,0
357,-90,0,0,0,0,0,0,0,0,0,-1,1581,1114,0,0
364,-90,0,0,0,0,0,0,0,0,0,-1,1588,1114,0,0
371,-90,0,0,0,0,0,0,0,0,0,-1,1595,1114,0,0
378,-90,0,0,0,0,0,0,0,0,0,-1,1602,1114,0,0
385,-90,0,0,0,0,0,0,0,0,0,-1,1609,1114,0,0
392,-90,0,0,0,0,0,0,0,0,0,-1,1616,1114,0,0
399,-90,0,0,0,0,0,0,0,0,0,-1,1623,1114,0,0
406,-90,0,0,0,0,0,0,0,0,0,-1,1630,1114,0,0
413,-90,0,0,0,0,0,0,0,0,0,-1,1637,1114,0,0
420,-90,0,0,0,0,0,0,0,0,0,-1,1644,1114,0,0
427,-90,0,0,0,0,0,0,0,0,0,-1,1651,1114,0,0
434,-90,0,0,0,0,0,0,0,0,0,-1,1658,1114,0,0
441,-90,0,0,0,0,0,0,0,0,0,-1,1665,1114,0,0
448,-90,0,0,0,0,0,0,0,0,0,-1,1672,1114,0,0
455,-90,0,0,0,0,0,0,0,0,0,-1,1679,1114,0,0
462,-90,0,0,0,0,0,0,0,0,0,-1,1686,1114,0,0
469,-90,0,0,0,0,0,0,0,0,0,-1,1693,1114,0,0
476,-90,0,0,0,0,0,0,0,0,0,-1,1700,1114,0,0
483,-90,0,0,0,0,0,0,0,0,0,-1,1707,1114,0,0
490,-90,0,0,0,0,0,0,0,0,0,-1,1714,1114,0,0
497,-90,0,0,0,0,0,0,0,0,0,-1,1721,1114,0,0
504,-90,0,0,0,0,0,0,0,0,0,-1,1728,1114,0,0
511,-90,0,0,0,0,0,0,0,0,0,-1,1735,1114,0,0
518,-90,0,0,0,0,0,0,0,0,0,-1,1742,1114,0,0
525,-90,0,0,0,0,0,0,0,0,0,-1,1749,1114,0,0
532,-90,0,0,0,0,0,0,0,0,0,-1,1756,1114,0,0
539,-90,0,0,0,0,0,0,0,0,0,-1,1763,1114,0,0
546,-90,0,0,0,0,0,0,0,0,0,-1,1770,1114,0,0
553,-90,0,0,0,0,0,0,0,0,0,-1,1777,1114,0,0
560,-90,0,0,0,0,0,0,0,0,0,-1,1784,1114,0,0
567,-90,0,0,0,0,0,0,0,0,0,-1,1791,1114,0,0
574,-90,0,0,0,0,0,0,0,0,0,-1,1798,1114,0,0
581,-90,0,0,0,0,0,0,0,0,0,-1,1805,1114,0,0
588,-90,0,0,0,0,0,0,0,0,0,-1,1812,1114,0,0
595,-90,0,0,0,0,0,0,0,0,0,-1,1819,1114,0,0
602,-90,0,0,0,0,0,0,0,0,0,-1,1826,1114,0,0
609,-90,0,0,0,0,0,0,0,0,0,-1,1833,1114,0,0
616,-90,0,0,0,0,0,0,0,0,0,-1,1840,1114,0,0
623,-90,0,0,0,0,0,0,0,0,0,-1,1847,1114,0,0
630,-90,0,0,0,0,0,0,0,0,0,-1,1854,1114,0,0
637,-90,0,0,0,0,0,0,0,0,0,-1,1861,1114,0,0
644,-90,44.4659,2.54895,0.00767455,-0.000954176,0.00312305,0.00868627,-0.0019659,0.313284,0.00654531,0.0376124,1868,1114,44.466,-2.54897
651,-90,44.5012,2.68555,0.00519096,-0.000786726,0.00268029,0.00621674,-0.0018125,0.365513,0.00486259,0.040095,1875,1114,44.5012,-2.68557
658,-90,44.5791,2.91553,0.00363045,-0.0007957,0.0022034,0.0045403,-0.00170555,0.391603,0.00372779,0.044504,1882,1114,44.5791,-2.9155
665,-90,44.5126,2.70239,0.00240718,-0.000779518,0.00180585,0.00322213,-0.00159446,0.423916,0.00283329,0.0417978,1889,1114,44.5125,-2.70234
672,-90,44.5433,2.56409,0.00149238,-0.000730411,0.00149284,0.00224211,-0.00148014,0.465418,0.002164,0.0411693,1896,1114,44.5433,-2.56404
679,-90,44.5806,2.76697,0.000655568,-0.000682807,0.00124768,0.00140219,-0.00142943,0.539249,0.00163487,0.039044,1903,1114,44.5806,-2.76699
686,-90,44.5419,2.76257,0.000140225,-0.000756835,0.00109995,0.000879582,-0.00149619,0.591804,0.00138697,0.0333568,1910,1114,44.5419,-2.76252
693,-90,44.4797,2.70129,-8.22138e-05,-0.000813621,0.00100264,0.000619338,-0.00151517,0.610526,0.00126802,0.0330096,1917,1114,44.4797,-2.70128
700,-90,44.547,2.77197,-0.000243984,-0.000811373,0.000927789,0.000442515,-0.00149787,0.637025,0.00117422,0.0324032,1924,1114,44.547,-2.772
707,-90,44.5137,2.67639,-0.000527846,-0.000691535,0.000957975,0.000351775,-0.00157116,0.742784,0.00118227,0.0261113,1931,1114,44.5136,-2.67641
714,-90,44.47,2.53284,0,0,0,0,0,0,0,-1,1938,1114,44.47,-2.53289
721,-90,41.9321,6.87939,0,0,0,0,0,0,0,-1,1945,1114,41.9321,-6.87936
728,-90,41.9442,6.66113,-0.00131079,-8.98875e-05,0.0011763,0.000624925,-0.0020256,1.02475,0.00159992,0.026913,1952,1114,41.9443,-6.66107
735,-90,41.7793,6.34021,-0.00168812,0.000276796,0.00116699,0.000819821,-0.00223115,1.13528,0.00182322,0.0300938,1959,1114,41.7793,-6.34024
742,-90,41.858,6.00635,-0.00185848,0.000756819,0.00138745,0.00135573,-0.00245738,1.1633,0.00223192,0.0266017,1966,1114,41.8581,-6.0064
749,-90,42.0659,5.63965,-0.00160916,0.00163298,0.00145889,0.00219278,-0.00216896,1.2044,0.00251827,0.018524,1973,1114,42.0659,-5.6397
756,-90,42.0616,5.40735,-0.00128489,0.00340383,0.0013657,0.00377262,-0.00165368,1.30705,0.00321151,0.0168223,1980,1114,42.0616,-5.40733
763,-90,42.0127,5.14612,-0.000995213,0.00599004,0.00097863,0.00612455,-0.00112973,1.4342,0.00450706,0.0133087,1987,1114,42.0127,-5.14607
770,-90,41.9414,4.87207,-2.67753e-05,0.00953827,0.000387021,0.0095539,-4.24096e-05,1.53042,0.00638345,0.0165869,1994,1114,41.9414,-4.87208
777,-90,41.8673,4.67859,0.00142682,0.0141637,-0.000383718,0.0141752,0.00141527,-1.54071,0.0090155,0.0157081,2001,1114,41.8674,-4.67858
784,-90,41.8069,4.55725,0.00320382,0.0198209,-0.00147535,0.0199509,0.00307385,-1.48293,0.0124036,0.027972,2008,1114,41.807,-4.55729
791,-90,41.771,4.47998,0.00530887,0.0268768,-0.00302851,0.027294,0.00489169,-1.43391,0.0168045,0.0420588,2015,1114,41.771,-4.47992
798,-90,41.7185,4.36121,0.00774871,0.0356637,-0.00519111,0.0365978,0.00681462,-1.39276,0.0224741,0.0469884,2022,1114,41.7184,-4.3612
805,-90,41.6223,4.099,0.0100517,0.0464142,-0.00808634,0.0481314,0.00833456,-1.36155,0.0297018,0.0475185,2029,1114,41.6223,-4.09899
812,-90,41.5435,3.88904,0,0,0,0,0,0,0,-1,2036,1114,41.5434,-3.88901
-700,-97,0,0,0,0,0,0,0,0,0,-1,524,1121,0,0
-693,-97,-28.1553,-0.34082,0,0,0,0,0,0,0,-1,531,1121,-28.1553,0.340842
-686,-97,-28.3021,-0.222412,0,0,0,0,0,0,0,-1,538,1121,-28.3021,0.222391
-679,-97,-28.4379,-0.125854,0,0,0,0,0,0,0,-1,545,1121,-28.4379,0.125823
-672,-97,-28.4892,0.145142,0,0,0,0,0,0,0,-1,552,1121,-28.4892,-0.145175
-665,-97,-29.7579,0.347778,0,0,0,0,0,0,0,-1,559,1121,-29.7579,-0.347786
-658,-97,-29.8177,0.808105,0.00469921,0.0209128,-0.00400824,0.0218496,0.00376243,-1.34121,0.0134883,0.045281,566,1121,-29.8177,-0.808099
-651,-97,-29.8665,1.28198,0.00271512,0.0152073,-0.00222917,0.0155931,0.00232925,-1.3994,0.00971255,0.0300965,573,1121,-29.8665,-1.28197
-644,-97,-29.9269,1.73474,0.0012026,0.0108815,-0.00110338,0.0110057,0.00107841,-1.45871,0.0070054,0.0112025,580,1121,-29.927,-1.73478
-637,-97,-29.9201,2.10913,0.000595555,0.00744082,-0.000639909,0.00750012,0.000536249,-1.47838,0.00483126,0.012389,587,1121,-29.9201,-2.10911
-630,-97,-29.9318,2.43518,0.000516092,0.00437913,-0.000499184,0.0044426,0.00045263,-1.44434,0.00282298,0.0105193,594,1121,-29.9318,-2.43512
-623,-97,-29.9576,2.77222,0.000885311,0.00196023,-0.000352654,0.0020656,0.000779943,-1.28045,0.00120443,0.0122807,601,1121,-29.9577,-2.77226
-616,-97,-29.9846,3.11975,0.00119135,0.000599199,4.00306e-05,0.00119404,0.000596505,0.067195,0.000689379,0.0182923,608,1121,-29.9846,-3.11976
-609,-97,-30.0458,3.47571,0.00146849,-0.000149331,0.000361692,0.00154567,-0.000226511,0.210234,0.00111366,0.0244251,615,1121,-30.0458,-3.47576
-602,-97,-30.105,3.73889,0.00179884,-0.000528333,0.000490227,0.00189789,-0.000627385,0.199369,0.00151823,0.0232276,622,1121,-30.105,-3.73894
-595,-97,-29.9641,4.09766,0.00175076,-0.000631872,0.000266192,0.00178013,-0.00066125,0.109917,0.00145804,0.0179054,629,1121,-29.9641,-4.09765
-588,-97,-29.9818,4.44177,0,0,0,0,0,0,0,-1,636,1121,-29.9818,-4.44172
-581,-97,-32.7859,0.880615,0,0,0,0,0,0,0,-1,643,1121,-32.7859,-0.880651
-574,-97,-32.7717,0.972778,0.000823556,-0.000794845,0.000548964,0.000992193,-0.000963482,0.298042,0.00112915,0.0472363,650,1121,-32.7717,-0.972723
-567,-97,-32.7404,1.04492,0.00036555,-0.000682719,0.000576735,0.000620736,-0.000937904,0.416571,0.000906071,0.0364623,657,1121,-32.7404,-1.04491
-560,-97,-32.6602,1.15857,-0.000431123,-0.000458779,0.000552587,0.000107809,-0.000997711,0.772889,0.000703835,0.041312,664,1121,-32.6601,-1.15851
-553,-97,-32.5969,1.15881,-0.00198168,-0.000132755,0.000347367,-6.96473e-05,-0.00204479,1.39108,0.00134058,0.0466812,671,1121,-32.5969,-1.15879
-546,-97,-32.5317,1.05652,-0.00432399,0.000270041,4.53417e-05,0.000270488,-0.00432443,1.56093,0.00297722,0.0463003,678,1121,-32.5317,-1.05655
-539,-97,-32.5905,0.888794,-0.00725154,0.000474477,-0.000205247,0.000479926,-0.00725699,-1.54426,0.00500564,0.0417365,685,1121,-32.5905,-0.888773
-532,-97,-32.8357,0.782349,-0.010395,0.000668928,-1.50596e-05,0.000668949,-0.010395,-1.56944,0.00716339,0.0389687,692,1121,-32.8357,-0.782295
-525,-97,0,0,0,0,0,0,0,0,0,-1,699,1121,0,0
-518,-97,0,0,0,0,0,0,0,0,0,-1,706,1121,0,0
-511,-97,0,0,0,0,0,0,0,0,0,-1,713,1121,0,0
-504,-97,0,0,0,0,0,0,0,0,0,-1,720,1121,0,0
-497,-97,0,0,0,0,0,0,0,0,0,-1,727,1121,0,0
-490,-97,0,0,0,0,0,0,0,0,0,-1,734,1121,0,0
-483,-97,0,0,0,0,0,0,0,0,0,-1,741,1121,0,0
-476,-97,0,0,0,0,0,0,0,0,0,-1,748,1121,0,0
-469,-97,0,0,0,0,0,0,0,0,0,-1,755,1121,0,0
-462,-97,0,0,0,0,0,0,0,0,0,-1,762,1121,0,0
-455,-97,0,0,0,0,0,0,0,0,0,-1,769,1121,0,0
-448,-97,0,0,0,0,0,0,0,0,0,-1,776,1121,0,0
-441,-97,0,0,0,0,0,0,0,0,0,-1,783,1121,0,0
-434,-97,0,0,0,0,0,0,0,0,0,-1,790,1121,0,0
-427,-97,0,0,0,0,0,0,0,0,0,-1,797,1121,0,0
-420,-97,0,0,0,0,0,0,0,0,0,-1,804,1121,0,0
-413,-97,0,0,0,0,0,0,0,0,0,-1,811,1121,0,0
-406,-97,0,0,0,0,0,0,0,0,0,-1,818,1121,0,0
-399,-97,0,0,0,0,0,0,0,0,0,-1,825,1121,0,0
-392,-97,0,0,0,0,0,0,0,0,0,-1,832,1121,0,0
-385,-97,0,0,0,0,0,0,0,0,0,-1,839,1121,0,0
-378,-97,0,0,0,0,0,0,0,0,0,-1,846,1121,0,0
-371,-97,0,0,0,0,0,0,0,0,0,-1,853,1121,0,0
-364,-97,0,0,0,0,0,0,0,0,0,-1,860,1121,0,0
-357,-97,0,0,0,0,0,0,0,0,0,-1,867,1121,0,0
-350,-97,0,0,0,0,0,0,0,0,0,-1,874,1121,0,0
-343,-97,0,0,0,0,0,0,0,0,0,-1,881,1121,0,0
-336,-97,0,0,0,0,0,0,0,0,0,-1,888,1121,0,0
-329,-97,0,0,0,0,0,0,0,0,0,-1,895,1121,0,0
-322,-97,0,0,0,0,0,0,0,0,0,-1,902,1121,0,0
-315,-97,0,0,0,0,0,0,0,0,0,-1,909,1121,0,0
-308,-97,0,0,0,0,0,0,0,0,0,-1,916,1121,0,0
-301,-97,0,0,0,0,0,0,0,0,0,-1,923,1121,0,0
-294,-97,0,0,0,0,0,0,0,0,0,-1,930,1121,0,0
-287,-97,0,0,0,0,0,0,0,0,0,-1,937,1121,0,0
-280,-97,0,0,0,0,0,0,0,0,0,-1,944,1121,0,0
-273,-97,0,0,0,0,0,0,0,0,0,-1,951,1121,0,0
-266,-97,0,0,0,0,0,0,0,0,0,-1,958,1121,0,0
-259,-97,0,0,0,0,0,0,0,0,0,-1,965,1121,0,0
-252,-97,0,0,0,0,0,0,0,0,0,-1,972,1121,0,0
-245,-97,0,0,0,0,0,0,0,0,0,-1,979,1121,0,0
-238,-97,0,0,0,0,0,0,0,0,0,-1,986,1121,0,0
-231,-97,0,0,0,0,0,0,0,0,0,-1,993,1121,0,0
-224,-97,0,0,0,0,0,0,0,0,0,-1,1000,1121,0,0
-217,-97,0,0,0,0,0,0,0,0,0,-1,1007,1121,0,0
-210,-97,0,0,0,0,0,0,0,0,0,-1,1014,1121,0,0
-203,-97,0,0,0,0,0,0,0,0,0,-1,1021,1121,0,0
-196,-97,0,0,0,0,0,0,0,0,0,-1,1028,1121,0,0
-189,-97,0,0,0,0,0,0,0,0,0,-1,1035,1121,0,0
-182,-97,0,0,0,0,0,0,0,0,0,-1,1042,1121,0,0
-175,-97,0,0,0,0,0,0,0,0,0,-1,1049,1121,0,0
-168,-97,0,0,0,0,0,0,0,0,0,-1,1056,1121,0,0
-161,-97,0,0,0,0,0,0,0,0,0,-1,1063,1121,0,0
-154,-97,0,0,0,0,0,0,0,0,0,-1,1070,1121,0,0
-147,-97,0,0,0,0,0,0,0,0,0,-1,1077,1121,0,0
-140,-97,0,0,0,0,0,0,0,0,0,-1,1084,1121,0,0
-133,-97,0,0,0,0,0,0,0,0,0,-1,1091,1121,0,0
-126,-97,0,0,0,0,0,0,0,0,0,-1,1098,1121,0,0
-119,-97,0,0,0,0,0,0,0,0,0,-1,1105,1121,0,0
-112,-97,0,0,0,0,0,0,0,0,0,-1,1112,1121,0,0
-105,-97,0,0,0,0,0,0,0,0,0,-1,1119,1121,0,0
-98,-97,0,0,0,0,0,0,0,0,0,-1,1126,1121,0,0
-91,-97,0,0,0,0,0,0,0,0,0,-1,1133,1121,0,0
-84,-97,0,0,0,0,0,0,0,0,0,-1,1140,1121,0,0
-77,-97,0,0,0,0,0,0,0,0,0,-1,1147,1121,0,0
-70,-97,0,0,0,0,0,0,0,0,0,-1,1154,1121,0,0
-63,-97,0,0,0,0,0,0,0,0,0,-1,1161,1121,0,0
-56,-97,0,0,0,0,0,0,0,0,0,-1,1168,1121,0,0
-49,-97,0,0,0,0,0,0,0,0,0,-1,1175,1121,0,0
-42,-97,0,0,0,0,0,0,0,0,0,-1,1182,1121,0,0
-35,-97,0,0,0,0,0,0,0,0,0,-1,1189,1121,0,0
-28,-97,0,0,0,0,0,0,0,0,0,-1,1196,1121,0,0
-21,-97,0,0,0,0,0,0,0,0,0,-1,1203,1121,0,0
-14,-97,0,0,0,0,0,0,0,0,0,-1,1210,1121,0,0
-7,-97,0,0,0,0,0,0,0,0,0,-1,1217,1121,0,0
0,-97,0,0,0,0,0,0,0,0,0,-1,1224,1121,0,0
7,-97,0,0,0,0,0,0,0,0,0,-1,1231,1121,0,0
14,-97,0,0,0,0,0,0,0,0,0,-1,1238,1121,0,0
21,-97,0,0,0,0,0,0,0,0,0,-1,1245,1121,0,0
28,-97,0,0,0,0,0,0,0,0,0,-1,1252,1121,0,0
35,-97,0,0,0,0,0,0,0,0,0,-1,1259,1121,0,0
42,-97,0,0,0,0,0,0,0,0,0,-1,1266,1121,0,0
49,-97,0,0,0,0,0,0,0,0,0,-1,1273,1121,0,0
56,-97,0,0,0,0,0,0,0,0,0,-1,1280,1121,0,0
63,-97,0,0,0,0,0,0,0,0,0,-1,1287,1121,0,0
70,-97,0,0,0,0,0,0,0,0,0,-1,1294,1121,0,0
77,-97,0,0,0,0,0,0,0,0,0,-1,1301,1121,0,0
84,-97,0,0,0,0,0,0,0,0,0,-1,1308,1121,0,0
91,-97,0,0,0,0,0,0,0,0,0,-1,1315,1121,0,0
98,-97,0,0,0,0,0,0,0,0,0,-1,1322,1121,0,0
105,-97,0,0,0,0,0,0,0,0,0,-1,1329,1121,0,0
112,-97,0,0,0,0,0,0,0,0,0,-1,1336,1121,0,0
119,-97,0,0,0,0,0,0,0,0,0,-1,1343,1121,0,0
126,-97,0,0,0,0,0,0,0,0,0,-1,1350,1121,0,0
133,-97,0,0,0,0,0,0,0,0,0,-1,1357,1121,0,0
140,-97,0,0,0,0,0,0,0,0,0,-1,1364,1121,0,0
147,-97,0,0,0,0,0,0,0,0,0,-1,1371,1121,0,0
154,-97,0,0,0,0,0,0,0,0,0,-1,1378,1121,0,0
161,-97,0,0,0,0,0,0,0,0,0,-1,1385,1121,0,0
168,-97,0,0,0,0,0,0,0,0,0,-1,1392,1121,0,0
175,-97,0,0,0,0,0,0,0,0,0,-1,1399,1121,0,0
182,-97,0,0,0,0,0,0,0,0,0,-1,1406,1121,0,0
189,-97,0,0,0,0,0,0,0,0,0,-1,1413,1121,0,0
196,-97,0,0,0,0,0,0,0,0,0,-1,1420,1121,0,0
203,-97,0,0,0,0,0,0,0,0,0,-1,1427,1121,0,0
210,-97,0,0,0,0,0,0,0,0,0,-1,1434,1121,0,0
217,-97,0,0,0,0,0,0,0,0,0,-1,1441,1121,0,0
224,-97,0,0,0,0,0,0,0,0,0,-1,1448,1121,0,0
231,-97,0,0,0,0,0,0,0,0,0,-1,1455,1121,0,0
238,-97,0,0,0,0,0,0,0,0,0,-1,1462,1121,0,0
245,-97,0,0,0,0,0,0,0,0,0,-1,1469,1121,0,0
252,-97,0,0,0,0,0,0,0,0,0,-1,1476,1121,0,0
259,-97,0,0,0,0,0,0,0,0,0,-1,1483,1121,0,0
266,-97,0,0,0,0,0,0,0,0,0,-1,1490,1121,0,0
273,-97,0,0,0,0,0,0,0,0,0,-1,1497,1121,0,0
280,-97,0,0,0,0,0,0,0,0,0,-1,1504,1121,0,0
287,-97,0,0,0,0,0,0,0,0,0,-1,1511,1121,0,0
294,-97,0,0,0,0,0,0,0,0,0,-1,1518,1121,0,0
301,-97,0,0,0,0,0,0,0,0,0,-1,1525,1121,0,0
308,-97,0,0,0,0,0,0,0,0,0,-1,1532,1121,0,0
315,-97,0,0,0,0,0,0,0,0,0,-1,1539,1121,0,0
322,-97,0,0,0,0,0,0,0,0,0,-1,1546,1121,0,0
329,-97,0,0,0,0,0,0,0,0,0,-1,1553,1121,0,0
336,-97,0,0,0,0,0,0,0,0,0,-1,1560,1121,0,0
343,-97,0,0,0,0,0,0,0,0,0,-1,1567,1121,0,0
350,-97,0,0,0,0,0,0,0,0,0,-1,1574,1121,0,0
357,-97,0,0,0,0,0,0,0,0,0,-1,1581,1121,0,0
364,-97,0,0,0,0,0,0,0,0,0,-1,1588,1121,0,0
371,-97,0,0,0,0,0,0,0,0,0,-1,1595,1121,0,0
378,-97,0,0,0,0,0,0,0,0,0,-1,1602,1121,0,0
385,-97,0,0,0,0,0,0,0,0,0,-1,1609,1121,0,0
392,-97,0,0,0,0,0,0,0,0,0,-1,1616,1121,0,0
399,-97,0,0,0,0,0,0,0,0,0,-1,1623,1121,0,0
406,-97,0,0,0,0,0,0,0,0,0,-1,1630,1121,0,0
413,-97,0,0,0,0,0,0,0,0,0,-1,1637,1121,0,0
420,-97,0,0,0,0,0,0,0,0,0,-1,1644,1121,0,0
427,-97,0,0,0,0,0,0,0,0,0,-1,1651,1121,0,0
434,-97,0,0,0,0,0,0,0,0,0,-1,1658,1121,0,0
441,-97,0,0,0,0,0,0,0,0,0,-1,1665,1121,0,0
448,-97,0,0,0,0,0,0,0,0,0,-1,1672,1121,0,0
455,-97,0,0,0,0,0,0,0,0,0,-1,1679,1121,0,0
462,-97,0,0,0,0,0,0,0,0,0,-1,1686,1121,0,0
469,-97,0,0,0,0,0,0,0,0,0,-1,1693,1121,0,0
476,-97,0,0,0,0,0,0,0,0,0,-1,1700,1121,0,0
483,-97,0,0,0,0,0,0,0,0,0,-1,1707,1121,0,0
490,-97,0,0,0,0,0,0,0,0,0,-1,1714,1121,0,0
497,-97,0,0,0,0,0,0,0,0,0,-1,1721,1121,0,0
504,-97,0,0,0,0,0,0,0,0,0,-1,1728,1121,0,0
511,-97,0,0,0,0,0,0,0,0,0,-1,1735,1121,0,0
518,-97,0,0,0,0,0,0,0,0,0,-1,1742,1121,0,0
525,-97,0,0,0,0,0,0,0,0,0,-1,1749,1121,0,0
532,-97,0,0,0,0,0,0,0,0,0,-1,1756,1121,0,0
539,-97,0,0,0,0,0,0,0,0,0,-1,1763,1121,0,0
546,-97,0,0,0,0,0,0,0,0,0,-1,1770,1121,0,0
553,-97,0,0,0,0,0,0,0,0,0,-1,1777,1121,0,0
560,-97,0,0,0,0,0,0,0,0,0,-1,1784,1121,0,0
567,-97,0,0,0,0,0,0,0,0,0,-1,1791,1121,0,0
574,-97,0,0,0,0,0,0,0,0,0,-1,1798,1121,0,0
581,-97,0,0,0,0,0,0,0,0,0,-1,1805,1121,0,0
588,-97,0,0,0,0,0,0,0,0,0,-1,1812,1121,0,0
595,-97,0,0,0,0,0,0,0,0,0,-1,1819,1121,0,0
602,-97,0,0,0,0,0,0,0,0,0,-1,1826,1121,0,0
609,-97,0,0,0,0,0,0,0,0,0,-1,1833,1121,0,0
616,-97,0,0,0,0,0,0,0,0,0,-1,1840,1121,0,0
623,-97,0,0,0,0,0,0,0,0,0,-1,1847,1121,0,0
630,-97,0,0,0,0,0,0,0,0,0,-1,1854,1121,0,0
637,-97,0,0,0,0,0,0,0,0,0,-1,1861,1121,0,0
644,-97,44.5323,2.69055,0.00783214,-0.00222454,0.00304207,0.00868074,-0.00307314,0.272038,0.00703883,0.0406791,1868,1121,44.5324,-2.69055
651,-97,44.5042,2.82544,0.00522221,-0.00188957,0.00262822,0.00608808,-0.00275543,0.31825,0.00522525,0.0398717,1875,1121,44.5041,-2.82543
658,-97,44.5627,2.82568,0.00360787,-0.00176274,0.00217551,0.00437853,-0.0025334,0.34045,0.00403772,0.0395142,1882,1121,44.5628,-2.82565
665,-97,44.6102,2.61194,0.00235473,-0.00160667,0.00176713,0.00302845,-0.00228039,0.364237,0.00307518,0.0420167,1889,1121,44.6102,-2.61189
672,-97,44.6748,2.60791,0.00143861,-0.00142456,0.00141508,0.00201995,-0.0020059,0.3898,0.00232433,0.0447086,1896,1121,44.6748,-2.60789
679,-97,44.637,2.86267,0.000576341,-0.00123076,0.00112916,0.00111896,-0.00177338,0.447968,0.00168408,0.0424556,1903,1121,44.637,-2.86264
686,-97,44.5389,3.00793,0,0,0,0,0,0,0,-1,1910,1121,44.5389,-3.00796
693,-97,44.5031,2.77173,-0.000194569,-0.00107566,0.000818454,0.000294373,-0.0015646,0.538503,0.00115378,0.0323251,1917,1121,44.503,-2.77177
700,-97,44.5404,2.77405,-0.000392029,-0.000978061,0.000710855,8.38329e-05,-0.00145392,0.589908,0.000998401,0.0289722,1924,1121,44.5404,-2.77404
707,-97,44.4871,2.69873,-0.000723707,-0.000793589,0.000728177,-2.96338e-05,-0.00148766,0.761425,0.000982046,0.0255811,1931,1121,44.4871,-2.69878
714,-97,44.4163,2.51453,0,0,0,0,0,0,0,-1,1938,1121,44.4163,-2.51455
721,-97,41.7354,6.78772,0,0,0,0,0,0,0,-1,1945,1121,41.7354,-6.78773
728,-97,41.7014,6.60974,-0.00142806,-2.71075e-05,0.000952552,0.000454797,-0.00190996,1.10243,0.0014489,0.0231901,1952,1121,41.7015,-6.60972
735,-97,41.6357,6.27661,-0.00182629,0.000332372,0.00100598,0.000728492,-0.00222241,1.19568,0.00177499,0.0234911,1959,1121,41.6358,-6.27666
742,-97,41.6163,5.98608,-0.00203249,0.000830777,0.00133757,0.0013584,-0.00256011,1.19507,0.00229754,0.019736,1966,1121,41.6164,-5.98611
749,-97,41.6829,5.68555,-0.00166671,0.00173221,0.0014737,0.00228218,-0.00221669,1.21361,0.00259751,0.0214932,1973,1121,41.6829,-5.68549
756,-97,41.7225,5.39734,-0.00114927,0.0037052,0.00154871,0.0041572,-0.00160127,1.28683,0.00343208,0.0165261,1980,1121,41.7226,-5.39736
763,-97,41.6781,5.14978,-0.00057809,0.00684937,0.00138557,0.00709942,-0.000828145,1.39225,0.00503176,0.0126757,1987,1121,41.6781,-5.14983
770,-97,41.6302,4.90393,0.000801514,0.0110849,0.00109408,0.0112,0.000686401,1.46597,0.00724871,0.0115996,1994,1121,41.6302,-4.90396
777,-97,41.6195,4.63525,0.00272961,0.0166781,0.000662439,0.0167095,0.00269822,1.52345,0.0103581,0.016708,2001,1121,41.6195,-4.63523
784,-97,41.5825,4.40625,0.00512325,0.0238218,-4.1527e-05,0.0238219,0.00512315,-1.56858,0.0144789,0.0365823,2008,1121,41.5824,-4.40621
791,-97,41.5515,4.22742,0.00802635,0.0331161,-0.00113202,0.0331671,0.00797538,-1.5258,0.0199905,0.0438077,2015,1121,41.5516,-4.2274
798,-97,41.72,3.98047,0.0114749,0.0450829,-0.00275138,0.0453066,0.0112511,-1.48965,0.0272399,0.0467825,2022,1121,41.7201,-3.98045
805,-97,41.9482,3.78503,0.0149919,0.0602182,-0.00501961,0.0607686,0.0144415,-1.46158,0.0366594,0.044331,2029,1121,41.9482,-3.78498
812,-97,41.7373,3.40491,0.0176538,0.0790827,-0.008082,0.0801282,0.0166082,-1.44215,0.0488334,0.045894,2036,1121,41.7372,-3.40493
-700,-104,0,0,0,0,0,0,0,0,0,-1,524,1128,0,0
-693,-104,-28.8589,1.03101,0,0,0,0,0,0,0,-1,531,1128,-28.8588,-1.03105
-686,-104,-27.6776,-0.377319,0,0,0,0,0,0,0,-1,538,1128,-27.6776,0.37737
-679,-104,-27.8107,0.0427246,0,0,0,0,0,0,0,-1,545,1128,-27.8107,-0.0427492
-672,-104,-27.8041,0.0238037,0,0,0,0,0,0,0,-1,552,1128,-27.8041,-0.0237895
-665,-104,-28.5325,0.15686,0,0,0,0,0,0,0,-1,559,1128,-28.5324,-0.156915
-658,-104,-29.648,0.922729,0,0,0,0,0,0,0,-1,566,1128,-29.648,-0.922769
-651,-104,-29.6111,1.30847,0.00674915,0.0148965,-0.00266068,0.0156884,0.00595723,-1.28151,0.00914467,0.0390031,573,1128,-29.6111,-1.30851
-644,-104,-29.5742,1.72778,0.00455949,0.0101838,-0.00152835,0.0105723,0.00417101,-1.32188,0.00614901,0.0150176,580,1128,-29.5742,-1.72773
-637,-104,-29.5529,2.08679,0.00312538,0.00672431,-0.000942626,0.00695625,0.00289344,-1.32953,0.00403507,0.0114215,587,1128,-29.5529,-2.08675
-630,-104,-29.583,2.37817,0.00217372,0.00393058,-0.000643502,0.00414107,0.00196324,-1.25467,0.00239192,0.0146807,594,1128,-29.583,-2.37816
-623,-104,-29.621,2.76025,0.00184488,0.00174847,-0.000384199,0.00218389,0.00140947,-0.72299,0.00127852,0.0167908,601,1128,-29.621,-2.76024
-616,-104,-29.7789,3.15796,0.00180032,0.000501667,0.000103493,0.00180852,0.000493471,0.079028,0.00107947,0.0214314,608,1128,-29.7789,-3.1579
-609,-104,-29.8904,3.37268,0.00187751,-0.000128262,0.000460804,0.00197831,-0.000229061,0.215354,0.00140148,0.0272864,615,1128,-29.8904,-3.37269
-602,-104,-29.743,3.75708,0.00205607,-0.000372825,0.000599331,0.0021959,-0.00051266,0.229218,0.0016614,0.0251598,622,1128,-29.743,-3.75707
-595,-104,-29.5849,4.19263,0.00189577,-0.000377211,0.000342805,0.00194635,-0.000427787,0.146478,0.00146119,0.0187429,629,1128,-29.5849,-4.19265
-588,-104,-29.5164,4.63464,0,0,0,0,0,0,0,-1,636,1128,-29.5164,-4.63462
-581,-104,-23.9373,2.85864,0,0,0,0,0,0,0,-1,643,1128,-23.9373,-2.85861
-574,-104,-32.7526,1.11218,0,0,0,0,0,0,0,-1,650,1128,-32.7526,-1.11214
-567,-104,-32.684,1.09534,0.000703206,-0.000384166,0.000659095,0.00101392,-0.000694881,0.440528,0.000992292,0.0363867,657,1128,-32.684,-1.09536
-560,-104,-32.6049,1.19836,4.16365e-05,-0.000201781,0.000666589,0.000597536,-0.000757681,0.695101,0.000784254,0.0436874,664,1128,-32.6049,-1.19842
-553,-104,-32.76,1.06946,-0.00141439,4.32989e-05,0.000481581,0.00018803,-0.00155912,1.27885,0.00110743,0.0491863,671,1128,-32.76,-1.0694
-546,-104,-32.5148,1.07544,0,0,0,0,0,0,0,-1,678,1128,-32.5148,-1.0754
-539,-104,-32.7191,0.672607,-0.00671093,0.000306413,0.00010242,0.000307908,-0.00671243,1.55621,0.00458104,0.0416853,685,1128,-32.7191,-0.67257
-532,-104,-32.7213,0.75293,-0.00996122,0.000242062,0.000494438,0.000265966,-0.00998513,1.52249,0.00674715,0.0399194,692,1128,-32.7213,-0.752926
-525,-104,-32.8727,0.984985,-0.0136191,2.63907e-05,0.001288,0.000146902,-0.0137396,1.4775,0.00920912,0.0382907,699,1128,-32.8727,-0.984934
-518,-104,0,0,0,0,0,0,0,0,0,-1,706,1128,0,0
-511,-104,0,0,0,0,0,0,0,0,0,-1,713,1128,0,0
-504,-104,0,0,0,0,0,0,0,0,0,-1,720,1128,0,0
-497,-104,0,0,0,0,0,0,0,0,0,-1,727,1128,0,0
-490,-104,0,0,0,0,0,0,0,0,0,-1,734,1128,0,0
-483,-104,0,0,0,0,0,0,0,0,0,-1,741,1128,0,0
-476,-104,0,0,0,0,0,0,0,0,0,-1,748,1128,0,0
-469,-104,0,0,0,0,0,0,0,0,0,-1,755,1128,0,0
-462,-104,0,0,0,0,0,0,0,0,0,-1,762,1128,0,0
-455,-104,0,0,0,0,0,0,0,0,0,-1,769,1128,0,0
-448,-104,0,0,0,0,0,0,0,0,0,-1,776,1128,0,0
-441,-104,0,0,0,0,0,0,0,0,0,-1,783,1128,0,0
-434,-104,0,0,0,0,0,0,0,0,0,-1,790,1128,0,0
-427,-104,0,0,0,0,0,0,0,0,0,-1,797,1128,0,0
-420,-104,0,0,0,0,0,0,0,0,0,-1,804,1128,0,0
-413,-104,0,0,0,0,0,0,0,0,0,-1,811,1128,0,0
-406,-104,0,0,0,0,0,0,0,0,0,-1,818,1128,0,0
-399,-104,0,0,0,0,0,0,0,0,0,-1,825,1128,0,0
-392,-104,0,0,0,0,0,0,0,0,0,-1,832,1128,0,0
-385,-104,0,0,0,0,0,0,0,0,0,-1,839,1128,0,0
-378,-104,0,0,0,0,0,0,0,0,0,-1,846,1128,0,0
-371,-104,0,0,0,0,0,0,0,0,0,-1,853,1128,0,0
-364,-104,0,0,0,0,0,0,0,0,0,-1,860,1128,0,0
-357,-104,0,0,0,0,0,0,0,0,0,-1,867,1128,0,0
-350,-104,0,0,0,0,0,0,0,0,0,-1,874,1128,0,0
-343,-104,0,0,0,0,0,0,0,0,0,-1,881,1128,0,0
-336,-104,0,0,0,0,0,0,0,0,0,-1,888,1128,0,0
-329,-104,0,0,0,0,0,0,0,0,0,-1,895,1128,0,0
-322,-104,0,0,0,0,0,0,0,0,0,-1,902,1128,0,0
-315,-104,0,0,0,0,0,0,0,0,0,-1,909,1128,0,0
-308,-104,0,0,0,0,0,0,0,0,0,-1,916,1128,0,0
-301,-104,0,0,0,0,0,0,0,0,0,-1,923,1128,0,0
-294,-104,0,0,0,0,0,0,0,0,0,-1,930,1128,0,0
-287,-104,0,0,0,0,0,0,0,0,0,-1,937,1128,0,0
-280,-104,0,0,0,0,0,0,0,0,0,-1,944,1128,0,0
-273,-104,0,0,0,0,0,0,0,0,0,-1,951,1128,0,0
-266,-104,0,0,0,0,0,0,0,0,0,-1,958,1128,0,0
-259,-104,0,0,0,0,0,0,0,0,0,-1,965,1128,0,0
-252,-104,0,0,0,0,0,0,0,0,0,-1,972,1128,0,0
-245,-104,0,0,0,0,0,0,0,0,0,-1,979,1128,0,0
-238,-104,0,0,0,0,0,0,0,0,0,-1,986,1128,0,0
-231,-104,0,0,0,0,0,0,0,0,0,-1,993,1128,0,0
-224,-104,0,0,0,0,0,0,0,0,0,-1,1000,1128,0,0
-217,-104,0,0,0,0,0,0,0,0,0,-1,1007,1128,0,0
-210,-104,0,0,0,0,0,0,0,0,0,-1,1014,1128,0,0
-203,-104,0,0,0,0,0,0,0,0,0,-1,1021,1128,0,0
-196,-104,0,0,0,0,0,0,0,0,0,-1,1028,1128,0,0
-189,-104,0,0,0,0,0,0,0,0,0,-1,1035,1128,0,0
-182,-104,0,0,0,0,0,0,0,0,0,-1,1042,1128,0,0
-175,-104,0,0,0,0,0,0,0,0,0,-1,1049,1128,0,0
-168,-104,0,0,0,0,0,0,0,0,0,-1,1056,1128,0,0
-161,-104,0,0,0,0,0,0,0,0,0,-1,1063,1128,0,0
-154,-104,0,0,0,0,0,0,0,0,0,-1,1070,1128,0,0
-147,-104,0,0,0,0,0,0,0,0,0,-1,1077,1128,0,0
-140,-104,0,0,0,0,0,0,0,0,0,-1,1084,1128,0,0
-133,-104,0,0,0,0,0,0,0,0,0,-1,1091,1128,0,0
-126,-104,0,0,0,0,0,0,0,0,0,-1,1098,1128,0,0
-119,-104,0,0,0,0,0,0,0,0,0,-1,1105,1128,0,0
-112,-104,0,0,0,0,0,0,0,0,0,-1,1112,1128,0,0
-105,-104,0,0,0,0,0,0,0,0,0,-1,1119,1128,0,0
-98,-104,0,0,0,0,0,0,0,0,0,-1,1126,1128,0,0
-91,-104,0,0,0,0,0,0,0,0,0,-1,1133,1128,0,0
-84,-104,0,0,0,0,0,0,0,0,0,-1,1140,1128,0,0
-77,-104,0,0,0,0,0,0,0,0,0,-1,1147,1128,0,0
-70,-104,0,0,0,0,0,0,0,0,0,-1,1154,1128,0,0
-63,-104,0,0,0,0,0,0,0,0,0,-1,1161,1128,0,0
-56,-104,0,0,0,0,0,0,0,0,0,-1,1168,1128,0,0
-49,-104,0,0,0,0,0,0,0,0,0,-1,1175,1128,0,0
-42,-104,0,0,0,0,0,0,0,0,0,-1,1182,1128,0,0
-35,-104,0,0,0,0,0,0,0,0,0,-1,1189,1128,0,0
-28,-104,0,0,0,0,0,0,0,0,0,-1,1196,1128,0,0
-21,-104,0,0,0,0,0,0,0,0,0,-1,1203,1128,0,0
-14,-104,0,0,0,0,0,0,0,0,0,-1,1210,1128,0,0
-7,-104,0,0,0,0,0,0,0,0,0,-1,1217,1128,0,0
0,-104,0,0,0,0,0,0,0,0,0,-1,1224,1128,0,0
7,-104,0,0,0,0,0,0,0,0,0,-1,1231,1128,0,0
14,-104,0,0,0,0,0,0,0,0,0,-1,1238,1128,0,0
21,-104,0,0,0,0,0,0,0,0,0,-1,1245,1128,0,0
28,-104,0,0,0,0,0,0,0,0,0,-1,1252,1128,0,0
35,-104,0,0,0,0,0,0,0,0,0,-1,1259,1128,0,0
42,-104,0,0,0,0,0,0,0,0,0,-1,1266,1128,0,0
49,-104,0,0,0,0,0,0,0,0,0,-1,1273,1128,0,0
56,-104,0,0,0,0,0,0,0,0,0,-1,1280,1128,0,0
63,-104,0,0,0,0,0,0,0,0,0,-1,1287,1128,0,0
70,-104,0,0,0,0,0,0,0,0,0,-1,1294,1128,0,0
77,-104,0,0,0,0,0,0,0,0,0,-1,1301,1128,0,0
84,-104,0,0,0,0,0,0,0,0,0,-1,1308,1128,0,0
91,-104,0,0,0,0,0,0,0,0,0,-1,1315,1128,0,0
98,-104,0,0,0,0,0,0,0,0,0,-1,1322,1128,0,0
105,-104,0,0,0,0,0,0,0,0,0,-1,1329,1128,0,0
112,-104,0,0,0,0,0,0,0,0,0,-1,1336,1128,0,0
119,-104,0,0,0,0,0,0,0,0,0,-1,1343,1128,0,0
126,-104,0,0,0,0,0,0,0,0,0,-1,1350,1128,0,0
133,-104,0,0,0,0,0,0,0,0,0,-1,1357,1128,0,0
140,-104,0,0,0,0,0,0,0,0,0,-1,1364,1128,0,0
147,-104,0,0,0,0,0,0,0,0,0,-1,1371,1128,0,0
154,-104,0,0,0,0,0,0,0,0,0,-1,1378,1128,0,0
161,-104,0,0,0,0,0,0,0,0,0,-1,1385,1128,0,0
168,-104,0,0,0,0,0,0,0,0,0,-1,1392,1128,0,0
175,-104,0,0,0,0,0,0,0,0,0,-1,1399,1128,0,0
182,-104,0,0,0,0,0,0,0,0,0,-1,1406,1128,0,0
189,-104,0,0,0,0,0,0,0,0,0,-1,1413,1128,0,0
196,-104,0,0,0,0,0,0,0,0,0,-1,1420,1128,0,0
203,-104,0,0,0,0,0,0,0,0,0,-1,1427,1128,0,0
210,-104,0,0,0,0,0,0,0,0,0,-1,1434,1128,0,0
217,-104,0,0,0,0,0,0,0,0,0,-1,1441,1128,0,0
224,-104,0,0,0,0,0,0,0,0,0,-1,1448,1128,0,0
231,-104,0,0,0,0,0,0,0,0,0,-1,1455,1128,0,0
238,-104,0,0,0,0,0,0,0,0,0,-1,1462,1128,0,0
245,-104,0,0,0,0,0,0,0,0,0,-1,1469,1128,0,0
252,-104,0,0,0,0,0,0,0,0,0,-1,1476,1128,0,0
259,-104,0,0,0,0,0,0,0,0,0,-1,1483,1128,0,0
266,-104,0,0,0,0,0,0,0,0,0,-1,1490,1128,0,0
273,-104,0,0,0,0,0,0,0,0,0,-1,1497,1128,0,0
280,-104,0,0,0,0,0,0,0,0,0,-1,1504,1128,0,0
287,-104,0,0,0,0,0,0,0,0,0,-1,1511,1128,0,0
294,-104,0,0,0,0,0,0,0,0,0,-1,1518,1128,0,0
301,-104,0,0,0,0,0,0,0,0,0,-1,1525,1128,0,0
308,-104,0,0,0,0,0,0,0,0,0,-1,1532,1128,0,0
315,-104,0,0,0,0,0,0,0,0,0,-1,1539,1128,0,0
322,-104,0,0,0,0,0,0,0,0,0,-1,1546,1128,0,0
329,-104,0,0,0,0,0,0,0,0,0,-1,1553,1128,0,0
336,-104,0,0,0,0,0,0,0,0,0,-1,1560,1128,0,0
343,-104,0,0,0,0,0,0,0,0,0,-1,1567,1128,0,0
350,-104,0,0,0,0,0,0,0,0,0,-1,1574,1128,0,0
357,-104,0,0,0,0,0,0,0,0,0,-1,1581,1128,0,0
364,-104,0,0,0,0,0,0,0,0,0,-1,1588,1128,0,0
371,-104,0,0,0,0,0,0,0,0,0,-1,1595,1128,0,0
378,-104,0,0,0,0,0,0,0,0,0,-1,1602,1128,0,0
385,-104,0,0,0,0,0,0,0,0,0,-1,1609,1128,0,0
392,-104,0,0,0,0,0,0,0,0,0,-1,1616,1128,0,0
399,-104,0,0,0,0,0,0,0,0,0,-1,1623,1128,0,0
406,-104,0,0,0,0,0,0,0,0,0,-1,1630,1128,0,0
413,-104,0,0,0,0,0,0,0,0,0,-1,1637,1128,0,0
420,-104,0,0,0,0,0,0,0,0,0,-1,1644,1128,0,0
427,-104,0,0,0,0,0,0,0,0,0,-1,1651,1128,0,0
434,-104,0,0,0,0,0,0,0,0,0,-1,1658,1128,0,0
441,-104,0,0,0,0,0,0,0,0,0,-1,1665,1128,0,0
448,-104,0,0,0,0,0,0,0,0,0,-1,1672,1128,0,0
455,-104,0,0,0,0,0,0,0,0,0,-1,1679,1128,0,0
462,-104,0,0,0,0,0,0,0,0,0,-1,1686,1128,0,0
469,-104,0,0,0,0,0,0,0,0,0,-1,1693,1128,0,0
476,-104,0,0,0,0,0,0,0,0,0,-1,1700,1128,0,0
483,-104,0,0,0,0,0,0,0,0,0,-1,1707,1128,0,0
490,-104,0,0,0,0,0,0,0,0,0,-1,1714,1128,0,0
497,-104,0,0,0,0,0,0,0,0,0,-1,1721,1128,0,0
504,-104,0,0,0,0,0,0,0,0,0,-1,1728,1128,0,0
511,-104,0,0,0,0,0,0,0,0,0,-1,1735,1128,0,0
518,-104,0,0,0,0,0,0,0,0,0,-1,1742,1128,0,0
525,-104,0,0,0,0,0,0,0,0,0,-1,1749,1128,0,0
532,-104,0,0,0,0,0,0,0,0,0,-1,1756,1128,0,0
539,-104,0,0,0,0,0,0,0,0,0,-1,1763,1128,0,0
546,-104,0,0,0,0,0,0,0,0,0,-1,1770,1128,0,0
553,-104,0,0,0,0,0,0,0,0,0,-1,1777,1128,0,0
560,-104,0,0,0,0,0,0,0,0,0,-1,1784,1128,0,0
567,-104,0,0,0,0,0,0,0,0,0,-1,1791,1128,0,0
574,-104,0,0,0,0,0,0,0,0,0,-1,1798,1128,0,0
581,-104,0,0,0,0,0,0,0,0,0,-1,1805,1128,0,0
588,-104,0,0,0,0,0,0,0,0,0,-1,1812,1128,0,0
595,-104,0,0,0,0,0,0,0,0,0,-1,1819,1128,0,0
602,-104,0,0,0,0,0,0,0,0,0,-1,1826,1128,0,0
609,-104,0,0,0,0,0,0,0,0,0,-1,1833,1128,0,0
616,-104,0,0,0,0,0,0,0,0,0,-1,1840,1128,0,0
623,-104,0,0,0,0,0,0,0,0,0,-1,1847,1128,0,0
630,-104,0,0,0,0,0,0,0,0,0,-1,1854,1128,0,0
637,-104,0,0,0,0,0,0,0,0,0,-1,1861,1128,0,0
644,-104,44.4581,2.88623,0.00767305,-0.00299918,0.00309418,0.00850525,-0.00383138,0.262738,0.00729095,0.0390015,1868,1128,44.4581,-2.88619
651,-104,44.5796,2.93616,0.00507697,-0.00242788,0.0027331,0.0059668,-0.00331771,0.314752,0.00543266,0.0400423,1875,1128,44.5796,-2.9362
658,-104,44.6732,2.6908,0.00348144,-0.00214884,0.00229515,0.00429848,-0.00296588,0.341997,0.00421753,0.0411077,1882,1128,44.6733,-2.69079
665,-104,44.5908,2.57617,0.00224837,-0.00187825,0.00184845,0.00295527,-0.00258515,0.365264,0.00320114,0.0437657,1889,1128,44.5908,-2.57615
672,-104,44.5659,2.68555,0.00136597,-0.00161829,0.00142302,0.00193574,-0.00218806,0.380848,0.00238237,0.0453724,1896,1128,44.5659,-2.68559
679,-104,44.5217,2.82385,0.000525764,-0.0013593,0.00106701,0.00100692,-0.00184046,0.423632,0.00166725,0.0423417,1903,1128,44.5217,-2.8239
686,-104,44.4005,2.69946,1.14035e-05,-0.00123307,0.000833213,0.000429082,-0.00165075,0.464676,0.00126796,0.0376812,1910,1128,44.4005,-2.69942
693,-104,44.51,2.77161,-0.000202911,-0.00107816,0.000664033,0.000154733,-0.00143581,0.494045,0.00101273,0.0345081,1917,1128,44.51,-2.77159
700,-104,44.5581,2.74951,-0.000412013,-0.000944634,0.000528878,-8.61806e-05,-0.00127047,0.552161,0.000819762,0.0282197,1924,1128,44.5581,-2.74952
707,-104,44.4673,2.61108,-0.00076262,-0.000743598,0.000523294,-0.000229729,-0.00127649,0.794485,0.000785693,0.0476871,1931,1128,44.4673,-2.61115
714,-104,44.3529,2.3927,0,0,0,0,0,0,0,-1,1938,1128,44.3529,-2.39275
721,-104,41.3888,6.8656,0,0,0,0,0,0,0,-1,1945,1128,41.3888,-6.86566
728,-104,41.473,6.52368,-0.00139624,5.17437e-05,0.000735911,0.000360094,-0.00170459,1.17401,0.00127351,0.023855,1952,1128,41.473,-6.52363
735,-104,41.4664,6.19019,-0.0018216,0.000413833,0.000848209,0.000699237,-0.00210701,1.24622,0.00168677,0.0265557,1959,1128,41.4664,-6.19016
742,-104,41.3447,5.96753,-0.00210024,0.000942065,0.00129306,0.00141739,-0.00257556,1.21853,0.00233743,0.0177466,1966,1128,41.3447,-5.96753
749,-104,41.332,5.70105,-0.00171064,0.00186277,0.00153464,0.00243136,-0.00227923,1.21597,0.00272014,0.0192653,1973,1128,41.3321,-5.70104
756,-104,41.3607,5.40735,-0.00108478,0.0039805,0.00182603,0.00457014,-0.00167442,1.25846,0.00373227,0.0177479,1980,1128,41.3608,-5.40731
763,-104,41.3379,5.14038,-0.000340168,0.00761618,0.00192877,0.00805909,-0.000783081,1.34507,0.00565187,0.0154822,1987,1128,41.3379,-5.14033
770,-104,41.3074,4.88843,0.00127405,0.0124053,0.00199414,0.0127517,0.000927588,1.39877,0.00820945,0.0138289,1994,1128,41.3074,-4.8884
777,-104,41.2351,4.55237,0.00348885,0.0187467,0.00197534,0.0189983,0.00323727,1.44411,0.0117362,0.0234619,2001,1128,41.2351,-4.55235
784,-104,41.0652,4.35193,0.00629788,0.0270555,0.00178929,0.0272086,0.00614477,1.48544,0.0164773,0.0405589,2008,1128,41.0651,-4.35196
791,-104,41.2029,4.08057,0.00980363,0.0381149,0.00136672,0.0381808,0.00973781,1.52267,0.0229085,0.0440057,2015,1128,41.2029,-4.08061
798,-104,41.5317,3.56641,0.0140567,0.0525931,0.000598804,0.0526024,0.0140474,1.55526,0.0314496,0.0436314,2022,1128,41.5316,-3.56647
805,-104,42.2568,3.46851,0.0186067,0.0712026,-0.000594006,0.0712093,0.0186,-1.5595,0.042647,0.0464899,2029,1128,42.2568,-3.46848
812,-104,41.7048,3.16223,0.0225819,0.0947885,-0.00232207,0.0948631,0.0225073,-1.53868,0.0572343,0.0475769,2036,1128,41.7047,-3.16226
-700,-111,0,0,0,0,0,0,0,0,0,-1,524,1135,0,0
-693,-111,-27.9065,1.65784,0,0,0,0,0,0,0,-1,531,1135,-27.9065,-1.65781
-686,-111,-27.2595,0.964355,0,0,0,0,0,0,0,-1,538,1135,-27.2595,-0.964311
-679,-111,-26.9161,3.03308,0,0,0,0,0,0,0,-1,545,1135,-26.9161,-3.03313
-672,-111,-27.1099,-0.122803,0,0,0,0,0,0,0,-1,552,1135,-27.1099,0.122821
-665,-111,-28.3611,0.18335,0,0,0,0,0,0,0,-1,559,1135,-28.3611,-0.183375
-658,-111,-29.374,1.68933,0,0,0,0,0,0,0,-1,566,1135,-29.374,-1.68935
-651,-111,-29.2274,1.20325,0,0,0,0,0,0,0,-1,573,1135,-29.2274,-1.20319
-644,-111,-29.1273,1.69495,0.00640562,0.0104132,-0.00197513,0.011223,0.00559582,-1.1817,0.00647961,0.0255531,580,1135,-29.1273,-1.69496
-637,-111,-29.1931,2.07202,0.00462479,0.00673057,-0.0012133,0.00728412,0.00407123,-1.14276,0.00421521,0.0103158,587,1135,-29.1931,-2.07203
-630,-111,-29.225,2.35413,0.00324356,0.00393707,-0.000728261,0.00439691,0.00278372,-1.00759,0.00256837,0.0189781,594,1135,-29.225,-2.35412
-623,-111,-29.2466,2.74146,0.00246663,0.00180618,-0.000340371,0.00261064,0.00166217,-0.400264,0.00152591,0.016608,601,1135,-29.2466,-2.74145
-616,-111,-29.407,3.08301,0.00220288,0.000583313,0.000230205,0.00223496,0.000551227,0.138487,0.00134444,0.0176117,608,1135,-29.407,-3.08305
-609,-111,-29.6221,3.37769,0.00216147,-3.19596e-05,0.00062026,0.00232472,-0.000195207,0.257356,0.00161881,0.0284681,615,1135,-29.6222,-3.37769
-602,-111,-29.5421,3.76672,0.00221575,-0.000192728,0.000757584,0.00243423,-0.000411206,0.28077,0.00177583,0.033281,622,1135,-29.5421,-3.76669
-595,-111,-29.3221,4.18933,0.00198528,-0.000164382,0.000473221,0.00208484,-0.000263945,0.207369,0.00148571,0.0173946,629,1135,-29.3222,-4.1893
-588,-111,-29.0771,4.68506,0,0,0,0,0,0,0,-1,636,1135,-29.0771,-4.68509
-581,-111,-21.0555,3.14551,0,0,0,0,0,0,0,-1,643,1135,-21.0555,-3.14548
-574,-111,-32.7549,1.14612,0,0,0,0,0,0,0,-1,650,1135,-32.7549,-1.14618
-567,-111,-32.6828,1.10181,0.00100392,-0.000277697,0.000774652,0.00136846,-0.000642235,0.439837,0.00118585,0.0397735,657,1135,-32.6828,-1.10184
-560,-111,-32.5877,1.17554,0.000507609,-0.000191127,0.000804568,0.00103539,-0.000718907,0.580567,0.00101832,0.0425443,664,1135,-32.5877,-1.17554
-553,-111,-32.8053,1.08679,-0.000777382,-5.78581e-05,0.000628849,0.000306866,-0.00114211,1.04522,0.000881676,0.0475702,671,1135,-32.8053,-1.0868
-546,-111,-32.8103,0.897095,-0.00288012,7.2928e-05,0.000393527,0.00012447,-0.00293167,1.44056,0.00199723,0.0438627,678,1135,-32.8103,-0.897056
-539,-111,-32.7111,0.751831,-0.00574285,1.53734e-05,0.000365039,3.84224e-05,-0.0057659,1.50774,0.00385681,0.0424756,685,1135,-32.7111,-0.751779
-532,-111,-32.7517,0.974731,-0.00884924,-7.3759e-05,0.000888737,1.53431e-05,-0.00893834,1.47087,0.00596401,0.0412764,692,1135,-32.7517,-0.974752
-525,-111,-32.9738,1.17896,-0.0123349,-0.00023674,0.00179205,2.3128e-05,-0.0125948,1.42679,0.00840425,0.0399515,699,1135,-32.9738,-1.17895
-518,-111,0,0,0,0,0,0,0,0,0,-1,706,1135,0,0
-511,-111,0,0,0,0,0,0,0,0,0,-1,713,1135,0,0
-504,-111,0,0,0,0,0,0,0,0,0,-1,720,1135,0,0
-497,-111,0,0,0,0,0,0,0,0,0,-1,727,1135,0,0
-490,-111,0,0,0,0,0,0,0,0,0,-1,734,1135,0,0
-483,-111,0,0,0,0,0,0,0,0,0,-1,741,1135,0,0
-476,-111,0,0,0,0,0,0,0,0,0,-1,748,1135,0,0
-469,-111,0,0,0,0,0,0,0,0,0,-1,755,1135,0,0
-462,-111,0,0,0,0,0,0,0,0,0,-1,762,1135,0,0
-455,-111,0,0,0,0,0,0,0,0,0,-1,769,1135,0,0
-448,-111,0,0,0,0,0,0,0,0,0,-1,776,1135,0,0
-441,-111,0,0,0,0,0,0,0,0,0,-1,783,1135,0,0
-434,-111,0,0,0,0,0,0,0,0,0,-1,790,1135,0,0
-427,-111,0,0,0,0,0,0,0,0,0,-1,797,1135,0,0
-420,-111,0,0,0,0,0,0,0,0,0,-1,804,1135,0,0
-413,-111,0,0,0,0,0,0,0,0,0,-1,811,1135,0,0
-406,-111,0,0,0,0,0,0,0,0,0,-1,818,1135,0,0
-399,-111,0,0,0,0,0,0,0,0,0,-1,825,1135,0,0
-392,-111,0,0,0,0,0,0,0,0,0,-1,832,1135,0,0
-385,-111,0,0,0,0,0,0,0,0,0,-1,839,1135,0,0
-378,-111,0,0,0,0,0,0,0,0,0,-1,846,1135,0,0
-371,-111,0,0,0,0,0,0,0,0,0,-1,853,1135,0,0
-364,-111,0,0,0,0,0,0,0,0,0,-1,860,1135,0,0
-357,-111,0,0,0,0,0,0,0,0,0,-1,867,1135,0,0
-350,-111,0,0,0,0,0,0,0,0,0,-1,874,1135,0,0
-343,-111,0,0,0,0,0,0,0,0,0,-1,881,1135,0,0
-336,-111,0,0,0,0,0,0,0,0,0,-1,888,1135,0,0
-329,-111,0,0,0,0,0,0,0,0,0,-1,895,1135,0,0
-322,-111,0,0,0,0,0,0,0,0,0,-1,902,1135,0,0
-315,-111,0,0,0,0,0,0,0,0,0,-1,909,1135,0,0
-308,-111,0,0,0,0,0,0,0,0,0,-1,916,1135,0,0
-301,-111,0,0,0,0,0,0,0,0,0,-1,923,1135,0,0
-294,-111,0,0,0,0,0,0,0,0,0,-1,930,1135,0,0
-287,-111,0,0,0,0,0,0,0,0,0,-1,937,1135,0,0
-280,-111,0,0,0,0,0,0,0,0,0,-1,944,1135,0,0
-273,-111,0,0,0,0,0,0,0,0,0,-1,951,1135,0,0
-266,-111,0,0,0,0,0,0,0,0,0,-1,958,1135,0,0
-259,-111,0,0,0,0,0,0,0,0,0,-1,965,1135,0,0
-252,-111,0,0,0,0,0,0,0,0,0,-1,972,1135,0,0
-245,-111,0,0,0,0,0,0,0,0,0,-1,979,1135,0,0
-238,-111,0,0,0,0,0,0,0,0,0,-1,986,1135,0,0
-231,-111,0,0,0,0,0,0,0,0,0,-1,993,1135,0,0
-224,-111,0,0,0,0,0,0,0,0,0,-1,1000,1135,0,0
-217,-111,0,0,0,0,0,0,0,0,0,-1,1007,1135,0,0
-210,-111,0,0,0,0,0,0,0,0,0,-1,1014,1135,0,0
-203,-111,0,0,0,0,0,0,0,0,0,-1,1021,1135,0,0
-196,-111,0,0,0,0,0,0,0,0,0,-1,1028,1135,0,0
-189,-111,0,0,0,0,0,0,0,0,0,-1,1035,1135,0,0
-182,-111,0,0,0,0,0,0,0,0,0,-1,1042,1135,0,0
-175,-111,0,0,0,0,0,0,0,0,0,-1,1049,1135,0,0
-168,-111,0,0,0,0,0,0,0,0,0,-1,1056,1135,0,0
-161,-111,0,0,0,0,0,0,0,0,0,-1,1063,1135,0,0
-154,-111,0,0,0,0,0,0,0,0,0,-1,1070,1135,0,0
-147,-111,0,0,0,0,0,0,0,0,0,-1,1077,1135,0,0
-140,-111,0,0,0,0,0,0,0,0,0,-1,1084,1135,0,0
-133,-111,0,0,0,0,0,0,0,0,0,-1,1091,1135,0,0
-126,-111,0,0,0,0,0,0,0,0,0,-1,1098,1135,0,0
-119,-111,0,0,0,0,0,0,0,0,0,-1,1105,1135,0,0
-112,-111,0,0,0,0,0,0,0,0,0,-1,1112,1135,0,0
-105,-111,0,0,0,0,0,0,0,0,0,-1,1119,1135,0,0
-98,-111,0,0,0,0,0,0,0,0,0,-1,1126,1135,0,0
-91,-111,0,0,0,0,0,0,0,0,0,-1,1133,1135,0,0
-84,-111,0,0,0,0,0,0,0,0,0,-1,1140,1135,0,0
-77,-111,0,0,0,0,0,0,0,0,0,-1,1147,1135,0,0
-70,-111,0,0,0,0,0,0,0,0,0,-1,1154,1135,0,0
-63,-111,0,0,0,0,0,0,0,0,0,-1,1161,1135,0,0
-56,-111,0,0,0,0,0,0,0,0,0,-1,1168,1135,0,0
-49,-111,0,0,0,0,0,0,0,0,0,-1,1175,1135,0,0
-42,-111,0,0,0,0,0,0,0,0,0,-1,1182,1135,0,0
-35,-111,0,0,0,0,0,0,0,0,0,-1,1189,1135,0,0
-28,-111,0,0,0,0,0,0,0,0,0,-1,1196,1135,0,0
-21,-111,0,0,0,0,0,0,0,0,0,-1,1203,1135,0,0
-14,-111,0,0,0,0,0,0,0,0,0,-1,1210,1135,0,0
-7,-111,0,0,0,0,0,0,0,0,0,-1,1217,1135,0,0
0,-111,0,0,0,0,0,0,0,0,0,-1,1224,1135,0,0
7,-111,0,0,0,0,0,0,0,0,0,-1,1231,1135,0,0
14,-111,0,0,0,0,0,0,0,0,0,-1,1238,1135,0,0
21,-111,0,0,0,0,0,0,0,0,0,-1,1245,1135,0,0
28,-111,0,0,0,0,0,0,0,0,0,-1,1252,1135,0,0
35,-111,0,0,0,0,0,0,0,0,0,-1,1259,1135,0,0
42,-111,0,0,0,0,0,0,0,0,0,-1,1266,1135,0,0
49,-111,0,0,0,0,0,0,0,0,0,-1,1273,1135,0,0
56,-111,0,0,0,0,0,0,0,0,0,-1,1280,1135,0,0
63,-111,0,0,0,0,0,0,0,0,0,-1,1287,1135,0,0
70,-111,0,0,0,0,0,0,0,0,0,-1,1294,1135,0,0
77,-111,0,0,0,0,0,0,0,0,0,-1,1301,1135,0,0
84,-111,0,0,0,0,0,0,0,0,0,-1,1308,1135,0,0
91,-111,0,0,0,0,0,0,0,0,0,-1,1315,1135,0,0
98,-111,0,0,0,0,0,0,0,0,0,-1,1322,1135,0,0
105,-111,0,0,0,0,0,0,0,0,0,-1,1329,1135,0,0
112,-111,0,0,0,0,0,0,0,0,0,-1,1336,1135,0,0
119,-111,0,0,0,0,0,0,0,0,0,-1,1343,1135,0,0
126,-111,0,0,0,0,0,0,0,0,0,-1,1350,1135,0,0
133,-111,0,0,0,0,0,0,0,0,0,-1,1357,1135,0,0
140,-111,0,0,0,0,0,0,0,0,0,-1,1364,1135,0,0
147,-111,0,0,0,0,0,0,0,0,0,-1,1371,1135,0,0
154,-111,0,0,0,0,0,0,0,0,0,-1,1378,1135,0,0
161,-111,0,0,0,0,0,0,0,0,0,-1,1385,1135,0,0
168,-111,0,0,0,0,0,0,0,0,0,-1,1392,1135,0,0
175,-111,0,0,0,0,0,0,0,0,0,-1,1399,1135,0,0
182,-111,0,0,0,0,0,0,0,0,0,-1,1406,1135,0,0
189,-111,0,0,0,0,0,0,0,0,0,-1,1413,1135,0,0
196,-111,0,0,0,0,0,0,0,0,0,-1,1420,1135,0,0
203,-111,0,0,0,0,0,0,0,0,0,-1,1427,1135,0,0
210,-111,0,0,0,0,0,0,0,0,0,-1,1434,1135,0,0
217,-111,0,0,0,0,0,0,0,0,0,-1,1441,1135,0,0
224,-111,0,0,0,0,0,0,0,0,0,-1,1448,1135,0,0
231,-111,0,0,0,0,0,0,0,0,0,-1,1455,1135,0,0
238,-111,0,0,0,0,0,0,0,0,0,-1,1462,1135,0,0
245,-111,0,0,0,0,0,0,0,0,0,-1,1469,1135,0,0
252,-111,0,0,0,0,0,0,0,0,0,-1,1476,1135,0,0
259,-111,0,0,0,0,0,0,0,0,0,-1,1483,1135,0,0
266,-111,0,0,0,0,0,0,0,0,0,-1,1490,1135,0,0
273,-111,0,0,0,0,0,0,0,0,0,-1,1497,1135,0,0
280,-111,0,0,0,0,0,0,0,0,0,-1,1504,1135,0,0
287,-111,0,0,0,0,0,0,0,0,0,-1,1511,1135,0,0
294,-111,0,0,0,0,0,0,0,0,0,-1,1518,1135,0,0
301,-111,0,0,0,0,0,0,0,0,0,-1,1525,1135,0,0
308,-111,0,0,0,0,0,0,0,0,0,-1,1532,1135,0,0
315,-111,0,0,0,0,0,0,0,0,0,-1,1539,1135,0,0
322,-111,0,0,0,0,0,0,0,0,0,-1,1546,1135,0,0
329,-111,0,0,0,0,0,0,0,0,0,-1,1553,1135,0,0
336,-111,0,0,0,0,0,0,0,0,0,-1,1560,1135,0,0
343,-111,0,0,0,0,0,0,0,0,0,-1,1567,1135,0,0
350,-111,0,0,0,0,0,0,0,0,0,-1,1574,1135,0,0
357,-111,0,0,0,0,0,0,0,0,0,-1,1581,1135,0,0
364,-111,0,0,0,0,0,0,0,0,0,-1,1588,1135,0,0
371,-111,0,0,0,0,0,0,0,0,0,-1,1595,1135,0,0
378,-111,0,0,0,0,0,0,0,0,0,-1,1602,1135,0,0
385,-111,0,0,0,0,0,0,0,0,0,-1,1609,1135,0,0
392,-111,0,0,0,0,0,0,0,0,0,-1,1616,1135,0,0
399,-111,0,0,0,0,0,0,0,0,0,-1,1623,1135,0,0
406,-111,0,0,0,0,0,0,0,0,0,-1,1630,1135,0,0
413,-111,0,0,0,0,0,0,0,0,0,-1,1637,1135,0,0
420,-111,0,0,0,0,0,0,0,0,0,-1,1644,1135,0,0
427,-111,0,0,0,0,0,0,0,0,0,-1,1651,1135,0,0
434,-111,0,0,0,0,0,0,0,0,0,-1,1658,1135,0,0
441,-111,0,0,0,0,0,0,0,0,0,-1,1665,1135,0,0
448,-111,0,0,0,0,0,0,0,0,0,-1,1672,1135,0,0
455,-111,0,0,0,0,0,0,0,0,0,-1,1679,1135,0,0
462,-111,0,0,0,0,0,0,0,0,0,-1,1686,1135,0,0
469,-111,0,0,0,0,0,0,0,0,0,-1,1693,1135,0,0
476,-111,0,0,0,0,0,0,0,0,0,-1,1700,1135,0,0
483,-111,0,0,0,0,0,0,0,0,0,-1,1707,1135,0,0
490,-111,0,0,0,0,0,0,0,0,0,-1,1714,1135,0,0
497,-111,0,0,0,0,0,0,0,0,0,-1,1721,1135,0,0
504,-111,0,0,0,0,0,0,0,0,0,-1,1728,1135,0,0
511,-111,0,0,0,0,0,0,0,0,0,-1,1735,1135,0,0
518,-111,0,0,0,0,0,0,0,0,0,-1,1742,1135,0,0
525,-111,0,0,0,0,0,0,0,0,0,-1,1749,1135,0,0
532,-111,0,0,0,0,0,0,0,0,0,-1,1756,1135,0,0
539,-111,0,0,0,0,0,0,0,0,0,-1,1763,1135,0,0
546,-111,0,0,0,0,0,0,0,0,0,-1,1770,1135,0,0
553,-111,0,0,0,0,0,0,0,0,0,-1,1777,1135,0,0
560,-111,0,0,0,0,0,0,0,0,0,-1,1784,1135,0,0
567,-111,0,0,0,0,0,0,0,0,0,-1,1791,1135,0,0
574,-111,0,0,0,0,0,0,0,0,0,-1,1798,1135,0,0
581,-111,0,0,0,0,0,0,0,0,0,-1,1805,1135,0,0
588,-111,0,0,0,0,0,0,0,0,0,-1,1812,1135,0,0
595,-111,0,0,0,0,0,0,0,0,0,-1,1819,1135,0,0
602,-111,0,0,0,0,0,0,0,0,0,-1,1826,1135,0,0
609,-111,0,0,0,0,0,0,0,0,0,-1,1833,1135,0,0
616,-111,0,0,0,0,0,0,0,0,0,-1,1840,1135,0,0
623,-111,0,0,0,0,0,0,0,0,0,-1,1847,1135,0,0
630,-111,0,0,0,0,0,0,0,0,0,-1,1854,1135,0,0
637,-111,0,0,0,0,0,0,0,0,0,-1,1861,1135,0,0
644,-111,44.3512,2.94543,0.00759953,-0.00384994,0.00250818,0.00812489,-0.00437529,0.20647,0.00732441,0.0412895,1868,1135,44.3512,-2.94547
651,-111,44.3799,2.84998,0.00502636,-0.0030172,0.00238318,0.00567943,-0.00367028,0.267469,0.00543944,0.0414912,1875,1135,44.3798,-2.84996
658,-111,44.8302,2.58386,0.00344341,-0.00252126,0.00210252,0.00411003,-0.00318789,0.307034,0.00422465,0.0434983,1882,1135,44.8302,-2.58383
665,-111,44.7753,2.62048,0.00222948,-0.00207353,0.00173974,0.00284486,-0.00268892,0.339987,0.00319535,0.0459294,1889,1135,44.7752,-2.62051
672,-111,44.5275,2.80017,0.00137564,-0.00168131,0.00134855,0.0018855,-0.00219118,0.36147,0.00235587,0.0467131,1896,1135,44.5275,-2.80021
679,-111,44.3308,2.8053,0.000540007,-0.00130381,0.00099625,0.000975459,-0.00173927,0.412067,0.00158789,0.0420866,1903,1135,44.3308,-2.80532
686,-111,44.3685,2.76111,6.21891e-06,-0.00112309,0.000757816,0.000386615,-0.00150349,0.465217,0.00115301,0.0379746,1910,1135,44.3685,-2.76105
693,-111,44.4825,2.81995,-0.000242143,-0.000910903,0.000585367,9.76166e-05,-0.00125066,0.5259,0.000868146,0.0373208,1917,1135,44.4825,-2.81996
700,-111,44.5488,2.73962,-0.000493816,-0.000759526,0.00043804,-0.000168927,-0.00108442,0.63816,0.000673731,0.0302503,1924,1135,44.5488,-2.73957
707,-111,44.4661,2.61523,0,0,0,0,0,0,0,-1,1931,1135,44.4661,-2.6152
714,-111,39.0695,6.81152,0,0,0,0,0,0,0,-1,1938,1135,39.0694,-6.81152
721,-111,41.0449,6.9469,0,0,0,0,0,0,0,-1,1945,1135,41.0449,-6.9469
728,-111,41.1426,6.57202,-0.00154658,0.000195842,0.000610562,0.00038849,-0.00173922,1.26516,0.00130835,0.0244351,1952,1135,41.1425,-6.57204
735,-111,41.1284,6.29456,-0.00200969,0.000491476,0.000761717,0.000705191,-0.00222341,1.29726,0.00176494,0.0235417,1959,1135,41.1284,-6.29454
742,-111,41.0649,6.01526,-0.00237551,0.000985726,0.00129272,0.00142539,-0.00281517,1.24296,0.00249173,0.0143632,1966,1135,41.0649,-6.01523
749,-111,41.0385,5.70776,-0.00201991,0.00186838,0.0016332,0.00246333,-0.00261486,1.22145,0.00293233,0.0163699,1973,1135,41.0385,-5.70782
756,-111,41.0244,5.40601,-0.00133123,0.0040613,0.00208465,0.0047732,-0.00204313,1.24172,0.00403926,0.0167544,1980,1135,41.0244,-5.40603
763,-111,41.0223,5.13086,-0.000459868,0.00798667,0.00239984,0.00862089,-0.00109409,1.31243,0.00614451,0.0143219,1987,1135,41.0223,-5.1308
770,-111,41.0226,4.8175,0.00129408,0.013083,0.00273977,0.0136886,0.00068846,1.35325,0.00890514,0.0123726,1994,1135,41.0226,-4.81749
777,-111,40.8627,4.44861,0.00367296,0.019849,0.00303755,0.0204006,0.00312137,1.39116,0.0126885,0.0253708,2001,1135,40.8627,-4.44863
784,-111,40.6516,4.09412,0.00673624,0.0289013,0.0032595,0.0293707,0.00626686,1.42777,0.0178618,0.0434519,2008,1135,40.6515,-4.0941
791,-111,40.4424,3.77173,0,0,0,0,0,0,0,-1,2015,1135,40.4423,-3.77168
798,-111,40.377,3.65076,0.0154236,0.0573168,0.00331196,0.057577,0.0151634,1.49239,0.0344608,0.0428031,2022,1135,40.3771,-3.65074
805,-111,42.6208,3.47278,0.0207349,0.0783295,0.00304434,0.07849,0.0205744,1.51813,0.0469946,0.0446267,2029,1135,42.6208,-3.47284
812,-111,41.8762,3.10718,0.0257672,0.105244,0.0025443,0.105326,0.0256859,1.53883,0.0634136,0.047503,2036,1135,41.8763,-3.10714
-700,-118,0,0,0,0,0,0,0,0,0,-1,524,1142,0,0
-693,-118,-26.7717,1.93994,0,0,0,0,0,0,0,-1,531,1142,-26.7717,-1.93994
-686,-118,-27.4647,0.832397,0,0,0,0,0,0,0,-1,538,1142,-27.4647,-0.832425
-679,-118,-32.6487,2.50903,0,0,0,0,0,0,0,-1,545,1142,-32.6487,-2.50901
-672,-118,-32.0237,2.97717,0,0,0,0,0,0,0,-1,552,1142,-32.0238,-2.97714
-665,-118,-31.4355,3.36621,0,0,0,0,0,0,0,-1,559,1142,-31.4355,-3.36626
-658,-118,-29.1147,0.219238,0,0,0,0,0,0,0,-1,566,1142,-29.1148,-0.219285
-651,-118,-28.8658,0.89209,0.011079,0.0154345,-0.00446378,0.0182234,0.00829005,-1.01235,0.0105356,0.0423735,573,1142,-28.8658,-0.892044
-644,-118,-28.6855,1.65759,0.00835486,0.0105275,-0.00286519,0.0125054,0.00637695,-0.966595,0.00722045,0.0290969,580,1142,-28.6855,-1.65763
-637,-118,-28.8066,2.07751,0.00604504,0.00686521,-0.00180432,0.00830546,0.00460478,-0.897139,0.00480462,0.0158343,587,1142,-28.8066,-2.07747
-630,-118,-28.8409,2.4115,0.00420774,0.00406448,-0.00101969,0.00515831,0.00311391,-0.750332,0.00299942,0.02211,594,1142,-28.841,-2.4115
-623,-118,-28.8554,2.75989,0.00291321,0.00192456,-0.000464956,0.00309752,0.00174025,-0.377395,0.0017929,0.0187107,601,1142,-28.8554,-2.75993
-616,-118,-28.927,3.09033,0.00237158,0.000697655,0.000203576,0.00239599,0.000673252,0.119299,0.00142687,0.0193716,608,1142,-28.927,-3.09034
-609,-118,-29.1161,3.30371,0.00219582,0.000178966,0.000616527,0.00236936,5.4331e-06,0.27437,0.00157776,0.0327092,615,1142,-29.1161,-3.3037
-602,-118,-29.0342,3.8595,0.00214764,0.000181654,0.000748873,0.0024004,-7.11059e-05,0.325514,0.00162449,0.0313552,622,1142,-29.0342,-3.85948
-595,-118,-29.0826,4.14685,0.00186439,0.000250648,0.000466994,0.00198978,0.00012525,0.262333,0.00128681,0.0248412,629,1142,-29.0826,-4.14689
-588,-118,-28.5814,4.78442,0,0,0,0,0,0,0,-1,636,1142,-28.5814,-4.78442
-581,-118,-24.6116,3.89648,0,0,0,0,0,0,0,-1,643,1142,-24.6116,-3.89645
-574,-118,-32.7347,1.13904,0,0,0,0,0,0,0,-1,650,1142,-32.7347,-1.13902
-567,-118,-32.7119,1.08899,0.00114671,0.000274289,0.000789259,0.00161228,-0.000191283,0.532949,0.00114396,0.041726,657,1142,-32.7119,-1.08898
-560,-118,-32.6395,1.078,0.0008225,0.000363599,0.000839016,0.00146287,-0.000276776,0.651924,0.0010794,0.0375489,664,1142,-32.6394,-1.07795
-553,-118,-32.4176,0.9021,-0.000243638,0.00048002,0.000671578,0.000881039,-0.000644656,1.03249,0.000884378,0.0418119,671,1142,-32.4176,-0.902065
-546,-118,-32.4761,0.942993,-0.0020621,0.00053039,0.000448634,0.000605831,-0.00213754,1.4042,0.00166415,0.0429774,678,1142,-32.4762,-0.942945
-539,-118,-32.5183,1.14331,-0.00468051,0.000446099,0.000465673,0.000488055,-0.00472246,1.48094,0.00332296,0.0430599,685,1142,-32.5183,-1.14334
-532,-118,-32.6808,1.44543,-0.00750896,0.000363549,0.00106782,0.000505816,-0.00765123,1.43835,0.00527751,0.0413758,692,1142,-32.6808,-1.44545
-525,-118,-32.959,1.41309,-0.0106745,0.000308041,0.002028,0.000670557,-0.011037,1.39391,0.00759143,0.0435332,699,1142,-32.959,-1.41312
-518,-118,0,0,0,0,0,0,0,0,0,-1,706,1142,0,0
-511,-118,0,0,0,0,0,0,0,0,0,-1,713,1142,0,0
-504,-118,0,0,0,0,0,0,0,0,0,-1,720,1142,0,0
-497,-118,0,0,0,0,0,0,0,0,0,-1,727,1142,0,0
-490,-118,0,0,0,0,0,0,0,0,0,-1,734,1142,0,0
-483,-118,0,0,0,0,0,0,0,0,0,-1,741,1142,0,0
-476,-118,0,0,0,0,0,0,0,0,0,-1,748,1142,0,0
-469,-118,0,0,0,0,0,0,0,0,0,-1,755,1142,0,0
-462,-118,0,0,0,0,0,0,0,0,0,-1,762,1142,0,0
-455,-118,0,0,0,0,0,0,0,0,0,-1,769,1142,0,0
-448,-118,0,0,0,0,0,0,0,0,0,-1,776,1142,0,0
-441,-118,0,0,0,0,0,0,0,0,0,-1,783,1142,0,0
-434,-118,0,0,0,0,0,0,0,0,0,-1,790,1142,0,0
-427,-118,0,0,0,0,0,0,0,0,0,-1,797,1142,0,0
-420,-118,0,0,0,0,0,0,0,0,0,-1,804,1142,0,0
-413,-118,0,0,0,0,0,0,0,0,0,-1,811,1142,0,0
-406,-118,0,0,0,0,0,0,0,0,0,-1,818,1142,0,0
-399,-118,0,0,0,0,0,0,0,0,0,-1,825,1142,0,0
-392,-118,0,0,0,0,0,0,0,0,0,-1,832,1142,0,0
-385,-118,0,0,0,0,0,0,0,0,0,-1,839,1142,0,0
-378,-118,0,0,0,0,0,0,0,0,0,-1,846,1142,0,0
-371,-118,0,0,0,0,0,0,0,0,0,-1,853,1142,0,0
-364,-118,0,0,0,0,0,0,0,0,0,-1,860,1142,0,0
-357,-118,0,0,0,0,0,0,0,0,0,-1,867,1142,0,0
-350,-118,0,0,0,0,0,0,0,0,0,-1,874,1142,0,0
-343,-118,0,0,0,0,0,0,0,0,0,-1,881,1142,0,0
-336,-118,0,0,0,0,0,0,0,0,0,-1,888,1142,0,0
-329,-118,0,0,0,0,0,0,0,0,0,-1,895,1142,0,0
-322,-118,0,0,0,0,0,0,0,0,0,-1,902,1142,0,0
-315,-118,0,0,0,0,0,0,0,0,0,-1,909,1142,0,0
-308,-118,0,0,0,0,0,0,0,0,0,-1,916,1142,0,0
-301,-118,0,0,0,0,0,0,0,0,0,-1,923,1142,0,0
-294,-118,0,0,0,0,0,0,0,0,0,-1,930,1142,0,0
-287,-118,0,0,0,0,0,0,0,0,0,-1,937,1142,0,0
-280,-118,0,0,0,0,0,0,0,0,0,-1,944,1142,0,0
-273,-118,0,0,0,0,0,0,0,0,0,-1,951,1142,0,0
-266,-118,0,0,0,0,0,0,0,0,0,-1,958,1142,0,0
-259,-118,0,0,0,0,0,0,0,0,0,-1,965,1142,0,0
-252,-118,0,0,0,0,0,0,0,0,0,-1,972,1142,0,0
-245,-118,0,0,0,0,0,0,0,0,0,-1,979,1142,0,0
-238,-118,0,0,0,0,0,0,0,0,0,-1,986,1142,0,0
-231,-118,0,0,0,0,0,0,0,0,0,-1,993,1142,0,0
-224,-118,0,0,0,0,0,0,0,0,0,-1,1000,1142,0,0
-217,-118,0,0,0,0,0,0,0,0,0,-1,1007,1142,0,0
-210,-118,0,0,0,0,0,0,0,0,0,-1,1014,1142,0,0
-203,-118,0,0,0,0,0,0,0,0,0,-1,1021,1142,0,0
-196,-118,0,0,0,0,0,0,0,0,0,-1,1028,1142,0,0
-189,-118,0,0,0,0,0,0,0,0,0,-1,1035,1142,0,0
-182,-118,0,0,0,0,0,0,0,0,0,-1,1042,1142,0,0
-175,-118,0,0,0,0,0,0,0,0,0,-1,1049,1142,0,0
-168,-118,0,0,0,0,0,0,0,0,0,-1,1056,1142,0,0
-161,-118,0,0,0,0,0,0,0,0,0,-1,1063,1142,0,0
-154,-118,0,0,0,0,0,0,0,0,0,-1,1070,1142,0,0
-147,-118,0,0,0,0,0,0,0,0,0,-1,1077,1142,0,0
-140,-118,0,0,0,0,0,0,0,0,0,-1,1084,1142,0,0
-133,-118,0,0,0,0,0,0,0,0,0,-1,1091,1142,0,0
-126,-118,0,0,0,0,0,0,0,0,0,-1,1098,1142,0,0
-119,-118,0,0,0,0,0,0,0,0,0,-1,1105,1142,0,0
-112,-118,0,0,0,0,0,0,0,0,0,-1,1112,1142,0,0
-105,-118,0,0,0,0,0,0,0,0,0,-1,1119,1142,0,0
-98,-118,0,0,0,0,0,0,0,0,0,-1,1126,1142,0,0
-91,-118,0,0,0,0,0,0,0,0,0,-1,1133,1142,0,0
-84,-118,0,0,0,0,0,0,0,0,0,-1,1140,1142,0,0
-77,-118,0,0,0,0,0,0,0,0,0,-1,1147,1142,0,0
-70,-118,0,0,0,0,0,0,0,0,0,-1,1154,1142,0,0
-63,-118,0,0,0,0,0,0,0,0,0,-1,1161,1142,0,0
-56,-118,0,0,0,0,0,0,0,0,0,-1,1168,1142,0,0
-49,-118,0,0,0,0,0,0,0,0,0,-1,1175,1142,0,0
-42,-118,0,0,0,0,0,0,0,0,0,-1,1182,1142,0,0
-35,-118,0,0,0,0,0,0,0,0,0,-1,1189,1142,0,0
-28,-118,0,0,0,0,0,0,0,0,0,-1,1196,1142,0,0
-21,-118,0,0,0,0,0,0,0,0,0,-1,1203,1142,0,0
-14,-118,0,0,0,0,0,0,0,0,0,-1,1210,1142,0,0
-7,-118,0,0,0,0,0,0,0,0,0,-1,1217,1142,0,0
0,-118,0,0,0,0,0,0,0,0,0,-1,1224,1142,0,0
7,-118,0,0,0,0,0,0,0,0,0,-1,1231,1142,0,0
14,-118,0,0,0,0,0,0,0,0,0,-1,1238,1142,0,0
21,-118,0,0,0,0,0,0,0,0,0,-1,1245,1142,0,0
28,-118,0,0,0,0,0,0,0,0,0,-1,1252,1142,0,0
35,-118,0,0,0,0,0,0,0,0,0,-1,1259,1142,0,0
42,-118,0,0,0,0,0,0,0,0,0,-1,1266,1142,0,0
49,-118,0,0,0,0,0,0,0,0,0,-1,1273,1142,0,0
56,-118,0,0,0,0,0,0,0,0,0,-1,1280,1142,0,0
63,-118,0,0,0,0,0,0,0,0,0,-1,1287,1142,0,0
70,-118,0,0,0,0,0,0,0,0,0,-1,1294,1142,0,0
77,-118,0,0,0,0,0,0,0,0,0,-1,1301,1142,0,0
84,-118,0,0,0,0,0,0,0,0,0,-1,1308,1142,0,0
91,-118,0,0,0,0,0,0,0,0,0,-1,1315,1142,0,0
98,-118,0,0,0,0,0,0,0,0,0,-1,1322,1142,0,0
105,-118,0,0,0,0,0,0,0,0,0,-1,1329,1142,0,0
112,-118,0,0,0,0,0,0,0,0,0,-1,1336,1142,0,0
119,-118,0,0,0,0,0,0,0,0,0,-1,1343,1142,0,0
126,-118,0,0,0,0,0,0,0,0,0,-1,1350,1142,0,0
133,-118,0,0,0,0,0,0,0,0,0,-1,1357,1142,0,0
140,-118,0,0,0,0,0,0,0,0,0,-1,1364,1142,0,0
147,-118,0,0,0,0,0,0,0,0,0,-1,1371,1142,0,0
154,-118,0,0,0,0,0,0,0,0,0,-1,1378,1142,0,0
161,-118,0,0,0,0,0,0,0,0,0,-1,1385,1142,0,0
168,-118,0,0,0,0,0,0,0,0,0,-1,1392,1142,0,0
175,-118,0,0,0,0,0,0,0,0,0,-1,1399,1142,0,0
182,-118,0,0,0,0,0,0,0,0,0,-1,1406,1142,0,0
189,-118,0,0,0,0,0,0,0,0,0,-1,1413,1142,0,0
196,-118,0,0,0,0,0,0,0,0,0,-1,1420,1142,0,0
203,-118,0,0,0,0,0,0,0,0,0,-1,1427,1142,0,0
210,-118,0,0,0,0,0,0,0,0,0,-1,1434,1142,0,0
217,-118,0,0,0,0,0,0,0,0,0,-1,1441,1142,0,0
224,-118,0,0,0,0,0,0,0,0,0,-1,1448,1142,0,0
231,-118,0,0,0,0,0,0,0,0,0,-1,1455,1142,0,0
238,-118,0,0,0,0,0,0,0,0,0,-1,1462,1142,0,0
245,-118,0,0,0,0,0,0,0,0,0,-1,1469,1142,0,0
252,-118,0,0,0,0,0,0,0,0,0,-1,1476,1142,0,0
259,-118,0,0,0,0,0,0,0,0,0,-1,1483,1142,0,0
266,-118,0,0,0,0,0,0,0,0,0,-1,1490,1142,0,0
273,-118,0,0,0,0,0,0,0,0,0,-1,1497,1142,0,0
280,-118,0,0,0,0,0,0,0,0,0,-1,1504,1142,0,0
287,-118,0,0,0,0,0,0,0,0,0,-1,1511,1142,0,0
294,-118,0,0,0,0,0,0,0,0,0,-1,1518,1142,0,0
301,-118,0,0,0,0,0,0,0,0,0,-1,1525,1142,0,0
308,-118,0,0,0,0,0,0,0,0,0,-1,1532,1142,0,0
315,-118,0,0,0,0,0,0,0,0,0,-1,1539,1142,0,0
322,-118,0,0,0,0,0,0,0,0,0,-1,1546,1142,0,0
329,-118,0,0,0,0,0,0,0,0,0,-1,1553,1142,0,0
336,-118,0,0,0,0,0,0,0,0,0,-1,1560,1142,0,0
343,-118,0,0,0,0,0,0,0,0,0,-1,1567,1142,0,0
350,-118,0,0,0,0,0,0,0,0,0,-1,1574,1142,0,0
357,-118,0,0,0,0,0,0,0,0,0,-1,1581,1142,0,0
364,-118,0,0,0,0,0,0,0,0,0,-1,1588,1142,0,0
371,-118,0,0,0,0,0,0,0,0,0,-1,1595,1142,0,0
378,-118,0,0,0,0,0,0,0,0,0,-1,1602,1142,0,0
385,-118,0,0,0,0,0,0,0,0,0,-1,1609,1142,0,0
392,-118,0,0,0,0,0,0,0,0,0,-1,1616,1142,0,0
399,-118,0,0,0,0,0,0,0,0,0,-1,1623,1142,0,0
406,-118,0,0,0,0,0,0,0,0,0,-1,1630,1142,0,0
413,-118,0,0,0,0,0,0,0,0,0,-1,1637,1142,0,0
420,-118,0,0,0,0,0,0,0,0,0,-1,1644,1142,0,0
427,-118,0,0,0,0,0,0,0,0,0,-1,1651,1142,0,0
434,-118,0,0,0,0,0,0,0,0,0,-1,1658,1142,0,0
441,-118,0,0,0,0,0,0,0,0,0,-1,1665,1142,0,0
448,-118,0,0,0,0,0,0,0,0,0,-1,1672,1142,0,0
455,-118,0,0,0,0,0,0,0,0,0,-1,1679,1142,0,0
462,-118,0,0,0,0,0,0,0,0,0,-1,1686,1142,0,0
469,-118,0,0,0,0,0,0,0,0,0,-1,1693,1142,0,0
476,-118,0,0,0,0,0,0,0,0,0,-1,1700,1142,0,0
483,-118,0,0,0,0,0,0,0,0,0,-1,1707,1142,0,0
490,-118,0,0,0,0,0,0,0,0,0,-1,1714,1142,0,0
497,-118,0,0,0,0,0,0,0,0,0,-1,1721,1142,0,0
504,-118,0,0,0,0,0,0,0,0,0,-1,1728,1142,0,0
511,-118,0,0,0,0,0,0,0,0,0,-1,1735,1142,0,0
518,-118,0,0,0,0,0,0,0,0,0,-1,1742,1142,0,0
525,-118,0,0,0,0,0,0,0,0,0,-1,1749,1142,0,0
532,-118,0,0,0,0,0,0,0,0,0,-1,1756,1142,0,0
539,-118,0,0,0,0,0,0,0,0,0,-1,1763,1142,0,0
546,-118,0,0,0,0,0,0,0,0,0,-1,1770,1142,0,0
553,-118,0,0,0,0,0,0,0,0,0,-1,1777,1142,0,0
560,-118,0,0,0,0,0,0,0,0,0,-1,1784,1142,0,0
567,-118,0,0,0,0,0,0,0,0,0,-1,1791,1142,0,0
574,-118,0,0,0,0,0,0,0,0,0,-1,1798,1142,0,0
581,-118,0,0,0,0,0,0,0,0,0,-1,1805,1142,0,0
588,-118,0,0,0,0,0,0,0,0,0,-1,1812,1142,0,0
595,-118,0,0,0,0,0,0,0,0,0,-1,1819,1142,0,0
602,-118,0,0,0,0,0,0,0,0,0,-1,1826,1142,0,0
609,-118,0,0,0,0,0,0,0,0,0,-1,1833,1142,0,0
616,-118,0,0,0,0,0,0,0,0,0,-1,1840,1142,0,0
623,-118,0,0,0,0,0,0,0,0,0,-1,1847,1142,0,0
630,-118,0,0,0,0,0,0,0,0,0,-1,1854,1142,0,0
637,-118,0,0,0,0,0,0,0,0,0,-1,1861,1142,0,0
644,-118,44.2693,2.88208,0.00745686,-0.00445029,0.00183653,0.00773368,-0.00472711,0.149607,0.00726371,0.0445572,1868,1142,44.2693,-2.88211
651,-118,44.396,2.7052,0.00497617,-0.00358638,0.0019253,0.00538916,-0.00399937,0.211303,0.00544023,0.0437958,1875,1142,44.396,-2.70521
658,-118,44.8704,2.50439,0.00343468,-0.00299497,0.00178761,0.00389826,-0.00345855,0.253739,0.00424998,0.0440613,1882,1142,44.8704,-2.50434
665,-118,44.7029,2.56494,0.00225523,-0.00243049,0.00151206,0.00270079,-0.00287605,0.286564,0.00322032,0.0456335,1889,1142,44.7028,-2.5649
672,-118,44.4731,2.82446,0.00142897,-0.00192154,0.00117229,0.0017984,-0.00229097,0.305285,0.00236671,0.0481379,1896,1142,44.4732,-2.82452
679,-118,44.4176,2.92896,0.0005806,-0.00139327,0.000847922,0.000894822,-0.0017075,0.35489,0.00152668,0.0416908,1903,1142,44.4176,-2.92901
686,-118,44.4331,2.91394,1.68706e-05,-0.00111623,0.000636576,0.000302499,-0.00140186,0.421768,0.00105003,0.0356882,1910,1142,44.4332,-2.91394
693,-118,44.4318,2.8667,-0.000275044,-0.000823449,0.000494545,1.62278e-05,-0.00111472,0.53227,0.000748615,0.036456,1917,1142,44.4318,-2.86674
700,-118,44.527,2.78796,-0.000565813,-0.000622203,0.000349256,-0.000243616,-0.000944401,0.745121,0.000566145,0.024305,1924,1142,44.5269,-2.78792
707,-118,44.5752,2.79565,0,0,0,0,0,0,0,-1,1931,1142,44.5752,-2.79562
714,-118,40.9822,7.38086,0,0,0,0,0,0,0,-1,1938,1142,40.9822,-7.38087
721,-118,40.7535,7.01538,-0.00139794,0.000192462,0.000526727,0.000351088,-0.00155657,1.27828,0.0011724,0.0247339,1945,1142,40.7535,-7.01543
728,-118,40.8022,6.69812,-0.00175825,0.000392653,0.000504027,0.000504905,-0.0018705,1.35166,0.00144501,0.021358,1952,1142,40.8022,-6.69809
735,-118,40.7616,6.38733,-0.00222709,0.000626176,0.000688284,0.000783531,-0.00238445,1.34604,0.00190529,0.0207261,1959,1142,40.7616,-6.3873
742,-118,40.7762,6.06641,-0.00266042,0.00106546,0.0012834,0.00146475,-0.0030597,1.26917,0.00266574,0.0253489,1966,1142,40.7762,-6.06638
749,-118,40.733,5.72522,-0.00241326,0.00187703,0.00172575,0.00248504,-0.00302126,1.23206,0.00318409,0.0217189,1973,1142,40.7331,-5.72517
756,-118,40.7246,5.39844,-0.00171645,0.00406294,0.00233875,0.00489078,-0.0025443,1.23059,0.00436332,0.0180864,1980,1142,40.7247,-5.3985
763,-118,40.7552,5.09338,-0.000776158,0.0081486,0.00287859,0.0089965,-0.00162406,1.28434,0.00660591,0.0102947,1987,1142,40.7553,-5.09338
770,-118,40.6869,4.8031,0.00100949,0.0133881,0.00350045,0.0143094,8.81902e-05,1.31344,0.00951036,0.0131002,1994,1142,40.6869,-4.80312
777,-118,40.5331,4.47095,0.00343712,0.0204193,0.0041309,0.0213708,0.0024856,1.3444,0.0134952,0.0266213,2001,1142,40.5331,-4.47097
784,-118,40.3386,4.11401,0.00661274,0.0300572,0.00478542,0.0309964,0.00567357,1.377,0.0190567,0.0454414,2008,1142,40.3387,-4.11403
791,-118,40.1262,3.9187,0,0,0,0,0,0,0,-1,2015,1142,40.1263,-3.91874
798,-118,40.3206,3.11475,0.0159232,0.0610182,0.00610583,0.0618303,0.0151111,1.43857,0.0372201,0.0457164,2022,1142,40.3205,-3.11473
805,-118,40.3733,2.0835,0.0218592,0.0843774,0.00673396,0.0850945,0.0211421,1.46471,0.0511598,0.047411,2029,1142,40.3732,-2.08346
812,-118,40.7043,1.45728,0.0277638,0.114746,0.00742521,0.115376,0.0271345,1.48625,0.0696569,0.0494101,2036,1142,40.7044,-1.45733
-700,-125,0,0,0,0,0,0,0,0,0,-1,524,1149,0,0
-693,-125,-27.6775,-1.24011,0,0,0,0,0,0,0,-1,531,1149,-27.6775,1.24011
-686,-125,-32.4228,1.91003,0,0,0,0,0,0,0,-1,538,1149,-32.4228,-1.91005
-679,-125,-31.8318,2.34912,0,0,0,0,0,0,0,-1,545,1149,-31.8319,-2.34918
-672,-125,-31.1807,2.79651,0.0223397,0.0402203,-0.0167945,0.0503059,0.0122541,-1.02999,0.0302904,0.0471942,552,1149,-31.1807,-2.79657
-665,-125,-30.5804,3.21106,0.0194576,0.0308406,-0.011485,0.037967,0.0123312,-1.01544,0.0223644,0.0450162,559,1149,-30.5804,-3.2111
-658,-125,-29.2579,0.875854,0,0,0,0,0,0,0,-1,566,1149,-29.258,-0.875841
-651,-125,-28.7955,1.31433,0.0126518,0.0166272,-0.00530693,0.0203065,0.00897253,-0.964586,0.0117503,0.0406986,573,1149,-28.7955,-1.31434
-644,-125,-28.3551,1.6864,0.00950902,0.0116256,-0.00352586,0.0142485,0.00688604,-0.931193,0.00822793,0.0280816,580,1149,-28.3551,-1.68638
-637,-125,-28.4175,2.06689,0.00682787,0.00773318,-0.00227718,0.00960226,0.00495879,-0.883509,0.00554486,0.0135692,587,1149,-28.4176,-2.06693
-630,-125,-28.4348,2.42676,0.00472286,0.00467061,-0.00129038,0.00598738,0.00340609,-0.775277,0.00346773,0.0152607,594,1149,-28.4348,-2.42671
-623,-125,-28.4707,2.79626,0.00312893,0.00229675,-0.000595106,0.00343898,0.00198669,-0.480307,0.00199347,0.0140822,601,1149,-28.4707,-2.79628
-616,-125,-28.4831,3.12244,0.00244595,0.000888857,0.000129741,0.00245669,0.000878121,0.0825639,0.00143746,0.0189912,608,1149,-28.4831,-3.12248
-609,-125,-28.5971,3.38831,0.00222922,0.000458399,0.000531322,0.00237641,0.000311214,0.270241,0.0014914,0.0367332,615,1149,-28.5971,-3.38835
-602,-125,-28.6046,3.90393,0.00212497,0.000539488,0.000690453,0.0023835,0.000280961,0.358271,0.00150412,0.0300829,622,1149,-28.6046,-3.90393
-595,-125,-28.689,4.2749,0.00183132,0.000589309,0.000480334,0.00199541,0.000425224,0.329178,0.00121362,0.0293443,629,1149,-28.689,-4.27492
-588,-125,-28.0845,4.72876,0,0,0,0,0,0,0,-1,636,1149,-28.0845,-4.72873
-581,-125,-26.4055,4.83203,0,0,0,0,0,0,0,-1,643,1149,-26.4055,-4.83204
-574,-125,-32.7539,1.11121,0,0,0,0,0,0,0,-1,650,1149,-32.7539,-1.11115
-567,-125,-32.6921,0.985962,0.00134351,0.000895454,0.000774521,0.00192575,0.000313213,0.644616,0.00119321,0.0436156,657,1149,-32.6921,-0.98601
-560,-125,-32.6347,0.992554,0.00112061,0.00110673,0.000835566,0.00194927,0.000278077,0.781245,0.00121745,0.0363029,664,1149,-32.6347,-0.992563
-553,-125,-32.7838,1.2334,0.000231531,0.00136718,0.00069039,0.00169326,-9.45475e-05,1.12954,0.00116164,0.0377815,671,1149,-32.7838,-1.23342
-546,-125,-32.6973,1.1239,-0.00128802,0.00152579,0.0005213,0.00161927,-0.00138149,1.39337,0.0017343,0.0409891,678,1149,-32.6973,-1.12389
-539,-125,-32.5366,1.35999,-0.0035933,0.00160539,0.000646453,0.00168457,-0.00367248,1.44892,0.00316308,0.0441155,685,1149,-32.5366,-1.36003
-532,-125,-32.6606,1.22998,-0.00604063,0.0016505,0.00141931,0.00190406,-0.00629419,1.39401,0.00495432,0.0393399,692,1149,-32.6606,-1.22994
-525,-125,-32.7505,1.29565,-0.00878697,0.00169952,0.0025784,0.0022992,-0.00938665,1.34228,0.0071485,0.0426447,699,1149,-32.7505,-1.29561
-518,-125,0,0,0,0,0,0,0,0,0,-1,706,1149,0,0
-511,-125,0,0,0,0,0,0,0,0,0,-1,713,1149,0,0
-504,-125,0,0,0,0,0,0,0,0,0,-1,720,1149,0,0
-497,-125,0,0,0,0,0,0,0,0,0,-1,727,1149,0,0
-490,-125,0,0,0,0,0,0,0,0,0,-1,734,1149,0,0
-483,-125,0,0,0,0,0,0,0,0,0,-1,741,1149,0,0
-476,-125,0,0,0,0,0,0,0,0,0,-1,748,1149,0,0
-469,-125,0,0,0,0,0,0,0,0,0,-1,755,1149,0,0
-462,-125,0,0,0,0,0,0,0,0,0,-1,762,1149,0,0
-455,-125,0,0,0,0,0,0,0,0,0,-1,769,1149,0,0
-448,-125,0,0,0,0,0,0,0,0,0,-1,776,1149,0,0
-441,-125,0,0,0,0,0,0,0,0,0,-1,783,1149,0,0
-434,-125,0,0,0,0,0,0,0,0,0,-1,790,1149,0,0
-427,-125,0,0,0,0,0,0,0,0,0,-1,797,1149,0,0
-420,-125,0,0,0,0,0,0,0,0,0,-1,804,1149,0,0
-413,-125,0,0,0,0,0,0,0,0,0,-1,811,1149,0,0
-406,-125,0,0,0,0,0,0,0,0,0,-1,818,1149,0,0
-399,-125,0,0,0,0,0,0,0,0,0,-1,825,1149,0,0
-392,-125,0,0,0,0,0,0,0,0,0,-1,832,1149,0,0
-385,-125,0,0,0,0,0,0,0,0,0,-1,839,1149,0,0
-378,-125,0,0,0,0,0,0,0,0,0,-1,846,1149,0,0
-371,-125,0,0,0,0,0,0,0,0,0,-1,853,1149,0,0
-364,-125,0,0,0,0,0,0,0,0,0,-1,860,1149,0,0
-357,-125,0,0,0,0,0,0,0,0,0,-1,867,1149,0,0
-350,-125,0,0,0,0,0,0,0,0,0,-1,874,1149,0,0
-343,-125,0,0,0,0,0,0,0,0,0,-1,881,1149,0,0
-336,-125,0,0,0,0,0,0,0,0,0,-1,888,1149,0,0
-329,-125,0,0,0,0,0,0,0,0,0,-1,895,1149,0,0
-322,-125,0,0,0,0,0,0,0,0,0,-1,902,1149,0,0
-315,-125,0,0,0,0,0,0,0,0,0,-1,909,1149,0,0
-308,-125,0,0,0,0,0,0,0,0,0,-1,916,1149,0,0
-301,-125,0,0,0,0,0,0,0,0,0,-1,923,1149,0,0
-294,-125,0,0,0,0,0,0,0,0,0,-1,930,1149,0,0
-287,-125,0,0,0,0,0,0,0,0,0,-1,937,1149,0,0
-280,-125,0,0,0,0,0,0,0,0,0,-1,944,1149,0,0
-273,-125,0,0,0,0,0,0,0,0,0,-1,951,1149,0,0
-266,-125,0,0,0,0,0,0,0,0,0,-1,958,1149,0,0
-259,-125,0,0,0,0,0,0,0,0,0,-1,965,1149,0,0
-252,-125,0,0,0,0,0,0,0,0,0,-1,972,1149,0,0
-245,-125,0,0,0,0,0,0,0,0,0,-1,979,1149,0,0
-238,-125,0,0,0,0,0,0,0,0,0,-1,986,1149,0,0
-231,-125,0,0,0,0,0,0,0,0,0,-1,993,1149,0,0
-224,-125,0,0,0,0,0,0,0,0,0,-1,1000,1149,0,0
-217,-125,0,0,0,0,0,0,0,0,0,-1,1007,1149,0,0
-210,-125,0,0,0,0,0,0,0,0,0,-1,1014,1149,0,0
-203,-125,0,0,0,0,0,0,0,0,0,-1,1021,1149,0,0
-196,-125,0,0,0,0,0,0,0,0,0,-1,1028,1149,0,0
-189,-125,0,0,0,0,0,0,0,0,0,-1,1035,1149,0,0
-182,-125,0,0,0,0,0,0,0,0,0,-1,1042,1149,0,0
-175,-125,0,0,0,0,0,0,0,0,0,-1,1049,1149,0,0
-168,-125,0,0,0,0,0,0,0,0,0,-1,1056,1149,0,0
-161,-125,0,0,0,0,0,0,0,0,0,-1,1063,1149,0,0
-154,-125,0,0,0,0,0,0,0,0,0,-1,1070,1149,0,0
-147,-125,0,0,0,0,0,0,0,0,0,-1,1077,1149,0,0
-140,-125,0,0,0,0,0,0,0,0,0,-1,1084,1149,0,0
-133,-125,0,0,0,0,0,0,0,0,0,-1,1091,1149,0,0
-126,-125,0,0,0,0,0,0,0,0,0,-1,1098,1149,0,0
-119,-125,0,0,0,0,0,0,0,0,0,-1,1105,1149,0,0
-112,-125,0,0,0,0,0,0,0,0,0,-1,1112,1149,0,0
-105,-125,0,0,0,0,0,0,0,0,0,-1,1119,1149,0,0
-98,-125,0,0,0,0,0,0,0,0,0,-1,1126,1149,0,0
-91,-125,0,0,0,0,0,0,0,0,0,-1,1133,1149,0,0
-84,-125,0,0,0,0,0,0,0,0,0,-1,1140,1149,0,0
-77,-125,0,0,0,0,0,0,0,0,0,-1,1147,1149,0,0
-70,-125,0,0,0,0,0,0,0,0,0,-1,1154,1149,0,0
-63,-125,0,0,0,0,0,0,0,0,0,-1,1161,1149,0,0
-56,-125,0,0,0,0,0,0,0,0,0,-1,1168,1149,0,0
-49,-125,0,0,0,0,0,0,0,0,0,-1,1175,1149,0,0
-42,-125,0,0,0,0,0,0,0,0,0,-1,1182,1149,0,0
-35,-125,0,0,0,0,0,0,0,0,0,-1,1189,1149,0,0
-28,-125,0,0,0,0,0,0,0,0,0,-1,1196,1149,0,0
-21,-125,0,0,0,0,0,0,0,0,0,-1,1203,1149,0,0
-14,-125,0,0,0,0,0,0,0,0,0,-1,1210,1149,0,0
-7,-125,0,0,0,0,0,0,0,0,0,-1,1217,1149,0,0
0,-125,0,0,0,0,0,0,0,0,0,-1,1224,1149,0,0
7,-125,0,0,0,0,0,0,0,0,0,-1,1231,1149,0,0
14,-125,0,0,0,0,0,0,0,0,0,-1,1238,1149,0,0
21,-125,0,0,0,0,0,0,0,0,0,-1,1245,1149,0,0
28,-125,0,0,0,0,0,0,0,0,0,-1,1252,1149,0,0
35,-125,0,0,0,0,0,0,0,0,0,-1,1259,1149,0,0
42,-125,0,0,0,0,0,0,0,0,0,-1,1266,1149,0,0
49,-125,0,0,0,0,0,0,0,0,0,-1,1273,1149,0,0
56,-125,0,0,0,0,0,0,0,0,0,-1,1280,1149,0,0
63,-125,0,0,0,0,0,0,0,0,0,-1,1287,1149,0,0
70,-125,0,0,0,0,0,0,0,0,0,-1,1294,1149,0,0
77,-125,0,0,0,0,0,0,0,0,0,-1,1301,1149,0,0
84,-125,0,0,0,0,0,0,0,0,0,-1,1308,1149,0,0
91,-125,0,0,0,0,0,0,0,0,0,-1,1315,1149,0,0
98,-125,0,0,0,0,0,0,0,0,0,-1,1322,1149,0,0
105,-125,0,0,0,0,0,0,0,0,0,-1,1329,1149,0,0
112,-125,0,0,0,0,0,0,0,0,0,-1,1336,1149,0,0
119,-125,0,0,0,0,0,0,0,0,0,-1,1343,1149,0,0
126,-125,0,0,0,0,0,0,0,0,0,-1,1350,1149,0,0
133,-125,0,0,0,0,0,0,0,0,0,-1,1357,1149,0,0
140,-125,0,0,0,0,0,0,0,0,0,-1,1364,1149,0,0
147,-125,0,0,0,0,0,0,0,0,0,-1,1371,1149,0,0
154,-125,0,0,0,0,0,0,0,0,0,-1,1378,1149,0,0
161,-125,0,0,0,0,0,0,0,0,0,-1,1385,1149,0,0
168,-125,0,0,0,0,0,0,0,0,0,-1,1392,1149,0,0
175,-125,0,0,0,0,0,0,0,0,0,-1,1399,1149,0,0
182,-125,0,0,0,0,0,0,0,0,0,-1,1406,1149,0,0
189,-125,0,0,0,0,0,0,0,0,0,-1,1413,1149,0,0
196,-125,0,0,0,0,0,0,0,0,0,-1,1420,1149,0,0
203,-125,0,0,0,0,0,0,0,0,0,-1,1427,1149,0,0
210,-125,0,0,0,0,0,0,0,0,0,-1,1434,1149,0,0
217,-125,0,0,0,0,0,0,0,0,0,-1,1441,1149,0,0
224,-125,0,0,0,0,0,0,0,0,0,-1,1448,1149,0,0
231,-125,0,0,0,0,0,0,0,0,0,-1,1455,1149,0,0
238,-125,0,0,0,0,0,0,0,0,0,-1,1462,1149,0,0
245,-125,0,0,0,0,0,0,0,0,0,-1,1469,1149,0,0
252,-125,0,0,0,0,0,0,0,0,0,-1,1476,1149,0,0
259,-125,0,0,0,0,0,0,0,0,0,-1,1483,1149,0,0
266,-125,0,0,0,0,0,0,0,0,0,-1,1490,1149,0,0
273,-125,0,0,0,0,0,0,0,0,0,-1,1497,1149,0,0
280,-125,0,0,0,0,0,0,0,0,0,-1,1504,1149,0,0
287,-125,0,0,0,0,0,0,0,0,0,-1,1511,1149,0,0
294,-125,0,0,0,0,0,0,0,0,0,-1,1518,1149,0,0
301,-125,0,0,0,0,0,0,0,0,0,-1,1525,1149,0,0
308,-125,0,0,0,0,0,0,0,0,0,-1,1532,1149,0,0
315,-125,0,0,0,0,0,0,0,0,0,-1,1539,1149,0,0
322,-125,0,0,0,0,0,0,0,0,0,-1,1546,1149,0,0
329,-125,0,0,0,0,0,0,0,0,0,-1,1553,1149,0,0
336,-125,0,0,0,0,0,0,0,0,0,-1,1560,1149,0,0
343,-125,0,0,0,0,0,0,0,0,0,-1,1567,1149,0,0
350,-125,0,0,0,0,0,0,0,0,0,-1,1574,1149,0,0
357,-125,0,0,0,0,0,0,0,0,0,-1,1581,1149,0,0
364,-125,0,0,0,0,0,0,0,0,0,-1,1588,1149,0,0
371,-125,0,0,0,0,0,0,0,0,0,-1,1595,1149,0,0
378,-125,0,0,0,0,0,0,0,0,0,-1,1602,1149,0,0
385,-125,0,0,0,0,0,0,0,0,0,-1,1609,1149,0,0
392,-125,0,0,0,0,0,0,0,0,0,-1,1616,1149,0,0
399,-125,0,0,0,0,0,0,0,0,0,-1,1623,1149,0,0
406,-125,0,0,0,0,0,0,0,0,0,-1,1630,1149,0,0
413,-125,0,0,0,0,0,0,0,0,0,-1,1637,1149,0,0
420,-125,0,0,0,0,0,0,0,0,0,-1,1644,1149,0,0
427,-125,0,0,0,0,0,0,0,0,0,-1,1651,1149,0,0
434,-125,0,0,0,0,0,0,0,0,0,-1,1658,1149,0,0
441,-125,0,0,0,0,0,0,0,0,0,-1,1665,1149,0,0
448,-125,0,0,0,0,0,0,0,0,0,-1,1672,1149,0,0
455,-125,0,0,0,0,0,0,0,0,0,-1,1679,1149,0,0
462,-125,0,0,0,0,0,0,0,0,0,-1,1686,1149,0,0
469,-125,0,0,0,0,0,0,0,0,0,-1,1693,1149,0,0
476,-125,0,0,0,0,0,0,0,0,0,-1,1700,1149,0,0
483,-125,0,0,0,0,0,0,0,0,0,-1,1707,1149,0,0
490,-125,0,0,0,0,0,0,0,0,0,-1,1714,1149,0,0
497,-125,0,0,0,0,0,0,0,0,0,-1,1721,1149,0,0
504,-125,0,0,0,0,0,0,0,0,0,-1,1728,1149,0,0
511,-125,0,0,0,0,0,0,0,0,0,-1,1735,1149,0,0
518,-125,0,0,0,0,0,0,0,0,0,-1,1742,1149,0,0
525,-125,0,0,0,0,0,0,0,0,0,-1,1749,1149,0,0
532,-125,0,0,0,0,0,0,0,0,0,-1,1756,1149,0,0
539,-125,0,0,0,0,0,0,0,0,0,-1,1763,1149,0,0
546,-125,0,0,0,0,0,0,0,0,0,-1,1770,1149,0,0
553,-125,0,0,0,0,0,0,0,0,0,-1,1777,1149,0,0
560,-125,0,0,0,0,0,0,0,0,0,-1,1784,1149,0,0
567,-125,0,0,0,0,0,0,0,0,0,-1,1791,1149,0,0
574,-125,0,0,0,0,0,0,0,0,0,-1,1798,1149,0,0
581,-125,0,0,0,0,0,0,0,0,0,-1,1805,1149,0,0
588,-125,0,0,0,0,0,0,0,0,0,-1,1812,1149,0,0
595,-125,0,0,0,0,0,0,0,0,0,-1,1819,1149,0,0
602,-125,0,0,0,0,0,0,0,0,0,-1,1826,1149,0,0
609,-125,0,0,0,0,0,0,0,0,0,-1,1833,1149,0,0
616,-125,0,0,0,0,0,0,0,0,0,-1,1840,1149,0,0
623,-125,0,0,0,0,0,0,0,0,0,-1,1847,1149,0,0
630,-125,0,0,0,0,0,0,0,0,0,-1,1854,1149,0,0
637,-125,0,0,0,0,0,0,0,0,0,-1,1861,1149,0,0
644,-125,44.3792,2.46704,0,0,0,0,0,0,0,-1,1868,1149,44.3791,-2.46702
651,-125,44.5272,2.34741,0,0,0,0,0,0,0,-1,1875,1149,44.5272,-2.3474
658,-125,44.6749,2.47827,0.00309685,-0.00314861,0.00177604,0.00356658,-0.00361834,0.258561,0.00414825,0.0426408,1882,1149,44.675,-2.47828
665,-125,44.4481,2.47278,0.00204627,-0.0025126,0.00149036,0.00249025,-0.00295658,0.289531,0.00314857,0.0454654,1889,1149,44.4481,-2.47275
672,-125,44.4729,2.58362,0.00131536,-0.00193803,0.00112817,0.00166829,-0.00229095,0.303188,0.00229527,0.0443607,1896,1149,44.4729,-2.58363
679,-125,44.4968,2.84827,0.000460924,-0.00129736,0.00080216,0.000771887,-0.00160833,0.369821,0.00140222,0.0389318,1903,1149,44.4968,-2.84822
686,-125,44.4683,2.97937,-0.000132673,-0.000948344,0.000607873,0.000191502,-0.00127252,0.489927,0.000918856,0.0357284,1910,1149,44.4683,-2.97939
693,-125,44.417,2.8479,-0.000446866,-0.000593845,0.000499191,-1.57834e-05,-0.00102493,0.712314,0.000678085,0.0332757,1917,1149,44.417,-2.84793
700,-125,44.5177,2.83948,-0.000766578,-0.0003393,0.000365957,-0.000129186,-0.000976692,1.0496,0.000612623,0.0173462,1924,1149,44.5177,-2.83944
707,-125,44.6857,2.98315,0,0,0,0,0,0,0,-1,1931,1149,44.6857,-2.98321
714,-125,40.5219,7.35144,0,0,0,0,0,0,0,-1,1938,1149,40.5219,-7.35144
721,-125,40.4475,7.04163,-0.00171088,0.000532969,0.000490778,0.000635617,-0.00181353,1.36462,0.00146752,0.028127,1945,1149,40.4475,-7.04165
728,-125,40.406,6.75757,-0.00206794,0.00069195,0.000473523,0.000770933,-0.00214692,1.40552,0.00174595,0.0216434,1952,1149,40.4061,-6.75761
735,-125,40.4087,6.44922,-0.00251265,0.000880224,0.000665008,0.00100591,-0.00263834,1.384,0.00217323,0.0230944,1959,1149,40.4087,-6.44926
742,-125,40.4294,6.10779,-0.00297569,0.00127736,0.00128512,0.00163552,-0.00333385,1.299,0.00292438,0.0258694,1966,1149,40.4295,-6.10783
749,-125,40.3917,5.77271,-0.00286455,0.00201996,0.00180806,0.00261641,-0.00346099,1.25216,0.00352006,0.0266102,1973,1149,40.3917,-5.77267
756,-125,40.3932,5.4231,-0.00219713,0.00417639,0.00254763,0.00506956,-0.00309031,1.2336,0.00475708,0.0214394,1980,1149,40.3932,-5.42309
763,-125,40.3972,5.08594,-0.00126058,0.00834602,0.00328176,0.00936008,-0.00227464,1.2711,0.00712042,0.0122482,1987,1149,40.3972,-5.08599
770,-125,40.3425,4.78052,0.000449679,0.0136313,0.00415128,0.0148297,-0.000748725,1.28975,0.0101453,0.0143529,1994,1149,40.3425,-4.78051
777,-125,40.2555,4.52356,0.00282107,0.0208213,0.00510084,0.0221662,0.0014761,1.31299,0.0143108,0.0267402,2001,1149,40.2554,-4.5236
784,-125,40.0134,4.16028,0.00598497,0.0308885,0.00619185,0.032343,0.00453042,1.34007,0.0202217,0.0470891,2008,1149,40.0134,-4.1603
791,-125,39.814,3.80945,0,0,0,0,0,0,0,-1,2015,1149,39.814,-3.80943
798,-125,40.3928,2.34473,0,0,0,0,0,0,0,-1,2022,1149,40.3928,-2.34468
805,-125,40.3618,1.47363,0,0,0,0,0,0,0,-1,2029,1149,40.3618,-1.47358
812,-125,40.9634,0.805176,0,0,0,0,0,0,0,-1,2036,1149,40.9635,-0.805195
-700,-132,0,0,0,0,0,0,0,0,0,-1,524,1156,0,0
-693,-132,-23.6656,0.435059,0,0,0,0,0,0,0,-1,531,1156,-23.6656,-0.435112
-686,-132,-27.6524,-1.24255,0,0,0,0,0,0,0,-1,538,1156,-27.6524,1.24254
-679,-132,-30.2672,2.1665,0,0,0,0,0,0,0,-1,545,1156,-30.2672,-2.16647
-672,-132,-30.3143,2.73669,0.018459,0.0438233,-0.0173517,0.0526334,0.0096488,-1.10098,0.0323558,0.0411795,552,1156,-30.3143,-2.73666
-665,-132,-29.7674,2.99585,0.0165157,0.034227,-0.0122617,0.0404966,0.0102461,-1.09814,0.024313,0.0421241,559,1156,-29.7674,-2.99588
-658,-132,-28.5506,0.595703,0,0,0,0,0,0,0,-1,566,1156,-28.5506,-0.595699
-651,-132,-28.2676,1.14124,0.0113977,0.0189738,-0.00598667,0.0222702,0.00810128,-1.06748,0.0130158,0.0408561,573,1156,-28.2676,-1.14124
-644,-132,-27.9941,1.69458,0.00880861,0.0133938,-0.00406256,0.015766,0.00643639,-1.04228,0.00915343,0.0221458,580,1156,-27.9941,-1.69463
-637,-132,-28.0417,2.05359,0.00644101,0.00896551,-0.002664,0.0106512,0.00475535,-1.00664,0.00616119,0.0114635,587,1156,-28.0417,-2.05364
-630,-132,-28.043,2.41504,0.00453532,0.00545578,-0.00152089,0.00658455,0.00340655,-0.932321,0.00380236,0.00988214,594,1156,-28.043,-2.41506
-623,-132,-28.0639,2.79956,0.00297752,0.00267659,-0.000734408,0.00357672,0.0020774,-0.684356,0.00207399,0.0149917,601,1156,-28.0639,-2.7996
-616,-132,-28.1061,3.1178,0.00219863,0.0010715,-1.00496e-05,0.00219872,0.00107141,-0.00891514,0.00126957,0.0263371,608,1156,-28.1061,-3.11785
-609,-132,-28.1417,3.63806,0,0,0,0,0,0,0,-1,615,1156,-28.1417,-3.63804
-602,-132,-28.1156,3.84619,0.00177999,0.000724974,0.000509885,0.00198614,0.000518828,0.384205,0.00118948,0.0271368,622,1156,-28.1156,-3.84625
-595,-132,-28.2451,4.23755,0.00151919,0.000740863,0.00036798,0.00166562,0.000594436,0.378713,0.000974687,0.0375746,629,1156,-28.2451,-4.23757
-588,-132,-28.0603,4.76819,0.00139196,0.00070129,0.000186603,0.00143915,0.000654099,0.247703,0.000832041,0.0373321,636,1156,-28.0603,-4.7682
-581,-132,-27.6638,5.37048,0,0,0,0,0,0,0,-1,643,1156,-27.6638,-5.37046
-574,-132,-31.0175,2.71472,0,0,0,0,0,0,0,-1,650,1156,-31.0175,-2.71469
-567,-132,-32.6397,0.927856,0,0,0,0,0,0,0,-1,657,1156,-32.6397,-0.927804
-560,-132,-32.7557,1.03943,0.00125906,0.00157979,0.000670823,0.00210915,0.000729701,0.902727,0.00123683,0.0350028,664,1156,-32.7558,-1.0394
-553,-132,-32.8632,1.14038,0.000615143,0.00198601,0.000554771,0.00218238,0.000418765,1.23058,0.00133737,0.0361909,671,1156,-32.8632,-1.14042
-546,-132,-32.7727,1.1825,-0.000445546,0.00231896,0.000457592,0.00239273,-0.00051932,1.41095,0.0017935,0.0405071,678,1156,-32.7727,-1.18255
-539,-132,-32.6171,1.19202,-0.00223481,0.00271935,0.000694515,0.00281487,-0.00233033,1.43412,0.00297497,0.0420551,685,1156,-32.6171,-1.192
-532,-132,-32.5644,0.907837,-0.00414583,0.00312714,0.00158687,0.0034583,-0.00447699,1.36506,0.00459401,0.0389019,692,1156,-32.5644,-0.907817
-525,-132,-32.6219,0.872559,-0.00630153,0.00355745,0.00289728,0.00434583,-0.00708992,1.30512,0.00666549,0.0407307,699,1156,-32.6219,-0.872506
-518,-132,0,0,0,0,0,0,0,0,0,-1,706,1156,0,0
-511,-132,0,0,0,0,0,0,0,0,0,-1,713,1156,0,0
-504,-132,0,0,0,0,0,0,0,0,0,-1,720,1156,0,0
-497,-132,0,0,0,0,0,0,0,0,0,-1,727,1156,0,0
-490,-132,0,0,0,0,0,0,0,0,0,-1,734,1156,0,0
-483,-132,0,0,0,0,0,0,0,0,0,-1,741,1156,0,0
-476,-132,0,0,0,0,0,0,0,0,0,-1,748,1156,0,0
-469,-132,0,0,0,0,0,0,0,0,0,-1,755,1156,0,0
-462,-132,0,0,0,0,0,0,0,0,0,-1,762,1156,0,0
-455,-132,0,0,0,0,0,0,0,0,0,-1,769,1156,0,0
-448,-132,0,0,0,0,0,0,0,0,0,-1,776,1156,0,0
-441,-132,0,0,0,0,0,0,0,0,0,-1,783,1156,0,0
-434,-132,0,0,0,0,0,0,0,0,0,-1,790,1156,0,0
-427,-132,0,0,0,0,0,0,0,0,0,-1,797,1156,0,0
-420,-132,0,0,0,0,0,0,0,0,0,-1,804,1156,0,0
-413,-132,0,0,0,0,0,0,0,0,0,-1,811,1156,0,0
-406,-132,0,0,0,0,0,0,0,0,0,-1,818,1156,0,0
-399,-132,0,0,0,0,0,0,0,0,0,-1,825,1156,0,0
-392,-132,0,0,0,0,0,0,0,0,0,-1,832,1156,0,0
-385,-132,0,0,0,0,0,0,0,0,0,-1,839,1156,0,0
-378,-132,0,0,0,0,0,0,0,0,0,-1,846,1156,0,0
-371,-132,0,0,0,0,0,0,0,0,0,-1,853,1156,0,0
-364,-132,0,0,0,0,0,0,0,0,0,-1,860,1156,0,0
-357,-132,0,0,0,0,0,0,0,0,0,-1,867,1156,0,0
-350,-132,0,0,0,0,0,0,0,0,0,-1,874,1156,0,0
-343,-132,0,0,0,0,0,0,0,0,0,-1,881,1156,0,0
-336,-132,0,0,0,0,0,0,0,0,0,-1,888,1156,0,0
-329,-132,0,0,0,0,0,0,0,0,0,-1,895,1156,0,0
-322,-132,0,0,0,0,0,0,0,0,0,-1,902,1156,0,0
-315,-132,0,0,0,0,0,0,0,0,0,-1,909,1156,0,0
-308,-132,0,0,0,0,0,0,0,0,0,-1,916,1156,0,0
-301,-132,0,0,0,0,0,0,0,0,0,-1,923,1156,0,0
-294,-132,0,0,0,0,0,0,0,0,0,-1,930,1156,0,0
-287,-132,0,0,0,0,0,0,0,0,0,-1,937,1156,0,0
-280,-132,0,0,0,0,0,0,0,0,0,-1,944,1156,0,0
-273,-132,0,0,0,0,0,0,0,0,0,-1,951,1156,0,0
-266,-132,0,0,0,0,0,0,0,0,0,-1,958,1156,0,0
-259,-132,0,0,0,0,0,0,0,0,0,-1,965,1156,0,0
-252,-132,0,0,0,0,0,0,0,0,0,-1,972,1156,0,0
-245,-132,0,0,0,0,0,0,0,0,0,-1,979,1156,0,0
-238,-132,0,0,0,0,0,0,0,0,0,-1,986,1156,0,0
-231,-132,0,0,0,0,0,0,0,0,0,-1,993,1156,0,0
-224,-132,0,0,0,0,0,0,0,0,0,-1,1000,1156,0,0
-217,-132,0,0,0,0,0,0,0,0,0,-1,1007,1156,0,0
-210,-132,0,0,0,0,0,0,0,0,0,-1,1014,1156,0,0
-203,-132,0,0,0,0,0,0,0,0,0,-1,1021,1156,0,0
-196,-132,0,0,0,0,0,0,0,0,0,-1,1028,1156,0,0
-189,-132,0,0,0,0,0,0,0,0,0,-1,1035,1156,0,0
-182,-132,0,0,0,0,0,0,0,0,0,-1,1042,1156,0,0
-175,-132,0,0,0,0,0,0,0,0,0,-1,1049,1156,0,0
-168,-132,0,0,0,0,0,0,0,0,0,-1,1056,1156,0,0
-161,-132,0,0,0,0,0,0,0,0,0,-1,1063,1156,0,0
-154,-132,0,0,0,0,0,0,0,0,0,-1,1070,1156,0,0
-147,-132,0,0,0,0,0,0,0,0,0,-1,1077,1156,0,0
-140,-132,0,0,0,0,0,0,0,0,0,-1,1084,1156,0,0
-133,-132,0,0,0,0,0,0,0,0,0,-1,1091,1156,0,0
-126,-132,0,0,0,0,0,0,0,0,0,-1,1098,1156,0,0
-119,-132,0,0,0,0,0,0,0,0,0,-1,1105,1156,0,0
-112,-132,0,0,0,0,0,0,0,0,0,-1,1112,1156,0,0
-105,-132,0,0,0,0,0,0,0,0,0,-1,1119,1156,0,0
-98,-132,0,0,0,0,0,0,0,0,0,-1,1126,1156,0,0
-91,-132,0,0,0,0,0,0,0,0,0,-1,1133,1156,0,0
-84,-132,0,0,0,0,0,0,0,0,0,-1,1140,1156,0,0
-77,-132,0,0,0,0,0,0,0,0,0,-1,1147,1156,0,0
-70,-132,0,0,0,0,0,0,0,0,0,-1,1154,1156,0,0
-63,-132,0,0,0,0,0,0,0,0,0,-1,1161,1156,0,0
-56,-132,0,0,0,0,0,0,0,0,0,-1,1168,1156,0,0
-49,-132,0,0,0,0,0,0,0,0,0,-1,1175,1156,0,0
-42,-132,0,0,0,0,0,0,0,0,0,-1,1182,1156,0,0
-35,-132,0,0,0,0,0,0,0,0,0,-1,1189,1156,0,0
-28,-132,0,0,0,0,0,0,0,0,0,-1,1196,1156,0,0
-21,-132,0,0,0,0,0,0,0,0,0,-1,1203,1156,0,0
-14,-132,0,0,0,0,0,0,0,0,0,-1,1210,1156,0,0
-7,-132,0,0,0,0,0,0,0,0,0,-1,1217,1156,0,0
0,-132,0,0,0,0,0,0,0,0,0,-1,1224,1156,0,0
7,-132,0,0,0,0,0,0,0,0,0,-1,1231,1156,0,0
14,-132,0,0,0,0,0,0,0,0,0,-1,1238,1156,0,0
21,-132,0,0,0,0,0,0,0,0,0,-1,1245,1156,0,0
28,-132,0,0,0,0,0,0,0,0,0,-1,1252,1156,0,0
35,-132,0,0,0,0,0,0,0,0,0,-1,1259,1156,0,0
42,-132,0,0,0,0,0,0,0,0,0,-1,1266,1156,0,0
49,-132,0,0,0,0,0,0,0,0,0,-1,1273,1156,0,0
56,-132,0,0,0,0,0,0,0,0,0,-1,1280,1156,0,0
63,-132,0,0,0,0,0,0,0,0,0,-1,1287,1156,0,0
70,-132,0,0,0,0,0,0,0,0,0,-1,1294,1156,0,0
77,-132,0,0,0,0,0,0,0,0,0,-1,1301,1156,0,0
84,-132,0,0,0,0,0,0,0,0,0,-1,1308,1156,0,0
91,-132,0,0,0,0,0,0,0,0,0,-1,1315,1156,0,0
98,-132,0,0,0,0,0,0,0,0,0,-1,1322,1156,0,0
105,-132,0,0,0,0,0,0,0,0,0,-1,1329,1156,0,0
112,-132,0,0,0,0,0,0,0,0,0,-1,1336,1156,0,0
119,-132,0,0,0,0,0,0,0,0,0,-1,1343,1156,0,0
126,-132,0,0,0,0,0,0,0,0,0,-1,1350,1156,0,0
133,-132,0,0,0,0,0,0,0,0,0,-1,1357,1156,0,0
140,-132,0,0,0,0,0,0,0,0,0,-1,1364,1156,0,0
147,-132,0,0,0,0,0,0,0,0,0,-1,1371,1156,0,0
154,-132,0,0,0,0,0,0,0,0,0,-1,1378,1156,0,0
161,-132,0,0,0,0,0,0,0,0,0,-1,1385,1156,0,0
168,-132,0,0,0,0,0,0,0,0,0,-1,1392,1156,0,0
175,-132,0,0,0,0,0,0,0,0,0,-1,1399,1156,0,0
182,-132,0,0,0,0,0,0,0,0,0,-1,1406,1156,0,0
189,-132,0,0,0,0,0,0,0,0,0,-1,1413,1156,0,0
196,-132,0,0,0,0,0,0,0,0,0,-1,1420,1156,0,0
203,-132,0,0,0,0,0,0,0,0,0,-1,1427,1156,0,0
210,-132,0,0,0,0,0,0,0,0,0,-1,1434,1156,0,0
217,-132,0,0,0,0,0,0,0,0,0,-1,1441,1156,0,0
224,-132,0,0,0,0,0,0,0,0,0,-1,1448,1156,0,0
231,-132,0,0,0,0,0,0,0,0,0,-1,1455,1156,0,0
238,-132,0,0,0,0,0,0,0,0,0,-1,1462,1156,0,0
245,-132,0,0,0,0,0,0,0,0,0,-1,1469,1156,0,0
252,-132,0,0,0,0,0,0,0,0,0,-1,1476,1156,0,0
259,-132,0,0,0,0,0,0,0,0,0,-1,1483,1156,0,0
266,-132,0,0,0,0,0,0,0,0,0,-1,1490,1156,0,0
273,-132,0,0,0,0,0,0,0,0,0,-1,1497,1156,0,0
280,-132,0,0,0,0,0,0,0,0,0,-1,1504,1156,0,0
287,-132,0,0,0,0,0,0,0,0,0,-1,1511,1156,0,0
294,-132,0,0,0,0,0,0,0,0,0,-1,1518,1156,0,0
301,-132,0,0,0,0,0,0,0,0,0,-1,1525,1156,0,0
308,-132,0,0,0,0,0,0,0,0,0,-1,1532,1156,0,0
315,-132,0,0,0,0,0,0,0,0,0,-1,1539,1156,0,0
322,-132,0,0,0,0,0,0,0,0,0,-1,1546,1156,0,0
329,-132,0,0,0,0,0,0,0,0,0,-1,1553,1156,0,0
336,-132,0,0,0,0,0,0,0,0,0,-1,1560,1156,0,0
343,-132,0,0,0,0,0,0,0,0,0,-1,1567,1156,0,0
350,-132,0,0,0,0,0,0,0,0,0,-1,1574,1156,0,0
357,-132,0,0,0,0,0,0,0,0,0,-1,1581,1156,0,0
364,-132,0,0,0,0,0,0,0,0,0,-1,1588,1156,0,0
371,-132,0,0,0,0,0,0,0,0,0,-1,1595,1156,0,0
378,-132,0,0,0,0,0,0,0,0,0,-1,1602,1156,0,0
385,-132,0,0,0,0,0,0,0,0,0,-1,1609,1156,0,0
392,-132,0,0,0,0,0,0,0,0,0,-1,1616,1156,0,0
399,-132,0,0,0,0,0,0,0,0,0,-1,1623,1156,0,0
406,-132,0,0,0,0,0,0,0,0,0,-1,1630,1156,0,0
413,-132,0,0,0,0,0,0,0,0,0,-1,1637,1156,0,0
420,-132,0,0,0,0,0,0,0,0,0,-1,1644,1156,0,0
427,-132,0,0,0,0,0,0,0,0,0,-1,1651,1156,0,0
434,-132,0,0,0,0,0,0,0,0,0,-1,1658,1156,0,0
441,-132,0,0,0,0,0,0,0,0,0,-1,1665,1156,0,0
448,-132,0,0,0,0,0,0,0,0,0,-1,1672,1156,0,0
455,-132,0,0,0,0,0,0,0,0,0,-1,1679,1156,0,0
462,-132,0,0,0,0,0,0,0,0,0,-1,1686,1156,0,0
469,-132,0,0,0,0,0,0,0,0,0,-1,1693,1156,0,0
476,-132,0,0,0,0,0,0,0,0,0,-1,1700,1156,0,0
483,-132,0,0,0,0,0,0,0,0,0,-1,1707,1156,0,0
490,-132,0,0,0,0,0,0,0,0,0,-1,1714,1156,0,0
497,-132,0,0,0,0,0,0,0,0,0,-1,1721,1156,0,0
504,-132,0,0,0,0,0,0,0,0,0,-1,1728,1156,0,0
511,-132,0,0,0,0,0,0,0,0,0,-1,1735,1156,0,0
518,-132,0,0,0,0,0,0,0,0,0,-1,1742,1156,0,0
525,-132,0,0,0,0,0,0,0,0,0,-1,1749,1156,0,0
532,-132,0,0,0,0,0,0,0,0,0,-1,1756,1156,0,0
539,-132,0,0,0,0,0,0,0,0,0,-1,1763,1156,0,0
546,-132,0,0,0,0,0,0,0,0,0,-1,1770,1156,0,0
553,-132,0,0,0,0,0,0,0,0,0,-1,1777,1156,0,0
560,-132,0,0,0,0,0,0,0,0,0,-1,1784,1156,0,0
567,-132,0,0,0,0,0,0,0,0,0,-1,1791,1156,0,0
574,-132,0,0,0,0,0,0,0,0,0,-1,1798,1156,0,0
581,-132,0,0,0,0,0,0,0,0,0,-1,1805,1156,0,0
588,-132,0,0,0,0,0,0,0,0,0,-1,1812,1156,0,0
595,-132,0,0,0,0,0,0,0,0,0,-1,1819,1156,0,0
602,-132,0,0,0,0,0,0,0,0,0,-1,1826,1156,0,0
609,-132,0,0,0,0,0,0,0,0,0,-1,1833,1156,0,0
616,-132,0,0,0,0,0,0,0,0,0,-1,1840,1156,0,0
623,-132,0,0,0,0,0,0,0,0,0,-1,1847,1156,0,0
630,-132,0,0,0,0,0,0,0,0,0,-1,1854,1156,0,0
637,-132,0,0,0,0,0,0,0,0,0,-1,1861,1156,0,0
644,-132,44.4684,2.55347,0.00577534,-0.00567227,0.00155474,0.00598274,-0.00587967,0.132614,0.00684885,0.0432594,1868,1156,44.4683,-2.55346
651,-132,44.4673,2.69214,0.00399491,-0.00449058,0.00176765,0.00434841,-0.00484408,0.19738,0.00530986,0.0410167,1875,1156,44.4673,-2.69217
658,-132,44.4664,2.71997,0.00284259,-0.00354361,0.00169113,0.00326277,-0.00396379,0.243532,0.0041788,0.0422112,1882,1156,44.4664,-2.72001
665,-132,44.4116,2.69543,0.00195452,-0.00265172,0.00141741,0.00235573,-0.00305294,0.275845,0.00313133,0.0433691,1889,1156,44.4116,-2.69538
672,-132,44.3938,2.83691,0.00126773,-0.00191812,0.0011089,0.0016157,-0.00226609,0.304065,0.00225161,0.0400966,1896,1156,44.3938,-2.83692
679,-132,44.4116,3.07007,0.000296066,-0.00114336,0.000854399,0.000693485,-0.00154078,0.435376,0.00132051,0.0389241,1903,1156,44.4116,-3.07003
686,-132,44.4979,2.96472,-0.000418027,-0.000764148,0.000737865,0.000166801,-0.00134898,0.670209,0.000959761,0.0357146,1910,1156,44.4979,-2.96468
693,-132,44.4407,2.80786,-0.00083625,-0.000408295,0.000708181,0.000117529,-0.00136207,0.932113,0.000949653,0.0287597,1917,1156,44.4407,-2.80785
700,-132,44.5204,2.82104,-0.00123167,-0.000162631,0.000625536,0.000125654,-0.00151995,1.13895,0.00105768,0.0388249,1924,1156,44.5204,-2.82099
707,-132,44.6017,2.84485,0,0,0,0,0,0,0,-1,1931,1156,44.6016,-2.84486
714,-132,40.026,7.23267,0,0,0,0,0,0,0,-1,1938,1156,40.026,-7.2327
721,-132,40.1219,6.99084,-0.00234337,0.00067754,0.000753552,0.000855076,-0.0025209,1.33942,0.00202667,0.0344272,1945,1156,40.122,-6.99083
728,-132,40.0906,6.74805,-0.00272243,0.00079846,0.000725939,0.000942261,-0.00286623,1.37524,0.00229045,0.0257627,1952,1156,40.0905,-6.74802
735,-132,40.0483,6.47961,-0.00313369,0.000930064,0.000892221,0.00111733,-0.00332095,1.36391,0.00266564,0.0268101,1959,1156,40.0483,-6.47964
742,-132,40.0551,6.09265,-0.00354598,0.00129311,0.00147038,0.00170486,-0.00395773,1.29776,0.00335444,0.0202455,1966,1156,40.0551,-6.09264
749,-132,40.0525,5.75537,-0.00344532,0.00199132,0.00200272,0.00264942,-0.00410341,1.25331,0.00392876,0.0245864,1973,1156,40.0525,-5.75532
756,-132,40.0894,5.42297,-0.00267935,0.00411138,0.0027796,0.00510403,-0.003672,1.22779,0.00508928,0.023708,1980,1156,40.0893,-5.42298
763,-132,40.037,5.10059,-0.00165741,0.00826207,0.00362109,0.00944328,-0.00283863,1.25548,0.00742486,0.0143658,1987,1156,40.037,-5.10054
770,-132,40.0168,4.79016,3.70693e-05,0.0134565,0.00464825,0.0149093,-0.00141572,1.26787,0.0104435,0.0133619,1994,1156,40.0168,-4.79017
777,-132,39.9576,4.48657,0.00237352,0.0206502,0.00585942,0.0223674,0.000656355,1.28572,0.0146977,0.0216444,2001,1156,39.9576,-4.48657
784,-132,39.826,4.31458,0.00546058,0.0309335,0.00736086,0.0329076,0.00348651,1.30878,0.0208735,0.0436154,2008,1156,39.826,-4.3146
791,-132,39.6997,4.17676,0,0,0,0,0,0,0,-1,2015,1156,39.6996,-4.17672
798,-132,40.5283,1.22021,0,0,0,0,0,0,0,-1,2022,1156,40.5282,-1.22024
805,-132,40.5186,-0.312622,0,0,0,0,0,0,0,-1,2029,1156,40.5185,0.312583
812,-132,40.5181,-1.85938,0,0,0,0,0,0,0,-1,2036,1156,40.5181,1.85939
-700,-139,0,0,0,0,0,0,0,0,0,-1,524,1163,0,0
-693,-139,-27.9145,0.857666,0,0,0,0,0,0,0,-1,531,1163,-27.9145,-0.857677
-686,-139,-29.4963,1.32043,0,0,0,0,0,0,0,-1,538,1163,-29.4963,-1.32039
-679,-139,-29.4182,1.86401,0,0,0,0,0,0,0,-1,545,1163,-29.4181,-1.86402
-672,-139,-29.3077,2.41785,0.0119857,0.0477191,-0.0177155,0.0550131,0.00469176,-1.18022,0.0352158,0.0414784,552,1163,-29.3077,-2.41781
-665,-139,-29.2245,2.94727,0.0115499,0.0376868,-0.0129106,0.0429886,0.0062481,-1.18114,0.0268201,0.0418734,559,1163,-29.2245,-2.94727
-658,-139,-28.1352,0.841064,0,0,0,0,0,0,0,-1,566,1163,-28.1352,-0.841069
-651,-139,-27.878,1.25671,0.00894388,0.0212161,-0.00664016,0.0241212,0.00603877,-1.15838,0.0144935,0.041305,573,1163,-27.878,-1.25668
-644,-139,-27.6062,1.6781,0.0072179,0.0150299,-0.00460282,0.0171607,0.00508711,-1.13724,0.0101777,0.0219926,580,1163,-27.6062,-1.67806
-637,-139,-27.6388,2.0199,0.00546624,0.0100694,-0.00307677,0.0116102,0.00392546,-1.10653,0.00681929,0.0123853,587,1163,-27.6388,-2.01988
-630,-139,-27.6559,2.40344,0.00400888,0.00615163,-0.00180057,0.00717546,0.00298504,-1.05377,0.00416219,0.0107829,594,1163,-27.656,-2.40338
-623,-139,-27.678,2.78394,0.00271001,0.00300607,-0.00097309,0.00384232,0.00187375,-0.860882,0.00221859,0.0168961,601,1163,-27.678,-2.7839
-616,-139,-27.6641,3.14795,0.00194436,0.00119354,-0.000278792,0.00203656,0.00110134,-0.319384,0.00117711,0.0183764,608,1163,-27.664,-3.14793
-609,-139,-27.5396,3.53662,0.00160154,0.000749462,8.52019e-06,0.00160162,0.000749377,0.00999801,0.000925333,0.0370289,615,1163,-27.5396,-3.53663
-602,-139,-27.7226,3.91223,0.00144249,0.000797843,0.000145334,0.00147374,0.000766593,0.211798,0.000851098,0.0321157,622,1163,-27.7226,-3.91221
-595,-139,-27.8856,4.30603,0.00120238,0.000814911,3.65385e-05,0.0012058,0.000811496,0.0932052,0.000709921,0.0363041,629,1163,-27.8856,-4.306
-588,-139,-27.739,4.71277,0.00110625,0.000804898,-0.000169839,0.00118262,0.000728531,-0.422554,0.000688887,0.0315688,636,1163,-27.7389,-4.71281
-581,-139,-27.233,5.23022,0,0,0,0,0,0,0,-1,643,1163,-27.233,-5.23017
-574,-139,-23.0725,2.4043,0,0,0,0,0,0,0,-1,650,1163,-23.0725,-2.40433
-567,-139,-32.6538,1.02173,0,0,0,0,0,0,0,-1,657,1163,-32.6538,-1.02174
-560,-139,-32.6962,1.03735,0.00125915,0.00171416,0.000295429,0.00185953,0.00111377,1.11351,0.00108059,0.0344347,664,1163,-32.6963,-1.03741
-553,-139,-32.7595,0.985107,0.000822631,0.00214813,0.00021594,0.00218243,0.000788339,1.41331,0.0012761,0.0387521,671,1163,-32.7595,-0.985093
-546,-139,-32.808,1.10718,0.000225785,0.00250175,0.000218898,0.00252261,0.000204923,1.47578,0.00161776,0.042271,678,1163,-32.808,-1.1072
-539,-139,-32.6726,1.09497,-0.000960512,0.00301448,0.000621563,0.00310941,-0.00105544,1.41925,0.00250015,0.03919,685,1163,-32.6726,-1.09498
-532,-139,-32.5935,0.859741,-0.00222994,0.0034659,0.00164642,0.00390756,-0.0026716,1.30871,0.00382076,0.0361805,692,1163,-32.5935,-0.859772
-525,-139,-32.6198,0.986328,-0.00369253,0.00390795,0.00308847,0.0050047,-0.00478928,1.22958,0.00565501,0.0400546,699,1163,-32.6198,-0.986345
-518,-139,0,0,0,0,0,0,0,0,0,-1,706,1163,0,0
-511,-139,0,0,0,0,0,0,0,0,0,-1,713,1163,0,0
-504,-139,0,0,0,0,0,0,0,0,0,-1,720,1163,0,0
-497,-139,0,0,0,0,0,0,0,0,0,-1,727,1163,0,0
-490,-139,0,0,0,0,0,0,0,0,0,-1,734,1163,0,0
-483,-139,0,0,0,0,0,0,0,0,0,-1,741,1163,0,0
-476,-139,0,0,0,0,0,0,0,0,0,-1,748,1163,0,0
-469,-139,0,0,0,0,0,0,0,0,0,-1,755,1163,0,0
-462,-139,0,0,0,0,0,0,0,0,0,-1,762,1163,0,0
-455,-139,0,0,0,0,0,0,0,0,0,-1,769,1163,0,0
-448,-139,0,0,0,0,0,0,0,0,0,-1,776,1163,0,0
-441,-139,0,0,0,0,0,0,0,0,0,-1,783,1163,0,0
-434,-139,0,0,0,0,0,0,0,0,0,-1,790,1163,0,0
-427,-139,0,0,0,0,0,0,0,0,0,-1,797,1163,0,0
-420,-139,0,0,0,0,0,0,0,0,0,-1,804,1163,0,0
-413,-139,0,0,0,0,0,0,0,0,0,-1,811,1163,0,0
-406,-139,0,0,0,0,0,0,0,0,0,-1,818,1163,0,0
-399,-139,0,0,0,0,0,0,0,0,0,-1,825,1163,0,0
-392,-139,0,0,0,0,0,0,0,0,0,-1,832,1163,0,0
-385,-139,0,0,0,0,0,0,0,0,0,-1,839,1163,0,0
-378,-139,0,0,0,0,0,0,0,0,0,-1,846,1163,0,0
-371,-139,0,0,0,0,0,0,0,0,0,-1,853,1163,0,0
-364,-139,0,0,0,0,0,0,0,0,0,-1,860,1163,0,0
-357,-139,0,0,0,0,0,0,0,0,0,-1,867,1163,0,0
-350,-139,0,0,0,0,0,0,0,0,0,-1,874,1163,0,0
-343,-139,0,0,0,0,0,0,0,0,0,-1,881,1163,0,0
-336,-139,0,0,0,0,0,0,0,0,0,-1,888,1163,0,0
-329,-139,0,0,0,0,0,0,0,0,0,-1,895,1163,0,0
-322,-139,0,0,0,0,0,0,0,0,0,-1,902,1163,0,0
-315,-139,0,0,0,0,0,0,0,0,0,-1,909,1163,0,0
-308,-139,0,0,0,0,0,0,0,0,0,-1,916,1163,0,0
-301,-139,0,0,0,0,0,0,0,0,0,-1,923,1163,0,0
-294,-139,0,0,0,0,0,0,0,0,0,-1,930,1163,0,0
-287,-139,0,0,0,0,0,0,0,0,0,-1,937,1163,0,0
-280,-139,0,0,0,0,0,0,0,0,0,-1,944,1163,0,0
-273,-139,0,0,0,0,0,0,0,0,0,-1,951,1163,0,0
-266,-139,0,0,0,0,0,0,0,0,0,-1,958,1163,0,0
-259,-139,0,0,0,0,0,0,0,0,0,-1,965,1163,0,0
-252,-139,0,0,0,0,0,0,0,0,0,-1,972,1163,0,0
-245,-139,0,0,0,0,0,0,0,0,0,-1,979,1163,0,0
-238,-139,0,0,0,0,0,0,0,0,0,-1,986,1163,0,0
-231,-139,0,0,0,0,0,0,0,0,0,-1,993,1163,0,0
-224,-139,0,0,0,0,0,0,0,0,0,-1,1000,1163,0,0
-217,-139,0,0,0,0,0,0,0,0,0,-1,1007,1163,0,0
-210,-139,0,0,0,0,0,0,0,0,0,-1,1014,1163,0,0
-203,-139,0,0,0,0,0,0,0,0,0,-1,1021,1163,0,0
-196,-139,0,0,0,0,0,0,0,0,0,-1,1028,1163,0,0
-189,-139,0,0,0,0,0,0,0,0,0,-1,1035,1163,0,0
-182,-139,0,0,0,0,0,0,0,0,0,-1,1042,1163,0,0
-175,-139,0,0,0,0,0,0,0,0,0,-1,1049,1163,0,0
-168,-139,0,0,0,0,0,0,0,0,0,-1,1056,1163,0,0
-161,-139,0,0,0,0,0,0,0,0,0,-1,1063,1163,0,0
-154,-139,0,0,0,0,0,0,0,0,0,-1,1070,1163,0,0
-147,-139,0,0,0,0,0,0,0,0,0,-1,1077,1163,0,0
-140,-139,0,0,0,0,0,0,0,0,0,-1,1084,1163,0,0
-133,-139,0,0,0,0,0,0,0,0,0,-1,1091,1163,0,0
-126,-139,0,0,0,0,0,0,0,0,0,-1,1098,1163,0,0
-119,-139,0,0,0,0,0,0,0,0,0,-1,1105,1163,0,0
-112,-139,0,0,0,0,0,0,0,0,0,-1,1112,1163,0,0
-105,-139,0,0,0,0,0,0,0,0,0,-1,1119,1163,0,0
-98,-139,0,0,0,0,0,0,0,0,0,-1,1126,1163,0,0
-91,-139,0,0,0,0,0,0,0,0,0,-1,1133,1163,0,0
-84,-139,0,0,0,0,0,0,0,0,0,-1,1140,1163,0,0
-77,-139,0,0,0,0,0,0,0,0,0,-1,1147,1163,0,0
-70,-139,0,0,0,0,0,0,0,0,0,-1,1154,1163,0,0
-63,-139,0,0,0,0,0,0,0,0,0,-1,1161,1163,0,0
-56,-139,0,0,0,0,0,0,0,0,0,-1,1168,1163,0,0
-49,-139,0,0,0,0,0,0,0,0,0,-1,1175,1163,0,0
-42,-139,0,0,0,0,0,0,0,0,0,-1,1182,1163,0,0
-35,-139,0,0,0,0,0,0,0,0,0,-1,1189,1163,0,0
-28,-139,0,0,0,0,0,0,0,0,0,-1,1196,1163,0,0
-21,-139,0,0,0,0,0,0,0,0,0,-1,1203,1163,0,0
-14,-139,0,0,0,0,0,0,0,0,0,-1,1210,1163,0,0
-7,-139,0,0,0,0,0,0,0,0,0,-1,1217,1163,0,0
0,-139,0,0,0,0,0,0,0,0,0,-1,1224,1163,0,0
7,-139,0,0,0,0,0,0,0,0,0,-1,1231,1163,0,0
14,-139,0,0,0,0,0,0,0,0,0,-1,1238,1163,0,0
21,-139,0,0,0,0,0,0,0,0,0,-1,1245,1163,0,0
28,-139,0,0,0,0,0,0,0,0,0,-1,1252,1163,0,0
35,-139,0,0,0,0,0,0,0,0,0,-1,1259,1163,0,0
42,-139,0,0,0,0,0,0,0,0,0,-1,1266,1163,0,0
49,-139,0,0,0,0,0,0,0,0,0,-1,1273,1163,0,0
56,-139,0,0,0,0,0,0,0,0,0,-1,1280,1163,0,0
63,-139,0,0,0,0,0,0,0,0,0,-1,1287,1163,0,0
70,-139,0,0,0,0,0,0,0,0,0,-1,1294,1163,0,0
77,-139,0,0,0,0,0,0,0,0,0,-1,1301,1163,0,0
84,-139,0,0,0,0,0,0,0,0,0,-1,1308,1163,0,0
91,-139,0,0,0,0,0,0,0,0,0,-1,1315,1163,0,0
98,-139,0,0,0,0,0,0,0,0,0,-1,1322,1163,0,0
105,-139,0,0,0,0,0,0,0,0,0,-1,1329,1163,0,0
112,-139,0,0,0,0,0,0,0,0,0,-1,1336,1163,0,0
119,-139,0,0,0,0,0,0,0,0,0,-1,1343,1163,0,0
126,-139,0,0,0,0,0,0,0,0,0,-1,1350,1163,0,0
133,-139,0,0,0,0,0,0,0,0,0,-1,1357,1163,0,0
140,-139,0,0,0,0,0,0,0,0,0,-1,1364,1163,0,0
147,-139,0,0,0,0,0,0,0,0,0,-1,1371,1163,0,0
154,-139,0,0,0,0,0,0,0,0,0,-1,1378,1163,0,0
161,-139,0,0,0,0,0,0,0,0,0,-1,1385,1163,0,0
168,-139,0,0,0,0,0,0,0,0,0,-1,1392,1163,0,0
175,-139,0,0,0,0,0,0,0,0,0,-1,1399,1163,0,0
182,-139,0,0,0,0,0,0,0,0,0,-1,1406,1163,0,0
189,-139,0,0,0,0,0,0,0,0,0,-1,1413,1163,0,0
196,-139,0,0,0,0,0,0,0,0,0,-1,1420,1163,0,0
203,-139,0,0,0,0,0,0,0,0,0,-1,1427,1163,0,0
210,-139,0,0,0,0,0,0,0,0,0,-1,1434,1163,0,0
217,-139,0,0,0,0,0,0,0,0,0,-1,1441,1163,0,0
224,-139,0,0,0,0,0,0,0,0,0,-1,1448,1163,0,0
231,-139,0,0,0,0,0,0,0,0,0,-1,1455,1163,0,0
238,-139,0,0,0,0,0,0,0,0,0,-1,1462,1163,0,0
245,-139,0,0,0,0,0,0,0,0,0,-1,1469,1163,0,0
252,-139,0,0,0,0,0,0,0,0,0,-1,1476,1163,0,0
259,-139,0,0,0,0,0,0,0,0,0,-1,1483,1163,0,0
266,-139,0,0,0,0,0,0,0,0,0,-1,1490,1163,0,0
273,-139,0,0,0,0,0,0,0,0,0,-1,1497,1163,0,0
280,-139,0,0,0,0,0,0,0,0,0,-1,1504,1163,0,0
287,-139,0,0,0,0,0,0,0,0,0,-1,1511,1163,0,0
294,-139,0,0,0,0,0,0,0,0,0,-1,1518,1163,0,0
301,-139,0,0,0,0,0,0,0,0,0,-1,1525,1163,0,0
308,-139,0,0,0,0,0,0,0,0,0,-1,1532,1163,0,0
315,-139,0,0,0,0,0,0,0,0,0,-1,1539,1163,0,0
322,-139,0,0,0,0,0,0,0,0,0,-1,1546,1163,0,0
329,-139,0,0,0,0,0,0,0,0,0,-1,1553,1163,0,0
336,-139,0,0,0,0,0,0,0,0,0,-1,1560,1163,0,0
343,-139,0,0,0,0,0,0,0,0,0,-1,1567,1163,0,0
350,-139,0,0,0,0,0,0,0,0,0,-1,1574,1163,0,0
357,-139,0,0,0,0,0,0,0,0,0,-1,1581,1163,0,0
364,-139,0,0,0,0,0,0,0,0,0,-1,1588,1163,0,0
371,-139,0,0,0,0,0,0,0,0,0,-1,1595,1163,0,0
378,-139,0,0,0,0,0,0,0,0,0,-1,1602,1163,0,0
385,-139,0,0,0,0,0,0,0,0,0,-1,1609,1163,0,0
392,-139,0,0,0,0,0,0,0,0,0,-1,1616,1163,0,0
399,-139,0,0,0,0,0,0,0,0,0,-1,1623,1163,0,0
406,-139,0,0,0,0,0,0,0,0,0,-1,1630,1163,0,0
413,-139,0,0,0,0,0,0,0,0,0,-1,1637,1163,0,0
420,-139,0,0,0,0,0,0,0,0,0,-1,1644,1163,0,0
427,-139,0,0,0,0,0,0,0,0,0,-1,1651,1163,0,0
434,-139,0,0,0,0,0,0,0,0,0,-1,1658,1163,0,0
441,-139,0,0,0,0,0,0,0,0,0,-1,1665,1163,0,0
448,-139,0,0,0,0,0,0,0,0,0,-1,1672,1163,0,0
455,-139,0,0,0,0,0,0,0,0,0,-1,1679,1163,0,0
462,-139,0,0,0,0,0,0,0,0,0,-1,1686,1163,0,0
469,-139,0,0,0,0,0,0,0,0,0,-1,1693,1163,0,0
476,-139,0,0,0,0,0,0,0,0,0,-1,1700,1163,0,0
483,-139,0,0,0,0,0,0,0,0,0,-1,1707,1163,0,0
490,-139,0,0,0,0,0,0,0,0,0,-1,1714,1163,0,0
497,-139,0,0,0,0,0,0,0,0,0,-1,1721,1163,0,0
504,-139,0,0,0,0,0,0,0,0,0,-1,1728,1163,0,0
511,-139,0,0,0,0,0,0,0,0,0,-1,1735,1163,0,0
518,-139,0,0,0,0,0,0,0,0,0,-1,1742,1163,0,0
525,-139,0,0,0,0,0,0,0,0,0,-1,1749,1163,0,0
532,-139,0,0,0,0,0,0,0,0,0,-1,1756,1163,0,0
539,-139,0,0,0,0,0,0,0,0,0,-1,1763,1163,0,0
546,-139,0,0,0,0,0,0,0,0,0,-1,1770,1163,0,0
553,-139,0,0,0,0,0,0,0,0,0,-1,1777,1163,0,0
560,-139,0,0,0,0,0,0,0,0,0,-1,1784,1163,0,0
567,-139,0,0,0,0,0,0,0,0,0,-1,1791,1163,0,0
574,-139,0,0,0,0,0,0,0,0,0,-1,1798,1163,0,0
581,-139,0,0,0,0,0,0,0,0,0,-1,1805,1163,0,0
588,-139,0,0,0,0,0,0,0,0,0,-1,1812,1163,0,0
595,-139,0,0,0,0,0,0,0,0,0,-1,1819,1163,0,0
602,-139,0,0,0,0,0,0,0,0,0,-1,1826,1163,0,0
609,-139,0,0,0,0,0,0,0,0,0,-1,1833,1163,0,0
616,-139,0,0,0,0,0,0,0,0,0,-1,1840,1163,0,0
623,-139,0,0,0,0,0,0,0,0,0,-1,1847,1163,0,0
630,-139,0,0,0,0,0,0,0,0,0,-1,1854,1163,0,0
637,-139,0,0,0,0,0,0,0,0,0,-1,1861,1163,0,0
644,-139,44.3972,2.62476,0.00502208,-0.00650038,0.00130343,0.00516769,-0.00664598,0.111248,0.0068384,0.0432917,1868,1163,44.3972,-2.62481
651,-139,44.5198,2.93787,0.00355165,-0.0050511,0.00150768,0.00380822,-0.00530768,0.168565,0.00528675,0.0434499,1875,1163,44.5198,-2.93783
658,-139,44.533,2.98572,0.00255668,-0.00376252,0.00142642,0.00286375,-0.00406958,0.212032,0.00402309,0.0430517,1882,1163,44.5329,-2.98572
665,-139,44.4371,2.90271,0.0018017,-0.00257693,0.00120332,0.0021106,-0.00288583,0.25128,0.00289624,0.0406994,1889,1163,44.4372,-2.90267
672,-139,44.4528,2.97607,0.00112777,-0.0016759,0.00103063,0.00146586,-0.00201399,0.316981,0.00201739,0.0393275,1896,1163,44.4528,-2.97603
679,-139,44.5059,2.93152,7.54502e-05,-0.000784512,0.000912918,0.000654579,-0.00136364,0.56531,0.00118895,0.0361018,1903,1163,44.5059,-2.93151
686,-139,44.5184,2.85474,-0.000675153,-0.00043324,0.000926186,0.000379854,-0.00148825,0.850329,0.00114008,0.0341331,1910,1163,44.5185,-2.85472
693,-139,44.47,2.79382,-0.00112982,-0.000138086,0.00100239,0.000484383,-0.00175228,1.01509,0.00135874,0.0259587,1917,1163,44.47,-2.7938
700,-139,44.5789,2.80701,0,0,0,0,0,0,0,-1,1924,1163,44.5788,-2.80703
707,-139,32.116,6.54346,0,0,0,0,0,0,0,-1,1931,1163,32.116,-6.54343
714,-139,39.6825,7.48303,0,0,0,0,0,0,0,-1,1938,1163,39.6825,-7.48299
721,-139,39.819,7.01367,-0.00272832,0.000816131,0.00116283,0.00116357,-0.00307575,1.28046,0.00252921,0.0316926,1945,1163,39.8189,-7.01371
728,-139,39.6968,6.79565,-0.00310375,0.000884251,0.00114533,0.00118978,-0.00340928,1.31011,0.00275641,0.0379807,1952,1163,39.6968,-6.7956
735,-139,39.6434,6.54468,-0.00345159,0.00091873,0.00128048,0.00126627,-0.00379913,1.30577,0.00304394,0.0286261,1959,1163,39.6434,-6.54465
742,-139,39.7252,6.07092,-0.00379315,0.00124541,0.00177522,0.00180804,-0.00435578,1.26388,0.00365861,0.0235195,1966,1163,39.7252,-6.0709
749,-139,39.718,5.69958,-0.00364644,0.00190554,0.0022712,0.00271625,-0.00445716,1.22794,0.00418203,0.0199797,1973,1163,39.7181,-5.69959
756,-139,39.694,5.39429,-0.00278804,0.00393386,0.00303573,0.00510189,-0.00395607,1.2035,0.00524355,0.0112485,1980,1163,39.6939,-5.39425
763,-139,39.649,5.06873,-0.00172739,0.00792464,0.00393691,0.00932676,-0.00312951,1.22865,0.00748244,0.0112442,1987,1163,39.649,-5.06873
770,-139,39.6538,4.77148,-6.7033e-05,0.0128966,0.00510297,0.0146643,-0.00183472,1.23733,0.0104416,0.0123551,1994,1163,39.6539,-4.77143
777,-139,39.6819,4.50732,0.00219353,0.0199517,0.00657346,0.0221201,2.50544e-05,1.25215,0.0147384,0.0232434,2001,1163,39.6819,-4.50731
784,-139,39.6171,4.51172,0.00509537,0.0302732,0.00844509,0.0328434,0.00252512,1.27535,0.0211043,0.0402629,2008,1163,39.6171,-4.51174
791,-139,39.6318,4.6687,0.00907656,0.0449286,0.0108091,0.0479353,0.00606987,1.29949,0.030138,0.0477229,2015,1163,39.6319,-4.66873
798,-139,40.5881,0.21814,0,0,0,0,0,0,0,-1,2022,1163,40.588,-0.218114
805,-139,40.52,-1.21313,0,0,0,0,0,0,0,-1,2029,1163,40.5201,1.21315
812,-139,0,0,0,0,0,0,0,0,0,-1,2036,1163,0,0
-700,-146,0,0,0,0,0,0,0,0,0,-1,524,1170,0,0
-693,-146,-27.6125,0.612427,0,0,0,0,0,0,0,-1,531,1170,-27.6125,-0.612482
-686,-146,-26.9087,1.21838,0,0,0,0,0,0,0,-1,538,1170,-26.9086,-1.21838
-679,-146,-28.4002,1.63232,0,0,0,0,0,0,0,-1,545,1170,-28.4002,-1.63231
-672,-146,-28.4564,2.20801,0,0,0,0,0,0,0,-1,552,1170,-28.4564,-2.20806
-665,-146,-27.9717,0.665894,0,0,0,0,0,0,0,-1,559,1170,-27.9717,-0.665856
-658,-146,-27.7636,1.02588,0,0,0,0,0,0,0,-1,566,1170,-27.7636,-1.02594
-651,-146,-27.4517,1.2738,0.00736802,0.0249112,-0.00700592,0.0273656,0.00491359,-1.23382,0.0168465,0.0372593,573,1170,-27.4517,-1.27377
-644,-146,-27.1866,1.63477,0.00603395,0.017735,-0.00499416,0.0195767,0.00419226,-1.2175,0.0119024,0.0198896,580,1170,-27.1866,-1.63478
-637,-146,-27.2059,2.02319,0.00461263,0.011911,-0.00343717,0.0132749,0.00324877,-1.19305,0.00799028,0.0109017,587,1170,-27.2059,-2.02321
-630,-146,-27.2443,2.4082,0.00344374,0.00732165,-0.00208208,0.0082278,0.00253759,-1.16031,0.00486517,0.0107573,594,1170,-27.2443,-2.40823
-623,-146,-27.2729,2.78503,0.00230419,0.00354204,-0.00121971,0.00429088,0.00155536,-1.02019,0.00250838,0.0132693,601,1170,-27.2729,-2.78502
-616,-146,-27.3073,3.17346,0.00161443,0.0013282,-0.000500987,0.00199234,0.000950287,-0.646272,0.00115069,0.0188227,608,1170,-27.3073,-3.17347
-609,-146,-27.1364,3.63757,0.00128647,0.000793723,-0.000222754,0.00137224,0.000707953,-0.367547,0.000792396,0.0235003,615,1170,-27.1364,-3.63752
-602,-146,-26.7602,3.98425,0,0,0,0,0,0,0,-1,622,1170,-26.7602,-3.98428
-595,-146,-27.5388,4.37207,0,0,0,0,0,0,0,-1,629,1170,-27.5388,-4.37206
-588,-146,-27.6691,4.64905,0,0,0,0,0,0,0,-1,636,1170,-27.669,-4.64903
-581,-146,-25.8838,5.00452,0,0,0,0,0,0,0,-1,643,1170,-25.8838,-5.00447
-574,-146,-17.9915,3.79114,0,0,0,0,0,0,0,-1,650,1170,-17.9915,-3.79118
-567,-146,-32.6909,1.02344,0,0,0,0,0,0,0,-1,657,1170,-32.6909,-1.02343
-560,-146,-32.6829,1.04138,0.00131498,0.00150526,5.55238e-05,0.00152027,0.00129996,1.30666,0.000948644,0.0351635,664,1170,-32.6829,-1.04141
-553,-146,-32.6811,0.967529,0.00104787,0.00188883,-8.89889e-06,0.00188892,0.00104777,-1.56022,0.00109274,0.0373641,671,1170,-32.6811,-0.967494
-546,-146,-32.7244,1.12366,0.000871948,0.00215393,4.72198e-05,0.00215567,0.000870211,1.53403,0.00125225,0.0426403,678,1170,-32.7244,-1.12364
-539,-146,-32.6456,1.07568,0.000275151,0.00264293,0.000560454,0.00276889,0.000149192,1.34973,0.00179826,0.0409491,685,1170,-32.6456,-1.07567
-532,-146,-32.5414,0.646484,-0.000364332,0.00296616,0.00166159,0.00365334,-0.00105152,1.17865,0.00285144,0.0386663,692,1170,-32.5414,-0.646472
-525,-146,-32.5977,1.05981,-0.00101846,0.0032134,0.00322351,0.0049534,-0.00275846,1.07583,0.00451216,0.042115,699,1170,-32.5977,-1.05983
-518,-146,0,0,0,0,0,0,0,0,0,-1,706,1170,0,0
-511,-146,0,0,0,0,0,0,0,0,0,-1,713,1170,0,0
-504,-146,0,0,0,0,0,0,0,0,0,-1,720,1170,0,0
-497,-146,0,0,0,0,0,0,0,0,0,-1,727,1170,0,0
-490,-146,0,0,0,0,0,0,0,0,0,-1,734,1170,0,0
-483,-146,0,0,0,0,0,0,0,0,0,-1,741,1170,0,0
-476,-146,0,0,0,0,0,0,0,0,0,-1,748,1170,0,0
-469,-146,0,0,0,0,0,0,0,0,0,-1,755,1170,0,0
-462,-146,0,0,0,0,0,0,0,0,0,-1,762,1170,0,0
-455,-146,0,0,0,0,0,0,0,0,0,-1,769,1170,0,0
-448,-146,0,0,0,0,0,0,0,0,0,-1,776,1170,0,0
-441,-146,0,0,0,0,0,0,0,0,0,-1,783,1170,0,0
-434,-146,0,0,0,0,0,0,0,0,0,-1,790,1170,0,0
-427,-146,0,0,0,0,0,0,0,0,0,-1,797,1170,0,0
-420,-146,0,0,0,0,0,0,0,0,0,-1,804,1170,0,0
-413,-146,0,0,0,0,0,0,0,0,0,-1,811,1170,0,0
-406,-146,0,0,0,0,0,0,0,0,0,-1,818,1170,0,0
-399,-146,0,0,0,0,0,0,0,0,0,-1,825,1170,0,0
-392,-146,0,0,0,0,0,0,0,0,0,-1,832,1170,0,0
-385,-146,0,0,0,0,0,0,0,0,0,-1,839,1170,0,0
-378,-146,0,0,0,0,0,0,0,0,0,-1,846,1170,0,0
-371,-146,0,0,0,0,0,0,0,0,0,-1,853,1170,0,0
-364,-146,0,0,0,0,0,0,0,0,0,-1,860,1170,0,0
-357,-146,0,0,0,0,0,0,0,0,0,-1,867,1170,0,0
-350,-146,0,0,0,0,0,0,0,0,0,-1,874,1170,0,0
-343,-146,0,0,0,0,0,0,0,0,0,-1,881,1170,0,0
-336,-146,0,0,0,0,0,0,0,0,0,-1,888,1170,0,0
-329,-146,0,0,0,0,0,0,0,0,0,-1,895,1170,0,0
-322,-146,0,0,0,0,0,0,0,0,0,-1,902,1170,0,0
-315,-146,0,0,0,0,0,0,0,0,0,-1,909,1170,0,0
-308,-146,0,0,0,0,0,0,0,0,0,-1,916,1170,0,0
-301,-146,0,0,0,0,0,0,0,0,0,-1,923,1170,0,0
-294,-146,0,0,0,0,0,0,0,0,0,-1,930,1170,0,0
-287,-146,0,0,0,0,0,0,0,0,0,-1,937,1170,0,0
-280,-146,0,0,0,0,0,0,0,0,0,-1,944,1170,0,0
-273,-146,0,0,0,0,0,0,0,0,0,-1,951,1170,0,0
-266,-146,0,0,0,0,0,0,0,0,0,-1,958,1170,0,0
-259,-146,0,0,0,0,0,0,0,0,0,-1,965,1170,0,0
-252,-146,0,0,0,0,0,0,0,0,0,-1,972,1170,0,0
-245,-146,0,0,0,0,0,0,0,0,0,-1,979,1170,0,0
-238,-146,0,0,0,0,0,0,0,0,0,-1,986,1170,0,0
-231,-146,0,0,0,0,0,0,0,0,0,-1,993,1170,0,0
-224,-146,0,0,0,0,0,0,0,0,0,-1,1000,1170,0,0
-217,-146,0,0,0,0,0,0,0,0,0,-1,1007,1170,0,0
-210,-146,0,0,0,0,0,0,0,0,0,-1,1014,1170,0,0
-203,-146,0,0,0,0,0,0,0,0,0,-1,1021,1170,0,0
-196,-146,0,0,0,0,0,0,0,0,0,-1,1028,1170,0,0
-189,-146,0,0,0,0,0,0,0,0,0,-1,1035,1170,0,0
-182,-146,0,0,0,0,0,0,0,0,0,-1,1042,1170,0,0
-175,-146,0,0,0,0,0,0,0,0,0,-1,1049,1170,0,0
-168,-146,0,0,0,0,0,0,0,0,0,-1,1056,1170,0,0
-161,-146,0,0,0,0,0,0,0,0,0,-1,1063,1170,0,0
-154,-146,0,0,0,0,0,0,0,0,0,-1,1070,1170,0,0
-147,-146,0,0,0,0,0,0,0,0,0,-1,1077,1170,0,0
-140,-146,0,0,0,0,0,0,0,0,0,-1,1084,1170,0,0
-133,-146,0,0,0,0,0,0,0,0,0,-1,1091,1170,0,0
-126,-146,0,0,0,0,0,0,0,0,0,-1,1098,1170,0,0
-119,-146,0,0,0,0,0,0,0,0,0,-1,1105,1170,0,0
-112,-146,0,0,0,0,0,0,0,0,0,-1,1112,1170,0,0
-105,-146,0,0,0,0,0,0,0,0,0,-1,1119,1170,0,0
-98,-146,0,0,0,0,0,0,0,0,0,-1,1126,1170,0,0
-91,-146,0,0,0,0,0,0,0,0,0,-1,1133,1170,0,0
-84,-146,0,0,0,0,0,0,0,0,0,-1,1140,1170,0,0
-77,-146,0,0,0,0,0,0,0,0,0,-1,1147,1170,0,0
-70,-146,0,0,0,0,0,0,0,0,0,-1,1154,1170,0,0
-63,-146,0,0,0,0,0,0,0,0,0,-1,1161,1170,0,0
-56,-146,0,0,0,0,0,0,0,0,0,-1,1168,1170,0,0
-49,-146,0,0,0,0,0,0,0,0,0,-1,1175,1170,0,0
-42,-146,0,0,0,0,0,0,0,0,0,-1,1182,1170,0,0
-35,-146,0,0,0,0,0,0,0,0,0,-1,1189,1170,0,0
-28,-146,0,0,0,0,0,0,0,0,0,-1,1196,1170,0,0
-21,-146,0,0,0,0,0,0,0,0,0,-1,1203,1170,0,0
-14,-146,0,0,0,0,0,0,0,0,0,-1,1210,1170,0,0
-7,-146,0,0,0,0,0,0,0,0,0,-1,1217,1170,0,0
0,-146,0,0,0,0,0,0,0,0,0,-1,1224,1170,0,0
7,-146,0,0,0,0,0,0,0,0,0,-1,1231,1170,0,0
14,-146,0,0,0,0,0,0,0,0,0,-1,1238,1170,0,0
21,-146,0,0,0,0,0,0,0,0,0,-1,1245,1170,0,0
28,-146,0,0,0,0,0,0,0,0,0,-1,1252,1170,0,0
35,-146,0,0,0,0,0,0,0,0,0,-1,1259,1170,0,0
42,-146,0,0,0,0,0,0,0,0,0,-1,1266,1170,0,0
49,-146,0,0,0,0,0,0,0,0,0,-1,1273,1170,0,0
56,-146,0,0,0,0,0,0,0,0,0,-1,1280,1170,0,0
63,-146,0,0,0,0,0,0,0,0,0,-1,1287,1170,0,0
70,-146,0,0,0,0,0,0,0,0,0,-1,1294,1170,0,0
77,-146,0,0,0,0,0,0,0,0,0,-1,1301,1170,0,0
84,-146,0,0,0,0,0,0,0,0,0,-1,1308,1170,0,0
91,-146,0,0,0,0,0,0,0,0,0,-1,1315,1170,0,0
98,-146,0,0,0,0,0,0,0,0,0,-1,1322,1170,0,0
105,-146,0,0,0,0,0,0,0,0,0,-1,1329,1170,0,0
112,-146,0,0,0,0,0,0,0,0,0,-1,1336,1170,0,0
119,-146,0,0,0,0,0,0,0,0,0,-1,1343,1170,0,0
126,-146,0,0,0,0,0,0,0,0,0,-1,1350,1170,0,0
133,-146,0,0,0,0,0,0,0,0,0,-1,1357,1170,0,0
140,-146,0,0,0,0,0,0,0,0,0,-1,1364,1170,0,0
147,-146,0,0,0,0,0,0,0,0,0,-1,1371,1170,0,0
154,-146,0,0,0,0,0,0,0,0,0,-1,1378,1170,0,0
161,-146,0,0,0,0,0,0,0,0,0,-1,1385,1170,0,0
168,-146,0,0,0,0,0,0,0,0,0,-1,1392,1170,0,0
175,-146,0,0,0,0,0,0,0,0,0,-1,1399,1170,0,0
182,-146,0,0,0,0,0,0,0,0,0,-1,1406,1170,0,0
189,-146,0,0,0,0,0,0,0,0,0,-1,1413,1170,0,0
196,-146,0,0,0,0,0,0,0,0,0,-1,1420,1170,0,0
203,-146,0,0,0,0,0,0,0,0,0,-1,1427,1170,0,0
210,-146,0,0,0,0,0,0,0,0,0,-1,1434,1170,0,0
217,-146,0,0,0,0,0,0,0,0,0,-1,1441,1170,0,0
224,-146,0,0,0,0,0,0,0,0,0,-1,1448,1170,0,0
231,-146,0,0,0,0,0,0,0,0,0,-1,1455,1170,0,0
238,-146,0,0,0,0,0,0,0,0,0,-1,1462,1170,0,0
245,-146,0,0,0,0,0,0,0,0,0,-1,1469,1170,0,0
252,-146,0,0,0,0,0,0,0,0,0,-1,1476,1170,0,0
259,-146,0,0,0,0,0,0,0,0,0,-1,1483,1170,0,0
266,-146,0,0,0,0,0,0,0,0,0,-1,1490,1170,0,0
273,-146,0,0,0,0,0,0,0,0,0,-1,1497,1170,0,0
280,-146,0,0,0,0,0,0,0,0,0,-1,1504,1170,0,0
287,-146,0,0,0,0,0,0,0,0,0,-1,1511,1170,0,0
294,-146,0,0,0,0,0,0,0,0,0,-1,1518,1170,0,0
301,-146,0,0,0,0,0,0,0,0,0,-1,1525,1170,0,0
308,-146,0,0,0,0,0,0,0,0,0,-1,1532,1170,0,0
315,-146,0,0,0,0,0,0,0,0,0,-1,1539,1170,0,0
322,-146,0,0,0,0,0,0,0,0,0,-1,1546,1170,0,0
329,-146,0,0,0,0,0,0,0,0,0,-1,1553,1170,0,0
336,-146,0,0,0,0,0,0,0,0,0,-1,1560,1170,0,0
343,-146,0,0,0,0,0,0,0,0,0,-1,1567,1170,0,0
350,-146,0,0,0,0,0,0,0,0,0,-1,1574,1170,0,0
357,-146,0,0,0,0,0,0,0,0,0,-1,1581,1170,0,0
364,-146,0,0,0,0,0,0,0,0,0,-1,1588,1170,0,0
371,-146,0,0,0,0,0,0,0,0,0,-1,1595,1170,0,0
378,-146,0,0,0,0,0,0,0,0,0,-1,1602,1170,0,0
385,-146,0,0,0,0,0,0,0,0,0,-1,1609,1170,0,0
392,-146,0,0,0,0,0,0,0,0,0,-1,1616,1170,0,0
399,-146,0,0,0,0,0,0,0,0,0,-1,1623,1170,0,0
406,-146,0,0,0,0,0,0,0,0,0,-1,1630,1170,0,0
413,-146,0,0,0,0,0,0,0,0,0,-1,1637,1170,0,0
420,-146,0,0,0,0,0,0,0,0,0,-1,1644,1170,0,0
427,-146,0,0,0,0,0,0,0,0,0,-1,1651,1170,0,0
434,-146,0,0,0,0,0,0,0,0,0,-1,1658,1170,0,0
441,-146,0,0,0,0,0,0,0,0,0,-1,1665,1170,0,0
448,-146,0,0,0,0,0,0,0,0,0,-1,1672,1170,0,0
455,-146,0,0,0,0,0,0,0,0,0,-1,1679,1170,0,0
462,-146,0,0,0,0,0,0,0,0,0,-1,1686,1170,0,0
469,-146,0,0,0,0,0,0,0,0,0,-1,1693,1170,0,0
476,-146,0,0,0,0,0,0,0,0,0,-1,1700,1170,0,0
483,-146,0,0,0,0,0,0,0,0,0,-1,1707,1170,0,0
490,-146,0,0,0,0,0,0,0,0,0,-1,1714,1170,0,0
497,-146,0,0,0,0,0,0,0,0,0,-1,1721,1170,0,0
504,-146,0,0,0,0,0,0,0,0,0,-1,1728,1170,0,0
511,-146,0,0,0,0,0,0,0,0,0,-1,1735,1170,0,0
518,-146,0,0,0,0,0,0,0,0,0,-1,1742,1170,0,0
525,-146,0,0,0,0,0,0,0,0,0,-1,1749,1170,0,0
532,-146,0,0,0,0,0,0,0,0,0,-1,1756,1170,0,0
539,-146,0,0,0,0,0,0,0,0,0,-1,1763,1170,0,0
546,-146,0,0,0,0,0,0,0,0,0,-1,1770,1170,0,0
553,-146,0,0,0,0,0,0,0,0,0,-1,1777,1170,0,0
560,-146,0,0,0,0,0,0,0,0,0,-1,1784,1170,0,0
567,-146,0,0,0,0,0,0,0,0,0,-1,1791,1170,0,0
574,-146,0,0,0,0,0,0,0,0,0,-1,1798,1170,0,0
581,-146,0,0,0,0,0,0,0,0,0,-1,1805,1170,0,0
588,-146,0,0,0,0,0,0,0,0,0,-1,1812,1170,0,0
595,-146,0,0,0,0,0,0,0,0,0,-1,1819,1170,0,0
602,-146,0,0,0,0,0,0,0,0,0,-1,1826,1170,0,0
609,-146,0,0,0,0,0,0,0,0,0,-1,1833,1170,0,0
616,-146,0,0,0,0,0,0,0,0,0,-1,1840,1170,0,0
623,-146,0,0,0,0,0,0,0,0,0,-1,1847,1170,0,0
630,-146,0,0,0,0,0,0,0,0,0,-1,1854,1170,0,0
637,-146,44.4594,2.62646,0.00528665,-0.00796308,0.000291965,0.00529308,-0.00796951,0.0220213,0.00770896,0.0408138,1861,1170,44.4594,-2.62644
644,-146,44.42,2.61389,0.00387953,-0.00636171,0.00099733,0.00397575,-0.00645793,0.0961796,0.00608045,0.0398124,1868,1170,44.4201,-2.61385
651,-146,44.5321,2.8927,0.00283859,-0.00484888,0.00116553,0.00301142,-0.00502171,0.147207,0.00468609,0.0384543,1875,1170,44.5321,-2.8927
658,-146,44.6699,3.24744,0,0,0,0,0,0,0,-1,1882,1170,44.67,-3.24744
665,-146,44.5054,2.91162,0.00162164,-0.00212755,0.000904326,0.00182837,-0.00233428,0.224739,0.00240921,0.0394918,1889,1170,44.5054,-2.91168
672,-146,44.6074,2.87866,0.00103517,-0.00121423,0.000883265,0.00134054,-0.0015196,0.332867,0.00165238,0.0387319,1896,1170,44.6075,-2.87868
679,-146,44.5752,2.82349,-5.67843e-05,-0.00033342,0.000919736,0.000734976,-0.00112518,0.710763,0.00108181,0.0306856,1903,1170,44.5752,-2.82349
686,-146,44.4424,2.75208,-0.000816631,-6.46577e-05,0.00105329,0.000677744,-0.00155903,0.95683,0.00132439,0.024,1910,1170,44.4424,-2.75211
693,-146,44.4882,2.72595,-0.00129364,0.000148997,0.00122682,0.000850843,-0.00199548,1.05116,0.00168704,0.0190275,1917,1170,44.4882,-2.72592
700,-146,44.5886,2.64087,0,0,0,0,0,0,0,-1,1924,1170,44.5886,-2.6409
707,-146,29.9441,6.94653,0,0,0,0,0,0,0,-1,1931,1170,29.9441,-6.94652
714,-146,31.325,6.13245,0,0,0,0,0,0,0,-1,1938,1170,31.325,-6.1325
721,-146,39.4626,6.89661,0,0,0,0,0,0,0,-1,1945,1170,39.4626,-6.89656
728,-146,39.7712,6.46497,-0.00338464,0.000987437,0.00153522,0.00147266,-0.00386987,1.26467,0.00318633,0.0483814,1952,1170,39.7712,-6.46493
735,-146,39.3317,6.44519,-0.00370961,0.000925713,0.0016416,0.00144819,-0.00423209,1.26266,0.00340827,0.0263648,1959,1170,39.3317,-6.4452
742,-146,39.3756,6.05688,-0.00400179,0.00119223,0.00204563,0.00190113,-0.00471069,1.2372,0.00393054,0.0182976,1966,1170,39.3756,-6.05693
749,-146,39.3621,5.7334,-0.00380262,0.00179206,0.00247922,0.00273258,-0.00474315,1.20821,0.00436784,0.0162509,1973,1170,39.3621,-5.73337
756,-146,39.3362,5.38977,-0.0029104,0.00362705,0.00321395,0.00494243,-0.00422578,1.18232,0.00529866,0.0121235,1980,1170,39.3362,-5.38973
763,-146,39.2859,5.04822,-0.00188757,0.00726064,0.00415273,0.00886453,-0.00349146,1.20222,0.00735513,0.0113005,1987,1170,39.2858,-5.04825
770,-146,39.2795,4.74707,-0.000351251,0.0118153,0.00544895,0.0138989,-0.00243481,1.20557,0.0101751,0.0125851,1994,1170,39.2796,-4.74708
777,-146,39.3243,4.54126,0.00172179,0.0184805,0.00719249,0.0211441,-0.000941742,1.21613,0.0144202,0.0221962,2001,1170,39.3243,-4.54122
784,-146,39.2572,4.5708,0.00430468,0.028557,0.0094496,0.0318042,0.00105753,1.23981,0.0208592,0.0386933,2008,1170,39.2572,-4.57078
791,-146,39.2148,4.54077,0.00806121,0.043178,0.0124099,0.0471209,0.0041184,1.26317,0.0301351,0.0441596,2015,1170,39.2148,-4.54074
798,-146,39.0725,4.68457,0,0,0,0,0,0,0,-1,2022,1170,39.0725,-4.68462
805,-146,40.5215,-2.20142,0,0,0,0,0,0,0,-1,2029,1170,40.5214,2.20146
812,-146,0,0,0,0,0,0,0,0,0,-1,2036,1170,0,0
-700,-153,0,0,0,0,0,0,0,0,0,-1,524,1177,0,0
-693,-153,0,0,0,0,0,0,0,0,0,-1,531,1177,0,0
-686,-153,-26.5958,0.903564,0,0,0,0,0,0,0,-1,538,1177,-26.5958,-0.903622
-679,-153,-27.4525,1.47266,0,0,0,0,0,0,0,-1,545,1177,-27.4524,-1.47264
-672,-153,-27.7013,2.08484,0.00772454,0.0636383,-0.0158067,0.0677974,0.00356539,-1.3135,0.044058,0.0460442,552,1177,-27.7013,-2.08485
-665,-153,-28.0566,2.58105,0.00796434,0.0512713,-0.0120507,0.0543987,0.00483693,-1.31688,0.0347658,0.0439991,559,1177,-28.0566,-2.58108
-658,-153,-27.0692,0.936768,0,0,0,0,0,0,0,-1,566,1177,-27.0692,-0.936707
-651,-153,-27.351,1.20251,0.00648122,0.0298366,-0.00683615,0.0316904,0.00462741,-1.30599,0.0197659,0.0456694,573,1177,-27.351,-1.20248
-644,-153,-26.7936,1.60498,0.00523053,0.0213383,-0.00499402,0.022761,0.00380785,-1.29327,0.0140775,0.0281244,580,1177,-26.7936,-1.605
-637,-153,-26.7871,2.03345,0.0039343,0.014375,-0.00354265,0.0154636,0.00284574,-1.27268,0.00950356,0.0114945,587,1177,-26.7871,-2.03346
-630,-153,-26.821,2.40857,0.00294791,0.00889745,-0.00223995,0.00964648,0.00219888,-1.24809,0.00583774,0.00974613,594,1177,-26.821,-2.40854
-623,-153,-26.8506,2.79578,0.00188815,0.00425371,-0.00145075,0.00494274,0.00119913,-1.1274,0.00297707,0.0100395,601,1177,-26.8506,-2.79572
-616,-153,-26.8852,3.18457,0.00129376,0.00145915,-0.000772803,0.00215367,0.000599239,-0.8387,0.00128354,0.0129017,608,1177,-26.8852,-3.18461
-609,-153,-26.8292,3.56335,0.000973461,0.000722105,-0.000513994,0.00137692,0.000318647,-0.665495,0.000832317,0.0203496,615,1177,-26.8292,-3.56339
-602,-153,-26.76,3.93152,0,0,0,0,0,0,0,-1,622,1177,-26.76,-3.93155
-595,-153,-27.2261,4.44275,0,0,0,0,0,0,0,-1,629,1177,-27.2261,-4.44276
-588,-153,-26.1733,4.40442,0,0,0,0,0,0,0,-1,636,1177,-26.1734,-4.40446
-581,-153,-25.6566,4.79578,0,0,0,0,0,0,0,-1,643,1177,-25.6566,-4.79579
-574,-153,-25.4814,5.16956,0,0,0,0,0,0,0,-1,650,1177,-25.4814,-5.16961
-567,-153,-32.5541,0.994751,0,0,0,0,0,0,0,-1,657,1177,-32.5541,-0.994724
-560,-153,-32.6296,0.992798,0.00120554,0.00122438,-0.000154635,0.00136989,0.00106004,-0.815822,0.000829495,0.043234,664,1177,-32.6296,-0.992787
-553,-153,-32.6291,0.970215,0.00104662,0.00157735,-0.000164448,0.00162418,0.000999794,-1.29341,0.000946031,0.0360738,671,1177,-32.6291,-0.970211
-546,-153,-32.5765,1.10571,0.00120624,0.00177838,-1.80059e-05,0.00177894,0.00120567,-1.53937,0.00104848,0.0395205,678,1177,-32.5766,-1.10572
-539,-153,-32.6332,0.94043,0.00122663,0.00225547,0.000658131,0.00257638,0.000905731,1.11712,0.00150917,0.0425285,685,1177,-32.6332,-0.94044
-532,-153,-32.6201,0.516113,0.00137672,0.00247594,0.00188704,0.00389178,-3.91165e-05,0.927105,0.00260765,0.0456402,692,1177,-32.6201,-0.51617
-525,-153,-32.574,1.17004,0.00187827,0.00243188,0.00359383,0.00575955,-0.0014494,0.823834,0.00440309,0.0430806,699,1177,-32.574,-1.17008
-518,-153,0,0,0,0,0,0,0,0,0,-1,706,1177,0,0
-511,-153,0,0,0,0,0,0,0,0,0,-1,713,1177,0,0
-504,-153,0,0,0,0,0,0,0,0,0,-1,720,1177,0,0
-497,-153,0,0,0,0,0,0,0,0,0,-1,727,1177,0,0
-490,-153,0,0,0,0,0,0,0,0,0,-1,734,1177,0,0
-483,-153,0,0,0,0,0,0,0,0,0,-1,741,1177,0,0
-476,-153,0,0,0,0,0,0,0,0,0,-1,748,1177,0,0
-469,-153,0,0,0,0,0,0,0,0,0,-1,755,1177,0,0
-462,-153,0,0,0,0,0,0,0,0,0,-1,762,1177,0,0
-455,-153,0,0,0,0,0,0,0,0,0,-1,769,1177,0,0
-448,-153,0,0,0,0,0,0,0,0,0,-1,776,1177,0,0
-441,-153,0,0,0,0,0,0,0,0,0,-1,783,1177,0,0
-434,-153,0,0,0,0,0,0,0,0,0,-1,790,1177,0,0
-427,-153,0,0,0,0,0,0,0,0,0,-1,797,1177,0,0
-420,-153,0,0,0,0,0,0,0,0,0,-1,804,1177,0,0
-413,-153,0,0,0,0,0,0,0,0,0,-1,811,1177,0,0
-406,-153,0,0,0,0,0,0,0,0,0,-1,818,1177,0,0
-399,-153,0,0,0,0,0,0,0,0,0,-1,825,1177,0,0
-392,-153,0,0,0,0,0,0,0,0,0,-1,832,1177,0,0
-385,-153,0,0,0,0,0,0,0,0,0,-1,839,1177,0,0
-378,-153,0,0,0,0,0,0,0,0,0,-1,846,1177,0,0
-371,-153,0,0,0,0,0,0,0,0,0,-1,853,1177,0,0
-364,-153,0,0,0,0,0,0,0,0,0,-1,860,1177,0,0
-357,-153,0,0,0,0,0,0,0,0,0,-1,867,1177,0,0
-350,-153,0,0,0,0,0,0,0,0,0,-1,874,1177,0,0
-343,-153,0,0,0,0,0,0,0,0,0,-1,881,1177,0,0
-336,-153,0,0,0,0,0,0,0,0,0,-1,888,1177,0,0
-329,-153,0,0,0,0,0,0,0,0,0,-1,895,1177,0,0
-322,-153,0,0,0,0,0,0,0,0,0,-1,902,1177,0,0
-315,-153,0,0,0,0,0,0,0,0,0,-1,909,1177,0,0
-308,-153,0,0,0,0,0,0,0,0,0,-1,916,1177,0,0
-301,-153,0,0,0,0,0,0,0,0,0,-1,923,1177,0,0
-294,-153,0,0,0,0,0,0,0,0,0,-1,930,1177,0,0
-287,-153,0,0,0,0,0,0,0,0,0,-1,937,1177,0,0
-280,-153,0,0,0,0,0,0,0,0,0,-1,944,1177,0,0
-273,-153,0,0,0,0,0,0,0,0,0,-1,951,1177,0,0
-266,-153,0,0,0,0,0,0,0,0,0,-1,958,1177,0,0
-259,-153,0,0,0,0,0,0,0,0,0,-1,965,1177,0,0
-252,-153,0,0,0,0,0,0,0,0,0,-1,972,1177,0,0
-245,-153,0,0,0,0,0,0,0,0,0,-1,979,1177,0,0
-238,-153,0,0,0,0,0,0,0,0,0,-1,986,1177,0,0
-231,-153,0,0,0,0,0,0,0,0,0,-1,993,1177,0,0
-224,-153,0,0,0,0,0,0,0,0,0,-1,1000,1177,0,0
-217,-153,0,0,0,0,0,0,0,0,0,-1,1007,1177,0,0
-210,-153,0,0,0,0,0,0,0,0,0,-1,1014,1177,0,0
-203,-153,0,0,0,0,0,0,0,0,0,-1,1021,1177,0,0
-196,-153,0,0,0,0,0,0,0,0,0,-1,1028,1177,0,0
-189,-153,0,0,0,0,0,0,0,0,0,-1,1035,1177,0,0
-182,-153,0,0,0,0,0,0,0,0,0,-1,1042,1177,0,0
-175,-153,0,0,0,0,0,0,0,0,0,-1,1049,1177,0,0
-168,-153,0,0,0,0,0,0,0,0,0,-1,1056,1177,0,0
-161,-153,0,0,0,0,0,0,0,0,0,-1,1063,1177,0,0
-154,-153,0,0,0,0,0,0,0,0,0,-1,1070,1177,0,0
-147,-153,0,0,0,0,0,0,0,0,0,-1,1077,1177,0,0
-140,-153,0,0,0,0,0,0,0,0,0,-1,1084,1177,0,0
-133,-153,0,0,0,0,0,0,0,0,0,-1,1091,1177,0,0
-126,-153,0,0,0,0,0,0,0,0,0,-1,1098,1177,0,0
-119,-153,0,0,0,0,0,0,0,0,0,-1,1105,1177,0,0
-112,-153,0,0,0,0,0,0,0,0,0,-1,1112,1177,0,0
-105,-153,0,0,0,0,0,0,0,0,0,-1,1119,1177,0,0
-98,-153,0,0,0,0,0,0,0,0,0,-1,1126,1177,0,0
-91,-153,0,0,0,0,0,0,0,0,0,-1,1133,1177,0,0
-84,-153,0,0,0,0,0,0,0,0,0,-1,1140,1177,0,0
-77,-153,0,0,0,0,0,0,0,0,0,-1,1147,1177,0,0
-70,-153,0,0,0,0,0,0,0,0,0,-1,1154,1177,0,0
-63,-153,0,0,0,0,0,0,0,0,0,-1,1161,1177,0,0
-56,-153,0,0,0,0,0,0,0,0,0,-1,1168,1177,0,0
-49,-153,0,0,0,0,0,0,0,0,0,-1,1175,1177,0,0
-42,-153,0,0,0,0,0,0,0,0,0,-1,1182,1177,0,0
-35,-153,0,0,0,0,0,0,0,0,0,-1,1189,1177,0,0
-28,-153,0,0,0,0,0,0,0,0,0,-1,1196,1177,0,0
-21,-153,0,0,0,0,0,0,0,0,0,-1,1203,1177,0,0
-14,-153,0,0,0,0,0,0,0,0,0,-1,1210,1177,0,0
-7,-153,0,0,0,0,0,0,0,0,0,-1,1217,1177,0,0
0,-153,0,0,0,0,0,0,0,0,0,-1,1224,1177,0,0
7,-153,0,0,0,0,0,0,0,0,0,-1,1231,1177,0,0
14,-153,0,0,0,0,0,0,0,0,0,-1,1238,1177,0,0
21,-153,0,0,0,0,0,0,0,0,0,-1,1245,1177,0,0
28,-153,0,0,0,0,0,0,0,0,0,-1,1252,1177,0,0
35,-153,0,0,0,0,0,0,0,0,0,-1,1259,1177,0,0
42,-153,0,0,0,0,0,0,0,0,0,-1,1266,1177,0,0
49,-153,0,0,0,0,0,0,0,0,0,-1,1273,1177,0,0
56,-153,0,0,0,0,0,0,0,0,0,-1,1280,1177,0,0
63,-153,0,0,0,0,0,0,0,0,0,-1,1287,1177,0,0
70,-153,0,0,0,0,0,0,0,0,0,-1,1294,1177,0,0
77,-153,0,0,0,0,0,0,0,0,0,-1,1301,1177,0,0
84,-153,0,0,0,0,0,0,0,0,0,-1,1308,1177,0,0
91,-153,0,0,0,0,0,0,0,0,0,-1,1315,1177,0,0
98,-153,0,0,0,0,0,0,0,0,0,-1,1322,1177,0,0
105,-153,0,0,0,0,0,0,0,0,0,-1,1329,1177,0,0
112,-153,0,0,0,0,0,0,0,0,0,-1,1336,1177,0,0
119,-153,0,0,0,0,0,0,0,0,0,-1,1343,1177,0,0
126,-153,0,0,0,0,0,0,0,0,0,-1,1350,1177,0,0
133,-153,0,0,0,0,0,0,0,0,0,-1,1357,1177,0,0
140,-153,0,0,0,0,0,0,0,0,0,-1,1364,1177,0,0
147,-153,0,0,0,0,0,0,0,0,0,-1,1371,1177,0,0
154,-153,0,0,0,0,0,0,0,0,0,-1,1378,1177,0,0
161,-153,0,0,0,0,0,0,0,0,0,-1,1385,1177,0,0
168,-153,0,0,0,0,0,0,0,0,0,-1,1392,1177,0,0
175,-153,0,0,0,0,0,0,0,0,0,-1,1399,1177,0,0
182,-153,0,0,0,0,0,0,0,0,0,-1,1406,1177,0,0
189,-153,0,0,0,0,0,0,0,0,0,-1,1413,1177,0,0
196,-153,0,0,0,0,0,0,0,0,0,-1,1420,1177,0,0
203,-153,0,0,0,0,0,0,0,0,0,-1,1427,1177,0,0
210,-153,0,0,0,0,0,0,0,0,0,-1,1434,1177,0,0
217,-153,0,0,0,0,0,0,0,0,0,-1,1441,1177,0,0
224,-153,0,0,0,0,0,0,0,0,0,-1,1448,1177,0,0
231,-153,0,0,0,0,0,0,0,0,0,-1,1455,1177,0,0
238,-153,0,0,0,0,0,0,0,0,0,-1,1462,1177,0,0
245,-153,0,0,0,0,0,0,0,0,0,-1,1469,1177,0,0
252,-153,0,0,0,0,0,0,0,0,0,-1,1476,1177,0,0
259,-153,0,0,0,0,0,0,0,0,0,-1,1483,1177,0,0
266,-153,0,0,0,0,0,0,0,0,0,-1,1490,1177,0,0
273,-153,0,0,0,0,0,0,0,0,0,-1,1497,1177,0,0
280,-153,0,0,0,0,0,0,0,0,0,-1,1504,1177,0,0
287,-153,0,0,0,0,0,0,0,0,0,-1,1511,1177,0,0
294,-153,0,0,0,0,0,0,0,0,0,-1,1518,1177,0,0
301,-153,0,0,0,0,0,0,0,0,0,-1,1525,1177,0,0
308,-153,0,0,0,0,0,0,0,0,0,-1,1532,1177,0,0
315,-153,0,0,0,0,0,0,0,0,0,-1,1539,1177,0,0
322,-153,0,0,0,0,0,0,0,0,0,-1,1546,1177,0,0
329,-153,0,0,0,0,0,0,0,0,0,-1,1553,1177,0,0
336,-153,0,0,0,0,0,0,0,0,0,-1,1560,1177,0,0
343,-153,0,0,0,0,0,0,0,0,0,-1,1567,1177,0,0
350,-153,0,0,0,0,0,0,0,0,0,-1,1574,1177,0,0
357,-153,0,0,0,0,0,0,0,0,0,-1,1581,1177,0,0
364,-153,0,0,0,0,0,0,0,0,0,-1,1588,1177,0,0
371,-153,0,0,0,0,0,0,0,0,0,-1,1595,1177,0,0
378,-153,0,0,0,0,0,0,0,0,0,-1,1602,1177,0,0
385,-153,0,0,0,0,0,0,0,0,0,-1,1609,1177,0,0
392,-153,0,0,0,0,0,0,0,0,0,-1,1616,1177,0,0
399,-153,0,0,0,0,0,0,0,0,0,-1,1623,1177,0,0
406,-153,0,0,0,0,0,0,0,0,0,-1,1630,1177,0,0
413,-153,0,0,0,0,0,0,0,0,0,-1,1637,1177,0,0
420,-153,0,0,0,0,0,0,0,0,0,-1,1644,1177,0,0
427,-153,0,0,0,0,0,0,0,0,0,-1,1651,1177,0,0
434,-153,0,0,0,0,0,0,0,0,0,-1,1658,1177,0,0
441,-153,0,0,0,0,0,0,0,0,0,-1,1665,1177,0,0
448,-153,0,0,0,0,0,0,0,0,0,-1,1672,1177,0,0
455,-153,0,0,0,0,0,0,0,0,0,-1,1679,1177,0,0
462,-153,0,0,0,0,0,0,0,0,0,-1,1686,1177,0,0
469,-153,0,0,0,0,0,0,0,0,0,-1,1693,1177,0,0
476,-153,0,0,0,0,0,0,0,0,0,-1,1700,1177,0,0
483,-153,0,0,0,0,0,0,0,0,0,-1,1707,1177,0,0
490,-153,0,0,0,0,0,0,0,0,0,-1,1714,1177,0,0
497,-153,0,0,0,0,0,0,0,0,0,-1,1721,1177,0,0
504,-153,0,0,0,0,0,0,0,0,0,-1,1728,1177,0,0
511,-153,0,0,0,0,0,0,0,0,0,-1,1735,1177,0,0
518,-153,0,0,0,0,0,0,0,0,0,-1,1742,1177,0,0
525,-153,0,0,0,0,0,0,0,0,0,-1,1749,1177,0,0
532,-153,0,0,0,0,0,0,0,0,0,-1,1756,1177,0,0
539,-153,0,0,0,0,0,0,0,0,0,-1,1763,1177,0,0
546,-153,0,0,0,0,0,0,0,0,0,-1,1770,1177,0,0
553,-153,0,0,0,0,0,0,0,0,0,-1,1777,1177,0,0
560,-153,0,0,0,0,0,0,0,0,0,-1,1784,1177,0,0
567,-153,0,0,0,0,0,0,0,0,0,-1,1791,1177,0,0
574,-153,0,0,0,0,0,0,0,0,0,-1,1798,1177,0,0
581,-153,0,0,0,0,0,0,0,0,0,-1,1805,1177,0,0
588,-153,0,0,0,0,0,0,0,0,0,-1,1812,1177,0,0
595,-153,0,0,0,0,0,0,0,0,0,-1,1819,1177,0,0
602,-153,0,0,0,0,0,0,0,0,0,-1,1826,1177,0,0
609,-153,0,0,0,0,0,0,0,0,0,-1,1833,1177,0,0
616,-153,0,0,0,0,0,0,0,0,0,-1,1840,1177,0,0
623,-153,0,0,0,0,0,0,0,0,0,-1,1847,1177,0,0
630,-153,0,0,0,0,0,0,0,0,0,-1,1854,1177,0,0
637,-153,44.4564,2.86743,0.00364992,-0.00732082,0.000207144,0.00365383,-0.00732473,0.0188726,0.0064555,0.0405543,1861,1177,44.4564,-2.86747
644,-153,44.4919,2.70898,0.00279318,-0.00581355,0.000710286,0.00285141,-0.00587177,0.0817894,0.00513597,0.0388473,1868,1177,44.492,-2.70893
651,-153,44.5118,2.76819,0.00213905,-0.00430361,0.00077653,0.00223132,-0.00439589,0.118273,0.00389365,0.0322105,1875,1177,44.5118,-2.76816
658,-153,44.4805,2.73621,0.0017736,-0.00286188,0.000602134,0.00185054,-0.00293882,0.127087,0.00278883,0.0352171,1882,1177,44.4805,-2.73626
665,-153,44.5592,2.69189,0.00155976,-0.00163862,0.000458165,0.0016241,-0.00170295,0.139512,0.00192106,0.0369942,1889,1177,44.5592,-2.69195
672,-153,44.5614,2.67212,0.00111249,-0.000884188,0.000572719,0.0012651,-0.0010368,0.260418,0.00133118,0.0377597,1896,1177,44.5614,-2.67216
679,-153,44.4847,2.76904,4.6876e-05,-0.000165046,0.000762205,0.00071045,-0.00082862,0.716331,0.000889455,0.0287822,1903,1177,44.4847,-2.76908
686,-153,44.4769,2.79028,-0.000687596,-2.83586e-05,0.00100012,0.000695061,-0.00141102,0.944582,0.00123914,0.0186968,1910,1177,44.4769,-2.79033
693,-153,44.5319,2.73657,-0.00115896,9.48966e-05,0.00125425,0.000870178,-0.00193424,1.01716,0.00165753,0.0321523,1917,1177,44.5319,-2.73663
700,-153,44.5957,2.64563,0,0,0,0,0,0,0,-1,1924,1177,44.5957,-2.64562
707,-153,29.6483,6.6842,0,0,0,0,0,0,0,-1,1931,1177,29.6483,-6.68415
714,-153,36.0046,6.78418,0,0,0,0,0,0,0,-1,1938,1177,36.0046,-6.78418
721,-153,36.4866,6.47595,0,0,0,0,0,0,0,-1,1945,1177,36.4866,-6.47593
728,-153,39.0032,6.56152,0,0,0,0,0,0,0,-1,1952,1177,39.0032,-6.56153
735,-153,38.9847,6.37378,-0.00374086,0.000655902,0.001921,0.00137696,-0.00446191,1.21171,0.00352443,0.0337764,1959,1177,38.9847,-6.37373
742,-153,39.0101,6.09326,-0.00399528,0.000939798,0.00223715,0.00180296,-0.00485844,1.20256,0.00397854,0.0152113,1966,1177,39.0102,-6.09325
749,-153,39.0103,5.75012,-0.00374061,0.00154797,0.00257063,0.00259155,-0.00478419,1.18516,0.00432065,0.0163074,1973,1177,39.0103,-5.75013
756,-153,38.9895,5.41016,-0.00289873,0.00321112,0.00322627,0.00459932,-0.00428693,1.16446,0.00513154,0.0116422,1980,1177,38.9895,-5.4101
763,-153,38.9441,5.05286,-0.00193393,0.0064168,0.00416429,0.00813847,-0.0036556,1.17876,0.00697134,0.0116704,1987,1177,38.9441,-5.05282
770,-153,38.9301,4.73193,-0.000560922,0.0104694,0.00556029,0.0127858,-0.00287735,1.17606,0.00962742,0.0113829,1994,1177,38.93,-4.73193
777,-153,38.9026,4.44446,0.00127076,0.0165742,0.00758553,0.0196969,-0.00185199,1.18027,0.0137901,0.0219911,2001,1177,38.9026,-4.44451
784,-153,38.8949,4.21863,0.00348324,0.0262207,0.0102913,0.0301868,-0.000482894,1.20295,0.0202874,0.0412646,2008,1177,38.8949,-4.21861
791,-153,38.8816,3.98828,0,0,0,0,0,0,0,-1,2015,1177,38.8815,-3.98834
798,-153,38.7512,4.40747,0,0,0,0,0,0,0,-1,2022,1177,38.7511,-4.40747
805,-153,37.925,5.46936,0,0,0,0,0,0,0,-1,2029,1177,37.925,-5.4694
812,-153,0,0,0,0,0,0,0,0,0,-1,2036,1177,0,0
-700,-160,0,0,0,0,0,0,0,0,0,-1,524,1184,0,0
-693,-160,0,0,0,0,0,0,0,0,0,-1,531,1184,0,0
-686,-160,-26.2714,0.487915,0.00119027,0.102129,-0.0247738,0.107882,-0.00456223,-1.34264,0.0734891,0.0471372,538,1184,-26.2714,-0.487966
-679,-160,-26.3723,1.06897,0.0053424,0.0893717,-0.0189564,0.0934501,0.00126392,-1.35888,0.0618831,0.048185,545,1184,-26.3723,-1.069
-672,-160,-26.9594,1.59924,0.00666843,0.0750599,-0.0146678,0.0780729,0.0036554,-1.3682,0.050874,0.0460183,552,1184,-26.9594,-1.59928
-665,-160,-27.4154,2.21277,0.00669286,0.0608835,-0.0113275,0.063156,0.00442036,-1.37281,0.0407106,0.0477256,559,1184,-27.4154,-2.21282
-658,-160,-27.6478,3.12146,0,0,0,0,0,0,0,-1,566,1184,-27.6478,-3.12145
-651,-160,-26.5628,1.19092,0,0,0,0,0,0,0,-1,573,1184,-26.5628,-1.19093
-644,-160,-26.4398,1.61365,0.00411826,0.0257189,-0.00487787,0.0267694,0.00306782,-1.35869,0.0169166,0.0393303,580,1184,-26.4397,-1.61363
-637,-160,-26.3817,2.03564,0.00302469,0.0173575,-0.00352404,0.0181771,0.0022051,-1.34229,0.011454,0.0148257,587,1184,-26.3816,-2.0357
-630,-160,-26.4318,2.38171,0.00228606,0.0108179,-0.00227655,0.0113874,0.00171662,-1.32569,0.007089,0.00886998,594,1184,-26.4317,-2.38165
-623,-160,-26.4766,2.75354,0.00138931,0.00514861,-0.00155101,0.00570591,0.000832009,-1.22585,0.00355917,0.0128695,601,1184,-26.4766,-2.75348
-616,-160,-26.4923,3.16223,0.000974995,0.00159243,-0.000955175,0.00228754,0.000279886,-0.941701,0.00144082,0.0110074,608,1184,-26.4923,-3.16229
-609,-160,-26.4963,3.60608,0.00075092,0.000565228,-0.000713707,0.00137779,-6.16472e-05,-0.720716,0.000939753,0.013054,615,1184,-26.4963,-3.60611
-602,-160,-26.3876,4.18274,0.000621554,0.000422654,-0.000630059,0.00115996,-0.000115756,-0.707123,0.00081464,0.0433983,622,1184,-26.3876,-4.18277
-595,-160,-26.4389,4.93335,0,0,0,0,0,0,0,-1,629,1184,-26.4389,-4.93339
-588,-160,-26.4053,4.95642,0,0,0,0,0,0,0,-1,636,1184,-26.4053,-4.95643
-581,-160,-25.2925,4.6272,0,0,0,0,0,0,0,-1,643,1184,-25.2925,-4.62719
-574,-160,-28.1793,4.33484,0,0,0,0,0,0,0,-1,650,1184,-28.1792,-4.33488
-567,-160,-29.5828,0.643921,0,0,0,0,0,0,0,-1,657,1184,-29.5828,-0.643968
-560,-160,-32.5584,0.974854,0,0,0,0,0,0,0,-1,664,1184,-32.5584,-0.974806
-553,-160,-32.6149,1.05481,0.00108092,0.00153874,-0.000246074,0.00164591,0.000973749,-1.16003,0.00095557,0.0397748,671,1184,-32.6148,-1.05477
-546,-160,-32.5826,0.966553,0.00142758,0.00175982,-5.24811e-05,0.00176791,0.00141949,-1.41779,0.00108134,0.0395224,678,1184,-32.5826,-0.966536
-539,-160,-32.7057,0.817627,0.00182554,0.00233884,0.000616889,0.00275034,0.00141404,0.982527,0.00158812,0.0428726,685,1184,-32.7057,-0.817667
-532,-160,-32.7156,0.957764,0.00247036,0.00266753,0.00167345,0.0042453,0.000892592,0.814819,0.00258457,0.0469413,692,1184,-32.7156,-0.957797
-525,-160,-32.551,1.23157,0.00393336,0.00263411,0.00314555,0.00649567,7.18015e-05,0.683569,0.00430671,0.0437543,699,1184,-32.551,-1.23159
-518,-160,-32.5151,1.20691,0.00538461,0.00270005,0.00462007,0.00885344,-0.000768785,0.644024,0.00617453,0.0393454,706,1184,-32.5151,-1.20689
-511,-160,0,0,0,0,0,0,0,0,0,-1,713,1184,0,0
-504,-160,0,0,0,0,0,0,0,0,0,-1,720,1184,0,0
-497,-160,0,0,0,0,0,0,0,0,0,-1,727,1184,0,0
-490,-160,0,0,0,0,0,0,0,0,0,-1,734,1184,0,0
-483,-160,0,0,0,0,0,0,0,0,0,-1,741,1184,0,0
-476,-160,0,0,0,0,0,0,0,0,0,-1,748,1184,0,0
-469,-160,0,0,0,0,0,0,0,0,0,-1,755,1184,0,0
-462,-160,0,0,0,0,0,0,0,0,0,-1,762,1184,0,0
-455,-160,0,0,0,0,0,0,0,0,0,-1,769,1184,0,0
-448,-160,0,0,0,0,0,0,0,0,0,-1,776,1184,0,0
-441,-160,0,0,0,0,0,0,0,0,0,-1,783,1184,0,0
-434,-160,0,0,0,0,0,0,0,0,0,-1,790,1184,0,0
-427,-160,0,0,0,0,0,0,0,0,0,-1,797,1184,0,0
-420,-160,0,0,0,0,0,0,0,0,0,-1,804,1184,0,0
-413,-160,0,0,0,0,0,0,0,0,0,-1,811,1184,0,0
-406,-160,0,0,0,0,0,0,0,0,0,-1,818,1184,0,0
-399,-160,0,0,0,0,0,0,0,0,0,-1,825,1184,0,0
-392,-160,0,0,0,0,0,0,0,0,0,-1,832,1184,0,0
-385,-160,0,0,0,0,0,0,0,0,0,-1,839,1184,0,0
-378,-160,0,0,0,0,0,0,0,0,0,-1,846,1184,0,0
-371,-160,0,0,0,0,0,0,0,0,0,-1,853,1184,0,0
-364,-160,0,0,0,0,0,0,0,0,0,-1,860,1184,0,0
-357,-160,0,0,0,0,0,0,0,0,0,-1,867,1184,0,0
-350,-160,0,0,0,0,0,0,0,0,0,-1,874,1184,0,0
-343,-160,0,0,0,0,0,0,0,0,0,-1,881,1184,0,0
-336,-160,0,0,0,0,0,0,0,0,0,-1,888,1184,0,0
-329,-160,0,0,0,0,0,0,0,0,0,-1,895,1184,0,0
-322,-160,0,0,0,0,0,0,0,0,0,-1,902,1184,0,0
-315,-160,0,0,0,0,0,0,0,0,0,-1,909,1184,0,0
-308,-160,0,0,0,0,0,0,0,0,0,-1,916,1184,0,0
-301,-160,0,0,0,0,0,0,0,0,0,-1,923,1184,0,0
-294,-160,0,0,0,0,0,0,0,0,0,-1,930,1184,0,0
-287,-160,0,0,0,0,0,0,0,0,0,-1,937,1184,0,0
-280,-160,0,0,0,0,0,0,0,0,0,-1,944,1184,0,0
-273,-160,0,0,0,0,0,0,0,0,0,-1,951,1184,0,0
-266,-160,0,0,0,0,0,0,0,0,0,-1,958,1184,0,0
-259,-160,0,0,0,0,0,0,0,0,0,-1,965,1184,0,0
-252,-160,0,0,0,0,0,0,0,0,0,-1,972,1184,0,0
-245,-160,0,0,0,0,0,0,0,0,0,-1,979,1184,0,0
-238,-160,0,0,0,0,0,0,0,0,0,-1,986,1184,0,0
-231,-160,0,0,0,0,0,0,0,0,0,-1,993,1184,0,0
-224,-160,0,0,0,0,0,0,0,0,0,-1,1000,1184,0,0
-217,-160,0,0,0,0,0,0,0,0,0,-1,1007,1184,0,0
-210,-160,0,0,0,0,0,0,0,0,0,-1,1014,1184,0,0
-203,-160,0,0,0,0,0,0,0,0,0,-1,1021,1184,0,0
-196,-160,0,0,0,0,0,0,0,0,0,-1,1028,1184,0,0
-189,-160,0,0,0,0,0,0,0,0,0,-1,1035,1184,0,0
-182,-160,0,0,0,0,0,0,0,0,0,-1,1042,1184,0,0
-175,-160,0,0,0,0,0,0,0,0,0,-1,1049,1184,0,0
-168,-160,0,0,0,0,0,0,0,0,0,-1,1056,1184,0,0
-161,-160,0,0,0,0,0,0,0,0,0,-1,1063,1184,0,0
-154,-160,0,0,0,0,0,0,0,0,0,-1,1070,1184,0,0
-147,-160,0,0,0,0,0,0,0,0,0,-1,1077,1184,0,0
-140,-160,0,0,0,0,0,0,0,0,0,-1,1084,1184,0,0
-133,-160,0,0,0,0,0,0,0,0,0,-1,1091,1184,0,0
-126,-160,0,0,0,0,0,0,0,0,0,-1,1098,1184,0,0
-119,-160,0,0,0,0,0,0,0,0,0,-1,1105,1184,0,0
-112,-160,0,0,0,0,0,0,0,0,0,-1,1112,1184,0,0
-105,-160,0,0,0,0,0,0,0,0,0,-1,1119,1184,0,0
-98,-160,0,0,0,0,0,0,0,0,0,-1,1126,1184,0,0
-91,-160,0,0,0,0,0,0,0,0,0,-1,1133,1184,0,0
-84,-160,0,0,0,0,0,0,0,0,0,-1,1140,1184,0,0
-77,-160,0,0,0,0,0,0,0,0,0,-1,1147,1184,0,0
-70,-160,0,0,0,0,0,0,0,0,0,-1,1154,1184,0,0
-63,-160,0,0,0,0,0,0,0,0,0,-1,1161,1184,0,0
-56,-160,0,0,0,0,0,0,0,0,0,-1,1168,1184,0,0
-49,-160,0,0,0,0,0,0,0,0,0,-1,1175,1184,0,0
-42,-160,0,0,0,0,0,0,0,0,0,-1,1182,1184,0,0
-35,-160,0,0,0,0,0,0,0,0,0,-1,1189,1184,0,0
-28,-160,0,0,0,0,0,0,0,0,0,-1,1196,1184,0,0
-21,-160,0,0,0,0,0,0,0,0,0,-1,1203,1184,0,0
-14,-160,0,0,0,0,0,0,0,0,0,-1,1210,1184,0,0
-7,-160,0,0,0,0,0,0,0,0,0,-1,1217,1184,0,0
0,-160,0,0,0,0,0,0,0,0,0,-1,1224,1184,0,0
7,-160,0,0,0,0,0,0,0,0,0,-1,1231,1184,0,0
14,-160,0,0,0,0,0,0,0,0,0,-1,1238,1184,0,0
21,-160,0,0,0,0,0,0,0,0,0,-1,1245,1184,0,0
28,-160,0,0,0,0,0,0,0,0,0,-1,1252,1184,0,0
35,-160,0,0,0,0,0,0,0,0,0,-1,1259,1184,0,0
42,-160,0,0,0,0,0,0,0,0,0,-1,1266,1184,0,0
49,-160,0,0,0,0,0,0,0,0,0,-1,1273,1184,0,0
56,-160,0,0,0,0,0,0,0,0,0,-1,1280,1184,0,0
63,-160,0,0,0,0,0,0,0,0,0,-1,1287,1184,0,0
70,-160,0,0,0,0,0,0,0,0,0,-1,1294,1184,0,0
77,-160,0,0,0,0,0,0,0,0,0,-1,1301,1184,0,0
84,-160,0,0,0,0,0,0,0,0,0,-1,1308,1184,0,0
91,-160,0,0,0,0,0,0,0,0,0,-1,1315,1184,0,0
98,-160,0,0,0,0,0,0,0,0,0,-1,1322,1184,0,0
105,-160,0,0,0,0,0,0,0,0,0,-1,1329,1184,0,0
112,-160,0,0,0,0,0,0,0,0,0,-1,1336,1184,0,0
119,-160,0,0,0,0,0,0,0,0,0,-1,1343,1184,0,0
126,-160,0,0,0,0,0,0,0,0,0,-1,1350,1184,0,0
133,-160,0,0,0,0,0,0,0,0,0,-1,1357,1184,0,0
140,-160,0,0,0,0,0,0,0,0,0,-1,1364,1184,0,0
147,-160,0,0,0,0,0,0,0,0,0,-1,1371,1184,0,0
154,-160,0,0,0,0,0,0,0,0,0,-1,1378,1184,0,0
161,-160,0,0,0,0,0,0,0,0,0,-1,1385,1184,0,0
168,-160,0,0,0,0,0,0,0,0,0,-1,1392,1184,0,0
175,-160,0,0,0,0,0,0,0,0,0,-1,1399,1184,0,0
182,-160,0,0,0,0,0,0,0,0,0,-1,1406,1184,0,0
189,-160,0,0,0,0,0,0,0,0,0,-1,1413,1184,0,0
196,-160,0,0,0,0,0,0,0,0,0,-1,1420,1184,0,0
203,-160,0,0,0,0,0,0,0,0,0,-1,1427,1184,0,0
210,-160,0,0,0,0,0,0,0,0,0,-1,1434,1184,0,0
217,-160,0,0,0,0,0,0,0,0,0,-1,1441,1184,0,0
224,-160,0,0,0,0,0,0,0,0,0,-1,1448,1184,0,0
231,-160,0,0,0,0,0,0,0,0,0,-1,1455,1184,0,0
238,-160,0,0,0,0,0,0,0,0,0,-1,1462,1184,0,0
245,-160,0,0,0,0,0,0,0,0,0,-1,1469,1184,0,0
252,-160,0,0,0,0,0,0,0,0,0,-1,1476,1184,0,0
259,-160,0,0,0,0,0,0,0,0,0,-1,1483,1184,0,0
266,-160,0,0,0,0,0,0,0,0,0,-1,1490,1184,0,0
273,-160,0,0,0,0,0,0,0,0,0,-1,1497,1184,0,0
280,-160,0,0,0,0,0,0,0,0,0,-1,1504,1184,0,0
287,-160,0,0,0,0,0,0,0,0,0,-1,1511,1184,0,0
294,-160,0,0,0,0,0,0,0,0,0,-1,1518,1184,0,0
301,-160,0,0,0,0,0,0,0,0,0,-1,1525,1184,0,0
308,-160,0,0,0,0,0,0,0,0,0,-1,1532,1184,0,0
315,-160,0,0,0,0,0,0,0,0,0,-1,1539,1184,0,0
322,-160,0,0,0,0,0,0,0,0,0,-1,1546,1184,0,0
329,-160,0,0,0,0,0,0,0,0,0,-1,1553,1184,0,0
336,-160,0,0,0,0,0,0,0,0,0,-1,1560,1184,0,0
343,-160,0,0,0,0,0,0,0,0,0,-1,1567,1184,0,0
350,-160,0,0,0,0,0,0,0,0,0,-1,1574,1184,0,0
357,-160,0,0,0,0,0,0,0,0,0,-1,1581,1184,0,0
364,-160,0,0,0,0,0,0,0,0,0,-1,1588,1184,0,0
371,-160,0,0,0,0,0,0,0,0,0,-1,1595,1184,0,0
378,-160,0,0,0,0,0,0,0,0,0,-1,1602,1184,0,0
385,-160,0,0,0,0,0,0,0,0,0,-1,1609,1184,0,0
392,-160,0,0,0,0,0,0,0,0,0,-1,1616,1184,0,0
399,-160,0,0,0,0,0,0,0,0,0,-1,1623,1184,0,0
406,-160,0,0,0,0,0,0,0,0,0,-1,1630,1184,0,0
413,-160,0,0,0,0,0,0,0,0,0,-1,1637,1184,0,0
420,-160,0,0,0,0,0,0,0,0,0,-1,1644,1184,0,0
427,-160,0,0,0,0,0,0,0,0,0,-1,1651,1184,0,0
434,-160,0,0,0,0,0,0,0,0,0,-1,1658,1184,0,0
441,-160,0,0,0,0,0,0,0,0,0,-1,1665,1184,0,0
448,-160,0,0,0,0,0,0,0,0,0,-1,1672,1184,0,0
455,-160,0,0,0,0,0,0,0,0,0,-1,1679,1184,0,0
462,-160,0,0,0,0,0,0,0,0,0,-1,1686,1184,0,0
469,-160,0,0,0,0,0,0,0,0,0,-1,1693,1184,0,0
476,-160,0,0,0,0,0,0,0,0,0,-1,1700,1184,0,0
483,-160,0,0,0,0,0,0,0,0,0,-1,1707,1184,0,0
490,-160,0,0,0,0,0,0,0,0,0,-1,1714,1184,0,0
497,-160,0,0,0,0,0,0,0,0,0,-1,1721,1184,0,0
504,-160,0,0,0,0,0,0,0,0,0,-1,1728,1184,0,0
511,-160,0,0,0,0,0,0,0,0,0,-1,1735,1184,0,0
518,-160,0,0,0,0,0,0,0,0,0,-1,1742,1184,0,0
525,-160,0,0,0,0,0,0,0,0,0,-1,1749,1184,0,0
532,-160,0,0,0,0,0,0,0,0,0,-1,1756,1184,0,0
539,-160,0,0,0,0,0,0,0,0,0,-1,1763,1184,0,0
546,-160,0,0,0,0,0,0,0,0,0,-1,1770,1184,0,0
553,-160,0,0,0,0,0,0,0,0,0,-1,1777,1184,0,0
560,-160,0,0,0,0,0,0,0,0,0,-1,1784,1184,0,0
567,-160,0,0,0,0,0,0,0,0,0,-1,1791,1184,0,0
574,-160,0,0,0,0,0,0,0,0,0,-1,1798,1184,0,0
581,-160,0,0,0,0,0,0,0,0,0,-1,1805,1184,0,0
588,-160,0,0,0,0,0,0,0,0,0,-1,1812,1184,0,0
595,-160,0,0,0,0,0,0,0,0,0,-1,1819,1184,0,0
602,-160,0,0,0,0,0,0,0,0,0,-1,1826,1184,0,0
609,-160,0,0,0,0,0,0,0,0,0,-1,1833,1184,0,0
616,-160,0,0,0,0,0,0,0,0,0,-1,1840,1184,0,0
623,-160,0,0,0,0,0,0,0,0,0,-1,1847,1184,0,0
630,-160,0,0,0,0,0,0,0,0,0,-1,1854,1184,0,0
637,-160,44.2922,3.06665,0.00216428,-0.00656125,0.000355106,0.00217871,-0.00657568,0.0406078,0.00526256,0.0431199,1861,1184,44.2922,-3.06665
644,-160,44.3969,2.69836,0.0017649,-0.00510718,0.000563582,0.00181081,-0.0051531,0.0812866,0.00417212,0.0448444,1868,1184,44.3969,-2.6984
651,-160,44.3708,2.79895,0.00147324,-0.00357916,0.000458867,0.00151458,-0.00362049,0.089842,0.00304671,0.0417605,1875,1184,44.3708,-2.79895
658,-160,44.3778,2.62439,0.00146965,-0.00216737,0.000166769,0.00147728,-0.002175,0.0457254,0.00212144,0.0401422,1882,1184,44.3778,-2.62435
665,-160,44.4769,2.56531,0.00154696,-0.00112237,4.39374e-05,0.00154768,-0.0011231,0.0164541,0.00154845,0.0381167,1889,1184,44.4769,-2.56528
672,-160,44.4929,2.61829,0.00123422,-0.000629359,0.000286736,0.00127734,-0.00067248,0.149265,0.00114364,0.0355273,1896,1184,44.4929,-2.61829
679,-160,44.4534,2.74744,0.000230248,-0.00014038,0.000601164,0.000674012,-0.000584144,0.63589,0.000727014,0.0274838,1903,1184,44.4534,-2.7474
686,-160,44.4966,2.76868,-0.00045861,-0.000124815,0.000898158,0.00062182,-0.00120525,0.877261,0.00107263,0.0180502,1910,1184,44.4966,-2.76867
693,-160,44.5813,2.76123,0,0,0,0,0,0,0,-1,1917,1184,44.5813,-2.76119
700,-160,42.8784,2.44617,0,0,0,0,0,0,0,-1,1924,1184,42.8785,-2.4462
707,-160,24.5115,6.27405,0,0,0,0,0,0,0,-1,1931,1184,24.5115,-6.27401
714,-160,35.6892,6.8905,0,0,0,0,0,0,0,-1,1938,1184,35.6892,-6.89048
721,-160,36.2388,6.37878,0,0,0,0,0,0,0,-1,1945,1184,36.2388,-6.37876
728,-160,38.6064,6.85559,0,0,0,0,0,0,0,-1,1952,1184,38.6064,-6.85562
735,-160,38.7261,6.43225,-0.00352239,0.000299921,0.002083,0.00121567,-0.00443814,1.1566,0.00343642,0.0270691,1959,1184,38.726,-6.4323
742,-160,38.6555,6.07751,-0.00368055,0.000632873,0.00230296,0.00163132,-0.00467899,1.16171,0.00378225,0.0168693,1966,1184,38.6555,-6.07756
749,-160,38.6194,5.703,-0.00328871,0.00128897,0.00248324,0.0023773,-0.00437704,1.15774,0.00395618,0.0172374,1973,1184,38.6194,-5.703
756,-160,38.6155,5.39612,-0.00241177,0.00280605,0.00297627,0.004155,-0.00376072,1.14526,0.00457203,0.0112147,1980,1184,38.6154,-5.39614
763,-160,38.5719,5.08032,-0.00135442,0.00559461,0.00380488,0.0072727,-0.00303251,1.15542,0.00611529,0.0126567,1987,1184,38.5719,-5.08029
770,-160,38.4834,4.68701,-3.419e-05,0.00915689,0.00518329,0.0114885,-0.00236581,1.14808,0.00855732,0.0220009,1994,1184,38.4834,-4.68707
777,-160,38.3467,4.36511,0.00164253,0.0146653,0.00736093,0.0179815,-0.00167366,1.14752,0.0125827,0.0344275,2001,1184,38.3467,-4.36508
784,-160,37.6962,4.43298,0,0,0,0,0,0,0,-1,2008,1184,37.6962,-4.43297
791,-160,37.3069,4.33655,0,0,0,0,0,0,0,-1,2015,1184,37.3068,-4.33651
798,-160,37.2971,4.92871,0,0,0,0,0,0,0,-1,2022,1184,37.2972,-4.92865
805,-160,37.5635,5.18738,0,0,0,0,0,0,0,-1,2029,1184,37.5635,-5.18734
812,-160,0,0,0,0,0,0,0,0,0,-1,2036,1184,0,0
-700,-167,0,0,0,0,0,0,0,0,0,-1,524,1191,0,0
-693,-167,0,0,0,0,0,0,0,0,0,-1,531,1191,0,0
-686,-167,-25.3492,0.168823,0.0057152,0.117024,-0.0217905,0.121137,0.00160139,-1.3842,0.0802298,0.0437067,538,1191,-25.3492,-0.168854
-679,-167,-25.596,0.425415,0.00824705,0.102348,-0.0166742,0.105215,0.00537985,-1.40051,0.0684207,0.0427276,545,1191,-25.596,-0.425378
-672,-167,-26.0934,1.01208,0.00835979,0.0859431,-0.0129331,0.0880422,0.00626066,-1.40989,0.0567232,0.0464583,552,1191,-26.0934,-1.01204
-665,-167,-25.6102,1.92188,0,0,0,0,0,0,0,-1,559,1191,-25.6103,-1.92183
-658,-167,-25.3704,2.27466,0,0,0,0,0,0,0,-1,566,1191,-25.3704,-2.27463
-651,-167,-25.6734,1.63843,0,0,0,0,0,0,0,-1,573,1191,-25.6734,-1.63838
-644,-167,-25.7966,1.84753,0.00379684,0.0294551,-0.00433538,0.0301679,0.0030841,-1.40785,0.0191668,0.0398501,580,1191,-25.7965,-1.84754
-637,-167,-25.9504,2.04175,0.00264293,0.0198834,-0.00314594,0.0204395,0.00208681,-1.39583,0.0129867,0.017734,587,1191,-25.9504,-2.04174
-630,-167,-26.0228,2.37427,0.00195387,0.01249,-0.00201314,0.0128615,0.00158232,-1.38829,0.00809859,0.00948535,594,1191,-26.0228,-2.37425
-623,-167,-26.056,2.73901,0.00104056,0.00599257,-0.00141315,0.00636746,0.000665667,-1.31148,0.0040414,0.0125873,601,1191,-26.056,-2.73896
-616,-167,-26.061,3.15967,0.000725112,0.0017625,-0.000960472,0.00233538,0.000152224,-1.03298,0.00150874,0.0157313,608,1191,-26.0609,-3.15972
-609,-167,-26.0513,3.60303,0.000602237,0.000419306,-0.000787408,0.00130347,-0.00028193,-0.727577,0.000976619,0.0139585,615,1191,-26.0513,-3.60299
-602,-167,-26.0883,3.98303,0.000498639,0.000108325,-0.0007092,0.00103904,-0.00043208,-0.651132,0.000873118,0.0159797,622,1191,-26.0883,-3.98306
-595,-167,-25.9894,4.30298,0,0,0,0,0,0,0,-1,629,1191,-25.9894,-4.30294
-588,-167,-26.192,4.68848,0,0,0,0,0,0,0,-1,636,1191,-26.192,-4.68847
-581,-167,-26.1961,4.9845,0,0,0,0,0,0,0,-1,643,1191,-26.1961,-4.98449
-574,-167,-24.1547,5.43677,0,0,0,0,0,0,0,-1,650,1191,-24.1547,-5.43682
-567,-167,-27.3643,2.55859,0,0,0,0,0,0,0,-1,657,1191,-27.3643,-2.55864
-560,-167,-32.5184,0.887695,0,0,0,0,0,0,0,-1,664,1191,-32.5185,-0.887721
-553,-167,-32.5391,0.936035,0.000833752,0.00164285,-5.22528e-05,0.00164621,0.000830391,-1.50657,0.000950451,0.040192,671,1191,-32.539,-0.936044
-546,-167,-32.5889,0.975464,0.00122257,0.0019036,0.000196262,0.00195611,0.00117006,1.30937,0.00113659,0.0377272,678,1191,-32.5889,-0.975474
-539,-167,-32.6677,0.876587,0.00183141,0.00259962,0.000854973,0.0031528,0.00127822,0.996517,0.00183109,0.0408429,685,1191,-32.6676,-0.876583
-532,-167,-32.7674,1.21985,0.00280556,0.00310239,0.00171274,0.00467313,0.00123481,0.828617,0.00279623,0.0452282,692,1191,-32.7674,-1.21981
-525,-167,-32.4963,1.06116,0.0052418,0.00324197,0.0028789,0.00728949,0.00119428,0.618253,0.00451454,0.0444839,699,1191,-32.4964,-1.0612
-518,-167,-32.4318,0.972778,0.00782036,0.00337493,0.00398869,0.0101638,0.00103146,0.5312,0.00645958,0.0421291,706,1191,-32.4318,-0.972786
-511,-167,0,0,0,0,0,0,0,0,0,-1,713,1191,0,0
-504,-167,0,0,0,0,0,0,0,0,0,-1,720,1191,0,0
-497,-167,0,0,0,0,0,0,0,0,0,-1,727,1191,0,0
-490,-167,0,0,0,0,0,0,0,0,0,-1,734,1191,0,0
-483,-167,0,0,0,0,0,0,0,0,0,-1,741,1191,0,0
-476,-167,0,0,0,0,0,0,0,0,0,-1,748,1191,0,0
-469,-167,0,0,0,0,0,0,0,0,0,-1,755,1191,0,0
-462,-167,0,0,0,0,0,0,0,0,0,-1,762,1191,0,0
-455,-167,0,0,0,0,0,0,0,0,0,-1,769,1191,0,0
-448,-167,0,0,0,0,0,0,0,0,0,-1,776,1191,0,0
-441,-167,0,0,0,0,0,0,0,0,0,-1,783,1191,0,0
-434,-167,0,0,0,0,0,0,0,0,0,-1,790,1191,0,0
-427,-167,0,0,0,0,0,0,0,0,0,-1,797,1191,0,0
-420,-167,0,0,0,0,0,0,0,0,0,-1,804,1191,0,0
-413,-167,0,0,0,0,0,0,0,0,0,-1,811,1191,0,0
-406,-167,0,0,0,0,0,0,0,0,0,-1,818,1191,0,0
-399,-167,0,0,0,0,0,0,0,0,0,-1,825,1191,0,0
-392,-167,0,0,0,0,0,0,0,0,0,-1,832,1191,0,0
-385,-167,0,0,0,0,0,0,0,0,0,-1,839,1191,0,0
-378,-167,0,0,0,0,0,0,0,0,0,-1,846,1191,0,0
-371,-167,0,0,0,0,0,0,0,0,0,-1,853,1191,0,0
-364,-167,0,0,0,0,0,0,0,0,0,-1,860,1191,0,0
-357,-167,0,0,0,0,0,0,0,0,0,-1,867,1191,0,0
-350,-167,0,0,0,0,0,0,0,0,0,-1,874,1191,0,0
-343,-167,0,0,0,0,0,0,0,0,0,-1,881,1191,0,0
-336,-167,0,0,0,0,0,0,0,0,0,-1,888,1191,0,0
-329,-167,0,0,0,0,0,0,0,0,0,-1,895,1191,0,0
-322,-167,0,0,0,0,0,0,0,0,0,-1,902,1191,0,0
-315,-167,0,0,0,0,0,0,0,0,0,-1,909,1191,0,0
-308,-167,0,0,0,0,0,0,0,0,0,-1,916,1191,0,0
-301,-167,0,0,0,0,0,0,0,0,0,-1,923,1191,0,0
-294,-167,0,0,0,0,0,0,0,0,0,-1,930,1191,0,0
-287,-167,0,0,0,0,0,0,0,0,0,-1,937,1191,0,0
-280,-167,0,0,0,0,0,0,0,0,0,-1,944,1191,0,0
-273,-167,0,0,0,0,0,0,0,0,0,-1,951,1191,0,0
-266,-167,0,0,0,0,0,0,0,0,0,-1,958,1191,0,0
-259,-167,0,0,0,0,0,0,0,0,0,-1,965,1191,0,0
-252,-167,0,0,0,0,0,0,0,0,0,-1,972,1191,0,0
-245,-167,0,0,0,0,0,0,0,0,0,-1,979,1191,0,0
-238,-167,0,0,0,0,0,0,0,0,0,-1,986,1191,0,0
-231,-167,0,0,0,0,0,0,0,0,0,-1,993,1191,0,0
-224,-167,0,0,0,0,0,0,0,0,0,-1,1000,1191,0,0
-217,-167,0,0,0,0,0,0,0,0,0,-1,1007,1191,0,0
-210,-167,0,0,0,0,0,0,0,0,0,-1,1014,1191,0,0
-203,-167,0,0,0,0,0,0,0,0,0,-1,1021,1191,0,0
-196,-167,0,0,0,0,0,0,0,0,0,-1,1028,1191,0,0
-189,-167,0,0,0,0,0,0,0,0,0,-1,1035,1191,0,0
-182,-167,0,0,0,0,0,0,0,0,0,-1,1042,1191,0,0
-175,-167,0,0,0,0,0,0,0,0,0,-1,1049,1191,0,0
-168,-167,0,0,0,0,0,0,0,0,0,-1,1056,1191,0,0
-161,-167,0,0,0,0,0,0,0,0,0,-1,1063,1191,0,0
-154,-167,0,0,0,0,0,0,0,0,0,-1,1070,1191,0,0
-147,-167,0,0,0,0,0,0,0,0,0,-1,1077,1191,0,0
-140,-167,0,0,0,0,0,0,0,0,0,-1,1084,1191,0,0
-133,-167,0,0,0,0,0,0,0,0,0,-1,1091,1191,0,0
-126,-167,0,0,0,0,0,0,0,0,0,-1,1098,1191,0,0
-119,-167,0,0,0,0,0,0,0,0,0,-1,1105,1191,0,0
-112,-167,0,0,0,0,0,0,0,0,0,-1,1112,1191,0,0
-105,-167,0,0,0,0,0,0,0,0,0,-1,1119,1191,0,0
-98,-167,0,0,0,0,0,0,0,0,0,-1,1126,1191,0,0
-91,-167,0,0,0,0,0,0,0,0,0,-1,1133,1191,0,0
-84,-167,0,0,0,0,0,0,0,0,0,-1,1140,1191,0,0
-77,-167,0,0,0,0,0,0,0,0,0,-1,1147,1191,0,0
-70,-167,0,0,0,0,0,0,0,0,0,-1,1154,1191,0,0
-63,-167,0,0,0,0,0,0,0,0,0,-1,1161,1191,0,0
-56,-167,0,0,0,0,0,0,0,0,0,-1,1168,1191,0,0
-49,-167,0,0,0,0,0,0,0,0,0,-1,1175,1191,0,0
-42,-167,0,0,0,0,0,0,0,0,0,-1,1182,1191,0,0
-35,-167,0,0,0,0,0,0,0,0,0,-1,1189,1191,0,0
-28,-167,0,0,0,0,0,0,0,0,0,-1,1196,1191,0,0
-21,-167,0,0,0,0,0,0,0,0,0,-1,1203,1191,0,0
-14,-167,0,0,0,0,0,0,0,0,0,-1,1210,1191,0,0
-7,-167,0,0,0,0,0,0,0,0,0,-1,1217,1191,0,0
0,-167,0,0,0,0,0,0,0,0,0,-1,1224,1191,0,0
7,-167,0,0,0,0,0,0,0,0,0,-1,1231,1191,0,0
14,-167,0,0,0,0,0,0,0,0,0,-1,1238,1191,0,0
21,-167,0,0,0,0,0,0,0,0,0,-1,1245,1191,0,0
28,-167,0,0,0,0,0,0,0,0,0,-1,1252,1191,0,0
35,-167,0,0,0,0,0,0,0,0,0,-1,1259,1191,0,0
42,-167,0,0,0,0,0,0,0,0,0,-1,1266,1191,0,0
49,-167,0,0,0,0,0,0,0,0,0,-1,1273,1191,0,0
56,-167,0,0,0,0,0,0,0,0,0,-1,1280,1191,0,0
63,-167,0,0,0,0,0,0,0,0,0,-1,1287,1191,0,0
70,-167,0,0,0,0,0,0,0,0,0,-1,1294,1191,0,0
77,-167,0,0,0,0,0,0,0,0,0,-1,1301,1191,0,0
84,-167,0,0,0,0,0,0,0,0,0,-1,1308,1191,0,0
91,-167,0,0,0,0,0,0,0,0,0,-1,1315,1191,0,0
98,-167,0,0,0,0,0,0,0,0,0,-1,1322,1191,0,0
105,-167,0,0,0,0,0,0,0,0,0,-1,1329,1191,0,0
112,-167,0,0,0,0,0,0,0,0,0,-1,1336,1191,0,0
119,-167,0,0,0,0,0,0,0,0,0,-1,1343,1191,0,0
126,-167,0,0,0,0,0,0,0,0,0,-1,1350,1191,0,0
133,-167,0,0,0,0,0,0,0,0,0,-1,1357,1191,0,0
140,-167,0,0,0,0,0,0,0,0,0,-1,1364,1191,0,0
147,-167,0,0,0,0,0,0,0,0,0,-1,1371,1191,0,0
154,-167,0,0,0,0,0,0,0,0,0,-1,1378,1191,0,0
161,-167,0,0,0,0,0,0,0,0,0,-1,1385,1191,0,0
168,-167,0,0,0,0,0,0,0,0,0,-1,1392,1191,0,0
175,-167,0,0,0,0,0,0,0,0,0,-1,1399,1191,0,0
182,-167,0,0,0,0,0,0,0,0,0,-1,1406,1191,0,0
189,-167,0,0,0,0,0,0,0,0,0,-1,1413,1191,0,0
196,-167,0,0,0,0,0,0,0,0,0,-1,1420,1191,0,0
203,-167,0,0,0,0,0,0,0,0,0,-1,1427,1191,0,0
210,-167,0,0,0,0,0,0,0,0,0,-1,1434,1191,0,0
217,-167,0,0,0,0,0,0,0,0,0,-1,1441,1191,0,0
224,-167,0,0,0,0,0,0,0,0,0,-1,1448,1191,0,0
231,-167,0,0,0,0,0,0,0,0,0,-1,1455,1191,0,0
238,-167,0,0,0,0,0,0,0,0,0,-1,1462,1191,0,0
245,-167,0,0,0,0,0,0,0,0,0,-1,1469,1191,0,0
252,-167,0,0,0,0,0,0,0,0,0,-1,1476,1191,0,0
259,-167,0,0,0,0,0,0,0,0,0,-1,1483,1191,0,0
266,-167,0,0,0,0,0,0,0,0,0,-1,1490,1191,0,0
273,-167,0,0,0,0,0,0,0,0,0,-1,1497,1191,0,0
280,-167,0,0,0,0,0,0,0,0,0,-1,1504,1191,0,0
287,-167,0,0,0,0,0,0,0,0,0,-1,1511,1191,0,0
294,-167,0,0,0,0,0,0,0,0,0,-1,1518,1191,0,0
301,-167,0,0,0,0,0,0,0,0,0,-1,1525,1191,0,0
308,-167,0,0,0,0,0,0,0,0,0,-1,1532,1191,0,0
315,-167,0,0,0,0,0,0,0,0,0,-1,1539,1191,0,0
322,-167,0,0,0,0,0,0,0,0,0,-1,1546,1191,0,0
329,-167,0,0,0,0,0,0,0,0,0,-1,1553,1191,0,0
336,-167,0,0,0,0,0,0,0,0,0,-1,1560,1191,0,0
343,-167,0,0,0,0,0,0,0,0,0,-1,1567,1191,0,0
350,-167,0,0,0,0,0,0,0,0,0,-1,1574,1191,0,0
357,-167,0,0,0,0,0,0,0,0,0,-1,1581,1191,0,0
364,-167,0,0,0,0,0,0,0,0,0,-1,1588,1191,0,0
371,-167,0,0,0,0,0,0,0,0,0,-1,1595,1191,0,0
378,-167,0,0,0,0,0,0,0,0,0,-1,1602,1191,0,0
385,-167,0,0,0,0,0,0,0,0,0,-1,1609,1191,0,0
392,-167,0,0,0,0,0,0,0,0,0,-1,1616,1191,0,0
399,-167,0,0,0,0,0,0,0,0,0,-1,1623,1191,0,0
406,-167,0,0,0,0,0,0,0,0,0,-1,1630,1191,0,0
413,-167,0,0,0,0,0,0,0,0,0,-1,1637,1191,0,0
420,-167,0,0,0,0,0,0,0,0,0,-1,1644,1191,0,0
427,-167,0,0,0,0,0,0,0,0,0,-1,1651,1191,0,0
434,-167,0,0,0,0,0,0,0,0,0,-1,1658,1191,0,0
441,-167,0,0,0,0,0,0,0,0,0,-1,1665,1191,0,0
448,-167,0,0,0,0,0,0,0,0,0,-1,1672,1191,0,0
455,-167,0,0,0,0,0,0,0,0,0,-1,1679,1191,0,0
462,-167,0,0,0,0,0,0,0,0,0,-1,1686,1191,0,0
469,-167,0,0,0,0,0,0,0,0,0,-1,1693,1191,0,0
476,-167,0,0,0,0,0,0,0,0,0,-1,1700,1191,0,0
483,-167,0,0,0,0,0,0,0,0,0,-1,1707,1191,0,0
490,-167,0,0,0,0,0,0,0,0,0,-1,1714,1191,0,0
497,-167,0,0,0,0,0,0,0,0,0,-1,1721,1191,0,0
504,-167,0,0,0,0,0,0,0,0,0,-1,1728,1191,0,0
511,-167,0,0,0,0,0,0,0,0,0,-1,1735,1191,0,0
518,-167,0,0,0,0,0,0,0,0,0,-1,1742,1191,0,0
525,-167,0,0,0,0,0,0,0,0,0,-1,1749,1191,0,0
532,-167,0,0,0,0,0,0,0,0,0,-1,1756,1191,0,0
539,-167,0,0,0,0,0,0,0,0,0,-1,1763,1191,0,0
546,-167,0,0,0,0,0,0,0,0,0,-1,1770,1191,0,0
553,-167,0,0,0,0,0,0,0,0,0,-1,1777,1191,0,0
560,-167,0,0,0,0,0,0,0,0,0,-1,1784,1191,0,0
567,-167,0,0,0,0,0,0,0,0,0,-1,1791,1191,0,0
574,-167,0,0,0,0,0,0,0,0,0,-1,1798,1191,0,0
581,-167,0,0,0,0,0,0,0,0,0,-1,1805,1191,0,0
588,-167,0,0,0,0,0,0,0,0,0,-1,1812,1191,0,0
595,-167,0,0,0,0,0,0,0,0,0,-1,1819,1191,0,0
602,-167,0,0,0,0,0,0,0,0,0,-1,1826,1191,0,0
609,-167,0,0,0,0,0,0,0,0,0,-1,1833,1191,0,0
616,-167,0,0,0,0,0,0,0,0,0,-1,1840,1191,0,0
623,-167,0,0,0,0,0,0,0,0,0,-1,1847,1191,0,0
630,-167,0,0,0,0,0,0,0,0,0,-1,1854,1191,0,0
637,-167,44.2921,2.96472,0.0012069,-0.00604412,0.000436604,0.0012331,-0.00607031,0.0599242,0.0045144,0.0433526,1861,1191,44.2921,-2.96473
644,-167,44.4513,2.67383,0.0010684,-0.00448162,0.000364106,0.00109218,-0.00450541,0.0652318,0.00342619,0.0456063,1868,1191,44.4513,-2.6738
651,-167,44.2161,2.80371,0.00104427,-0.00282931,7.55346e-05,0.00104574,-0.00283078,0.0194901,0.00231585,0.045669,1875,1191,44.216,-2.80375
658,-167,44.1503,2.93823,0.0012986,-0.00139554,-0.000345412,0.00134218,-0.00143912,-0.125505,0.00160611,0.0445913,1882,1191,44.1502,-2.93828
665,-167,44.465,2.69775,0.00153098,-0.000487455,-0.000450889,0.00162712,-0.000583597,-0.210083,0.00132291,0.0383791,1889,1191,44.465,-2.6978
672,-167,44.4675,2.6427,0.00126375,-0.00019782,-0.00010547,0.00127132,-0.000205392,-0.0716675,0.000923656,0.0286012,1896,1191,44.4675,-2.64271
679,-167,44.4474,2.7229,0.000321438,0.000116195,0.000300429,0.000536289,-9.86563e-05,0.620819,0.000394544,0.02339,1903,1191,44.4474,-2.72289
686,-167,44.4774,2.76794,-0.000323368,6.20369e-05,0.000637349,0.000535178,-0.000796509,0.932204,0.000773769,0.0331132,1910,1191,44.4774,-2.76798
693,-167,44.4922,2.81335,0,0,0,0,0,0,0,-1,1917,1191,44.4922,-2.81333
700,-167,28.0459,2.70508,0,0,0,0,0,0,0,-1,1924,1191,28.0459,-2.70513
707,-167,29.4708,7.10168,0,0,0,0,0,0,0,-1,1931,1191,29.4708,-7.10172
714,-167,35.9202,6.84668,0,0,0,0,0,0,0,-1,1938,1191,35.9202,-6.84664
721,-167,36.2072,6.38892,0,0,0,0,0,0,0,-1,1945,1191,36.2072,-6.38891
728,-167,38.3889,6.8512,0,0,0,0,0,0,0,-1,1952,1191,38.3889,-6.85123
735,-167,38.3048,6.55371,-0.00335503,0.000184,0.00218619,0.00122706,-0.00439809,1.12562,0.00341537,0.0182513,1959,1191,38.3048,-6.55371
742,-167,38.2686,6.125,-0.00329123,0.000522799,0.00233178,0.00162808,-0.00439651,1.12816,0.00359863,0.0169933,1966,1191,38.2686,-6.125
749,-167,38.2445,5.74109,-0.00280651,0.00113677,0.00237627,0.00225285,-0.00392258,1.1317,0.00360857,0.0151066,1973,1191,38.2445,-5.74113
756,-167,38.2465,5.4198,-0.00203671,0.00228979,0.00263432,0.00353525,-0.00328216,1.12916,0.00393694,0.0110978,1980,1191,38.2464,-5.41983
763,-167,38.191,5.0553,-0.00111592,0.0042515,0.00319078,0.00573713,-0.00260155,1.13505,0.00492649,0.0129976,1987,1191,38.191,-5.05535
770,-167,38.0386,4.76477,-0.000344003,0.00678442,0.00429785,0.00880367,-0.00236326,1.13158,0.00679526,0.0286301,1994,1191,38.0385,-4.76481
777,-167,38.0542,4.50635,0.000257688,0.0107143,0.00621131,0.0136048,-0.00263284,1.13524,0.010063,0.04419,2001,1191,38.0542,-4.50633
784,-167,37.7701,4.08704,0,0,0,0,0,0,0,-1,2008,1191,37.7701,-4.08699
791,-167,37.4128,3.95386,0,0,0,0,0,0,0,-1,2015,1191,37.4129,-3.95383
798,-167,37.0513,3.80176,0,0,0,0,0,0,0,-1,2022,1191,37.0513,-3.80173
805,-167,37.179,4.87634,0,0,0,0,0,0,0,-1,2029,1191,37.1788,-4.87639
812,-167,0,0,0,0,0,0,0,0,0,-1,2036,1191,0,0
-700,-174,0,0,0,0,0,0,0,0,0,-1,524,1198,0,0
-693,-174,0,0,0,0,0,0,0,0,0,-1,531,1198,0,0
-686,-174,-23.7429,0.504028,0,0,0,0,0,0,0,-1,538,1198,-23.7429,-0.504024
-679,-174,-25.1675,-0.32666,0,0,0,0,0,0,0,-1,545,1198,-25.1675,0.326655
-672,-174,-25.1714,0.134644,0.0154454,0.0966752,-0.0106479,0.0980478,0.0140728,-1.4426,0.0612159,0.0467805,552,1198,-25.1715,-0.13462
-665,-174,-25.303,0.904663,0,0,0,0,0,0,0,-1,559,1198,-25.303,-0.904653
-658,-174,-25.2101,1.34839,0.0101266,0.0617459,-0.00642787,0.0625343,0.00933822,-1.44875,0.0389517,0.0449774,566,1198,-25.2101,-1.34837
-651,-174,-25.1738,1.54309,0.00765503,0.0466477,-0.00492067,0.047259,0.00704365,-1.44718,0.0294404,0.0476894,573,1198,-25.1738,-1.54304
-644,-174,-25.3852,1.60828,0.00537862,0.0336466,-0.00369512,0.0341217,0.00490359,-1.44294,0.0213022,0.0447389,580,1198,-25.3852,-1.6083
-637,-174,-25.4687,1.97449,0.0034843,0.0228861,-0.00274316,0.0232665,0.00310391,-1.43301,0.0145869,0.0240262,587,1198,-25.4687,-1.97453
-630,-174,-25.5823,2.37708,0.00231921,0.014608,-0.00178006,0.0148607,0.00206655,-1.4298,0.00929518,0.0127255,594,1198,-25.5823,-2.3771
-623,-174,-25.6249,2.77063,0.000999432,0.00723561,-0.00130493,0.00749766,0.000737384,-1.37262,0.00477168,0.0141316,601,1198,-25.6249,-2.77059
-616,-174,-25.6224,3.198,0.00056255,0.00219759,-0.000986532,0.00266132,9.88271e-05,-1.13139,0.0017422,0.0201185,608,1198,-25.6224,-3.19794
-609,-174,-25.6265,3.62195,0.000508369,0.000468613,-0.000838488,0.00132721,-0.000350233,-0.773547,0.00102176,0.021222,615,1198,-25.6266,-3.62196
-602,-174,-25.6677,3.99927,0.000447246,-7.06768e-05,-0.000770478,0.00100112,-0.000624548,-0.623277,0.000946935,0.0147061,622,1198,-25.6676,-3.99929
-595,-174,-25.5566,4.34277,0,0,0,0,0,0,0,-1,629,1198,-25.5566,-4.34276
-588,-174,-26.0518,4.69202,0.000105612,0.000268954,-0.000945555,0.00113636,-0.000761793,-0.828478,0.00110299,0.0318426,636,1198,-26.0517,-4.69207
-581,-174,-25.9783,5.20862,0.000413198,0.000329475,-0.00103611,0.00140829,-0.00066562,-0.765208,0.0012227,0.0368021,643,1198,-25.9783,-5.20858
-574,-174,-25.6769,5.8219,0,0,0,0,0,0,0,-1,650,1198,-25.6769,-5.82194
-567,-174,-26.6597,3.04041,0,0,0,0,0,0,0,-1,657,1198,-26.6597,-3.04039
-560,-174,-32.4301,0.731323,0,0,0,0,0,0,0,-1,664,1198,-32.4301,-0.73138
-553,-174,-32.4935,0.893433,0.000820385,0.00160743,2.82671e-05,0.00160844,0.000819371,1.53494,0.000928691,0.038795,671,1198,-32.4935,-0.893489
-546,-174,-32.5679,1.02808,0.00120702,0.00184949,0.000332359,0.00199048,0.00106603,1.16959,0.00115018,0.0310149,678,1198,-32.5679,-1.02805
-539,-174,-32.6725,1.08069,0.00190329,0.00249031,0.000996248,0.00323538,0.00115821,0.928653,0.0018929,0.0365003,685,1198,-32.6726,-1.08073
-532,-174,-32.4532,0.831177,0.00304374,0.00296782,0.00176047,0.00476666,0.0012449,0.774618,0.00285476,0.0477961,692,1198,-32.4533,-0.831177
-525,-174,-32.6089,0.621704,0.00614229,0.00301349,0.00272777,0.00772242,0.00143336,0.525042,0.00474324,0.0471179,699,1198,-32.6089,-0.621708
-518,-174,-32.5349,0.825317,0.00987557,0.00300202,0.0036722,0.0114684,0.00140923,0.409252,0.00722181,0.0431917,706,1198,-32.5349,-0.825269
-511,-174,0,0,0,0,0,0,0,0,0,-1,713,1198,0,0
-504,-174,0,0,0,0,0,0,0,0,0,-1,720,1198,0,0
-497,-174,0,0,0,0,0,0,0,0,0,-1,727,1198,0,0
-490,-174,0,0,0,0,0,0,0,0,0,-1,734,1198,0,0
-483,-174,0,0,0,0,0,0,0,0,0,-1,741,1198,0,0
-476,-174,0,0,0,0,0,0,0,0,0,-1,748,1198,0,0
-469,-174,0,0,0,0,0,0,0,0,0,-1,755,1198,0,0
-462,-174,0,0,0,0,0,0,0,0,0,-1,762,1198,0,0
-455,-174,0,0,0,0,0,0,0,0,0,-1,769,1198,0,0
-448,-174,0,0,0,0,0,0,0,0,0,-1,776,1198,0,0
-441,-174,0,0,0,0,0,0,0,0,0,-1,783,1198,0,0
-434,-174,0,0,0,0,0,0,0,0,0,-1,790,1198,0,0
-427,-174,0,0,0,0,0,0,0,0,0,-1,797,1198,0,0
-420,-174,0,0,0,0,0,0,0,0,0,-1,804,1198,0,0
-413,-174,0,0,0,0,0,0,0,0,0,-1,811,1198,0,0
-406,-174,0,0,0,0,0,0,0,0,0,-1,818,1198,0,0
-399,-174,0,0,0,0,0,0,0,0,0,-1,825,1198,0,0
-392,-174,0,0,0,0,0,0,0,0,0,-1,832,1198,0,0
-385,-174,0,0,0,0,0,0,0,0,0,-1,839,1198,0,0
-378,-174,0,0,0,0,0,0,0,0,0,-1,846,1198,0,0
-371,-174,0,0,0,0,0,0,0,0,0,-1,853,1198,0,0
-364,-174,0,0,0,0,0,0,0,0,0,-1,860,1198,0,0
-357,-174,0,0,0,0,0,0,0,0,0,-1,867,1198,0,0
-350,-174,0,0,0,0,0,0,0,0,0,-1,874,1198,0,0
-343,-174,0,0,0,0,0,0,0,0,0,-1,881,1198,0,0
-336,-174,0,0,0,0,0,0,0,0,0,-1,888,1198,0,0
-329,-174,0,0,0,0,0,0,0,0,0,-1,895,1198,0,0
-322,-174,0,0,0,0,0,0,0,0,0,-1,902,1198,0,0
-315,-174,0,0,0,0,0,0,0,0,0,-1,909,1198,0,0
-308,-174,0,0,0,0,0,0,0,0,0,-1,916,1198,0,0
-301,-174,0,0,0,0,0,0,0,0,0,-1,923,1198,0,0
-294,-174,0,0,0,0,0,0,0,0,0,-1,930,1198,0,0
-287,-174,0,0,0,0,0,0,0,0,0,-1,937,1198,0,0
-280,-174,0,0,0,0,0,0,0,0,0,-1,944,1198,0,0
-273,-174,0,0,0,0,0,0,0,0,0,-1,951,1198,0,0
-266,-174,0,0,0,0,0,0,0,0,0,-1,958,1198,0,0
-259,-174,0,0,0,0,0,0,0,0,0,-1,965,1198,0,0
-252,-174,0,0,0,0,0,0,0,0,0,-1,972,1198,0,0
-245,-174,0,0,0,0,0,0,0,0,0,-1,979,1198,0,0
-238,-174,0,0,0,0,0,0,0,0,0,-1,986,1198,0,0
-231,-174,0,0,0,0,0,0,0,0,0,-1,993,1198,0,0
-224,-174,0,0,0,0,0,0,0,0,0,-1,1000,1198,0,0
-217,-174,0,0,0,0,0,0,0,0,0,-1,1007,1198,0,0
-210,-174,0,0,0,0,0,0,0,0,0,-1,1014,1198,0,0
-203,-174,0,0,0,0,0,0,0,0,0,-1,1021,1198,0,0
-196,-174,0,0,0,0,0,0,0,0,0,-1,1028,1198,0,0
-189,-174,0,0,0,0,0,0,0,0,0,-1,1035,1198,0,0
-182,-174,0,0,0,0,0,0,0,0,0,-1,1042,1198,0,0
-175,-174,0,0,0,0,0,0,0,0,0,-1,1049,1198,0,0
-168,-174,0,0,0,0,0,0,0,0,0,-1,1056,1198,0,0
-161,-174,0,0,0,0,0,0,0,0,0,-1,1063,1198,0,0
-154,-174,0,0,0,0,0,0,0,0,0,-1,1070,1198,0,0
-147,-174,0,0,0,0,0,0,0,0,0,-1,1077,1198,0,0
-140,-174,0,0,0,0,0,0,0,0,0,-1,1084,1198,0,0
-133,-174,0,0,0,0,0,0,0,0,0,-1,1091,1198,0,0
-126,-174,0,0,0,0,0,0,0,0,0,-1,1098,1198,0,0
-119,-174,0,0,0,0,0,0,0,0,0,-1,1105,1198,0,0
-112,-174,0,0,0,0,0,0,0,0,0,-1,1112,1198,0,0
-105,-174,0,0,0,0,0,0,0,0,0,-1,1119,1198,0,0
-98,-174,0,0,0,0,0,0,0,0,0,-1,1126,1198,0,0
-91,-174,0,0,0,0,0,0,0,0,0,-1,1133,1198,0,0
-84,-174,0,0,0,0,0,0,0,0,0,-1,1140,1198,0,0
-77,-174,0,0,0,0,0,0,0,0,0,-1,1147,1198,0,0
-70,-174,0,0,0,0,0,0,0,0,0,-1,1154,1198,0,0
-63,-174,0,0,0,0,0,0,0,0,0,-1,1161,1198,0,0
-56,-174,0,0,0,0,0,0,0,0,0,-1,1168,1198,0,0
-49,-174,0,0,0,0,0,0,0,0,0,-1,1175,1198,0,0
-42,-174,0,0,0,0,0,0,0,0,0,-1,1182,1198,0,0
-35,-174,0,0,0,0,0,0,0,0,0,-1,1189,1198,0,0
-28,-174,0,0,0,0,0,0,0,0,0,-1,1196,1198,0,0
-21,-174,0,0,0,0,0,0,0,0,0,-1,1203,1198,0,0
-14,-174,0,0,0,0,0,0,0,0,0,-1,1210,1198,0,0
-7,-174,0,0,0,0,0,0,0,0,0,-1,1217,1198,0,0
0,-174,0,0,0,0,0,0,0,0,0,-1,1224,1198,0,0
7,-174,0,0,0,0,0,0,0,0,0,-1,1231,1198,0,0
14,-174,0,0,0,0,0,0,0,0,0,-1,1238,1198,0,0
21,-174,0,0,0,0,0,0,0,0,0,-1,1245,1198,0,0
28,-174,0,0,0,0,0,0,0,0,0,-1,1252,1198,0,0
35,-174,0,0,0,0,0,0,0,0,0,-1,1259,1198,0,0
42,-174,0,0,0,0,0,0,0,0,0,-1,1266,1198,0,0
49,-174,0,0,0,0,0,0,0,0,0,-1,1273,1198,0,0
56,-174,0,0,0,0,0,0,0,0,0,-1,1280,1198,0,0
63,-174,0,0,0,0,0,0,0,0,0,-1,1287,1198,0,0
70,-174,0,0,0,0,0,0,0,0,0,-1,1294,1198,0,0
77,-174,0,0,0,0,0,0,0,0,0,-1,1301,1198,0,0
84,-174,0,0,0,0,0,0,0,0,0,-1,1308,1198,0,0
91,-174,0,0,0,0,0,0,0,0,0,-1,1315,1198,0,0
98,-174,0,0,0,0,0,0,0,0,0,-1,1322,1198,0,0
105,-174,0,0,0,0,0,0,0,0,0,-1,1329,1198,0,0
112,-174,0,0,0,0,0,0,0,0,0,-1,1336,1198,0,0
119,-174,0,0,0,0,0,0,0,0,0,-1,1343,1198,0,0
126,-174,0,0,0,0,0,0,0,0,0,-1,1350,1198,0,0
133,-174,0,0,0,0,0,0,0,0,0,-1,1357,1198,0,0
140,-174,0,0,0,0,0,0,0,0,0,-1,1364,1198,0,0
147,-174,0,0,0,0,0,0,0,0,0,-1,1371,1198,0,0
154,-174,0,0,0,0,0,0,0,0,0,-1,1378,1198,0,0
161,-174,0,0,0,0,0,0,0,0,0,-1,1385,1198,0,0
168,-174,0,0,0,0,0,0,0,0,0,-1,1392,1198,0,0
175,-174,0,0,0,0,0,0,0,0,0,-1,1399,1198,0,0
182,-174,0,0,0,0,0,0,0,0,0,-1,1406,1198,0,0
189,-174,0,0,0,0,0,0,0,0,0,-1,1413,1198,0,0
196,-174,0,0,0,0,0,0,0,0,0,-1,1420,1198,0,0
203,-174,0,0,0,0,0,0,0,0,0,-1,1427,1198,0,0
210,-174,0,0,0,0,0,0,0,0,0,-1,1434,1198,0,0
217,-174,0,0,0,0,0,0,0,0,0,-1,1441,1198,0,0
224,-174,0,0,0,0,0,0,0,0,0,-1,1448,1198,0,0
231,-174,0,0,0,0,0,0,0,0,0,-1,1455,1198,0,0
238,-174,0,0,0,0,0,0,0,0,0,-1,1462,1198,0,0
245,-174,0,0,0,0,0,0,0,0,0,-1,1469,1198,0,0
252,-174,0,0,0,0,0,0,0,0,0,-1,1476,1198,0,0
259,-174,0,0,0,0,0,0,0,0,0,-1,1483,1198,0,0
266,-174,0,0,0,0,0,0,0,0,0,-1,1490,1198,0,0
273,-174,0,0,0,0,0,0,0,0,0,-1,1497,1198,0,0
280,-174,0,0,0,0,0,0,0,0,0,-1,1504,1198,0,0
287,-174,0,0,0,0,0,0,0,0,0,-1,1511,1198,0,0
294,-174,0,0,0,0,0,0,0,0,0,-1,1518,1198,0,0
301,-174,0,0,0,0,0,0,0,0,0,-1,1525,1198,0,0
308,-174,0,0,0,0,0,0,0,0,0,-1,1532,1198,0,0
315,-174,0,0,0,0,0,0,0,0,0,-1,1539,1198,0,0
322,-174,0,0,0,0,0,0,0,0,0,-1,1546,1198,0,0
329,-174,0,0,0,0,0,0,0,0,0,-1,1553,1198,0,0
336,-174,0,0,0,0,0,0,0,0,0,-1,1560,1198,0,0
343,-174,0,0,0,0,0,0,0,0,0,-1,1567,1198,0,0
350,-174,0,0,0,0,0,0,0,0,0,-1,1574,1198,0,0
357,-174,0,0,0,0,0,0,0,0,0,-1,1581,1198,0,0
364,-174,0,0,0,0,0,0,0,0,0,-1,1588,1198,0,0
371,-174,0,0,0,0,0,0,0,0,0,-1,1595,1198,0,0
378,-174,0,0,0,0,0,0,0,0,0,-1,1602,1198,0,0
385,-174,0,0,0,0,0,0,0,0,0,-1,1609,1198,0,0
392,-174,0,0,0,0,0,0,0,0,0,-1,1616,1198,0,0
399,-174,0,0,0,0,0,0,0,0,0,-1,1623,1198,0,0
406,-174,0,0,0,0,0,0,0,0,0,-1,1630,1198,0,0
413,-174,0,0,0,0,0,0,0,0,0,-1,1637,1198,0,0
420,-174,0,0,0,0,0,0,0,0,0,-1,1644,1198,0,0
427,-174,0,0,0,0,0,0,0,0,0,-1,1651,1198,0,0
434,-174,0,0,0,0,0,0,0,0,0,-1,1658,1198,0,0
441,-174,0,0,0,0,0,0,0,0,0,-1,1665,1198,0,0
448,-174,0,0,0,0,0,0,0,0,0,-1,1672,1198,0,0
455,-174,0,0,0,0,0,0,0,0,0,-1,1679,1198,0,0
462,-174,0,0,0,0,0,0,0,0,0,-1,1686,1198,0,0
469,-174,0,0,0,0,0,0,0,0,0,-1,1693,1198,0,0
476,-174,0,0,0,0,0,0,0,0,0,-1,1700,1198,0,0
483,-174,0,0,0,0,0,0,0,0,0,-1,1707,1198,0,0
490,-174,0,0,0,0,0,0,0,0,0,-1,1714,1198,0,0
497,-174,0,0,0,0,0,0,0,0,0,-1,1721,1198,0,0
504,-174,0,0,0,0,0,0,0,0,0,-1,1728,1198,0,0
511,-174,0,0,0,0,0,0,0,0,0,-1,1735,1198,0,0
518,-174,0,0,0,0,0,0,0,0,0,-1,1742,1198,0,0
525,-174,0,0,0,0,0,0,0,0,0,-1,1749,1198,0,0
532,-174,0,0,0,0,0,0,0,0,0,-1,1756,1198,0,0
539,-174,0,0,0,0,0,0,0,0,0,-1,1763,1198,0,0
546,-174,0,0,0,0,0,0,0,0,0,-1,1770,1198,0,0
553,-174,0,0,0,0,0,0,0,0,0,-1,1777,1198,0,0
560,-174,0,0,0,0,0,0,0,0,0,-1,1784,1198,0,0
567,-174,0,0,0,0,0,0,0,0,0,-1,1791,1198,0,0
574,-174,0,0,0,0,0,0,0,0,0,-1,1798,1198,0,0
581,-174,0,0,0,0,0,0,0,0,0,-1,1805,1198,0,0
588,-174,0,0,0,0,0,0,0,0,0,-1,1812,1198,0,0
595,-174,0,0,0,0,0,0,0,0,0,-1,1819,1198,0,0
602,-174,0,0,0,0,0,0,0,0,0,-1,1826,1198,0,0
609,-174,0,0,0,0,0,0,0,0,0,-1,1833,1198,0,0
616,-174,0,0,0,0,0,0,0,0,0,-1,1840,1198,0,0
623,-174,0,0,0,0,0,0,0,0,0,-1,1847,1198,0,0
630,-174,0,0,0,0,0,0,0,0,0,-1,1854,1198,0,0
637,-174,44.5073,2.73181,0.000267308,-0.00550148,0.000145167,0.000270959,-0.00550513,0.0251429,0.00376366,0.0415555,1861,1198,44.5073,-2.73184
644,-174,44.4821,2.77979,0.000434836,-0.00378721,-0.000124668,0.000438514,-0.00379089,-0.0294936,0.00268539,0.0401785,1868,1198,44.482,-2.77983
651,-174,44.28,2.88513,0.000695189,-0.00201757,-0.000482364,0.000778407,-0.00210079,-0.170839,0.00171975,0.042337,1875,1198,44.28,-2.88515
658,-174,43.9507,2.98157,0,0,0,0,0,0,0,-1,1882,1198,43.9507,-2.98153
665,-174,44.416,2.80261,0.00144394,3.52692e-05,-0.000837156,0.00183364,-0.000354433,-0.435675,0.0013561,0.0334074,1889,1198,44.416,-2.80258
672,-174,44.4395,2.70056,0.00116474,0.000102487,-0.000333836,0.00126094,6.2848e-06,-0.280571,0.000838543,0.0257811,1896,1198,44.4394,-2.70054
679,-174,44.4476,2.72131,0.000289032,0.000237186,0.000178065,0.000443051,8.31672e-05,0.713115,0.000271918,0.0240328,1903,1198,44.4476,-2.72132
686,-174,44.4652,2.77441,0,0,0,0,0,0,0,-1,1910,1198,44.4652,-2.77443
693,-174,43.9775,2.66602,0,0,0,0,0,0,0,-1,1917,1198,43.9776,-2.666
700,-174,25.4004,6.11792,0,0,0,0,0,0,0,-1,1924,1198,25.4004,-6.11797
707,-174,34.7908,7.34473,0,0,0,0,0,0,0,-1,1931,1198,34.7908,-7.34475
714,-174,38.5795,7.47681,0,0,0,0,0,0,0,-1,1938,1198,38.5795,-7.47681
721,-174,38.4855,6.87366,0,0,0,0,0,0,0,-1,1945,1198,38.4855,-6.87364
728,-174,38.0356,6.84021,-0.00309748,0.000277367,0.0023317,0.00146818,-0.00428829,1.09862,0.00345389,0.0399213,1952,1198,38.0357,-6.84024
735,-174,37.9025,6.51855,-0.00322081,0.000113428,0.00237715,0.00134978,-0.00445716,1.0912,0.00350899,0.0134124,1959,1198,37.9025,-6.51859
742,-174,37.9006,6.14319,-0.00283349,0.000489711,0.00238342,0.00173355,-0.00407734,1.0898,0.00344468,0.0208018,1966,1198,37.9007,-6.14321
749,-174,37.9058,5.7854,-0.00188711,0.00106075,0.00230729,0.00232471,-0.00315107,1.06963,0.00317342,0.0191678,1973,1198,37.9058,-5.78541
756,-174,37.8745,5.40491,-0.000656002,0.0017752,0.00233647,0.00319337,-0.00207417,1.02526,0.00306401,0.0115971,1980,1198,37.8746,-5.40491
763,-174,37.838,5.0304,0.000657071,0.00258554,0.00263233,0.00442468,-0.00118207,0.960961,0.00341274,0.014304,1987,1198,37.838,-5.03045
770,-174,37.8876,4.65564,0.00178885,0.00347801,0.0035364,0.00626929,-0.00100242,0.902615,0.00455062,0.0312613,1994,1198,37.8876,-4.65567
777,-174,38.0435,4.22217,0,0,0,0,0,0,0,-1,2001,1198,38.0435,-4.22212
784,-174,37.844,3.74097,0,0,0,0,0,0,0,-1,2008,1198,37.844,-3.74101
791,-174,37.519,3.57117,0,0,0,0,0,0,0,-1,2015,1198,37.5189,-3.57115
798,-174,34.8989,3.03467,0,0,0,0,0,0,0,-1,2022,1198,34.899,-3.03469
805,-174,32.0928,2.34009,0,0,0,0,0,0,0,-1,2029,1198,32.0929,-2.34008
812,-174,0,0,0,0,0,0,0,0,0,-1,2036,1198,0,0
-700,-181,0,0,0,0,0,0,0,0,0,-1,524,1205,0,0
-693,-181,0,0,0,0,0,0,0,0,0,-1,531,1205,0,0
-686,-181,-22.394,0.957397,0,0,0,0,0,0,0,-1,538,1205,-22.3941,-0.957362
-679,-181,-27.8538,-4.81982,0,0,0,0,0,0,0,-1,545,1205,-27.8537,4.81978
-672,-181,-24.4252,-0.819458,0,0,0,0,0,0,0,-1,552,1205,-24.4252,0.819428
-665,-181,-24.9957,-0.112549,0,0,0,0,0,0,0,-1,559,1205,-24.9957,0.112525
-658,-181,-24.7825,0.8479,0.0152195,0.0697501,-0.00474293,0.0701596,0.0148101,-1.48468,0.0427012,0.0446636,566,1205,-24.7825,-0.847859
-651,-181,-24.6064,1.16748,0.011333,0.053056,-0.00354055,0.0533543,0.0110347,-1.48674,0.0325215,0.0477034,573,1205,-24.6064,-1.16743
-644,-181,-24.9811,1.49048,0.00785111,0.0385787,-0.0026099,0.0387988,0.00763101,-1.48666,0.0237347,0.0461158,580,1205,-24.9811,-1.49049
-637,-181,-25.0163,1.94189,0.00496593,0.0264776,-0.00193906,0.026651,0.00479254,-1.48161,0.0164048,0.0249578,587,1205,-25.0163,-1.94188
-630,-181,-25.1619,2.36047,0.00307005,0.0171356,-0.00122431,0.0172414,0.00296428,-1.48462,0.0106446,0.0125533,594,1205,-25.1619,-2.3605
-623,-181,-25.2174,2.76929,0.00112424,0.00874885,-0.000945728,0.0088644,0.00100868,-1.44921,0.00560372,0.0145254,601,1205,-25.2174,-2.76924
-616,-181,-25.214,3.20386,0.00041214,0.00266096,-0.000861079,0.00295279,0.000120303,-1.24403,0.00192968,0.0146866,608,1205,-25.214,-3.20383
-609,-181,-25.2023,3.64502,0.000457944,0.000585614,-0.000858232,0.00138238,-0.000338824,-0.82252,0.00105286,0.0138889,615,1205,-25.2023,-3.64501
-602,-181,-25.2217,4.05237,0.000584522,-0.000210999,-0.000876157,0.00114898,-0.000775458,-0.572317,0.00111803,0.0124504,622,1205,-25.2218,-4.05237
-595,-181,-25.3948,4.37268,0.000370721,-0.000400687,-0.000891635,0.000956501,-0.000986467,-0.581261,0.00112182,0.0306784,629,1205,-25.3948,-4.37267
-588,-181,-25.6411,4.82275,0.000290128,0.000132601,-0.00106847,0.00128274,-0.000860007,-0.748607,0.00124511,0.0306597,636,1205,-25.6411,-4.82281
-581,-181,-25.5568,5.34375,0.00054893,0.000161064,-0.00112874,0.00150027,-0.000790279,-0.700322,0.00134346,0.0267791,643,1205,-25.5568,-5.34376
-574,-181,-25.3256,5.79883,0,0,0,0,0,0,0,-1,650,1205,-25.3257,-5.79882
-567,-181,-25.8839,3.34485,0,0,0,0,0,0,0,-1,657,1205,-25.8839,-3.3449
-560,-181,-31.7396,1.63306,0,0,0,0,0,0,0,-1,664,1205,-31.7396,-1.63303
-553,-181,-32.4973,0.947632,0,0,0,0,0,0,0,-1,671,1205,-32.4973,-0.94768
-546,-181,-32.5347,1.02942,0.00123353,0.0015517,0.000522411,0.00193871,0.000846518,0.933195,0.00112231,0.0353661,678,1205,-32.5347,-1.02947
-539,-181,-32.6035,1.11926,0.0017753,0.00208752,0.00117127,0.00311304,0.000749786,0.85165,0.00187606,0.0405306,685,1205,-32.6035,-1.11927
-532,-181,-32.46,0.941284,0.00263647,0.0024218,0.00181668,0.00434899,0.000709284,0.755891,0.0026942,0.0478439,692,1205,-32.4601,-0.941316
-525,-181,-32.7439,0.303833,0,0,0,0,0,0,0,-1,699,1205,-32.7439,-0.303791
-518,-181,-32.6791,0.965698,0,0,0,0,0,0,0,-1,706,1205,-32.6791,-0.96572
-511,-181,0,0,0,0,0,0,0,0,0,-1,713,1205,0,0
-504,-181,0,0,0,0,0,0,0,0,0,-1,720,1205,0,0
-497,-181,0,0,0,0,0,0,0,0,0,-1,727,1205,0,0
-490,-181,0,0,0,0,0,0,0,0,0,-1,734,1205,0,0
-483,-181,0,0,0,0,0,0,0,0,0,-1,741,1205,0,0
-476,-181,0,0,0,0,0,0,0,0,0,-1,748,1205,0,0
-469,-181,0,0,0,0,0,0,0,0,0,-1,755,1205,0,0
-462,-181,0,0,0,0,0,0,0,0,0,-1,762,1205,0,0
-455,-181,0,0,0,0,0,0,0,0,0,-1,769,1205,0,0
-448,-181,0,0,0,0,0,0,0,0,0,-1,776,1205,0,0
-441,-181,0,0,0,0,0,0,0,0,0,-1,783,1205,0,0
-434,-181,0,0,0,0,0,0,0,0,0,-1,790,1205,0,0
-427,-181,0,0,0,0,0,0,0,0,0,-1,797,1205,0,0
-420,-181,0,0,0,0,0,0,0,0,0,-1,804,1205,0,0
-413,-181,0,0,0,0,0,0,0,0,0,-1,811,1205,0,0
-406,-181,0,0,0,0,0,0,0,0,0,-1,818,1205,0,0
-399,-181,0,0,0,0,0,0,0,0,0,-1,825,1205,0,0
-392,-181,0,0,0,0,0,0,0,0,0,-1,832,1205,0,0
-385,-181,0,0,0,0,0,0,0,0,0,-1,839,1205,0,0
-378,-181,0,0,0,0,0,0,0,0,0,-1,846,1205,0,0
-371,-181,0,0,0,0,0,0,0,0,0,-1,853,1205,0,0
-364,-181,0,0,0,0,0,0,0,0,0,-1,860,1205,0,0
-357,-181,0,0,0,0,0,0,0,0,0,-1,867,1205,0,0
-350,-181,0,0,0,0,0,0,0,0,0,-1,874,1205,0,0
-343,-181,0,0,0,0,0,0,0,0,0,-1,881,1205,0,0
-336,-181,0,0,0,0,0,0,0,0,0,-1,888,1205,0,0
-329,-181,0,0,0,0,0,0,0,0,0,-1,895,1205,0,0
-322,-181,0,0,0,0,0,0,0,0,0,-1,902,1205,0,0
-315,-181,0,0,0,0,0,0,0,0,0,-1,909,1205,0,0
-308,-181,0,0,0,0,0,0,0,0,0,-1,916,1205,0,0
-301,-181,0,0,0,0,0,0,0,0,0,-1,923,1205,0,0
-294,-181,0,0,0,0,0,0,0,0,0,-1,930,1205,0,0
-287,-181,0,0,0,0,0,0,0,0,0,-1,937,1205,0,0
-280,-181,0,0,0,0,0,0,0,0,0,-1,944,1205,0,0
-273,-181,0,0,0,0,0,0,0,0,0,-1,951,1205,0,0
-266,-181,0,0,0,0,0,0,0,0,0,-1,958,1205,0,0
-259,-181,0,0,0,0,0,0,0,0,0,-1,965,1205,0,0
-252,-181,0,0,0,0,0,0,0,0,0,-1,972,1205,0,0
-245,-181,0,0,0,0,0,0,0,0,0,-1,979,1205,0,0
-238,-181,0,0,0,0,0,0,0,0,0,-1,986,1205,0,0
-231,-181,0,0,0,0,0,0,0,0,0,-1,993,1205,0,0
-224,-181,0,0,0,0,0,0,0,0,0,-1,1000,1205,0,0
-217,-181,0,0,0,0,0,0,0,0,0,-1,1007,1205,0,0
-210,-181,0,0,0,0,0,0,0,0,0,-1,1014,1205,0,0
-203,-181,0,0,0,0,0,0,0,0,0,-1,1021,1205,0,0
-196,-181,0,0,0,0,0,0,0,0,0,-1,1028,1205,0,0
-189,-181,0,0,0,0,0,0,0,0,0,-1,1035,1205,0,0
-182,-181,0,0,0,0,0,0,0,0,0,-1,1042,1205,0,0
-175,-181,0,0,0,0,0,0,0,0,0,-1,1049,1205,0,0
-168,-181,0,0,0,0,0,0,0,0,0,-1,1056,1205,0,0
-161,-181,0,0,0,0,0,0,0,0,0,-1,1063,1205,0,0
-154,-181,0,0,0,0,0,0,0,0,0,-1,1070,1205,0,0
-147,-181,0,0,0,0,0,0,0,0,0,-1,1077,1205,0,0
-140,-181,0,0,0,0,0,0,0,0,0,-1,1084,1205,0,0
-133,-181,0,0,0,0,0,0,0,0,0,-1,1091,1205,0,0
-126,-181,0,0,0,0,0,0,0,0,0,-1,1098,1205,0,0
-119,-181,0,0,0,0,0,0,0,0,0,-1,1105,1205,0,0
-112,-181,0,0,0,0,0,0,0,0,0,-1,1112,1205,0,0
-105,-181,0,0,0,0,0,0,0,0,0,-1,1119,1205,0,0
-98,-181,0,0,0,0,0,0,0,0,0,-1,1126,1205,0,0
-91,-181,0,0,0,0,0,0,0,0,0,-1,1133,1205,0,0
-84,-181,0,0,0,0,0,0,0,0,0,-1,1140,1205,0,0
-77,-181,0,0,0,0,0,0,0,0,0,-1,1147,1205,0,0
-70,-181,0,0,0,0,0,0,0,0,0,-1,1154,1205,0,0
-63,-181,0,0,0,0,0,0,0,0,0,-1,1161,1205,0,0
-56,-181,0,0,0,0,0,0,0,0,0,-1,1168,1205,0,0
-49,-181,0,0,0,0,0,0,0,0,0,-1,1175,1205,0,0
-42,-181,0,0,0,0,0,0,0,0,0,-1,1182,1205,0,0
-35,-181,0,0,0,0,0,0,0,0,0,-1,1189,1205,0,0
-28,-181,0,0,0,0,0,0,0,0,0,-1,1196,1205,0,0
-21,-181,0,0,0,0,0,0,0,0,0,-1,1203,1205,0,0
-14,-181,0,0,0,0,0,0,0,0,0,-1,1210,1205,0,0
-7,-181,0,0,0,0,0,0,0,0,0,-1,1217,1205,0,0
0,-181,0,0,0,0,0,0,0,0,0,-1,1224,1205,0,0
7,-181,0,0,0,0,0,0,0,0,0,-1,1231,1205,0,0
14,-181,0,0,0,0,0,0,0,0,0,-1,1238,1205,0,0
21,-181,0,0,0,0,0,0,0,0,0,-1,1245,1205,0,0
28,-181,0,0,0,0,0,0,0,0,0,-1,1252,1205,0,0
35,-181,0,0,0,0,0,0,0,0,0,-1,1259,1205,0,0
42,-181,0,0,0,0,0,0,0,0,0,-1,1266,1205,0,0
49,-181,0,0,0,0,0,0,0,0,0,-1,1273,1205,0,0
56,-181,0,0,0,0,0,0,0,0,0,-1,1280,1205,0,0
63,-181,0,0,0,0,0,0,0,0,0,-1,1287,1205,0,0
70,-181,0,0,0,0,0,0,0,0,0,-1,1294,1205,0,0
77,-181,0,0,0,0,0,0,0,0,0,-1,1301,1205,0,0
84,-181,0,0,0,0,0,0,0,0,0,-1,1308,1205,0,0
91,-181,0,0,0,0,0,0,0,0,0,-1,1315,1205,0,0
98,-181,0,0,0,0,0,0,0,0,0,-1,1322,1205,0,0
105,-181,0,0,0,0,0,0,0,0,0,-1,1329,1205,0,0
112,-181,0,0,0,0,0,0,0,0,0,-1,1336,1205,0,0
119,-181,0,0,0,0,0,0,0,0,0,-1,1343,1205,0,0
126,-181,0,0,0,0,0,0,0,0,0,-1,1350,1205,0,0
133,-181,0,0,0,0,0,0,0,0,0,-1,1357,1205,0,0
140,-181,0,0,0,0,0,0,0,0,0,-1,1364,1205,0,0
147,-181,0,0,0,0,0,0,0,0,0,-1,1371,1205,0,0
154,-181,0,0,0,0,0,0,0,0,0,-1,1378,1205,0,0
161,-181,0,0,0,0,0,0,0,0,0,-1,1385,1205,0,0
168,-181,0,0,0,0,0,0,0,0,0,-1,1392,1205,0,0
175,-181,0,0,0,0,0,0,0,0,0,-1,1399,1205,0,0
182,-181,0,0,0,0,0,0,0,0,0,-1,1406,1205,0,0
189,-181,0,0,0,0,0,0,0,0,0,-1,1413,1205,0,0
196,-181,0,0,0,0,0,0,0,0,0,-1,1420,1205,0,0
203,-181,0,0,0,0,0,0,0,0,0,-1,1427,1205,0,0
210,-181,0,0,0,0,0,0,0,0,0,-1,1434,1205,0,0
217,-181,0,0,0,0,0,0,0,0,0,-1,1441,1205,0,0
224,-181,0,0,0,0,0,0,0,0,0,-1,1448,1205,0,0
231,-181,0,0,0,0,0,0,0,0,0,-1,1455,1205,0,0
238,-181,0,0,0,0,0,0,0,0,0,-1,1462,1205,0,0
245,-181,0,0,0,0,0,0,0,0,0,-1,1469,1205,0,0
252,-181,0,0,0,0,0,0,0,0,0,-1,1476,1205,0,0
259,-181,0,0,0,0,0,0,0,0,0,-1,1483,1205,0,0
266,-181,0,0,0,0,0,0,0,0,0,-1,1490,1205,0,0
273,-181,0,0,0,0,0,0,0,0,0,-1,1497,1205,0,0
280,-181,0,0,0,0,0,0,0,0,0,-1,1504,1205,0,0
287,-181,0,0,0,0,0,0,0,0,0,-1,1511,1205,0,0
294,-181,0,0,0,0,0,0,0,0,0,-1,1518,1205,0,0
301,-181,0,0,0,0,0,0,0,0,0,-1,1525,1205,0,0
308,-181,0,0,0,0,0,0,0,0,0,-1,1532,1205,0,0
315,-181,0,0,0,0,0,0,0,0,0,-1,1539,1205,0,0
322,-181,0,0,0,0,0,0,0,0,0,-1,1546,1205,0,0
329,-181,0,0,0,0,0,0,0,0,0,-1,1553,1205,0,0
336,-181,0,0,0,0,0,0,0,0,0,-1,1560,1205,0,0
343,-181,0,0,0,0,0,0,0,0,0,-1,1567,1205,0,0
350,-181,0,0,0,0,0,0,0,0,0,-1,1574,1205,0,0
357,-181,0,0,0,0,0,0,0,0,0,-1,1581,1205,0,0
364,-181,0,0,0,0,0,0,0,0,0,-1,1588,1205,0,0
371,-181,0,0,0,0,0,0,0,0,0,-1,1595,1205,0,0
378,-181,0,0,0,0,0,0,0,0,0,-1,1602,1205,0,0
385,-181,0,0,0,0,0,0,0,0,0,-1,1609,1205,0,0
392,-181,0,0,0,0,0,0,0,0,0,-1,1616,1205,0,0
399,-181,0,0,0,0,0,0,0,0,0,-1,1623,1205,0,0
406,-181,0,0,0,0,0,0,0,0,0,-1,1630,1205,0,0
413,-181,0,0,0,0,0,0,0,0,0,-1,1637,1205,0,0
420,-181,0,0,0,0,0,0,0,0,0,-1,1644,1205,0,0
427,-181,0,0,0,0,0,0,0,0,0,-1,1651,1205,0,0
434,-181,0,0,0,0,0,0,0,0,0,-1,1658,1205,0,0
441,-181,0,0,0,0,0,0,0,0,0,-1,1665,1205,0,0
448,-181,0,0,0,0,0,0,0,0,0,-1,1672,1205,0,0
455,-181,0,0,0,0,0,0,0,0,0,-1,1679,1205,0,0
462,-181,0,0,0,0,0,0,0,0,0,-1,1686,1205,0,0
469,-181,0,0,0,0,0,0,0,0,0,-1,1693,1205,0,0
476,-181,0,0,0,0,0,0,0,0,0,-1,1700,1205,0,0
483,-181,0,0,0,0,0,0,0,0,0,-1,1707,1205,0,0
490,-181,0,0,0,0,0,0,0,0,0,-1,1714,1205,0,0
497,-181,0,0,0,0,0,0,0,0,0,-1,1721,1205,0,0
504,-181,0,0,0,0,0,0,0,0,0,-1,1728,1205,0,0
511,-181,0,0,0,0,0,0,0,0,0,-1,1735,1205,0,0
518,-181,0,0,0,0,0,0,0,0,0,-1,1742,1205,0,0
525,-181,0,0,0,0,0,0,0,0,0,-1,1749,1205,0,0
532,-181,0,0,0,0,0,0,0,0,0,-1,1756,1205,0,0
539,-181,0,0,0,0,0,0,0,0,0,-1,1763,1205,0,0
546,-181,0,0,0,0,0,0,0,0,0,-1,1770,1205,0,0
553,-181,0,0,0,0,0,0,0,0,0,-1,1777,1205,0,0
560,-181,0,0,0,0,0,0,0,0,0,-1,1784,1205,0,0
567,-181,0,0,0,0,0,0,0,0,0,-1,1791,1205,0,0
574,-181,0,0,0,0,0,0,0,0,0,-1,1798,1205,0,0
581,-181,0,0,0,0,0,0,0,0,0,-1,1805,1205,0,0
588,-181,0,0,0,0,0,0,0,0,0,-1,1812,1205,0,0
595,-181,0,0,0,0,0,0,0,0,0,-1,1819,1205,0,0
602,-181,0,0,0,0,0,0,0,0,0,-1,1826,1205,0,0
609,-181,0,0,0,0,0,0,0,0,0,-1,1833,1205,0,0
616,-181,0,0,0,0,0,0,0,0,0,-1,1840,1205,0,0
623,-181,0,0,0,0,0,0,0,0,0,-1,1847,1205,0,0
630,-181,44.5592,2.88831,0.000501291,-0.00485333,-0.000227454,0.000510935,-0.00486297,-0.0423764,0.00342502,0.0396227,1854,1205,44.5592,-2.88832
637,-181,44.5524,2.91687,0.000340492,-0.00337012,-0.000455334,0.00039555,-0.00342517,-0.120333,0.00242607,0.0373505,1861,1205,44.5523,-2.91681
644,-181,44.4575,2.96545,0.000430887,-0.00177259,-0.000835044,0.000711583,-0.00205329,-0.32428,0.00165777,0.0372523,1868,1205,44.4575,-2.96546
651,-181,44.4542,3.04614,0.000727803,-0.000266767,-0.00117175,0.00150343,-0.00104239,-0.584719,0.00147784,0.038317,1875,1205,44.4542,-3.0462
658,-181,44.387,2.97119,0.0012439,0.000653307,-0.00144366,0.00242215,-0.000524948,-0.684517,0.00181523,0.0350397,1882,1205,44.387,-2.97122
665,-181,44.3672,2.82837,0.00154619,0.000888243,-0.00122767,0.0024882,-5.37641e-05,-0.65449,0.00167701,0.0310819,1889,1205,44.3672,-2.82838
672,-181,44.4369,2.7771,0.00130394,0.00060049,-0.000606826,0.0016536,0.000250824,-0.522752,0.00102903,0.0244608,1896,1205,44.4368,-2.77709
679,-181,44.4976,2.74341,0.000563152,0.000474426,-3.66594e-05,0.000576339,0.000461239,-0.345301,0.000352185,0.0318586,1903,1205,44.4975,-2.74341
686,-181,44.5552,2.69556,0,0,0,0,0,0,0,-1,1910,1205,44.5552,-2.69554
693,-181,36.1301,2.91016,0,0,0,0,0,0,0,-1,1917,1205,36.1302,-2.9102
700,-181,29.5845,6.58398,0,0,0,0,0,0,0,-1,1924,1205,29.5844,-6.58395
707,-181,37.9541,7.97595,0,0,0,0,0,0,0,-1,1931,1205,37.9541,-7.97599
714,-181,38.1349,7.47363,-0.00153386,0.000172851,0.00162467,0.00115464,-0.00251565,1.02722,0.00216706,0.0486351,1938,1205,38.1348,-7.47362
721,-181,38.0049,7.08508,-0.00218594,3.26179e-05,0.0021329,0.00132745,-0.00348077,1.02519,0.00286732,0.0445536,1945,1205,38.0049,-7.08509
728,-181,37.5286,6.88818,-0.00274961,-4.37649e-05,0.00247223,0.00142152,-0.0042149,1.03576,0.00338478,0.0223165,1952,1205,37.5286,-6.88824
735,-181,37.5441,6.51831,-0.00269154,-0.000135485,0.0024597,0.0013584,-0.00418543,1.02499,0.00333657,0.0121966,1959,1205,37.5441,-6.51831
742,-181,37.5439,6.16321,-0.0019503,0.000384952,0.00230894,0.00180471,-0.00337006,1.0195,0.00303288,0.0165995,1966,1205,37.5439,-6.16316
749,-181,37.5416,5.77808,-0.000534692,0.00110924,0.00204548,0.00249172,-0.00191718,0.976446,0.00255268,0.0165305,1973,1205,37.5416,-5.77802
756,-181,37.511,5.39148,0.00126526,0.00197617,0.00189814,0.00355185,-0.000310418,0.877958,0.00247786,0.0125029,1980,1205,37.511,-5.39148
763,-181,37.5059,5.02539,0.00332191,0.00294529,0.00196932,0.0051119,0.0011553,0.737733,0.00309555,0.01367,1987,1205,37.5059,-5.02539
770,-181,37.6074,4.5481,0.00537674,0.00399998,0.00265358,0.00742977,0.00194694,0.658488,0.00444856,0.0348139,1994,1205,37.6074,-4.54805
777,-181,37.7687,3.96948,0,0,0,0,0,0,0,-1,2001,1205,37.7687,-3.96948
784,-181,34.7717,2.39917,0,0,0,0,0,0,0,-1,2008,1205,34.7717,-2.39918
791,-181,33.6541,1.79431,0,0,0,0,0,0,0,-1,2015,1205,33.6541,-1.79432
798,-181,32.4534,1.89966,0,0,0,0,0,0,0,-1,2022,1205,32.4535,-1.8997
805,-181,0,0,0,0,0,0,0,0,0,-1,2029,1205,0,0
812,-181,0,0,0,0,0,0,0,0,0,-1,2036,1205,0,0
-700,-188,0,0,0,0,0,0,0,0,0,-1,524,1212,0,0
-693,-188,0,0,0,0,0,0,0,0,0,-1,531,1212,0,0
-686,-188,0,0,0,0,0,0,0,0,0,-1,538,1212,0,0
-679,-188,-28.1254,-5.85193,0,0,0,0,0,0,0,-1,545,1212,-28.1254,5.85189
-672,-188,-24.6451,-0.470581,0,0,0,0,0,0,0,-1,552,1212,-24.6451,0.470597
-665,-188,-24.5192,0.0926514,0,0,0,0,0,0,0,-1,559,1212,-24.5193,-0.092667
-658,-188,-24.3858,0.643555,0,0,0,0,0,0,0,-1,566,1212,-24.3858,-0.64356
-651,-188,-24.251,0.903198,0,0,0,0,0,0,0,-1,573,1212,-24.251,-0.903258
-644,-188,-24.6089,1.50647,0.0113874,0.043028,-0.0013803,0.0430881,0.0113273,-1.52728,0.0257925,0.0435448,580,1212,-24.609,-1.50643
-637,-188,-24.6545,1.96082,0.00736599,0.0296562,-0.00100566,0.0297015,0.00732071,-1.5258,0.0178678,0.0213656,587,1212,-24.6545,-1.96082
-630,-188,-24.7554,2.35925,0.00456015,0.0193119,-0.000567909,0.0193337,0.00453831,-1.53237,0.0116742,0.00952424,594,1212,-24.7553,-2.35925
-623,-188,-24.7746,2.78113,0.0017892,0.0100265,-0.00049296,0.0100559,0.00175981,-1.51123,0.00620113,0.0105305,601,1212,-24.7746,-2.78113
-616,-188,-24.7681,3.21472,0.000546021,0.00303105,-0.000691517,0.00321052,0.000366552,-1.31687,0.00202923,0.0104671,608,1212,-24.7681,-3.21468
-609,-188,-24.7531,3.64648,0.000408625,0.000708603,-0.000875673,0.00144704,-0.000329811,-0.870217,0.00109137,0.0126839,615,1212,-24.753,-3.64652
-602,-188,-24.7743,4.08521,0.000549326,-0.000394333,-0.000981635,0.00116664,-0.00101165,-0.561371,0.00125869,0.0157019,622,1212,-24.7743,-4.08527
-595,-188,-24.8514,4.48267,0.000435999,-0.000736711,-0.00101111,0.00101847,-0.00131918,-0.52264,0.00135336,0.0186516,629,1212,-24.8514,-4.48269
-588,-188,-24.9807,4.87463,0.000354708,-0.000158611,-0.00108684,0.00121478,-0.00101868,-0.669446,0.00129115,0.0234527,636,1212,-24.9806,-4.87457
-581,-188,-25.0004,5.28149,0.000547707,-0.000114231,-0.00105279,0.00132033,-0.00088685,-0.633103,0.00128248,0.0237143,643,1212,-25.0004,-5.28152
-574,-188,-25.3468,5.64111,0,0,0,0,0,0,0,-1,650,1212,-25.3468,-5.6411
-567,-188,-19.5786,4.10388,0,0,0,0,0,0,0,-1,657,1212,-19.5785,-4.10383
-560,-188,-23.9507,0.416626,0,0,0,0,0,0,0,-1,664,1212,-23.9508,-0.416602
-553,-188,-32.5919,0.973389,0,0,0,0,0,0,0,-1,671,1212,-32.5919,-0.973442
-546,-188,-32.54,1.01025,0.000980468,0.0012302,0.000965037,0.00207841,0.000132251,0.849735,0.0013437,0.0451282,678,1212,-32.54,-1.01027
-539,-188,-32.5589,1.02905,0.00132785,0.00172465,0.00159002,0.0031286,-7.60966e-05,0.847466,0.00211156,0.0390823,685,1212,-32.5589,-1.0291
-532,-188,-32.5439,0.949219,0.00180919,0.00202466,0.00213916,0.00405879,-0.000224941,0.810559,0.00278387,0.0415841,692,1212,-32.5439,-0.949261
-525,-188,-32.4726,0.871826,0.00386435,0.00157083,0.00252283,0.00548882,-5.365e-05,0.572081,0.00367723,0.0419124,699,1212,-32.4726,-0.871835
-518,-188,-32.5848,1.10229,0.00803306,0.000298803,0.00277849,0.00892773,-0.000595866,0.311514,0.00616006,0.0426663,706,1212,-32.5848,-1.10224
-511,-188,-32.5252,1.06714,0.0134389,-0.00123695,0.00309752,0.0140659,-0.00186394,0.199716,0.0100563,0.0401613,713,1212,-32.5252,-1.06711
-504,-188,0,0,0,0,0,0,0,0,0,-1,720,1212,0,0
-497,-188,0,0,0,0,0,0,0,0,0,-1,727,1212,0,0
-490,-188,0,0,0,0,0,0,0,0,0,-1,734,1212,0,0
-483,-188,0,0,0,0,0,0,0,0,0,-1,741,1212,0,0
-476,-188,0,0,0,0,0,0,0,0,0,-1,748,1212,0,0
-469,-188,0,0,0,0,0,0,0,0,0,-1,755,1212,0,0
-462,-188,0,0,0,0,0,0,0,0,0,-1,762,1212,0,0
-455,-188,0,0,0,0,0,0,0,0,0,-1,769,1212,0,0
-448,-188,0,0,0,0,0,0,0,0,0,-1,776,1212,0,0
-441,-188,0,0,0,0,0,0,0,0,0,-1,783,1212,0,0
-434,-188,0,0,0,0,0,0,0,0,0,-1,790,1212,0,0
-427,-188,0,0,0,0,0,0,0,0,0,-1,797,1212,0,0
-420,-188,0,0,0,0,0,0,0,0,0,-1,804,1212,0,0
-413,-188,0,0,0,0,0,0,0,0,0,-1,811,1212,0,0
-406,-188,0,0,0,0,0,0,0,0,0,-1,818,1212,0,0
-399,-188,0,0,0,0,0,0,0,0,0,-1,825,1212,0,0
-392,-188,0,0,0,0,0,0,0,0,0,-1,832,1212,0,0
-385,-188,0,0,0,0,0,0,0,0,0,-1,839,1212,0,0
-378,-188,0,0,0,0,0,0,0,0,0,-1,846,1212,0,0
-371,-188,0,0,0,0,0,0,0,0,0,-1,853,1212,0,0
-364,-188,0,0,0,0,0,0,0,0,0,-1,860,1212,0,0
-357,-188,0,0,0,0,0,0,0,0,0,-1,867,1212,0,0
-350,-188,0,0,0,0,0,0,0,0,0,-1,874,1212,0,0
-343,-188,0,0,0,0,0,0,0,0,0,-1,881,1212,0,0
-336,-188,0,0,0,0,0,0,0,0,0,-1,888,1212,0,0
-329,-188,0,0,0,0,0,0,0,0,0,-1,895,1212,0,0
-322,-188,0,0,0,0,0,0,0,0,0,-1,902,1212,0,0
-315,-188,0,0,0,0,0,0,0,0,0,-1,909,1212,0,0
-308,-188,0,0,0,0,0,0,0,0,0,-1,916,1212,0,0
-301,-188,0,0,0,0,0,0,0,0,0,-1,923,1212,0,0
-294,-188,0,0,0,0,0,0,0,0,0,-1,930,1212,0,0
-287,-188,0,0,0,0,0,0,0,0,0,-1,937,1212,0,0
-280,-188,0,0,0,0,0,0,0,0,0,-1,944,1212,0,0
-273,-188,0,0,0,0,0,0,0,0,0,-1,951,1212,0,0
-266,-188,0,0,0,0,0,0,0,0,0,-1,958,1212,0,0
-259,-188,0,0,0,0,0,0,0,0,0,-1,965,1212,0,0
-252,-188,0,0,0,0,0,0,0,0,0,-1,972,1212,0,0
-245,-188,0,0,0,0,0,0,0,0,0,-1,979,1212,0,0
-238,-188,0,0,0,0,0,0,0,0,0,-1,986,1212,0,0
-231,-188,0,0,0,0,0,0,0,0,0,-1,993,1212,0,0
-224,-188,0,0,0,0,0,0,0,0,0,-1,1000,1212,0,0
-217,-188,0,0,0,0,0,0,0,0,0,-1,1007,1212,0,0
-210,-188,0,0,0,0,0,0,0,0,0,-1,1014,1212,0,0
-203,-188,0,0,0,0,0,0,0,0,0,-1,1021,1212,0,0
-196,-188,0,0,0,0,0,0,0,0,0,-1,1028,1212,0,0
-189,-188,0,0,0,0,0,0,0,0,0,-1,1035,1212,0,0
-182,-188,0,0,0,0,0,0,0,0,0,-1,1042,1212,0,0
-175,-188,0,0,0,0,0,0,0,0,0,-1,1049,1212,0,0
-168,-188,0,0,0,0,0,0,0,0,0,-1,1056,1212,0,0
-161,-188,0,0,0,0,0,0,0,0,0,-1,1063,1212,0,0
-154,-188,0,0,0,0,0,0,0,0,0,-1,1070,1212,0,0
-147,-188,0,0,0,0,0,0,0,0,0,-1,1077,1212,0,0
-140,-188,0,0,0,0,0,0,0,0,0,-1,1084,1212,0,0
-133,-188,0,0,0,0,0,0,0,0,0,-1,1091,1212,0,0
-126,-188,0,0,0,0,0,0,0,0,0,-1,1098,1212,0,0
-119,-188,0,0,0,0,0,0,0,0,0,-1,1105,1212,0,0
-112,-188,0,0,0,0,0,0,0,0,0,-1,1112,1212,0,0
-105,-188,0,0,0,0,0,0,0,0,0,-1,1119,1212,0,0
-98,-188,0,0,0,0,0,0,0,0,0,-1,1126,1212,0,0
-91,-188,0,0,0,0,0,0,0,0,0,-1,1133,1212,0,0
-84,-188,0,0,0,0,0,0,0,0,0,-1,1140,1212,0,0
-77,-188,0,0,0,0,0,0,0,0,0,-1,1147,1212,0,0
-70,-188,0,0,0,0,0,0,0,0,0,-1,1154,1212,0,0
-63,-188,0,0,0,0,0,0,0,0,0,-1,1161,1212,0,0
-56,-188,0,0,0,0,0,0,0,0,0,-1,1168,1212,0,0
-49,-188,0,0,0,0,0,0,0,0,0,-1,1175,1212,0,0
-42,-188,0,0,0,0,0,0,0,0,0,-1,1182,1212,0,0
-35,-188,0,0,0,0,0,0,0,0,0,-1,1189,1212,0,0
-28,-188,0,0,0,0,0,0,0,0,0,-1,1196,1212,0,0
-21,-188,0,0,0,0,0,0,0,0,0,-1,1203,1212,0,0
-14,-188,0,0,0,0,0,0,0,0,0,-1,1210,1212,0,0
-7,-188,0,0,0,0,0,0,0,0,0,-1,1217,1212,0,0
0,-188,0,0,0,0,0,0,0,0,0,-1,1224,1212,0,0
7,-188,0,0,0,0,0,0,0,0,0,-1,1231,1212,0,0
14,-188,0,0,0,0,0,0,0,0,0,-1,1238,1212,0,0
21,-188,0,0,0,0,0,0,0,0,0,-1,1245,1212,0,0
28,-188,0,0,0,0,0,0,0,0,0,-1,1252,1212,0,0
35,-188,0,0,0,0,0,0,0,0,0,-1,1259,1212,0,0
42,-188,0,0,0,0,0,0,0,0,0,-1,1266,1212,0,0
49,-188,0,0,0,0,0,0,0,0,0,-1,1273,1212,0,0
56,-188,0,0,0,0,0,0,0,0,0,-1,1280,1212,0,0
63,-188,0,0,0,0,0,0,0,0,0,-1,1287,1212,0,0
70,-188,0,0,0,0,0,0,0,0,0,-1,1294,1212,0,0
77,-188,0,0,0,0,0,0,0,0,0,-1,1301,1212,0,0
84,-188,0,0,0,0,0,0,0,0,0,-1,1308,1212,0,0
91,-188,0,0,0,0,0,0,0,0,0,-1,1315,1212,0,0
98,-188,0,0,0,0,0,0,0,0,0,-1,1322,1212,0,0
105,-188,0,0,0,0,0,0,0,0,0,-1,1329,1212,0,0
112,-188,0,0,0,0,0,0,0,0,0,-1,1336,1212,0,0
119,-188,0,0,0,0,0,0,0,0,0,-1,1343,1212,0,0
126,-188,0,0,0,0,0,0,0,0,0,-1,1350,1212,0,0
133,-188,0,0,0,0,0,0,0,0,0,-1,1357,1212,0,0
140,-188,0,0,0,0,0,0,0,0,0,-1,1364,1212,0,0
147,-188,0,0,0,0,0,0,0,0,0,-1,1371,1212,0,0
154,-188,0,0,0,0,0,0,0,0,0,-1,1378,1212,0,0
161,-188,0,0,0,0,0,0,0,0,0,-1,1385,1212,0,0
168,-188,0,0,0,0,0,0,0,0,0,-1,1392,1212,0,0
175,-188,0,0,0,0,0,0,0,0,0,-1,1399,1212,0,0
182,-188,0,0,0,0,0,0,0,0,0,-1,1406,1212,0,0
189,-188,0,0,0,0,0,0,0,0,0,-1,1413,1212,0,0
196,-188,0,0,0,0,0,0,0,0,0,-1,1420,1212,0,0
203,-188,0,0,0,0,0,0,0,0,0,-1,1427,1212,0,0
210,-188,0,0,0,0,0,0,0,0,0,-1,1434,1212,0,0
217,-188,0,0,0,0,0,0,0,0,0,-1,1441,1212,0,0
224,-188,0,0,0,0,0,0,0,0,0,-1,1448,1212,0,0
231,-188,0,0,0,0,0,0,0,0,0,-1,1455,1212,0,0
238,-188,0,0,0,0,0,0,0,0,0,-1,1462,1212,0,0
245,-188,0,0,0,0,0,0,0,0,0,-1,1469,1212,0,0
252,-188,0,0,0,0,0,0,0,0,0,-1,1476,1212,0,0
259,-188,0,0,0,0,0,0,0,0,0,-1,1483,1212,0,0
266,-188,0,0,0,0,0,0,0,0,0,-1,1490,1212,0,0
273,-188,0,0,0,0,0,0,0,0,0,-1,1497,1212,0,0
280,-188,0,0,0,0,0,0,0,0,0,-1,1504,1212,0,0
287,-188,0,0,0,0,0,0,0,0,0,-1,1511,1212,0,0
294,-188,0,0,0,0,0,0,0,0,0,-1,1518,1212,0,0
301,-188,0,0,0,0,0,0,0,0,0,-1,1525,1212,0,0
308,-188,0,0,0,0,0,0,0,0,0,-1,1532,1212,0,0
315,-188,0,0,0,0,0,0,0,0,0,-1,1539,1212,0,0
322,-188,0,0,0,0,0,0,0,0,0,-1,1546,1212,0,0
329,-188,0,0,0,0,0,0,0,0,0,-1,1553,1212,0,0
336,-188,0,0,0,0,0,0,0,0,0,-1,1560,1212,0,0
343,-188,0,0,0,0,0,0,0,0,0,-1,1567,1212,0,0
350,-188,0,0,0,0,0,0,0,0,0,-1,1574,1212,0,0
357,-188,0,0,0,0,0,0,0,0,0,-1,1581,1212,0,0
364,-188,0,0,0,0,0,0,0,0,0,-1,1588,1212,0,0
371,-188,0,0,0,0,0,0,0,0,0,-1,1595,1212,0,0
378,-188,0,0,0,0,0,0,0,0,0,-1,1602,1212,0,0
385,-188,0,0,0,0,0,0,0,0,0,-1,1609,1212,0,0
392,-188,0,0,0,0,0,0,0,0,0,-1,1616,1212,0,0
399,-188,0,0,0,0,0,0,0,0,0,-1,1623,1212,0,0
406,-188,0,0,0,0,0,0,0,0,0,-1,1630,1212,0,0
413,-188,0,0,0,0,0,0,0,0,0,-1,1637,1212,0,0
420,-188,0,0,0,0,0,0,0,0,0,-1,1644,1212,0,0
427,-188,0,0,0,0,0,0,0,0,0,-1,1651,1212,0,0
434,-188,0,0,0,0,0,0,0,0,0,-1,1658,1212,0,0
441,-188,0,0,0,0,0,0,0,0,0,-1,1665,1212,0,0
448,-188,0,0,0,0,0,0,0,0,0,-1,1672,1212,0,0
455,-188,0,0,0,0,0,0,0,0,0,-1,1679,1212,0,0
462,-188,0,0,0,0,0,0,0,0,0,-1,1686,1212,0,0
469,-188,0,0,0,0,0,0,0,0,0,-1,1693,1212,0,0
476,-188,0,0,0,0,0,0,0,0,0,-1,1700,1212,0,0
483,-188,0,0,0,0,0,0,0,0,0,-1,1707,1212,0,0
490,-188,0,0,0,0,0,0,0,0,0,-1,1714,1212,0,0
497,-188,0,0,0,0,0,0,0,0,0,-1,1721,1212,0,0
504,-188,0,0,0,0,0,0,0,0,0,-1,1728,1212,0,0
511,-188,0,0,0,0,0,0,0,0,0,-1,1735,1212,0,0
518,-188,0,0,0,0,0,0,0,0,0,-1,1742,1212,0,0
525,-188,0,0,0,0,0,0,0,0,0,-1,1749,1212,0,0
532,-188,0,0,0,0,0,0,0,0,0,-1,1756,1212,0,0
539,-188,0,0,0,0,0,0,0,0,0,-1,1763,1212,0,0
546,-188,0,0,0,0,0,0,0,0,0,-1,1770,1212,0,0
553,-188,0,0,0,0,0,0,0,0,0,-1,1777,1212,0,0
560,-188,0,0,0,0,0,0,0,0,0,-1,1784,1212,0,0
567,-188,0,0,0,0,0,0,0,0,0,-1,1791,1212,0,0
574,-188,0,0,0,0,0,0,0,0,0,-1,1798,1212,0,0
581,-188,0,0,0,0,0,0,0,0,0,-1,1805,1212,0,0
588,-188,0,0,0,0,0,0,0,0,0,-1,1812,1212,0,0
595,-188,0,0,0,0,0,0,0,0,0,-1,1819,1212,0,0
602,-188,0,0,0,0,0,0,0,0,0,-1,1826,1212,0,0
609,-188,0,0,0,0,0,0,0,0,0,-1,1833,1212,0,0
616,-188,0,0,0,0,0,0,0,0,0,-1,1840,1212,0,0
623,-188,0,0,0,0,0,0,0,0,0,-1,1847,1212,0,0
630,-188,44.5061,3.02905,0.000379833,-0.00264435,-0.000570915,0.000484023,-0.00274854,-0.180509,0.00201319,0.041705,1854,1212,44.506,-3.02902
637,-188,44.5294,3.09924,6.58838e-05,-0.00121147,-0.000879108,0.000513825,-0.00165941,-0.47125,0.00131154,0.0399838,1861,1212,44.5294,-3.09924
644,-188,44.3846,2.91284,5.82159e-05,0.000304693,-0.00131941,0.00150661,-0.0011437,-0.831965,0.00153493,0.0337428,1868,1212,44.3846,-2.91286
651,-188,44.3885,2.91553,0.000430883,0.00147391,-0.00165628,0.00268884,-0.000784044,-0.93792,0.0021032,0.0306314,1875,1212,44.3885,-2.91552
658,-188,44.4651,2.87915,0.00105196,0.00192142,-0.00184445,0.00338168,-0.000408292,-0.901134,0.00240214,0.0326909,1882,1212,44.4651,-2.87918
665,-188,44.3889,2.80542,0.00142407,0.00175826,-0.00152953,0.00312979,5.25377e-05,-0.839806,0.00206924,0.0308165,1889,1212,44.3889,-2.80547
672,-188,44.4343,2.76477,0.00129387,0.00120285,-0.000879588,0.00212912,0.000367593,-0.759552,0.00131413,0.0267575,1896,1212,44.4343,-2.76474
679,-188,44.3685,2.54639,0.000749196,0.00087942,-0.000314255,0.00113524,0.000493378,-0.88755,0.000657296,0.0497396,1903,1212,44.3685,-2.54638
686,-188,44.3474,2.3772,0,0,0,0,0,0,0,-1,1910,1212,44.3474,-2.37718
693,-188,35.9054,2.18042,0,0,0,0,0,0,0,-1,1917,1212,35.9054,-2.18038
700,-188,37.6787,8.28418,0,0,0,0,0,0,0,-1,1924,1212,37.6787,-8.28419
707,-188,37.4573,7.96497,-0.000542233,-4.03612e-05,0.00109852,0.000835521,-0.00141812,0.897687,0.00131555,0.0376228,1931,1212,37.4572,-7.96491
714,-188,37.5197,7.64478,-0.00108419,-0.000106291,0.00158935,0.00106762,-0.00225811,0.934624,0.00196069,0.0331078,1938,1212,37.5197,-7.64481
721,-188,37.2998,7.32629,-0.00173951,-0.000372005,0.00213873,0.00118961,-0.00330113,0.940114,0.00268657,0.034467,1945,1212,37.2998,-7.32624
728,-188,37.151,6.90674,-0.00223089,-0.000454043,0.00247305,0.00128532,-0.00397026,0.95784,0.00316355,0.0120158,1952,1212,37.1509,-6.90675
735,-188,37.1382,6.52429,-0.00194549,-0.000413674,0.00237842,0.00131912,-0.00367828,0.941167,0.00299049,0.0126835,1959,1212,37.1381,-6.52426
742,-188,37.1249,6.15063,-0.000876362,0.000257142,0.00210936,0.00187456,-0.00249378,0.916641,0.00253049,0.0139298,1966,1212,37.1249,-6.15062
749,-188,37.1392,5.78308,0.000885843,0.00110663,0.00174896,0.00274867,-0.000756197,0.816917,0.00212975,0.0146671,1973,1212,37.1391,-5.78314
756,-188,37.1196,5.39172,0.00312708,0.00209308,0.00148123,0.00417895,0.00104122,0.617492,0.00251189,0.0137264,1980,1212,37.1196,-5.39177
763,-188,37.129,5.01282,0.0058448,0.00321134,0.00135204,0.00641534,0.0026408,0.399314,0.00372313,0.015613,1987,1212,37.129,-5.01281
770,-188,37.1193,4.55286,0.0088124,0.00446081,0.00178941,0.00945371,0.0038195,0.34413,0.00549152,0.029344,1994,1212,37.1193,-4.55287
777,-188,37.1388,4.03247,0,0,0,0,0,0,0,-1,2001,1212,37.1388,-4.03248
784,-188,34.7103,1.6665,0,0,0,0,0,0,0,-1,2008,1212,34.7103,-1.66656
791,-188,38.8401,0.969482,0,0,0,0,0,0,0,-1,2015,1212,38.8401,-0.969542
798,-188,38.8203,2.93079,0,0,0,0,0,0,0,-1,2022,1212,38.8204,-2.93082
805,-188,0,0,0,0,0,0,0,0,0,-1,2029,1212,0,0
812,-188,0,0,0,0,0,0,0,0,0,-1,2036,1212,0,0
-700,-195,0,0,0,0,0,0,0,0,0,-1,524,1219,0,0
-693,-195,0,0,0,0,0,0,0,0,0,-1,531,1219,0,0
-686,-195,0,0,0,0,0,0,0,0,0,-1,538,1219,0,0
-679,-195,-28.6069,-7.15857,0.0555993,0.155769,-0.00565568,0.156087,0.055281,-1.51457,0.0913858,0.0450985,545,1219,-28.6069,7.15853
-672,-195,-27.6837,-7.48743,0.0471678,0.130873,-0.00341592,0.131012,0.0470287,-1.53008,0.0766365,0.0470091,552,1219,-27.6837,7.4874
-665,-195,-24.1364,-0.0627441,0,0,0,0,0,0,0,-1,559,1219,-24.1364,0.062752
-658,-195,-23.9896,0.423828,0,0,0,0,0,0,0,-1,566,1219,-23.9896,-0.42378
-651,-195,-23.953,1.07483,0,0,0,0,0,0,0,-1,573,1219,-23.953,-1.07488
-644,-195,-24.0629,1.53809,0.0163626,0.0474911,-0.000133853,0.0474917,0.016362,-1.5665,0.0278577,0.0396446,580,1219,-24.0629,-1.53808
-637,-195,-24.1729,1.97937,0.0109282,0.0329051,9.54989e-06,0.0329051,0.0109282,1.57036,0.0193514,0.0214014,587,1219,-24.1728,-1.97934
-630,-195,-24.2961,2.36316,0.00694297,0.0215752,0.000197301,0.0215779,0.00694031,1.55732,0.0127195,0.00805313,594,1219,-24.2961,-2.36314
-623,-195,-24.3264,2.78516,0.00316506,0.0114818,0.000110554,0.0114833,0.00316359,1.55751,0.00684901,0.00849147,601,1219,-24.3264,-2.78515
-616,-195,-24.3307,3.22363,0.00116321,0.00361173,-0.000332481,0.00365607,0.00111887,-1.43821,0.00216313,0.00997991,608,1219,-24.3307,-3.2236
-609,-195,-24.3351,3.66504,0.000624717,0.00106367,-0.00069318,0.00157129,0.000117096,-0.938716,0.00101076,0.0169507,615,1219,-24.3351,-3.66502
-602,-195,-24.3594,4.09851,0.000672893,-0.000327942,-0.000906478,0.00120791,-0.000862957,-0.533192,0.00120113,0.0209266,622,1219,-24.3594,-4.09855
-595,-195,-24.4066,4.52429,0.000691751,-0.000887541,-0.000962027,0.00114671,-0.0013425,-0.441746,0.00143863,0.0173497,629,1219,-24.4066,-4.52431
-588,-195,-24.41,4.96362,0.000645009,-0.000304893,-0.000933141,0.00121712,-0.000877001,-0.549995,0.00121434,0.0196713,636,1219,-24.41,-4.9636
-581,-195,-24.239,5.45544,0,0,0,0,0,0,0,-1,643,1219,-24.239,-5.4554
-574,-195,-22.6731,4.11804,0,0,0,0,0,0,0,-1,650,1219,-22.6731,-4.11802
-567,-195,-20.6388,3.78369,0,0,0,0,0,0,0,-1,657,1219,-20.6388,-3.78369
-560,-195,-20.878,2.10388,0,0,0,0,0,0,0,-1,664,1219,-20.878,-2.10385
-553,-195,-31.4797,1.34521,0,0,0,0,0,0,0,-1,671,1219,-31.4797,-1.34516
-546,-195,-32.4844,1.07739,0,0,0,0,0,0,0,-1,678,1219,-32.4843,-1.07737
-539,-195,-32.5305,1.03894,0.00119091,0.00166735,0.00205904,0.0035019,-0.000643646,0.84299,0.00257609,0.0396313,685,1219,-32.5305,-1.03897
-532,-195,-32.5525,0.970215,0.00136863,0.00206629,0.00253229,0.00427367,-0.000838745,0.853843,0.00316595,0.0342654,692,1219,-32.5525,-0.97027
-525,-195,-32.4078,0.943237,0.0026173,0.00192452,0.0027193,0.00501219,-0.000470364,0.722048,0.00350877,0.0387748,699,1219,-32.4078,-0.943219
-518,-195,-32.5978,1.36328,0.00612125,0.000733949,0.00256462,0.00714688,-0.00029168,0.380432,0.00486473,0.0418878,706,1219,-32.5978,-1.36326
-511,-195,-32.4504,1.26721,0.0117797,-0.0010971,0.00238956,0.0122089,-0.00152623,0.177691,0.00869277,0.0425578,713,1219,-32.4505,-1.2672
-504,-195,0,0,0,0,0,0,0,0,0,-1,720,1219,0,0
-497,-195,0,0,0,0,0,0,0,0,0,-1,727,1219,0,0
-490,-195,0,0,0,0,0,0,0,0,0,-1,734,1219,0,0
-483,-195,0,0,0,0,0,0,0,0,0,-1,741,1219,0,0
-476,-195,0,0,0,0,0,0,0,0,0,-1,748,1219,0,0
-469,-195,0,0,0,0,0,0,0,0,0,-1,755,1219,0,0
-462,-195,0,0,0,0,0,0,0,0,0,-1,762,1219,0,0
-455,-195,0,0,0,0,0,0,0,0,0,-1,769,1219,0,0
-448,-195,0,0,0,0,0,0,0,0,0,-1,776,1219,0,0
-441,-195,0,0,0,0,0,0,0,0,0,-1,783,1219,0,0
-434,-195,0,0,0,0,0,0,0,0,0,-1,790,1219,0,0
-427,-195,0,0,0,0,0,0,0,0,0,-1,797,1219,0,0
-420,-195,0,0,0,0,0,0,0,0,0,-1,804,1219,0,0
-413,-195,0,0,0,0,0,0,0,0,0,-1,811,1219,0,0
-406,-195,0,0,0,0,0,0,0,0,0,-1,818,1219,0,0
-399,-195,0,0,0,0,0,0,0,0,0,-1,825,1219,0,0
-392,-195,0,0,0,0,0,0,0,0,0,-1,832,1219,0,0
-385,-195,0,0,0,0,0,0,0,0,0,-1,839,1219,0,0
-378,-195,0,0,0,0,0,0,0,0,0,-1,846,1219,0,0
-371,-195,0,0,0,0,0,0,0,0,0,-1,853,1219,0,0
-364,-195,0,0,0,0,0,0,0,0,0,-1,860,1219,0,0
-357,-195,0,0,0,0,0,0,0,0,0,-1,867,1219,0,0
-350,-195,0,0,0,0,0,0,0,0,0,-1,874,1219,0,0
-343,-195,0,0,0,0,0,0,0,0,0,-1,881,1219,0,0
-336,-195,0,0,0,0,0,0,0,0,0,-1,888,1219,0,0
-329,-195,0,0,0,0,0,0,0,0,0,-1,895,1219,0,0
-322,-195,0,0,0,0,0,0,0,0,0,-1,902,1219,0,0
-315,-195,0,0,0,0,0,0,0,0,0,-1,909,1219,0,0
-308,-195,0,0,0,0,0,0,0,0,0,-1,916,1219,0,0
-301,-195,0,0,0,0,0,0,0,0,0,-1,923,1219,0,0
-294,-195,0,0,0,0,0,0,0,0,0,-1,930,1219,0,0
-287,-195,0,0,0,0,0,0,0,0,0,-1,937,1219,0,0
-280,-195,0,0,0,0,0,0,0,0,0,-1,944,1219,0,0
-273,-195,0,0,0,0,0,0,0,0,0,-1,951,1219,0,0
-266,-195,0,0,0,0,0,0,0,0,0,-1,958,1219,0,0
-259,-195,0,0,0,0,0,0,0,0,0,-1,965,1219,0,0
-252,-195,0,0,0,0,0,0,0,0,0,-1,972,1219,0,0
-245,-195,0,0,0,0,0,0,0,0,0,-1,979,1219,0,0
-238,-195,0,0,0,0,0,0,0,0,0,-1,986,1219,0,0
-231,-195,0,0,0,0,0,0,0,0,0,-1,993,1219,0,0
-224,-195,0,0,0,0,0,0,0,0,0,-1,1000,1219,0,0
-217,-195,0,0,0,0,0,0,0,0,0,-1,1007,1219,0,0
-210,-195,0,0,0,0,0,0,0,0,0,-1,1014,1219,0,0
-203,-195,0,0,0,0,0,0,0,0,0,-1,1021,1219,0,0
-196,-195,0,0,0,0,0,0,0,0,0,-1,1028,1219,0,0
-189,-195,0,0,0,0,0,0,0,0,0,-1,1035,1219,0,0
-182,-195,0,0,0,0,0,0,0,0,0,-1,1042,1219,0,0
-175,-195,0,0,0,0,0,0,0,0,0,-1,1049,1219,0,0
-168,-195,0,0,0,0,0,0,0,0,0,-1,1056,1219,0,0
-161,-195,0,0,0,0,0,0,0,0,0,-1,1063,1219,0,0
-154,-195,0,0,0,0,0,0,0,0,0,-1,1070,1219,0,0
-147,-195,0,0,0,0,0,0,0,0,0,-1,1077,1219,0,0
-140,-195,0,0,0,0,0,0,0,0,0,-1,1084,1219,0,0
-133,-195,0,0,0,0,0,0,0,0,0,-1,1091,1219,0,0
-126,-195,0,0,0,0,0,0,0,0,0,-1,1098,1219,0,0
-119,-195,0,0,0,0,0,0,0,0,0,-1,1105,1219,0,0
-112,-195,0,0,0,0,0,0,0,0,0,-1,1112,1219,0,0
-105,-195,0,0,0,0,0,0,0,0,0,-1,1119,1219,0,0
-98,-195,0,0,0,0,0,0,0,0,0,-1,1126,1219,0,0
-91,-195,0,0,0,0,0,0,0,0,0,-1,1133,1219,0,0
-84,-195,0,0,0,0,0,0,0,0,0,-1,1140,1219,0,0
-77,-195,0,0,0,0,0,0,0,0,0,-1,1147,1219,0,0
-70,-195,0,0,0,0,0,0,0,0,0,-1,1154,1219,0,0
-63,-195,0,0,0,0,0,0,0,0,0,-1,1161,1219,0,0
-56,-195,0,0,0,0,0,0,0,0,0,-1,1168,1219,0,0
-49,-195,0,0,0,0,0,0,0,0,0,-1,1175,1219,0,0
-42,-195,0,0,0,0,0,0,0,0,0,-1,1182,1219,0,0
-35,-195,0,0,0,0,0,0,0,0,0,-1,1189,1219,0,0
-28,-195,0,0,0,0,0,0,0,0,0,-1,1196,1219,0,0
-21,-195,0,0,0,0,0,0,0,0,0,-1,1203,1219,0,0
-14,-195,0,0,0,0,0,0,0,0,0,-1,1210,1219,0,0
-7,-195,0,0,0,0,0,0,0,0,0,-1,1217,1219,0,0
0,-195,0,0,0,0,0,0,0,0,0,-1,1224,1219,0,0
7,-195,0,0,0,0,0,0,0,0,0,-1,1231,1219,0,0
14,-195,0,0,0,0,0,0,0,0,0,-1,1238,1219,0,0
21,-195,0,0,0,0,0,0,0,0,0,-1,1245,1219,0,0
28,-195,0,0,0,0,0,0,0,0,0,-1,1252,1219,0,0
35,-195,0,0,0,0,0,0,0,0,0,-1,1259,1219,0,0
42,-195,0,0,0,0,0,0,0,0,0,-1,1266,1219,0,0
49,-195,0,0,0,0,0,0,0,0,0,-1,1273,1219,0,0
56,-195,0,0,0,0,0,0,0,0,0,-1,1280,1219,0,0
63,-195,0,0,0,0,0,0,0,0,0,-1,1287,1219,0,0
70,-195,0,0,0,0,0,0,0,0,0,-1,1294,1219,0,0
77,-195,0,0,0,0,0,0,0,0,0,-1,1301,1219,0,0
84,-195,0,0,0,0,0,0,0,0,0,-1,1308,1219,0,0
91,-195,0,0,0,0,0,0,0,0,0,-1,1315,1219,0,0
98,-195,0,0,0,0,0,0,0,0,0,-1,1322,1219,0,0
105,-195,0,0,0,0,0,0,0,0,0,-1,1329,1219,0,0
112,-195,0,0,0,0,0,0,0,0,0,-1,1336,1219,0,0
119,-195,0,0,0,0,0,0,0,0,0,-1,1343,1219,0,0
126,-195,0,0,0,0,0,0,0,0,0,-1,1350,1219,0,0
133,-195,0,0,0,0,0,0,0,0,0,-1,1357,1219,0,0
140,-195,0,0,0,0,0,0,0,0,0,-1,1364,1219,0,0
147,-195,0,0,0,0,0,0,0,0,0,-1,1371,1219,0,0
154,-195,0,0,0,0,0,0,0,0,0,-1,1378,1219,0,0
161,-195,0,0,0,0,0,0,0,0,0,-1,1385,1219,0,0
168,-195,0,0,0,0,0,0,0,0,0,-1,1392,1219,0,0
175,-195,0,0,0,0,0,0,0,0,0,-1,1399,1219,0,0
182,-195,0,0,0,0,0,0,0,0,0,-1,1406,1219,0,0
189,-195,0,0,0,0,0,0,0,0,0,-1,1413,1219,0,0
196,-195,0,0,0,0,0,0,0,0,0,-1,1420,1219,0,0
203,-195,0,0,0,0,0,0,0,0,0,-1,1427,1219,0,0
210,-195,0,0,0,0,0,0,0,0,0,-1,1434,1219,0,0
217,-195,0,0,0,0,0,0,0,0,0,-1,1441,1219,0,0
224,-195,0,0,0,0,0,0,0,0,0,-1,1448,1219,0,0
231,-195,0,0,0,0,0,0,0,0,0,-1,1455,1219,0,0
238,-195,0,0,0,0,0,0,0,0,0,-1,1462,1219,0,0
245,-195,0,0,0,0,0,0,0,0,0,-1,1469,1219,0,0
252,-195,0,0,0,0,0,0,0,0,0,-1,1476,1219,0,0
259,-195,0,0,0,0,0,0,0,0,0,-1,1483,1219,0,0
266,-195,0,0,0,0,0,0,0,0,0,-1,1490,1219,0,0
273,-195,0,0,0,0,0,0,0,0,0,-1,1497,1219,0,0
280,-195,0,0,0,0,0,0,0,0,0,-1,1504,1219,0,0
287,-195,0,0,0,0,0,0,0,0,0,-1,1511,1219,0,0
294,-195,0,0,0,0,0,0,0,0,0,-1,1518,1219,0,0
301,-195,0,0,0,0,0,0,0,0,0,-1,1525,1219,0,0
308,-195,0,0,0,0,0,0,0,0,0,-1,1532,1219,0,0
315,-195,0,0,0,0,0,0,0,0,0,-1,1539,1219,0,0
322,-195,0,0,0,0,0,0,0,0,0,-1,1546,1219,0,0
329,-195,0,0,0,0,0,0,0,0,0,-1,1553,1219,0,0
336,-195,0,0,0,0,0,0,0,0,0,-1,1560,1219,0,0
343,-195,0,0,0,0,0,0,0,0,0,-1,1567,1219,0,0
350,-195,0,0,0,0,0,0,0,0,0,-1,1574,1219,0,0
357,-195,0,0,0,0,0,0,0,0,0,-1,1581,1219,0,0
364,-195,0,0,0,0,0,0,0,0,0,-1,1588,1219,0,0
371,-195,0,0,0,0,0,0,0,0,0,-1,1595,1219,0,0
378,-195,0,0,0,0,0,0,0,0,0,-1,1602,1219,0,0
385,-195,0,0,0,0,0,0,0,0,0,-1,1609,1219,0,0
392,-195,0,0,0,0,0,0,0,0,0,-1,1616,1219,0,0
399,-195,0,0,0,0,0,0,0,0,0,-1,1623,1219,0,0
406,-195,0,0,0,0,0,0,0,0,0,-1,1630,1219,0,0
413,-195,0,0,0,0,0,0,0,0,0,-1,1637,1219,0,0
420,-195,0,0,0,0,0,0,0,0,0,-1,1644,1219,0,0
427,-195,0,0,0,0,0,0,0,0,0,-1,1651,1219,0,0
434,-195,0,0,0,0,0,0,0,0,0,-1,1658,1219,0,0
441,-195,0,0,0,0,0,0,0,0,0,-1,1665,1219,0,0
448,-195,0,0,0,0,0,0,0,0,0,-1,1672,1219,0,0
455,-195,0,0,0,0,0,0,0,0,0,-1,1679,1219,0,0
462,-195,0,0,0,0,0,0,0,0,0,-1,1686,1219,0,0
469,-195,0,0,0,0,0,0,0,0,0,-1,1693,1219,0,0
476,-195,0,0,0,0,0,0,0,0,0,-1,1700,1219,0,0
483,-195,0,0,0,0,0,0,0,0,0,-1,1707,1219,0,0
490,-195,0,0,0,0,0,0,0,0,0,-1,1714,1219,0,0
497,-195,0,0,0,0,0,0,0,0,0,-1,1721,1219,0,0
504,-195,0,0,0,0,0,0,0,0,0,-1,1728,1219,0,0
511,-195,0,0,0,0,0,0,0,0,0,-1,1735,1219,0,0
518,-195,0,0,0,0,0,0,0,0,0,-1,1742,1219,0,0
525,-195,0,0,0,0,0,0,0,0,0,-1,1749,1219,0,0
532,-195,0,0,0,0,0,0,0,0,0,-1,1756,1219,0,0
539,-195,0,0,0,0,0,0,0,0,0,-1,1763,1219,0,0
546,-195,0,0,0,0,0,0,0,0,0,-1,1770,1219,0,0
553,-195,0,0,0,0,0,0,0,0,0,-1,1777,1219,0,0
560,-195,0,0,0,0,0,0,0,0,0,-1,1784,1219,0,0
567,-195,0,0,0,0,0,0,0,0,0,-1,1791,1219,0,0
574,-195,0,0,0,0,0,0,0,0,0,-1,1798,1219,0,0
581,-195,0,0,0,0,0,0,0,0,0,-1,1805,1219,0,0
588,-195,0,0,0,0,0,0,0,0,0,-1,1812,1219,0,0
595,-195,0,0,0,0,0,0,0,0,0,-1,1819,1219,0,0
602,-195,0,0,0,0,0,0,0,0,0,-1,1826,1219,0,0
609,-195,0,0,0,0,0,0,0,0,0,-1,1833,1219,0,0
616,-195,0,0,0,0,0,0,0,0,0,-1,1840,1219,0,0
623,-195,0,0,0,0,0,0,0,0,0,-1,1847,1219,0,0
630,-195,44.5017,2.9071,0.000230333,-0.000822502,-0.000837834,0.000693401,-0.00128557,-0.504911,0.00115948,0.0416595,1854,1219,44.5017,-2.90705
637,-195,44.4381,2.99512,-0.000418418,0.000344282,-0.00123839,0.00125871,-0.00133285,-0.93476,0.00149644,0.0399905,1861,1219,44.4381,-2.99507
644,-195,44.3766,2.8385,-0.000647004,0.00156249,-0.00171845,0.00250066,-0.00158518,-1.07107,0.00237862,0.0341951,1868,1219,44.3766,-2.83854
651,-195,44.3854,2.81042,-0.000249113,0.0023167,-0.00206438,0.00346433,-0.00139674,-1.06342,0.00288992,0.0266681,1875,1219,44.3854,-2.81038
658,-195,44.4526,2.84802,0.000469488,0.00239025,-0.00217681,0.00380912,-0.000949382,-0.993149,0.002908,0.0248486,1882,1219,44.4526,-2.84804
665,-195,44.4655,2.8053,0.000957342,0.00200955,-0.00179852,0.00335733,-0.00039044,-0.927688,0.00237907,0.0242545,1889,1219,44.4655,-2.80533
672,-195,44.5111,2.6842,0.0010219,0.00137156,-0.00116165,0.00237147,2.19938e-05,-0.860086,0.0015737,0.0384297,1896,1219,44.5111,-2.68419
679,-195,44.5281,2.54004,0,0,0,0,0,0,0,-1,1903,1219,44.5281,-2.54009
686,-195,42.8165,2.35498,0,0,0,0,0,0,0,-1,1910,1219,42.8165,-2.35495
693,-195,24.4368,5.68298,0,0,0,0,0,0,0,-1,1917,1219,24.4368,-5.68293
700,-195,37.1263,8.56042,0,0,0,0,0,0,0,-1,1924,1219,37.1264,-8.56045
707,-195,36.8422,8.13367,9.25651e-05,-0.000330625,0.000998429,0.000901575,-0.00113963,0.680979,0.00118116,0.0328246,1931,1219,36.8422,-8.13363
714,-195,36.8213,7.58032,-0.000442912,-0.00055745,0.00156657,0.00106744,-0.0020678,0.767128,0.00184059,0.0392339,1938,1219,36.8213,-7.58035
721,-195,36.7762,7.29553,-0.00104807,-0.000893488,0.00212445,0.00115508,-0.00309664,0.803581,0.00253861,0.0203464,1945,1219,36.7762,-7.29551
728,-195,36.7579,6.92139,-0.00142206,-0.000898507,0.00241157,0.00126545,-0.00358602,0.839462,0.00290584,0.0111914,1952,1219,36.7579,-6.92138
735,-195,36.7554,6.50818,-0.000961407,-0.000703503,0.00225295,0.00142418,-0.00308909,0.813985,0.00266418,0.0127352,1959,1219,36.7554,-6.50814
742,-195,36.7347,6.14807,0.000274235,1.32425e-05,0.00192758,0.00207573,-0.00178825,0.7516,0.00223293,0.0144049,1966,1219,36.7347,-6.14806
749,-195,36.7377,5.79065,0.00218582,0.000853183,0.00152829,0.00318673,-0.000147726,0.579827,0.0021754,0.0150772,1973,1219,36.7377,-5.79069
756,-195,36.7251,5.39063,0.00470363,0.0018228,0.00113073,0.00509443,0.001432,0.332766,0.00303378,0.0147887,1980,1219,36.7251,-5.39057
763,-195,36.7358,5.00989,0.0079568,0.00293984,0.00071705,0.00805727,0.00283936,0.139213,0.00471895,0.0175656,1987,1219,36.7359,-5.00985
770,-195,36.715,4.6344,0.0117733,0.00421569,0.000690347,0.0118359,0.00415315,0.090348,0.00693398,0.0337009,1994,1219,36.7149,-4.6344
777,-195,36.7184,4.25671,0,0,0,0,0,0,0,-1,2001,1219,36.7183,-4.25675
784,-195,40.2747,-0.327393,0,0,0,0,0,0,0,-1,2008,1219,40.2747,0.327416
791,-195,40.3972,1.3114,0,0,0,0,0,0,0,-1,2015,1219,40.3973,-1.31137
798,-195,40.4421,3.11365,0,0,0,0,0,0,0,-1,2022,1219,40.4421,-3.11367
805,-195,0,0,0,0,0,0,0,0,0,-1,2029,1219,0,0
812,-195,0,0,0,0,0,0,0,0,0,-1,2036,1219,0,0
-700,-202,0,0,0,0,0,0,0,0,0,-1,524,1226,0,0
-693,-202,0,0,0,0,0,0,0,0,0,-1,531,1226,0,0
-686,-202,0,0,0,0,0,0,0,0,0,-1,538,1226,0,0
-679,-202,-29.0421,-8.13013,0.0714491,0.167802,-0.00337317,0.16792,0.0713312,-1.53584,0.0973134,0.0463791,545,1226,-29.0421,8.13008
-672,-202,-28.0809,-8.49426,0.0605908,0.140628,-0.00126995,0.140648,0.0605707,-1.55493,0.0814632,0.0470049,552,1226,-28.0809,8.49426
-665,-202,-27.3921,-8.72461,0,0,0,0,0,0,0,-1,559,1226,-27.3921,8.72456
-658,-202,-26.6332,-9.01941,0,0,0,0,0,0,0,-1,566,1226,-26.6332,9.01941
-651,-202,-23.5505,0.977661,0,0,0,0,0,0,0,-1,573,1226,-23.5505,-0.977634
-644,-202,-23.7032,1.495,0.0219717,0.0514948,0.00119547,0.0515431,0.0219234,1.53039,0.0298688,0.0430727,580,1226,-23.7032,-1.49494
-637,-202,-23.7253,1.96875,0.0150973,0.0359143,0.00113453,0.0359759,0.0150357,1.51651,0.0208638,0.0359753,587,1226,-23.7253,-1.96877
-630,-202,-23.837,2.36194,0.0098961,0.0237646,0.00108461,0.0238489,0.00981179,1.49322,0.013841,0.0156414,594,1226,-23.837,-2.36191
-623,-202,-23.8707,2.78442,0.00513001,0.0130479,0.000864769,0.0131413,0.00503666,1.46327,0.00765572,0.00869355,601,1226,-23.8707,-2.78442
-616,-202,-23.8936,3.21631,0.00229552,0.00435594,0.000235691,0.00438255,0.0022689,1.45834,0.0025308,0.0084876,608,1226,-23.8936,-3.21633
-609,-202,-23.9052,3.66516,0.00115982,0.00156797,-0.000289467,0.00171807,0.00100972,-1.09244,0.000997001,0.0210259,615,1226,-23.9051,-3.66519
-602,-202,-23.937,4.0835,0.000900934,-0.000112663,-0.000635906,0.00120729,-0.00041902,-0.448953,0.000975023,0.0215485,622,1226,-23.937,-4.0835
-595,-202,-23.9547,4.51929,0.000998689,-0.000889746,-0.000739582,0.00125386,-0.00114491,-0.33223,0.00138541,0.0160669,629,1226,-23.9546,-4.51929
-588,-202,-23.9043,4.96411,0.000999193,-0.000350686,-0.000610875,0.00123459,-0.000586082,-0.367808,0.00107316,0.0128626,636,1226,-23.9043,-4.96416
-581,-202,-23.8433,5.27917,0.00105439,-0.000254803,-0.000375622,0.00115451,-0.000354918,-0.260474,0.000911313,0.0444051,643,1226,-23.8433,-5.27921
-574,-202,-24.0237,5.49377,0,0,0,0,0,0,0,-1,650,1226,-24.0237,-5.49378
-567,-202,-22.1768,4.56995,0,0,0,0,0,0,0,-1,657,1226,-22.1768,-4.56991
-560,-202,-10.929,2.73096,0,0,0,0,0,0,0,-1,664,1226,-10.929,-2.73092
-553,-202,-30.2701,1.474,0,0,0,0,0,0,0,-1,671,1226,-30.2701,-1.47395
-546,-202,-32.4948,0.934082,0,0,0,0,0,0,0,-1,678,1226,-32.4948,-0.934125
-539,-202,-32.4561,0.998169,0.00108864,0.00186053,0.00253291,0.00403673,-0.00108756,0.861003,0.00311756,0.0426364,685,1226,-32.4561,-0.998162
-532,-202,-32.5251,1.01855,0.0010176,0.00234739,0.00291145,0.00466891,-0.00130391,0.897659,0.00362624,0.0305148,692,1226,-32.5251,-1.01851
-525,-202,-32.588,1.15955,0.00159133,0.00252168,0.00295842,0.00505128,-0.000938267,0.863378,0.00371993,0.0352223,699,1226,-32.5879,-1.15959
-518,-202,-32.743,1.49133,0.0040374,0.00165888,0.00248345,0.00560165,9.46228e-05,0.562096,0.0037033,0.0410929,706,1226,-32.743,-1.49128
-511,-202,-32.3912,1.4624,0.00927817,-0.00026407,0.0017712,0.00959633,-0.000582226,0.177732,0.0066002,0.0426745,713,1226,-32.3912,-1.46242
-504,-202,0,0,0,0,0,0,0,0,0,-1,720,1226,0,0
-497,-202,0,0,0,0,0,0,0,0,0,-1,727,1226,0,0
-490,-202,0,0,0,0,0,0,0,0,0,-1,734,1226,0,0
-483,-202,0,0,0,0,0,0,0,0,0,-1,741,1226,0,0
-476,-202,0,0,0,0,0,0,0,0,0,-1,748,1226,0,0
-469,-202,0,0,0,0,0,0,0,0,0,-1,755,1226,0,0
-462,-202,0,0,0,0,0,0,0,0,0,-1,762,1226,0,0
-455,-202,0,0,0,0,0,0,0,0,0,-1,769,1226,0,0
-448,-202,0,0,0,0,0,0,0,0,0,-1,776,1226,0,0
-441,-202,0,0,0,0,0,0,0,0,0,-1,783,1226,0,0
-434,-202,0,0,0,0,0,0,0,0,0,-1,790,1226,0,0
-427,-202,0,0,0,0,0,0,0,0,0,-1,797,1226,0,0
-420,-202,0,0,0,0,0,0,0,0,0,-1,804,1226,0,0
-413,-202,0,0,0,0,0,0,0,0,0,-1,811,1226,0,0
-406,-202,0,0,0,0,0,0,0,0,0,-1,818,1226,0,0
-399,-202,0,0,0,0,0,0,0,0,0,-1,825,1226,0,0
-392,-202,0,0,0,0,0,0,0,0,0,-1,832,1226,0,0
-385,-202,0,0,0,0,0,0,0,0,0,-1,839,1226,0,0
-378,-202,0,0,0,0,0,0,0,0,0,-1,846,1226,0,0
-371,-202,0,0,0,0,0,0,0,0,0,-1,853,1226,0,0
-364,-202,0,0,0,0,0,0,0,0,0,-1,860,1226,0,0
-357,-202,0,0,0,0,0,0,0,0,0,-1,867,1226,0,0
-350,-202,0,0,0,0,0,0,0,0,0,-1,874,1226,0,0
-343,-202,0,0,0,0,0,0,0,0,0,-1,881,1226,0,0
-336,-202,0,0,0,0,0,0,0,0,0,-1,888,1226,0,0
-329,-202,0,0,0,0,0,0,0,0,0,-1,895,1226,0,0
-322,-202,0,0,0,0,0,0,0,0,0,-1,902,1226,0,0
-315,-202,0,0,0,0,0,0,0,0,0,-1,909,1226,0,0
-308,-202,0,0,0,0,0,0,0,0,0,-1,916,1226,0,0
-301,-202,0,0,0,0,0,0,0,0,0,-1,923,1226,0,0
-294,-202,0,0,0,0,0,0,0,0,0,-1,930,1226,0,0
-287,-202,0,0,0,0,0,0,0,0,0,-1,937,1226,0,0
-280,-202,0,0,0,0,0,0,0,0,0,-1,944,1226,0,0
-273,-202,0,0,0,0,0,0,0,0,0,-1,951,1226,0,0
-266,-202,0,0,0,0,0,0,0,0,0,-1,958,1226,0,0
-259,-202,0,0,0,0,0,0,0,0,0,-1,965,1226,0,0
-252,-202,0,0,0,0,0,0,0,0,0,-1,972,1226,0,0
-245,-202,0,0,0,0,0,0,0,0,0,-1,979,1226,0,0
-238,-202,0,0,0,0,0,0,0,0,0,-1,986,1226,0,0
-231,-202,0,0,0,0,0,0,0,0,0,-1,993,1226,0,0
-224,-202,0,0,0,0,0,0,0,0,0,-1,1000,1226,0,0
-217,-202,0,0,0,0,0,0,0,0,0,-1,1007,1226,0,0
-210,-202,0,0,0,0,0,0,0,0,0,-1,1014,1226,0,0
-203,-202,0,0,0,0,0,0,0,0,0,-1,1021,1226,0,0
-196,-202,0,0,0,0,0,0,0,0,0,-1,1028,1226,0,0
-189,-202,0,0,0,0,0,0,0,0,0,-1,1035,1226,0,0
-182,-202,0,0,0,0,0,0,0,0,0,-1,1042,1226,0,0
-175,-202,0,0,0,0,0,0,0,0,0,-1,1049,1226,0,0
-168,-202,0,0,0,0,0,0,0,0,0,-1,1056,1226,0,0
-161,-202,0,0,0,0,0,0,0,0,0,-1,1063,1226,0,0
-154,-202,0,0,0,0,0,0,0,0,0,-1,1070,1226,0,0
-147,-202,0,0,0,0,0,0,0,0,0,-1,1077,1226,0,0
-140,-202,0,0,0,0,0,0,0,0,0,-1,1084,1226,0,0
-133,-202,0,0,0,0,0,0,0,0,0,-1,1091,1226,0,0
-126,-202,0,0,0,0,0,0,0,0,0,-1,1098,1226,0,0
-119,-202,0,0,0,0,0,0,0,0,0,-1,1105,1226,0,0
-112,-202,0,0,0,0,0,0,0,0,0,-1,1112,1226,0,0
-105,-202,0,0,0,0,0,0,0,0,0,-1,1119,1226,0,0
-98,-202,0,0,0,0,0,0,0,0,0,-1,1126,1226,0,0
-91,-202,0,0,0,0,0,0,0,0,0,-1,1133,1226,0,0
-84,-202,0,0,0,0,0,0,0,0,0,-1,1140,1226,0,0
-77,-202,0,0,0,0,0,0,0,0,0,-1,1147,1226,0,0
-70,-202,0,0,0,0,0,0,0,0,0,-1,1154,1226,0,0
-63,-202,0,0,0,0,0,0,0,0,0,-1,1161,1226,0,0
-56,-202,0,0,0,0,0,0,0,0,0,-1,1168,1226,0,0
-49,-202,0,0,0,0,0,0,0,0,0,-1,1175,1226,0,0
-42,-202,0,0,0,0,0,0,0,0,0,-1,1182,1226,0,0
-35,-202,0,0,0,0,0,0,0,0,0,-1,1189,1226,0,0
-28,-202,0,0,0,0,0,0,0,0,0,-1,1196,1226,0,0
-21,-202,0,0,0,0,0,0,0,0,0,-1,1203,1226,0,0
-14,-202,0,0,0,0,0,0,0,0,0,-1,1210,1226,0,0
-7,-202,0,0,0,0,0,0,0,0,0,-1,1217,1226,0,0
0,-202,0,0,0,0,0,0,0,0,0,-1,1224,1226,0,0
7,-202,0,0,0,0,0,0,0,0,0,-1,1231,1226,0,0
14,-202,0,0,0,0,0,0,0,0,0,-1,1238,1226,0,0
21,-202,0,0,0,0,0,0,0,0,0,-1,1245,1226,0,0
28,-202,0,0,0,0,0,0,0,0,0,-1,1252,1226,0,0
35,-202,0,0,0,0,0,0,0,0,0,-1,1259,1226,0,0
42,-202,0,0,0,0,0,0,0,0,0,-1,1266,1226,0,0
49,-202,0,0,0,0,0,0,0,0,0,-1,1273,1226,0,0
56,-202,0,0,0,0,0,0,0,0,0,-1,1280,1226,0,0
63,-202,0,0,0,0,0,0,0,0,0,-1,1287,1226,0,0
70,-202,0,0,0,0,0,0,0,0,0,-1,1294,1226,0,0
77,-202,0,0,0,0,0,0,0,0,0,-1,1301,1226,0,0
84,-202,0,0,0,0,0,0,0,0,0,-1,1308,1226,0,0
91,-202,0,0,0,0,0,0,0,0,0,-1,1315,1226,0,0
98,-202,0,0,0,0,0,0,0,0,0,-1,1322,1226,0,0
105,-202,0,0,0,0,0,0,0,0,0,-1,1329,1226,0,0
112,-202,0,0,0,0,0,0,0,0,0,-1,1336,1226,0,0
119,-202,0,0,0,0,0,0,0,0,0,-1,1343,1226,0,0
126,-202,0,0,0,0,0,0,0,0,0,-1,1350,1226,0,0
133,-202,0,0,0,0,0,0,0,0,0,-1,1357,1226,0,0
140,-202,0,0,0,0,0,0,0,0,0,-1,1364,1226,0,0
147,-202,0,0,0,0,0,0,0,0,0,-1,1371,1226,0,0
154,-202,0,0,0,0,0,0,0,0,0,-1,1378,1226,0,0
161,-202,0,0,0,0,0,0,0,0,0,-1,1385,1226,0,0
168,-202,0,0,0,0,0,0,0,0,0,-1,1392,1226,0,0
175,-202,0,0,0,0,0,0,0,0,0,-1,1399,1226,0,0
182,-202,0,0,0,0,0,0,0,0,0,-1,1406,1226,0,0
189,-202,0,0,0,0,0,0,0,0,0,-1,1413,1226,0,0
196,-202,0,0,0,0,0,0,0,0,0,-1,1420,1226,0,0
203,-202,0,0,0,0,0,0,0,0,0,-1,1427,1226,0,0
210,-202,0,0,0,0,0,0,0,0,0,-1,1434,1226,0,0
217,-202,0,0,0,0,0,0,0,0,0,-1,1441,1226,0,0
224,-202,0,0,0,0,0,0,0,0,0,-1,1448,1226,0,0
231,-202,0,0,0,0,0,0,0,0,0,-1,1455,1226,0,0
238,-202,0,0,0,0,0,0,0,0,0,-1,1462,1226,0,0
245,-202,0,0,0,0,0,0,0,0,0,-1,1469,1226,0,0
252,-202,0,0,0,0,0,0,0,0,0,-1,1476,1226,0,0
259,-202,0,0,0,0,0,0,0,0,0,-1,1483,1226,0,0
266,-202,0,0,0,0,0,0,0,0,0,-1,1490,1226,0,0
273,-202,0,0,0,0,0,0,0,0,0,-1,1497,1226,0,0
280,-202,0,0,0,0,0,0,0,0,0,-1,1504,1226,0,0
287,-202,0,0,0,0,0,0,0,0,0,-1,1511,1226,0,0
294,-202,0,0,0,0,0,0,0,0,0,-1,1518,1226,0,0
301,-202,0,0,0,0,0,0,0,0,0,-1,1525,1226,0,0
308,-202,0,0,0,0,0,0,0,0,0,-1,1532,1226,0,0
315,-202,0,0,0,0,0,0,0,0,0,-1,1539,1226,0,0
322,-202,0,0,0,0,0,0,0,0,0,-1,1546,1226,0,0
329,-202,0,0,0,0,0,0,0,0,0,-1,1553,1226,0,0
336,-202,0,0,0,0,0,0,0,0,0,-1,1560,1226,0,0
343,-202,0,0,0,0,0,0,0,0,0,-1,1567,1226,0,0
350,-202,0,0,0,0,0,0,0,0,0,-1,1574,1226,0,0
357,-202,0,0,0,0,0,0,0,0,0,-1,1581,1226,0,0
364,-202,0,0,0,0,0,0,0,0,0,-1,1588,1226,0,0
371,-202,0,0,0,0,0,0,0,0,0,-1,1595,1226,0,0
378,-202,0,0,0,0,0,0,0,0,0,-1,1602,1226,0,0
385,-202,0,0,0,0,0,0,0,0,0,-1,1609,1226,0,0
392,-202,0,0,0,0,0,0,0,0,0,-1,1616,1226,0,0
399,-202,0,0,0,0,0,0,0,0,0,-1,1623,1226,0,0
406,-202,0,0,0,0,0,0,0,0,0,-1,1630,1226,0,0
413,-202,0,0,0,0,0,0,0,0,0,-1,1637,1226,0,0
420,-202,0,0,0,0,0,0,0,0,0,-1,1644,1226,0,0
427,-202,0,0,0,0,0,0,0,0,0,-1,1651,1226,0,0
434,-202,0,0,0,0,0,0,0,0,0,-1,1658,1226,0,0
441,-202,0,0,0,0,0,0,0,0,0,-1,1665,1226,0,0
448,-202,0,0,0,0,0,0,0,0,0,-1,1672,1226,0,0
455,-202,0,0,0,0,0,0,0,0,0,-1,1679,1226,0,0
462,-202,0,0,0,0,0,0,0,0,0,-1,1686,1226,0,0
469,-202,0,0,0,0,0,0,0,0,0,-1,1693,1226,0,0
476,-202,0,0,0,0,0,0,0,0,0,-1,1700,1226,0,0
483,-202,0,0,0,0,0,0,0,0,0,-1,1707,1226,0,0
490,-202,0,0,0,0,0,0,0,0,0,-1,1714,1226,0,0
497,-202,0,0,0,0,0,0,0,0,0,-1,1721,1226,0,0
504,-202,0,0,0,0,0,0,0,0,0,-1,1728,1226,0,0
511,-202,0,0,0,0,0,0,0,0,0,-1,1735,1226,0,0
518,-202,0,0,0,0,0,0,0,0,0,-1,1742,1226,0,0
525,-202,0,0,0,0,0,0,0,0,0,-1,1749,1226,0,0
532,-202,0,0,0,0,0,0,0,0,0,-1,1756,1226,0,0
539,-202,0,0,0,0,0,0,0,0,0,-1,1763,1226,0,0
546,-202,0,0,0,0,0,0,0,0,0,-1,1770,1226,0,0
553,-202,0,0,0,0,0,0,0,0,0,-1,1777,1226,0,0
560,-202,0,0,0,0,0,0,0,0,0,-1,1784,1226,0,0
567,-202,0,0,0,0,0,0,0,0,0,-1,1791,1226,0,0
574,-202,0,0,0,0,0,0,0,0,0,-1,1798,1226,0,0
581,-202,0,0,0,0,0,0,0,0,0,-1,1805,1226,0,0
588,-202,0,0,0,0,0,0,0,0,0,-1,1812,1226,0,0
595,-202,0,0,0,0,0,0,0,0,0,-1,1819,1226,0,0
602,-202,0,0,0,0,0,0,0,0,0,-1,1826,1226,0,0
609,-202,0,0,0,0,0,0,0,0,0,-1,1833,1226,0,0
616,-202,0,0,0,0,0,0,0,0,0,-1,1840,1226,0,0
623,-202,0,0,0,0,0,0,0,0,0,-1,1847,1226,0,0
630,-202,44.5304,2.86047,0.000400528,0.00074931,-0.000958681,0.00154933,-0.000399495,-0.875368,0.00118865,0.0373495,1854,1226,44.5304,-2.86052
637,-202,44.4663,2.85669,-0.000928396,0.00150752,-0.00143985,0.00217545,-0.00159633,-1.13645,0.00218618,0.0353618,1861,1226,44.4663,-2.85666
644,-202,44.4373,2.83667,-0.00165131,0.00227678,-0.00192794,0.0030649,-0.00243944,-1.18274,0.00318476,0.0334078,1868,1226,44.4373,-2.83667
651,-202,44.4976,2.84766,-0.00133129,0.00261432,-0.00227034,0.00364923,-0.00236621,-1.14309,0.00349925,0.0269103,1875,1226,44.4975,-2.84769
658,-202,44.4744,2.80798,-0.000540535,0.00242175,-0.00232497,0.00369729,-0.00181607,-1.06901,0.00324432,0.0229552,1882,1226,44.4744,-2.80797
665,-202,44.5046,2.74109,7.92581e-05,0.00195273,-0.00193369,0.00316462,-0.00113264,-1.01095,0.00257182,0.0223237,1889,1226,44.5047,-2.7411
672,-202,44.614,2.71143,0.00033824,0.00133006,-0.00135457,0.00227664,-0.000608343,-0.960871,0.00175603,0.0463347,1896,1226,44.614,-2.7114
679,-202,44.7566,2.6853,0,0,0,0,0,0,0,-1,1903,1226,44.7566,-2.68529
686,-202,44.2722,2.33875,0,0,0,0,0,0,0,-1,1910,1226,44.2722,-2.33878
693,-202,36.1547,9.22449,0,0,0,0,0,0,0,-1,1917,1226,36.1547,-9.22454
700,-202,36.2653,8.61182,0.000825951,-0.000255339,0.000368479,0.000939579,-0.000368967,0.299119,0.000779065,0.0446232,1924,1226,36.2652,-8.61181
707,-202,36.3713,7.95398,0.000757161,-0.000633428,0.00079007,0.00111431,-0.00099058,0.424559,0.00121596,0.0339353,1931,1226,36.3714,-7.95394
714,-202,36.3794,7.54993,0.000294989,-0.00095051,0.00143332,0.001235,-0.00189052,0.580462,0.00181771,0.0237562,1938,1226,36.3794,-7.5499
721,-202,36.4089,7.27808,-0.000156605,-0.00129526,0.00198295,0.00133712,-0.00278899,0.645602,0.00243087,0.0143126,1945,1226,36.409,-7.27807
728,-202,36.3923,6.92395,-0.000362418,-0.00120692,0.00224026,0.00149504,-0.00306437,0.69225,0.00268385,0.0109668,1952,1226,36.3923,-6.92397
735,-202,36.3839,6.53101,0.000230724,-0.000941328,0.00210753,0.00183218,-0.00254279,0.649792,0.00253697,0.0110628,1959,1226,36.3839,-6.53106
742,-202,36.3732,6.15015,0.00155549,-0.000275265,0.00184485,0.00269957,-0.00141935,0.555106,0.00241605,0.0118638,1966,1226,36.3732,-6.15016
749,-202,36.3396,5.76636,0.00354319,0.000474698,0.00152681,0.00417344,-0.000155554,0.391484,0.00283557,0.0127444,1973,1226,36.3396,-5.76634
756,-202,36.3325,5.38843,0.00629714,0.00134095,0.0011206,0.00653874,0.00109936,0.212342,0.00404284,0.0126125,1980,1226,36.3326,-5.38841
763,-202,36.3767,5.06116,0.010077,0.00233335,0.000557805,0.0101169,0.00229338,0.0715421,0.00612499,0.019393,1987,1226,36.3767,-5.06116
770,-202,36.4058,4.76855,0.0148445,0.00345532,0.00017237,0.0148471,0.00345271,0.0151299,0.00897144,0.048171,1994,1226,36.4058,-4.7685
777,-202,36.4728,4.4397,0,0,0,0,0,0,0,-1,2001,1226,36.4728,-4.43975
784,-202,37.9491,-2.1272,0,0,0,0,0,0,0,-1,2008,1226,37.9491,2.12721
791,-202,41.6821,1.56946,0,0,0,0,0,0,0,-1,2015,1226,41.6821,-1.56946
798,-202,41.7263,3.20728,0,0,0,0,0,0,0,-1,2022,1226,41.7262,-3.20725
805,-202,0,0,0,0,0,0,0,0,0,-1,2029,1226,0,0
812,-202,0,0,0,0,0,0,0,0,0,-1,2036,1226,0,0
-700,-209,0,0,0,0,0,0,0,0,0,-1,524,1233,0,0
-693,-209,0,0,0,0,0,0,0,0,0,-1,531,1233,0,0
-686,-209,0,0,0,0,0,0,0,0,0,-1,538,1233,0,0
-679,-209,-29.5302,-9.34631,0.0865513,0.178474,-0.00143647,0.178497,0.0865289,-1.55517,0.103071,0.0454304,545,1233,-29.5301,9.34632
-672,-209,-29.4802,-10.2975,0.0738216,0.149375,0.000628643,0.149381,0.0738163,1.56248,0.0862468,0.0466609,552,1233,-29.4803,10.2975
-665,-209,-29.5257,-11.0637,0,0,0,0,0,0,0,-1,559,1233,-29.5257,11.0637
-658,-209,-27.0969,-9.82385,0,0,0,0,0,0,0,-1,566,1233,-27.0969,9.82385
-651,-209,-26.2396,-9.95337,0,0,0,0,0,0,0,-1,573,1233,-26.2396,9.95337
-644,-209,-23.528,1.15894,0,0,0,0,0,0,0,-1,580,1233,-23.528,-1.15895
-637,-209,-23.4725,1.73621,0.01965,0.0389049,0.0021895,0.0391508,0.0194042,1.45899,0.022604,0.0469881,587,1233,-23.4725,-1.73617
-630,-209,-23.3641,2.3457,0.0131497,0.0259085,0.00192825,0.0261935,0.0128647,1.42403,0.0151236,0.0255142,594,1233,-23.3641,-2.34572
-623,-209,-23.4177,2.79382,0.00739311,0.0145867,0.00160528,0.0149287,0.00705114,1.36091,0.00862349,0.0122337,601,1233,-23.4177,-2.79385
-616,-209,-23.442,3.23364,0.0036975,0.00513106,0.000832184,0.0055126,0.00331597,1.14091,0.0032045,0.0118302,608,1233,-23.442,-3.23359
-609,-209,-23.4703,3.67395,0.00191923,0.00213805,0.000176959,0.00223669,0.00182059,1.06227,0.0013736,0.0139242,615,1233,-23.4703,-3.67401
-602,-209,-23.4703,4.10522,0.00129166,0.000214038,-0.000288621,0.00136409,0.000141604,-0.245885,0.000866059,0.0161351,622,1233,-23.4703,-4.10527
-595,-209,-23.4701,4.53198,0.0014054,-0.000783518,-0.000457416,0.00149714,-0.000875259,-0.197937,0.0013853,0.0120165,629,1233,-23.4701,-4.53201
-588,-209,-23.4489,4.98547,0.00143715,-0.000391353,-0.000281989,0.00147965,-0.000433853,-0.149589,0.00115846,0.0155064,636,1233,-23.4489,-4.98548
-581,-209,-23.2226,5.52209,0.00139976,-0.000225618,2.15817e-05,0.00140005,-0.000225904,0.0132748,0.00101707,0.0431018,643,1233,-23.2226,-5.52213
-574,-209,-23.4582,5.94983,0,0,0,0,0,0,0,-1,650,1233,-23.4582,-5.94978
-567,-209,-23.6585,6.16467,0,0,0,0,0,0,0,-1,657,1233,-23.6585,-6.16463
-560,-209,-13.9294,4.16626,0,0,0,0,0,0,0,-1,664,1233,-13.9294,-4.16621
-553,-209,-22.7542,0.748779,0,0,0,0,0,0,0,-1,671,1233,-22.7541,-0.748796
-546,-209,-32.5586,0.275024,0,0,0,0,0,0,0,-1,678,1233,-32.5586,-0.274964
-539,-209,-32.4148,0.574341,0.00092411,0.00224983,0.00280673,0.00447092,-0.00129697,0.901358,0.00349412,0.0418005,685,1233,-32.4148,-0.574303
-532,-209,-32.3721,0.989868,0.000672111,0.00284003,0.00309554,0.00503591,-0.00152377,0.95381,0.00396405,0.0340175,692,1233,-32.3721,-0.98992
-525,-209,-32.6552,1.38074,0.000750465,0.00330707,0.00307251,0.00535659,-0.00129905,0.982529,0.00407372,0.0352602,699,1233,-32.6551,-1.38069
-518,-209,-32.7607,1.53137,0.00202151,0.00300745,0.00250555,0.00506806,-3.91004e-05,0.882533,0.00339182,0.0426531,706,1233,-32.7607,-1.53132
-511,-209,-32.5139,1.38306,0.00601498,0.00150028,0.00144457,0.00643763,0.00107763,0.284636,0.00398146,0.0428322,713,1233,-32.5138,-1.38303
-504,-209,0,0,0,0,0,0,0,0,0,-1,720,1233,0,0
-497,-209,0,0,0,0,0,0,0,0,0,-1,727,1233,0,0
-490,-209,0,0,0,0,0,0,0,0,0,-1,734,1233,0,0
-483,-209,0,0,0,0,0,0,0,0,0,-1,741,1233,0,0
-476,-209,0,0,0,0,0,0,0,0,0,-1,748,1233,0,0
-469,-209,0,0,0,0,0,0,0,0,0,-1,755,1233,0,0
-462,-209,0,0,0,0,0,0,0,0,0,-1,762,1233,0,0
-455,-209,0,0,0,0,0,0,0,0,0,-1,769,1233,0,0
-448,-209,0,0,0,0,0,0,0,0,0,-1,776,1233,0,0
-441,-209,0,0,0,0,0,0,0,0,0,-1,783,1233,0,0
-434,-209,0,0,0,0,0,0,0,0,0,-1,790,1233,0,0
-427,-209,0,0,0,0,0,0,0,0,0,-1,797,1233,0,0
-420,-209,0,0,0,0,0,0,0,0,0,-1,804,1233,0,0
-413,-209,0,0,0,0,0,0,0,0,0,-1,811,1233,0,0
-406,-209,0,0,0,0,0,0,0,0,0,-1,818,1233,0,0
-399,-209,0,0,0,0,0,0,0,0,0,-1,825,1233,0,0
-392,-209,0,0,0,0,0,0,0,0,0,-1,832,1233,0,0
-385,-209,0,0,0,0,0,0,0,0,0,-1,839,1233,0,0
-378,-209,0,0,0,0,0,0,0,0,0,-1,846,1233,0,0
-371,-209,0,0,0,0,0,0,0,0,0,-1,853,1233,0,0
-364,-209,0,0,0,0,0,0,0,0,0,-1,860,1233,0,0
-357,-209,0,0,0,0,0,0,0,0,0,-1,867,1233,0,0
-350,-209,0,0,0,0,0,0,0,0,0,-1,874,1233,0,0
-343,-209,0,0,0,0,0,0,0,0,0,-1,881,1233,0,0
-336,-209,0,0,0,0,0,0,0,0,0,-1,888,1233,0,0
-329,-209,0,0,0,0,0,0,0,0,0,-1,895,1233,0,0
-322,-209,0,0,0,0,0,0,0,0,0,-1,902,1233,0,0
-315,-209,0,0,0,0,0,0,0,0,0,-1,909,1233,0,0
-308,-209,0,0,0,0,0,0,0,0,0,-1,916,1233,0,0
-301,-209,0,0,0,0,0,0,0,0,0,-1,923,1233,0,0
-294,-209,0,0,0,0,0,0,0,0,0,-1,930,1233,0,0
-287,-209,0,0,0,0,0,0,0,0,0,-1,937,1233,0,0
-280,-209,0,0,0,0,0,0,0,0,0,-1,944,1233,0,0
-273,-209,0,0,0,0,0,0,0,0,0,-1,951,1233,0,0
-266,-209,0,0,0,0,0,0,0,0,0,-1,958,1233,0,0
-259,-209,0,0,0,0,0,0,0,0,0,-1,965,1233,0,0
-252,-209,0,0,0,0,0,0,0,0,0,-1,972,1233,0,0
-245,-209,0,0,0,0,0,0,0,0,0,-1,979,1233,0,0
-238,-209,0,0,0,0,0,0,0,0,0,-1,986,1233,0,0
-231,-209,0,0,0,0,0,0,0,0,0,-1,993,1233,0,0
-224,-209,0,0,0,0,0,0,0,0,0,-1,1000,1233,0,0
-217,-209,0,0,0,0,0,0,0,0,0,-1,1007,1233,0,0
-210,-209,0,0,0,0,0,0,0,0,0,-1,1014,1233,0,0
-203,-209,0,0,0,0,0,0,0,0,0,-1,1021,1233,0,0
-196,-209,0,0,0,0,0,0,0,0,0,-1,1028,1233,0,0
-189,-209,0,0,0,0,0,0,0,0,0,-1,1035,1233,0,0
-182,-209,0,0,0,0,0,0,0,0,0,-1,1042,1233,0,0
-175,-209,0,0,0,0,0,0,0,0,0,-1,1049,1233,0,0
-168,-209,0,0,0,0,0,0,0,0,0,-1,1056,1233,0,0
-161,-209,0,0,0,0,0,0,0,0,0,-1,1063,1233,0,0
-154,-209,0,0,0,0,0,0,0,0,0,-1,1070,1233,0,0
-147,-209,0,0,0,0,0,0,0,0,0,-1,1077,1233,0,0
-140,-209,0,0,0,0,0,0,0,0,0,-1,1084,1233,0,0
-133,-209,0,0,0,0,0,0,0,0,0,-1,1091,1233,0,0
-126,-209,0,0,0,0,0,0,0,0,0,-1,1098,1233,0,0
-119,-209,0,0,0,0,0,0,0,0,0,-1,1105,1233,0,0
-112,-209,0,0,0,0,0,0,0,0,0,-1,1112,1233,0,0
-105,-209,0,0,0,0,0,0,0,0,0,-1,1119,1233,0,0
-98,-209,0,0,0,0,0,0,0,0,0,-1,1126,1233,0,0
-91,-209,0,0,0,0,0,0,0,0,0,-1,1133,1233,0,0
-84,-209,0,0,0,0,0,0,0,0,0,-1,1140,1233,0,0
-77,-209,0,0,0,0,0,0,0,0,0,-1,1147,1233,0,0
-70,-209,0,0,0,0,0,0,0,0,0,-1,1154,1233,0,0
-63,-209,0,0,0,0,0,0,0,0,0,-1,1161,1233,0,0
-56,-209,0,0,0,0,0,0,0,0,0,-1,1168,1233,0,0
-49,-209,0,0,0,0,0,0,0,0,0,-1,1175,1233,0,0
-42,-209,0,0,0,0,0,0,0,0,0,-1,1182,1233,0,0
-35,-209,0,0,0,0,0,0,0,0,0,-1,1189,1233,0,0
-28,-209,0,0,0,0,0,0,0,0,0,-1,1196,1233,0,0
-21,-209,0,0,0,0,0,0,0,0,0,-1,1203,1233,0,0
-14,-209,0,0,0,0,0,0,0,0,0,-1,1210,1233,0,0
-7,-209,0,0,0,0,0,0,0,0,0,-1,1217,1233,0,0
0,-209,0,0,0,0,0,0,0,0,0,-1,1224,1233,0,0
7,-209,0,0,0,0,0,0,0,0,0,-1,1231,1233,0,0
14,-209,0,0,0,0,0,0,0,0,0,-1,1238,1233,0,0
21,-209,0,0,0,0,0,0,0,0,0,-1,1245,1233,0,0
28,-209,0,0,0,0,0,0,0,0,0,-1,1252,1233,0,0
35,-209,0,0,0,0,0,0,0,0,0,-1,1259,1233,0,0
42,-209,0,0,0,0,0,0,0,0,0,-1,1266,1233,0,0
49,-209,0,0,0,0,0,0,0,0,0,-1,1273,1233,0,0
56,-209,0,0,0,0,0,0,0,0,0,-1,1280,1233,0,0
63,-209,0,0,0,0,0,0,0,0,0,-1,1287,1233,0,0
70,-209,0,0,0,0,0,0,0,0,0,-1,1294,1233,0,0
77,-209,0,0,0,0,0,0,0,0,0,-1,1301,1233,0,0
84,-209,0,0,0,0,0,0,0,0,0,-1,1308,1233,0,0
91,-209,0,0,0,0,0,0,0,0,0,-1,1315,1233,0,0
98,-209,0,0,0,0,0,0,0,0,0,-1,1322,1233,0,0
105,-209,0,0,0,0,0,0,0,0,0,-1,1329,1233,0,0
112,-209,0,0,0,0,0,0,0,0,0,-1,1336,1233,0,0
119,-209,0,0,0,0,0,0,0,0,0,-1,1343,1233,0,0
126,-209,0,0,0,0,0,0,0,0,0,-1,1350,1233,0,0
133,-209,0,0,0,0,0,0,0,0,0,-1,1357,1233,0,0
140,-209,0,0,0,0,0,0,0,0,0,-1,1364,1233,0,0
147,-209,0,0,0,0,0,0,0,0,0,-1,1371,1233,0,0
154,-209,0,0,0,0,0,0,0,0,0,-1,1378,1233,0,0
161,-209,0,0,0,0,0,0,0,0,0,-1,1385,1233,0,0
168,-209,0,0,0,0,0,0,0,0,0,-1,1392,1233,0,0
175,-209,0,0,0,0,0,0,0,0,0,-1,1399,1233,0,0
182,-209,0,0,0,0,0,0,0,0,0,-1,1406,1233,0,0
189,-209,0,0,0,0,0,0,0,0,0,-1,1413,1233,0,0
196,-209,0,0,0,0,0,0,0,0,0,-1,1420,1233,0,0
203,-209,0,0,0,0,0,0,0,0,0,-1,1427,1233,0,0
210,-209,0,0,0,0,0,0,0,0,0,-1,1434,1233,0,0
217,-209,0,0,0,0,0,0,0,0,0,-1,1441,1233,0,0
224,-209,0,0,0,0,0,0,0,0,0,-1,1448,1233,0,0
231,-209,0,0,0,0,0,0,0,0,0,-1,1455,1233,0,0
238,-209,0,0,0,0,0,0,0,0,0,-1,1462,1233,0,0
245,-209,0,0,0,0,0,0,0,0,0,-1,1469,1233,0,0
252,-209,0,0,0,0,0,0,0,0,0,-1,1476,1233,0,0
259,-209,0,0,0,0,0,0,0,0,0,-1,1483,1233,0,0
266,-209,0,0,0,0,0,0,0,0,0,-1,1490,1233,0,0
273,-209,0,0,0,0,0,0,0,0,0,-1,1497,1233,0,0
280,-209,0,0,0,0,0,0,0,0,0,-1,1504,1233,0,0
287,-209,0,0,0,0,0,0,0,0,0,-1,1511,1233,0,0
294,-209,0,0,0,0,0,0,0,0,0,-1,1518,1233,0,0
301,-209,0,0,0,0,0,0,0,0,0,-1,1525,1233,0,0
308,-209,0,0,0,0,0,0,0,0,0,-1,1532,1233,0,0
315,-209,0,0,0,0,0,0,0,0,0,-1,1539,1233,0,0
322,-209,0,0,0,0,0,0,0,0,0,-1,1546,1233,0,0
329,-209,0,0,0,0,0,0,0,0,0,-1,1553,1233,0,0
336,-209,0,0,0,0,0,0,0,0,0,-1,1560,1233,0,0
343,-209,0,0,0,0,0,0,0,0,0,-1,1567,1233,0,0
350,-209,0,0,0,0,0,0,0,0,0,-1,1574,1233,0,0
357,-209,0,0,0,0,0,0,0,0,0,-1,1581,1233,0,0
364,-209,0,0,0,0,0,0,0,0,0,-1,1588,1233,0,0
371,-209,0,0,0,0,0,0,0,0,0,-1,1595,1233,0,0
378,-209,0,0,0,0,0,0,0,0,0,-1,1602,1233,0,0
385,-209,0,0,0,0,0,0,0,0,0,-1,1609,1233,0,0
392,-209,0,0,0,0,0,0,0,0,0,-1,1616,1233,0,0
399,-209,0,0,0,0,0,0,0,0,0,-1,1623,1233,0,0
406,-209,0,0,0,0,0,0,0,0,0,-1,1630,1233,0,0
413,-209,0,0,0,0,0,0,0,0,0,-1,1637,1233,0,0
420,-209,0,0,0,0,0,0,0,0,0,-1,1644,1233,0,0
427,-209,0,0,0,0,0,0,0,0,0,-1,1651,1233,0,0
434,-209,0,0,0,0,0,0,0,0,0,-1,1658,1233,0,0
441,-209,0,0,0,0,0,0,0,0,0,-1,1665,1233,0,0
448,-209,0,0,0,0,0,0,0,0,0,-1,1672,1233,0,0
455,-209,0,0,0,0,0,0,0,0,0,-1,1679,1233,0,0
462,-209,0,0,0,0,0,0,0,0,0,-1,1686,1233,0,0
469,-209,0,0,0,0,0,0,0,0,0,-1,1693,1233,0,0
476,-209,0,0,0,0,0,0,0,0,0,-1,1700,1233,0,0
483,-209,0,0,0,0,0,0,0,0,0,-1,1707,1233,0,0
490,-209,0,0,0,0,0,0,0,0,0,-1,1714,1233,0,0
497,-209,0,0,0,0,0,0,0,0,0,-1,1721,1233,0,0
504,-209,0,0,0,0,0,0,0,0,0,-1,1728,1233,0,0
511,-209,0,0,0,0,0,0,0,0,0,-1,1735,1233,0,0
518,-209,0,0,0,0,0,0,0,0,0,-1,1742,1233,0,0
525,-209,0,0,0,0,0,0,0,0,0,-1,1749,1233,0,0
532,-209,0,0,0,0,0,0,0,0,0,-1,1756,1233,0,0
539,-209,0,0,0,0,0,0,0,0,0,-1,1763,1233,0,0
546,-209,0,0,0,0,0,0,0,0,0,-1,1770,1233,0,0
553,-209,0,0,0,0,0,0,0,0,0,-1,1777,1233,0,0
560,-209,0,0,0,0,0,0,0,0,0,-1,1784,1233,0,0
567,-209,0,0,0,0,0,0,0,0,0,-1,1791,1233,0,0
574,-209,0,0,0,0,0,0,0,0,0,-1,1798,1233,0,0
581,-209,0,0,0,0,0,0,0,0,0,-1,1805,1233,0,0
588,-209,0,0,0,0,0,0,0,0,0,-1,1812,1233,0,0
595,-209,0,0,0,0,0,0,0,0,0,-1,1819,1233,0,0
602,-209,0,0,0,0,0,0,0,0,0,-1,1826,1233,0,0
609,-209,0,0,0,0,0,0,0,0,0,-1,1833,1233,0,0
616,-209,0,0,0,0,0,0,0,0,0,-1,1840,1233,0,0
623,-209,44.455,2.81787,0.00310252,0.00177526,-0.000599506,0.00333321,0.00154456,-0.367337,0.00192615,0.0329908,1847,1233,44.455,-2.81783
630,-209,44.5166,2.77698,0.000262549,0.0020114,-0.00105274,0.0025055,-0.000231559,-1.13196,0.00175263,0.0340986,1854,1233,44.5166,-2.77694
637,-209,44.4951,2.76318,-0.00181388,0.00250771,-0.00155334,0.0030081,-0.00231427,-1.25915,0.00308156,0.034281,1861,1233,44.4951,-2.76323
644,-209,44.4663,2.79651,-0.00298699,0.00293137,-0.0019624,0.00352293,-0.00357855,-1.27801,0.00410009,0.0309347,1868,1233,44.4663,-2.79648
651,-209,44.507,2.83777,-0.00263033,0.00295626,-0.00227447,0.00376515,-0.00343922,-1.22911,0.00416086,0.0265877,1875,1233,44.507,-2.83782
658,-209,44.4806,2.75757,-0.00172092,0.00257088,-0.00228585,0.00356027,-0.00271031,-1.16231,0.00363139,0.0235653,1882,1233,44.4806,-2.75763
665,-209,44.4926,2.66089,-0.000960422,0.00204094,-0.00192281,0.00297937,-0.00189885,-1.11675,0.00283938,0.0384009,1889,1233,44.4926,-2.66086
672,-209,44.5631,2.57422,0,0,0,0,0,0,0,-1,1896,1233,44.5631,-2.57426
679,-209,44.1858,2.56445,0,0,0,0,0,0,0,-1,1903,1233,44.1858,-2.56442
686,-209,33.3711,3.89856,0,0,0,0,0,0,0,-1,1910,1233,33.3711,-3.89855
693,-209,35.7202,9.27808,0,0,0,0,0,0,0,-1,1917,1233,35.7202,-9.27808
700,-209,35.8433,8.67639,0.00106774,-0.000245642,3.39462e-05,0.00106862,-0.000246519,0.0258233,0.000807234,0.0418332,1924,1233,35.8433,-8.67638
707,-209,35.9563,8.11475,0.00110687,-0.000626279,0.000488992,0.00123532,-0.000754724,0.25687,0.00116007,0.0330342,1931,1233,35.9563,-8.11469
714,-209,35.9722,7.72717,0.000636199,-0.000951409,0.00120071,0.00128178,-0.00159699,0.493324,0.00166538,0.0174134,1938,1233,35.9721,-7.7272
721,-209,36.0005,7.3125,0.000278863,-0.0012527,0.00175975,0.00143223,-0.00240607,0.580173,0.00223969,0.012557,1945,1233,36.0005,-7.31247
728,-209,36.0216,6.95081,0.000222345,-0.00109726,0.0020351,0.00170193,-0.00257684,0.628639,0.0024875,0.0124149,1952,1233,36.0217,-6.95086
735,-209,36.0187,6.57312,0.000968785,-0.000832818,0.00198641,0.0022491,-0.00211313,0.572525,0.00251894,0.0144584,1959,1233,36.0187,-6.57316
742,-209,35.9923,6.16931,0.00243364,-0.000273121,0.00183939,0.00336389,-0.00120338,0.468231,0.00273349,0.0139841,1966,1233,35.9924,-6.16933
749,-209,35.9429,5.77478,0.00458835,0.000342585,0.00164317,0.00514998,-0.000219048,0.329351,0.00350862,0.012807,1973,1233,35.9429,-5.77483
756,-209,35.9259,5.41541,0.00768381,0.00106126,0.00131192,0.00793423,0.000810836,0.188613,0.00504099,0.0117895,1980,1233,35.9259,-5.41543
763,-209,35.9229,5.1051,0.0120678,0.00186758,0.000778786,0.0121269,0.00180846,0.0757646,0.0075543,0.0206242,1987,1233,35.9228,-5.10513
770,-209,36.3308,4.55371,0.0178476,0.00274693,0.000332548,0.0178549,0.00273961,0.0220079,0.0111033,0.0483094,1994,1233,36.3308,-4.55368
777,-209,36.813,3.98486,0,0,0,0,0,0,0,-1,2001,1233,36.813,-3.98487
784,-209,40.3342,-2.14001,0,0,0,0,0,0,0,-1,2008,1233,40.3342,2.13997
791,-209,41.8398,1.573,0,0,0,0,0,0,0,-1,2015,1233,41.8399,-1.57295
798,-209,41.8267,2.67419,0,0,0,0,0,0,0,-1,2022,1233,41.8267,-2.67425
805,-209,0,0,0,0,0,0,0,0,0,-1,2029,1233,0,0
812,-209,0,0,0,0,0,0,0,0,0,-1,2036,1233,0,0
-700,-216,0,0,0,0,0,0,0,0,0,-1,524,1240,0,0
-693,-216,0,0,0,0,0,0,0,0,0,-1,531,1240,0,0
-686,-216,0,0,0,0,0,0,0,0,0,-1,538,1240,0,0
-679,-216,-29.9291,-10.083,0,0,0,0,0,0,0,-1,545,1240,-29.9291,10.0831
-672,-216,-30.161,-11.176,0,0,0,0,0,0,0,-1,552,1240,-30.161,11.176
-665,-216,-28.3867,-10.0405,0,0,0,0,0,0,0,-1,559,1240,-28.3867,10.0405
-658,-216,-27.6305,-10.1975,0,0,0,0,0,0,0,-1,566,1240,-27.6305,10.1975
-651,-216,-23.9622,0.596069,0,0,0,0,0,0,0,-1,573,1240,-23.9622,-0.596075
-644,-216,-23.6943,1.00488,0,0,0,0,0,0,0,-1,580,1240,-23.6943,-1.00487
-637,-216,-23.241,1.63257,0.0247304,0.0415811,0.00335838,0.0422258,0.0240858,1.38114,0.0244595,0.0478208,587,1240,-23.241,-1.63252
-630,-216,-23.0071,2.33997,0.0167687,0.0277008,0.00285948,0.0284036,0.016066,1.3298,0.0164458,0.0315907,594,1240,-23.0071,-2.33991
-623,-216,-22.9623,2.83289,0.00997076,0.0159206,0.00240932,0.0167738,0.00911749,1.23043,0.00969662,0.0136406,601,1240,-22.9624,-2.83285
-616,-216,-23.0012,3.25659,0.00538574,0.00586678,0.00149949,0.00714492,0.0041076,0.86492,0.00414052,0.0132051,608,1240,-23.0012,-3.25661
-609,-216,-23.0243,3.70068,0.00285292,0.00265889,0.000695182,0.00345782,0.00205399,0.716067,0.0020081,0.0129068,615,1240,-23.0243,-3.7007
-602,-216,-23.0407,4.10999,0.00173316,0.000520732,9.63297e-05,0.00174076,0.000513126,0.0787932,0.00103287,0.0131121,622,1240,-23.0407,-4.10995
-595,-216,-23.0065,4.53943,0.00173428,-0.000662357,-0.000155373,0.00174431,-0.000672388,-0.0644698,0.0014403,0.0182141,629,1240,-23.0065,-4.53947
-588,-216,-23.0317,4.98193,0.00176756,-0.000478395,1.44433e-08,0.00176756,-0.000478395,6.43078e-06,0.00136606,0.0210139,636,1240,-23.0317,-4.98196
-581,-216,-23.0223,5.47205,0.00165389,-0.000263478,0.000352098,0.0017165,-0.000326092,0.175989,0.0012671,0.0304231,643,1240,-23.0224,-5.47206
-574,-216,-22.8239,6.53735,0,0,0,0,0,0,0,-1,650,1240,-22.8239,-6.53731
-567,-216,-22.8082,6.4425,0,0,0,0,0,0,0,-1,657,1240,-22.8082,-6.44252
-560,-216,-16.5087,5.4574,0,0,0,0,0,0,0,-1,664,1240,-16.5087,-5.45746
-553,-216,-16.2355,1.22351,0,0,0,0,0,0,0,-1,671,1240,-16.2356,-1.22356
-546,-216,-32.2696,0.013916,0,0,0,0,0,0,0,-1,678,1240,-32.2696,-0.0138616
-539,-216,-32.1141,0.481201,0.000615454,0.00257259,0.0030062,0.00475548,-0.00156743,0.942748,0.00380207,0.0447651,685,1240,-32.114,-0.481148
-532,-216,-32.2327,0.983276,0.000227867,0.00326123,0.00316228,0.00525173,-0.00176264,1.009,0.00421344,0.048447,692,1240,-32.2327,-0.983238
-525,-216,-32.488,1.23145,-2.20901e-05,0.00394351,0.00304635,0.00559551,-0.00167409,1.07389,0.00439594,0.0463249,699,1240,-32.488,-1.23141
-518,-216,-32.629,1.33752,0.000263647,0.0041962,0.00254193,0.00544359,-0.000983746,1.1146,0.00399753,0.0417391,706,1240,-32.629,-1.33755
-511,-216,-32.5458,1.31262,0.00255741,0.00335975,0.00155088,0.00456051,0.00135666,0.911961,0.00270405,0.0418339,713,1240,-32.5458,-1.31257
-504,-216,-32.4521,1.28906,0.00961663,-0.000388187,-3.50912e-05,0.00961675,-0.000388309,-0.00350738,0.00654445,0.0425638,720,1240,-32.4521,-1.28909
-497,-216,0,0,0,0,0,0,0,0,0,-1,727,1240,0,0
-490,-216,0,0,0,0,0,0,0,0,0,-1,734,1240,0,0
-483,-216,0,0,0,0,0,0,0,0,0,-1,741,1240,0,0
-476,-216,0,0,0,0,0,0,0,0,0,-1,748,1240,0,0
-469,-216,0,0,0,0,0,0,0,0,0,-1,755,1240,0,0
-462,-216,0,0,0,0,0,0,0,0,0,-1,762,1240,0,0
-455,-216,0,0,0,0,0,0,0,0,0,-1,769,1240,0,0
-448,-216,0,0,0,0,0,0,0,0,0,-1,776,1240,0,0
-441,-216,0,0,0,0,0,0,0,0,0,-1,783,1240,0,0
-434,-216,0,0,0,0,0,0,0,0,0,-1,790,1240,0,0
-427,-216,0,0,0,0,0,0,0,0,0,-1,797,1240,0,0
-420,-216,0,0,0,0,0,0,0,0,0,-1,804,1240,0,0
-413,-216,0,0,0,0,0,0,0,0,0,-1,811,1240,0,0
-406,-216,0,0,0,0,0,0,0,0,0,-1,818,1240,0,0
-399,-216,0,0,0,0,0,0,0,0,0,-1,825,1240,0,0
-392,-216,0,0,0,0,0,0,0,0,0,-1,832,1240,0,0
-385,-216,0,0,0,0,0,0,0,0,0,-1,839,1240,0,0
-378,-216,0,0,0,0,0,0,0,0,0,-1,846,1240,0,0
-371,-216,0,0,0,0,0,0,0,0,0,-1,853,1240,0,0
-364,-216,0,0,0,0,0,0,0,0,0,-1,860,1240,0,0
-357,-216,0,0,0,0,0,0,0,0,0,-1,867,1240,0,0
-350,-216,0,0,0,0,0,0,0,0,0,-1,874,1240,0,0
-343,-216,0,0,0,0,0,0,0,0,0,-1,881,1240,0,0
-336,-216,0,0,0,0,0,0,0,0,0,-1,888,1240,0,0
-329,-216,0,0,0,0,0,0,0,0,0,-1,895,1240,0,0
-322,-216,0,0,0,0,0,0,0,0,0,-1,902,1240,0,0
-315,-216,0,0,0,0,0,0,0,0,0,-1,909,1240,0,0
-308,-216,0,0,0,0,0,0,0,0,0,-1,916,1240,0,0
-301,-216,0,0,0,0,0,0,0,0,0,-1,923,1240,0,0
-294,-216,0,0,0,0,0,0,0,0,0,-1,930,1240,0,0
-287,-216,0,0,0,0,0,0,0,0,0,-1,937,1240,0,0
-280,-216,0,0,0,0,0,0,0,0,0,-1,944,1240,0,0
-273,-216,0,0,0,0,0,0,0,0,0,-1,951,1240,0,0
-266,-216,0,0,0,0,0,0,0,0,0,-1,958,1240,0,0
-259,-216,0,0,0,0,0,0,0,0,0,-1,965,1240,0,0
-252,-216,0,0,0,0,0,0,0,0,0,-1,972,1240,0,0
-245,-216,0,0,0,0,0,0,0,0,0,-1,979,1240,0,0
-238,-216,0,0,0,0,0,0,0,0,0,-1,986,1240,0,0
-231,-216,0,0,0,0,0,0,0,0,0,-1,993,1240,0,0
-224,-216,0,0,0,0,0,0,0,0,0,-1,1000,1240,0,0
-217,-216,0,0,0,0,0,0,0,0,0,-1,1007,1240,0,0
-210,-216,0,0,0,0,0,0,0,0,0,-1,1014,1240,0,0
-203,-216,0,0,0,0,0,0,0,0,0,-1,1021,1240,0,0
-196,-216,0,0,0,0,0,0,0,0,0,-1,1028,1240,0,0
-189,-216,0,0,0,0,0,0,0,0,0,-1,1035,1240,0,0
-182,-216,0,0,0,0,0,0,0,0,0,-1,1042,1240,0,0
-175,-216,0,0,0,0,0,0,0,0,0,-1,1049,1240,0,0
-168,-216,0,0,0,0,0,0,0,0,0,-1,1056,1240,0,0
-161,-216,0,0,0,0,0,0,0,0,0,-1,1063,1240,0,0
-154,-216,0,0,0,0,0,0,0,0,0,-1,1070,1240,0,0
-147,-216,0,0,0,0,0,0,0,0,0,-1,1077,1240,0,0
-140,-216,0,0,0,0,0,0,0,0,0,-1,1084,1240,0,0
-133,-216,0,0,0,0,0,0,0,0,0,-1,1091,1240,0,0
-126,-216,0,0,0,0,0,0,0,0,0,-1,1098,1240,0,0
-119,-216,0,0,0,0,0,0,0,0,0,-1,1105,1240,0,0
-112,-216,0,0,0,0,0,0,0,0,0,-1,1112,1240,0,0
-105,-216,0,0,0,0,0,0,0,0,0,-1,1119,1240,0,0
-98,-216,0,0,0,0,0,0,0,0,0,-1,1126,1240,0,0
-91,-216,0,0,0,0,0,0,0,0,0,-1,1133,1240,0,0
-84,-216,0,0,0,0,0,0,0,0,0,-1,1140,1240,0,0
-77,-216,0,0,0,0,0,0,0,0,0,-1,1147,1240,0,0
-70,-216,0,0,0,0,0,0,0,0,0,-1,1154,1240,0,0
-63,-216,0,0,0,0,0,0,0,0,0,-1,1161,1240,0,0
-56,-216,0,0,0,0,0,0,0,0,0,-1,1168,1240,0,0
-49,-216,0,0,0,0,0,0,0,0,0,-1,1175,1240,0,0
-42,-216,0,0,0,0,0,0,0,0,0,-1,1182,1240,0,0
-35,-216,0,0,0,0,0,0,0,0,0,-1,1189,1240,0,0
-28,-216,0,0,0,0,0,0,0,0,0,-1,1196,1240,0,0
-21,-216,0,0,0,0,0,0,0,0,0,-1,1203,1240,0,0
-14,-216,0,0,0,0,0,0,0,0,0,-1,1210,1240,0,0
-7,-216,0,0,0,0,0,0,0,0,0,-1,1217,1240,0,0
0,-216,0,0,0,0,0,0,0,0,0,-1,1224,1240,0,0
7,-216,0,0,0,0,0,0,0,0,0,-1,1231,1240,0,0
14,-216,0,0,0,0,0,0,0,0,0,-1,1238,1240,0,0
21,-216,0,0,0,0,0,0,0,0,0,-1,1245,1240,0,0
28,-216,0,0,0,0,0,0,0,0,0,-1,1252,1240,0,0
35,-216,0,0,0,0,0,0,0,0,0,-1,1259,1240,0,0
42,-216,0,0,0,0,0,0,0,0,0,-1,1266,1240,0,0
49,-216,0,0,0,0,0,0,0,0,0,-1,1273,1240,0,0
56,-216,0,0,0,0,0,0,0,0,0,-1,1280,1240,0,0
63,-216,0,0,0,0,0,0,0,0,0,-1,1287,1240,0,0
70,-216,0,0,0,0,0,0,0,0,0,-1,1294,1240,0,0
77,-216,0,0,0,0,0,0,0,0,0,-1,1301,1240,0,0
84,-216,0,0,0,0,0,0,0,0,0,-1,1308,1240,0,0
91,-216,0,0,0,0,0,0,0,0,0,-1,1315,1240,0,0
98,-216,0,0,0,0,0,0,0,0,0,-1,1322,1240,0,0
105,-216,0,0,0,0,0,0,0,0,0,-1,1329,1240,0,0
112,-216,0,0,0,0,0,0,0,0,0,-1,1336,1240,0,0
119,-216,0,0,0,0,0,0,0,0,0,-1,1343,1240,0,0
126,-216,0,0,0,0,0,0,0,0,0,-1,1350,1240,0,0
133,-216,0,0,0,0,0,0,0,0,0,-1,1357,1240,0,0
140,-216,0,0,0,0,0,0,0,0,0,-1,1364,1240,0,0
147,-216,0,0,0,0,0,0,0,0,0,-1,1371,1240,0,0
154,-216,0,0,0,0,0,0,0,0,0,-1,1378,1240,0,0
161,-216,0,0,0,0,0,0,0,0,0,-1,1385,1240,0,0
168,-216,0,0,0,0,0,0,0,0,0,-1,1392,1240,0,0
175,-216,0,0,0,0,0,0,0,0,0,-1,1399,1240,0,0
182,-216,0,0,0,0,0,0,0,0,0,-1,1406,1240,0,0
189,-216,0,0,0,0,0,0,0,0,0,-1,1413,1240,0,0
196,-216,0,0,0,0,0,0,0,0,0,-1,1420,1240,0,0
203,-216,0,0,0,0,0,0,0,0,0,-1,1427,1240,0,0
210,-216,0,0,0,0,0,0,0,0,0,-1,1434,1240,0,0
217,-216,0,0,0,0,0,0,0,0,0,-1,1441,1240,0,0
224,-216,0,0,0,0,0,0,0,0,0,-1,1448,1240,0,0
231,-216,0,0,0,0,0,0,0,0,0,-1,1455,1240,0,0
238,-216,0,0,0,0,0,0,0,0,0,-1,1462,1240,0,0
245,-216,0,0,0,0,0,0,0,0,0,-1,1469,1240,0,0
252,-216,0,0,0,0,0,0,0,0,0,-1,1476,1240,0,0
259,-216,0,0,0,0,0,0,0,0,0,-1,1483,1240,0,0
266,-216,0,0,0,0,0,0,0,0,0,-1,1490,1240,0,0
273,-216,0,0,0,0,0,0,0,0,0,-1,1497,1240,0,0
280,-216,0,0,0,0,0,0,0,0,0,-1,1504,1240,0,0
287,-216,0,0,0,0,0,0,0,0,0,-1,1511,1240,0,0
294,-216,0,0,0,0,0,0,0,0,0,-1,1518,1240,0,0
301,-216,0,0,0,0,0,0,0,0,0,-1,1525,1240,0,0
308,-216,0,0,0,0,0,0,0,0,0,-1,1532,1240,0,0
315,-216,0,0,0,0,0,0,0,0,0,-1,1539,1240,0,0
322,-216,0,0,0,0,0,0,0,0,0,-1,1546,1240,0,0
329,-216,0,0,0,0,0,0,0,0,0,-1,1553,1240,0,0
336,-216,0,0,0,0,0,0,0,0,0,-1,1560,1240,0,0
343,-216,0,0,0,0,0,0,0,0,0,-1,1567,1240,0,0
350,-216,0,0,0,0,0,0,0,0,0,-1,1574,1240,0,0
357,-216,0,0,0,0,0,0,0,0,0,-1,1581,1240,0,0
364,-216,0,0,0,0,0,0,0,0,0,-1,1588,1240,0,0
371,-216,0,0,0,0,0,0,0,0,0,-1,1595,1240,0,0
378,-216,0,0,0,0,0,0,0,0,0,-1,1602,1240,0,0
385,-216,0,0,0,0,0,0,0,0,0,-1,1609,1240,0,0
392,-216,0,0,0,0,0,0,0,0,0,-1,1616,1240,0,0
399,-216,0,0,0,0,0,0,0,0,0,-1,1623,1240,0,0
406,-216,0,0,0,0,0,0,0,0,0,-1,1630,1240,0,0
413,-216,0,0,0,0,0,0,0,0,0,-1,1637,1240,0,0
420,-216,0,0,0,0,0,0,0,0,0,-1,1644,1240,0,0
427,-216,0,0,0,0,0,0,0,0,0,-1,1651,1240,0,0
434,-216,0,0,0,0,0,0,0,0,0,-1,1658,1240,0,0
441,-216,0,0,0,0,0,0,0,0,0,-1,1665,1240,0,0
448,-216,0,0,0,0,0,0,0,0,0,-1,1672,1240,0,0
455,-216,0,0,0,0,0,0,0,0,0,-1,1679,1240,0,0
462,-216,0,0,0,0,0,0,0,0,0,-1,1686,1240,0,0
469,-216,0,0,0,0,0,0,0,0,0,-1,1693,1240,0,0
476,-216,0,0,0,0,0,0,0,0,0,-1,1700,1240,0,0
483,-216,0,0,0,0,0,0,0,0,0,-1,1707,1240,0,0
490,-216,0,0,0,0,0,0,0,0,0,-1,1714,1240,0,0
497,-216,0,0,0,0,0,0,0,0,0,-1,1721,1240,0,0
504,-216,0,0,0,0,0,0,0,0,0,-1,1728,1240,0,0
511,-216,0,0,0,0,0,0,0,0,0,-1,1735,1240,0,0
518,-216,0,0,0,0,0,0,0,0,0,-1,1742,1240,0,0
525,-216,0,0,0,0,0,0,0,0,0,-1,1749,1240,0,0
532,-216,0,0,0,0,0,0,0,0,0,-1,1756,1240,0,0
539,-216,0,0,0,0,0,0,0,0,0,-1,1763,1240,0,0
546,-216,0,0,0,0,0,0,0,0,0,-1,1770,1240,0,0
553,-216,0,0,0,0,0,0,0,0,0,-1,1777,1240,0,0
560,-216,0,0,0,0,0,0,0,0,0,-1,1784,1240,0,0
567,-216,0,0,0,0,0,0,0,0,0,-1,1791,1240,0,0
574,-216,0,0,0,0,0,0,0,0,0,-1,1798,1240,0,0
581,-216,0,0,0,0,0,0,0,0,0,-1,1805,1240,0,0
588,-216,0,0,0,0,0,0,0,0,0,-1,1812,1240,0,0
595,-216,0,0,0,0,0,0,0,0,0,-1,1819,1240,0,0
602,-216,0,0,0,0,0,0,0,0,0,-1,1826,1240,0,0
609,-216,0,0,0,0,0,0,0,0,0,-1,1833,1240,0,0
616,-216,0,0,0,0,0,0,0,0,0,-1,1840,1240,0,0
623,-216,44.2872,2.83545,0.00302064,0.00293849,-0.00033364,0.00331572,0.00264341,-0.724155,0.00202395,0.0375303,1847,1240,44.2872,-2.83548
630,-216,44.4504,2.7196,-0.000361913,0.00312818,-0.00091966,0.00335569,-0.000589418,-1.32828,0.00245727,0.0365989,1854,1240,44.4505,-2.71966
637,-216,44.4607,2.69373,-0.00306302,0.00344879,-0.001569,0.00380712,-0.00342134,-1.34627,0.00417533,0.0325486,1861,1240,44.4607,-2.69375
644,-216,44.4415,2.76245,-0.00431599,0.00351561,-0.00191841,0.00396029,-0.00476067,-1.34302,0.00504211,0.0259159,1868,1240,44.4416,-2.76247
651,-216,44.4889,2.83398,-0.00378581,0.00326673,-0.00219896,0.00389618,-0.00441526,-1.292,0.00480173,0.0243267,1875,1240,44.4889,-2.83395
658,-216,44.5065,2.79187,-0.00279054,0.00274263,-0.00217364,0.00349439,-0.00354229,-1.23782,0.00406266,0.0359704,1882,1240,44.5065,-2.79187
665,-216,44.4565,2.60522,-0.00195927,0.00217024,-0.00185218,0.00287926,-0.00266828,-1.20521,0.00320365,0.0478141,1889,1240,44.4565,-2.60517
672,-216,44.4354,2.41931,0,0,0,0,0,0,0,-1,1896,1240,44.4354,-2.41931
679,-216,44.4913,2.29272,0,0,0,0,0,0,0,-1,1903,1240,44.4913,-2.2927
686,-216,21.5172,6.19458,0,0,0,0,0,0,0,-1,1910,1240,21.5172,-6.19453
693,-216,36.0311,8.75903,0,0,0,0,0,0,0,-1,1917,1240,36.0311,-8.75901
700,-216,35.5974,8.66663,0.00118761,-0.00017144,-0.000206082,0.00121817,-0.000202002,-0.147228,0.000887148,0.0388976,1924,1240,35.5974,-8.6666
707,-216,35.588,8.16321,0.0013802,-0.000520437,0.000256447,0.00141419,-0.00055443,0.131788,0.00117216,0.0294872,1931,1240,35.588,-8.16321
714,-216,35.6106,7.7323,0.000919032,-0.000874087,0.00100217,0.00136715,-0.00132221,0.420481,0.00155277,0.0139239,1938,1240,35.6106,-7.73233
721,-216,35.6219,7.34985,0.000689296,-0.00113758,0.00157003,0.00159227,-0.00204056,0.521935,0.00210273,0.0132429,1945,1240,35.6219,-7.34986
728,-216,35.6466,6.95496,0.000795644,-0.000941634,0.0018938,0.00201051,-0.0021565,0.570376,0.00240632,0.0123169,1952,1240,35.6466,-6.95498
735,-216,35.6597,6.58032,0.00166068,-0.000653318,0.00197132,0.00278945,-0.00178209,0.520027,0.00266066,0.0135456,1959,1240,35.6596,-6.58038
742,-216,35.5948,6.21118,0.00322179,-0.000161841,0.00197901,0.00413357,-0.00107362,0.431738,0.00317469,0.0150467,1966,1240,35.5949,-6.21122
749,-216,35.5591,5.79443,0.00552151,0.000386125,0.0019454,0.00617526,-0.000267617,0.324189,0.00420888,0.0118204,1973,1240,35.5591,-5.79448
756,-216,35.519,5.40417,0.0089384,0.00106363,0.0017532,0.00931108,0.000690945,0.209457,0.00599037,0.0114127,1980,1240,35.519,-5.4042
763,-216,35.5098,5.08313,0.0138697,0.00186259,0.0013627,0.0140224,0.00170988,0.111601,0.00883363,0.0184888,1987,1240,35.5097,-5.08315
770,-216,35.819,4.64917,0.0205599,0.00281274,0.00102664,0.020619,0.00275355,0.057592,0.0129263,0.0414363,1994,1240,35.819,-4.64916
777,-216,36.1968,4.20679,0,0,0,0,0,0,0,-1,2001,1240,36.1968,-4.20682
784,-216,42.4829,-1.97656,0,0,0,0,0,0,0,-1,2008,1240,42.4828,1.97653
791,-216,41.0908,0.603882,0,0,0,0,0,0,0,-1,2015,1240,41.0908,-0.603931
798,-216,0,0,0,0,0,0,0,0,0,-1,2022,1240,0,0
805,-216,0,0,0,0,0,0,0,0,0,-1,2029,1240,0,0
812,-216,0,0,0,0,0,0,0,0,0,-1,2036,1240,0,0
-700,-223,0,0,0,0,0,0,0,0,0,-1,524,1247,0,0
-693,-223,0,0,0,0,0,0,0,0,0,-1,531,1247,0,0
-686,-223,0,0,0,0,0,0,0,0,0,-1,538,1247,0,0
-679,-223,0,0,0,0,0,0,0,0,0,-1,545,1247,0,0
-672,-223,-29.6102,-10.4158,0,0,0,0,0,0,0,-1,552,1247,-29.6102,10.4158
-665,-223,-28.8673,-10.4535,0.0812705,0.135167,0.00478269,0.135588,0.0808494,1.48297,0.0787641,0.0482834,559,1247,-28.8673,10.4534
-658,-223,-28.1011,-10.4795,0.0665452,0.108503,0.00545125,0.109199,0.0658485,1.44368,0.0634907,0.0469133,566,1247,-28.1012,10.4795
-651,-223,-27.3341,-10.5004,0,0,0,0,0,0,0,-1,573,1247,-27.3341,10.5004
-644,-223,-23.5477,0.646973,0,0,0,0,0,0,0,-1,580,1247,-23.5477,-0.647005
-637,-223,-22.7949,1.6604,0,0,0,0,0,0,0,-1,587,1247,-22.7949,-1.66036
-630,-223,-22.571,2.40942,0.0193182,0.0291672,0.00417655,0.0306998,0.0177856,1.2191,0.0177988,0.042934,594,1247,-22.5711,-2.40948
-623,-223,-22.5603,2.87659,0.0117339,0.0171019,0.00359452,0.0189039,0.00993184,1.10609,0.0109189,0.0223182,601,1247,-22.5603,-2.87657
-616,-223,-22.5685,3.27979,0.00651075,0.00670499,0.00255907,0.00916878,0.00404697,0.804365,0.00530571,0.0159059,608,1247,-22.5685,-3.27979
-609,-223,-22.5612,3.71008,0.00346526,0.00327993,0.00157027,0.0049456,0.00179959,0.755927,0.0028904,0.0117932,615,1247,-22.5612,-3.71007
-602,-223,-22.5777,4.12024,0.002036,0.000989473,0.0007749,0.00244776,0.000577709,0.488433,0.00147741,0.0142582,622,1247,-22.5777,-4.12025
-595,-223,-22.563,4.57666,0.00205192,-0.00031508,0.000340017,0.0020998,-0.000362954,0.139881,0.00153522,0.0203844,629,1247,-22.5631,-4.57665
-588,-223,-22.5734,5.02222,0.00214363,-0.000373634,0.00034946,0.00219124,-0.000421248,0.135415,0.00161961,0.0235132,636,1247,-22.5734,-5.0222
-581,-223,-22.6348,5.45068,0.00201919,-0.000311488,0.00068325,0.00220472,-0.000497017,0.265146,0.00166047,0.0211291,643,1247,-22.6348,-5.45068
-574,-223,-22.6052,5.94336,0.00128648,-4.76708e-05,0.001542,0.00229951,-0.0010607,0.581252,0.00198348,0.0223042,650,1247,-22.6052,-5.94336
-567,-223,-22.2778,6.31689,0,0,0,0,0,0,0,-1,657,1247,-22.2778,-6.31694
-560,-223,-22.1555,6.74939,0,0,0,0,0,0,0,-1,664,1247,-22.1555,-6.7494
-553,-223,-11.4025,4.14722,0,0,0,0,0,0,0,-1,671,1247,-11.4025,-4.14719
-546,-223,-26.9034,-0.148682,0,0,0,0,0,0,0,-1,678,1247,-26.9034,0.14867
-539,-223,-31.7297,0.489014,0,0,0,0,0,0,0,-1,685,1247,-31.7297,-0.489065
-532,-223,-32.0884,0.922119,0,0,0,0,0,0,0,-1,692,1247,-32.0884,-0.922092
-525,-223,-32.4009,1.05957,0,0,0,0,0,0,0,-1,699,1247,-32.401,-1.05955
-518,-223,-32.5677,1.1178,0,0,0,0,0,0,0,-1,706,1247,-32.5677,-1.11774
-511,-223,-32.5812,1.1947,-0.000532677,0.0053057,0.00127919,0.00557367,-0.000800647,1.3643,0.0040094,0.0405056,713,1247,-32.5812,-1.19465
-504,-223,-32.5041,1.21082,0.00371069,0.00267303,7.68452e-05,0.00371635,0.00266737,0.0735216,0.00221242,0.0403032,720,1247,-32.5041,-1.21084
-497,-223,0,0,0,0,0,0,0,0,0,-1,727,1247,0,0
-490,-223,0,0,0,0,0,0,0,0,0,-1,734,1247,0,0
-483,-223,0,0,0,0,0,0,0,0,0,-1,741,1247,0,0
-476,-223,0,0,0,0,0,0,0,0,0,-1,748,1247,0,0
-469,-223,0,0,0,0,0,0,0,0,0,-1,755,1247,0,0
-462,-223,0,0,0,0,0,0,0,0,0,-1,762,1247,0,0
-455,-223,0,0,0,0,0,0,0,0,0,-1,769,1247,0,0
-448,-223,0,0,0,0,0,0,0,0,0,-1,776,1247,0,0
-441,-223,0,0,0,0,0,0,0,0,0,-1,783,1247,0,0
-434,-223,0,0,0,0,0,0,0,0,0,-1,790,1247,0,0
-427,-223,0,0,0,0,0,0,0,0,0,-1,797,1247,0,0
-420,-223,0,0,0,0,0,0,0,0,0,-1,804,1247,0,0
-413,-223,0,0,0,0,0,0,0,0,0,-1,811,1247,0,0
-406,-223,0,0,0,0,0,0,0,0,0,-1,818,1247,0,0
-399,-223,0,0,0,0,0,0,0,0,0,-1,825,1247,0,0
-392,-223,0,0,0,0,0,0,0,0,0,-1,832,1247,0,0
-385,-223,0,0,0,0,0,0,0,0,0,-1,839,1247,0,0
-378,-223,0,0,0,0,0,0,0,0,0,-1,846,1247,0,0
-371,-223,0,0,0,0,0,0,0,0,0,-1,853,1247,0,0
-364,-223,0,0,0,0,0,0,0,0,0,-1,860,1247,0,0
-357,-223,0,0,0,0,0,0,0,0,0,-1,867,1247,0,0
-350,-223,0,0,0,0,0,0,0,0,0,-1,874,1247,0,0
-343,-223,0,0,0,0,0,0,0,0,0,-1,881,1247,0,0
-336,-223,0,0,0,0,0,0,0,0,0,-1,888,1247,0,0
-329,-223,0,0,0,0,0,0,0,0,0,-1,895,1247,0,0
-322,-223,0,0,0,0,0,0,0,0,0,-1,902,1247,0,0
-315,-223,0,0,0,0,0,0,0,0,0,-1,909,1247,0,0
-308,-223,0,0,0,0,0,0,0,0,0,-1,916,1247,0,0
-301,-223,0,0,0,0,0,0,0,0,0,-1,923,1247,0,0
-294,-223,0,0,0,0,0,0,0,0,0,-1,930,1247,0,0
-287,-223,0,0,0,0,0,0,0,0,0,-1,937,1247,0,0
-280,-223,0,0,0,0,0,0,0,0,0,-1,944,1247,0,0
-273,-223,0,0,0,0,0,0,0,0,0,-1,951,1247,0,0
-266,-223,0,0,0,0,0,0,0,0,0,-1,958,1247,0,0
-259,-223,0,0,0,0,0,0,0,0,0,-1,965,1247,0,0
-252,-223,0,0,0,0,0,0,0,0,0,-1,972,1247,0,0
-245,-223,0,0,0,0,0,0,0,0,0,-1,979,1247,0,0
-238,-223,0,0,0,0,0,0,0,0,0,-1,986,1247,0,0
-231,-223,0,0,0,0,0,0,0,0,0,-1,993,1247,0,0
-224,-223,0,0,0,0,0,0,0,0,0,-1,1000,1247,0,0
-217,-223,0,0,0,0,0,0,0,0,0,-1,1007,1247,0,0
-210,-223,0,0,0,0,0,0,0,0,0,-1,1014,1247,0,0
-203,-223,0,0,0,0,0,0,0,0,0,-1,1021,1247,0,0
-196,-223,0,0,0,0,0,0,0,0,0,-1,1028,1247,0,0
-189,-223,0,0,0,0,0,0,0,0,0,-1,1035,1247,0,0
-182,-223,0,0,0,0,0,0,0,0,0,-1,1042,1247,0,0
-175,-223,0,0,0,0,0,0,0,0,0,-1,1049,1247,0,0
-168,-223,0,0,0,0,0,0,0,0,0,-1,1056,1247,0,0
-161,-223,0,0,0,0,0,0,0,0,0,-1,1063,1247,0,0
-154,-223,0,0,0,0,0,0,0,0,0,-1,1070,1247,0,0
-147,-223,0,0,0,0,0,0,0,0,0,-1,1077,1247,0,0
-140,-223,0,0,0,0,0,0,0,0,0,-1,1084,1247,0,0
-133,-223,0,0,0,0,0,0,0,0,0,-1,1091,1247,0,0
-126,-223,0,0,0,0,0,0,0,0,0,-1,1098,1247,0,0
-119,-223,0,0,0,0,0,0,0,0,0,-1,1105,1247,0,0
-112,-223,0,0,0,0,0,0,0,0,0,-1,1112,1247,0,0
-105,-223,0,0,0,0,0,0,0,0,0,-1,1119,1247,0,0
-98,-223,0,0,0,0,0,0,0,0,0,-1,1126,1247,0,0
-91,-223,0,0,0,0,0,0,0,0,0,-1,1133,1247,0,0
-84,-223,0,0,0,0,0,0,0,0,0,-1,1140,1247,0,0
-77,-223,0,0,0,0,0,0,0,0,0,-1,1147,1247,0,0
-70,-223,0,0,0,0,0,0,0,0,0,-1,1154,1247,0,0
-63,-223,0,0,0,0,0,0,0,0,0,-1,1161,1247,0,0
-56,-223,0,0,0,0,0,0,0,0,0,-1,1168,1247,0,0
-49,-223,0,0,0,0,0,0,0,0,0,-1,1175,1247,0,0
-42,-223,0,0,0,0,0,0,0,0,0,-1,1182,1247,0,0
-35,-223,0,0,0,0,0,0,0,0,0,-1,1189,1247,0,0
-28,-223,0,0,0,0,0,0,0,0,0,-1,1196,1247,0,0
-21,-223,0,0,0,0,0,0,0,0,0,-1,1203,1247,0,0
-14,-223,0,0,0,0,0,0,0,0,0,-1,1210,1247,0,0
-7,-223,0,0,0,0,0,0,0,0,0,-1,1217,1247,0,0
0,-223,0,0,0,0,0,0,0,0,0,-1,1224,1247,0,0
7,-223,0,0,0,0,0,0,0,0,0,-1,1231,1247,0,0
14,-223,0,0,0,0,0,0,0,0,0,-1,1238,1247,0,0
21,-223,0,0,0,0,0,0,0,0,0,-1,1245,1247,0,0
28,-223,0,0,0,0,0,0,0,0,0,-1,1252,1247,0,0
35,-223,0,0,0,0,0,0,0,0,0,-1,1259,1247,0,0
42,-223,0,0,0,0,0,0,0,0,0,-1,1266,1247,0,0
49,-223,0,0,0,0,0,0,0,0,0,-1,1273,1247,0,0
56,-223,0,0,0,0,0,0,0,0,0,-1,1280,1247,0,0
63,-223,0,0,0,0,0,0,0,0,0,-1,1287,1247,0,0
70,-223,0,0,0,0,0,0,0,0,0,-1,1294,1247,0,0
77,-223,0,0,0,0,0,0,0,0,0,-1,1301,1247,0,0
84,-223,0,0,0,0,0,0,0,0,0,-1,1308,1247,0,0
91,-223,0,0,0,0,0,0,0,0,0,-1,1315,1247,0,0
98,-223,0,0,0,0,0,0,0,0,0,-1,1322,1247,0,0
105,-223,0,0,0,0,0,0,0,0,0,-1,1329,1247,0,0
112,-223,0,0,0,0,0,0,0,0,0,-1,1336,1247,0,0
119,-223,0,0,0,0,0,0,0,0,0,-1,1343,1247,0,0
126,-223,0,0,0,0,0,0,0,0,0,-1,1350,1247,0,0
133,-223,0,0,0,0,0,0,0,0,0,-1,1357,1247,0,0
140,-223,0,0,0,0,0,0,0,0,0,-1,1364,1247,0,0
147,-223,0,0,0,0,0,0,0,0,0,-1,1371,1247,0,0
154,-223,0,0,0,0,0,0,0,0,0,-1,1378,1247,0,0
161,-223,0,0,0,0,0,0,0,0,0,-1,1385,1247,0,0
168,-223,0,0,0,0,0,0,0,0,0,-1,1392,1247,0,0
175,-223,0,0,0,0,0,0,0,0,0,-1,1399,1247,0,0
182,-223,0,0,0,0,0,0,0,0,0,-1,1406,1247,0,0
189,-223,0,0,0,0,0,0,0,0,0,-1,1413,1247,0,0
196,-223,0,0,0,0,0,0,0,0,0,-1,1420,1247,0,0
203,-223,0,0,0,0,0,0,0,0,0,-1,1427,1247,0,0
210,-223,0,0,0,0,0,0,0,0,0,-1,1434,1247,0,0
217,-223,0,0,0,0,0,0,0,0,0,-1,1441,1247,0,0
224,-223,0,0,0,0,0,0,0,0,0,-1,1448,1247,0,0
231,-223,0,0,0,0,0,0,0,0,0,-1,1455,1247,0,0
238,-223,0,0,0,0,0,0,0,0,0,-1,1462,1247,0,0
245,-223,0,0,0,0,0,0,0,0,0,-1,1469,1247,0,0
252,-223,0,0,0,0,0,0,0,0,0,-1,1476,1247,0,0
259,-223,0,0,0,0,0,0,0,0,0,-1,1483,1247,0,0
266,-223,0,0,0,0,0,0,0,0,0,-1,1490,1247,0,0
273,-223,0,0,0,0,0,0,0,0,0,-1,1497,1247,0,0
280,-223,0,0,0,0,0,0,0,0,0,-1,1504,1247,0,0
287,-223,0,0,0,0,0,0,0,0,0,-1,1511,1247,0,0
294,-223,0,0,0,0,0,0,0,0,0,-1,1518,1247,0,0
301,-223,0,0,0,0,0,0,0,0,0,-1,1525,1247,0,0
308,-223,0,0,0,0,0,0,0,0,0,-1,1532,1247,0,0
315,-223,0,0,0,0,0,0,0,0,0,-1,1539,1247,0,0
322,-223,0,0,0,0,0,0,0,0,0,-1,1546,1247,0,0
329,-223,0,0,0,0,0,0,0,0,0,-1,1553,1247,0,0
336,-223,0,0,0,0,0,0,0,0,0,-1,1560,1247,0,0
343,-223,0,0,0,0,0,0,0,0,0,-1,1567,1247,0,0
350,-223,0,0,0,0,0,0,0,0,0,-1,1574,1247,0,0
357,-223,0,0,0,0,0,0,0,0,0,-1,1581,1247,0,0
364,-223,0,0,0,0,0,0,0,0,0,-1,1588,1247,0,0
371,-223,0,0,0,0,0,0,0,0,0,-1,1595,1247,0,0
378,-223,0,0,0,0,0,0,0,0,0,-1,1602,1247,0,0
385,-223,0,0,0,0,0,0,0,0,0,-1,1609,1247,0,0
392,-223,0,0,0,0,0,0,0,0,0,-1,1616,1247,0,0
399,-223,0,0,0,0,0,0,0,0,0,-1,1623,1247,0,0
406,-223,0,0,0,0,0,0,0,0,0,-1,1630,1247,0,0
413,-223,0,0,0,0,0,0,0,0,0,-1,1637,1247,0,0
420,-223,0,0,0,0,0,0,0,0,0,-1,1644,1247,0,0
427,-223,0,0,0,0,0,0,0,0,0,-1,1651,1247,0,0
434,-223,0,0,0,0,0,0,0,0,0,-1,1658,1247,0,0
441,-223,0,0,0,0,0,0,0,0,0,-1,1665,1247,0,0
448,-223,0,0,0,0,0,0,0,0,0,-1,1672,1247,0,0
455,-223,0,0,0,0,0,0,0,0,0,-1,1679,1247,0,0
462,-223,0,0,0,0,0,0,0,0,0,-1,1686,1247,0,0
469,-223,0,0,0,0,0,0,0,0,0,-1,1693,1247,0,0
476,-223,0,0,0,0,0,0,0,0,0,-1,1700,1247,0,0
483,-223,0,0,0,0,0,0,0,0,0,-1,1707,1247,0,0
490,-223,0,0,0,0,0,0,0,0,0,-1,1714,1247,0,0
497,-223,0,0,0,0,0,0,0,0,0,-1,1721,1247,0,0
504,-223,0,0,0,0,0,0,0,0,0,-1,1728,1247,0,0
511,-223,0,0,0,0,0,0,0,0,0,-1,1735,1247,0,0
518,-223,0,0,0,0,0,0,0,0,0,-1,1742,1247,0,0
525,-223,0,0,0,0,0,0,0,0,0,-1,1749,1247,0,0
532,-223,0,0,0,0,0,0,0,0,0,-1,1756,1247,0,0
539,-223,0,0,0,0,0,0,0,0,0,-1,1763,1247,0,0
546,-223,0,0,0,0,0,0,0,0,0,-1,1770,1247,0,0
553,-223,0,0,0,0,0,0,0,0,0,-1,1777,1247,0,0
560,-223,0,0,0,0,0,0,0,0,0,-1,1784,1247,0,0
567,-223,0,0,0,0,0,0,0,0,0,-1,1791,1247,0,0
574,-223,0,0,0,0,0,0,0,0,0,-1,1798,1247,0,0
581,-223,0,0,0,0,0,0,0,0,0,-1,1805,1247,0,0
588,-223,0,0,0,0,0,0,0,0,0,-1,1812,1247,0,0
595,-223,0,0,0,0,0,0,0,0,0,-1,1819,1247,0,0
602,-223,0,0,0,0,0,0,0,0,0,-1,1826,1247,0,0
609,-223,0,0,0,0,0,0,0,0,0,-1,1833,1247,0,0
616,-223,0,0,0,0,0,0,0,0,0,-1,1840,1247,0,0
623,-223,44.3442,3.01611,0.00186651,0.0042364,-0.000168776,0.00424836,0.00185455,-1.50006,0.00245937,0.0374497,1847,1247,44.3442,-3.01617
630,-223,44.3702,2.80212,-0.00211654,0.00431958,-0.000765333,0.00440933,-0.0022063,-1.45405,0.00388949,0.0369811,1854,1247,44.3703,-2.80212
637,-223,44.4183,2.65576,-0.00544549,0.0043772,-0.00145461,0.00458809,-0.00565637,-1.42682,0.00592535,0.0301897,1861,1247,44.4183,-2.65572
644,-223,44.4098,2.71924,-0.00638051,0.00403208,-0.00166604,0.00429216,-0.00664059,-1.41594,0.00636038,0.0225463,1868,1247,44.4098,-2.71919
651,-223,44.4518,2.78613,-0.00545646,0.00353339,-0.00190509,0.00392044,-0.00584351,-1.37036,0.00567355,0.0289328,1875,1247,44.4518,-2.78616
658,-223,44.545,2.82544,0,0,0,0,0,0,0,-1,1882,1247,44.5451,-2.8254
665,-223,44.4484,2.27271,0,0,0,0,0,0,0,-1,1889,1247,44.4484,-2.27276
672,-223,44.368,2.3197,0,0,0,0,0,0,0,-1,1896,1247,44.368,-2.31973
679,-223,43.2783,2.46973,0,0,0,0,0,0,0,-1,1903,1247,43.2784,-2.46978
686,-223,35.4609,9.30408,0,0,0,0,0,0,0,-1,1910,1247,35.461,-9.30408
693,-223,35.4269,8.90771,-0.000125238,0.000324137,-0.000559879,0.000702732,-0.000503832,-0.976218,0.000699758,0.0430828,1917,1247,35.4268,-8.90772
700,-223,35.3186,8.50037,0.00117327,-0.000119395,-0.000322443,0.00124923,-0.000195361,-0.231377,0.000904998,0.0223092,1924,1247,35.3186,-8.50037
707,-223,35.2203,8.1283,0.00150856,-0.000398792,0.000139173,0.00151866,-0.000408893,0.0724551,0.00117274,0.0172188,1931,1247,35.2204,-8.12828
714,-223,35.2207,7.75305,0.00103176,-0.000799038,0.000899772,0.00139992,-0.00116721,0.388395,0.00148416,0.0114248,1938,1247,35.2208,-7.75302
721,-223,35.2042,7.37317,0.000886905,-0.00103248,0.00146225,0.00167626,-0.00182184,0.494998,0.00202022,0.0148547,1945,1247,35.2042,-7.37311
728,-223,35.1975,6.97852,0.00107466,-0.000825201,0.00184989,0.00220427,-0.0019548,0.548201,0.00240268,0.0176909,1952,1247,35.1975,-6.9785
735,-223,35.1998,6.60889,0.00197227,-0.00054357,0.00207412,0.00314011,-0.00171141,0.512811,0.00284123,0.0177441,1959,1247,35.1998,-6.60886
742,-223,35.1447,6.23584,0.00355957,-0.000128588,0.00225746,0.00463042,-0.00119943,0.442923,0.00355486,0.0152559,1966,1247,35.1447,-6.23585
749,-223,35.1321,5.78284,0.00596121,0.000345477,0.00242077,0.00686067,-0.000553976,0.355749,0.00476917,0.0126522,1973,1247,35.1321,-5.78286
756,-223,35.0889,5.38855,0.00964392,0.000969187,0.00242035,0.0102735,0.000339579,0.254491,0.00673868,0.0160225,1980,1247,35.0888,-5.38855
763,-223,35.0889,5.08496,0.0150407,0.00174086,0.00225773,0.0154135,0.00136804,0.163651,0.00985136,0.0204765,1987,1247,35.0888,-5.08496
770,-223,35.4128,4.7677,0.0225263,0.00274241,0.00215546,0.0227584,0.00251029,0.107273,0.0144086,0.0436461,1994,1247,35.4128,-4.76765
777,-223,35.7314,4.42163,0,0,0,0,0,0,0,-1,2001,1247,35.7314,-4.42167
784,-223,35.1801,2.14172,0,0,0,0,0,0,0,-1,2008,1247,35.1801,-2.14178
791,-223,34.7136,2.92554,0,0,0,0,0,0,0,-1,2015,1247,34.7137,-2.92555
798,-223,0,0,0,0,0,0,0,0,0,-1,2022,1247,0,0
805,-223,0,0,0,0,0,0,0,0,0,-1,2029,1247,0,0
812,-223,0,0,0,0,0,0,0,0,0,-1,2036,1247,0,0
-700,-230,0,0,0,0,0,0,0,0,0,-1,524,1254,0,0
-693,-230,0,0,0,0,0,0,0,0,0,-1,531,1254,0,0
-686,-230,0,0,0,0,0,0,0,0,0,-1,538,1254,0,0
-679,-230,0,0,0,0,0,0,0,0,0,-1,545,1254,0,0
-672,-230,-29.3576,-10.7896,0.100779,0.165567,0.00226357,0.165646,0.1007,1.53591,0.0963755,0.0453152,552,1254,-29.3576,10.7895
-665,-230,-29.0403,-11.0031,0.0864555,0.138115,0.00562369,0.13872,0.0858503,1.46361,0.0808412,0.0481662,559,1254,-29.0403,11.0031
-658,-230,-28.2949,-10.9553,0.0722,0.111787,0.0071188,0.113028,0.0709587,1.39817,0.0659636,0.0480689,566,1254,-28.2948,10.9553
-651,-230,-27.4686,-10.8074,0,0,0,0,0,0,0,-1,573,1254,-27.4686,10.8074
-644,-230,-22.1688,1.23816,0,0,0,0,0,0,0,-1,580,1254,-22.1688,-1.23818
-637,-230,-21.8264,1.5293,0,0,0,0,0,0,0,-1,587,1254,-21.8264,-1.52928
-630,-230,-22.0162,2.30078,0,0,0,0,0,0,0,-1,594,1254,-22.0162,-2.30083
-623,-230,-22.0919,2.8031,0.0146636,0.0181997,0.00569863,0.0223983,0.010465,0.935822,0.0129409,0.0293613,601,1254,-22.0918,-2.80314
-616,-230,-22.1103,3.27429,0.00876989,0.00763226,0.00441272,0.0126503,0.00375184,0.7213,0.00750243,0.0174301,608,1254,-22.1103,-3.27431
-609,-230,-22.1119,3.72729,0.00500279,0.00406566,0.00305208,0.00762206,0.00144639,0.709231,0.00467444,0.0125981,615,1254,-22.1119,-3.72732
-602,-230,-22.1156,4.13843,0.0029653,0.00172817,0.00184015,0.00428807,0.000405403,0.623256,0.00273362,0.011506,622,1254,-22.1156,-4.13844
-595,-230,-22.136,4.58459,0.00261551,0.000343779,0.000986032,0.00298379,-2.44996e-05,0.357451,0.00199741,0.0179964,629,1254,-22.136,-4.58461
-588,-230,-22.1323,5.03296,0.00250516,-4.72927e-06,0.000700248,0.0026873,-0.000186877,0.254479,0.00185697,0.0261493,636,1254,-22.1323,-5.03295
-581,-230,-22.1465,5.48901,0.00231032,-0.00018761,0.000921593,0.00261353,-0.00049082,0.317851,0.00192691,0.0245557,643,1254,-22.1465,-5.48896
-574,-230,-22.1447,5.93555,0.00166898,-0.000170723,0.00170617,0.00268747,-0.00118921,0.538167,0.00229324,0.018557,650,1254,-22.1447,-5.9356
-567,-230,-22.0012,6.45679,0.0013837,8.81201e-05,0.0024573,0.00327716,-0.00180534,0.656521,0.00297512,0.0350962,657,1254,-22.0012,-6.45681
-560,-230,-21.8328,7.00806,0,0,0,0,0,0,0,-1,664,1254,-21.8328,-7.00807
-553,-230,-13.1939,4.9718,0,0,0,0,0,0,0,-1,671,1254,-13.1939,-4.97175
-546,-230,-15.23,0.453979,0,0,0,0,0,0,0,-1,678,1254,-15.23,-0.453996
-539,-230,-25.8232,0.512817,0,0,0,0,0,0,0,-1,685,1254,-25.8232,-0.512878
-532,-230,-21.1644,1.52966,0,0,0,0,0,0,0,-1,692,1254,-21.1644,-1.52969
-525,-230,-29.4775,0.731445,0,0,0,0,0,0,0,-1,699,1254,-29.4775,-0.731432
-518,-230,-32.4054,1.01794,0,0,0,0,0,0,0,-1,706,1254,-32.4054,-1.0179
-511,-230,-32.489,1.01636,-0.00239424,0.00646522,0.000400101,0.00648325,-0.00241227,1.52576,0.00531209,0.0427416,713,1254,-32.489,-1.01633
-504,-230,-32.5345,0.979004,-0.00164693,0.00607681,-0.000540104,0.00611439,-0.00168452,-1.50132,0.00473864,0.0399875,720,1254,-32.5345,-0.979034
-497,-230,0,0,0,0,0,0,0,0,0,-1,727,1254,0,0
-490,-230,0,0,0,0,0,0,0,0,0,-1,734,1254,0,0
-483,-230,0,0,0,0,0,0,0,0,0,-1,741,1254,0,0
-476,-230,0,0,0,0,0,0,0,0,0,-1,748,1254,0,0
-469,-230,0,0,0,0,0,0,0,0,0,-1,755,1254,0,0
-462,-230,0,0,0,0,0,0,0,0,0,-1,762,1254,0,0
-455,-230,0,0,0,0,0,0,0,0,0,-1,769,1254,0,0
-448,-230,0,0,0,0,0,0,0,0,0,-1,776,1254,0,0
-441,-230,0,0,0,0,0,0,0,0,0,-1,783,1254,0,0
-434,-230,0,0,0,0,0,0,0,0,0,-1,790,1254,0,0
-427,-230,0,0,0,0,0,0,0,0,0,-1,797,1254,0,0
-420,-230,0,0,0,0,0,0,0,0,0,-1,804,1254,0,0
-413,-230,0,0,0,0,0,0,0,0,0,-1,811,1254,0,0
-406,-230,0,0,0,0,0,0,0,0,0,-1,818,1254,0,0
-399,-230,0,0,0,0,0,0,0,0,0,-1,825,1254,0,0
-392,-230,0,0,0,0,0,0,0,0,0,-1,832,1254,0,0
-385,-230,0,0,0,0,0,0,0,0,0,-1,839,1254,0,0
-378,-230,0,0,0,0,0,0,0,0,0,-1,846,1254,0,0
-371,-230,0,0,0,0,0,0,0,0,0,-1,853,1254,0,0
-364,-230,0,0,0,0,0,0,0,0,0,-1,860,1254,0,0
-357,-230,0,0,0,0,0,0,0,0,0,-1,867,1254,0,0
-350,-230,0,0,0,0,0,0,0,0,0,-1,874,1254,0,0
-343,-230,0,0,0,0,0,0,0,0,0,-1,881,1254,0,0
-336,-230,0,0,0,0,0,0,0,0,0,-1,888,1254,0,0
-329,-230,0,0,0,0,0,0,0,0,0,-1,895,1254,0,0
-322,-230,0,0,0,0,0,0,0,0,0,-1,902,1254,0,0
-315,-230,0,0,0,0,0,0,0,0,0,-1,909,1254,0,0
-308,-230,0,0,0,0,0,0,0,0,0,-1,916,1254,0,0
-301,-230,0,0,0,0,0,0,0,0,0,-1,923,1254,0,0
-294,-230,0,0,0,0,0,0,0,0,0,-1,930,1254,0,0
-287,-230,0,0,0,0,0,0,0,0,0,-1,937,1254,0,0
-280,-230,0,0,0,0,0,0,0,0,0,-1,944,1254,0,0
-273,-230,0,0,0,0,0,0,0,0,0,-1,951,1254,0,0
-266,-230,0,0,0,0,0,0,0,0,0,-1,958,1254,0,0
-259,-230,0,0,0,0,0,0,0,0,0,-1,965,1254,0,0
-252,-230,0,0,0,0,0,0,0,0,0,-1,972,1254,0,0
-245,-230,0,0,0,0,0,0,0,0,0,-1,979,1254,0,0
-238,-230,0,0,0,0,0,0,0,0,0,-1,986,1254,0,0
-231,-230,0,0,0,0,0,0,0,0,0,-1,993,1254,0,0
-224,-230,0,0,0,0,0,0,0,0,0,-1,1000,1254,0,0
-217,-230,0,0,0,0,0,0,0,0,0,-1,1007,1254,0,0
-210,-230,0,0,0,0,0,0,0,0,0,-1,1014,1254,0,0
-203,-230,0,0,0,0,0,0,0,0,0,-1,1021,1254,0,0
-196,-230,0,0,0,0,0,0,0,0,0,-1,1028,1254,0,0
-189,-230,0,0,0,0,0,0,0,0,0,-1,1035,1254,0,0
-182,-230,0,0,0,0,0,0,0,0,0,-1,1042,1254,0,0
-175,-230,0,0,0,0,0,0,0,0,0,-1,1049,1254,0,0
-168,-230,0,0,0,0,0,0,0,0,0,-1,1056,1254,0,0
-161,-230,0,0,0,0,0,0,0,0,0,-1,1063,1254,0,0
-154,-230,0,0,0,0,0,0,0,0,0,-1,1070,1254,0,0
-147,-230,0,0,0,0,0,0,0,0,0,-1,1077,1254,0,0
-140,-230,0,0,0,0,0,0,0,0,0,-1,1084,1254,0,0
-133,-230,0,0,0,0,0,0,0,0,0,-1,1091,1254,0,0
-126,-230,0,0,0,0,0,0,0,0,0,-1,1098,1254,0,0
-119,-230,0,0,0,0,0,0,0,0,0,-1,1105,1254,0,0
-112,-230,0,0,0,0,0,0,0,0,0,-1,1112,1254,0,0
-105,-230,0,0,0,0,0,0,0,0,0,-1,1119,1254,0,0
-98,-230,0,0,0,0,0,0,0,0,0,-1,1126,1254,0,0
-91,-230,0,0,0,0,0,0,0,0,0,-1,1133,1254,0,0
-84,-230,0,0,0,0,0,0,0,0,0,-1,1140,1254,0,0
-77,-230,0,0,0,0,0,0,0,0,0,-1,1147,1254,0,0
-70,-230,0,0,0,0,0,0,0,0,0,-1,1154,1254,0,0
-63,-230,0,0,0,0,0,0,0,0,0,-1,1161,1254,0,0
-56,-230,0,0,0,0,0,0,0,0,0,-1,1168,1254,0,0
-49,-230,0,0,0,0,0,0,0,0,0,-1,1175,1254,0,0
-42,-230,0,0,0,0,0,0,0,0,0,-1,1182,1254,0,0
-35,-230,0,0,0,0,0,0,0,0,0,-1,1189,1254,0,0
-28,-230,0,0,0,0,0,0,0,0,0,-1,1196,1254,0,0
-21,-230,0,0,0,0,0,0,0,0,0,-1,1203,1254,0,0
-14,-230,0,0,0,0,0,0,0,0,0,-1,1210,1254,0,0
-7,-230,0,0,0,0,0,0,0,0,0,-1,1217,1254,0,0
0,-230,0,0,0,0,0,0,0,0,0,-1,1224,1254,0,0
7,-230,0,0,0,0,0,0,0,0,0,-1,1231,1254,0,0
14,-230,0,0,0,0,0,0,0,0,0,-1,1238,1254,0,0
21,-230,0,0,0,0,0,0,0,0,0,-1,1245,1254,0,0
28,-230,0,0,0,0,0,0,0,0,0,-1,1252,1254,0,0
35,-230,0,0,0,0,0,0,0,0,0,-1,1259,1254,0,0
42,-230,0,0,0,0,0,0,0,0,0,-1,1266,1254,0,0
49,-230,0,0,0,0,0,0,0,0,0,-1,1273,1254,0,0
56,-230,0,0,0,0,0,0,0,0,0,-1,1280,1254,0,0
63,-230,0,0,0,0,0,0,0,0,0,-1,1287,1254,0,0
70,-230,0,0,0,0,0,0,0,0,0,-1,1294,1254,0,0
77,-230,0,0,0,0,0,0,0,0,0,-1,1301,1254,0,0
84,-230,0,0,0,0,0,0,0,0,0,-1,1308,1254,0,0
91,-230,0,0,0,0,0,0,0,0,0,-1,1315,1254,0,0
98,-230,0,0,0,0,0,0,0,0,0,-1,1322,1254,0,0
105,-230,0,0,0,0,0,0,0,0,0,-1,1329,1254,0,0
112,-230,0,0,0,0,0,0,0,0,0,-1,1336,1254,0,0
119,-230,0,0,0,0,0,0,0,0,0,-1,1343,1254,0,0
126,-230,0,0,0,0,0,0,0,0,0,-1,1350,1254,0,0
133,-230,0,0,0,0,0,0,0,0,0,-1,1357,1254,0,0
140,-230,0,0,0,0,0,0,0,0,0,-1,1364,1254,0,0
147,-230,0,0,0,0,0,0,0,0,0,-1,1371,1254,0,0
154,-230,0,0,0,0,0,0,0,0,0,-1,1378,1254,0,0
161,-230,0,0,0,0,0,0,0,0,0,-1,1385,1254,0,0
168,-230,0,0,0,0,0,0,0,0,0,-1,1392,1254,0,0
175,-230,0,0,0,0,0,0,0,0,0,-1,1399,1254,0,0
182,-230,0,0,0,0,0,0,0,0,0,-1,1406,1254,0,0
189,-230,0,0,0,0,0,0,0,0,0,-1,1413,1254,0,0
196,-230,0,0,0,0,0,0,0,0,0,-1,1420,1254,0,0
203,-230,0,0,0,0,0,0,0,0,0,-1,1427,1254,0,0
210,-230,0,0,0,0,0,0,0,0,0,-1,1434,1254,0,0
217,-230,0,0,0,0,0,0,0,0,0,-1,1441,1254,0,0
224,-230,0,0,0,0,0,0,0,0,0,-1,1448,1254,0,0
231,-230,0,0,0,0,0,0,0,0,0,-1,1455,1254,0,0
238,-230,0,0,0,0,0,0,0,0,0,-1,1462,1254,0,0
245,-230,0,0,0,0,0,0,0,0,0,-1,1469,1254,0,0
252,-230,0,0,0,0,0,0,0,0,0,-1,1476,1254,0,0
259,-230,0,0,0,0,0,0,0,0,0,-1,1483,1254,0,0
266,-230,0,0,0,0,0,0,0,0,0,-1,1490,1254,0,0
273,-230,0,0,0,0,0,0,0,0,0,-1,1497,1254,0,0
280,-230,0,0,0,0,0,0,0,0,0,-1,1504,1254,0,0
287,-230,0,0,0,0,0,0,0,0,0,-1,1511,1254,0,0
294,-230,0,0,0,0,0,0,0,0,0,-1,1518,1254,0,0
301,-230,0,0,0,0,0,0,0,0,0,-1,1525,1254,0,0
308,-230,0,0,0,0,0,0,0,0,0,-1,1532,1254,0,0
315,-230,0,0,0,0,0,0,0,0,0,-1,1539,1254,0,0
322,-230,0,0,0,0,0,0,0,0,0,-1,1546,1254,0,0
329,-230,0,0,0,0,0,0,0,0,0,-1,1553,1254,0,0
336,-230,0,0,0,0,0,0,0,0,0,-1,1560,1254,0,0
343,-230,0,0,0,0,0,0,0,0,0,-1,1567,1254,0,0
350,-230,0,0,0,0,0,0,0,0,0,-1,1574,1254,0,0
357,-230,0,0,0,0,0,0,0,0,0,-1,1581,1254,0,0
364,-230,0,0,0,0,0,0,0,0,0,-1,1588,1254,0,0
371,-230,0,0,0,0,0,0,0,0,0,-1,1595,1254,0,0
378,-230,0,0,0,0,0,0,0,0,0,-1,1602,1254,0,0
385,-230,0,0,0,0,0,0,0,0,0,-1,1609,1254,0,0
392,-230,0,0,0,0,0,0,0,0,0,-1,1616,1254,0,0
399,-230,0,0,0,0,0,0,0,0,0,-1,1623,1254,0,0
406,-230,0,0,0,0,0,0,0,0,0,-1,1630,1254,0,0
413,-230,0,0,0,0,0,0,0,0,0,-1,1637,1254,0,0
420,-230,0,0,0,0,0,0,0,0,0,-1,1644,1254,0,0
427,-230,0,0,0,0,0,0,0,0,0,-1,1651,1254,0,0
434,-230,0,0,0,0,0,0,0,0,0,-1,1658,1254,0,0
441,-230,0,0,0,0,0,0,0,0,0,-1,1665,1254,0,0
448,-230,0,0,0,0,0,0,0,0,0,-1,1672,1254,0,0
455,-230,0,0,0,0,0,0,0,0,0,-1,1679,1254,0,0
462,-230,0,0,0,0,0,0,0,0,0,-1,1686,1254,0,0
469,-230,0,0,0,0,0,0,0,0,0,-1,1693,1254,0,0
476,-230,0,0,0,0,0,0,0,0,0,-1,1700,1254,0,0
483,-230,0,0,0,0,0,0,0,0,0,-1,1707,1254,0,0
490,-230,0,0,0,0,0,0,0,0,0,-1,1714,1254,0,0
497,-230,0,0,0,0,0,0,0,0,0,-1,1721,1254,0,0
504,-230,0,0,0,0,0,0,0,0,0,-1,1728,1254,0,0
511,-230,0,0,0,0,0,0,0,0,0,-1,1735,1254,0,0
518,-230,0,0,0,0,0,0,0,0,0,-1,1742,1254,0,0
525,-230,0,0,0,0,0,0,0,0,0,-1,1749,1254,0,0
532,-230,0,0,0,0,0,0,0,0,0,-1,1756,1254,0,0
539,-230,0,0,0,0,0,0,0,0,0,-1,1763,1254,0,0
546,-230,0,0,0,0,0,0,0,0,0,-1,1770,1254,0,0
553,-230,0,0,0,0,0,0,0,0,0,-1,1777,1254,0,0
560,-230,0,0,0,0,0,0,0,0,0,-1,1784,1254,0,0
567,-230,0,0,0,0,0,0,0,0,0,-1,1791,1254,0,0
574,-230,0,0,0,0,0,0,0,0,0,-1,1798,1254,0,0
581,-230,0,0,0,0,0,0,0,0,0,-1,1805,1254,0,0
588,-230,0,0,0,0,0,0,0,0,0,-1,1812,1254,0,0
595,-230,0,0,0,0,0,0,0,0,0,-1,1819,1254,0,0
602,-230,0,0,0,0,0,0,0,0,0,-1,1826,1254,0,0
609,-230,0,0,0,0,0,0,0,0,0,-1,1833,1254,0,0
616,-230,44.3765,2.93311,0.00512843,0.00571157,-0.00041374,0.00592616,0.00491385,-1.09234,0.0036603,0.0361546,1840,1254,44.3765,-2.93306
623,-230,44.5245,2.94714,-0.000142702,0.00589364,-0.000494024,0.00593381,-0.000182866,-1.48967,0.00401821,0.0351216,1847,1254,44.5246,-2.94713
630,-230,44.5051,2.81519,-0.00474192,0.00573573,-0.000865424,0.00580673,-0.00481292,-1.48894,0.0061402,0.0315951,1854,1254,44.5051,-2.81521
637,-230,44.4033,2.73499,-0.00846173,0.00532715,-0.00136316,0.00546062,-0.0085952,-1.4732,0.00818212,0.0277235,1861,1254,44.4033,-2.73493
644,-230,44.3359,2.69604,-0.00862889,0.00449573,-0.00136033,0.00463524,-0.0087684,-1.4686,0.00786028,0.0223389,1868,1254,44.336,-2.69599
651,-230,44.2314,2.5564,-0.00721124,0.00375002,-0.00153197,0.0039601,-0.00742132,-1.43451,0.00667159,0.044457,1875,1254,44.2314,-2.55634
658,-230,44.145,2.43701,0,0,0,0,0,0,0,-1,1882,1254,44.145,-2.43701
665,-230,44.3485,2.11414,0,0,0,0,0,0,0,-1,1889,1254,44.3485,-2.11413
672,-230,43.0962,2.78699,0,0,0,0,0,0,0,-1,1896,1254,43.0962,-2.78698
679,-230,27.9967,2.37708,0,0,0,0,0,0,0,-1,1903,1254,27.9967,-2.3771
686,-230,34.5176,9.05371,0,0,0,0,0,0,0,-1,1910,1254,34.5175,-9.05368
693,-230,34.6998,8.85413,-0.000559076,0.00013157,-0.000499069,0.000393139,-0.000820645,-1.08804,0.00071512,0.0439629,1917,1254,34.6999,-8.85417
700,-230,34.8562,8.59412,0.00115704,-0.000288225,-0.000295241,0.00121503,-0.000346211,-0.193933,0.000946763,0.0162818,1924,1254,34.8562,-8.59408
707,-230,34.8035,8.18372,0.00160339,-0.000434648,0.000128695,0.00161148,-0.000442742,0.062814,0.00124835,0.00988315,1931,1254,34.8034,-8.18371
714,-230,34.7928,7.8009,0.00105316,-0.00077553,0.000842813,0.00138234,-0.00110471,0.372357,0.00143888,0.0125886,1938,1254,34.7928,-7.80093
721,-230,34.8075,7.39844,0.000909558,-0.000958574,0.00139696,0.00165596,-0.00170497,0.490713,0.0019405,0.0127785,1945,1254,34.8075,-7.39839
728,-230,34.775,7.01123,0.00107589,-0.000784509,0.00184032,0.00220774,-0.00191636,0.551397,0.00238303,0.0139024,1952,1254,34.7751,-7.0112
735,-230,34.7563,6.64026,0.00188351,-0.000558179,0.00220091,0.00317951,-0.00185417,0.532176,0.00293958,0.0150727,1959,1254,34.7564,-6.64031
742,-230,34.7424,6.2179,0.00336008,-0.000255355,0.00255559,0.00468268,-0.00157796,0.477575,0.00375982,0.0113233,1966,1254,34.7424,-6.21789
749,-230,34.7297,5.77771,0.00571034,9.1971e-05,0.0029326,0.00696215,-0.00115984,0.403445,0.00507244,0.0110955,1973,1254,34.7297,-5.77776
756,-230,34.7183,5.40063,0.0094379,0.000576448,0.00316395,0.0104516,-0.000437265,0.310061,0.00711797,0.0167598,1980,1254,34.7183,-5.40058
763,-230,34.7708,4.95496,0.0149883,0.0011848,0.00330428,0.0157385,0.000434595,0.223256,0.0103505,0.0335717,1987,1254,34.7707,-4.95495
770,-230,35.174,4.46936,0.02284,0.00202683,0.00356281,0.023433,0.00143384,0.164926,0.0151667,0.0482362,1994,1254,35.174,-4.4694
777,-230,35.6233,4.08398,0,0,0,0,0,0,0,-1,2001,1254,35.6233,-4.08396
784,-230,35.8896,1.80334,0,0,0,0,0,0,0,-1,2008,1254,35.8897,-1.80338
791,-230,35.6028,2.20642,0,0,0,0,0,0,0,-1,2015,1254,35.6027,-2.2064
798,-230,0,0,0,0,0,0,0,0,0,-1,2022,1254,0,0
805,-230,0,0,0,0,0,0,0,0,0,-1,2029,1254,0,0
812,-230,0,0,0,0,0,0,0,0,0,-1,2036,1254,0,0
-700,-237,0,0,0,0,0,0,0,0,0,-1,524,1261,0,0
-693,-237,0,0,0,0,0,0,0,0,0,-1,531,1261,0,0
-686,-237,0,0,0,0,0,0,0,0,0,-1,538,1261,0,0
-679,-237,0,0,0,0,0,0,0,0,0,-1,545,1261,0,0
-672,-237,-29.1915,-12.2021,0,0,0,0,0,0,0,-1,552,1261,-29.1915,12.2022
-665,-237,-29.1047,-11.6073,0,0,0,0,0,0,0,-1,559,1261,-29.1047,11.6073
-658,-237,-28.2948,-11.3933,0,0,0,0,0,0,0,-1,566,1261,-28.2948,11.3933
-651,-237,-37.2526,1.15991,0,0,0,0,0,0,0,-1,573,1261,-37.2526,-1.15996
-644,-237,-22.7836,6.22681,0,0,0,0,0,0,0,-1,580,1261,-22.7836,-6.22677
-637,-237,-22.0607,1.88025,0,0,0,0,0,0,0,-1,587,1261,-22.0607,-1.88027
-630,-237,-21.8638,2.34131,0.0252145,0.0321297,0.00822944,0.0375984,0.0197458,0.984276,0.0217166,0.0495897,594,1261,-21.8638,-2.34136
-623,-237,-21.5821,2.7666,0.0165456,0.0194742,0.00726962,0.0254255,0.0105943,0.884783,0.0147472,0.0314488,601,1261,-21.5821,-2.76662
-616,-237,-21.6047,3.27185,0.0102229,0.0086474,0.00581356,0.0153018,0.00356845,0.718058,0.00924424,0.0146859,608,1261,-21.6047,-3.27182
-609,-237,-21.6559,3.72852,0.0059718,0.00489311,0.00420566,0.00967255,0.00119236,0.721625,0.00608995,0.0166332,615,1261,-21.656,-3.7285
-602,-237,-21.6689,4.1554,0.00359817,0.00246895,0.00275538,0.00584619,0.000220922,0.684341,0.00382595,0.0121057,622,1261,-21.6689,-4.15544
-595,-237,-21.7053,4.58533,0.00307111,0.00100404,0.00166643,0.00399849,7.6659e-05,0.507826,0.00264048,0.015199,629,1261,-21.7053,-4.58536
-588,-237,-21.7109,5.04761,0.0028495,0.00030808,0.00113001,0.00327926,-0.000121686,0.363428,0.00222785,0.0278861,636,1261,-21.7109,-5.04755
-581,-237,-21.717,5.52966,0.00258519,-0.000126213,0.00112971,0.00299419,-0.000535212,0.34736,0.00219638,0.0267977,643,1261,-21.717,-5.52962
-574,-237,-21.7249,5.98157,0.00201015,-0.000239491,0.00172332,0.00294325,-0.0011726,0.496261,0.00244849,0.0163474,650,1261,-21.7249,-5.98156
-567,-237,-21.6965,6.47668,0.00171665,-1.57863e-05,0.00238747,0.00339018,-0.00168932,0.611373,0.00298695,0.0240573,657,1261,-21.6965,-6.4767
-560,-237,-21.5769,6.88318,0,0,0,0,0,0,0,-1,664,1261,-21.5769,-6.88315
-553,-237,-20.6102,6.92139,0,0,0,0,0,0,0,-1,671,1261,-20.6102,-6.92138
-546,-237,-11.192,1.14014,0,0,0,0,0,0,0,-1,678,1261,-11.192,-1.14011
-539,-237,-16.512,1.53455,0,0,0,0,0,0,0,-1,685,1261,-16.512,-1.53457
-532,-237,-29.7025,1.23621,0,0,0,0,0,0,0,-1,692,1261,-29.7025,-1.23618
-525,-237,-29.9117,0.259521,0,0,0,0,0,0,0,-1,699,1261,-29.9117,-0.259478
-518,-237,-32.2506,1.03406,0,0,0,0,0,0,0,-1,706,1261,-32.2506,-1.0341
-511,-237,-32.3375,0.97644,-0.00297556,0.00585499,-0.00074415,0.00591727,-0.00303783,-1.48731,0.00525856,0.0485662,713,1261,-32.3375,-0.976403
-504,-237,-32.5126,0.947144,-0.00370128,0.00607752,-0.00157924,0.00632623,-0.00395,-1.41459,0.00598562,0.0445791,720,1261,-32.5127,-0.947201
-497,-237,-32.6264,1.00317,-0.00280189,0.00471562,-0.00231488,0.00537127,-0.00345753,-1.29479,0.00513707,0.0455429,727,1261,-32.6264,-1.00321
-490,-237,0,0,0,0,0,0,0,0,0,-1,734,1261,0,0
-483,-237,0,0,0,0,0,0,0,0,0,-1,741,1261,0,0
-476,-237,0,0,0,0,0,0,0,0,0,-1,748,1261,0,0
-469,-237,0,0,0,0,0,0,0,0,0,-1,755,1261,0,0
-462,-237,0,0,0,0,0,0,0,0,0,-1,762,1261,0,0
-455,-237,0,0,0,0,0,0,0,0,0,-1,769,1261,0,0
-448,-237,0,0,0,0,0,0,0,0,0,-1,776,1261,0,0
-441,-237,0,0,0,0,0,0,0,0,0,-1,783,1261,0,0
-434,-237,0,0,0,0,0,0,0,0,0,-1,790,1261,0,0
-427,-237,0,0,0,0,0,0,0,0,0,-1,797,1261,0,0
-420,-237,0,0,0,0,0,0,0,0,0,-1,804,1261,0,0
-413,-237,0,0,0,0,0,0,0,0,0,-1,811,1261,0,0
-406,-237,0,0,0,0,0,0,0,0,0,-1,818,1261,0,0
-399,-237,0,0,0,0,0,0,0,0,0,-1,825,1261,0,0
-392,-237,0,0,0,0,0,0,0,0,0,-1,832,1261,0,0
-385,-237,0,0,0,0,0,0,0,0,0,-1,839,1261,0,0
-378,-237,0,0,0,0,0,0,0,0,0,-1,846,1261,0,0
-371,-237,0,0,0,0,0,0,0,0,0,-1,853,1261,0,0
-364,-237,0,0,0,0,0,0,0,0,0,-1,860,1261,0,0
-357,-237,0,0,0,0,0,0,0,0,0,-1,867,1261,0,0
-350,-237,0,0,0,0,0,0,0,0,0,-1,874,1261,0,0
-343,-237,0,0,0,0,0,0,0,0,0,-1,881,1261,0,0
-336,-237,0,0,0,0,0,0,0,0,0,-1,888,1261,0,0
-329,-237,0,0,0,0,0,0,0,0,0,-1,895,1261,0,0
-322,-237,0,0,0,0,0,0,0,0,0,-1,902,1261,0,0
-315,-237,0,0,0,0,0,0,0,0,0,-1,909,1261,0,0
-308,-237,0,0,0,0,0,0,0,0,0,-1,916,1261,0,0
-301,-237,0,0,0,0,0,0,0,0,0,-1,923,1261,0,0
-294,-237,0,0,0,0,0,0,0,0,0,-1,930,1261,0,0
-287,-237,0,0,0,0,0,0,0,0,0,-1,937,1261,0,0
-280,-237,0,0,0,0,0,0,0,0,0,-1,944,1261,0,0
-273,-237,0,0,0,0,0,0,0,0,0,-1,951,1261,0,0
-266,-237,0,0,0,0,0,0,0,0,0,-1,958,1261,0,0
-259,-237,0,0,0,0,0,0,0,0,0,-1,965,1261,0,0
-252,-237,0,0,0,0,0,0,0,0,0,-1,972,1261,0,0
-245,-237,0,0,0,0,0,0,0,0,0,-1,979,1261,0,0
-238,-237,0,0,0,0,0,0,0,0,0,-1,986,1261,0,0
-231,-237,0,0,0,0,0,0,0,0,0,-1,993,1261,0,0
-224,-237,0,0,0,0,0,0,0,0,0,-1,1000,1261,0,0
-217,-237,0,0,0,0,0,0,0,0,0,-1,1007,1261,0,0
-210,-237,0,0,0,0,0,0,0,0,0,-1,1014,1261,0,0
-203,-237,0,0,0,0,0,0,0,0,0,-1,1021,1261,0,0
-196,-237,0,0,0,0,0,0,0,0,0,-1,1028,1261,0,0
-189,-237,0,0,0,0,0,0,0,0,0,-1,1035,1261,0,0
-182,-237,0,0,0,0,0,0,0,0,0,-1,1042,1261,0,0
-175,-237,0,0,0,0,0,0,0,0,0,-1,1049,1261,0,0
-168,-237,0,0,0,0,0,0,0,0,0,-1,1056,1261,0,0
-161,-237,0,0,0,0,0,0,0,0,0,-1,1063,1261,0,0
-154,-237,0,0,0,0,0,0,0,0,0,-1,1070,1261,0,0
-147,-237,0,0,0,0,0,0,0,0,0,-1,1077,1261,0,0
-140,-237,0,0,0,0,0,0,0,0,0,-1,1084,1261,0,0
-133,-237,0,0,0,0,0,0,0,0,0,-1,1091,1261,0,0
-126,-237,0,0,0,0,0,0,0,0,0,-1,1098,1261,0,0
-119,-237,0,0,0,0,0,0,0,0,0,-1,1105,1261,0,0
-112,-237,0,0,0,0,0,0,0,0,0,-1,1112,1261,0,0
-105,-237,0,0,0,0,0,0,0,0,0,-1,1119,1261,0,0
-98,-237,0,0,0,0,0,0,0,0,0,-1,1126,1261,0,0
-91,-237,0,0,0,0,0,0,0,0,0,-1,1133,1261,0,0
-84,-237,0,0,0,0,0,0,0,0,0,-1,1140,1261,0,0
-77,-237,0,0,0,0,0,0,0,0,0,-1,1147,1261,0,0
-70,-237,0,0,0,0,0,0,0,0,0,-1,1154,1261,0,0
-63,-237,0,0,0,0,0,0,0,0,0,-1,1161,1261,0,0
-56,-237,0,0,0,0,0,0,0,0,0,-1,1168,1261,0,0
-49,-237,0,0,0,0,0,0,0,0,0,-1,1175,1261,0,0
-42,-237,0,0,0,0,0,0,0,0,0,-1,1182,1261,0,0
-35,-237,0,0,0,0,0,0,0,0,0,-1,1189,1261,0,0
-28,-237,0,0,0,0,0,0,0,0,0,-1,1196,1261,0,0
-21,-237,0,0,0,0,0,0,0,0,0,-1,1203,1261,0,0
-14,-237,0,0,0,0,0,0,0,0,0,-1,1210,1261,0,0
-7,-237,0,0,0,0,0,0,0,0,0,-1,1217,1261,0,0
0,-237,0,0,0,0,0,0,0,0,0,-1,1224,1261,0,0
7,-237,0,0,0,0,0,0,0,0,0,-1,1231,1261,0,0
14,-237,0,0,0,0,0,0,0,0,0,-1,1238,1261,0,0
21,-237,0,0,0,0,0,0,0,0,0,-1,1245,1261,0,0
28,-237,0,0,0,0,0,0,0,0,0,-1,1252,1261,0,0
35,-237,0,0,0,0,0,0,0,0,0,-1,1259,1261,0,0
42,-237,0,0,0,0,0,0,0,0,0,-1,1266,1261,0,0
49,-237,0,0,0,0,0,0,0,0,0,-1,1273,1261,0,0
56,-237,0,0,0,0,0,0,0,0,0,-1,1280,1261,0,0
63,-237,0,0,0,0,0,0,0,0,0,-1,1287,1261,0,0
70,-237,0,0,0,0,0,0,0,0,0,-1,1294,1261,0,0
77,-237,0,0,0,0,0,0,0,0,0,-1,1301,1261,0,0
84,-237,0,0,0,0,0,0,0,0,0,-1,1308,1261,0,0
91,-237,0,0,0,0,0,0,0,0,0,-1,1315,1261,0,0
98,-237,0,0,0,0,0,0,0,0,0,-1,1322,1261,0,0
105,-237,0,0,0,0,0,0,0,0,0,-1,1329,1261,0,0
112,-237,0,0,0,0,0,0,0,0,0,-1,1336,1261,0,0
119,-237,0,0,0,0,0,0,0,0,0,-1,1343,1261,0,0
126,-237,0,0,0,0,0,0,0,0,0,-1,1350,1261,0,0
133,-237,0,0,0,0,0,0,0,0,0,-1,1357,1261,0,0
140,-237,0,0,0,0,0,0,0,0,0,-1,1364,1261,0,0
147,-237,0,0,0,0,0,0,0,0,0,-1,1371,1261,0,0
154,-237,0,0,0,0,0,0,0,0,0,-1,1378,1261,0,0
161,-237,0,0,0,0,0,0,0,0,0,-1,1385,1261,0,0
168,-237,0,0,0,0,0,0,0,0,0,-1,1392,1261,0,0
175,-237,0,0,0,0,0,0,0,0,0,-1,1399,1261,0,0
182,-237,0,0,0,0,0,0,0,0,0,-1,1406,1261,0,0
189,-237,0,0,0,0,0,0,0,0,0,-1,1413,1261,0,0
196,-237,0,0,0,0,0,0,0,0,0,-1,1420,1261,0,0
203,-237,0,0,0,0,0,0,0,0,0,-1,1427,1261,0,0
210,-237,0,0,0,0,0,0,0,0,0,-1,1434,1261,0,0
217,-237,0,0,0,0,0,0,0,0,0,-1,1441,1261,0,0
224,-237,0,0,0,0,0,0,0,0,0,-1,1448,1261,0,0
231,-237,0,0,0,0,0,0,0,0,0,-1,1455,1261,0,0
238,-237,0,0,0,0,0,0,0,0,0,-1,1462,1261,0,0
245,-237,0,0,0,0,0,0,0,0,0,-1,1469,1261,0,0
252,-237,0,0,0,0,0,0,0,0,0,-1,1476,1261,0,0
259,-237,0,0,0,0,0,0,0,0,0,-1,1483,1261,0,0
266,-237,0,0,0,0,0,0,0,0,0,-1,1490,1261,0,0
273,-237,0,0,0,0,0,0,0,0,0,-1,1497,1261,0,0
280,-237,0,0,0,0,0,0,0,0,0,-1,1504,1261,0,0
287,-237,0,0,0,0,0,0,0,0,0,-1,1511,1261,0,0
294,-237,0,0,0,0,0,0,0,0,0,-1,1518,1261,0,0
301,-237,0,0,0,0,0,0,0,0,0,-1,1525,1261,0,0
308,-237,0,0,0,0,0,0,0,0,0,-1,1532,1261,0,0
315,-237,0,0,0,0,0,0,0,0,0,-1,1539,1261,0,0
322,-237,0,0,0,0,0,0,0,0,0,-1,1546,1261,0,0
329,-237,0,0,0,0,0,0,0,0,0,-1,1553,1261,0,0
336,-237,0,0,0,0,0,0,0,0,0,-1,1560,1261,0,0
343,-237,0,0,0,0,0,0,0,0,0,-1,1567,1261,0,0
350,-237,0,0,0,0,0,0,0,0,0,-1,1574,1261,0,0
357,-237,0,0,0,0,0,0,0,0,0,-1,1581,1261,0,0
364,-237,0,0,0,0,0,0,0,0,0,-1,1588,1261,0,0
371,-237,0,0,0,0,0,0,0,0,0,-1,1595,1261,0,0
378,-237,0,0,0,0,0,0,0,0,0,-1,1602,1261,0,0
385,-237,0,0,0,0,0,0,0,0,0,-1,1609,1261,0,0
392,-237,0,0,0,0,0,0,0,0,0,-1,1616,1261,0,0
399,-237,0,0,0,0,0,0,0,0,0,-1,1623,1261,0,0
406,-237,0,0,0,0,0,0,0,0,0,-1,1630,1261,0,0
413,-237,0,0,0,0,0,0,0,0,0,-1,1637,1261,0,0
420,-237,0,0,0,0,0,0,0,0,0,-1,1644,1261,0,0
427,-237,0,0,0,0,0,0,0,0,0,-1,1651,1261,0,0
434,-237,0,0,0,0,0,0,0,0,0,-1,1658,1261,0,0
441,-237,0,0,0,0,0,0,0,0,0,-1,1665,1261,0,0
448,-237,0,0,0,0,0,0,0,0,0,-1,1672,1261,0,0
455,-237,0,0,0,0,0,0,0,0,0,-1,1679,1261,0,0
462,-237,0,0,0,0,0,0,0,0,0,-1,1686,1261,0,0
469,-237,0,0,0,0,0,0,0,0,0,-1,1693,1261,0,0
476,-237,0,0,0,0,0,0,0,0,0,-1,1700,1261,0,0
483,-237,0,0,0,0,0,0,0,0,0,-1,1707,1261,0,0
490,-237,0,0,0,0,0,0,0,0,0,-1,1714,1261,0,0
497,-237,0,0,0,0,0,0,0,0,0,-1,1721,1261,0,0
504,-237,0,0,0,0,0,0,0,0,0,-1,1728,1261,0,0
511,-237,0,0,0,0,0,0,0,0,0,-1,1735,1261,0,0
518,-237,0,0,0,0,0,0,0,0,0,-1,1742,1261,0,0
525,-237,0,0,0,0,0,0,0,0,0,-1,1749,1261,0,0
532,-237,0,0,0,0,0,0,0,0,0,-1,1756,1261,0,0
539,-237,0,0,0,0,0,0,0,0,0,-1,1763,1261,0,0
546,-237,0,0,0,0,0,0,0,0,0,-1,1770,1261,0,0
553,-237,0,0,0,0,0,0,0,0,0,-1,1777,1261,0,0
560,-237,0,0,0,0,0,0,0,0,0,-1,1784,1261,0,0
567,-237,0,0,0,0,0,0,0,0,0,-1,1791,1261,0,0
574,-237,0,0,0,0,0,0,0,0,0,-1,1798,1261,0,0
581,-237,0,0,0,0,0,0,0,0,0,-1,1805,1261,0,0
588,-237,0,0,0,0,0,0,0,0,0,-1,1812,1261,0,0
595,-237,0,0,0,0,0,0,0,0,0,-1,1819,1261,0,0
602,-237,0,0,0,0,0,0,0,0,0,-1,1826,1261,0,0
609,-237,0,0,0,0,0,0,0,0,0,-1,1833,1261,0,0
616,-237,44.4738,2.78235,0.00238956,0.00752403,-0.00115877,0.00777344,0.00214015,-1.3588,0.00463658,0.0363122,1840,1261,44.4738,-2.78241
623,-237,44.4907,2.76685,-0.00325861,0.00760759,-0.0009728,0.00769399,-0.00334501,-1.48221,0.00653616,0.0325698,1847,1261,44.4907,-2.76684
630,-237,44.4803,2.79407,-0.00850886,0.00717764,-0.00108379,0.00725216,-0.00858339,-1.50214,0.00915342,0.0260396,1854,1261,44.4803,-2.79404
637,-237,44.3535,2.75598,-0.0117711,0.00622415,-0.00138739,0.00633048,-0.0118774,-1.4943,0.0106737,0.021613,1861,1261,44.3535,-2.75598
644,-237,44.0743,2.48438,-0.010768,0.00500097,-0.00125772,0.00510066,-0.0108677,-1.4917,0.00941764,0.0429491,1868,1261,44.0743,-2.48437
651,-237,43.8041,2.20093,0,0,0,0,0,0,0,-1,1875,1261,43.8041,-2.20095
658,-237,44.1733,3.74915,0,0,0,0,0,0,0,-1,1882,1261,44.1734,-3.74916
665,-237,44.104,4.79102,0,0,0,0,0,0,0,-1,1889,1261,44.104,-4.79105
672,-237,44.1165,5.77795,0,0,0,0,0,0,0,-1,1896,1261,44.1164,-5.778
679,-237,23.1501,7.37488,0,0,0,0,0,0,0,-1,1903,1261,23.1502,-7.37493
686,-237,34.1606,9.48474,0,0,0,0,0,0,0,-1,1910,1261,34.1606,-9.48478
693,-237,34.2443,9.04456,-0.000869286,-0.000169163,-0.00052853,0.000114721,-0.00115317,-1.0779,0.000809734,0.0472948,1917,1261,34.2442,-9.04455
700,-237,34.3992,8.63574,0.00126909,-0.000498323,-0.00035926,0.00133933,-0.000568558,-0.193064,0.00113109,0.012729,1924,1261,34.3992,-8.63576
707,-237,34.4012,8.22046,0.00183557,-0.000423734,1.72434e-05,0.0018357,-0.000423866,0.00763158,0.00138685,0.0103872,1931,1261,34.4012,-8.2205
714,-237,34.3813,7.80347,0.00118483,-0.000658259,0.000680415,0.0014088,-0.000882231,0.317999,0.00133432,0.0144768,1938,1261,34.3813,-7.80341
721,-237,34.3651,7.42017,0.000992037,-0.000778668,0.00124832,0.0016371,-0.00142373,0.47695,0.0017686,0.0157452,1945,1261,34.3652,-7.42014
728,-237,34.3807,6.99658,0.00105198,-0.000663658,0.00177569,0.0021662,-0.00177787,0.560383,0.00228079,0.0141605,1952,1261,34.3807,-6.99661
735,-237,34.3674,6.61121,0.00166715,-0.000539248,0.00228901,0.00310494,-0.00197704,0.560844,0.00295807,0.0195894,1959,1261,34.3674,-6.61123
742,-237,34.356,6.2207,0.00293896,-0.00038222,0.0028166,0.00454805,-0.00199131,0.519039,0.00387049,0.0151437,1966,1261,34.356,-6.22074
749,-237,34.2982,5.83191,0.00513365,-0.00020807,0.00341867,0.00680108,-0.0018755,0.453794,0.00527163,0.00998593,1973,1261,34.2982,-5.83189
756,-237,34.2584,5.44897,0.00875522,7.30546e-05,0.00390195,0.0102511,-0.00142283,0.366087,0.00735437,0.0163901,1980,1261,34.2584,-5.44901
763,-237,34.1971,4.93762,0.0142705,0.000425952,0.00437868,0.0155391,-0.000842673,0.282006,0.0106514,0.0347944,1987,1261,34.1972,-4.93757
770,-237,34.4729,4.23877,0.0222628,0.00104514,0.00500022,0.0233821,-7.41761e-05,0.220223,0.0156129,0.0477594,1994,1261,34.4728,-4.23875
777,-237,34.7101,3.61938,0,0,0,0,0,0,0,-1,2001,1261,34.7101,-3.61935
784,-237,36.3441,1.68591,0,0,0,0,0,0,0,-1,2008,1261,36.3441,-1.68592
791,-237,32.3025,6.03235,0,0,0,0,0,0,0,-1,2015,1261,32.3025,-6.03229
798,-237,0,0,0,0,0,0,0,0,0,-1,2022,1261,0,0
805,-237,0,0,0,0,0,0,0,0,0,-1,2029,1261,0,0
812,-237,0,0,0,0,0,0,0,0,0,-1,2036,1261,0,0
-700,-244,0,0,0,0,0,0,0,0,0,-1,524,1268,0,0
-693,-244,0,0,0,0,0,0,0,0,0,-1,531,1268,0,0
-686,-244,0,0,0,0,0,0,0,0,0,-1,538,1268,0,0
-679,-244,0,0,0,0,0,0,0,0,0,-1,545,1268,0,0
-672,-244,-29.0622,-13.5513,0,0,0,0,0,0,0,-1,552,1268,-29.0622,13.5513
-665,-244,-23.669,1.3938,0,0,0,0,0,0,0,-1,559,1268,-23.669,-1.39374
-658,-244,-23.6096,2.91895,0,0,0,0,0,0,0,-1,566,1268,-23.6096,-2.91896
-651,-244,-23.5394,4.41724,0,0,0,0,0,0,0,-1,573,1268,-23.5394,-4.41721
-644,-244,-20.4261,0.428345,0,0,0,0,0,0,0,-1,580,1268,-20.4261,-0.428352
-637,-244,-21.4786,1.81677,0,0,0,0,0,0,0,-1,587,1268,-21.4786,-1.81682
-630,-244,-21.4135,2.30298,0.0266494,0.0336745,0.010395,0.0411344,0.0191895,0.948328,0.0237667,0.0443071,594,1268,-21.4135,-2.30295
-623,-244,-21.2755,2.80798,0.0176515,0.0208345,0.00915172,0.0285321,0.00995394,0.871489,0.016722,0.032127,601,1268,-21.2755,-2.80798
-616,-244,-21.1608,3.29541,0.0110569,0.00993638,0.00745604,0.0179737,0.00301958,0.747898,0.0111135,0.0165995,608,1268,-21.1608,-3.29541
-609,-244,-21.1935,3.72693,0.00650566,0.00592849,0.00555969,0.0117842,0.000649903,0.759468,0.00764874,0.0146538,615,1268,-21.1936,-3.72693
-602,-244,-21.2365,4.15857,0.00392507,0.00330208,0.00384998,0.00747613,-0.000248984,0.745032,0.00506912,0.0150453,622,1268,-21.2365,-4.15855
-595,-244,-21.2722,4.62158,0.00328115,0.00166573,0.00251411,0.00511411,-0.000167226,0.62997,0.00346649,0.0164499,629,1268,-21.2722,-4.62159
-588,-244,-21.2548,5.07507,0.00300834,0.000610647,0.00168804,0.00387993,-0.000260941,0.476628,0.00267784,0.0222858,636,1268,-21.2547,-5.07501
-581,-244,-21.2652,5.54578,0.00277334,-0.000130412,0.00139269,0.00333331,-0.000690384,0.382297,0.00248452,0.0197151,643,1268,-21.2652,-5.54577
-574,-244,-21.2832,6.00879,0.00235656,-0.000445016,0.00170793,0.00316467,-0.00125312,0.441939,0.002629,0.014168,650,1268,-21.2832,-6.00883
-567,-244,-21.2667,6.4613,0.00216391,-0.000228081,0.00221629,0.00348631,-0.00155049,0.537971,0.00297873,0.0135567,657,1268,-21.2667,-6.46131
-560,-244,-21.1646,6.89807,0.00209447,0.000668371,0.00224765,0.00373947,-0.000976627,0.631799,0.00287437,0.0357469,664,1268,-21.1645,-6.8981
-553,-244,-21.0076,7.35706,0,0,0,0,0,0,0,-1,671,1268,-21.0076,-7.35706
-546,-244,-11.2686,4.41772,0,0,0,0,0,0,0,-1,678,1268,-11.2686,-4.41767
-539,-244,-12.8706,0.3302,0,0,0,0,0,0,0,-1,685,1268,-12.8706,-0.330156
-532,-244,-18.1502,0.816528,0,0,0,0,0,0,0,-1,692,1268,-18.1502,-0.816514
-525,-244,-29.6356,-0.133789,0,0,0,0,0,0,0,-1,699,1268,-29.6356,0.133756
-518,-244,-29.9055,0.267944,0,0,0,0,0,0,0,-1,706,1268,-29.9055,-0.267898
-511,-244,-32.3027,1.06519,0,0,0,0,0,0,0,-1,713,1268,-32.3027,-1.06513
-504,-244,-32.5269,1.13708,0,0,0,0,0,0,0,-1,720,1268,-32.5269,-1.13713
-497,-244,-32.7598,1.2345,0,0,0,0,0,0,0,-1,727,1268,-32.7598,-1.23447
-490,-244,0,0,0,0,0,0,0,0,0,-1,734,1268,0,0
-483,-244,0,0,0,0,0,0,0,0,0,-1,741,1268,0,0
-476,-244,0,0,0,0,0,0,0,0,0,-1,748,1268,0,0
-469,-244,0,0,0,0,0,0,0,0,0,-1,755,1268,0,0
-462,-244,0,0,0,0,0,0,0,0,0,-1,762,1268,0,0
-455,-244,0,0,0,0,0,0,0,0,0,-1,769,1268,0,0
-448,-244,0,0,0,0,0,0,0,0,0,-1,776,1268,0,0
-441,-244,0,0,0,0,0,0,0,0,0,-1,783,1268,0,0
-434,-244,0,0,0,0,0,0,0,0,0,-1,790,1268,0,0
-427,-244,0,0,0,0,0,0,0,0,0,-1,797,1268,0,0
-420,-244,0,0,0,0,0,0,0,0,0,-1,804,1268,0,0
-413,-244,0,0,0,0,0,0,0,0,0,-1,811,1268,0,0
-406,-244,0,0,0,0,0,0,0,0,0,-1,818,1268,0,0
-399,-244,0,0,0,0,0,0,0,0,0,-1,825,1268,0,0
-392,-244,0,0,0,0,0,0,0,0,0,-1,832,1268,0,0
-385,-244,0,0,0,0,0,0,0,0,0,-1,839,1268,0,0
-378,-244,0,0,0,0,0,0,0,0,0,-1,846,1268,0,0
-371,-244,0,0,0,0,0,0,0,0,0,-1,853,1268,0,0
-364,-244,0,0,0,0,0,0,0,0,0,-1,860,1268,0,0
-357,-244,0,0,0,0,0,0,0,0,0,-1,867,1268,0,0
-350,-244,0,0,0,0,0,0,0,0,0,-1,874,1268,0,0
-343,-244,0,0,0,0,0,0,0,0,0,-1,881,1268,0,0
-336,-244,0,0,0,0,0,0,0,0,0,-1,888,1268,0,0
-329,-244,0,0,0,0,0,0,0,0,0,-1,895,1268,0,0
-322,-244,0,0,0,0,0,0,0,0,0,-1,902,1268,0,0
-315,-244,0,0,0,0,0,0,0,0,0,-1,909,1268,0,0
-308,-244,0,0,0,0,0,0,0,0,0,-1,916,1268,0,0
-301,-244,0,0,0,0,0,0,0,0,0,-1,923,1268,0,0
-294,-244,0,0,0,0,0,0,0,0,0,-1,930,1268,0,0
-287,-244,0,0,0,0,0,0,0,0,0,-1,937,1268,0,0
-280,-244,0,0,0,0,0,0,0,0,0,-1,944,1268,0,0
-273,-244,0,0,0,0,0,0,0,0,0,-1,951,1268,0,0
-266,-244,0,0,0,0,0,0,0,0,0,-1,958,1268,0,0
-259,-244,0,0,0,0,0,0,0,0,0,-1,965,1268,0,0
-252,-244,0,0,0,0,0,0,0,0,0,-1,972,1268,0,0
-245,-244,0,0,0,0,0,0,0,0,0,-1,979,1268,0,0
-238,-244,0,0,0,0,0,0,0,0,0,-1,986,1268,0,0
-231,-244,0,0,0,0,0,0,0,0,0,-1,993,1268,0,0
-224,-244,0,0,0,0,0,0,0,0,0,-1,1000,1268,0,0
-217,-244,0,0,0,0,0,0,0,0,0,-1,1007,1268,0,0
-210,-244,0,0,0,0,0,0,0,0,0,-1,1014,1268,0,0
-203,-244,0,0,0,0,0,0,0,0,0,-1,1021,1268,0,0
-196,-244,0,0,0,0,0,0,0,0,0,-1,1028,1268,0,0
-189,-244,0,0,0,0,0,0,0,0,0,-1,1035,1268,0,0
-182,-244,0,0,0,0,0,0,0,0,0,-1,1042,1268,0,0
-175,-244,0,0,0,0,0,0,0,0,0,-1,1049,1268,0,0
-168,-244,0,0,0,0,0,0,0,0,0,-1,1056,1268,0,0
-161,-244,0,0,0,0,0,0,0,0,0,-1,1063,1268,0,0
-154,-244,0,0,0,0,0,0,0,0,0,-1,1070,1268,0,0
-147,-244,0,0,0,0,0,0,0,0,0,-1,1077,1268,0,0
-140,-244,0,0,0,0,0,0,0,0,0,-1,1084,1268,0,0
-133,-244,0,0,0,0,0,0,0,0,0,-1,1091,1268,0,0
-126,-244,0,0,0,0,0,0,0,0,0,-1,1098,1268,0,0
-119,-244,0,0,0,0,0,0,0,0,0,-1,1105,1268,0,0
-112,-244,0,0,0,0,0,0,0,0,0,-1,1112,1268,0,0
-105,-244,0,0,0,0,0,0,0,0,0,-1,1119,1268,0,0
-98,-244,0,0,0,0,0,0,0,0,0,-1,1126,1268,0,0
-91,-244,0,0,0,0,0,0,0,0,0,-1,1133,1268,0,0
-84,-244,0,0,0,0,0,0,0,0,0,-1,1140,1268,0,0
-77,-244,0,0,0,0,0,0,0,0,0,-1,1147,1268,0,0
-70,-244,0,0,0,0,0,0,0,0,0,-1,1154,1268,0,0
-63,-244,0,0,0,0,0,0,0,0,0,-1,1161,1268,0,0
-56,-244,0,0,0,0,0,0,0,0,0,-1,1168,1268,0,0
-49,-244,0,0,0,0,0,0,0,0,0,-1,1175,1268,0,0
-42,-244,0,0,0,0,0,0,0,0,0,-1,1182,1268,0,0
-35,-244,0,0,0,0,0,0,0,0,0,-1,1189,1268,0,0
-28,-244,0,0,0,0,0,0,0,0,0,-1,1196,1268,0,0
-21,-244,0,0,0,0,0,0,0,0,0,-1,1203,1268,0,0
-14,-244,0,0,0,0,0,0,0,0,0,-1,1210,1268,0,0
-7,-244,0,0,0,0,0,0,0,0,0,-1,1217,1268,0,0
0,-244,0,0,0,0,0,0,0,0,0,-1,1224,1268,0,0
7,-244,0,0,0,0,0,0,0,0,0,-1,1231,1268,0,0
14,-244,0,0,0,0,0,0,0,0,0,-1,1238,1268,0,0
21,-244,0,0,0,0,0,0,0,0,0,-1,1245,1268,0,0
28,-244,0,0,0,0,0,0,0,0,0,-1,1252,1268,0,0
35,-244,0,0,0,0,0,0,0,0,0,-1,1259,1268,0,0
42,-244,0,0,0,0,0,0,0,0,0,-1,1266,1268,0,0
49,-244,0,0,0,0,0,0,0,0,0,-1,1273,1268,0,0
56,-244,0,0,0,0,0,0,0,0,0,-1,1280,1268,0,0
63,-244,0,0,0,0,0,0,0,0,0,-1,1287,1268,0,0
70,-244,0,0,0,0,0,0,0,0,0,-1,1294,1268,0,0
77,-244,0,0,0,0,0,0,0,0,0,-1,1301,1268,0,0
84,-244,0,0,0,0,0,0,0,0,0,-1,1308,1268,0,0
91,-244,0,0,0,0,0,0,0,0,0,-1,1315,1268,0,0
98,-244,0,0,0,0,0,0,0,0,0,-1,1322,1268,0,0
105,-244,0,0,0,0,0,0,0,0,0,-1,1329,1268,0,0
112,-244,0,0,0,0,0,0,0,0,0,-1,1336,1268,0,0
119,-244,0,0,0,0,0,0,0,0,0,-1,1343,1268,0,0
126,-244,0,0,0,0,0,0,0,0,0,-1,1350,1268,0,0
133,-244,0,0,0,0,0,0,0,0,0,-1,1357,1268,0,0
140,-244,0,0,0,0,0,0,0,0,0,-1,1364,1268,0,0
147,-244,0,0,0,0,0,0,0,0,0,-1,1371,1268,0,0
154,-244,0,0,0,0,0,0,0,0,0,-1,1378,1268,0,0
161,-244,0,0,0,0,0,0,0,0,0,-1,1385,1268,0,0
168,-244,0,0,0,0,0,0,0,0,0,-1,1392,1268,0,0
175,-244,0,0,0,0,0,0,0,0,0,-1,1399,1268,0,0
182,-244,0,0,0,0,0,0,0,0,0,-1,1406,1268,0,0
189,-244,0,0,0,0,0,0,0,0,0,-1,1413,1268,0,0
196,-244,0,0,0,0,0,0,0,0,0,-1,1420,1268,0,0
203,-244,0,0,0,0,0,0,0,0,0,-1,1427,1268,0,0
210,-244,0,0,0,0,0,0,0,0,0,-1,1434,1268,0,0
217,-244,0,0,0,0,0,0,0,0,0,-1,1441,1268,0,0
224,-244,0,0,0,0,0,0,0,0,0,-1,1448,1268,0,0
231,-244,0,0,0,0,0,0,0,0,0,-1,1455,1268,0,0
238,-244,0,0,0,0,0,0,0,0,0,-1,1462,1268,0,0
245,-244,0,0,0,0,0,0,0,0,0,-1,1469,1268,0,0
252,-244,0,0,0,0,0,0,0,0,0,-1,1476,1268,0,0
259,-244,0,0,0,0,0,0,0,0,0,-1,1483,1268,0,0
266,-244,0,0,0,0,0,0,0,0,0,-1,1490,1268,0,0
273,-244,0,0,0,0,0,0,0,0,0,-1,1497,1268,0,0
280,-244,0,0,0,0,0,0,0,0,0,-1,1504,1268,0,0
287,-244,0,0,0,0,0,0,0,0,0,-1,1511,1268,0,0
294,-244,0,0,0,0,0,0,0,0,0,-1,1518,1268,0,0
301,-244,0,0,0,0,0,0,0,0,0,-1,1525,1268,0,0
308,-244,0,0,0,0,0,0,0,0,0,-1,1532,1268,0,0
315,-244,0,0,0,0,0,0,0,0,0,-1,1539,1268,0,0
322,-244,0,0,0,0,0,0,0,0,0,-1,1546,1268,0,0
329,-244,0,0,0,0,0,0,0,0,0,-1,1553,1268,0,0
336,-244,0,0,0,0,0,0,0,0,0,-1,1560,1268,0,0
343,-244,0,0,0,0,0,0,0,0,0,-1,1567,1268,0,0
350,-244,0,0,0,0,0,0,0,0,0,-1,1574,1268,0,0
357,-244,0,0,0,0,0,0,0,0,0,-1,1581,1268,0,0
364,-244,0,0,0,0,0,0,0,0,0,-1,1588,1268,0,0
371,-244,0,0,0,0,0,0,0,0,0,-1,1595,1268,0,0
378,-244,0,0,0,0,0,0,0,0,0,-1,1602,1268,0,0
385,-244,0,0,0,0,0,0,0,0,0,-1,1609,1268,0,0
392,-244,0,0,0,0,0,0,0,0,0,-1,1616,1268,0,0
399,-244,0,0,0,0,0,0,0,0,0,-1,1623,1268,0,0
406,-244,0,0,0,0,0,0,0,0,0,-1,1630,1268,0,0
413,-244,0,0,0,0,0,0,0,0,0,-1,1637,1268,0,0
420,-244,0,0,0,0,0,0,0,0,0,-1,1644,1268,0,0
427,-244,0,0,0,0,0,0,0,0,0,-1,1651,1268,0,0
434,-244,0,0,0,0,0,0,0,0,0,-1,1658,1268,0,0
441,-244,0,0,0,0,0,0,0,0,0,-1,1665,1268,0,0
448,-244,0,0,0,0,0,0,0,0,0,-1,1672,1268,0,0
455,-244,0,0,0,0,0,0,0,0,0,-1,1679,1268,0,0
462,-244,0,0,0,0,0,0,0,0,0,-1,1686,1268,0,0
469,-244,0,0,0,0,0,0,0,0,0,-1,1693,1268,0,0
476,-244,0,0,0,0,0,0,0,0,0,-1,1700,1268,0,0
483,-244,0,0,0,0,0,0,0,0,0,-1,1707,1268,0,0
490,-244,0,0,0,0,0,0,0,0,0,-1,1714,1268,0,0
497,-244,0,0,0,0,0,0,0,0,0,-1,1721,1268,0,0
504,-244,0,0,0,0,0,0,0,0,0,-1,1728,1268,0,0
511,-244,0,0,0,0,0,0,0,0,0,-1,1735,1268,0,0
518,-244,0,0,0,0,0,0,0,0,0,-1,1742,1268,0,0
525,-244,0,0,0,0,0,0,0,0,0,-1,1749,1268,0,0
532,-244,0,0,0,0,0,0,0,0,0,-1,1756,1268,0,0
539,-244,0,0,0,0,0,0,0,0,0,-1,1763,1268,0,0
546,-244,0,0,0,0,0,0,0,0,0,-1,1770,1268,0,0
553,-244,0,0,0,0,0,0,0,0,0,-1,1777,1268,0,0
560,-244,0,0,0,0,0,0,0,0,0,-1,1784,1268,0,0
567,-244,0,0,0,0,0,0,0,0,0,-1,1791,1268,0,0
574,-244,0,0,0,0,0,0,0,0,0,-1,1798,1268,0,0
581,-244,0,0,0,0,0,0,0,0,0,-1,1805,1268,0,0
588,-244,0,0,0,0,0,0,0,0,0,-1,1812,1268,0,0
595,-244,0,0,0,0,0,0,0,0,0,-1,1819,1268,0,0
602,-244,0,0,0,0,0,0,0,0,0,-1,1826,1268,0,0
609,-244,0,0,0,0,0,0,0,0,0,-1,1833,1268,0,0
616,-244,44.4448,2.72485,-0.00168129,0.00855565,-0.00142886,0.00875134,-0.00187699,-1.43468,0.00655016,0.0332887,1840,1268,44.4449,-2.72488
623,-244,44.4121,2.7782,-0.00785277,0.00859246,-0.00109323,0.00866482,-0.00792513,-1.50471,0.00958138,0.0280316,1847,1268,44.4122,-2.77814
630,-244,44.4141,2.82813,-0.0129733,0.00784732,-0.00104046,0.00789918,-0.0130251,-1.52099,0.0122009,0.0255724,1854,1268,44.4141,-2.82819
637,-244,44.3127,2.72485,-0.0147251,0.00641407,-0.00118298,0.00648007,-0.0147911,-1.51507,0.0125895,0.0400058,1861,1268,44.3127,-2.72484
644,-244,43.9739,2.38269,-0.0126406,0.00501396,-0.00102165,0.00507289,-0.0126995,-1.51318,0.0105711,0.0462328,1868,1268,43.9739,-2.38275
651,-244,43.6757,2.05981,-0.0103409,0.00400318,-0.00109851,0.00408682,-0.0104245,-1.4948,0.00864037,0.0477146,1875,1268,43.6757,-2.05976
658,-244,43.3719,1.64136,0,0,0,0,0,0,0,-1,1882,1268,43.372,-1.6414
665,-244,44.809,3.75134,0,0,0,0,0,0,0,-1,1889,1268,44.809,-3.75139
672,-244,32.224,3.6123,0,0,0,0,0,0,0,-1,1896,1268,32.224,-3.6123
679,-244,27.2593,7.90649,0,0,0,0,0,0,0,-1,1903,1268,27.2592,-7.9065
686,-244,33.9814,9.66223,0,0,0,0,0,0,0,-1,1910,1268,33.9814,-9.66223
693,-244,33.9513,9.16345,-0.00125962,-0.000675438,-0.00047347,-0.000411209,-0.00152384,-1.06178,0.00091033,0.0242207,1917,1268,33.9512,-9.16342
700,-244,33.9694,8.66016,0.00118594,-0.000854389,-0.000361798,0.0012482,-0.000916645,-0.170404,0.00125475,0.00908965,1924,1268,33.9693,-8.66012
707,-244,33.9917,8.24475,0.00178438,-0.000519265,-2.4756e-05,0.00178464,-0.000519531,-0.0107448,0.00139556,0.0104903,1931,1268,33.9917,-8.24471
714,-244,34.0176,7.82117,0.0010396,-0.000635431,0.000588748,0.00122583,-0.000821662,0.306358,0.00118977,0.0134844,1938,1268,34.0176,-7.82116
721,-244,33.9595,7.41589,0.000786311,-0.000659733,0.00116124,0.00143122,-0.00130464,0.506951,0.00158011,0.0182368,1945,1268,33.9595,-7.41592
728,-244,33.9631,7.00415,0.000744551,-0.000562042,0.0017506,0.00195979,-0.00177728,0.60681,0.00215845,0.0227288,1952,1268,33.9632,-7.00421
735,-244,33.9457,6.57617,0.00120223,-0.000509111,0.00238778,0.00288303,-0.00218991,0.61335,0.00293796,0.0255944,1959,1268,33.9457,-6.57619
742,-244,33.8851,6.22705,0.00230022,-0.000462558,0.00306104,0.00427714,-0.00243947,0.573439,0.00392592,0.0170637,1966,1268,33.8851,-6.22708
749,-244,33.7612,5.89343,0.00436138,-0.000440266,0.00387009,0.00651485,-0.00259373,0.507773,0.00541883,0.0224282,1973,1268,33.7612,-5.89344
756,-244,33.6215,5.59949,0.00787664,-0.000354331,0.00459029,0.00992621,-0.00240391,0.419942,0.00754748,0.0306887,1980,1268,33.6215,-5.59946
763,-244,33.6716,5.18372,0.0132903,-0.000225014,0.00532987,0.0151393,-0.00207395,0.333911,0.0108504,0.0441646,1987,1268,33.6716,-5.18371
770,-244,33.9821,4.52319,0,0,0,0,0,0,0,-1,1994,1268,33.9821,-4.52317
777,-244,34.4386,4.35889,0,0,0,0,0,0,0,-1,2001,1268,34.4386,-4.35888
784,-244,31.7908,5.20081,0,0,0,0,0,0,0,-1,2008,1268,31.7907,-5.20083
791,-244,0,0,0,0,0,0,0,0,0,-1,2015,1268,0,0
798,-244,0,0,0,0,0,0,0,0,0,-1,2022,1268,0,0
805,-244,0,0,0,0,0,0,0,0,0,-1,2029,1268,0,0
812,-244,0,0,0,0,0,0,0,0,0,-1,2036,1268,0,0
-700,-251,0,0,0,0,0,0,0,0,0,-1,524,1275,0,0
-693,-251,0,0,0,0,0,0,0,0,0,-1,531,1275,0,0
-686,-251,0,0,0,0,0,0,0,0,0,-1,538,1275,0,0
-679,-251,0,0,0,0,0,0,0,0,0,-1,545,1275,0,0
-672,-251,0,0,0,0,0,0,0,0,0,-1,552,1275,0,0
-665,-251,-20.993,4.27515,0,0,0,0,0,0,0,-1,559,1275,-20.993,-4.2752
-658,-251,-23.7194,2.79553,0,0,0,0,0,0,0,-1,566,1275,-23.7194,-2.79554
-651,-251,-20.6763,-0.483032,0,0,0,0,0,0,0,-1,573,1275,-20.6763,0.483012
-644,-251,-20.5963,0.301636,0,0,0,0,0,0,0,-1,580,1275,-20.5963,-0.30168
-637,-251,-21.1573,1.49084,0,0,0,0,0,0,0,-1,587,1275,-21.1573,-1.49086
-630,-251,-21.0184,2.07288,0.0274071,0.0342331,0.0133854,0.0446338,0.0170064,0.910228,0.0260114,0.0495899,594,1275,-21.0184,-2.07284
-623,-251,-20.8842,2.68408,0.0185026,0.0216114,0.0116489,0.0318092,0.0083048,0.851725,0.0190511,0.0385472,601,1275,-20.8842,-2.6841
-616,-251,-20.7338,3.25647,0.0119168,0.0110578,0.00950883,0.0210058,0.0019688,0.762828,0.0133959,0.0203143,608,1275,-20.7337,-3.25644
-609,-251,-20.7643,3.71765,0.00711325,0.00686398,0.0071782,0.0141679,-0.000190669,0.776718,0.00950946,0.0192923,615,1275,-20.7644,-3.7176
-602,-251,-20.7846,4.16882,0.00433204,0.00409433,0.0050976,0.00931217,-0.000885802,0.773742,0.00652346,0.0148502,622,1275,-20.7846,-4.16879
-595,-251,-20.7846,4.62695,0.00348571,0.00234147,0.00342878,0.00638977,-0.000562598,0.702731,0.00445923,0.014157,629,1275,-20.7846,-4.627
-588,-251,-20.7861,5.07654,0.00307138,0.00103115,0.00225352,0.00452493,-0.000422395,0.57286,0.00316682,0.0165322,636,1275,-20.786,-5.07651
-581,-251,-20.7908,5.55359,0.00280256,4.859e-05,0.00160509,0.00354038,-0.000689232,0.430871,0.00262039,0.0149807,643,1275,-20.7908,-5.55357
-574,-251,-20.7911,6.047,0.00251577,-0.000474616,0.00153478,0.00316327,-0.00112212,0.399231,0.00256602,0.0133331,650,1275,-20.7911,-6.04697
-567,-251,-20.8013,6.50146,0.00247145,-0.00038502,0.00177281,0.00331978,-0.00123334,0.446315,0.00271919,0.0130043,657,1275,-20.8013,-6.50145
-560,-251,-20.7272,7.04199,0.00234034,0.000632566,0.00195661,0.00362127,-0.000648361,0.579649,0.0026568,0.0319625,664,1275,-20.7272,-7.04196
-553,-251,-20.5581,7.54468,0,0,0,0,0,0,0,-1,671,1275,-20.5581,-7.54466
-546,-251,-12.995,4.5675,0,0,0,0,0,0,0,-1,678,1275,-12.995,-4.56745
-539,-251,-10.7916,0.366333,0,0,0,0,0,0,0,-1,685,1275,-10.7916,-0.366282
-532,-251,-10.7391,-0.00769043,0,0,0,0,0,0,0,-1,692,1275,-10.7391,0.00773227
-525,-251,-29.4286,-0.250244,0,0,0,0,0,0,0,-1,699,1275,-29.4286,0.250266
-518,-251,-29.4509,0.193359,0,0,0,0,0,0,0,-1,706,1275,-29.4508,-0.193379
-511,-251,-29.4731,0.637085,0,0,0,0,0,0,0,-1,713,1275,-29.4731,-0.637025
-504,-251,-30.6428,0.792358,0,0,0,0,0,0,0,-1,720,1275,-30.6427,-0.792335
-497,-251,-32.7617,1.40979,0,0,0,0,0,0,0,-1,727,1275,-32.7617,-1.40979
-490,-251,0,0,0,0,0,0,0,0,0,-1,734,1275,0,0
-483,-251,0,0,0,0,0,0,0,0,0,-1,741,1275,0,0
-476,-251,0,0,0,0,0,0,0,0,0,-1,748,1275,0,0
-469,-251,0,0,0,0,0,0,0,0,0,-1,755,1275,0,0
-462,-251,0,0,0,0,0,0,0,0,0,-1,762,1275,0,0
-455,-251,0,0,0,0,0,0,0,0,0,-1,769,1275,0,0
-448,-251,0,0,0,0,0,0,0,0,0,-1,776,1275,0,0
-441,-251,0,0,0,0,0,0,0,0,0,-1,783,1275,0,0
-434,-251,0,0,0,0,0,0,0,0,0,-1,790,1275,0,0
-427,-251,0,0,0,0,0,0,0,0,0,-1,797,1275,0,0
-420,-251,0,0,0,0,0,0,0,0,0,-1,804,1275,0,0
-413,-251,0,0,0,0,0,0,0,0,0,-1,811,1275,0,0
-406,-251,0,0,0,0,0,0,0,0,0,-1,818,1275,0,0
-399,-251,0,0,0,0,0,0,0,0,0,-1,825,1275,0,0
-392,-251,0,0,0,0,0,0,0,0,0,-1,832,1275,0,0
-385,-251,0,0,0,0,0,0,0,0,0,-1,839,1275,0,0
-378,-251,0,0,0,0,0,0,0,0,0,-1,846,1275,0,0
-371,-251,0,0,0,0,0,0,0,0,0,-1,853,1275,0,0
-364,-251,0,0,0,0,0,0,0,0,0,-1,860,1275,0,0
-357,-251,0,0,0,0,0,0,0,0,0,-1,867,1275,0,0
-350,-251,0,0,0,0,0,0,0,0,0,-1,874,1275,0,0
-343,-251,0,0,0,0,0,0,0,0,0,-1,881,1275,0,0
-336,-251,0,0,0,0,0,0,0,0,0,-1,888,1275,0,0
-329,-251,0,0,0,0,0,0,0,0,0,-1,895,1275,0,0
-322,-251,0,0,0,0,0,0,0,0,0,-1,902,1275,0,0
-315,-251,0,0,0,0,0,0,0,0,0,-1,909,1275,0,0
-308,-251,0,0,0,0,0,0,0,0,0,-1,916,1275,0,0
-301,-251,0,0,0,0,0,0,0,0,0,-1,923,1275,0,0
-294,-251,0,0,0,0,0,0,0,0,0,-1,930,1275,0,0
-287,-251,0,0,0,0,0,0,0,0,0,-1,937,1275,0,0
-280,-251,0,0,0,0,0,0,0,0,0,-1,944,1275,0,0
-273,-251,0,0,0,0,0,0,0,0,0,-1,951,1275,0,0
-266,-251,0,0,0,0,0,0,0,0,0,-1,958,1275,0,0
-259,-251,0,0,0,0,0,0,0,0,0,-1,965,1275,0,0
-252,-251,0,0,0,0,0,0,0,0,0,-1,972,1275,0,0
-245,-251,0,0,0,0,0,0,0,0,0,-1,979,1275,0,0
-238,-251,0,0,0,0,0,0,0,0,0,-1,986,1275,0,0
-231,-251,0,0,0,0,0,0,0,0,0,-1,993,1275,0,0
-224,-251,0,0,0,0,0,0,0,0,0,-1,1000,1275,0,0
-217,-251,0,0,0,0,0,0,0,0,0,-1,1007,1275,0,0
-210,-251,0,0,0,0,0,0,0,0,0,-1,1014,1275,0,0
-203,-251,0,0,0,0,0,0,0,0,0,-1,1021,1275,0,0
-196,-251,0,0,0,0,0,0,0,0,0,-1,1028,1275,0,0
-189,-251,0,0,0,0,0,0,0,0,0,-1,1035,1275,0,0
-182,-251,0,0,0,0,0,0,0,0,0,-1,1042,1275,0,0
-175,-251,0,0,0,0,0,0,0,0,0,-1,1049,1275,0,0
-168,-251,0,0,0,0,0,0,0,0,0,-1,1056,1275,0,0
-161,-251,0,0,0,0,0,0,0,0,0,-1,1063,1275,0,0
-154,-251,0,0,0,0,0,0,0,0,0,-1,1070,1275,0,0
-147,-251,0,0,0,0,0,0,0,0,0,-1,1077,1275,0,0
-140,-251,0,0,0,0,0,0,0,0,0,-1,1084,1275,0,0
-133,-251,0,0,0,0,0,0,0,0,0,-1,1091,1275,0,0
-126,-251,0,0,0,0,0,0,0,0,0,-1,1098,1275,0,0
-119,-251,0,0,0,0,0,0,0,0,0,-1,1105,1275,0,0
-112,-251,0,0,0,0,0,0,0,0,0,-1,1112,1275,0,0
-105,-251,0,0,0,0,0,0,0,0,0,-1,1119,1275,0,0
-98,-251,0,0,0,0,0,0,0,0,0,-1,1126,1275,0,0
-91,-251,0,0,0,0,0,0,0,0,0,-1,1133,1275,0,0
-84,-251,0,0,0,0,0,0,0,0,0,-1,1140,1275,0,0
-77,-251,0,0,0,0,0,0,0,0,0,-1,1147,1275,0,0
-70,-251,0,0,0,0,0,0,0,0,0,-1,1154,1275,0,0
-63,-251,0,0,0,0,0,0,0,0,0,-1,1161,1275,0,0
-56,-251,0,0,0,0,0,0,0,0,0,-1,1168,1275,0,0
-49,-251,0,0,0,0,0,0,0,0,0,-1,1175,1275,0,0
-42,-251,0,0,0,0,0,0,0,0,0,-1,1182,1275,0,0
-35,-251,0,0,0,0,0,0,0,0,0,-1,1189,1275,0,0
-28,-251,0,0,0,0,0,0,0,0,0,-1,1196,1275,0,0
-21,-251,0,0,0,0,0,0,0,0,0,-1,1203,1275,0,0
-14,-251,0,0,0,0,0,0,0,0,0,-1,1210,1275,0,0
-7,-251,0,0,0,0,0,0,0,0,0,-1,1217,1275,0,0
0,-251,0,0,0,0,0,0,0,0,0,-1,1224,1275,0,0
7,-251,0,0,0,0,0,0,0,0,0,-1,1231,1275,0,0
14,-251,0,0,0,0,0,0,0,0,0,-1,1238,1275,0,0
21,-251,0,0,0,0,0,0,0,0,0,-1,1245,1275,0,0
28,-251,0,0,0,0,0,0,0,0,0,-1,1252,1275,0,0
35,-251,0,0,0,0,0,0,0,0,0,-1,1259,1275,0,0
42,-251,0,0,0,0,0,0,0,0,0,-1,1266,1275,0,0
49,-251,0,0,0,0,0,0,0,0,0,-1,1273,1275,0,0
56,-251,0,0,0,0,0,0,0,0,0,-1,1280,1275,0,0
63,-251,0,0,0,0,0,0,0,0,0,-1,1287,1275,0,0
70,-251,0,0,0,0,0,0,0,0,0,-1,1294,1275,0,0
77,-251,0,0,0,0,0,0,0,0,0,-1,1301,1275,0,0
84,-251,0,0,0,0,0,0,0,0,0,-1,1308,1275,0,0
91,-251,0,0,0,0,0,0,0,0,0,-1,1315,1275,0,0
98,-251,0,0,0,0,0,0,0,0,0,-1,1322,1275,0,0
105,-251,0,0,0,0,0,0,0,0,0,-1,1329,1275,0,0
112,-251,0,0,0,0,0,0,0,0,0,-1,1336,1275,0,0
119,-251,0,0,0,0,0,0,0,0,0,-1,1343,1275,0,0
126,-251,0,0,0,0,0,0,0,0,0,-1,1350,1275,0,0
133,-251,0,0,0,0,0,0,0,0,0,-1,1357,1275,0,0
140,-251,0,0,0,0,0,0,0,0,0,-1,1364,1275,0,0
147,-251,0,0,0,0,0,0,0,0,0,-1,1371,1275,0,0
154,-251,0,0,0,0,0,0,0,0,0,-1,1378,1275,0,0
161,-251,0,0,0,0,0,0,0,0,0,-1,1385,1275,0,0
168,-251,0,0,0,0,0,0,0,0,0,-1,1392,1275,0,0
175,-251,0,0,0,0,0,0,0,0,0,-1,1399,1275,0,0
182,-251,0,0,0,0,0,0,0,0,0,-1,1406,1275,0,0
189,-251,0,0,0,0,0,0,0,0,0,-1,1413,1275,0,0
196,-251,0,0,0,0,0,0,0,0,0,-1,1420,1275,0,0
203,-251,0,0,0,0,0,0,0,0,0,-1,1427,1275,0,0
210,-251,0,0,0,0,0,0,0,0,0,-1,1434,1275,0,0
217,-251,0,0,0,0,0,0,0,0,0,-1,1441,1275,0,0
224,-251,0,0,0,0,0,0,0,0,0,-1,1448,1275,0,0
231,-251,0,0,0,0,0,0,0,0,0,-1,1455,1275,0,0
238,-251,0,0,0,0,0,0,0,0,0,-1,1462,1275,0,0
245,-251,0,0,0,0,0,0,0,0,0,-1,1469,1275,0,0
252,-251,0,0,0,0,0,0,0,0,0,-1,1476,1275,0,0
259,-251,0,0,0,0,0,0,0,0,0,-1,1483,1275,0,0
266,-251,0,0,0,0,0,0,0,0,0,-1,1490,1275,0,0
273,-251,0,0,0,0,0,0,0,0,0,-1,1497,1275,0,0
280,-251,0,0,0,0,0,0,0,0,0,-1,1504,1275,0,0
287,-251,0,0,0,0,0,0,0,0,0,-1,1511,1275,0,0
294,-251,0,0,0,0,0,0,0,0,0,-1,1518,1275,0,0
301,-251,0,0,0,0,0,0,0,0,0,-1,1525,1275,0,0
308,-251,0,0,0,0,0,0,0,0,0,-1,1532,1275,0,0
315,-251,0,0,0,0,0,0,0,0,0,-1,1539,1275,0,0
322,-251,0,0,0,0,0,0,0,0,0,-1,1546,1275,0,0
329,-251,0,0,0,0,0,0,0,0,0,-1,1553,1275,0,0
336,-251,0,0,0,0,0,0,0,0,0,-1,1560,1275,0,0
343,-251,0,0,0,0,0,0,0,0,0,-1,1567,1275,0,0
350,-251,0,0,0,0,0,0,0,0,0,-1,1574,1275,0,0
357,-251,0,0,0,0,0,0,0,0,0,-1,1581,1275,0,0
364,-251,0,0,0,0,0,0,0,0,0,-1,1588,1275,0,0
371,-251,0,0,0,0,0,0,0,0,0,-1,1595,1275,0,0
378,-251,0,0,0,0,0,0,0,0,0,-1,1602,1275,0,0
385,-251,0,0,0,0,0,0,0,0,0,-1,1609,1275,0,0
392,-251,0,0,0,0,0,0,0,0,0,-1,1616,1275,0,0
399,-251,0,0,0,0,0,0,0,0,0,-1,1623,1275,0,0
406,-251,0,0,0,0,0,0,0,0,0,-1,1630,1275,0,0
413,-251,0,0,0,0,0,0,0,0,0,-1,1637,1275,0,0
420,-251,0,0,0,0,0,0,0,0,0,-1,1644,1275,0,0
427,-251,0,0,0,0,0,0,0,0,0,-1,1651,1275,0,0
434,-251,0,0,0,0,0,0,0,0,0,-1,1658,1275,0,0
441,-251,0,0,0,0,0,0,0,0,0,-1,1665,1275,0,0
448,-251,0,0,0,0,0,0,0,0,0,-1,1672,1275,0,0
455,-251,0,0,0,0,0,0,0,0,0,-1,1679,1275,0,0
462,-251,0,0,0,0,0,0,0,0,0,-1,1686,1275,0,0
469,-251,0,0,0,0,0,0,0,0,0,-1,1693,1275,0,0
476,-251,0,0,0,0,0,0,0,0,0,-1,1700,1275,0,0
483,-251,0,0,0,0,0,0,0,0,0,-1,1707,1275,0,0
490,-251,0,0,0,0,0,0,0,0,0,-1,1714,1275,0,0
497,-251,0,0,0,0,0,0,0,0,0,-1,1721,1275,0,0
504,-251,0,0,0,0,0,0,0,0,0,-1,1728,1275,0,0
511,-251,0,0,0,0,0,0,0,0,0,-1,1735,1275,0,0
518,-251,0,0,0,0,0,0,0,0,0,-1,1742,1275,0,0
525,-251,0,0,0,0,0,0,0,0,0,-1,1749,1275,0,0
532,-251,0,0,0,0,0,0,0,0,0,-1,1756,1275,0,0
539,-251,0,0,0,0,0,0,0,0,0,-1,1763,1275,0,0
546,-251,0,0,0,0,0,0,0,0,0,-1,1770,1275,0,0
553,-251,0,0,0,0,0,0,0,0,0,-1,1777,1275,0,0
560,-251,0,0,0,0,0,0,0,0,0,-1,1784,1275,0,0
567,-251,0,0,0,0,0,0,0,0,0,-1,1791,1275,0,0
574,-251,0,0,0,0,0,0,0,0,0,-1,1798,1275,0,0
581,-251,0,0,0,0,0,0,0,0,0,-1,1805,1275,0,0
588,-251,0,0,0,0,0,0,0,0,0,-1,1812,1275,0,0
595,-251,0,0,0,0,0,0,0,0,0,-1,1819,1275,0,0
602,-251,0,0,0,0,0,0,0,0,0,-1,1826,1275,0,0
609,-251,44.434,2.72888,-0.000743778,0.00904255,-0.00270497,0.00974044,-0.00144167,-1.3183,0.00702368,0.0310738,1833,1275,44.434,-2.72889
616,-251,44.4128,2.76245,-0.00740089,0.00942343,-0.00180506,0.00961491,-0.00759237,-1.46511,0.00995748,0.0270284,1840,1275,44.4128,-2.7624
623,-251,44.3792,2.79614,-0.0139334,0.00931994,-0.00127932,0.00939011,-0.0140036,-1.516,0.0135936,0.0244143,1847,1275,44.3792,-2.79611
630,-251,44.3687,2.76355,-0.0179344,0.00829839,-0.00110188,0.00834459,-0.0179806,-1.52889,0.0155345,0.0372046,1854,1275,44.3686,-2.76355
637,-251,44.3475,2.64648,-0.0175259,0.00659491,-0.00109418,0.00664444,-0.0175755,-1.52556,0.0144503,0.0413411,1861,1275,44.3475,-2.64649
644,-251,43.9235,2.64087,-0.0145535,0.0051659,-0.000922025,0.00520892,-0.0145965,-1.52417,0.0118551,0.0427741,1868,1275,43.9235,-2.6409
651,-251,43.5276,2.41418,-0.0119105,0.00411238,-0.000952698,0.00416883,-0.011967,-1.51162,0.00967186,0.0493597,1875,1275,43.5275,-2.41413
658,-251,43.3821,2.00269,0,0,0,0,0,0,0,-1,1882,1275,43.3821,-2.00272
665,-251,32.9579,2.60229,0,0,0,0,0,0,0,-1,1889,1275,32.9579,-2.60231
672,-251,26.0721,4.53064,0,0,0,0,0,0,0,-1,1896,1275,26.0721,-4.53063
679,-251,29.1344,8.63782,0,0,0,0,0,0,0,-1,1903,1275,29.1344,-8.63778
686,-251,33.6459,9.52747,0,0,0,0,0,0,0,-1,1910,1275,33.6459,-9.52752
693,-251,33.5933,9.11926,-0.00157696,-0.0010769,-0.000362419,-0.000886634,-0.00176723,-1.08735,0.00102031,0.0133985,1917,1275,33.5933,-9.11926
700,-251,33.5659,8.68689,0.0010188,-0.0011265,-0.000267186,0.00105158,-0.00115927,-0.122061,0.00127694,0.0086773,1924,1275,33.566,-8.68688
707,-251,33.5841,8.25232,0.00154086,-0.000638155,6.89915e-05,0.00154304,-0.000640337,0.0316196,0.00129599,0.0108924,1931,1275,33.5841,-8.25237
714,-251,33.5852,7.83533,0.000753221,-0.000697756,0.000639382,0.000994761,-0.000939296,0.361197,0.00111678,0.0136607,1938,1275,33.5852,-7.83533
721,-251,33.5143,7.44495,0.000458454,-0.000640921,0.00118844,0.00121817,-0.00140064,0.568787,0.0015132,0.0195293,1945,1275,33.5143,-7.44496
728,-251,33.5234,7.06934,0.000320294,-0.000557963,0.00179165,0.00172585,-0.00196352,0.665219,0.00213153,0.0219752,1952,1275,33.5235,-7.0693
735,-251,33.5311,6.61243,0.00062533,-0.000543972,0.00248051,0.00258916,-0.0025078,0.669662,0.00294286,0.0182087,1959,1275,33.5311,-6.61242
742,-251,33.4512,6.26514,0.00154269,-0.000561166,0.00322945,0.00388721,-0.00290569,0.627952,0.00393551,0.0177604,1966,1275,33.4512,-6.26509
749,-251,33.2209,6.00635,0.00344468,-0.000650784,0.00417933,0.00605099,-0.00325709,0.557604,0.00545412,0.0334673,1973,1275,33.221,-6.00638
756,-251,32.9984,5.65881,0.00679763,-0.000725159,0.00507282,0.00935143,-0.00327896,0.466385,0.00756788,0.0488631,1980,1275,32.9985,-5.65884
763,-251,33.1565,5.52612,0.0120578,-0.00086336,0.00606141,0.0144561,-0.00326167,0.376767,0.0108887,0.0496995,1987,1275,33.1564,-5.52608
770,-251,33.717,4.90881,0,0,0,0,0,0,0,-1,1994,1275,33.7171,-4.90885
777,-251,31.5731,4.33252,0,0,0,0,0,0,0,-1,2001,1275,31.5731,-4.33251
784,-251,32.0776,5.78247,0,0,0,0,0,0,0,-1,2008,1275,32.0776,-5.78247
791,-251,0,0,0,0,0,0,0,0,0,-1,2015,1275,0,0
798,-251,0,0,0,0,0,0,0,0,0,-1,2022,1275,0,0
805,-251,0,0,0,0,0,0,0,0,0,-1,2029,1275,0,0
812,-251,0,0,0,0,0,0,0,0,0,-1,2036,1275,0,0
-700,-258,0,0,0,0,0,0,0,0,0,-1,524,1282,0,0
-693,-258,0,0,0,0,0,0,0,0,0,-1,531,1282,0,0
-686,-258,0,0,0,0,0,0,0,0,0,-1,538,1282,0,0
-679,-258,0,0,0,0,0,0,0,0,0,-1,545,1282,0,0
-672,-258,0,0,0,0,0,0,0,0,0,-1,552,1282,0,0
-665,-258,-20.7346,4.88318,0,0,0,0,0,0,0,-1,559,1282,-20.7345,-4.88316
-658,-258,-21.545,6.01331,0,0,0,0,0,0,0,-1,566,1282,-21.545,-6.01331
-651,-258,-21.2513,-0.901245,0,0,0,0,0,0,0,-1,573,1282,-21.2513,0.901221
-644,-258,-20.8941,-0.0340576,0,0,0,0,0,0,0,-1,580,1282,-20.8941,0.0340716
-637,-258,-20.7496,0.923828,0,0,0,0,0,0,0,-1,587,1282,-20.7496,-0.92382
-630,-258,-20.6909,1.87012,0,0,0,0,0,0,0,-1,594,1282,-20.6909,-1.87011
-623,-258,-20.5137,2.52808,0,0,0,0,0,0,0,-1,601,1282,-20.5137,-2.52807
-616,-258,-20.2661,3.12219,0.01269,0.0119957,0.0118547,0.0242027,0.000483071,0.77076,0.0159765,0.0354699,608,1282,-20.2661,-3.12221
-609,-258,-20.2784,3.69983,0.00769098,0.00769354,0.00897846,0.0166707,-0.0012862,0.785469,0.0115664,0.0171124,615,1282,-20.2784,-3.69988
-602,-258,-20.3027,4.16528,0.00475912,0.00485362,0.00647804,0.0112846,-0.00167184,0.789045,0.00813778,0.0143374,622,1282,-20.3027,-4.16529
-595,-258,-20.2946,4.63965,0.00369704,0.00302489,0.00445268,0.00782631,-0.00110437,0.747731,0.00562194,0.0127767,629,1282,-20.2946,-4.63961
-588,-258,-20.316,5.10938,0.00311649,0.00154523,0.00294006,0.00537408,-0.00071236,0.654841,0.00384225,0.0134876,636,1282,-20.316,-5.10936
-581,-258,-20.3149,5.56116,0.00279206,0.000367999,0.00194531,0.00387203,-0.000711969,0.506799,0.00284849,0.0142727,643,1282,-20.315,-5.56112
-574,-258,-20.2905,6.02844,0.00261031,-0.000388991,0.00147259,0.00321244,-0.000991122,0.388148,0.00253737,0.0140049,650,1282,-20.2906,-6.0284
-567,-258,-20.3273,6.50659,0.00270672,-0.000593464,0.00135751,0.00319336,-0.00108011,0.344211,0.00256588,0.0147756,657,1282,-20.3273,-6.50664
-560,-258,-20.3142,6.95862,0.00257433,0.000264588,0.00155076,0.003353,-0.000514083,0.465344,0.00242493,0.0353279,664,1282,-20.3142,-6.95861
-553,-258,-20.2106,7.41431,0,0,0,0,0,0,0,-1,671,1282,-20.2106,-7.41435
-546,-258,-14.2231,5.92029,0,0,0,0,0,0,0,-1,678,1282,-14.2231,-5.92028
-539,-258,-10.2228,4.05823,0,0,0,0,0,0,0,-1,685,1282,-10.2228,-4.05823
-532,-258,-10.2173,-0.353882,0,0,0,0,0,0,0,-1,692,1282,-10.2173,0.353836
-525,-258,-21.8661,-1.5929,0,0,0,0,0,0,0,-1,699,1282,-21.8661,1.59285
-518,-258,-29.2484,0.123169,0,0,0,0,0,0,0,-1,706,1282,-29.2484,-0.123186
-511,-258,-23.5061,1.16833,0,0,0,0,0,0,0,-1,713,1282,-23.5061,-1.16833
-504,-258,-22.9178,0.484131,0,0,0,0,0,0,0,-1,720,1282,-22.9178,-0.484106
-497,-258,-17.8047,0.730469,0,0,0,0,0,0,0,-1,727,1282,-17.8048,-0.730489
-490,-258,-15.4346,0.632935,0,0,0,0,0,0,0,-1,734,1282,-15.4346,-0.632917
-483,-258,0,0,0,0,0,0,0,0,0,-1,741,1282,0,0
-476,-258,0,0,0,0,0,0,0,0,0,-1,748,1282,0,0
-469,-258,0,0,0,0,0,0,0,0,0,-1,755,1282,0,0
-462,-258,0,0,0,0,0,0,0,0,0,-1,762,1282,0,0
-455,-258,0,0,0,0,0,0,0,0,0,-1,769,1282,0,0
-448,-258,0,0,0,0,0,0,0,0,0,-1,776,1282,0,0
-441,-258,0,0,0,0,0,0,0,0,0,-1,783,1282,0,0
-434,-258,0,0,0,0,0,0,0,0,0,-1,790,1282,0,0
-427,-258,0,0,0,0,0,0,0,0,0,-1,797,1282,0,0
-420,-258,0,0,0,0,0,0,0,0,0,-1,804,1282,0,0
-413,-258,0,0,0,0,0,0,0,0,0,-1,811,1282,0,0
-406,-258,0,0,0,0,0,0,0,0,0,-1,818,1282,0,0
-399,-258,0,0,0,0,0,0,0,0,0,-1,825,1282,0,0
-392,-258,0,0,0,0,0,0,0,0,0,-1,832,1282,0,0
-385,-258,0,0,0,0,0,0,0,0,0,-1,839,1282,0,0
-378,-258,0,0,0,0,0,0,0,0,0,-1,846,1282,0,0
-371,-258,0,0,0,0,0,0,0,0,0,-1,853,1282,0,0
-364,-258,0,0,0,0,0,0,0,0,0,-1,860,1282,0,0
-357,-258,0,0,0,0,0,0,0,0,0,-1,867,1282,0,0
-350,-258,0,0,0,0,0,0,0,0,0,-1,874,1282,0,0
-343,-258,0,0,0,0,0,0,0,0,0,-1,881,1282,0,0
-336,-258,0,0,0,0,0,0,0,0,0,-1,888,1282,0,0
-329,-258,0,0,0,0,0,0,0,0,0,-1,895,1282,0,0
-322,-258,0,0,0,0,0,0,0,0,0,-1,902,1282,0,0
-315,-258,0,0,0,0,0,0,0,0,0,-1,909,1282,0,0
-308,-258,0,0,0,0,0,0,0,0,0,-1,916,1282,0,0
-301,-258,0,0,0,0,0,0,0,0,0,-1,923,1282,0,0
-294,-258,0,0,0,0,0,0,0,0,0,-1,930,1282,0,0
-287,-258,0,0,0,0,0,0,0,0,0,-1,937,1282,0,0
-280,-258,0,0,0,0,0,0,0,0,0,-1,944,1282,0,0
-273,-258,0,0,0,0,0,0,0,0,0,-1,951,1282,0,0
-266,-258,0,0,0,0,0,0,0,0,0,-1,958,1282,0,0
-259,-258,0,0,0,0,0,0,0,0,0,-1,965,1282,0,0
-252,-258,0,0,0,0,0,0,0,0,0,-1,972,1282,0,0
-245,-258,0,0,0,0,0,0,0,0,0,-1,979,1282,0,0
-238,-258,0,0,0,0,0,0,0,0,0,-1,986,1282,0,0
-231,-258,0,0,0,0,0,0,0,0,0,-1,993,1282,0,0
-224,-258,0,0,0,0,0,0,0,0,0,-1,1000,1282,0,0
-217,-258,0,0,0,0,0,0,0,0,0,-1,1007,1282,0,0
-210,-258,0,0,0,0,0,0,0,0,0,-1,1014,1282,0,0
-203,-258,0,0,0,0,0,0,0,0,0,-1,1021,1282,0,0
-196,-258,0,0,0,0,0,0,0,0,0,-1,1028,1282,0,0
-189,-258,0,0,0,0,0,0,0,0,0,-1,1035,1282,0,0
-182,-258,0,0,0,0,0,0,0,0,0,-1,1042,1282,0,0
-175,-258,0,0,0,0,0,0,0,0,0,-1,1049,1282,0,0
-168,-258,0,0,0,0,0,0,0,0,0,-1,1056,1282,0,0
-161,-258,0,0,0,0,0,0,0,0,0,-1,1063,1282,0,0
-154,-258,0,0,0,0,0,0,0,0,0,-1,1070,1282,0,0
-147,-258,0,0,0,0,0,0,0,0,0,-1,1077,1282,0,0
-140,-258,0,0,0,0,0,0,0,0,0,-1,1084,1282,0,0
-133,-258,0,0,0,0,0,0,0,0,0,-1,1091,1282,0,0
-126,-258,0,0,0,0,0,0,0,0,0,-1,1098,1282,0,0
-119,-258,0,0,0,0,0,0,0,0,0,-1,1105,1282,0,0
-112,-258,0,0,0,0,0,0,0,0,0,-1,1112,1282,0,0
-105,-258,0,0,0,0,0,0,0,0,0,-1,1119,1282,0,0
-98,-258,0,0,0,0,0,0,0,0,0,-1,1126,1282,0,0
-91,-258,0,0,0,0,0,0,0,0,0,-1,1133,1282,0,0
-84,-258,0,0,0,0,0,0,0,0,0,-1,1140,1282,0,0
-77,-258,0,0,0,0,0,0,0,0,0,-1,1147,1282,0,0
-70,-258,0,0,0,0,0,0,0,0,0,-1,1154,1282,0,0
-63,-258,0,0,0,0,0,0,0,0,0,-1,1161,1282,0,0
-56,-258,0,0,0,0,0,0,0,0,0,-1,1168,1282,0,0
-49,-258,0,0,0,0,0,0,0,0,0,-1,1175,1282,0,0
-42,-258,0,0,0,0,0,0,0,0,0,-1,1182,1282,0,0
-35,-258,0,0,0,0,0,0,0,0,0,-1,1189,1282,0,0
-28,-258,0,0,0,0,0,0,0,0,0,-1,1196,1282,0,0
-21,-258,0,0,0,0,0,0,0,0,0,-1,1203,1282,0,0
-14,-258,0,0,0,0,0,0,0,0,0,-1,1210,1282,0,0
-7,-258,0,0,0,0,0,0,0,0,0,-1,1217,1282,0,0
0,-258,0,0,0,0,0,0,0,0,0,-1,1224,1282,0,0
7,-258,0,0,0,0,0,0,0,0,0,-1,1231,1282,0,0
14,-258,0,0,0,0,0,0,0,0,0,-1,1238,1282,0,0
21,-258,0,0,0,0,0,0,0,0,0,-1,1245,1282,0,0
28,-258,0,0,0,0,0,0,0,0,0,-1,1252,1282,0,0
35,-258,0,0,0,0,0,0,0,0,0,-1,1259,1282,0,0
42,-258,0,0,0,0,0,0,0,0,0,-1,1266,1282,0,0
49,-258,0,0,0,0,0,0,0,0,0,-1,1273,1282,0,0
56,-258,0,0,0,0,0,0,0,0,0,-1,1280,1282,0,0
63,-258,0,0,0,0,0,0,0,0,0,-1,1287,1282,0,0
70,-258,0,0,0,0,0,0,0,0,0,-1,1294,1282,0,0
77,-258,0,0,0,0,0,0,0,0,0,-1,1301,1282,0,0
84,-258,0,0,0,0,0,0,0,0,0,-1,1308,1282,0,0
91,-258,0,0,0,0,0,0,0,0,0,-1,1315,1282,0,0
98,-258,0,0,0,0,0,0,0,0,0,-1,1322,1282,0,0
105,-258,0,0,0,0,0,0,0,0,0,-1,1329,1282,0,0
112,-258,0,0,0,0,0,0,0,0,0,-1,1336,1282,0,0
119,-258,0,0,0,0,0,0,0,0,0,-1,1343,1282,0,0
126,-258,0,0,0,0,0,0,0,0,0,-1,1350,1282,0,0
133,-258,0,0,0,0,0,0,0,0,0,-1,1357,1282,0,0
140,-258,0,0,0,0,0,0,0,0,0,-1,1364,1282,0,0
147,-258,0,0,0,0,0,0,0,0,0,-1,1371,1282,0,0
154,-258,0,0,0,0,0,0,0,0,0,-1,1378,1282,0,0
161,-258,0,0,0,0,0,0,0,0,0,-1,1385,1282,0,0
168,-258,0,0,0,0,0,0,0,0,0,-1,1392,1282,0,0
175,-258,0,0,0,0,0,0,0,0,0,-1,1399,1282,0,0
182,-258,0,0,0,0,0,0,0,0,0,-1,1406,1282,0,0
189,-258,0,0,0,0,0,0,0,0,0,-1,1413,1282,0,0
196,-258,0,0,0,0,0,0,0,0,0,-1,1420,1282,0,0
203,-258,0,0,0,0,0,0,0,0,0,-1,1427,1282,0,0
210,-258,0,0,0,0,0,0,0,0,0,-1,1434,1282,0,0
217,-258,0,0,0,0,0,0,0,0,0,-1,1441,1282,0,0
224,-258,0,0,0,0,0,0,0,0,0,-1,1448,1282,0,0
231,-258,0,0,0,0,0,0,0,0,0,-1,1455,1282,0,0
238,-258,0,0,0,0,0,0,0,0,0,-1,1462,1282,0,0
245,-258,0,0,0,0,0,0,0,0,0,-1,1469,1282,0,0
252,-258,0,0,0,0,0,0,0,0,0,-1,1476,1282,0,0
259,-258,0,0,0,0,0,0,0,0,0,-1,1483,1282,0,0
266,-258,0,0,0,0,0,0,0,0,0,-1,1490,1282,0,0
273,-258,0,0,0,0,0,0,0,0,0,-1,1497,1282,0,0
280,-258,0,0,0,0,0,0,0,0,0,-1,1504,1282,0,0
287,-258,0,0,0,0,0,0,0,0,0,-1,1511,1282,0,0
294,-258,0,0,0,0,0,0,0,0,0,-1,1518,1282,0,0
301,-258,0,0,0,0,0,0,0,0,0,-1,1525,1282,0,0
308,-258,0,0,0,0,0,0,0,0,0,-1,1532,1282,0,0
315,-258,0,0,0,0,0,0,0,0,0,-1,1539,1282,0,0
322,-258,0,0,0,0,0,0,0,0,0,-1,1546,1282,0,0
329,-258,0,0,0,0,0,0,0,0,0,-1,1553,1282,0,0
336,-258,0,0,0,0,0,0,0,0,0,-1,1560,1282,0,0
343,-258,0,0,0,0,0,0,0,0,0,-1,1567,1282,0,0
350,-258,0,0,0,0,0,0,0,0,0,-1,1574,1282,0,0
357,-258,0,0,0,0,0,0,0,0,0,-1,1581,1282,0,0
364,-258,0,0,0,0,0,0,0,0,0,-1,1588,1282,0,0
371,-258,0,0,0,0,0,0,0,0,0,-1,1595,1282,0,0
378,-258,0,0,0,0,0,0,0,0,0,-1,1602,1282,0,0
385,-258,0,0,0,0,0,0,0,0,0,-1,1609,1282,0,0
392,-258,0,0,0,0,0,0,0,0,0,-1,1616,1282,0,0
399,-258,0,0,0,0,0,0,0,0,0,-1,1623,1282,0,0
406,-258,0,0,0,0,0,0,0,0,0,-1,1630,1282,0,0
413,-258,0,0,0,0,0,0,0,0,0,-1,1637,1282,0,0
420,-258,0,0,0,0,0,0,0,0,0,-1,1644,1282,0,0
427,-258,0,0,0,0,0,0,0,0,0,-1,1651,1282,0,0
434,-258,0,0,0,0,0,0,0,0,0,-1,1658,1282,0,0
441,-258,0,0,0,0,0,0,0,0,0,-1,1665,1282,0,0
448,-258,0,0,0,0,0,0,0,0,0,-1,1672,1282,0,0
455,-258,0,0,0,0,0,0,0,0,0,-1,1679,1282,0,0
462,-258,0,0,0,0,0,0,0,0,0,-1,1686,1282,0,0
469,-258,0,0,0,0,0,0,0,0,0,-1,1693,1282,0,0
476,-258,0,0,0,0,0,0,0,0,0,-1,1700,1282,0,0
483,-258,0,0,0,0,0,0,0,0,0,-1,1707,1282,0,0
490,-258,0,0,0,0,0,0,0,0,0,-1,1714,1282,0,0
497,-258,0,0,0,0,0,0,0,0,0,-1,1721,1282,0,0
504,-258,0,0,0,0,0,0,0,0,0,-1,1728,1282,0,0
511,-258,0,0,0,0,0,0,0,0,0,-1,1735,1282,0,0
518,-258,0,0,0,0,0,0,0,0,0,-1,1742,1282,0,0
525,-258,0,0,0,0,0,0,0,0,0,-1,1749,1282,0,0
532,-258,0,0,0,0,0,0,0,0,0,-1,1756,1282,0,0
539,-258,0,0,0,0,0,0,0,0,0,-1,1763,1282,0,0
546,-258,0,0,0,0,0,0,0,0,0,-1,1770,1282,0,0
553,-258,0,0,0,0,0,0,0,0,0,-1,1777,1282,0,0
560,-258,0,0,0,0,0,0,0,0,0,-1,1784,1282,0,0
567,-258,0,0,0,0,0,0,0,0,0,-1,1791,1282,0,0
574,-258,0,0,0,0,0,0,0,0,0,-1,1798,1282,0,0
581,-258,0,0,0,0,0,0,0,0,0,-1,1805,1282,0,0
588,-258,0,0,0,0,0,0,0,0,0,-1,1812,1282,0,0
595,-258,0,0,0,0,0,0,0,0,0,-1,1819,1282,0,0
602,-258,0,0,0,0,0,0,0,0,0,-1,1826,1282,0,0
609,-258,44.4061,2.79883,-0.00742599,0.00971778,-0.00369754,0.0104813,-0.00818947,-1.36718,0.0108066,0.0265235,1833,1282,44.4061,-2.79886
616,-258,44.3909,2.8634,-0.0148234,0.010041,-0.00253775,0.0102973,-0.0150798,-1.47012,0.014738,0.0249487,1840,1282,44.3909,-2.86343
623,-258,44.2919,2.74243,-0.0206648,0.00954173,-0.0017017,0.00963729,-0.0207603,-1.5147,0.0179375,0.0347762,1847,1282,44.2919,-2.7424
630,-258,44.2961,2.58826,-0.0223404,0.00825156,-0.00130309,0.00830697,-0.0223959,-1.5283,0.0183378,0.0448244,1854,1282,44.2961,-2.58828
637,-258,44.281,2.47424,-0.0198527,0.00652525,-0.00108199,0.00656955,-0.019897,-1.52987,0.0159132,0.0420903,1861,1282,44.281,-2.4742
644,-258,43.804,2.65393,-0.0163643,0.00519986,-0.000884975,0.00523612,-0.0164006,-1.52985,0.0130345,0.0449487,1868,1282,43.8039,-2.65396
651,-258,43.3661,2.59558,0,0,0,0,0,0,0,-1,1875,1282,43.3661,-2.59563
658,-258,37.3499,1.09253,0,0,0,0,0,0,0,-1,1882,1282,37.3498,-1.0925
665,-258,35.4747,1.1864,0,0,0,0,0,0,0,-1,1889,1282,35.4747,-1.18637
672,-258,22.703,2.80957,0,0,0,0,0,0,0,-1,1896,1282,22.703,-2.80962
679,-258,26.8693,8.19543,0,0,0,0,0,0,0,-1,1903,1282,26.8692,-8.19548
686,-258,33.2604,9.51843,0,0,0,0,0,0,0,-1,1910,1282,33.2603,-9.51842
693,-258,33.2001,9.10352,-0.00195049,-0.00130553,-0.000150134,-0.0012723,-0.00198373,-1.35294,0.00116046,0.0131621,1917,1282,33.2001,-9.10354
700,-258,33.1611,8.68213,0.000634015,-0.00119295,-5.39367e-05,0.000635606,-0.00119454,-0.0294884,0.00107294,0.00938761,1924,1282,33.1611,-8.68208
707,-258,33.165,8.25842,0.00105887,-0.000608877,0.00027649,0.00110351,-0.00065352,0.160083,0.00102545,0.0110961,1931,1282,33.165,-8.25841
714,-258,33.1534,7.85022,0.000326445,-0.000655568,0.000786323,0.000762472,-0.0010916,0.506302,0.00107605,0.0109944,1938,1282,33.1534,-7.85016
721,-258,33.1277,7.43408,4.16783e-05,-0.000585217,0.00129629,0.00106188,-0.00160542,0.666773,0.00155059,0.017157,1945,1282,33.1276,-7.43407
728,-258,33.0923,7.04736,-0.000162732,-0.000583394,0.00189189,0.00153049,-0.00227661,0.730038,0.00221205,0.0163605,1952,1282,33.0923,-7.04733
735,-258,33.1215,6.63208,5.0821e-06,-0.00066621,0.00259185,0.00228293,-0.00294406,0.721006,0.00302584,0.0158066,1959,1282,33.1214,-6.63213
742,-258,33.0865,6.25989,0.00074272,-0.000815675,0.00337786,0.00343009,-0.00350305,0.672042,0.00400292,0.0182004,1966,1282,33.0866,-6.25985
749,-258,32.9645,5.93945,0.00246306,-0.00110552,0.00441676,0.00544232,-0.00408479,0.593431,0.00551906,0.0391281,1973,1282,32.9645,-5.93943
756,-258,32.8486,5.48364,0,0,0,0,0,0,0,-1,1980,1282,32.8487,-5.48365
763,-258,32.7402,5.84204,0,0,0,0,0,0,0,-1,1987,1282,32.7402,-5.84203
770,-258,33.6843,5.38574,0,0,0,0,0,0,0,-1,1994,1282,33.6843,-5.38573
777,-258,31.912,4.83093,0,0,0,0,0,0,0,-1,2001,1282,31.912,-4.8309
784,-258,32.6525,6.43091,0,0,0,0,0,0,0,-1,2008,1282,32.6525,-6.43091
791,-258,0,0,0,0,0,0,0,0,0,-1,2015,1282,0,0
798,-258,0,0,0,0,0,0,0,0,0,-1,2022,1282,0,0
805,-258,0,0,0,0,0,0,0,0,0,-1,2029,1282,0,0
812,-258,0,0,0,0,0,0,0,0,0,-1,2036,1282,0,0
-700,-265,0,0,0,0,0,0,0,0,0,-1,524,1289,0,0
-693,-265,0,0,0,0,0,0,0,0,0,-1,531,1289,0,0
-686,-265,0,0,0,0,0,0,0,0,0,-1,538,1289,0,0
-679,-265,0,0,0,0,0,0,0,0,0,-1,545,1289,0,0
-672,-265,0,0,0,0,0,0,0,0,0,-1,552,1289,0,0
-665,-265,-21.8043,0.183594,0,0,0,0,0,0,0,-1,559,1289,-21.8042,-0.183562
-658,-265,-18.9856,-0.2948,0,0,0,0,0,0,0,-1,566,1289,-18.9856,0.294797
-651,-265,-18.8685,0.415161,0,0,0,0,0,0,0,-1,573,1289,-18.8685,-0.415106
-644,-265,-21.1107,-0.415527,0,0,0,0,0,0,0,-1,580,1289,-21.1106,0.415535
-637,-265,-20.9237,0.733765,0,0,0,0,0,0,0,-1,587,1289,-20.9237,-0.733739
-630,-265,-19.4874,2.06287,0,0,0,0,0,0,0,-1,594,1289,-19.4874,-2.06282
-623,-265,-19.7152,2.11462,0,0,0,0,0,0,0,-1,601,1289,-19.7152,-2.1146
-616,-265,-19.7145,2.85706,0.0132192,0.0129538,0.0145789,0.0276661,-0.00149303,0.780847,0.0189613,0.0430609,608,1289,-19.7145,-2.85703
-609,-265,-19.7692,3.66809,0.00814871,0.00857632,0.0109586,0.0193232,-0.0025982,0.795152,0.0138298,0.0192917,615,1289,-19.7692,-3.66809
-602,-265,-19.8112,4.19299,0.00515523,0.00566331,0.00792526,0.0133386,-0.00252006,0.80142,0.00984058,0.0152455,622,1289,-19.8112,-4.19302
-595,-265,-19.8145,4.6853,0.00391273,0.00371928,0.00546535,0.00928221,-0.0016502,0.77655,0.00680523,0.012579,629,1289,-19.8145,-4.68525
-588,-265,-19.8215,5.14917,0.00317295,0.00209801,0.00357732,0.00625295,-0.000981991,0.710834,0.00453157,0.011045,636,1289,-19.8215,-5.14914
-581,-265,-19.8394,5.59021,0.0027584,0.000746003,0.0021993,0.00417074,-0.000666343,0.570858,0.00302716,0.0128469,643,1289,-19.8394,-5.59023
-574,-265,-19.8396,6.07971,0.00259276,-0.000297063,0.00130886,0.00309744,-0.000801736,0.368016,0.00237769,0.013715,650,1289,-19.8396,-6.07976
-567,-265,-19.881,6.55432,0.00276255,-0.000935944,0.000813421,0.00293354,-0.00110694,0.207197,0.00241092,0.0193475,657,1289,-19.881,-6.55428
-560,-265,-19.9363,7.02234,0.00276623,-0.000570306,0.00091835,0.00300229,-0.000806371,0.251606,0.00231756,0.0221651,664,1289,-19.9363,-7.02233
-553,-265,-19.9263,7.49939,0,0,0,0,0,0,0,-1,671,1289,-19.9262,-7.49942
-546,-265,-19.0402,7.96277,0,0,0,0,0,0,0,-1,678,1289,-19.0402,-7.96282
-539,-265,-13.7668,6.39917,0,0,0,0,0,0,0,-1,685,1289,-13.7668,-6.39915
-532,-265,-8.53998,3.41467,0,0,0,0,0,0,0,-1,692,1289,-8.53996,-3.41473
-525,-265,-12.1317,0.514648,0,0,0,0,0,0,0,-1,699,1289,-12.1317,-0.514634
-518,-265,-24.1604,0.712402,0,0,0,0,0,0,0,-1,706,1289,-24.1604,-0.712425
-511,-265,-23.233,0.791626,0,0,0,0,0,0,0,-1,713,1289,-23.233,-0.791617
-504,-265,-22.3056,0.87085,0,0,0,0,0,0,0,-1,720,1289,-22.3056,-0.87081
-497,-265,-18.689,-0.278442,0,0,0,0,0,0,0,-1,727,1289,-18.689,0.278423
-490,-265,-15.1696,0.492676,0,0,0,0,0,0,0,-1,734,1289,-15.1696,-0.492688
-483,-265,0,0,0,0,0,0,0,0,0,-1,741,1289,0,0
-476,-265,0,0,0,0,0,0,0,0,0,-1,748,1289,0,0
-469,-265,0,0,0,0,0,0,0,0,0,-1,755,1289,0,0
-462,-265,0,0,0,0,0,0,0,0,0,-1,762,1289,0,0
-455,-265,0,0,0,0,0,0,0,0,0,-1,769,1289,0,0
-448,-265,0,0,0,0,0,0,0,0,0,-1,776,1289,0,0
-441,-265,0,0,0,0,0,0,0,0,0,-1,783,1289,0,0
-434,-265,0,0,0,0,0,0,0,0,0,-1,790,1289,0,0
-427,-265,0,0,0,0,0,0,0,0,0,-1,797,1289,0,0
-420,-265,0,0,0,0,0,0,0,0,0,-1,804,1289,0,0
-413,-265,0,0,0,0,0,0,0,0,0,-1,811,1289,0,0
-406,-265,0,0,0,0,0,0,0,0,0,-1,818,1289,0,0
-399,-265,0,0,0,0,0,0,0,0,0,-1,825,1289,0,0
-392,-265,0,0,0,0,0,0,0,0,0,-1,832,1289,0,0
-385,-265,0,0,0,0,0,0,0,0,0,-1,839,1289,0,0
-378,-265,0,0,0,0,0,0,0,0,0,-1,846,1289,0,0
-371,-265,0,0,0,0,0,0,0,0,0,-1,853,1289,0,0
-364,-265,0,0,0,0,0,0,0,0,0,-1,860,1289,0,0
-357,-265,0,0,0,0,0,0,0,0,0,-1,867,1289,0,0
-350,-265,0,0,0,0,0,0,0,0,0,-1,874,1289,0,0
-343,-265,0,0,0,0,0,0,0,0,0,-1,881,1289,0,0
-336,-265,0,0,0,0,0,0,0,0,0,-1,888,1289,0,0
-329,-265,0,0,0,0,0,0,0,0,0,-1,895,1289,0,0
-322,-265,0,0,0,0,0,0,0,0,0,-1,902,1289,0,0
-315,-265,0,0,0,0,0,0,0,0,0,-1,909,1289,0,0
-308,-265,0,0,0,0,0,0,0,0,0,-1,916,1289,0,0
-301,-265,0,0,0,0,0,0,0,0,0,-1,923,1289,0,0
-294,-265,0,0,0,0,0,0,0,0,0,-1,930,1289,0,0
-287,-265,0,0,0,0,0,0,0,0,0,-1,937,1289,0,0
-280,-265,0,0,0,0,0,0,0,0,0,-1,944,1289,0,0
-273,-265,0,0,0,0,0,0,0,0,0,-1,951,1289,0,0
-266,-265,0,0,0,0,0,0,0,0,0,-1,958,1289,0,0
-259,-265,0,0,0,0,0,0,0,0,0,-1,965,1289,0,0
-252,-265,0,0,0,0,0,0,0,0,0,-1,972,1289,0,0
-245,-265,0,0,0,0,0,0,0,0,0,-1,979,1289,0,0
-238,-265,0,0,0,0,0,0,0,0,0,-1,986,1289,0,0
-231,-265,0,0,0,0,0,0,0,0,0,-1,993,1289,0,0
-224,-265,0,0,0,0,0,0,0,0,0,-1,1000,1289,0,0
-217,-265,0,0,0,0,0,0,0,0,0,-1,1007,1289,0,0
-210,-265,0,0,0,0,0,0,0,0,0,-1,1014,1289,0,0
-203,-265,0,0,0,0,0,0,0,0,0,-1,1021,1289,0,0
-196,-265,0,0,0,0,0,0,0,0,0,-1,1028,1289,0,0
-189,-265,0,0,0,0,0,0,0,0,0,-1,1035,1289,0,0
-182,-265,0,0,0,0,0,0,0,0,0,-1,1042,1289,0,0
-175,-265,0,0,0,0,0,0,0,0,0,-1,1049,1289,0,0
-168,-265,0,0,0,0,0,0,0,0,0,-1,1056,1289,0,0
-161,-265,0,0,0,0,0,0,0,0,0,-1,1063,1289,0,0
-154,-265,0,0,0,0,0,0,0,0,0,-1,1070,1289,0,0
-147,-265,0,0,0,0,0,0,0,0,0,-1,1077,1289,0,0
-140,-265,0,0,0,0,0,0,0,0,0,-1,1084,1289,0,0
-133,-265,0,0,0,0,0,0,0,0,0,-1,1091,1289,0,0
-126,-265,0,0,0,0,0,0,0,0,0,-1,1098,1289,0,0
-119,-265,0,0,0,0,0,0,0,0,0,-1,1105,1289,0,0
-112,-265,0,0,0,0,0,0,0,0,0,-1,1112,1289,0,0
-105,-265,0,0,0,0,0,0,0,0,0,-1,1119,1289,0,0
-98,-265,0,0,0,0,0,0,0,0,0,-1,1126,1289,0,0
-91,-265,0,0,0,0,0,0,0,0,0,-1,1133,1289,0,0
-84,-265,0,0,0,0,0,0,0,0,0,-1,1140,1289,0,0
-77,-265,0,0,0,0,0,0,0,0,0,-1,1147,1289,0,0
-70,-265,0,0,0,0,0,0,0,0,0,-1,1154,1289,0,0
-63,-265,0,0,0,0,0,0,0,0,0,-1,1161,1289,0,0
-56,-265,0,0,0,0,0,0,0,0,0,-1,1168,1289,0,0
-49,-265,0,0,0,0,0,0,0,0,0,-1,1175,1289,0,0
-42,-265,0,0,0,0,0,0,0,0,0,-1,1182,1289,0,0
-35,-265,0,0,0,0,0,0,0,0,0,-1,1189,1289,0,0
-28,-265,0,0,0,0,0,0,0,0,0,-1,1196,1289,0,0
-21,-265,0,0,0,0,0,0,0,0,0,-1,1203,1289,0,0
-14,-265,0,0,0,0,0,0,0,0,0,-1,1210,1289,0,0
-7,-265,0,0,0,0,0,0,0,0,0,-1,1217,1289,0,0
0,-265,0,0,0,0,0,0,0,0,0,-1,1224,1289,0,0
7,-265,0,0,0,0,0,0,0,0,0,-1,1231,1289,0,0
14,-265,0,0,0,0,0,0,0,0,0,-1,1238,1289,0,0
21,-265,0,0,0,0,0,0,0,0,0,-1,1245,1289,0,0
28,-265,0,0,0,0,0,0,0,0,0,-1,1252,1289,0,0
35,-265,0,0,0,0,0,0,0,0,0,-1,1259,1289,0,0
42,-265,0,0,0,0,0,0,0,0,0,-1,1266,1289,0,0
49,-265,0,0,0,0,0,0,0,0,0,-1,1273,1289,0,0
56,-265,0,0,0,0,0,0,0,0,0,-1,1280,1289,0,0
63,-265,0,0,0,0,0,0,0,0,0,-1,1287,1289,0,0
70,-265,0,0,0,0,0,0,0,0,0,-1,1294,1289,0,0
77,-265,0,0,0,0,0,0,0,0,0,-1,1301,1289,0,0
84,-265,0,0,0,0,0,0,0,0,0,-1,1308,1289,0,0
91,-265,0,0,0,0,0,0,0,0,0,-1,1315,1289,0,0
98,-265,0,0,0,0,0,0,0,0,0,-1,1322,1289,0,0
105,-265,0,0,0,0,0,0,0,0,0,-1,1329,1289,0,0
112,-265,0,0,0,0,0,0,0,0,0,-1,1336,1289,0,0
119,-265,0,0,0,0,0,0,0,0,0,-1,1343,1289,0,0
126,-265,0,0,0,0,0,0,0,0,0,-1,1350,1289,0,0
133,-265,0,0,0,0,0,0,0,0,0,-1,1357,1289,0,0
140,-265,0,0,0,0,0,0,0,0,0,-1,1364,1289,0,0
147,-265,0,0,0,0,0,0,0,0,0,-1,1371,1289,0,0
154,-265,0,0,0,0,0,0,0,0,0,-1,1378,1289,0,0
161,-265,0,0,0,0,0,0,0,0,0,-1,1385,1289,0,0
168,-265,0,0,0,0,0,0,0,0,0,-1,1392,1289,0,0
175,-265,0,0,0,0,0,0,0,0,0,-1,1399,1289,0,0
182,-265,0,0,0,0,0,0,0,0,0,-1,1406,1289,0,0
189,-265,0,0,0,0,0,0,0,0,0,-1,1413,1289,0,0
196,-265,0,0,0,0,0,0,0,0,0,-1,1420,1289,0,0
203,-265,0,0,0,0,0,0,0,0,0,-1,1427,1289,0,0
210,-265,0,0,0,0,0,0,0,0,0,-1,1434,1289,0,0
217,-265,0,0,0,0,0,0,0,0,0,-1,1441,1289,0,0
224,-265,0,0,0,0,0,0,0,0,0,-1,1448,1289,0,0
231,-265,0,0,0,0,0,0,0,0,0,-1,1455,1289,0,0
238,-265,0,0,0,0,0,0,0,0,0,-1,1462,1289,0,0
245,-265,0,0,0,0,0,0,0,0,0,-1,1469,1289,0,0
252,-265,0,0,0,0,0,0,0,0,0,-1,1476,1289,0,0
259,-265,0,0,0,0,0,0,0,0,0,-1,1483,1289,0,0
266,-265,0,0,0,0,0,0,0,0,0,-1,1490,1289,0,0
273,-265,0,0,0,0,0,0,0,0,0,-1,1497,1289,0,0
280,-265,0,0,0,0,0,0,0,0,0,-1,1504,1289,0,0
287,-265,0,0,0,0,0,0,0,0,0,-1,1511,1289,0,0
294,-265,0,0,0,0,0,0,0,0,0,-1,1518,1289,0,0
301,-265,0,0,0,0,0,0,0,0,0,-1,1525,1289,0,0
308,-265,0,0,0,0,0,0,0,0,0,-1,1532,1289,0,0
315,-265,0,0,0,0,0,0,0,0,0,-1,1539,1289,0,0
322,-265,0,0,0,0,0,0,0,0,0,-1,1546,1289,0,0
329,-265,0,0,0,0,0,0,0,0,0,-1,1553,1289,0,0
336,-265,0,0,0,0,0,0,0,0,0,-1,1560,1289,0,0
343,-265,0,0,0,0,0,0,0,0,0,-1,1567,1289,0,0
350,-265,0,0,0,0,0,0,0,0,0,-1,1574,1289,0,0
357,-265,0,0,0,0,0,0,0,0,0,-1,1581,1289,0,0
364,-265,0,0,0,0,0,0,0,0,0,-1,1588,1289,0,0
371,-265,0,0,0,0,0,0,0,0,0,-1,1595,1289,0,0
378,-265,0,0,0,0,0,0,0,0,0,-1,1602,1289,0,0
385,-265,0,0,0,0,0,0,0,0,0,-1,1609,1289,0,0
392,-265,0,0,0,0,0,0,0,0,0,-1,1616,1289,0,0
399,-265,0,0,0,0,0,0,0,0,0,-1,1623,1289,0,0
406,-265,0,0,0,0,0,0,0,0,0,-1,1630,1289,0,0
413,-265,0,0,0,0,0,0,0,0,0,-1,1637,1289,0,0
420,-265,0,0,0,0,0,0,0,0,0,-1,1644,1289,0,0
427,-265,0,0,0,0,0,0,0,0,0,-1,1651,1289,0,0
434,-265,0,0,0,0,0,0,0,0,0,-1,1658,1289,0,0
441,-265,0,0,0,0,0,0,0,0,0,-1,1665,1289,0,0
448,-265,0,0,0,0,0,0,0,0,0,-1,1672,1289,0,0
455,-265,0,0,0,0,0,0,0,0,0,-1,1679,1289,0,0
462,-265,0,0,0,0,0,0,0,0,0,-1,1686,1289,0,0
469,-265,0,0,0,0,0,0,0,0,0,-1,1693,1289,0,0
476,-265,0,0,0,0,0,0,0,0,0,-1,1700,1289,0,0
483,-265,0,0,0,0,0,0,0,0,0,-1,1707,1289,0,0
490,-265,0,0,0,0,0,0,0,0,0,-1,1714,1289,0,0
497,-265,0,0,0,0,0,0,0,0,0,-1,1721,1289,0,0
504,-265,0,0,0,0,0,0,0,0,0,-1,1728,1289,0,0
511,-265,0,0,0,0,0,0,0,0,0,-1,1735,1289,0,0
518,-265,0,0,0,0,0,0,0,0,0,-1,1742,1289,0,0
525,-265,0,0,0,0,0,0,0,0,0,-1,1749,1289,0,0
532,-265,0,0,0,0,0,0,0,0,0,-1,1756,1289,0,0
539,-265,0,0,0,0,0,0,0,0,0,-1,1763,1289,0,0
546,-265,0,0,0,0,0,0,0,0,0,-1,1770,1289,0,0
553,-265,0,0,0,0,0,0,0,0,0,-1,1777,1289,0,0
560,-265,0,0,0,0,0,0,0,0,0,-1,1784,1289,0,0
567,-265,0,0,0,0,0,0,0,0,0,-1,1791,1289,0,0
574,-265,0,0,0,0,0,0,0,0,0,-1,1798,1289,0,0
581,-265,0,0,0,0,0,0,0,0,0,-1,1805,1289,0,0
588,-265,0,0,0,0,0,0,0,0,0,-1,1812,1289,0,0
595,-265,0,0,0,0,0,0,0,0,0,-1,1819,1289,0,0
602,-265,44.3884,2.73792,-0.00718101,0.00889303,-0.00734398,0.0117431,-0.010031,-1.20061,0.0125842,0.0277197,1826,1289,44.3884,-2.73787
609,-265,44.3663,2.72937,-0.0149067,0.00976086,-0.00520411,0.0108138,-0.0159597,-1.37116,0.0155526,0.0307106,1833,1289,44.3663,-2.72941
616,-265,44.382,2.80334,-0.0228711,0.00998729,-0.00357241,0.0103712,-0.0232551,-1.46374,0.0198835,0.0356474,1840,1289,44.382,-2.80338
623,-265,44.1362,2.45068,0,0,0,0,0,0,0,-1,1847,1289,44.1362,-2.45068
630,-265,44.2311,2.42175,-0.025639,0.00795776,-0.00164927,0.00803853,-0.0257198,-1.52186,0.020362,0.0468425,1854,1289,44.2311,-2.42175
637,-265,44.3174,2.354,-0.0216229,0.00644028,-0.00124908,0.00649576,-0.0216784,-1.5264,0.0170355,0.0459577,1861,1289,44.3174,-2.35399
644,-265,43.788,2.49048,0,0,0,0,0,0,0,-1,1868,1289,43.7879,-2.49044
651,-265,38.2179,0.64856,0,0,0,0,0,0,0,-1,1875,1289,38.2179,-0.648555
658,-265,36.2434,1.67969,0,0,0,0,0,0,0,-1,1882,1289,36.2434,-1.67963
665,-265,34.7902,1.43164,0,0,0,0,0,0,0,-1,1889,1289,34.7901,-1.43162
672,-265,20.0045,6.62671,0,0,0,0,0,0,0,-1,1896,1289,20.0045,-6.62668
679,-265,32.7936,9.95935,0,0,0,0,0,0,0,-1,1903,1289,32.7936,-9.95934
686,-265,32.7799,9.53235,-0.00424699,-0.00092411,-0.000393179,-0.00087822,-0.00429288,-1.45461,0.00261874,0.0346546,1910,1289,32.7799,-9.53232
693,-265,32.7649,9.11926,-0.00191042,-0.00140123,-2.64533e-05,-0.00139986,-0.00191179,-1.51903,0.00114277,0.0105723,1917,1289,32.7649,-9.1192
700,-265,32.7428,8.70801,0.000434894,-0.00110745,9.28443e-05,0.000440462,-0.00111302,0.0599085,0.000924497,0.0110609,1924,1289,32.7428,-8.70799
707,-265,32.7456,8.27686,0.000681393,-0.000480519,0.000429932,0.000823176,-0.000622302,0.318549,0.000837228,0.0109046,1931,1289,32.7456,-8.27685
714,-265,32.723,7.86426,-1.13825e-06,-0.000529029,0.000887113,0.000660463,-0.00119063,0.640802,0.00108324,0.0116337,1938,1289,32.723,-7.86431
721,-265,32.6738,7.44983,-0.000341507,-0.000459564,0.0013629,0.000963647,-0.00176472,0.763756,0.00159769,0.0124516,1945,1289,32.6738,-7.44984
728,-265,32.647,7.04846,-0.000653213,-0.000529553,0.00194046,0.00135006,-0.00253283,0.801325,0.00227619,0.0133575,1952,1289,32.647,-7.04847
735,-265,32.6826,6.64319,-0.00066805,-0.000704026,0.00262534,0.00193937,-0.00331144,0.781972,0.00306586,0.0164703,1959,1289,32.6826,-6.6432
742,-265,32.6886,6.24377,-0.000188333,-0.000999537,0.0034262,0.00285619,-0.00404406,0.726481,0.00400349,0.0206267,1966,1289,32.6886,-6.24373
749,-265,32.6854,5.89465,0.00121082,-0.00152731,0.00451372,0.00455853,-0.00487502,0.638152,0.00544749,0.0492021,1973,1289,32.6854,-5.89468
756,-265,32.7468,5.53418,0,0,0,0,0,0,0,-1,1980,1289,32.7468,-5.53422
763,-265,32.5039,6.22058,0,0,0,0,0,0,0,-1,1987,1289,32.5039,-6.22062
770,-265,32.1581,1.84326,0,0,0,0,0,0,0,-1,1994,1289,32.158,-1.84325
777,-265,32.1664,5.3457,0,0,0,0,0,0,0,-1,2001,1289,32.1664,-5.34568
784,-265,0,0,0,0,0,0,0,0,0,-1,2008,1289,0,0
791,-265,0,0,0,0,0,0,0,0,0,-1,2015,1289,0,0
798,-265,0,0,0,0,0,0,0,0,0,-1,2022,1289,0,0
805,-265,0,0,0,0,0,0,0,0,0,-1,2029,1289,0,0
812,-265,0,0,0,0,0,0,0,0,0,-1,2036,1289,0,0
-700,-272,0,0,0,0,0,0,0,0,0,-1,524,1296,0,0
-693,-272,0,0,0,0,0,0,0,0,0,-1,531,1296,0,0
-686,-272,0,0,0,0,0,0,0,0,0,-1,538,1296,0,0
-679,-272,0,0,0,0,0,0,0,0,0,-1,545,1296,0,0
-672,-272,0,0,0,0,0,0,0,0,0,-1,552,1296,0,0
-665,-272,0,0,0,0,0,0,0,0,0,-1,559,1296,0,0
-658,-272,-18.6953,0.101318,0,0,0,0,0,0,0,-1,566,1296,-18.6953,-0.101268
-651,-272,-19.5643,1.76074,0,0,0,0,0,0,0,-1,573,1296,-19.5643,-1.76073
-644,-272,-19.5433,1.52747,0,0,0,0,0,0,0,-1,580,1296,-19.5433,-1.52742
-637,-272,-19.4523,1.22437,0,0,0,0,0,0,0,-1,587,1296,-19.4523,-1.22431
-630,-272,-19.5844,0.638184,0,0,0,0,0,0,0,-1,594,1296,-19.5844,-0.638227
-623,-272,-18.2599,2.30176,0,0,0,0,0,0,0,-1,601,1296,-18.2599,-2.30181
-616,-272,-18.7653,3.10437,0.0137194,0.0140527,0.0176163,0.0315032,-0.00373105,0.790128,0.0223499,0.0412482,608,1296,-18.7652,-3.10436
-609,-272,-19.2474,3.8125,0.00864238,0.00954494,0.013091,0.0221924,-0.00400511,0.802628,0.0162949,0.0255589,615,1296,-19.2474,-3.8125
-602,-272,-19.3144,4.21704,0.00563924,0.00651187,0.00945674,0.0155424,-0.00339124,0.808451,0.0116576,0.0151961,622,1296,-19.3144,-4.21707
-595,-272,-19.3541,4.70422,0.00424663,0.00440832,0.00653632,0.0108643,-0.00220935,0.791582,0.00808062,0.0116375,629,1296,-19.3541,-4.70419
-588,-272,-19.3596,5.16724,0.00337273,0.00266851,0.0043018,0.0073368,-0.00129557,0.744563,0.00537535,0.0105008,636,1296,-19.3595,-5.16718
-581,-272,-19.3738,5.61707,0.00289799,0.00119998,0.00261308,0.00479653,-0.00069856,0.628325,0.00345417,0.00997147,643,1296,-19.3738,-5.61705
-574,-272,-19.3831,6.08716,0.00272577,-5.74669e-05,0.00140379,0.00331082,-0.000642519,0.394876,0.00244964,0.0146797,650,1296,-19.3831,-6.08722
-567,-272,-19.4205,6.57605,0.00299056,-0.00105846,0.000596239,0.00307653,-0.00114443,0.143206,0.00252064,0.0197927,657,1296,-19.4205,-6.576
-560,-272,-19.475,7.05884,0.00332717,-0.00129766,0.000491487,0.00337882,-0.00134932,0.104713,0.00281237,0.0190031,664,1296,-19.4749,-7.05887
-553,-272,-19.3649,7.50427,0.00346055,-0.000864024,0.00054313,0.00352772,-0.000931194,0.123046,0.00271595,0.0215375,671,1296,-19.3649,-7.50429
-546,-272,-19.3005,7.97632,0,0,0,0,0,0,0,-1,678,1296,-19.3005,-7.97628
-539,-272,-18.9283,8.57861,0,0,0,0,0,0,0,-1,685,1296,-18.9283,-8.57865
-532,-272,-10.5572,4.53943,0,0,0,0,0,0,0,-1,692,1296,-10.5572,-4.53943
-525,-272,-11.9599,0.0393066,0,0,0,0,0,0,0,-1,699,1296,-11.9599,-0.0393577
-518,-272,-21.1357,-1.41382,0,0,0,0,0,0,0,-1,706,1296,-21.1357,1.41379
-511,-272,-23.2565,0.226318,0,0,0,0,0,0,0,-1,713,1296,-23.2565,-0.22626
-504,-272,-19.7397,0.114746,0,0,0,0,0,0,0,-1,720,1296,-19.7397,-0.114701
-497,-272,-19.2225,1.71301,0,0,0,0,0,0,0,-1,727,1296,-19.2225,-1.71302
-490,-272,-20.1948,2.4032,0,0,0,0,0,0,0,-1,734,1296,-20.1948,-2.40322
-483,-272,-15.3736,0.792603,0,0,0,0,0,0,0,-1,741,1296,-15.3736,-0.79263
-476,-272,0,0,0,0,0,0,0,0,0,-1,748,1296,0,0
-469,-272,0,0,0,0,0,0,0,0,0,-1,755,1296,0,0
-462,-272,0,0,0,0,0,0,0,0,0,-1,762,1296,0,0
-455,-272,0,0,0,0,0,0,0,0,0,-1,769,1296,0,0
-448,-272,0,0,0,0,0,0,0,0,0,-1,776,1296,0,0
-441,-272,0,0,0,0,0,0,0,0,0,-1,783,1296,0,0
-434,-272,0,0,0,0,0,0,0,0,0,-1,790,1296,0,0
-427,-272,0,0,0,0,0,0,0,0,0,-1,797,1296,0,0
-420,-272,0,0,0,0,0,0,0,0,0,-1,804,1296,0,0
-413,-272,0,0,0,0,0,0,0,0,0,-1,811,1296,0,0
-406,-272,0,0,0,0,0,0,0,0,0,-1,818,1296,0,0
-399,-272,0,0,0,0,0,0,0,0,0,-1,825,1296,0,0
-392,-272,0,0,0,0,0,0,0,0,0,-1,832,1296,0,0
-385,-272,0,0,0,0,0,0,0,0,0,-1,839,1296,0,0
-378,-272,0,0,0,0,0,0,0,0,0,-1,846,1296,0,0
-371,-272,0,0,0,0,0,0,0,0,0,-1,853,1296,0,0
-364,-272,0,0,0,0,0,0,0,0,0,-1,860,1296,0,0
-357,-272,0,0,0,0,0,0,0,0,0,-1,867,1296,0,0
-350,-272,0,0,0,0,0,0,0,0,0,-1,874,1296,0,0
-343,-272,0,0,0,0,0,0,0,0,0,-1,881,1296,0,0
-336,-272,0,0,0,0,0,0,0,0,0,-1,888,1296,0,0
-329,-272,0,0,0,0,0,0,0,0,0,-1,895,1296,0,0
-322,-272,0,0,0,0,0,0,0,0,0,-1,902,1296,0,0
-315,-272,0,0,0,0,0,0,0,0,0,-1,909,1296,0,0
-308,-272,0,0,0,0,0,0,0,0,0,-1,916,1296,0,0
-301,-272,0,0,0,0,0,0,0,0,0,-1,923,1296,0,0
-294,-272,0,0,0,0,0,0,0,0,0,-1,930,1296,0,0
-287,-272,0,0,0,0,0,0,0,0,0,-1,937,1296,0,0
-280,-272,0,0,0,0,0,0,0,0,0,-1,944,1296,0,0
-273,-272,0,0,0,0,0,0,0,0,0,-1,951,1296,0,0
-266,-272,0,0,0,0,0,0,0,0,0,-1,958,1296,0,0
-259,-272,0,0,0,0,0,0,0,0,0,-1,965,1296,0,0
-252,-272,0,0,0,0,0,0,0,0,0,-1,972,1296,0,0
-245,-272,0,0,0,0,0,0,0,0,0,-1,979,1296,0,0
-238,-272,0,0,0,0,0,0,0,0,0,-1,986,1296,0,0
-231,-272,0,0,0,0,0,0,0,0,0,-1,993,1296,0,0
-224,-272,0,0,0,0,0,0,0,0,0,-1,1000,1296,0,0
-217,-272,0,0,0,0,0,0,0,0,0,-1,1007,1296,0,0
-210,-272,0,0,0,0,0,0,0,0,0,-1,1014,1296,0,0
-203,-272,0,0,0,0,0,0,0,0,0,-1,1021,1296,0,0
-196,-272,0,0,0,0,0,0,0,0,0,-1,1028,1296,0,0
-189,-272,0,0,0,0,0,0,0,0,0,-1,1035,1296,0,0
-182,-272,0,0,0,0,0,0,0,0,0,-1,1042,1296,0,0
-175,-272,0,0,0,0,0,0,0,0,0,-1,1049,1296,0,0
-168,-272,0,0,0,0,0,0,0,0,0,-1,1056,1296,0,0
-161,-272,0,0,0,0,0,0,0,0,0,-1,1063,1296,0,0
-154,-272,0,0,0,0,0,0,0,0,0,-1,1070,1296,0,0
-147,-272,0,0,0,0,0,0,0,0,0,-1,1077,1296,0,0
-140,-272,0,0,0,0,0,0,0,0,0,-1,1084,1296,0,0
-133,-272,0,0,0,0,0,0,0,0,0,-1,1091,1296,0,0
-126,-272,0,0,0,0,0,0,0,0,0,-1,1098,1296,0,0
-119,-272,0,0,0,0,0,0,0,0,0,-1,1105,1296,0,0
-112,-272,0,0,0,0,0,0,0,0,0,-1,1112,1296,0,0
-105,-272,0,0,0,0,0,0,0,0,0,-1,1119,1296,0,0
-98,-272,0,0,0,0,0,0,0,0,0,-1,1126,1296,0,0
-91,-272,0,0,0,0,0,0,0,0,0,-1,1133,1296,0,0
-84,-272,0,0,0,0,0,0,0,0,0,-1,1140,1296,0,0
-77,-272,0,0,0,0,0,0,0,0,0,-1,1147,1296,0,0
-70,-272,0,0,0,0,0,0,0,0,0,-1,1154,1296,0,0
-63,-272,0,0,0,0,0,0,0,0,0,-1,1161,1296,0,0
-56,-272,0,0,0,0,0,0,0,0,0,-1,1168,1296,0,0
-49,-272,0,0,0,0,0,0,0,0,0,-1,1175,1296,0,0
-42,-272,0,0,0,0,0,0,0,0,0,-1,1182,1296,0,0
-35,-272,0,0,0,0,0,0,0,0,0,-1,1189,1296,0,0
-28,-272,0,0,0,0,0,0,0,0,0,-1,1196,1296,0,0
-21,-272,0,0,0,0,0,0,0,0,0,-1,1203,1296,0,0
-14,-272,0,0,0,0,0,0,0,0,0,-1,1210,1296,0,0
-7,-272,0,0,0,0,0,0,0,0,0,-1,1217,1296,0,0
0,-272,0,0,0,0,0,0,0,0,0,-1,1224,1296,0,0
7,-272,0,0,0,0,0,0,0,0,0,-1,1231,1296,0,0
14,-272,0,0,0,0,0,0,0,0,0,-1,1238,1296,0,0
21,-272,0,0,0,0,0,0,0,0,0,-1,1245,1296,0,0
28,-272,0,0,0,0,0,0,0,0,0,-1,1252,1296,0,0
35,-272,0,0,0,0,0,0,0,0,0,-1,1259,1296,0,0
42,-272,0,0,0,0,0,0,0,0,0,-1,1266,1296,0,0
49,-272,0,0,0,0,0,0,0,0,0,-1,1273,1296,0,0
56,-272,0,0,0,0,0,0,0,0,0,-1,1280,1296,0,0
63,-272,0,0,0,0,0,0,0,0,0,-1,1287,1296,0,0
70,-272,0,0,0,0,0,0,0,0,0,-1,1294,1296,0,0
77,-272,0,0,0,0,0,0,0,0,0,-1,1301,1296,0,0
84,-272,0,0,0,0,0,0,0,0,0,-1,1308,1296,0,0
91,-272,0,0,0,0,0,0,0,0,0,-1,1315,1296,0,0
98,-272,0,0,0,0,0,0,0,0,0,-1,1322,1296,0,0
105,-272,0,0,0,0,0,0,0,0,0,-1,1329,1296,0,0
112,-272,0,0,0,0,0,0,0,0,0,-1,1336,1296,0,0
119,-272,0,0,0,0,0,0,0,0,0,-1,1343,1296,0,0
126,-272,0,0,0,0,0,0,0,0,0,-1,1350,1296,0,0
133,-272,0,0,0,0,0,0,0,0,0,-1,1357,1296,0,0
140,-272,0,0,0,0,0,0,0,0,0,-1,1364,1296,0,0
147,-272,0,0,0,0,0,0,0,0,0,-1,1371,1296,0,0
154,-272,0,0,0,0,0,0,0,0,0,-1,1378,1296,0,0
161,-272,0,0,0,0,0,0,0,0,0,-1,1385,1296,0,0
168,-272,0,0,0,0,0,0,0,0,0,-1,1392,1296,0,0
175,-272,0,0,0,0,0,0,0,0,0,-1,1399,1296,0,0
182,-272,0,0,0,0,0,0,0,0,0,-1,1406,1296,0,0
189,-272,0,0,0,0,0,0,0,0,0,-1,1413,1296,0,0
196,-272,0,0,0,0,0,0,0,0,0,-1,1420,1296,0,0
203,-272,0,0,0,0,0,0,0,0,0,-1,1427,1296,0,0
210,-272,0,0,0,0,0,0,0,0,0,-1,1434,1296,0,0
217,-272,0,0,0,0,0,0,0,0,0,-1,1441,1296,0,0
224,-272,0,0,0,0,0,0,0,0,0,-1,1448,1296,0,0
231,-272,0,0,0,0,0,0,0,0,0,-1,1455,1296,0,0
238,-272,0,0,0,0,0,0,0,0,0,-1,1462,1296,0,0
245,-272,0,0,0,0,0,0,0,0,0,-1,1469,1296,0,0
252,-272,0,0,0,0,0,0,0,0,0,-1,1476,1296,0,0
259,-272,0,0,0,0,0,0,0,0,0,-1,1483,1296,0,0
266,-272,0,0,0,0,0,0,0,0,0,-1,1490,1296,0,0
273,-272,0,0,0,0,0,0,0,0,0,-1,1497,1296,0,0
280,-272,0,0,0,0,0,0,0,0,0,-1,1504,1296,0,0
287,-272,0,0,0,0,0,0,0,0,0,-1,1511,1296,0,0
294,-272,0,0,0,0,0,0,0,0,0,-1,1518,1296,0,0
301,-272,0,0,0,0,0,0,0,0,0,-1,1525,1296,0,0
308,-272,0,0,0,0,0,0,0,0,0,-1,1532,1296,0,0
315,-272,0,0,0,0,0,0,0,0,0,-1,1539,1296,0,0
322,-272,0,0,0,0,0,0,0,0,0,-1,1546,1296,0,0
329,-272,0,0,0,0,0,0,0,0,0,-1,1553,1296,0,0
336,-272,0,0,0,0,0,0,0,0,0,-1,1560,1296,0,0
343,-272,0,0,0,0,0,0,0,0,0,-1,1567,1296,0,0
350,-272,0,0,0,0,0,0,0,0,0,-1,1574,1296,0,0
357,-272,0,0,0,0,0,0,0,0,0,-1,1581,1296,0,0
364,-272,0,0,0,0,0,0,0,0,0,-1,1588,1296,0,0
371,-272,0,0,0,0,0,0,0,0,0,-1,1595,1296,0,0
378,-272,0,0,0,0,0,0,0,0,0,-1,1602,1296,0,0
385,-272,0,0,0,0,0,0,0,0,0,-1,1609,1296,0,0
392,-272,0,0,0,0,0,0,0,0,0,-1,1616,1296,0,0
399,-272,0,0,0,0,0,0,0,0,0,-1,1623,1296,0,0
406,-272,0,0,0,0,0,0,0,0,0,-1,1630,1296,0,0
413,-272,0,0,0,0,0,0,0,0,0,-1,1637,1296,0,0
420,-272,0,0,0,0,0,0,0,0,0,-1,1644,1296,0,0
427,-272,0,0,0,0,0,0,0,0,0,-1,1651,1296,0,0
434,-272,0,0,0,0,0,0,0,0,0,-1,1658,1296,0,0
441,-272,0,0,0,0,0,0,0,0,0,-1,1665,1296,0,0
448,-272,0,0,0,0,0,0,0,0,0,-1,1672,1296,0,0
455,-272,0,0,0,0,0,0,0,0,0,-1,1679,1296,0,0
462,-272,0,0,0,0,0,0,0,0,0,-1,1686,1296,0,0
469,-272,0,0,0,0,0,0,0,0,0,-1,1693,1296,0,0
476,-272,0,0,0,0,0,0,0,0,0,-1,1700,1296,0,0
483,-272,0,0,0,0,0,0,0,0,0,-1,1707,1296,0,0
490,-272,0,0,0,0,0,0,0,0,0,-1,1714,1296,0,0
497,-272,0,0,0,0,0,0,0,0,0,-1,1721,1296,0,0
504,-272,0,0,0,0,0,0,0,0,0,-1,1728,1296,0,0
511,-272,0,0,0,0,0,0,0,0,0,-1,1735,1296,0,0
518,-272,0,0,0,0,0,0,0,0,0,-1,1742,1296,0,0
525,-272,0,0,0,0,0,0,0,0,0,-1,1749,1296,0,0
532,-272,0,0,0,0,0,0,0,0,0,-1,1756,1296,0,0
539,-272,0,0,0,0,0,0,0,0,0,-1,1763,1296,0,0
546,-272,0,0,0,0,0,0,0,0,0,-1,1770,1296,0,0
553,-272,0,0,0,0,0,0,0,0,0,-1,1777,1296,0,0
560,-272,0,0,0,0,0,0,0,0,0,-1,1784,1296,0,0
567,-272,0,0,0,0,0,0,0,0,0,-1,1791,1296,0,0
574,-272,0,0,0,0,0,0,0,0,0,-1,1798,1296,0,0
581,-272,0,0,0,0,0,0,0,0,0,-1,1805,1296,0,0
588,-272,0,0,0,0,0,0,0,0,0,-1,1812,1296,0,0
595,-272,0,0,0,0,0,0,0,0,0,-1,1819,1296,0,0
602,-272,44.3741,2.76404,-0.0122859,0.00758778,-0.0116226,0.0129423,-0.0176404,-1.13908,0.0177262,0.0320872,1826,1296,44.3742,-2.76406
609,-272,44.2656,2.61243,-0.021427,0.00866889,-0.00833729,0.0108242,-0.0235823,-1.31782,0.0203147,0.0401051,1833,1296,44.2657,-2.61246
616,-272,44.1624,2.44849,-0.029603,0.00893989,-0.0057692,0.00978491,-0.030448,-1.42536,0.0242281,0.0453257,1840,1296,44.1623,-2.44845
623,-272,43.7771,2.58459,-0.0309504,0.00823798,-0.0037803,0.00859931,-0.0313117,-1.4755,0.0242545,0.0427789,1847,1296,43.777,-2.58453
630,-272,44.082,2.22693,0,0,0,0,0,0,0,-1,1854,1296,44.0821,-2.22697
637,-272,44.177,2.11523,0,0,0,0,0,0,0,-1,1861,1296,44.177,-2.11518
644,-272,43.7391,3.16553,0,0,0,0,0,0,0,-1,1868,1296,43.7391,-3.1655
651,-272,31.4108,2.48743,0,0,0,0,0,0,0,-1,1875,1296,31.4107,-2.48747
658,-272,35.1527,2.10571,0,0,0,0,0,0,0,-1,1882,1296,35.1527,-2.10573
665,-272,22.0238,4.14417,0,0,0,0,0,0,0,-1,1889,1296,22.0238,-4.14421
672,-272,22.661,7.21765,0,0,0,0,0,0,0,-1,1896,1296,22.661,-7.21761
679,-272,32.302,10.0204,0,0,0,0,0,0,0,-1,1903,1296,32.302,-10.0204
686,-272,32.3097,9.5802,-0.0038343,-0.00123762,-0.000289941,-0.00120564,-0.00386628,-1.46094,0.00228428,0.021243,1910,1296,32.3097,-9.58023
693,-272,32.3289,9.15393,-0.00156013,-0.00158404,7.66111e-05,-0.00149455,-0.00164962,0.708019,0.00105187,0.0119792,1917,1296,32.3288,-9.15394
700,-272,32.3278,8.74036,0.000420152,-0.00114398,0.000206667,0.000446998,-0.00117083,0.129176,0.000964712,0.0122718,1924,1296,32.3277,-8.74032
707,-272,32.3263,8.29858,0.000471621,-0.000509079,0.000525249,0.000699831,-0.00073729,0.409874,0.000829816,0.011648,1931,1296,32.3263,-8.29863
714,-272,32.3062,7.87878,-0.000183749,-0.000524668,0.000920721,0.000582158,-0.00129058,0.693866,0.00110671,0.012452,1938,1296,32.3062,-7.87882
721,-272,32.2725,7.48804,-0.000602796,-0.000414942,0.00134366,0.000838075,-0.00185581,0.820293,0.00159188,0.0151965,1945,1296,32.2725,-7.48799
728,-272,32.2661,7.03979,-0.00102966,-0.000494053,0.00187953,0.00113665,-0.00266037,0.856165,0.00225028,0.0160198,1952,1296,32.2662,-7.0398
735,-272,32.2588,6.65234,-0.00121782,-0.000677691,0.00250767,0.00157442,-0.00346993,0.839039,0.00298011,0.0152171,1959,1296,32.2588,-6.65234
742,-272,32.1639,6.25708,-0.000991539,-0.00103668,0.00328003,0.002266,-0.00429421,0.781958,0.0038474,0.0270892,1966,1296,32.1639,-6.25713
749,-272,32.1083,5.84253,0,0,0,0,0,0,0,-1,1973,1296,32.1083,-5.84254
756,-272,32.3713,5.49268,0,0,0,0,0,0,0,-1,1980,1296,32.3713,-5.49269
763,-272,31.1876,2.48035,0,0,0,0,0,0,0,-1,1987,1296,31.1877,-2.4804
770,-272,25.9485,3.67749,0,0,0,0,0,0,0,-1,1994,1296,25.9485,-3.67744
777,-272,32.3619,6.13257,0,0,0,0,0,0,0,-1,2001,1296,32.362,-6.1326
784,-272,0,0,0,0,0,0,0,0,0,-1,2008,1296,0,0
791,-272,0,0,0,0,0,0,0,0,0,-1,2015,1296,0,0
798,-272,0,0,0,0,0,0,0,0,0,-1,2022,1296,0,0
805,-272,0,0,0,0,0,0,0,0,0,-1,2029,1296,0,0
812,-272,0,0,0,0,0,0,0,0,0,-1,2036,1296,0,0
-700,-279,0,0,0,0,0,0,0,0,0,-1,524,1303,0,0
-693,-279,0,0,0,0,0,0,0,0,0,-1,531,1303,0,0
-686,-279,0,0,0,0,0,0,0,0,0,-1,538,1303,0,0
-679,-279,0,0,0,0,0,0,0,0,0,-1,545,1303,0,0
-672,-279,0,0,0,0,0,0,0,0,0,-1,552,1303,0,0
-665,-279,0,0,0,0,0,0,0,0,0,-1,559,1303,0,0
-658,-279,-18.0391,1.31946,0,0,0,0,0,0,0,-1,566,1303,-18.0391,-1.31942
-651,-279,-18.2878,1.5625,0,0,0,0,0,0,0,-1,573,1303,-18.2879,-1.56247
-644,-279,-19.7198,0.645874,0,0,0,0,0,0,0,-1,580,1303,-19.7198,-0.645909
-637,-279,-19.5298,0.346313,0,0,0,0,0,0,0,-1,587,1303,-19.5298,-0.346318
-630,-279,-19.8475,-0.60144,0,0,0,0,0,0,0,-1,594,1303,-19.8475,0.60148
-623,-279,-20.1556,2.55078,0,0,0,0,0,0,0,-1,601,1303,-20.1556,-2.55084
-616,-279,-19.804,2.9679,0.0136895,0.0145572,0.0213691,0.0354968,-0.00725018,0.795548,0.0264151,0.048277,608,1303,-19.804,-2.96791
-609,-279,-19.1789,3.60999,0.00918643,0.0102877,0.0154892,0.025236,-0.0057619,0.803165,0.0190376,0.0436382,615,1303,-19.1789,-3.61002
-602,-279,-18.826,4.23352,0.0063563,0.0072772,0.0110772,0.0179035,-0.00427004,0.80617,0.0135846,0.0148597,622,1303,-18.826,-4.23346
-595,-279,-18.8762,4.71655,0.00472475,0.00501966,0.00764052,0.0125142,-0.00276974,0.795047,0.00940299,0.0108559,629,1303,-18.8761,-4.71657
-588,-279,-18.8876,5.19006,0.00365773,0.00319196,0.00506543,0.00849563,-0.00164594,0.762427,0.00628466,0.0107284,636,1303,-18.8876,-5.19007
-581,-279,-18.9093,5.62402,0.00302818,0.00167972,0.00315005,0.00557535,-0.000867447,0.67997,0.00403723,0.0119219,643,1303,-18.9093,-5.62405
-574,-279,-18.9199,6.08557,0.00269912,0.000393375,0.0017807,0.00366757,-0.000575072,0.498116,0.00265756,0.0123496,650,1303,-18.9199,-6.08558
-567,-279,-18.9365,6.57214,0.0027834,-0.000611088,0.000848589,0.00298372,-0.000811405,0.231816,0.00230767,0.016241,657,1303,-18.9365,-6.57219
-560,-279,-18.9501,7.08081,0.00305615,-0.00116302,0.000526035,0.00312075,-0.00122762,0.122185,0.00258862,0.0156941,664,1303,-18.9501,-7.08076
-553,-279,-18.9489,7.56104,0.00332335,-0.0012448,0.000533159,0.00338475,-0.0013062,0.114659,0.00279554,0.012626,671,1303,-18.9489,-7.56099
-546,-279,-18.9102,8.02563,0.00314013,-0.00137344,0.000577231,0.00321279,-0.00144609,0.125203,0.00275352,0.0234856,678,1303,-18.9102,-8.02562
-539,-279,-19.0956,8.56995,0,0,0,0,0,0,0,-1,685,1303,-19.0956,-8.56995
-532,-279,-14.9813,7.89917,0,0,0,0,0,0,0,-1,692,1303,-14.9813,-7.89918
-525,-279,-11.7063,-0.539185,0,0,0,0,0,0,0,-1,699,1303,-11.7063,0.539166
-518,-279,-16.8138,1.11963,0,0,0,0,0,0,0,-1,706,1303,-16.8138,-1.11968
-511,-279,-20.1063,-1.37915,0,0,0,0,0,0,0,-1,713,1303,-20.1062,1.37918
-504,-279,-18.3766,1.04578,0,0,0,0,0,0,0,-1,720,1303,-18.3767,-1.04577
-497,-279,-19.0046,2.08911,0,0,0,0,0,0,0,-1,727,1303,-19.0046,-2.08905
-490,-279,-20.0176,2.55188,0,0,0,0,0,0,0,-1,734,1303,-20.0176,-2.55183
-483,-279,-20.8064,2.99792,0,0,0,0,0,0,0,-1,741,1303,-20.8064,-2.99797
-476,-279,0,0,0,0,0,0,0,0,0,-1,748,1303,0,0
-469,-279,0,0,0,0,0,0,0,0,0,-1,755,1303,0,0
-462,-279,0,0,0,0,0,0,0,0,0,-1,762,1303,0,0
-455,-279,0,0,0,0,0,0,0,0,0,-1,769,1303,0,0
-448,-279,0,0,0,0,0,0,0,0,0,-1,776,1303,0,0
-441,-279,0,0,0,0,0,0,0,0,0,-1,783,1303,0,0
-434,-279,0,0,0,0,0,0,0,0,0,-1,790,1303,0,0
-427,-279,0,0,0,0,0,0,0,0,0,-1,797,1303,0,0
-420,-279,0,0,0,0,0,0,0,0,0,-1,804,1303,0,0
-413,-279,0,0,0,0,0,0,0,0,0,-1,811,1303,0,0
-406,-279,0,0,0,0,0,0,0,0,0,-1,818,1303,0,0
-399,-279,0,0,0,0,0,0,0,0,0,-1,825,1303,0,0
-392,-279,0,0,0,0,0,0,0,0,0,-1,832,1303,0,0
-385,-279,0,0,0,0,0,0,0,0,0,-1,839,1303,0,0
-378,-279,0,0,0,0,0,0,0,0,0,-1,846,1303,0,0
-371,-279,0,0,0,0,0,0,0,0,0,-1,853,1303,0,0
-364,-279,0,0,0,0,0,0,0,0,0,-1,860,1303,0,0
-357,-279,0,0,0,0,0,0,0,0,0,-1,867,1303,0,0
-350,-279,0,0,0,0,0,0,0,0,0,-1,874,1303,0,0
-343,-279,0,0,0,0,0,0,0,0,0,-1,881,1303,0,0
-336,-279,0,0,0,0,0,0,0,0,0,-1,888,1303,0,0
-329,-279,0,0,0,0,0,0,0,0,0,-1,895,1303,0,0
-322,-279,0,0,0,0,0,0,0,0,0,-1,902,1303,0,0
-315,-279,0,0,0,0,0,0,0,0,0,-1,909,1303,0,0
-308,-279,0,0,0,0,0,0,0,0,0,-1,916,1303,0,0
-301,-279,0,0,0,0,0,0,0,0,0,-1,923,1303,0,0
-294,-279,0,0,0,0,0,0,0,0,0,-1,930,1303,0,0
-287,-279,0,0,0,0,0,0,0,0,0,-1,937,1303,0,0
-280,-279,0,0,0,0,0,0,0,0,0,-1,944,1303,0,0
-273,-279,0,0,0,0,0,0,0,0,0,-1,951,1303,0,0
-266,-279,0,0,0,0,0,0,0,0,0,-1,958,1303,0,0
-259,-279,0,0,0,0,0,0,0,0,0,-1,965,1303,0,0
-252,-279,0,0,0,0,0,0,0,0,0,-1,972,1303,0,0
-245,-279,0,0,0,0,0,0,0,0,0,-1,979,1303,0,0
-238,-279,0,0,0,0,0,0,0,0,0,-1,986,1303,0,0
-231,-279,0,0,0,0,0,0,0,0,0,-1,993,1303,0,0
-224,-279,0,0,0,0,0,0,0,0,0,-1,1000,1303,0,0
-217,-279,0,0,0,0,0,0,0,0,0,-1,1007,1303,0,0
-210,-279,0,0,0,0,0,0,0,0,0,-1,1014,1303,0,0
-203,-279,0,0,0,0,0,0,0,0,0,-1,1021,1303,0,0
-196,-279,0,0,0,0,0,0,0,0,0,-1,1028,1303,0,0
-189,-279,0,0,0,0,0,0,0,0,0,-1,1035,1303,0,0
-182,-279,0,0,0,0,0,0,0,0,0,-1,1042,1303,0,0
-175,-279,0,0,0,0,0,0,0,0,0,-1,1049,1303,0,0
-168,-279,0,0,0,0,0,0,0,0,0,-1,1056,1303,0,0
-161,-279,0,0,0,0,0,0,0,0,0,-1,1063,1303,0,0
-154,-279,0,0,0,0,0,0,0,0,0,-1,1070,1303,0,0
-147,-279,0,0,0,0,0,0,0,0,0,-1,1077,1303,0,0
-140,-279,0,0,0,0,0,0,0,0,0,-1,1084,1303,0,0
-133,-279,0,0,0,0,0,0,0,0,0,-1,1091,1303,0,0
-126,-279,0,0,0,0,0,0,0,0,0,-1,1098,1303,0,0
-119,-279,0,0,0,0,0,0,0,0,0,-1,1105,1303,0,0
-112,-279,0,0,0,0,0,0,0,0,0,-1,1112,1303,0,0
-105,-279,0,0,0,0,0,0,0,0,0,-1,1119,1303,0,0
-98,-279,0,0,0,0,0,0,0,0,0,-1,1126,1303,0,0
-91,-279,0,0,0,0,0,0,0,0,0,-1,1133,1303,0,0
-84,-279,0,0,0,0,0,0,0,0,0,-1,1140,1303,0,0
-77,-279,0,0,0,0,0,0,0,0,0,-1,1147,1303,0,0
-70,-279,0,0,0,0,0,0,0,0,0,-1,1154,1303,0,0
-63,-279,0,0,0,0,0,0,0,0,0,-1,1161,1303,0,0
-56,-279,0,0,0,0,0,0,0,0,0,-1,1168,1303,0,0
-49,-279,0,0,0,0,0,0,0,0,0,-1,1175,1303,0,0
-42,-279,0,0,0,0,0,0,0,0,0,-1,1182,1303,0,0
-35,-279,0,0,0,0,0,0,0,0,0,-1,1189,1303,0,0
-28,-279,0,0,0,0,0,0,0,0,0,-1,1196,1303,0,0
-21,-279,0,0,0,0,0,0,0,0,0,-1,1203,1303,0,0
-14,-279,0,0,0,0,0,0,0,0,0,-1,1210,1303,0,0
-7,-279,0,0,0,0,0,0,0,0,0,-1,1217,1303,0,0
0,-279,0,0,0,0,0,0,0,0,0,-1,1224,1303,0,0
7,-279,0,0,0,0,0,0,0,0,0,-1,1231,1303,0,0
14,-279,0,0,0,0,0,0,0,0,0,-1,1238,1303,0,0
21,-279,0,0,0,0,0,0,0,0,0,-1,1245,1303,0,0
28,-279,0,0,0,0,0,0,0,0,0,-1,1252,1303,0,0
35,-279,0,0,0,0,0,0,0,0,0,-1,1259,1303,0,0
42,-279,0,0,0,0,0,0,0,0,0,-1,1266,1303,0,0
49,-279,0,0,0,0,0,0,0,0,0,-1,1273,1303,0,0
56,-279,0,0,0,0,0,0,0,0,0,-1,1280,1303,0,0
63,-279,0,0,0,0,0,0,0,0,0,-1,1287,1303,0,0
70,-279,0,0,0,0,0,0,0,0,0,-1,1294,1303,0,0
77,-279,0,0,0,0,0,0,0,0,0,-1,1301,1303,0,0
84,-279,0,0,0,0,0,0,0,0,0,-1,1308,1303,0,0
91,-279,0,0,0,0,0,0,0,0,0,-1,1315,1303,0,0
98,-279,0,0,0,0,0,0,0,0,0,-1,1322,1303,0,0
105,-279,0,0,0,0,0,0,0,0,0,-1,1329,1303,0,0
112,-279,0,0,0,0,0,0,0,0,0,-1,1336,1303,0,0
119,-279,0,0,0,0,0,0,0,0,0,-1,1343,1303,0,0
126,-279,0,0,0,0,0,0,0,0,0,-1,1350,1303,0,0
133,-279,0,0,0,0,0,0,0,0,0,-1,1357,1303,0,0
140,-279,0,0,0,0,0,0,0,0,0,-1,1364,1303,0,0
147,-279,0,0,0,0,0,0,0,0,0,-1,1371,1303,0,0
154,-279,0,0,0,0,0,0,0,0,0,-1,1378,1303,0,0
161,-279,0,0,0,0,0,0,0,0,0,-1,1385,1303,0,0
168,-279,0,0,0,0,0,0,0,0,0,-1,1392,1303,0,0
175,-279,0,0,0,0,0,0,0,0,0,-1,1399,1303,0,0
182,-279,0,0,0,0,0,0,0,0,0,-1,1406,1303,0,0
189,-279,0,0,0,0,0,0,0,0,0,-1,1413,1303,0,0
196,-279,0,0,0,0,0,0,0,0,0,-1,1420,1303,0,0
203,-279,0,0,0,0,0,0,0,0,0,-1,1427,1303,0,0
210,-279,0,0,0,0,0,0,0,0,0,-1,1434,1303,0,0
217,-279,0,0,0,0,0,0,0,0,0,-1,1441,1303,0,0
224,-279,0,0,0,0,0,0,0,0,0,-1,1448,1303,0,0
231,-279,0,0,0,0,0,0,0,0,0,-1,1455,1303,0,0
238,-279,0,0,0,0,0,0,0,0,0,-1,1462,1303,0,0
245,-279,0,0,0,0,0,0,0,0,0,-1,1469,1303,0,0
252,-279,0,0,0,0,0,0,0,0,0,-1,1476,1303,0,0
259,-279,0,0,0,0,0,0,0,0,0,-1,1483,1303,0,0
266,-279,0,0,0,0,0,0,0,0,0,-1,1490,1303,0,0
273,-279,0,0,0,0,0,0,0,0,0,-1,1497,1303,0,0
280,-279,0,0,0,0,0,0,0,0,0,-1,1504,1303,0,0
287,-279,0,0,0,0,0,0,0,0,0,-1,1511,1303,0,0
294,-279,0,0,0,0,0,0,0,0,0,-1,1518,1303,0,0
301,-279,0,0,0,0,0,0,0,0,0,-1,1525,1303,0,0
308,-279,0,0,0,0,0,0,0,0,0,-1,1532,1303,0,0
315,-279,0,0,0,0,0,0,0,0,0,-1,1539,1303,0,0
322,-279,0,0,0,0,0,0,0,0,0,-1,1546,1303,0,0
329,-279,0,0,0,0,0,0,0,0,0,-1,1553,1303,0,0
336,-279,0,0,0,0,0,0,0,0,0,-1,1560,1303,0,0
343,-279,0,0,0,0,0,0,0,0,0,-1,1567,1303,0,0
350,-279,0,0,0,0,0,0,0,0,0,-1,1574,1303,0,0
357,-279,0,0,0,0,0,0,0,0,0,-1,1581,1303,0,0
364,-279,0,0,0,0,0,0,0,0,0,-1,1588,1303,0,0
371,-279,0,0,0,0,0,0,0,0,0,-1,1595,1303,0,0
378,-279,0,0,0,0,0,0,0,0,0,-1,1602,1303,0,0
385,-279,0,0,0,0,0,0,0,0,0,-1,1609,1303,0,0
392,-279,0,0,0,0,0,0,0,0,0,-1,1616,1303,0,0
399,-279,0,0,0,0,0,0,0,0,0,-1,1623,1303,0,0
406,-279,0,0,0,0,0,0,0,0,0,-1,1630,1303,0,0
413,-279,0,0,0,0,0,0,0,0,0,-1,1637,1303,0,0
420,-279,0,0,0,0,0,0,0,0,0,-1,1644,1303,0,0
427,-279,0,0,0,0,0,0,0,0,0,-1,1651,1303,0,0
434,-279,0,0,0,0,0,0,0,0,0,-1,1658,1303,0,0
441,-279,0,0,0,0,0,0,0,0,0,-1,1665,1303,0,0
448,-279,0,0,0,0,0,0,0,0,0,-1,1672,1303,0,0
455,-279,0,0,0,0,0,0,0,0,0,-1,1679,1303,0,0
462,-279,0,0,0,0,0,0,0,0,0,-1,1686,1303,0,0
469,-279,0,0,0,0,0,0,0,0,0,-1,1693,1303,0,0
476,-279,0,0,0,0,0,0,0,0,0,-1,1700,1303,0,0
483,-279,0,0,0,0,0,0,0,0,0,-1,1707,1303,0,0
490,-279,0,0,0,0,0,0,0,0,0,-1,1714,1303,0,0
497,-279,0,0,0,0,0,0,0,0,0,-1,1721,1303,0,0
504,-279,0,0,0,0,0,0,0,0,0,-1,1728,1303,0,0
511,-279,0,0,0,0,0,0,0,0,0,-1,1735,1303,0,0
518,-279,0,0,0,0,0,0,0,0,0,-1,1742,1303,0,0
525,-279,0,0,0,0,0,0,0,0,0,-1,1749,1303,0,0
532,-279,0,0,0,0,0,0,0,0,0,-1,1756,1303,0,0
539,-279,0,0,0,0,0,0,0,0,0,-1,1763,1303,0,0
546,-279,0,0,0,0,0,0,0,0,0,-1,1770,1303,0,0
553,-279,0,0,0,0,0,0,0,0,0,-1,1777,1303,0,0
560,-279,0,0,0,0,0,0,0,0,0,-1,1784,1303,0,0
567,-279,0,0,0,0,0,0,0,0,0,-1,1791,1303,0,0
574,-279,0,0,0,0,0,0,0,0,0,-1,1798,1303,0,0
581,-279,0,0,0,0,0,0,0,0,0,-1,1805,1303,0,0
588,-279,0,0,0,0,0,0,0,0,0,-1,1812,1303,0,0
595,-279,0,0,0,0,0,0,0,0,0,-1,1819,1303,0,0
602,-279,44.3401,2.70325,-0.0146175,0.00789184,-0.0159549,0.0161622,-0.0228878,-1.09257,0.0226567,0.0433146,1826,1303,44.3401,-2.70327
609,-279,44.0934,2.30371,-0.0272213,0.00813406,-0.0116232,0.0116129,-0.0307002,-1.27998,0.0252444,0.048837,1833,1303,44.0933,-2.30366
616,-279,43.8666,2.1593,-0.0342617,0.00785542,-0.00815621,0.00937974,-0.035786,-1.38604,0.027522,0.0446511,1840,1303,43.8666,-2.15927
623,-279,43.51,2.34875,-0.0330727,0.00722439,-0.00556675,0.00797925,-0.0338276,-1.43602,0.0256289,0.0437289,1847,1303,43.51,-2.3487
630,-279,43.125,2.49646,0,0,0,0,0,0,0,-1,1854,1303,43.125,-2.49647
637,-279,43.4884,3.44836,0,0,0,0,0,0,0,-1,1861,1303,43.4884,-3.44839
644,-279,33.5021,3.40234,0,0,0,0,0,0,0,-1,1868,1303,33.5021,-3.40237
651,-279,29.8456,2.3562,0,0,0,0,0,0,0,-1,1875,1303,29.8455,-2.35615
658,-279,21.5076,7.65649,0,0,0,0,0,0,0,-1,1882,1303,21.5076,-7.65648
665,-279,18.9794,6.09607,0,0,0,0,0,0,0,-1,1889,1303,18.9793,-6.09601
672,-279,23.5206,8.32507,0,0,0,0,0,0,0,-1,1896,1303,23.5206,-8.32512
679,-279,31.806,10.0632,0,0,0,0,0,0,0,-1,1903,1303,31.806,-10.0633
686,-279,31.9008,9.61169,-0.00296279,-0.00133508,-0.000527299,-0.00117919,-0.00311868,-1.28335,0.00181832,0.0245641,1910,1303,31.9007,-9.61163
693,-279,31.9015,9.17529,-0.000944401,-0.00152236,-0.00017946,-0.000893211,-0.00157355,-0.277864,0.000911256,0.0161357,1917,1303,31.9015,-9.17532
700,-279,31.8998,8.76331,0.000493274,-0.00101436,2.91346e-05,0.000493836,-0.00101492,0.0193152,0.00088823,0.0118179,1924,1303,31.8998,-8.76333
707,-279,31.8827,8.32483,0.000298179,-0.000451804,0.00043306,0.00049604,-0.000649665,0.428569,0.000663452,0.00936065,1931,1303,31.8827,-8.32483
714,-279,31.8617,7.90283,-0.000412154,-0.000479729,0.000880443,0.00043515,-0.00132703,0.76622,0.00105994,0.0101103,1938,1303,31.8617,-7.90289
721,-279,31.8838,7.47681,-0.00100959,-0.000414269,0.00134825,0.000668791,-0.00209265,0.894042,0.00166346,0.0136895,1945,1303,31.8838,-7.47679
728,-279,31.8894,7.0509,-0.00165158,-0.000546772,0.00192092,0.000899593,-0.00309794,0.925407,0.00242152,0.0149381,1952,1303,31.8894,-7.05095
735,-279,31.8494,6.66235,-0.00210446,-0.000785547,0.00255112,0.00118997,-0.00407997,0.911878,0.00319146,0.0149548,1959,1303,31.8494,-6.66237
742,-279,31.6991,6.25745,-0.00224602,-0.00128956,0.00336045,0.00162652,-0.0051621,0.856079,0.00409276,0.0330463,1966,1303,31.6991,-6.25747
749,-279,31.6681,5.8031,0,0,0,0,0,0,0,-1,1973,1303,31.6681,-5.80311
756,-279,23.2091,4.43433,0,0,0,0,0,0,0,-1,1980,1303,23.2092,-4.43432
763,-279,27.1613,3.46265,0,0,0,0,0,0,0,-1,1987,1303,27.1613,-3.4627
770,-279,21.5828,3.54199,0,0,0,0,0,0,0,-1,1994,1303,21.5827,-3.54198
777,-279,32.5369,6.99609,0,0,0,0,0,0,0,-1,2001,1303,32.5369,-6.99608
784,-279,0,0,0,0,0,0,0,0,0,-1,2008,1303,0,0
791,-279,0,0,0,0,0,0,0,0,0,-1,2015,1303,0,0
798,-279,0,0,0,0,0,0,0,0,0,-1,2022,1303,0,0
805,-279,0,0,0,0,0,0,0,0,0,-1,2029,1303,0,0
812,-279,0,0,0,0,0,0,0,0,0,-1,2036,1303,0,0
-700,-286,0,0,0,0,0,0,0,0,0,-1,524,1310,0,0
-693,-286,0,0,0,0,0,0,0,0,0,-1,531,1310,0,0
-686,-286,0,0,0,0,0,0,0,0,0,-1,538,1310,0,0
-679,-286,0,0,0,0,0,0,0,0,0,-1,545,1310,0,0
-672,-286,0,0,0,0,0,0,0,0,0,-1,552,1310,0,0
-665,-286,0,0,0,0,0,0,0,0,0,-1,559,1310,0,0
-658,-286,-18.8017,-0.794922,0,0,0,0,0,0,0,-1,566,1310,-18.8017,0.79496
-651,-286,-18.798,0.594727,0,0,0,0,0,0,0,-1,573,1310,-18.798,-0.594671
-644,-286,-19.1089,1.80017,0,0,0,0,0,0,0,-1,580,1310,-19.1089,-1.80021
-637,-286,-19.4593,2.65125,0,0,0,0,0,0,0,-1,587,1310,-19.4593,-2.65124
-630,-286,-19.6556,3.39246,0,0,0,0,0,0,0,-1,594,1310,-19.6556,-3.39242
-623,-286,-20.1415,-1.72998,0,0,0,0,0,0,0,-1,601,1310,-20.1415,1.72995
-616,-286,-20.043,1.98535,0,0,0,0,0,0,0,-1,608,1310,-20.043,-1.98539
-609,-286,-18.9032,3.2771,0,0,0,0,0,0,0,-1,615,1310,-18.9032,-3.27711
-602,-286,-18.3794,4.1709,0.007279,0.00779178,0.012459,0.0199971,-0.00492627,0.795686,0.0152412,0.0201813,622,1310,-18.3794,-4.17085
-595,-286,-18.4152,4.7168,0.00533072,0.0054445,0.00852175,0.0139096,-0.00313434,0.788736,0.0104753,0.0118767,629,1310,-18.4151,-4.71678
-588,-286,-18.4165,5.17786,0.00400673,0.00358994,0.00564364,0.00944583,-0.00184915,0.766944,0.00699555,0.0127794,636,1310,-18.4165,-5.17787
-581,-286,-18.3887,5.62695,0.00318125,0.0020946,0.00355426,0.00623347,-0.000957624,0.709553,0.00450888,0.0142315,643,1310,-18.3887,-5.627
-574,-286,-18.4117,6.10242,0.00267845,0.000839846,0.0020677,0.004022,-0.000503705,0.576221,0.00286404,0.0142678,650,1310,-18.4117,-6.1024
-567,-286,-18.4385,6.59155,0.002587,-0.000144832,0.0010465,0.00294181,-0.00049964,0.326879,0.00214722,0.0135702,657,1310,-18.4386,-6.59159
-560,-286,-18.4658,7.09033,0.00278899,-0.000864986,0.000543766,0.0028682,-0.00094419,0.14464,0.00229261,0.0136206,664,1310,-18.4658,-7.09034
-553,-286,-18.4836,7.57056,0.00321921,-0.0012991,0.000520039,0.0032783,-0.00135818,0.113125,0.00275232,0.010286,671,1310,-18.4836,-7.57058
-546,-286,-18.4656,8.07104,0.0034629,-0.00171848,0.000630856,0.0035386,-0.00179418,0.11943,0.00313331,0.0181585,678,1310,-18.4656,-8.07107
-539,-286,-18.4397,8.51196,0.00379363,-0.00216677,0.000857144,0.00391445,-0.00228759,0.140027,0.00362158,0.0419311,685,1310,-18.4397,-8.512
-532,-286,-18.2838,8.92664,0,0,0,0,0,0,0,-1,692,1310,-18.2838,-8.92659
-525,-286,-11.4528,-1.11768,0,0,0,0,0,0,0,-1,699,1310,-11.4528,1.11769
-518,-286,-11.0701,1.37329,0,0,0,0,0,0,0,-1,706,1310,-11.0701,-1.37332
-511,-286,-17.7545,-0.0791016,0,0,0,0,0,0,0,-1,713,1310,-17.7544,0.0791606
-504,-286,-18.0455,1.29602,0,0,0,0,0,0,0,-1,720,1310,-18.0455,-1.29601
-497,-286,-18.3367,2.67114,0,0,0,0,0,0,0,-1,727,1310,-18.3366,-2.67118
-490,-286,-19.5795,2.47266,0,0,0,0,0,0,0,-1,734,1310,-19.5795,-2.4727
-483,-286,-19.7277,2.74744,0,0,0,0,0,0,0,-1,741,1310,-19.7277,-2.74747
-476,-286,-20.0391,3.06177,0,0,0,0,0,0,0,-1,748,1310,-20.0391,-3.06178
-469,-286,0,0,0,0,0,0,0,0,0,-1,755,1310,0,0
-462,-286,0,0,0,0,0,0,0,0,0,-1,762,1310,0,0
-455,-286,0,0,0,0,0,0,0,0,0,-1,769,1310,0,0
-448,-286,0,0,0,0,0,0,0,0,0,-1,776,1310,0,0
-441,-286,0,0,0,0,0,0,0,0,0,-1,783,1310,0,0
-434,-286,0,0,0,0,0,0,0,0,0,-1,790,1310,0,0
-427,-286,0,0,0,0,0,0,0,0,0,-1,797,1310,0,0
-420,-286,0,0,0,0,0,0,0,0,0,-1,804,1310,0,0
-413,-286,0,0,0,0,0,0,0,0,0,-1,811,1310,0,0
-406,-286,0,0,0,0,0,0,0,0,0,-1,818,1310,0,0
-399,-286,0,0,0,0,0,0,0,0,0,-1,825,1310,0,0
-392,-286,0,0,0,0,0,0,0,0,0,-1,832,1310,0,0
-385,-286,0,0,0,0,0,0,0,0,0,-1,839,1310,0,0
-378,-286,0,0,0,0,0,0,0,0,0,-1,846,1310,0,0
-371,-286,0,0,0,0,0,0,0,0,0,-1,853,1310,0,0
-364,-286,0,0,0,0,0,0,0,0,0,-1,860,1310,0,0
-357,-286,0,0,0,0,0,0,0,0,0,-1,867,1310,0,0
-350,-286,0,0,0,0,0,0,0,0,0,-1,874,1310,0,0
-343,-286,0,0,0,0,0,0,0,0,0,-1,881,1310,0,0
-336,-286,0,0,0,0,0,0,0,0,0,-1,888,1310,0,0
-329,-286,0,0,0,0,0,0,0,0,0,-1,895,1310,0,0
-322,-286,0,0,0,0,0,0,0,0,0,-1,902,1310,0,0
-315,-286,0,0,0,0,0,0,0,0,0,-1,909,1310,0,0
-308,-286,0,0,0,0,0,0,0,0,0,-1,916,1310,0,0
-301,-286,0,0,0,0,0,0,0,0,0,-1,923,1310,0,0
-294,-286,0,0,0,0,0,0,0,0,0,-1,930,1310,0,0
-287,-286,0,0,0,0,0,0,0,0,0,-1,937,1310,0,0
-280,-286,0,0,0,0,0,0,0,0,0,-1,944,1310,0,0
-273,-286,0,0,0,0,0,0,0,0,0,-1,951,1310,0,0
-266,-286,0,0,0,0,0,0,0,0,0,-1,958,1310,0,0
-259,-286,0,0,0,0,0,0,0,0,0,-1,965,1310,0,0
-252,-286,0,0,0,0,0,0,0,0,0,-1,972,1310,0,0
-245,-286,0,0,0,0,0,0,0,0,0,-1,979,1310,0,0
-238,-286,0,0,0,0,0,0,0,0,0,-1,986,1310,0,0
-231,-286,0,0,0,0,0,0,0,0,0,-1,993,1310,0,0
-224,-286,0,0,0,0,0,0,0,0,0,-1,1000,1310,0,0
-217,-286,0,0,0,0,0,0,0,0,0,-1,1007,1310,0,0
-210,-286,0,0,0,0,0,0,0,0,0,-1,1014,1310,0,0
-203,-286,0,0,0,0,0,0,0,0,0,-1,1021,1310,0,0
-196,-286,0,0,0,0,0,0,0,0,0,-1,1028,1310,0,0
-189,-286,0,0,0,0,0,0,0,0,0,-1,1035,1310,0,0
-182,-286,0,0,0,0,0,0,0,0,0,-1,1042,1310,0,0
-175,-286,0,0,0,0,0,0,0,0,0,-1,1049,1310,0,0
-168,-286,0,0,0,0,0,0,0,0,0,-1,1056,1310,0,0
-161,-286,0,0,0,0,0,0,0,0,0,-1,1063,1310,0,0
-154,-286,0,0,0,0,0,0,0,0,0,-1,1070,1310,0,0
-147,-286,0,0,0,0,0,0,0,0,0,-1,1077,1310,0,0
-140,-286,0,0,0,0,0,0,0,0,0,-1,1084,1310,0,0
-133,-286,0,0,0,0,0,0,0,0,0,-1,1091,1310,0,0
-126,-286,0,0,0,0,0,0,0,0,0,-1,1098,1310,0,0
-119,-286,0,0,0,0,0,0,0,0,0,-1,1105,1310,0,0
-112,-286,0,0,0,0,0,0,0,0,0,-1,1112,1310,0,0
-105,-286,0,0,0,0,0,0,0,0,0,-1,1119,1310,0,0
-98,-286,0,0,0,0,0,0,0,0,0,-1,1126,1310,0,0
-91,-286,0,0,0,0,0,0,0,0,0,-1,1133,1310,0,0
-84,-286,0,0,0,0,0,0,0,0,0,-1,1140,1310,0,0
-77,-286,0,0,0,0,0,0,0,0,0,-1,1147,1310,0,0
-70,-286,0,0,0,0,0,0,0,0,0,-1,1154,1310,0,0
-63,-286,0,0,0,0,0,0,0,0,0,-1,1161,1310,0,0
-56,-286,0,0,0,0,0,0,0,0,0,-1,1168,1310,0,0
-49,-286,0,0,0,0,0,0,0,0,0,-1,1175,1310,0,0
-42,-286,0,0,0,0,0,0,0,0,0,-1,1182,1310,0,0
-35,-286,0,0,0,0,0,0,0,0,0,-1,1189,1310,0,0
-28,-286,0,0,0,0,0,0,0,0,0,-1,1196,1310,0,0
-21,-286,0,0,0,0,0,0,0,0,0,-1,1203,1310,0,0
-14,-286,0,0,0,0,0,0,0,0,0,-1,1210,1310,0,0
-7,-286,0,0,0,0,0,0,0,0,0,-1,1217,1310,0,0
0,-286,0,0,0,0,0,0,0,0,0,-1,1224,1310,0,0
7,-286,0,0,0,0,0,0,0,0,0,-1,1231,1310,0,0
14,-286,0,0,0,0,0,0,0,0,0,-1,1238,1310,0,0
21,-286,0,0,0,0,0,0,0,0,0,-1,1245,1310,0,0
28,-286,0,0,0,0,0,0,0,0,0,-1,1252,1310,0,0
35,-286,0,0,0,0,0,0,0,0,0,-1,1259,1310,0,0
42,-286,0,0,0,0,0,0,0,0,0,-1,1266,1310,0,0
49,-286,0,0,0,0,0,0,0,0,0,-1,1273,1310,0,0
56,-286,0,0,0,0,0,0,0,0,0,-1,1280,1310,0,0
63,-286,0,0,0,0,0,0,0,0,0,-1,1287,1310,0,0
70,-286,0,0,0,0,0,0,0,0,0,-1,1294,1310,0,0
77,-286,0,0,0,0,0,0,0,0,0,-1,1301,1310,0,0
84,-286,0,0,0,0,0,0,0,0,0,-1,1308,1310,0,0
91,-286,0,0,0,0,0,0,0,0,0,-1,1315,1310,0,0
98,-286,0,0,0,0,0,0,0,0,0,-1,1322,1310,0,0
105,-286,0,0,0,0,0,0,0,0,0,-1,1329,1310,0,0
112,-286,0,0,0,0,0,0,0,0,0,-1,1336,1310,0,0
119,-286,0,0,0,0,0,0,0,0,0,-1,1343,1310,0,0
126,-286,0,0,0,0,0,0,0,0,0,-1,1350,1310,0,0
133,-286,0,0,0,0,0,0,0,0,0,-1,1357,1310,0,0
140,-286,0,0,0,0,0,0,0,0,0,-1,1364,1310,0,0
147,-286,0,0,0,0,0,0,0,0,0,-1,1371,1310,0,0
154,-286,0,0,0,0,0,0,0,0,0,-1,1378,1310,0,0
161,-286,0,0,0,0,0,0,0,0,0,-1,1385,1310,0,0
168,-286,0,0,0,0,0,0,0,0,0,-1,1392,1310,0,0
175,-286,0,0,0,0,0,0,0,0,0,-1,1399,1310,0,0
182,-286,0,0,0,0,0,0,0,0,0,-1,1406,1310,0,0
189,-286,0,0,0,0,0,0,0,0,0,-1,1413,1310,0,0
196,-286,0,0,0,0,0,0,0,0,0,-1,1420,1310,0,0
203,-286,0,0,0,0,0,0,0,0,0,-1,1427,1310,0,0
210,-286,0,0,0,0,0,0,0,0,0,-1,1434,1310,0,0
217,-286,0,0,0,0,0,0,0,0,0,-1,1441,1310,0,0
224,-286,0,0,0,0,0,0,0,0,0,-1,1448,1310,0,0
231,-286,0,0,0,0,0,0,0,0,0,-1,1455,1310,0,0
238,-286,0,0,0,0,0,0,0,0,0,-1,1462,1310,0,0
245,-286,0,0,0,0,0,0,0,0,0,-1,1469,1310,0,0
252,-286,0,0,0,0,0,0,0,0,0,-1,1476,1310,0,0
259,-286,0,0,0,0,0,0,0,0,0,-1,1483,1310,0,0
266,-286,0,0,0,0,0,0,0,0,0,-1,1490,1310,0,0
273,-286,0,0,0,0,0,0,0,0,0,-1,1497,1310,0,0
280,-286,0,0,0,0,0,0,0,0,0,-1,1504,1310,0,0
287,-286,0,0,0,0,0,0,0,0,0,-1,1511,1310,0,0
294,-286,0,0,0,0,0,0,0,0,0,-1,1518,1310,0,0
301,-286,0,0,0,0,0,0,0,0,0,-1,1525,1310,0,0
308,-286,0,0,0,0,0,0,0,0,0,-1,1532,1310,0,0
315,-286,0,0,0,0,0,0,0,0,0,-1,1539,1310,0,0
322,-286,0,0,0,0,0,0,0,0,0,-1,1546,1310,0,0
329,-286,0,0,0,0,0,0,0,0,0,-1,1553,1310,0,0
336,-286,0,0,0,0,0,0,0,0,0,-1,1560,1310,0,0
343,-286,0,0,0,0,0,0,0,0,0,-1,1567,1310,0,0
350,-286,0,0,0,0,0,0,0,0,0,-1,1574,1310,0,0
357,-286,0,0,0,0,0,0,0,0,0,-1,1581,1310,0,0
364,-286,0,0,0,0,0,0,0,0,0,-1,1588,1310,0,0
371,-286,0,0,0,0,0,0,0,0,0,-1,1595,1310,0,0
378,-286,0,0,0,0,0,0,0,0,0,-1,1602,1310,0,0
385,-286,0,0,0,0,0,0,0,0,0,-1,1609,1310,0,0
392,-286,0,0,0,0,0,0,0,0,0,-1,1616,1310,0,0
399,-286,0,0,0,0,0,0,0,0,0,-1,1623,1310,0,0
406,-286,0,0,0,0,0,0,0,0,0,-1,1630,1310,0,0
413,-286,0,0,0,0,0,0,0,0,0,-1,1637,1310,0,0
420,-286,0,0,0,0,0,0,0,0,0,-1,1644,1310,0,0
427,-286,0,0,0,0,0,0,0,0,0,-1,1651,1310,0,0
434,-286,0,0,0,0,0,0,0,0,0,-1,1658,1310,0,0
441,-286,0,0,0,0,0,0,0,0,0,-1,1665,1310,0,0
448,-286,0,0,0,0,0,0,0,0,0,-1,1672,1310,0,0
455,-286,0,0,0,0,0,0,0,0,0,-1,1679,1310,0,0
462,-286,0,0,0,0,0,0,0,0,0,-1,1686,1310,0,0
469,-286,0,0,0,0,0,0,0,0,0,-1,1693,1310,0,0
476,-286,0,0,0,0,0,0,0,0,0,-1,1700,1310,0,0
483,-286,0,0,0,0,0,0,0,0,0,-1,1707,1310,0,0
490,-286,0,0,0,0,0,0,0,0,0,-1,1714,1310,0,0
497,-286,0,0,0,0,0,0,0,0,0,-1,1721,1310,0,0
504,-286,0,0,0,0,0,0,0,0,0,-1,1728,1310,0,0
511,-286,0,0,0,0,0,0,0,0,0,-1,1735,1310,0,0
518,-286,0,0,0,0,0,0,0,0,0,-1,1742,1310,0,0
525,-286,0,0,0,0,0,0,0,0,0,-1,1749,1310,0,0
532,-286,0,0,0,0,0,0,0,0,0,-1,1756,1310,0,0
539,-286,0,0,0,0,0,0,0,0,0,-1,1763,1310,0,0
546,-286,0,0,0,0,0,0,0,0,0,-1,1770,1310,0,0
553,-286,0,0,0,0,0,0,0,0,0,-1,1777,1310,0,0
560,-286,0,0,0,0,0,0,0,0,0,-1,1784,1310,0,0
567,-286,0,0,0,0,0,0,0,0,0,-1,1791,1310,0,0
574,-286,0,0,0,0,0,0,0,0,0,-1,1798,1310,0,0
581,-286,0,0,0,0,0,0,0,0,0,-1,1805,1310,0,0
588,-286,0,0,0,0,0,0,0,0,0,-1,1812,1310,0,0
595,-286,44.5405,2.8335,0,0,0,0,0,0,0,-1,1819,1310,44.5405,-2.83344
602,-286,44.4545,2.50977,-0.0158879,0.00835035,-0.0194566,0.0191535,-0.0266911,-1.06394,0.0265874,0.0478472,1826,1310,44.4545,-2.50974
609,-286,44.1732,2.13171,-0.0314403,0.00720127,-0.0145644,0.0120758,-0.0363149,-1.24783,0.0290832,0.0463001,1833,1310,44.1733,-2.13169
616,-286,43.807,1.89392,-0.0361393,0.00647289,-0.0105009,0.00892008,-0.0385865,-1.34184,0.0291561,0.0442057,1840,1310,43.8071,-1.89398
623,-286,43.5143,1.89709,-0.0333434,0.00600053,-0.00751089,0.00738562,-0.0347285,-1.38843,0.0259667,0.0457899,1847,1310,43.5143,-1.89714
630,-286,43.123,1.79443,0,0,0,0,0,0,0,-1,1854,1310,43.1231,-1.7944
637,-286,42.8304,1.58423,0,0,0,0,0,0,0,-1,1861,1310,42.8305,-1.58421
644,-286,25.6433,1.33862,0,0,0,0,0,0,0,-1,1868,1310,25.6433,-1.33858
651,-286,25.2507,1.88245,0,0,0,0,0,0,0,-1,1875,1310,25.2508,-1.88245
658,-286,25.9475,9.43689,0,0,0,0,0,0,0,-1,1882,1310,25.9475,-9.43693
665,-286,24.9838,8.03101,0,0,0,0,0,0,0,-1,1889,1310,24.9837,-8.03104
672,-286,31.7012,10.3076,0,0,0,0,0,0,0,-1,1896,1310,31.7012,-10.3076
679,-286,31.3701,10.1476,-0.00347061,-0.000781243,-0.000856536,-0.000531615,-0.00372024,-1.28721,0.00232332,0.0494205,1903,1310,31.3701,-10.1476
686,-286,31.5033,9.64331,-0.00207604,-0.00128598,-0.000701263,-0.000876136,-0.00248588,-1.0419,0.00145591,0.0225698,1910,1310,31.5033,-9.64336
693,-286,31.474,9.21008,-0.000543421,-0.00128213,-0.000361526,-0.000395935,-0.00142961,-0.387345,0.000852324,0.0168171,1917,1310,31.474,-9.21005
700,-286,31.4531,8.76416,0.000349176,-0.000743542,-8.53573e-05,0.000355804,-0.000750169,-0.0774883,0.000651925,0.0118902,1924,1310,31.4531,-8.76418
707,-286,31.437,8.35327,2.7397e-05,-0.000301769,0.00036925,0.000267083,-0.000541454,0.575753,0.000475684,0.0088331,1931,1310,31.437,-8.35329
714,-286,31.4252,7.93323,-0.000623567,-0.000378083,0.000864702,0.000372545,-0.00137419,0.855901,0.00106231,0.00850855,1938,1310,31.4251,-7.93325
721,-286,31.4475,7.50818,-0.00130092,-0.000427414,0.0013819,0.000585109,-0.00231345,0.938458,0.00176987,0.0112104,1945,1310,31.4475,-7.50823
728,-286,31.443,7.08276,-0.00208221,-0.000671444,0.00200071,0.000744586,-0.00349824,0.954878,0.00261592,0.0144974,1952,1310,31.443,-7.08274
735,-286,31.4525,6.64539,-0.00276613,-0.00103172,0.00263494,0.000875052,-0.0046729,0.944373,0.00344421,0.0186733,1959,1310,31.4526,-6.64537
742,-286,31.4373,6.30469,-0.00333271,-0.00180443,0.00350309,0.00101689,-0.00615403,0.892783,0.00448029,0.0439125,1966,1310,31.4373,-6.30466
749,-286,31.6295,5.91821,0,0,0,0,0,0,0,-1,1973,1310,31.6295,-5.91825
756,-286,24.8226,4.43481,0,0,0,0,0,0,0,-1,1980,1310,24.8227,-4.43479
763,-286,20.6671,3.99683,0,0,0,0,0,0,0,-1,1987,1310,20.6671,-3.99683
770,-286,23.9147,4.45679,0,0,0,0,0,0,0,-1,1994,1310,23.9146,-4.45675
777,-286,0,0,0,0,0,0,0,0,0,-1,2001,1310,0,0
784,-286,0,0,0,0,0,0,0,0,0,-1,2008,1310,0,0
791,-286,0,0,0,0,0,0,0,0,0,-1,2015,1310,0,0
798,-286,0,0,0,0,0,0,0,0,0,-1,2022,1310,0,0
805,-286,0,0,0,0,0,0,0,0,0,-1,2029,1310,0,0
812,-286,0,0,0,0,0,0,0,0,0,-1,2036,1310,0,0
-700,-293,0,0,0,0,0,0,0,0,0,-1,524,1317,0,0
-693,-293,0,0,0,0,0,0,0,0,0,-1,531,1317,0,0
-686,-293,0,0,0,0,0,0,0,0,0,-1,538,1317,0,0
-679,-293,0,0,0,0,0,0,0,0,0,-1,545,1317,0,0
-672,-293,0,0,0,0,0,0,0,0,0,-1,552,1317,0,0
-665,-293,0,0,0,0,0,0,0,0,0,-1,559,1317,0,0
-658,-293,0,0,0,0,0,0,0,0,0,-1,566,1317,0,0
-651,-293,-19.3986,0.230591,0,0,0,0,0,0,0,-1,573,1317,-19.3986,-0.230615
-644,-293,-19.6501,1.56128,0,0,0,0,0,0,0,-1,580,1317,-19.6502,-1.56126
-637,-293,-19.9641,2.40369,0,0,0,0,0,0,0,-1,587,1317,-19.9641,-2.4037
-630,-293,-20.2918,3.08264,0,0,0,0,0,0,0,-1,594,1317,-20.2918,-3.08267
-623,-293,-15.6058,0.229614,0,0,0,0,0,0,0,-1,601,1317,-15.6058,-0.229666
-616,-293,-15.5056,2.17737,0,0,0,0,0,0,0,-1,608,1317,-15.5055,-2.17742
-609,-293,-17.813,3.35608,0,0,0,0,0,0,0,-1,615,1317,-17.813,-3.35609
-602,-293,-17.7963,4.052,0.00809626,0.00835556,0.0137072,0.0219337,-0.00548192,0.790127,0.0167515,0.0478289,622,1317,-17.7963,-4.05201
-595,-293,-17.9782,4.69763,0.0059276,0.005887,0.0092534,0.0151607,-0.00334613,0.784301,0.0113876,0.0194764,629,1317,-17.9782,-4.69767
-588,-293,-17.9337,5.16907,0.0044156,0.00398715,0.00609868,0.0103038,-0.00190106,0.767842,0.00758275,0.0156815,636,1317,-17.9337,-5.16909
-581,-293,-17.892,5.63562,0.00346158,0.00250261,0.00388984,0.00690137,-0.000937184,0.724074,0.00494301,0.0178491,643,1317,-17.892,-5.63562
-574,-293,-17.9273,6.14661,0.00286437,0.0012755,0.0023365,0.0045378,-0.000397934,0.621524,0.00316619,0.016731,650,1317,-17.9273,-6.14658
-567,-293,-17.9755,6.62891,0.00264729,0.000303638,0.00129278,0.0032203,-0.000269373,0.417218,0.00224206,0.0162219,657,1317,-17.9755,-6.62885
-560,-293,-17.9938,7.1084,0.00277959,-0.000488717,0.000668889,0.00291118,-0.000620313,0.194257,0.00217722,0.0166324,664,1317,-17.9938,-7.10846
-553,-293,-17.9993,7.58142,0.00332907,-0.00107104,0.000617749,0.00341416,-0.00115613,0.136869,0.00274391,0.0113022,671,1317,-17.9993,-7.58144
-546,-293,-18.0026,8.08618,0.00408762,-0.00148755,0.000712192,0.00417716,-0.00157709,0.125068,0.00343341,0.011571,678,1317,-18.0026,-8.08621
-539,-293,-17.9506,8.5498,0.00537757,-0.00202323,0.00103573,0.00551978,-0.00216545,0.136456,0.00457578,0.0330859,685,1317,-17.9506,-8.54979
-532,-293,-17.881,8.93372,0,0,0,0,0,0,0,-1,692,1317,-17.8811,-8.93374
-525,-293,-8.20642,3.62256,0,0,0,0,0,0,0,-1,699,1317,-8.20639,-3.6226
-518,-293,-10.1053,0.314209,0,0,0,0,0,0,0,-1,706,1317,-10.1053,-0.314234
-511,-293,-11.6276,0.235352,0,0,0,0,0,0,0,-1,713,1317,-11.6276,-0.235372
-504,-293,-17.9086,1.25427,0,0,0,0,0,0,0,-1,720,1317,-17.9086,-1.25423
-497,-293,-18.8006,1.62122,0,0,0,0,0,0,0,-1,727,1317,-18.8006,-1.62119
-490,-293,-18.8961,1.99255,0,0,0,0,0,0,0,-1,734,1317,-18.8961,-1.99251
-483,-293,-19.0831,2.35498,0,0,0,0,0,0,0,-1,741,1317,-19.0831,-2.35497
-476,-293,-19.5228,2.61243,0,0,0,0,0,0,0,-1,748,1317,-19.5228,-2.61237
-469,-293,0,0,0,0,0,0,0,0,0,-1,755,1317,0,0
-462,-293,0,0,0,0,0,0,0,0,0,-1,762,1317,0,0
-455,-293,0,0,0,0,0,0,0,0,0,-1,769,1317,0,0
-448,-293,0,0,0,0,0,0,0,0,0,-1,776,1317,0,0
-441,-293,0,0,0,0,0,0,0,0,0,-1,783,1317,0,0
-434,-293,0,0,0,0,0,0,0,0,0,-1,790,1317,0,0
-427,-293,0,0,0,0,0,0,0,0,0,-1,797,1317,0,0
-420,-293,0,0,0,0,0,0,0,0,0,-1,804,1317,0,0
-413,-293,0,0,0,0,0,0,0,0,0,-1,811,1317,0,0
-406,-293,0,0,0,0,0,0,0,0,0,-1,818,1317,0,0
-399,-293,0,0,0,0,0,0,0,0,0,-1,825,1317,0,0
-392,-293,0,0,0,0,0,0,0,0,0,-1,832,1317,0,0
-385,-293,0,0,0,0,0,0,0,0,0,-1,839,1317,0,0
-378,-293,0,0,0,0,0,0,0,0,0,-1,846,1317,0,0
-371,-293,0,0,0,0,0,0,0,0,0,-1,853,1317,0,0
-364,-293,0,0,0,0,0,0,0,0,0,-1,860,1317,0,0
-357,-293,0,0,0,0,0,0,0,0,0,-1,867,1317,0,0
-350,-293,0,0,0,0,0,0,0,0,0,-1,874,1317,0,0
-343,-293,0,0,0,0,0,0,0,0,0,-1,881,1317,0,0
-336,-293,0,0,0,0,0,0,0,0,0,-1,888,1317,0,0
-329,-293,0,0,0,0,0,0,0,0,0,-1,895,1317,0,0
-322,-293,0,0,0,0,0,0,0,0,0,-1,902,1317,0,0
-315,-293,0,0,0,0,0,0,0,0,0,-1,909,1317,0,0
-308,-293,0,0,0,0,0,0,0,0,0,-1,916,1317,0,0
-301,-293,0,0,0,0,0,0,0,0,0,-1,923,1317,0,0
-294,-293,0,0,0,0,0,0,0,0,0,-1,930,1317,0,0
-287,-293,0,0,0,0,0,0,0,0,0,-1,937,1317,0,0
-280,-293,0,0,0,0,0,0,0,0,0,-1,944,1317,0,0
-273,-293,0,0,0,0,0,0,0,0,0,-1,951,1317,0,0
-266,-293,0,0,0,0,0,0,0,0,0,-1,958,1317,0,0
-259,-293,0,0,0,0,0,0,0,0,0,-1,965,1317,0,0
-252,-293,0,0,0,0,0,0,0,0,0,-1,972,1317,0,0
-245,-293,0,0,0,0,0,0,0,0,0,-1,979,1317,0,0
-238,-293,0,0,0,0,0,0,0,0,0,-1,986,1317,0,0
-231,-293,0,0,0,0,0,0,0,0,0,-1,993,1317,0,0
-224,-293,0,0,0,0,0,0,0,0,0,-1,1000,1317,0,0
-217,-293,0,0,0,0,0,0,0,0,0,-1,1007,1317,0,0
-210,-293,0,0,0,0,0,0,0,0,0,-1,1014,1317,0,0
-203,-293,0,0,0,0,0,0,0,0,0,-1,1021,1317,0,0
-196,-293,0,0,0,0,0,0,0,0,0,-1,1028,1317,0,0
-189,-293,0,0,0,0,0,0,0,0,0,-1,1035,1317,0,0
-182,-293,0,0,0,0,0,0,0,0,0,-1,1042,1317,0,0
-175,-293,0,0,0,0,0,0,0,0,0,-1,1049,1317,0,0
-168,-293,0,0,0,0,0,0,0,0,0,-1,1056,1317,0,0
-161,-293,0,0,0,0,0,0,0,0,0,-1,1063,1317,0,0
-154,-293,0,0,0,0,0,0,0,0,0,-1,1070,1317,0,0
-147,-293,0,0,0,0,0,0,0,0,0,-1,1077,1317,0,0
-140,-293,0,0,0,0,0,0,0,0,0,-1,1084,1317,0,0
-133,-293,0,0,0,0,0,0,0,0,0,-1,1091,1317,0,0
-126,-293,0,0,0,0,0,0,0,0,0,-1,1098,1317,0,0
-119,-293,0,0,0,0,0,0,0,0,0,-1,1105,1317,0,0
-112,-293,0,0,0,0,0,0,0,0,0,-1,1112,1317,0,0
-105,-293,0,0,0,0,0,0,0,0,0,-1,1119,1317,0,0
-98,-293,0,0,0,0,0,0,0,0,0,-1,1126,1317,0,0
-91,-293,0,0,0,0,0,0,0,0,0,-1,1133,1317,0,0
-84,-293,0,0,0,0,0,0,0,0,0,-1,1140,1317,0,0
-77,-293,0,0,0,0,0,0,0,0,0,-1,1147,1317,0,0
-70,-293,0,0,0,0,0,0,0,0,0,-1,1154,1317,0,0
-63,-293,0,0,0,0,0,0,0,0,0,-1,1161,1317,0,0
-56,-293,0,0,0,0,0,0,0,0,0,-1,1168,1317,0,0
-49,-293,0,0,0,0,0,0,0,0,0,-1,1175,1317,0,0
-42,-293,0,0,0,0,0,0,0,0,0,-1,1182,1317,0,0
-35,-293,0,0,0,0,0,0,0,0,0,-1,1189,1317,0,0
-28,-293,0,0,0,0,0,0,0,0,0,-1,1196,1317,0,0
-21,-293,0,0,0,0,0,0,0,0,0,-1,1203,1317,0,0
-14,-293,0,0,0,0,0,0,0,0,0,-1,1210,1317,0,0
-7,-293,0,0,0,0,0,0,0,0,0,-1,1217,1317,0,0
0,-293,0,0,0,0,0,0,0,0,0,-1,1224,1317,0,0
7,-293,0,0,0,0,0,0,0,0,0,-1,1231,1317,0,0
14,-293,0,0,0,0,0,0,0,0,0,-1,1238,1317,0,0
21,-293,0,0,0,0,0,0,0,0,0,-1,1245,1317,0,0
28,-293,0,0,0,0,0,0,0,0,0,-1,1252,1317,0,0
35,-293,0,0,0,0,0,0,0,0,0,-1,1259,1317,0,0
42,-293,0,0,0,0,0,0,0,0,0,-1,1266,1317,0,0
49,-293,0,0,0,0,0,0,0,0,0,-1,1273,1317,0,0
56,-293,0,0,0,0,0,0,0,0,0,-1,1280,1317,0,0
63,-293,0,0,0,0,0,0,0,0,0,-1,1287,1317,0,0
70,-293,0,0,0,0,0,0,0,0,0,-1,1294,1317,0,0
77,-293,0,0,0,0,0,0,0,0,0,-1,1301,1317,0,0
84,-293,0,0,0,0,0,0,0,0,0,-1,1308,1317,0,0
91,-293,0,0,0,0,0,0,0,0,0,-1,1315,1317,0,0
98,-293,0,0,0,0,0,0,0,0,0,-1,1322,1317,0,0
105,-293,0,0,0,0,0,0,0,0,0,-1,1329,1317,0,0
112,-293,0,0,0,0,0,0,0,0,0,-1,1336,1317,0,0
119,-293,0,0,0,0,0,0,0,0,0,-1,1343,1317,0,0
126,-293,0,0,0,0,0,0,0,0,0,-1,1350,1317,0,0
133,-293,0,0,0,0,0,0,0,0,0,-1,1357,1317,0,0
140,-293,0,0,0,0,0,0,0,0,0,-1,1364,1317,0,0
147,-293,0,0,0,0,0,0,0,0,0,-1,1371,1317,0,0
154,-293,0,0,0,0,0,0,0,0,0,-1,1378,1317,0,0
161,-293,0,0,0,0,0,0,0,0,0,-1,1385,1317,0,0
168,-293,0,0,0,0,0,0,0,0,0,-1,1392,1317,0,0
175,-293,0,0,0,0,0,0,0,0,0,-1,1399,1317,0,0
182,-293,0,0,0,0,0,0,0,0,0,-1,1406,1317,0,0
189,-293,0,0,0,0,0,0,0,0,0,-1,1413,1317,0,0
196,-293,0,0,0,0,0,0,0,0,0,-1,1420,1317,0,0
203,-293,0,0,0,0,0,0,0,0,0,-1,1427,1317,0,0
210,-293,0,0,0,0,0,0,0,0,0,-1,1434,1317,0,0
217,-293,0,0,0,0,0,0,0,0,0,-1,1441,1317,0,0
224,-293,0,0,0,0,0,0,0,0,0,-1,1448,1317,0,0
231,-293,0,0,0,0,0,0,0,0,0,-1,1455,1317,0,0
238,-293,0,0,0,0,0,0,0,0,0,-1,1462,1317,0,0
245,-293,0,0,0,0,0,0,0,0,0,-1,1469,1317,0,0
252,-293,0,0,0,0,0,0,0,0,0,-1,1476,1317,0,0
259,-293,0,0,0,0,0,0,0,0,0,-1,1483,1317,0,0
266,-293,0,0,0,0,0,0,0,0,0,-1,1490,1317,0,0
273,-293,0,0,0,0,0,0,0,0,0,-1,1497,1317,0,0
280,-293,0,0,0,0,0,0,0,0,0,-1,1504,1317,0,0
287,-293,0,0,0,0,0,0,0,0,0,-1,1511,1317,0,0
294,-293,0,0,0,0,0,0,0,0,0,-1,1518,1317,0,0
301,-293,0,0,0,0,0,0,0,0,0,-1,1525,1317,0,0
308,-293,0,0,0,0,0,0,0,0,0,-1,1532,1317,0,0
315,-293,0,0,0,0,0,0,0,0,0,-1,1539,1317,0,0
322,-293,0,0,0,0,0,0,0,0,0,-1,1546,1317,0,0
329,-293,0,0,0,0,0,0,0,0,0,-1,1553,1317,0,0
336,-293,0,0,0,0,0,0,0,0,0,-1,1560,1317,0,0
343,-293,0,0,0,0,0,0,0,0,0,-1,1567,1317,0,0
350,-293,0,0,0,0,0,0,0,0,0,-1,1574,1317,0,0
357,-293,0,0,0,0,0,0,0,0,0,-1,1581,1317,0,0
364,-293,0,0,0,0,0,0,0,0,0,-1,1588,1317,0,0
371,-293,0,0,0,0,0,0,0,0,0,-1,1595,1317,0,0
378,-293,0,0,0,0,0,0,0,0,0,-1,1602,1317,0,0
385,-293,0,0,0,0,0,0,0,0,0,-1,1609,1317,0,0
392,-293,0,0,0,0,0,0,0,0,0,-1,1616,1317,0,0
399,-293,0,0,0,0,0,0,0,0,0,-1,1623,1317,0,0
406,-293,0,0,0,0,0,0,0,0,0,-1,1630,1317,0,0
413,-293,0,0,0,0,0,0,0,0,0,-1,1637,1317,0,0
420,-293,0,0,0,0,0,0,0,0,0,-1,1644,1317,0,0
427,-293,0,0,0,0,0,0,0,0,0,-1,1651,1317,0,0
434,-293,0,0,0,0,0,0,0,0,0,-1,1658,1317,0,0
441,-293,0,0,0,0,0,0,0,0,0,-1,1665,1317,0,0
448,-293,0,0,0,0,0,0,0,0,0,-1,1672,1317,0,0
455,-293,0,0,0,0,0,0,0,0,0,-1,1679,1317,0,0
462,-293,0,0,0,0,0,0,0,0,0,-1,1686,1317,0,0
469,-293,0,0,0,0,0,0,0,0,0,-1,1693,1317,0,0
476,-293,0,0,0,0,0,0,0,0,0,-1,1700,1317,0,0
483,-293,0,0,0,0,0,0,0,0,0,-1,1707,1317,0,0
490,-293,0,0,0,0,0,0,0,0,0,-1,1714,1317,0,0
497,-293,0,0,0,0,0,0,0,0,0,-1,1721,1317,0,0
504,-293,0,0,0,0,0,0,0,0,0,-1,1728,1317,0,0
511,-293,0,0,0,0,0,0,0,0,0,-1,1735,1317,0,0
518,-293,0,0,0,0,0,0,0,0,0,-1,1742,1317,0,0
525,-293,0,0,0,0,0,0,0,0,0,-1,1749,1317,0,0
532,-293,0,0,0,0,0,0,0,0,0,-1,1756,1317,0,0
539,-293,0,0,0,0,0,0,0,0,0,-1,1763,1317,0,0
546,-293,0,0,0,0,0,0,0,0,0,-1,1770,1317,0,0
553,-293,0,0,0,0,0,0,0,0,0,-1,1777,1317,0,0
560,-293,0,0,0,0,0,0,0,0,0,-1,1784,1317,0,0
567,-293,0,0,0,0,0,0,0,0,0,-1,1791,1317,0,0
574,-293,0,0,0,0,0,0,0,0,0,-1,1798,1317,0,0
581,-293,0,0,0,0,0,0,0,0,0,-1,1805,1317,0,0
588,-293,0,0,0,0,0,0,0,0,0,-1,1812,1317,0,0
595,-293,44.7227,2.76624,0,0,0,0,0,0,0,-1,1819,1317,44.7226,-2.76618
602,-293,44.6604,2.41492,0,0,0,0,0,0,0,-1,1826,1317,44.6604,-2.41496
609,-293,44.1421,2.18262,-0.0349324,0.00568065,-0.0165631,0.0115789,-0.0408307,-1.22869,0.0317909,0.0487522,1833,1317,44.142,-2.18262
616,-293,43.6713,1.91406,-0.0361051,0.00505026,-0.0124849,0.00854154,-0.0395964,-1.29812,0.0296576,0.0491283,1840,1317,43.6712,-1.91409
623,-293,43.6031,1.48096,0,0,0,0,0,0,0,-1,1847,1317,43.6032,-1.48096
630,-293,43.121,1.28076,0,0,0,0,0,0,0,-1,1854,1317,43.121,-1.28071
637,-293,42.7729,4.95544,0,0,0,0,0,0,0,-1,1861,1317,42.773,-4.95546
644,-293,24.4565,0.520752,0,0,0,0,0,0,0,-1,1868,1317,24.4566,-0.520709
651,-293,25.8926,9.51245,0,0,0,0,0,0,0,-1,1875,1317,25.8926,-9.51246
658,-293,25.4904,9.10205,0,0,0,0,0,0,0,-1,1882,1317,25.4904,-9.10209
665,-293,31.4142,10.7275,0,0,0,0,0,0,0,-1,1889,1317,31.4141,-10.7276
672,-293,31.1372,10.5132,-0.00508652,0.00169245,-0.000129513,0.00169493,-0.005089,-1.5517,0.00407683,0.0335377,1896,1317,31.1372,-10.5132
679,-293,31.0702,10.0741,-0.00220541,-0.000660487,-0.000758865,-0.000350093,-0.0025158,-1.18254,0.00157354,0.0151299,1903,1317,31.0702,-10.0741
686,-293,31.0897,9.64648,-0.00116148,-0.000990311,-0.00056909,-0.000500405,-0.00165138,-0.860032,0.000977778,0.0167844,1910,1317,31.0897,-9.64646
693,-293,31.0648,9.22266,-0.000217925,-0.000910662,-0.000262317,-0.000129804,-0.000998783,-0.32409,0.000627082,0.0126787,1917,1317,31.0649,-9.2226
700,-293,31.0192,8.77173,0.000182144,-0.000487761,1.34726e-05,0.000182415,-0.000488032,0.0201005,0.000400263,0.0109071,1924,1317,31.0192,-8.77172
707,-293,31.001,8.36719,-0.000188276,-0.000244358,0.000442209,0.00022678,-0.000659415,0.753735,0.00053158,0.0113549,1931,1317,31.0009,-8.36717
714,-293,30.9969,7.93787,-0.00078041,-0.000339876,0.000911744,0.000377831,-0.00149812,0.903922,0.00114565,0.00759077,1938,1317,30.997,-7.93792
721,-293,31.0157,7.50891,-0.00150448,-0.000474685,0.00141526,0.000516428,-0.0024956,0.959865,0.00185993,0.00884166,1945,1317,31.0158,-7.50892
728,-293,31.0123,7.06885,-0.00238503,-0.00078026,0.00202276,0.000593447,-0.00375874,0.974218,0.00272527,0.0121059,1952,1317,31.0123,-7.0689
735,-293,31.0042,6.6178,-0.00324094,-0.00118355,0.00259667,0.00058077,-0.00500526,0.973993,0.00354632,0.0238924,1959,1317,31.0042,-6.61776
742,-293,31.0962,6.16187,0,0,0,0,0,0,0,-1,1966,1317,31.0962,-6.16185
749,-293,29.439,5.35339,0,0,0,0,0,0,0,-1,1973,1317,29.4389,-5.35334
756,-293,24.978,3.9718,0,0,0,0,0,0,0,-1,1980,1317,24.978,-3.97186
763,-293,26.6713,4.74097,0,0,0,0,0,0,0,-1,1987,1317,26.6713,-4.74098
770,-293,24.1349,4.69153,0,0,0,0,0,0,0,-1,1994,1317,24.1348,-4.69159
777,-293,0,0,0,0,0,0,0,0,0,-1,2001,1317,0,0
784,-293,0,0,0,0,0,0,0,0,0,-1,2008,1317,0,0
791,-293,0,0,0,0,0,0,0,0,0,-1,2015,1317,0,0
798,-293,0,0,0,0,0,0,0,0,0,-1,2022,1317,0,0
805,-293,0,0,0,0,0,0,0,0,0,-1,2029,1317,0,0
812,-293,0,0,0,0,0,0,0,0,0,-1,2036,1317,0,0
-700,-300,0,0,0,0,0,0,0,0,0,-1,524,1324,0,0
-693,-300,0,0,0,0,0,0,0,0,0,-1,531,1324,0,0
-686,-300,0,0,0,0,0,0,0,0,0,-1,538,1324,0,0
-679,-300,0,0,0,0,0,0,0,0,0,-1,545,1324,0,0
-672,-300,0,0,0,0,0,0,0,0,0,-1,552,1324,0,0
-665,-300,0,0,0,0,0,0,0,0,0,-1,559,1324,0,0
-658,-300,0,0,0,0,0,0,0,0,0,-1,566,1324,0,0
-651,-300,-20.1143,0.203857,0,0,0,0,0,0,0,-1,573,1324,-20.1142,-0.203872
-644,-300,-20.4374,1.17224,0,0,0,0,0,0,0,-1,580,1324,-20.4375,-1.17226
-637,-300,-20.7362,1.82813,0,0,0,0,0,0,0,-1,587,1324,-20.7362,-1.8281
-630,-300,-21.1108,2.26306,0,0,0,0,0,0,0,-1,594,1324,-21.1109,-2.2631
-623,-300,-12.7067,1.48462,0,0,0,0,0,0,0,-1,601,1324,-12.7067,-1.48462
-616,-300,-14.9988,1.68628,0,0,0,0,0,0,0,-1,608,1324,-14.9988,-1.68627
-609,-300,-15.5027,3.29907,0,0,0,0,0,0,0,-1,615,1324,-15.5027,-3.29902
-602,-300,-17.3421,3.96741,0,0,0,0,0,0,0,-1,622,1324,-17.3421,-3.96745
-595,-300,-17.5285,4.68054,0.00658697,0.00597233,0.00961259,0.0158971,-0.00333785,0.769419,0.0118682,0.0325913,629,1324,-17.5285,-4.68059
-588,-300,-17.4524,5.19873,0.00481121,0.00408556,0.00627495,0.0107338,-0.00183704,0.75652,0.00784029,0.0209473,636,1324,-17.4524,-5.1987
-581,-300,-17.4565,5.69788,0.00369783,0.0026726,0.00404322,0.0072608,-0.00089037,0.722343,0.00516298,0.0204276,643,1324,-17.4565,-5.69793
-574,-300,-17.4769,6.17151,0.00298828,0.00154225,0.00251369,0.00488088,-0.000350343,0.645362,0.00337676,0.0162426,650,1324,-17.477,-6.17152
-567,-300,-17.5036,6.63342,0.00266004,0.000648303,0.00151876,0.00347582,-0.000167474,0.492912,0.00237501,0.0172123,657,1324,-17.5036,-6.63343
-560,-300,-17.512,7.12207,0.00265163,-9.37061e-05,0.000834789,0.00288554,-0.000327616,0.273196,0.00204168,0.0159276,664,1324,-17.5119,-7.12211
-553,-300,-17.5161,7.60681,0.00306081,-0.000635675,0.000752738,0.00320821,-0.000783082,0.19338,0.00244205,0.0108516,671,1324,-17.5161,-7.60677
-546,-300,-17.5339,8.0907,0.00373806,-0.00103844,0.000856729,0.00388707,-0.00118746,0.172214,0.00306486,0.00876354,678,1324,-17.5339,-8.09064
-539,-300,-17.493,8.58398,0.00489176,-0.0015055,0.00116516,0.00509736,-0.00171111,0.174665,0.00408972,0.0201036,685,1324,-17.493,-8.58394
-532,-300,-17.4283,9.04565,0,0,0,0,0,0,0,-1,692,1324,-17.4283,-9.04562
-525,-300,-13.5115,6.27783,0,0,0,0,0,0,0,-1,699,1324,-13.5115,-6.2778
-518,-300,-9.8349,-0.537109,0,0,0,0,0,0,0,-1,706,1324,-9.83487,0.537068
-511,-300,-12.8644,0.081665,0,0,0,0,0,0,0,-1,713,1324,-12.8644,-0.0817016
-504,-300,-13.4829,-0.165527,0,0,0,0,0,0,0,-1,720,1324,-13.4829,0.165544
-497,-300,-18.1063,0.956543,0,0,0,0,0,0,0,-1,727,1324,-18.1063,-0.9565
-490,-300,-18.2293,1.53625,0,0,0,0,0,0,0,-1,734,1324,-18.2293,-1.53626
-483,-300,-18.3522,1.61084,0,0,0,0,0,0,0,-1,741,1324,-18.3522,-1.6108
-476,-300,-18.7489,1.96387,0,0,0,0,0,0,0,-1,748,1324,-18.7489,-1.96387
-469,-300,0,0,0,0,0,0,0,0,0,-1,755,1324,0,0
-462,-300,0,0,0,0,0,0,0,0,0,-1,762,1324,0,0
-455,-300,0,0,0,0,0,0,0,0,0,-1,769,1324,0,0
-448,-300,0,0,0,0,0,0,0,0,0,-1,776,1324,0,0
-441,-300,0,0,0,0,0,0,0,0,0,-1,783,1324,0,0
-434,-300,0,0,0,0,0,0,0,0,0,-1,790,1324,0,0
-427,-300,0,0,0,0,0,0,0,0,0,-1,797,1324,0,0
-420,-300,0,0,0,0,0,0,0,0,0,-1,804,1324,0,0
-413,-300,0,0,0,0,0,0,0,0,0,-1,811,1324,0,0
-406,-300,0,0,0,0,0,0,0,0,0,-1,818,1324,0,0
-399,-300,0,0,0,0,0,0,0,0,0,-1,825,1324,0,0
-392,-300,0,0,0,0,0,0,0,0,0,-1,832,1324,0,0
-385,-300,0,0,0,0,0,0,0,0,0,-1,839,1324,0,0
-378,-300,0,0,0,0,0,0,0,0,0,-1,846,1324,0,0
-371,-300,0,0,0,0,0,0,0,0,0,-1,853,1324,0,0
-364,-300,0,0,0,0,0,0,0,0,0,-1,860,1324,0,0
-357,-300,0,0,0,0,0,0,0,0,0,-1,867,1324,0,0
-350,-300,0,0,0,0,0,0,0,0,0,-1,874,1324,0,0
-343,-300,0,0,0,0,0,0,0,0,0,-1,881,1324,0,0
-336,-300,0,0,0,0,0,0,0,0,0,-1,888,1324,0,0
-329,-300,0,0,0,0,0,0,0,0,0,-1,895,1324,0,0
-322,-300,0,0,0,0,0,0,0,0,0,-1,902,1324,0,0
-315,-300,0,0,0,0,0,0,0,0,0,-1,909,1324,0,0
-308,-300,0,0,0,0,0,0,0,0,0,-1,916,1324,0,0
-301,-300,0,0,0,0,0,0,0,0,0,-1,923,1324,0,0
-294,-300,0,0,0,0,0,0,0,0,0,-1,930,1324,0,0
-287,-300,0,0,0,0,0,0,0,0,0,-1,937,1324,0,0
-280,-300,0,0,0,0,0,0,0,0,0,-1,944,1324,0,0
-273,-300,0,0,0,0,0,0,0,0,0,-1,951,1324,0,0
-266,-300,0,0,0,0,0,0,0,0,0,-1,958,1324,0,0
-259,-300,0,0,0,0,0,0,0,0,0,-1,965,1324,0,0
-252,-300,0,0,0,0,0,0,0,0,0,-1,972,1324,0,0
-245,-300,0,0,0,0,0,0,0,0,0,-1,979,1324,0,0
-238,-300,0,0,0,0,0,0,0,0,0,-1,986,1324,0,0
-231,-300,0,0,0,0,0,0,0,0,0,-1,993,1324,0,0
-224,-300,0,0,0,0,0,0,0,0,0,-1,1000,1324,0,0
-217,-300,0,0,0,0,0,0,0,0,0,-1,1007,1324,0,0
-210,-300,0,0,0,0,0,0,0,0,0,-1,1014,1324,0,0
-203,-300,0,0,0,0,0,0,0,0,0,-1,1021,1324,0,0
-196,-300,0,0,0,0,0,0,0,0,0,-1,1028,1324,0,0
-189,-300,0,0,0,0,0,0,0,0,0,-1,1035,1324,0,0
-182,-300,0,0,0,0,0,0,0,0,0,-1,1042,1324,0,0
-175,-300,0,0,0,0,0,0,0,0,0,-1,1049,1324,0,0
-168,-300,0,0,0,0,0,0,0,0,0,-1,1056,1324,0,0
-161,-300,0,0,0,0,0,0,0,0,0,-1,1063,1324,0,0
-154,-300,0,0,0,0,0,0,0,0,0,-1,1070,1324,0,0
-147,-300,0,0,0,0,0,0,0,0,0,-1,1077,1324,0,0
-140,-300,0,0,0,0,0,0,0,0,0,-1,1084,1324,0,0
-133,-300,0,0,0,0,0,0,0,0,0,-1,1091,1324,0,0
-126,-300,0,0,0,0,0,0,0,0,0,-1,1098,1324,0,0
-119,-300,0,0,0,0,0,0,0,0,0,-1,1105,1324,0,0
-112,-300,0,0,0,0,0,0,0,0,0,-1,1112,1324,0,0
-105,-300,0,0,0,0,0,0,0,0,0,-1,1119,1324,0,0
-98,-300,0,0,0,0,0,0,0,0,0,-1,1126,1324,0,0
-91,-300,0,0,0,0,0,0,0,0,0,-1,1133,1324,0,0
-84,-300,0,0,0,0,0,0,0,0,0,-1,1140,1324,0,0
-77,-300,0,0,0,0,0,0,0,0,0,-1,1147,1324,0,0
-70,-300,0,0,0,0,0,0,0,0,0,-1,1154,1324,0,0
-63,-300,0,0,0,0,0,0,0,0,0,-1,1161,1324,0,0
-56,-300,0,0,0,0,0,0,0,0,0,-1,1168,1324,0,0
-49,-300,0,0,0,0,0,0,0,0,0,-1,1175,1324,0,0
-42,-300,0,0,0,0,0,0,0,0,0,-1,1182,1324,0,0
-35,-300,0,0,0,0,0,0,0,0,0,-1,1189,1324,0,0
-28,-300,0,0,0,0,0,0,0,0,0,-1,1196,1324,0,0
-21,-300,0,0,0,0,0,0,0,0,0,-1,1203,1324,0,0
-14,-300,0,0,0,0,0,0,0,0,0,-1,1210,1324,0,0
-7,-300,0,0,0,0,0,0,0,0,0,-1,1217,1324,0,0
0,-300,0,0,0,0,0,0,0,0,0,-1,1224,1324,0,0
7,-300,0,0,0,0,0,0,0,0,0,-1,1231,1324,0,0
14,-300,0,0,0,0,0,0,0,0,0,-1,1238,1324,0,0
21,-300,0,0,0,0,0,0,0,0,0,-1,1245,1324,0,0
28,-300,0,0,0,0,0,0,0,0,0,-1,1252,1324,0,0
35,-300,0,0,0,0,0,0,0,0,0,-1,1259,1324,0,0
42,-300,0,0,0,0,0,0,0,0,0,-1,1266,1324,0,0
49,-300,0,0,0,0,0,0,0,0,0,-1,1273,1324,0,0
56,-300,0,0,0,0,0,0,0,0,0,-1,1280,1324,0,0
63,-300,0,0,0,0,0,0,0,0,0,-1,1287,1324,0,0
70,-300,0,0,0,0,0,0,0,0,0,-1,1294,1324,0,0
77,-300,0,0,0,0,0,0,0,0,0,-1,1301,1324,0,0
84,-300,0,0,0,0,0,0,0,0,0,-1,1308,1324,0,0
91,-300,0,0,0,0,0,0,0,0,0,-1,1315,1324,0,0
98,-300,0,0,0,0,0,0,0,0,0,-1,1322,1324,0,0
105,-300,0,0,0,0,0,0,0,0,0,-1,1329,1324,0,0
112,-300,0,0,0,0,0,0,0,0,0,-1,1336,1324,0,0
119,-300,0,0,0,0,0,0,0,0,0,-1,1343,1324,0,0
126,-300,0,0,0,0,0,0,0,0,0,-1,1350,1324,0,0
133,-300,0,0,0,0,0,0,0,0,0,-1,1357,1324,0,0
140,-300,0,0,0,0,0,0,0,0,0,-1,1364,1324,0,0
147,-300,0,0,0,0,0,0,0,0,0,-1,1371,1324,0,0
154,-300,0,0,0,0,0,0,0,0,0,-1,1378,1324,0,0
161,-300,0,0,0,0,0,0,0,0,0,-1,1385,1324,0,0
168,-300,0,0,0,0,0,0,0,0,0,-1,1392,1324,0,0
175,-300,0,0,0,0,0,0,0,0,0,-1,1399,1324,0,0
182,-300,0,0,0,0,0,0,0,0,0,-1,1406,1324,0,0
189,-300,0,0,0,0,0,0,0,0,0,-1,1413,1324,0,0
196,-300,0,0,0,0,0,0,0,0,0,-1,1420,1324,0,0
203,-300,0,0,0,0,0,0,0,0,0,-1,1427,1324,0,0
210,-300,0,0,0,0,0,0,0,0,0,-1,1434,1324,0,0
217,-300,0,0,0,0,0,0,0,0,0,-1,1441,1324,0,0
224,-300,0,0,0,0,0,0,0,0,0,-1,1448,1324,0,0
231,-300,0,0,0,0,0,0,0,0,0,-1,1455,1324,0,0
238,-300,0,0,0,0,0,0,0,0,0,-1,1462,1324,0,0
245,-300,0,0,0,0,0,0,0,0,0,-1,1469,1324,0,0
252,-300,0,0,0,0,0,0,0,0,0,-1,1476,1324,0,0
259,-300,0,0,0,0,0,0,0,0,0,-1,1483,1324,0,0
266,-300,0,0,0,0,0,0,0,0,0,-1,1490,1324,0,0
273,-300,0,0,0,0,0,0,0,0,0,-1,1497,1324,0,0
280,-300,0,0,0,0,0,0,0,0,0,-1,1504,1324,0,0
287,-300,0,0,0,0,0,0,0,0,0,-1,1511,1324,0,0
294,-300,0,0,0,0,0,0,0,0,0,-1,1518,1324,0,0
301,-300,0,0,0,0,0,0,0,0,0,-1,1525,1324,0,0
308,-300,0,0,0,0,0,0,0,0,0,-1,1532,1324,0,0
315,-300,0,0,0,0,0,0,0,0,0,-1,1539,1324,0,0
322,-300,0,0,0,0,0,0,0,0,0,-1,1546,1324,0,0
329,-300,0,0,0,0,0,0,0,0,0,-1,1553,1324,0,0
336,-300,0,0,0,0,0,0,0,0,0,-1,1560,1324,0,0
343,-300,0,0,0,0,0,0,0,0,0,-1,1567,1324,0,0
350,-300,0,0,0,0,0,0,0,0,0,-1,1574,1324,0,0
357,-300,0,0,0,0,0,0,0,0,0,-1,1581,1324,0,0
364,-300,0,0,0,0,0,0,0,0,0,-1,1588,1324,0,0
371,-300,0,0,0,0,0,0,0,0,0,-1,1595,1324,0,0
378,-300,0,0,0,0,0,0,0,0,0,-1,1602,1324,0,0
385,-300,0,0,0,0,0,0,0,0,0,-1,1609,1324,0,0
392,-300,0,0,0,0,0,0,0,0,0,-1,1616,1324,0,0
399,-300,0,0,0,0,0,0,0,0,0,-1,1623,1324,0,0
406,-300,0,0,0,0,0,0,0,0,0,-1,1630,1324,0,0
413,-300,0,0,0,0,0,0,0,0,0,-1,1637,1324,0,0
420,-300,0,0,0,0,0,0,0,0,0,-1,1644,1324,0,0
427,-300,0,0,0,0,0,0,0,0,0,-1,1651,1324,0,0
434,-300,0,0,0,0,0,0,0,0,0,-1,1658,1324,0,0
441,-300,0,0,0,0,0,0,0,0,0,-1,1665,1324,0,0
448,-300,0,0,0,0,0,0,0,0,0,-1,1672,1324,0,0
455,-300,0,0,0,0,0,0,0,0,0,-1,1679,1324,0,0
462,-300,0,0,0,0,0,0,0,0,0,-1,1686,1324,0,0
469,-300,0,0,0,0,0,0,0,0,0,-1,1693,1324,0,0
476,-300,0,0,0,0,0,0,0,0,0,-1,1700,1324,0,0
483,-300,0,0,0,0,0,0,0,0,0,-1,1707,1324,0,0
490,-300,0,0,0,0,0,0,0,0,0,-1,1714,1324,0,0
497,-300,0,0,0,0,0,0,0,0,0,-1,1721,1324,0,0
504,-300,0,0,0,0,0,0,0,0,0,-1,1728,1324,0,0
511,-300,0,0,0,0,0,0,0,0,0,-1,1735,1324,0,0
518,-300,0,0,0,0,0,0,0,0,0,-1,1742,1324,0,0
525,-300,0,0,0,0,0,0,0,0,0,-1,1749,1324,0,0
532,-300,0,0,0,0,0,0,0,0,0,-1,1756,1324,0,0
539,-300,0,0,0,0,0,0,0,0,0,-1,1763,1324,0,0
546,-300,0,0,0,0,0,0,0,0,0,-1,1770,1324,0,0
553,-300,0,0,0,0,0,0,0,0,0,-1,1777,1324,0,0
560,-300,0,0,0,0,0,0,0,0,0,-1,1784,1324,0,0
567,-300,0,0,0,0,0,0,0,0,0,-1,1791,1324,0,0
574,-300,0,0,0,0,0,0,0,0,0,-1,1798,1324,0,0
581,-300,0,0,0,0,0,0,0,0,0,-1,1805,1324,0,0
588,-300,45.2787,2.81055,0,0,0,0,0,0,0,-1,1812,1324,45.2787,-2.81056
595,-300,45.2439,2.66101,0,0,0,0,0,0,0,-1,1819,1324,45.2439,-2.66097
602,-300,44.7087,2.48462,-0.0272008,0.00585723,-0.0214253,0.0163884,-0.0377319,-1.11395,0.0320461,0.0449782,1826,1324,44.7088,-2.48468
609,-300,44.21,2.33508,-0.0363945,0.00391997,-0.0174305,0.0104111,-0.0428856,-1.21431,0.0326194,0.0472274,1833,1324,44.21,-2.3351
616,-300,43.4249,2.13538,-0.0349588,0.0038302,-0.0137551,0.0082128,-0.0393414,-1.26235,0.0293507,0.0477949,1840,1324,43.425,-2.13532
623,-300,43.1338,1.7113,0,0,0,0,0,0,0,-1,1847,1324,43.1339,-1.71129
630,-300,42.4099,3.9165,0,0,0,0,0,0,0,-1,1854,1324,42.4099,-3.91649
637,-300,31.1719,4.6366,0,0,0,0,0,0,0,-1,1861,1324,31.1718,-4.63665
644,-300,22.9836,3.44934,0,0,0,0,0,0,0,-1,1868,1324,22.9836,-3.4493
651,-300,25.5004,9.11853,0,0,0,0,0,0,0,-1,1875,1324,25.5004,-9.11851
658,-300,25.4012,9.20032,0,0,0,0,0,0,0,-1,1882,1324,25.4012,-9.20036
665,-300,30.7494,11.0717,0,0,0,0,0,0,0,-1,1889,1324,30.7493,-11.0717
672,-300,30.6208,10.5918,-0.00350227,0.00211827,0.000160008,0.00212282,-0.00350682,1.54236,0.00328285,0.0199108,1896,1324,30.6208,-10.5918
679,-300,30.6337,10.1002,-0.000843439,-0.000215594,-0.000405784,-1.64789e-05,-0.00104255,-1.11462,0.000689609,0.0125465,1903,1324,30.6336,-10.1002
686,-300,30.642,9.66418,-0.00023974,-0.000555685,-0.000269944,-8.49424e-05,-0.000710482,-0.520663,0.000448033,0.0134255,1910,1324,30.642,-9.66418
693,-300,30.6115,9.23792,0.000165441,-0.000550513,-6.82001e-05,0.00017188,-0.000556951,-0.0941296,0.000439932,0.0114936,1917,1324,30.6115,-9.23791
700,-300,30.5945,8.78418,0.000187282,-0.000327283,0.000141714,0.000223729,-0.00036373,0.251733,0.000342365,0.0123196,1924,1324,30.5945,-8.78415
707,-300,30.5895,8.33801,-0.000228443,-0.000223568,0.000483306,0.000257307,-0.000709318,0.78792,0.000578062,0.00927223,1931,1324,30.5895,-8.33805
714,-300,30.5945,7.92029,-0.000777995,-0.000262175,0.000863498,0.000381106,-0.00142128,0.930521,0.00109685,0.0105937,1938,1324,30.5944,-7.92026
721,-300,30.5934,7.51147,-0.00147733,-0.000352444,0.00129012,0.000492506,-0.00232228,0.990957,0.0017358,0.0116085,1945,1324,30.5934,-7.51151
728,-300,30.6018,7.05811,-0.0023856,-0.000572207,0.00180277,0.000539035,-0.00349684,1.0184,0.00253012,0.0150258,1952,1324,30.6018,-7.05812
735,-300,30.6509,6.63635,0,0,0,0,0,0,0,-1,1959,1324,30.6508,-6.63631
742,-300,29.4758,6.09412,0,0,0,0,0,0,0,-1,1966,1324,29.4758,-6.09417
749,-300,27.4065,5.9718,0,0,0,0,0,0,0,-1,1973,1324,27.4065,-5.97181
756,-300,22.1423,3.45642,0,0,0,0,0,0,0,-1,1980,1324,22.1423,-3.45638
763,-300,22.6136,5.1571,0,0,0,0,0,0,0,-1,1987,1324,22.6136,-5.15706
770,-300,24.859,4.77979,0,0,0,0,0,0,0,-1,1994,1324,24.859,-4.77972
777,-300,0,0,0,0,0,0,0,0,0,-1,2001,1324,0,0
784,-300,0,0,0,0,0,0,0,0,0,-1,2008,1324,0,0
791,-300,0,0,0,0,0,0,0,0,0,-1,2015,1324,0,0
798,-300,0,0,0,0,0,0,0,0,0,-1,2022,1324,0,0
805,-300,0,0,0,0,0,0,0,0,0,-1,2029,1324,0,0
812,-300,0,0,0,0,0,0,0,0,0,-1,2036,1324,0,0
-700,-307,0,0,0,0,0,0,0,0,0,-1,524,1331,0,0
-693,-307,0,0,0,0,0,0,0,0,0,-1,531,1331,0,0
-686,-307,0,0,0,0,0,0,0,0,0,-1,538,1331,0,0
-679,-307,0,0,0,0,0,0,0,0,0,-1,545,1331,0,0
-672,-307,0,0,0,0,0,0,0,0,0,-1,552,1331,0,0
-665,-307,0,0,0,0,0,0,0,0,0,-1,559,1331,0,0
-658,-307,0,0,0,0,0,0,0,0,0,-1,566,1331,0,0
-651,-307,-20.2972,-0.0720215,0,0,0,0,0,0,0,-1,573,1331,-20.2973,0.0720287
-644,-307,-20.7615,0.556152,0,0,0,0,0,0,0,-1,580,1331,-20.7615,-0.556159
-637,-307,-21.0822,1.21277,0,0,0,0,0,0,0,-1,587,1331,-21.0821,-1.21273
-630,-307,-12.0005,0.767212,0,0,0,0,0,0,0,-1,594,1331,-12.0005,-0.767266
-623,-307,-12.2128,2.93811,0,0,0,0,0,0,0,-1,601,1331,-12.2128,-2.93813
-616,-307,-12.6612,2.08289,0,0,0,0,0,0,0,-1,608,1331,-12.6612,-2.08293
-609,-307,-12.2767,1.83228,0,0,0,0,0,0,0,-1,615,1331,-12.2768,-1.83224
-602,-307,-16.9746,4.08997,0,0,0,0,0,0,0,-1,622,1331,-16.9746,-4.08992
-595,-307,-17.095,4.69714,0.00656075,0.00547216,0.00928236,0.0153148,-0.00328185,0.756113,0.0114615,0.0405849,629,1331,-17.095,-4.69718
-588,-307,-17.0057,5.24609,0.00461454,0.00371741,0.00588244,0.0100655,-0.00173354,0.747344,0.00735658,0.0224832,636,1331,-17.0057,-5.24605
-581,-307,-16.9831,5.72253,0.00345106,0.00245971,0.00372899,0.00671717,-0.000806405,0.719323,0.00476969,0.0168372,643,1331,-16.9831,-5.72257
-574,-307,-17.0027,6.17944,0.00275999,0.00149934,0.00232441,0.00453803,-0.000278696,0.652994,0.0031224,0.0130462,650,1331,-17.0027,-6.17947
-567,-307,-17.0228,6.65393,0.00247808,0.000738487,0.00146186,0.00330933,-9.27657e-05,0.517033,0.00223778,0.0136974,657,1331,-17.0227,-6.65398
-560,-307,-17.0126,7.13391,0.00253267,0.000116417,0.00086076,0.00280795,-0.000158856,0.309525,0.0019271,0.0149871,664,1331,-17.0126,-7.13392
-553,-307,-17.0272,7.60718,0.00300489,-0.000331316,0.000850563,0.00320922,-0.000535651,0.235767,0.00233857,0.011703,671,1331,-17.0272,-7.6072
-546,-307,-17.0512,8.09351,0.00382279,-0.000656011,0.0010615,0.00406163,-0.000894857,0.221321,0.00305012,0.010687,678,1331,-17.0512,-8.09347
-539,-307,-17.0347,8.59875,0.00511035,-0.000977723,0.00147991,0.00545103,-0.0013184,0.22626,0.004144,0.0156903,685,1331,-17.0347,-8.59877
-532,-307,-16.9918,9.09998,0,0,0,0,0,0,0,-1,692,1331,-16.9918,-9.10003
-525,-307,-13.2009,6.91309,0,0,0,0,0,0,0,-1,699,1331,-13.2009,-6.9131
-518,-307,-9.77777,-1.56653,0,0,0,0,0,0,0,-1,706,1331,-9.77777,1.56651
-511,-307,-12.5226,0.26709,0,0,0,0,0,0,0,-1,713,1331,-12.5226,-0.267038
-504,-307,-12.5913,-0.308105,0,0,0,0,0,0,0,-1,720,1331,-12.5913,0.308124
-497,-307,-13.8586,-0.115845,0,0,0,0,0,0,0,-1,727,1331,-13.8587,0.115861
-490,-307,-17.9429,0.982178,0,0,0,0,0,0,0,-1,734,1331,-17.9429,-0.982198
-483,-307,-18.1066,0.927612,0,0,0,0,0,0,0,-1,741,1331,-18.1066,-0.927609
-476,-307,-18.1288,1.1228,0,0,0,0,0,0,0,-1,748,1331,-18.1289,-1.12286
-469,-307,-18.2028,0.798584,0,0,0,0,0,0,0,-1,755,1331,-18.2027,-0.798546
-462,-307,0,0,0,0,0,0,0,0,0,-1,762,1331,0,0
-455,-307,0,0,0,0,0,0,0,0,0,-1,769,1331,0,0
-448,-307,0,0,0,0,0,0,0,0,0,-1,776,1331,0,0
-441,-307,0,0,0,0,0,0,0,0,0,-1,783,1331,0,0
-434,-307,0,0,0,0,0,0,0,0,0,-1,790,1331,0,0
-427,-307,0,0,0,0,0,0,0,0,0,-1,797,1331,0,0
-420,-307,0,0,0,0,0,0,0,0,0,-1,804,1331,0,0
-413,-307,0,0,0,0,0,0,0,0,0,-1,811,1331,0,0
-406,-307,0,0,0,0,0,0,0,0,0,-1,818,1331,0,0
-399,-307,0,0,0,0,0,0,0,0,0,-1,825,1331,0,0
-392,-307,0,0,0,0,0,0,0,0,0,-1,832,1331,0,0
-385,-307,0,0,0,0,0,0,0,0,0,-1,839,1331,0,0
-378,-307,0,0,0,0,0,0,0,0,0,-1,846,1331,0,0
-371,-307,0,0,0,0,0,0,0,0,0,-1,853,1331,0,0
-364,-307,0,0,0,0,0,0,0,0,0,-1,860,1331,0,0
-357,-307,0,0,0,0,0,0,0,0,0,-1,867,1331,0,0
-350,-307,0,0,0,0,0,0,0,0,0,-1,874,1331,0,0
-343,-307,0,0,0,0,0,0,0,0,0,-1,881,1331,0,0
-336,-307,0,0,0,0,0,0,0,0,0,-1,888,1331,0,0
-329,-307,0,0,0,0,0,0,0,0,0,-1,895,1331,0,0
-322,-307,0,0,0,0,0,0,0,0,0,-1,902,1331,0,0
-315,-307,0,0,0,0,0,0,0,0,0,-1,909,1331,0,0
-308,-307,0,0,0,0,0,0,0,0,0,-1,916,1331,0,0
-301,-307,0,0,0,0,0,0,0,0,0,-1,923,1331,0,0
-294,-307,0,0,0,0,0,0,0,0,0,-1,930,1331,0,0
-287,-307,0,0,0,0,0,0,0,0,0,-1,937,1331,0,0
-280,-307,0,0,0,0,0,0,0,0,0,-1,944,1331,0,0
-273,-307,0,0,0,0,0,0,0,0,0,-1,951,1331,0,0
-266,-307,0,0,0,0,0,0,0,0,0,-1,958,1331,0,0
-259,-307,0,0,0,0,0,0,0,0,0,-1,965,1331,0,0
-252,-307,0,0,0,0,0,0,0,0,0,-1,972,1331,0,0
-245,-307,0,0,0,0,0,0,0,0,0,-1,979,1331,0,0
-238,-307,0,0,0,0,0,0,0,0,0,-1,986,1331,0,0
-231,-307,0,0,0,0,0,0,0,0,0,-1,993,1331,0,0
-224,-307,0,0,0,0,0,0,0,0,0,-1,1000,1331,0,0
-217,-307,0,0,0,0,0,0,0,0,0,-1,1007,1331,0,0
-210,-307,0,0,0,0,0,0,0,0,0,-1,1014,1331,0,0
-203,-307,0,0,0,0,0,0,0,0,0,-1,1021,1331,0,0
-196,-307,0,0,0,0,0,0,0,0,0,-1,1028,1331,0,0
-189,-307,0,0,0,0,0,0,0,0,0,-1,1035,1331,0,0
-182,-307,0,0,0,0,0,0,0,0,0,-1,1042,1331,0,0
-175,-307,0,0,0,0,0,0,0,0,0,-1,1049,1331,0,0
-168,-307,0,0,0,0,0,0,0,0,0,-1,1056,1331,0,0
-161,-307,0,0,0,0,0,0,0,0,0,-1,1063,1331,0,0
-154,-307,0,0,0,0,0,0,0,0,0,-1,1070,1331,0,0
-147,-307,0,0,0,0,0,0,0,0,0,-1,1077,1331,0,0
-140,-307,0,0,0,0,0,0,0,0,0,-1,1084,1331,0,0
-133,-307,0,0,0,0,0,0,0,0,0,-1,1091,1331,0,0
-126,-307,0,0,0,0,0,0,0,0,0,-1,1098,1331,0,0
-119,-307,0,0,0,0,0,0,0,0,0,-1,1105,1331,0,0
-112,-307,0,0,0,0,0,0,0,0,0,-1,1112,1331,0,0
-105,-307,0,0,0,0,0,0,0,0,0,-1,1119,1331,0,0
-98,-307,0,0,0,0,0,0,0,0,0,-1,1126,1331,0,0
-91,-307,0,0,0,0,0,0,0,0,0,-1,1133,1331,0,0
-84,-307,0,0,0,0,0,0,0,0,0,-1,1140,1331,0,0
-77,-307,0,0,0,0,0,0,0,0,0,-1,1147,1331,0,0
-70,-307,0,0,0,0,0,0,0,0,0,-1,1154,1331,0,0
-63,-307,0,0,0,0,0,0,0,0,0,-1,1161,1331,0,0
-56,-307,0,0,0,0,0,0,0,0,0,-1,1168,1331,0,0
-49,-307,0,0,0,0,0,0,0,0,0,-1,1175,1331,0,0
-42,-307,0,0,0,0,0,0,0,0,0,-1,1182,1331,0,0
-35,-307,0,0,0,0,0,0,0,0,0,-1,1189,1331,0,0
-28,-307,0,0,0,0,0,0,0,0,0,-1,1196,1331,0,0
-21,-307,0,0,0,0,0,0,0,0,0,-1,1203,1331,0,0
-14,-307,0,0,0,0,0,0,0,0,0,-1,1210,1331,0,0
-7,-307,0,0,0,0,0,0,0,0,0,-1,1217,1331,0,0
0,-307,0,0,0,0,0,0,0,0,0,-1,1224,1331,0,0
7,-307,0,0,0,0,0,0,0,0,0,-1,1231,1331,0,0
14,-307,0,0,0,0,0,0,0,0,0,-1,1238,1331,0,0
21,-307,0,0,0,0,0,0,0,0,0,-1,1245,1331,0,0
28,-307,0,0,0,0,0,0,0,0,0,-1,1252,1331,0,0
35,-307,0,0,0,0,0,0,0,0,0,-1,1259,1331,0,0
42,-307,0,0,0,0,0,0,0,0,0,-1,1266,1331,0,0
49,-307,0,0,0,0,0,0,0,0,0,-1,1273,1331,0,0
56,-307,0,0,0,0,0,0,0,0,0,-1,1280,1331,0,0
63,-307,0,0,0,0,0,0,0,0,0,-1,1287,1331,0,0
70,-307,0,0,0,0,0,0,0,0,0,-1,1294,1331,0,0
77,-307,0,0,0,0,0,0,0,0,0,-1,1301,1331,0,0
84,-307,0,0,0,0,0,0,0,0,0,-1,1308,1331,0,0
91,-307,0,0,0,0,0,0,0,0,0,-1,1315,1331,0,0
98,-307,0,0,0,0,0,0,0,0,0,-1,1322,1331,0,0
105,-307,0,0,0,0,0,0,0,0,0,-1,1329,1331,0,0
112,-307,0,0,0,0,0,0,0,0,0,-1,1336,1331,0,0
119,-307,0,0,0,0,0,0,0,0,0,-1,1343,1331,0,0
126,-307,0,0,0,0,0,0,0,0,0,-1,1350,1331,0,0
133,-307,0,0,0,0,0,0,0,0,0,-1,1357,1331,0,0
140,-307,0,0,0,0,0,0,0,0,0,-1,1364,1331,0,0
147,-307,0,0,0,0,0,0,0,0,0,-1,1371,1331,0,0
154,-307,0,0,0,0,0,0,0,0,0,-1,1378,1331,0,0
161,-307,0,0,0,0,0,0,0,0,0,-1,1385,1331,0,0
168,-307,0,0,0,0,0,0,0,0,0,-1,1392,1331,0,0
175,-307,0,0,0,0,0,0,0,0,0,-1,1399,1331,0,0
182,-307,0,0,0,0,0,0,0,0,0,-1,1406,1331,0,0
189,-307,0,0,0,0,0,0,0,0,0,-1,1413,1331,0,0
196,-307,0,0,0,0,0,0,0,0,0,-1,1420,1331,0,0
203,-307,0,0,0,0,0,0,0,0,0,-1,1427,1331,0,0
210,-307,0,0,0,0,0,0,0,0,0,-1,1434,1331,0,0
217,-307,0,0,0,0,0,0,0,0,0,-1,1441,1331,0,0
224,-307,0,0,0,0,0,0,0,0,0,-1,1448,1331,0,0
231,-307,0,0,0,0,0,0,0,0,0,-1,1455,1331,0,0
238,-307,0,0,0,0,0,0,0,0,0,-1,1462,1331,0,0
245,-307,0,0,0,0,0,0,0,0,0,-1,1469,1331,0,0
252,-307,0,0,0,0,0,0,0,0,0,-1,1476,1331,0,0
259,-307,0,0,0,0,0,0,0,0,0,-1,1483,1331,0,0
266,-307,0,0,0,0,0,0,0,0,0,-1,1490,1331,0,0
273,-307,0,0,0,0,0,0,0,0,0,-1,1497,1331,0,0
280,-307,0,0,0,0,0,0,0,0,0,-1,1504,1331,0,0
287,-307,0,0,0,0,0,0,0,0,0,-1,1511,1331,0,0
294,-307,0,0,0,0,0,0,0,0,0,-1,1518,1331,0,0
301,-307,0,0,0,0,0,0,0,0,0,-1,1525,1331,0,0
308,-307,0,0,0,0,0,0,0,0,0,-1,1532,1331,0,0
315,-307,0,0,0,0,0,0,0,0,0,-1,1539,1331,0,0
322,-307,0,0,0,0,0,0,0,0,0,-1,1546,1331,0,0
329,-307,0,0,0,0,0,0,0,0,0,-1,1553,1331,0,0
336,-307,0,0,0,0,0,0,0,0,0,-1,1560,1331,0,0
343,-307,0,0,0,0,0,0,0,0,0,-1,1567,1331,0,0
350,-307,0,0,0,0,0,0,0,0,0,-1,1574,1331,0,0
357,-307,0,0,0,0,0,0,0,0,0,-1,1581,1331,0,0
364,-307,0,0,0,0,0,0,0,0,0,-1,1588,1331,0,0
371,-307,0,0,0,0,0,0,0,0,0,-1,1595,1331,0,0
378,-307,0,0,0,0,0,0,0,0,0,-1,1602,1331,0,0
385,-307,0,0,0,0,0,0,0,0,0,-1,1609,1331,0,0
392,-307,0,0,0,0,0,0,0,0,0,-1,1616,1331,0,0
399,-307,0,0,0,0,0,0,0,0,0,-1,1623,1331,0,0
406,-307,0,0,0,0,0,0,0,0,0,-1,1630,1331,0,0
413,-307,0,0,0,0,0,0,0,0,0,-1,1637,1331,0,0
420,-307,0,0,0,0,0,0,0,0,0,-1,1644,1331,0,0
427,-307,0,0,0,0,0,0,0,0,0,-1,1651,1331,0,0
434,-307,0,0,0,0,0,0,0,0,0,-1,1658,1331,0,0
441,-307,0,0,0,0,0,0,0,0,0,-1,1665,1331,0,0
448,-307,0,0,0,0,0,0,0,0,0,-1,1672,1331,0,0
455,-307,0,0,0,0,0,0,0,0,0,-1,1679,1331,0,0
462,-307,0,0,0,0,0,0,0,0,0,-1,1686,1331,0,0
469,-307,0,0,0,0,0,0,0,0,0,-1,1693,1331,0,0
476,-307,0,0,0,0,0,0,0,0,0,-1,1700,1331,0,0
483,-307,0,0,0,0,0,0,0,0,0,-1,1707,1331,0,0
490,-307,0,0,0,0,0,0,0,0,0,-1,1714,1331,0,0
497,-307,0,0,0,0,0,0,0,0,0,-1,1721,1331,0,0
504,-307,0,0,0,0,0,0,0,0,0,-1,1728,1331,0,0
511,-307,0,0,0,0,0,0,0,0,0,-1,1735,1331,0,0
518,-307,0,0,0,0,0,0,0,0,0,-1,1742,1331,0,0
525,-307,0,0,0,0,0,0,0,0,0,-1,1749,1331,0,0
532,-307,0,0,0,0,0,0,0,0,0,-1,1756,1331,0,0
539,-307,0,0,0,0,0,0,0,0,0,-1,1763,1331,0,0
546,-307,0,0,0,0,0,0,0,0,0,-1,1770,1331,0,0
553,-307,0,0,0,0,0,0,0,0,0,-1,1777,1331,0,0
560,-307,0,0,0,0,0,0,0,0,0,-1,1784,1331,0,0
567,-307,0,0,0,0,0,0,0,0,0,-1,1791,1331,0,0
574,-307,0,0,0,0,0,0,0,0,0,-1,1798,1331,0,0
581,-307,0,0,0,0,0,0,0,0,0,-1,1805,1331,0,0
588,-307,45.5188,2.79504,0,0,0,0,0,0,0,-1,1812,1331,45.5188,-2.79507
595,-307,45.1559,2.55737,-0.0132647,0.00981773,-0.0256427,0.0263968,-0.0298438,-0.996857,0.0324908,0.0391857,1819,1331,45.1559,-2.55742
602,-307,44.8114,2.41711,-0.0310581,0.0038352,-0.022722,0.015036,-0.0422589,-1.11281,0.0343012,0.0414582,1826,1331,44.8114,-2.41707
609,-307,44.373,2.45703,-0.0350491,0.00276531,-0.0190131,0.0106719,-0.0429557,-1.1767,0.0327787,0.0454088,1833,1331,44.373,-2.45707
616,-307,43.4891,2.37891,-0.0324547,0.00297345,-0.0155867,0.0088546,-0.0383359,-1.21,0.0289635,0.0468125,1840,1331,43.4891,-2.37891
623,-307,42.6384,2.33337,0,0,0,0,0,0,0,-1,1847,1331,42.6385,-2.33341
630,-307,29.8116,1.51184,0,0,0,0,0,0,0,-1,1854,1331,29.8116,-1.51188
637,-307,24.6407,4.09106,0,0,0,0,0,0,0,-1,1861,1331,24.6407,-4.09103
644,-307,22.6885,5.80408,0,0,0,0,0,0,0,-1,1868,1331,22.6884,-5.80408
651,-307,17.5013,5.80078,0,0,0,0,0,0,0,-1,1875,1331,17.5014,-5.80072
658,-307,30.5316,11.4587,0,0,0,0,0,0,0,-1,1882,1331,30.5316,-11.4588
665,-307,30.2905,10.9479,-0.00840198,0.00284634,0.000313187,0.00285506,-0.00841069,1.54298,0.00676278,0.0397512,1889,1331,30.2905,-10.9479
672,-307,30.2146,10.5583,-0.0016882,0.00211074,0.000126437,0.00211494,-0.00169241,1.53756,0.00220268,0.0136017,1896,1331,30.2146,-10.5584
679,-307,30.1884,10.1257,0.000398431,-5.21968e-05,-0.000328228,0.000571238,-0.000225003,-0.484609,0.000473976,0.0105889,1903,1331,30.1883,-10.1258
686,-307,30.1849,9.68604,0.000490091,-0.000340654,-0.000190728,0.000531787,-0.00038235,-0.215229,0.000530122,0.0105386,1910,1331,30.1849,-9.68598
693,-307,30.1804,9.24304,0.0004367,-0.000367508,-4.54285e-06,0.000436726,-0.000367533,-0.00564861,0.000464912,0.0124773,1917,1331,30.1804,-9.24306
700,-307,30.1732,8.78406,0.000196629,-0.00026224,0.000205382,0.000275126,-0.000340737,0.36507,0.000356241,0.0134156,1924,1331,30.1733,-8.78407
707,-307,30.1584,8.34241,-0.000231975,-0.000198335,0.000494559,0.000279689,-0.00071,0.802397,0.000589126,0.0152118,1931,1331,30.1585,-8.34237
714,-307,30.165,7.93689,-0.000783233,-0.000152126,0.000793497,0.000386259,-0.00132162,0.974648,0.00103416,0.0142917,1938,1331,30.1651,-7.93692
721,-307,30.1877,7.53259,-0.00149801,-0.000184049,0.00115987,0.000491984,-0.00217405,1.04308,0.00163817,0.0176301,1945,1331,30.1878,-7.53265
728,-307,30.1401,7.2395,-0.0024944,-0.000297194,0.00157204,0.000522077,-0.00331367,1.09037,0.00240213,0.0419822,1952,1331,30.1401,-7.23952
735,-307,30.1763,6.68237,0,0,0,0,0,0,0,-1,1959,1331,30.1762,-6.68237
742,-307,26.677,6.09192,0,0,0,0,0,0,0,-1,1966,1331,26.677,-6.0919
749,-307,26.7727,5.9032,0,0,0,0,0,0,0,-1,1973,1331,26.7727,-5.90323
756,-307,27.1556,5.74756,0,0,0,0,0,0,0,-1,1980,1331,27.1557,-5.7475
763,-307,18.7522,3.55298,0,0,0,0,0,0,0,-1,1987,1331,18.7522,-3.55301
770,-307,0,0,0,0,0,0,0,0,0,-1,1994,1331,0,0
777,-307,0,0,0,0,0,0,0,0,0,-1,2001,1331,0,0
784,-307,0,0,0,0,0,0,0,0,0,-1,2008,1331,0,0
791,-307,0,0,0,0,0,0,0,0,0,-1,2015,1331,0,0
798,-307,0,0,0,0,0,0,0,0,0,-1,2022,1331,0,0
805,-307,0,0,0,0,0,0,0,0,0,-1,2029,1331,0,0
812,-307,0,0,0,0,0,0,0,0,0,-1,2036,1331,0,0
-700,-314,0,0,0,0,0,0,0,0,0,-1,524,1338,0,0
-693,-314,0,0,0,0,0,0,0,0,0,-1,531,1338,0,0
-686,-314,0,0,0,0,0,0,0,0,0,-1,538,1338,0,0
-679,-314,0,0,0,0,0,0,0,0,0,-1,545,1338,0,0
-672,-314,0,0,0,0,0,0,0,0,0,-1,552,1338,0,0
-665,-314,0,0,0,0,0,0,0,0,0,-1,559,1338,0,0
-658,-314,0,0,0,0,0,0,0,0,0,-1,566,1338,0,0
-651,-314,0,0,0,0,0,0,0,0,0,-1,573,1338,0,0
-644,-314,-20.9896,-0.0299072,0,0,0,0,0,0,0,-1,580,1338,-20.9896,0.0299587
-637,-314,-18.8677,6.62646,0,0,0,0,0,0,0,-1,587,1338,-18.8677,-6.62651
-630,-314,-13.2771,2.98938,0,0,0,0,0,0,0,-1,594,1338,-13.2771,-2.98943
-623,-314,-13.3542,3.00903,0,0,0,0,0,0,0,-1,601,1338,-13.3542,-3.00907
-616,-314,-9.93311,1.15088,0,0,0,0,0,0,0,-1,608,1338,-9.93308,-1.15093
-609,-314,-9.4361,2.86292,0,0,0,0,0,0,0,-1,615,1338,-9.43612,-2.86286
-602,-314,-11.8027,2.42798,0,0,0,0,0,0,0,-1,622,1338,-11.8027,-2.42802
-595,-314,-16.601,4.41736,0,0,0,0,0,0,0,-1,629,1338,-16.6009,-4.41735
-588,-314,-16.5601,5.1936,0.00471689,0.00335502,0.0053259,0.00940521,-0.0013333,0.721816,0.00675856,0.0303958,636,1338,-16.5601,-5.19359
-581,-314,-16.4753,5.71423,0.0034221,0.0022371,0.00329389,0.00617635,-0.000517151,0.696411,0.00430033,0.0131641,643,1338,-16.4753,-5.71426
-574,-314,-16.5377,6.15955,0.00267556,0.00140239,0.00203253,0.00416886,-9.09127e-05,0.633638,0.00281003,0.0120729,650,1338,-16.5377,-6.15954
-567,-314,-16.5435,6.65894,0.00237668,0.000765122,0.00130832,0.00310745,3.43526e-05,0.509388,0.00206028,0.0150243,657,1338,-16.5435,-6.65897
-560,-314,-16.5163,7.14392,0.00243107,0.000263563,0.000819298,0.00270591,-1.12742e-05,0.323659,0.00180771,0.015995,664,1338,-16.5163,-7.14396
-553,-314,-16.5324,7.61609,0.00289509,-0.000106374,0.00087785,0.00313299,-0.000344267,0.264639,0.00221236,0.0185323,671,1338,-16.5324,-7.61606
-546,-314,-16.5826,8.12,0.00372667,-0.000375143,0.00115769,0.00403086,-0.000679331,0.256946,0.00293996,0.018868,678,1338,-16.5826,-8.12004
-539,-314,-16.5788,8.62219,0.00496453,-0.00060204,0.00162284,0.00540308,-0.0010406,0.263937,0.00399436,0.0181722,685,1338,-16.5788,-8.62218
-532,-314,-16.5079,9.06299,0,0,0,0,0,0,0,-1,692,1338,-16.5079,-9.063
-525,-314,-13.3017,7.50671,0,0,0,0,0,0,0,-1,699,1338,-13.3017,-7.50669
-518,-314,-8.52753,4.70032,0,0,0,0,0,0,0,-1,706,1338,-8.52755,-4.70034
-511,-314,-11.8597,0.384888,0,0,0,0,0,0,0,-1,713,1338,-11.8597,-0.384927
-504,-314,-11.4322,-0.187378,0,0,0,0,0,0,0,-1,720,1338,-11.4322,0.187381
-497,-314,-11.0047,-0.759644,0,0,0,0,0,0,0,-1,727,1338,-11.0047,0.759689
-490,-314,-18.5143,0.471069,0,0,0,0,0,0,0,-1,734,1338,-18.5143,-0.47103
-483,-314,-17.8528,0.577271,0,0,0,0,0,0,0,-1,741,1338,-17.8528,-0.577327
-476,-314,-17.714,0.665405,0,0,0,0,0,0,0,-1,748,1338,-17.714,-0.665388
-469,-314,-17.7246,0.794678,0,0,0,0,0,0,0,-1,755,1338,-17.7246,-0.794645
-462,-314,0,0,0,0,0,0,0,0,0,-1,762,1338,0,0
-455,-314,0,0,0,0,0,0,0,0,0,-1,769,1338,0,0
-448,-314,0,0,0,0,0,0,0,0,0,-1,776,1338,0,0
-441,-314,0,0,0,0,0,0,0,0,0,-1,783,1338,0,0
-434,-314,0,0,0,0,0,0,0,0,0,-1,790,1338,0,0
-427,-314,0,0,0,0,0,0,0,0,0,-1,797,1338,0,0
-420,-314,0,0,0,0,0,0,0,0,0,-1,804,1338,0,0
-413,-314,0,0,0,0,0,0,0,0,0,-1,811,1338,0,0
-406,-314,0,0,0,0,0,0,0,0,0,-1,818,1338,0,0
-399,-314,0,0,0,0,0,0,0,0,0,-1,825,1338,0,0
-392,-314,0,0,0,0,0,0,0,0,0,-1,832,1338,0,0
-385,-314,0,0,0,0,0,0,0,0,0,-1,839,1338,0,0
-378,-314,0,0,0,0,0,0,0,0,0,-1,846,1338,0,0
-371,-314,0,0,0,0,0,0,0,0,0,-1,853,1338,0,0
-364,-314,0,0,0,0,0,0,0,0,0,-1,860,1338,0,0
-357,-314,0,0,0,0,0,0,0,0,0,-1,867,1338,0,0
-350,-314,0,0,0,0,0,0,0,0,0,-1,874,1338,0,0
-343,-314,0,0,0,0,0,0,0,0,0,-1,881,1338,0,0
-336,-314,0,0,0,0,0,0,0,0,0,-1,888,1338,0,0
-329,-314,0,0,0,0,0,0,0,0,0,-1,895,1338,0,0
-322,-314,0,0,0,0,0,0,0,0,0,-1,902,1338,0,0
-315,-314,0,0,0,0,0,0,0,0,0,-1,909,1338,0,0
-308,-314,0,0,0,0,0,0,0,0,0,-1,916,1338,0,0
-301,-314,0,0,0,0,0,0,0,0,0,-1,923,1338,0,0
-294,-314,0,0,0,0,0,0,0,0,0,-1,930,1338,0,0
-287,-314,0,0,0,0,0,0,0,0,0,-1,937,1338,0,0
-280,-314,0,0,0,0,0,0,0,0,0,-1,944,1338,0,0
-273,-314,0,0,0,0,0,0,0,0,0,-1,951,1338,0,0
-266,-314,0,0,0,0,0,0,0,0,0,-1,958,1338,0,0
-259,-314,0,0,0,0,0,0,0,0,0,-1,965,1338,0,0
-252,-314,0,0,0,0,0,0,0,0,0,-1,972,1338,0,0
-245,-314,0,0,0,0,0,0,0,0,0,-1,979,1338,0,0
-238,-314,0,0,0,0,0,0,0,0,0,-1,986,1338,0,0
-231,-314,0,0,0,0,0,0,0,0,0,-1,993,1338,0,0
-224,-314,0,0,0,0,0,0,0,0,0,-1,1000,1338,0,0
-217,-314,0,0,0,0,0,0,0,0,0,-1,1007,1338,0,0
-210,-314,0,0,0,0,0,0,0,0,0,-1,1014,1338,0,0
-203,-314,0,0,0,0,0,0,0,0,0,-1,1021,1338,0,0
-196,-314,0,0,0,0,0,0,0,0,0,-1,1028,1338,0,0
-189,-314,0,0,0,0,0,0,0,0,0,-1,1035,1338,0,0
-182,-314,0,0,0,0,0,0,0,0,0,-1,1042,1338,0,0
-175,-314,0,0,0,0,0,0,0,0,0,-1,1049,1338,0,0
-168,-314,0,0,0,0,0,0,0,0,0,-1,1056,1338,0,0
-161,-314,0,0,0,0,0,0,0,0,0,-1,1063,1338,0,0
-154,-314,0,0,0,0,0,0,0,0,0,-1,1070,1338,0,0
-147,-314,0,0,0,0,0,0,0,0,0,-1,1077,1338,0,0
-140,-314,0,0,0,0,0,0,0,0,0,-1,1084,1338,0,0
-133,-314,0,0,0,0,0,0,0,0,0,-1,1091,1338,0,0
-126,-314,0,0,0,0,0,0,0,0,0,-1,1098,1338,0,0
-119,-314,0,0,0,0,0,0,0,0,0,-1,1105,1338,0,0
-112,-314,0,0,0,0,0,0,0,0,0,-1,1112,1338,0,0
-105,-314,0,0,0,0,0,0,0,0,0,-1,1119,1338,0,0
-98,-314,0,0,0,0,0,0,0,0,0,-1,1126,1338,0,0
-91,-314,0,0,0,0,0,0,0,0,0,-1,1133,1338,0,0
-84,-314,0,0,0,0,0,0,0,0,0,-1,1140,1338,0,0
-77,-314,0,0,0,0,0,0,0,0,0,-1,1147,1338,0,0
-70,-314,0,0,0,0,0,0,0,0,0,-1,1154,1338,0,0
-63,-314,0,0,0,0,0,0,0,0,0,-1,1161,1338,0,0
-56,-314,0,0,0,0,0,0,0,0,0,-1,1168,1338,0,0
-49,-314,0,0,0,0,0,0,0,0,0,-1,1175,1338,0,0
-42,-314,0,0,0,0,0,0,0,0,0,-1,1182,1338,0,0
-35,-314,0,0,0,0,0,0,0,0,0,-1,1189,1338,0,0
-28,-314,0,0,0,0,0,0,0,0,0,-1,1196,1338,0,0
-21,-314,0,0,0,0,0,0,0,0,0,-1,1203,1338,0,0
-14,-314,0,0,0,0,0,0,0,0,0,-1,1210,1338,0,0
-7,-314,0,0,0,0,0,0,0,0,0,-1,1217,1338,0,0
0,-314,0,0,0,0,0,0,0,0,0,-1,1224,1338,0,0
7,-314,0,0,0,0,0,0,0,0,0,-1,1231,1338,0,0
14,-314,0,0,0,0,0,0,0,0,0,-1,1238,1338,0,0
21,-314,0,0,0,0,0,0,0,0,0,-1,1245,1338,0,0
28,-314,0,0,0,0,0,0,0,0,0,-1,1252,1338,0,0
35,-314,0,0,0,0,0,0,0,0,0,-1,1259,1338,0,0
42,-314,0,0,0,0,0,0,0,0,0,-1,1266,1338,0,0
49,-314,0,0,0,0,0,0,0,0,0,-1,1273,1338,0,0
56,-314,0,0,0,0,0,0,0,0,0,-1,1280,1338,0,0
63,-314,0,0,0,0,0,0,0,0,0,-1,1287,1338,0,0
70,-314,0,0,0,0,0,0,0,0,0,-1,1294,1338,0,0
77,-314,0,0,0,0,0,0,0,0,0,-1,1301,1338,0,0
84,-314,0,0,0,0,0,0,0,0,0,-1,1308,1338,0,0
91,-314,0,0,0,0,0,0,0,0,0,-1,1315,1338,0,0
98,-314,0,0,0,0,0,0,0,0,0,-1,1322,1338,0,0
105,-314,0,0,0,0,0,0,0,0,0,-1,1329,1338,0,0
112,-314,0,0,0,0,0,0,0,0,0,-1,1336,1338,0,0
119,-314,0,0,0,0,0,0,0,0,0,-1,1343,1338,0,0
126,-314,0,0,0,0,0,0,0,0,0,-1,1350,1338,0,0
133,-314,0,0,0,0,0,0,0,0,0,-1,1357,1338,0,0
140,-314,0,0,0,0,0,0,0,0,0,-1,1364,1338,0,0
147,-314,0,0,0,0,0,0,0,0,0,-1,1371,1338,0,0
154,-314,0,0,0,0,0,0,0,0,0,-1,1378,1338,0,0
161,-314,0,0,0,0,0,0,0,0,0,-1,1385,1338,0,0
168,-314,0,0,0,0,0,0,0,0,0,-1,1392,1338,0,0
175,-314,0,0,0,0,0,0,0,0,0,-1,1399,1338,0,0
182,-314,0,0,0,0,0,0,0,0,0,-1,1406,1338,0,0
189,-314,0,0,0,0,0,0,0,0,0,-1,1413,1338,0,0
196,-314,0,0,0,0,0,0,0,0,0,-1,1420,1338,0,0
203,-314,0,0,0,0,0,0,0,0,0,-1,1427,1338,0,0
210,-314,0,0,0,0,0,0,0,0,0,-1,1434,1338,0,0
217,-314,0,0,0,0,0,0,0,0,0,-1,1441,1338,0,0
224,-314,0,0,0,0,0,0,0,0,0,-1,1448,1338,0,0
231,-314,0,0,0,0,0,0,0,0,0,-1,1455,1338,0,0
238,-314,0,0,0,0,0,0,0,0,0,-1,1462,1338,0,0
245,-314,0,0,0,0,0,0,0,0,0,-1,1469,1338,0,0
252,-314,0,0,0,0,0,0,0,0,0,-1,1476,1338,0,0
259,-314,0,0,0,0,0,0,0,0,0,-1,1483,1338,0,0
266,-314,0,0,0,0,0,0,0,0,0,-1,1490,1338,0,0
273,-314,0,0,0,0,0,0,0,0,0,-1,1497,1338,0,0
280,-314,0,0,0,0,0,0,0,0,0,-1,1504,1338,0,0
287,-314,0,0,0,0,0,0,0,0,0,-1,1511,1338,0,0
294,-314,0,0,0,0,0,0,0,0,0,-1,1518,1338,0,0
301,-314,0,0,0,0,0,0,0,0,0,-1,1525,1338,0,0
308,-314,0,0,0,0,0,0,0,0,0,-1,1532,1338,0,0
315,-314,0,0,0,0,0,0,0,0,0,-1,1539,1338,0,0
322,-314,0,0,0,0,0,0,0,0,0,-1,1546,1338,0,0
329,-314,0,0,0,0,0,0,0,0,0,-1,1553,1338,0,0
336,-314,0,0,0,0,0,0,0,0,0,-1,1560,1338,0,0
343,-314,0,0,0,0,0,0,0,0,0,-1,1567,1338,0,0
350,-314,0,0,0,0,0,0,0,0,0,-1,1574,1338,0,0
357,-314,0,0,0,0,0,0,0,0,0,-1,1581,1338,0,0
364,-314,0,0,0,0,0,0,0,0,0,-1,1588,1338,0,0
371,-314,0,0,0,0,0,0,0,0,0,-1,1595,1338,0,0
378,-314,0,0,0,0,0,0,0,0,0,-1,1602,1338,0,0
385,-314,0,0,0,0,0,0,0,0,0,-1,1609,1338,0,0
392,-314,0,0,0,0,0,0,0,0,0,-1,1616,1338,0,0
399,-314,0,0,0,0,0,0,0,0,0,-1,1623,1338,0,0
406,-314,0,0,0,0,0,0,0,0,0,-1,1630,1338,0,0
413,-314,0,0,0,0,0,0,0,0,0,-1,1637,1338,0,0
420,-314,0,0,0,0,0,0,0,0,0,-1,1644,1338,0,0
427,-314,0,0,0,0,0,0,0,0,0,-1,1651,1338,0,0
434,-314,0,0,0,0,0,0,0,0,0,-1,1658,1338,0,0
441,-314,0,0,0,0,0,0,0,0,0,-1,1665,1338,0,0
448,-314,0,0,0,0,0,0,0,0,0,-1,1672,1338,0,0
455,-314,0,0,0,0,0,0,0,0,0,-1,1679,1338,0,0
462,-314,0,0,0,0,0,0,0,0,0,-1,1686,1338,0,0
469,-314,0,0,0,0,0,0,0,0,0,-1,1693,1338,0,0
476,-314,0,0,0,0,0,0,0,0,0,-1,1700,1338,0,0
483,-314,0,0,0,0,0,0,0,0,0,-1,1707,1338,0,0
490,-314,0,0,0,0,0,0,0,0,0,-1,1714,1338,0,0
497,-314,0,0,0,0,0,0,0,0,0,-1,1721,1338,0,0
504,-314,0,0,0,0,0,0,0,0,0,-1,1728,1338,0,0
511,-314,0,0,0,0,0,0,0,0,0,-1,1735,1338,0,0
518,-314,0,0,0,0,0,0,0,0,0,-1,1742,1338,0,0
525,-314,0,0,0,0,0,0,0,0,0,-1,1749,1338,0,0
532,-314,0,0,0,0,0,0,0,0,0,-1,1756,1338,0,0
539,-314,0,0,0,0,0,0,0,0,0,-1,1763,1338,0,0
546,-314,0,0,0,0,0,0,0,0,0,-1,1770,1338,0,0
553,-314,0,0,0,0,0,0,0,0,0,-1,1777,1338,0,0
560,-314,0,0,0,0,0,0,0,0,0,-1,1784,1338,0,0
567,-314,0,0,0,0,0,0,0,0,0,-1,1791,1338,0,0
574,-314,0,0,0,0,0,0,0,0,0,-1,1798,1338,0,0
581,-314,45.1393,3.66577,0,0,0,0,0,0,0,-1,1805,1338,45.1393,-3.66579
588,-314,45.8807,2.73743,0,0,0,0,0,0,0,-1,1812,1338,45.8807,-2.73747
595,-314,45.4468,2.63135,-0.0200419,0.00586428,-0.0268583,0.0227298,-0.0369074,-1.01008,0.0347544,0.0427661,1819,1338,45.4468,-2.63133
602,-314,45.25,2.44275,-0.0300117,0.00211433,-0.0240025,0.0149328,-0.0428302,-1.08028,0.0346217,0.0419133,1826,1338,45.25,-2.4428
609,-314,44.451,2.61841,-0.0308741,0.00187329,-0.0205769,0.0117961,-0.040797,-1.12146,0.0318663,0.0448036,1833,1338,44.4511,-2.61837
616,-314,43.7756,2.53015,0,0,0,0,0,0,0,-1,1840,1338,43.7756,-2.53015
623,-314,38.7728,2.71741,0,0,0,0,0,0,0,-1,1847,1338,38.7728,-2.71737
630,-314,29.4308,6.23206,0,0,0,0,0,0,0,-1,1854,1338,29.4308,-6.23202
637,-314,22.1349,5.16418,0,0,0,0,0,0,0,-1,1861,1338,22.1349,-5.16414
644,-314,18.7517,6.2605,0,0,0,0,0,0,0,-1,1868,1338,18.7517,-6.26053
651,-314,23.1317,8.005,0,0,0,0,0,0,0,-1,1875,1338,23.1317,-8.00506
658,-314,29.8395,11.454,0,0,0,0,0,0,0,-1,1882,1338,29.8394,-11.454
665,-314,29.7749,11.0214,-0.00699647,0.00181723,-0.0001287,0.00181911,-0.00699834,-1.5562,0.00537553,0.0255414,1889,1338,29.7749,-11.0214
672,-314,29.7761,10.5984,-0.000406429,0.00126495,-0.000219804,0.00129337,-0.000434853,-1.4422,0.00103802,0.0128064,1896,1338,29.7761,-10.5984
679,-314,29.7538,10.1508,0.000951893,-0.000321312,-0.000458798,0.00109999,-0.000469412,-0.312241,0.000930157,0.0105839,1903,1338,29.7537,-10.1507
686,-314,29.7434,9.68604,0.00078043,-0.000365327,-0.0002553,0.000834742,-0.000419639,-0.209613,0.000737317,0.0127864,1910,1338,29.7434,-9.68602
693,-314,29.7251,9.2323,0.00054594,-0.000304592,-3.72503e-05,0.000547568,-0.00030622,-0.043685,0.000499456,0.0129765,1917,1338,29.725,-9.23234
700,-314,29.7214,8.78491,0.000254437,-0.000208511,0.000196675,0.000326709,-0.000280782,0.35215,0.000351069,0.0139951,1924,1338,29.7215,-8.78486
707,-314,29.7245,8.36353,-0.000133493,-0.000142604,0.000471882,0.000333855,-0.000609952,0.780571,0.000552625,0.0141045,1931,1338,29.7245,-8.36357
714,-314,29.6873,7.95483,-0.000654206,-0.000108132,0.000772589,0.000438247,-0.00120058,0.955251,0.000979709,0.0128186,1938,1338,29.6872,-7.95488
721,-314,29.6947,7.55396,-0.00137633,-0.000193841,0.00120132,0.000553849,-0.00212402,1.01408,0.00163226,0.0249202,1945,1338,29.6947,-7.55401
728,-314,29.7648,7.16003,0,0,0,0,0,0,0,-1,1952,1338,29.7648,-7.15999
735,-314,26.3665,6.21582,0,0,0,0,0,0,0,-1,1959,1338,26.3664,-6.21581
742,-314,26.2235,6.0166,0,0,0,0,0,0,0,-1,1966,1338,26.2235,-6.01662
749,-314,26.2223,5.47046,0,0,0,0,0,0,0,-1,1973,1338,26.2223,-5.47041
756,-314,24.2521,5.93408,0,0,0,0,0,0,0,-1,1980,1338,24.252,-5.93413
763,-314,19.2207,4.07239,0,0,0,0,0,0,0,-1,1987,1338,19.2206,-4.07239
770,-314,0,0,0,0,0,0,0,0,0,-1,1994,1338,0,0
777,-314,0,0,0,0,0,0,0,0,0,-1,2001,1338,0,0
784,-314,0,0,0,0,0,0,0,0,0,-1,2008,1338,0,0
791,-314,0,0,0,0,0,0,0,0,0,-1,2015,1338,0,0
798,-314,0,0,0,0,0,0,0,0,0,-1,2022,1338,0,0
805,-314,0,0,0,0,0,0,0,0,0,-1,2029,1338,0,0
812,-314,0,0,0,0,0,0,0,0,0,-1,2036,1338,0,0
-700,-321,0,0,0,0,0,0,0,0,0,-1,524,1345,0,0
-693,-321,0,0,0,0,0,0,0,0,0,-1,531,1345,0,0
-686,-321,0,0,0,0,0,0,0,0,0,-1,538,1345,0,0
-679,-321,0,0,0,0,0,0,0,0,0,-1,545,1345,0,0
-672,-321,0,0,0,0,0,0,0,0,0,-1,552,1345,0,0
-665,-321,0,0,0,0,0,0,0,0,0,-1,559,1345,0,0
-658,-321,0,0,0,0,0,0,0,0,0,-1,566,1345,0,0
-651,-321,0,0,0,0,0,0,0,0,0,-1,573,1345,0,0
-644,-321,-17.2769,5.65454,0,0,0,0,0,0,0,-1,580,1345,-17.2768,-5.65454
-637,-321,-13.3991,3.59241,0,0,0,0,0,0,0,-1,587,1345,-13.3991,-3.59236
-630,-321,-13.2958,3.65039,0,0,0,0,0,0,0,-1,594,1345,-13.2958,-3.65042
-623,-321,-13.2242,3.14148,0,0,0,0,0,0,0,-1,601,1345,-13.2243,-3.14146
-616,-321,-11.6754,3.13794,0,0,0,0,0,0,0,-1,608,1345,-11.6754,-3.13789
-609,-321,-7.95209,1.14758,0,0,0,0,0,0,0,-1,615,1345,-7.95208,-1.14757
-602,-321,-8.85791,2.50049,0,0,0,0,0,0,0,-1,622,1345,-8.85791,-2.50048
-595,-321,-16.5192,4.59619,0,0,0,0,0,0,0,-1,629,1345,-16.5192,-4.59621
-588,-321,-16.108,5.11938,0.00416393,0.00283578,0.00430672,0.00785747,-0.000857761,0.708903,0.00554639,0.0436965,636,1345,-16.1081,-5.11935
-581,-321,-16.0107,5.71924,0.00281698,0.00185274,0.00246469,0.00484626,-0.000176542,0.688813,0.00329127,0.0139772,643,1345,-16.0107,-5.71928
-574,-321,-16.0543,6.18628,0.00211854,0.00115264,0.00141816,0.00313372,0.000137452,0.621283,0.00204487,0.0150211,650,1345,-16.0543,-6.18624
-567,-321,-16.0673,6.65906,0.00191101,0.000666499,0.000896668,0.00238018,0.000197326,0.482066,0.00152527,0.0226518,657,1345,-16.0673,-6.65907
-560,-321,-16.0381,7.20203,0.00209093,0.000302235,0.000597155,0.00227197,0.000121198,0.294359,0.0014759,0.0266942,664,1345,-16.0381,-7.202
-553,-321,-16.0439,7.64844,0.00269586,5.6771e-05,0.00080376,0.00292138,-0.00016875,0.273549,0.0020062,0.0274484,671,1345,-16.0439,-7.6484
-546,-321,-16.0898,8.13135,0.00367064,-0.000109548,0.0012043,0.00402171,-0.000460613,0.283649,0.00284712,0.0266725,678,1345,-16.0899,-8.13133
-539,-321,-16.134,8.61804,0.00500565,-0.000216082,0.00176962,0.00554886,-0.000759291,0.297833,0.00397657,0.0238215,685,1345,-16.134,-8.61801
-532,-321,-16.0215,9.10889,0.00693695,-0.000206394,0.00257385,0.00776772,-0.00103717,0.312218,0.00555656,0.0314811,692,1345,-16.0215,-9.10891
-525,-321,-15.985,9.61218,0,0,0,0,0,0,0,-1,699,1345,-15.985,-9.61221
-518,-321,-10.3564,6.75696,0,0,0,0,0,0,0,-1,706,1345,-10.3564,-6.75694
-511,-321,-9.3302,5.29297,0,0,0,0,0,0,0,-1,713,1345,-9.33023,-5.29294
-504,-321,-10.4713,0.0145264,0,0,0,0,0,0,0,-1,720,1345,-10.4713,-0.0145296
-497,-321,-9.96771,0.313599,0,0,0,0,0,0,0,-1,727,1345,-9.96769,-0.313618
-490,-321,-10.7631,0.973511,0,0,0,0,0,0,0,-1,734,1345,-10.7631,-0.97353
-483,-321,-17.5908,0.2323,0,0,0,0,0,0,0,-1,741,1345,-17.5908,-0.232355
-476,-321,-17.2915,0.297363,0,0,0,0,0,0,0,-1,748,1345,-17.2915,-0.297342
-469,-321,-17.2441,0.478027,0,0,0,0,0,0,0,-1,755,1345,-17.2441,-0.477994
-462,-321,-17.1672,0.526489,0,0,0,0,0,0,0,-1,762,1345,-17.1672,-0.526533
-455,-321,0,0,0,0,0,0,0,0,0,-1,769,1345,0,0
-448,-321,0,0,0,0,0,0,0,0,0,-1,776,1345,0,0
-441,-321,0,0,0,0,0,0,0,0,0,-1,783,1345,0,0
-434,-321,0,0,0,0,0,0,0,0,0,-1,790,1345,0,0
-427,-321,0,0,0,0,0,0,0,0,0,-1,797,1345,0,0
-420,-321,0,0,0,0,0,0,0,0,0,-1,804,1345,0,0
-413,-321,0,0,0,0,0,0,0,0,0,-1,811,1345,0,0
-406,-321,0,0,0,0,0,0,0,0,0,-1,818,1345,0,0
-399,-321,0,0,0,0,0,0,0,0,0,-1,825,1345,0,0
-392,-321,0,0,0,0,0,0,0,0,0,-1,832,1345,0,0
-385,-321,0,0,0,0,0,0,0,0,0,-1,839,1345,0,0
-378,-321,0,0,0,0,0,0,0,0,0,-1,846,1345,0,0
-371,-321,0,0,0,0,0,0,0,0,0,-1,853,1345,0,0
-364,-321,0,0,0,0,0,0,0,0,0,-1,860,1345,0,0
-357,-321,0,0,0,0,0,0,0,0,0,-1,867,1345,0,0
-350,-321,0,0,0,0,0,0,0,0,0,-1,874,1345,0,0
-343,-321,0,0,0,0,0,0,0,0,0,-1,881,1345,0,0
-336,-321,0,0,0,0,0,0,0,0,0,-1,888,1345,0,0
-329,-321,0,0,0,0,0,0,0,0,0,-1,895,1345,0,0
-322,-321,0,0,0,0,0,0,0,0,0,-1,902,1345,0,0
-315,-321,0,0,0,0,0,0,0,0,0,-1,909,1345,0,0
-308,-321,0,0,0,0,0,0,0,0,0,-1,916,1345,0,0
-301,-321,0,0,0,0,0,0,0,0,0,-1,923,1345,0,0
-294,-321,0,0,0,0,0,0,0,0,0,-1,930,1345,0,0
-287,-321,0,0,0,0,0,0,0,0,0,-1,937,1345,0,0
-280,-321,0,0,0,0,0,0,0,0,0,-1,944,1345,0,0
-273,-321,0,0,0,0,0,0,0,0,0,-1,951,1345,0,0
-266,-321,0,0,0,0,0,0,0,0,0,-1,958,1345,0,0
-259,-321,0,0,0,0,0,0,0,0,0,-1,965,1345,0,0
-252,-321,0,0,0,0,0,0,0,0,0,-1,972,1345,0,0
-245,-321,0,0,0,0,0,0,0,0,0,-1,979,1345,0,0
-238,-321,0,0,0,0,0,0,0,0,0,-1,986,1345,0,0
-231,-321,0,0,0,0,0,0,0,0,0,-1,993,1345,0,0
-224,-321,0,0,0,0,0,0,0,0,0,-1,1000,1345,0,0
-217,-321,0,0,0,0,0,0,0,0,0,-1,1007,1345,0,0
-210,-321,0,0,0,0,0,0,0,0,0,-1,1014,1345,0,0
-203,-321,0,0,0,0,0,0,0,0,0,-1,1021,1345,0,0
-196,-321,0,0,0,0,0,0,0,0,0,-1,1028,1345,0,0
-189,-321,0,0,0,0,0,0,0,0,0,-1,1035,1345,0,0
-182,-321,0,0,0,0,0,0,0,0,0,-1,1042,1345,0,0
-175,-321,0,0,0,0,0,0,0,0,0,-1,1049,1345,0,0
-168,-321,0,0,0,0,0,0,0,0,0,-1,1056,1345,0,0
-161,-321,0,0,0,0,0,0,0,0,0,-1,1063,1345,0,0
-154,-321,0,0,0,0,0,0,0,0,0,-1,1070,1345,0,0
-147,-321,0,0,0,0,0,0,0,0,0,-1,1077,1345,0,0
-140,-321,0,0,0,0,0,0,0,0,0,-1,1084,1345,0,0
-133,-321,0,0,0,0,0,0,0,0,0,-1,1091,1345,0,0
-126,-321,0,0,0,0,0,0,0,0,0,-1,1098,1345,0,0
-119,-321,0,0,0,0,0,0,0,0,0,-1,1105,1345,0,0
-112,-321,0,0,0,0,0,0,0,0,0,-1,1112,1345,0,0
-105,-321,0,0,0,0,0,0,0,0,0,-1,1119,1345,0,0
-98,-321,0,0,0,0,0,0,0,0,0,-1,1126,1345,0,0
-91,-321,0,0,0,0,0,0,0,0,0,-1,1133,1345,0,0
-84,-321,0,0,0,0,0,0,0,0,0,-1,1140,1345,0,0
-77,-321,0,0,0,0,0,0,0,0,0,-1,1147,1345,0,0
-70,-321,0,0,0,0,0,0,0,0,0,-1,1154,1345,0,0
-63,-321,0,0,0,0,0,0,0,0,0,-1,1161,1345,0,0
-56,-321,0,0,0,0,0,0,0,0,0,-1,1168,1345,0,0
-49,-321,0,0,0,0,0,0,0,0,0,-1,1175,1345,0,0
-42,-321,0,0,0,0,0,0,0,0,0,-1,1182,1345,0,0
-35,-321,0,0,0,0,0,0,0,0,0,-1,1189,1345,0,0
-28,-321,0,0,0,0,0,0,0,0,0,-1,1196,1345,0,0
-21,-321,0,0,0,0,0,0,0,0,0,-1,1203,1345,0,0
-14,-321,0,0,0,0,0,0,0,0,0,-1,1210,1345,0,0
-7,-321,0,0,0,0,0,0,0,0,0,-1,1217,1345,0,0
0,-321,0,0,0,0,0,0,0,0,0,-1,1224,1345,0,0
7,-321,0,0,0,0,0,0,0,0,0,-1,1231,1345,0,0
14,-321,0,0,0,0,0,0,0,0,0,-1,1238,1345,0,0
21,-321,0,0,0,0,0,0,0,0,0,-1,1245,1345,0,0
28,-321,0,0,0,0,0,0,0,0,0,-1,1252,1345,0,0
35,-321,0,0,0,0,0,0,0,0,0,-1,1259,1345,0,0
42,-321,0,0,0,0,0,0,0,0,0,-1,1266,1345,0,0
49,-321,0,0,0,0,0,0,0,0,0,-1,1273,1345,0,0
56,-321,0,0,0,0,0,0,0,0,0,-1,1280,1345,0,0
63,-321,0,0,0,0,0,0,0,0,0,-1,1287,1345,0,0
70,-321,0,0,0,0,0,0,0,0,0,-1,1294,1345,0,0
77,-321,0,0,0,0,0,0,0,0,0,-1,1301,1345,0,0
84,-321,0,0,0,0,0,0,0,0,0,-1,1308,1345,0,0
91,-321,0,0,0,0,0,0,0,0,0,-1,1315,1345,0,0
98,-321,0,0,0,0,0,0,0,0,0,-1,1322,1345,0,0
105,-321,0,0,0,0,0,0,0,0,0,-1,1329,1345,0,0
112,-321,0,0,0,0,0,0,0,0,0,-1,1336,1345,0,0
119,-321,0,0,0,0,0,0,0,0,0,-1,1343,1345,0,0
126,-321,0,0,0,0,0,0,0,0,0,-1,1350,1345,0,0
133,-321,0,0,0,0,0,0,0,0,0,-1,1357,1345,0,0
140,-321,0,0,0,0,0,0,0,0,0,-1,1364,1345,0,0
147,-321,0,0,0,0,0,0,0,0,0,-1,1371,1345,0,0
154,-321,0,0,0,0,0,0,0,0,0,-1,1378,1345,0,0
161,-321,0,0,0,0,0,0,0,0,0,-1,1385,1345,0,0
168,-321,0,0,0,0,0,0,0,0,0,-1,1392,1345,0,0
175,-321,0,0,0,0,0,0,0,0,0,-1,1399,1345,0,0
182,-321,0,0,0,0,0,0,0,0,0,-1,1406,1345,0,0
189,-321,0,0,0,0,0,0,0,0,0,-1,1413,1345,0,0
196,-321,0,0,0,0,0,0,0,0,0,-1,1420,1345,0,0
203,-321,0,0,0,0,0,0,0,0,0,-1,1427,1345,0,0
210,-321,0,0,0,0,0,0,0,0,0,-1,1434,1345,0,0
217,-321,0,0,0,0,0,0,0,0,0,-1,1441,1345,0,0
224,-321,0,0,0,0,0,0,0,0,0,-1,1448,1345,0,0
231,-321,0,0,0,0,0,0,0,0,0,-1,1455,1345,0,0
238,-321,0,0,0,0,0,0,0,0,0,-1,1462,1345,0,0
245,-321,0,0,0,0,0,0,0,0,0,-1,1469,1345,0,0
252,-321,0,0,0,0,0,0,0,0,0,-1,1476,1345,0,0
259,-321,0,0,0,0,0,0,0,0,0,-1,1483,1345,0,0
266,-321,0,0,0,0,0,0,0,0,0,-1,1490,1345,0,0
273,-321,0,0,0,0,0,0,0,0,0,-1,1497,1345,0,0
280,-321,0,0,0,0,0,0,0,0,0,-1,1504,1345,0,0
287,-321,0,0,0,0,0,0,0,0,0,-1,1511,1345,0,0
294,-321,0,0,0,0,0,0,0,0,0,-1,1518,1345,0,0
301,-321,0,0,0,0,0,0,0,0,0,-1,1525,1345,0,0
308,-321,0,0,0,0,0,0,0,0,0,-1,1532,1345,0,0
315,-321,0,0,0,0,0,0,0,0,0,-1,1539,1345,0,0
322,-321,0,0,0,0,0,0,0,0,0,-1,1546,1345,0,0
329,-321,0,0,0,0,0,0,0,0,0,-1,1553,1345,0,0
336,-321,0,0,0,0,0,0,0,0,0,-1,1560,1345,0,0
343,-321,0,0,0,0,0,0,0,0,0,-1,1567,1345,0,0
350,-321,0,0,0,0,0,0,0,0,0,-1,1574,1345,0,0
357,-321,0,0,0,0,0,0,0,0,0,-1,1581,1345,0,0
364,-321,0,0,0,0,0,0,0,0,0,-1,1588,1345,0,0
371,-321,0,0,0,0,0,0,0,0,0,-1,1595,1345,0,0
378,-321,0,0,0,0,0,0,0,0,0,-1,1602,1345,0,0
385,-321,0,0,0,0,0,0,0,0,0,-1,1609,1345,0,0
392,-321,0,0,0,0,0,0,0,0,0,-1,1616,1345,0,0
399,-321,0,0,0,0,0,0,0,0,0,-1,1623,1345,0,0
406,-321,0,0,0,0,0,0,0,0,0,-1,1630,1345,0,0
413,-321,0,0,0,0,0,0,0,0,0,-1,1637,1345,0,0
420,-321,0,0,0,0,0,0,0,0,0,-1,1644,1345,0,0
427,-321,0,0,0,0,0,0,0,0,0,-1,1651,1345,0,0
434,-321,0,0,0,0,0,0,0,0,0,-1,1658,1345,0,0
441,-321,0,0,0,0,0,0,0,0,0,-1,1665,1345,0,0
448,-321,0,0,0,0,0,0,0,0,0,-1,1672,1345,0,0
455,-321,0,0,0,0,0,0,0,0,0,-1,1679,1345,0,0
462,-321,0,0,0,0,0,0,0,0,0,-1,1686,1345,0,0
469,-321,0,0,0,0,0,0,0,0,0,-1,1693,1345,0,0
476,-321,0,0,0,0,0,0,0,0,0,-1,1700,1345,0,0
483,-321,0,0,0,0,0,0,0,0,0,-1,1707,1345,0,0
490,-321,0,0,0,0,0,0,0,0,0,-1,1714,1345,0,0
497,-321,0,0,0,0,0,0,0,0,0,-1,1721,1345,0,0
504,-321,0,0,0,0,0,0,0,0,0,-1,1728,1345,0,0
511,-321,0,0,0,0,0,0,0,0,0,-1,1735,1345,0,0
518,-321,0,0,0,0,0,0,0,0,0,-1,1742,1345,0,0
525,-321,0,0,0,0,0,0,0,0,0,-1,1749,1345,0,0
532,-321,0,0,0,0,0,0,0,0,0,-1,1756,1345,0,0
539,-321,0,0,0,0,0,0,0,0,0,-1,1763,1345,0,0
546,-321,0,0,0,0,0,0,0,0,0,-1,1770,1345,0,0
553,-321,0,0,0,0,0,0,0,0,0,-1,1777,1345,0,0
560,-321,0,0,0,0,0,0,0,0,0,-1,1784,1345,0,0
567,-321,0,0,0,0,0,0,0,0,0,-1,1791,1345,0,0
574,-321,0,0,0,0,0,0,0,0,0,-1,1798,1345,0,0
581,-321,45.7966,3.81409,0.00955621,0.0209188,-0.0309948,0.0467487,-0.0162737,-0.876041,0.0377774,0.0460652,1805,1345,45.7966,-3.81413
588,-321,45.7527,3.35864,-0.00643563,0.0108964,-0.0293815,0.0328632,-0.0284025,-0.928806,0.035403,0.0449207,1812,1345,45.7526,-3.35862
595,-321,45.8491,2.94397,-0.0212673,0.00264527,-0.0271422,0.0203479,-0.0389699,-0.992863,0.0348051,0.0435808,1819,1345,45.8491,-2.94402
602,-321,45.6768,2.61536,-0.0251322,0.00154912,-0.0245472,0.0161465,-0.0397296,-1.03431,0.0332041,0.0437565,1826,1345,45.6768,-2.61534
609,-321,45.3872,2.36121,0,0,0,0,0,0,0,-1,1833,1345,45.3872,-2.36116
616,-321,37.8107,2.58704,0,0,0,0,0,0,0,-1,1840,1345,37.8106,-2.58705
623,-321,37.6854,3.68933,0,0,0,0,0,0,0,-1,1847,1345,37.6854,-3.68931
630,-321,23.6674,4.34106,0,0,0,0,0,0,0,-1,1854,1345,23.6674,-4.34112
637,-321,21.7925,6.79224,0,0,0,0,0,0,0,-1,1861,1345,21.7925,-6.7922
644,-321,16.8844,6.71973,0,0,0,0,0,0,0,-1,1868,1345,16.8844,-6.71971
651,-321,27.4924,10.0319,0,0,0,0,0,0,0,-1,1875,1345,27.4924,-10.0319
658,-321,29.2682,11.4729,0,0,0,0,0,0,0,-1,1882,1345,29.2682,-11.4729
665,-321,29.3154,11.0597,-0.00615033,0.000829537,-0.000391742,0.000851454,-0.00617224,-1.51491,0.00442603,0.0207895,1889,1345,29.3155,-11.0597
672,-321,29.3367,10.6064,-0.000248655,0.000669292,-0.000337837,0.000780222,-0.000359585,-1.25353,0.00067284,0.0140163,1896,1345,29.3367,-10.6065
679,-321,29.3147,10.1698,0.000788303,-0.000357121,-0.000439734,0.000937647,-0.000506465,-0.327401,0.000846056,0.0118086,1903,1345,29.3147,-10.1698
686,-321,29.2771,9.72144,0.000759928,-0.000291361,-0.000255963,0.000818936,-0.00035037,-0.226577,0.000692931,0.0120069,1910,1345,29.2771,-9.72145
693,-321,29.2681,9.27979,0.000619311,-0.000225148,-7.19338e-05,0.000625394,-0.000231232,-0.0843732,0.000511728,0.0122964,1917,1345,29.268,-9.27982
700,-321,29.2893,8.82739,0.000386146,-0.000166586,0.00014932,0.000423905,-0.000204345,0.247681,0.000370031,0.0120173,1924,1345,29.2893,-8.82743
707,-321,29.2848,8.38794,2.66929e-05,-0.000120423,0.000404631,0.000364397,-0.000458128,0.695485,0.000475912,0.0135693,1931,1345,29.2848,-8.38788
714,-321,29.2621,7.94617,-0.00048986,-0.000120113,0.000702035,0.000420982,-0.00103096,0.914145,0.000862583,0.0132367,1938,1345,29.2621,-7.9462
721,-321,29.2224,7.48328,-0.00127857,-0.000284556,0.00119957,0.000516893,-0.00208002,0.981794,0.00158728,0.0374626,1945,1345,29.2225,-7.48333
728,-321,29.2534,7.07959,0,0,0,0,0,0,0,-1,1952,1345,29.2534,-7.07965
735,-321,22.0081,5.65479,0,0,0,0,0,0,0,-1,1959,1345,22.008,-5.65481
742,-321,24.5398,5.05725,0,0,0,0,0,0,0,-1,1966,1345,24.5398,-5.05729
749,-321,24.0675,5.4458,0,0,0,0,0,0,0,-1,1973,1345,24.0675,-5.44581
756,-321,19.6251,4.98315,0,0,0,0,0,0,0,-1,1980,1345,19.6251,-4.98311
763,-321,19.6747,4.61438,0,0,0,0,0,0,0,-1,1987,1345,19.6747,-4.61436
770,-321,0,0,0,0,0,0,0,0,0,-1,1994,1345,0,0
777,-321,0,0,0,0,0,0,0,0,0,-1,2001,1345,0,0
784,-321,0,0,0,0,0,0,0,0,0,-1,2008,1345,0,0
791,-321,0,0,0,0,0,0,0,0,0,-1,2015,1345,0,0
798,-321,0,0,0,0,0,0,0,0,0,-1,2022,1345,0,0
805,-321,0,0,0,0,0,0,0,0,0,-1,2029,1345,0,0
812,-321,0,0,0,0,0,0,0,0,0,-1,2036,1345,0,0
-700,-328,0,0,0,0,0,0,0,0,0,-1,524,1352,0,0
-693,-328,0,0,0,0,0,0,0,0,0,-1,531,1352,0,0
-686,-328,0,0,0,0,0,0,0,0,0,-1,538,1352,0,0
-679,-328,0,0,0,0,0,0,0,0,0,-1,545,1352,0,0
-672,-328,0,0,0,0,0,0,0,0,0,-1,552,1352,0,0
-665,-328,0,0,0,0,0,0,0,0,0,-1,559,1352,0,0
-658,-328,0,0,0,0,0,0,0,0,0,-1,566,1352,0,0
-651,-328,0,0,0,0,0,0,0,0,0,-1,573,1352,0,0
-644,-328,0,0,0,0,0,0,0,0,0,-1,580,1352,0,0
-637,-328,-12.0695,1.02014,0,0,0,0,0,0,0,-1,587,1352,-12.0694,-1.02017
-630,-328,-13.3971,4.54578,0,0,0,0,0,0,0,-1,594,1352,-13.3971,-4.54572
-623,-328,-10.7739,4.55042,0,0,0,0,0,0,0,-1,601,1352,-10.7739,-4.55041
-616,-328,-8.22198,-0.25708,0,0,0,0,0,0,0,-1,608,1352,-8.22201,0.257067
-609,-328,-7.87439,0.192871,0,0,0,0,0,0,0,-1,615,1352,-7.87441,-0.192822
-602,-328,-7.63062,1.31665,0,0,0,0,0,0,0,-1,622,1352,-7.63064,-1.3166
-595,-328,-9.42639,2.93494,0,0,0,0,0,0,0,-1,629,1352,-9.42638,-2.93499
-588,-328,-15.7453,4.74646,0,0,0,0,0,0,0,-1,636,1352,-15.7453,-4.74651
-581,-328,-15.5601,5.68237,0.00266015,0.001289,0.00125651,0.00340595,0.000543198,0.535663,0.00211297,0.0242775,643,1352,-15.5601,-5.68243
-574,-328,-15.5536,6.2085,0.00175571,0.000758356,0.000587148,0.00202737,0.000486695,0.433348,0.00122209,0.0149431,650,1352,-15.5536,-6.20854
-567,-328,-15.6052,6.70093,0.00147423,0.000452894,0.000357896,0.00158715,0.000339966,0.305646,0.000964954,0.0205129,657,1352,-15.6052,-6.70096
-560,-328,-15.5712,7.25854,0.00162848,0.000231809,0.000326518,0.00170105,0.000159245,0.218682,0.00108485,0.0297243,664,1352,-15.5712,-7.2586
-553,-328,-15.5492,7.70325,0.00227355,0.000116516,0.000675978,0.00246788,-7.78162e-05,0.279934,0.0016718,0.0298691,671,1352,-15.5492,-7.70322
-546,-328,-15.5959,8.16064,0.00329891,4.55169e-05,0.00117068,0.00367636,-0.000331939,0.311901,0.00256871,0.0269802,678,1352,-15.596,-8.16069
-539,-328,-15.6463,8.61169,0.00462901,2.7907e-05,0.0018,0.00524951,-0.000592591,0.331965,0.003713,0.0225844,685,1352,-15.6463,-8.61166
-532,-328,-15.6119,9.11609,0.00642849,8.6528e-05,0.00263276,0.00737899,-0.000863965,0.346463,0.00523115,0.0173603,692,1352,-15.6119,-9.11609
-525,-328,-15.5766,9.67017,0.00867415,8.27258e-05,0.00363967,0.0100087,-0.00125187,0.351457,0.00712653,0.0275455,699,1352,-15.5766,-9.67021
-518,-328,-15.6523,10.2639,0,0,0,0,0,0,0,-1,706,1352,-15.6524,-10.2639
-511,-328,-9.39868,7.16113,0,0,0,0,0,0,0,-1,713,1352,-9.39869,-7.16113
-504,-328,-8.60626,-0.905762,0,0,0,0,0,0,0,-1,720,1352,-8.60623,0.905787
-497,-328,-9.29102,-0.0517578,0,0,0,0,0,0,0,-1,727,1352,-9.29104,0.0518175
-490,-328,-10.0663,0.882813,0,0,0,0,0,0,0,-1,734,1352,-10.0663,-0.882795
-483,-328,-10.8181,1.72375,0,0,0,0,0,0,0,-1,741,1352,-10.8181,-1.72374
-476,-328,-16.8951,-0.150757,0,0,0,0,0,0,0,-1,748,1352,-16.8951,0.150795
-469,-328,-16.8412,0.00158691,0,0,0,0,0,0,0,-1,755,1352,-16.8412,-0.00161515
-462,-328,-16.3546,-0.203491,0,0,0,0,0,0,0,-1,762,1352,-16.3545,0.203532
-455,-328,0,0,0,0,0,0,0,0,0,-1,769,1352,0,0
-448,-328,0,0,0,0,0,0,0,0,0,-1,776,1352,0,0
-441,-328,0,0,0,0,0,0,0,0,0,-1,783,1352,0,0
-434,-328,0,0,0,0,0,0,0,0,0,-1,790,1352,0,0
-427,-328,0,0,0,0,0,0,0,0,0,-1,797,1352,0,0
-420,-328,0,0,0,0,0,0,0,0,0,-1,804,1352,0,0
-413,-328,0,0,0,0,0,0,0,0,0,-1,811,1352,0,0
-406,-328,0,0,0,0,0,0,0,0,0,-1,818,1352,0,0
-399,-328,0,0,0,0,0,0,0,0,0,-1,825,1352,0,0
-392,-328,0,0,0,0,0,0,0,0,0,-1,832,1352,0,0
-385,-328,0,0,0,0,0,0,0,0,0,-1,839,1352,0,0
-378,-328,0,0,0,0,0,0,0,0,0,-1,846,1352,0,0
-371,-328,0,0,0,0,0,0,0,0,0,-1,853,1352,0,0
-364,-328,0,0,0,0,0,0,0,0,0,-1,860,1352,0,0
-357,-328,0,0,0,0,0,0,0,0,0,-1,867,1352,0,0
-350,-328,0,0,0,0,0,0,0,0,0,-1,874,1352,0,0
-343,-328,0,0,0,0,0,0,0,0,0,-1,881,1352,0,0
-336,-328,0,0,0,0,0,0,0,0,0,-1,888,1352,0,0
-329,-328,0,0,0,0,0,0,0,0,0,-1,895,1352,0,0
-322,-328,0,0,0,0,0,0,0,0,0,-1,902,1352,0,0
-315,-328,0,0,0,0,0,0,0,0,0,-1,909,1352,0,0
-308,-328,0,0,0,0,0,0,0,0,0,-1,916,1352,0,0
-301,-328,0,0,0,0,0,0,0,0,0,-1,923,1352,0,0
-294,-328,0,0,0,0,0,0,0,0,0,-1,930,1352,0,0
-287,-328,0,0,0,0,0,0,0,0,0,-1,937,1352,0,0
-280,-328,0,0,0,0,0,0,0,0,0,-1,944,1352,0,0
-273,-328,0,0,0,0,0,0,0,0,0,-1,951,1352,0,0
-266,-328,0,0,0,0,0,0,0,0,0,-1,958,1352,0,0
-259,-328,0,0,0,0,0,0,0,0,0,-1,965,1352,0,0
-252,-328,0,0,0,0,0,0,0,0,0,-1,972,1352,0,0
-245,-328,0,0,0,0,0,0,0,0,0,-1,979,1352,0,0
-238,-328,0,0,0,0,0,0,0,0,0,-1,986,1352,0,0
-231,-328,0,0,0,0,0,0,0,0,0,-1,993,1352,0,0
-224,-328,0,0,0,0,0,0,0,0,0,-1,1000,1352,0,0
-217,-328,0,0,0,0,0,0,0,0,0,-1,1007,1352,0,0
-210,-328,0,0,0,0,0,0,0,0,0,-1,1014,1352,0,0
-203,-328,0,0,0,0,0,0,0,0,0,-1,1021,1352,0,0
-196,-328,0,0,0,0,0,0,0,0,0,-1,1028,1352,0,0
-189,-328,0,0,0,0,0,0,0,0,0,-1,1035,1352,0,0
-182,-328,0,0,0,0,0,0,0,0,0,-1,1042,1352,0,0
-175,-328,0,0,0,0,0,0,0,0,0,-1,1049,1352,0,0
-168,-328,0,0,0,0,0,0,0,0,0,-1,1056,1352,0,0
-161,-328,0,0,0,0,0,0,0,0,0,-1,1063,1352,0,0
-154,-328,0,0,0,0,0,0,0,0,0,-1,1070,1352,0,0
-147,-328,0,0,0,0,0,0,0,0,0,-1,1077,1352,0,0
-140,-328,0,0,0,0,0,0,0,0,0,-1,1084,1352,0,0
-133,-328,0,0,0,0,0,0,0,0,0,-1,1091,1352,0,0
-126,-328,0,0,0,0,0,0,0,0,0,-1,1098,1352,0,0
-119,-328,0,0,0,0,0,0,0,0,0,-1,1105,1352,0,0
-112,-328,0,0,0,0,0,0,0,0,0,-1,1112,1352,0,0
-105,-328,0,0,0,0,0,0,0,0,0,-1,1119,1352,0,0
-98,-328,0,0,0,0,0,0,0,0,0,-1,1126,1352,0,0
-91,-328,0,0,0,0,0,0,0,0,0,-1,1133,1352,0,0
-84,-328,0,0,0,0,0,0,0,0,0,-1,1140,1352,0,0
-77,-328,0,0,0,0,0,0,0,0,0,-1,1147,1352,0,0
-70,-328,0,0,0,0,0,0,0,0,0,-1,1154,1352,0,0
-63,-328,0,0,0,0,0,0,0,0,0,-1,1161,1352,0,0
-56,-328,0,0,0,0,0,0,0,0,0,-1,1168,1352,0,0
-49,-328,0,0,0,0,0,0,0,0,0,-1,1175,1352,0,0
-42,-328,0,0,0,0,0,0,0,0,0,-1,1182,1352,0,0
-35,-328,0,0,0,0,0,0,0,0,0,-1,1189,1352,0,0
-28,-328,0,0,0,0,0,0,0,0,0,-1,1196,1352,0,0
-21,-328,0,0,0,0,0,0,0,0,0,-1,1203,1352,0,0
-14,-328,0,0,0,0,0,0,0,0,0,-1,1210,1352,0,0
-7,-328,0,0,0,0,0,0,0,0,0,-1,1217,1352,0,0
0,-328,0,0,0,0,0,0,0,0,0,-1,1224,1352,0,0
7,-328,0,0,0,0,0,0,0,0,0,-1,1231,1352,0,0
14,-328,0,0,0,0,0,0,0,0,0,-1,1238,1352,0,0
21,-328,0,0,0,0,0,0,0,0,0,-1,1245,1352,0,0
28,-328,0,0,0,0,0,0,0,0,0,-1,1252,1352,0,0
35,-328,0,0,0,0,0,0,0,0,0,-1,1259,1352,0,0
42,-328,0,0,0,0,0,0,0,0,0,-1,1266,1352,0,0
49,-328,0,0,0,0,0,0,0,0,0,-1,1273,1352,0,0
56,-328,0,0,0,0,0,0,0,0,0,-1,1280,1352,0,0
63,-328,0,0,0,0,0,0,0,0,0,-1,1287,1352,0,0
70,-328,0,0,0,0,0,0,0,0,0,-1,1294,1352,0,0
77,-328,0,0,0,0,0,0,0,0,0,-1,1301,1352,0,0
84,-328,0,0,0,0,0,0,0,0,0,-1,1308,1352,0,0
91,-328,0,0,0,0,0,0,0,0,0,-1,1315,1352,0,0
98,-328,0,0,0,0,0,0,0,0,0,-1,1322,1352,0,0
105,-328,0,0,0,0,0,0,0,0,0,-1,1329,1352,0,0
112,-328,0,0,0,0,0,0,0,0,0,-1,1336,1352,0,0
119,-328,0,0,0,0,0,0,0,0,0,-1,1343,1352,0,0
126,-328,0,0,0,0,0,0,0,0,0,-1,1350,1352,0,0
133,-328,0,0,0,0,0,0,0,0,0,-1,1357,1352,0,0
140,-328,0,0,0,0,0,0,0,0,0,-1,1364,1352,0,0
147,-328,0,0,0,0,0,0,0,0,0,-1,1371,1352,0,0
154,-328,0,0,0,0,0,0,0,0,0,-1,1378,1352,0,0
161,-328,0,0,0,0,0,0,0,0,0,-1,1385,1352,0,0
168,-328,0,0,0,0,0,0,0,0,0,-1,1392,1352,0,0
175,-328,0,0,0,0,0,0,0,0,0,-1,1399,1352,0,0
182,-328,0,0,0,0,0,0,0,0,0,-1,1406,1352,0,0
189,-328,0,0,0,0,0,0,0,0,0,-1,1413,1352,0,0
196,-328,0,0,0,0,0,0,0,0,0,-1,1420,1352,0,0
203,-328,0,0,0,0,0,0,0,0,0,-1,1427,1352,0,0
210,-328,0,0,0,0,0,0,0,0,0,-1,1434,1352,0,0
217,-328,0,0,0,0,0,0,0,0,0,-1,1441,1352,0,0
224,-328,0,0,0,0,0,0,0,0,0,-1,1448,1352,0,0
231,-328,0,0,0,0,0,0,0,0,0,-1,1455,1352,0,0
238,-328,0,0,0,0,0,0,0,0,0,-1,1462,1352,0,0
245,-328,0,0,0,0,0,0,0,0,0,-1,1469,1352,0,0
252,-328,0,0,0,0,0,0,0,0,0,-1,1476,1352,0,0
259,-328,0,0,0,0,0,0,0,0,0,-1,1483,1352,0,0
266,-328,0,0,0,0,0,0,0,0,0,-1,1490,1352,0,0
273,-328,0,0,0,0,0,0,0,0,0,-1,1497,1352,0,0
280,-328,0,0,0,0,0,0,0,0,0,-1,1504,1352,0,0
287,-328,0,0,0,0,0,0,0,0,0,-1,1511,1352,0,0
294,-328,0,0,0,0,0,0,0,0,0,-1,1518,1352,0,0
301,-328,0,0,0,0,0,0,0,0,0,-1,1525,1352,0,0
308,-328,0,0,0,0,0,0,0,0,0,-1,1532,1352,0,0
315,-328,0,0,0,0,0,0,0,0,0,-1,1539,1352,0,0
322,-328,0,0,0,0,0,0,0,0,0,-1,1546,1352,0,0
329,-328,0,0,0,0,0,0,0,0,0,-1,1553,1352,0,0
336,-328,0,0,0,0,0,0,0,0,0,-1,1560,1352,0,0
343,-328,0,0,0,0,0,0,0,0,0,-1,1567,1352,0,0
350,-328,0,0,0,0,0,0,0,0,0,-1,1574,1352,0,0
357,-328,0,0,0,0,0,0,0,0,0,-1,1581,1352,0,0
364,-328,0,0,0,0,0,0,0,0,0,-1,1588,1352,0,0
371,-328,0,0,0,0,0,0,0,0,0,-1,1595,1352,0,0
378,-328,0,0,0,0,0,0,0,0,0,-1,1602,1352,0,0
385,-328,0,0,0,0,0,0,0,0,0,-1,1609,1352,0,0
392,-328,0,0,0,0,0,0,0,0,0,-1,1616,1352,0,0
399,-328,0,0,0,0,0,0,0,0,0,-1,1623,1352,0,0
406,-328,0,0,0,0,0,0,0,0,0,-1,1630,1352,0,0
413,-328,0,0,0,0,0,0,0,0,0,-1,1637,1352,0,0
420,-328,0,0,0,0,0,0,0,0,0,-1,1644,1352,0,0
427,-328,0,0,0,0,0,0,0,0,0,-1,1651,1352,0,0
434,-328,0,0,0,0,0,0,0,0,0,-1,1658,1352,0,0
441,-328,0,0,0,0,0,0,0,0,0,-1,1665,1352,0,0
448,-328,0,0,0,0,0,0,0,0,0,-1,1672,1352,0,0
455,-328,0,0,0,0,0,0,0,0,0,-1,1679,1352,0,0
462,-328,0,0,0,0,0,0,0,0,0,-1,1686,1352,0,0
469,-328,0,0,0,0,0,0,0,0,0,-1,1693,1352,0,0
476,-328,0,0,0,0,0,0,0,0,0,-1,1700,1352,0,0
483,-328,0,0,0,0,0,0,0,0,0,-1,1707,1352,0,0
490,-328,0,0,0,0,0,0,0,0,0,-1,1714,1352,0,0
497,-328,0,0,0,0,0,0,0,0,0,-1,1721,1352,0,0
504,-328,0,0,0,0,0,0,0,0,0,-1,1728,1352,0,0
511,-328,0,0,0,0,0,0,0,0,0,-1,1735,1352,0,0
518,-328,0,0,0,0,0,0,0,0,0,-1,1742,1352,0,0
525,-328,0,0,0,0,0,0,0,0,0,-1,1749,1352,0,0
532,-328,0,0,0,0,0,0,0,0,0,-1,1756,1352,0,0
539,-328,0,0,0,0,0,0,0,0,0,-1,1763,1352,0,0
546,-328,0,0,0,0,0,0,0,0,0,-1,1770,1352,0,0
553,-328,0,0,0,0,0,0,0,0,0,-1,1777,1352,0,0
560,-328,0,0,0,0,0,0,0,0,0,-1,1784,1352,0,0
567,-328,0,0,0,0,0,0,0,0,0,-1,1791,1352,0,0
574,-328,45.8866,4.99207,0.0175462,0.0252605,-0.0327638,0.0543934,-0.0115867,-0.843991,0.0406784,0.0439945,1798,1352,45.8866,-4.99202
581,-328,46.2646,4.19592,0.00513426,0.0160446,-0.0304372,0.0415116,-0.0203328,-0.87407,0.0363971,0.04382,1805,1352,46.2646,-4.19592
588,-328,46.3682,3.36157,-0.00861236,0.00665761,-0.0278153,0.0278667,-0.0298215,-0.919344,0.0333127,0.0429387,1812,1352,46.3682,-3.36156
595,-328,46.3262,2.86389,-0.0155635,0.00258128,-0.0260141,0.0210596,-0.0340418,-0.953178,0.0321058,0.0429517,1819,1352,46.3262,-2.86387
602,-328,46.1439,2.60876,0,0,0,0,0,0,0,-1,1826,1352,46.1439,-2.60881
609,-328,37.0468,1.17407,0,0,0,0,0,0,0,-1,1833,1352,37.0468,-1.17407
616,-328,36.999,2.42859,0,0,0,0,0,0,0,-1,1840,1352,36.999,-2.42862
623,-328,34.345,5.14722,0,0,0,0,0,0,0,-1,1847,1352,34.3449,-5.14718
630,-328,22.0211,5.026,0,0,0,0,0,0,0,-1,1854,1352,22.0212,-5.02603
637,-328,21.15,5.53699,0,0,0,0,0,0,0,-1,1861,1352,21.15,-5.53704
644,-328,16.9579,6.3396,0,0,0,0,0,0,0,-1,1868,1352,16.9579,-6.33959
651,-328,29.0857,11.9436,0,0,0,0,0,0,0,-1,1875,1352,29.0856,-11.9436
658,-328,28.8835,11.526,-0.0114151,-0.000364351,-0.00172258,-0.000102063,-0.0116774,-1.41969,0.00775112,0.0396012,1882,1352,28.8835,-11.526
665,-328,28.9064,11.0594,-0.00414984,0.000241686,-0.000857387,0.000403143,-0.0043113,-1.38466,0.00301757,0.0144808,1889,1352,28.9064,-11.0594
672,-328,28.8842,10.6216,0.00026575,0.000399693,-0.000577914,0.000914503,-0.00024906,-0.843084,0.000707457,0.0126602,1896,1352,28.8842,-10.6216
679,-328,28.8752,10.177,0.000786809,-0.000215502,-0.000432845,0.000947856,-0.000376548,-0.356195,0.000788002,0.0146968,1903,1352,28.8752,-10.1771
686,-328,28.8436,9.73669,0.000804351,-0.000228127,-0.000222806,0.00085038,-0.000274156,-0.203722,0.000677067,0.0142016,1910,1352,28.8437,-9.7367
693,-328,28.838,9.29871,0.000728939,-0.00023561,-2.70077e-05,0.000729695,-0.000236366,-0.0279711,0.000581492,0.00983605,1917,1352,28.8381,-9.29865
700,-328,28.8425,8.84729,0.000573727,-0.000233567,0.000189629,0.00061605,-0.000275891,0.219594,0.000527298,0.0135093,1924,1352,28.8426,-8.84723
707,-328,28.8577,8.40613,0.000273677,-0.000220088,0.00042273,0.000516337,-0.000462748,0.521105,0.000565557,0.0153549,1931,1352,28.8577,-8.40609
714,-328,28.8376,7.96619,-0.000181394,-0.000260574,0.000705471,0.000485597,-0.000927565,0.757368,0.000829083,0.0156164,1938,1352,28.8376,-7.96623
721,-328,28.6188,7.54102,-0.000938202,-0.000494265,0.0012496,0.000552923,-0.00198539,0.873298,0.00154132,0.0470746,1945,1352,28.6188,-7.54106
728,-328,28.6813,6.93311,0,0,0,0,0,0,0,-1,1952,1352,28.6813,-6.93311
735,-328,20.8927,5.23523,0,0,0,0,0,0,0,-1,1959,1352,20.8927,-5.23528
742,-328,20.3547,4.11316,0,0,0,0,0,0,0,-1,1966,1352,20.3547,-4.11321
749,-328,20.0669,5.66321,0,0,0,0,0,0,0,-1,1973,1352,20.0669,-5.66319
756,-328,19.9543,5.50464,0,0,0,0,0,0,0,-1,1980,1352,19.9543,-5.50463
763,-328,0,0,0,0,0,0,0,0,0,-1,1987,1352,0,0
770,-328,0,0,0,0,0,0,0,0,0,-1,1994,1352,0,0
777,-328,0,0,0,0,0,0,0,0,0,-1,2001,1352,0,0
784,-328,0,0,0,0,0,0,0,0,0,-1,2008,1352,0,0
791,-328,0,0,0,0,0,0,0,0,0,-1,2015,1352,0,0
798,-328,0,0,0,0,0,0,0,0,0,-1,2022,1352,0,0
805,-328,0,0,0,0,0,0,0,0,0,-1,2029,1352,0,0
812,-328,0,0,0,0,0,0,0,0,0,-1,2036,1352,0,0
-700,-335,0,0,0,0,0,0,0,0,0,-1,524,1359,0,0
-693,-335,0,0,0,0,0,0,0,0,0,-1,531,1359,0,0
-686,-335,0,0,0,0,0,0,0,0,0,-1,538,1359,0,0
-679,-335,0,0,0,0,0,0,0,0,0,-1,545,1359,0,0
-672,-335,0,0,0,0,0,0,0,0,0,-1,552,1359,0,0
-665,-335,0,0,0,0,0,0,0,0,0,-1,559,1359,0,0
-658,-335,0,0,0,0,0,0,0,0,0,-1,566,1359,0,0
-651,-335,0,0,0,0,0,0,0,0,0,-1,573,1359,0,0
-644,-335,0,0,0,0,0,0,0,0,0,-1,580,1359,0,0
-637,-335,-9.64746,3.53809,0,0,0,0,0,0,0,-1,587,1359,-9.64744,-3.53803
-630,-335,-6.07397,-2.99902,0,0,0,0,0,0,0,-1,594,1359,-6.07397,2.99902
-623,-335,-8.43304,1.09509,0,0,0,0,0,0,0,-1,601,1359,-8.43301,-1.09507
-616,-335,-7.80927,-0.485352,0,0,0,0,0,0,0,-1,608,1359,-7.80926,0.485291
-609,-335,-7.12256,-2.03601,0,0,0,0,0,0,0,-1,615,1359,-7.12253,2.03601
-602,-335,-9.39935,2.25146,0,0,0,0,0,0,0,-1,622,1359,-9.39935,-2.25145
-595,-335,-9.54767,3.01917,0,0,0,0,0,0,0,-1,629,1359,-9.54768,-3.01911
-588,-335,-15.2393,4.96777,0,0,0,0,0,0,0,-1,636,1359,-15.2392,-4.96779
-581,-335,-15.0687,5.75659,0.000355202,0.000138078,-0.000853983,0.0011075,-0.000614216,-0.722175,0.00100754,0.0395459,643,1359,-15.0686,-5.75663
-574,-335,-15.0695,6.19495,0.000146544,-7.28215e-06,-0.000755224,0.000828761,-0.000689499,-0.734652,0.000877796,0.0138667,650,1359,-15.0695,-6.195
-567,-335,-15.0667,6.72852,0.000329665,-1.27552e-06,-0.000485244,0.000676877,-0.000348487,-0.621079,0.000602029,0.0174847,657,1359,-15.0667,-6.7285
-560,-335,-15.0426,7.19849,0.00088716,3.33373e-06,-9.26487e-05,0.000896767,-6.27388e-06,-0.10333,0.000599947,0.0274161,664,1359,-15.0426,-7.19851
-553,-335,-15.0966,7.70667,0.00175715,5.32676e-05,0.000433968,0.00186131,-5.08937e-05,0.235565,0.00125818,0.029795,671,1359,-15.0966,-7.7067
-546,-335,-15.1345,8.19751,0.00289758,0.000102426,0.00103947,0.00324176,-0.000241752,0.319749,0.0022461,0.0253222,678,1359,-15.1345,-8.19746
-539,-335,-15.1465,8.63318,0.00426636,0.000183423,0.00174038,0.00490752,-0.000457744,0.352977,0.00343445,0.0211307,685,1359,-15.1465,-8.63319
-532,-335,-15.1544,9.16235,0.00599492,0.000308203,0.00260335,0.0070067,-0.000703581,0.370681,0.00492245,0.0156992,692,1359,-15.1544,-9.16236
-525,-335,-15.1102,9.67871,0.00810811,0.000420227,0.00363349,0.00955361,-0.00102527,0.378631,0.00673688,0.0114376,699,1359,-15.1102,-9.67866
-518,-335,-15.0407,10.1051,0.0104895,0.00030336,0.0045887,0.0122518,-0.0014589,0.366675,0.00869505,0.0422389,706,1359,-15.0407,-10.1052
-511,-335,-14.9224,10.4998,0,0,0,0,0,0,0,-1,713,1359,-14.9223,-10.4997
-504,-335,-9.35767,5.99695,0,0,0,0,0,0,0,-1,720,1359,-9.35767,-5.99694
-497,-335,-8.75024,-0.650513,0,0,0,0,0,0,0,-1,727,1359,-8.75024,0.650521
-490,-335,-9.51971,0.417603,0,0,0,0,0,0,0,-1,734,1359,-9.51974,-0.41765
-483,-335,-10.2883,1.29224,0,0,0,0,0,0,0,-1,741,1359,-10.2883,-1.2922
-476,-335,-11.9938,-0.173462,0,0,0,0,0,0,0,-1,748,1359,-11.9938,0.173429
-469,-335,-12.8704,-0.204102,0,0,0,0,0,0,0,-1,755,1359,-12.8704,0.204117
-462,-335,-13.486,0.0218506,0,0,0,0,0,0,0,-1,762,1359,-13.4859,-0.0217908
-455,-335,-14.1504,0.549561,0,0,0,0,0,0,0,-1,769,1359,-14.1504,-0.549583
-448,-335,0,0,0,0,0,0,0,0,0,-1,776,1359,0,0
-441,-335,0,0,0,0,0,0,0,0,0,-1,783,1359,0,0
-434,-335,0,0,0,0,0,0,0,0,0,-1,790,1359,0,0
-427,-335,0,0,0,0,0,0,0,0,0,-1,797,1359,0,0
-420,-335,0,0,0,0,0,0,0,0,0,-1,804,1359,0,0
-413,-335,0,0,0,0,0,0,0,0,0,-1,811,1359,0,0
-406,-335,0,0,0,0,0,0,0,0,0,-1,818,1359,0,0
-399,-335,0,0,0,0,0,0,0,0,0,-1,825,1359,0,0
-392,-335,0,0,0,0,0,0,0,0,0,-1,832,1359,0,0
-385,-335,0,0,0,0,0,0,0,0,0,-1,839,1359,0,0
-378,-335,0,0,0,0,0,0,0,0,0,-1,846,1359,0,0
-371,-335,0,0,0,0,0,0,0,0,0,-1,853,1359,0,0
-364,-335,0,0,0,0,0,0,0,0,0,-1,860,1359,0,0
-357,-335,0,0,0,0,0,0,0,0,0,-1,867,1359,0,0
-350,-335,0,0,0,0,0,0,0,0,0,-1,874,1359,0,0
-343,-335,0,0,0,0,0,0,0,0,0,-1,881,1359,0,0
-336,-335,0,0,0,0,0,0,0,0,0,-1,888,1359,0,0
-329,-335,0,0,0,0,0,0,0,0,0,-1,895,1359,0,0
-322,-335,0,0,0,0,0,0,0,0,0,-1,902,1359,0,0
-315,-335,0,0,0,0,0,0,0,0,0,-1,909,1359,0,0
-308,-335,0,0,0,0,0,0,0,0,0,-1,916,1359,0,0
-301,-335,0,0,0,0,0,0,0,0,0,-1,923,1359,0,0
-294,-335,0,0,0,0,0,0,0,0,0,-1,930,1359,0,0
-287,-335,0,0,0,0,0,0,0,0,0,-1,937,1359,0,0
-280,-335,0,0,0,0,0,0,0,0,0,-1,944,1359,0,0
-273,-335,0,0,0,0,0,0,0,0,0,-1,951,1359,0,0
-266,-335,0,0,0,0,0,0,0,0,0,-1,958,1359,0,0
-259,-335,0,0,0,0,0,0,0,0,0,-1,965,1359,0,0
-252,-335,0,0,0,0,0,0,0,0,0,-1,972,1359,0,0
-245,-335,0,0,0,0,0,0,0,0,0,-1,979,1359,0,0
-238,-335,0,0,0,0,0,0,0,0,0,-1,986,1359,0,0
-231,-335,0,0,0,0,0,0,0,0,0,-1,993,1359,0,0
-224,-335,0,0,0,0,0,0,0,0,0,-1,1000,1359,0,0
-217,-335,0,0,0,0,0,0,0,0,0,-1,1007,1359,0,0
-210,-335,0,0,0,0,0,0,0,0,0,-1,1014,1359,0,0
-203,-335,0,0,0,0,0,0,0,0,0,-1,1021,1359,0,0
-196,-335,0,0,0,0,0,0,0,0,0,-1,1028,1359,0,0
-189,-335,0,0,0,0,0,0,0,0,0,-1,1035,1359,0,0
-182,-335,0,0,0,0,0,0,0,0,0,-1,1042,1359,0,0
-175,-335,0,0,0,0,0,0,0,0,0,-1,1049,1359,0,0
-168,-335,0,0,0,0,0,0,0,0,0,-1,1056,1359,0,0
-161,-335,0,0,0,0,0,0,0,0,0,-1,1063,1359,0,0
-154,-335,0,0,0,0,0,0,0,0,0,-1,1070,1359,0,0
-147,-335,0,0,0,0,0,0,0,0,0,-1,1077,1359,0,0
-140,-335,0,0,0,0,0,0,0,0,0,-1,1084,1359,0,0
-133,-335,0,0,0,0,0,0,0,0,0,-1,1091,1359,0,0
-126,-335,0,0,0,0,0,0,0,0,0,-1,1098,1359,0,0
-119,-335,0,0,0,0,0,0,0,0,0,-1,1105,1359,0,0
-112,-335,0,0,0,0,0,0,0,0,0,-1,1112,1359,0,0
-105,-335,0,0,0,0,0,0,0,0,0,-1,1119,1359,0,0
-98,-335,0,0,0,0,0,0,0,0,0,-1,1126,1359,0,0
-91,-335,0,0,0,0,0,0,0,0,0,-1,1133,1359,0,0
-84,-335,0,0,0,0,0,0,0,0,0,-1,1140,1359,0,0
-77,-335,0,0,0,0,0,0,0,0,0,-1,1147,1359,0,0
-70,-335,0,0,0,0,0,0,0,0,0,-1,1154,1359,0,0
-63,-335,0,0,0,0,0,0,0,0,0,-1,1161,1359,0,0
-56,-335,0,0,0,0,0,0,0,0,0,-1,1168,1359,0,0
-49,-335,0,0,0,0,0,0,0,0,0,-1,1175,1359,0,0
-42,-335,0,0,0,0,0,0,0,0,0,-1,1182,1359,0,0
-35,-335,0,0,0,0,0,0,0,0,0,-1,1189,1359,0,0
-28,-335,0,0,0,0,0,0,0,0,0,-1,1196,1359,0,0
-21,-335,0,0,0,0,0,0,0,0,0,-1,1203,1359,0,0
-14,-335,0,0,0,0,0,0,0,0,0,-1,1210,1359,0,0
-7,-335,0,0,0,0,0,0,0,0,0,-1,1217,1359,0,0
0,-335,0,0,0,0,0,0,0,0,0,-1,1224,1359,0,0
7,-335,0,0,0,0,0,0,0,0,0,-1,1231,1359,0,0
14,-335,0,0,0,0,0,0,0,0,0,-1,1238,1359,0,0
21,-335,0,0,0,0,0,0,0,0,0,-1,1245,1359,0,0
28,-335,0,0,0,0,0,0,0,0,0,-1,1252,1359,0,0
35,-335,0,0,0,0,0,0,0,0,0,-1,1259,1359,0,0
42,-335,0,0,0,0,0,0,0,0,0,-1,1266,1359,0,0
49,-335,0,0,0,0,0,0,0,0,0,-1,1273,1359,0,0
56,-335,0,0,0,0,0,0,0,0,0,-1,1280,1359,0,0
63,-335,0,0,0,0,0,0,0,0,0,-1,1287,1359,0,0
70,-335,0,0,0,0,0,0,0,0,0,-1,1294,1359,0,0
77,-335,0,0,0,0,0,0,0,0,0,-1,1301,1359,0,0
84,-335,0,0,0,0,0,0,0,0,0,-1,1308,1359,0,0
91,-335,0,0,0,0,0,0,0,0,0,-1,1315,1359,0,0
98,-335,0,0,0,0,0,0,0,0,0,-1,1322,1359,0,0
105,-335,0,0,0,0,0,0,0,0,0,-1,1329,1359,0,0
112,-335,0,0,0,0,0,0,0,0,0,-1,1336,1359,0,0
119,-335,0,0,0,0,0,0,0,0,0,-1,1343,1359,0,0
126,-335,0,0,0,0,0,0,0,0,0,-1,1350,1359,0,0
133,-335,0,0,0,0,0,0,0,0,0,-1,1357,1359,0,0
140,-335,0,0,0,0,0,0,0,0,0,-1,1364,1359,0,0
147,-335,0,0,0,0,0,0,0,0,0,-1,1371,1359,0,0
154,-335,0,0,0,0,0,0,0,0,0,-1,1378,1359,0,0
161,-335,0,0,0,0,0,0,0,0,0,-1,1385,1359,0,0
168,-335,0,0,0,0,0,0,0,0,0,-1,1392,1359,0,0
175,-335,0,0,0,0,0,0,0,0,0,-1,1399,1359,0,0
182,-335,0,0,0,0,0,0,0,0,0,-1,1406,1359,0,0
189,-335,0,0,0,0,0,0,0,0,0,-1,1413,1359,0,0
196,-335,0,0,0,0,0,0,0,0,0,-1,1420,1359,0,0
203,-335,0,0,0,0,0,0,0,0,0,-1,1427,1359,0,0
210,-335,0,0,0,0,0,0,0,0,0,-1,1434,1359,0,0
217,-335,0,0,0,0,0,0,0,0,0,-1,1441,1359,0,0
224,-335,0,0,0,0,0,0,0,0,0,-1,1448,1359,0,0
231,-335,0,0,0,0,0,0,0,0,0,-1,1455,1359,0,0
238,-335,0,0,0,0,0,0,0,0,0,-1,1462,1359,0,0
245,-335,0,0,0,0,0,0,0,0,0,-1,1469,1359,0,0
252,-335,0,0,0,0,0,0,0,0,0,-1,1476,1359,0,0
259,-335,0,0,0,0,0,0,0,0,0,-1,1483,1359,0,0
266,-335,0,0,0,0,0,0,0,0,0,-1,1490,1359,0,0
273,-335,0,0,0,0,0,0,0,0,0,-1,1497,1359,0,0
280,-335,0,0,0,0,0,0,0,0,0,-1,1504,1359,0,0
287,-335,0,0,0,0,0,0,0,0,0,-1,1511,1359,0,0
294,-335,0,0,0,0,0,0,0,0,0,-1,1518,1359,0,0
301,-335,0,0,0,0,0,0,0,0,0,-1,1525,1359,0,0
308,-335,0,0,0,0,0,0,0,0,0,-1,1532,1359,0,0
315,-335,0,0,0,0,0,0,0,0,0,-1,1539,1359,0,0
322,-335,0,0,0,0,0,0,0,0,0,-1,1546,1359,0,0
329,-335,0,0,0,0,0,0,0,0,0,-1,1553,1359,0,0
336,-335,0,0,0,0,0,0,0,0,0,-1,1560,1359,0,0
343,-335,0,0,0,0,0,0,0,0,0,-1,1567,1359,0,0
350,-335,0,0,0,0,0,0,0,0,0,-1,1574,1359,0,0
357,-335,0,0,0,0,0,0,0,0,0,-1,1581,1359,0,0
364,-335,0,0,0,0,0,0,0,0,0,-1,1588,1359,0,0
371,-335,0,0,0,0,0,0,0,0,0,-1,1595,1359,0,0
378,-335,0,0,0,0,0,0,0,0,0,-1,1602,1359,0,0
385,-335,0,0,0,0,0,0,0,0,0,-1,1609,1359,0,0
392,-335,0,0,0,0,0,0,0,0,0,-1,1616,1359,0,0
399,-335,0,0,0,0,0,0,0,0,0,-1,1623,1359,0,0
406,-335,0,0,0,0,0,0,0,0,0,-1,1630,1359,0,0
413,-335,0,0,0,0,0,0,0,0,0,-1,1637,1359,0,0
420,-335,0,0,0,0,0,0,0,0,0,-1,1644,1359,0,0
427,-335,0,0,0,0,0,0,0,0,0,-1,1651,1359,0,0
434,-335,0,0,0,0,0,0,0,0,0,-1,1658,1359,0,0
441,-335,0,0,0,0,0,0,0,0,0,-1,1665,1359,0,0
448,-335,0,0,0,0,0,0,0,0,0,-1,1672,1359,0,0
455,-335,0,0,0,0,0,0,0,0,0,-1,1679,1359,0,0
462,-335,0,0,0,0,0,0,0,0,0,-1,1686,1359,0,0
469,-335,0,0,0,0,0,0,0,0,0,-1,1693,1359,0,0
476,-335,0,0,0,0,0,0,0,0,0,-1,1700,1359,0,0
483,-335,0,0,0,0,0,0,0,0,0,-1,1707,1359,0,0
490,-335,0,0,0,0,0,0,0,0,0,-1,1714,1359,0,0
497,-335,0,0,0,0,0,0,0,0,0,-1,1721,1359,0,0
504,-335,0,0,0,0,0,0,0,0,0,-1,1728,1359,0,0
511,-335,0,0,0,0,0,0,0,0,0,-1,1735,1359,0,0
518,-335,0,0,0,0,0,0,0,0,0,-1,1742,1359,0,0
525,-335,0,0,0,0,0,0,0,0,0,-1,1749,1359,0,0
532,-335,0,0,0,0,0,0,0,0,0,-1,1756,1359,0,0
539,-335,0,0,0,0,0,0,0,0,0,-1,1763,1359,0,0
546,-335,0,0,0,0,0,0,0,0,0,-1,1770,1359,0,0
553,-335,0,0,0,0,0,0,0,0,0,-1,1777,1359,0,0
560,-335,0,0,0,0,0,0,0,0,0,-1,1784,1359,0,0
567,-335,0,0,0,0,0,0,0,0,0,-1,1791,1359,0,0
574,-335,45.6141,4.57593,0.0138633,0.0208647,-0.0288001,0.046376,-0.0116481,-0.845878,0.0354439,0.0422046,1798,1359,45.6142,-4.57591
581,-335,46.0271,4.09546,0.00205742,0.0120098,-0.0257215,0.033232,-0.0191648,-0.88095,0.0306126,0.0436295,1805,1359,46.0271,-4.0955
588,-335,46.7834,3.13647,-0.00628445,0.00607063,-0.024164,0.0248343,-0.0250481,-0.910543,0.0287997,0.0433063,1812,1359,46.7835,-3.1365
595,-335,46.8069,2.72961,0,0,0,0,0,0,0,-1,1819,1359,46.8068,-2.72965
602,-335,36.5643,0.0861816,0,0,0,0,0,0,0,-1,1826,1359,36.5643,-0.0862283
609,-335,36.2933,0.993896,0,0,0,0,0,0,0,-1,1833,1359,36.2934,-0.993911
616,-335,34.6969,4.82666,0,0,0,0,0,0,0,-1,1840,1359,34.6969,-4.82667
623,-335,26.6051,6.54333,0,0,0,0,0,0,0,-1,1847,1359,26.6051,-6.54339
630,-335,19.1707,1.00952,0,0,0,0,0,0,0,-1,1854,1359,19.1707,-1.00953
637,-335,18.2009,6.65454,0,0,0,0,0,0,0,-1,1861,1359,18.2009,-6.6546
644,-335,28.1042,12.067,0,0,0,0,0,0,0,-1,1868,1359,28.1042,-12.067
651,-335,28.2736,12.0457,0,0,0,0,0,0,0,-1,1875,1359,28.2736,-12.0456
658,-335,28.4213,11.5909,-0.00862897,-0.000948929,-0.00185014,-0.000526464,-0.00905144,-1.3463,0.00586668,0.0254192,1882,1359,28.4213,-11.5909
665,-335,28.4623,11.0768,-0.00249332,-0.000119767,-0.00106355,0.000287063,-0.00290015,-1.20545,0.00203588,0.0149107,1889,1359,28.4623,-11.0768
672,-335,28.4631,10.605,0.000565712,0.000191392,-0.000647536,0.00105259,-0.000295489,-0.644715,0.000818209,0.0178291,1896,1359,28.4631,-10.605
679,-335,28.4554,10.1871,0.000849806,-0.00014961,-0.000392027,0.00098523,-0.000285034,-0.332613,0.000769631,0.0150126,1903,1359,28.4554,-10.1871
686,-335,28.4504,9.74402,0.000951211,-0.00021921,-0.000187859,0.000980625,-0.000248623,-0.15531,0.00075048,0.0125245,1910,1359,28.4504,-9.744
693,-335,28.4081,9.29346,0.000988102,-0.000272056,-4.52034e-06,0.000988119,-0.000272073,-0.00358706,0.000765722,0.0105666,1917,1359,28.4081,-9.29342
700,-335,28.3835,8.86719,0.000949222,-0.000299096,0.000185133,0.000976099,-0.000325973,0.144173,0.000782364,0.0110995,1924,1359,28.3836,-8.86716
707,-335,28.3851,8.43738,0.000742392,-0.000282734,0.000373235,0.000863883,-0.000404226,0.314692,0.000748004,0.0146869,1931,1359,28.3851,-8.43737
714,-335,28.4061,7.92749,0.000402426,-0.000330152,0.000629202,0.000764192,-0.000691917,0.521803,0.00084103,0.0325064,1938,1359,28.4061,-7.9275
721,-335,28.3534,7.34802,0,0,0,0,0,0,0,-1,1945,1359,28.3534,-7.34807
728,-335,20.8126,5.21167,0,0,0,0,0,0,0,-1,1952,1359,20.8127,-5.21172
735,-335,20.2725,5.34729,0,0,0,0,0,0,0,-1,1959,1359,20.2724,-5.34734
742,-335,19.8624,4.72229,0,0,0,0,0,0,0,-1,1966,1359,19.8624,-4.72225
749,-335,20.5887,6.05322,0,0,0,0,0,0,0,-1,1973,1359,20.5887,-6.05322
756,-335,20.7832,6.00452,0,0,0,0,0,0,0,-1,1980,1359,20.7832,-6.00447
763,-335,0,0,0,0,0,0,0,0,0,-1,1987,1359,0,0
770,-335,0,0,0,0,0,0,0,0,0,-1,1994,1359,0,0
777,-335,0,0,0,0,0,0,0,0,0,-1,2001,1359,0,0
784,-335,0,0,0,0,0,0,0,0,0,-1,2008,1359,0,0
791,-335,0,0,0,0,0,0,0,0,0,-1,2015,1359,0,0
798,-335,0,0,0,0,0,0,0,0,0,-1,2022,1359,0,0
805,-335,0,0,0,0,0,0,0,0,0,-1,2029,1359,0,0
812,-335,0,0,0,0,0,0,0,0,0,-1,2036,1359,0,0
-700,-342,0,0,0,0,0,0,0,0,0,-1,524,1366,0,0
-693,-342,0,0,0,0,0,0,0,0,0,-1,531,1366,0,0
-686,-342,0,0,0,0,0,0,0,0,0,-1,538,1366,0,0
-679,-342,0,0,0,0,0,0,0,0,0,-1,545,1366,0,0
-672,-342,0,0,0,0,0,0,0,0,0,-1,552,1366,0,0
-665,-342,0,0,0,0,0,0,0,0,0,-1,559,1366,0,0
-658,-342,0,0,0,0,0,0,0,0,0,-1,566,1366,0,0
-651,-342,0,0,0,0,0,0,0,0,0,-1,573,1366,0,0
-644,-342,0,0,0,0,0,0,0,0,0,-1,580,1366,0,0
-637,-342,-8.67786,-4.58557,0,0,0,0,0,0,0,-1,587,1366,-8.67788,4.5856
-630,-342,-8.60132,2.71777,0,0,0,0,0,0,0,-1,594,1366,-8.60135,-2.71779
-623,-342,-8.41168,0.662476,0,0,0,0,0,0,0,-1,601,1366,-8.41168,-0.662442
-616,-342,-6.625,-1.28015,0,0,0,0,0,0,0,-1,608,1366,-6.62499,1.28011
-609,-342,-7.83154,0.674561,0,0,0,0,0,0,0,-1,615,1366,-7.83155,-0.674598
-602,-342,-9.65765,2.25195,0,0,0,0,0,0,0,-1,622,1366,-9.65767,-2.25192
-595,-342,-9.47687,3.00671,0,0,0,0,0,0,0,-1,629,1366,-9.47686,-3.00668
-588,-342,-9.78467,3.57727,0,0,0,0,0,0,0,-1,636,1366,-9.78468,-3.57723
-581,-342,-14.7249,5.77832,0,0,0,0,0,0,0,-1,643,1366,-14.7249,-5.77828
-574,-342,-14.6206,6.24597,-0.000967177,-0.000789437,-0.00166922,0.000793275,-0.00254989,-0.811993,0.00201704,0.015117,650,1366,-14.6206,-6.246
-567,-342,-14.5179,6.72375,-0.000603475,-0.000503972,-0.00116025,0.000607592,-0.00171504,-0.806825,0.00139085,0.0178517,657,1366,-14.5179,-6.72371
-560,-342,-14.5667,7.14575,0.000107647,-0.000326966,-0.000606862,0.000534936,-0.000754256,-0.61347,0.000747897,0.0276967,664,1366,-14.5667,-7.14577
-553,-342,-14.6696,7.63354,0.00112396,-0.000120252,6.49786e-05,0.00112735,-0.000123636,0.0520359,0.000795984,0.0301967,671,1366,-14.6695,-7.63352
-546,-342,-14.7062,8.15784,0.00237146,7.39554e-05,0.00079284,0.0026185,-0.000173081,0.302051,0.00180613,0.028198,678,1366,-14.7062,-8.15789
-539,-342,-14.656,8.65051,0.00379176,0.00027919,0.00158337,0.00440013,-0.000329179,0.366834,0.00304907,0.0240626,685,1366,-14.656,-8.65048
-532,-342,-14.6367,9.20361,0.00546631,0.000500257,0.00248701,0.00649763,-0.000531063,0.3931,0.00451919,0.0182021,692,1366,-14.6367,-9.20365
-525,-342,-14.6122,9.71265,0.0074465,0.00074928,0.00353764,0.00896903,-0.000773258,0.406421,0.00625307,0.0121012,699,1366,-14.6122,-9.71269
-518,-342,-14.5789,10.2142,0.00961925,0.000845216,0.00454341,0.011548,-0.0010835,0.401454,0.00808405,0.0274642,706,1366,-14.5788,-10.2142
-511,-342,-14.5771,10.6949,0,0,0,0,0,0,0,-1,713,1366,-14.5771,-10.6949
-504,-342,-8.95709,6.5719,0,0,0,0,0,0,0,-1,720,1366,-8.95707,-6.57192
-497,-342,-8.26587,-0.943604,0,0,0,0,0,0,0,-1,727,1366,-8.26586,0.943543
-490,-342,-9.07153,-0.0227051,0,0,0,0,0,0,0,-1,734,1366,-9.07155,0.0227087
-483,-342,-9.87726,0.898071,0,0,0,0,0,0,0,-1,741,1366,-9.87724,-0.898125
-476,-342,-11.6371,-0.736328,0,0,0,0,0,0,0,-1,748,1366,-11.6371,0.736281
-469,-342,-12.6245,-0.987549,0,0,0,0,0,0,0,-1,755,1366,-12.6245,0.987553
-462,-342,-13.0912,-0.533203,0,0,0,0,0,0,0,-1,762,1366,-13.0912,0.533224
-455,-342,-13.7612,0.122925,0,0,0,0,0,0,0,-1,769,1366,-13.7612,-0.122896
-448,-342,-14.5278,0.826904,0,0,0,0,0,0,0,-1,776,1366,-14.5277,-0.826861
-441,-342,0,0,0,0,0,0,0,0,0,-1,783,1366,0,0
-434,-342,0,0,0,0,0,0,0,0,0,-1,790,1366,0,0
-427,-342,0,0,0,0,0,0,0,0,0,-1,797,1366,0,0
-420,-342,0,0,0,0,0,0,0,0,0,-1,804,1366,0,0
-413,-342,0,0,0,0,0,0,0,0,0,-1,811,1366,0,0
-406,-342,0,0,0,0,0,0,0,0,0,-1,818,1366,0,0
-399,-342,0,0,0,0,0,0,0,0,0,-1,825,1366,0,0
-392,-342,0,0,0,0,0,0,0,0,0,-1,832,1366,0,0
-385,-342,0,0,0,0,0,0,0,0,0,-1,839,1366,0,0
-378,-342,0,0,0,0,0,0,0,0,0,-1,846,1366,0,0
-371,-342,0,0,0,0,0,0,0,0,0,-1,853,1366,0,0
-364,-342,0,0,0,0,0,0,0,0,0,-1,860,1366,0,0
-357,-342,0,0,0,0,0,0,0,0,0,-1,867,1366,0,0
-350,-342,0,0,0,0,0,0,0,0,0,-1,874,1366,0,0
-343,-342,0,0,0,0,0,0,0,0,0,-1,881,1366,0,0
-336,-342,0,0,0,0,0,0,0,0,0,-1,888,1366,0,0
-329,-342,0,0,0,0,0,0,0,0,0,-1,895,1366,0,0
-322,-342,0,0,0,0,0,0,0,0,0,-1,902,1366,0,0
-315,-342,0,0,0,0,0,0,0,0,0,-1,909,1366,0,0
-308,-342,0,0,0,0,0,0,0,0,0,-1,916,1366,0,0
-301,-342,0,0,0,0,0,0,0,0,0,-1,923,1366,0,0
-294,-342,0,0,0,0,0,0,0,0,0,-1,930,1366,0,0
-287,-342,0,0,0,0,0,0,0,0,0,-1,937,1366,0,0
-280,-342,0,0,0,0,0,0,0,0,0,-1,944,1366,0,0
-273,-342,0,0,0,0,0,0,0,0,0,-1,951,1366,0,0
-266,-342,0,0,0,0,0,0,0,0,0,-1,958,1366,0,0
-259,-342,0,0,0,0,0,0,0,0,0,-1,965,1366,0,0
-252,-342,0,0,0,0,0,0,0,0,0,-1,972,1366,0,0
-245,-342,0,0,0,0,0,0,0,0,0,-1,979,1366,0,0
-238,-342,0,0,0,0,0,0,0,0,0,-1,986,1366,0,0
-231,-342,0,0,0,0,0,0,0,0,0,-1,993,1366,0,0
-224,-342,0,0,0,0,0,0,0,0,0,-1,1000,1366,0,0
-217,-342,0,0,0,0,0,0,0,0,0,-1,1007,1366,0,0
-210,-342,0,0,0,0,0,0,0,0,0,-1,1014,1366,0,0
-203,-342,0,0,0,0,0,0,0,0,0,-1,1021,1366,0,0
-196,-342,0,0,0,0,0,0,0,0,0,-1,1028,1366,0,0
-189,-342,0,0,0,0,0,0,0,0,0,-1,1035,1366,0,0
-182,-342,0,0,0,0,0,0,0,0,0,-1,1042,1366,0,0
-175,-342,0,0,0,0,0,0,0,0,0,-1,1049,1366,0,0
-168,-342,0,0,0,0,0,0,0,0,0,-1,1056,1366,0,0
-161,-342,0,0,0,0,0,0,0,0,0,-1,1063,1366,0,0
-154,-342,0,0,0,0,0,0,0,0,0,-1,1070,1366,0,0
-147,-342,0,0,0,0,0,0,0,0,0,-1,1077,1366,0,0
-140,-342,0,0,0,0,0,0,0,0,0,-1,1084,1366,0,0
-133,-342,0,0,0,0,0,0,0,0,0,-1,1091,1366,0,0
-126,-342,0,0,0,0,0,0,0,0,0,-1,1098,1366,0,0
-119,-342,0,0,0,0,0,0,0,0,0,-1,1105,1366,0,0
-112,-342,0,0,0,0,0,0,0,0,0,-1,1112,1366,0,0
-105,-342,0,0,0,0,0,0,0,0,0,-1,1119,1366,0,0
-98,-342,0,0,0,0,0,0,0,0,0,-1,1126,1366,0,0
-91,-342,0,0,0,0,0,0,0,0,0,-1,1133,1366,0,0
-84,-342,0,0,0,0,0,0,0,0,0,-1,1140,1366,0,0
-77,-342,0,0,0,0,0,0,0,0,0,-1,1147,1366,0,0
-70,-342,0,0,0,0,0,0,0,0,0,-1,1154,1366,0,0
-63,-342,0,0,0,0,0,0,0,0,0,-1,1161,1366,0,0
-56,-342,0,0,0,0,0,0,0,0,0,-1,1168,1366,0,0
-49,-342,0,0,0,0,0,0,0,0,0,-1,1175,1366,0,0
-42,-342,0,0,0,0,0,0,0,0,0,-1,1182,1366,0,0
-35,-342,0,0,0,0,0,0,0,0,0,-1,1189,1366,0,0
-28,-342,0,0,0,0,0,0,0,0,0,-1,1196,1366,0,0
-21,-342,0,0,0,0,0,0,0,0,0,-1,1203,1366,0,0
-14,-342,0,0,0,0,0,0,0,0,0,-1,1210,1366,0,0
-7,-342,0,0,0,0,0,0,0,0,0,-1,1217,1366,0,0
0,-342,0,0,0,0,0,0,0,0,0,-1,1224,1366,0,0
7,-342,0,0,0,0,0,0,0,0,0,-1,1231,1366,0,0
14,-342,0,0,0,0,0,0,0,0,0,-1,1238,1366,0,0
21,-342,0,0,0,0,0,0,0,0,0,-1,1245,1366,0,0
28,-342,0,0,0,0,0,0,0,0,0,-1,1252,1366,0,0
35,-342,0,0,0,0,0,0,0,0,0,-1,1259,1366,0,0
42,-342,0,0,0,0,0,0,0,0,0,-1,1266,1366,0,0
49,-342,0,0,0,0,0,0,0,0,0,-1,1273,1366,0,0
56,-342,0,0,0,0,0,0,0,0,0,-1,1280,1366,0,0
63,-342,0,0,0,0,0,0,0,0,0,-1,1287,1366,0,0
70,-342,0,0,0,0,0,0,0,0,0,-1,1294,1366,0,0
77,-342,0,0,0,0,0,0,0,0,0,-1,1301,1366,0,0
84,-342,0,0,0,0,0,0,0,0,0,-1,1308,1366,0,0
91,-342,0,0,0,0,0,0,0,0,0,-1,1315,1366,0,0
98,-342,0,0,0,0,0,0,0,0,0,-1,1322,1366,0,0
105,-342,0,0,0,0,0,0,0,0,0,-1,1329,1366,0,0
112,-342,0,0,0,0,0,0,0,0,0,-1,1336,1366,0,0
119,-342,0,0,0,0,0,0,0,0,0,-1,1343,1366,0,0
126,-342,0,0,0,0,0,0,0,0,0,-1,1350,1366,0,0
133,-342,0,0,0,0,0,0,0,0,0,-1,1357,1366,0,0
140,-342,0,0,0,0,0,0,0,0,0,-1,1364,1366,0,0
147,-342,0,0,0,0,0,0,0,0,0,-1,1371,1366,0,0
154,-342,0,0,0,0,0,0,0,0,0,-1,1378,1366,0,0
161,-342,0,0,0,0,0,0,0,0,0,-1,1385,1366,0,0
168,-342,0,0,0,0,0,0,0,0,0,-1,1392,1366,0,0
175,-342,0,0,0,0,0,0,0,0,0,-1,1399,1366,0,0
182,-342,0,0,0,0,0,0,0,0,0,-1,1406,1366,0,0
189,-342,0,0,0,0,0,0,0,0,0,-1,1413,1366,0,0
196,-342,0,0,0,0,0,0,0,0,0,-1,1420,1366,0,0
203,-342,0,0,0,0,0,0,0,0,0,-1,1427,1366,0,0
210,-342,0,0,0,0,0,0,0,0,0,-1,1434,1366,0,0
217,-342,0,0,0,0,0,0,0,0,0,-1,1441,1366,0,0
224,-342,0,0,0,0,0,0,0,0,0,-1,1448,1366,0,0
231,-342,0,0,0,0,0,0,0,0,0,-1,1455,1366,0,0
238,-342,0,0,0,0,0,0,0,0,0,-1,1462,1366,0,0
245,-342,0,0,0,0,0,0,0,0,0,-1,1469,1366,0,0
252,-342,0,0,0,0,0,0,0,0,0,-1,1476,1366,0,0
259,-342,0,0,0,0,0,0,0,0,0,-1,1483,1366,0,0
266,-342,0,0,0,0,0,0,0,0,0,-1,1490,1366,0,0
273,-342,0,0,0,0,0,0,0,0,0,-1,1497,1366,0,0
280,-342,0,0,0,0,0,0,0,0,0,-1,1504,1366,0,0
287,-342,0,0,0,0,0,0,0,0,0,-1,1511,1366,0,0
294,-342,0,0,0,0,0,0,0,0,0,-1,1518,1366,0,0
301,-342,0,0,0,0,0,0,0,0,0,-1,1525,1366,0,0
308,-342,0,0,0,0,0,0,0,0,0,-1,1532,1366,0,0
315,-342,0,0,0,0,0,0,0,0,0,-1,1539,1366,0,0
322,-342,0,0,0,0,0,0,0,0,0,-1,1546,1366,0,0
329,-342,0,0,0,0,0,0,0,0,0,-1,1553,1366,0,0
336,-342,0,0,0,0,0,0,0,0,0,-1,1560,1366,0,0
343,-342,0,0,0,0,0,0,0,0,0,-1,1567,1366,0,0
350,-342,0,0,0,0,0,0,0,0,0,-1,1574,1366,0,0
357,-342,0,0,0,0,0,0,0,0,0,-1,1581,1366,0,0
364,-342,0,0,0,0,0,0,0,0,0,-1,1588,1366,0,0
371,-342,0,0,0,0,0,0,0,0,0,-1,1595,1366,0,0
378,-342,0,0,0,0,0,0,0,0,0,-1,1602,1366,0,0
385,-342,0,0,0,0,0,0,0,0,0,-1,1609,1366,0,0
392,-342,0,0,0,0,0,0,0,0,0,-1,1616,1366,0,0
399,-342,0,0,0,0,0,0,0,0,0,-1,1623,1366,0,0
406,-342,0,0,0,0,0,0,0,0,0,-1,1630,1366,0,0
413,-342,0,0,0,0,0,0,0,0,0,-1,1637,1366,0,0
420,-342,0,0,0,0,0,0,0,0,0,-1,1644,1366,0,0
427,-342,0,0,0,0,0,0,0,0,0,-1,1651,1366,0,0
434,-342,0,0,0,0,0,0,0,0,0,-1,1658,1366,0,0
441,-342,0,0,0,0,0,0,0,0,0,-1,1665,1366,0,0
448,-342,0,0,0,0,0,0,0,0,0,-1,1672,1366,0,0
455,-342,0,0,0,0,0,0,0,0,0,-1,1679,1366,0,0
462,-342,0,0,0,0,0,0,0,0,0,-1,1686,1366,0,0
469,-342,0,0,0,0,0,0,0,0,0,-1,1693,1366,0,0
476,-342,0,0,0,0,0,0,0,0,0,-1,1700,1366,0,0
483,-342,0,0,0,0,0,0,0,0,0,-1,1707,1366,0,0
490,-342,0,0,0,0,0,0,0,0,0,-1,1714,1366,0,0
497,-342,0,0,0,0,0,0,0,0,0,-1,1721,1366,0,0
504,-342,0,0,0,0,0,0,0,0,0,-1,1728,1366,0,0
511,-342,0,0,0,0,0,0,0,0,0,-1,1735,1366,0,0
518,-342,0,0,0,0,0,0,0,0,0,-1,1742,1366,0,0
525,-342,0,0,0,0,0,0,0,0,0,-1,1749,1366,0,0
532,-342,0,0,0,0,0,0,0,0,0,-1,1756,1366,0,0
539,-342,0,0,0,0,0,0,0,0,0,-1,1763,1366,0,0
546,-342,0,0,0,0,0,0,0,0,0,-1,1770,1366,0,0
553,-342,0,0,0,0,0,0,0,0,0,-1,1777,1366,0,0
560,-342,0,0,0,0,0,0,0,0,0,-1,1784,1366,0,0
567,-342,45.6378,3.95679,0.0178758,0.0256117,-0.0240619,0.0461146,-0.00262712,-0.865091,0.0316551,0.0410078,1791,1366,45.6378,-3.95681
574,-342,45.4796,4.15137,0.00898752,0.017959,-0.0214757,0.0354125,-0.00846591,-0.888356,0.0268784,0.0424886,1798,1366,45.4797,-4.15142
581,-342,45.8685,3.68884,6.17475e-05,0.0105909,-0.0189578,0.0250015,-0.0143489,-0.920835,0.0229948,0.0440421,1805,1366,45.8685,-3.6888
588,-342,47.1311,2.79675,0,0,0,0,0,0,0,-1,1812,1366,47.1311,-2.79675
595,-342,35.7993,0.709961,0,0,0,0,0,0,0,-1,1819,1366,35.7993,-0.709913
602,-342,36.3618,3.28723,0,0,0,0,0,0,0,-1,1826,1366,36.3619,-3.28719
609,-342,35.3777,4.14978,0,0,0,0,0,0,0,-1,1833,1366,35.3777,-4.14976
616,-342,34.199,5.8158,0,0,0,0,0,0,0,-1,1840,1366,34.199,-5.81579
623,-342,26.0299,6.86865,0,0,0,0,0,0,0,-1,1847,1366,26.0299,-6.86863
630,-342,17.3431,0.773071,0,0,0,0,0,0,0,-1,1854,1366,17.3432,-0.773095
637,-342,16.196,6.76172,0,0,0,0,0,0,0,-1,1861,1366,16.1961,-6.76174
644,-342,27.8896,12.4862,0,0,0,0,0,0,0,-1,1868,1366,27.8897,-12.4863
651,-342,28.0294,12.0735,-0.0115176,-0.00225556,-0.00350157,-0.00108078,-0.0126924,-1.2471,0.00812533,0.0416072,1875,1366,28.0294,-12.0734
658,-342,28.0045,11.5583,-0.0060001,-0.00123411,-0.00142627,-0.000839889,-0.00639432,-1.30113,0.00401232,0.0203096,1882,1366,28.0045,-11.5584
665,-342,28.0204,11.0791,-0.00134642,-0.00039287,-0.000841487,9.75241e-05,-0.00183681,-1.04314,0.00125831,0.0166001,1889,1366,28.0204,-11.0791
672,-342,28.0221,10.6522,0.000636727,-8.47274e-05,-0.000461467,0.000861727,-0.000309727,-0.453658,0.000700922,0.0137899,1896,1366,28.0222,-10.6522
679,-342,28.0115,10.2286,0.000873833,-0.000267644,-0.000218596,0.000914263,-0.000308074,-0.182885,0.000734074,0.01319,1903,1366,28.0114,-10.2286
686,-342,28.0269,9.80188,0.00109427,-0.00038401,-3.95514e-05,0.00109533,-0.000385067,-0.0267295,0.000886893,0.0116193,1910,1366,28.0269,-9.80191
693,-342,27.9762,9.33899,0.00124932,-0.00047833,0.000125871,0.00125844,-0.000487452,0.0723474,0.00104024,0.0115871,1917,1366,27.9761,-9.33905
700,-342,27.9366,8.89294,0.00133547,-0.000532851,0.000279271,0.00137632,-0.000573703,0.145249,0.0011572,0.0139836,1924,1366,27.9367,-8.89289
707,-342,27.9441,8.43567,0.00120754,-0.000505481,0.000400035,0.00129635,-0.000594295,0.218472,0.00111637,0.0143845,1931,1366,27.9441,-8.43571
714,-342,27.9851,7.97473,0,0,0,0,0,0,0,-1,1938,1366,27.9851,-7.97471
721,-342,22.4666,6.08679,0,0,0,0,0,0,0,-1,1945,1366,22.4666,-6.08678
728,-342,19.8912,5.26636,0,0,0,0,0,0,0,-1,1952,1366,19.8913,-5.26636
735,-342,19.481,4.41968,0,0,0,0,0,0,0,-1,1959,1366,19.4809,-4.41962
742,-342,19.309,2.66943,0,0,0,0,0,0,0,-1,1966,1366,19.3089,-2.66948
749,-342,21.0934,6.47729,0,0,0,0,0,0,0,-1,1973,1366,21.0934,-6.4773
756,-342,0,0,0,0,0,0,0,0,0,-1,1980,1366,0,0
763,-342,0,0,0,0,0,0,0,0,0,-1,1987,1366,0,0
770,-342,0,0,0,0,0,0,0,0,0,-1,1994,1366,0,0
777,-342,0,0,0,0,0,0,0,0,0,-1,2001,1366,0,0
784,-342,0,0,0,0,0,0,0,0,0,-1,2008,1366,0,0
791,-342,0,0,0,0,0,0,0,0,0,-1,2015,1366,0,0
798,-342,0,0,0,0,0,0,0,0,0,-1,2022,1366,0,0
805,-342,0,0,0,0,0,0,0,0,0,-1,2029,1366,0,0
812,-342,0,0,0,0,0,0,0,0,0,-1,2036,1366,0,0
-700,-349,0,0,0,0,0,0,0,0,0,-1,524,1373,0,0
-693,-349,0,0,0,0,0,0,0,0,0,-1,531,1373,0,0
-686,-349,0,0,0,0,0,0,0,0,0,-1,538,1373,0,0
-679,-349,0,0,0,0,0,0,0,0,0,-1,545,1373,0,0
-672,-349,0,0,0,0,0,0,0,0,0,-1,552,1373,0,0
-665,-349,0,0,0,0,0,0,0,0,0,-1,559,1373,0,0
-658,-349,0,0,0,0,0,0,0,0,0,-1,566,1373,0,0
-651,-349,0,0,0,0,0,0,0,0,0,-1,573,1373,0,0
-644,-349,0,0,0,0,0,0,0,0,0,-1,580,1373,0,0
-637,-349,0,0,0,0,0,0,0,0,0,-1,587,1373,0,0
-630,-349,-7.64117,-5.06177,0,0,0,0,0,0,0,-1,594,1373,-7.64118,5.0618
-623,-349,-8.63507,0.51123,0,0,0,0,0,0,0,-1,601,1373,-8.63505,-0.511275
-616,-349,-5.2066,-0.188232,0,0,0,0,0,0,0,-1,608,1373,-5.20659,0.188211
-609,-349,-7.12073,1.37048,0,0,0,0,0,0,0,-1,615,1373,-7.12072,-1.37044
-602,-349,-9.00623,3.39587,0,0,0,0,0,0,0,-1,622,1373,-9.0062,-3.39591
-595,-349,-9.50568,2.96912,0,0,0,0,0,0,0,-1,629,1373,-9.50569,-2.96906
-588,-349,-8.60046,3.56042,0,0,0,0,0,0,0,-1,636,1373,-8.60046,-3.56047
-581,-349,-14.0532,5.74084,0,0,0,0,0,0,0,-1,643,1373,-14.0532,-5.74086
-574,-349,-14.086,6.1814,-0.00209928,-0.0016631,-0.00275448,0.000881905,-0.00464429,-0.824904,0.00342819,0.0318504,650,1373,-14.086,-6.18135
-567,-349,-14.0854,6.72827,-0.00153865,-0.00103839,-0.00193644,0.000664006,-0.00324104,-0.849628,0.00241268,0.0188378,657,1373,-14.0854,-6.72829
-560,-349,-14.1038,7.19373,-0.000691732,-0.000679905,-0.00120894,0.000523138,-0.00189478,-0.787844,0.00146895,0.0223961,664,1373,-14.1038,-7.19368
-553,-349,-14.2111,7.65417,0.000446192,-0.000316769,-0.000394499,0.000613488,-0.000484066,-0.401087,0.00063514,0.028014,671,1373,-14.2111,-7.65413
-546,-349,-14.2443,8.16345,0.00175324,1.22835e-05,0.000443224,0.00185958,-9.40599e-05,0.23548,0.00127223,0.0298079,678,1373,-14.2443,-8.16348
-539,-349,-14.1977,8.66699,0.00317956,0.000315876,0.00130049,0.003682,-0.000186563,0.36868,0.00251916,0.0234213,685,1373,-14.1977,-8.66702
-532,-349,-14.1549,9.19495,0.00477191,0.000606728,0.00222106,0.00573403,-0.000355398,0.408781,0.00394649,0.0172943,692,1373,-14.1549,-9.195
-525,-349,-14.1411,9.72607,0.00657868,0.00093707,0.00325801,0.00806735,-0.0005516,0.428599,0.00557121,0.0133981,699,1373,-14.1411,-9.72612
-518,-349,-14.1501,10.2396,0.00849516,0.00116379,0.00426928,0.0104565,-0.000797603,0.43066,0.00725154,0.0185685,706,1373,-14.1501,-10.2397
-511,-349,-14.1389,10.7506,0,0,0,0,0,0,0,-1,713,1373,-14.1388,-10.7506
-504,-349,-9.60516,7.88831,0,0,0,0,0,0,0,-1,720,1373,-9.60519,-7.88825
-497,-349,-7.9339,5.58789,0,0,0,0,0,0,0,-1,727,1373,-7.93388,-5.58785
-490,-349,-8.73969,-0.503784,0,0,0,0,0,0,0,-1,734,1373,-8.73966,0.503752
-483,-349,-5.66974,3.7395,0,0,0,0,0,0,0,-1,741,1373,-5.66975,-3.73949
-476,-349,-10.8496,1.15759,0,0,0,0,0,0,0,-1,748,1373,-10.8496,-1.15756
-469,-349,-12.3314,-1.74878,0,0,0,0,0,0,0,-1,755,1373,-12.3314,1.74882
-462,-349,-12.6559,-0.995361,0,0,0,0,0,0,0,-1,762,1373,-12.656,0.995351
-455,-349,-13.2897,-0.234253,0,0,0,0,0,0,0,-1,769,1373,-13.2897,0.234261
-448,-349,-14.045,0.712891,0,0,0,0,0,0,0,-1,776,1373,-14.045,-0.712838
-441,-349,0,0,0,0,0,0,0,0,0,-1,783,1373,0,0
-434,-349,0,0,0,0,0,0,0,0,0,-1,790,1373,0,0
-427,-349,0,0,0,0,0,0,0,0,0,-1,797,1373,0,0
-420,-349,0,0,0,0,0,0,0,0,0,-1,804,1373,0,0
-413,-349,0,0,0,0,0,0,0,0,0,-1,811,1373,0,0
-406,-349,0,0,0,0,0,0,0,0,0,-1,818,1373,0,0
-399,-349,0,0,0,0,0,0,0,0,0,-1,825,1373,0,0
-392,-349,0,0,0,0,0,0,0,0,0,-1,832,1373,0,0
-385,-349,0,0,0,0,0,0,0,0,0,-1,839,1373,0,0
-378,-349,0,0,0,0,0,0,0,0,0,-1,846,1373,0,0
-371,-349,0,0,0,0,0,0,0,0,0,-1,853,1373,0,0
-364,-349,0,0,0,0,0,0,0,0,0,-1,860,1373,0,0
-357,-349,0,0,0,0,0,0,0,0,0,-1,867,1373,0,0
-350,-349,0,0,0,0,0,0,0,0,0,-1,874,1373,0,0
-343,-349,0,0,0,0,0,0,0,0,0,-1,881,1373,0,0
-336,-349,0,0,0,0,0,0,0,0,0,-1,888,1373,0,0
-329,-349,0,0,0,0,0,0,0,0,0,-1,895,1373,0,0
-322,-349,0,0,0,0,0,0,0,0,0,-1,902,1373,0,0
-315,-349,0,0,0,0,0,0,0,0,0,-1,909,1373,0,0
-308,-349,0,0,0,0,0,0,0,0,0,-1,916,1373,0,0
-301,-349,0,0,0,0,0,0,0,0,0,-1,923,1373,0,0
-294,-349,0,0,0,0,0,0,0,0,0,-1,930,1373,0,0
-287,-349,0,0,0,0,0,0,0,0,0,-1,937,1373,0,0
-280,-349,0,0,0,0,0,0,0,0,0,-1,944,1373,0,0
-273,-349,0,0,0,0,0,0,0,0,0,-1,951,1373,0,0
-266,-349,0,0,0,0,0,0,0,0,0,-1,958,1373,0,0
-259,-349,0,0,0,0,0,0,0,0,0,-1,965,1373,0,0
-252,-349,0,0,0,0,0,0,0,0,0,-1,972,1373,0,0
-245,-349,0,0,0,0,0,0,0,0,0,-1,979,1373,0,0
-238,-349,0,0,0,0,0,0,0,0,0,-1,986,1373,0,0
-231,-349,0,0,0,0,0,0,0,0,0,-1,993,1373,0,0
-224,-349,0,0,0,0,0,0,0,0,0,-1,1000,1373,0,0
-217,-349,0,0,0,0,0,0,0,0,0,-1,1007,1373,0,0
-210,-349,0,0,0,0,0,0,0,0,0,-1,1014,1373,0,0
-203,-349,0,0,0,0,0,0,0,0,0,-1,1021,1373,0,0
-196,-349,0,0,0,0,0,0,0,0,0,-1,1028,1373,0,0
-189,-349,0,0,0,0,0,0,0,0,0,-1,1035,1373,0,0
-182,-349,0,0,0,0,0,0,0,0,0,-1,1042,1373,0,0
-175,-349,0,0,0,0,0,0,0,0,0,-1,1049,1373,0,0
-168,-349,0,0,0,0,0,0,0,0,0,-1,1056,1373,0,0
-161,-349,0,0,0,0,0,0,0,0,0,-1,1063,1373,0,0
-154,-349,0,0,0,0,0,0,0,0,0,-1,1070,1373,0,0
-147,-349,0,0,0,0,0,0,0,0,0,-1,1077,1373,0,0
-140,-349,0,0,0,0,0,0,0,0,0,-1,1084,1373,0,0
-133,-349,0,0,0,0,0,0,0,0,0,-1,1091,1373,0,0
-126,-349,0,0,0,0,0,0,0,0,0,-1,1098,1373,0,0
-119,-349,0,0,0,0,0,0,0,0,0,-1,1105,1373,0,0
-112,-349,0,0,0,0,0,0,0,0,0,-1,1112,1373,0,0
-105,-349,0,0,0,0,0,0,0,0,0,-1,1119,1373,0,0
-98,-349,0,0,0,0,0,0,0,0,0,-1,1126,1373,0,0
-91,-349,0,0,0,0,0,0,0,0,0,-1,1133,1373,0,0
-84,-349,0,0,0,0,0,0,0,0,0,-1,1140,1373,0,0
-77,-349,0,0,0,0,0,0,0,0,0,-1,1147,1373,0,0
-70,-349,0,0,0,0,0,0,0,0,0,-1,1154,1373,0,0
-63,-349,0,0,0,0,0,0,0,0,0,-1,1161,1373,0,0
-56,-349,0,0,0,0,0,0,0,0,0,-1,1168,1373,0,0
-49,-349,0,0,0,0,0,0,0,0,0,-1,1175,1373,0,0
-42,-349,0,0,0,0,0,0,0,0,0,-1,1182,1373,0,0
-35,-349,0,0,0,0,0,0,0,0,0,-1,1189,1373,0,0
-28,-349,0,0,0,0,0,0,0,0,0,-1,1196,1373,0,0
-21,-349,0,0,0,0,0,0,0,0,0,-1,1203,1373,0,0
-14,-349,0,0,0,0,0,0,0,0,0,-1,1210,1373,0,0
-7,-349,0,0,0,0,0,0,0,0,0,-1,1217,1373,0,0
0,-349,0,0,0,0,0,0,0,0,0,-1,1224,1373,0,0
7,-349,0,0,0,0,0,0,0,0,0,-1,1231,1373,0,0
14,-349,0,0,0,0,0,0,0,0,0,-1,1238,1373,0,0
21,-349,0,0,0,0,0,0,0,0,0,-1,1245,1373,0,0
28,-349,0,0,0,0,0,0,0,0,0,-1,1252,1373,0,0
35,-349,0,0,0,0,0,0,0,0,0,-1,1259,1373,0,0
42,-349,0,0,0,0,0,0,0,0,0,-1,1266,1373,0,0
49,-349,0,0,0,0,0,0,0,0,0,-1,1273,1373,0,0
56,-349,0,0,0,0,0,0,0,0,0,-1,1280,1373,0,0
63,-349,0,0,0,0,0,0,0,0,0,-1,1287,1373,0,0
70,-349,0,0,0,0,0,0,0,0,0,-1,1294,1373,0,0
77,-349,0,0,0,0,0,0,0,0,0,-1,1301,1373,0,0
84,-349,0,0,0,0,0,0,0,0,0,-1,1308,1373,0,0
91,-349,0,0,0,0,0,0,0,0,0,-1,1315,1373,0,0
98,-349,0,0,0,0,0,0,0,0,0,-1,1322,1373,0,0
105,-349,0,0,0,0,0,0,0,0,0,-1,1329,1373,0,0
112,-349,0,0,0,0,0,0,0,0,0,-1,1336,1373,0,0
119,-349,0,0,0,0,0,0,0,0,0,-1,1343,1373,0,0
126,-349,0,0,0,0,0,0,0,0,0,-1,1350,1373,0,0
133,-349,0,0,0,0,0,0,0,0,0,-1,1357,1373,0,0
140,-349,0,0,0,0,0,0,0,0,0,-1,1364,1373,0,0
147,-349,0,0,0,0,0,0,0,0,0,-1,1371,1373,0,0
154,-349,0,0,0,0,0,0,0,0,0,-1,1378,1373,0,0
161,-349,0,0,0,0,0,0,0,0,0,-1,1385,1373,0,0
168,-349,0,0,0,0,0,0,0,0,0,-1,1392,1373,0,0
175,-349,0,0,0,0,0,0,0,0,0,-1,1399,1373,0,0
182,-349,0,0,0,0,0,0,0,0,0,-1,1406,1373,0,0
189,-349,0,0,0,0,0,0,0,0,0,-1,1413,1373,0,0
196,-349,0,0,0,0,0,0,0,0,0,-1,1420,1373,0,0
203,-349,0,0,0,0,0,0,0,0,0,-1,1427,1373,0,0
210,-349,0,0,0,0,0,0,0,0,0,-1,1434,1373,0,0
217,-349,0,0,0,0,0,0,0,0,0,-1,1441,1373,0,0
224,-349,0,0,0,0,0,0,0,0,0,-1,1448,1373,0,0
231,-349,0,0,0,0,0,0,0,0,0,-1,1455,1373,0,0
238,-349,0,0,0,0,0,0,0,0,0,-1,1462,1373,0,0
245,-349,0,0,0,0,0,0,0,0,0,-1,1469,1373,0,0
252,-349,0,0,0,0,0,0,0,0,0,-1,1476,1373,0,0
259,-349,0,0,0,0,0,0,0,0,0,-1,1483,1373,0,0
266,-349,0,0,0,0,0,0,0,0,0,-1,1490,1373,0,0
273,-349,0,0,0,0,0,0,0,0,0,-1,1497,1373,0,0
280,-349,0,0,0,0,0,0,0,0,0,-1,1504,1373,0,0
287,-349,0,0,0,0,0,0,0,0,0,-1,1511,1373,0,0
294,-349,0,0,0,0,0,0,0,0,0,-1,1518,1373,0,0
301,-349,0,0,0,0,0,0,0,0,0,-1,1525,1373,0,0
308,-349,0,0,0,0,0,0,0,0,0,-1,1532,1373,0,0
315,-349,0,0,0,0,0,0,0,0,0,-1,1539,1373,0,0
322,-349,0,0,0,0,0,0,0,0,0,-1,1546,1373,0,0
329,-349,0,0,0,0,0,0,0,0,0,-1,1553,1373,0,0
336,-349,0,0,0,0,0,0,0,0,0,-1,1560,1373,0,0
343,-349,0,0,0,0,0,0,0,0,0,-1,1567,1373,0,0
350,-349,0,0,0,0,0,0,0,0,0,-1,1574,1373,0,0
357,-349,0,0,0,0,0,0,0,0,0,-1,1581,1373,0,0
364,-349,0,0,0,0,0,0,0,0,0,-1,1588,1373,0,0
371,-349,0,0,0,0,0,0,0,0,0,-1,1595,1373,0,0
378,-349,0,0,0,0,0,0,0,0,0,-1,1602,1373,0,0
385,-349,0,0,0,0,0,0,0,0,0,-1,1609,1373,0,0
392,-349,0,0,0,0,0,0,0,0,0,-1,1616,1373,0,0
399,-349,0,0,0,0,0,0,0,0,0,-1,1623,1373,0,0
406,-349,0,0,0,0,0,0,0,0,0,-1,1630,1373,0,0
413,-349,0,0,0,0,0,0,0,0,0,-1,1637,1373,0,0
420,-349,0,0,0,0,0,0,0,0,0,-1,1644,1373,0,0
427,-349,0,0,0,0,0,0,0,0,0,-1,1651,1373,0,0
434,-349,0,0,0,0,0,0,0,0,0,-1,1658,1373,0,0
441,-349,0,0,0,0,0,0,0,0,0,-1,1665,1373,0,0
448,-349,0,0,0,0,0,0,0,0,0,-1,1672,1373,0,0
455,-349,0,0,0,0,0,0,0,0,0,-1,1679,1373,0,0
462,-349,0,0,0,0,0,0,0,0,0,-1,1686,1373,0,0
469,-349,0,0,0,0,0,0,0,0,0,-1,1693,1373,0,0
476,-349,0,0,0,0,0,0,0,0,0,-1,1700,1373,0,0
483,-349,0,0,0,0,0,0,0,0,0,-1,1707,1373,0,0
490,-349,0,0,0,0,0,0,0,0,0,-1,1714,1373,0,0
497,-349,0,0,0,0,0,0,0,0,0,-1,1721,1373,0,0
504,-349,0,0,0,0,0,0,0,0,0,-1,1728,1373,0,0
511,-349,0,0,0,0,0,0,0,0,0,-1,1735,1373,0,0
518,-349,0,0,0,0,0,0,0,0,0,-1,1742,1373,0,0
525,-349,0,0,0,0,0,0,0,0,0,-1,1749,1373,0,0
532,-349,0,0,0,0,0,0,0,0,0,-1,1756,1373,0,0
539,-349,0,0,0,0,0,0,0,0,0,-1,1763,1373,0,0
546,-349,0,0,0,0,0,0,0,0,0,-1,1770,1373,0,0
553,-349,0,0,0,0,0,0,0,0,0,-1,1777,1373,0,0
560,-349,45.6893,3.53845,0.012209,0.0278872,-0.0163245,0.0381573,0.00193894,-1.00924,0.0248171,0.0439553,1784,1373,45.6893,-3.5385
567,-349,45.6429,3.58057,0.0096597,0.0225467,-0.0155858,0.0329684,-0.000762073,-0.981408,0.0222373,0.0413363,1791,1373,45.6429,-3.5806
574,-349,45.5089,3.73657,0.00414473,0.016114,-0.0140115,0.0253654,-0.00510675,-0.987231,0.0188446,0.0432381,1798,1373,45.5089,-3.73662
581,-349,45.1635,4.2511,0.00171754,0.0115466,-0.0146326,0.0220679,-0.00880378,-0.94741,0.018364,0.0459399,1805,1373,45.1635,-4.25111
588,-349,44.8121,5.06213,0,0,0,0,0,0,0,-1,1812,1373,44.8121,-5.06215
595,-349,44.4338,6.14099,0,0,0,0,0,0,0,-1,1819,1373,44.4338,-6.14095
602,-349,35.6641,3.26465,0,0,0,0,0,0,0,-1,1826,1373,35.6641,-3.26468
609,-349,34.7175,4.401,0,0,0,0,0,0,0,-1,1833,1373,34.7175,-4.40096
616,-349,27.1451,6.68274,0,0,0,0,0,0,0,-1,1840,1373,27.1451,-6.6828
623,-349,18.8478,2.75769,0,0,0,0,0,0,0,-1,1847,1373,18.8478,-2.75774
630,-349,15.4948,6.47644,0,0,0,0,0,0,0,-1,1854,1373,15.4947,-6.4765
637,-349,16.5161,6.92639,0,0,0,0,0,0,0,-1,1861,1373,16.5161,-6.92636
644,-349,27.6881,12.5033,0,0,0,0,0,0,0,-1,1868,1373,27.6881,-12.5034
651,-349,27.6874,12.0015,-0.00775385,-0.00148591,-0.00280953,-0.000410937,-0.00882882,-1.20536,0.0057538,0.0334566,1875,1373,27.6873,-12.0014
658,-349,27.5746,11.5275,-0.00344658,-0.000687195,-0.00111997,-0.000289842,-0.00384393,-1.22986,0.00247168,0.0258112,1882,1373,27.5746,-11.5275
665,-349,27.5732,11.0898,-0.00036366,-0.0002296,-0.000690645,0.000397261,-0.00099052,-0.833774,0.000825279,0.020275,1889,1373,27.5732,-11.0899
672,-349,27.5623,10.6699,0.000839412,-0.000167717,-0.000340716,0.000943849,-0.000272153,-0.297427,0.000736897,0.0155607,1896,1373,27.5623,-10.67
679,-349,27.5557,10.2578,0.00112449,-0.000380633,-8.90863e-05,0.00112974,-0.000385888,-0.0589147,0.0009095,0.01499,1903,1373,27.5556,-10.2578
686,-349,27.6002,9.83643,0.00141426,-0.000548268,9.497e-05,0.00141884,-0.000552853,0.0482414,0.00117439,0.0152889,1910,1373,27.6002,-9.83649
693,-349,27.5522,9.37781,0.00165376,-0.000702951,0.000259603,0.00168202,-0.000731209,0.108423,0.00142887,0.0176516,1917,1373,27.5522,-9.37775
700,-349,27.5071,8.922,0.00183968,-0.000818039,0.000399865,0.00189853,-0.000876897,0.146145,0.00163818,0.0177986,1924,1373,27.5071,-8.922
707,-349,27.5675,8.43872,0.00176259,-0.000840704,0.000475892,0.00184685,-0.000924971,0.175256,0.00162955,0.0335105,1931,1373,27.5675,-8.43877
714,-349,27.6926,7.89551,0,0,0,0,0,0,0,-1,1938,1373,27.6927,-7.89556
721,-349,19.6688,5.93604,0,0,0,0,0,0,0,-1,1945,1373,19.6688,-5.93606
728,-349,18.6333,3.73218,0,0,0,0,0,0,0,-1,1952,1373,18.6333,-3.73214
735,-349,18.1918,3.39954,0,0,0,0,0,0,0,-1,1959,1373,18.1918,-3.3995
742,-349,20.7345,2.07483,0,0,0,0,0,0,0,-1,1966,1373,20.7345,-2.07485
749,-349,21.9037,1.45789,0,0,0,0,0,0,0,-1,1973,1373,21.9037,-1.45788
756,-349,0,0,0,0,0,0,0,0,0,-1,1980,1373,0,0
763,-349,0,0,0,0,0,0,0,0,0,-1,1987,1373,0,0
770,-349,0,0,0,0,0,0,0,0,0,-1,1994,1373,0,0
777,-349,0,0,0,0,0,0,0,0,0,-1,2001,1373,0,0
784,-349,0,0,0,0,0,0,0,0,0,-1,2008,1373,0,0
791,-349,0,0,0,0,0,0,0,0,0,-1,2015,1373,0,0
798,-349,0,0,0,0,0,0,0,0,0,-1,2022,1373,0,0
805,-349,0,0,0,0,0,0,0,0,0,-1,2029,1373,0,0
812,-349,0,0,0,0,0,0,0,0,0,-1,2036,1373,0,0
-700,-356,0,0,0,0,0,0,0,0,0,-1,524,1380,0,0
-693,-356,0,0,0,0,0,0,0,0,0,-1,531,1380,0,0
-686,-356,0,0,0,0,0,0,0,0,0,-1,538,1380,0,0
-679,-356,0,0,0,0,0,0,0,0,0,-1,545,1380,0,0
-672,-356,0,0,0,0,0,0,0,0,0,-1,552,1380,0,0
-665,-356,0,0,0,0,0,0,0,0,0,-1,559,1380,0,0
-658,-356,0,0,0,0,0,0,0,0,0,-1,566,1380,0,0
-651,-356,0,0,0,0,0,0,0,0,0,-1,573,1380,0,0
-644,-356,0,0,0,0,0,0,0,0,0,-1,580,1380,0,0
-637,-356,0,0,0,0,0,0,0,0,0,-1,587,1380,0,0
-630,-356,-8.23126,-5.01917,0,0,0,0,0,0,0,-1,594,1380,-8.23124,5.0192
-623,-356,-0.263855,-0.675781,0,0,0,0,0,0,0,-1,601,1380,-0.263835,0.675841
-616,-356,-8.26532,-3.43945,0,0,0,0,0,0,0,-1,608,1380,-8.2653,3.43948
-609,-356,-4.88483,0.734497,0,0,0,0,0,0,0,-1,615,1380,-4.88485,-0.734532
-602,-356,-9.06635,2.4021,0,0,0,0,0,0,0,-1,622,1380,-9.06634,-2.40206
-595,-356,-8.45703,3.61853,0,0,0,0,0,0,0,-1,629,1380,-8.45706,-3.61848
-588,-356,-9.31738,4.14258,0,0,0,0,0,0,0,-1,636,1380,-9.31736,-4.14255
-581,-356,-13.5728,6.14539,0,0,0,0,0,0,0,-1,643,1380,-13.5728,-6.14538
-574,-356,-13.3682,6.41565,-0.00370361,-0.00232541,-0.0038296,0.000876593,-0.00690561,-0.874416,0.00492203,0.0459819,650,1380,-13.3682,-6.41567
-567,-356,-13.6559,6.68494,-0.00271783,-0.00143101,-0.00268431,0.000685924,-0.00483477,-0.903025,0.00347446,0.0200408,657,1380,-13.6559,-6.68491
-560,-356,-13.607,7.22925,-0.00163592,-0.000958798,-0.00180269,0.000536852,-0.00313157,-0.878221,0.00228776,0.0184946,664,1380,-13.607,-7.22927
-553,-356,-13.6714,7.72766,-0.000326427,-0.000494016,-0.000872102,0.000465897,-0.00128634,-0.737504,0.00104797,0.0212048,671,1380,-13.6714,-7.72763
-546,-356,-13.7345,8.20276,0.00107299,-9.19259e-05,4.71743e-05,0.00107489,-9.38331e-05,0.0404078,0.000749833,0.0229842,678,1380,-13.7345,-8.20273
-539,-356,-13.6809,8.71423,0.00252196,0.000270285,0.000952955,0.00287112,-7.88807e-05,0.351213,0.00194091,0.015577,685,1380,-13.6809,-8.71422
-532,-356,-13.681,9.2345,0.00404639,0.000611232,0.0018852,0.00487911,-0.000221494,0.415945,0.00332903,0.0146737,692,1380,-13.681,-9.23451
-525,-356,-13.6901,9.72412,0.00570429,0.000991674,0.00290059,0.00708503,-0.000389074,0.444283,0.00485824,0.0127272,699,1380,-13.6901,-9.72418
-518,-356,-13.6737,10.2299,0.00741753,0.00131921,0.00391308,0.00932918,-0.000592436,0.454427,0.00642604,0.0124932,706,1380,-13.6737,-10.2299
-511,-356,-13.457,10.8342,0.00912374,0.00172272,0.00496745,0.0116175,-0.000771065,0.465267,0.00801441,0.0470951,713,1380,-13.457,-10.8342
-504,-356,-13.2351,11.5706,0,0,0,0,0,0,0,-1,720,1380,-13.2351,-11.5706
-497,-356,-5.68604,4.96387,0,0,0,0,0,0,0,-1,727,1380,-5.68605,-4.96385
-490,-356,-7.95288,5.5625,0,0,0,0,0,0,0,-1,734,1380,-7.95285,-5.56246
-483,-356,-7.2627,4.07446,0,0,0,0,0,0,0,-1,741,1380,-7.2627,-4.07441
-476,-356,-5.1936,4.16016,0,0,0,0,0,0,0,-1,748,1380,-5.1936,-4.16012
-469,-356,-10.0883,0.536011,0,0,0,0,0,0,0,-1,755,1380,-10.0883,-0.535989
-462,-356,-12.3481,-0.215698,0,0,0,0,0,0,0,-1,762,1380,-12.3481,0.215641
-455,-356,-13.1367,-0.264648,0,0,0,0,0,0,0,-1,769,1380,-13.1367,0.264647
-448,-356,-13.9116,-0.310181,0,0,0,0,0,0,0,-1,776,1380,-13.9115,0.310207
-441,-356,-13.1602,3.05603,0,0,0,0,0,0,0,-1,783,1380,-13.1602,-3.05609
-434,-356,0,0,0,0,0,0,0,0,0,-1,790,1380,0,0
-427,-356,0,0,0,0,0,0,0,0,0,-1,797,1380,0,0
-420,-356,0,0,0,0,0,0,0,0,0,-1,804,1380,0,0
-413,-356,0,0,0,0,0,0,0,0,0,-1,811,1380,0,0
-406,-356,0,0,0,0,0,0,0,0,0,-1,818,1380,0,0
-399,-356,0,0,0,0,0,0,0,0,0,-1,825,1380,0,0
-392,-356,0,0,0,0,0,0,0,0,0,-1,832,1380,0,0
-385,-356,0,0,0,0,0,0,0,0,0,-1,839,1380,0,0
-378,-356,0,0,0,0,0,0,0,0,0,-1,846,1380,0,0
-371,-356,0,0,0,0,0,0,0,0,0,-1,853,1380,0,0
-364,-356,0,0,0,0,0,0,0,0,0,-1,860,1380,0,0
-357,-356,0,0,0,0,0,0,0,0,0,-1,867,1380,0,0
-350,-356,0,0,0,0,0,0,0,0,0,-1,874,1380,0,0
-343,-356,0,0,0,0,0,0,0,0,0,-1,881,1380,0,0
-336,-356,0,0,0,0,0,0,0,0,0,-1,888,1380,0,0
-329,-356,0,0,0,0,0,0,0,0,0,-1,895,1380,0,0
-322,-356,0,0,0,0,0,0,0,0,0,-1,902,1380,0,0
-315,-356,0,0,0,0,0,0,0,0,0,-1,909,1380,0,0
-308,-356,0,0,0,0,0,0,0,0,0,-1,916,1380,0,0
-301,-356,0,0,0,0,0,0,0,0,0,-1,923,1380,0,0
-294,-356,0,0,0,0,0,0,0,0,0,-1,930,1380,0,0
-287,-356,0,0,0,0,0,0,0,0,0,-1,937,1380,0,0
-280,-356,0,0,0,0,0,0,0,0,0,-1,944,1380,0,0
-273,-356,0,0,0,0,0,0,0,0,0,-1,951,1380,0,0
-266,-356,0,0,0,0,0,0,0,0,0,-1,958,1380,0,0
-259,-356,0,0,0,0,0,0,0,0,0,-1,965,1380,0,0
-252,-356,0,0,0,0,0,0,0,0,0,-1,972,1380,0,0
-245,-356,0,0,0,0,0,0,0,0,0,-1,979,1380,0,0
-238,-356,0,0,0,0,0,0,0,0,0,-1,986,1380,0,0
-231,-356,0,0,0,0,0,0,0,0,0,-1,993,1380,0,0
-224,-356,0,0,0,0,0,0,0,0,0,-1,1000,1380,0,0
-217,-356,0,0,0,0,0,0,0,0,0,-1,1007,1380,0,0
-210,-356,0,0,0,0,0,0,0,0,0,-1,1014,1380,0,0
-203,-356,0,0,0,0,0,0,0,0,0,-1,1021,1380,0,0
-196,-356,0,0,0,0,0,0,0,0,0,-1,1028,1380,0,0
-189,-356,0,0,0,0,0,0,0,0,0,-1,1035,1380,0,0
-182,-356,0,0,0,0,0,0,0,0,0,-1,1042,1380,0,0
-175,-356,0,0,0,0,0,0,0,0,0,-1,1049,1380,0,0
-168,-356,0,0,0,0,0,0,0,0,0,-1,1056,1380,0,0
-161,-356,0,0,0,0,0,0,0,0,0,-1,1063,1380,0,0
-154,-356,0,0,0,0,0,0,0,0,0,-1,1070,1380,0,0
-147,-356,0,0,0,0,0,0,0,0,0,-1,1077,1380,0,0
-140,-356,0,0,0,0,0,0,0,0,0,-1,1084,1380,0,0
-133,-356,0,0,0,0,0,0,0,0,0,-1,1091,1380,0,0
-126,-356,0,0,0,0,0,0,0,0,0,-1,1098,1380,0,0
-119,-356,0,0,0,0,0,0,0,0,0,-1,1105,1380,0,0
-112,-356,0,0,0,0,0,0,0,0,0,-1,1112,1380,0,0
-105,-356,0,0,0,0,0,0,0,0,0,-1,1119,1380,0,0
-98,-356,0,0,0,0,0,0,0,0,0,-1,1126,1380,0,0
-91,-356,0,0,0,0,0,0,0,0,0,-1,1133,1380,0,0
-84,-356,0,0,0,0,0,0,0,0,0,-1,1140,1380,0,0
-77,-356,0,0,0,0,0,0,0,0,0,-1,1147,1380,0,0
-70,-356,0,0,0,0,0,0,0,0,0,-1,1154,1380,0,0
-63,-356,0,0,0,0,0,0,0,0,0,-1,1161,1380,0,0
-56,-356,0,0,0,0,0,0,0,0,0,-1,1168,1380,0,0
-49,-356,0,0,0,0,0,0,0,0,0,-1,1175,1380,0,0
-42,-356,0,0,0,0,0,0,0,0,0,-1,1182,1380,0,0
-35,-356,0,0,0,0,0,0,0,0,0,-1,1189,1380,0,0
-28,-356,0,0,0,0,0,0,0,0,0,-1,1196,1380,0,0
-21,-356,0,0,0,0,0,0,0,0,0,-1,1203,1380,0,0
-14,-356,0,0,0,0,0,0,0,0,0,-1,1210,1380,0,0
-7,-356,0,0,0,0,0,0,0,0,0,-1,1217,1380,0,0
0,-356,0,0,0,0,0,0,0,0,0,-1,1224,1380,0,0
7,-356,0,0,0,0,0,0,0,0,0,-1,1231,1380,0,0
14,-356,0,0,0,0,0,0,0,0,0,-1,1238,1380,0,0
21,-356,0,0,0,0,0,0,0,0,0,-1,1245,1380,0,0
28,-356,0,0,0,0,0,0,0,0,0,-1,1252,1380,0,0
35,-356,0,0,0,0,0,0,0,0,0,-1,1259,1380,0,0
42,-356,0,0,0,0,0,0,0,0,0,-1,1266,1380,0,0
49,-356,0,0,0,0,0,0,0,0,0,-1,1273,1380,0,0
56,-356,0,0,0,0,0,0,0,0,0,-1,1280,1380,0,0
63,-356,0,0,0,0,0,0,0,0,0,-1,1287,1380,0,0
70,-356,0,0,0,0,0,0,0,0,0,-1,1294,1380,0,0
77,-356,0,0,0,0,0,0,0,0,0,-1,1301,1380,0,0
84,-356,0,0,0,0,0,0,0,0,0,-1,1308,1380,0,0
91,-356,0,0,0,0,0,0,0,0,0,-1,1315,1380,0,0
98,-356,0,0,0,0,0,0,0,0,0,-1,1322,1380,0,0
105,-356,0,0,0,0,0,0,0,0,0,-1,1329,1380,0,0
112,-356,0,0,0,0,0,0,0,0,0,-1,1336,1380,0,0
119,-356,0,0,0,0,0,0,0,0,0,-1,1343,1380,0,0
126,-356,0,0,0,0,0,0,0,0,0,-1,1350,1380,0,0
133,-356,0,0,0,0,0,0,0,0,0,-1,1357,1380,0,0
140,-356,0,0,0,0,0,0,0,0,0,-1,1364,1380,0,0
147,-356,0,0,0,0,0,0,0,0,0,-1,1371,1380,0,0
154,-356,0,0,0,0,0,0,0,0,0,-1,1378,1380,0,0
161,-356,0,0,0,0,0,0,0,0,0,-1,1385,1380,0,0
168,-356,0,0,0,0,0,0,0,0,0,-1,1392,1380,0,0
175,-356,0,0,0,0,0,0,0,0,0,-1,1399,1380,0,0
182,-356,0,0,0,0,0,0,0,0,0,-1,1406,1380,0,0
189,-356,0,0,0,0,0,0,0,0,0,-1,1413,1380,0,0
196,-356,0,0,0,0,0,0,0,0,0,-1,1420,1380,0,0
203,-356,0,0,0,0,0,0,0,0,0,-1,1427,1380,0,0
210,-356,0,0,0,0,0,0,0,0,0,-1,1434,1380,0,0
217,-356,0,0,0,0,0,0,0,0,0,-1,1441,1380,0,0
224,-356,0,0,0,0,0,0,0,0,0,-1,1448,1380,0,0
231,-356,0,0,0,0,0,0,0,0,0,-1,1455,1380,0,0
238,-356,0,0,0,0,0,0,0,0,0,-1,1462,1380,0,0
245,-356,0,0,0,0,0,0,0,0,0,-1,1469,1380,0,0
252,-356,0,0,0,0,0,0,0,0,0,-1,1476,1380,0,0
259,-356,0,0,0,0,0,0,0,0,0,-1,1483,1380,0,0
266,-356,0,0,0,0,0,0,0,0,0,-1,1490,1380,0,0
273,-356,0,0,0,0,0,0,0,0,0,-1,1497,1380,0,0
280,-356,0,0,0,0,0,0,0,0,0,-1,1504,1380,0,0
287,-356,0,0,0,0,0,0,0,0,0,-1,1511,1380,0,0
294,-356,0,0,0,0,0,0,0,0,0,-1,1518,1380,0,0
301,-356,0,0,0,0,0,0,0,0,0,-1,1525,1380,0,0
308,-356,0,0,0,0,0,0,0,0,0,-1,1532,1380,0,0
315,-356,0,0,0,0,0,0,0,0,0,-1,1539,1380,0,0
322,-356,0,0,0,0,0,0,0,0,0,-1,1546,1380,0,0
329,-356,0,0,0,0,0,0,0,0,0,-1,1553,1380,0,0
336,-356,0,0,0,0,0,0,0,0,0,-1,1560,1380,0,0
343,-356,0,0,0,0,0,0,0,0,0,-1,1567,1380,0,0
350,-356,0,0,0,0,0,0,0,0,0,-1,1574,1380,0,0
357,-356,0,0,0,0,0,0,0,0,0,-1,1581,1380,0,0
364,-356,0,0,0,0,0,0,0,0,0,-1,1588,1380,0,0
371,-356,0,0,0,0,0,0,0,0,0,-1,1595,1380,0,0
378,-356,0,0,0,0,0,0,0,0,0,-1,1602,1380,0,0
385,-356,0,0,0,0,0,0,0,0,0,-1,1609,1380,0,0
392,-356,0,0,0,0,0,0,0,0,0,-1,1616,1380,0,0
399,-356,0,0,0,0,0,0,0,0,0,-1,1623,1380,0,0
406,-356,0,0,0,0,0,0,0,0,0,-1,1630,1380,0,0
413,-356,0,0,0,0,0,0,0,0,0,-1,1637,1380,0,0
420,-356,0,0,0,0,0,0,0,0,0,-1,1644,1380,0,0
427,-356,0,0,0,0,0,0,0,0,0,-1,1651,1380,0,0
434,-356,0,0,0,0,0,0,0,0,0,-1,1658,1380,0,0
441,-356,0,0,0,0,0,0,0,0,0,-1,1665,1380,0,0
448,-356,0,0,0,0,0,0,0,0,0,-1,1672,1380,0,0
455,-356,0,0,0,0,0,0,0,0,0,-1,1679,1380,0,0
462,-356,0,0,0,0,0,0,0,0,0,-1,1686,1380,0,0
469,-356,0,0,0,0,0,0,0,0,0,-1,1693,1380,0,0
476,-356,0,0,0,0,0,0,0,0,0,-1,1700,1380,0,0
483,-356,0,0,0,0,0,0,0,0,0,-1,1707,1380,0,0
490,-356,0,0,0,0,0,0,0,0,0,-1,1714,1380,0,0
497,-356,0,0,0,0,0,0,0,0,0,-1,1721,1380,0,0
504,-356,0,0,0,0,0,0,0,0,0,-1,1728,1380,0,0
511,-356,0,0,0,0,0,0,0,0,0,-1,1735,1380,0,0
518,-356,0,0,0,0,0,0,0,0,0,-1,1742,1380,0,0
525,-356,0,0,0,0,0,0,0,0,0,-1,1749,1380,0,0
532,-356,0,0,0,0,0,0,0,0,0,-1,1756,1380,0,0
539,-356,0,0,0,0,0,0,0,0,0,-1,1763,1380,0,0
546,-356,0,0,0,0,0,0,0,0,0,-1,1770,1380,0,0
553,-356,0,0,0,0,0,0,0,0,0,-1,1777,1380,0,0
560,-356,45.7938,3.65295,0.00148407,0.0237637,-0.00915129,0.0270406,-0.00179283,-1.22694,0.0186534,0.0479317,1784,1380,45.7938,-3.65294
567,-356,45.6788,3.51428,0.000753407,0.0198675,-0.00832698,0.0229863,-0.00236534,-1.21243,0.0161704,0.0455439,1791,1380,45.6788,-3.51422
574,-356,45.5742,3.39575,0.00205916,0.0166977,-0.0100214,0.0217881,-0.00303128,-1.1008,0.0156341,0.0450145,1798,1380,45.5742,-3.39574
581,-356,45.6708,3.64172,0,0,0,0,0,0,0,-1,1805,1380,45.6707,-3.64175
588,-356,44.4739,4.87085,0,0,0,0,0,0,0,-1,1812,1380,44.4739,-4.87086
595,-356,32.0834,5.86084,0,0,0,0,0,0,0,-1,1819,1380,32.0834,-5.86079
602,-356,30.1604,6.07104,0,0,0,0,0,0,0,-1,1826,1380,30.1604,-6.07104
609,-356,28.3435,6.48901,0,0,0,0,0,0,0,-1,1833,1380,28.3435,-6.48899
616,-356,26.9358,6.80872,0,0,0,0,0,0,0,-1,1840,1380,26.9358,-6.80877
623,-356,16.1803,1.07532,0,0,0,0,0,0,0,-1,1847,1380,16.1803,-1.07529
630,-356,16.4138,6.91553,0,0,0,0,0,0,0,-1,1854,1380,16.4138,-6.9155
637,-356,24.8021,12.0151,0,0,0,0,0,0,0,-1,1861,1380,24.8022,-12.0151
644,-356,27.1156,12.6006,0,0,0,0,0,0,0,-1,1868,1380,27.1156,-12.6006
651,-356,27.188,12.0128,-0.00381785,-0.000607298,-0.00217659,0.000491948,-0.0049171,-1.10313,0.00345375,0.0176938,1875,1380,27.188,-12.0128
658,-356,27.1392,11.4934,-0.00126543,-0.00016035,-0.000891051,0.000335572,-0.00176135,-1.06293,0.0013006,0.0144613,1882,1380,27.1392,-11.4934
665,-356,27.1229,11.1097,0.000343791,-8.2095e-05,-0.000542847,0.000713967,-0.000452271,-0.598486,0.000678955,0.0149267,1889,1380,27.123,-11.1098
672,-356,27.0844,10.7285,0.000919554,-0.000228646,-0.000198196,0.000952803,-0.000261895,-0.166209,0.000738153,0.0164422,1896,1380,27.0843,-10.7285
679,-356,27.0881,10.2888,0.00120961,-0.00044438,5.55176e-05,0.00121147,-0.000446242,0.0335155,0.000990489,0.0178827,1903,1380,27.0882,-10.2888
686,-356,27.0841,9.82263,0.00153142,-0.000640256,0.000245454,0.00155882,-0.000667653,0.111157,0.00131933,0.0177115,1910,1380,27.084,-9.82265
693,-356,27.1036,9.38928,0.00183193,-0.000829367,0.000409727,0.00189359,-0.000891019,0.149351,0.00164206,0.0154289,1917,1380,27.1037,-9.38923
700,-356,27.108,8.91724,0.00211575,-0.000980928,0.000544115,0.00220857,-0.00107375,0.168969,0.00193244,0.021179,1924,1380,27.1081,-8.91729
707,-356,27.151,8.44629,0,0,0,0,0,0,0,-1,1931,1380,27.151,-8.44625
714,-356,19.6907,5.82129,0,0,0,0,0,0,0,-1,1938,1380,19.6907,-5.82132
721,-356,17.2948,4.1958,0,0,0,0,0,0,0,-1,1945,1380,17.2948,-4.19584
728,-356,19.1846,2.31519,0,0,0,0,0,0,0,-1,1952,1380,19.1846,-2.31514
735,-356,20.0731,2.50842,0,0,0,0,0,0,0,-1,1959,1380,20.0731,-2.50844
742,-356,21.0111,2.43762,0,0,0,0,0,0,0,-1,1966,1380,21.0112,-2.43762
749,-356,22.1411,1.83276,0,0,0,0,0,0,0,-1,1973,1380,22.1411,-1.83275
756,-356,0,0,0,0,0,0,0,0,0,-1,1980,1380,0,0
763,-356,0,0,0,0,0,0,0,0,0,-1,1987,1380,0,0
770,-356,0,0,0,0,0,0,0,0,0,-1,1994,1380,0,0
777,-356,0,0,0,0,0,0,0,0,0,-1,2001,1380,0,0
784,-356,0,0,0,0,0,0,0,0,0,-1,2008,1380,0,0
791,-356,0,0,0,0,0,0,0,0,0,-1,2015,1380,0,0
798,-356,0,0,0,0,0,0,0,0,0,-1,2022,1380,0,0
805,-356,0,0,0,0,0,0,0,0,0,-1,2029,1380,0,0
812,-356,0,0,0,0,0,0,0,0,0,-1,2036,1380,0,0
-700,-363,0,0,0,0,0,0,0,0,0,-1,524,1387,0,0
-693,-363,0,0,0,0,0,0,0,0,0,-1,531,1387,0,0
-686,-363,0,0,0,0,0,0,0,0,0,-1,538,1387,0,0
-679,-363,0,0,0,0,0,0,0,0,0,-1,545,1387,0,0
-672,-363,0,0,0,0,0,0,0,0,0,-1,552,1387,0,0
-665,-363,0,0,0,0,0,0,0,0,0,-1,559,1387,0,0
-658,-363,0,0,0,0,0,0,0,0,0,-1,566,1387,0,0
-651,-363,0,0,0,0,0,0,0,0,0,-1,573,1387,0,0
-644,-363,0,0,0,0,0,0,0,0,0,-1,580,1387,0,0
-637,-363,0,0,0,0,0,0,0,0,0,-1,587,1387,0,0
-630,-363,0,0,0,0,0,0,0,0,0,-1,594,1387,0,0
-623,-363,-9.67566,-5.91846,0,0,0,0,0,0,0,-1,601,1387,-9.67563,5.91847
-616,-363,-9.02985,-2.98083,0,0,0,0,0,0,0,-1,608,1387,-9.02987,2.98079
-609,-363,-4.90265,0.195679,0,0,0,0,0,0,0,-1,615,1387,-4.90263,-0.195721
-602,-363,-9.65009,3.5321,0,0,0,0,0,0,0,-1,622,1387,-9.65007,-3.53211
-595,-363,-8.00256,3.48853,0,0,0,0,0,0,0,-1,629,1387,-8.00256,-3.48855
-588,-363,-10.8846,4.49768,0,0,0,0,0,0,0,-1,636,1387,-10.8846,-4.49773
-581,-363,-11.7469,5.15161,0,0,0,0,0,0,0,-1,643,1387,-11.747,-5.15167
-574,-363,-12.9163,6.55493,0,0,0,0,0,0,0,-1,650,1387,-12.9163,-6.55496
-567,-363,-13.1489,6.74268,-0.00395085,-0.00193005,-0.00340405,0.000610397,-0.00649129,-0.929668,0.00454468,0.0389717,657,1387,-13.1488,-6.74271
-560,-363,-13.1497,7.20129,-0.00259637,-0.00133626,-0.00237161,0.000487556,-0.00442019,-0.915232,0.00312202,0.0136014,664,1387,-13.1496,-7.20131
-553,-363,-13.1587,7.73828,-0.00110802,-0.000765946,-0.0013453,0.000419149,-0.00229312,-0.848627,0.00168592,0.0130989,671,1387,-13.1587,-7.73827
-546,-363,-13.1716,8.229,0.000379228,-0.000291599,-0.000366567,0.000540678,-0.000453049,-0.414874,0.000574472,0.0135192,678,1387,-13.1716,-8.22898
-539,-363,-13.1447,8.74255,0.00184406,0.000130836,0.000563886,0.002013,-3.81015e-05,0.291085,0.00135488,0.0150728,685,1387,-13.1447,-8.74256
-532,-363,-13.1837,9.24524,0.00330947,0.000528909,0.00148924,0.00395652,-0.00011814,0.409875,0.00267793,0.0122349,692,1387,-13.1837,-9.24525
-525,-363,-13.201,9.72314,0.00486176,0.000995514,0.00249612,0.00608579,-0.000228511,0.455914,0.00413547,0.0108066,699,1387,-13.201,-9.72314
-518,-363,-13.1885,10.2233,0.00644014,0.00145225,0.00352345,0.00826295,-0.00037057,0.477423,0.00563622,0.00995534,706,1387,-13.1885,-10.2233
-511,-363,-13.1628,10.7301,0.00799404,0.001988,0.00458623,0.010473,-0.00049092,0.49553,0.00715123,0.023596,713,1387,-13.1628,-10.7301
-504,-363,-12.7914,11.3655,0,0,0,0,0,0,0,-1,720,1387,-12.7915,-11.3655
-497,-363,-7.18842,7.29944,0,0,0,0,0,0,0,-1,727,1387,-7.18839,-7.29945
-490,-363,-5.42413,4.6958,0,0,0,0,0,0,0,-1,734,1387,-5.42412,-4.69583
-483,-363,-6.28375,4.1394,0,0,0,0,0,0,0,-1,741,1387,-6.28374,-4.13944
-476,-363,-5.83807,4.31018,0,0,0,0,0,0,0,-1,748,1387,-5.8381,-4.31013
-469,-363,-10.7125,0.697754,0,0,0,0,0,0,0,-1,755,1387,-10.7125,-0.697811
-462,-363,-9.55951,-0.0830078,0,0,0,0,0,0,0,-1,762,1387,-9.55949,0.0830163
-455,-363,-13.1008,-0.290894,0,0,0,0,0,0,0,-1,769,1387,-13.1008,0.290921
-448,-363,-11.7324,2.46606,0,0,0,0,0,0,0,-1,776,1387,-11.7324,-2.46605
-441,-363,-12.4464,2.5354,0,0,0,0,0,0,0,-1,783,1387,-12.4463,-2.53537
-434,-363,-13.6918,2.14661,0,0,0,0,0,0,0,-1,790,1387,-13.6918,-2.14662
-427,-363,0,0,0,0,0,0,0,0,0,-1,797,1387,0,0
-420,-363,0,0,0,0,0,0,0,0,0,-1,804,1387,0,0
-413,-363,0,0,0,0,0,0,0,0,0,-1,811,1387,0,0
-406,-363,0,0,0,0,0,0,0,0,0,-1,818,1387,0,0
-399,-363,0,0,0,0,0,0,0,0,0,-1,825,1387,0,0
-392,-363,0,0,0,0,0,0,0,0,0,-1,832,1387,0,0
-385,-363,0,0,0,0,0,0,0,0,0,-1,839,1387,0,0
-378,-363,0,0,0,0,0,0,0,0,0,-1,846,1387,0,0
-371,-363,0,0,0,0,0,0,0,0,0,-1,853,1387,0,0
-364,-363,0,0,0,0,0,0,0,0,0,-1,860,1387,0,0
-357,-363,0,0,0,0,0,0,0,0,0,-1,867,1387,0,0
-350,-363,0,0,0,0,0,0,0,0,0,-1,874,1387,0,0
-343,-363,0,0,0,0,0,0,0,0,0,-1,881,1387,0,0
-336,-363,0,0,0,0,0,0,0,0,0,-1,888,1387,0,0
-329,-363,0,0,0,0,0,0,0,0,0,-1,895,1387,0,0
-322,-363,0,0,0,0,0,0,0,0,0,-1,902,1387,0,0
-315,-363,0,0,0,0,0,0,0,0,0,-1,909,1387,0,0
-308,-363,0,0,0,0,0,0,0,0,0,-1,916,1387,0,0
-301,-363,0,0,0,0,0,0,0,0,0,-1,923,1387,0,0
-294,-363,0,0,0,0,0,0,0,0,0,-1,930,1387,0,0
-287,-363,0,0,0,0,0,0,0,0,0,-1,937,1387,0,0
-280,-363,0,0,0,0,0,0,0,0,0,-1,944,1387,0,0
-273,-363,0,0,0,0,0,0,0,0,0,-1,951,1387,0,0
-266,-363,0,0,0,0,0,0,0,0,0,-1,958,1387,0,0
-259,-363,0,0,0,0,0,0,0,0,0,-1,965,1387,0,0
-252,-363,0,0,0,0,0,0,0,0,0,-1,972,1387,0,0
-245,-363,0,0,0,0,0,0,0,0,0,-1,979,1387,0,0
-238,-363,0,0,0,0,0,0,0,0,0,-1,986,1387,0,0
-231,-363,0,0,0,0,0,0,0,0,0,-1,993,1387,0,0
-224,-363,0,0,0,0,0,0,0,0,0,-1,1000,1387,0,0
-217,-363,0,0,0,0,0,0,0,0,0,-1,1007,1387,0,0
-210,-363,0,0,0,0,0,0,0,0,0,-1,1014,1387,0,0
-203,-363,0,0,0,0,0,0,0,0,0,-1,1021,1387,0,0
-196,-363,0,0,0,0,0,0,0,0,0,-1,1028,1387,0,0
-189,-363,0,0,0,0,0,0,0,0,0,-1,1035,1387,0,0
-182,-363,0,0,0,0,0,0,0,0,0,-1,1042,1387,0,0
-175,-363,0,0,0,0,0,0,0,0,0,-1,1049,1387,0,0
-168,-363,0,0,0,0,0,0,0,0,0,-1,1056,1387,0,0
-161,-363,0,0,0,0,0,0,0,0,0,-1,1063,1387,0,0
-154,-363,0,0,0,0,0,0,0,0,0,-1,1070,1387,0,0
-147,-363,0,0,0,0,0,0,0,0,0,-1,1077,1387,0,0
-140,-363,0,0,0,0,0,0,0,0,0,-1,1084,1387,0,0
-133,-363,0,0,0,0,0,0,0,0,0,-1,1091,1387,0,0
-126,-363,0,0,0,0,0,0,0,0,0,-1,1098,1387,0,0
-119,-363,0,0,0,0,0,0,0,0,0,-1,1105,1387,0,0
-112,-363,0,0,0,0,0,0,0,0,0,-1,1112,1387,0,0
-105,-363,0,0,0,0,0,0,0,0,0,-1,1119,1387,0,0
-98,-363,0,0,0,0,0,0,0,0,0,-1,1126,1387,0,0
-91,-363,0,0,0,0,0,0,0,0,0,-1,1133,1387,0,0
-84,-363,0,0,0,0,0,0,0,0,0,-1,1140,1387,0,0
-77,-363,0,0,0,0,0,0,0,0,0,-1,1147,1387,0,0
-70,-363,0,0,0,0,0,0,0,0,0,-1,1154,1387,0,0
-63,-363,0,0,0,0,0,0,0,0,0,-1,1161,1387,0,0
-56,-363,0,0,0,0,0,0,0,0,0,-1,1168,1387,0,0
-49,-363,0,0,0,0,0,0,0,0,0,-1,1175,1387,0,0
-42,-363,0,0,0,0,0,0,0,0,0,-1,1182,1387,0,0
-35,-363,0,0,0,0,0,0,0,0,0,-1,1189,1387,0,0
-28,-363,0,0,0,0,0,0,0,0,0,-1,1196,1387,0,0
-21,-363,0,0,0,0,0,0,0,0,0,-1,1203,1387,0,0
-14,-363,0,0,0,0,0,0,0,0,0,-1,1210,1387,0,0
-7,-363,0,0,0,0,0,0,0,0,0,-1,1217,1387,0,0
0,-363,0,0,0,0,0,0,0,0,0,-1,1224,1387,0,0
7,-363,0,0,0,0,0,0,0,0,0,-1,1231,1387,0,0
14,-363,0,0,0,0,0,0,0,0,0,-1,1238,1387,0,0
21,-363,0,0,0,0,0,0,0,0,0,-1,1245,1387,0,0
28,-363,0,0,0,0,0,0,0,0,0,-1,1252,1387,0,0
35,-363,0,0,0,0,0,0,0,0,0,-1,1259,1387,0,0
42,-363,0,0,0,0,0,0,0,0,0,-1,1266,1387,0,0
49,-363,0,0,0,0,0,0,0,0,0,-1,1273,1387,0,0
56,-363,0,0,0,0,0,0,0,0,0,-1,1280,1387,0,0
63,-363,0,0,0,0,0,0,0,0,0,-1,1287,1387,0,0
70,-363,0,0,0,0,0,0,0,0,0,-1,1294,1387,0,0
77,-363,0,0,0,0,0,0,0,0,0,-1,1301,1387,0,0
84,-363,0,0,0,0,0,0,0,0,0,-1,1308,1387,0,0
91,-363,0,0,0,0,0,0,0,0,0,-1,1315,1387,0,0
98,-363,0,0,0,0,0,0,0,0,0,-1,1322,1387,0,0
105,-363,0,0,0,0,0,0,0,0,0,-1,1329,1387,0,0
112,-363,0,0,0,0,0,0,0,0,0,-1,1336,1387,0,0
119,-363,0,0,0,0,0,0,0,0,0,-1,1343,1387,0,0
126,-363,0,0,0,0,0,0,0,0,0,-1,1350,1387,0,0
133,-363,0,0,0,0,0,0,0,0,0,-1,1357,1387,0,0
140,-363,0,0,0,0,0,0,0,0,0,-1,1364,1387,0,0
147,-363,0,0,0,0,0,0,0,0,0,-1,1371,1387,0,0
154,-363,0,0,0,0,0,0,0,0,0,-1,1378,1387,0,0
161,-363,0,0,0,0,0,0,0,0,0,-1,1385,1387,0,0
168,-363,0,0,0,0,0,0,0,0,0,-1,1392,1387,0,0
175,-363,0,0,0,0,0,0,0,0,0,-1,1399,1387,0,0
182,-363,0,0,0,0,0,0,0,0,0,-1,1406,1387,0,0
189,-363,0,0,0,0,0,0,0,0,0,-1,1413,1387,0,0
196,-363,0,0,0,0,0,0,0,0,0,-1,1420,1387,0,0
203,-363,0,0,0,0,0,0,0,0,0,-1,1427,1387,0,0
210,-363,0,0,0,0,0,0,0,0,0,-1,1434,1387,0,0
217,-363,0,0,0,0,0,0,0,0,0,-1,1441,1387,0,0
224,-363,0,0,0,0,0,0,0,0,0,-1,1448,1387,0,0
231,-363,0,0,0,0,0,0,0,0,0,-1,1455,1387,0,0
238,-363,0,0,0,0,0,0,0,0,0,-1,1462,1387,0,0
245,-363,0,0,0,0,0,0,0,0,0,-1,1469,1387,0,0
252,-363,0,0,0,0,0,0,0,0,0,-1,1476,1387,0,0
259,-363,0,0,0,0,0,0,0,0,0,-1,1483,1387,0,0
266,-363,0,0,0,0,0,0,0,0,0,-1,1490,1387,0,0
273,-363,0,0,0,0,0,0,0,0,0,-1,1497,1387,0,0
280,-363,0,0,0,0,0,0,0,0,0,-1,1504,1387,0,0
287,-363,0,0,0,0,0,0,0,0,0,-1,1511,1387,0,0
294,-363,0,0,0,0,0,0,0,0,0,-1,1518,1387,0,0
301,-363,0,0,0,0,0,0,0,0,0,-1,1525,1387,0,0
308,-363,0,0,0,0,0,0,0,0,0,-1,1532,1387,0,0
315,-363,0,0,0,0,0,0,0,0,0,-1,1539,1387,0,0
322,-363,0,0,0,0,0,0,0,0,0,-1,1546,1387,0,0
329,-363,0,0,0,0,0,0,0,0,0,-1,1553,1387,0,0
336,-363,0,0,0,0,0,0,0,0,0,-1,1560,1387,0,0
343,-363,0,0,0,0,0,0,0,0,0,-1,1567,1387,0,0
350,-363,0,0,0,0,0,0,0,0,0,-1,1574,1387,0,0
357,-363,0,0,0,0,0,0,0,0,0,-1,1581,1387,0,0
364,-363,0,0,0,0,0,0,0,0,0,-1,1588,1387,0,0
371,-363,0,0,0,0,0,0,0,0,0,-1,1595,1387,0,0
378,-363,0,0,0,0,0,0,0,0,0,-1,1602,1387,0,0
385,-363,0,0,0,0,0,0,0,0,0,-1,1609,1387,0,0
392,-363,0,0,0,0,0,0,0,0,0,-1,1616,1387,0,0
399,-363,0,0,0,0,0,0,0,0,0,-1,1623,1387,0,0
406,-363,0,0,0,0,0,0,0,0,0,-1,1630,1387,0,0
413,-363,0,0,0,0,0,0,0,0,0,-1,1637,1387,0,0
420,-363,0,0,0,0,0,0,0,0,0,-1,1644,1387,0,0
427,-363,0,0,0,0,0,0,0,0,0,-1,1651,1387,0,0
434,-363,0,0,0,0,0,0,0,0,0,-1,1658,1387,0,0
441,-363,0,0,0,0,0,0,0,0,0,-1,1665,1387,0,0
448,-363,0,0,0,0,0,0,0,0,0,-1,1672,1387,0,0
455,-363,0,0,0,0,0,0,0,0,0,-1,1679,1387,0,0
462,-363,0,0,0,0,0,0,0,0,0,-1,1686,1387,0,0
469,-363,0,0,0,0,0,0,0,0,0,-1,1693,1387,0,0
476,-363,0,0,0,0,0,0,0,0,0,-1,1700,1387,0,0
483,-363,0,0,0,0,0,0,0,0,0,-1,1707,1387,0,0
490,-363,0,0,0,0,0,0,0,0,0,-1,1714,1387,0,0
497,-363,0,0,0,0,0,0,0,0,0,-1,1721,1387,0,0
504,-363,0,0,0,0,0,0,0,0,0,-1,1728,1387,0,0
511,-363,0,0,0,0,0,0,0,0,0,-1,1735,1387,0,0
518,-363,0,0,0,0,0,0,0,0,0,-1,1742,1387,0,0
525,-363,0,0,0,0,0,0,0,0,0,-1,1749,1387,0,0
532,-363,0,0,0,0,0,0,0,0,0,-1,1756,1387,0,0
539,-363,0,0,0,0,0,0,0,0,0,-1,1763,1387,0,0
546,-363,0,0,0,0,0,0,0,0,0,-1,1770,1387,0,0
553,-363,45.9076,3.64331,0,0,0,0,0,0,0,-1,1777,1387,45.9076,-3.64336
560,-363,45.9459,3.6875,-0.0113055,0.0192493,-0.00326485,0.0195943,-0.0116505,-1.46553,0.0182324,0.0445977,1784,1387,45.9459,-3.68756
567,-363,45.9266,3.32825,-0.00662727,0.0184649,-0.00457341,0.0192725,-0.00743485,-1.39602,0.0159164,0.046231,1791,1387,45.9266,-3.32824
574,-363,45.7261,2.8075,0,0,0,0,0,0,0,-1,1798,1387,45.7261,-2.80754
581,-363,39.2413,1.97632,0,0,0,0,0,0,0,-1,1805,1387,39.2413,-1.97636
588,-363,32.5608,6.72131,0,0,0,0,0,0,0,-1,1812,1387,32.5608,-6.72131
595,-363,31.4688,6.95435,0,0,0,0,0,0,0,-1,1819,1387,31.4688,-6.95431
602,-363,25.7437,5.33667,0,0,0,0,0,0,0,-1,1826,1387,25.7437,-5.33667
609,-363,27.7048,7.06885,0,0,0,0,0,0,0,-1,1833,1387,27.7048,-7.06882
616,-363,16.229,1.08704,0,0,0,0,0,0,0,-1,1840,1387,16.229,-1.08706
623,-363,15.7283,7.16663,0,0,0,0,0,0,0,-1,1847,1387,15.7282,-7.16665
630,-363,18.3192,9.27844,0,0,0,0,0,0,0,-1,1854,1387,18.3192,-9.27843
637,-363,26.6165,13.0997,0,0,0,0,0,0,0,-1,1861,1387,26.6164,-13.0998
644,-363,26.6809,12.5453,-0.00192898,-0.000281,-0.00417152,0.00314713,-0.00535712,-0.882907,0.00496489,0.0142398,1868,1387,26.6809,-12.5453
651,-363,26.7148,12.0292,-0.000775209,7.67446e-05,-0.00168534,0.0013891,-0.00208757,-0.909183,0.00202071,0.0106094,1875,1387,26.7148,-12.0292
658,-363,26.6956,11.5549,0.000269492,0.00013948,-0.000763979,0.000971226,-0.000562253,-0.742956,0.000895788,0.0119128,1882,1387,26.6956,-11.5549
665,-363,26.6666,11.1565,0.000876248,-4.70533e-05,-0.00043151,0.00104652,-0.000217322,-0.375832,0.000780272,0.0127912,1889,1387,26.6666,-11.1565
672,-363,26.6439,10.74,0.00112125,-0.000318454,-9.5496e-05,0.00112756,-0.000324761,-0.0659451,0.000880163,0.0146556,1896,1387,26.6439,-10.74
679,-363,26.6276,10.3004,0.00144611,-0.000542248,0.00015516,0.00145815,-0.000554283,0.0774099,0.0012003,0.0153042,1903,1387,26.6275,-10.3004
686,-363,26.6216,9.83508,0.00181638,-0.000778111,0.000355985,0.00186434,-0.000826069,0.133912,0.0015914,0.0146861,1910,1387,26.6215,-9.83509
693,-363,26.6282,9.36475,0.00219884,-0.00100265,0.000513133,0.00227908,-0.00108289,0.155104,0.00198156,0.0131351,1917,1387,26.6282,-9.36477
700,-363,26.746,8.86487,0.0026178,-0.0011881,0.000622419,0.00271701,-0.00128731,0.158056,0.0023605,0.0243839,1924,1387,26.746,-8.86489
707,-363,26.9589,8.40576,0,0,0,0,0,0,0,-1,1931,1387,26.9589,-8.4058
714,-363,16.5782,5.3147,0,0,0,0,0,0,0,-1,1938,1387,16.5783,-5.31472
721,-363,14.4045,4.51685,0,0,0,0,0,0,0,-1,1945,1387,14.4045,-4.51685
728,-363,19.9756,0.853027,0,0,0,0,0,0,0,-1,1952,1387,19.9756,-0.853059
735,-363,21.4297,1.2981,0,0,0,0,0,0,0,-1,1959,1387,21.4297,-1.29811
742,-363,21.3621,2.79663,0,0,0,0,0,0,0,-1,1966,1387,21.362,-2.7966
749,-363,0,0,0,0,0,0,0,0,0,-1,1973,1387,0,0
756,-363,0,0,0,0,0,0,0,0,0,-1,1980,1387,0,0
763,-363,0,0,0,0,0,0,0,0,0,-1,1987,1387,0,0
770,-363,0,0,0,0,0,0,0,0,0,-1,1994,1387,0,0
777,-363,0,0,0,0,0,0,0,0,0,-1,2001,1387,0,0
784,-363,0,0,0,0,0,0,0,0,0,-1,2008,1387,0,0
791,-363,0,0,0,0,0,0,0,0,0,-1,2015,1387,0,0
798,-363,0,0,0,0,0,0,0,0,0,-1,2022,1387,0,0
805,-363,0,0,0,0,0,0,0,0,0,-1,2029,1387,0,0
812,-363,0,0,0,0,0,0,0,0,0,-1,2036,1387,0,0
-700,-370,0,0,0,0,0,0,0,0,0,-1,524,1394,0,0
-693,-370,0,0,0,0,0,0,0,0,0,-1,531,1394,0,0
-686,-370,0,0,0,0,0,0,0,0,0,-1,538,1394,0,0
-679,-370,0,0,0,0,0,0,0,0,0,-1,545,1394,0,0
-672,-370,0,0,0,0,0,0,0,0,0,-1,552,1394,0,0
-665,-370,0,0,0,0,0,0,0,0,0,-1,559,1394,0,0
-658,-370,0,0,0,0,0,0,0,0,0,-1,566,1394,0,0
-651,-370,0,0,0,0,0,0,0,0,0,-1,573,1394,0,0
-644,-370,0,0,0,0,0,0,0,0,0,-1,580,1394,0,0
-637,-370,0,0,0,0,0,0,0,0,0,-1,587,1394,0,0
-630,-370,0,0,0,0,0,0,0,0,0,-1,594,1394,0,0
-623,-370,-10.1758,-7.10486,0,0,0,0,0,0,0,-1,601,1394,-10.1758,7.10483
-616,-370,-8.85925,-1.61475,0,0,0,0,0,0,0,-1,608,1394,-8.85925,1.61476
-609,-370,-5.39325,0.0421143,0,0,0,0,0,0,0,-1,615,1394,-5.39328,-0.0421372
-602,-370,-12.3151,3.44592,0,0,0,0,0,0,0,-1,622,1394,-12.3151,-3.44595
-595,-370,-7.53284,5.44214,0,0,0,0,0,0,0,-1,629,1394,-7.53284,-5.44216
-588,-370,-11.2422,4.50598,0,0,0,0,0,0,0,-1,636,1394,-11.2422,-4.50596
-581,-370,-11.5608,5.52661,0,0,0,0,0,0,0,-1,643,1394,-11.5608,-5.52666
-574,-370,-12.1719,6.29749,0,0,0,0,0,0,0,-1,650,1394,-12.1719,-6.29749
-567,-370,-12.4447,6.85864,-0.00537215,-0.00245964,-0.00410288,0.000437757,-0.00826954,-0.955931,0.00566459,0.0483182,657,1394,-12.4447,-6.85869
-560,-370,-12.6889,7.20178,-0.00375362,-0.00171712,-0.00296036,0.000395218,-0.00586596,-0.95104,0.00404881,0.0232881,664,1394,-12.6889,-7.20174
-553,-370,-12.6531,7.75769,-0.00209237,-0.00103316,-0.00187202,0.000382729,-0.00350826,-0.92325,0.00247629,0.010427,671,1394,-12.6531,-7.75771
-546,-370,-12.644,8.26575,-0.000505194,-0.000493513,-0.000851259,0.000351925,-0.00135063,-0.788829,0.00103781,0.0144341,678,1394,-12.644,-8.2657
-539,-370,-12.6478,8.80261,0.000996671,-2.39489e-05,9.12132e-05,0.00100476,-3.20366e-05,0.0884365,0.000680769,0.0188766,685,1394,-12.6478,-8.80257
-532,-370,-12.7054,9.25391,0.00245626,0.000415228,0.00101146,0.00287258,-1.09058e-06,0.390469,0.00191542,0.0192306,692,1394,-12.7054,-9.25394
-525,-370,-12.6957,9.71582,0.00395521,0.000927587,0.00200692,0.00495523,-7.24355e-05,0.462276,0.0033279,0.0154727,699,1394,-12.6957,-9.71584
-518,-370,-12.6921,10.1987,0.00547744,0.00151443,0.00307464,0.00715378,-0.000161903,0.49916,0.00482406,0.0115508,706,1394,-12.6921,-10.1987
-511,-370,-12.6968,10.7209,0.00697711,0.00216666,0.0041725,0.00938798,-0.00024422,0.523937,0.00634163,0.0147293,713,1394,-12.6968,-10.721
-504,-370,-12.556,11.2861,0.00863347,0.00316264,0.00559546,0.0121263,-0.000330235,0.558049,0.00819653,0.0493756,720,1394,-12.556,-11.2861
-497,-370,-12.3546,11.7982,0,0,0,0,0,0,0,-1,727,1394,-12.3546,-11.7983
-490,-370,-5.30695,4.5271,0,0,0,0,0,0,0,-1,734,1394,-5.30698,-4.52704
-483,-370,-6.02997,4.59253,0,0,0,0,0,0,0,-1,741,1394,-6.02994,-4.5925
-476,-370,-6.75293,4.65796,0,0,0,0,0,0,0,-1,748,1394,-6.7529,-4.65795
-469,-370,-10.584,1.14294,0,0,0,0,0,0,0,-1,755,1394,-10.584,-1.14293
-462,-370,-9.54462,0.387207,0,0,0,0,0,0,0,-1,762,1394,-9.5446,-0.387176
-455,-370,-8.50525,-0.36853,0,0,0,0,0,0,0,-1,769,1394,-8.50523,0.368582
-448,-370,-10.9543,2.28833,0,0,0,0,0,0,0,-1,776,1394,-10.9543,-2.28835
-441,-370,-11.8699,1.8313,0,0,0,0,0,0,0,-1,783,1394,-11.8699,-1.83127
-434,-370,-12.7855,1.37415,0,0,0,0,0,0,0,-1,790,1394,-12.7855,-1.37419
-427,-370,0,0,0,0,0,0,0,0,0,-1,797,1394,0,0
-420,-370,0,0,0,0,0,0,0,0,0,-1,804,1394,0,0
-413,-370,0,0,0,0,0,0,0,0,0,-1,811,1394,0,0
-406,-370,0,0,0,0,0,0,0,0,0,-1,818,1394,0,0
-399,-370,0,0,0,0,0,0,0,0,0,-1,825,1394,0,0
-392,-370,0,0,0,0,0,0,0,0,0,-1,832,1394,0,0
-385,-370,0,0,0,0,0,0,0,0,0,-1,839,1394,0,0
-378,-370,0,0,0,0,0,0,0,0,0,-1,846,1394,0,0
-371,-370,0,0,0,0,0,0,0,0,0,-1,853,1394,0,0
-364,-370,0,0,0,0,0,0,0,0,0,-1,860,1394,0,0
-357,-370,0,0,0,0,0,0,0,0,0,-1,867,1394,0,0
-350,-370,0,0,0,0,0,0,0,0,0,-1,874,1394,0,0
-343,-370,0,0,0,0,0,0,0,0,0,-1,881,1394,0,0
-336,-370,0,0,0,0,0,0,0,0,0,-1,888,1394,0,0
-329,-370,0,0,0,0,0,0,0,0,0,-1,895,1394,0,0
-322,-370,0,0,0,0,0,0,0,0,0,-1,902,1394,0,0
-315,-370,0,0,0,0,0,0,0,0,0,-1,909,1394,0,0
-308,-370,0,0,0,0,0,0,0,0,0,-1,916,1394,0,0
-301,-370,0,0,0,0,0,0,0,0,0,-1,923,1394,0,0
-294,-370,0,0,0,0,0,0,0,0,0,-1,930,1394,0,0
-287,-370,0,0,0,0,0,0,0,0,0,-1,937,1394,0,0
-280,-370,0,0,0,0,0,0,0,0,0,-1,944,1394,0,0
-273,-370,0,0,0,0,0,0,0,0,0,-1,951,1394,0,0
-266,-370,0,0,0,0,0,0,0,0,0,-1,958,1394,0,0
-259,-370,0,0,0,0,0,0,0,0,0,-1,965,1394,0,0
-252,-370,0,0,0,0,0,0,0,0,0,-1,972,1394,0,0
-245,-370,0,0,0,0,0,0,0,0,0,-1,979,1394,0,0
-238,-370,0,0,0,0,0,0,0,0,0,-1,986,1394,0,0
-231,-370,0,0,0,0,0,0,0,0,0,-1,993,1394,0,0
-224,-370,0,0,0,0,0,0,0,0,0,-1,1000,1394,0,0
-217,-370,0,0,0,0,0,0,0,0,0,-1,1007,1394,0,0
-210,-370,0,0,0,0,0,0,0,0,0,-1,1014,1394,0,0
-203,-370,0,0,0,0,0,0,0,0,0,-1,1021,1394,0,0
-196,-370,0,0,0,0,0,0,0,0,0,-1,1028,1394,0,0
-189,-370,0,0,0,0,0,0,0,0,0,-1,1035,1394,0,0
-182,-370,0,0,0,0,0,0,0,0,0,-1,1042,1394,0,0
-175,-370,0,0,0,0,0,0,0,0,0,-1,1049,1394,0,0
-168,-370,0,0,0,0,0,0,0,0,0,-1,1056,1394,0,0
-161,-370,0,0,0,0,0,0,0,0,0,-1,1063,1394,0,0
-154,-370,0,0,0,0,0,0,0,0,0,-1,1070,1394,0,0
-147,-370,0,0,0,0,0,0,0,0,0,-1,1077,1394,0,0
-140,-370,0,0,0,0,0,0,0,0,0,-1,1084,1394,0,0
-133,-370,0,0,0,0,0,0,0,0,0,-1,1091,1394,0,0
-126,-370,0,0,0,0,0,0,0,0,0,-1,1098,1394,0,0
-119,-370,0,0,0,0,0,0,0,0,0,-1,1105,1394,0,0
-112,-370,0,0,0,0,0,0,0,0,0,-1,1112,1394,0,0
-105,-370,0,0,0,0,0,0,0,0,0,-1,1119,1394,0,0
-98,-370,0,0,0,0,0,0,0,0,0,-1,1126,1394,0,0
-91,-370,0,0,0,0,0,0,0,0,0,-1,1133,1394,0,0
-84,-370,0,0,0,0,0,0,0,0,0,-1,1140,1394,0,0
-77,-370,0,0,0,0,0,0,0,0,0,-1,1147,1394,0,0
-70,-370,0,0,0,0,0,0,0,0,0,-1,1154,1394,0,0
-63,-370,0,0,0,0,0,0,0,0,0,-1,1161,1394,0,0
-56,-370,0,0,0,0,0,0,0,0,0,-1,1168,1394,0,0
-49,-370,0,0,0,0,0,0,0,0,0,-1,1175,1394,0,0
-42,-370,0,0,0,0,0,0,0,0,0,-1,1182,1394,0,0
-35,-370,0,0,0,0,0,0,0,0,0,-1,1189,1394,0,0
-28,-370,0,0,0,0,0,0,0,0,0,-1,1196,1394,0,0
-21,-370,0,0,0,0,0,0,0,0,0,-1,1203,1394,0,0
-14,-370,0,0,0,0,0,0,0,0,0,-1,1210,1394,0,0
-7,-370,0,0,0,0,0,0,0,0,0,-1,1217,1394,0,0
0,-370,0,0,0,0,0,0,0,0,0,-1,1224,1394,0,0
7,-370,0,0,0,0,0,0,0,0,0,-1,1231,1394,0,0
14,-370,0,0,0,0,0,0,0,0,0,-1,1238,1394,0,0
21,-370,0,0,0,0,0,0,0,0,0,-1,1245,1394,0,0
28,-370,0,0,0,0,0,0,0,0,0,-1,1252,1394,0,0
35,-370,0,0,0,0,0,0,0,0,0,-1,1259,1394,0,0
42,-370,0,0,0,0,0,0,0,0,0,-1,1266,1394,0,0
49,-370,0,0,0,0,0,0,0,0,0,-1,1273,1394,0,0
56,-370,0,0,0,0,0,0,0,0,0,-1,1280,1394,0,0
63,-370,0,0,0,0,0,0,0,0,0,-1,1287,1394,0,0
70,-370,0,0,0,0,0,0,0,0,0,-1,1294,1394,0,0
77,-370,0,0,0,0,0,0,0,0,0,-1,1301,1394,0,0
84,-370,0,0,0,0,0,0,0,0,0,-1,1308,1394,0,0
91,-370,0,0,0,0,0,0,0,0,0,-1,1315,1394,0,0
98,-370,0,0,0,0,0,0,0,0,0,-1,1322,1394,0,0
105,-370,0,0,0,0,0,0,0,0,0,-1,1329,1394,0,0
112,-370,0,0,0,0,0,0,0,0,0,-1,1336,1394,0,0
119,-370,0,0,0,0,0,0,0,0,0,-1,1343,1394,0,0
126,-370,0,0,0,0,0,0,0,0,0,-1,1350,1394,0,0
133,-370,0,0,0,0,0,0,0,0,0,-1,1357,1394,0,0
140,-370,0,0,0,0,0,0,0,0,0,-1,1364,1394,0,0
147,-370,0,0,0,0,0,0,0,0,0,-1,1371,1394,0,0
154,-370,0,0,0,0,0,0,0,0,0,-1,1378,1394,0,0
161,-370,0,0,0,0,0,0,0,0,0,-1,1385,1394,0,0
168,-370,0,0,0,0,0,0,0,0,0,-1,1392,1394,0,0
175,-370,0,0,0,0,0,0,0,0,0,-1,1399,1394,0,0
182,-370,0,0,0,0,0,0,0,0,0,-1,1406,1394,0,0
189,-370,0,0,0,0,0,0,0,0,0,-1,1413,1394,0,0
196,-370,0,0,0,0,0,0,0,0,0,-1,1420,1394,0,0
203,-370,0,0,0,0,0,0,0,0,0,-1,1427,1394,0,0
210,-370,0,0,0,0,0,0,0,0,0,-1,1434,1394,0,0
217,-370,0,0,0,0,0,0,0,0,0,-1,1441,1394,0,0
224,-370,0,0,0,0,0,0,0,0,0,-1,1448,1394,0,0
231,-370,0,0,0,0,0,0,0,0,0,-1,1455,1394,0,0
238,-370,0,0,0,0,0,0,0,0,0,-1,1462,1394,0,0
245,-370,0,0,0,0,0,0,0,0,0,-1,1469,1394,0,0
252,-370,0,0,0,0,0,0,0,0,0,-1,1476,1394,0,0
259,-370,0,0,0,0,0,0,0,0,0,-1,1483,1394,0,0
266,-370,0,0,0,0,0,0,0,0,0,-1,1490,1394,0,0
273,-370,0,0,0,0,0,0,0,0,0,-1,1497,1394,0,0
280,-370,0,0,0,0,0,0,0,0,0,-1,1504,1394,0,0
287,-370,0,0,0,0,0,0,0,0,0,-1,1511,1394,0,0
294,-370,0,0,0,0,0,0,0,0,0,-1,1518,1394,0,0
301,-370,0,0,0,0,0,0,0,0,0,-1,1525,1394,0,0
308,-370,0,0,0,0,0,0,0,0,0,-1,1532,1394,0,0
315,-370,0,0,0,0,0,0,0,0,0,-1,1539,1394,0,0
322,-370,0,0,0,0,0,0,0,0,0,-1,1546,1394,0,0
329,-370,0,0,0,0,0,0,0,0,0,-1,1553,1394,0,0
336,-370,0,0,0,0,0,0,0,0,0,-1,1560,1394,0,0
343,-370,0,0,0,0,0,0,0,0,0,-1,1567,1394,0,0
350,-370,0,0,0,0,0,0,0,0,0,-1,1574,1394,0,0
357,-370,0,0,0,0,0,0,0,0,0,-1,1581,1394,0,0
364,-370,0,0,0,0,0,0,0,0,0,-1,1588,1394,0,0
371,-370,0,0,0,0,0,0,0,0,0,-1,1595,1394,0,0
378,-370,0,0,0,0,0,0,0,0,0,-1,1602,1394,0,0
385,-370,0,0,0,0,0,0,0,0,0,-1,1609,1394,0,0
392,-370,0,0,0,0,0,0,0,0,0,-1,1616,1394,0,0
399,-370,0,0,0,0,0,0,0,0,0,-1,1623,1394,0,0
406,-370,0,0,0,0,0,0,0,0,0,-1,1630,1394,0,0
413,-370,0,0,0,0,0,0,0,0,0,-1,1637,1394,0,0
420,-370,0,0,0,0,0,0,0,0,0,-1,1644,1394,0,0
427,-370,0,0,0,0,0,0,0,0,0,-1,1651,1394,0,0
434,-370,0,0,0,0,0,0,0,0,0,-1,1658,1394,0,0
441,-370,0,0,0,0,0,0,0,0,0,-1,1665,1394,0,0
448,-370,0,0,0,0,0,0,0,0,0,-1,1672,1394,0,0
455,-370,0,0,0,0,0,0,0,0,0,-1,1679,1394,0,0
462,-370,0,0,0,0,0,0,0,0,0,-1,1686,1394,0,0
469,-370,0,0,0,0,0,0,0,0,0,-1,1693,1394,0,0
476,-370,0,0,0,0,0,0,0,0,0,-1,1700,1394,0,0
483,-370,0,0,0,0,0,0,0,0,0,-1,1707,1394,0,0
490,-370,0,0,0,0,0,0,0,0,0,-1,1714,1394,0,0
497,-370,0,0,0,0,0,0,0,0,0,-1,1721,1394,0,0
504,-370,0,0,0,0,0,0,0,0,0,-1,1728,1394,0,0
511,-370,0,0,0,0,0,0,0,0,0,-1,1735,1394,0,0
518,-370,0,0,0,0,0,0,0,0,0,-1,1742,1394,0,0
525,-370,0,0,0,0,0,0,0,0,0,-1,1749,1394,0,0
532,-370,0,0,0,0,0,0,0,0,0,-1,1756,1394,0,0
539,-370,0,0,0,0,0,0,0,0,0,-1,1763,1394,0,0
546,-370,27.4949,2.81201,0,0,0,0,0,0,0,-1,1770,1394,27.4948,-2.81198
553,-370,26.5985,1.99329,0,0,0,0,0,0,0,-1,1777,1394,26.5985,-1.99327
560,-370,46.0132,3.65686,0,0,0,0,0,0,0,-1,1784,1394,46.0132,-3.65689
567,-370,46.1089,3.11719,0,0,0,0,0,0,0,-1,1791,1394,46.1089,-3.1172
574,-370,38.8953,1.49353,0,0,0,0,0,0,0,-1,1798,1394,38.8952,-1.49348
581,-370,39.178,2.86145,0,0,0,0,0,0,0,-1,1805,1394,39.1779,-2.86145
588,-370,39.2102,4.27661,0,0,0,0,0,0,0,-1,1812,1394,39.2102,-4.27657
595,-370,25.793,4.5271,0,0,0,0,0,0,0,-1,1819,1394,25.793,-4.52711
602,-370,25.1077,5.34937,0,0,0,0,0,0,0,-1,1826,1394,25.1077,-5.34932
609,-370,16.712,0.993286,0,0,0,0,0,0,0,-1,1833,1394,16.7121,-0.99323
616,-370,16.7764,7.23315,0,0,0,0,0,0,0,-1,1840,1394,16.7764,-7.23313
623,-370,17.6625,8.94263,0,0,0,0,0,0,0,-1,1847,1394,17.6624,-8.94258
630,-370,20.9681,11.1785,0,0,0,0,0,0,0,-1,1854,1394,20.9681,-11.1784
637,-370,25.9845,13.2233,0,0,0,0,0,0,0,-1,1861,1394,25.9845,-13.2233
644,-370,26.2562,12.5192,0.000429716,0.000290726,-0.00282241,0.00318349,-0.00246305,-0.773089,0.00326886,0.0121347,1868,1394,26.2562,-12.5192
651,-370,26.2727,12.0548,0.000530412,0.000215914,-0.00119285,0.00157633,-0.000830006,-0.719863,0.0014114,0.011477,1875,1394,26.2727,-12.0548
658,-370,26.2555,11.614,0.000769445,8.51788e-05,-0.00058875,0.00110825,-0.00025363,-0.522188,0.000836299,0.0123947,1882,1394,26.2555,-11.614
665,-370,26.2081,11.1914,0.000990385,-0.000167327,-0.000249613,0.00104191,-0.000218853,-0.203563,0.000777889,0.0140831,1889,1394,26.2082,-11.1914
672,-370,26.1781,10.7476,0.00125608,-0.000435142,6.90782e-05,0.00125889,-0.000437959,0.0407547,0.00101718,0.0150557,1896,1394,26.1781,-10.7475
679,-370,26.2155,10.2645,0.00161716,-0.000680019,0.000319922,0.00166088,-0.000723741,0.135825,0.00141176,0.0138524,1903,1394,26.2154,-10.2645
686,-370,26.2054,9.81567,0.00203194,-0.000986442,0.000548259,0.00212844,-0.00108294,0.174228,0.00188656,0.013476,1910,1394,26.2054,-9.81567
693,-370,26.1798,9.36902,0.00248842,-0.0013072,0.00072952,0.00262381,-0.00144258,0.183493,0.00238052,0.0120907,1917,1394,26.1798,-9.36899
700,-370,26.276,8.86731,0.00303343,-0.00165255,0.000878092,0.00319257,-0.00181169,0.179286,0.00292565,0.030453,1924,1394,26.276,-8.86736
707,-370,26.4653,8.30627,0,0,0,0,0,0,0,-1,1931,1394,26.4653,-8.30627
714,-370,16.9116,5.93018,0,0,0,0,0,0,0,-1,1938,1394,16.9116,-5.93014
721,-370,17.2007,4.69153,0,0,0,0,0,0,0,-1,1945,1394,17.2007,-4.69158
728,-370,20.5315,-0.313354,0,0,0,0,0,0,0,-1,1952,1394,20.5315,0.313332
735,-370,22.3652,0.233398,0,0,0,0,0,0,0,-1,1959,1394,22.3652,-0.233355
742,-370,24.1989,0.780029,0,0,0,0,0,0,0,-1,1966,1394,24.1989,-0.780041
749,-370,0,0,0,0,0,0,0,0,0,-1,1973,1394,0,0
756,-370,0,0,0,0,0,0,0,0,0,-1,1980,1394,0,0
763,-370,0,0,0,0,0,0,0,0,0,-1,1987,1394,0,0
770,-370,0,0,0,0,0,0,0,0,0,-1,1994,1394,0,0
777,-370,0,0,0,0,0,0,0,0,0,-1,2001,1394,0,0
784,-370,0,0,0,0,0,0,0,0,0,-1,2008,1394,0,0
791,-370,0,0,0,0,0,0,0,0,0,-1,2015,1394,0,0
798,-370,0,0,0,0,0,0,0,0,0,-1,2022,1394,0,0
805,-370,0,0,0,0,0,0,0,0,0,-1,2029,1394,0,0
812,-370,0,0,0,0,0,0,0,0,0,-1,2036,1394,0,0
-700,-377,0,0,0,0,0,0,0,0,0,-1,524,1401,0,0
-693,-377,0,0,0,0,0,0,0,0,0,-1,531,1401,0,0
-686,-377,0,0,0,0,0,0,0,0,0,-1,538,1401,0,0
-679,-377,0,0,0,0,0,0,0,0,0,-1,545,1401,0,0
-672,-377,0,0,0,0,0,0,0,0,0,-1,552,1401,0,0
-665,-377,0,0,0,0,0,0,0,0,0,-1,559,1401,0,0
-658,-377,0,0,0,0,0,0,0,0,0,-1,566,1401,0,0
-651,-377,0,0,0,0,0,0,0,0,0,-1,573,1401,0,0
-644,-377,0,0,0,0,0,0,0,0,0,-1,580,1401,0,0
-637,-377,0,0,0,0,0,0,0,0,0,-1,587,1401,0,0
-630,-377,0,0,0,0,0,0,0,0,0,-1,594,1401,0,0
-623,-377,0,0,0,0,0,0,0,0,0,-1,601,1401,0,0
-616,-377,-9.43915,-2.4906,0,0,0,0,0,0,0,-1,608,1401,-9.43915,2.49062
-609,-377,-7.2821,-1.35278,0,0,0,0,0,0,0,-1,615,1401,-7.28208,1.35279
-602,-377,-14.9736,3.98279,0,0,0,0,0,0,0,-1,622,1401,-14.9737,-3.98276
-595,-377,-6.9082,1.18201,0,0,0,0,0,0,0,-1,629,1401,-6.90822,-1.18204
-588,-377,-11.5301,5.19727,0,0,0,0,0,0,0,-1,636,1401,-11.5301,-5.1973
-581,-377,-11.1068,6.05823,0,0,0,0,0,0,0,-1,643,1401,-11.1067,-6.05825
-574,-377,-11.5892,6.40137,0,0,0,0,0,0,0,-1,650,1401,-11.5892,-6.4014
-567,-377,-11.8249,7.02173,0,0,0,0,0,0,0,-1,657,1401,-11.8249,-7.02175
-560,-377,-12.174,7.13257,0,0,0,0,0,0,0,-1,664,1401,-12.174,-7.13261
-553,-377,-12.1656,7.75403,-0.00296404,-0.00120858,-0.00241189,0.000480332,-0.00465295,-0.959908,0.00327384,0.0139821,671,1401,-12.1656,-7.75403
-546,-377,-12.1898,8.3252,-0.00132757,-0.000631162,-0.0013439,0.000408914,-0.00236765,-0.912161,0.00173091,0.0163514,678,1401,-12.1898,-8.32517
-539,-377,-12.1755,8.78687,0.000160514,-0.000146221,-0.000390354,0.000426548,-0.000412256,-0.598216,0.000484307,0.0224882,685,1401,-12.1756,-8.78688
-532,-377,-12.2097,9.2251,0.00156744,0.000301614,0.000521941,0.00175489,0.000114161,0.344801,0.00113379,0.0201403,692,1401,-12.2097,-9.22511
-525,-377,-12.1693,9.73499,0.0029709,0.000812026,0.00148713,0.00372906,5.38684e-05,0.471465,0.00246828,0.0194511,699,1401,-12.1693,-9.73497
-518,-377,-12.2073,10.2189,0.00441767,0.00144601,0.0025528,0.00588556,-2.18791e-05,0.521843,0.00393102,0.0129065,706,1401,-12.2073,-10.2189
-511,-377,-12.2264,10.7352,0.00592054,0.0021971,0.0037165,0.00821554,-9.79085e-05,0.553201,0.00550995,0.0116834,713,1401,-12.2264,-10.7352
-504,-377,-12.2489,11.2515,0.00755523,0.00322006,0.005111,0.0109393,-0.000164003,0.584843,0.00734814,0.0148677,720,1401,-12.2489,-11.2515
-497,-377,-12.2481,11.7385,0,0,0,0,0,0,0,-1,727,1401,-12.2481,-11.7386
-490,-377,-8.88409,10.1245,0,0,0,0,0,0,0,-1,734,1401,-8.8841,-10.1245
-483,-377,-5.6524,5.07324,0,0,0,0,0,0,0,-1,741,1401,-5.6524,-5.07325
-476,-377,-6.11682,5.10535,0,0,0,0,0,0,0,-1,748,1401,-6.11681,-5.10537
-469,-377,-10.3211,1.9281,0,0,0,0,0,0,0,-1,755,1401,-10.3211,-1.92808
-462,-377,-9.2204,1.0022,0,0,0,0,0,0,0,-1,762,1401,-9.22039,-1.00218
-455,-377,-8.11969,0.0762939,0,0,0,0,0,0,0,-1,769,1401,-8.11968,-0.0762759
-448,-377,-9.05334,0.877319,0,0,0,0,0,0,0,-1,776,1401,-9.05332,-0.877324
-441,-377,-11.212,0.763428,0,0,0,0,0,0,0,-1,783,1401,-11.212,-0.763415
-434,-377,-11.0984,0.996216,0,0,0,0,0,0,0,-1,790,1401,-11.0984,-0.996265
-427,-377,-11.1733,1.25732,0,0,0,0,0,0,0,-1,797,1401,-11.1733,-1.25732
-420,-377,0,0,0,0,0,0,0,0,0,-1,804,1401,0,0
-413,-377,0,0,0,0,0,0,0,0,0,-1,811,1401,0,0
-406,-377,0,0,0,0,0,0,0,0,0,-1,818,1401,0,0
-399,-377,0,0,0,0,0,0,0,0,0,-1,825,1401,0,0
-392,-377,0,0,0,0,0,0,0,0,0,-1,832,1401,0,0
-385,-377,0,0,0,0,0,0,0,0,0,-1,839,1401,0,0
-378,-377,0,0,0,0,0,0,0,0,0,-1,846,1401,0,0
-371,-377,0,0,0,0,0,0,0,0,0,-1,853,1401,0,0
-364,-377,0,0,0,0,0,0,0,0,0,-1,860,1401,0,0
-357,-377,0,0,0,0,0,0,0,0,0,-1,867,1401,0,0
-350,-377,0,0,0,0,0,0,0,0,0,-1,874,1401,0,0
-343,-377,0,0,0,0,0,0,0,0,0,-1,881,1401,0,0
-336,-377,0,0,0,0,0,0,0,0,0,-1,888,1401,0,0
-329,-377,0,0,0,0,0,0,0,0,0,-1,895,1401,0,0
-322,-377,0,0,0,0,0,0,0,0,0,-1,902,1401,0,0
-315,-377,0,0,0,0,0,0,0,0,0,-1,909,1401,0,0
-308,-377,0,0,0,0,0,0,0,0,0,-1,916,1401,0,0
-301,-377,0,0,0,0,0,0,0,0,0,-1,923,1401,0,0
-294,-377,0,0,0,0,0,0,0,0,0,-1,930,1401,0,0
-287,-377,0,0,0,0,0,0,0,0,0,-1,937,1401,0,0
-280,-377,0,0,0,0,0,0,0,0,0,-1,944,1401,0,0
-273,-377,0,0,0,0,0,0,0,0,0,-1,951,1401,0,0
-266,-377,0,0,0,0,0,0,0,0,0,-1,958,1401,0,0
-259,-377,0,0,0,0,0,0,0,0,0,-1,965,1401,0,0
-252,-377,0,0,0,0,0,0,0,0,0,-1,972,1401,0,0
-245,-377,0,0,0,0,0,0,0,0,0,-1,979,1401,0,0
-238,-377,0,0,0,0,0,0,0,0,0,-1,986,1401,0,0
-231,-377,0,0,0,0,0,0,0,0,0,-1,993,1401,0,0
-224,-377,0,0,0,0,0,0,0,0,0,-1,1000,1401,0,0
-217,-377,0,0,0,0,0,0,0,0,0,-1,1007,1401,0,0
-210,-377,0,0,0,0,0,0,0,0,0,-1,1014,1401,0,0
-203,-377,0,0,0,0,0,0,0,0,0,-1,1021,1401,0,0
-196,-377,0,0,0,0,0,0,0,0,0,-1,1028,1401,0,0
-189,-377,0,0,0,0,0,0,0,0,0,-1,1035,1401,0,0
-182,-377,0,0,0,0,0,0,0,0,0,-1,1042,1401,0,0
-175,-377,0,0,0,0,0,0,0,0,0,-1,1049,1401,0,0
-168,-377,0,0,0,0,0,0,0,0,0,-1,1056,1401,0,0
-161,-377,0,0,0,0,0,0,0,0,0,-1,1063,1401,0,0
-154,-377,0,0,0,0,0,0,0,0,0,-1,1070,1401,0,0
-147,-377,0,0,0,0,0,0,0,0,0,-1,1077,1401,0,0
-140,-377,0,0,0,0,0,0,0,0,0,-1,1084,1401,0,0
-133,-377,0,0,0,0,0,0,0,0,0,-1,1091,1401,0,0
-126,-377,0,0,0,0,0,0,0,0,0,-1,1098,1401,0,0
-119,-377,0,0,0,0,0,0,0,0,0,-1,1105,1401,0,0
-112,-377,0,0,0,0,0,0,0,0,0,-1,1112,1401,0,0
-105,-377,0,0,0,0,0,0,0,0,0,-1,1119,1401,0,0
-98,-377,0,0,0,0,0,0,0,0,0,-1,1126,1401,0,0
-91,-377,0,0,0,0,0,0,0,0,0,-1,1133,1401,0,0
-84,-377,0,0,0,0,0,0,0,0,0,-1,1140,1401,0,0
-77,-377,0,0,0,0,0,0,0,0,0,-1,1147,1401,0,0
-70,-377,0,0,0,0,0,0,0,0,0,-1,1154,1401,0,0
-63,-377,0,0,0,0,0,0,0,0,0,-1,1161,1401,0,0
-56,-377,0,0,0,0,0,0,0,0,0,-1,1168,1401,0,0
-49,-377,0,0,0,0,0,0,0,0,0,-1,1175,1401,0,0
-42,-377,0,0,0,0,0,0,0,0,0,-1,1182,1401,0,0
-35,-377,0,0,0,0,0,0,0,0,0,-1,1189,1401,0,0
-28,-377,0,0,0,0,0,0,0,0,0,-1,1196,1401,0,0
-21,-377,0,0,0,0,0,0,0,0,0,-1,1203,1401,0,0
-14,-377,0,0,0,0,0,0,0,0,0,-1,1210,1401,0,0
-7,-377,0,0,0,0,0,0,0,0,0,-1,1217,1401,0,0
0,-377,0,0,0,0,0,0,0,0,0,-1,1224,1401,0,0
7,-377,0,0,0,0,0,0,0,0,0,-1,1231,1401,0,0
14,-377,0,0,0,0,0,0,0,0,0,-1,1238,1401,0,0
21,-377,0,0,0,0,0,0,0,0,0,-1,1245,1401,0,0
28,-377,0,0,0,0,0,0,0,0,0,-1,1252,1401,0,0
35,-377,0,0,0,0,0,0,0,0,0,-1,1259,1401,0,0
42,-377,0,0,0,0,0,0,0,0,0,-1,1266,1401,0,0
49,-377,0,0,0,0,0,0,0,0,0,-1,1273,1401,0,0
56,-377,0,0,0,0,0,0,0,0,0,-1,1280,1401,0,0
63,-377,0,0,0,0,0,0,0,0,0,-1,1287,1401,0,0
70,-377,0,0,0,0,0,0,0,0,0,-1,1294,1401,0,0
77,-377,0,0,0,0,0,0,0,0,0,-1,1301,1401,0,0
84,-377,0,0,0,0,0,0,0,0,0,-1,1308,1401,0,0
91,-377,0,0,0,0,0,0,0,0,0,-1,1315,1401,0,0
98,-377,0,0,0,0,0,0,0,0,0,-1,1322,1401,0,0
105,-377,0,0,0,0,0,0,0,0,0,-1,1329,1401,0,0
112,-377,0,0,0,0,0,0,0,0,0,-1,1336,1401,0,0
119,-377,0,0,0,0,0,0,0,0,0,-1,1343,1401,0,0
126,-377,0,0,0,0,0,0,0,0,0,-1,1350,1401,0,0
133,-377,0,0,0,0,0,0,0,0,0,-1,1357,1401,0,0
140,-377,0,0,0,0,0,0,0,0,0,-1,1364,1401,0,0
147,-377,0,0,0,0,0,0,0,0,0,-1,1371,1401,0,0
154,-377,0,0,0,0,0,0,0,0,0,-1,1378,1401,0,0
161,-377,0,0,0,0,0,0,0,0,0,-1,1385,1401,0,0
168,-377,0,0,0,0,0,0,0,0,0,-1,1392,1401,0,0
175,-377,0,0,0,0,0,0,0,0,0,-1,1399,1401,0,0
182,-377,0,0,0,0,0,0,0,0,0,-1,1406,1401,0,0
189,-377,0,0,0,0,0,0,0,0,0,-1,1413,1401,0,0
196,-377,0,0,0,0,0,0,0,0,0,-1,1420,1401,0,0
203,-377,0,0,0,0,0,0,0,0,0,-1,1427,1401,0,0
210,-377,0,0,0,0,0,0,0,0,0,-1,1434,1401,0,0
217,-377,0,0,0,0,0,0,0,0,0,-1,1441,1401,0,0
224,-377,0,0,0,0,0,0,0,0,0,-1,1448,1401,0,0
231,-377,0,0,0,0,0,0,0,0,0,-1,1455,1401,0,0
238,-377,0,0,0,0,0,0,0,0,0,-1,1462,1401,0,0
245,-377,0,0,0,0,0,0,0,0,0,-1,1469,1401,0,0
252,-377,0,0,0,0,0,0,0,0,0,-1,1476,1401,0,0
259,-377,0,0,0,0,0,0,0,0,0,-1,1483,1401,0,0
266,-377,0,0,0,0,0,0,0,0,0,-1,1490,1401,0,0
273,-377,0,0,0,0,0,0,0,0,0,-1,1497,1401,0,0
280,-377,0,0,0,0,0,0,0,0,0,-1,1504,1401,0,0
287,-377,0,0,0,0,0,0,0,0,0,-1,1511,1401,0,0
294,-377,0,0,0,0,0,0,0,0,0,-1,1518,1401,0,0
301,-377,0,0,0,0,0,0,0,0,0,-1,1525,1401,0,0
308,-377,0,0,0,0,0,0,0,0,0,-1,1532,1401,0,0
315,-377,0,0,0,0,0,0,0,0,0,-1,1539,1401,0,0
322,-377,0,0,0,0,0,0,0,0,0,-1,1546,1401,0,0
329,-377,0,0,0,0,0,0,0,0,0,-1,1553,1401,0,0
336,-377,0,0,0,0,0,0,0,0,0,-1,1560,1401,0,0
343,-377,0,0,0,0,0,0,0,0,0,-1,1567,1401,0,0
350,-377,0,0,0,0,0,0,0,0,0,-1,1574,1401,0,0
357,-377,0,0,0,0,0,0,0,0,0,-1,1581,1401,0,0
364,-377,0,0,0,0,0,0,0,0,0,-1,1588,1401,0,0
371,-377,0,0,0,0,0,0,0,0,0,-1,1595,1401,0,0
378,-377,0,0,0,0,0,0,0,0,0,-1,1602,1401,0,0
385,-377,0,0,0,0,0,0,0,0,0,-1,1609,1401,0,0
392,-377,0,0,0,0,0,0,0,0,0,-1,1616,1401,0,0
399,-377,0,0,0,0,0,0,0,0,0,-1,1623,1401,0,0
406,-377,0,0,0,0,0,0,0,0,0,-1,1630,1401,0,0
413,-377,0,0,0,0,0,0,0,0,0,-1,1637,1401,0,0
420,-377,0,0,0,0,0,0,0,0,0,-1,1644,1401,0,0
427,-377,0,0,0,0,0,0,0,0,0,-1,1651,1401,0,0
434,-377,0,0,0,0,0,0,0,0,0,-1,1658,1401,0,0
441,-377,0,0,0,0,0,0,0,0,0,-1,1665,1401,0,0
448,-377,0,0,0,0,0,0,0,0,0,-1,1672,1401,0,0
455,-377,0,0,0,0,0,0,0,0,0,-1,1679,1401,0,0
462,-377,0,0,0,0,0,0,0,0,0,-1,1686,1401,0,0
469,-377,0,0,0,0,0,0,0,0,0,-1,1693,1401,0,0
476,-377,0,0,0,0,0,0,0,0,0,-1,1700,1401,0,0
483,-377,0,0,0,0,0,0,0,0,0,-1,1707,1401,0,0
490,-377,0,0,0,0,0,0,0,0,0,-1,1714,1401,0,0
497,-377,0,0,0,0,0,0,0,0,0,-1,1721,1401,0,0
504,-377,0,0,0,0,0,0,0,0,0,-1,1728,1401,0,0
511,-377,0,0,0,0,0,0,0,0,0,-1,1735,1401,0,0
518,-377,0,0,0,0,0,0,0,0,0,-1,1742,1401,0,0
525,-377,0,0,0,0,0,0,0,0,0,-1,1749,1401,0,0
532,-377,0,0,0,0,0,0,0,0,0,-1,1756,1401,0,0
539,-377,0,0,0,0,0,0,0,0,0,-1,1763,1401,0,0
546,-377,27.8485,2.34094,0,0,0,0,0,0,0,-1,1770,1401,27.8486,-2.34091
553,-377,27.2189,2.42493,0,0,0,0,0,0,0,-1,1777,1401,27.2188,-2.42498
560,-377,38.3577,-2.15015,0,0,0,0,0,0,0,-1,1784,1401,38.3576,2.1501
567,-377,38.4889,-0.285645,0,0,0,0,0,0,0,-1,1791,1401,38.4889,0.2857
574,-377,38.6221,1.61694,0,0,0,0,0,0,0,-1,1798,1401,38.6221,-1.61689
581,-377,39.1818,3.76367,0,0,0,0,0,0,0,-1,1805,1401,39.1818,-3.76366
588,-377,25.882,4.35217,0,0,0,0,0,0,0,-1,1812,1401,25.8819,-4.3522
595,-377,25.5392,5.11804,0,0,0,0,0,0,0,-1,1819,1401,25.5392,-5.11808
602,-377,24.816,5.79126,0,0,0,0,0,0,0,-1,1826,1401,24.816,-5.79124
609,-377,15.0223,4.76135,0,0,0,0,0,0,0,-1,1833,1401,15.0224,-4.76129
616,-377,14.1842,5.78992,0,0,0,0,0,0,0,-1,1840,1401,14.1842,-5.78987
623,-377,15.8248,8.76721,0,0,0,0,0,0,0,-1,1847,1401,15.8248,-8.76725
630,-377,25.4307,13.7723,0,0,0,0,0,0,0,-1,1854,1401,25.4307,-13.7723
637,-377,25.7216,13.0428,0.00244285,0.00100147,-0.00393486,0.00572248,-0.00227816,-0.694824,0.00475971,0.0292257,1861,1401,25.7216,-13.0428
644,-377,25.8138,12.5377,0.000759309,0.000319724,-0.00139467,0.0019514,-0.000872367,-0.707244,0.00166951,0.0118273,1868,1401,25.8138,-12.5377
651,-377,25.8109,12.0703,0.000751029,0.00011111,-0.000667106,0.00117094,-0.000308799,-0.561791,0.000901366,0.0132251,1875,1401,25.811,-12.0704
658,-377,25.7996,11.6294,0.000873186,-5.65133e-05,-0.000367565,0.00100095,-0.000184276,-0.334528,0.00073645,0.0149448,1882,1401,25.7995,-11.6294
665,-377,25.7637,11.153,0.00109388,-0.00025521,-7.25451e-05,0.00109777,-0.000259099,-0.0535676,0.000831773,0.018091,1889,1401,25.7637,-11.1529
672,-377,25.7245,10.7137,0.00137868,-0.000492262,0.000219642,0.00140412,-0.000517701,0.115308,0.00114823,0.0184613,1896,1401,25.7244,-10.7138
679,-377,25.7294,10.2939,0.00176257,-0.000737601,0.000472458,0.00184888,-0.000823902,0.180673,0.0015805,0.0174786,1903,1401,25.7294,-10.294
686,-377,25.7438,9.85474,0.00220062,-0.00110345,0.000748978,0.00236247,-0.00126531,0.212825,0.00212619,0.0144185,1910,1401,25.7437,-9.85477
693,-377,25.7706,9.39514,0.00270872,-0.00151136,0.000987823,0.0029285,-0.00173114,0.218924,0.00271969,0.0142894,1917,1401,25.7706,-9.39511
700,-377,25.7384,9.03027,0.0033636,-0.00203329,0.0012394,0.00363462,-0.00230431,0.215282,0.00345739,0.0436611,1924,1401,25.7384,-9.03029
707,-377,25.8928,8.56665,0,0,0,0,0,0,0,-1,1931,1401,25.8929,-8.56665
714,-377,16.5369,5.45959,0,0,0,0,0,0,0,-1,1938,1401,16.5369,-5.4596
721,-377,17.0913,5.42529,0,0,0,0,0,0,0,-1,1945,1401,17.0914,-5.42529
728,-377,14.5396,2.79724,0,0,0,0,0,0,0,-1,1952,1401,14.5396,-2.7972
735,-377,23.2977,-0.991089,0,0,0,0,0,0,0,-1,1959,1401,23.2978,0.991076
742,-377,0,0,0,0,0,0,0,0,0,-1,1966,1401,0,0
749,-377,0,0,0,0,0,0,0,0,0,-1,1973,1401,0,0
756,-377,0,0,0,0,0,0,0,0,0,-1,1980,1401,0,0
763,-377,0,0,0,0,0,0,0,0,0,-1,1987,1401,0,0
770,-377,0,0,0,0,0,0,0,0,0,-1,1994,1401,0,0
777,-377,0,0,0,0,0,0,0,0,0,-1,2001,1401,0,0
784,-377,0,0,0,0,0,0,0,0,0,-1,2008,1401,0,0
791,-377,0,0,0,0,0,0,0,0,0,-1,2015,1401,0,0
798,-377,0,0,0,0,0,0,0,0,0,-1,2022,1401,0,0
805,-377,0,0,0,0,0,0,0,0,0,-1,2029,1401,0,0
812,-377,0,0,0,0,0,0,0,0,0,-1,2036,1401,0,0
-700,-384,0,0,0,0,0,0,0,0,0,-1,524,1408,0,0
-693,-384,0,0,0,0,0,0,0,0,0,-1,531,1408,0,0
-686,-384,0,0,0,0,0,0,0,0,0,-1,538,1408,0,0
-679,-384,0,0,0,0,0,0,0,0,0,-1,545,1408,0,0
-672,-384,0,0,0,0,0,0,0,0,0,-1,552,1408,0,0
-665,-384,0,0,0,0,0,0,0,0,0,-1,559,1408,0,0
-658,-384,0,0,0,0,0,0,0,0,0,-1,566,1408,0,0
-651,-384,0,0,0,0,0,0,0,0,0,-1,573,1408,0,0
-644,-384,0,0,0,0,0,0,0,0,0,-1,580,1408,0,0
-637,-384,0,0,0,0,0,0,0,0,0,-1,587,1408,0,0
-630,-384,0,0,0,0,0,0,0,0,0,-1,594,1408,0,0
-623,-384,0,0,0,0,0,0,0,0,0,-1,601,1408,0,0
-616,-384,-10.019,-3.36646,0,0,0,0,0,0,0,-1,608,1408,-10.019,3.36648
-609,-384,-7.72357,-2.3418,0,0,0,0,0,0,0,-1,615,1408,-7.72358,2.34182
-602,-384,-11.7632,-2.85156,0,0,0,0,0,0,0,-1,622,1408,-11.7632,2.85157
-595,-384,-10.2217,2.8855,0,0,0,0,0,0,0,-1,629,1408,-10.2218,-2.88548
-588,-384,-9.71045,2.79968,0,0,0,0,0,0,0,-1,636,1408,-9.71046,-2.79971
-581,-384,-11.669,6.24902,0,0,0,0,0,0,0,-1,643,1408,-11.669,-6.24908
-574,-384,-11.4973,6.44617,0,0,0,0,0,0,0,-1,650,1408,-11.4973,-6.44618
-567,-384,-11.4901,7.03882,0,0,0,0,0,0,0,-1,657,1408,-11.4901,-7.03885
-560,-384,-11.8329,7.1499,0,0,0,0,0,0,0,-1,664,1408,-11.8329,-7.14996
-553,-384,-11.6987,7.76111,-0.00368655,-0.00131069,-0.0027873,0.000531268,-0.00552851,-0.986838,0.00387492,0.0344025,671,1408,-11.6987,-7.76115
-546,-384,-11.6891,8.31909,-0.00203653,-0.000743053,-0.00171698,0.000444953,-0.00322453,-0.965516,0.00231232,0.0142616,678,1408,-11.6892,-8.31906
-539,-384,-11.7227,8.77588,-0.000581841,-0.000267224,-0.000789806,0.000380787,-0.00122985,-0.883699,0.000972019,0.0164164,685,1408,-11.7227,-8.77587
-532,-384,-11.7145,9.21033,0.000750067,0.000170261,7.24734e-05,0.000758989,0.000161339,0.122485,0.000461707,0.0225999,692,1408,-11.7145,-9.21036
-525,-384,-11.7087,9.74951,0.00206708,0.000675343,0.000978464,0.00257189,0.000170535,0.476301,0.00166067,0.0207334,699,1408,-11.7087,-9.74953
-518,-384,-11.7383,10.2573,0.00343097,0.00133253,0.00199471,0.00463558,0.000127924,0.543282,0.00304864,0.012245,706,1408,-11.7383,-10.2573
-511,-384,-11.7592,10.7767,0.00486257,0.00213873,0.00313323,0.00691708,8.4226e-05,0.580382,0.00458357,0.00997826,713,1408,-11.7592,-10.7767
-504,-384,-11.7503,11.2899,0.00639216,0.00315411,0.00442527,0.00948527,6.09984e-05,0.610032,0.00630328,0.0117416,720,1408,-11.7503,-11.2899
-497,-384,-11.6836,11.8385,0.00821371,0.00454644,0.00609137,0.0127414,1.87061e-05,0.639201,0.00848806,0.0371944,727,1408,-11.6836,-11.8384
-490,-384,-11.3262,12.5491,0,0,0,0,0,0,0,-1,734,1408,-11.3263,-12.5491
-483,-384,-6.26471,7.61194,0,0,0,0,0,0,0,-1,741,1408,-6.26469,-7.61191
-476,-384,-6.02734,5.67761,0,0,0,0,0,0,0,-1,748,1408,-6.02736,-5.6776
-469,-384,-10.206,2.63721,0,0,0,0,0,0,0,-1,755,1408,-10.206,-2.6372
-462,-384,-9.04291,1.43542,0,0,0,0,0,0,0,-1,762,1408,-9.04293,-1.43545
-455,-384,-7.87988,0.233765,0,0,0,0,0,0,0,-1,769,1408,-7.87986,-0.233709
-448,-384,-9.35529,7.19226,0,0,0,0,0,0,0,-1,776,1408,-9.35531,-7.19226
-441,-384,-10.4697,1.79004,0,0,0,0,0,0,0,-1,783,1408,-10.4697,-1.79003
-434,-384,-10.6449,0.552246,0,0,0,0,0,0,0,-1,790,1408,-10.6449,-0.552216
-427,-384,-10.968,1.10583,0,0,0,0,0,0,0,-1,797,1408,-10.968,-1.10588
-420,-384,-12.5607,4.54858,0,0,0,0,0,0,0,-1,804,1408,-12.5607,-4.54859
-413,-384,0,0,0,0,0,0,0,0,0,-1,811,1408,0,0
-406,-384,0,0,0,0,0,0,0,0,0,-1,818,1408,0,0
-399,-384,0,0,0,0,0,0,0,0,0,-1,825,1408,0,0
-392,-384,0,0,0,0,0,0,0,0,0,-1,832,1408,0,0
-385,-384,0,0,0,0,0,0,0,0,0,-1,839,1408,0,0
-378,-384,0,0,0,0,0,0,0,0,0,-1,846,1408,0,0
-371,-384,0,0,0,0,0,0,0,0,0,-1,853,1408,0,0
-364,-384,0,0,0,0,0,0,0,0,0,-1,860,1408,0,0
-357,-384,0,0,0,0,0,0,0,0,0,-1,867,1408,0,0
-350,-384,0,0,0,0,0,0,0,0,0,-1,874,1408,0,0
-343,-384,0,0,0,0,0,0,0,0,0,-1,881,1408,0,0
-336,-384,0,0,0,0,0,0,0,0,0,-1,888,1408,0,0
-329,-384,0,0,0,0,0,0,0,0,0,-1,895,1408,0,0
-322,-384,0,0,0,0,0,0,0,0,0,-1,902,1408,0,0
-315,-384,0,0,0,0,0,0,0,0,0,-1,909,1408,0,0
-308,-384,0,0,0,0,0,0,0,0,0,-1,916,1408,0,0
-301,-384,0,0,0,0,0,0,0,0,0,-1,923,1408,0,0
-294,-384,0,0,0,0,0,0,0,0,0,-1,930,1408,0,0
-287,-384,0,0,0,0,0,0,0,0,0,-1,937,1408,0,0
-280,-384,0,0,0,0,0,0,0,0,0,-1,944,1408,0,0
-273,-384,0,0,0,0,0,0,0,0,0,-1,951,1408,0,0
-266,-384,0,0,0,0,0,0,0,0,0,-1,958,1408,0,0
-259,-384,0,0,0,0,0,0,0,0,0,-1,965,1408,0,0
-252,-384,0,0,0,0,0,0,0,0,0,-1,972,1408,0,0
-245,-384,0,0,0,0,0,0,0,0,0,-1,979,1408,0,0
-238,-384,0,0,0,0,0,0,0,0,0,-1,986,1408,0,0
-231,-384,0,0,0,0,0,0,0,0,0,-1,993,1408,0,0
-224,-384,0,0,0,0,0,0,0,0,0,-1,1000,1408,0,0
-217,-384,0,0,0,0,0,0,0,0,0,-1,1007,1408,0,0
-210,-384,0,0,0,0,0,0,0,0,0,-1,1014,1408,0,0
-203,-384,0,0,0,0,0,0,0,0,0,-1,1021,1408,0,0
-196,-384,0,0,0,0,0,0,0,0,0,-1,1028,1408,0,0
-189,-384,0,0,0,0,0,0,0,0,0,-1,1035,1408,0,0
-182,-384,0,0,0,0,0,0,0,0,0,-1,1042,1408,0,0
-175,-384,0,0,0,0,0,0,0,0,0,-1,1049,1408,0,0
-168,-384,0,0,0,0,0,0,0,0,0,-1,1056,1408,0,0
-161,-384,0,0,0,0,0,0,0,0,0,-1,1063,1408,0,0
-154,-384,0,0,0,0,0,0,0,0,0,-1,1070,1408,0,0
-147,-384,0,0,0,0,0,0,0,0,0,-1,1077,1408,0,0
-140,-384,0,0,0,0,0,0,0,0,0,-1,1084,1408,0,0
-133,-384,0,0,0,0,0,0,0,0,0,-1,1091,1408,0,0
-126,-384,0,0,0,0,0,0,0,0,0,-1,1098,1408,0,0
-119,-384,0,0,0,0,0,0,0,0,0,-1,1105,1408,0,0
-112,-384,0,0,0,0,0,0,0,0,0,-1,1112,1408,0,0
-105,-384,0,0,0,0,0,0,0,0,0,-1,1119,1408,0,0
-98,-384,0,0,0,0,0,0,0,0,0,-1,1126,1408,0,0
-91,-384,0,0,0,0,0,0,0,0,0,-1,1133,1408,0,0
-84,-384,0,0,0,0,0,0,0,0,0,-1,1140,1408,0,0
-77,-384,0,0,0,0,0,0,0,0,0,-1,1147,1408,0,0
-70,-384,0,0,0,0,0,0,0,0,0,-1,1154,1408,0,0
-63,-384,0,0,0,0,0,0,0,0,0,-1,1161,1408,0,0
-56,-384,0,0,0,0,0,0,0,0,0,-1,1168,1408,0,0
-49,-384,0,0,0,0,0,0,0,0,0,-1,1175,1408,0,0
-42,-384,0,0,0,0,0,0,0,0,0,-1,1182,1408,0,0
-35,-384,0,0,0,0,0,0,0,0,0,-1,1189,1408,0,0
-28,-384,0,0,0,0,0,0,0,0,0,-1,1196,1408,0,0
-21,-384,0,0,0,0,0,0,0,0,0,-1,1203,1408,0,0
-14,-384,0,0,0,0,0,0,0,0,0,-1,1210,1408,0,0
-7,-384,0,0,0,0,0,0,0,0,0,-1,1217,1408,0,0
0,-384,0,0,0,0,0,0,0,0,0,-1,1224,1408,0,0
7,-384,0,0,0,0,0,0,0,0,0,-1,1231,1408,0,0
14,-384,0,0,0,0,0,0,0,0,0,-1,1238,1408,0,0
21,-384,0,0,0,0,0,0,0,0,0,-1,1245,1408,0,0
28,-384,0,0,0,0,0,0,0,0,0,-1,1252,1408,0,0
35,-384,0,0,0,0,0,0,0,0,0,-1,1259,1408,0,0
42,-384,0,0,0,0,0,0,0,0,0,-1,1266,1408,0,0
49,-384,0,0,0,0,0,0,0,0,0,-1,1273,1408,0,0
56,-384,0,0,0,0,0,0,0,0,0,-1,1280,1408,0,0
63,-384,0,0,0,0,0,0,0,0,0,-1,1287,1408,0,0
70,-384,0,0,0,0,0,0,0,0,0,-1,1294,1408,0,0
77,-384,0,0,0,0,0,0,0,0,0,-1,1301,1408,0,0
84,-384,0,0,0,0,0,0,0,0,0,-1,1308,1408,0,0
91,-384,0,0,0,0,0,0,0,0,0,-1,1315,1408,0,0
98,-384,0,0,0,0,0,0,0,0,0,-1,1322,1408,0,0
105,-384,0,0,0,0,0,0,0,0,0,-1,1329,1408,0,0
112,-384,0,0,0,0,0,0,0,0,0,-1,1336,1408,0,0
119,-384,0,0,0,0,0,0,0,0,0,-1,1343,1408,0,0
126,-384,0,0,0,0,0,0,0,0,0,-1,1350,1408,0,0
133,-384,0,0,0,0,0,0,0,0,0,-1,1357,1408,0,0
140,-384,0,0,0,0,0,0,0,0,0,-1,1364,1408,0,0
147,-384,0,0,0,0,0,0,0,0,0,-1,1371,1408,0,0
154,-384,0,0,0,0,0,0,0,0,0,-1,1378,1408,0,0
161,-384,0,0,0,0,0,0,0,0,0,-1,1385,1408,0,0
168,-384,0,0,0,0,0,0,0,0,0,-1,1392,1408,0,0
175,-384,0,0,0,0,0,0,0,0,0,-1,1399,1408,0,0
182,-384,0,0,0,0,0,0,0,0,0,-1,1406,1408,0,0
189,-384,0,0,0,0,0,0,0,0,0,-1,1413,1408,0,0
196,-384,0,0,0,0,0,0,0,0,0,-1,1420,1408,0,0
203,-384,0,0,0,0,0,0,0,0,0,-1,1427,1408,0,0
210,-384,0,0,0,0,0,0,0,0,0,-1,1434,1408,0,0
217,-384,0,0,0,0,0,0,0,0,0,-1,1441,1408,0,0
224,-384,0,0,0,0,0,0,0,0,0,-1,1448,1408,0,0
231,-384,0,0,0,0,0,0,0,0,0,-1,1455,1408,0,0
238,-384,0,0,0,0,0,0,0,0,0,-1,1462,1408,0,0
245,-384,0,0,0,0,0,0,0,0,0,-1,1469,1408,0,0
252,-384,0,0,0,0,0,0,0,0,0,-1,1476,1408,0,0
259,-384,0,0,0,0,0,0,0,0,0,-1,1483,1408,0,0
266,-384,0,0,0,0,0,0,0,0,0,-1,1490,1408,0,0
273,-384,0,0,0,0,0,0,0,0,0,-1,1497,1408,0,0
280,-384,0,0,0,0,0,0,0,0,0,-1,1504,1408,0,0
287,-384,0,0,0,0,0,0,0,0,0,-1,1511,1408,0,0
294,-384,0,0,0,0,0,0,0,0,0,-1,1518,1408,0,0
301,-384,0,0,0,0,0,0,0,0,0,-1,1525,1408,0,0
308,-384,0,0,0,0,0,0,0,0,0,-1,1532,1408,0,0
315,-384,0,0,0,0,0,0,0,0,0,-1,1539,1408,0,0
322,-384,0,0,0,0,0,0,0,0,0,-1,1546,1408,0,0
329,-384,0,0,0,0,0,0,0,0,0,-1,1553,1408,0,0
336,-384,0,0,0,0,0,0,0,0,0,-1,1560,1408,0,0
343,-384,0,0,0,0,0,0,0,0,0,-1,1567,1408,0,0
350,-384,0,0,0,0,0,0,0,0,0,-1,1574,1408,0,0
357,-384,0,0,0,0,0,0,0,0,0,-1,1581,1408,0,0
364,-384,0,0,0,0,0,0,0,0,0,-1,1588,1408,0,0
371,-384,0,0,0,0,0,0,0,0,0,-1,1595,1408,0,0
378,-384,0,0,0,0,0,0,0,0,0,-1,1602,1408,0,0
385,-384,0,0,0,0,0,0,0,0,0,-1,1609,1408,0,0
392,-384,0,0,0,0,0,0,0,0,0,-1,1616,1408,0,0
399,-384,0,0,0,0,0,0,0,0,0,-1,1623,1408,0,0
406,-384,0,0,0,0,0,0,0,0,0,-1,1630,1408,0,0
413,-384,0,0,0,0,0,0,0,0,0,-1,1637,1408,0,0
420,-384,0,0,0,0,0,0,0,0,0,-1,1644,1408,0,0
427,-384,0,0,0,0,0,0,0,0,0,-1,1651,1408,0,0
434,-384,0,0,0,0,0,0,0,0,0,-1,1658,1408,0,0
441,-384,0,0,0,0,0,0,0,0,0,-1,1665,1408,0,0
448,-384,0,0,0,0,0,0,0,0,0,-1,1672,1408,0,0
455,-384,0,0,0,0,0,0,0,0,0,-1,1679,1408,0,0
462,-384,0,0,0,0,0,0,0,0,0,-1,1686,1408,0,0
469,-384,0,0,0,0,0,0,0,0,0,-1,1693,1408,0,0
476,-384,0,0,0,0,0,0,0,0,0,-1,1700,1408,0,0
483,-384,0,0,0,0,0,0,0,0,0,-1,1707,1408,0,0
490,-384,0,0,0,0,0,0,0,0,0,-1,1714,1408,0,0
497,-384,0,0,0,0,0,0,0,0,0,-1,1721,1408,0,0
504,-384,0,0,0,0,0,0,0,0,0,-1,1728,1408,0,0
511,-384,0,0,0,0,0,0,0,0,0,-1,1735,1408,0,0
518,-384,0,0,0,0,0,0,0,0,0,-1,1742,1408,0,0
525,-384,0,0,0,0,0,0,0,0,0,-1,1749,1408,0,0
532,-384,0,0,0,0,0,0,0,0,0,-1,1756,1408,0,0
539,-384,27.6886,2.85803,0,0,0,0,0,0,0,-1,1763,1408,27.6886,-2.85807
546,-384,27.5044,2.9425,0,0,0,0,0,0,0,-1,1770,1408,27.5044,-2.94255
553,-384,27.3052,2.78394,0,0,0,0,0,0,0,-1,1777,1408,27.3051,-2.78394
560,-384,26.833,3.19812,0,0,0,0,0,0,0,-1,1784,1408,26.833,-3.19816
567,-384,38.2566,0.109985,0,0,0,0,0,0,0,-1,1791,1408,38.2566,-0.110044
574,-384,38.4003,2.05945,0,0,0,0,0,0,0,-1,1798,1408,38.4003,-2.05949
581,-384,25.819,3.91846,0,0,0,0,0,0,0,-1,1805,1408,25.8189,-3.91848
588,-384,23.3721,4.25439,0,0,0,0,0,0,0,-1,1812,1408,23.3721,-4.25442
595,-384,24.981,5.59595,0,0,0,0,0,0,0,-1,1819,1408,24.981,-5.59598
602,-384,20.6605,4.17261,0,0,0,0,0,0,0,-1,1826,1408,20.6606,-4.17265
609,-384,14.158,5.49475,0,0,0,0,0,0,0,-1,1833,1408,14.158,-5.49474
616,-384,14.7997,7.6908,0,0,0,0,0,0,0,-1,1840,1408,14.7996,-7.69079
623,-384,16.4293,9.58899,0,0,0,0,0,0,0,-1,1847,1408,16.4294,-9.58901
630,-384,25.3989,13.3741,0,0,0,0,0,0,0,-1,1854,1408,25.399,-13.3741
637,-384,25.3728,13.0071,0.00191384,0.000418644,-0.00175825,0.00307683,-0.000744348,-0.584381,0.00233915,0.0190384,1861,1408,25.3728,-13.0071
644,-384,25.3402,12.5651,0.000838262,8.6652e-05,-0.000737698,0.00129036,-0.000365449,-0.549817,0.00100447,0.015585,1868,1408,25.3402,-12.5651
651,-384,25.324,12.084,0.00082621,-5.5162e-05,-0.000443987,0.00101109,-0.000240039,-0.394565,0.0007667,0.0156536,1875,1408,25.324,-12.0839
658,-384,25.3214,11.6254,0.000931084,-0.000184784,-0.00019336,0.00096364,-0.00021734,-0.166805,0.000725802,0.0161751,1882,1408,25.3215,-11.6254
665,-384,25.3375,11.1661,0.00114812,-0.000357668,6.89968e-05,0.00115127,-0.000360823,0.0456936,0.000911902,0.0175879,1889,1408,25.3375,-11.1662
672,-384,25.3221,10.7159,0.00146498,-0.000568319,0.000332117,0.00151785,-0.000621192,0.157875,0.00127063,0.0160727,1896,1408,25.3221,-10.716
679,-384,25.287,10.2882,0.00188277,-0.000818388,0.000585516,0.00200423,-0.000939846,0.204536,0.0017364,0.0158521,1903,1408,25.287,-10.2882
686,-384,25.2748,9.87268,0.00236679,-0.00124185,0.000914328,0.00258523,-0.00146029,0.234514,0.00236559,0.0122769,1910,1408,25.2748,-9.87268
693,-384,25.3091,9.43311,0.00298043,-0.00171485,0.00121161,0.00327465,-0.00200907,0.238221,0.00307959,0.0207768,1917,1408,25.3091,-9.43312
700,-384,25.3695,9.00305,0,0,0,0,0,0,0,-1,1924,1408,25.3695,-9.003
707,-384,17.0566,6.62842,0,0,0,0,0,0,0,-1,1931,1408,17.0567,-6.62848
714,-384,16.038,5.0282,0,0,0,0,0,0,0,-1,1938,1408,16.038,-5.02819
721,-384,13.8843,2.8717,0,0,0,0,0,0,0,-1,1945,1408,13.8843,-2.87171
728,-384,15.4409,6.25745,0,0,0,0,0,0,0,-1,1952,1408,15.4409,-6.2574
735,-384,16.7598,6.71289,0,0,0,0,0,0,0,-1,1959,1408,16.7598,-6.71287
742,-384,0,0,0,0,0,0,0,0,0,-1,1966,1408,0,0
749,-384,0,0,0,0,0,0,0,0,0,-1,1973,1408,0,0
756,-384,0,0,0,0,0,0,0,0,0,-1,1980,1408,0,0
763,-384,0,0,0,0,0,0,0,0,0,-1,1987,1408,0,0
770,-384,0,0,0,0,0,0,0,0,0,-1,1994,1408,0,0
777,-384,0,0,0,0,0,0,0,0,0,-1,2001,1408,0,0
784,-384,0,0,0,0,0,0,0,0,0,-1,2008,1408,0,0
791,-384,0,0,0,0,0,0,0,0,0,-1,2015,1408,0,0
798,-384,0,0,0,0,0,0,0,0,0,-1,2022,1408,0,0
805,-384,0,0,0,0,0,0,0,0,0,-1,2029,1408,0,0
812,-384,0,0,0,0,0,0,0,0,0,-1,2036,1408,0,0
-700,-391,0,0,0,0,0,0,0,0,0,-1,524,1415,0,0
-693,-391,0,0,0,0,0,0,0,0,0,-1,531,1415,0,0
-686,-391,0,0,0,0,0,0,0,0,0,-1,538,1415,0,0
-679,-391,0,0,0,0,0,0,0,0,0,-1,545,1415,0,0
-672,-391,0,0,0,0,0,0,0,0,0,-1,552,1415,0,0
-665,-391,0,0,0,0,0,0,0,0,0,-1,559,1415,0,0
-658,-391,0,0,0,0,0,0,0,0,0,-1,566,1415,0,0
-651,-391,0,0,0,0,0,0,0,0,0,-1,573,1415,0,0
-644,-391,0,0,0,0,0,0,0,0,0,-1,580,1415,0,0
-637,-391,0,0,0,0,0,0,0,0,0,-1,587,1415,0,0
-630,-391,0,0,0,0,0,0,0,0,0,-1,594,1415,0,0
-623,-391,0,0,0,0,0,0,0,0,0,-1,601,1415,0,0
-616,-391,0,0,0,0,0,0,0,0,0,-1,608,1415,0,0
-609,-391,-7.71753,-3.69763,0,0,0,0,0,0,0,-1,615,1415,-7.71751,3.69759
-602,-391,-13.9493,-4.12805,0,0,0,0,0,0,0,-1,622,1415,-13.9493,4.12803
-595,-391,-10.8315,1.76172,0,0,0,0,0,0,0,-1,629,1415,-10.8315,-1.76171
-588,-391,-10.265,2.16431,0,0,0,0,0,0,0,-1,636,1415,-10.265,-2.16431
-581,-391,-10.071,3.51843,0,0,0,0,0,0,0,-1,643,1415,-10.071,-3.51848
-574,-391,-11.5632,6.47302,0,0,0,0,0,0,0,-1,650,1415,-11.5632,-6.47297
-567,-391,-11.2548,6.95898,0,0,0,0,0,0,0,-1,657,1415,-11.2548,-6.95901
-560,-391,-10.9462,7.44507,0,0,0,0,0,0,0,-1,664,1415,-10.9463,-7.44506
-553,-391,-11.261,7.67786,0,0,0,0,0,0,0,-1,671,1415,-11.261,-7.67785
-546,-391,-11.2031,8.30164,-0.00267259,-0.000877787,-0.00206156,0.000473225,-0.00402361,-0.99068,0.00285326,0.0148791,678,1415,-11.2031,-8.30169
-539,-391,-11.1779,8.80286,-0.00125252,-0.000412096,-0.00115233,0.000394247,-0.00205886,-0.960237,0.00152112,0.0150439,685,1415,-11.1778,-8.8028
-532,-391,-11.1798,9.29114,-5.80065e-06,2.05428e-05,-0.000330866,0.000338499,-0.000323757,-0.805293,0.000382385,0.0261655,692,1415,-11.1798,-9.29113
-525,-391,-11.204,9.80127,0.00121331,0.000518589,0.00052004,0.00149133,0.00024057,0.490953,0.000924523,0.0237678,699,1415,-11.2039,-9.80132
-518,-391,-11.2589,10.2965,0.00248221,0.0011945,0.00149272,0.00346401,0.000212701,0.581789,0.00224181,0.0143032,706,1415,-11.2589,-10.2965
-511,-391,-11.2595,10.7896,0.0038451,0.00203364,0.00260024,0.00569284,0.000185899,0.617808,0.00373481,0.0123364,713,1415,-11.2595,-10.7896
-504,-391,-11.2531,11.3019,0.00530684,0.00304799,0.00383435,0.00817464,0.000180188,0.642171,0.0053907,0.0114071,720,1415,-11.2531,-11.3019
-497,-391,-11.2521,11.7886,0.00699148,0.00438393,0.0053634,0.0112073,0.000168114,0.666167,0.00741613,0.0130027,727,1415,-11.2521,-11.7886
-490,-391,-11.2051,12.3235,0.00916472,0.00624283,0.0073344,0.0151823,0.000225284,0.687089,0.0100473,0.0497131,734,1415,-11.2051,-12.3235
-483,-391,-11.1018,12.9382,0,0,0,0,0,0,0,-1,741,1415,-11.1018,-12.9382
-476,-391,-6.05731,6.85303,0,0,0,0,0,0,0,-1,748,1415,-6.05728,-6.85304
-469,-391,-3.88953,5.0979,0,0,0,0,0,0,0,-1,755,1415,-3.88955,-5.09794
-462,-391,-8.67688,2.03125,0,0,0,0,0,0,0,-1,762,1415,-8.67685,-2.03121
-455,-391,-8.65576,6.46997,0,0,0,0,0,0,0,-1,769,1415,-8.65579,-6.46999
-448,-391,-8.39618,4.38403,0,0,0,0,0,0,0,-1,776,1415,-8.39617,-4.38405
-441,-391,-9.77704,2.5946,0,0,0,0,0,0,0,-1,783,1415,-9.77702,-2.5946
-434,-391,-11.5403,2.12878,0,0,0,0,0,0,0,-1,790,1415,-11.5403,-2.12881
-427,-391,-10.5311,2.50403,0,0,0,0,0,0,0,-1,797,1415,-10.5311,-2.504
-420,-391,-14.7087,1.24365,0,0,0,0,0,0,0,-1,804,1415,-14.7088,-1.24365
-413,-391,0,0,0,0,0,0,0,0,0,-1,811,1415,0,0
-406,-391,0,0,0,0,0,0,0,0,0,-1,818,1415,0,0
-399,-391,0,0,0,0,0,0,0,0,0,-1,825,1415,0,0
-392,-391,0,0,0,0,0,0,0,0,0,-1,832,1415,0,0
-385,-391,0,0,0,0,0,0,0,0,0,-1,839,1415,0,0
-378,-391,0,0,0,0,0,0,0,0,0,-1,846,1415,0,0
-371,-391,0,0,0,0,0,0,0,0,0,-1,853,1415,0,0
-364,-391,0,0,0,0,0,0,0,0,0,-1,860,1415,0,0
-357,-391,0,0,0,0,0,0,0,0,0,-1,867,1415,0,0
-350,-391,0,0,0,0,0,0,0,0,0,-1,874,1415,0,0
-343,-391,0,0,0,0,0,0,0,0,0,-1,881,1415,0,0
-336,-391,0,0,0,0,0,0,0,0,0,-1,888,1415,0,0
-329,-391,0,0,0,0,0,0,0,0,0,-1,895,1415,0,0
-322,-391,0,0,0,0,0,0,0,0,0,-1,902,1415,0,0
-315,-391,0,0,0,0,0,0,0,0,0,-1,909,1415,0,0
-308,-391,0,0,0,0,0,0,0,0,0,-1,916,1415,0,0
-301,-391,0,0,0,0,0,0,0,0,0,-1,923,1415,0,0
-294,-391,0,0,0,0,0,0,0,0,0,-1,930,1415,0,0
-287,-391,0,0,0,0,0,0,0,0,0,-1,937,1415,0,0
-280,-391,0,0,0,0,0,0,0,0,0,-1,944,1415,0,0
-273,-391,0,0,0,0,0,0,0,0,0,-1,951,1415,0,0
-266,-391,0,0,0,0,0,0,0,0,0,-1,958,1415,0,0
-259,-391,0,0,0,0,0,0,0,0,0,-1,965,1415,0,0
-252,-391,0,0,0,0,0,0,0,0,0,-1,972,1415,0,0
-245,-391,0,0,0,0,0,0,0,0,0,-1,979,1415,0,0
-238,-391,0,0,0,0,0,0,0,0,0,-1,986,1415,0,0
-231,-391,0,0,0,0,0,0,0,0,0,-1,993,1415,0,0
-224,-391,0,0,0,0,0,0,0,0,0,-1,1000,1415,0,0
-217,-391,0,0,0,0,0,0,0,0,0,-1,1007,1415,0,0
-210,-391,0,0,0,0,0,0,0,0,0,-1,1014,1415,0,0
-203,-391,0,0,0,0,0,0,0,0,0,-1,1021,1415,0,0
-196,-391,0,0,0,0,0,0,0,0,0,-1,1028,1415,0,0
-189,-391,0,0,0,0,0,0,0,0,0,-1,1035,1415,0,0
-182,-391,0,0,0,0,0,0,0,0,0,-1,1042,1415,0,0
-175,-391,0,0,0,0,0,0,0,0,0,-1,1049,1415,0,0
-168,-391,0,0,0,0,0,0,0,0,0,-1,1056,1415,0,0
-161,-391,0,0,0,0,0,0,0,0,0,-1,1063,1415,0,0
-154,-391,0,0,0,0,0,0,0,0,0,-1,1070,1415,0,0
-147,-391,0,0,0,0,0,0,0,0,0,-1,1077,1415,0,0
-140,-391,0,0,0,0,0,0,0,0,0,-1,1084,1415,0,0
-133,-391,0,0,0,0,0,0,0,0,0,-1,1091,1415,0,0
-126,-391,0,0,0,0,0,0,0,0,0,-1,1098,1415,0,0
-119,-391,0,0,0,0,0,0,0,0,0,-1,1105,1415,0,0
-112,-391,0,0,0,0,0,0,0,0,0,-1,1112,1415,0,0
-105,-391,0,0,0,0,0,0,0,0,0,-1,1119,1415,0,0
-98,-391,0,0,0,0,0,0,0,0,0,-1,1126,1415,0,0
-91,-391,0,0,0,0,0,0,0,0,0,-1,1133,1415,0,0
-84,-391,0,0,0,0,0,0,0,0,0,-1,1140,1415,0,0
-77,-391,0,0,0,0,0,0,0,0,0,-1,1147,1415,0,0
-70,-391,0,0,0,0,0,0,0,0,0,-1,1154,1415,0,0
-63,-391,0,0,0,0,0,0,0,0,0,-1,1161,1415,0,0
-56,-391,0,0,0,0,0,0,0,0,0,-1,1168,1415,0,0
-49,-391,0,0,0,0,0,0,0,0,0,-1,1175,1415,0,0
-42,-391,0,0,0,0,0,0,0,0,0,-1,1182,1415,0,0
-35,-391,0,0,0,0,0,0,0,0,0,-1,1189,1415,0,0
-28,-391,0,0,0,0,0,0,0,0,0,-1,1196,1415,0,0
-21,-391,0,0,0,0,0,0,0,0,0,-1,1203,1415,0,0
-14,-391,0,0,0,0,0,0,0,0,0,-1,1210,1415,0,0
-7,-391,0,0,0,0,0,0,0,0,0,-1,1217,1415,0,0
0,-391,0,0,0,0,0,0,0,0,0,-1,1224,1415,0,0
7,-391,0,0,0,0,0,0,0,0,0,-1,1231,1415,0,0
14,-391,0,0,0,0,0,0,0,0,0,-1,1238,1415,0,0
21,-391,0,0,0,0,0,0,0,0,0,-1,1245,1415,0,0
28,-391,0,0,0,0,0,0,0,0,0,-1,1252,1415,0,0
35,-391,0,0,0,0,0,0,0,0,0,-1,1259,1415,0,0
42,-391,0,0,0,0,0,0,0,0,0,-1,1266,1415,0,0
49,-391,0,0,0,0,0,0,0,0,0,-1,1273,1415,0,0
56,-391,0,0,0,0,0,0,0,0,0,-1,1280,1415,0,0
63,-391,0,0,0,0,0,0,0,0,0,-1,1287,1415,0,0
70,-391,0,0,0,0,0,0,0,0,0,-1,1294,1415,0,0
77,-391,0,0,0,0,0,0,0,0,0,-1,1301,1415,0,0
84,-391,0,0,0,0,0,0,0,0,0,-1,1308,1415,0,0
91,-391,0,0,0,0,0,0,0,0,0,-1,1315,1415,0,0
98,-391,0,0,0,0,0,0,0,0,0,-1,1322,1415,0,0
105,-391,0,0,0,0,0,0,0,0,0,-1,1329,1415,0,0
112,-391,0,0,0,0,0,0,0,0,0,-1,1336,1415,0,0
119,-391,0,0,0,0,0,0,0,0,0,-1,1343,1415,0,0
126,-391,0,0,0,0,0,0,0,0,0,-1,1350,1415,0,0
133,-391,0,0,0,0,0,0,0,0,0,-1,1357,1415,0,0
140,-391,0,0,0,0,0,0,0,0,0,-1,1364,1415,0,0
147,-391,0,0,0,0,0,0,0,0,0,-1,1371,1415,0,0
154,-391,0,0,0,0,0,0,0,0,0,-1,1378,1415,0,0
161,-391,0,0,0,0,0,0,0,0,0,-1,1385,1415,0,0
168,-391,0,0,0,0,0,0,0,0,0,-1,1392,1415,0,0
175,-391,0,0,0,0,0,0,0,0,0,-1,1399,1415,0,0
182,-391,0,0,0,0,0,0,0,0,0,-1,1406,1415,0,0
189,-391,0,0,0,0,0,0,0,0,0,-1,1413,1415,0,0
196,-391,0,0,0,0,0,0,0,0,0,-1,1420,1415,0,0
203,-391,0,0,0,0,0,0,0,0,0,-1,1427,1415,0,0
210,-391,0,0,0,0,0,0,0,0,0,-1,1434,1415,0,0
217,-391,0,0,0,0,0,0,0,0,0,-1,1441,1415,0,0
224,-391,0,0,0,0,0,0,0,0,0,-1,1448,1415,0,0
231,-391,0,0,0,0,0,0,0,0,0,-1,1455,1415,0,0
238,-391,0,0,0,0,0,0,0,0,0,-1,1462,1415,0,0
245,-391,0,0,0,0,0,0,0,0,0,-1,1469,1415,0,0
252,-391,0,0,0,0,0,0,0,0,0,-1,1476,1415,0,0
259,-391,0,0,0,0,0,0,0,0,0,-1,1483,1415,0,0
266,-391,0,0,0,0,0,0,0,0,0,-1,1490,1415,0,0
273,-391,0,0,0,0,0,0,0,0,0,-1,1497,1415,0,0
280,-391,0,0,0,0,0,0,0,0,0,-1,1504,1415,0,0
287,-391,0,0,0,0,0,0,0,0,0,-1,1511,1415,0,0
294,-391,0,0,0,0,0,0,0,0,0,-1,1518,1415,0,0
301,-391,0,0,0,0,0,0,0,0,0,-1,1525,1415,0,0
308,-391,0,0,0,0,0,0,0,0,0,-1,1532,1415,0,0
315,-391,0,0,0,0,0,0,0,0,0,-1,1539,1415,0,0
322,-391,0,0,0,0,0,0,0,0,0,-1,1546,1415,0,0
329,-391,0,0,0,0,0,0,0,0,0,-1,1553,1415,0,0
336,-391,0,0,0,0,0,0,0,0,0,-1,1560,1415,0,0
343,-391,0,0,0,0,0,0,0,0,0,-1,1567,1415,0,0
350,-391,0,0,0,0,0,0,0,0,0,-1,1574,1415,0,0
357,-391,0,0,0,0,0,0,0,0,0,-1,1581,1415,0,0
364,-391,0,0,0,0,0,0,0,0,0,-1,1588,1415,0,0
371,-391,0,0,0,0,0,0,0,0,0,-1,1595,1415,0,0
378,-391,0,0,0,0,0,0,0,0,0,-1,1602,1415,0,0
385,-391,0,0,0,0,0,0,0,0,0,-1,1609,1415,0,0
392,-391,0,0,0,0,0,0,0,0,0,-1,1616,1415,0,0
399,-391,0,0,0,0,0,0,0,0,0,-1,1623,1415,0,0
406,-391,0,0,0,0,0,0,0,0,0,-1,1630,1415,0,0
413,-391,0,0,0,0,0,0,0,0,0,-1,1637,1415,0,0
420,-391,0,0,0,0,0,0,0,0,0,-1,1644,1415,0,0
427,-391,0,0,0,0,0,0,0,0,0,-1,1651,1415,0,0
434,-391,0,0,0,0,0,0,0,0,0,-1,1658,1415,0,0
441,-391,0,0,0,0,0,0,0,0,0,-1,1665,1415,0,0
448,-391,0,0,0,0,0,0,0,0,0,-1,1672,1415,0,0
455,-391,0,0,0,0,0,0,0,0,0,-1,1679,1415,0,0
462,-391,0,0,0,0,0,0,0,0,0,-1,1686,1415,0,0
469,-391,0,0,0,0,0,0,0,0,0,-1,1693,1415,0,0
476,-391,0,0,0,0,0,0,0,0,0,-1,1700,1415,0,0
483,-391,0,0,0,0,0,0,0,0,0,-1,1707,1415,0,0
490,-391,0,0,0,0,0,0,0,0,0,-1,1714,1415,0,0
497,-391,0,0,0,0,0,0,0,0,0,-1,1721,1415,0,0
504,-391,0,0,0,0,0,0,0,0,0,-1,1728,1415,0,0
511,-391,0,0,0,0,0,0,0,0,0,-1,1735,1415,0,0
518,-391,0,0,0,0,0,0,0,0,0,-1,1742,1415,0,0
525,-391,0,0,0,0,0,0,0,0,0,-1,1749,1415,0,0
532,-391,28.5959,3.02356,0,0,0,0,0,0,0,-1,1756,1415,28.596,-3.02358
539,-391,27.5881,3.25012,0,0,0,0,0,0,0,-1,1763,1415,27.5882,-3.25016
546,-391,27.2837,3.28064,0,0,0,0,0,0,0,-1,1770,1415,27.2837,-3.28064
553,-391,32.5952,5.04553,0,0,0,0,0,0,0,-1,1777,1415,32.5952,-5.04551
560,-391,31.2947,5.67017,0,0,0,0,0,0,0,-1,1784,1415,31.2947,-5.67011
567,-391,30.1473,6.17603,0,0,0,0,0,0,0,-1,1791,1415,30.1473,-6.17602
574,-391,27.5656,5.6842,0,0,0,0,0,0,0,-1,1798,1415,27.5655,-5.68422
581,-391,25.8883,5.76123,0,0,0,0,0,0,0,-1,1805,1415,25.8883,-5.76124
588,-391,24.2717,5.47986,0,0,0,0,0,0,0,-1,1812,1415,24.2717,-5.47982
595,-391,22.8827,6.1991,0,0,0,0,0,0,0,-1,1819,1415,22.8827,-6.19909
602,-391,15.1635,5.69849,0,0,0,0,0,0,0,-1,1826,1415,15.1635,-5.69847
609,-391,14.8285,7.50476,0,0,0,0,0,0,0,-1,1833,1415,14.8285,-7.50479
616,-391,20.7952,12.0503,0,0,0,0,0,0,0,-1,1840,1415,20.7952,-12.0503
623,-391,24.7955,13.9314,0,0,0,0,0,0,0,-1,1847,1415,24.7955,-13.9314
630,-391,25.0195,13.3483,0.0014297,-0.000475035,-6.76359e-05,0.0014321,-0.000477434,-0.0354499,0.00114747,0.0363822,1854,1415,25.0196,-13.3482
637,-391,24.907,13.0018,0.00114119,8.67871e-05,-0.000815286,0.00158488,-0.000356904,-0.498391,0.00119348,0.0157285,1861,1415,24.907,-13.0018
644,-391,24.8743,12.5631,0.000877963,-4.74414e-05,-0.000515928,0.00110828,-0.000277758,-0.419866,0.000846763,0.0161325,1868,1415,24.8743,-12.5631
651,-391,24.8615,12.1199,0.000812684,-0.000197588,-0.000250347,0.000871318,-0.000256221,-0.230062,0.00068251,0.0170086,1875,1415,24.8614,-12.1199
658,-391,24.8678,11.6772,0.00085489,-0.000297187,-3.09172e-05,0.000855719,-0.000298016,-0.0268103,0.000691564,0.0175818,1882,1415,24.8677,-11.6773
665,-391,24.8884,11.2089,0.00102297,-0.000444233,0.00020989,0.0010524,-0.000473668,0.139333,0.000901948,0.0141952,1889,1415,24.8884,-11.2089
672,-391,24.8708,10.7463,0.00129662,-0.000618628,0.000456132,0.00139971,-0.000721711,0.222261,0.00124548,0.0123423,1896,1415,24.8709,-10.7463
679,-391,24.8433,10.3057,0.00167364,-0.000869024,0.000718688,0.00186272,-0.0010581,0.257258,0.00170753,0.0117915,1903,1415,24.8433,-10.3057
686,-391,24.84,9.87524,0.00208061,-0.00135437,0.00112677,0.00241723,-0.00169099,0.290311,0.0023842,0.0135571,1910,1415,24.8399,-9.87529
693,-391,24.8322,9.55884,0.00258289,-0.00189863,0.00153734,0.00305956,-0.0023753,0.300661,0.0031461,0.0334468,1917,1415,24.8322,-9.55879
700,-391,24.8751,9.23975,0,0,0,0,0,0,0,-1,1924,1415,24.8751,-9.23969
707,-391,12.9524,5.96851,0,0,0,0,0,0,0,-1,1931,1415,12.9524,-5.96849
714,-391,15.6875,7.67896,0,0,0,0,0,0,0,-1,1938,1415,15.6875,-7.67893
721,-391,14.1808,8.08435,0,0,0,0,0,0,0,-1,1945,1415,14.1808,-8.08439
728,-391,13.8102,7.28174,0,0,0,0,0,0,0,-1,1952,1415,13.8102,-7.28174
735,-391,0,0,0,0,0,0,0,0,0,-1,1959,1415,0,0
742,-391,0,0,0,0,0,0,0,0,0,-1,1966,1415,0,0
749,-391,0,0,0,0,0,0,0,0,0,-1,1973,1415,0,0
756,-391,0,0,0,0,0,0,0,0,0,-1,1980,1415,0,0
763,-391,0,0,0,0,0,0,0,0,0,-1,1987,1415,0,0
770,-391,0,0,0,0,0,0,0,0,0,-1,1994,1415,0,0
777,-391,0,0,0,0,0,0,0,0,0,-1,2001,1415,0,0
784,-391,0,0,0,0,0,0,0,0,0,-1,2008,1415,0,0
791,-391,0,0,0,0,0,0,0,0,0,-1,2015,1415,0,0
798,-391,0,0,0,0,0,0,0,0,0,-1,2022,1415,0,0
805,-391,0,0,0,0,0,0,0,0,0,-1,2029,1415,0,0
812,-391,0,0,0,0,0,0,0,0,0,-1,2036,1415,0,0
-700,-398,0,0,0,0,0,0,0,0,0,-1,524,1422,0,0
-693,-398,0,0,0,0,0,0,0,0,0,-1,531,1422,0,0
-686,-398,0,0,0,0,0,0,0,0,0,-1,538,1422,0,0
-679,-398,0,0,0,0,0,0,0,0,0,-1,545,1422,0,0
-672,-398,0,0,0,0,0,0,0,0,0,-1,552,1422,0,0
-665,-398,0,0,0,0,0,0,0,0,0,-1,559,1422,0,0
-658,-398,0,0,0,0,0,0,0,0,0,-1,566,1422,0,0
-651,-398,0,0,0,0,0,0,0,0,0,-1,573,1422,0,0
-644,-398,0,0,0,0,0,0,0,0,0,-1,580,1422,0,0
-637,-398,0,0,0,0,0,0,0,0,0,-1,587,1422,0,0
-630,-398,0,0,0,0,0,0,0,0,0,-1,594,1422,0,0
-623,-398,0,0,0,0,0,0,0,0,0,-1,601,1422,0,0
-616,-398,0,0,0,0,0,0,0,0,0,-1,608,1422,0,0
-609,-398,-7.47125,-4.05322,0,0,0,0,0,0,0,-1,615,1422,-7.47128,4.05317
-602,-398,-4.58868,-2.77026,0,0,0,0,0,0,0,-1,622,1422,-4.58869,2.77023
-595,-398,-12.2224,-1.82007,0,0,0,0,0,0,0,-1,629,1422,-12.2224,1.82006
-588,-398,-10.6939,1.32336,0,0,0,0,0,0,0,-1,636,1422,-10.6939,-1.32337
-581,-398,-10.433,3.1123,0,0,0,0,0,0,0,-1,643,1422,-10.433,-3.11233
-574,-398,-11.4554,6.24683,0,0,0,0,0,0,0,-1,650,1422,-11.4554,-6.24677
-567,-398,-10.715,6.75293,0,0,0,0,0,0,0,-1,657,1422,-10.715,-6.75294
-560,-398,-10.3855,7.37732,0,0,0,0,0,0,0,-1,664,1422,-10.3855,-7.37728
-553,-398,-10.7579,7.70313,0,0,0,0,0,0,0,-1,671,1422,-10.7579,-7.70314
-546,-398,-10.7386,8.31055,-0.00337416,-0.000962882,-0.00234137,0.000465028,-0.00480207,-1.02316,0.00336711,0.0252398,678,1422,-10.7386,-8.31058
-539,-398,-10.6819,8.84314,-0.00196236,-0.000536802,-0.00147721,0.000390598,-0.00288976,-1.01018,0.00206903,0.0136426,685,1422,-10.6819,-8.84318
-532,-398,-10.695,9.323,-0.000777055,-0.00014666,-0.000722184,0.000326114,-0.00124983,-0.991162,0.000960558,0.0215607,692,1422,-10.695,-9.32295
-525,-398,-10.6981,9.8147,0.000368155,0.000299855,4.76443e-05,0.000392624,0.000275386,0.474452,0.000232731,0.0204134,699,1422,-10.698,-9.81468
-518,-398,-10.7363,10.2996,0.00157586,0.000939424,0.000945363,0.00225513,0.000260159,0.623049,0.00142464,0.0181722,706,1422,-10.7363,-10.2996
-511,-398,-10.743,10.7719,0.00287316,0.00176111,0.00198993,0.00438328,0.000250988,0.649163,0.00284222,0.0137128,713,1422,-10.743,-10.7719
-504,-398,-10.7391,11.3022,0.00426191,0.00274247,0.00314822,0.00674078,0.000263602,0.667004,0.00440861,0.0140841,720,1422,-10.7391,-11.3023
-497,-398,-10.7594,11.7882,0.00586908,0.00404823,0.00458058,0.00962883,0.00028848,0.687298,0.00632525,0.0104029,727,1422,-10.7594,-11.7883
-490,-398,-10.7736,12.2793,0.00783864,0.00578844,0.0063815,0.0132768,0.000350233,0.70576,0.00873683,0.0172223,734,1422,-10.7735,-12.2794
-483,-398,-10.7662,12.8071,0,0,0,0,0,0,0,-1,741,1422,-10.7662,-12.8071
-476,-398,-8.64392,11.9448,0,0,0,0,0,0,0,-1,748,1422,-8.6439,-11.9448
-469,-398,-8.91699,10.6276,0,0,0,0,0,0,0,-1,755,1422,-8.91697,-10.6275
-462,-398,-9.59753,9.32532,0,0,0,0,0,0,0,-1,762,1422,-9.59753,-9.32531
-455,-398,-8.08331,6.75024,0,0,0,0,0,0,0,-1,769,1422,-8.08333,-6.75022
-448,-398,-7.4505,5.25293,0,0,0,0,0,0,0,-1,776,1422,-7.4505,-5.25291
-441,-398,-7.61639,3.32141,0,0,0,0,0,0,0,-1,783,1422,-7.61637,-3.32145
-434,-398,-10.7618,3.297,0,0,0,0,0,0,0,-1,790,1422,-10.7618,-3.29704
-427,-398,-11.9061,2.24939,0,0,0,0,0,0,0,-1,797,1422,-11.9061,-2.24941
-420,-398,-13.467,2.32788,0,0,0,0,0,0,0,-1,804,1422,-13.467,-2.32787
-413,-398,-14.7983,2.15515,0,0,0,0,0,0,0,-1,811,1422,-14.7983,-2.15516
-406,-398,0,0,0,0,0,0,0,0,0,-1,818,1422,0,0
-399,-398,0,0,0,0,0,0,0,0,0,-1,825,1422,0,0
-392,-398,0,0,0,0,0,0,0,0,0,-1,832,1422,0,0
-385,-398,0,0,0,0,0,0,0,0,0,-1,839,1422,0,0
-378,-398,0,0,0,0,0,0,0,0,0,-1,846,1422,0,0
-371,-398,0,0,0,0,0,0,0,0,0,-1,853,1422,0,0
-364,-398,0,0,0,0,0,0,0,0,0,-1,860,1422,0,0
-357,-398,0,0,0,0,0,0,0,0,0,-1,867,1422,0,0
-350,-398,0,0,0,0,0,0,0,0,0,-1,874,1422,0,0
-343,-398,0,0,0,0,0,0,0,0,0,-1,881,1422,0,0
-336,-398,0,0,0,0,0,0,0,0,0,-1,888,1422,0,0
-329,-398,0,0,0,0,0,0,0,0,0,-1,895,1422,0,0
-322,-398,0,0,0,0,0,0,0,0,0,-1,902,1422,0,0
-315,-398,0,0,0,0,0,0,0,0,0,-1,909,1422,0,0
-308,-398,0,0,0,0,0,0,0,0,0,-1,916,1422,0,0
-301,-398,0,0,0,0,0,0,0,0,0,-1,923,1422,0,0
-294,-398,0,0,0,0,0,0,0,0,0,-1,930,1422,0,0
-287,-398,0,0,0,0,0,0,0,0,0,-1,937,1422,0,0
-280,-398,0,0,0,0,0,0,0,0,0,-1,944,1422,0,0
-273,-398,0,0,0,0,0,0,0,0,0,-1,951,1422,0,0
-266,-398,0,0,0,0,0,0,0,0,0,-1,958,1422,0,0
-259,-398,0,0,0,0,0,0,0,0,0,-1,965,1422,0,0
-252,-398,0,0,0,0,0,0,0,0,0,-1,972,1422,0,0
-245,-398,0,0,0,0,0,0,0,0,0,-1,979,1422,0,0
-238,-398,0,0,0,0,0,0,0,0,0,-1,986,1422,0,0
-231,-398,0,0,0,0,0,0,0,0,0,-1,993,1422,0,0
-224,-398,0,0,0,0,0,0,0,0,0,-1,1000,1422,0,0
-217,-398,0,0,0,0,0,0,0,0,0,-1,1007,1422,0,0
-210,-398,0,0,0,0,0,0,0,0,0,-1,1014,1422,0,0
-203,-398,0,0,0,0,0,0,0,0,0,-1,1021,1422,0,0
-196,-398,0,0,0,0,0,0,0,0,0,-1,1028,1422,0,0
-189,-398,0,0,0,0,0,0,0,0,0,-1,1035,1422,0,0
-182,-398,0,0,0,0,0,0,0,0,0,-1,1042,1422,0,0
-175,-398,0,0,0,0,0,0,0,0,0,-1,1049,1422,0,0
-168,-398,0,0,0,0,0,0,0,0,0,-1,1056,1422,0,0
-161,-398,0,0,0,0,0,0,0,0,0,-1,1063,1422,0,0
-154,-398,0,0,0,0,0,0,0,0,0,-1,1070,1422,0,0
-147,-398,0,0,0,0,0,0,0,0,0,-1,1077,1422,0,0
-140,-398,0,0,0,0,0,0,0,0,0,-1,1084,1422,0,0
-133,-398,0,0,0,0,0,0,0,0,0,-1,1091,1422,0,0
-126,-398,0,0,0,0,0,0,0,0,0,-1,1098,1422,0,0
-119,-398,0,0,0,0,0,0,0,0,0,-1,1105,1422,0,0
-112,-398,0,0,0,0,0,0,0,0,0,-1,1112,1422,0,0
-105,-398,0,0,0,0,0,0,0,0,0,-1,1119,1422,0,0
-98,-398,0,0,0,0,0,0,0,0,0,-1,1126,1422,0,0
-91,-398,0,0,0,0,0,0,0,0,0,-1,1133,1422,0,0
-84,-398,0,0,0,0,0,0,0,0,0,-1,1140,1422,0,0
-77,-398,0,0,0,0,0,0,0,0,0,-1,1147,1422,0,0
-70,-398,0,0,0,0,0,0,0,0,0,-1,1154,1422,0,0
-63,-398,0,0,0,0,0,0,0,0,0,-1,1161,1422,0,0
-56,-398,0,0,0,0,0,0,0,0,0,-1,1168,1422,0,0
-49,-398,0,0,0,0,0,0,0,0,0,-1,1175,1422,0,0
-42,-398,0,0,0,0,0,0,0,0,0,-1,1182,1422,0,0
-35,-398,0,0,0,0,0,0,0,0,0,-1,1189,1422,0,0
-28,-398,0,0,0,0,0,0,0,0,0,-1,1196,1422,0,0
-21,-398,0,0,0,0,0,0,0,0,0,-1,1203,1422,0,0
-14,-398,0,0,0,0,0,0,0,0,0,-1,1210,1422,0,0
-7,-398,0,0,0,0,0,0,0,0,0,-1,1217,1422,0,0
0,-398,0,0,0,0,0,0,0,0,0,-1,1224,1422,0,0
7,-398,0,0,0,0,0,0,0,0,0,-1,1231,1422,0,0
14,-398,0,0,0,0,0,0,0,0,0,-1,1238,1422,0,0
21,-398,0,0,0,0,0,0,0,0,0,-1,1245,1422,0,0
28,-398,0,0,0,0,0,0,0,0,0,-1,1252,1422,0,0
35,-398,0,0,0,0,0,0,0,0,0,-1,1259,1422,0,0
42,-398,0,0,0,0,0,0,0,0,0,-1,1266,1422,0,0
49,-398,0,0,0,0,0,0,0,0,0,-1,1273,1422,0,0
56,-398,0,0,0,0,0,0,0,0,0,-1,1280,1422,0,0
63,-398,0,0,0,0,0,0,0,0,0,-1,1287,1422,0,0
70,-398,0,0,0,0,0,0,0,0,0,-1,1294,1422,0,0
77,-398,0,0,0,0,0,0,0,0,0,-1,1301,1422,0,0
84,-398,0,0,0,0,0,0,0,0,0,-1,1308,1422,0,0
91,-398,0,0,0,0,0,0,0,0,0,-1,1315,1422,0,0
98,-398,0,0,0,0,0,0,0,0,0,-1,1322,1422,0,0
105,-398,0,0,0,0,0,0,0,0,0,-1,1329,1422,0,0
112,-398,0,0,0,0,0,0,0,0,0,-1,1336,1422,0,0
119,-398,0,0,0,0,0,0,0,0,0,-1,1343,1422,0,0
126,-398,0,0,0,0,0,0,0,0,0,-1,1350,1422,0,0
133,-398,0,0,0,0,0,0,0,0,0,-1,1357,1422,0,0
140,-398,0,0,0,0,0,0,0,0,0,-1,1364,1422,0,0
147,-398,0,0,0,0,0,0,0,0,0,-1,1371,1422,0,0
154,-398,0,0,0,0,0,0,0,0,0,-1,1378,1422,0,0
161,-398,0,0,0,0,0,0,0,0,0,-1,1385,1422,0,0
168,-398,0,0,0,0,0,0,0,0,0,-1,1392,1422,0,0
175,-398,0,0,0,0,0,0,0,0,0,-1,1399,1422,0,0
182,-398,0,0,0,0,0,0,0,0,0,-1,1406,1422,0,0
189,-398,0,0,0,0,0,0,0,0,0,-1,1413,1422,0,0
196,-398,0,0,0,0,0,0,0,0,0,-1,1420,1422,0,0
203,-398,0,0,0,0,0,0,0,0,0,-1,1427,1422,0,0
210,-398,0,0,0,0,0,0,0,0,0,-1,1434,1422,0,0
217,-398,0,0,0,0,0,0,0,0,0,-1,1441,1422,0,0
224,-398,0,0,0,0,0,0,0,0,0,-1,1448,1422,0,0
231,-398,0,0,0,0,0,0,0,0,0,-1,1455,1422,0,0
238,-398,0,0,0,0,0,0,0,0,0,-1,1462,1422,0,0
245,-398,0,0,0,0,0,0,0,0,0,-1,1469,1422,0,0
252,-398,0,0,0,0,0,0,0,0,0,-1,1476,1422,0,0
259,-398,0,0,0,0,0,0,0,0,0,-1,1483,1422,0,0
266,-398,0,0,0,0,0,0,0,0,0,-1,1490,1422,0,0
273,-398,0,0,0,0,0,0,0,0,0,-1,1497,1422,0,0
280,-398,0,0,0,0,0,0,0,0,0,-1,1504,1422,0,0
287,-398,0,0,0,0,0,0,0,0,0,-1,1511,1422,0,0
294,-398,0,0,0,0,0,0,0,0,0,-1,1518,1422,0,0
301,-398,0,0,0,0,0,0,0,0,0,-1,1525,1422,0,0
308,-398,0,0,0,0,0,0,0,0,0,-1,1532,1422,0,0
315,-398,0,0,0,0,0,0,0,0,0,-1,1539,1422,0,0
322,-398,0,0,0,0,0,0,0,0,0,-1,1546,1422,0,0
329,-398,0,0,0,0,0,0,0,0,0,-1,1553,1422,0,0
336,-398,0,0,0,0,0,0,0,0,0,-1,1560,1422,0,0
343,-398,0,0,0,0,0,0,0,0,0,-1,1567,1422,0,0
350,-398,0,0,0,0,0,0,0,0,0,-1,1574,1422,0,0
357,-398,0,0,0,0,0,0,0,0,0,-1,1581,1422,0,0
364,-398,0,0,0,0,0,0,0,0,0,-1,1588,1422,0,0
371,-398,0,0,0,0,0,0,0,0,0,-1,1595,1422,0,0
378,-398,0,0,0,0,0,0,0,0,0,-1,1602,1422,0,0
385,-398,0,0,0,0,0,0,0,0,0,-1,1609,1422,0,0
392,-398,0,0,0,0,0,0,0,0,0,-1,1616,1422,0,0
399,-398,0,0,0,0,0,0,0,0,0,-1,1623,1422,0,0
406,-398,0,0,0,0,0,0,0,0,0,-1,1630,1422,0,0
413,-398,0,0,0,0,0,0,0,0,0,-1,1637,1422,0,0
420,-398,0,0,0,0,0,0,0,0,0,-1,1644,1422,0,0
427,-398,0,0,0,0,0,0,0,0,0,-1,1651,1422,0,0
434,-398,0,0,0,0,0,0,0,0,0,-1,1658,1422,0,0
441,-398,0,0,0,0,0,0,0,0,0,-1,1665,1422,0,0
448,-398,0,0,0,0,0,0,0,0,0,-1,1672,1422,0,0
455,-398,0,0,0,0,0,0,0,0,0,-1,1679,1422,0,0
462,-398,0,0,0,0,0,0,0,0,0,-1,1686,1422,0,0
469,-398,0,0,0,0,0,0,0,0,0,-1,1693,1422,0,0
476,-398,0,0,0,0,0,0,0,0,0,-1,1700,1422,0,0
483,-398,0,0,0,0,0,0,0,0,0,-1,1707,1422,0,0
490,-398,0,0,0,0,0,0,0,0,0,-1,1714,1422,0,0
497,-398,0,0,0,0,0,0,0,0,0,-1,1721,1422,0,0
504,-398,0,0,0,0,0,0,0,0,0,-1,1728,1422,0,0
511,-398,0,0,0,0,0,0,0,0,0,-1,1735,1422,0,0
518,-398,0,0,0,0,0,0,0,0,0,-1,1742,1422,0,0
525,-398,0,0,0,0,0,0,0,0,0,-1,1749,1422,0,0
532,-398,28.4558,3.84094,0,0,0,0,0,0,0,-1,1756,1422,28.4558,-3.8409
539,-398,27.0594,3.33887,0,0,0,0,0,0,0,-1,1763,1422,27.0595,-3.3389
546,-398,31.6873,5.58582,0,0,0,0,0,0,0,-1,1770,1422,31.6872,-5.58585
553,-398,30.4392,5.92383,0,0,0,0,0,0,0,-1,1777,1422,30.4392,-5.92386
560,-398,29.1621,6.30469,0,0,0,0,0,0,0,-1,1784,1422,29.1621,-6.30469
567,-398,27.8411,6.55029,0,0,0,0,0,0,0,-1,1791,1422,27.8411,-6.55033
574,-398,26.411,6.8916,0,0,0,0,0,0,0,-1,1798,1422,26.411,-6.8916
581,-398,24.75,7.11145,0,0,0,0,0,0,0,-1,1805,1422,24.7499,-7.11142
588,-398,23.1649,7.67969,0,0,0,0,0,0,0,-1,1812,1422,23.1649,-7.67975
595,-398,21.4253,7.86023,0,0,0,0,0,0,0,-1,1819,1422,21.4253,-7.86029
602,-398,19.6857,8.04077,0,0,0,0,0,0,0,-1,1826,1422,19.6856,-8.04083
609,-398,21.1835,13.2628,0,0,0,0,0,0,0,-1,1833,1422,21.1835,-13.2628
616,-398,24.1672,14.7236,0,0,0,0,0,0,0,-1,1840,1422,24.1672,-14.7236
623,-398,24.4562,13.9435,0.00107008,0.000825083,-0.000209226,0.00119003,0.000705134,-0.520557,0.000690976,0.0306784,1847,1422,24.4562,-13.9434
630,-398,24.4836,13.4462,0.0012735,-0.000202795,-0.000340043,0.00134805,-0.000277354,-0.215846,0.00100401,0.0130368,1854,1422,24.4837,-13.4462
637,-398,24.4727,13.0135,0.00116567,-5.6095e-05,-0.000607731,0.00141648,-0.000306905,-0.391406,0.00106152,0.0137315,1861,1422,24.4726,-13.0136
644,-398,24.3748,12.5928,0.000913062,-0.000179329,-0.000355377,0.0010185,-0.000284764,-0.288413,0.00079119,0.0199372,1868,1422,24.3747,-12.5928
651,-398,24.4019,12.1969,0.000843737,-0.000286337,-0.000155172,0.000864656,-0.000307257,-0.134008,0.000701652,0.0280966,1875,1422,24.4019,-12.197
658,-398,24.4397,11.7592,0.000860207,-0.000317064,3.03518e-06,0.000860215,-0.000317071,0.00257813,0.000703406,0.0239632,1882,1422,24.4397,-11.7592
665,-398,24.4304,11.2633,0.000996709,-0.000385251,0.000187401,0.00102167,-0.000410212,0.13242,0.000851453,0.0160613,1889,1422,24.4304,-11.2633
672,-398,24.3988,10.7875,0.00122393,-0.000461302,0.000384799,0.00130764,-0.000545008,0.214194,0.00109942,0.0139126,1896,1422,24.3988,-10.7875
679,-398,24.3702,10.347,0.00154059,-0.000656102,0.000631007,0.00170895,-0.000824458,0.260731,0.00149208,0.0126275,1903,1422,24.3702,-10.3471
686,-398,24.3917,9.90173,0.0018189,-0.00114682,0.00111054,0.00218865,-0.00151658,0.321403,0.00215091,0.0198146,1910,1422,24.3917,-9.90175
693,-398,24.4043,9.48633,0,0,0,0,0,0,0,-1,1917,1422,24.4043,-9.48637
700,-398,23.662,9.57727,0,0,0,0,0,0,0,-1,1924,1422,23.662,-9.57733
707,-398,10.9731,5.479,0,0,0,0,0,0,0,-1,1931,1422,10.9732,-5.47896
714,-398,11.7313,6.17346,0,0,0,0,0,0,0,-1,1938,1422,11.7313,-6.17348
721,-398,13.9371,8.05103,0,0,0,0,0,0,0,-1,1945,1422,13.9372,-8.05102
728,-398,14.786,7.0282,0,0,0,0,0,0,0,-1,1952,1422,14.786,-7.0282
735,-398,0,0,0,0,0,0,0,0,0,-1,1959,1422,0,0
742,-398,0,0,0,0,0,0,0,0,0,-1,1966,1422,0,0
749,-398,0,0,0,0,0,0,0,0,0,-1,1973,1422,0,0
756,-398,0,0,0,0,0,0,0,0,0,-1,1980,1422,0,0
763,-398,0,0,0,0,0,0,0,0,0,-1,1987,1422,0,0
770,-398,0,0,0,0,0,0,0,0,0,-1,1994,1422,0,0
777,-398,0,0,0,0,0,0,0,0,0,-1,2001,1422,0,0
784,-398,0,0,0,0,0,0,0,0,0,-1,2008,1422,0,0
791,-398,0,0,0,0,0,0,0,0,0,-1,2015,1422,0,0
798,-398,0,0,0,0,0,0,0,0,0,-1,2022,1422,0,0
805,-398,0,0,0,0,0,0,0,0,0,-1,2029,1422,0,0
812,-398,0,0,0,0,0,0,0,0,0,-1,2036,1422,0,0
-700,-405,0,0,0,0,0,0,0,0,0,-1,524,1429,0,0
-693,-405,0,0,0,0,0,0,0,0,0,-1,531,1429,0,0
-686,-405,0,0,0,0,0,0,0,0,0,-1,538,1429,0,0
-679,-405,0,0,0,0,0,0,0,0,0,-1,545,1429,0,0
-672,-405,0,0,0,0,0,0,0,0,0,-1,552,1429,0,0
-665,-405,0,0,0,0,0,0,0,0,0,-1,559,1429,0,0
-658,-405,0,0,0,0,0,0,0,0,0,-1,566,1429,0,0
-651,-405,0,0,0,0,0,0,0,0,0,-1,573,1429,0,0
-644,-405,0,0,0,0,0,0,0,0,0,-1,580,1429,0,0
-637,-405,0,0,0,0,0,0,0,0,0,-1,587,1429,0,0
-630,-405,0,0,0,0,0,0,0,0,0,-1,594,1429,0,0
-623,-405,0,0,0,0,0,0,0,0,0,-1,601,1429,0,0
-616,-405,0,0,0,0,0,0,0,0,0,-1,608,1429,0,0
-609,-405,0,0,0,0,0,0,0,0,0,-1,615,1429,0,0
-602,-405,-5.80988,-3.46594,0,0,0,0,0,0,0,-1,622,1429,-5.80987,3.46592
-595,-405,-9.35413,2.01477,0,0,0,0,0,0,0,-1,629,1429,-9.35411,-2.01476
-588,-405,-7.35693,0.507202,0,0,0,0,0,0,0,-1,636,1429,-7.35696,-0.507187
-581,-405,-10.1284,1.62927,0,0,0,0,0,0,0,-1,643,1429,-10.1284,-1.62922
-574,-405,-9.32074,3.05896,0,0,0,0,0,0,0,-1,650,1429,-9.32077,-3.0589
-567,-405,-10.358,6.85962,0,0,0,0,0,0,0,-1,657,1429,-10.358,-6.85962
-560,-405,-9.28674,7.20886,0,0,0,0,0,0,0,-1,664,1429,-9.28675,-7.20885
-553,-405,-10.1999,7.78198,0,0,0,0,0,0,0,-1,671,1429,-10.1999,-7.78198
-546,-405,-10.2151,8.30139,-0.00398385,-0.000882806,-0.00257764,0.00057472,-0.00544138,-1.05617,0.00383354,0.0381604,678,1429,-10.2151,-8.30143
-539,-405,-10.2184,8.7998,-0.00256498,-0.000553821,-0.00173785,0.000448409,-0.00356721,-1.04768,0.00254084,0.0130347,685,1429,-10.2184,-8.79977
-532,-405,-10.2097,9.30676,-0.00143035,-0.000252006,-0.00104306,0.000356775,-0.00203913,-1.04249,0.00149263,0.0156584,692,1429,-10.2097,-9.30675
-525,-405,-10.2227,9.82324,-0.000351521,9.56992e-05,-0.000360477,0.000296289,-0.000552111,-1.06301,0.000497191,0.0151647,699,1429,-10.2227,-9.82326
-518,-405,-10.2316,10.313,0.000788014,0.000648122,0.000449321,0.0011728,0.000263336,0.708182,0.000710545,0.015631,706,1429,-10.2316,-10.313
-511,-405,-10.268,10.7964,0.00200574,0.00141975,0.00141775,0.00316046,0.000265036,0.683502,0.00202442,0.0160476,713,1429,-10.268,-10.7964
-504,-405,-10.2623,11.3109,0.00329778,0.00234341,0.00248623,0.0053522,0.000288986,0.690585,0.00347581,0.0184764,720,1429,-10.2623,-11.311
-497,-405,-10.2492,11.8191,0.00479716,0.00358236,0.00380841,0.00804631,0.000333211,0.70632,0.00525665,0.0152784,727,1429,-10.2492,-11.8191
-490,-405,-10.2825,12.306,0.00663443,0.00523322,0.00549254,0.0114709,0.000396779,0.721963,0.00751848,0.012926,734,1429,-10.2826,-12.306
-483,-405,-10.2416,12.849,0.00869776,0.00733343,0.00752541,0.0155719,0.000459327,0.740198,0.0102316,0.0208532,741,1429,-10.2416,-12.849
-476,-405,-10.0872,13.5552,0,0,0,0,0,0,0,-1,748,1429,-10.0872,-13.5551
-469,-405,-9.65692,12.8171,0,0,0,0,0,0,0,-1,755,1429,-9.65691,-12.8172
-462,-405,-9.14862,11.3597,0,0,0,0,0,0,0,-1,762,1429,-9.14865,-11.3597
-455,-405,-9.021,9.51111,0,0,0,0,0,0,0,-1,769,1429,-9.021,-9.51109
-448,-405,-8.4649,6.82813,0,0,0,0,0,0,0,-1,776,1429,-8.46492,-6.82817
-441,-405,-6.6712,4.23767,0,0,0,0,0,0,0,-1,783,1429,-6.67121,-4.23764
-434,-405,-9.62549,3.94189,0,0,0,0,0,0,0,-1,790,1429,-9.62546,-3.94191
-427,-405,-10.9764,3.73926,0,0,0,0,0,0,0,-1,797,1429,-10.9764,-3.73923
-420,-405,-12.1187,3.68506,0,0,0,0,0,0,0,-1,804,1429,-12.1187,-3.68512
-413,-405,-13.5353,3.75659,0,0,0,0,0,0,0,-1,811,1429,-13.5353,-3.75655
-406,-405,-14.7374,3.99817,0,0,0,0,0,0,0,-1,818,1429,-14.7374,-3.99814
-399,-405,0,0,0,0,0,0,0,0,0,-1,825,1429,0,0
-392,-405,0,0,0,0,0,0,0,0,0,-1,832,1429,0,0
-385,-405,0,0,0,0,0,0,0,0,0,-1,839,1429,0,0
-378,-405,0,0,0,0,0,0,0,0,0,-1,846,1429,0,0
-371,-405,0,0,0,0,0,0,0,0,0,-1,853,1429,0,0
-364,-405,0,0,0,0,0,0,0,0,0,-1,860,1429,0,0
-357,-405,0,0,0,0,0,0,0,0,0,-1,867,1429,0,0
-350,-405,0,0,0,0,0,0,0,0,0,-1,874,1429,0,0
-343,-405,0,0,0,0,0,0,0,0,0,-1,881,1429,0,0
-336,-405,0,0,0,0,0,0,0,0,0,-1,888,1429,0,0
-329,-405,0,0,0,0,0,0,0,0,0,-1,895,1429,0,0
-322,-405,0,0,0,0,0,0,0,0,0,-1,902,1429,0,0
-315,-405,0,0,0,0,0,0,0,0,0,-1,909,1429,0,0
-308,-405,0,0,0,0,0,0,0,0,0,-1,916,1429,0,0
-301,-405,0,0,0,0,0,0,0,0,0,-1,923,1429,0,0
-294,-405,0,0,0,0,0,0,0,0,0,-1,930,1429,0,0
-287,-405,0,0,0,0,0,0,0,0,0,-1,937,1429,0,0
-280,-405,0,0,0,0,0,0,0,0,0,-1,944,1429,0,0
-273,-405,0,0,0,0,0,0,0,0,0,-1,951,1429,0,0
-266,-405,0,0,0,0,0,0,0,0,0,-1,958,1429,0,0
-259,-405,0,0,0,0,0,0,0,0,0,-1,965,1429,0,0
-252,-405,0,0,0,0,0,0,0,0,0,-1,972,1429,0,0
-245,-405,0,0,0,0,0,0,0,0,0,-1,979,1429,0,0
-238,-405,0,0,0,0,0,0,0,0,0,-1,986,1429,0,0
-231,-405,0,0,0,0,0,0,0,0,0,-1,993,1429,0,0
-224,-405,0,0,0,0,0,0,0,0,0,-1,1000,1429,0,0
-217,-405,0,0,0,0,0,0,0,0,0,-1,1007,1429,0,0
-210,-405,0,0,0,0,0,0,0,0,0,-1,1014,1429,0,0
-203,-405,0,0,0,0,0,0,0,0,0,-1,1021,1429,0,0
-196,-405,0,0,0,0,0,0,0,0,0,-1,1028,1429,0,0
-189,-405,0,0,0,0,0,0,0,0,0,-1,1035,1429,0,0
-182,-405,0,0,0,0,0,0,0,0,0,-1,1042,1429,0,0
-175,-405,0,0,0,0,0,0,0,0,0,-1,1049,1429,0,0
-168,-405,0,0,0,0,0,0,0,0,0,-1,1056,1429,0,0
-161,-405,0,0,0,0,0,0,0,0,0,-1,1063,1429,0,0
-154,-405,0,0,0,0,0,0,0,0,0,-1,1070,1429,0,0
-147,-405,0,0,0,0,0,0,0,0,0,-1,1077,1429,0,0
-140,-405,0,0,0,0,0,0,0,0,0,-1,1084,1429,0,0
-133,-405,0,0,0,0,0,0,0,0,0,-1,1091,1429,0,0
-126,-405,0,0,0,0,0,0,0,0,0,-1,1098,1429,0,0
-119,-405,0,0,0,0,0,0,0,0,0,-1,1105,1429,0,0
-112,-405,0,0,0,0,0,0,0,0,0,-1,1112,1429,0,0
-105,-405,0,0,0,0,0,0,0,0,0,-1,1119,1429,0,0
-98,-405,0,0,0,0,0,0,0,0,0,-1,1126,1429,0,0
-91,-405,0,0,0,0,0,0,0,0,0,-1,1133,1429,0,0
-84,-405,0,0,0,0,0,0,0,0,0,-1,1140,1429,0,0
-77,-405,0,0,0,0,0,0,0,0,0,-1,1147,1429,0,0
-70,-405,0,0,0,0,0,0,0,0,0,-1,1154,1429,0,0
-63,-405,0,0,0,0,0,0,0,0,0,-1,1161,1429,0,0
-56,-405,0,0,0,0,0,0,0,0,0,-1,1168,1429,0,0
-49,-405,0,0,0,0,0,0,0,0,0,-1,1175,1429,0,0
-42,-405,0,0,0,0,0,0,0,0,0,-1,1182,1429,0,0
-35,-405,0,0,0,0,0,0,0,0,0,-1,1189,1429,0,0
-28,-405,0,0,0,0,0,0,0,0,0,-1,1196,1429,0,0
-21,-405,0,0,0,0,0,0,0,0,0,-1,1203,1429,0,0
-14,-405,0,0,0,0,0,0,0,0,0,-1,1210,1429,0,0
-7,-405,0,0,0,0,0,0,0,0,0,-1,1217,1429,0,0
0,-405,0,0,0,0,0,0,0,0,0,-1,1224,1429,0,0
7,-405,0,0,0,0,0,0,0,0,0,-1,1231,1429,0,0
14,-405,0,0,0,0,0,0,0,0,0,-1,1238,1429,0,0
21,-405,0,0,0,0,0,0,0,0,0,-1,1245,1429,0,0
28,-405,0,0,0,0,0,0,0,0,0,-1,1252,1429,0,0
35,-405,0,0,0,0,0,0,0,0,0,-1,1259,1429,0,0
42,-405,0,0,0,0,0,0,0,0,0,-1,1266,1429,0,0
49,-405,0,0,0,0,0,0,0,0,0,-1,1273,1429,0,0
56,-405,0,0,0,0,0,0,0,0,0,-1,1280,1429,0,0
63,-405,0,0,0,0,0,0,0,0,0,-1,1287,1429,0,0
70,-405,0,0,0,0,0,0,0,0,0,-1,1294,1429,0,0
77,-405,0,0,0,0,0,0,0,0,0,-1,1301,1429,0,0
84,-405,0,0,0,0,0,0,0,0,0,-1,1308,1429,0,0
91,-405,0,0,0,0,0,0,0,0,0,-1,1315,1429,0,0
98,-405,0,0,0,0,0,0,0,0,0,-1,1322,1429,0,0
105,-405,0,0,0,0,0,0,0,0,0,-1,1329,1429,0,0
112,-405,0,0,0,0,0,0,0,0,0,-1,1336,1429,0,0
119,-405,0,0,0,0,0,0,0,0,0,-1,1343,1429,0,0
126,-405,0,0,0,0,0,0,0,0,0,-1,1350,1429,0,0
133,-405,0,0,0,0,0,0,0,0,0,-1,1357,1429,0,0
140,-405,0,0,0,0,0,0,0,0,0,-1,1364,1429,0,0
147,-405,0,0,0,0,0,0,0,0,0,-1,1371,1429,0,0
154,-405,0,0,0,0,0,0,0,0,0,-1,1378,1429,0,0
161,-405,0,0,0,0,0,0,0,0,0,-1,1385,1429,0,0
168,-405,0,0,0,0,0,0,0,0,0,-1,1392,1429,0,0
175,-405,0,0,0,0,0,0,0,0,0,-1,1399,1429,0,0
182,-405,0,0,0,0,0,0,0,0,0,-1,1406,1429,0,0
189,-405,0,0,0,0,0,0,0,0,0,-1,1413,1429,0,0
196,-405,0,0,0,0,0,0,0,0,0,-1,1420,1429,0,0
203,-405,0,0,0,0,0,0,0,0,0,-1,1427,1429,0,0
210,-405,0,0,0,0,0,0,0,0,0,-1,1434,1429,0,0
217,-405,0,0,0,0,0,0,0,0,0,-1,1441,1429,0,0
224,-405,0,0,0,0,0,0,0,0,0,-1,1448,1429,0,0
231,-405,0,0,0,0,0,0,0,0,0,-1,1455,1429,0,0
238,-405,0,0,0,0,0,0,0,0,0,-1,1462,1429,0,0
245,-405,0,0,0,0,0,0,0,0,0,-1,1469,1429,0,0
252,-405,0,0,0,0,0,0,0,0,0,-1,1476,1429,0,0
259,-405,0,0,0,0,0,0,0,0,0,-1,1483,1429,0,0
266,-405,0,0,0,0,0,0,0,0,0,-1,1490,1429,0,0
273,-405,0,0,0,0,0,0,0,0,0,-1,1497,1429,0,0
280,-405,0,0,0,0,0,0,0,0,0,-1,1504,1429,0,0
287,-405,0,0,0,0,0,0,0,0,0,-1,1511,1429,0,0
294,-405,0,0,0,0,0,0,0,0,0,-1,1518,1429,0,0
301,-405,0,0,0,0,0,0,0,0,0,-1,1525,1429,0,0
308,-405,0,0,0,0,0,0,0,0,0,-1,1532,1429,0,0
315,-405,0,0,0,0,0,0,0,0,0,-1,1539,1429,0,0
322,-405,0,0,0,0,0,0,0,0,0,-1,1546,1429,0,0
329,-405,0,0,0,0,0,0,0,0,0,-1,1553,1429,0,0
336,-405,0,0,0,0,0,0,0,0,0,-1,1560,1429,0,0
343,-405,0,0,0,0,0,0,0,0,0,-1,1567,1429,0,0
350,-405,0,0,0,0,0,0,0,0,0,-1,1574,1429,0,0
357,-405,0,0,0,0,0,0,0,0,0,-1,1581,1429,0,0
364,-405,0,0,0,0,0,0,0,0,0,-1,1588,1429,0,0
371,-405,0,0,0,0,0,0,0,0,0,-1,1595,1429,0,0
378,-405,0,0,0,0,0,0,0,0,0,-1,1602,1429,0,0
385,-405,0,0,0,0,0,0,0,0,0,-1,1609,1429,0,0
392,-405,0,0,0,0,0,0,0,0,0,-1,1616,1429,0,0
399,-405,0,0,0,0,0,0,0,0,0,-1,1623,1429,0,0
406,-405,0,0,0,0,0,0,0,0,0,-1,1630,1429,0,0
413,-405,0,0,0,0,0,0,0,0,0,-1,1637,1429,0,0
420,-405,0,0,0,0,0,0,0,0,0,-1,1644,1429,0,0
427,-405,0,0,0,0,0,0,0,0,0,-1,1651,1429,0,0
434,-405,0,0,0,0,0,0,0,0,0,-1,1658,1429,0,0
441,-405,0,0,0,0,0,0,0,0,0,-1,1665,1429,0,0
448,-405,0,0,0,0,0,0,0,0,0,-1,1672,1429,0,0
455,-405,0,0,0,0,0,0,0,0,0,-1,1679,1429,0,0
462,-405,0,0,0,0,0,0,0,0,0,-1,1686,1429,0,0
469,-405,0,0,0,0,0,0,0,0,0,-1,1693,1429,0,0
476,-405,0,0,0,0,0,0,0,0,0,-1,1700,1429,0,0
483,-405,0,0,0,0,0,0,0,0,0,-1,1707,1429,0,0
490,-405,0,0,0,0,0,0,0,0,0,-1,1714,1429,0,0
497,-405,0,0,0,0,0,0,0,0,0,-1,1721,1429,0,0
504,-405,0,0,0,0,0,0,0,0,0,-1,1728,1429,0,0
511,-405,0,0,0,0,0,0,0,0,0,-1,1735,1429,0,0
518,-405,0,0,0,0,0,0,0,0,0,-1,1742,1429,0,0
525,-405,31.1563,-1.40942,0,0,0,0,0,0,0,-1,1749,1429,31.1563,1.40937
532,-405,28.156,4.8783,0,0,0,0,0,0,0,-1,1756,1429,28.1561,-4.87833
539,-405,26.5133,3.02454,0,0,0,0,0,0,0,-1,1763,1429,26.5133,-3.0246
546,-405,29.5735,6.53052,0,0,0,0,0,0,0,-1,1770,1429,29.5735,-6.53049
553,-405,28.2911,6.70654,0,0,0,0,0,0,0,-1,1777,1429,28.2912,-6.70656
560,-405,26.9299,7.08472,0,0,0,0,0,0,0,-1,1784,1429,26.9299,-7.08469
567,-405,25.804,7.14661,0,0,0,0,0,0,0,-1,1791,1429,25.8039,-7.14665
574,-405,25.1151,8.07971,0,0,0,0,0,0,0,-1,1798,1429,25.1151,-8.07965
581,-405,23.5055,8.505,0,0,0,0,0,0,0,-1,1805,1429,23.5054,-8.50501
588,-405,21.7491,8.98254,0,0,0,0,0,0,0,-1,1812,1429,21.7491,-8.98254
595,-405,21.6327,10.7795,0,0,0,0,0,0,0,-1,1819,1429,21.6327,-10.7796
602,-405,21.6461,13.9199,0,0,0,0,0,0,0,-1,1826,1429,21.6461,-13.92
609,-405,23.8824,15.1263,0,0,0,0,0,0,0,-1,1833,1429,23.8824,-15.1264
616,-405,23.9614,14.5537,0.0024801,0.00241392,-0.00270291,0.00515012,-0.000256098,-0.779278,0.00352188,0.0308566,1840,1429,23.9614,-14.5537
623,-405,24.0021,14.0049,0.00209315,0.00105972,-0.00140518,0.00307361,7.92583e-05,-0.609212,0.00202317,0.0124662,1847,1429,24.002,-14.0049
630,-405,24.0291,13.4989,0.00165345,0.00026134,-0.000890305,0.0020875,-0.00017271,-0.453621,0.00145266,0.0109384,1854,1429,24.0291,-13.4989
637,-405,24.019,13.0413,0.001236,-6.96638e-05,-0.000580653,0.00145687,-0.000290529,-0.363474,0.00108118,0.0116025,1861,1429,24.0191,-13.0412
644,-405,23.8947,12.6656,0.000985696,-0.000217888,-0.000357693,0.00108397,-0.000316166,-0.268138,0.000847919,0.0295242,1868,1429,23.8946,-12.6657
651,-405,23.8455,12.2584,0.000886353,-0.000316014,-0.000193062,0.000916592,-0.000346253,-0.155367,0.000753482,0.0325199,1875,1429,23.8454,-12.2585
658,-405,23.9611,11.7709,0.000848959,-0.000316993,-6.16e-05,0.000852204,-0.000320238,-0.0526371,0.00069975,0.0234421,1882,1429,23.961,-11.7709
665,-405,23.9692,11.2495,0.000918678,-0.000327267,9.09345e-05,0.00092528,-0.000333869,0.0724725,0.000753225,0.0181691,1889,1429,23.9692,-11.2496
672,-405,23.9594,10.8057,0.00105037,-0.00030096,0.000257246,0.00109768,-0.000348274,0.181893,0.000871396,0.0234669,1896,1429,23.9594,-10.8057
679,-405,23.9688,10.3695,0.0012456,-0.000431736,0.000505767,0.0013863,-0.000572437,0.271334,0.00116296,0.0227787,1903,1429,23.9687,-10.3695
686,-405,23.7869,9.85583,0.00130463,-0.000906277,0.0010922,0.00175318,-0.00135482,0.389683,0.00179931,0.0406417,1910,1429,23.7868,-9.85589
693,-405,23.5143,9.422,0,0,0,0,0,0,0,-1,1917,1429,23.5143,-9.42202
700,-405,9.1958,4.02026,0,0,0,0,0,0,0,-1,1924,1429,9.19579,-4.02025
707,-405,7.40308,3.83191,0,0,0,0,0,0,0,-1,1931,1429,7.40311,-3.83194
714,-405,7.33252,3.47388,0,0,0,0,0,0,0,-1,1938,1429,7.33255,-3.47383
721,-405,9.23523,0.993896,0,0,0,0,0,0,0,-1,1945,1429,9.23523,-0.993884
728,-405,0,0,0,0,0,0,0,0,0,-1,1952,1429,0,0
735,-405,0,0,0,0,0,0,0,0,0,-1,1959,1429,0,0
742,-405,0,0,0,0,0,0,0,0,0,-1,1966,1429,0,0
749,-405,0,0,0,0,0,0,0,0,0,-1,1973,1429,0,0
756,-405,0,0,0,0,0,0,0,0,0,-1,1980,1429,0,0
763,-405,0,0,0,0,0,0,0,0,0,-1,1987,1429,0,0
770,-405,0,0,0,0,0,0,0,0,0,-1,1994,1429,0,0
777,-405,0,0,0,0,0,0,0,0,0,-1,2001,1429,0,0
784,-405,0,0,0,0,0,0,0,0,0,-1,2008,1429,0,0
791,-405,0,0,0,0,0,0,0,0,0,-1,2015,1429,0,0
798,-405,0,0,0,0,0,0,0,0,0,-1,2022,1429,0,0
805,-405,0,0,0,0,0,0,0,0,0,-1,2029,1429,0,0
812,-405,0,0,0,0,0,0,0,0,0,-1,2036,1429,0,0
-700,-412,0,0,0,0,0,0,0,0,0,-1,524,1436,0,0
-693,-412,0,0,0,0,0,0,0,0,0,-1,531,1436,0,0
-686,-412,0,0,0,0,0,0,0,0,0,-1,538,1436,0,0
-679,-412,0,0,0,0,0,0,0,0,0,-1,545,1436,0,0
-672,-412,0,0,0,0,0,0,0,0,0,-1,552,1436,0,0
-665,-412,0,0,0,0,0,0,0,0,0,-1,559,1436,0,0
-658,-412,0,0,0,0,0,0,0,0,0,-1,566,1436,0,0
-651,-412,0,0,0,0,0,0,0,0,0,-1,573,1436,0,0
-644,-412,0,0,0,0,0,0,0,0,0,-1,580,1436,0,0
-637,-412,0,0,0,0,0,0,0,0,0,-1,587,1436,0,0
-630,-412,0,0,0,0,0,0,0,0,0,-1,594,1436,0,0
-623,-412,0,0,0,0,0,0,0,0,0,-1,601,1436,0,0
-616,-412,0,0,0,0,0,0,0,0,0,-1,608,1436,0,0
-609,-412,0,0,0,0,0,0,0,0,0,-1,615,1436,0,0
-602,-412,-3.72766,-3.50012,0,0,0,0,0,0,0,-1,622,1436,-3.72764,3.50017
-595,-412,-10.3706,0.65564,0,0,0,0,0,0,0,-1,629,1436,-10.3706,-0.655672
-588,-412,-8.17957,1.94934,0,0,0,0,0,0,0,-1,636,1436,-8.17956,-1.94939
-581,-412,-6.60065,-0.0554199,0,0,0,0,0,0,0,-1,643,1436,-6.60063,0.0554733
-574,-412,-8.34131,5.25012,0,0,0,0,0,0,0,-1,650,1436,-8.34129,-5.25012
-567,-412,-7.50354,3.65454,0,0,0,0,0,0,0,-1,657,1436,-7.50356,-3.65452
-560,-412,-8.52448,7.39014,0,0,0,0,0,0,0,-1,664,1436,-8.52447,-7.39019
-553,-412,-7.36761,6.54651,0,0,0,0,0,0,0,-1,671,1436,-7.36763,-6.54654
-546,-412,-9.69165,8.33154,0,0,0,0,0,0,0,-1,678,1436,-9.69162,-8.33149
-539,-412,-9.69275,8.78906,-0.00299132,-0.000527389,-0.00189866,0.00050397,-0.00402268,-1.07319,0.00286459,0.0226429,685,1436,-9.69276,-8.78908
-532,-412,-9.71661,9.37073,-0.0020686,-0.000378667,-0.00133928,0.000359922,-0.00280719,-1.06682,0.00200225,0.0140523,692,1436,-9.71661,-9.37073
-525,-412,-9.72229,9.88159,-0.00114947,-0.000173217,-0.000790573,0.000267781,-0.00159047,-1.06197,0.00115992,0.0156799,699,1436,-9.72229,-9.88159
-518,-412,-9.72644,10.3485,-0.000146576,0.000251781,-0.000105223,0.000277867,-0.000172661,-1.32779,0.000262466,0.0161689,706,1436,-9.72646,-10.3485
-511,-412,-9.77057,10.8213,0.000984635,0.000959389,0.000781452,0.00175357,0.000190459,0.777322,0.00111101,0.0185878,713,1436,-9.77055,-10.8213
-504,-412,-9.78119,11.3491,0.00221496,0.00183579,0.00178695,0.00382235,0.000228403,0.732548,0.00247562,0.0184691,720,1436,-9.7812,-11.3491
-497,-412,-9.78406,11.8514,0.00364493,0.00301052,0.00302198,0.00636631,0.000289144,0.733107,0.00415118,0.0150064,727,1436,-9.78404,-11.8515
-490,-412,-9.80194,12.334,0.00540426,0.00456679,0.00459249,0.00959706,0.000373978,0.739935,0.0062771,0.0127119,734,1436,-9.80196,-12.3339
-483,-412,-9.80682,12.7948,0.0074904,0.00648274,0.00652481,0.0135308,0.000442342,0.746866,0.00887676,0.0094326,741,1436,-9.80684,-12.7948
-476,-412,-9.66876,13.4871,0.00997636,0.00892087,0.0089193,0.0183835,0.000513714,0.755848,0.0120881,0.0293542,748,1436,-9.66877,-13.4871
-469,-412,-9.58167,14.1979,0,0,0,0,0,0,0,-1,755,1436,-9.58166,-14.1979
-462,-412,-8.94659,13.3385,0,0,0,0,0,0,0,-1,762,1436,-8.94657,-13.3385
-455,-412,-8.25006,11.2572,0,0,0,0,0,0,0,-1,769,1436,-8.25007,-11.2572
-448,-412,-7.38086,8.78186,0,0,0,0,0,0,0,-1,776,1436,-7.38088,-8.78183
-441,-412,-8.79523,9.05286,0,0,0,0,0,0,0,-1,783,1436,-8.79521,-9.0529
-434,-412,-10.6305,8.03577,0,0,0,0,0,0,0,-1,790,1436,-10.6305,-8.0358
-427,-412,-10.0004,5.15271,0,0,0,0,0,0,0,-1,797,1436,-10.0004,-5.15266
-420,-412,-10.4468,4.9043,0,0,0,0,0,0,0,-1,804,1436,-10.4468,-4.90429
-413,-412,-11.5704,4.97766,0,0,0,0,0,0,0,-1,811,1436,-11.5704,-4.97771
-406,-412,-13.1968,5.70093,0,0,0,0,0,0,0,-1,818,1436,-13.1968,-5.70096
-399,-412,-10.5506,0.771973,0,0,0,0,0,0,0,-1,825,1436,-10.5506,-0.771954
-392,-412,0,0,0,0,0,0,0,0,0,-1,832,1436,0,0
-385,-412,0,0,0,0,0,0,0,0,0,-1,839,1436,0,0
-378,-412,0,0,0,0,0,0,0,0,0,-1,846,1436,0,0
-371,-412,0,0,0,0,0,0,0,0,0,-1,853,1436,0,0
-364,-412,0,0,0,0,0,0,0,0,0,-1,860,1436,0,0
-357,-412,0,0,0,0,0,0,0,0,0,-1,867,1436,0,0
-350,-412,0,0,0,0,0,0,0,0,0,-1,874,1436,0,0
-343,-412,0,0,0,0,0,0,0,0,0,-1,881,1436,0,0
-336,-412,0,0,0,0,0,0,0,0,0,-1,888,1436,0,0
-329,-412,0,0,0,0,0,0,0,0,0,-1,895,1436,0,0
-322,-412,0,0,0,0,0,0,0,0,0,-1,902,1436,0,0
-315,-412,0,0,0,0,0,0,0,0,0,-1,909,1436,0,0
-308,-412,0,0,0,0,0,0,0,0,0,-1,916,1436,0,0
-301,-412,0,0,0,0,0,0,0,0,0,-1,923,1436,0,0
-294,-412,0,0,0,0,0,0,0,0,0,-1,930,1436,0,0
-287,-412,0,0,0,0,0,0,0,0,0,-1,937,1436,0,0
-280,-412,0,0,0,0,0,0,0,0,0,-1,944,1436,0,0
-273,-412,0,0,0,0,0,0,0,0,0,-1,951,1436,0,0
-266,-412,0,0,0,0,0,0,0,0,0,-1,958,1436,0,0
-259,-412,0,0,0,0,0,0,0,0,0,-1,965,1436,0,0
-252,-412,0,0,0,0,0,0,0,0,0,-1,972,1436,0,0
-245,-412,0,0,0,0,0,0,0,0,0,-1,979,1436,0,0
-238,-412,0,0,0,0,0,0,0,0,0,-1,986,1436,0,0
-231,-412,0,0,0,0,0,0,0,0,0,-1,993,1436,0,0
-224,-412,0,0,0,0,0,0,0,0,0,-1,1000,1436,0,0
-217,-412,0,0,0,0,0,0,0,0,0,-1,1007,1436,0,0
-210,-412,0,0,0,0,0,0,0,0,0,-1,1014,1436,0,0
-203,-412,0,0,0,0,0,0,0,0,0,-1,1021,1436,0,0
-196,-412,0,0,0,0,0,0,0,0,0,-1,1028,1436,0,0
-189,-412,0,0,0,0,0,0,0,0,0,-1,1035,1436,0,0
-182,-412,0,0,0,0,0,0,0,0,0,-1,1042,1436,0,0
-175,-412,0,0,0,0,0,0,0,0,0,-1,1049,1436,0,0
-168,-412,0,0,0,0,0,0,0,0,0,-1,1056,1436,0,0
-161,-412,0,0,0,0,0,0,0,0,0,-1,1063,1436,0,0
-154,-412,0,0,0,0,0,0,0,0,0,-1,1070,1436,0,0
-147,-412,0,0,0,0,0,0,0,0,0,-1,1077,1436,0,0
-140,-412,0,0,0,0,0,0,0,0,0,-1,1084,1436,0,0
-133,-412,0,0,0,0,0,0,0,0,0,-1,1091,1436,0,0
-126,-412,0,0,0,0,0,0,0,0,0,-1,1098,1436,0,0
-119,-412,0,0,0,0,0,0,0,0,0,-1,1105,1436,0,0
-112,-412,0,0,0,0,0,0,0,0,0,-1,1112,1436,0,0
-105,-412,0,0,0,0,0,0,0,0,0,-1,1119,1436,0,0
-98,-412,0,0,0,0,0,0,0,0,0,-1,1126,1436,0,0
-91,-412,0,0,0,0,0,0,0,0,0,-1,1133,1436,0,0
-84,-412,0,0,0,0,0,0,0,0,0,-1,1140,1436,0,0
-77,-412,0,0,0,0,0,0,0,0,0,-1,1147,1436,0,0
-70,-412,0,0,0,0,0,0,0,0,0,-1,1154,1436,0,0
-63,-412,0,0,0,0,0,0,0,0,0,-1,1161,1436,0,0
-56,-412,0,0,0,0,0,0,0,0,0,-1,1168,1436,0,0
-49,-412,0,0,0,0,0,0,0,0,0,-1,1175,1436,0,0
-42,-412,0,0,0,0,0,0,0,0,0,-1,1182,1436,0,0
-35,-412,0,0,0,0,0,0,0,0,0,-1,1189,1436,0,0
-28,-412,0,0,0,0,0,0,0,0,0,-1,1196,1436,0,0
-21,-412,0,0,0,0,0,0,0,0,0,-1,1203,1436,0,0
-14,-412,0,0,0,0,0,0,0,0,0,-1,1210,1436,0,0
-7,-412,0,0,0,0,0,0,0,0,0,-1,1217,1436,0,0
0,-412,0,0,0,0,0,0,0,0,0,-1,1224,1436,0,0
7,-412,0,0,0,0,0,0,0,0,0,-1,1231,1436,0,0
14,-412,0,0,0,0,0,0,0,0,0,-1,1238,1436,0,0
21,-412,0,0,0,0,0,0,0,0,0,-1,1245,1436,0,0
28,-412,0,0,0,0,0,0,0,0,0,-1,1252,1436,0,0
35,-412,0,0,0,0,0,0,0,0,0,-1,1259,1436,0,0
42,-412,0,0,0,0,0,0,0,0,0,-1,1266,1436,0,0
49,-412,0,0,0,0,0,0,0,0,0,-1,1273,1436,0,0
56,-412,0,0,0,0,0,0,0,0,0,-1,1280,1436,0,0
63,-412,0,0,0,0,0,0,0,0,0,-1,1287,1436,0,0
70,-412,0,0,0,0,0,0,0,0,0,-1,1294,1436,0,0
77,-412,0,0,0,0,0,0,0,0,0,-1,1301,1436,0,0
84,-412,0,0,0,0,0,0,0,0,0,-1,1308,1436,0,0
91,-412,0,0,0,0,0,0,0,0,0,-1,1315,1436,0,0
98,-412,0,0,0,0,0,0,0,0,0,-1,1322,1436,0,0
105,-412,0,0,0,0,0,0,0,0,0,-1,1329,1436,0,0
112,-412,0,0,0,0,0,0,0,0,0,-1,1336,1436,0,0
119,-412,0,0,0,0,0,0,0,0,0,-1,1343,1436,0,0
126,-412,0,0,0,0,0,0,0,0,0,-1,1350,1436,0,0
133,-412,0,0,0,0,0,0,0,0,0,-1,1357,1436,0,0
140,-412,0,0,0,0,0,0,0,0,0,-1,1364,1436,0,0
147,-412,0,0,0,0,0,0,0,0,0,-1,1371,1436,0,0
154,-412,0,0,0,0,0,0,0,0,0,-1,1378,1436,0,0
161,-412,0,0,0,0,0,0,0,0,0,-1,1385,1436,0,0
168,-412,0,0,0,0,0,0,0,0,0,-1,1392,1436,0,0
175,-412,0,0,0,0,0,0,0,0,0,-1,1399,1436,0,0
182,-412,0,0,0,0,0,0,0,0,0,-1,1406,1436,0,0
189,-412,0,0,0,0,0,0,0,0,0,-1,1413,1436,0,0
196,-412,0,0,0,0,0,0,0,0,0,-1,1420,1436,0,0
203,-412,0,0,0,0,0,0,0,0,0,-1,1427,1436,0,0
210,-412,0,0,0,0,0,0,0,0,0,-1,1434,1436,0,0
217,-412,0,0,0,0,0,0,0,0,0,-1,1441,1436,0,0
224,-412,0,0,0,0,0,0,0,0,0,-1,1448,1436,0,0
231,-412,0,0,0,0,0,0,0,0,0,-1,1455,1436,0,0
238,-412,0,0,0,0,0,0,0,0,0,-1,1462,1436,0,0
245,-412,0,0,0,0,0,0,0,0,0,-1,1469,1436,0,0
252,-412,0,0,0,0,0,0,0,0,0,-1,1476,1436,0,0
259,-412,0,0,0,0,0,0,0,0,0,-1,1483,1436,0,0
266,-412,0,0,0,0,0,0,0,0,0,-1,1490,1436,0,0
273,-412,0,0,0,0,0,0,0,0,0,-1,1497,1436,0,0
280,-412,0,0,0,0,0,0,0,0,0,-1,1504,1436,0,0
287,-412,0,0,0,0,0,0,0,0,0,-1,1511,1436,0,0
294,-412,0,0,0,0,0,0,0,0,0,-1,1518,1436,0,0
301,-412,0,0,0,0,0,0,0,0,0,-1,1525,1436,0,0
308,-412,0,0,0,0,0,0,0,0,0,-1,1532,1436,0,0
315,-412,0,0,0,0,0,0,0,0,0,-1,1539,1436,0,0
322,-412,0,0,0,0,0,0,0,0,0,-1,1546,1436,0,0
329,-412,0,0,0,0,0,0,0,0,0,-1,1553,1436,0,0
336,-412,0,0,0,0,0,0,0,0,0,-1,1560,1436,0,0
343,-412,0,0,0,0,0,0,0,0,0,-1,1567,1436,0,0
350,-412,0,0,0,0,0,0,0,0,0,-1,1574,1436,0,0
357,-412,0,0,0,0,0,0,0,0,0,-1,1581,1436,0,0
364,-412,0,0,0,0,0,0,0,0,0,-1,1588,1436,0,0
371,-412,0,0,0,0,0,0,0,0,0,-1,1595,1436,0,0
378,-412,0,0,0,0,0,0,0,0,0,-1,1602,1436,0,0
385,-412,0,0,0,0,0,0,0,0,0,-1,1609,1436,0,0
392,-412,0,0,0,0,0,0,0,0,0,-1,1616,1436,0,0
399,-412,0,0,0,0,0,0,0,0,0,-1,1623,1436,0,0
406,-412,0,0,0,0,0,0,0,0,0,-1,1630,1436,0,0
413,-412,0,0,0,0,0,0,0,0,0,-1,1637,1436,0,0
420,-412,0,0,0,0,0,0,0,0,0,-1,1644,1436,0,0
427,-412,0,0,0,0,0,0,0,0,0,-1,1651,1436,0,0
434,-412,0,0,0,0,0,0,0,0,0,-1,1658,1436,0,0
441,-412,0,0,0,0,0,0,0,0,0,-1,1665,1436,0,0
448,-412,0,0,0,0,0,0,0,0,0,-1,1672,1436,0,0
455,-412,0,0,0,0,0,0,0,0,0,-1,1679,1436,0,0
462,-412,0,0,0,0,0,0,0,0,0,-1,1686,1436,0,0
469,-412,0,0,0,0,0,0,0,0,0,-1,1693,1436,0,0
476,-412,0,0,0,0,0,0,0,0,0,-1,1700,1436,0,0
483,-412,0,0,0,0,0,0,0,0,0,-1,1707,1436,0,0
490,-412,0,0,0,0,0,0,0,0,0,-1,1714,1436,0,0
497,-412,0,0,0,0,0,0,0,0,0,-1,1721,1436,0,0
504,-412,0,0,0,0,0,0,0,0,0,-1,1728,1436,0,0
511,-412,0,0,0,0,0,0,0,0,0,-1,1735,1436,0,0
518,-412,30.1038,-2.43384,0,0,0,0,0,0,0,-1,1742,1436,30.1038,2.43383
525,-412,29.5283,-1.42493,0,0,0,0,0,0,0,-1,1749,1436,29.5283,1.42495
532,-412,28.8533,-0.386597,0,0,0,0,0,0,0,-1,1756,1436,28.8533,0.386632
539,-412,25.8654,2.74683,0,0,0,0,0,0,0,-1,1763,1436,25.8654,-2.74685
546,-412,25.4265,2.4342,0,0,0,0,0,0,0,-1,1770,1436,25.4265,-2.4342
553,-412,26.3595,7.49255,0,0,0,0,0,0,0,-1,1777,1436,26.3595,-7.4925
560,-412,24.9116,7.94324,0,0,0,0,0,0,0,-1,1784,1436,24.9116,-7.94327
567,-412,23.668,7.94531,0,0,0,0,0,0,0,-1,1791,1436,23.6679,-7.94534
574,-412,23.0142,9.17236,0,0,0,0,0,0,0,-1,1798,1436,23.0141,-9.17235
581,-412,22.2615,10.0349,0,0,0,0,0,0,0,-1,1805,1436,22.2615,-10.0349
588,-412,21.6893,10.8069,0,0,0,0,0,0,0,-1,1812,1436,21.6893,-10.8069
595,-412,21.5137,14.3157,0,0,0,0,0,0,0,-1,1819,1436,21.5137,-14.3157
602,-412,23.459,15.575,0,0,0,0,0,0,0,-1,1826,1436,23.459,-15.5749
609,-412,23.5621,14.9321,0.00349125,0.00253656,-0.00347896,0.00652546,-0.000497643,-0.71722,0.00452532,0.0244416,1833,1436,23.5621,-14.9321
616,-412,23.5957,14.4464,0.00273019,0.00157654,-0.0021516,0.00438094,-7.42145e-05,-0.654432,0.00294568,0.0102856,1840,1436,23.5957,-14.4465
623,-412,23.5729,13.9899,0.00208274,0.00078904,-0.0013122,0.00289886,-2.70804e-05,-0.556402,0.00194166,0.00931621,1847,1436,23.5728,-13.9898
630,-412,23.5764,13.5072,0.00159704,0.000302528,-0.000897138,0.00205604,-0.000156469,-0.472903,0.00142571,0.0111858,1854,1436,23.5765,-13.5073
637,-412,23.567,13.0554,0.00122048,-3.13764e-05,-0.000573324,0.00144336,-0.000254263,-0.370782,0.00105724,0.0134927,1861,1436,23.567,-13.0555
644,-412,23.5464,12.6226,0.00100936,-0.000207561,-0.000353915,0.0011048,-0.000303004,-0.263412,0.00085561,0.0154134,1868,1436,23.5464,-12.6226
651,-412,23.4904,12.2147,0.000918011,-0.000313897,-0.000200469,0.000949813,-0.000345698,-0.157324,0.000774596,0.0257296,1875,1436,23.4903,-12.2148
658,-412,23.536,11.698,0.000879468,-0.000314813,-8.51181e-05,0.000885503,-0.000320849,-0.0707946,0.000721472,0.0166827,1882,1436,23.536,-11.698
665,-412,23.5166,11.2559,0.000923037,-0.000291904,3.52088e-05,0.000924057,-0.000292924,0.0289474,0.000733443,0.020688,1889,1436,23.5166,-11.2559
672,-412,23.5386,10.8307,0.000989545,-0.000175827,0.00015168,0.00100896,-0.000195245,0.12733,0.000746287,0.0278558,1896,1436,23.5385,-10.8307
679,-412,23.579,10.3666,0.0010923,-0.000257563,0.000366336,0.00118531,-0.000350573,0.248639,0.000929375,0.0409379,1903,1436,23.579,-10.3665
686,-412,23.4542,9.79712,0,0,0,0,0,0,0,-1,1910,1436,23.4542,-9.79713
693,-412,11.9346,6.02344,0,0,0,0,0,0,0,-1,1917,1436,11.9346,-6.02343
700,-412,8.82764,5.8844,0,0,0,0,0,0,0,-1,1924,1436,8.82761,-5.88444
707,-412,6.59998,1.68994,0,0,0,0,0,0,0,-1,1931,1436,6.60002,-1.68995
714,-412,4.77283,-2.39832,0,0,0,0,0,0,0,-1,1938,1436,4.77288,2.39835
721,-412,0,0,0,0,0,0,0,0,0,-1,1945,1436,0,0
728,-412,0,0,0,0,0,0,0,0,0,-1,1952,1436,0,0
735,-412,0,0,0,0,0,0,0,0,0,-1,1959,1436,0,0
742,-412,0,0,0,0,0,0,0,0,0,-1,1966,1436,0,0
749,-412,0,0,0,0,0,0,0,0,0,-1,1973,1436,0,0
756,-412,0,0,0,0,0,0,0,0,0,-1,1980,1436,0,0
763,-412,0,0,0,0,0,0,0,0,0,-1,1987,1436,0,0
770,-412,0,0,0,0,0,0,0,0,0,-1,1994,1436,0,0
777,-412,0,0,0,0,0,0,0,0,0,-1,2001,1436,0,0
784,-412,0,0,0,0,0,0,0,0,0,-1,2008,1436,0,0
791,-412,0,0,0,0,0,0,0,0,0,-1,2015,1436,0,0
798,-412,0,0,0,0,0,0,0,0,0,-1,2022,1436,0,0
805,-412,0,0,0,0,0,0,0,0,0,-1,2029,1436,0,0
812,-412,0,0,0,0,0,0,0,0,0,-1,2036,1436,0,0
-700,-419,0,0,0,0,0,0,0,0,0,-1,524,1443,0,0
-693,-419,0,0,0,0,0,0,0,0,0,-1,531,1443,0,0
-686,-419,0,0,0,0,0,0,0,0,0,-1,538,1443,0,0
-679,-419,0,0,0,0,0,0,0,0,0,-1,545,1443,0,0
-672,-419,0,0,0,0,0,0,0,0,0,-1,552,1443,0,0
-665,-419,0,0,0,0,0,0,0,0,0,-1,559,1443,0,0
-658,-419,0,0,0,0,0,0,0,0,0,-1,566,1443,0,0
-651,-419,0,0,0,0,0,0,0,0,0,-1,573,1443,0,0
-644,-419,0,0,0,0,0,0,0,0,0,-1,580,1443,0,0
-637,-419,0,0,0,0,0,0,0,0,0,-1,587,1443,0,0
-630,-419,0,0,0,0,0,0,0,0,0,-1,594,1443,0,0
-623,-419,0,0,0,0,0,0,0,0,0,-1,601,1443,0,0
-616,-419,0,0,0,0,0,0,0,0,0,-1,608,1443,0,0
-609,-419,0,0,0,0,0,0,0,0,0,-1,615,1443,0,0
-602,-419,0,0,0,0,0,0,0,0,0,-1,622,1443,0,0
-595,-419,-11.4904,-0.622681,0,0,0,0,0,0,0,-1,629,1443,-11.4903,0.622714
-588,-419,-9.09369,0.742432,0,0,0,0,0,0,0,-1,636,1443,-9.09366,-0.742482
-581,-419,-6.39172,2.14673,0,0,0,0,0,0,0,-1,643,1443,-6.39175,-2.14668
-574,-419,-4.09772,3.54773,0,0,0,0,0,0,0,-1,650,1443,-4.09772,-3.54767
-567,-419,-6.14038,3.22498,0,0,0,0,0,0,0,-1,657,1443,-6.14037,-3.22497
-560,-419,-4.52814,5.22253,0,0,0,0,0,0,0,-1,664,1443,-4.52816,-5.22251
-553,-419,-5.08331,6.11829,0,0,0,0,0,0,0,-1,671,1443,-5.08331,-6.1183
-546,-419,-8.84418,8.31812,0,0,0,0,0,0,0,-1,678,1443,-8.8442,-8.31813
-539,-419,-8.98621,8.88208,-0.00401817,-0.0006487,-0.00217203,0.000415391,-0.00508226,-1.11526,0.00353478,0.0475591,685,1443,-8.9862,-8.88205
-532,-419,-9.24304,9.37024,-0.0029784,-0.000581171,-0.00161505,0.000231446,-0.00379101,-1.10463,0.00260792,0.0219576,692,1443,-9.24302,-9.37018
-525,-419,-9.21271,9.90955,-0.00200148,-0.00048225,-0.0011246,0.000115246,-0.00259897,-1.08243,0.00177231,0.0128511,699,1443,-9.21273,-9.90952
-518,-419,-9.19427,10.3807,-0.000958801,-0.000150915,-0.000502404,8.97968e-05,-0.00119951,-1.12399,0.000831226,0.0169342,706,1443,-9.19425,-10.3807
-511,-419,-9.22687,10.8727,0.0001665,0.000472441,0.00028951,0.000646909,-7.96808e-06,1.02844,0.000433953,0.0190852,713,1443,-9.22686,-10.8727
-504,-419,-9.27246,11.376,0.001373,0.00130299,0.00121783,0.00255633,0.00011966,0.771031,0.00166576,0.018563,720,1443,-9.27245,-11.376
-497,-419,-9.29358,11.8605,0.00275476,0.00241332,0.00234804,0.00493828,0.000229798,0.749109,0.00321832,0.0135877,727,1443,-9.29358,-11.8605
-490,-419,-9.30908,12.3357,0.00442167,0.00386573,0.00377766,0.00793158,0.000355826,0.748673,0.00517319,0.01106,734,1443,-9.30909,-12.3357
-483,-419,-9.31073,12.8115,0.00641364,0.00561838,0.00555518,0.0115854,0.000446619,0.74967,0.00757911,0.00955883,741,1443,-9.31074,-12.8116
-476,-419,-9.29022,13.345,0.00871538,0.00779159,0.00767728,0.0159446,0.000562322,0.755352,0.0104474,0.0136952,748,1443,-9.29025,-13.345
-469,-419,-9.21875,14.0189,0.0117261,0.0104886,0.0104444,0.0215701,0.000644625,0.755814,0.0141701,0.0309181,755,1443,-9.21878,-14.0189
-462,-419,-9.08368,14.6829,0,0,0,0,0,0,0,-1,762,1443,-9.08367,-14.6828
-455,-419,-7.35645,11.9451,0,0,0,0,0,0,0,-1,769,1443,-7.35646,-11.9451
-448,-419,-7.49109,9.92444,0,0,0,0,0,0,0,-1,776,1443,-7.49109,-9.92442
-441,-419,-7.65527,8.75574,0,0,0,0,0,0,0,-1,783,1443,-7.65525,-8.75568
-434,-419,-11.3724,12.3643,0,0,0,0,0,0,0,-1,790,1443,-11.3724,-12.3643
-427,-419,-8.23193,7.89404,0,0,0,0,0,0,0,-1,797,1443,-8.23193,-7.89404
-420,-419,-8.74091,6.36597,0,0,0,0,0,0,0,-1,804,1443,-8.74089,-6.366
-413,-419,-9.88391,6.53955,0,0,0,0,0,0,0,-1,811,1443,-9.8839,-6.53955
-406,-419,-10.3372,2.75195,0,0,0,0,0,0,0,-1,818,1443,-10.3372,-2.75201
-399,-419,-11.5999,1.40002,0,0,0,0,0,0,0,-1,825,1443,-11.5999,-1.39998
-392,-419,0,0,0,0,0,0,0,0,0,-1,832,1443,0,0
-385,-419,0,0,0,0,0,0,0,0,0,-1,839,1443,0,0
-378,-419,0,0,0,0,0,0,0,0,0,-1,846,1443,0,0
-371,-419,0,0,0,0,0,0,0,0,0,-1,853,1443,0,0
-364,-419,0,0,0,0,0,0,0,0,0,-1,860,1443,0,0
-357,-419,0,0,0,0,0,0,0,0,0,-1,867,1443,0,0
-350,-419,0,0,0,0,0,0,0,0,0,-1,874,1443,0,0
-343,-419,0,0,0,0,0,0,0,0,0,-1,881,1443,0,0
-336,-419,0,0,0,0,0,0,0,0,0,-1,888,1443,0,0
-329,-419,0,0,0,0,0,0,0,0,0,-1,895,1443,0,0
-322,-419,0,0,0,0,0,0,0,0,0,-1,902,1443,0,0
-315,-419,0,0,0,0,0,0,0,0,0,-1,909,1443,0,0
-308,-419,0,0,0,0,0,0,0,0,0,-1,916,1443,0,0
-301,-419,0,0,0,0,0,0,0,0,0,-1,923,1443,0,0
-294,-419,0,0,0,0,0,0,0,0,0,-1,930,1443,0,0
-287,-419,0,0,0,0,0,0,0,0,0,-1,937,1443,0,0
-280,-419,0,0,0,0,0,0,0,0,0,-1,944,1443,0,0
-273,-419,0,0,0,0,0,0,0,0,0,-1,951,1443,0,0
-266,-419,0,0,0,0,0,0,0,0,0,-1,958,1443,0,0
-259,-419,0,0,0,0,0,0,0,0,0,-1,965,1443,0,0
-252,-419,0,0,0,0,0,0,0,0,0,-1,972,1443,0,0
-245,-419,0,0,0,0,0,0,0,0,0,-1,979,1443,0,0
-238,-419,0,0,0,0,0,0,0,0,0,-1,986,1443,0,0
-231,-419,0,0,0,0,0,0,0,0,0,-1,993,1443,0,0
-224,-419,0,0,0,0,0,0,0,0,0,-1,1000,1443,0,0
-217,-419,0,0,0,0,0,0,0,0,0,-1,1007,1443,0,0
-210,-419,0,0,0,0,0,0,0,0,0,-1,1014,1443,0,0
-203,-419,0,0,0,0,0,0,0,0,0,-1,1021,1443,0,0
-196,-419,0,0,0,0,0,0,0,0,0,-1,1028,1443,0,0
-189,-419,0,0,0,0,0,0,0,0,0,-1,1035,1443,0,0
-182,-419,0,0,0,0,0,0,0,0,0,-1,1042,1443,0,0
-175,-419,0,0,0,0,0,0,0,0,0,-1,1049,1443,0,0
-168,-419,0,0,0,0,0,0,0,0,0,-1,1056,1443,0,0
-161,-419,0,0,0,0,0,0,0,0,0,-1,1063,1443,0,0
-154,-419,0,0,0,0,0,0,0,0,0,-1,1070,1443,0,0
-147,-419,0,0,0,0,0,0,0,0,0,-1,1077,1443,0,0
-140,-419,0,0,0,0,0,0,0,0,0,-1,1084,1443,0,0
-133,-419,0,0,0,0,0,0,0,0,0,-1,1091,1443,0,0
-126,-419,0,0,0,0,0,0,0,0,0,-1,1098,1443,0,0
-119,-419,0,0,0,0,0,0,0,0,0,-1,1105,1443,0,0
-112,-419,0,0,0,0,0,0,0,0,0,-1,1112,1443,0,0
-105,-419,0,0,0,0,0,0,0,0,0,-1,1119,1443,0,0
-98,-419,0,0,0,0,0,0,0,0,0,-1,1126,1443,0,0
-91,-419,0,0,0,0,0,0,0,0,0,-1,1133,1443,0,0
-84,-419,0,0,0,0,0,0,0,0,0,-1,1140,1443,0,0
-77,-419,0,0,0,0,0,0,0,0,0,-1,1147,1443,0,0
-70,-419,0,0,0,0,0,0,0,0,0,-1,1154,1443,0,0
-63,-419,0,0,0,0,0,0,0,0,0,-1,1161,1443,0,0
-56,-419,0,0,0,0,0,0,0,0,0,-1,1168,1443,0,0
-49,-419,0,0,0,0,0,0,0,0,0,-1,1175,1443,0,0
-42,-419,0,0,0,0,0,0,0,0,0,-1,1182,1443,0,0
-35,-419,0,0,0,0,0,0,0,0,0,-1,1189,1443,0,0
-28,-419,0,0,0,0,0,0,0,0,0,-1,1196,1443,0,0
-21,-419,0,0,0,0,0,0,0,0,0,-1,1203,1443,0,0
-14,-419,0,0,0,0,0,0,0,0,0,-1,1210,1443,0,0
-7,-419,0,0,0,0,0,0,0,0,0,-1,1217,1443,0,0
0,-419,0,0,0,0,0,0,0,0,0,-1,1224,1443,0,0
7,-419,0,0,0,0,0,0,0,0,0,-1,1231,1443,0,0
14,-419,0,0,0,0,0,0,0,0,0,-1,1238,1443,0,0
21,-419,0,0,0,0,0,0,0,0,0,-1,1245,1443,0,0
28,-419,0,0,0,0,0,0,0,0,0,-1,1252,1443,0,0
35,-419,0,0,0,0,0,0,0,0,0,-1,1259,1443,0,0
42,-419,0,0,0,0,0,0,0,0,0,-1,1266,1443,0,0
49,-419,0,0,0,0,0,0,0,0,0,-1,1273,1443,0,0
56,-419,0,0,0,0,0,0,0,0,0,-1,1280,1443,0,0
63,-419,0,0,0,0,0,0,0,0,0,-1,1287,1443,0,0
70,-419,0,0,0,0,0,0,0,0,0,-1,1294,1443,0,0
77,-419,0,0,0,0,0,0,0,0,0,-1,1301,1443,0,0
84,-419,0,0,0,0,0,0,0,0,0,-1,1308,1443,0,0
91,-419,0,0,0,0,0,0,0,0,0,-1,1315,1443,0,0
98,-419,0,0,0,0,0,0,0,0,0,-1,1322,1443,0,0
105,-419,0,0,0,0,0,0,0,0,0,-1,1329,1443,0,0
112,-419,0,0,0,0,0,0,0,0,0,-1,1336,1443,0,0
119,-419,0,0,0,0,0,0,0,0,0,-1,1343,1443,0,0
126,-419,0,0,0,0,0,0,0,0,0,-1,1350,1443,0,0
133,-419,0,0,0,0,0,0,0,0,0,-1,1357,1443,0,0
140,-419,0,0,0,0,0,0,0,0,0,-1,1364,1443,0,0
147,-419,0,0,0,0,0,0,0,0,0,-1,1371,1443,0,0
154,-419,0,0,0,0,0,0,0,0,0,-1,1378,1443,0,0
161,-419,0,0,0,0,0,0,0,0,0,-1,1385,1443,0,0
168,-419,0,0,0,0,0,0,0,0,0,-1,1392,1443,0,0
175,-419,0,0,0,0,0,0,0,0,0,-1,1399,1443,0,0
182,-419,0,0,0,0,0,0,0,0,0,-1,1406,1443,0,0
189,-419,0,0,0,0,0,0,0,0,0,-1,1413,1443,0,0
196,-419,0,0,0,0,0,0,0,0,0,-1,1420,1443,0,0
203,-419,0,0,0,0,0,0,0,0,0,-1,1427,1443,0,0
210,-419,0,0,0,0,0,0,0,0,0,-1,1434,1443,0,0
217,-419,0,0,0,0,0,0,0,0,0,-1,1441,1443,0,0
224,-419,0,0,0,0,0,0,0,0,0,-1,1448,1443,0,0
231,-419,0,0,0,0,0,0,0,0,0,-1,1455,1443,0,0
238,-419,0,0,0,0,0,0,0,0,0,-1,1462,1443,0,0
245,-419,0,0,0,0,0,0,0,0,0,-1,1469,1443,0,0
252,-419,0,0,0,0,0,0,0,0,0,-1,1476,1443,0,0
259,-419,0,0,0,0,0,0,0,0,0,-1,1483,1443,0,0
266,-419,0,0,0,0,0,0,0,0,0,-1,1490,1443,0,0
273,-419,0,0,0,0,0,0,0,0,0,-1,1497,1443,0,0
280,-419,0,0,0,0,0,0,0,0,0,-1,1504,1443,0,0
287,-419,0,0,0,0,0,0,0,0,0,-1,1511,1443,0,0
294,-419,0,0,0,0,0,0,0,0,0,-1,1518,1443,0,0
301,-419,0,0,0,0,0,0,0,0,0,-1,1525,1443,0,0
308,-419,0,0,0,0,0,0,0,0,0,-1,1532,1443,0,0
315,-419,0,0,0,0,0,0,0,0,0,-1,1539,1443,0,0
322,-419,0,0,0,0,0,0,0,0,0,-1,1546,1443,0,0
329,-419,0,0,0,0,0,0,0,0,0,-1,1553,1443,0,0
336,-419,0,0,0,0,0,0,0,0,0,-1,1560,1443,0,0
343,-419,0,0,0,0,0,0,0,0,0,-1,1567,1443,0,0
350,-419,0,0,0,0,0,0,0,0,0,-1,1574,1443,0,0
357,-419,0,0,0,0,0,0,0,0,0,-1,1581,1443,0,0
364,-419,0,0,0,0,0,0,0,0,0,-1,1588,1443,0,0
371,-419,0,0,0,0,0,0,0,0,0,-1,1595,1443,0,0
378,-419,0,0,0,0,0,0,0,0,0,-1,1602,1443,0,0
385,-419,0,0,0,0,0,0,0,0,0,-1,1609,1443,0,0
392,-419,0,0,0,0,0,0,0,0,0,-1,1616,1443,0,0
399,-419,0,0,0,0,0,0,0,0,0,-1,1623,1443,0,0
406,-419,0,0,0,0,0,0,0,0,0,-1,1630,1443,0,0
413,-419,0,0,0,0,0,0,0,0,0,-1,1637,1443,0,0
420,-419,0,0,0,0,0,0,0,0,0,-1,1644,1443,0,0
427,-419,0,0,0,0,0,0,0,0,0,-1,1651,1443,0,0
434,-419,0,0,0,0,0,0,0,0,0,-1,1658,1443,0,0
441,-419,0,0,0,0,0,0,0,0,0,-1,1665,1443,0,0
448,-419,0,0,0,0,0,0,0,0,0,-1,1672,1443,0,0
455,-419,0,0,0,0,0,0,0,0,0,-1,1679,1443,0,0
462,-419,0,0,0,0,0,0,0,0,0,-1,1686,1443,0,0
469,-419,0,0,0,0,0,0,0,0,0,-1,1693,1443,0,0
476,-419,0,0,0,0,0,0,0,0,0,-1,1700,1443,0,0
483,-419,0,0,0,0,0,0,0,0,0,-1,1707,1443,0,0
490,-419,0,0,0,0,0,0,0,0,0,-1,1714,1443,0,0
497,-419,0,0,0,0,0,0,0,0,0,-1,1721,1443,0,0
504,-419,0,0,0,0,0,0,0,0,0,-1,1728,1443,0,0
511,-419,20.3005,3.7959,0,0,0,0,0,0,0,-1,1735,1443,20.3005,-3.79584
518,-419,21.3154,2.03027,0,0,0,0,0,0,0,-1,1742,1443,21.3155,-2.03029
525,-419,28.3439,-1.24475,0,0,0,0,0,0,0,-1,1749,1443,28.3438,1.24471
532,-419,27.5902,-0.272583,0,0,0,0,0,0,0,-1,1756,1443,27.5902,0.272526
539,-419,26.5278,1.60583,0,0,0,0,0,0,0,-1,1763,1443,26.5279,-1.60579
546,-419,24.9509,2.77539,0,0,0,0,0,0,0,-1,1770,1443,24.9509,-2.77537
553,-419,24.118,3.75525,0,0,0,0,0,0,0,-1,1777,1443,24.1181,-3.75526
560,-419,11.8199,8.26343,0,0,0,0,0,0,0,-1,1784,1443,11.82,-8.26341
567,-419,21.5143,8.74719,0,0,0,0,0,0,0,-1,1791,1443,21.5143,-8.74722
574,-419,19.5886,6.46155,0,0,0,0,0,0,0,-1,1798,1443,19.5886,-6.46157
581,-419,20.7926,11.4265,0,0,0,0,0,0,0,-1,1805,1443,20.7926,-11.4265
588,-419,19.4242,12.5363,0,0,0,0,0,0,0,-1,1812,1443,19.4242,-12.5362
595,-419,22.8689,16.0092,0,0,0,0,0,0,0,-1,1819,1443,22.8689,-16.0091
602,-419,23.152,15.339,0.00401797,0.00308098,-0.0032076,0.0067911,0.000307845,-0.712882,0.00442836,0.0307506,1826,1443,23.152,-15.339
609,-419,23.1614,14.9161,0.00323529,0.00218069,-0.00244519,0.00520939,0.000206593,-0.679201,0.00340615,0.0162785,1833,1443,23.1614,-14.9162
616,-419,23.1392,14.4772,0.00245957,0.00132792,-0.00174354,0.00372679,6.06929e-05,-0.628497,0.00246455,0.0115818,1840,1443,23.1391,-14.4771
623,-419,23.1201,14.0117,0.00189229,0.000755339,-0.00122267,0.00267218,-2.45451e-05,-0.567791,0.00178969,0.00979151,1847,1443,23.1201,-14.0118
630,-419,23.1279,13.5267,0.00150848,0.000281,-0.000823767,0.001922,-0.000132523,-0.465238,0.00132772,0.0113661,1854,1443,23.128,-13.5268
637,-419,23.1156,13.092,0.0011963,-3.61388e-05,-0.000486135,0.00136497,-0.00020481,-0.333967,0.000985374,0.0123737,1861,1443,23.1156,-13.092
644,-419,23.0944,12.6633,0.00104311,-0.000212926,-0.000265017,0.00109674,-0.000266554,-0.199658,0.000834328,0.0117971,1868,1443,23.0944,-12.6633
651,-419,23.0792,12.228,0.000976081,-0.000304743,-0.000119681,0.000987168,-0.00031583,-0.0923751,0.000784864,0.0110764,1875,1443,23.0792,-12.2281
658,-419,23.0577,11.7371,0.000970339,-0.000300156,-1.77618e-05,0.000970587,-0.000300405,-0.0139765,0.000767058,0.0127577,1882,1443,23.0578,-11.7371
665,-419,23.0731,11.3062,0.0010154,-0.000233839,6.54082e-05,0.00101881,-0.000237254,0.0521683,0.000770567,0.0200437,1889,1443,23.0731,-11.3062
672,-419,23.1084,10.8308,0.00102946,-6.34951e-06,0.000113148,0.00104167,-1.85654e-05,0.107547,0.000700719,0.0288351,1896,1443,23.1084,-10.8309
679,-419,23.2529,10.3921,0,0,0,0,0,0,0,-1,1903,1443,23.2529,-10.3921
686,-419,17.4127,8.03076,0,0,0,0,0,0,0,-1,1910,1443,17.4127,-8.03071
693,-419,8.76086,5.60535,0,0,0,0,0,0,0,-1,1917,1443,8.76091,-5.6054
700,-419,11.0498,4.85156,0,0,0,0,0,0,0,-1,1924,1443,11.0498,-4.85153
707,-419,9.5752,1.80042,0,0,0,0,0,0,0,-1,1931,1443,9.57523,-1.80037
714,-419,5.77576,-1.25061,0,0,0,0,0,0,0,-1,1938,1443,5.7757,1.25056
721,-419,0,0,0,0,0,0,0,0,0,-1,1945,1443,0,0
728,-419,0,0,0,0,0,0,0,0,0,-1,1952,1443,0,0
735,-419,0,0,0,0,0,0,0,0,0,-1,1959,1443,0,0
742,-419,0,0,0,0,0,0,0,0,0,-1,1966,1443,0,0
749,-419,0,0,0,0,0,0,0,0,0,-1,1973,1443,0,0
756,-419,0,0,0,0,0,0,0,0,0,-1,1980,1443,0,0
763,-419,0,0,0,0,0,0,0,0,0,-1,1987,1443,0,0
770,-419,0,0,0,0,0,0,0,0,0,-1,1994,1443,0,0
777,-419,0,0,0,0,0,0,0,0,0,-1,2001,1443,0,0
784,-419,0,0,0,0,0,0,0,0,0,-1,2008,1443,0,0
791,-419,0,0,0,0,0,0,0,0,0,-1,2015,1443,0,0
798,-419,0,0,0,0,0,0,0,0,0,-1,2022,1443,0,0
805,-419,0,0,0,0,0,0,0,0,0,-1,2029,1443,0,0
812,-419,0,0,0,0,0,0,0,0,0,-1,2036,1443,0,0
-700,-426,0,0,0,0,0,0,0,0,0,-1,524,1450,0,0
-693,-426,0,0,0,0,0,0,0,0,0,-1,531,1450,0,0
-686,-426,0,0,0,0,0,0,0,0,0,-1,538,1450,0,0
-679,-426,0,0,0,0,0,0,0,0,0,-1,545,1450,0,0
-672,-426,0,0,0,0,0,0,0,0,0,-1,552,1450,0,0
-665,-426,0,0,0,0,0,0,0,0,0,-1,559,1450,0,0
-658,-426,0,0,0,0,0,0,0,0,0,-1,566,1450,0,0
-651,-426,0,0,0,0,0,0,0,0,0,-1,573,1450,0,0
-644,-426,0,0,0,0,0,0,0,0,0,-1,580,1450,0,0
-637,-426,0,0,0,0,0,0,0,0,0,-1,587,1450,0,0
-630,-426,0,0,0,0,0,0,0,0,0,-1,594,1450,0,0
-623,-426,0,0,0,0,0,0,0,0,0,-1,601,1450,0,0
-616,-426,0,0,0,0,0,0,0,0,0,-1,608,1450,0,0
-609,-426,0,0,0,0,0,0,0,0,0,-1,615,1450,0,0
-602,-426,0,0,0,0,0,0,0,0,0,-1,622,1450,0,0
-595,-426,0,0,0,0,0,0,0,0,0,-1,629,1450,0,0
-588,-426,-10.184,-0.554321,0,0,0,0,0,0,0,-1,636,1450,-10.184,0.554321
-581,-426,-7.3349,1.48157,0,0,0,0,0,0,0,-1,643,1450,-7.33491,-1.48152
-574,-426,-5.02856,2.89319,0,0,0,0,0,0,0,-1,650,1450,-5.02858,-2.89319
-567,-426,-3.04797,1.72644,0,0,0,0,0,0,0,-1,657,1450,-3.04797,-1.72639
-560,-426,-5.55682,3.44397,0,0,0,0,0,0,0,-1,664,1450,-5.55684,-3.44399
-553,-426,-4.67017,6.66614,0,0,0,0,0,0,0,-1,671,1450,-4.67015,-6.66619
-546,-426,-7.58752,8.28882,0,0,0,0,0,0,0,-1,678,1450,-7.58752,-8.28878
-539,-426,-8.34393,8.99304,0,0,0,0,0,0,0,-1,685,1450,-8.34396,-8.99301
-532,-426,-8.6015,9.40417,-0.00358305,-0.000385897,-0.00164418,0.000308726,-0.00427767,-1.17107,0.00296006,0.044302,692,1450,-8.60148,-9.40418
-525,-426,-8.73413,9.85242,-0.00267162,-0.000423208,-0.00125384,0.000136614,-0.00323144,-1.15087,0.00220124,0.0179773,699,1450,-8.73416,-9.85247
-518,-426,-8.70935,10.3861,-0.00166764,-0.000231826,-0.000733612,7.67061e-05,-0.00197617,-1.17269,0.00134374,0.0162009,706,1450,-8.70935,-10.3861
-511,-426,-8.73743,10.8999,-0.000628628,0.000240149,-8.48391e-05,0.000248357,-0.000636835,-1.47436,0.000527216,0.0161181,713,1450,-8.73744,-10.8999
-504,-426,-8.77832,11.3868,0.000514967,0.000953045,0.000732359,0.00149842,-3.04077e-05,0.930708,0.00100924,0.0155353,720,1450,-8.77833,-11.3868
-497,-426,-8.80078,11.8689,0.00182585,0.00190798,0.00172692,0.00359432,0.000139503,0.797286,0.00235109,0.0124523,727,1450,-8.80079,-11.8689
-490,-426,-8.81647,12.3557,0.00338986,0.00316255,0.0029871,0.00626547,0.000286948,0.766383,0.00408469,0.0127484,734,1450,-8.8165,-12.3557
-483,-426,-8.81812,12.8401,0.00527641,0.00466522,0.00456748,0.0095485,0.000393124,0.751994,0.00623876,0.0126219,741,1450,-8.81809,-12.8401
-476,-426,-8.82788,13.3284,0.00742174,0.00650208,0.00641273,0.0133911,0.000532715,0.749607,0.00875523,0.010255,748,1450,-8.82787,-13.3284
-469,-426,-8.84613,13.816,0.0101273,0.00864885,0.00873901,0.0181583,0.000617848,0.743205,0.0119049,0.00996642,755,1450,-8.8461,-13.816
-462,-426,-8.65057,14.5493,0.0134728,0.0112985,0.0116244,0.0240608,0.000710512,0.738773,0.015809,0.0376389,762,1450,-8.65058,-14.5493
-455,-426,-8.39398,15.354,0,0,0,0,0,0,0,-1,769,1450,-8.39398,-15.354
-448,-426,-6.46545,10.1322,0,0,0,0,0,0,0,-1,776,1450,-6.46543,-10.1322
-441,-426,-10.9547,11.4747,0,0,0,0,0,0,0,-1,783,1450,-10.9546,-11.4748
-434,-426,-10.4998,13.6189,0,0,0,0,0,0,0,-1,790,1450,-10.4997,-13.6189
-427,-426,-9.36627,13.7396,0,0,0,0,0,0,0,-1,797,1450,-9.36628,-13.7396
-420,-426,-5.33765,7.95044,0,0,0,0,0,0,0,-1,804,1450,-5.33766,-7.95041
-413,-426,-10.1148,5.0415,0,0,0,0,0,0,0,-1,811,1450,-10.1148,-5.04152
-406,-426,-11.4199,3.6438,0,0,0,0,0,0,0,-1,818,1450,-11.4198,-3.64382
-399,-426,-12.7595,2.29004,0,0,0,0,0,0,0,-1,825,1450,-12.7595,-2.29003
-392,-426,-12.4147,0.537354,0,0,0,0,0,0,0,-1,832,1450,-12.4147,-0.53731
-385,-426,0,0,0,0,0,0,0,0,0,-1,839,1450,0,0
-378,-426,0,0,0,0,0,0,0,0,0,-1,846,1450,0,0
-371,-426,0,0,0,0,0,0,0,0,0,-1,853,1450,0,0
-364,-426,0,0,0,0,0,0,0,0,0,-1,860,1450,0,0
-357,-426,0,0,0,0,0,0,0,0,0,-1,867,1450,0,0
-350,-426,0,0,0,0,0,0,0,0,0,-1,874,1450,0,0
-343,-426,0,0,0,0,0,0,0,0,0,-1,881,1450,0,0
-336,-426,0,0,0,0,0,0,0,0,0,-1,888,1450,0,0
-329,-426,0,0,0,0,0,0,0,0,0,-1,895,1450,0,0
-322,-426,0,0,0,0,0,0,0,0,0,-1,902,1450,0,0
-315,-426,0,0,0,0,0,0,0,0,0,-1,909,1450,0,0
-308,-426,0,0,0,0,0,0,0,0,0,-1,916,1450,0,0
-301,-426,0,0,0,0,0,0,0,0,0,-1,923,1450,0,0
-294,-426,0,0,0,0,0,0,0,0,0,-1,930,1450,0,0
-287,-426,0,0,0,0,0,0,0,0,0,-1,937,1450,0,0
-280,-426,0,0,0,0,0,0,0,0,0,-1,944,1450,0,0
-273,-426,0,0,0,0,0,0,0,0,0,-1,951,1450,0,0
-266,-426,0,0,0,0,0,0,0,0,0,-1,958,1450,0,0
-259,-426,0,0,0,0,0,0,0,0,0,-1,965,1450,0,0
-252,-426,0,0,0,0,0,0,0,0,0,-1,972,1450,0,0
-245,-426,0,0,0,0,0,0,0,0,0,-1,979,1450,0,0
-238,-426,0,0,0,0,0,0,0,0,0,-1,986,1450,0,0
-231,-426,0,0,0,0,0,0,0,0,0,-1,993,1450,0,0
-224,-426,0,0,0,0,0,0,0,0,0,-1,1000,1450,0,0
-217,-426,0,0,0,0,0,0,0,0,0,-1,1007,1450,0,0
-210,-426,0,0,0,0,0,0,0,0,0,-1,1014,1450,0,0
-203,-426,0,0,0,0,0,0,0,0,0,-1,1021,1450,0,0
-196,-426,0,0,0,0,0,0,0,0,0,-1,1028,1450,0,0
-189,-426,0,0,0,0,0,0,0,0,0,-1,1035,1450,0,0
-182,-426,0,0,0,0,0,0,0,0,0,-1,1042,1450,0,0
-175,-426,0,0,0,0,0,0,0,0,0,-1,1049,1450,0,0
-168,-426,0,0,0,0,0,0,0,0,0,-1,1056,1450,0,0
-161,-426,0,0,0,0,0,0,0,0,0,-1,1063,1450,0,0
-154,-426,0,0,0,0,0,0,0,0,0,-1,1070,1450,0,0
-147,-426,0,0,0,0,0,0,0,0,0,-1,1077,1450,0,0
-140,-426,0,0,0,0,0,0,0,0,0,-1,1084,1450,0,0
-133,-426,0,0,0,0,0,0,0,0,0,-1,1091,1450,0,0
-126,-426,0,0,0,0,0,0,0,0,0,-1,1098,1450,0,0
-119,-426,0,0,0,0,0,0,0,0,0,-1,1105,1450,0,0
-112,-426,0,0,0,0,0,0,0,0,0,-1,1112,1450,0,0
-105,-426,0,0,0,0,0,0,0,0,0,-1,1119,1450,0,0
-98,-426,0,0,0,0,0,0,0,0,0,-1,1126,1450,0,0
-91,-426,0,0,0,0,0,0,0,0,0,-1,1133,1450,0,0
-84,-426,0,0,0,0,0,0,0,0,0,-1,1140,1450,0,0
-77,-426,0,0,0,0,0,0,0,0,0,-1,1147,1450,0,0
-70,-426,0,0,0,0,0,0,0,0,0,-1,1154,1450,0,0
-63,-426,0,0,0,0,0,0,0,0,0,-1,1161,1450,0,0
-56,-426,0,0,0,0,0,0,0,0,0,-1,1168,1450,0,0
-49,-426,0,0,0,0,0,0,0,0,0,-1,1175,1450,0,0
-42,-426,0,0,0,0,0,0,0,0,0,-1,1182,1450,0,0
-35,-426,0,0,0,0,0,0,0,0,0,-1,1189,1450,0,0
-28,-426,0,0,0,0,0,0,0,0,0,-1,1196,1450,0,0
-21,-426,0,0,0,0,0,0,0,0,0,-1,1203,1450,0,0
-14,-426,0,0,0,0,0,0,0,0,0,-1,1210,1450,0,0
-7,-426,0,0,0,0,0,0,0,0,0,-1,1217,1450,0,0
0,-426,0,0,0,0,0,0,0,0,0,-1,1224,1450,0,0
7,-426,0,0,0,0,0,0,0,0,0,-1,1231,1450,0,0
14,-426,0,0,0,0,0,0,0,0,0,-1,1238,1450,0,0
21,-426,0,0,0,0,0,0,0,0,0,-1,1245,1450,0,0
28,-426,0,0,0,0,0,0,0,0,0,-1,1252,1450,0,0
35,-426,0,0,0,0,0,0,0,0,0,-1,1259,1450,0,0
42,-426,0,0,0,0,0,0,0,0,0,-1,1266,1450,0,0
49,-426,0,0,0,0,0,0,0,0,0,-1,1273,1450,0,0
56,-426,0,0,0,0,0,0,0,0,0,-1,1280,1450,0,0
63,-426,0,0,0,0,0,0,0,0,0,-1,1287,1450,0,0
70,-426,0,0,0,0,0,0,0,0,0,-1,1294,1450,0,0
77,-426,0,0,0,0,0,0,0,0,0,-1,1301,1450,0,0
84,-426,0,0,0,0,0,0,0,0,0,-1,1308,1450,0,0
91,-426,0,0,0,0,0,0,0,0,0,-1,1315,1450,0,0
98,-426,0,0,0,0,0,0,0,0,0,-1,1322,1450,0,0
105,-426,0,0,0,0,0,0,0,0,0,-1,1329,1450,0,0
112,-426,0,0,0,0,0,0,0,0,0,-1,1336,1450,0,0
119,-426,0,0,0,0,0,0,0,0,0,-1,1343,1450,0,0
126,-426,0,0,0,0,0,0,0,0,0,-1,1350,1450,0,0
133,-426,0,0,0,0,0,0,0,0,0,-1,1357,1450,0,0
140,-426,0,0,0,0,0,0,0,0,0,-1,1364,1450,0,0
147,-426,0,0,0,0,0,0,0,0,0,-1,1371,1450,0,0
154,-426,0,0,0,0,0,0,0,0,0,-1,1378,1450,0,0
161,-426,0,0,0,0,0,0,0,0,0,-1,1385,1450,0,0
168,-426,0,0,0,0,0,0,0,0,0,-1,1392,1450,0,0
175,-426,0,0,0,0,0,0,0,0,0,-1,1399,1450,0,0
182,-426,0,0,0,0,0,0,0,0,0,-1,1406,1450,0,0
189,-426,0,0,0,0,0,0,0,0,0,-1,1413,1450,0,0
196,-426,0,0,0,0,0,0,0,0,0,-1,1420,1450,0,0
203,-426,0,0,0,0,0,0,0,0,0,-1,1427,1450,0,0
210,-426,0,0,0,0,0,0,0,0,0,-1,1434,1450,0,0
217,-426,0,0,0,0,0,0,0,0,0,-1,1441,1450,0,0
224,-426,0,0,0,0,0,0,0,0,0,-1,1448,1450,0,0
231,-426,0,0,0,0,0,0,0,0,0,-1,1455,1450,0,0
238,-426,0,0,0,0,0,0,0,0,0,-1,1462,1450,0,0
245,-426,0,0,0,0,0,0,0,0,0,-1,1469,1450,0,0
252,-426,0,0,0,0,0,0,0,0,0,-1,1476,1450,0,0
259,-426,0,0,0,0,0,0,0,0,0,-1,1483,1450,0,0
266,-426,0,0,0,0,0,0,0,0,0,-1,1490,1450,0,0
273,-426,0,0,0,0,0,0,0,0,0,-1,1497,1450,0,0
280,-426,0,0,0,0,0,0,0,0,0,-1,1504,1450,0,0
287,-426,0,0,0,0,0,0,0,0,0,-1,1511,1450,0,0
294,-426,0,0,0,0,0,0,0,0,0,-1,1518,1450,0,0
301,-426,0,0,0,0,0,0,0,0,0,-1,1525,1450,0,0
308,-426,0,0,0,0,0,0,0,0,0,-1,1532,1450,0,0
315,-426,0,0,0,0,0,0,0,0,0,-1,1539,1450,0,0
322,-426,0,0,0,0,0,0,0,0,0,-1,1546,1450,0,0
329,-426,0,0,0,0,0,0,0,0,0,-1,1553,1450,0,0
336,-426,0,0,0,0,0,0,0,0,0,-1,1560,1450,0,0
343,-426,0,0,0,0,0,0,0,0,0,-1,1567,1450,0,0
350,-426,0,0,0,0,0,0,0,0,0,-1,1574,1450,0,0
357,-426,0,0,0,0,0,0,0,0,0,-1,1581,1450,0,0
364,-426,0,0,0,0,0,0,0,0,0,-1,1588,1450,0,0
371,-426,0,0,0,0,0,0,0,0,0,-1,1595,1450,0,0
378,-426,0,0,0,0,0,0,0,0,0,-1,1602,1450,0,0
385,-426,0,0,0,0,0,0,0,0,0,-1,1609,1450,0,0
392,-426,0,0,0,0,0,0,0,0,0,-1,1616,1450,0,0
399,-426,0,0,0,0,0,0,0,0,0,-1,1623,1450,0,0
406,-426,0,0,0,0,0,0,0,0,0,-1,1630,1450,0,0
413,-426,0,0,0,0,0,0,0,0,0,-1,1637,1450,0,0
420,-426,0,0,0,0,0,0,0,0,0,-1,1644,1450,0,0
427,-426,0,0,0,0,0,0,0,0,0,-1,1651,1450,0,0
434,-426,0,0,0,0,0,0,0,0,0,-1,1658,1450,0,0
441,-426,0,0,0,0,0,0,0,0,0,-1,1665,1450,0,0
448,-426,0,0,0,0,0,0,0,0,0,-1,1672,1450,0,0
455,-426,0,0,0,0,0,0,0,0,0,-1,1679,1450,0,0
462,-426,0,0,0,0,0,0,0,0,0,-1,1686,1450,0,0
469,-426,0,0,0,0,0,0,0,0,0,-1,1693,1450,0,0
476,-426,0,0,0,0,0,0,0,0,0,-1,1700,1450,0,0
483,-426,0,0,0,0,0,0,0,0,0,-1,1707,1450,0,0
490,-426,0,0,0,0,0,0,0,0,0,-1,1714,1450,0,0
497,-426,0,0,0,0,0,0,0,0,0,-1,1721,1450,0,0
504,-426,20.6873,3.38367,0,0,0,0,0,0,0,-1,1728,1450,20.6873,-3.38361
511,-426,19.6676,3.53748,0,0,0,0,0,0,0,-1,1735,1450,19.6676,-3.53749
518,-426,18.6853,3.32288,0,0,0,0,0,0,0,-1,1742,1450,18.6853,-3.3229
525,-426,18.9552,2.71033,0,0,0,0,0,0,0,-1,1749,1450,18.9552,-2.71034
532,-426,19.4333,2.70764,0,0,0,0,0,0,0,-1,1756,1450,19.4334,-2.70764
539,-426,25.1482,2.56287,0,0,0,0,0,0,0,-1,1763,1450,25.1482,-2.56286
546,-426,24.1136,3.75659,0,0,0,0,0,0,0,-1,1770,1450,24.1136,-3.7566
553,-426,23.0791,4.95032,0,0,0,0,0,0,0,-1,1777,1450,23.0791,-4.95034
560,-426,12.9688,11.8289,0,0,0,0,0,0,0,-1,1784,1450,12.9688,-11.8288
567,-426,13.6388,11.5623,0,0,0,0,0,0,0,-1,1791,1450,13.6388,-11.5623
574,-426,14.3943,11.0286,0,0,0,0,0,0,0,-1,1798,1450,14.3942,-11.0285
581,-426,16.3879,11.4653,0,0,0,0,0,0,0,-1,1805,1450,16.3879,-11.4653
588,-426,18.1212,12.5547,0,0,0,0,0,0,0,-1,1812,1450,18.1212,-12.5547
595,-426,22.7391,16.0583,0,0,0,0,0,0,0,-1,1819,1450,22.7391,-16.0584
602,-426,22.6179,15.4095,0.00343077,0.00287644,-0.0028434,0.00601048,0.000296728,-0.736813,0.00391183,0.0287542,1826,1450,22.6179,-15.4095
609,-426,22.7017,14.9063,0.00281666,0.00201063,-0.00216665,0.00461745,0.000209832,-0.693445,0.0030108,0.0130227,1833,1450,22.7017,-14.9062
616,-426,22.6895,14.4607,0.00221985,0.00122575,-0.00155265,0.00335307,9.25296e-05,-0.630487,0.00220519,0.0141917,1840,1450,22.6894,-14.4607
623,-426,22.667,14.0159,0.00178626,0.000667402,-0.00108621,0.00244864,5.02472e-06,-0.547599,0.00163075,0.0117261,1847,1450,22.667,-14.0158
630,-426,22.6945,13.5536,0.00149068,0.000189033,-0.000724138,0.00181348,-0.000133769,-0.419335,0.00125595,0.0119409,1854,1450,22.6945,-13.5536
637,-426,22.6699,13.1112,0.00123951,-0.000125958,-0.000402257,0.0013492,-0.000235648,-0.266214,0.000987436,0.0125824,1861,1450,22.67,-13.1112
644,-426,22.6237,12.6729,0.00113527,-0.000303875,-0.000196749,0.00116168,-0.000330288,-0.133451,0.000904871,0.0127336,1868,1450,22.6237,-12.6728
651,-426,22.6017,12.2234,0.00108987,-0.000364319,-7.35923e-05,0.00109359,-0.000368034,-0.0504353,0.000877841,0.0118754,1875,1450,22.6017,-12.2234
658,-426,22.6133,11.7432,0.00112551,-0.000345726,1.24101e-05,0.00112562,-0.000345831,0.00843433,0.000888416,0.0116172,1882,1450,22.6133,-11.7432
665,-426,22.6465,11.2231,0.00117846,-0.000206861,6.04159e-05,0.00118109,-0.000209491,0.0435015,0.000865711,0.0216804,1889,1450,22.6465,-11.2232
672,-426,22.74,10.712,0,0,0,0,0,0,0,-1,1896,1450,22.74,-10.712
679,-426,17.1522,8.15784,0,0,0,0,0,0,0,-1,1903,1450,17.1522,-8.15784
686,-426,13.5326,8.03711,0,0,0,0,0,0,0,-1,1910,1450,13.5326,-8.03717
693,-426,11.8607,6.45215,0,0,0,0,0,0,0,-1,1917,1450,11.8607,-6.45215
700,-426,9.24304,2.95447,0,0,0,0,0,0,0,-1,1924,1450,9.24305,-2.95442
707,-426,8.44519,-1.21448,0,0,0,0,0,0,0,-1,1931,1450,8.44514,1.21454
714,-426,0,0,0,0,0,0,0,0,0,-1,1938,1450,0,0
721,-426,0,0,0,0,0,0,0,0,0,-1,1945,1450,0,0
728,-426,0,0,0,0,0,0,0,0,0,-1,1952,1450,0,0
735,-426,0,0,0,0,0,0,0,0,0,-1,1959,1450,0,0
742,-426,0,0,0,0,0,0,0,0,0,-1,1966,1450,0,0
749,-426,0,0,0,0,0,0,0,0,0,-1,1973,1450,0,0
756,-426,0,0,0,0,0,0,0,0,0,-1,1980,1450,0,0
763,-426,0,0,0,0,0,0,0,0,0,-1,1987,1450,0,0
770,-426,0,0,0,0,0,0,0,0,0,-1,1994,1450,0,0
777,-426,0,0,0,0,0,0,0,0,0,-1,2001,1450,0,0
784,-426,0,0,0,0,0,0,0,0,0,-1,2008,1450,0,0
791,-426,0,0,0,0,0,0,0,0,0,-1,2015,1450,0,0
798,-426,0,0,0,0,0,0,0,0,0,-1,2022,1450,0,0
805,-426,0,0,0,0,0,0,0,0,0,-1,2029,1450,0,0
812,-426,0,0,0,0,0,0,0,0,0,-1,2036,1450,0,0
-700,-433,0,0,0,0,0,0,0,0,0,-1,524,1457,0,0
-693,-433,0,0,0,0,0,0,0,0,0,-1,531,1457,0,0
-686,-433,0,0,0,0,0,0,0,0,0,-1,538,1457,0,0
-679,-433,0,0,0,0,0,0,0,0,0,-1,545,1457,0,0
-672,-433,0,0,0,0,0,0,0,0,0,-1,552,1457,0,0
-665,-433,0,0,0,0,0,0,0,0,0,-1,559,1457,0,0
-658,-433,0,0,0,0,0,0,0,0,0,-1,566,1457,0,0
-651,-433,0,0,0,0,0,0,0,0,0,-1,573,1457,0,0
-644,-433,0,0,0,0,0,0,0,0,0,-1,580,1457,0,0
-637,-433,0,0,0,0,0,0,0,0,0,-1,587,1457,0,0
-630,-433,0,0,0,0,0,0,0,0,0,-1,594,1457,0,0
-623,-433,0,0,0,0,0,0,0,0,0,-1,601,1457,0,0
-616,-433,0,0,0,0,0,0,0,0,0,-1,608,1457,0,0
-609,-433,0,0,0,0,0,0,0,0,0,-1,615,1457,0,0
-602,-433,0,0,0,0,0,0,0,0,0,-1,622,1457,0,0
-595,-433,0,0,0,0,0,0,0,0,0,-1,629,1457,0,0
-588,-433,-10.3756,-0.467041,0,0,0,0,0,0,0,-1,636,1457,-10.3756,0.467081
-581,-433,-8.12201,0.884033,0,0,0,0,0,0,0,-1,643,1457,-8.12204,-0.884056
-574,-433,-5.86847,2.23523,0,0,0,0,0,0,0,-1,650,1457,-5.86844,-2.23519
-567,-433,-5.42255,1.16833,0,0,0,0,0,0,0,-1,657,1457,-5.42254,-1.1683
-560,-433,-6.84027,1.86414,0,0,0,0,0,0,0,-1,664,1457,-6.84026,-1.86412
-553,-433,-5.74017,1.79163,0,0,0,0,0,0,0,-1,671,1457,-5.74015,-1.79166
-546,-433,-6.9668,8.25073,0,0,0,0,0,0,0,-1,678,1457,-6.96679,-8.25074
-539,-433,-7.3136,8.75659,0,0,0,0,0,0,0,-1,685,1457,-7.31362,-8.75659
-532,-433,-8.13257,9.2251,0,0,0,0,0,0,0,-1,692,1457,-8.13257,-9.22505
-525,-433,-8.18549,9.92407,-0.00349902,-0.000608781,-0.00149218,2.33522e-05,-0.00413116,-1.17009,0.00276192,0.0347099,699,1457,-8.18548,-9.92402
-518,-433,-8.22858,10.4055,-0.00237729,-0.000487068,-0.00101,-4.8948e-05,-0.00281541,-1.16151,0.00186084,0.0168385,706,1457,-8.22857,-10.4055
-511,-433,-8.27887,10.889,-0.00130245,-0.000103533,-0.000446348,4.43883e-05,-0.00145038,-1.25078,0.000982047,0.016056,713,1457,-8.27884,-10.889
-504,-433,-8.2879,11.3823,-0.000174375,0.000534041,0.000286237,0.000635239,-0.000275573,1.23097,0.000539351,0.0131435,720,1457,-8.28792,-11.3823
-497,-433,-8.29999,11.8739,0.00107964,0.00137853,0.00117475,0.0024133,4.4874e-05,0.848665,0.00159412,0.0137406,727,1457,-8.30001,-11.8739
-490,-433,-8.33777,12.3616,0.00255193,0.00249036,0.00229581,0.00481716,0.000225135,0.778693,0.00313909,0.0159927,734,1457,-8.3378,-12.3615
-483,-433,-8.34686,12.8584,0.0043265,0.00381169,0.00371321,0.00779122,0.000346973,0.750793,0.00508244,0.0165756,741,1457,-8.34685,-12.8584
-476,-433,-8.34326,13.3445,0.00631275,0.00539888,0.00535047,0.0112258,0.000485864,0.742801,0.00732726,0.0112001,748,1457,-8.34323,-13.3445
-469,-433,-8.35626,13.8336,0.00874783,0.00718019,0.00738881,0.0153943,0.000533743,0.732555,0.0100896,0.0110686,755,1457,-8.35629,-13.8336
-462,-433,-8.39221,14.3438,0.0117047,0.00934481,0.00988045,0.0204754,0.0005741,0.725968,0.013463,0.013126,762,1457,-8.39222,-14.3437
-455,-433,-8.15607,15.105,0,0,0,0,0,0,0,-1,769,1457,-8.15606,-15.105
-448,-433,-6.94812,14.5563,0,0,0,0,0,0,0,-1,776,1457,-6.94809,-14.5562
-441,-433,-9.97485,14.0258,0,0,0,0,0,0,0,-1,783,1457,-9.97488,-14.0257
-434,-433,-9.41205,14.2297,0,0,0,0,0,0,0,-1,790,1457,-9.41205,-14.2297
-427,-433,-8.67419,13.6827,0,0,0,0,0,0,0,-1,797,1457,-8.67422,-13.6827
-420,-433,-5.74658,9.49121,0,0,0,0,0,0,0,-1,804,1457,-5.7466,-9.49119
-413,-433,-3.63074,5.5813,0,0,0,0,0,0,0,-1,811,1457,-3.63072,-5.58129
-406,-433,-12.3472,4.69373,0,0,0,0,0,0,0,-1,818,1457,-12.3472,-4.69374
-399,-433,-12.055,2.83594,0,0,0,0,0,0,0,-1,825,1457,-12.055,-2.83594
-392,-433,-12.9772,1.6228,0,0,0,0,0,0,0,-1,832,1457,-12.9772,-1.62282
-385,-433,-13.7999,0.514771,0,0,0,0,0,0,0,-1,839,1457,-13.7999,-0.514788
-378,-433,0,0,0,0,0,0,0,0,0,-1,846,1457,0,0
-371,-433,0,0,0,0,0,0,0,0,0,-1,853,1457,0,0
-364,-433,0,0,0,0,0,0,0,0,0,-1,860,1457,0,0
-357,-433,0,0,0,0,0,0,0,0,0,-1,867,1457,0,0
-350,-433,0,0,0,0,0,0,0,0,0,-1,874,1457,0,0
-343,-433,0,0,0,0,0,0,0,0,0,-1,881,1457,0,0
-336,-433,0,0,0,0,0,0,0,0,0,-1,888,1457,0,0
-329,-433,0,0,0,0,0,0,0,0,0,-1,895,1457,0,0
-322,-433,0,0,0,0,0,0,0,0,0,-1,902,1457,0,0
-315,-433,0,0,0,0,0,0,0,0,0,-1,909,1457,0,0
-308,-433,0,0,0,0,0,0,0,0,0,-1,916,1457,0,0
-301,-433,0,0,0,0,0,0,0,0,0,-1,923,1457,0,0
-294,-433,0,0,0,0,0,0,0,0,0,-1,930,1457,0,0
-287,-433,0,0,0,0,0,0,0,0,0,-1,937,1457,0,0
-280,-433,0,0,0,0,0,0,0,0,0,-1,944,1457,0,0
-273,-433,0,0,0,0,0,0,0,0,0,-1,951,1457,0,0
-266,-433,0,0,0,0,0,0,0,0,0,-1,958,1457,0,0
-259,-433,0,0,0,0,0,0,0,0,0,-1,965,1457,0,0
-252,-433,0,0,0,0,0,0,0,0,0,-1,972,1457,0,0
-245,-433,0,0,0,0,0,0,0,0,0,-1,979,1457,0,0
-238,-433,0,0,0,0,0,0,0,0,0,-1,986,1457,0,0
-231,-433,0,0,0,0,0,0,0,0,0,-1,993,1457,0,0
-224,-433,0,0,0,0,0,0,0,0,0,-1,1000,1457,0,0
-217,-433,0,0,0,0,0,0,0,0,0,-1,1007,1457,0,0
-210,-433,0,0,0,0,0,0,0,0,0,-1,1014,1457,0,0
-203,-433,0,0,0,0,0,0,0,0,0,-1,1021,1457,0,0
-196,-433,0,0,0,0,0,0,0,0,0,-1,1028,1457,0,0
-189,-433,0,0,0,0,0,0,0,0,0,-1,1035,1457,0,0
-182,-433,0,0,0,0,0,0,0,0,0,-1,1042,1457,0,0
-175,-433,0,0,0,0,0,0,0,0,0,-1,1049,1457,0,0
-168,-433,0,0,0,0,0,0,0,0,0,-1,1056,1457,0,0
-161,-433,0,0,0,0,0,0,0,0,0,-1,1063,1457,0,0
-154,-433,0,0,0,0,0,0,0,0,0,-1,1070,1457,0,0
-147,-433,0,0,0,0,0,0,0,0,0,-1,1077,1457,0,0
-140,-433,0,0,0,0,0,0,0,0,0,-1,1084,1457,0,0
-133,-433,0,0,0,0,0,0,0,0,0,-1,1091,1457,0,0
-126,-433,0,0,0,0,0,0,0,0,0,-1,1098,1457,0,0
-119,-433,0,0,0,0,0,0,0,0,0,-1,1105,1457,0,0
-112,-433,0,0,0,0,0,0,0,0,0,-1,1112,1457,0,0
-105,-433,0,0,0,0,0,0,0,0,0,-1,1119,1457,0,0
-98,-433,0,0,0,0,0,0,0,0,0,-1,1126,1457,0,0
-91,-433,0,0,0,0,0,0,0,0,0,-1,1133,1457,0,0
-84,-433,0,0,0,0,0,0,0,0,0,-1,1140,1457,0,0
-77,-433,0,0,0,0,0,0,0,0,0,-1,1147,1457,0,0
-70,-433,0,0,0,0,0,0,0,0,0,-1,1154,1457,0,0
-63,-433,0,0,0,0,0,0,0,0,0,-1,1161,1457,0,0
-56,-433,0,0,0,0,0,0,0,0,0,-1,1168,1457,0,0
-49,-433,0,0,0,0,0,0,0,0,0,-1,1175,1457,0,0
-42,-433,0,0,0,0,0,0,0,0,0,-1,1182,1457,0,0
-35,-433,0,0,0,0,0,0,0,0,0,-1,1189,1457,0,0
-28,-433,0,0,0,0,0,0,0,0,0,-1,1196,1457,0,0
-21,-433,0,0,0,0,0,0,0,0,0,-1,1203,1457,0,0
-14,-433,0,0,0,0,0,0,0,0,0,-1,1210,1457,0,0
-7,-433,0,0,0,0,0,0,0,0,0,-1,1217,1457,0,0
0,-433,0,0,0,0,0,0,0,0,0,-1,1224,1457,0,0
7,-433,0,0,0,0,0,0,0,0,0,-1,1231,1457,0,0
14,-433,0,0,0,0,0,0,0,0,0,-1,1238,1457,0,0
21,-433,0,0,0,0,0,0,0,0,0,-1,1245,1457,0,0
28,-433,0,0,0,0,0,0,0,0,0,-1,1252,1457,0,0
35,-433,0,0,0,0,0,0,0,0,0,-1,1259,1457,0,0
42,-433,0,0,0,0,0,0,0,0,0,-1,1266,1457,0,0
49,-433,0,0,0,0,0,0,0,0,0,-1,1273,1457,0,0
56,-433,0,0,0,0,0,0,0,0,0,-1,1280,1457,0,0
63,-433,0,0,0,0,0,0,0,0,0,-1,1287,1457,0,0
70,-433,0,0,0,0,0,0,0,0,0,-1,1294,1457,0,0
77,-433,0,0,0,0,0,0,0,0,0,-1,1301,1457,0,0
84,-433,0,0,0,0,0,0,0,0,0,-1,1308,1457,0,0
91,-433,0,0,0,0,0,0,0,0,0,-1,1315,1457,0,0
98,-433,0,0,0,0,0,0,0,0,0,-1,1322,1457,0,0
105,-433,0,0,0,0,0,0,0,0,0,-1,1329,1457,0,0
112,-433,0,0,0,0,0,0,0,0,0,-1,1336,1457,0,0
119,-433,0,0,0,0,0,0,0,0,0,-1,1343,1457,0,0
126,-433,0,0,0,0,0,0,0,0,0,-1,1350,1457,0,0
133,-433,0,0,0,0,0,0,0,0,0,-1,1357,1457,0,0
140,-433,0,0,0,0,0,0,0,0,0,-1,1364,1457,0,0
147,-433,0,0,0,0,0,0,0,0,0,-1,1371,1457,0,0
154,-433,0,0,0,0,0,0,0,0,0,-1,1378,1457,0,0
161,-433,0,0,0,0,0,0,0,0,0,-1,1385,1457,0,0
168,-433,0,0,0,0,0,0,0,0,0,-1,1392,1457,0,0
175,-433,0,0,0,0,0,0,0,0,0,-1,1399,1457,0,0
182,-433,0,0,0,0,0,0,0,0,0,-1,1406,1457,0,0
189,-433,0,0,0,0,0,0,0,0,0,-1,1413,1457,0,0
196,-433,0,0,0,0,0,0,0,0,0,-1,1420,1457,0,0
203,-433,0,0,0,0,0,0,0,0,0,-1,1427,1457,0,0
210,-433,0,0,0,0,0,0,0,0,0,-1,1434,1457,0,0
217,-433,0,0,0,0,0,0,0,0,0,-1,1441,1457,0,0
224,-433,0,0,0,0,0,0,0,0,0,-1,1448,1457,0,0
231,-433,0,0,0,0,0,0,0,0,0,-1,1455,1457,0,0
238,-433,0,0,0,0,0,0,0,0,0,-1,1462,1457,0,0
245,-433,0,0,0,0,0,0,0,0,0,-1,1469,1457,0,0
252,-433,0,0,0,0,0,0,0,0,0,-1,1476,1457,0,0
259,-433,0,0,0,0,0,0,0,0,0,-1,1483,1457,0,0
266,-433,0,0,0,0,0,0,0,0,0,-1,1490,1457,0,0
273,-433,0,0,0,0,0,0,0,0,0,-1,1497,1457,0,0
280,-433,0,0,0,0,0,0,0,0,0,-1,1504,1457,0,0
287,-433,0,0,0,0,0,0,0,0,0,-1,1511,1457,0,0
294,-433,0,0,0,0,0,0,0,0,0,-1,1518,1457,0,0
301,-433,0,0,0,0,0,0,0,0,0,-1,1525,1457,0,0
308,-433,0,0,0,0,0,0,0,0,0,-1,1532,1457,0,0
315,-433,0,0,0,0,0,0,0,0,0,-1,1539,1457,0,0
322,-433,0,0,0,0,0,0,0,0,0,-1,1546,1457,0,0
329,-433,0,0,0,0,0,0,0,0,0,-1,1553,1457,0,0
336,-433,0,0,0,0,0,0,0,0,0,-1,1560,1457,0,0
343,-433,0,0,0,0,0,0,0,0,0,-1,1567,1457,0,0
350,-433,0,0,0,0,0,0,0,0,0,-1,1574,1457,0,0
357,-433,0,0,0,0,0,0,0,0,0,-1,1581,1457,0,0
364,-433,0,0,0,0,0,0,0,0,0,-1,1588,1457,0,0
371,-433,0,0,0,0,0,0,0,0,0,-1,1595,1457,0,0
378,-433,0,0,0,0,0,0,0,0,0,-1,1602,1457,0,0
385,-433,0,0,0,0,0,0,0,0,0,-1,1609,1457,0,0
392,-433,0,0,0,0,0,0,0,0,0,-1,1616,1457,0,0
399,-433,0,0,0,0,0,0,0,0,0,-1,1623,1457,0,0
406,-433,0,0,0,0,0,0,0,0,0,-1,1630,1457,0,0
413,-433,0,0,0,0,0,0,0,0,0,-1,1637,1457,0,0
420,-433,0,0,0,0,0,0,0,0,0,-1,1644,1457,0,0
427,-433,0,0,0,0,0,0,0,0,0,-1,1651,1457,0,0
434,-433,0,0,0,0,0,0,0,0,0,-1,1658,1457,0,0
441,-433,0,0,0,0,0,0,0,0,0,-1,1665,1457,0,0
448,-433,0,0,0,0,0,0,0,0,0,-1,1672,1457,0,0
455,-433,0,0,0,0,0,0,0,0,0,-1,1679,1457,0,0
462,-433,0,0,0,0,0,0,0,0,0,-1,1686,1457,0,0
469,-433,0,0,0,0,0,0,0,0,0,-1,1693,1457,0,0
476,-433,0,0,0,0,0,0,0,0,0,-1,1700,1457,0,0
483,-433,0,0,0,0,0,0,0,0,0,-1,1707,1457,0,0
490,-433,0,0,0,0,0,0,0,0,0,-1,1714,1457,0,0
497,-433,0,0,0,0,0,0,0,0,0,-1,1721,1457,0,0
504,-433,19.9058,3.03662,0,0,0,0,0,0,0,-1,1728,1457,19.9058,-3.03656
511,-433,19.0145,3.07837,0,0,0,0,0,0,0,-1,1735,1457,19.0146,-3.07834
518,-433,18.071,3.06433,0,0,0,0,0,0,0,-1,1742,1457,18.071,-3.06432
525,-433,17.2048,3.37085,0,0,0,0,0,0,0,-1,1749,1457,17.2049,-3.37083
532,-433,16.5637,3.36646,0,0,0,0,0,0,0,-1,1756,1457,16.5637,-3.36643
539,-433,15.9193,3.30396,0,0,0,0,0,0,0,-1,1763,1457,15.9193,-3.30394
546,-433,23.1903,4.81775,0,0,0,0,0,0,0,-1,1770,1457,23.1903,-4.81775
553,-433,13.9674,11.5781,0,0,0,0,0,0,0,-1,1777,1457,13.9674,-11.5781
560,-433,13.9855,11.7341,0,0,0,0,0,0,0,-1,1784,1457,13.9855,-11.7341
567,-433,13.9264,11.3364,0,0,0,0,0,0,0,-1,1791,1457,13.9263,-11.3364
574,-433,15.5305,12.3673,0,0,0,0,0,0,0,-1,1798,1457,15.5305,-12.3673
581,-433,16.6405,12.1898,0,0,0,0,0,0,0,-1,1805,1457,16.6405,-12.1898
588,-433,22.2991,16.7551,0,0,0,0,0,0,0,-1,1812,1457,22.2991,-16.7551
595,-433,22.2289,15.9507,0.00360205,0.00357292,-0.00323789,0.0068254,0.000349561,-0.783149,0.00443834,0.0377121,1819,1457,22.2289,-15.9507
602,-433,22.2466,15.4075,0.00293821,0.00252798,-0.00244113,0.00518283,0.000283357,-0.743485,0.00336475,0.0225804,1826,1457,22.2466,-15.4074
609,-433,22.2743,14.9116,0.00243675,0.00174311,-0.00184265,0.00396494,0.000214923,-0.692377,0.00257464,0.0163314,1833,1457,22.2743,-14.9116
616,-433,22.2531,14.4646,0.00197556,0.00102272,-0.00129371,0.00287778,0.000120501,-0.608974,0.00187964,0.0139854,1840,1457,22.253,-14.4645
623,-433,22.2274,14.0192,0.00165523,0.00048071,-0.000866255,0.00211453,2.1419e-05,-0.487517,0.0014026,0.0107131,1847,1457,22.2274,-14.0192
630,-433,22.2319,13.5658,0.00145579,1.99633e-06,-0.000530444,0.00162876,-0.000170967,-0.315203,0.00114708,0.014117,1854,1457,22.232,-13.5658
637,-433,22.2107,13.1316,0.00129134,-0.000306216,-0.000230744,0.001324,-0.000338876,-0.140609,0.00101466,0.0152699,1861,1457,22.2106,-13.1317
644,-433,22.1824,12.7084,0.00127218,-0.000479542,-5.31711e-05,0.00127379,-0.000481154,-0.0303164,0.0010471,0.0163159,1868,1457,22.1824,-12.7084
651,-433,22.1702,12.2224,0.00131904,-0.000486739,1.77744e-05,0.00131922,-0.000486914,0.00984181,0.00107905,0.0126802,1875,1457,22.1702,-12.2225
658,-433,22.1335,11.7322,0.00148539,-0.000436967,5.30939e-05,0.00148686,-0.000438433,0.0275911,0.00116521,0.0232291,1882,1457,22.1336,-11.7322
665,-433,22.1711,11.1604,0,0,0,0,0,0,0,-1,1889,1457,22.1712,-11.1604
672,-433,18.115,8.7207,0,0,0,0,0,0,0,-1,1896,1457,18.115,-8.72074
679,-433,17.2969,9.6355,0,0,0,0,0,0,0,-1,1903,1457,17.2968,-9.63548
686,-433,13.6356,8.61694,0,0,0,0,0,0,0,-1,1910,1457,13.6356,-8.61694
693,-433,13.4081,8.39624,0,0,0,0,0,0,0,-1,1917,1457,13.4081,-8.39624
700,-433,7.16809,-1.5166,0,0,0,0,0,0,0,-1,1924,1457,7.16806,1.51656
707,-433,8.68359,-2.82202,0,0,0,0,0,0,0,-1,1931,1457,8.68359,2.82197
714,-433,0,0,0,0,0,0,0,0,0,-1,1938,1457,0,0
721,-433,0,0,0,0,0,0,0,0,0,-1,1945,1457,0,0
728,-433,0,0,0,0,0,0,0,0,0,-1,1952,1457,0,0
735,-433,0,0,0,0,0,0,0,0,0,-1,1959,1457,0,0
742,-433,0,0,0,0,0,0,0,0,0,-1,1966,1457,0,0
749,-433,0,0,0,0,0,0,0,0,0,-1,1973,1457,0,0
756,-433,0,0,0,0,0,0,0,0,0,-1,1980,1457,0,0
763,-433,0,0,0,0,0,0,0,0,0,-1,1987,1457,0,0
770,-433,0,0,0,0,0,0,0,0,0,-1,1994,1457,0,0
777,-433,0,0,0,0,0,0,0,0,0,-1,2001,1457,0,0
784,-433,0,0,0,0,0,0,0,0,0,-1,2008,1457,0,0
791,-433,0,0,0,0,0,0,0,0,0,-1,2015,1457,0,0
798,-433,0,0,0,0,0,0,0,0,0,-1,2022,1457,0,0
805,-433,0,0,0,0,0,0,0,0,0,-1,2029,1457,0,0
812,-433,0,0,0,0,0,0,0,0,0,-1,2036,1457,0,0
-700,-440,0,0,0,0,0,0,0,0,0,-1,524,1464,0,0
-693,-440,0,0,0,0,0,0,0,0,0,-1,531,1464,0,0
-686,-440,0,0,0,0,0,0,0,0,0,-1,538,1464,0,0
-679,-440,0,0,0,0,0,0,0,0,0,-1,545,1464,0,0
-672,-440,0,0,0,0,0,0,0,0,0,-1,552,1464,0,0
-665,-440,0,0,0,0,0,0,0,0,0,-1,559,1464,0,0
-658,-440,0,0,0,0,0,0,0,0,0,-1,566,1464,0,0
-651,-440,0,0,0,0,0,0,0,0,0,-1,573,1464,0,0
-644,-440,0,0,0,0,0,0,0,0,0,-1,580,1464,0,0
-637,-440,0,0,0,0,0,0,0,0,0,-1,587,1464,0,0
-630,-440,0,0,0,0,0,0,0,0,0,-1,594,1464,0,0
-623,-440,0,0,0,0,0,0,0,0,0,-1,601,1464,0,0
-616,-440,0,0,0,0,0,0,0,0,0,-1,608,1464,0,0
-609,-440,0,0,0,0,0,0,0,0,0,-1,615,1464,0,0
-602,-440,0,0,0,0,0,0,0,0,0,-1,622,1464,0,0
-595,-440,0,0,0,0,0,0,0,0,0,-1,629,1464,0,0
-588,-440,0,0,0,0,0,0,0,0,0,-1,636,1464,0,0
-581,-440,-8.97278,0.254517,0,0,0,0,0,0,0,-1,643,1464,-8.97276,-0.254526
-574,-440,-7.00818,-0.918579,0,0,0,0,0,0,0,-1,650,1464,-7.00817,0.918538
-567,-440,-6.12152,-0.0766602,0,0,0,0,0,0,0,-1,657,1464,-6.12151,0.0767097
-560,-440,-5.46747,0.82251,0,0,0,0,0,0,0,-1,664,1464,-5.46748,-0.822551
-553,-440,-6.84729,0.0831299,0,0,0,0,0,0,0,-1,671,1464,-6.84732,-0.083136
-546,-440,-5.63446,-0.153198,0,0,0,0,0,0,0,-1,678,1464,-5.63447,0.153147
-539,-440,-6.80017,8.58252,0,0,0,0,0,0,0,-1,685,1464,-6.80015,-8.58257
-532,-440,-7.46283,9.28674,0,0,0,0,0,0,0,-1,692,1464,-7.46284,-9.28677
-525,-440,-7.77551,9.96594,-0.00443902,-0.000854292,-0.00172107,-0.000161772,-0.00513154,-1.18824,0.0033684,0.0400266,699,1464,-7.77554,-9.96593
-518,-440,-7.80951,10.3679,-0.0032268,-0.000816101,-0.00128878,-0.000256845,-0.00378606,-1.16138,0.00244293,0.0209712,706,1464,-7.8095,-10.3679
-511,-440,-7.78058,10.9014,-0.00213534,-0.000537433,-0.000818626,-0.0001925,-0.00248027,-1.17202,0.00159323,0.0158741,713,1464,-7.7806,-10.9013
-504,-440,-7.78448,11.385,-0.00103261,2.04494e-05,-0.000171686,4.77334e-05,-0.00105989,-1.4132,0.00072303,0.019444,720,1464,-7.78448,-11.3851
-497,-440,-7.80408,11.8618,0.000169457,0.000755149,0.000612306,0.00114104,-0.000216429,1.00845,0.000842155,0.0225722,727,1464,-7.80409,-11.8619
-490,-440,-7.81897,12.2985,0.00156968,0.00174229,0.00160475,0.00326305,4.89104e-05,0.812262,0.00215925,0.0226856,734,1464,-7.81899,-12.2985
-483,-440,-7.85785,12.8252,0.00326531,0.00292185,0.00287858,0.00597728,0.000209885,0.755604,0.00391677,0.0202681,741,1464,-7.85783,-12.8252
-476,-440,-7.84753,13.3356,0.00514487,0.0043165,0.00434335,0.00909373,0.000367634,0.737861,0.00594374,0.0133516,748,1464,-7.84753,-13.3355
-469,-440,-7.86871,13.8395,0.0073797,0.00586308,0.00614457,0.0128126,0.000430205,0.724003,0.00840199,0.0127934,755,1464,-7.86873,-13.8394
-462,-440,-7.91425,14.3262,0.010046,0.00769835,0.00831071,0.0172654,0.000478986,0.71524,0.011354,0.0152643,762,1464,-7.91427,-14.3262
-455,-440,-7.77032,14.9232,0.0133206,0.00971215,0.0109012,0.0225659,0.000466863,0.703388,0.0148908,0.0332009,769,1464,-7.77035,-14.9232
-448,-440,-7.30609,15.6315,0,0,0,0,0,0,0,-1,776,1464,-7.30608,-15.6315
-441,-440,-7.28583,14.7465,0,0,0,0,0,0,0,-1,783,1464,-7.28584,-14.7464
-434,-440,-8.33636,14.5024,0,0,0,0,0,0,0,-1,790,1464,-8.33638,-14.5025
-427,-440,-8.28094,14.2512,0,0,0,0,0,0,0,-1,797,1464,-8.28094,-14.2512
-420,-440,-6.86603,8.09216,0,0,0,0,0,0,0,-1,804,1464,-6.86602,-8.09222
-413,-440,-3.46796,5.72278,0,0,0,0,0,0,0,-1,811,1464,-3.46797,-5.72276
-406,-440,-5.2887,5.20264,0,0,0,0,0,0,0,-1,818,1464,-5.2887,-5.20261
-399,-440,-12.7318,3.94421,0,0,0,0,0,0,0,-1,825,1464,-12.7318,-3.94419
-392,-440,-13.5565,2.51855,0,0,0,0,0,0,0,-1,832,1464,-13.5565,-2.51861
-385,-440,-14.6741,1.39795,0,0,0,0,0,0,0,-1,839,1464,-14.6741,-1.39801
-378,-440,-15.8063,0.293457,0,0,0,0,0,0,0,-1,846,1464,-15.8063,-0.293412
-371,-440,0,0,0,0,0,0,0,0,0,-1,853,1464,0,0
-364,-440,0,0,0,0,0,0,0,0,0,-1,860,1464,0,0
-357,-440,0,0,0,0,0,0,0,0,0,-1,867,1464,0,0
-350,-440,0,0,0,0,0,0,0,0,0,-1,874,1464,0,0
-343,-440,0,0,0,0,0,0,0,0,0,-1,881,1464,0,0
-336,-440,0,0,0,0,0,0,0,0,0,-1,888,1464,0,0
-329,-440,0,0,0,0,0,0,0,0,0,-1,895,1464,0,0
-322,-440,0,0,0,0,0,0,0,0,0,-1,902,1464,0,0
-315,-440,0,0,0,0,0,0,0,0,0,-1,909,1464,0,0
-308,-440,0,0,0,0,0,0,0,0,0,-1,916,1464,0,0
-301,-440,0,0,0,0,0,0,0,0,0,-1,923,1464,0,0
-294,-440,0,0,0,0,0,0,0,0,0,-1,930,1464,0,0
-287,-440,0,0,0,0,0,0,0,0,0,-1,937,1464,0,0
-280,-440,0,0,0,0,0,0,0,0,0,-1,944,1464,0,0
-273,-440,0,0,0,0,0,0,0,0,0,-1,951,1464,0,0
-266,-440,0,0,0,0,0,0,0,0,0,-1,958,1464,0,0
-259,-440,0,0,0,0,0,0,0,0,0,-1,965,1464,0,0
-252,-440,0,0,0,0,0,0,0,0,0,-1,972,1464,0,0
-245,-440,0,0,0,0,0,0,0,0,0,-1,979,1464,0,0
-238,-440,0,0,0,0,0,0,0,0,0,-1,986,1464,0,0
-231,-440,0,0,0,0,0,0,0,0,0,-1,993,1464,0,0
-224,-440,0,0,0,0,0,0,0,0,0,-1,1000,1464,0,0
-217,-440,0,0,0,0,0,0,0,0,0,-1,1007,1464,0,0
-210,-440,0,0,0,0,0,0,0,0,0,-1,1014,1464,0,0
-203,-440,0,0,0,0,0,0,0,0,0,-1,1021,1464,0,0
-196,-440,0,0,0,0,0,0,0,0,0,-1,1028,1464,0,0
-189,-440,0,0,0,0,0,0,0,0,0,-1,1035,1464,0,0
-182,-440,0,0,0,0,0,0,0,0,0,-1,1042,1464,0,0
-175,-440,0,0,0,0,0,0,0,0,0,-1,1049,1464,0,0
-168,-440,0,0,0,0,0,0,0,0,0,-1,1056,1464,0,0
-161,-440,0,0,0,0,0,0,0,0,0,-1,1063,1464,0,0
-154,-440,0,0,0,0,0,0,0,0,0,-1,1070,1464,0,0
-147,-440,0,0,0,0,0,0,0,0,0,-1,1077,1464,0,0
-140,-440,0,0,0,0,0,0,0,0,0,-1,1084,1464,0,0
-133,-440,0,0,0,0,0,0,0,0,0,-1,1091,1464,0,0
-126,-440,0,0,0,0,0,0,0,0,0,-1,1098,1464,0,0
-119,-440,0,0,0,0,0,0,0,0,0,-1,1105,1464,0,0
-112,-440,0,0,0,0,0,0,0,0,0,-1,1112,1464,0,0
-105,-440,0,0,0,0,0,0,0,0,0,-1,1119,1464,0,0
-98,-440,0,0,0,0,0,0,0,0,0,-1,1126,1464,0,0
-91,-440,0,0,0,0,0,0,0,0,0,-1,1133,1464,0,0
-84,-440,0,0,0,0,0,0,0,0,0,-1,1140,1464,0,0
-77,-440,0,0,0,0,0,0,0,0,0,-1,1147,1464,0,0
-70,-440,0,0,0,0,0,0,0,0,0,-1,1154,1464,0,0
-63,-440,0,0,0,0,0,0,0,0,0,-1,1161,1464,0,0
-56,-440,0,0,0,0,0,0,0,0,0,-1,1168,1464,0,0
-49,-440,0,0,0,0,0,0,0,0,0,-1,1175,1464,0,0
-42,-440,0,0,0,0,0,0,0,0,0,-1,1182,1464,0,0
-35,-440,0,0,0,0,0,0,0,0,0,-1,1189,1464,0,0
-28,-440,0,0,0,0,0,0,0,0,0,-1,1196,1464,0,0
-21,-440,0,0,0,0,0,0,0,0,0,-1,1203,1464,0,0
-14,-440,0,0,0,0,0,0,0,0,0,-1,1210,1464,0,0
-7,-440,0,0,0,0,0,0,0,0,0,-1,1217,1464,0,0
0,-440,0,0,0,0,0,0,0,0,0,-1,1224,1464,0,0
7,-440,0,0,0,0,0,0,0,0,0,-1,1231,1464,0,0
14,-440,0,0,0,0,0,0,0,0,0,-1,1238,1464,0,0
21,-440,0,0,0,0,0,0,0,0,0,-1,1245,1464,0,0
28,-440,0,0,0,0,0,0,0,0,0,-1,1252,1464,0,0
35,-440,0,0,0,0,0,0,0,0,0,-1,1259,1464,0,0
42,-440,0,0,0,0,0,0,0,0,0,-1,1266,1464,0,0
49,-440,0,0,0,0,0,0,0,0,0,-1,1273,1464,0,0
56,-440,0,0,0,0,0,0,0,0,0,-1,1280,1464,0,0
63,-440,0,0,0,0,0,0,0,0,0,-1,1287,1464,0,0
70,-440,0,0,0,0,0,0,0,0,0,-1,1294,1464,0,0
77,-440,0,0,0,0,0,0,0,0,0,-1,1301,1464,0,0
84,-440,0,0,0,0,0,0,0,0,0,-1,1308,1464,0,0
91,-440,0,0,0,0,0,0,0,0,0,-1,1315,1464,0,0
98,-440,0,0,0,0,0,0,0,0,0,-1,1322,1464,0,0
105,-440,0,0,0,0,0,0,0,0,0,-1,1329,1464,0,0
112,-440,0,0,0,0,0,0,0,0,0,-1,1336,1464,0,0
119,-440,0,0,0,0,0,0,0,0,0,-1,1343,1464,0,0
126,-440,0,0,0,0,0,0,0,0,0,-1,1350,1464,0,0
133,-440,0,0,0,0,0,0,0,0,0,-1,1357,1464,0,0
140,-440,0,0,0,0,0,0,0,0,0,-1,1364,1464,0,0
147,-440,0,0,0,0,0,0,0,0,0,-1,1371,1464,0,0
154,-440,0,0,0,0,0,0,0,0,0,-1,1378,1464,0,0
161,-440,0,0,0,0,0,0,0,0,0,-1,1385,1464,0,0
168,-440,0,0,0,0,0,0,0,0,0,-1,1392,1464,0,0
175,-440,0,0,0,0,0,0,0,0,0,-1,1399,1464,0,0
182,-440,0,0,0,0,0,0,0,0,0,-1,1406,1464,0,0
189,-440,0,0,0,0,0,0,0,0,0,-1,1413,1464,0,0
196,-440,0,0,0,0,0,0,0,0,0,-1,1420,1464,0,0
203,-440,0,0,0,0,0,0,0,0,0,-1,1427,1464,0,0
210,-440,0,0,0,0,0,0,0,0,0,-1,1434,1464,0,0
217,-440,0,0,0,0,0,0,0,0,0,-1,1441,1464,0,0
224,-440,0,0,0,0,0,0,0,0,0,-1,1448,1464,0,0
231,-440,0,0,0,0,0,0,0,0,0,-1,1455,1464,0,0
238,-440,0,0,0,0,0,0,0,0,0,-1,1462,1464,0,0
245,-440,0,0,0,0,0,0,0,0,0,-1,1469,1464,0,0
252,-440,0,0,0,0,0,0,0,0,0,-1,1476,1464,0,0
259,-440,0,0,0,0,0,0,0,0,0,-1,1483,1464,0,0
266,-440,0,0,0,0,0,0,0,0,0,-1,1490,1464,0,0
273,-440,0,0,0,0,0,0,0,0,0,-1,1497,1464,0,0
280,-440,0,0,0,0,0,0,0,0,0,-1,1504,1464,0,0
287,-440,0,0,0,0,0,0,0,0,0,-1,1511,1464,0,0
294,-440,0,0,0,0,0,0,0,0,0,-1,1518,1464,0,0
301,-440,0,0,0,0,0,0,0,0,0,-1,1525,1464,0,0
308,-440,0,0,0,0,0,0,0,0,0,-1,1532,1464,0,0
315,-440,0,0,0,0,0,0,0,0,0,-1,1539,1464,0,0
322,-440,0,0,0,0,0,0,0,0,0,-1,1546,1464,0,0
329,-440,0,0,0,0,0,0,0,0,0,-1,1553,1464,0,0
336,-440,0,0,0,0,0,0,0,0,0,-1,1560,1464,0,0
343,-440,0,0,0,0,0,0,0,0,0,-1,1567,1464,0,0
350,-440,0,0,0,0,0,0,0,0,0,-1,1574,1464,0,0
357,-440,0,0,0,0,0,0,0,0,0,-1,1581,1464,0,0
364,-440,0,0,0,0,0,0,0,0,0,-1,1588,1464,0,0
371,-440,0,0,0,0,0,0,0,0,0,-1,1595,1464,0,0
378,-440,0,0,0,0,0,0,0,0,0,-1,1602,1464,0,0
385,-440,0,0,0,0,0,0,0,0,0,-1,1609,1464,0,0
392,-440,0,0,0,0,0,0,0,0,0,-1,1616,1464,0,0
399,-440,0,0,0,0,0,0,0,0,0,-1,1623,1464,0,0
406,-440,0,0,0,0,0,0,0,0,0,-1,1630,1464,0,0
413,-440,0,0,0,0,0,0,0,0,0,-1,1637,1464,0,0
420,-440,0,0,0,0,0,0,0,0,0,-1,1644,1464,0,0
427,-440,0,0,0,0,0,0,0,0,0,-1,1651,1464,0,0
434,-440,0,0,0,0,0,0,0,0,0,-1,1658,1464,0,0
441,-440,0,0,0,0,0,0,0,0,0,-1,1665,1464,0,0
448,-440,0,0,0,0,0,0,0,0,0,-1,1672,1464,0,0
455,-440,0,0,0,0,0,0,0,0,0,-1,1679,1464,0,0
462,-440,0,0,0,0,0,0,0,0,0,-1,1686,1464,0,0
469,-440,0,0,0,0,0,0,0,0,0,-1,1693,1464,0,0
476,-440,0,0,0,0,0,0,0,0,0,-1,1700,1464,0,0
483,-440,0,0,0,0,0,0,0,0,0,-1,1707,1464,0,0
490,-440,0,0,0,0,0,0,0,0,0,-1,1714,1464,0,0
497,-440,16.965,-0.528442,0,0,0,0,0,0,0,-1,1721,1464,16.965,0.528492
504,-440,15.8052,0.670166,0,0,0,0,0,0,0,-1,1728,1464,15.8052,-0.670145
511,-440,17.5754,2.77832,0,0,0,0,0,0,0,-1,1735,1464,17.5754,-2.77826
518,-440,16.9017,3.07861,0,0,0,0,0,0,0,-1,1742,1464,16.9018,-3.07859
525,-440,18.4495,12.0867,0,0,0,0,0,0,0,-1,1749,1464,18.4495,-12.0867
532,-440,15.4319,3.64392,0,0,0,0,0,0,0,-1,1756,1464,15.4318,-3.64391
539,-440,14.8214,3.41321,0,0,0,0,0,0,0,-1,1763,1464,14.8214,-3.4132
546,-440,14.8651,10.7683,0,0,0,0,0,0,0,-1,1770,1464,14.8651,-10.7683
553,-440,15.1213,11.4121,0,0,0,0,0,0,0,-1,1777,1464,15.1213,-11.4121
560,-440,17.4325,12.5394,0,0,0,0,0,0,0,-1,1784,1464,17.4325,-12.5394
567,-440,16.9025,12.4249,0,0,0,0,0,0,0,-1,1791,1464,16.9025,-12.425
574,-440,19.2841,14.8679,0,0,0,0,0,0,0,-1,1798,1464,19.2841,-14.868
581,-440,21.5594,16.9269,0,0,0,0,0,0,0,-1,1805,1464,21.5594,-16.9268
588,-440,21.7404,16.3817,0.00383473,0.00358643,-0.0031386,0.00685164,0.000569521,-0.76563,0.00439025,0.048693,1812,1464,21.7404,-16.3818
595,-440,21.7731,15.9175,0.00308534,0.00300767,-0.00267084,0.00571763,0.000375383,-0.778129,0.00369299,0.0225101,1819,1464,21.773,-15.9175
602,-440,21.825,15.4083,0.00259015,0.00212279,-0.00205762,0.00442732,0.000285625,-0.728856,0.00286109,0.0182558,1826,1464,21.8249,-15.4083
609,-440,21.8215,14.9608,0.00218718,0.00142149,-0.00152759,0.00337917,0.000229498,-0.662616,0.00218031,0.0160302,1833,1464,21.8216,-14.9608
616,-440,21.7903,14.5092,0.00185112,0.000779726,-0.00104552,0.00249019,0.000140658,-0.548648,0.00161528,0.0172264,1840,1464,21.7903,-14.5091
623,-440,21.797,14.0393,0.00163927,0.000272336,-0.00065801,0.00190454,7.06495e-06,-0.383212,0.00126735,0.0134877,1847,1464,21.797,-14.0393
630,-440,21.7697,13.5665,0.00153181,-0.000189991,-0.000341094,0.00159692,-0.000255101,-0.188616,0.00115904,0.0117753,1854,1464,21.7697,-13.5665
637,-440,21.7562,13.1565,0.00145374,-0.000476222,-6.03865e-05,0.00145563,-0.000478109,-0.0312482,0.00116302,0.0162185,1861,1464,21.7563,-13.1564
644,-440,21.7517,12.7314,0.00149883,-0.000634093,0.000104385,0.00150392,-0.000639189,0.0487847,0.00127046,0.0155249,1868,1464,21.7518,-12.7314
651,-440,21.7661,12.2305,0.00160534,-0.000623512,0.000170939,0.00161837,-0.000636546,0.0761007,0.00134238,0.0184595,1875,1464,21.7662,-12.2305
658,-440,21.5804,11.8821,0.0018672,-0.000589112,0.000206411,0.00188442,-0.000606337,0.0832551,0.00149982,0.0424132,1882,1464,21.5804,-11.8821
665,-440,21.4609,11.3298,0,0,0,0,0,0,0,-1,1889,1464,21.4609,-11.3298
672,-440,18.9385,9.6394,0,0,0,0,0,0,0,-1,1896,1464,18.9384,-9.63939
679,-440,16.9508,10.2336,0,0,0,0,0,0,0,-1,1903,1464,16.9508,-10.2337
686,-440,15.2556,8.44177,0,0,0,0,0,0,0,-1,1910,1464,15.2556,-8.44177
693,-440,9.88635,2.89795,0,0,0,0,0,0,0,-1,1917,1464,9.88638,-2.89798
700,-440,7.07825,-2.62061,0,0,0,0,0,0,0,-1,1924,1464,7.07829,2.62057
707,-440,0,0,0,0,0,0,0,0,0,-1,1931,1464,0,0
714,-440,0,0,0,0,0,0,0,0,0,-1,1938,1464,0,0
721,-440,0,0,0,0,0,0,0,0,0,-1,1945,1464,0,0
728,-440,0,0,0,0,0,0,0,0,0,-1,1952,1464,0,0
735,-440,0,0,0,0,0,0,0,0,0,-1,1959,1464,0,0
742,-440,0,0,0,0,0,0,0,0,0,-1,1966,1464,0,0
749,-440,0,0,0,0,0,0,0,0,0,-1,1973,1464,0,0
756,-440,0,0,0,0,0,0,0,0,0,-1,1980,1464,0,0
763,-440,0,0,0,0,0,0,0,0,0,-1,1987,1464,0,0
770,-440,0,0,0,0,0,0,0,0,0,-1,1994,1464,0,0
777,-440,0,0,0,0,0,0,0,0,0,-1,2001,1464,0,0
784,-440,0,0,0,0,0,0,0,0,0,-1,2008,1464,0,0
791,-440,0,0,0,0,0,0,0,0,0,-1,2015,1464,0,0
798,-440,0,0,0,0,0,0,0,0,0,-1,2022,1464,0,0
805,-440,0,0,0,0,0,0,0,0,0,-1,2029,1464,0,0
812,-440,0,0,0,0,0,0,0,0,0,-1,2036,1464,0,0
-700,-447,0,0,0,0,0,0,0,0,0,-1,524,1471,0,0
-693,-447,0,0,0,0,0,0,0,0,0,-1,531,1471,0,0
-686,-447,0,0,0,0,0,0,0,0,0,-1,538,1471,0,0
-679,-447,0,0,0,0,0,0,0,0,0,-1,545,1471,0,0
-672,-447,0,0,0,0,0,0,0,0,0,-1,552,1471,0,0
-665,-447,0,0,0,0,0,0,0,0,0,-1,559,1471,0,0
-658,-447,0,0,0,0,0,0,0,0,0,-1,566,1471,0,0
-651,-447,0,0,0,0,0,0,0,0,0,-1,573,1471,0,0
-644,-447,0,0,0,0,0,0,0,0,0,-1,580,1471,0,0
-637,-447,0,0,0,0,0,0,0,0,0,-1,587,1471,0,0
-630,-447,0,0,0,0,0,0,0,0,0,-1,594,1471,0,0
-623,-447,0,0,0,0,0,0,0,0,0,-1,601,1471,0,0
-616,-447,0,0,0,0,0,0,0,0,0,-1,608,1471,0,0
-609,-447,0,0,0,0,0,0,0,0,0,-1,615,1471,0,0
-602,-447,0,0,0,0,0,0,0,0,0,-1,622,1471,0,0
-595,-447,0,0,0,0,0,0,0,0,0,-1,629,1471,0,0
-588,-447,0,0,0,0,0,0,0,0,0,-1,636,1471,0,0
-581,-447,-7.06482,-1.50476,0,0,0,0,0,0,0,-1,643,1471,-7.0648,1.50474
-574,-447,-6.88092,-0.00585938,0,0,0,0,0,0,0,-1,650,1471,-6.88095,0.00589852
-567,-447,-6.8205,-1.32178,0,0,0,0,0,0,0,-1,657,1471,-6.82047,1.32172
-560,-447,-8.85748,2.80774,0,0,0,0,0,0,0,-1,664,1471,-8.85748,-2.80775
-553,-447,-7.60486,3.26794,0,0,0,0,0,0,0,-1,671,1471,-7.60487,-3.26799
-546,-447,-3.94501,1.8656,0,0,0,0,0,0,0,-1,678,1471,-3.945,-1.86554
-539,-447,-5.35492,4.50024,0,0,0,0,0,0,0,-1,685,1471,-5.35492,-4.50018
-532,-447,-6.12781,8.81091,0,0,0,0,0,0,0,-1,692,1471,-6.12781,-8.81094
-525,-447,-7.27747,9.96924,0,0,0,0,0,0,0,-1,699,1471,-7.27748,-9.96921
-518,-447,-7.35748,10.2349,0,0,0,0,0,0,0,-1,706,1471,-7.35751,-10.2348
-511,-447,-7.32166,10.8754,-0.00308786,-0.00117499,-0.0012882,-0.000526991,-0.00373587,-1.10473,0.00233482,0.0202171,713,1471,-7.32163,-10.8753
-504,-447,-7.3075,11.4287,-0.00198149,-0.000710499,-0.000717988,-0.00038716,-0.00230483,-1.14766,0.00142514,0.0206107,720,1471,-7.30748,-11.4288
-497,-447,-7.33417,11.9343,-0.000818484,-8.46334e-05,-3.3739e-05,-8.30855e-05,-0.000820032,-1.52495,0.000521205,0.0262643,727,1471,-7.33418,-11.9343
-490,-447,-7.31567,12.36,0.00052803,0.000797426,0.000849976,0.00152331,-0.000197855,0.863981,0.00108751,0.0253699,734,1471,-7.31566,-12.36
-483,-447,-7.35986,12.8425,0.00215864,0.00188488,0.00200677,0.00403319,1.03263e-05,0.751346,0.00268536,0.0217563,741,1471,-7.35985,-12.8425
-476,-447,-7.3595,13.3408,0.00395233,0.00316304,0.00333956,0.00692048,0.000194889,0.726585,0.00455008,0.0140568,748,1471,-7.35949,-13.3408
-469,-447,-7.37146,13.8503,0.00603314,0.0045705,0.00495198,0.0103075,0.000296128,0.712087,0.00677512,0.0128095,755,1471,-7.37148,-13.8503
-462,-447,-7.39551,14.3486,0.00846178,0.00619436,0.00685595,0.0142771,0.000379015,0.703459,0.00939429,0.0122974,762,1471,-7.3955,-14.3486
-455,-447,-7.4303,14.8536,0.0113481,0.00795859,0.00908809,0.0188981,0.000408571,0.693217,0.0124648,0.0189244,769,1471,-7.43031,-14.8536
-448,-447,-7.25336,15.4968,0.0148119,0.0102542,0.0119515,0.0246999,0.00036619,0.69119,0.0163459,0.0408029,776,1471,-7.25335,-15.4968
-441,-447,-6.99371,16.2441,0,0,0,0,0,0,0,-1,783,1471,-6.99369,-16.2441
-434,-447,-7.43402,15.6273,0,0,0,0,0,0,0,-1,790,1471,-7.43404,-15.6274
-427,-447,-7.21832,14.691,0,0,0,0,0,0,0,-1,797,1471,-7.21834,-14.6911
-420,-447,-8.0545,12.8055,0,0,0,0,0,0,0,-1,804,1471,-8.05452,-12.8055
-413,-447,-4.27393,6.59705,0,0,0,0,0,0,0,-1,811,1471,-4.27392,-6.59707
-406,-447,-1.04279,6.18591,0,0,0,0,0,0,0,-1,818,1471,-1.04276,-6.18586
-399,-447,0.0134888,0.687622,0,0,0,0,0,0,0,-1,825,1471,0.0134841,-0.68767
-392,-447,-14.0646,3.76147,0,0,0,0,0,0,0,-1,832,1471,-14.0646,-3.7615
-385,-447,-15.1695,2.61865,0,0,0,0,0,0,0,-1,839,1471,-15.1695,-2.61871
-378,-447,-15.9424,1.49316,0,0,0,0,0,0,0,-1,846,1471,-15.9424,-1.49313
-371,-447,-17.3655,0.73291,0,0,0,0,0,0,0,-1,853,1471,-17.3655,-0.732946
-364,-447,0,0,0,0,0,0,0,0,0,-1,860,1471,0,0
-357,-447,0,0,0,0,0,0,0,0,0,-1,867,1471,0,0
-350,-447,0,0,0,0,0,0,0,0,0,-1,874,1471,0,0
-343,-447,0,0,0,0,0,0,0,0,0,-1,881,1471,0,0
-336,-447,0,0,0,0,0,0,0,0,0,-1,888,1471,0,0
-329,-447,0,0,0,0,0,0,0,0,0,-1,895,1471,0,0
-322,-447,0,0,0,0,0,0,0,0,0,-1,902,1471,0,0
-315,-447,0,0,0,0,0,0,0,0,0,-1,909,1471,0,0
-308,-447,0,0,0,0,0,0,0,0,0,-1,916,1471,0,0
-301,-447,0,0,0,0,0,0,0,0,0,-1,923,1471,0,0
-294,-447,0,0,0,0,0,0,0,0,0,-1,930,1471,0,0
-287,-447,0,0,0,0,0,0,0,0,0,-1,937,1471,0,0
-280,-447,0,0,0,0,0,0,0,0,0,-1,944,1471,0,0
-273,-447,0,0,0,0,0,0,0,0,0,-1,951,1471,0,0
-266,-447,0,0,0,0,0,0,0,0,0,-1,958,1471,0,0
-259,-447,0,0,0,0,0,0,0,0,0,-1,965,1471,0,0
-252,-447,0,0,0,0,0,0,0,0,0,-1,972,1471,0,0
-245,-447,0,0,0,0,0,0,0,0,0,-1,979,1471,0,0
-238,-447,0,0,0,0,0,0,0,0,0,-1,986,1471,0,0
-231,-447,0,0,0,0,0,0,0,0,0,-1,993,1471,0,0
-224,-447,0,0,0,0,0,0,0,0,0,-1,1000,1471,0,0
-217,-447,0,0,0,0,0,0,0,0,0,-1,1007,1471,0,0
-210,-447,0,0,0,0,0,0,0,0,0,-1,1014,1471,0,0
-203,-447,0,0,0,0,0,0,0,0,0,-1,1021,1471,0,0
-196,-447,0,0,0,0,0,0,0,0,0,-1,1028,1471,0,0
-189,-447,0,0,0,0,0,0,0,0,0,-1,1035,1471,0,0
-182,-447,0,0,0,0,0,0,0,0,0,-1,1042,1471,0,0
-175,-447,0,0,0,0,0,0,0,0,0,-1,1049,1471,0,0
-168,-447,0,0,0,0,0,0,0,0,0,-1,1056,1471,0,0
-161,-447,0,0,0,0,0,0,0,0,0,-1,1063,1471,0,0
-154,-447,0,0,0,0,0,0,0,0,0,-1,1070,1471,0,0
-147,-447,0,0,0,0,0,0,0,0,0,-1,1077,1471,0,0
-140,-447,0,0,0,0,0,0,0,0,0,-1,1084,1471,0,0
-133,-447,0,0,0,0,0,0,0,0,0,-1,1091,1471,0,0
-126,-447,0,0,0,0,0,0,0,0,0,-1,1098,1471,0,0
-119,-447,0,0,0,0,0,0,0,0,0,-1,1105,1471,0,0
-112,-447,0,0,0,0,0,0,0,0,0,-1,1112,1471,0,0
-105,-447,0,0,0,0,0,0,0,0,0,-1,1119,1471,0,0
-98,-447,0,0,0,0,0,0,0,0,0,-1,1126,1471,0,0
-91,-447,0,0,0,0,0,0,0,0,0,-1,1133,1471,0,0
-84,-447,0,0,0,0,0,0,0,0,0,-1,1140,1471,0,0
-77,-447,0,0,0,0,0,0,0,0,0,-1,1147,1471,0,0
-70,-447,0,0,0,0,0,0,0,0,0,-1,1154,1471,0,0
-63,-447,0,0,0,0,0,0,0,0,0,-1,1161,1471,0,0
-56,-447,0,0,0,0,0,0,0,0,0,-1,1168,1471,0,0
-49,-447,0,0,0,0,0,0,0,0,0,-1,1175,1471,0,0
-42,-447,0,0,0,0,0,0,0,0,0,-1,1182,1471,0,0
-35,-447,0,0,0,0,0,0,0,0,0,-1,1189,1471,0,0
-28,-447,0,0,0,0,0,0,0,0,0,-1,1196,1471,0,0
-21,-447,0,0,0,0,0,0,0,0,0,-1,1203,1471,0,0
-14,-447,0,0,0,0,0,0,0,0,0,-1,1210,1471,0,0
-7,-447,0,0,0,0,0,0,0,0,0,-1,1217,1471,0,0
0,-447,0,0,0,0,0,0,0,0,0,-1,1224,1471,0,0
7,-447,0,0,0,0,0,0,0,0,0,-1,1231,1471,0,0
14,-447,0,0,0,0,0,0,0,0,0,-1,1238,1471,0,0
21,-447,0,0,0,0,0,0,0,0,0,-1,1245,1471,0,0
28,-447,0,0,0,0,0,0,0,0,0,-1,1252,1471,0,0
35,-447,0,0,0,0,0,0,0,0,0,-1,1259,1471,0,0
42,-447,0,0,0,0,0,0,0,0,0,-1,1266,1471,0,0
49,-447,0,0,0,0,0,0,0,0,0,-1,1273,1471,0,0
56,-447,0,0,0,0,0,0,0,0,0,-1,1280,1471,0,0
63,-447,0,0,0,0,0,0,0,0,0,-1,1287,1471,0,0
70,-447,0,0,0,0,0,0,0,0,0,-1,1294,1471,0,0
77,-447,0,0,0,0,0,0,0,0,0,-1,1301,1471,0,0
84,-447,0,0,0,0,0,0,0,0,0,-1,1308,1471,0,0
91,-447,0,0,0,0,0,0,0,0,0,-1,1315,1471,0,0
98,-447,0,0,0,0,0,0,0,0,0,-1,1322,1471,0,0
105,-447,0,0,0,0,0,0,0,0,0,-1,1329,1471,0,0
112,-447,0,0,0,0,0,0,0,0,0,-1,1336,1471,0,0
119,-447,0,0,0,0,0,0,0,0,0,-1,1343,1471,0,0
126,-447,0,0,0,0,0,0,0,0,0,-1,1350,1471,0,0
133,-447,0,0,0,0,0,0,0,0,0,-1,1357,1471,0,0
140,-447,0,0,0,0,0,0,0,0,0,-1,1364,1471,0,0
147,-447,0,0,0,0,0,0,0,0,0,-1,1371,1471,0,0
154,-447,0,0,0,0,0,0,0,0,0,-1,1378,1471,0,0
161,-447,0,0,0,0,0,0,0,0,0,-1,1385,1471,0,0
168,-447,0,0,0,0,0,0,0,0,0,-1,1392,1471,0,0
175,-447,0,0,0,0,0,0,0,0,0,-1,1399,1471,0,0
182,-447,0,0,0,0,0,0,0,0,0,-1,1406,1471,0,0
189,-447,0,0,0,0,0,0,0,0,0,-1,1413,1471,0,0
196,-447,0,0,0,0,0,0,0,0,0,-1,1420,1471,0,0
203,-447,0,0,0,0,0,0,0,0,0,-1,1427,1471,0,0
210,-447,0,0,0,0,0,0,0,0,0,-1,1434,1471,0,0
217,-447,0,0,0,0,0,0,0,0,0,-1,1441,1471,0,0
224,-447,0,0,0,0,0,0,0,0,0,-1,1448,1471,0,0
231,-447,0,0,0,0,0,0,0,0,0,-1,1455,1471,0,0
238,-447,0,0,0,0,0,0,0,0,0,-1,1462,1471,0,0
245,-447,0,0,0,0,0,0,0,0,0,-1,1469,1471,0,0
252,-447,0,0,0,0,0,0,0,0,0,-1,1476,1471,0,0
259,-447,0,0,0,0,0,0,0,0,0,-1,1483,1471,0,0
266,-447,0,0,0,0,0,0,0,0,0,-1,1490,1471,0,0
273,-447,0,0,0,0,0,0,0,0,0,-1,1497,1471,0,0
280,-447,0,0,0,0,0,0,0,0,0,-1,1504,1471,0,0
287,-447,0,0,0,0,0,0,0,0,0,-1,1511,1471,0,0
294,-447,0,0,0,0,0,0,0,0,0,-1,1518,1471,0,0
301,-447,0,0,0,0,0,0,0,0,0,-1,1525,1471,0,0
308,-447,0,0,0,0,0,0,0,0,0,-1,1532,1471,0,0
315,-447,0,0,0,0,0,0,0,0,0,-1,1539,1471,0,0
322,-447,0,0,0,0,0,0,0,0,0,-1,1546,1471,0,0
329,-447,0,0,0,0,0,0,0,0,0,-1,1553,1471,0,0
336,-447,0,0,0,0,0,0,0,0,0,-1,1560,1471,0,0
343,-447,0,0,0,0,0,0,0,0,0,-1,1567,1471,0,0
350,-447,0,0,0,0,0,0,0,0,0,-1,1574,1471,0,0
357,-447,0,0,0,0,0,0,0,0,0,-1,1581,1471,0,0
364,-447,0,0,0,0,0,0,0,0,0,-1,1588,1471,0,0
371,-447,0,0,0,0,0,0,0,0,0,-1,1595,1471,0,0
378,-447,0,0,0,0,0,0,0,0,0,-1,1602,1471,0,0
385,-447,0,0,0,0,0,0,0,0,0,-1,1609,1471,0,0
392,-447,0,0,0,0,0,0,0,0,0,-1,1616,1471,0,0
399,-447,0,0,0,0,0,0,0,0,0,-1,1623,1471,0,0
406,-447,0,0,0,0,0,0,0,0,0,-1,1630,1471,0,0
413,-447,0,0,0,0,0,0,0,0,0,-1,1637,1471,0,0
420,-447,0,0,0,0,0,0,0,0,0,-1,1644,1471,0,0
427,-447,0,0,0,0,0,0,0,0,0,-1,1651,1471,0,0
434,-447,0,0,0,0,0,0,0,0,0,-1,1658,1471,0,0
441,-447,0,0,0,0,0,0,0,0,0,-1,1665,1471,0,0
448,-447,0,0,0,0,0,0,0,0,0,-1,1672,1471,0,0
455,-447,0,0,0,0,0,0,0,0,0,-1,1679,1471,0,0
462,-447,0,0,0,0,0,0,0,0,0,-1,1686,1471,0,0
469,-447,0,0,0,0,0,0,0,0,0,-1,1693,1471,0,0
476,-447,0,0,0,0,0,0,0,0,0,-1,1700,1471,0,0
483,-447,0,0,0,0,0,0,0,0,0,-1,1707,1471,0,0
490,-447,18.2214,-0.810303,0,0,0,0,0,0,0,-1,1714,1471,18.2215,0.810307
497,-447,17.0237,0.352417,0,0,0,0,0,0,0,-1,1721,1471,17.0237,-0.352442
504,-447,15.8998,1.53479,0,0,0,0,0,0,0,-1,1728,1471,15.8997,-1.53478
511,-447,14.7201,2.76111,0,0,0,0,0,0,0,-1,1735,1471,14.7201,-2.76107
518,-447,17.7618,13.2864,0,0,0,0,0,0,0,-1,1742,1471,17.7619,-13.2863
525,-447,17.1191,11.9014,0,0,0,0,0,0,0,-1,1749,1471,17.1191,-11.9013
532,-447,16.3959,10.0455,0,0,0,0,0,0,0,-1,1756,1471,16.3959,-10.0456
539,-447,14.1699,10.0204,0,0,0,0,0,0,0,-1,1763,1471,14.1699,-10.0204
546,-447,16.3715,11.8046,0,0,0,0,0,0,0,-1,1770,1471,16.3714,-11.8046
553,-447,17.5106,13.4012,0,0,0,0,0,0,0,-1,1777,1471,17.5107,-13.4012
560,-447,17.0187,13.168,0,0,0,0,0,0,0,-1,1784,1471,17.0187,-13.168
567,-447,18.9286,15.1703,0,0,0,0,0,0,0,-1,1791,1471,18.9286,-15.1703
574,-447,21.2233,17.498,0,0,0,0,0,0,0,-1,1798,1471,21.2233,-17.4981
581,-447,21.2971,16.9517,0.00370714,0.00346854,-0.0027891,0.00637948,0.000796193,-0.764025,0.004014,0.0346924,1805,1471,21.2971,-16.9516
588,-447,21.3854,16.3396,0.00313257,0.00289981,-0.00245833,0.00547727,0.000555109,-0.761745,0.00348126,0.0203042,1812,1471,21.3854,-16.3396
595,-447,21.3761,15.8677,0.00267477,0.00248519,-0.00217221,0.00475426,0.000405703,-0.763594,0.0030433,0.0132145,1819,1471,21.3761,-15.8677
602,-447,21.3644,15.4087,0.00231784,0.00173843,-0.00171458,0.00376702,0.000289261,-0.701706,0.00242069,0.0113713,1826,1471,21.3643,-15.4087
609,-447,21.3572,14.9683,0.00200417,0.0011195,-0.0012654,0.00290232,0.000221352,-0.617257,0.00186548,0.012683,1833,1471,21.3571,-14.9683
616,-447,21.3485,14.5206,0.00178325,0.000553831,-0.000854059,0.00222082,0.000116265,-0.473468,0.00144335,0.0143378,1840,1471,21.3485,-14.5206
623,-447,21.3582,14.0863,0.00167079,7.96212e-05,-0.000502467,0.00181617,-6.57662e-05,-0.281655,0.00123329,0.0154486,1847,1471,21.3582,-14.0863
630,-447,21.3317,13.6124,0.00164673,-0.000362352,-0.0001921,0.00166494,-0.000380554,-0.0944752,0.00125617,0.00944513,1854,1471,21.3316,-13.6125
637,-447,21.3226,13.1602,0.00165492,-0.000622749,8.11502e-05,0.0016578,-0.000625637,0.0355686,0.0013625,0.0105122,1861,1471,21.3226,-13.1602
644,-447,21.3201,12.7179,0.00176593,-0.000766333,0.000248621,0.00179011,-0.000790512,0.0969476,0.00152673,0.0112629,1868,1471,21.3201,-12.7178
651,-447,21.3472,12.2092,0.00192898,-0.000750019,0.000341965,0.00197195,-0.000792981,0.124977,0.00164399,0.0445264,1875,1471,21.3472,-12.2092
658,-447,21.4193,11.6652,0,0,0,0,0,0,0,-1,1882,1471,21.4193,-11.6652
665,-447,18.4946,9.79919,0,0,0,0,0,0,0,-1,1889,1471,18.4946,-9.79922
672,-447,18.9784,9.66077,0,0,0,0,0,0,0,-1,1896,1471,18.9784,-9.66081
679,-447,14.844,7.4248,0,0,0,0,0,0,0,-1,1903,1471,14.844,-7.42477
686,-447,9.81079,4.30859,0,0,0,0,0,0,0,-1,1910,1471,9.8108,-4.30864
693,-447,10.48,2.08643,0,0,0,0,0,0,0,-1,1917,1471,10.48,-2.08642
700,-447,0,0,0,0,0,0,0,0,0,-1,1924,1471,0,0
707,-447,0,0,0,0,0,0,0,0,0,-1,1931,1471,0,0
714,-447,0,0,0,0,0,0,0,0,0,-1,1938,1471,0,0
721,-447,0,0,0,0,0,0,0,0,0,-1,1945,1471,0,0
728,-447,0,0,0,0,0,0,0,0,0,-1,1952,1471,0,0
735,-447,0,0,0,0,0,0,0,0,0,-1,1959,1471,0,0
742,-447,0,0,0,0,0,0,0,0,0,-1,1966,1471,0,0
749,-447,0,0,0,0,0,0,0,0,0,-1,1973,1471,0,0
756,-447,0,0,0,0,0,0,0,0,0,-1,1980,1471,0,0
763,-447,0,0,0,0,0,0,0,0,0,-1,1987,1471,0,0
770,-447,0,0,0,0,0,0,0,0,0,-1,1994,1471,0,0
777,-447,0,0,0,0,0,0,0,0,0,-1,2001,1471,0,0
784,-447,0,0,0,0,0,0,0,0,0,-1,2008,1471,0,0
791,-447,0,0,0,0,0,0,0,0,0,-1,2015,1471,0,0
798,-447,0,0,0,0,0,0,0,0,0,-1,2022,1471,0,0
805,-447,0,0,0,0,0,0,0,0,0,-1,2029,1471,0,0
812,-447,0,0,0,0,0,0,0,0,0,-1,2036,1471,0,0
-700,-454,0,0,0,0,0,0,0,0,0,-1,524,1478,0,0
-693,-454,0,0,0,0,0,0,0,0,0,-1,531,1478,0,0
-686,-454,0,0,0,0,0,0,0,0,0,-1,538,1478,0,0
-679,-454,0,0,0,0,0,0,0,0,0,-1,545,1478,0,0
-672,-454,0,0,0,0,0,0,0,0,0,-1,552,1478,0,0
-665,-454,0,0,0,0,0,0,0,0,0,-1,559,1478,0,0
-658,-454,0,0,0,0,0,0,0,0,0,-1,566,1478,0,0
-651,-454,0,0,0,0,0,0,0,0,0,-1,573,1478,0,0
-644,-454,0,0,0,0,0,0,0,0,0,-1,580,1478,0,0
-637,-454,0,0,0,0,0,0,0,0,0,-1,587,1478,0,0
-630,-454,0,0,0,0,0,0,0,0,0,-1,594,1478,0,0
-623,-454,0,0,0,0,0,0,0,0,0,-1,601,1478,0,0
-616,-454,0,0,0,0,0,0,0,0,0,-1,608,1478,0,0
-609,-454,0,0,0,0,0,0,0,0,0,-1,615,1478,0,0
-602,-454,0,0,0,0,0,0,0,0,0,-1,622,1478,0,0
-595,-454,0,0,0,0,0,0,0,0,0,-1,629,1478,0,0
-588,-454,0,0,0,0,0,0,0,0,0,-1,636,1478,0,0
-581,-454,0,0,0,0,0,0,0,0,0,-1,643,1478,0,0
-574,-454,-8.4881,-0.465942,0,0,0,0,0,0,0,-1,650,1478,-8.4881,0.465885
-567,-454,-8.10046,0.922974,0,0,0,0,0,0,0,-1,657,1478,-8.10047,-0.923034
-560,-454,-10.656,3.51172,0,0,0,0,0,0,0,-1,664,1478,-10.656,-3.51176
-553,-454,-9.01129,3.95251,0,0,0,0,0,0,0,-1,671,1478,-9.0113,-3.95256
-546,-454,-9.61896,6.05237,0,0,0,0,0,0,0,-1,678,1478,-9.61897,-6.05239
-539,-454,-7.72589,4.96533,0,0,0,0,0,0,0,-1,685,1478,-7.72592,-4.96532
-532,-454,-7.03931,7.59985,0,0,0,0,0,0,0,-1,692,1478,-7.03929,-7.59981
-525,-454,-5.78723,9.677,0,0,0,0,0,0,0,-1,699,1478,-5.78722,-9.67703
-518,-454,-6.7431,10.4397,0,0,0,0,0,0,0,-1,706,1478,-6.7431,-10.4397
-511,-454,-6.88934,10.8416,-0.00419422,-0.00181746,-0.00184197,-0.000813792,-0.00519789,-1.07188,0.00322837,0.0370664,713,1478,-6.88932,-10.8415
-504,-454,-6.8219,11.4161,-0.00302065,-0.00143524,-0.00132964,-0.000679938,-0.00377595,-1.0542,0.00232405,0.0168159,720,1478,-6.82191,-11.4161
-497,-454,-6.82965,11.9581,-0.0018649,-0.000916539,-0.00073665,-0.000514648,-0.00226679,-1.07136,0.0013722,0.0211038,727,1478,-6.82963,-11.9581
-490,-454,-6.83875,12.4264,-0.000559392,-0.000150242,4.06543e-05,-0.000146242,-0.000563392,1.47271,0.000337577,0.019574,734,1478,-6.83872,-12.4264
-483,-454,-6.87994,12.9015,0.00100538,0.000845839,0.00108361,0.00201215,-0.000160935,0.748658,0.00139817,0.0152752,741,1478,-6.87995,-12.9014
-476,-454,-6.89813,13.3552,0.00271588,0.00201189,0.0023023,0.00469293,3.48343e-05,0.709541,0.00311707,0.0133287,748,1478,-6.8981,-13.3553
-469,-454,-6.89465,13.8438,0.00465541,0.00328457,0.00376324,0.00779513,0.000144844,0.695318,0.00514915,0.010027,755,1478,-6.89464,-13.8438
-462,-454,-6.91681,14.3516,0.00685994,0.00471571,0.00545676,0.0113489,0.000226743,0.688397,0.0074915,0.00988528,762,1478,-6.91681,-14.3516
-455,-454,-6.93201,14.8452,0.00940482,0.00625364,0.00741877,0.0154135,0.000245001,0.680763,0.010195,0.0109285,769,1478,-6.93201,-14.8452
-448,-454,-6.92719,15.3479,0.0123883,0.00818688,0.00987022,0.0203789,0.000196274,0.680547,0.013521,0.0170649,776,1478,-6.92717,-15.3478
-441,-454,-6.66174,16.0834,0.0158731,0.00994585,0.0126659,0.0259174,-9.84939e-05,0.670473,0.0173112,0.040328,783,1478,-6.66172,-16.0834
-434,-454,-6.25214,16.8535,0,0,0,0,0,0,0,-1,790,1478,-6.25215,-16.8535
-427,-454,-6.00183,15.8636,0,0,0,0,0,0,0,-1,797,1478,-6.00184,-15.8637
-420,-454,-6.28088,15.2135,0,0,0,0,0,0,0,-1,804,1478,-6.28087,-15.2135
-413,-454,-5.4408,13.674,0,0,0,0,0,0,0,-1,811,1478,-5.44079,-13.6739
-406,-454,-2.38208,10.0308,0,0,0,0,0,0,0,-1,818,1478,-2.38209,-10.0308
-399,-454,-1.21033,6.95447,0,0,0,0,0,0,0,-1,825,1478,-1.21035,-6.95452
-392,-454,0.0967407,0.985474,0,0,0,0,0,0,0,-1,832,1478,0.0967364,-0.985529
-385,-454,2.38629,3.297,0,0,0,0,0,0,0,-1,839,1478,2.38629,-3.29702
-378,-454,-15.9756,2.83997,0,0,0,0,0,0,0,-1,846,1478,-15.9756,-2.83994
-371,-454,-17.2753,2.01453,0,0,0,0,0,0,0,-1,853,1478,-17.2753,-2.01455
-364,-454,1.08124,0.819458,0,0,0,0,0,0,0,-1,860,1478,1.08124,-0.819513
-357,-454,0,0,0,0,0,0,0,0,0,-1,867,1478,0,0
-350,-454,0,0,0,0,0,0,0,0,0,-1,874,1478,0,0
-343,-454,0,0,0,0,0,0,0,0,0,-1,881,1478,0,0
-336,-454,0,0,0,0,0,0,0,0,0,-1,888,1478,0,0
-329,-454,0,0,0,0,0,0,0,0,0,-1,895,1478,0,0
-322,-454,0,0,0,0,0,0,0,0,0,-1,902,1478,0,0
-315,-454,0,0,0,0,0,0,0,0,0,-1,909,1478,0,0
-308,-454,0,0,0,0,0,0,0,0,0,-1,916,1478,0,0
-301,-454,0,0,0,0,0,0,0,0,0,-1,923,1478,0,0
-294,-454,0,0,0,0,0,0,0,0,0,-1,930,1478,0,0
-287,-454,0,0,0,0,0,0,0,0,0,-1,937,1478,0,0
-280,-454,0,0,0,0,0,0,0,0,0,-1,944,1478,0,0
-273,-454,0,0,0,0,0,0,0,0,0,-1,951,1478,0,0
-266,-454,0,0,0,0,0,0,0,0,0,-1,958,1478,0,0
-259,-454,0,0,0,0,0,0,0,0,0,-1,965,1478,0,0
-252,-454,0,0,0,0,0,0,0,0,0,-1,972,1478,0,0
-245,-454,0,0,0,0,0,0,0,0,0,-1,979,1478,0,0
-238,-454,0,0,0,0,0,0,0,0,0,-1,986,1478,0,0
-231,-454,0,0,0,0,0,0,0,0,0,-1,993,1478,0,0
-224,-454,0,0,0,0,0,0,0,0,0,-1,1000,1478,0,0
-217,-454,0,0,0,0,0,0,0,0,0,-1,1007,1478,0,0
-210,-454,0,0,0,0,0,0,0,0,0,-1,1014,1478,0,0
-203,-454,0,0,0,0,0,0,0,0,0,-1,1021,1478,0,0
-196,-454,0,0,0,0,0,0,0,0,0,-1,1028,1478,0,0
-189,-454,0,0,0,0,0,0,0,0,0,-1,1035,1478,0,0
-182,-454,0,0,0,0,0,0,0,0,0,-1,1042,1478,0,0
-175,-454,0,0,0,0,0,0,0,0,0,-1,1049,1478,0,0
-168,-454,0,0,0,0,0,0,0,0,0,-1,1056,1478,0,0
-161,-454,0,0,0,0,0,0,0,0,0,-1,1063,1478,0,0
-154,-454,0,0,0,0,0,0,0,0,0,-1,1070,1478,0,0
-147,-454,0,0,0,0,0,0,0,0,0,-1,1077,1478,0,0
-140,-454,0,0,0,0,0,0,0,0,0,-1,1084,1478,0,0
-133,-454,0,0,0,0,0,0,0,0,0,-1,1091,1478,0,0
-126,-454,0,0,0,0,0,0,0,0,0,-1,1098,1478,0,0
-119,-454,0,0,0,0,0,0,0,0,0,-1,1105,1478,0,0
-112,-454,0,0,0,0,0,0,0,0,0,-1,1112,1478,0,0
-105,-454,0,0,0,0,0,0,0,0,0,-1,1119,1478,0,0
-98,-454,0,0,0,0,0,0,0,0,0,-1,1126,1478,0,0
-91,-454,0,0,0,0,0,0,0,0,0,-1,1133,1478,0,0
-84,-454,0,0,0,0,0,0,0,0,0,-1,1140,1478,0,0
-77,-454,0,0,0,0,0,0,0,0,0,-1,1147,1478,0,0
-70,-454,0,0,0,0,0,0,0,0,0,-1,1154,1478,0,0
-63,-454,0,0,0,0,0,0,0,0,0,-1,1161,1478,0,0
-56,-454,0,0,0,0,0,0,0,0,0,-1,1168,1478,0,0
-49,-454,0,0,0,0,0,0,0,0,0,-1,1175,1478,0,0
-42,-454,0,0,0,0,0,0,0,0,0,-1,1182,1478,0,0
-35,-454,0,0,0,0,0,0,0,0,0,-1,1189,1478,0,0
-28,-454,0,0,0,0,0,0,0,0,0,-1,1196,1478,0,0
-21,-454,0,0,0,0,0,0,0,0,0,-1,1203,1478,0,0
-14,-454,0,0,0,0,0,0,0,0,0,-1,1210,1478,0,0
-7,-454,0,0,0,0,0,0,0,0,0,-1,1217,1478,0,0
0,-454,0,0,0,0,0,0,0,0,0,-1,1224,1478,0,0
7,-454,0,0,0,0,0,0,0,0,0,-1,1231,1478,0,0
14,-454,0,0,0,0,0,0,0,0,0,-1,1238,1478,0,0
21,-454,0,0,0,0,0,0,0,0,0,-1,1245,1478,0,0
28,-454,0,0,0,0,0,0,0,0,0,-1,1252,1478,0,0
35,-454,0,0,0,0,0,0,0,0,0,-1,1259,1478,0,0
42,-454,0,0,0,0,0,0,0,0,0,-1,1266,1478,0,0
49,-454,0,0,0,0,0,0,0,0,0,-1,1273,1478,0,0
56,-454,0,0,0,0,0,0,0,0,0,-1,1280,1478,0,0
63,-454,0,0,0,0,0,0,0,0,0,-1,1287,1478,0,0
70,-454,0,0,0,0,0,0,0,0,0,-1,1294,1478,0,0
77,-454,0,0,0,0,0,0,0,0,0,-1,1301,1478,0,0
84,-454,0,0,0,0,0,0,0,0,0,-1,1308,1478,0,0
91,-454,0,0,0,0,0,0,0,0,0,-1,1315,1478,0,0
98,-454,0,0,0,0,0,0,0,0,0,-1,1322,1478,0,0
105,-454,0,0,0,0,0,0,0,0,0,-1,1329,1478,0,0
112,-454,0,0,0,0,0,0,0,0,0,-1,1336,1478,0,0
119,-454,0,0,0,0,0,0,0,0,0,-1,1343,1478,0,0
126,-454,0,0,0,0,0,0,0,0,0,-1,1350,1478,0,0
133,-454,0,0,0,0,0,0,0,0,0,-1,1357,1478,0,0
140,-454,0,0,0,0,0,0,0,0,0,-1,1364,1478,0,0
147,-454,0,0,0,0,0,0,0,0,0,-1,1371,1478,0,0
154,-454,0,0,0,0,0,0,0,0,0,-1,1378,1478,0,0
161,-454,0,0,0,0,0,0,0,0,0,-1,1385,1478,0,0
168,-454,0,0,0,0,0,0,0,0,0,-1,1392,1478,0,0
175,-454,0,0,0,0,0,0,0,0,0,-1,1399,1478,0,0
182,-454,0,0,0,0,0,0,0,0,0,-1,1406,1478,0,0
189,-454,0,0,0,0,0,0,0,0,0,-1,1413,1478,0,0
196,-454,0,0,0,0,0,0,0,0,0,-1,1420,1478,0,0
203,-454,0,0,0,0,0,0,0,0,0,-1,1427,1478,0,0
210,-454,0,0,0,0,0,0,0,0,0,-1,1434,1478,0,0
217,-454,0,0,0,0,0,0,0,0,0,-1,1441,1478,0,0
224,-454,0,0,0,0,0,0,0,0,0,-1,1448,1478,0,0
231,-454,0,0,0,0,0,0,0,0,0,-1,1455,1478,0,0
238,-454,0,0,0,0,0,0,0,0,0,-1,1462,1478,0,0
245,-454,0,0,0,0,0,0,0,0,0,-1,1469,1478,0,0
252,-454,0,0,0,0,0,0,0,0,0,-1,1476,1478,0,0
259,-454,0,0,0,0,0,0,0,0,0,-1,1483,1478,0,0
266,-454,0,0,0,0,0,0,0,0,0,-1,1490,1478,0,0
273,-454,0,0,0,0,0,0,0,0,0,-1,1497,1478,0,0
280,-454,0,0,0,0,0,0,0,0,0,-1,1504,1478,0,0
287,-454,0,0,0,0,0,0,0,0,0,-1,1511,1478,0,0
294,-454,0,0,0,0,0,0,0,0,0,-1,1518,1478,0,0
301,-454,0,0,0,0,0,0,0,0,0,-1,1525,1478,0,0
308,-454,0,0,0,0,0,0,0,0,0,-1,1532,1478,0,0
315,-454,0,0,0,0,0,0,0,0,0,-1,1539,1478,0,0
322,-454,0,0,0,0,0,0,0,0,0,-1,1546,1478,0,0
329,-454,0,0,0,0,0,0,0,0,0,-1,1553,1478,0,0
336,-454,0,0,0,0,0,0,0,0,0,-1,1560,1478,0,0
343,-454,0,0,0,0,0,0,0,0,0,-1,1567,1478,0,0
350,-454,0,0,0,0,0,0,0,0,0,-1,1574,1478,0,0
357,-454,0,0,0,0,0,0,0,0,0,-1,1581,1478,0,0
364,-454,0,0,0,0,0,0,0,0,0,-1,1588,1478,0,0
371,-454,0,0,0,0,0,0,0,0,0,-1,1595,1478,0,0
378,-454,0,0,0,0,0,0,0,0,0,-1,1602,1478,0,0
385,-454,0,0,0,0,0,0,0,0,0,-1,1609,1478,0,0
392,-454,0,0,0,0,0,0,0,0,0,-1,1616,1478,0,0
399,-454,0,0,0,0,0,0,0,0,0,-1,1623,1478,0,0
406,-454,0,0,0,0,0,0,0,0,0,-1,1630,1478,0,0
413,-454,0,0,0,0,0,0,0,0,0,-1,1637,1478,0,0
420,-454,0,0,0,0,0,0,0,0,0,-1,1644,1478,0,0
427,-454,0,0,0,0,0,0,0,0,0,-1,1651,1478,0,0
434,-454,0,0,0,0,0,0,0,0,0,-1,1658,1478,0,0
441,-454,0,0,0,0,0,0,0,0,0,-1,1665,1478,0,0
448,-454,0,0,0,0,0,0,0,0,0,-1,1672,1478,0,0
455,-454,0,0,0,0,0,0,0,0,0,-1,1679,1478,0,0
462,-454,0,0,0,0,0,0,0,0,0,-1,1686,1478,0,0
469,-454,0,0,0,0,0,0,0,0,0,-1,1693,1478,0,0
476,-454,0,0,0,0,0,0,0,0,0,-1,1700,1478,0,0
483,-454,14.2399,3.97498,0,0,0,0,0,0,0,-1,1707,1478,14.2399,-3.97502
490,-454,18.1821,-0.175781,0,0,0,0,0,0,0,-1,1714,1478,18.1821,0.175822
497,-454,16.8854,1.01208,0,0,0,0,0,0,0,-1,1721,1478,16.8854,-1.01209
504,-454,15.587,2.05994,0,0,0,0,0,0,0,-1,1728,1478,15.5871,-2.05998
511,-454,17.0273,14.5258,0,0,0,0,0,0,0,-1,1735,1478,17.0273,-14.5258
518,-454,16.4158,13.1039,0,0,0,0,0,0,0,-1,1742,1478,16.4157,-13.1038
525,-454,15.7842,11.6628,0,0,0,0,0,0,0,-1,1749,1478,15.7841,-11.6629
532,-454,15.1094,10.2476,0,0,0,0,0,0,0,-1,1756,1478,15.1094,-10.2475
539,-454,13.7905,10.9373,0,0,0,0,0,0,0,-1,1763,1478,13.7906,-10.9372
546,-454,16.2002,13.2458,0,0,0,0,0,0,0,-1,1770,1478,16.2002,-13.2459
553,-454,15.6747,12.1868,0,0,0,0,0,0,0,-1,1777,1478,15.6747,-12.1868
560,-454,16.3895,14.0527,0,0,0,0,0,0,0,-1,1784,1478,16.3895,-14.0528
567,-454,21.0304,17.6525,0,0,0,0,0,0,0,-1,1791,1478,21.0304,-17.6524
574,-454,20.95,17.2601,0.00231142,0.00290921,-0.00174739,0.00438309,0.000837546,-0.870104,0.00268675,0.0306533,1798,1478,20.9499,-17.2602
581,-454,20.9254,16.7659,0.0022399,0.00272013,-0.0017547,0.00425106,0.000708965,-0.853397,0.00262977,0.0193415,1805,1478,20.9254,-16.7658
588,-454,20.9518,16.3038,0.00206451,0.00227089,-0.0016347,0.00380565,0.000529746,-0.816919,0.00238025,0.0142827,1812,1478,20.9517,-16.3039
595,-454,20.9124,15.8716,0.00206849,0.00195876,-0.00159682,0.00361139,0.000415859,-0.768227,0.00228164,0.0131105,1819,1478,20.9123,-15.8716
602,-454,20.9087,15.4185,0.00210175,0.00133463,-0.00140768,0.0031772,0.000259189,-0.65239,0.00203724,0.00907581,1826,1478,20.9087,-15.4185
609,-454,20.9138,14.9773,0.00215435,0.000797354,-0.00118119,0.00283804,0.00011366,-0.524699,0.0018553,0.0105467,1833,1478,20.9139,-14.9773
616,-454,20.9026,14.5408,0.0023136,0.000301057,-0.000978378,0.00271083,-9.61684e-05,-0.385672,0.00184011,0.0126464,1840,1478,20.9026,-14.5407
623,-454,20.9058,14.0868,0.00255497,-0.000138634,-0.000795561,0.00277239,-0.000356055,-0.266778,0.00197766,0.0120346,1847,1478,20.9058,-14.0868
630,-454,20.901,13.6332,0.00284908,-0.000548691,-0.000613832,0.00295657,-0.000656184,-0.173359,0.00222231,0.0117596,1854,1478,20.9011,-13.6332
637,-454,20.8555,13.1946,0.00315126,-0.00077561,-0.000459423,0.0032043,-0.000828644,-0.114927,0.00245939,0.0110569,1861,1478,20.8554,-13.1946
644,-454,20.917,12.735,0.00350036,-0.00093992,-0.000349819,0.00352775,-0.000967311,-0.0781405,0.00273196,0.0227705,1868,1478,20.917,-12.7349
651,-454,21.0033,12.2411,0,0,0,0,0,0,0,-1,1875,1478,21.0033,-12.2411
658,-454,17.2583,10.0765,0,0,0,0,0,0,0,-1,1882,1478,17.2583,-10.0765
665,-454,17.683,9.67566,0,0,0,0,0,0,0,-1,1889,1478,17.683,-9.67572
672,-454,16.5476,6.41931,0,0,0,0,0,0,0,-1,1896,1478,16.5476,-6.41929
679,-454,14.2161,5.45007,0,0,0,0,0,0,0,-1,1903,1478,14.2161,-5.45013
686,-454,10.3767,2.12842,0,0,0,0,0,0,0,-1,1910,1478,10.3767,-2.12839
693,-454,11.1857,1.48486,0,0,0,0,0,0,0,-1,1917,1478,11.1857,-1.48487
700,-454,0,0,0,0,0,0,0,0,0,-1,1924,1478,0,0
707,-454,0,0,0,0,0,0,0,0,0,-1,1931,1478,0,0
714,-454,0,0,0,0,0,0,0,0,0,-1,1938,1478,0,0
721,-454,0,0,0,0,0,0,0,0,0,-1,1945,1478,0,0
728,-454,0,0,0,0,0,0,0,0,0,-1,1952,1478,0,0
735,-454,0,0,0,0,0,0,0,0,0,-1,1959,1478,0,0
742,-454,0,0,0,0,0,0,0,0,0,-1,1966,1478,0,0
749,-454,0,0,0,0,0,0,0,0,0,-1,1973,1478,0,0
756,-454,0,0,0,0,0,0,0,0,0,-1,1980,1478,0,0
763,-454,0,0,0,0,0,0,0,0,0,-1,1987,1478,0,0
770,-454,0,0,0,0,0,0,0,0,0,-1,1994,1478,0,0
777,-454,0,0,0,0,0,0,0,0,0,-1,2001,1478,0,0
784,-454,0,0,0,0,0,0,0,0,0,-1,2008,1478,0,0
791,-454,0,0,0,0,0,0,0,0,0,-1,2015,1478,0,0
798,-454,0,0,0,0,0,0,0,0,0,-1,2022,1478,0,0
805,-454,0,0,0,0,0,0,0,0,0,-1,2029,1478,0,0
812,-454,0,0,0,0,0,0,0,0,0,-1,2036,1478,0,0
-700,-461,0,0,0,0,0,0,0,0,0,-1,524,1485,0,0
-693,-461,0,0,0,0,0,0,0,0,0,-1,531,1485,0,0
-686,-461,0,0,0,0,0,0,0,0,0,-1,538,1485,0,0
-679,-461,0,0,0,0,0,0,0,0,0,-1,545,1485,0,0
-672,-461,0,0,0,0,0,0,0,0,0,-1,552,1485,0,0
-665,-461,0,0,0,0,0,0,0,0,0,-1,559,1485,0,0
-658,-461,0,0,0,0,0,0,0,0,0,-1,566,1485,0,0
-651,-461,0,0,0,0,0,0,0,0,0,-1,573,1485,0,0
-644,-461,0,0,0,0,0,0,0,0,0,-1,580,1485,0,0
-637,-461,0,0,0,0,0,0,0,0,0,-1,587,1485,0,0
-630,-461,0,0,0,0,0,0,0,0,0,-1,594,1485,0,0
-623,-461,0,0,0,0,0,0,0,0,0,-1,601,1485,0,0
-616,-461,0,0,0,0,0,0,0,0,0,-1,608,1485,0,0
-609,-461,0,0,0,0,0,0,0,0,0,-1,615,1485,0,0
-602,-461,0,0,0,0,0,0,0,0,0,-1,622,1485,0,0
-595,-461,0,0,0,0,0,0,0,0,0,-1,629,1485,0,0
-588,-461,0,0,0,0,0,0,0,0,0,-1,636,1485,0,0
-581,-461,0,0,0,0,0,0,0,0,0,-1,643,1485,0,0
-574,-461,0,0,0,0,0,0,0,0,0,-1,650,1485,0,0
-567,-461,-9.69031,0.513306,0,0,0,0,0,0,0,-1,657,1485,-9.69032,-0.513305
-560,-461,-7.28815,1.54004,0,0,0,0,0,0,0,-1,664,1485,-7.28817,-1.54005
-553,-461,-11.9607,5.27783,0,0,0,0,0,0,0,-1,671,1485,-11.9607,-5.27778
-546,-461,-11.4215,4.44666,0,0,0,0,0,0,0,-1,678,1485,-11.4215,-4.4467
-539,-461,-9.36493,5.23438,0,0,0,0,0,0,0,-1,685,1485,-9.3649,-5.23432
-532,-461,-7.82898,6.78357,0,0,0,0,0,0,0,-1,692,1485,-7.829,-6.78363
-525,-461,-6.03046,8.8761,0,0,0,0,0,0,0,-1,699,1485,-6.03049,-8.87606
-518,-461,-5.95575,10.3322,0,0,0,0,0,0,0,-1,706,1485,-5.95574,-10.3322
-511,-461,-6.21027,11.0182,-0.00489006,-0.0017102,-0.00327601,0.000341311,-0.00694157,-1.01132,0.00474558,0.0433025,713,1485,-6.21025,-11.0182
-504,-461,-6.38812,11.387,-0.00370844,-0.00148513,-0.00271461,0.00033663,-0.00553019,-0.979736,0.00380397,0.0231924,720,1485,-6.38809,-11.387
-497,-461,-6.33209,11.9769,-0.0026323,-0.00116143,-0.00209093,0.000319637,-0.00411336,-0.954504,0.00285476,0.0117143,727,1485,-6.33208,-11.9769
-490,-461,-6.35614,12.4585,-0.00145274,-0.000611062,-0.00129229,0.000327183,-0.00239098,-0.94281,0.00171349,0.0131801,734,1485,-6.35615,-12.4585
-483,-461,-6.38977,12.927,-2.96153e-05,0.000194342,-0.000229397,0.000337632,-0.000172906,-1.01246,0.00029983,0.0122563,741,1485,-6.3898,-12.927
-476,-461,-6.42371,13.4041,0.00153195,0.00114616,0.00101449,0.00237173,0.000306386,0.69145,0.00148956,0.011201,748,1485,-6.42369,-13.404
-469,-461,-6.42957,13.8776,0.00328087,0.00219411,0.00246144,0.0052582,0.000216788,0.676762,0.00343548,0.0130017,755,1485,-6.42956,-13.8776
-462,-461,-6.42133,14.3656,0.00522804,0.00335725,0.00408169,0.00848014,0.00010514,0.672759,0.00561871,0.0181108,762,1485,-6.42132,-14.3656
-455,-461,-6.44806,14.8843,0.00742135,0.00461357,0.0058996,0.0120818,-4.68749e-05,0.668589,0.00807021,0.0207165,769,1485,-6.44804,-14.8843
-448,-461,-6.45587,15.3665,0.00995287,0.00613781,0.00806061,0.0163286,-0.000237899,0.669211,0.0109659,0.0177446,776,1485,-6.45585,-15.3664
-441,-461,-6.38239,15.8759,0.0128603,0.00763319,0.0105047,0.0210717,-0.000578158,0.663473,0.0142444,0.0214572,783,1485,-6.38238,-15.8758
-434,-461,-6.06946,16.4159,0.0162873,0.00919142,0.0131242,0.0263347,-0.000855934,0.653385,0.0178486,0.0347388,790,1485,-6.06947,-16.416
-427,-461,-6.11792,17.002,0,0,0,0,0,0,0,-1,797,1485,-6.11791,-17.002
-420,-461,-5.70355,16.6116,0,0,0,0,0,0,0,-1,804,1485,-5.70353,-16.6115
-413,-461,-5.98798,16.0605,0,0,0,0,0,0,0,-1,811,1485,-5.98796,-16.0605
-406,-461,-5.52667,14.839,0,0,0,0,0,0,0,-1,818,1485,-5.52666,-14.839
-399,-461,-1.93439,9.82849,0,0,0,0,0,0,0,-1,825,1485,-1.9344,-9.82846
-392,-461,-0.357544,5.55225,0,0,0,0,0,0,0,-1,832,1485,-0.357536,-5.55228
-385,-461,1.71509,3.35254,0,0,0,0,0,0,0,-1,839,1485,1.71511,-3.35255
-378,-461,1.95996,3.01111,0,0,0,0,0,0,0,-1,846,1485,1.95993,-3.01111
-371,-461,0.702881,2.33459,0,0,0,0,0,0,0,-1,853,1485,0.702859,-2.33459
-364,-461,-1.93097,2.56458,0,0,0,0,0,0,0,-1,860,1485,-1.93095,-2.56456
-357,-461,-2.41516,3.49487,0,0,0,0,0,0,0,-1,867,1485,-2.41517,-3.49487
-350,-461,0,0,0,0,0,0,0,0,0,-1,874,1485,0,0
-343,-461,0,0,0,0,0,0,0,0,0,-1,881,1485,0,0
-336,-461,0,0,0,0,0,0,0,0,0,-1,888,1485,0,0
-329,-461,0,0,0,0,0,0,0,0,0,-1,895,1485,0,0
-322,-461,0,0,0,0,0,0,0,0,0,-1,902,1485,0,0
-315,-461,0,0,0,0,0,0,0,0,0,-1,909,1485,0,0
-308,-461,0,0,0,0,0,0,0,0,0,-1,916,1485,0,0
-301,-461,0,0,0,0,0,0,0,0,0,-1,923,1485,0,0
-294,-461,0,0,0,0,0,0,0,0,0,-1,930,1485,0,0
-287,-461,0,0,0,0,0,0,0,0,0,-1,937,1485,0,0
-280,-461,0,0,0,0,0,0,0,0,0,-1,944,1485,0,0
-273,-461,0,0,0,0,0,0,0,0,0,-1,951,1485,0,0
-266,-461,0,0,0,0,0,0,0,0,0,-1,958,1485,0,0
-259,-461,0,0,0,0,0,0,0,0,0,-1,965,1485,0,0
-252,-461,0,0,0,0,0,0,0,0,0,-1,972,1485,0,0
-245,-461,0,0,0,0,0,0,0,0,0,-1,979,1485,0,0
-238,-461,0,0,0,0,0,0,0,0,0,-1,986,1485,0,0
-231,-461,0,0,0,0,0,0,0,0,0,-1,993,1485,0,0
-224,-461,0,0,0,0,0,0,0,0,0,-1,1000,1485,0,0
-217,-461,0,0,0,0,0,0,0,0,0,-1,1007,1485,0,0
-210,-461,0,0,0,0,0,0,0,0,0,-1,1014,1485,0,0
-203,-461,0,0,0,0,0,0,0,0,0,-1,1021,1485,0,0
-196,-461,0,0,0,0,0,0,0,0,0,-1,1028,1485,0,0
-189,-461,0,0,0,0,0,0,0,0,0,-1,1035,1485,0,0
-182,-461,0,0,0,0,0,0,0,0,0,-1,1042,1485,0,0
-175,-461,0,0,0,0,0,0,0,0,0,-1,1049,1485,0,0
-168,-461,0,0,0,0,0,0,0,0,0,-1,1056,1485,0,0
-161,-461,0,0,0,0,0,0,0,0,0,-1,1063,1485,0,0
-154,-461,0,0,0,0,0,0,0,0,0,-1,1070,1485,0,0
-147,-461,0,0,0,0,0,0,0,0,0,-1,1077,1485,0,0
-140,-461,0,0,0,0,0,0,0,0,0,-1,1084,1485,0,0
-133,-461,0,0,0,0,0,0,0,0,0,-1,1091,1485,0,0
-126,-461,0,0,0,0,0,0,0,0,0,-1,1098,1485,0,0
-119,-461,0,0,0,0,0,0,0,0,0,-1,1105,1485,0,0
-112,-461,0,0,0,0,0,0,0,0,0,-1,1112,1485,0,0
-105,-461,0,0,0,0,0,0,0,0,0,-1,1119,1485,0,0
-98,-461,0,0,0,0,0,0,0,0,0,-1,1126,1485,0,0
-91,-461,0,0,0,0,0,0,0,0,0,-1,1133,1485,0,0
-84,-461,0,0,0,0,0,0,0,0,0,-1,1140,1485,0,0
-77,-461,0,0,0,0,0,0,0,0,0,-1,1147,1485,0,0
-70,-461,0,0,0,0,0,0,0,0,0,-1,1154,1485,0,0
-63,-461,0,0,0,0,0,0,0,0,0,-1,1161,1485,0,0
-56,-461,0,0,0,0,0,0,0,0,0,-1,1168,1485,0,0
-49,-461,0,0,0,0,0,0,0,0,0,-1,1175,1485,0,0
-42,-461,0,0,0,0,0,0,0,0,0,-1,1182,1485,0,0
-35,-461,0,0,0,0,0,0,0,0,0,-1,1189,1485,0,0
-28,-461,0,0,0,0,0,0,0,0,0,-1,1196,1485,0,0
-21,-461,0,0,0,0,0,0,0,0,0,-1,1203,1485,0,0
-14,-461,0,0,0,0,0,0,0,0,0,-1,1210,1485,0,0
-7,-461,0,0,0,0,0,0,0,0,0,-1,1217,1485,0,0
0,-461,0,0,0,0,0,0,0,0,0,-1,1224,1485,0,0
7,-461,0,0,0,0,0,0,0,0,0,-1,1231,1485,0,0
14,-461,0,0,0,0,0,0,0,0,0,-1,1238,1485,0,0
21,-461,0,0,0,0,0,0,0,0,0,-1,1245,1485,0,0
28,-461,0,0,0,0,0,0,0,0,0,-1,1252,1485,0,0
35,-461,0,0,0,0,0,0,0,0,0,-1,1259,1485,0,0
42,-461,0,0,0,0,0,0,0,0,0,-1,1266,1485,0,0
49,-461,0,0,0,0,0,0,0,0,0,-1,1273,1485,0,0
56,-461,0,0,0,0,0,0,0,0,0,-1,1280,1485,0,0
63,-461,0,0,0,0,0,0,0,0,0,-1,1287,1485,0,0
70,-461,0,0,0,0,0,0,0,0,0,-1,1294,1485,0,0
77,-461,0,0,0,0,0,0,0,0,0,-1,1301,1485,0,0
84,-461,0,0,0,0,0,0,0,0,0,-1,1308,1485,0,0
91,-461,0,0,0,0,0,0,0,0,0,-1,1315,1485,0,0
98,-461,0,0,0,0,0,0,0,0,0,-1,1322,1485,0,0
105,-461,0,0,0,0,0,0,0,0,0,-1,1329,1485,0,0
112,-461,0,0,0,0,0,0,0,0,0,-1,1336,1485,0,0
119,-461,0,0,0,0,0,0,0,0,0,-1,1343,1485,0,0
126,-461,0,0,0,0,0,0,0,0,0,-1,1350,1485,0,0
133,-461,0,0,0,0,0,0,0,0,0,-1,1357,1485,0,0
140,-461,0,0,0,0,0,0,0,0,0,-1,1364,1485,0,0
147,-461,0,0,0,0,0,0,0,0,0,-1,1371,1485,0,0
154,-461,0,0,0,0,0,0,0,0,0,-1,1378,1485,0,0
161,-461,0,0,0,0,0,0,0,0,0,-1,1385,1485,0,0
168,-461,0,0,0,0,0,0,0,0,0,-1,1392,1485,0,0
175,-461,0,0,0,0,0,0,0,0,0,-1,1399,1485,0,0
182,-461,0,0,0,0,0,0,0,0,0,-1,1406,1485,0,0
189,-461,0,0,0,0,0,0,0,0,0,-1,1413,1485,0,0
196,-461,0,0,0,0,0,0,0,0,0,-1,1420,1485,0,0
203,-461,0,0,0,0,0,0,0,0,0,-1,1427,1485,0,0
210,-461,0,0,0,0,0,0,0,0,0,-1,1434,1485,0,0
217,-461,0,0,0,0,0,0,0,0,0,-1,1441,1485,0,0
224,-461,0,0,0,0,0,0,0,0,0,-1,1448,1485,0,0
231,-461,0,0,0,0,0,0,0,0,0,-1,1455,1485,0,0
238,-461,0,0,0,0,0,0,0,0,0,-1,1462,1485,0,0
245,-461,0,0,0,0,0,0,0,0,0,-1,1469,1485,0,0
252,-461,0,0,0,0,0,0,0,0,0,-1,1476,1485,0,0
259,-461,0,0,0,0,0,0,0,0,0,-1,1483,1485,0,0
266,-461,0,0,0,0,0,0,0,0,0,-1,1490,1485,0,0
273,-461,0,0,0,0,0,0,0,0,0,-1,1497,1485,0,0
280,-461,0,0,0,0,0,0,0,0,0,-1,1504,1485,0,0
287,-461,0,0,0,0,0,0,0,0,0,-1,1511,1485,0,0
294,-461,0,0,0,0,0,0,0,0,0,-1,1518,1485,0,0
301,-461,0,0,0,0,0,0,0,0,0,-1,1525,1485,0,0
308,-461,0,0,0,0,0,0,0,0,0,-1,1532,1485,0,0
315,-461,0,0,0,0,0,0,0,0,0,-1,1539,1485,0,0
322,-461,0,0,0,0,0,0,0,0,0,-1,1546,1485,0,0
329,-461,0,0,0,0,0,0,0,0,0,-1,1553,1485,0,0
336,-461,0,0,0,0,0,0,0,0,0,-1,1560,1485,0,0
343,-461,0,0,0,0,0,0,0,0,0,-1,1567,1485,0,0
350,-461,0,0,0,0,0,0,0,0,0,-1,1574,1485,0,0
357,-461,0,0,0,0,0,0,0,0,0,-1,1581,1485,0,0
364,-461,0,0,0,0,0,0,0,0,0,-1,1588,1485,0,0
371,-461,0,0,0,0,0,0,0,0,0,-1,1595,1485,0,0
378,-461,0,0,0,0,0,0,0,0,0,-1,1602,1485,0,0
385,-461,0,0,0,0,0,0,0,0,0,-1,1609,1485,0,0
392,-461,0,0,0,0,0,0,0,0,0,-1,1616,1485,0,0
399,-461,0,0,0,0,0,0,0,0,0,-1,1623,1485,0,0
406,-461,0,0,0,0,0,0,0,0,0,-1,1630,1485,0,0
413,-461,0,0,0,0,0,0,0,0,0,-1,1637,1485,0,0
420,-461,0,0,0,0,0,0,0,0,0,-1,1644,1485,0,0
427,-461,0,0,0,0,0,0,0,0,0,-1,1651,1485,0,0
434,-461,0,0,0,0,0,0,0,0,0,-1,1658,1485,0,0
441,-461,0,0,0,0,0,0,0,0,0,-1,1665,1485,0,0
448,-461,0,0,0,0,0,0,0,0,0,-1,1672,1485,0,0
455,-461,0,0,0,0,0,0,0,0,0,-1,1679,1485,0,0
462,-461,0,0,0,0,0,0,0,0,0,-1,1686,1485,0,0
469,-461,0,0,0,0,0,0,0,0,0,-1,1693,1485,0,0
476,-461,14.1906,0.690552,0,0,0,0,0,0,0,-1,1700,1485,14.1906,-0.690525
483,-461,10.6361,3.09106,0,0,0,0,0,0,0,-1,1707,1485,10.6361,-3.091
490,-461,17.9972,0.665894,0,0,0,0,0,0,0,-1,1714,1485,17.9972,-0.665876
497,-461,16.6829,1.87732,0,0,0,0,0,0,0,-1,1721,1485,16.6828,-1.87736
504,-461,15.3884,3.09216,0,0,0,0,0,0,0,-1,1728,1485,15.3885,-3.09212
511,-461,15.4292,14.3512,0,0,0,0,0,0,0,-1,1735,1485,15.4292,-14.3512
518,-461,14.8081,10.0085,0,0,0,0,0,0,0,-1,1742,1485,14.8081,-10.0086
525,-461,14.0022,10.8033,0,0,0,0,0,0,0,-1,1749,1485,14.0022,-10.8033
532,-461,17.1704,14.077,0,0,0,0,0,0,0,-1,1756,1485,17.1704,-14.077
539,-461,17.0229,14.7386,0,0,0,0,0,0,0,-1,1763,1485,17.0229,-14.7387
546,-461,16.2106,14.1372,0,0,0,0,0,0,0,-1,1770,1485,16.2106,-14.1372
553,-461,20.0396,18.0068,0,0,0,0,0,0,0,-1,1777,1485,20.0396,-18.0068
560,-461,20.4946,18.097,0,0,0,0,0,0,0,-1,1784,1485,20.4946,-18.097
567,-461,20.5221,17.5798,0.00190095,0.0024111,-0.00135236,0.00353223,0.000779817,-0.878611,0.00214271,0.0288635,1791,1485,20.5221,-17.5798
574,-461,20.5265,17.2032,0.00165344,0.00214835,-0.00115452,0.00308164,0.000720147,-0.890969,0.00186141,0.0237647,1798,1485,20.5264,-17.2032
581,-461,20.5321,16.7484,0.00168787,0.00195777,-0.00122048,0.00305074,0.000594898,-0.840461,0.00186739,0.0162961,1805,1485,20.5321,-16.7484
588,-461,20.496,16.3303,0.00171193,0.00162045,-0.00120636,0.00287342,0.000458959,-0.766451,0.00178243,0.0120478,1812,1485,20.496,-16.3304
595,-461,20.4652,15.8961,0.00196927,0.00140175,-0.00129795,0.00301412,0.000356903,-0.67778,0.00190164,0.00930878,1819,1485,20.4652,-15.8961
602,-461,20.474,15.4364,0.00221637,0.000891658,-0.00126699,0.00298369,0.000124335,-0.544546,0.001949,0.00930498,1826,1485,20.474,-15.4364
609,-461,20.4731,14.9713,0.00247333,0.000436308,-0.00117345,0.00300864,-9.9002e-05,-0.427984,0.00203956,0.0106776,1833,1485,20.4732,-14.9713
616,-461,20.463,14.5244,0.00286408,9.94232e-06,-0.00109822,0.00323774,-0.000363717,-0.327953,0.00228938,0.0119575,1840,1485,20.463,-14.5244
623,-461,20.459,14.0989,0.00334271,-0.000389381,-0.00101696,0.00360183,-0.0006485,-0.24949,0.00264403,0.0135484,1847,1485,20.459,-14.0989
630,-461,20.4369,13.6666,0.00389027,-0.000755217,-0.000908813,0.00406174,-0.000926682,-0.186478,0.0030638,0.013861,1854,1485,20.4368,-13.6666
637,-461,20.4117,13.2314,0.00451312,-0.000939459,-0.000838656,0.0046392,-0.00106554,-0.149216,0.00350243,0.0141859,1861,1485,20.4117,-13.2315
644,-461,20.5377,12.8862,0.00516663,-0.00111527,-0.000766843,0.00525889,-0.00120752,-0.11973,0.00397012,0.0317763,1868,1485,20.5377,-12.8863
651,-461,20.76,12.5022,0,0,0,0,0,0,0,-1,1875,1485,20.76,-12.5022
658,-461,16.8987,10.1084,0,0,0,0,0,0,0,-1,1882,1485,16.8986,-10.1084
665,-461,17.2638,9.81384,0,0,0,0,0,0,0,-1,1889,1485,17.2638,-9.81385
672,-461,14.4877,6.89429,0,0,0,0,0,0,0,-1,1896,1485,14.4876,-6.89431
679,-461,10.0535,2.16321,0,0,0,0,0,0,0,-1,1903,1485,10.0535,-2.16317
686,-461,10.8195,1.84192,0,0,0,0,0,0,0,-1,1910,1485,10.8194,-1.84195
693,-461,0,0,0,0,0,0,0,0,0,-1,1917,1485,0,0
700,-461,0,0,0,0,0,0,0,0,0,-1,1924,1485,0,0
707,-461,0,0,0,0,0,0,0,0,0,-1,1931,1485,0,0
714,-461,0,0,0,0,0,0,0,0,0,-1,1938,1485,0,0
721,-461,0,0,0,0,0,0,0,0,0,-1,1945,1485,0,0
728,-461,0,0,0,0,0,0,0,0,0,-1,1952,1485,0,0
735,-461,0,0,0,0,0,0,0,0,0,-1,1959,1485,0,0
742,-461,0,0,0,0,0,0,0,0,0,-1,1966,1485,0,0
749,-461,0,0,0,0,0,0,0,0,0,-1,1973,1485,0,0
756,-461,0,0,0,0,0,0,0,0,0,-1,1980,1485,0,0
763,-461,0,0,0,0,0,0,0,0,0,-1,1987,1485,0,0
770,-461,0,0,0,0,0,0,0,0,0,-1,1994,1485,0,0
777,-461,0,0,0,0,0,0,0,0,0,-1,2001,1485,0,0
784,-461,0,0,0,0,0,0,0,0,0,-1,2008,1485,0,0
791,-461,0,0,0,0,0,0,0,0,0,-1,2015,1485,0,0
798,-461,0,0,0,0,0,0,0,0,0,-1,2022,1485,0,0
805,-461,0,0,0,0,0,0,0,0,0,-1,2029,1485,0,0
812,-461,0,0,0,0,0,0,0,0,0,-1,2036,1485,0,0
-700,-468,0,0,0,0,0,0,0,0,0,-1,524,1492,0,0
-693,-468,0,0,0,0,0,0,0,0,0,-1,531,1492,0,0
-686,-468,0,0,0,0,0,0,0,0,0,-1,538,1492,0,0
-679,-468,0,0,0,0,0,0,0,0,0,-1,545,1492,0,0
-672,-468,0,0,0,0,0,0,0,0,0,-1,552,1492,0,0
-665,-468,0,0,0,0,0,0,0,0,0,-1,559,1492,0,0
-658,-468,0,0,0,0,0,0,0,0,0,-1,566,1492,0,0
-651,-468,0,0,0,0,0,0,0,0,0,-1,573,1492,0,0
-644,-468,0,0,0,0,0,0,0,0,0,-1,580,1492,0,0
-637,-468,0,0,0,0,0,0,0,0,0,-1,587,1492,0,0
-630,-468,0,0,0,0,0,0,0,0,0,-1,594,1492,0,0
-623,-468,0,0,0,0,0,0,0,0,0,-1,601,1492,0,0
-616,-468,0,0,0,0,0,0,0,0,0,-1,608,1492,0,0
-609,-468,0,0,0,0,0,0,0,0,0,-1,615,1492,0,0
-602,-468,0,0,0,0,0,0,0,0,0,-1,622,1492,0,0
-595,-468,0,0,0,0,0,0,0,0,0,-1,629,1492,0,0
-588,-468,0,0,0,0,0,0,0,0,0,-1,636,1492,0,0
-581,-468,0,0,0,0,0,0,0,0,0,-1,643,1492,0,0
-574,-468,0,0,0,0,0,0,0,0,0,-1,650,1492,0,0
-567,-468,-11.2603,1.8042,0,0,0,0,0,0,0,-1,657,1492,-11.2603,-1.80424
-560,-468,-8.77441,2.23694,0,0,0,0,0,0,0,-1,664,1492,-8.77443,-2.23692
-553,-468,-5.94061,9.26318,0,0,0,0,0,0,0,-1,671,1492,-5.94062,-9.26322
-546,-468,-10.47,5.43237,0,0,0,0,0,0,0,-1,678,1492,-10.47,-5.4324
-539,-468,-10.2468,5.45203,0,0,0,0,0,0,0,-1,685,1492,-10.2468,-5.45197
-532,-468,-8.39795,6.02783,0,0,0,0,0,0,0,-1,692,1492,-8.39793,-6.02789
-525,-468,-6.7265,7.66077,0,0,0,0,0,0,0,-1,699,1492,-6.72653,-7.6608
-518,-468,-6.27264,8.82202,0,0,0,0,0,0,0,-1,706,1492,-6.27266,-8.82205
-511,-468,-5.43445,10.7084,0,0,0,0,0,0,0,-1,713,1492,-5.43444,-10.7084
-504,-468,-5.7879,11.4175,-0.00420284,-0.000999168,-0.00405632,0.00176015,-0.00696215,-0.973448,0.005326,0.0350612,720,1492,-5.78792,-11.4174
-497,-468,-5.8717,11.9576,-0.00325507,-0.0010513,-0.00338323,0.00140496,-0.00571134,-0.942826,0.00435214,0.0161807,727,1492,-5.8717,-11.9576
-490,-468,-5.86365,12.4977,-0.00224314,-0.000850584,-0.00256016,0.00110629,-0.00420002,-0.918171,0.00323251,0.00823225,734,1492,-5.86367,-12.4977
-483,-468,-5.89502,12.9569,-0.000986059,-0.000319742,-0.00149585,0.000879602,-0.0021854,-0.894971,0.00182233,0.00851953,741,1492,-5.89501,-12.9569
-476,-468,-5.91888,13.4293,0.000410522,0.000384964,-0.000248949,0.00064702,0.000148466,-0.759755,0.000391361,0.00929752,748,1492,-5.9189,-13.4294
-469,-468,-5.92657,13.8998,0.00196516,0.00121679,0.00115379,0.00280393,0.000378024,0.628595,0.00175689,0.013728,755,1492,-5.92659,-13.8998
-462,-468,-5.8999,14.4133,0.00367184,0.00215914,0.00267689,0.00569718,0.000133798,0.647712,0.00375432,0.0234502,762,1492,-5.89987,-14.4133
-455,-468,-5.92285,14.8705,0.00556537,0.00321283,0.00433681,0.0088826,-0.000104402,0.652969,0.00595684,0.0230016,769,1492,-5.92284,-14.8705
-448,-468,-5.96161,15.3285,0.00772273,0.00445601,0.00621255,0.012513,-0.000334309,0.656851,0.00845567,0.0137503,776,1492,-5.96159,-15.3284
-441,-468,-5.9787,15.8298,0.0101597,0.00579886,0.00832301,0.0165831,-0.000624613,0.65729,0.0112694,0.0134932,783,1492,-5.97872,-15.8298
-434,-468,-5.94824,16.3783,0.0130352,0.00741853,0.010546,0.0211403,-0.000686605,0.655271,0.0143279,0.0190183,790,1492,-5.94826,-16.3783
-427,-468,-5.89624,16.9038,0.0163624,0.00888641,0.0129877,0.0261394,-0.000890546,0.64528,0.0177306,0.0351733,797,1492,-5.89625,-16.9038
-420,-468,-5.52332,17.4592,0,0,0,0,0,0,0,-1,804,1492,-5.52331,-17.4593
-413,-468,-5.30328,17.3519,0,0,0,0,0,0,0,-1,811,1492,-5.30329,-17.352
-406,-468,-2.2356,9.396,0,0,0,0,0,0,0,-1,818,1492,-2.2356,-9.396
-399,-468,-0.940369,8.1936,0,0,0,0,0,0,0,-1,825,1492,-0.940365,-8.19357
-392,-468,-0.35144,8.14673,0,0,0,0,0,0,0,-1,832,1492,-0.351449,-8.14674
-385,-468,0.465759,5.35864,0,0,0,0,0,0,0,-1,839,1492,0.465732,-5.35864
-378,-468,1.99835,3.25391,0,0,0,0,0,0,0,-1,846,1492,1.99837,-3.2539
-371,-468,-0.31842,3.1532,0,0,0,0,0,0,0,-1,853,1492,-0.318441,-3.15324
-364,-468,-0.966736,2.14563,0,0,0,0,0,0,0,-1,860,1492,-0.966735,-2.14557
-357,-468,-3.06787,3.22742,0,0,0,0,0,0,0,-1,867,1492,-3.06784,-3.2274
-350,-468,-3.18658,4.12659,0,0,0,0,0,0,0,-1,874,1492,-3.18659,-4.12658
-343,-468,0,0,0,0,0,0,0,0,0,-1,881,1492,0,0
-336,-468,0,0,0,0,0,0,0,0,0,-1,888,1492,0,0
-329,-468,0,0,0,0,0,0,0,0,0,-1,895,1492,0,0
-322,-468,0,0,0,0,0,0,0,0,0,-1,902,1492,0,0
-315,-468,0,0,0,0,0,0,0,0,0,-1,909,1492,0,0
-308,-468,0,0,0,0,0,0,0,0,0,-1,916,1492,0,0
-301,-468,0,0,0,0,0,0,0,0,0,-1,923,1492,0,0
-294,-468,0,0,0,0,0,0,0,0,0,-1,930,1492,0,0
-287,-468,0,0,0,0,0,0,0,0,0,-1,937,1492,0,0
-280,-468,0,0,0,0,0,0,0,0,0,-1,944,1492,0,0
-273,-468,0,0,0,0,0,0,0,0,0,-1,951,1492,0,0
-266,-468,0,0,0,0,0,0,0,0,0,-1,958,1492,0,0
-259,-468,0,0,0,0,0,0,0,0,0,-1,965,1492,0,0
-252,-468,0,0,0,0,0,0,0,0,0,-1,972,1492,0,0
-245,-468,0,0,0,0,0,0,0,0,0,-1,979,1492,0,0
-238,-468,0,0,0,0,0,0,0,0,0,-1,986,1492,0,0
-231,-468,0,0,0,0,0,0,0,0,0,-1,993,1492,0,0
-224,-468,0,0,0,0,0,0,0,0,0,-1,1000,1492,0,0
-217,-468,0,0,0,0,0,0,0,0,0,-1,1007,1492,0,0
-210,-468,0,0,0,0,0,0,0,0,0,-1,1014,1492,0,0
-203,-468,0,0,0,0,0,0,0,0,0,-1,1021,1492,0,0
-196,-468,0,0,0,0,0,0,0,0,0,-1,1028,1492,0,0
-189,-468,0,0,0,0,0,0,0,0,0,-1,1035,1492,0,0
-182,-468,0,0,0,0,0,0,0,0,0,-1,1042,1492,0,0
-175,-468,0,0,0,0,0,0,0,0,0,-1,1049,1492,0,0
-168,-468,0,0,0,0,0,0,0,0,0,-1,1056,1492,0,0
-161,-468,0,0,0,0,0,0,0,0,0,-1,1063,1492,0,0
-154,-468,0,0,0,0,0,0,0,0,0,-1,1070,1492,0,0
-147,-468,0,0,0,0,0,0,0,0,0,-1,1077,1492,0,0
-140,-468,0,0,0,0,0,0,0,0,0,-1,1084,1492,0,0
-133,-468,0,0,0,0,0,0,0,0,0,-1,1091,1492,0,0
-126,-468,0,0,0,0,0,0,0,0,0,-1,1098,1492,0,0
-119,-468,0,0,0,0,0,0,0,0,0,-1,1105,1492,0,0
-112,-468,0,0,0,0,0,0,0,0,0,-1,1112,1492,0,0
-105,-468,0,0,0,0,0,0,0,0,0,-1,1119,1492,0,0
-98,-468,0,0,0,0,0,0,0,0,0,-1,1126,1492,0,0
-91,-468,0,0,0,0,0,0,0,0,0,-1,1133,1492,0,0
-84,-468,0,0,0,0,0,0,0,0,0,-1,1140,1492,0,0
-77,-468,0,0,0,0,0,0,0,0,0,-1,1147,1492,0,0
-70,-468,0,0,0,0,0,0,0,0,0,-1,1154,1492,0,0
-63,-468,0,0,0,0,0,0,0,0,0,-1,1161,1492,0,0
-56,-468,0,0,0,0,0,0,0,0,0,-1,1168,1492,0,0
-49,-468,0,0,0,0,0,0,0,0,0,-1,1175,1492,0,0
-42,-468,0,0,0,0,0,0,0,0,0,-1,1182,1492,0,0
-35,-468,0,0,0,0,0,0,0,0,0,-1,1189,1492,0,0
-28,-468,0,0,0,0,0,0,0,0,0,-1,1196,1492,0,0
-21,-468,0,0,0,0,0,0,0,0,0,-1,1203,1492,0,0
-14,-468,0,0,0,0,0,0,0,0,0,-1,1210,1492,0,0
-7,-468,0,0,0,0,0,0,0,0,0,-1,1217,1492,0,0
0,-468,0,0,0,0,0,0,0,0,0,-1,1224,1492,0,0
7,-468,0,0,0,0,0,0,0,0,0,-1,1231,1492,0,0
14,-468,0,0,0,0,0,0,0,0,0,-1,1238,1492,0,0
21,-468,0,0,0,0,0,0,0,0,0,-1,1245,1492,0,0
28,-468,0,0,0,0,0,0,0,0,0,-1,1252,1492,0,0
35,-468,0,0,0,0,0,0,0,0,0,-1,1259,1492,0,0
42,-468,0,0,0,0,0,0,0,0,0,-1,1266,1492,0,0
49,-468,0,0,0,0,0,0,0,0,0,-1,1273,1492,0,0
56,-468,0,0,0,0,0,0,0,0,0,-1,1280,1492,0,0
63,-468,0,0,0,0,0,0,0,0,0,-1,1287,1492,0,0
70,-468,0,0,0,0,0,0,0,0,0,-1,1294,1492,0,0
77,-468,0,0,0,0,0,0,0,0,0,-1,1301,1492,0,0
84,-468,0,0,0,0,0,0,0,0,0,-1,1308,1492,0,0
91,-468,0,0,0,0,0,0,0,0,0,-1,1315,1492,0,0
98,-468,0,0,0,0,0,0,0,0,0,-1,1322,1492,0,0
105,-468,0,0,0,0,0,0,0,0,0,-1,1329,1492,0,0
112,-468,0,0,0,0,0,0,0,0,0,-1,1336,1492,0,0
119,-468,0,0,0,0,0,0,0,0,0,-1,1343,1492,0,0
126,-468,0,0,0,0,0,0,0,0,0,-1,1350,1492,0,0
133,-468,0,0,0,0,0,0,0,0,0,-1,1357,1492,0,0
140,-468,0,0,0,0,0,0,0,0,0,-1,1364,1492,0,0
147,-468,0,0,0,0,0,0,0,0,0,-1,1371,1492,0,0
154,-468,0,0,0,0,0,0,0,0,0,-1,1378,1492,0,0
161,-468,0,0,0,0,0,0,0,0,0,-1,1385,1492,0,0
168,-468,0,0,0,0,0,0,0,0,0,-1,1392,1492,0,0
175,-468,0,0,0,0,0,0,0,0,0,-1,1399,1492,0,0
182,-468,0,0,0,0,0,0,0,0,0,-1,1406,1492,0,0
189,-468,0,0,0,0,0,0,0,0,0,-1,1413,1492,0,0
196,-468,0,0,0,0,0,0,0,0,0,-1,1420,1492,0,0
203,-468,0,0,0,0,0,0,0,0,0,-1,1427,1492,0,0
210,-468,0,0,0,0,0,0,0,0,0,-1,1434,1492,0,0
217,-468,0,0,0,0,0,0,0,0,0,-1,1441,1492,0,0
224,-468,0,0,0,0,0,0,0,0,0,-1,1448,1492,0,0
231,-468,0,0,0,0,0,0,0,0,0,-1,1455,1492,0,0
238,-468,0,0,0,0,0,0,0,0,0,-1,1462,1492,0,0
245,-468,0,0,0,0,0,0,0,0,0,-1,1469,1492,0,0
252,-468,0,0,0,0,0,0,0,0,0,-1,1476,1492,0,0
259,-468,0,0,0,0,0,0,0,0,0,-1,1483,1492,0,0
266,-468,0,0,0,0,0,0,0,0,0,-1,1490,1492,0,0
273,-468,0,0,0,0,0,0,0,0,0,-1,1497,1492,0,0
280,-468,0,0,0,0,0,0,0,0,0,-1,1504,1492,0,0
287,-468,0,0,0,0,0,0,0,0,0,-1,1511,1492,0,0
294,-468,0,0,0,0,0,0,0,0,0,-1,1518,1492,0,0
301,-468,0,0,0,0,0,0,0,0,0,-1,1525,1492,0,0
308,-468,0,0,0,0,0,0,0,0,0,-1,1532,1492,0,0
315,-468,0,0,0,0,0,0,0,0,0,-1,1539,1492,0,0
322,-468,0,0,0,0,0,0,0,0,0,-1,1546,1492,0,0
329,-468,0,0,0,0,0,0,0,0,0,-1,1553,1492,0,0
336,-468,0,0,0,0,0,0,0,0,0,-1,1560,1492,0,0
343,-468,0,0,0,0,0,0,0,0,0,-1,1567,1492,0,0
350,-468,0,0,0,0,0,0,0,0,0,-1,1574,1492,0,0
357,-468,0,0,0,0,0,0,0,0,0,-1,1581,1492,0,0
364,-468,0,0,0,0,0,0,0,0,0,-1,1588,1492,0,0
371,-468,0,0,0,0,0,0,0,0,0,-1,1595,1492,0,0
378,-468,0,0,0,0,0,0,0,0,0,-1,1602,1492,0,0
385,-468,0,0,0,0,0,0,0,0,0,-1,1609,1492,0,0
392,-468,0,0,0,0,0,0,0,0,0,-1,1616,1492,0,0
399,-468,0,0,0,0,0,0,0,0,0,-1,1623,1492,0,0
406,-468,0,0,0,0,0,0,0,0,0,-1,1630,1492,0,0
413,-468,0,0,0,0,0,0,0,0,0,-1,1637,1492,0,0
420,-468,0,0,0,0,0,0,0,0,0,-1,1644,1492,0,0
427,-468,0,0,0,0,0,0,0,0,0,-1,1651,1492,0,0
434,-468,0,0,0,0,0,0,0,0,0,-1,1658,1492,0,0
441,-468,0,0,0,0,0,0,0,0,0,-1,1665,1492,0,0
448,-468,0,0,0,0,0,0,0,0,0,-1,1672,1492,0,0
455,-468,0,0,0,0,0,0,0,0,0,-1,1679,1492,0,0
462,-468,0,0,0,0,0,0,0,0,0,-1,1686,1492,0,0
469,-468,15.6879,1.2677,0,0,0,0,0,0,0,-1,1693,1492,15.6879,-1.26772
476,-468,14.9318,1.61865,0,0,0,0,0,0,0,-1,1700,1492,14.9318,-1.61869
483,-468,11.265,4.64795,0,0,0,0,0,0,0,-1,1707,1492,11.265,-4.64798
490,-468,12.1316,3.51624,0,0,0,0,0,0,0,-1,1714,1492,12.1316,-3.51628
497,-468,16.5355,3.14587,0,0,0,0,0,0,0,-1,1721,1492,16.5356,-3.14583
504,-468,15.0642,4.10437,0,0,0,0,0,0,0,-1,1728,1492,15.0643,-4.10431
511,-468,15.6877,9.4801,0,0,0,0,0,0,0,-1,1735,1492,15.6878,-9.48007
518,-468,13.759,11.0887,0,0,0,0,0,0,0,-1,1742,1492,13.759,-11.0887
525,-468,16.6531,14.2238,0,0,0,0,0,0,0,-1,1749,1492,16.653,-14.2237
532,-468,16.9696,15.9641,0,0,0,0,0,0,0,-1,1756,1492,16.9696,-15.9641
539,-468,20.2108,19.2894,0,0,0,0,0,0,0,-1,1763,1492,20.2108,-19.2894
546,-468,20.0806,18.911,0,0,0,0,0,0,0,-1,1770,1492,20.0806,-18.911
553,-468,20.1991,18.7704,0,0,0,0,0,0,0,-1,1777,1492,20.1992,-18.7703
560,-468,20.0784,18.0717,0,0,0,0,0,0,0,-1,1784,1492,20.0783,-18.0717
567,-468,20.0719,17.6682,0.00159273,0.00183023,-0.00095296,0.00267181,0.000751148,-0.847385,0.00159107,0.0198701,1791,1492,20.0719,-17.6682
574,-468,20.1084,17.2041,0.00139777,0.0015949,-0.000830334,0.0023325,0.000660168,-0.844473,0.00138829,0.0155688,1798,1492,20.1084,-17.2041
581,-468,20.1067,16.7803,0.00146652,0.00138634,-0.000940407,0.00236769,0.000485168,-0.764097,0.00144416,0.0156451,1805,1492,20.1067,-16.7802
588,-468,20.064,16.3492,0.00163032,0.00112122,-0.00102152,0.00242853,0.000323005,-0.663291,0.00152281,0.0124334,1812,1492,20.0639,-16.3492
595,-468,20.0299,15.8872,0.00209196,0.000954951,-0.00122156,0.00287083,0.000176084,-0.567608,0.00185797,0.0101661,1819,1492,20.0299,-15.8872
602,-468,20.032,15.4316,0.00255842,0.000528319,-0.00133978,0.00322424,-0.000137505,-0.461217,0.00219677,0.00882953,1826,1492,20.032,-15.4316
609,-468,20.0074,14.9753,0.00305832,0.000143955,-0.00139657,0.0036195,-0.000417229,-0.382082,0.00256342,0.00975428,1833,1492,20.0074,-14.9753
616,-468,19.9946,14.5363,0.00372592,-0.000216111,-0.00147466,0.00421651,-0.000706707,-0.321166,0.00307378,0.00999645,1840,1492,19.9947,-14.5363
623,-468,19.9932,14.1158,0.00450679,-0.000575584,-0.00152417,0.00492883,-0.000997627,-0.270132,0.00366399,0.0108657,1847,1492,19.9932,-14.1158
630,-468,19.9869,13.6722,0.00536456,-0.000886433,-0.00152202,0.00571545,-0.00123732,-0.226584,0.00428274,0.0115115,1854,1492,19.9869,-13.6723
637,-468,19.9749,13.2223,0.00632276,-0.000982921,-0.00155726,0.00664085,-0.00130101,-0.201491,0.0049186,0.0148135,1861,1492,19.9749,-13.2223
644,-468,20.0702,12.8868,0.00729059,-0.00112763,-0.00153443,0.00756156,-0.0013986,-0.174789,0.00556612,0.0413098,1868,1492,20.0702,-12.8868
651,-468,20.3141,12.5172,0,0,0,0,0,0,0,-1,1875,1492,20.3141,-12.5172
658,-468,16.4969,10.0774,0,0,0,0,0,0,0,-1,1882,1492,16.497,-10.0774
665,-468,15.4673,8.59546,0,0,0,0,0,0,0,-1,1889,1492,15.4672,-8.59548
672,-468,9.96814,3.61133,0,0,0,0,0,0,0,-1,1896,1492,9.96817,-3.61139
679,-468,11.2191,1.91968,0,0,0,0,0,0,0,-1,1903,1492,11.2191,-1.91965
686,-468,11.9252,1.42285,0,0,0,0,0,0,0,-1,1910,1492,11.9252,-1.42291
693,-468,0,0,0,0,0,0,0,0,0,-1,1917,1492,0,0
700,-468,0,0,0,0,0,0,0,0,0,-1,1924,1492,0,0
707,-468,0,0,0,0,0,0,0,0,0,-1,1931,1492,0,0
714,-468,0,0,0,0,0,0,0,0,0,-1,1938,1492,0,0
721,-468,0,0,0,0,0,0,0,0,0,-1,1945,1492,0,0
728,-468,0,0,0,0,0,0,0,0,0,-1,1952,1492,0,0
735,-468,0,0,0,0,0,0,0,0,0,-1,1959,1492,0,0
742,-468,0,0,0,0,0,0,0,0,0,-1,1966,1492,0,0
749,-468,0,0,0,0,0,0,0,0,0,-1,1973,1492,0,0
756,-468,0,0,0,0,0,0,0,0,0,-1,1980,1492,0,0
763,-468,0,0,0,0,0,0,0,0,0,-1,1987,1492,0,0
770,-468,0,0,0,0,0,0,0,0,0,-1,1994,1492,0,0
777,-468,0,0,0,0,0,0,0,0,0,-1,2001,1492,0,0
784,-468,0,0,0,0,0,0,0,0,0,-1,2008,1492,0,0
791,-468,0,0,0,0,0,0,0,0,0,-1,2015,1492,0,0
798,-468,0,0,0,0,0,0,0,0,0,-1,2022,1492,0,0
805,-468,0,0,0,0,0,0,0,0,0,-1,2029,1492,0,0
812,-468,0,0,0,0,0,0,0,0,0,-1,2036,1492,0,0
-700,-475,0,0,0,0,0,0,0,0,0,-1,524,1499,0,0
-693,-475,0,0,0,0,0,0,0,0,0,-1,531,1499,0,0
-686,-475,0,0,0,0,0,0,0,0,0,-1,538,1499,0,0
-679,-475,0,0,0,0,0,0,0,0,0,-1,545,1499,0,0
-672,-475,0,0,0,0,0,0,0,0,0,-1,552,1499,0,0
-665,-475,0,0,0,0,0,0,0,0,0,-1,559,1499,0,0
-658,-475,0,0,0,0,0,0,0,0,0,-1,566,1499,0,0
-651,-475,0,0,0,0,0,0,0,0,0,-1,573,1499,0,0
-644,-475,0,0,0,0,0,0,0,0,0,-1,580,1499,0,0
-637,-475,0,0,0,0,0,0,0,0,0,-1,587,1499,0,0
-630,-475,0,0,0,0,0,0,0,0,0,-1,594,1499,0,0
-623,-475,0,0,0,0,0,0,0,0,0,-1,601,1499,0,0
-616,-475,0,0,0,0,0,0,0,0,0,-1,608,1499,0,0
-609,-475,0,0,0,0,0,0,0,0,0,-1,615,1499,0,0
-602,-475,0,0,0,0,0,0,0,0,0,-1,622,1499,0,0
-595,-475,0,0,0,0,0,0,0,0,0,-1,629,1499,0,0
-588,-475,0,0,0,0,0,0,0,0,0,-1,636,1499,0,0
-581,-475,0,0,0,0,0,0,0,0,0,-1,643,1499,0,0
-574,-475,0,0,0,0,0,0,0,0,0,-1,650,1499,0,0
-567,-475,0,0,0,0,0,0,0,0,0,-1,657,1499,0,0
-560,-475,-9.42731,9.29517,0,0,0,0,0,0,0,-1,664,1499,-9.42731,-9.29519
-553,-475,-8.15131,8.78369,0,0,0,0,0,0,0,-1,671,1499,-8.15131,-8.78367
-546,-475,-8.41254,8.20654,0,0,0,0,0,0,0,-1,678,1499,-8.41251,-8.20655
-539,-475,-4.7345,4.17419,0,0,0,0,0,0,0,-1,685,1499,-4.73449,-4.17418
-532,-475,-7.07379,4.25024,0,0,0,0,0,0,0,-1,692,1499,-7.07378,-4.2503
-525,-475,-6.87811,6.83655,0,0,0,0,0,0,0,-1,699,1499,-6.87813,-6.83649
-518,-475,-5.94659,8.98181,0,0,0,0,0,0,0,-1,706,1499,-5.94661,-8.98185
-511,-475,-5.74725,10.2205,0,0,0,0,0,0,0,-1,713,1499,-5.74724,-10.2204
-504,-475,-5.31244,11.5059,-0.00435545,-0.000831945,-0.00552832,0.00320855,-0.00839594,-0.93965,0.00691939,0.0415105,720,1499,-5.31246,-11.5059
-497,-475,-5.4024,12.0532,-0.00356412,-0.00131232,-0.00478649,0.0024789,-0.00735534,-0.90091,0.0059059,0.0286974,727,1499,-5.40242,-12.0532
-490,-475,-5.4043,12.4878,-0.0027137,-0.00145453,-0.00390895,0.00187521,-0.00604345,-0.865243,0.00477831,0.011122,734,1499,-5.40428,-12.4878
-483,-475,-5.40479,13.0007,-0.00163208,-0.00115283,-0.00282293,0.00144063,-0.00422553,-0.827739,0.00340052,0.00888376,741,1499,-5.40479,-13.0008
-476,-475,-5.42047,13.4573,-0.000385803,-0.000608515,-0.00154182,0.00104868,-0.002043,-0.749349,0.00181549,0.0101216,748,1499,-5.42047,-13.4573
-469,-475,-5.42969,13.917,0.000984975,0.000117241,-0.000147811,0.00100946,9.27536e-05,-0.164176,0.000644286,0.0129025,755,1499,-5.42969,-13.917
-462,-475,-5.40405,14.4078,0.00245542,0.000962576,0.00132235,0.00322747,0.000190525,0.528458,0.00209103,0.0179051,762,1499,-5.40404,-14.4079
-455,-475,-5.43231,14.8601,0.00405081,0.00194071,0.00287655,0.00605969,-6.8174e-05,0.609628,0.00406271,0.0157132,769,1499,-5.43233,-14.8601
-448,-475,-5.48969,15.3331,0.00584335,0.00306447,0.00455244,0.00921367,-0.000305839,0.637284,0.00624689,0.0131733,776,1499,-5.48969,-15.3331
-441,-475,-5.51202,15.8324,0.00782811,0.00436843,0.00641302,0.0127405,-0.00054396,0.653664,0.00868067,0.0156962,783,1499,-5.51202,-15.8324
-434,-475,-5.51013,16.3086,0.0101215,0.00597731,0.00835836,0.0166608,-0.000561961,0.663894,0.0112992,0.0108983,790,1499,-5.51012,-16.3086
-427,-475,-5.46136,16.8728,0.0127446,0.00760959,0.0104774,0.0209645,-0.000610292,0.66524,0.0141841,0.0250649,797,1499,-5.46139,-16.8729
-420,-475,-5.32825,17.4095,0.0156231,0.00968743,0.0129164,0.0259083,-0.000597744,0.672472,0.0174748,0.0424923,804,1499,-5.32825,-17.4096
-413,-475,-5.03046,18.0471,0,0,0,0,0,0,0,-1,811,1499,-5.03047,-18.0472
-406,-475,-2.56116,12.4956,0,0,0,0,0,0,0,-1,818,1499,-2.56116,-12.4956
-399,-475,-1.39667,6.1615,0,0,0,0,0,0,0,-1,825,1499,-1.39664,-6.16155
-392,-475,0.217163,8.61389,0,0,0,0,0,0,0,-1,832,1499,0.217167,-8.6139
-385,-475,1.18372,2.73999,0,0,0,0,0,0,0,-1,839,1499,1.18372,-2.73995
-378,-475,1.31409,2.90149,0,0,0,0,0,0,0,-1,846,1499,1.31411,-2.90151
-371,-475,2.3476,3.31116,0,0,0,0,0,0,0,-1,853,1499,2.34761,-3.31121
-364,-475,1.04462,9.05823,0,0,0,0,0,0,0,-1,860,1499,1.04461,-9.05825
-357,-475,-0.262756,7.97205,0,0,0,0,0,0,0,-1,867,1499,-0.262784,-7.97205
-350,-475,-2.77173,4.35486,0,0,0,0,0,0,0,-1,874,1499,-2.77175,-4.35491
-343,-475,-6.81641,-1.95203,0,0,0,0,0,0,0,-1,881,1499,-6.81643,1.95198
-336,-475,0,0,0,0,0,0,0,0,0,-1,888,1499,0,0
-329,-475,0,0,0,0,0,0,0,0,0,-1,895,1499,0,0
-322,-475,0,0,0,0,0,0,0,0,0,-1,902,1499,0,0
-315,-475,0,0,0,0,0,0,0,0,0,-1,909,1499,0,0
-308,-475,0,0,0,0,0,0,0,0,0,-1,916,1499,0,0
-301,-475,0,0,0,0,0,0,0,0,0,-1,923,1499,0,0
-294,-475,0,0,0,0,0,0,0,0,0,-1,930,1499,0,0
-287,-475,0,0,0,0,0,0,0,0,0,-1,937,1499,0,0
-280,-475,0,0,0,0,0,0,0,0,0,-1,944,1499,0,0
-273,-475,0,0,0,0,0,0,0,0,0,-1,951,1499,0,0
-266,-475,0,0,0,0,0,0,0,0,0,-1,958,1499,0,0
-259,-475,0,0,0,0,0,0,0,0,0,-1,965,1499,0,0
-252,-475,0,0,0,0,0,0,0,0,0,-1,972,1499,0,0
-245,-475,0,0,0,0,0,0,0,0,0,-1,979,1499,0,0
-238,-475,0,0,0,0,0,0,0,0,0,-1,986,1499,0,0
-231,-475,0,0,0,0,0,0,0,0,0,-1,993,1499,0,0
-224,-475,0,0,0,0,0,0,0,0,0,-1,1000,1499,0,0
-217,-475,0,0,0,0,0,0,0,0,0,-1,1007,1499,0,0
-210,-475,0,0,0,0,0,0,0,0,0,-1,1014,1499,0,0
-203,-475,0,0,0,0,0,0,0,0,0,-1,1021,1499,0,0
-196,-475,0,0,0,0,0,0,0,0,0,-1,1028,1499,0,0
-189,-475,0,0,0,0,0,0,0,0,0,-1,1035,1499,0,0
-182,-475,0,0,0,0,0,0,0,0,0,-1,1042,1499,0,0
-175,-475,0,0,0,0,0,0,0,0,0,-1,1049,1499,0,0
-168,-475,0,0,0,0,0,0,0,0,0,-1,1056,1499,0,0
-161,-475,0,0,0,0,0,0,0,0,0,-1,1063,1499,0,0
-154,-475,0,0,0,0,0,0,0,0,0,-1,1070,1499,0,0
-147,-475,0,0,0,0,0,0,0,0,0,-1,1077,1499,0,0
-140,-475,0,0,0,0,0,0,0,0,0,-1,1084,1499,0,0
-133,-475,0,0,0,0,0,0,0,0,0,-1,1091,1499,0,0
-126,-475,0,0,0,0,0,0,0,0,0,-1,1098,1499,0,0
-119,-475,0,0,0,0,0,0,0,0,0,-1,1105,1499,0,0
-112,-475,0,0,0,0,0,0,0,0,0,-1,1112,1499,0,0
-105,-475,0,0,0,0,0,0,0,0,0,-1,1119,1499,0,0
-98,-475,0,0,0,0,0,0,0,0,0,-1,1126,1499,0,0
-91,-475,0,0,0,0,0,0,0,0,0,-1,1133,1499,0,0
-84,-475,0,0,0,0,0,0,0,0,0,-1,1140,1499,0,0
-77,-475,0,0,0,0,0,0,0,0,0,-1,1147,1499,0,0
-70,-475,0,0,0,0,0,0,0,0,0,-1,1154,1499,0,0
-63,-475,0,0,0,0,0,0,0,0,0,-1,1161,1499,0,0
-56,-475,0,0,0,0,0,0,0,0,0,-1,1168,1499,0,0
-49,-475,0,0,0,0,0,0,0,0,0,-1,1175,1499,0,0
-42,-475,0,0,0,0,0,0,0,0,0,-1,1182,1499,0,0
-35,-475,0,0,0,0,0,0,0,0,0,-1,1189,1499,0,0
-28,-475,0,0,0,0,0,0,0,0,0,-1,1196,1499,0,0
-21,-475,0,0,0,0,0,0,0,0,0,-1,1203,1499,0,0
-14,-475,0,0,0,0,0,0,0,0,0,-1,1210,1499,0,0
-7,-475,0,0,0,0,0,0,0,0,0,-1,1217,1499,0,0
0,-475,0,0,0,0,0,0,0,0,0,-1,1224,1499,0,0
7,-475,0,0,0,0,0,0,0,0,0,-1,1231,1499,0,0
14,-475,0,0,0,0,0,0,0,0,0,-1,1238,1499,0,0
21,-475,0,0,0,0,0,0,0,0,0,-1,1245,1499,0,0
28,-475,0,0,0,0,0,0,0,0,0,-1,1252,1499,0,0
35,-475,0,0,0,0,0,0,0,0,0,-1,1259,1499,0,0
42,-475,0,0,0,0,0,0,0,0,0,-1,1266,1499,0,0
49,-475,0,0,0,0,0,0,0,0,0,-1,1273,1499,0,0
56,-475,0,0,0,0,0,0,0,0,0,-1,1280,1499,0,0
63,-475,0,0,0,0,0,0,0,0,0,-1,1287,1499,0,0
70,-475,0,0,0,0,0,0,0,0,0,-1,1294,1499,0,0
77,-475,0,0,0,0,0,0,0,0,0,-1,1301,1499,0,0
84,-475,0,0,0,0,0,0,0,0,0,-1,1308,1499,0,0
91,-475,0,0,0,0,0,0,0,0,0,-1,1315,1499,0,0
98,-475,0,0,0,0,0,0,0,0,0,-1,1322,1499,0,0
105,-475,0,0,0,0,0,0,0,0,0,-1,1329,1499,0,0
112,-475,0,0,0,0,0,0,0,0,0,-1,1336,1499,0,0
119,-475,0,0,0,0,0,0,0,0,0,-1,1343,1499,0,0
126,-475,0,0,0,0,0,0,0,0,0,-1,1350,1499,0,0
133,-475,0,0,0,0,0,0,0,0,0,-1,1357,1499,0,0
140,-475,0,0,0,0,0,0,0,0,0,-1,1364,1499,0,0
147,-475,0,0,0,0,0,0,0,0,0,-1,1371,1499,0,0
154,-475,0,0,0,0,0,0,0,0,0,-1,1378,1499,0,0
161,-475,0,0,0,0,0,0,0,0,0,-1,1385,1499,0,0
168,-475,0,0,0,0,0,0,0,0,0,-1,1392,1499,0,0
175,-475,0,0,0,0,0,0,0,0,0,-1,1399,1499,0,0
182,-475,0,0,0,0,0,0,0,0,0,-1,1406,1499,0,0
189,-475,0,0,0,0,0,0,0,0,0,-1,1413,1499,0,0
196,-475,0,0,0,0,0,0,0,0,0,-1,1420,1499,0,0
203,-475,0,0,0,0,0,0,0,0,0,-1,1427,1499,0,0
210,-475,0,0,0,0,0,0,0,0,0,-1,1434,1499,0,0
217,-475,0,0,0,0,0,0,0,0,0,-1,1441,1499,0,0
224,-475,0,0,0,0,0,0,0,0,0,-1,1448,1499,0,0
231,-475,0,0,0,0,0,0,0,0,0,-1,1455,1499,0,0
238,-475,0,0,0,0,0,0,0,0,0,-1,1462,1499,0,0
245,-475,0,0,0,0,0,0,0,0,0,-1,1469,1499,0,0
252,-475,0,0,0,0,0,0,0,0,0,-1,1476,1499,0,0
259,-475,0,0,0,0,0,0,0,0,0,-1,1483,1499,0,0
266,-475,0,0,0,0,0,0,0,0,0,-1,1490,1499,0,0
273,-475,0,0,0,0,0,0,0,0,0,-1,1497,1499,0,0
280,-475,0,0,0,0,0,0,0,0,0,-1,1504,1499,0,0
287,-475,0,0,0,0,0,0,0,0,0,-1,1511,1499,0,0
294,-475,0,0,0,0,0,0,0,0,0,-1,1518,1499,0,0
301,-475,0,0,0,0,0,0,0,0,0,-1,1525,1499,0,0
308,-475,0,0,0,0,0,0,0,0,0,-1,1532,1499,0,0
315,-475,0,0,0,0,0,0,0,0,0,-1,1539,1499,0,0
322,-475,0,0,0,0,0,0,0,0,0,-1,1546,1499,0,0
329,-475,0,0,0,0,0,0,0,0,0,-1,1553,1499,0,0
336,-475,0,0,0,0,0,0,0,0,0,-1,1560,1499,0,0
343,-475,0,0,0,0,0,0,0,0,0,-1,1567,1499,0,0
350,-475,0,0,0,0,0,0,0,0,0,-1,1574,1499,0,0
357,-475,0,0,0,0,0,0,0,0,0,-1,1581,1499,0,0
364,-475,0,0,0,0,0,0,0,0,0,-1,1588,1499,0,0
371,-475,0,0,0,0,0,0,0,0,0,-1,1595,1499,0,0
378,-475,0,0,0,0,0,0,0,0,0,-1,1602,1499,0,0
385,-475,0,0,0,0,0,0,0,0,0,-1,1609,1499,0,0
392,-475,0,0,0,0,0,0,0,0,0,-1,1616,1499,0,0
399,-475,0,0,0,0,0,0,0,0,0,-1,1623,1499,0,0
406,-475,0,0,0,0,0,0,0,0,0,-1,1630,1499,0,0
413,-475,0,0,0,0,0,0,0,0,0,-1,1637,1499,0,0
420,-475,0,0,0,0,0,0,0,0,0,-1,1644,1499,0,0
427,-475,0,0,0,0,0,0,0,0,0,-1,1651,1499,0,0
434,-475,0,0,0,0,0,0,0,0,0,-1,1658,1499,0,0
441,-475,0,0,0,0,0,0,0,0,0,-1,1665,1499,0,0
448,-475,0,0,0,0,0,0,0,0,0,-1,1672,1499,0,0
455,-475,0,0,0,0,0,0,0,0,0,-1,1679,1499,0,0
462,-475,12.6372,0.275391,0,0,0,0,0,0,0,-1,1686,1499,12.6372,-0.27536
469,-475,15.6437,2.28296,0,0,0,0,0,0,0,-1,1693,1499,15.6437,-2.28293
476,-475,15.3302,2.71436,0,0,0,0,0,0,0,-1,1700,1499,15.3303,-2.7143
483,-475,10.7461,5.91479,0,0,0,0,0,0,0,-1,1707,1499,10.7461,-5.91476
490,-475,11.9305,4.4364,0,0,0,0,0,0,0,-1,1714,1499,11.9305,-4.43644
497,-475,15.3451,4.3479,0,0,0,0,0,0,0,-1,1721,1499,15.3451,-4.34789
504,-475,16.9646,7.71265,0,0,0,0,0,0,0,-1,1728,1499,16.9646,-7.71265
511,-475,18.941,12.7572,0,0,0,0,0,0,0,-1,1735,1499,18.941,-12.7572
518,-475,17.0021,13.8564,0,0,0,0,0,0,0,-1,1742,1499,17.0021,-13.8564
525,-475,17.5637,15.2103,0,0,0,0,0,0,0,-1,1749,1499,17.5637,-15.2103
532,-475,19.7179,19.5302,0,0,0,0,0,0,0,-1,1756,1499,19.7179,-19.5301
539,-475,19.7324,19.2625,0.00205907,-4.59062e-05,-0.000607687,0.00222191,-0.000208743,-0.261811,0.00155553,0.0462923,1763,1499,19.7324,-19.2625
546,-475,19.6675,18.9077,0,0,0,0,0,0,0,-1,1770,1499,19.6675,-18.9078
553,-475,19.7894,18.5563,0,0,0,0,0,0,0,-1,1777,1499,19.7894,-18.5563
560,-475,19.7937,17.8531,0,0,0,0,0,0,0,-1,1784,1499,19.7937,-17.8532
567,-475,19.6838,17.6416,0.00141063,0.00140543,-0.000792017,0.00220005,0.000616011,-0.783758,0.00131055,0.0150904,1791,1499,19.6838,-17.6416
574,-475,19.6622,17.2145,0.00132734,0.0012148,-0.00074516,0.00201835,0.000523785,-0.747713,0.00120939,0.0151163,1798,1499,19.6623,-17.2145
581,-475,19.6372,16.7998,0.00149655,0.00099611,-0.000904616,0.00218491,0.000307745,-0.650471,0.00136564,0.0117581,1805,1499,19.6373,-16.7998
588,-475,19.615,16.363,0.0018327,0.000785688,-0.00108593,0.00251473,0.000103664,-0.560793,0.00164302,0.0101991,1812,1499,19.615,-16.3631
595,-475,19.6108,15.916,0.00250846,0.000648639,-0.00139704,0.00325678,-9.96827e-05,-0.491757,0.00220517,0.0110278,1819,1499,19.6108,-15.9161
602,-475,19.5936,15.4467,0.00323169,0.000294893,-0.00168191,0.00399601,-0.000469426,-0.426535,0.00283347,0.0118367,1826,1499,19.5936,-15.4467
609,-475,19.5657,15.0042,0.00403218,-2.59304e-05,-0.00192254,0.00479834,-0.000792088,-0.379225,0.00349299,0.0113134,1833,1499,19.5657,-15.0041
616,-475,19.5437,14.5775,0.00503935,-0.000330409,-0.00219331,0.00582134,-0.0011124,-0.342484,0.00429993,0.0119278,1840,1499,19.5437,-14.5775
623,-475,19.5355,14.1372,0.00621099,-0.000662437,-0.00242103,0.00697813,-0.00142958,-0.306857,0.0051946,0.0116487,1847,1499,19.5356,-14.1372
630,-475,19.5355,13.6863,0.00749392,-0.000914895,-0.00258782,0.0082265,-0.00164748,-0.27587,0.00610801,0.0126823,1854,1499,19.5355,-13.6863
637,-475,19.5697,13.2184,0.00891681,-0.000927558,-0.00278204,0.00964862,-0.00165937,-0.257221,0.00705092,0.0244611,1861,1499,19.5698,-13.2184
644,-475,19.6227,12.7814,0,0,0,0,0,0,0,-1,1868,1499,19.6227,-12.7814
651,-475,11.7965,7.57593,0,0,0,0,0,0,0,-1,1875,1499,11.7965,-7.5759
658,-475,14.6708,8.80322,0,0,0,0,0,0,0,-1,1882,1499,14.6708,-8.8032
665,-475,9.33435,5.43335,0,0,0,0,0,0,0,-1,1889,1499,9.33439,-5.43332
672,-475,9.38635,1.10474,0,0,0,0,0,0,0,-1,1896,1499,9.38629,-1.10475
679,-475,12.2594,1.31079,0,0,0,0,0,0,0,-1,1903,1499,12.2594,-1.31077
686,-475,0,0,0,0,0,0,0,0,0,-1,1910,1499,0,0
693,-475,0,0,0,0,0,0,0,0,0,-1,1917,1499,0,0
700,-475,0,0,0,0,0,0,0,0,0,-1,1924,1499,0,0
707,-475,0,0,0,0,0,0,0,0,0,-1,1931,1499,0,0
714,-475,0,0,0,0,0,0,0,0,0,-1,1938,1499,0,0
721,-475,0,0,0,0,0,0,0,0,0,-1,1945,1499,0,0
728,-475,0,0,0,0,0,0,0,0,0,-1,1952,1499,0,0
735,-475,0,0,0,0,0,0,0,0,0,-1,1959,1499,0,0
742,-475,0,0,0,0,0,0,0,0,0,-1,1966,1499,0,0
749,-475,0,0,0,0,0,0,0,0,0,-1,1973,1499,0,0
756,-475,0,0,0,0,0,0,0,0,0,-1,1980,1499,0,0
763,-475,0,0,0,0,0,0,0,0,0,-1,1987,1499,0,0
770,-475,0,0,0,0,0,0,0,0,0,-1,1994,1499,0,0
777,-475,0,0,0,0,0,0,0,0,0,-1,2001,1499,0,0
784,-475,0,0,0,0,0,0,0,0,0,-1,2008,1499,0,0
791,-475,0,0,0,0,0,0,0,0,0,-1,2015,1499,0,0
798,-475,0,0,0,0,0,0,0,0,0,-1,2022,1499,0,0
805,-475,0,0,0,0,0,0,0,0,0,-1,2029,1499,0,0
812,-475,0,0,0,0,0,0,0,0,0,-1,2036,1499,0,0
-700,-482,0,0,0,0,0,0,0,0,0,-1,524,1506,0,0
-693,-482,0,0,0,0,0,0,0,0,0,-1,531,1506,0,0
-686,-482,0,0,0,0,0,0,0,0,0,-1,538,1506,0,0
-679,-482,0,0,0,0,0,0,0,0,0,-1,545,1506,0,0
-672,-482,0,0,0,0,0,0,0,0,0,-1,552,1506,0,0
-665,-482,0,0,0,0,0,0,0,0,0,-1,559,1506,0,0
-658,-482,0,0,0,0,0,0,0,0,0,-1,566,1506,0,0
-651,-482,0,0,0,0,0,0,0,0,0,-1,573,1506,0,0
-644,-482,0,0,0,0,0,0,0,0,0,-1,580,1506,0,0
-637,-482,0,0,0,0,0,0,0,0,0,-1,587,1506,0,0
-630,-482,0,0,0,0,0,0,0,0,0,-1,594,1506,0,0
-623,-482,0,0,0,0,0,0,0,0,0,-1,601,1506,0,0
-616,-482,0,0,0,0,0,0,0,0,0,-1,608,1506,0,0
-609,-482,0,0,0,0,0,0,0,0,0,-1,615,1506,0,0
-602,-482,0,0,0,0,0,0,0,0,0,-1,622,1506,0,0
-595,-482,0,0,0,0,0,0,0,0,0,-1,629,1506,0,0
-588,-482,0,0,0,0,0,0,0,0,0,-1,636,1506,0,0
-581,-482,0,0,0,0,0,0,0,0,0,-1,643,1506,0,0
-574,-482,0,0,0,0,0,0,0,0,0,-1,650,1506,0,0
-567,-482,0,0,0,0,0,0,0,0,0,-1,657,1506,0,0
-560,-482,0,0,0,0,0,0,0,0,0,-1,664,1506,0,0
-553,-482,-9.06055,9.34314,0,0,0,0,0,0,0,-1,671,1506,-9.06056,-9.34312
-546,-482,-4.08624,8.34241,0,0,0,0,0,0,0,-1,678,1506,-4.08624,-8.3424
-539,-482,-4.29877,2.73499,0,0,0,0,0,0,0,-1,685,1506,-4.29879,-2.73494
-532,-482,-3.63611,4.23987,0,0,0,0,0,0,0,-1,692,1506,-3.63609,-4.23983
-525,-482,-6.19116,5.24927,0,0,0,0,0,0,0,-1,699,1506,-6.19117,-5.24927
-518,-482,-6.36865,6.89221,0,0,0,0,0,0,0,-1,706,1506,-6.36867,-6.89225
-511,-482,-5.87726,9.93262,0,0,0,0,0,0,0,-1,713,1506,-5.87726,-9.93256
-504,-482,-5.00787,10.8145,0,0,0,0,0,0,0,-1,720,1506,-5.00787,-10.8144
-497,-482,-4.96106,11.8589,0,0,0,0,0,0,0,-1,727,1506,-4.96105,-11.8589
-490,-482,-4.95923,12.457,-0.00318501,-0.00172035,-0.00561363,0.00320852,-0.00811388,-0.85026,0.00673839,0.0280898,734,1506,-4.95925,-12.4571
-483,-482,-4.94135,12.9935,-0.00226725,-0.00169447,-0.00438161,0.0024101,-0.00637182,-0.818033,0.00523939,0.00937483,741,1506,-4.94136,-12.9935
-476,-482,-4.95239,13.4631,-0.00119874,-0.00136234,-0.0029887,0.00170927,-0.00427036,-0.771716,0.00355633,0.00970775,748,1506,-4.95239,-13.4631
-469,-482,-4.96838,13.9443,-1.81078e-05,-0.000789487,-0.00153089,0.00117493,-0.00198252,-0.661997,0.00184273,0.0114044,755,1506,-4.96836,-13.9443
-462,-482,-4.96655,14.4122,0.00125313,-7.58654e-05,-4.15436e-05,0.00125443,-7.71628e-05,-0.0312188,0.000863155,0.0123938,762,1506,-4.96658,-14.4123
-455,-482,-4.98016,14.8792,0.00262239,0.000795536,0.00147235,0.00344164,-2.37074e-05,0.50776,0.00230237,0.0124862,769,1506,-4.98019,-14.8792
-448,-482,-5.00281,15.3733,0.0041634,0.0017908,0.00302872,0.00622986,-0.000275664,0.598741,0.00424811,0.0129608,776,1506,-5.00283,-15.3733
-441,-482,-5.00879,15.8475,0.00585549,0.00303148,0.00472587,0.00937578,-0.000488813,0.640228,0.00641967,0.0121726,783,1506,-5.0088,-15.8476
-434,-482,-5.04047,16.3191,0.00778615,0.00457102,0.00648457,0.0128594,-0.00050227,0.663895,0.0087452,0.0144808,790,1506,-5.04049,-16.3191
-427,-482,-5.05792,16.8241,0.00996979,0.00625488,0.00833227,0.0166491,-0.000424456,0.67573,0.0112436,0.0175109,797,1506,-5.05789,-16.8241
-420,-482,-4.94403,17.5269,0.0123355,0.0083017,0.0104118,0.0209239,-0.000286732,0.689726,0.0140458,0.0414456,804,1506,-4.94404,-17.5269
-413,-482,-4.67358,18.1781,0,0,0,0,0,0,0,-1,811,1506,-4.67358,-18.178
-406,-482,-2.51373,12.7556,0,0,0,0,0,0,0,-1,818,1506,-2.51376,-12.7556
-399,-482,-1.3822,9.22595,0,0,0,0,0,0,0,-1,825,1506,-1.38221,-9.22598
-392,-482,-1.06836,9.22729,0,0,0,0,0,0,0,-1,832,1506,-1.06835,-9.2273
-385,-482,0.0647583,8.90649,0,0,0,0,0,0,0,-1,839,1506,0.0647778,-8.90644
-378,-482,0.215698,5.96948,0,0,0,0,0,0,0,-1,846,1506,0.215681,-5.9695
-371,-482,-0.10907,8.10437,0,0,0,0,0,0,0,-1,853,1506,-0.109063,-8.10433
-364,-482,-0.154968,10.5032,0,0,0,0,0,0,0,-1,860,1506,-0.154976,-10.5032
-357,-482,2.14807,4.60144,0,0,0,0,0,0,0,-1,867,1506,2.14807,-4.60144
-350,-482,-7.5813,-1.45935,0,0,0,0,0,0,0,-1,874,1506,-7.58133,1.45937
-343,-482,-7.19983,-1.26416,0,0,0,0,0,0,0,-1,881,1506,-7.19981,1.26414
-336,-482,-6.78491,-1.18127,0,0,0,0,0,0,0,-1,888,1506,-6.78488,1.18125
-329,-482,0,0,0,0,0,0,0,0,0,-1,895,1506,0,0
-322,-482,0,0,0,0,0,0,0,0,0,-1,902,1506,0,0
-315,-482,0,0,0,0,0,0,0,0,0,-1,909,1506,0,0
-308,-482,0,0,0,0,0,0,0,0,0,-1,916,1506,0,0
-301,-482,0,0,0,0,0,0,0,0,0,-1,923,1506,0,0
-294,-482,0,0,0,0,0,0,0,0,0,-1,930,1506,0,0
-287,-482,0,0,0,0,0,0,0,0,0,-1,937,1506,0,0
-280,-482,0,0,0,0,0,0,0,0,0,-1,944,1506,0,0
-273,-482,0,0,0,0,0,0,0,0,0,-1,951,1506,0,0
-266,-482,0,0,0,0,0,0,0,0,0,-1,958,1506,0,0
-259,-482,0,0,0,0,0,0,0,0,0,-1,965,1506,0,0
-252,-482,0,0,0,0,0,0,0,0,0,-1,972,1506,0,0
-245,-482,0,0,0,0,0,0,0,0,0,-1,979,1506,0,0
-238,-482,0,0,0,0,0,0,0,0,0,-1,986,1506,0,0
-231,-482,0,0,0,0,0,0,0,0,0,-1,993,1506,0,0
-224,-482,0,0,0,0,0,0,0,0,0,-1,1000,1506,0,0
-217,-482,0,0,0,0,0,0,0,0,0,-1,1007,1506,0,0
-210,-482,0,0,0,0,0,0,0,0,0,-1,1014,1506,0,0
-203,-482,0,0,0,0,0,0,0,0,0,-1,1021,1506,0,0
-196,-482,0,0,0,0,0,0,0,0,0,-1,1028,1506,0,0
-189,-482,0,0,0,0,0,0,0,0,0,-1,1035,1506,0,0
-182,-482,0,0,0,0,0,0,0,0,0,-1,1042,1506,0,0
-175,-482,0,0,0,0,0,0,0,0,0,-1,1049,1506,0,0
-168,-482,0,0,0,0,0,0,0,0,0,-1,1056,1506,0,0
-161,-482,0,0,0,0,0,0,0,0,0,-1,1063,1506,0,0
-154,-482,0,0,0,0,0,0,0,0,0,-1,1070,1506,0,0
-147,-482,0,0,0,0,0,0,0,0,0,-1,1077,1506,0,0
-140,-482,0,0,0,0,0,0,0,0,0,-1,1084,1506,0,0
-133,-482,0,0,0,0,0,0,0,0,0,-1,1091,1506,0,0
-126,-482,0,0,0,0,0,0,0,0,0,-1,1098,1506,0,0
-119,-482,0,0,0,0,0,0,0,0,0,-1,1105,1506,0,0
-112,-482,0,0,0,0,0,0,0,0,0,-1,1112,1506,0,0
-105,-482,0,0,0,0,0,0,0,0,0,-1,1119,1506,0,0
-98,-482,0,0,0,0,0,0,0,0,0,-1,1126,1506,0,0
-91,-482,0,0,0,0,0,0,0,0,0,-1,1133,1506,0,0
-84,-482,0,0,0,0,0,0,0,0,0,-1,1140,1506,0,0
-77,-482,0,0,0,0,0,0,0,0,0,-1,1147,1506,0,0
-70,-482,0,0,0,0,0,0,0,0,0,-1,1154,1506,0,0
-63,-482,0,0,0,0,0,0,0,0,0,-1,1161,1506,0,0
-56,-482,0,0,0,0,0,0,0,0,0,-1,1168,1506,0,0
-49,-482,0,0,0,0,0,0,0,0,0,-1,1175,1506,0,0
-42,-482,0,0,0,0,0,0,0,0,0,-1,1182,1506,0,0
-35,-482,0,0,0,0,0,0,0,0,0,-1,1189,1506,0,0
-28,-482,0,0,0,0,0,0,0,0,0,-1,1196,1506,0,0
-21,-482,0,0,0,0,0,0,0,0,0,-1,1203,1506,0,0
-14,-482,0,0,0,0,0,0,0,0,0,-1,1210,1506,0,0
-7,-482,0,0,0,0,0,0,0,0,0,-1,1217,1506,0,0
0,-482,0,0,0,0,0,0,0,0,0,-1,1224,1506,0,0
7,-482,0,0,0,0,0,0,0,0,0,-1,1231,1506,0,0
14,-482,0,0,0,0,0,0,0,0,0,-1,1238,1506,0,0
21,-482,0,0,0,0,0,0,0,0,0,-1,1245,1506,0,0
28,-482,0,0,0,0,0,0,0,0,0,-1,1252,1506,0,0
35,-482,0,0,0,0,0,0,0,0,0,-1,1259,1506,0,0
42,-482,0,0,0,0,0,0,0,0,0,-1,1266,1506,0,0
49,-482,0,0,0,0,0,0,0,0,0,-1,1273,1506,0,0
56,-482,0,0,0,0,0,0,0,0,0,-1,1280,1506,0,0
63,-482,0,0,0,0,0,0,0,0,0,-1,1287,1506,0,0
70,-482,0,0,0,0,0,0,0,0,0,-1,1294,1506,0,0
77,-482,0,0,0,0,0,0,0,0,0,-1,1301,1506,0,0
84,-482,0,0,0,0,0,0,0,0,0,-1,1308,1506,0,0
91,-482,0,0,0,0,0,0,0,0,0,-1,1315,1506,0,0
98,-482,0,0,0,0,0,0,0,0,0,-1,1322,1506,0,0
105,-482,0,0,0,0,0,0,0,0,0,-1,1329,1506,0,0
112,-482,0,0,0,0,0,0,0,0,0,-1,1336,1506,0,0
119,-482,0,0,0,0,0,0,0,0,0,-1,1343,1506,0,0
126,-482,0,0,0,0,0,0,0,0,0,-1,1350,1506,0,0
133,-482,0,0,0,0,0,0,0,0,0,-1,1357,1506,0,0
140,-482,0,0,0,0,0,0,0,0,0,-1,1364,1506,0,0
147,-482,0,0,0,0,0,0,0,0,0,-1,1371,1506,0,0
154,-482,0,0,0,0,0,0,0,0,0,-1,1378,1506,0,0
161,-482,0,0,0,0,0,0,0,0,0,-1,1385,1506,0,0
168,-482,0,0,0,0,0,0,0,0,0,-1,1392,1506,0,0
175,-482,0,0,0,0,0,0,0,0,0,-1,1399,1506,0,0
182,-482,0,0,0,0,0,0,0,0,0,-1,1406,1506,0,0
189,-482,0,0,0,0,0,0,0,0,0,-1,1413,1506,0,0
196,-482,0,0,0,0,0,0,0,0,0,-1,1420,1506,0,0
203,-482,0,0,0,0,0,0,0,0,0,-1,1427,1506,0,0
210,-482,0,0,0,0,0,0,0,0,0,-1,1434,1506,0,0
217,-482,0,0,0,0,0,0,0,0,0,-1,1441,1506,0,0
224,-482,0,0,0,0,0,0,0,0,0,-1,1448,1506,0,0
231,-482,0,0,0,0,0,0,0,0,0,-1,1455,1506,0,0
238,-482,0,0,0,0,0,0,0,0,0,-1,1462,1506,0,0
245,-482,0,0,0,0,0,0,0,0,0,-1,1469,1506,0,0
252,-482,0,0,0,0,0,0,0,0,0,-1,1476,1506,0,0
259,-482,0,0,0,0,0,0,0,0,0,-1,1483,1506,0,0
266,-482,0,0,0,0,0,0,0,0,0,-1,1490,1506,0,0
273,-482,0,0,0,0,0,0,0,0,0,-1,1497,1506,0,0
280,-482,0,0,0,0,0,0,0,0,0,-1,1504,1506,0,0
287,-482,0,0,0,0,0,0,0,0,0,-1,1511,1506,0,0
294,-482,0,0,0,0,0,0,0,0,0,-1,1518,1506,0,0
301,-482,0,0,0,0,0,0,0,0,0,-1,1525,1506,0,0
308,-482,0,0,0,0,0,0,0,0,0,-1,1532,1506,0,0
315,-482,0,0,0,0,0,0,0,0,0,-1,1539,1506,0,0
322,-482,0,0,0,0,0,0,0,0,0,-1,1546,1506,0,0
329,-482,0,0,0,0,0,0,0,0,0,-1,1553,1506,0,0
336,-482,0,0,0,0,0,0,0,0,0,-1,1560,1506,0,0
343,-482,0,0,0,0,0,0,0,0,0,-1,1567,1506,0,0
350,-482,0,0,0,0,0,0,0,0,0,-1,1574,1506,0,0
357,-482,0,0,0,0,0,0,0,0,0,-1,1581,1506,0,0
364,-482,0,0,0,0,0,0,0,0,0,-1,1588,1506,0,0
371,-482,0,0,0,0,0,0,0,0,0,-1,1595,1506,0,0
378,-482,0,0,0,0,0,0,0,0,0,-1,1602,1506,0,0
385,-482,0,0,0,0,0,0,0,0,0,-1,1609,1506,0,0
392,-482,0,0,0,0,0,0,0,0,0,-1,1616,1506,0,0
399,-482,0,0,0,0,0,0,0,0,0,-1,1623,1506,0,0
406,-482,0,0,0,0,0,0,0,0,0,-1,1630,1506,0,0
413,-482,0,0,0,0,0,0,0,0,0,-1,1637,1506,0,0
420,-482,0,0,0,0,0,0,0,0,0,-1,1644,1506,0,0
427,-482,0,0,0,0,0,0,0,0,0,-1,1651,1506,0,0
434,-482,0,0,0,0,0,0,0,0,0,-1,1658,1506,0,0
441,-482,0,0,0,0,0,0,0,0,0,-1,1665,1506,0,0
448,-482,4.24146,1.55383,0,0,0,0,0,0,0,-1,1672,1506,4.24149,-1.55381
455,-482,12.4122,1.09729,0,0,0,0,0,0,0,-1,1679,1506,12.4122,-1.09734
462,-482,15.0673,3.13135,0,0,0,0,0,0,0,-1,1686,1506,15.0672,-3.13134
469,-482,15.3793,3.46301,0,0,0,0,0,0,0,-1,1693,1506,15.3793,-3.46307
476,-482,8.69751,9.18738,0,0,0,0,0,0,0,-1,1700,1506,8.69753,-9.18739
483,-482,10.0902,7.17432,0,0,0,0,0,0,0,-1,1707,1506,10.0902,-7.1743
490,-482,11.6289,5.4928,0,0,0,0,0,0,0,-1,1714,1506,11.6289,-5.49283
497,-482,15.9539,7.40222,0,0,0,0,0,0,0,-1,1721,1506,15.9538,-7.40219
504,-482,20.4233,12.006,0,0,0,0,0,0,0,-1,1728,1506,20.4233,-12.006
511,-482,18.4937,12.9175,0,0,0,0,0,0,0,-1,1735,1506,18.4936,-12.9174
518,-482,16.6002,13.9679,0,0,0,0,0,0,0,-1,1742,1506,16.6003,-13.9679
525,-482,18.495,15.9618,0,0,0,0,0,0,0,-1,1749,1506,18.495,-15.9618
532,-482,19.1071,19.8405,0,0,0,0,0,0,0,-1,1756,1506,19.107,-19.8405
539,-482,19.2899,19.4194,0,0,0,0,0,0,0,-1,1763,1506,19.2899,-19.4194
546,-482,19.1399,19.2349,0,0,0,0,0,0,0,-1,1770,1506,19.1399,-19.2349
553,-482,19.1666,18.5151,0.00181441,0.00108869,-0.000727817,0.0022648,0.000638293,-0.554152,0.00134844,0.0230976,1777,1506,19.1667,-18.5151
560,-482,19.1597,18.1224,0.00162799,0.00114914,-0.000730433,0.00215723,0.00061989,-0.627024,0.00128248,0.0147881,1784,1506,19.1597,-18.1224
567,-482,19.2303,17.663,0.0013483,0.00113291,-0.000701564,0.00195039,0.000530823,-0.709236,0.00116437,0.0153076,1791,1506,19.2304,-17.663
574,-482,19.2174,17.24,0.00142309,0.00095163,-0.000758236,0.0019814,0.000393327,-0.634687,0.0012113,0.0137305,1798,1506,19.2174,-17.24
581,-482,19.1873,16.8075,0.00172599,0.000697476,-0.000979393,0.00231793,0.000105537,-0.543644,0.00151134,0.00929959,1805,1506,19.1872,-16.8075
588,-482,19.1627,16.3768,0.0022701,0.000512739,-0.00128012,0.00294408,-0.00016125,-0.484627,0.00201862,0.010699,1812,1506,19.1627,-16.3768
595,-482,19.1616,15.9355,0.00319631,0.00038055,-0.00172726,0.00401678,-0.000439921,-0.443459,0.00283589,0.0161237,1819,1506,19.1616,-15.9356
602,-482,19.1526,15.4736,0.00424036,9.8427e-05,-0.00222165,0.0052066,-0.000867817,-0.410244,0.00379357,0.0188983,1826,1506,19.1526,-15.4736
609,-482,19.1333,15.0188,0.00543502,-0.000165922,-0.00271389,0.00653427,-0.00126517,-0.384849,0.00483341,0.0146702,1833,1506,19.1332,-15.0188
616,-482,19.1097,14.5865,0.006894,-0.000408684,-0.00326043,0.00813783,-0.00165251,-0.364451,0.00605174,0.0114406,1840,1506,19.1098,-14.5865
623,-482,19.073,14.1743,0.00861091,-0.00069062,-0.00378641,0.00995736,-0.00203706,-0.341654,0.00741117,0.014243,1847,1506,19.073,-14.1744
630,-482,19.0883,13.7527,0.0105078,-0.000856272,-0.00426503,0.0119304,-0.00227889,-0.321949,0.00881199,0.0277526,1854,1506,19.0883,-13.7527
637,-482,19.1769,13.1896,0,0,0,0,0,0,0,-1,1861,1506,19.1769,-13.1895
644,-482,17.5909,11.6163,0,0,0,0,0,0,0,-1,1868,1506,17.5909,-11.6163
651,-482,4.03845,7.05273,0,0,0,0,0,0,0,-1,1875,1506,4.03843,-7.05279
658,-482,10.0278,5.87903,0,0,0,0,0,0,0,-1,1882,1506,10.0279,-5.87902
665,-482,8.15198,3.22229,0,0,0,0,0,0,0,-1,1889,1506,8.15199,-3.22232
672,-482,9.87415,1.3147,0,0,0,0,0,0,0,-1,1896,1506,9.87416,-1.31473
679,-482,0,0,0,0,0,0,0,0,0,-1,1903,1506,0,0
686,-482,0,0,0,0,0,0,0,0,0,-1,1910,1506,0,0
693,-482,0,0,0,0,0,0,0,0,0,-1,1917,1506,0,0
700,-482,0,0,0,0,0,0,0,0,0,-1,1924,1506,0,0
707,-482,0,0,0,0,0,0,0,0,0,-1,1931,1506,0,0
714,-482,0,0,0,0,0,0,0,0,0,-1,1938,1506,0,0
721,-482,0,0,0,0,0,0,0,0,0,-1,1945,1506,0,0
728,-482,0,0,0,0,0,0,0,0,0,-1,1952,1506,0,0
735,-482,0,0,0,0,0,0,0,0,0,-1,1959,1506,0,0
742,-482,0,0,0,0,0,0,0,0,0,-1,1966,1506,0,0
749,-482,0,0,0,0,0,0,0,0,0,-1,1973,1506,0,0
756,-482,0,0,0,0,0,0,0,0,0,-1,1980,1506,0,0
763,-482,0,0,0,0,0,0,0,0,0,-1,1987,1506,0,0
770,-482,0,0,0,0,0,0,0,0,0,-1,1994,1506,0,0
777,-482,0,0,0,0,0,0,0,0,0,-1,2001,1506,0,0
784,-482,0,0,0,0,0,0,0,0,0,-1,2008,1506,0,0
791,-482,0,0,0,0,0,0,0,0,0,-1,2015,1506,0,0
798,-482,0,0,0,0,0,0,0,0,0,-1,2022,1506,0,0
805,-482,0,0,0,0,0,0,0,0,0,-1,2029,1506,0,0
812,-482,0,0,0,0,0,0,0,0,0,-1,2036,1506,0,0
-700,-489,0,0,0,0,0,0,0,0,0,-1,524,1513,0,0
-693,-489,0,0,0,0,0,0,0,0,0,-1,531,1513,0,0
-686,-489,0,0,0,0,0,0,0,0,0,-1,538,1513,0,0
-679,-489,0,0,0,0,0,0,0,0,0,-1,545,1513,0,0
-672,-489,0,0,0,0,0,0,0,0,0,-1,552,1513,0,0
-665,-489,0,0,0,0,0,0,0,0,0,-1,559,1513,0,0
-658,-489,0,0,0,0,0,0,0,0,0,-1,566,1513,0,0
-651,-489,0,0,0,0,0,0,0,0,0,-1,573,1513,0,0
-644,-489,0,0,0,0,0,0,0,0,0,-1,580,1513,0,0
-637,-489,0,0,0,0,0,0,0,0,0,-1,587,1513,0,0
-630,-489,0,0,0,0,0,0,0,0,0,-1,594,1513,0,0
-623,-489,0,0,0,0,0,0,0,0,0,-1,601,1513,0,0
-616,-489,0,0,0,0,0,0,0,0,0,-1,608,1513,0,0
-609,-489,0,0,0,0,0,0,0,0,0,-1,615,1513,0,0
-602,-489,0,0,0,0,0,0,0,0,0,-1,622,1513,0,0
-595,-489,0,0,0,0,0,0,0,0,0,-1,629,1513,0,0
-588,-489,0,0,0,0,0,0,0,0,0,-1,636,1513,0,0
-581,-489,0,0,0,0,0,0,0,0,0,-1,643,1513,0,0
-574,-489,0,0,0,0,0,0,0,0,0,-1,650,1513,0,0
-567,-489,0,0,0,0,0,0,0,0,0,-1,657,1513,0,0
-560,-489,0,0,0,0,0,0,0,0,0,-1,664,1513,0,0
-553,-489,-9.42206,8.5116,0,0,0,0,0,0,0,-1,671,1513,-9.42205,-8.51158
-546,-489,-7.80951,8.18506,0,0,0,0,0,0,0,-1,678,1513,-7.8095,-8.18503
-539,-489,-3.06879,2.82349,0,0,0,0,0,0,0,-1,685,1513,-3.06881,-2.82354
-532,-489,-3.14215,2.5835,0,0,0,0,0,0,0,-1,692,1513,-3.14213,-2.58353
-525,-489,-2.604,4.06274,0,0,0,0,0,0,0,-1,699,1513,-2.60399,-4.06274
-518,-489,-5.43774,7.48059,0,0,0,0,0,0,0,-1,706,1513,-5.43777,-7.48058
-511,-489,-5.18207,8.84167,0,0,0,0,0,0,0,-1,713,1513,-5.18205,-8.84166
-504,-489,-4.5954,10.3331,0,0,0,0,0,0,0,-1,720,1513,-4.5954,-10.3331
-497,-489,-4.03235,12.3888,0,0,0,0,0,0,0,-1,727,1513,-4.03237,-12.3888
-490,-489,-4.3078,12.5541,-0.00350194,-0.00179738,-0.00777926,0.00517615,-0.0104755,-0.83996,0.0092075,0.0367519,734,1513,-4.30779,-12.5541
-483,-489,-4.49146,12.951,-0.0026622,-0.00208551,-0.00620466,0.00383751,-0.00858521,-0.808618,0.00734478,0.0159906,741,1513,-4.49146,-12.9511
-476,-489,-4.48529,13.4584,-0.00170513,-0.00197624,-0.00454966,0.002711,-0.00639237,-0.770506,0.00539718,0.00939018,748,1513,-4.48531,-13.4584
-469,-489,-4.4892,13.9497,-0.000682251,-0.00155816,-0.00292737,0.00183974,-0.00408015,-0.711146,0.00349849,0.0101925,755,1513,-4.48921,-13.9497
-462,-489,-4.49017,14.431,0.000418201,-0.000956528,-0.00133994,0.00123679,-0.00177512,-0.548409,0.00174816,0.0149679,762,1513,-4.4902,-14.431
-455,-489,-4.51978,14.9095,0.00159037,-0.000176483,0.000198939,0.00161249,-0.000198605,0.110748,0.00114694,0.0183532,769,1513,-4.51978,-14.9095
-448,-489,-4.5506,15.3785,0.00290138,0.000719061,0.00170428,0.00383388,-0.000213438,0.500654,0.00262996,0.0166405,776,1513,-4.55057,-15.3785
-441,-489,-4.5379,15.8478,0.00432185,0.00190174,0.00329869,0.00662543,-0.00040183,0.609604,0.0045568,0.014357,783,1513,-4.53793,-15.8478
-434,-489,-4.58484,16.3176,0.00591658,0.00335127,0.00494705,0.00974456,-0.000476704,0.658553,0.00666096,0.0164021,790,1513,-4.58486,-16.3177
-427,-489,-4.61517,16.824,0.00770569,0.00503193,0.00661417,0.0131167,-0.000379112,0.685679,0.00887356,0.0186549,797,1513,-4.61516,-16.824
-420,-489,-4.6087,17.4213,0.00963005,0.00693454,0.00840973,0.0167993,-0.000234746,0.705943,0.0112786,0.0233693,804,1513,-4.60868,-17.4213
-413,-489,-4.54828,18.0721,0,0,0,0,0,0,0,-1,811,1513,-4.54831,-18.0721
-406,-489,-3.10559,15.8143,0,0,0,0,0,0,0,-1,818,1513,-3.10556,-15.8143
-399,-489,-1.41241,9.10718,0,0,0,0,0,0,0,-1,825,1513,-1.41244,-9.10722
-392,-489,-1.0368,9.30469,0,0,0,0,0,0,0,-1,832,1513,-1.03682,-9.30466
-385,-489,-1.75165,10.6559,0,0,0,0,0,0,0,-1,839,1513,-1.75165,-10.6559
-378,-489,-0.401428,9.87048,0,0,0,0,0,0,0,-1,846,1513,-0.401415,-9.87047
-371,-489,-1.11633,10.6606,0,0,0,0,0,0,0,-1,853,1513,-1.11633,-10.6606
-364,-489,-0.503113,8.98486,0,0,0,0,0,0,0,-1,860,1513,-0.503097,-8.98482
-357,-489,-0.609924,10.9606,0,0,0,0,0,0,0,-1,867,1513,-0.609947,-10.9605
-350,-489,-7.94659,-0.358887,0,0,0,0,0,0,0,-1,874,1513,-7.94657,0.358912
-343,-489,-7.49323,-0.437866,0,0,0,0,0,0,0,-1,881,1513,-7.49322,0.437823
-336,-489,-7.02332,-0.53125,0,0,0,0,0,0,0,-1,888,1513,-7.0233,0.531295
-329,-489,-6.81635,0.722412,0,0,0,0,0,0,0,-1,895,1513,-6.81635,-0.722388
-322,-489,0,0,0,0,0,0,0,0,0,-1,902,1513,0,0
-315,-489,0,0,0,0,0,0,0,0,0,-1,909,1513,0,0
-308,-489,0,0,0,0,0,0,0,0,0,-1,916,1513,0,0
-301,-489,0,0,0,0,0,0,0,0,0,-1,923,1513,0,0
-294,-489,0,0,0,0,0,0,0,0,0,-1,930,1513,0,0
-287,-489,0,0,0,0,0,0,0,0,0,-1,937,1513,0,0
-280,-489,0,0,0,0,0,0,0,0,0,-1,944,1513,0,0
-273,-489,0,0,0,0,0,0,0,0,0,-1,951,1513,0,0
-266,-489,0,0,0,0,0,0,0,0,0,-1,958,1513,0,0
-259,-489,0,0,0,0,0,0,0,0,0,-1,965,1513,0,0
-252,-489,0,0,0,0,0,0,0,0,0,-1,972,1513,0,0
-245,-489,0,0,0,0,0,0,0,0,0,-1,979,1513,0,0
-238,-489,0,0,0,0,0,0,0,0,0,-1,986,1513,0,0
-231,-489,0,0,0,0,0,0,0,0,0,-1,993,1513,0,0
-224,-489,0,0,0,0,0,0,0,0,0,-1,1000,1513,0,0
-217,-489,0,0,0,0,0,0,0,0,0,-1,1007,1513,0,0
-210,-489,0,0,0,0,0,0,0,0,0,-1,1014,1513,0,0
-203,-489,0,0,0,0,0,0,0,0,0,-1,1021,1513,0,0
-196,-489,0,0,0,0,0,0,0,0,0,-1,1028,1513,0,0
-189,-489,0,0,0,0,0,0,0,0,0,-1,1035,1513,0,0
-182,-489,0,0,0,0,0,0,0,0,0,-1,1042,1513,0,0
-175,-489,0,0,0,0,0,0,0,0,0,-1,1049,1513,0,0
-168,-489,0,0,0,0,0,0,0,0,0,-1,1056,1513,0,0
-161,-489,0,0,0,0,0,0,0,0,0,-1,1063,1513,0,0
-154,-489,0,0,0,0,0,0,0,0,0,-1,1070,1513,0,0
-147,-489,0,0,0,0,0,0,0,0,0,-1,1077,1513,0,0
-140,-489,0,0,0,0,0,0,0,0,0,-1,1084,1513,0,0
-133,-489,0,0,0,0,0,0,0,0,0,-1,1091,1513,0,0
-126,-489,0,0,0,0,0,0,0,0,0,-1,1098,1513,0,0
-119,-489,0,0,0,0,0,0,0,0,0,-1,1105,1513,0,0
-112,-489,0,0,0,0,0,0,0,0,0,-1,1112,1513,0,0
-105,-489,0,0,0,0,0,0,0,0,0,-1,1119,1513,0,0
-98,-489,0,0,0,0,0,0,0,0,0,-1,1126,1513,0,0
-91,-489,0,0,0,0,0,0,0,0,0,-1,1133,1513,0,0
-84,-489,0,0,0,0,0,0,0,0,0,-1,1140,1513,0,0
-77,-489,0,0,0,0,0,0,0,0,0,-1,1147,1513,0,0
-70,-489,0,0,0,0,0,0,0,0,0,-1,1154,1513,0,0
-63,-489,0,0,0,0,0,0,0,0,0,-1,1161,1513,0,0
-56,-489,0,0,0,0,0,0,0,0,0,-1,1168,1513,0,0
-49,-489,0,0,0,0,0,0,0,0,0,-1,1175,1513,0,0
-42,-489,0,0,0,0,0,0,0,0,0,-1,1182,1513,0,0
-35,-489,0,0,0,0,0,0,0,0,0,-1,1189,1513,0,0
-28,-489,0,0,0,0,0,0,0,0,0,-1,1196,1513,0,0
-21,-489,0,0,0,0,0,0,0,0,0,-1,1203,1513,0,0
-14,-489,0,0,0,0,0,0,0,0,0,-1,1210,1513,0,0
-7,-489,0,0,0,0,0,0,0,0,0,-1,1217,1513,0,0
0,-489,0,0,0,0,0,0,0,0,0,-1,1224,1513,0,0
7,-489,0,0,0,0,0,0,0,0,0,-1,1231,1513,0,0
14,-489,0,0,0,0,0,0,0,0,0,-1,1238,1513,0,0
21,-489,0,0,0,0,0,0,0,0,0,-1,1245,1513,0,0
28,-489,0,0,0,0,0,0,0,0,0,-1,1252,1513,0,0
35,-489,0,0,0,0,0,0,0,0,0,-1,1259,1513,0,0
42,-489,0,0,0,0,0,0,0,0,0,-1,1266,1513,0,0
49,-489,0,0,0,0,0,0,0,0,0,-1,1273,1513,0,0
56,-489,0,0,0,0,0,0,0,0,0,-1,1280,1513,0,0
63,-489,0,0,0,0,0,0,0,0,0,-1,1287,1513,0,0
70,-489,0,0,0,0,0,0,0,0,0,-1,1294,1513,0,0
77,-489,0,0,0,0,0,0,0,0,0,-1,1301,1513,0,0
84,-489,0,0,0,0,0,0,0,0,0,-1,1308,1513,0,0
91,-489,0,0,0,0,0,0,0,0,0,-1,1315,1513,0,0
98,-489,0,0,0,0,0,0,0,0,0,-1,1322,1513,0,0
105,-489,0,0,0,0,0,0,0,0,0,-1,1329,1513,0,0
112,-489,0,0,0,0,0,0,0,0,0,-1,1336,1513,0,0
119,-489,0,0,0,0,0,0,0,0,0,-1,1343,1513,0,0
126,-489,0,0,0,0,0,0,0,0,0,-1,1350,1513,0,0
133,-489,0,0,0,0,0,0,0,0,0,-1,1357,1513,0,0
140,-489,0,0,0,0,0,0,0,0,0,-1,1364,1513,0,0
147,-489,0,0,0,0,0,0,0,0,0,-1,1371,1513,0,0
154,-489,0,0,0,0,0,0,0,0,0,-1,1378,1513,0,0
161,-489,0,0,0,0,0,0,0,0,0,-1,1385,1513,0,0
168,-489,0,0,0,0,0,0,0,0,0,-1,1392,1513,0,0
175,-489,0,0,0,0,0,0,0,0,0,-1,1399,1513,0,0
182,-489,0,0,0,0,0,0,0,0,0,-1,1406,1513,0,0
189,-489,0,0,0,0,0,0,0,0,0,-1,1413,1513,0,0
196,-489,0,0,0,0,0,0,0,0,0,-1,1420,1513,0,0
203,-489,0,0,0,0,0,0,0,0,0,-1,1427,1513,0,0
210,-489,0,0,0,0,0,0,0,0,0,-1,1434,1513,0,0
217,-489,0,0,0,0,0,0,0,0,0,-1,1441,1513,0,0
224,-489,0,0,0,0,0,0,0,0,0,-1,1448,1513,0,0
231,-489,0,0,0,0,0,0,0,0,0,-1,1455,1513,0,0
238,-489,0,0,0,0,0,0,0,0,0,-1,1462,1513,0,0
245,-489,0,0,0,0,0,0,0,0,0,-1,1469,1513,0,0
252,-489,0,0,0,0,0,0,0,0,0,-1,1476,1513,0,0
259,-489,0,0,0,0,0,0,0,0,0,-1,1483,1513,0,0
266,-489,0,0,0,0,0,0,0,0,0,-1,1490,1513,0,0
273,-489,0,0,0,0,0,0,0,0,0,-1,1497,1513,0,0
280,-489,0,0,0,0,0,0,0,0,0,-1,1504,1513,0,0
287,-489,0,0,0,0,0,0,0,0,0,-1,1511,1513,0,0
294,-489,0,0,0,0,0,0,0,0,0,-1,1518,1513,0,0
301,-489,0,0,0,0,0,0,0,0,0,-1,1525,1513,0,0
308,-489,0,0,0,0,0,0,0,0,0,-1,1532,1513,0,0
315,-489,0,0,0,0,0,0,0,0,0,-1,1539,1513,0,0
322,-489,0,0,0,0,0,0,0,0,0,-1,1546,1513,0,0
329,-489,0,0,0,0,0,0,0,0,0,-1,1553,1513,0,0
336,-489,0,0,0,0,0,0,0,0,0,-1,1560,1513,0,0
343,-489,0,0,0,0,0,0,0,0,0,-1,1567,1513,0,0
350,-489,0,0,0,0,0,0,0,0,0,-1,1574,1513,0,0
357,-489,0,0,0,0,0,0,0,0,0,-1,1581,1513,0,0
364,-489,0,0,0,0,0,0,0,0,0,-1,1588,1513,0,0
371,-489,0,0,0,0,0,0,0,0,0,-1,1595,1513,0,0
378,-489,0,0,0,0,0,0,0,0,0,-1,1602,1513,0,0
385,-489,0,0,0,0,0,0,0,0,0,-1,1609,1513,0,0
392,-489,0,0,0,0,0,0,0,0,0,-1,1616,1513,0,0
399,-489,0,0,0,0,0,0,0,0,0,-1,1623,1513,0,0
406,-489,0,0,0,0,0,0,0,0,0,-1,1630,1513,0,0
413,-489,0,0,0,0,0,0,0,0,0,-1,1637,1513,0,0
420,-489,0,0,0,0,0,0,0,0,0,-1,1644,1513,0,0
427,-489,0,0,0,0,0,0,0,0,0,-1,1651,1513,0,0
434,-489,0,0,0,0,0,0,0,0,0,-1,1658,1513,0,0
441,-489,11.4602,2.56787,0,0,0,0,0,0,0,-1,1665,1513,11.4602,-2.56786
448,-489,12.4425,1.72351,0,0,0,0,0,0,0,-1,1672,1513,12.4425,-1.72349
455,-489,12.5575,1.37463,0,0,0,0,0,0,0,-1,1679,1513,12.5575,-1.37469
462,-489,14.9784,3.84888,0,0,0,0,0,0,0,-1,1686,1513,14.9784,-3.84892
469,-489,15.1367,4.53101,0,0,0,0,0,0,0,-1,1693,1513,15.1368,-4.531
476,-489,15.5536,5.09338,0,0,0,0,0,0,0,-1,1700,1513,15.5536,-5.09339
483,-489,8.96912,8.37805,0,0,0,0,0,0,0,-1,1707,1513,8.96909,-8.37809
490,-489,10.5366,7.49561,0,0,0,0,0,0,0,-1,1714,1513,10.5367,-7.49558
497,-489,14.6051,11.8397,0,0,0,0,0,0,0,-1,1721,1513,14.6051,-11.8397
504,-489,16.7527,14.1735,0,0,0,0,0,0,0,-1,1728,1513,16.7527,-14.1735
511,-489,17.83,17.7993,0,0,0,0,0,0,0,-1,1735,1513,17.83,-17.7993
518,-489,16.4751,14.3682,0,0,0,0,0,0,0,-1,1742,1513,16.4751,-14.3682
525,-489,17.2606,17.4949,0,0,0,0,0,0,0,-1,1749,1513,17.2606,-17.4949
532,-489,18.5336,19.9113,0,0,0,0,0,0,0,-1,1756,1513,18.5336,-19.9113
539,-489,18.8375,19.3793,0.00292161,0.00201659,-0.00157176,0.00410471,0.000833499,-0.645238,0.00250529,0.0293669,1763,1513,18.8376,-19.3793
546,-489,18.7487,19.1511,0.00226346,0.00160471,-0.00113403,0.00311499,0.00075319,-0.644063,0.00187667,0.019923,1770,1513,18.7486,-19.1512
553,-489,18.7418,18.6099,0.00188688,0.00134997,-0.00088255,0.0025409,0.000695947,-0.637754,0.00151616,0.0167791,1777,1513,18.7418,-18.6099
560,-489,18.7634,18.1193,0.00163234,0.00122888,-0.000780835,0.00223708,0.000624138,-0.658986,0.00133297,0.0134761,1784,1513,18.7634,-18.1193
567,-489,18.7882,17.6815,0.00147805,0.000966445,-0.000704267,0.00197153,0.000472963,-0.611197,0.0011885,0.0149336,1791,1513,18.7882,-17.6815
574,-489,18.766,17.2822,0.00171328,0.000782653,-0.000847288,0.00221462,0.000281315,-0.534291,0.00139215,0.0145247,1798,1513,18.7659,-17.2822
581,-489,18.7642,16.8484,0.00215488,0.000481462,-0.00111517,0.00271233,-7.59887e-05,-0.463552,0.00183407,0.0100529,1805,1513,18.7642,-16.8484
588,-489,18.7256,16.4176,0.00291386,0.000299929,-0.00153168,0.0036204,-0.000406609,-0.432198,0.00255992,0.0123289,1812,1513,18.7256,-16.4176
595,-489,18.7118,15.9772,0.00410263,0.000146604,-0.00212211,0.00502563,-0.000776399,-0.410264,0.00363695,0.0189245,1819,1513,18.7117,-15.9772
602,-489,18.7078,15.4958,0.00550929,-7.06568e-05,-0.00284905,0.00670693,-0.00126829,-0.397937,0.00494853,0.0243999,1826,1513,18.7078,-15.4959
609,-489,18.6869,15.0527,0.00719161,-0.000285119,-0.00366305,0.0086871,-0.00178062,-0.387612,0.00646717,0.0171647,1833,1513,18.6869,-15.0528
616,-489,18.6946,14.5881,0.00923747,-0.000442676,-0.00459931,0.0110742,-0.00227942,-0.379948,0.00824828,0.0159926,1840,1513,18.6946,-14.5882
623,-489,18.6755,14.1608,0.011706,-0.000617113,-0.00560369,0.0138731,-0.00278418,-0.369008,0.010303,0.0321692,1847,1513,18.6755,-14.1607
630,-489,18.7841,13.6844,0,0,0,0,0,0,0,-1,1854,1513,18.784,-13.6845
637,-489,17.2048,11.8091,0,0,0,0,0,0,0,-1,1861,1513,17.2048,-11.8091
644,-489,9.67578,8.45874,0,0,0,0,0,0,0,-1,1868,1513,9.67576,-8.45879
651,-489,6.13818,6.85095,0,0,0,0,0,0,0,-1,1875,1513,6.13823,-6.85097
658,-489,5.43848,7.75513,0,0,0,0,0,0,0,-1,1882,1513,5.43844,-7.75509
665,-489,5.48438,8.59912,0,0,0,0,0,0,0,-1,1889,1513,5.48434,-8.59907
672,-489,0,0,0,0,0,0,0,0,0,-1,1896,1513,0,0
679,-489,0,0,0,0,0,0,0,0,0,-1,1903,1513,0,0
686,-489,0,0,0,0,0,0,0,0,0,-1,1910,1513,0,0
693,-489,0,0,0,0,0,0,0,0,0,-1,1917,1513,0,0
700,-489,0,0,0,0,0,0,0,0,0,-1,1924,1513,0,0
707,-489,0,0,0,0,0,0,0,0,0,-1,1931,1513,0,0
714,-489,0,0,0,0,0,0,0,0,0,-1,1938,1513,0,0
721,-489,0,0,0,0,0,0,0,0,0,-1,1945,1513,0,0
728,-489,0,0,0,0,0,0,0,0,0,-1,1952,1513,0,0
735,-489,0,0,0,0,0,0,0,0,0,-1,1959,1513,0,0
742,-489,0,0,0,0,0,0,0,0,0,-1,1966,1513,0,0
749,-489,0,0,0,0,0,0,0,0,0,-1,1973,1513,0,0
756,-489,0,0,0,0,0,0,0,0,0,-1,1980,1513,0,0
763,-489,0,0,0,0,0,0,0,0,0,-1,1987,1513,0,0
770,-489,0,0,0,0,0,0,0,0,0,-1,1994,1513,0,0
777,-489,0,0,0,0,0,0,0,0,0,-1,2001,1513,0,0
784,-489,0,0,0,0,0,0,0,0,0,-1,2008,1513,0,0
791,-489,0,0,0,0,0,0,0,0,0,-1,2015,1513,0,0
798,-489,0,0,0,0,0,0,0,0,0,-1,2022,1513,0,0
805,-489,0,0,0,0,0,0,0,0,0,-1,2029,1513,0,0
812,-489,0,0,0,0,0,0,0,0,0,-1,2036,1513,0,0
-700,-496,0,0,0,0,0,0,0,0,0,-1,524,1520,0,0
-693,-496,0,0,0,0,0,0,0,0,0,-1,531,1520,0,0
-686,-496,0,0,0,0,0,0,0,0,0,-1,538,1520,0,0
-679,-496,0,0,0,0,0,0,0,0,0,-1,545,1520,0,0
-672,-496,0,0,0,0,0,0,0,0,0,-1,552,1520,0,0
-665,-496,0,0,0,0,0,0,0,0,0,-1,559,1520,0,0
-658,-496,0,0,0,0,0,0,0,0,0,-1,566,1520,0,0
-651,-496,0,0,0,0,0,0,0,0,0,-1,573,1520,0,0
-644,-496,0,0,0,0,0,0,0,0,0,-1,580,1520,0,0
-637,-496,0,0,0,0,0,0,0,0,0,-1,587,1520,0,0
-630,-496,0,0,0,0,0,0,0,0,0,-1,594,1520,0,0
-623,-496,0,0,0,0,0,0,0,0,0,-1,601,1520,0,0
-616,-496,0,0,0,0,0,0,0,0,0,-1,608,1520,0,0
-609,-496,0,0,0,0,0,0,0,0,0,-1,615,1520,0,0
-602,-496,0,0,0,0,0,0,0,0,0,-1,622,1520,0,0
-595,-496,0,0,0,0,0,0,0,0,0,-1,629,1520,0,0
-588,-496,0,0,0,0,0,0,0,0,0,-1,636,1520,0,0
-581,-496,0,0,0,0,0,0,0,0,0,-1,643,1520,0,0
-574,-496,0,0,0,0,0,0,0,0,0,-1,650,1520,0,0
-567,-496,0,0,0,0,0,0,0,0,0,-1,657,1520,0,0
-560,-496,0,0,0,0,0,0,0,0,0,-1,664,1520,0,0
-553,-496,0,0,0,0,0,0,0,0,0,-1,671,1520,0,0
-546,-496,-8.09711,7.94836,0,0,0,0,0,0,0,-1,678,1520,-8.09712,-7.94842
-539,-496,-3.20129,1.16052,0,0,0,0,0,0,0,-1,685,1520,-3.20131,-1.16054
-532,-496,-2.98279,2.62146,0,0,0,0,0,0,0,-1,692,1520,-2.98278,-2.62151
-525,-496,-2.75201,4.08032,0,0,0,0,0,0,0,-1,699,1520,-2.75201,-4.08031
-518,-496,-2.6333,5.36072,0,0,0,0,0,0,0,-1,706,1520,-2.63328,-5.36077
-511,-496,-5.7644,7.94397,0,0,0,0,0,0,0,-1,713,1520,-5.76442,-7.94396
-504,-496,-4.51697,11.2133,0,0,0,0,0,0,0,-1,720,1520,-4.51698,-11.2133
-497,-496,-3.69812,12.528,0,0,0,0,0,0,0,-1,727,1520,-3.69812,-12.5279
-490,-496,-3.77472,12.8043,-0.00352633,-0.00163722,-0.0103404,0.00780172,-0.0129653,-0.830945,0.0121127,0.0448124,734,1520,-3.77469,-12.8044
-483,-496,-3.93207,13.104,-0.00286239,-0.00230715,-0.00827427,0.00569415,-0.0108637,-0.802168,0.00971374,0.0280838,741,1520,-3.9321,-13.104
-476,-496,-4.01471,13.4761,-0.00210404,-0.00244353,-0.00625614,0.00398466,-0.00853222,-0.771835,0.0073839,0.0139055,748,1520,-4.01473,-13.4761
-469,-496,-4.02051,13.9769,-0.00130724,-0.00218071,-0.00440349,0.00268112,-0.00616907,-0.73597,0.00524027,0.0106699,755,1520,-4.02051,-13.977
-462,-496,-4.0235,14.4556,-0.00040955,-0.00167266,-0.00267447,0.00170692,-0.00378914,-0.669451,0.00324817,0.0151744,762,1520,-4.02349,-14.4556
-455,-496,-4.06061,14.9132,0.000560271,-0.000968231,-0.00107729,0.00111687,-0.00152483,-0.476889,0.00153123,0.0195617,769,1520,-4.06064,-14.9132
-448,-496,-4.07141,15.4,0.00166226,-0.000153553,0.000411288,0.00175107,-0.000242368,0.212676,0.00125599,0.0188879,776,1520,-4.07142,-15.4
-441,-496,-4.07227,15.8721,0.0028736,0.000964846,0.00193801,0.00407949,-0.000241037,0.556602,0.00280346,0.0147809,783,1520,-4.07224,-15.872
-434,-496,-4.10602,16.3459,0.00423572,0.00228443,0.00352635,0.00691891,-0.000398752,0.650438,0.0047511,0.0140123,790,1520,-4.106,-16.3459
-427,-496,-4.11169,16.853,0.00578418,0.00392316,0.005084,0.0100221,-0.000314784,0.694887,0.00678878,0.0179604,797,1520,-4.11171,-16.853
-420,-496,-4.09814,17.3031,0.00746215,0.00565166,0.00668989,0.0133078,-0.000193953,0.718149,0.0089372,0.0188824,804,1520,-4.09816,-17.3031
-413,-496,-4.03107,17.8118,0.00949136,0.00751814,0.00873014,0.0172905,-0.000280968,0.729131,0.0116218,0.0264365,811,1520,-4.0311,-17.8117
-406,-496,-3.90662,18.5035,0,0,0,0,0,0,0,-1,818,1520,-3.90664,-18.5036
-399,-496,-3.58142,19.2776,0,0,0,0,0,0,0,-1,825,1520,-3.58145,-19.2776
-392,-496,-1.49786,12.387,0,0,0,0,0,0,0,-1,832,1520,-1.49788,-12.387
-385,-496,-1.72437,11.4985,0,0,0,0,0,0,0,-1,839,1520,-1.72436,-11.4985
-378,-496,-1.45532,14.0719,0,0,0,0,0,0,0,-1,846,1520,-1.45533,-14.0719
-371,-496,0.0877075,12.5299,0,0,0,0,0,0,0,-1,853,1520,0.0876896,-12.5299
-364,-496,0.0881348,10.6422,0,0,0,0,0,0,0,-1,860,1520,0.0881368,-10.6423
-357,-496,0.323792,7.56812,0,0,0,0,0,0,0,-1,867,1520,0.323782,-7.56806
-350,-496,2.1535,7.18945,0,0,0,0,0,0,0,-1,874,1520,2.15348,-7.1894
-343,-496,-7.56244,0.335327,0,0,0,0,0,0,0,-1,881,1520,-7.56242,-0.335322
-336,-496,-3.99249,6.02222,0,0,0,0,0,0,0,-1,888,1520,-3.99246,-6.0222
-329,-496,-6.93689,-0.100342,0,0,0,0,0,0,0,-1,895,1520,-6.93686,0.1003
-322,-496,-6.17505,0.494385,0,0,0,0,0,0,0,-1,902,1520,-6.17507,-0.49437
-315,-496,-7.2262,5.40344,0,0,0,0,0,0,0,-1,909,1520,-7.22621,-5.4035
-308,-496,0,0,0,0,0,0,0,0,0,-1,916,1520,0,0
-301,-496,0,0,0,0,0,0,0,0,0,-1,923,1520,0,0
-294,-496,0,0,0,0,0,0,0,0,0,-1,930,1520,0,0
-287,-496,0,0,0,0,0,0,0,0,0,-1,937,1520,0,0
-280,-496,0,0,0,0,0,0,0,0,0,-1,944,1520,0,0
-273,-496,0,0,0,0,0,0,0,0,0,-1,951,1520,0,0
-266,-496,0,0,0,0,0,0,0,0,0,-1,958,1520,0,0
-259,-496,0,0,0,0,0,0,0,0,0,-1,965,1520,0,0
-252,-496,0,0,0,0,0,0,0,0,0,-1,972,1520,0,0
-245,-496,0,0,0,0,0,0,0,0,0,-1,979,1520,0,0
-238,-496,0,0,0,0,0,0,0,0,0,-1,986,1520,0,0
-231,-496,0,0,0,0,0,0,0,0,0,-1,993,1520,0,0
-224,-496,0,0,0,0,0,0,0,0,0,-1,1000,1520,0,0
-217,-496,0,0,0,0,0,0,0,0,0,-1,1007,1520,0,0
-210,-496,0,0,0,0,0,0,0,0,0,-1,1014,1520,0,0
-203,-496,0,0,0,0,0,0,0,0,0,-1,1021,1520,0,0
-196,-496,0,0,0,0,0,0,0,0,0,-1,1028,1520,0,0
-189,-496,0,0,0,0,0,0,0,0,0,-1,1035,1520,0,0
-182,-496,0,0,0,0,0,0,0,0,0,-1,1042,1520,0,0
-175,-496,0,0,0,0,0,0,0,0,0,-1,1049,1520,0,0
-168,-496,0,0,0,0,0,0,0,0,0,-1,1056,1520,0,0
-161,-496,0,0,0,0,0,0,0,0,0,-1,1063,1520,0,0
-154,-496,0,0,0,0,0,0,0,0,0,-1,1070,1520,0,0
-147,-496,0,0,0,0,0,0,0,0,0,-1,1077,1520,0,0
-140,-496,0,0,0,0,0,0,0,0,0,-1,1084,1520,0,0
-133,-496,0,0,0,0,0,0,0,0,0,-1,1091,1520,0,0
-126,-496,0,0,0,0,0,0,0,0,0,-1,1098,1520,0,0
-119,-496,0,0,0,0,0,0,0,0,0,-1,1105,1520,0,0
-112,-496,0,0,0,0,0,0,0,0,0,-1,1112,1520,0,0
-105,-496,0,0,0,0,0,0,0,0,0,-1,1119,1520,0,0
-98,-496,0,0,0,0,0,0,0,0,0,-1,1126,1520,0,0
-91,-496,0,0,0,0,0,0,0,0,0,-1,1133,1520,0,0
-84,-496,0,0,0,0,0,0,0,0,0,-1,1140,1520,0,0
-77,-496,0,0,0,0,0,0,0,0,0,-1,1147,1520,0,0
-70,-496,0,0,0,0,0,0,0,0,0,-1,1154,1520,0,0
-63,-496,0,0,0,0,0,0,0,0,0,-1,1161,1520,0,0
-56,-496,0,0,0,0,0,0,0,0,0,-1,1168,1520,0,0
-49,-496,0,0,0,0,0,0,0,0,0,-1,1175,1520,0,0
-42,-496,0,0,0,0,0,0,0,0,0,-1,1182,1520,0,0
-35,-496,0,0,0,0,0,0,0,0,0,-1,1189,1520,0,0
-28,-496,0,0,0,0,0,0,0,0,0,-1,1196,1520,0,0
-21,-496,0,0,0,0,0,0,0,0,0,-1,1203,1520,0,0
-14,-496,0,0,0,0,0,0,0,0,0,-1,1210,1520,0,0
-7,-496,0,0,0,0,0,0,0,0,0,-1,1217,1520,0,0
0,-496,0,0,0,0,0,0,0,0,0,-1,1224,1520,0,0
7,-496,0,0,0,0,0,0,0,0,0,-1,1231,1520,0,0
14,-496,0,0,0,0,0,0,0,0,0,-1,1238,1520,0,0
21,-496,0,0,0,0,0,0,0,0,0,-1,1245,1520,0,0
28,-496,0,0,0,0,0,0,0,0,0,-1,1252,1520,0,0
35,-496,0,0,0,0,0,0,0,0,0,-1,1259,1520,0,0
42,-496,0,0,0,0,0,0,0,0,0,-1,1266,1520,0,0
49,-496,0,0,0,0,0,0,0,0,0,-1,1273,1520,0,0
56,-496,0,0,0,0,0,0,0,0,0,-1,1280,1520,0,0
63,-496,0,0,0,0,0,0,0,0,0,-1,1287,1520,0,0
70,-496,0,0,0,0,0,0,0,0,0,-1,1294,1520,0,0
77,-496,0,0,0,0,0,0,0,0,0,-1,1301,1520,0,0
84,-496,0,0,0,0,0,0,0,0,0,-1,1308,1520,0,0
91,-496,0,0,0,0,0,0,0,0,0,-1,1315,1520,0,0
98,-496,0,0,0,0,0,0,0,0,0,-1,1322,1520,0,0
105,-496,0,0,0,0,0,0,0,0,0,-1,1329,1520,0,0
112,-496,0,0,0,0,0,0,0,0,0,-1,1336,1520,0,0
119,-496,0,0,0,0,0,0,0,0,0,-1,1343,1520,0,0
126,-496,0,0,0,0,0,0,0,0,0,-1,1350,1520,0,0
133,-496,0,0,0,0,0,0,0,0,0,-1,1357,1520,0,0
140,-496,0,0,0,0,0,0,0,0,0,-1,1364,1520,0,0
147,-496,0,0,0,0,0,0,0,0,0,-1,1371,1520,0,0
154,-496,0,0,0,0,0,0,0,0,0,-1,1378,1520,0,0
161,-496,0,0,0,0,0,0,0,0,0,-1,1385,1520,0,0
168,-496,0,0,0,0,0,0,0,0,0,-1,1392,1520,0,0
175,-496,0,0,0,0,0,0,0,0,0,-1,1399,1520,0,0
182,-496,0,0,0,0,0,0,0,0,0,-1,1406,1520,0,0
189,-496,0,0,0,0,0,0,0,0,0,-1,1413,1520,0,0
196,-496,0,0,0,0,0,0,0,0,0,-1,1420,1520,0,0
203,-496,0,0,0,0,0,0,0,0,0,-1,1427,1520,0,0
210,-496,0,0,0,0,0,0,0,0,0,-1,1434,1520,0,0
217,-496,0,0,0,0,0,0,0,0,0,-1,1441,1520,0,0
224,-496,0,0,0,0,0,0,0,0,0,-1,1448,1520,0,0
231,-496,0,0,0,0,0,0,0,0,0,-1,1455,1520,0,0
238,-496,0,0,0,0,0,0,0,0,0,-1,1462,1520,0,0
245,-496,0,0,0,0,0,0,0,0,0,-1,1469,1520,0,0
252,-496,0,0,0,0,0,0,0,0,0,-1,1476,1520,0,0
259,-496,0,0,0,0,0,0,0,0,0,-1,1483,1520,0,0
266,-496,0,0,0,0,0,0,0,0,0,-1,1490,1520,0,0
273,-496,0,0,0,0,0,0,0,0,0,-1,1497,1520,0,0
280,-496,0,0,0,0,0,0,0,0,0,-1,1504,1520,0,0
287,-496,0,0,0,0,0,0,0,0,0,-1,1511,1520,0,0
294,-496,0,0,0,0,0,0,0,0,0,-1,1518,1520,0,0
301,-496,0,0,0,0,0,0,0,0,0,-1,1525,1520,0,0
308,-496,0,0,0,0,0,0,0,0,0,-1,1532,1520,0,0
315,-496,0,0,0,0,0,0,0,0,0,-1,1539,1520,0,0
322,-496,0,0,0,0,0,0,0,0,0,-1,1546,1520,0,0
329,-496,0,0,0,0,0,0,0,0,0,-1,1553,1520,0,0
336,-496,0,0,0,0,0,0,0,0,0,-1,1560,1520,0,0
343,-496,0,0,0,0,0,0,0,0,0,-1,1567,1520,0,0
350,-496,0,0,0,0,0,0,0,0,0,-1,1574,1520,0,0
357,-496,0,0,0,0,0,0,0,0,0,-1,1581,1520,0,0
364,-496,0,0,0,0,0,0,0,0,0,-1,1588,1520,0,0
371,-496,0,0,0,0,0,0,0,0,0,-1,1595,1520,0,0
378,-496,0,0,0,0,0,0,0,0,0,-1,1602,1520,0,0
385,-496,0,0,0,0,0,0,0,0,0,-1,1609,1520,0,0
392,-496,0,0,0,0,0,0,0,0,0,-1,1616,1520,0,0
399,-496,0,0,0,0,0,0,0,0,0,-1,1623,1520,0,0
406,-496,0,0,0,0,0,0,0,0,0,-1,1630,1520,0,0
413,-496,0,0,0,0,0,0,0,0,0,-1,1637,1520,0,0
420,-496,0,0,0,0,0,0,0,0,0,-1,1644,1520,0,0
427,-496,0,0,0,0,0,0,0,0,0,-1,1651,1520,0,0
434,-496,11.0457,3.37732,0,0,0,0,0,0,0,-1,1658,1520,11.0456,-3.37736
441,-496,11.788,2.75488,0,0,0,0,0,0,0,-1,1665,1520,11.7879,-2.75485
448,-496,12.2146,2.18494,0,0,0,0,0,0,0,-1,1672,1520,12.2146,-2.18489
455,-496,12.3489,1.65173,0,0,0,0,0,0,0,-1,1679,1520,12.3489,-1.65178
462,-496,12.1912,1.32361,0,0,0,0,0,0,0,-1,1686,1520,12.1911,-1.32357
469,-496,14.8138,5.77954,0,0,0,0,0,0,0,-1,1693,1520,14.8138,-5.77958
476,-496,15.2449,6.27942,0,0,0,0,0,0,0,-1,1700,1520,15.2449,-6.27936
483,-496,9.19812,6.88367,0,0,0,0,0,0,0,-1,1707,1520,9.19812,-6.88361
490,-496,10.2123,7.97144,0,0,0,0,0,0,0,-1,1714,1520,10.2122,-7.97145
497,-496,13.9297,12.2981,0,0,0,0,0,0,0,-1,1721,1520,13.9297,-12.2982
504,-496,16.3271,16.6501,0,0,0,0,0,0,0,-1,1728,1520,16.3272,-16.6502
511,-496,17.6753,18.0685,0,0,0,0,0,0,0,-1,1735,1520,17.6753,-18.0685
518,-496,17.0537,17.3118,0,0,0,0,0,0,0,-1,1742,1520,17.0538,-17.3118
525,-496,18.2721,19.3259,0,0,0,0,0,0,0,-1,1749,1520,18.2721,-19.3259
532,-496,18.0651,20.2014,0,0,0,0,0,0,0,-1,1756,1520,18.0651,-20.2014
539,-496,18.3466,19.5371,0.00307234,0.00246828,-0.00172948,0.00452596,0.00101465,-0.698953,0.00274239,0.0268341,1763,1520,18.3465,-19.5371
546,-496,18.2725,19.0731,0.0023725,0.00187962,-0.00125393,0.00340398,0.000848145,-0.688367,0.00204606,0.0135749,1770,1520,18.2725,-19.0731
553,-496,18.322,18.5803,0.00194368,0.00147289,-0.000958015,0.0026948,0.000721775,-0.664928,0.00161078,0.0158283,1777,1520,18.3221,-18.5803
560,-496,18.3407,18.1355,0.00167394,0.00124813,-0.000831027,0.0023189,0.000603165,-0.659997,0.00138923,0.0145914,1784,1520,18.3407,-18.1355
567,-496,18.3417,17.688,0.0016782,0.000807079,-0.000766675,0.0021244,0.000360877,-0.527076,0.00131261,0.0114626,1791,1520,18.3417,-17.688
574,-496,18.3258,17.2567,0.00211609,0.000652124,-0.00104474,0.00265975,0.000108458,-0.479822,0.00173815,0.0125015,1798,1520,18.3258,-17.2567
581,-496,18.3116,16.8563,0.00274875,0.000344431,-0.00141014,0.00339962,-0.000306432,-0.432424,0.00237515,0.0124365,1805,1520,18.3117,-16.8563
588,-496,18.3002,16.4381,0.00378141,0.000189529,-0.00199476,0.00466958,-0.000698648,-0.4189,0.00337016,0.0141512,1812,1520,18.3002,-16.4381
595,-496,18.276,16.005,0.00530289,2.60404e-05,-0.00278373,0.00649989,-0.00117096,-0.406095,0.00477171,0.0163464,1819,1520,18.276,-16.005
602,-496,18.2671,15.5317,0.00717777,-0.000100037,-0.00380966,0.00880718,-0.00172945,-0.404159,0.00652479,0.0184191,1826,1520,18.2671,-15.5317
609,-496,18.2621,15.056,0.00953042,-0.000237128,-0.00505288,0.0116739,-0.00238064,-0.401207,0.00868562,0.0164018,1833,1520,18.2621,-15.056
616,-496,18.3081,14.5228,0.0123941,-0.000279624,-0.00651151,0.0151432,-0.00302878,-0.399496,0.0112419,0.0303245,1840,1520,18.3081,-14.5228
623,-496,18.2638,14.1924,0.0159512,-0.000307288,-0.00820252,0.0193704,-0.00372646,-0.394943,0.0143183,0.0484198,1847,1520,18.2638,-14.1923
630,-496,18.4304,13.8125,0,0,0,0,0,0,0,-1,1854,1520,18.4304,-13.8125
637,-496,14.6411,10.1016,0,0,0,0,0,0,0,-1,1861,1520,14.6411,-10.1016
644,-496,12.4537,10.087,0,0,0,0,0,0,0,-1,1868,1520,12.4537,-10.0871
651,-496,8.18506,5.47803,0,0,0,0,0,0,0,-1,1875,1520,8.18505,-5.47806
658,-496,7.79993,4.02563,0,0,0,0,0,0,0,-1,1882,1520,7.79997,-4.02568
665,-496,5.47583,7.90625,0,0,0,0,0,0,0,-1,1889,1520,5.47581,-7.90628
672,-496,0,0,0,0,0,0,0,0,0,-1,1896,1520,0,0
679,-496,0,0,0,0,0,0,0,0,0,-1,1903,1520,0,0
686,-496,0,0,0,0,0,0,0,0,0,-1,1910,1520,0,0
693,-496,0,0,0,0,0,0,0,0,0,-1,1917,1520,0,0
700,-496,0,0,0,0,0,0,0,0,0,-1,1924,1520,0,0
707,-496,0,0,0,0,0,0,0,0,0,-1,1931,1520,0,0
714,-496,0,0,0,0,0,0,0,0,0,-1,1938,1520,0,0
721,-496,0,0,0,0,0,0,0,0,0,-1,1945,1520,0,0
728,-496,0,0,0,0,0,0,0,0,0,-1,1952,1520,0,0
735,-496,0,0,0,0,0,0,0,0,0,-1,1959,1520,0,0
742,-496,0,0,0,0,0,0,0,0,0,-1,1966,1520,0,0
749,-496,0,0,0,0,0,0,0,0,0,-1,1973,1520,0,0
756,-496,0,0,0,0,0,0,0,0,0,-1,1980,1520,0,0
763,-496,0,0,0,0,0,0,0,0,0,-1,1987,1520,0,0
770,-496,0,0,0,0,0,0,0,0,0,-1,1994,1520,0,0
777,-496,0,0,0,0,0,0,0,0,0,-1,2001,1520,0,0
784,-496,0,0,0,0,0,0,0,0,0,-1,2008,1520,0,0
791,-496,0,0,0,0,0,0,0,0,0,-1,2015,1520,0,0
798,-496,0,0,0,0,0,0,0,0,0,-1,2022,1520,0,0
805,-496,0,0,0,0,0,0,0,0,0,-1,2029,1520,0,0
812,-496,0,0,0,0,0,0,0,0,0,-1,2036,1520,0,0
-700,-503,0,0,0,0,0,0,0,0,0,-1,524,1527,0,0
-693,-503,0,0,0,0,0,0,0,0,0,-1,531,1527,0,0
-686,-503,0,0,0,0,0,0,0,0,0,-1,538,1527,0,0
-679,-503,0,0,0,0,0,0,0,0,0,-1,545,1527,0,0
-672,-503,0,0,0,0,0,0,0,0,0,-1,552,1527,0,0
-665,-503,0,0,0,0,0,0,0,0,0,-1,559,1527,0,0
-658,-503,0,0,0,0,0,0,0,0,0,-1,566,1527,0,0
-651,-503,0,0,0,0,0,0,0,0,0,-1,573,1527,0,0
-644,-503,0,0,0,0,0,0,0,0,0,-1,580,1527,0,0
-637,-503,0,0,0,0,0,0,0,0,0,-1,587,1527,0,0
-630,-503,0,0,0,0,0,0,0,0,0,-1,594,1527,0,0
-623,-503,0,0,0,0,0,0,0,0,0,-1,601,1527,0,0
-616,-503,0,0,0,0,0,0,0,0,0,-1,608,1527,0,0
-609,-503,0,0,0,0,0,0,0,0,0,-1,615,1527,0,0
-602,-503,0,0,0,0,0,0,0,0,0,-1,622,1527,0,0
-595,-503,0,0,0,0,0,0,0,0,0,-1,629,1527,0,0
-588,-503,0,0,0,0,0,0,0,0,0,-1,636,1527,0,0
-581,-503,0,0,0,0,0,0,0,0,0,-1,643,1527,0,0
-574,-503,0,0,0,0,0,0,0,0,0,-1,650,1527,0,0
-567,-503,0,0,0,0,0,0,0,0,0,-1,657,1527,0,0
-560,-503,0,0,0,0,0,0,0,0,0,-1,664,1527,0,0
-553,-503,0,0,0,0,0,0,0,0,0,-1,671,1527,0,0
-546,-503,0,0,0,0,0,0,0,0,0,-1,678,1527,0,0
-539,-503,3.50177,4.26428,0,0,0,0,0,0,0,-1,685,1527,3.50177,-4.26424
-532,-503,-3.13196,1.05298,0,0,0,0,0,0,0,-1,692,1527,-3.13194,-1.05299
-525,-503,-2.94293,2.59314,0,0,0,0,0,0,0,-1,699,1527,-2.94296,-2.59314
-518,-503,-2.7395,4.05872,0,0,0,0,0,0,0,-1,706,1527,-2.73948,-4.05871
-511,-503,-1.60022,7.23877,0,0,0,0,0,0,0,-1,713,1527,-1.60023,-7.23872
-504,-503,-4.64294,10.7301,0,0,0,0,0,0,0,-1,720,1527,-4.64292,-10.7301
-497,-503,-4.0116,11.5967,0,0,0,0,0,0,0,-1,727,1527,-4.01158,-11.5967
-490,-503,-3.23755,13.0322,0,0,0,0,0,0,0,-1,734,1527,-3.23756,-13.0322
-483,-503,-3.36035,13.2635,-0.00261977,-0.00215344,-0.0104218,0.00803782,-0.012811,-0.796583,0.0121418,0.0480956,741,1527,-3.36037,-13.2635
-476,-503,-3.46429,13.5901,-0.00214252,-0.00255878,-0.00792237,0.00557446,-0.0102757,-0.772266,0.00928433,0.0249886,748,1527,-3.46428,-13.5901
-469,-503,-3.5426,14.0028,-0.00162047,-0.00246067,-0.0057698,0.00374451,-0.00782564,-0.749057,0.00681714,0.0117551,755,1527,-3.5426,-14.0028
-462,-503,-3.54572,14.4979,-0.000955645,-0.00205623,-0.00385626,0.00238939,-0.00540126,-0.714526,0.00460862,0.011871,762,1527,-3.54572,-14.4979
-455,-503,-3.5545,14.9929,-0.000206107,-0.00143529,-0.00216764,0.00143239,-0.00307378,-0.647259,0.00265855,0.0171635,769,1527,-3.55452,-14.9929
-448,-503,-3.56769,15.4518,0.000670513,-0.000721487,-0.000682338,0.000949193,-0.00100017,-0.387743,0.00112559,0.0168052,776,1527,-3.56771,-15.4518
-441,-503,-3.5885,15.9075,0.0016654,0.000284989,0.000774006,0.00201224,-6.18537e-05,0.421284,0.00136258,0.0137546,783,1527,-3.58853,-15.9075
-434,-503,-3.61115,16.3586,0.00279416,0.00140114,0.00229267,0.00449378,-0.000298481,0.637929,0.00310014,0.0117735,790,1527,-3.61112,-16.3587
-427,-503,-3.62872,16.8202,0.00410809,0.00291831,0.00372241,0.00728285,-0.000256448,0.706162,0.00494294,0.0181822,797,1527,-3.62873,-16.8202
-420,-503,-3.6217,17.313,0.00556125,0.00441171,0.00512445,0.0101431,-0.000170102,0.72955,0.00681945,0.0182535,804,1527,-3.62169,-17.313
-413,-503,-3.62396,17.7965,0.00725441,0.00605268,0.00678582,0.0134659,-0.000158817,0.74124,0.00903068,0.0141744,811,1527,-3.62399,-17.7965
-406,-503,-3.61615,18.2731,0.00917864,0.0080405,0.00865777,0.017286,-6.68857e-05,0.752581,0.0115464,0.0229178,818,1527,-3.61612,-18.2731
-399,-503,-3.47308,18.9216,0.0113375,0.0106743,0.010815,0.021826,0.000185827,0.770072,0.0144891,0.037916,825,1527,-3.47308,-18.9217
-392,-503,-3.21539,19.7473,0,0,0,0,0,0,0,-1,832,1527,-3.21541,-19.7473
-385,-503,-2.00403,14.1218,0,0,0,0,0,0,0,-1,839,1527,-2.00403,-14.1218
-378,-503,-2.07043,13.8632,0,0,0,0,0,0,0,-1,846,1527,-2.07043,-13.8631
-371,-503,-1.67285,13.8081,0,0,0,0,0,0,0,-1,853,1527,-1.67285,-13.8081
-364,-503,0.181396,12.3768,0,0,0,0,0,0,0,-1,860,1527,0.18138,-12.3768
-357,-503,0.558533,9.25452,0,0,0,0,0,0,0,-1,867,1527,0.558542,-9.25446
-350,-503,0.219971,6.84827,0,0,0,0,0,0,0,-1,874,1527,0.21996,-6.84831
-343,-503,-3.5802,4.43274,0,0,0,0,0,0,0,-1,881,1527,-3.58018,-4.43276
-336,-503,-3.2384,6.40637,0,0,0,0,0,0,0,-1,888,1527,-3.2384,-6.40643
-329,-503,-1.70691,11.886,0,0,0,0,0,0,0,-1,895,1527,-1.70689,-11.886
-322,-503,-3.31317,8.81519,0,0,0,0,0,0,0,-1,902,1527,-3.31315,-8.81524
-315,-503,-3.90265,7.73853,0,0,0,0,0,0,0,-1,909,1527,-3.90264,-7.73854
-308,-503,-1.70264,7.35413,0,0,0,0,0,0,0,-1,916,1527,-1.70262,-7.35416
-301,-503,0,0,0,0,0,0,0,0,0,-1,923,1527,0,0
-294,-503,0,0,0,0,0,0,0,0,0,-1,930,1527,0,0
-287,-503,0,0,0,0,0,0,0,0,0,-1,937,1527,0,0
-280,-503,0,0,0,0,0,0,0,0,0,-1,944,1527,0,0
-273,-503,0,0,0,0,0,0,0,0,0,-1,951,1527,0,0
-266,-503,0,0,0,0,0,0,0,0,0,-1,958,1527,0,0
-259,-503,0,0,0,0,0,0,0,0,0,-1,965,1527,0,0
-252,-503,0,0,0,0,0,0,0,0,0,-1,972,1527,0,0
-245,-503,0,0,0,0,0,0,0,0,0,-1,979,1527,0,0
-238,-503,0,0,0,0,0,0,0,0,0,-1,986,1527,0,0
-231,-503,0,0,0,0,0,0,0,0,0,-1,993,1527,0,0
-224,-503,0,0,0,0,0,0,0,0,0,-1,1000,1527,0,0
-217,-503,0,0,0,0,0,0,0,0,0,-1,1007,1527,0,0
-210,-503,0,0,0,0,0,0,0,0,0,-1,1014,1527,0,0
-203,-503,0,0,0,0,0,0,0,0,0,-1,1021,1527,0,0
-196,-503,0,0,0,0,0,0,0,0,0,-1,1028,1527,0,0
-189,-503,0,0,0,0,0,0,0,0,0,-1,1035,1527,0,0
-182,-503,0,0,0,0,0,0,0,0,0,-1,1042,1527,0,0
-175,-503,0,0,0,0,0,0,0,0,0,-1,1049,1527,0,0
-168,-503,0,0,0,0,0,0,0,0,0,-1,1056,1527,0,0
-161,-503,0,0,0,0,0,0,0,0,0,-1,1063,1527,0,0
-154,-503,0,0,0,0,0,0,0,0,0,-1,1070,1527,0,0
-147,-503,0,0,0,0,0,0,0,0,0,-1,1077,1527,0,0
-140,-503,0,0,0,0,0,0,0,0,0,-1,1084,1527,0,0
-133,-503,0,0,0,0,0,0,0,0,0,-1,1091,1527,0,0
-126,-503,0,0,0,0,0,0,0,0,0,-1,1098,1527,0,0
-119,-503,0,0,0,0,0,0,0,0,0,-1,1105,1527,0,0
-112,-503,0,0,0,0,0,0,0,0,0,-1,1112,1527,0,0
-105,-503,0,0,0,0,0,0,0,0,0,-1,1119,1527,0,0
-98,-503,0,0,0,0,0,0,0,0,0,-1,1126,1527,0,0
-91,-503,0,0,0,0,0,0,0,0,0,-1,1133,1527,0,0
-84,-503,0,0,0,0,0,0,0,0,0,-1,1140,1527,0,0
-77,-503,0,0,0,0,0,0,0,0,0,-1,1147,1527,0,0
-70,-503,0,0,0,0,0,0,0,0,0,-1,1154,1527,0,0
-63,-503,0,0,0,0,0,0,0,0,0,-1,1161,1527,0,0
-56,-503,0,0,0,0,0,0,0,0,0,-1,1168,1527,0,0
-49,-503,0,0,0,0,0,0,0,0,0,-1,1175,1527,0,0
-42,-503,0,0,0,0,0,0,0,0,0,-1,1182,1527,0,0
-35,-503,0,0,0,0,0,0,0,0,0,-1,1189,1527,0,0
-28,-503,0,0,0,0,0,0,0,0,0,-1,1196,1527,0,0
-21,-503,0,0,0,0,0,0,0,0,0,-1,1203,1527,0,0
-14,-503,0,0,0,0,0,0,0,0,0,-1,1210,1527,0,0
-7,-503,0,0,0,0,0,0,0,0,0,-1,1217,1527,0,0
0,-503,0,0,0,0,0,0,0,0,0,-1,1224,1527,0,0
7,-503,0,0,0,0,0,0,0,0,0,-1,1231,1527,0,0
14,-503,0,0,0,0,0,0,0,0,0,-1,1238,1527,0,0
21,-503,0,0,0,0,0,0,0,0,0,-1,1245,1527,0,0
28,-503,0,0,0,0,0,0,0,0,0,-1,1252,1527,0,0
35,-503,0,0,0,0,0,0,0,0,0,-1,1259,1527,0,0
42,-503,0,0,0,0,0,0,0,0,0,-1,1266,1527,0,0
49,-503,0,0,0,0,0,0,0,0,0,-1,1273,1527,0,0
56,-503,0,0,0,0,0,0,0,0,0,-1,1280,1527,0,0
63,-503,0,0,0,0,0,0,0,0,0,-1,1287,1527,0,0
70,-503,0,0,0,0,0,0,0,0,0,-1,1294,1527,0,0
77,-503,0,0,0,0,0,0,0,0,0,-1,1301,1527,0,0
84,-503,0,0,0,0,0,0,0,0,0,-1,1308,1527,0,0
91,-503,0,0,0,0,0,0,0,0,0,-1,1315,1527,0,0
98,-503,0,0,0,0,0,0,0,0,0,-1,1322,1527,0,0
105,-503,0,0,0,0,0,0,0,0,0,-1,1329,1527,0,0
112,-503,0,0,0,0,0,0,0,0,0,-1,1336,1527,0,0
119,-503,0,0,0,0,0,0,0,0,0,-1,1343,1527,0,0
126,-503,0,0,0,0,0,0,0,0,0,-1,1350,1527,0,0
133,-503,0,0,0,0,0,0,0,0,0,-1,1357,1527,0,0
140,-503,0,0,0,0,0,0,0,0,0,-1,1364,1527,0,0
147,-503,0,0,0,0,0,0,0,0,0,-1,1371,1527,0,0
154,-503,0,0,0,0,0,0,0,0,0,-1,1378,1527,0,0
161,-503,0,0,0,0,0,0,0,0,0,-1,1385,1527,0,0
168,-503,0,0,0,0,0,0,0,0,0,-1,1392,1527,0,0
175,-503,0,0,0,0,0,0,0,0,0,-1,1399,1527,0,0
182,-503,0,0,0,0,0,0,0,0,0,-1,1406,1527,0,0
189,-503,0,0,0,0,0,0,0,0,0,-1,1413,1527,0,0
196,-503,0,0,0,0,0,0,0,0,0,-1,1420,1527,0,0
203,-503,0,0,0,0,0,0,0,0,0,-1,1427,1527,0,0
210,-503,0,0,0,0,0,0,0,0,0,-1,1434,1527,0,0
217,-503,0,0,0,0,0,0,0,0,0,-1,1441,1527,0,0
224,-503,0,0,0,0,0,0,0,0,0,-1,1448,1527,0,0
231,-503,0,0,0,0,0,0,0,0,0,-1,1455,1527,0,0
238,-503,0,0,0,0,0,0,0,0,0,-1,1462,1527,0,0
245,-503,0,0,0,0,0,0,0,0,0,-1,1469,1527,0,0
252,-503,0,0,0,0,0,0,0,0,0,-1,1476,1527,0,0
259,-503,0,0,0,0,0,0,0,0,0,-1,1483,1527,0,0
266,-503,0,0,0,0,0,0,0,0,0,-1,1490,1527,0,0
273,-503,0,0,0,0,0,0,0,0,0,-1,1497,1527,0,0
280,-503,0,0,0,0,0,0,0,0,0,-1,1504,1527,0,0
287,-503,0,0,0,0,0,0,0,0,0,-1,1511,1527,0,0
294,-503,0,0,0,0,0,0,0,0,0,-1,1518,1527,0,0
301,-503,0,0,0,0,0,0,0,0,0,-1,1525,1527,0,0
308,-503,0,0,0,0,0,0,0,0,0,-1,1532,1527,0,0
315,-503,0,0,0,0,0,0,0,0,0,-1,1539,1527,0,0
322,-503,0,0,0,0,0,0,0,0,0,-1,1546,1527,0,0
329,-503,0,0,0,0,0,0,0,0,0,-1,1553,1527,0,0
336,-503,0,0,0,0,0,0,0,0,0,-1,1560,1527,0,0
343,-503,0,0,0,0,0,0,0,0,0,-1,1567,1527,0,0
350,-503,0,0,0,0,0,0,0,0,0,-1,1574,1527,0,0
357,-503,0,0,0,0,0,0,0,0,0,-1,1581,1527,0,0
364,-503,0,0,0,0,0,0,0,0,0,-1,1588,1527,0,0
371,-503,0,0,0,0,0,0,0,0,0,-1,1595,1527,0,0
378,-503,0,0,0,0,0,0,0,0,0,-1,1602,1527,0,0
385,-503,0,0,0,0,0,0,0,0,0,-1,1609,1527,0,0
392,-503,0,0,0,0,0,0,0,0,0,-1,1616,1527,0,0
399,-503,0,0,0,0,0,0,0,0,0,-1,1623,1527,0,0
406,-503,0,0,0,0,0,0,0,0,0,-1,1630,1527,0,0
413,-503,0,0,0,0,0,0,0,0,0,-1,1637,1527,0,0
420,-503,0,0,0,0,0,0,0,0,0,-1,1644,1527,0,0
427,-503,10.5968,4.9856,0,0,0,0,0,0,0,-1,1651,1527,10.5969,-4.98563
434,-503,11.4329,3.97217,0,0,0,0,0,0,0,-1,1658,1527,11.4328,-3.97222
441,-503,12.0957,2.96509,0,0,0,0,0,0,0,-1,1665,1527,12.0957,-2.96512
448,-503,12.3259,2.53894,0,0,0,0,0,0,0,-1,1672,1527,12.326,-2.53895
455,-503,12.1669,2.18762,0,0,0,0,0,0,0,-1,1679,1527,12.1668,-2.18767
462,-503,11.59,2.60791,0,0,0,0,0,0,0,-1,1686,1527,11.5899,-2.60794
469,-503,11.1625,1.61853,0,0,0,0,0,0,0,-1,1693,1527,11.1625,-1.61856
476,-503,9.07703,5.81042,0,0,0,0,0,0,0,-1,1700,1527,9.07699,-5.81047
483,-503,9.74414,6.92432,0,0,0,0,0,0,0,-1,1707,1527,9.74417,-6.9243
490,-503,10.5033,10.1071,0,0,0,0,0,0,0,-1,1714,1527,10.5032,-10.107
497,-503,15.0057,17.9476,0,0,0,0,0,0,0,-1,1721,1527,15.0058,-17.9476
504,-503,16.4764,18.4486,0,0,0,0,0,0,0,-1,1728,1527,16.4764,-18.4486
511,-503,16.8276,18.3271,0,0,0,0,0,0,0,-1,1735,1527,16.8276,-18.3272
518,-503,17.2533,18.2738,0,0,0,0,0,0,0,-1,1742,1527,17.2533,-18.2738
525,-503,17.6675,20.5211,0,0,0,0,0,0,0,-1,1749,1527,17.6674,-20.5212
532,-503,17.7852,20.0209,0.0040979,0.0033429,-0.00233897,0.00608964,0.00135116,-0.70539,0.00369271,0.0311649,1756,1527,17.7851,-20.0209
539,-503,17.8781,19.4974,0.00303316,0.00266295,-0.00175428,0.00461207,0.00108404,-0.732835,0.00278461,0.0172401,1763,1527,17.878,-19.4975
546,-503,17.8837,19.0087,0.00236813,0.00196791,-0.00128633,0.00346982,0.000866223,-0.708233,0.00208533,0.0122208,1770,1527,17.8836,-19.0087
553,-503,17.9,18.595,0.00195003,0.00144864,-0.000975434,0.00270647,0.000692202,-0.659615,0.00162354,0.0148085,1777,1527,17.9,-18.595
560,-503,17.9038,18.1621,0.00171055,0.00113186,-0.000834017,0.00230399,0.000538424,-0.618432,0.00139168,0.0141268,1784,1527,17.9038,-18.1621
567,-503,17.9009,17.7014,0.00189003,0.000550024,-0.000796844,0.00226111,0.000178939,-0.435828,0.00145144,0.0116534,1791,1527,17.9009,-17.7014
574,-503,17.8925,17.2719,0.00255452,0.000432878,-0.00121951,0.00311003,-0.000122636,-0.427438,0.00211542,0.0127537,1798,1527,17.8925,-17.2719
581,-503,17.8545,16.869,0.00342246,0.000158383,-0.00171047,0.00415459,-0.000573738,-0.404429,0.00297944,0.0136886,1805,1527,17.8545,-16.869
588,-503,17.838,16.4559,0.00478549,6.4191e-05,-0.00250457,0.00586657,-0.00101689,-0.407485,0.00429037,0.0159033,1812,1527,17.838,-16.4559
595,-503,17.8427,16.0095,0.00671396,-7.418e-05,-0.00354758,0.00822957,-0.0015898,-0.403754,0.00608593,0.0128004,1819,1527,17.8426,-16.0095
602,-503,17.8962,15.5133,0.00914387,-5.57282e-05,-0.00494343,0.0112965,-0.00220838,-0.410695,0.00836489,0.0248245,1826,1527,17.8963,-15.5133
609,-503,17.8718,15.027,0,0,0,0,0,0,0,-1,1833,1527,17.8718,-15.027
616,-503,17.7368,14.8958,0.0161713,5.98263e-05,-0.00884809,0.0200815,-0.00385037,-0.416119,0.0148386,0.0434006,1840,1527,17.7368,-14.8958
623,-503,18.2618,13.9269,0.0211128,0.000226924,-0.0114556,0.026171,-0.00483127,-0.415804,0.0192608,0.0458616,1847,1527,18.2618,-13.9269
630,-503,19.073,13.026,0,0,0,0,0,0,0,-1,1854,1527,19.073,-13.026
637,-503,14.5564,9.20496,0,0,0,0,0,0,0,-1,1861,1527,14.5564,-9.2049
644,-503,11.4802,7.57214,0,0,0,0,0,0,0,-1,1868,1527,11.4802,-7.57215
651,-503,11.5718,6.5448,0,0,0,0,0,0,0,-1,1875,1527,11.5718,-6.54476
658,-503,8.25635,3.10498,0,0,0,0,0,0,0,-1,1882,1527,8.2563,-3.10493
665,-503,0,0,0,0,0,0,0,0,0,-1,1889,1527,0,0
672,-503,0,0,0,0,0,0,0,0,0,-1,1896,1527,0,0
679,-503,0,0,0,0,0,0,0,0,0,-1,1903,1527,0,0
686,-503,0,0,0,0,0,0,0,0,0,-1,1910,1527,0,0
693,-503,0,0,0,0,0,0,0,0,0,-1,1917,1527,0,0
700,-503,0,0,0,0,0,0,0,0,0,-1,1924,1527,0,0
707,-503,0,0,0,0,0,0,0,0,0,-1,1931,1527,0,0
714,-503,0,0,0,0,0,0,0,0,0,-1,1938,1527,0,0
721,-503,0,0,0,0,0,0,0,0,0,-1,1945,1527,0,0
728,-503,0,0,0,0,0,0,0,0,0,-1,1952,1527,0,0
735,-503,0,0,0,0,0,0,0,0,0,-1,1959,1527,0,0
742,-503,0,0,0,0,0,0,0,0,0,-1,1966,1527,0,0
749,-503,0,0,0,0,0,0,0,0,0,-1,1973,1527,0,0
756,-503,0,0,0,0,0,0,0,0,0,-1,1980,1527,0,0
763,-503,0,0,0,0,0,0,0,0,0,-1,1987,1527,0,0
770,-503,0,0,0,0,0,0,0,0,0,-1,1994,1527,0,0
777,-503,0,0,0,0,0,0,0,0,0,-1,2001,1527,0,0
784,-503,0,0,0,0,0,0,0,0,0,-1,2008,1527,0,0
791,-503,0,0,0,0,0,0,0,0,0,-1,2015,1527,0,0
798,-503,0,0,0,0,0,0,0,0,0,-1,2022,1527,0,0
805,-503,0,0,0,0,0,0,0,0,0,-1,2029,1527,0,0
812,-503,0,0,0,0,0,0,0,0,0,-1,2036,1527,0,0
-700,-510,0,0,0,0,0,0,0,0,0,-1,524,1534,0,0
-693,-510,0,0,0,0,0,0,0,0,0,-1,531,1534,0,0
-686,-510,0,0,0,0,0,0,0,0,0,-1,538,1534,0,0
-679,-510,0,0,0,0,0,0,0,0,0,-1,545,1534,0,0
-672,-510,0,0,0,0,0,0,0,0,0,-1,552,1534,0,0
-665,-510,0,0,0,0,0,0,0,0,0,-1,559,1534,0,0
-658,-510,0,0,0,0,0,0,0,0,0,-1,566,1534,0,0
-651,-510,0,0,0,0,0,0,0,0,0,-1,573,1534,0,0
-644,-510,0,0,0,0,0,0,0,0,0,-1,580,1534,0,0
-637,-510,0,0,0,0,0,0,0,0,0,-1,587,1534,0,0
-630,-510,0,0,0,0,0,0,0,0,0,-1,594,1534,0,0
-623,-510,0,0,0,0,0,0,0,0,0,-1,601,1534,0,0
-616,-510,0,0,0,0,0,0,0,0,0,-1,608,1534,0,0
-609,-510,0,0,0,0,0,0,0,0,0,-1,615,1534,0,0
-602,-510,0,0,0,0,0,0,0,0,0,-1,622,1534,0,0
-595,-510,0,0,0,0,0,0,0,0,0,-1,629,1534,0,0
-588,-510,0,0,0,0,0,0,0,0,0,-1,636,1534,0,0
-581,-510,0,0,0,0,0,0,0,0,0,-1,643,1534,0,0
-574,-510,0,0,0,0,0,0,0,0,0,-1,650,1534,0,0
-567,-510,0,0,0,0,0,0,0,0,0,-1,657,1534,0,0
-560,-510,0,0,0,0,0,0,0,0,0,-1,664,1534,0,0
-553,-510,0,0,0,0,0,0,0,0,0,-1,671,1534,0,0
-546,-510,0,0,0,0,0,0,0,0,0,-1,678,1534,0,0
-539,-510,0,0,0,0,0,0,0,0,0,-1,685,1534,0,0
-532,-510,-3.95129,4.52014,0,0,0,0,0,0,0,-1,692,1534,-3.95131,-4.5202
-525,-510,-2.77411,0.316772,0,0,0,0,0,0,0,-1,699,1534,-2.77409,-0.3168
-518,-510,-2.86847,2.71423,0,0,0,0,0,0,0,-1,706,1534,-2.86849,-2.71424
-511,-510,-2.28571,4.48083,0,0,0,0,0,0,0,-1,713,1534,-2.28571,-4.48086
-504,-510,-4.86731,10.8224,0,0,0,0,0,0,0,-1,720,1534,-4.8673,-10.8224
-497,-510,-2.96198,13.4125,0,0,0,0,0,0,0,-1,727,1534,-2.96196,-13.4125
-490,-510,-2.96838,13.5034,-0.00184992,-8.90661e-06,-0.0162539,0.0153505,-0.0172094,-0.813684,0.0188087,0.0466274,734,1534,-2.96837,-13.5035
-483,-510,-2.81995,13.485,-0.00185146,-0.00176289,-0.0126923,0.0108852,-0.0144996,-0.787143,0.0147054,0.0437795,741,1534,-2.81993,-13.4849
-476,-510,-2.8313,13.54,-0.00175609,-0.00254493,-0.00962727,0.00748484,-0.0117859,-0.764925,0.0112179,0.0368702,748,1534,-2.8313,-13.5401
-469,-510,-3.06042,14.0269,-0.00159732,-0.0026797,-0.00712973,0.00501173,-0.00928875,-0.747518,0.00837857,0.0147975,755,1534,-3.06043,-14.0269
-462,-510,-3.07928,14.5142,-0.00122374,-0.00241153,-0.00500229,0.00321978,-0.00685506,-0.726312,0.00594159,0.0115678,762,1534,-3.07925,-14.5141
-455,-510,-3.09613,15.0183,-0.000735126,-0.0018921,-0.00320558,0.00194375,-0.00457098,-0.696128,0.00386188,0.014178,769,1534,-3.09612,-15.0183
-448,-510,-3.09888,15.4806,-0.000121561,-0.00127022,-0.00170404,0.00110233,-0.00249411,-0.622856,0.0021276,0.0134232,776,1534,-3.09888,-15.4806
-441,-510,-3.11652,15.9282,0.00063428,-0.000364295,-0.00030058,0.000717775,-0.000447791,-0.270951,0.000678931,0.0136606,783,1534,-3.11649,-15.9282
-434,-510,-3.14142,16.3719,0.00152466,0.000563673,0.0011726,0.0023114,-0.000223062,0.590949,0.00162041,0.0150308,790,1534,-3.1414,-16.372
-427,-510,-3.17401,16.8379,0.00262262,0.00199945,0.0025075,0.00483782,-0.00021575,0.723585,0.00329948,0.0232603,797,1534,-3.174,-16.8379
-420,-510,-3.1792,17.3085,0.00389016,0.00334361,0.00375393,0.00738074,-0.000146976,0.749063,0.00497021,0.0213037,804,1534,-3.17918,-17.3085
-413,-510,-3.17609,17.8098,0.0053268,0.00488228,0.00513581,0.0102452,-3.60808e-05,0.763774,0.00684216,0.0102506,811,1534,-3.17607,-17.8098
-406,-510,-3.19928,18.2651,0.00695321,0.00667191,0.0067148,0.0135288,9.62918e-05,0.774926,0.0089873,0.00989365,818,1534,-3.19929,-18.2651
-399,-510,-3.19299,18.7129,0.00873736,0.00896446,0.0084766,0.0173283,0.000373554,0.792096,0.0114297,0.0135725,825,1534,-3.19297,-18.7129
-392,-510,-3.03766,19.3712,0.0113671,0.00880656,0.0108192,0.0209815,-0.000807867,0.726505,0.0142646,0.0392273,832,1534,-3.03765,-19.3712
-385,-510,-2.76587,20.0922,0,0,0,0,0,0,0,-1,839,1534,-2.76588,-20.0922
-378,-510,-1.78308,13.8044,0,0,0,0,0,0,0,-1,846,1534,-1.78309,-13.8044
-371,-510,-1.74982,13.8027,0,0,0,0,0,0,0,-1,853,1534,-1.74981,-13.8028
-364,-510,-1.3479,13.7771,0,0,0,0,0,0,0,-1,860,1534,-1.34791,-13.7771
-357,-510,-0.254395,8.89575,0,0,0,0,0,0,0,-1,867,1534,-0.254397,-8.89569
-350,-510,0.471191,6.06458,0,0,0,0,0,0,0,-1,874,1534,0.47118,-6.06453
-343,-510,-2.94617,5.00989,0,0,0,0,0,0,0,-1,881,1534,-2.94615,-5.00992
-336,-510,-1.85938,19.839,0,0,0,0,0,0,0,-1,888,1534,-1.85937,-19.839
-329,-510,-4.87781,20.6893,0,0,0,0,0,0,0,-1,895,1534,-4.87782,-20.6894
-322,-510,-0.251526,11.973,0,0,0,0,0,0,0,-1,902,1534,-0.251497,-11.9731
-315,-510,-1.73047,10.9796,0,0,0,0,0,0,0,-1,909,1534,-1.73049,-10.9796
-308,-510,-2.05328,9.72034,0,0,0,0,0,0,0,-1,916,1534,-2.05327,-9.72036
-301,-510,-1.85437,11.5869,0,0,0,0,0,0,0,-1,923,1534,-1.85437,-11.5869
-294,-510,0,0,0,0,0,0,0,0,0,-1,930,1534,0,0
-287,-510,0,0,0,0,0,0,0,0,0,-1,937,1534,0,0
-280,-510,0,0,0,0,0,0,0,0,0,-1,944,1534,0,0
-273,-510,0,0,0,0,0,0,0,0,0,-1,951,1534,0,0
-266,-510,0,0,0,0,0,0,0,0,0,-1,958,1534,0,0
-259,-510,0,0,0,0,0,0,0,0,0,-1,965,1534,0,0
-252,-510,0,0,0,0,0,0,0,0,0,-1,972,1534,0,0
-245,-510,0,0,0,0,0,0,0,0,0,-1,979,1534,0,0
-238,-510,0,0,0,0,0,0,0,0,0,-1,986,1534,0,0
-231,-510,0,0,0,0,0,0,0,0,0,-1,993,1534,0,0
-224,-510,0,0,0,0,0,0,0,0,0,-1,1000,1534,0,0
-217,-510,0,0,0,0,0,0,0,0,0,-1,1007,1534,0,0
-210,-510,0,0,0,0,0,0,0,0,0,-1,1014,1534,0,0
-203,-510,0,0,0,0,0,0,0,0,0,-1,1021,1534,0,0
-196,-510,0,0,0,0,0,0,0,0,0,-1,1028,1534,0,0
-189,-510,0,0,0,0,0,0,0,0,0,-1,1035,1534,0,0
-182,-510,0,0,0,0,0,0,0,0,0,-1,1042,1534,0,0
-175,-510,0,0,0,0,0,0,0,0,0,-1,1049,1534,0,0
-168,-510,0,0,0,0,0,0,0,0,0,-1,1056,1534,0,0
-161,-510,0,0,0,0,0,0,0,0,0,-1,1063,1534,0,0
-154,-510,0,0,0,0,0,0,0,0,0,-1,1070,1534,0,0
-147,-510,0,0,0,0,0,0,0,0,0,-1,1077,1534,0,0
-140,-510,0,0,0,0,0,0,0,0,0,-1,1084,1534,0,0
-133,-510,0,0,0,0,0,0,0,0,0,-1,1091,1534,0,0
-126,-510,0,0,0,0,0,0,0,0,0,-1,1098,1534,0,0
-119,-510,0,0,0,0,0,0,0,0,0,-1,1105,1534,0,0
-112,-510,0,0,0,0,0,0,0,0,0,-1,1112,1534,0,0
-105,-510,0,0,0,0,0,0,0,0,0,-1,1119,1534,0,0
-98,-510,0,0,0,0,0,0,0,0,0,-1,1126,1534,0,0
-91,-510,0,0,0,0,0,0,0,0,0,-1,1133,1534,0,0
-84,-510,0,0,0,0,0,0,0,0,0,-1,1140,1534,0,0
-77,-510,0,0,0,0,0,0,0,0,0,-1,1147,1534,0,0
-70,-510,0,0,0,0,0,0,0,0,0,-1,1154,1534,0,0
-63,-510,0,0,0,0,0,0,0,0,0,-1,1161,1534,0,0
-56,-510,0,0,0,0,0,0,0,0,0,-1,1168,1534,0,0
-49,-510,0,0,0,0,0,0,0,0,0,-1,1175,1534,0,0
-42,-510,0,0,0,0,0,0,0,0,0,-1,1182,1534,0,0
-35,-510,0,0,0,0,0,0,0,0,0,-1,1189,1534,0,0
-28,-510,0,0,0,0,0,0,0,0,0,-1,1196,1534,0,0
-21,-510,0,0,0,0,0,0,0,0,0,-1,1203,1534,0,0
-14,-510,0,0,0,0,0,0,0,0,0,-1,1210,1534,0,0
-7,-510,0,0,0,0,0,0,0,0,0,-1,1217,1534,0,0
0,-510,0,0,0,0,0,0,0,0,0,-1,1224,1534,0,0
7,-510,0,0,0,0,0,0,0,0,0,-1,1231,1534,0,0
14,-510,0,0,0,0,0,0,0,0,0,-1,1238,1534,0,0
21,-510,0,0,0,0,0,0,0,0,0,-1,1245,1534,0,0
28,-510,0,0,0,0,0,0,0,0,0,-1,1252,1534,0,0
35,-510,0,0,0,0,0,0,0,0,0,-1,1259,1534,0,0
42,-510,0,0,0,0,0,0,0,0,0,-1,1266,1534,0,0
49,-510,0,0,0,0,0,0,0,0,0,-1,1273,1534,0,0
56,-510,0,0,0,0,0,0,0,0,0,-1,1280,1534,0,0
63,-510,0,0,0,0,0,0,0,0,0,-1,1287,1534,0,0
70,-510,0,0,0,0,0,0,0,0,0,-1,1294,1534,0,0
77,-510,0,0,0,0,0,0,0,0,0,-1,1301,1534,0,0
84,-510,0,0,0,0,0,0,0,0,0,-1,1308,1534,0,0
91,-510,0,0,0,0,0,0,0,0,0,-1,1315,1534,0,0
98,-510,0,0,0,0,0,0,0,0,0,-1,1322,1534,0,0
105,-510,0,0,0,0,0,0,0,0,0,-1,1329,1534,0,0
112,-510,0,0,0,0,0,0,0,0,0,-1,1336,1534,0,0
119,-510,0,0,0,0,0,0,0,0,0,-1,1343,1534,0,0
126,-510,0,0,0,0,0,0,0,0,0,-1,1350,1534,0,0
133,-510,0,0,0,0,0,0,0,0,0,-1,1357,1534,0,0
140,-510,0,0,0,0,0,0,0,0,0,-1,1364,1534,0,0
147,-510,0,0,0,0,0,0,0,0,0,-1,1371,1534,0,0
154,-510,0,0,0,0,0,0,0,0,0,-1,1378,1534,0,0
161,-510,0,0,0,0,0,0,0,0,0,-1,1385,1534,0,0
168,-510,0,0,0,0,0,0,0,0,0,-1,1392,1534,0,0
175,-510,0,0,0,0,0,0,0,0,0,-1,1399,1534,0,0
182,-510,0,0,0,0,0,0,0,0,0,-1,1406,1534,0,0
189,-510,0,0,0,0,0,0,0,0,0,-1,1413,1534,0,0
196,-510,0,0,0,0,0,0,0,0,0,-1,1420,1534,0,0
203,-510,0,0,0,0,0,0,0,0,0,-1,1427,1534,0,0
210,-510,0,0,0,0,0,0,0,0,0,-1,1434,1534,0,0
217,-510,0,0,0,0,0,0,0,0,0,-1,1441,1534,0,0
224,-510,0,0,0,0,0,0,0,0,0,-1,1448,1534,0,0
231,-510,0,0,0,0,0,0,0,0,0,-1,1455,1534,0,0
238,-510,0,0,0,0,0,0,0,0,0,-1,1462,1534,0,0
245,-510,0,0,0,0,0,0,0,0,0,-1,1469,1534,0,0
252,-510,0,0,0,0,0,0,0,0,0,-1,1476,1534,0,0
259,-510,0,0,0,0,0,0,0,0,0,-1,1483,1534,0,0
266,-510,0,0,0,0,0,0,0,0,0,-1,1490,1534,0,0
273,-510,0,0,0,0,0,0,0,0,0,-1,1497,1534,0,0
280,-510,0,0,0,0,0,0,0,0,0,-1,1504,1534,0,0
287,-510,0,0,0,0,0,0,0,0,0,-1,1511,1534,0,0
294,-510,0,0,0,0,0,0,0,0,0,-1,1518,1534,0,0
301,-510,0,0,0,0,0,0,0,0,0,-1,1525,1534,0,0
308,-510,0,0,0,0,0,0,0,0,0,-1,1532,1534,0,0
315,-510,0,0,0,0,0,0,0,0,0,-1,1539,1534,0,0
322,-510,0,0,0,0,0,0,0,0,0,-1,1546,1534,0,0
329,-510,0,0,0,0,0,0,0,0,0,-1,1553,1534,0,0
336,-510,0,0,0,0,0,0,0,0,0,-1,1560,1534,0,0
343,-510,0,0,0,0,0,0,0,0,0,-1,1567,1534,0,0
350,-510,0,0,0,0,0,0,0,0,0,-1,1574,1534,0,0
357,-510,0,0,0,0,0,0,0,0,0,-1,1581,1534,0,0
364,-510,0,0,0,0,0,0,0,0,0,-1,1588,1534,0,0
371,-510,0,0,0,0,0,0,0,0,0,-1,1595,1534,0,0
378,-510,0,0,0,0,0,0,0,0,0,-1,1602,1534,0,0
385,-510,0,0,0,0,0,0,0,0,0,-1,1609,1534,0,0
392,-510,0,0,0,0,0,0,0,0,0,-1,1616,1534,0,0
399,-510,0,0,0,0,0,0,0,0,0,-1,1623,1534,0,0
406,-510,0,0,0,0,0,0,0,0,0,-1,1630,1534,0,0
413,-510,0,0,0,0,0,0,0,0,0,-1,1637,1534,0,0
420,-510,14.1888,6.71936,0,0,0,0,0,0,0,-1,1644,1534,14.1889,-6.71939
427,-510,10.2134,5.59485,0,0,0,0,0,0,0,-1,1651,1534,10.2134,-5.59485
434,-510,11.8219,4.07898,0,0,0,0,0,0,0,-1,1658,1534,11.8219,-4.07895
441,-510,12.6812,3.02991,0,0,0,0,0,0,0,-1,1665,1534,12.6811,-3.0299
448,-510,13.2379,2.2804,0,0,0,0,0,0,0,-1,1672,1534,13.2379,-2.28037
455,-510,9.76892,2.20642,0,0,0,0,0,0,0,-1,1679,1534,9.76894,-2.20647
462,-510,9.84692,2.49182,0,0,0,0,0,0,0,-1,1686,1534,9.84695,-2.49185
469,-510,16.6072,7.26941,0,0,0,0,0,0,0,-1,1693,1534,16.6072,-7.26945
476,-510,15.9199,7.8645,0,0,0,0,0,0,0,-1,1700,1534,15.9199,-7.86455
483,-510,13.0833,8.10938,0,0,0,0,0,0,0,-1,1707,1534,13.0833,-8.10932
490,-510,13.0841,15.3286,0,0,0,0,0,0,0,-1,1714,1534,13.0841,-15.3286
497,-510,15.5652,18.823,0,0,0,0,0,0,0,-1,1721,1534,15.5652,-18.823
504,-510,15.998,18.7478,0,0,0,0,0,0,0,-1,1728,1534,15.998,-18.7478
511,-510,15.9443,18.0476,0,0,0,0,0,0,0,-1,1735,1534,15.9443,-18.0476
518,-510,17.5665,21.3137,0,0,0,0,0,0,0,-1,1742,1534,17.5666,-21.3137
525,-510,17.3954,20.5607,0.00509113,0.00431506,-0.00301406,0.00774202,0.00166416,-0.721379,0.00470576,0.0495986,1749,1534,17.3954,-20.5607
532,-510,17.4564,19.9388,0.00384465,0.00340651,-0.00232479,0.00596067,0.00129049,-0.738421,0.0036211,0.0201493,1756,1534,17.4564,-19.9388
539,-510,17.5061,19.4169,0.00291868,0.00265281,-0.00175063,0.00454142,0.00103007,-0.747504,0.00274935,0.0136794,1763,1534,17.5061,-19.4169
546,-510,17.4583,19.0309,0.00235219,0.00190608,-0.00130002,0.00344815,0.000810123,-0.700437,0.00208194,0.012398,1770,1534,17.4582,-19.0308
553,-510,17.4542,18.6017,0.0019967,0.00130365,-0.000975505,0.0026854,0.000614951,-0.614736,0.00162455,0.0134128,1777,1534,17.4542,-18.6017
560,-510,17.4624,18.1533,0.00182519,0.000897497,-0.000807578,0.00229266,0.000430036,-0.524718,0.00140717,0.0133164,1784,1534,17.4624,-18.1534
567,-510,17.4604,17.718,0.00217672,0.000202865,-0.000782411,0.00244924,-6.96492e-05,-0.33516,0.00165653,0.0121145,1791,1534,17.4604,-17.7181
574,-510,17.4526,17.2982,0.00305368,9.74571e-05,-0.00131518,0.00355408,-0.000402942,-0.363566,0.00251449,0.0132503,1798,1534,17.4526,-17.2983
581,-510,17.4211,16.9124,0.00416409,-0.000143995,-0.00191897,0.00489489,-0.000874801,-0.363874,0.00359056,0.0122483,1805,1534,17.4211,-16.9124
588,-510,17.4023,16.4724,0.00586829,-0.000189676,-0.00291655,0.00704418,-0.00136557,-0.383245,0.0052113,0.0126331,1812,1534,17.4023,-16.4724
595,-510,17.5219,15.9047,0.00821904,-0.000308557,-0.00421387,0.00994996,-0.00203948,-0.389755,0.00740732,0.0246952,1819,1534,17.5218,-15.9046
602,-510,17.5741,15.3778,0,0,0,0,0,0,0,-1,1826,1534,17.5741,-15.3779
609,-510,17.2866,14.8556,0,0,0,0,0,0,0,-1,1833,1534,17.2866,-14.8556
616,-510,17.317,15.0892,0,0,0,0,0,0,0,-1,1840,1534,17.3171,-15.0892
623,-510,17.9791,13.6173,0,0,0,0,0,0,0,-1,1847,1534,17.9791,-13.6173
630,-510,13.7461,9.30334,0,0,0,0,0,0,0,-1,1854,1534,13.7461,-9.30335
637,-510,11.0155,7.38464,0,0,0,0,0,0,0,-1,1861,1534,11.0155,-7.38463
644,-510,11.5809,7.17126,0,0,0,0,0,0,0,-1,1868,1534,11.5809,-7.17123
651,-510,8.70471,3.5061,0,0,0,0,0,0,0,-1,1875,1534,8.70475,-3.50611
658,-510,0,0,0,0,0,0,0,0,0,-1,1882,1534,0,0
665,-510,0,0,0,0,0,0,0,0,0,-1,1889,1534,0,0
672,-510,0,0,0,0,0,0,0,0,0,-1,1896,1534,0,0
679,-510,0,0,0,0,0,0,0,0,0,-1,1903,1534,0,0
686,-510,0,0,0,0,0,0,0,0,0,-1,1910,1534,0,0
693,-510,0,0,0,0,0,0,0,0,0,-1,1917,1534,0,0
700,-510,0,0,0,0,0,0,0,0,0,-1,1924,1534,0,0
707,-510,0,0,0,0,0,0,0,0,0,-1,1931,1534,0,0
714,-510,0,0,0,0,0,0,0,0,0,-1,1938,1534,0,0
721,-510,0,0,0,0,0,0,0,0,0,-1,1945,1534,0,0
728,-510,0,0,0,0,0,0,0,0,0,-1,1952,1534,0,0
735,-510,0,0,0,0,0,0,0,0,0,-1,1959,1534,0,0
742,-510,0,0,0,0,0,0,0,0,0,-1,1966,1534,0,0
749,-510,0,0,0,0,0,0,0,0,0,-1,1973,1534,0,0
756,-510,0,0,0,0,0,0,0,0,0,-1,1980,1534,0,0
763,-510,0,0,0,0,0,0,0,0,0,-1,1987,1534,0,0
770,-510,0,0,0,0,0,0,0,0,0,-1,1994,1534,0,0
777,-510,0,0,0,0,0,0,0,0,0,-1,2001,1534,0,0
784,-510,0,0,0,0,0,0,0,0,0,-1,2008,1534,0,0
791,-510,0,0,0,0,0,0,0,0,0,-1,2015,1534,0,0
798,-510,0,0,0,0,0,0,0,0,0,-1,2022,1534,0,0
805,-510,0,0,0,0,0,0,0,0,0,-1,2029,1534,0,0
812,-510,0,0,0,0,0,0,0,0,0,-1,2036,1534,0,0
-700,-517,0,0,0,0,0,0,0,0,0,-1,524,1541,0,0
-693,-517,0,0,0,0,0,0,0,0,0,-1,531,1541,0,0
-686,-517,0,0,0,0,0,0,0,0,0,-1,538,1541,0,0
-679,-517,0,0,0,0,0,0,0,0,0,-1,545,1541,0,0
-672,-517,0,0,0,0,0,0,0,0,0,-1,552,1541,0,0
-665,-517,0,0,0,0,0,0,0,0,0,-1,559,1541,0,0
-658,-517,0,0,0,0,0,0,0,0,0,-1,566,1541,0,0
-651,-517,0,0,0,0,0,0,0,0,0,-1,573,1541,0,0
-644,-517,0,0,0,0,0,0,0,0,0,-1,580,1541,0,0
-637,-517,0,0,0,0,0,0,0,0,0,-1,587,1541,0,0
-630,-517,0,0,0,0,0,0,0,0,0,-1,594,1541,0,0
-623,-517,0,0,0,0,0,0,0,0,0,-1,601,1541,0,0
-616,-517,0,0,0,0,0,0,0,0,0,-1,608,1541,0,0
-609,-517,0,0,0,0,0,0,0,0,0,-1,615,1541,0,0
-602,-517,0,0,0,0,0,0,0,0,0,-1,622,1541,0,0
-595,-517,0,0,0,0,0,0,0,0,0,-1,629,1541,0,0
-588,-517,0,0,0,0,0,0,0,0,0,-1,636,1541,0,0
-581,-517,0,0,0,0,0,0,0,0,0,-1,643,1541,0,0
-574,-517,0,0,0,0,0,0,0,0,0,-1,650,1541,0,0
-567,-517,0,0,0,0,0,0,0,0,0,-1,657,1541,0,0
-560,-517,0,0,0,0,0,0,0,0,0,-1,664,1541,0,0
-553,-517,0,0,0,0,0,0,0,0,0,-1,671,1541,0,0
-546,-517,0,0,0,0,0,0,0,0,0,-1,678,1541,0,0
-539,-517,0,0,0,0,0,0,0,0,0,-1,685,1541,0,0
-532,-517,0,0,0,0,0,0,0,0,0,-1,692,1541,0,0
-525,-517,-3.62903,4.3606,0,0,0,0,0,0,0,-1,699,1541,-3.62904,-4.36056
-518,-517,-1.664,2.27209,0,0,0,0,0,0,0,-1,706,1541,-1.66399,-2.27207
-511,-517,-0.999146,5.52063,0,0,0,0,0,0,0,-1,713,1541,-0.999126,-5.52059
-504,-517,-1.06946,8.67432,0,0,0,0,0,0,0,-1,720,1541,-1.06947,-8.6743
-497,-517,-2.43549,12.4419,0,0,0,0,0,0,0,-1,727,1541,-2.43548,-12.4419
-490,-517,-2.36786,13.2156,0.000313224,0.00150626,-0.0195016,0.0204205,-0.018601,-0.800687,0.0225372,0.0459461,734,1541,-2.36784,-13.2155
-483,-517,-2.32031,13.4796,-0.000179865,-0.00100948,-0.014954,0.0143651,-0.0155545,-0.771532,0.0172786,0.0416578,741,1541,-2.32029,-13.4796
-476,-517,-2.09186,13.2905,0,0,0,0,0,0,0,-1,748,1541,-2.09183,-13.2905
-469,-517,-2.52875,14.0581,-0.00110211,-0.00265229,-0.00835575,0.00651443,-0.0102688,-0.73915,0.0097703,0.0193963,755,1541,-2.52875,-14.058
-462,-517,-2.64087,14.5135,-0.00111809,-0.00252705,-0.00598332,0.00420208,-0.00784722,-0.726797,0.00706198,0.0180036,762,1541,-2.64086,-14.5136
-455,-517,-2.63568,15.0186,-0.000973848,-0.00210391,-0.00406612,0.00256632,-0.00564407,-0.71636,0.00485002,0.0141471,769,1541,-2.63571,-15.0185
-448,-517,-2.63898,15.4866,-0.000668979,-0.00157488,-0.00253589,0.00145409,-0.00369795,-0.697022,0.00306713,0.0136301,776,1541,-2.63901,-15.4866
-441,-517,-2.6662,15.9324,-0.000169046,-0.000778118,-0.00117535,0.000740581,-0.00168775,-0.658635,0.0014371,0.0120931,783,1541,-2.66621,-15.9324
-434,-517,-2.65607,16.4052,0.00047773,-5.64275e-05,0.000251165,0.000577277,-0.000155975,0.37735,0.000446028,0.0144326,790,1541,-2.65607,-16.4052
-427,-517,-2.68402,16.8749,0.00136405,0.00126872,0.00149086,0.00280801,-0.000175239,0.769418,0.00193307,0.0135457,797,1541,-2.68405,-16.8748
-420,-517,-2.73004,17.3627,0.0024522,0.00245819,0.00258754,0.00504273,-0.000132346,0.785977,0.00340679,0.0176276,804,1541,-2.73005,-17.3626
-413,-517,-2.74445,17.8073,0.00365272,0.00387713,0.00371905,0.00748567,4.41796e-05,0.800479,0.00497579,0.00919674,811,1541,-2.74445,-17.8072
-406,-517,-2.74792,18.2676,0.00501735,0.00545167,0.0050438,0.010283,0.000186033,0.806912,0.00679416,0.0103394,818,1541,-2.7479,-18.2675
-399,-517,-2.73969,18.7264,0.00647538,0.00738595,0.00647036,0.013417,0.000444307,0.820523,0.00880032,0.0108833,825,1541,-2.73967,-18.7265
-392,-517,-2.72845,19.1974,0.00867478,0.00724762,0.00836505,0.0163566,-0.00043423,0.742849,0.011052,0.0153823,832,1541,-2.72847,-19.1974
-385,-517,-2.62982,19.9105,0.0114482,0.00654092,0.0108803,0.0201481,-0.00215895,0.674497,0.0142065,0.0347471,839,1541,-2.6298,-19.9105
-378,-517,-2.4812,20.7461,0,0,0,0,0,0,0,-1,846,1541,-2.48118,-20.7461
-371,-517,-1.37585,13.2646,0,0,0,0,0,0,0,-1,853,1541,-1.37586,-13.2647
-364,-517,-1.26245,12.6289,0,0,0,0,0,0,0,-1,860,1541,-1.26243,-12.6289
-357,-517,-1.23889,12.979,0,0,0,0,0,0,0,-1,867,1541,-1.23891,-12.979
-350,-517,0.722412,10.0829,0,0,0,0,0,0,0,-1,874,1541,0.722399,-10.0828
-343,-517,-2.89331,17.5468,0,0,0,0,0,0,0,-1,881,1541,-2.89334,-17.5468
-336,-517,-0.159058,21.6846,0,0,0,0,0,0,0,-1,888,1541,-0.159071,-21.6846
-329,-517,-0.463623,21.0862,0,0,0,0,0,0,0,-1,895,1541,-0.463643,-21.0862
-322,-517,-4.21246,19.5819,0,0,0,0,0,0,0,-1,902,1541,-4.21244,-19.5819
-315,-517,-0.987976,7.29749,0,0,0,0,0,0,0,-1,909,1541,-0.987993,-7.29743
-308,-517,3.27911,17.621,0,0,0,0,0,0,0,-1,916,1541,3.27913,-17.621
-301,-517,-1.69141,8.87488,0,0,0,0,0,0,0,-1,923,1541,-1.69141,-8.87485
-294,-517,-1.72583,9.92566,0,0,0,0,0,0,0,-1,930,1541,-1.72584,-9.92571
-287,-517,-3.09045,12.1472,0,0,0,0,0,0,0,-1,937,1541,-3.09043,-12.1472
-280,-517,0,0,0,0,0,0,0,0,0,-1,944,1541,0,0
-273,-517,0,0,0,0,0,0,0,0,0,-1,951,1541,0,0
-266,-517,0,0,0,0,0,0,0,0,0,-1,958,1541,0,0
-259,-517,0,0,0,0,0,0,0,0,0,-1,965,1541,0,0
-252,-517,0,0,0,0,0,0,0,0,0,-1,972,1541,0,0
-245,-517,0,0,0,0,0,0,0,0,0,-1,979,1541,0,0
-238,-517,0,0,0,0,0,0,0,0,0,-1,986,1541,0,0
-231,-517,0,0,0,0,0,0,0,0,0,-1,993,1541,0,0
-224,-517,0,0,0,0,0,0,0,0,0,-1,1000,1541,0,0
-217,-517,0,0,0,0,0,0,0,0,0,-1,1007,1541,0,0
-210,-517,0,0,0,0,0,0,0,0,0,-1,1014,1541,0,0
-203,-517,0,0,0,0,0,0,0,0,0,-1,1021,1541,0,0
-196,-517,0,0,0,0,0,0,0,0,0,-1,1028,1541,0,0
-189,-517,0,0,0,0,0,0,0,0,0,-1,1035,1541,0,0
-182,-517,0,0,0,0,0,0,0,0,0,-1,1042,1541,0,0
-175,-517,0,0,0,0,0,0,0,0,0,-1,1049,1541,0,0
-168,-517,0,0,0,0,0,0,0,0,0,-1,1056,1541,0,0
-161,-517,0,0,0,0,0,0,0,0,0,-1,1063,1541,0,0
-154,-517,0,0,0,0,0,0,0,0,0,-1,1070,1541,0,0
-147,-517,0,0,0,0,0,0,0,0,0,-1,1077,1541,0,0
-140,-517,0,0,0,0,0,0,0,0,0,-1,1084,1541,0,0
-133,-517,0,0,0,0,0,0,0,0,0,-1,1091,1541,0,0
-126,-517,0,0,0,0,0,0,0,0,0,-1,1098,1541,0,0
-119,-517,0,0,0,0,0,0,0,0,0,-1,1105,1541,0,0
-112,-517,0,0,0,0,0,0,0,0,0,-1,1112,1541,0,0
-105,-517,0,0,0,0,0,0,0,0,0,-1,1119,1541,0,0
-98,-517,0,0,0,0,0,0,0,0,0,-1,1126,1541,0,0
-91,-517,0,0,0,0,0,0,0,0,0,-1,1133,1541,0,0
-84,-517,0,0,0,0,0,0,0,0,0,-1,1140,1541,0,0
-77,-517,0,0,0,0,0,0,0,0,0,-1,1147,1541,0,0
-70,-517,0,0,0,0,0,0,0,0,0,-1,1154,1541,0,0
-63,-517,0,0,0,0,0,0,0,0,0,-1,1161,1541,0,0
-56,-517,0,0,0,0,0,0,0,0,0,-1,1168,1541,0,0
-49,-517,0,0,0,0,0,0,0,0,0,-1,1175,1541,0,0
-42,-517,0,0,0,0,0,0,0,0,0,-1,1182,1541,0,0
-35,-517,0,0,0,0,0,0,0,0,0,-1,1189,1541,0,0
-28,-517,0,0,0,0,0,0,0,0,0,-1,1196,1541,0,0
-21,-517,0,0,0,0,0,0,0,0,0,-1,1203,1541,0,0
-14,-517,0,0,0,0,0,0,0,0,0,-1,1210,1541,0,0
-7,-517,0,0,0,0,0,0,0,0,0,-1,1217,1541,0,0
0,-517,0,0,0,0,0,0,0,0,0,-1,1224,1541,0,0
7,-517,0,0,0,0,0,0,0,0,0,-1,1231,1541,0,0
14,-517,0,0,0,0,0,0,0,0,0,-1,1238,1541,0,0
21,-517,0,0,0,0,0,0,0,0,0,-1,1245,1541,0,0
28,-517,0,0,0,0,0,0,0,0,0,-1,1252,1541,0,0
35,-517,0,0,0,0,0,0,0,0,0,-1,1259,1541,0,0
42,-517,0,0,0,0,0,0,0,0,0,-1,1266,1541,0,0
49,-517,0,0,0,0,0,0,0,0,0,-1,1273,1541,0,0
56,-517,0,0,0,0,0,0,0,0,0,-1,1280,1541,0,0
63,-517,0,0,0,0,0,0,0,0,0,-1,1287,1541,0,0
70,-517,0,0,0,0,0,0,0,0,0,-1,1294,1541,0,0
77,-517,0,0,0,0,0,0,0,0,0,-1,1301,1541,0,0
84,-517,0,0,0,0,0,0,0,0,0,-1,1308,1541,0,0
91,-517,0,0,0,0,0,0,0,0,0,-1,1315,1541,0,0
98,-517,0,0,0,0,0,0,0,0,0,-1,1322,1541,0,0
105,-517,0,0,0,0,0,0,0,0,0,-1,1329,1541,0,0
112,-517,0,0,0,0,0,0,0,0,0,-1,1336,1541,0,0
119,-517,0,0,0,0,0,0,0,0,0,-1,1343,1541,0,0
126,-517,0,0,0,0,0,0,0,0,0,-1,1350,1541,0,0
133,-517,0,0,0,0,0,0,0,0,0,-1,1357,1541,0,0
140,-517,0,0,0,0,0,0,0,0,0,-1,1364,1541,0,0
147,-517,0,0,0,0,0,0,0,0,0,-1,1371,1541,0,0
154,-517,0,0,0,0,0,0,0,0,0,-1,1378,1541,0,0
161,-517,0,0,0,0,0,0,0,0,0,-1,1385,1541,0,0
168,-517,0,0,0,0,0,0,0,0,0,-1,1392,1541,0,0
175,-517,0,0,0,0,0,0,0,0,0,-1,1399,1541,0,0
182,-517,0,0,0,0,0,0,0,0,0,-1,1406,1541,0,0
189,-517,0,0,0,0,0,0,0,0,0,-1,1413,1541,0,0
196,-517,0,0,0,0,0,0,0,0,0,-1,1420,1541,0,0
203,-517,0,0,0,0,0,0,0,0,0,-1,1427,1541,0,0
210,-517,0,0,0,0,0,0,0,0,0,-1,1434,1541,0,0
217,-517,0,0,0,0,0,0,0,0,0,-1,1441,1541,0,0
224,-517,0,0,0,0,0,0,0,0,0,-1,1448,1541,0,0
231,-517,0,0,0,0,0,0,0,0,0,-1,1455,1541,0,0
238,-517,0,0,0,0,0,0,0,0,0,-1,1462,1541,0,0
245,-517,0,0,0,0,0,0,0,0,0,-1,1469,1541,0,0
252,-517,0,0,0,0,0,0,0,0,0,-1,1476,1541,0,0
259,-517,0,0,0,0,0,0,0,0,0,-1,1483,1541,0,0
266,-517,0,0,0,0,0,0,0,0,0,-1,1490,1541,0,0
273,-517,0,0,0,0,0,0,0,0,0,-1,1497,1541,0,0
280,-517,0,0,0,0,0,0,0,0,0,-1,1504,1541,0,0
287,-517,0,0,0,0,0,0,0,0,0,-1,1511,1541,0,0
294,-517,0,0,0,0,0,0,0,0,0,-1,1518,1541,0,0
301,-517,0,0,0,0,0,0,0,0,0,-1,1525,1541,0,0
308,-517,0,0,0,0,0,0,0,0,0,-1,1532,1541,0,0
315,-517,0,0,0,0,0,0,0,0,0,-1,1539,1541,0,0
322,-517,0,0,0,0,0,0,0,0,0,-1,1546,1541,0,0
329,-517,0,0,0,0,0,0,0,0,0,-1,1553,1541,0,0
336,-517,0,0,0,0,0,0,0,0,0,-1,1560,1541,0,0
343,-517,0,0,0,0,0,0,0,0,0,-1,1567,1541,0,0
350,-517,0,0,0,0,0,0,0,0,0,-1,1574,1541,0,0
357,-517,0,0,0,0,0,0,0,0,0,-1,1581,1541,0,0
364,-517,0,0,0,0,0,0,0,0,0,-1,1588,1541,0,0
371,-517,0,0,0,0,0,0,0,0,0,-1,1595,1541,0,0
378,-517,0,0,0,0,0,0,0,0,0,-1,1602,1541,0,0
385,-517,0,0,0,0,0,0,0,0,0,-1,1609,1541,0,0
392,-517,0,0,0,0,0,0,0,0,0,-1,1616,1541,0,0
399,-517,0,0,0,0,0,0,0,0,0,-1,1623,1541,0,0
406,-517,13.1395,7.01978,0,0,0,0,0,0,0,-1,1630,1541,13.1396,-7.01981
413,-517,12.8859,6.31592,0,0,0,0,0,0,0,-1,1637,1541,12.8858,-6.31588
420,-517,12.4789,6.20337,0,0,0,0,0,0,0,-1,1644,1541,12.4789,-6.20333
427,-517,11.647,4.66516,0,0,0,0,0,0,0,-1,1651,1541,11.647,-4.66519
434,-517,12.3719,3.92773,0,0,0,0,0,0,0,-1,1658,1541,12.3719,-3.92776
441,-517,13.146,3.14124,0,0,0,0,0,0,0,-1,1665,1541,13.146,-3.14121
448,-517,13.8861,2.36682,0,0,0,0,0,0,0,-1,1672,1541,13.8861,-2.36684
455,-517,13.6012,4.06335,0,0,0,0,0,0,0,-1,1679,1541,13.6012,-4.06335
462,-517,14.8956,7.0752,0,0,0,0,0,0,0,-1,1686,1541,14.8956,-7.07525
469,-517,13.6292,6.87744,0,0,0,0,0,0,0,-1,1693,1541,13.6292,-6.87739
476,-517,17.1632,14.1487,0,0,0,0,0,0,0,-1,1700,1541,17.1632,-14.1487
483,-517,16.5157,15.0776,0,0,0,0,0,0,0,-1,1707,1541,16.5157,-15.0777
490,-517,15.5439,18.0258,0,0,0,0,0,0,0,-1,1714,1541,15.5439,-18.0258
497,-517,16.0292,18.7786,0,0,0,0,0,0,0,-1,1721,1541,16.0291,-18.7786
504,-517,16.7168,21.5939,0,0,0,0,0,0,0,-1,1728,1541,16.7168,-21.5939
511,-517,16.9674,21.8491,0,0,0,0,0,0,0,-1,1735,1541,16.9674,-21.8491
518,-517,17.0552,20.7592,0,0,0,0,0,0,0,-1,1742,1541,17.0551,-20.7591
525,-517,16.9457,20.3622,0.00476866,0.004295,-0.00311586,0.00765668,0.00140698,-0.747466,0.00470609,0.0208044,1749,1541,16.9456,-20.3622
532,-517,17.073,19.8522,0.0035838,0.00331623,-0.00233546,0.0057893,0.00111073,-0.756787,0.00354773,0.0113955,1756,1541,17.0729,-19.8521
539,-517,17.0791,19.4183,0.00274012,0.00246443,-0.00168596,0.00429387,0.000910684,-0.744608,0.00261247,0.0119849,1763,1541,17.0791,-19.4183
546,-517,17.0547,19.0215,0.00219735,0.00162096,-0.00114904,0.00309379,0.00072453,-0.662526,0.00186844,0.012816,1770,1541,17.0546,-19.0215
553,-517,17.035,18.5826,0.00184085,0.000884563,-0.000713237,0.00222139,0.000504029,-0.490111,0.00134478,0.0166355,1777,1541,17.035,-18.5826
560,-517,17.0349,18.1523,0.00168378,0.000324647,-0.00042661,0.00180659,0.000201837,-0.280294,0.00114307,0.0159116,1784,1541,17.0349,-18.1523
567,-517,17.0443,17.752,0.00213384,-0.000512256,-0.000330382,0.00217446,-0.000552883,-0.122354,0.00166482,0.013085,1791,1541,17.0443,-17.752
574,-517,17.0313,17.3152,0.00316682,-0.000689937,-0.000882083,0.00335898,-0.000882104,-0.214505,0.00258404,0.0139961,1798,1541,17.0312,-17.3152
581,-517,16.9946,16.8835,0.00450964,-0.000947705,-0.00154709,0.00491771,-0.00135577,-0.257891,0.00381164,0.0142261,1805,1541,16.9947,-16.8836
588,-517,16.9878,16.4305,0.00657041,-0.0010101,-0.00272229,0.00744673,-0.00188642,-0.31143,0.00569834,0.0156661,1812,1541,16.9878,-16.4306
595,-517,17.0035,15.9243,0,0,0,0,0,0,0,-1,1819,1541,17.0035,-15.9243
602,-517,15.8027,13.5498,0,0,0,0,0,0,0,-1,1826,1541,15.8027,-13.5498
609,-517,12.6417,10.8751,0,0,0,0,0,0,0,-1,1833,1541,12.6417,-10.8751
616,-517,14.205,10.3193,0,0,0,0,0,0,0,-1,1840,1541,14.205,-10.3194
623,-517,12.578,10.0779,0,0,0,0,0,0,0,-1,1847,1541,12.578,-10.0779
630,-517,11.7035,7.47815,0,0,0,0,0,0,0,-1,1854,1541,11.7035,-7.47812
637,-517,11.5172,5.79822,0,0,0,0,0,0,0,-1,1861,1541,11.5173,-5.79825
644,-517,11.4232,3.30579,0,0,0,0,0,0,0,-1,1868,1541,11.4232,-3.30574
651,-517,0,0,0,0,0,0,0,0,0,-1,1875,1541,0,0
658,-517,0,0,0,0,0,0,0,0,0,-1,1882,1541,0,0
665,-517,0,0,0,0,0,0,0,0,0,-1,1889,1541,0,0
672,-517,0,0,0,0,0,0,0,0,0,-1,1896,1541,0,0
679,-517,0,0,0,0,0,0,0,0,0,-1,1903,1541,0,0
686,-517,0,0,0,0,0,0,0,0,0,-1,1910,1541,0,0
693,-517,0,0,0,0,0,0,0,0,0,-1,1917,1541,0,0
700,-517,0,0,0,0,0,0,0,0,0,-1,1924,1541,0,0
707,-517,0,0,0,0,0,0,0,0,0,-1,1931,1541,0,0
714,-517,0,0,0,0,0,0,0,0,0,-1,1938,1541,0,0
721,-517,0,0,0,0,0,0,0,0,0,-1,1945,1541,0,0
728,-517,0,0,0,0,0,0,0,0,0,-1,1952,1541,0,0
735,-517,0,0,0,0,0,0,0,0,0,-1,1959,1541,0,0
742,-517,0,0,0,0,0,0,0,0,0,-1,1966,1541,0,0
749,-517,0,0,0,0,0,0,0,0,0,-1,1973,1541,0,0
756,-517,0,0,0,0,0,0,0,0,0,-1,1980,1541,0,0
763,-517,0,0,0,0,0,0,0,0,0,-1,1987,1541,0,0
770,-517,0,0,0,0,0,0,0,0,0,-1,1994,1541,0,0
777,-517,0,0,0,0,0,0,0,0,0,-1,2001,1541,0,0
784,-517,0,0,0,0,0,0,0,0,0,-1,2008,1541,0,0
791,-517,0,0,0,0,0,0,0,0,0,-1,2015,1541,0,0
798,-517,0,0,0,0,0,0,0,0,0,-1,2022,1541,0,0
805,-517,0,0,0,0,0,0,0,0,0,-1,2029,1541,0,0
812,-517,0,0,0,0,0,0,0,0,0,-1,2036,1541,0,0
-700,-524,0,0,0,0,0,0,0,0,0,-1,524,1548,0,0
-693,-524,0,0,0,0,0,0,0,0,0,-1,531,1548,0,0
-686,-524,0,0,0,0,0,0,0,0,0,-1,538,1548,0,0
-679,-524,0,0,0,0,0,0,0,0,0,-1,545,1548,0,0
-672,-524,0,0,0,0,0,0,0,0,0,-1,552,1548,0,0
-665,-524,0,0,0,0,0,0,0,0,0,-1,559,1548,0,0
-658,-524,0,0,0,0,0,0,0,0,0,-1,566,1548,0,0
-651,-524,0,0,0,0,0,0,0,0,0,-1,573,1548,0,0
-644,-524,0,0,0,0,0,0,0,0,0,-1,580,1548,0,0
-637,-524,0,0,0,0,0,0,0,0,0,-1,587,1548,0,0
-630,-524,0,0,0,0,0,0,0,0,0,-1,594,1548,0,0
-623,-524,0,0,0,0,0,0,0,0,0,-1,601,1548,0,0
-616,-524,0,0,0,0,0,0,0,0,0,-1,608,1548,0,0
-609,-524,0,0,0,0,0,0,0,0,0,-1,615,1548,0,0
-602,-524,0,0,0,0,0,0,0,0,0,-1,622,1548,0,0
-595,-524,0,0,0,0,0,0,0,0,0,-1,629,1548,0,0
-588,-524,0,0,0,0,0,0,0,0,0,-1,636,1548,0,0
-581,-524,0,0,0,0,0,0,0,0,0,-1,643,1548,0,0
-574,-524,0,0,0,0,0,0,0,0,0,-1,650,1548,0,0
-567,-524,0,0,0,0,0,0,0,0,0,-1,657,1548,0,0
-560,-524,0,0,0,0,0,0,0,0,0,-1,664,1548,0,0
-553,-524,0,0,0,0,0,0,0,0,0,-1,671,1548,0,0
-546,-524,0,0,0,0,0,0,0,0,0,-1,678,1548,0,0
-539,-524,0,0,0,0,0,0,0,0,0,-1,685,1548,0,0
-532,-524,0,0,0,0,0,0,0,0,0,-1,692,1548,0,0
-525,-524,-0.215515,3.97131,0,0,0,0,0,0,0,-1,699,1548,-0.215501,-3.97136
-518,-524,-0.806274,4.35632,0,0,0,0,0,0,0,-1,706,1548,-0.806259,-4.35633
-511,-524,-1.08301,4.29004,0,0,0,0,0,0,0,-1,713,1548,-1.08301,-4.29006
-504,-524,-1.28821,3.98145,0,0,0,0,0,0,0,-1,720,1548,-1.28822,-3.98151
-497,-524,-0.328491,8.63416,0,0,0,0,0,0,0,-1,727,1548,-0.328487,-8.63411
-490,-524,-1.96863,12.7856,0,0,0,0,0,0,0,-1,734,1548,-1.96861,-12.7856
-483,-524,-1.8161,13.4272,0,0,0,0,0,0,0,-1,741,1548,-1.8161,-13.4272
-476,-524,-2.46753,14.0278,0,0,0,0,0,0,0,-1,748,1548,-2.4675,-14.0278
-469,-524,-2.38159,14.4073,-0.000613219,-0.00223966,-0.00955224,0.00816035,-0.0110132,-0.742933,0.0111106,0.0358805,755,1548,-2.38159,-14.4074
-462,-524,-2.14935,14.7135,-0.00100609,-0.00229723,-0.00688395,0.0052625,-0.00856582,-0.738646,0.00805935,0.0303264,762,1548,-2.14934,-14.7136
-455,-524,-2.22406,15.0494,-0.00115358,-0.00197741,-0.00478768,0.00323987,-0.00637086,-0.742485,0.00564606,0.0229818,769,1548,-2.22405,-15.0495
-448,-524,-2.18536,15.4991,-0.00111363,-0.00159062,-0.00320255,0.0018593,-0.00456355,-0.748232,0.00381622,0.0129754,776,1548,-2.18537,-15.4992
-441,-524,-2.19165,15.947,-0.000810404,-0.000948916,-0.0018706,0.000992219,-0.00275154,-0.766895,0.0022396,0.011386,783,1548,-2.19167,-15.947
-434,-524,-2.19452,16.3989,-0.000337443,-0.000470327,-0.000487402,8.80252e-05,-0.000895795,-0.717657,0.000628596,0.0130076,790,1548,-2.19453,-16.399
-427,-524,-2.21375,16.8923,0.000407304,0.000693024,0.000663317,0.00122869,-0.000128363,0.891464,0.000865095,0.0124481,797,1548,-2.21375,-16.8924
-420,-524,-2.27295,17.3611,0.00137601,0.0017129,0.00162983,0.00318296,-9.40579e-05,0.836891,0.00215401,0.00987635,804,1548,-2.27298,-17.3611
-413,-524,-2.26453,17.8284,0.00239924,0.00298842,0.00255212,0.0052629,0.000124766,0.842858,0.00346776,0.00944869,811,1548,-2.26454,-17.8283
-406,-524,-2.26544,18.2915,0.00356917,0.00433466,0.00366157,0.00763344,0.000270396,0.837475,0.00500126,0.0109144,818,1548,-2.26546,-18.2915
-399,-524,-2.27795,18.7371,0.00478247,0.00591528,0.00480677,0.0101889,0.000508847,0.844045,0.0066295,0.00905114,825,1548,-2.27798,-18.737
-392,-524,-2.28418,19.187,0.00662624,0.00582241,0.00631196,0.0125491,-0.000100417,0.753604,0.00839971,0.00966028,832,1548,-2.28421,-19.187
-385,-524,-2.2951,19.6624,0.00893737,0.00519434,0.00826024,0.0155355,-0.00140375,0.673994,0.0108552,0.0146575,839,1548,-2.29508,-19.6624
-378,-524,-2.20306,20.3889,0.0111556,0.00419986,0.0101432,0.0184006,-0.00304512,0.62024,0.0133979,0.0444241,846,1548,-2.20308,-20.3889
-371,-524,-2.0799,21.093,0,0,0,0,0,0,0,-1,853,1548,-2.07989,-21.093
-364,-524,-0.712097,14.9871,0,0,0,0,0,0,0,-1,860,1548,-0.712116,-14.9871
-357,-524,-1.34052,14.7448,0,0,0,0,0,0,0,-1,867,1548,-1.34054,-14.7447
-350,-524,-2.63245,12.7522,0,0,0,0,0,0,0,-1,874,1548,-2.63245,-12.7522
-343,-524,-0.587036,21.0325,0,0,0,0,0,0,0,-1,881,1548,-0.587023,-21.0324
-336,-524,-0.377808,21.7975,0,0,0,0,0,0,0,-1,888,1548,-0.377819,-21.7975
-329,-524,-0.16864,22.5625,0,0,0,0,0,0,0,-1,895,1548,-0.168615,-22.5625
-322,-524,-3.79669,23.8302,0,0,0,0,0,0,0,-1,902,1548,-3.7967,-23.8303
-315,-524,-1.90839,19.4824,0,0,0,0,0,0,0,-1,909,1548,-1.90838,-19.4824
-308,-524,-2.36938,19.3059,0,0,0,0,0,0,0,-1,916,1548,-2.3694,-19.3058
-301,-524,2.72394,17.7618,0,0,0,0,0,0,0,-1,923,1548,2.72396,-17.7619
-294,-524,-1.52515,9.05408,0,0,0,0,0,0,0,-1,930,1548,-1.52512,-9.05411
-287,-524,-0.962219,10.3199,0,0,0,0,0,0,0,-1,937,1548,-0.962241,-10.32
-280,-524,-1.36255,10.3859,0,0,0,0,0,0,0,-1,944,1548,-1.36253,-10.3859
-273,-524,0,0,0,0,0,0,0,0,0,-1,951,1548,0,0
-266,-524,0,0,0,0,0,0,0,0,0,-1,958,1548,0,0
-259,-524,0,0,0,0,0,0,0,0,0,-1,965,1548,0,0
-252,-524,0,0,0,0,0,0,0,0,0,-1,972,1548,0,0
-245,-524,0,0,0,0,0,0,0,0,0,-1,979,1548,0,0
-238,-524,0,0,0,0,0,0,0,0,0,-1,986,1548,0,0
-231,-524,0,0,0,0,0,0,0,0,0,-1,993,1548,0,0
-224,-524,0,0,0,0,0,0,0,0,0,-1,1000,1548,0,0
-217,-524,0,0,0,0,0,0,0,0,0,-1,1007,1548,0,0
-210,-524,0,0,0,0,0,0,0,0,0,-1,1014,1548,0,0
-203,-524,0,0,0,0,0,0,0,0,0,-1,1021,1548,0,0
-196,-524,0,0,0,0,0,0,0,0,0,-1,1028,1548,0,0
-189,-524,0,0,0,0,0,0,0,0,0,-1,1035,1548,0,0
-182,-524,0,0,0,0,0,0,0,0,0,-1,1042,1548,0,0
-175,-524,0,0,0,0,0,0,0,0,0,-1,1049,1548,0,0
-168,-524,0,0,0,0,0,0,0,0,0,-1,1056,1548,0,0
-161,-524,0,0,0,0,0,0,0,0,0,-1,1063,1548,0,0
-154,-524,0,0,0,0,0,0,0,0,0,-1,1070,1548,0,0
-147,-524,0,0,0,0,0,0,0,0,0,-1,1077,1548,0,0
-140,-524,0,0,0,0,0,0,0,0,0,-1,1084,1548,0,0
-133,-524,0,0,0,0,0,0,0,0,0,-1,1091,1548,0,0
-126,-524,0,0,0,0,0,0,0,0,0,-1,1098,1548,0,0
-119,-524,0,0,0,0,0,0,0,0,0,-1,1105,1548,0,0
-112,-524,0,0,0,0,0,0,0,0,0,-1,1112,1548,0,0
-105,-524,0,0,0,0,0,0,0,0,0,-1,1119,1548,0,0
-98,-524,0,0,0,0,0,0,0,0,0,-1,1126,1548,0,0
-91,-524,0,0,0,0,0,0,0,0,0,-1,1133,1548,0,0
-84,-524,0,0,0,0,0,0,0,0,0,-1,1140,1548,0,0
-77,-524,0,0,0,0,0,0,0,0,0,-1,1147,1548,0,0
-70,-524,0,0,0,0,0,0,0,0,0,-1,1154,1548,0,0
-63,-524,0,0,0,0,0,0,0,0,0,-1,1161,1548,0,0
-56,-524,0,0,0,0,0,0,0,0,0,-1,1168,1548,0,0
-49,-524,0,0,0,0,0,0,0,0,0,-1,1175,1548,0,0
-42,-524,0,0,0,0,0,0,0,0,0,-1,1182,1548,0,0
-35,-524,0,0,0,0,0,0,0,0,0,-1,1189,1548,0,0
-28,-524,0,0,0,0,0,0,0,0,0,-1,1196,1548,0,0
-21,-524,0,0,0,0,0,0,0,0,0,-1,1203,1548,0,0
-14,-524,0,0,0,0,0,0,0,0,0,-1,1210,1548,0,0
-7,-524,0,0,0,0,0,0,0,0,0,-1,1217,1548,0,0
0,-524,0,0,0,0,0,0,0,0,0,-1,1224,1548,0,0
7,-524,0,0,0,0,0,0,0,0,0,-1,1231,1548,0,0
14,-524,0,0,0,0,0,0,0,0,0,-1,1238,1548,0,0
21,-524,0,0,0,0,0,0,0,0,0,-1,1245,1548,0,0
28,-524,0,0,0,0,0,0,0,0,0,-1,1252,1548,0,0
35,-524,0,0,0,0,0,0,0,0,0,-1,1259,1548,0,0
42,-524,0,0,0,0,0,0,0,0,0,-1,1266,1548,0,0
49,-524,0,0,0,0,0,0,0,0,0,-1,1273,1548,0,0
56,-524,0,0,0,0,0,0,0,0,0,-1,1280,1548,0,0
63,-524,0,0,0,0,0,0,0,0,0,-1,1287,1548,0,0
70,-524,0,0,0,0,0,0,0,0,0,-1,1294,1548,0,0
77,-524,0,0,0,0,0,0,0,0,0,-1,1301,1548,0,0
84,-524,0,0,0,0,0,0,0,0,0,-1,1308,1548,0,0
91,-524,0,0,0,0,0,0,0,0,0,-1,1315,1548,0,0
98,-524,0,0,0,0,0,0,0,0,0,-1,1322,1548,0,0
105,-524,0,0,0,0,0,0,0,0,0,-1,1329,1548,0,0
112,-524,0,0,0,0,0,0,0,0,0,-1,1336,1548,0,0
119,-524,0,0,0,0,0,0,0,0,0,-1,1343,1548,0,0
126,-524,0,0,0,0,0,0,0,0,0,-1,1350,1548,0,0
133,-524,0,0,0,0,0,0,0,0,0,-1,1357,1548,0,0
140,-524,0,0,0,0,0,0,0,0,0,-1,1364,1548,0,0
147,-524,0,0,0,0,0,0,0,0,0,-1,1371,1548,0,0
154,-524,0,0,0,0,0,0,0,0,0,-1,1378,1548,0,0
161,-524,0,0,0,0,0,0,0,0,0,-1,1385,1548,0,0
168,-524,0,0,0,0,0,0,0,0,0,-1,1392,1548,0,0
175,-524,0,0,0,0,0,0,0,0,0,-1,1399,1548,0,0
182,-524,0,0,0,0,0,0,0,0,0,-1,1406,1548,0,0
189,-524,0,0,0,0,0,0,0,0,0,-1,1413,1548,0,0
196,-524,0,0,0,0,0,0,0,0,0,-1,1420,1548,0,0
203,-524,0,0,0,0,0,0,0,0,0,-1,1427,1548,0,0
210,-524,0,0,0,0,0,0,0,0,0,-1,1434,1548,0,0
217,-524,0,0,0,0,0,0,0,0,0,-1,1441,1548,0,0
224,-524,0,0,0,0,0,0,0,0,0,-1,1448,1548,0,0
231,-524,0,0,0,0,0,0,0,0,0,-1,1455,1548,0,0
238,-524,0,0,0,0,0,0,0,0,0,-1,1462,1548,0,0
245,-524,0,0,0,0,0,0,0,0,0,-1,1469,1548,0,0
252,-524,0,0,0,0,0,0,0,0,0,-1,1476,1548,0,0
259,-524,0,0,0,0,0,0,0,0,0,-1,1483,1548,0,0
266,-524,0,0,0,0,0,0,0,0,0,-1,1490,1548,0,0
273,-524,0,0,0,0,0,0,0,0,0,-1,1497,1548,0,0
280,-524,0,0,0,0,0,0,0,0,0,-1,1504,1548,0,0
287,-524,0,0,0,0,0,0,0,0,0,-1,1511,1548,0,0
294,-524,0,0,0,0,0,0,0,0,0,-1,1518,1548,0,0
301,-524,0,0,0,0,0,0,0,0,0,-1,1525,1548,0,0
308,-524,0,0,0,0,0,0,0,0,0,-1,1532,1548,0,0
315,-524,0,0,0,0,0,0,0,0,0,-1,1539,1548,0,0
322,-524,0,0,0,0,0,0,0,0,0,-1,1546,1548,0,0
329,-524,0,0,0,0,0,0,0,0,0,-1,1553,1548,0,0
336,-524,0,0,0,0,0,0,0,0,0,-1,1560,1548,0,0
343,-524,0,0,0,0,0,0,0,0,0,-1,1567,1548,0,0
350,-524,0,0,0,0,0,0,0,0,0,-1,1574,1548,0,0
357,-524,0,0,0,0,0,0,0,0,0,-1,1581,1548,0,0
364,-524,0,0,0,0,0,0,0,0,0,-1,1588,1548,0,0
371,-524,0,0,0,0,0,0,0,0,0,-1,1595,1548,0,0
378,-524,0,0,0,0,0,0,0,0,0,-1,1602,1548,0,0
385,-524,0,0,0,0,0,0,0,0,0,-1,1609,1548,0,0
392,-524,0,0,0,0,0,0,0,0,0,-1,1616,1548,0,0
399,-524,8.81848,5.05774,0,0,0,0,0,0,0,-1,1623,1548,8.81843,-5.05769
406,-524,8.64294,6.06799,0,0,0,0,0,0,0,-1,1630,1548,8.6429,-6.06805
413,-524,11.677,6.41858,0,0,0,0,0,0,0,-1,1637,1548,11.677,-6.41864
420,-524,11.4913,6.36401,0,0,0,0,0,0,0,-1,1644,1548,11.4913,-6.36402
427,-524,7.68335,6.17249,0,0,0,0,0,0,0,-1,1651,1548,7.68341,-6.17245
434,-524,10.432,11.6801,0,0,0,0,0,0,0,-1,1658,1548,10.432,-11.68
441,-524,8.78552,4.12305,0,0,0,0,0,0,0,-1,1665,1548,8.78553,-4.12301
448,-524,14.1854,4.78674,0,0,0,0,0,0,0,-1,1672,1548,14.1854,-4.78674
455,-524,12.4784,3.65576,0,0,0,0,0,0,0,-1,1679,1548,12.4784,-3.65572
462,-524,14.7551,9.29395,0,0,0,0,0,0,0,-1,1686,1548,14.7552,-9.29397
469,-524,16.3314,14.3779,0,0,0,0,0,0,0,-1,1693,1548,16.3314,-14.3779
476,-524,15.9106,15.1875,0,0,0,0,0,0,0,-1,1700,1548,15.9107,-15.1876
483,-524,15.2776,16.2268,0,0,0,0,0,0,0,-1,1707,1548,15.2776,-16.2269
490,-524,15.2563,18.5848,0,0,0,0,0,0,0,-1,1714,1548,15.2564,-18.5848
497,-524,16.8545,21.7968,0,0,0,0,0,0,0,-1,1721,1548,16.8545,-21.7968
504,-524,16.5287,21.4841,0.00883418,0.00693106,-0.00539882,0.0133647,0.00240058,-0.698167,0.00822716,0.046862,1728,1548,16.5287,-21.4841
511,-524,16.5615,21.334,0.00722151,0.00611853,-0.00461267,0.0113155,0.0020245,-0.725901,0.0069676,0.0411979,1735,1548,16.5616,-21.334
518,-524,16.6519,20.7003,0.00571069,0.00491118,-0.00366785,0.00900051,0.00162137,-0.731118,0.00553955,0.0242798,1742,1548,16.6519,-20.7003
525,-524,16.6686,20.3043,0.00432638,0.00376025,-0.00279944,0.00685703,0.00122961,-0.735012,0.0042216,0.0145234,1749,1548,16.6686,-20.3043
532,-524,16.6669,19.8768,0.00310332,0.00274048,-0.00195192,0.00488224,0.000961568,-0.739059,0.00298636,0.00981533,1756,1548,16.6669,-19.8769
539,-524,16.6538,19.4331,0.0022328,0.00181226,-0.00122877,0.00326916,0.000775899,-0.700658,0.00197235,0.0102766,1763,1548,16.6539,-19.4332
546,-524,16.6279,19.021,0.00161591,0.000885531,-0.000591515,0.00194589,0.000555557,-0.508847,0.0011574,0.0141658,1770,1548,16.628,-19.0211
553,-524,16.6348,18.605,0.00118694,3.77734e-05,-3.91937e-05,0.00118827,3.64382e-05,-0.0340536,0.000780318,0.0224975,1777,1548,16.6347,-18.605
560,-524,16.6293,18.1528,0.000996278,-0.000663326,0.000370843,0.00107537,-0.000742422,0.210139,0.00105536,0.0293981,1784,1548,16.6293,-18.1529
567,-524,16.6111,17.7549,0.00148954,-0.00159428,0.000543666,0.00158258,-0.00168732,0.169491,0.0018882,0.0182395,1791,1548,16.6111,-17.7548
574,-524,16.5991,17.3291,0.00264078,-0.00185963,2.20908e-07,0.00264078,-0.00185963,4.90862e-05,0.00261133,0.013487,1798,1548,16.5991,-17.3291
581,-524,16.5817,16.8822,0.00422285,-0.00212425,-0.000720327,0.00430357,-0.00220497,-0.111598,0.00382227,0.0139809,1805,1548,16.5817,-16.8822
588,-524,16.6346,16.4202,0.00667423,-0.00222035,-0.00206942,0.00713213,-0.00267826,-0.217761,0.00585537,0.0270649,1812,1548,16.6347,-16.4201
595,-524,16.7126,15.7543,0,0,0,0,0,0,0,-1,1819,1548,16.7126,-15.7543
602,-524,13.837,12.0682,0,0,0,0,0,0,0,-1,1826,1548,13.837,-12.0683
609,-524,13.0056,10.5138,0,0,0,0,0,0,0,-1,1833,1548,13.0056,-10.5138
616,-524,11.6941,8.65515,0,0,0,0,0,0,0,-1,1840,1548,11.6941,-8.65514
623,-524,9.38452,5.15356,0,0,0,0,0,0,0,-1,1847,1548,9.38456,-5.15359
630,-524,11.0541,3.57434,0,0,0,0,0,0,0,-1,1854,1548,11.0541,-3.57438
637,-524,11.6067,3.20728,0,0,0,0,0,0,0,-1,1861,1548,11.6067,-3.20724
644,-524,12.2134,0.727173,0,0,0,0,0,0,0,-1,1868,1548,12.2134,-0.727222
651,-524,0,0,0,0,0,0,0,0,0,-1,1875,1548,0,0
658,-524,0,0,0,0,0,0,0,0,0,-1,1882,1548,0,0
665,-524,0,0,0,0,0,0,0,0,0,-1,1889,1548,0,0
672,-524,0,0,0,0,0,0,0,0,0,-1,1896,1548,0,0
679,-524,0,0,0,0,0,0,0,0,0,-1,1903,1548,0,0
686,-524,0,0,0,0,0,0,0,0,0,-1,1910,1548,0,0
693,-524,0,0,0,0,0,0,0,0,0,-1,1917,1548,0,0
700,-524,0,0,0,0,0,0,0,0,0,-1,1924,1548,0,0
707,-524,0,0,0,0,0,0,0,0,0,-1,1931,1548,0,0
714,-524,0,0,0,0,0,0,0,0,0,-1,1938,1548,0,0
721,-524,0,0,0,0,0,0,0,0,0,-1,1945,1548,0,0
728,-524,0,0,0,0,0,0,0,0,0,-1,1952,1548,0,0
735,-524,0,0,0,0,0,0,0,0,0,-1,1959,1548,0,0
742,-524,0,0,0,0,0,0,0,0,0,-1,1966,1548,0,0
749,-524,0,0,0,0,0,0,0,0,0,-1,1973,1548,0,0
756,-524,0,0,0,0,0,0,0,0,0,-1,1980,1548,0,0
763,-524,0,0,0,0,0,0,0,0,0,-1,1987,1548,0,0
770,-524,0,0,0,0,0,0,0,0,0,-1,1994,1548,0,0
777,-524,0,0,0,0,0,0,0,0,0,-1,2001,1548,0,0
784,-524,0,0,0,0,0,0,0,0,0,-1,2008,1548,0,0
791,-524,0,0,0,0,0,0,0,0,0,-1,2015,1548,0,0
798,-524,0,0,0,0,0,0,0,0,0,-1,2022,1548,0,0
805,-524,0,0,0,0,0,0,0,0,0,-1,2029,1548,0,0
812,-524,0,0,0,0,0,0,0,0,0,-1,2036,1548,0,0
-700,-531,0,0,0,0,0,0,0,0,0,-1,524,1555,0,0
-693,-531,0,0,0,0,0,0,0,0,0,-1,531,1555,0,0
-686,-531,0,0,0,0,0,0,0,0,0,-1,538,1555,0,0
-679,-531,0,0,0,0,0,0,0,0,0,-1,545,1555,0,0
-672,-531,0,0,0,0,0,0,0,0,0,-1,552,1555,0,0
-665,-531,0,0,0,0,0,0,0,0,0,-1,559,1555,0,0
-658,-531,0,0,0,0,0,0,0,0,0,-1,566,1555,0,0
-651,-531,0,0,0,0,0,0,0,0,0,-1,573,1555,0,0
-644,-531,0,0,0,0,0,0,0,0,0,-1,580,1555,0,0
-637,-531,0,0,0,0,0,0,0,0,0,-1,587,1555,0,0
-630,-531,0,0,0,0,0,0,0,0,0,-1,594,1555,0,0
-623,-531,0,0,0,0,0,0,0,0,0,-1,601,1555,0,0
-616,-531,0,0,0,0,0,0,0,0,0,-1,608,1555,0,0
-609,-531,0,0,0,0,0,0,0,0,0,-1,615,1555,0,0
-602,-531,0,0,0,0,0,0,0,0,0,-1,622,1555,0,0
-595,-531,0,0,0,0,0,0,0,0,0,-1,629,1555,0,0
-588,-531,0,0,0,0,0,0,0,0,0,-1,636,1555,0,0
-581,-531,0,0,0,0,0,0,0,0,0,-1,643,1555,0,0
-574,-531,0,0,0,0,0,0,0,0,0,-1,650,1555,0,0
-567,-531,0,0,0,0,0,0,0,0,0,-1,657,1555,0,0
-560,-531,0,0,0,0,0,0,0,0,0,-1,664,1555,0,0
-553,-531,0,0,0,0,0,0,0,0,0,-1,671,1555,0,0
-546,-531,0,0,0,0,0,0,0,0,0,-1,678,1555,0,0
-539,-531,0,0,0,0,0,0,0,0,0,-1,685,1555,0,0
-532,-531,0,0,0,0,0,0,0,0,0,-1,692,1555,0,0
-525,-531,0,0,0,0,0,0,0,0,0,-1,699,1555,0,0
-518,-531,-1.63983,4.03821,0,0,0,0,0,0,0,-1,706,1555,-1.63982,-4.03821
-511,-531,-2.9682,8.07483,0,0,0,0,0,0,0,-1,713,1555,-2.9682,-8.07479
-504,-531,-2.95978,0.557861,0,0,0,0,0,0,0,-1,720,1555,-2.95978,-0.557917
-497,-531,-2.46039,8.07422,0,0,0,0,0,0,0,-1,727,1555,-2.46039,-8.07423
-490,-531,-0.423462,7.92065,0,0,0,0,0,0,0,-1,734,1555,-0.42344,-7.92066
-483,-531,-1.30933,11.4504,0,0,0,0,0,0,0,-1,741,1555,-1.30932,-11.4504
-476,-531,-2.14667,14.3279,0,0,0,0,0,0,0,-1,748,1555,-2.14669,-14.3279
-469,-531,-1.50348,14.3165,0,0,0,0,0,0,0,-1,755,1555,-1.50351,-14.3165
-462,-531,-1.65869,14.9039,0,0,0,0,0,0,0,-1,762,1555,-1.65871,-14.9039
-455,-531,-1.8139,15.4913,0,0,0,0,0,0,0,-1,769,1555,-1.8139,-15.4914
-448,-531,-1.6687,15.5098,-0.00149282,-0.00130664,-0.00374113,0.00234256,-0.00514202,-0.797837,0.00442083,0.0172748,776,1555,-1.66867,-15.5098
-441,-531,-1.73029,15.9485,-0.00141131,-0.000857434,-0.00245991,0.00134108,-0.00360982,-0.841452,0.00295675,0.012271,783,1555,-1.73029,-15.9485
-434,-531,-1.74786,16.4299,-0.0011173,-0.000641363,-0.00113902,0.000284285,-0.00204295,-0.888378,0.00146594,0.0119493,790,1555,-1.74785,-16.4299
-427,-531,-1.78339,16.9063,-0.000512991,0.000319691,-8.42564e-05,0.000328131,-0.000521431,-1.47096,0.000494709,0.0136794,797,1555,-1.78339,-16.9062
-420,-531,-1.80774,17.3829,0.00033627,0.00116963,0.000768455,0.0016271,-0.000121204,1.03383,0.00112731,0.0128465,804,1555,-1.80776,-17.3829
-413,-531,-1.81317,17.8408,0.00120122,0.00228902,0.00152127,0.0033607,0.000129542,0.957083,0.00219856,0.0112615,811,1555,-1.81318,-17.8408
-406,-531,-1.80939,18.2826,0.00221422,0.00340683,0.00246074,0.00534248,0.000278568,0.90427,0.00347252,0.0118183,818,1555,-1.80939,-18.2826
-399,-531,-1.81073,18.7465,0.00324066,0.00465378,0.00339992,0.00741979,0.000474658,0.887848,0.00479614,0.01266,825,1555,-1.81071,-18.7464
-392,-531,-1.82062,19.2058,0.00478801,0.00463655,0.00459695,0.00930986,0.000114704,0.777162,0.00616869,0.0157838,832,1555,-1.82059,-19.2057
-385,-531,-1.84912,19.6531,0.00671698,0.00408407,0.00608694,0.0116282,-0.000827145,0.678901,0.00804204,0.0137407,839,1555,-1.84914,-19.6531
-378,-531,-1.8703,20.0481,0.00852549,0.00331906,0.00748694,0.0138489,-0.00200432,0.618086,0.00996809,0.0159745,846,1555,-1.87033,-20.0481
-371,-531,-1.84454,20.5526,0,0,0,0,0,0,0,-1,853,1555,-1.84453,-20.5526
-364,-531,-1.68481,21.1866,0,0,0,0,0,0,0,-1,860,1555,-1.68484,-21.1866
-357,-531,-1.69061,21.7347,0,0,0,0,0,0,0,-1,867,1555,-1.69059,-21.7347
-350,-531,-1.29199,21.0248,0,0,0,0,0,0,0,-1,874,1555,-1.29197,-21.0248
-343,-531,-0.772644,21.6511,0.0242267,-0.0164077,0.0187489,0.0315556,-0.0237366,0.372637,0.0320292,0.048991,881,1555,-0.772635,-21.6511
-336,-531,-0.571838,22.0913,0.0284613,-0.0243778,0.0214601,0.0360789,-0.0319954,0.341092,0.0393263,0.0412254,888,1555,-0.571868,-22.0913
-329,-531,-0.350342,22.8196,0,0,0,0,0,0,0,-1,895,1555,-0.350339,-22.8196
-322,-531,-0.392944,23.2938,0,0,0,0,0,0,0,-1,902,1555,-0.392955,-23.2939
-315,-531,-3.1756,23.0961,0,0,0,0,0,0,0,-1,909,1555,-3.17559,-23.096
-308,-531,-1.66455,19.0624,0,0,0,0,0,0,0,-1,916,1555,-1.66455,-19.0623
-301,-531,-2.02405,18.8912,0,0,0,0,0,0,0,-1,923,1555,-2.02407,-18.8913
-294,-531,-1.3244,8.1825,0,0,0,0,0,0,0,-1,930,1555,-1.3244,-8.18251
-287,-531,-1.78192,10.1661,0,0,0,0,0,0,0,-1,937,1555,-1.78192,-10.1661
-280,-531,-2.14508,10.3945,0,0,0,0,0,0,0,-1,944,1555,-2.14506,-10.3945
-273,-531,-2.50818,10.6229,0,0,0,0,0,0,0,-1,951,1555,-2.5082,-10.6229
-266,-531,-4.97742,17.9215,0,0,0,0,0,0,0,-1,958,1555,-4.97744,-17.9215
-259,-531,0,0,0,0,0,0,0,0,0,-1,965,1555,0,0
-252,-531,0,0,0,0,0,0,0,0,0,-1,972,1555,0,0
-245,-531,0,0,0,0,0,0,0,0,0,-1,979,1555,0,0
-238,-531,0,0,0,0,0,0,0,0,0,-1,986,1555,0,0
-231,-531,0,0,0,0,0,0,0,0,0,-1,993,1555,0,0
-224,-531,0,0,0,0,0,0,0,0,0,-1,1000,1555,0,0
-217,-531,0,0,0,0,0,0,0,0,0,-1,1007,1555,0,0
-210,-531,0,0,0,0,0,0,0,0,0,-1,1014,1555,0,0
-203,-531,0,0,0,0,0,0,0,0,0,-1,1021,1555,0,0
-196,-531,0,0,0,0,0,0,0,0,0,-1,1028,1555,0,0
-189,-531,0,0,0,0,0,0,0,0,0,-1,1035,1555,0,0
-182,-531,0,0,0,0,0,0,0,0,0,-1,1042,1555,0,0
-175,-531,0,0,0,0,0,0,0,0,0,-1,1049,1555,0,0
-168,-531,0,0,0,0,0,0,0,0,0,-1,1056,1555,0,0
-161,-531,0,0,0,0,0,0,0,0,0,-1,1063,1555,0,0
-154,-531,0,0,0,0,0,0,0,0,0,-1,1070,1555,0,0
-147,-531,0,0,0,0,0,0,0,0,0,-1,1077,1555,0,0
-140,-531,0,0,0,0,0,0,0,0,0,-1,1084,1555,0,0
-133,-531,0,0,0,0,0,0,0,0,0,-1,1091,1555,0,0
-126,-531,0,0,0,0,0,0,0,0,0,-1,1098,1555,0,0
-119,-531,0,0,0,0,0,0,0,0,0,-1,1105,1555,0,0
-112,-531,0,0,0,0,0,0,0,0,0,-1,1112,1555,0,0
-105,-531,0,0,0,0,0,0,0,0,0,-1,1119,1555,0,0
-98,-531,0,0,0,0,0,0,0,0,0,-1,1126,1555,0,0
-91,-531,0,0,0,0,0,0,0,0,0,-1,1133,1555,0,0
-84,-531,0,0,0,0,0,0,0,0,0,-1,1140,1555,0,0
-77,-531,0,0,0,0,0,0,0,0,0,-1,1147,1555,0,0
-70,-531,0,0,0,0,0,0,0,0,0,-1,1154,1555,0,0
-63,-531,0,0,0,0,0,0,0,0,0,-1,1161,1555,0,0
-56,-531,0,0,0,0,0,0,0,0,0,-1,1168,1555,0,0
-49,-531,0,0,0,0,0,0,0,0,0,-1,1175,1555,0,0
-42,-531,0,0,0,0,0,0,0,0,0,-1,1182,1555,0,0
-35,-531,0,0,0,0,0,0,0,0,0,-1,1189,1555,0,0
-28,-531,0,0,0,0,0,0,0,0,0,-1,1196,1555,0,0
-21,-531,0,0,0,0,0,0,0,0,0,-1,1203,1555,0,0
-14,-531,0,0,0,0,0,0,0,0,0,-1,1210,1555,0,0
-7,-531,0,0,0,0,0,0,0,0,0,-1,1217,1555,0,0
0,-531,0,0,0,0,0,0,0,0,0,-1,1224,1555,0,0
7,-531,0,0,0,0,0,0,0,0,0,-1,1231,1555,0,0
14,-531,0,0,0,0,0,0,0,0,0,-1,1238,1555,0,0
21,-531,0,0,0,0,0,0,0,0,0,-1,1245,1555,0,0
28,-531,0,0,0,0,0,0,0,0,0,-1,1252,1555,0,0
35,-531,0,0,0,0,0,0,0,0,0,-1,1259,1555,0,0
42,-531,0,0,0,0,0,0,0,0,0,-1,1266,1555,0,0
49,-531,0,0,0,0,0,0,0,0,0,-1,1273,1555,0,0
56,-531,0,0,0,0,0,0,0,0,0,-1,1280,1555,0,0
63,-531,0,0,0,0,0,0,0,0,0,-1,1287,1555,0,0
70,-531,0,0,0,0,0,0,0,0,0,-1,1294,1555,0,0
77,-531,0,0,0,0,0,0,0,0,0,-1,1301,1555,0,0
84,-531,0,0,0,0,0,0,0,0,0,-1,1308,1555,0,0
91,-531,0,0,0,0,0,0,0,0,0,-1,1315,1555,0,0
98,-531,0,0,0,0,0,0,0,0,0,-1,1322,1555,0,0
105,-531,0,0,0,0,0,0,0,0,0,-1,1329,1555,0,0
112,-531,0,0,0,0,0,0,0,0,0,-1,1336,1555,0,0
119,-531,0,0,0,0,0,0,0,0,0,-1,1343,1555,0,0
126,-531,0,0,0,0,0,0,0,0,0,-1,1350,1555,0,0
133,-531,0,0,0,0,0,0,0,0,0,-1,1357,1555,0,0
140,-531,0,0,0,0,0,0,0,0,0,-1,1364,1555,0,0
147,-531,0,0,0,0,0,0,0,0,0,-1,1371,1555,0,0
154,-531,0,0,0,0,0,0,0,0,0,-1,1378,1555,0,0
161,-531,0,0,0,0,0,0,0,0,0,-1,1385,1555,0,0
168,-531,0,0,0,0,0,0,0,0,0,-1,1392,1555,0,0
175,-531,0,0,0,0,0,0,0,0,0,-1,1399,1555,0,0
182,-531,0,0,0,0,0,0,0,0,0,-1,1406,1555,0,0
189,-531,0,0,0,0,0,0,0,0,0,-1,1413,1555,0,0
196,-531,0,0,0,0,0,0,0,0,0,-1,1420,1555,0,0
203,-531,0,0,0,0,0,0,0,0,0,-1,1427,1555,0,0
210,-531,0,0,0,0,0,0,0,0,0,-1,1434,1555,0,0
217,-531,0,0,0,0,0,0,0,0,0,-1,1441,1555,0,0
224,-531,0,0,0,0,0,0,0,0,0,-1,1448,1555,0,0
231,-531,0,0,0,0,0,0,0,0,0,-1,1455,1555,0,0
238,-531,0,0,0,0,0,0,0,0,0,-1,1462,1555,0,0
245,-531,0,0,0,0,0,0,0,0,0,-1,1469,1555,0,0
252,-531,0,0,0,0,0,0,0,0,0,-1,1476,1555,0,0
259,-531,0,0,0,0,0,0,0,0,0,-1,1483,1555,0,0
266,-531,0,0,0,0,0,0,0,0,0,-1,1490,1555,0,0
273,-531,0,0,0,0,0,0,0,0,0,-1,1497,1555,0,0
280,-531,0,0,0,0,0,0,0,0,0,-1,1504,1555,0,0
287,-531,0,0,0,0,0,0,0,0,0,-1,1511,1555,0,0
294,-531,0,0,0,0,0,0,0,0,0,-1,1518,1555,0,0
301,-531,0,0,0,0,0,0,0,0,0,-1,1525,1555,0,0
308,-531,0,0,0,0,0,0,0,0,0,-1,1532,1555,0,0
315,-531,0,0,0,0,0,0,0,0,0,-1,1539,1555,0,0
322,-531,0,0,0,0,0,0,0,0,0,-1,1546,1555,0,0
329,-531,0,0,0,0,0,0,0,0,0,-1,1553,1555,0,0
336,-531,0,0,0,0,0,0,0,0,0,-1,1560,1555,0,0
343,-531,0,0,0,0,0,0,0,0,0,-1,1567,1555,0,0
350,-531,0,0,0,0,0,0,0,0,0,-1,1574,1555,0,0
357,-531,0,0,0,0,0,0,0,0,0,-1,1581,1555,0,0
364,-531,0,0,0,0,0,0,0,0,0,-1,1588,1555,0,0
371,-531,0,0,0,0,0,0,0,0,0,-1,1595,1555,0,0
378,-531,0,0,0,0,0,0,0,0,0,-1,1602,1555,0,0
385,-531,3.48169,1.78625,0,0,0,0,0,0,0,-1,1609,1555,3.48165,-1.78624
392,-531,10.8781,9.09204,0,0,0,0,0,0,0,-1,1616,1555,10.8781,-9.09205
399,-531,8.26306,5.29602,0,0,0,0,0,0,0,-1,1623,1555,8.26302,-5.29607
406,-531,8.26147,5.42712,0,0,0,0,0,0,0,-1,1630,1555,8.26145,-5.42716
413,-531,8.20618,5.75012,0,0,0,0,0,0,0,-1,1637,1555,8.20619,-5.75017
420,-531,7.64868,7.09558,0,0,0,0,0,0,0,-1,1644,1555,7.64867,-7.09564
427,-531,9.93054,11.8412,0,0,0,0,0,0,0,-1,1651,1555,9.93059,-11.8412
434,-531,10.244,11.7072,0,0,0,0,0,0,0,-1,1658,1555,10.244,-11.7071
441,-531,11.4528,12.9397,0,0,0,0,0,0,0,-1,1665,1555,11.4528,-12.9397
448,-531,11.928,18.8029,0,0,0,0,0,0,0,-1,1672,1555,11.928,-18.8028
455,-531,14.4877,9.67065,0,0,0,0,0,0,0,-1,1679,1555,14.4876,-9.67066
462,-531,13.5253,12.2002,0,0,0,0,0,0,0,-1,1686,1555,13.5252,-12.2002
469,-531,15.5087,15.7894,0,0,0,0,0,0,0,-1,1693,1555,15.5086,-15.7895
476,-531,14.6582,16.2264,0,0,0,0,0,0,0,-1,1700,1555,14.6582,-16.2264
483,-531,14.755,18.5994,0,0,0,0,0,0,0,-1,1707,1555,14.7551,-18.5994
490,-531,15.4741,22.5215,0,0,0,0,0,0,0,-1,1714,1555,15.4741,-22.5214
497,-531,16.0551,22.271,0,0,0,0,0,0,0,-1,1721,1555,16.055,-22.271
504,-531,16.147,21.6565,0.00749606,0.00641906,-0.00478721,0.011775,0.00214016,-0.72939,0.00724276,0.02953,1728,1555,16.147,-21.6565
511,-531,16.2238,21.1639,0.00610073,0.00543758,-0.00397602,0.00975898,0.00177933,-0.743797,0.00600145,0.0154708,1735,1555,16.2238,-21.1639
518,-531,16.2523,20.7413,0.00476375,0.0041741,-0.00304091,0.0075241,0.00141376,-0.737073,0.00461753,0.0145099,1742,1555,16.2523,-20.7414
525,-531,16.256,20.3286,0.00350323,0.00299345,-0.00218324,0.00544641,0.00105027,-0.727288,0.00333642,0.013662,1749,1555,16.256,-20.3286
532,-531,16.2603,19.8967,0.00237759,0.00193806,-0.00134063,0.00351635,0.000799298,-0.704158,0.00212843,0.0100032,1756,1555,16.2602,-19.8968
539,-531,16.2397,19.4688,0.00158901,0.000927666,-0.00059687,0.00194068,0.00057599,-0.532441,0.00115088,0.0118722,1763,1555,16.2397,-19.4687
546,-531,16.205,19.0349,0.000985558,-9.98335e-05,0.000108896,0.000996376,-0.000110651,0.0990138,0.000704038,0.0164374,1770,1555,16.2049,-19.0349
553,-531,16.2173,18.6204,0.000551024,-0.00107844,0.000761685,0.000851619,-0.00137903,0.37588,0.00129981,0.030122,1777,1555,16.2173,-18.6204
560,-531,16.1383,18.1997,0.000365711,-0.00196057,0.00130313,0.000949293,-0.00254415,0.421049,0.00208583,0.0323555,1784,1555,16.1383,-18.1997
567,-531,16.1302,17.7734,0.000886744,-0.00299784,0.00158394,0.00145072,-0.00356181,0.342061,0.00297831,0.0197066,1791,1555,16.1302,-17.7734
574,-531,16.1525,17.3456,0.00211593,-0.00341363,0.00111686,0.00233299,-0.00363069,0.191957,0.0034702,0.014138,1798,1555,16.1525,-17.3456
581,-531,16.1665,16.8994,0.00389747,-0.00372282,0.000406542,0.0039191,-0.00374445,0.0531488,0.00442494,0.0179791,1805,1555,16.1665,-16.8994
588,-531,16.2374,16.3684,0.0066934,-0.00390837,-0.00103088,0.00679271,-0.00400768,-0.0960381,0.00630434,0.0333842,1812,1555,16.2374,-16.3684
595,-531,16.2958,15.7651,0,0,0,0,0,0,0,-1,1819,1555,16.2958,-15.7652
602,-531,13.701,11.8346,0,0,0,0,0,0,0,-1,1826,1555,13.701,-11.8347
609,-531,10.9072,8.50903,0,0,0,0,0,0,0,-1,1833,1555,10.9073,-8.50902
616,-531,10.5723,7.17859,0,0,0,0,0,0,0,-1,1840,1555,10.5723,-7.17855
623,-531,10.0674,5.08984,0,0,0,0,0,0,0,-1,1847,1555,10.0674,-5.08981
630,-531,11.672,3.18909,0,0,0,0,0,0,0,-1,1854,1555,11.672,-3.18904
637,-531,13.2546,1.38965,0,0,0,0,0,0,0,-1,1861,1555,13.2547,-1.3896
644,-531,0,0,0,0,0,0,0,0,0,-1,1868,1555,0,0
651,-531,0,0,0,0,0,0,0,0,0,-1,1875,1555,0,0
658,-531,0,0,0,0,0,0,0,0,0,-1,1882,1555,0,0
665,-531,0,0,0,0,0,0,0,0,0,-1,1889,1555,0,0
672,-531,0,0,0,0,0,0,0,0,0,-1,1896,1555,0,0
679,-531,0,0,0,0,0,0,0,0,0,-1,1903,1555,0,0
686,-531,0,0,0,0,0,0,0,0,0,-1,1910,1555,0,0
693,-531,0,0,0,0,0,0,0,0,0,-1,1917,1555,0,0
700,-531,0,0,0,0,0,0,0,0,0,-1,1924,1555,0,0
707,-531,0,0,0,0,0,0,0,0,0,-1,1931,1555,0,0
714,-531,0,0,0,0,0,0,0,0,0,-1,1938,1555,0,0
721,-531,0,0,0,0,0,0,0,0,0,-1,1945,1555,0,0
728,-531,0,0,0,0,0,0,0,0,0,-1,1952,1555,0,0
735,-531,0,0,0,0,0,0,0,0,0,-1,1959,1555,0,0
742,-531,0,0,0,0,0,0,0,0,0,-1,1966,1555,0,0
749,-531,0,0,0,0,0,0,0,0,0,-1,1973,1555,0,0
756,-531,0,0,0,0,0,0,0,0,0,-1,1980,1555,0,0
763,-531,0,0,0,0,0,0,0,0,0,-1,1987,1555,0,0
770,-531,0,0,0,0,0,0,0,0,0,-1,1994,1555,0,0
777,-531,0,0,0,0,0,0,0,0,0,-1,2001,1555,0,0
784,-531,0,0,0,0,0,0,0,0,0,-1,2008,1555,0,0
791,-531,0,0,0,0,0,0,0,0,0,-1,2015,1555,0,0
798,-531,0,0,0,0,0,0,0,0,0,-1,2022,1555,0,0
805,-531,0,0,0,0,0,0,0,0,0,-1,2029,1555,0,0
812,-531,0,0,0,0,0,0,0,0,0,-1,2036,1555,0,0
-700,-538,0,0,0,0,0,0,0,0,0,-1,524,1562,0,0
-693,-538,0,0,0,0,0,0,0,0,0,-1,531,1562,0,0
-686,-538,0,0,0,0,0,0,0,0,0,-1,538,1562,0,0
-679,-538,0,0,0,0,0,0,0,0,0,-1,545,1562,0,0
-672,-538,0,0,0,0,0,0,0,0,0,-1,552,1562,0,0
-665,-538,0,0,0,0,0,0,0,0,0,-1,559,1562,0,0
-658,-538,0,0,0,0,0,0,0,0,0,-1,566,1562,0,0
-651,-538,0,0,0,0,0,0,0,0,0,-1,573,1562,0,0
-644,-538,0,0,0,0,0,0,0,0,0,-1,580,1562,0,0
-637,-538,0,0,0,0,0,0,0,0,0,-1,587,1562,0,0
-630,-538,0,0,0,0,0,0,0,0,0,-1,594,1562,0,0
-623,-538,0,0,0,0,0,0,0,0,0,-1,601,1562,0,0
-616,-538,0,0,0,0,0,0,0,0,0,-1,608,1562,0,0
-609,-538,0,0,0,0,0,0,0,0,0,-1,615,1562,0,0
-602,-538,0,0,0,0,0,0,0,0,0,-1,622,1562,0,0
-595,-538,0,0,0,0,0,0,0,0,0,-1,629,1562,0,0
-588,-538,0,0,0,0,0,0,0,0,0,-1,636,1562,0,0
-581,-538,0,0,0,0,0,0,0,0,0,-1,643,1562,0,0
-574,-538,0,0,0,0,0,0,0,0,0,-1,650,1562,0,0
-567,-538,0,0,0,0,0,0,0,0,0,-1,657,1562,0,0
-560,-538,0,0,0,0,0,0,0,0,0,-1,664,1562,0,0
-553,-538,0,0,0,0,0,0,0,0,0,-1,671,1562,0,0
-546,-538,0,0,0,0,0,0,0,0,0,-1,678,1562,0,0
-539,-538,0,0,0,0,0,0,0,0,0,-1,685,1562,0,0
-532,-538,0,0,0,0,0,0,0,0,0,-1,692,1562,0,0
-525,-538,0,0,0,0,0,0,0,0,0,-1,699,1562,0,0
-518,-538,0,0,0,0,0,0,0,0,0,-1,706,1562,0,0
-511,-538,-2.6582,-1.54321,0,0,0,0,0,0,0,-1,713,1562,-2.65821,1.54327
-504,-538,-2.66455,-0.71167,0,0,0,0,0,0,0,-1,720,1562,-2.66456,0.711667
-497,-538,-0.763855,6.77747,0,0,0,0,0,0,0,-1,727,1562,-0.76385,-6.77743
-490,-538,-2.70453,8.01465,0,0,0,0,0,0,0,-1,734,1562,-2.70451,-8.0147
-483,-538,-0.933533,7.84644,0,0,0,0,0,0,0,-1,741,1562,-0.933548,-7.84638
-476,-538,-1.89648,11.1104,0,0,0,0,0,0,0,-1,748,1562,-1.89646,-11.1104
-469,-538,-1.00665,14.335,0,0,0,0,0,0,0,-1,755,1562,-1.00664,-14.3349
-462,-538,-1.13831,14.9382,0,0,0,0,0,0,0,-1,762,1562,-1.13832,-14.9382
-455,-538,-1.26703,15.3394,-0.00130772,-0.000461334,-0.00550565,0.00463736,-0.00640642,-0.823755,0.00640334,0.0413761,769,1562,-1.26702,-15.3394
-448,-538,-1.19849,15.6306,-0.00195786,-0.000546035,-0.00401937,0.00282893,-0.00533283,-0.872326,0.00478554,0.0188833,776,1562,-1.19849,-15.6306
-441,-538,-1.25031,16.0629,-0.00213032,-0.00037917,-0.0028774,0.00175292,-0.00426241,-0.933094,0.00357227,0.0206222,783,1562,-1.2503,-16.0628
-434,-538,-1.30408,16.4421,-0.00200564,-0.0005191,-0.00168161,0.000576182,-0.00310092,-0.993488,0.0022837,0.0130035,790,1562,-1.30406,-16.4421
-427,-538,-1.34869,16.946,-0.00151039,0.000150735,-0.000755165,0.000442718,-0.00180237,-1.20185,0.00137315,0.0135796,797,1562,-1.3487,-16.946
-420,-538,-1.38458,17.4365,-0.000746127,0.00078932,-2.04945e-05,0.000789593,-0.0007464,-1.55745,0.000886923,0.017809,804,1562,-1.38459,-17.4365
-413,-538,-1.40216,17.8715,1.23387e-05,0.00170495,0.000580604,0.00188496,-0.000167677,1.27015,0.0013161,0.0185579,811,1562,-1.40219,-17.8715
-406,-538,-1.36346,18.2778,0.00093237,0.00255902,0.00137195,0.00334061,0.000150783,1.05296,0.00217855,0.0143726,818,1562,-1.36349,-18.2778
-399,-538,-1.3656,18.7565,0.00186199,0.00347288,0.0021539,0.004967,0.000367869,0.964322,0.00319578,0.0131408,825,1562,-1.36559,-18.7565
-392,-538,-1.37958,19.2104,0.00319741,0.00354909,0.00310072,0.00647895,0.000267541,0.813722,0.00423294,0.0141983,832,1562,-1.37956,-19.2105
-385,-538,-1.39978,19.6439,0.00484041,0.00308427,0.00422085,0.00827355,-0.000348872,0.682845,0.00563559,0.0115719,839,1562,-1.39979,-19.6439
-378,-538,-1.41364,20.0903,0.00637193,0.00253426,0.00527016,0.0100617,-0.00115551,0.61081,0.00712428,0.00918658,846,1562,-1.41362,-20.0903
-371,-538,-1.43854,20.5166,0.00817979,0.00145805,0.00651857,0.0121529,-0.00251506,0.54738,0.00905744,0.0127491,853,1562,-1.43856,-20.5166
-364,-538,-1.37128,21.041,0.0103476,-0.000357584,0.00788652,0.0145264,-0.00453638,0.487254,0.0114987,0.0165485,860,1562,-1.37128,-21.041
-357,-538,-1.30969,21.5977,0.0127884,-0.00295323,0.00947244,0.0172333,-0.00739813,0.438742,0.014594,0.0380371,867,1562,-1.30968,-21.5977
-350,-538,-1.18304,22.3086,0,0,0,0,0,0,0,-1,874,1562,-1.18302,-22.3085
-343,-538,-1.32794,22.5031,0.0185141,-0.0109205,0.0130528,0.0234685,-0.0158749,0.362766,0.0228555,0.0460148,881,1562,-1.32795,-22.5031
-336,-538,-0.849304,22.3802,0.0216475,-0.0159034,0.0150111,0.0269106,-0.0211665,0.33722,0.0278233,0.0409194,888,1562,-0.849283,-22.3802
-329,-538,-0.930481,22.7422,0,0,0,0,0,0,0,-1,895,1562,-0.930505,-22.7422
-322,-538,-1.9845,22.4153,0,0,0,0,0,0,0,-1,902,1562,-1.98452,-22.4153
-315,-538,-2.25354,22.3262,0,0,0,0,0,0,0,-1,909,1562,-2.25351,-22.3262
-308,-538,-2.52136,21.9954,0,0,0,0,0,0,0,-1,916,1562,-2.52134,-21.9954
-301,-538,-0.452393,18.5101,0,0,0,0,0,0,0,-1,923,1562,-0.452367,-18.5102
-294,-538,1.23138,14.0757,0,0,0,0,0,0,0,-1,930,1562,1.23137,-14.0757
-287,-538,-2.60419,10.2361,0,0,0,0,0,0,0,-1,937,1562,-2.6042,-10.2361
-280,-538,-2.93475,10.5106,0,0,0,0,0,0,0,-1,944,1562,-2.93475,-10.5106
-273,-538,-3.26532,10.785,0,0,0,0,0,0,0,-1,951,1562,-3.26531,-10.785
-266,-538,-5.03412,15.9951,0,0,0,0,0,0,0,-1,958,1562,-5.03409,-15.9951
-259,-538,-5.89642,16.5184,0,0,0,0,0,0,0,-1,965,1562,-5.89644,-16.5184
-252,-538,0,0,0,0,0,0,0,0,0,-1,972,1562,0,0
-245,-538,0,0,0,0,0,0,0,0,0,-1,979,1562,0,0
-238,-538,0,0,0,0,0,0,0,0,0,-1,986,1562,0,0
-231,-538,0,0,0,0,0,0,0,0,0,-1,993,1562,0,0
-224,-538,0,0,0,0,0,0,0,0,0,-1,1000,1562,0,0
-217,-538,0,0,0,0,0,0,0,0,0,-1,1007,1562,0,0
-210,-538,0,0,0,0,0,0,0,0,0,-1,1014,1562,0,0
-203,-538,0,0,0,0,0,0,0,0,0,-1,1021,1562,0,0
-196,-538,0,0,0,0,0,0,0,0,0,-1,1028,1562,0,0
-189,-538,0,0,0,0,0,0,0,0,0,-1,1035,1562,0,0
-182,-538,0,0,0,0,0,0,0,0,0,-1,1042,1562,0,0
-175,-538,0,0,0,0,0,0,0,0,0,-1,1049,1562,0,0
-168,-538,0,0,0,0,0,0,0,0,0,-1,1056,1562,0,0
-161,-538,0,0,0,0,0,0,0,0,0,-1,1063,1562,0,0
-154,-538,0,0,0,0,0,0,0,0,0,-1,1070,1562,0,0
-147,-538,0,0,0,0,0,0,0,0,0,-1,1077,1562,0,0
-140,-538,0,0,0,0,0,0,0,0,0,-1,1084,1562,0,0
-133,-538,0,0,0,0,0,0,0,0,0,-1,1091,1562,0,0
-126,-538,0,0,0,0,0,0,0,0,0,-1,1098,1562,0,0
-119,-538,0,0,0,0,0,0,0,0,0,-1,1105,1562,0,0
-112,-538,0,0,0,0,0,0,0,0,0,-1,1112,1562,0,0
-105,-538,0,0,0,0,0,0,0,0,0,-1,1119,1562,0,0
-98,-538,0,0,0,0,0,0,0,0,0,-1,1126,1562,0,0
-91,-538,0,0,0,0,0,0,0,0,0,-1,1133,1562,0,0
-84,-538,0,0,0,0,0,0,0,0,0,-1,1140,1562,0,0
-77,-538,0,0,0,0,0,0,0,0,0,-1,1147,1562,0,0
-70,-538,0,0,0,0,0,0,0,0,0,-1,1154,1562,0,0
-63,-538,0,0,0,0,0,0,0,0,0,-1,1161,1562,0,0
-56,-538,0,0,0,0,0,0,0,0,0,-1,1168,1562,0,0
-49,-538,0,0,0,0,0,0,0,0,0,-1,1175,1562,0,0
-42,-538,0,0,0,0,0,0,0,0,0,-1,1182,1562,0,0
-35,-538,0,0,0,0,0,0,0,0,0,-1,1189,1562,0,0
-28,-538,0,0,0,0,0,0,0,0,0,-1,1196,1562,0,0
-21,-538,0,0,0,0,0,0,0,0,0,-1,1203,1562,0,0
-14,-538,0,0,0,0,0,0,0,0,0,-1,1210,1562,0,0
-7,-538,0,0,0,0,0,0,0,0,0,-1,1217,1562,0,0
0,-538,0,0,0,0,0,0,0,0,0,-1,1224,1562,0,0
7,-538,0,0,0,0,0,0,0,0,0,-1,1231,1562,0,0
14,-538,0,0,0,0,0,0,0,0,0,-1,1238,1562,0,0
21,-538,0,0,0,0,0,0,0,0,0,-1,1245,1562,0,0
28,-538,0,0,0,0,0,0,0,0,0,-1,1252,1562,0,0
35,-538,0,0,0,0,0,0,0,0,0,-1,1259,1562,0,0
42,-538,0,0,0,0,0,0,0,0,0,-1,1266,1562,0,0
49,-538,0,0,0,0,0,0,0,0,0,-1,1273,1562,0,0
56,-538,0,0,0,0,0,0,0,0,0,-1,1280,1562,0,0
63,-538,0,0,0,0,0,0,0,0,0,-1,1287,1562,0,0
70,-538,0,0,0,0,0,0,0,0,0,-1,1294,1562,0,0
77,-538,0,0,0,0,0,0,0,0,0,-1,1301,1562,0,0
84,-538,0,0,0,0,0,0,0,0,0,-1,1308,1562,0,0
91,-538,0,0,0,0,0,0,0,0,0,-1,1315,1562,0,0
98,-538,0,0,0,0,0,0,0,0,0,-1,1322,1562,0,0
105,-538,0,0,0,0,0,0,0,0,0,-1,1329,1562,0,0
112,-538,0,0,0,0,0,0,0,0,0,-1,1336,1562,0,0
119,-538,0,0,0,0,0,0,0,0,0,-1,1343,1562,0,0
126,-538,0,0,0,0,0,0,0,0,0,-1,1350,1562,0,0
133,-538,0,0,0,0,0,0,0,0,0,-1,1357,1562,0,0
140,-538,0,0,0,0,0,0,0,0,0,-1,1364,1562,0,0
147,-538,0,0,0,0,0,0,0,0,0,-1,1371,1562,0,0
154,-538,0,0,0,0,0,0,0,0,0,-1,1378,1562,0,0
161,-538,0,0,0,0,0,0,0,0,0,-1,1385,1562,0,0
168,-538,0,0,0,0,0,0,0,0,0,-1,1392,1562,0,0
175,-538,0,0,0,0,0,0,0,0,0,-1,1399,1562,0,0
182,-538,0,0,0,0,0,0,0,0,0,-1,1406,1562,0,0
189,-538,0,0,0,0,0,0,0,0,0,-1,1413,1562,0,0
196,-538,0,0,0,0,0,0,0,0,0,-1,1420,1562,0,0
203,-538,0,0,0,0,0,0,0,0,0,-1,1427,1562,0,0
210,-538,0,0,0,0,0,0,0,0,0,-1,1434,1562,0,0
217,-538,0,0,0,0,0,0,0,0,0,-1,1441,1562,0,0
224,-538,0,0,0,0,0,0,0,0,0,-1,1448,1562,0,0
231,-538,0,0,0,0,0,0,0,0,0,-1,1455,1562,0,0
238,-538,0,0,0,0,0,0,0,0,0,-1,1462,1562,0,0
245,-538,0,0,0,0,0,0,0,0,0,-1,1469,1562,0,0
252,-538,0,0,0,0,0,0,0,0,0,-1,1476,1562,0,0
259,-538,0,0,0,0,0,0,0,0,0,-1,1483,1562,0,0
266,-538,0,0,0,0,0,0,0,0,0,-1,1490,1562,0,0
273,-538,0,0,0,0,0,0,0,0,0,-1,1497,1562,0,0
280,-538,0,0,0,0,0,0,0,0,0,-1,1504,1562,0,0
287,-538,0,0,0,0,0,0,0,0,0,-1,1511,1562,0,0
294,-538,0,0,0,0,0,0,0,0,0,-1,1518,1562,0,0
301,-538,0,0,0,0,0,0,0,0,0,-1,1525,1562,0,0
308,-538,0,0,0,0,0,0,0,0,0,-1,1532,1562,0,0
315,-538,0,0,0,0,0,0,0,0,0,-1,1539,1562,0,0
322,-538,0,0,0,0,0,0,0,0,0,-1,1546,1562,0,0
329,-538,0,0,0,0,0,0,0,0,0,-1,1553,1562,0,0
336,-538,0,0,0,0,0,0,0,0,0,-1,1560,1562,0,0
343,-538,0,0,0,0,0,0,0,0,0,-1,1567,1562,0,0
350,-538,0,0,0,0,0,0,0,0,0,-1,1574,1562,0,0
357,-538,0,0,0,0,0,0,0,0,0,-1,1581,1562,0,0
364,-538,0,0,0,0,0,0,0,0,0,-1,1588,1562,0,0
371,-538,0,0,0,0,0,0,0,0,0,-1,1595,1562,0,0
378,-538,9.65479,5.82434,0,0,0,0,0,0,0,-1,1602,1562,9.6548,-5.82439
385,-538,10.5449,7.9502,0,0,0,0,0,0,0,-1,1609,1562,10.5449,-7.95014
392,-538,8.20361,7.07214,0,0,0,0,0,0,0,-1,1616,1562,8.20362,-7.07211
399,-538,7.85425,4.70508,0,0,0,0,0,0,0,-1,1623,1562,7.85425,-4.70512
406,-538,7.77734,4.96094,0,0,0,0,0,0,0,-1,1630,1562,7.77729,-4.96097
413,-538,13.0446,13.1765,0,0,0,0,0,0,0,-1,1637,1562,13.0446,-13.1765
420,-538,9.96216,12.7653,0,0,0,0,0,0,0,-1,1644,1562,9.96221,-12.7653
427,-538,10.1732,14.5863,0,0,0,0,0,0,0,-1,1651,1562,10.1732,-14.5863
434,-538,9.64331,14.7745,0,0,0,0,0,0,0,-1,1658,1562,9.64326,-14.7746
441,-538,11.5039,20.5195,0,0,0,0,0,0,0,-1,1665,1562,11.5039,-20.5195
448,-538,12.8766,22.4932,0,0,0,0,0,0,0,-1,1672,1562,12.8766,-22.4932
455,-538,12.5693,17.4128,0,0,0,0,0,0,0,-1,1679,1562,12.5694,-17.4128
462,-538,12.1389,17.017,0,0,0,0,0,0,0,-1,1686,1562,12.1389,-17.017
469,-538,14.3802,16.6945,0,0,0,0,0,0,0,-1,1693,1562,14.3803,-16.6945
476,-538,13.724,19.0608,0,0,0,0,0,0,0,-1,1700,1562,13.724,-19.0608
483,-538,15.5009,22.6149,0,0,0,0,0,0,0,-1,1707,1562,15.5009,-22.6149
490,-538,15.6379,22.5519,0,0,0,0,0,0,0,-1,1714,1562,15.638,-22.5519
497,-538,15.8168,21.9841,0,0,0,0,0,0,0,-1,1721,1562,15.8168,-21.9842
504,-538,15.8458,21.5568,0.00604603,0.00539051,-0.00396624,0.00969804,0.00173851,-0.744173,0.00597082,0.0143253,1728,1562,15.8459,-21.5567
511,-538,15.8278,21.1455,0.00483527,0.00433684,-0.00315739,0.00775327,0.00141885,-0.746014,0.00476681,0.0100289,1735,1562,15.8278,-21.1454
518,-538,15.8264,20.7408,0.00364138,0.00308247,-0.00224807,0.0056273,0.00109655,-0.723561,0.0034447,0.0104883,1742,1562,15.8264,-20.7408
525,-538,15.8201,20.3223,0.00249157,0.00192259,-0.00140227,0.00363792,0.000776248,-0.685317,0.0022124,0.011454,1749,1562,15.8201,-20.3223
532,-538,15.8212,19.9104,0.00145153,0.00086555,-0.000554349,0.00178555,0.000531525,-0.542294,0.00105865,0.0126408,1756,1562,15.8212,-19.9104
539,-538,15.7955,19.5096,0.000719081,-0.000211304,0.000234856,0.000775004,-0.000267227,0.233763,0.000625084,0.0163181,1763,1562,15.7956,-19.5096
546,-538,15.774,19.0664,0.000103667,-0.00133926,0.00104103,0.000648792,-0.00188438,0.482382,0.00151942,0.0190428,1770,1562,15.7741,-19.0665
553,-538,15.7932,18.5967,-0.000361872,-0.00246628,0.00183473,0.000700954,-0.00352911,0.525047,0.00261786,0.0279194,1777,1562,15.7932,-18.5966
560,-538,15.7201,18.2397,-0.000576553,-0.00358289,0.00257105,0.000898503,-0.00505795,0.520869,0.00370793,0.0287846,1784,1562,15.7201,-18.2398
567,-538,15.6802,17.8207,-8.17491e-05,-0.00478176,0.0030423,0.00141248,-0.00627599,0.456543,0.00472571,0.0226741,1791,1562,15.6802,-17.8207
574,-538,15.675,17.3467,0.00117201,-0.00547269,0.0027646,0.00217182,-0.0064725,0.347011,0.00519261,0.022084,1798,1562,15.675,-17.3467
581,-538,15.7103,16.9026,0.00313131,-0.0059545,0.00217472,0.00362501,-0.0064482,0.223234,0.00589141,0.0294567,1805,1562,15.7103,-16.9026
588,-538,15.7324,16.5366,0.0062474,-0.00640316,0.000799224,0.00629769,-0.00645345,0.062844,0.00736206,0.0492571,1812,1562,15.7324,-16.5366
595,-538,15.819,16.0046,0,0,0,0,0,0,0,-1,1819,1562,15.8189,-16.0047
602,-538,10.314,8.94238,0,0,0,0,0,0,0,-1,1826,1562,10.314,-8.94238
609,-538,10.1046,7.05713,0,0,0,0,0,0,0,-1,1833,1562,10.1046,-7.05719
616,-538,9.92249,5.43506,0,0,0,0,0,0,0,-1,1840,1562,9.92254,-5.43507
623,-538,11.1711,4.31604,0,0,0,0,0,0,0,-1,1847,1562,11.1711,-4.316
630,-538,12.6112,2.61633,0,0,0,0,0,0,0,-1,1854,1562,12.6112,-2.61637
637,-538,0,0,0,0,0,0,0,0,0,-1,1861,1562,0,0
644,-538,0,0,0,0,0,0,0,0,0,-1,1868,1562,0,0
651,-538,0,0,0,0,0,0,0,0,0,-1,1875,1562,0,0
658,-538,0,0,0,0,0,0,0,0,0,-1,1882,1562,0,0
665,-538,0,0,0,0,0,0,0,0,0,-1,1889,1562,0,0
672,-538,0,0,0,0,0,0,0,0,0,-1,1896,1562,0,0
679,-538,0,0,0,0,0,0,0,0,0,-1,1903,1562,0,0
686,-538,0,0,0,0,0,0,0,0,0,-1,1910,1562,0,0
693,-538,0,0,0,0,0,0,0,0,0,-1,1917,1562,0,0
700,-538,0,0,0,0,0,0,0,0,0,-1,1924,1562,0,0
707,-538,0,0,0,0,0,0,0,0,0,-1,1931,1562,0,0
714,-538,0,0,0,0,0,0,0,0,0,-1,1938,1562,0,0
721,-538,0,0,0,0,0,0,0,0,0,-1,1945,1562,0,0
728,-538,0,0,0,0,0,0,0,0,0,-1,1952,1562,0,0
735,-538,0,0,0,0,0,0,0,0,0,-1,1959,1562,0,0
742,-538,0,0,0,0,0,0,0,0,0,-1,1966,1562,0,0
749,-538,0,0,0,0,0,0,0,0,0,-1,1973,1562,0,0
756,-538,0,0,0,0,0,0,0,0,0,-1,1980,1562,0,0
763,-538,0,0,0,0,0,0,0,0,0,-1,1987,1562,0,0
770,-538,0,0,0,0,0,0,0,0,0,-1,1994,1562,0,0
777,-538,0,0,0,0,0,0,0,0,0,-1,2001,1562,0,0
784,-538,0,0,0,0,0,0,0,0,0,-1,2008,1562,0,0
791,-538,0,0,0,0,0,0,0,0,0,-1,2015,1562,0,0
798,-538,0,0,0,0,0,0,0,0,0,-1,2022,1562,0,0
805,-538,0,0,0,0,0,0,0,0,0,-1,2029,1562,0,0
812,-538,0,0,0,0,0,0,0,0,0,-1,2036,1562,0,0
-700,-545,0,0,0,0,0,0,0,0,0,-1,524,1569,0,0
-693,-545,0,0,0,0,0,0,0,0,0,-1,531,1569,0,0
-686,-545,0,0,0,0,0,0,0,0,0,-1,538,1569,0,0
-679,-545,0,0,0,0,0,0,0,0,0,-1,545,1569,0,0
-672,-545,0,0,0,0,0,0,0,0,0,-1,552,1569,0,0
-665,-545,0,0,0,0,0,0,0,0,0,-1,559,1569,0,0
-658,-545,0,0,0,0,0,0,0,0,0,-1,566,1569,0,0
-651,-545,0,0,0,0,0,0,0,0,0,-1,573,1569,0,0
-644,-545,0,0,0,0,0,0,0,0,0,-1,580,1569,0,0
-637,-545,0,0,0,0,0,0,0,0,0,-1,587,1569,0,0
-630,-545,0,0,0,0,0,0,0,0,0,-1,594,1569,0,0
-623,-545,0,0,0,0,0,0,0,0,0,-1,601,1569,0,0
-616,-545,0,0,0,0,0,0,0,0,0,-1,608,1569,0,0
-609,-545,0,0,0,0,0,0,0,0,0,-1,615,1569,0,0
-602,-545,0,0,0,0,0,0,0,0,0,-1,622,1569,0,0
-595,-545,0,0,0,0,0,0,0,0,0,-1,629,1569,0,0
-588,-545,0,0,0,0,0,0,0,0,0,-1,636,1569,0,0
-581,-545,0,0,0,0,0,0,0,0,0,-1,643,1569,0,0
-574,-545,0,0,0,0,0,0,0,0,0,-1,650,1569,0,0
-567,-545,0,0,0,0,0,0,0,0,0,-1,657,1569,0,0
-560,-545,0,0,0,0,0,0,0,0,0,-1,664,1569,0,0
-553,-545,0,0,0,0,0,0,0,0,0,-1,671,1569,0,0
-546,-545,0,0,0,0,0,0,0,0,0,-1,678,1569,0,0
-539,-545,0,0,0,0,0,0,0,0,0,-1,685,1569,0,0
-532,-545,0,0,0,0,0,0,0,0,0,-1,692,1569,0,0
-525,-545,0,0,0,0,0,0,0,0,0,-1,699,1569,0,0
-518,-545,0,0,0,0,0,0,0,0,0,-1,706,1569,0,0
-511,-545,0,0,0,0,0,0,0,0,0,-1,713,1569,0,0
-504,-545,-3.55237,-2.5354,0,0,0,0,0,0,0,-1,720,1569,-3.55236,2.53545
-497,-545,2.26575,5.69214,0,0,0,0,0,0,0,-1,727,1569,2.26573,-5.6922
-490,-545,-2.17334,7.81396,0,0,0,0,0,0,0,-1,734,1569,-2.17334,-7.81399
-483,-545,-1.88336,5.8446,0,0,0,0,0,0,0,-1,741,1569,-1.88334,-5.84466
-476,-545,-1.13147,6.5741,0,0,0,0,0,0,0,-1,748,1569,-1.13149,-6.57405
-469,-545,-1.47662,10.9404,0,0,0,0,0,0,0,-1,755,1569,-1.47659,-10.9405
-462,-545,-0.5448,14.8755,0,0,0,0,0,0,0,-1,762,1569,-0.544787,-14.8755
-455,-545,-0.855469,15.2504,0,0,0,0,0,0,0,-1,769,1569,-0.855469,-15.2504
-448,-545,-0.737549,15.6487,0,0,0,0,0,0,0,-1,776,1569,-0.737562,-15.6487
-441,-545,-0.692932,16.1304,-0.00298486,0.000600409,-0.00306434,0.00235795,-0.0047424,-1.05006,0.00417573,0.0254282,783,1569,-0.692926,-16.1304
-434,-545,-0.899048,16.5193,-0.00300293,-4.74098e-05,-0.00199102,0.000954337,-0.00400468,-1.10465,0.00303827,0.0227812,790,1569,-0.89902,-16.5193
-427,-545,-0.897095,16.9683,-0.00255897,0.000190668,-0.00118479,0.000630749,-0.00299905,-1.21515,0.00223943,0.0190675,797,1569,-0.897108,-16.9683
-420,-545,-0.916199,17.4402,-0.00181868,0.000574879,-0.000530188,0.000687061,-0.00193086,-1.36228,0.00156729,0.0234604,804,1569,-0.916224,-17.4401
-413,-545,-0.921265,17.8685,-0.00111416,0.00125002,-3.94432e-05,0.00125068,-0.00111481,-1.55412,0.00136647,0.022597,811,1569,-0.921234,-17.8685
-406,-545,-0.892639,18.2954,-0.000248319,0.0018275,0.00062737,0.00200238,-0.000423195,1.29895,0.00149607,0.0160982,818,1569,-0.892617,-18.2954
-399,-545,-0.90564,18.7585,0.000622538,0.00243961,0.00127513,0.00309677,-3.46188e-05,1.09493,0.00207615,0.0114289,825,1569,-0.905616,-18.7586
-392,-545,-0.934021,19.2079,0.00177379,0.00262404,0.00199695,0.00424062,0.000157214,0.890275,0.00277616,0.0111848,832,1569,-0.934009,-19.2079
-385,-545,-0.949463,19.6611,0.00317279,0.00226319,0.00279998,0.00555467,-0.000118689,0.704886,0.00374331,0.00893336,839,1569,-0.949474,-19.6611
-378,-545,-0.968018,20.1222,0.00449754,0.00190825,0.00357403,0.00700418,-0.000598392,0.61163,0.00488116,0.0107614,846,1569,-0.968003,-20.1223
-371,-545,-0.973145,20.587,0.00598813,0.00115183,0.00445341,0.00863755,-0.00149759,0.536676,0.00631702,0.01428,853,1569,-0.973159,-20.587
-364,-545,-0.9776,20.9993,0.00773628,-7.93215e-05,0.0054126,0.0105043,-0.00284738,0.472734,0.00812017,0.00926355,860,1569,-0.977614,-20.9992
-357,-545,-0.915649,21.5204,0.00964011,-0.00179635,0.0065062,0.0125838,-0.00474004,0.424884,0.010338,0.0164385,867,1569,-0.915669,-21.5204
-350,-545,-0.875549,21.9984,0.0117731,-0.0040249,0.0077121,0.0149136,-0.00716541,0.386714,0.0130063,0.0254907,874,1569,-0.875544,-21.9984
-343,-545,-0.923279,22.3534,0.0140382,-0.00681828,0.00896387,0.0173613,-0.0101414,0.355014,0.01606,0.037295,881,1569,-0.923263,-22.3534
-336,-545,-0.950623,22.4434,0.0163888,-0.00969731,0.0104357,0.0200498,-0.0133583,0.3374,0.0194168,0.0481307,888,1569,-0.950604,-22.4433
-329,-545,-1.08557,22.7101,0,0,0,0,0,0,0,-1,895,1569,-1.08557,-22.71
-322,-545,-0.992737,21.5034,0,0,0,0,0,0,0,-1,902,1569,-0.992735,-21.5034
-315,-545,-1.29688,21.5935,0,0,0,0,0,0,0,-1,909,1569,-1.2969,-21.5935
-308,-545,-1.54358,21.4457,0,0,0,0,0,0,0,-1,916,1569,-1.54357,-21.4457
-301,-545,1.52191,17.5009,0,0,0,0,0,0,0,-1,923,1569,1.52192,-17.5008
-294,-545,-2.69287,8.42102,0,0,0,0,0,0,0,-1,930,1569,-2.69287,-8.42097
-287,-545,-3.47784,9.96021,0,0,0,0,0,0,0,-1,937,1569,-3.47785,-9.96021
-280,-545,-3.7879,10.5448,0,0,0,0,0,0,0,-1,944,1569,-3.78793,-10.5448
-273,-545,-5.10333,12.864,0,0,0,0,0,0,0,-1,951,1569,-5.10331,-12.864
-266,-545,-5.78955,13.3704,0,0,0,0,0,0,0,-1,958,1569,-5.78952,-13.3703
-259,-545,-6.32184,13.8101,0,0,0,0,0,0,0,-1,965,1569,-6.32182,-13.81
-252,-545,0.369263,7.54053,0,0,0,0,0,0,0,-1,972,1569,0.369276,-7.54056
-245,-545,-0.236633,6.65564,0,0,0,0,0,0,0,-1,979,1569,-0.236605,-6.65566
-238,-545,0,0,0,0,0,0,0,0,0,-1,986,1569,0,0
-231,-545,0,0,0,0,0,0,0,0,0,-1,993,1569,0,0
-224,-545,0,0,0,0,0,0,0,0,0,-1,1000,1569,0,0
-217,-545,0,0,0,0,0,0,0,0,0,-1,1007,1569,0,0
-210,-545,0,0,0,0,0,0,0,0,0,-1,1014,1569,0,0
-203,-545,0,0,0,0,0,0,0,0,0,-1,1021,1569,0,0
-196,-545,0,0,0,0,0,0,0,0,0,-1,1028,1569,0,0
-189,-545,0,0,0,0,0,0,0,0,0,-1,1035,1569,0,0
-182,-545,0,0,0,0,0,0,0,0,0,-1,1042,1569,0,0
-175,-545,0,0,0,0,0,0,0,0,0,-1,1049,1569,0,0
-168,-545,0,0,0,0,0,0,0,0,0,-1,1056,1569,0,0
-161,-545,0,0,0,0,0,0,0,0,0,-1,1063,1569,0,0
-154,-545,0,0,0,0,0,0,0,0,0,-1,1070,1569,0,0
-147,-545,0,0,0,0,0,0,0,0,0,-1,1077,1569,0,0
-140,-545,0,0,0,0,0,0,0,0,0,-1,1084,1569,0,0
-133,-545,0,0,0,0,0,0,0,0,0,-1,1091,1569,0,0
-126,-545,0,0,0,0,0,0,0,0,0,-1,1098,1569,0,0
-119,-545,0,0,0,0,0,0,0,0,0,-1,1105,1569,0,0
-112,-545,0,0,0,0,0,0,0,0,0,-1,1112,1569,0,0
-105,-545,0,0,0,0,0,0,0,0,0,-1,1119,1569,0,0
-98,-545,0,0,0,0,0,0,0,0,0,-1,1126,1569,0,0
-91,-545,0,0,0,0,0,0,0,0,0,-1,1133,1569,0,0
-84,-545,0,0,0,0,0,0,0,0,0,-1,1140,1569,0,0
-77,-545,0,0,0,0,0,0,0,0,0,-1,1147,1569,0,0
-70,-545,0,0,0,0,0,0,0,0,0,-1,1154,1569,0,0
-63,-545,0,0,0,0,0,0,0,0,0,-1,1161,1569,0,0
-56,-545,0,0,0,0,0,0,0,0,0,-1,1168,1569,0,0
-49,-545,0,0,0,0,0,0,0,0,0,-1,1175,1569,0,0
-42,-545,0,0,0,0,0,0,0,0,0,-1,1182,1569,0,0
-35,-545,0,0,0,0,0,0,0,0,0,-1,1189,1569,0,0
-28,-545,0,0,0,0,0,0,0,0,0,-1,1196,1569,0,0
-21,-545,0,0,0,0,0,0,0,0,0,-1,1203,1569,0,0
-14,-545,0,0,0,0,0,0,0,0,0,-1,1210,1569,0,0
-7,-545,0,0,0,0,0,0,0,0,0,-1,1217,1569,0,0
0,-545,0,0,0,0,0,0,0,0,0,-1,1224,1569,0,0
7,-545,0,0,0,0,0,0,0,0,0,-1,1231,1569,0,0
14,-545,0,0,0,0,0,0,0,0,0,-1,1238,1569,0,0
21,-545,0,0,0,0,0,0,0,0,0,-1,1245,1569,0,0
28,-545,0,0,0,0,0,0,0,0,0,-1,1252,1569,0,0
35,-545,0,0,0,0,0,0,0,0,0,-1,1259,1569,0,0
42,-545,0,0,0,0,0,0,0,0,0,-1,1266,1569,0,0
49,-545,0,0,0,0,0,0,0,0,0,-1,1273,1569,0,0
56,-545,0,0,0,0,0,0,0,0,0,-1,1280,1569,0,0
63,-545,0,0,0,0,0,0,0,0,0,-1,1287,1569,0,0
70,-545,0,0,0,0,0,0,0,0,0,-1,1294,1569,0,0
77,-545,0,0,0,0,0,0,0,0,0,-1,1301,1569,0,0
84,-545,0,0,0,0,0,0,0,0,0,-1,1308,1569,0,0
91,-545,0,0,0,0,0,0,0,0,0,-1,1315,1569,0,0
98,-545,0,0,0,0,0,0,0,0,0,-1,1322,1569,0,0
105,-545,0,0,0,0,0,0,0,0,0,-1,1329,1569,0,0
112,-545,0,0,0,0,0,0,0,0,0,-1,1336,1569,0,0
119,-545,0,0,0,0,0,0,0,0,0,-1,1343,1569,0,0
126,-545,0,0,0,0,0,0,0,0,0,-1,1350,1569,0,0
133,-545,0,0,0,0,0,0,0,0,0,-1,1357,1569,0,0
140,-545,0,0,0,0,0,0,0,0,0,-1,1364,1569,0,0
147,-545,0,0,0,0,0,0,0,0,0,-1,1371,1569,0,0
154,-545,0,0,0,0,0,0,0,0,0,-1,1378,1569,0,0
161,-545,0,0,0,0,0,0,0,0,0,-1,1385,1569,0,0
168,-545,0,0,0,0,0,0,0,0,0,-1,1392,1569,0,0
175,-545,0,0,0,0,0,0,0,0,0,-1,1399,1569,0,0
182,-545,0,0,0,0,0,0,0,0,0,-1,1406,1569,0,0
189,-545,0,0,0,0,0,0,0,0,0,-1,1413,1569,0,0
196,-545,0,0,0,0,0,0,0,0,0,-1,1420,1569,0,0
203,-545,0,0,0,0,0,0,0,0,0,-1,1427,1569,0,0
210,-545,0,0,0,0,0,0,0,0,0,-1,1434,1569,0,0
217,-545,0,0,0,0,0,0,0,0,0,-1,1441,1569,0,0
224,-545,0,0,0,0,0,0,0,0,0,-1,1448,1569,0,0
231,-545,0,0,0,0,0,0,0,0,0,-1,1455,1569,0,0
238,-545,0,0,0,0,0,0,0,0,0,-1,1462,1569,0,0
245,-545,0,0,0,0,0,0,0,0,0,-1,1469,1569,0,0
252,-545,0,0,0,0,0,0,0,0,0,-1,1476,1569,0,0
259,-545,0,0,0,0,0,0,0,0,0,-1,1483,1569,0,0
266,-545,0,0,0,0,0,0,0,0,0,-1,1490,1569,0,0
273,-545,0,0,0,0,0,0,0,0,0,-1,1497,1569,0,0
280,-545,0,0,0,0,0,0,0,0,0,-1,1504,1569,0,0
287,-545,0,0,0,0,0,0,0,0,0,-1,1511,1569,0,0
294,-545,0,0,0,0,0,0,0,0,0,-1,1518,1569,0,0
301,-545,0,0,0,0,0,0,0,0,0,-1,1525,1569,0,0
308,-545,0,0,0,0,0,0,0,0,0,-1,1532,1569,0,0
315,-545,0,0,0,0,0,0,0,0,0,-1,1539,1569,0,0
322,-545,0,0,0,0,0,0,0,0,0,-1,1546,1569,0,0
329,-545,0,0,0,0,0,0,0,0,0,-1,1553,1569,0,0
336,-545,0,0,0,0,0,0,0,0,0,-1,1560,1569,0,0
343,-545,0,0,0,0,0,0,0,0,0,-1,1567,1569,0,0
350,-545,0,0,0,0,0,0,0,0,0,-1,1574,1569,0,0
357,-545,0,0,0,0,0,0,0,0,0,-1,1581,1569,0,0
364,-545,7.19495,4.88098,0,0,0,0,0,0,0,-1,1588,1569,7.19497,-4.88095
371,-545,7.82324,3.84302,0,0,0,0,0,0,0,-1,1595,1569,7.82324,-3.84307
378,-545,7.65674,5.52673,0,0,0,0,0,0,0,-1,1602,1569,7.6567,-5.52667
385,-545,8.58447,1.16125,0,0,0,0,0,0,0,-1,1609,1569,8.5845,-1.1612
392,-545,12.5654,3.89526,0,0,0,0,0,0,0,-1,1616,1569,12.5655,-3.89532
399,-545,11.5869,5.6333,0,0,0,0,0,0,0,-1,1623,1569,11.5869,-5.63326
406,-545,11.234,6.36414,0,0,0,0,0,0,0,-1,1630,1569,11.234,-6.3641
413,-545,12.1521,13.4817,0,0,0,0,0,0,0,-1,1637,1569,12.1521,-13.4817
420,-545,11.1954,13.6047,0,0,0,0,0,0,0,-1,1644,1569,11.1954,-13.6047
427,-545,9.61072,14.9135,0,0,0,0,0,0,0,-1,1651,1569,9.61076,-14.9134
434,-545,13.1598,23.9921,0,0,0,0,0,0,0,-1,1658,1569,13.1598,-23.992
441,-545,12.2833,22.2238,0,0,0,0,0,0,0,-1,1665,1569,12.2833,-22.2237
448,-545,13.0082,21.941,0,0,0,0,0,0,0,-1,1672,1569,13.0082,-21.941
455,-545,13.733,21.6583,0,0,0,0,0,0,0,-1,1679,1569,13.733,-21.6583
462,-545,12.449,20.7413,0,0,0,0,0,0,0,-1,1686,1569,12.4489,-20.7413
469,-545,12.7837,17.7919,0,0,0,0,0,0,0,-1,1693,1569,12.7837,-17.7919
476,-545,15.1758,23.787,0,0,0,0,0,0,0,-1,1700,1569,15.1757,-23.787
483,-545,15.3127,22.9216,0,0,0,0,0,0,0,-1,1707,1569,15.3128,-22.9217
490,-545,15.3569,22.4357,0.00641798,0.00790916,-0.00473899,0.0119609,0.00236629,-0.863424,0.00731387,0.0232573,1714,1569,15.357,-22.4357
497,-545,15.3772,22.0101,0.00568809,0.00587123,-0.00394909,0.00972981,0.00182951,-0.79699,0.00597087,0.0209627,1721,1569,15.3772,-22.0101
504,-545,15.4714,21.5945,0.00482927,0.00441627,-0.00326141,0.00789071,0.00135483,-0.753783,0.00487207,0.0158536,1728,1569,15.4714,-21.5945
511,-545,15.4508,21.1699,0.00373861,0.00328862,-0.00243629,0.00596027,0.00106696,-0.739353,0.00366993,0.0114325,1735,1569,15.4508,-21.1699
518,-545,15.4208,20.7408,0.00263753,0.00203129,-0.0015318,0.00389592,0.000772905,-0.687717,0.00238182,0.0125387,1742,1569,15.4208,-20.7408
525,-545,15.4049,20.3235,0.00154494,0.000856782,-0.00065714,0.00194263,0.000459089,-0.544225,0.00117241,0.0131684,1749,1569,15.4049,-20.3235
532,-545,15.3792,19.9215,0.000531062,-0.000255581,0.000256038,0.000607056,-0.000331575,0.288526,0.000549644,0.0139807,1756,1569,15.3791,-19.9215
539,-545,15.344,19.5259,-0.000226111,-0.00146485,0.00117492,0.000482698,-0.00217366,0.54283,0.00163395,0.0179644,1763,1569,15.344,-19.5258
546,-545,15.3268,19.0887,-0.000942493,-0.00277295,0.00218502,0.000511231,-0.00422667,0.587066,0.00300273,0.019432,1770,1569,15.3268,-19.0887
553,-545,15.3807,18.5951,-0.00153959,-0.00414325,0.00323924,0.000649633,-0.00633247,0.594329,0.00445401,0.0252888,1777,1569,15.3807,-18.5951
560,-545,15.3771,18.1249,-0.00191381,-0.00562813,0.00432597,0.000936797,-0.00847873,0.582642,0.00598923,0.026899,1784,1569,15.377,-18.1249
567,-545,15.3311,17.6476,0,0,0,0,0,0,0,-1,1791,1569,15.331,-17.6475
574,-545,15.3662,17.1937,0,0,0,0,0,0,0,-1,1798,1569,15.3662,-17.1938
581,-545,15.3589,16.7703,0,0,0,0,0,0,0,-1,1805,1569,15.3589,-16.7702
588,-545,15.3458,16.5745,0,0,0,0,0,0,0,-1,1812,1569,15.3459,-16.5744
595,-545,10.2859,9.11218,0,0,0,0,0,0,0,-1,1819,1569,10.2858,-9.11215
602,-545,8.82117,6.32214,0,0,0,0,0,0,0,-1,1826,1569,8.82121,-6.32217
609,-545,10.2406,5.22351,0,0,0,0,0,0,0,-1,1833,1569,10.2406,-5.22353
616,-545,11.701,3.93188,0,0,0,0,0,0,0,-1,1840,1569,11.701,-3.93191
623,-545,13.2139,2.32043,0,0,0,0,0,0,0,-1,1847,1569,13.2139,-2.32042
630,-545,0,0,0,0,0,0,0,0,0,-1,1854,1569,0,0
637,-545,0,0,0,0,0,0,0,0,0,-1,1861,1569,0,0
644,-545,0,0,0,0,0,0,0,0,0,-1,1868,1569,0,0
651,-545,0,0,0,0,0,0,0,0,0,-1,1875,1569,0,0
658,-545,0,0,0,0,0,0,0,0,0,-1,1882,1569,0,0
665,-545,0,0,0,0,0,0,0,0,0,-1,1889,1569,0,0
672,-545,0,0,0,0,0,0,0,0,0,-1,1896,1569,0,0
679,-545,0,0,0,0,0,0,0,0,0,-1,1903,1569,0,0
686,-545,0,0,0,0,0,0,0,0,0,-1,1910,1569,0,0
693,-545,0,0,0,0,0,0,0,0,0,-1,1917,1569,0,0
700,-545,0,0,0,0,0,0,0,0,0,-1,1924,1569,0,0
707,-545,0,0,0,0,0,0,0,0,0,-1,1931,1569,0,0
714,-545,0,0,0,0,0,0,0,0,0,-1,1938,1569,0,0
721,-545,0,0,0,0,0,0,0,0,0,-1,1945,1569,0,0
728,-545,0,0,0,0,0,0,0,0,0,-1,1952,1569,0,0
735,-545,0,0,0,0,0,0,0,0,0,-1,1959,1569,0,0
742,-545,0,0,0,0,0,0,0,0,0,-1,1966,1569,0,0
749,-545,0,0,0,0,0,0,0,0,0,-1,1973,1569,0,0
756,-545,0,0,0,0,0,0,0,0,0,-1,1980,1569,0,0
763,-545,0,0,0,0,0,0,0,0,0,-1,1987,1569,0,0
770,-545,0,0,0,0,0,0,0,0,0,-1,1994,1569,0,0
777,-545,0,0,0,0,0,0,0,0,0,-1,2001,1569,0,0
784,-545,0,0,0,0,0,0,0,0,0,-1,2008,1569,0,0
791,-545,0,0,0,0,0,0,0,0,0,-1,2015,1569,0,0
798,-545,0,0,0,0,0,0,0,0,0,-1,2022,1569,0,0
805,-545,0,0,0,0,0,0,0,0,0,-1,2029,1569,0,0
812,-545,0,0,0,0,0,0,0,0,0,-1,2036,1569,0,0
-700,-552,0,0,0,0,0,0,0,0,0,-1,524,1576,0,0
-693,-552,0,0,0,0,0,0,0,0,0,-1,531,1576,0,0
-686,-552,0,0,0,0,0,0,0,0,0,-1,538,1576,0,0
-679,-552,0,0,0,0,0,0,0,0,0,-1,545,1576,0,0
-672,-552,0,0,0,0,0,0,0,0,0,-1,552,1576,0,0
-665,-552,0,0,0,0,0,0,0,0,0,-1,559,1576,0,0
-658,-552,0,0,0,0,0,0,0,0,0,-1,566,1576,0,0
-651,-552,0,0,0,0,0,0,0,0,0,-1,573,1576,0,0
-644,-552,0,0,0,0,0,0,0,0,0,-1,580,1576,0,0
-637,-552,0,0,0,0,0,0,0,0,0,-1,587,1576,0,0
-630,-552,0,0,0,0,0,0,0,0,0,-1,594,1576,0,0
-623,-552,0,0,0,0,0,0,0,0,0,-1,601,1576,0,0
-616,-552,0,0,0,0,0,0,0,0,0,-1,608,1576,0,0
-609,-552,0,0,0,0,0,0,0,0,0,-1,615,1576,0,0
-602,-552,0,0,0,0,0,0,0,0,0,-1,622,1576,0,0
-595,-552,0,0,0,0,0,0,0,0,0,-1,629,1576,0,0
-588,-552,0,0,0,0,0,0,0,0,0,-1,636,1576,0,0
-581,-552,0,0,0,0,0,0,0,0,0,-1,643,1576,0,0
-574,-552,0,0,0,0,0,0,0,0,0,-1,650,1576,0,0
-567,-552,0,0,0,0,0,0,0,0,0,-1,657,1576,0,0
-560,-552,0,0,0,0,0,0,0,0,0,-1,664,1576,0,0
-553,-552,0,0,0,0,0,0,0,0,0,-1,671,1576,0,0
-546,-552,0,0,0,0,0,0,0,0,0,-1,678,1576,0,0
-539,-552,0,0,0,0,0,0,0,0,0,-1,685,1576,0,0
-532,-552,0,0,0,0,0,0,0,0,0,-1,692,1576,0,0
-525,-552,0,0,0,0,0,0,0,0,0,-1,699,1576,0,0
-518,-552,0,0,0,0,0,0,0,0,0,-1,706,1576,0,0
-511,-552,0,0,0,0,0,0,0,0,0,-1,713,1576,0,0
-504,-552,0,0,0,0,0,0,0,0,0,-1,720,1576,0,0
-497,-552,1.51282,3.96924,0,0,0,0,0,0,0,-1,727,1576,1.5128,-3.96924
-490,-552,-3.82312,6.32104,0,0,0,0,0,0,0,-1,734,1576,-3.82314,-6.3211
-483,-552,-3.50586,6.47986,0,0,0,0,0,0,0,-1,741,1576,-3.50587,-6.47983
-476,-552,-1.95129,4.43054,0,0,0,0,0,0,0,-1,748,1576,-1.95128,-4.43054
-469,-552,-1.40491,7.9895,0,0,0,0,0,0,0,-1,755,1576,-1.40491,-7.98947
-462,-552,-1.99573,11.4446,0,0,0,0,0,0,0,-1,762,1576,-1.99571,-11.4445
-455,-552,-0.380859,15.2491,0,0,0,0,0,0,0,-1,769,1576,-0.380879,-15.2491
-448,-552,-0.481934,14.6392,0,0,0,0,0,0,0,-1,776,1576,-0.481954,-14.6391
-441,-552,-0.225098,15.8386,-0.00381432,0.00211844,-0.00319724,0.00351345,-0.00520933,-1.15938,0.00506773,0.0435269,783,1576,-0.225111,-15.8386
-434,-552,-0.235474,16.6027,-0.00386869,0.000840446,-0.00214735,0.00167259,-0.00470083,-1.20109,0.00381564,0.0319741,790,1576,-0.235445,-16.6027
-427,-552,-0.474365,16.8925,-0.00342591,0.000487869,-0.00144254,0.000962099,-0.00390014,-1.25318,0.00297314,0.0280048,797,1576,-0.474391,-16.8924
-420,-552,-0.42749,17.4135,-0.00269171,0.000595148,-0.000835117,0.000795162,-0.00289172,-1.33572,0.00224041,0.0213314,804,1576,-0.42748,-17.4134
-413,-552,-0.424377,17.8478,-0.00202009,0.00102116,-0.000409347,0.0010753,-0.00207422,-1.43931,0.00184861,0.0167218,811,1576,-0.424376,-17.8478
-406,-552,-0.437683,18.3269,-0.00119337,0.00132612,0.00016877,0.00133737,-0.00120463,1.50421,0.00146829,0.0123766,818,1576,-0.437654,-18.327
-399,-552,-0.457336,18.7828,-0.000367006,0.0016662,0.000722783,0.00189695,-0.000597759,1.26177,0.00150402,0.013097,825,1576,-0.457363,-18.7828
-392,-552,-0.497925,19.2098,0.000607513,0.00193895,0.00127007,0.0027072,-0.000160734,1.02679,0.00186069,0.0152221,832,1576,-0.497899,-19.2098
-385,-552,-0.513062,19.6755,0.00177965,0.00166579,0.00182422,0.00354783,-0.000102388,0.769799,0.00240008,0.0135104,839,1576,-0.513058,-19.6755
-378,-552,-0.537476,20.1062,0.00291988,0.00145299,0.00239763,0.00469374,-0.000320872,0.636966,0.00324141,0.0150394,846,1576,-0.537503,-20.1061
-371,-552,-0.54126,20.5712,0.00413769,0.00092864,0.0030047,0.00593944,-0.000873108,0.540158,0.00428045,0.0197068,853,1576,-0.541249,-20.5711
-364,-552,-0.530212,21.0197,0.00554166,0.000101819,0.00366506,0.0073858,-0.00174232,0.466178,0.0055958,0.0146604,860,1576,-0.530196,-21.0197
-357,-552,-0.525024,21.4338,0.00702352,-0.000995878,0.00442065,0.00898205,-0.00295441,0.417053,0.00717844,0.00984218,867,1576,-0.525029,-21.4339
-350,-552,-0.510498,21.8871,0.00868205,-0.00240592,0.0052517,0.0107746,-0.00449844,0.379165,0.00906265,0.0117678,874,1576,-0.510499,-21.8871
-343,-552,-0.519592,22.2849,0.0104164,-0.00405453,0.00614373,0.0126729,-0.00631103,0.35199,0.0111636,0.0152056,881,1576,-0.519576,-22.2849
-336,-552,-0.466858,22.6328,0.0121646,-0.00555276,0.00721785,0.0147328,-0.00812095,0.341843,0.0133774,0.0279728,888,1576,-0.466835,-22.6328
-329,-552,-0.616333,23.0857,0.0141583,-0.00717561,0.0085819,0.0171819,-0.0101993,0.338749,0.015979,0.0494081,895,1576,-0.61634,-23.0858
-322,-552,-0.509277,23.9327,0,0,0,0,0,0,0,-1,902,1576,-0.509305,-23.9327
-315,-552,0.342224,24.4038,0,0,0,0,0,0,0,-1,909,1576,0.342234,-24.4038
-308,-552,1.48743,24.9044,0,0,0,0,0,0,0,-1,916,1576,1.48745,-24.9045
-301,-552,1.39453,18.4995,0,0,0,0,0,0,0,-1,923,1576,1.3945,-18.4995
-294,-552,0.842163,13.7863,0,0,0,0,0,0,0,-1,930,1576,0.842149,-13.7863
-287,-552,-0.663757,13.3474,0,0,0,0,0,0,0,-1,937,1576,-0.663744,-13.3474
-280,-552,-5.47241,8.96765,0,0,0,0,0,0,0,-1,944,1576,-5.47239,-8.96766
-273,-552,1.64587,10.6685,0,0,0,0,0,0,0,-1,951,1576,1.6459,-10.6685
-266,-552,-1.32678,8.05688,0,0,0,0,0,0,0,-1,958,1576,-1.32677,-8.05683
-259,-552,-5.54321,8.31213,0,0,0,0,0,0,0,-1,965,1576,-5.54324,-8.31214
-252,-552,-1.93445,7.81543,0,0,0,0,0,0,0,-1,972,1576,-1.93445,-7.81546
-245,-552,-2.53613,6.92212,0,0,0,0,0,0,0,-1,979,1576,-2.53614,-6.92216
-238,-552,-6.5365,2.81885,0,0,0,0,0,0,0,-1,986,1576,-6.53649,-2.8188
-231,-552,-4.32239,4.34583,0,0,0,0,0,0,0,-1,993,1576,-4.32239,-4.34587
-224,-552,0,0,0,0,0,0,0,0,0,-1,1000,1576,0,0
-217,-552,0,0,0,0,0,0,0,0,0,-1,1007,1576,0,0
-210,-552,0,0,0,0,0,0,0,0,0,-1,1014,1576,0,0
-203,-552,0,0,0,0,0,0,0,0,0,-1,1021,1576,0,0
-196,-552,0,0,0,0,0,0,0,0,0,-1,1028,1576,0,0
-189,-552,0,0,0,0,0,0,0,0,0,-1,1035,1576,0,0
-182,-552,0,0,0,0,0,0,0,0,0,-1,1042,1576,0,0
-175,-552,0,0,0,0,0,0,0,0,0,-1,1049,1576,0,0
-168,-552,0,0,0,0,0,0,0,0,0,-1,1056,1576,0,0
-161,-552,0,0,0,0,0,0,0,0,0,-1,1063,1576,0,0
-154,-552,0,0,0,0,0,0,0,0,0,-1,1070,1576,0,0
-147,-552,0,0,0,0,0,0,0,0,0,-1,1077,1576,0,0
-140,-552,0,0,0,0,0,0,0,0,0,-1,1084,1576,0,0
-133,-552,0,0,0,0,0,0,0,0,0,-1,1091,1576,0,0
-126,-552,0,0,0,0,0,0,0,0,0,-1,1098,1576,0,0
-119,-552,0,0,0,0,0,0,0,0,0,-1,1105,1576,0,0
-112,-552,0,0,0,0,0,0,0,0,0,-1,1112,1576,0,0
-105,-552,0,0,0,0,0,0,0,0,0,-1,1119,1576,0,0
-98,-552,0,0,0,0,0,0,0,0,0,-1,1126,1576,0,0
-91,-552,0,0,0,0,0,0,0,0,0,-1,1133,1576,0,0
-84,-552,0,0,0,0,0,0,0,0,0,-1,1140,1576,0,0
-77,-552,0,0,0,0,0,0,0,0,0,-1,1147,1576,0,0
-70,-552,0,0,0,0,0,0,0,0,0,-1,1154,1576,0,0
-63,-552,0,0,0,0,0,0,0,0,0,-1,1161,1576,0,0
-56,-552,0,0,0,0,0,0,0,0,0,-1,1168,1576,0,0
-49,-552,0,0,0,0,0,0,0,0,0,-1,1175,1576,0,0
-42,-552,0,0,0,0,0,0,0,0,0,-1,1182,1576,0,0
-35,-552,0,0,0,0,0,0,0,0,0,-1,1189,1576,0,0
-28,-552,0,0,0,0,0,0,0,0,0,-1,1196,1576,0,0
-21,-552,0,0,0,0,0,0,0,0,0,-1,1203,1576,0,0
-14,-552,0,0,0,0,0,0,0,0,0,-1,1210,1576,0,0
-7,-552,0,0,0,0,0,0,0,0,0,-1,1217,1576,0,0
0,-552,0,0,0,0,0,0,0,0,0,-1,1224,1576,0,0
7,-552,0,0,0,0,0,0,0,0,0,-1,1231,1576,0,0
14,-552,0,0,0,0,0,0,0,0,0,-1,1238,1576,0,0
21,-552,0,0,0,0,0,0,0,0,0,-1,1245,1576,0,0
28,-552,0,0,0,0,0,0,0,0,0,-1,1252,1576,0,0
35,-552,0,0,0,0,0,0,0,0,0,-1,1259,1576,0,0
42,-552,0,0,0,0,0,0,0,0,0,-1,1266,1576,0,0
49,-552,0,0,0,0,0,0,0,0,0,-1,1273,1576,0,0
56,-552,0,0,0,0,0,0,0,0,0,-1,1280,1576,0,0
63,-552,0,0,0,0,0,0,0,0,0,-1,1287,1576,0,0
70,-552,0,0,0,0,0,0,0,0,0,-1,1294,1576,0,0
77,-552,0,0,0,0,0,0,0,0,0,-1,1301,1576,0,0
84,-552,0,0,0,0,0,0,0,0,0,-1,1308,1576,0,0
91,-552,0,0,0,0,0,0,0,0,0,-1,1315,1576,0,0
98,-552,0,0,0,0,0,0,0,0,0,-1,1322,1576,0,0
105,-552,0,0,0,0,0,0,0,0,0,-1,1329,1576,0,0
112,-552,0,0,0,0,0,0,0,0,0,-1,1336,1576,0,0
119,-552,0,0,0,0,0,0,0,0,0,-1,1343,1576,0,0
126,-552,0,0,0,0,0,0,0,0,0,-1,1350,1576,0,0
133,-552,0,0,0,0,0,0,0,0,0,-1,1357,1576,0,0
140,-552,0,0,0,0,0,0,0,0,0,-1,1364,1576,0,0
147,-552,0,0,0,0,0,0,0,0,0,-1,1371,1576,0,0
154,-552,0,0,0,0,0,0,0,0,0,-1,1378,1576,0,0
161,-552,0,0,0,0,0,0,0,0,0,-1,1385,1576,0,0
168,-552,0,0,0,0,0,0,0,0,0,-1,1392,1576,0,0
175,-552,0,0,0,0,0,0,0,0,0,-1,1399,1576,0,0
182,-552,0,0,0,0,0,0,0,0,0,-1,1406,1576,0,0
189,-552,0,0,0,0,0,0,0,0,0,-1,1413,1576,0,0
196,-552,0,0,0,0,0,0,0,0,0,-1,1420,1576,0,0
203,-552,0,0,0,0,0,0,0,0,0,-1,1427,1576,0,0
210,-552,0,0,0,0,0,0,0,0,0,-1,1434,1576,0,0
217,-552,0,0,0,0,0,0,0,0,0,-1,1441,1576,0,0
224,-552,0,0,0,0,0,0,0,0,0,-1,1448,1576,0,0
231,-552,0,0,0,0,0,0,0,0,0,-1,1455,1576,0,0
238,-552,0,0,0,0,0,0,0,0,0,-1,1462,1576,0,0
245,-552,0,0,0,0,0,0,0,0,0,-1,1469,1576,0,0
252,-552,0,0,0,0,0,0,0,0,0,-1,1476,1576,0,0
259,-552,0,0,0,0,0,0,0,0,0,-1,1483,1576,0,0
266,-552,0,0,0,0,0,0,0,0,0,-1,1490,1576,0,0
273,-552,0,0,0,0,0,0,0,0,0,-1,1497,1576,0,0
280,-552,0,0,0,0,0,0,0,0,0,-1,1504,1576,0,0
287,-552,0,0,0,0,0,0,0,0,0,-1,1511,1576,0,0
294,-552,0,0,0,0,0,0,0,0,0,-1,1518,1576,0,0
301,-552,0,0,0,0,0,0,0,0,0,-1,1525,1576,0,0
308,-552,0,0,0,0,0,0,0,0,0,-1,1532,1576,0,0
315,-552,0,0,0,0,0,0,0,0,0,-1,1539,1576,0,0
322,-552,0,0,0,0,0,0,0,0,0,-1,1546,1576,0,0
329,-552,0,0,0,0,0,0,0,0,0,-1,1553,1576,0,0
336,-552,0,0,0,0,0,0,0,0,0,-1,1560,1576,0,0
343,-552,0,0,0,0,0,0,0,0,0,-1,1567,1576,0,0
350,-552,4.97876,4.09888,0,0,0,0,0,0,0,-1,1574,1576,4.97875,-4.09883
357,-552,5.18469,4.10706,0,0,0,0,0,0,0,-1,1581,1576,5.1847,-4.10702
364,-552,5.80872,5.07031,0,0,0,0,0,0,0,-1,1588,1576,5.80874,-5.07037
371,-552,7.10657,5.64783,0,0,0,0,0,0,0,-1,1595,1576,7.10651,-5.64786
378,-552,6.44446,4.91492,0,0,0,0,0,0,0,-1,1602,1576,6.44448,-4.91496
385,-552,12.8276,3.16504,0,0,0,0,0,0,0,-1,1609,1576,12.8276,-3.16503
392,-552,12.1301,4.3363,0,0,0,0,0,0,0,-1,1616,1576,12.1302,-4.33631
399,-552,11.3486,5.6012,0,0,0,0,0,0,0,-1,1623,1576,11.3486,-5.60115
406,-552,10.7863,6.42542,0,0,0,0,0,0,0,-1,1630,1576,10.7863,-6.42536
413,-552,8.39307,10.365,0,0,0,0,0,0,0,-1,1637,1576,8.3931,-10.365
420,-552,10.2306,12.7225,0,0,0,0,0,0,0,-1,1644,1576,10.2305,-12.7226
427,-552,9.73267,14.783,0,0,0,0,0,0,0,-1,1651,1576,9.73269,-14.783
434,-552,12.0377,20.1364,0,0,0,0,0,0,0,-1,1658,1576,12.0377,-20.1364
441,-552,12.4963,21.5277,0,0,0,0,0,0,0,-1,1665,1576,12.4964,-21.5277
448,-552,12.9141,21.5482,0,0,0,0,0,0,0,-1,1672,1576,12.9141,-21.5482
455,-552,13.3318,21.5687,0,0,0,0,0,0,0,-1,1679,1576,13.3317,-21.5687
462,-552,12.745,20.5947,0,0,0,0,0,0,0,-1,1686,1576,12.745,-20.5947
469,-552,14.5851,24.2035,0,0,0,0,0,0,0,-1,1693,1576,14.585,-24.2035
476,-552,14.9164,23.3115,0.0047182,0.0122512,-0.00545469,0.0151134,0.00185595,-1.08756,0.00951747,0.0455093,1700,1576,14.9164,-23.3116
483,-552,15.0508,22.7467,0.0054196,0.00909414,-0.00492972,0.0125178,0.00199591,-0.963771,0.00776588,0.0286953,1707,1576,15.0507,-22.7466
490,-552,15.0132,22.3708,0.00503458,0.00677685,-0.0038954,0.00989733,0.0019141,-0.895404,0.00606177,0.0143167,1714,1576,15.0132,-22.3709
497,-552,15.0908,21.9791,0.00446883,0.00487314,-0.00322832,0.00790562,0.00143634,-0.816667,0.00486287,0.0222652,1721,1576,15.0908,-21.9791
504,-552,15.0673,21.5912,0.00365846,0.00341192,-0.00248957,0.00602781,0.00104256,-0.760662,0.00372004,0.0234547,1728,1576,15.0672,-21.5912
511,-552,15.0381,21.1636,0.0026372,0.00219026,-0.00161919,0.00404827,0.000779189,-0.716824,0.00248025,0.0170645,1735,1576,15.0381,-21.1636
518,-552,15.0219,20.7435,0.00158642,0.000904753,-0.00069702,0.00202148,0.000469697,-0.557999,0.00122157,0.0152131,1742,1576,15.0219,-20.7435
525,-552,14.9862,20.3401,0.000510135,-0.000320238,0.000229521,0.000569353,-0.000379456,0.252501,0.00055144,0.0146525,1749,1576,14.9862,-20.34
532,-552,14.957,19.9406,-0.000520125,-0.0015357,0.00123414,0.000306612,-0.00236243,0.59023,0.00168648,0.0145359,1756,1576,14.957,-19.9405
539,-552,14.933,19.5215,-0.00136202,-0.00292597,0.00231817,0.000302512,-0.0045905,0.622729,0.00316599,0.0179455,1763,1576,14.933,-19.5215
546,-552,14.9154,19.1071,-0.0022427,-0.00446751,0.00357802,0.000391847,-0.00710206,0.634685,0.00487058,0.0211268,1770,1576,14.9154,-19.107
553,-552,14.9679,18.6322,-0.00304404,-0.00614425,0.00495755,0.0006001,-0.00978839,0.633876,0.00673454,0.0234587,1777,1576,14.9679,-18.6322
560,-552,14.9589,18.2616,-0.00368716,-0.00809591,0.00650136,0.000973379,-0.0127564,0.621949,0.00884662,0.0441145,1784,1576,14.9589,-18.2617
567,-552,14.9967,17.5933,0,0,0,0,0,0,0,-1,1791,1576,14.9967,-17.5933
574,-552,12.8835,14.8463,0,0,0,0,0,0,0,-1,1798,1576,12.8836,-14.8463
581,-552,9.74841,9.98645,0,0,0,0,0,0,0,-1,1805,1576,9.74847,-9.9864
588,-552,10.5619,9.34924,0,0,0,0,0,0,0,-1,1812,1576,10.5619,-9.34921
595,-552,5.36194,6.62744,0,0,0,0,0,0,0,-1,1819,1576,5.36193,-6.62742
602,-552,10.6863,4.31616,0,0,0,0,0,0,0,-1,1826,1576,10.6862,-4.31619
609,-552,12.146,3.18286,0,0,0,0,0,0,0,-1,1833,1576,12.1459,-3.18281
616,-552,13.8762,2.08167,0,0,0,0,0,0,0,-1,1840,1576,13.8763,-2.08167
623,-552,0,0,0,0,0,0,0,0,0,-1,1847,1576,0,0
630,-552,0,0,0,0,0,0,0,0,0,-1,1854,1576,0,0
637,-552,0,0,0,0,0,0,0,0,0,-1,1861,1576,0,0
644,-552,0,0,0,0,0,0,0,0,0,-1,1868,1576,0,0
651,-552,0,0,0,0,0,0,0,0,0,-1,1875,1576,0,0
658,-552,0,0,0,0,0,0,0,0,0,-1,1882,1576,0,0
665,-552,0,0,0,0,0,0,0,0,0,-1,1889,1576,0,0
672,-552,0,0,0,0,0,0,0,0,0,-1,1896,1576,0,0
679,-552,0,0,0,0,0,0,0,0,0,-1,1903,1576,0,0
686,-552,0,0,0,0,0,0,0,0,0,-1,1910,1576,0,0
693,-552,0,0,0,0,0,0,0,0,0,-1,1917,1576,0,0
700,-552,0,0,0,0,0,0,0,0,0,-1,1924,1576,0,0
707,-552,0,0,0,0,0,0,0,0,0,-1,1931,1576,0,0
714,-552,0,0,0,0,0,0,0,0,0,-1,1938,1576,0,0
721,-552,0,0,0,0,0,0,0,0,0,-1,1945,1576,0,0
728,-552,0,0,0,0,0,0,0,0,0,-1,1952,1576,0,0
735,-552,0,0,0,0,0,0,0,0,0,-1,1959,1576,0,0
742,-552,0,0,0,0,0,0,0,0,0,-1,1966,1576,0,0
749,-552,0,0,0,0,0,0,0,0,0,-1,1973,1576,0,0
756,-552,0,0,0,0,0,0,0,0,0,-1,1980,1576,0,0
763,-552,0,0,0,0,0,0,0,0,0,-1,1987,1576,0,0
770,-552,0,0,0,0,0,0,0,0,0,-1,1994,1576,0,0
777,-552,0,0,0,0,0,0,0,0,0,-1,2001,1576,0,0
784,-552,0,0,0,0,0,0,0,0,0,-1,2008,1576,0,0
791,-552,0,0,0,0,0,0,0,0,0,-1,2015,1576,0,0
798,-552,0,0,0,0,0,0,0,0,0,-1,2022,1576,0,0
805,-552,0,0,0,0,0,0,0,0,0,-1,2029,1576,0,0
812,-552,0,0,0,0,0,0,0,0,0,-1,2036,1576,0,0
-700,-559,0,0,0,0,0,0,0,0,0,-1,524,1583,0,0
-693,-559,0,0,0,0,0,0,0,0,0,-1,531,1583,0,0
-686,-559,0,0,0,0,0,0,0,0,0,-1,538,1583,0,0
-679,-559,0,0,0,0,0,0,0,0,0,-1,545,1583,0,0
-672,-559,0,0,0,0,0,0,0,0,0,-1,552,1583,0,0
-665,-559,0,0,0,0,0,0,0,0,0,-1,559,1583,0,0
-658,-559,0,0,0,0,0,0,0,0,0,-1,566,1583,0,0
-651,-559,0,0,0,0,0,0,0,0,0,-1,573,1583,0,0
-644,-559,0,0,0,0,0,0,0,0,0,-1,580,1583,0,0
-637,-559,0,0,0,0,0,0,0,0,0,-1,587,1583,0,0
-630,-559,0,0,0,0,0,0,0,0,0,-1,594,1583,0,0
-623,-559,0,0,0,0,0,0,0,0,0,-1,601,1583,0,0
-616,-559,0,0,0,0,0,0,0,0,0,-1,608,1583,0,0
-609,-559,0,0,0,0,0,0,0,0,0,-1,615,1583,0,0
-602,-559,0,0,0,0,0,0,0,0,0,-1,622,1583,0,0
-595,-559,0,0,0,0,0,0,0,0,0,-1,629,1583,0,0
-588,-559,0,0,0,0,0,0,0,0,0,-1,636,1583,0,0
-581,-559,0,0,0,0,0,0,0,0,0,-1,643,1583,0,0
-574,-559,0,0,0,0,0,0,0,0,0,-1,650,1583,0,0
-567,-559,0,0,0,0,0,0,0,0,0,-1,657,1583,0,0
-560,-559,0,0,0,0,0,0,0,0,0,-1,664,1583,0,0
-553,-559,0,0,0,0,0,0,0,0,0,-1,671,1583,0,0
-546,-559,0,0,0,0,0,0,0,0,0,-1,678,1583,0,0
-539,-559,0,0,0,0,0,0,0,0,0,-1,685,1583,0,0
-532,-559,0,0,0,0,0,0,0,0,0,-1,692,1583,0,0
-525,-559,0,0,0,0,0,0,0,0,0,-1,699,1583,0,0
-518,-559,0,0,0,0,0,0,0,0,0,-1,706,1583,0,0
-511,-559,0,0,0,0,0,0,0,0,0,-1,713,1583,0,0
-504,-559,0,0,0,0,0,0,0,0,0,-1,720,1583,0,0
-497,-559,0,0,0,0,0,0,0,0,0,-1,727,1583,0,0
-490,-559,-5.49835,4.47424,0,0,0,0,0,0,0,-1,734,1583,-5.49833,-4.4743
-483,-559,-5.24078,4.74561,0,0,0,0,0,0,0,-1,741,1583,-5.24079,-4.74563
-476,-559,-4.98022,4.99316,0,0,0,0,0,0,0,-1,748,1583,-4.98024,-4.99321
-469,-559,-4.6424,5.38062,0,0,0,0,0,0,0,-1,755,1583,-4.64237,-5.38058
-462,-559,-0.161865,6.49438,0,0,0,0,0,0,0,-1,762,1583,-0.161835,-6.49444
-455,-559,1.08826,7.02527,0,0,0,0,0,0,0,-1,769,1583,1.08823,-7.02529
-448,-559,-0.214539,14.0834,0,0,0,0,0,0,0,-1,776,1583,-0.214514,-14.0833
-441,-559,0.184509,15.4717,0,0,0,0,0,0,0,-1,783,1583,0.184511,-15.4716
-434,-559,0.423584,16.548,0,0,0,0,0,0,0,-1,790,1583,0.423613,-16.548
-427,-559,0.0251465,16.7633,0,0,0,0,0,0,0,-1,797,1583,0.0251234,-16.7633
-420,-559,0.0584106,17.3248,0,0,0,0,0,0,0,-1,804,1583,0.0583881,-17.3249
-413,-559,0.000366211,17.8853,-0.00294949,0.00109659,-0.00057552,0.00117686,-0.00302976,-1.43222,0.002506,0.0158238,811,1583,0.000363571,-17.8853
-406,-559,-0.00488281,18.3575,-0.00216373,0.00105757,-0.000119628,0.00106201,-0.00216816,-1.53373,0.00190104,0.00928323,818,1583,-0.00486044,-18.3575
-399,-559,-0.0119629,18.8065,-0.00136395,0.00110399,0.000335721,0.00114885,-0.0014088,1.43798,0.0014792,0.0125214,825,1583,-0.0119401,-18.8065
-392,-559,-0.053894,19.2222,-0.00052615,0.00141045,0.000735187,0.00165792,-0.000773623,1.2461,0.00143447,0.0177047,832,1583,-0.0539105,-19.2221
-385,-559,-0.0742188,19.6658,0.00048308,0.0011965,0.00109675,0.00199309,-0.00031351,0.942625,0.00144462,0.0171956,839,1583,-0.0741986,-19.6658
-378,-559,-0.0783691,20.12,0.00151984,0.00108334,0.00153897,0.00285595,-0.000252774,0.714961,0.00199358,0.0151207,846,1583,-0.078391,-20.12
-371,-559,-0.102722,20.5789,0.00257814,0.000726697,0.00197137,0.00383032,-0.000525486,0.565889,0.00274552,0.0231922,853,1583,-0.102712,-20.5789
-364,-559,-0.0826416,20.9873,0.0037679,0.000186984,0.00244723,0.00500971,-0.00105483,0.469579,0.00374132,0.0205286,860,1583,-0.0826645,-20.9873
-357,-559,-0.0817261,21.415,0.00498888,-0.000475527,0.00299094,0.00630768,-0.00179433,0.415288,0.00491368,0.0121147,867,1583,-0.0817466,-21.415
-350,-559,-0.0828857,21.828,0.00635965,-0.0013301,0.00358583,0.00777227,-0.00274273,0.375276,0.00629807,0.00997505,874,1583,-0.0829007,-21.828
-343,-559,-0.0853882,22.2573,0.00777401,-0.00221202,0.00426662,0.00934867,-0.00378668,0.353556,0.00780703,0.0109541,881,1583,-0.0854125,-22.2573
-336,-559,-0.139465,22.6599,0.00914233,-0.00284993,0.00507018,0.0109986,-0.00470621,0.35096,0.00930662,0.0192148,888,1583,-0.139461,-22.6599
-329,-559,-0.0286255,23.2891,0.0106812,-0.00353329,0.00609929,0.0129395,-0.00579164,0.354613,0.0110738,0.0338097,895,1583,-0.0286093,-23.2891
-322,-559,0.322205,24.0048,0,0,0,0,0,0,0,-1,902,1583,0.322192,-24.0048
-315,-559,0.245972,24.1453,0,0,0,0,0,0,0,-1,909,1583,0.245943,-24.1452
-308,-559,0.0997314,24.8551,0,0,0,0,0,0,0,-1,916,1583,0.0997394,-24.8551
-301,-559,1.97064,24.717,0,0,0,0,0,0,0,-1,923,1583,1.97066,-24.717
-294,-559,0.945129,18.5165,0,0,0,0,0,0,0,-1,930,1583,0.945117,-18.5165
-287,-559,-0.11792,15.4912,0,0,0,0,0,0,0,-1,937,1583,-0.117939,-15.4912
-280,-559,0.191467,13.5093,0,0,0,0,0,0,0,-1,944,1583,0.191441,-13.5093
-273,-559,2.12836,10.3059,0,0,0,0,0,0,0,-1,951,1583,2.12839,-10.3059
-266,-559,-0.597046,6.68933,0,0,0,0,0,0,0,-1,958,1583,-0.597031,-6.68937
-259,-559,-7.00311,8.62756,0,0,0,0,0,0,0,-1,965,1583,-7.00312,-8.6275
-252,-559,-9.4483,2.87805,0,0,0,0,0,0,0,-1,972,1583,-9.44829,-2.87805
-245,-559,-4.80804,7.1803,0,0,0,0,0,0,0,-1,979,1583,-4.80804,-7.18027
-238,-559,-8.45764,2.54858,0,0,0,0,0,0,0,-1,986,1583,-8.45763,-2.54862
-231,-559,-5.86914,4.34021,0,0,0,0,0,0,0,-1,993,1583,-5.86914,-4.34019
-224,-559,-3.30505,6.22864,0,0,0,0,0,0,0,-1,1000,1583,-3.30505,-6.22859
-217,-559,0,0,0,0,0,0,0,0,0,-1,1007,1583,0,0
-210,-559,0,0,0,0,0,0,0,0,0,-1,1014,1583,0,0
-203,-559,0,0,0,0,0,0,0,0,0,-1,1021,1583,0,0
-196,-559,0,0,0,0,0,0,0,0,0,-1,1028,1583,0,0
-189,-559,0,0,0,0,0,0,0,0,0,-1,1035,1583,0,0
-182,-559,0,0,0,0,0,0,0,0,0,-1,1042,1583,0,0
-175,-559,0,0,0,0,0,0,0,0,0,-1,1049,1583,0,0
-168,-559,0,0,0,0,0,0,0,0,0,-1,1056,1583,0,0
-161,-559,0,0,0,0,0,0,0,0,0,-1,1063,1583,0,0
-154,-559,0,0,0,0,0,0,0,0,0,-1,1070,1583,0,0
-147,-559,0,0,0,0,0,0,0,0,0,-1,1077,1583,0,0
-140,-559,0,0,0,0,0,0,0,0,0,-1,1084,1583,0,0
-133,-559,0,0,0,0,0,0,0,0,0,-1,1091,1583,0,0
-126,-559,0,0,0,0,0,0,0,0,0,-1,1098,1583,0,0
-119,-559,0,0,0,0,0,0,0,0,0,-1,1105,1583,0,0
-112,-559,0,0,0,0,0,0,0,0,0,-1,1112,1583,0,0
-105,-559,0,0,0,0,0,0,0,0,0,-1,1119,1583,0,0
-98,-559,0,0,0,0,0,0,0,0,0,-1,1126,1583,0,0
-91,-559,0,0,0,0,0,0,0,0,0,-1,1133,1583,0,0
-84,-559,0,0,0,0,0,0,0,0,0,-1,1140,1583,0,0
-77,-559,0,0,0,0,0,0,0,0,0,-1,1147,1583,0,0
-70,-559,0,0,0,0,0,0,0,0,0,-1,1154,1583,0,0
-63,-559,0,0,0,0,0,0,0,0,0,-1,1161,1583,0,0
-56,-559,0,0,0,0,0,0,0,0,0,-1,1168,1583,0,0
-49,-559,0,0,0,0,0,0,0,0,0,-1,1175,1583,0,0
-42,-559,0,0,0,0,0,0,0,0,0,-1,1182,1583,0,0
-35,-559,0,0,0,0,0,0,0,0,0,-1,1189,1583,0,0
-28,-559,0,0,0,0,0,0,0,0,0,-1,1196,1583,0,0
-21,-559,0,0,0,0,0,0,0,0,0,-1,1203,1583,0,0
-14,-559,0,0,0,0,0,0,0,0,0,-1,1210,1583,0,0
-7,-559,0,0,0,0,0,0,0,0,0,-1,1217,1583,0,0
0,-559,0,0,0,0,0,0,0,0,0,-1,1224,1583,0,0
7,-559,0,0,0,0,0,0,0,0,0,-1,1231,1583,0,0
14,-559,0,0,0,0,0,0,0,0,0,-1,1238,1583,0,0
21,-559,0,0,0,0,0,0,0,0,0,-1,1245,1583,0,0
28,-559,0,0,0,0,0,0,0,0,0,-1,1252,1583,0,0
35,-559,0,0,0,0,0,0,0,0,0,-1,1259,1583,0,0
42,-559,0,0,0,0,0,0,0,0,0,-1,1266,1583,0,0
49,-559,0,0,0,0,0,0,0,0,0,-1,1273,1583,0,0
56,-559,0,0,0,0,0,0,0,0,0,-1,1280,1583,0,0
63,-559,0,0,0,0,0,0,0,0,0,-1,1287,1583,0,0
70,-559,0,0,0,0,0,0,0,0,0,-1,1294,1583,0,0
77,-559,0,0,0,0,0,0,0,0,0,-1,1301,1583,0,0
84,-559,0,0,0,0,0,0,0,0,0,-1,1308,1583,0,0
91,-559,0,0,0,0,0,0,0,0,0,-1,1315,1583,0,0
98,-559,0,0,0,0,0,0,0,0,0,-1,1322,1583,0,0
105,-559,0,0,0,0,0,0,0,0,0,-1,1329,1583,0,0
112,-559,0,0,0,0,0,0,0,0,0,-1,1336,1583,0,0
119,-559,0,0,0,0,0,0,0,0,0,-1,1343,1583,0,0
126,-559,0,0,0,0,0,0,0,0,0,-1,1350,1583,0,0
133,-559,0,0,0,0,0,0,0,0,0,-1,1357,1583,0,0
140,-559,0,0,0,0,0,0,0,0,0,-1,1364,1583,0,0
147,-559,0,0,0,0,0,0,0,0,0,-1,1371,1583,0,0
154,-559,0,0,0,0,0,0,0,0,0,-1,1378,1583,0,0
161,-559,0,0,0,0,0,0,0,0,0,-1,1385,1583,0,0
168,-559,0,0,0,0,0,0,0,0,0,-1,1392,1583,0,0
175,-559,0,0,0,0,0,0,0,0,0,-1,1399,1583,0,0
182,-559,0,0,0,0,0,0,0,0,0,-1,1406,1583,0,0
189,-559,0,0,0,0,0,0,0,0,0,-1,1413,1583,0,0
196,-559,0,0,0,0,0,0,0,0,0,-1,1420,1583,0,0
203,-559,0,0,0,0,0,0,0,0,0,-1,1427,1583,0,0
210,-559,0,0,0,0,0,0,0,0,0,-1,1434,1583,0,0
217,-559,0,0,0,0,0,0,0,0,0,-1,1441,1583,0,0
224,-559,0,0,0,0,0,0,0,0,0,-1,1448,1583,0,0
231,-559,0,0,0,0,0,0,0,0,0,-1,1455,1583,0,0
238,-559,0,0,0,0,0,0,0,0,0,-1,1462,1583,0,0
245,-559,0,0,0,0,0,0,0,0,0,-1,1469,1583,0,0
252,-559,0,0,0,0,0,0,0,0,0,-1,1476,1583,0,0
259,-559,0,0,0,0,0,0,0,0,0,-1,1483,1583,0,0
266,-559,0,0,0,0,0,0,0,0,0,-1,1490,1583,0,0
273,-559,0,0,0,0,0,0,0,0,0,-1,1497,1583,0,0
280,-559,0,0,0,0,0,0,0,0,0,-1,1504,1583,0,0
287,-559,0,0,0,0,0,0,0,0,0,-1,1511,1583,0,0
294,-559,0,0,0,0,0,0,0,0,0,-1,1518,1583,0,0
301,-559,0,0,0,0,0,0,0,0,0,-1,1525,1583,0,0
308,-559,0,0,0,0,0,0,0,0,0,-1,1532,1583,0,0
315,-559,0,0,0,0,0,0,0,0,0,-1,1539,1583,0,0
322,-559,0,0,0,0,0,0,0,0,0,-1,1546,1583,0,0
329,-559,0,0,0,0,0,0,0,0,0,-1,1553,1583,0,0
336,-559,5.97668,3.09827,0,0,0,0,0,0,0,-1,1560,1583,5.97667,-3.09824
343,-559,5.44824,2.88696,0,0,0,0,0,0,0,-1,1567,1583,5.44819,-2.88693
350,-559,4.69775,3.27051,0,0,0,0,0,0,0,-1,1574,1583,4.69771,-3.27048
357,-559,3.88025,3.60999,0,0,0,0,0,0,0,-1,1581,1583,3.88027,-3.60998
364,-559,5.00928,5.32605,0,0,0,0,0,0,0,-1,1588,1583,5.00928,-5.32607
371,-559,1.84436,2.52441,0,0,0,0,0,0,0,-1,1595,1583,1.84441,-2.52447
378,-559,6.34753,1.53137,0,0,0,0,0,0,0,-1,1602,1583,6.34752,-1.53139
385,-559,6.95911,1.48181,0,0,0,0,0,0,0,-1,1609,1583,6.95916,-1.48175
392,-559,11.6949,4.77734,0,0,0,0,0,0,0,-1,1616,1583,11.6949,-4.77731
399,-559,11.1104,5.56909,0,0,0,0,0,0,0,-1,1623,1583,11.1103,-5.56905
406,-559,10.3385,6.48657,0,0,0,0,0,0,0,-1,1630,1583,10.3385,-6.48661
413,-559,9.76147,6.97571,0,0,0,0,0,0,0,-1,1637,1583,9.76143,-6.97574
420,-559,7.77124,10.5851,0,0,0,0,0,0,0,-1,1644,1583,7.77128,-10.585
427,-559,10.1022,12.5565,0,0,0,0,0,0,0,-1,1651,1583,10.1021,-12.5565
434,-559,9.62769,14.6309,0,0,0,0,0,0,0,-1,1658,1583,9.62771,-14.6309
441,-559,12.6149,21.3678,0,0,0,0,0,0,0,-1,1665,1583,12.6149,-21.3678
448,-559,13.7046,22.6677,0,0,0,0,0,0,0,-1,1672,1583,13.7046,-22.6677
455,-559,13.9427,23.0509,0,0,0,0,0,0,0,-1,1679,1583,13.9427,-23.0509
462,-559,14.416,24.454,0,0,0,0,0,0,0,-1,1686,1583,14.416,-24.454
469,-559,14.4745,23.7961,0.00278952,0.0134511,-0.0048536,0.0153296,0.000910948,-1.20151,0.00993005,0.0391098,1693,1583,14.4745,-23.7961
476,-559,14.5707,23.2638,0.00364567,0.0104159,-0.00441776,0.0125963,0.00146521,-1.11231,0.00795427,0.0180885,1700,1583,14.5707,-23.2638
483,-559,14.6378,22.776,0.00424744,0.00764323,-0.00400568,0.010296,0.00159467,-0.985856,0.00639903,0.0123861,1707,1583,14.6378,-22.776
490,-559,14.6128,22.3552,0.00391384,0.00555951,-0.00312743,0.00797054,0.00150281,-0.914034,0.00489034,0.0140688,1714,1583,14.6127,-22.3552
497,-559,14.6527,21.9907,0.0033515,0.00382314,-0.00253811,0.00613636,0.00103828,-0.831721,0.00379249,0.0185336,1721,1583,14.6528,-21.9907
504,-559,14.6359,21.5944,0.00246728,0.00238275,-0.00173211,0.00415764,0.000692383,-0.7732,0.00257222,0.0231801,1728,1583,14.6359,-21.5944
511,-559,14.5918,21.1729,0.00142179,0.00109024,-0.000800513,0.00207351,0.000438519,-0.6833,0.00126183,0.0210799,1735,1583,14.5917,-21.1728
518,-559,14.61,20.7573,0.00035037,-0.000211414,0.00015823,0.000391871,-0.000252914,0.256504,0.000375137,0.0144528,1742,1583,14.61,-20.7573
525,-559,14.5817,20.3563,-0.000759716,-0.00148855,0.00116255,9.41943e-05,-0.00234246,0.633517,0.00159396,0.0133211,1749,1583,14.5817,-20.3563
532,-559,14.5428,19.9451,-0.001841,-0.00282704,0.00229537,1.36988e-05,-0.00468174,0.67961,0.00312574,0.0133851,1756,1583,14.5428,-19.9451
539,-559,14.5247,19.5315,-0.00280772,-0.00443412,0.00359686,6.67206e-05,-0.00730855,0.674224,0.00489476,0.0163959,1763,1583,14.5247,-19.5314
546,-559,14.5021,19.1035,-0.00389808,-0.00627142,0.00518509,0.000234395,-0.0104039,0.672905,0.00701537,0.0152062,1770,1583,14.5021,-19.1035
553,-559,14.5906,18.6388,-0.00496424,-0.00834004,0.00700127,0.000549718,-0.013854,0.667113,0.00942458,0.0201554,1777,1583,14.5905,-18.6388
560,-559,14.5996,18.3815,-0.00595361,-0.0108945,0.00915819,0.00106148,-0.0179096,0.653657,0.0123088,0.0422796,1784,1583,14.5996,-18.3814
567,-559,14.5344,17.9636,0,0,0,0,0,0,0,-1,1791,1583,14.5344,-17.9636
574,-559,10.5109,10.7317,0,0,0,0,0,0,0,-1,1798,1583,10.5108,-10.7317
581,-559,5.97095,5.96179,0,0,0,0,0,0,0,-1,1805,1583,5.97093,-5.96181
588,-559,5.79102,5.89954,0,0,0,0,0,0,0,-1,1812,1583,5.79098,-5.89949
595,-559,5.79089,6.24231,0,0,0,0,0,0,0,-1,1819,1583,5.7909,-6.24227
602,-559,12.478,2.35669,0,0,0,0,0,0,0,-1,1826,1583,12.4781,-2.35675
609,-559,14.0479,1.22681,0,0,0,0,0,0,0,-1,1833,1583,14.0479,-1.22681
616,-559,0,0,0,0,0,0,0,0,0,-1,1840,1583,0,0
623,-559,0,0,0,0,0,0,0,0,0,-1,1847,1583,0,0
630,-559,0,0,0,0,0,0,0,0,0,-1,1854,1583,0,0
637,-559,0,0,0,0,0,0,0,0,0,-1,1861,1583,0,0
644,-559,0,0,0,0,0,0,0,0,0,-1,1868,1583,0,0
651,-559,0,0,0,0,0,0,0,0,0,-1,1875,1583,0,0
658,-559,0,0,0,0,0,0,0,0,0,-1,1882,1583,0,0
665,-559,0,0,0,0,0,0,0,0,0,-1,1889,1583,0,0
672,-559,0,0,0,0,0,0,0,0,0,-1,1896,1583,0,0
679,-559,0,0,0,0,0,0,0,0,0,-1,1903,1583,0,0
686,-559,0,0,0,0,0,0,0,0,0,-1,1910,1583,0,0
693,-559,0,0,0,0,0,0,0,0,0,-1,1917,1583,0,0
700,-559,0,0,0,0,0,0,0,0,0,-1,1924,1583,0,0
707,-559,0,0,0,0,0,0,0,0,0,-1,1931,1583,0,0
714,-559,0,0,0,0,0,0,0,0,0,-1,1938,1583,0,0
721,-559,0,0,0,0,0,0,0,0,0,-1,1945,1583,0,0
728,-559,0,0,0,0,0,0,0,0,0,-1,1952,1583,0,0
735,-559,0,0,0,0,0,0,0,0,0,-1,1959,1583,0,0
742,-559,0,0,0,0,0,0,0,0,0,-1,1966,1583,0,0
749,-559,0,0,0,0,0,0,0,0,0,-1,1973,1583,0,0
756,-559,0,0,0,0,0,0,0,0,0,-1,1980,1583,0,0
763,-559,0,0,0,0,0,0,0,0,0,-1,1987,1583,0,0
770,-559,0,0,0,0,0,0,0,0,0,-1,1994,1583,0,0
777,-559,0,0,0,0,0,0,0,0,0,-1,2001,1583,0,0
784,-559,0,0,0,0,0,0,0,0,0,-1,2008,1583,0,0
791,-559,0,0,0,0,0,0,0,0,0,-1,2015,1583,0,0
798,-559,0,0,0,0,0,0,0,0,0,-1,2022,1583,0,0
805,-559,0,0,0,0,0,0,0,0,0,-1,2029,1583,0,0
812,-559,0,0,0,0,0,0,0,0,0,-1,2036,1583,0,0
-700,-566,0,0,0,0,0,0,0,0,0,-1,524,1590,0,0
-693,-566,0,0,0,0,0,0,0,0,0,-1,531,1590,0,0
-686,-566,0,0,0,0,0,0,0,0,0,-1,538,1590,0,0
-679,-566,0,0,0,0,0,0,0,0,0,-1,545,1590,0,0
-672,-566,0,0,0,0,0,0,0,0,0,-1,552,1590,0,0
-665,-566,0,0,0,0,0,0,0,0,0,-1,559,1590,0,0
-658,-566,0,0,0,0,0,0,0,0,0,-1,566,1590,0,0
-651,-566,0,0,0,0,0,0,0,0,0,-1,573,1590,0,0
-644,-566,0,0,0,0,0,0,0,0,0,-1,580,1590,0,0
-637,-566,0,0,0,0,0,0,0,0,0,-1,587,1590,0,0
-630,-566,0,0,0,0,0,0,0,0,0,-1,594,1590,0,0
-623,-566,0,0,0,0,0,0,0,0,0,-1,601,1590,0,0
-616,-566,0,0,0,0,0,0,0,0,0,-1,608,1590,0,0
-609,-566,0,0,0,0,0,0,0,0,0,-1,615,1590,0,0
-602,-566,0,0,0,0,0,0,0,0,0,-1,622,1590,0,0
-595,-566,0,0,0,0,0,0,0,0,0,-1,629,1590,0,0
-588,-566,0,0,0,0,0,0,0,0,0,-1,636,1590,0,0
-581,-566,0,0,0,0,0,0,0,0,0,-1,643,1590,0,0
-574,-566,0,0,0,0,0,0,0,0,0,-1,650,1590,0,0
-567,-566,0,0,0,0,0,0,0,0,0,-1,657,1590,0,0
-560,-566,0,0,0,0,0,0,0,0,0,-1,664,1590,0,0
-553,-566,0,0,0,0,0,0,0,0,0,-1,671,1590,0,0
-546,-566,0,0,0,0,0,0,0,0,0,-1,678,1590,0,0
-539,-566,0,0,0,0,0,0,0,0,0,-1,685,1590,0,0
-532,-566,0,0,0,0,0,0,0,0,0,-1,692,1590,0,0
-525,-566,0,0,0,0,0,0,0,0,0,-1,699,1590,0,0
-518,-566,0,0,0,0,0,0,0,0,0,-1,706,1590,0,0
-511,-566,0,0,0,0,0,0,0,0,0,-1,713,1590,0,0
-504,-566,0,0,0,0,0,0,0,0,0,-1,720,1590,0,0
-497,-566,0,0,0,0,0,0,0,0,0,-1,727,1590,0,0
-490,-566,0,0,0,0,0,0,0,0,0,-1,734,1590,0,0
-483,-566,-7.17084,2.78613,0,0,0,0,0,0,0,-1,741,1590,-7.17083,-2.78618
-476,-566,-7.13971,2.87183,0,0,0,0,0,0,0,-1,748,1590,-7.13971,-2.87184
-469,-566,-6.43829,3.2998,0,0,0,0,0,0,0,-1,755,1590,-6.43829,-3.2998
-462,-566,-0.459106,3.89343,0,0,0,0,0,0,0,-1,762,1590,-0.459095,-3.89341
-455,-566,0.280212,4.74023,0,0,0,0,0,0,0,-1,769,1590,0.280207,-4.74023
-448,-566,0.436951,5.51306,0,0,0,0,0,0,0,-1,776,1590,0.436971,-5.51301
-441,-566,-0.440735,12.4063,0,0,0,0,0,0,0,-1,783,1590,-0.440753,-12.4062
-434,-566,0.848999,16.6404,0,0,0,0,0,0,0,-1,790,1590,0.848998,-16.6404
-427,-566,-0.0559082,16.3832,0,0,0,0,0,0,0,-1,797,1590,-0.0559087,-16.3831
-420,-566,0.320068,17.3807,0,0,0,0,0,0,0,-1,804,1590,0.320078,-17.3807
-413,-566,0.435852,17.9229,-0.00381204,0.00143456,-0.000440196,0.00147124,-0.00384872,-1.48767,0.00317207,0.0262478,811,1590,0.435874,-17.9229
-406,-566,0.442383,18.3737,-0.00306781,0.000956867,-0.000140443,0.000961762,-0.00307271,-1.53596,0.00243326,0.0112467,818,1590,0.442365,-18.3736
-399,-566,0.430054,18.8118,-0.00228728,0.000683233,0.000201784,0.000696878,-0.00230092,1.50328,0.00181149,0.0101363,825,1590,0.430033,-18.8117
-392,-566,0.403381,19.2449,-0.00155613,0.00095135,0.000457171,0.0010321,-0.00163688,1.39597,0.00155407,0.0140118,832,1590,0.403383,-19.2449
-385,-566,0.392212,19.6941,-0.000676475,0.000755935,0.000645013,0.00100357,-0.000924112,1.20422,0.00111326,0.0164521,839,1590,0.392195,-19.6941
-378,-566,0.384766,20.1665,0.000282345,0.000693779,0.000973535,0.0014831,-0.000506971,0.889521,0.00119415,0.0157676,846,1590,0.384757,-20.1665
-371,-566,0.344971,20.6056,0.00122765,0.000451882,0.00126785,0.00216562,-0.000486087,0.63695,0.00163012,0.0222022,853,1590,0.344976,-20.6056
-364,-566,0.349243,21.0076,0.00226074,0.000130907,0.00161041,0.00312649,-0.000734842,0.49327,0.00236759,0.0225593,860,1590,0.349252,-21.0075
-357,-566,0.332336,21.4147,0.00330288,-0.000203947,0.0020088,0.00421587,-0.00111694,0.426588,0.00324756,0.018118,867,1590,0.332315,-21.4147
-350,-566,0.322632,21.8094,0.00447391,-0.000648105,0.00244619,0.00545445,-0.00162865,0.381236,0.00428366,0.0200232,874,1590,0.322607,-21.8094
-343,-566,0.331055,22.2277,0.00567217,-0.00101291,0.00299043,0.00681464,-0.00215538,0.364928,0.00540671,0.0252237,881,1590,0.331058,-22.2276
-336,-566,0.255249,22.6776,0.00681315,-0.00104418,0.00363814,0.00823897,-0.00247,0.373512,0.00647497,0.0256424,888,1590,0.255262,-22.6776
-329,-566,0.32959,23.0514,0.00805137,-0.00110326,0.00444218,0.00985252,-0.00290441,0.385208,0.00772078,0.0217188,895,1590,0.329602,-23.0514
-322,-566,0.413452,23.5989,0.0092211,-0.000919324,0.00536278,0.011531,-0.00322925,0.406717,0.0089599,0.0296773,902,1590,0.413432,-23.5989
-315,-566,0.284485,24.0388,0.0102125,-0.000108105,0.00631822,0.0132099,-0.00310554,0.442968,0.0100038,0.0460266,909,1590,0.284473,-24.0388
-308,-566,0.645569,24.8159,0,0,0,0,0,0,0,-1,916,1590,0.645562,-24.8159
-301,-566,1.28174,25.5448,0,0,0,0,0,0,0,-1,923,1590,1.28171,-25.5448
-294,-566,0.741455,25.3229,0,0,0,0,0,0,0,-1,930,1590,0.741475,-25.3229
-287,-566,1.25391,23.4589,0,0,0,0,0,0,0,-1,937,1590,1.2539,-23.4589
-280,-566,1.59406,17.8762,0,0,0,0,0,0,0,-1,944,1590,1.59405,-17.8762
-273,-566,0.49762,11.2427,0,0,0,0,0,0,0,-1,951,1590,0.497591,-11.2426
-266,-566,0.392151,6.90295,0,0,0,0,0,0,0,-1,958,1590,0.392151,-6.90294
-259,-566,0.343628,6.47437,0,0,0,0,0,0,0,-1,965,1590,0.34363,-6.47438
-252,-566,-7.68311,1.01343,0,0,0,0,0,0,0,-1,972,1590,-7.68308,-1.01348
-245,-566,-11.1835,1.97522,0,0,0,0,0,0,0,-1,979,1590,-11.1835,-1.97527
-238,-566,-10.4883,2.40491,0,0,0,0,0,0,0,-1,986,1590,-10.4883,-2.40487
-231,-566,-7.41827,4.22803,0,0,0,0,0,0,0,-1,993,1590,-7.41827,-4.22803
-224,-566,-4.67188,6.30859,0,0,0,0,0,0,0,-1,1000,1590,-4.67185,-6.30853
-217,-566,-2.82867,7.52527,0,0,0,0,0,0,0,-1,1007,1590,-2.82869,-7.52531
-210,-566,-1.03436,8.67737,0,0,0,0,0,0,0,-1,1014,1590,-1.03439,-8.67733
-203,-566,0,0,0,0,0,0,0,0,0,-1,1021,1590,0,0
-196,-566,0,0,0,0,0,0,0,0,0,-1,1028,1590,0,0
-189,-566,0,0,0,0,0,0,0,0,0,-1,1035,1590,0,0
-182,-566,0,0,0,0,0,0,0,0,0,-1,1042,1590,0,0
-175,-566,0,0,0,0,0,0,0,0,0,-1,1049,1590,0,0
-168,-566,0,0,0,0,0,0,0,0,0,-1,1056,1590,0,0
-161,-566,0,0,0,0,0,0,0,0,0,-1,1063,1590,0,0
-154,-566,0,0,0,0,0,0,0,0,0,-1,1070,1590,0,0
-147,-566,0,0,0,0,0,0,0,0,0,-1,1077,1590,0,0
-140,-566,0,0,0,0,0,0,0,0,0,-1,1084,1590,0,0
-133,-566,0,0,0,0,0,0,0,0,0,-1,1091,1590,0,0
-126,-566,0,0,0,0,0,0,0,0,0,-1,1098,1590,0,0
-119,-566,0,0,0,0,0,0,0,0,0,-1,1105,1590,0,0
-112,-566,0,0,0,0,0,0,0,0,0,-1,1112,1590,0,0
-105,-566,0,0,0,0,0,0,0,0,0,-1,1119,1590,0,0
-98,-566,0,0,0,0,0,0,0,0,0,-1,1126,1590,0,0
-91,-566,0,0,0,0,0,0,0,0,0,-1,1133,1590,0,0
-84,-566,0,0,0,0,0,0,0,0,0,-1,1140,1590,0,0
-77,-566,0,0,0,0,0,0,0,0,0,-1,1147,1590,0,0
-70,-566,0,0,0,0,0,0,0,0,0,-1,1154,1590,0,0
-63,-566,0,0,0,0,0,0,0,0,0,-1,1161,1590,0,0
-56,-566,0,0,0,0,0,0,0,0,0,-1,1168,1590,0,0
-49,-566,0,0,0,0,0,0,0,0,0,-1,1175,1590,0,0
-42,-566,0,0,0,0,0,0,0,0,0,-1,1182,1590,0,0
-35,-566,0,0,0,0,0,0,0,0,0,-1,1189,1590,0,0
-28,-566,0,0,0,0,0,0,0,0,0,-1,1196,1590,0,0
-21,-566,0,0,0,0,0,0,0,0,0,-1,1203,1590,0,0
-14,-566,0,0,0,0,0,0,0,0,0,-1,1210,1590,0,0
-7,-566,0,0,0,0,0,0,0,0,0,-1,1217,1590,0,0
0,-566,0,0,0,0,0,0,0,0,0,-1,1224,1590,0,0
7,-566,0,0,0,0,0,0,0,0,0,-1,1231,1590,0,0
14,-566,0,0,0,0,0,0,0,0,0,-1,1238,1590,0,0
21,-566,0,0,0,0,0,0,0,0,0,-1,1245,1590,0,0
28,-566,0,0,0,0,0,0,0,0,0,-1,1252,1590,0,0
35,-566,0,0,0,0,0,0,0,0,0,-1,1259,1590,0,0
42,-566,0,0,0,0,0,0,0,0,0,-1,1266,1590,0,0
49,-566,0,0,0,0,0,0,0,0,0,-1,1273,1590,0,0
56,-566,0,0,0,0,0,0,0,0,0,-1,1280,1590,0,0
63,-566,0,0,0,0,0,0,0,0,0,-1,1287,1590,0,0
70,-566,0,0,0,0,0,0,0,0,0,-1,1294,1590,0,0
77,-566,0,0,0,0,0,0,0,0,0,-1,1301,1590,0,0
84,-566,0,0,0,0,0,0,0,0,0,-1,1308,1590,0,0
91,-566,0,0,0,0,0,0,0,0,0,-1,1315,1590,0,0
98,-566,0,0,0,0,0,0,0,0,0,-1,1322,1590,0,0
105,-566,0,0,0,0,0,0,0,0,0,-1,1329,1590,0,0
112,-566,0,0,0,0,0,0,0,0,0,-1,1336,1590,0,0
119,-566,0,0,0,0,0,0,0,0,0,-1,1343,1590,0,0
126,-566,0,0,0,0,0,0,0,0,0,-1,1350,1590,0,0
133,-566,0,0,0,0,0,0,0,0,0,-1,1357,1590,0,0
140,-566,0,0,0,0,0,0,0,0,0,-1,1364,1590,0,0
147,-566,0,0,0,0,0,0,0,0,0,-1,1371,1590,0,0
154,-566,0,0,0,0,0,0,0,0,0,-1,1378,1590,0,0
161,-566,0,0,0,0,0,0,0,0,0,-1,1385,1590,0,0
168,-566,0,0,0,0,0,0,0,0,0,-1,1392,1590,0,0
175,-566,0,0,0,0,0,0,0,0,0,-1,1399,1590,0,0
182,-566,0,0,0,0,0,0,0,0,0,-1,1406,1590,0,0
189,-566,0,0,0,0,0,0,0,0,0,-1,1413,1590,0,0
196,-566,0,0,0,0,0,0,0,0,0,-1,1420,1590,0,0
203,-566,0,0,0,0,0,0,0,0,0,-1,1427,1590,0,0
210,-566,0,0,0,0,0,0,0,0,0,-1,1434,1590,0,0
217,-566,0,0,0,0,0,0,0,0,0,-1,1441,1590,0,0
224,-566,0,0,0,0,0,0,0,0,0,-1,1448,1590,0,0
231,-566,0,0,0,0,0,0,0,0,0,-1,1455,1590,0,0
238,-566,0,0,0,0,0,0,0,0,0,-1,1462,1590,0,0
245,-566,0,0,0,0,0,0,0,0,0,-1,1469,1590,0,0
252,-566,0,0,0,0,0,0,0,0,0,-1,1476,1590,0,0
259,-566,0,0,0,0,0,0,0,0,0,-1,1483,1590,0,0
266,-566,0,0,0,0,0,0,0,0,0,-1,1490,1590,0,0
273,-566,0,0,0,0,0,0,0,0,0,-1,1497,1590,0,0
280,-566,0,0,0,0,0,0,0,0,0,-1,1504,1590,0,0
287,-566,0,0,0,0,0,0,0,0,0,-1,1511,1590,0,0
294,-566,0,0,0,0,0,0,0,0,0,-1,1518,1590,0,0
301,-566,0,0,0,0,0,0,0,0,0,-1,1525,1590,0,0
308,-566,0,0,0,0,0,0,0,0,0,-1,1532,1590,0,0
315,-566,0,0,0,0,0,0,0,0,0,-1,1539,1590,0,0
322,-566,6.07983,4.44873,0,0,0,0,0,0,0,-1,1546,1590,6.07983,-4.44873
329,-566,5.77026,3.47534,0,0,0,0,0,0,0,-1,1553,1590,5.77026,-3.47535
336,-566,5.41138,2.62915,0,0,0,0,0,0,0,-1,1560,1590,5.41138,-2.62909
343,-566,4.81873,1.79089,0,0,0,0,0,0,0,-1,1567,1590,4.81878,-1.79095
350,-566,4.41663,2.44214,0,0,0,0,0,0,0,-1,1574,1590,4.41666,-2.44214
357,-566,6.34058,5.18579,0,0,0,0,0,0,0,-1,1581,1590,6.34059,-5.1858
364,-566,6.06262,4.20251,0,0,0,0,0,0,0,-1,1588,1590,6.06259,-4.20246
371,-566,5.78455,3.21912,0,0,0,0,0,0,0,-1,1595,1590,5.7846,-3.21912
378,-566,5.7439,0.695557,0,0,0,0,0,0,0,-1,1602,1590,5.74392,-0.695531
385,-566,5.67615,-0.573975,0,0,0,0,0,0,0,-1,1609,1590,5.67612,0.573956
392,-566,5.78638,1.82434,0,0,0,0,0,0,0,-1,1616,1590,5.78637,-1.82439
399,-566,5.36621,1.7373,0,0,0,0,0,0,0,-1,1623,1590,5.36627,-1.7373
406,-566,4.30359,5.26868,0,0,0,0,0,0,0,-1,1630,1590,4.30364,-5.26867
413,-566,4.27124,5.79492,0,0,0,0,0,0,0,-1,1637,1590,4.27123,-5.7949
420,-566,7.19812,8.25146,0,0,0,0,0,0,0,-1,1644,1590,7.19817,-8.25149
427,-566,10.455,10.6842,0,0,0,0,0,0,0,-1,1651,1590,10.455,-10.6842
434,-566,9.18567,14.3304,0,0,0,0,0,0,0,-1,1658,1590,9.18571,-14.3305
441,-566,14.7419,25.7504,0,0,0,0,0,0,0,-1,1665,1590,14.7419,-25.7503
448,-566,14.335,25.4735,0,0,0,0,0,0,0,-1,1672,1590,14.335,-25.4735
455,-566,13.9402,24.8239,0,0,0,0,0,0,0,-1,1679,1590,13.9402,-24.8239
462,-566,14.0576,24.2043,0.000338641,0.0141695,-0.00358268,0.0150424,-0.000534301,-1.3318,0.0102111,0.032281,1686,1590,14.0576,-24.2044
469,-566,14.1348,23.5898,0.00172769,0.0112302,-0.00374247,0.0125272,0.00043077,-1.23721,0.00821162,0.0162943,1693,1590,14.1348,-23.5899
476,-566,14.2024,23.1713,0.00248474,0.00860101,-0.00343581,0.0101425,0.000943199,-1.14905,0.00647025,0.0102935,1700,1590,14.2024,-23.1713
483,-566,14.2242,22.7686,0.00303654,0.00615751,-0.00312817,0.00809282,0.00110124,-1.01676,0.00506817,0.00954096,1707,1590,14.2243,-22.7685
490,-566,14.2115,22.3583,0.00279171,0.00427635,-0.00239602,0.00604241,0.00102566,-0.935616,0.00373364,0.0109274,1714,1590,14.2116,-22.3583
497,-566,14.2478,21.973,0.00227125,0.00269459,-0.00187722,0.00437203,0.000593809,-0.841539,0.0027383,0.0150335,1721,1590,14.2478,-21.973
504,-566,14.2146,21.5895,0.00136164,0.00128912,-0.00102386,0.00234988,0.000300877,-0.7677,0.00147655,0.0195905,1728,1590,14.2146,-21.5895
511,-566,14.1682,21.189,0.000329547,-4.67067e-05,-5.1022e-05,0.000336343,-5.35028e-05,-0.13242,0.000244026,0.01976,1735,1590,14.1682,-21.1889
518,-566,14.1813,20.7948,-0.000742654,-0.00134006,0.000935968,-5.88797e-05,-0.00202383,0.630938,0.00133003,0.0125962,1742,1590,14.1813,-20.7948
525,-566,14.1696,20.3618,-0.00189111,-0.00265208,0.00202494,-0.000211222,-0.00433196,0.692531,0.00282021,0.0125405,1749,1590,14.1696,-20.3618
532,-566,14.1525,19.9418,-0.00306047,-0.00411208,0.00331708,-0.000227783,-0.00694477,0.706796,0.00455582,0.0136456,1756,1590,14.1525,-19.9418
539,-566,14.1427,19.5107,-0.00424605,-0.00595074,0.00490025,-0.000124563,-0.0100722,0.69929,0.00667368,0.0161726,1763,1590,14.1427,-19.5107
546,-566,14.1769,19.0255,-0.00569562,-0.00813633,0.00693079,0.000121427,-0.0139534,0.698253,0.00934299,0.0206332,1770,1590,14.1769,-19.0255
553,-566,14.1608,18.777,-0.00720662,-0.0106549,0.00930952,0.000537078,-0.0183986,0.693836,0.0124486,0.0337315,1777,1590,14.1608,-18.777
560,-566,13.9204,18.7673,-0.00884297,-0.0139614,0.0123186,0.00117946,-0.0239838,0.682979,0.0163965,0.0436184,1784,1590,13.9204,-18.7673
567,-566,13.8107,18.6705,0,0,0,0,0,0,0,-1,1791,1590,13.8107,-18.6706
574,-566,7.99548,3.14514,0,0,0,0,0,0,0,-1,1798,1590,7.99543,-3.14511
581,-566,2.54102,5.1311,0,0,0,0,0,0,0,-1,1805,1590,2.54099,-5.13111
588,-566,-1.91321,8.39197,0,0,0,0,0,0,0,-1,1812,1590,-1.91316,-8.39199
595,-566,9.0271,4.66467,0,0,0,0,0,0,0,-1,1819,1590,9.02705,-4.66468
602,-566,9.953,3.54895,0,0,0,0,0,0,0,-1,1826,1590,9.953,-3.54898
609,-566,0,0,0,0,0,0,0,0,0,-1,1833,1590,0,0
616,-566,0,0,0,0,0,0,0,0,0,-1,1840,1590,0,0
623,-566,0,0,0,0,0,0,0,0,0,-1,1847,1590,0,0
630,-566,0,0,0,0,0,0,0,0,0,-1,1854,1590,0,0
637,-566,0,0,0,0,0,0,0,0,0,-1,1861,1590,0,0
644,-566,0,0,0,0,0,0,0,0,0,-1,1868,1590,0,0
651,-566,0,0,0,0,0,0,0,0,0,-1,1875,1590,0,0
658,-566,0,0,0,0,0,0,0,0,0,-1,1882,1590,0,0
665,-566,0,0,0,0,0,0,0,0,0,-1,1889,1590,0,0
672,-566,0,0,0,0,0,0,0,0,0,-1,1896,1590,0,0
679,-566,0,0,0,0,0,0,0,0,0,-1,1903,1590,0,0
686,-566,0,0,0,0,0,0,0,0,0,-1,1910,1590,0,0
693,-566,0,0,0,0,0,0,0,0,0,-1,1917,1590,0,0
700,-566,0,0,0,0,0,0,0,0,0,-1,1924,1590,0,0
707,-566,0,0,0,0,0,0,0,0,0,-1,1931,1590,0,0
714,-566,0,0,0,0,0,0,0,0,0,-1,1938,1590,0,0
721,-566,0,0,0,0,0,0,0,0,0,-1,1945,1590,0,0
728,-566,0,0,0,0,0,0,0,0,0,-1,1952,1590,0,0
735,-566,0,0,0,0,0,0,0,0,0,-1,1959,1590,0,0
742,-566,0,0,0,0,0,0,0,0,0,-1,1966,1590,0,0
749,-566,0,0,0,0,0,0,0,0,0,-1,1973,1590,0,0
756,-566,0,0,0,0,0,0,0,0,0,-1,1980,1590,0,0
763,-566,0,0,0,0,0,0,0,0,0,-1,1987,1590,0,0
770,-566,0,0,0,0,0,0,0,0,0,-1,1994,1590,0,0
777,-566,0,0,0,0,0,0,0,0,0,-1,2001,1590,0,0
784,-566,0,0,0,0,0,0,0,0,0,-1,2008,1590,0,0
791,-566,0,0,0,0,0,0,0,0,0,-1,2015,1590,0,0
798,-566,0,0,0,0,0,0,0,0,0,-1,2022,1590,0,0
805,-566,0,0,0,0,0,0,0,0,0,-1,2029,1590,0,0
812,-566,0,0,0,0,0,0,0,0,0,-1,2036,1590,0,0
-700,-573,0,0,0,0,0,0,0,0,0,-1,524,1597,0,0
-693,-573,0,0,0,0,0,0,0,0,0,-1,531,1597,0,0
-686,-573,0,0,0,0,0,0,0,0,0,-1,538,1597,0,0
-679,-573,0,0,0,0,0,0,0,0,0,-1,545,1597,0,0
-672,-573,0,0,0,0,0,0,0,0,0,-1,552,1597,0,0
-665,-573,0,0,0,0,0,0,0,0,0,-1,559,1597,0,0
-658,-573,0,0,0,0,0,0,0,0,0,-1,566,1597,0,0
-651,-573,0,0,0,0,0,0,0,0,0,-1,573,1597,0,0
-644,-573,0,0,0,0,0,0,0,0,0,-1,580,1597,0,0
-637,-573,0,0,0,0,0,0,0,0,0,-1,587,1597,0,0
-630,-573,0,0,0,0,0,0,0,0,0,-1,594,1597,0,0
-623,-573,0,0,0,0,0,0,0,0,0,-1,601,1597,0,0
-616,-573,0,0,0,0,0,0,0,0,0,-1,608,1597,0,0
-609,-573,0,0,0,0,0,0,0,0,0,-1,615,1597,0,0
-602,-573,0,0,0,0,0,0,0,0,0,-1,622,1597,0,0
-595,-573,0,0,0,0,0,0,0,0,0,-1,629,1597,0,0
-588,-573,0,0,0,0,0,0,0,0,0,-1,636,1597,0,0
-581,-573,0,0,0,0,0,0,0,0,0,-1,643,1597,0,0
-574,-573,0,0,0,0,0,0,0,0,0,-1,650,1597,0,0
-567,-573,0,0,0,0,0,0,0,0,0,-1,657,1597,0,0
-560,-573,0,0,0,0,0,0,0,0,0,-1,664,1597,0,0
-553,-573,0,0,0,0,0,0,0,0,0,-1,671,1597,0,0
-546,-573,0,0,0,0,0,0,0,0,0,-1,678,1597,0,0
-539,-573,0,0,0,0,0,0,0,0,0,-1,685,1597,0,0
-532,-573,0,0,0,0,0,0,0,0,0,-1,692,1597,0,0
-525,-573,0,0,0,0,0,0,0,0,0,-1,699,1597,0,0
-518,-573,0,0,0,0,0,0,0,0,0,-1,706,1597,0,0
-511,-573,0,0,0,0,0,0,0,0,0,-1,713,1597,0,0
-504,-573,0,0,0,0,0,0,0,0,0,-1,720,1597,0,0
-497,-573,0,0,0,0,0,0,0,0,0,-1,727,1597,0,0
-490,-573,0,0,0,0,0,0,0,0,0,-1,734,1597,0,0
-483,-573,0,0,0,0,0,0,0,0,0,-1,741,1597,0,0
-476,-573,-9.3327,0.972778,0,0,0,0,0,0,0,-1,748,1597,-9.33268,-0.972776
-469,-573,-1.41681,1.13379,0,0,0,0,0,0,0,-1,755,1597,-1.41681,-1.13382
-462,-573,-0.748535,2.02588,0,0,0,0,0,0,0,-1,762,1597,-0.748533,-2.02584
-455,-573,-0.112976,2.70703,0,0,0,0,0,0,0,-1,769,1597,-0.112988,-2.70697
-448,-573,-1.26172,3.33252,0,0,0,0,0,0,0,-1,776,1597,-1.26173,-3.33248
-441,-573,0.108582,5.06726,0,0,0,0,0,0,0,-1,783,1597,0.108584,-5.06721
-434,-573,1.61768,7.05444,0,0,0,0,0,0,0,-1,790,1597,1.61767,-7.05446
-427,-573,-0.425781,16.5232,0,0,0,0,0,0,0,-1,797,1597,-0.425804,-16.5231
-420,-573,1.18213,16.9377,0,0,0,0,0,0,0,-1,804,1597,1.18214,-16.9378
-413,-573,0.819519,17.7451,0,0,0,0,0,0,0,-1,811,1597,0.819532,-17.7451
-406,-573,0.891602,18.337,-0.0039588,0.0011497,0.000169118,0.0011553,-0.0039644,1.53774,0.00310062,0.0279883,818,1597,0.891579,-18.3371
-399,-573,0.850159,18.8405,-0.00314437,0.000535551,0.00039109,0.000576656,-0.00318547,1.46608,0.00233967,0.0132224,825,1597,0.850173,-18.8405
-392,-573,0.85614,19.2887,-0.00245003,0.000687443,0.000502329,0.000765906,-0.0025285,1.41585,0.0019907,0.0122533,832,1597,0.856155,-19.2887
-385,-573,0.847656,19.7108,-0.00164414,0.000464118,0.000522955,0.000586709,-0.00176674,1.34053,0.00141455,0.0141288,839,1597,0.847638,-19.7108
-378,-573,0.822571,20.1479,-0.000732754,0.000395091,0.000731306,0.000754649,-0.00109231,1.11384,0.00107227,0.0146505,846,1597,0.822594,-20.1479
-371,-573,0.796692,20.6027,0.000135279,0.000203918,0.000892457,0.00106271,-0.000723518,0.804616,0.00103746,0.0158979,853,1597,0.796697,-20.6027
-364,-573,0.76947,21.0186,0.00104418,1.5357e-05,0.00111035,0.00175349,-0.000693954,0.568474,0.0014565,0.0191264,860,1597,0.769469,-21.0186
-357,-573,0.739624,21.4255,0.00195122,-0.000117845,0.00137948,0.00264099,-0.000807615,0.463665,0.00208273,0.0222212,867,1597,0.739612,-21.4256
-350,-573,0.756836,21.8538,0.00296681,-0.000310714,0.00168604,0.00367928,-0.00102318,0.399809,0.00285568,0.0177099,874,1597,0.756865,-21.8537
-343,-573,0.795654,22.2587,0.0039917,-0.000383701,0.00211342,0.00484581,-0.00123781,0.384065,0.00371257,0.022352,881,1597,0.795641,-22.2587
-336,-573,0.760071,22.7128,0.00495243,-0.000100702,0.00261902,0.00606493,-0.0012132,0.401682,0.0045025,0.0170253,888,1597,0.760072,-22.7127
-329,-573,0.763489,23.1167,0.00596347,0.000201154,0.00325017,0.00742566,-0.00126104,0.422755,0.00541991,0.016989,895,1597,0.763517,-23.1168
-322,-573,0.759033,23.5618,0.00688392,0.000697994,0.00397325,0.00882615,-0.00124423,0.454668,0.00633967,0.0149872,902,1597,0.759004,-23.5618
-315,-573,0.8927,24.1598,0.00764731,0.00162561,0.00470792,0.0102248,-0.000951896,0.500908,0.00715498,0.0349252,909,1597,0.892688,-24.1598
-308,-573,0.867981,24.8611,0,0,0,0,0,0,0,-1,916,1597,0.868004,-24.861
-301,-573,1.09424,25.0098,0,0,0,0,0,0,0,-1,923,1597,1.09424,-25.0098
-294,-573,1.00702,24.802,0,0,0,0,0,0,0,-1,930,1597,1.00701,-24.802
-287,-573,0.895996,26.8125,0,0,0,0,0,0,0,-1,937,1597,0.89602,-26.8125
-280,-573,1.19684,26.4906,0,0,0,0,0,0,0,-1,944,1597,1.19685,-26.4906
-273,-573,2.24805,25.4375,0,0,0,0,0,0,0,-1,951,1597,2.24803,-25.4374
-266,-573,1.31116,7.1814,0,0,0,0,0,0,0,-1,958,1597,1.31118,-7.18142
-259,-573,1.2514,6.70959,0,0,0,0,0,0,0,-1,965,1597,1.25137,-6.70965
-252,-573,2.07874,5.27161,0,0,0,0,0,0,0,-1,972,1597,2.07875,-5.27157
-245,-573,-10.2592,1.09827,0,0,0,0,0,0,0,-1,979,1597,-10.2592,-1.09823
-238,-573,-11.5463,4.44141,0,0,0,0,0,0,0,-1,986,1597,-11.5463,-4.44146
-231,-573,-9.23431,4.14539,0,0,0,0,0,0,0,-1,993,1597,-9.23431,-4.14534
-224,-573,-6.70044,7.40857,0,0,0,0,0,0,0,-1,1000,1597,-6.70045,-7.40851
-217,-573,-4.25824,8.59119,0,0,0,0,0,0,0,-1,1007,1597,-4.25824,-8.59122
-210,-573,-2.39661,9.73914,0,0,0,0,0,0,0,-1,1014,1597,-2.39658,-9.73915
-203,-573,-0.557373,10.9005,0,0,0,0,0,0,0,-1,1021,1597,-0.557387,-10.9006
-196,-573,-1.65344,9.02246,0,0,0,0,0,0,0,-1,1028,1597,-1.65349,-9.02241
-189,-573,-6.12915,6.66882,0,0,0,0,0,0,0,-1,1035,1597,-6.12913,-6.66884
-182,-573,0,0,0,0,0,0,0,0,0,-1,1042,1597,0,0
-175,-573,0,0,0,0,0,0,0,0,0,-1,1049,1597,0,0
-168,-573,0,0,0,0,0,0,0,0,0,-1,1056,1597,0,0
-161,-573,0,0,0,0,0,0,0,0,0,-1,1063,1597,0,0
-154,-573,0,0,0,0,0,0,0,0,0,-1,1070,1597,0,0
-147,-573,0,0,0,0,0,0,0,0,0,-1,1077,1597,0,0
-140,-573,0,0,0,0,0,0,0,0,0,-1,1084,1597,0,0
-133,-573,0,0,0,0,0,0,0,0,0,-1,1091,1597,0,0
-126,-573,0,0,0,0,0,0,0,0,0,-1,1098,1597,0,0
-119,-573,0,0,0,0,0,0,0,0,0,-1,1105,1597,0,0
-112,-573,0,0,0,0,0,0,0,0,0,-1,1112,1597,0,0
-105,-573,0,0,0,0,0,0,0,0,0,-1,1119,1597,0,0
-98,-573,0,0,0,0,0,0,0,0,0,-1,1126,1597,0,0
-91,-573,0,0,0,0,0,0,0,0,0,-1,1133,1597,0,0
-84,-573,0,0,0,0,0,0,0,0,0,-1,1140,1597,0,0
-77,-573,0,0,0,0,0,0,0,0,0,-1,1147,1597,0,0
-70,-573,0,0,0,0,0,0,0,0,0,-1,1154,1597,0,0
-63,-573,0,0,0,0,0,0,0,0,0,-1,1161,1597,0,0
-56,-573,0,0,0,0,0,0,0,0,0,-1,1168,1597,0,0
-49,-573,0,0,0,0,0,0,0,0,0,-1,1175,1597,0,0
-42,-573,0,0,0,0,0,0,0,0,0,-1,1182,1597,0,0
-35,-573,0,0,0,0,0,0,0,0,0,-1,1189,1597,0,0
-28,-573,0,0,0,0,0,0,0,0,0,-1,1196,1597,0,0
-21,-573,0,0,0,0,0,0,0,0,0,-1,1203,1597,0,0
-14,-573,0,0,0,0,0,0,0,0,0,-1,1210,1597,0,0
-7,-573,0,0,0,0,0,0,0,0,0,-1,1217,1597,0,0
0,-573,0,0,0,0,0,0,0,0,0,-1,1224,1597,0,0
7,-573,0,0,0,0,0,0,0,0,0,-1,1231,1597,0,0
14,-573,0,0,0,0,0,0,0,0,0,-1,1238,1597,0,0
21,-573,0,0,0,0,0,0,0,0,0,-1,1245,1597,0,0
28,-573,0,0,0,0,0,0,0,0,0,-1,1252,1597,0,0
35,-573,0,0,0,0,0,0,0,0,0,-1,1259,1597,0,0
42,-573,0,0,0,0,0,0,0,0,0,-1,1266,1597,0,0
49,-573,0,0,0,0,0,0,0,0,0,-1,1273,1597,0,0
56,-573,0,0,0,0,0,0,0,0,0,-1,1280,1597,0,0
63,-573,0,0,0,0,0,0,0,0,0,-1,1287,1597,0,0
70,-573,0,0,0,0,0,0,0,0,0,-1,1294,1597,0,0
77,-573,0,0,0,0,0,0,0,0,0,-1,1301,1597,0,0
84,-573,0,0,0,0,0,0,0,0,0,-1,1308,1597,0,0
91,-573,0,0,0,0,0,0,0,0,0,-1,1315,1597,0,0
98,-573,0,0,0,0,0,0,0,0,0,-1,1322,1597,0,0
105,-573,0,0,0,0,0,0,0,0,0,-1,1329,1597,0,0
112,-573,0,0,0,0,0,0,0,0,0,-1,1336,1597,0,0
119,-573,0,0,0,0,0,0,0,0,0,-1,1343,1597,0,0
126,-573,0,0,0,0,0,0,0,0,0,-1,1350,1597,0,0
133,-573,0,0,0,0,0,0,0,0,0,-1,1357,1597,0,0
140,-573,0,0,0,0,0,0,0,0,0,-1,1364,1597,0,0
147,-573,0,0,0,0,0,0,0,0,0,-1,1371,1597,0,0
154,-573,0,0,0,0,0,0,0,0,0,-1,1378,1597,0,0
161,-573,0,0,0,0,0,0,0,0,0,-1,1385,1597,0,0
168,-573,0,0,0,0,0,0,0,0,0,-1,1392,1597,0,0
175,-573,0,0,0,0,0,0,0,0,0,-1,1399,1597,0,0
182,-573,0,0,0,0,0,0,0,0,0,-1,1406,1597,0,0
189,-573,0,0,0,0,0,0,0,0,0,-1,1413,1597,0,0
196,-573,0,0,0,0,0,0,0,0,0,-1,1420,1597,0,0
203,-573,0,0,0,0,0,0,0,0,0,-1,1427,1597,0,0
210,-573,0,0,0,0,0,0,0,0,0,-1,1434,1597,0,0
217,-573,0,0,0,0,0,0,0,0,0,-1,1441,1597,0,0
224,-573,0,0,0,0,0,0,0,0,0,-1,1448,1597,0,0
231,-573,0,0,0,0,0,0,0,0,0,-1,1455,1597,0,0
238,-573,0,0,0,0,0,0,0,0,0,-1,1462,1597,0,0
245,-573,0,0,0,0,0,0,0,0,0,-1,1469,1597,0,0
252,-573,0,0,0,0,0,0,0,0,0,-1,1476,1597,0,0
259,-573,0,0,0,0,0,0,0,0,0,-1,1483,1597,0,0
266,-573,0,0,0,0,0,0,0,0,0,-1,1490,1597,0,0
273,-573,0,0,0,0,0,0,0,0,0,-1,1497,1597,0,0
280,-573,0,0,0,0,0,0,0,0,0,-1,1504,1597,0,0
287,-573,0,0,0,0,0,0,0,0,0,-1,1511,1597,0,0
294,-573,0,0,0,0,0,0,0,0,0,-1,1518,1597,0,0
301,-573,0,0,0,0,0,0,0,0,0,-1,1525,1597,0,0
308,-573,5.93042,9.71143,0,0,0,0,0,0,0,-1,1532,1597,5.93046,-9.71144
315,-573,4.34204,11.719,0,0,0,0,0,0,0,-1,1539,1597,4.34205,-11.719
322,-573,10.3269,7.77563,0,0,0,0,0,0,0,-1,1546,1597,10.327,-7.77565
329,-573,4.99573,3.80273,0,0,0,0,0,0,0,-1,1553,1597,4.9957,-3.80273
336,-573,4.85693,2.53455,0,0,0,0,0,0,0,-1,1560,1597,4.8569,-2.53459
343,-573,5.5946,2.15894,0,0,0,0,0,0,0,-1,1567,1597,5.59456,-2.1589
350,-573,2.53748,1.56433,0,0,0,0,0,0,0,-1,1574,1597,2.53753,-1.5643
357,-573,7.40247,4.03613,0,0,0,0,0,0,0,-1,1581,1597,7.40244,-4.03614
364,-573,7.14551,3.02087,0,0,0,0,0,0,0,-1,1588,1597,7.14556,-3.02084
371,-573,6.88867,2.00549,0,0,0,0,0,0,0,-1,1595,1597,6.88868,-2.00553
378,-573,8.62012,6.09106,0,0,0,0,0,0,0,-1,1602,1597,8.62012,-6.09103
385,-573,6.54346,-0.951904,0,0,0,0,0,0,0,-1,1609,1597,6.54349,0.951901
392,-573,6.41833,-2.18225,0,0,0,0,0,0,0,-1,1616,1597,6.41831,2.18228
399,-573,4.26282,4.73657,0,0,0,0,0,0,0,-1,1623,1597,4.26285,-4.73652
406,-573,6.82715,10.823,0,0,0,0,0,0,0,-1,1630,1597,6.82719,-10.823
413,-573,8.90552,13.1737,0,0,0,0,0,0,0,-1,1637,1597,8.90553,-13.1737
420,-573,13.7928,23.4659,0,0,0,0,0,0,0,-1,1644,1597,13.7928,-23.466
427,-573,15.2256,26.4321,0,0,0,0,0,0,0,-1,1651,1597,15.2256,-26.4321
434,-573,14.2683,25.6846,0,0,0,0,0,0,0,-1,1658,1597,14.2683,-25.6845
441,-573,14.0649,25.3512,-0.00620885,0.0185366,0.000347914,0.0185415,-0.00621374,1.55674,0.0148714,0.0495568,1665,1597,14.0649,-25.3512
448,-573,13.786,25.0107,-0.00383495,0.016233,-0.000917894,0.0162749,-0.00387684,-1.52518,0.0123468,0.0396995,1672,1597,13.786,-25.0107
455,-573,13.7421,24.4794,-0.00195948,0.0137467,-0.0018547,0.0139628,-0.00217552,-1.45483,0.010112,0.0287427,1679,1597,13.7421,-24.4794
462,-573,13.7937,23.9143,-0.000333064,0.0113507,-0.0025147,0.0118689,-0.000851316,-1.36755,0.00821113,0.0210901,1686,1597,13.7937,-23.9143
469,-573,13.8026,23.5156,0.000859056,0.00896521,-0.002762,0.00981683,7.43335e-06,-1.27171,0.00654208,0.0154147,1693,1597,13.8027,-23.5156
476,-573,13.8383,23.1449,0.00152374,0.00674673,-0.00258489,0.00780969,0.000460788,-1.18066,0.00505986,0.0142026,1700,1597,13.8382,-23.1449
483,-573,13.8591,22.7775,0.00201814,0.00463895,-0.00239198,0.00605595,0.000601146,-1.03599,0.00385258,0.0115147,1707,1597,13.8591,-22.7775
490,-573,13.8438,22.3755,0.00184163,0.00297866,-0.00181353,0.00431069,0.000509597,-0.93729,0.00271989,0.0118393,1714,1597,13.8437,-22.3755
497,-573,13.8337,21.9546,0.00134463,0.00157319,-0.00136625,0.00282993,8.78907e-05,-0.827124,0.00185802,0.0182035,1721,1597,13.8337,-21.9546
504,-573,13.7902,21.5756,0.000404713,0.000245937,-0.000491463,0.000823159,-0.000172509,-0.705322,0.000614402,0.0175013,1728,1597,13.7902,-21.5755
511,-573,13.7655,21.1533,-0.000627307,-0.00109233,0.000506318,-0.000302665,-0.00141697,0.570152,0.000861663,0.0179897,1735,1597,13.7655,-21.1533
518,-573,13.7759,20.787,-0.00172276,-0.00235498,0.00152433,-0.000482109,-0.00359563,0.683158,0.00225364,0.0142619,1742,1597,13.7758,-20.787
525,-573,13.7689,20.3975,-0.00293869,-0.00370231,0.00272438,-0.000569499,-0.0060715,0.715778,0.00387182,0.017755,1749,1597,13.7689,-20.3974
532,-573,13.7614,19.9648,-0.00423549,-0.00530933,0.00423282,-0.000505676,-0.00903914,0.722312,0.00586481,0.0162145,1756,1597,13.7613,-19.9648
539,-573,13.7292,19.5544,-0.00570545,-0.00743925,0.00619522,-0.000316773,-0.0128279,0.715884,0.00844834,0.0236359,1763,1597,13.7293,-19.5545
546,-573,13.7335,19.149,-0.00759778,-0.0100237,0.00877992,5.25787e-05,-0.017674,0.716758,0.0118003,0.0421906,1770,1597,13.7335,-19.149
553,-573,13.1809,19.0985,-0.00963949,-0.0131097,0.0118721,0.000623649,-0.0233728,0.712838,0.0157939,0.0482871,1777,1597,13.181,-19.0985
560,-573,13.132,19.0946,0,0,0,0,0,0,0,-1,1784,1597,13.132,-19.0946
567,-573,11.6273,18.1356,0,0,0,0,0,0,0,-1,1791,1597,11.6274,-18.1356
574,-573,0.83374,5.7041,0,0,0,0,0,0,0,-1,1798,1597,0.833718,-5.70405
581,-573,-0.224854,7.41602,0,0,0,0,0,0,0,-1,1805,1597,-0.224904,-7.41596
588,-573,-0.134033,7.67065,0,0,0,0,0,0,0,-1,1812,1597,-0.134037,-7.67063
595,-573,-0.0825195,8.35083,0,0,0,0,0,0,0,-1,1819,1597,-0.0824684,-8.35088
602,-573,0,0,0,0,0,0,0,0,0,-1,1826,1597,0,0
609,-573,0,0,0,0,0,0,0,0,0,-1,1833,1597,0,0
616,-573,0,0,0,0,0,0,0,0,0,-1,1840,1597,0,0
623,-573,0,0,0,0,0,0,0,0,0,-1,1847,1597,0,0
630,-573,0,0,0,0,0,0,0,0,0,-1,1854,1597,0,0
637,-573,0,0,0,0,0,0,0,0,0,-1,1861,1597,0,0
644,-573,0,0,0,0,0,0,0,0,0,-1,1868,1597,0,0
651,-573,0,0,0,0,0,0,0,0,0,-1,1875,1597,0,0
658,-573,0,0,0,0,0,0,0,0,0,-1,1882,1597,0,0
665,-573,0,0,0,0,0,0,0,0,0,-1,1889,1597,0,0
672,-573,0,0,0,0,0,0,0,0,0,-1,1896,1597,0,0
679,-573,0,0,0,0,0,0,0,0,0,-1,1903,1597,0,0
686,-573,0,0,0,0,0,0,0,0,0,-1,1910,1597,0,0
693,-573,0,0,0,0,0,0,0,0,0,-1,1917,1597,0,0
700,-573,0,0,0,0,0,0,0,0,0,-1,1924,1597,0,0
707,-573,0,0,0,0,0,0,0,0,0,-1,1931,1597,0,0
714,-573,0,0,0,0,0,0,0,0,0,-1,1938,1597,0,0
721,-573,0,0,0,0,0,0,0,0,0,-1,1945,1597,0,0
728,-573,0,0,0,0,0,0,0,0,0,-1,1952,1597,0,0
735,-573,0,0,0,0,0,0,0,0,0,-1,1959,1597,0,0
742,-573,0,0,0,0,0,0,0,0,0,-1,1966,1597,0,0
749,-573,0,0,0,0,0,0,0,0,0,-1,1973,1597,0,0
756,-573,0,0,0,0,0,0,0,0,0,-1,1980,1597,0,0
763,-573,0,0,0,0,0,0,0,0,0,-1,1987,1597,0,0
770,-573,0,0,0,0,0,0,0,0,0,-1,1994,1597,0,0
777,-573,0,0,0,0,0,0,0,0,0,-1,2001,1597,0,0
784,-573,0,0,0,0,0,0,0,0,0,-1,2008,1597,0,0
791,-573,0,0,0,0,0,0,0,0,0,-1,2015,1597,0,0
798,-573,0,0,0,0,0,0,0,0,0,-1,2022,1597,0,0
805,-573,0,0,0,0,0,0,0,0,0,-1,2029,1597,0,0
812,-573,0,0,0,0,0,0,0,0,0,-1,2036,1597,0,0
-700,-580,0,0,0,0,0,0,0,0,0,-1,524,1604,0,0
-693,-580,0,0,0,0,0,0,0,0,0,-1,531,1604,0,0
-686,-580,0,0,0,0,0,0,0,0,0,-1,538,1604,0,0
-679,-580,0,0,0,0,0,0,0,0,0,-1,545,1604,0,0
-672,-580,0,0,0,0,0,0,0,0,0,-1,552,1604,0,0
-665,-580,0,0,0,0,0,0,0,0,0,-1,559,1604,0,0
-658,-580,0,0,0,0,0,0,0,0,0,-1,566,1604,0,0
-651,-580,0,0,0,0,0,0,0,0,0,-1,573,1604,0,0
-644,-580,0,0,0,0,0,0,0,0,0,-1,580,1604,0,0
-637,-580,0,0,0,0,0,0,0,0,0,-1,587,1604,0,0
-630,-580,0,0,0,0,0,0,0,0,0,-1,594,1604,0,0
-623,-580,0,0,0,0,0,0,0,0,0,-1,601,1604,0,0
-616,-580,0,0,0,0,0,0,0,0,0,-1,608,1604,0,0
-609,-580,0,0,0,0,0,0,0,0,0,-1,615,1604,0,0
-602,-580,0,0,0,0,0,0,0,0,0,-1,622,1604,0,0
-595,-580,0,0,0,0,0,0,0,0,0,-1,629,1604,0,0
-588,-580,0,0,0,0,0,0,0,0,0,-1,636,1604,0,0
-581,-580,0,0,0,0,0,0,0,0,0,-1,643,1604,0,0
-574,-580,0,0,0,0,0,0,0,0,0,-1,650,1604,0,0
-567,-580,0,0,0,0,0,0,0,0,0,-1,657,1604,0,0
-560,-580,0,0,0,0,0,0,0,0,0,-1,664,1604,0,0
-553,-580,0,0,0,0,0,0,0,0,0,-1,671,1604,0,0
-546,-580,0,0,0,0,0,0,0,0,0,-1,678,1604,0,0
-539,-580,0,0,0,0,0,0,0,0,0,-1,685,1604,0,0
-532,-580,0,0,0,0,0,0,0,0,0,-1,692,1604,0,0
-525,-580,0,0,0,0,0,0,0,0,0,-1,699,1604,0,0
-518,-580,0,0,0,0,0,0,0,0,0,-1,706,1604,0,0
-511,-580,0,0,0,0,0,0,0,0,0,-1,713,1604,0,0
-504,-580,0,0,0,0,0,0,0,0,0,-1,720,1604,0,0
-497,-580,0,0,0,0,0,0,0,0,0,-1,727,1604,0,0
-490,-580,0,0,0,0,0,0,0,0,0,-1,734,1604,0,0
-483,-580,0,0,0,0,0,0,0,0,0,-1,741,1604,0,0
-476,-580,0,0,0,0,0,0,0,0,0,-1,748,1604,0,0
-469,-580,-1.69189,-0.38916,0,0,0,0,0,0,0,-1,755,1604,-1.69192,0.389188
-462,-580,-0.859863,0.675293,0,0,0,0,0,0,0,-1,762,1604,-0.859834,-0.675245
-455,-580,-0.730164,0.651978,0,0,0,0,0,0,0,-1,769,1604,-0.730153,-0.651957
-448,-580,-3.31891,2.07544,0,0,0,0,0,0,0,-1,776,1604,-3.3189,-2.07539
-441,-580,-1.63843,3.9469,0,0,0,0,0,0,0,-1,783,1604,-1.63842,-3.94695
-434,-580,0.23291,5.97876,0,0,0,0,0,0,0,-1,790,1604,0.232901,-5.97878
-427,-580,1.62756,8.05493,0,0,0,0,0,0,0,-1,797,1604,1.62758,-8.05488
-420,-580,0.986572,11.2383,0,0,0,0,0,0,0,-1,804,1604,0.986544,-11.2382
-413,-580,1.45398,16.9237,0,0,0,0,0,0,0,-1,811,1604,1.45398,-16.9238
-406,-580,1.31171,18.3182,0,0,0,0,0,0,0,-1,818,1604,1.31169,-18.3183
-399,-580,1.30872,18.8571,-0.0040103,0.000683392,0.000894817,0.000848196,-0.0041751,1.38866,0.00310499,0.0276041,825,1604,1.3087,-18.857
-392,-580,1.27002,19.3197,-0.00327718,0.000604036,0.000835963,0.000776434,-0.00344957,1.36742,0.0025975,0.0143821,832,1604,1.27003,-19.3196
-385,-580,1.27979,19.7422,-0.002485,0.000280582,0.000683255,0.000440175,-0.0026446,1.34133,0.00192662,0.0116594,839,1604,1.27977,-19.7421
-378,-580,1.25476,20.1609,-0.00158943,0.00013691,0.000752916,0.000419141,-0.00187166,1.21216,0.00140843,0.0145616,846,1604,1.25473,-20.1609
-371,-580,1.22156,20.6177,-0.000763872,-6.79008e-05,0.000773324,0.000432126,-0.0012639,0.99682,0.0010177,0.0136411,853,1604,1.22155,-20.6176
-364,-580,1.1806,21.0414,5.25915e-05,-0.00019954,0.000864549,0.000800218,-0.000947166,0.713,0.00101004,0.0192621,860,1604,1.18061,-21.0414
-357,-580,1.19623,21.4213,0.000865511,-0.000230214,0.00101302,0.00146933,-0.000834031,0.537514,0.0013466,0.0135542,867,1604,1.19622,-21.4212
-350,-580,1.21881,21.8921,0.00176441,-0.0002752,0.00120574,0.00232379,-0.000834573,0.434374,0.00188984,0.0112391,874,1604,1.21882,-21.8921
-343,-580,1.2287,22.3157,0.0026635,-0.000182671,0.00153495,0.00333356,-0.00085273,0.411599,0.00255451,0.01152,881,1604,1.22871,-22.3157
-336,-580,1.22296,22.6945,0.00349574,0.000251637,0.0019119,0.00438096,-0.000633581,0.433616,0.00315312,0.0191709,888,1604,1.22297,-22.6945
-329,-580,1.19421,23.1345,0.00432833,0.000734456,0.00238471,0.00551732,-0.000454543,0.462522,0.00383871,0.0180963,895,1604,1.19422,-23.1346
-322,-580,1.18066,23.5522,0.00506933,0.00143827,0.00297468,0.00673875,-0.00023115,0.511409,0.0045715,0.0195885,902,1604,1.18069,-23.5522
-315,-580,1.20703,23.9625,0.00567015,0.00237444,0.00354523,0.00793178,0.000112815,0.567848,0.00525065,0.0200939,909,1604,1.20705,-23.9625
-308,-580,1.27917,24.4944,0.00615145,0.00340753,0.00410528,0.00910795,0.000451021,0.624136,0.00592735,0.0296039,916,1604,1.27916,-24.4944
-301,-580,1.3728,24.7885,0.00666789,0.00415807,0.004669,0.0102477,0.000578279,0.654113,0.00664742,0.0281426,923,1604,1.37278,-24.7884
-294,-580,1.33966,25.1864,0,0,0,0,0,0,0,-1,930,1604,1.33964,-25.1864
-287,-580,1.11658,26.2299,0,0,0,0,0,0,0,-1,937,1604,1.11657,-26.2299
-280,-580,1.17102,27.4113,0,0,0,0,0,0,0,-1,944,1604,1.17101,-27.4112
-273,-580,1.22723,26.6095,0,0,0,0,0,0,0,-1,951,1604,1.22723,-26.6094
-266,-580,1.71777,25.6515,0,0,0,0,0,0,0,-1,958,1604,1.71775,-25.6515
-259,-580,1.31091,9.11536,0,0,0,0,0,0,0,-1,965,1604,1.31092,-9.11539
-252,-580,1.07629,7.74097,0,0,0,0,0,0,0,-1,972,1604,1.07627,-7.74101
-245,-580,3.80304,9.16028,0,0,0,0,0,0,0,-1,979,1604,3.80306,-9.16034
-238,-580,-10.3588,1.57556,0,0,0,0,0,0,0,-1,986,1604,-10.3588,-1.5755
-231,-580,-10.576,6.43787,0,0,0,0,0,0,0,-1,993,1604,-10.576,-6.43783
-224,-580,-8.27435,7.58972,0,0,0,0,0,0,0,-1,1000,1604,-8.27435,-7.5897
-217,-580,-5.85632,9.51221,0,0,0,0,0,0,0,-1,1007,1604,-5.85632,-9.5122
-210,-580,-3.6684,11.1569,0,0,0,0,0,0,0,-1,1014,1604,-3.66839,-11.1569
-203,-580,-1.92474,12.7845,0,0,0,0,0,0,0,-1,1021,1604,-1.92477,-12.7845
-196,-580,-2.28552,10.3289,0,0,0,0,0,0,0,-1,1028,1604,-2.28552,-10.3288
-189,-580,-4.58252,7.59058,0,0,0,0,0,0,0,-1,1035,1604,-4.58256,-7.59057
-182,-580,-5.45874,7.65942,0,0,0,0,0,0,0,-1,1042,1604,-5.45876,-7.65939
-175,-580,-6.38977,7.55005,0,0,0,0,0,0,0,-1,1049,1604,-6.38981,-7.5501
-168,-580,0,0,0,0,0,0,0,0,0,-1,1056,1604,0,0
-161,-580,0,0,0,0,0,0,0,0,0,-1,1063,1604,0,0
-154,-580,0,0,0,0,0,0,0,0,0,-1,1070,1604,0,0
-147,-580,0,0,0,0,0,0,0,0,0,-1,1077,1604,0,0
-140,-580,0,0,0,0,0,0,0,0,0,-1,1084,1604,0,0
-133,-580,0,0,0,0,0,0,0,0,0,-1,1091,1604,0,0
-126,-580,0,0,0,0,0,0,0,0,0,-1,1098,1604,0,0
-119,-580,0,0,0,0,0,0,0,0,0,-1,1105,1604,0,0
-112,-580,0,0,0,0,0,0,0,0,0,-1,1112,1604,0,0
-105,-580,0,0,0,0,0,0,0,0,0,-1,1119,1604,0,0
-98,-580,0,0,0,0,0,0,0,0,0,-1,1126,1604,0,0
-91,-580,0,0,0,0,0,0,0,0,0,-1,1133,1604,0,0
-84,-580,0,0,0,0,0,0,0,0,0,-1,1140,1604,0,0
-77,-580,0,0,0,0,0,0,0,0,0,-1,1147,1604,0,0
-70,-580,0,0,0,0,0,0,0,0,0,-1,1154,1604,0,0
-63,-580,0,0,0,0,0,0,0,0,0,-1,1161,1604,0,0
-56,-580,0,0,0,0,0,0,0,0,0,-1,1168,1604,0,0
-49,-580,0,0,0,0,0,0,0,0,0,-1,1175,1604,0,0
-42,-580,0,0,0,0,0,0,0,0,0,-1,1182,1604,0,0
-35,-580,0,0,0,0,0,0,0,0,0,-1,1189,1604,0,0
-28,-580,0,0,0,0,0,0,0,0,0,-1,1196,1604,0,0
-21,-580,0,0,0,0,0,0,0,0,0,-1,1203,1604,0,0
-14,-580,0,0,0,0,0,0,0,0,0,-1,1210,1604,0,0
-7,-580,0,0,0,0,0,0,0,0,0,-1,1217,1604,0,0
0,-580,0,0,0,0,0,0,0,0,0,-1,1224,1604,0,0
7,-580,0,0,0,0,0,0,0,0,0,-1,1231,1604,0,0
14,-580,0,0,0,0,0,0,0,0,0,-1,1238,1604,0,0
21,-580,0,0,0,0,0,0,0,0,0,-1,1245,1604,0,0
28,-580,0,0,0,0,0,0,0,0,0,-1,1252,1604,0,0
35,-580,0,0,0,0,0,0,0,0,0,-1,1259,1604,0,0
42,-580,0,0,0,0,0,0,0,0,0,-1,1266,1604,0,0
49,-580,0,0,0,0,0,0,0,0,0,-1,1273,1604,0,0
56,-580,0,0,0,0,0,0,0,0,0,-1,1280,1604,0,0
63,-580,0,0,0,0,0,0,0,0,0,-1,1287,1604,0,0
70,-580,0,0,0,0,0,0,0,0,0,-1,1294,1604,0,0
77,-580,0,0,0,0,0,0,0,0,0,-1,1301,1604,0,0
84,-580,0,0,0,0,0,0,0,0,0,-1,1308,1604,0,0
91,-580,0,0,0,0,0,0,0,0,0,-1,1315,1604,0,0
98,-580,0,0,0,0,0,0,0,0,0,-1,1322,1604,0,0
105,-580,0,0,0,0,0,0,0,0,0,-1,1329,1604,0,0
112,-580,0,0,0,0,0,0,0,0,0,-1,1336,1604,0,0
119,-580,0,0,0,0,0,0,0,0,0,-1,1343,1604,0,0
126,-580,0,0,0,0,0,0,0,0,0,-1,1350,1604,0,0
133,-580,0,0,0,0,0,0,0,0,0,-1,1357,1604,0,0
140,-580,0,0,0,0,0,0,0,0,0,-1,1364,1604,0,0
147,-580,0,0,0,0,0,0,0,0,0,-1,1371,1604,0,0
154,-580,0,0,0,0,0,0,0,0,0,-1,1378,1604,0,0
161,-580,0,0,0,0,0,0,0,0,0,-1,1385,1604,0,0
168,-580,0,0,0,0,0,0,0,0,0,-1,1392,1604,0,0
175,-580,0,0,0,0,0,0,0,0,0,-1,1399,1604,0,0
182,-580,0,0,0,0,0,0,0,0,0,-1,1406,1604,0,0
189,-580,0,0,0,0,0,0,0,0,0,-1,1413,1604,0,0
196,-580,0,0,0,0,0,0,0,0,0,-1,1420,1604,0,0
203,-580,0,0,0,0,0,0,0,0,0,-1,1427,1604,0,0
210,-580,0,0,0,0,0,0,0,0,0,-1,1434,1604,0,0
217,-580,0,0,0,0,0,0,0,0,0,-1,1441,1604,0,0
224,-580,0,0,0,0,0,0,0,0,0,-1,1448,1604,0,0
231,-580,0,0,0,0,0,0,0,0,0,-1,1455,1604,0,0
238,-580,0,0,0,0,0,0,0,0,0,-1,1462,1604,0,0
245,-580,0,0,0,0,0,0,0,0,0,-1,1469,1604,0,0
252,-580,0,0,0,0,0,0,0,0,0,-1,1476,1604,0,0
259,-580,0,0,0,0,0,0,0,0,0,-1,1483,1604,0,0
266,-580,0,0,0,0,0,0,0,0,0,-1,1490,1604,0,0
273,-580,0,0,0,0,0,0,0,0,0,-1,1497,1604,0,0
280,-580,0,0,0,0,0,0,0,0,0,-1,1504,1604,0,0
287,-580,0,0,0,0,0,0,0,0,0,-1,1511,1604,0,0
294,-580,4.0437,0.177368,0,0,0,0,0,0,0,-1,1518,1604,4.04369,-0.177371
301,-580,7.55164,8.05798,0,0,0,0,0,0,0,-1,1525,1604,7.55158,-8.05802
308,-580,5.9126,9.99341,0,0,0,0,0,0,0,-1,1532,1604,5.91255,-9.99337
315,-580,4.27356,11.9287,0,0,0,0,0,0,0,-1,1539,1604,4.27352,-11.9287
322,-580,10.2366,7.50281,0,0,0,0,0,0,0,-1,1546,1604,10.2366,-7.50282
329,-580,10.5962,8.69641,0,0,0,0,0,0,0,-1,1553,1604,10.5962,-8.69642
336,-580,3.66431,1.58862,0,0,0,0,0,0,0,-1,1560,1604,3.6643,-1.58864
343,-580,3.32227,1.39636,0,0,0,0,0,0,0,-1,1567,1604,3.32222,-1.39633
350,-580,8.71277,4.0564,0,0,0,0,0,0,0,-1,1574,1604,8.71271,-4.05638
357,-580,8.52332,3.08154,0,0,0,0,0,0,0,-1,1581,1604,8.52332,-3.08157
364,-580,8.25818,2.07605,0,0,0,0,0,0,0,-1,1588,1604,8.25812,-2.07608
371,-580,7.42114,7.14282,0,0,0,0,0,0,0,-1,1595,1604,7.42119,-7.14281
378,-580,7.9718,6.6731,0,0,0,0,0,0,0,-1,1602,1604,7.9718,-6.67307
385,-580,8.52246,6.20337,0,0,0,0,0,0,0,-1,1609,1604,8.52241,-6.20334
392,-580,13.9806,27.8215,0,0,0,0,0,0,0,-1,1616,1604,13.9806,-27.8215
399,-580,13.967,27.3584,0,0,0,0,0,0,0,-1,1623,1604,13.967,-27.3585
406,-580,14.0057,26.9985,0,0,0,0,0,0,0,-1,1630,1604,14.0057,-26.9985
413,-580,14.1183,26.5461,0,0,0,0,0,0,0,-1,1637,1604,14.1183,-26.5461
420,-580,13.6182,26.3588,0,0,0,0,0,0,0,-1,1644,1604,13.6181,-26.3588
427,-580,14.1216,26.1246,-0.00866038,0.0180308,0.00340696,0.0184588,-0.00908839,1.44582,0.0162082,0.0413568,1651,1604,14.1216,-26.1246
434,-580,13.4484,25.6344,-0.0067865,0.0160424,0.00196212,0.0162098,-0.00695391,1.48568,0.0137248,0.0309197,1658,1604,13.4483,-25.6344
441,-580,13.3792,25.1381,-0.00495243,0.0142058,0.000704311,0.0142316,-0.00497828,1.5341,0.0115118,0.0165335,1665,1604,13.3791,-25.138
448,-580,13.4419,24.6962,-0.00326682,0.0124247,-0.000321806,0.0124313,-0.00327341,-1.5503,0.00956721,0.0150865,1672,1604,13.4419,-24.6961
455,-580,13.4894,24.3243,-0.00187588,0.0106248,-0.00122396,0.0107435,-0.00199459,-1.47411,0.00791144,0.0204559,1679,1604,13.4894,-24.3244
462,-580,13.4238,23.927,-0.000635456,0.00870553,-0.00182519,0.0090495,-0.000979425,-1.38452,0.00638456,0.0240077,1686,1604,13.4238,-23.927
469,-580,13.4028,23.5128,0.000342979,0.00679914,-0.00210093,0.00742261,-0.000280488,-1.28232,0.0050445,0.0205245,1693,1604,13.4028,-23.5128
476,-580,13.4525,23.1246,0.00090539,0.00498003,-0.00200406,0.00580049,8.49285e-05,-1.18221,0.00383899,0.0150974,1700,1604,13.4526,-23.1246
483,-580,13.4518,22.7764,0.00130082,0.00320913,-0.00186958,0.00435396,0.000155984,-1.02135,0.00285207,0.013033,1707,1604,13.4518,-22.7763
490,-580,13.4158,22.3942,0.00113671,0.00177234,-0.00139676,0.00288699,2.20666e-05,-0.897262,0.00191734,0.0164505,1714,1604,13.4158,-22.3941
497,-580,13.3977,21.9996,0.00062201,0.000544739,-0.000978937,0.00156307,-0.000396325,-0.765675,0.00119625,0.0127521,1721,1604,13.3977,-21.9997
504,-580,13.3723,21.6016,-0.000372663,-0.000692358,-7.18068e-05,-0.000357275,-0.000707746,-0.211103,0.000408624,0.0163317,1728,1604,13.3723,-21.6016
511,-580,13.3768,21.1879,-0.00143629,-0.00202238,0.000959025,-0.000726535,-0.00273213,0.637121,0.001634,0.0177558,1735,1604,13.3769,-21.1879
518,-580,13.3912,20.799,-0.00259631,-0.00326662,0.00202475,-0.000879169,-0.00498377,0.703378,0.00307168,0.0166359,1742,1604,13.3912,-20.799
525,-580,13.363,20.4055,-0.0039367,-0.00468745,0.0033647,-0.000926501,-0.00769765,0.729846,0.0048525,0.0174743,1749,1604,13.363,-20.4055
532,-580,13.3478,20.0117,-0.00546211,-0.00651639,0.00515072,-0.000811626,-0.0111669,0.734404,0.00718933,0.0191303,1756,1604,13.3478,-20.0118
539,-580,13.3749,19.6633,-0.00740516,-0.00907294,0.00764658,-0.000547132,-0.015931,0.731086,0.010443,0.0323662,1763,1604,13.3749,-19.6634
546,-580,13.6534,19.1158,0,0,0,0,0,0,0,-1,1770,1604,13.6534,-19.1159
553,-580,12.1133,19.283,0,0,0,0,0,0,0,-1,1777,1604,12.1132,-19.283
560,-580,10.9452,18.1364,0,0,0,0,0,0,0,-1,1784,1604,10.9452,-18.1363
567,-580,3.87708,4.0647,0,0,0,0,0,0,0,-1,1791,1604,3.87711,-4.06471
574,-580,2.31653,5.62952,0,0,0,0,0,0,0,-1,1798,1604,2.31654,-5.62947
581,-580,1.60876,6.67664,0,0,0,0,0,0,0,-1,1805,1604,1.60873,-6.67667
588,-580,1.38684,7.14441,0,0,0,0,0,0,0,-1,1812,1604,1.38689,-7.14443
595,-580,0,0,0,0,0,0,0,0,0,-1,1819,1604,0,0
602,-580,0,0,0,0,0,0,0,0,0,-1,1826,1604,0,0
609,-580,0,0,0,0,0,0,0,0,0,-1,1833,1604,0,0
616,-580,0,0,0,0,0,0,0,0,0,-1,1840,1604,0,0
623,-580,0,0,0,0,0,0,0,0,0,-1,1847,1604,0,0
630,-580,0,0,0,0,0,0,0,0,0,-1,1854,1604,0,0
637,-580,0,0,0,0,0,0,0,0,0,-1,1861,1604,0,0
644,-580,0,0,0,0,0,0,0,0,0,-1,1868,1604,0,0
651,-580,0,0,0,0,0,0,0,0,0,-1,1875,1604,0,0
658,-580,0,0,0,0,0,0,0,0,0,-1,1882,1604,0,0
665,-580,0,0,0,0,0,0,0,0,0,-1,1889,1604,0,0
672,-580,0,0,0,0,0,0,0,0,0,-1,1896,1604,0,0
679,-580,0,0,0,0,0,0,0,0,0,-1,1903,1604,0,0
686,-580,0,0,0,0,0,0,0,0,0,-1,1910,1604,0,0
693,-580,0,0,0,0,0,0,0,0,0,-1,1917,1604,0,0
700,-580,0,0,0,0,0,0,0,0,0,-1,1924,1604,0,0
707,-580,0,0,0,0,0,0,0,0,0,-1,1931,1604,0,0
714,-580,0,0,0,0,0,0,0,0,0,-1,1938,1604,0,0
721,-580,0,0,0,0,0,0,0,0,0,-1,1945,1604,0,0
728,-580,0,0,0,0,0,0,0,0,0,-1,1952,1604,0,0
735,-580,0,0,0,0,0,0,0,0,0,-1,1959,1604,0,0
742,-580,0,0,0,0,0,0,0,0,0,-1,1966,1604,0,0
749,-580,0,0,0,0,0,0,0,0,0,-1,1973,1604,0,0
756,-580,0,0,0,0,0,0,0,0,0,-1,1980,1604,0,0
763,-580,0,0,0,0,0,0,0,0,0,-1,1987,1604,0,0
770,-580,0,0,0,0,0,0,0,0,0,-1,1994,1604,0,0
777,-580,0,0,0,0,0,0,0,0,0,-1,2001,1604,0,0
784,-580,0,0,0,0,0,0,0,0,0,-1,2008,1604,0,0
791,-580,0,0,0,0,0,0,0,0,0,-1,2015,1604,0,0
798,-580,0,0,0,0,0,0,0,0,0,-1,2022,1604,0,0
805,-580,0,0,0,0,0,0,0,0,0,-1,2029,1604,0,0
812,-580,0,0,0,0,0,0,0,0,0,-1,2036,1604,0,0
-700,-587,0,0,0,0,0,0,0,0,0,-1,524,1611,0,0
-693,-587,0,0,0,0,0,0,0,0,0,-1,531,1611,0,0
-686,-587,0,0,0,0,0,0,0,0,0,-1,538,1611,0,0
-679,-587,0,0,0,0,0,0,0,0,0,-1,545,1611,0,0
-672,-587,0,0,0,0,0,0,0,0,0,-1,552,1611,0,0
-665,-587,0,0,0,0,0,0,0,0,0,-1,559,1611,0,0
-658,-587,0,0,0,0,0,0,0,0,0,-1,566,1611,0,0
-651,-587,0,0,0,0,0,0,0,0,0,-1,573,1611,0,0
-644,-587,0,0,0,0,0,0,0,0,0,-1,580,1611,0,0
-637,-587,0,0,0,0,0,0,0,0,0,-1,587,1611,0,0
-630,-587,0,0,0,0,0,0,0,0,0,-1,594,1611,0,0
-623,-587,0,0,0,0,0,0,0,0,0,-1,601,1611,0,0
-616,-587,0,0,0,0,0,0,0,0,0,-1,608,1611,0,0
-609,-587,0,0,0,0,0,0,0,0,0,-1,615,1611,0,0
-602,-587,0,0,0,0,0,0,0,0,0,-1,622,1611,0,0
-595,-587,0,0,0,0,0,0,0,0,0,-1,629,1611,0,0
-588,-587,0,0,0,0,0,0,0,0,0,-1,636,1611,0,0
-581,-587,0,0,0,0,0,0,0,0,0,-1,643,1611,0,0
-574,-587,0,0,0,0,0,0,0,0,0,-1,650,1611,0,0
-567,-587,0,0,0,0,0,0,0,0,0,-1,657,1611,0,0
-560,-587,0,0,0,0,0,0,0,0,0,-1,664,1611,0,0
-553,-587,0,0,0,0,0,0,0,0,0,-1,671,1611,0,0
-546,-587,0,0,0,0,0,0,0,0,0,-1,678,1611,0,0
-539,-587,0,0,0,0,0,0,0,0,0,-1,685,1611,0,0
-532,-587,0,0,0,0,0,0,0,0,0,-1,692,1611,0,0
-525,-587,0,0,0,0,0,0,0,0,0,-1,699,1611,0,0
-518,-587,0,0,0,0,0,0,0,0,0,-1,706,1611,0,0
-511,-587,0,0,0,0,0,0,0,0,0,-1,713,1611,0,0
-504,-587,0,0,0,0,0,0,0,0,0,-1,720,1611,0,0
-497,-587,0,0,0,0,0,0,0,0,0,-1,727,1611,0,0
-490,-587,0,0,0,0,0,0,0,0,0,-1,734,1611,0,0
-483,-587,0,0,0,0,0,0,0,0,0,-1,741,1611,0,0
-476,-587,0,0,0,0,0,0,0,0,0,-1,748,1611,0,0
-469,-587,0,0,0,0,0,0,0,0,0,-1,755,1611,0,0
-462,-587,-0.714355,-0.418457,0,0,0,0,0,0,0,-1,762,1611,-0.714359,0.418483
-455,-587,-0.619812,-0.522461,0,0,0,0,0,0,0,-1,769,1611,-0.619802,0.522515
-448,-587,-0.461731,-0.686523,0,0,0,0,0,0,0,-1,776,1611,-0.461739,0.686559
-441,-587,-3.56555,2.72253,0,0,0,0,0,0,0,-1,783,1611,-3.56555,-2.72259
-434,-587,-1.77319,4.76318,0,0,0,0,0,0,0,-1,790,1611,-1.77318,-4.76323
-427,-587,0.0346069,6.92944,0,0,0,0,0,0,0,-1,797,1611,0.034587,-6.92941
-420,-587,-0.647156,10.1157,0,0,0,0,0,0,0,-1,804,1611,-0.647128,-10.1158
-413,-587,2.13971,10.3901,0,0,0,0,0,0,0,-1,811,1611,2.13971,-10.3902
-406,-587,2.1936,18.2689,0,0,0,0,0,0,0,-1,818,1611,2.19363,-18.2689
-399,-587,1.95453,18.8268,-0.00504872,0.000797322,0.00138408,0.00110845,-0.00535985,1.34968,0.00399432,0.0469395,825,1611,1.95452,-18.8268
-392,-587,1.80029,19.2537,-0.00411039,0.000200727,0.00143186,0.000632957,-0.00454262,1.27763,0.00325995,0.0374203,832,1611,1.8003,-19.2537
-385,-587,1.63861,19.7029,-0.00317184,-0.000212656,0.00125668,0.000249,-0.0036335,1.21874,0.00250945,0.019714,839,1611,1.63862,-19.7028
-378,-587,1.64722,20.1683,-0.00223747,-0.000340863,0.00116699,0.000214542,-0.00279287,1.12659,0.00193739,0.0137266,846,1611,1.64721,-20.1683
-371,-587,1.60919,20.6606,-0.00142195,-0.000476151,0.00100012,0.000157237,-0.00205533,1.00624,0.00142553,0.0140558,853,1611,1.60921,-20.6607
-364,-587,1.63501,21.0862,-0.000686654,-0.000483422,0.000895996,0.000316701,-0.00148678,0.841863,0.00111189,0.0172243,860,1611,1.63502,-21.0862
-357,-587,1.63373,21.4357,3.82323e-05,-0.000357794,0.00084379,0.000706932,-0.00102649,0.670148,0.00100645,0.016497,867,1611,1.63375,-21.4357
-350,-587,1.61639,21.8938,0.00081474,-0.0002061,0.00083822,0.00128572,-0.000677077,0.511917,0.00115124,0.0096409,874,1611,1.61639,-21.8939
-343,-587,1.60052,22.3232,0.00158545,7.24859e-05,0.000983958,0.00207011,-0.000412176,0.457681,0.00153601,0.0116072,881,1611,1.60055,-22.3232
-336,-587,1.58209,22.7152,0.00229244,0.000642681,0.00116199,0.00289257,4.25481e-05,0.476735,0.00191435,0.0114178,888,1611,1.58211,-22.7152
-329,-587,1.57294,23.1234,0.00295,0.00126158,0.0014201,0.00375787,0.000453705,0.517225,0.00236854,0.0140551,895,1611,1.57293,-23.1234
-322,-587,1.58643,23.531,0.00352311,0.00207602,0.00183819,0.00477503,0.000824099,0.597903,0.00294731,0.0185771,902,1611,1.58642,-23.531
-315,-587,1.56439,23.9373,0.00399628,0.00297715,0.00226975,0.00581296,0.00116046,0.674977,0.00355224,0.0155029,909,1611,1.56439,-23.9372
-308,-587,1.55579,24.355,0.00437686,0.00389017,0.00271488,0.00685928,0.00140775,0.740701,0.00418332,0.0155426,916,1611,1.55577,-24.3549
-301,-587,1.62988,24.7719,0.00481853,0.00460727,0.00317857,0.00789323,0.00153257,0.768788,0.00483298,0.0156518,923,1611,1.62987,-24.7719
-294,-587,1.71576,25.2273,0.00557181,0.00553853,0.00398926,0.00954446,0.00156588,0.783312,0.00591057,0.0269389,930,1611,1.71575,-25.2274
-287,-587,1.63007,25.7764,0.00610819,0.00682663,0.00491505,0.0113956,0.00153925,0.821877,0.00713949,0.0448962,937,1611,1.63007,-25.7764
-280,-587,1.91315,26.7052,0,0,0,0,0,0,0,-1,944,1611,1.91315,-26.7052
-273,-587,1.48541,26.397,0,0,0,0,0,0,0,-1,951,1611,1.4854,-26.397
-266,-587,1.79321,26.9587,0,0,0,0,0,0,0,-1,958,1611,1.79321,-26.9587
-259,-587,0.317444,23.6786,0,0,0,0,0,0,0,-1,965,1611,0.317428,-23.6785
-252,-587,1.30188,10.3103,0,0,0,0,0,0,0,-1,972,1611,1.30188,-10.3104
-245,-587,1.9494,25.2325,0,0,0,0,0,0,0,-1,979,1611,1.94942,-25.2326
-238,-587,2.87799,9.53821,0,0,0,0,0,0,0,-1,986,1611,2.87797,-9.53823
-231,-587,2.49548,9.14465,0,0,0,0,0,0,0,-1,993,1611,2.49551,-9.14468
-224,-587,-9.72528,9.21069,0,0,0,0,0,0,0,-1,1000,1611,-9.72529,-9.21072
-217,-587,-7.07495,10.7847,0,0,0,0,0,0,0,-1,1007,1611,-7.07495,-10.7847
-210,-587,-4.72308,12.5889,0,0,0,0,0,0,0,-1,1014,1611,-4.72307,-12.5888
-203,-587,-3.2583,13.7289,0,0,0,0,0,0,0,-1,1021,1611,-3.25828,-13.7289
-196,-587,-1.953,14.8145,0,0,0,0,0,0,0,-1,1028,1611,-1.95302,-14.8144
-189,-587,-3.04138,8.66638,0,0,0,0,0,0,0,-1,1035,1611,-3.04136,-8.66635
-182,-587,-3.97095,9.7146,0,0,0,0,0,0,0,-1,1042,1611,-3.97093,-9.71461
-175,-587,-4.80969,8.37878,0,0,0,0,0,0,0,-1,1049,1611,-4.80964,-8.37883
-168,-587,-5.91394,8.72546,0,0,0,0,0,0,0,-1,1056,1611,-5.91398,-8.72542
-161,-587,-7.06946,8.88501,0,0,0,0,0,0,0,-1,1063,1611,-7.06947,-8.885
-154,-587,-2.24731,6.56519,0,0,0,0,0,0,0,-1,1070,1611,-2.24728,-6.56517
-147,-587,0,0,0,0,0,0,0,0,0,-1,1077,1611,0,0
-140,-587,0,0,0,0,0,0,0,0,0,-1,1084,1611,0,0
-133,-587,0,0,0,0,0,0,0,0,0,-1,1091,1611,0,0
-126,-587,0,0,0,0,0,0,0,0,0,-1,1098,1611,0,0
-119,-587,0,0,0,0,0,0,0,0,0,-1,1105,1611,0,0
-112,-587,0,0,0,0,0,0,0,0,0,-1,1112,1611,0,0
-105,-587,0,0,0,0,0,0,0,0,0,-1,1119,1611,0,0
-98,-587,0,0,0,0,0,0,0,0,0,-1,1126,1611,0,0
-91,-587,0,0,0,0,0,0,0,0,0,-1,1133,1611,0,0
-84,-587,0,0,0,0,0,0,0,0,0,-1,1140,1611,0,0
-77,-587,0,0,0,0,0,0,0,0,0,-1,1147,1611,0,0
-70,-587,0,0,0,0,0,0,0,0,0,-1,1154,1611,0,0
-63,-587,0,0,0,0,0,0,0,0,0,-1,1161,1611,0,0
-56,-587,0,0,0,0,0,0,0,0,0,-1,1168,1611,0,0
-49,-587,0,0,0,0,0,0,0,0,0,-1,1175,1611,0,0
-42,-587,0,0,0,0,0,0,0,0,0,-1,1182,1611,0,0
-35,-587,0,0,0,0,0,0,0,0,0,-1,1189,1611,0,0
-28,-587,0,0,0,0,0,0,0,0,0,-1,1196,1611,0,0
-21,-587,0,0,0,0,0,0,0,0,0,-1,1203,1611,0,0
-14,-587,0,0,0,0,0,0,0,0,0,-1,1210,1611,0,0
-7,-587,0,0,0,0,0,0,0,0,0,-1,1217,1611,0,0
0,-587,0,0,0,0,0,0,0,0,0,-1,1224,1611,0,0
7,-587,0,0,0,0,0,0,0,0,0,-1,1231,1611,0,0
14,-587,0,0,0,0,0,0,0,0,0,-1,1238,1611,0,0
21,-587,0,0,0,0,0,0,0,0,0,-1,1245,1611,0,0
28,-587,0,0,0,0,0,0,0,0,0,-1,1252,1611,0,0
35,-587,0,0,0,0,0,0,0,0,0,-1,1259,1611,0,0
42,-587,0,0,0,0,0,0,0,0,0,-1,1266,1611,0,0
49,-587,0,0,0,0,0,0,0,0,0,-1,1273,1611,0,0
56,-587,0,0,0,0,0,0,0,0,0,-1,1280,1611,0,0
63,-587,0,0,0,0,0,0,0,0,0,-1,1287,1611,0,0
70,-587,0,0,0,0,0,0,0,0,0,-1,1294,1611,0,0
77,-587,0,0,0,0,0,0,0,0,0,-1,1301,1611,0,0
84,-587,0,0,0,0,0,0,0,0,0,-1,1308,1611,0,0
91,-587,0,0,0,0,0,0,0,0,0,-1,1315,1611,0,0
98,-587,0,0,0,0,0,0,0,0,0,-1,1322,1611,0,0
105,-587,0,0,0,0,0,0,0,0,0,-1,1329,1611,0,0
112,-587,0,0,0,0,0,0,0,0,0,-1,1336,1611,0,0
119,-587,0,0,0,0,0,0,0,0,0,-1,1343,1611,0,0
126,-587,0,0,0,0,0,0,0,0,0,-1,1350,1611,0,0
133,-587,0,0,0,0,0,0,0,0,0,-1,1357,1611,0,0
140,-587,0,0,0,0,0,0,0,0,0,-1,1364,1611,0,0
147,-587,0,0,0,0,0,0,0,0,0,-1,1371,1611,0,0
154,-587,0,0,0,0,0,0,0,0,0,-1,1378,1611,0,0
161,-587,0,0,0,0,0,0,0,0,0,-1,1385,1611,0,0
168,-587,0,0,0,0,0,0,0,0,0,-1,1392,1611,0,0
175,-587,0,0,0,0,0,0,0,0,0,-1,1399,1611,0,0
182,-587,0,0,0,0,0,0,0,0,0,-1,1406,1611,0,0
189,-587,0,0,0,0,0,0,0,0,0,-1,1413,1611,0,0
196,-587,0,0,0,0,0,0,0,0,0,-1,1420,1611,0,0
203,-587,0,0,0,0,0,0,0,0,0,-1,1427,1611,0,0
210,-587,0,0,0,0,0,0,0,0,0,-1,1434,1611,0,0
217,-587,0,0,0,0,0,0,0,0,0,-1,1441,1611,0,0
224,-587,0,0,0,0,0,0,0,0,0,-1,1448,1611,0,0
231,-587,0,0,0,0,0,0,0,0,0,-1,1455,1611,0,0
238,-587,0,0,0,0,0,0,0,0,0,-1,1462,1611,0,0
245,-587,0,0,0,0,0,0,0,0,0,-1,1469,1611,0,0
252,-587,0,0,0,0,0,0,0,0,0,-1,1476,1611,0,0
259,-587,0,0,0,0,0,0,0,0,0,-1,1483,1611,0,0
266,-587,0,0,0,0,0,0,0,0,0,-1,1490,1611,0,0
273,-587,10.2936,6.35083,0,0,0,0,0,0,0,-1,1497,1611,10.2936,-6.35087
280,-587,2.09204,1.1217,0,0,0,0,0,0,0,-1,1504,1611,2.092,-1.12176
287,-587,3.2865,0.671509,0,0,0,0,0,0,0,-1,1511,1611,3.28656,-0.671538
294,-587,4.24646,1.58765,0,0,0,0,0,0,0,-1,1518,1611,4.24648,-1.58761
301,-587,7.60474,8.37085,0,0,0,0,0,0,0,-1,1525,1611,7.60478,-8.37084
308,-587,5.99316,10.2291,0,0,0,0,0,0,0,-1,1532,1611,5.99315,-10.2291
315,-587,4.34558,12.3289,0,0,0,0,0,0,0,-1,1539,1611,4.34556,-12.3288
322,-587,10.4526,6.38245,0,0,0,0,0,0,0,-1,1546,1611,10.4526,-6.38245
329,-587,10.7738,8.42444,0,0,0,0,0,0,0,-1,1553,1611,10.7738,-8.42438
336,-587,7.5531,5.96619,0,0,0,0,0,0,0,-1,1560,1611,7.55311,-5.96617
343,-587,9.57495,4.38391,0,0,0,0,0,0,0,-1,1567,1611,9.57494,-4.38397
350,-587,9.50378,3.45093,0,0,0,0,0,0,0,-1,1574,1611,9.50376,-3.4509
357,-587,9.40027,2.50806,0,0,0,0,0,0,0,-1,1581,1611,9.40022,-2.50803
364,-587,9.26477,1.34131,0,0,0,0,0,0,0,-1,1588,1611,9.26479,-1.34126
371,-587,6.98926,7.87561,0,0,0,0,0,0,0,-1,1595,1611,6.98928,-7.87564
378,-587,9.25146,13.8358,0,0,0,0,0,0,0,-1,1602,1611,9.2515,-13.8359
385,-587,13.4821,28.1548,0,0,0,0,0,0,0,-1,1609,1611,13.482,-28.1548
392,-587,13.4513,27.7311,0,0,0,0,0,0,0,-1,1616,1611,13.4513,-27.7311
399,-587,13.392,27.3248,-0.00716646,0.0189161,0.00686467,0.0206125,-0.00886284,1.32853,0.0174624,0.0492464,1623,1611,13.3919,-27.3248
406,-587,13.4016,26.9637,-0.00780661,0.01719,0.00645459,0.0187583,-0.00937491,1.33244,0.0165411,0.0425626,1630,1611,13.4016,-26.9638
413,-587,13.4344,26.5757,-0.00777061,0.0160795,0.00537715,0.0172358,-0.00892687,1.35899,0.0153568,0.0364171,1637,1611,13.4345,-26.5757
420,-587,13.1879,26.2632,-0.00713757,0.0148803,0.00413022,0.0156296,-0.00788684,1.39134,0.0138203,0.0324817,1644,1611,13.1879,-26.2632
427,-587,13.1007,25.9064,-0.00601241,0.0136146,0.00277727,0.014,-0.00639783,1.4329,0.0120463,0.0239962,1651,1611,13.1007,-25.9063
434,-587,13.0701,25.4375,-0.00484236,0.0120044,0.00173404,0.012181,-0.00501899,1.46928,0.0102134,0.0169785,1658,1611,13.0701,-25.4375
441,-587,13.073,25.0248,-0.00362593,0.0105792,0.000762434,0.01062,-0.00366673,1.51733,0.00856789,0.0199769,1665,1611,13.073,-25.0247
448,-587,13.0861,24.7308,-0.00246622,0.0091995,-5.14753e-05,0.00919973,-0.00246645,-1.56638,0.00709958,0.0152946,1672,1611,13.0861,-24.7308
455,-587,13.1031,24.3542,-0.00149439,0.00782829,-0.000810815,0.00789829,-0.00156439,-1.48469,0.00585705,0.0151678,1679,1611,13.1032,-24.3543
462,-587,13.0663,23.9553,-0.000622787,0.00631189,-0.00130266,0.00654852,-0.000859413,-1.39111,0.00467854,0.0201098,1686,1611,13.0663,-23.9553
469,-587,13.0311,23.5859,0.000115444,0.00478554,-0.0015579,0.00525754,-0.00035655,-1.27662,0.00362972,0.0176579,1693,1611,13.0311,-23.586
476,-587,13.0537,23.1913,0.000522946,0.00330561,-0.00149432,0.00395604,-0.000127486,-1.16026,0.00268086,0.0110301,1700,1611,13.0537,-23.1912
483,-587,13.0319,22.7941,0.000753307,0.00183605,-0.00137208,0.0027697,-0.000180341,-0.973303,0.00190942,0.0131527,1707,1611,13.0319,-22.7941
490,-587,12.9993,22.3943,0.000535282,0.000602026,-0.000978549,0.00154777,-0.000410464,-0.802443,0.00119245,0.0168484,1714,1611,12.9992,-22.3942
497,-587,12.9873,22.0203,-4.08752e-05,-0.000458295,-0.000576458,0.000363492,-0.000862662,-0.611711,0.000727212,0.0130477,1721,1611,12.9873,-22.0203
504,-587,12.9805,21.641,-0.00110289,-0.00159321,0.000330601,-0.000936465,-0.00175963,0.466357,0.00101663,0.012048,1728,1611,12.9805,-21.641
511,-587,12.9875,21.2555,-0.00221268,-0.00289348,0.00135372,-0.00115722,-0.00394894,0.662225,0.00234412,0.0149347,1735,1611,12.9875,-21.2555
518,-587,13.0084,20.8457,-0.00346008,-0.00410171,0.00243362,-0.00132622,-0.00623557,0.719862,0.00379306,0.0146448,1742,1611,13.0084,-20.8457
525,-587,12.9963,20.4451,-0.00495002,-0.00557915,0.00388211,-0.00136976,-0.00915942,0.744972,0.00570477,0.0173739,1749,1611,12.9963,-20.4451
532,-587,12.999,20.0398,-0.00675695,-0.00765156,0.00592688,-0.00126052,-0.013148,0.747734,0.00837683,0.0286553,1756,1611,12.9991,-20.0398
539,-587,13.0162,19.611,0,0,0,0,0,0,0,-1,1763,1611,13.0163,-19.6109
546,-587,14.3149,19.1855,0,0,0,0,0,0,0,-1,1770,1611,14.3149,-19.1855
553,-587,7.5813,8.45068,0,0,0,0,0,0,0,-1,1777,1611,7.58125,-8.45068
560,-587,4.21179,5.23547,0,0,0,0,0,0,0,-1,1784,1611,4.21185,-5.23553
567,-587,4.03711,5.46387,0,0,0,0,0,0,0,-1,1791,1611,4.03715,-5.46382
574,-587,3.83142,5.68884,0,0,0,0,0,0,0,-1,1798,1611,3.83141,-5.68881
581,-587,3.47168,6.00977,0,0,0,0,0,0,0,-1,1805,1611,3.47167,-6.00983
588,-587,0,0,0,0,0,0,0,0,0,-1,1812,1611,0,0
595,-587,0,0,0,0,0,0,0,0,0,-1,1819,1611,0,0
602,-587,0,0,0,0,0,0,0,0,0,-1,1826,1611,0,0
609,-587,0,0,0,0,0,0,0,0,0,-1,1833,1611,0,0
616,-587,0,0,0,0,0,0,0,0,0,-1,1840,1611,0,0
623,-587,0,0,0,0,0,0,0,0,0,-1,1847,1611,0,0
630,-587,0,0,0,0,0,0,0,0,0,-1,1854,1611,0,0
637,-587,0,0,0,0,0,0,0,0,0,-1,1861,1611,0,0
644,-587,0,0,0,0,0,0,0,0,0,-1,1868,1611,0,0
651,-587,0,0,0,0,0,0,0,0,0,-1,1875,1611,0,0
658,-587,0,0,0,0,0,0,0,0,0,-1,1882,1611,0,0
665,-587,0,0,0,0,0,0,0,0,0,-1,1889,1611,0,0
672,-587,0,0,0,0,0,0,0,0,0,-1,1896,1611,0,0
679,-587,0,0,0,0,0,0,0,0,0,-1,1903,1611,0,0
686,-587,0,0,0,0,0,0,0,0,0,-1,1910,1611,0,0
693,-587,0,0,0,0,0,0,0,0,0,-1,1917,1611,0,0
700,-587,0,0,0,0,0,0,0,0,0,-1,1924,1611,0,0
707,-587,0,0,0,0,0,0,0,0,0,-1,1931,1611,0,0
714,-587,0,0,0,0,0,0,0,0,0,-1,1938,1611,0,0
721,-587,0,0,0,0,0,0,0,0,0,-1,1945,1611,0,0
728,-587,0,0,0,0,0,0,0,0,0,-1,1952,1611,0,0
735,-587,0,0,0,0,0,0,0,0,0,-1,1959,1611,0,0
742,-587,0,0,0,0,0,0,0,0,0,-1,1966,1611,0,0
749,-587,0,0,0,0,0,0,0,0,0,-1,1973,1611,0,0
756,-587,0,0,0,0,0,0,0,0,0,-1,1980,1611,0,0
763,-587,0,0,0,0,0,0,0,0,0,-1,1987,1611,0,0
770,-587,0,0,0,0,0,0,0,0,0,-1,1994,1611,0,0
777,-587,0,0,0,0,0,0,0,0,0,-1,2001,1611,0,0
784,-587,0,0,0,0,0,0,0,0,0,-1,2008,1611,0,0
791,-587,0,0,0,0,0,0,0,0,0,-1,2015,1611,0,0
798,-587,0,0,0,0,0,0,0,0,0,-1,2022,1611,0,0
805,-587,0,0,0,0,0,0,0,0,0,-1,2029,1611,0,0
812,-587,0,0,0,0,0,0,0,0,0,-1,2036,1611,0,0
-700,-594,0,0,0,0,0,0,0,0,0,-1,524,1618,0,0
-693,-594,0,0,0,0,0,0,0,0,0,-1,531,1618,0,0
-686,-594,0,0,0,0,0,0,0,0,0,-1,538,1618,0,0
-679,-594,0,0,0,0,0,0,0,0,0,-1,545,1618,0,0
-672,-594,0,0,0,0,0,0,0,0,0,-1,552,1618,0,0
-665,-594,0,0,0,0,0,0,0,0,0,-1,559,1618,0,0
-658,-594,0,0,0,0,0,0,0,0,0,-1,566,1618,0,0
-651,-594,0,0,0,0,0,0,0,0,0,-1,573,1618,0,0
-644,-594,0,0,0,0,0,0,0,0,0,-1,580,1618,0,0
-637,-594,0,0,0,0,0,0,0,0,0,-1,587,1618,0,0
-630,-594,0,0,0,0,0,0,0,0,0,-1,594,1618,0,0
-623,-594,0,0,0,0,0,0,0,0,0,-1,601,1618,0,0
-616,-594,0,0,0,0,0,0,0,0,0,-1,608,1618,0,0
-609,-594,0,0,0,0,0,0,0,0,0,-1,615,1618,0,0
-602,-594,0,0,0,0,0,0,0,0,0,-1,622,1618,0,0
-595,-594,0,0,0,0,0,0,0,0,0,-1,629,1618,0,0
-588,-594,0,0,0,0,0,0,0,0,0,-1,636,1618,0,0
-581,-594,0,0,0,0,0,0,0,0,0,-1,643,1618,0,0
-574,-594,0,0,0,0,0,0,0,0,0,-1,650,1618,0,0
-567,-594,0,0,0,0,0,0,0,0,0,-1,657,1618,0,0
-560,-594,0,0,0,0,0,0,0,0,0,-1,664,1618,0,0
-553,-594,0,0,0,0,0,0,0,0,0,-1,671,1618,0,0
-546,-594,0,0,0,0,0,0,0,0,0,-1,678,1618,0,0
-539,-594,0,0,0,0,0,0,0,0,0,-1,685,1618,0,0
-532,-594,0,0,0,0,0,0,0,0,0,-1,692,1618,0,0
-525,-594,0,0,0,0,0,0,0,0,0,-1,699,1618,0,0
-518,-594,0,0,0,0,0,0,0,0,0,-1,706,1618,0,0
-511,-594,0,0,0,0,0,0,0,0,0,-1,713,1618,0,0
-504,-594,0,0,0,0,0,0,0,0,0,-1,720,1618,0,0
-497,-594,0,0,0,0,0,0,0,0,0,-1,727,1618,0,0
-490,-594,0,0,0,0,0,0,0,0,0,-1,734,1618,0,0
-483,-594,0,0,0,0,0,0,0,0,0,-1,741,1618,0,0
-476,-594,0,0,0,0,0,0,0,0,0,-1,748,1618,0,0
-469,-594,0,0,0,0,0,0,0,0,0,-1,755,1618,0,0
-462,-594,0,0,0,0,0,0,0,0,0,-1,762,1618,0,0
-455,-594,-0.509216,-1.58411,0,0,0,0,0,0,0,-1,769,1618,-0.509245,1.58415
-448,-594,-7.71887,-0.0559082,0,0,0,0,0,0,0,-1,776,1618,-7.71885,0.055939
-441,-594,-5.78473,1.18298,0,0,0,0,0,0,0,-1,783,1618,-5.78474,-1.18295
-434,-594,-3.93628,3.06213,0,0,0,0,0,0,0,-1,790,1618,-3.93631,-3.06208
-427,-594,-3.97693,6.77759,0,0,0,0,0,0,0,-1,797,1618,-3.97695,-6.77764
-420,-594,-2.53046,7.71606,0,0,0,0,0,0,0,-1,804,1618,-2.53047,-7.71609
-413,-594,-0.860413,8.00391,0,0,0,0,0,0,0,-1,811,1618,-0.860423,-8.00389
-406,-594,2.45746,13.6218,0,0,0,0,0,0,0,-1,818,1618,2.45747,-13.6218
-399,-594,2.54803,18.8116,0,0,0,0,0,0,0,-1,825,1618,2.54802,-18.8117
-392,-594,2.27618,19.2399,-0.00460185,-0.000227459,0.0021931,0.000682686,-0.005512,1.17742,0.00392208,0.0499924,832,1618,2.27619,-19.2398
-385,-594,2.12952,19.8635,-0.00339531,-0.000742073,0.00187715,0.000229918,-0.0043673,1.09301,0.00299112,0.0326912,839,1618,2.12953,-19.8636
-378,-594,2.03821,20.1804,-0.00244028,-0.000889291,0.00162683,0.000137428,-0.00346699,1.00781,0.00235847,0.0150706,846,1618,2.03821,-20.1804
-371,-594,2.0368,20.6628,-0.00167974,-0.000978152,0.00130648,2.38077e-05,-0.0026817,0.916557,0.00179579,0.0117255,853,1618,2.03678,-20.6629
-364,-594,2.04547,21.0775,-0.00109008,-0.000927027,0.00107627,7.08012e-05,-0.00208791,0.8232,0.00141613,0.010322,860,1618,2.04547,-21.0776
-357,-594,2.04578,21.493,-0.000501668,-0.00074507,0.000918669,0.000303327,-0.00155006,0.719544,0.00114792,0.0107091,867,1618,2.0458,-21.4931
-350,-594,2.01544,21.9342,0.000101368,-0.00050929,0.000827464,0.000678038,-0.00108596,0.608651,0.00102748,0.0145641,874,1618,2.01546,-21.9342
-343,-594,1.99261,22.3633,0.000711349,-0.000171158,0.000904716,0.00127668,-0.00073649,0.558508,0.00117617,0.0155651,881,1618,1.99264,-22.3633
-336,-594,1.96661,22.7476,0.00128025,0.000396474,0.00099388,0.00192605,-0.000249325,0.576218,0.0013747,0.013448,888,1618,1.96664,-22.7475
-329,-594,1.96948,23.1528,0.00176788,0.00102729,0.00114057,0.00259676,0.000198412,0.628436,0.00166897,0.0135093,895,1618,1.96949,-23.1529
-322,-594,2.00647,23.5771,0.00220258,0.001821,0.00146765,0.00349178,0.000531793,0.720763,0.0021724,0.0167169,902,1618,2.00644,-23.5772
-315,-594,2.00824,23.9542,0.00258354,0.00260473,0.00181266,0.00440683,0.000781443,0.788322,0.00271515,0.0174317,909,1618,2.00823,-23.9542
-308,-594,1.96924,24.3495,0.00291331,0.00334564,0.00217148,0.00531169,0.000947263,0.835008,0.00327141,0.015696,916,1618,1.96926,-24.3495
-301,-594,1.94995,24.7388,0.00333129,0.00397578,0.00253991,0.0062138,0.00109327,0.848498,0.00383048,0.0126291,923,1618,1.94994,-24.7387
-294,-594,2.00238,25.1074,0.00400806,0.00474328,0.00315839,0.00755538,0.00119596,0.843333,0.00468938,0.0140359,930,1618,2.0024,-25.1075
-287,-594,1.96613,25.4727,0.0046258,0.00563914,0.0037909,0.00895708,0.00130786,0.851832,0.0055867,0.02427,937,1618,1.9661,-25.4726
-280,-594,2.08783,25.8951,0.00542658,0.00663818,0.00448191,0.010555,0.00150971,0.852573,0.00659135,0.0298474,944,1618,2.08785,-25.8952
-273,-594,2.09143,26.3448,0.00630993,0.00737468,0.00516526,0.0120349,0.00164968,0.836751,0.00753384,0.0375789,951,1618,2.09142,-26.3448
-266,-594,2.05353,26.7104,0.00721901,0.00793706,0.005735,0.0133243,0.00183181,0.816659,0.00833957,0.0442513,958,1618,2.05354,-26.7105
-259,-594,2.06531,26.9414,0,0,0,0,0,0,0,-1,965,1618,2.0653,-26.9414
-252,-594,2.04651,27.2323,0,0,0,0,0,0,0,-1,972,1618,2.0465,-27.2323
-245,-594,2.25757,27.9462,0,0,0,0,0,0,0,-1,979,1618,2.25754,-27.9462
-238,-594,2.10962,25.5623,0,0,0,0,0,0,0,-1,986,1618,2.10965,-25.5622
-231,-594,1.93774,9.35388,0,0,0,0,0,0,0,-1,993,1618,1.93776,-9.35393
-224,-594,1.81824,8.62744,0,0,0,0,0,0,0,-1,1000,1618,1.81822,-8.62745
-217,-594,-8.24066,12.0752,0,0,0,0,0,0,0,-1,1007,1618,-8.24068,-12.0751
-210,-594,-5.61438,14.2119,0,0,0,0,0,0,0,-1,1014,1618,-5.6144,-14.212
-203,-594,-3.94507,15.5768,0,0,0,0,0,0,0,-1,1021,1618,-3.94506,-15.5768
-196,-594,2.78613,10.5815,0,0,0,0,0,0,0,-1,1028,1618,2.78612,-10.5815
-189,-594,2.60913,9.48865,0,0,0,0,0,0,0,-1,1035,1618,2.6091,-9.48871
-182,-594,1.2395,9.38806,0,0,0,0,0,0,0,-1,1042,1618,1.23951,-9.38804
-175,-594,0.234863,8.73792,0,0,0,0,0,0,0,-1,1049,1618,0.234812,-8.73786
-168,-594,-0.495483,8.46289,0,0,0,0,0,0,0,-1,1056,1618,-0.495513,-8.46285
-161,-594,-1.39734,8.28699,0,0,0,0,0,0,0,-1,1063,1618,-1.39729,-8.28699
-154,-594,-0.000854492,7.68445,0,0,0,0,0,0,0,-1,1070,1618,-0.000805755,-7.6845
-147,-594,0.348267,9.3385,0,0,0,0,0,0,0,-1,1077,1618,0.348237,-9.33849
-140,-594,0.675171,11.5884,0,0,0,0,0,0,0,-1,1084,1618,0.675204,-11.5884
-133,-594,0,0,0,0,0,0,0,0,0,-1,1091,1618,0,0
-126,-594,0,0,0,0,0,0,0,0,0,-1,1098,1618,0,0
-119,-594,0,0,0,0,0,0,0,0,0,-1,1105,1618,0,0
-112,-594,0,0,0,0,0,0,0,0,0,-1,1112,1618,0,0
-105,-594,0,0,0,0,0,0,0,0,0,-1,1119,1618,0,0
-98,-594,0,0,0,0,0,0,0,0,0,-1,1126,1618,0,0
-91,-594,0,0,0,0,0,0,0,0,0,-1,1133,1618,0,0
-84,-594,0,0,0,0,0,0,0,0,0,-1,1140,1618,0,0
-77,-594,0,0,0,0,0,0,0,0,0,-1,1147,1618,0,0
-70,-594,0,0,0,0,0,0,0,0,0,-1,1154,1618,0,0
-63,-594,0,0,0,0,0,0,0,0,0,-1,1161,1618,0,0
-56,-594,0,0,0,0,0,0,0,0,0,-1,1168,1618,0,0
-49,-594,0,0,0,0,0,0,0,0,0,-1,1175,1618,0,0
-42,-594,0,0,0,0,0,0,0,0,0,-1,1182,1618,0,0
-35,-594,0,0,0,0,0,0,0,0,0,-1,1189,1618,0,0
-28,-594,0,0,0,0,0,0,0,0,0,-1,1196,1618,0,0
-21,-594,0,0,0,0,0,0,0,0,0,-1,1203,1618,0,0
-14,-594,0,0,0,0,0,0,0,0,0,-1,1210,1618,0,0
-7,-594,0,0,0,0,0,0,0,0,0,-1,1217,1618,0,0
0,-594,0,0,0,0,0,0,0,0,0,-1,1224,1618,0,0
7,-594,0,0,0,0,0,0,0,0,0,-1,1231,1618,0,0
14,-594,0,0,0,0,0,0,0,0,0,-1,1238,1618,0,0
21,-594,0,0,0,0,0,0,0,0,0,-1,1245,1618,0,0
28,-594,0,0,0,0,0,0,0,0,0,-1,1252,1618,0,0
35,-594,0,0,0,0,0,0,0,0,0,-1,1259,1618,0,0
42,-594,0,0,0,0,0,0,0,0,0,-1,1266,1618,0,0
49,-594,0,0,0,0,0,0,0,0,0,-1,1273,1618,0,0
56,-594,0,0,0,0,0,0,0,0,0,-1,1280,1618,0,0
63,-594,0,0,0,0,0,0,0,0,0,-1,1287,1618,0,0
70,-594,0,0,0,0,0,0,0,0,0,-1,1294,1618,0,0
77,-594,0,0,0,0,0,0,0,0,0,-1,1301,1618,0,0
84,-594,0,0,0,0,0,0,0,0,0,-1,1308,1618,0,0
91,-594,0,0,0,0,0,0,0,0,0,-1,1315,1618,0,0
98,-594,0,0,0,0,0,0,0,0,0,-1,1322,1618,0,0
105,-594,0,0,0,0,0,0,0,0,0,-1,1329,1618,0,0
112,-594,0,0,0,0,0,0,0,0,0,-1,1336,1618,0,0
119,-594,0,0,0,0,0,0,0,0,0,-1,1343,1618,0,0
126,-594,0,0,0,0,0,0,0,0,0,-1,1350,1618,0,0
133,-594,0,0,0,0,0,0,0,0,0,-1,1357,1618,0,0
140,-594,0,0,0,0,0,0,0,0,0,-1,1364,1618,0,0
147,-594,0,0,0,0,0,0,0,0,0,-1,1371,1618,0,0
154,-594,0,0,0,0,0,0,0,0,0,-1,1378,1618,0,0
161,-594,0,0,0,0,0,0,0,0,0,-1,1385,1618,0,0
168,-594,0,0,0,0,0,0,0,0,0,-1,1392,1618,0,0
175,-594,0,0,0,0,0,0,0,0,0,-1,1399,1618,0,0
182,-594,0,0,0,0,0,0,0,0,0,-1,1406,1618,0,0
189,-594,0,0,0,0,0,0,0,0,0,-1,1413,1618,0,0
196,-594,0,0,0,0,0,0,0,0,0,-1,1420,1618,0,0
203,-594,0,0,0,0,0,0,0,0,0,-1,1427,1618,0,0
210,-594,0,0,0,0,0,0,0,0,0,-1,1434,1618,0,0
217,-594,0,0,0,0,0,0,0,0,0,-1,1441,1618,0,0
224,-594,0,0,0,0,0,0,0,0,0,-1,1448,1618,0,0
231,-594,0,0,0,0,0,0,0,0,0,-1,1455,1618,0,0
238,-594,0,0,0,0,0,0,0,0,0,-1,1462,1618,0,0
245,-594,0,0,0,0,0,0,0,0,0,-1,1469,1618,0,0
252,-594,3.03674,1.20996,0,0,0,0,0,0,0,-1,1476,1618,3.0368,-1.20999
259,-594,4.79834,1.53113,0,0,0,0,0,0,0,-1,1483,1618,4.79837,-1.53118
266,-594,3.71606,2.68152,0,0,0,0,0,0,0,-1,1490,1618,3.71609,-2.68149
273,-594,9.7655,6.33557,0,0,0,0,0,0,0,-1,1497,1618,9.76555,-6.33554
280,-594,3.13281,0.911255,0,0,0,0,0,0,0,-1,1504,1618,3.13277,-0.911207
287,-594,4.42749,1.51563,0,0,0,0,0,0,0,-1,1511,1618,4.42747,-1.51564
294,-594,5.36475,3.34937,0,0,0,0,0,0,0,-1,1518,1618,5.36475,-3.3494
301,-594,7.97144,9.04333,0,0,0,0,0,0,0,-1,1525,1618,7.9714,-9.04328
308,-594,6.30347,10.4633,0,0,0,0,0,0,0,-1,1532,1618,6.30351,-10.4633
315,-594,4.62012,11.934,0,0,0,0,0,0,0,-1,1539,1618,4.62006,-11.934
322,-594,2.91528,13.3134,0,0,0,0,0,0,0,-1,1546,1618,2.91523,-13.3133
329,-594,4.19861,9.77258,0,0,0,0,0,0,0,-1,1553,1618,4.19865,-9.77264
336,-594,10.1353,4.66528,0,0,0,0,0,0,0,-1,1560,1618,10.1353,-4.66533
343,-594,10.5729,3.71228,0,0,0,0,0,0,0,-1,1567,1618,10.5729,-3.71232
350,-594,10.219,2.98792,0,0,0,0,0,0,0,-1,1574,1618,10.219,-2.98797
357,-594,9.83154,1.96326,0,0,0,0,0,0,0,-1,1581,1618,9.8315,-1.96321
364,-594,9.74939,0.700562,0,0,0,0,0,0,0,-1,1588,1618,9.74939,-0.700615
371,-594,8.54297,14.3988,0,0,0,0,0,0,0,-1,1595,1618,8.54296,-14.3989
378,-594,8.9137,16.3073,0,0,0,0,0,0,0,-1,1602,1618,8.91369,-16.3072
385,-594,11.3333,26.4623,0,0,0,0,0,0,0,-1,1609,1618,11.3333,-26.4623
392,-594,12.7229,27.807,0,0,0,0,0,0,0,-1,1616,1618,12.7229,-27.807
399,-594,12.8134,27.3577,-0.00409523,0.0158405,0.00448669,0.0168037,-0.00505845,1.35932,0.0132154,0.0410011,1623,1618,12.8133,-27.3576
406,-594,12.7981,26.9565,-0.00466411,0.0139931,0.0043876,0.0149734,-0.00564443,1.35098,0.0123032,0.0255655,1630,1618,12.7981,-26.9565
413,-594,12.7654,26.5835,-0.00484114,0.0126614,0.00379926,0.0134505,-0.00563026,1.366,0.0113205,0.0190983,1637,1618,12.7654,-26.5835
420,-594,12.7461,26.2065,-0.00460735,0.0113849,0.00307823,0.0119569,-0.0051794,1.38706,0.0101483,0.0152853,1644,1618,12.7461,-26.2066
427,-594,12.728,25.8555,-0.0040156,0.010266,0.00218838,0.0105938,-0.0043434,1.42211,0.00887208,0.0122198,1651,1618,12.728,-25.8554
434,-594,12.6921,25.4813,-0.00329054,0.00890622,0.0014362,0.00907305,-0.00345738,1.45515,0.00747269,0.0175478,1658,1618,12.6922,-25.4813
441,-594,12.672,25.0977,-0.00248455,0.00774992,0.000686157,0.00779571,-0.00253035,1.50415,0.00621474,0.0171548,1665,1618,12.672,-25.0977
448,-594,12.6925,24.7296,-0.00168735,0.00663695,4.02471e-05,0.00663715,-0.00168755,1.56596,0.00508156,0.0165354,1672,1618,12.6924,-24.7296
455,-594,12.687,24.3386,-0.000998814,0.005525,-0.000597385,0.00557925,-0.00105307,-1.48023,0.00411568,0.0128242,1679,1618,12.687,-24.3387
462,-594,12.6818,23.9532,-0.00040492,0.00429307,-0.000988832,0.00449272,-0.000604565,-1.37157,0.00321567,0.0133415,1686,1618,12.6818,-23.9532
469,-594,12.6818,23.5938,0.000134853,0.00302979,-0.00121107,0.0034696,-0.000304964,-1.22244,0.00242114,0.0116395,1693,1618,12.6818,-23.5937
476,-594,12.6753,23.2266,0.000400557,0.00179743,-0.0011652,0.00245749,-0.000259501,-1.05539,0.00173132,0.0127697,1700,1618,12.6753,-23.2266
483,-594,12.6582,22.8315,0.000451596,0.000569592,-0.00103446,0.00154674,-0.000525551,-0.813883,0.00124392,0.0153834,1707,1618,12.6582,-22.8315
490,-594,12.6335,22.4283,0.00014227,-0.000503588,-0.000702661,0.000592656,-0.000953974,-0.570002,0.000901033,0.01359,1714,1618,12.6335,-22.4284
497,-594,12.6266,22.0305,-0.000527849,-0.00142382,-0.000295295,-0.000439281,-0.00151239,-0.291394,0.000898376,0.010575,1721,1618,12.6266,-22.0305
504,-594,12.6296,21.6348,-0.00168691,-0.00245407,0.000612803,-0.00134754,-0.00279345,0.50576,0.00161313,0.0110178,1728,1618,12.6296,-21.6348
511,-594,12.6262,21.2206,-0.00291432,-0.0037272,0.0016303,-0.00164056,-0.00500096,0.663235,0.00294367,0.0153561,1735,1618,12.6262,-21.2205
518,-594,12.5686,20.8021,-0.00435663,-0.00490978,0.0027384,-0.00188087,-0.00738554,0.735069,0.00443183,0.0195801,1742,1618,12.5687,-20.8022
525,-594,12.5876,20.4193,-0.00608815,-0.00642187,0.00432243,-0.00192936,-0.0105807,0.766107,0.00650671,0.0315104,1749,1618,12.5876,-20.4193
532,-594,12.6443,20.0994,0,0,0,0,0,0,0,-1,1756,1618,12.6443,-20.0994
539,-594,13.0576,19.2964,0,0,0,0,0,0,0,-1,1763,1618,13.0576,-19.2964
546,-594,7.48645,8.54785,0,0,0,0,0,0,0,-1,1770,1618,7.48639,-8.54789
553,-594,3.69714,5.68762,0,0,0,0,0,0,0,-1,1777,1618,3.69715,-5.68764
560,-594,6.06616,4.44482,0,0,0,0,0,0,0,-1,1784,1618,6.06621,-4.44477
567,-594,5.97266,4.73303,0,0,0,0,0,0,0,-1,1791,1618,5.97271,-4.73309
574,-594,5.9906,4.96326,0,0,0,0,0,0,0,-1,1798,1618,5.99065,-4.96326
581,-594,0,0,0,0,0,0,0,0,0,-1,1805,1618,0,0
588,-594,0,0,0,0,0,0,0,0,0,-1,1812,1618,0,0
595,-594,0,0,0,0,0,0,0,0,0,-1,1819,1618,0,0
602,-594,0,0,0,0,0,0,0,0,0,-1,1826,1618,0,0
609,-594,0,0,0,0,0,0,0,0,0,-1,1833,1618,0,0
616,-594,0,0,0,0,0,0,0,0,0,-1,1840,1618,0,0
623,-594,0,0,0,0,0,0,0,0,0,-1,1847,1618,0,0
630,-594,0,0,0,0,0,0,0,0,0,-1,1854,1618,0,0
637,-594,0,0,0,0,0,0,0,0,0,-1,1861,1618,0,0
644,-594,0,0,0,0,0,0,0,0,0,-1,1868,1618,0,0
651,-594,0,0,0,0,0,0,0,0,0,-1,1875,1618,0,0
658,-594,0,0,0,0,0,0,0,0,0,-1,1882,1618,0,0
665,-594,0,0,0,0,0,0,0,0,0,-1,1889,1618,0,0
672,-594,0,0,0,0,0,0,0,0,0,-1,1896,1618,0,0
679,-594,0,0,0,0,0,0,0,0,0,-1,1903,1618,0,0
686,-594,0,0,0,0,0,0,0,0,0,-1,1910,1618,0,0
693,-594,0,0,0,0,0,0,0,0,0,-1,1917,1618,0,0
700,-594,0,0,0,0,0,0,0,0,0,-1,1924,1618,0,0
707,-594,0,0,0,0,0,0,0,0,0,-1,1931,1618,0,0
714,-594,0,0,0,0,0,0,0,0,0,-1,1938,1618,0,0
721,-594,0,0,0,0,0,0,0,0,0,-1,1945,1618,0,0
728,-594,0,0,0,0,0,0,0,0,0,-1,1952,1618,0,0
735,-594,0,0,0,0,0,0,0,0,0,-1,1959,1618,0,0
742,-594,0,0,0,0,0,0,0,0,0,-1,1966,1618,0,0
749,-594,0,0,0,0,0,0,0,0,0,-1,1973,1618,0,0
756,-594,0,0,0,0,0,0,0,0,0,-1,1980,1618,0,0
763,-594,0,0,0,0,0,0,0,0,0,-1,1987,1618,0,0
770,-594,0,0,0,0,0,0,0,0,0,-1,1994,1618,0,0
777,-594,0,0,0,0,0,0,0,0,0,-1,2001,1618,0,0
784,-594,0,0,0,0,0,0,0,0,0,-1,2008,1618,0,0
791,-594,0,0,0,0,0,0,0,0,0,-1,2015,1618,0,0
798,-594,0,0,0,0,0,0,0,0,0,-1,2022,1618,0,0
805,-594,0,0,0,0,0,0,0,0,0,-1,2029,1618,0,0
812,-594,0,0,0,0,0,0,0,0,0,-1,2036,1618,0,0
-700,-601,0,0,0,0,0,0,0,0,0,-1,524,1625,0,0
-693,-601,0,0,0,0,0,0,0,0,0,-1,531,1625,0,0
-686,-601,0,0,0,0,0,0,0,0,0,-1,538,1625,0,0
-679,-601,0,0,0,0,0,0,0,0,0,-1,545,1625,0,0
-672,-601,0,0,0,0,0,0,0,0,0,-1,552,1625,0,0
-665,-601,0,0,0,0,0,0,0,0,0,-1,559,1625,0,0
-658,-601,0,0,0,0,0,0,0,0,0,-1,566,1625,0,0
-651,-601,0,0,0,0,0,0,0,0,0,-1,573,1625,0,0
-644,-601,0,0,0,0,0,0,0,0,0,-1,580,1625,0,0
-637,-601,0,0,0,0,0,0,0,0,0,-1,587,1625,0,0
-630,-601,0,0,0,0,0,0,0,0,0,-1,594,1625,0,0
-623,-601,0,0,0,0,0,0,0,0,0,-1,601,1625,0,0
-616,-601,0,0,0,0,0,0,0,0,0,-1,608,1625,0,0
-609,-601,0,0,0,0,0,0,0,0,0,-1,615,1625,0,0
-602,-601,0,0,0,0,0,0,0,0,0,-1,622,1625,0,0
-595,-601,0,0,0,0,0,0,0,0,0,-1,629,1625,0,0
-588,-601,0,0,0,0,0,0,0,0,0,-1,636,1625,0,0
-581,-601,0,0,0,0,0,0,0,0,0,-1,643,1625,0,0
-574,-601,0,0,0,0,0,0,0,0,0,-1,650,1625,0,0
-567,-601,0,0,0,0,0,0,0,0,0,-1,657,1625,0,0
-560,-601,0,0,0,0,0,0,0,0,0,-1,664,1625,0,0
-553,-601,0,0,0,0,0,0,0,0,0,-1,671,1625,0,0
-546,-601,0,0,0,0,0,0,0,0,0,-1,678,1625,0,0
-539,-601,0,0,0,0,0,0,0,0,0,-1,685,1625,0,0
-532,-601,0,0,0,0,0,0,0,0,0,-1,692,1625,0,0
-525,-601,0,0,0,0,0,0,0,0,0,-1,699,1625,0,0
-518,-601,0,0,0,0,0,0,0,0,0,-1,706,1625,0,0
-511,-601,0,0,0,0,0,0,0,0,0,-1,713,1625,0,0
-504,-601,0,0,0,0,0,0,0,0,0,-1,720,1625,0,0
-497,-601,0,0,0,0,0,0,0,0,0,-1,727,1625,0,0
-490,-601,0,0,0,0,0,0,0,0,0,-1,734,1625,0,0
-483,-601,0,0,0,0,0,0,0,0,0,-1,741,1625,0,0
-476,-601,0,0,0,0,0,0,0,0,0,-1,748,1625,0,0
-469,-601,0,0,0,0,0,0,0,0,0,-1,755,1625,0,0
-462,-601,0,0,0,0,0,0,0,0,0,-1,762,1625,0,0
-455,-601,0,0,0,0,0,0,0,0,0,-1,769,1625,0,0
-448,-601,-7.07623,2.7616,0,0,0,0,0,0,0,-1,776,1625,-7.07626,-2.76161
-441,-601,-6.06689,3.33447,0,0,0,0,0,0,0,-1,783,1625,-6.06691,-3.33448
-434,-601,-5.02655,3.8468,0,0,0,0,0,0,0,-1,790,1625,-5.02657,-3.84674
-427,-601,-5.78601,4.2406,0,0,0,0,0,0,0,-1,797,1625,-5.786,-4.24058
-420,-601,-5.5191,5.60364,0,0,0,0,0,0,0,-1,804,1625,-5.51907,-5.60368
-413,-601,-4.30756,5.86047,0,0,0,0,0,0,0,-1,811,1625,-4.30757,-5.86046
-406,-601,-1.67493,7.20422,0,0,0,0,0,0,0,-1,818,1625,-1.67493,-7.20428
-399,-601,1.40094,15.3108,0,0,0,0,0,0,0,-1,825,1625,1.40096,-15.3107
-392,-601,2.71448,19.1624,0,0,0,0,0,0,0,-1,832,1625,2.71445,-19.1623
-385,-601,2.33746,19.8041,-0.0040182,-0.000990443,0.00259692,0.000501642,-0.00551028,1.04929,0.00385164,0.0458943,839,1625,2.33749,-19.804
-378,-601,2.44226,20.3492,-0.00293098,-0.0012442,0.00211891,0.000192999,-0.00436818,0.974802,0.00297854,0.0378044,846,1625,2.44224,-20.3492
-371,-601,2.43658,20.6465,-0.00215998,-0.0011525,0.00160668,2.7557e-05,-0.00334004,0.937308,0.00223593,0.0207749,853,1625,2.43657,-20.6464
-364,-601,2.44293,21.0581,-0.00160214,-0.000999097,0.00125228,-1.25438e-05,-0.00258869,0.903537,0.00172163,0.0123148,860,1625,2.44291,-21.058
-357,-601,2.42682,21.4968,-0.000999255,-0.000768822,0.00103135,0.00015373,-0.00192181,0.841024,0.0013354,0.0106117,867,1625,2.42681,-21.4969
-350,-601,2.44244,21.9747,-0.000423769,-0.000499499,0.000883872,0.000423049,-0.00134632,0.763991,0.0010669,0.0206665,874,1625,2.44242,-21.9748
-343,-601,2.40881,22.426,0.00017445,-0.000171798,0.000913076,0.000930669,-0.000928018,0.691708,0.00107311,0.0217177,881,1625,2.40882,-22.426
-336,-601,2.36835,22.8091,0.000740502,0.000314781,0.000935631,0.00148718,-0.000431898,0.673549,0.00116248,0.0186626,888,1625,2.36836,-22.8091
-329,-601,2.38031,23.2009,0.00117572,0.000883133,0.000992632,0.00203278,2.60747e-05,0.712234,0.00134658,0.0156568,895,1625,2.38034,-23.2009
-322,-601,2.40564,23.5986,0.0015667,0.00157437,0.00124217,0.00281271,0.000328361,0.786943,0.00177583,0.0125188,902,1625,2.40562,-23.5986
-315,-601,2.40845,23.9413,0.00191289,0.00216943,0.00150189,0.00354852,0.000533804,0.827999,0.00220934,0.0125714,909,1625,2.40846,-23.9413
-308,-601,2.36664,24.3342,0.00222142,0.00267108,0.00175701,0.00421759,0.000674907,0.849032,0.00261594,0.0119663,916,1625,2.36661,-24.3342
-301,-601,2.35565,24.7429,0.00261609,0.00314394,0.00201126,0.00490851,0.000851511,0.850637,0.00302867,0.010538,923,1625,2.35565,-24.7429
-294,-601,2.36041,25.1281,0.00319967,0.00370942,0.00244023,0.00590805,0.00100104,0.837432,0.00365105,0.0103319,930,1625,2.36041,-25.1281
-287,-601,2.35541,25.511,0.00370091,0.00436656,0.0028328,0.00688602,0.00118146,0.843875,0.00425193,0.0106834,937,1625,2.35538,-25.511
-280,-601,2.38245,25.9077,0.00434688,0.00500467,0.00327184,0.0079641,0.00138745,0.835492,0.00491267,0.0141596,944,1625,2.38245,-25.9077
-273,-601,2.37378,26.3136,0.00509719,0.00548588,0.00372535,0.00902195,0.00156112,0.811458,0.0055677,0.0166201,951,1625,2.37377,-26.3136
-266,-601,2.41364,26.702,0.00584485,0.00607957,0.00414192,0.0101058,0.00181862,0.799562,0.00622025,0.0202066,958,1625,2.41364,-26.702
-259,-601,2.422,26.9742,0.00667116,0.00672928,0.00470024,0.0114006,0.00199988,0.78849,0.00702922,0.0282711,965,1625,2.42199,-26.9742
-252,-601,2.36963,27.3147,0.00798316,0.00723359,0.00534316,0.0129647,0.00225209,0.750384,0.0079988,0.0408218,972,1625,2.36961,-27.3147
-245,-601,2.58307,27.9227,0.00937619,0.00783236,0.00607079,0.0147239,0.0024846,0.722161,0.00910152,0.0444935,979,1625,2.58306,-27.9228
-238,-601,2.78516,28.4215,0,0,0,0,0,0,0,-1,986,1625,2.78516,-28.4215
-231,-601,2.66772,13.7051,0,0,0,0,0,0,0,-1,993,1625,2.6677,-13.7051
-224,-601,-0.0305176,9.13684,0,0,0,0,0,0,0,-1,1000,1625,-0.030498,-9.13681
-217,-601,3.39429,10.3898,0,0,0,0,0,0,0,-1,1007,1625,3.39431,-10.3898
-210,-601,-6.53699,15.7931,0,0,0,0,0,0,0,-1,1014,1625,-6.53697,-15.7931
-203,-601,2.69348,15.9099,0,0,0,0,0,0,0,-1,1021,1625,2.69351,-15.91
-196,-601,2.66992,16.1815,0,0,0,0,0,0,0,-1,1028,1625,2.66995,-16.1815
-189,-601,2.849,16.6105,0,0,0,0,0,0,0,-1,1035,1625,2.84902,-16.6104
-182,-601,1.82153,13.9752,0,0,0,0,0,0,0,-1,1042,1625,1.82155,-13.9752
-175,-601,0.544922,9.28687,0,0,0,0,0,0,0,-1,1049,1625,0.544879,-9.28685
-168,-601,-0.247559,8.97461,0,0,0,0,0,0,0,-1,1056,1625,-0.247598,-8.97466
-161,-601,-1.16833,8.80078,0,0,0,0,0,0,0,-1,1063,1625,-1.16837,-8.80081
-154,-601,1.12756,7.94861,0,0,0,0,0,0,0,-1,1070,1625,1.12762,-7.94855
-147,-601,1.35352,9.55432,0,0,0,0,0,0,0,-1,1077,1625,1.35351,-9.55429
-140,-601,1.72437,11.1498,0,0,0,0,0,0,0,-1,1084,1625,1.72432,-11.1498
-133,-601,2.13281,12.8347,0,0,0,0,0,0,0,-1,1091,1625,2.13287,-12.8348
-126,-601,3.09534,15.427,0,0,0,0,0,0,0,-1,1098,1625,3.0953,-15.4271
-119,-601,1.22485,9.43457,0,0,0,0,0,0,0,-1,1105,1625,1.22489,-9.43456
-112,-601,0,0,0,0,0,0,0,0,0,-1,1112,1625,0,0
-105,-601,0,0,0,0,0,0,0,0,0,-1,1119,1625,0,0
-98,-601,0,0,0,0,0,0,0,0,0,-1,1126,1625,0,0
-91,-601,0,0,0,0,0,0,0,0,0,-1,1133,1625,0,0
-84,-601,0,0,0,0,0,0,0,0,0,-1,1140,1625,0,0
-77,-601,0,0,0,0,0,0,0,0,0,-1,1147,1625,0,0
-70,-601,0,0,0,0,0,0,0,0,0,-1,1154,1625,0,0
-63,-601,0,0,0,0,0,0,0,0,0,-1,1161,1625,0,0
-56,-601,0,0,0,0,0,0,0,0,0,-1,1168,1625,0,0
-49,-601,0,0,0,0,0,0,0,0,0,-1,1175,1625,0,0
-42,-601,0,0,0,0,0,0,0,0,0,-1,1182,1625,0,0
-35,-601,0,0,0,0,0,0,0,0,0,-1,1189,1625,0,0
-28,-601,0,0,0,0,0,0,0,0,0,-1,1196,1625,0,0
-21,-601,0,0,0,0,0,0,0,0,0,-1,1203,1625,0,0
-14,-601,0,0,0,0,0,0,0,0,0,-1,1210,1625,0,0
-7,-601,0,0,0,0,0,0,0,0,0,-1,1217,1625,0,0
0,-601,0,0,0,0,0,0,0,0,0,-1,1224,1625,0,0
7,-601,0,0,0,0,0,0,0,0,0,-1,1231,1625,0,0
14,-601,0,0,0,0,0,0,0,0,0,-1,1238,1625,0,0
21,-601,0,0,0,0,0,0,0,0,0,-1,1245,1625,0,0
28,-601,0,0,0,0,0,0,0,0,0,-1,1252,1625,0,0
35,-601,0,0,0,0,0,0,0,0,0,-1,1259,1625,0,0
42,-601,0,0,0,0,0,0,0,0,0,-1,1266,1625,0,0
49,-601,0,0,0,0,0,0,0,0,0,-1,1273,1625,0,0
56,-601,0,0,0,0,0,0,0,0,0,-1,1280,1625,0,0
63,-601,0,0,0,0,0,0,0,0,0,-1,1287,1625,0,0
70,-601,0,0,0,0,0,0,0,0,0,-1,1294,1625,0,0
77,-601,0,0,0,0,0,0,0,0,0,-1,1301,1625,0,0
84,-601,0,0,0,0,0,0,0,0,0,-1,1308,1625,0,0
91,-601,0,0,0,0,0,0,0,0,0,-1,1315,1625,0,0
98,-601,0,0,0,0,0,0,0,0,0,-1,1322,1625,0,0
105,-601,0,0,0,0,0,0,0,0,0,-1,1329,1625,0,0
112,-601,0,0,0,0,0,0,0,0,0,-1,1336,1625,0,0
119,-601,0,0,0,0,0,0,0,0,0,-1,1343,1625,0,0
126,-601,0,0,0,0,0,0,0,0,0,-1,1350,1625,0,0
133,-601,0,0,0,0,0,0,0,0,0,-1,1357,1625,0,0
140,-601,0,0,0,0,0,0,0,0,0,-1,1364,1625,0,0
147,-601,0,0,0,0,0,0,0,0,0,-1,1371,1625,0,0
154,-601,0,0,0,0,0,0,0,0,0,-1,1378,1625,0,0
161,-601,0,0,0,0,0,0,0,0,0,-1,1385,1625,0,0
168,-601,0,0,0,0,0,0,0,0,0,-1,1392,1625,0,0
175,-601,0,0,0,0,0,0,0,0,0,-1,1399,1625,0,0
182,-601,0,0,0,0,0,0,0,0,0,-1,1406,1625,0,0
189,-601,0,0,0,0,0,0,0,0,0,-1,1413,1625,0,0
196,-601,0,0,0,0,0,0,0,0,0,-1,1420,1625,0,0
203,-601,0,0,0,0,0,0,0,0,0,-1,1427,1625,0,0
210,-601,0,0,0,0,0,0,0,0,0,-1,1434,1625,0,0
217,-601,0,0,0,0,0,0,0,0,0,-1,1441,1625,0,0
224,-601,0,0,0,0,0,0,0,0,0,-1,1448,1625,0,0
231,-601,-0.0371094,0.525879,0,0,0,0,0,0,0,-1,1455,1625,-0.0371518,-0.525824
238,-601,2.03369,-1.32861,0,0,0,0,0,0,0,-1,1462,1625,2.03364,1.32858
245,-601,2.71375,2.44983,0,0,0,0,0,0,0,-1,1469,1625,2.71371,-2.44979
252,-601,4.66943,2.28381,0,0,0,0,0,0,0,-1,1476,1625,4.66947,-2.28376
259,-601,6.42712,2.61987,0,0,0,0,0,0,0,-1,1483,1625,6.42711,-2.61985
266,-601,6.75317,1.68701,0,0,0,0,0,0,0,-1,1490,1625,6.75323,-1.687
273,-601,5.4314,2.92053,0,0,0,0,0,0,0,-1,1497,1625,5.43144,-2.92051
280,-601,4.64722,1.17786,0,0,0,0,0,0,0,-1,1504,1625,4.64722,-1.1779
287,-601,5.32532,2.6217,0,0,0,0,0,0,0,-1,1511,1625,5.32535,-2.62171
294,-601,5.97693,4.22693,0,0,0,0,0,0,0,-1,1518,1625,5.97697,-4.22694
301,-601,7.28162,9.50024,0,0,0,0,0,0,0,-1,1525,1625,7.28162,-9.50025
308,-601,6.53528,10.3927,0,0,0,0,0,0,0,-1,1532,1625,6.53529,-10.3927
315,-601,4.88013,11.7184,0,0,0,0,0,0,0,-1,1539,1625,4.88015,-11.7184
322,-601,3.38098,12.7864,0,0,0,0,0,0,0,-1,1546,1625,3.38104,-12.7864
329,-601,1.8772,13.8768,0,0,0,0,0,0,0,-1,1553,1625,1.87716,-13.8768
336,-601,4.67847,9.53308,0,0,0,0,0,0,0,-1,1560,1625,4.67848,-9.53309
343,-601,11.1404,3.14575,0,0,0,0,0,0,0,-1,1567,1625,11.1404,-3.1458
350,-601,10.9462,2.37769,0,0,0,0,0,0,0,-1,1574,1625,10.9461,-2.37764
357,-601,10.7518,1.6095,0,0,0,0,0,0,0,-1,1581,1625,10.7518,-1.60948
364,-601,5.33643,9.74426,0,0,0,0,0,0,0,-1,1588,1625,5.33637,-9.74429
371,-601,8.46387,16.2725,0,0,0,0,0,0,0,-1,1595,1625,8.46385,-16.2725
378,-601,12.3557,28.9166,0,0,0,0,0,0,0,-1,1602,1625,12.3557,-28.9166
385,-601,12.2133,28.4154,0,0,0,0,0,0,0,-1,1609,1625,12.2133,-28.4154
392,-601,12.225,27.6567,-0.00156905,0.014848,0.00243685,0.0152021,-0.00192312,1.42651,0.0108328,0.0418849,1616,1625,12.225,-27.6568
399,-601,12.2817,27.2642,-0.00209273,0.0129089,0.00283924,0.0134283,-0.00261211,1.38987,0.00993798,0.0211866,1623,1625,12.2817,-27.2642
406,-601,12.3463,26.8878,-0.00256209,0.0111895,0.00292439,0.0117855,-0.00315816,1.36973,0.0090944,0.0130146,1630,1625,12.3463,-26.8878
413,-601,12.3428,26.5297,-0.00282128,0.00989147,0.00262637,0.0104127,-0.0033425,1.37489,0.00828388,0.0120232,1637,1625,12.3428,-26.5296
420,-601,12.344,26.1757,-0.00280366,0.00863446,0.0022259,0.00905236,-0.00322156,1.38521,0.00734806,0.00988525,1644,1625,12.344,-26.1757
427,-601,12.3551,25.8092,-0.0025251,0.00763788,0.00163617,0.0078948,-0.00278201,1.41504,0.00639551,0.0133974,1651,1625,12.3551,-25.8093
434,-601,12.3353,25.448,-0.00208304,0.0064596,0.00107346,0.00659243,-0.00221587,1.44769,0.00529058,0.0153319,1658,1625,12.3353,-25.448
441,-601,12.3207,25.0889,-0.0015617,0.00548246,0.000478282,0.00551478,-0.00159402,1.50331,0.00430733,0.017858,1665,1625,12.3207,-25.0888
448,-601,12.3339,24.7374,-0.00102907,0.00454336,-4.40044e-05,0.00454371,-0.00102942,-1.5629,0.00342425,0.0142192,1672,1625,12.3338,-24.7374
455,-601,12.3378,24.3379,-0.000557665,0.00359593,-0.000583098,0.00367624,-0.00063797,-1.43394,0.00268883,0.012518,1679,1625,12.3378,-24.3379
462,-601,12.3247,23.9512,-0.000188542,0.00255343,-0.000884574,0.00281403,-0.000449142,-1.2843,0.00204226,0.0107812,1686,1625,12.3248,-23.9512
469,-601,12.3196,23.6014,0.000181246,0.00147228,-0.0010674,0.00207417,-0.000420646,-1.05735,0.00154224,0.0103174,1693,1625,12.3196,-23.6014
476,-601,12.2881,23.2357,0.000323806,0.000421583,-0.00102744,0.00140129,-0.000655904,-0.809172,0.00121343,0.0134952,1700,1625,12.288,-23.2358
483,-601,12.2546,22.8446,0.000210543,-0.000608735,-0.000874157,0.000766282,-0.00116447,-0.566287,0.0011226,0.0166225,1707,1625,12.2546,-22.8446
490,-601,12.2563,22.4579,-0.000188728,-0.00155014,-0.000590088,3.14351e-05,-0.0017703,-0.357105,0.00119082,0.0125827,1714,1625,12.2564,-22.4579
497,-601,12.2692,22.0657,-0.000943745,-0.00233827,-0.00016274,-0.000925005,-0.00235701,-0.114647,0.00137127,0.0107825,1721,1625,12.2692,-22.0657
504,-601,12.3018,21.63,-0.00217904,-0.00324066,0.000745155,-0.00179497,-0.00362474,0.475916,0.00209277,0.0190214,1728,1625,12.3017,-21.6299
511,-601,12.1945,21.2863,-0.00351548,-0.00446595,0.00176075,-0.00216696,-0.00581447,0.653586,0.00339307,0.0320442,1735,1625,12.1945,-21.2863
518,-601,12.1757,20.855,-0.0052005,-0.00560879,0.0028743,-0.0025231,-0.00828619,0.749945,0.00490442,0.0416375,1742,1625,12.1756,-20.8549
525,-601,12.2239,20.4519,0,0,0,0,0,0,0,-1,1749,1625,12.2239,-20.4519
532,-601,12.4133,19.2037,0,0,0,0,0,0,0,-1,1756,1625,12.4133,-19.2038
539,-601,7.77112,11.4299,0,0,0,0,0,0,0,-1,1763,1625,7.77116,-11.4299
546,-601,6.56873,3.62354,0,0,0,0,0,0,0,-1,1770,1625,6.56867,-3.62352
553,-601,7.03015,4.25049,0,0,0,0,0,0,0,-1,1777,1625,7.03011,-4.25048
560,-601,7.50745,4.83374,0,0,0,0,0,0,0,-1,1784,1625,7.50744,-4.83376
567,-601,7.82043,3.83301,0,0,0,0,0,0,0,-1,1791,1625,7.82041,-3.83303
574,-601,0,0,0,0,0,0,0,0,0,-1,1798,1625,0,0
581,-601,0,0,0,0,0,0,0,0,0,-1,1805,1625,0,0
588,-601,0,0,0,0,0,0,0,0,0,-1,1812,1625,0,0
595,-601,0,0,0,0,0,0,0,0,0,-1,1819,1625,0,0
602,-601,0,0,0,0,0,0,0,0,0,-1,1826,1625,0,0
609,-601,0,0,0,0,0,0,0,0,0,-1,1833,1625,0,0
616,-601,0,0,0,0,0,0,0,0,0,-1,1840,1625,0,0
623,-601,0,0,0,0,0,0,0,0,0,-1,1847,1625,0,0
630,-601,0,0,0,0,0,0,0,0,0,-1,1854,1625,0,0
637,-601,0,0,0,0,0,0,0,0,0,-1,1861,1625,0,0
644,-601,0,0,0,0,0,0,0,0,0,-1,1868,1625,0,0
651,-601,0,0,0,0,0,0,0,0,0,-1,1875,1625,0,0
658,-601,0,0,0,0,0,0,0,0,0,-1,1882,1625,0,0
665,-601,0,0,0,0,0,0,0,0,0,-1,1889,1625,0,0
672,-601,0,0,0,0,0,0,0,0,0,-1,1896,1625,0,0
679,-601,0,0,0,0,0,0,0,0,0,-1,1903,1625,0,0
686,-601,0,0,0,0,0,0,0,0,0,-1,1910,1625,0,0
693,-601,0,0,0,0,0,0,0,0,0,-1,1917,1625,0,0
700,-601,0,0,0,0,0,0,0,0,0,-1,1924,1625,0,0
707,-601,0,0,0,0,0,0,0,0,0,-1,1931,1625,0,0
714,-601,0,0,0,0,0,0,0,0,0,-1,1938,1625,0,0
721,-601,0,0,0,0,0,0,0,0,0,-1,1945,1625,0,0
728,-601,0,0,0,0,0,0,0,0,0,-1,1952,1625,0,0
735,-601,0,0,0,0,0,0,0,0,0,-1,1959,1625,0,0
742,-601,0,0,0,0,0,0,0,0,0,-1,1966,1625,0,0
749,-601,0,0,0,0,0,0,0,0,0,-1,1973,1625,0,0
756,-601,0,0,0,0,0,0,0,0,0,-1,1980,1625,0,0
763,-601,0,0,0,0,0,0,0,0,0,-1,1987,1625,0,0
770,-601,0,0,0,0,0,0,0,0,0,-1,1994,1625,0,0
777,-601,0,0,0,0,0,0,0,0,0,-1,2001,1625,0,0
784,-601,0,0,0,0,0,0,0,0,0,-1,2008,1625,0,0
791,-601,0,0,0,0,0,0,0,0,0,-1,2015,1625,0,0
798,-601,0,0,0,0,0,0,0,0,0,-1,2022,1625,0,0
805,-601,0,0,0,0,0,0,0,0,0,-1,2029,1625,0,0
812,-601,0,0,0,0,0,0,0,0,0,-1,2036,1625,0,0
-700,-608,0,0,0,0,0,0,0,0,0,-1,524,1632,0,0
-693,-608,0,0,0,0,0,0,0,0,0,-1,531,1632,0,0
-686,-608,0,0,0,0,0,0,0,0,0,-1,538,1632,0,0
-679,-608,0,0,0,0,0,0,0,0,0,-1,545,1632,0,0
-672,-608,0,0,0,0,0,0,0,0,0,-1,552,1632,0,0
-665,-608,0,0,0,0,0,0,0,0,0,-1,559,1632,0,0
-658,-608,0,0,0,0,0,0,0,0,0,-1,566,1632,0,0
-651,-608,0,0,0,0,0,0,0,0,0,-1,573,1632,0,0
-644,-608,0,0,0,0,0,0,0,0,0,-1,580,1632,0,0
-637,-608,0,0,0,0,0,0,0,0,0,-1,587,1632,0,0
-630,-608,0,0,0,0,0,0,0,0,0,-1,594,1632,0,0
-623,-608,0,0,0,0,0,0,0,0,0,-1,601,1632,0,0
-616,-608,0,0,0,0,0,0,0,0,0,-1,608,1632,0,0
-609,-608,0,0,0,0,0,0,0,0,0,-1,615,1632,0,0
-602,-608,0,0,0,0,0,0,0,0,0,-1,622,1632,0,0
-595,-608,0,0,0,0,0,0,0,0,0,-1,629,1632,0,0
-588,-608,0,0,0,0,0,0,0,0,0,-1,636,1632,0,0
-581,-608,0,0,0,0,0,0,0,0,0,-1,643,1632,0,0
-574,-608,0,0,0,0,0,0,0,0,0,-1,650,1632,0,0
-567,-608,0,0,0,0,0,0,0,0,0,-1,657,1632,0,0
-560,-608,0,0,0,0,0,0,0,0,0,-1,664,1632,0,0
-553,-608,0,0,0,0,0,0,0,0,0,-1,671,1632,0,0
-546,-608,0,0,0,0,0,0,0,0,0,-1,678,1632,0,0
-539,-608,0,0,0,0,0,0,0,0,0,-1,685,1632,0,0
-532,-608,0,0,0,0,0,0,0,0,0,-1,692,1632,0,0
-525,-608,0,0,0,0,0,0,0,0,0,-1,699,1632,0,0
-518,-608,0,0,0,0,0,0,0,0,0,-1,706,1632,0,0
-511,-608,0,0,0,0,0,0,0,0,0,-1,713,1632,0,0
-504,-608,0,0,0,0,0,0,0,0,0,-1,720,1632,0,0
-497,-608,0,0,0,0,0,0,0,0,0,-1,727,1632,0,0
-490,-608,0,0,0,0,0,0,0,0,0,-1,734,1632,0,0
-483,-608,0,0,0,0,0,0,0,0,0,-1,741,1632,0,0
-476,-608,0,0,0,0,0,0,0,0,0,-1,748,1632,0,0
-469,-608,0,0,0,0,0,0,0,0,0,-1,755,1632,0,0
-462,-608,0,0,0,0,0,0,0,0,0,-1,762,1632,0,0
-455,-608,0,0,0,0,0,0,0,0,0,-1,769,1632,0,0
-448,-608,0,0,0,0,0,0,0,0,0,-1,776,1632,0,0
-441,-608,-7.34601,2.78052,0,0,0,0,0,0,0,-1,783,1632,-7.346,-2.78056
-434,-608,-6.34558,3.27405,0,0,0,0,0,0,0,-1,790,1632,-6.34555,-3.27406
-427,-608,-7.74335,4.17688,0,0,0,0,0,0,0,-1,797,1632,-7.74334,-4.17693
-420,-608,-6.82794,4.34839,0,0,0,0,0,0,0,-1,804,1632,-6.82794,-4.34838
-413,-608,-5.41919,5.66138,0,0,0,0,0,0,0,-1,811,1632,-5.41917,-5.66133
-406,-608,-4.79681,4.98999,0,0,0,0,0,0,0,-1,818,1632,-4.79684,-4.98997
-399,-608,-2.60645,6.34167,0,0,0,0,0,0,0,-1,825,1632,-2.60643,-6.34169
-392,-608,2.08356,15.437,0,0,0,0,0,0,0,-1,832,1632,2.08354,-15.437
-385,-608,2.54272,19.782,0,0,0,0,0,0,0,-1,839,1632,2.54271,-19.782
-378,-608,2.8053,20.4476,0,0,0,0,0,0,0,-1,846,1632,2.80528,-20.4476
-371,-608,2.77515,20.5267,0,0,0,0,0,0,0,-1,853,1632,2.77513,-20.5268
-364,-608,2.91351,20.957,-0.00253305,-0.000472163,0.00148159,0.000302091,-0.0033073,1.08925,0.00231215,0.0296354,860,1632,2.91352,-20.957
-357,-608,2.83698,21.4445,-0.0019238,-4.22937e-05,0.00131669,0.000635189,-0.00260128,1.09559,0.00198017,0.0207441,867,1632,2.83699,-21.4444
-350,-608,2.84894,21.9586,-0.00132747,0.000319451,0.00117049,0.000927118,-0.00193513,1.09194,0.00168634,0.0193522,874,1632,2.84896,-21.9586
-343,-608,2.83728,22.3949,-0.000714026,0.000653668,0.00117423,0.00132867,-0.00138902,1.04908,0.00156919,0.0227979,881,1632,2.83726,-22.3949
-336,-608,2.80328,22.8289,-0.000114111,0.00106086,0.00114718,0.00176223,-0.000815485,1.02204,0.00152134,0.016059,888,1632,2.80327,-22.8289
-329,-608,2.79187,23.2295,0.000324365,0.00154981,0.00113185,0.00222414,-0.000349964,1.03349,0.00161213,0.0146338,895,1632,2.79189,-23.2295
-322,-608,2.79028,23.5924,0.000741982,0.00209043,0.00130308,0.00288338,-5.09693e-05,1.02414,0.00193947,0.0144015,902,1632,2.7903,-23.5924
-315,-608,2.79858,23.95,0.00112518,0.00244416,0.00146441,0.00339073,0.000178612,0.996967,0.00220336,0.0126821,909,1632,2.79858,-23.9499
-308,-608,2.76099,24.3549,0.00147678,0.00265635,0.00159108,0.00376344,0.000369694,0.962889,0.00239526,0.0130397,916,1632,2.76101,-24.3549
-301,-608,2.74841,24.7468,0.00189699,0.00289805,0.00170343,0.00417297,0.000622073,0.928294,0.00259955,0.0107739,923,1632,2.74838,-24.7468
-294,-608,2.74915,25.1185,0.00244506,0.0031907,0.0019349,0.00478837,0.000847384,0.880573,0.00295063,0.0109402,930,1632,2.74916,-25.1186
-287,-608,2.74713,25.5044,0.00289918,0.00356862,0.00212812,0.00538818,0.00107961,0.863401,0.0032918,0.0106447,937,1632,2.74714,-25.5043
-280,-608,2.76434,25.8724,0.00345074,0.00392455,0.00236736,0.00606683,0.00130846,0.835268,0.00368663,0.00862891,944,1632,2.76434,-25.8725
-273,-608,2.76056,26.2458,0.00407208,0.00416896,0.00261955,0.00674052,0.00150052,0.794643,0.00408639,0.00987354,951,1632,2.76057,-26.2459
-266,-608,2.76508,26.6444,0.00467208,0.00470316,0.00289894,0.0075866,0.00178864,0.788079,0.00457947,0.0109102,958,1632,2.76506,-26.6444
-259,-608,2.80328,27.0233,0.00535062,0.00537925,0.00331401,0.00867897,0.00205089,0.787558,0.00523794,0.0141248,965,1632,2.80327,-27.0233
-252,-608,2.81763,27.3942,0.00642656,0.00606577,0.00388624,0.0101366,0.00235574,0.762206,0.00612538,0.0265894,972,1632,2.81763,-27.3942
-245,-608,2.88361,27.889,0.00762632,0.00672542,0.00447261,0.0116711,0.00268064,0.735211,0.00705895,0.0379176,979,1632,2.8836,-27.889
-238,-608,2.89868,28.5092,0,0,0,0,0,0,0,-1,986,1632,2.89871,-28.5091
-231,-608,3.26025,27.5262,0,0,0,0,0,0,0,-1,993,1632,3.26023,-27.5263
-224,-608,2.51642,15.3452,0,0,0,0,0,0,0,-1,1000,1632,2.5164,-15.3452
-217,-608,1.04419,12.8451,0,0,0,0,0,0,0,-1,1007,1632,1.04418,-12.8451
-210,-608,2.75903,15.9414,0,0,0,0,0,0,0,-1,1014,1632,2.75903,-15.9414
-203,-608,2.76776,16.217,0,0,0,0,0,0,0,-1,1021,1632,2.76773,-16.217
-196,-608,1.53955,18.6058,0,0,0,0,0,0,0,-1,1028,1632,1.53959,-18.6058
-189,-608,1.37634,19.119,0,0,0,0,0,0,0,-1,1035,1632,1.37634,-19.1191
-182,-608,2.89221,16.7092,0,0,0,0,0,0,0,-1,1042,1632,2.89224,-16.7093
-175,-608,0.219116,15.1643,0,0,0,0,0,0,0,-1,1049,1632,0.219173,-15.1644
-168,-608,0.000366211,9.48645,0,0,0,0,0,0,0,-1,1056,1632,0.000317105,-9.48648
-161,-608,2.27832,15.4423,0,0,0,0,0,0,0,-1,1063,1632,2.27826,-15.4423
-154,-608,1.3999,16.4037,0,0,0,0,0,0,0,-1,1070,1632,1.39987,-16.4037
-147,-608,2.4386,9.50317,0,0,0,0,0,0,0,-1,1077,1632,2.43858,-9.50313
-140,-608,2.60132,10.8401,0,0,0,0,0,0,0,-1,1084,1632,2.60134,-10.8401
-133,-608,3.2312,12.4738,0,0,0,0,0,0,0,-1,1091,1632,3.23116,-12.4738
-126,-608,3.76465,13.9644,0,0,0,0,0,0,0,-1,1098,1632,3.76466,-13.9644
-119,-608,4.28906,15.4196,0,0,0,0,0,0,0,-1,1105,1632,4.28911,-15.4195
-112,-608,0.745117,10.5587,0,0,0,0,0,0,0,-1,1112,1632,0.745145,-10.5587
-105,-608,-0.252319,1.42419,0,0,0,0,0,0,0,-1,1119,1632,-0.252331,-1.42418
-98,-608,-2.8595,3.0863,0,0,0,0,0,0,0,-1,1126,1632,-2.85948,-3.08625
-91,-608,-3.71948,1.73608,0,0,0,0,0,0,0,-1,1133,1632,-3.7195,-1.73607
-84,-608,0,0,0,0,0,0,0,0,0,-1,1140,1632,0,0
-77,-608,0,0,0,0,0,0,0,0,0,-1,1147,1632,0,0
-70,-608,0,0,0,0,0,0,0,0,0,-1,1154,1632,0,0
-63,-608,0,0,0,0,0,0,0,0,0,-1,1161,1632,0,0
-56,-608,0,0,0,0,0,0,0,0,0,-1,1168,1632,0,0
-49,-608,0,0,0,0,0,0,0,0,0,-1,1175,1632,0,0
-42,-608,0,0,0,0,0,0,0,0,0,-1,1182,1632,0,0
-35,-608,0,0,0,0,0,0,0,0,0,-1,1189,1632,0,0
-28,-608,0,0,0,0,0,0,0,0,0,-1,1196,1632,0,0
-21,-608,0,0,0,0,0,0,0,0,0,-1,1203,1632,0,0
-14,-608,0,0,0,0,0,0,0,0,0,-1,1210,1632,0,0
-7,-608,0,0,0,0,0,0,0,0,0,-1,1217,1632,0,0
0,-608,0,0,0,0,0,0,0,0,0,-1,1224,1632,0,0
7,-608,0,0,0,0,0,0,0,0,0,-1,1231,1632,0,0
14,-608,0,0,0,0,0,0,0,0,0,-1,1238,1632,0,0
21,-608,0,0,0,0,0,0,0,0,0,-1,1245,1632,0,0
28,-608,0,0,0,0,0,0,0,0,0,-1,1252,1632,0,0
35,-608,0,0,0,0,0,0,0,0,0,-1,1259,1632,0,0
42,-608,0,0,0,0,0,0,0,0,0,-1,1266,1632,0,0
49,-608,0,0,0,0,0,0,0,0,0,-1,1273,1632,0,0
56,-608,0,0,0,0,0,0,0,0,0,-1,1280,1632,0,0
63,-608,0,0,0,0,0,0,0,0,0,-1,1287,1632,0,0
70,-608,0,0,0,0,0,0,0,0,0,-1,1294,1632,0,0
77,-608,0,0,0,0,0,0,0,0,0,-1,1301,1632,0,0
84,-608,0,0,0,0,0,0,0,0,0,-1,1308,1632,0,0
91,-608,0,0,0,0,0,0,0,0,0,-1,1315,1632,0,0
98,-608,0,0,0,0,0,0,0,0,0,-1,1322,1632,0,0
105,-608,0,0,0,0,0,0,0,0,0,-1,1329,1632,0,0
112,-608,0,0,0,0,0,0,0,0,0,-1,1336,1632,0,0
119,-608,0,0,0,0,0,0,0,0,0,-1,1343,1632,0,0
126,-608,0,0,0,0,0,0,0,0,0,-1,1350,1632,0,0
133,-608,0,0,0,0,0,0,0,0,0,-1,1357,1632,0,0
140,-608,0,0,0,0,0,0,0,0,0,-1,1364,1632,0,0
147,-608,0,0,0,0,0,0,0,0,0,-1,1371,1632,0,0
154,-608,0,0,0,0,0,0,0,0,0,-1,1378,1632,0,0
161,-608,0,0,0,0,0,0,0,0,0,-1,1385,1632,0,0
168,-608,0,0,0,0,0,0,0,0,0,-1,1392,1632,0,0
175,-608,0,0,0,0,0,0,0,0,0,-1,1399,1632,0,0
182,-608,0,0,0,0,0,0,0,0,0,-1,1406,1632,0,0
189,-608,0,0,0,0,0,0,0,0,0,-1,1413,1632,0,0
196,-608,0,0,0,0,0,0,0,0,0,-1,1420,1632,0,0
203,-608,0,0,0,0,0,0,0,0,0,-1,1427,1632,0,0
210,-608,5.7157,-0.333008,0,0,0,0,0,0,0,-1,1434,1632,5.71566,0.333004
217,-608,4.49402,-0.831787,0,0,0,0,0,0,0,-1,1441,1632,4.49396,0.831738
224,-608,4.18018,-1.11792,0,0,0,0,0,0,0,-1,1448,1632,4.1802,1.11796
231,-608,0.361816,0.825195,0,0,0,0,0,0,0,-1,1455,1632,0.36185,-0.825226
238,-608,2.85388,-0.28833,0,0,0,0,0,0,0,-1,1462,1632,2.85391,0.288282
245,-608,3.87537,4.02173,0,0,0,0,0,0,0,-1,1469,1632,3.87538,-4.02168
252,-608,5.66956,3.5282,0,0,0,0,0,0,0,-1,1476,1632,5.6696,-3.52815
259,-608,7.47437,3.07178,0,0,0,0,0,0,0,-1,1483,1632,7.4744,-3.07172
266,-608,9.46936,2.34766,0,0,0,0,0,0,0,-1,1490,1632,9.46932,-2.34764
273,-608,6.03003,3.34241,0,0,0,0,0,0,0,-1,1497,1632,6.02997,-3.34245
280,-608,5.72461,2.0769,0,0,0,0,0,0,0,-1,1504,1632,5.72457,-2.07688
287,-608,6.20581,3.59338,0,0,0,0,0,0,0,-1,1511,1632,6.20585,-3.59341
294,-608,6.94922,5.17151,0,0,0,0,0,0,0,-1,1518,1632,6.94925,-5.17151
301,-608,7.60083,6.68018,0,0,0,0,0,0,0,-1,1525,1632,7.60086,-6.68013
308,-608,7.64746,9.93848,0,0,0,0,0,0,0,-1,1532,1632,7.64745,-9.93842
315,-608,5.30688,11.2054,0,0,0,0,0,0,0,-1,1539,1632,5.30694,-11.2054
322,-608,5.32617,13.7581,0,0,0,0,0,0,0,-1,1546,1632,5.32613,-13.758
329,-608,7.12231,13.9607,0,0,0,0,0,0,0,-1,1553,1632,7.12231,-13.9607
336,-608,5.48633,7.82446,0,0,0,0,0,0,0,-1,1560,1632,5.48634,-7.82446
343,-608,5.47192,5.61047,0,0,0,0,0,0,0,-1,1567,1632,5.47192,-5.61045
350,-608,11.6957,1.71387,0,0,0,0,0,0,0,-1,1574,1632,11.6957,-1.71388
357,-608,3.77002,5.10046,0,0,0,0,0,0,0,-1,1581,1632,3.77002,-5.10043
364,-608,5.6925,11.2163,0,0,0,0,0,0,0,-1,1588,1632,5.69255,-11.2163
371,-608,12.2159,29.0469,0,0,0,0,0,0,0,-1,1595,1632,12.2159,-29.0469
378,-608,11.9941,28.6086,0.000954269,0.0156934,0.000409568,0.0157048,0.000942896,1.54304,0.0101701,0.0432269,1602,1632,11.9941,-28.6087
385,-608,11.9014,28.1049,5.74926e-05,0.0136383,0.000845731,0.0136908,5.02821e-06,1.50884,0.00912553,0.0391567,1609,1632,11.9014,-28.1048
392,-608,11.9235,27.569,-0.00054582,0.0118491,0.00132911,0.01199,-0.00068674,1.46517,0.0082318,0.0220019,1616,1632,11.9234,-27.5689
399,-608,11.9485,27.1973,-0.00094083,0.0102006,0.00168384,0.0104495,-0.00118975,1.42403,0.00739491,0.0114604,1623,1632,11.9485,-27.1972
406,-608,11.9779,26.8334,-0.0013366,0.00871992,0.00182551,0.00904104,-0.00165772,1.39667,0.00664918,0.00975238,1630,1632,11.9779,-26.8334
413,-608,11.9675,26.5062,-0.00158271,0.00754853,0.00168084,0.0078481,-0.00188228,1.39442,0.00595942,0.010099,1637,1632,11.9675,-26.5062
420,-608,11.947,26.1785,-0.00163428,0.00637923,0.00146981,0.00664031,-0.00189536,1.395,0.00517567,0.0166837,1644,1632,11.947,-26.1784
427,-608,11.9825,25.7831,-0.00150729,0.00551387,0.00109405,0.0056804,-0.00167382,1.41974,0.00445105,0.0181338,1651,1632,11.9825,-25.7831
434,-608,12.004,25.4327,-0.00120572,0.00451094,0.000668979,0.00458818,-0.00128296,1.45584,0.00356426,0.015131,1658,1632,12.004,-25.4327
441,-608,11.9779,25.084,-0.000823323,0.00367819,0.000191872,0.00368636,-0.000831486,1.52828,0.00277655,0.0142255,1665,1632,11.9779,-25.084
448,-608,11.9727,24.7534,-0.000423704,0.00287049,-0.000231904,0.00288673,-0.000439949,-1.50086,0.00208666,0.0152338,1672,1632,11.9726,-24.7534
455,-608,11.9949,24.3521,-6.17744e-05,0.00204536,-0.000678044,0.00224469,-0.000261103,-1.28488,0.00159065,0.0112258,1679,1632,11.9949,-24.352
462,-608,11.9637,23.974,0.000171855,0.00114653,-0.000896581,0.00167966,-0.000361275,-1.03434,0.00125762,0.0107535,1686,1632,11.9637,-23.974
469,-608,11.9352,23.6166,0.000436504,0.000201306,-0.00104166,0.00136718,-0.000729368,-0.729188,0.00122897,0.00820842,1693,1632,11.9351,-23.6166
476,-608,11.9065,23.2396,0.000509831,-0.000713677,-0.00101159,0.00108026,-0.00128411,-0.513448,0.00136676,0.00876705,1700,1632,11.9065,-23.2396
483,-608,11.8898,22.8494,0.000274404,-0.0015942,-0.000843907,0.000599109,-0.0019189,-0.367304,0.00151888,0.00861851,1707,1632,11.8897,-22.8494
490,-608,11.8958,22.4655,-0.000215363,-0.00244506,-0.000618215,-5.54258e-05,-0.00260499,-0.253157,0.00171849,0.0094131,1714,1632,11.8957,-22.4655
497,-608,11.9304,22.0662,-0.00107114,-0.00311469,-0.000170438,-0.00105703,-0.00312881,-0.0826419,0.00183782,0.0191113,1721,1632,11.9305,-22.0661
504,-608,11.8616,21.6973,-0.00237615,-0.00390873,0.000730716,-0.00208359,-0.00420128,0.380819,0.00242564,0.0434995,1728,1632,11.8616,-21.6972
511,-608,11.5387,21.3195,-0.00387279,-0.0050812,0.0017403,-0.00263479,-0.0063192,0.618315,0.00366513,0.0495489,1735,1632,11.5387,-21.3194
518,-608,11.2764,20.9203,0,0,0,0,0,0,0,-1,1742,1632,11.2763,-20.9202
525,-608,11.2109,16.2579,0,0,0,0,0,0,0,-1,1749,1632,11.2109,-16.2579
532,-608,8.27917,11.6693,0,0,0,0,0,0,0,-1,1756,1632,8.27919,-11.6694
539,-608,9.40796,1.43457,0,0,0,0,0,0,0,-1,1763,1632,9.40801,-1.43463
546,-608,9.94031,2.1134,0,0,0,0,0,0,0,-1,1770,1632,9.94031,-2.11346
553,-608,10.363,2.81335,0,0,0,0,0,0,0,-1,1777,1632,10.3631,-2.81333
560,-608,9.23999,4.5636,0,0,0,0,0,0,0,-1,1784,1632,9.24,-4.56354
567,-608,0,0,0,0,0,0,0,0,0,-1,1791,1632,0,0
574,-608,0,0,0,0,0,0,0,0,0,-1,1798,1632,0,0
581,-608,0,0,0,0,0,0,0,0,0,-1,1805,1632,0,0
588,-608,0,0,0,0,0,0,0,0,0,-1,1812,1632,0,0
595,-608,0,0,0,0,0,0,0,0,0,-1,1819,1632,0,0
602,-608,0,0,0,0,0,0,0,0,0,-1,1826,1632,0,0
609,-608,0,0,0,0,0,0,0,0,0,-1,1833,1632,0,0
616,-608,0,0,0,0,0,0,0,0,0,-1,1840,1632,0,0
623,-608,0,0,0,0,0,0,0,0,0,-1,1847,1632,0,0
630,-608,0,0,0,0,0,0,0,0,0,-1,1854,1632,0,0
637,-608,0,0,0,0,0,0,0,0,0,-1,1861,1632,0,0
644,-608,0,0,0,0,0,0,0,0,0,-1,1868,1632,0,0
651,-608,0,0,0,0,0,0,0,0,0,-1,1875,1632,0,0
658,-608,0,0,0,0,0,0,0,0,0,-1,1882,1632,0,0
665,-608,0,0,0,0,0,0,0,0,0,-1,1889,1632,0,0
672,-608,0,0,0,0,0,0,0,0,0,-1,1896,1632,0,0
679,-608,0,0,0,0,0,0,0,0,0,-1,1903,1632,0,0
686,-608,0,0,0,0,0,0,0,0,0,-1,1910,1632,0,0
693,-608,0,0,0,0,0,0,0,0,0,-1,1917,1632,0,0
700,-608,0,0,0,0,0,0,0,0,0,-1,1924,1632,0,0
707,-608,0,0,0,0,0,0,0,0,0,-1,1931,1632,0,0
714,-608,0,0,0,0,0,0,0,0,0,-1,1938,1632,0,0
721,-608,0,0,0,0,0,0,0,0,0,-1,1945,1632,0,0
728,-608,0,0,0,0,0,0,0,0,0,-1,1952,1632,0,0
735,-608,0,0,0,0,0,0,0,0,0,-1,1959,1632,0,0
742,-608,0,0,0,0,0,0,0,0,0,-1,1966,1632,0,0
749,-608,0,0,0,0,0,0,0,0,0,-1,1973,1632,0,0
756,-608,0,0,0,0,0,0,0,0,0,-1,1980,1632,0,0
763,-608,0,0,0,0,0,0,0,0,0,-1,1987,1632,0,0
770,-608,0,0,0,0,0,0,0,0,0,-1,1994,1632,0,0
777,-608,0,0,0,0,0,0,0,0,0,-1,2001,1632,0,0
784,-608,0,0,0,0,0,0,0,0,0,-1,2008,1632,0,0
791,-608,0,0,0,0,0,0,0,0,0,-1,2015,1632,0,0
798,-608,0,0,0,0,0,0,0,0,0,-1,2022,1632,0,0
805,-608,0,0,0,0,0,0,0,0,0,-1,2029,1632,0,0
812,-608,0,0,0,0,0,0,0,0,0,-1,2036,1632,0,0
-700,-615,0,0,0,0,0,0,0,0,0,-1,524,1639,0,0
-693,-615,0,0,0,0,0,0,0,0,0,-1,531,1639,0,0
-686,-615,0,0,0,0,0,0,0,0,0,-1,538,1639,0,0
-679,-615,0,0,0,0,0,0,0,0,0,-1,545,1639,0,0
-672,-615,0,0,0,0,0,0,0,0,0,-1,552,1639,0,0
-665,-615,0,0,0,0,0,0,0,0,0,-1,559,1639,0,0
-658,-615,0,0,0,0,0,0,0,0,0,-1,566,1639,0,0
-651,-615,0,0,0,0,0,0,0,0,0,-1,573,1639,0,0
-644,-615,0,0,0,0,0,0,0,0,0,-1,580,1639,0,0
-637,-615,0,0,0,0,0,0,0,0,0,-1,587,1639,0,0
-630,-615,0,0,0,0,0,0,0,0,0,-1,594,1639,0,0
-623,-615,0,0,0,0,0,0,0,0,0,-1,601,1639,0,0
-616,-615,0,0,0,0,0,0,0,0,0,-1,608,1639,0,0
-609,-615,0,0,0,0,0,0,0,0,0,-1,615,1639,0,0
-602,-615,0,0,0,0,0,0,0,0,0,-1,622,1639,0,0
-595,-615,0,0,0,0,0,0,0,0,0,-1,629,1639,0,0
-588,-615,0,0,0,0,0,0,0,0,0,-1,636,1639,0,0
-581,-615,0,0,0,0,0,0,0,0,0,-1,643,1639,0,0
-574,-615,0,0,0,0,0,0,0,0,0,-1,650,1639,0,0
-567,-615,0,0,0,0,0,0,0,0,0,-1,657,1639,0,0
-560,-615,0,0,0,0,0,0,0,0,0,-1,664,1639,0,0
-553,-615,0,0,0,0,0,0,0,0,0,-1,671,1639,0,0
-546,-615,0,0,0,0,0,0,0,0,0,-1,678,1639,0,0
-539,-615,0,0,0,0,0,0,0,0,0,-1,685,1639,0,0
-532,-615,0,0,0,0,0,0,0,0,0,-1,692,1639,0,0
-525,-615,0,0,0,0,0,0,0,0,0,-1,699,1639,0,0
-518,-615,0,0,0,0,0,0,0,0,0,-1,706,1639,0,0
-511,-615,0,0,0,0,0,0,0,0,0,-1,713,1639,0,0
-504,-615,0,0,0,0,0,0,0,0,0,-1,720,1639,0,0
-497,-615,0,0,0,0,0,0,0,0,0,-1,727,1639,0,0
-490,-615,0,0,0,0,0,0,0,0,0,-1,734,1639,0,0
-483,-615,0,0,0,0,0,0,0,0,0,-1,741,1639,0,0
-476,-615,0,0,0,0,0,0,0,0,0,-1,748,1639,0,0
-469,-615,0,0,0,0,0,0,0,0,0,-1,755,1639,0,0
-462,-615,0,0,0,0,0,0,0,0,0,-1,762,1639,0,0
-455,-615,0,0,0,0,0,0,0,0,0,-1,769,1639,0,0
-448,-615,0,0,0,0,0,0,0,0,0,-1,776,1639,0,0
-441,-615,0,0,0,0,0,0,0,0,0,-1,783,1639,0,0
-434,-615,-7.64508,2.98596,0,0,0,0,0,0,0,-1,790,1639,-7.64505,-2.98594
-427,-615,-9.0011,2.89404,0,0,0,0,0,0,0,-1,797,1639,-9.00107,-2.89399
-420,-615,-8.07568,3.0752,0,0,0,0,0,0,0,-1,804,1639,-8.07569,-3.07514
-413,-615,-7.09149,3.396,0,0,0,0,0,0,0,-1,811,1639,-7.09147,-3.39599
-406,-615,-6.21368,3.7312,0,0,0,0,0,0,0,-1,818,1639,-6.21366,-3.73114
-399,-615,-4.84875,3.91907,0,0,0,0,0,0,0,-1,825,1639,-4.84877,-3.91901
-392,-615,1.7395,13.3127,0,0,0,0,0,0,0,-1,832,1639,1.73953,-13.3128
-385,-615,3.42297,14.9401,0,0,0,0,0,0,0,-1,839,1639,3.42296,-14.94
-378,-615,2.54102,17.2609,0,0,0,0,0,0,0,-1,846,1639,2.54099,-17.2608
-371,-615,3.18335,20.0781,0,0,0,0,0,0,0,-1,853,1639,3.18334,-20.0782
-364,-615,3.19928,21.108,0,0,0,0,0,0,0,-1,860,1639,3.19925,-21.1081
-357,-615,3.34631,21.6906,-0.00255823,0.000886597,0.00169033,0.00157746,-0.00324909,1.1828,0.00284178,0.0427956,867,1639,3.3463,-21.6905
-350,-615,3.22235,22.0278,-0.00199833,0.0012817,0.0014932,0.00185964,-0.00257626,1.20151,0.00257218,0.0338953,874,1639,3.22233,-22.0279
-343,-615,3.19794,22.3589,-0.00141912,0.00153402,0.00140116,0.00209301,-0.00197811,1.1912,0.00235077,0.0193413,881,1639,3.19795,-22.3589
-336,-615,3.20441,22.7938,-0.000860317,0.00182164,0.00127229,0.00232916,-0.00136783,1.19124,0.00215838,0.0103323,888,1639,3.20441,-22.7938
-329,-615,3.1806,23.2043,-0.000489482,0.00221194,0.00116387,0.0026442,-0.000921747,1.21518,0.00213736,0.0102632,895,1639,3.18058,-23.2043
-322,-615,3.1767,23.6115,-0.000104675,0.00260989,0.00125379,0.00310037,-0.000595152,1.1979,0.00229121,0.0111187,902,1639,3.17672,-23.6114
-315,-615,3.18768,24.0065,0.000262324,0.00276825,0.00133976,0.00334964,-0.00031907,1.16137,0.00234669,0.0130197,909,1639,3.18769,-24.0065
-308,-615,3.14087,24.4,0.00061859,0.00277806,0.00139367,0.00346131,-6.46663e-05,1.11497,0.0023294,0.0188816,916,1639,3.14085,-24.4
-301,-615,3.14209,24.7505,0.00103956,0.00286369,0.00143851,0.00365491,0.000248348,1.06793,0.00235818,0.0125523,923,1639,3.14206,-24.7505
-294,-615,3.138,25.1069,0.00155637,0.00295156,0.00156355,0.00396608,0.000541848,0.995226,0.00248322,0.0105869,930,1639,3.138,-25.1069
-287,-615,3.10846,25.4967,0.00198624,0.003132,0.00166919,0.00432388,0.000794352,0.950704,0.00265768,0.00821578,937,1639,3.10847,-25.4967
-280,-615,3.11981,25.8708,0.00249978,0.00331287,0.00182521,0.00477626,0.00103639,0.894979,0.00290109,0.00921098,944,1639,3.11978,-25.8709
-273,-615,3.1153,26.243,0.00308923,0.00343422,0.00200361,0.00527276,0.0012507,0.828338,0.0031813,0.0105483,951,1639,3.11529,-26.2431
-266,-615,3.11029,26.6113,0.00365045,0.00376759,0.00220484,0.00591464,0.0015034,0.798677,0.00354972,0.0107418,958,1639,3.11026,-26.6113
-259,-615,3.12714,26.9604,0.00428619,0.00431925,0.00249144,0.00679422,0.00181122,0.788716,0.00406263,0.0119492,965,1639,3.12712,-26.9604
-252,-615,3.13409,27.3539,0.00516327,0.00496041,0.00289523,0.00795885,0.00216484,0.767888,0.00475162,0.0144955,972,1639,3.1341,-27.3539
-245,-615,3.20435,27.7887,0.00611299,0.00559606,0.00331885,0.00918342,0.00252562,0.746538,0.00547804,0.0212861,979,1639,3.20437,-27.7887
-238,-615,3.21729,28.2118,0.00717901,0.00603667,0.00366808,0.0103201,0.00289556,0.708162,0.0061466,0.0327779,986,1639,3.21726,-28.2118
-231,-615,3.22278,28.7008,0,0,0,0,0,0,0,-1,993,1639,3.22278,-28.7008
-224,-615,3.47351,28.6846,0,0,0,0,0,0,0,-1,1000,1639,3.47351,-28.6846
-217,-615,3.99097,27.3737,0,0,0,0,0,0,0,-1,1007,1639,3.99096,-27.3736
-210,-615,2.48901,18.9324,0,0,0,0,0,0,0,-1,1014,1639,2.48902,-18.9323
-203,-615,2.13684,18.6173,0,0,0,0,0,0,0,-1,1021,1639,2.13683,-18.6173
-196,-615,4.27161,21.3264,0,0,0,0,0,0,0,-1,1028,1639,4.27165,-21.3264
-189,-615,1.8269,19.6761,0,0,0,0,0,0,0,-1,1035,1639,1.82691,-19.6761
-182,-615,1.63489,20.2278,0,0,0,0,0,0,0,-1,1042,1639,1.63492,-20.2277
-175,-615,-0.609985,13.8434,0,0,0,0,0,0,0,-1,1049,1639,-0.610016,-13.8434
-168,-615,3.85754,15.472,0,0,0,0,0,0,0,-1,1056,1639,3.85757,-15.472
-161,-615,2.44141,28.2932,0,0,0,0,0,0,0,-1,1063,1639,2.44135,-28.2933
-154,-615,2.42737,24.3593,0,0,0,0,0,0,0,-1,1070,1639,2.42742,-24.3593
-147,-615,1.52502,17.3442,0,0,0,0,0,0,0,-1,1077,1639,1.52501,-17.3442
-140,-615,3.73401,10.2349,0,0,0,0,0,0,0,-1,1084,1639,3.73402,-10.2348
-133,-615,2.6178,17.45,0,0,0,0,0,0,0,-1,1091,1639,2.61776,-17.4499
-126,-615,4.43408,12.5017,0,0,0,0,0,0,0,-1,1098,1639,4.43403,-12.5018
-119,-615,4.82983,13.9279,0,0,0,0,0,0,0,-1,1105,1639,4.82986,-13.9278
-112,-615,3.65698,14.4874,0,0,0,0,0,0,0,-1,1112,1639,3.65695,-14.4875
-105,-615,0.958496,2.45398,0,0,0,0,0,0,0,-1,1119,1639,0.958452,-2.45398
-98,-615,-0.647705,2.12109,0,0,0,0,0,0,0,-1,1126,1639,-0.647756,-2.12105
-91,-615,-3.07983,2.97375,0,0,0,0,0,0,0,-1,1133,1639,-3.07989,-2.97376
-84,-615,-2.46509,0.703247,0,0,0,0,0,0,0,-1,1140,1639,-2.46505,-0.703273
-77,-615,-3.17859,1.23755,0,0,0,0,0,0,0,-1,1147,1639,-3.17865,-1.23752
-70,-615,-4.03943,1.43335,0,0,0,0,0,0,0,-1,1154,1639,-4.03942,-1.43339
-63,-615,-4.8877,1.45544,0,0,0,0,0,0,0,-1,1161,1639,-4.88766,-1.45549
-56,-615,0,0,0,0,0,0,0,0,0,-1,1168,1639,0,0
-49,-615,0,0,0,0,0,0,0,0,0,-1,1175,1639,0,0
-42,-615,0,0,0,0,0,0,0,0,0,-1,1182,1639,0,0
-35,-615,0,0,0,0,0,0,0,0,0,-1,1189,1639,0,0
-28,-615,0,0,0,0,0,0,0,0,0,-1,1196,1639,0,0
-21,-615,0,0,0,0,0,0,0,0,0,-1,1203,1639,0,0
-14,-615,0,0,0,0,0,0,0,0,0,-1,1210,1639,0,0
-7,-615,0,0,0,0,0,0,0,0,0,-1,1217,1639,0,0
0,-615,0,0,0,0,0,0,0,0,0,-1,1224,1639,0,0
7,-615,0,0,0,0,0,0,0,0,0,-1,1231,1639,0,0
14,-615,0,0,0,0,0,0,0,0,0,-1,1238,1639,0,0
21,-615,0,0,0,0,0,0,0,0,0,-1,1245,1639,0,0
28,-615,0,0,0,0,0,0,0,0,0,-1,1252,1639,0,0
35,-615,0,0,0,0,0,0,0,0,0,-1,1259,1639,0,0
42,-615,0,0,0,0,0,0,0,0,0,-1,1266,1639,0,0
49,-615,0,0,0,0,0,0,0,0,0,-1,1273,1639,0,0
56,-615,0,0,0,0,0,0,0,0,0,-1,1280,1639,0,0
63,-615,0,0,0,0,0,0,0,0,0,-1,1287,1639,0,0
70,-615,0,0,0,0,0,0,0,0,0,-1,1294,1639,0,0
77,-615,0,0,0,0,0,0,0,0,0,-1,1301,1639,0,0
84,-615,0,0,0,0,0,0,0,0,0,-1,1308,1639,0,0
91,-615,0,0,0,0,0,0,0,0,0,-1,1315,1639,0,0
98,-615,0,0,0,0,0,0,0,0,0,-1,1322,1639,0,0
105,-615,0,0,0,0,0,0,0,0,0,-1,1329,1639,0,0
112,-615,0,0,0,0,0,0,0,0,0,-1,1336,1639,0,0
119,-615,0,0,0,0,0,0,0,0,0,-1,1343,1639,0,0
126,-615,0,0,0,0,0,0,0,0,0,-1,1350,1639,0,0
133,-615,0,0,0,0,0,0,0,0,0,-1,1357,1639,0,0
140,-615,0,0,0,0,0,0,0,0,0,-1,1364,1639,0,0
147,-615,0,0,0,0,0,0,0,0,0,-1,1371,1639,0,0
154,-615,0,0,0,0,0,0,0,0,0,-1,1378,1639,0,0
161,-615,0,0,0,0,0,0,0,0,0,-1,1385,1639,0,0
168,-615,0,0,0,0,0,0,0,0,0,-1,1392,1639,0,0
175,-615,5.39648,-2.00879,0,0,0,0,0,0,0,-1,1399,1639,5.3965,2.00881
182,-615,5.65393,-1.51025,0,0,0,0,0,0,0,-1,1406,1639,5.65388,1.51028
189,-615,5.58972,-1.35608,0,0,0,0,0,0,0,-1,1413,1639,5.58967,1.35607
196,-615,5.49915,-0.693604,0,0,0,0,0,0,0,-1,1420,1639,5.4991,0.693602
203,-615,5.33411,-0.226685,0,0,0,0,0,0,0,-1,1427,1639,5.33414,0.226689
210,-615,5.60278,0.108276,0,0,0,0,0,0,0,-1,1434,1639,5.60284,-0.10831
217,-615,6.26331,-0.307373,0,0,0,0,0,0,0,-1,1441,1639,6.26331,0.307372
224,-615,5.45422,-0.333984,0,0,0,0,0,0,0,-1,1448,1639,5.45422,0.333992
231,-615,4.92542,1.80298,0,0,0,0,0,0,0,-1,1455,1639,4.92537,-1.80297
238,-615,4.76355,1.96729,0,0,0,0,0,0,0,-1,1462,1639,4.76357,-1.96734
245,-615,4.08643,3.15906,0,0,0,0,0,0,0,-1,1469,1639,4.08638,-3.159
252,-615,6.37805,3.73889,0,0,0,0,0,0,0,-1,1476,1639,6.37806,-3.73891
259,-615,8.35974,3.16443,0,0,0,0,0,0,0,-1,1483,1639,8.35975,-3.16444
266,-615,10.3414,2.58997,0,0,0,0,0,0,0,-1,1490,1639,10.3414,-2.58996
273,-615,6.57043,1.84766,0,0,0,0,0,0,0,-1,1497,1639,6.5704,-1.84771
280,-615,7.10449,3.23438,0,0,0,0,0,0,0,-1,1504,1639,7.10447,-3.23435
287,-615,7.35779,4.68542,0,0,0,0,0,0,0,-1,1511,1639,7.35776,-4.68546
294,-615,7.63733,6.29114,0,0,0,0,0,0,0,-1,1518,1639,7.63735,-6.29109
301,-615,8.47925,11.452,0,0,0,0,0,0,0,-1,1525,1639,8.47922,-11.452
308,-615,6.8114,10.9059,0,0,0,0,0,0,0,-1,1532,1639,6.81137,-10.9058
315,-615,5.1427,14.7251,0,0,0,0,0,0,0,-1,1539,1639,5.14269,-14.7251
322,-615,7.17981,17.6864,0,0,0,0,0,0,0,-1,1546,1639,7.17985,-17.6864
329,-615,7.62134,20.4354,0,0,0,0,0,0,0,-1,1553,1639,7.62139,-20.4354
336,-615,6.45007,14.1138,0,0,0,0,0,0,0,-1,1560,1639,6.45011,-14.1138
343,-615,2.40491,6.50134,0,0,0,0,0,0,0,-1,1567,1639,2.40489,-6.50137
350,-615,6.4458,15.4594,0,0,0,0,0,0,0,-1,1574,1639,6.44578,-15.4593
357,-615,10.077,27.4594,0,0,0,0,0,0,0,-1,1581,1639,10.0771,-27.4594
364,-615,11.5027,29.557,0,0,0,0,0,0,0,-1,1588,1639,11.5027,-29.557
371,-615,11.7587,28.5839,0,0,0,0,0,0,0,-1,1595,1639,11.7587,-28.5838
378,-615,11.6431,28.2173,0.00123652,0.0123024,-2.71589e-05,0.0123024,0.00123645,-1.56834,0.00782211,0.0209053,1602,1639,11.6431,-28.2173
385,-615,11.5735,27.8605,0.000546147,0.0107642,0.000266289,0.0107711,0.000539212,1.54476,0.00700793,0.0123878,1609,1639,11.5735,-27.8605
392,-615,11.603,27.5178,9.94206e-05,0.00932768,0.00059072,0.00936534,6.17611e-05,1.50713,0.00622307,0.0105434,1616,1639,11.603,-27.5178
399,-615,11.6093,27.1775,-0.000203734,0.00790994,0.000873284,0.00800287,-0.000296662,1.46478,0.00543683,0.0119869,1623,1639,11.6093,-27.1774
406,-615,11.6105,26.8402,-0.000534308,0.00662221,0.00101603,0.00676366,-0.00067576,1.43246,0.00475041,0.0117678,1630,1639,11.6105,-26.8402
413,-615,11.6089,26.5128,-0.000742789,0.00556483,0.00094163,0.0057024,-0.00088036,1.42572,0.00412648,0.0123615,1637,1639,11.6089,-26.5128
420,-615,11.6105,26.1786,-0.000826749,0.00446927,0.000841612,0.00459979,-0.000957276,1.41693,0.00343043,0.0133789,1644,1639,11.6105,-26.1786
427,-615,11.6273,25.7938,-0.000758941,0.00369599,0.000592889,0.00377354,-0.000836496,1.44073,0.00283595,0.0146604,1651,1639,11.6273,-25.7938
434,-615,11.629,25.4519,-0.000526554,0.00282758,0.000251004,0.00284626,-0.000545234,1.49651,0.00210294,0.0137538,1658,1639,11.629,-25.4519
441,-615,11.6216,25.0887,-0.000217389,0.00211039,-0.000148205,0.00211979,-0.000226787,-1.50747,0.00149454,0.0149291,1665,1639,11.6216,-25.0887
448,-615,11.6038,24.7329,0.00011204,0.00141244,-0.000505786,0.001586,-6.15194e-05,-1.24024,0.00107842,0.0154998,1672,1639,11.6038,-24.733
455,-615,11.604,24.363,0.000420236,0.000703094,-0.000880442,0.00145339,-0.000330064,-0.865035,0.00109565,0.0138586,1679,1639,11.604,-24.3631
462,-615,11.5709,23.9825,0.000584526,-4.93674e-05,-0.00103984,0.00135465,-0.000819487,-0.637469,0.00126785,0.0149221,1686,1639,11.5709,-23.9826
469,-615,11.5553,23.6124,0.000801477,-0.00083193,-0.0011686,0.00141048,-0.00144093,-0.480413,0.00164629,0.0122811,1693,1639,11.5554,-23.6124
476,-615,11.5453,23.2391,0.000860004,-0.00159708,-0.00116619,0.00132536,-0.00206244,-0.379683,0.00197132,0.0109487,1700,1639,11.5453,-23.2391
483,-615,11.554,22.8169,0.000560824,-0.00230312,-0.000997445,0.000873971,-0.00261627,-0.304204,0.00209711,0.0170006,1707,1639,11.554,-22.8169
490,-615,11.5649,22.4565,1.90006e-05,-0.00303049,-0.000834044,0.000232207,-0.0032437,-0.25027,0.00224388,0.0237417,1714,1639,11.565,-22.4565
497,-615,11.5253,22.1912,-0.00090462,-0.00355279,-0.000360989,-0.000856293,-0.00360112,-0.133082,0.00217232,0.0347557,1721,1639,11.5253,-22.1912
504,-615,11.6001,21.8707,0,0,0,0,0,0,0,-1,1728,1639,11.6001,-21.8708
511,-615,10.9446,21.3099,0,0,0,0,0,0,0,-1,1735,1639,10.9446,-21.31
518,-615,13.2416,9.81812,0,0,0,0,0,0,0,-1,1742,1639,13.2416,-9.81813
525,-615,4.37524,3.90491,0,0,0,0,0,0,0,-1,1749,1639,4.37518,-3.90495
532,-615,7.3645,0.848145,0,0,0,0,0,0,0,-1,1756,1639,7.36451,-0.848093
539,-615,12.8112,-0.0476074,0,0,0,0,0,0,0,-1,1763,1639,12.8111,0.0475553
546,-615,8.33813,2.94556,0,0,0,0,0,0,0,-1,1770,1639,8.33813,-2.9455
553,-615,5.82532,-2.04199,0,0,0,0,0,0,0,-1,1777,1639,5.82534,2.04195
560,-615,0,0,0,0,0,0,0,0,0,-1,1784,1639,0,0
567,-615,0,0,0,0,0,0,0,0,0,-1,1791,1639,0,0
574,-615,0,0,0,0,0,0,0,0,0,-1,1798,1639,0,0
581,-615,0,0,0,0,0,0,0,0,0,-1,1805,1639,0,0
588,-615,0,0,0,0,0,0,0,0,0,-1,1812,1639,0,0
595,-615,0,0,0,0,0,0,0,0,0,-1,1819,1639,0,0
602,-615,0,0,0,0,0,0,0,0,0,-1,1826,1639,0,0
609,-615,0,0,0,0,0,0,0,0,0,-1,1833,1639,0,0
616,-615,0,0,0,0,0,0,0,0,0,-1,1840,1639,0,0
623,-615,0,0,0,0,0,0,0,0,0,-1,1847,1639,0,0
630,-615,0,0,0,0,0,0,0,0,0,-1,1854,1639,0,0
637,-615,0,0,0,0,0,0,0,0,0,-1,1861,1639,0,0
644,-615,0,0,0,0,0,0,0,0,0,-1,1868,1639,0,0
651,-615,0,0,0,0,0,0,0,0,0,-1,1875,1639,0,0
658,-615,0,0,0,0,0,0,0,0,0,-1,1882,1639,0,0
665,-615,0,0,0,0,0,0,0,0,0,-1,1889,1639,0,0
672,-615,0,0,0,0,0,0,0,0,0,-1,1896,1639,0,0
679,-615,0,0,0,0,0,0,0,0,0,-1,1903,1639,0,0
686,-615,0,0,0,0,0,0,0,0,0,-1,1910,1639,0,0
693,-615,0,0,0,0,0,0,0,0,0,-1,1917,1639,0,0
700,-615,0,0,0,0,0,0,0,0,0,-1,1924,1639,0,0
707,-615,0,0,0,0,0,0,0,0,0,-1,1931,1639,0,0
714,-615,0,0,0,0,0,0,0,0,0,-1,1938,1639,0,0
721,-615,0,0,0,0,0,0,0,0,0,-1,1945,1639,0,0
728,-615,0,0,0,0,0,0,0,0,0,-1,1952,1639,0,0
735,-615,0,0,0,0,0,0,0,0,0,-1,1959,1639,0,0
742,-615,0,0,0,0,0,0,0,0,0,-1,1966,1639,0,0
749,-615,0,0,0,0,0,0,0,0,0,-1,1973,1639,0,0
756,-615,0,0,0,0,0,0,0,0,0,-1,1980,1639,0,0
763,-615,0,0,0,0,0,0,0,0,0,-1,1987,1639,0,0
770,-615,0,0,0,0,0,0,0,0,0,-1,1994,1639,0,0
777,-615,0,0,0,0,0,0,0,0,0,-1,2001,1639,0,0
784,-615,0,0,0,0,0,0,0,0,0,-1,2008,1639,0,0
791,-615,0,0,0,0,0,0,0,0,0,-1,2015,1639,0,0
798,-615,0,0,0,0,0,0,0,0,0,-1,2022,1639,0,0
805,-615,0,0,0,0,0,0,0,0,0,-1,2029,1639,0,0
812,-615,0,0,0,0,0,0,0,0,0,-1,2036,1639,0,0
-700,-622,0,0,0,0,0,0,0,0,0,-1,524,1646,0,0
-693,-622,0,0,0,0,0,0,0,0,0,-1,531,1646,0,0
-686,-622,0,0,0,0,0,0,0,0,0,-1,538,1646,0,0
-679,-622,0,0,0,0,0,0,0,0,0,-1,545,1646,0,0
-672,-622,0,0,0,0,0,0,0,0,0,-1,552,1646,0,0
-665,-622,0,0,0,0,0,0,0,0,0,-1,559,1646,0,0
-658,-622,0,0,0,0,0,0,0,0,0,-1,566,1646,0,0
-651,-622,0,0,0,0,0,0,0,0,0,-1,573,1646,0,0
-644,-622,0,0,0,0,0,0,0,0,0,-1,580,1646,0,0
-637,-622,0,0,0,0,0,0,0,0,0,-1,587,1646,0,0
-630,-622,0,0,0,0,0,0,0,0,0,-1,594,1646,0,0
-623,-622,0,0,0,0,0,0,0,0,0,-1,601,1646,0,0
-616,-622,0,0,0,0,0,0,0,0,0,-1,608,1646,0,0
-609,-622,0,0,0,0,0,0,0,0,0,-1,615,1646,0,0
-602,-622,0,0,0,0,0,0,0,0,0,-1,622,1646,0,0
-595,-622,0,0,0,0,0,0,0,0,0,-1,629,1646,0,0
-588,-622,0,0,0,0,0,0,0,0,0,-1,636,1646,0,0
-581,-622,0,0,0,0,0,0,0,0,0,-1,643,1646,0,0
-574,-622,0,0,0,0,0,0,0,0,0,-1,650,1646,0,0
-567,-622,0,0,0,0,0,0,0,0,0,-1,657,1646,0,0
-560,-622,0,0,0,0,0,0,0,0,0,-1,664,1646,0,0
-553,-622,0,0,0,0,0,0,0,0,0,-1,671,1646,0,0
-546,-622,0,0,0,0,0,0,0,0,0,-1,678,1646,0,0
-539,-622,0,0,0,0,0,0,0,0,0,-1,685,1646,0,0
-532,-622,0,0,0,0,0,0,0,0,0,-1,692,1646,0,0
-525,-622,0,0,0,0,0,0,0,0,0,-1,699,1646,0,0
-518,-622,0,0,0,0,0,0,0,0,0,-1,706,1646,0,0
-511,-622,0,0,0,0,0,0,0,0,0,-1,713,1646,0,0
-504,-622,0,0,0,0,0,0,0,0,0,-1,720,1646,0,0
-497,-622,0,0,0,0,0,0,0,0,0,-1,727,1646,0,0
-490,-622,0,0,0,0,0,0,0,0,0,-1,734,1646,0,0
-483,-622,0,0,0,0,0,0,0,0,0,-1,741,1646,0,0
-476,-622,0,0,0,0,0,0,0,0,0,-1,748,1646,0,0
-469,-622,0,0,0,0,0,0,0,0,0,-1,755,1646,0,0
-462,-622,0,0,0,0,0,0,0,0,0,-1,762,1646,0,0
-455,-622,0,0,0,0,0,0,0,0,0,-1,769,1646,0,0
-448,-622,0,0,0,0,0,0,0,0,0,-1,776,1646,0,0
-441,-622,0,0,0,0,0,0,0,0,0,-1,783,1646,0,0
-434,-622,0,0,0,0,0,0,0,0,0,-1,790,1646,0,0
-427,-622,-7.62891,3.48096,0,0,0,0,0,0,0,-1,797,1646,-7.62892,-3.48092
-420,-622,-9.35791,1.77185,0,0,0,0,0,0,0,-1,804,1646,-9.35789,-1.77183
-413,-622,-8.46075,1.96777,0,0,0,0,0,0,0,-1,811,1646,-8.46074,-1.96774
-406,-622,-4.44318,2.16858,0,0,0,0,0,0,0,-1,818,1646,-4.44315,-2.16859
-399,-622,-7.06976,1.51001,0,0,0,0,0,0,0,-1,825,1646,-7.06976,-1.51005
-392,-622,3.89551,5.85376,0,0,0,0,0,0,0,-1,832,1646,3.8955,-5.85379
-385,-622,2.00543,14.0448,0,0,0,0,0,0,0,-1,839,1646,2.00544,-14.0448
-378,-622,1.49036,15.3436,0,0,0,0,0,0,0,-1,846,1646,1.49033,-15.3436
-371,-622,3.3562,19.241,0,0,0,0,0,0,0,-1,853,1646,3.35619,-19.241
-364,-622,3.22522,20.5151,0,0,0,0,0,0,0,-1,860,1646,3.22521,-20.5151
-357,-622,3.62994,21.5828,0,0,0,0,0,0,0,-1,867,1646,3.62994,-21.5827
-350,-622,3.56909,22.0721,0,0,0,0,0,0,0,-1,874,1646,3.56911,-22.0722
-343,-622,3.56018,22.3961,-0.00220994,0.0032569,0.00180351,0.00379827,-0.00275131,1.27918,0.00379747,0.0252905,881,1646,3.56017,-22.3962
-336,-622,3.58649,22.8131,-0.0017241,0.00339604,0.0016287,0.00387021,-0.00219827,1.28749,0.00354769,0.00894038,888,1646,3.58648,-22.8131
-329,-622,3.55396,23.2046,-0.00141833,0.00362753,0.00151202,0.00404592,-0.00183672,1.30084,0.00347526,0.00813425,895,1646,3.55394,-23.2046
-322,-622,3.5293,23.603,-0.00104867,0.00380968,0.00155711,0.0042659,-0.00150488,1.28578,0.00345654,0.0100543,902,1646,3.52931,-23.603
-315,-622,3.53424,24.0031,-0.000694192,0.00369324,0.00158358,0.00420509,-0.00120605,1.25817,0.00328017,0.0138708,909,1646,3.53424,-24.003
-308,-622,3.53351,24.3815,-0.0003291,0.00342615,0.00157042,0.00399632,-0.00089927,1.22253,0.0030091,0.0139289,916,1646,3.53353,-24.3815
-301,-622,3.53107,24.7416,0.00010246,0.00327053,0.00154073,0.00389625,-0.000523263,1.18503,0.00278834,0.0135736,923,1646,3.53107,-24.7416
-294,-622,3.50983,25.1176,0.000606655,0.00307686,0.0015426,0.00381789,-0.000134374,1.12297,0.00259121,0.01028,930,1646,3.50984,-25.1176
-287,-622,3.49103,25.5034,0.00104122,0.00299946,0.00153677,0.00384252,0.000198159,1.06904,0.00249825,0.00784695,937,1646,3.491,-25.5034
-280,-622,3.4881,25.8662,0.00154102,0.00295883,0.00156461,0.00396765,0.000532202,0.998108,0.00248675,0.00887946,944,1646,3.48807,-25.8663
-273,-622,3.50488,26.2275,0.00211235,0.00291708,0.0016204,0.00418432,0.000845108,0.907094,0.00255487,0.0126405,951,1646,3.50486,-26.2275
-266,-622,3.48065,26.5997,0.00268347,0.00299602,0.00170251,0.00454942,0.00113008,0.831166,0.00273521,0.0118277,958,1646,3.48068,-26.5997
-259,-622,3.47876,26.9714,0.00332331,0.00336087,0.00181914,0.00516132,0.00152286,0.790559,0.0030622,0.01116,965,1646,3.47873,-26.9714
-252,-622,3.47986,27.3104,0.00406705,0.00389538,0.00202666,0.00600969,0.00195274,0.764235,0.00353988,0.0120659,972,1646,3.47988,-27.3104
-245,-622,3.53418,27.6578,0.00484768,0.00446946,0.00228665,0.00695303,0.00236412,0.744141,0.00408226,0.0100591,979,1646,3.5342,-27.6578
-238,-622,3.53937,28.0112,0.00572154,0.00490403,0.00250768,0.00785356,0.00277201,0.704608,0.00459914,0.0128611,986,1646,3.53935,-28.0113
-231,-622,3.60474,28.4249,0.00665647,0.00534046,0.00293182,0.00900322,0.00299371,0.675009,0.00529433,0.0223271,993,1646,3.60475,-28.4249
-224,-622,3.69556,28.6597,0.00737446,0.00614895,0.00349929,0.0103142,0.00320917,0.698723,0.00609489,0.0367834,1000,1646,3.69558,-28.6597
-217,-622,3.79565,28.9512,0,0,0,0,0,0,0,-1,1007,1646,3.79563,-28.9512
-210,-622,3.87927,28.0903,0,0,0,0,0,0,0,-1,1014,1646,3.87925,-28.0903
-203,-622,4.21375,20.9574,0,0,0,0,0,0,0,-1,1021,1646,4.21375,-20.9574
-196,-622,4.18518,21.2491,0,0,0,0,0,0,0,-1,1028,1646,4.18521,-21.2491
-189,-622,4.98254,25.8979,0,0,0,0,0,0,0,-1,1035,1646,4.98255,-25.8979
-182,-622,2.21411,20.6752,0,0,0,0,0,0,0,-1,1042,1646,2.21416,-20.6751
-175,-622,2.56091,11.0195,0,0,0,0,0,0,0,-1,1049,1646,2.56095,-11.0195
-168,-622,3.31055,28.6663,0,0,0,0,0,0,0,-1,1056,1646,3.31055,-28.6663
-161,-622,3.16541,29.0825,0,0,0,0,0,0,0,-1,1063,1646,3.16545,-29.0825
-154,-622,3.02039,29.4987,0,0,0,0,0,0,0,-1,1070,1646,3.02035,-29.4986
-147,-622,3.7146,25.5477,0,0,0,0,0,0,0,-1,1077,1646,3.71464,-25.5478
-140,-622,3.27515,16.0353,0,0,0,0,0,0,0,-1,1084,1646,3.27519,-16.0353
-133,-622,3.09644,17.677,0,0,0,0,0,0,0,-1,1091,1646,3.09638,-17.677
-126,-622,3.5061,19.5251,0,0,0,0,0,0,0,-1,1098,1646,3.50616,-19.5252
-119,-622,4.06384,13.1715,0,0,0,0,0,0,0,-1,1105,1646,4.06379,-13.1716
-112,-622,4.33276,14.6605,0,0,0,0,0,0,0,-1,1112,1646,4.33281,-14.6605
-105,-622,0.306519,4.38159,0,0,0,0,0,0,0,-1,1119,1646,0.306536,-4.38159
-98,-622,-0.510376,3.5033,0,0,0,0,0,0,0,-1,1126,1646,-0.510393,-3.50324
-91,-622,-1.146,0.975952,0,0,0,0,0,0,0,-1,1133,1646,-1.14599,-0.97597
-84,-622,-2.04895,1.31787,0,0,0,0,0,0,0,-1,1140,1646,-2.0489,-1.31781
-77,-622,-1.80627,0.332275,0,0,0,0,0,0,0,-1,1147,1646,-1.80622,-0.33223
-70,-622,-3.65588,2.28149,0,0,0,0,0,0,0,-1,1154,1646,-3.65589,-2.28155
-63,-622,-2.49683,1.27087,0,0,0,0,0,0,0,-1,1161,1646,-2.49679,-1.27093
-56,-622,-2.44238,-0.575562,0,0,0,0,0,0,0,-1,1168,1646,-2.44242,0.575508
-49,-622,-2.41089,1.38818,0,0,0,0,0,0,0,-1,1175,1646,-2.41088,-1.38815
-42,-622,-2.71497,2.85242,0,0,0,0,0,0,0,-1,1182,1646,-2.71491,-2.85247
-35,-622,-3.0177,4.25842,0,0,0,0,0,0,0,-1,1189,1646,-3.01773,-4.25838
-28,-622,-0.896606,0.678833,0,0,0,0,0,0,0,-1,1196,1646,-0.89661,-0.678835
-21,-622,3.69312,26.7708,0,0,0,0,0,0,0,-1,1203,1646,3.69309,-26.7708
-14,-622,6.56531,33.7877,0,0,0,0,0,0,0,-1,1210,1646,6.56534,-33.7877
-7,-622,7.04504,33.5298,0,0,0,0,0,0,0,-1,1217,1646,7.04507,-33.5297
0,-622,0,0,0,0,0,0,0,0,0,-1,1224,1646,0,0
7,-622,0,0,0,0,0,0,0,0,0,-1,1231,1646,0,0
14,-622,0,0,0,0,0,0,0,0,0,-1,1238,1646,0,0
21,-622,0,0,0,0,0,0,0,0,0,-1,1245,1646,0,0
28,-622,0,0,0,0,0,0,0,0,0,-1,1252,1646,0,0
35,-622,0,0,0,0,0,0,0,0,0,-1,1259,1646,0,0
42,-622,0,0,0,0,0,0,0,0,0,-1,1266,1646,0,0
49,-622,0,0,0,0,0,0,0,0,0,-1,1273,1646,0,0
56,-622,0,0,0,0,0,0,0,0,0,-1,1280,1646,0,0
63,-622,0,0,0,0,0,0,0,0,0,-1,1287,1646,0,0
70,-622,0,0,0,0,0,0,0,0,0,-1,1294,1646,0,0
77,-622,0,0,0,0,0,0,0,0,0,-1,1301,1646,0,0
84,-622,0,0,0,0,0,0,0,0,0,-1,1308,1646,0,0
91,-622,0,0,0,0,0,0,0,0,0,-1,1315,1646,0,0
98,-622,0,0,0,0,0,0,0,0,0,-1,1322,1646,0,0
105,-622,0,0,0,0,0,0,0,0,0,-1,1329,1646,0,0
112,-622,0,0,0,0,0,0,0,0,0,-1,1336,1646,0,0
119,-622,0,0,0,0,0,0,0,0,0,-1,1343,1646,0,0
126,-622,8.98962,35.1265,0,0,0,0,0,0,0,-1,1350,1646,8.98961,-35.1264
133,-622,8.46594,33.9927,0,0,0,0,0,0,0,-1,1357,1646,8.46598,-33.9926
140,-622,3.28247,42.6232,0,0,0,0,0,0,0,-1,1364,1646,3.28253,-42.6231
147,-622,3.25427,44.0051,0,0,0,0,0,0,0,-1,1371,1646,3.25426,-44.0051
154,-622,3.51294,45.2302,0,0,0,0,0,0,0,-1,1378,1646,3.51298,-45.2303
161,-622,10.6884,6.46448,0,0,0,0,0,0,0,-1,1385,1646,10.6883,-6.46442
168,-622,12.2402,5.18091,0,0,0,0,0,0,0,-1,1392,1646,12.2403,-5.1809
175,-622,5.64355,-1.77075,0,0,0,0,0,0,0,-1,1399,1646,5.64351,1.77077
182,-622,5.88586,-1.32251,0,0,0,0,0,0,0,-1,1406,1646,5.88587,1.32256
189,-622,5.97986,-1.18005,0,0,0,0,0,0,0,-1,1413,1646,5.97986,1.18003
196,-622,5.85022,-0.244507,0,0,0,0,0,0,0,-1,1420,1646,5.85026,0.244478
203,-622,5.25159,0.138794,0,0,0,0,0,0,0,-1,1427,1646,5.25162,-0.138822
210,-622,6.66833,0.0397949,0,0,0,0,0,0,0,-1,1434,1646,6.6684,-0.0398278
217,-622,6.12061,0.0506592,0,0,0,0,0,0,0,-1,1441,1646,6.12058,-0.0507181
224,-622,5.57275,0.0616455,0,0,0,0,0,0,0,-1,1448,1646,5.57276,-0.0616084
231,-622,5.31348,1.3949,0,0,0,0,0,0,0,-1,1455,1646,5.31342,-1.39495
238,-622,3.76477,2.90686,0,0,0,0,0,0,0,-1,1462,1646,3.7648,-2.90686
245,-622,5.13794,2.67993,0,0,0,0,0,0,0,-1,1469,1646,5.13796,-2.67992
252,-622,6.66528,2.53992,0,0,0,0,0,0,0,-1,1476,1646,6.66522,-2.53991
259,-622,8.93787,3.31458,0,0,0,0,0,0,0,-1,1483,1646,8.93791,-3.31454
266,-622,5.72644,3.11926,0,0,0,0,0,0,0,-1,1490,1646,5.72647,-3.1192
273,-622,7.28076,3.61218,0,0,0,0,0,0,0,-1,1497,1646,7.28071,-3.61212
280,-622,8.43127,4.4447,0,0,0,0,0,0,0,-1,1504,1646,8.43123,-4.44467
287,-622,8.60315,5.94617,0,0,0,0,0,0,0,-1,1511,1646,8.60319,-5.94622
294,-622,7.62756,11.5143,0,0,0,0,0,0,0,-1,1518,1646,7.62762,-11.5143
301,-622,7.36548,11.6569,0,0,0,0,0,0,0,-1,1525,1646,7.36549,-11.6569
308,-622,7.10339,11.7994,0,0,0,0,0,0,0,-1,1532,1646,7.10335,-11.7995
315,-622,8.28687,16.5842,0,0,0,0,0,0,0,-1,1539,1646,8.28689,-16.5843
322,-622,7.43689,20.5786,0,0,0,0,0,0,0,-1,1546,1646,7.43685,-20.5786
329,-622,9.76477,26.4202,0,0,0,0,0,0,0,-1,1553,1646,9.7648,-26.4202
336,-622,10.4526,28.8552,0,0,0,0,0,0,0,-1,1560,1646,10.4526,-28.8552
343,-622,10.282,29.2583,0,0,0,0,0,0,0,-1,1567,1646,10.282,-29.2583
350,-622,11.1865,29.5076,0,0,0,0,0,0,0,-1,1574,1646,11.1865,-29.5076
357,-622,11.3323,29.0988,0,0,0,0,0,0,0,-1,1581,1646,11.3322,-29.0988
364,-622,11.2162,29.1045,0.00284982,0.0117363,-0.00111319,0.0118736,0.00271249,-1.44806,0.00718435,0.0399235,1588,1646,11.2162,-29.1045
371,-622,11.2793,28.5526,0.00214355,0.0106141,-0.000686645,0.0106694,0.00208825,-1.49043,0.00652914,0.0218134,1595,1646,11.2792,-28.5526
378,-622,11.2678,28.1669,0.00137663,0.00962214,-0.000293727,0.00963259,0.00136618,-1.53523,0.00601825,0.0102185,1602,1646,11.2678,-28.1669
385,-622,11.2477,27.8406,0.000830041,0.00835099,-0.000109047,0.00835257,0.00082846,-1.5563,0.0053138,0.00965566,1609,1646,11.2477,-27.8406
392,-622,11.2417,27.5193,0.000476736,0.00706615,9.86363e-05,0.00706763,0.00047526,1.55583,0.00456159,0.0111006,1616,1646,11.2417,-27.5193
399,-622,11.243,27.1891,0.000213807,0.00574111,0.000316893,0.00575922,0.000195698,1.51371,0.00377594,0.0117488,1623,1646,11.243,-27.1891
406,-622,11.2417,26.8342,-7.852e-05,0.00455073,0.000444089,0.00459295,-0.000120737,1.47602,0.00310299,0.014052,1630,1646,11.2417,-26.8342
413,-622,11.2531,26.4872,-0.00026308,0.00354736,0.000421471,0.00359343,-0.000309142,1.46194,0.00250503,0.0150769,1637,1646,11.253,-26.4872
420,-622,11.2595,26.167,-0.000348692,0.00253209,0.000375843,0.00258032,-0.000396919,1.44318,0.00186664,0.0151115,1644,1646,11.2595,-26.167
427,-622,11.2556,25.809,-0.000293114,0.00185375,0.000199778,0.00187218,-0.000311546,1.47879,0.00136388,0.0119124,1651,1646,11.2556,-25.8089
434,-622,11.2482,25.4431,-8.2463e-05,0.00113858,-0.000103333,0.00114726,-9.11461e-05,-1.48696,0.000796963,0.0126847,1658,1646,11.2482,-25.4431
441,-622,11.2529,25.0813,0.000209577,0.000570056,-0.000467519,0.000890875,-0.000111242,-0.96938,0.000634258,0.0148205,1665,1646,11.253,-25.0814
448,-622,11.2389,24.7518,0.000531549,2.8121e-05,-0.000797013,0.00111565,-0.000555982,-0.632444,0.000982984,0.0134288,1672,1646,11.2388,-24.7518
455,-622,11.217,24.3751,0.000850793,-0.00049494,-0.00113877,0.00150063,-0.00114478,-0.518558,0.00153192,0.015131,1679,1646,11.217,-24.3751
462,-622,11.2118,23.9998,0.00103233,-0.00100839,-0.00129724,0.00166241,-0.00163847,-0.45215,0.00190578,0.0172226,1686,1646,11.2117,-23.9997
469,-622,11.2058,23.6541,0.00129096,-0.00151983,-0.00146806,0.00191788,-0.00214676,-0.403601,0.00234796,0.0171412,1693,1646,11.2058,-23.654
476,-622,11.2654,23.2963,0.00140551,-0.00209446,-0.00152899,0.00197937,-0.00266832,-0.359052,0.00269315,0.0206411,1700,1646,11.2654,-23.2962
483,-622,11.2434,22.9441,0.00111954,-0.00257445,-0.00140246,0.00159166,-0.00304657,-0.324719,0.00272144,0.0312155,1707,1646,11.2434,-22.9441
490,-622,11.3573,22.5249,0.00057361,-0.00310704,-0.0013425,0.00101125,-0.00354467,-0.315123,0.0027626,0.0376839,1714,1646,11.3573,-22.5249
497,-622,11.592,22.1222,0,0,0,0,0,0,0,-1,1721,1646,11.592,-22.1222
504,-622,10.8306,19.8021,0,0,0,0,0,0,0,-1,1728,1646,10.8306,-19.8022
511,-622,5.29004,4.14587,0,0,0,0,0,0,0,-1,1735,1646,5.29008,-4.14589
518,-622,5.6001,1.55359,0,0,0,0,0,0,0,-1,1742,1646,5.60015,-1.5536
525,-622,5.83093,2.01807,0,0,0,0,0,0,0,-1,1749,1646,5.83097,-2.01802
532,-622,5.44202,0.57373,0,0,0,0,0,0,0,-1,1756,1646,5.44196,-0.573705
539,-622,9.32129,1.06116,0,0,0,0,0,0,0,-1,1763,1646,9.32131,-1.0612
546,-622,6.50977,-3.45618,0,0,0,0,0,0,0,-1,1770,1646,6.50981,3.4562
553,-622,0,0,0,0,0,0,0,0,0,-1,1777,1646,0,0
560,-622,0,0,0,0,0,0,0,0,0,-1,1784,1646,0,0
567,-622,0,0,0,0,0,0,0,0,0,-1,1791,1646,0,0
574,-622,0,0,0,0,0,0,0,0,0,-1,1798,1646,0,0
581,-622,0,0,0,0,0,0,0,0,0,-1,1805,1646,0,0
588,-622,0,0,0,0,0,0,0,0,0,-1,1812,1646,0,0
595,-622,0,0,0,0,0,0,0,0,0,-1,1819,1646,0,0
602,-622,0,0,0,0,0,0,0,0,0,-1,1826,1646,0,0
609,-622,0,0,0,0,0,0,0,0,0,-1,1833,1646,0,0
616,-622,0,0,0,0,0,0,0,0,0,-1,1840,1646,0,0
623,-622,0,0,0,0,0,0,0,0,0,-1,1847,1646,0,0
630,-622,0,0,0,0,0,0,0,0,0,-1,1854,1646,0,0
637,-622,0,0,0,0,0,0,0,0,0,-1,1861,1646,0,0
644,-622,0,0,0,0,0,0,0,0,0,-1,1868,1646,0,0
651,-622,0,0,0,0,0,0,0,0,0,-1,1875,1646,0,0
658,-622,0,0,0,0,0,0,0,0,0,-1,1882,1646,0,0
665,-622,0,0,0,0,0,0,0,0,0,-1,1889,1646,0,0
672,-622,0,0,0,0,0,0,0,0,0,-1,1896,1646,0,0
679,-622,0,0,0,0,0,0,0,0,0,-1,1903,1646,0,0
686,-622,0,0,0,0,0,0,0,0,0,-1,1910,1646,0,0
693,-622,0,0,0,0,0,0,0,0,0,-1,1917,1646,0,0
700,-622,0,0,0,0,0,0,0,0,0,-1,1924,1646,0,0
707,-622,0,0,0,0,0,0,0,0,0,-1,1931,1646,0,0
714,-622,0,0,0,0,0,0,0,0,0,-1,1938,1646,0,0
721,-622,0,0,0,0,0,0,0,0,0,-1,1945,1646,0,0
728,-622,0,0,0,0,0,0,0,0,0,-1,1952,1646,0,0
735,-622,0,0,0,0,0,0,0,0,0,-1,1959,1646,0,0
742,-622,0,0,0,0,0,0,0,0,0,-1,1966,1646,0,0
749,-622,0,0,0,0,0,0,0,0,0,-1,1973,1646,0,0
756,-622,0,0,0,0,0,0,0,0,0,-1,1980,1646,0,0
763,-622,0,0,0,0,0,0,0,0,0,-1,1987,1646,0,0
770,-622,0,0,0,0,0,0,0,0,0,-1,1994,1646,0,0
777,-622,0,0,0,0,0,0,0,0,0,-1,2001,1646,0,0
784,-622,0,0,0,0,0,0,0,0,0,-1,2008,1646,0,0
791,-622,0,0,0,0,0,0,0,0,0,-1,2015,1646,0,0
798,-622,0,0,0,0,0,0,0,0,0,-1,2022,1646,0,0
805,-622,0,0,0,0,0,0,0,0,0,-1,2029,1646,0,0
812,-622,0,0,0,0,0,0,0,0,0,-1,2036,1646,0,0
-700,-629,0,0,0,0,0,0,0,0,0,-1,524,1653,0,0
-693,-629,0,0,0,0,0,0,0,0,0,-1,531,1653,0,0
-686,-629,0,0,0,0,0,0,0,0,0,-1,538,1653,0,0
-679,-629,0,0,0,0,0,0,0,0,0,-1,545,1653,0,0
-672,-629,0,0,0,0,0,0,0,0,0,-1,552,1653,0,0
-665,-629,0,0,0,0,0,0,0,0,0,-1,559,1653,0,0
-658,-629,0,0,0,0,0,0,0,0,0,-1,566,1653,0,0
-651,-629,0,0,0,0,0,0,0,0,0,-1,573,1653,0,0
-644,-629,0,0,0,0,0,0,0,0,0,-1,580,1653,0,0
-637,-629,0,0,0,0,0,0,0,0,0,-1,587,1653,0,0
-630,-629,0,0,0,0,0,0,0,0,0,-1,594,1653,0,0
-623,-629,0,0,0,0,0,0,0,0,0,-1,601,1653,0,0
-616,-629,0,0,0,0,0,0,0,0,0,-1,608,1653,0,0
-609,-629,0,0,0,0,0,0,0,0,0,-1,615,1653,0,0
-602,-629,0,0,0,0,0,0,0,0,0,-1,622,1653,0,0
-595,-629,0,0,0,0,0,0,0,0,0,-1,629,1653,0,0
-588,-629,0,0,0,0,0,0,0,0,0,-1,636,1653,0,0
-581,-629,0,0,0,0,0,0,0,0,0,-1,643,1653,0,0
-574,-629,0,0,0,0,0,0,0,0,0,-1,650,1653,0,0
-567,-629,0,0,0,0,0,0,0,0,0,-1,657,1653,0,0
-560,-629,0,0,0,0,0,0,0,0,0,-1,664,1653,0,0
-553,-629,0,0,0,0,0,0,0,0,0,-1,671,1653,0,0
-546,-629,0,0,0,0,0,0,0,0,0,-1,678,1653,0,0
-539,-629,0,0,0,0,0,0,0,0,0,-1,685,1653,0,0
-532,-629,0,0,0,0,0,0,0,0,0,-1,692,1653,0,0
-525,-629,0,0,0,0,0,0,0,0,0,-1,699,1653,0,0
-518,-629,0,0,0,0,0,0,0,0,0,-1,706,1653,0,0
-511,-629,0,0,0,0,0,0,0,0,0,-1,713,1653,0,0
-504,-629,0,0,0,0,0,0,0,0,0,-1,720,1653,0,0
-497,-629,0,0,0,0,0,0,0,0,0,-1,727,1653,0,0
-490,-629,0,0,0,0,0,0,0,0,0,-1,734,1653,0,0
-483,-629,0,0,0,0,0,0,0,0,0,-1,741,1653,0,0
-476,-629,0,0,0,0,0,0,0,0,0,-1,748,1653,0,0
-469,-629,0,0,0,0,0,0,0,0,0,-1,755,1653,0,0
-462,-629,0,0,0,0,0,0,0,0,0,-1,762,1653,0,0
-455,-629,0,0,0,0,0,0,0,0,0,-1,769,1653,0,0
-448,-629,0,0,0,0,0,0,0,0,0,-1,776,1653,0,0
-441,-629,0,0,0,0,0,0,0,0,0,-1,783,1653,0,0
-434,-629,0,0,0,0,0,0,0,0,0,-1,790,1653,0,0
-427,-629,0,0,0,0,0,0,0,0,0,-1,797,1653,0,0
-420,-629,-3.87103,3.37634,0,0,0,0,0,0,0,-1,804,1653,-3.87101,-3.37633
-413,-629,-5.69751,1.33582,0,0,0,0,0,0,0,-1,811,1653,-5.69754,-1.3358
-406,-629,2.85406,6.01501,0,0,0,0,0,0,0,-1,818,1653,2.85405,-6.01507
-399,-629,-0.455627,10.8687,0,0,0,0,0,0,0,-1,825,1653,-0.455625,-10.8687
-392,-629,1.15369,11.1295,0,0,0,0,0,0,0,-1,832,1653,1.1537,-11.1295
-385,-629,1.81976,11.6935,0,0,0,0,0,0,0,-1,839,1653,1.81975,-11.6935
-378,-629,2.19452,14.7941,0,0,0,0,0,0,0,-1,846,1653,2.19451,-14.7941
-371,-629,3.60114,14.7299,0,0,0,0,0,0,0,-1,853,1653,3.60113,-14.7299
-364,-629,3.34198,19.8982,0,0,0,0,0,0,0,-1,860,1653,3.34201,-19.8981
-357,-629,4.38782,16.3444,0,0,0,0,0,0,0,-1,867,1653,4.38783,-16.3443
-350,-629,3.91406,22.0396,0,0,0,0,0,0,0,-1,874,1653,3.91406,-22.0395
-343,-629,3.93097,22.4598,-0.00315864,0.00609395,0.00243031,0.00669346,-0.00375815,1.32895,0.00611305,0.0418446,881,1653,3.93099,-22.4599
-336,-629,3.93243,22.8202,-0.00303946,0.00594556,0.00228864,0.00649493,-0.00358882,1.33521,0.0059019,0.0194054,888,1653,3.93241,-22.8202
-329,-629,3.95551,23.2166,-0.00280547,0.00593226,0.00219656,0.00645337,-0.00332658,1.33786,0.00574184,0.0120958,895,1653,3.95552,-23.2166
-322,-629,3.92822,23.5989,-0.0023462,0.00577233,0.0022026,0.0063314,-0.00290528,1.32222,0.00545372,0.0122132,902,1653,3.9282,-23.5989
-315,-629,3.90137,23.9901,-0.0019653,0.0052616,0.00216665,0.00586139,-0.00256509,1.30073,0.00498757,0.0153294,909,1653,3.90134,-23.9901
-308,-629,3.89386,24.3875,-0.00155022,0.00462419,0.00206401,0.00525061,-0.00217663,1.27614,0.00440884,0.0122025,916,1653,3.89386,-24.3874
-301,-629,3.90936,24.7943,-0.00105206,0.00412654,0.00193417,0.00476919,-0.00169471,1.25001,0.00387009,0.0118951,923,1653,3.90937,-24.7943
-294,-629,3.89282,25.1727,-0.000494575,0.00357398,0.00179454,0.00425239,-0.00117298,1.20936,0.00329624,0.0125385,930,1653,3.8928,-25.1727
-287,-629,3.87494,25.5425,1.10752e-05,0.00318275,0.00166203,0.00389413,-0.000700306,1.16637,0.00285827,0.0091722,937,1653,3.87492,-25.5424
-280,-629,3.87531,25.9094,0.000552172,0.00288458,0.00155402,0.00366131,-0.00022456,1.10729,0.00251907,0.0095664,944,1653,3.87532,-25.9094
-273,-629,3.87592,26.2428,0.00113956,0.00263869,0.00148059,0.00354864,0.000229607,1.01972,0.00229306,0.0127243,951,1653,3.87589,-26.2428
-266,-629,3.85107,26.5996,0.00176527,0.00243395,0.00144877,0.00358646,0.000612759,0.8988,0.00221515,0.0130469,958,1653,3.85105,-26.5996
-259,-629,3.83997,26.9884,0.00241025,0.00259964,0.00142974,0.00393782,0.00107207,0.818465,0.0023508,0.0145735,965,1653,3.83994,-26.9884
-252,-629,3.84552,27.3202,0.00303391,0.0029748,0.00147846,0.00448311,0.00152559,0.775405,0.00263197,0.0115224,972,1653,3.8455,-27.3201
-245,-629,3.87909,27.6696,0.00365683,0.00345255,0.00163168,0.00518956,0.00191982,0.75414,0.0030298,0.00850724,979,1653,3.87909,-27.6695
-238,-629,3.87939,28.0077,0.00436706,0.00385158,0.00179294,0.00592069,0.00229795,0.714011,0.00344672,0.0107779,986,1653,3.87938,-28.0077
-231,-629,3.85645,28.339,0.00499112,0.0042666,0.00216924,0.00682814,0.00242958,0.702662,0.00399649,0.01447,993,1653,3.85644,-28.339
-224,-629,3.96344,28.7739,0.00556973,0.00500652,0.00262815,0.00793132,0.00264494,0.732027,0.00466303,0.0176106,1000,1653,3.96342,-28.774
-217,-629,3.9187,29.0464,0.00599958,0.00600394,0.00294147,0.00894323,0.00306029,0.785768,0.0052484,0.0313118,1007,1653,3.91872,-29.0463
-210,-629,4.05066,29.5031,0,0,0,0,0,0,0,-1,1014,1653,4.05069,-29.503
-203,-629,4.25513,30.2889,0,0,0,0,0,0,0,-1,1021,1653,4.25518,-30.289
-196,-629,4.42773,30.2418,0,0,0,0,0,0,0,-1,1028,1653,4.42776,-30.2418
-189,-629,4.34155,30.3319,0,0,0,0,0,0,0,-1,1035,1653,4.34151,-30.3319
-182,-629,4.44507,30.8213,0,0,0,0,0,0,0,-1,1042,1653,4.44502,-30.8213
-175,-629,3.29102,19.1411,0,0,0,0,0,0,0,-1,1049,1653,3.29096,-19.1411
-168,-629,4.14783,31.5519,0,0,0,0,0,0,0,-1,1056,1653,4.14779,-31.5519
-161,-629,4.0929,31.8528,0,0,0,0,0,0,0,-1,1063,1653,4.09294,-31.8528
-154,-629,4.25391,30.4781,0,0,0,0,0,0,0,-1,1070,1653,4.25388,-30.4781
-147,-629,4.46606,30.7166,0,0,0,0,0,0,0,-1,1077,1653,4.46604,-30.7166
-140,-629,2.34851,19.2911,0,0,0,0,0,0,0,-1,1084,1653,2.34853,-19.2911
-133,-629,3.41248,17.6686,0,0,0,0,0,0,0,-1,1091,1653,3.41243,-17.6686
-126,-629,4.01025,19.5328,0,0,0,0,0,0,0,-1,1098,1653,4.01022,-19.5328
-119,-629,4.94177,13.5525,0,0,0,0,0,0,0,-1,1105,1653,4.94172,-13.5525
-112,-629,5.63123,15.9187,0,0,0,0,0,0,0,-1,1112,1653,5.63118,-15.9187
-105,-629,2.15881,4.38342,0,0,0,0,0,0,0,-1,1119,1653,2.15878,-4.38347
-98,-629,0.825806,4.19385,0,0,0,0,0,0,0,-1,1126,1653,0.825779,-4.1939
-91,-629,-0.452271,3.64465,0,0,0,0,0,0,0,-1,1133,1653,-0.452278,-3.6446
-84,-629,-2.6084,0.466797,0,0,0,0,0,0,0,-1,1140,1653,-2.6084,-0.466786
-77,-629,-3.50903,2.10706,0,0,0,0,0,0,0,-1,1147,1653,-3.509,-2.10707
-70,-629,-1.20886,2.52502,0,0,0,0,0,0,0,-1,1154,1653,-1.20886,-2.525
-63,-629,-0.960693,4.30212,0,0,0,0,0,0,0,-1,1161,1653,-0.960691,-4.30215
-56,-629,-1.31934,5.64343,0,0,0,0,0,0,0,-1,1168,1653,-1.31928,-5.6434
-49,-629,-2.15662,2.57458,0,0,0,0,0,0,0,-1,1175,1653,-2.15656,-2.57459
-42,-629,-2.46326,3.91467,0,0,0,0,0,0,0,-1,1182,1653,-2.4633,-3.91466
-35,-629,-2.67261,5.24292,0,0,0,0,0,0,0,-1,1189,1653,-2.67257,-5.24298
-28,-629,-0.402954,-0.866577,0,0,0,0,0,0,0,-1,1196,1653,-0.402943,0.866612
-21,-629,3.45508,27.0596,0,0,0,0,0,0,0,-1,1203,1653,3.45508,-27.0596
-14,-629,6.39856,34.7141,0,0,0,0,0,0,0,-1,1210,1653,6.39855,-34.7141
-7,-629,6.93604,34.5874,0.0674646,0.0915708,0.0608195,0.14152,0.0175154,0.88322,0.089084,0.0494296,1217,1653,6.93599,-34.5875
0,-629,7.48035,34.5565,0.0890424,0.0621387,0.0697985,0.146674,0.0045076,0.690204,0.096315,0.0499291,1224,1653,7.48031,-34.5565
7,-629,7.87402,34.6324,0.10266,0.0401872,0.077985,0.155432,-0.0125845,0.59491,0.108061,0.0459597,1231,1653,7.87398,-34.6324
14,-629,7.63184,35.9022,0,0,0,0,0,0,0,-1,1238,1653,7.63185,-35.9022
21,-629,7.46814,35.7511,0.110354,0.0155047,0.086302,0.161404,-0.0355446,0.534161,0.121201,0.0451915,1245,1653,7.46808,-35.7511
28,-629,10.0065,36.1628,0.107168,0.0128754,0.0864695,0.158509,-0.0384657,0.53581,0.120558,0.0406489,1252,1653,10.0065,-36.1629
35,-629,9.95203,37.8717,0.0972687,0.0146525,0.0799302,0.145934,-0.0340127,0.546899,0.110388,0.0393782,1259,1653,9.95198,-37.8717
42,-629,10.0991,39.2161,0.082378,0.01688,0.0692846,0.126264,-0.0270055,0.564624,0.0944731,0.0424454,1266,1653,10.0991,-39.2161
49,-629,10.6393,40.7649,0,0,0,0,0,0,0,-1,1273,1653,10.6393,-40.7649
56,-629,11.4207,42.1029,0,0,0,0,0,0,0,-1,1280,1653,11.4207,-42.1029
63,-629,7.72961,39.9293,0,0,0,0,0,0,0,-1,1287,1653,7.72964,-39.9294
70,-629,7.53662,39.2245,0,0,0,0,0,0,0,-1,1294,1653,7.53665,-39.2245
77,-629,9.396,39.9231,0,0,0,0,0,0,0,-1,1301,1653,9.39605,-39.9231
84,-629,9.20459,38.9952,-0.0114829,0.044025,-0.016377,0.0484967,-0.0159546,-1.30425,0.0387598,0.0467044,1308,1653,9.20458,-38.9952
91,-629,9.05798,38.0801,-0.0233008,0.0504962,-0.0356083,0.0648759,-0.0376804,-1.18699,0.0599008,0.0428402,1315,1653,9.05802,-38.0801
98,-629,8.90637,39.63,0,0,0,0,0,0,0,-1,1322,1653,8.90641,-39.63
105,-629,9.17737,38.5359,0,0,0,0,0,0,0,-1,1329,1653,9.17742,-38.5359
112,-629,9.14673,37.5078,-0.0250796,0.0336039,-0.0613179,0.0722388,-0.0637145,-1.00856,0.0785441,0.0471749,1336,1653,9.14673,-37.5078
119,-629,8.79944,36.569,-0.0238785,0.0237763,-0.0669991,0.0710588,-0.071161,-0.956243,0.0821107,0.0449382,1343,1653,8.79944,-36.5689
126,-629,8.70886,35.4353,-0.0235272,0.0162061,-0.0732471,0.0722329,-0.079554,-0.917826,0.0876682,0.0426983,1350,1653,8.70892,-35.4353
133,-629,8.05908,34.5732,-0.0235823,0.0112216,-0.0793062,0.0750126,-0.0873733,-0.8934,0.0938441,0.045678,1357,1653,8.05906,-34.5732
140,-629,7.2655,33.8514,0,0,0,0,0,0,0,-1,1364,1653,7.26548,-33.8515
147,-629,3.47681,42.7367,0,0,0,0,0,0,0,-1,1371,1653,3.47686,-42.7367
154,-629,10.6113,33.5126,0,0,0,0,0,0,0,-1,1378,1653,10.6113,-33.5126
161,-629,10.5461,6.83752,0,0,0,0,0,0,0,-1,1385,1653,10.5461,-6.83758
168,-629,12.0059,5.56348,0,0,0,0,0,0,0,-1,1392,1653,12.0059,-5.56352
175,-629,5.84485,-1.78845,0,0,0,0,0,0,0,-1,1399,1653,5.84479,1.7884
182,-629,5.99036,-1.27783,0,0,0,0,0,0,0,-1,1406,1653,5.99041,1.27778
189,-629,5.97668,-0.748535,0,0,0,0,0,0,0,-1,1413,1653,5.97671,0.748544
196,-629,4.52869,9.24695,0,0,0,0,0,0,0,-1,1420,1653,4.52869,-9.2469
203,-629,3.75085,6.88037,0,0,0,0,0,0,0,-1,1427,1653,3.75087,-6.88032
210,-629,3.5907,6.52637,0,0,0,0,0,0,0,-1,1434,1653,3.59067,-6.52642
217,-629,2.4585,4.84448,0,0,0,0,0,0,0,-1,1441,1653,2.45855,-4.84448
224,-629,1.31982,3.68481,0,0,0,0,0,0,0,-1,1448,1653,1.31986,-3.68487
231,-629,3.63025,1.73499,0,0,0,0,0,0,0,-1,1455,1653,3.6303,-1.735
238,-629,4.26428,2.11255,0,0,0,0,0,0,0,-1,1462,1653,4.26429,-2.11253
245,-629,5.61816,1.95361,0,0,0,0,0,0,0,-1,1469,1653,5.61815,-1.95359
252,-629,7.27136,2.18982,0,0,0,0,0,0,0,-1,1476,1653,7.27131,-2.18985
259,-629,8.67334,2.18628,0,0,0,0,0,0,0,-1,1483,1653,8.6733,-2.18633
266,-629,6.86475,3.72058,0,0,0,0,0,0,0,-1,1490,1653,6.86479,-3.72063
273,-629,7.9021,3.8717,0,0,0,0,0,0,0,-1,1497,1653,7.90205,-3.87171
280,-629,9.70837,4.39087,0,0,0,0,0,0,0,-1,1504,1653,9.7084,-4.39082
287,-629,9.82947,7.19348,0,0,0,0,0,0,0,-1,1511,1653,9.8295,-7.19347
294,-629,6.56555,11.6359,0,0,0,0,0,0,0,-1,1518,1653,6.5656,-11.6358
301,-629,6.93835,15.6102,0,0,0,0,0,0,0,-1,1525,1653,6.93835,-15.6103
308,-629,6.08264,12.1423,0,0,0,0,0,0,0,-1,1532,1653,6.08263,-12.1423
315,-629,6.82043,18.2764,0,0,0,0,0,0,0,-1,1539,1653,6.82049,-18.2764
322,-629,10.3922,29.9829,0,0,0,0,0,0,0,-1,1546,1653,10.3922,-29.9829
329,-629,10.7904,30.4796,0,0,0,0,0,0,0,-1,1553,1653,10.7904,-30.4796
336,-629,11.0034,30.0691,0,0,0,0,0,0,0,-1,1560,1653,11.0035,-30.0691
343,-629,10.9333,29.7139,0,0,0,0,0,0,0,-1,1567,1653,10.9333,-29.7138
350,-629,10.854,29.4698,0.00398656,0.00972699,-0.0018467,0.0102698,0.00344379,-1.28494,0.00603548,0.0327718,1574,1653,10.854,-29.4699
357,-629,10.9539,29.0978,0.00320141,0.00948076,-0.00140109,0.00977919,0.00290297,-1.36093,0.00579928,0.0183216,1581,1653,10.9539,-29.0977
364,-629,10.9274,28.7732,0.00248511,0.00885402,-0.000968627,0.00899808,0.00234105,-1.42316,0.00539057,0.0142741,1588,1653,10.9274,-28.7733
371,-629,10.9059,28.4672,0.00189215,0.00797646,-0.00067146,0.00804968,0.00181893,-1.46218,0.00487461,0.0106545,1595,1653,10.9059,-28.4671
378,-629,10.9158,28.1445,0.00130672,0.00710713,-0.000415614,0.00713676,0.00127709,-1.49963,0.00439444,0.00966861,1602,1653,10.9158,-28.1445
385,-629,10.9343,27.8276,0.000885404,0.0059468,-0.000280571,0.00596231,0.000869899,-1.51559,0.00371897,0.0117815,1609,1653,10.9343,-27.8277
392,-629,10.9279,27.5175,0.000638777,0.0046716,-0.000147328,0.00467698,0.000633402,-1.53433,0.00292976,0.0108956,1616,1653,10.9279,-27.5175
399,-629,10.9098,27.1949,0.000423547,0.00332108,3.24935e-05,0.00332144,0.000423183,1.55958,0.00208758,0.0115295,1623,1653,10.9097,-27.1949
406,-629,10.907,26.8225,0.000172755,0.00214361,0.000150203,0.00215499,0.000161373,1.49517,0.00138601,0.0139118,1630,1653,10.907,-26.8225
413,-629,10.906,26.4856,3.59618e-05,0.00117464,0.000137717,0.00119106,1.95425e-05,1.45213,0.000787607,0.021534,1637,1653,10.9061,-26.4856
420,-629,10.8885,26.1886,-2.3433e-05,0.000251981,9.3816e-05,0.000280901,-5.23533e-05,1.27177,0.000206938,0.020954,1644,1653,10.8885,-26.1887
427,-629,10.8989,25.8458,4.70412e-05,-0.000305326,-6.1375e-05,5.74255e-05,-0.00031571,-0.167606,0.000231997,0.0132468,1651,1653,10.8989,-25.8458
434,-629,10.9039,25.4786,0.000253162,-0.000810971,-0.00037765,0.000373563,-0.000931372,-0.30863,0.00077601,0.0105611,1658,1653,10.9039,-25.4786
441,-629,10.913,25.121,0.000536914,-0.00114444,-0.000761786,0.000830721,-0.00143825,-0.368103,0.00132555,0.0145702,1665,1653,10.9129,-25.121
448,-629,10.901,24.7655,0.000855453,-0.00141582,-0.00111669,0.00131251,-0.00187288,-0.388493,0.00184855,0.0139538,1672,1653,10.901,-24.7655
455,-629,10.8707,24.3796,0.00119686,-0.0016042,-0.00147623,0.00183122,-0.00223855,-0.405853,0.0023536,0.0137049,1679,1653,10.8707,-24.3796
462,-629,10.8651,24.0292,0.00141213,-0.0016433,-0.00168967,0.00216233,-0.0023935,-0.417846,0.00263144,0.0172898,1686,1653,10.8651,-24.0292
469,-629,10.8555,23.6633,0.00170366,-0.00164884,-0.00192478,0.00257978,-0.00252496,-0.427152,0.00294728,0.0194965,1693,1653,10.8554,-23.6633
476,-629,10.9429,23.3774,0.00187023,-0.00194847,-0.00205499,0.00276598,-0.00284423,-0.41106,0.00323916,0.032418,1700,1653,10.9429,-23.3774
483,-629,11.0559,22.9359,0.00160235,-0.00212185,-0.00197705,0.00245615,-0.00297566,-0.407666,0.00314084,0.0487861,1707,1653,11.0559,-22.9359
490,-629,11.4102,22.4705,0,0,0,0,0,0,0,-1,1714,1653,11.4102,-22.4704
497,-629,10.3662,19.8605,0,0,0,0,0,0,0,-1,1721,1653,10.3662,-19.8605
504,-629,7.89453,15.5316,0,0,0,0,0,0,0,-1,1728,1653,7.89447,-15.5316
511,-629,6.29138,3.40295,0,0,0,0,0,0,0,-1,1735,1653,6.29137,-3.403
518,-629,5.84387,1.41858,0,0,0,0,0,0,0,-1,1742,1653,5.84391,-1.4186
525,-629,6.4729,1.02319,0,0,0,0,0,0,0,-1,1749,1653,6.47284,-1.02316
532,-629,6.86511,0.903687,0,0,0,0,0,0,0,-1,1756,1653,6.86514,-0.903691
539,-629,6.60803,0.746704,0,0,0,0,0,0,0,-1,1763,1653,6.60809,-0.746691
546,-629,0,0,0,0,0,0,0,0,0,-1,1770,1653,0,0
553,-629,0,0,0,0,0,0,0,0,0,-1,1777,1653,0,0
560,-629,0,0,0,0,0,0,0,0,0,-1,1784,1653,0,0
567,-629,0,0,0,0,0,0,0,0,0,-1,1791,1653,0,0
574,-629,0,0,0,0,0,0,0,0,0,-1,1798,1653,0,0
581,-629,0,0,0,0,0,0,0,0,0,-1,1805,1653,0,0
588,-629,0,0,0,0,0,0,0,0,0,-1,1812,1653,0,0
595,-629,0,0,0,0,0,0,0,0,0,-1,1819,1653,0,0
602,-629,0,0,0,0,0,0,0,0,0,-1,1826,1653,0,0
609,-629,0,0,0,0,0,0,0,0,0,-1,1833,1653,0,0
616,-629,0,0,0,0,0,0,0,0,0,-1,1840,1653,0,0
623,-629,0,0,0,0,0,0,0,0,0,-1,1847,1653,0,0
630,-629,0,0,0,0,0,0,0,0,0,-1,1854,1653,0,0
637,-629,0,0,0,0,0,0,0,0,0,-1,1861,1653,0,0
644,-629,0,0,0,0,0,0,0,0,0,-1,1868,1653,0,0
651,-629,0,0,0,0,0,0,0,0,0,-1,1875,1653,0,0
658,-629,0,0,0,0,0,0,0,0,0,-1,1882,1653,0,0
665,-629,0,0,0,0,0,0,0,0,0,-1,1889,1653,0,0
672,-629,0,0,0,0,0,0,0,0,0,-1,1896,1653,0,0
679,-629,0,0,0,0,0,0,0,0,0,-1,1903,1653,0,0
686,-629,0,0,0,0,0,0,0,0,0,-1,1910,1653,0,0
693,-629,0,0,0,0,0,0,0,0,0,-1,1917,1653,0,0
700,-629,0,0,0,0,0,0,0,0,0,-1,1924,1653,0,0
707,-629,0,0,0,0,0,0,0,0,0,-1,1931,1653,0,0
714,-629,0,0,0,0,0,0,0,0,0,-1,1938,1653,0,0
721,-629,0,0,0,0,0,0,0,0,0,-1,1945,1653,0,0
728,-629,0,0,0,0,0,0,0,0,0,-1,1952,1653,0,0
735,-629,0,0,0,0,0,0,0,0,0,-1,1959,1653,0,0
742,-629,0,0,0,0,0,0,0,0,0,-1,1966,1653,0,0
749,-629,0,0,0,0,0,0,0,0,0,-1,1973,1653,0,0
756,-629,0,0,0,0,0,0,0,0,0,-1,1980,1653,0,0
763,-629,0,0,0,0,0,0,0,0,0,-1,1987,1653,0,0
770,-629,0,0,0,0,0,0,0,0,0,-1,1994,1653,0,0
777,-629,0,0,0,0,0,0,0,0,0,-1,2001,1653,0,0
784,-629,0,0,0,0,0,0,0,0,0,-1,2008,1653,0,0
791,-629,0,0,0,0,0,0,0,0,0,-1,2015,1653,0,0
798,-629,0,0,0,0,0,0,0,0,0,-1,2022,1653,0,0
805,-629,0,0,0,0,0,0,0,0,0,-1,2029,1653,0,0
812,-629,0,0,0,0,0,0,0,0,0,-1,2036,1653,0,0
-700,-636,0,0,0,0,0,0,0,0,0,-1,524,1660,0,0
-693,-636,0,0,0,0,0,0,0,0,0,-1,531,1660,0,0
-686,-636,0,0,0,0,0,0,0,0,0,-1,538,1660,0,0
-679,-636,0,0,0,0,0,0,0,0,0,-1,545,1660,0,0
-672,-636,0,0,0,0,0,0,0,0,0,-1,552,1660,0,0
-665,-636,0,0,0,0,0,0,0,0,0,-1,559,1660,0,0
-658,-636,0,0,0,0,0,0,0,0,0,-1,566,1660,0,0
-651,-636,0,0,0,0,0,0,0,0,0,-1,573,1660,0,0
-644,-636,0,0,0,0,0,0,0,0,0,-1,580,1660,0,0
-637,-636,0,0,0,0,0,0,0,0,0,-1,587,1660,0,0
-630,-636,0,0,0,0,0,0,0,0,0,-1,594,1660,0,0
-623,-636,0,0,0,0,0,0,0,0,0,-1,601,1660,0,0
-616,-636,0,0,0,0,0,0,0,0,0,-1,608,1660,0,0
-609,-636,0,0,0,0,0,0,0,0,0,-1,615,1660,0,0
-602,-636,0,0,0,0,0,0,0,0,0,-1,622,1660,0,0
-595,-636,0,0,0,0,0,0,0,0,0,-1,629,1660,0,0
-588,-636,0,0,0,0,0,0,0,0,0,-1,636,1660,0,0
-581,-636,0,0,0,0,0,0,0,0,0,-1,643,1660,0,0
-574,-636,0,0,0,0,0,0,0,0,0,-1,650,1660,0,0
-567,-636,0,0,0,0,0,0,0,0,0,-1,657,1660,0,0
-560,-636,0,0,0,0,0,0,0,0,0,-1,664,1660,0,0
-553,-636,0,0,0,0,0,0,0,0,0,-1,671,1660,0,0
-546,-636,0,0,0,0,0,0,0,0,0,-1,678,1660,0,0
-539,-636,0,0,0,0,0,0,0,0,0,-1,685,1660,0,0
-532,-636,0,0,0,0,0,0,0,0,0,-1,692,1660,0,0
-525,-636,0,0,0,0,0,0,0,0,0,-1,699,1660,0,0
-518,-636,0,0,0,0,0,0,0,0,0,-1,706,1660,0,0
-511,-636,0,0,0,0,0,0,0,0,0,-1,713,1660,0,0
-504,-636,0,0,0,0,0,0,0,0,0,-1,720,1660,0,0
-497,-636,0,0,0,0,0,0,0,0,0,-1,727,1660,0,0
-490,-636,0,0,0,0,0,0,0,0,0,-1,734,1660,0,0
-483,-636,0,0,0,0,0,0,0,0,0,-1,741,1660,0,0
-476,-636,0,0,0,0,0,0,0,0,0,-1,748,1660,0,0
-469,-636,0,0,0,0,0,0,0,0,0,-1,755,1660,0,0
-462,-636,0,0,0,0,0,0,0,0,0,-1,762,1660,0,0
-455,-636,0,0,0,0,0,0,0,0,0,-1,769,1660,0,0
-448,-636,0,0,0,0,0,0,0,0,0,-1,776,1660,0,0
-441,-636,0,0,0,0,0,0,0,0,0,-1,783,1660,0,0
-434,-636,0,0,0,0,0,0,0,0,0,-1,790,1660,0,0
-427,-636,0,0,0,0,0,0,0,0,0,-1,797,1660,0,0
-420,-636,0,0,0,0,0,0,0,0,0,-1,804,1660,0,0
-413,-636,0,0,0,0,0,0,0,0,0,-1,811,1660,0,0
-406,-636,-0.591125,10.6943,0,0,0,0,0,0,0,-1,818,1660,-0.59115,-10.6943
-399,-636,0.0766602,11.2408,0,0,0,0,0,0,0,-1,825,1660,0.076685,-11.2409
-392,-636,0.75946,11.9233,0,0,0,0,0,0,0,-1,832,1660,0.759481,-11.9233
-385,-636,1.68878,12.517,0,0,0,0,0,0,0,-1,839,1660,1.6888,-12.5169
-378,-636,2.22107,13.0013,0,0,0,0,0,0,0,-1,846,1660,2.22107,-13.0014
-371,-636,2.52185,11.9684,0,0,0,0,0,0,0,-1,853,1660,2.52184,-11.9684
-364,-636,4.51947,14.8503,0,0,0,0,0,0,0,-1,860,1660,4.51949,-14.8504
-357,-636,4.55682,15.8809,0,0,0,0,0,0,0,-1,867,1660,4.55681,-15.8808
-350,-636,2.63104,14.4946,0,0,0,0,0,0,0,-1,874,1660,2.63102,-14.4946
-343,-636,4.32916,22.6039,0,0,0,0,0,0,0,-1,881,1660,4.32917,-22.6039
-336,-636,4.25787,22.8734,-0.00478126,0.00992868,0.00322517,0.0106047,-0.00545731,1.36417,0.00943082,0.0361599,888,1660,4.2579,-22.8734
-329,-636,4.32837,23.2288,-0.00450042,0.00944651,0.0030058,0.0100667,-0.00512064,1.36731,0.00892208,0.0207767,895,1660,4.32839,-23.2288
-322,-636,4.32953,23.6204,-0.00380118,0.00867956,0.0029149,0.00932678,-0.0044484,1.3523,0.00811764,0.0126599,902,1660,4.3295,-23.6204
-315,-636,4.28333,24.0028,-0.00326835,0.00755723,0.0027381,0.00821037,-0.00392149,1.33663,0.00714874,0.0130146,909,1660,4.28333,-24.0028
-308,-636,4.27875,24.4041,-0.00272648,0.00641719,0.00246457,0.00703918,-0.00334846,1.32359,0.00612219,0.0114957,916,1660,4.27872,-24.4041
-301,-636,4.28052,24.8113,-0.00212817,0.00546486,0.00218558,0.00604901,-0.00271232,1.30962,0.0051792,0.0116851,923,1660,4.28051,-24.8112
-294,-636,4.25568,25.2045,-0.00149384,0.00449717,0.00188572,0.00504129,-0.00203796,1.28988,0.00420803,0.0153162,930,1660,4.2557,-25.2045
-287,-636,4.23193,25.5571,-0.000906024,0.00375653,0.00162682,0.00426803,-0.00141753,1.26616,0.00341731,0.012611,937,1660,4.23193,-25.5571
-280,-636,4.23859,25.9337,-0.000327805,0.00317681,0.00140475,0.00367037,-0.000821365,1.23292,0.00276172,0.0116751,944,1660,4.23856,-25.9337
-273,-636,4.23749,26.2604,0.000262847,0.0027112,0.00124123,0.00323037,-0.000256321,1.17464,0.0022439,0.011654,951,1660,4.23749,-26.2604
-266,-636,4.22876,26.6095,0.000924041,0.00220572,0.00114503,0.00287705,0.000252715,1.04052,0.00183959,0.0129058,958,1660,4.22877,-26.6095
-259,-636,4.2276,27.0077,0.00155233,0.00214343,0.00106141,0.00294967,0.000746086,0.921184,0.00177093,0.0156705,965,1660,4.22758,-27.0077
-252,-636,4.21472,27.3402,0.00207528,0.00232437,0.00103671,0.00324399,0.00115566,0.845178,0.00189854,0.0120944,972,1660,4.21474,-27.3402
-245,-636,4.2326,27.6863,0.00258186,0.00266027,0.00115768,0.00377941,0.00146272,0.802324,0.00220053,0.0105431,979,1660,4.23263,-27.6863
-238,-636,4.23877,28.0206,0.0031881,0.00297657,0.00132168,0.00440824,0.00175643,0.745472,0.00256254,0.0118407,986,1660,4.23876,-28.0206
-231,-636,4.22845,28.3457,0.00375846,0.00329758,0.00164401,0.00518811,0.00186794,0.715767,0.00303422,0.0110402,993,1660,4.22843,-28.3457
-224,-636,4.24066,28.6659,0.00424636,0.00393464,0.0019755,0.00607214,0.00210886,0.746031,0.00355983,0.00944589,1000,1660,4.24065,-28.6659
-217,-636,4.23328,29.0563,0.00464288,0.00479511,0.00224468,0.00696496,0.00247302,0.802346,0.00407715,0.0168309,1007,1660,4.23327,-29.0562
-210,-636,4.21875,29.4276,0.00477029,0.00581689,0.00234477,0.00769605,0.00289113,0.895188,0.00448888,0.0282368,1014,1660,4.21874,-29.4276
-203,-636,4.31555,29.7651,0.00480844,0.00692347,0.00214069,0.00825361,0.0034783,1.01482,0.00478479,0.033042,1021,1660,4.31553,-29.7651
-196,-636,4.44446,30.0079,0.00450111,0.00815604,0.00215205,0.00915186,0.00350529,1.13741,0.00533182,0.0332356,1028,1660,4.44446,-30.008
-189,-636,4.45117,30.2448,0.00371334,0.00952707,0.00187815,0.010081,0.00315938,1.28398,0.00595386,0.0317678,1035,1660,4.45115,-30.2448
-182,-636,4.58264,30.5885,0.00318186,0.01125,0.00165071,0.0115746,0.00285719,1.37659,0.00696227,0.0462269,1042,1660,4.58259,-30.5885
-175,-636,4.67737,30.7816,0,0,0,0,0,0,0,-1,1049,1660,4.67736,-30.7816
-168,-636,4.38477,31.4047,0.00164411,0.0169819,0.000918969,0.0170368,0.00158925,1.51117,0.0108669,0.048732,1056,1660,4.38479,-31.4046
-161,-636,4.29797,31.681,0.00123695,0.0203303,0.000496865,0.0203432,0.00122403,1.5448,0.0131731,0.0481252,1063,1660,4.29799,-31.681
-154,-636,4.22791,31.9111,0,0,0,0,0,0,0,-1,1070,1660,4.22793,-31.9111
-147,-636,4.62854,30.7314,0,0,0,0,0,0,0,-1,1077,1660,4.62857,-30.7314
-140,-636,3.4729,27.1271,0,0,0,0,0,0,0,-1,1084,1660,3.47287,-27.1271
-133,-636,4.68311,18.0922,0,0,0,0,0,0,0,-1,1091,1660,4.68316,-18.0921
-126,-636,3.79028,18.2225,0,0,0,0,0,0,0,-1,1098,1660,3.79025,-18.2226
-119,-636,1.8667,13.8916,0,0,0,0,0,0,0,-1,1105,1660,1.86668,-13.8916
-112,-636,-1.24963,9.7998,0,0,0,0,0,0,0,-1,1112,1660,-1.24968,-9.79978
-105,-636,3.51624,4.72791,0,0,0,0,0,0,0,-1,1119,1660,3.51618,-4.7279
-98,-636,1.54504,5.11914,0,0,0,0,0,0,0,-1,1126,1660,1.54503,-5.11912
-91,-636,-1.87964,-2.25012,0,0,0,0,0,0,0,-1,1133,1660,-1.87966,2.25016
-84,-636,-2.84143,0.133667,0,0,0,0,0,0,0,-1,1140,1660,-2.84144,-0.133701
-77,-636,-3.57349,2.45935,0,0,0,0,0,0,0,-1,1147,1660,-3.57345,-2.45939
-70,-636,-4.23682,4.82312,0,0,0,0,0,0,0,-1,1154,1660,-4.23681,-4.82307
-63,-636,-2.21033,6.97168,0,0,0,0,0,0,0,-1,1161,1660,-2.21034,-6.97165
-56,-636,-2.51917,8.80359,0,0,0,0,0,0,0,-1,1168,1660,-2.51916,-8.80361
-49,-636,-3.13,10.4113,0,0,0,0,0,0,0,-1,1175,1660,-3.12996,-10.4112
-42,-636,-2.27771,4.90173,0,0,0,0,0,0,0,-1,1182,1660,-2.27775,-4.90173
-35,-636,-2.27698,5.89685,0,0,0,0,0,0,0,-1,1189,1660,-2.27695,-5.89686
-28,-636,-1.70654,4.83936,0,0,0,0,0,0,0,-1,1196,1660,-1.70656,-4.8393
-21,-636,4.24683,27.7834,0,0,0,0,0,0,0,-1,1203,1660,4.24687,-27.7835
-14,-636,6.06323,35.7277,0,0,0,0,0,0,0,-1,1210,1660,6.06325,-35.7277
-7,-636,6.47754,35.6647,0.0602415,0.0982123,0.0561287,0.138479,0.0199743,0.948482,0.0864343,0.0491942,1217,1660,6.47751,-35.6646
0,-636,6.85852,35.5938,0.0793327,0.0729683,0.0634922,0.139722,0.0125786,0.760359,0.0892513,0.0498288,1224,1660,6.85852,-35.5938
7,-636,7.3501,35.7499,0.0910527,0.0543649,0.0701917,0.145258,0.000159696,0.657587,0.0967855,0.0478778,1231,1660,7.35016,-35.7499
14,-636,7.53796,36.021,0.0962439,0.0415947,0.0744569,0.148232,-0.0103932,0.609535,0.102461,0.0443376,1238,1660,7.53795,-36.021
21,-636,7.33948,35.8954,0.0965964,0.0347412,0.076536,0.148217,-0.0168799,0.593384,0.104892,0.0448574,1245,1660,7.33952,-35.8954
28,-636,9.52869,36.3785,0.0930065,0.0337636,0.0760707,0.14502,-0.0182494,0.599733,0.103302,0.0428915,1252,1660,9.52872,-36.3786
35,-636,9.75793,38.1622,0.0841228,0.0361251,0.0706134,0.134704,-0.0144562,0.621591,0.0949889,0.0426229,1259,1660,9.75797,-38.1622
42,-636,9.98083,39.3501,0.0708292,0.0389767,0.0617869,0.118709,-0.00890353,0.659264,0.0822682,0.047274,1266,1660,9.98087,-39.3501
49,-636,9.90198,39.9283,0,0,0,0,0,0,0,-1,1273,1660,9.90202,-39.9284
56,-636,8.43176,40.8337,0,0,0,0,0,0,0,-1,1280,1660,8.43177,-40.8338
63,-636,8.07544,40.8241,0,0,0,0,0,0,0,-1,1287,1660,8.07549,-40.8241
70,-636,8.45386,37.8894,0,0,0,0,0,0,0,-1,1294,1660,8.45381,-37.8894
77,-636,8.14307,40.1881,0,0,0,0,0,0,0,-1,1301,1660,8.14309,-40.1881
84,-636,8.79297,38.6624,-0.00668411,0.0573744,-0.0135065,0.0601058,-0.00941543,-1.37126,0.0435496,0.0461248,1308,1660,8.79297,-38.6623
91,-636,8.70178,38.002,-0.0153697,0.058752,-0.0286896,0.0685591,-0.0251767,-1.24142,0.0560171,0.0394315,1315,1660,8.70179,-38.0019
98,-636,8.48706,37.3047,-0.0207221,0.0560908,-0.0404648,0.0734737,-0.038105,-1.16505,0.0654899,0.0432581,1322,1660,8.48703,-37.3047
105,-636,8.8717,37.8328,0,0,0,0,0,0,0,-1,1329,1660,8.87171,-37.8328
112,-636,8.81396,37.1178,-0.0147192,0.0360992,-0.050296,0.0670399,-0.04566,-1.0193,0.0654564,0.0495779,1336,1660,8.814,-37.1178
119,-636,8.68909,36.3033,-0.0130818,0.0253572,-0.0550178,0.0644158,-0.0521405,-0.953438,0.0674181,0.0484829,1343,1660,8.68906,-36.3033
126,-636,8.60217,35.4218,-0.012341,0.0173128,-0.0600336,0.0643233,-0.0593515,-0.906464,0.0714229,0.0442557,1350,1660,8.60221,-35.4217
133,-636,8.40967,34.261,-0.0121215,0.0123637,-0.0646963,0.0659656,-0.0657234,-0.878908,0.0760307,0.0491288,1357,1660,8.40963,-34.261
140,-636,8.19897,33.6257,-0.0125177,0.00651218,-0.0675759,0.0652398,-0.0712453,-0.85534,0.0788251,0.0463989,1364,1660,8.19903,-33.6257
147,-636,8.16443,32.9551,0,0,0,0,0,0,0,-1,1371,1660,8.16447,-32.9551
154,-636,3.57092,41.527,0,0,0,0,0,0,0,-1,1378,1660,3.5709,-41.527
161,-636,10.2961,7.13025,0,0,0,0,0,0,0,-1,1385,1660,10.2961,-7.13021
168,-636,11.7659,5.83899,0,0,0,0,0,0,0,-1,1392,1660,11.7658,-5.83899
175,-636,5.94592,-1.72888,0,0,0,0,0,0,0,-1,1399,1660,5.94598,1.72886
182,-636,5.93994,-1.11938,0,0,0,0,0,0,0,-1,1406,1660,5.93998,1.11936
189,-636,5.32544,11.9595,0,0,0,0,0,0,0,-1,1413,1660,5.32542,-11.9595
196,-636,5.3623,9.38025,0,0,0,0,0,0,0,-1,1420,1660,5.36225,-9.38027
203,-636,5.18542,9.02429,0,0,0,0,0,0,0,-1,1427,1660,5.18547,-9.0243
210,-636,4.09167,7.17041,0,0,0,0,0,0,0,-1,1434,1660,4.09173,-7.17041
217,-636,2.94897,5.28992,0,0,0,0,0,0,0,-1,1441,1660,2.94899,-5.28991
224,-636,1.49194,3.63916,0,0,0,0,0,0,0,-1,1448,1660,1.49197,-3.63918
231,-636,0.17749,2.24854,0,0,0,0,0,0,0,-1,1455,1660,0.177501,-2.24855
238,-636,-0.764648,1.00598,0,0,0,0,0,0,0,-1,1462,1660,-0.764704,-1.00595
245,-636,6.21204,1.18005,0,0,0,0,0,0,0,-1,1469,1660,6.21206,-1.18001
252,-636,7.70251,0.865723,0,0,0,0,0,0,0,-1,1476,1660,7.7025,-0.865692
259,-636,9.03601,0.787231,0,0,0,0,0,0,0,-1,1483,1660,9.03598,-0.787243
266,-636,10.1071,3.24109,0,0,0,0,0,0,0,-1,1490,1660,10.1071,-3.24103
273,-636,8.48535,5.02466,0,0,0,0,0,0,0,-1,1497,1660,8.48533,-5.02472
280,-636,11.908,32.0698,0,0,0,0,0,0,0,-1,1504,1660,11.9079,-32.0698
287,-636,6.08606,11.49,0,0,0,0,0,0,0,-1,1511,1660,6.08606,-11.49
294,-636,6.69592,15.9669,0,0,0,0,0,0,0,-1,1518,1660,6.69595,-15.9669
301,-636,8.25903,23.0582,0,0,0,0,0,0,0,-1,1525,1660,8.25903,-23.0583
308,-636,10.1711,31.7991,0,0,0,0,0,0,0,-1,1532,1660,10.1712,-31.7991
315,-636,10.2622,31.2886,0,0,0,0,0,0,0,-1,1539,1660,10.2622,-31.2886
322,-636,10.2972,30.3997,0,0,0,0,0,0,0,-1,1546,1660,10.2972,-30.3997
329,-636,10.5444,30.2256,0.00673902,0.00722164,-0.00277119,0.00976201,0.00419865,-0.828827,0.00565443,0.0331418,1553,1660,10.5444,-30.2256
336,-636,10.6312,29.9547,0.00542888,0.00725633,-0.00215812,0.00868619,0.00399902,-0.985652,0.00502022,0.0260988,1560,1660,10.6312,-29.9547
343,-636,10.5631,29.7545,0.00426376,0.00699353,-0.00177472,0.00786752,0.00338977,-1.1132,0.00455677,0.0231295,1567,1660,10.5631,-29.7545
350,-636,10.5427,29.4281,0.00326851,0.00665695,-0.0012798,0.007086,0.00283946,-1.24733,0.0041179,0.0131987,1574,1660,10.5427,-29.4281
357,-636,10.5875,29.0883,0.00260761,0.00651878,-0.00102268,0.00677005,0.00235635,-1.32988,0.00396839,0.0107219,1581,1660,10.5875,-29.0883
364,-636,10.5905,28.7788,0.00202517,0.00601329,-0.000736949,0.00614511,0.00189335,-1.39379,0.00363393,0.0107707,1588,1660,10.5905,-28.7788
371,-636,10.5912,28.4814,0.00154818,0.00531088,-0.000527497,0.00538343,0.00147563,-1.43411,0.00321212,0.00941499,1595,1660,10.5911,-28.4814
378,-636,10.6101,28.1641,0.00119808,0.00453864,-0.00038496,0.00458243,0.00115429,-1.45754,0.0027521,0.00953311,1602,1660,10.6101,-28.1641
385,-636,10.6304,27.8242,0.00096169,0.00349345,-0.000284567,0.00352504,0.0009301,-1.46024,0.00210949,0.0151081,1609,1660,10.6303,-27.8242
392,-636,10.6302,27.5001,0.000826592,0.00228513,-0.000196168,0.00231106,0.000800669,-1.43941,0.0013551,0.0157211,1616,1660,10.6302,-27.5001
399,-636,10.6069,27.1876,0.000668593,0.000993404,-6.59237e-05,0.00100627,0.000655723,-1.378,0.000589811,0.0120676,1623,1660,10.6069,-27.1876
406,-636,10.5931,26.8408,0.000470702,-0.000104525,6.25542e-06,0.00047077,-0.000104593,0.010873,0.000353901,0.0137178,1630,1660,10.5932,-26.8409
413,-636,10.5922,26.483,0.000374198,-0.000978996,-2.86559e-05,0.000374804,-0.000979603,-0.0211638,0.000807537,0.0210169,1637,1660,10.5921,-26.483
420,-636,10.5658,26.1938,0.00030808,-0.00176145,-0.000102095,0.000313104,-0.00176648,-0.049173,0.0012947,0.0224616,1644,1660,10.5658,-26.1939
427,-636,10.5493,25.8687,0.000342877,-0.00217203,-0.00026429,0.000370351,-0.0021995,-0.103582,0.0016041,0.0138803,1651,1660,10.5493,-25.8687
434,-636,10.5471,25.4999,0.000479192,-0.00244453,-0.000619858,0.000605179,-0.00257052,-0.20052,0.00194701,0.011559,1658,1660,10.5472,-25.4999
441,-636,10.5546,25.1368,0.000677513,-0.00251798,-0.00105416,0.000993937,-0.00283441,-0.291609,0.00229385,0.011657,1665,1660,10.5545,-25.1369
448,-636,10.5723,24.7986,0.000905091,-0.00251578,-0.00146676,0.00144787,-0.00305856,-0.354427,0.00265661,0.0137356,1672,1660,10.5723,-24.7986
455,-636,10.5161,24.4391,0.00118156,-0.00234954,-0.00185387,0.00197609,-0.00314407,-0.404897,0.00298166,0.0153101,1679,1660,10.5161,-24.4391
462,-636,10.5095,24.054,0.00142358,-0.0018918,-0.00213354,0.00246773,-0.00293594,-0.455129,0.00312371,0.02009,1686,1660,10.5095,-24.0539
469,-636,10.4867,23.6573,0.00176811,-0.00133912,-0.00243549,0.00310332,-0.00267433,-0.501484,0.00333879,0.0297001,1693,1660,10.4867,-23.6574
476,-636,10.4979,23.2809,0.00203695,-0.00138996,-0.00261161,0.00344702,-0.00280003,-0.495075,0.00361318,0.0478179,1700,1660,10.498,-23.2809
483,-636,10.7139,22.8721,0,0,0,0,0,0,0,-1,1707,1660,10.7139,-22.8721
490,-636,11.0208,21.9213,0,0,0,0,0,0,0,-1,1714,1660,11.0208,-21.9213
497,-636,9.55579,18.0111,0,0,0,0,0,0,0,-1,1721,1660,9.55574,-18.0111
504,-636,6.26428,19.4268,0,0,0,0,0,0,0,-1,1728,1660,6.26433,-19.4268
511,-636,5.65466,9.23218,0,0,0,0,0,0,0,-1,1735,1660,5.65461,-9.23216
518,-636,6.72791,1.07605,0,0,0,0,0,0,0,-1,1742,1660,6.7279,-1.0761
525,-636,7.04309,0.93335,0,0,0,0,0,0,0,-1,1749,1660,7.04308,-0.933298
532,-636,0,0,0,0,0,0,0,0,0,-1,1756,1660,0,0
539,-636,0,0,0,0,0,0,0,0,0,-1,1763,1660,0,0
546,-636,0,0,0,0,0,0,0,0,0,-1,1770,1660,0,0
553,-636,0,0,0,0,0,0,0,0,0,-1,1777,1660,0,0
560,-636,0,0,0,0,0,0,0,0,0,-1,1784,1660,0,0
567,-636,0,0,0,0,0,0,0,0,0,-1,1791,1660,0,0
574,-636,0,0,0,0,0,0,0,0,0,-1,1798,1660,0,0
581,-636,0,0,0,0,0,0,0,0,0,-1,1805,1660,0,0
588,-636,0,0,0,0,0,0,0,0,0,-1,1812,1660,0,0
595,-636,0,0,0,0,0,0,0,0,0,-1,1819,1660,0,0
602,-636,0,0,0,0,0,0,0,0,0,-1,1826,1660,0,0
609,-636,0,0,0,0,0,0,0,0,0,-1,1833,1660,0,0
616,-636,0,0,0,0,0,0,0,0,0,-1,1840,1660,0,0
623,-636,0,0,0,0,0,0,0,0,0,-1,1847,1660,0,0
630,-636,0,0,0,0,0,0,0,0,0,-1,1854,1660,0,0
637,-636,0,0,0,0,0,0,0,0,0,-1,1861,1660,0,0
644,-636,0,0,0,0,0,0,0,0,0,-1,1868,1660,0,0
651,-636,0,0,0,0,0,0,0,0,0,-1,1875,1660,0,0
658,-636,0,0,0,0,0,0,0,0,0,-1,1882,1660,0,0
665,-636,0,0,0,0,0,0,0,0,0,-1,1889,1660,0,0
672,-636,0,0,0,0,0,0,0,0,0,-1,1896,1660,0,0
679,-636,0,0,0,0,0,0,0,0,0,-1,1903,1660,0,0
686,-636,0,0,0,0,0,0,0,0,0,-1,1910,1660,0,0
693,-636,0,0,0,0,0,0,0,0,0,-1,1917,1660,0,0
700,-636,0,0,0,0,0,0,0,0,0,-1,1924,1660,0,0
707,-636,0,0,0,0,0,0,0,0,0,-1,1931,1660,0,0
714,-636,0,0,0,0,0,0,0,0,0,-1,1938,1660,0,0
721,-636,0,0,0,0,0,0,0,0,0,-1,1945,1660,0,0
728,-636,0,0,0,0,0,0,0,0,0,-1,1952,1660,0,0
735,-636,0,0,0,0,0,0,0,0,0,-1,1959,1660,0,0
742,-636,0,0,0,0,0,0,0,0,0,-1,1966,1660,0,0
749,-636,0,0,0,0,0,0,0,0,0,-1,1973,1660,0,0
756,-636,0,0,0,0,0,0,0,0,0,-1,1980,1660,0,0
763,-636,0,0,0,0,0,0,0,0,0,-1,1987,1660,0,0
770,-636,0,0,0,0,0,0,0,0,0,-1,1994,1660,0,0
777,-636,0,0,0,0,0,0,0,0,0,-1,2001,1660,0,0
784,-636,0,0,0,0,0,0,0,0,0,-1,2008,1660,0,0
791,-636,0,0,0,0,0,0,0,0,0,-1,2015,1660,0,0
798,-636,0,0,0,0,0,0,0,0,0,-1,2022,1660,0,0
805,-636,0,0,0,0,0,0,0,0,0,-1,2029,1660,0,0
812,-636,0,0,0,0,0,0,0,0,0,-1,2036,1660,0,0
-700,-643,0,0,0,0,0,0,0,0,0,-1,524,1667,0,0
-693,-643,0,0,0,0,0,0,0,0,0,-1,531,1667,0,0
-686,-643,0,0,0,0,0,0,0,0,0,-1,538,1667,0,0
-679,-643,0,0,0,0,0,0,0,0,0,-1,545,1667,0,0
-672,-643,0,0,0,0,0,0,0,0,0,-1,552,1667,0,0
-665,-643,0,0,0,0,0,0,0,0,0,-1,559,1667,0,0
-658,-643,0,0,0,0,0,0,0,0,0,-1,566,1667,0,0
-651,-643,0,0,0,0,0,0,0,0,0,-1,573,1667,0,0
-644,-643,0,0,0,0,0,0,0,0,0,-1,580,1667,0,0
-637,-643,0,0,0,0,0,0,0,0,0,-1,587,1667,0,0
-630,-643,0,0,0,0,0,0,0,0,0,-1,594,1667,0,0
-623,-643,0,0,0,0,0,0,0,0,0,-1,601,1667,0,0
-616,-643,0,0,0,0,0,0,0,0,0,-1,608,1667,0,0
-609,-643,0,0,0,0,0,0,0,0,0,-1,615,1667,0,0
-602,-643,0,0,0,0,0,0,0,0,0,-1,622,1667,0,0
-595,-643,0,0,0,0,0,0,0,0,0,-1,629,1667,0,0
-588,-643,0,0,0,0,0,0,0,0,0,-1,636,1667,0,0
-581,-643,0,0,0,0,0,0,0,0,0,-1,643,1667,0,0
-574,-643,0,0,0,0,0,0,0,0,0,-1,650,1667,0,0
-567,-643,0,0,0,0,0,0,0,0,0,-1,657,1667,0,0
-560,-643,0,0,0,0,0,0,0,0,0,-1,664,1667,0,0
-553,-643,0,0,0,0,0,0,0,0,0,-1,671,1667,0,0
-546,-643,0,0,0,0,0,0,0,0,0,-1,678,1667,0,0
-539,-643,0,0,0,0,0,0,0,0,0,-1,685,1667,0,0
-532,-643,0,0,0,0,0,0,0,0,0,-1,692,1667,0,0
-525,-643,0,0,0,0,0,0,0,0,0,-1,699,1667,0,0
-518,-643,0,0,0,0,0,0,0,0,0,-1,706,1667,0,0
-511,-643,0,0,0,0,0,0,0,0,0,-1,713,1667,0,0
-504,-643,0,0,0,0,0,0,0,0,0,-1,720,1667,0,0
-497,-643,0,0,0,0,0,0,0,0,0,-1,727,1667,0,0
-490,-643,0,0,0,0,0,0,0,0,0,-1,734,1667,0,0
-483,-643,0,0,0,0,0,0,0,0,0,-1,741,1667,0,0
-476,-643,0,0,0,0,0,0,0,0,0,-1,748,1667,0,0
-469,-643,0,0,0,0,0,0,0,0,0,-1,755,1667,0,0
-462,-643,0,0,0,0,0,0,0,0,0,-1,762,1667,0,0
-455,-643,0,0,0,0,0,0,0,0,0,-1,769,1667,0,0
-448,-643,0,0,0,0,0,0,0,0,0,-1,776,1667,0,0
-441,-643,0,0,0,0,0,0,0,0,0,-1,783,1667,0,0
-434,-643,0,0,0,0,0,0,0,0,0,-1,790,1667,0,0
-427,-643,0,0,0,0,0,0,0,0,0,-1,797,1667,0,0
-420,-643,0,0,0,0,0,0,0,0,0,-1,804,1667,0,0
-413,-643,0,0,0,0,0,0,0,0,0,-1,811,1667,0,0
-406,-643,0,0,0,0,0,0,0,0,0,-1,818,1667,0,0
-399,-643,0.589417,11.6465,0,0,0,0,0,0,0,-1,825,1667,0.58939,-11.6465
-392,-643,0.865295,12.6523,0,0,0,0,0,0,0,-1,832,1667,0.865315,-12.6523
-385,-643,1.72968,13.2692,0,0,0,0,0,0,0,-1,839,1667,1.72967,-13.2692
-378,-643,2.66522,13.8193,0,0,0,0,0,0,0,-1,846,1667,2.66524,-13.8193
-371,-643,0.466125,3.35095,0,0,0,0,0,0,0,-1,853,1667,0.466148,-3.351
-364,-643,1.69513,9.922,0,0,0,0,0,0,0,-1,860,1667,1.69511,-9.92205
-357,-643,1.14227,10.8429,0,0,0,0,0,0,0,-1,867,1667,1.14228,-10.8429
-350,-643,2.50061,9.96948,0,0,0,0,0,0,0,-1,874,1667,2.50059,-9.96954
-343,-643,2.61505,6.17407,0,0,0,0,0,0,0,-1,881,1667,2.61504,-6.17412
-336,-643,4.57324,22.9884,0,0,0,0,0,0,0,-1,888,1667,4.57323,-22.9884
-329,-643,4.6723,23.2599,-0.00699052,0.0147311,0.00443239,0.0156007,-0.00786016,1.37706,0.0137887,0.0427956,895,1667,4.6723,-23.2599
-322,-643,4.77228,23.6594,-0.0058629,0.0129711,0.00419435,0.013863,-0.00675476,1.36128,0.0121372,0.0271188,902,1667,4.77228,-23.6594
-315,-643,4.67804,24.058,-0.00504649,0.010894,0.00381127,0.0117584,-0.00591087,1.34777,0.0103859,0.0175316,909,1667,4.67802,-24.058
-308,-643,4.66528,24.4115,-0.00427112,0.00896057,0.00330422,0.00973981,-0.00505036,1.3392,0.00868101,0.0129583,916,1667,4.66526,-24.4115
-301,-643,4.65161,24.7926,-0.00348053,0.00730557,0.0028124,0.00799484,-0.0041698,1.33045,0.00713805,0.0139523,923,1667,4.6516,-24.7926
-294,-643,4.62085,25.1661,-0.0026897,0.00574694,0.00229826,0.00633239,-0.00327515,1.32136,0.00563975,0.0133392,930,1667,4.62086,-25.1661
-287,-643,4.60333,25.5356,-0.00195264,0.00452805,0.00186226,0.00502506,-0.00244965,1.30999,0.00440008,0.0106717,937,1667,4.60331,-25.5356
-280,-643,4.599,25.9243,-0.0012877,0.00357672,0.00148004,0.00399164,-0.00170262,1.29747,0.00337496,0.0137816,944,1667,4.59897,-25.9244
-273,-643,4.59784,26.286,-0.000656556,0.00284768,0.00117958,0.00320775,-0.00101662,1.27453,0.00254595,0.0111854,951,1667,4.59781,-26.286
-266,-643,4.58801,26.6271,8.00936e-05,0.00203089,0.000979476,0.0024378,-0.000326816,1.17705,0.00174438,0.0111341,958,1667,4.588,-26.6271
-259,-643,4.57587,27.0031,0.00072615,0.00175185,0.000787717,0.00217895,0.000299046,1.07396,0.00136393,0.012247,965,1667,4.57585,-27.0031
-252,-643,4.56744,27.3495,0.00118415,0.00177617,0.000652623,0.00219678,0.000763542,0.998309,0.00128781,0.0138141,972,1667,4.56743,-27.3495
-245,-643,4.57104,27.6921,0.00161153,0.00202708,0.000715852,0.0025647,0.00107391,0.926639,0.00148724,0.0117506,979,1667,4.57106,-27.6922
-238,-643,4.60162,28.0209,0.00214787,0.00230632,0.000858715,0.00308946,0.00136473,0.831396,0.00178773,0.0151032,986,1667,4.60164,-28.0209
-231,-643,4.55487,28.3571,0.00273056,0.00258661,0.00111456,0.00377547,0.0015417,0.753156,0.00219194,0.011082,993,1667,4.55488,-28.3571
-224,-643,4.55066,28.6649,0.00313203,0.00306676,0.00136208,0.00446187,0.00173692,0.773422,0.00259703,0.00954405,1000,1667,4.55063,-28.6649
-217,-643,4.56,28.9573,0.00342078,0.00376619,0.00157934,0.00518224,0.00200472,0.839859,0.0030174,0.00908766,1007,1667,4.55997,-28.9572
-210,-643,4.55963,29.2986,0.00359936,0.00461156,0.00165806,0.00583903,0.00237189,0.933525,0.00339088,0.0116334,1014,1667,4.55961,-29.2986
-203,-643,4.57727,29.6791,0.00371298,0.00547976,0.00149815,0.00633557,0.00285717,1.05179,0.0036637,0.0154736,1021,1667,4.57724,-29.6791
-196,-643,4.59326,29.9915,0.0035709,0.00643123,0.00150797,0.00707937,0.00292275,1.16486,0.00410792,0.0159118,1028,1667,4.59321,-29.9915
-189,-643,4.68286,30.2533,0.00308534,0.0076073,0.0013486,0.00797895,0.00271369,1.30189,0.00468451,0.0164909,1035,1667,4.68292,-30.2533
-182,-643,4.74658,30.5721,0.00276903,0.00915697,0.00115956,0.00936094,0.00256506,1.39667,0.00558551,0.0237676,1042,1667,4.74659,-30.5721
-175,-643,4.75659,30.9484,0.00247267,0.0113247,0.000955349,0.0114266,0.00237074,1.4645,0.00696333,0.0349057,1049,1667,4.75655,-30.9484
-168,-643,4.63977,31.2686,0.00197044,0.0140324,0.00068063,0.0140707,0.00193216,1.51461,0.00880736,0.038391,1056,1667,4.63981,-31.2686
-161,-643,4.56519,31.5531,0.0018763,0.0169409,0.000475074,0.0169558,0.00186133,1.5393,0.0107374,0.0415246,1063,1667,4.56515,-31.5531
-154,-643,4.52686,31.7031,0.00185799,0.0204645,0.000262366,0.0204682,0.00185429,1.5567,0.0130713,0.0468628,1070,1667,4.52684,-31.7031
-147,-643,4.22583,31.8154,0,0,0,0,0,0,0,-1,1077,1667,4.22583,-31.8154
-140,-643,4.30322,22.9166,0,0,0,0,0,0,0,-1,1084,1667,4.30327,-22.9167
-133,-643,3.66748,21.6034,0,0,0,0,0,0,0,-1,1091,1667,3.66743,-21.6034
-126,-643,3.13904,17.689,0,0,0,0,0,0,0,-1,1098,1667,3.13909,-17.689
-119,-643,3.76282,14.1458,0,0,0,0,0,0,0,-1,1105,1667,3.76283,-14.1458
-112,-643,3.81458,16.2069,0,0,0,0,0,0,0,-1,1112,1667,3.81463,-16.2069
-105,-643,-2.23413,10.0996,0,0,0,0,0,0,0,-1,1119,1667,-2.23415,-10.0996
-98,-643,3.11035,4.68066,0,0,0,0,0,0,0,-1,1126,1667,3.11041,-4.68071
-91,-643,-1.74146,-2.5885,0,0,0,0,0,0,0,-1,1133,1667,-1.74146,2.58856
-84,-643,-3.07446,-0.199341,0,0,0,0,0,0,0,-1,1140,1667,-3.07449,0.199383
-77,-643,-3.63794,2.81165,0,0,0,0,0,0,0,-1,1147,1667,-3.63791,-2.8117
-70,-643,-3.36938,4.45203,0,0,0,0,0,0,0,-1,1154,1667,-3.36941,-4.452
-63,-643,-3.67822,6.26855,0,0,0,0,0,0,0,-1,1161,1667,-3.67823,-6.26856
-56,-643,-3.95142,8.1073,0,0,0,0,0,0,0,-1,1168,1667,-3.95139,-8.10732
-49,-643,-4.23535,9.90552,0,0,0,0,0,0,0,-1,1175,1667,-4.23537,-9.90557
-42,-643,-4.25195,10.7059,0,0,0,0,0,0,0,-1,1182,1667,-4.25192,-10.706
-35,-643,-4.10986,11.6588,0,0,0,0,0,0,0,-1,1189,1667,-4.10982,-11.6589
-28,-643,-1.38513,5.604,0,0,0,0,0,0,0,-1,1196,1667,-1.3851,-5.60403
-21,-643,1.61011,23.1276,0,0,0,0,0,0,0,-1,1203,1667,1.61011,-23.1275
-14,-643,6.61646,30.8655,0,0,0,0,0,0,0,-1,1210,1667,6.61651,-30.8655
-7,-643,6.73315,31.9211,0.0549771,0.0928474,0.0497677,0.12716,0.0206641,0.967178,0.078794,0.047476,1217,1667,6.7331,-31.9211
0,-643,6.77783,33.0745,0.0710228,0.0735645,0.0556296,0.127938,0.0166496,0.796818,0.0803193,0.044788,1224,1667,6.77784,-33.0745
7,-643,6.95618,34.1107,0.0806633,0.0596228,0.061002,0.132046,0.00824055,0.700009,0.0854161,0.0429691,1231,1667,6.95623,-34.1107
14,-643,7.07239,35.3479,0.0845829,0.0504998,0.064376,0.134135,0.000947893,0.656007,0.0891089,0.0432887,1238,1667,7.07237,-35.3479
21,-643,7.28137,36.0573,0.0841734,0.046381,0.0658021,0.133739,-0.00318431,0.645577,0.0902393,0.0456041,1245,1667,7.28137,-36.0573
28,-643,7.74829,37.2241,0,0,0,0,0,0,0,-1,1252,1667,7.74835,-37.2241
35,-643,7.80798,38.5354,0.0719461,0.0509798,0.060338,0.122705,0.000221077,0.699387,0.0817296,0.04158,1259,1667,7.80796,-38.5353
42,-643,9.64771,39.1056,0.0599799,0.0549463,0.0531268,0.110649,0.00427674,0.761729,0.0723829,0.0451721,1266,1667,9.64775,-39.1056
49,-643,9.55432,39.7974,0.0492826,0.0543566,0.0454954,0.0973857,0.00625351,0.813251,0.062943,0.0461062,1273,1667,9.55427,-39.7974
56,-643,8.75244,40.1885,0.0396286,0.0569105,0.0358404,0.0851369,0.0114022,0.903688,0.0533648,0.0443209,1280,1667,8.75243,-40.1885
63,-643,8.59924,40.1926,0,0,0,0,0,0,0,-1,1287,1667,8.59921,-40.1927
70,-643,8.22058,39.4606,0,0,0,0,0,0,0,-1,1294,1667,8.22053,-39.4606
77,-643,8.30261,39.0118,0,0,0,0,0,0,0,-1,1301,1667,8.30255,-39.0119
84,-643,8.78198,38.3016,0,0,0,0,0,0,0,-1,1308,1667,8.78204,-38.3017
91,-643,8.26172,38.0468,-0.00815474,0.062767,-0.0213053,0.068675,-0.0140628,-1.30029,0.0511199,0.0436233,1315,1667,8.2617,-38.0468
98,-643,8.09692,37.3784,-0.0119724,0.0577281,-0.0310592,0.0695599,-0.0238042,-1.20682,0.05602,0.0434642,1322,1667,8.09688,-37.3784
105,-643,8.20764,36.9091,-0.00930315,0.0477675,-0.0359263,0.065112,-0.0266477,-1.12102,0.0545069,0.0461492,1329,1667,8.20764,-36.9091
112,-643,8.17737,36.6711,0,0,0,0,0,0,0,-1,1336,1667,8.17739,-36.6711
119,-643,8.5415,35.9961,-0.00468715,0.0256257,-0.043363,0.0564048,-0.0354662,-0.953523,0.053499,0.0443882,1343,1667,8.54149,-35.996
126,-643,8.44128,34.9928,-0.00404115,0.0178807,-0.0472499,0.0554243,-0.0415848,-0.899371,0.0561979,0.0452057,1350,1667,8.44132,-34.9928
133,-643,8.46582,34.5765,-0.00416778,0.0134489,-0.0508533,0.0562511,-0.04697,-0.871153,0.059675,0.0481272,1357,1667,8.46578,-34.5765
140,-643,8.49475,34.0331,-0.00520473,0.00889104,-0.0531563,0.0554646,-0.0517783,-0.851308,0.0619289,0.0450836,1364,1667,8.49475,-34.0331
147,-643,8.47974,33.2732,0,0,0,0,0,0,0,-1,1371,1667,8.47974,-33.2732
154,-643,3.57751,40.3458,0,0,0,0,0,0,0,-1,1378,1667,3.57755,-40.3458
161,-643,5.57935,26.2754,0,0,0,0,0,0,0,-1,1385,1667,5.57931,-26.2754
168,-643,10.5563,10.9818,0,0,0,0,0,0,0,-1,1392,1667,10.5562,-10.9819
175,-643,5.88525,-1.1698,0,0,0,0,0,0,0,-1,1399,1667,5.88526,1.16977
182,-643,5.80945,-0.418701,0,0,0,0,0,0,0,-1,1406,1667,5.80949,0.418712
189,-643,5.42297,12.9208,0,0,0,0,0,0,0,-1,1413,1667,5.42298,-12.9208
196,-643,5.51953,11.2415,0,0,0,0,0,0,0,-1,1420,1667,5.51948,-11.2414
203,-643,5.60828,9.82153,0,0,0,0,0,0,0,-1,1427,1667,5.60833,-9.82148
210,-643,4.73218,7.58728,0,0,0,0,0,0,0,-1,1434,1667,4.73222,-7.58728
217,-643,3.8031,5.28955,0,0,0,0,0,0,0,-1,1441,1667,3.80305,-5.28955
224,-643,2.96436,2.97095,0,0,0,0,0,0,0,-1,1448,1667,2.96432,-2.97095
231,-643,2.13403,1.08472,0,0,0,0,0,0,0,-1,1455,1667,2.13403,-1.08467
238,-643,1.18152,-0.261963,0,0,0,0,0,0,0,-1,1462,1667,1.18152,0.26192
245,-643,-0.157471,-1.79016,0,0,0,0,0,0,0,-1,1469,1667,-0.157517,1.7901
252,-643,8.08789,0.0202637,0,0,0,0,0,0,0,-1,1476,1667,8.08791,-0.0203056
259,-643,9.02979,-0.46936,0,0,0,0,0,0,0,-1,1483,1667,9.02974,0.46933
266,-643,4.55066,5.17554,0,0,0,0,0,0,0,-1,1490,1667,4.55063,-5.17556
273,-643,10.74,31.432,0,0,0,0,0,0,0,-1,1497,1667,10.7399,-31.4319
280,-643,9.73071,31.74,0,0,0,0,0,0,0,-1,1504,1667,9.73076,-31.74
287,-643,9.47559,31.0104,0,0,0,0,0,0,0,-1,1511,1667,9.47554,-31.0104
294,-643,9.68604,31.6223,0,0,0,0,0,0,0,-1,1518,1667,9.68606,-31.6223
301,-643,9.87366,31.3853,0,0,0,0,0,0,0,-1,1525,1667,9.87371,-31.3852
308,-643,10.0413,31.2808,0.00935982,0.00623587,-0.00478546,0.0128318,0.00276392,-0.627649,0.00779822,0.0497293,1532,1667,10.0412,-31.2807
315,-643,10.0831,30.9154,0.00800344,0.00588118,-0.00367974,0.010772,0.00311262,-0.645021,0.00640122,0.0407027,1539,1667,10.0831,-30.9154
322,-643,10.2018,30.4585,0.00677428,0.00520168,-0.00268077,0.00878169,0.00319427,-0.642744,0.00513248,0.0266088,1546,1667,10.2018,-30.4585
329,-643,10.2833,30.1924,0.005501,0.00511767,-0.00198724,0.0073058,0.00331287,-0.737323,0.00422409,0.0169712,1553,1667,10.2833,-30.1923
336,-643,10.2186,30.0123,0.00447429,0.00502223,-0.00148947,0.00626272,0.0032338,-0.876352,0.00361643,0.01324,1560,1667,10.2186,-30.0123
343,-643,10.2308,29.7456,0.00351274,0.00475764,-0.00117288,0.005463,0.00280737,-1.02935,0.00315447,0.0127347,1567,1667,10.2309,-29.7456
350,-643,10.2528,29.3885,0.00268798,0.00448519,-0.000877996,0.00484292,0.00233025,-1.1839,0.00279672,0.0125022,1574,1667,10.2528,-29.3886
357,-643,10.2667,29.0962,0.0021276,0.00428866,-0.00075476,0.00452616,0.0018901,-1.26593,0.00262498,0.010785,1581,1667,10.2668,-29.0962
364,-643,10.2725,28.7979,0.00165661,0.00374278,-0.000592308,0.00389921,0.00150018,-1.31258,0.00227106,0.00927987,1588,1667,10.2724,-28.7978
371,-643,10.2789,28.5043,0.00128144,0.00306617,-0.000463145,0.0031792,0.00116841,-1.33143,0.00185687,0.00794672,1595,1667,10.2789,-28.5043
378,-643,10.281,28.1986,0.00100752,0.00228625,-0.00038615,0.00239381,0.000899957,-1.29913,0.00139617,0.00995042,1602,1667,10.281,-28.1986
385,-643,10.3099,27.8695,0.0008415,0.00125705,-0.00031251,0.00142455,0.000673998,-1.07877,0.00082286,0.0167706,1609,1667,10.3099,-27.8695
392,-643,10.3008,27.5326,0.000752479,3.44756e-05,-0.000245835,0.000828583,-4.16283e-05,-0.300217,0.000566774,0.0170465,1616,1667,10.3008,-27.5326
399,-643,10.2834,27.2117,0.000601686,-0.00126407,-0.000141618,0.000612375,-0.00127475,-0.0753287,0.00111168,0.0141332,1623,1667,10.2834,-27.2116
406,-643,10.2706,26.8652,0.000416785,-0.00234923,-8.91102e-05,0.000419653,-0.00235209,-0.0321717,0.00172505,0.0128952,1630,1667,10.2707,-26.8653
413,-643,10.2726,26.4987,0.00033984,-0.00319992,-0.000112335,0.000343401,-0.00320348,-0.0316926,0.00225884,0.01841,1637,1667,10.2726,-26.4987
420,-643,10.2371,26.2,0.000274211,-0.00389684,-0.000185144,0.000282413,-0.00390504,-0.0442718,0.00270242,0.0182656,1644,1667,10.237,-26.2
427,-643,10.2354,25.868,0.000309277,-0.00424345,-0.000322558,0.000332017,-0.00426619,-0.0703808,0.00296101,0.0154119,1651,1667,10.2353,-25.868
434,-643,10.2407,25.5066,0.000427367,-0.00432936,-0.000688034,0.000524888,-0.00442688,-0.140801,0.00314087,0.0159199,1658,1667,10.2407,-25.5066
441,-643,10.2246,25.1357,0.000615927,-0.00418145,-0.00115571,0.000879823,-0.00444535,-0.224494,0.00329621,0.0160577,1665,1667,10.2246,-25.1357
448,-643,10.1318,24.7692,0.000844981,-0.00394075,-0.00161979,0.00134167,-0.00443744,-0.297536,0.0034925,0.0217521,1672,1667,10.1319,-24.7691
455,-643,10.0577,24.3239,0.00115927,-0.00343256,-0.00205708,0.00194602,-0.00421931,-0.365293,0.00363932,0.0288211,1679,1667,10.0577,-24.3238
462,-643,10.1476,23.9628,0.00154458,-0.00240418,-0.00246906,0.00273159,-0.00359119,-0.448135,0.00366169,0.0405593,1686,1667,10.1476,-23.9628
469,-643,10.1158,23.6882,0,0,0,0,0,0,0,-1,1693,1667,10.1158,-23.6882
476,-643,10.025,23.1909,0,0,0,0,0,0,0,-1,1700,1667,10.025,-23.1909
483,-643,10.0189,22.4143,0,0,0,0,0,0,0,-1,1707,1667,10.019,-22.4143
490,-643,10.6475,22.152,0,0,0,0,0,0,0,-1,1714,1667,10.6475,-22.1519
497,-643,11.2279,21.8638,0,0,0,0,0,0,0,-1,1721,1667,11.2279,-21.8637
504,-643,8.05591,19.0656,0,0,0,0,0,0,0,-1,1728,1667,8.0559,-19.0655
511,-643,7.74719,18.1564,0,0,0,0,0,0,0,-1,1735,1667,7.74724,-18.1563
518,-643,7.40564,0.922607,0,0,0,0,0,0,0,-1,1742,1667,7.4057,-0.922598
525,-643,0,0,0,0,0,0,0,0,0,-1,1749,1667,0,0
532,-643,0,0,0,0,0,0,0,0,0,-1,1756,1667,0,0
539,-643,0,0,0,0,0,0,0,0,0,-1,1763,1667,0,0
546,-643,0,0,0,0,0,0,0,0,0,-1,1770,1667,0,0
553,-643,0,0,0,0,0,0,0,0,0,-1,1777,1667,0,0
560,-643,0,0,0,0,0,0,0,0,0,-1,1784,1667,0,0
567,-643,0,0,0,0,0,0,0,0,0,-1,1791,1667,0,0
574,-643,0,0,0,0,0,0,0,0,0,-1,1798,1667,0,0
581,-643,0,0,0,0,0,0,0,0,0,-1,1805,1667,0,0
588,-643,0,0,0,0,0,0,0,0,0,-1,1812,1667,0,0
595,-643,0,0,0,0,0,0,0,0,0,-1,1819,1667,0,0
602,-643,0,0,0,0,0,0,0,0,0,-1,1826,1667,0,0
609,-643,0,0,0,0,0,0,0,0,0,-1,1833,1667,0,0
616,-643,0,0,0,0,0,0,0,0,0,-1,1840,1667,0,0
623,-643,0,0,0,0,0,0,0,0,0,-1,1847,1667,0,0
630,-643,0,0,0,0,0,0,0,0,0,-1,1854,1667,0,0
637,-643,0,0,0,0,0,0,0,0,0,-1,1861,1667,0,0
644,-643,0,0,0,0,0,0,0,0,0,-1,1868,1667,0,0
651,-643,0,0,0,0,0,0,0,0,0,-1,1875,1667,0,0
658,-643,0,0,0,0,0,0,0,0,0,-1,1882,1667,0,0
665,-643,0,0,0,0,0,0,0,0,0,-1,1889,1667,0,0
672,-643,0,0,0,0,0,0,0,0,0,-1,1896,1667,0,0
679,-643,0,0,0,0,0,0,0,0,0,-1,1903,1667,0,0
686,-643,0,0,0,0,0,0,0,0,0,-1,1910,1667,0,0
693,-643,0,0,0,0,0,0,0,0,0,-1,1917,1667,0,0
700,-643,0,0,0,0,0,0,0,0,0,-1,1924,1667,0,0
707,-643,0,0,0,0,0,0,0,0,0,-1,1931,1667,0,0
714,-643,0,0,0,0,0,0,0,0,0,-1,1938,1667,0,0
721,-643,0,0,0,0,0,0,0,0,0,-1,1945,1667,0,0
728,-643,0,0,0,0,0,0,0,0,0,-1,1952,1667,0,0
735,-643,0,0,0,0,0,0,0,0,0,-1,1959,1667,0,0
742,-643,0,0,0,0,0,0,0,0,0,-1,1966,1667,0,0
749,-643,0,0,0,0,0,0,0,0,0,-1,1973,1667,0,0
756,-643,0,0,0,0,0,0,0,0,0,-1,1980,1667,0,0
763,-643,0,0,0,0,0,0,0,0,0,-1,1987,1667,0,0
770,-643,0,0,0,0,0,0,0,0,0,-1,1994,1667,0,0
777,-643,0,0,0,0,0,0,0,0,0,-1,2001,1667,0,0
784,-643,0,0,0,0,0,0,0,0,0,-1,2008,1667,0,0
791,-643,0,0,0,0,0,0,0,0,0,-1,2015,1667,0,0
798,-643,0,0,0,0,0,0,0,0,0,-1,2022,1667,0,0
805,-643,0,0,0,0,0,0,0,0,0,-1,2029,1667,0,0
812,-643,0,0,0,0,0,0,0,0,0,-1,2036,1667,0,0
-700,-650,0,0,0,0,0,0,0,0,0,-1,524,1674,0,0
-693,-650,0,0,0,0,0,0,0,0,0,-1,531,1674,0,0
-686,-650,0,0,0,0,0,0,0,0,0,-1,538,1674,0,0
-679,-650,0,0,0,0,0,0,0,0,0,-1,545,1674,0,0
-672,-650,0,0,0,0,0,0,0,0,0,-1,552,1674,0,0
-665,-650,0,0,0,0,0,0,0,0,0,-1,559,1674,0,0
-658,-650,0,0,0,0,0,0,0,0,0,-1,566,1674,0,0
-651,-650,0,0,0,0,0,0,0,0,0,-1,573,1674,0,0
-644,-650,0,0,0,0,0,0,0,0,0,-1,580,1674,0,0
-637,-650,0,0,0,0,0,0,0,0,0,-1,587,1674,0,0
-630,-650,0,0,0,0,0,0,0,0,0,-1,594,1674,0,0
-623,-650,0,0,0,0,0,0,0,0,0,-1,601,1674,0,0
-616,-650,0,0,0,0,0,0,0,0,0,-1,608,1674,0,0
-609,-650,0,0,0,0,0,0,0,0,0,-1,615,1674,0,0
-602,-650,0,0,0,0,0,0,0,0,0,-1,622,1674,0,0
-595,-650,0,0,0,0,0,0,0,0,0,-1,629,1674,0,0
-588,-650,0,0,0,0,0,0,0,0,0,-1,636,1674,0,0
-581,-650,0,0,0,0,0,0,0,0,0,-1,643,1674,0,0
-574,-650,0,0,0,0,0,0,0,0,0,-1,650,1674,0,0
-567,-650,0,0,0,0,0,0,0,0,0,-1,657,1674,0,0
-560,-650,0,0,0,0,0,0,0,0,0,-1,664,1674,0,0
-553,-650,0,0,0,0,0,0,0,0,0,-1,671,1674,0,0
-546,-650,0,0,0,0,0,0,0,0,0,-1,678,1674,0,0
-539,-650,0,0,0,0,0,0,0,0,0,-1,685,1674,0,0
-532,-650,0,0,0,0,0,0,0,0,0,-1,692,1674,0,0
-525,-650,0,0,0,0,0,0,0,0,0,-1,699,1674,0,0
-518,-650,0,0,0,0,0,0,0,0,0,-1,706,1674,0,0
-511,-650,0,0,0,0,0,0,0,0,0,-1,713,1674,0,0
-504,-650,0,0,0,0,0,0,0,0,0,-1,720,1674,0,0
-497,-650,0,0,0,0,0,0,0,0,0,-1,727,1674,0,0
-490,-650,0,0,0,0,0,0,0,0,0,-1,734,1674,0,0
-483,-650,0,0,0,0,0,0,0,0,0,-1,741,1674,0,0
-476,-650,0,0,0,0,0,0,0,0,0,-1,748,1674,0,0
-469,-650,0,0,0,0,0,0,0,0,0,-1,755,1674,0,0
-462,-650,0,0,0,0,0,0,0,0,0,-1,762,1674,0,0
-455,-650,0,0,0,0,0,0,0,0,0,-1,769,1674,0,0
-448,-650,0,0,0,0,0,0,0,0,0,-1,776,1674,0,0
-441,-650,0,0,0,0,0,0,0,0,0,-1,783,1674,0,0
-434,-650,0,0,0,0,0,0,0,0,0,-1,790,1674,0,0
-427,-650,0,0,0,0,0,0,0,0,0,-1,797,1674,0,0
-420,-650,0,0,0,0,0,0,0,0,0,-1,804,1674,0,0
-413,-650,0,0,0,0,0,0,0,0,0,-1,811,1674,0,0
-406,-650,0,0,0,0,0,0,0,0,0,-1,818,1674,0,0
-399,-650,0,0,0,0,0,0,0,0,0,-1,825,1674,0,0
-392,-650,5.44415,6.85669,0,0,0,0,0,0,0,-1,832,1674,5.44414,-6.85674
-385,-650,1.74451,14.0183,0,0,0,0,0,0,0,-1,839,1674,1.74453,-14.0183
-378,-650,0.997986,4.11108,0,0,0,0,0,0,0,-1,846,1674,0.998006,-4.11113
-371,-650,-1.80096,3.78625,0,0,0,0,0,0,0,-1,853,1674,-1.80094,-3.78625
-364,-650,-2.95679,2.57507,0,0,0,0,0,0,0,-1,860,1674,-2.95681,-2.57506
-357,-650,1.97833,10.8362,0,0,0,0,0,0,0,-1,867,1674,1.97835,-10.8362
-350,-650,-5.30243,0.159912,0,0,0,0,0,0,0,-1,874,1674,-5.30244,-0.159866
-343,-650,-6.21338,-1.4425,0,0,0,0,0,0,0,-1,881,1674,-6.21341,1.44248
-336,-650,5.54797,19.9131,0,0,0,0,0,0,0,-1,888,1674,5.54798,-19.9131
-329,-650,5.16339,22.8914,0,0,0,0,0,0,0,-1,895,1674,5.16339,-22.8914
-322,-650,5.2132,23.4291,-0.00875467,0.0186314,0.00579867,0.0198086,-0.00993186,1.37051,0.0174834,0.0428612,902,1674,5.21322,-23.429
-315,-650,5.05927,23.9187,-0.00746905,0.0153166,0.00520535,0.0164495,-0.00860188,1.35651,0.0146981,0.0387489,909,1674,5.05925,-23.9187
-308,-650,5.04211,24.3337,-0.0062925,0.012334,0.00442353,0.0133312,-0.00728965,1.34908,0.0120746,0.0233308,916,1674,5.04212,-24.3337
-301,-650,5.03735,24.8069,-0.00517604,0.00977729,0.00367748,0.0106328,-0.0060315,1.34224,0.0097426,0.0135217,923,1674,5.03737,-24.8069
-294,-650,4.98688,25.1738,-0.00411528,0.00749553,0.00290851,0.00818337,-0.00480311,1.33857,0.00758194,0.0115519,930,1674,4.98685,-25.1738
-287,-650,4.97821,25.5494,-0.00313734,0.00571511,0.00225955,0.0062585,-0.00368073,1.33479,0.00580239,0.0136028,937,1674,4.97823,-25.5494
-280,-650,4.96204,25.8978,-0.00231585,0.0043152,0.00168117,0.00471707,-0.00271772,1.33616,0.00434391,0.0142464,944,1674,4.96201,-25.8979
-273,-650,4.96075,26.28,-0.00159244,0.00326933,0.00120685,0.00355243,-0.00187553,1.34039,0.00318329,0.012794,951,1674,4.96077,-26.28
-266,-650,4.91418,26.6505,-0.000748951,0.00212438,0.000880991,0.00237299,-0.00099756,1.29576,0.00199927,0.0110436,958,1674,4.91418,-26.6506
-259,-650,4.91895,26.9867,-6.22302e-05,0.00159949,0.000568293,0.00177525,-0.000237991,1.27085,0.00127028,0.0144244,965,1674,4.91896,-26.9867
-252,-650,4.92072,27.333,0.000349034,0.00143169,0.000315246,0.00151679,0.000263931,1.30712,0.000935708,0.0136786,972,1674,4.92073,-27.3331
-245,-650,4.91809,27.6628,0.000705818,0.00156925,0.000316877,0.00167306,0.000602007,1.25421,0.000978514,0.0122748,979,1674,4.91812,-27.6628
-238,-650,4.8996,28.0171,0.00117954,0.00177923,0.000438129,0.0020103,0.000948475,1.08548,0.00116126,0.0134213,986,1674,4.89962,-28.0171
-231,-650,4.85358,28.3903,0.00181161,0.00197194,0.000629931,0.00252679,0.00125677,0.848687,0.00145885,0.0176191,993,1674,4.85358,-28.3903
-224,-650,4.87482,28.7043,0.00211922,0.00228709,0.000830387,0.00303777,0.00136853,0.835766,0.00175672,0.014366,1000,1674,4.87483,-28.7043
-217,-650,4.89551,28.9838,0.00228247,0.00283729,0.00102824,0.00362489,0.00149487,0.917158,0.00210351,0.00991086,1007,1674,4.89553,-28.9837
-210,-650,4.90302,29.2795,0.0024945,0.00353032,0.00111795,0.00424449,0.00178032,1.00231,0.00246114,0.00924831,1014,1674,4.90302,-29.2795
-203,-650,4.92554,29.5923,0.00268012,0.00421139,0.00102616,0.00472607,0.00216544,1.1059,0.00273178,0.0137907,1021,1674,4.92549,-29.5922
-196,-650,4.93103,29.8882,0.00267303,0.00495789,0.00104818,0.00536589,0.00226504,1.1996,0.0031105,0.0134591,1028,1674,4.93105,-29.8881
-189,-650,4.92981,30.1908,0.00241689,0.00592748,0.000953181,0.00616958,0.00217479,1.32206,0.00361331,0.0112946,1035,1674,4.92983,-30.1907
-182,-650,4.97314,30.5415,0.00228342,0.00726937,0.00080026,0.00739467,0.00215812,1.41549,0.0043909,0.0104025,1042,1674,4.97316,-30.5415
-175,-650,4.97876,30.8497,0.00224187,0.00910217,0.000675355,0.00916802,0.00217602,1.4736,0.00553124,0.0154215,1049,1674,4.97878,-30.8497
-168,-650,4.94446,31.1366,0.00204123,0.011345,0.000498088,0.0113716,0.00201464,1.51746,0.00700671,0.019263,1056,1674,4.94451,-31.1366
-161,-650,4.95056,31.3978,0.00214515,0.0138137,0.000423293,0.013829,0.00212981,1.53458,0.00859781,0.0266237,1063,1674,4.9506,-31.3979
-154,-650,5.01086,31.6255,0.00233026,0.0168068,0.000355207,0.0168155,0.00232155,1.54628,0.0105222,0.0323204,1070,1674,5.01086,-31.6255
-147,-650,5.09717,31.9165,0,0,0,0,0,0,0,-1,1077,1674,5.09723,-31.9165
-140,-650,4.85767,32.6871,0,0,0,0,0,0,0,-1,1084,1674,4.85764,-32.6871
-133,-650,4.5907,33.2682,0,0,0,0,0,0,0,-1,1091,1674,4.59069,-33.2681
-126,-650,4.75964,33.6635,0,0,0,0,0,0,0,-1,1098,1674,4.75964,-33.6634
-119,-650,5.16663,20.6232,0,0,0,0,0,0,0,-1,1105,1674,5.16665,-20.6232
-112,-650,3.86292,14.4513,0,0,0,0,0,0,0,-1,1112,1674,3.8629,-14.4513
-105,-650,4.9259,12.0626,0,0,0,0,0,0,0,-1,1119,1674,4.92591,-12.0626
-98,-650,3.3761,6.78003,0,0,0,0,0,0,0,-1,1126,1674,3.37611,-6.78009
-91,-650,3.66809,7.04443,0,0,0,0,0,0,0,-1,1133,1674,3.66806,-7.04439
-84,-650,-3.82666,-1.59521,0,0,0,0,0,0,0,-1,1140,1674,-3.82661,1.59517
-77,-650,-4.70557,1.90198,0,0,0,0,0,0,0,-1,1147,1674,-4.7056,-1.90194
-70,-650,-4.88171,3.81653,0,0,0,0,0,0,0,-1,1154,1674,-4.88176,-3.81651
-63,-650,-5.14612,5.56543,0,0,0,0,0,0,0,-1,1161,1674,-5.14612,-5.56547
-56,-650,-5.38367,7.41101,0,0,0,0,0,0,0,-1,1168,1674,-5.38361,-7.41102
-49,-650,-5.11316,8.23706,0,0,0,0,0,0,0,-1,1175,1674,-5.11317,-8.23708
-42,-650,-4.99487,9.6792,0,0,0,0,0,0,0,-1,1182,1674,-4.99484,-9.67921
-35,-650,-4.77771,11.3369,0,0,0,0,0,0,0,-1,1189,1674,-4.77769,-11.3369
-28,-650,-4.1936,13.1501,0,0,0,0,0,0,0,-1,1196,1674,-4.19358,-13.1501
-21,-650,14.001,37.6479,0,0,0,0,0,0,0,-1,1203,1674,14.0009,-37.6479
-14,-650,7.3551,36.8035,0,0,0,0,0,0,0,-1,1210,1674,7.35515,-36.8035
-7,-650,7.53735,37.3016,0,0,0,0,0,0,0,-1,1217,1674,7.53734,-37.3016
0,-650,6.40479,32.718,0.0636661,0.0680061,0.0482607,0.114146,0.0175266,0.807865,0.0709799,0.0424766,1224,1674,6.40481,-32.718
7,-650,6.73352,33.9872,0.0708316,0.0589217,0.0519629,0.11718,0.0125737,0.728347,0.0742841,0.040252,1231,1674,6.73349,-33.9872
14,-650,7.38586,35.6833,0,0,0,0,0,0,0,-1,1238,1674,7.38589,-35.6833
21,-650,7.56372,36.1882,0.0726743,0.0514221,0.055445,0.118502,0.00559417,0.690721,0.0772044,0.047216,1245,1674,7.56371,-36.1883
28,-650,7.68054,37.0664,0.0687323,0.0538112,0.0545576,0.116337,0.00620644,0.717447,0.0755742,0.0468177,1252,1674,7.68059,-37.0664
35,-650,7.66016,37.8199,0.0612684,0.0580737,0.0508415,0.110538,0.00880446,0.769694,0.0709393,0.0450939,1259,1674,7.66011,-37.82
42,-650,9.18726,39.0502,0.0508503,0.0622945,0.045174,0.102107,0.0110374,0.848396,0.064707,0.0433476,1266,1674,9.18727,-39.0502
49,-650,9.44226,40.0493,0.0413847,0.0625763,0.0387136,0.0921179,0.0118431,0.918975,0.0578696,0.0449523,1273,1674,9.44221,-40.0493
56,-650,8.92676,39.7526,0.0333565,0.0648823,0.0305769,0.0835203,0.0147186,1.02339,0.0514802,0.048112,1280,1674,8.92672,-39.7526
63,-650,9.12927,39.2695,0.0248945,0.0673437,0.0216633,0.0764471,0.0157911,1.17298,0.0466015,0.0493309,1287,1674,9.12933,-39.2695
70,-650,8.25708,38.3403,0.0170146,0.0673343,0.012008,0.070053,0.0142959,1.34815,0.0427412,0.0494174,1294,1674,8.25711,-38.3403
77,-650,8.4364,37.8965,0.00794347,0.0679957,0.00369693,0.0682225,0.00771674,1.50954,0.0431401,0.0447798,1301,1674,8.43636,-37.8964
84,-650,8.77686,37.3617,0,0,0,0,0,0,0,-1,1308,1674,8.7768,-37.3617
91,-650,9.20825,36.5554,-0.00292224,0.0612564,-0.0152932,0.0647144,-0.00638018,-1.34843,0.0454193,0.0474715,1315,1674,9.20824,-36.5554
98,-650,7.76892,37.2981,-0.00565503,0.055218,-0.0232659,0.0630918,-0.0135288,-1.24447,0.0472213,0.0434105,1322,1674,7.76895,-37.2982
105,-650,7.94995,36.6544,-0.00332079,0.0452522,-0.0274541,0.0576204,-0.0156889,-1.14752,0.0445733,0.0452374,1329,1674,7.94996,-36.6544
112,-650,8.18457,36.3059,-0.000640562,0.0345552,-0.0303362,0.0520283,-0.0181137,-1.04823,0.0420448,0.0418644,1336,1674,8.1846,-36.3059
119,-650,8.47693,35.5627,0.000766398,0.0246915,-0.0331778,0.0479975,-0.0225396,-0.958423,0.0415994,0.0422385,1343,1674,8.47687,-35.5627
126,-650,8.61462,34.782,0.00111579,0.0179299,-0.0360376,0.046528,-0.0274824,-0.899991,0.043199,0.0483584,1350,1674,8.61465,-34.782
133,-650,8.64514,34.3109,0.000462965,0.0143551,-0.0388397,0.046865,-0.0320469,-0.873883,0.0458267,0.0494566,1357,1674,8.64508,-34.3109
140,-650,8.74597,33.8867,-0.00122639,0.0113268,-0.0411329,0.0466592,-0.0365588,-0.861111,0.0481637,0.0497069,1364,1674,8.74596,-33.8867
147,-650,8.81165,33.4027,0,0,0,0,0,0,0,-1,1371,1674,8.81167,-33.4027
154,-650,8.03918,37.9056,0,0,0,0,0,0,0,-1,1378,1674,8.03922,-37.9056
161,-650,4.09106,30.3021,0,0,0,0,0,0,0,-1,1385,1674,4.09104,-30.3021
168,-650,11.2113,7.87231,0,0,0,0,0,0,0,-1,1392,1674,11.2113,-7.87236
175,-650,5.62537,-0.230713,0,0,0,0,0,0,0,-1,1399,1674,5.62538,0.230745
182,-650,5.56006,0.421631,0,0,0,0,0,0,0,-1,1406,1674,5.56,-0.421652
189,-650,4.81543,11.0654,0,0,0,0,0,0,0,-1,1413,1674,4.81542,-11.0654
196,-650,5.39575,11.9077,0,0,0,0,0,0,0,-1,1420,1674,5.39575,-11.9078
203,-650,3.93628,11.8215,0,0,0,0,0,0,0,-1,1427,1674,3.93624,-11.8216
210,-650,5.40955,8.08594,0,0,0,0,0,0,0,-1,1434,1674,5.40958,-8.086
217,-650,5.12451,4.69739,0,0,0,0,0,0,0,-1,1441,1674,5.12451,-4.69738
224,-650,4.79041,1.45813,0,0,0,0,0,0,0,-1,1448,1674,4.79046,-1.45816
231,-650,4.04102,-0.642212,0,0,0,0,0,0,0,-1,1455,1674,4.04101,0.642209
238,-650,3.23022,-1.43396,0,0,0,0,0,0,0,-1,1462,1674,3.23023,1.43394
245,-650,1.65894,-2.55042,0,0,0,0,0,0,0,-1,1469,1674,1.65889,2.55036
252,-650,8.75342,0.355103,0,0,0,0,0,0,0,-1,1476,1674,8.75337,-0.355147
259,-650,5.61255,3.17566,0,0,0,0,0,0,0,-1,1483,1674,5.61257,-3.17572
266,-650,4.00403,6.10229,0,0,0,0,0,0,0,-1,1490,1674,4.00401,-6.10225
273,-650,9.68481,31.9307,0,0,0,0,0,0,0,-1,1497,1674,9.68484,-31.9306
280,-650,9.51343,31.8821,0,0,0,0,0,0,0,-1,1504,1674,9.51344,-31.8821
287,-650,9.34204,31.8336,0,0,0,0,0,0,0,-1,1511,1674,9.34205,-31.8336
294,-650,9.65552,31.7196,0.0095092,0.00571776,-0.00537539,0.0133134,0.0019136,-0.615874,0.00831146,0.041002,1518,1674,9.65556,-31.7196
301,-650,9.76917,31.3809,0.00847066,0.00504671,-0.00445656,0.0115328,0.00198461,-0.602016,0.00711978,0.0358902,1525,1674,9.76914,-31.3808
308,-650,9.91235,31.0769,0.00742726,0.00437049,-0.00350488,0.00972251,0.00207524,-0.579792,0.00591259,0.0228549,1532,1674,9.91241,-31.0769
315,-650,9.91223,30.8162,0.00639009,0.004161,-0.00274821,0.00824116,0.00230994,-0.592756,0.00490877,0.0171563,1539,1674,9.91222,-30.8161
322,-650,9.91541,30.5533,0.00540146,0.00371013,-0.00204247,0.00676641,0.00234518,-0.589123,0.00396741,0.0139373,1546,1674,9.91545,-30.5534
329,-650,9.95105,30.2277,0.00441346,0.00355349,-0.00153216,0.00557483,0.00239213,-0.648598,0.0032294,0.0163242,1553,1674,9.95103,-30.2276
336,-650,9.94739,29.9813,0.00359158,0.00340208,-0.00112189,0.00462271,0.00237094,-0.74327,0.00266922,0.0145662,1560,1674,9.94741,-29.9814
343,-650,9.96472,29.705,0.00280027,0.00313086,-0.000839152,0.00382084,0.00211029,-0.882643,0.00220999,0.0136437,1567,1674,9.96477,-29.7049
350,-650,9.96057,29.3833,0.00212353,0.00282239,-0.000622739,0.00318703,0.00175888,-1.04107,0.00184333,0.0159372,1574,1674,9.96052,-29.3833
357,-650,9.95093,29.0957,0.00164863,0.00246167,-0.000521625,0.00271648,0.00139383,-1.1164,0.00156854,0.0131202,1581,1674,9.95092,-29.0957
364,-650,9.96191,28.809,0.00125158,0.00174185,-0.000377698,0.00194699,0.00104644,-1.07324,0.00112515,0.00897248,1588,1674,9.96195,-28.809
371,-650,9.96497,28.5087,0.000940271,0.000965188,-0.000259535,0.00121256,0.000692896,-0.809382,0.000702451,0.0112614,1595,1674,9.96501,-28.5087
378,-650,9.95203,28.1921,0.000726298,7.01942e-05,-0.00017368,0.000769437,2.70551e-05,-0.243456,0.000504182,0.0126259,1602,1674,9.95207,-28.1922
385,-650,9.96289,27.87,0.000622082,-0.00105288,-8.08838e-05,0.000625979,-0.00105677,-0.0481407,0.000982093,0.0140161,1609,1674,9.96294,-27.87
392,-650,9.97083,27.571,0.000575325,-0.00239692,-2.02615e-07,0.000575325,-0.00239692,-6.81688e-05,0.00182029,0.0177322,1616,1674,9.97077,-27.571
399,-650,9.95764,27.2452,0.000439826,-0.00380132,0.000100455,0.000442204,-0.0038037,0.0236682,0.00269532,0.0162635,1623,1674,9.95758,-27.2453
406,-650,9.9314,26.9011,0.000283841,-0.0049645,0.000141855,0.000287673,-0.00496834,0.0270022,0.00341216,0.0145182,1630,1674,9.93135,-26.9012
413,-650,9.92175,26.543,0.000245111,-0.00586133,0.000116305,0.000247325,-0.00586355,0.0190371,0.00399403,0.0156776,1637,1674,9.92177,-26.5429
420,-650,9.90662,26.2185,0.000206098,-0.00651081,7.62056e-06,0.000206106,-0.00651082,0.00113453,0.00441086,0.0165566,1644,1674,9.9066,-26.2185
427,-650,9.89209,25.8834,0.00025702,-0.00686669,-0.000132517,0.000259484,-0.00686915,-0.0185936,0.00466833,0.0149669,1651,1674,9.89211,-25.8834
434,-650,9.89063,25.5488,0.000373192,-0.00683238,-0.000542826,0.000413856,-0.00687304,-0.0747718,0.00472603,0.01735,1658,1674,9.89061,-25.5488
441,-650,9.85071,25.2166,0.000565004,-0.00650384,-0.00109499,0.000730737,-0.00666957,-0.150215,0.0047089,0.0298335,1665,1674,9.85075,-25.2166
448,-650,9.8252,24.8982,0.00079483,-0.00606111,-0.00167574,0.0011825,-0.00644878,-0.227342,0.00474275,0.0452781,1672,1674,9.82521,-24.8982
455,-650,9.68262,24.3588,0.00114952,-0.00520337,-0.00224285,0.00186154,-0.00591539,-0.307401,0.00468894,0.0446841,1679,1674,9.68261,-24.3588
462,-650,9.60327,23.9463,0,0,0,0,0,0,0,-1,1686,1674,9.60325,-23.9463
469,-650,9.52747,23.5498,0,0,0,0,0,0,0,-1,1693,1674,9.52744,-23.5498
476,-650,8.80078,22.457,0,0,0,0,0,0,0,-1,1700,1674,8.80079,-22.457
483,-650,9.58289,22.5995,0,0,0,0,0,0,0,-1,1707,1674,9.58287,-22.5995
490,-650,10.2742,22.3826,0,0,0,0,0,0,0,-1,1714,1674,10.2742,-22.3826
497,-650,10.4985,20.1362,0,0,0,0,0,0,0,-1,1721,1674,10.4986,-20.1362
504,-650,9.69458,18.7721,0,0,0,0,0,0,0,-1,1728,1674,9.6946,-18.772
511,-650,9.37158,17.7506,0,0,0,0,0,0,0,-1,1735,1674,9.37159,-17.7506
518,-650,0,0,0,0,0,0,0,0,0,-1,1742,1674,0,0
525,-650,0,0,0,0,0,0,0,0,0,-1,1749,1674,0,0
532,-650,0,0,0,0,0,0,0,0,0,-1,1756,1674,0,0
539,-650,0,0,0,0,0,0,0,0,0,-1,1763,1674,0,0
546,-650,0,0,0,0,0,0,0,0,0,-1,1770,1674,0,0
553,-650,0,0,0,0,0,0,0,0,0,-1,1777,1674,0,0
560,-650,0,0,0,0,0,0,0,0,0,-1,1784,1674,0,0
567,-650,0,0,0,0,0,0,0,0,0,-1,1791,1674,0,0
574,-650,0,0,0,0,0,0,0,0,0,-1,1798,1674,0,0
581,-650,0,0,0,0,0,0,0,0,0,-1,1805,1674,0,0
588,-650,0,0,0,0,0,0,0,0,0,-1,1812,1674,0,0
595,-650,0,0,0,0,0,0,0,0,0,-1,1819,1674,0,0
602,-650,0,0,0,0,0,0,0,0,0,-1,1826,1674,0,0
609,-650,0,0,0,0,0,0,0,0,0,-1,1833,1674,0,0
616,-650,0,0,0,0,0,0,0,0,0,-1,1840,1674,0,0
623,-650,0,0,0,0,0,0,0,0,0,-1,1847,1674,0,0
630,-650,0,0,0,0,0,0,0,0,0,-1,1854,1674,0,0
637,-650,0,0,0,0,0,0,0,0,0,-1,1861,1674,0,0
644,-650,0,0,0,0,0,0,0,0,0,-1,1868,1674,0,0
651,-650,0,0,0,0,0,0,0,0,0,-1,1875,1674,0,0
658,-650,0,0,0,0,0,0,0,0,0,-1,1882,1674,0,0
665,-650,0,0,0,0,0,0,0,0,0,-1,1889,1674,0,0
672,-650,0,0,0,0,0,0,0,0,0,-1,1896,1674,0,0
679,-650,0,0,0,0,0,0,0,0,0,-1,1903,1674,0,0
686,-650,0,0,0,0,0,0,0,0,0,-1,1910,1674,0,0
693,-650,0,0,0,0,0,0,0,0,0,-1,1917,1674,0,0
700,-650,0,0,0,0,0,0,0,0,0,-1,1924,1674,0,0
707,-650,0,0,0,0,0,0,0,0,0,-1,1931,1674,0,0
714,-650,0,0,0,0,0,0,0,0,0,-1,1938,1674,0,0
721,-650,0,0,0,0,0,0,0,0,0,-1,1945,1674,0,0
728,-650,0,0,0,0,0,0,0,0,0,-1,1952,1674,0,0
735,-650,0,0,0,0,0,0,0,0,0,-1,1959,1674,0,0
742,-650,0,0,0,0,0,0,0,0,0,-1,1966,1674,0,0
749,-650,0,0,0,0,0,0,0,0,0,-1,1973,1674,0,0
756,-650,0,0,0,0,0,0,0,0,0,-1,1980,1674,0,0
763,-650,0,0,0,0,0,0,0,0,0,-1,1987,1674,0,0
770,-650,0,0,0,0,0,0,0,0,0,-1,1994,1674,0,0
777,-650,0,0,0,0,0,0,0,0,0,-1,2001,1674,0,0
784,-650,0,0,0,0,0,0,0,0,0,-1,2008,1674,0,0
791,-650,0,0,0,0,0,0,0,0,0,-1,2015,1674,0,0
798,-650,0,0,0,0,0,0,0,0,0,-1,2022,1674,0,0
805,-650,0,0,0,0,0,0,0,0,0,-1,2029,1674,0,0
812,-650,0,0,0,0,0,0,0,0,0,-1,2036,1674,0,0
-700,-657,0,0,0,0,0,0,0,0,0,-1,524,1681,0,0
-693,-657,0,0,0,0,0,0,0,0,0,-1,531,1681,0,0
-686,-657,0,0,0,0,0,0,0,0,0,-1,538,1681,0,0
-679,-657,0,0,0,0,0,0,0,0,0,-1,545,1681,0,0
-672,-657,0,0,0,0,0,0,0,0,0,-1,552,1681,0,0
-665,-657,0,0,0,0,0,0,0,0,0,-1,559,1681,0,0
-658,-657,0,0,0,0,0,0,0,0,0,-1,566,1681,0,0
-651,-657,0,0,0,0,0,0,0,0,0,-1,573,1681,0,0
-644,-657,0,0,0,0,0,0,0,0,0,-1,580,1681,0,0
-637,-657,0,0,0,0,0,0,0,0,0,-1,587,1681,0,0
-630,-657,0,0,0,0,0,0,0,0,0,-1,594,1681,0,0
-623,-657,0,0,0,0,0,0,0,0,0,-1,601,1681,0,0
-616,-657,0,0,0,0,0,0,0,0,0,-1,608,1681,0,0
-609,-657,0,0,0,0,0,0,0,0,0,-1,615,1681,0,0
-602,-657,0,0,0,0,0,0,0,0,0,-1,622,1681,0,0
-595,-657,0,0,0,0,0,0,0,0,0,-1,629,1681,0,0
-588,-657,0,0,0,0,0,0,0,0,0,-1,636,1681,0,0
-581,-657,0,0,0,0,0,0,0,0,0,-1,643,1681,0,0
-574,-657,0,0,0,0,0,0,0,0,0,-1,650,1681,0,0
-567,-657,0,0,0,0,0,0,0,0,0,-1,657,1681,0,0
-560,-657,0,0,0,0,0,0,0,0,0,-1,664,1681,0,0
-553,-657,0,0,0,0,0,0,0,0,0,-1,671,1681,0,0
-546,-657,0,0,0,0,0,0,0,0,0,-1,678,1681,0,0
-539,-657,0,0,0,0,0,0,0,0,0,-1,685,1681,0,0
-532,-657,0,0,0,0,0,0,0,0,0,-1,692,1681,0,0
-525,-657,0,0,0,0,0,0,0,0,0,-1,699,1681,0,0
-518,-657,0,0,0,0,0,0,0,0,0,-1,706,1681,0,0
-511,-657,0,0,0,0,0,0,0,0,0,-1,713,1681,0,0
-504,-657,0,0,0,0,0,0,0,0,0,-1,720,1681,0,0
-497,-657,0,0,0,0,0,0,0,0,0,-1,727,1681,0,0
-490,-657,0,0,0,0,0,0,0,0,0,-1,734,1681,0,0
-483,-657,0,0,0,0,0,0,0,0,0,-1,741,1681,0,0
-476,-657,0,0,0,0,0,0,0,0,0,-1,748,1681,0,0
-469,-657,0,0,0,0,0,0,0,0,0,-1,755,1681,0,0
-462,-657,0,0,0,0,0,0,0,0,0,-1,762,1681,0,0
-455,-657,0,0,0,0,0,0,0,0,0,-1,769,1681,0,0
-448,-657,0,0,0,0,0,0,0,0,0,-1,776,1681,0,0
-441,-657,0,0,0,0,0,0,0,0,0,-1,783,1681,0,0
-434,-657,0,0,0,0,0,0,0,0,0,-1,790,1681,0,0
-427,-657,0,0,0,0,0,0,0,0,0,-1,797,1681,0,0
-420,-657,0,0,0,0,0,0,0,0,0,-1,804,1681,0,0
-413,-657,0,0,0,0,0,0,0,0,0,-1,811,1681,0,0
-406,-657,0,0,0,0,0,0,0,0,0,-1,818,1681,0,0
-399,-657,0,0,0,0,0,0,0,0,0,-1,825,1681,0,0
-392,-657,0,0,0,0,0,0,0,0,0,-1,832,1681,0,0
-385,-657,1.09814,6.18896,0,0,0,0,0,0,0,-1,839,1681,1.09814,-6.18894
-378,-657,0.31488,4.46753,0,0,0,0,0,0,0,-1,846,1681,0.31487,-4.46755
-371,-657,-0.519043,2.69421,0,0,0,0,0,0,0,-1,853,1681,-0.519064,-2.69422
-364,-657,-3.42017,4.18323,0,0,0,0,0,0,0,-1,860,1681,-3.42019,-4.18319
-357,-657,-4.41913,2.97168,0,0,0,0,0,0,0,-1,867,1681,-4.41913,-2.97165
-350,-657,-5.42291,1.70276,0,0,0,0,0,0,0,-1,874,1681,-5.42291,-1.70277
-343,-657,-6.51294,0.397339,0,0,0,0,0,0,0,-1,881,1681,-6.51295,-0.397335
-336,-657,4.4566,20.7173,0,0,0,0,0,0,0,-1,888,1681,4.45662,-20.7173
-329,-657,5.20972,22.2781,0,0,0,0,0,0,0,-1,895,1681,5.20973,-22.2781
-322,-657,5.90094,22.8198,-0.0128791,0.0256712,0.00770718,0.027155,-0.0143628,1.38061,0.0243466,0.0440275,902,1681,5.90094,-22.8198
-315,-657,5.51465,23.4425,-0.0107788,0.0207573,0.00683366,0.0221744,-0.0121959,1.36632,0.0201206,0.0429705,909,1681,5.51462,-23.4426
-308,-657,5.05188,23.9884,-0.00898043,0.0164785,0.00570359,0.0176979,-0.0101998,1.36018,0.0162995,0.0391311,916,1681,5.05186,-23.9884
-301,-657,5.42029,24.8036,-0.00732857,0.0128241,0.00466152,0.0138501,-0.00835459,1.35415,0.0129501,0.033803,923,1681,5.42029,-24.8036
-294,-657,5.37347,25.2581,-0.00580804,0.00970694,0.00362548,0.0105123,-0.00661342,1.3522,0.00997259,0.0215231,930,1681,5.37347,-25.258
-287,-657,5.32202,25.5935,-0.00446549,0.00726413,0.00272401,0.00786587,-0.00506723,1.35339,0.00752498,0.0143685,937,1681,5.32203,-25.5935
-280,-657,5.29059,25.8992,-0.00340545,0.00535445,0.00192259,0.00575784,-0.00380884,1.36398,0.0055614,0.0138691,944,1681,5.29057,-25.8992
-273,-657,5.29169,26.2828,-0.00254437,0.00394978,0.00125744,0.00418475,-0.00277934,1.38606,0.00404792,0.00993566,951,1681,5.29167,-26.2829
-266,-657,5.24298,26.6401,-0.00158033,0.00246329,0.000796266,0.00261444,-0.00173148,1.3832,0.00252632,0.014253,958,1681,5.24298,-26.6401
-259,-657,5.24487,26.9791,-0.000857448,0.00167979,0.000363145,0.00173074,-0.000908401,1.4314,0.00154817,0.0182598,965,1681,5.24485,-26.9791
-252,-657,5.23096,27.3341,-0.00049205,0.00130357,-1.29899e-05,0.00130366,-0.000492144,-1.56356,0.00107152,0.0132228,972,1681,5.23097,-27.3341
-245,-657,5.24335,27.6809,-0.000212365,0.00129001,-8.88017e-05,0.00129524,-0.000217595,-1.51196,0.000944419,0.0159283,979,1681,5.24336,-27.6809
-238,-657,5.25409,28.0295,0.00018808,0.00139636,2.35055e-06,0.00139636,0.000188075,1.56885,0.000874979,0.0209725,986,1681,5.25411,-28.0295
-231,-657,5.22668,28.38,0.00089099,0.00147492,0.000125746,0.00150084,0.000865062,1.36746,0.000869877,0.0215206,993,1681,5.22669,-28.38
-224,-657,5.20917,28.7164,0.0010994,0.00161634,0.000283523,0.00174152,0.00097421,1.155,0.00100783,0.016533,1000,1681,5.20914,-28.7164
-217,-657,5.21442,29.0217,0.0011423,0.0020302,0.000465369,0.00222942,0.000943083,1.16632,0.00129223,0.00972815,1007,1681,5.21443,-29.0217
-210,-657,5.21741,29.3196,0.00140981,0.00259476,0.000593298,0.00284075,0.00116382,1.17775,0.001649,0.0102207,1014,1681,5.21742,-29.3196
-203,-657,5.22461,29.6211,0.00167145,0.0031161,0.00059432,0.00332917,0.00145837,1.22656,0.00192701,0.0126929,1021,1681,5.22464,-29.6211
-196,-657,5.23596,29.9086,0.00179286,0.00369835,0.00065554,0.00390209,0.00158912,1.26946,0.00226576,0.0133988,1028,1681,5.23597,-29.9085
-189,-657,5.25232,30.2023,0.00173903,0.00448226,0.00063953,0.00462403,0.00159727,1.35265,0.00271187,0.00985241,1035,1681,5.25236,-30.2023
-182,-657,5.24915,30.5015,0.00174537,0.00561328,0.000539004,0.00568699,0.00167167,1.43489,0.00337504,0.00829779,1042,1681,5.24912,-30.5014
-175,-657,5.26196,30.7974,0.00188043,0.00714181,0.000493825,0.00718776,0.00183448,1.47802,0.00431243,0.0104541,1049,1681,5.26197,-30.7974
-168,-657,5.25623,31.0867,0.0018933,0.00895912,0.000418829,0.00898386,0.00186856,1.5118,0.00547375,0.0121145,1056,1681,5.25624,-31.0867
-161,-657,5.26929,31.3511,0.00212679,0.010944,0.000436627,0.0109656,0.00210522,1.52144,0.0067195,0.0119164,1063,1681,5.26928,-31.3511
-154,-657,5.32324,31.6055,0.0024292,0.0133847,0.000453914,0.0134035,0.00241042,1.52946,0.00825039,0.012901,1070,1681,5.3232,-31.6055
-147,-657,5.33667,31.8784,0.00286143,0.0162102,0.000409535,0.0162228,0.00284888,1.54016,0.0100017,0.0230881,1077,1681,5.33664,-31.8785
-140,-657,5.2478,32.3541,0.00348487,0.0193597,0.000462148,0.0193731,0.00347142,1.54172,0.0119279,0.0423709,1084,1681,5.24775,-32.3542
-133,-657,5.07849,32.8324,0.00425305,0.0226635,0.00061938,0.0226843,0.00423223,1.5372,0.0139281,0.0486049,1091,1681,5.07847,-32.8324
-126,-657,5.29993,33.2445,0.00517795,0.0261331,0.000733018,0.0261587,0.00515234,1.53587,0.0160006,0.048024,1098,1681,5.2999,-33.2445
-119,-657,5.36682,33.837,0,0,0,0,0,0,0,-1,1105,1681,5.36677,-33.837
-112,-657,4.6051,21.3439,0,0,0,0,0,0,0,-1,1112,1681,4.60512,-21.3438
-105,-657,3.82434,14.4906,0,0,0,0,0,0,0,-1,1119,1681,3.8244,-14.4906
-98,-657,3.78662,8.16785,0,0,0,0,0,0,0,-1,1126,1681,3.78663,-8.16786
-91,-657,3.6521,16.6017,0,0,0,0,0,0,0,-1,1133,1681,3.65215,-16.6017
-84,-657,4.08008,10.4579,0,0,0,0,0,0,0,-1,1140,1681,4.08006,-10.4579
-77,-657,-5.29846,0.396606,0,0,0,0,0,0,0,-1,1147,1681,-5.29842,-0.396573
-70,-657,-4.14893,2.14575,0,0,0,0,0,0,0,-1,1154,1681,-4.14893,-2.1458
-63,-657,-4.1239,3.177,0,0,0,0,0,0,0,-1,1161,1681,-4.12391,-3.17698
-56,-657,-6.40576,5.73987,0,0,0,0,0,0,0,-1,1168,1681,-6.40577,-5.7399
-49,-657,-5.98462,7.54053,0,0,0,0,0,0,0,-1,1175,1681,-5.98466,-7.5405
-42,-657,-5.71948,9.28955,0,0,0,0,0,0,0,-1,1182,1681,-5.71951,-9.2895
-35,-657,-5.44556,11.015,0,0,0,0,0,0,0,-1,1189,1681,-5.44555,-11.015
-28,-657,-1.3446,8.92847,0,0,0,0,0,0,0,-1,1196,1681,-1.34459,-8.92848
-21,-657,7.17273,36.0123,0,0,0,0,0,0,0,-1,1203,1681,7.17272,-36.0123
-14,-657,7.34851,36.5704,0.0398229,0.0767631,0.0390429,0.101484,0.0151016,1.00634,0.0632264,0.0495086,1210,1681,7.34857,-36.5705
-7,-657,7.49902,37.1121,0,0,0,0,0,0,0,-1,1217,1681,7.49897,-37.112
0,-657,4.20557,37.0302,0,0,0,0,0,0,0,-1,1224,1681,4.20555,-37.0302
7,-657,3.73804,37.7587,0,0,0,0,0,0,0,-1,1231,1681,3.73803,-37.7587
14,-657,7.85107,36.5392,0,0,0,0,0,0,0,-1,1238,1681,7.85102,-36.5391
21,-657,7.95544,36.9147,0,0,0,0,0,0,0,-1,1245,1681,7.95547,-36.9146
28,-657,7.74036,37.0533,0,0,0,0,0,0,0,-1,1252,1681,7.74035,-37.0534
35,-657,8.09058,38.3683,0,0,0,0,0,0,0,-1,1259,1681,8.09053,-38.3683
42,-657,8.66577,38.8567,0.0430357,0.0636803,0.0379397,0.0926768,0.0140391,0.918219,0.0576772,0.0419706,1266,1681,8.66582,-38.8567
49,-657,9.04993,39.4203,0.0349841,0.0642907,0.0327165,0.0854855,0.0137893,0.995946,0.0529953,0.043874,1273,1681,9.04991,-39.4203
56,-657,8.7981,38.8066,0.0284451,0.0660717,0.0260538,0.0793947,0.0151221,1.0981,0.0486785,0.0464697,1280,1681,8.79804,-38.8067
63,-657,8.59094,37.9558,0.0214415,0.0672985,0.0189095,0.0740901,0.01465,1.22598,0.0453066,0.0473607,1287,1681,8.59098,-37.9558
70,-657,8.43799,37.0911,0.0149718,0.0663701,0.0111374,0.0686796,0.0126622,1.36633,0.0422037,0.0496089,1294,1681,8.43804,-37.0911
77,-657,8.27185,36.443,0.00839041,0.0655798,0.00448363,0.0659292,0.00804103,1.49303,0.0415328,0.0462092,1301,1681,8.27185,-36.443
84,-657,8.28918,35.8733,0,0,0,0,0,0,0,-1,1308,1681,8.28922,-35.8733
91,-657,7.83765,36.4355,0.000825463,0.0565956,-0.0104918,0.0585041,-0.00108301,-1.39086,0.0393687,0.0442028,1315,1681,7.83769,-36.4356
98,-657,8.14026,36.9532,-0.00111784,0.0503814,-0.0169065,0.0554355,-0.00617202,-1.2803,0.0391768,0.0430388,1322,1681,8.14029,-36.9533
105,-657,7.98254,36.4951,0.000844119,0.0410644,-0.0203726,0.0495805,-0.00767195,-1.17486,0.0358854,0.0441791,1329,1681,7.9826,-36.4952
112,-657,8.24402,35.9294,0.00313196,0.0315928,-0.022513,0.0439959,-0.00927108,-1.06724,0.0328598,0.0435141,1336,1681,8.244,-35.9294
119,-657,8.50256,35.434,0.0042594,0.0230504,-0.024513,0.0399067,-0.012597,-0.968406,0.0316504,0.0461452,1343,1681,8.50262,-35.434
126,-657,8.76331,34.8962,0.00440962,0.0174573,-0.0264475,0.0381737,-0.0163068,-0.90632,0.0322879,0.0495093,1350,1681,8.76331,-34.8963
133,-657,9.03088,34.4852,0.00357626,0.0146239,-0.0285173,0.0381475,-0.0199473,-0.881064,0.0340853,0.0470975,1357,1681,9.03084,-34.4852
140,-657,9.16418,34.4297,0,0,0,0,0,0,0,-1,1364,1681,9.16419,-34.4297
147,-657,8.07141,34.6382,0,0,0,0,0,0,0,-1,1371,1681,8.07139,-34.6382
154,-657,7.35938,36.8209,0,0,0,0,0,0,0,-1,1378,1681,7.35935,-36.821
161,-657,4.2926,24.9226,0,0,0,0,0,0,0,-1,1385,1681,4.29264,-24.9226
168,-657,5.21643,0.70105,0,0,0,0,0,0,0,-1,1392,1681,5.21648,-0.7011
175,-657,5.52771,0.649048,0,0,0,0,0,0,0,-1,1399,1681,5.52774,-0.649019
182,-657,5.73999,1.02612,0,0,0,0,0,0,0,-1,1406,1681,5.73995,-1.02611
189,-657,5.92126,1.44116,0,0,0,0,0,0,0,-1,1413,1681,5.92126,-1.44115
196,-657,4.92834,9.59021,0,0,0,0,0,0,0,-1,1420,1681,4.9284,-9.59018
203,-657,6.26343,5.16492,0,0,0,0,0,0,0,-1,1427,1681,6.26345,-5.16488
210,-657,3.9856,5.28088,0,0,0,0,0,0,0,-1,1434,1681,3.98555,-5.28084
217,-657,3.95178,5.2843,0,0,0,0,0,0,0,-1,1441,1681,3.95174,-5.28431
224,-657,6.66736,-0.250244,0,0,0,0,0,0,0,-1,1448,1681,6.66737,0.250229
231,-657,6.85498,-1.70752,0,0,0,0,0,0,0,-1,1455,1681,6.855,1.70758
238,-657,5.34143,-2.89819,0,0,0,0,0,0,0,-1,1462,1681,5.34143,2.89813
245,-657,8.66003,-0.102783,0,0,0,0,0,0,0,-1,1469,1681,8.66,0.102824
252,-657,4.78955,0.623779,0,0,0,0,0,0,0,-1,1476,1681,4.7895,-0.623826
259,-657,2.61523,4.31909,0,0,0,0,0,0,0,-1,1483,1681,2.61523,-4.31908
266,-657,5.35437,11.4742,0,0,0,0,0,0,0,-1,1490,1681,5.35441,-11.4742
273,-657,9.44434,32.1511,0,0,0,0,0,0,0,-1,1497,1681,9.44437,-32.1512
280,-657,9.2937,32.0575,0.0089324,0.00454715,-0.00480285,0.0120194,0.00146009,-0.571264,0.00757333,0.0451096,1504,1681,9.29368,-32.0575
287,-657,9.33655,31.8726,0.00816648,0.00398874,-0.00417709,0.0107479,0.00140734,-0.553543,0.00674526,0.0374071,1511,1681,9.33649,-31.8726
294,-657,9.6001,31.619,0.0073157,0.00357437,-0.00365284,0.00954901,0.00134105,-0.548753,0.00596942,0.0297589,1518,1681,9.60015,-31.619
301,-657,9.6084,31.3738,0.00648455,0.00317217,-0.00309857,0.00834177,0.00131494,-0.539965,0.00517882,0.0190032,1525,1681,9.60843,-31.3738
308,-657,9.60791,31.1025,0.00570444,0.0028161,-0.00251893,0.00716383,0.00135672,-0.525111,0.00439403,0.0134458,1532,1681,9.60786,-31.1025
315,-657,9.62878,30.8151,0.00491846,0.00271048,-0.00201484,0.00611194,0.001517,-0.534772,0.00367486,0.0112336,1539,1681,9.62877,-30.815
322,-657,9.67078,30.5199,0.00413348,0.00248722,-0.00154031,0.0050568,0.00156389,-0.540007,0.00298952,0.0134067,1546,1681,9.6708,-30.52
329,-657,9.66919,30.2355,0.00336727,0.00238609,-0.00118959,0.00416347,0.0015899,-0.589822,0.00242604,0.0191363,1553,1681,9.66921,-30.2354
336,-657,9.66199,29.9644,0.00272239,0.00226519,-0.000872678,0.00339591,0.00159166,-0.6573,0.00196191,0.0173564,1560,1681,9.66199,-29.9644
343,-657,9.69873,29.6855,0.00210231,0.002036,-0.000632896,0.00270292,0.00143539,-0.759227,0.00156153,0.0136979,1567,1681,9.6987,-29.6856
350,-657,9.68286,29.4019,0.00157787,0.00170901,-0.000468056,0.00211607,0.00117081,-0.854992,0.00122402,0.0147662,1574,1681,9.68286,-29.4019
357,-657,9.66541,29.1013,0.00119312,0.00117568,-0.000359667,0.00154417,0.000824629,-0.773277,0.000892217,0.0139008,1581,1681,9.66544,-29.1014
364,-657,9.67688,28.8203,0.000874783,0.000227721,-0.000197751,0.000930432,0.000172072,-0.274317,0.00057163,0.0100278,1588,1681,9.67686,-28.8203
371,-657,9.6731,28.5477,0.000634775,-0.000732204,-6.15995e-05,0.000637545,-0.000734974,-0.0449411,0.00079309,0.0140156,1595,1681,9.67312,-28.5478
378,-657,9.6377,28.2231,0.000480338,-0.00186715,7.00607e-05,0.000482427,-0.00186924,0.0298097,0.00143427,0.0143495,1602,1681,9.63766,-28.2232
385,-657,9.62366,27.8723,0.000433873,-0.00321876,0.000230375,0.000448345,-0.00323323,0.0627397,0.00231942,0.0123592,1609,1681,9.62362,-27.8724
392,-657,9.6344,27.5758,0.000437088,-0.0048486,0.000368199,0.000462613,-0.00487412,0.0692141,0.00341408,0.0125412,1616,1681,9.63434,-27.5758
399,-657,9.64038,27.2516,0.000325657,-0.00653294,0.000491914,0.000360759,-0.00656804,0.0712363,0.00450377,0.0130628,1623,1681,9.6404,-27.2516
406,-657,9.61646,26.9089,0.000204204,-0.00794941,0.000550359,0.000241186,-0.00798639,0.0670932,0.00540645,0.0144139,1630,1681,9.61643,-26.909
413,-657,9.61023,26.5416,0.000237145,-0.00902294,0.000534098,0.000267849,-0.00905364,0.0574236,0.006127,0.0147982,1637,1681,9.61028,-26.5416
420,-657,9.62708,26.1858,0.000264348,-0.00974712,0.000391783,0.000279656,-0.00976243,0.0390538,0.00660348,0.0174213,1644,1681,9.62704,-26.1858
427,-657,9.5625,25.8237,0.000369773,-0.010234,0.000239382,0.000375174,-0.0102394,0.0225598,0.00695471,0.0220708,1651,1681,9.56248,-25.8238
434,-657,9.59216,25.507,0.000518819,-0.0101681,-0.00023844,0.000524137,-0.0101735,-0.0222965,0.0069636,0.0294537,1658,1681,9.59212,-25.507
441,-657,9.724,25.3391,0.00073345,-0.00971104,-0.000915964,0.00081317,-0.00979076,-0.0868152,0.00681442,0.0487486,1665,1681,9.724,-25.3391
448,-657,9.83289,25.1805,0,0,0,0,0,0,0,-1,1672,1681,9.83284,-25.1806
455,-657,9.37646,24.3984,0,0,0,0,0,0,0,-1,1679,1681,9.37641,-24.3984
462,-657,6.51733,15.4801,0,0,0,0,0,0,0,-1,1686,1681,6.51737,-15.4801
469,-657,9.70483,21.9269,0,0,0,0,0,0,0,-1,1693,1681,9.70488,-21.9269
476,-657,8.9519,20.5712,0,0,0,0,0,0,0,-1,1700,1681,8.95194,-20.5712
483,-657,10.0663,21.8628,0,0,0,0,0,0,0,-1,1707,1681,10.0663,-21.8628
490,-657,11.6039,21.2185,0,0,0,0,0,0,0,-1,1714,1681,11.6038,-21.2185
497,-657,9.20862,17.8127,0,0,0,0,0,0,0,-1,1721,1681,9.2086,-17.8127
504,-657,0,0,0,0,0,0,0,0,0,-1,1728,1681,0,0
511,-657,0,0,0,0,0,0,0,0,0,-1,1735,1681,0,0
518,-657,0,0,0,0,0,0,0,0,0,-1,1742,1681,0,0
525,-657,0,0,0,0,0,0,0,0,0,-1,1749,1681,0,0
532,-657,0,0,0,0,0,0,0,0,0,-1,1756,1681,0,0
539,-657,0,0,0,0,0,0,0,0,0,-1,1763,1681,0,0
546,-657,0,0,0,0,0,0,0,0,0,-1,1770,1681,0,0
553,-657,0,0,0,0,0,0,0,0,0,-1,1777,1681,0,0
560,-657,0,0,0,0,0,0,0,0,0,-1,1784,1681,0,0
567,-657,0,0,0,0,0,0,0,0,0,-1,1791,1681,0,0
574,-657,0,0,0,0,0,0,0,0,0,-1,1798,1681,0,0
581,-657,0,0,0,0,0,0,0,0,0,-1,1805,1681,0,0
588,-657,0,0,0,0,0,0,0,0,0,-1,1812,1681,0,0
595,-657,0,0,0,0,0,0,0,0,0,-1,1819,1681,0,0
602,-657,0,0,0,0,0,0,0,0,0,-1,1826,1681,0,0
609,-657,0,0,0,0,0,0,0,0,0,-1,1833,1681,0,0
616,-657,0,0,0,0,0,0,0,0,0,-1,1840,1681,0,0
623,-657,0,0,0,0,0,0,0,0,0,-1,1847,1681,0,0
630,-657,0,0,0,0,0,0,0,0,0,-1,1854,1681,0,0
637,-657,0,0,0,0,0,0,0,0,0,-1,1861,1681,0,0
644,-657,0,0,0,0,0,0,0,0,0,-1,1868,1681,0,0
651,-657,0,0,0,0,0,0,0,0,0,-1,1875,1681,0,0
658,-657,0,0,0,0,0,0,0,0,0,-1,1882,1681,0,0
665,-657,0,0,0,0,0,0,0,0,0,-1,1889,1681,0,0
672,-657,0,0,0,0,0,0,0,0,0,-1,1896,1681,0,0
679,-657,0,0,0,0,0,0,0,0,0,-1,1903,1681,0,0
686,-657,0,0,0,0,0,0,0,0,0,-1,1910,1681,0,0
693,-657,0,0,0,0,0,0,0,0,0,-1,1917,1681,0,0
700,-657,0,0,0,0,0,0,0,0,0,-1,1924,1681,0,0
707,-657,0,0,0,0,0,0,0,0,0,-1,1931,1681,0,0
714,-657,0,0,0,0,0,0,0,0,0,-1,1938,1681,0,0
721,-657,0,0,0,0,0,0,0,0,0,-1,1945,1681,0,0
728,-657,0,0,0,0,0,0,0,0,0,-1,1952,1681,0,0
735,-657,0,0,0,0,0,0,0,0,0,-1,1959,1681,0,0
742,-657,0,0,0,0,0,0,0,0,0,-1,1966,1681,0,0
749,-657,0,0,0,0,0,0,0,0,0,-1,1973,1681,0,0
756,-657,0,0,0,0,0,0,0,0,0,-1,1980,1681,0,0
763,-657,0,0,0,0,0,0,0,0,0,-1,1987,1681,0,0
770,-657,0,0,0,0,0,0,0,0,0,-1,1994,1681,0,0
777,-657,0,0,0,0,0,0,0,0,0,-1,2001,1681,0,0
784,-657,0,0,0,0,0,0,0,0,0,-1,2008,1681,0,0
791,-657,0,0,0,0,0,0,0,0,0,-1,2015,1681,0,0
798,-657,0,0,0,0,0,0,0,0,0,-1,2022,1681,0,0
805,-657,0,0,0,0,0,0,0,0,0,-1,2029,1681,0,0
812,-657,0,0,0,0,0,0,0,0,0,-1,2036,1681,0,0
-700,-664,0,0,0,0,0,0,0,0,0,-1,524,1688,0,0
-693,-664,0,0,0,0,0,0,0,0,0,-1,531,1688,0,0
-686,-664,0,0,0,0,0,0,0,0,0,-1,538,1688,0,0
-679,-664,0,0,0,0,0,0,0,0,0,-1,545,1688,0,0
-672,-664,0,0,0,0,0,0,0,0,0,-1,552,1688,0,0
-665,-664,0,0,0,0,0,0,0,0,0,-1,559,1688,0,0
-658,-664,0,0,0,0,0,0,0,0,0,-1,566,1688,0,0
-651,-664,0,0,0,0,0,0,0,0,0,-1,573,1688,0,0
-644,-664,0,0,0,0,0,0,0,0,0,-1,580,1688,0,0
-637,-664,0,0,0,0,0,0,0,0,0,-1,587,1688,0,0
-630,-664,0,0,0,0,0,0,0,0,0,-1,594,1688,0,0
-623,-664,0,0,0,0,0,0,0,0,0,-1,601,1688,0,0
-616,-664,0,0,0,0,0,0,0,0,0,-1,608,1688,0,0
-609,-664,0,0,0,0,0,0,0,0,0,-1,615,1688,0,0
-602,-664,0,0,0,0,0,0,0,0,0,-1,622,1688,0,0
-595,-664,0,0,0,0,0,0,0,0,0,-1,629,1688,0,0
-588,-664,0,0,0,0,0,0,0,0,0,-1,636,1688,0,0
-581,-664,0,0,0,0,0,0,0,0,0,-1,643,1688,0,0
-574,-664,0,0,0,0,0,0,0,0,0,-1,650,1688,0,0
-567,-664,0,0,0,0,0,0,0,0,0,-1,657,1688,0,0
-560,-664,0,0,0,0,0,0,0,0,0,-1,664,1688,0,0
-553,-664,0,0,0,0,0,0,0,0,0,-1,671,1688,0,0
-546,-664,0,0,0,0,0,0,0,0,0,-1,678,1688,0,0
-539,-664,0,0,0,0,0,0,0,0,0,-1,685,1688,0,0
-532,-664,0,0,0,0,0,0,0,0,0,-1,692,1688,0,0
-525,-664,0,0,0,0,0,0,0,0,0,-1,699,1688,0,0
-518,-664,0,0,0,0,0,0,0,0,0,-1,706,1688,0,0
-511,-664,0,0,0,0,0,0,0,0,0,-1,713,1688,0,0
-504,-664,0,0,0,0,0,0,0,0,0,-1,720,1688,0,0
-497,-664,0,0,0,0,0,0,0,0,0,-1,727,1688,0,0
-490,-664,0,0,0,0,0,0,0,0,0,-1,734,1688,0,0
-483,-664,0,0,0,0,0,0,0,0,0,-1,741,1688,0,0
-476,-664,0,0,0,0,0,0,0,0,0,-1,748,1688,0,0
-469,-664,0,0,0,0,0,0,0,0,0,-1,755,1688,0,0
-462,-664,0,0,0,0,0,0,0,0,0,-1,762,1688,0,0
-455,-664,0,0,0,0,0,0,0,0,0,-1,769,1688,0,0
-448,-664,0,0,0,0,0,0,0,0,0,-1,776,1688,0,0
-441,-664,0,0,0,0,0,0,0,0,0,-1,783,1688,0,0
-434,-664,0,0,0,0,0,0,0,0,0,-1,790,1688,0,0
-427,-664,0,0,0,0,0,0,0,0,0,-1,797,1688,0,0
-420,-664,0,0,0,0,0,0,0,0,0,-1,804,1688,0,0
-413,-664,0,0,0,0,0,0,0,0,0,-1,811,1688,0,0
-406,-664,0,0,0,0,0,0,0,0,0,-1,818,1688,0,0
-399,-664,0,0,0,0,0,0,0,0,0,-1,825,1688,0,0
-392,-664,0,0,0,0,0,0,0,0,0,-1,832,1688,0,0
-385,-664,0,0,0,0,0,0,0,0,0,-1,839,1688,0,0
-378,-664,0,0,0,0,0,0,0,0,0,-1,846,1688,0,0
-371,-664,-1.61676,5.92737,0,0,0,0,0,0,0,-1,853,1688,-1.61675,-5.92735
-364,-664,-3.901,5.87024,0,0,0,0,0,0,0,-1,860,1688,-3.90097,-5.87027
-357,-664,-4.81012,4.53479,0,0,0,0,0,0,0,-1,867,1688,-4.81012,-4.5348
-350,-664,-5.7193,3.19934,0,0,0,0,0,0,0,-1,874,1688,-5.71927,-3.19932
-343,-664,2.96515,14.8083,0,0,0,0,0,0,0,-1,881,1688,2.96517,-14.8083
-336,-664,2.79852,15.5814,0,0,0,0,0,0,0,-1,888,1688,2.79853,-15.5814
-329,-664,6.211,21.8523,0,0,0,0,0,0,0,-1,895,1688,6.21101,-21.8523
-322,-664,6.83905,22.2745,0,0,0,0,0,0,0,-1,902,1688,6.83906,-22.2745
-315,-664,5.66101,23.054,0,0,0,0,0,0,0,-1,909,1688,5.66104,-23.054
-308,-664,5.11737,23.5497,0,0,0,0,0,0,0,-1,916,1688,5.11739,-23.5497
-301,-664,5.77386,24.7377,0,0,0,0,0,0,0,-1,923,1688,5.77386,-24.7377
-294,-664,5.76776,25.3962,-0.00786761,0.0124489,0.00436734,0.0133479,-0.00876665,1.36778,0.0128589,0.046701,930,1688,5.76775,-25.3962
-287,-664,5.76514,25.6575,-0.00598839,0.00922275,0.00317229,0.00985782,-0.00662346,1.37322,0.00957635,0.0341102,937,1688,5.76515,-25.6575
-280,-664,5.62268,25.9731,-0.00457071,0.00670382,0.00212047,0.00708944,-0.00495633,1.39091,0.00699088,0.0226296,944,1688,5.62268,-25.9732
-273,-664,5.6507,26.2916,-0.00349601,0.00486558,0.00124481,0.00504696,-0.0036774,1.4261,0.00505765,0.0164852,951,1688,5.65069,-26.2916
-266,-664,5.60461,26.6377,-0.0023721,0.00300654,0.000643595,0.00308248,-0.00244804,1.45335,0.00320004,0.0215645,958,1688,5.60463,-26.6377
-259,-664,5.58051,26.9922,-0.00158931,0.00192467,0.000101288,0.00192759,-0.00159223,1.542,0.00203524,0.0180213,965,1688,5.58052,-26.9922
-252,-664,5.57654,27.3635,-0.00124254,0.00131459,-0.000388136,0.00137221,-0.00130016,-1.42343,0.00154308,0.0160212,972,1688,5.57653,-27.3635
-245,-664,5.55481,27.7299,-0.00105359,0.00109871,-0.000548255,0.00123032,-0.0011852,-1.3352,0.00139468,0.0204354,979,1688,5.55482,-27.7298
-238,-664,5.59766,28.0697,-0.000768704,0.00107048,-0.000487756,0.00119183,-0.000890052,-1.32696,0.00120618,0.0238718,986,1688,5.59768,-28.0697
-231,-664,5.57953,28.3834,8.53812e-06,0.00101462,-0.000424378,0.00116972,-0.00014656,-1.22041,0.000832975,0.0203216,993,1688,5.57952,-28.3834
-224,-664,5.54193,28.7185,0.000114064,0.000956161,-0.000294398,0.00104888,2.13505e-05,-1.2657,0.000692243,0.0139067,1000,1688,5.5419,-28.7185
-217,-664,5.53424,29.0255,1.87579e-05,0.00123834,-0.000123073,0.00125064,6.4621e-06,-1.47122,0.000831612,0.00990198,1007,1688,5.53422,-29.0255
-210,-664,5.53265,29.3295,0.000321012,0.0016971,6.69735e-05,0.00170035,0.00031776,1.52228,0.0010439,0.0104966,1014,1688,5.53264,-29.3295
-203,-664,5.53064,29.6447,0.000660031,0.00210332,0.000179196,0.00212524,0.000638116,1.4491,0.00125922,0.0126442,1021,1688,5.53064,-29.6447
-196,-664,5.53125,29.9269,0.000892024,0.00258148,0.000289047,0.00262957,0.00084394,1.40595,0.00155029,0.0129412,1028,1688,5.53119,-29.9269
-189,-664,5.53833,30.2096,0.000988576,0.0032182,0.00032766,0.00326536,0.000941422,1.42786,0.00194076,0.00932647,1035,1688,5.53828,-30.2096
-182,-664,5.55115,30.4813,0.00112544,0.00416644,0.00028722,0.00419333,0.00109855,1.47745,0.0025108,0.00940419,1042,1688,5.55116,-30.4813
-175,-664,5.56116,30.7406,0.00139723,0.00544297,0.000309717,0.00546654,0.00137366,1.49483,0.00328369,0.0129732,1049,1688,5.56115,-30.7406
-168,-664,5.56177,31.0236,0.00157495,0.00692475,0.000315777,0.00694332,0.00155637,1.51204,0.00420717,0.0144129,1056,1688,5.56177,-31.0236
-161,-664,5.54578,31.3102,0.00190286,0.00852475,0.000390189,0.00854767,0.00187995,1.51214,0.00518663,0.0107421,1063,1688,5.5458,-31.3102
-154,-664,5.58789,31.5739,0.00228388,0.0105272,0.000446277,0.0105513,0.00225979,1.51687,0.006415,0.0107341,1070,1688,5.58795,-31.5739
-147,-664,5.58496,31.8318,0.00275346,0.0128027,0.000427131,0.0128208,0.00273533,1.52839,0.00779706,0.0145743,1077,1688,5.58495,-31.8317
-140,-664,5.60962,32.1193,0.00331142,0.0152525,0.000457798,0.01527,0.00329389,1.53253,0.00927902,0.017873,1084,1688,5.60958,-32.1193
-133,-664,5.56982,32.4673,0.00391969,0.0177781,0.000559667,0.0178007,0.00389712,1.5305,0.010805,0.0215454,1091,1688,5.56988,-32.4673
-126,-664,5.68237,32.965,0.00469649,0.0203583,0.000661285,0.0203862,0.00466862,1.52867,0.0123327,0.0349451,1098,1688,5.68232,-32.965
-119,-664,5.66321,33.2681,0.00576133,0.0225029,0.00071441,0.0225334,0.0057309,1.52823,0.013523,0.0450679,1105,1688,5.66316,-33.2681
-112,-664,5.5946,33.603,0,0,0,0,0,0,0,-1,1112,1688,5.59465,-33.603
-105,-664,4.48108,21.4276,0,0,0,0,0,0,0,-1,1119,1688,4.48104,-21.4276
-98,-664,4.98584,19.8645,0,0,0,0,0,0,0,-1,1126,1688,4.98586,-19.8645
-91,-664,5.41931,25.6302,0,0,0,0,0,0,0,-1,1133,1688,5.41932,-25.6302
-84,-664,3.48389,16.6913,0,0,0,0,0,0,0,-1,1140,1688,3.4839,-16.6913
-77,-664,4.52014,11.2122,0,0,0,0,0,0,0,-1,1147,1688,4.5202,-11.2122
-70,-664,4.20374,8.24524,0,0,0,0,0,0,0,-1,1154,1688,4.20379,-8.24519
-63,-664,-4.677,2.40503,0,0,0,0,0,0,0,-1,1161,1688,-4.67702,-2.40498
-56,-664,-4.66504,3.32727,0,0,0,0,0,0,0,-1,1168,1688,-4.6651,-3.32724
-49,-664,-2.54297,3.31848,0,0,0,0,0,0,0,-1,1175,1688,-2.54297,-3.31852
-42,-664,-0.359253,4.38684,0,0,0,0,0,0,0,-1,1182,1688,-0.359261,-4.38685
-35,-664,-0.705566,3.55017,0,0,0,0,0,0,0,-1,1189,1688,-0.705567,-3.55023
-28,-664,-1.54236,10.2538,0,0,0,0,0,0,0,-1,1196,1688,-1.54236,-10.2538
-21,-664,7.16052,35.7874,0,0,0,0,0,0,0,-1,1203,1688,7.16058,-35.7874
-14,-664,7.32288,36.3428,0,0,0,0,0,0,0,-1,1210,1688,7.32288,-36.3427
-7,-664,5.0835,37.1437,0,0,0,0,0,0,0,-1,1217,1688,5.08346,-37.1437
0,-664,4.78162,36.616,0.0487828,0.0533192,0.0332613,0.0843895,0.0177125,0.819442,0.0513834,0.047731,1224,1688,4.78161,-36.616
7,-664,4.46008,37.2555,0.0521676,0.0502943,0.0347553,0.0859989,0.016463,0.771926,0.052709,0.0460482,1231,1688,4.46008,-37.2555
14,-664,7.92456,36.1279,0.0532434,0.0491766,0.0361264,0.0873936,0.0150265,0.757285,0.0539556,0.0498406,1238,1688,7.92455,-36.1279
21,-664,7.98059,36.5215,0.0519499,0.0501468,0.036713,0.0877725,0.0143243,0.773122,0.0543728,0.0478636,1245,1688,7.98053,-36.5214
28,-664,8.09241,37.0062,0.0487087,0.0535312,0.0362703,0.0874704,0.0147695,0.81859,0.0540671,0.0429444,1252,1688,8.09238,-37.0063
35,-664,8.16467,37.4987,0.0433774,0.0576311,0.0343952,0.08563,0.0153785,0.887555,0.0527136,0.0432322,1259,1688,8.16461,-37.4987
42,-664,8.08289,37.9148,0.0362405,0.0610376,0.0314296,0.0824258,0.0148523,0.973271,0.0507297,0.043838,1266,1688,8.08287,-37.9148
49,-664,8.58813,38.1621,0.0296368,0.0616673,0.0273964,0.0773861,0.013918,1.0499,0.047634,0.0430651,1273,1688,8.5881,-38.1621
56,-664,8.57654,38.0239,0.0244107,0.0628916,0.0220916,0.0729468,0.0143555,1.14366,0.0446225,0.04722,1280,1688,8.57651,-38.0239
63,-664,8.66663,38.1696,0,0,0,0,0,0,0,-1,1287,1688,8.66664,-38.1695
70,-664,8.06592,35.6033,0,0,0,0,0,0,0,-1,1294,1688,8.06595,-35.6033
77,-664,7.95471,34.8584,0,0,0,0,0,0,0,-1,1301,1688,7.95472,-34.8584
84,-664,8.08557,35.7678,0,0,0,0,0,0,0,-1,1308,1688,8.08556,-35.7679
91,-664,8.2373,36.129,0.00340651,0.0501972,-0.00673088,0.0511462,0.00245751,-1.43073,0.0333085,0.0433301,1315,1688,8.23727,-36.129
98,-664,8.23572,36.6492,0.00204757,0.0442979,-0.0117894,0.0473649,-0.00101946,-1.31629,0.0319219,0.0466876,1322,1688,8.2357,-36.6492
105,-664,8.38696,37.172,0.0036383,0.0359992,-0.0145446,0.0415754,-0.00193795,-1.20469,0.028385,0.04722,1329,1688,8.38695,-37.1719
112,-664,8.1864,35.6765,0.00551255,0.0279849,-0.0160282,0.0363231,-0.00282564,-1.0911,0.0252101,0.0450502,1336,1688,8.18645,-35.6765
119,-664,8.42578,35.5634,0.00636909,0.0209119,-0.0173142,0.0324196,-0.00513859,-0.984199,0.0235138,0.0470594,1343,1688,8.4258,-35.5634
126,-664,8.47168,35.3729,0,0,0,0,0,0,0,-1,1350,1688,8.47164,-35.373
133,-664,8.53149,36.0548,0,0,0,0,0,0,0,-1,1357,1688,8.53146,-36.0549
140,-664,8.56946,36.3812,0,0,0,0,0,0,0,-1,1364,1688,8.5695,-36.3812
147,-664,8.82471,36.4098,0,0,0,0,0,0,0,-1,1371,1688,8.82468,-36.4098
154,-664,4.76721,26.2594,0,0,0,0,0,0,0,-1,1378,1688,4.76723,-26.2594
161,-664,4.60132,1.56238,0,0,0,0,0,0,0,-1,1385,1688,4.60134,-1.56233
168,-664,5.172,1.25488,0,0,0,0,0,0,0,-1,1392,1688,5.17203,-1.25484
175,-664,5.58313,1.16467,0,0,0,0,0,0,0,-1,1399,1688,5.58317,-1.16466
182,-664,5.74268,1.41113,0,0,0,0,0,0,0,-1,1406,1688,5.74263,-1.41115
189,-664,5.87744,1.87061,0,0,0,0,0,0,0,-1,1413,1688,5.87745,-1.87065
196,-664,6.7594,5.97473,0,0,0,0,0,0,0,-1,1420,1688,6.75943,-5.97478
203,-664,5.38452,5.22034,0,0,0,0,0,0,0,-1,1427,1688,5.38453,-5.2203
210,-664,5.25549,6.45715,0,0,0,0,0,0,0,-1,1434,1688,5.25549,-6.45721
217,-664,5.72009,6.73975,0,0,0,0,0,0,0,-1,1441,1688,5.72014,-6.73972
224,-664,5.05725,7.42908,0,0,0,0,0,0,0,-1,1448,1688,5.05723,-7.42912
231,-664,5.13318,7.60864,0,0,0,0,0,0,0,-1,1455,1688,5.13313,-7.60862
238,-664,4.23193,6.45471,0,0,0,0,0,0,0,-1,1462,1688,4.23197,-6.45476
245,-664,4.42004,6.80896,0,0,0,0,0,0,0,-1,1469,1688,4.4201,-6.80901
252,-664,3.67346,6.85461,0,0,0,0,0,0,0,-1,1476,1688,3.6734,-6.85462
259,-664,4.55823,11.7435,0,0,0,0,0,0,0,-1,1483,1688,4.55826,-11.7435
266,-664,9.04138,32.0702,0,0,0,0,0,0,0,-1,1490,1688,9.04135,-32.0702
273,-664,9.21497,32.2264,0,0,0,0,0,0,0,-1,1497,1688,9.21498,-32.2264
280,-664,9.23096,32.0137,0.0066584,0.00237259,-0.00308079,0.00826827,0.000762726,-0.481525,0.00527634,0.0305109,1504,1688,9.23098,-32.0137
287,-664,9.23669,31.7681,0.00612522,0.00216185,-0.00275092,0.00753391,0.00075316,-0.473264,0.00479132,0.0230251,1511,1688,9.23666,-31.7681
294,-664,9.31836,31.5734,0.00552601,0.00209239,-0.00249532,0.00683807,0.00078033,-0.484081,0.00432215,0.0166758,1518,1688,9.31835,-31.5734
301,-664,9.33337,31.3438,0.00490133,0.00203431,-0.00221881,0.00610942,0.000826221,-0.498594,0.00382738,0.0114017,1525,1688,9.33342,-31.3437
308,-664,9.34778,31.0753,0.00430937,0.00197094,-0.00190038,0.00537141,0.000908897,-0.509618,0.00331971,0.0111611,1532,1688,9.34783,-31.0753
315,-664,9.36389,30.8073,0.00370569,0.00199056,-0.00158379,0.00464918,0.00104706,-0.537265,0.00281608,0.0117238,1539,1688,9.36393,-30.8072
322,-664,9.40552,30.5466,0.00307513,0.00195316,-0.00128192,0.00391344,0.00111485,-0.579146,0.00232809,0.0149081,1546,1688,9.40553,-30.5467
329,-664,9.40588,30.2888,0.00247685,0.00185902,-0.00103836,0.00325127,0.0010846,-0.640816,0.00191146,0.0173453,1553,1688,9.40584,-30.2889
336,-664,9.39124,29.9983,0.00196723,0.00169132,-0.000777789,0.00261921,0.00103935,-0.697628,0.00152289,0.0150351,1560,1688,9.39127,-29.9983
343,-664,9.38904,29.7126,0.00149563,0.0014123,-0.000556405,0.00201192,0.000895999,-0.748027,0.0011639,0.0113835,1567,1688,9.38909,-29.7126
350,-664,9.38098,29.4264,0.00111233,0.000968115,-0.000398613,0.0014453,0.00063514,-0.695919,0.000836484,0.012501,1574,1688,9.38101,-29.4264
357,-664,9.36926,29.1099,0.000806312,0.000166,-0.000239101,0.000885743,8.65694e-05,-0.320734,0.000563858,0.0134372,1581,1688,9.36931,-29.1099
364,-664,9.37842,28.7957,0.000563805,-0.0010991,-2.29717e-05,0.000564122,-0.00109942,-0.0138107,0.000976879,0.0111968,1588,1688,9.37845,-28.7957
371,-664,9.37439,28.5186,0.000396376,-0.0023331,0.000157035,0.000405381,-0.00234211,0.0572811,0.0017126,0.0135061,1595,1688,9.37435,-28.5186
378,-664,9.34229,28.2186,0.000296982,-0.0038063,0.000369675,0.000330021,-0.00383934,0.089136,0.00267636,0.0129474,1602,1688,9.3423,-28.2187
385,-664,9.33044,27.8849,0.00030417,-0.00544219,0.000607008,0.00036759,-0.00550561,0.104103,0.00379887,0.0132672,1609,1688,9.33044,-27.8849
392,-664,9.2821,27.6001,0.000355785,-0.00742197,0.000813554,0.000439972,-0.00750615,0.103113,0.00515702,0.015896,1616,1688,9.28209,-27.6001
399,-664,9.31604,27.2572,0.000278486,-0.00948063,0.000974152,0.000374775,-0.00957692,0.0985243,0.00651314,0.0142454,1623,1688,9.31606,-27.2572
406,-664,9.3092,26.9044,0.000203385,-0.011292,0.00105884,0.000300102,-0.0113887,0.0910893,0.00769445,0.0145133,1630,1688,9.30917,-26.9044
413,-664,9.31445,26.5155,0.000317463,-0.0127145,0.00105917,0.000402986,-0.0128,0.0805702,0.00867082,0.0172597,1637,1688,9.31448,-26.5155
420,-664,9.34216,26.2181,0.000429157,-0.0136856,0.000886286,0.00048459,-0.013741,0.0624646,0.0093264,0.0394378,1644,1688,9.34215,-26.2182
427,-664,9.30981,25.7001,0,0,0,0,0,0,0,-1,1651,1688,9.30978,-25.7
434,-664,9.25806,25.359,0,0,0,0,0,0,0,-1,1658,1688,9.25805,-25.359
441,-664,9.39575,25.2755,0,0,0,0,0,0,0,-1,1665,1688,9.39569,-25.2755
448,-664,7.27502,19.7417,0,0,0,0,0,0,0,-1,1672,1688,7.27505,-19.7417
455,-664,7.53198,11.3838,0,0,0,0,0,0,0,-1,1679,1688,7.53195,-11.3838
462,-664,4.3147,4.25439,0,0,0,0,0,0,0,-1,1686,1688,4.31467,-4.25435
469,-664,6.05469,7.49341,0,0,0,0,0,0,0,-1,1693,1688,6.05474,-7.49339
476,-664,10.2377,22.7128,0,0,0,0,0,0,0,-1,1700,1688,10.2377,-22.7128
483,-664,8.41895,10.9768,0,0,0,0,0,0,0,-1,1707,1688,8.41897,-10.9769
490,-664,3.90771,13.2842,0,0,0,0,0,0,0,-1,1714,1688,3.90776,-13.2841
497,-664,0,0,0,0,0,0,0,0,0,-1,1721,1688,0,0
504,-664,0,0,0,0,0,0,0,0,0,-1,1728,1688,0,0
511,-664,0,0,0,0,0,0,0,0,0,-1,1735,1688,0,0
518,-664,0,0,0,0,0,0,0,0,0,-1,1742,1688,0,0
525,-664,0,0,0,0,0,0,0,0,0,-1,1749,1688,0,0
532,-664,0,0,0,0,0,0,0,0,0,-1,1756,1688,0,0
539,-664,0,0,0,0,0,0,0,0,0,-1,1763,1688,0,0
546,-664,0,0,0,0,0,0,0,0,0,-1,1770,1688,0,0
553,-664,0,0,0,0,0,0,0,0,0,-1,1777,1688,0,0
560,-664,0,0,0,0,0,0,0,0,0,-1,1784,1688,0,0
567,-664,0,0,0,0,0,0,0,0,0,-1,1791,1688,0,0
574,-664,0,0,0,0,0,0,0,0,0,-1,1798,1688,0,0
581,-664,0,0,0,0,0,0,0,0,0,-1,1805,1688,0,0
588,-664,0,0,0,0,0,0,0,0,0,-1,1812,1688,0,0
595,-664,0,0,0,0,0,0,0,0,0,-1,1819,1688,0,0
602,-664,0,0,0,0,0,0,0,0,0,-1,1826,1688,0,0
609,-664,0,0,0,0,0,0,0,0,0,-1,1833,1688,0,0
616,-664,0,0,0,0,0,0,0,0,0,-1,1840,1688,0,0
623,-664,0,0,0,0,0,0,0,0,0,-1,1847,1688,0,0
630,-664,0,0,0,0,0,0,0,0,0,-1,1854,1688,0,0
637,-664,0,0,0,0,0,0,0,0,0,-1,1861,1688,0,0
644,-664,0,0,0,0,0,0,0,0,0,-1,1868,1688,0,0
651,-664,0,0,0,0,0,0,0,0,0,-1,1875,1688,0,0
658,-664,0,0,0,0,0,0,0,0,0,-1,1882,1688,0,0
665,-664,0,0,0,0,0,0,0,0,0,-1,1889,1688,0,0
672,-664,0,0,0,0,0,0,0,0,0,-1,1896,1688,0,0
679,-664,0,0,0,0,0,0,0,0,0,-1,1903,1688,0,0
686,-664,0,0,0,0,0,0,0,0,0,-1,1910,1688,0,0
693,-664,0,0,0,0,0,0,0,0,0,-1,1917,1688,0,0
700,-664,0,0,0,0,0,0,0,0,0,-1,1924,1688,0,0
707,-664,0,0,0,0,0,0,0,0,0,-1,1931,1688,0,0
714,-664,0,0,0,0,0,0,0,0,0,-1,1938,1688,0,0
721,-664,0,0,0,0,0,0,0,0,0,-1,1945,1688,0,0
728,-664,0,0,0,0,0,0,0,0,0,-1,1952,1688,0,0
735,-664,0,0,0,0,0,0,0,0,0,-1,1959,1688,0,0
742,-664,0,0,0,0,0,0,0,0,0,-1,1966,1688,0,0
749,-664,0,0,0,0,0,0,0,0,0,-1,1973,1688,0,0
756,-664,0,0,0,0,0,0,0,0,0,-1,1980,1688,0,0
763,-664,0,0,0,0,0,0,0,0,0,-1,1987,1688,0,0
770,-664,0,0,0,0,0,0,0,0,0,-1,1994,1688,0,0
777,-664,0,0,0,0,0,0,0,0,0,-1,2001,1688,0,0
784,-664,0,0,0,0,0,0,0,0,0,-1,2008,1688,0,0
791,-664,0,0,0,0,0,0,0,0,0,-1,2015,1688,0,0
798,-664,0,0,0,0,0,0,0,0,0,-1,2022,1688,0,0
805,-664,0,0,0,0,0,0,0,0,0,-1,2029,1688,0,0
812,-664,0,0,0,0,0,0,0,0,0,-1,2036,1688,0,0
-700,-671,0,0,0,0,0,0,0,0,0,-1,524,1695,0,0
-693,-671,0,0,0,0,0,0,0,0,0,-1,531,1695,0,0
-686,-671,0,0,0,0,0,0,0,0,0,-1,538,1695,0,0
-679,-671,0,0,0,0,0,0,0,0,0,-1,545,1695,0,0
-672,-671,0,0,0,0,0,0,0,0,0,-1,552,1695,0,0
-665,-671,0,0,0,0,0,0,0,0,0,-1,559,1695,0,0
-658,-671,0,0,0,0,0,0,0,0,0,-1,566,1695,0,0
-651,-671,0,0,0,0,0,0,0,0,0,-1,573,1695,0,0
-644,-671,0,0,0,0,0,0,0,0,0,-1,580,1695,0,0
-637,-671,0,0,0,0,0,0,0,0,0,-1,587,1695,0,0
-630,-671,0,0,0,0,0,0,0,0,0,-1,594,1695,0,0
-623,-671,0,0,0,0,0,0,0,0,0,-1,601,1695,0,0
-616,-671,0,0,0,0,0,0,0,0,0,-1,608,1695,0,0
-609,-671,0,0,0,0,0,0,0,0,0,-1,615,1695,0,0
-602,-671,0,0,0,0,0,0,0,0,0,-1,622,1695,0,0
-595,-671,0,0,0,0,0,0,0,0,0,-1,629,1695,0,0
-588,-671,0,0,0,0,0,0,0,0,0,-1,636,1695,0,0
-581,-671,0,0,0,0,0,0,0,0,0,-1,643,1695,0,0
-574,-671,0,0,0,0,0,0,0,0,0,-1,650,1695,0,0
-567,-671,0,0,0,0,0,0,0,0,0,-1,657,1695,0,0
-560,-671,0,0,0,0,0,0,0,0,0,-1,664,1695,0,0
-553,-671,0,0,0,0,0,0,0,0,0,-1,671,1695,0,0
-546,-671,0,0,0,0,0,0,0,0,0,-1,678,1695,0,0
-539,-671,0,0,0,0,0,0,0,0,0,-1,685,1695,0,0
-532,-671,0,0,0,0,0,0,0,0,0,-1,692,1695,0,0
-525,-671,0,0,0,0,0,0,0,0,0,-1,699,1695,0,0
-518,-671,0,0,0,0,0,0,0,0,0,-1,706,1695,0,0
-511,-671,0,0,0,0,0,0,0,0,0,-1,713,1695,0,0
-504,-671,0,0,0,0,0,0,0,0,0,-1,720,1695,0,0
-497,-671,0,0,0,0,0,0,0,0,0,-1,727,1695,0,0
-490,-671,0,0,0,0,0,0,0,0,0,-1,734,1695,0,0
-483,-671,0,0,0,0,0,0,0,0,0,-1,741,1695,0,0
-476,-671,0,0,0,0,0,0,0,0,0,-1,748,1695,0,0
-469,-671,0,0,0,0,0,0,0,0,0,-1,755,1695,0,0
-462,-671,0,0,0,0,0,0,0,0,0,-1,762,1695,0,0
-455,-671,0,0,0,0,0,0,0,0,0,-1,769,1695,0,0
-448,-671,0,0,0,0,0,0,0,0,0,-1,776,1695,0,0
-441,-671,0,0,0,0,0,0,0,0,0,-1,783,1695,0,0
-434,-671,0,0,0,0,0,0,0,0,0,-1,790,1695,0,0
-427,-671,0,0,0,0,0,0,0,0,0,-1,797,1695,0,0
-420,-671,0,0,0,0,0,0,0,0,0,-1,804,1695,0,0
-413,-671,0,0,0,0,0,0,0,0,0,-1,811,1695,0,0
-406,-671,0,0,0,0,0,0,0,0,0,-1,818,1695,0,0
-399,-671,0,0,0,0,0,0,0,0,0,-1,825,1695,0,0
-392,-671,0,0,0,0,0,0,0,0,0,-1,832,1695,0,0
-385,-671,0,0,0,0,0,0,0,0,0,-1,839,1695,0,0
-378,-671,0,0,0,0,0,0,0,0,0,-1,846,1695,0,0
-371,-671,0,0,0,0,0,0,0,0,0,-1,853,1695,0,0
-364,-671,-4.18738,7.51416,0,0,0,0,0,0,0,-1,860,1695,-4.18739,-7.51419
-357,-671,-5.02393,6.07129,0,0,0,0,0,0,0,-1,867,1695,-5.0239,-6.07135
-350,-671,-5.72333,4.58386,0,0,0,0,0,0,0,-1,874,1695,-5.72333,-4.58386
-343,-671,-6.4884,3.11353,0,0,0,0,0,0,0,-1,881,1695,-6.48839,-3.11349
-336,-671,2.55884,15.6338,0,0,0,0,0,0,0,-1,888,1695,2.55886,-15.6338
-329,-671,2.71729,16.1058,0,0,0,0,0,0,0,-1,895,1695,2.71729,-16.1058
-322,-671,7.14117,22.0459,0,0,0,0,0,0,0,-1,902,1695,7.1412,-22.0459
-315,-671,5.81104,22.686,0,0,0,0,0,0,0,-1,909,1695,5.81102,-22.686
-308,-671,5.76251,23.4701,0,0,0,0,0,0,0,-1,916,1695,5.76252,-23.4701
-301,-671,8.0578,23.4189,0,0,0,0,0,0,0,-1,923,1695,8.05783,-23.419
-294,-671,6.15106,25.4746,0,0,0,0,0,0,0,-1,930,1695,6.15109,-25.4746
-287,-671,6.21417,25.5244,-0.00776167,0.0117527,0.00352122,0.0123686,-0.00837761,1.39763,0.0120515,0.0475973,937,1695,6.21415,-25.5244
-280,-671,5.95667,25.9769,-0.00583544,0.008517,0.00219651,0.00884563,-0.00616407,1.42228,0.00871183,0.0426173,944,1695,5.95669,-25.9769
-273,-671,6.04718,26.3213,-0.00446357,0.00615973,0.00109862,0.00627215,-0.004576,1.46882,0.00628865,0.0361588,951,1695,6.04719,-26.3213
-266,-671,6.02643,26.7369,-0.00315413,0.0038957,0.000362452,0.00391429,-0.00317271,1.51956,0.00409914,0.0259621,958,1695,6.0264,-26.7369
-259,-671,5.88367,27.0187,-0.00230841,0.00246312,-0.000267343,0.00247806,-0.00232334,-1.515,0.00277257,0.0227739,965,1695,5.88369,-27.0187
-252,-671,5.90375,27.3514,-0.00197043,0.0015575,-0.000840823,0.00174765,-0.00216057,-1.34839,0.00226061,0.0165273,972,1695,5.90372,-27.3514
-245,-671,5.87885,27.7164,-0.00186536,0.00106834,-0.00106576,0.00141463,-0.00221166,-1.25663,0.00211043,0.0190777,979,1695,5.87885,-27.7165
-238,-671,5.88977,28.0573,-0.00169684,0.000845186,-0.00101943,0.0012035,-0.00205516,-1.2328,0.00190268,0.0198604,986,1695,5.88976,-28.0572
-231,-671,5.89233,28.3885,-0.00076253,0.000582278,-0.000985148,0.00110262,-0.00128287,-1.08485,0.00137858,0.0153794,993,1695,5.89236,-28.3886
-224,-671,5.85687,28.6942,-0.000696439,0.00024667,-0.000856542,0.000752882,-0.00120265,-1.03702,0.00113894,0.0118069,1000,1695,5.85685,-28.6942
-217,-671,5.83911,28.9924,-0.000913207,0.000363512,-0.000687731,0.000663489,-0.00121318,-1.15949,0.00109888,0.0108636,1007,1695,5.83913,-28.9924
-210,-671,5.85144,29.3309,-0.000567812,0.000707982,-0.000411474,0.000829179,-0.000689009,-1.28435,0.000877771,0.0101585,1014,1695,5.85142,-29.331
-203,-671,5.8324,29.6382,-0.000132842,0.00100291,-0.000175401,0.00102938,-0.000159313,-1.42101,0.000745058,0.0171605,1021,1695,5.83235,-29.6381
-196,-671,5.8197,29.9351,0.000199553,0.00139747,-9.52196e-06,0.00139755,0.000199477,-1.56285,0.000872837,0.0150492,1028,1695,5.81969,-29.9351
-189,-671,5.8186,30.244,0.000409107,0.00191964,7.76651e-05,0.00192363,0.000405125,1.51956,0.00117097,0.0119467,1035,1695,5.81863,-30.244
-182,-671,5.82922,30.5088,0.000617995,0.00273144,9.82608e-05,0.002736,0.000613437,1.52444,0.0016578,0.00998231,1042,1695,5.82922,-30.5088
-175,-671,5.83179,30.7588,0.000937727,0.00381155,0.000173754,0.00382201,0.000927259,1.51063,0.00230204,0.0136857,1049,1695,5.83184,-30.7588
-168,-671,5.83423,31.0215,0.00117106,0.00504321,0.0002378,0.00505776,0.00115651,1.50969,0.00306007,0.0149239,1056,1695,5.8342,-31.0215
-161,-671,5.8219,31.3083,0.00149105,0.00636399,0.00033848,0.00638739,0.00146765,1.50178,0.00386312,0.00997351,1063,1695,5.8219,-31.3084
-154,-671,5.83228,31.5604,0.00185115,0.00804361,0.000404701,0.00806995,0.00182482,1.50581,0.00488662,0.00890572,1070,1695,5.83229,-31.5605
-147,-671,5.83228,31.8253,0.00227041,0.00987768,0.000405183,0.0098992,0.00224889,1.51773,0.00599219,0.0100786,1077,1695,5.83229,-31.8253
-140,-671,5.86365,32.0795,0.00275666,0.0117885,0.000428227,0.0118088,0.0027364,1.52352,0.00713744,0.0121028,1084,1695,5.86364,-32.0795
-133,-671,5.88196,32.3274,0.00327341,0.0136712,0.000473123,0.0136927,0.00325193,1.52542,0.00826066,0.0163946,1091,1695,5.88197,-32.3274
-126,-671,5.93384,32.6044,0.00396294,0.0155149,0.00053222,0.0155393,0.00393847,1.52485,0.00932812,0.0223,1098,1695,5.93379,-32.6044
-119,-671,5.9939,33.0402,0.00485833,0.0169674,0.000521592,0.0169898,0.0048359,1.52783,0.0101078,0.0384263,1105,1695,5.99387,-33.0401
-112,-671,6.12756,33.2822,0.00563995,0.0181787,0.00041477,0.0181924,0.00562624,1.53777,0.0107551,0.0475699,1112,1695,6.12761,-33.2822
-105,-671,6.28027,33.3657,0,0,0,0,0,0,0,-1,1119,1695,6.28027,-33.3657
-98,-671,5.95032,33.7198,0,0,0,0,0,0,0,-1,1126,1695,5.95037,-33.7199
-91,-671,5.89795,31.6277,0,0,0,0,0,0,0,-1,1133,1695,5.89796,-31.6277
-84,-671,5.4209,26.2415,0,0,0,0,0,0,0,-1,1140,1695,5.42096,-26.2414
-77,-671,4.31763,16.489,0,0,0,0,0,0,0,-1,1147,1695,4.31757,-16.489
-70,-671,3.06067,10.7737,0,0,0,0,0,0,0,-1,1154,1695,3.0607,-10.7737
-63,-671,2.94592,6.90198,0,0,0,0,0,0,0,-1,1161,1695,2.94594,-6.90198
-56,-671,-3.07678,2.87976,0,0,0,0,0,0,0,-1,1168,1695,-3.07675,-2.87979
-49,-671,-1.05957,4.76917,0,0,0,0,0,0,0,-1,1175,1695,-1.05958,-4.76921
-42,-671,0.539307,3.7865,0,0,0,0,0,0,0,-1,1182,1695,0.539266,-3.78648
-35,-671,-0.272461,0.347534,0,0,0,0,0,0,0,-1,1189,1695,-0.272434,-0.347569
-28,-671,-10.4878,17.2009,0,0,0,0,0,0,0,-1,1196,1695,-10.4878,-17.2009
-21,-671,6.71326,35.2502,0,0,0,0,0,0,0,-1,1203,1695,6.71326,-35.2502
-14,-671,7.1366,35.7678,0,0,0,0,0,0,0,-1,1210,1695,7.13665,-35.7678
-7,-671,5.45752,36.8741,0,0,0,0,0,0,0,-1,1217,1695,5.45752,-36.8741
0,-671,5.11951,36.4568,0.0411451,0.0457567,0.0260166,0.0695695,0.0173323,0.829596,0.0418172,0.0445674,1224,1695,5.11948,-36.4568
7,-671,5.15454,36.8083,0.0433201,0.0444574,0.0270006,0.0708953,0.0168822,0.795927,0.0427618,0.0456323,1231,1695,5.15457,-36.8083
14,-671,5.8667,37.488,0.0439035,0.0446142,0.0281108,0.0723719,0.0161458,0.791718,0.0438678,0.0442976,1238,1695,5.86674,-37.4881
21,-671,7.9646,36.3821,0.0426981,0.0461825,0.0286989,0.073192,0.0156886,0.815714,0.0444968,0.0433027,1245,1695,7.9646,-36.382
28,-671,7.901,36.6582,0.0400291,0.0494295,0.0285883,0.0737014,0.0157572,0.866874,0.0448149,0.0447606,1252,1695,7.90105,-36.6582
35,-671,8.0957,36.7822,0.0358357,0.0529961,0.0275073,0.0732303,0.0156015,0.936578,0.04454,0.0448678,1259,1695,8.09565,-36.7823
42,-671,7.93921,37.0916,0.0302516,0.0557542,0.0256095,0.0716113,0.0143945,1.01639,0.0437395,0.0461221,1266,1695,7.93922,-37.0915
49,-671,8.23938,37.3802,0.0250267,0.0562693,0.0226456,0.0681589,0.0131371,1.08733,0.0417549,0.0447407,1273,1695,8.23934,-37.3803
56,-671,8.29553,37.5293,0.0209287,0.0570164,0.0185488,0.06485,0.0130952,1.1712,0.0395967,0.0450541,1280,1695,8.29559,-37.5293
63,-671,8.39514,37.6729,0.0163136,0.0566418,0.014215,0.0611487,0.0118067,1.26377,0.0374557,0.0472177,1287,1695,8.39519,-37.6729
70,-671,8.49341,37.8694,0,0,0,0,0,0,0,-1,1294,1695,8.49343,-37.8694
77,-671,8.62329,37.7631,0,0,0,0,0,0,0,-1,1301,1695,8.62333,-37.7631
84,-671,7.72498,35.8412,0,0,0,0,0,0,0,-1,1308,1695,7.72497,-35.8412
91,-671,7.79028,36.0924,0.00504622,0.0429763,-0.00386485,0.0433661,0.00465642,-1.47028,0.0274903,0.0433269,1315,1695,7.79024,-36.0924
98,-671,7.89038,36.4569,0.00411825,0.037671,-0.00775486,0.0393767,0.00241262,-1.3543,0.025485,0.0418053,1322,1695,7.8904,-36.4569
105,-671,8.13,37.218,0.00536187,0.03057,-0.00985473,0.0339653,0.00196662,-1.239,0.0220173,0.0437233,1329,1695,8.13002,-37.218
112,-671,8.34314,35.3414,0.00684245,0.0240523,-0.0107937,0.0292513,0.0016434,-1.12192,0.0189768,0.0431747,1336,1695,8.34315,-35.3414
119,-671,8.42529,35.4504,0.00746449,0.0184105,-0.0115205,0.0256919,0.000183102,-1.00715,0.0170672,0.045069,1343,1695,8.42525,-35.4505
126,-671,8.40552,35.6122,0.00747819,0.0150106,-0.0120208,0.0238414,-0.0013526,-0.937208,0.0163638,0.0468676,1350,1695,8.40548,-35.6122
133,-671,8.50854,36.0212,0.00683802,0.0132749,-0.0127926,0.0232477,-0.00313478,-0.908633,0.0166421,0.0497919,1357,1695,8.5086,-36.0213
140,-671,8.60608,36.3798,0.00585798,0.0126734,-0.0137942,0.0234746,-0.00494314,-0.906494,0.0175313,0.0497607,1364,1695,8.60602,-36.3798
147,-671,8.67102,36.6737,0,0,0,0,0,0,0,-1,1371,1695,8.67103,-36.6737
154,-671,7.66968,35.1843,0,0,0,0,0,0,0,-1,1378,1695,7.66973,-35.1843
161,-671,4.49292,4.91272,0,0,0,0,0,0,0,-1,1385,1695,4.49297,-4.91273
168,-671,5.17639,6.1416,0,0,0,0,0,0,0,-1,1392,1695,5.1764,-6.14164
175,-671,5.6731,1.64685,0,0,0,0,0,0,0,-1,1399,1695,5.67313,-1.64691
182,-671,5.56812,1.71692,0,0,0,0,0,0,0,-1,1406,1695,5.56809,-1.71686
189,-671,6.98315,6.36169,0,0,0,0,0,0,0,-1,1413,1695,6.98312,-6.36175
196,-671,5.38123,5.69775,0,0,0,0,0,0,0,-1,1420,1695,5.38125,-5.69769
203,-671,5.95117,8.11658,0,0,0,0,0,0,0,-1,1427,1695,5.9512,-8.11662
210,-671,4.73596,8.39624,0,0,0,0,0,0,0,-1,1434,1695,4.736,-8.39618
217,-671,5.37097,11.863,0,0,0,0,0,0,0,-1,1441,1695,5.37094,-11.863
224,-671,5.08167,13.6694,0,0,0,0,0,0,0,-1,1448,1695,5.08165,-13.6695
231,-671,5.66663,15.3348,0,0,0,0,0,0,0,-1,1455,1695,5.66667,-15.3349
238,-671,6.32959,16.2036,0,0,0,0,0,0,0,-1,1462,1695,6.32961,-16.2037
245,-671,9.09692,31.6698,0,0,0,0,0,0,0,-1,1469,1695,9.09694,-31.6698
252,-671,8.9281,32.7028,0,0,0,0,0,0,0,-1,1476,1695,8.92805,-32.7028
259,-671,8.87476,32.3856,0,0,0,0,0,0,0,-1,1483,1695,8.87472,-32.3856
266,-671,8.96448,32.4503,0.00550954,0.000826145,-0.00198648,0.00623861,9.70708e-05,-0.351755,0.0041271,0.0359743,1490,1695,8.96444,-32.4503
273,-671,9.02844,32.2728,0.00535498,0.000796888,-0.00204674,0.00613913,1.27363e-05,-0.365873,0.00408852,0.0118132,1497,1695,9.02847,-32.2728
280,-671,9.04993,32.0597,0.00505214,0.00102813,-0.00201428,0.00588715,0.000193119,-0.392982,0.003862,0.00881912,1504,1695,9.04995,-32.0596
287,-671,9.0658,31.7771,0.00461147,0.00113491,-0.00188178,0.00543497,0.000311409,-0.41251,0.0035241,0.0109403,1511,1695,9.06585,-31.7771
294,-671,9.05444,31.5289,0.00410777,0.00137843,-0.00180082,0.00500259,0.000483614,-0.461158,0.00318611,0.0113456,1518,1695,9.05448,-31.529
301,-671,9.05225,31.3212,0.00355476,0.00162208,-0.00171221,0.0045545,0.000622337,-0.528489,0.00285161,0.0109742,1525,1695,9.05228,-31.3211
308,-671,9.0675,31.078,0.00302649,0.00179661,-0.00157049,0.00409815,0.000724956,-0.598794,0.00252537,0.0119239,1532,1695,9.06748,-31.078
315,-671,9.10913,30.8181,0.00250079,0.00191371,-0.00138326,0.00362132,0.000793185,-0.680844,0.00219805,0.0128836,1539,1695,9.10907,-30.8181
322,-671,9.13208,30.5718,0.0019563,0.00200777,-0.00120374,0.00318605,0.000778024,-0.796087,0.00191803,0.0147374,1546,1695,9.13213,-30.5718
329,-671,9.0885,30.3229,0.0014614,0.00195199,-0.00104472,0.00277983,0.000633564,-0.900706,0.00168228,0.014132,1553,1695,9.0885,-30.3228
336,-671,9.08362,30.0217,0.00105906,0.00174575,-0.000841606,0.00231135,0.000493459,-0.979073,0.00140559,0.0113438,1560,1695,9.0836,-30.0218
343,-671,9.10962,29.7108,0.000726998,0.00138944,-0.000643818,0.00178224,0.000334196,-1.02297,0.00109391,0.0105132,1567,1695,9.10958,-29.7109
350,-671,9.11145,29.4453,0.00049002,0.000801304,-0.000482921,0.00115304,0.000138279,-0.941289,0.000727,0.0110027,1574,1695,9.11151,-29.4453
357,-671,9.08533,29.1035,0.000294804,-0.000301968,-0.000252291,0.000387167,-0.000394332,-0.350944,0.000451205,0.0111852,1581,1695,9.08532,-29.1035
364,-671,9.07336,28.7885,0.000190809,-0.00193247,4.11695e-05,0.000191607,-0.00193327,0.0193799,0.00135723,0.0133397,1588,1695,9.07331,-28.7884
371,-671,9.06042,28.5046,0.000176633,-0.0035479,0.000287905,0.000198757,-0.00357002,0.0766925,0.00244895,0.0154929,1595,1695,9.06048,-28.5046
378,-671,9.05505,28.1962,0.000143497,-0.00545775,0.000619258,0.000211144,-0.0055254,0.108806,0.00375596,0.0132292,1602,1695,9.05504,-28.1962
385,-671,9.02905,27.8824,0.000210981,-0.00753103,0.000995987,0.000337059,-0.00765711,0.125916,0.00522072,0.0147237,1609,1695,9.029,-27.8825
392,-671,8.97571,27.6176,0.000322977,-0.0100627,0.00134734,0.000494922,-0.0102346,0.126932,0.00699391,0.0191877,1616,1695,8.97575,-27.6175
399,-671,8.99573,27.2679,0.000301429,-0.0127483,0.00163022,0.000501998,-0.0129489,0.122417,0.00880471,0.0167039,1623,1695,8.99574,-27.2679
406,-671,9.01123,26.9301,0.000290519,-0.0152632,0.00184307,0.000505935,-0.0154786,0.116351,0.0104918,0.0286226,1630,1695,9.01119,-26.9301
413,-671,8.93176,26.8186,0.000515759,-0.0173415,0.00194983,0.000726181,-0.017552,0.107502,0.0119507,0.0439277,1637,1695,8.93175,-26.8186
420,-671,9.01367,26.4482,0,0,0,0,0,0,0,-1,1644,1695,9.01365,-26.4482
427,-671,9.31738,21.7188,0,0,0,0,0,0,0,-1,1651,1695,9.31735,-21.7187
434,-671,9.66528,26.177,0,0,0,0,0,0,0,-1,1658,1695,9.66528,-26.177
441,-671,8.34961,20.6522,0,0,0,0,0,0,0,-1,1665,1695,8.34964,-20.6522
448,-671,7.44873,20.2306,0,0,0,0,0,0,0,-1,1672,1695,7.44872,-20.2306
455,-671,6.62805,19.8612,0,0,0,0,0,0,0,-1,1679,1695,6.62811,-19.8612
462,-671,5.86255,4.47961,0,0,0,0,0,0,0,-1,1686,1695,5.8625,-4.4796
469,-671,3.71301,3.76978,0,0,0,0,0,0,0,-1,1693,1695,3.71297,-3.76974
476,-671,3.75574,3.18848,0,0,0,0,0,0,0,-1,1700,1695,3.7558,-3.18847
483,-671,7.81824,12.1041,0,0,0,0,0,0,0,-1,1707,1695,7.81826,-12.1041
490,-671,0,0,0,0,0,0,0,0,0,-1,1714,1695,0,0
497,-671,0,0,0,0,0,0,0,0,0,-1,1721,1695,0,0
504,-671,0,0,0,0,0,0,0,0,0,-1,1728,1695,0,0
511,-671,0,0,0,0,0,0,0,0,0,-1,1735,1695,0,0
518,-671,0,0,0,0,0,0,0,0,0,-1,1742,1695,0,0
525,-671,0,0,0,0,0,0,0,0,0,-1,1749,1695,0,0
532,-671,0,0,0,0,0,0,0,0,0,-1,1756,1695,0,0
539,-671,0,0,0,0,0,0,0,0,0,-1,1763,1695,0,0
546,-671,0,0,0,0,0,0,0,0,0,-1,1770,1695,0,0
553,-671,0,0,0,0,0,0,0,0,0,-1,1777,1695,0,0
560,-671,0,0,0,0,0,0,0,0,0,-1,1784,1695,0,0
567,-671,0,0,0,0,0,0,0,0,0,-1,1791,1695,0,0
574,-671,0,0,0,0,0,0,0,0,0,-1,1798,1695,0,0
581,-671,0,0,0,0,0,0,0,0,0,-1,1805,1695,0,0
588,-671,0,0,0,0,0,0,0,0,0,-1,1812,1695,0,0
595,-671,0,0,0,0,0,0,0,0,0,-1,1819,1695,0,0
602,-671,0,0,0,0,0,0,0,0,0,-1,1826,1695,0,0
609,-671,0,0,0,0,0,0,0,0,0,-1,1833,1695,0,0
616,-671,0,0,0,0,0,0,0,0,0,-1,1840,1695,0,0
623,-671,0,0,0,0,0,0,0,0,0,-1,1847,1695,0,0
630,-671,0,0,0,0,0,0,0,0,0,-1,1854,1695,0,0
637,-671,0,0,0,0,0,0,0,0,0,-1,1861,1695,0,0
644,-671,0,0,0,0,0,0,0,0,0,-1,1868,1695,0,0
651,-671,0,0,0,0,0,0,0,0,0,-1,1875,1695,0,0
658,-671,0,0,0,0,0,0,0,0,0,-1,1882,1695,0,0
665,-671,0,0,0,0,0,0,0,0,0,-1,1889,1695,0,0
672,-671,0,0,0,0,0,0,0,0,0,-1,1896,1695,0,0
679,-671,0,0,0,0,0,0,0,0,0,-1,1903,1695,0,0
686,-671,0,0,0,0,0,0,0,0,0,-1,1910,1695,0,0
693,-671,0,0,0,0,0,0,0,0,0,-1,1917,1695,0,0
700,-671,0,0,0,0,0,0,0,0,0,-1,1924,1695,0,0
707,-671,0,0,0,0,0,0,0,0,0,-1,1931,1695,0,0
714,-671,0,0,0,0,0,0,0,0,0,-1,1938,1695,0,0
721,-671,0,0,0,0,0,0,0,0,0,-1,1945,1695,0,0
728,-671,0,0,0,0,0,0,0,0,0,-1,1952,1695,0,0
735,-671,0,0,0,0,0,0,0,0,0,-1,1959,1695,0,0
742,-671,0,0,0,0,0,0,0,0,0,-1,1966,1695,0,0
749,-671,0,0,0,0,0,0,0,0,0,-1,1973,1695,0,0
756,-671,0,0,0,0,0,0,0,0,0,-1,1980,1695,0,0
763,-671,0,0,0,0,0,0,0,0,0,-1,1987,1695,0,0
770,-671,0,0,0,0,0,0,0,0,0,-1,1994,1695,0,0
777,-671,0,0,0,0,0,0,0,0,0,-1,2001,1695,0,0
784,-671,0,0,0,0,0,0,0,0,0,-1,2008,1695,0,0
791,-671,0,0,0,0,0,0,0,0,0,-1,2015,1695,0,0
798,-671,0,0,0,0,0,0,0,0,0,-1,2022,1695,0,0
805,-671,0,0,0,0,0,0,0,0,0,-1,2029,1695,0,0
812,-671,0,0,0,0,0,0,0,0,0,-1,2036,1695,0,0
-700,-678,0,0,0,0,0,0,0,0,0,-1,524,1702,0,0
-693,-678,0,0,0,0,0,0,0,0,0,-1,531,1702,0,0
-686,-678,0,0,0,0,0,0,0,0,0,-1,538,1702,0,0
-679,-678,0,0,0,0,0,0,0,0,0,-1,545,1702,0,0
-672,-678,0,0,0,0,0,0,0,0,0,-1,552,1702,0,0
-665,-678,0,0,0,0,0,0,0,0,0,-1,559,1702,0,0
-658,-678,0,0,0,0,0,0,0,0,0,-1,566,1702,0,0
-651,-678,0,0,0,0,0,0,0,0,0,-1,573,1702,0,0
-644,-678,0,0,0,0,0,0,0,0,0,-1,580,1702,0,0
-637,-678,0,0,0,0,0,0,0,0,0,-1,587,1702,0,0
-630,-678,0,0,0,0,0,0,0,0,0,-1,594,1702,0,0
-623,-678,0,0,0,0,0,0,0,0,0,-1,601,1702,0,0
-616,-678,0,0,0,0,0,0,0,0,0,-1,608,1702,0,0
-609,-678,0,0,0,0,0,0,0,0,0,-1,615,1702,0,0
-602,-678,0,0,0,0,0,0,0,0,0,-1,622,1702,0,0
-595,-678,0,0,0,0,0,0,0,0,0,-1,629,1702,0,0
-588,-678,0,0,0,0,0,0,0,0,0,-1,636,1702,0,0
-581,-678,0,0,0,0,0,0,0,0,0,-1,643,1702,0,0
-574,-678,0,0,0,0,0,0,0,0,0,-1,650,1702,0,0
-567,-678,0,0,0,0,0,0,0,0,0,-1,657,1702,0,0
-560,-678,0,0,0,0,0,0,0,0,0,-1,664,1702,0,0
-553,-678,0,0,0,0,0,0,0,0,0,-1,671,1702,0,0
-546,-678,0,0,0,0,0,0,0,0,0,-1,678,1702,0,0
-539,-678,0,0,0,0,0,0,0,0,0,-1,685,1702,0,0
-532,-678,0,0,0,0,0,0,0,0,0,-1,692,1702,0,0
-525,-678,0,0,0,0,0,0,0,0,0,-1,699,1702,0,0
-518,-678,0,0,0,0,0,0,0,0,0,-1,706,1702,0,0
-511,-678,0,0,0,0,0,0,0,0,0,-1,713,1702,0,0
-504,-678,0,0,0,0,0,0,0,0,0,-1,720,1702,0,0
-497,-678,0,0,0,0,0,0,0,0,0,-1,727,1702,0,0
-490,-678,0,0,0,0,0,0,0,0,0,-1,734,1702,0,0
-483,-678,0,0,0,0,0,0,0,0,0,-1,741,1702,0,0
-476,-678,0,0,0,0,0,0,0,0,0,-1,748,1702,0,0
-469,-678,0,0,0,0,0,0,0,0,0,-1,755,1702,0,0
-462,-678,0,0,0,0,0,0,0,0,0,-1,762,1702,0,0
-455,-678,0,0,0,0,0,0,0,0,0,-1,769,1702,0,0
-448,-678,0,0,0,0,0,0,0,0,0,-1,776,1702,0,0
-441,-678,0,0,0,0,0,0,0,0,0,-1,783,1702,0,0
-434,-678,0,0,0,0,0,0,0,0,0,-1,790,1702,0,0
-427,-678,0,0,0,0,0,0,0,0,0,-1,797,1702,0,0
-420,-678,0,0,0,0,0,0,0,0,0,-1,804,1702,0,0
-413,-678,0,0,0,0,0,0,0,0,0,-1,811,1702,0,0
-406,-678,0,0,0,0,0,0,0,0,0,-1,818,1702,0,0
-399,-678,0,0,0,0,0,0,0,0,0,-1,825,1702,0,0
-392,-678,0,0,0,0,0,0,0,0,0,-1,832,1702,0,0
-385,-678,0,0,0,0,0,0,0,0,0,-1,839,1702,0,0
-378,-678,0,0,0,0,0,0,0,0,0,-1,846,1702,0,0
-371,-678,0,0,0,0,0,0,0,0,0,-1,853,1702,0,0
-364,-678,0,0,0,0,0,0,0,0,0,-1,860,1702,0,0
-357,-678,0,0,0,0,0,0,0,0,0,-1,867,1702,0,0
-350,-678,-5.79944,6.11865,0,0,0,0,0,0,0,-1,874,1702,-5.79942,-6.11864
-343,-678,-6.44891,4.52759,0,0,0,0,0,0,0,-1,881,1702,-6.4489,-4.52758
-336,-678,-6.91888,2.99438,0,0,0,0,0,0,0,-1,888,1702,-6.9189,-2.99435
-329,-678,-7.14575,1.29761,0,0,0,0,0,0,0,-1,895,1702,-7.14577,-1.29755
-322,-678,3.78455,20.3917,0,0,0,0,0,0,0,-1,902,1702,3.78457,-20.3917
-315,-678,4.74176,22.3245,0,0,0,0,0,0,0,-1,909,1702,4.74178,-22.3244
-308,-678,8.02203,23.7128,0,0,0,0,0,0,0,-1,916,1702,8.02202,-23.7127
-301,-678,7.6629,24.095,0,0,0,0,0,0,0,-1,923,1702,7.66288,-24.0949
-294,-678,7.15601,24.7834,0,0,0,0,0,0,0,-1,930,1702,7.15603,-24.7835
-287,-678,6.31268,25.3746,-0.00977411,0.0146425,0.00351556,0.0151386,-0.0102702,1.43061,0.0147593,0.0470941,937,1702,6.31266,-25.3746
-280,-678,5.271,26.0195,-0.00717336,0.0107153,0.00195397,0.0109263,-0.00738431,1.46326,0.0106373,0.0480684,944,1702,5.27099,-26.0195
-273,-678,6.25507,26.2578,-0.00540897,0.00778435,0.000649708,0.00781627,-0.00544089,1.52171,0.00769487,0.0456251,951,1702,6.25504,-26.2578
-266,-678,6.38684,26.7697,-0.00389543,0.0051113,-0.0001891,0.00511527,-0.0038994,-1.54981,0.00522038,0.0371286,958,1702,6.38684,-26.7697
-259,-678,6.22241,27.1152,-0.00299498,0.00329373,-0.00085594,0.00340815,-0.0031094,-1.43791,0.00376423,0.0236773,965,1702,6.22243,-27.1153
-252,-678,6.23456,27.3707,-0.00266291,0.00206048,-0.00146878,0.00247996,-0.00308239,-1.29261,0.00321769,0.0172235,972,1702,6.23454,-27.3707
-245,-678,6.23169,27.7111,-0.00267149,0.00123815,-0.00173661,0.00189812,-0.00333146,-1.20762,0.00305686,0.0174384,979,1702,6.2317,-27.7111
-238,-678,6.19598,28.0433,-0.00266468,0.000783155,-0.00167644,0.00146389,-0.00334541,-1.18508,0.0028466,0.0148076,986,1702,6.19597,-28.0433
-231,-678,6.17096,28.3931,-0.00158614,0.000307243,-0.00164054,0.00125465,-0.00253355,-1.04709,0.00222828,0.0124852,993,1702,6.17094,-28.3931
-224,-678,6.1311,28.6984,-0.00158042,-0.000315274,-0.00147663,0.000658573,-0.00255427,-0.987767,0.00195961,0.0123561,1000,1702,6.13112,-28.6983
-217,-678,6.13116,28.9983,-0.00192907,-0.000350845,-0.00129557,0.000377016,-0.00265693,-1.05893,0.00190941,0.0128207,1007,1702,6.13115,-28.9983
-210,-678,6.12708,29.3457,-0.00155047,-0.000112731,-0.000921023,0.000336756,-0.00199996,-1.11677,0.00145857,0.0129831,1014,1702,6.12707,-29.3458
-203,-678,6.12402,29.6345,-0.00101945,7.4333e-05,-0.000555428,0.000306923,-0.00125204,-1.17422,0.000953608,0.0172083,1021,1702,6.12405,-29.6345
-196,-678,6.09338,29.9222,-0.000578324,0.000385331,-0.00032676,0.00048568,-0.000678673,-1.27283,0.00067531,0.0178161,1028,1702,6.09338,-29.9222
-189,-678,6.08679,30.2313,-0.000227849,0.000790099,-0.000182796,0.000821929,-0.000259679,-1.3984,0.000651984,0.010625,1035,1702,6.08684,-30.2314
-182,-678,6.11169,30.5302,8.04587e-05,0.00145852,-8.88604e-05,0.00146423,7.47524e-05,-1.50667,0.000952213,0.0101991,1042,1702,6.11168,-30.5301
-175,-678,6.10864,30.8114,0.000464606,0.00235888,5.4771e-05,0.00236046,0.000463023,1.54191,0.00144426,0.0119866,1049,1702,6.10869,-30.8114
-168,-678,6.0918,31.0703,0.000768417,0.00334824,0.000186214,0.00336162,0.000755045,1.49911,0.0020366,0.0111055,1056,1702,6.09182,-31.0703
-161,-678,6.08167,31.3212,0.00109193,0.00441805,0.000316343,0.00444787,0.00106211,1.47681,0.00268225,0.00882174,1063,1702,6.08166,-31.3212
-154,-678,6.08704,31.5731,0.00143687,0.00581451,0.000399009,0.00585058,0.00140079,1.48064,0.00352742,0.00835036,1070,1702,6.08707,-31.5732
-147,-678,6.09607,31.8273,0.00180925,0.00729082,0.000429081,0.0073242,0.00177587,1.49315,0.00441164,0.0101629,1077,1702,6.09612,-31.8272
-140,-678,6.11841,32.0962,0.00223034,0.00880065,0.000451695,0.00883156,0.00219943,1.50248,0.00530867,0.0111951,1084,1702,6.11836,-32.0962
-133,-678,6.1416,32.3391,0.00265702,0.0102201,0.000450596,0.0102469,0.00263026,1.5115,0.00614509,0.0123108,1091,1702,6.1416,-32.3391
-126,-678,6.14551,32.5691,0.0031656,0.0115636,0.00045134,0.0115878,0.00314141,1.51726,0.00691996,0.0112353,1098,1702,6.14554,-32.5691
-119,-678,6.203,32.9738,0.00380725,0.0125326,0.000397095,0.0125506,0.00378921,1.52541,0.00743322,0.0284318,1105,1702,6.20304,-32.9738
-112,-678,6.2229,33.2484,0.00435494,0.013214,0.000262449,0.0132218,0.00434717,1.54121,0.00778136,0.0427808,1112,1702,6.22296,-33.2484
-105,-678,6.26123,33.4818,0.00465643,0.0134583,0.00021911,0.0134637,0.00465098,1.54592,0.0078961,0.0428337,1119,1702,6.26128,-33.4819
-98,-678,6.23767,33.5266,0.00483288,0.0133406,0.000181657,0.0133444,0.004829,1.54946,0.0078018,0.0256943,1126,1702,6.23769,-33.5267
-91,-678,6.31909,33.5127,0,0,0,0,0,0,0,-1,1133,1702,6.31905,-33.5127
-84,-678,6.43823,33.9128,0,0,0,0,0,0,0,-1,1140,1702,6.43825,-33.9129
-77,-678,5.95154,29.1879,0,0,0,0,0,0,0,-1,1147,1702,5.95156,-29.1878
-70,-678,4.75891,19.6552,0,0,0,0,0,0,0,-1,1154,1702,4.75895,-19.6551
-63,-678,3.41687,11.0365,0,0,0,0,0,0,0,-1,1161,1702,3.41682,-11.0365
-56,-678,1.72388,6.13159,0,0,0,0,0,0,0,-1,1168,1702,1.72388,-6.13157
-49,-678,-0.241699,5.29895,0,0,0,0,0,0,0,-1,1175,1702,-0.241682,-5.29897
-42,-678,0.297119,3.90649,0,0,0,0,0,0,0,-1,1182,1702,0.297139,-3.90655
-35,-678,0.498413,3.64038,0,0,0,0,0,0,0,-1,1189,1702,0.498471,-3.64038
-28,-678,0.132446,3.55994,0,0,0,0,0,0,0,-1,1196,1702,0.132432,-3.55993
-21,-678,6.75171,35.0581,0,0,0,0,0,0,0,-1,1203,1702,6.75167,-35.0581
-14,-678,6.92249,35.2166,0.0279658,0.0406323,0.0183279,0.0536903,0.0149078,0.951752,0.0320034,0.0421646,1210,1702,6.92248,-35.2166
-7,-678,6.52734,35.4608,0.0310882,0.0392112,0.018684,0.05427,0.0160294,0.892423,0.0321957,0.0429603,1217,1702,6.52728,-35.4609
0,-678,5.75269,36.2516,0.0335668,0.0383987,0.0193368,0.0554699,0.0164956,0.847547,0.0328904,0.0444426,1224,1702,5.75268,-36.2516
7,-678,6.12585,36.4205,0.0349559,0.0382294,0.0201077,0.0567669,0.0164185,0.826008,0.0337311,0.0453149,1231,1702,6.12586,-36.4206
14,-678,6.39893,36.5917,0.0352678,0.0391429,0.0211069,0.058401,0.0160098,0.831168,0.0348457,0.0456547,1238,1702,6.39892,-36.5917
21,-678,7.55286,36.395,0,0,0,0,0,0,0,-1,1245,1702,7.55284,-36.3951
28,-678,7.66724,36.2177,0.032229,0.0438011,0.0219643,0.0607287,0.0153015,0.914188,0.0364714,0.0439614,1252,1702,7.66729,-36.2177
35,-678,7.71533,36.327,0.0291006,0.0467226,0.0215139,0.0611598,0.0146633,0.979754,0.0368705,0.0430799,1259,1702,7.71537,-36.327
42,-678,7.84058,36.5635,0.0249136,0.0488436,0.0204525,0.0605739,0.0131834,1.05006,0.0367842,0.0458997,1266,1702,7.84056,-36.5635
49,-678,7.96277,36.8186,0.0209338,0.049206,0.018394,0.0582683,0.0118714,1.11302,0.0355553,0.0473919,1273,1702,7.96281,-36.8186
56,-678,8.04248,37.0344,0.0177915,0.049581,0.0153407,0.0557765,0.011596,1.18697,0.033985,0.0468498,1280,1702,8.04251,-37.0344
63,-678,8.14917,37.2292,0.0141332,0.0487919,0.0120874,0.052591,0.0103341,1.26627,0.032174,0.0479426,1287,1702,8.14921,-37.2293
70,-678,8.29846,37.4359,0,0,0,0,0,0,0,-1,1294,1702,8.29846,-37.4359
77,-678,8.37622,37.5922,0,0,0,0,0,0,0,-1,1301,1702,8.37622,-37.5922
84,-678,8.4895,37.8019,0,0,0,0,0,0,0,-1,1308,1702,8.48951,-37.8019
91,-678,7.86438,35.9932,0,0,0,0,0,0,0,-1,1315,1702,7.86441,-35.9932
98,-678,7.75867,36.1685,0.00530819,0.0309485,-0.00466342,0.0317703,0.00448635,-1.39636,0.0198545,0.0423465,1322,1702,7.75862,-36.1684
105,-678,8.02258,35.2786,0.00623935,0.0250981,-0.00619379,0.0269504,0.00438705,-1.2802,0.0166978,0.0420052,1329,1702,8.02261,-35.2786
112,-678,8.1145,35.2921,0.00736037,0.0199941,-0.00671148,0.0228939,0.00446058,-1.16296,0.0140144,0.0441684,1336,1702,8.11454,-35.2921
119,-678,8.29309,35.3336,0.00778399,0.0156471,-0.00703081,0.019771,0.00366015,-1.04033,0.0121458,0.0442565,1343,1702,8.29309,-35.3336
126,-678,8.22644,35.6606,0.00778032,0.0131234,-0.00706529,0.0180054,0.00289836,-0.966152,0.0111636,0.043967,1350,1702,8.22648,-35.6606
133,-678,8.25403,36.1141,0.00730012,0.0117852,-0.00733478,0.0172126,0.00187273,-0.933756,0.0109046,0.0496704,1357,1702,8.25405,-36.1142
140,-678,8.34802,36.8734,0.0066257,0.0115025,-0.00780436,0.0172405,0.000887687,-0.936814,0.0112095,0.0472767,1364,1702,8.34807,-36.8734
147,-678,8.2345,37.5524,0.00610307,0.0112556,-0.00848379,0.0175457,-0.000186984,-0.932808,0.0117599,0.0435347,1371,1702,8.23445,-37.5523
154,-678,8.1969,38.1991,0,0,0,0,0,0,0,-1,1378,1702,8.19688,-38.1991
161,-678,8.81226,34.8624,0,0,0,0,0,0,0,-1,1385,1702,8.81229,-34.8624
168,-678,4.21863,5.25781,0,0,0,0,0,0,0,-1,1392,1702,4.21865,-5.25781
175,-678,5.21899,5.9635,0,0,0,0,0,0,0,-1,1399,1702,5.21894,-5.96346
182,-678,7.31262,6.75122,0,0,0,0,0,0,0,-1,1406,1702,7.3126,-6.75123
189,-678,5.96021,6.36853,0,0,0,0,0,0,0,-1,1413,1702,5.96018,-6.36851
196,-678,5.01599,8.15771,0,0,0,0,0,0,0,-1,1420,1702,5.01596,-8.15767
203,-678,4.64771,13.0559,0,0,0,0,0,0,0,-1,1427,1702,4.64766,-13.0559
210,-678,5.6532,18.5957,0,0,0,0,0,0,0,-1,1434,1702,5.65318,-18.5958
217,-678,6.88049,23.4835,0,0,0,0,0,0,0,-1,1441,1702,6.88047,-23.4835
224,-678,8.521,32.0977,0,0,0,0,0,0,0,-1,1448,1702,8.52098,-32.0977
231,-678,8.56995,33.6713,0,0,0,0,0,0,0,-1,1455,1702,8.56996,-33.6713
238,-678,8.71667,33.4308,0,0,0,0,0,0,0,-1,1462,1702,8.71665,-33.4308
245,-678,8.7666,33.1703,0,0,0,0,0,0,0,-1,1469,1702,8.76662,-33.1703
252,-678,8.77246,32.9469,0.00331422,-0.000250914,-0.000811504,0.00349024,-0.000426939,-0.213604,0.00248141,0.0295673,1476,1702,8.7724,-32.9469
259,-678,8.76294,32.7715,0.00336202,6.18774e-05,-0.00107736,0.00368259,-0.000258699,-0.289213,0.00254568,0.016461,1483,1702,8.76298,-32.7715
266,-678,8.79004,32.5221,0.00348829,0.000186288,-0.00136274,0.00397805,-0.000303472,-0.345019,0.00275876,0.0109239,1490,1702,8.79002,-32.5221
273,-678,8.80969,32.2988,0.00347993,0.000339268,-0.0014474,0.00404523,-0.000226027,-0.372342,0.00277523,0.0104722,1497,1702,8.80968,-32.2989
280,-678,8.80371,32.0851,0.00335412,0.000678422,-0.00146759,0.00400213,3.04079e-05,-0.415805,0.00265801,0.0108096,1504,1702,8.80371,-32.0851
287,-678,8.81555,31.8391,0.00311342,0.00097377,-0.00141528,0.00381773,0.000269464,-0.461761,0.00246026,0.0110127,1511,1702,8.81558,-31.8391
294,-678,8.81445,31.5652,0.00279509,0.00140864,-0.00140484,0.00366843,0.000535302,-0.556199,0.00228816,0.0113871,1518,1702,8.81446,-31.5651
301,-678,8.80457,31.3129,0.0023933,0.00183943,-0.00141498,0.00355819,0.000674542,-0.688762,0.00218231,0.0117877,1525,1702,8.8046,-31.3129
308,-678,8.79846,31.0795,0.00197131,0.00215299,-0.00137825,0.00344339,0.000680906,-0.818307,0.00210565,0.0133776,1532,1702,8.7984,-31.0795
315,-678,8.81592,30.8258,0.00153411,0.00227856,-0.00126655,0.00322645,0.00058622,-0.928318,0.00198463,0.0140818,1539,1702,8.81588,-30.8257
322,-678,8.81226,30.5911,0.00107227,0.00243748,-0.00117637,0.00311495,0.000394799,-1.04829,0.00195835,0.0171017,1546,1702,8.81228,-30.591
329,-678,8.78662,30.3237,0.000647874,0.00241334,-0.00108131,0.00292648,0.000134739,-1.12772,0.00190766,0.0153986,1553,1702,8.78659,-30.3238
336,-678,8.78137,30.022,0.000325587,0.00215904,-0.000932203,0.00254975,-6.51232e-05,-1.17391,0.00172195,0.0123981,1560,1702,8.78143,-30.0219
343,-678,8.80383,29.7307,7.08487e-05,0.00170162,-0.000774,0.00201048,-0.000238012,-1.19111,0.00142629,0.0125304,1567,1702,8.80379,-29.7307
350,-678,8.81702,29.4419,-7.47966e-05,0.000979255,-0.000619965,0.00126593,-0.000361474,-1.13767,0.000986768,0.0126716,1574,1702,8.81706,-29.4419
357,-678,8.80322,29.141,-0.00016156,-0.000399659,-0.000310996,5.23939e-05,-0.000613613,-0.602602,0.000427611,0.0100316,1581,1702,8.80326,-29.141
364,-678,8.79016,28.8438,-0.000126985,-0.00238351,6.53079e-05,-0.000125097,-0.00238539,0.0289096,0.00155025,0.0119941,1588,1702,8.79013,-28.8437
371,-678,8.76343,28.5117,2.33374e-05,-0.00441109,0.000385501,5.66009e-05,-0.00444435,0.0860732,0.00298195,0.0127861,1595,1702,8.76342,-28.5117
378,-678,8.73462,28.1967,7.94883e-05,-0.00686485,0.000862288,0.000184958,-0.00697032,0.121709,0.00470975,0.0133991,1602,1702,8.73467,-28.1966
385,-678,8.73816,27.915,0.000234268,-0.00951399,0.00141425,0.000435297,-0.00971502,0.1412,0.00662654,0.0153542,1609,1702,8.73821,-27.915
392,-678,8.79114,27.7085,0.00044466,-0.0128206,0.0019584,0.000727744,-0.0131037,0.143555,0.0089882,0.0269335,1616,1702,8.79118,-27.7085
399,-678,8.81189,27.5664,0.000524734,-0.0164483,0.00242333,0.000863948,-0.0167875,0.139074,0.0114905,0.0379346,1623,1702,8.81194,-27.5664
406,-678,8.67334,27.5789,0.000616966,-0.0200873,0.00285885,0.00100446,-0.0204748,0.134723,0.0139967,0.0459011,1630,1702,8.67336,-27.5789
413,-678,8.67957,27.3715,0.00101677,-0.023255,0.0031531,0.0014197,-0.0236579,0.127098,0.0162658,0.0448961,1637,1702,8.67953,-27.3715
420,-678,8.68774,27.1012,0,0,0,0,0,0,0,-1,1644,1702,8.68772,-27.1012
427,-678,4.57483,10.1555,0,0,0,0,0,0,0,-1,1651,1702,4.57485,-10.1555
434,-678,9.48169,21.6665,0,0,0,0,0,0,0,-1,1658,1702,9.48169,-21.6665
441,-678,8.64539,21.1864,0,0,0,0,0,0,0,-1,1665,1702,8.64536,-21.1865
448,-678,7.62244,20.7195,0,0,0,0,0,0,0,-1,1672,1702,7.6224,-20.7195
455,-678,5.44678,5.54297,0,0,0,0,0,0,0,-1,1679,1702,5.44676,-5.54294
462,-678,3.86792,2.87402,0,0,0,0,0,0,0,-1,1686,1702,3.86796,-2.87406
469,-678,2.26587,1.98755,0,0,0,0,0,0,0,-1,1693,1702,2.26592,-1.98755
476,-678,0,0,0,0,0,0,0,0,0,-1,1700,1702,0,0
483,-678,0,0,0,0,0,0,0,0,0,-1,1707,1702,0,0
490,-678,0,0,0,0,0,0,0,0,0,-1,1714,1702,0,0
497,-678,0,0,0,0,0,0,0,0,0,-1,1721,1702,0,0
504,-678,0,0,0,0,0,0,0,0,0,-1,1728,1702,0,0
511,-678,0,0,0,0,0,0,0,0,0,-1,1735,1702,0,0
518,-678,0,0,0,0,0,0,0,0,0,-1,1742,1702,0,0
525,-678,0,0,0,0,0,0,0,0,0,-1,1749,1702,0,0
532,-678,0,0,0,0,0,0,0,0,0,-1,1756,1702,0,0
539,-678,0,0,0,0,0,0,0,0,0,-1,1763,1702,0,0
546,-678,0,0,0,0,0,0,0,0,0,-1,1770,1702,0,0
553,-678,0,0,0,0,0,0,0,0,0,-1,1777,1702,0,0
560,-678,0,0,0,0,0,0,0,0,0,-1,1784,1702,0,0
567,-678,0,0,0,0,0,0,0,0,0,-1,1791,1702,0,0
574,-678,0,0,0,0,0,0,0,0,0,-1,1798,1702,0,0
581,-678,0,0,0,0,0,0,0,0,0,-1,1805,1702,0,0
588,-678,0,0,0,0,0,0,0,0,0,-1,1812,1702,0,0
595,-678,0,0,0,0,0,0,0,0,0,-1,1819,1702,0,0
602,-678,0,0,0,0,0,0,0,0,0,-1,1826,1702,0,0
609,-678,0,0,0,0,0,0,0,0,0,-1,1833,1702,0,0
616,-678,0,0,0,0,0,0,0,0,0,-1,1840,1702,0,0
623,-678,0,0,0,0,0,0,0,0,0,-1,1847,1702,0,0
630,-678,0,0,0,0,0,0,0,0,0,-1,1854,1702,0,0
637,-678,0,0,0,0,0,0,0,0,0,-1,1861,1702,0,0
644,-678,0,0,0,0,0,0,0,0,0,-1,1868,1702,0,0
651,-678,0,0,0,0,0,0,0,0,0,-1,1875,1702,0,0
658,-678,0,0,0,0,0,0,0,0,0,-1,1882,1702,0,0
665,-678,0,0,0,0,0,0,0,0,0,-1,1889,1702,0,0
672,-678,0,0,0,0,0,0,0,0,0,-1,1896,1702,0,0
679,-678,0,0,0,0,0,0,0,0,0,-1,1903,1702,0,0
686,-678,0,0,0,0,0,0,0,0,0,-1,1910,1702,0,0
693,-678,0,0,0,0,0,0,0,0,0,-1,1917,1702,0,0
700,-678,0,0,0,0,0,0,0,0,0,-1,1924,1702,0,0
707,-678,0,0,0,0,0,0,0,0,0,-1,1931,1702,0,0
714,-678,0,0,0,0,0,0,0,0,0,-1,1938,1702,0,0
721,-678,0,0,0,0,0,0,0,0,0,-1,1945,1702,0,0
728,-678,0,0,0,0,0,0,0,0,0,-1,1952,1702,0,0
735,-678,0,0,0,0,0,0,0,0,0,-1,1959,1702,0,0
742,-678,0,0,0,0,0,0,0,0,0,-1,1966,1702,0,0
749,-678,0,0,0,0,0,0,0,0,0,-1,1973,1702,0,0
756,-678,0,0,0,0,0,0,0,0,0,-1,1980,1702,0,0
763,-678,0,0,0,0,0,0,0,0,0,-1,1987,1702,0,0
770,-678,0,0,0,0,0,0,0,0,0,-1,1994,1702,0,0
777,-678,0,0,0,0,0,0,0,0,0,-1,2001,1702,0,0
784,-678,0,0,0,0,0,0,0,0,0,-1,2008,1702,0,0
791,-678,0,0,0,0,0,0,0,0,0,-1,2015,1702,0,0
798,-678,0,0,0,0,0,0,0,0,0,-1,2022,1702,0,0
805,-678,0,0,0,0,0,0,0,0,0,-1,2029,1702,0,0
812,-678,0,0,0,0,0,0,0,0,0,-1,2036,1702,0,0
-700,-685,0,0,0,0,0,0,0,0,0,-1,524,1709,0,0
-693,-685,0,0,0,0,0,0,0,0,0,-1,531,1709,0,0
-686,-685,0,0,0,0,0,0,0,0,0,-1,538,1709,0,0
-679,-685,0,0,0,0,0,0,0,0,0,-1,545,1709,0,0
-672,-685,0,0,0,0,0,0,0,0,0,-1,552,1709,0,0
-665,-685,0,0,0,0,0,0,0,0,0,-1,559,1709,0,0
-658,-685,0,0,0,0,0,0,0,0,0,-1,566,1709,0,0
-651,-685,0,0,0,0,0,0,0,0,0,-1,573,1709,0,0
-644,-685,0,0,0,0,0,0,0,0,0,-1,580,1709,0,0
-637,-685,0,0,0,0,0,0,0,0,0,-1,587,1709,0,0
-630,-685,0,0,0,0,0,0,0,0,0,-1,594,1709,0,0
-623,-685,0,0,0,0,0,0,0,0,0,-1,601,1709,0,0
-616,-685,0,0,0,0,0,0,0,0,0,-1,608,1709,0,0
-609,-685,0,0,0,0,0,0,0,0,0,-1,615,1709,0,0
-602,-685,0,0,0,0,0,0,0,0,0,-1,622,1709,0,0
-595,-685,0,0,0,0,0,0,0,0,0,-1,629,1709,0,0
-588,-685,0,0,0,0,0,0,0,0,0,-1,636,1709,0,0
-581,-685,0,0,0,0,0,0,0,0,0,-1,643,1709,0,0
-574,-685,0,0,0,0,0,0,0,0,0,-1,650,1709,0,0
-567,-685,0,0,0,0,0,0,0,0,0,-1,657,1709,0,0
-560,-685,0,0,0,0,0,0,0,0,0,-1,664,1709,0,0
-553,-685,0,0,0,0,0,0,0,0,0,-1,671,1709,0,0
-546,-685,0,0,0,0,0,0,0,0,0,-1,678,1709,0,0
-539,-685,0,0,0,0,0,0,0,0,0,-1,685,1709,0,0
-532,-685,0,0,0,0,0,0,0,0,0,-1,692,1709,0,0
-525,-685,0,0,0,0,0,0,0,0,0,-1,699,1709,0,0
-518,-685,0,0,0,0,0,0,0,0,0,-1,706,1709,0,0
-511,-685,0,0,0,0,0,0,0,0,0,-1,713,1709,0,0
-504,-685,0,0,0,0,0,0,0,0,0,-1,720,1709,0,0
-497,-685,0,0,0,0,0,0,0,0,0,-1,727,1709,0,0
-490,-685,0,0,0,0,0,0,0,0,0,-1,734,1709,0,0
-483,-685,0,0,0,0,0,0,0,0,0,-1,741,1709,0,0
-476,-685,0,0,0,0,0,0,0,0,0,-1,748,1709,0,0
-469,-685,0,0,0,0,0,0,0,0,0,-1,755,1709,0,0
-462,-685,0,0,0,0,0,0,0,0,0,-1,762,1709,0,0
-455,-685,0,0,0,0,0,0,0,0,0,-1,769,1709,0,0
-448,-685,0,0,0,0,0,0,0,0,0,-1,776,1709,0,0
-441,-685,0,0,0,0,0,0,0,0,0,-1,783,1709,0,0
-434,-685,0,0,0,0,0,0,0,0,0,-1,790,1709,0,0
-427,-685,0,0,0,0,0,0,0,0,0,-1,797,1709,0,0
-420,-685,0,0,0,0,0,0,0,0,0,-1,804,1709,0,0
-413,-685,0,0,0,0,0,0,0,0,0,-1,811,1709,0,0
-406,-685,0,0,0,0,0,0,0,0,0,-1,818,1709,0,0
-399,-685,0,0,0,0,0,0,0,0,0,-1,825,1709,0,0
-392,-685,0,0,0,0,0,0,0,0,0,-1,832,1709,0,0
-385,-685,0,0,0,0,0,0,0,0,0,-1,839,1709,0,0
-378,-685,0,0,0,0,0,0,0,0,0,-1,846,1709,0,0
-371,-685,0,0,0,0,0,0,0,0,0,-1,853,1709,0,0
-364,-685,0,0,0,0,0,0,0,0,0,-1,860,1709,0,0
-357,-685,0,0,0,0,0,0,0,0,0,-1,867,1709,0,0
-350,-685,0,0,0,0,0,0,0,0,0,-1,874,1709,0,0
-343,-685,-5.98505,6.56335,0,0,0,0,0,0,0,-1,881,1709,-5.98505,-6.56329
-336,-685,-6.51312,5.10571,0,0,0,0,0,0,0,-1,888,1709,-6.51311,-5.10575
-329,-685,-6.81384,3.34106,0,0,0,0,0,0,0,-1,895,1709,-6.81385,-3.341
-322,-685,3.83191,16.7219,0,0,0,0,0,0,0,-1,902,1709,3.8319,-16.7219
-315,-685,5.15784,21.4388,0,0,0,0,0,0,0,-1,909,1709,5.15783,-21.4389
-308,-685,6.36969,21.0303,0,0,0,0,0,0,0,-1,916,1709,6.36968,-21.0302
-301,-685,7.26794,24.7709,0,0,0,0,0,0,0,-1,923,1709,7.26793,-24.7709
-294,-685,7.401,25.0553,0,0,0,0,0,0,0,-1,930,1709,7.40102,-25.0552
-287,-685,6.53857,25.5372,-0.0120242,0.0176586,0.0029126,0.0179417,-0.0123073,1.4739,0.017565,0.0480969,937,1709,6.53858,-25.5373
-280,-685,6.21667,25.6605,-0.00859346,0.0130566,0.00116856,0.0131194,-0.00865635,1.51703,0.01266,0.0490762,944,1709,6.21669,-25.6606
-273,-685,6.65094,26.2018,-0.00637565,0.00957619,-0.000271503,0.00958081,-0.00638027,-1.55378,0.00927668,0.0478722,951,1709,6.65092,-26.2018
-266,-685,6.87982,26.7314,-0.00469135,0.0065451,-0.00115549,0.00666269,-0.00480894,-1.46938,0.00665192,0.0460851,958,1709,6.87981,-26.7315
-259,-685,6.96857,26.9856,-0.00375188,0.0042966,-0.00178451,0.00467451,-0.00412979,-1.3621,0.00508641,0.0423148,965,1709,6.96855,-26.9856
-252,-685,6.77191,27.4155,-0.00340943,0.00270439,-0.00238209,0.00352293,-0.00422797,-1.23982,0.00448115,0.0356833,972,1709,6.77192,-27.4156
-245,-685,6.60736,27.7642,-0.0035566,0.00148079,-0.00267079,0.00263319,-0.004709,-1.16345,0.00429512,0.0337401,979,1709,6.60736,-27.7641
-238,-685,6.56458,28.0973,-0.00374998,0.000762127,-0.00255999,0.00191831,-0.00490616,-1.14658,0.00406403,0.0255003,986,1709,6.56455,-28.0973
-231,-685,6.49969,28.4226,-0.0024652,3.94479e-05,-0.00246482,0.00155184,-0.00397759,-1.02044,0.00329323,0.0160519,993,1709,6.49969,-28.4227
-224,-685,6.44043,28.7063,-0.00246235,-0.000902208,-0.00221905,0.000669886,-0.00403445,-0.954419,0.00293849,0.0138052,1000,1709,6.44045,-28.7063
-217,-685,6.43805,29.0234,-0.00291229,-0.00108422,-0.00200351,0.00020391,-0.00420041,-0.999404,0.00287066,0.0107863,1007,1709,6.43807,-29.0234
-210,-685,6.42731,29.3521,-0.00248807,-0.000940691,-0.00149667,-2.95619e-05,-0.0033992,-1.02395,0.00225634,0.0145448,1014,1709,6.42731,-29.352
-203,-685,6.41724,29.6505,-0.00184379,-0.000850341,-0.000981737,-0.000246819,-0.00244731,-1.0196,0.00155581,0.0149687,1021,1709,6.4173,-29.6505
-196,-685,6.39417,29.9263,-0.00128857,-0.000614123,-0.000668773,-0.000202362,-0.00170033,-1.01891,0.00107248,0.0131059,1028,1709,6.39411,-29.9262
-189,-685,6.39099,30.2133,-0.000819113,-0.000325044,-0.000478379,-3.36803e-05,-0.00111048,-1.02374,0.00072935,0.00911895,1035,1709,6.391,-30.2133
-182,-685,6.3866,30.5188,-0.000452983,0.000226778,-0.000315563,0.000350685,-0.00057689,-1.19664,0.000540818,0.013205,1042,1709,6.38654,-30.5188
-175,-685,6.38342,30.7961,-5.58609e-05,0.0009918,-0.000103394,0.00100191,-6.59674e-05,-1.47336,0.000690977,0.0142795,1049,1709,6.38343,-30.7961
-168,-685,6.35779,31.0737,0.000275445,0.00180025,9.89885e-05,0.00180665,0.000269045,1.50624,0.00112552,0.0108261,1056,1709,6.35781,-31.0737
-161,-685,6.35645,31.3464,0.00057431,0.00267269,0.000249175,0.00270187,0.000545128,1.45421,0.00164984,0.0109913,1063,1709,6.35644,-31.3465
-154,-685,6.36926,31.6055,0.000885639,0.0038507,0.00034599,0.00389054,0.000845801,1.45616,0.00236277,0.0101935,1070,1709,6.3693,-31.6055
-147,-685,6.36377,31.8485,0.00121334,0.00506944,0.000414621,0.00511352,0.00116927,1.46489,0.00309381,0.00930219,1077,1709,6.36373,-31.8486
-140,-685,6.38074,32.0771,0.00159739,0.00631514,0.000457322,0.00635906,0.00155347,1.47505,0.0038281,0.0111159,1084,1709,6.38075,-32.0771
-133,-685,6.39172,32.3215,0.00198204,0.00743609,0.000442436,0.00747175,0.00194638,1.49038,0.00447574,0.0108783,1091,1709,6.39172,-32.3216
-126,-685,6.38965,32.5481,0.00237306,0.00846902,0.000419275,0.00849772,0.00234435,1.50245,0.00506779,0.00961822,1098,1709,6.38968,-32.5481
-119,-685,6.41382,32.77,0.00285405,0.00914122,0.000371603,0.00916311,0.00283216,1.51196,0.00541735,0.0135754,1105,1709,6.41386,-32.77
-112,-685,6.42297,32.9943,0.00329969,0.00952019,0.000270375,0.00953192,0.00328796,1.52744,0.00559077,0.0140988,1112,1709,6.42302,-32.9942
-105,-685,6.40918,33.21,0.00355928,0.00949566,0.000191312,0.00950182,0.00355312,1.53861,0.00554369,0.0139577,1119,1709,6.40912,-33.21
-98,-685,6.49133,33.3807,0.00370402,0.00917495,0.000108953,0.00917712,0.00370185,1.55089,0.00533129,0.0183701,1126,1709,6.49138,-33.3807
-91,-685,6.46973,33.5248,0.00382985,0.00850834,-0.00023478,0.00852009,0.0038181,-1.52078,0.00492789,0.0255125,1133,1709,6.46968,-33.5248
-84,-685,6.48633,33.6644,0.00421483,0.00750371,-0.000750292,0.00766679,0.00405175,-1.35677,0.00442882,0.0428389,1140,1709,6.48635,-33.6644
-77,-685,6.51624,33.9956,0,0,0,0,0,0,0,-1,1147,1709,6.51618,-33.9957
-70,-685,6.59753,34.2108,0,0,0,0,0,0,0,-1,1154,1709,6.59747,-34.2108
-63,-685,6.03015,29.7728,0,0,0,0,0,0,0,-1,1161,1709,6.0302,-29.7728
-56,-685,3.93909,15.8704,0,0,0,0,0,0,0,-1,1168,1709,3.93905,-15.8704
-49,-685,3.07471,9.86011,0,0,0,0,0,0,0,-1,1175,1709,3.07467,-9.86009
-42,-685,2.70618,7.54504,0,0,0,0,0,0,0,-1,1182,1709,2.7062,-7.54504
-35,-685,2.95264,7.91516,0,0,0,0,0,0,0,-1,1189,1709,2.95262,-7.91517
-28,-685,6.8324,35.2072,0,0,0,0,0,0,0,-1,1196,1709,6.8324,-35.2072
-21,-685,6.94482,35.0614,0,0,0,0,0,0,0,-1,1203,1709,6.94477,-35.0613
-14,-685,6.99414,35.1399,0.0208941,0.0369072,0.0120882,0.0433999,0.0144013,1.0779,0.025525,0.0304654,1210,1709,6.9942,-35.1399
-7,-685,7.00269,35.3348,0.0234123,0.0361283,0.0127714,0.0440367,0.0155038,1.01635,0.0257929,0.0418542,1217,1709,7.00268,-35.3348
0,-685,6.9668,35.538,0.0252003,0.0357204,0.0134854,0.0449353,0.0159854,0.971351,0.0263009,0.0435741,1224,1709,6.96685,-35.5379
7,-685,6.93188,35.8622,0.0261187,0.0356548,0.0141503,0.0458187,0.0159547,0.947903,0.0268567,0.0393987,1231,1709,6.9319,-35.8621
14,-685,7.1134,35.825,0.026324,0.0364427,0.0150521,0.047263,0.0155038,0.947528,0.0278201,0.0456086,1238,1709,7.11337,-35.825
21,-685,7.44141,35.9531,0.025618,0.0377718,0.0157073,0.0485367,0.014853,0.969972,0.0287171,0.0411476,1245,1709,7.44136,-35.9532
28,-685,7.51465,35.9146,0.0241805,0.0398277,0.016074,0.0498809,0.0141272,1.01188,0.0296873,0.0420182,1252,1709,7.51461,-35.9145
35,-685,7.57861,35.9318,0.0220608,0.0418684,0.0160745,0.0508452,0.0130841,1.06149,0.0304862,0.0448612,1259,1709,7.57865,-35.9317
42,-685,7.67285,36.0801,0.0191859,0.043264,0.0156839,0.0509967,0.0114532,1.11274,0.030896,0.049758,1266,1709,7.67281,-36.0801
49,-685,7.74341,36.3065,0,0,0,0,0,0,0,-1,1273,1709,7.74346,-36.3065
56,-685,7.80774,36.5017,0,0,0,0,0,0,0,-1,1280,1709,7.80775,-36.5017
63,-685,7.35767,35.7889,0,0,0,0,0,0,0,-1,1287,1709,7.35764,-35.789
70,-685,8.08459,37.2063,0,0,0,0,0,0,0,-1,1294,1709,8.08456,-37.2063
77,-685,7.87061,35.9285,0,0,0,0,0,0,0,-1,1301,1709,7.87061,-35.9285
84,-685,7.85437,35.8055,0,0,0,0,0,0,0,-1,1308,1709,7.85437,-35.8055
91,-685,7.80396,35.7429,0.00653384,0.0288328,8.50553e-05,0.0288332,0.00653351,1.56698,0.0174567,0.0467998,1315,1709,7.80399,-35.7429
98,-685,7.83313,35.7898,0.00625166,0.0249258,-0.00190801,0.0251187,0.00605871,-1.47001,0.015136,0.040141,1322,1709,7.83314,-35.7898
105,-685,7.8905,35.6167,0.00701247,0.0201817,-0.00294778,0.0208114,0.00638275,-1.36034,0.0123112,0.0435308,1329,1709,7.89049,-35.6168
112,-685,7.88245,35.368,0.00793558,0.0162105,-0.00312268,0.0172566,0.00688944,-1.24753,0.0100303,0.0463614,1336,1709,7.88243,-35.3681
119,-685,8.13379,35.4124,0.0083026,0.0128402,-0.00312563,0.0144337,0.00670914,-1.09934,0.00834016,0.0432732,1343,1709,8.13376,-35.4124
126,-685,8.15796,35.311,0.00839336,0.0109268,-0.00279813,0.0127316,0.0065886,-0.997951,0.0073521,0.0476611,1350,1709,8.15798,-35.311
133,-685,8.20044,35.2078,0,0,0,0,0,0,0,-1,1357,1709,8.20039,-35.2077
140,-685,8.28027,36.4519,0,0,0,0,0,0,0,-1,1364,1709,8.28028,-36.4519
147,-685,8.25671,35.4365,0,0,0,0,0,0,0,-1,1371,1709,8.25675,-35.4365
154,-685,8.16089,35.1483,0,0,0,0,0,0,0,-1,1378,1709,8.16085,-35.1483
161,-685,8.48254,35.0731,0,0,0,0,0,0,0,-1,1385,1709,8.48251,-35.0731
168,-685,4.37524,10.8778,0,0,0,0,0,0,0,-1,1392,1709,4.37525,-10.8778
175,-685,3.97522,8.94324,0,0,0,0,0,0,0,-1,1399,1709,3.97519,-8.94328
182,-685,3.98218,9.19739,0,0,0,0,0,0,0,-1,1406,1709,3.98221,-9.1974
189,-685,4.53479,15.2343,0,0,0,0,0,0,0,-1,1413,1709,4.53474,-15.2343
196,-685,8.35217,34.5962,0,0,0,0,0,0,0,-1,1420,1709,8.35215,-34.5962
203,-685,8.38428,34.2826,0,0,0,0,0,0,0,-1,1427,1709,8.38422,-34.2826
210,-685,8.56458,34.0436,0,0,0,0,0,0,0,-1,1434,1709,8.56459,-34.0435
217,-685,8.474,33.7933,0,0,0,0,0,0,0,-1,1441,1709,8.47398,-33.7933
224,-685,8.41492,33.6729,0,0,0,0,0,0,0,-1,1448,1709,8.4149,-33.6729
231,-685,8.49316,33.5947,0.0028409,-0.000765016,0.00082404,0.00302029,-0.000944405,0.21435,0.00239132,0.0328399,1455,1709,8.49321,-33.5948
238,-685,8.53296,33.3218,0.0025831,-0.000681894,0.0002728,0.00260574,-0.00070453,0.0827881,0.00201351,0.0197334,1462,1709,8.53298,-33.3218
245,-685,8.53992,33.1201,0.00235596,-0.000456286,-0.000174693,0.00236677,-0.000467096,-0.0618019,0.0017544,0.0210374,1469,1709,8.53998,-33.1201
252,-685,8.58044,32.9629,0.00225567,-0.000333207,-0.000427537,0.00232445,-0.000401985,-0.159504,0.00169955,0.0155047,1476,1709,8.58044,-32.9629
259,-685,8.57104,32.7655,0.00229749,-3.46882e-05,-0.000683264,0.00248292,-0.000220122,-0.265011,0.00173332,0.0113646,1483,1709,8.57104,-32.7655
266,-685,8.56702,32.5255,0.00237985,0.000184265,-0.000933855,0.00272332,-0.000159203,-0.35244,0.00187088,0.0126727,1490,1709,8.56703,-32.5255
273,-685,8.56458,32.2911,0.00236577,0.000480224,-0.00104633,0.00283141,1.45849e-05,-0.418706,0.00188276,0.0140743,1497,1709,8.56452,-32.2912
280,-685,8.55078,32.0724,0.0022465,0.00088567,-0.00111742,0.00287436,0.000257807,-0.511924,0.00183635,0.0146986,1504,1709,8.55082,-32.0724
287,-685,8.57068,31.8501,0.00203651,0.00132553,-0.00114214,0.00287721,0.000484838,-0.634526,0.00177869,0.0113649,1511,1709,8.57066,-31.8501
294,-685,8.57117,31.5969,0.00175337,0.00191955,-0.00119948,0.00303881,0.00063411,-0.819977,0.00185107,0.0100776,1518,1709,8.57119,-31.5969
301,-685,8.56519,31.3281,0.00138254,0.00250394,-0.00129789,0.00335706,0.000529411,-0.989294,0.00208411,0.0126156,1525,1709,8.56518,-31.3282
308,-685,8.56787,31.0836,0.000975932,0.00291134,-0.00134712,0.00360231,0.000284964,-1.09687,0.00231241,0.0137363,1532,1709,8.56792,-31.0836
315,-685,8.5802,30.8293,0.000568819,0.00308864,-0.00132043,0.0036538,3.65439e-06,-1.16637,0.00243465,0.0121236,1539,1709,8.58021,-30.8293
322,-685,8.55566,30.5536,0.000157819,0.00334358,-0.00132178,0.00382057,-0.00031917,-1.22447,0.00265983,0.019776,1546,1709,8.55561,-30.5536
329,-685,8.51758,30.29,-0.000203795,0.00336807,-0.00128336,0.00378136,-0.000617084,-1.25925,0.00274978,0.0189452,1553,1709,8.51764,-30.2901
336,-685,8.52722,30.0125,-0.000442325,0.0030833,-0.00118359,0.00344378,-0.000802809,-1.27515,0.00260502,0.012984,1560,1709,8.52716,-30.0124
343,-685,8.52087,29.7231,-0.000606383,0.00253608,-0.0010544,0.00285707,-0.000927378,-1.27528,0.00227767,0.0124528,1567,1709,8.52087,-29.7232
350,-685,8.51147,29.4247,-0.000645743,0.00167887,-0.000883442,0.0019765,-0.000943378,-1.24584,0.00172061,0.0132847,1574,1709,8.51153,-29.4247
357,-685,8.51465,29.1528,-0.000600238,1.13795e-05,-0.000463049,0.000260488,-0.000849347,-1.07723,0.000670154,0.0102542,1581,1709,8.51464,-29.1528
364,-685,8.50818,28.8604,-0.000377147,-0.00236159,3.77269e-05,-0.00037643,-0.00236231,0.0190022,0.0014656,0.0096902,1588,1709,8.50819,-28.8603
371,-685,8.49133,28.5306,5.2813e-06,-0.00492419,0.000477107,5.10344e-05,-0.00496994,0.0956042,0.00333044,0.0144686,1595,1709,8.49135,-28.5306
378,-685,8.44177,28.2301,0.000161491,-0.00810486,0.00118306,0.000327475,-0.00827085,0.139391,0.00562624,0.0205491,1602,1709,8.44175,-28.2301
385,-685,8.42407,28.0237,0.000417584,-0.0115366,0.00200367,0.000744487,-0.0118635,0.161727,0.00816846,0.0378508,1609,1709,8.4241,-28.0237
392,-685,8.49072,27.8024,0.000755935,-0.0159323,0.00284409,0.00122733,-0.0164036,0.164251,0.011367,0.0395645,1616,1709,8.49071,-27.8023
399,-685,8.63,27.6161,0.00097111,-0.0209363,0.0035978,0.00154684,-0.021512,0.158677,0.0148838,0.0437797,1623,1709,8.63003,-27.6161
406,-685,8.82446,27.4758,0,0,0,0,0,0,0,-1,1630,1709,8.82451,-27.4758
413,-685,8.5614,28.071,0,0,0,0,0,0,0,-1,1637,1709,8.56138,-28.0711
420,-685,4.84631,10.3781,0,0,0,0,0,0,0,-1,1644,1709,4.84634,-10.378
427,-685,6.05151,9.21155,0,0,0,0,0,0,0,-1,1651,1709,6.05156,-9.21156
434,-685,4.87769,8.91418,0,0,0,0,0,0,0,-1,1658,1709,4.87768,-8.91413
441,-685,5.62,8.75549,0,0,0,0,0,0,0,-1,1665,1709,5.61996,-8.75545
448,-685,6.4043,8.58972,0,0,0,0,0,0,0,-1,1672,1709,6.40435,-8.58971
455,-685,2.31958,4.09802,0,0,0,0,0,0,0,-1,1679,1709,2.31957,-4.09803
462,-685,0,0,0,0,0,0,0,0,0,-1,1686,1709,0,0
469,-685,0,0,0,0,0,0,0,0,0,-1,1693,1709,0,0
476,-685,0,0,0,0,0,0,0,0,0,-1,1700,1709,0,0
483,-685,0,0,0,0,0,0,0,0,0,-1,1707,1709,0,0
490,-685,0,0,0,0,0,0,0,0,0,-1,1714,1709,0,0
497,-685,0,0,0,0,0,0,0,0,0,-1,1721,1709,0,0
504,-685,0,0,0,0,0,0,0,0,0,-1,1728,1709,0,0
511,-685,0,0,0,0,0,0,0,0,0,-1,1735,1709,0,0
518,-685,0,0,0,0,0,0,0,0,0,-1,1742,1709,0,0
525,-685,0,0,0,0,0,0,0,0,0,-1,1749,1709,0,0
532,-685,0,0,0,0,0,0,0,0,0,-1,1756,1709,0,0
539,-685,0,0,0,0,0,0,0,0,0,-1,1763,1709,0,0
546,-685,0,0,0,0,0,0,0,0,0,-1,1770,1709,0,0
553,-685,0,0,0,0,0,0,0,0,0,-1,1777,1709,0,0
560,-685,0,0,0,0,0,0,0,0,0,-1,1784,1709,0,0
567,-685,0,0,0,0,0,0,0,0,0,-1,1791,1709,0,0
574,-685,0,0,0,0,0,0,0,0,0,-1,1798,1709,0,0
581,-685,0,0,0,0,0,0,0,0,0,-1,1805,1709,0,0
588,-685,0,0,0,0,0,0,0,0,0,-1,1812,1709,0,0
595,-685,0,0,0,0,0,0,0,0,0,-1,1819,1709,0,0
602,-685,0,0,0,0,0,0,0,0,0,-1,1826,1709,0,0
609,-685,0,0,0,0,0,0,0,0,0,-1,1833,1709,0,0
616,-685,0,0,0,0,0,0,0,0,0,-1,1840,1709,0,0
623,-685,0,0,0,0,0,0,0,0,0,-1,1847,1709,0,0
630,-685,0,0,0,0,0,0,0,0,0,-1,1854,1709,0,0
637,-685,0,0,0,0,0,0,0,0,0,-1,1861,1709,0,0
644,-685,0,0,0,0,0,0,0,0,0,-1,1868,1709,0,0
651,-685,0,0,0,0,0,0,0,0,0,-1,1875,1709,0,0
658,-685,0,0,0,0,0,0,0,0,0,-1,1882,1709,0,0
665,-685,0,0,0,0,0,0,0,0,0,-1,1889,1709,0,0
672,-685,0,0,0,0,0,0,0,0,0,-1,1896,1709,0,0
679,-685,0,0,0,0,0,0,0,0,0,-1,1903,1709,0,0
686,-685,0,0,0,0,0,0,0,0,0,-1,1910,1709,0,0
693,-685,0,0,0,0,0,0,0,0,0,-1,1917,1709,0,0
700,-685,0,0,0,0,0,0,0,0,0,-1,1924,1709,0,0
707,-685,0,0,0,0,0,0,0,0,0,-1,1931,1709,0,0
714,-685,0,0,0,0,0,0,0,0,0,-1,1938,1709,0,0
721,-685,0,0,0,0,0,0,0,0,0,-1,1945,1709,0,0
728,-685,0,0,0,0,0,0,0,0,0,-1,1952,1709,0,0
735,-685,0,0,0,0,0,0,0,0,0,-1,1959,1709,0,0
742,-685,0,0,0,0,0,0,0,0,0,-1,1966,1709,0,0
749,-685,0,0,0,0,0,0,0,0,0,-1,1973,1709,0,0
756,-685,0,0,0,0,0,0,0,0,0,-1,1980,1709,0,0
763,-685,0,0,0,0,0,0,0,0,0,-1,1987,1709,0,0
770,-685,0,0,0,0,0,0,0,0,0,-1,1994,1709,0,0
777,-685,0,0,0,0,0,0,0,0,0,-1,2001,1709,0,0
784,-685,0,0,0,0,0,0,0,0,0,-1,2008,1709,0,0
791,-685,0,0,0,0,0,0,0,0,0,-1,2015,1709,0,0
798,-685,0,0,0,0,0,0,0,0,0,-1,2022,1709,0,0
805,-685,0,0,0,0,0,0,0,0,0,-1,2029,1709,0,0
812,-685,0,0,0,0,0,0,0,0,0,-1,2036,1709,0,0
-700,-692,0,0,0,0,0,0,0,0,0,-1,524,1716,0,0
-693,-692,0,0,0,0,0,0,0,0,0,-1,531,1716,0,0
-686,-692,0,0,0,0,0,0,0,0,0,-1,538,1716,0,0
-679,-692,0,0,0,0,0,0,0,0,0,-1,545,1716,0,0
-672,-692,0,0,0,0,0,0,0,0,0,-1,552,1716,0,0
-665,-692,0,0,0,0,0,0,0,0,0,-1,559,1716,0,0
-658,-692,0,0,0,0,0,0,0,0,0,-1,566,1716,0,0
-651,-692,0,0,0,0,0,0,0,0,0,-1,573,1716,0,0
-644,-692,0,0,0,0,0,0,0,0,0,-1,580,1716,0,0
-637,-692,0,0,0,0,0,0,0,0,0,-1,587,1716,0,0
-630,-692,0,0,0,0,0,0,0,0,0,-1,594,1716,0,0
-623,-692,0,0,0,0,0,0,0,0,0,-1,601,1716,0,0
-616,-692,0,0,0,0,0,0,0,0,0,-1,608,1716,0,0
-609,-692,0,0,0,0,0,0,0,0,0,-1,615,1716,0,0
-602,-692,0,0,0,0,0,0,0,0,0,-1,622,1716,0,0
-595,-692,0,0,0,0,0,0,0,0,0,-1,629,1716,0,0
-588,-692,0,0,0,0,0,0,0,0,0,-1,636,1716,0,0
-581,-692,0,0,0,0,0,0,0,0,0,-1,643,1716,0,0
-574,-692,0,0,0,0,0,0,0,0,0,-1,650,1716,0,0
-567,-692,0,0,0,0,0,0,0,0,0,-1,657,1716,0,0
-560,-692,0,0,0,0,0,0,0,0,0,-1,664,1716,0,0
-553,-692,0,0,0,0,0,0,0,0,0,-1,671,1716,0,0
-546,-692,0,0,0,0,0,0,0,0,0,-1,678,1716,0,0
-539,-692,0,0,0,0,0,0,0,0,0,-1,685,1716,0,0
-532,-692,0,0,0,0,0,0,0,0,0,-1,692,1716,0,0
-525,-692,0,0,0,0,0,0,0,0,0,-1,699,1716,0,0
-518,-692,0,0,0,0,0,0,0,0,0,-1,706,1716,0,0
-511,-692,0,0,0,0,0,0,0,0,0,-1,713,1716,0,0
-504,-692,0,0,0,0,0,0,0,0,0,-1,720,1716,0,0
-497,-692,0,0,0,0,0,0,0,0,0,-1,727,1716,0,0
-490,-692,0,0,0,0,0,0,0,0,0,-1,734,1716,0,0
-483,-692,0,0,0,0,0,0,0,0,0,-1,741,1716,0,0
-476,-692,0,0,0,0,0,0,0,0,0,-1,748,1716,0,0
-469,-692,0,0,0,0,0,0,0,0,0,-1,755,1716,0,0
-462,-692,0,0,0,0,0,0,0,0,0,-1,762,1716,0,0
-455,-692,0,0,0,0,0,0,0,0,0,-1,769,1716,0,0
-448,-692,0,0,0,0,0,0,0,0,0,-1,776,1716,0,0
-441,-692,0,0,0,0,0,0,0,0,0,-1,783,1716,0,0
-434,-692,0,0,0,0,0,0,0,0,0,-1,790,1716,0,0
-427,-692,0,0,0,0,0,0,0,0,0,-1,797,1716,0,0
-420,-692,0,0,0,0,0,0,0,0,0,-1,804,1716,0,0
-413,-692,0,0,0,0,0,0,0,0,0,-1,811,1716,0,0
-406,-692,0,0,0,0,0,0,0,0,0,-1,818,1716,0,0
-399,-692,0,0,0,0,0,0,0,0,0,-1,825,1716,0,0
-392,-692,0,0,0,0,0,0,0,0,0,-1,832,1716,0,0
-385,-692,0,0,0,0,0,0,0,0,0,-1,839,1716,0,0
-378,-692,0,0,0,0,0,0,0,0,0,-1,846,1716,0,0
-371,-692,0,0,0,0,0,0,0,0,0,-1,853,1716,0,0
-364,-692,0,0,0,0,0,0,0,0,0,-1,860,1716,0,0
-357,-692,0,0,0,0,0,0,0,0,0,-1,867,1716,0,0
-350,-692,0,0,0,0,0,0,0,0,0,-1,874,1716,0,0
-343,-692,0,0,0,0,0,0,0,0,0,-1,881,1716,0,0
-336,-692,0,0,0,0,0,0,0,0,0,-1,888,1716,0,0
-329,-692,3.03107,4.10266,0,0,0,0,0,0,0,-1,895,1716,3.03105,-4.10267
-322,-692,4.43713,18.5242,0,0,0,0,0,0,0,-1,902,1716,4.43711,-18.5241
-315,-692,5.38965,17.975,0,0,0,0,0,0,0,-1,909,1716,5.38963,-17.975
-308,-692,5.86938,17.4392,0,0,0,0,0,0,0,-1,916,1716,5.86937,-17.4392
-301,-692,8.65558,20.7662,0,0,0,0,0,0,0,-1,923,1716,8.65556,-20.7663
-294,-692,6.66138,19.0796,0,0,0,0,0,0,0,-1,930,1716,6.66141,-19.0796
-287,-692,6.81342,25.6943,0,0,0,0,0,0,0,-1,937,1716,6.8134,-25.6943
-280,-692,6.59174,25.3119,0,0,0,0,0,0,0,-1,944,1716,6.59175,-25.3118
-273,-692,7.05988,25.9797,0,0,0,0,0,0,0,-1,951,1716,7.05987,-25.9798
-266,-692,7.47577,26.6578,0,0,0,0,0,0,0,-1,958,1716,7.47577,-26.6579
-259,-692,7.74097,26.8539,0,0,0,0,0,0,0,-1,965,1716,7.74095,-26.8538
-252,-692,7.16986,27.2698,0,0,0,0,0,0,0,-1,972,1716,7.16985,-27.2698
-245,-692,7.03662,27.693,-0.0044796,0.00200845,-0.00397297,0.00389358,-0.00636473,-1.12777,0.00597964,0.0483884,979,1716,7.03663,-27.693
-238,-692,6.97101,28.1577,-0.00493988,0.000949601,-0.00375805,0.00277922,-0.00676949,-1.11772,0.00567113,0.0431958,986,1716,6.97098,-28.1577
-231,-692,6.94476,28.4904,-0.00332244,-0.000117427,-0.00350849,0.00213721,-0.00557707,-0.999625,0.00459907,0.0351935,993,1716,6.94479,-28.4904
-224,-692,6.76923,28.7419,-0.00326806,-0.00148418,-0.00311611,0.000865135,-0.00561737,-0.924789,0.0040641,0.0185771,1000,1716,6.7692,-28.7419
-217,-692,6.72729,29.0256,-0.00383487,-0.00183401,-0.00283647,0.000173288,-0.00584217,-0.954938,0.00395381,0.0126788,1007,1716,6.72729,-29.0256
-210,-692,6.72186,29.3372,-0.00338566,-0.00179182,-0.00215053,-0.000295296,-0.00488218,-0.962838,0.00316096,0.013245,1014,1716,6.72188,-29.3371
-203,-692,6.71948,29.6401,-0.00262076,-0.00180553,-0.00145891,-0.000698366,-0.00372793,-0.921623,0.0022883,0.0150026,1021,1716,6.71948,-29.6401
-196,-692,6.70605,29.9412,-0.00195256,-0.00164493,-0.00104042,-0.000747013,-0.00285047,-0.858785,0.0017067,0.0170119,1028,1716,6.70605,-29.9412
-189,-692,6.66064,30.2185,-0.00136722,-0.00144802,-0.000783848,-0.000622732,-0.00219251,-0.75965,0.00130462,0.00907011,1035,1716,6.66059,-30.2185
-182,-692,6.64514,30.5043,-0.000946248,-0.000983334,-0.000539708,-0.000424764,-0.00150482,-0.768226,0.000895844,0.0134323,1042,1716,6.64518,-30.5043
-175,-692,6.62903,30.7937,-0.000543079,-0.000321137,-0.0002578,-0.000151438,-0.000712777,-0.988639,0.000433612,0.0150668,1049,1716,6.62898,-30.7937
-168,-692,6.63953,31.0696,-0.000194234,0.000344608,1.2645e-05,0.000344904,-0.000194531,1.54735,0.000315451,0.0115481,1056,1716,6.63952,-31.0696
-161,-692,6.65845,31.345,8.13015e-05,0.00106578,0.000184665,0.00109927,4.78025e-05,1.39134,0.000717447,0.0134625,1063,1716,6.65848,-31.345
-154,-692,6.64111,31.6287,0.00035502,0.00207226,0.000294954,0.00212151,0.00030577,1.40535,0.00132424,0.0144317,1070,1716,6.64112,-31.6287
-147,-692,6.6239,31.875,0.00063203,0.00309064,0.000404185,0.00315539,0.000567288,1.41197,0.00194231,0.0130029,1077,1716,6.62396,-31.875
-140,-692,6.61633,32.0988,0.000975147,0.00415583,0.000467478,0.00422312,0.000907863,1.42785,0.00256688,0.00984748,1084,1716,6.61636,-32.0987
-133,-692,6.62744,32.3153,0.00130976,0.00508626,0.000434152,0.00513553,0.0012605,1.4578,0.00309043,0.00949197,1091,1716,6.62739,-32.3153
-126,-692,6.62561,32.5378,0.00156027,0.0059632,0.000382186,0.00599613,0.00152734,1.48485,0.00359803,0.00816163,1098,1716,6.62567,-32.5378
-119,-692,6.62366,32.7643,0.00187091,0.00652275,0.000341215,0.00654764,0.00184601,1.49797,0.00389828,0.0120426,1105,1716,6.62364,-32.7643
-112,-692,6.6427,32.981,0.00222301,0.00682125,0.000271869,0.00683727,0.00220699,1.51195,0.0040293,0.0118994,1112,1716,6.64271,-32.9809
-105,-692,6.68909,33.1826,0.00244739,0.00678557,0.000171484,0.00679234,0.00244062,1.53135,0.00397296,0.017049,1119,1716,6.68905,-33.1826
-98,-692,6.72009,33.3798,0.00257221,0.00653171,8.68137e-05,0.00653361,0.00257031,1.54888,0.00380065,0.0185657,1126,1716,6.72011,-33.3797
-91,-692,6.68713,33.5623,0.00269738,0.00604656,-0.000156655,0.00605387,0.00269007,-1.52416,0.00350241,0.0196218,1133,1716,6.68709,-33.5622
-84,-692,6.70264,33.7069,0.00300678,0.00530081,-0.000533552,0.00541883,0.00288876,-1.3531,0.00313085,0.0207258,1140,1716,6.7026,-33.7069
-77,-692,6.703,33.9692,0.00324163,0.00464192,-0.00103195,0.00518882,0.00269473,-1.08346,0.00299652,0.0170211,1147,1716,6.70301,-33.9693
-70,-692,6.74707,34.1376,0.00320765,0.00349885,-0.00157951,0.00493946,0.00176704,-0.831357,0.00289002,0.0317155,1154,1716,6.74713,-34.1376
-63,-692,6.78442,34.2479,0,0,0,0,0,0,0,-1,1161,1716,6.78437,-34.248
-56,-692,6.76062,34.405,0,0,0,0,0,0,0,-1,1168,1716,6.7606,-34.405
-49,-692,6.77881,34.6508,0,0,0,0,0,0,0,-1,1175,1716,6.77884,-34.6508
-42,-692,6.79932,34.9084,0,0,0,0,0,0,0,-1,1182,1716,6.7993,-34.9085
-35,-692,6.88428,35.0016,0,0,0,0,0,0,0,-1,1189,1716,6.88432,-35.0016
-28,-692,6.92444,35.1091,0.011628,0.0226691,0.00557372,0.0249935,0.00930366,1.1757,0.0145862,0.0475272,1196,1716,6.92439,-35.1091
-21,-692,6.99084,35.0349,0.0131058,0.02389,0.00614516,0.0266734,0.0103224,1.14551,0.0155304,0.0335727,1203,1716,6.9909,-35.0349
-14,-692,7.03442,35.121,0.0152956,0.0251158,0.00686548,0.0286463,0.0117651,1.09582,0.0166266,0.0177587,1210,1716,7.03439,-35.121
-7,-692,7.08276,35.2915,0.0173767,0.0258888,0.00768423,0.0304169,0.0128486,1.0383,0.0176315,0.0159778,1217,1716,7.0827,-35.2915
0,-692,7.11768,35.3894,0.0187929,0.0268143,0.00846913,0.0321744,0.0134328,1.00654,0.01866,0.0187349,1224,1716,7.11773,-35.3894
7,-692,7.10938,35.4438,0.0194885,0.0277583,0.00912172,0.0336385,0.0136082,0.998196,0.0195388,0.0228552,1231,1716,7.10935,-35.4439
14,-692,7.17651,35.6184,0.0196664,0.0292093,0.00996698,0.0354881,0.0133876,1.00864,0.0206939,0.0253144,1238,1716,7.17646,-35.6184
21,-692,7.3269,35.6494,0.0191832,0.0308053,0.0106059,0.0370878,0.0129007,1.03601,0.0217406,0.0254642,1245,1716,7.32693,-35.6494
28,-692,7.34375,35.619,0.0181926,0.0327234,0.0110727,0.0387015,0.0122145,1.07574,0.0228452,0.0270225,1252,1716,7.34374,-35.6191
35,-692,7.36951,35.7017,0.0167724,0.0344722,0.0113244,0.0399946,0.01125,1.11707,0.0238159,0.0276573,1259,1716,7.36952,-35.7017
42,-692,7.47412,35.9115,0.0148359,0.0356218,0.0113484,0.0406171,0.00984055,1.15614,0.0244667,0.0242343,1266,1716,7.47417,-35.9115
49,-692,7.53479,35.9591,0.012953,0.0356599,0.0106514,0.0398741,0.00873878,1.19404,0.0242016,0.0275219,1273,1716,7.53482,-35.9591
56,-692,7.45496,35.7881,0.0114295,0.0354163,0.00926288,0.0385768,0.0082689,1.24198,0.0234526,0.0334798,1280,1716,7.45498,-35.7881
63,-692,7.44629,35.7911,0.00948526,0.0341372,0.00781138,0.0364039,0.00721852,1.28837,0.0222568,0.0353684,1287,1716,7.44631,-35.7911
70,-692,7.57312,35.8744,0.00756485,0.0322853,0.00593777,0.0336376,0.00621259,1.34688,0.0206678,0.0322874,1294,1716,7.57316,-35.8744
77,-692,7.71729,35.8379,0.00677835,0.0299881,0.00437411,0.030785,0.00598136,1.39057,0.0188486,0.0365884,1301,1716,7.71729,-35.8378
84,-692,7.72571,35.7374,0.00677681,0.0267212,0.00277853,0.0271011,0.00639696,1.43493,0.0163575,0.0448598,1308,1716,7.72573,-35.7374
91,-692,7.72876,35.6984,0.00652308,0.0225861,0.00127874,0.0226873,0.00642192,1.49185,0.0135032,0.040925,1315,1716,7.72878,-35.6984
98,-692,7.73157,35.6499,0.0064011,0.0194565,6.0602e-06,0.0194565,0.00640109,1.57033,0.0114501,0.0304661,1322,1716,7.7316,-35.6498
105,-692,7.68005,35.5923,0.00696321,0.0157704,-0.000618458,0.0158136,0.00691999,-1.50103,0.00915368,0.0372707,1329,1716,7.68003,-35.5922
112,-692,7.80444,35.5486,0.00765147,0.0128082,-0.000531905,0.0128625,0.00759718,-1.46908,0.00746673,0.0423292,1336,1716,7.80443,-35.5486
119,-692,7.92786,35.4999,0.0078999,0.0103007,-0.000308744,0.0103398,0.00786084,-1.44493,0.00623342,0.034653,1343,1716,7.92782,-35.4999
126,-692,7.97803,35.4045,0.0079647,0.00892495,0.000252384,0.00898724,0.0079024,1.32881,0.00566461,0.0343138,1350,1716,7.97807,-35.4045
133,-692,7.99854,35.3455,0.00780866,0.00811754,0.000711047,0.00869073,0.00723547,0.892339,0.00537481,0.0270618,1357,1716,7.99854,-35.3455
140,-692,7.98804,35.3157,0.00755758,0.00812454,0.00104913,0.00892782,0.0067543,0.917351,0.00537589,0.0307406,1364,1716,7.98803,-35.3157
147,-692,8.02051,35.256,0.00748266,0.00789792,0.000996465,0.00870815,0.00667242,0.888111,0.00525986,0.0339407,1371,1716,8.02047,-35.256
154,-692,8.0354,35.1259,0.00720074,0.00767182,0.00119882,0.00865802,0.00621454,0.882399,0.00515434,0.0299595,1378,1716,8.03534,-35.1259
161,-692,8.21411,35.0469,0.00668711,0.00720877,0.00202082,0.00898553,0.00491035,0.84958,0.00519526,0.0405184,1385,1716,8.21406,-35.0468
168,-692,8.1217,34.9241,0,0,0,0,0,0,0,-1,1392,1716,8.12167,-34.924
175,-692,8.20386,34.7834,0,0,0,0,0,0,0,-1,1399,1716,8.20382,-34.7835
182,-692,8.19507,34.6154,0,0,0,0,0,0,0,-1,1406,1716,8.19501,-34.6154
189,-692,8.21265,34.4938,0,0,0,0,0,0,0,-1,1413,1716,8.21267,-34.4937
196,-692,8.20874,34.3813,0.00391798,0.00725443,0.0031549,0.00915501,0.0020174,1.0286,0.00555437,0.0370065,1420,1716,8.20877,-34.3813
203,-692,8.23608,34.2295,0.00393662,-0.000718005,0.0017379,0.0045139,-0.00129529,0.320707,0.00352136,0.0248239,1427,1716,8.23613,-34.2294
210,-692,8.31006,34.073,0.00337162,-0.000722323,0.00130373,0.00375154,-0.00110224,0.283558,0.00293818,0.0201916,1434,1716,8.31001,-34.073
217,-692,8.28857,33.8809,0.00277266,-0.000919192,0.000767326,0.0029258,-0.00107232,0.196977,0.00238957,0.0172643,1441,1716,8.28861,-33.8809
224,-692,8.28577,33.72,0.00249313,-0.000846501,0.000570383,0.00258786,-0.00094123,0.164579,0.00211016,0.0133951,1448,1716,8.28582,-33.72
231,-692,8.29919,33.5393,0.00222275,-0.00069073,0.000227455,0.00224041,-0.00070838,0.0774444,0.00177742,0.0114522,1455,1716,8.29924,-33.5393
238,-692,8.29895,33.297,0.00196822,-0.000539162,-8.96542e-05,0.00197142,-0.000542363,-0.0356954,0.00152751,0.0176667,1462,1716,8.29891,-33.297
245,-692,8.29163,33.1097,0.001747,-0.000276445,-0.000311752,0.00179394,-0.000323388,-0.149454,0.00131706,0.0204043,1469,1716,8.29157,-33.1098
252,-692,8.35229,32.9552,0.00161922,-5.55917e-05,-0.000426629,0.00172163,-0.000158005,-0.235596,0.00120388,0.0180666,1476,1716,8.35226,-32.9552
259,-692,8.34521,32.7687,0.00158022,0.000274222,-0.000541271,0.00177539,7.90573e-05,-0.346058,0.00115814,0.0103369,1483,1716,8.34517,-32.7687
266,-692,8.32141,32.5464,0.00153853,0.000621277,-0.000653917,0.00187862,0.000281187,-0.479583,0.00117,0.0109129,1490,1716,8.32144,-32.5464
273,-692,8.31824,32.3062,0.00146937,0.00107908,-0.000729048,0.00202894,0.00051951,-0.654628,0.001217,0.0145809,1497,1716,8.31829,-32.3061
280,-692,8.32935,32.0652,0.0013133,0.00156742,-0.000816586,0.00226677,0.00061395,-0.862578,0.00135376,0.0134434,1504,1716,8.32936,-32.0651
287,-692,8.33765,31.8597,0.0010962,0.0021684,-0.000912806,0.00269089,0.000573704,-1.05092,0.00163656,0.0108005,1511,1716,8.33759,-31.8598
294,-692,8.32361,31.6288,0.000822727,0.00293027,-0.00104572,0.00336107,0.000391925,-1.18002,0.00212217,0.0101381,1518,1716,8.32358,-31.6288
301,-692,8.31653,31.377,0.000475482,0.00367608,-0.00124572,0.00410378,4.7782e-05,-1.24007,0.00272006,0.0130568,1525,1716,8.31652,-31.3769
308,-692,8.31445,31.1367,8.24694e-05,0.00413797,-0.00140994,0.00457998,-0.000359537,-1.26701,0.00317994,0.0166036,1532,1716,8.31444,-31.1367
315,-692,8.32556,30.8547,-0.000310292,0.00442241,-0.0015017,0.00485868,-0.000746567,-1.28806,0.00351451,0.0153529,1539,1716,8.3256,-30.8548
322,-692,8.28577,30.5321,-0.000704341,0.00479864,-0.00158005,0.00522004,-0.00112575,-1.31016,0.00390968,0.0197473,1546,1716,8.28578,-30.5322
329,-692,8.25732,30.2549,-0.00103139,0.00489883,-0.00158155,0.00529426,-0.00142681,-1.3258,0.00408895,0.0177378,1553,1716,8.25735,-30.2549
336,-692,8.25781,29.9999,-0.00120419,0.00460171,-0.00151958,0.00497538,-0.00157786,-1.32968,0.00394937,0.012499,1560,1716,8.25784,-29.9998
343,-692,8.25916,29.7393,-0.00131798,0.00395117,-0.00141449,0.00430687,-0.00167369,-1.32443,0.00356269,0.0137869,1567,1716,8.25917,-29.7392
350,-692,8.25073,29.4502,-0.00128581,0.00293804,-0.00120563,0.00325794,-0.00160571,-1.31144,0.00286153,0.0153604,1574,1716,8.25077,-29.4502
357,-692,8.24536,29.1412,-0.00107993,0.000931715,-0.000624298,0.00110971,-0.00125793,-1.29305,0.00136785,0.0182237,1581,1716,8.24532,-29.1413
364,-692,8.24292,28.7926,-0.000592953,-0.00192543,5.55504e-05,-0.000590641,-0.00192774,0.0415933,0.00114046,0.0230057,1588,1716,8.24292,-28.7926
371,-692,8.21448,28.4674,0.000135358,-0.00524602,0.000660185,0.000215166,-0.00532582,0.120303,0.0036244,0.0357016,1595,1716,8.21445,-28.4674
378,-692,8.22595,28.1169,0,0,0,0,0,0,0,-1,1602,1716,8.22589,-28.117
385,-692,7.82642,28.0227,0,0,0,0,0,0,0,-1,1609,1716,7.82639,-28.0227
392,-692,8.08691,27.7007,0,0,0,0,0,0,0,-1,1616,1716,8.08692,-27.7007
399,-692,8.27258,27.4969,0,0,0,0,0,0,0,-1,1623,1716,8.27254,-27.4969
406,-692,7.84009,28.0695,0,0,0,0,0,0,0,-1,1630,1716,7.8401,-28.0694
413,-692,4.25085,10.5685,0,0,0,0,0,0,0,-1,1637,1716,4.2508,-10.5685
420,-692,5.48901,10.4845,0,0,0,0,0,0,0,-1,1644,1716,5.48906,-10.4845
427,-692,3.79578,8.60339,0,0,0,0,0,0,0,-1,1651,1716,3.79577,-8.6034
434,-692,4.78516,8.64636,0,0,0,0,0,0,0,-1,1658,1716,4.78512,-8.64634
441,-692,5.8208,8.74036,0,0,0,0,0,0,0,-1,1665,1716,5.82084,-8.7404
448,-692,6.73792,8.51013,0,0,0,0,0,0,0,-1,1672,1716,6.73793,-8.5101
455,-692,0,0,0,0,0,0,0,0,0,-1,1679,1716,0,0
462,-692,0,0,0,0,0,0,0,0,0,-1,1686,1716,0,0
469,-692,0,0,0,0,0,0,0,0,0,-1,1693,1716,0,0
476,-692,0,0,0,0,0,0,0,0,0,-1,1700,1716,0,0
483,-692,0,0,0,0,0,0,0,0,0,-1,1707,1716,0,0
490,-692,0,0,0,0,0,0,0,0,0,-1,1714,1716,0,0
497,-692,0,0,0,0,0,0,0,0,0,-1,1721,1716,0,0
504,-692,0,0,0,0,0,0,0,0,0,-1,1728,1716,0,0
511,-692,0,0,0,0,0,0,0,0,0,-1,1735,1716,0,0
518,-692,0,0,0,0,0,0,0,0,0,-1,1742,1716,0,0
525,-692,0,0,0,0,0,0,0,0,0,-1,1749,1716,0,0
532,-692,0,0,0,0,0,0,0,0,0,-1,1756,1716,0,0
539,-692,0,0,0,0,0,0,0,0,0,-1,1763,1716,0,0
546,-692,0,0,0,0,0,0,0,0,0,-1,1770,1716,0,0
553,-692,0,0,0,0,0,0,0,0,0,-1,1777,1716,0,0
560,-692,0,0,0,0,0,0,0,0,0,-1,1784,1716,0,0
567,-692,0,0,0,0,0,0,0,0,0,-1,1791,1716,0,0
574,-692,0,0,0,0,0,0,0,0,0,-1,1798,1716,0,0
581,-692,0,0,0,0,0,0,0,0,0,-1,1805,1716,0,0
588,-692,0,0,0,0,0,0,0,0,0,-1,1812,1716,0,0
595,-692,0,0,0,0,0,0,0,0,0,-1,1819,1716,0,0
602,-692,0,0,0,0,0,0,0,0,0,-1,1826,1716,0,0
609,-692,0,0,0,0,0,0,0,0,0,-1,1833,1716,0,0
616,-692,0,0,0,0,0,0,0,0,0,-1,1840,1716,0,0
623,-692,0,0,0,0,0,0,0,0,0,-1,1847,1716,0,0
630,-692,0,0,0,0,0,0,0,0,0,-1,1854,1716,0,0
637,-692,0,0,0,0,0,0,0,0,0,-1,1861,1716,0,0
644,-692,0,0,0,0,0,0,0,0,0,-1,1868,1716,0,0
651,-692,0,0,0,0,0,0,0,0,0,-1,1875,1716,0,0
658,-692,0,0,0,0,0,0,0,0,0,-1,1882,1716,0,0
665,-692,0,0,0,0,0,0,0,0,0,-1,1889,1716,0,0
672,-692,0,0,0,0,0,0,0,0,0,-1,1896,1716,0,0
679,-692,0,0,0,0,0,0,0,0,0,-1,1903,1716,0,0
686,-692,0,0,0,0,0,0,0,0,0,-1,1910,1716,0,0
693,-692,0,0,0,0,0,0,0,0,0,-1,1917,1716,0,0
700,-692,0,0,0,0,0,0,0,0,0,-1,1924,1716,0,0
707,-692,0,0,0,0,0,0,0,0,0,-1,1931,1716,0,0
714,-692,0,0,0,0,0,0,0,0,0,-1,1938,1716,0,0
721,-692,0,0,0,0,0,0,0,0,0,-1,1945,1716,0,0
728,-692,0,0,0,0,0,0,0,0,0,-1,1952,1716,0,0
735,-692,0,0,0,0,0,0,0,0,0,-1,1959,1716,0,0
742,-692,0,0,0,0,0,0,0,0,0,-1,1966,1716,0,0
749,-692,0,0,0,0,0,0,0,0,0,-1,1973,1716,0,0
756,-692,0,0,0,0,0,0,0,0,0,-1,1980,1716,0,0
763,-692,0,0,0,0,0,0,0,0,0,-1,1987,1716,0,0
770,-692,0,0,0,0,0,0,0,0,0,-1,1994,1716,0,0
777,-692,0,0,0,0,0,0,0,0,0,-1,2001,1716,0,0
784,-692,0,0,0,0,0,0,0,0,0,-1,2008,1716,0,0
791,-692,0,0,0,0,0,0,0,0,0,-1,2015,1716,0,0
798,-692,0,0,0,0,0,0,0,0,0,-1,2022,1716,0,0
805,-692,0,0,0,0,0,0,0,0,0,-1,2029,1716,0,0
812,-692,0,0,0,0,0,0,0,0,0,-1,2036,1716,0,0
-700,-699,0,0,0,0,0,0,0,0,0,-1,524,1723,0,0
-693,-699,0,0,0,0,0,0,0,0,0,-1,531,1723,0,0
-686,-699,0,0,0,0,0,0,0,0,0,-1,538,1723,0,0
-679,-699,0,0,0,0,0,0,0,0,0,-1,545,1723,0,0
-672,-699,0,0,0,0,0,0,0,0,0,-1,552,1723,0,0
-665,-699,0,0,0,0,0,0,0,0,0,-1,559,1723,0,0
-658,-699,0,0,0,0,0,0,0,0,0,-1,566,1723,0,0
-651,-699,0,0,0,0,0,0,0,0,0,-1,573,1723,0,0
-644,-699,0,0,0,0,0,0,0,0,0,-1,580,1723,0,0
-637,-699,0,0,0,0,0,0,0,0,0,-1,587,1723,0,0
-630,-699,0,0,0,0,0,0,0,0,0,-1,594,1723,0,0
-623,-699,0,0,0,0,0,0,0,0,0,-1,601,1723,0,0
-616,-699,0,0,0,0,0,0,0,0,0,-1,608,1723,0,0
-609,-699,0,0,0,0,0,0,0,0,0,-1,615,1723,0,0
-602,-699,0,0,0,0,0,0,0,0,0,-1,622,1723,0,0
-595,-699,0,0,0,0,0,0,0,0,0,-1,629,1723,0,0
-588,-699,0,0,0,0,0,0,0,0,0,-1,636,1723,0,0
-581,-699,0,0,0,0,0,0,0,0,0,-1,643,1723,0,0
-574,-699,0,0,0,0,0,0,0,0,0,-1,650,1723,0,0
-567,-699,0,0,0,0,0,0,0,0,0,-1,657,1723,0,0
-560,-699,0,0,0,0,0,0,0,0,0,-1,664,1723,0,0
-553,-699,0,0,0,0,0,0,0,0,0,-1,671,1723,0,0
-546,-699,0,0,0,0,0,0,0,0,0,-1,678,1723,0,0
-539,-699,0,0,0,0,0,0,0,0,0,-1,685,1723,0,0
-532,-699,0,0,0,0,0,0,0,0,0,-1,692,1723,0,0
-525,-699,0,0,0,0,0,0,0,0,0,-1,699,1723,0,0
-518,-699,0,0,0,0,0,0,0,0,0,-1,706,1723,0,0
-511,-699,0,0,0,0,0,0,0,0,0,-1,713,1723,0,0
-504,-699,0,0,0,0,0,0,0,0,0,-1,720,1723,0,0
-497,-699,0,0,0,0,0,0,0,0,0,-1,727,1723,0,0
-490,-699,0,0,0,0,0,0,0,0,0,-1,734,1723,0,0
-483,-699,0,0,0,0,0,0,0,0,0,-1,741,1723,0,0
-476,-699,0,0,0,0,0,0,0,0,0,-1,748,1723,0,0
-469,-699,0,0,0,0,0,0,0,0,0,-1,755,1723,0,0
-462,-699,0,0,0,0,0,0,0,0,0,-1,762,1723,0,0
-455,-699,0,0,0,0,0,0,0,0,0,-1,769,1723,0,0
-448,-699,0,0,0,0,0,0,0,0,0,-1,776,1723,0,0
-441,-699,0,0,0,0,0,0,0,0,0,-1,783,1723,0,0
-434,-699,0,0,0,0,0,0,0,0,0,-1,790,1723,0,0
-427,-699,0,0,0,0,0,0,0,0,0,-1,797,1723,0,0
-420,-699,0,0,0,0,0,0,0,0,0,-1,804,1723,0,0
-413,-699,0,0,0,0,0,0,0,0,0,-1,811,1723,0,0
-406,-699,0,0,0,0,0,0,0,0,0,-1,818,1723,0,0
-399,-699,0,0,0,0,0,0,0,0,0,-1,825,1723,0,0
-392,-699,0,0,0,0,0,0,0,0,0,-1,832,1723,0,0
-385,-699,0,0,0,0,0,0,0,0,0,-1,839,1723,0,0
-378,-699,0,0,0,0,0,0,0,0,0,-1,846,1723,0,0
-371,-699,0,0,0,0,0,0,0,0,0,-1,853,1723,0,0
-364,-699,0,0,0,0,0,0,0,0,0,-1,860,1723,0,0
-357,-699,0,0,0,0,0,0,0,0,0,-1,867,1723,0,0
-350,-699,0,0,0,0,0,0,0,0,0,-1,874,1723,0,0
-343,-699,0,0,0,0,0,0,0,0,0,-1,881,1723,0,0
-336,-699,0,0,0,0,0,0,0,0,0,-1,888,1723,0,0
-329,-699,0,0,0,0,0,0,0,0,0,-1,895,1723,0,0
-322,-699,0,0,0,0,0,0,0,0,0,-1,902,1723,0,0
-315,-699,6.20001,19.5193,0,0,0,0,0,0,0,-1,909,1723,6.20001,-19.5193
-308,-699,6.98151,18.9218,0,0,0,0,0,0,0,-1,916,1723,6.98151,-18.9217
-301,-699,4.72729,12.8752,0,0,0,0,0,0,0,-1,923,1723,4.72732,-12.8752
-294,-699,6.90332,19.8601,0,0,0,0,0,0,0,-1,930,1723,6.90332,-19.8601
-287,-699,7.09802,22.7235,0,0,0,0,0,0,0,-1,937,1723,7.09805,-22.7235
-280,-699,7.50189,27.2051,0,0,0,0,0,0,0,-1,944,1723,7.50189,-27.2051
-273,-699,7.69263,25.8022,0,0,0,0,0,0,0,-1,951,1723,7.69265,-25.8023
-266,-699,6.81915,20.8951,0,0,0,0,0,0,0,-1,958,1723,6.81914,-20.8952
-259,-699,5.39758,14.5466,0,0,0,0,0,0,0,-1,965,1723,5.39759,-14.5466
-252,-699,7.30695,26.8383,0,0,0,0,0,0,0,-1,972,1723,7.30697,-26.8382
-245,-699,7.47015,27.7255,0,0,0,0,0,0,0,-1,979,1723,7.47014,-27.7255
-238,-699,7.21228,28.5922,0,0,0,0,0,0,0,-1,986,1723,7.2123,-28.5921
-231,-699,7.16284,28.6494,-0.00430089,-0.000205051,-0.00489265,0.00305099,-0.00755693,-0.983604,0.00630597,0.0427724,993,1723,7.16281,-28.6495
-224,-699,7.11072,28.7928,-0.00410567,-0.00206971,-0.00425957,0.00129183,-0.00746722,-0.902691,0.00545994,0.0407699,1000,1723,7.1107,-28.7928
-217,-699,7.06439,28.9847,-0.00477977,-0.0025835,-0.00386523,0.000336563,-0.00769983,-0.923804,0.00524901,0.0282542,1007,1723,7.06442,-28.9848
-210,-699,7.01276,29.3547,-0.00428616,-0.00262463,-0.00293512,-0.000404973,-0.00650582,-0.923312,0.00420872,0.0185047,1014,1723,7.01277,-29.3548
-203,-699,7.02881,29.619,-0.00335977,-0.00273925,-0.00204124,-0.000984821,-0.0051142,-0.860819,0.00313322,0.0219888,1021,1723,7.02876,-29.619
-196,-699,7.00562,29.9126,-0.00253864,-0.00266283,-0.00146572,-0.0011337,-0.00406777,-0.764228,0.00242399,0.0177864,1028,1723,7.00564,-29.9126
-189,-699,6.94653,30.2379,-0.00181688,-0.00255193,-0.00111659,-0.00100888,-0.00335993,-0.626409,0.00199078,0.00889366,1035,1723,6.94649,-30.238
-182,-699,6.91211,30.5292,-0.00134719,-0.00215116,-0.000762987,-0.00088677,-0.00261158,-0.542946,0.00153346,0.0118894,1042,1723,6.91217,-30.5292
-175,-699,6.89868,30.8311,-0.000963297,-0.00155906,-0.000387251,-0.000772613,-0.00174975,-0.457553,0.00101251,0.0145484,1049,1723,6.89868,-30.831
-168,-699,6.91479,31.1018,-0.00062306,-0.00100756,-3.60634e-05,-0.000619707,-0.00101092,-0.0927148,0.000588602,0.0151882,1056,1723,6.9148,-31.1018
-161,-699,6.91089,31.3522,-0.000395291,-0.000389847,0.000162508,-0.000230038,-0.0005551,0.793772,0.000322048,0.0130235,1063,1723,6.9109,-31.3522
-154,-699,6.89502,31.6241,-0.000185692,0.000492819,0.000294902,0.000603076,-0.000295949,1.21301,0.000529052,0.0132253,1070,1723,6.89501,-31.6241
-147,-699,6.86755,31.8738,1.8715e-05,0.00137905,0.000452523,0.00151583,-0.000118066,1.27726,0.00105212,0.0143716,1077,1723,6.86753,-31.8738
-140,-699,6.85034,32.0992,0.000316276,0.0023524,0.000541088,0.00248726,0.000181417,1.32654,0.00160113,0.00976791,1084,1723,6.8503,-32.0993
-133,-699,6.85632,32.3384,0.000601868,0.00318219,0.000493901,0.00327349,0.000510561,1.38799,0.00203362,0.00899037,1091,1723,6.85637,-32.3384
-126,-699,6.85266,32.5364,0.000700867,0.00399427,0.000408145,0.00404409,0.00065104,1.44932,0.00250738,0.0116462,1098,1723,6.85268,-32.5364
-119,-699,6.87537,32.7687,0.000853283,0.00450274,0.000382214,0.00454234,0.000813683,1.46756,0.00279674,0.0171544,1105,1723,6.87541,-32.7687
-112,-699,6.87219,33.0087,0.00115997,0.0047753,0.000346749,0.00480825,0.00112702,1.47604,0.00290367,0.0120097,1112,1723,6.87225,-33.0086
-105,-699,6.87146,33.2092,0.00139481,0.00477267,0.000224265,0.00478749,0.00137998,1.50479,0.00284548,0.0131213,1119,1723,6.87145,-33.2092
-98,-699,6.89844,33.4028,0.00149608,0.00460798,0.000139266,0.0046142,0.00148986,1.52616,0.00271915,0.0150004,1126,1723,6.89847,-33.4028
-91,-699,6.90039,33.5719,0.00162326,0.00429484,-1.69807e-05,0.00429495,0.00162315,-1.56444,0.00250421,0.02005,1133,1723,6.9004,-33.5719
-84,-699,6.89697,33.7615,0.00187824,0.00378189,-0.000261534,0.00381717,0.00184296,-1.43672,0.00220428,0.0233967,1140,1723,6.89702,-33.7615
-77,-699,6.90613,33.9622,0.00212487,0.00334928,-0.000611827,0.00360259,0.00187155,-1.17825,0.00208049,0.016091,1147,1723,6.90615,-33.9622
-70,-699,6.91101,34.1404,0.0022065,0.00261067,-0.000997318,0.00342617,0.001391,-0.88536,0.00198972,0.0162375,1154,1723,6.91107,-34.1404
-63,-699,6.93835,34.283,0.00184814,0.00234065,-0.000523706,0.00267311,0.00151568,-1.00517,0.00154793,0.013628,1161,1723,6.93838,-34.2829
-56,-699,6.9353,34.4241,0.000918121,0.00260361,-0.000360629,0.00267753,0.000844203,-1.36863,0.00158064,0.0105026,1168,1723,6.93536,-34.424
-49,-699,6.9425,34.6392,0.000400787,0.00439182,9.28155e-05,0.00439398,0.00039863,1.54756,0.0028059,0.0227115,1175,1723,6.94252,-34.6391
-42,-699,6.95593,34.8141,0.00281673,0.00685776,-0.000216691,0.00686935,0.00280514,-1.51738,0.00398816,0.0270984,1182,1723,6.95597,-34.8141
-35,-699,6.98608,34.8939,0.00621956,0.00843234,0.000555467,0.00856395,0.00608795,1.33815,0.00508888,0.0261525,1189,1723,6.9861,-34.8939
-28,-699,7.05945,34.9731,0.00808969,0.00979863,0.000788634,0.0101069,0.00778137,1.19812,0.00611207,0.0204106,1196,1723,7.05951,-34.9732
-21,-699,7.07007,35.0142,0.00933433,0.0111936,0.00121847,0.0117965,0.00873135,1.11126,0.00706778,0.0144899,1203,1723,7.07011,-35.0141
-14,-699,7.08496,35.1448,0.0107808,0.0129205,0.001789,0.0139351,0.00976614,1.05488,0.00825894,0.0128314,1210,1723,7.08493,-35.1448
-7,-699,7.10999,35.2786,0.0122782,0.0146596,0.00264284,0.0163676,0.0105702,0.997053,0.00958283,0.00903758,1217,1723,7.10997,-35.2786
0,-699,7.1532,35.3629,0.0134273,0.0166397,0.0035376,0.0189186,0.0111483,0.998503,0.0109806,0.0106545,1224,1723,7.15314,-35.3629
7,-699,7.17847,35.4335,0.0140656,0.0184797,0.00436363,0.0211627,0.0113827,1.01953,0.01223,0.0162103,1231,1723,7.17848,-35.4335
14,-699,7.23425,35.5011,0.0142487,0.0205793,0.00534471,0.0236257,0.0112023,1.05274,0.0136464,0.0172143,1238,1723,7.23424,-35.501
21,-699,7.27747,35.5448,0.0139667,0.0225706,0.00615375,0.025777,0.0107603,1.09045,0.0149498,0.0157681,1245,1723,7.27747,-35.5447
28,-699,7.28577,35.5834,0.0133358,0.0245691,0.0068256,0.0277919,0.010113,1.12967,0.0162427,0.015303,1252,1723,7.28574,-35.5834
35,-699,7.34766,35.6373,0.0124262,0.0262382,0.0073005,0.0293816,0.00928284,1.16422,0.0173423,0.0143196,1259,1723,7.34771,-35.6374
42,-699,7.40515,35.7012,0.0112079,0.0272796,0.00767338,0.0303548,0.00813268,1.18963,0.0181437,0.0134376,1266,1723,7.40512,-35.7012
49,-699,7.45435,35.7421,0.00999814,0.0277135,0.00750079,0.0304627,0.00724891,1.21948,0.0183751,0.0143754,1273,1723,7.45429,-35.7421
56,-699,7.48157,35.755,0.0089996,0.027522,0.00678241,0.02974,0.00678165,1.25474,0.0179972,0.0149724,1280,1723,7.48154,-35.755
63,-699,7.50073,35.7308,0.00763288,0.0263037,0.00595862,0.0280433,0.00589332,1.28675,0.0170736,0.0133699,1287,1723,7.50076,-35.7308
70,-699,7.5354,35.7407,0.00626728,0.0246316,0.00480412,0.0258124,0.00508644,1.32978,0.0157883,0.0114933,1294,1723,7.53536,-35.7407
77,-699,7.57104,35.7366,0.00578992,0.0225512,0.00381173,0.0233773,0.0049638,1.35737,0.014222,0.0114087,1301,1723,7.57102,-35.7366
84,-699,7.61316,35.708,0.00589685,0.0198651,0.00278083,0.0203984,0.00536359,1.38134,0.0122103,0.0137277,1308,1723,7.6131,-35.708
91,-699,7.66248,35.6976,0.00595311,0.0165074,0.0019212,0.0168462,0.00561427,1.39622,0.00990479,0.0131616,1315,1723,7.66242,-35.6977
98,-699,7.69958,35.6876,0.0059033,0.0140803,0.00117961,0.0142471,0.00573653,1.43035,0.00827738,0.0114796,1322,1723,7.69953,-35.6876
105,-699,7.71802,35.6628,0.00617322,0.0112599,0.000885955,0.0114098,0.00602333,1.4032,0.00659087,0.015432,1329,1723,7.71798,-35.6628
112,-699,7.75317,35.6006,0.00653558,0.00915732,0.00111107,0.00956484,0.00612806,1.21925,0.00559466,0.0218108,1336,1723,7.75321,-35.6006
119,-699,7.77173,35.5354,0.00664607,0.00736084,0.00140946,0.00845753,0.00554939,0.909562,0.00496169,0.0167766,1343,1723,7.77171,-35.5354
126,-699,7.8175,35.468,0.00662162,0.00640285,0.0019785,0.00849375,0.00453072,0.757783,0.00490752,0.0173168,1350,1723,7.81754,-35.4681
133,-699,7.87158,35.3951,0.00644268,0.00582241,0.0024691,0.00862105,0.00364404,0.722922,0.00499716,0.0145879,1357,1723,7.87155,-35.3951
140,-699,7.90112,35.3093,0.00619457,0.00585087,0.00284059,0.0088685,0.00317695,0.755186,0.00518839,0.0153038,1364,1723,7.90117,-35.3093
147,-699,7.92297,35.2269,0.00604632,0.00574247,0.00281242,0.00871091,0.00307788,0.758415,0.00510086,0.0137156,1371,1723,7.923,-35.2269
154,-699,7.92383,35.1331,0.0057196,0.00546984,0.00301727,0.00861457,0.00257487,0.764716,0.00510596,0.0138093,1378,1723,7.92386,-35.1331
161,-699,7.95959,35.014,0.00525273,0.00506948,0.00359276,0.00875503,0.00156717,0.77265,0.00539077,0.0105465,1385,1723,7.95959,-35.014
168,-699,7.98376,34.9146,0.00460871,0.00483912,0.0041495,0.00887501,0.000572816,0.799276,0.00573528,0.0119645,1392,1723,7.98373,-34.9145
175,-699,8.02295,34.8069,0.00400785,0.00478732,0.0040957,0.00851179,0.000283385,0.832834,0.00558246,0.0141744,1399,1723,8.023,-34.8069
182,-699,8.03149,34.6553,0.00366806,0.004548,0.0037265,0.00786042,0.000355642,0.844159,0.00512584,0.0150052,1406,1723,8.03153,-34.6553
189,-699,8.02747,34.519,0.003136,0.00435727,0.00302566,0.0068333,0.000659972,0.88497,0.00435225,0.0176452,1413,1723,8.02745,-34.519
196,-699,8.04163,34.3748,0.00287261,0.00441543,0.00195679,0.00574737,0.00154067,0.973156,0.00343519,0.0176488,1420,1723,8.04168,-34.3748
203,-699,8.03662,34.2386,0.00279781,-0.000271833,0.00108127,0.00314044,-0.000614464,0.306868,0.00232566,0.0148508,1427,1723,8.03662,-34.2387
210,-699,8.06946,34.0769,0.00235954,-0.000219585,0.000773819,0.0025739,-0.00043394,0.270233,0.00187737,0.0143758,1434,1723,8.06945,-34.0769
217,-699,8.11438,33.9156,0.00188393,-0.000287143,0.000387911,0.00195115,-0.000354371,0.171602,0.00143357,0.014168,1441,1723,8.11442,-33.9156
224,-699,8.12537,33.7408,0.00163214,-0.000179026,0.000229601,0.00166079,-0.000207679,0.124153,0.00118252,0.0157377,1448,1723,8.12531,-33.7408
231,-699,8.12781,33.5565,0.00137314,-2.92531e-05,2.12414e-05,0.00137346,-2.95747e-05,0.0151419,0.000925656,0.0126727,1455,1723,8.12786,-33.5565
238,-699,8.10718,33.344,0.00118637,0.00016648,-0.000128186,0.00120223,0.000150616,-0.123135,0.0007563,0.0108437,1462,1723,8.1072,-33.3439
245,-699,8.11145,33.1385,0.00107444,0.000426135,-0.000219926,0.001142,0.00035857,-0.298064,0.000674373,0.0123272,1469,1723,8.11142,-33.1385
252,-699,8.12256,32.9659,0.00101155,0.000679031,-0.000283207,0.0011737,0.000516889,-0.51997,0.000679237,0.010337,1476,1723,8.12252,-32.966
259,-699,8.11218,32.7704,0.00097376,0.00097268,-0.000340214,0.00131343,0.000633005,-0.784604,0.000758476,0.0109722,1483,1723,8.11224,-32.7704
266,-699,8.09912,32.5647,0.000864715,0.0014009,-0.000382644,0.00160003,0.000665593,-1.09097,0.000928112,0.01361,1490,1723,8.09909,-32.5647
273,-699,8.10913,32.3301,0.000785428,0.0020007,-0.000472093,0.00216254,0.000623588,-1.24054,0.00128528,0.0125004,1497,1723,8.10918,-32.33
280,-699,8.12756,32.0844,0.000621582,0.00258198,-0.000604726,0.00275351,0.00045005,-1.2944,0.00170557,0.0126631,1504,1723,8.12762,-32.0843
287,-699,8.09387,31.8342,0.000392282,0.00336747,-0.000777453,0.00355837,0.000201373,-1.33,0.00230805,0.010753,1511,1723,8.09391,-31.8342
294,-699,8.07959,31.6055,9.83581e-05,0.00434642,-0.000986358,0.00456427,-0.000119493,-1.35342,0.00308345,0.0102369,1518,1723,8.07954,-31.6054
301,-699,8.08032,31.3755,-0.000258205,0.00531408,-0.00128769,0.00559726,-0.000541384,-1.35433,0.00392444,0.0119978,1525,1723,8.08031,-31.3755
308,-699,8.08264,31.1353,-0.000680558,0.00590713,-0.00156433,0.00625973,-0.00103316,-1.3491,0.00455675,0.0173045,1532,1723,8.08259,-31.1353
315,-699,8.06714,30.847,-0.00110914,0.00638161,-0.0017828,0.00678428,-0.00151181,-1.34866,0.005102,0.0194925,1539,1723,8.06713,-30.847
322,-699,8.03394,30.5613,-0.00152873,0.00696498,-0.00196047,0.00739565,-0.0019594,-1.35456,0.00569701,0.0195371,1546,1723,8.03395,-30.5613
329,-699,7.99463,30.2909,-0.00184896,0.00721148,-0.00202341,0.00764282,-0.0022803,-1.36077,0.0060015,0.017151,1553,1723,7.99458,-30.2909
336,-699,7.99207,30.0472,-0.00196507,0.00695066,-0.00202812,0.00739032,-0.00240474,-1.35731,0.00589431,0.0198512,1560,1723,7.99208,-30.0472
343,-699,8.04614,29.7975,-0.00206722,0.00619689,-0.00198242,0.00664783,-0.00251816,-1.34713,0.0054681,0.0267471,1567,1723,8.04617,-29.7975
350,-699,7.99768,29.4783,-0.00199652,0.005019,-0.00174122,0.00542739,-0.00240491,-1.34042,0.00463286,0.0355953,1574,1723,7.99774,-29.4782
357,-699,7.95935,29.2317,-0.00156386,0.00261402,-0.000944074,0.00281745,-0.00176728,-1.35856,0.00267004,0.0400883,1581,1723,7.95933,-29.2317
364,-699,7.88623,29.0946,-0.000690901,-0.000881558,2.49354e-05,-0.000687694,-0.000884766,0.12792,0.00053636,0.0411344,1588,1723,7.88624,-29.0946
371,-699,7.88928,28.4691,0,0,0,0,0,0,0,-1,1595,1723,7.88923,-28.4691
378,-699,7.3009,26.9484,0,0,0,0,0,0,0,-1,1602,1723,7.30092,-26.9483
385,-699,6.32727,24.7136,0,0,0,0,0,0,0,-1,1609,1723,6.32725,-24.7136
392,-699,7.63953,27.578,0,0,0,0,0,0,0,-1,1616,1723,7.63956,-27.578
399,-699,7.28809,29.0607,0,0,0,0,0,0,0,-1,1623,1723,7.28812,-29.0606
406,-699,5.50757,21.6672,0,0,0,0,0,0,0,-1,1630,1723,5.50755,-21.6672
413,-699,9.31396,23.2781,0,0,0,0,0,0,0,-1,1637,1723,9.31396,-23.278
420,-699,2.15076,7.65527,0,0,0,0,0,0,0,-1,1644,1723,2.15079,-7.65522
427,-699,3.36328,8.2428,0,0,0,0,0,0,0,-1,1651,1723,3.36332,-8.24283
434,-699,4.66455,8.90222,0,0,0,0,0,0,0,-1,1658,1723,4.66456,-8.90223
441,-699,0,0,0,0,0,0,0,0,0,-1,1665,1723,0,0
448,-699,0,0,0,0,0,0,0,0,0,-1,1672,1723,0,0
455,-699,0,0,0,0,0,0,0,0,0,-1,1679,1723,0,0
462,-699,0,0,0,0,0,0,0,0,0,-1,1686,1723,0,0
469,-699,0,0,0,0,0,0,0,0,0,-1,1693,1723,0,0
476,-699,0,0,0,0,0,0,0,0,0,-1,1700,1723,0,0
483,-699,0,0,0,0,0,0,0,0,0,-1,1707,1723,0,0
490,-699,0,0,0,0,0,0,0,0,0,-1,1714,1723,0,0
497,-699,0,0,0,0,0,0,0,0,0,-1,1721,1723,0,0
504,-699,0,0,0,0,0,0,0,0,0,-1,1728,1723,0,0
511,-699,0,0,0,0,0,0,0,0,0,-1,1735,1723,0,0
518,-699,0,0,0,0,0,0,0,0,0,-1,1742,1723,0,0
525,-699,0,0,0,0,0,0,0,0,0,-1,1749,1723,0,0
532,-699,0,0,0,0,0,0,0,0,0,-1,1756,1723,0,0
539,-699,0,0,0,0,0,0,0,0,0,-1,1763,1723,0,0
546,-699,0,0,0,0,0,0,0,0,0,-1,1770,1723,0,0
553,-699,0,0,0,0,0,0,0,0,0,-1,1777,1723,0,0
560,-699,0,0,0,0,0,0,0,0,0,-1,1784,1723,0,0
567,-699,0,0,0,0,0,0,0,0,0,-1,1791,1723,0,0
574,-699,0,0,0,0,0,0,0,0,0,-1,1798,1723,0,0
581,-699,0,0,0,0,0,0,0,0,0,-1,1805,1723,0,0
588,-699,0,0,0,0,0,0,0,0,0,-1,1812,1723,0,0
595,-699,0,0,0,0,0,0,0,0,0,-1,1819,1723,0,0
602,-699,0,0,0,0,0,0,0,0,0,-1,1826,1723,0,0
609,-699,0,0,0,0,0,0,0,0,0,-1,1833,1723,0,0
616,-699,0,0,0,0,0,0,0,0,0,-1,1840,1723,0,0
623,-699,0,0,0,0,0,0,0,0,0,-1,1847,1723,0,0
630,-699,0,0,0,0,0,0,0,0,0,-1,1854,1723,0,0
637,-699,0,0,0,0,0,0,0,0,0,-1,1861,1723,0,0
644,-699,0,0,0,0,0,0,0,0,0,-1,1868,1723,0,0
651,-699,0,0,0,0,0,0,0,0,0,-1,1875,1723,0,0
658,-699,0,0,0,0,0,0,0,0,0,-1,1882,1723,0,0
665,-699,0,0,0,0,0,0,0,0,0,-1,1889,1723,0,0
672,-699,0,0,0,0,0,0,0,0,0,-1,1896,1723,0,0
679,-699,0,0,0,0,0,0,0,0,0,-1,1903,1723,0,0
686,-699,0,0,0,0,0,0,0,0,0,-1,1910,1723,0,0
693,-699,0,0,0,0,0,0,0,0,0,-1,1917,1723,0,0
700,-699,0,0,0,0,0,0,0,0,0,-1,1924,1723,0,0
707,-699,0,0,0,0,0,0,0,0,0,-1,1931,1723,0,0
714,-699,0,0,0,0,0,0,0,0,0,-1,1938,1723,0,0
721,-699,0,0,0,0,0,0,0,0,0,-1,1945,1723,0,0
728,-699,0,0,0,0,0,0,0,0,0,-1,1952,1723,0,0
735,-699,0,0,0,0,0,0,0,0,0,-1,1959,1723,0,0
742,-699,0,0,0,0,0,0,0,0,0,-1,1966,1723,0,0
749,-699,0,0,0,0,0,0,0,0,0,-1,1973,1723,0,0
756,-699,0,0,0,0,0,0,0,0,0,-1,1980,1723,0,0
763,-699,0,0,0,0,0,0,0,0,0,-1,1987,1723,0,0
770,-699,0,0,0,0,0,0,0,0,0,-1,1994,1723,0,0
777,-699,0,0,0,0,0,0,0,0,0,-1,2001,1723,0,0
784,-699,0,0,0,0,0,0,0,0,0,-1,2008,1723,0,0
791,-699,0,0,0,0,0,0,0,0,0,-1,2015,1723,0,0
798,-699,0,0,0,0,0,0,0,0,0,-1,2022,1723,0,0
805,-699,0,0,0,0,0,0,0,0,0,-1,2029,1723,0,0
812,-699,0,0,0,0,0,0,0,0,0,-1,2036,1723,0,0
-700,-706,0,0,0,0,0,0,0,0,0,-1,524,1730,0,0
-693,-706,0,0,0,0,0,0,0,0,0,-1,531,1730,0,0
-686,-706,0,0,0,0,0,0,0,0,0,-1,538,1730,0,0
-679,-706,0,0,0,0,0,0,0,0,0,-1,545,1730,0,0
-672,-706,0,0,0,0,0,0,0,0,0,-1,552,1730,0,0
-665,-706,0,0,0,0,0,0,0,0,0,-1,559,1730,0,0
-658,-706,0,0,0,0,0,0,0,0,0,-1,566,1730,0,0
-651,-706,0,0,0,0,0,0,0,0,0,-1,573,1730,0,0
-644,-706,0,0,0,0,0,0,0,0,0,-1,580,1730,0,0
-637,-706,0,0,0,0,0,0,0,0,0,-1,587,1730,0,0
-630,-706,0,0,0,0,0,0,0,0,0,-1,594,1730,0,0
-623,-706,0,0,0,0,0,0,0,0,0,-1,601,1730,0,0
-616,-706,0,0,0,0,0,0,0,0,0,-1,608,1730,0,0
-609,-706,0,0,0,0,0,0,0,0,0,-1,615,1730,0,0
-602,-706,0,0,0,0,0,0,0,0,0,-1,622,1730,0,0
-595,-706,0,0,0,0,0,0,0,0,0,-1,629,1730,0,0
-588,-706,0,0,0,0,0,0,0,0,0,-1,636,1730,0,0
-581,-706,0,0,0,0,0,0,0,0,0,-1,643,1730,0,0
-574,-706,0,0,0,0,0,0,0,0,0,-1,650,1730,0,0
-567,-706,0,0,0,0,0,0,0,0,0,-1,657,1730,0,0
-560,-706,0,0,0,0,0,0,0,0,0,-1,664,1730,0,0
-553,-706,0,0,0,0,0,0,0,0,0,-1,671,1730,0,0
-546,-706,0,0,0,0,0,0,0,0,0,-1,678,1730,0,0
-539,-706,0,0,0,0,0,0,0,0,0,-1,685,1730,0,0
-532,-706,0,0,0,0,0,0,0,0,0,-1,692,1730,0,0
-525,-706,0,0,0,0,0,0,0,0,0,-1,699,1730,0,0
-518,-706,0,0,0,0,0,0,0,0,0,-1,706,1730,0,0
-511,-706,0,0,0,0,0,0,0,0,0,-1,713,1730,0,0
-504,-706,0,0,0,0,0,0,0,0,0,-1,720,1730,0,0
-497,-706,0,0,0,0,0,0,0,0,0,-1,727,1730,0,0
-490,-706,0,0,0,0,0,0,0,0,0,-1,734,1730,0,0
-483,-706,0,0,0,0,0,0,0,0,0,-1,741,1730,0,0
-476,-706,0,0,0,0,0,0,0,0,0,-1,748,1730,0,0
-469,-706,0,0,0,0,0,0,0,0,0,-1,755,1730,0,0
-462,-706,0,0,0,0,0,0,0,0,0,-1,762,1730,0,0
-455,-706,0,0,0,0,0,0,0,0,0,-1,769,1730,0,0
-448,-706,0,0,0,0,0,0,0,0,0,-1,776,1730,0,0
-441,-706,0,0,0,0,0,0,0,0,0,-1,783,1730,0,0
-434,-706,0,0,0,0,0,0,0,0,0,-1,790,1730,0,0
-427,-706,0,0,0,0,0,0,0,0,0,-1,797,1730,0,0
-420,-706,0,0,0,0,0,0,0,0,0,-1,804,1730,0,0
-413,-706,0,0,0,0,0,0,0,0,0,-1,811,1730,0,0
-406,-706,0,0,0,0,0,0,0,0,0,-1,818,1730,0,0
-399,-706,0,0,0,0,0,0,0,0,0,-1,825,1730,0,0
-392,-706,0,0,0,0,0,0,0,0,0,-1,832,1730,0,0
-385,-706,0,0,0,0,0,0,0,0,0,-1,839,1730,0,0
-378,-706,0,0,0,0,0,0,0,0,0,-1,846,1730,0,0
-371,-706,0,0,0,0,0,0,0,0,0,-1,853,1730,0,0
-364,-706,0,0,0,0,0,0,0,0,0,-1,860,1730,0,0
-357,-706,0,0,0,0,0,0,0,0,0,-1,867,1730,0,0
-350,-706,0,0,0,0,0,0,0,0,0,-1,874,1730,0,0
-343,-706,0,0,0,0,0,0,0,0,0,-1,881,1730,0,0
-336,-706,0,0,0,0,0,0,0,0,0,-1,888,1730,0,0
-329,-706,0,0,0,0,0,0,0,0,0,-1,895,1730,0,0
-322,-706,0,0,0,0,0,0,0,0,0,-1,902,1730,0,0
-315,-706,0,0,0,0,0,0,0,0,0,-1,909,1730,0,0
-308,-706,5.08191,14.6245,0,0,0,0,0,0,0,-1,916,1730,5.08188,-14.6245
-301,-706,7.45007,21.1975,0,0,0,0,0,0,0,-1,923,1730,7.45005,-21.1976
-294,-706,11.8603,21.026,0,0,0,0,0,0,0,-1,930,1730,11.8603,-21.026
-287,-706,10.3292,20.8425,0,0,0,0,0,0,0,-1,937,1730,10.3292,-20.8425
-280,-706,7.9162,21.8951,0,0,0,0,0,0,0,-1,944,1730,7.9162,-21.8952
-273,-706,7.38953,20.6355,0,0,0,0,0,0,0,-1,951,1730,7.38955,-20.6355
-266,-706,9.66724,22.8231,0,0,0,0,0,0,0,-1,958,1730,9.66722,-22.8231
-259,-706,3.47852,20.7363,0,0,0,0,0,0,0,-1,965,1730,3.47851,-20.7364
-252,-706,3.84259,20.1979,0,0,0,0,0,0,0,-1,972,1730,3.84256,-20.1979
-245,-706,4.698,19.2992,0,0,0,0,0,0,0,-1,979,1730,4.69799,-19.2991
-238,-706,7.07745,28.6687,0,0,0,0,0,0,0,-1,986,1730,7.07745,-28.6687
-231,-706,7.55292,28.7523,0,0,0,0,0,0,0,-1,993,1730,7.55293,-28.7524
-224,-706,7.46875,28.8765,0,0,0,0,0,0,0,-1,1000,1730,7.46878,-28.8765
-217,-706,7.32941,28.7888,0,0,0,0,0,0,0,-1,1007,1730,7.32943,-28.7889
-210,-706,7.14185,29.0178,0,0,0,0,0,0,0,-1,1014,1730,7.14186,-29.0179
-203,-706,7.32129,29.6965,-0.00392421,-0.00387184,-0.00288007,-0.00101784,-0.00677821,-0.789944,0.00422064,0.0305228,1021,1730,7.32133,-29.6965
-196,-706,7.31848,29.9359,-0.00292106,-0.0038424,-0.00205778,-0.00127301,-0.00549045,-0.67528,0.00331838,0.024799,1028,1730,7.31849,-29.936
-189,-706,7.20874,30.2393,-0.00206634,-0.00375668,-0.00157007,-0.00112842,-0.0046946,-0.53849,0.00282962,0.0182214,1035,1730,7.2087,-30.2393
-182,-706,7.15991,30.5663,-0.00158676,-0.00334023,-0.00106498,-0.00108406,-0.00384294,-0.441023,0.00228788,0.0147587,1042,1730,7.1599,-30.5662
-175,-706,7.17871,30.8607,-0.00127943,-0.00273833,-0.000560047,-0.00108923,-0.00292853,-0.327386,0.00170917,0.0159444,1049,1730,7.1787,-30.8607
-168,-706,7.17896,31.1113,-0.00100162,-0.00223722,-0.000110423,-0.000991833,-0.00224701,-0.0884339,0.00130028,0.0166797,1056,1730,7.17898,-31.1113
-161,-706,7.15161,31.3536,-0.000870097,-0.001655,0.000116054,-0.000853297,-0.0016718,0.143761,0.000965281,0.0135591,1063,1730,7.15157,-31.3537
-154,-706,7.14319,31.6338,-0.000766399,-0.000836172,0.000271364,-0.000527688,-0.00107488,0.721468,0.000620618,0.0129323,1070,1730,7.14325,-31.6338
-147,-706,7.10486,31.8689,-0.000658659,-1.35974e-05,0.000477647,0.000240216,-0.000912473,1.08236,0.000702219,0.0122982,1077,1730,7.1049,-31.8689
-140,-706,7.09314,32.1069,-0.000419719,0.000945072,0.000593224,0.00116688,-0.000641524,1.21299,0.00105866,0.0106283,1084,1730,7.09313,-32.107
-133,-706,7.09595,32.3322,-0.000189065,0.00174819,0.000537782,0.00188746,-0.000328341,1.31738,0.00138083,0.00824185,1091,1730,7.0959,-32.3322
-126,-706,7.073,32.5256,-0.000238547,0.00256712,0.000421528,0.00262909,-0.00030051,1.42485,0.001861,0.0128384,1098,1730,7.073,-32.5256
-119,-706,7.05603,32.7196,-0.000217733,0.00307218,0.00041833,0.00312454,-0.000270092,1.44628,0.00217865,0.0175007,1105,1730,7.05608,-32.7196
-112,-706,7.08167,33.0151,8.53465e-05,0.00335626,0.000427957,0.00341132,3.02807e-05,1.44283,0.00226419,0.0125619,1112,1730,7.08161,-33.0151
-105,-706,7.07813,33.2446,0.000359907,0.00340783,0.000303565,0.00343777,0.000329967,1.47249,0.00219016,0.00974629,1119,1730,7.07818,-33.2447
-98,-706,7.09619,33.4211,0.000459316,0.00334934,0.000257204,0.00337206,0.000436604,1.48272,0.00211756,0.0116195,1126,1730,7.09614,-33.4212
-91,-706,7.09094,33.6041,0.000590963,0.00319626,0.000177393,0.00320828,0.00057894,1.50312,0.00197437,0.0145475,1133,1730,7.09099,-33.6041
-84,-706,7.0658,33.7852,0.000808743,0.00288823,6.09795e-05,0.00289002,0.000806956,1.54151,0.00172192,0.0167565,1140,1730,7.06579,-33.7852
-77,-706,7.07825,33.9637,0.00108136,0.00260798,-0.000159086,0.00262438,0.00106495,-1.46806,0.00152412,0.0161872,1147,1730,7.07827,-33.9638
-70,-706,7.06824,34.1572,0.00124944,0.00213694,-0.000438096,0.00231676,0.00106962,-1.1813,0.00133889,0.0176498,1154,1730,7.06821,-34.1572
-63,-706,7.06982,34.2987,0.00113129,0.00192305,-0.000294869,0.0020208,0.00103355,-1.2507,0.00116681,0.0132151,1161,1730,7.06979,-34.2987
-56,-706,7.10315,34.4407,0.000724697,0.00202842,-0.000240691,0.00207143,0.00068168,-1.39394,0.00121901,0.0131077,1168,1730,7.10318,-34.4407
-49,-706,7.10156,34.6095,0.000350035,0.00295393,-0.000332447,0.00299571,0.000308261,-1.44579,0.00190273,0.0126098,1175,1730,7.10153,-34.6095
-42,-706,7.09875,34.7705,0.00153691,0.00445833,-0.000817389,0.00467147,0.00132376,-1.31571,0.00278017,0.0169681,1182,1730,7.09874,-34.7705
-35,-706,7.12781,34.8577,0.00354594,0.00564159,-0.000568145,0.00578571,0.00340183,-1.32237,0.00335757,0.0160587,1189,1730,7.12775,-34.8577
-28,-706,7.16516,34.9476,0.00479018,0.00676718,-0.000626724,0.00694911,0.00460825,-1.28827,0.00408264,0.0100857,1196,1730,7.16514,-34.9476
-21,-706,7.17712,35.0471,0.00570666,0.00795879,-0.000498944,0.00806438,0.00560107,-1.36225,0.004772,0.0106706,1203,1730,7.17711,-35.0471
-14,-706,7.20251,35.1536,0.00670511,0.00932109,-0.000211974,0.00933816,0.00668805,-1.49046,0.00555686,0.0107818,1210,1730,7.20247,-35.1536
-7,-706,7.22363,35.2703,0.00774341,0.0107732,0.000327145,0.0108081,0.00770849,1.46445,0.00642641,0.00868004,1217,1730,7.22359,-35.2703
0,-706,7.24829,35.3649,0.00867638,0.0124239,0.000999368,0.0126738,0.00842654,1.32581,0.00744865,0.0117792,1224,1730,7.24834,-35.3649
7,-706,7.26978,35.4218,0.00928749,0.013889,0.00171756,0.0144594,0.0087171,1.25016,0.00840683,0.0138833,1231,1730,7.26981,-35.4217
14,-706,7.29065,35.4955,0.00960269,0.0154348,0.00259496,0.0164222,0.00861526,1.2072,0.00948521,0.0139191,1238,1730,7.29064,-35.4955
21,-706,7.30103,35.5552,0.00960331,0.0167945,0.00340304,0.0181496,0.00824825,1.19185,0.0104931,0.011329,1245,1730,7.30106,-35.5552
28,-706,7.33459,35.5988,0.0093211,0.0180313,0.00413339,0.0196805,0.00767189,1.19115,0.0114541,0.0113184,1252,1730,7.33465,-35.5988
35,-706,7.37268,35.6488,0.00884582,0.0189907,0.00469851,0.0208324,0.0070041,1.19722,0.0122408,0.0136016,1259,1730,7.37274,-35.6488
42,-706,7.40356,35.698,0.00828561,0.0194128,0.00515728,0.0214354,0.00626296,1.19704,0.0127271,0.0125287,1266,1730,7.40359,-35.6979
49,-706,7.44141,35.723,0.00769308,0.0194469,0.00523844,0.0214427,0.00569729,1.20679,0.012825,0.0142828,1273,1730,7.44145,-35.7231
56,-706,7.47656,35.7428,0.0071767,0.0189968,0.00496435,0.0208051,0.00536837,1.22147,0.0124719,0.0136323,1280,1730,7.47662,-35.7428
63,-706,7.49731,35.738,0.00632794,0.0177467,0.00458032,0.0193569,0.00471774,1.23274,0.0116548,0.0115274,1287,1730,7.49729,-35.7381
70,-706,7.52075,35.7314,0.00540967,0.0162796,0.00386548,0.017514,0.00417524,1.26169,0.010563,0.0118362,1294,1730,7.52078,-35.7314
77,-706,7.54626,35.7279,0.00515301,0.0145754,0.00325435,0.0155902,0.00413829,1.26854,0.00932528,0.0102056,1301,1730,7.54623,-35.7279
84,-706,7.57202,35.7159,0.00530699,0.012505,0.00261917,0.0133572,0.00445483,1.25624,0.00785298,0.00878313,1308,1730,7.57196,-35.716
91,-706,7.62073,35.7028,0.00542344,0.0100746,0.00213314,0.0109047,0.0045933,1.19966,0.00632185,0.0101852,1315,1730,7.62073,-35.7027
98,-706,7.63831,35.6899,0.0053834,0.00846744,0.00175197,0.00925935,0.00459149,1.14627,0.00534595,0.0145176,1322,1730,7.63833,-35.6899
105,-706,7.6676,35.6726,0.00540775,0.00664117,0.0016413,0.0077778,0.00427113,0.96511,0.00449774,0.0164706,1329,1730,7.66759,-35.6727
112,-706,7.67554,35.6217,0.0054831,0.00541476,0.00189427,0.00734351,0.00355435,0.776379,0.0042405,0.0157989,1336,1730,7.67551,-35.6217
119,-706,7.68518,35.5813,0.00534805,0.00441534,0.00220462,0.0071351,0.00262829,0.681166,0.00416677,0.0138149,1343,1730,7.68513,-35.5813
126,-706,7.72437,35.5188,0.00512871,0.00396642,0.00268006,0.00728991,0.00180522,0.678631,0.0043839,0.0149346,1350,1730,7.72442,-35.5188
133,-706,7.75427,35.4288,0.00486342,0.00372091,0.00308836,0.00743292,0.00115141,0.693947,0.00461955,0.0122037,1357,1730,7.75425,-35.4288
140,-706,7.78723,35.3315,0.00455778,0.00375309,0.00337449,0.00755383,0.000757039,0.726063,0.00480347,0.0123531,1364,1730,7.78728,-35.3316
147,-706,7.84143,35.2323,0.00423115,0.00371245,0.00335208,0.0073339,0.000609699,0.74679,0.00469924,0.0220658,1371,1730,7.84138,-35.2323
154,-706,7.83936,35.1337,0.00385338,0.00343664,0.00340393,0.00705531,0.000234709,0.754829,0.00462729,0.020299,1378,1730,7.83932,-35.1337
161,-706,7.83459,35.0372,0.00349062,0.00308857,0.00359197,0.00688719,-0.000308003,0.757445,0.00469749,0.0103387,1385,1730,7.83454,-35.0372
168,-706,7.84485,34.9227,0.00304238,0.00298925,0.00363375,0.00664966,-0.000618032,0.781742,0.00465282,0.00993529,1392,1730,7.84479,-34.9228
175,-706,7.87097,34.8,0.00265116,0.00295846,0.00320705,0.00601554,-0.000405916,0.809334,0.00415228,0.00994894,1399,1730,7.87098,-34.8
182,-706,7.87451,34.6595,0.002393,0.00273959,0.00256886,0.00514099,-8.40612e-06,0.819077,0.00343013,0.0105959,1406,1730,7.87453,-34.6596
189,-706,7.87219,34.5225,0.00201846,0.00254401,0.00177851,0.00407905,0.00048342,0.858742,0.00257341,0.013822,1413,1730,7.87216,-34.5224
196,-706,7.88367,34.3705,0.00180169,0.0025533,0.000946964,0.0031963,0.00115869,0.974292,0.0018685,0.0127443,1420,1730,7.88361,-34.3704
203,-706,7.8739,34.223,0.00167297,0.000271772,0.000443872,0.00180175,0.000142998,0.282365,0.00115645,0.0135119,1427,1730,7.87396,-34.223
210,-706,7.89099,34.0647,0.00134339,0.000422928,0.000262311,0.00141289,0.000353423,0.259018,0.000849005,0.0125153,1434,1730,7.891,-34.0647
217,-706,7.92407,33.9148,0.000990995,0.000493776,1.22096e-05,0.000991294,0.000493476,0.0245361,0.000572326,0.0133481,1441,1730,7.92404,-33.9148
224,-706,7.9314,33.7411,0.000768398,0.000657679,-9.31734e-05,0.000821417,0.00060466,-0.517342,0.000491556,0.0185147,1448,1730,7.93141,-33.7411
231,-706,7.93335,33.5496,0.000519072,0.000830361,-0.000177973,0.000911148,0.000438285,-1.14468,0.000526178,0.0141497,1455,1730,7.93341,-33.5496
238,-706,7.91394,33.3546,0.000432627,0.00110497,-0.000164179,0.00114292,0.000394678,-1.34364,0.000670308,0.00930956,1462,1730,7.91389,-33.3546
245,-706,7.92053,33.1388,0.000471999,0.0013861,-0.000116131,0.00140062,0.000457476,-1.44639,0.000824696,0.0120527,1469,1730,7.92058,-33.1387
252,-706,7.92322,32.9551,0.000502128,0.00168669,-0.000117579,0.00169825,0.00049057,-1.47281,0.0010092,0.0113627,1476,1730,7.92322,-32.955
259,-706,7.92139,32.7662,0.000494535,0.00201147,-0.000135969,0.00202356,0.000482444,-1.4821,0.00122044,0.0121251,1483,1730,7.92139,-32.7663
266,-706,7.90466,32.5703,0.000352348,0.00257142,-0.000131162,0.00257914,0.000344623,-1.51196,0.00161684,0.0128619,1490,1730,7.90472,-32.5703
273,-706,7.89099,32.3484,0.000306612,0.0033383,-0.000250005,0.00335878,0.000286133,-1.48907,0.00215016,0.0121125,1497,1730,7.89096,-32.3484
280,-706,7.89441,32.0865,0.0001598,0.00405858,-0.000437657,0.0041071,0.000111274,-1.46037,0.00270174,0.01068,1504,1730,7.89439,-32.0866
287,-706,7.88232,31.8429,-7.19914e-05,0.00508398,-0.000703103,0.00517814,-0.000166151,-1.43767,0.00350879,0.0116341,1511,1730,7.88226,-31.8429
294,-706,7.86462,31.6133,-0.000387305,0.00635238,-0.00101226,0.00650113,-0.000536057,-1.42489,0.00452337,0.011196,1518,1730,7.86458,-31.6133
301,-706,7.84839,31.3597,-0.000765283,0.00762013,-0.00143662,0.00785943,-0.00100458,-1.40574,0.00560457,0.0103281,1525,1730,7.84843,-31.3597
308,-706,7.83521,31.0947,-0.00123597,0.00839854,-0.00185697,0.00874406,-0.00158149,-1.38683,0.00642178,0.0123009,1532,1730,7.83519,-31.0947
315,-706,7.82239,30.8519,-0.00174164,0.00920245,-0.0022498,0.00964689,-0.00218608,-1.37576,0.00727035,0.0198694,1539,1730,7.82242,-30.852
322,-706,7.76648,30.6505,-0.0022537,0.0101153,-0.00254525,0.0106186,-0.00275697,-1.37558,0.00815491,0.0281064,1546,1730,7.76648,-30.6505
329,-706,7.81067,30.2883,-0.00262422,0.0105996,-0.00267949,0.0111219,-0.00314652,-1.37828,0.00865623,0.0275997,1553,1730,7.81069,-30.2884
336,-706,7.74182,29.8441,-0.00272173,0.0104381,-0.00276859,0.0109968,-0.00328047,-1.37166,0.00863497,0.0390689,1560,1730,7.74185,-29.8441
343,-706,7.73364,29.5531,-0.00290722,0.00958723,-0.00281601,0.0101926,-0.00351257,-1.35905,0.00822,0.041016,1567,1730,7.73359,-29.5531
350,-706,7.85352,29.3098,-0.00294214,0.0082129,-0.00249736,0.00874648,-0.00347571,-1.3603,0.00727192,0.048004,1574,1730,7.85352,-29.3098
357,-706,8.08765,28.9797,0,0,0,0,0,0,0,-1,1581,1730,8.08762,-28.9798
364,-706,7.50439,29.4003,0,0,0,0,0,0,0,-1,1588,1730,7.50436,-29.4003
371,-706,6.27881,24.0759,0,0,0,0,0,0,0,-1,1595,1730,6.27883,-24.0759
378,-706,4.80444,25.0989,0,0,0,0,0,0,0,-1,1602,1730,4.80445,-25.0989
385,-706,5.55212,24.9753,0,0,0,0,0,0,0,-1,1609,1730,5.55214,-24.9753
392,-706,6.2998,24.8518,0,0,0,0,0,0,0,-1,1616,1730,6.29983,-24.8518
399,-706,3.9502,25.5428,0,0,0,0,0,0,0,-1,1623,1730,3.95019,-25.5428
406,-706,6.04211,18.8085,0,0,0,0,0,0,0,-1,1630,1730,6.04216,-18.8085
413,-706,6.23413,20.7725,0,0,0,0,0,0,0,-1,1637,1730,6.23413,-20.7725
420,-706,6.51294,21.9171,0,0,0,0,0,0,0,-1,1644,1730,6.51292,-21.9171
427,-706,0,0,0,0,0,0,0,0,0,-1,1651,1730,0,0
434,-706,0,0,0,0,0,0,0,0,0,-1,1658,1730,0,0
441,-706,0,0,0,0,0,0,0,0,0,-1,1665,1730,0,0
448,-706,0,0,0,0,0,0,0,0,0,-1,1672,1730,0,0
455,-706,0,0,0,0,0,0,0,0,0,-1,1679,1730,0,0
462,-706,0,0,0,0,0,0,0,0,0,-1,1686,1730,0,0
469,-706,0,0,0,0,0,0,0,0,0,-1,1693,1730,0,0
476,-706,0,0,0,0,0,0,0,0,0,-1,1700,1730,0,0
483,-706,0,0,0,0,0,0,0,0,0,-1,1707,1730,0,0
490,-706,0,0,0,0,0,0,0,0,0,-1,1714,1730,0,0
497,-706,0,0,0,0,0,0,0,0,0,-1,1721,1730,0,0
504,-706,0,0,0,0,0,0,0,0,0,-1,1728,1730,0,0
511,-706,0,0,0,0,0,0,0,0,0,-1,1735,1730,0,0
518,-706,0,0,0,0,0,0,0,0,0,-1,1742,1730,0,0
525,-706,0,0,0,0,0,0,0,0,0,-1,1749,1730,0,0
532,-706,0,0,0,0,0,0,0,0,0,-1,1756,1730,0,0
539,-706,0,0,0,0,0,0,0,0,0,-1,1763,1730,0,0
546,-706,0,0,0,0,0,0,0,0,0,-1,1770,1730,0,0
553,-706,0,0,0,0,0,0,0,0,0,-1,1777,1730,0,0
560,-706,0,0,0,0,0,0,0,0,0,-1,1784,1730,0,0
567,-706,0,0,0,0,0,0,0,0,0,-1,1791,1730,0,0
574,-706,0,0,0,0,0,0,0,0,0,-1,1798,1730,0,0
581,-706,0,0,0,0,0,0,0,0,0,-1,1805,1730,0,0
588,-706,0,0,0,0,0,0,0,0,0,-1,1812,1730,0,0
595,-706,0,0,0,0,0,0,0,0,0,-1,1819,1730,0,0
602,-706,0,0,0,0,0,0,0,0,0,-1,1826,1730,0,0
609,-706,0,0,0,0,0,0,0,0,0,-1,1833,1730,0,0
616,-706,0,0,0,0,0,0,0,0,0,-1,1840,1730,0,0
623,-706,0,0,0,0,0,0,0,0,0,-1,1847,1730,0,0
630,-706,0,0,0,0,0,0,0,0,0,-1,1854,1730,0,0
637,-706,0,0,0,0,0,0,0,0,0,-1,1861,1730,0,0
644,-706,0,0,0,0,0,0,0,0,0,-1,1868,1730,0,0
651,-706,0,0,0,0,0,0,0,0,0,-1,1875,1730,0,0
658,-706,0,0,0,0,0,0,0,0,0,-1,1882,1730,0,0
665,-706,0,0,0,0,0,0,0,0,0,-1,1889,1730,0,0
672,-706,0,0,0,0,0,0,0,0,0,-1,1896,1730,0,0
679,-706,0,0,0,0,0,0,0,0,0,-1,1903,1730,0,0
686,-706,0,0,0,0,0,0,0,0,0,-1,1910,1730,0,0
693,-706,0,0,0,0,0,0,0,0,0,-1,1917,1730,0,0
700,-706,0,0,0,0,0,0,0,0,0,-1,1924,1730,0,0
707,-706,0,0,0,0,0,0,0,0,0,-1,1931,1730,0,0
714,-706,0,0,0,0,0,0,0,0,0,-1,1938,1730,0,0
721,-706,0,0,0,0,0,0,0,0,0,-1,1945,1730,0,0
728,-706,0,0,0,0,0,0,0,0,0,-1,1952,1730,0,0
735,-706,0,0,0,0,0,0,0,0,0,-1,1959,1730,0,0
742,-706,0,0,0,0,0,0,0,0,0,-1,1966,1730,0,0
749,-706,0,0,0,0,0,0,0,0,0,-1,1973,1730,0,0
756,-706,0,0,0,0,0,0,0,0,0,-1,1980,1730,0,0
763,-706,0,0,0,0,0,0,0,0,0,-1,1987,1730,0,0
770,-706,0,0,0,0,0,0,0,0,0,-1,1994,1730,0,0
777,-706,0,0,0,0,0,0,0,0,0,-1,2001,1730,0,0
784,-706,0,0,0,0,0,0,0,0,0,-1,2008,1730,0,0
791,-706,0,0,0,0,0,0,0,0,0,-1,2015,1730,0,0
798,-706,0,0,0,0,0,0,0,0,0,-1,2022,1730,0,0
805,-706,0,0,0,0,0,0,0,0,0,-1,2029,1730,0,0
812,-706,0,0,0,0,0,0,0,0,0,-1,2036,1730,0,0
-700,-713,0,0,0,0,0,0,0,0,0,-1,524,1737,0,0
-693,-713,0,0,0,0,0,0,0,0,0,-1,531,1737,0,0
-686,-713,0,0,0,0,0,0,0,0,0,-1,538,1737,0,0
-679,-713,0,0,0,0,0,0,0,0,0,-1,545,1737,0,0
-672,-713,0,0,0,0,0,0,0,0,0,-1,552,1737,0,0
-665,-713,0,0,0,0,0,0,0,0,0,-1,559,1737,0,0
-658,-713,0,0,0,0,0,0,0,0,0,-1,566,1737,0,0
-651,-713,0,0,0,0,0,0,0,0,0,-1,573,1737,0,0
-644,-713,0,0,0,0,0,0,0,0,0,-1,580,1737,0,0
-637,-713,0,0,0,0,0,0,0,0,0,-1,587,1737,0,0
-630,-713,0,0,0,0,0,0,0,0,0,-1,594,1737,0,0
-623,-713,0,0,0,0,0,0,0,0,0,-1,601,1737,0,0
-616,-713,0,0,0,0,0,0,0,0,0,-1,608,1737,0,0
-609,-713,0,0,0,0,0,0,0,0,0,-1,615,1737,0,0
-602,-713,0,0,0,0,0,0,0,0,0,-1,622,1737,0,0
-595,-713,0,0,0,0,0,0,0,0,0,-1,629,1737,0,0
-588,-713,0,0,0,0,0,0,0,0,0,-1,636,1737,0,0
-581,-713,0,0,0,0,0,0,0,0,0,-1,643,1737,0,0
-574,-713,0,0,0,0,0,0,0,0,0,-1,650,1737,0,0
-567,-713,0,0,0,0,0,0,0,0,0,-1,657,1737,0,0
-560,-713,0,0,0,0,0,0,0,0,0,-1,664,1737,0,0
-553,-713,0,0,0,0,0,0,0,0,0,-1,671,1737,0,0
-546,-713,0,0,0,0,0,0,0,0,0,-1,678,1737,0,0
-539,-713,0,0,0,0,0,0,0,0,0,-1,685,1737,0,0
-532,-713,0,0,0,0,0,0,0,0,0,-1,692,1737,0,0
-525,-713,0,0,0,0,0,0,0,0,0,-1,699,1737,0,0
-518,-713,0,0,0,0,0,0,0,0,0,-1,706,1737,0,0
-511,-713,0,0,0,0,0,0,0,0,0,-1,713,1737,0,0
-504,-713,0,0,0,0,0,0,0,0,0,-1,720,1737,0,0
-497,-713,0,0,0,0,0,0,0,0,0,-1,727,1737,0,0
-490,-713,0,0,0,0,0,0,0,0,0,-1,734,1737,0,0
-483,-713,0,0,0,0,0,0,0,0,0,-1,741,1737,0,0
-476,-713,0,0,0,0,0,0,0,0,0,-1,748,1737,0,0
-469,-713,0,0,0,0,0,0,0,0,0,-1,755,1737,0,0
-462,-713,0,0,0,0,0,0,0,0,0,-1,762,1737,0,0
-455,-713,0,0,0,0,0,0,0,0,0,-1,769,1737,0,0
-448,-713,0,0,0,0,0,0,0,0,0,-1,776,1737,0,0
-441,-713,0,0,0,0,0,0,0,0,0,-1,783,1737,0,0
-434,-713,0,0,0,0,0,0,0,0,0,-1,790,1737,0,0
-427,-713,0,0,0,0,0,0,0,0,0,-1,797,1737,0,0
-420,-713,0,0,0,0,0,0,0,0,0,-1,804,1737,0,0
-413,-713,0,0,0,0,0,0,0,0,0,-1,811,1737,0,0
-406,-713,0,0,0,0,0,0,0,0,0,-1,818,1737,0,0
-399,-713,0,0,0,0,0,0,0,0,0,-1,825,1737,0,0
-392,-713,0,0,0,0,0,0,0,0,0,-1,832,1737,0,0
-385,-713,0,0,0,0,0,0,0,0,0,-1,839,1737,0,0
-378,-713,0,0,0,0,0,0,0,0,0,-1,846,1737,0,0
-371,-713,0,0,0,0,0,0,0,0,0,-1,853,1737,0,0
-364,-713,0,0,0,0,0,0,0,0,0,-1,860,1737,0,0
-357,-713,0,0,0,0,0,0,0,0,0,-1,867,1737,0,0
-350,-713,0,0,0,0,0,0,0,0,0,-1,874,1737,0,0
-343,-713,0,0,0,0,0,0,0,0,0,-1,881,1737,0,0
-336,-713,0,0,0,0,0,0,0,0,0,-1,888,1737,0,0
-329,-713,0,0,0,0,0,0,0,0,0,-1,895,1737,0,0
-322,-713,0,0,0,0,0,0,0,0,0,-1,902,1737,0,0
-315,-713,0,0,0,0,0,0,0,0,0,-1,909,1737,0,0
-308,-713,0,0,0,0,0,0,0,0,0,-1,916,1737,0,0
-301,-713,0,0,0,0,0,0,0,0,0,-1,923,1737,0,0
-294,-713,7.17883,22.0453,0,0,0,0,0,0,0,-1,930,1737,7.17881,-22.0453
-287,-713,11.8916,21.5834,0,0,0,0,0,0,0,-1,937,1737,11.8916,-21.5833
-280,-713,10.2786,21.3551,0,0,0,0,0,0,0,-1,944,1737,10.2787,-21.3551
-273,-713,11.1981,23.8683,0,0,0,0,0,0,0,-1,951,1737,11.198,-23.8683
-266,-713,3.17981,19.8851,0,0,0,0,0,0,0,-1,958,1737,3.17983,-19.8851
-259,-713,3.5921,19.6868,0,0,0,0,0,0,0,-1,965,1737,3.59207,-19.6868
-252,-713,4.55469,20.5758,0,0,0,0,0,0,0,-1,972,1737,4.55466,-20.5758
-245,-713,3.89014,25.9825,0,0,0,0,0,0,0,-1,979,1737,3.89013,-25.9826
-238,-713,6.62506,30.5463,0,0,0,0,0,0,0,-1,986,1737,6.62509,-30.5462
-231,-713,7.10999,28.2686,0,0,0,0,0,0,0,-1,993,1737,7.10999,-28.2685
-224,-713,7.59491,25.9907,0,0,0,0,0,0,0,-1,1000,1737,7.59488,-25.9908
-217,-713,7.56012,28.5249,0,0,0,0,0,0,0,-1,1007,1737,7.56012,-28.5249
-210,-713,7.62115,29.4189,0,0,0,0,0,0,0,-1,1014,1737,7.62113,-29.419
-203,-713,7.96997,29.6509,-0.00419521,-0.00559458,-0.00404355,-0.000791252,-0.00899854,-0.699728,0.00575344,0.0460822,1021,1737,7.96994,-29.6509
-196,-713,7.94775,30.0679,-0.00300028,-0.00553568,-0.00284364,-0.00115457,-0.00738139,-0.575719,0.00458479,0.0480117,1028,1737,7.94771,-30.0679
-189,-713,7.48425,30.2501,-0.00207345,-0.00528386,-0.0021522,-0.000993764,-0.00636355,-0.464981,0.00395297,0.0455617,1035,1737,7.48429,-30.2501
-182,-713,7.3324,30.481,-0.00163117,-0.00460479,-0.00144747,-0.00104294,-0.00519302,-0.385997,0.00317204,0.0303924,1042,1737,7.3324,-30.481
-175,-713,7.45435,30.6968,-0.00141877,-0.00379302,-0.000757794,-0.00119752,-0.00401427,-0.28407,0.00237966,0.0302582,1049,1737,7.45431,-30.6968
-168,-713,7.64172,30.9486,-0.00125228,-0.00323313,-0.000179758,-0.0012361,-0.00324932,-0.0897703,0.00189379,0.0384547,1056,1737,7.64173,-30.9486
-161,-713,7.44324,31.339,-0.00126045,-0.00258806,7.87979e-05,-0.00125579,-0.00259272,0.0590767,0.00149715,0.0188553,1063,1737,7.44325,-31.339
-154,-713,7.35876,31.6394,-0.00129902,-0.00176529,0.000260714,-0.00118241,-0.00188191,0.420593,0.00109838,0.0126826,1070,1737,7.35878,-31.6394
-147,-713,7.32568,31.8959,-0.00130562,-0.000944853,0.000516484,-0.00057816,-0.00167232,0.953404,0.000980713,0.0183085,1077,1737,7.32565,-31.8959
-140,-713,7.33972,32.1198,-0.00113446,4.69262e-05,0.00065742,0.000340044,-0.00142757,1.15139,0.00108301,0.0173749,1084,1737,7.33977,-32.1198
-133,-713,7.31714,32.3264,-0.000970135,0.000855926,0.000593997,0.00103214,-0.00114635,1.28241,0.00125833,0.0110988,1091,1737,7.31713,-32.3264
-126,-713,7.302,32.5378,-0.00117569,0.00171093,0.000450527,0.00177961,-0.00124437,1.41951,0.00175499,0.0170283,1098,1737,7.30201,-32.5379
-119,-713,7.2771,32.7153,-0.00127642,0.00222778,0.00047618,0.00229134,-0.00133998,1.43811,0.00212039,0.0237476,1105,1737,7.27713,-32.7153
-112,-713,7.27002,33.0177,-0.0009635,0.00253849,0.000537476,0.00261912,-0.00104413,1.42188,0.00217917,0.0124167,1112,1737,7.27002,-33.0176
-105,-713,7.28748,33.234,-0.0006494,0.00264872,0.000424869,0.00270258,-0.000703253,1.44472,0.00207622,0.0104838,1119,1737,7.2875,-33.234
-98,-713,7.29077,33.4298,-0.000555135,0.00269336,0.000428867,0.00274903,-0.0006108,1.44172,0.0020666,0.0104216,1126,1737,7.29073,-33.4299
-91,-713,7.25903,33.5966,-0.00041762,0.00267944,0.000416789,0.00273455,-0.000472729,1.43934,0.00199932,0.00996594,1133,1737,7.25899,-33.5966
-84,-713,7.24231,33.7651,-0.000225136,0.00254507,0.000427563,0.00260956,-0.000289627,1.42109,0.00184385,0.00924579,1140,1737,7.24232,-33.7651
-77,-713,7.26477,33.9523,8.58356e-05,0.0023473,0.000319704,0.00239163,4.15079e-05,1.43302,0.00158077,0.0126978,1147,1737,7.26478,-33.9523
-70,-713,7.26196,34.1338,0.000329955,0.00203277,0.000104263,0.00203913,0.000323595,1.50987,0.00126543,0.0146343,1154,1737,7.26201,-34.1338
-63,-713,7.24878,34.301,0.000333291,0.00180311,-2.68487e-05,0.0018036,0.000332801,-1.55254,0.00110825,0.0131389,1161,1737,7.24878,-34.301
-56,-713,7.27087,34.4548,0.000249376,0.00172305,-8.52954e-05,0.00172798,0.000244456,-1.51317,0.00107976,0.0131157,1168,1737,7.27085,-34.4548
-49,-713,7.23804,34.5938,0.000148638,0.00204027,-0.000206597,0.00206257,0.000126337,-1.46327,0.00133493,0.0145671,1175,1737,7.23799,-34.5938
-42,-713,7.21655,34.7443,0.000673135,0.00269196,-0.000479072,0.00279988,0.000565219,-1.34923,0.00170961,0.0169601,1182,1737,7.21654,-34.7442
-35,-713,7.25232,34.8364,0.00167892,0.00339455,-0.000484806,0.00352207,0.0015514,-1.31359,0.00203827,0.0139375,1189,1737,7.25228,-34.8364
-28,-713,7.28357,34.9602,0.00241576,0.00412283,-0.000607433,0.00431691,0.00222168,-1.26154,0.00249272,0.012289,1196,1737,7.28354,-34.9602
-21,-713,7.28589,35.0739,0.00302328,0.00495453,-0.000594757,0.00512299,0.00285481,-1.29477,0.00296422,0.00918151,1203,1737,7.28586,-35.0738
-14,-713,7.29919,35.1509,0.00372873,0.00590941,-0.000419322,0.00598726,0.00365087,-1.38723,0.0034844,0.0104748,1210,1737,7.29923,-35.1509
-7,-713,7.32373,35.2583,0.00446127,0.00689295,-0.000103867,0.00689738,0.00445684,-1.52819,0.00403852,0.00923842,1217,1737,7.32373,-35.2582
0,-713,7.33569,35.3695,0.00517852,0.00800399,0.00035586,0.00804812,0.00513439,1.44742,0.00470517,0.014043,1224,1737,7.33566,-35.3695
7,-713,7.34827,35.4252,0.00574288,0.00898346,0.00091098,0.009222,0.00550435,1.3147,0.00535753,0.0177158,1231,1737,7.34822,-35.4251
14,-713,7.36157,35.5007,0.00611973,0.00994626,0.00159725,0.0105253,0.00554065,1.22299,0.00607963,0.0127188,1238,1737,7.36157,-35.5007
21,-713,7.3645,35.5636,0.00629068,0.0107044,0.00225947,0.0116559,0.00533915,1.17221,0.00673745,0.0105451,1245,1737,7.36446,-35.5636
28,-713,7.36829,35.6025,0.00628411,0.0113038,0.00288013,0.0126142,0.00497368,1.1438,0.00733686,0.0104266,1252,1737,7.36828,-35.6025
35,-713,7.39111,35.6572,0.00613835,0.01173,0.00335815,0.0133038,0.00456452,1.13253,0.00780599,0.0104874,1259,1737,7.39115,-35.6573
42,-713,7.42627,35.7094,0.00588592,0.0117858,0.00373022,0.0135916,0.00408016,1.11996,0.00805324,0.0112852,1266,1737,7.42623,-35.7093
49,-713,7.44653,35.7203,0.00558877,0.0116006,0.00385177,0.0134805,0.00370883,1.11674,0.0080411,0.0118833,1273,1737,7.44651,-35.7204
56,-713,7.46179,35.7402,0.00529914,0.0111545,0.0037299,0.0129685,0.00348514,1.11814,0.00774971,0.0123889,1280,1737,7.46173,-35.7402
63,-713,7.47083,35.7617,0.00471276,0.0101678,0.0035265,0.0118984,0.00298207,1.11456,0.0071487,0.0129404,1287,1737,7.47078,-35.7617
70,-713,7.50635,35.7551,0.0040435,0.0091549,0.00308871,0.0106082,0.00259025,1.13102,0.00638626,0.0125936,1294,1737,7.50635,-35.7551
77,-713,7.53809,35.7499,0.00380732,0.00810729,0.00269225,0.00940268,0.00251192,1.12234,0.00562144,0.0113267,1301,1737,7.53805,-35.7499
84,-713,7.56287,35.7472,0.00383301,0.00685004,0.00229149,0.00808498,0.00259807,1.0765,0.00476615,0.0114091,1308,1737,7.56286,-35.7472
91,-713,7.58044,35.7186,0.00380614,0.0053769,0.00195581,0.00669913,0.00248391,0.976325,0.00391056,0.0124203,1315,1737,7.58046,-35.7187
98,-713,7.58228,35.6858,0.0036955,0.00464781,0.00177277,0.00600726,0.00233605,0.916598,0.00349673,0.0123889,1322,1737,7.58232,-35.6858
105,-713,7.6062,35.6506,0.00365823,0.00381231,0.00172333,0.00546032,0.00201022,0.807735,0.00318884,0.0137625,1329,1737,7.60615,-35.6506
112,-713,7.62329,35.6299,0.00362819,0.00331214,0.00190601,0.00538271,0.00155762,0.744039,0.0031983,0.0143036,1336,1737,7.62325,-35.6299
119,-713,7.62805,35.5966,0.00347563,0.00293023,0.00212292,0.00534329,0.00106257,0.72152,0.00326613,0.0152921,1343,1737,7.62805,-35.5965
126,-713,7.63196,35.5388,0.00329829,0.00286243,0.00242243,0.00551258,0.000648146,0.740537,0.00347918,0.0148078,1350,1737,7.63192,-35.5389
133,-713,7.64209,35.457,0.00310516,0.00284522,0.00264818,0.00562656,0.000323821,0.760878,0.0036479,0.0130259,1357,1737,7.64215,-35.457
140,-713,7.69336,35.3663,0.00290238,0.00285317,0.00277401,0.00565189,0.000103653,0.780964,0.00373386,0.0145082,1364,1737,7.69333,-35.3663
147,-713,7.71619,35.2437,0.00267469,0.00277214,0.00267853,0.00540239,4.44418e-05,0.794492,0.00358687,0.0154261,1371,1737,7.7162,-35.2436
154,-713,7.68311,35.1553,0.00237036,0.00251086,0.00253768,0.00497926,-9.80417e-05,0.799237,0.00335266,0.014082,1378,1737,7.68314,-35.1553
161,-713,7.70142,35.0494,0.0020722,0.00217211,0.0024008,0.00452348,-0.000279167,0.795801,0.00311288,0.00995838,1385,1737,7.70142,-35.0495
168,-713,7.71106,34.9259,0.00176037,0.00205617,0.002134,0.00404739,-0.000230846,0.819996,0.00277841,0.00971376,1392,1737,7.711,-34.926
175,-713,7.73108,34.7959,0.00149744,0.00194711,0.00161969,0.0033575,8.70578e-05,0.854365,0.00220988,0.0125348,1399,1737,7.7311,-34.7958
182,-713,7.73596,34.6687,0.00130774,0.00177057,0.00104667,0.0026111,0.000467207,0.894196,0.00160779,0.0113828,1406,1737,7.73602,-34.6687
189,-713,7.73608,34.5344,0.00106973,0.00162425,0.000466409,0.00188958,0.000804391,1.05356,0.00109496,0.0110328,1413,1737,7.73612,-34.5344
196,-713,7.76721,34.3855,0.000870233,0.00165654,2.43224e-05,0.00165729,0.000869481,1.5399,0.000957223,0.0127171,1420,1737,7.76716,-34.3856
203,-713,7.74072,34.2474,0.000658598,0.00102794,-0.000227303,0.00113613,0.000550404,-1.12654,0.000656053,0.0169205,1427,1737,7.74074,-34.2475
210,-713,7.74036,34.0734,0.000319259,0.00121282,-0.000223615,0.00126565,0.000266423,-1.33877,0.000770472,0.0138701,1434,1737,7.74039,-34.0733
217,-713,7.75476,33.8994,8.20945e-05,0.00143614,-0.000343269,0.00151819,4.34811e-08,-1.33617,0.00101211,0.0116919,1441,1737,7.75474,-33.8994
224,-713,7.74768,33.7473,-0.000113681,0.00168525,-0.000377478,0.00176124,-0.000189679,-1.37212,0.00124223,0.0125006,1448,1737,7.74772,-33.7473
231,-713,7.74402,33.5647,-0.00035765,0.00191078,-0.000334597,0.0019591,-0.000405974,-1.42736,0.00146032,0.0111829,1455,1737,7.74396,-33.5647
238,-713,7.73218,33.3572,-0.000327751,0.00228938,-0.00015267,0.00229826,-0.000336627,-1.51272,0.00165583,0.00853924,1462,1737,7.73221,-33.3572
245,-713,7.73877,33.1564,-9.02494e-05,0.00264305,1.80174e-05,0.00264316,-9.03681e-05,1.5642,0.00179299,0.0112976,1469,1737,7.73878,-33.1563
252,-713,7.7312,32.9622,8.48228e-05,0.00302275,7.52849e-05,0.00302468,8.28948e-05,1.54519,0.0019894,0.0116383,1476,1737,7.73119,-32.9622
259,-713,7.73096,32.7567,0.000161297,0.00342222,9.57824e-05,0.00342503,0.000158486,1.54146,0.0022324,0.0117254,1483,1737,7.73099,-32.7567
266,-713,7.70715,32.5677,3.5151e-05,0.00415663,0.000144619,0.00416169,3.00827e-05,1.53576,0.00276449,0.0106257,1490,1737,7.70714,-32.5677
273,-713,7.67224,32.3507,7.87237e-05,0.0051339,-6.59043e-06,0.00513391,7.87152e-05,-1.56949,0.00339667,0.00901364,1497,1737,7.67226,-32.3507
280,-713,7.65979,32.1102,-3.54926e-06,0.0060591,-0.000251476,0.00606952,-1.39624e-05,-1.52941,0.00405101,0.0103121,1504,1737,7.65981,-32.1102
287,-713,7.64392,31.8894,-0.000206048,0.00741286,-0.000621938,0.0074633,-0.000256483,-1.48988,0.00506319,0.0117675,1511,1737,7.64393,-31.8894
294,-713,7.64294,31.6765,-0.000536838,0.00908151,-0.00104914,0.00919462,-0.000649945,-1.4634,0.00635748,0.0184934,1518,1737,7.6429,-31.6765
301,-713,7.64551,31.423,-0.00095528,0.0107652,-0.00160956,0.0109823,-0.0011723,-1.43677,0.00774192,0.0222187,1525,1737,7.64555,-31.423
308,-713,7.64429,31.1309,-0.00150182,0.0118,-0.00220441,0.0121558,-0.00185763,-1.41077,0.00878877,0.0242564,1532,1737,7.64426,-31.1308
315,-713,7.53882,30.7791,-0.00214737,0.013142,-0.00283533,0.0136508,-0.00265623,-1.39322,0.010103,0.030651,1539,1737,7.53885,-30.779
322,-713,7.55066,30.3022,-0.00286698,0.014561,-0.00326523,0.0151527,-0.00345865,-1.39154,0.0114305,0.0405029,1546,1737,7.55071,-30.3023
329,-713,7.80408,30.0247,0,0,0,0,0,0,0,-1,1553,1737,7.80407,-30.0247
336,-713,7.68042,29.7452,0,0,0,0,0,0,0,-1,1560,1737,7.68045,-29.7453
343,-713,7.28137,29.42,0,0,0,0,0,0,0,-1,1567,1737,7.28131,-29.4201
350,-713,7.4397,29.1586,0,0,0,0,0,0,0,-1,1574,1737,7.43976,-29.1585
357,-713,6.8197,26.0476,0,0,0,0,0,0,0,-1,1581,1737,6.81968,-26.0477
364,-713,7.35474,20.9537,0,0,0,0,0,0,0,-1,1588,1737,7.35472,-20.9537
371,-713,3.07507,25.4108,0,0,0,0,0,0,0,-1,1595,1737,3.07502,-25.4107
378,-713,4.21838,25.306,0,0,0,0,0,0,0,-1,1602,1737,4.21837,-25.306
385,-713,5.078,25.3104,0,0,0,0,0,0,0,-1,1609,1737,5.07795,-25.3104
392,-713,5.92114,25.3118,0,0,0,0,0,0,0,-1,1616,1737,5.92112,-25.3118
399,-713,3.14368,25.2808,0,0,0,0,0,0,0,-1,1623,1737,3.14369,-25.2808
406,-713,1.82678,26.7354,0,0,0,0,0,0,0,-1,1630,1737,1.82679,-26.7354
413,-713,3.24731,18.2787,0,0,0,0,0,0,0,-1,1637,1737,3.24726,-18.2787
420,-713,0,0,0,0,0,0,0,0,0,-1,1644,1737,0,0
427,-713,0,0,0,0,0,0,0,0,0,-1,1651,1737,0,0
434,-713,0,0,0,0,0,0,0,0,0,-1,1658,1737,0,0
441,-713,0,0,0,0,0,0,0,0,0,-1,1665,1737,0,0
448,-713,0,0,0,0,0,0,0,0,0,-1,1672,1737,0,0
455,-713,0,0,0,0,0,0,0,0,0,-1,1679,1737,0,0
462,-713,0,0,0,0,0,0,0,0,0,-1,1686,1737,0,0
469,-713,0,0,0,0,0,0,0,0,0,-1,1693,1737,0,0
476,-713,0,0,0,0,0,0,0,0,0,-1,1700,1737,0,0
483,-713,0,0,0,0,0,0,0,0,0,-1,1707,1737,0,0
490,-713,0,0,0,0,0,0,0,0,0,-1,1714,1737,0,0
497,-713,0,0,0,0,0,0,0,0,0,-1,1721,1737,0,0
504,-713,0,0,0,0,0,0,0,0,0,-1,1728,1737,0,0
511,-713,0,0,0,0,0,0,0,0,0,-1,1735,1737,0,0
518,-713,0,0,0,0,0,0,0,0,0,-1,1742,1737,0,0
525,-713,0,0,0,0,0,0,0,0,0,-1,1749,1737,0,0
532,-713,0,0,0,0,0,0,0,0,0,-1,1756,1737,0,0
539,-713,0,0,0,0,0,0,0,0,0,-1,1763,1737,0,0
546,-713,0,0,0,0,0,0,0,0,0,-1,1770,1737,0,0
553,-713,0,0,0,0,0,0,0,0,0,-1,1777,1737,0,0
560,-713,0,0,0,0,0,0,0,0,0,-1,1784,1737,0,0
567,-713,0,0,0,0,0,0,0,0,0,-1,1791,1737,0,0
574,-713,0,0,0,0,0,0,0,0,0,-1,1798,1737,0,0
581,-713,0,0,0,0,0,0,0,0,0,-1,1805,1737,0,0
588,-713,0,0,0,0,0,0,0,0,0,-1,1812,1737,0,0
595,-713,0,0,0,0,0,0,0,0,0,-1,1819,1737,0,0
602,-713,0,0,0,0,0,0,0,0,0,-1,1826,1737,0,0
609,-713,0,0,0,0,0,0,0,0,0,-1,1833,1737,0,0
616,-713,0,0,0,0,0,0,0,0,0,-1,1840,1737,0,0
623,-713,0,0,0,0,0,0,0,0,0,-1,1847,1737,0,0
630,-713,0,0,0,0,0,0,0,0,0,-1,1854,1737,0,0
637,-713,0,0,0,0,0,0,0,0,0,-1,1861,1737,0,0
644,-713,0,0,0,0,0,0,0,0,0,-1,1868,1737,0,0
651,-713,0,0,0,0,0,0,0,0,0,-1,1875,1737,0,0
658,-713,0,0,0,0,0,0,0,0,0,-1,1882,1737,0,0
665,-713,0,0,0,0,0,0,0,0,0,-1,1889,1737,0,0
672,-713,0,0,0,0,0,0,0,0,0,-1,1896,1737,0,0
679,-713,0,0,0,0,0,0,0,0,0,-1,1903,1737,0,0
686,-713,0,0,0,0,0,0,0,0,0,-1,1910,1737,0,0
693,-713,0,0,0,0,0,0,0,0,0,-1,1917,1737,0,0
700,-713,0,0,0,0,0,0,0,0,0,-1,1924,1737,0,0
707,-713,0,0,0,0,0,0,0,0,0,-1,1931,1737,0,0
714,-713,0,0,0,0,0,0,0,0,0,-1,1938,1737,0,0
721,-713,0,0,0,0,0,0,0,0,0,-1,1945,1737,0,0
728,-713,0,0,0,0,0,0,0,0,0,-1,1952,1737,0,0
735,-713,0,0,0,0,0,0,0,0,0,-1,1959,1737,0,0
742,-713,0,0,0,0,0,0,0,0,0,-1,1966,1737,0,0
749,-713,0,0,0,0,0,0,0,0,0,-1,1973,1737,0,0
756,-713,0,0,0,0,0,0,0,0,0,-1,1980,1737,0,0
763,-713,0,0,0,0,0,0,0,0,0,-1,1987,1737,0,0
770,-713,0,0,0,0,0,0,0,0,0,-1,1994,1737,0,0
777,-713,0,0,0,0,0,0,0,0,0,-1,2001,1737,0,0
784,-713,0,0,0,0,0,0,0,0,0,-1,2008,1737,0,0
791,-713,0,0,0,0,0,0,0,0,0,-1,2015,1737,0,0
798,-713,0,0,0,0,0,0,0,0,0,-1,2022,1737,0,0
805,-713,0,0,0,0,0,0,0,0,0,-1,2029,1737,0,0
812,-713,0,0,0,0,0,0,0,0,0,-1,2036,1737,0,0
-700,-720,0,0,0,0,0,0,0,0,0,-1,524,1744,0,0
-693,-720,0,0,0,0,0,0,0,0,0,-1,531,1744,0,0
-686,-720,0,0,0,0,0,0,0,0,0,-1,538,1744,0,0
-679,-720,0,0,0,0,0,0,0,0,0,-1,545,1744,0,0
-672,-720,0,0,0,0,0,0,0,0,0,-1,552,1744,0,0
-665,-720,0,0,0,0,0,0,0,0,0,-1,559,1744,0,0
-658,-720,0,0,0,0,0,0,0,0,0,-1,566,1744,0,0
-651,-720,0,0,0,0,0,0,0,0,0,-1,573,1744,0,0
-644,-720,0,0,0,0,0,0,0,0,0,-1,580,1744,0,0
-637,-720,0,0,0,0,0,0,0,0,0,-1,587,1744,0,0
-630,-720,0,0,0,0,0,0,0,0,0,-1,594,1744,0,0
-623,-720,0,0,0,0,0,0,0,0,0,-1,601,1744,0,0
-616,-720,0,0,0,0,0,0,0,0,0,-1,608,1744,0,0
-609,-720,0,0,0,0,0,0,0,0,0,-1,615,1744,0,0
-602,-720,0,0,0,0,0,0,0,0,0,-1,622,1744,0,0
-595,-720,0,0,0,0,0,0,0,0,0,-1,629,1744,0,0
-588,-720,0,0,0,0,0,0,0,0,0,-1,636,1744,0,0
-581,-720,0,0,0,0,0,0,0,0,0,-1,643,1744,0,0
-574,-720,0,0,0,0,0,0,0,0,0,-1,650,1744,0,0
-567,-720,0,0,0,0,0,0,0,0,0,-1,657,1744,0,0
-560,-720,0,0,0,0,0,0,0,0,0,-1,664,1744,0,0
-553,-720,0,0,0,0,0,0,0,0,0,-1,671,1744,0,0
-546,-720,0,0,0,0,0,0,0,0,0,-1,678,1744,0,0
-539,-720,0,0,0,0,0,0,0,0,0,-1,685,1744,0,0
-532,-720,0,0,0,0,0,0,0,0,0,-1,692,1744,0,0
-525,-720,0,0,0,0,0,0,0,0,0,-1,699,1744,0,0
-518,-720,0,0,0,0,0,0,0,0,0,-1,706,1744,0,0
-511,-720,0,0,0,0,0,0,0,0,0,-1,713,1744,0,0
-504,-720,0,0,0,0,0,0,0,0,0,-1,720,1744,0,0
-497,-720,0,0,0,0,0,0,0,0,0,-1,727,1744,0,0
-490,-720,0,0,0,0,0,0,0,0,0,-1,734,1744,0,0
-483,-720,0,0,0,0,0,0,0,0,0,-1,741,1744,0,0
-476,-720,0,0,0,0,0,0,0,0,0,-1,748,1744,0,0
-469,-720,0,0,0,0,0,0,0,0,0,-1,755,1744,0,0
-462,-720,0,0,0,0,0,0,0,0,0,-1,762,1744,0,0
-455,-720,0,0,0,0,0,0,0,0,0,-1,769,1744,0,0
-448,-720,0,0,0,0,0,0,0,0,0,-1,776,1744,0,0
-441,-720,0,0,0,0,0,0,0,0,0,-1,783,1744,0,0
-434,-720,0,0,0,0,0,0,0,0,0,-1,790,1744,0,0
-427,-720,0,0,0,0,0,0,0,0,0,-1,797,1744,0,0
-420,-720,0,0,0,0,0,0,0,0,0,-1,804,1744,0,0
-413,-720,0,0,0,0,0,0,0,0,0,-1,811,1744,0,0
-406,-720,0,0,0,0,0,0,0,0,0,-1,818,1744,0,0
-399,-720,0,0,0,0,0,0,0,0,0,-1,825,1744,0,0
-392,-720,0,0,0,0,0,0,0,0,0,-1,832,1744,0,0
-385,-720,0,0,0,0,0,0,0,0,0,-1,839,1744,0,0
-378,-720,0,0,0,0,0,0,0,0,0,-1,846,1744,0,0
-371,-720,0,0,0,0,0,0,0,0,0,-1,853,1744,0,0
-364,-720,0,0,0,0,0,0,0,0,0,-1,860,1744,0,0
-357,-720,0,0,0,0,0,0,0,0,0,-1,867,1744,0,0
-350,-720,0,0,0,0,0,0,0,0,0,-1,874,1744,0,0
-343,-720,0,0,0,0,0,0,0,0,0,-1,881,1744,0,0
-336,-720,0,0,0,0,0,0,0,0,0,-1,888,1744,0,0
-329,-720,0,0,0,0,0,0,0,0,0,-1,895,1744,0,0
-322,-720,0,0,0,0,0,0,0,0,0,-1,902,1744,0,0
-315,-720,0,0,0,0,0,0,0,0,0,-1,909,1744,0,0
-308,-720,0,0,0,0,0,0,0,0,0,-1,916,1744,0,0
-301,-720,0,0,0,0,0,0,0,0,0,-1,923,1744,0,0
-294,-720,0,0,0,0,0,0,0,0,0,-1,930,1744,0,0
-287,-720,0,0,0,0,0,0,0,0,0,-1,937,1744,0,0
-280,-720,6.46796,22.6417,0,0,0,0,0,0,0,-1,944,1744,6.46793,-22.6417
-273,-720,8.54633,13.262,0,0,0,0,0,0,0,-1,951,1744,8.54636,-13.2619
-266,-720,7.28027,13.3165,0,0,0,0,0,0,0,-1,958,1744,7.28026,-13.3166
-259,-720,3.70563,18.6372,0,0,0,0,0,0,0,-1,965,1744,3.70564,-18.6372
-252,-720,4.00989,18.5059,0,0,0,0,0,0,0,-1,972,1744,4.00988,-18.5058
-245,-720,4.63318,20.3199,0,0,0,0,0,0,0,-1,979,1744,4.6332,-20.32
-238,-720,5.02216,24.1455,0,0,0,0,0,0,0,-1,986,1744,5.02217,-24.1455
-231,-720,7.35455,28.3225,0,0,0,0,0,0,0,-1,993,1744,7.35453,-28.3225
-224,-720,7.65991,19.4061,0,0,0,0,0,0,0,-1,1000,1744,7.6599,-19.4061
-217,-720,6.90515,29.4521,0,0,0,0,0,0,0,-1,1007,1744,6.90515,-29.4521
-210,-720,8.50787,29.3177,0,0,0,0,0,0,0,-1,1014,1744,8.50787,-29.3177
-203,-720,8.72827,29.599,0,0,0,0,0,0,0,-1,1021,1744,8.72826,-29.5989
-196,-720,8.53577,30.2446,0,0,0,0,0,0,0,-1,1028,1744,8.53578,-30.2446
-189,-720,7.79553,30.3694,0,0,0,0,0,0,0,-1,1035,1744,7.7955,-30.3693
-182,-720,7.33105,30.7733,-0.00124999,-0.00624784,-0.00200875,-0.000542721,-0.00695512,-0.338541,0.00446684,0.0485147,1042,1744,7.33104,-30.7734
-175,-720,7.65881,30.924,-0.0012613,-0.00493323,-0.00104441,-0.000985028,-0.0052095,-0.258604,0.00319567,0.0462798,1049,1744,7.65879,-30.9239
-168,-720,7.93164,31.0496,-0.00130501,-0.00407122,-0.000296452,-0.00127359,-0.00410263,-0.105571,0.00242474,0.0458009,1056,1744,7.93166,-31.0495
-161,-720,7.46484,31.3125,-0.00153784,-0.00318474,1.54415e-05,-0.0015377,-0.00318489,0.00937498,0.00183916,0.0416362,1063,1744,7.46487,-31.3126
-154,-720,7.63245,31.7,-0.00179061,-0.00221261,0.000248552,-0.00167557,-0.00232764,0.433464,0.0013865,0.0322689,1070,1744,7.63248,-31.6999
-147,-720,7.56897,31.9985,-0.0019533,-0.00126421,0.000573085,-0.000940069,-0.00227744,1.05605,0.00132153,0.0271414,1077,1744,7.56898,-31.9986
-140,-720,7.57068,32.2151,-0.00187443,-0.000130848,0.000753058,0.000149366,-0.00215465,1.21457,0.00148872,0.0205746,1084,1744,7.57069,-32.2151
-133,-720,7.53711,32.3561,-0.00179499,0.00075999,0.000694866,0.000936742,-0.00197174,1.32171,0.00171429,0.0140579,1091,1744,7.53711,-32.3561
-126,-720,7.52185,32.5719,-0.00215945,0.00169968,0.000535639,0.00177265,-0.00223242,1.43541,0.0023174,0.0136256,1098,1744,7.52183,-32.5719
-119,-720,7.49854,32.7971,-0.00235848,0.00224423,0.000596546,0.00232029,-0.00243454,1.44398,0.00274546,0.0142171,1105,1744,7.49858,-32.7971
-112,-720,7.46875,33.0029,-0.00201264,0.00258988,0.000711728,0.00269742,-0.00212019,1.42082,0.0027881,0.0125386,1112,1744,7.46871,-33.0029
-105,-720,7.46924,33.2129,-0.00165241,0.00274418,0.000621171,0.00283026,-0.00173848,1.4331,0.00266275,0.012609,1119,1744,7.46926,-33.2129
-98,-720,7.46326,33.4044,-0.00155552,0.00285178,0.000675152,0.00295289,-0.00165663,1.42215,0.00269615,0.0103514,1126,1744,7.46324,-33.4045
-91,-720,7.4375,33.5833,-0.00140021,0.00291941,0.00071713,0.00303535,-0.00151616,1.41051,0.00267616,0.00898222,1133,1744,7.43749,-33.5833
-84,-720,7.4375,33.7767,-0.00120249,0.00287096,0.000847697,0.00304033,-0.00137185,1.3736,0.00260738,0.00963513,1140,1744,7.43756,-33.7767
-77,-720,7.43469,33.9622,-0.000836433,0.00259454,0.000830564,0.00278503,-0.00102692,1.34535,0.00227752,0.0126607,1147,1744,7.43467,-33.9621
-70,-720,7.43237,34.1283,-0.000551952,0.00225503,0.00063033,0.00239008,-0.000687001,1.35974,0.00186505,0.0113855,1154,1744,7.43243,-34.1283
-63,-720,7.39734,34.2922,-0.000482492,0.00200589,0.000358486,0.0020565,-0.000533107,1.43053,0.00157899,0.0109937,1161,1744,7.3974,-34.2922
-56,-720,7.41284,34.4471,-0.000364749,0.00174464,0.000240228,0.00177165,-0.000391761,1.45882,0.00133105,0.013381,1168,1744,7.41288,-34.4472
-49,-720,7.37976,34.5863,-0.000273391,0.00154631,0.00012513,0.00155487,-0.000281955,1.50246,0.00114223,0.0182743,1175,1744,7.37972,-34.5863
-42,-720,7.33545,34.7117,-0.000162873,0.00144395,2.44447e-05,0.00144432,-0.000163244,1.55559,0.00102165,0.0203041,1182,1744,7.33541,-34.7117
-35,-720,7.36829,34.8424,5.73036e-05,0.00161161,-0.000139616,0.00162406,4.48623e-05,-1.48192,0.00106806,0.0182072,1189,1744,7.36829,-34.8424
-28,-720,7.41187,34.9663,0.000258551,0.00195585,-0.000347885,0.00202439,0.000190014,-1.37628,0.00129092,0.0104914,1196,1744,7.41185,-34.9663
-21,-720,7.40649,35.101,0.000428461,0.0024394,-0.000476052,0.00254641,0.000321458,-1.3497,0.00160124,0.0089863,1203,1744,7.40645,-35.101
-14,-720,7.39648,35.1699,0.000706244,0.00301524,-0.000468723,0.00310676,0.000614722,-1.37796,0.00189971,0.0107959,1210,1744,7.39645,-35.1699
-7,-720,7.40686,35.2747,0.00103807,0.00361063,-0.000385278,0.0036671,0.000981609,-1.42528,0.00219206,0.0112868,1217,1744,7.40686,-35.2746
0,-720,7.41992,35.3846,0.00138657,0.00427512,-0.000208764,0.00429013,0.00137156,-1.49902,0.00253002,0.0119854,1224,1744,7.4199,-35.3847
7,-720,7.42102,35.4631,0.00172087,0.00488131,6.77174e-05,0.00488276,0.00171941,1.54938,0.00285985,0.0148212,1231,1744,7.42107,-35.4631
14,-720,7.43384,35.5151,0.00199826,0.00547695,0.00046659,0.00553844,0.00193677,1.43975,0.00324542,0.0138292,1238,1744,7.43387,-35.5152
21,-720,7.43665,35.5696,0.00220846,0.00590742,0.000856859,0.00609627,0.00201961,1.35387,0.00358585,0.0114383,1245,1744,7.43659,-35.5696
28,-720,7.4342,35.6237,0.00236559,0.0062426,0.00122784,0.00659873,0.00200945,1.28849,0.00390563,0.0112723,1252,1744,7.43423,-35.6236
35,-720,7.44409,35.6791,0.00250533,0.00648716,0.00150791,0.00699375,0.00199874,1.24669,0.00415953,0.0108974,1259,1744,7.4441,-35.6791
42,-720,7.45203,35.7167,0.0026112,0.00652299,0.00172654,0.00717602,0.00195818,1.2092,0.00428318,0.0115388,1266,1744,7.45204,-35.7166
49,-720,7.46045,35.7291,0.00265832,0.00639395,0.00177355,0.00710184,0.00195044,1.19104,0.0042368,0.0118717,1273,1744,7.46043,-35.7291
56,-720,7.46863,35.7595,0.0026061,0.00620302,0.00169658,0.00687697,0.00193215,1.19267,0.00409545,0.0106271,1280,1744,7.46865,-35.7596
63,-720,7.48425,35.7692,0.0024255,0.00569589,0.00156095,0.00632132,0.00180007,1.18971,0.00376065,0.0128579,1287,1744,7.48425,-35.7691
70,-720,7.51733,35.7687,0.00211423,0.00518775,0.00138827,0.00572196,0.00158002,1.20346,0.00341217,0.0135464,1294,1744,7.51736,-35.7687
77,-720,7.53723,35.7721,0.00194336,0.00472673,0.00116442,0.00514961,0.00152048,1.22244,0.00305509,0.0142466,1301,1744,7.53726,-35.7721
84,-720,7.54358,35.7377,0.00189785,0.00413079,0.000949317,0.00447983,0.00154881,1.21847,0.00262715,0.0143187,1308,1744,7.54354,-35.7377
91,-720,7.55017,35.6985,0.00176954,0.00339024,0.000773643,0.00370024,0.00145954,1.18968,0.00215215,0.0146506,1315,1744,7.55019,-35.6985
98,-720,7.53113,35.6746,0.00159622,0.00316937,0.000754569,0.00347278,0.00129281,1.18848,0.0020267,0.0133454,1322,1744,7.53112,-35.6746
105,-720,7.53809,35.6426,0.00154005,0.00288223,0.000807111,0.0032608,0.00116148,1.13222,0.0019084,0.0117281,1329,1744,7.53809,-35.6426
112,-720,7.54895,35.6207,0.00145737,0.00266009,0.000985623,0.00321332,0.000904135,1.05932,0.00191342,0.0111065,1336,1744,7.54898,-35.6207
119,-720,7.56128,35.5822,0.00133491,0.00242749,0.00114647,0.00315117,0.000611225,1.00773,0.00192958,0.0118326,1343,1744,7.56131,-35.5821
126,-720,7.57422,35.5187,0.00125127,0.00238827,0.00133592,0.00327162,0.000367919,0.986566,0.00206937,0.0117652,1350,1744,7.57426,-35.5187
133,-720,7.5769,35.4551,0.00121837,0.00235958,0.0014459,0.00334339,0.000234558,0.973337,0.002155,0.0128229,1357,1744,7.57692,-35.4551
140,-720,7.59631,35.3871,0.00121402,0.00233437,0.00146616,0.00334372,0.000204668,0.967875,0.00216415,0.0198845,1364,1744,7.59632,-35.3871
147,-720,7.60083,35.2797,0.00119121,0.00224128,0.0013248,0.00314129,0.000291198,0.97406,0.00200419,0.0207782,1371,1744,7.60085,-35.2796
154,-720,7.59717,35.1628,0.00111089,0.00206428,0.00110707,0.00279293,0.000382246,0.988696,0.00174852,0.0133011,1378,1744,7.59715,-35.1629
161,-720,7.60657,35.0453,0.0010426,0.00182016,0.000843359,0.00236004,0.000502721,1.00138,0.00143544,0.00932863,1385,1744,7.60652,-35.0452
168,-720,7.60181,34.9258,0.000962144,0.00168286,0.000483545,0.00192555,0.000719448,1.10562,0.00112349,0.00940197,1392,1744,7.60182,-34.9257
175,-720,7.59143,34.7866,0.000877174,0.00155236,3.22288e-05,0.00155389,0.000875639,1.52321,0.000899551,0.0152415,1399,1744,7.59143,-34.7866
182,-720,7.60132,34.665,0.000669691,0.00148784,-0.000360173,0.00162381,0.000533728,-1.20984,0.000955672,0.0157612,1406,1744,7.6013,-34.6651
189,-720,7.61267,34.5347,0.000440488,0.00145152,-0.000670567,0.00178577,0.000106238,-1.10838,0.00115673,0.0131587,1413,1744,7.6127,-34.5346
196,-720,7.63025,34.3794,0.000201785,0.00153041,-0.000860118,0.00195289,-0.000220694,-1.11422,0.00138138,0.0138628,1420,1744,7.63029,-34.3794
203,-720,7.60889,34.2184,-0.000215502,0.00200248,-0.000927026,0.00233891,-0.000551931,-1.22267,0.00177213,0.0163064,1427,1744,7.6089,-34.2183
210,-720,7.58899,34.0753,-0.000724403,0.00215315,-0.000669279,0.0023012,-0.000872451,-1.3531,0.00189319,0.0140062,1434,1744,7.58897,-34.0753
217,-720,7.57715,33.8943,-0.000855651,0.00255407,-0.000659617,0.00267723,-0.000978807,-1.38621,0.00218542,0.0131402,1441,1744,7.57721,-33.8943
224,-720,7.55957,33.7117,-0.00103143,0.00292758,-0.000599371,0.00301633,-0.00112018,-1.42379,0.00247044,0.0100008,1448,1744,7.55963,-33.7117
231,-720,7.55981,33.5446,-0.00127717,0.00325912,-0.000427942,0.00329914,-0.00131719,-1.47756,0.0027459,0.00985349,1455,1744,7.55985,-33.5446
238,-720,7.552,33.3524,-0.00111082,0.00379403,-7.78927e-05,0.00379527,-0.00111206,-1.55492,0.00297107,0.00867234,1462,1744,7.55195,-33.3524
245,-720,7.54321,33.1686,-0.000644704,0.00426372,0.00023143,0.00427461,-0.000655591,1.52379,0.00309153,0.0113176,1469,1744,7.54325,-33.1686
252,-720,7.53137,32.9727,-0.00029558,0.00475821,0.000371383,0.00478536,-0.000322726,1.49783,0.00330307,0.0115043,1476,1744,7.53137,-32.9727
259,-720,7.52039,32.7667,-8.88909e-05,0.00526163,0.000454427,0.00529995,-0.000127212,1.48667,0.00357646,0.0101864,1483,1744,7.52038,-32.7667
266,-720,7.48865,32.5537,-0.000144599,0.00619343,0.000563491,0.00624314,-0.000194306,1.48281,0.00422835,0.00839626,1490,1744,7.48863,-32.5537
273,-720,7.44958,32.3362,3.90826e-05,0.00740662,0.000399472,0.00742822,1.74863e-05,1.51679,0.00494633,0.0145181,1497,1744,7.44955,-32.3362
280,-720,7.36829,32.1201,6.02469e-05,0.00858422,0.000116599,0.00858581,5.86524e-05,1.55712,0.00570442,0.0224857,1504,1744,7.36832,-32.1201
287,-720,7.31116,31.8341,-8.80178e-05,0.0103335,-0.000349631,0.0103452,-9.97339e-05,-1.5373,0.00693029,0.0373201,1511,1744,7.31111,-31.8341
294,-720,7.49121,31.5168,-0.000437262,0.0124987,-0.000891608,0.0125599,-0.000498427,-1.5023,0.00854423,0.0386594,1518,1744,7.49127,-31.5168
301,-720,7.58728,31.251,-0.000926013,0.0147155,-0.00158123,0.0148737,-0.00108426,-1.47105,0.0102963,0.0406852,1525,1744,7.58726,-31.251
308,-720,7.4082,31.0135,-0.00157379,0.0160633,-0.00237378,0.0163772,-0.00188769,-1.43932,0.0115987,0.0397108,1532,1744,7.40815,-31.0136
315,-720,6.93933,30.4976,-0.00242444,0.0182679,-0.00333126,0.018791,-0.00294751,-1.41505,0.0136166,0.0421472,1539,1744,6.93932,-30.4976
322,-720,7.36768,29.8531,0,0,0,0,0,0,0,-1,1546,1744,7.36768,-29.8532
329,-720,7.79773,28.8168,0,0,0,0,0,0,0,-1,1553,1744,7.79771,-28.8167
336,-720,6.14148,26.5682,0,0,0,0,0,0,0,-1,1560,1744,6.14151,-26.5683
343,-720,6.78552,21.3625,0,0,0,0,0,0,0,-1,1567,1744,6.78551,-21.3625
350,-720,4.0741,11.1836,0,0,0,0,0,0,0,-1,1574,1744,4.07412,-11.1836
357,-720,6.90833,21.4504,0,0,0,0,0,0,0,-1,1581,1744,6.90827,-21.4505
364,-720,5.83777,24.1599,0,0,0,0,0,0,0,-1,1588,1744,5.83773,-24.1599
371,-720,5.46997,23.6176,0,0,0,0,0,0,0,-1,1595,1744,5.47001,-23.6176
378,-720,3.88257,25.5404,0,0,0,0,0,0,0,-1,1602,1744,3.88262,-25.5404
385,-720,4.63611,25.6746,0,0,0,0,0,0,0,-1,1609,1744,4.63612,-25.6746
392,-720,3.49377,23.5042,0,0,0,0,0,0,0,-1,1616,1744,3.4938,-23.5042
399,-720,2.37317,24.7166,0,0,0,0,0,0,0,-1,1623,1744,2.37317,-24.7166
406,-720,0,0,0,0,0,0,0,0,0,-1,1630,1744,0,0
413,-720,0,0,0,0,0,0,0,0,0,-1,1637,1744,0,0
420,-720,0,0,0,0,0,0,0,0,0,-1,1644,1744,0,0
427,-720,0,0,0,0,0,0,0,0,0,-1,1651,1744,0,0
434,-720,0,0,0,0,0,0,0,0,0,-1,1658,1744,0,0
441,-720,0,0,0,0,0,0,0,0,0,-1,1665,1744,0,0
448,-720,0,0,0,0,0,0,0,0,0,-1,1672,1744,0,0
455,-720,0,0,0,0,0,0,0,0,0,-1,1679,1744,0,0
462,-720,0,0,0,0,0,0,0,0,0,-1,1686,1744,0,0
469,-720,0,0,0,0,0,0,0,0,0,-1,1693,1744,0,0
476,-720,0,0,0,0,0,0,0,0,0,-1,1700,1744,0,0
483,-720,0,0,0,0,0,0,0,0,0,-1,1707,1744,0,0
490,-720,0,0,0,0,0,0,0,0,0,-1,1714,1744,0,0
497,-720,0,0,0,0,0,0,0,0,0,-1,1721,1744,0,0
504,-720,0,0,0,0,0,0,0,0,0,-1,1728,1744,0,0
511,-720,0,0,0,0,0,0,0,0,0,-1,1735,1744,0,0
518,-720,0,0,0,0,0,0,0,0,0,-1,1742,1744,0,0
525,-720,0,0,0,0,0,0,0,0,0,-1,1749,1744,0,0
532,-720,0,0,0,0,0,0,0,0,0,-1,1756,1744,0,0
539,-720,0,0,0,0,0,0,0,0,0,-1,1763,1744,0,0
546,-720,0,0,0,0,0,0,0,0,0,-1,1770,1744,0,0
553,-720,0,0,0,0,0,0,0,0,0,-1,1777,1744,0,0
560,-720,0,0,0,0,0,0,0,0,0,-1,1784,1744,0,0
567,-720,0,0,0,0,0,0,0,0,0,-1,1791,1744,0,0
574,-720,0,0,0,0,0,0,0,0,0,-1,1798,1744,0,0
581,-720,0,0,0,0,0,0,0,0,0,-1,1805,1744,0,0
588,-720,0,0,0,0,0,0,0,0,0,-1,1812,1744,0,0
595,-720,0,0,0,0,0,0,0,0,0,-1,1819,1744,0,0
602,-720,0,0,0,0,0,0,0,0,0,-1,1826,1744,0,0
609,-720,0,0,0,0,0,0,0,0,0,-1,1833,1744,0,0
616,-720,0,0,0,0,0,0,0,0,0,-1,1840,1744,0,0
623,-720,0,0,0,0,0,0,0,0,0,-1,1847,1744,0,0
630,-720,0,0,0,0,0,0,0,0,0,-1,1854,1744,0,0
637,-720,0,0,0,0,0,0,0,0,0,-1,1861,1744,0,0
644,-720,0,0,0,0,0,0,0,0,0,-1,1868,1744,0,0
651,-720,0,0,0,0,0,0,0,0,0,-1,1875,1744,0,0
658,-720,0,0,0,0,0,0,0,0,0,-1,1882,1744,0,0
665,-720,0,0,0,0,0,0,0,0,0,-1,1889,1744,0,0
672,-720,0,0,0,0,0,0,0,0,0,-1,1896,1744,0,0
679,-720,0,0,0,0,0,0,0,0,0,-1,1903,1744,0,0
686,-720,0,0,0,0,0,0,0,0,0,-1,1910,1744,0,0
693,-720,0,0,0,0,0,0,0,0,0,-1,1917,1744,0,0
700,-720,0,0,0,0,0,0,0,0,0,-1,1924,1744,0,0
707,-720,0,0,0,0,0,0,0,0,0,-1,1931,1744,0,0
714,-720,0,0,0,0,0,0,0,0,0,-1,1938,1744,0,0
721,-720,0,0,0,0,0,0,0,0,0,-1,1945,1744,0,0
728,-720,0,0,0,0,0,0,0,0,0,-1,1952,1744,0,0
735,-720,0,0,0,0,0,0,0,0,0,-1,1959,1744,0,0
742,-720,0,0,0,0,0,0,0,0,0,-1,1966,1744,0,0
749,-720,0,0,0,0,0,0,0,0,0,-1,1973,1744,0,0
756,-720,0,0,0,0,0,0,0,0,0,-1,1980,1744,0,0
763,-720,0,0,0,0,0,0,0,0,0,-1,1987,1744,0,0
770,-720,0,0,0,0,0,0,0,0,0,-1,1994,1744,0,0
777,-720,0,0,0,0,0,0,0,0,0,-1,2001,1744,0,0
784,-720,0,0,0,0,0,0,0,0,0,-1,2008,1744,0,0
791,-720,0,0,0,0,0,0,0,0,0,-1,2015,1744,0,0
798,-720,0,0,0,0,0,0,0,0,0,-1,2022,1744,0,0
805,-720,0,0,0,0,0,0,0,0,0,-1,2029,1744,0,0
812,-720,0,0,0,0,0,0,0,0,0,-1,2036,1744,0,0
-700,-727,0,0,0,0,0,0,0,0,0,-1,524,1751,0,0
-693,-727,0,0,0,0,0,0,0,0,0,-1,531,1751,0,0
-686,-727,0,0,0,0,0,0,0,0,0,-1,538,1751,0,0
-679,-727,0,0,0,0,0,0,0,0,0,-1,545,1751,0,0
-672,-727,0,0,0,0,0,0,0,0,0,-1,552,1751,0,0
-665,-727,0,0,0,0,0,0,0,0,0,-1,559,1751,0,0
-658,-727,0,0,0,0,0,0,0,0,0,-1,566,1751,0,0
-651,-727,0,0,0,0,0,0,0,0,0,-1,573,1751,0,0
-644,-727,0,0,0,0,0,0,0,0,0,-1,580,1751,0,0
-637,-727,0,0,0,0,0,0,0,0,0,-1,587,1751,0,0
-630,-727,0,0,0,0,0,0,0,0,0,-1,594,1751,0,0
-623,-727,0,0,0,0,0,0,0,0,0,-1,601,1751,0,0
-616,-727,0,0,0,0,0,0,0,0,0,-1,608,1751,0,0
-609,-727,0,0,0,0,0,0,0,0,0,-1,615,1751,0,0
-602,-727,0,0,0,0,0,0,0,0,0,-1,622,1751,0,0
-595,-727,0,0,0,0,0,0,0,0,0,-1,629,1751,0,0
-588,-727,0,0,0,0,0,0,0,0,0,-1,636,1751,0,0
-581,-727,0,0,0,0,0,0,0,0,0,-1,643,1751,0,0
-574,-727,0,0,0,0,0,0,0,0,0,-1,650,1751,0,0
-567,-727,0,0,0,0,0,0,0,0,0,-1,657,1751,0,0
-560,-727,0,0,0,0,0,0,0,0,0,-1,664,1751,0,0
-553,-727,0,0,0,0,0,0,0,0,0,-1,671,1751,0,0
-546,-727,0,0,0,0,0,0,0,0,0,-1,678,1751,0,0
-539,-727,0,0,0,0,0,0,0,0,0,-1,685,1751,0,0
-532,-727,0,0,0,0,0,0,0,0,0,-1,692,1751,0,0
-525,-727,0,0,0,0,0,0,0,0,0,-1,699,1751,0,0
-518,-727,0,0,0,0,0,0,0,0,0,-1,706,1751,0,0
-511,-727,0,0,0,0,0,0,0,0,0,-1,713,1751,0,0
-504,-727,0,0,0,0,0,0,0,0,0,-1,720,1751,0,0
-497,-727,0,0,0,0,0,0,0,0,0,-1,727,1751,0,0
-490,-727,0,0,0,0,0,0,0,0,0,-1,734,1751,0,0
-483,-727,0,0,0,0,0,0,0,0,0,-1,741,1751,0,0
-476,-727,0,0,0,0,0,0,0,0,0,-1,748,1751,0,0
-469,-727,0,0,0,0,0,0,0,0,0,-1,755,1751,0,0
-462,-727,0,0,0,0,0,0,0,0,0,-1,762,1751,0,0
-455,-727,0,0,0,0,0,0,0,0,0,-1,769,1751,0,0
-448,-727,0,0,0,0,0,0,0,0,0,-1,776,1751,0,0
-441,-727,0,0,0,0,0,0,0,0,0,-1,783,1751,0,0
-434,-727,0,0,0,0,0,0,0,0,0,-1,790,1751,0,0
-427,-727,0,0,0,0,0,0,0,0,0,-1,797,1751,0,0
-420,-727,0,0,0,0,0,0,0,0,0,-1,804,1751,0,0
-413,-727,0,0,0,0,0,0,0,0,0,-1,811,1751,0,0
-406,-727,0,0,0,0,0,0,0,0,0,-1,818,1751,0,0
-399,-727,0,0,0,0,0,0,0,0,0,-1,825,1751,0,0
-392,-727,0,0,0,0,0,0,0,0,0,-1,832,1751,0,0
-385,-727,0,0,0,0,0,0,0,0,0,-1,839,1751,0,0
-378,-727,0,0,0,0,0,0,0,0,0,-1,846,1751,0,0
-371,-727,0,0,0,0,0,0,0,0,0,-1,853,1751,0,0
-364,-727,0,0,0,0,0,0,0,0,0,-1,860,1751,0,0
-357,-727,0,0,0,0,0,0,0,0,0,-1,867,1751,0,0
-350,-727,0,0,0,0,0,0,0,0,0,-1,874,1751,0,0
-343,-727,0,0,0,0,0,0,0,0,0,-1,881,1751,0,0
-336,-727,0,0,0,0,0,0,0,0,0,-1,888,1751,0,0
-329,-727,0,0,0,0,0,0,0,0,0,-1,895,1751,0,0
-322,-727,0,0,0,0,0,0,0,0,0,-1,902,1751,0,0
-315,-727,0,0,0,0,0,0,0,0,0,-1,909,1751,0,0
-308,-727,0,0,0,0,0,0,0,0,0,-1,916,1751,0,0
-301,-727,0,0,0,0,0,0,0,0,0,-1,923,1751,0,0
-294,-727,0,0,0,0,0,0,0,0,0,-1,930,1751,0,0
-287,-727,0,0,0,0,0,0,0,0,0,-1,937,1751,0,0
-280,-727,0,0,0,0,0,0,0,0,0,-1,944,1751,0,0
-273,-727,0,0,0,0,0,0,0,0,0,-1,951,1751,0,0
-266,-727,4.24805,7.61145,0,0,0,0,0,0,0,-1,958,1751,4.24802,-7.6115
-259,-727,3.65228,5.4082,0,0,0,0,0,0,0,-1,965,1751,3.65229,-5.40818
-252,-727,6.35193,19.5046,0,0,0,0,0,0,0,-1,972,1751,6.35193,-19.5046
-245,-727,6.6543,20.9005,0,0,0,0,0,0,0,-1,979,1751,6.65433,-20.9005
-238,-727,4.31769,18.0181,0,0,0,0,0,0,0,-1,986,1751,4.31766,-18.018
-231,-727,6.50403,21.7985,0,0,0,0,0,0,0,-1,993,1751,6.50403,-21.7985
-224,-727,7.89355,29.2025,0,0,0,0,0,0,0,-1,1000,1751,7.89356,-29.2026
-217,-727,6.96588,30.0333,0,0,0,0,0,0,0,-1,1007,1751,6.96586,-30.0333
-210,-727,6.24988,30.1333,0,0,0,0,0,0,0,-1,1014,1751,6.24989,-30.1333
-203,-727,4.43604,24.287,0,0,0,0,0,0,0,-1,1021,1751,4.43608,-24.287
-196,-727,5.16003,26.0752,0,0,0,0,0,0,0,-1,1028,1751,5.16001,-26.0752
-189,-727,6.14868,28.0311,0,0,0,0,0,0,0,-1,1035,1751,6.14867,-28.0311
-182,-727,7.48743,31.229,0,0,0,0,0,0,0,-1,1042,1751,7.48741,-31.229
-175,-727,7.89355,31.2645,0,0,0,0,0,0,0,-1,1049,1751,7.89351,-31.2645
-168,-727,8.15198,31.1035,0,0,0,0,0,0,0,-1,1056,1751,8.15199,-31.1035
-161,-727,7.37891,31.5559,0,0,0,0,0,0,0,-1,1063,1751,7.37895,-31.5559
-154,-727,7.90088,31.6777,0,0,0,0,0,0,0,-1,1070,1751,7.90083,-31.6777
-147,-727,7.92224,32.0499,0,0,0,0,0,0,0,-1,1077,1751,7.92228,-32.0499
-140,-727,7.67102,31.9468,-0.00244987,6.06377e-05,0.000912023,0.000356979,-0.00274621,1.25663,0.00196066,0.0331831,1084,1751,7.67101,-31.9468
-133,-727,7.78198,32.2549,-0.00250016,0.00116924,0.000877467,0.00136828,-0.00269919,1.34774,0.00238989,0.0235965,1091,1751,7.782,-32.2549
-126,-727,7.70923,32.5416,-0.00304264,0.00228491,0.00072147,0.00238089,-0.00313861,1.43855,0.00319668,0.015574,1098,1751,7.70921,-32.5416
-119,-727,7.69202,32.8193,-0.00332642,0.00290785,0.000826596,0.00301559,-0.00343416,1.44119,0.00372638,0.0121237,1105,1751,7.692,-32.8193
-112,-727,7.6825,32.9972,-0.00294344,0.0033315,0.000998811,0.00348665,-0.00309858,1.41669,0.00380419,0.0131498,1112,1751,7.68249,-32.9971
-105,-727,7.63757,33.2058,-0.00254911,0.00353846,0.000947387,0.00368249,-0.00269314,1.41992,0.00369572,0.0131028,1119,1751,7.63754,-33.2058
-98,-727,7.63855,33.4072,-0.00245347,0.00368074,0.0010499,0.00385546,-0.00262819,1.40589,0.00376562,0.0111028,1126,1751,7.6385,-33.4072
-91,-727,7.62988,33.5802,-0.00228882,0.00378202,0.00113425,0.00398702,-0.00249381,1.39199,0.00377467,0.0103414,1133,1751,7.62989,-33.5802
-84,-727,7.60229,33.7739,-0.00208864,0.00377009,0.00137685,0.00407753,-0.00239608,1.35111,0.00377933,0.0107483,1140,1751,7.60228,-33.7739
-77,-727,7.57837,33.957,-0.00166621,0.00329984,0.00141416,0.00367431,-0.00204068,1.31194,0.00334418,0.0122834,1147,1751,7.57837,-33.9571
-70,-727,7.57104,34.1299,-0.00135882,0.0027814,0.00116646,0.00308742,-0.00166484,1.31423,0.00278439,0.0129538,1154,1751,7.571,-34.1299
-63,-727,7.56982,34.3177,-0.00133826,0.00239872,0.000723945,0.00253406,-0.00147361,1.38598,0.00234067,0.0109116,1161,1751,7.56984,-34.3178
-56,-727,7.54712,34.4565,-0.00115834,0.00193825,0.000539461,0.00202953,-0.00124963,1.40316,0.00191099,0.0116206,1168,1751,7.54714,-34.4566
-49,-727,7.51929,34.5906,-0.000990506,0.00135183,0.000430014,0.00142827,-0.00106695,1.39485,0.00144565,0.0138757,1175,1751,7.51931,-34.5905
-42,-727,7.51086,34.7415,-0.0009223,0.000693684,0.000386666,0.000781439,-0.00101005,1.34763,0.00103712,0.0171429,1182,1751,7.51081,-34.7415
-35,-727,7.48792,34.8572,-0.000843657,0.000209851,0.000157435,0.000232875,-0.000866681,1.42558,0.000669061,0.0155084,1189,1751,7.48795,-34.8571
-28,-727,7.51489,34.9609,-0.000926934,0.000119049,-0.000149057,0.000139876,-0.00094776,-1.43197,0.000683255,0.00882825,1196,1751,7.51491,-34.9609
-21,-727,7.51257,35.0865,-0.00110179,0.000199274,-0.00034031,0.00028291,-0.00118542,-1.32981,0.000899538,0.0102678,1203,1751,7.51253,-35.0866
-14,-727,7.50305,35.1724,-0.000975184,0.000453316,-0.000522184,0.000623842,-0.00114571,-1.25515,0.00103636,0.0114496,1210,1751,7.50302,-35.1724
-7,-727,7.51501,35.286,-0.000801434,0.000809167,-0.000593259,0.0010041,-0.000996366,-1.25333,0.00115497,0.0136409,1217,1751,7.51505,-35.286
0,-727,7.50586,35.4058,-0.000789528,0.0012389,-0.000620848,0.00141384,-0.000964466,-1.29614,0.00138126,0.0131858,1224,1751,7.50589,-35.4057
7,-727,7.49451,35.4647,-0.000651131,0.0016599,-0.000555423,0.00178646,-0.000777688,-1.34676,0.00151812,0.0129134,1231,1751,7.49453,-35.4647
14,-727,7.50366,35.5222,-0.000493453,0.00209204,-0.000378999,0.00214645,-0.000547864,-1.42821,0.0016443,0.0128711,1238,1751,7.50365,-35.5223
21,-727,7.49353,35.5834,-0.000323877,0.00242694,-0.00019163,0.00244023,-0.000337162,-1.50158,0.00175007,0.011629,1245,1751,7.4935,-35.5834
28,-727,7.50464,35.6327,-0.000139306,0.00271922,-6.99918e-06,0.00271923,-0.000139323,-1.56835,0.001861,0.0111024,1252,1751,7.50468,-35.6327
35,-727,7.52393,35.671,8.08347e-05,0.00298911,0.000112016,0.00299342,7.65265e-05,1.53236,0.0019706,0.0119848,1259,1751,7.52396,-35.671
42,-727,7.49512,35.6969,0.000310452,0.0031431,0.000195305,0.0031565,0.000297049,1.50228,0.00201264,0.0119518,1266,1751,7.49511,-35.6969
49,-727,7.47009,35.7246,0.000487999,0.00317501,0.00016197,0.00318474,0.000478271,1.51081,0.00198305,0.0105027,1273,1751,7.4701,-35.7247
56,-727,7.47607,35.777,0.000503615,0.00316046,6.73543e-05,0.00316217,0.000501909,1.54547,0.00196232,0.00966193,1280,1751,7.47612,-35.777
63,-727,7.49219,35.776,0.000368977,0.0030607,-3.38441e-05,0.00306113,0.000368552,-1.55823,0.00192967,0.0117619,1287,1751,7.4922,-35.776
70,-727,7.51135,35.761,0.000145345,0.00301366,-9.3826e-05,0.00301672,0.000142279,-1.53813,0.00196544,0.013414,1294,1751,7.51138,-35.761
77,-727,7.52527,35.7898,2.86725e-05,0.00296855,-0.00022546,0.00298574,1.14823e-05,-1.4947,0.00198668,0.0153892,1301,1751,7.52531,-35.7898
84,-727,7.52844,35.7296,-0.00014135,0.00282286,-0.000345095,0.00286251,-0.000180996,-1.45641,0.00197144,0.0168913,1308,1751,7.52839,-35.7296
91,-727,7.52808,35.6748,-0.000512998,0.00253771,-0.00039478,0.00258797,-0.000563257,-1.44417,0.00194051,0.0179283,1315,1751,7.52807,-35.6749
98,-727,7.51074,35.6692,-0.000812294,0.00257113,-0.000359212,0.00260884,-0.000850011,-1.46618,0.00208125,0.0149466,1322,1751,7.51071,-35.6692
105,-727,7.50598,35.6472,-0.000777786,0.00262739,-0.000273208,0.00264917,-0.000799567,-1.49124,0.0020844,0.013164,1329,1751,7.50597,-35.6472
112,-727,7.50928,35.6121,-0.000887221,0.00265221,-0.000104742,0.00265531,-0.000890318,-1.54124,0.00212993,0.0109866,1336,1751,7.50923,-35.612
119,-727,7.53003,35.5659,-0.000965324,0.00262348,1.28702e-05,0.00262352,-0.00096537,1.56721,0.0021445,0.00921178,1343,1751,7.53009,-35.5659
126,-727,7.54102,35.5044,-0.000939392,0.00268086,0.000126265,0.00268526,-0.000943791,1.53598,0.00217416,0.010811,1350,1751,7.54097,-35.5044
133,-727,7.52722,35.4384,-0.000801455,0.00271375,0.000169559,0.00272191,-0.000809615,1.52271,0.00213625,0.0154428,1357,1751,7.52722,-35.4383
140,-727,7.51733,35.3456,-0.00058517,0.00270828,0.000151731,0.00271525,-0.000592146,1.52486,0.00203645,0.0223677,1364,1751,7.51734,-35.3456
147,-727,7.50403,35.2501,-0.000367641,0.00261361,8.96429e-06,0.00261363,-0.000367668,1.56779,0.00187702,0.0186581,1371,1751,7.50407,-35.2501
154,-727,7.51746,35.1534,-0.000184806,0.00248019,-0.000239051,0.00250147,-0.000206079,-1.48204,0.00174041,0.0116614,1378,1751,7.51751,-35.1534
161,-727,7.4989,35.0433,5.56379e-05,0.00226454,-0.000505054,0.00237454,-5.43621e-05,-1.35635,0.00160146,0.00862867,1385,1751,7.49886,-35.0433
168,-727,7.48096,34.9349,0.000326478,0.00199503,-0.000805595,0.00232049,1.01258e-06,-1.18684,0.00154666,0.0109205,1392,1751,7.481,-34.9349
175,-727,7.47522,34.8051,0.000578108,0.0017612,-0.0011806,0.00249017,-0.000150856,-1.01764,0.00171261,0.0172346,1399,1751,7.47524,-34.8051
182,-727,7.47937,34.6653,0.000358273,0.0017737,-0.0014766,0.00270342,-0.000571456,-1.00887,0.0020199,0.0203921,1406,1751,7.47934,-34.6652
189,-727,7.46436,34.522,0.000111568,0.00183228,-0.00166127,0.00284276,-0.000898914,-1.02433,0.00225534,0.0123602,1413,1751,7.46436,-34.522
196,-727,7.47046,34.3813,-0.000199211,0.00204255,-0.00173014,0.00298316,-0.00113982,-1.07283,0.00245843,0.0129491,1420,1751,7.47044,-34.3813
203,-727,7.45032,34.2122,-0.00092882,0.00322942,-0.00165918,0.0038103,-0.0015097,-1.23403,0.00316579,0.0163826,1427,1751,7.45036,-34.2122
210,-727,7.42932,34.0648,-0.00180067,0.00324957,-0.00105679,0.00346179,-0.00201289,-1.37262,0.0031975,0.0160288,1434,1751,7.42933,-34.0648
217,-727,7.41235,33.897,-0.00183095,0.00385656,-0.000916783,0.00400068,-0.00197508,-1.41486,0.00351556,0.0117295,1441,1751,7.41231,-33.897
224,-727,7.39685,33.6853,-0.00199396,0.00440491,-0.000731835,0.00448754,-0.00207659,-1.45836,0.00387408,0.0115826,1448,1751,7.39679,-33.6853
231,-727,7.37891,33.5264,-0.00225175,0.00489157,-0.00040724,0.00491471,-0.00227489,-1.51403,0.00424316,0.00949971,1455,1751,7.37896,-33.5264
238,-727,7.37439,33.3431,-0.0019619,0.00561113,0.000130951,0.0056134,-0.00196416,1.55351,0.00454086,0.010163,1462,1751,7.37433,-33.3431
245,-727,7.35535,33.1659,-0.00127207,0.00622241,0.000615798,0.00627267,-0.00132233,1.48936,0.00468517,0.0102529,1469,1751,7.35531,-33.1659
252,-727,7.32813,32.9697,-0.000728333,0.00685525,0.000889073,0.00695809,-0.00083117,1.45564,0.00493915,0.011551,1476,1751,7.32816,-32.9697
259,-727,7.32959,32.7469,-0.000335238,0.00747886,0.00108543,0.00762683,-0.000483209,1.43531,0.00525304,0.0153434,1483,1751,7.32955,-32.7469
266,-727,7.34277,32.5647,-0.000239816,0.00861108,0.00129666,0.00879713,-0.000425865,1.42829,0.00601174,0.0201675,1490,1751,7.34282,-32.5647
273,-727,7.40186,32.4025,0.000165762,0.0100689,0.00116879,0.010205,2.96892e-05,1.4549,0.00679346,0.038504,1497,1751,7.40189,-32.4024
280,-727,7.21375,32.2589,0,0,0,0,0,0,0,-1,1504,1751,7.21374,-32.2589
287,-727,6.84497,31.5763,0.000350192,0.0137758,0.000355925,0.0137852,0.000340763,1.54431,0.00907871,0.0499962,1511,1751,6.84492,-31.5763
294,-727,7.16248,31.3445,1.8285e-05,0.016572,-0.000287442,0.016577,1.32956e-05,-1.55344,0.0110469,0.0478696,1518,1751,7.16246,-31.3444
301,-727,7.41968,31.0116,0,0,0,0,0,0,0,-1,1525,1751,7.41967,-31.0116
308,-727,7.18518,31.111,0,0,0,0,0,0,0,-1,1532,1751,7.18517,-31.1109
315,-727,6.33801,30.2876,0,0,0,0,0,0,0,-1,1539,1751,6.33802,-30.2876
322,-727,5.75818,18.2477,0,0,0,0,0,0,0,-1,1546,1751,5.75815,-18.2477
329,-727,6.61853,11.6267,0,0,0,0,0,0,0,-1,1553,1751,6.61859,-11.6267
336,-727,5.55823,20.2439,0,0,0,0,0,0,0,-1,1560,1751,5.55829,-20.2438
343,-727,2.41699,8.72095,0,0,0,0,0,0,0,-1,1567,1751,2.41702,-8.72098
350,-727,3.89783,7.50195,0,0,0,0,0,0,0,-1,1574,1751,3.89782,-7.50193
357,-727,4.48462,10.2948,0,0,0,0,0,0,0,-1,1581,1751,4.48464,-10.2948
364,-727,6.96729,17.2365,0,0,0,0,0,0,0,-1,1588,1751,6.96732,-17.2365
371,-727,5.04565,23.2227,0,0,0,0,0,0,0,-1,1595,1751,5.04564,-23.2227
378,-727,4.56726,23.0574,0,0,0,0,0,0,0,-1,1602,1751,4.56727,-23.0574
385,-727,3.52307,22.6431,0,0,0,0,0,0,0,-1,1609,1751,3.52303,-22.643
392,-727,0,0,0,0,0,0,0,0,0,-1,1616,1751,0,0
399,-727,0,0,0,0,0,0,0,0,0,-1,1623,1751,0,0
406,-727,0,0,0,0,0,0,0,0,0,-1,1630,1751,0,0
413,-727,0,0,0,0,0,0,0,0,0,-1,1637,1751,0,0
420,-727,0,0,0,0,0,0,0,0,0,-1,1644,1751,0,0
427,-727,0,0,0,0,0,0,0,0,0,-1,1651,1751,0,0
434,-727,0,0,0,0,0,0,0,0,0,-1,1658,1751,0,0
441,-727,0,0,0,0,0,0,0,0,0,-1,1665,1751,0,0
448,-727,0,0,0,0,0,0,0,0,0,-1,1672,1751,0,0
455,-727,0,0,0,0,0,0,0,0,0,-1,1679,1751,0,0
462,-727,0,0,0,0,0,0,0,0,0,-1,1686,1751,0,0
469,-727,0,0,0,0,0,0,0,0,0,-1,1693,1751,0,0
476,-727,0,0,0,0,0,0,0,0,0,-1,1700,1751,0,0
483,-727,0,0,0,0,0,0,0,0,0,-1,1707,1751,0,0
490,-727,0,0,0,0,0,0,0,0,0,-1,1714,1751,0,0
497,-727,0,0,0,0,0,0,0,0,0,-1,1721,1751,0,0
504,-727,0,0,0,0,0,0,0,0,0,-1,1728,1751,0,0
511,-727,0,0,0,0,0,0,0,0,0,-1,1735,1751,0,0
518,-727,0,0,0,0,0,0,0,0,0,-1,1742,1751,0,0
525,-727,0,0,0,0,0,0,0,0,0,-1,1749,1751,0,0
532,-727,0,0,0,0,0,0,0,0,0,-1,1756,1751,0,0
539,-727,0,0,0,0,0,0,0,0,0,-1,1763,1751,0,0
546,-727,0,0,0,0,0,0,0,0,0,-1,1770,1751,0,0
553,-727,0,0,0,0,0,0,0,0,0,-1,1777,1751,0,0
560,-727,0,0,0,0,0,0,0,0,0,-1,1784,1751,0,0
567,-727,0,0,0,0,0,0,0,0,0,-1,1791,1751,0,0
574,-727,0,0,0,0,0,0,0,0,0,-1,1798,1751,0,0
581,-727,0,0,0,0,0,0,0,0,0,-1,1805,1751,0,0
588,-727,0,0,0,0,0,0,0,0,0,-1,1812,1751,0,0
595,-727,0,0,0,0,0,0,0,0,0,-1,1819,1751,0,0
602,-727,0,0,0,0,0,0,0,0,0,-1,1826,1751,0,0
609,-727,0,0,0,0,0,0,0,0,0,-1,1833,1751,0,0
616,-727,0,0,0,0,0,0,0,0,0,-1,1840,1751,0,0
623,-727,0,0,0,0,0,0,0,0,0,-1,1847,1751,0,0
630,-727,0,0,0,0,0,0,0,0,0,-1,1854,1751,0,0
637,-727,0,0,0,0,0,0,0,0,0,-1,1861,1751,0,0
644,-727,0,0,0,0,0,0,0,0,0,-1,1868,1751,0,0
651,-727,0,0,0,0,0,0,0,0,0,-1,1875,1751,0,0
658,-727,0,0,0,0,0,0,0,0,0,-1,1882,1751,0,0
665,-727,0,0,0,0,0,0,0,0,0,-1,1889,1751,0,0
672,-727,0,0,0,0,0,0,0,0,0,-1,1896,1751,0,0
679,-727,0,0,0,0,0,0,0,0,0,-1,1903,1751,0,0
686,-727,0,0,0,0,0,0,0,0,0,-1,1910,1751,0,0
693,-727,0,0,0,0,0,0,0,0,0,-1,1917,1751,0,0
700,-727,0,0,0,0,0,0,0,0,0,-1,1924,1751,0,0
707,-727,0,0,0,0,0,0,0,0,0,-1,1931,1751,0,0
714,-727,0,0,0,0,0,0,0,0,0,-1,1938,1751,0,0
721,-727,0,0,0,0,0,0,0,0,0,-1,1945,1751,0,0
728,-727,0,0,0,0,0,0,0,0,0,-1,1952,1751,0,0
735,-727,0,0,0,0,0,0,0,0,0,-1,1959,1751,0,0
742,-727,0,0,0,0,0,0,0,0,0,-1,1966,1751,0,0
749,-727,0,0,0,0,0,0,0,0,0,-1,1973,1751,0,0
756,-727,0,0,0,0,0,0,0,0,0,-1,1980,1751,0,0
763,-727,0,0,0,0,0,0,0,0,0,-1,1987,1751,0,0
770,-727,0,0,0,0,0,0,0,0,0,-1,1994,1751,0,0
777,-727,0,0,0,0,0,0,0,0,0,-1,2001,1751,0,0
784,-727,0,0,0,0,0,0,0,0,0,-1,2008,1751,0,0
791,-727,0,0,0,0,0,0,0,0,0,-1,2015,1751,0,0
798,-727,0,0,0,0,0,0,0,0,0,-1,2022,1751,0,0
805,-727,0,0,0,0,0,0,0,0,0,-1,2029,1751,0,0
812,-727,0,0,0,0,0,0,0,0,0,-1,2036,1751,0,0
-700,-734,0,0,0,0,0,0,0,0,0,-1,524,1758,0,0
-693,-734,0,0,0,0,0,0,0,0,0,-1,531,1758,0,0
-686,-734,0,0,0,0,0,0,0,0,0,-1,538,1758,0,0
-679,-734,0,0,0,0,0,0,0,0,0,-1,545,1758,0,0
-672,-734,0,0,0,0,0,0,0,0,0,-1,552,1758,0,0
-665,-734,0,0,0,0,0,0,0,0,0,-1,559,1758,0,0
-658,-734,0,0,0,0,0,0,0,0,0,-1,566,1758,0,0
-651,-734,0,0,0,0,0,0,0,0,0,-1,573,1758,0,0
-644,-734,0,0,0,0,0,0,0,0,0,-1,580,1758,0,0
-637,-734,0,0,0,0,0,0,0,0,0,-1,587,1758,0,0
-630,-734,0,0,0,0,0,0,0,0,0,-1,594,1758,0,0
-623,-734,0,0,0,0,0,0,0,0,0,-1,601,1758,0,0
-616,-734,0,0,0,0,0,0,0,0,0,-1,608,1758,0,0
-609,-734,0,0,0,0,0,0,0,0,0,-1,615,1758,0,0
-602,-734,0,0,0,0,0,0,0,0,0,-1,622,1758,0,0
-595,-734,0,0,0,0,0,0,0,0,0,-1,629,1758,0,0
-588,-734,0,0,0,0,0,0,0,0,0,-1,636,1758,0,0
-581,-734,0,0,0,0,0,0,0,0,0,-1,643,1758,0,0
-574,-734,0,0,0,0,0,0,0,0,0,-1,650,1758,0,0
-567,-734,0,0,0,0,0,0,0,0,0,-1,657,1758,0,0
-560,-734,0,0,0,0,0,0,0,0,0,-1,664,1758,0,0
-553,-734,0,0,0,0,0,0,0,0,0,-1,671,1758,0,0
-546,-734,0,0,0,0,0,0,0,0,0,-1,678,1758,0,0
-539,-734,0,0,0,0,0,0,0,0,0,-1,685,1758,0,0
-532,-734,0,0,0,0,0,0,0,0,0,-1,692,1758,0,0
-525,-734,0,0,0,0,0,0,0,0,0,-1,699,1758,0,0
-518,-734,0,0,0,0,0,0,0,0,0,-1,706,1758,0,0
-511,-734,0,0,0,0,0,0,0,0,0,-1,713,1758,0,0
-504,-734,0,0,0,0,0,0,0,0,0,-1,720,1758,0,0
-497,-734,0,0,0,0,0,0,0,0,0,-1,727,1758,0,0
-490,-734,0,0,0,0,0,0,0,0,0,-1,734,1758,0,0
-483,-734,0,0,0,0,0,0,0,0,0,-1,741,1758,0,0
-476,-734,0,0,0,0,0,0,0,0,0,-1,748,1758,0,0
-469,-734,0,0,0,0,0,0,0,0,0,-1,755,1758,0,0
-462,-734,0,0,0,0,0,0,0,0,0,-1,762,1758,0,0
-455,-734,0,0,0,0,0,0,0,0,0,-1,769,1758,0,0
-448,-734,0,0,0,0,0,0,0,0,0,-1,776,1758,0,0
-441,-734,0,0,0,0,0,0,0,0,0,-1,783,1758,0,0
-434,-734,0,0,0,0,0,0,0,0,0,-1,790,1758,0,0
-427,-734,0,0,0,0,0,0,0,0,0,-1,797,1758,0,0
-420,-734,0,0,0,0,0,0,0,0,0,-1,804,1758,0,0
-413,-734,0,0,0,0,0,0,0,0,0,-1,811,1758,0,0
-406,-734,0,0,0,0,0,0,0,0,0,-1,818,1758,0,0
-399,-734,0,0,0,0,0,0,0,0,0,-1,825,1758,0,0
-392,-734,0,0,0,0,0,0,0,0,0,-1,832,1758,0,0
-385,-734,0,0,0,0,0,0,0,0,0,-1,839,1758,0,0
-378,-734,0,0,0,0,0,0,0,0,0,-1,846,1758,0,0
-371,-734,0,0,0,0,0,0,0,0,0,-1,853,1758,0,0
-364,-734,0,0,0,0,0,0,0,0,0,-1,860,1758,0,0
-357,-734,0,0,0,0,0,0,0,0,0,-1,867,1758,0,0
-350,-734,0,0,0,0,0,0,0,0,0,-1,874,1758,0,0
-343,-734,0,0,0,0,0,0,0,0,0,-1,881,1758,0,0
-336,-734,0,0,0,0,0,0,0,0,0,-1,888,1758,0,0
-329,-734,0,0,0,0,0,0,0,0,0,-1,895,1758,0,0
-322,-734,0,0,0,0,0,0,0,0,0,-1,902,1758,0,0
-315,-734,0,0,0,0,0,0,0,0,0,-1,909,1758,0,0
-308,-734,0,0,0,0,0,0,0,0,0,-1,916,1758,0,0
-301,-734,0,0,0,0,0,0,0,0,0,-1,923,1758,0,0
-294,-734,0,0,0,0,0,0,0,0,0,-1,930,1758,0,0
-287,-734,0,0,0,0,0,0,0,0,0,-1,937,1758,0,0
-280,-734,0,0,0,0,0,0,0,0,0,-1,944,1758,0,0
-273,-734,0,0,0,0,0,0,0,0,0,-1,951,1758,0,0
-266,-734,0,0,0,0,0,0,0,0,0,-1,958,1758,0,0
-259,-734,0,0,0,0,0,0,0,0,0,-1,965,1758,0,0
-252,-734,6.93439,18.351,0,0,0,0,0,0,0,-1,972,1758,6.93438,-18.3509
-245,-734,6.95746,19.5341,0,0,0,0,0,0,0,-1,979,1758,6.95746,-19.5341
-238,-734,6.216,17.1718,0,0,0,0,0,0,0,-1,986,1758,6.216,-17.1717
-231,-734,7.25604,16.8156,0,0,0,0,0,0,0,-1,993,1758,7.25602,-16.8156
-224,-734,7.80121,16.9666,0,0,0,0,0,0,0,-1,1000,1758,7.8012,-16.9666
-217,-734,6.38855,30.5729,0,0,0,0,0,0,0,-1,1007,1758,6.38854,-30.5729
-210,-734,7.38232,31.0132,0,0,0,0,0,0,0,-1,1014,1758,7.38233,-31.0132
-203,-734,8.3761,31.4535,0,0,0,0,0,0,0,-1,1021,1758,8.37611,-31.4535
-196,-734,4.22339,27.3916,0,0,0,0,0,0,0,-1,1028,1758,4.22341,-27.3916
-189,-734,5.65881,28.0665,0,0,0,0,0,0,0,-1,1035,1758,5.65876,-28.0665
-182,-734,6.72888,29.6884,0,0,0,0,0,0,0,-1,1042,1758,6.72887,-29.6884
-175,-734,7.3667,26.2832,0,0,0,0,0,0,0,-1,1049,1758,7.3667,-26.2832
-168,-734,8.47266,31.2255,0,0,0,0,0,0,0,-1,1056,1758,8.47261,-31.2255
-161,-734,7.35229,30.6122,0,0,0,0,0,0,0,-1,1063,1758,7.3523,-30.6122
-154,-734,8.03125,31.9331,0,0,0,0,0,0,0,-1,1070,1758,8.03122,-31.9331
-147,-734,8.15723,32.0387,0,0,0,0,0,0,0,-1,1077,1758,8.15719,-32.0387
-140,-734,8.15466,32.0648,-0.00316998,0.00100536,0.000988474,0.00122755,-0.00339216,1.34969,0.00276307,0.0485622,1084,1758,8.15462,-32.0648
-133,-734,8.06287,32.1808,-0.00340103,0.00250101,0.00100593,0.00266775,-0.00356776,1.40653,0.00361255,0.0476444,1091,1758,8.06291,-32.1807
-126,-734,7.85583,32.4248,-0.00413417,0.00391169,0.000879038,0.00400661,-0.00422909,1.46323,0.00475546,0.0398974,1098,1758,7.85585,-32.4248
-119,-734,7.80042,32.7814,-0.00446081,0.0046812,0.00104481,0.00479908,-0.0045787,1.45844,0.00541476,0.0377888,1105,1758,7.80042,-32.7814
-112,-734,7.90063,32.9712,-0.00401738,0.00525493,0.00128566,0.00542989,-0.00419234,1.43554,0.00557069,0.0344828,1112,1758,7.90064,-32.9711
-105,-734,7.82141,33.1835,-0.00359117,0.00554703,0.00130435,0.00572956,-0.00377371,1.43176,0.00552531,0.0277793,1119,1758,7.82143,-33.1835
-98,-734,7.86768,33.2982,-0.003484,0.00569915,0.00145813,0.00592512,-0.00370997,1.41705,0.00561161,0.028459,1126,1758,7.86768,-33.2982
-91,-734,7.84656,33.5095,-0.00330032,0.00576348,0.00157376,0.00602896,-0.0035658,1.40368,0.00560005,0.0364955,1133,1758,7.84658,-33.5096
-84,-734,7.75928,33.7012,-0.00306515,0.00568187,0.00192653,0.00608739,-0.00347066,1.36333,0.00558685,0.0388372,1140,1758,7.75923,-33.7012
-77,-734,7.72864,33.9611,0,0,0,0,0,0,0,-1,1147,1758,7.72858,-33.9611
-70,-734,7.7356,34.1389,0,0,0,0,0,0,0,-1,1154,1758,7.73557,-34.1389
-63,-734,7.66052,34.173,-0.00323728,0.00310792,0.000842661,0.00321792,-0.00334728,1.44099,0.00379066,0.027414,1161,1758,7.66048,-34.173
-56,-734,7.67029,34.405,-0.00413569,0.0023368,0.000421316,0.00236411,-0.004163,1.50607,0.00381584,0.0175818,1168,1758,7.67024,-34.405
-49,-734,7.66296,34.5986,-0.0042581,0.0015314,0.000219448,0.0015397,-0.00426641,1.53296,0.0034732,0.0138191,1175,1758,7.66296,-34.5986
-42,-734,7.64282,34.7373,-0.00417928,0.000469932,6.74083e-05,0.000470909,-0.00418026,1.5563,0.00295634,0.0150575,1182,1758,7.64283,-34.7373
-35,-734,7.64355,34.853,-0.00395602,-0.000452379,-0.00031434,-0.0004244,-0.003984,-1.48202,0.00252644,0.0145101,1189,1758,7.64358,-34.8531
-28,-734,7.63025,34.9625,-0.00399355,-0.00103451,-0.000751203,-0.000854728,-0.00417333,-1.33589,0.0025456,0.00940005,1196,1758,7.63028,-34.9625
-21,-734,7.65698,35.0815,-0.00387222,-0.00140241,-0.000995225,-0.00105129,-0.00422334,-1.23163,0.00253875,0.0144928,1203,1758,7.65704,-35.0815
-14,-734,7.59644,35.1898,-0.0032441,-0.00134593,-0.0014856,-0.000532127,-0.0040579,-1.06965,0.00254649,0.0151923,1210,1758,7.59646,-35.1898
-7,-734,7.61426,35.2795,-0.00273715,-0.00115298,-0.00164788,-0.000116701,-0.00377342,-1.00943,0.00247763,0.0165571,1217,1758,7.61428,-35.2795
0,-734,7.599,35.3865,-0.00251834,-0.00075011,-0.0018499,0.000416084,-0.00368454,-1.00832,0.00260615,0.0159618,1224,1758,7.599,-35.3865
7,-734,7.56177,35.4702,-0.00217087,-0.000387572,-0.0019465,0.000861785,-0.00342023,-1.00017,0.00261518,0.0125735,1231,1758,7.56174,-35.4702
14,-734,7.55701,35.5363,-0.00184837,1.16834e-05,-0.00196673,0.00125719,-0.00309388,-1.00626,0.00258562,0.0127746,1238,1758,7.55696,-35.5362
21,-734,7.53552,35.5828,-0.00157206,0.000431223,-0.00197614,0.00164508,-0.00278591,-1.01996,0.00258634,0.0108453,1245,1758,7.53554,-35.5828
28,-734,7.53943,35.6229,-0.00134107,0.000891923,-0.0019802,0.0020487,-0.00249784,-1.0421,0.00262921,0.0107162,1252,1758,7.53945,-35.6229
35,-734,7.54736,35.6704,-0.00115053,0.0013716,-0.00199962,0.00247459,-0.00225352,-1.06672,0.00273077,0.0139243,1259,1758,7.54731,-35.6705
42,-734,7.53845,35.6829,-0.000941615,0.00177829,-0.00195937,0.00280342,-0.00196674,-1.08877,0.00276814,0.0114952,1266,1758,7.53841,-35.6829
49,-734,7.50757,35.7191,-0.000828771,0.00205163,-0.0019089,0.00300268,-0.00177982,-1.10857,0.0027911,0.00959439,1273,1758,7.50754,-35.7191
56,-734,7.49854,35.7649,-0.000975362,0.00228496,-0.0019081,0.00316444,-0.00185484,-1.1389,0.00293058,0.00953419,1280,1758,7.49859,-35.7648
63,-734,7.49866,35.7732,-0.00130915,0.0025454,-0.00189497,0.00332096,-0.0020847,-1.18232,0.00314805,0.0121711,1287,1758,7.49866,-35.7732
70,-734,7.47522,35.777,-0.00178528,0.00289994,-0.00176097,0.003488,-0.00237334,-1.2485,0.00340439,0.0122216,1294,1758,7.47526,-35.777
77,-734,7.49146,35.8043,-0.00210607,0.00310278,-0.00161605,0.00356343,-0.00256671,-1.29312,0.00355479,0.0167636,1301,1758,7.49147,-35.8043
84,-734,7.49573,35.7524,-0.00255221,0.00320723,-0.00151209,0.00358008,-0.00292506,-1.32904,0.00376208,0.0171901,1308,1758,7.49572,-35.7524
91,-734,7.50806,35.7125,-0.00324381,0.00306118,-0.00127555,0.00330945,-0.00349208,-1.37856,0.00392734,0.0182746,1315,1758,7.50809,-35.7125
98,-734,7.50562,35.6956,-0.00366835,0.00300362,-0.00117287,0.00320379,-0.00386852,-1.40175,0.00408921,0.013807,1322,1758,7.50563,-35.6955
105,-734,7.51001,35.6483,-0.0036207,0.0031019,-0.00101668,0.00325229,-0.00377109,-1.42394,0.00405864,0.0141152,1329,1758,7.51001,-35.6483
112,-734,7.50366,35.6002,-0.00377551,0.00322062,-0.000866712,0.00332639,-0.00388128,-1.44936,0.00416546,0.0122356,1336,1758,7.50361,-35.6002
119,-734,7.49011,35.5493,-0.00382944,0.00328303,-0.000789549,0.00336963,-0.00391603,-1.46156,0.00421032,0.0136873,1343,1758,7.49014,-35.5494
126,-734,7.47156,35.4822,-0.00370783,0.00335534,-0.000728393,0.00342967,-0.00378216,-1.4691,0.00416541,0.0165628,1350,1758,7.47153,-35.4822
133,-734,7.44519,35.4136,-0.00338857,0.00342066,-0.000702001,0.00349228,-0.00346019,-1.46913,0.00401403,0.0148201,1357,1758,7.44518,-35.4135
140,-734,7.43262,35.3087,-0.00290411,0.00349576,-0.000693268,0.00357,-0.00297835,-1.46412,0.00378583,0.0191711,1364,1758,7.4326,-35.3087
147,-734,7.42712,35.2064,-0.00239122,0.00354122,-0.00078247,0.00364269,-0.00249269,-1.44184,0.00356294,0.0139176,1371,1758,7.42712,-35.2064
154,-734,7.4137,35.1479,-0.00191556,0.00365361,-0.000979483,0.00382085,-0.00208281,-1.40168,0.00345736,0.00984534,1378,1758,7.41368,-35.148
161,-734,7.38721,35.0475,-0.00129157,0.00363819,-0.00113181,0.00388562,-0.00153901,-1.35557,0.00322811,0.00824671,1385,1758,7.38718,-35.0475
168,-734,7.35559,34.9347,-0.000489025,0.00351031,-0.00131137,0.00390195,-0.000880664,-1.28058,0.00293917,0.0134209,1392,1758,7.35557,-34.9347
175,-734,7.3573,34.8141,0.000406961,0.00334563,-0.00165789,0.0040916,-0.000339005,-1.14799,0.00284747,0.0174615,1399,1758,7.35733,-34.8141
182,-734,7.37976,34.6477,0.000446757,0.00353125,-0.00211698,0.00460818,-0.000630179,-1.1002,0.00330229,0.0159229,1406,1758,7.37976,-34.6477
189,-734,7.34814,34.5084,0.000148698,0.0036523,-0.00237081,0.0048483,-0.0010473,-1.10358,0.00363199,0.0111256,1413,1758,7.3481,-34.5085
196,-734,7.32239,34.3966,-0.000249286,0.00394876,-0.00250394,0.00511709,-0.00141762,-1.13423,0.00396923,0.012765,1420,1758,7.32238,-34.3966
203,-734,7.33655,34.2208,-0.00140888,0.00478128,-0.00244461,0.00563027,-0.00225786,-1.23654,0.0046909,0.0183192,1427,1758,7.33649,-34.2208
210,-734,7.32703,34.0341,-0.00294353,0.00451205,-0.00137225,0.0047566,-0.00318808,-1.39444,0.00461657,0.0255753,1434,1758,7.32698,-34.034
217,-734,7.27612,33.8514,-0.00289412,0.0053851,-0.00110326,0.00552959,-0.00303861,-1.44057,0.00501606,0.0249565,1441,1758,7.27616,-33.8515
224,-734,7.31836,33.6118,-0.00307734,0.00619783,-0.000755051,0.00625889,-0.00313841,-1.4901,0.00552434,0.0257904,1448,1758,7.31833,-33.6118
231,-734,7.27295,33.4929,-0.00337744,0.00693082,-0.000227729,0.00693585,-0.00338247,-1.54872,0.00607389,0.0211417,1455,1758,7.27292,-33.4929
238,-734,7.17065,33.3715,-0.00300826,0.00788691,0.000542774,0.00791388,-0.00303523,1.52114,0.0065273,0.0211485,1462,1758,7.17064,-33.3714
245,-734,7.17444,33.113,-0.00213204,0.00868202,0.00125962,0.0088268,-0.00227682,1.45636,0.00677228,0.0267024,1469,1758,7.17449,-33.113
252,-734,7.17529,32.8613,-0.00139164,0.00949661,0.00174583,0.00976969,-0.00166472,1.41564,0.00713308,0.0297724,1476,1758,7.17524,-32.8614
259,-734,7.21948,32.7196,-0.00075832,0.0102793,0.00213743,0.0106788,-0.00115778,1.38604,0.00753484,0.0373876,1483,1758,7.21945,-32.7197
266,-734,7.26672,32.6289,-0.000422197,0.0116359,0.00251849,0.0121408,-0.000927076,1.37295,0.00841993,0.0477181,1490,1758,7.26671,-32.6289
273,-734,7.27441,32.6106,0,0,0,0,0,0,0,-1,1497,1758,7.27442,-32.6106
280,-734,5.85168,30.6813,0,0,0,0,0,0,0,-1,1504,1758,5.85173,-30.6813
287,-734,6.25684,31.4165,0,0,0,0,0,0,0,-1,1511,1758,6.25679,-31.4165
294,-734,6.6272,31.3268,0,0,0,0,0,0,0,-1,1518,1758,6.62716,-31.3267
301,-734,7.27747,29.8801,0,0,0,0,0,0,0,-1,1525,1758,7.2775,-29.8801
308,-734,9.00854,5.43774,0,0,0,0,0,0,0,-1,1532,1758,9.00857,-5.4377
315,-734,5.3158,17.4298,0,0,0,0,0,0,0,-1,1539,1758,5.31581,-17.4299
322,-734,9.85913,7.48096,0,0,0,0,0,0,0,-1,1546,1758,9.85916,-7.48098
329,-734,5.45972,12.4125,0,0,0,0,0,0,0,-1,1553,1758,5.45969,-12.4125
336,-734,5.92188,13.8751,0,0,0,0,0,0,0,-1,1560,1758,5.92183,-13.8751
343,-734,5.54968,5.14221,0,0,0,0,0,0,0,-1,1567,1758,5.54973,-5.14225
350,-734,5.07397,6.73242,0,0,0,0,0,0,0,-1,1574,1758,5.07402,-6.73243
357,-734,5.05542,7.19189,0,0,0,0,0,0,0,-1,1581,1758,5.05541,-7.19184
364,-734,4.43896,10.4904,0,0,0,0,0,0,0,-1,1588,1758,4.43893,-10.4904
371,-734,7.36975,17.4751,0,0,0,0,0,0,0,-1,1595,1758,7.36972,-17.4752
378,-734,0,0,0,0,0,0,0,0,0,-1,1602,1758,0,0
385,-734,0,0,0,0,0,0,0,0,0,-1,1609,1758,0,0
392,-734,0,0,0,0,0,0,0,0,0,-1,1616,1758,0,0
399,-734,0,0,0,0,0,0,0,0,0,-1,1623,1758,0,0
406,-734,0,0,0,0,0,0,0,0,0,-1,1630,1758,0,0
413,-734,0,0,0,0,0,0,0,0,0,-1,1637,1758,0,0
420,-734,0,0,0,0,0,0,0,0,0,-1,1644,1758,0,0
427,-734,0,0,0,0,0,0,0,0,0,-1,1651,1758,0,0
434,-734,0,0,0,0,0,0,0,0,0,-1,1658,1758,0,0
441,-734,0,0,0,0,0,0,0,0,0,-1,1665,1758,0,0
448,-734,0,0,0,0,0,0,0,0,0,-1,1672,1758,0,0
455,-734,0,0,0,0,0,0,0,0,0,-1,1679,1758,0,0
462,-734,0,0,0,0,0,0,0,0,0,-1,1686,1758,0,0
469,-734,0,0,0,0,0,0,0,0,0,-1,1693,1758,0,0
476,-734,0,0,0,0,0,0,0,0,0,-1,1700,1758,0,0
483,-734,0,0,0,0,0,0,0,0,0,-1,1707,1758,0,0
490,-734,0,0,0,0,0,0,0,0,0,-1,1714,1758,0,0
497,-734,0,0,0,0,0,0,0,0,0,-1,1721,1758,0,0
504,-734,0,0,0,0,0,0,0,0,0,-1,1728,1758,0,0
511,-734,0,0,0,0,0,0,0,0,0,-1,1735,1758,0,0
518,-734,0,0,0,0,0,0,0,0,0,-1,1742,1758,0,0
525,-734,0,0,0,0,0,0,0,0,0,-1,1749,1758,0,0
532,-734,0,0,0,0,0,0,0,0,0,-1,1756,1758,0,0
539,-734,0,0,0,0,0,0,0,0,0,-1,1763,1758,0,0
546,-734,0,0,0,0,0,0,0,0,0,-1,1770,1758,0,0
553,-734,0,0,0,0,0,0,0,0,0,-1,1777,1758,0,0
560,-734,0,0,0,0,0,0,0,0,0,-1,1784,1758,0,0
567,-734,0,0,0,0,0,0,0,0,0,-1,1791,1758,0,0
574,-734,0,0,0,0,0,0,0,0,0,-1,1798,1758,0,0
581,-734,0,0,0,0,0,0,0,0,0,-1,1805,1758,0,0
588,-734,0,0,0,0,0,0,0,0,0,-1,1812,1758,0,0
595,-734,0,0,0,0,0,0,0,0,0,-1,1819,1758,0,0
602,-734,0,0,0,0,0,0,0,0,0,-1,1826,1758,0,0
609,-734,0,0,0,0,0,0,0,0,0,-1,1833,1758,0,0
616,-734,0,0,0,0,0,0,0,0,0,-1,1840,1758,0,0
623,-734,0,0,0,0,0,0,0,0,0,-1,1847,1758,0,0
630,-734,0,0,0,0,0,0,0,0,0,-1,1854,1758,0,0
637,-734,0,0,0,0,0,0,0,0,0,-1,1861,1758,0,0
644,-734,0,0,0,0,0,0,0,0,0,-1,1868,1758,0,0
651,-734,0,0,0,0,0,0,0,0,0,-1,1875,1758,0,0
658,-734,0,0,0,0,0,0,0,0,0,-1,1882,1758,0,0
665,-734,0,0,0,0,0,0,0,0,0,-1,1889,1758,0,0
672,-734,0,0,0,0,0,0,0,0,0,-1,1896,1758,0,0
679,-734,0,0,0,0,0,0,0,0,0,-1,1903,1758,0,0
686,-734,0,0,0,0,0,0,0,0,0,-1,1910,1758,0,0
693,-734,0,0,0,0,0,0,0,0,0,-1,1917,1758,0,0
700,-734,0,0,0,0,0,0,0,0,0,-1,1924,1758,0,0
707,-734,0,0,0,0,0,0,0,0,0,-1,1931,1758,0,0
714,-734,0,0,0,0,0,0,0,0,0,-1,1938,1758,0,0
721,-734,0,0,0,0,0,0,0,0,0,-1,1945,1758,0,0
728,-734,0,0,0,0,0,0,0,0,0,-1,1952,1758,0,0
735,-734,0,0,0,0,0,0,0,0,0,-1,1959,1758,0,0
742,-734,0,0,0,0,0,0,0,0,0,-1,1966,1758,0,0
749,-734,0,0,0,0,0,0,0,0,0,-1,1973,1758,0,0
756,-734,0,0,0,0,0,0,0,0,0,-1,1980,1758,0,0
763,-734,0,0,0,0,0,0,0,0,0,-1,1987,1758,0,0
770,-734,0,0,0,0,0,0,0,0,0,-1,1994,1758,0,0
777,-734,0,0,0,0,0,0,0,0,0,-1,2001,1758,0,0
784,-734,0,0,0,0,0,0,0,0,0,-1,2008,1758,0,0
791,-734,0,0,0,0,0,0,0,0,0,-1,2015,1758,0,0
798,-734,0,0,0,0,0,0,0,0,0,-1,2022,1758,0,0
805,-734,0,0,0,0,0,0,0,0,0,-1,2029,1758,0,0
812,-734,0,0,0,0,0,0,0,0,0,-1,2036,1758,0,0
-700,-741,0,0,0,0,0,0,0,0,0,-1,524,1765,0,0
-693,-741,0,0,0,0,0,0,0,0,0,-1,531,1765,0,0
-686,-741,0,0,0,0,0,0,0,0,0,-1,538,1765,0,0
-679,-741,0,0,0,0,0,0,0,0,0,-1,545,1765,0,0
-672,-741,0,0,0,0,0,0,0,0,0,-1,552,1765,0,0
-665,-741,0,0,0,0,0,0,0,0,0,-1,559,1765,0,0
-658,-741,0,0,0,0,0,0,0,0,0,-1,566,1765,0,0
-651,-741,0,0,0,0,0,0,0,0,0,-1,573,1765,0,0
-644,-741,0,0,0,0,0,0,0,0,0,-1,580,1765,0,0
-637,-741,0,0,0,0,0,0,0,0,0,-1,587,1765,0,0
-630,-741,0,0,0,0,0,0,0,0,0,-1,594,1765,0,0
-623,-741,0,0,0,0,0,0,0,0,0,-1,601,1765,0,0
-616,-741,0,0,0,0,0,0,0,0,0,-1,608,1765,0,0
-609,-741,0,0,0,0,0,0,0,0,0,-1,615,1765,0,0
-602,-741,0,0,0,0,0,0,0,0,0,-1,622,1765,0,0
-595,-741,0,0,0,0,0,0,0,0,0,-1,629,1765,0,0
-588,-741,0,0,0,0,0,0,0,0,0,-1,636,1765,0,0
-581,-741,0,0,0,0,0,0,0,0,0,-1,643,1765,0,0
-574,-741,0,0,0,0,0,0,0,0,0,-1,650,1765,0,0
-567,-741,0,0,0,0,0,0,0,0,0,-1,657,1765,0,0
-560,-741,0,0,0,0,0,0,0,0,0,-1,664,1765,0,0
-553,-741,0,0,0,0,0,0,0,0,0,-1,671,1765,0,0
-546,-741,0,0,0,0,0,0,0,0,0,-1,678,1765,0,0
-539,-741,0,0,0,0,0,0,0,0,0,-1,685,1765,0,0
-532,-741,0,0,0,0,0,0,0,0,0,-1,692,1765,0,0
-525,-741,0,0,0,0,0,0,0,0,0,-1,699,1765,0,0
-518,-741,0,0,0,0,0,0,0,0,0,-1,706,1765,0,0
-511,-741,0,0,0,0,0,0,0,0,0,-1,713,1765,0,0
-504,-741,0,0,0,0,0,0,0,0,0,-1,720,1765,0,0
-497,-741,0,0,0,0,0,0,0,0,0,-1,727,1765,0,0
-490,-741,0,0,0,0,0,0,0,0,0,-1,734,1765,0,0
-483,-741,0,0,0,0,0,0,0,0,0,-1,741,1765,0,0
-476,-741,0,0,0,0,0,0,0,0,0,-1,748,1765,0,0
-469,-741,0,0,0,0,0,0,0,0,0,-1,755,1765,0,0
-462,-741,0,0,0,0,0,0,0,0,0,-1,762,1765,0,0
-455,-741,0,0,0,0,0,0,0,0,0,-1,769,1765,0,0
-448,-741,0,0,0,0,0,0,0,0,0,-1,776,1765,0,0
-441,-741,0,0,0,0,0,0,0,0,0,-1,783,1765,0,0
-434,-741,0,0,0,0,0,0,0,0,0,-1,790,1765,0,0
-427,-741,0,0,0,0,0,0,0,0,0,-1,797,1765,0,0
-420,-741,0,0,0,0,0,0,0,0,0,-1,804,1765,0,0
-413,-741,0,0,0,0,0,0,0,0,0,-1,811,1765,0,0
-406,-741,0,0,0,0,0,0,0,0,0,-1,818,1765,0,0
-399,-741,0,0,0,0,0,0,0,0,0,-1,825,1765,0,0
-392,-741,0,0,0,0,0,0,0,0,0,-1,832,1765,0,0
-385,-741,0,0,0,0,0,0,0,0,0,-1,839,1765,0,0
-378,-741,0,0,0,0,0,0,0,0,0,-1,846,1765,0,0
-371,-741,0,0,0,0,0,0,0,0,0,-1,853,1765,0,0
-364,-741,0,0,0,0,0,0,0,0,0,-1,860,1765,0,0
-357,-741,0,0,0,0,0,0,0,0,0,-1,867,1765,0,0
-350,-741,0,0,0,0,0,0,0,0,0,-1,874,1765,0,0
-343,-741,0,0,0,0,0,0,0,0,0,-1,881,1765,0,0
-336,-741,0,0,0,0,0,0,0,0,0,-1,888,1765,0,0
-329,-741,0,0,0,0,0,0,0,0,0,-1,895,1765,0,0
-322,-741,0,0,0,0,0,0,0,0,0,-1,902,1765,0,0
-315,-741,0,0,0,0,0,0,0,0,0,-1,909,1765,0,0
-308,-741,0,0,0,0,0,0,0,0,0,-1,916,1765,0,0
-301,-741,0,0,0,0,0,0,0,0,0,-1,923,1765,0,0
-294,-741,0,0,0,0,0,0,0,0,0,-1,930,1765,0,0
-287,-741,0,0,0,0,0,0,0,0,0,-1,937,1765,0,0
-280,-741,0,0,0,0,0,0,0,0,0,-1,944,1765,0,0
-273,-741,0,0,0,0,0,0,0,0,0,-1,951,1765,0,0
-266,-741,0,0,0,0,0,0,0,0,0,-1,958,1765,0,0
-259,-741,0,0,0,0,0,0,0,0,0,-1,965,1765,0,0
-252,-741,0,0,0,0,0,0,0,0,0,-1,972,1765,0,0
-245,-741,0,0,0,0,0,0,0,0,0,-1,979,1765,0,0
-238,-741,4.71777,14.9655,0,0,0,0,0,0,0,-1,986,1765,4.71776,-14.9654
-231,-741,6.00446,15.8785,0,0,0,0,0,0,0,-1,993,1765,6.00443,-15.8785
-224,-741,6.57977,16.5416,0,0,0,0,0,0,0,-1,1000,1765,6.57975,-16.5416
-217,-741,8.46582,30.9797,0,0,0,0,0,0,0,-1,1007,1765,8.4658,-30.9797
-210,-741,7.27338,32.062,0,0,0,0,0,0,0,-1,1014,1765,7.27339,-32.062
-203,-741,7.27783,31.1265,0,0,0,0,0,0,0,-1,1021,1765,7.27788,-31.1264
-196,-741,6.77002,31.2357,0,0,0,0,0,0,0,-1,1028,1765,6.76996,-31.2357
-189,-741,7.14319,22.3441,0,0,0,0,0,0,0,-1,1035,1765,7.1432,-22.3441
-182,-741,7.4458,23.6536,0,0,0,0,0,0,0,-1,1042,1765,7.44582,-23.6536
-175,-741,7.26477,24.616,0,0,0,0,0,0,0,-1,1049,1765,7.26471,-24.616
-168,-741,5.4801,16.3933,0,0,0,0,0,0,0,-1,1056,1765,5.4801,-16.3933
-161,-741,3.73047,14.4974,0,0,0,0,0,0,0,-1,1063,1765,3.73043,-14.4974
-154,-741,2.46143,9.75415,0,0,0,0,0,0,0,-1,1070,1765,2.46145,-9.75416
-147,-741,8.53247,32.455,0,0,0,0,0,0,0,-1,1077,1765,8.53249,-32.4549
-140,-741,8.56543,32.2886,0,0,0,0,0,0,0,-1,1084,1765,8.56541,-32.2886
-133,-741,8.42444,32.2933,0,0,0,0,0,0,0,-1,1091,1765,8.42442,-32.2933
-126,-741,8.03442,32.4227,0,0,0,0,0,0,0,-1,1098,1765,8.03442,-32.4227
-119,-741,7.90747,32.8015,0,0,0,0,0,0,0,-1,1105,1765,7.9075,-32.8015
-112,-741,8.12939,32.901,0,0,0,0,0,0,0,-1,1112,1765,8.12945,-32.901
-105,-741,8.02173,33.1169,0,0,0,0,0,0,0,-1,1119,1765,8.02168,-33.117
-98,-741,8.07397,33.2123,0,0,0,0,0,0,0,-1,1126,1765,8.07402,-33.2122
-91,-741,7.96167,33.4413,0,0,0,0,0,0,0,-1,1133,1765,7.96161,-33.4413
-84,-741,7.75183,33.2811,0,0,0,0,0,0,0,-1,1140,1765,7.75179,-33.2811
-77,-741,7.66589,31.6727,0,0,0,0,0,0,0,-1,1147,1765,7.66584,-31.6727
-70,-741,7.5437,32.0275,0,0,0,0,0,0,0,-1,1154,1765,7.5437,-32.0275
-63,-741,7.62109,33.9009,0,0,0,0,0,0,0,-1,1161,1765,7.62105,-33.9009
-56,-741,7.82654,34.2916,0,0,0,0,0,0,0,-1,1168,1765,7.82656,-34.2916
-49,-741,7.81946,34.6327,0,0,0,0,0,0,0,-1,1175,1765,7.81949,-34.6327
-42,-741,7.73755,34.5647,0,0,0,0,0,0,0,-1,1182,1765,7.73754,-34.5647
-35,-741,7.74548,34.8378,-0.00901981,-0.000633071,-0.00148282,-0.000378619,-0.00927426,-1.40085,0.00606058,0.023964,1189,1765,7.74554,-34.8378
-28,-741,7.74707,34.9805,-0.00854785,-0.00155285,-0.00199876,-0.00102201,-0.00907869,-1.3112,0.00574219,0.0143535,1196,1765,7.74704,-34.9804
-21,-741,7.75488,35.095,-0.00796835,-0.00227055,-0.00220823,-0.00151494,-0.00872396,-1.2411,0.00538253,0.0168276,1203,1765,7.75486,-35.0949
-14,-741,7.69556,35.2004,-0.00667585,-0.00243447,-0.00280911,-0.00103544,-0.00807489,-1.10872,0.00507345,0.0171224,1210,1765,7.69559,-35.2005
-7,-741,7.68567,35.2795,-0.00559252,-0.00245284,-0.00292365,-0.000704227,-0.00734112,-1.03178,0.00467705,0.0147997,1217,1765,7.68561,-35.2795
0,-741,7.66785,35.3721,-0.004927,-0.00219206,-0.00314016,-0.00013454,-0.00698452,-0.990754,0.00461216,0.0147653,1224,1765,7.66782,-35.372
7,-741,7.64453,35.4656,-0.00415705,-0.00194328,-0.00326665,0.000398923,-0.00649925,-0.948749,0.00447174,0.017175,1231,1765,7.64454,-35.4655
14,-741,7.61951,35.5377,-0.00348874,-0.00154512,-0.00334741,0.000968686,-0.00600255,-0.926673,0.00436061,0.0160977,1238,1765,7.61947,-35.5377
21,-741,7.59521,35.5677,-0.00295685,-0.00100452,-0.00344413,0.00159911,-0.00556049,-0.923491,0.00433938,0.0119207,1245,1765,7.59524,-35.5677
28,-741,7.57581,35.6316,-0.00259063,-0.000300065,-0.00355643,0.00229095,-0.00518165,-0.941171,0.0044206,0.0120032,1252,1765,7.57581,-35.6316
35,-741,7.58301,35.6742,-0.00242271,0.000494845,-0.00365753,0.00297378,-0.00490164,-0.975152,0.00459206,0.0138049,1259,1765,7.58301,-35.6741
42,-741,7.58728,35.6945,-0.00219473,0.00126523,-0.00362244,0.00354959,-0.00447909,-1.00817,0.0046457,0.0138062,1266,1765,7.58729,-35.6944
49,-741,7.54346,35.7245,-0.0021251,0.00189888,-0.00349577,0.00392032,-0.00414653,-1.04652,0.00465801,0.00957629,1273,1765,7.5435,-35.7245
56,-741,7.51526,35.7489,-0.00252629,0.00253091,-0.00344411,0.00427498,-0.00427036,-1.10205,0.00493365,0.0101685,1280,1765,7.51521,-35.7489
63,-741,7.49536,35.7648,-0.00318464,0.00320329,-0.0033579,0.00464364,-0.004625,-1.16559,0.00535126,0.014536,1287,1765,7.49538,-35.7647
70,-741,7.48694,35.7745,-0.00403404,0.00395403,-0.00309531,0.00501304,-0.00509305,-1.24115,0.00583481,0.0153691,1294,1765,7.48699,-35.7746
77,-741,7.47278,35.7975,-0.00462107,0.0044307,-0.00273287,0.0051918,-0.00538217,-1.29918,0.00610522,0.013144,1301,1765,7.47276,-35.7975
84,-741,7.45117,35.7799,-0.00528358,0.00477746,-0.00244519,0.00534025,-0.00584636,-1.34457,0.0064608,0.0162319,1308,1765,7.45121,-35.7799
91,-741,7.44373,35.7465,-0.00627143,0.00470739,-0.00196333,0.00504793,-0.00661197,-1.39906,0.006752,0.0125922,1315,1765,7.44374,-35.7464
98,-741,7.43982,35.7024,-0.00682105,0.00475472,-0.00174179,0.00501113,-0.00707745,-1.42464,0.00701325,0.0102093,1322,1765,7.43985,-35.7024
105,-741,7.44983,35.6393,-0.00669762,0.00497298,-0.00147549,0.00515664,-0.00688127,-1.44696,0.00697383,0.0106603,1329,1765,7.44981,-35.6393
112,-741,7.4469,35.6027,-0.00685033,0.00524587,-0.00124994,0.00537369,-0.00697814,-1.4689,0.00715135,0.0108574,1336,1765,7.44688,-35.6027
119,-741,7.43311,35.5251,-0.00682843,0.0054541,-0.00111743,0.00555494,-0.00692926,-1.4808,0.0072223,0.0137503,1343,1765,7.43316,-35.5252
126,-741,7.39819,35.4677,-0.00656159,0.00567669,-0.000992185,0.00575661,-0.0066415,-1.49042,0.00716413,0.0179197,1350,1765,7.39824,-35.4676
133,-741,7.36584,35.3999,-0.00596468,0.00586569,-0.00090982,0.00593525,-0.00603424,-1.49449,0.00691067,0.0137992,1357,1765,7.36582,-35.3998
140,-741,7.34778,35.3062,-0.00505831,0.00605343,-0.000878422,0.00612244,-0.00512733,-1.49239,0.00650352,0.0109169,1364,1765,7.34784,-35.3061
147,-741,7.34985,35.2274,-0.00409704,0.00617832,-0.00100604,0.00627589,-0.00419461,-1.47411,0.00608482,0.0106731,1371,1765,7.34983,-35.2274
154,-741,7.3291,35.1516,-0.00321343,0.00632383,-0.00132702,0.00650503,-0.00339463,-1.43509,0.00580885,0.00868279,1378,1765,7.32913,-35.1516
161,-741,7.29346,35.0428,-0.00212359,0.00629783,-0.0015287,0.00656674,-0.0023925,-1.39667,0.0053565,0.00973115,1385,1765,7.29348,-35.0429
168,-741,7.27368,34.9412,-0.000750586,0.00607459,-0.00173923,0.00649224,-0.00116823,-1.33513,0.00476554,0.0251687,1392,1765,7.27374,-34.9411
175,-741,7.25989,34.8721,0,0,0,0,0,0,0,-1,1399,1765,7.2599,-34.872
182,-741,7.26636,34.6608,0,0,0,0,0,0,0,-1,1406,1765,7.2664,-34.6607
189,-741,7.19873,34.5392,0,0,0,0,0,0,0,-1,1413,1765,7.19867,-34.5392
196,-741,7.1593,34.4238,0,0,0,0,0,0,0,-1,1420,1765,7.15934,-34.4238
203,-741,7.17651,34.187,0,0,0,0,0,0,0,-1,1427,1765,7.17654,-34.187
210,-741,7.15613,33.8501,0,0,0,0,0,0,0,-1,1434,1765,7.15614,-33.8501
217,-741,7.33643,33.6558,0,0,0,0,0,0,0,-1,1441,1765,7.33648,-33.6558
224,-741,7.37732,33.4026,0,0,0,0,0,0,0,-1,1448,1765,7.37726,-33.4026
231,-741,7.17493,33.4617,0,0,0,0,0,0,0,-1,1455,1765,7.17493,-33.4617
238,-741,6.974,33.3982,0,0,0,0,0,0,0,-1,1462,1765,6.97395,-33.3982
245,-741,6.9873,33.0104,0,0,0,0,0,0,0,-1,1469,1765,6.98727,-33.0104
252,-741,7.29492,32.3451,-0.00232886,0.0132904,0.00326298,0.0139446,-0.00298312,1.37291,0.0104339,0.0455121,1476,1765,7.29496,-32.3451
259,-741,7.11377,32.7817,-0.00136491,0.014284,0.00400618,0.0152499,-0.00233088,1.33419,0.011026,0.0494702,1483,1765,7.11377,-32.7817
266,-741,7.10132,32.7947,0,0,0,0,0,0,0,-1,1490,1765,7.10137,-32.7947
273,-741,17.0328,7.54468,0,0,0,0,0,0,0,-1,1497,1765,17.0328,-7.54474
280,-741,16.2363,9.84546,0,0,0,0,0,0,0,-1,1504,1765,16.2363,-9.84547
287,-741,5.63147,30.2782,0,0,0,0,0,0,0,-1,1511,1765,5.63153,-30.2782
294,-741,6.1488,31.2629,0,0,0,0,0,0,0,-1,1518,1765,6.14881,-31.2629
301,-741,11.036,7.02612,0,0,0,0,0,0,0,-1,1525,1765,11.036,-7.02617
308,-741,10.4718,6.09814,0,0,0,0,0,0,0,-1,1532,1765,10.4718,-6.0981
315,-741,9.70715,6.86963,0,0,0,0,0,0,0,-1,1539,1765,9.70712,-6.86963
322,-741,9.21252,8.54858,0,0,0,0,0,0,0,-1,1546,1765,9.21251,-8.54858
329,-741,8.5603,10.1146,0,0,0,0,0,0,0,-1,1553,1765,8.56033,-10.1146
336,-741,4.74475,14.6453,0,0,0,0,0,0,0,-1,1560,1765,4.7447,-14.6452
343,-741,5.42297,5.93701,0,0,0,0,0,0,0,-1,1567,1765,5.42296,-5.937
350,-741,4.90369,5.44666,0,0,0,0,0,0,0,-1,1574,1765,4.90368,-5.44664
357,-741,4.02063,5.16626,0,0,0,0,0,0,0,-1,1581,1765,4.02058,-5.1662
364,-741,0,0,0,0,0,0,0,0,0,-1,1588,1765,0,0
371,-741,0,0,0,0,0,0,0,0,0,-1,1595,1765,0,0
378,-741,0,0,0,0,0,0,0,0,0,-1,1602,1765,0,0
385,-741,0,0,0,0,0,0,0,0,0,-1,1609,1765,0,0
392,-741,0,0,0,0,0,0,0,0,0,-1,1616,1765,0,0
399,-741,0,0,0,0,0,0,0,0,0,-1,1623,1765,0,0
406,-741,0,0,0,0,0,0,0,0,0,-1,1630,1765,0,0
413,-741,0,0,0,0,0,0,0,0,0,-1,1637,1765,0,0
420,-741,0,0,0,0,0,0,0,0,0,-1,1644,1765,0,0
427,-741,0,0,0,0,0,0,0,0,0,-1,1651,1765,0,0
434,-741,0,0,0,0,0,0,0,0,0,-1,1658,1765,0,0
441,-741,0,0,0,0,0,0,0,0,0,-1,1665,1765,0,0
448,-741,0,0,0,0,0,0,0,0,0,-1,1672,1765,0,0
455,-741,0,0,0,0,0,0,0,0,0,-1,1679,1765,0,0
462,-741,0,0,0,0,0,0,0,0,0,-1,1686,1765,0,0
469,-741,0,0,0,0,0,0,0,0,0,-1,1693,1765,0,0
476,-741,0,0,0,0,0,0,0,0,0,-1,1700,1765,0,0
483,-741,0,0,0,0,0,0,0,0,0,-1,1707,1765,0,0
490,-741,0,0,0,0,0,0,0,0,0,-1,1714,1765,0,0
497,-741,0,0,0,0,0,0,0,0,0,-1,1721,1765,0,0
504,-741,0,0,0,0,0,0,0,0,0,-1,1728,1765,0,0
511,-741,0,0,0,0,0,0,0,0,0,-1,1735,1765,0,0
518,-741,0,0,0,0,0,0,0,0,0,-1,1742,1765,0,0
525,-741,0,0,0,0,0,0,0,0,0,-1,1749,1765,0,0
532,-741,0,0,0,0,0,0,0,0,0,-1,1756,1765,0,0
539,-741,0,0,0,0,0,0,0,0,0,-1,1763,1765,0,0
546,-741,0,0,0,0,0,0,0,0,0,-1,1770,1765,0,0
553,-741,0,0,0,0,0,0,0,0,0,-1,1777,1765,0,0
560,-741,0,0,0,0,0,0,0,0,0,-1,1784,1765,0,0
567,-741,0,0,0,0,0,0,0,0,0,-1,1791,1765,0,0
574,-741,0,0,0,0,0,0,0,0,0,-1,1798,1765,0,0
581,-741,0,0,0,0,0,0,0,0,0,-1,1805,1765,0,0
588,-741,0,0,0,0,0,0,0,0,0,-1,1812,1765,0,0
595,-741,0,0,0,0,0,0,0,0,0,-1,1819,1765,0,0
602,-741,0,0,0,0,0,0,0,0,0,-1,1826,1765,0,0
609,-741,0,0,0,0,0,0,0,0,0,-1,1833,1765,0,0
616,-741,0,0,0,0,0,0,0,0,0,-1,1840,1765,0,0
623,-741,0,0,0,0,0,0,0,0,0,-1,1847,1765,0,0
630,-741,0,0,0,0,0,0,0,0,0,-1,1854,1765,0,0
637,-741,0,0,0,0,0,0,0,0,0,-1,1861,1765,0,0
644,-741,0,0,0,0,0,0,0,0,0,-1,1868,1765,0,0
651,-741,0,0,0,0,0,0,0,0,0,-1,1875,1765,0,0
658,-741,0,0,0,0,0,0,0,0,0,-1,1882,1765,0,0
665,-741,0,0,0,0,0,0,0,0,0,-1,1889,1765,0,0
672,-741,0,0,0,0,0,0,0,0,0,-1,1896,1765,0,0
679,-741,0,0,0,0,0,0,0,0,0,-1,1903,1765,0,0
686,-741,0,0,0,0,0,0,0,0,0,-1,1910,1765,0,0
693,-741,0,0,0,0,0,0,0,0,0,-1,1917,1765,0,0
700,-741,0,0,0,0,0,0,0,0,0,-1,1924,1765,0,0
707,-741,0,0,0,0,0,0,0,0,0,-1,1931,1765,0,0
714,-741,0,0,0,0,0,0,0,0,0,-1,1938,1765,0,0
721,-741,0,0,0,0,0,0,0,0,0,-1,1945,1765,0,0
728,-741,0,0,0,0,0,0,0,0,0,-1,1952,1765,0,0
735,-741,0,0,0,0,0,0,0,0,0,-1,1959,1765,0,0
742,-741,0,0,0,0,0,0,0,0,0,-1,1966,1765,0,0
749,-741,0,0,0,0,0,0,0,0,0,-1,1973,1765,0,0
756,-741,0,0,0,0,0,0,0,0,0,-1,1980,1765,0,0
763,-741,0,0,0,0,0,0,0,0,0,-1,1987,1765,0,0
770,-741,0,0,0,0,0,0,0,0,0,-1,1994,1765,0,0
777,-741,0,0,0,0,0,0,0,0,0,-1,2001,1765,0,0
784,-741,0,0,0,0,0,0,0,0,0,-1,2008,1765,0,0
791,-741,0,0,0,0,0,0,0,0,0,-1,2015,1765,0,0
798,-741,0,0,0,0,0,0,0,0,0,-1,2022,1765,0,0
805,-741,0,0,0,0,0,0,0,0,0,-1,2029,1765,0,0
812,-741,0,0,0,0,0,0,0,0,0,-1,2036,1765,0,0
-700,-748,0,0,0,0,0,0,0,0,0,-1,524,1772,0,0
-693,-748,0,0,0,0,0,0,0,0,0,-1,531,1772,0,0
-686,-748,0,0,0,0,0,0,0,0,0,-1,538,1772,0,0
-679,-748,0,0,0,0,0,0,0,0,0,-1,545,1772,0,0
-672,-748,0,0,0,0,0,0,0,0,0,-1,552,1772,0,0
-665,-748,0,0,0,0,0,0,0,0,0,-1,559,1772,0,0
-658,-748,0,0,0,0,0,0,0,0,0,-1,566,1772,0,0
-651,-748,0,0,0,0,0,0,0,0,0,-1,573,1772,0,0
-644,-748,0,0,0,0,0,0,0,0,0,-1,580,1772,0,0
-637,-748,0,0,0,0,0,0,0,0,0,-1,587,1772,0,0
-630,-748,0,0,0,0,0,0,0,0,0,-1,594,1772,0,0
-623,-748,0,0,0,0,0,0,0,0,0,-1,601,1772,0,0
-616,-748,0,0,0,0,0,0,0,0,0,-1,608,1772,0,0
-609,-748,0,0,0,0,0,0,0,0,0,-1,615,1772,0,0
-602,-748,0,0,0,0,0,0,0,0,0,-1,622,1772,0,0
-595,-748,0,0,0,0,0,0,0,0,0,-1,629,1772,0,0
-588,-748,0,0,0,0,0,0,0,0,0,-1,636,1772,0,0
-581,-748,0,0,0,0,0,0,0,0,0,-1,643,1772,0,0
-574,-748,0,0,0,0,0,0,0,0,0,-1,650,1772,0,0
-567,-748,0,0,0,0,0,0,0,0,0,-1,657,1772,0,0
-560,-748,0,0,0,0,0,0,0,0,0,-1,664,1772,0,0
-553,-748,0,0,0,0,0,0,0,0,0,-1,671,1772,0,0
-546,-748,0,0,0,0,0,0,0,0,0,-1,678,1772,0,0
-539,-748,0,0,0,0,0,0,0,0,0,-1,685,1772,0,0
-532,-748,0,0,0,0,0,0,0,0,0,-1,692,1772,0,0
-525,-748,0,0,0,0,0,0,0,0,0,-1,699,1772,0,0
-518,-748,0,0,0,0,0,0,0,0,0,-1,706,1772,0,0
-511,-748,0,0,0,0,0,0,0,0,0,-1,713,1772,0,0
-504,-748,0,0,0,0,0,0,0,0,0,-1,720,1772,0,0
-497,-748,0,0,0,0,0,0,0,0,0,-1,727,1772,0,0
-490,-748,0,0,0,0,0,0,0,0,0,-1,734,1772,0,0
-483,-748,0,0,0,0,0,0,0,0,0,-1,741,1772,0,0
-476,-748,0,0,0,0,0,0,0,0,0,-1,748,1772,0,0
-469,-748,0,0,0,0,0,0,0,0,0,-1,755,1772,0,0
-462,-748,0,0,0,0,0,0,0,0,0,-1,762,1772,0,0
-455,-748,0,0,0,0,0,0,0,0,0,-1,769,1772,0,0
-448,-748,0,0,0,0,0,0,0,0,0,-1,776,1772,0,0
-441,-748,0,0,0,0,0,0,0,0,0,-1,783,1772,0,0
-434,-748,0,0,0,0,0,0,0,0,0,-1,790,1772,0,0
-427,-748,0,0,0,0,0,0,0,0,0,-1,797,1772,0,0
-420,-748,0,0,0,0,0,0,0,0,0,-1,804,1772,0,0
-413,-748,0,0,0,0,0,0,0,0,0,-1,811,1772,0,0
-406,-748,0,0,0,0,0,0,0,0,0,-1,818,1772,0,0
-399,-748,0,0,0,0,0,0,0,0,0,-1,825,1772,0,0
-392,-748,0,0,0,0,0,0,0,0,0,-1,832,1772,0,0
-385,-748,0,0,0,0,0,0,0,0,0,-1,839,1772,0,0
-378,-748,0,0,0,0,0,0,0,0,0,-1,846,1772,0,0
-371,-748,0,0,0,0,0,0,0,0,0,-1,853,1772,0,0
-364,-748,0,0,0,0,0,0,0,0,0,-1,860,1772,0,0
-357,-748,0,0,0,0,0,0,0,0,0,-1,867,1772,0,0
-350,-748,0,0,0,0,0,0,0,0,0,-1,874,1772,0,0
-343,-748,0,0,0,0,0,0,0,0,0,-1,881,1772,0,0
-336,-748,0,0,0,0,0,0,0,0,0,-1,888,1772,0,0
-329,-748,0,0,0,0,0,0,0,0,0,-1,895,1772,0,0
-322,-748,0,0,0,0,0,0,0,0,0,-1,902,1772,0,0
-315,-748,0,0,0,0,0,0,0,0,0,-1,909,1772,0,0
-308,-748,0,0,0,0,0,0,0,0,0,-1,916,1772,0,0
-301,-748,0,0,0,0,0,0,0,0,0,-1,923,1772,0,0
-294,-748,0,0,0,0,0,0,0,0,0,-1,930,1772,0,0
-287,-748,0,0,0,0,0,0,0,0,0,-1,937,1772,0,0
-280,-748,0,0,0,0,0,0,0,0,0,-1,944,1772,0,0
-273,-748,0,0,0,0,0,0,0,0,0,-1,951,1772,0,0
-266,-748,0,0,0,0,0,0,0,0,0,-1,958,1772,0,0
-259,-748,0,0,0,0,0,0,0,0,0,-1,965,1772,0,0
-252,-748,0,0,0,0,0,0,0,0,0,-1,972,1772,0,0
-245,-748,0,0,0,0,0,0,0,0,0,-1,979,1772,0,0
-238,-748,0,0,0,0,0,0,0,0,0,-1,986,1772,0,0
-231,-748,0,0,0,0,0,0,0,0,0,-1,993,1772,0,0
-224,-748,0,0,0,0,0,0,0,0,0,-1,1000,1772,0,0
-217,-748,6.45807,16.5496,0,0,0,0,0,0,0,-1,1007,1772,6.45805,-16.5495
-210,-748,8.08215,31.9536,0,0,0,0,0,0,0,-1,1014,1772,8.08215,-31.9537
-203,-748,7.7262,31.4922,0,0,0,0,0,0,0,-1,1021,1772,7.72624,-31.4922
-196,-748,5.15344,22.8755,0,0,0,0,0,0,0,-1,1028,1772,5.15342,-22.8754
-189,-748,7.13208,21.4095,0,0,0,0,0,0,0,-1,1035,1772,7.13211,-21.4095
-182,-748,3.94958,20.8662,0,0,0,0,0,0,0,-1,1042,1772,3.94959,-20.8662
-175,-748,3.56726,19.4518,0,0,0,0,0,0,0,-1,1049,1772,3.5673,-19.4518
-168,-748,3.04858,18.0109,0,0,0,0,0,0,0,-1,1056,1772,3.04853,-18.0108
-161,-748,3.50562,13.2729,0,0,0,0,0,0,0,-1,1063,1772,3.5056,-13.2729
-154,-748,-3.38562,10.6989,0,0,0,0,0,0,0,-1,1070,1772,-3.38564,-10.6989
-147,-748,-6.38733,11.0702,0,0,0,0,0,0,0,-1,1077,1772,-6.38731,-11.0702
-140,-748,7.42126,23.8113,0,0,0,0,0,0,0,-1,1084,1772,7.42133,-23.8113
-133,-748,7.44727,22.0308,0,0,0,0,0,0,0,-1,1091,1772,7.44728,-22.0308
-126,-748,5.98035,22.6067,0,0,0,0,0,0,0,-1,1098,1772,5.9803,-22.6067
-119,-748,6.63342,26.309,0,0,0,0,0,0,0,-1,1105,1772,6.6334,-26.3089
-112,-748,6.91333,24.923,0,0,0,0,0,0,0,-1,1112,1772,6.91339,-24.923
-105,-748,6.83313,25.0537,0,0,0,0,0,0,0,-1,1119,1772,6.83311,-25.0537
-98,-748,8.13623,30.8743,0,0,0,0,0,0,0,-1,1126,1772,8.13628,-30.8742
-91,-748,4.85352,15.3033,0,0,0,0,0,0,0,-1,1133,1772,4.85351,-15.3033
-84,-748,-0.192017,7.26196,0,0,0,0,0,0,0,-1,1140,1772,-0.192047,-7.26201
-77,-748,4.42615,13.5537,0,0,0,0,0,0,0,-1,1147,1772,4.4261,-13.5538
-70,-748,4.46191,13.7446,0,0,0,0,0,0,0,-1,1154,1772,4.4619,-13.7446
-63,-748,4.49768,13.9355,0,0,0,0,0,0,0,-1,1161,1772,4.49769,-13.9355
-56,-748,3.05762,7.87817,0,0,0,0,0,0,0,-1,1168,1772,3.05768,-7.87822
-49,-748,3.04102,7.82471,0,0,0,0,0,0,0,-1,1175,1772,3.04096,-7.82468
-42,-748,0.793457,14.9474,0,0,0,0,0,0,0,-1,1182,1772,0.793413,-14.9474
-35,-748,7.89941,34.778,0,0,0,0,0,0,0,-1,1189,1772,7.89936,-34.778
-28,-748,7.85657,35.0222,-0.0130075,-0.00204367,-0.00334337,-0.00110456,-0.0139466,-1.29697,0.0089523,0.0495288,1196,1772,7.8566,-35.0222
-21,-748,7.86707,35.132,-0.0117792,-0.00298489,-0.00352202,-0.00174826,-0.0130158,-1.23313,0.00815715,0.0233552,1203,1772,7.86705,-35.1319
-14,-748,7.81494,35.1589,-0.00967978,-0.00320639,-0.0042659,-0.00108826,-0.0117979,-1.10993,0.00752878,0.0163971,1210,1772,7.81496,-35.159
-7,-748,7.76318,35.2592,-0.00790803,-0.00328255,-0.00435854,-0.000661164,-0.0105294,-1.02932,0.00680993,0.0156966,1217,1772,7.76324,-35.2592
0,-748,7.72937,35.3538,-0.0066372,-0.00293005,-0.00459825,0.000174164,-0.00974142,-0.976988,0.00655311,0.0150845,1224,1772,7.72938,-35.3538
7,-748,7.71643,35.4374,-0.00532384,-0.0025821,-0.00475006,0.00099095,-0.00889689,-0.925881,0.00628766,0.0143471,1231,1772,7.71647,-35.4374
14,-748,7.68176,35.5135,-0.00424197,-0.00202357,-0.00490246,0.0018936,-0.00815915,-0.896652,0.00616829,0.015116,1238,1772,7.6817,-35.5135
21,-748,7.65613,35.5726,-0.00342002,-0.00124178,-0.00506354,0.00284845,-0.00751024,-0.891329,0.00617918,0.0110374,1245,1772,7.65615,-35.5726
28,-748,7.63647,35.6205,-0.0029618,-0.000197878,-0.00526972,0.00386808,-0.00702776,-0.913633,0.00637827,0.0111316,1252,1772,7.63644,-35.6205
35,-748,7.60352,35.665,-0.00296558,0.000944865,-0.00538296,0.0047167,-0.00673741,-0.959602,0.00664725,0.0119331,1259,1772,7.60348,-35.665
42,-748,7.58752,35.6957,-0.00292812,0.00199834,-0.00529228,0.00537255,-0.00630233,-1.00321,0.00674761,0.0126096,1266,1772,7.58751,-35.6957
49,-748,7.56433,35.71,-0.00309796,0.00292205,-0.00501377,0.00575995,-0.00593586,-1.05574,0.00675284,0.0101049,1273,1772,7.56435,-35.7099
56,-748,7.52905,35.7467,-0.00392877,0.00378536,-0.00485697,0.00613048,-0.00627389,-1.12097,0.00716183,0.0103384,1280,1772,7.52909,-35.7467
63,-748,7.51831,35.7438,-0.00508001,0.00470995,-0.00467521,0.0065839,-0.00695396,-1.18958,0.00781706,0.0119517,1287,1772,7.51837,-35.7438
70,-748,7.50049,35.7504,-0.00648963,0.00569722,-0.00428181,0.0070512,-0.0078436,-1.26453,0.00860357,0.0129922,1294,1772,7.50054,-35.7504
77,-748,7.48157,35.7645,-0.00750472,0.00636412,-0.00373187,0.00730453,-0.00844514,-1.32394,0.00910102,0.0124425,1301,1772,7.48157,-35.7645
84,-748,7.43225,35.7615,-0.00843667,0.00689459,-0.00326818,0.0075622,-0.00910428,-1.36929,0.00963611,0.0142972,1308,1772,7.43229,-35.7614
91,-748,7.41565,35.7354,-0.0097839,0.00686063,-0.0025387,0.00723923,-0.0101625,-1.42275,0.010094,0.0111421,1315,1772,7.41567,-35.7354
98,-748,7.39465,35.6888,-0.010479,0.00700683,-0.00221366,0.00728272,-0.0107549,-1.4468,0.0104781,0.0106799,1322,1772,7.39469,-35.6888
105,-748,7.38013,35.63,-0.0103114,0.0073821,-0.00184615,0.00757267,-0.0105019,-1.46793,0.010481,0.0120923,1329,1772,7.38012,-35.63
112,-748,7.37805,35.5961,-0.010435,0.00787591,-0.00155749,0.00800744,-0.0105666,-1.48654,0.0107576,0.0154242,1336,1772,7.3781,-35.5961
119,-748,7.37891,35.5284,-0.0102109,0.00832399,-0.0013467,0.00842133,-0.0103082,-1.49864,0.0108318,0.0133807,1343,1772,7.37885,-35.5284
126,-748,7.34644,35.4669,-0.00967177,0.008804,-0.00113547,0.00887352,-0.00974129,-1.50965,0.0107512,0.0141229,1350,1772,7.34643,-35.4669
133,-748,7.29016,35.4052,-0.00860129,0.00921507,-0.000961083,0.00926677,-0.00865299,-1.51706,0.010348,0.00880907,1357,1772,7.29019,-35.4052
140,-748,7.29211,35.3381,-0.00701494,0.00963869,-0.000926618,0.00969009,-0.00706634,-1.51538,0.00971378,0.0118702,1364,1772,7.29209,-35.3382
147,-748,7.29407,35.2306,-0.00533839,0.0100471,-0.00108475,0.0101232,-0.00541449,-1.50075,0.00910698,0.0142192,1371,1772,7.29402,-35.2306
154,-748,7.24512,35.1338,-0.0038574,0.0103316,-0.00157151,0.0105035,-0.00402937,-1.4618,0.00866365,0.0116756,1378,1772,7.24517,-35.1337
161,-748,7.19312,35.0586,-0.0021645,0.010419,-0.00185154,0.0106858,-0.00243128,-1.4277,0.00805749,0.0171619,1385,1772,7.19308,-35.0586
168,-748,7.2019,34.9633,0,0,0,0,0,0,0,-1,1392,1772,7.20188,-34.9632
175,-748,11.6235,16.8242,0,0,0,0,0,0,0,-1,1399,1772,11.6236,-16.8242
182,-748,7.62476,10.3058,0,0,0,0,0,0,0,-1,1406,1772,7.62476,-10.3058
189,-748,6.15857,6.95898,0,0,0,0,0,0,0,-1,1413,1772,6.15862,-6.95896
196,-748,3.9425,8.46021,0,0,0,0,0,0,0,-1,1420,1772,3.9425,-8.46026
203,-748,3.9668,12.9835,0,0,0,0,0,0,0,-1,1427,1772,3.96678,-12.9836
210,-748,4.71472,16.8318,0,0,0,0,0,0,0,-1,1434,1772,4.71471,-16.8317
217,-748,5.38452,21.5551,0,0,0,0,0,0,0,-1,1441,1772,5.38455,-21.555
224,-748,6.14258,25.2345,0,0,0,0,0,0,0,-1,1448,1772,6.14263,-25.2345
231,-748,6.46045,29.7867,0,0,0,0,0,0,0,-1,1455,1772,6.46049,-29.7867
238,-748,7.41565,32.8574,0,0,0,0,0,0,0,-1,1462,1772,7.41562,-32.8574
245,-748,7.84912,32.0914,0,0,0,0,0,0,0,-1,1469,1772,7.84914,-32.0914
252,-748,7.39758,31.8717,0,0,0,0,0,0,0,-1,1476,1772,7.3976,-31.8717
259,-748,6.88977,32.6669,0,0,0,0,0,0,0,-1,1483,1772,6.88981,-32.6668
266,-748,17.9011,7.59448,0,0,0,0,0,0,0,-1,1490,1772,17.9011,-7.59452
273,-748,16.4131,7.57129,0,0,0,0,0,0,0,-1,1497,1772,16.413,-7.57125
280,-748,15.2177,7.24829,0,0,0,0,0,0,0,-1,1504,1772,15.2176,-7.24833
287,-748,14.161,8.32813,0,0,0,0,0,0,0,-1,1511,1772,14.161,-8.32808
294,-748,12.2117,7.453,0,0,0,0,0,0,0,-1,1518,1772,12.2116,-7.45297
301,-748,11.7134,7.3595,0,0,0,0,0,0,0,-1,1525,1772,11.7133,-7.35949
308,-748,9.92456,7.80225,0,0,0,0,0,0,0,-1,1532,1772,9.92453,-7.80224
315,-748,8.91541,8.29773,0,0,0,0,0,0,0,-1,1539,1772,8.91544,-8.29773
322,-748,7.83618,8.87122,0,0,0,0,0,0,0,-1,1546,1772,7.83613,-8.87124
329,-748,3.48315,14.6533,0,0,0,0,0,0,0,-1,1553,1772,3.48316,-14.6534
336,-748,3.76001,15.8163,0,0,0,0,0,0,0,-1,1560,1772,3.75995,-15.8163
343,-748,0,0,0,0,0,0,0,0,0,-1,1567,1772,0,0
350,-748,0,0,0,0,0,0,0,0,0,-1,1574,1772,0,0
357,-748,0,0,0,0,0,0,0,0,0,-1,1581,1772,0,0
364,-748,0,0,0,0,0,0,0,0,0,-1,1588,1772,0,0
371,-748,0,0,0,0,0,0,0,0,0,-1,1595,1772,0,0
378,-748,0,0,0,0,0,0,0,0,0,-1,1602,1772,0,0
385,-748,0,0,0,0,0,0,0,0,0,-1,1609,1772,0,0
392,-748,0,0,0,0,0,0,0,0,0,-1,1616,1772,0,0
399,-748,0,0,0,0,0,0,0,0,0,-1,1623,1772,0,0
406,-748,0,0,0,0,0,0,0,0,0,-1,1630,1772,0,0
413,-748,0,0,0,0,0,0,0,0,0,-1,1637,1772,0,0
420,-748,0,0,0,0,0,0,0,0,0,-1,1644,1772,0,0
427,-748,0,0,0,0,0,0,0,0,0,-1,1651,1772,0,0
434,-748,0,0,0,0,0,0,0,0,0,-1,1658,1772,0,0
441,-748,0,0,0,0,0,0,0,0,0,-1,1665,1772,0,0
448,-748,0,0,0,0,0,0,0,0,0,-1,1672,1772,0,0
455,-748,0,0,0,0,0,0,0,0,0,-1,1679,1772,0,0
462,-748,0,0,0,0,0,0,0,0,0,-1,1686,1772,0,0
469,-748,0,0,0,0,0,0,0,0,0,-1,1693,1772,0,0
476,-748,0,0,0,0,0,0,0,0,0,-1,1700,1772,0,0
483,-748,0,0,0,0,0,0,0,0,0,-1,1707,1772,0,0
490,-748,0,0,0,0,0,0,0,0,0,-1,1714,1772,0,0
497,-748,0,0,0,0,0,0,0,0,0,-1,1721,1772,0,0
504,-748,0,0,0,0,0,0,0,0,0,-1,1728,1772,0,0
511,-748,0,0,0,0,0,0,0,0,0,-1,1735,1772,0,0
518,-748,0,0,0,0,0,0,0,0,0,-1,1742,1772,0,0
525,-748,0,0,0,0,0,0,0,0,0,-1,1749,1772,0,0
532,-748,0,0,0,0,0,0,0,0,0,-1,1756,1772,0,0
539,-748,0,0,0,0,0,0,0,0,0,-1,1763,1772,0,0
546,-748,0,0,0,0,0,0,0,0,0,-1,1770,1772,0,0
553,-748,0,0,0,0,0,0,0,0,0,-1,1777,1772,0,0
560,-748,0,0,0,0,0,0,0,0,0,-1,1784,1772,0,0
567,-748,0,0,0,0,0,0,0,0,0,-1,1791,1772,0,0
574,-748,0,0,0,0,0,0,0,0,0,-1,1798,1772,0,0
581,-748,0,0,0,0,0,0,0,0,0,-1,1805,1772,0,0
588,-748,0,0,0,0,0,0,0,0,0,-1,1812,1772,0,0
595,-748,0,0,0,0,0,0,0,0,0,-1,1819,1772,0,0
602,-748,0,0,0,0,0,0,0,0,0,-1,1826,1772,0,0
609,-748,0,0,0,0,0,0,0,0,0,-1,1833,1772,0,0
616,-748,0,0,0,0,0,0,0,0,0,-1,1840,1772,0,0
623,-748,0,0,0,0,0,0,0,0,0,-1,1847,1772,0,0
630,-748,0,0,0,0,0,0,0,0,0,-1,1854,1772,0,0
637,-748,0,0,0,0,0,0,0,0,0,-1,1861,1772,0,0
644,-748,0,0,0,0,0,0,0,0,0,-1,1868,1772,0,0
651,-748,0,0,0,0,0,0,0,0,0,-1,1875,1772,0,0
658,-748,0,0,0,0,0,0,0,0,0,-1,1882,1772,0,0
665,-748,0,0,0,0,0,0,0,0,0,-1,1889,1772,0,0
672,-748,0,0,0,0,0,0,0,0,0,-1,1896,1772,0,0
679,-748,0,0,0,0,0,0,0,0,0,-1,1903,1772,0,0
686,-748,0,0,0,0,0,0,0,0,0,-1,1910,1772,0,0
693,-748,0,0,0,0,0,0,0,0,0,-1,1917,1772,0,0
700,-748,0,0,0,0,0,0,0,0,0,-1,1924,1772,0,0
707,-748,0,0,0,0,0,0,0,0,0,-1,1931,1772,0,0
714,-748,0,0,0,0,0,0,0,0,0,-1,1938,1772,0,0
721,-748,0,0,0,0,0,0,0,0,0,-1,1945,1772,0,0
728,-748,0,0,0,0,0,0,0,0,0,-1,1952,1772,0,0
735,-748,0,0,0,0,0,0,0,0,0,-1,1959,1772,0,0
742,-748,0,0,0,0,0,0,0,0,0,-1,1966,1772,0,0
749,-748,0,0,0,0,0,0,0,0,0,-1,1973,1772,0,0
756,-748,0,0,0,0,0,0,0,0,0,-1,1980,1772,0,0
763,-748,0,0,0,0,0,0,0,0,0,-1,1987,1772,0,0
770,-748,0,0,0,0,0,0,0,0,0,-1,1994,1772,0,0
777,-748,0,0,0,0,0,0,0,0,0,-1,2001,1772,0,0
784,-748,0,0,0,0,0,0,0,0,0,-1,2008,1772,0,0
791,-748,0,0,0,0,0,0,0,0,0,-1,2015,1772,0,0
798,-748,0,0,0,0,0,0,0,0,0,-1,2022,1772,0,0
805,-748,0,0,0,0,0,0,0,0,0,-1,2029,1772,0,0
812,-748,0,0,0,0,0,0,0,0,0,-1,2036,1772,0,0
-700,-755,0,0,0,0,0,0,0,0,0,-1,524,1779,0,0
-693,-755,0,0,0,0,0,0,0,0,0,-1,531,1779,0,0
-686,-755,0,0,0,0,0,0,0,0,0,-1,538,1779,0,0
-679,-755,0,0,0,0,0,0,0,0,0,-1,545,1779,0,0
-672,-755,0,0,0,0,0,0,0,0,0,-1,552,1779,0,0
-665,-755,0,0,0,0,0,0,0,0,0,-1,559,1779,0,0
-658,-755,0,0,0,0,0,0,0,0,0,-1,566,1779,0,0
-651,-755,0,0,0,0,0,0,0,0,0,-1,573,1779,0,0
-644,-755,0,0,0,0,0,0,0,0,0,-1,580,1779,0,0
-637,-755,0,0,0,0,0,0,0,0,0,-1,587,1779,0,0
-630,-755,0,0,0,0,0,0,0,0,0,-1,594,1779,0,0
-623,-755,0,0,0,0,0,0,0,0,0,-1,601,1779,0,0
-616,-755,0,0,0,0,0,0,0,0,0,-1,608,1779,0,0
-609,-755,0,0,0,0,0,0,0,0,0,-1,615,1779,0,0
-602,-755,0,0,0,0,0,0,0,0,0,-1,622,1779,0,0
-595,-755,0,0,0,0,0,0,0,0,0,-1,629,1779,0,0
-588,-755,0,0,0,0,0,0,0,0,0,-1,636,1779,0,0
-581,-755,0,0,0,0,0,0,0,0,0,-1,643,1779,0,0
-574,-755,0,0,0,0,0,0,0,0,0,-1,650,1779,0,0
-567,-755,0,0,0,0,0,0,0,0,0,-1,657,1779,0,0
-560,-755,0,0,0,0,0,0,0,0,0,-1,664,1779,0,0
-553,-755,0,0,0,0,0,0,0,0,0,-1,671,1779,0,0
-546,-755,0,0,0,0,0,0,0,0,0,-1,678,1779,0,0
-539,-755,0,0,0,0,0,0,0,0,0,-1,685,1779,0,0
-532,-755,0,0,0,0,0,0,0,0,0,-1,692,1779,0,0
-525,-755,0,0,0,0,0,0,0,0,0,-1,699,1779,0,0
-518,-755,0,0,0,0,0,0,0,0,0,-1,706,1779,0,0
-511,-755,0,0,0,0,0,0,0,0,0,-1,713,1779,0,0
-504,-755,0,0,0,0,0,0,0,0,0,-1,720,1779,0,0
-497,-755,0,0,0,0,0,0,0,0,0,-1,727,1779,0,0
-490,-755,0,0,0,0,0,0,0,0,0,-1,734,1779,0,0
-483,-755,0,0,0,0,0,0,0,0,0,-1,741,1779,0,0
-476,-755,0,0,0,0,0,0,0,0,0,-1,748,1779,0,0
-469,-755,0,0,0,0,0,0,0,0,0,-1,755,1779,0,0
-462,-755,0,0,0,0,0,0,0,0,0,-1,762,1779,0,0
-455,-755,0,0,0,0,0,0,0,0,0,-1,769,1779,0,0
-448,-755,0,0,0,0,0,0,0,0,0,-1,776,1779,0,0
-441,-755,0,0,0,0,0,0,0,0,0,-1,783,1779,0,0
-434,-755,0,0,0,0,0,0,0,0,0,-1,790,1779,0,0
-427,-755,0,0,0,0,0,0,0,0,0,-1,797,1779,0,0
-420,-755,0,0,0,0,0,0,0,0,0,-1,804,1779,0,0
-413,-755,0,0,0,0,0,0,0,0,0,-1,811,1779,0,0
-406,-755,0,0,0,0,0,0,0,0,0,-1,818,1779,0,0
-399,-755,0,0,0,0,0,0,0,0,0,-1,825,1779,0,0
-392,-755,0,0,0,0,0,0,0,0,0,-1,832,1779,0,0
-385,-755,0,0,0,0,0,0,0,0,0,-1,839,1779,0,0
-378,-755,0,0,0,0,0,0,0,0,0,-1,846,1779,0,0
-371,-755,0,0,0,0,0,0,0,0,0,-1,853,1779,0,0
-364,-755,0,0,0,0,0,0,0,0,0,-1,860,1779,0,0
-357,-755,0,0,0,0,0,0,0,0,0,-1,867,1779,0,0
-350,-755,0,0,0,0,0,0,0,0,0,-1,874,1779,0,0
-343,-755,0,0,0,0,0,0,0,0,0,-1,881,1779,0,0
-336,-755,0,0,0,0,0,0,0,0,0,-1,888,1779,0,0
-329,-755,0,0,0,0,0,0,0,0,0,-1,895,1779,0,0
-322,-755,0,0,0,0,0,0,0,0,0,-1,902,1779,0,0
-315,-755,0,0,0,0,0,0,0,0,0,-1,909,1779,0,0
-308,-755,0,0,0,0,0,0,0,0,0,-1,916,1779,0,0
-301,-755,0,0,0,0,0,0,0,0,0,-1,923,1779,0,0
-294,-755,0,0,0,0,0,0,0,0,0,-1,930,1779,0,0
-287,-755,0,0,0,0,0,0,0,0,0,-1,937,1779,0,0
-280,-755,0,0,0,0,0,0,0,0,0,-1,944,1779,0,0
-273,-755,0,0,0,0,0,0,0,0,0,-1,951,1779,0,0
-266,-755,0,0,0,0,0,0,0,0,0,-1,958,1779,0,0
-259,-755,0,0,0,0,0,0,0,0,0,-1,965,1779,0,0
-252,-755,0,0,0,0,0,0,0,0,0,-1,972,1779,0,0
-245,-755,0,0,0,0,0,0,0,0,0,-1,979,1779,0,0
-238,-755,0,0,0,0,0,0,0,0,0,-1,986,1779,0,0
-231,-755,0,0,0,0,0,0,0,0,0,-1,993,1779,0,0
-224,-755,0,0,0,0,0,0,0,0,0,-1,1000,1779,0,0
-217,-755,0,0,0,0,0,0,0,0,0,-1,1007,1779,0,0
-210,-755,0,0,0,0,0,0,0,0,0,-1,1014,1779,0,0
-203,-755,5.47998,25.527,0,0,0,0,0,0,0,-1,1021,1779,5.47993,-25.527
-196,-755,5.18445,23.9307,0,0,0,0,0,0,0,-1,1028,1779,5.1844,-23.9306
-189,-755,4.8175,22.4788,0,0,0,0,0,0,0,-1,1035,1779,4.81745,-22.4788
-182,-755,4.021,20.8032,0,0,0,0,0,0,0,-1,1042,1779,4.02094,-20.8032
-175,-755,3.79993,18.8242,0,0,0,0,0,0,0,-1,1049,1779,3.79995,-18.8242
-168,-755,3.14294,16.9865,0,0,0,0,0,0,0,-1,1056,1779,3.14291,-16.9864
-161,-755,-2.85889,11.5868,0,0,0,0,0,0,0,-1,1063,1779,-2.85887,-11.5868
-154,-755,-5.39026,8.51416,0,0,0,0,0,0,0,-1,1070,1779,-5.3903,-8.51417
-147,-755,-6.45593,10.2422,0,0,0,0,0,0,0,-1,1077,1779,-6.45594,-10.2422
-140,-755,1.33521,21.3856,0,0,0,0,0,0,0,-1,1084,1779,1.33522,-21.3857
-133,-755,2.89417,21.0964,0,0,0,0,0,0,0,-1,1091,1779,2.89422,-21.0964
-126,-755,3.26404,20.9304,0,0,0,0,0,0,0,-1,1098,1779,3.26399,-20.9305
-119,-755,5.17761,21.9325,0,0,0,0,0,0,0,-1,1105,1779,5.17761,-21.9325
-112,-755,5.40247,24.5646,0,0,0,0,0,0,0,-1,1112,1779,5.40244,-24.5646
-105,-755,7.01294,20.1539,0,0,0,0,0,0,0,-1,1119,1779,7.01295,-20.154
-98,-755,6.39063,16.4839,0,0,0,0,0,0,0,-1,1126,1779,6.39058,-16.4839
-91,-755,5.51025,12.0438,0,0,0,0,0,0,0,-1,1133,1779,5.51022,-12.0439
-84,-755,0.169312,8.66443,0,0,0,0,0,0,0,-1,1140,1779,0.16932,-8.66446
-77,-755,-0.0491943,6.87439,0,0,0,0,0,0,0,-1,1147,1779,-0.0491385,-6.87443
-70,-755,4.5686,13.2169,0,0,0,0,0,0,0,-1,1154,1779,4.56865,-13.2169
-63,-755,-1.36316,7.3147,0,0,0,0,0,0,0,-1,1161,1779,-1.36312,-7.31473
-56,-755,0.0483398,5.06079,0,0,0,0,0,0,0,-1,1168,1779,0.0483138,-5.06084
-49,-755,-1.32263,5.33716,0,0,0,0,0,0,0,-1,1175,1779,-1.32264,-5.33718
-42,-755,-2.03613,4.01672,0,0,0,0,0,0,0,-1,1182,1779,-2.0361,-4.01671
-35,-755,-2.72498,2.37476,0,0,0,0,0,0,0,-1,1189,1779,-2.72502,-2.37473
-28,-755,7.849,35.108,0,0,0,0,0,0,0,-1,1196,1779,7.84904,-35.108
-21,-755,7.8844,35.2439,0,0,0,0,0,0,0,-1,1203,1779,7.88441,-35.2439
-14,-755,8.00793,35.1744,-0.0142792,-0.00412664,-0.00628834,-0.00112134,-0.0172845,-1.12497,0.011168,0.0340677,1210,1779,8.00791,-35.1745
-7,-755,7.8656,35.2164,-0.0114793,-0.0042187,-0.0063432,-0.00054044,-0.0151576,-1.04531,0.00992983,0.0251354,1217,1779,7.86559,-35.2165
0,-755,7.80188,35.3196,-0.00921506,-0.0036043,-0.00655265,0.000718251,-0.0135376,-0.987657,0.00927377,0.0152324,1224,1779,7.80191,-35.3196
7,-755,7.77844,35.4153,-0.00711183,-0.00294422,-0.00665126,0.00194202,-0.0119981,-0.937203,0.00871845,0.0121247,1231,1779,7.77838,-35.4152
14,-755,7.77271,35.4989,-0.005395,-0.00200857,-0.00685135,0.00335569,-0.0107593,-0.906539,0.00851474,0.0106054,1238,1779,7.77265,-35.4989
21,-755,7.74353,35.5703,-0.00397972,-0.000793599,-0.00704579,0.00483698,-0.0096103,-0.896579,0.00849154,0.0153338,1245,1779,7.74354,-35.5703
28,-755,7.70154,35.5994,-0.00334297,0.000772251,-0.00734062,0.00633819,-0.00890891,-0.922044,0.00884453,0.0183761,1252,1779,7.70151,-35.5994
35,-755,7.65149,35.6936,-0.00370798,0.00240326,-0.00741045,0.00736335,-0.00866807,-0.980947,0.00926595,0.0188373,1259,1779,7.65145,-35.6936
42,-755,7.6123,35.7004,-0.0038539,0.00382758,-0.00723556,0.00817859,-0.00820491,-1.0294,0.00945902,0.0141006,1266,1779,7.61235,-35.7005
49,-755,7.59705,35.6809,-0.00430913,0.00507424,-0.0067923,0.00863769,-0.00787258,-1.08764,0.00953562,0.0100685,1273,1779,7.597,-35.6809
56,-755,7.5592,35.7231,-0.00566641,0.00615945,-0.00651163,0.00904221,-0.00854916,-1.15402,0.0101577,0.00948053,1280,1779,7.55921,-35.7231
63,-755,7.54114,35.7457,-0.00739552,0.00729781,-0.00623137,0.0095846,-0.00968231,-1.21907,0.0111238,0.00989577,1287,1779,7.54108,-35.7458
70,-755,7.52588,35.7305,-0.00945852,0.00847406,-0.00570788,0.0101367,-0.0111212,-1.28735,0.0122776,0.0131663,1294,1779,7.52585,-35.7305
77,-755,7.49414,35.7218,-0.0109995,0.00924909,-0.00495949,0.0103986,-0.012149,-1.34304,0.0130309,0.0122703,1301,1779,7.49418,-35.7218
84,-755,7.46143,35.7128,-0.0123364,0.00986777,-0.00430072,0.0106717,-0.0131403,-1.38601,0.0137725,0.0130868,1308,1779,7.46143,-35.7128
91,-755,7.43237,35.6752,-0.0141727,0.00978104,-0.00327944,0.0102219,-0.0146136,-1.43716,0.0144133,0.0129616,1315,1779,7.4324,-35.6751
98,-755,7.38049,35.6499,-0.0151074,0.0099595,-0.00281632,0.010272,-0.0154199,-1.46028,0.0149322,0.013498,1322,1779,7.38051,-35.6499
105,-755,7.37927,35.6449,-0.0149645,0.0104292,-0.00230273,0.0106363,-0.0151716,-1.48109,0.0149767,0.0165605,1329,1779,7.3793,-35.6449
112,-755,7.33398,35.5962,-0.0150588,0.011125,-0.00191471,0.0112643,-0.0151981,-1.49819,0.0153342,0.0221448,1336,1779,7.33398,-35.5962
119,-755,7.29065,35.5262,-0.0146065,0.0118002,-0.00154556,0.0118903,-0.0146966,-1.51253,0.0153784,0.0220976,1343,1779,7.2907,-35.5262
126,-755,7.24121,35.5347,-0.0138663,0.0125578,-0.00116234,0.0126088,-0.0139173,-1.52692,0.0153211,0.02357,1350,1779,7.24119,-35.5346
133,-755,7.17188,35.4475,-0.0121104,0.013191,-0.000792653,0.0132158,-0.0121353,-1.53951,0.0146409,0.0243254,1357,1779,7.17182,-35.4475
140,-755,7.14636,35.4132,-0.00934532,0.0138834,-0.000768613,0.0139088,-0.00937073,-1.53776,0.0135253,0.0317209,1364,1779,7.14642,-35.4132
147,-755,7.19604,35.2485,-0.00679979,0.014662,-0.000985248,0.0147071,-0.00684493,-1.52502,0.0127161,0.0346418,1371,1779,7.19608,-35.2485
154,-755,7.13086,35.1998,-0.00456195,0.0152434,-0.00167956,0.0153848,-0.00470337,-1.48679,0.0121322,0.0333488,1378,1779,7.13086,-35.1998
161,-755,6.99353,35.1627,0,0,0,0,0,0,0,-1,1385,1779,6.99351,-35.1628
168,-755,3.98181,7.35901,0,0,0,0,0,0,0,-1,1392,1779,3.98184,-7.35904
175,-755,8.17065,1.34363,0,0,0,0,0,0,0,-1,1399,1779,8.1706,-1.34368
182,-755,8.09216,2.96924,0,0,0,0,0,0,0,-1,1406,1779,8.09213,-2.9693
189,-755,8.04419,4.68042,0,0,0,0,0,0,0,-1,1413,1779,8.04419,-4.68046
196,-755,7.74841,7.4541,0,0,0,0,0,0,0,-1,1420,1779,7.74842,-7.45405
203,-755,4.80554,6.88696,0,0,0,0,0,0,0,-1,1427,1779,4.80554,-6.88697
210,-755,25.1694,7.35693,0,0,0,0,0,0,0,-1,1434,1779,25.1694,-7.35688
217,-755,5.01648,16.411,0,0,0,0,0,0,0,-1,1441,1779,5.01646,-16.411
224,-755,5.18103,22.6283,0,0,0,0,0,0,0,-1,1448,1779,5.18101,-22.6283
231,-755,5.7489,30.15,0,0,0,0,0,0,0,-1,1455,1779,5.74885,-30.15
238,-755,6.56323,29.2726,0,0,0,0,0,0,0,-1,1462,1779,6.56327,-29.2726
245,-755,5.76453,29.2085,0,0,0,0,0,0,0,-1,1469,1779,5.76455,-29.2085
252,-755,5.57678,29.0841,0,0,0,0,0,0,0,-1,1476,1779,5.57682,-29.0841
259,-755,5.37292,29.1577,0,0,0,0,0,0,0,-1,1483,1779,5.37293,-29.1577
266,-755,17.255,7.86096,0,0,0,0,0,0,0,-1,1490,1779,17.255,-7.86092
273,-755,15.7932,7.59778,0,0,0,0,0,0,0,-1,1497,1779,15.7932,-7.59777
280,-755,14.6255,7.34802,0,0,0,0,0,0,0,-1,1504,1779,14.6254,-7.34806
287,-755,13.8279,7.83105,0,0,0,0,0,0,0,-1,1511,1779,13.8279,-7.83104
294,-755,12.5695,7.96814,0,0,0,0,0,0,0,-1,1518,1779,12.5694,-7.9682
301,-755,11.2659,8.27087,0,0,0,0,0,0,0,-1,1525,1779,11.2658,-8.27087
308,-755,9.94434,8.55811,0,0,0,0,0,0,0,-1,1532,1779,9.94428,-8.55806
315,-755,8.64502,9.04492,0,0,0,0,0,0,0,-1,1539,1779,8.64497,-9.04488
322,-755,0,0,0,0,0,0,0,0,0,-1,1546,1779,0,0
329,-755,0,0,0,0,0,0,0,0,0,-1,1553,1779,0,0
336,-755,0,0,0,0,0,0,0,0,0,-1,1560,1779,0,0
343,-755,0,0,0,0,0,0,0,0,0,-1,1567,1779,0,0
350,-755,0,0,0,0,0,0,0,0,0,-1,1574,1779,0,0
357,-755,0,0,0,0,0,0,0,0,0,-1,1581,1779,0,0
364,-755,0,0,0,0,0,0,0,0,0,-1,1588,1779,0,0
371,-755,0,0,0,0,0,0,0,0,0,-1,1595,1779,0,0
378,-755,0,0,0,0,0,0,0,0,0,-1,1602,1779,0,0
385,-755,0,0,0,0,0,0,0,0,0,-1,1609,1779,0,0
392,-755,0,0,0,0,0,0,0,0,0,-1,1616,1779,0,0
399,-755,0,0,0,0,0,0,0,0,0,-1,1623,1779,0,0
406,-755,0,0,0,0,0,0,0,0,0,-1,1630,1779,0,0
413,-755,0,0,0,0,0,0,0,0,0,-1,1637,1779,0,0
420,-755,0,0,0,0,0,0,0,0,0,-1,1644,1779,0,0
427,-755,0,0,0,0,0,0,0,0,0,-1,1651,1779,0,0
434,-755,0,0,0,0,0,0,0,0,0,-1,1658,1779,0,0
441,-755,0,0,0,0,0,0,0,0,0,-1,1665,1779,0,0
448,-755,0,0,0,0,0,0,0,0,0,-1,1672,1779,0,0
455,-755,0,0,0,0,0,0,0,0,0,-1,1679,1779,0,0
462,-755,0,0,0,0,0,0,0,0,0,-1,1686,1779,0,0
469,-755,0,0,0,0,0,0,0,0,0,-1,1693,1779,0,0
476,-755,0,0,0,0,0,0,0,0,0,-1,1700,1779,0,0
483,-755,0,0,0,0,0,0,0,0,0,-1,1707,1779,0,0
490,-755,0,0,0,0,0,0,0,0,0,-1,1714,1779,0,0
497,-755,0,0,0,0,0,0,0,0,0,-1,1721,1779,0,0
504,-755,0,0,0,0,0,0,0,0,0,-1,1728,1779,0,0
511,-755,0,0,0,0,0,0,0,0,0,-1,1735,1779,0,0
518,-755,0,0,0,0,0,0,0,0,0,-1,1742,1779,0,0
525,-755,0,0,0,0,0,0,0,0,0,-1,1749,1779,0,0
532,-755,0,0,0,0,0,0,0,0,0,-1,1756,1779,0,0
539,-755,0,0,0,0,0,0,0,0,0,-1,1763,1779,0,0
546,-755,0,0,0,0,0,0,0,0,0,-1,1770,1779,0,0
553,-755,0,0,0,0,0,0,0,0,0,-1,1777,1779,0,0
560,-755,0,0,0,0,0,0,0,0,0,-1,1784,1779,0,0
567,-755,0,0,0,0,0,0,0,0,0,-1,1791,1779,0,0
574,-755,0,0,0,0,0,0,0,0,0,-1,1798,1779,0,0
581,-755,0,0,0,0,0,0,0,0,0,-1,1805,1779,0,0
588,-755,0,0,0,0,0,0,0,0,0,-1,1812,1779,0,0
595,-755,0,0,0,0,0,0,0,0,0,-1,1819,1779,0,0
602,-755,0,0,0,0,0,0,0,0,0,-1,1826,1779,0,0
609,-755,0,0,0,0,0,0,0,0,0,-1,1833,1779,0,0
616,-755,0,0,0,0,0,0,0,0,0,-1,1840,1779,0,0
623,-755,0,0,0,0,0,0,0,0,0,-1,1847,1779,0,0
630,-755,0,0,0,0,0,0,0,0,0,-1,1854,1779,0,0
637,-755,0,0,0,0,0,0,0,0,0,-1,1861,1779,0,0
644,-755,0,0,0,0,0,0,0,0,0,-1,1868,1779,0,0
651,-755,0,0,0,0,0,0,0,0,0,-1,1875,1779,0,0
658,-755,0,0,0,0,0,0,0,0,0,-1,1882,1779,0,0
665,-755,0,0,0,0,0,0,0,0,0,-1,1889,1779,0,0
672,-755,0,0,0,0,0,0,0,0,0,-1,1896,1779,0,0
679,-755,0,0,0,0,0,0,0,0,0,-1,1903,1779,0,0
686,-755,0,0,0,0,0,0,0,0,0,-1,1910,1779,0,0
693,-755,0,0,0,0,0,0,0,0,0,-1,1917,1779,0,0
700,-755,0,0,0,0,0,0,0,0,0,-1,1924,1779,0,0
707,-755,0,0,0,0,0,0,0,0,0,-1,1931,1779,0,0
714,-755,0,0,0,0,0,0,0,0,0,-1,1938,1779,0,0
721,-755,0,0,0,0,0,0,0,0,0,-1,1945,1779,0,0
728,-755,0,0,0,0,0,0,0,0,0,-1,1952,1779,0,0
735,-755,0,0,0,0,0,0,0,0,0,-1,1959,1779,0,0
742,-755,0,0,0,0,0,0,0,0,0,-1,1966,1779,0,0
749,-755,0,0,0,0,0,0,0,0,0,-1,1973,1779,0,0
756,-755,0,0,0,0,0,0,0,0,0,-1,1980,1779,0,0
763,-755,0,0,0,0,0,0,0,0,0,-1,1987,1779,0,0
770,-755,0,0,0,0,0,0,0,0,0,-1,1994,1779,0,0
777,-755,0,0,0,0,0,0,0,0,0,-1,2001,1779,0,0
784,-755,0,0,0,0,0,0,0,0,0,-1,2008,1779,0,0
791,-755,0,0,0,0,0,0,0,0,0,-1,2015,1779,0,0
798,-755,0,0,0,0,0,0,0,0,0,-1,2022,1779,0,0
805,-755,0,0,0,0,0,0,0,0,0,-1,2029,1779,0,0
812,-755,0,0,0,0,0,0,0,0,0,-1,2036,1779,0,0
-700,-762,0,0,0,0,0,0,0,0,0,-1,524,1786,0,0
-693,-762,0,0,0,0,0,0,0,0,0,-1,531,1786,0,0
-686,-762,0,0,0,0,0,0,0,0,0,-1,538,1786,0,0
-679,-762,0,0,0,0,0,0,0,0,0,-1,545,1786,0,0
-672,-762,0,0,0,0,0,0,0,0,0,-1,552,1786,0,0
-665,-762,0,0,0,0,0,0,0,0,0,-1,559,1786,0,0
-658,-762,0,0,0,0,0,0,0,0,0,-1,566,1786,0,0
-651,-762,0,0,0,0,0,0,0,0,0,-1,573,1786,0,0
-644,-762,0,0,0,0,0,0,0,0,0,-1,580,1786,0,0
-637,-762,0,0,0,0,0,0,0,0,0,-1,587,1786,0,0
-630,-762,0,0,0,0,0,0,0,0,0,-1,594,1786,0,0
-623,-762,0,0,0,0,0,0,0,0,0,-1,601,1786,0,0
-616,-762,0,0,0,0,0,0,0,0,0,-1,608,1786,0,0
-609,-762,0,0,0,0,0,0,0,0,0,-1,615,1786,0,0
-602,-762,0,0,0,0,0,0,0,0,0,-1,622,1786,0,0
-595,-762,0,0,0,0,0,0,0,0,0,-1,629,1786,0,0
-588,-762,0,0,0,0,0,0,0,0,0,-1,636,1786,0,0
-581,-762,0,0,0,0,0,0,0,0,0,-1,643,1786,0,0
-574,-762,0,0,0,0,0,0,0,0,0,-1,650,1786,0,0
-567,-762,0,0,0,0,0,0,0,0,0,-1,657,1786,0,0
-560,-762,0,0,0,0,0,0,0,0,0,-1,664,1786,0,0
-553,-762,0,0,0,0,0,0,0,0,0,-1,671,1786,0,0
-546,-762,0,0,0,0,0,0,0,0,0,-1,678,1786,0,0
-539,-762,0,0,0,0,0,0,0,0,0,-1,685,1786,0,0
-532,-762,0,0,0,0,0,0,0,0,0,-1,692,1786,0,0
-525,-762,0,0,0,0,0,0,0,0,0,-1,699,1786,0,0
-518,-762,0,0,0,0,0,0,0,0,0,-1,706,1786,0,0
-511,-762,0,0,0,0,0,0,0,0,0,-1,713,1786,0,0
-504,-762,0,0,0,0,0,0,0,0,0,-1,720,1786,0,0
-497,-762,0,0,0,0,0,0,0,0,0,-1,727,1786,0,0
-490,-762,0,0,0,0,0,0,0,0,0,-1,734,1786,0,0
-483,-762,0,0,0,0,0,0,0,0,0,-1,741,1786,0,0
-476,-762,0,0,0,0,0,0,0,0,0,-1,748,1786,0,0
-469,-762,0,0,0,0,0,0,0,0,0,-1,755,1786,0,0
-462,-762,0,0,0,0,0,0,0,0,0,-1,762,1786,0,0
-455,-762,0,0,0,0,0,0,0,0,0,-1,769,1786,0,0
-448,-762,0,0,0,0,0,0,0,0,0,-1,776,1786,0,0
-441,-762,0,0,0,0,0,0,0,0,0,-1,783,1786,0,0
-434,-762,0,0,0,0,0,0,0,0,0,-1,790,1786,0,0
-427,-762,0,0,0,0,0,0,0,0,0,-1,797,1786,0,0
-420,-762,0,0,0,0,0,0,0,0,0,-1,804,1786,0,0
-413,-762,0,0,0,0,0,0,0,0,0,-1,811,1786,0,0
-406,-762,0,0,0,0,0,0,0,0,0,-1,818,1786,0,0
-399,-762,0,0,0,0,0,0,0,0,0,-1,825,1786,0,0
-392,-762,0,0,0,0,0,0,0,0,0,-1,832,1786,0,0
-385,-762,0,0,0,0,0,0,0,0,0,-1,839,1786,0,0
-378,-762,0,0,0,0,0,0,0,0,0,-1,846,1786,0,0
-371,-762,0,0,0,0,0,0,0,0,0,-1,853,1786,0,0
-364,-762,0,0,0,0,0,0,0,0,0,-1,860,1786,0,0
-357,-762,0,0,0,0,0,0,0,0,0,-1,867,1786,0,0
-350,-762,0,0,0,0,0,0,0,0,0,-1,874,1786,0,0
-343,-762,0,0,0,0,0,0,0,0,0,-1,881,1786,0,0
-336,-762,0,0,0,0,0,0,0,0,0,-1,888,1786,0,0
-329,-762,0,0,0,0,0,0,0,0,0,-1,895,1786,0,0
-322,-762,0,0,0,0,0,0,0,0,0,-1,902,1786,0,0
-315,-762,0,0,0,0,0,0,0,0,0,-1,909,1786,0,0
-308,-762,0,0,0,0,0,0,0,0,0,-1,916,1786,0,0
-301,-762,0,0,0,0,0,0,0,0,0,-1,923,1786,0,0
-294,-762,0,0,0,0,0,0,0,0,0,-1,930,1786,0,0
-287,-762,0,0,0,0,0,0,0,0,0,-1,937,1786,0,0
-280,-762,0,0,0,0,0,0,0,0,0,-1,944,1786,0,0
-273,-762,0,0,0,0,0,0,0,0,0,-1,951,1786,0,0
-266,-762,0,0,0,0,0,0,0,0,0,-1,958,1786,0,0
-259,-762,0,0,0,0,0,0,0,0,0,-1,965,1786,0,0
-252,-762,0,0,0,0,0,0,0,0,0,-1,972,1786,0,0
-245,-762,0,0,0,0,0,0,0,0,0,-1,979,1786,0,0
-238,-762,0,0,0,0,0,0,0,0,0,-1,986,1786,0,0
-231,-762,0,0,0,0,0,0,0,0,0,-1,993,1786,0,0
-224,-762,0,0,0,0,0,0,0,0,0,-1,1000,1786,0,0
-217,-762,0,0,0,0,0,0,0,0,0,-1,1007,1786,0,0
-210,-762,0,0,0,0,0,0,0,0,0,-1,1014,1786,0,0
-203,-762,0,0,0,0,0,0,0,0,0,-1,1021,1786,0,0
-196,-762,0,0,0,0,0,0,0,0,0,-1,1028,1786,0,0
-189,-762,0,0,0,0,0,0,0,0,0,-1,1035,1786,0,0
-182,-762,4.44226,13.2462,0,0,0,0,0,0,0,-1,1042,1786,4.44227,-13.2462
-175,-762,4.3219,18.3975,0,0,0,0,0,0,0,-1,1049,1786,4.32192,-18.3974
-168,-762,-2.08618,13.0768,0,0,0,0,0,0,0,-1,1056,1786,-2.08623,-13.0768
-161,-762,-3.29077,11.9508,0,0,0,0,0,0,0,-1,1063,1786,-3.29076,-11.9508
-154,-762,-4.55823,11.1176,0,0,0,0,0,0,0,-1,1070,1786,-4.55828,-11.1175
-147,-762,-6.52454,9.41418,0,0,0,0,0,0,0,-1,1077,1786,-6.52458,-9.41419
-140,-762,4.99792,5.28589,0,0,0,0,0,0,0,-1,1084,1786,4.99793,-5.28587
-133,-762,0.689819,19.2172,0,0,0,0,0,0,0,-1,1091,1786,0.689867,-19.2171
-126,-762,1.48743,19.9288,0,0,0,0,0,0,0,-1,1098,1786,1.48738,-19.9289
-119,-762,2.65637,20.208,0,0,0,0,0,0,0,-1,1105,1786,2.65632,-20.208
-112,-762,6.84705,25.5554,0,0,0,0,0,0,0,-1,1112,1786,6.84706,-25.5554
-105,-762,6.14661,21.8407,0,0,0,0,0,0,0,-1,1119,1786,6.14664,-21.8407
-98,-762,5.55115,18.0452,0,0,0,0,0,0,0,-1,1126,1786,5.5511,-18.0451
-91,-762,5.00549,14.2571,0,0,0,0,0,0,0,-1,1133,1786,5.00554,-14.257
-84,-762,3.96375,10.4547,0,0,0,0,0,0,0,-1,1140,1786,3.96371,-10.4548
-77,-762,0.305054,8.49365,0,0,0,0,0,0,0,-1,1147,1786,0.305008,-8.49362
-70,-762,0.183716,6.74622,0,0,0,0,0,0,0,-1,1154,1786,0.183696,-6.74621
-63,-762,-0.883057,9.08813,0,0,0,0,0,0,0,-1,1161,1786,-0.88311,-9.08808
-56,-762,-0.578979,5.10254,0,0,0,0,0,0,0,-1,1168,1786,-0.578951,-5.10249
-49,-762,-2.04541,3.66321,0,0,0,0,0,0,0,-1,1175,1786,-2.0454,-3.66319
-42,-762,-2.23462,3.474,0,0,0,0,0,0,0,-1,1182,1786,-2.23459,-3.47399
-35,-762,-3.28992,1.68164,0,0,0,0,0,0,0,-1,1189,1786,-3.28998,-1.68164
-28,-762,-3.75378,1.37769,0,0,0,0,0,0,0,-1,1196,1786,-3.75373,-1.37767
-21,-762,8.27515,33.7308,0,0,0,0,0,0,0,-1,1203,1786,8.27517,-33.7308
-14,-762,8.21582,35.1941,0,0,0,0,0,0,0,-1,1210,1786,8.21578,-35.1941
-7,-762,7.96423,35.1713,0,0,0,0,0,0,0,-1,1217,1786,7.96423,-35.1713
0,-762,7.91467,35.3278,-0.0123022,-0.00433771,-0.00890063,0.00143093,-0.0180708,-0.995747,0.0125514,0.0380343,1224,1786,7.91466,-35.3277
7,-762,7.89575,35.4675,-0.0089874,-0.00324532,-0.00898902,0.00332002,-0.0155527,-0.939975,0.0116342,0.0206605,1231,1786,7.89579,-35.4676
14,-762,7.89783,35.647,-0.00631923,-0.0017506,-0.00928463,0.00552659,-0.0135964,-0.906018,0.0113636,0.0329039,1238,1786,7.89784,-35.6469
21,-762,7.69824,35.7537,-0.00416948,8.78333e-05,-0.00953297,0.00772692,-0.0118086,-0.895243,0.0113606,0.0426279,1245,1786,7.69828,-35.7537
28,-762,7.52417,35.7633,-0.0032869,0.00233521,-0.00991761,0.00983245,-0.0107841,-0.923496,0.0119072,0.0435179,1252,1786,7.52412,-35.7633
35,-762,7.35693,35.8856,-0.0040233,0.00456826,-0.00993231,0.011094,-0.010549,-0.989504,0.0124969,0.045323,1259,1786,7.35693,-35.8856
42,-762,7.67712,35.77,-0.00442291,0.00642532,-0.0096342,0.0120574,-0.010055,-1.04179,0.012784,0.0473922,1266,1786,7.67715,-35.77
49,-762,7.74475,35.7255,-0.00525455,0.00803438,-0.0089378,0.0125269,-0.0097471,-1.10503,0.0128933,0.0392414,1273,1786,7.74474,-35.7254
56,-762,7.67407,35.7164,-0.00731023,0.00933098,-0.00844906,0.0128687,-0.0108479,-1.17427,0.0137093,0.0271715,1280,1786,7.67403,-35.7164
63,-762,7.56958,35.7469,-0.00977507,0.0106633,-0.00799671,0.0134202,-0.012532,-1.2388,0.0149864,0.0247461,1287,1786,7.56956,-35.7469
70,-762,7.53662,35.7491,-0.0126741,0.0119849,-0.00726721,0.0139672,-0.0146565,-1.3045,0.0165275,0.0252503,1294,1786,7.53667,-35.7491
77,-762,7.49683,35.6508,-0.0148767,0.0128088,-0.00622208,0.0141429,-0.0162108,-1.35958,0.0175382,0.0332996,1301,1786,7.49677,-35.6507
84,-762,7.56677,35.6753,-0.0166819,0.0134608,-0.00526867,0.0143552,-0.0175762,-1.40264,0.0184668,0.0413145,1308,1786,7.56679,-35.6753
91,-762,7.58472,35.7534,-0.0190928,0.0132461,-0.00384085,0.013696,-0.0195427,-1.45419,0.0192891,0.048507,1315,1786,7.58469,-35.7534
98,-762,7.52612,35.807,-0.0202927,0.0134269,-0.00319326,0.0137266,-0.0205924,-1.4772,0.0199458,0.0475027,1322,1786,7.52614,-35.807
105,-762,7.56384,35.7924,-0.0201832,0.0139983,-0.00248915,0.0141786,-0.0203635,-1.49848,0.0200492,0.0434016,1329,1786,7.56379,-35.7923
112,-762,7.35876,35.6248,-0.0202299,0.0149794,-0.00195309,0.0150874,-0.0203379,-1.51555,0.0205275,0.0432284,1336,1786,7.35875,-35.6248
119,-762,7.16479,35.4805,-0.0194573,0.0159876,-0.0013895,0.0160419,-0.0195117,-1.53167,0.0205594,0.0453616,1343,1786,7.16475,-35.4804
126,-762,7.21838,35.4429,-0.0183367,0.0171425,-0.000814395,0.0171612,-0.0183553,-1.54786,0.0205093,0.0466028,1350,1786,7.21841,-35.4428
133,-762,7.12573,35.5494,-0.0157145,0.0181615,-0.000250923,0.0181633,-0.0157163,-1.56339,0.0195774,0.0481303,1357,1786,7.12572,-35.5495
140,-762,6.99634,35.5261,-0.01159,0.0193156,-0.000244172,0.0193175,-0.0115919,-1.5629,0.0180304,0.046331,1364,1786,6.99636,-35.5261
147,-762,6.82166,34.804,-0.00783415,0.0206832,-0.000534088,0.0206932,-0.00784415,-1.55208,0.0170237,0.0425812,1371,1786,6.82162,-34.8039
154,-762,7.51648,34.7881,-0.0045447,0.0217392,-0.00148459,0.0218228,-0.00462829,-1.51455,0.0163116,0.0496982,1378,1786,7.51646,-34.7881
161,-762,8.65051,34.8102,0,0,0,0,0,0,0,-1,1385,1786,8.65054,-34.8101
168,-762,8.19287,0.880615,0,0,0,0,0,0,0,-1,1392,1786,8.19291,-0.880603
175,-762,8.33997,1.95947,0,0,0,0,0,0,0,-1,1399,1786,8.33997,-1.95942
182,-762,8.28418,3.56482,0,0,0,0,0,0,0,-1,1406,1786,8.28415,-3.56485
189,-762,8.21179,5.23389,0,0,0,0,0,0,0,-1,1413,1786,8.21183,-5.23383
196,-762,8.05969,6.95483,0,0,0,0,0,0,0,-1,1420,1786,8.05972,-6.9548
203,-762,24.0077,7.10425,0,0,0,0,0,0,0,-1,1427,1786,24.0077,-7.10426
210,-762,23.8073,7.6499,0,0,0,0,0,0,0,-1,1434,1786,23.8073,-7.64987
217,-762,23.3193,8.24426,0,0,0,0,0,0,0,-1,1441,1786,23.3194,-8.2442
224,-762,2.65149,20.6106,0,0,0,0,0,0,0,-1,1448,1786,2.65153,-20.6106
231,-762,5.46655,23.521,0,0,0,0,0,0,0,-1,1455,1786,5.46653,-23.521
238,-762,5.35632,29.7203,0,0,0,0,0,0,0,-1,1462,1786,5.35629,-29.7203
245,-762,5.84509,28.6954,0,0,0,0,0,0,0,-1,1469,1786,5.84509,-28.6954
252,-762,5.82837,27.7246,0,0,0,0,0,0,0,-1,1476,1786,5.82839,-27.7247
259,-762,10.7311,18.3031,0,0,0,0,0,0,0,-1,1483,1786,10.7311,-18.3031
266,-762,16.451,7.67773,0,0,0,0,0,0,0,-1,1490,1786,16.4511,-7.67773
273,-762,15.287,7.5304,0,0,0,0,0,0,0,-1,1497,1786,15.2869,-7.53044
280,-762,14.1501,7.38379,0,0,0,0,0,0,0,-1,1504,1786,14.1502,-7.38376
287,-762,12.6891,7.99133,0,0,0,0,0,0,0,-1,1511,1786,12.6891,-7.99135
294,-762,12.6959,8.30371,0,0,0,0,0,0,0,-1,1518,1786,12.6959,-8.30368
301,-762,11.4222,8.84143,0,0,0,0,0,0,0,-1,1525,1786,11.4223,-8.84149
308,-762,0,0,0,0,0,0,0,0,0,-1,1532,1786,0,0
315,-762,0,0,0,0,0,0,0,0,0,-1,1539,1786,0,0
322,-762,0,0,0,0,0,0,0,0,0,-1,1546,1786,0,0
329,-762,0,0,0,0,0,0,0,0,0,-1,1553,1786,0,0
336,-762,0,0,0,0,0,0,0,0,0,-1,1560,1786,0,0
343,-762,0,0,0,0,0,0,0,0,0,-1,1567,1786,0,0
350,-762,0,0,0,0,0,0,0,0,0,-1,1574,1786,0,0
357,-762,0,0,0,0,0,0,0,0,0,-1,1581,1786,0,0
364,-762,0,0,0,0,0,0,0,0,0,-1,1588,1786,0,0
371,-762,0,0,0,0,0,0,0,0,0,-1,1595,1786,0,0
378,-762,0,0,0,0,0,0,0,0,0,-1,1602,1786,0,0
385,-762,0,0,0,0,0,0,0,0,0,-1,1609,1786,0,0
392,-762,0,0,0,0,0,0,0,0,0,-1,1616,1786,0,0
399,-762,0,0,0,0,0,0,0,0,0,-1,1623,1786,0,0
406,-762,0,0,0,0,0,0,0,0,0,-1,1630,1786,0,0
413,-762,0,0,0,0,0,0,0,0,0,-1,1637,1786,0,0
420,-762,0,0,0,0,0,0,0,0,0,-1,1644,1786,0,0
427,-762,0,0,0,0,0,0,0,0,0,-1,1651,1786,0,0
434,-762,0,0,0,0,0,0,0,0,0,-1,1658,1786,0,0
441,-762,0,0,0,0,0,0,0,0,0,-1,1665,1786,0,0
448,-762,0,0,0,0,0,0,0,0,0,-1,1672,1786,0,0
455,-762,0,0,0,0,0,0,0,0,0,-1,1679,1786,0,0
462,-762,0,0,0,0,0,0,0,0,0,-1,1686,1786,0,0
469,-762,0,0,0,0,0,0,0,0,0,-1,1693,1786,0,0
476,-762,0,0,0,0,0,0,0,0,0,-1,1700,1786,0,0
483,-762,0,0,0,0,0,0,0,0,0,-1,1707,1786,0,0
490,-762,0,0,0,0,0,0,0,0,0,-1,1714,1786,0,0
497,-762,0,0,0,0,0,0,0,0,0,-1,1721,1786,0,0
504,-762,0,0,0,0,0,0,0,0,0,-1,1728,1786,0,0
511,-762,0,0,0,0,0,0,0,0,0,-1,1735,1786,0,0
518,-762,0,0,0,0,0,0,0,0,0,-1,1742,1786,0,0
525,-762,0,0,0,0,0,0,0,0,0,-1,1749,1786,0,0
532,-762,0,0,0,0,0,0,0,0,0,-1,1756,1786,0,0
539,-762,0,0,0,0,0,0,0,0,0,-1,1763,1786,0,0
546,-762,0,0,0,0,0,0,0,0,0,-1,1770,1786,0,0
553,-762,0,0,0,0,0,0,0,0,0,-1,1777,1786,0,0
560,-762,0,0,0,0,0,0,0,0,0,-1,1784,1786,0,0
567,-762,0,0,0,0,0,0,0,0,0,-1,1791,1786,0,0
574,-762,0,0,0,0,0,0,0,0,0,-1,1798,1786,0,0
581,-762,0,0,0,0,0,0,0,0,0,-1,1805,1786,0,0
588,-762,0,0,0,0,0,0,0,0,0,-1,1812,1786,0,0
595,-762,0,0,0,0,0,0,0,0,0,-1,1819,1786,0,0
602,-762,0,0,0,0,0,0,0,0,0,-1,1826,1786,0,0
609,-762,0,0,0,0,0,0,0,0,0,-1,1833,1786,0,0
616,-762,0,0,0,0,0,0,0,0,0,-1,1840,1786,0,0
623,-762,0,0,0,0,0,0,0,0,0,-1,1847,1786,0,0
630,-762,0,0,0,0,0,0,0,0,0,-1,1854,1786,0,0
637,-762,0,0,0,0,0,0,0,0,0,-1,1861,1786,0,0
644,-762,0,0,0,0,0,0,0,0,0,-1,1868,1786,0,0
651,-762,0,0,0,0,0,0,0,0,0,-1,1875,1786,0,0
658,-762,0,0,0,0,0,0,0,0,0,-1,1882,1786,0,0
665,-762,0,0,0,0,0,0,0,0,0,-1,1889,1786,0,0
672,-762,0,0,0,0,0,0,0,0,0,-1,1896,1786,0,0
679,-762,0,0,0,0,0,0,0,0,0,-1,1903,1786,0,0
686,-762,0,0,0,0,0,0,0,0,0,-1,1910,1786,0,0
693,-762,0,0,0,0,0,0,0,0,0,-1,1917,1786,0,0
700,-762,0,0,0,0,0,0,0,0,0,-1,1924,1786,0,0
707,-762,0,0,0,0,0,0,0,0,0,-1,1931,1786,0,0
714,-762,0,0,0,0,0,0,0,0,0,-1,1938,1786,0,0
721,-762,0,0,0,0,0,0,0,0,0,-1,1945,1786,0,0
728,-762,0,0,0,0,0,0,0,0,0,-1,1952,1786,0,0
735,-762,0,0,0,0,0,0,0,0,0,-1,1959,1786,0,0
742,-762,0,0,0,0,0,0,0,0,0,-1,1966,1786,0,0
749,-762,0,0,0,0,0,0,0,0,0,-1,1973,1786,0,0
756,-762,0,0,0,0,0,0,0,0,0,-1,1980,1786,0,0
763,-762,0,0,0,0,0,0,0,0,0,-1,1987,1786,0,0
770,-762,0,0,0,0,0,0,0,0,0,-1,1994,1786,0,0
777,-762,0,0,0,0,0,0,0,0,0,-1,2001,1786,0,0
784,-762,0,0,0,0,0,0,0,0,0,-1,2008,1786,0,0
791,-762,0,0,0,0,0,0,0,0,0,-1,2015,1786,0,0
798,-762,0,0,0,0,0,0,0,0,0,-1,2022,1786,0,0
805,-762,0,0,0,0,0,0,0,0,0,-1,2029,1786,0,0
812,-762,0,0,0,0,0,0,0,0,0,-1,2036,1786,0,0
-700,-769,0,0,0,0,0,0,0,0,0,-1,524,1793,0,0
-693,-769,0,0,0,0,0,0,0,0,0,-1,531,1793,0,0
-686,-769,0,0,0,0,0,0,0,0,0,-1,538,1793,0,0
-679,-769,0,0,0,0,0,0,0,0,0,-1,545,1793,0,0
-672,-769,0,0,0,0,0,0,0,0,0,-1,552,1793,0,0
-665,-769,0,0,0,0,0,0,0,0,0,-1,559,1793,0,0
-658,-769,0,0,0,0,0,0,0,0,0,-1,566,1793,0,0
-651,-769,0,0,0,0,0,0,0,0,0,-1,573,1793,0,0
-644,-769,0,0,0,0,0,0,0,0,0,-1,580,1793,0,0
-637,-769,0,0,0,0,0,0,0,0,0,-1,587,1793,0,0
-630,-769,0,0,0,0,0,0,0,0,0,-1,594,1793,0,0
-623,-769,0,0,0,0,0,0,0,0,0,-1,601,1793,0,0
-616,-769,0,0,0,0,0,0,0,0,0,-1,608,1793,0,0
-609,-769,0,0,0,0,0,0,0,0,0,-1,615,1793,0,0
-602,-769,0,0,0,0,0,0,0,0,0,-1,622,1793,0,0
-595,-769,0,0,0,0,0,0,0,0,0,-1,629,1793,0,0
-588,-769,0,0,0,0,0,0,0,0,0,-1,636,1793,0,0
-581,-769,0,0,0,0,0,0,0,0,0,-1,643,1793,0,0
-574,-769,0,0,0,0,0,0,0,0,0,-1,650,1793,0,0
-567,-769,0,0,0,0,0,0,0,0,0,-1,657,1793,0,0
-560,-769,0,0,0,0,0,0,0,0,0,-1,664,1793,0,0
-553,-769,0,0,0,0,0,0,0,0,0,-1,671,1793,0,0
-546,-769,0,0,0,0,0,0,0,0,0,-1,678,1793,0,0
-539,-769,0,0,0,0,0,0,0,0,0,-1,685,1793,0,0
-532,-769,0,0,0,0,0,0,0,0,0,-1,692,1793,0,0
-525,-769,0,0,0,0,0,0,0,0,0,-1,699,1793,0,0
-518,-769,0,0,0,0,0,0,0,0,0,-1,706,1793,0,0
-511,-769,0,0,0,0,0,0,0,0,0,-1,713,1793,0,0
-504,-769,0,0,0,0,0,0,0,0,0,-1,720,1793,0,0
-497,-769,0,0,0,0,0,0,0,0,0,-1,727,1793,0,0
-490,-769,0,0,0,0,0,0,0,0,0,-1,734,1793,0,0
-483,-769,0,0,0,0,0,0,0,0,0,-1,741,1793,0,0
-476,-769,0,0,0,0,0,0,0,0,0,-1,748,1793,0,0
-469,-769,0,0,0,0,0,0,0,0,0,-1,755,1793,0,0
-462,-769,0,0,0,0,0,0,0,0,0,-1,762,1793,0,0
-455,-769,0,0,0,0,0,0,0,0,0,-1,769,1793,0,0
-448,-769,0,0,0,0,0,0,0,0,0,-1,776,1793,0,0
-441,-769,0,0,0,0,0,0,0,0,0,-1,783,1793,0,0
-434,-769,0,0,0,0,0,0,0,0,0,-1,790,1793,0,0
-427,-769,0,0,0,0,0,0,0,0,0,-1,797,1793,0,0
-420,-769,0,0,0,0,0,0,0,0,0,-1,804,1793,0,0
-413,-769,0,0,0,0,0,0,0,0,0,-1,811,1793,0,0
-406,-769,0,0,0,0,0,0,0,0,0,-1,818,1793,0,0
-399,-769,0,0,0,0,0,0,0,0,0,-1,825,1793,0,0
-392,-769,0,0,0,0,0,0,0,0,0,-1,832,1793,0,0
-385,-769,0,0,0,0,0,0,0,0,0,-1,839,1793,0,0
-378,-769,0,0,0,0,0,0,0,0,0,-1,846,1793,0,0
-371,-769,0,0,0,0,0,0,0,0,0,-1,853,1793,0,0
-364,-769,0,0,0,0,0,0,0,0,0,-1,860,1793,0,0
-357,-769,0,0,0,0,0,0,0,0,0,-1,867,1793,0,0
-350,-769,0,0,0,0,0,0,0,0,0,-1,874,1793,0,0
-343,-769,0,0,0,0,0,0,0,0,0,-1,881,1793,0,0
-336,-769,0,0,0,0,0,0,0,0,0,-1,888,1793,0,0
-329,-769,0,0,0,0,0,0,0,0,0,-1,895,1793,0,0
-322,-769,0,0,0,0,0,0,0,0,0,-1,902,1793,0,0
-315,-769,0,0,0,0,0,0,0,0,0,-1,909,1793,0,0
-308,-769,0,0,0,0,0,0,0,0,0,-1,916,1793,0,0
-301,-769,0,0,0,0,0,0,0,0,0,-1,923,1793,0,0
-294,-769,0,0,0,0,0,0,0,0,0,-1,930,1793,0,0
-287,-769,0,0,0,0,0,0,0,0,0,-1,937,1793,0,0
-280,-769,0,0,0,0,0,0,0,0,0,-1,944,1793,0,0
-273,-769,0,0,0,0,0,0,0,0,0,-1,951,1793,0,0
-266,-769,0,0,0,0,0,0,0,0,0,-1,958,1793,0,0
-259,-769,0,0,0,0,0,0,0,0,0,-1,965,1793,0,0
-252,-769,0,0,0,0,0,0,0,0,0,-1,972,1793,0,0
-245,-769,0,0,0,0,0,0,0,0,0,-1,979,1793,0,0
-238,-769,0,0,0,0,0,0,0,0,0,-1,986,1793,0,0
-231,-769,0,0,0,0,0,0,0,0,0,-1,993,1793,0,0
-224,-769,0,0,0,0,0,0,0,0,0,-1,1000,1793,0,0
-217,-769,0,0,0,0,0,0,0,0,0,-1,1007,1793,0,0
-210,-769,0,0,0,0,0,0,0,0,0,-1,1014,1793,0,0
-203,-769,0,0,0,0,0,0,0,0,0,-1,1021,1793,0,0
-196,-769,0,0,0,0,0,0,0,0,0,-1,1028,1793,0,0
-189,-769,0,0,0,0,0,0,0,0,0,-1,1035,1793,0,0
-182,-769,0,0,0,0,0,0,0,0,0,-1,1042,1793,0,0
-175,-769,0,0,0,0,0,0,0,0,0,-1,1049,1793,0,0
-168,-769,0,0,0,0,0,0,0,0,0,-1,1056,1793,0,0
-161,-769,-3.61145,12.4761,0,0,0,0,0,0,0,-1,1063,1793,-3.6114,-12.476
-154,-769,-0.813232,5.32874,0,0,0,0,0,0,0,-1,1070,1793,-0.813269,-5.32872
-147,-769,4.26587,4.7002,0,0,0,0,0,0,0,-1,1077,1793,4.26593,-4.70022
-140,-769,4.10376,5.28589,0,0,0,0,0,0,0,-1,1084,1793,4.10371,-5.28584
-133,-769,6.422,8.21777,0,0,0,0,0,0,0,-1,1091,1793,6.42198,-8.21773
-126,-769,-0.352295,19.326,0,0,0,0,0,0,0,-1,1098,1793,-0.352235,-19.326
-119,-769,6.01685,16.2577,0,0,0,0,0,0,0,-1,1105,1793,6.01689,-16.2576
-112,-769,5.76416,27.2615,0,0,0,0,0,0,0,-1,1112,1793,5.7642,-27.2615
-105,-769,5.27551,23.3029,0,0,0,0,0,0,0,-1,1119,1793,5.27548,-23.3029
-98,-769,4.7771,19.2936,0,0,0,0,0,0,0,-1,1126,1793,4.77706,-19.2936
-91,-769,4.32886,15.3048,0,0,0,0,0,0,0,-1,1133,1793,4.32881,-15.3048
-84,-769,3.2207,12.4565,0,0,0,0,0,0,0,-1,1140,1793,3.22066,-12.4565
-77,-769,2.48816,8.98486,0,0,0,0,0,0,0,-1,1147,1793,2.48815,-8.98489
-70,-769,1.04944,11.9852,0,0,0,0,0,0,0,-1,1154,1793,1.04947,-11.9852
-63,-769,-2.39709,9.60339,0,0,0,0,0,0,0,-1,1161,1793,-2.39706,-9.6034
-56,-769,-5.84363,7.22156,0,0,0,0,0,0,0,-1,1168,1793,-5.84359,-7.22157
-49,-769,-2.41443,3.95471,0,0,0,0,0,0,0,-1,1175,1793,-2.41446,-3.95471
-42,-769,-3.1991,2.64941,0,0,0,0,0,0,0,-1,1182,1793,-3.19914,-2.64944
-35,-769,-3.50183,1.73389,0,0,0,0,0,0,0,-1,1189,1793,-3.50189,-1.7339
-28,-769,-3.96985,1.14075,0,0,0,0,0,0,0,-1,1196,1793,-3.96985,-1.14078
-21,-769,7.97278,33.8591,0,0,0,0,0,0,0,-1,1203,1793,7.97275,-33.8592
-14,-769,7.97534,33.5166,0,0,0,0,0,0,0,-1,1210,1793,7.97537,-33.5166
-7,-769,4.73779,36.8745,0,0,0,0,0,0,0,-1,1217,1793,4.73781,-36.8745
0,-769,8.03711,35.3381,0,0,0,0,0,0,0,-1,1224,1793,8.03712,-35.3382
7,-769,8.06982,35.6008,-0.0109456,-0.00344005,-0.0115938,0.00499324,-0.0193789,-0.94192,0.0148659,0.0472037,1231,1793,8.06985,-35.6009
14,-769,8.01038,35.9242,-0.00695809,-0.00116913,-0.0120078,0.00828812,-0.0164154,-0.903667,0.0145176,0.0423963,1238,1793,8.01041,-35.9242
21,-769,7.68567,36.0128,-0.00380507,0.00148223,-0.012301,0.0114205,-0.0137433,-0.891245,0.014549,0.0436018,1245,1793,7.6857,-36.0128
28,-769,7.32556,36.1075,-0.00262114,0.00458171,-0.0127832,0.0142611,-0.0123005,-0.922705,0.0153492,0.0448779,1252,1793,7.32561,-36.1075
35,-769,7.06799,36.2045,-0.00391628,0.00751955,-0.012693,0.0157231,-0.0121198,-0.997024,0.0161199,0.0479339,1259,1793,7.06796,-36.2045
42,-769,6.86023,36.2516,0,0,0,0,0,0,0,-1,1266,1793,6.86023,-36.2516
49,-769,8.1394,36.3625,-0.00603963,0.0118257,-0.0112231,0.0172371,-0.011451,-1.12152,0.016675,0.0469024,1273,1793,8.1394,-36.3626
56,-769,7.83447,35.8712,-0.00902113,0.01331,-0.0104735,0.0174533,-0.0131645,-1.19408,0.0177349,0.0465874,1280,1793,7.83451,-35.8712
63,-769,7.52588,35.7059,-0.0124113,0.0148017,-0.00981169,0.0179703,-0.01558,-1.25842,0.0193867,0.0448168,1287,1793,7.52587,-35.7059
70,-769,7.55359,35.7255,-0.0163565,0.0162018,-0.00885111,0.0184524,-0.0186071,-1.3218,0.0213964,0.0443623,1294,1793,7.55361,-35.7255
77,-769,7.60535,35.6304,-0.0194093,0.0170061,-0.00746859,0.0184783,-0.0208815,-1.37617,0.0227385,0.047981,1301,1793,7.60531,-35.6303
84,-769,7.73108,35.6094,-0.0217789,0.0176247,-0.00615718,0.0185644,-0.0227186,-1.41935,0.0238749,0.0464199,1308,1793,7.73102,-35.6094
91,-769,7.86304,35.7218,-0.0248239,0.0172358,-0.00425783,0.0176625,-0.0252506,-1.47091,0.0249046,0.0431999,1315,1793,7.86307,-35.7218
98,-769,7.62366,35.911,0,0,0,0,0,0,0,-1,1322,1793,7.62369,-35.911
105,-769,8.33398,35.5266,-0.0262473,0.0181388,-0.00243686,0.0182722,-0.0263807,-1.51611,0.0259217,0.0419011,1329,1793,8.33404,-35.5266
112,-769,7.58289,35.3862,-0.0261578,0.0194852,-0.0017123,0.0195493,-0.0262219,-1.53335,0.0265195,0.0452597,1336,1793,7.5829,-35.3862
119,-769,6.74402,35.1471,-0.0248768,0.0209478,-0.000877939,0.0209646,-0.0248936,-1.55165,0.0265086,0.0444509,1343,1793,6.74398,-35.1471
126,-769,5.93323,35.0681,0,0,0,0,0,0,0,-1,1350,1793,5.93325,-35.0681
133,-769,7.09216,35.6014,0,0,0,0,0,0,0,-1,1357,1793,7.09222,-35.6015
140,-769,6.9314,35.6321,0,0,0,0,0,0,0,-1,1364,1793,6.93135,-35.6321
147,-769,6.60303,34.4529,0,0,0,0,0,0,0,-1,1371,1793,6.60301,-34.4529
154,-769,7.76904,34.4832,0,0,0,0,0,0,0,-1,1378,1793,7.7691,-34.4832
161,-769,6.57019,1.53223,0,0,0,0,0,0,0,-1,1385,1793,6.57019,-1.53226
168,-769,8.27637,0.756958,0,0,0,0,0,0,0,-1,1392,1793,8.27639,-0.756944
175,-769,8.47144,2.41174,0,0,0,0,0,0,0,-1,1399,1793,8.47147,-2.4118
182,-769,8.41479,4.05994,0,0,0,0,0,0,0,-1,1406,1793,8.41479,-4.05997
189,-769,8.25049,5.68433,0,0,0,0,0,0,0,-1,1413,1793,8.25054,-5.68428
196,-769,7.97729,7.42847,0,0,0,0,0,0,0,-1,1420,1793,7.9773,-7.42848
203,-769,22.0977,6.73889,0,0,0,0,0,0,0,-1,1427,1793,22.0977,-6.7389
210,-769,22.1115,7.77246,0,0,0,0,0,0,0,-1,1434,1793,22.1115,-7.77248
217,-769,22.4723,8.79102,0,0,0,0,0,0,0,-1,1441,1793,22.4723,-8.79099
224,-769,22.1348,9.35278,0,0,0,0,0,0,0,-1,1448,1793,22.1348,-9.35283
231,-769,3.13318,19.7184,0,0,0,0,0,0,0,-1,1455,1793,3.13323,-19.7184
238,-769,5.74512,18.6597,0,0,0,0,0,0,0,-1,1462,1793,5.74512,-18.6596
245,-769,5.80798,22.87,0,0,0,0,0,0,0,-1,1469,1793,5.80796,-22.87
252,-769,8.39099,20.3199,0,0,0,0,0,0,0,-1,1476,1793,8.39098,-20.3199
259,-769,10.974,17.7698,0,0,0,0,0,0,0,-1,1483,1793,10.974,-17.7698
266,-769,15.8488,7.3905,0,0,0,0,0,0,0,-1,1490,1793,15.8488,-7.39046
273,-769,14.8075,7.56152,0,0,0,0,0,0,0,-1,1497,1793,14.8075,-7.56152
280,-769,13.6519,7.43054,0,0,0,0,0,0,0,-1,1504,1793,13.6518,-7.43058
287,-769,0,0,0,0,0,0,0,0,0,-1,1511,1793,0,0
294,-769,0,0,0,0,0,0,0,0,0,-1,1518,1793,0,0
301,-769,0,0,0,0,0,0,0,0,0,-1,1525,1793,0,0
308,-769,0,0,0,0,0,0,0,0,0,-1,1532,1793,0,0
315,-769,0,0,0,0,0,0,0,0,0,-1,1539,1793,0,0
322,-769,0,0,0,0,0,0,0,0,0,-1,1546,1793,0,0
329,-769,0,0,0,0,0,0,0,0,0,-1,1553,1793,0,0
336,-769,0,0,0,0,0,0,0,0,0,-1,1560,1793,0,0
343,-769,0,0,0,0,0,0,0,0,0,-1,1567,1793,0,0
350,-769,0,0,0,0,0,0,0,0,0,-1,1574,1793,0,0
357,-769,0,0,0,0,0,0,0,0,0,-1,1581,1793,0,0
364,-769,0,0,0,0,0,0,0,0,0,-1,1588,1793,0,0
371,-769,0,0,0,0,0,0,0,0,0,-1,1595,1793,0,0
378,-769,0,0,0,0,0,0,0,0,0,-1,1602,1793,0,0
385,-769,0,0,0,0,0,0,0,0,0,-1,1609,1793,0,0
392,-769,0,0,0,0,0,0,0,0,0,-1,1616,1793,0,0
399,-769,0,0,0,0,0,0,0,0,0,-1,1623,1793,0,0
406,-769,0,0,0,0,0,0,0,0,0,-1,1630,1793,0,0
413,-769,0,0,0,0,0,0,0,0,0,-1,1637,1793,0,0
420,-769,0,0,0,0,0,0,0,0,0,-1,1644,1793,0,0
427,-769,0,0,0,0,0,0,0,0,0,-1,1651,1793,0,0
434,-769,0,0,0,0,0,0,0,0,0,-1,1658,1793,0,0
441,-769,0,0,0,0,0,0,0,0,0,-1,1665,1793,0,0
448,-769,0,0,0,0,0,0,0,0,0,-1,1672,1793,0,0
455,-769,0,0,0,0,0,0,0,0,0,-1,1679,1793,0,0
462,-769,0,0,0,0,0,0,0,0,0,-1,1686,1793,0,0
469,-769,0,0,0,0,0,0,0,0,0,-1,1693,1793,0,0
476,-769,0,0,0,0,0,0,0,0,0,-1,1700,1793,0,0
483,-769,0,0,0,0,0,0,0,0,0,-1,1707,1793,0,0
490,-769,0,0,0,0,0,0,0,0,0,-1,1714,1793,0,0
497,-769,0,0,0,0,0,0,0,0,0,-1,1721,1793,0,0
504,-769,0,0,0,0,0,0,0,0,0,-1,1728,1793,0,0
511,-769,0,0,0,0,0,0,0,0,0,-1,1735,1793,0,0
518,-769,0,0,0,0,0,0,0,0,0,-1,1742,1793,0,0
525,-769,0,0,0,0,0,0,0,0,0,-1,1749,1793,0,0
532,-769,0,0,0,0,0,0,0,0,0,-1,1756,1793,0,0
539,-769,0,0,0,0,0,0,0,0,0,-1,1763,1793,0,0
546,-769,0,0,0,0,0,0,0,0,0,-1,1770,1793,0,0
553,-769,0,0,0,0,0,0,0,0,0,-1,1777,1793,0,0
560,-769,0,0,0,0,0,0,0,0,0,-1,1784,1793,0,0
567,-769,0,0,0,0,0,0,0,0,0,-1,1791,1793,0,0
574,-769,0,0,0,0,0,0,0,0,0,-1,1798,1793,0,0
581,-769,0,0,0,0,0,0,0,0,0,-1,1805,1793,0,0
588,-769,0,0,0,0,0,0,0,0,0,-1,1812,1793,0,0
595,-769,0,0,0,0,0,0,0,0,0,-1,1819,1793,0,0
602,-769,0,0,0,0,0,0,0,0,0,-1,1826,1793,0,0
609,-769,0,0,0,0,0,0,0,0,0,-1,1833,1793,0,0
616,-769,0,0,0,0,0,0,0,0,0,-1,1840,1793,0,0
623,-769,0,0,0,0,0,0,0,0,0,-1,1847,1793,0,0
630,-769,0,0,0,0,0,0,0,0,0,-1,1854,1793,0,0
637,-769,0,0,0,0,0,0,0,0,0,-1,1861,1793,0,0
644,-769,0,0,0,0,0,0,0,0,0,-1,1868,1793,0,0
651,-769,0,0,0,0,0,0,0,0,0,-1,1875,1793,0,0
658,-769,0,0,0,0,0,0,0,0,0,-1,1882,1793,0,0
665,-769,0,0,0,0,0,0,0,0,0,-1,1889,1793,0,0
672,-769,0,0,0,0,0,0,0,0,0,-1,1896,1793,0,0
679,-769,0,0,0,0,0,0,0,0,0,-1,1903,1793,0,0
686,-769,0,0,0,0,0,0,0,0,0,-1,1910,1793,0,0
693,-769,0,0,0,0,0,0,0,0,0,-1,1917,1793,0,0
700,-769,0,0,0,0,0,0,0,0,0,-1,1924,1793,0,0
707,-769,0,0,0,0,0,0,0,0,0,-1,1931,1793,0,0
714,-769,0,0,0,0,0,0,0,0,0,-1,1938,1793,0,0
721,-769,0,0,0,0,0,0,0,0,0,-1,1945,1793,0,0
728,-769,0,0,0,0,0,0,0,0,0,-1,1952,1793,0,0
735,-769,0,0,0,0,0,0,0,0,0,-1,1959,1793,0,0
742,-769,0,0,0,0,0,0,0,0,0,-1,1966,1793,0,0
749,-769,0,0,0,0,0,0,0,0,0,-1,1973,1793,0,0
756,-769,0,0,0,0,0,0,0,0,0,-1,1980,1793,0,0
763,-769,0,0,0,0,0,0,0,0,0,-1,1987,1793,0,0
770,-769,0,0,0,0,0,0,0,0,0,-1,1994,1793,0,0
777,-769,0,0,0,0,0,0,0,0,0,-1,2001,1793,0,0
784,-769,0,0,0,0,0,0,0,0,0,-1,2008,1793,0,0
791,-769,0,0,0,0,0,0,0,0,0,-1,2015,1793,0,0
798,-769,0,0,0,0,0,0,0,0,0,-1,2022,1793,0,0
805,-769,0,0,0,0,0,0,0,0,0,-1,2029,1793,0,0
812,-769,0,0,0,0,0,0,0,0,0,-1,2036,1793,0,0
-700,-776,0,0,0,0,0,0,0,0,0,-1,524,1800,0,0
-693,-776,0,0,0,0,0,0,0,0,0,-1,531,1800,0,0
-686,-776,0,0,0,0,0,0,0,0,0,-1,538,1800,0,0
-679,-776,0,0,0,0,0,0,0,0,0,-1,545,1800,0,0
-672,-776,0,0,0,0,0,0,0,0,0,-1,552,1800,0,0
-665,-776,0,0,0,0,0,0,0,0,0,-1,559,1800,0,0
-658,-776,0,0,0,0,0,0,0,0,0,-1,566,1800,0,0
-651,-776,0,0,0,0,0,0,0,0,0,-1,573,1800,0,0
-644,-776,0,0,0,0,0,0,0,0,0,-1,580,1800,0,0
-637,-776,0,0,0,0,0,0,0,0,0,-1,587,1800,0,0
-630,-776,0,0,0,0,0,0,0,0,0,-1,594,1800,0,0
-623,-776,0,0,0,0,0,0,0,0,0,-1,601,1800,0,0
-616,-776,0,0,0,0,0,0,0,0,0,-1,608,1800,0,0
-609,-776,0,0,0,0,0,0,0,0,0,-1,615,1800,0,0
-602,-776,0,0,0,0,0,0,0,0,0,-1,622,1800,0,0
-595,-776,0,0,0,0,0,0,0,0,0,-1,629,1800,0,0
-588,-776,0,0,0,0,0,0,0,0,0,-1,636,1800,0,0
-581,-776,0,0,0,0,0,0,0,0,0,-1,643,1800,0,0
-574,-776,0,0,0,0,0,0,0,0,0,-1,650,1800,0,0
-567,-776,0,0,0,0,0,0,0,0,0,-1,657,1800,0,0
-560,-776,0,0,0,0,0,0,0,0,0,-1,664,1800,0,0
-553,-776,0,0,0,0,0,0,0,0,0,-1,671,1800,0,0
-546,-776,0,0,0,0,0,0,0,0,0,-1,678,1800,0,0
-539,-776,0,0,0,0,0,0,0,0,0,-1,685,1800,0,0
-532,-776,0,0,0,0,0,0,0,0,0,-1,692,1800,0,0
-525,-776,0,0,0,0,0,0,0,0,0,-1,699,1800,0,0
-518,-776,0,0,0,0,0,0,0,0,0,-1,706,1800,0,0
-511,-776,0,0,0,0,0,0,0,0,0,-1,713,1800,0,0
-504,-776,0,0,0,0,0,0,0,0,0,-1,720,1800,0,0
-497,-776,0,0,0,0,0,0,0,0,0,-1,727,1800,0,0
-490,-776,0,0,0,0,0,0,0,0,0,-1,734,1800,0,0
-483,-776,0,0,0,0,0,0,0,0,0,-1,741,1800,0,0
-476,-776,0,0,0,0,0,0,0,0,0,-1,748,1800,0,0
-469,-776,0,0,0,0,0,0,0,0,0,-1,755,1800,0,0
-462,-776,0,0,0,0,0,0,0,0,0,-1,762,1800,0,0
-455,-776,0,0,0,0,0,0,0,0,0,-1,769,1800,0,0
-448,-776,0,0,0,0,0,0,0,0,0,-1,776,1800,0,0
-441,-776,0,0,0,0,0,0,0,0,0,-1,783,1800,0,0
-434,-776,0,0,0,0,0,0,0,0,0,-1,790,1800,0,0
-427,-776,0,0,0,0,0,0,0,0,0,-1,797,1800,0,0
-420,-776,0,0,0,0,0,0,0,0,0,-1,804,1800,0,0
-413,-776,0,0,0,0,0,0,0,0,0,-1,811,1800,0,0
-406,-776,0,0,0,0,0,0,0,0,0,-1,818,1800,0,0
-399,-776,0,0,0,0,0,0,0,0,0,-1,825,1800,0,0
-392,-776,0,0,0,0,0,0,0,0,0,-1,832,1800,0,0
-385,-776,0,0,0,0,0,0,0,0,0,-1,839,1800,0,0
-378,-776,0,0,0,0,0,0,0,0,0,-1,846,1800,0,0
-371,-776,0,0,0,0,0,0,0,0,0,-1,853,1800,0,0
-364,-776,0,0,0,0,0,0,0,0,0,-1,860,1800,0,0
-357,-776,0,0,0,0,0,0,0,0,0,-1,867,1800,0,0
-350,-776,0,0,0,0,0,0,0,0,0,-1,874,1800,0,0
-343,-776,0,0,0,0,0,0,0,0,0,-1,881,1800,0,0
-336,-776,0,0,0,0,0,0,0,0,0,-1,888,1800,0,0
-329,-776,0,0,0,0,0,0,0,0,0,-1,895,1800,0,0
-322,-776,0,0,0,0,0,0,0,0,0,-1,902,1800,0,0
-315,-776,0,0,0,0,0,0,0,0,0,-1,909,1800,0,0
-308,-776,0,0,0,0,0,0,0,0,0,-1,916,1800,0,0
-301,-776,0,0,0,0,0,0,0,0,0,-1,923,1800,0,0
-294,-776,0,0,0,0,0,0,0,0,0,-1,930,1800,0,0
-287,-776,0,0,0,0,0,0,0,0,0,-1,937,1800,0,0
-280,-776,0,0,0,0,0,0,0,0,0,-1,944,1800,0,0
-273,-776,0,0,0,0,0,0,0,0,0,-1,951,1800,0,0
-266,-776,0,0,0,0,0,0,0,0,0,-1,958,1800,0,0
-259,-776,0,0,0,0,0,0,0,0,0,-1,965,1800,0,0
-252,-776,0,0,0,0,0,0,0,0,0,-1,972,1800,0,0
-245,-776,0,0,0,0,0,0,0,0,0,-1,979,1800,0,0
-238,-776,0,0,0,0,0,0,0,0,0,-1,986,1800,0,0
-231,-776,0,0,0,0,0,0,0,0,0,-1,993,1800,0,0
-224,-776,0,0,0,0,0,0,0,0,0,-1,1000,1800,0,0
-217,-776,0,0,0,0,0,0,0,0,0,-1,1007,1800,0,0
-210,-776,0,0,0,0,0,0,0,0,0,-1,1014,1800,0,0
-203,-776,0,0,0,0,0,0,0,0,0,-1,1021,1800,0,0
-196,-776,0,0,0,0,0,0,0,0,0,-1,1028,1800,0,0
-189,-776,0,0,0,0,0,0,0,0,0,-1,1035,1800,0,0
-182,-776,0,0,0,0,0,0,0,0,0,-1,1042,1800,0,0
-175,-776,0,0,0,0,0,0,0,0,0,-1,1049,1800,0,0
-168,-776,0,0,0,0,0,0,0,0,0,-1,1056,1800,0,0
-161,-776,0,0,0,0,0,0,0,0,0,-1,1063,1800,0,0
-154,-776,0,0,0,0,0,0,0,0,0,-1,1070,1800,0,0
-147,-776,0,0,0,0,0,0,0,0,0,-1,1077,1800,0,0
-140,-776,2.98499,5.20911,0,0,0,0,0,0,0,-1,1084,1800,2.98493,-5.2091
-133,-776,6.72363,9.35828,0,0,0,0,0,0,0,-1,1091,1800,6.72358,-9.35824
-126,-776,6.55029,13.7832,0,0,0,0,0,0,0,-1,1098,1800,6.55029,-13.7832
-119,-776,5.72107,13.7787,0,0,0,0,0,0,0,-1,1105,1800,5.72106,-13.7787
-112,-776,6.84998,20.4421,0,0,0,0,0,0,0,-1,1112,1800,6.84993,-20.4421
-105,-776,4.46863,24.6742,0,0,0,0,0,0,0,-1,1119,1800,4.46868,-24.6742
-98,-776,3.99658,20.5574,0,0,0,0,0,0,0,-1,1126,1800,3.99662,-20.5574
-91,-776,3.30225,18.134,0,0,0,0,0,0,0,-1,1133,1800,3.30222,-18.134
-84,-776,2.67932,14.3162,0,0,0,0,0,0,0,-1,1140,1800,2.67926,-14.3161
-77,-776,0.580078,11.1272,0,0,0,0,0,0,0,-1,1147,1800,0.58002,-11.1272
-70,-776,-0.562866,12.3163,0,0,0,0,0,0,0,-1,1154,1800,-0.562897,-12.3163
-63,-776,-3.96106,9.97656,0,0,0,0,0,0,0,-1,1161,1800,-3.961,-9.97654
-56,-776,-7.35913,7.63672,0,0,0,0,0,0,0,-1,1168,1800,-7.3591,-7.63676
-49,-776,-7.62952,3.1908,0,0,0,0,0,0,0,-1,1175,1800,-7.62955,-3.19076
-42,-776,-3.41272,3.0249,0,0,0,0,0,0,0,-1,1182,1800,-3.41269,-3.02488
-35,-776,-3.71753,1.63635,0,0,0,0,0,0,0,-1,1189,1800,-3.71755,-1.63631
-28,-776,-4.03979,0.716064,0,0,0,0,0,0,0,-1,1196,1800,-4.03977,-0.716055
-21,-776,3.09473,39.1016,0,0,0,0,0,0,0,-1,1203,1800,3.09474,-39.1015
-14,-776,10.9791,36.7169,0,0,0,0,0,0,0,-1,1210,1800,10.9792,-36.717
-7,-776,10.0775,36.5348,0,0,0,0,0,0,0,-1,1217,1800,10.0775,-36.5348
0,-776,8.07568,32.8873,0,0,0,0,0,0,0,-1,1224,1800,8.07573,-32.8873
7,-776,8.18738,35.7051,0,0,0,0,0,0,0,-1,1231,1800,8.18743,-35.7051
14,-776,8.28894,36.1652,-0.00716658,-0.000181741,-0.0148402,0.0115715,-0.0189198,-0.900963,0.0177737,0.0435594,1238,1800,8.28896,-36.1651
21,-776,8.40173,35.8201,-0.0027202,0.00346051,-0.0151462,0.0158284,-0.0150881,-0.886034,0.0178514,0.0418174,1245,1800,8.40171,-35.8201
28,-776,7.70325,36.2666,-0.00121,0.00755033,-0.0157285,0.0194972,-0.0131568,-0.9212,0.0189709,0.0451859,1252,1800,7.70328,-36.2666
35,-776,7.47058,36.3608,-0.00331188,0.0112506,-0.0154723,0.0210693,-0.0131306,-1.00532,0.0199219,0.046174,1259,1800,7.47057,-36.3609
42,-776,9.72192,36.1725,-0.0045738,0.0140133,-0.0148209,0.0222134,-0.0127739,-1.06544,0.0204435,0.0444599,1266,1800,9.72188,-36.1724
49,-776,8.39771,36.7948,-0.00661014,0.0163806,-0.0134678,0.0225919,-0.0128214,-1.13867,0.0207037,0.046773,1273,1800,8.39775,-36.7948
56,-776,7.92981,35.8765,0,0,0,0,0,0,0,-1,1280,1800,7.92978,-35.8765
63,-776,7.54333,35.5275,0,0,0,0,0,0,0,-1,1287,1800,7.5433,-35.5275
70,-776,7.68201,35.8309,0,0,0,0,0,0,0,-1,1294,1800,7.68196,-35.831
77,-776,8.32532,35.5428,0,0,0,0,0,0,0,-1,1301,1800,8.3253,-35.5428
84,-776,8.02771,35.4716,-0.0276602,0.0222305,-0.00689431,0.0231657,-0.0285954,-1.43597,0.0299391,0.0469346,1308,1800,8.02775,-35.4716
91,-776,7.81445,35.4418,-0.0313639,0.0216449,-0.00448835,0.0220222,-0.0317412,-1.48692,0.031209,0.0438731,1315,1800,7.81446,-35.4418
98,-776,7.91223,35.2242,-0.0330728,0.0218964,-0.00330293,0.0220942,-0.0332705,-1.511,0.0321812,0.0451924,1322,1800,7.91222,-35.2243
105,-776,7.86133,35.1522,-0.0331108,0.0228103,-0.00209593,0.0228887,-0.0331893,-1.53339,0.0325582,0.0440851,1329,1800,7.86134,-35.1523
112,-776,7.63232,35.0554,-0.0327248,0.0246112,-0.00113905,0.0246339,-0.0327475,-1.55094,0.0332393,0.0430959,1336,1800,7.63231,-35.0555
119,-776,6.96582,34.8621,-0.0306557,0.0266629,5.48952e-05,0.0266629,-0.0306557,1.56984,0.0331197,0.0420388,1343,1800,6.96586,-34.862
126,-776,6.28845,34.6814,0,0,0,0,0,0,0,-1,1350,1800,6.28849,-34.6814
133,-776,6.68079,36.1538,0,0,0,0,0,0,0,-1,1357,1800,6.68076,-36.1539
140,-776,6.48035,36.4244,0,0,0,0,0,0,0,-1,1364,1800,6.48033,-36.4244
147,-776,6.18823,36.438,0,0,0,0,0,0,0,-1,1371,1800,6.18828,-36.438
154,-776,38.4338,21.854,0,0,0,0,0,0,0,-1,1378,1800,38.4339,-21.854
161,-776,6.50293,1.1731,0,0,0,0,0,0,0,-1,1385,1800,6.5029,-1.17313
168,-776,8.44971,1.22913,0,0,0,0,0,0,0,-1,1392,1800,8.44974,-1.22915
175,-776,8.61523,2.87061,0,0,0,0,0,0,0,-1,1399,1800,8.6152,-2.87063
182,-776,8.54065,4.60645,0,0,0,0,0,0,0,-1,1406,1800,8.5407,-4.60643
189,-776,8.35303,6.28223,0,0,0,0,0,0,0,-1,1413,1800,8.35297,-6.28225
196,-776,8.0387,8.21704,0,0,0,0,0,0,0,-1,1420,1800,8.03865,-8.217
203,-776,7.91736,9.79919,0,0,0,0,0,0,0,-1,1427,1800,7.91735,-9.79922
210,-776,20.2479,7.85718,0,0,0,0,0,0,0,-1,1434,1800,20.248,-7.85719
217,-776,21.5171,9.3418,0,0,0,0,0,0,0,-1,1441,1800,21.5171,-9.34182
224,-776,3.09253,14.9313,0,0,0,0,0,0,0,-1,1448,1800,3.09254,-14.9313
231,-776,20.8671,9.21057,0,0,0,0,0,0,0,-1,1455,1800,20.867,-9.21054
238,-776,20.7511,9.05847,0,0,0,0,0,0,0,-1,1462,1800,20.7511,-9.05848
245,-776,3.80823,15.4108,0,0,0,0,0,0,0,-1,1469,1800,3.80826,-15.4108
252,-776,8.57837,20.2009,0,0,0,0,0,0,0,-1,1476,1800,8.57841,-20.2009
259,-776,14.1882,7.69055,0,0,0,0,0,0,0,-1,1483,1800,14.1882,-7.69061
266,-776,0,0,0,0,0,0,0,0,0,-1,1490,1800,0,0
273,-776,0,0,0,0,0,0,0,0,0,-1,1497,1800,0,0
280,-776,0,0,0,0,0,0,0,0,0,-1,1504,1800,0,0
287,-776,0,0,0,0,0,0,0,0,0,-1,1511,1800,0,0
294,-776,0,0,0,0,0,0,0,0,0,-1,1518,1800,0,0
301,-776,0,0,0,0,0,0,0,0,0,-1,1525,1800,0,0
308,-776,0,0,0,0,0,0,0,0,0,-1,1532,1800,0,0
315,-776,0,0,0,0,0,0,0,0,0,-1,1539,1800,0,0
322,-776,0,0,0,0,0,0,0,0,0,-1,1546,1800,0,0
329,-776,0,0,0,0,0,0,0,0,0,-1,1553,1800,0,0
336,-776,0,0,0,0,0,0,0,0,0,-1,1560,1800,0,0
343,-776,0,0,0,0,0,0,0,0,0,-1,1567,1800,0,0
350,-776,0,0,0,0,0,0,0,0,0,-1,1574,1800,0,0
357,-776,0,0,0,0,0,0,0,0,0,-1,1581,1800,0,0
364,-776,0,0,0,0,0,0,0,0,0,-1,1588,1800,0,0
371,-776,0,0,0,0,0,0,0,0,0,-1,1595,1800,0,0
378,-776,0,0,0,0,0,0,0,0,0,-1,1602,1800,0,0
385,-776,0,0,0,0,0,0,0,0,0,-1,1609,1800,0,0
392,-776,0,0,0,0,0,0,0,0,0,-1,1616,1800,0,0
399,-776,0,0,0,0,0,0,0,0,0,-1,1623,1800,0,0
406,-776,0,0,0,0,0,0,0,0,0,-1,1630,1800,0,0
413,-776,0,0,0,0,0,0,0,0,0,-1,1637,1800,0,0
420,-776,0,0,0,0,0,0,0,0,0,-1,1644,1800,0,0
427,-776,0,0,0,0,0,0,0,0,0,-1,1651,1800,0,0
434,-776,0,0,0,0,0,0,0,0,0,-1,1658,1800,0,0
441,-776,0,0,0,0,0,0,0,0,0,-1,1665,1800,0,0
448,-776,0,0,0,0,0,0,0,0,0,-1,1672,1800,0,0
455,-776,0,0,0,0,0,0,0,0,0,-1,1679,1800,0,0
462,-776,0,0,0,0,0,0,0,0,0,-1,1686,1800,0,0
469,-776,0,0,0,0,0,0,0,0,0,-1,1693,1800,0,0
476,-776,0,0,0,0,0,0,0,0,0,-1,1700,1800,0,0
483,-776,0,0,0,0,0,0,0,0,0,-1,1707,1800,0,0
490,-776,0,0,0,0,0,0,0,0,0,-1,1714,1800,0,0
497,-776,0,0,0,0,0,0,0,0,0,-1,1721,1800,0,0
504,-776,0,0,0,0,0,0,0,0,0,-1,1728,1800,0,0
511,-776,0,0,0,0,0,0,0,0,0,-1,1735,1800,0,0
518,-776,0,0,0,0,0,0,0,0,0,-1,1742,1800,0,0
525,-776,0,0,0,0,0,0,0,0,0,-1,1749,1800,0,0
532,-776,0,0,0,0,0,0,0,0,0,-1,1756,1800,0,0
539,-776,0,0,0,0,0,0,0,0,0,-1,1763,1800,0,0
546,-776,0,0,0,0,0,0,0,0,0,-1,1770,1800,0,0
553,-776,0,0,0,0,0,0,0,0,0,-1,1777,1800,0,0
560,-776,0,0,0,0,0,0,0,0,0,-1,1784,1800,0,0
567,-776,0,0,0,0,0,0,0,0,0,-1,1791,1800,0,0
574,-776,0,0,0,0,0,0,0,0,0,-1,1798,1800,0,0
581,-776,0,0,0,0,0,0,0,0,0,-1,1805,1800,0,0
588,-776,0,0,0,0,0,0,0,0,0,-1,1812,1800,0,0
595,-776,0,0,0,0,0,0,0,0,0,-1,1819,1800,0,0
602,-776,0,0,0,0,0,0,0,0,0,-1,1826,1800,0,0
609,-776,0,0,0,0,0,0,0,0,0,-1,1833,1800,0,0
616,-776,0,0,0,0,0,0,0,0,0,-1,1840,1800,0,0
623,-776,0,0,0,0,0,0,0,0,0,-1,1847,1800,0,0
630,-776,0,0,0,0,0,0,0,0,0,-1,1854,1800,0,0
637,-776,0,0,0,0,0,0,0,0,0,-1,1861,1800,0,0
644,-776,0,0,0,0,0,0,0,0,0,-1,1868,1800,0,0
651,-776,0,0,0,0,0,0,0,0,0,-1,1875,1800,0,0
658,-776,0,0,0,0,0,0,0,0,0,-1,1882,1800,0,0
665,-776,0,0,0,0,0,0,0,0,0,-1,1889,1800,0,0
672,-776,0,0,0,0,0,0,0,0,0,-1,1896,1800,0,0
679,-776,0,0,0,0,0,0,0,0,0,-1,1903,1800,0,0
686,-776,0,0,0,0,0,0,0,0,0,-1,1910,1800,0,0
693,-776,0,0,0,0,0,0,0,0,0,-1,1917,1800,0,0
700,-776,0,0,0,0,0,0,0,0,0,-1,1924,1800,0,0
707,-776,0,0,0,0,0,0,0,0,0,-1,1931,1800,0,0
714,-776,0,0,0,0,0,0,0,0,0,-1,1938,1800,0,0
721,-776,0,0,0,0,0,0,0,0,0,-1,1945,1800,0,0
728,-776,0,0,0,0,0,0,0,0,0,-1,1952,1800,0,0
735,-776,0,0,0,0,0,0,0,0,0,-1,1959,1800,0,0
742,-776,0,0,0,0,0,0,0,0,0,-1,1966,1800,0,0
749,-776,0,0,0,0,0,0,0,0,0,-1,1973,1800,0,0
756,-776,0,0,0,0,0,0,0,0,0,-1,1980,1800,0,0
763,-776,0,0,0,0,0,0,0,0,0,-1,1987,1800,0,0
770,-776,0,0,0,0,0,0,0,0,0,-1,1994,1800,0,0
777,-776,0,0,0,0,0,0,0,0,0,-1,2001,1800,0,0
784,-776,0,0,0,0,0,0,0,0,0,-1,2008,1800,0,0
791,-776,0,0,0,0,0,0,0,0,0,-1,2015,1800,0,0
798,-776,0,0,0,0,0,0,0,0,0,-1,2022,1800,0,0
805,-776,0,0,0,0,0,0,0,0,0,-1,2029,1800,0,0
812,-776,0,0,0,0,0,0,0,0,0,-1,2036,1800,0,0
-700,-783,0,0,0,0,0,0,0,0,0,-1,524,1807,0,0
-693,-783,0,0,0,0,0,0,0,0,0,-1,531,1807,0,0
-686,-783,0,0,0,0,0,0,0,0,0,-1,538,1807,0,0
-679,-783,0,0,0,0,0,0,0,0,0,-1,545,1807,0,0
-672,-783,0,0,0,0,0,0,0,0,0,-1,552,1807,0,0
-665,-783,0,0,0,0,0,0,0,0,0,-1,559,1807,0,0
-658,-783,0,0,0,0,0,0,0,0,0,-1,566,1807,0,0
-651,-783,0,0,0,0,0,0,0,0,0,-1,573,1807,0,0
-644,-783,0,0,0,0,0,0,0,0,0,-1,580,1807,0,0
-637,-783,0,0,0,0,0,0,0,0,0,-1,587,1807,0,0
-630,-783,0,0,0,0,0,0,0,0,0,-1,594,1807,0,0
-623,-783,0,0,0,0,0,0,0,0,0,-1,601,1807,0,0
-616,-783,0,0,0,0,0,0,0,0,0,-1,608,1807,0,0
-609,-783,0,0,0,0,0,0,0,0,0,-1,615,1807,0,0
-602,-783,0,0,0,0,0,0,0,0,0,-1,622,1807,0,0
-595,-783,0,0,0,0,0,0,0,0,0,-1,629,1807,0,0
-588,-783,0,0,0,0,0,0,0,0,0,-1,636,1807,0,0
-581,-783,0,0,0,0,0,0,0,0,0,-1,643,1807,0,0
-574,-783,0,0,0,0,0,0,0,0,0,-1,650,1807,0,0
-567,-783,0,0,0,0,0,0,0,0,0,-1,657,1807,0,0
-560,-783,0,0,0,0,0,0,0,0,0,-1,664,1807,0,0
-553,-783,0,0,0,0,0,0,0,0,0,-1,671,1807,0,0
-546,-783,0,0,0,0,0,0,0,0,0,-1,678,1807,0,0
-539,-783,0,0,0,0,0,0,0,0,0,-1,685,1807,0,0
-532,-783,0,0,0,0,0,0,0,0,0,-1,692,1807,0,0
-525,-783,0,0,0,0,0,0,0,0,0,-1,699,1807,0,0
-518,-783,0,0,0,0,0,0,0,0,0,-1,706,1807,0,0
-511,-783,0,0,0,0,0,0,0,0,0,-1,713,1807,0,0
-504,-783,0,0,0,0,0,0,0,0,0,-1,720,1807,0,0
-497,-783,0,0,0,0,0,0,0,0,0,-1,727,1807,0,0
-490,-783,0,0,0,0,0,0,0,0,0,-1,734,1807,0,0
-483,-783,0,0,0,0,0,0,0,0,0,-1,741,1807,0,0
-476,-783,0,0,0,0,0,0,0,0,0,-1,748,1807,0,0
-469,-783,0,0,0,0,0,0,0,0,0,-1,755,1807,0,0
-462,-783,0,0,0,0,0,0,0,0,0,-1,762,1807,0,0
-455,-783,0,0,0,0,0,0,0,0,0,-1,769,1807,0,0
-448,-783,0,0,0,0,0,0,0,0,0,-1,776,1807,0,0
-441,-783,0,0,0,0,0,0,0,0,0,-1,783,1807,0,0
-434,-783,0,0,0,0,0,0,0,0,0,-1,790,1807,0,0
-427,-783,0,0,0,0,0,0,0,0,0,-1,797,1807,0,0
-420,-783,0,0,0,0,0,0,0,0,0,-1,804,1807,0,0
-413,-783,0,0,0,0,0,0,0,0,0,-1,811,1807,0,0
-406,-783,0,0,0,0,0,0,0,0,0,-1,818,1807,0,0
-399,-783,0,0,0,0,0,0,0,0,0,-1,825,1807,0,0
-392,-783,0,0,0,0,0,0,0,0,0,-1,832,1807,0,0
-385,-783,0,0,0,0,0,0,0,0,0,-1,839,1807,0,0
-378,-783,0,0,0,0,0,0,0,0,0,-1,846,1807,0,0
-371,-783,0,0,0,0,0,0,0,0,0,-1,853,1807,0,0
-364,-783,0,0,0,0,0,0,0,0,0,-1,860,1807,0,0
-357,-783,0,0,0,0,0,0,0,0,0,-1,867,1807,0,0
-350,-783,0,0,0,0,0,0,0,0,0,-1,874,1807,0,0
-343,-783,0,0,0,0,0,0,0,0,0,-1,881,1807,0,0
-336,-783,0,0,0,0,0,0,0,0,0,-1,888,1807,0,0
-329,-783,0,0,0,0,0,0,0,0,0,-1,895,1807,0,0
-322,-783,0,0,0,0,0,0,0,0,0,-1,902,1807,0,0
-315,-783,0,0,0,0,0,0,0,0,0,-1,909,1807,0,0
-308,-783,0,0,0,0,0,0,0,0,0,-1,916,1807,0,0
-301,-783,0,0,0,0,0,0,0,0,0,-1,923,1807,0,0
-294,-783,0,0,0,0,0,0,0,0,0,-1,930,1807,0,0
-287,-783,0,0,0,0,0,0,0,0,0,-1,937,1807,0,0
-280,-783,0,0,0,0,0,0,0,0,0,-1,944,1807,0,0
-273,-783,0,0,0,0,0,0,0,0,0,-1,951,1807,0,0
-266,-783,0,0,0,0,0,0,0,0,0,-1,958,1807,0,0
-259,-783,0,0,0,0,0,0,0,0,0,-1,965,1807,0,0
-252,-783,0,0,0,0,0,0,0,0,0,-1,972,1807,0,0
-245,-783,0,0,0,0,0,0,0,0,0,-1,979,1807,0,0
-238,-783,0,0,0,0,0,0,0,0,0,-1,986,1807,0,0
-231,-783,0,0,0,0,0,0,0,0,0,-1,993,1807,0,0
-224,-783,0,0,0,0,0,0,0,0,0,-1,1000,1807,0,0
-217,-783,0,0,0,0,0,0,0,0,0,-1,1007,1807,0,0
-210,-783,0,0,0,0,0,0,0,0,0,-1,1014,1807,0,0
-203,-783,0,0,0,0,0,0,0,0,0,-1,1021,1807,0,0
-196,-783,0,0,0,0,0,0,0,0,0,-1,1028,1807,0,0
-189,-783,0,0,0,0,0,0,0,0,0,-1,1035,1807,0,0
-182,-783,0,0,0,0,0,0,0,0,0,-1,1042,1807,0,0
-175,-783,0,0,0,0,0,0,0,0,0,-1,1049,1807,0,0
-168,-783,0,0,0,0,0,0,0,0,0,-1,1056,1807,0,0
-161,-783,0,0,0,0,0,0,0,0,0,-1,1063,1807,0,0
-154,-783,0,0,0,0,0,0,0,0,0,-1,1070,1807,0,0
-147,-783,0,0,0,0,0,0,0,0,0,-1,1077,1807,0,0
-140,-783,0,0,0,0,0,0,0,0,0,-1,1084,1807,0,0
-133,-783,0,0,0,0,0,0,0,0,0,-1,1091,1807,0,0
-126,-783,0,0,0,0,0,0,0,0,0,-1,1098,1807,0,0
-119,-783,0,0,0,0,0,0,0,0,0,-1,1105,1807,0,0
-112,-783,5.33936,14.7699,0,0,0,0,0,0,0,-1,1112,1807,5.33931,-14.7699
-105,-783,6.44263,21.2224,0,0,0,0,0,0,0,-1,1119,1807,6.44263,-21.2224
-98,-783,5.54773,20.5695,0,0,0,0,0,0,0,-1,1126,1807,5.54772,-20.5695
-91,-783,2.6106,20.2491,0,0,0,0,0,0,0,-1,1133,1807,2.61056,-20.2492
-84,-783,-0.0491943,14.5743,0,0,0,0,0,0,0,-1,1140,1807,-0.0491562,-14.5743
-77,-783,0.332764,12.7788,0,0,0,0,0,0,0,-1,1147,1807,0.332743,-12.7788
-70,-783,-1.93176,5.12817,0,0,0,0,0,0,0,-1,1154,1807,-1.93171,-5.12813
-63,-783,-5.31702,10.54,0,0,0,0,0,0,0,-1,1161,1807,-5.31703,-10.54
-56,-783,-6.26135,6.9679,0,0,0,0,0,0,0,-1,1168,1807,-6.26136,-6.96785
-49,-783,-3.17688,4.59705,0,0,0,0,0,0,0,-1,1175,1807,-3.17685,-4.5971
-42,-783,-3.72876,3.1405,0,0,0,0,0,0,0,-1,1182,1807,-3.72874,-3.14055
-35,-783,-3.97046,1.59399,0,0,0,0,0,0,0,-1,1189,1807,-3.97041,-1.59401
-28,-783,-4.12195,0.270386,0,0,0,0,0,0,0,-1,1196,1807,-4.12197,-0.270408
-21,-783,11.986,37.0266,0,0,0,0,0,0,0,-1,1203,1807,11.986,-37.0266
-14,-783,11.163,36.822,-0.051296,-0.00622063,-0.0159769,-0.00113206,-0.0563846,-1.26246,0.0372181,0.0479286,1210,1807,11.163,-36.822
-7,-783,10.2693,36.6329,-0.0380702,-0.00826775,-0.0165596,-0.000891954,-0.045446,-1.15177,0.0300044,0.0471158,1217,1807,10.2692,-36.633
0,-783,8.62537,36.135,0,0,0,0,0,0,0,-1,1224,1807,8.62534,-36.135
7,-783,8.5968,36.2014,-0.014538,-0.00320519,-0.0168742,0.00892858,-0.0266718,-0.947384,0.0213879,0.0466646,1231,1807,8.59683,-36.2014
14,-783,8.60767,36.2695,-0.0067125,0.00138976,-0.0174888,0.0152905,-0.0206132,-0.899212,0.0208048,0.0454591,1238,1807,8.60766,-36.2695
21,-783,8.67688,36.3945,-0.000702795,0.00612682,-0.0177337,0.0207715,-0.0153474,-0.880514,0.0209315,0.0449818,1245,1807,8.67689,-36.3945
28,-783,8.10291,36.5361,0.00108841,0.0112591,-0.0184155,0.0252785,-0.0129309,-0.920114,0.0224409,0.0469948,1252,1807,8.10288,-36.5362
35,-783,9.77466,35.7566,-0.00214014,0.0157006,-0.017929,0.0268057,-0.0132453,-1.01624,0.0235611,0.0465994,1259,1807,9.7747,-35.7566
42,-783,9.52454,35.3547,-0.00401926,0.0188436,-0.0170828,0.027967,-0.0131427,-1.08027,0.0242436,0.0445597,1266,1807,9.52454,-35.3547
49,-783,9.31824,35.2433,-0.00689602,0.0215601,-0.0154054,0.0283027,-0.0136385,-1.15824,0.0247032,0.0477503,1273,1807,9.31821,-35.2433
56,-783,9.1438,35.2664,-0.0125288,0.0232941,-0.0140955,0.0281752,-0.0174099,-1.23743,0.0265621,0.0487104,1280,1807,9.14383,-35.2664
63,-783,8.94873,35.2948,0,0,0,0,0,0,0,-1,1287,1807,8.94869,-35.2948
70,-783,8.75525,35.3801,-0.0251419,0.0262171,-0.0116017,0.0287163,-0.027641,-1.35863,0.0325399,0.0481807,1294,1807,8.75529,-35.3801
77,-783,8.61975,35.4286,-0.0305643,0.0267391,-0.00954617,0.0282876,-0.0321127,-1.40999,0.0348954,0.0492886,1301,1807,8.61979,-35.4286
84,-783,8.30615,35.266,-0.0343526,0.0270733,-0.00740236,0.0279527,-0.035232,-1.45254,0.0365603,0.0466622,1308,1807,8.30621,-35.266
91,-783,7.61914,35.129,-0.0386888,0.0263021,-0.00450275,0.0266126,-0.0389992,-1.50195,0.0381053,0.0437949,1315,1807,7.6192,-35.129
98,-783,7.64172,34.8971,-0.0405555,0.0266893,-0.00295132,0.0268186,-0.0406847,-1.52702,0.0392462,0.0436079,1322,1807,7.64171,-34.8971
105,-783,7.64807,35.057,-0.0406611,0.0279076,-0.00144268,0.0279379,-0.0406915,-1.54977,0.0398506,0.0475338,1329,1807,7.64807,-35.0571
112,-783,7.41589,34.808,-0.0397193,0.0302399,-0.00021502,0.0302405,-0.03972,-1.56772,0.0405151,0.0453736,1336,1807,7.41589,-34.808
119,-783,6.78186,34.5997,-0.0364686,0.033008,0.0014296,0.0330374,-0.036498,1.55023,0.0401628,0.0418887,1343,1807,6.78181,-34.5998
126,-783,6.11902,34.384,-0.0326109,0.0362348,0.00295071,0.036361,-0.0327371,1.52804,0.0399121,0.0488432,1350,1807,6.11899,-34.384
133,-783,5.55664,34.1622,0,0,0,0,0,0,0,-1,1357,1807,5.55662,-34.1623
140,-783,6.76306,37.855,0,0,0,0,0,0,0,-1,1364,1807,6.763,-37.855
147,-783,6.06201,37.2321,0,0,0,0,0,0,0,-1,1371,1807,6.06205,-37.2321
154,-783,38.2109,17.545,0,0,0,0,0,0,0,-1,1378,1807,38.2109,-17.545
161,-783,39.5087,17.5449,0,0,0,0,0,0,0,-1,1385,1807,39.5087,-17.545
168,-783,8.62561,1.79944,0,0,0,0,0,0,0,-1,1392,1807,8.62561,-1.79946
175,-783,8.78699,3.40857,0,0,0,0,0,0,0,-1,1399,1807,8.78697,-3.40854
182,-783,8.70984,5.14661,0,0,0,0,0,0,0,-1,1406,1807,8.70989,-5.14666
189,-783,8.55762,6.79871,0,0,0,0,0,0,0,-1,1413,1807,8.55766,-6.79872
196,-783,8.25488,8.66626,0,0,0,0,0,0,0,-1,1420,1807,8.25492,-8.66628
203,-783,7.86755,10.5735,0,0,0,0,0,0,0,-1,1427,1807,7.8676,-10.5734
210,-783,5.6969,8.99231,0,0,0,0,0,0,0,-1,1434,1807,5.69693,-8.99234
217,-783,5.28503,3.80872,0,0,0,0,0,0,0,-1,1441,1807,5.285,-3.80868
224,-783,3.22571,6.62903,0,0,0,0,0,0,0,-1,1448,1807,3.2257,-6.62907
231,-783,4.27942,4.56262,0,0,0,0,0,0,0,-1,1455,1807,4.27948,-4.56267
238,-783,0,0,0,0,0,0,0,0,0,-1,1462,1807,0,0
245,-783,0,0,0,0,0,0,0,0,0,-1,1469,1807,0,0
252,-783,0,0,0,0,0,0,0,0,0,-1,1476,1807,0,0
259,-783,0,0,0,0,0,0,0,0,0,-1,1483,1807,0,0
266,-783,0,0,0,0,0,0,0,0,0,-1,1490,1807,0,0
273,-783,0,0,0,0,0,0,0,0,0,-1,1497,1807,0,0
280,-783,0,0,0,0,0,0,0,0,0,-1,1504,1807,0,0
287,-783,0,0,0,0,0,0,0,0,0,-1,1511,1807,0,0
294,-783,0,0,0,0,0,0,0,0,0,-1,1518,1807,0,0
301,-783,0,0,0,0,0,0,0,0,0,-1,1525,1807,0,0
308,-783,0,0,0,0,0,0,0,0,0,-1,1532,1807,0,0
315,-783,0,0,0,0,0,0,0,0,0,-1,1539,1807,0,0
322,-783,0,0,0,0,0,0,0,0,0,-1,1546,1807,0,0
329,-783,0,0,0,0,0,0,0,0,0,-1,1553,1807,0,0
336,-783,0,0,0,0,0,0,0,0,0,-1,1560,1807,0,0
343,-783,0,0,0,0,0,0,0,0,0,-1,1567,1807,0,0
350,-783,0,0,0,0,0,0,0,0,0,-1,1574,1807,0,0
357,-783,0,0,0,0,0,0,0,0,0,-1,1581,1807,0,0
364,-783,0,0,0,0,0,0,0,0,0,-1,1588,1807,0,0
371,-783,0,0,0,0,0,0,0,0,0,-1,1595,1807,0,0
378,-783,0,0,0,0,0,0,0,0,0,-1,1602,1807,0,0
385,-783,0,0,0,0,0,0,0,0,0,-1,1609,1807,0,0
392,-783,0,0,0,0,0,0,0,0,0,-1,1616,1807,0,0
399,-783,0,0,0,0,0,0,0,0,0,-1,1623,1807,0,0
406,-783,0,0,0,0,0,0,0,0,0,-1,1630,1807,0,0
413,-783,0,0,0,0,0,0,0,0,0,-1,1637,1807,0,0
420,-783,0,0,0,0,0,0,0,0,0,-1,1644,1807,0,0
427,-783,0,0,0,0,0,0,0,0,0,-1,1651,1807,0,0
434,-783,0,0,0,0,0,0,0,0,0,-1,1658,1807,0,0
441,-783,0,0,0,0,0,0,0,0,0,-1,1665,1807,0,0
448,-783,0,0,0,0,0,0,0,0,0,-1,1672,1807,0,0
455,-783,0,0,0,0,0,0,0,0,0,-1,1679,1807,0,0
462,-783,0,0,0,0,0,0,0,0,0,-1,1686,1807,0,0
469,-783,0,0,0,0,0,0,0,0,0,-1,1693,1807,0,0
476,-783,0,0,0,0,0,0,0,0,0,-1,1700,1807,0,0
483,-783,0,0,0,0,0,0,0,0,0,-1,1707,1807,0,0
490,-783,0,0,0,0,0,0,0,0,0,-1,1714,1807,0,0
497,-783,0,0,0,0,0,0,0,0,0,-1,1721,1807,0,0
504,-783,0,0,0,0,0,0,0,0,0,-1,1728,1807,0,0
511,-783,0,0,0,0,0,0,0,0,0,-1,1735,1807,0,0
518,-783,0,0,0,0,0,0,0,0,0,-1,1742,1807,0,0
525,-783,0,0,0,0,0,0,0,0,0,-1,1749,1807,0,0
532,-783,0,0,0,0,0,0,0,0,0,-1,1756,1807,0,0
539,-783,0,0,0,0,0,0,0,0,0,-1,1763,1807,0,0
546,-783,0,0,0,0,0,0,0,0,0,-1,1770,1807,0,0
553,-783,0,0,0,0,0,0,0,0,0,-1,1777,1807,0,0
560,-783,0,0,0,0,0,0,0,0,0,-1,1784,1807,0,0
567,-783,0,0,0,0,0,0,0,0,0,-1,1791,1807,0,0
574,-783,0,0,0,0,0,0,0,0,0,-1,1798,1807,0,0
581,-783,0,0,0,0,0,0,0,0,0,-1,1805,1807,0,0
588,-783,0,0,0,0,0,0,0,0,0,-1,1812,1807,0,0
595,-783,0,0,0,0,0,0,0,0,0,-1,1819,1807,0,0
602,-783,0,0,0,0,0,0,0,0,0,-1,1826,1807,0,0
609,-783,0,0,0,0,0,0,0,0,0,-1,1833,1807,0,0
616,-783,0,0,0,0,0,0,0,0,0,-1,1840,1807,0,0
623,-783,0,0,0,0,0,0,0,0,0,-1,1847,1807,0,0
630,-783,0,0,0,0,0,0,0,0,0,-1,1854,1807,0,0
637,-783,0,0,0,0,0,0,0,0,0,-1,1861,1807,0,0
644,-783,0,0,0,0,0,0,0,0,0,-1,1868,1807,0,0
651,-783,0,0,0,0,0,0,0,0,0,-1,1875,1807,0,0
658,-783,0,0,0,0,0,0,0,0,0,-1,1882,1807,0,0
665,-783,0,0,0,0,0,0,0,0,0,-1,1889,1807,0,0
672,-783,0,0,0,0,0,0,0,0,0,-1,1896,1807,0,0
679,-783,0,0,0,0,0,0,0,0,0,-1,1903,1807,0,0
686,-783,0,0,0,0,0,0,0,0,0,-1,1910,1807,0,0
693,-783,0,0,0,0,0,0,0,0,0,-1,1917,1807,0,0
700,-783,0,0,0,0,0,0,0,0,0,-1,1924,1807,0,0
707,-783,0,0,0,0,0,0,0,0,0,-1,1931,1807,0,0
714,-783,0,0,0,0,0,0,0,0,0,-1,1938,1807,0,0
721,-783,0,0,0,0,0,0,0,0,0,-1,1945,1807,0,0
728,-783,0,0,0,0,0,0,0,0,0,-1,1952,1807,0,0
735,-783,0,0,0,0,0,0,0,0,0,-1,1959,1807,0,0
742,-783,0,0,0,0,0,0,0,0,0,-1,1966,1807,0,0
749,-783,0,0,0,0,0,0,0,0,0,-1,1973,1807,0,0
756,-783,0,0,0,0,0,0,0,0,0,-1,1980,1807,0,0
763,-783,0,0,0,0,0,0,0,0,0,-1,1987,1807,0,0
770,-783,0,0,0,0,0,0,0,0,0,-1,1994,1807,0,0
777,-783,0,0,0,0,0,0,0,0,0,-1,2001,1807,0,0
784,-783,0,0,0,0,0,0,0,0,0,-1,2008,1807,0,0
791,-783,0,0,0,0,0,0,0,0,0,-1,2015,1807,0,0
798,-783,0,0,0,0,0,0,0,0,0,-1,2022,1807,0,0
805,-783,0,0,0,0,0,0,0,0,0,-1,2029,1807,0,0
812,-783,0,0,0,0,0,0,0,0,0,-1,2036,1807,0,0
-700,-790,0,0,0,0,0,0,0,0,0,-1,524,1814,0,0
-693,-790,0,0,0,0,0,0,0,0,0,-1,531,1814,0,0
-686,-790,0,0,0,0,0,0,0,0,0,-1,538,1814,0,0
-679,-790,0,0,0,0,0,0,0,0,0,-1,545,1814,0,0
-672,-790,0,0,0,0,0,0,0,0,0,-1,552,1814,0,0
-665,-790,0,0,0,0,0,0,0,0,0,-1,559,1814,0,0
-658,-790,0,0,0,0,0,0,0,0,0,-1,566,1814,0,0
-651,-790,0,0,0,0,0,0,0,0,0,-1,573,1814,0,0
-644,-790,0,0,0,0,0,0,0,0,0,-1,580,1814,0,0
-637,-790,0,0,0,0,0,0,0,0,0,-1,587,1814,0,0
-630,-790,0,0,0,0,0,0,0,0,0,-1,594,1814,0,0
-623,-790,0,0,0,0,0,0,0,0,0,-1,601,1814,0,0
-616,-790,0,0,0,0,0,0,0,0,0,-1,608,1814,0,0
-609,-790,0,0,0,0,0,0,0,0,0,-1,615,1814,0,0
-602,-790,0,0,0,0,0,0,0,0,0,-1,622,1814,0,0
-595,-790,0,0,0,0,0,0,0,0,0,-1,629,1814,0,0
-588,-790,0,0,0,0,0,0,0,0,0,-1,636,1814,0,0
-581,-790,0,0,0,0,0,0,0,0,0,-1,643,1814,0,0
-574,-790,0,0,0,0,0,0,0,0,0,-1,650,1814,0,0
-567,-790,0,0,0,0,0,0,0,0,0,-1,657,1814,0,0
-560,-790,0,0,0,0,0,0,0,0,0,-1,664,1814,0,0
-553,-790,0,0,0,0,0,0,0,0,0,-1,671,1814,0,0
-546,-790,0,0,0,0,0,0,0,0,0,-1,678,1814,0,0
-539,-790,0,0,0,0,0,0,0,0,0,-1,685,1814,0,0
-532,-790,0,0,0,0,0,0,0,0,0,-1,692,1814,0,0
-525,-790,0,0,0,0,0,0,0,0,0,-1,699,1814,0,0
-518,-790,0,0,0,0,0,0,0,0,0,-1,706,1814,0,0
-511,-790,0,0,0,0,0,0,0,0,0,-1,713,1814,0,0
-504,-790,0,0,0,0,0,0,0,0,0,-1,720,1814,0,0
-497,-790,0,0,0,0,0,0,0,0,0,-1,727,1814,0,0
-490,-790,0,0,0,0,0,0,0,0,0,-1,734,1814,0,0
-483,-790,0,0,0,0,0,0,0,0,0,-1,741,1814,0,0
-476,-790,0,0,0,0,0,0,0,0,0,-1,748,1814,0,0
-469,-790,0,0,0,0,0,0,0,0,0,-1,755,1814,0,0
-462,-790,0,0,0,0,0,0,0,0,0,-1,762,1814,0,0
-455,-790,0,0,0,0,0,0,0,0,0,-1,769,1814,0,0
-448,-790,0,0,0,0,0,0,0,0,0,-1,776,1814,0,0
-441,-790,0,0,0,0,0,0,0,0,0,-1,783,1814,0,0
-434,-790,0,0,0,0,0,0,0,0,0,-1,790,1814,0,0
-427,-790,0,0,0,0,0,0,0,0,0,-1,797,1814,0,0
-420,-790,0,0,0,0,0,0,0,0,0,-1,804,1814,0,0
-413,-790,0,0,0,0,0,0,0,0,0,-1,811,1814,0,0
-406,-790,0,0,0,0,0,0,0,0,0,-1,818,1814,0,0
-399,-790,0,0,0,0,0,0,0,0,0,-1,825,1814,0,0
-392,-790,0,0,0,0,0,0,0,0,0,-1,832,1814,0,0
-385,-790,0,0,0,0,0,0,0,0,0,-1,839,1814,0,0
-378,-790,0,0,0,0,0,0,0,0,0,-1,846,1814,0,0
-371,-790,0,0,0,0,0,0,0,0,0,-1,853,1814,0,0
-364,-790,0,0,0,0,0,0,0,0,0,-1,860,1814,0,0
-357,-790,0,0,0,0,0,0,0,0,0,-1,867,1814,0,0
-350,-790,0,0,0,0,0,0,0,0,0,-1,874,1814,0,0
-343,-790,0,0,0,0,0,0,0,0,0,-1,881,1814,0,0
-336,-790,0,0,0,0,0,0,0,0,0,-1,888,1814,0,0
-329,-790,0,0,0,0,0,0,0,0,0,-1,895,1814,0,0
-322,-790,0,0,0,0,0,0,0,0,0,-1,902,1814,0,0
-315,-790,0,0,0,0,0,0,0,0,0,-1,909,1814,0,0
-308,-790,0,0,0,0,0,0,0,0,0,-1,916,1814,0,0
-301,-790,0,0,0,0,0,0,0,0,0,-1,923,1814,0,0
-294,-790,0,0,0,0,0,0,0,0,0,-1,930,1814,0,0
-287,-790,0,0,0,0,0,0,0,0,0,-1,937,1814,0,0
-280,-790,0,0,0,0,0,0,0,0,0,-1,944,1814,0,0
-273,-790,0,0,0,0,0,0,0,0,0,-1,951,1814,0,0
-266,-790,0,0,0,0,0,0,0,0,0,-1,958,1814,0,0
-259,-790,0,0,0,0,0,0,0,0,0,-1,965,1814,0,0
-252,-790,0,0,0,0,0,0,0,0,0,-1,972,1814,0,0
-245,-790,0,0,0,0,0,0,0,0,0,-1,979,1814,0,0
-238,-790,0,0,0,0,0,0,0,0,0,-1,986,1814,0,0
-231,-790,0,0,0,0,0,0,0,0,0,-1,993,1814,0,0
-224,-790,0,0,0,0,0,0,0,0,0,-1,1000,1814,0,0
-217,-790,0,0,0,0,0,0,0,0,0,-1,1007,1814,0,0
-210,-790,0,0,0,0,0,0,0,0,0,-1,1014,1814,0,0
-203,-790,0,0,0,0,0,0,0,0,0,-1,1021,1814,0,0
-196,-790,0,0,0,0,0,0,0,0,0,-1,1028,1814,0,0
-189,-790,0,0,0,0,0,0,0,0,0,-1,1035,1814,0,0
-182,-790,0,0,0,0,0,0,0,0,0,-1,1042,1814,0,0
-175,-790,0,0,0,0,0,0,0,0,0,-1,1049,1814,0,0
-168,-790,0,0,0,0,0,0,0,0,0,-1,1056,1814,0,0
-161,-790,0,0,0,0,0,0,0,0,0,-1,1063,1814,0,0
-154,-790,0,0,0,0,0,0,0,0,0,-1,1070,1814,0,0
-147,-790,0,0,0,0,0,0,0,0,0,-1,1077,1814,0,0
-140,-790,0,0,0,0,0,0,0,0,0,-1,1084,1814,0,0
-133,-790,0,0,0,0,0,0,0,0,0,-1,1091,1814,0,0
-126,-790,0,0,0,0,0,0,0,0,0,-1,1098,1814,0,0
-119,-790,0,0,0,0,0,0,0,0,0,-1,1105,1814,0,0
-112,-790,0,0,0,0,0,0,0,0,0,-1,1112,1814,0,0
-105,-790,0,0,0,0,0,0,0,0,0,-1,1119,1814,0,0
-98,-790,0,0,0,0,0,0,0,0,0,-1,1126,1814,0,0
-91,-790,0,0,0,0,0,0,0,0,0,-1,1133,1814,0,0
-84,-790,0,0,0,0,0,0,0,0,0,-1,1140,1814,0,0
-77,-790,-0.969238,5.30847,0,0,0,0,0,0,0,-1,1147,1814,-0.969277,-5.3085
-70,-790,-1.23169,4.98914,0,0,0,0,0,0,0,-1,1154,1814,-1.23163,-4.98916
-63,-790,-1.69128,4.32263,0,0,0,0,0,0,0,-1,1161,1814,-1.69128,-4.32258
-56,-790,-2.24756,3.75305,0,0,0,0,0,0,0,-1,1168,1814,-2.24758,-3.75302
-49,-790,-3.11011,3.35779,0,0,0,0,0,0,0,-1,1175,1814,-3.11006,-3.35781
-42,-790,0.593262,1.19165,0,0,0,0,0,0,0,-1,1182,1814,0.593225,-1.19165
-35,-790,0.307129,-0.20105,0,0,0,0,0,0,0,-1,1189,1814,0.307178,0.201006
-28,-790,-2.78467,0.785156,0,0,0,0,0,0,0,-1,1196,1814,-2.78471,-0.785183
-21,-790,12.1554,36.9773,0,0,0,0,0,0,0,-1,1203,1814,12.1553,-36.9773
-14,-790,11.3674,36.8364,-0.0684983,-0.00606175,-0.0174821,-0.00150006,-0.07306,-1.31555,0.0482144,0.0456297,1210,1814,11.3675,-36.8365
-7,-790,10.4904,36.6935,-0.0482257,-0.00915067,-0.0186947,-0.00164738,-0.055729,-1.18912,0.0366159,0.0468721,1217,1814,10.4904,-36.6935
0,-790,9.56213,36.5033,0,0,0,0,0,0,0,-1,1224,1814,9.56216,-36.5033
7,-790,8.86853,36.3285,-0.0154393,-0.00230515,-0.0189611,0.0111939,-0.0289384,-0.952105,0.0239134,0.0446151,1231,1814,8.86851,-36.3285
14,-790,8.85913,36.4479,-0.00522161,0.00382154,-0.0194895,0.0193071,-0.0207072,-0.899382,0.023107,0.0421658,1238,1814,8.85916,-36.4478
21,-790,9.39941,36.7015,0.00252661,0.00957146,-0.0195379,0.0259019,-0.0138039,-0.874583,0.0232762,0.0438564,1245,1814,9.39938,-36.7016
28,-790,10.0582,36.7883,0,0,0,0,0,0,0,-1,1252,1814,10.0583,-36.7884
35,-790,9.66321,34.9674,0,0,0,0,0,0,0,-1,1259,1814,9.66326,-34.9674
42,-790,9.45288,34.5859,0,0,0,0,0,0,0,-1,1266,1814,9.45291,-34.5859
49,-790,9.3573,34.9265,0,0,0,0,0,0,0,-1,1273,1814,9.35724,-34.9265
56,-790,9.21533,34.9935,0,0,0,0,0,0,0,-1,1280,1814,9.21537,-34.9936
63,-790,9.10437,35.2045,0,0,0,0,0,0,0,-1,1287,1814,9.10438,-35.2044
70,-790,8.94495,35.266,-0.0302301,0.0315051,-0.0123946,0.0339006,-0.0326256,-1.37988,0.0384113,0.0446403,1294,1814,8.94491,-35.266
77,-790,8.90759,35.2507,-0.037237,0.0317366,-0.0100999,0.0331852,-0.0386855,-1.42835,0.041535,0.0454331,1301,1814,8.90753,-35.2507
84,-790,8.31726,35.1266,-0.0418747,0.0318188,-0.00755355,0.0325851,-0.042641,-1.4697,0.0435609,0.0435636,1308,1814,8.31722,-35.1266
91,-790,7.396,34.8622,-0.0467464,0.0309232,-0.00424862,0.0311549,-0.0469781,-1.51631,0.0454174,0.0449926,1315,1814,7.39596,-34.8622
98,-790,7.13464,34.9209,-0.0486213,0.0315817,-0.00226168,0.0316454,-0.048685,-1.54263,0.0467253,0.045778,1322,1814,7.13461,-34.9209
105,-790,7.2749,35.5222,0,0,0,0,0,0,0,-1,1329,1814,7.27488,-35.5222
112,-790,7.06995,34.7994,0,0,0,0,0,0,0,-1,1336,1814,7.06997,-34.7994
119,-790,6.4032,34.5874,0,0,0,0,0,0,0,-1,1343,1814,6.40322,-34.5874
126,-790,5.23706,34.4476,-0.0362813,0.0439808,0.00527168,0.0443255,-0.0366261,1.50549,0.0468078,0.046883,1350,1814,5.23705,-34.4477
133,-790,5.23816,33.7697,-0.0252876,0.0480928,0.00697951,0.0487508,-0.0259455,1.47681,0.0437908,0.0494019,1357,1814,5.23815,-33.7697
140,-790,5.58142,33.1071,0,0,0,0,0,0,0,-1,1364,1814,5.58139,-33.107
147,-790,6.26111,38.0739,0,0,0,0,0,0,0,-1,1371,1814,6.26106,-38.0739
154,-790,40.215,13.2396,0,0,0,0,0,0,0,-1,1378,1814,40.2149,-13.2396
161,-790,39.3429,13.0336,0,0,0,0,0,0,0,-1,1385,1814,39.3429,-13.0336
168,-790,7.04077,2.23279,0,0,0,0,0,0,0,-1,1392,1814,7.04082,-2.23275
175,-790,9.03918,3.98535,0,0,0,0,0,0,0,-1,1399,1814,9.0392,-3.98535
182,-790,8.96997,5.67896,0,0,0,0,0,0,0,-1,1406,1814,8.97001,-5.6789
189,-790,8.59729,6.86975,0,0,0,0,0,0,0,-1,1413,1814,8.59728,-6.86972
196,-790,8.21924,9.29053,0,0,0,0,0,0,0,-1,1420,1814,8.21924,-9.29048
203,-790,0,0,0,0,0,0,0,0,0,-1,1427,1814,0,0
210,-790,0,0,0,0,0,0,0,0,0,-1,1434,1814,0,0
217,-790,0,0,0,0,0,0,0,0,0,-1,1441,1814,0,0
224,-790,0,0,0,0,0,0,0,0,0,-1,1448,1814,0,0
231,-790,0,0,0,0,0,0,0,0,0,-1,1455,1814,0,0
238,-790,0,0,0,0,0,0,0,0,0,-1,1462,1814,0,0
245,-790,0,0,0,0,0,0,0,0,0,-1,1469,1814,0,0
252,-790,0,0,0,0,0,0,0,0,0,-1,1476,1814,0,0
259,-790,0,0,0,0,0,0,0,0,0,-1,1483,1814,0,0
266,-790,0,0,0,0,0,0,0,0,0,-1,1490,1814,0,0
273,-790,0,0,0,0,0,0,0,0,0,-1,1497,1814,0,0
280,-790,0,0,0,0,0,0,0,0,0,-1,1504,1814,0,0
287,-790,0,0,0,0,0,0,0,0,0,-1,1511,1814,0,0
294,-790,0,0,0,0,0,0,0,0,0,-1,1518,1814,0,0
301,-790,0,0,0,0,0,0,0,0,0,-1,1525,1814,0,0
308,-790,0,0,0,0,0,0,0,0,0,-1,1532,1814,0,0
315,-790,0,0,0,0,0,0,0,0,0,-1,1539,1814,0,0
322,-790,0,0,0,0,0,0,0,0,0,-1,1546,1814,0,0
329,-790,0,0,0,0,0,0,0,0,0,-1,1553,1814,0,0
336,-790,0,0,0,0,0,0,0,0,0,-1,1560,1814,0,0
343,-790,0,0,0,0,0,0,0,0,0,-1,1567,1814,0,0
350,-790,0,0,0,0,0,0,0,0,0,-1,1574,1814,0,0
357,-790,0,0,0,0,0,0,0,0,0,-1,1581,1814,0,0
364,-790,0,0,0,0,0,0,0,0,0,-1,1588,1814,0,0
371,-790,0,0,0,0,0,0,0,0,0,-1,1595,1814,0,0
378,-790,0,0,0,0,0,0,0,0,0,-1,1602,1814,0,0
385,-790,0,0,0,0,0,0,0,0,0,-1,1609,1814,0,0
392,-790,0,0,0,0,0,0,0,0,0,-1,1616,1814,0,0
399,-790,0,0,0,0,0,0,0,0,0,-1,1623,1814,0,0
406,-790,0,0,0,0,0,0,0,0,0,-1,1630,1814,0,0
413,-790,0,0,0,0,0,0,0,0,0,-1,1637,1814,0,0
420,-790,0,0,0,0,0,0,0,0,0,-1,1644,1814,0,0
427,-790,0,0,0,0,0,0,0,0,0,-1,1651,1814,0,0
434,-790,0,0,0,0,0,0,0,0,0,-1,1658,1814,0,0
441,-790,0,0,0,0,0,0,0,0,0,-1,1665,1814,0,0
448,-790,0,0,0,0,0,0,0,0,0,-1,1672,1814,0,0
455,-790,0,0,0,0,0,0,0,0,0,-1,1679,1814,0,0
462,-790,0,0,0,0,0,0,0,0,0,-1,1686,1814,0,0
469,-790,0,0,0,0,0,0,0,0,0,-1,1693,1814,0,0
476,-790,0,0,0,0,0,0,0,0,0,-1,1700,1814,0,0
483,-790,0,0,0,0,0,0,0,0,0,-1,1707,1814,0,0
490,-790,0,0,0,0,0,0,0,0,0,-1,1714,1814,0,0
497,-790,0,0,0,0,0,0,0,0,0,-1,1721,1814,0,0
504,-790,0,0,0,0,0,0,0,0,0,-1,1728,1814,0,0
511,-790,0,0,0,0,0,0,0,0,0,-1,1735,1814,0,0
518,-790,0,0,0,0,0,0,0,0,0,-1,1742,1814,0,0
525,-790,0,0,0,0,0,0,0,0,0,-1,1749,1814,0,0
532,-790,0,0,0,0,0,0,0,0,0,-1,1756,1814,0,0
539,-790,0,0,0,0,0,0,0,0,0,-1,1763,1814,0,0
546,-790,0,0,0,0,0,0,0,0,0,-1,1770,1814,0,0
553,-790,0,0,0,0,0,0,0,0,0,-1,1777,1814,0,0
560,-790,0,0,0,0,0,0,0,0,0,-1,1784,1814,0,0
567,-790,0,0,0,0,0,0,0,0,0,-1,1791,1814,0,0
574,-790,0,0,0,0,0,0,0,0,0,-1,1798,1814,0,0
581,-790,0,0,0,0,0,0,0,0,0,-1,1805,1814,0,0
588,-790,0,0,0,0,0,0,0,0,0,-1,1812,1814,0,0
595,-790,0,0,0,0,0,0,0,0,0,-1,1819,1814,0,0
602,-790,0,0,0,0,0,0,0,0,0,-1,1826,1814,0,0
609,-790,0,0,0,0,0,0,0,0,0,-1,1833,1814,0,0
616,-790,0,0,0,0,0,0,0,0,0,-1,1840,1814,0,0
623,-790,0,0,0,0,0,0,0,0,0,-1,1847,1814,0,0
630,-790,0,0,0,0,0,0,0,0,0,-1,1854,1814,0,0
637,-790,0,0,0,0,0,0,0,0,0,-1,1861,1814,0,0
644,-790,0,0,0,0,0,0,0,0,0,-1,1868,1814,0,0
651,-790,0,0,0,0,0,0,0,0,0,-1,1875,1814,0,0
658,-790,0,0,0,0,0,0,0,0,0,-1,1882,1814,0,0
665,-790,0,0,0,0,0,0,0,0,0,-1,1889,1814,0,0
672,-790,0,0,0,0,0,0,0,0,0,-1,1896,1814,0,0
679,-790,0,0,0,0,0,0,0,0,0,-1,1903,1814,0,0
686,-790,0,0,0,0,0,0,0,0,0,-1,1910,1814,0,0
693,-790,0,0,0,0,0,0,0,0,0,-1,1917,1814,0,0
700,-790,0,0,0,0,0,0,0,0,0,-1,1924,1814,0,0
707,-790,0,0,0,0,0,0,0,0,0,-1,1931,1814,0,0
714,-790,0,0,0,0,0,0,0,0,0,-1,1938,1814,0,0
721,-790,0,0,0,0,0,0,0,0,0,-1,1945,1814,0,0
728,-790,0,0,0,0,0,0,0,0,0,-1,1952,1814,0,0
735,-790,0,0,0,0,0,0,0,0,0,-1,1959,1814,0,0
742,-790,0,0,0,0,0,0,0,0,0,-1,1966,1814,0,0
749,-790,0,0,0,0,0,0,0,0,0,-1,1973,1814,0,0
756,-790,0,0,0,0,0,0,0,0,0,-1,1980,1814,0,0
763,-790,0,0,0,0,0,0,0,0,0,-1,1987,1814,0,0
770,-790,0,0,0,0,0,0,0,0,0,-1,1994,1814,0,0
777,-790,0,0,0,0,0,0,0,0,0,-1,2001,1814,0,0
784,-790,0,0,0,0,0,0,0,0,0,-1,2008,1814,0,0
791,-790,0,0,0,0,0,0,0,0,0,-1,2015,1814,0,0
798,-790,0,0,0,0,0,0,0,0,0,-1,2022,1814,0,0
805,-790,0,0,0,0,0,0,0,0,0,-1,2029,1814,0,0
812,-790,0,0,0,0,0,0,0,0,0,-1,2036,1814,0,0
-700,-797,0,0,0,0,0,0,0,0,0,-1,524,1821,0,0
-693,-797,0,0,0,0,0,0,0,0,0,-1,531,1821,0,0
-686,-797,0,0,0,0,0,0,0,0,0,-1,538,1821,0,0
-679,-797,0,0,0,0,0,0,0,0,0,-1,545,1821,0,0
-672,-797,0,0,0,0,0,0,0,0,0,-1,552,1821,0,0
-665,-797,0,0,0,0,0,0,0,0,0,-1,559,1821,0,0
-658,-797,0,0,0,0,0,0,0,0,0,-1,566,1821,0,0
-651,-797,0,0,0,0,0,0,0,0,0,-1,573,1821,0,0
-644,-797,0,0,0,0,0,0,0,0,0,-1,580,1821,0,0
-637,-797,0,0,0,0,0,0,0,0,0,-1,587,1821,0,0
-630,-797,0,0,0,0,0,0,0,0,0,-1,594,1821,0,0
-623,-797,0,0,0,0,0,0,0,0,0,-1,601,1821,0,0
-616,-797,0,0,0,0,0,0,0,0,0,-1,608,1821,0,0
-609,-797,0,0,0,0,0,0,0,0,0,-1,615,1821,0,0
-602,-797,0,0,0,0,0,0,0,0,0,-1,622,1821,0,0
-595,-797,0,0,0,0,0,0,0,0,0,-1,629,1821,0,0
-588,-797,0,0,0,0,0,0,0,0,0,-1,636,1821,0,0
-581,-797,0,0,0,0,0,0,0,0,0,-1,643,1821,0,0
-574,-797,0,0,0,0,0,0,0,0,0,-1,650,1821,0,0
-567,-797,0,0,0,0,0,0,0,0,0,-1,657,1821,0,0
-560,-797,0,0,0,0,0,0,0,0,0,-1,664,1821,0,0
-553,-797,0,0,0,0,0,0,0,0,0,-1,671,1821,0,0
-546,-797,0,0,0,0,0,0,0,0,0,-1,678,1821,0,0
-539,-797,0,0,0,0,0,0,0,0,0,-1,685,1821,0,0
-532,-797,0,0,0,0,0,0,0,0,0,-1,692,1821,0,0
-525,-797,0,0,0,0,0,0,0,0,0,-1,699,1821,0,0
-518,-797,0,0,0,0,0,0,0,0,0,-1,706,1821,0,0
-511,-797,0,0,0,0,0,0,0,0,0,-1,713,1821,0,0
-504,-797,0,0,0,0,0,0,0,0,0,-1,720,1821,0,0
-497,-797,0,0,0,0,0,0,0,0,0,-1,727,1821,0,0
-490,-797,0,0,0,0,0,0,0,0,0,-1,734,1821,0,0
-483,-797,0,0,0,0,0,0,0,0,0,-1,741,1821,0,0
-476,-797,0,0,0,0,0,0,0,0,0,-1,748,1821,0,0
-469,-797,0,0,0,0,0,0,0,0,0,-1,755,1821,0,0
-462,-797,0,0,0,0,0,0,0,0,0,-1,762,1821,0,0
-455,-797,0,0,0,0,0,0,0,0,0,-1,769,1821,0,0
-448,-797,0,0,0,0,0,0,0,0,0,-1,776,1821,0,0
-441,-797,0,0,0,0,0,0,0,0,0,-1,783,1821,0,0
-434,-797,0,0,0,0,0,0,0,0,0,-1,790,1821,0,0
-427,-797,0,0,0,0,0,0,0,0,0,-1,797,1821,0,0
-420,-797,0,0,0,0,0,0,0,0,0,-1,804,1821,0,0
-413,-797,0,0,0,0,0,0,0,0,0,-1,811,1821,0,0
-406,-797,0,0,0,0,0,0,0,0,0,-1,818,1821,0,0
-399,-797,0,0,0,0,0,0,0,0,0,-1,825,1821,0,0
-392,-797,0,0,0,0,0,0,0,0,0,-1,832,1821,0,0
-385,-797,0,0,0,0,0,0,0,0,0,-1,839,1821,0,0
-378,-797,0,0,0,0,0,0,0,0,0,-1,846,1821,0,0
-371,-797,0,0,0,0,0,0,0,0,0,-1,853,1821,0,0
-364,-797,0,0,0,0,0,0,0,0,0,-1,860,1821,0,0
-357,-797,0,0,0,0,0,0,0,0,0,-1,867,1821,0,0
-350,-797,0,0,0,0,0,0,0,0,0,-1,874,1821,0,0
-343,-797,0,0,0,0,0,0,0,0,0,-1,881,1821,0,0
-336,-797,0,0,0,0,0,0,0,0,0,-1,888,1821,0,0
-329,-797,0,0,0,0,0,0,0,0,0,-1,895,1821,0,0
-322,-797,0,0,0,0,0,0,0,0,0,-1,902,1821,0,0
-315,-797,0,0,0,0,0,0,0,0,0,-1,909,1821,0,0
-308,-797,0,0,0,0,0,0,0,0,0,-1,916,1821,0,0
-301,-797,0,0,0,0,0,0,0,0,0,-1,923,1821,0,0
-294,-797,0,0,0,0,0,0,0,0,0,-1,930,1821,0,0
-287,-797,0,0,0,0,0,0,0,0,0,-1,937,1821,0,0
-280,-797,0,0,0,0,0,0,0,0,0,-1,944,1821,0,0
-273,-797,0,0,0,0,0,0,0,0,0,-1,951,1821,0,0
-266,-797,0,0,0,0,0,0,0,0,0,-1,958,1821,0,0
-259,-797,0,0,0,0,0,0,0,0,0,-1,965,1821,0,0
-252,-797,0,0,0,0,0,0,0,0,0,-1,972,1821,0,0
-245,-797,0,0,0,0,0,0,0,0,0,-1,979,1821,0,0
-238,-797,0,0,0,0,0,0,0,0,0,-1,986,1821,0,0
-231,-797,0,0,0,0,0,0,0,0,0,-1,993,1821,0,0
-224,-797,0,0,0,0,0,0,0,0,0,-1,1000,1821,0,0
-217,-797,0,0,0,0,0,0,0,0,0,-1,1007,1821,0,0
-210,-797,0,0,0,0,0,0,0,0,0,-1,1014,1821,0,0
-203,-797,0,0,0,0,0,0,0,0,0,-1,1021,1821,0,0
-196,-797,0,0,0,0,0,0,0,0,0,-1,1028,1821,0,0
-189,-797,0,0,0,0,0,0,0,0,0,-1,1035,1821,0,0
-182,-797,0,0,0,0,0,0,0,0,0,-1,1042,1821,0,0
-175,-797,0,0,0,0,0,0,0,0,0,-1,1049,1821,0,0
-168,-797,0,0,0,0,0,0,0,0,0,-1,1056,1821,0,0
-161,-797,0,0,0,0,0,0,0,0,0,-1,1063,1821,0,0
-154,-797,0,0,0,0,0,0,0,0,0,-1,1070,1821,0,0
-147,-797,0,0,0,0,0,0,0,0,0,-1,1077,1821,0,0
-140,-797,0,0,0,0,0,0,0,0,0,-1,1084,1821,0,0
-133,-797,0,0,0,0,0,0,0,0,0,-1,1091,1821,0,0
-126,-797,0,0,0,0,0,0,0,0,0,-1,1098,1821,0,0
-119,-797,0,0,0,0,0,0,0,0,0,-1,1105,1821,0,0
-112,-797,0,0,0,0,0,0,0,0,0,-1,1112,1821,0,0
-105,-797,0,0,0,0,0,0,0,0,0,-1,1119,1821,0,0
-98,-797,0,0,0,0,0,0,0,0,0,-1,1126,1821,0,0
-91,-797,0,0,0,0,0,0,0,0,0,-1,1133,1821,0,0
-84,-797,0,0,0,0,0,0,0,0,0,-1,1140,1821,0,0
-77,-797,0,0,0,0,0,0,0,0,0,-1,1147,1821,0,0
-70,-797,0,0,0,0,0,0,0,0,0,-1,1154,1821,0,0
-63,-797,0,0,0,0,0,0,0,0,0,-1,1161,1821,0,0
-56,-797,0,0,0,0,0,0,0,0,0,-1,1168,1821,0,0
-49,-797,0,0,0,0,0,0,0,0,0,-1,1175,1821,0,0
-42,-797,0.579834,0.692871,0,0,0,0,0,0,0,-1,1182,1821,0.579856,-0.692816
-35,-797,-0.185425,5.55396,0,0,0,0,0,0,0,-1,1189,1821,-0.18542,-5.55396
-28,-797,-0.310181,4.71509,0,0,0,0,0,0,0,-1,1196,1821,-0.310228,-4.71503
-21,-797,6.22522,29.062,0,0,0,0,0,0,0,-1,1203,1821,6.22523,-29.062
-14,-797,11.6418,36.8258,0,0,0,0,0,0,0,-1,1210,1821,11.6418,-36.8258
-7,-797,10.775,36.7013,0,0,0,0,0,0,0,-1,1217,1821,10.775,-36.7013
0,-797,9.78894,36.5521,0,0,0,0,0,0,0,-1,1224,1821,9.789,-36.5521
7,-797,9.07898,36.3429,-0.0145266,-3.07242e-06,-0.0198739,0.0138942,-0.0284239,-0.960559,0.0249078,0.048552,1231,1821,9.07893,-36.3429
14,-797,9.01758,36.4427,-0.00200242,0.0076815,-0.0199959,0.0234133,-0.0177342,-0.904186,0.0238318,0.0448794,1238,1821,9.01753,-36.4427
21,-797,9.53284,36.6711,0.00739784,0.0139432,-0.0196945,0.0306351,-0.00929408,-0.867732,0.0241257,0.0467339,1245,1821,9.53281,-36.6711
28,-797,10.0959,36.8739,0,0,0,0,0,0,0,-1,1252,1821,10.096,-36.8739
35,-797,10.7008,37.1576,0,0,0,0,0,0,0,-1,1259,1821,10.7008,-37.1576
42,-797,9.39417,33.827,0,0,0,0,0,0,0,-1,1266,1821,9.39418,-33.8271
49,-797,9.04041,34.2976,-0.00623302,0.0326779,-0.016626,0.0388142,-0.0123693,-1.21723,0.0308375,0.0457817,1273,1821,9.04041,-34.2976
56,-797,9.2417,34.7214,-0.0157622,0.034435,-0.015129,0.0386421,-0.0199694,-1.29957,0.034407,0.0453138,1280,1821,9.24173,-34.7214
63,-797,8.88818,35.2247,0,0,0,0,0,0,0,-1,1287,1821,8.88822,-35.2248
70,-797,9.22278,35.0869,-0.0357932,0.036491,-0.0124152,0.0385639,-0.0378661,-1.40535,0.0441275,0.0442124,1294,1821,9.22276,-35.087
77,-797,9.28198,35.0956,-0.0447132,0.0363039,-0.0100317,0.0375276,-0.0459369,-1.44942,0.0482697,0.0424067,1301,1821,9.28195,-35.0955
84,-797,8.27222,35.1198,-0.0502732,0.0360676,-0.00716314,0.0366579,-0.0508634,-1.48858,0.0507518,0.0461662,1308,1821,8.2722,-35.1198
91,-797,7.24805,35.1398,-0.0554751,0.0351844,-0.00365062,0.0353312,-0.0556219,-1.53062,0.0529456,0.047709,1315,1821,7.24801,-35.1397
98,-797,6.57458,34.7002,-0.0571072,0.0363292,-0.00116496,0.0363437,-0.0571218,-1.55833,0.054405,0.0434203,1322,1821,6.5746,-34.7002
105,-797,6.67151,34.9493,0,0,0,0,0,0,0,-1,1329,1821,6.67154,-34.9494
112,-797,6.75488,35.1956,0,0,0,0,0,0,0,-1,1336,1821,6.75487,-35.1956
119,-797,4.18665,34.9121,0,0,0,0,0,0,0,-1,1343,1821,4.18667,-34.9121
126,-797,4.35461,34.1233,-0.0386947,0.0519947,0.00818653,0.0527278,-0.0394278,1.48149,0.0533904,0.0451234,1350,1821,4.3546,-34.1232
133,-797,4.39465,33.2891,-0.0239868,0.0570935,0.0102846,0.0583777,-0.025271,1.44657,0.0495394,0.0474591,1357,1821,4.39466,-33.2891
140,-797,4.70667,32.4554,0,0,0,0,0,0,0,-1,1364,1821,4.70672,-32.4555
147,-797,5.18835,31.4509,0,0,0,0,0,0,0,-1,1371,1821,5.18832,-31.451
154,-797,40.2623,8.88733,0,0,0,0,0,0,0,-1,1378,1821,40.2623,-8.88731
161,-797,42.2798,8.17371,0,0,0,0,0,0,0,-1,1385,1821,42.2798,-8.17367
168,-797,0,0,0,0,0,0,0,0,0,-1,1392,1821,0,0
175,-797,0,0,0,0,0,0,0,0,0,-1,1399,1821,0,0
182,-797,0,0,0,0,0,0,0,0,0,-1,1406,1821,0,0
189,-797,0,0,0,0,0,0,0,0,0,-1,1413,1821,0,0
196,-797,0,0,0,0,0,0,0,0,0,-1,1420,1821,0,0
203,-797,0,0,0,0,0,0,0,0,0,-1,1427,1821,0,0
210,-797,0,0,0,0,0,0,0,0,0,-1,1434,1821,0,0
217,-797,0,0,0,0,0,0,0,0,0,-1,1441,1821,0,0
224,-797,0,0,0,0,0,0,0,0,0,-1,1448,1821,0,0
231,-797,0,0,0,0,0,0,0,0,0,-1,1455,1821,0,0
238,-797,0,0,0,0,0,0,0,0,0,-1,1462,1821,0,0
245,-797,0,0,0,0,0,0,0,0,0,-1,1469,1821,0,0
252,-797,0,0,0,0,0,0,0,0,0,-1,1476,1821,0,0
259,-797,0,0,0,0,0,0,0,0,0,-1,1483,1821,0,0
266,-797,0,0,0,0,0,0,0,0,0,-1,1490,1821,0,0
273,-797,0,0,0,0,0,0,0,0,0,-1,1497,1821,0,0
280,-797,0,0,0,0,0,0,0,0,0,-1,1504,1821,0,0
287,-797,0,0,0,0,0,0,0,0,0,-1,1511,1821,0,0
294,-797,0,0,0,0,0,0,0,0,0,-1,1518,1821,0,0
301,-797,0,0,0,0,0,0,0,0,0,-1,1525,1821,0,0
308,-797,0,0,0,0,0,0,0,0,0,-1,1532,1821,0,0
315,-797,0,0,0,0,0,0,0,0,0,-1,1539,1821,0,0
322,-797,0,0,0,0,0,0,0,0,0,-1,1546,1821,0,0
329,-797,0,0,0,0,0,0,0,0,0,-1,1553,1821,0,0
336,-797,0,0,0,0,0,0,0,0,0,-1,1560,1821,0,0
343,-797,0,0,0,0,0,0,0,0,0,-1,1567,1821,0,0
350,-797,0,0,0,0,0,0,0,0,0,-1,1574,1821,0,0
357,-797,0,0,0,0,0,0,0,0,0,-1,1581,1821,0,0
364,-797,0,0,0,0,0,0,0,0,0,-1,1588,1821,0,0
371,-797,0,0,0,0,0,0,0,0,0,-1,1595,1821,0,0
378,-797,0,0,0,0,0,0,0,0,0,-1,1602,1821,0,0
385,-797,0,0,0,0,0,0,0,0,0,-1,1609,1821,0,0
392,-797,0,0,0,0,0,0,0,0,0,-1,1616,1821,0,0
399,-797,0,0,0,0,0,0,0,0,0,-1,1623,1821,0,0
406,-797,0,0,0,0,0,0,0,0,0,-1,1630,1821,0,0
413,-797,0,0,0,0,0,0,0,0,0,-1,1637,1821,0,0
420,-797,0,0,0,0,0,0,0,0,0,-1,1644,1821,0,0
427,-797,0,0,0,0,0,0,0,0,0,-1,1651,1821,0,0
434,-797,0,0,0,0,0,0,0,0,0,-1,1658,1821,0,0
441,-797,0,0,0,0,0,0,0,0,0,-1,1665,1821,0,0
448,-797,0,0,0,0,0,0,0,0,0,-1,1672,1821,0,0
455,-797,0,0,0,0,0,0,0,0,0,-1,1679,1821,0,0
462,-797,0,0,0,0,0,0,0,0,0,-1,1686,1821,0,0
469,-797,0,0,0,0,0,0,0,0,0,-1,1693,1821,0,0
476,-797,0,0,0,0,0,0,0,0,0,-1,1700,1821,0,0
483,-797,0,0,0,0,0,0,0,0,0,-1,1707,1821,0,0
490,-797,0,0,0,0,0,0,0,0,0,-1,1714,1821,0,0
497,-797,0,0,0,0,0,0,0,0,0,-1,1721,1821,0,0
504,-797,0,0,0,0,0,0,0,0,0,-1,1728,1821,0,0
511,-797,0,0,0,0,0,0,0,0,0,-1,1735,1821,0,0
518,-797,0,0,0,0,0,0,0,0,0,-1,1742,1821,0,0
525,-797,0,0,0,0,0,0,0,0,0,-1,1749,1821,0,0
532,-797,0,0,0,0,0,0,0,0,0,-1,1756,1821,0,0
539,-797,0,0,0,0,0,0,0,0,0,-1,1763,1821,0,0
546,-797,0,0,0,0,0,0,0,0,0,-1,1770,1821,0,0
553,-797,0,0,0,0,0,0,0,0,0,-1,1777,1821,0,0
560,-797,0,0,0,0,0,0,0,0,0,-1,1784,1821,0,0
567,-797,0,0,0,0,0,0,0,0,0,-1,1791,1821,0,0
574,-797,0,0,0,0,0,0,0,0,0,-1,1798,1821,0,0
581,-797,0,0,0,0,0,0,0,0,0,-1,1805,1821,0,0
588,-797,0,0,0,0,0,0,0,0,0,-1,1812,1821,0,0
595,-797,0,0,0,0,0,0,0,0,0,-1,1819,1821,0,0
602,-797,0,0,0,0,0,0,0,0,0,-1,1826,1821,0,0
609,-797,0,0,0,0,0,0,0,0,0,-1,1833,1821,0,0
616,-797,0,0,0,0,0,0,0,0,0,-1,1840,1821,0,0
623,-797,0,0,0,0,0,0,0,0,0,-1,1847,1821,0,0
630,-797,0,0,0,0,0,0,0,0,0,-1,1854,1821,0,0
637,-797,0,0,0,0,0,0,0,0,0,-1,1861,1821,0,0
644,-797,0,0,0,0,0,0,0,0,0,-1,1868,1821,0,0
651,-797,0,0,0,0,0,0,0,0,0,-1,1875,1821,0,0
658,-797,0,0,0,0,0,0,0,0,0,-1,1882,1821,0,0
665,-797,0,0,0,0,0,0,0,0,0,-1,1889,1821,0,0
672,-797,0,0,0,0,0,0,0,0,0,-1,1896,1821,0,0
679,-797,0,0,0,0,0,0,0,0,0,-1,1903,1821,0,0
686,-797,0,0,0,0,0,0,0,0,0,-1,1910,1821,0,0
693,-797,0,0,0,0,0,0,0,0,0,-1,1917,1821,0,0
700,-797,0,0,0,0,0,0,0,0,0,-1,1924,1821,0,0
707,-797,0,0,0,0,0,0,0,0,0,-1,1931,1821,0,0
714,-797,0,0,0,0,0,0,0,0,0,-1,1938,1821,0,0
721,-797,0,0,0,0,0,0,0,0,0,-1,1945,1821,0,0
728,-797,0,0,0,0,0,0,0,0,0,-1,1952,1821,0,0
735,-797,0,0,0,0,0,0,0,0,0,-1,1959,1821,0,0
742,-797,0,0,0,0,0,0,0,0,0,-1,1966,1821,0,0
749,-797,0,0,0,0,0,0,0,0,0,-1,1973,1821,0,0
756,-797,0,0,0,0,0,0,0,0,0,-1,1980,1821,0,0
763,-797,0,0,0,0,0,0,0,0,0,-1,1987,1821,0,0
770,-797,0,0,0,0,0,0,0,0,0,-1,1994,1821,0,0
777,-797,0,0,0,0,0,0,0,0,0,-1,2001,1821,0,0
784,-797,0,0,0,0,0,0,0,0,0,-1,2008,1821,0,0
791,-797,0,0,0,0,0,0,0,0,0,-1,2015,1821,0,0
798,-797,0,0,0,0,0,0,0,0,0,-1,2022,1821,0,0
805,-797,0,0,0,0,0,0,0,0,0,-1,2029,1821,0,0
812,-797,0,0,0,0,0,0,0,0,0,-1,2036,1821,0,0
-700,-804,0,0,0,0,0,0,0,0,0,-1,524,1828,0,0
-693,-804,0,0,0,0,0,0,0,0,0,-1,531,1828,0,0
-686,-804,0,0,0,0,0,0,0,0,0,-1,538,1828,0,0
-679,-804,0,0,0,0,0,0,0,0,0,-1,545,1828,0,0
-672,-804,0,0,0,0,0,0,0,0,0,-1,552,1828,0,0
-665,-804,0,0,0,0,0,0,0,0,0,-1,559,1828,0,0
-658,-804,0,0,0,0,0,0,0,0,0,-1,566,1828,0,0
-651,-804,0,0,0,0,0,0,0,0,0,-1,573,1828,0,0
-644,-804,0,0,0,0,0,0,0,0,0,-1,580,1828,0,0
-637,-804,0,0,0,0,0,0,0,0,0,-1,587,1828,0,0
-630,-804,0,0,0,0,0,0,0,0,0,-1,594,1828,0,0
-623,-804,0,0,0,0,0,0,0,0,0,-1,601,1828,0,0
-616,-804,0,0,0,0,0,0,0,0,0,-1,608,1828,0,0
-609,-804,0,0,0,0,0,0,0,0,0,-1,615,1828,0,0
-602,-804,0,0,0,0,0,0,0,0,0,-1,622,1828,0,0
-595,-804,0,0,0,0,0,0,0,0,0,-1,629,1828,0,0
-588,-804,0,0,0,0,0,0,0,0,0,-1,636,1828,0,0
-581,-804,0,0,0,0,0,0,0,0,0,-1,643,1828,0,0
-574,-804,0,0,0,0,0,0,0,0,0,-1,650,1828,0,0
-567,-804,0,0,0,0,0,0,0,0,0,-1,657,1828,0,0
-560,-804,0,0,0,0,0,0,0,0,0,-1,664,1828,0,0
-553,-804,0,0,0,0,0,0,0,0,0,-1,671,1828,0,0
-546,-804,0,0,0,0,0,0,0,0,0,-1,678,1828,0,0
-539,-804,0,0,0,0,0,0,0,0,0,-1,685,1828,0,0
-532,-804,0,0,0,0,0,0,0,0,0,-1,692,1828,0,0
-525,-804,0,0,0,0,0,0,0,0,0,-1,699,1828,0,0
-518,-804,0,0,0,0,0,0,0,0,0,-1,706,1828,0,0
-511,-804,0,0,0,0,0,0,0,0,0,-1,713,1828,0,0
-504,-804,0,0,0,0,0,0,0,0,0,-1,720,1828,0,0
-497,-804,0,0,0,0,0,0,0,0,0,-1,727,1828,0,0
-490,-804,0,0,0,0,0,0,0,0,0,-1,734,1828,0,0
-483,-804,0,0,0,0,0,0,0,0,0,-1,741,1828,0,0
-476,-804,0,0,0,0,0,0,0,0,0,-1,748,1828,0,0
-469,-804,0,0,0,0,0,0,0,0,0,-1,755,1828,0,0
-462,-804,0,0,0,0,0,0,0,0,0,-1,762,1828,0,0
-455,-804,0,0,0,0,0,0,0,0,0,-1,769,1828,0,0
-448,-804,0,0,0,0,0,0,0,0,0,-1,776,1828,0,0
-441,-804,0,0,0,0,0,0,0,0,0,-1,783,1828,0,0
-434,-804,0,0,0,0,0,0,0,0,0,-1,790,1828,0,0
-427,-804,0,0,0,0,0,0,0,0,0,-1,797,1828,0,0
-420,-804,0,0,0,0,0,0,0,0,0,-1,804,1828,0,0
-413,-804,0,0,0,0,0,0,0,0,0,-1,811,1828,0,0
-406,-804,0,0,0,0,0,0,0,0,0,-1,818,1828,0,0
-399,-804,0,0,0,0,0,0,0,0,0,-1,825,1828,0,0
-392,-804,0,0,0,0,0,0,0,0,0,-1,832,1828,0,0
-385,-804,0,0,0,0,0,0,0,0,0,-1,839,1828,0,0
-378,-804,0,0,0,0,0,0,0,0,0,-1,846,1828,0,0
-371,-804,0,0,0,0,0,0,0,0,0,-1,853,1828,0,0
-364,-804,0,0,0,0,0,0,0,0,0,-1,860,1828,0,0
-357,-804,0,0,0,0,0,0,0,0,0,-1,867,1828,0,0
-350,-804,0,0,0,0,0,0,0,0,0,-1,874,1828,0,0
-343,-804,0,0,0,0,0,0,0,0,0,-1,881,1828,0,0
-336,-804,0,0,0,0,0,0,0,0,0,-1,888,1828,0,0
-329,-804,0,0,0,0,0,0,0,0,0,-1,895,1828,0,0
-322,-804,0,0,0,0,0,0,0,0,0,-1,902,1828,0,0
-315,-804,0,0,0,0,0,0,0,0,0,-1,909,1828,0,0
-308,-804,0,0,0,0,0,0,0,0,0,-1,916,1828,0,0
-301,-804,0,0,0,0,0,0,0,0,0,-1,923,1828,0,0
-294,-804,0,0,0,0,0,0,0,0,0,-1,930,1828,0,0
-287,-804,0,0,0,0,0,0,0,0,0,-1,937,1828,0,0
-280,-804,0,0,0,0,0,0,0,0,0,-1,944,1828,0,0
-273,-804,0,0,0,0,0,0,0,0,0,-1,951,1828,0,0
-266,-804,0,0,0,0,0,0,0,0,0,-1,958,1828,0,0
-259,-804,0,0,0,0,0,0,0,0,0,-1,965,1828,0,0
-252,-804,0,0,0,0,0,0,0,0,0,-1,972,1828,0,0
-245,-804,0,0,0,0,0,0,0,0,0,-1,979,1828,0,0
-238,-804,0,0,0,0,0,0,0,0,0,-1,986,1828,0,0
-231,-804,0,0,0,0,0,0,0,0,0,-1,993,1828,0,0
-224,-804,0,0,0,0,0,0,0,0,0,-1,1000,1828,0,0
-217,-804,0,0,0,0,0,0,0,0,0,-1,1007,1828,0,0
-210,-804,0,0,0,0,0,0,0,0,0,-1,1014,1828,0,0
-203,-804,0,0,0,0,0,0,0,0,0,-1,1021,1828,0,0
-196,-804,0,0,0,0,0,0,0,0,0,-1,1028,1828,0,0
-189,-804,0,0,0,0,0,0,0,0,0,-1,1035,1828,0,0
-182,-804,0,0,0,0,0,0,0,0,0,-1,1042,1828,0,0
-175,-804,0,0,0,0,0,0,0,0,0,-1,1049,1828,0,0
-168,-804,0,0,0,0,0,0,0,0,0,-1,1056,1828,0,0
-161,-804,0,0,0,0,0,0,0,0,0,-1,1063,1828,0,0
-154,-804,0,0,0,0,0,0,0,0,0,-1,1070,1828,0,0
-147,-804,0,0,0,0,0,0,0,0,0,-1,1077,1828,0,0
-140,-804,0,0,0,0,0,0,0,0,0,-1,1084,1828,0,0
-133,-804,0,0,0,0,0,0,0,0,0,-1,1091,1828,0,0
-126,-804,0,0,0,0,0,0,0,0,0,-1,1098,1828,0,0
-119,-804,0,0,0,0,0,0,0,0,0,-1,1105,1828,0,0
-112,-804,0,0,0,0,0,0,0,0,0,-1,1112,1828,0,0
-105,-804,0,0,0,0,0,0,0,0,0,-1,1119,1828,0,0
-98,-804,0,0,0,0,0,0,0,0,0,-1,1126,1828,0,0
-91,-804,0,0,0,0,0,0,0,0,0,-1,1133,1828,0,0
-84,-804,0,0,0,0,0,0,0,0,0,-1,1140,1828,0,0
-77,-804,0,0,0,0,0,0,0,0,0,-1,1147,1828,0,0
-70,-804,0,0,0,0,0,0,0,0,0,-1,1154,1828,0,0
-63,-804,0,0,0,0,0,0,0,0,0,-1,1161,1828,0,0
-56,-804,0,0,0,0,0,0,0,0,0,-1,1168,1828,0,0
-49,-804,0,0,0,0,0,0,0,0,0,-1,1175,1828,0,0
-42,-804,0,0,0,0,0,0,0,0,0,-1,1182,1828,0,0
-35,-804,0,0,0,0,0,0,0,0,0,-1,1189,1828,0,0
-28,-804,0,0,0,0,0,0,0,0,0,-1,1196,1828,0,0
-21,-804,0,0,0,0,0,0,0,0,0,-1,1203,1828,0,0
-14,-804,0,0,0,0,0,0,0,0,0,-1,1210,1828,0,0
-7,-804,0,0,0,0,0,0,0,0,0,-1,1217,1828,0,0
0,-804,0,0,0,0,0,0,0,0,0,-1,1224,1828,0,0
7,-804,0,0,0,0,0,0,0,0,0,-1,1231,1828,0,0
14,-804,0,0,0,0,0,0,0,0,0,-1,1238,1828,0,0
21,-804,0,0,0,0,0,0,0,0,0,-1,1245,1828,0,0
28,-804,0,0,0,0,0,0,0,0,0,-1,1252,1828,0,0
35,-804,10.4672,37.3037,0,0,0,0,0,0,0,-1,1259,1828,10.4672,-37.3038
42,-804,9.4375,33.8262,0,0,0,0,0,0,0,-1,1266,1828,9.43751,-33.8261
49,-804,9.32056,34.0934,-0.00501795,0.0377859,-0.0145062,0.0422388,-0.00947088,-1.27296,0.03179,0.0438972,1273,1828,9.32056,-34.0933
56,-804,9.30066,34.4501,-0.0170363,0.0394654,-0.0133762,0.042472,-0.020043,-1.34969,0.0368593,0.0459886,1280,1828,9.30068,-34.4501
63,-804,8.47217,35.6233,0,0,0,0,0,0,0,-1,1287,1828,8.47221,-35.6232
70,-804,9.39331,35.0867,-0.0418353,0.0405964,-0.0112574,0.0421061,-0.043345,-1.43748,0.049337,0.0461259,1294,1828,9.39336,-35.0867
77,-804,10.3552,34.7931,-0.0530767,0.0397983,-0.00903891,0.0406698,-0.0539483,-1.47467,0.0548068,0.0451869,1301,1828,10.3552,-34.7931
84,-804,8.03699,34.7292,-0.0595698,0.0391635,-0.00601377,0.0395285,-0.0599348,-1.51019,0.0578266,0.0436352,1308,1828,8.03693,-34.7293
91,-804,0,0,0,0,0,0,0,0,0,-1,1315,1828,0,0
98,-804,0,0,0,0,0,0,0,0,0,-1,1322,1828,0,0
105,-804,0,0,0,0,0,0,0,0,0,-1,1329,1828,0,0
112,-804,0,0,0,0,0,0,0,0,0,-1,1336,1828,0,0
119,-804,0,0,0,0,0,0,0,0,0,-1,1343,1828,0,0
126,-804,0,0,0,0,0,0,0,0,0,-1,1350,1828,0,0
133,-804,0,0,0,0,0,0,0,0,0,-1,1357,1828,0,0
140,-804,0,0,0,0,0,0,0,0,0,-1,1364,1828,0,0
147,-804,0,0,0,0,0,0,0,0,0,-1,1371,1828,0,0
154,-804,0,0,0,0,0,0,0,0,0,-1,1378,1828,0,0
161,-804,0,0,0,0,0,0,0,0,0,-1,1385,1828,0,0
168,-804,0,0,0,0,0,0,0,0,0,-1,1392,1828,0,0
175,-804,0,0,0,0,0,0,0,0,0,-1,1399,1828,0,0
182,-804,0,0,0,0,0,0,0,0,0,-1,1406,1828,0,0
189,-804,0,0,0,0,0,0,0,0,0,-1,1413,1828,0,0
196,-804,0,0,0,0,0,0,0,0,0,-1,1420,1828,0,0
203,-804,0,0,0,0,0,0,0,0,0,-1,1427,1828,0,0
210,-804,0,0,0,0,0,0,0,0,0,-1,1434,1828,0,0
217,-804,0,0,0,0,0,0,0,0,0,-1,1441,1828,0,0
224,-804,0,0,0,0,0,0,0,0,0,-1,1448,1828,0,0
231,-804,0,0,0,0,0,0,0,0,0,-1,1455,1828,0,0
238,-804,0,0,0,0,0,0,0,0,0,-1,1462,1828,0,0
245,-804,0,0,0,0,0,0,0,0,0,-1,1469,1828,0,0
252,-804,0,0,0,0,0,0,0,0,0,-1,1476,1828,0,0
259,-804,0,0,0,0,0,0,0,0,0,-1,1483,1828,0,0
266,-804,0,0,0,0,0,0,0,0,0,-1,1490,1828,0,0
273,-804,0,0,0,0,0,0,0,0,0,-1,1497,1828,0,0
280,-804,0,0,0,0,0,0,0,0,0,-1,1504,1828,0,0
287,-804,0,0,0,0,0,0,0,0,0,-1,1511,1828,0,0
294,-804,0,0,0,0,0,0,0,0,0,-1,1518,1828,0,0
301,-804,0,0,0,0,0,0,0,0,0,-1,1525,1828,0,0
308,-804,0,0,0,0,0,0,0,0,0,-1,1532,1828,0,0
315,-804,0,0,0,0,0,0,0,0,0,-1,1539,1828,0,0
322,-804,0,0,0,0,0,0,0,0,0,-1,1546,1828,0,0
329,-804,0,0,0,0,0,0,0,0,0,-1,1553,1828,0,0
336,-804,0,0,0,0,0,0,0,0,0,-1,1560,1828,0,0
343,-804,0,0,0,0,0,0,0,0,0,-1,1567,1828,0,0
350,-804,0,0,0,0,0,0,0,0,0,-1,1574,1828,0,0
357,-804,0,0,0,0,0,0,0,0,0,-1,1581,1828,0,0
364,-804,0,0,0,0,0,0,0,0,0,-1,1588,1828,0,0
371,-804,0,0,0,0,0,0,0,0,0,-1,1595,1828,0,0
378,-804,0,0,0,0,0,0,0,0,0,-1,1602,1828,0,0
385,-804,0,0,0,0,0,0,0,0,0,-1,1609,1828,0,0
392,-804,0,0,0,0,0,0,0,0,0,-1,1616,1828,0,0
399,-804,0,0,0,0,0,0,0,0,0,-1,1623,1828,0,0
406,-804,0,0,0,0,0,0,0,0,0,-1,1630,1828,0,0
413,-804,0,0,0,0,0,0,0,0,0,-1,1637,1828,0,0
420,-804,0,0,0,0,0,0,0,0,0,-1,1644,1828,0,0
427,-804,0,0,0,0,0,0,0,0,0,-1,1651,1828,0,0
434,-804,0,0,0,0,0,0,0,0,0,-1,1658,1828,0,0
441,-804,0,0,0,0,0,0,0,0,0,-1,1665,1828,0,0
448,-804,0,0,0,0,0,0,0,0,0,-1,1672,1828,0,0
455,-804,0,0,0,0,0,0,0,0,0,-1,1679,1828,0,0
462,-804,0,0,0,0,0,0,0,0,0,-1,1686,1828,0,0
469,-804,0,0,0,0,0,0,0,0,0,-1,1693,1828,0,0
476,-804,0,0,0,0,0,0,0,0,0,-1,1700,1828,0,0
483,-804,0,0,0,0,0,0,0,0,0,-1,1707,1828,0,0
490,-804,0,0,0,0,0,0,0,0,0,-1,1714,1828,0,0
497,-804,0,0,0,0,0,0,0,0,0,-1,1721,1828,0,0
504,-804,0,0,0,0,0,0,0,0,0,-1,1728,1828,0,0
511,-804,0,0,0,0,0,0,0,0,0,-1,1735,1828,0,0
518,-804,0,0,0,0,0,0,0,0,0,-1,1742,1828,0,0
525,-804,0,0,0,0,0,0,0,0,0,-1,1749,1828,0,0
532,-804,0,0,0,0,0,0,0,0,0,-1,1756,1828,0,0
539,-804,0,0,0,0,0,0,0,0,0,-1,1763,1828,0,0
546,-804,0,0,0,0,0,0,0,0,0,-1,1770,1828,0,0
553,-804,0,0,0,0,0,0,0,0,0,-1,1777,1828,0,0
560,-804,0,0,0,0,0,0,0,0,0,-1,1784,1828,0,0
567,-804,0,0,0,0,0,0,0,0,0,-1,1791,1828,0,0
574,-804,0,0,0,0,0,0,0,0,0,-1,1798,1828,0,0
581,-804,0,0,0,0,0,0,0,0,0,-1,1805,1828,0,0
588,-804,0,0,0,0,0,0,0,0,0,-1,1812,1828,0,0
595,-804,0,0,0,0,0,0,0,0,0,-1,1819,1828,0,0
602,-804,0,0,0,0,0,0,0,0,0,-1,1826,1828,0,0
609,-804,0,0,0,0,0,0,0,0,0,-1,1833,1828,0,0
616,-804,0,0,0,0,0,0,0,0,0,-1,1840,1828,0,0
623,-804,0,0,0,0,0,0,0,0,0,-1,1847,1828,0,0
630,-804,0,0,0,0,0,0,0,0,0,-1,1854,1828,0,0
637,-804,0,0,0,0,0,0,0,0,0,-1,1861,1828,0,0
644,-804,0,0,0,0,0,0,0,0,0,-1,1868,1828,0,0
651,-804,0,0,0,0,0,0,0,0,0,-1,1875,1828,0,0
658,-804,0,0,0,0,0,0,0,0,0,-1,1882,1828,0,0
665,-804,0,0,0,0,0,0,0,0,0,-1,1889,1828,0,0
672,-804,0,0,0,0,0,0,0,0,0,-1,1896,1828,0,0
679,-804,0,0,0,0,0,0,0,0,0,-1,1903,1828,0,0
686,-804,0,0,0,0,0,0,0,0,0,-1,1910,1828,0,0
693,-804,0,0,0,0,0,0,0,0,0,-1,1917,1828,0,0
700,-804,0,0,0,0,0,0,0,0,0,-1,1924,1828,0,0
707,-804,0,0,0,0,0,0,0,0,0,-1,1931,1828,0,0
714,-804,0,0,0,0,0,0,0,0,0,-1,1938,1828,0,0
721,-804,0,0,0,0,0,0,0,0,0,-1,1945,1828,0,0
728,-804,0,0,0,0,0,0,0,0,0,-1,1952,1828,0,0
735,-804,0,0,0,0,0,0,0,0,0,-1,1959,1828,0,0
742,-804,0,0,0,0,0,0,0,0,0,-1,1966,1828,0,0
749,-804,0,0,0,0,0,0,0,0,0,-1,1973,1828,0,0
756,-804,0,0,0,0,0,0,0,0,0,-1,1980,1828,0,0
763,-804,0,0,0,0,0,0,0,0,0,-1,1987,1828,0,0
770,-804,0,0,0,0,0,0,0,0,0,-1,1994,1828,0,0
777,-804,0,0,0,0,0,0,0,0,0,-1,2001,1828,0,0
784,-804,0,0,0,0,0,0,0,0,0,-1,2008,1828,0,0
791,-804,0,0,0,0,0,0,0,0,0,-1,2015,1828,0,0
798,-804,0,0,0,0,0,0,0,0,0,-1,2022,1828,0,0
805,-804,0,0,0,0,0,0,0,0,0,-1,2029,1828,0,0
812,-804,0,0,0,0,0,0,0,0,0,-1,2036,1828,0,0

