 "x_c",  "y_c",  "u_c",  "v_c",  "exx",  "eyy",  "exy",  "e1",  "e2",  "gamma",  "e_vonmises",  "sigma",  "x",  "y",  "u",  "v"
-700,715,0,0,0,0,0,0,0,0,0,-1,524,309,0,0
-693,715,0,0,0,0,0,0,0,0,0,-1,531,309,0,0
-686,715,0,0,0,0,0,0,0,0,0,-1,538,309,0,0
-679,715,0,0,0,0,0,0,0,0,0,-1,545,309,0,0
-672,715,0,0,0,0,0,0,0,0,0,-1,552,309,0,0
-665,715,0,0,0,0,0,0,0,0,0,-1,559,309,0,0
-658,715,0,0,0,0,0,0,0,0,0,-1,566,309,0,0
-651,715,0,0,0,0,0,0,0,0,0,-1,573,309,0,0
-644,715,0,0,0,0,0,0,0,0,0,-1,580,309,0,0
-637,715,0,0,0,0,0,0,0,0,0,-1,587,309,0,0
-630,715,0,0,0,0,0,0,0,0,0,-1,594,309,0,0
-623,715,0,0,0,0,0,0,0,0,0,-1,601,309,0,0
-616,715,0,0,0,0,0,0,0,0,0,-1,608,309,0,0
-609,715,0,0,0,0,0,0,0,0,0,-1,615,309,0,0
-602,715,0,0,0,0,0,0,0,0,0,-1,622,309,0,0
-595,715,0,0,0,0,0,0,0,0,0,-1,629,309,0,0
-588,715,0,0,0,0,0,0,0,0,0,-1,636,309,0,0
-581,715,0,0,0,0,0,0,0,0,0,-1,643,309,0,0
-574,715,0,0,0,0,0,0,0,0,0,-1,650,309,0,0
-567,715,0,0,0,0,0,0,0,0,0,-1,657,309,0,0
-560,715,0,0,0,0,0,0,0,0,0,-1,664,309,0,0
-553,715,0,0,0,0,0,0,0,0,0,-1,671,309,0,0
-546,715,0,0,0,0,0,0,0,0,0,-1,678,309,0,0
-539,715,0,0,0,0,0,0,0,0,0,-1,685,309,0,0
-532,715,0,0,0,0,0,0,0,0,0,-1,692,309,0,0
-525,715,0,0,0,0,0,0,0,0,0,-1,699,309,0,0
-518,715,0,0,0,0,0,0,0,0,0,-1,706,309,0,0
-511,715,0,0,0,0,0,0,0,0,0,-1,713,309,0,0
-504,715,0,0,0,0,0,0,0,0,0,-1,720,309,0,0
-497,715,0,0,0,0,0,0,0,0,0,-1,727,309,0,0
-490,715,0,0,0,0,0,0,0,0,0,-1,734,309,0,0
-483,715,0,0,0,0,0,0,0,0,0,-1,741,309,0,0
-476,715,0,0,0,0,0,0,0,0,0,-1,748,309,0,0
-469,715,0,0,0,0,0,0,0,0,0,-1,755,309,0,0
-462,715,0,0,0,0,0,0,0,0,0,-1,762,309,0,0
-455,715,0,0,0,0,0,0,0,0,0,-1,769,309,0,0
-448,715,0,0,0,0,0,0,0,0,0,-1,776,309,0,0
-441,715,0,0,0,0,0,0,0,0,0,-1,783,309,0,0
-434,715,0,0,0,0,0,0,0,0,0,-1,790,309,0,0
-427,715,0,0,0,0,0,0,0,0,0,-1,797,309,0,0
-420,715,0,0,0,0,0,0,0,0,0,-1,804,309,0,0
-413,715,0,0,0,0,0,0,0,0,0,-1,811,309,0,0
-406,715,0,0,0,0,0,0,0,0,0,-1,818,309,0,0
-399,715,0,0,0,0,0,0,0,0,0,-1,825,309,0,0
-392,715,0,0,0,0,0,0,0,0,0,-1,832,309,0,0
-385,715,0,0,0,0,0,0,0,0,0,-1,839,309,0,0
-378,715,0,0,0,0,0,0,0,0,0,-1,846,309,0,0
-371,715,0,0,0,0,0,0,0,0,0,-1,853,309,0,0
-364,715,0,0,0,0,0,0,0,0,0,-1,860,309,0,0
-357,715,0,0,0,0,0,0,0,0,0,-1,867,309,0,0
-350,715,0,0,0,0,0,0,0,0,0,-1,874,309,0,0
-343,715,0,0,0,0,0,0,0,0,0,-1,881,309,0,0
-336,715,0,0,0,0,0,0,0,0,0,-1,888,309,0,0
-329,715,0,0,0,0,0,0,0,0,0,-1,895,309,0,0
-322,715,0,0,0,0,0,0,0,0,0,-1,902,309,0,0
-315,715,0,0,0,0,0,0,0,0,0,-1,909,309,0,0
-308,715,0,0,0,0,0,0,0,0,0,-1,916,309,0,0
-301,715,0,0,0,0,0,0,0,0,0,-1,923,309,0,0
-294,715,0,0,0,0,0,0,0,0,0,-1,930,309,0,0
-287,715,0,0,0,0,0,0,0,0,0,-1,937,309,0,0
-280,715,0,0,0,0,0,0,0,0,0,-1,944,309,0,0
-273,715,0,0,0,0,0,0,0,0,0,-1,951,309,0,0
-266,715,0,0,0,0,0,0,0,0,0,-1,958,309,0,0
-259,715,0,0,0,0,0,0,0,0,0,-1,965,309,0,0
-252,715,0,0,0,0,0,0,0,0,0,-1,972,309,0,0
-245,715,0,0,0,0,0,0,0,0,0,-1,979,309,0,0
-238,715,0,0,0,0,0,0,0,0,0,-1,986,309,0,0
-231,715,0,0,0,0,0,0,0,0,0,-1,993,309,0,0
-224,715,0,0,0,0,0,0,0,0,0,-1,1000,309,0,0
-217,715,0,0,0,0,0,0,0,0,0,-1,1007,309,0,0
-210,715,0,0,0,0,0,0,0,0,0,-1,1014,309,0,0
-203,715,0,0,0,0,0,0,0,0,0,-1,1021,309,0,0
-196,715,0,0,0,0,0,0,0,0,0,-1,1028,309,0,0
-189,715,0,0,0,0,0,0,0,0,0,-1,1035,309,0,0
-182,715,0,0,0,0,0,0,0,0,0,-1,1042,309,0,0
-175,715,0,0,0,0,0,0,0,0,0,-1,1049,309,0,0
-168,715,0,0,0,0,0,0,0,0,0,-1,1056,309,0,0
-161,715,0,0,0,0,0,0,0,0,0,-1,1063,309,0,0
-154,715,0,0,0,0,0,0,0,0,0,-1,1070,309,0,0
-147,715,0,0,0,0,0,0,0,0,0,-1,1077,309,0,0
-140,715,0,0,0,0,0,0,0,0,0,-1,1084,309,0,0
-133,715,0,0,0,0,0,0,0,0,0,-1,1091,309,0,0
-126,715,0,0,0,0,0,0,0,0,0,-1,1098,309,0,0
-119,715,0,0,0,0,0,0,0,0,0,-1,1105,309,0,0
-112,715,0,0,0,0,0,0,0,0,0,-1,1112,309,0,0
-105,715,0,0,0,0,0,0,0,0,0,-1,1119,309,0,0
-98,715,0,0,0,0,0,0,0,0,0,-1,1126,309,0,0
-91,715,0,0,0,0,0,0,0,0,0,-1,1133,309,0,0
-84,715,0,0,0,0,0,0,0,0,0,-1,1140,309,0,0
-77,715,0,0,0,0,0,0,0,0,0,-1,1147,309,0,0
-70,715,0,0,0,0,0,0,0,0,0,-1,1154,309,0,0
-63,715,0,0,0,0,0,0,0,0,0,-1,1161,309,0,0
-56,715,0,0,0,0,0,0,0,0,0,-1,1168,309,0,0
-49,715,0,0,0,0,0,0,0,0,0,-1,1175,309,0,0
-42,715,0,0,0,0,0,0,0,0,0,-1,1182,309,0,0
-35,715,0,0,0,0,0,0,0,0,0,-1,1189,309,0,0
-28,715,0,0,0,0,0,0,0,0,0,-1,1196,309,0,0
-21,715,0,0,0,0,0,0,0,0,0,-1,1203,309,0,0
-14,715,0,0,0,0,0,0,0,0,0,-1,1210,309,0,0
-7,715,0,0,0,0,0,0,0,0,0,-1,1217,309,0,0
0,715,0,0,0,0,0,0,0,0,0,-1,1224,309,0,0
7,715,0,0,0,0,0,0,0,0,0,-1,1231,309,0,0
14,715,0,0,0,0,0,0,0,0,0,-1,1238,309,0,0
21,715,0,0,0,0,0,0,0,0,0,-1,1245,309,0,0
28,715,0,0,0,0,0,0,0,0,0,-1,1252,309,0,0
35,715,0,0,0,0,0,0,0,0,0,-1,1259,309,0,0
42,715,0,0,0,0,0,0,0,0,0,-1,1266,309,0,0
49,715,0,0,0,0,0,0,0,0,0,-1,1273,309,0,0
56,715,0,0,0,0,0,0,0,0,0,-1,1280,309,0,0
63,715,5.6593,-35.3446,0.134293,0.210533,0.173405,0.349959,-0.00513299,0.893594,0.235036,0.0429452,1287,309,5.65933,35.3446
70,715,6.34412,-33.8058,0.116592,0.228267,0.168665,0.350097,-0.00523725,0.945248,0.235163,0.044529,1294,309,6.34408,33.8058
77,715,0,0,0,0,0,0,0,0,0,-1,1301,309,0,0
84,715,0,0,0,0,0,0,0,0,0,-1,1308,309,0,0
91,715,0,0,0,0,0,0,0,0,0,-1,1315,309,0,0
98,715,0,0,0,0,0,0,0,0,0,-1,1322,309,0,0
105,715,0,0,0,0,0,0,0,0,0,-1,1329,309,0,0
112,715,0,0,0,0,0,0,0,0,0,-1,1336,309,0,0
119,715,0,0,0,0,0,0,0,0,0,-1,1343,309,0,0
126,715,0,0,0,0,0,0,0,0,0,-1,1350,309,0,0
133,715,0,0,0,0,0,0,0,0,0,-1,1357,309,0,0
140,715,0,0,0,0,0,0,0,0,0,-1,1364,309,0,0
147,715,0,0,0,0,0,0,0,0,0,-1,1371,309,0,0
154,715,0,0,0,0,0,0,0,0,0,-1,1378,309,0,0
161,715,0,0,0,0,0,0,0,0,0,-1,1385,309,0,0
168,715,0,0,0,0,0,0,0,0,0,-1,1392,309,0,0
175,715,0,0,0,0,0,0,0,0,0,-1,1399,309,0,0
182,715,0,0,0,0,0,0,0,0,0,-1,1406,309,0,0
189,715,0,0,0,0,0,0,0,0,0,-1,1413,309,0,0
196,715,0,0,0,0,0,0,0,0,0,-1,1420,309,0,0
203,715,0,0,0,0,0,0,0,0,0,-1,1427,309,0,0
210,715,0,0,0,0,0,0,0,0,0,-1,1434,309,0,0
217,715,0,0,0,0,0,0,0,0,0,-1,1441,309,0,0
224,715,0,0,0,0,0,0,0,0,0,-1,1448,309,0,0
231,715,0,0,0,0,0,0,0,0,0,-1,1455,309,0,0
238,715,0,0,0,0,0,0,0,0,0,-1,1462,309,0,0
245,715,0,0,0,0,0,0,0,0,0,-1,1469,309,0,0
252,715,0,0,0,0,0,0,0,0,0,-1,1476,309,0,0
259,715,0,0,0,0,0,0,0,0,0,-1,1483,309,0,0
266,715,0,0,0,0,0,0,0,0,0,-1,1490,309,0,0
273,715,0,0,0,0,0,0,0,0,0,-1,1497,309,0,0
280,715,0,0,0,0,0,0,0,0,0,-1,1504,309,0,0
287,715,0,0,0,0,0,0,0,0,0,-1,1511,309,0,0
294,715,0,0,0,0,0,0,0,0,0,-1,1518,309,0,0
301,715,0,0,0,0,0,0,0,0,0,-1,1525,309,0,0
308,715,0,0,0,0,0,0,0,0,0,-1,1532,309,0,0
315,715,0,0,0,0,0,0,0,0,0,-1,1539,309,0,0
322,715,0,0,0,0,0,0,0,0,0,-1,1546,309,0,0
329,715,0,0,0,0,0,0,0,0,0,-1,1553,309,0,0
336,715,0,0,0,0,0,0,0,0,0,-1,1560,309,0,0
343,715,0,0,0,0,0,0,0,0,0,-1,1567,309,0,0
350,715,0,0,0,0,0,0,0,0,0,-1,1574,309,0,0
357,715,0,0,0,0,0,0,0,0,0,-1,1581,309,0,0
364,715,0,0,0,0,0,0,0,0,0,-1,1588,309,0,0
371,715,0,0,0,0,0,0,0,0,0,-1,1595,309,0,0
378,715,0,0,0,0,0,0,0,0,0,-1,1602,309,0,0
385,715,0,0,0,0,0,0,0,0,0,-1,1609,309,0,0
392,715,0,0,0,0,0,0,0,0,0,-1,1616,309,0,0
399,715,0,0,0,0,0,0,0,0,0,-1,1623,309,0,0
406,715,0,0,0,0,0,0,0,0,0,-1,1630,309,0,0
413,715,0,0,0,0,0,0,0,0,0,-1,1637,309,0,0
420,715,0,0,0,0,0,0,0,0,0,-1,1644,309,0,0
427,715,0,0,0,0,0,0,0,0,0,-1,1651,309,0,0
434,715,0,0,0,0,0,0,0,0,0,-1,1658,309,0,0
441,715,0,0,0,0,0,0,0,0,0,-1,1665,309,0,0
448,715,0,0,0,0,0,0,0,0,0,-1,1672,309,0,0
455,715,0,0,0,0,0,0,0,0,0,-1,1679,309,0,0
462,715,0,0,0,0,0,0,0,0,0,-1,1686,309,0,0
469,715,0,0,0,0,0,0,0,0,0,-1,1693,309,0,0
476,715,0,0,0,0,0,0,0,0,0,-1,1700,309,0,0
483,715,0,0,0,0,0,0,0,0,0,-1,1707,309,0,0
490,715,0,0,0,0,0,0,0,0,0,-1,1714,309,0,0
497,715,0,0,0,0,0,0,0,0,0,-1,1721,309,0,0
504,715,0,0,0,0,0,0,0,0,0,-1,1728,309,0,0
511,715,0,0,0,0,0,0,0,0,0,-1,1735,309,0,0
518,715,0,0,0,0,0,0,0,0,0,-1,1742,309,0,0
525,715,0,0,0,0,0,0,0,0,0,-1,1749,309,0,0
532,715,0,0,0,0,0,0,0,0,0,-1,1756,309,0,0
539,715,0,0,0,0,0,0,0,0,0,-1,1763,309,0,0
546,715,0,0,0,0,0,0,0,0,0,-1,1770,309,0,0
553,715,0,0,0,0,0,0,0,0,0,-1,1777,309,0,0
560,715,0,0,0,0,0,0,0,0,0,-1,1784,309,0,0
567,715,0,0,0,0,0,0,0,0,0,-1,1791,309,0,0
574,715,0,0,0,0,0,0,0,0,0,-1,1798,309,0,0
581,715,0,0,0,0,0,0,0,0,0,-1,1805,309,0,0
588,715,0,0,0,0,0,0,0,0,0,-1,1812,309,0,0
595,715,0,0,0,0,0,0,0,0,0,-1,1819,309,0,0
602,715,0,0,0,0,0,0,0,0,0,-1,1826,309,0,0
609,715,0,0,0,0,0,0,0,0,0,-1,1833,309,0,0
616,715,0,0,0,0,0,0,0,0,0,-1,1840,309,0,0
623,715,0,0,0,0,0,0,0,0,0,-1,1847,309,0,0
630,715,0,0,0,0,0,0,0,0,0,-1,1854,309,0,0
637,715,0,0,0,0,0,0,0,0,0,-1,1861,309,0,0
644,715,0,0,0,0,0,0,0,0,0,-1,1868,309,0,0
651,715,0,0,0,0,0,0,0,0,0,-1,1875,309,0,0
658,715,0,0,0,0,0,0,0,0,0,-1,1882,309,0,0
665,715,0,0,0,0,0,0,0,0,0,-1,1889,309,0,0
672,715,0,0,0,0,0,0,0,0,0,-1,1896,309,0,0
679,715,0,0,0,0,0,0,0,0,0,-1,1903,309,0,0
686,715,0,0,0,0,0,0,0,0,0,-1,1910,309,0,0
693,715,0,0,0,0,0,0,0,0,0,-1,1917,309,0,0
700,715,0,0,0,0,0,0,0,0,0,-1,1924,309,0,0
707,715,0,0,0,0,0,0,0,0,0,-1,1931,309,0,0
714,715,0,0,0,0,0,0,0,0,0,-1,1938,309,0,0
721,715,0,0,0,0,0,0,0,0,0,-1,1945,309,0,0
728,715,0,0,0,0,0,0,0,0,0,-1,1952,309,0,0
735,715,0,0,0,0,0,0,0,0,0,-1,1959,309,0,0
742,715,0,0,0,0,0,0,0,0,0,-1,1966,309,0,0
749,715,0,0,0,0,0,0,0,0,0,-1,1973,309,0,0
756,715,0,0,0,0,0,0,0,0,0,-1,1980,309,0,0
763,715,0,0,0,0,0,0,0,0,0,-1,1987,309,0,0
770,715,0,0,0,0,0,0,0,0,0,-1,1994,309,0,0
777,715,0,0,0,0,0,0,0,0,0,-1,2001,309,0,0
784,715,0,0,0,0,0,0,0,0,0,-1,2008,309,0,0
791,715,0,0,0,0,0,0,0,0,0,-1,2015,309,0,0
798,715,0,0,0,0,0,0,0,0,0,-1,2022,309,0,0
805,715,0,0,0,0,0,0,0,0,0,-1,2029,309,0,0
812,715,0,0,0,0,0,0,0,0,0,-1,2036,309,0,0
-700,708,0,0,0,0,0,0,0,0,0,-1,524,316,0,0
-693,708,0,0,0,0,0,0,0,0,0,-1,531,316,0,0
-686,708,0,0,0,0,0,0,0,0,0,-1,538,316,0,0
-679,708,0,0,0,0,0,0,0,0,0,-1,545,316,0,0
-672,708,0,0,0,0,0,0,0,0,0,-1,552,316,0,0
-665,708,0,0,0,0,0,0,0,0,0,-1,559,316,0,0
-658,708,0,0,0,0,0,0,0,0,0,-1,566,316,0,0
-651,708,0,0,0,0,0,0,0,0,0,-1,573,316,0,0
-644,708,0,0,0,0,0,0,0,0,0,-1,580,316,0,0
-637,708,0,0,0,0,0,0,0,0,0,-1,587,316,0,0
-630,708,0,0,0,0,0,0,0,0,0,-1,594,316,0,0
-623,708,0,0,0,0,0,0,0,0,0,-1,601,316,0,0
-616,708,0,0,0,0,0,0,0,0,0,-1,608,316,0,0
-609,708,0,0,0,0,0,0,0,0,0,-1,615,316,0,0
-602,708,0,0,0,0,0,0,0,0,0,-1,622,316,0,0
-595,708,0,0,0,0,0,0,0,0,0,-1,629,316,0,0
-588,708,0,0,0,0,0,0,0,0,0,-1,636,316,0,0
-581,708,0,0,0,0,0,0,0,0,0,-1,643,316,0,0
-574,708,0,0,0,0,0,0,0,0,0,-1,650,316,0,0
-567,708,0,0,0,0,0,0,0,0,0,-1,657,316,0,0
-560,708,0,0,0,0,0,0,0,0,0,-1,664,316,0,0
-553,708,0,0,0,0,0,0,0,0,0,-1,671,316,0,0
-546,708,0,0,0,0,0,0,0,0,0,-1,678,316,0,0
-539,708,0,0,0,0,0,0,0,0,0,-1,685,316,0,0
-532,708,0,0,0,0,0,0,0,0,0,-1,692,316,0,0
-525,708,0,0,0,0,0,0,0,0,0,-1,699,316,0,0
-518,708,0,0,0,0,0,0,0,0,0,-1,706,316,0,0
-511,708,0,0,0,0,0,0,0,0,0,-1,713,316,0,0
-504,708,0,0,0,0,0,0,0,0,0,-1,720,316,0,0
-497,708,0,0,0,0,0,0,0,0,0,-1,727,316,0,0
-490,708,0,0,0,0,0,0,0,0,0,-1,734,316,0,0
-483,708,0,0,0,0,0,0,0,0,0,-1,741,316,0,0
-476,708,0,0,0,0,0,0,0,0,0,-1,748,316,0,0
-469,708,0,0,0,0,0,0,0,0,0,-1,755,316,0,0
-462,708,0,0,0,0,0,0,0,0,0,-1,762,316,0,0
-455,708,0,0,0,0,0,0,0,0,0,-1,769,316,0,0
-448,708,0,0,0,0,0,0,0,0,0,-1,776,316,0,0
-441,708,0,0,0,0,0,0,0,0,0,-1,783,316,0,0
-434,708,0,0,0,0,0,0,0,0,0,-1,790,316,0,0
-427,708,0,0,0,0,0,0,0,0,0,-1,797,316,0,0
-420,708,0,0,0,0,0,0,0,0,0,-1,804,316,0,0
-413,708,0,0,0,0,0,0,0,0,0,-1,811,316,0,0
-406,708,0,0,0,0,0,0,0,0,0,-1,818,316,0,0
-399,708,0,0,0,0,0,0,0,0,0,-1,825,316,0,0
-392,708,0,0,0,0,0,0,0,0,0,-1,832,316,0,0
-385,708,0,0,0,0,0,0,0,0,0,-1,839,316,0,0
-378,708,0,0,0,0,0,0,0,0,0,-1,846,316,0,0
-371,708,0,0,0,0,0,0,0,0,0,-1,853,316,0,0
-364,708,0,0,0,0,0,0,0,0,0,-1,860,316,0,0
-357,708,0,0,0,0,0,0,0,0,0,-1,867,316,0,0
-350,708,0,0,0,0,0,0,0,0,0,-1,874,316,0,0
-343,708,0,0,0,0,0,0,0,0,0,-1,881,316,0,0
-336,708,0,0,0,0,0,0,0,0,0,-1,888,316,0,0
-329,708,0,0,0,0,0,0,0,0,0,-1,895,316,0,0
-322,708,0,0,0,0,0,0,0,0,0,-1,902,316,0,0
-315,708,0,0,0,0,0,0,0,0,0,-1,909,316,0,0
-308,708,0,0,0,0,0,0,0,0,0,-1,916,316,0,0
-301,708,0,0,0,0,0,0,0,0,0,-1,923,316,0,0
-294,708,0,0,0,0,0,0,0,0,0,-1,930,316,0,0
-287,708,0,0,0,0,0,0,0,0,0,-1,937,316,0,0
-280,708,0,0,0,0,0,0,0,0,0,-1,944,316,0,0
-273,708,0,0,0,0,0,0,0,0,0,-1,951,316,0,0
-266,708,0,0,0,0,0,0,0,0,0,-1,958,316,0,0
-259,708,0,0,0,0,0,0,0,0,0,-1,965,316,0,0
-252,708,0,0,0,0,0,0,0,0,0,-1,972,316,0,0
-245,708,0,0,0,0,0,0,0,0,0,-1,979,316,0,0
-238,708,0,0,0,0,0,0,0,0,0,-1,986,316,0,0
-231,708,0,0,0,0,0,0,0,0,0,-1,993,316,0,0
-224,708,0,0,0,0,0,0,0,0,0,-1,1000,316,0,0
-217,708,0,0,0,0,0,0,0,0,0,-1,1007,316,0,0
-210,708,0,0,0,0,0,0,0,0,0,-1,1014,316,0,0
-203,708,0,0,0,0,0,0,0,0,0,-1,1021,316,0,0
-196,708,0,0,0,0,0,0,0,0,0,-1,1028,316,0,0
-189,708,0,0,0,0,0,0,0,0,0,-1,1035,316,0,0
-182,708,0,0,0,0,0,0,0,0,0,-1,1042,316,0,0
-175,708,0,0,0,0,0,0,0,0,0,-1,1049,316,0,0
-168,708,0,0,0,0,0,0,0,0,0,-1,1056,316,0,0
-161,708,0,0,0,0,0,0,0,0,0,-1,1063,316,0,0
-154,708,0,0,0,0,0,0,0,0,0,-1,1070,316,0,0
-147,708,0,0,0,0,0,0,0,0,0,-1,1077,316,0,0
-140,708,0,0,0,0,0,0,0,0,0,-1,1084,316,0,0
-133,708,0,0,0,0,0,0,0,0,0,-1,1091,316,0,0
-126,708,0,0,0,0,0,0,0,0,0,-1,1098,316,0,0
-119,708,0,0,0,0,0,0,0,0,0,-1,1105,316,0,0
-112,708,0,0,0,0,0,0,0,0,0,-1,1112,316,0,0
-105,708,0,0,0,0,0,0,0,0,0,-1,1119,316,0,0
-98,708,0,0,0,0,0,0,0,0,0,-1,1126,316,0,0
-91,708,0,0,0,0,0,0,0,0,0,-1,1133,316,0,0
-84,708,0,0,0,0,0,0,0,0,0,-1,1140,316,0,0
-77,708,0,0,0,0,0,0,0,0,0,-1,1147,316,0,0
-70,708,0,0,0,0,0,0,0,0,0,-1,1154,316,0,0
-63,708,0,0,0,0,0,0,0,0,0,-1,1161,316,0,0
-56,708,0,0,0,0,0,0,0,0,0,-1,1168,316,0,0
-49,708,0,0,0,0,0,0,0,0,0,-1,1175,316,0,0
-42,708,0,0,0,0,0,0,0,0,0,-1,1182,316,0,0
-35,708,-2.71204,-6.31558,0,0,0,0,0,0,0,-1,1189,316,-2.712,6.3156
-28,708,-2.92371,-5.53253,0,0,0,0,0,0,0,-1,1196,316,-2.92375,5.53254
-21,708,-0.417969,-24.5911,0,0,0,0,0,0,0,-1,1203,316,-0.418022,24.5911
-14,708,4.25549,-31.4833,0,0,0,0,0,0,0,-1,1210,316,4.25544,31.4833
-7,708,7.18506,-37.5637,0,0,0,0,0,0,0,-1,1217,316,7.18508,37.5637
0,708,11.1522,-34.6584,0,0,0,0,0,0,0,-1,1224,316,11.1522,34.6584
7,708,-1.69165,-49.7562,0,0,0,0,0,0,0,-1,1231,316,-1.69163,49.7562
14,708,-0.653931,-48.0791,0.147658,0.136567,0.1384,0.280624,0.0036014,0.765375,0.185894,0.0475283,1238,316,-0.653951,48.0791
21,708,0.0750732,-46.5609,0.15238,0.134308,0.139406,0.283043,0.00364503,0.753036,0.187492,0.0463259,1245,316,0.0750876,46.5609
28,708,0.972778,-44.7876,0.151699,0.132378,0.140283,0.282653,0.00142379,0.751019,0.187963,0.0466443,1252,316,0.972745,44.7876
35,708,2.02527,-43.003,0.147273,0.130853,0.140699,0.280002,-0.00187583,0.756257,0.187296,0.0461165,1259,316,2.02525,43.0029
42,708,2.94507,-41.3178,0.141099,0.134671,0.140735,0.278657,-0.00288731,0.773981,0.186741,0.046566,1266,316,2.94511,41.3178
49,708,3.78625,-39.6777,0,0,0,0,0,0,0,-1,1273,316,3.78631,39.6777
56,708,4.60205,-38.1257,0,0,0,0,0,0,0,-1,1280,316,4.60208,38.1257
63,708,5.56177,-36.5002,0.10591,0.188799,0.142733,0.295982,-0.00127313,0.926695,0.197747,0.04062,1287,316,5.56174,36.5002
70,708,6.34424,-34.6212,0.0904158,0.206672,0.139425,0.299601,-0.00251259,0.9829,0.200577,0.0417697,1294,316,6.34427,34.6213
77,708,6.69983,-33.0829,0.0750779,0.231665,0.138289,0.312286,-0.0055428,1.04298,0.210063,0.0449374,1301,316,6.69984,33.0829
84,708,7.03577,-31.7307,0.0579206,0.263653,0.136375,0.331608,-0.0100337,1.10852,0.224491,0.0454331,1308,316,7.03573,31.7306
91,708,7.40637,-30.2285,0.0411312,0.298114,0.134003,0.355275,-0.0160298,1.1676,0.24237,0.044996,1315,316,7.40642,30.2285
98,708,7.7179,-28.6749,0.0253706,0.332029,0.130501,0.380046,-0.0226466,1.21823,0.26124,0.0480378,1322,316,7.71788,28.6749
105,708,8.30786,-27.4166,0.0118994,0.359374,0.124403,0.39932,-0.0280468,1.26009,0.276038,0.0495336,1329,316,8.30786,27.4166
112,708,8.9043,-26.1647,-0.00202541,0.379698,0.115742,0.41205,-0.0343774,1.29823,0.286847,0.0498212,1336,316,8.90427,26.1647
119,708,6.44055,-28.9521,-0.0167483,0.396147,0.10588,0.421714,-0.0423161,1.33385,0.296257,0.0495447,1343,316,6.44055,28.9521
126,708,5.83789,-28.2761,0,0,0,0,0,0,0,-1,1350,316,5.83789,28.2761
133,708,6.54431,-42.3206,0,0,0,0,0,0,0,-1,1357,316,6.54431,42.3206
140,708,3.34326,-29.6664,0,0,0,0,0,0,0,-1,1364,316,3.34327,29.6664
147,708,3.2384,-30.1555,0,0,0,0,0,0,0,-1,1371,316,3.23836,30.1555
154,708,0,0,0,0,0,0,0,0,0,-1,1378,316,0,0
161,708,0,0,0,0,0,0,0,0,0,-1,1385,316,0,0
168,708,0,0,0,0,0,0,0,0,0,-1,1392,316,0,0
175,708,0,0,0,0,0,0,0,0,0,-1,1399,316,0,0
182,708,0,0,0,0,0,0,0,0,0,-1,1406,316,0,0
189,708,0,0,0,0,0,0,0,0,0,-1,1413,316,0,0
196,708,0,0,0,0,0,0,0,0,0,-1,1420,316,0,0
203,708,0,0,0,0,0,0,0,0,0,-1,1427,316,0,0
210,708,0,0,0,0,0,0,0,0,0,-1,1434,316,0,0
217,708,0,0,0,0,0,0,0,0,0,-1,1441,316,0,0
224,708,0,0,0,0,0,0,0,0,0,-1,1448,316,0,0
231,708,0,0,0,0,0,0,0,0,0,-1,1455,316,0,0
238,708,0,0,0,0,0,0,0,0,0,-1,1462,316,0,0
245,708,0,0,0,0,0,0,0,0,0,-1,1469,316,0,0
252,708,0,0,0,0,0,0,0,0,0,-1,1476,316,0,0
259,708,0,0,0,0,0,0,0,0,0,-1,1483,316,0,0
266,708,0,0,0,0,0,0,0,0,0,-1,1490,316,0,0
273,708,0,0,0,0,0,0,0,0,0,-1,1497,316,0,0
280,708,0,0,0,0,0,0,0,0,0,-1,1504,316,0,0
287,708,0,0,0,0,0,0,0,0,0,-1,1511,316,0,0
294,708,0,0,0,0,0,0,0,0,0,-1,1518,316,0,0
301,708,0,0,0,0,0,0,0,0,0,-1,1525,316,0,0
308,708,0,0,0,0,0,0,0,0,0,-1,1532,316,0,0
315,708,0,0,0,0,0,0,0,0,0,-1,1539,316,0,0
322,708,0,0,0,0,0,0,0,0,0,-1,1546,316,0,0
329,708,0,0,0,0,0,0,0,0,0,-1,1553,316,0,0
336,708,0,0,0,0,0,0,0,0,0,-1,1560,316,0,0
343,708,0,0,0,0,0,0,0,0,0,-1,1567,316,0,0
350,708,0,0,0,0,0,0,0,0,0,-1,1574,316,0,0
357,708,0,0,0,0,0,0,0,0,0,-1,1581,316,0,0
364,708,0,0,0,0,0,0,0,0,0,-1,1588,316,0,0
371,708,0,0,0,0,0,0,0,0,0,-1,1595,316,0,0
378,708,0,0,0,0,0,0,0,0,0,-1,1602,316,0,0
385,708,0,0,0,0,0,0,0,0,0,-1,1609,316,0,0
392,708,0,0,0,0,0,0,0,0,0,-1,1616,316,0,0
399,708,0,0,0,0,0,0,0,0,0,-1,1623,316,0,0
406,708,0,0,0,0,0,0,0,0,0,-1,1630,316,0,0
413,708,0,0,0,0,0,0,0,0,0,-1,1637,316,0,0
420,708,0,0,0,0,0,0,0,0,0,-1,1644,316,0,0
427,708,0,0,0,0,0,0,0,0,0,-1,1651,316,0,0
434,708,0,0,0,0,0,0,0,0,0,-1,1658,316,0,0
441,708,0,0,0,0,0,0,0,0,0,-1,1665,316,0,0
448,708,0,0,0,0,0,0,0,0,0,-1,1672,316,0,0
455,708,0,0,0,0,0,0,0,0,0,-1,1679,316,0,0
462,708,0,0,0,0,0,0,0,0,0,-1,1686,316,0,0
469,708,0,0,0,0,0,0,0,0,0,-1,1693,316,0,0
476,708,0,0,0,0,0,0,0,0,0,-1,1700,316,0,0
483,708,0,0,0,0,0,0,0,0,0,-1,1707,316,0,0
490,708,0,0,0,0,0,0,0,0,0,-1,1714,316,0,0
497,708,0,0,0,0,0,0,0,0,0,-1,1721,316,0,0
504,708,0,0,0,0,0,0,0,0,0,-1,1728,316,0,0
511,708,0,0,0,0,0,0,0,0,0,-1,1735,316,0,0
518,708,0,0,0,0,0,0,0,0,0,-1,1742,316,0,0
525,708,0,0,0,0,0,0,0,0,0,-1,1749,316,0,0
532,708,0,0,0,0,0,0,0,0,0,-1,1756,316,0,0
539,708,0,0,0,0,0,0,0,0,0,-1,1763,316,0,0
546,708,0,0,0,0,0,0,0,0,0,-1,1770,316,0,0
553,708,0,0,0,0,0,0,0,0,0,-1,1777,316,0,0
560,708,0,0,0,0,0,0,0,0,0,-1,1784,316,0,0
567,708,0,0,0,0,0,0,0,0,0,-1,1791,316,0,0
574,708,0,0,0,0,0,0,0,0,0,-1,1798,316,0,0
581,708,0,0,0,0,0,0,0,0,0,-1,1805,316,0,0
588,708,0,0,0,0,0,0,0,0,0,-1,1812,316,0,0
595,708,0,0,0,0,0,0,0,0,0,-1,1819,316,0,0
602,708,0,0,0,0,0,0,0,0,0,-1,1826,316,0,0
609,708,0,0,0,0,0,0,0,0,0,-1,1833,316,0,0
616,708,0,0,0,0,0,0,0,0,0,-1,1840,316,0,0
623,708,0,0,0,0,0,0,0,0,0,-1,1847,316,0,0
630,708,0,0,0,0,0,0,0,0,0,-1,1854,316,0,0
637,708,0,0,0,0,0,0,0,0,0,-1,1861,316,0,0
644,708,0,0,0,0,0,0,0,0,0,-1,1868,316,0,0
651,708,0,0,0,0,0,0,0,0,0,-1,1875,316,0,0
658,708,0,0,0,0,0,0,0,0,0,-1,1882,316,0,0
665,708,0,0,0,0,0,0,0,0,0,-1,1889,316,0,0
672,708,0,0,0,0,0,0,0,0,0,-1,1896,316,0,0
679,708,0,0,0,0,0,0,0,0,0,-1,1903,316,0,0
686,708,0,0,0,0,0,0,0,0,0,-1,1910,316,0,0
693,708,0,0,0,0,0,0,0,0,0,-1,1917,316,0,0
700,708,0,0,0,0,0,0,0,0,0,-1,1924,316,0,0
707,708,0,0,0,0,0,0,0,0,0,-1,1931,316,0,0
714,708,0,0,0,0,0,0,0,0,0,-1,1938,316,0,0
721,708,0,0,0,0,0,0,0,0,0,-1,1945,316,0,0
728,708,0,0,0,0,0,0,0,0,0,-1,1952,316,0,0
735,708,0,0,0,0,0,0,0,0,0,-1,1959,316,0,0
742,708,0,0,0,0,0,0,0,0,0,-1,1966,316,0,0
749,708,0,0,0,0,0,0,0,0,0,-1,1973,316,0,0
756,708,0,0,0,0,0,0,0,0,0,-1,1980,316,0,0
763,708,0,0,0,0,0,0,0,0,0,-1,1987,316,0,0
770,708,0,0,0,0,0,0,0,0,0,-1,1994,316,0,0
777,708,0,0,0,0,0,0,0,0,0,-1,2001,316,0,0
784,708,0,0,0,0,0,0,0,0,0,-1,2008,316,0,0
791,708,0,0,0,0,0,0,0,0,0,-1,2015,316,0,0
798,708,0,0,0,0,0,0,0,0,0,-1,2022,316,0,0
805,708,0,0,0,0,0,0,0,0,0,-1,2029,316,0,0
812,708,0,0,0,0,0,0,0,0,0,-1,2036,316,0,0
-700,701,0,0,0,0,0,0,0,0,0,-1,524,323,0,0
-693,701,0,0,0,0,0,0,0,0,0,-1,531,323,0,0
-686,701,0,0,0,0,0,0,0,0,0,-1,538,323,0,0
-679,701,0,0,0,0,0,0,0,0,0,-1,545,323,0,0
-672,701,0,0,0,0,0,0,0,0,0,-1,552,323,0,0
-665,701,0,0,0,0,0,0,0,0,0,-1,559,323,0,0
-658,701,0,0,0,0,0,0,0,0,0,-1,566,323,0,0
-651,701,0,0,0,0,0,0,0,0,0,-1,573,323,0,0
-644,701,0,0,0,0,0,0,0,0,0,-1,580,323,0,0
-637,701,0,0,0,0,0,0,0,0,0,-1,587,323,0,0
-630,701,0,0,0,0,0,0,0,0,0,-1,594,323,0,0
-623,701,0,0,0,0,0,0,0,0,0,-1,601,323,0,0
-616,701,0,0,0,0,0,0,0,0,0,-1,608,323,0,0
-609,701,0,0,0,0,0,0,0,0,0,-1,615,323,0,0
-602,701,0,0,0,0,0,0,0,0,0,-1,622,323,0,0
-595,701,0,0,0,0,0,0,0,0,0,-1,629,323,0,0
-588,701,0,0,0,0,0,0,0,0,0,-1,636,323,0,0
-581,701,0,0,0,0,0,0,0,0,0,-1,643,323,0,0
-574,701,0,0,0,0,0,0,0,0,0,-1,650,323,0,0
-567,701,0,0,0,0,0,0,0,0,0,-1,657,323,0,0
-560,701,0,0,0,0,0,0,0,0,0,-1,664,323,0,0
-553,701,0,0,0,0,0,0,0,0,0,-1,671,323,0,0
-546,701,0,0,0,0,0,0,0,0,0,-1,678,323,0,0
-539,701,0,0,0,0,0,0,0,0,0,-1,685,323,0,0
-532,701,0,0,0,0,0,0,0,0,0,-1,692,323,0,0
-525,701,0,0,0,0,0,0,0,0,0,-1,699,323,0,0
-518,701,0,0,0,0,0,0,0,0,0,-1,706,323,0,0
-511,701,0,0,0,0,0,0,0,0,0,-1,713,323,0,0
-504,701,0,0,0,0,0,0,0,0,0,-1,720,323,0,0
-497,701,0,0,0,0,0,0,0,0,0,-1,727,323,0,0
-490,701,0,0,0,0,0,0,0,0,0,-1,734,323,0,0
-483,701,0,0,0,0,0,0,0,0,0,-1,741,323,0,0
-476,701,0,0,0,0,0,0,0,0,0,-1,748,323,0,0
-469,701,0,0,0,0,0,0,0,0,0,-1,755,323,0,0
-462,701,0,0,0,0,0,0,0,0,0,-1,762,323,0,0
-455,701,0,0,0,0,0,0,0,0,0,-1,769,323,0,0
-448,701,0,0,0,0,0,0,0,0,0,-1,776,323,0,0
-441,701,0,0,0,0,0,0,0,0,0,-1,783,323,0,0
-434,701,0,0,0,0,0,0,0,0,0,-1,790,323,0,0
-427,701,0,0,0,0,0,0,0,0,0,-1,797,323,0,0
-420,701,0,0,0,0,0,0,0,0,0,-1,804,323,0,0
-413,701,0,0,0,0,0,0,0,0,0,-1,811,323,0,0
-406,701,0,0,0,0,0,0,0,0,0,-1,818,323,0,0
-399,701,0,0,0,0,0,0,0,0,0,-1,825,323,0,0
-392,701,0,0,0,0,0,0,0,0,0,-1,832,323,0,0
-385,701,0,0,0,0,0,0,0,0,0,-1,839,323,0,0
-378,701,0,0,0,0,0,0,0,0,0,-1,846,323,0,0
-371,701,0,0,0,0,0,0,0,0,0,-1,853,323,0,0
-364,701,0,0,0,0,0,0,0,0,0,-1,860,323,0,0
-357,701,0,0,0,0,0,0,0,0,0,-1,867,323,0,0
-350,701,0,0,0,0,0,0,0,0,0,-1,874,323,0,0
-343,701,0,0,0,0,0,0,0,0,0,-1,881,323,0,0
-336,701,0,0,0,0,0,0,0,0,0,-1,888,323,0,0
-329,701,0,0,0,0,0,0,0,0,0,-1,895,323,0,0
-322,701,0,0,0,0,0,0,0,0,0,-1,902,323,0,0
-315,701,0,0,0,0,0,0,0,0,0,-1,909,323,0,0
-308,701,0,0,0,0,0,0,0,0,0,-1,916,323,0,0
-301,701,0,0,0,0,0,0,0,0,0,-1,923,323,0,0
-294,701,0,0,0,0,0,0,0,0,0,-1,930,323,0,0
-287,701,0,0,0,0,0,0,0,0,0,-1,937,323,0,0
-280,701,0,0,0,0,0,0,0,0,0,-1,944,323,0,0
-273,701,0,0,0,0,0,0,0,0,0,-1,951,323,0,0
-266,701,0,0,0,0,0,0,0,0,0,-1,958,323,0,0
-259,701,0,0,0,0,0,0,0,0,0,-1,965,323,0,0
-252,701,0,0,0,0,0,0,0,0,0,-1,972,323,0,0
-245,701,0,0,0,0,0,0,0,0,0,-1,979,323,0,0
-238,701,0,0,0,0,0,0,0,0,0,-1,986,323,0,0
-231,701,0,0,0,0,0,0,0,0,0,-1,993,323,0,0
-224,701,0,0,0,0,0,0,0,0,0,-1,1000,323,0,0
-217,701,0,0,0,0,0,0,0,0,0,-1,1007,323,0,0
-210,701,0,0,0,0,0,0,0,0,0,-1,1014,323,0,0
-203,701,0,0,0,0,0,0,0,0,0,-1,1021,323,0,0
-196,701,0,0,0,0,0,0,0,0,0,-1,1028,323,0,0
-189,701,0,0,0,0,0,0,0,0,0,-1,1035,323,0,0
-182,701,0,0,0,0,0,0,0,0,0,-1,1042,323,0,0
-175,701,0,0,0,0,0,0,0,0,0,-1,1049,323,0,0
-168,701,0,0,0,0,0,0,0,0,0,-1,1056,323,0,0
-161,701,0,0,0,0,0,0,0,0,0,-1,1063,323,0,0
-154,701,0,0,0,0,0,0,0,0,0,-1,1070,323,0,0
-147,701,0,0,0,0,0,0,0,0,0,-1,1077,323,0,0
-140,701,0,0,0,0,0,0,0,0,0,-1,1084,323,0,0
-133,701,0,0,0,0,0,0,0,0,0,-1,1091,323,0,0
-126,701,0,0,0,0,0,0,0,0,0,-1,1098,323,0,0
-119,701,0,0,0,0,0,0,0,0,0,-1,1105,323,0,0
-112,701,0,0,0,0,0,0,0,0,0,-1,1112,323,0,0
-105,701,0,0,0,0,0,0,0,0,0,-1,1119,323,0,0
-98,701,0,0,0,0,0,0,0,0,0,-1,1126,323,0,0
-91,701,0,0,0,0,0,0,0,0,0,-1,1133,323,0,0
-84,701,0,0,0,0,0,0,0,0,0,-1,1140,323,0,0
-77,701,0,0,0,0,0,0,0,0,0,-1,1147,323,0,0
-70,701,-12.7566,-30.413,0,0,0,0,0,0,0,-1,1154,323,-12.7566,30.413
-63,701,-18.3169,-21.2322,0,0,0,0,0,0,0,-1,1161,323,-18.3169,21.2322
-56,701,-0.420166,-0.101776,0,0,0,0,0,0,0,-1,1168,323,-0.420119,0.101777
-49,701,-1.09021,-0.155762,0,0,0,0,0,0,0,-1,1175,323,-1.09024,0.155768
-42,701,-0.210327,-0.299133,0,0,0,0,0,0,0,-1,1182,323,-0.210379,0.29914
-35,701,-2.9635,-7.98676,0,0,0,0,0,0,0,-1,1189,323,-2.9635,7.98676
-28,701,-6.64417,-5.4917,0,0,0,0,0,0,0,-1,1196,323,-6.64411,5.4917
-21,701,5.22729,-32.2801,0,0,0,0,0,0,0,-1,1203,323,5.22728,32.2801
-14,701,6.23523,-36.6221,0,0,0,0,0,0,0,-1,1210,323,6.23522,36.6221
-7,701,5.46277,-36.2389,0,0,0,0,0,0,0,-1,1217,323,5.46281,36.2389
0,701,-3.33179,-51.3393,0,0,0,0,0,0,0,-1,1224,323,-3.33185,51.3392
7,701,-1.8053,-50.0428,0,0,0,0,0,0,0,-1,1231,323,-1.8053,50.0428
14,701,-0.797241,-48.8805,0.114798,0.113827,0.107006,0.22132,0.00730475,0.78313,0.145173,0.0478492,1238,323,-0.797253,48.8805
21,701,-0.145264,-47.6038,0.119068,0.111951,0.108823,0.224391,0.00662813,0.769053,0.147434,0.0477593,1245,323,-0.145286,47.6038
28,701,0.717407,-45.6391,0.118695,0.110849,0.110433,0.225274,0.0042689,0.767644,0.14878,0.0476781,1252,323,0.717463,45.6391
35,701,1.85364,-43.8483,0.115395,0.111142,0.111427,0.224716,0.00182115,0.775856,0.149208,0.0446566,1259,323,1.85362,43.8483
42,701,3.05725,-41.9397,0.110883,0.11577,0.112355,0.225708,0.000945151,0.79627,0.150158,0.0452734,1266,323,3.05729,41.9397
49,701,3.84802,-40.341,0,0,0,0,0,0,0,-1,1273,323,3.84801,40.341
56,701,4.71228,-38.9372,0,0,0,0,0,0,0,-1,1280,323,4.71225,38.9372
63,701,5.5614,-37.6124,0,0,0,0,0,0,0,-1,1287,323,5.56145,37.6124
70,701,6.34167,-35.4361,0,0,0,0,0,0,0,-1,1294,323,6.34163,35.4361
77,701,6.58386,-34.0722,0.0560151,0.204202,0.11265,0.264941,-0.00472435,1.07629,0.178223,0.0446376,1301,323,6.58382,34.0722
84,701,6.03809,-31.9739,0.0425309,0.230581,0.11145,0.282371,-0.00925852,1.1358,0.191408,0.0469862,1308,323,6.03807,31.9739
91,701,6.82263,-31.6277,0.0297414,0.257472,0.109937,0.301884,-0.01467,1.18687,0.20632,0.0439366,1315,323,6.82269,31.6277
98,701,6.20618,-31.1823,0.0181723,0.282875,0.107851,0.321254,-0.0202066,1.22892,0.221213,0.0468006,1322,323,6.20618,31.1823
105,701,6.34265,-30.97,0.00902193,0.302269,0.104046,0.335434,-0.0241435,1.26222,0.23209,0.047783,1329,323,6.34264,30.97
112,701,6.38525,-30.6691,-0.00046443,0.315528,0.0981526,0.343533,-0.0284702,1.29285,0.239078,0.0453288,1336,323,6.38526,30.6691
119,701,5.79663,-29.923,-0.0107089,0.325619,0.0912047,0.348759,-0.0338495,1.32232,0.244571,0.0462683,1343,323,5.79659,29.923
126,701,5.19373,-29.225,0,0,0,0,0,0,0,-1,1350,323,5.1937,29.225
133,701,4.33032,-36.3385,0,0,0,0,0,0,0,-1,1357,323,4.33032,36.3385
140,701,7.1908,-45.2809,0,0,0,0,0,0,0,-1,1364,323,7.19076,45.2809
147,701,3.36877,-31.2296,0,0,0,0,0,0,0,-1,1371,323,3.36877,31.2296
154,701,3.06628,-31.4759,0,0,0,0,0,0,0,-1,1378,323,3.06631,31.4759
161,701,2.62903,-31.4281,0,0,0,0,0,0,0,-1,1385,323,2.62906,31.4281
168,701,30.7272,1.76184,0,0,0,0,0,0,0,-1,1392,323,30.7272,-1.76184
175,701,31.5035,2.25711,0,0,0,0,0,0,0,-1,1399,323,31.5036,-2.25712
182,701,8.80652,5.42807,0,0,0,0,0,0,0,-1,1406,323,8.8065,-5.42808
189,701,8.58081,4.24493,0,0,0,0,0,0,0,-1,1413,323,8.58082,-4.24494
196,701,0,0,0,0,0,0,0,0,0,-1,1420,323,0,0
203,701,0,0,0,0,0,0,0,0,0,-1,1427,323,0,0
210,701,0,0,0,0,0,0,0,0,0,-1,1434,323,0,0
217,701,0,0,0,0,0,0,0,0,0,-1,1441,323,0,0
224,701,0,0,0,0,0,0,0,0,0,-1,1448,323,0,0
231,701,0,0,0,0,0,0,0,0,0,-1,1455,323,0,0
238,701,0,0,0,0,0,0,0,0,0,-1,1462,323,0,0
245,701,0,0,0,0,0,0,0,0,0,-1,1469,323,0,0
252,701,0,0,0,0,0,0,0,0,0,-1,1476,323,0,0
259,701,0,0,0,0,0,0,0,0,0,-1,1483,323,0,0
266,701,0,0,0,0,0,0,0,0,0,-1,1490,323,0,0
273,701,0,0,0,0,0,0,0,0,0,-1,1497,323,0,0
280,701,0,0,0,0,0,0,0,0,0,-1,1504,323,0,0
287,701,0,0,0,0,0,0,0,0,0,-1,1511,323,0,0
294,701,0,0,0,0,0,0,0,0,0,-1,1518,323,0,0
301,701,0,0,0,0,0,0,0,0,0,-1,1525,323,0,0
308,701,0,0,0,0,0,0,0,0,0,-1,1532,323,0,0
315,701,0,0,0,0,0,0,0,0,0,-1,1539,323,0,0
322,701,0,0,0,0,0,0,0,0,0,-1,1546,323,0,0
329,701,0,0,0,0,0,0,0,0,0,-1,1553,323,0,0
336,701,0,0,0,0,0,0,0,0,0,-1,1560,323,0,0
343,701,0,0,0,0,0,0,0,0,0,-1,1567,323,0,0
350,701,0,0,0,0,0,0,0,0,0,-1,1574,323,0,0
357,701,0,0,0,0,0,0,0,0,0,-1,1581,323,0,0
364,701,0,0,0,0,0,0,0,0,0,-1,1588,323,0,0
371,701,0,0,0,0,0,0,0,0,0,-1,1595,323,0,0
378,701,0,0,0,0,0,0,0,0,0,-1,1602,323,0,0
385,701,0,0,0,0,0,0,0,0,0,-1,1609,323,0,0
392,701,0,0,0,0,0,0,0,0,0,-1,1616,323,0,0
399,701,0,0,0,0,0,0,0,0,0,-1,1623,323,0,0
406,701,0,0,0,0,0,0,0,0,0,-1,1630,323,0,0
413,701,0,0,0,0,0,0,0,0,0,-1,1637,323,0,0
420,701,0,0,0,0,0,0,0,0,0,-1,1644,323,0,0
427,701,0,0,0,0,0,0,0,0,0,-1,1651,323,0,0
434,701,0,0,0,0,0,0,0,0,0,-1,1658,323,0,0
441,701,0,0,0,0,0,0,0,0,0,-1,1665,323,0,0
448,701,0,0,0,0,0,0,0,0,0,-1,1672,323,0,0
455,701,0,0,0,0,0,0,0,0,0,-1,1679,323,0,0
462,701,0,0,0,0,0,0,0,0,0,-1,1686,323,0,0
469,701,0,0,0,0,0,0,0,0,0,-1,1693,323,0,0
476,701,0,0,0,0,0,0,0,0,0,-1,1700,323,0,0
483,701,0,0,0,0,0,0,0,0,0,-1,1707,323,0,0
490,701,0,0,0,0,0,0,0,0,0,-1,1714,323,0,0
497,701,0,0,0,0,0,0,0,0,0,-1,1721,323,0,0
504,701,0,0,0,0,0,0,0,0,0,-1,1728,323,0,0
511,701,0,0,0,0,0,0,0,0,0,-1,1735,323,0,0
518,701,0,0,0,0,0,0,0,0,0,-1,1742,323,0,0
525,701,0,0,0,0,0,0,0,0,0,-1,1749,323,0,0
532,701,0,0,0,0,0,0,0,0,0,-1,1756,323,0,0
539,701,0,0,0,0,0,0,0,0,0,-1,1763,323,0,0
546,701,0,0,0,0,0,0,0,0,0,-1,1770,323,0,0
553,701,0,0,0,0,0,0,0,0,0,-1,1777,323,0,0
560,701,0,0,0,0,0,0,0,0,0,-1,1784,323,0,0
567,701,0,0,0,0,0,0,0,0,0,-1,1791,323,0,0
574,701,0,0,0,0,0,0,0,0,0,-1,1798,323,0,0
581,701,0,0,0,0,0,0,0,0,0,-1,1805,323,0,0
588,701,0,0,0,0,0,0,0,0,0,-1,1812,323,0,0
595,701,0,0,0,0,0,0,0,0,0,-1,1819,323,0,0
602,701,0,0,0,0,0,0,0,0,0,-1,1826,323,0,0
609,701,0,0,0,0,0,0,0,0,0,-1,1833,323,0,0
616,701,0,0,0,0,0,0,0,0,0,-1,1840,323,0,0
623,701,0,0,0,0,0,0,0,0,0,-1,1847,323,0,0
630,701,0,0,0,0,0,0,0,0,0,-1,1854,323,0,0
637,701,0,0,0,0,0,0,0,0,0,-1,1861,323,0,0
644,701,0,0,0,0,0,0,0,0,0,-1,1868,323,0,0
651,701,0,0,0,0,0,0,0,0,0,-1,1875,323,0,0
658,701,0,0,0,0,0,0,0,0,0,-1,1882,323,0,0
665,701,0,0,0,0,0,0,0,0,0,-1,1889,323,0,0
672,701,0,0,0,0,0,0,0,0,0,-1,1896,323,0,0
679,701,0,0,0,0,0,0,0,0,0,-1,1903,323,0,0
686,701,0,0,0,0,0,0,0,0,0,-1,1910,323,0,0
693,701,0,0,0,0,0,0,0,0,0,-1,1917,323,0,0
700,701,0,0,0,0,0,0,0,0,0,-1,1924,323,0,0
707,701,0,0,0,0,0,0,0,0,0,-1,1931,323,0,0
714,701,0,0,0,0,0,0,0,0,0,-1,1938,323,0,0
721,701,0,0,0,0,0,0,0,0,0,-1,1945,323,0,0
728,701,0,0,0,0,0,0,0,0,0,-1,1952,323,0,0
735,701,0,0,0,0,0,0,0,0,0,-1,1959,323,0,0
742,701,0,0,0,0,0,0,0,0,0,-1,1966,323,0,0
749,701,0,0,0,0,0,0,0,0,0,-1,1973,323,0,0
756,701,0,0,0,0,0,0,0,0,0,-1,1980,323,0,0
763,701,0,0,0,0,0,0,0,0,0,-1,1987,323,0,0
770,701,0,0,0,0,0,0,0,0,0,-1,1994,323,0,0
777,701,0,0,0,0,0,0,0,0,0,-1,2001,323,0,0
784,701,0,0,0,0,0,0,0,0,0,-1,2008,323,0,0
791,701,0,0,0,0,0,0,0,0,0,-1,2015,323,0,0
798,701,0,0,0,0,0,0,0,0,0,-1,2022,323,0,0
805,701,0,0,0,0,0,0,0,0,0,-1,2029,323,0,0
812,701,0,0,0,0,0,0,0,0,0,-1,2036,323,0,0
-700,694,0,0,0,0,0,0,0,0,0,-1,524,330,0,0
-693,694,0,0,0,0,0,0,0,0,0,-1,531,330,0,0
-686,694,0,0,0,0,0,0,0,0,0,-1,538,330,0,0
-679,694,0,0,0,0,0,0,0,0,0,-1,545,330,0,0
-672,694,0,0,0,0,0,0,0,0,0,-1,552,330,0,0
-665,694,0,0,0,0,0,0,0,0,0,-1,559,330,0,0
-658,694,0,0,0,0,0,0,0,0,0,-1,566,330,0,0
-651,694,0,0,0,0,0,0,0,0,0,-1,573,330,0,0
-644,694,0,0,0,0,0,0,0,0,0,-1,580,330,0,0
-637,694,0,0,0,0,0,0,0,0,0,-1,587,330,0,0
-630,694,0,0,0,0,0,0,0,0,0,-1,594,330,0,0
-623,694,0,0,0,0,0,0,0,0,0,-1,601,330,0,0
-616,694,0,0,0,0,0,0,0,0,0,-1,608,330,0,0
-609,694,0,0,0,0,0,0,0,0,0,-1,615,330,0,0
-602,694,0,0,0,0,0,0,0,0,0,-1,622,330,0,0
-595,694,0,0,0,0,0,0,0,0,0,-1,629,330,0,0
-588,694,0,0,0,0,0,0,0,0,0,-1,636,330,0,0
-581,694,0,0,0,0,0,0,0,0,0,-1,643,330,0,0
-574,694,0,0,0,0,0,0,0,0,0,-1,650,330,0,0
-567,694,0,0,0,0,0,0,0,0,0,-1,657,330,0,0
-560,694,0,0,0,0,0,0,0,0,0,-1,664,330,0,0
-553,694,0,0,0,0,0,0,0,0,0,-1,671,330,0,0
-546,694,0,0,0,0,0,0,0,0,0,-1,678,330,0,0
-539,694,0,0,0,0,0,0,0,0,0,-1,685,330,0,0
-532,694,0,0,0,0,0,0,0,0,0,-1,692,330,0,0
-525,694,0,0,0,0,0,0,0,0,0,-1,699,330,0,0
-518,694,0,0,0,0,0,0,0,0,0,-1,706,330,0,0
-511,694,0,0,0,0,0,0,0,0,0,-1,713,330,0,0
-504,694,0,0,0,0,0,0,0,0,0,-1,720,330,0,0
-497,694,0,0,0,0,0,0,0,0,0,-1,727,330,0,0
-490,694,0,0,0,0,0,0,0,0,0,-1,734,330,0,0
-483,694,0,0,0,0,0,0,0,0,0,-1,741,330,0,0
-476,694,0,0,0,0,0,0,0,0,0,-1,748,330,0,0
-469,694,0,0,0,0,0,0,0,0,0,-1,755,330,0,0
-462,694,0,0,0,0,0,0,0,0,0,-1,762,330,0,0
-455,694,0,0,0,0,0,0,0,0,0,-1,769,330,0,0
-448,694,0,0,0,0,0,0,0,0,0,-1,776,330,0,0
-441,694,0,0,0,0,0,0,0,0,0,-1,783,330,0,0
-434,694,0,0,0,0,0,0,0,0,0,-1,790,330,0,0
-427,694,0,0,0,0,0,0,0,0,0,-1,797,330,0,0
-420,694,0,0,0,0,0,0,0,0,0,-1,804,330,0,0
-413,694,0,0,0,0,0,0,0,0,0,-1,811,330,0,0
-406,694,0,0,0,0,0,0,0,0,0,-1,818,330,0,0
-399,694,0,0,0,0,0,0,0,0,0,-1,825,330,0,0
-392,694,0,0,0,0,0,0,0,0,0,-1,832,330,0,0
-385,694,0,0,0,0,0,0,0,0,0,-1,839,330,0,0
-378,694,0,0,0,0,0,0,0,0,0,-1,846,330,0,0
-371,694,0,0,0,0,0,0,0,0,0,-1,853,330,0,0
-364,694,0,0,0,0,0,0,0,0,0,-1,860,330,0,0
-357,694,0,0,0,0,0,0,0,0,0,-1,867,330,0,0
-350,694,0,0,0,0,0,0,0,0,0,-1,874,330,0,0
-343,694,0,0,0,0,0,0,0,0,0,-1,881,330,0,0
-336,694,0,0,0,0,0,0,0,0,0,-1,888,330,0,0
-329,694,0,0,0,0,0,0,0,0,0,-1,895,330,0,0
-322,694,0,0,0,0,0,0,0,0,0,-1,902,330,0,0
-315,694,0,0,0,0,0,0,0,0,0,-1,909,330,0,0
-308,694,0,0,0,0,0,0,0,0,0,-1,916,330,0,0
-301,694,0,0,0,0,0,0,0,0,0,-1,923,330,0,0
-294,694,0,0,0,0,0,0,0,0,0,-1,930,330,0,0
-287,694,0,0,0,0,0,0,0,0,0,-1,937,330,0,0
-280,694,0,0,0,0,0,0,0,0,0,-1,944,330,0,0
-273,694,0,0,0,0,0,0,0,0,0,-1,951,330,0,0
-266,694,0,0,0,0,0,0,0,0,0,-1,958,330,0,0
-259,694,0,0,0,0,0,0,0,0,0,-1,965,330,0,0
-252,694,0,0,0,0,0,0,0,0,0,-1,972,330,0,0
-245,694,0,0,0,0,0,0,0,0,0,-1,979,330,0,0
-238,694,0,0,0,0,0,0,0,0,0,-1,986,330,0,0
-231,694,0,0,0,0,0,0,0,0,0,-1,993,330,0,0
-224,694,0,0,0,0,0,0,0,0,0,-1,1000,330,0,0
-217,694,0,0,0,0,0,0,0,0,0,-1,1007,330,0,0
-210,694,0,0,0,0,0,0,0,0,0,-1,1014,330,0,0
-203,694,0,0,0,0,0,0,0,0,0,-1,1021,330,0,0
-196,694,0,0,0,0,0,0,0,0,0,-1,1028,330,0,0
-189,694,0,0,0,0,0,0,0,0,0,-1,1035,330,0,0
-182,694,0,0,0,0,0,0,0,0,0,-1,1042,330,0,0
-175,694,0,0,0,0,0,0,0,0,0,-1,1049,330,0,0
-168,694,0,0,0,0,0,0,0,0,0,-1,1056,330,0,0
-161,694,0,0,0,0,0,0,0,0,0,-1,1063,330,0,0
-154,694,0,0,0,0,0,0,0,0,0,-1,1070,330,0,0
-147,694,0,0,0,0,0,0,0,0,0,-1,1077,330,0,0
-140,694,0,0,0,0,0,0,0,0,0,-1,1084,330,0,0
-133,694,0,0,0,0,0,0,0,0,0,-1,1091,330,0,0
-126,694,0,0,0,0,0,0,0,0,0,-1,1098,330,0,0
-119,694,0,0,0,0,0,0,0,0,0,-1,1105,330,0,0
-112,694,0,0,0,0,0,0,0,0,0,-1,1112,330,0,0
-105,694,2.5188,-19.3963,0,0,0,0,0,0,0,-1,1119,330,2.51882,19.3963
-98,694,1.34875,-10.1051,0,0,0,0,0,0,0,-1,1126,330,1.34874,10.1051
-91,694,7.12927,-43.3935,0,0,0,0,0,0,0,-1,1133,330,7.12929,43.3935
-84,694,0.937744,-38.53,0,0,0,0,0,0,0,-1,1140,330,0.937727,38.53
-77,694,-5.51379,-31.2714,0,0,0,0,0,0,0,-1,1147,330,-5.51383,31.2714
-70,694,-11.9945,-25.5143,0,0,0,0,0,0,0,-1,1154,330,-11.9945,25.5143
-63,694,-18.4752,-19.7572,0,0,0,0,0,0,0,-1,1161,330,-18.4752,19.7572
-56,694,-6.50623,-0.649139,0,0,0,0,0,0,0,-1,1168,330,-6.5062,0.649126
-49,694,-1.11426,0.0341797,0,0,0,0,0,0,0,-1,1175,330,-1.11424,-0.0341846
-42,694,-0.346313,-0.709595,0,0,0,0,0,0,0,-1,1182,330,-0.346298,0.709581
-35,694,-0.459106,-1.24713,0,0,0,0,0,0,0,-1,1189,330,-0.459142,1.24714
-28,694,-6.48413,-3.95972,0,0,0,0,0,0,0,-1,1196,330,-6.48414,3.9597
-21,694,5.24939,-32.4167,0,0,0,0,0,0,0,-1,1203,330,5.24945,32.4167
-14,694,5.42102,-35.7484,0,0,0,0,0,0,0,-1,1210,330,5.42108,35.7484
-7,694,-4.79297,-52.9184,0,0,0,0,0,0,0,-1,1217,330,-4.793,52.9184
0,694,-3.46252,-51.941,0,0,0,0,0,0,0,-1,1224,330,-3.46254,51.941
7,694,-2.30396,-51.1022,0,0,0,0,0,0,0,-1,1231,330,-2.30398,51.1022
14,694,-1.13147,-49.9794,0,0,0,0,0,0,0,-1,1238,330,-1.13141,49.9794
21,694,-0.543945,-48.6079,0,0,0,0,0,0,0,-1,1245,330,-0.543926,48.6079
28,694,0.474365,-46.4666,0,0,0,0,0,0,0,-1,1252,330,0.47434,46.4667
35,694,1.71814,-44.6131,0,0,0,0,0,0,0,-1,1259,330,1.71813,44.6131
42,694,2.92419,-42.7053,0,0,0,0,0,0,0,-1,1266,330,2.9242,42.7053
49,694,4.63831,-37.9002,0.0788231,0.106344,0.0889524,0.182594,0.00257302,0.862136,0.120881,0.0498102,1273,330,4.63829,37.9002
56,694,4.50244,-37.6802,0,0,0,0,0,0,0,-1,1280,330,4.50245,37.6802
63,694,5.34192,-38.4835,0,0,0,0,0,0,0,-1,1287,330,5.34195,38.4835
70,694,4.8335,-37.4184,0,0,0,0,0,0,0,-1,1294,330,4.83348,37.4184
77,694,5.64685,-33.5011,0,0,0,0,0,0,0,-1,1301,330,5.64679,33.5011
84,694,5.62451,-33.2965,0.0303443,0.197125,0.0894062,0.235994,-0.00852499,1.1607,0.160247,0.047143,1308,330,5.62457,33.2965
91,694,6.04614,-33.0058,0.0209161,0.217707,0.0885981,0.251718,-0.0130943,1.20427,0.172342,0.0438793,1315,330,6.0462,33.0058
98,694,5.91248,-32.5821,0.0126167,0.236513,0.0875221,0.266665,-0.0175354,1.23902,0.183901,0.0472497,1322,330,5.91246,32.5821
105,694,5.95081,-32.4773,0.00647072,0.250242,0.0852411,0.277091,-0.0203788,1.26565,0.191881,0.0461108,1329,330,5.9508,32.4773
112,694,5.60156,-32.08,4.91785e-05,0.258741,0.0812225,0.282129,-0.0233382,1.29044,0.196328,0.0437925,1336,330,5.60152,32.08
119,694,5.4939,-31.3342,-0.0070793,0.264474,0.0762005,0.284395,-0.0270005,1.31509,0.199208,0.0457673,1343,330,5.49391,31.3342
126,694,5.71448,-31.145,-0.0137382,0.265864,0.0706274,0.282692,-0.0305659,1.3369,0.199432,0.0497358,1350,330,5.71443,31.145
133,694,5.69836,-30.6326,0,0,0,0,0,0,0,-1,1357,330,5.69842,30.6326
140,694,4.6106,-36.0645,0,0,0,0,0,0,0,-1,1364,330,4.61062,36.0645
147,694,4.41223,-34.072,0,0,0,0,0,0,0,-1,1371,330,4.41229,34.072
154,694,2.94763,-32.0768,0,0,0,0,0,0,0,-1,1378,330,2.94761,32.0767
161,694,2.71069,-31.7711,0,0,0,0,0,0,0,-1,1385,330,2.71067,31.7711
168,694,30.451,0.196686,0,0,0,0,0,0,0,-1,1392,330,30.4511,-0.196674
175,694,31.0701,0.869873,0,0,0,0,0,0,0,-1,1399,330,31.07,-0.869874
182,694,8.29028,5.75238,0,0,0,0,0,0,0,-1,1406,330,8.29034,-5.75237
189,694,7.9801,4.46118,0,0,0,0,0,0,0,-1,1413,330,7.9801,-4.46118
196,694,7.39331,3.32632,0,0,0,0,0,0,0,-1,1420,330,7.39329,-3.32633
203,694,7.04492,2.20529,0,0,0,0,0,0,0,-1,1427,330,7.04496,-2.20529
210,694,6.44714,0.646912,0,0,0,0,0,0,0,-1,1434,330,6.44717,-0.646903
217,694,7.12061,-0.644958,0,0,0,0,0,0,0,-1,1441,330,7.12059,0.644961
224,694,6.74011,-1.70544,0,0,0,0,0,0,0,-1,1448,330,6.74013,1.70546
231,694,0,0,0,0,0,0,0,0,0,-1,1455,330,0,0
238,694,0,0,0,0,0,0,0,0,0,-1,1462,330,0,0
245,694,0,0,0,0,0,0,0,0,0,-1,1469,330,0,0
252,694,0,0,0,0,0,0,0,0,0,-1,1476,330,0,0
259,694,0,0,0,0,0,0,0,0,0,-1,1483,330,0,0
266,694,0,0,0,0,0,0,0,0,0,-1,1490,330,0,0
273,694,0,0,0,0,0,0,0,0,0,-1,1497,330,0,0
280,694,0,0,0,0,0,0,0,0,0,-1,1504,330,0,0
287,694,0,0,0,0,0,0,0,0,0,-1,1511,330,0,0
294,694,0,0,0,0,0,0,0,0,0,-1,1518,330,0,0
301,694,0,0,0,0,0,0,0,0,0,-1,1525,330,0,0
308,694,0,0,0,0,0,0,0,0,0,-1,1532,330,0,0
315,694,0,0,0,0,0,0,0,0,0,-1,1539,330,0,0
322,694,0,0,0,0,0,0,0,0,0,-1,1546,330,0,0
329,694,0,0,0,0,0,0,0,0,0,-1,1553,330,0,0
336,694,0,0,0,0,0,0,0,0,0,-1,1560,330,0,0
343,694,0,0,0,0,0,0,0,0,0,-1,1567,330,0,0
350,694,0,0,0,0,0,0,0,0,0,-1,1574,330,0,0
357,694,0,0,0,0,0,0,0,0,0,-1,1581,330,0,0
364,694,0,0,0,0,0,0,0,0,0,-1,1588,330,0,0
371,694,0,0,0,0,0,0,0,0,0,-1,1595,330,0,0
378,694,0,0,0,0,0,0,0,0,0,-1,1602,330,0,0
385,694,0,0,0,0,0,0,0,0,0,-1,1609,330,0,0
392,694,0,0,0,0,0,0,0,0,0,-1,1616,330,0,0
399,694,0,0,0,0,0,0,0,0,0,-1,1623,330,0,0
406,694,0,0,0,0,0,0,0,0,0,-1,1630,330,0,0
413,694,0,0,0,0,0,0,0,0,0,-1,1637,330,0,0
420,694,0,0,0,0,0,0,0,0,0,-1,1644,330,0,0
427,694,0,0,0,0,0,0,0,0,0,-1,1651,330,0,0
434,694,0,0,0,0,0,0,0,0,0,-1,1658,330,0,0
441,694,0,0,0,0,0,0,0,0,0,-1,1665,330,0,0
448,694,0,0,0,0,0,0,0,0,0,-1,1672,330,0,0
455,694,0,0,0,0,0,0,0,0,0,-1,1679,330,0,0
462,694,0,0,0,0,0,0,0,0,0,-1,1686,330,0,0
469,694,0,0,0,0,0,0,0,0,0,-1,1693,330,0,0
476,694,0,0,0,0,0,0,0,0,0,-1,1700,330,0,0
483,694,0,0,0,0,0,0,0,0,0,-1,1707,330,0,0
490,694,0,0,0,0,0,0,0,0,0,-1,1714,330,0,0
497,694,0,0,0,0,0,0,0,0,0,-1,1721,330,0,0
504,694,0,0,0,0,0,0,0,0,0,-1,1728,330,0,0
511,694,0,0,0,0,0,0,0,0,0,-1,1735,330,0,0
518,694,0,0,0,0,0,0,0,0,0,-1,1742,330,0,0
525,694,0,0,0,0,0,0,0,0,0,-1,1749,330,0,0
532,694,0,0,0,0,0,0,0,0,0,-1,1756,330,0,0
539,694,0,0,0,0,0,0,0,0,0,-1,1763,330,0,0
546,694,0,0,0,0,0,0,0,0,0,-1,1770,330,0,0
553,694,0,0,0,0,0,0,0,0,0,-1,1777,330,0,0
560,694,0,0,0,0,0,0,0,0,0,-1,1784,330,0,0
567,694,0,0,0,0,0,0,0,0,0,-1,1791,330,0,0
574,694,0,0,0,0,0,0,0,0,0,-1,1798,330,0,0
581,694,0,0,0,0,0,0,0,0,0,-1,1805,330,0,0
588,694,0,0,0,0,0,0,0,0,0,-1,1812,330,0,0
595,694,0,0,0,0,0,0,0,0,0,-1,1819,330,0,0
602,694,0,0,0,0,0,0,0,0,0,-1,1826,330,0,0
609,694,0,0,0,0,0,0,0,0,0,-1,1833,330,0,0
616,694,0,0,0,0,0,0,0,0,0,-1,1840,330,0,0
623,694,0,0,0,0,0,0,0,0,0,-1,1847,330,0,0
630,694,0,0,0,0,0,0,0,0,0,-1,1854,330,0,0
637,694,0,0,0,0,0,0,0,0,0,-1,1861,330,0,0
644,694,0,0,0,0,0,0,0,0,0,-1,1868,330,0,0
651,694,0,0,0,0,0,0,0,0,0,-1,1875,330,0,0
658,694,0,0,0,0,0,0,0,0,0,-1,1882,330,0,0
665,694,0,0,0,0,0,0,0,0,0,-1,1889,330,0,0
672,694,0,0,0,0,0,0,0,0,0,-1,1896,330,0,0
679,694,0,0,0,0,0,0,0,0,0,-1,1903,330,0,0
686,694,0,0,0,0,0,0,0,0,0,-1,1910,330,0,0
693,694,0,0,0,0,0,0,0,0,0,-1,1917,330,0,0
700,694,0,0,0,0,0,0,0,0,0,-1,1924,330,0,0
707,694,0,0,0,0,0,0,0,0,0,-1,1931,330,0,0
714,694,0,0,0,0,0,0,0,0,0,-1,1938,330,0,0
721,694,0,0,0,0,0,0,0,0,0,-1,1945,330,0,0
728,694,0,0,0,0,0,0,0,0,0,-1,1952,330,0,0
735,694,0,0,0,0,0,0,0,0,0,-1,1959,330,0,0
742,694,0,0,0,0,0,0,0,0,0,-1,1966,330,0,0
749,694,0,0,0,0,0,0,0,0,0,-1,1973,330,0,0
756,694,0,0,0,0,0,0,0,0,0,-1,1980,330,0,0
763,694,0,0,0,0,0,0,0,0,0,-1,1987,330,0,0
770,694,0,0,0,0,0,0,0,0,0,-1,1994,330,0,0
777,694,0,0,0,0,0,0,0,0,0,-1,2001,330,0,0
784,694,0,0,0,0,0,0,0,0,0,-1,2008,330,0,0
791,694,0,0,0,0,0,0,0,0,0,-1,2015,330,0,0
798,694,0,0,0,0,0,0,0,0,0,-1,2022,330,0,0
805,694,0,0,0,0,0,0,0,0,0,-1,2029,330,0,0
812,694,0,0,0,0,0,0,0,0,0,-1,2036,330,0,0
-700,687,0,0,0,0,0,0,0,0,0,-1,524,337,0,0
-693,687,0,0,0,0,0,0,0,0,0,-1,531,337,0,0
-686,687,0,0,0,0,0,0,0,0,0,-1,538,337,0,0
-679,687,0,0,0,0,0,0,0,0,0,-1,545,337,0,0
-672,687,0,0,0,0,0,0,0,0,0,-1,552,337,0,0
-665,687,0,0,0,0,0,0,0,0,0,-1,559,337,0,0
-658,687,0,0,0,0,0,0,0,0,0,-1,566,337,0,0
-651,687,0,0,0,0,0,0,0,0,0,-1,573,337,0,0
-644,687,0,0,0,0,0,0,0,0,0,-1,580,337,0,0
-637,687,0,0,0,0,0,0,0,0,0,-1,587,337,0,0
-630,687,0,0,0,0,0,0,0,0,0,-1,594,337,0,0
-623,687,0,0,0,0,0,0,0,0,0,-1,601,337,0,0
-616,687,0,0,0,0,0,0,0,0,0,-1,608,337,0,0
-609,687,0,0,0,0,0,0,0,0,0,-1,615,337,0,0
-602,687,0,0,0,0,0,0,0,0,0,-1,622,337,0,0
-595,687,0,0,0,0,0,0,0,0,0,-1,629,337,0,0
-588,687,0,0,0,0,0,0,0,0,0,-1,636,337,0,0
-581,687,0,0,0,0,0,0,0,0,0,-1,643,337,0,0
-574,687,0,0,0,0,0,0,0,0,0,-1,650,337,0,0
-567,687,0,0,0,0,0,0,0,0,0,-1,657,337,0,0
-560,687,0,0,0,0,0,0,0,0,0,-1,664,337,0,0
-553,687,0,0,0,0,0,0,0,0,0,-1,671,337,0,0
-546,687,0,0,0,0,0,0,0,0,0,-1,678,337,0,0
-539,687,0,0,0,0,0,0,0,0,0,-1,685,337,0,0
-532,687,0,0,0,0,0,0,0,0,0,-1,692,337,0,0
-525,687,0,0,0,0,0,0,0,0,0,-1,699,337,0,0
-518,687,0,0,0,0,0,0,0,0,0,-1,706,337,0,0
-511,687,0,0,0,0,0,0,0,0,0,-1,713,337,0,0
-504,687,0,0,0,0,0,0,0,0,0,-1,720,337,0,0
-497,687,0,0,0,0,0,0,0,0,0,-1,727,337,0,0
-490,687,0,0,0,0,0,0,0,0,0,-1,734,337,0,0
-483,687,0,0,0,0,0,0,0,0,0,-1,741,337,0,0
-476,687,0,0,0,0,0,0,0,0,0,-1,748,337,0,0
-469,687,0,0,0,0,0,0,0,0,0,-1,755,337,0,0
-462,687,0,0,0,0,0,0,0,0,0,-1,762,337,0,0
-455,687,0,0,0,0,0,0,0,0,0,-1,769,337,0,0
-448,687,0,0,0,0,0,0,0,0,0,-1,776,337,0,0
-441,687,0,0,0,0,0,0,0,0,0,-1,783,337,0,0
-434,687,0,0,0,0,0,0,0,0,0,-1,790,337,0,0
-427,687,0,0,0,0,0,0,0,0,0,-1,797,337,0,0
-420,687,0,0,0,0,0,0,0,0,0,-1,804,337,0,0
-413,687,0,0,0,0,0,0,0,0,0,-1,811,337,0,0
-406,687,0,0,0,0,0,0,0,0,0,-1,818,337,0,0
-399,687,0,0,0,0,0,0,0,0,0,-1,825,337,0,0
-392,687,0,0,0,0,0,0,0,0,0,-1,832,337,0,0
-385,687,0,0,0,0,0,0,0,0,0,-1,839,337,0,0
-378,687,0,0,0,0,0,0,0,0,0,-1,846,337,0,0
-371,687,0,0,0,0,0,0,0,0,0,-1,853,337,0,0
-364,687,0,0,0,0,0,0,0,0,0,-1,860,337,0,0
-357,687,0,0,0,0,0,0,0,0,0,-1,867,337,0,0
-350,687,0,0,0,0,0,0,0,0,0,-1,874,337,0,0
-343,687,0,0,0,0,0,0,0,0,0,-1,881,337,0,0
-336,687,0,0,0,0,0,0,0,0,0,-1,888,337,0,0
-329,687,0,0,0,0,0,0,0,0,0,-1,895,337,0,0
-322,687,0,0,0,0,0,0,0,0,0,-1,902,337,0,0
-315,687,0,0,0,0,0,0,0,0,0,-1,909,337,0,0
-308,687,0,0,0,0,0,0,0,0,0,-1,916,337,0,0
-301,687,0,0,0,0,0,0,0,0,0,-1,923,337,0,0
-294,687,0,0,0,0,0,0,0,0,0,-1,930,337,0,0
-287,687,0,0,0,0,0,0,0,0,0,-1,937,337,0,0
-280,687,0,0,0,0,0,0,0,0,0,-1,944,337,0,0
-273,687,0,0,0,0,0,0,0,0,0,-1,951,337,0,0
-266,687,0,0,0,0,0,0,0,0,0,-1,958,337,0,0
-259,687,0,0,0,0,0,0,0,0,0,-1,965,337,0,0
-252,687,0,0,0,0,0,0,0,0,0,-1,972,337,0,0
-245,687,0,0,0,0,0,0,0,0,0,-1,979,337,0,0
-238,687,0,0,0,0,0,0,0,0,0,-1,986,337,0,0
-231,687,0,0,0,0,0,0,0,0,0,-1,993,337,0,0
-224,687,0,0,0,0,0,0,0,0,0,-1,1000,337,0,0
-217,687,0,0,0,0,0,0,0,0,0,-1,1007,337,0,0
-210,687,0,0,0,0,0,0,0,0,0,-1,1014,337,0,0
-203,687,0,0,0,0,0,0,0,0,0,-1,1021,337,0,0
-196,687,0,0,0,0,0,0,0,0,0,-1,1028,337,0,0
-189,687,0,0,0,0,0,0,0,0,0,-1,1035,337,0,0
-182,687,0,0,0,0,0,0,0,0,0,-1,1042,337,0,0
-175,687,0,0,0,0,0,0,0,0,0,-1,1049,337,0,0
-168,687,0,0,0,0,0,0,0,0,0,-1,1056,337,0,0
-161,687,0,0,0,0,0,0,0,0,0,-1,1063,337,0,0
-154,687,0,0,0,0,0,0,0,0,0,-1,1070,337,0,0
-147,687,0,0,0,0,0,0,0,0,0,-1,1077,337,0,0
-140,687,0,0,0,0,0,0,0,0,0,-1,1084,337,0,0
-133,687,7.93958,-37.548,0,0,0,0,0,0,0,-1,1091,337,7.93957,37.548
-126,687,7.81189,-35.631,0.0185223,-0.018582,0.126896,0.128215,-0.128275,0.712813,0.148084,0.0443152,1098,337,7.81194,35.631
-119,687,7.70825,-33.9236,0.0147702,-0.0104927,0.13311,0.135847,-0.131569,0.738092,0.154399,0.045963,1105,337,7.70826,33.9236
-112,687,7.99866,-32.2983,0,0,0,0,0,0,0,-1,1112,337,7.99866,32.2983
-105,687,1.3208,-29.8313,0,0,0,0,0,0,0,-1,1119,337,1.3208,29.8313
-98,687,13.5825,-44.6227,0,0,0,0,0,0,0,-1,1126,337,13.5825,44.6227
-91,687,7.80652,-40.6695,0,0,0,0,0,0,0,-1,1133,337,7.80654,40.6695
-84,687,1.58215,-34.1306,0,0,0,0,0,0,0,-1,1140,337,1.58212,34.1306
-77,687,-5.29199,-26.4802,0,0,0,0,0,0,0,-1,1147,337,-5.29201,26.4802
-70,687,-11.6842,-19.8473,0,0,0,0,0,0,0,-1,1154,337,-11.6842,19.8473
-63,687,-17.6757,-14.8966,0,0,0,0,0,0,0,-1,1161,337,-17.6756,14.8966
-56,687,-18.104,7.81931,0,0,0,0,0,0,0,-1,1168,337,-18.104,-7.81931
-49,687,-15.6449,-9.94391,0,0,0,0,0,0,0,-1,1175,337,-15.6449,9.94392
-42,687,-4.2019,-0.405609,0,0,0,0,0,0,0,-1,1182,337,-4.20192,0.405614
-35,687,-4.42273,-0.688171,0,0,0,0,0,0,0,-1,1189,337,-4.42276,0.688178
-28,687,-1.14038,-1.39072,0,0,0,0,0,0,0,-1,1196,337,-1.14035,1.3907
-21,687,5.33716,-35.8697,0,0,0,0,0,0,0,-1,1203,337,5.33721,35.8697
-14,687,5.44849,-36.1347,0.0303527,0.0730863,0.0394578,0.0965911,0.00684789,1.03355,0.0622371,0.0477625,1210,337,5.44853,36.1347
-7,687,5.12268,-36.0107,0.0413826,0.0746501,0.045816,0.106758,0.00927434,0.959527,0.068291,0.0465316,1217,337,5.12274,36.0107
0,687,-3.59326,-52.5427,0,0,0,0,0,0,0,-1,1224,337,-3.59323,52.5427
7,687,-2.38745,-52.2071,0,0,0,0,0,0,0,-1,1231,337,-2.38743,52.2071
14,687,-1.4093,-51.0663,0,0,0,0,0,0,0,-1,1238,337,-1.40929,51.0662
21,687,5.27271,-37.2869,0,0,0,0,0,0,0,-1,1245,337,5.27272,37.2869
28,687,5.04236,-36.8825,0,0,0,0,0,0,0,-1,1252,337,5.04235,36.8825
35,687,5.65076,-36.8704,0,0,0,0,0,0,0,-1,1259,337,5.6508,36.8704
42,687,4.71057,-38.0161,0,0,0,0,0,0,0,-1,1266,337,4.71058,38.0161
49,687,4.69324,-37.9504,0,0,0,0,0,0,0,-1,1273,337,4.69321,37.9504
56,687,4.97021,-37.8546,0,0,0,0,0,0,0,-1,1280,337,4.97017,37.8545
63,687,5.146,-37.771,0,0,0,0,0,0,0,-1,1287,337,5.14605,37.771
70,687,4.77112,-37.5631,0,0,0,0,0,0,0,-1,1294,337,4.77116,37.5631
77,687,4.46167,-36.0175,0,0,0,0,0,0,0,-1,1301,337,4.46164,36.0175
84,687,5.21875,-34.7112,0.0208614,0.164573,0.0702042,0.193176,-0.00774123,1.18391,0.13144,0.0452657,1308,337,5.21877,34.7112
91,687,5.27307,-34.5267,0.0141492,0.180051,0.0699496,0.205607,-0.0114071,1.22051,0.141028,0.0459374,1315,337,5.27305,34.5267
98,687,5.35083,-34.1815,0.00834565,0.193811,0.0695732,0.217008,-0.0148517,1.24896,0.149868,0.0482307,1322,337,5.35087,34.1816
105,687,5.38513,-33.8904,0.00428095,0.203493,0.0682961,0.224658,-0.0168844,1.27028,0.155706,0.0437995,1329,337,5.38509,33.8904
112,687,5.28394,-33.6874,0,0,0,0,0,0,0,-1,1336,337,5.28389,33.6874
119,687,5.11377,-32.8132,-0.00494363,0.211524,0.0618506,0.22795,-0.0213696,1.31121,0.159567,0.0447137,1343,337,5.11378,32.8132
126,687,4.90283,-32.2156,-0.00940513,0.21121,0.0577267,0.225402,-0.0235971,1.32973,0.15872,0.0480662,1350,337,4.90288,32.2156
133,687,4.80701,-31.7125,0,0,0,0,0,0,0,-1,1357,337,4.80696,31.7125
140,687,4.66577,-35.4539,0,0,0,0,0,0,0,-1,1364,337,4.66579,35.4539
147,687,5.44763,-36.4299,0,0,0,0,0,0,0,-1,1371,337,5.44758,36.4299
154,687,3.61719,-34.8786,0,0,0,0,0,0,0,-1,1378,337,3.61721,34.8786
161,687,29.3895,-1.90628,0,0,0,0,0,0,0,-1,1385,337,29.3895,1.90628
168,687,29.8564,-1.19434,0,0,0,0,0,0,0,-1,1392,337,29.8564,1.19434
175,687,30.3419,-0.453583,0,0,0,0,0,0,0,-1,1399,337,30.3419,0.45357
182,687,6.67249,0.289917,0,0,0,0,0,0,0,-1,1406,337,6.67247,-0.289916
189,687,7.76062,4.53635,0,0,0,0,0,0,0,-1,1413,337,7.76064,-4.53636
196,687,6.99048,3.2966,0,0,0,0,0,0,0,-1,1420,337,6.99046,-3.2966
203,687,6.36499,2.1445,0,0,0,0,0,0,0,-1,1427,337,6.36499,-2.14451
210,687,6.68066,0.674652,0,0,0,0,0,0,0,-1,1434,337,6.68062,-0.674655
217,687,5.99683,-0.630493,0,0,0,0,0,0,0,-1,1441,337,5.99684,0.630497
224,687,5.52917,0.524902,0,0,0,0,0,0,0,-1,1448,337,5.5292,-0.524915
231,687,5.85583,-1.73651,0,0,0,0,0,0,0,-1,1455,337,5.85577,1.73651
238,687,5.96582,-2.96774,0,0,0,0,0,0,0,-1,1462,337,5.96577,2.96773
245,687,1.28259,2.32211,0,0,0,0,0,0,0,-1,1469,337,1.28258,-2.32211
252,687,1.97278,3.88422,0,0,0,0,0,0,0,-1,1476,337,1.97281,-3.88421
259,687,0,0,0,0,0,0,0,0,0,-1,1483,337,0,0
266,687,0,0,0,0,0,0,0,0,0,-1,1490,337,0,0
273,687,0,0,0,0,0,0,0,0,0,-1,1497,337,0,0
280,687,0,0,0,0,0,0,0,0,0,-1,1504,337,0,0
287,687,0,0,0,0,0,0,0,0,0,-1,1511,337,0,0
294,687,0,0,0,0,0,0,0,0,0,-1,1518,337,0,0
301,687,0,0,0,0,0,0,0,0,0,-1,1525,337,0,0
308,687,0,0,0,0,0,0,0,0,0,-1,1532,337,0,0
315,687,0,0,0,0,0,0,0,0,0,-1,1539,337,0,0
322,687,0,0,0,0,0,0,0,0,0,-1,1546,337,0,0
329,687,0,0,0,0,0,0,0,0,0,-1,1553,337,0,0
336,687,0,0,0,0,0,0,0,0,0,-1,1560,337,0,0
343,687,0,0,0,0,0,0,0,0,0,-1,1567,337,0,0
350,687,0,0,0,0,0,0,0,0,0,-1,1574,337,0,0
357,687,0,0,0,0,0,0,0,0,0,-1,1581,337,0,0
364,687,0,0,0,0,0,0,0,0,0,-1,1588,337,0,0
371,687,0,0,0,0,0,0,0,0,0,-1,1595,337,0,0
378,687,0,0,0,0,0,0,0,0,0,-1,1602,337,0,0
385,687,0,0,0,0,0,0,0,0,0,-1,1609,337,0,0
392,687,0,0,0,0,0,0,0,0,0,-1,1616,337,0,0
399,687,0,0,0,0,0,0,0,0,0,-1,1623,337,0,0
406,687,0,0,0,0,0,0,0,0,0,-1,1630,337,0,0
413,687,0,0,0,0,0,0,0,0,0,-1,1637,337,0,0
420,687,0,0,0,0,0,0,0,0,0,-1,1644,337,0,0
427,687,0,0,0,0,0,0,0,0,0,-1,1651,337,0,0
434,687,0,0,0,0,0,0,0,0,0,-1,1658,337,0,0
441,687,0,0,0,0,0,0,0,0,0,-1,1665,337,0,0
448,687,0,0,0,0,0,0,0,0,0,-1,1672,337,0,0
455,687,0,0,0,0,0,0,0,0,0,-1,1679,337,0,0
462,687,0,0,0,0,0,0,0,0,0,-1,1686,337,0,0
469,687,0,0,0,0,0,0,0,0,0,-1,1693,337,0,0
476,687,0,0,0,0,0,0,0,0,0,-1,1700,337,0,0
483,687,0,0,0,0,0,0,0,0,0,-1,1707,337,0,0
490,687,0,0,0,0,0,0,0,0,0,-1,1714,337,0,0
497,687,0,0,0,0,0,0,0,0,0,-1,1721,337,0,0
504,687,0,0,0,0,0,0,0,0,0,-1,1728,337,0,0
511,687,0,0,0,0,0,0,0,0,0,-1,1735,337,0,0
518,687,0,0,0,0,0,0,0,0,0,-1,1742,337,0,0
525,687,0,0,0,0,0,0,0,0,0,-1,1749,337,0,0
532,687,0,0,0,0,0,0,0,0,0,-1,1756,337,0,0
539,687,0,0,0,0,0,0,0,0,0,-1,1763,337,0,0
546,687,0,0,0,0,0,0,0,0,0,-1,1770,337,0,0
553,687,0,0,0,0,0,0,0,0,0,-1,1777,337,0,0
560,687,0,0,0,0,0,0,0,0,0,-1,1784,337,0,0
567,687,0,0,0,0,0,0,0,0,0,-1,1791,337,0,0
574,687,0,0,0,0,0,0,0,0,0,-1,1798,337,0,0
581,687,0,0,0,0,0,0,0,0,0,-1,1805,337,0,0
588,687,0,0,0,0,0,0,0,0,0,-1,1812,337,0,0
595,687,0,0,0,0,0,0,0,0,0,-1,1819,337,0,0
602,687,0,0,0,0,0,0,0,0,0,-1,1826,337,0,0
609,687,0,0,0,0,0,0,0,0,0,-1,1833,337,0,0
616,687,0,0,0,0,0,0,0,0,0,-1,1840,337,0,0
623,687,0,0,0,0,0,0,0,0,0,-1,1847,337,0,0
630,687,0,0,0,0,0,0,0,0,0,-1,1854,337,0,0
637,687,0,0,0,0,0,0,0,0,0,-1,1861,337,0,0
644,687,0,0,0,0,0,0,0,0,0,-1,1868,337,0,0
651,687,0,0,0,0,0,0,0,0,0,-1,1875,337,0,0
658,687,0,0,0,0,0,0,0,0,0,-1,1882,337,0,0
665,687,0,0,0,0,0,0,0,0,0,-1,1889,337,0,0
672,687,0,0,0,0,0,0,0,0,0,-1,1896,337,0,0
679,687,0,0,0,0,0,0,0,0,0,-1,1903,337,0,0
686,687,0,0,0,0,0,0,0,0,0,-1,1910,337,0,0
693,687,0,0,0,0,0,0,0,0,0,-1,1917,337,0,0
700,687,0,0,0,0,0,0,0,0,0,-1,1924,337,0,0
707,687,0,0,0,0,0,0,0,0,0,-1,1931,337,0,0
714,687,0,0,0,0,0,0,0,0,0,-1,1938,337,0,0
721,687,0,0,0,0,0,0,0,0,0,-1,1945,337,0,0
728,687,0,0,0,0,0,0,0,0,0,-1,1952,337,0,0
735,687,0,0,0,0,0,0,0,0,0,-1,1959,337,0,0
742,687,0,0,0,0,0,0,0,0,0,-1,1966,337,0,0
749,687,0,0,0,0,0,0,0,0,0,-1,1973,337,0,0
756,687,0,0,0,0,0,0,0,0,0,-1,1980,337,0,0
763,687,0,0,0,0,0,0,0,0,0,-1,1987,337,0,0
770,687,0,0,0,0,0,0,0,0,0,-1,1994,337,0,0
777,687,0,0,0,0,0,0,0,0,0,-1,2001,337,0,0
784,687,0,0,0,0,0,0,0,0,0,-1,2008,337,0,0
791,687,0,0,0,0,0,0,0,0,0,-1,2015,337,0,0
798,687,0,0,0,0,0,0,0,0,0,-1,2022,337,0,0
805,687,0,0,0,0,0,0,0,0,0,-1,2029,337,0,0
812,687,0,0,0,0,0,0,0,0,0,-1,2036,337,0,0
-700,680,0,0,0,0,0,0,0,0,0,-1,524,344,0,0
-693,680,0,0,0,0,0,0,0,0,0,-1,531,344,0,0
-686,680,0,0,0,0,0,0,0,0,0,-1,538,344,0,0
-679,680,0,0,0,0,0,0,0,0,0,-1,545,344,0,0
-672,680,0,0,0,0,0,0,0,0,0,-1,552,344,0,0
-665,680,0,0,0,0,0,0,0,0,0,-1,559,344,0,0
-658,680,0,0,0,0,0,0,0,0,0,-1,566,344,0,0
-651,680,0,0,0,0,0,0,0,0,0,-1,573,344,0,0
-644,680,0,0,0,0,0,0,0,0,0,-1,580,344,0,0
-637,680,0,0,0,0,0,0,0,0,0,-1,587,344,0,0
-630,680,0,0,0,0,0,0,0,0,0,-1,594,344,0,0
-623,680,0,0,0,0,0,0,0,0,0,-1,601,344,0,0
-616,680,0,0,0,0,0,0,0,0,0,-1,608,344,0,0
-609,680,0,0,0,0,0,0,0,0,0,-1,615,344,0,0
-602,680,0,0,0,0,0,0,0,0,0,-1,622,344,0,0
-595,680,0,0,0,0,0,0,0,0,0,-1,629,344,0,0
-588,680,0,0,0,0,0,0,0,0,0,-1,636,344,0,0
-581,680,0,0,0,0,0,0,0,0,0,-1,643,344,0,0
-574,680,0,0,0,0,0,0,0,0,0,-1,650,344,0,0
-567,680,0,0,0,0,0,0,0,0,0,-1,657,344,0,0
-560,680,0,0,0,0,0,0,0,0,0,-1,664,344,0,0
-553,680,0,0,0,0,0,0,0,0,0,-1,671,344,0,0
-546,680,0,0,0,0,0,0,0,0,0,-1,678,344,0,0
-539,680,0,0,0,0,0,0,0,0,0,-1,685,344,0,0
-532,680,0,0,0,0,0,0,0,0,0,-1,692,344,0,0
-525,680,0,0,0,0,0,0,0,0,0,-1,699,344,0,0
-518,680,0,0,0,0,0,0,0,0,0,-1,706,344,0,0
-511,680,0,0,0,0,0,0,0,0,0,-1,713,344,0,0
-504,680,0,0,0,0,0,0,0,0,0,-1,720,344,0,0
-497,680,0,0,0,0,0,0,0,0,0,-1,727,344,0,0
-490,680,0,0,0,0,0,0,0,0,0,-1,734,344,0,0
-483,680,0,0,0,0,0,0,0,0,0,-1,741,344,0,0
-476,680,0,0,0,0,0,0,0,0,0,-1,748,344,0,0
-469,680,0,0,0,0,0,0,0,0,0,-1,755,344,0,0
-462,680,0,0,0,0,0,0,0,0,0,-1,762,344,0,0
-455,680,0,0,0,0,0,0,0,0,0,-1,769,344,0,0
-448,680,0,0,0,0,0,0,0,0,0,-1,776,344,0,0
-441,680,0,0,0,0,0,0,0,0,0,-1,783,344,0,0
-434,680,0,0,0,0,0,0,0,0,0,-1,790,344,0,0
-427,680,0,0,0,0,0,0,0,0,0,-1,797,344,0,0
-420,680,0,0,0,0,0,0,0,0,0,-1,804,344,0,0
-413,680,0,0,0,0,0,0,0,0,0,-1,811,344,0,0
-406,680,0,0,0,0,0,0,0,0,0,-1,818,344,0,0
-399,680,0,0,0,0,0,0,0,0,0,-1,825,344,0,0
-392,680,0,0,0,0,0,0,0,0,0,-1,832,344,0,0
-385,680,0,0,0,0,0,0,0,0,0,-1,839,344,0,0
-378,680,0,0,0,0,0,0,0,0,0,-1,846,344,0,0
-371,680,0,0,0,0,0,0,0,0,0,-1,853,344,0,0
-364,680,0,0,0,0,0,0,0,0,0,-1,860,344,0,0
-357,680,0,0,0,0,0,0,0,0,0,-1,867,344,0,0
-350,680,0,0,0,0,0,0,0,0,0,-1,874,344,0,0
-343,680,0,0,0,0,0,0,0,0,0,-1,881,344,0,0
-336,680,0,0,0,0,0,0,0,0,0,-1,888,344,0,0
-329,680,0,0,0,0,0,0,0,0,0,-1,895,344,0,0
-322,680,0,0,0,0,0,0,0,0,0,-1,902,344,0,0
-315,680,0,0,0,0,0,0,0,0,0,-1,909,344,0,0
-308,680,0,0,0,0,0,0,0,0,0,-1,916,344,0,0
-301,680,0,0,0,0,0,0,0,0,0,-1,923,344,0,0
-294,680,0,0,0,0,0,0,0,0,0,-1,930,344,0,0
-287,680,0,0,0,0,0,0,0,0,0,-1,937,344,0,0
-280,680,0,0,0,0,0,0,0,0,0,-1,944,344,0,0
-273,680,0,0,0,0,0,0,0,0,0,-1,951,344,0,0
-266,680,0,0,0,0,0,0,0,0,0,-1,958,344,0,0
-259,680,0,0,0,0,0,0,0,0,0,-1,965,344,0,0
-252,680,0,0,0,0,0,0,0,0,0,-1,972,344,0,0
-245,680,0,0,0,0,0,0,0,0,0,-1,979,344,0,0
-238,680,0,0,0,0,0,0,0,0,0,-1,986,344,0,0
-231,680,0,0,0,0,0,0,0,0,0,-1,993,344,0,0
-224,680,0,0,0,0,0,0,0,0,0,-1,1000,344,0,0
-217,680,0,0,0,0,0,0,0,0,0,-1,1007,344,0,0
-210,680,0,0,0,0,0,0,0,0,0,-1,1014,344,0,0
-203,680,0,0,0,0,0,0,0,0,0,-1,1021,344,0,0
-196,680,0,0,0,0,0,0,0,0,0,-1,1028,344,0,0
-189,680,0,0,0,0,0,0,0,0,0,-1,1035,344,0,0
-182,680,0,0,0,0,0,0,0,0,0,-1,1042,344,0,0
-175,680,0,0,0,0,0,0,0,0,0,-1,1049,344,0,0
-168,680,0,0,0,0,0,0,0,0,0,-1,1056,344,0,0
-161,680,0,0,0,0,0,0,0,0,0,-1,1063,344,0,0
-154,680,2.25244,-29.1442,0,0,0,0,0,0,0,-1,1070,344,2.25241,29.1442
-147,680,9.29614,-33.0369,0,0,0,0,0,0,0,-1,1077,344,9.29612,33.0369
-140,680,8.07202,-32.6062,0,0,0,0,0,0,0,-1,1084,344,8.07199,32.6062
-133,680,7.69946,-37.1016,0,0,0,0,0,0,0,-1,1091,344,7.6995,37.1016
-126,680,7.58716,-35.439,0.0171547,-0.0153621,0.0977794,0.100018,-0.0982256,0.703014,0.114458,0.042562,1098,344,7.58714,35.439
-119,680,7.4646,-34.0222,0.0137112,-0.00835704,0.103781,0.107043,-0.101689,0.732436,0.120525,0.0450574,1105,344,7.46462,34.0222
-112,680,7.7467,-32.4407,0,0,0,0,0,0,0,-1,1112,344,7.74668,32.4407
-105,680,8.12,-27.7806,0,0,0,0,0,0,0,-1,1119,344,8.12,27.7806
-98,680,14.1224,-39.1392,0,0,0,0,0,0,0,-1,1126,344,14.1225,39.1392
-91,680,8.3208,-33.7806,0,0,0,0,0,0,0,-1,1133,344,8.32075,33.7806
-84,680,1.82312,-29.4396,0,0,0,0,0,0,0,-1,1140,344,1.82314,29.4396
-77,680,-4.53333,-23.1014,0,0,0,0,0,0,0,-1,1147,344,-4.53331,23.1014
-70,680,-10.91,-16.7621,0,0,0,0,0,0,0,-1,1154,344,-10.91,16.7621
-63,680,-17.2391,-1.43134,0,0,0,0,0,0,0,-1,1161,344,-17.2392,1.43133
-56,680,-6.96912,-8.83356,0,0,0,0,0,0,0,-1,1168,344,-6.96907,8.83354
-49,680,-6.7677,-2.24063,0,0,0,0,0,0,0,-1,1175,344,-6.76772,2.24063
-42,680,-1.02368,0.618805,0,0,0,0,0,0,0,-1,1182,344,-1.0237,-0.618797
-35,680,-0.947876,-0.942719,0,0,0,0,0,0,0,-1,1189,344,-0.947842,0.942731
-28,680,-1.46118,-1.10574,0,0,0,0,0,0,0,-1,1196,344,-1.4612,1.10575
-21,680,5.34058,-36.0836,0,0,0,0,0,0,0,-1,1203,344,5.34052,36.0836
-14,680,5.32458,-36.2778,0.0178828,0.0571767,0.0251277,0.0694265,0.00563304,1.1172,0.0445256,0.0456681,1210,344,5.32462,36.2778
-7,680,5.20471,-36.3443,0.0260883,0.0584999,0.0299665,0.076362,0.00822623,1.03327,0.0483995,0.0471592,1217,344,5.20477,36.3443
0,680,5.1731,-36.4464,0,0,0,0,0,0,0,-1,1224,344,5.17307,36.4463
7,680,4.99182,-37.2561,0,0,0,0,0,0,0,-1,1231,344,4.99181,37.2561
14,680,5.15979,-37.3027,0.0414677,0.0583285,0.0393375,0.0901288,0.0096674,0.890956,0.0571367,0.0424927,1238,344,5.15976,37.3027
21,680,5.31299,-37.4328,0.044202,0.0575287,0.0415724,0.0929684,0.00876231,0.864864,0.0592744,0.0493196,1245,344,5.31296,37.4328
28,680,5.41968,-37.5453,0,0,0,0,0,0,0,-1,1252,344,5.41973,37.5453
35,680,5.33582,-37.5498,0,0,0,0,0,0,0,-1,1259,344,5.33587,37.5498
42,680,4.80225,-37.6275,0.0426439,0.0645657,0.0469497,0.101817,0.00539265,0.900074,0.0661537,0.0462017,1266,344,4.80222,37.6275
49,680,4.80164,-37.925,0.0397844,0.0715178,0.0489469,0.107105,0.00419673,0.942135,0.0700466,0.040859,1273,344,4.80169,37.925
56,680,4.94727,-37.8537,0.0351142,0.0824139,0.0503263,0.11437,0.00315788,1.00505,0.0752163,0.0416512,1280,344,4.94721,37.8537
63,680,4.98389,-37.7789,0,0,0,0,0,0,0,-1,1287,344,4.98385,37.7789
70,680,4.77686,-37.5897,0.0236696,0.108602,0.0523162,0.133518,-0.0012464,1.12632,0.0894303,0.0386481,1294,344,4.77682,37.5897
77,680,4.52502,-36.6673,0.018698,0.120974,0.0533012,0.143702,-0.00402952,1.16774,0.0971721,0.04372,1301,344,4.52498,36.6673
84,680,4.63135,-36.1845,0.0136773,0.13385,0.053746,0.15438,-0.00685276,1.20592,0.105279,0.0437056,1308,344,4.63129,36.1845
91,680,4.74634,-35.8068,0.0090729,0.145303,0.053892,0.164044,-0.00966831,1.23612,0.112724,0.0455893,1315,344,4.7463,35.8068
98,680,4.80786,-35.4673,0.00513057,0.155243,0.0539698,0.172632,-0.0122588,1.25909,0.119384,0.0476201,1322,344,4.8079,35.4673
105,680,4.84778,-35.1395,0.00249765,0.162025,0.0533345,0.178214,-0.0136908,1.27611,0.123626,0.0421955,1329,344,4.84783,35.1395
112,680,4.79016,-34.8822,0,0,0,0,0,0,0,-1,1336,344,4.7902,34.8822
119,680,4.77771,-34.3715,0,0,0,0,0,0,0,-1,1343,344,4.77765,34.3715
126,680,4.89404,-33.845,0,0,0,0,0,0,0,-1,1350,344,4.89399,33.845
133,680,4.71814,-36.0021,-0.00892641,0.160319,0.0417741,0.170068,-0.0186757,1.34152,0.120089,0.0459855,1357,344,4.71813,36.0021
140,680,4.56531,-36.0357,-0.0114599,0.154813,0.0376989,0.162961,-0.019608,1.35793,0.115732,0.0472897,1364,344,4.56534,36.0357
147,680,3.81689,-35.9163,0,0,0,0,0,0,0,-1,1371,344,3.81691,35.9163
154,680,3.76392,-35.4603,0,0,0,0,0,0,0,-1,1378,344,3.76386,35.4603
161,680,3.71082,-35.0044,0,0,0,0,0,0,0,-1,1385,344,3.71081,35.0044
168,680,29.4142,-2.51651,0,0,0,0,0,0,0,-1,1392,344,29.4142,2.51652
175,680,6.66541,0.942078,0,0,0,0,0,0,0,-1,1399,344,6.66538,-0.942088
182,680,6.52917,0.532379,0,0,0,0,0,0,0,-1,1406,344,6.52922,-0.532385
189,680,7.55884,4.77695,0,0,0,0,0,0,0,-1,1413,344,7.55886,-4.77694
196,680,6.55627,3.35254,0,0,0,0,0,0,0,-1,1420,344,6.55622,-3.35255
203,680,5.7334,1.90753,0,0,0,0,0,0,0,-1,1427,344,5.73341,-1.90754
210,680,5.27515,0.493622,0,0,0,0,0,0,0,-1,1434,344,5.27514,-0.493632
217,680,6.56384,-0.374176,0,0,0,0,0,0,0,-1,1441,344,6.56379,0.374176
224,680,3.9491,-0.640228,0,0,0,0,0,0,0,-1,1448,344,3.94908,0.64024
231,680,4.24866,-1.96881,0,0,0,0,0,0,0,-1,1455,344,4.2486,1.96882
238,680,4.29333,-3.23984,0,0,0,0,0,0,0,-1,1462,344,4.29332,3.23984
245,680,2.44397,0.985382,0,0,0,0,0,0,0,-1,1469,344,2.44402,-0.985394
252,680,3.07349,2.18951,0,0,0,0,0,0,0,-1,1476,344,3.0735,-2.18952
259,680,2.82971,1.30682,0,0,0,0,0,0,0,-1,1483,344,2.82972,-1.30684
266,680,2.67554,1.44067,0,0,0,0,0,0,0,-1,1490,344,2.67551,-1.44066
273,680,2.46411,1.54666,0,0,0,0,0,0,0,-1,1497,344,2.46407,-1.54666
280,680,0,0,0,0,0,0,0,0,0,-1,1504,344,0,0
287,680,0,0,0,0,0,0,0,0,0,-1,1511,344,0,0
294,680,0,0,0,0,0,0,0,0,0,-1,1518,344,0,0
301,680,0,0,0,0,0,0,0,0,0,-1,1525,344,0,0
308,680,0,0,0,0,0,0,0,0,0,-1,1532,344,0,0
315,680,0,0,0,0,0,0,0,0,0,-1,1539,344,0,0
322,680,0,0,0,0,0,0,0,0,0,-1,1546,344,0,0
329,680,0,0,0,0,0,0,0,0,0,-1,1553,344,0,0
336,680,0,0,0,0,0,0,0,0,0,-1,1560,344,0,0
343,680,0,0,0,0,0,0,0,0,0,-1,1567,344,0,0
350,680,0,0,0,0,0,0,0,0,0,-1,1574,344,0,0
357,680,0,0,0,0,0,0,0,0,0,-1,1581,344,0,0
364,680,0,0,0,0,0,0,0,0,0,-1,1588,344,0,0
371,680,0,0,0,0,0,0,0,0,0,-1,1595,344,0,0
378,680,0,0,0,0,0,0,0,0,0,-1,1602,344,0,0
385,680,0,0,0,0,0,0,0,0,0,-1,1609,344,0,0
392,680,0,0,0,0,0,0,0,0,0,-1,1616,344,0,0
399,680,0,0,0,0,0,0,0,0,0,-1,1623,344,0,0
406,680,0,0,0,0,0,0,0,0,0,-1,1630,344,0,0
413,680,0,0,0,0,0,0,0,0,0,-1,1637,344,0,0
420,680,0,0,0,0,0,0,0,0,0,-1,1644,344,0,0
427,680,0,0,0,0,0,0,0,0,0,-1,1651,344,0,0
434,680,0,0,0,0,0,0,0,0,0,-1,1658,344,0,0
441,680,0,0,0,0,0,0,0,0,0,-1,1665,344,0,0
448,680,0,0,0,0,0,0,0,0,0,-1,1672,344,0,0
455,680,0,0,0,0,0,0,0,0,0,-1,1679,344,0,0
462,680,0,0,0,0,0,0,0,0,0,-1,1686,344,0,0
469,680,0,0,0,0,0,0,0,0,0,-1,1693,344,0,0
476,680,0,0,0,0,0,0,0,0,0,-1,1700,344,0,0
483,680,0,0,0,0,0,0,0,0,0,-1,1707,344,0,0
490,680,0,0,0,0,0,0,0,0,0,-1,1714,344,0,0
497,680,0,0,0,0,0,0,0,0,0,-1,1721,344,0,0
504,680,0,0,0,0,0,0,0,0,0,-1,1728,344,0,0
511,680,0,0,0,0,0,0,0,0,0,-1,1735,344,0,0
518,680,0,0,0,0,0,0,0,0,0,-1,1742,344,0,0
525,680,0,0,0,0,0,0,0,0,0,-1,1749,344,0,0
532,680,0,0,0,0,0,0,0,0,0,-1,1756,344,0,0
539,680,0,0,0,0,0,0,0,0,0,-1,1763,344,0,0
546,680,0,0,0,0,0,0,0,0,0,-1,1770,344,0,0
553,680,0,0,0,0,0,0,0,0,0,-1,1777,344,0,0
560,680,0,0,0,0,0,0,0,0,0,-1,1784,344,0,0
567,680,0,0,0,0,0,0,0,0,0,-1,1791,344,0,0
574,680,0,0,0,0,0,0,0,0,0,-1,1798,344,0,0
581,680,0,0,0,0,0,0,0,0,0,-1,1805,344,0,0
588,680,0,0,0,0,0,0,0,0,0,-1,1812,344,0,0
595,680,0,0,0,0,0,0,0,0,0,-1,1819,344,0,0
602,680,0,0,0,0,0,0,0,0,0,-1,1826,344,0,0
609,680,0,0,0,0,0,0,0,0,0,-1,1833,344,0,0
616,680,0,0,0,0,0,0,0,0,0,-1,1840,344,0,0
623,680,0,0,0,0,0,0,0,0,0,-1,1847,344,0,0
630,680,0,0,0,0,0,0,0,0,0,-1,1854,344,0,0
637,680,0,0,0,0,0,0,0,0,0,-1,1861,344,0,0
644,680,0,0,0,0,0,0,0,0,0,-1,1868,344,0,0
651,680,0,0,0,0,0,0,0,0,0,-1,1875,344,0,0
658,680,0,0,0,0,0,0,0,0,0,-1,1882,344,0,0
665,680,0,0,0,0,0,0,0,0,0,-1,1889,344,0,0
672,680,0,0,0,0,0,0,0,0,0,-1,1896,344,0,0
679,680,0,0,0,0,0,0,0,0,0,-1,1903,344,0,0
686,680,0,0,0,0,0,0,0,0,0,-1,1910,344,0,0
693,680,0,0,0,0,0,0,0,0,0,-1,1917,344,0,0
700,680,0,0,0,0,0,0,0,0,0,-1,1924,344,0,0
707,680,0,0,0,0,0,0,0,0,0,-1,1931,344,0,0
714,680,0,0,0,0,0,0,0,0,0,-1,1938,344,0,0
721,680,0,0,0,0,0,0,0,0,0,-1,1945,344,0,0
728,680,0,0,0,0,0,0,0,0,0,-1,1952,344,0,0
735,680,0,0,0,0,0,0,0,0,0,-1,1959,344,0,0
742,680,0,0,0,0,0,0,0,0,0,-1,1966,344,0,0
749,680,0,0,0,0,0,0,0,0,0,-1,1973,344,0,0
756,680,0,0,0,0,0,0,0,0,0,-1,1980,344,0,0
763,680,0,0,0,0,0,0,0,0,0,-1,1987,344,0,0
770,680,0,0,0,0,0,0,0,0,0,-1,1994,344,0,0
777,680,0,0,0,0,0,0,0,0,0,-1,2001,344,0,0
784,680,0,0,0,0,0,0,0,0,0,-1,2008,344,0,0
791,680,0,0,0,0,0,0,0,0,0,-1,2015,344,0,0
798,680,0,0,0,0,0,0,0,0,0,-1,2022,344,0,0
805,680,0,0,0,0,0,0,0,0,0,-1,2029,344,0,0
812,680,0,0,0,0,0,0,0,0,0,-1,2036,344,0,0
-700,673,0,0,0,0,0,0,0,0,0,-1,524,351,0,0
-693,673,0,0,0,0,0,0,0,0,0,-1,531,351,0,0
-686,673,0,0,0,0,0,0,0,0,0,-1,538,351,0,0
-679,673,0,0,0,0,0,0,0,0,0,-1,545,351,0,0
-672,673,0,0,0,0,0,0,0,0,0,-1,552,351,0,0
-665,673,0,0,0,0,0,0,0,0,0,-1,559,351,0,0
-658,673,0,0,0,0,0,0,0,0,0,-1,566,351,0,0
-651,673,0,0,0,0,0,0,0,0,0,-1,573,351,0,0
-644,673,0,0,0,0,0,0,0,0,0,-1,580,351,0,0
-637,673,0,0,0,0,0,0,0,0,0,-1,587,351,0,0
-630,673,0,0,0,0,0,0,0,0,0,-1,594,351,0,0
-623,673,0,0,0,0,0,0,0,0,0,-1,601,351,0,0
-616,673,0,0,0,0,0,0,0,0,0,-1,608,351,0,0
-609,673,0,0,0,0,0,0,0,0,0,-1,615,351,0,0
-602,673,0,0,0,0,0,0,0,0,0,-1,622,351,0,0
-595,673,0,0,0,0,0,0,0,0,0,-1,629,351,0,0
-588,673,0,0,0,0,0,0,0,0,0,-1,636,351,0,0
-581,673,0,0,0,0,0,0,0,0,0,-1,643,351,0,0
-574,673,0,0,0,0,0,0,0,0,0,-1,650,351,0,0
-567,673,0,0,0,0,0,0,0,0,0,-1,657,351,0,0
-560,673,0,0,0,0,0,0,0,0,0,-1,664,351,0,0
-553,673,0,0,0,0,0,0,0,0,0,-1,671,351,0,0
-546,673,0,0,0,0,0,0,0,0,0,-1,678,351,0,0
-539,673,0,0,0,0,0,0,0,0,0,-1,685,351,0,0
-532,673,0,0,0,0,0,0,0,0,0,-1,692,351,0,0
-525,673,0,0,0,0,0,0,0,0,0,-1,699,351,0,0
-518,673,0,0,0,0,0,0,0,0,0,-1,706,351,0,0
-511,673,0,0,0,0,0,0,0,0,0,-1,713,351,0,0
-504,673,0,0,0,0,0,0,0,0,0,-1,720,351,0,0
-497,673,0,0,0,0,0,0,0,0,0,-1,727,351,0,0
-490,673,0,0,0,0,0,0,0,0,0,-1,734,351,0,0
-483,673,0,0,0,0,0,0,0,0,0,-1,741,351,0,0
-476,673,0,0,0,0,0,0,0,0,0,-1,748,351,0,0
-469,673,0,0,0,0,0,0,0,0,0,-1,755,351,0,0
-462,673,0,0,0,0,0,0,0,0,0,-1,762,351,0,0
-455,673,0,0,0,0,0,0,0,0,0,-1,769,351,0,0
-448,673,0,0,0,0,0,0,0,0,0,-1,776,351,0,0
-441,673,0,0,0,0,0,0,0,0,0,-1,783,351,0,0
-434,673,0,0,0,0,0,0,0,0,0,-1,790,351,0,0
-427,673,0,0,0,0,0,0,0,0,0,-1,797,351,0,0
-420,673,0,0,0,0,0,0,0,0,0,-1,804,351,0,0
-413,673,0,0,0,0,0,0,0,0,0,-1,811,351,0,0
-406,673,0,0,0,0,0,0,0,0,0,-1,818,351,0,0
-399,673,0,0,0,0,0,0,0,0,0,-1,825,351,0,0
-392,673,0,0,0,0,0,0,0,0,0,-1,832,351,0,0
-385,673,0,0,0,0,0,0,0,0,0,-1,839,351,0,0
-378,673,0,0,0,0,0,0,0,0,0,-1,846,351,0,0
-371,673,0,0,0,0,0,0,0,0,0,-1,853,351,0,0
-364,673,0,0,0,0,0,0,0,0,0,-1,860,351,0,0
-357,673,0,0,0,0,0,0,0,0,0,-1,867,351,0,0
-350,673,0,0,0,0,0,0,0,0,0,-1,874,351,0,0
-343,673,0,0,0,0,0,0,0,0,0,-1,881,351,0,0
-336,673,0,0,0,0,0,0,0,0,0,-1,888,351,0,0
-329,673,0,0,0,0,0,0,0,0,0,-1,895,351,0,0
-322,673,0,0,0,0,0,0,0,0,0,-1,902,351,0,0
-315,673,0,0,0,0,0,0,0,0,0,-1,909,351,0,0
-308,673,0,0,0,0,0,0,0,0,0,-1,916,351,0,0
-301,673,0,0,0,0,0,0,0,0,0,-1,923,351,0,0
-294,673,0,0,0,0,0,0,0,0,0,-1,930,351,0,0
-287,673,0,0,0,0,0,0,0,0,0,-1,937,351,0,0
-280,673,0,0,0,0,0,0,0,0,0,-1,944,351,0,0
-273,673,0,0,0,0,0,0,0,0,0,-1,951,351,0,0
-266,673,0,0,0,0,0,0,0,0,0,-1,958,351,0,0
-259,673,0,0,0,0,0,0,0,0,0,-1,965,351,0,0
-252,673,0,0,0,0,0,0,0,0,0,-1,972,351,0,0
-245,673,0,0,0,0,0,0,0,0,0,-1,979,351,0,0
-238,673,0,0,0,0,0,0,0,0,0,-1,986,351,0,0
-231,673,0,0,0,0,0,0,0,0,0,-1,993,351,0,0
-224,673,0,0,0,0,0,0,0,0,0,-1,1000,351,0,0
-217,673,0,0,0,0,0,0,0,0,0,-1,1007,351,0,0
-210,673,0,0,0,0,0,0,0,0,0,-1,1014,351,0,0
-203,673,0,0,0,0,0,0,0,0,0,-1,1021,351,0,0
-196,673,0,0,0,0,0,0,0,0,0,-1,1028,351,0,0
-189,673,0,0,0,0,0,0,0,0,0,-1,1035,351,0,0
-182,673,0,0,0,0,0,0,0,0,0,-1,1042,351,0,0
-175,673,9.33264,-32.7477,0,0,0,0,0,0,0,-1,1049,351,9.3327,32.7477
-168,673,9.9248,-33.8084,0,0,0,0,0,0,0,-1,1056,351,9.92476,33.8084
-161,673,3.83179,-32.918,0,0,0,0,0,0,0,-1,1063,351,3.83178,32.918
-154,673,6.04431,-32.6277,0,0,0,0,0,0,0,-1,1070,351,6.04435,32.6278
-147,673,5.61096,-30.1121,0,0,0,0,0,0,0,-1,1077,351,5.61101,30.1121
-140,673,8.06702,-32.7234,0,0,0,0,0,0,0,-1,1084,351,8.06698,32.7234
-133,673,6.7699,-31.9966,0,0,0,0,0,0,0,-1,1091,351,6.76984,31.9966
-126,673,6.68921,-35.4545,0,0,0,0,0,0,0,-1,1098,351,6.68918,35.4545
-119,673,6.98071,-34.0173,0,0,0,0,0,0,0,-1,1105,351,6.98074,34.0173
-112,673,7.27234,-32.5801,0,0,0,0,0,0,0,-1,1112,351,7.27231,32.5801
-105,673,6.17139,-28.5951,0,0,0,0,0,0,0,-1,1119,351,6.17133,28.5951
-98,673,14.6038,-34.1646,0,0,0,0,0,0,0,-1,1126,351,14.6038,34.1646
-91,673,8.68872,-31.1782,0,0,0,0,0,0,0,-1,1133,351,8.68868,31.1781
-84,673,2.53418,-25.4857,0,0,0,0,0,0,0,-1,1140,351,2.53421,25.4857
-77,673,-3.77112,-19.5626,0,0,0,0,0,0,0,-1,1147,351,-3.77116,19.5625
-70,673,-10.0929,-13.4835,0,0,0,0,0,0,0,-1,1154,351,-10.0929,13.4835
-63,673,-16.5951,-7.37228,0,0,0,0,0,0,0,-1,1161,351,-16.595,7.37228
-56,673,-18.0282,2.79053,0,0,0,0,0,0,0,-1,1168,351,-18.0283,-2.79052
-49,673,-0.926758,-0.115448,0,0,0,0,0,0,0,-1,1175,351,-0.926732,0.115444
-42,673,-1.15015,0.289917,0,0,0,0,0,0,0,-1,1182,351,-1.15017,-0.289932
-35,673,-0.919556,-1.00711,0,0,0,0,0,0,0,-1,1189,351,-0.919514,1.00711
-28,673,3.19104,-25.0986,0,0,0,0,0,0,0,-1,1196,351,3.19099,25.0986
-21,673,5.5625,-36.9817,0,0,0,0,0,0,0,-1,1203,351,5.56245,36.9817
-14,673,5.32263,-36.7923,0.00889299,0.0435366,0.0147544,0.0489687,0.00346094,1.21803,0.0315555,0.0439841,1210,351,5.32257,36.7923
-7,673,5.32605,-36.9879,0.0146772,0.0446521,0.018208,0.0532476,0.00608169,1.12974,0.0336548,0.0443029,1217,351,5.32604,36.9879
0,673,5.43628,-37.4026,0,0,0,0,0,0,0,-1,1224,351,5.43634,37.4026
7,673,5.36279,-37.4466,0,0,0,0,0,0,0,-1,1231,351,5.3628,37.4466
14,673,5.34338,-37.4569,0.0258717,0.0444875,0.0251943,0.0620383,0.00832088,0.962344,0.0388831,0.0422894,1238,351,5.34339,37.4569
21,673,5.2561,-37.6623,0.0279801,0.0439421,0.027102,0.0642138,0.00770839,0.928591,0.0404851,0.031683,1245,351,5.25612,37.6623
28,673,5.25537,-37.7457,0.0284781,0.0443016,0.0287345,0.0661937,0.00658599,0.919739,0.0421058,0.0235395,1252,351,5.25534,37.7457
35,673,5.19727,-37.7496,0.0282432,0.0467286,0.0301482,0.069019,0.00595273,0.934137,0.0441624,0.0329227,1259,351,5.1973,37.7496
42,673,4.99963,-37.7583,0.0276652,0.0504878,0.0320432,0.073091,0.00506203,0.956457,0.0471307,0.0336155,1266,351,4.9996,37.7583
49,673,4.92834,-37.8203,0.0258288,0.0562756,0.0339684,0.0782759,0.00382845,0.996061,0.0509558,0.0183564,1273,351,4.9283,37.8203
56,673,4.92688,-37.8,0.0226837,0.0651296,0.0354023,0.085183,0.00263033,1.05542,0.0559325,0.0152672,1280,351,4.92685,37.8
63,673,5.00452,-37.6212,0.0191314,0.0763016,0.0370025,0.0944743,0.000958707,1.11428,0.0626658,0.0198609,1287,351,5.00454,37.6212
70,673,4.90613,-37.5288,0.0149423,0.086238,0.0380117,0.102702,-0.00152184,1.16206,0.068981,0.0311736,1294,351,4.90614,37.5288
77,673,4.729,-37.3294,0.011696,0.0959838,0.0392239,0.111413,-0.00373284,1.19603,0.0755501,0.0390319,1301,351,4.72898,37.3294
84,673,4.69263,-37.5999,0.00844325,0.10569,0.0399362,0.119989,-0.00585493,1.22699,0.0820137,0.0450682,1308,351,4.69264,37.5999
91,673,4.7605,-37.8355,0,0,0,0,0,0,0,-1,1315,351,4.76051,37.8355
98,673,4.51013,-37.7504,0,0,0,0,0,0,0,-1,1322,351,4.51017,37.7504
105,673,4.51611,-36.4766,0,0,0,0,0,0,0,-1,1329,351,4.51608,36.4766
112,673,4.47437,-36.8334,0,0,0,0,0,0,0,-1,1336,351,4.4744,36.8334
119,673,4.44556,-35.9114,0,0,0,0,0,0,0,-1,1343,351,4.44551,35.9114
126,673,3.95166,-37.0216,-0.00482492,0.125238,0.0346804,0.133907,-0.0134944,1.32584,0.0940926,0.0452331,1350,351,3.95168,37.0216
133,673,4.47156,-36.5412,-0.00633508,0.120996,0.0317875,0.12849,-0.0138296,1.33926,0.0906223,0.0465649,1357,351,4.4716,36.5412
140,673,4.34802,-36.5442,-0.0081675,0.115353,0.028647,0.121674,-0.0144879,1.35364,0.0863511,0.045066,1364,351,4.34797,36.5442
147,673,3.98889,-36.3998,-0.00965032,0.1077,0.0252791,0.112914,-0.0148642,1.3674,0.0806884,0.0420518,1371,351,3.98884,36.3999
154,673,3.93799,-36.0454,-0.010653,0.0976005,0.0216317,0.101763,-0.0148155,1.38069,0.0732814,0.0393652,1378,351,3.93803,36.0454
161,673,3.92175,-35.6722,0,0,0,0,0,0,0,-1,1385,351,3.92179,35.6722
168,673,6.87061,1.83954,0,0,0,0,0,0,0,-1,1392,351,6.87063,-1.83953
175,673,6.6228,1.1459,0,0,0,0,0,0,0,-1,1399,351,6.62276,-1.14591
182,673,6.37244,0.796112,0,0,0,0,0,0,0,-1,1406,351,6.3724,-0.796102
189,673,6.12097,0.265472,0,0,0,0,0,0,0,-1,1413,351,6.121,-0.265482
196,673,6.02173,3.12717,0,0,0,0,0,0,0,-1,1420,351,6.02176,-3.12717
203,673,5.04456,1.6351,0,0,0,0,0,0,0,-1,1427,351,5.04455,-1.63509
210,673,4.79224,0.447479,0,0,0,0,0,0,0,-1,1434,351,4.79229,-0.447469
217,673,2.01648,0.972687,0,0,0,0,0,0,0,-1,1441,351,2.01644,-0.972691
224,673,2.3689,-1.80539,0,0,0,0,0,0,0,-1,1448,351,2.36896,1.80539
231,673,2.65857,-2.18497,0,0,0,0,0,0,0,-1,1455,351,2.65852,2.18496
238,673,3.77844,-2.06088,0,0,0,0,0,0,0,-1,1462,351,3.77839,2.06088
245,673,3.5376,-0.190399,0,0,0,0,0,0,0,-1,1469,351,3.53759,0.1904
252,673,3.80518,0.55603,0,0,0,0,0,0,0,-1,1476,351,3.80519,-0.556022
259,673,3.88562,1.29617,0,0,0,0,0,0,0,-1,1483,351,3.88562,-1.29618
266,673,4.22424,2.04834,0,0,0,0,0,0,0,-1,1490,351,4.22429,-2.04834
273,673,6.07886,0.385895,0,0,0,0,0,0,0,-1,1497,351,6.0789,-0.385906
280,673,6.97534,-0.0820007,0,0,0,0,0,0,0,-1,1504,351,6.97536,0.0820122
287,673,7.66968,-0.348541,0,0,0,0,0,0,0,-1,1511,351,7.66969,0.348534
294,673,8.20996,0.28537,0,0,0,0,0,0,0,-1,1518,351,8.20993,-0.28536
301,673,0,0,0,0,0,0,0,0,0,-1,1525,351,0,0
308,673,0,0,0,0,0,0,0,0,0,-1,1532,351,0,0
315,673,0,0,0,0,0,0,0,0,0,-1,1539,351,0,0
322,673,0,0,0,0,0,0,0,0,0,-1,1546,351,0,0
329,673,0,0,0,0,0,0,0,0,0,-1,1553,351,0,0
336,673,0,0,0,0,0,0,0,0,0,-1,1560,351,0,0
343,673,0,0,0,0,0,0,0,0,0,-1,1567,351,0,0
350,673,0,0,0,0,0,0,0,0,0,-1,1574,351,0,0
357,673,0,0,0,0,0,0,0,0,0,-1,1581,351,0,0
364,673,0,0,0,0,0,0,0,0,0,-1,1588,351,0,0
371,673,0,0,0,0,0,0,0,0,0,-1,1595,351,0,0
378,673,0,0,0,0,0,0,0,0,0,-1,1602,351,0,0
385,673,0,0,0,0,0,0,0,0,0,-1,1609,351,0,0
392,673,0,0,0,0,0,0,0,0,0,-1,1616,351,0,0
399,673,0,0,0,0,0,0,0,0,0,-1,1623,351,0,0
406,673,0,0,0,0,0,0,0,0,0,-1,1630,351,0,0
413,673,0,0,0,0,0,0,0,0,0,-1,1637,351,0,0
420,673,0,0,0,0,0,0,0,0,0,-1,1644,351,0,0
427,673,0,0,0,0,0,0,0,0,0,-1,1651,351,0,0
434,673,0,0,0,0,0,0,0,0,0,-1,1658,351,0,0
441,673,0,0,0,0,0,0,0,0,0,-1,1665,351,0,0
448,673,0,0,0,0,0,0,0,0,0,-1,1672,351,0,0
455,673,0,0,0,0,0,0,0,0,0,-1,1679,351,0,0
462,673,0,0,0,0,0,0,0,0,0,-1,1686,351,0,0
469,673,0,0,0,0,0,0,0,0,0,-1,1693,351,0,0
476,673,0,0,0,0,0,0,0,0,0,-1,1700,351,0,0
483,673,0,0,0,0,0,0,0,0,0,-1,1707,351,0,0
490,673,0,0,0,0,0,0,0,0,0,-1,1714,351,0,0
497,673,0,0,0,0,0,0,0,0,0,-1,1721,351,0,0
504,673,0,0,0,0,0,0,0,0,0,-1,1728,351,0,0
511,673,0,0,0,0,0,0,0,0,0,-1,1735,351,0,0
518,673,0,0,0,0,0,0,0,0,0,-1,1742,351,0,0
525,673,0,0,0,0,0,0,0,0,0,-1,1749,351,0,0
532,673,0,0,0,0,0,0,0,0,0,-1,1756,351,0,0
539,673,0,0,0,0,0,0,0,0,0,-1,1763,351,0,0
546,673,0,0,0,0,0,0,0,0,0,-1,1770,351,0,0
553,673,0,0,0,0,0,0,0,0,0,-1,1777,351,0,0
560,673,0,0,0,0,0,0,0,0,0,-1,1784,351,0,0
567,673,0,0,0,0,0,0,0,0,0,-1,1791,351,0,0
574,673,0,0,0,0,0,0,0,0,0,-1,1798,351,0,0
581,673,0,0,0,0,0,0,0,0,0,-1,1805,351,0,0
588,673,0,0,0,0,0,0,0,0,0,-1,1812,351,0,0
595,673,0,0,0,0,0,0,0,0,0,-1,1819,351,0,0
602,673,0,0,0,0,0,0,0,0,0,-1,1826,351,0,0
609,673,0,0,0,0,0,0,0,0,0,-1,1833,351,0,0
616,673,0,0,0,0,0,0,0,0,0,-1,1840,351,0,0
623,673,0,0,0,0,0,0,0,0,0,-1,1847,351,0,0
630,673,0,0,0,0,0,0,0,0,0,-1,1854,351,0,0
637,673,0,0,0,0,0,0,0,0,0,-1,1861,351,0,0
644,673,0,0,0,0,0,0,0,0,0,-1,1868,351,0,0
651,673,0,0,0,0,0,0,0,0,0,-1,1875,351,0,0
658,673,0,0,0,0,0,0,0,0,0,-1,1882,351,0,0
665,673,0,0,0,0,0,0,0,0,0,-1,1889,351,0,0
672,673,0,0,0,0,0,0,0,0,0,-1,1896,351,0,0
679,673,0,0,0,0,0,0,0,0,0,-1,1903,351,0,0
686,673,0,0,0,0,0,0,0,0,0,-1,1910,351,0,0
693,673,0,0,0,0,0,0,0,0,0,-1,1917,351,0,0
700,673,0,0,0,0,0,0,0,0,0,-1,1924,351,0,0
707,673,0,0,0,0,0,0,0,0,0,-1,1931,351,0,0
714,673,0,0,0,0,0,0,0,0,0,-1,1938,351,0,0
721,673,0,0,0,0,0,0,0,0,0,-1,1945,351,0,0
728,673,0,0,0,0,0,0,0,0,0,-1,1952,351,0,0
735,673,0,0,0,0,0,0,0,0,0,-1,1959,351,0,0
742,673,0,0,0,0,0,0,0,0,0,-1,1966,351,0,0
749,673,0,0,0,0,0,0,0,0,0,-1,1973,351,0,0
756,673,0,0,0,0,0,0,0,0,0,-1,1980,351,0,0
763,673,0,0,0,0,0,0,0,0,0,-1,1987,351,0,0
770,673,0,0,0,0,0,0,0,0,0,-1,1994,351,0,0
777,673,0,0,0,0,0,0,0,0,0,-1,2001,351,0,0
784,673,0,0,0,0,0,0,0,0,0,-1,2008,351,0,0
791,673,0,0,0,0,0,0,0,0,0,-1,2015,351,0,0
798,673,0,0,0,0,0,0,0,0,0,-1,2022,351,0,0
805,673,0,0,0,0,0,0,0,0,0,-1,2029,351,0,0
812,673,0,0,0,0,0,0,0,0,0,-1,2036,351,0,0
-700,666,0,0,0,0,0,0,0,0,0,-1,524,358,0,0
-693,666,0,0,0,0,0,0,0,0,0,-1,531,358,0,0
-686,666,0,0,0,0,0,0,0,0,0,-1,538,358,0,0
-679,666,0,0,0,0,0,0,0,0,0,-1,545,358,0,0
-672,666,0,0,0,0,0,0,0,0,0,-1,552,358,0,0
-665,666,0,0,0,0,0,0,0,0,0,-1,559,358,0,0
-658,666,0,0,0,0,0,0,0,0,0,-1,566,358,0,0
-651,666,0,0,0,0,0,0,0,0,0,-1,573,358,0,0
-644,666,0,0,0,0,0,0,0,0,0,-1,580,358,0,0
-637,666,0,0,0,0,0,0,0,0,0,-1,587,358,0,0
-630,666,0,0,0,0,0,0,0,0,0,-1,594,358,0,0
-623,666,0,0,0,0,0,0,0,0,0,-1,601,358,0,0
-616,666,0,0,0,0,0,0,0,0,0,-1,608,358,0,0
-609,666,0,0,0,0,0,0,0,0,0,-1,615,358,0,0
-602,666,0,0,0,0,0,0,0,0,0,-1,622,358,0,0
-595,666,0,0,0,0,0,0,0,0,0,-1,629,358,0,0
-588,666,0,0,0,0,0,0,0,0,0,-1,636,358,0,0
-581,666,0,0,0,0,0,0,0,0,0,-1,643,358,0,0
-574,666,0,0,0,0,0,0,0,0,0,-1,650,358,0,0
-567,666,0,0,0,0,0,0,0,0,0,-1,657,358,0,0
-560,666,0,0,0,0,0,0,0,0,0,-1,664,358,0,0
-553,666,0,0,0,0,0,0,0,0,0,-1,671,358,0,0
-546,666,0,0,0,0,0,0,0,0,0,-1,678,358,0,0
-539,666,0,0,0,0,0,0,0,0,0,-1,685,358,0,0
-532,666,0,0,0,0,0,0,0,0,0,-1,692,358,0,0
-525,666,0,0,0,0,0,0,0,0,0,-1,699,358,0,0
-518,666,0,0,0,0,0,0,0,0,0,-1,706,358,0,0
-511,666,0,0,0,0,0,0,0,0,0,-1,713,358,0,0
-504,666,0,0,0,0,0,0,0,0,0,-1,720,358,0,0
-497,666,0,0,0,0,0,0,0,0,0,-1,727,358,0,0
-490,666,0,0,0,0,0,0,0,0,0,-1,734,358,0,0
-483,666,0,0,0,0,0,0,0,0,0,-1,741,358,0,0
-476,666,0,0,0,0,0,0,0,0,0,-1,748,358,0,0
-469,666,0,0,0,0,0,0,0,0,0,-1,755,358,0,0
-462,666,0,0,0,0,0,0,0,0,0,-1,762,358,0,0
-455,666,0,0,0,0,0,0,0,0,0,-1,769,358,0,0
-448,666,0,0,0,0,0,0,0,0,0,-1,776,358,0,0
-441,666,0,0,0,0,0,0,0,0,0,-1,783,358,0,0
-434,666,0,0,0,0,0,0,0,0,0,-1,790,358,0,0
-427,666,0,0,0,0,0,0,0,0,0,-1,797,358,0,0
-420,666,0,0,0,0,0,0,0,0,0,-1,804,358,0,0
-413,666,0,0,0,0,0,0,0,0,0,-1,811,358,0,0
-406,666,0,0,0,0,0,0,0,0,0,-1,818,358,0,0
-399,666,0,0,0,0,0,0,0,0,0,-1,825,358,0,0
-392,666,0,0,0,0,0,0,0,0,0,-1,832,358,0,0
-385,666,0,0,0,0,0,0,0,0,0,-1,839,358,0,0
-378,666,0,0,0,0,0,0,0,0,0,-1,846,358,0,0
-371,666,0,0,0,0,0,0,0,0,0,-1,853,358,0,0
-364,666,0,0,0,0,0,0,0,0,0,-1,860,358,0,0
-357,666,0,0,0,0,0,0,0,0,0,-1,867,358,0,0
-350,666,0,0,0,0,0,0,0,0,0,-1,874,358,0,0
-343,666,0,0,0,0,0,0,0,0,0,-1,881,358,0,0
-336,666,0,0,0,0,0,0,0,0,0,-1,888,358,0,0
-329,666,0,0,0,0,0,0,0,0,0,-1,895,358,0,0
-322,666,0,0,0,0,0,0,0,0,0,-1,902,358,0,0
-315,666,0,0,0,0,0,0,0,0,0,-1,909,358,0,0
-308,666,0,0,0,0,0,0,0,0,0,-1,916,358,0,0
-301,666,0,0,0,0,0,0,0,0,0,-1,923,358,0,0
-294,666,0,0,0,0,0,0,0,0,0,-1,930,358,0,0
-287,666,0,0,0,0,0,0,0,0,0,-1,937,358,0,0
-280,666,0,0,0,0,0,0,0,0,0,-1,944,358,0,0
-273,666,0,0,0,0,0,0,0,0,0,-1,951,358,0,0
-266,666,0,0,0,0,0,0,0,0,0,-1,958,358,0,0
-259,666,0,0,0,0,0,0,0,0,0,-1,965,358,0,0
-252,666,0,0,0,0,0,0,0,0,0,-1,972,358,0,0
-245,666,0,0,0,0,0,0,0,0,0,-1,979,358,0,0
-238,666,0,0,0,0,0,0,0,0,0,-1,986,358,0,0
-231,666,0,0,0,0,0,0,0,0,0,-1,993,358,0,0
-224,666,0,0,0,0,0,0,0,0,0,-1,1000,358,0,0
-217,666,0,0,0,0,0,0,0,0,0,-1,1007,358,0,0
-210,666,0,0,0,0,0,0,0,0,0,-1,1014,358,0,0
-203,666,0,0,0,0,0,0,0,0,0,-1,1021,358,0,0
-196,666,7.92236,-27.6686,0,0,0,0,0,0,0,-1,1028,358,7.92241,27.6686
-189,666,5.40869,-29.2579,0,0,0,0,0,0,0,-1,1035,358,5.40875,29.2579
-182,666,5.29089,-30.3778,0,0,0,0,0,0,0,-1,1042,358,5.29086,30.3778
-175,666,5.32922,-31.6617,0,0,0,0,0,0,0,-1,1049,358,5.32919,31.6617
-168,666,5.63123,-32.6512,0,0,0,0,0,0,0,-1,1056,358,5.63123,32.6511
-161,666,4.15894,-32.6132,0,0,0,0,0,0,0,-1,1063,358,4.1589,32.6132
-154,666,4.29736,-33.5501,0,0,0,0,0,0,0,-1,1070,358,4.29735,33.5502
-147,666,5.96008,-32.2537,0,0,0,0,0,0,0,-1,1077,358,5.96009,32.2537
-140,666,5.89819,-34.1071,0,0,0,0,0,0,0,-1,1084,358,5.8982,34.1071
-133,666,6.1228,-33.8545,0,0,0,0,0,0,0,-1,1091,358,6.12283,33.8545
-126,666,6.29358,-33.6736,0,0,0,0,0,0,0,-1,1098,358,6.29355,33.6737
-119,666,6.50476,-33.7288,0,0,0,0,0,0,0,-1,1105,358,6.50471,33.7288
-112,666,6.77014,-32.8165,0,0,0,0,0,0,0,-1,1112,358,6.77013,32.8165
-105,666,6.30908,-29.0855,0,0,0,0,0,0,0,-1,1119,358,6.30905,29.0855
-98,666,3.5968,-23.5447,0,0,0,0,0,0,0,-1,1126,358,3.59686,23.5447
-91,666,9.5127,-25.1347,0,0,0,0,0,0,0,-1,1133,358,9.51269,25.1347
-84,666,3.21387,-21.3196,0,0,0,0,0,0,0,-1,1140,358,3.21393,21.3196
-77,666,-3.04004,-15.7236,0,0,0,0,0,0,0,-1,1147,358,-3.04,15.7236
-70,666,-9.33752,-9.77725,0,0,0,0,0,0,0,-1,1154,358,-9.33753,9.77726
-63,666,-11.7778,-0.975189,0,0,0,0,0,0,0,-1,1161,358,-11.7778,0.97519
-56,666,0.424683,-2.04132,0,0,0,0,0,0,0,-1,1168,358,0.424665,2.04132
-49,666,0.754395,-2.23169,0,0,0,0,0,0,0,-1,1175,358,0.754383,2.23169
-42,666,1.34473,-3.53897,0,0,0,0,0,0,0,-1,1182,358,1.34476,3.53896
-35,666,5.35986,-37.1468,0,0,0,0,0,0,0,-1,1189,358,5.35992,37.1468
-28,666,5.52527,-37.1466,0,0,0,0,0,0,0,-1,1196,358,5.52525,37.1466
-21,666,5.46118,-37.1767,-0.000704085,0.0306523,0.00527089,0.0315146,-0.00156639,1.40864,0.0215508,0.0338036,1203,358,5.46119,37.1767
-14,666,5.32935,-37.3152,0.00316589,0.0323013,0.00790364,0.0343072,0.00115995,1.32225,0.0224948,0.0294546,1210,358,5.32937,37.3153
-7,666,5.30823,-37.4619,0.00700784,0.0332186,0.0101871,0.0367122,0.00351419,1.24042,0.0233916,0.0206261,1217,358,5.30822,37.4619
0,666,5.3324,-37.599,0.00969022,0.0331792,0.0117974,0.0380814,0.00478802,1.17697,0.0239516,0.0146301,1224,358,5.33238,37.599
7,666,5.27905,-37.6725,0.0122795,0.0329577,0.0132952,0.0394608,0.00577639,1.11588,0.0246088,0.0192132,1231,358,5.27902,37.6725
14,666,5.21228,-37.6996,0.0147573,0.0331102,0.0150428,0.0415546,0.00631288,1.05928,0.025857,0.0182162,1238,358,5.21223,37.6996
21,666,5.14331,-37.8541,0.0162656,0.0327554,0.0165313,0.0429838,0.00603719,1.01672,0.0268705,0.014877,1245,358,5.14329,37.8541
28,666,5.10352,-37.9505,0.016752,0.0331584,0.0178186,0.0445714,0.00533898,1.00112,0.0281042,0.0159399,1252,358,5.10354,37.9505
35,666,5.09363,-37.9481,0.0168491,0.0353202,0.0190366,0.0472433,0.00492598,1.01125,0.0299887,0.0138975,1259,358,5.09367,37.9481
42,666,5.01306,-38.0028,0.0166673,0.0383356,0.0206974,0.050863,0.00413985,1.02652,0.0326164,0.0138085,1266,358,5.01303,38.0028
49,666,4.94275,-38.0357,0.0155939,0.0429037,0.0224103,0.0554914,0.0030061,1.05902,0.0360341,0.0111784,1273,358,4.94279,38.0357
56,666,4.9325,-38.0595,0.0136594,0.0497886,0.0237853,0.0615916,0.00185642,1.11017,0.0404565,0.0126455,1280,358,4.93248,38.0595
63,666,4.86853,-38.1165,0.0114836,0.0582338,0.0253299,0.069326,0.000391375,1.15804,0.0460874,0.0165176,1287,358,4.86857,38.1165
70,666,4.85791,-38.0686,0.0088107,0.0660774,0.0265743,0.0765089,-0.00162081,1.19674,0.0515547,0.0162639,1294,358,4.85791,38.0686
77,666,4.81104,-37.9796,0.00684597,0.0735131,0.0278375,0.0836083,-0.00324919,1.2229,0.0568529,0.0218006,1301,358,4.81102,37.9796
84,666,4.78076,-38.0117,0.0048644,0.0806618,0.0286558,0.0902759,-0.00474973,1.24709,0.061828,0.0295266,1308,358,4.7808,38.0118
91,666,4.72083,-37.9994,0.00294376,0.086624,0.0291638,0.0957851,-0.00621735,1.26643,0.0660268,0.0265569,1315,358,4.72084,37.9994
98,666,4.58313,-37.8985,0.00129664,0.0915633,0.0296036,0.100406,-0.00754584,1.28054,0.069589,0.0215323,1322,358,4.58308,37.8985
105,666,4.50452,-37.7205,0.000278419,0.0947837,0.0295735,0.103275,-0.00821304,1.29119,0.0717447,0.0236709,1329,358,4.50456,37.7205
112,666,4.55945,-37.4012,-0.000886367,0.0957693,0.0287694,0.103684,-0.00880137,1.30232,0.0722356,0.049169,1336,358,4.55945,37.4012
119,666,4.40662,-37.191,0,0,0,0,0,0,0,-1,1343,358,4.40662,37.191
126,666,4.30005,-37.1886,-0.0035303,0.0926848,0.0253993,0.0989782,-0.00982366,1.32791,0.0694919,0.0321647,1350,358,4.30002,37.1886
133,666,4.26233,-37.113,-0.00453565,0.0887792,0.023233,0.0942436,-0.0100001,1.33979,0.0664139,0.0293302,1357,358,4.2623,37.113
140,666,4.20166,-37.0905,-0.00585067,0.0835136,0.0208537,0.0881404,-0.0104775,1.35246,0.0625459,0.0279434,1364,358,4.20161,37.0905
147,666,4.12695,-36.9066,-0.00688779,0.0769328,0.0181845,0.0807078,-0.0106628,1.36611,0.0576889,0.0245874,1371,358,4.12695,36.9066
154,666,4.12219,-36.5824,-0.00755451,0.0687623,0.0154142,0.071758,-0.0105502,1.37884,0.0517154,0.0213396,1378,358,4.12222,36.5824
161,666,4.15918,-36.3517,-0.00833,0.0586637,0.0123646,0.0608729,-0.0105392,1.39399,0.0445128,0.0301857,1385,358,4.1592,36.3518
168,666,4.08813,-36.4111,0,0,0,0,0,0,0,-1,1392,358,4.08809,36.4111
175,666,4.22302,-36.3164,0,0,0,0,0,0,0,-1,1399,358,4.22303,36.3165
182,666,2.60876,-5.17068,0,0,0,0,0,0,0,-1,1406,358,2.6088,5.17068
189,666,2.46973,-5.49979,0,0,0,0,0,0,0,-1,1413,358,2.46975,5.49979
196,666,2.32458,-5.23651,0,0,0,0,0,0,0,-1,1420,358,2.32461,5.23653
203,666,2.28064,-3.88004,0,0,0,0,0,0,0,-1,1427,358,2.28059,3.88003
210,666,3.02576,-5.83548,0,0,0,0,0,0,0,-1,1434,358,3.02581,5.83547
217,666,2.30444,-5.36011,0,0,0,0,0,0,0,-1,1441,358,2.30447,5.3601
224,666,1.82324,-6.03101,0,0,0,0,0,0,0,-1,1448,358,1.82322,6.031
231,666,2.29797,-10.1093,0,0,0,0,0,0,0,-1,1455,358,2.29801,10.1093
238,666,2.52429,-6.10568,0,0,0,0,0,0,0,-1,1462,358,2.52423,6.10567
245,666,4.53345,-1.38205,0,0,0,0,0,0,0,-1,1469,358,4.53349,1.38204
252,666,4.77405,-0.246979,0,0,0,0,0,0,0,-1,1476,358,4.77405,0.246993
259,666,4.83655,1.14087,0,0,0,0,0,0,0,-1,1483,358,4.83652,-1.14087
266,666,6.14148,0.749512,0,0,0,0,0,0,0,-1,1490,358,6.14144,-0.749519
273,666,2.75732,-31.3823,0,0,0,0,0,0,0,-1,1497,358,2.75737,31.3823
280,666,-8.74878,-17.2596,0,0,0,0,0,0,0,-1,1504,358,-8.74875,17.2596
287,666,-7.06934,-20.3464,0,0,0,0,0,0,0,-1,1511,358,-7.06933,20.3464
294,666,-6.58936,-22.1429,0,0,0,0,0,0,0,-1,1518,358,-6.58934,22.1429
301,666,-6.78711,-23.9803,0,0,0,0,0,0,0,-1,1525,358,-6.78706,23.9803
308,666,1.08496,-1.87576,0,0,0,0,0,0,0,-1,1532,358,1.08491,1.87575
315,666,1.76294,-0.284027,0,0,0,0,0,0,0,-1,1539,358,1.76291,0.284016
322,666,0,0,0,0,0,0,0,0,0,-1,1546,358,0,0
329,666,0,0,0,0,0,0,0,0,0,-1,1553,358,0,0
336,666,0,0,0,0,0,0,0,0,0,-1,1560,358,0,0
343,666,0,0,0,0,0,0,0,0,0,-1,1567,358,0,0
350,666,0,0,0,0,0,0,0,0,0,-1,1574,358,0,0
357,666,0,0,0,0,0,0,0,0,0,-1,1581,358,0,0
364,666,0,0,0,0,0,0,0,0,0,-1,1588,358,0,0
371,666,0,0,0,0,0,0,0,0,0,-1,1595,358,0,0
378,666,0,0,0,0,0,0,0,0,0,-1,1602,358,0,0
385,666,0,0,0,0,0,0,0,0,0,-1,1609,358,0,0
392,666,0,0,0,0,0,0,0,0,0,-1,1616,358,0,0
399,666,0,0,0,0,0,0,0,0,0,-1,1623,358,0,0
406,666,0,0,0,0,0,0,0,0,0,-1,1630,358,0,0
413,666,0,0,0,0,0,0,0,0,0,-1,1637,358,0,0
420,666,0,0,0,0,0,0,0,0,0,-1,1644,358,0,0
427,666,0,0,0,0,0,0,0,0,0,-1,1651,358,0,0
434,666,0,0,0,0,0,0,0,0,0,-1,1658,358,0,0
441,666,0,0,0,0,0,0,0,0,0,-1,1665,358,0,0
448,666,0,0,0,0,0,0,0,0,0,-1,1672,358,0,0
455,666,0,0,0,0,0,0,0,0,0,-1,1679,358,0,0
462,666,0,0,0,0,0,0,0,0,0,-1,1686,358,0,0
469,666,0,0,0,0,0,0,0,0,0,-1,1693,358,0,0
476,666,0,0,0,0,0,0,0,0,0,-1,1700,358,0,0
483,666,0,0,0,0,0,0,0,0,0,-1,1707,358,0,0
490,666,0,0,0,0,0,0,0,0,0,-1,1714,358,0,0
497,666,0,0,0,0,0,0,0,0,0,-1,1721,358,0,0
504,666,0,0,0,0,0,0,0,0,0,-1,1728,358,0,0
511,666,0,0,0,0,0,0,0,0,0,-1,1735,358,0,0
518,666,0,0,0,0,0,0,0,0,0,-1,1742,358,0,0
525,666,0,0,0,0,0,0,0,0,0,-1,1749,358,0,0
532,666,0,0,0,0,0,0,0,0,0,-1,1756,358,0,0
539,666,0,0,0,0,0,0,0,0,0,-1,1763,358,0,0
546,666,0,0,0,0,0,0,0,0,0,-1,1770,358,0,0
553,666,0,0,0,0,0,0,0,0,0,-1,1777,358,0,0
560,666,0,0,0,0,0,0,0,0,0,-1,1784,358,0,0
567,666,0,0,0,0,0,0,0,0,0,-1,1791,358,0,0
574,666,0,0,0,0,0,0,0,0,0,-1,1798,358,0,0
581,666,0,0,0,0,0,0,0,0,0,-1,1805,358,0,0
588,666,0,0,0,0,0,0,0,0,0,-1,1812,358,0,0
595,666,0,0,0,0,0,0,0,0,0,-1,1819,358,0,0
602,666,0,0,0,0,0,0,0,0,0,-1,1826,358,0,0
609,666,0,0,0,0,0,0,0,0,0,-1,1833,358,0,0
616,666,0,0,0,0,0,0,0,0,0,-1,1840,358,0,0
623,666,0,0,0,0,0,0,0,0,0,-1,1847,358,0,0
630,666,0,0,0,0,0,0,0,0,0,-1,1854,358,0,0
637,666,0,0,0,0,0,0,0,0,0,-1,1861,358,0,0
644,666,0,0,0,0,0,0,0,0,0,-1,1868,358,0,0
651,666,0,0,0,0,0,0,0,0,0,-1,1875,358,0,0
658,666,0,0,0,0,0,0,0,0,0,-1,1882,358,0,0
665,666,0,0,0,0,0,0,0,0,0,-1,1889,358,0,0
672,666,0,0,0,0,0,0,0,0,0,-1,1896,358,0,0
679,666,0,0,0,0,0,0,0,0,0,-1,1903,358,0,0
686,666,0,0,0,0,0,0,0,0,0,-1,1910,358,0,0
693,666,0,0,0,0,0,0,0,0,0,-1,1917,358,0,0
700,666,0,0,0,0,0,0,0,0,0,-1,1924,358,0,0
707,666,0,0,0,0,0,0,0,0,0,-1,1931,358,0,0
714,666,0,0,0,0,0,0,0,0,0,-1,1938,358,0,0
721,666,0,0,0,0,0,0,0,0,0,-1,1945,358,0,0
728,666,0,0,0,0,0,0,0,0,0,-1,1952,358,0,0
735,666,0,0,0,0,0,0,0,0,0,-1,1959,358,0,0
742,666,0,0,0,0,0,0,0,0,0,-1,1966,358,0,0
749,666,0,0,0,0,0,0,0,0,0,-1,1973,358,0,0
756,666,0,0,0,0,0,0,0,0,0,-1,1980,358,0,0
763,666,0,0,0,0,0,0,0,0,0,-1,1987,358,0,0
770,666,0,0,0,0,0,0,0,0,0,-1,1994,358,0,0
777,666,0,0,0,0,0,0,0,0,0,-1,2001,358,0,0
784,666,0,0,0,0,0,0,0,0,0,-1,2008,358,0,0
791,666,0,0,0,0,0,0,0,0,0,-1,2015,358,0,0
798,666,0,0,0,0,0,0,0,0,0,-1,2022,358,0,0
805,666,0,0,0,0,0,0,0,0,0,-1,2029,358,0,0
812,666,0,0,0,0,0,0,0,0,0,-1,2036,358,0,0
-700,659,0,0,0,0,0,0,0,0,0,-1,524,365,0,0
-693,659,0,0,0,0,0,0,0,0,0,-1,531,365,0,0
-686,659,0,0,0,0,0,0,0,0,0,-1,538,365,0,0
-679,659,0,0,0,0,0,0,0,0,0,-1,545,365,0,0
-672,659,0,0,0,0,0,0,0,0,0,-1,552,365,0,0
-665,659,0,0,0,0,0,0,0,0,0,-1,559,365,0,0
-658,659,0,0,0,0,0,0,0,0,0,-1,566,365,0,0
-651,659,0,0,0,0,0,0,0,0,0,-1,573,365,0,0
-644,659,0,0,0,0,0,0,0,0,0,-1,580,365,0,0
-637,659,0,0,0,0,0,0,0,0,0,-1,587,365,0,0
-630,659,0,0,0,0,0,0,0,0,0,-1,594,365,0,0
-623,659,0,0,0,0,0,0,0,0,0,-1,601,365,0,0
-616,659,0,0,0,0,0,0,0,0,0,-1,608,365,0,0
-609,659,0,0,0,0,0,0,0,0,0,-1,615,365,0,0
-602,659,0,0,0,0,0,0,0,0,0,-1,622,365,0,0
-595,659,0,0,0,0,0,0,0,0,0,-1,629,365,0,0
-588,659,0,0,0,0,0,0,0,0,0,-1,636,365,0,0
-581,659,0,0,0,0,0,0,0,0,0,-1,643,365,0,0
-574,659,0,0,0,0,0,0,0,0,0,-1,650,365,0,0
-567,659,0,0,0,0,0,0,0,0,0,-1,657,365,0,0
-560,659,0,0,0,0,0,0,0,0,0,-1,664,365,0,0
-553,659,0,0,0,0,0,0,0,0,0,-1,671,365,0,0
-546,659,0,0,0,0,0,0,0,0,0,-1,678,365,0,0
-539,659,0,0,0,0,0,0,0,0,0,-1,685,365,0,0
-532,659,0,0,0,0,0,0,0,0,0,-1,692,365,0,0
-525,659,0,0,0,0,0,0,0,0,0,-1,699,365,0,0
-518,659,0,0,0,0,0,0,0,0,0,-1,706,365,0,0
-511,659,0,0,0,0,0,0,0,0,0,-1,713,365,0,0
-504,659,0,0,0,0,0,0,0,0,0,-1,720,365,0,0
-497,659,0,0,0,0,0,0,0,0,0,-1,727,365,0,0
-490,659,0,0,0,0,0,0,0,0,0,-1,734,365,0,0
-483,659,0,0,0,0,0,0,0,0,0,-1,741,365,0,0
-476,659,0,0,0,0,0,0,0,0,0,-1,748,365,0,0
-469,659,0,0,0,0,0,0,0,0,0,-1,755,365,0,0
-462,659,0,0,0,0,0,0,0,0,0,-1,762,365,0,0
-455,659,0,0,0,0,0,0,0,0,0,-1,769,365,0,0
-448,659,0,0,0,0,0,0,0,0,0,-1,776,365,0,0
-441,659,0,0,0,0,0,0,0,0,0,-1,783,365,0,0
-434,659,0,0,0,0,0,0,0,0,0,-1,790,365,0,0
-427,659,0,0,0,0,0,0,0,0,0,-1,797,365,0,0
-420,659,0,0,0,0,0,0,0,0,0,-1,804,365,0,0
-413,659,0,0,0,0,0,0,0,0,0,-1,811,365,0,0
-406,659,0,0,0,0,0,0,0,0,0,-1,818,365,0,0
-399,659,0,0,0,0,0,0,0,0,0,-1,825,365,0,0
-392,659,0,0,0,0,0,0,0,0,0,-1,832,365,0,0
-385,659,0,0,0,0,0,0,0,0,0,-1,839,365,0,0
-378,659,0,0,0,0,0,0,0,0,0,-1,846,365,0,0
-371,659,0,0,0,0,0,0,0,0,0,-1,853,365,0,0
-364,659,0,0,0,0,0,0,0,0,0,-1,860,365,0,0
-357,659,0,0,0,0,0,0,0,0,0,-1,867,365,0,0
-350,659,0,0,0,0,0,0,0,0,0,-1,874,365,0,0
-343,659,0,0,0,0,0,0,0,0,0,-1,881,365,0,0
-336,659,0,0,0,0,0,0,0,0,0,-1,888,365,0,0
-329,659,0,0,0,0,0,0,0,0,0,-1,895,365,0,0
-322,659,0,0,0,0,0,0,0,0,0,-1,902,365,0,0
-315,659,0,0,0,0,0,0,0,0,0,-1,909,365,0,0
-308,659,0,0,0,0,0,0,0,0,0,-1,916,365,0,0
-301,659,0,0,0,0,0,0,0,0,0,-1,923,365,0,0
-294,659,0,0,0,0,0,0,0,0,0,-1,930,365,0,0
-287,659,0,0,0,0,0,0,0,0,0,-1,937,365,0,0
-280,659,0,0,0,0,0,0,0,0,0,-1,944,365,0,0
-273,659,0,0,0,0,0,0,0,0,0,-1,951,365,0,0
-266,659,0,0,0,0,0,0,0,0,0,-1,958,365,0,0
-259,659,0,0,0,0,0,0,0,0,0,-1,965,365,0,0
-252,659,0,0,0,0,0,0,0,0,0,-1,972,365,0,0
-245,659,0,0,0,0,0,0,0,0,0,-1,979,365,0,0
-238,659,0,0,0,0,0,0,0,0,0,-1,986,365,0,0
-231,659,0,0,0,0,0,0,0,0,0,-1,993,365,0,0
-224,659,0,0,0,0,0,0,0,0,0,-1,1000,365,0,0
-217,659,10.1305,-25.2622,0,0,0,0,0,0,0,-1,1007,365,10.1305,25.2622
-210,659,9.65643,-25.515,0,0,0,0,0,0,0,-1,1014,365,9.65642,25.515
-203,659,8.58911,-25.7432,0,0,0,0,0,0,0,-1,1021,365,8.58916,25.7432
-196,659,4.43616,-27.2653,0,0,0,0,0,0,0,-1,1028,365,4.4362,27.2653
-189,659,4.70483,-28.2422,0,0,0,0,0,0,0,-1,1035,365,4.70484,28.2422
-182,659,4.90393,-29.5414,0.054385,-0.0752643,-0.0575843,0.0762678,-0.0971472,-0.363159,0.100363,0.0451243,1042,365,4.90398,29.5413
-175,659,5.01294,-30.9227,0.047257,-0.0662443,-0.0418097,0.0609953,-0.0799826,-0.317476,0.0816393,0.0447644,1049,365,5.01294,30.9227
-168,659,5.38928,-32.0667,0.0399678,-0.0542494,-0.0252722,0.0463186,-0.0606002,-0.246197,0.0619128,0.044411,1056,365,5.38928,32.0666
-161,659,5.31958,-32.7126,0,0,0,0,0,0,0,-1,1063,365,5.31955,32.7126
-154,659,4.57349,-33.139,0,0,0,0,0,0,0,-1,1070,365,4.57347,33.139
-147,659,5.22461,-34.6762,0,0,0,0,0,0,0,-1,1077,365,5.22458,34.6762
-140,659,5.43518,-34.3309,0,0,0,0,0,0,0,-1,1084,365,5.43516,34.3309
-133,659,5.68079,-34.004,0,0,0,0,0,0,0,-1,1091,365,5.6808,34.004
-126,659,5.89673,-33.6564,0.00910441,-0.00422096,0.0313611,0.0345028,-0.0296193,0.680729,0.0370567,0.0429397,1098,365,5.89679,33.6564
-119,659,6.16296,-33.5969,0.00655984,0.000637406,0.035271,0.0389937,-0.0317965,0.743518,0.0409411,0.0461342,1105,365,6.16295,33.5969
-112,659,6.21045,-33.8494,0,0,0,0,0,0,0,-1,1112,365,6.21045,33.8494
-105,659,5.38696,-30.5854,0,0,0,0,0,0,0,-1,1119,365,5.387,30.5854
-98,659,4.68042,-26.2438,0,0,0,0,0,0,0,-1,1126,365,4.68041,26.2438
-91,659,4.20776,-20.8654,0,0,0,0,0,0,0,-1,1133,365,4.20777,20.8654
-84,659,2.8584,-17.8303,0,0,0,0,0,0,0,-1,1140,365,2.85836,17.8303
-77,659,2.80139,-15.3457,0,0,0,0,0,0,0,-1,1147,365,2.80139,15.3457
-70,659,2.9353,-12.7028,0,0,0,0,0,0,0,-1,1154,365,2.93533,12.7028
-63,659,2.11267,-9.7796,0,0,0,0,0,0,0,-1,1161,365,2.11266,9.7796
-56,659,2.11182,-9.91541,0,0,0,0,0,0,0,-1,1168,365,2.11178,9.91541
-49,659,5.51221,-36.6169,0,0,0,0,0,0,0,-1,1175,365,5.51226,36.6169
-42,659,5.23328,-37.0619,0,0,0,0,0,0,0,-1,1182,365,5.23324,37.0619
-35,659,5.40564,-37.0548,-0.00667446,0.0188761,-0.000761415,0.0188988,-0.00669713,-1.54103,0.0153273,0.0422775,1189,365,5.40561,37.0548
-28,659,5.4165,-37.1631,-0.00458696,0.0208829,0.000616389,0.0208978,-0.00460187,1.54661,0.0156924,0.0159048,1196,365,5.41651,37.1631
-21,659,5.37073,-37.3234,-0.00230842,0.022384,0.00211598,0.022564,-0.00248843,1.48593,0.0159371,0.0120533,1203,365,5.3707,37.3234
-14,659,5.28894,-37.4885,7.14801e-05,0.0235213,0.00375822,0.0241088,-0.000516112,1.4157,0.0162473,0.0103194,1210,365,5.28894,37.4885
-7,659,5.24072,-37.624,0.00250672,0.0241553,0.0051679,0.0253257,0.00133632,1.34808,0.0164564,0.0104365,1217,365,5.24074,37.624
0,659,5.22656,-37.7328,0.00427384,0.0240593,0.00618806,0.0258353,0.00249789,1.29131,0.0164542,0.00910863,1224,365,5.22659,37.7327
7,659,5.19446,-37.8224,0.00599949,0.0238527,0.00715211,0.0263645,0.0034877,1.23306,0.0165368,0.00857952,1231,365,5.19442,37.8224
14,659,5.15674,-37.8793,0.00755212,0.023804,0.00822227,0.0272382,0.00411793,1.17515,0.0169537,0.0112213,1238,365,5.1567,37.8793
21,659,5.11108,-37.9601,0.00844355,0.0234539,0.00918895,0.0278132,0.00408431,1.12784,0.0173417,0.0116921,1245,365,5.11106,37.9601
28,659,5.05652,-38.0404,0.00879159,0.023749,0.0100695,0.0288133,0.00372731,1.10481,0.0180948,0.0106987,1252,365,5.05657,38.0404
35,659,5.02173,-38.0933,0.00897748,0.0254749,0.0109821,0.0309612,0.00349125,1.1075,0.019581,0.0114082,1259,365,5.02167,38.0933
42,659,4.98804,-38.1473,0.00892635,0.0277351,0.0122778,0.0337963,0.00286507,1.11222,0.0216392,0.0117825,1266,365,4.98802,38.1473
49,659,4.94006,-38.1761,0.00829015,0.0311924,0.0136605,0.0375665,0.00191609,1.13422,0.0244307,0.0111031,1273,365,4.94006,38.1761
56,659,4.89551,-38.1866,0.0071635,0.0364008,0.0148593,0.0426269,0.000937376,1.17401,0.0281107,0.0141597,1280,365,4.89549,38.1867
63,659,4.87646,-38.2245,0.00590744,0.0426349,0.016211,0.0487665,-0.000224208,1.20919,0.032586,0.0161049,1287,365,4.87648,38.2245
70,659,4.83069,-38.2161,0.00429331,0.0486288,0.0174553,0.0546762,-0.00175415,1.23728,0.0370494,0.0173858,1294,365,4.8307,38.2161
77,659,4.745,-38.1865,0.00322462,0.0541907,0.0186443,0.0602829,-0.00286755,1.25497,0.0411777,0.0179612,1301,365,4.74502,38.1865
84,659,4.73047,-38.1667,0.00214628,0.0593736,0.0194645,0.0653665,-0.00384656,1.27212,0.0449148,0.0127366,1308,365,4.73044,38.1667
91,659,4.69629,-38.1153,0.00104736,0.0635639,0.0200137,0.069422,-0.00481078,1.28604,0.0479654,0.0113063,1315,365,4.69634,38.1153
98,659,4.66284,-38.0273,0.000108329,0.0669299,0.0204944,0.0727148,-0.00567657,1.29569,0.0504753,0.00852436,1322,365,4.6628,38.0273
105,659,4.64172,-37.9142,-0.000416002,0.0690579,0.0206091,0.0747114,-0.00606954,1.30306,0.0519491,0.010231,1329,365,4.6417,37.9142
112,659,4.60974,-37.8028,-0.00105557,0.0695003,0.0201348,0.0748419,-0.00639714,1.31148,0.0521579,0.0146897,1336,365,4.60969,37.8028
119,659,4.5575,-37.6584,-0.0018094,0.0682751,0.0191022,0.0731434,-0.00667771,1.32125,0.0511337,0.0162978,1343,365,4.55749,37.6585
126,659,4.48267,-37.5124,-0.00246588,0.0662739,0.0177978,0.0706087,-0.00680063,1.33189,0.0494953,0.0145714,1350,365,4.48264,37.5124
133,659,4.42932,-37.3892,-0.00314341,0.0630161,0.0162549,0.0667941,-0.00692138,1.34243,0.0470067,0.0133352,1357,365,4.42934,37.3892
140,659,4.38525,-37.2628,-0.0040726,0.058615,0.0145429,0.0618245,-0.0072821,1.35359,0.0438457,0.0105241,1364,365,4.38525,37.2628
147,659,4.35242,-37.1042,-0.00479494,0.0535408,0.0125745,0.0561359,-0.00738998,1.36728,0.0401148,0.00956396,1371,365,4.35239,37.1042
154,659,4.30505,-36.9012,-0.00526847,0.0475987,0.0106202,0.0496523,-0.00732213,1.37978,0.0357928,0.0105955,1378,365,4.3051,36.9012
161,659,4.2655,-36.6971,-0.00581123,0.0407772,0.00861629,0.0423197,-0.0073537,1.39365,0.0309569,0.012286,1385,365,4.26552,36.697
168,659,4.24878,-36.4833,-0.00569366,0.0332956,0.00706278,0.0345356,-0.00693363,1.397,0.0256493,0.0195073,1392,365,4.24884,36.4833
175,659,4.2323,-36.2803,-0.00485741,0.0284958,0.00657739,0.029746,-0.00610764,1.38296,0.022149,0.0420974,1399,365,4.23225,36.2803
182,659,4.08899,-36.0392,0,0,0,0,0,0,0,-1,1406,365,4.08901,36.0392
189,659,4.11658,-35.7173,0,0,0,0,0,0,0,-1,1413,365,4.11655,35.7173
196,659,2.41248,-13.4371,0,0,0,0,0,0,0,-1,1420,365,2.41243,13.4371
203,659,2.38623,-12.2163,0,0,0,0,0,0,0,-1,1427,365,2.38617,12.2163
210,659,2.20789,-13.9792,0,0,0,0,0,0,0,-1,1434,365,2.20794,13.9792
217,659,2.24121,-13.487,0,0,0,0,0,0,0,-1,1441,365,2.24116,13.487
224,659,2.3479,-15.2926,0,0,0,0,0,0,0,-1,1448,365,2.34793,15.2926
231,659,2.47974,-17.8629,0,0,0,0,0,0,0,-1,1455,365,2.47976,17.8628
238,659,3.57886,-21.1258,0,0,0,0,0,0,0,-1,1462,365,3.57889,21.1258
245,659,3.29883,-25.0283,0,0,0,0,0,0,0,-1,1469,365,3.29889,25.0283
252,659,2.81909,-24.1604,0,0,0,0,0,0,0,-1,1476,365,2.81905,24.1604
259,659,2.33069,-3.36703,0,0,0,0,0,0,0,-1,1483,365,2.33073,3.36702
266,659,3.05481,-31.8676,0,0,0,0,0,0,0,-1,1490,365,3.05479,31.8675
273,659,3.18445,-31.5875,0,0,0,0,0,0,0,-1,1497,365,3.1845,31.5875
280,659,3.31421,-31.3075,0,0,0,0,0,0,0,-1,1504,365,3.3142,31.3075
287,659,-6.62354,-18.6266,0,0,0,0,0,0,0,-1,1511,365,-6.62352,18.6265
294,659,-5.4126,-20.5808,0,0,0,0,0,0,0,-1,1518,365,-5.41258,20.5808
301,659,-4.7179,-22.3497,0,0,0,0,0,0,0,-1,1525,365,-4.7179,22.3497
308,659,-5.40784,-23.3611,0,0,0,0,0,0,0,-1,1532,365,-5.40784,23.3611
315,659,-5.05042,-23.7235,0,0,0,0,0,0,0,-1,1539,365,-5.05045,23.7235
322,659,0.382813,-2.2424,0,0,0,0,0,0,0,-1,1546,365,0.382801,2.2424
329,659,0.604004,-1.75998,0,0,0,0,0,0,0,-1,1553,365,0.603966,1.75998
336,659,4.55933,-25.2647,0,0,0,0,0,0,0,-1,1560,365,4.55935,25.2647
343,659,0,0,0,0,0,0,0,0,0,-1,1567,365,0,0
350,659,0,0,0,0,0,0,0,0,0,-1,1574,365,0,0
357,659,0,0,0,0,0,0,0,0,0,-1,1581,365,0,0
364,659,0,0,0,0,0,0,0,0,0,-1,1588,365,0,0
371,659,0,0,0,0,0,0,0,0,0,-1,1595,365,0,0
378,659,0,0,0,0,0,0,0,0,0,-1,1602,365,0,0
385,659,0,0,0,0,0,0,0,0,0,-1,1609,365,0,0
392,659,0,0,0,0,0,0,0,0,0,-1,1616,365,0,0
399,659,0,0,0,0,0,0,0,0,0,-1,1623,365,0,0
406,659,0,0,0,0,0,0,0,0,0,-1,1630,365,0,0
413,659,0,0,0,0,0,0,0,0,0,-1,1637,365,0,0
420,659,0,0,0,0,0,0,0,0,0,-1,1644,365,0,0
427,659,0,0,0,0,0,0,0,0,0,-1,1651,365,0,0
434,659,0,0,0,0,0,0,0,0,0,-1,1658,365,0,0
441,659,0,0,0,0,0,0,0,0,0,-1,1665,365,0,0
448,659,0,0,0,0,0,0,0,0,0,-1,1672,365,0,0
455,659,0,0,0,0,0,0,0,0,0,-1,1679,365,0,0
462,659,0,0,0,0,0,0,0,0,0,-1,1686,365,0,0
469,659,0,0,0,0,0,0,0,0,0,-1,1693,365,0,0
476,659,0,0,0,0,0,0,0,0,0,-1,1700,365,0,0
483,659,0,0,0,0,0,0,0,0,0,-1,1707,365,0,0
490,659,0,0,0,0,0,0,0,0,0,-1,1714,365,0,0
497,659,0,0,0,0,0,0,0,0,0,-1,1721,365,0,0
504,659,0,0,0,0,0,0,0,0,0,-1,1728,365,0,0
511,659,0,0,0,0,0,0,0,0,0,-1,1735,365,0,0
518,659,0,0,0,0,0,0,0,0,0,-1,1742,365,0,0
525,659,0,0,0,0,0,0,0,0,0,-1,1749,365,0,0
532,659,0,0,0,0,0,0,0,0,0,-1,1756,365,0,0
539,659,0,0,0,0,0,0,0,0,0,-1,1763,365,0,0
546,659,0,0,0,0,0,0,0,0,0,-1,1770,365,0,0
553,659,0,0,0,0,0,0,0,0,0,-1,1777,365,0,0
560,659,0,0,0,0,0,0,0,0,0,-1,1784,365,0,0
567,659,0,0,0,0,0,0,0,0,0,-1,1791,365,0,0
574,659,0,0,0,0,0,0,0,0,0,-1,1798,365,0,0
581,659,0,0,0,0,0,0,0,0,0,-1,1805,365,0,0
588,659,0,0,0,0,0,0,0,0,0,-1,1812,365,0,0
595,659,0,0,0,0,0,0,0,0,0,-1,1819,365,0,0
602,659,0,0,0,0,0,0,0,0,0,-1,1826,365,0,0
609,659,0,0,0,0,0,0,0,0,0,-1,1833,365,0,0
616,659,0,0,0,0,0,0,0,0,0,-1,1840,365,0,0
623,659,0,0,0,0,0,0,0,0,0,-1,1847,365,0,0
630,659,0,0,0,0,0,0,0,0,0,-1,1854,365,0,0
637,659,0,0,0,0,0,0,0,0,0,-1,1861,365,0,0
644,659,0,0,0,0,0,0,0,0,0,-1,1868,365,0,0
651,659,0,0,0,0,0,0,0,0,0,-1,1875,365,0,0
658,659,0,0,0,0,0,0,0,0,0,-1,1882,365,0,0
665,659,0,0,0,0,0,0,0,0,0,-1,1889,365,0,0
672,659,0,0,0,0,0,0,0,0,0,-1,1896,365,0,0
679,659,0,0,0,0,0,0,0,0,0,-1,1903,365,0,0
686,659,0,0,0,0,0,0,0,0,0,-1,1910,365,0,0
693,659,0,0,0,0,0,0,0,0,0,-1,1917,365,0,0
700,659,0,0,0,0,0,0,0,0,0,-1,1924,365,0,0
707,659,0,0,0,0,0,0,0,0,0,-1,1931,365,0,0
714,659,0,0,0,0,0,0,0,0,0,-1,1938,365,0,0
721,659,0,0,0,0,0,0,0,0,0,-1,1945,365,0,0
728,659,0,0,0,0,0,0,0,0,0,-1,1952,365,0,0
735,659,0,0,0,0,0,0,0,0,0,-1,1959,365,0,0
742,659,0,0,0,0,0,0,0,0,0,-1,1966,365,0,0
749,659,0,0,0,0,0,0,0,0,0,-1,1973,365,0,0
756,659,0,0,0,0,0,0,0,0,0,-1,1980,365,0,0
763,659,0,0,0,0,0,0,0,0,0,-1,1987,365,0,0
770,659,0,0,0,0,0,0,0,0,0,-1,1994,365,0,0
777,659,0,0,0,0,0,0,0,0,0,-1,2001,365,0,0
784,659,0,0,0,0,0,0,0,0,0,-1,2008,365,0,0
791,659,0,0,0,0,0,0,0,0,0,-1,2015,365,0,0
798,659,0,0,0,0,0,0,0,0,0,-1,2022,365,0,0
805,659,0,0,0,0,0,0,0,0,0,-1,2029,365,0,0
812,659,0,0,0,0,0,0,0,0,0,-1,2036,365,0,0
-700,652,0,0,0,0,0,0,0,0,0,-1,524,372,0,0
-693,652,0,0,0,0,0,0,0,0,0,-1,531,372,0,0
-686,652,0,0,0,0,0,0,0,0,0,-1,538,372,0,0
-679,652,0,0,0,0,0,0,0,0,0,-1,545,372,0,0
-672,652,0,0,0,0,0,0,0,0,0,-1,552,372,0,0
-665,652,0,0,0,0,0,0,0,0,0,-1,559,372,0,0
-658,652,0,0,0,0,0,0,0,0,0,-1,566,372,0,0
-651,652,0,0,0,0,0,0,0,0,0,-1,573,372,0,0
-644,652,0,0,0,0,0,0,0,0,0,-1,580,372,0,0
-637,652,0,0,0,0,0,0,0,0,0,-1,587,372,0,0
-630,652,0,0,0,0,0,0,0,0,0,-1,594,372,0,0
-623,652,0,0,0,0,0,0,0,0,0,-1,601,372,0,0
-616,652,0,0,0,0,0,0,0,0,0,-1,608,372,0,0
-609,652,0,0,0,0,0,0,0,0,0,-1,615,372,0,0
-602,652,0,0,0,0,0,0,0,0,0,-1,622,372,0,0
-595,652,0,0,0,0,0,0,0,0,0,-1,629,372,0,0
-588,652,0,0,0,0,0,0,0,0,0,-1,636,372,0,0
-581,652,0,0,0,0,0,0,0,0,0,-1,643,372,0,0
-574,652,0,0,0,0,0,0,0,0,0,-1,650,372,0,0
-567,652,0,0,0,0,0,0,0,0,0,-1,657,372,0,0
-560,652,0,0,0,0,0,0,0,0,0,-1,664,372,0,0
-553,652,0,0,0,0,0,0,0,0,0,-1,671,372,0,0
-546,652,0,0,0,0,0,0,0,0,0,-1,678,372,0,0
-539,652,0,0,0,0,0,0,0,0,0,-1,685,372,0,0
-532,652,0,0,0,0,0,0,0,0,0,-1,692,372,0,0
-525,652,0,0,0,0,0,0,0,0,0,-1,699,372,0,0
-518,652,0,0,0,0,0,0,0,0,0,-1,706,372,0,0
-511,652,0,0,0,0,0,0,0,0,0,-1,713,372,0,0
-504,652,0,0,0,0,0,0,0,0,0,-1,720,372,0,0
-497,652,0,0,0,0,0,0,0,0,0,-1,727,372,0,0
-490,652,0,0,0,0,0,0,0,0,0,-1,734,372,0,0
-483,652,0,0,0,0,0,0,0,0,0,-1,741,372,0,0
-476,652,0,0,0,0,0,0,0,0,0,-1,748,372,0,0
-469,652,0,0,0,0,0,0,0,0,0,-1,755,372,0,0
-462,652,0,0,0,0,0,0,0,0,0,-1,762,372,0,0
-455,652,0,0,0,0,0,0,0,0,0,-1,769,372,0,0
-448,652,0,0,0,0,0,0,0,0,0,-1,776,372,0,0
-441,652,0,0,0,0,0,0,0,0,0,-1,783,372,0,0
-434,652,0,0,0,0,0,0,0,0,0,-1,790,372,0,0
-427,652,0,0,0,0,0,0,0,0,0,-1,797,372,0,0
-420,652,0,0,0,0,0,0,0,0,0,-1,804,372,0,0
-413,652,0,0,0,0,0,0,0,0,0,-1,811,372,0,0
-406,652,0,0,0,0,0,0,0,0,0,-1,818,372,0,0
-399,652,0,0,0,0,0,0,0,0,0,-1,825,372,0,0
-392,652,0,0,0,0,0,0,0,0,0,-1,832,372,0,0
-385,652,0,0,0,0,0,0,0,0,0,-1,839,372,0,0
-378,652,0,0,0,0,0,0,0,0,0,-1,846,372,0,0
-371,652,0,0,0,0,0,0,0,0,0,-1,853,372,0,0
-364,652,0,0,0,0,0,0,0,0,0,-1,860,372,0,0
-357,652,0,0,0,0,0,0,0,0,0,-1,867,372,0,0
-350,652,0,0,0,0,0,0,0,0,0,-1,874,372,0,0
-343,652,0,0,0,0,0,0,0,0,0,-1,881,372,0,0
-336,652,0,0,0,0,0,0,0,0,0,-1,888,372,0,0
-329,652,0,0,0,0,0,0,0,0,0,-1,895,372,0,0
-322,652,0,0,0,0,0,0,0,0,0,-1,902,372,0,0
-315,652,0,0,0,0,0,0,0,0,0,-1,909,372,0,0
-308,652,0,0,0,0,0,0,0,0,0,-1,916,372,0,0
-301,652,0,0,0,0,0,0,0,0,0,-1,923,372,0,0
-294,652,0,0,0,0,0,0,0,0,0,-1,930,372,0,0
-287,652,0,0,0,0,0,0,0,0,0,-1,937,372,0,0
-280,652,0,0,0,0,0,0,0,0,0,-1,944,372,0,0
-273,652,0,0,0,0,0,0,0,0,0,-1,951,372,0,0
-266,652,0,0,0,0,0,0,0,0,0,-1,958,372,0,0
-259,652,0,0,0,0,0,0,0,0,0,-1,965,372,0,0
-252,652,0,0,0,0,0,0,0,0,0,-1,972,372,0,0
-245,652,0,0,0,0,0,0,0,0,0,-1,979,372,0,0
-238,652,0,0,0,0,0,0,0,0,0,-1,986,372,0,0
-231,652,8.79358,-27.1656,0,0,0,0,0,0,0,-1,993,372,8.79357,27.1656
-224,652,8.84552,-27.675,0,0,0,0,0,0,0,-1,1000,372,8.84555,27.675
-217,652,9.03113,-27.7474,0,0,0,0,0,0,0,-1,1007,372,9.0311,27.7474
-210,652,8.83337,-27.7903,0,0,0,0,0,0,0,-1,1014,372,8.83339,27.7902
-203,652,7.2677,-26.0732,0,0,0,0,0,0,0,-1,1021,372,7.26775,26.0732
-196,652,6.46948,-25.9183,0,0,0,0,0,0,0,-1,1028,372,6.46949,25.9183
-189,652,4.00098,-27.2265,0,0,0,0,0,0,0,-1,1035,372,4.00092,27.2265
-182,652,4.48303,-28.8825,0.0406429,-0.0513971,-0.0449276,0.0589372,-0.0696914,-0.386693,0.0743502,0.0420617,1042,372,4.483,28.8825
-175,652,4.80383,-30.1985,0.0355921,-0.046134,-0.0344149,0.0481535,-0.0586954,-0.349974,0.0617893,0.0435241,1049,372,4.80389,30.1984
-168,652,5.09119,-31.4184,0.0302687,-0.0383319,-0.0230804,0.0373111,-0.0453743,-0.29615,0.047814,0.0427107,1056,372,5.09116,31.4184
-161,652,5.27881,-32.4651,0.0253373,-0.0314709,-0.0145558,0.0288498,-0.0349833,-0.236781,0.0369107,0.0433451,1063,372,5.2788,32.4651
-154,652,6.39465,-32.5438,0,0,0,0,0,0,0,-1,1070,372,6.39464,32.5438
-147,652,6.93201,-32.5367,0,0,0,0,0,0,0,-1,1077,372,6.93197,32.5367
-140,652,5.54834,-32.6332,0,0,0,0,0,0,0,-1,1084,372,5.54836,32.6332
-133,652,5.77893,-32.9077,0,0,0,0,0,0,0,-1,1091,372,5.77887,32.9077
-126,652,5.74915,-33.251,0.00622637,-0.00115056,0.0180342,0.0209455,-0.0158697,0.684527,0.0213225,0.0443435,1098,372,5.74913,33.251
-119,652,5.77332,-33.5992,0.00411853,0.0027944,0.0209978,0.0244647,-0.0175518,0.769638,0.0243674,0.0411524,1105,372,5.77332,33.5992
-112,652,5.80005,-34.0003,0.00252299,0.00542208,0.0222783,0.0262979,-0.0183529,0.817885,0.0259148,0.0452819,1112,372,5.8001,34.0003
-105,652,5.6532,-34.1079,0,0,0,0,0,0,0,-1,1119,372,5.65321,34.1079
-98,652,5.75757,-34.0146,0,0,0,0,0,0,0,-1,1126,372,5.7576,34.0146
-91,652,5.66296,-32.9003,0,0,0,0,0,0,0,-1,1133,372,5.66297,32.9003
-84,652,5.46057,-34.9186,0,0,0,0,0,0,0,-1,1140,372,5.46057,34.9186
-77,652,5.49707,-35.5719,0,0,0,0,0,0,0,-1,1147,372,5.49707,35.5719
-70,652,5.4845,-35.9048,0,0,0,0,0,0,0,-1,1154,372,5.48447,35.9048
-63,652,5.44897,-36.1665,0,0,0,0,0,0,0,-1,1161,372,5.44902,36.1665
-56,652,5.37573,-36.412,0,0,0,0,0,0,0,-1,1168,372,5.37568,36.412
-49,652,5.38306,-36.6527,-0.0064456,0.0120996,-0.00166474,0.0122478,-0.00659386,-1.48198,0.0110403,0.0376488,1175,372,5.3831,36.6527
-42,652,5.30676,-36.805,-0.00620445,0.0123476,-0.00177594,0.0125161,-0.00637293,-1.47621,0.0110962,0.0121801,1182,372,5.30671,36.805
-35,652,5.2926,-36.9992,-0.00547072,0.0135701,-0.00147623,0.0136839,-0.00558449,-1.49388,0.0114475,0.0101958,1189,372,5.2926,36.9992
-28,652,5.25745,-37.1893,-0.00457632,0.0145563,-0.00100188,0.0146087,-0.00462864,-1.51862,0.0115942,0.00821723,1196,372,5.2575,37.1893
-21,652,5.19983,-37.3699,-0.00358195,0.0152795,-0.000445774,0.01529,-0.00359248,-1.54718,0.0115782,0.00815647,1203,372,5.19982,37.3699
-14,652,5.17151,-37.5182,-0.00252837,0.0157495,0.000233287,0.0157525,-0.00253135,1.55804,0.0114392,0.0107103,1210,372,5.17149,37.5183
-7,652,5.14685,-37.6658,-0.00136902,0.0159357,0.000796896,0.0159723,-0.00140565,1.52488,0.0111463,0.0131537,1217,372,5.14683,37.6658
0,652,5.12781,-37.7736,-0.000422275,0.0156354,0.00124144,0.0157308,-0.000517686,1.49409,0.0106639,0.0121089,1224,372,5.12779,37.7736
7,652,5.10291,-37.8307,0.000533465,0.015317,0.00168311,0.0155062,0.000344263,1.45885,0.0102246,0.0130108,1231,372,5.10292,37.8307
14,652,5.06812,-37.9192,0.0012674,0.0150715,0.00213751,0.0153949,0.000943989,1.42063,0.00996354,0.0118144,1238,372,5.06816,37.9192
21,652,5.02698,-38.022,0.00163241,0.0146958,0.00262696,0.0152042,0.00112394,1.3796,0.00978305,0.0105788,1245,372,5.02701,38.022
28,652,4.99475,-38.1184,0.00181096,0.0148624,0.00311696,0.0155686,0.00110477,1.34799,0.0100311,0.00976655,1252,372,4.99475,38.1184
35,652,4.96216,-38.1571,0.00204429,0.0162923,0.00370496,0.0171981,0.00113847,1.33101,0.0111054,0.0105707,1259,372,4.96217,38.1571
42,652,4.9292,-38.1944,0.00208691,0.0179132,0.00459552,0.0191508,0.000849279,1.30773,0.0124937,0.0115624,1266,372,4.92921,38.1944
49,652,4.93079,-38.2266,0.00180841,0.0202752,0.00554269,0.021811,0.000272539,1.30048,0.0144507,0.0132288,1273,372,4.93079,38.2266
56,652,4.91479,-38.2316,0.00132225,0.0237218,0.00638135,0.0254122,-0.000368152,1.31185,0.0170655,0.0146677,1280,372,4.91483,38.2316
63,652,4.8761,-38.2477,0.000830539,0.0274642,0.00739977,0.0293821,-0.00108728,1.3172,0.0199603,0.0191699,1287,372,4.87615,38.2476
70,652,4.84473,-38.2193,0.000233954,0.0314029,0.00861247,0.0336244,-0.00198748,1.31837,0.0231073,0.0174411,1294,372,4.84476,38.2193
77,652,4.78101,-38.203,-3.27479e-05,0.0349415,0.00967364,0.0374388,-0.00253009,1.31815,0.0258439,0.0158969,1301,372,4.78103,38.203
84,652,4.78955,-38.201,-0.000298898,0.0380782,0.0104799,0.0407535,-0.00297421,1.32085,0.0282127,0.0136381,1308,372,4.78956,38.201
91,652,4.75439,-38.183,-0.000658324,0.0405164,0.0111111,0.0433234,-0.00346534,1.32334,0.0301039,0.0170205,1315,372,4.75437,38.183
98,652,4.75244,-38.0911,-0.000963515,0.0423862,0.0117081,0.0453463,-0.00392358,1.32316,0.03162,0.0139373,1322,372,4.75249,38.0911
105,652,4.7179,-37.965,-0.00104565,0.0436033,0.0120808,0.0466624,-0.0041048,1.32279,0.0325629,0.0117224,1329,372,4.71787,37.965
112,652,4.67651,-37.8669,-0.00117854,0.043782,0.012068,0.0468164,-0.00421294,1.32446,0.0327058,0.0101994,1336,372,4.67647,37.867
119,652,4.64905,-37.7299,-0.00130757,0.0428223,0.0117129,0.0457385,-0.0042237,1.32679,0.0319933,0.0108221,1343,372,4.64911,37.7299
126,652,4.60852,-37.5919,-0.00145507,0.0414381,0.0110963,0.0441386,-0.00415561,1.33206,0.0309042,0.0132975,1350,372,4.60857,37.5919
133,652,4.56323,-37.4577,-0.00173925,0.0392287,0.0103141,0.0416788,-0.00418937,1.33757,0.0292824,0.0139222,1357,372,4.56325,37.4577
140,652,4.53137,-37.3108,-0.00226816,0.0361452,0.00941167,0.0383272,-0.00445017,1.34298,0.0271567,0.0102048,1364,372,4.53133,37.3108
147,652,4.51697,-37.1437,-0.00268121,0.0330958,0.00828154,0.0349198,-0.0045052,1.35401,0.0249177,0.00968786,1371,372,4.51701,37.1437
154,652,4.49219,-36.9565,-0.00296454,0.0298512,0.00725538,0.0313838,-0.00449709,1.36263,0.0225714,0.00981601,1378,372,4.49222,36.9565
161,652,4.45251,-36.7513,-0.00334529,0.0265349,0.00630247,0.0278099,-0.00462023,1.3712,0.0202564,0.0112082,1385,372,4.45253,36.7513
168,652,4.41406,-36.5401,-0.00361269,0.0234877,0.00541388,0.0245292,-0.0046542,1.38074,0.0181047,0.0124944,1392,372,4.41404,36.5401
175,652,4.37512,-36.3068,-0.00376118,0.0207007,0.00469302,0.0215701,-0.00463063,1.38761,0.0161465,0.0133692,1399,372,4.37516,36.3068
182,652,4.32202,-36.0955,-0.00446353,0.0186443,0.00415668,0.0193692,-0.0051885,1.39812,0.0149456,0.0185786,1406,372,4.32199,36.0955
189,652,4.32776,-35.848,-0.00443838,0.0167946,0.00401977,0.0175301,-0.00517391,1.38982,0.01374,0.0297118,1413,372,4.32775,35.848
196,652,4.3136,-35.5704,0,0,0,0,0,0,0,-1,1420,372,4.31362,35.5704
203,652,4.23413,-35.2817,0,0,0,0,0,0,0,-1,1427,372,4.23414,35.2817
210,652,4.27112,-34.8894,0,0,0,0,0,0,0,-1,1434,372,4.27114,34.8894
217,652,4.16736,-34.6706,0,0,0,0,0,0,0,-1,1441,372,4.16739,34.6706
224,652,3.63794,-31.2791,0,0,0,0,0,0,0,-1,1448,372,3.63799,31.2791
231,652,3.83936,-30.4812,0,0,0,0,0,0,0,-1,1455,372,3.8393,30.4812
238,652,4.09485,-33.5233,0,0,0,0,0,0,0,-1,1462,372,4.09486,33.5233
245,652,3.96021,-33.3135,0,0,0,0,0,0,0,-1,1469,372,3.96022,33.3135
252,652,4.05688,-32.9162,0,0,0,0,0,0,0,-1,1476,372,4.05687,32.9162
259,652,3.44922,-31.2655,0,0,0,0,0,0,0,-1,1483,372,3.44921,31.2655
266,652,3.44373,-31.9136,0,0,0,0,0,0,0,-1,1490,372,3.44376,31.9136
273,652,3.65649,-31.6851,0,0,0,0,0,0,0,-1,1497,372,3.65652,31.6851
280,652,3.66248,-31.5536,0,0,0,0,0,0,0,-1,1504,372,3.66245,31.5536
287,652,-4.85657,-17.9135,0,0,0,0,0,0,0,-1,1511,372,-4.85654,17.9135
294,652,-4.04944,-19.3749,0,0,0,0,0,0,0,-1,1518,372,-4.04947,19.3749
301,652,-3.20532,-20.8242,0,0,0,0,0,0,0,-1,1525,372,-3.20529,20.8242
308,652,-2.45239,-22.425,0,0,0,0,0,0,0,-1,1532,372,-2.4524,22.4249
315,652,-1.26086,-21.9686,0,0,0,0,0,0,0,-1,1539,372,-1.26084,21.9686
322,652,-0.665649,-22.1747,0,0,0,0,0,0,0,-1,1546,372,-0.665604,22.1748
329,652,3.6593,-22.1693,0,0,0,0,0,0,0,-1,1553,372,3.65935,22.1693
336,652,3.52173,-24.2133,0,0,0,0,0,0,0,-1,1560,372,3.52174,24.2133
343,652,4.85767,-24.4762,0,0,0,0,0,0,0,-1,1567,372,4.85772,24.4762
350,652,5.28394,-25.6715,0,0,0,0,0,0,0,-1,1574,372,5.28393,25.6715
357,652,0,0,0,0,0,0,0,0,0,-1,1581,372,0,0
364,652,0,0,0,0,0,0,0,0,0,-1,1588,372,0,0
371,652,0,0,0,0,0,0,0,0,0,-1,1595,372,0,0
378,652,0,0,0,0,0,0,0,0,0,-1,1602,372,0,0
385,652,0,0,0,0,0,0,0,0,0,-1,1609,372,0,0
392,652,0,0,0,0,0,0,0,0,0,-1,1616,372,0,0
399,652,0,0,0,0,0,0,0,0,0,-1,1623,372,0,0
406,652,0,0,0,0,0,0,0,0,0,-1,1630,372,0,0
413,652,0,0,0,0,0,0,0,0,0,-1,1637,372,0,0
420,652,0,0,0,0,0,0,0,0,0,-1,1644,372,0,0
427,652,0,0,0,0,0,0,0,0,0,-1,1651,372,0,0
434,652,0,0,0,0,0,0,0,0,0,-1,1658,372,0,0
441,652,0,0,0,0,0,0,0,0,0,-1,1665,372,0,0
448,652,0,0,0,0,0,0,0,0,0,-1,1672,372,0,0
455,652,0,0,0,0,0,0,0,0,0,-1,1679,372,0,0
462,652,0,0,0,0,0,0,0,0,0,-1,1686,372,0,0
469,652,0,0,0,0,0,0,0,0,0,-1,1693,372,0,0
476,652,0,0,0,0,0,0,0,0,0,-1,1700,372,0,0
483,652,0,0,0,0,0,0,0,0,0,-1,1707,372,0,0
490,652,0,0,0,0,0,0,0,0,0,-1,1714,372,0,0
497,652,0,0,0,0,0,0,0,0,0,-1,1721,372,0,0
504,652,0,0,0,0,0,0,0,0,0,-1,1728,372,0,0
511,652,0,0,0,0,0,0,0,0,0,-1,1735,372,0,0
518,652,0,0,0,0,0,0,0,0,0,-1,1742,372,0,0
525,652,0,0,0,0,0,0,0,0,0,-1,1749,372,0,0
532,652,0,0,0,0,0,0,0,0,0,-1,1756,372,0,0
539,652,0,0,0,0,0,0,0,0,0,-1,1763,372,0,0
546,652,0,0,0,0,0,0,0,0,0,-1,1770,372,0,0
553,652,0,0,0,0,0,0,0,0,0,-1,1777,372,0,0
560,652,0,0,0,0,0,0,0,0,0,-1,1784,372,0,0
567,652,0,0,0,0,0,0,0,0,0,-1,1791,372,0,0
574,652,0,0,0,0,0,0,0,0,0,-1,1798,372,0,0
581,652,0,0,0,0,0,0,0,0,0,-1,1805,372,0,0
588,652,0,0,0,0,0,0,0,0,0,-1,1812,372,0,0
595,652,0,0,0,0,0,0,0,0,0,-1,1819,372,0,0
602,652,0,0,0,0,0,0,0,0,0,-1,1826,372,0,0
609,652,0,0,0,0,0,0,0,0,0,-1,1833,372,0,0
616,652,0,0,0,0,0,0,0,0,0,-1,1840,372,0,0
623,652,0,0,0,0,0,0,0,0,0,-1,1847,372,0,0
630,652,0,0,0,0,0,0,0,0,0,-1,1854,372,0,0
637,652,0,0,0,0,0,0,0,0,0,-1,1861,372,0,0
644,652,0,0,0,0,0,0,0,0,0,-1,1868,372,0,0
651,652,0,0,0,0,0,0,0,0,0,-1,1875,372,0,0
658,652,0,0,0,0,0,0,0,0,0,-1,1882,372,0,0
665,652,0,0,0,0,0,0,0,0,0,-1,1889,372,0,0
672,652,0,0,0,0,0,0,0,0,0,-1,1896,372,0,0
679,652,0,0,0,0,0,0,0,0,0,-1,1903,372,0,0
686,652,0,0,0,0,0,0,0,0,0,-1,1910,372,0,0
693,652,0,0,0,0,0,0,0,0,0,-1,1917,372,0,0
700,652,0,0,0,0,0,0,0,0,0,-1,1924,372,0,0
707,652,0,0,0,0,0,0,0,0,0,-1,1931,372,0,0
714,652,0,0,0,0,0,0,0,0,0,-1,1938,372,0,0
721,652,0,0,0,0,0,0,0,0,0,-1,1945,372,0,0
728,652,0,0,0,0,0,0,0,0,0,-1,1952,372,0,0
735,652,0,0,0,0,0,0,0,0,0,-1,1959,372,0,0
742,652,0,0,0,0,0,0,0,0,0,-1,1966,372,0,0
749,652,0,0,0,0,0,0,0,0,0,-1,1973,372,0,0
756,652,0,0,0,0,0,0,0,0,0,-1,1980,372,0,0
763,652,0,0,0,0,0,0,0,0,0,-1,1987,372,0,0
770,652,0,0,0,0,0,0,0,0,0,-1,1994,372,0,0
777,652,0,0,0,0,0,0,0,0,0,-1,2001,372,0,0
784,652,0,0,0,0,0,0,0,0,0,-1,2008,372,0,0
791,652,0,0,0,0,0,0,0,0,0,-1,2015,372,0,0
798,652,0,0,0,0,0,0,0,0,0,-1,2022,372,0,0
805,652,0,0,0,0,0,0,0,0,0,-1,2029,372,0,0
812,652,0,0,0,0,0,0,0,0,0,-1,2036,372,0,0
-700,645,0,0,0,0,0,0,0,0,0,-1,524,379,0,0
-693,645,0,0,0,0,0,0,0,0,0,-1,531,379,0,0
-686,645,0,0,0,0,0,0,0,0,0,-1,538,379,0,0
-679,645,0,0,0,0,0,0,0,0,0,-1,545,379,0,0
-672,645,0,0,0,0,0,0,0,0,0,-1,552,379,0,0
-665,645,0,0,0,0,0,0,0,0,0,-1,559,379,0,0
-658,645,0,0,0,0,0,0,0,0,0,-1,566,379,0,0
-651,645,0,0,0,0,0,0,0,0,0,-1,573,379,0,0
-644,645,0,0,0,0,0,0,0,0,0,-1,580,379,0,0
-637,645,0,0,0,0,0,0,0,0,0,-1,587,379,0,0
-630,645,0,0,0,0,0,0,0,0,0,-1,594,379,0,0
-623,645,0,0,0,0,0,0,0,0,0,-1,601,379,0,0
-616,645,0,0,0,0,0,0,0,0,0,-1,608,379,0,0
-609,645,0,0,0,0,0,0,0,0,0,-1,615,379,0,0
-602,645,0,0,0,0,0,0,0,0,0,-1,622,379,0,0
-595,645,0,0,0,0,0,0,0,0,0,-1,629,379,0,0
-588,645,0,0,0,0,0,0,0,0,0,-1,636,379,0,0
-581,645,0,0,0,0,0,0,0,0,0,-1,643,379,0,0
-574,645,0,0,0,0,0,0,0,0,0,-1,650,379,0,0
-567,645,0,0,0,0,0,0,0,0,0,-1,657,379,0,0
-560,645,0,0,0,0,0,0,0,0,0,-1,664,379,0,0
-553,645,0,0,0,0,0,0,0,0,0,-1,671,379,0,0
-546,645,0,0,0,0,0,0,0,0,0,-1,678,379,0,0
-539,645,0,0,0,0,0,0,0,0,0,-1,685,379,0,0
-532,645,0,0,0,0,0,0,0,0,0,-1,692,379,0,0
-525,645,0,0,0,0,0,0,0,0,0,-1,699,379,0,0
-518,645,0,0,0,0,0,0,0,0,0,-1,706,379,0,0
-511,645,0,0,0,0,0,0,0,0,0,-1,713,379,0,0
-504,645,0,0,0,0,0,0,0,0,0,-1,720,379,0,0
-497,645,0,0,0,0,0,0,0,0,0,-1,727,379,0,0
-490,645,0,0,0,0,0,0,0,0,0,-1,734,379,0,0
-483,645,0,0,0,0,0,0,0,0,0,-1,741,379,0,0
-476,645,0,0,0,0,0,0,0,0,0,-1,748,379,0,0
-469,645,0,0,0,0,0,0,0,0,0,-1,755,379,0,0
-462,645,0,0,0,0,0,0,0,0,0,-1,762,379,0,0
-455,645,0,0,0,0,0,0,0,0,0,-1,769,379,0,0
-448,645,0,0,0,0,0,0,0,0,0,-1,776,379,0,0
-441,645,0,0,0,0,0,0,0,0,0,-1,783,379,0,0
-434,645,0,0,0,0,0,0,0,0,0,-1,790,379,0,0
-427,645,0,0,0,0,0,0,0,0,0,-1,797,379,0,0
-420,645,0,0,0,0,0,0,0,0,0,-1,804,379,0,0
-413,645,0,0,0,0,0,0,0,0,0,-1,811,379,0,0
-406,645,0,0,0,0,0,0,0,0,0,-1,818,379,0,0
-399,645,0,0,0,0,0,0,0,0,0,-1,825,379,0,0
-392,645,0,0,0,0,0,0,0,0,0,-1,832,379,0,0
-385,645,0,0,0,0,0,0,0,0,0,-1,839,379,0,0
-378,645,0,0,0,0,0,0,0,0,0,-1,846,379,0,0
-371,645,0,0,0,0,0,0,0,0,0,-1,853,379,0,0
-364,645,0,0,0,0,0,0,0,0,0,-1,860,379,0,0
-357,645,0,0,0,0,0,0,0,0,0,-1,867,379,0,0
-350,645,0,0,0,0,0,0,0,0,0,-1,874,379,0,0
-343,645,0,0,0,0,0,0,0,0,0,-1,881,379,0,0
-336,645,0,0,0,0,0,0,0,0,0,-1,888,379,0,0
-329,645,0,0,0,0,0,0,0,0,0,-1,895,379,0,0
-322,645,0,0,0,0,0,0,0,0,0,-1,902,379,0,0
-315,645,0,0,0,0,0,0,0,0,0,-1,909,379,0,0
-308,645,0,0,0,0,0,0,0,0,0,-1,916,379,0,0
-301,645,0,0,0,0,0,0,0,0,0,-1,923,379,0,0
-294,645,0,0,0,0,0,0,0,0,0,-1,930,379,0,0
-287,645,0,0,0,0,0,0,0,0,0,-1,937,379,0,0
-280,645,0,0,0,0,0,0,0,0,0,-1,944,379,0,0
-273,645,0,0,0,0,0,0,0,0,0,-1,951,379,0,0
-266,645,0,0,0,0,0,0,0,0,0,-1,958,379,0,0
-259,645,0,0,0,0,0,0,0,0,0,-1,965,379,0,0
-252,645,2.95691,-26.9133,0,0,0,0,0,0,0,-1,972,379,2.9569,26.9133
-245,645,2.73169,-27.0215,0,0,0,0,0,0,0,-1,979,379,2.73172,27.0215
-238,645,2.6665,-26.9464,0,0,0,0,0,0,0,-1,986,379,2.66649,26.9464
-231,645,7.26807,-29.1054,0,0,0,0,0,0,0,-1,993,379,7.26806,29.1054
-224,645,7.69073,-29.5737,0,0,0,0,0,0,0,-1,1000,379,7.69071,29.5737
-217,645,8.24072,-30.3526,0,0,0,0,0,0,0,-1,1007,379,8.24072,30.3526
-210,645,8.59003,-30.9099,0,0,0,0,0,0,0,-1,1014,379,8.59,30.9099
-203,645,7.12036,-27.5125,0,0,0,0,0,0,0,-1,1021,379,7.1204,27.5126
-196,645,6.22046,-26.9977,0,0,0,0,0,0,0,-1,1028,379,6.22051,26.9977
-189,645,3.66125,-28.5847,0,0,0,0,0,0,0,-1,1035,379,3.66123,28.5847
-182,645,3.93347,-28.7473,0,0,0,0,0,0,0,-1,1042,379,3.93342,28.7473
-175,645,4.625,-29.7562,0,0,0,0,0,0,0,-1,1049,379,4.62497,29.7562
-168,645,5.20068,-31.5289,0,0,0,0,0,0,0,-1,1056,379,5.20066,31.5289
-161,645,5.4259,-32.2333,0.0181359,-0.0204761,-0.0136116,0.0224519,-0.0247921,-0.307053,0.0272875,0.0485666,1063,379,5.42595,32.2333
-154,645,5.91553,-32.2713,0.0145763,-0.0156426,-0.00778177,0.0164625,-0.0175288,-0.237798,0.0196281,0.0450342,1070,379,5.9155,32.2713
-147,645,6.20374,-32.393,0.011229,-0.0106619,-0.00242159,0.0114937,-0.0109266,-0.108867,0.0129457,0.0413458,1077,379,6.20376,32.393
-140,645,5.48096,-32.6572,0.00841641,-0.00642979,0.00218432,0.00873112,-0.0067445,0.143091,0.00895936,0.0478135,1084,379,5.481,32.6572
-133,645,5.55481,-32.9397,0,0,0,0,0,0,0,-1,1091,379,5.55484,32.9397
-126,645,5.53198,-33.3326,0.00387145,0.00102648,0.00918204,0.0117405,-0.0068426,0.708549,0.0108525,0.0401403,1098,379,5.532,33.3326
-119,645,5.49255,-33.8083,0.00224299,0.00404675,0.0113087,0.0144895,-0.00819976,0.825189,0.0132664,0.0224179,1105,379,5.49258,33.8084
-112,645,5.46021,-34.1711,0.000993637,0.00611624,0.0122602,0.0160799,-0.00896998,0.888373,0.0146554,0.0152952,1112,379,5.46021,34.1711
-105,645,5.43018,-34.4212,9.69432e-05,0.00692704,0.0122072,0.0161879,-0.00916393,0.921789,0.014823,0.0268749,1119,379,5.43018,34.4212
-98,645,5.36316,-34.5975,-0.000530582,0.00678285,0.0107585,0.0144891,-0.00823682,0.949219,0.0132853,0.0446913,1126,379,5.36312,34.5975
-91,645,5.3927,-34.8733,0,0,0,0,0,0,0,-1,1133,379,5.39275,34.8733
-84,645,5.24536,-35.4823,0,0,0,0,0,0,0,-1,1140,379,5.24541,35.4823
-77,645,5.3208,-35.7394,-0.00143613,0.0052699,0.00551577,0.00837184,-0.00453807,1.0585,0.00756229,0.0340725,1147,379,5.32079,35.7394
-70,645,5.25635,-35.9669,-0.00305116,0.00667734,0.00240546,0.00723961,-0.00361344,1.34117,0.00638153,0.014974,1154,379,5.25636,35.9669
-63,645,5.22595,-36.1839,-0.00472661,0.0077335,-0.000926672,0.00780204,-0.00479515,-1.49697,0.00734173,0.0117773,1161,379,5.22589,36.1839
-56,645,5.19141,-36.3939,-0.00489425,0.00865317,-0.00112004,0.00874515,-0.00498622,-1.48886,0.00802622,0.012587,1168,379,5.19141,36.3939
-49,645,5.17261,-36.6144,-0.00458909,0.00865301,-0.00116402,0.00875455,-0.00469063,-1.48378,0.00787989,0.0108383,1175,379,5.17256,36.6144
-42,645,5.13477,-36.8224,-0.00425761,0.00857762,-0.00119409,0.00868776,-0.00436775,-1.47882,0.00767392,0.0101466,1182,379,5.13474,36.8224
-35,645,5.12158,-37.0358,-0.00387071,0.00896611,-0.00122108,0.00908123,-0.00398583,-1.4768,0.0077331,0.0107731,1189,379,5.12155,37.0358
-28,645,5.08838,-37.2368,-0.00342253,0.00918935,-0.00119444,0.00930147,-0.00353466,-1.4772,0.00765619,0.0088711,1196,379,5.08834,37.2368
-21,645,5.04822,-37.3849,-0.00299962,0.00927898,-0.00117487,0.00939039,-0.00311103,-1.47625,0.00751507,0.0100123,1203,379,5.04816,37.3849
-14,645,5.04382,-37.5387,-0.002652,0.00923602,-0.00110147,0.00933721,-0.0027532,-1.47918,0.00731728,0.0103954,1210,379,5.04385,37.5387
-7,645,5.04993,-37.7073,-0.00230178,0.00903964,-0.00111765,0.00914873,-0.00241087,-1.4735,0.00704172,0.0138617,1217,379,5.04991,37.7073
0,645,5.02686,-37.8163,-0.0019529,0.00866663,-0.0010926,0.00877788,-0.00206414,-1.46933,0.00664766,0.0247563,1224,379,5.0269,37.8163
7,645,4.98376,-37.8673,-0.00163393,0.00833639,-0.00101354,0.00843838,-0.00173592,-1.47051,0.00628466,0.0173966,1231,379,4.98376,37.8673
14,645,4.97253,-37.9457,-0.00146918,0.00812525,-0.000845095,0.00819912,-0.00154305,-1.48361,0.00604642,0.0158268,1238,379,4.97254,37.9457
21,645,4.93152,-38.0589,-0.00146608,0.0079383,-0.000531148,0.0079682,-0.00149598,-1.51456,0.00587464,0.0106933,1245,379,4.93156,38.0589
28,645,4.92871,-38.1489,-0.00142398,0.00816209,-0.000242758,0.00816824,-0.00143013,-1.54549,0.00597948,0.00977554,1252,379,4.92874,38.1489
35,645,4.91211,-38.1986,-0.00128268,0.0093385,0.000226875,0.00934334,-0.00128752,1.54945,0.00669943,0.00927149,1259,379,4.91211,38.1986
42,645,4.89526,-38.2471,-0.00119943,0.010462,0.000954914,0.0105396,-0.00127711,1.48963,0.00748852,0.00909288,1266,379,4.89523,38.2471
49,645,4.91748,-38.2805,-0.00116942,0.0120409,0.00175517,0.0122701,-0.00139864,1.44093,0.00868393,0.0121096,1273,379,4.91752,38.2805
56,645,4.91663,-38.2816,-0.00120316,0.014269,0.00250699,0.014665,-0.00159924,1.4141,0.010351,0.0119783,1280,379,4.91662,38.2816
63,645,4.89478,-38.2903,-0.00121056,0.0164577,0.0032652,0.0170418,-0.00179467,1.39378,0.0120042,0.0120446,1287,379,4.89475,38.2903
70,645,4.84497,-38.2614,-0.00122194,0.0188465,0.00416117,0.0196751,-0.00205055,1.37424,0.0138509,0.0164203,1294,379,4.84494,38.2614
77,645,4.82764,-38.2591,-0.00102201,0.0209605,0.00494883,0.0220232,-0.00208474,1.35926,0.0154241,0.0190704,1301,379,4.82765,38.2591
84,645,4.85583,-38.2035,-0.000830996,0.022676,0.00548474,0.0238927,-0.00204773,1.35249,0.0166531,0.0139798,1308,379,4.85587,38.2035
91,645,4.8114,-38.1703,-0.000778094,0.0238589,0.00583276,0.02517,-0.00208922,1.34969,0.017518,0.0156657,1315,379,4.81143,38.1703
98,645,4.80212,-38.0837,-0.000737671,0.024661,0.00612784,0.0260621,-0.00213882,1.34601,0.0181298,0.014096,1322,379,4.80208,38.0837
105,645,4.78967,-37.9738,-0.000626861,0.0250716,0.0062456,0.0265091,-0.00206434,1.34458,0.0183995,0.0109238,1329,379,4.78965,37.9738
112,645,4.76099,-37.8784,-0.000541942,0.0250506,0.00616122,0.0264566,-0.00194797,1.34643,0.0183216,0.00932055,1336,379,4.76096,37.8784
119,645,4.74976,-37.7613,-0.000467708,0.0244234,0.00592163,0.0257604,-0.00180466,1.34875,0.0178057,0.00951846,1343,379,4.7497,37.7613
126,645,4.72278,-37.6232,-0.000449171,0.0236566,0.00556072,0.0248775,-0.00167008,1.35467,0.0171688,0.0125122,1350,379,4.72283,37.6232
133,645,4.71252,-37.476,-0.00060676,0.0224527,0.00524671,0.0235904,-0.00174441,1.35727,0.0163395,0.0134282,1357,379,4.71251,37.476
140,645,4.70264,-37.3394,-0.000924251,0.0207467,0.00486657,0.0217894,-0.00196696,1.35973,0.0152243,0.0126751,1364,379,4.70263,37.3394
147,645,4.66809,-37.1758,-0.00122334,0.0193566,0.00433094,0.0202309,-0.00209762,1.3716,0.0142381,0.0132036,1371,379,4.66809,37.1758
154,645,4.67188,-37.0012,-0.00149419,0.0179592,0.00388658,0.018707,-0.00224194,1.38072,0.0132818,0.012099,1378,379,4.67186,37.0012
161,645,4.66382,-36.7945,-0.00181972,0.0166543,0.00353078,0.0173061,-0.00247153,1.38824,0.0124433,0.0144394,1385,379,4.66385,36.7945
168,645,4.62158,-36.5717,-0.0021681,0.0156153,0.00329424,0.0162059,-0.00275872,1.39339,0.0118312,0.0169581,1392,379,4.62158,36.5717
175,645,4.60107,-36.3598,-0.0024827,0.0143007,0.00308424,0.0148495,-0.00303153,1.39469,0.0110497,0.0155288,1399,379,4.60113,36.3598
182,645,4.5636,-36.121,-0.00304371,0.0132161,0.00289744,0.013717,-0.00354459,1.39962,0.010527,0.0113046,1406,379,4.56363,36.121
189,645,4.54114,-35.8394,-0.00310559,0.012146,0.00288863,0.0126748,-0.00363436,1.38975,0.00988653,0.0111428,1413,379,4.5411,35.8394
196,645,4.49658,-35.597,-0.00277123,0.0110812,0.00298849,0.0116984,-0.00338846,1.36712,0.00914023,0.0114227,1420,379,4.49652,35.597
203,645,4.45813,-35.2977,-0.00257927,0.010663,0.00333214,0.0114542,-0.00337046,1.33767,0.00897318,0.0117029,1427,379,4.45813,35.2977
210,645,4.46973,-34.9376,-0.0026061,0.00982363,0.00354345,0.0107628,-0.0035453,1.3117,0.008604,0.0210104,1434,379,4.46969,34.9376
217,645,4.43811,-34.7209,-0.00227656,0.0103111,0.00337826,0.0111604,-0.0031259,1.32449,0.0086721,0.0429872,1441,379,4.43806,34.7209
224,645,4.3551,-34.4247,0,0,0,0,0,0,0,-1,1448,379,4.35514,34.4247
231,645,4.29248,-34.0481,0,0,0,0,0,0,0,-1,1455,379,4.29253,34.0481
238,645,4.25378,-33.7115,-0.000420575,0.0134052,0.00357798,0.0142762,-0.00129164,1.33199,0.00997595,0.0341387,1462,379,4.25374,33.7115
245,645,4.26111,-33.3944,-0.000185222,0.0139897,0.00361592,0.0148588,-0.00105433,1.33491,0.0102754,0.0187127,1469,379,4.2611,33.3944
252,645,4.28369,-32.9037,0.000355376,0.0147302,0.00379391,0.0156701,-0.000584486,1.32796,0.0106469,0.0333039,1476,379,4.28371,32.9037
259,645,4.12769,-32.6843,0,0,0,0,0,0,0,-1,1483,379,4.12769,32.6843
266,645,3.94531,-32.1479,0.00149321,0.0162637,0.00463225,0.0175962,0.000160676,1.29069,0.0116776,0.037463,1490,379,3.94531,32.148
273,645,4.03809,-31.8516,0.00198103,0.0171303,0.00530514,0.0188033,0.000307984,1.2653,0.0124342,0.0223247,1497,379,4.03806,31.8516
280,645,4.10107,-31.5468,0.00243001,0.0180542,0.00611085,0.0201603,0.000323873,1.23889,0.0133336,0.0485121,1504,379,4.10109,31.5468
287,645,4.42273,-30.9249,0,0,0,0,0,0,0,-1,1511,379,4.42267,30.9249
294,645,4.2489,-31.3417,0,0,0,0,0,0,0,-1,1518,379,4.24885,31.3417
301,645,-1.69275,-19.2987,0,0,0,0,0,0,0,-1,1525,379,-1.69269,19.2987
308,645,0.388428,-19.7402,0,0,0,0,0,0,0,-1,1532,379,0.388487,19.7402
315,645,2.61792,-20.2319,0,0,0,0,0,0,0,-1,1539,379,2.61791,20.2319
322,645,3.82935,-29.5213,0,0,0,0,0,0,0,-1,1546,379,3.82929,29.5213
329,645,3.61487,-26.396,0,0,0,0,0,0,0,-1,1553,379,3.61483,26.396
336,645,4.32666,-28.5038,0,0,0,0,0,0,0,-1,1560,379,4.32665,28.5038
343,645,4.77185,-23.7191,0,0,0,0,0,0,0,-1,1567,379,4.77184,23.7191
350,645,4.76404,-22.1987,0,0,0,0,0,0,0,-1,1574,379,4.76399,22.1987
357,645,4.61316,-21.967,0,0,0,0,0,0,0,-1,1581,379,4.61316,21.967
364,645,-0.0794678,-3.22021,0,0,0,0,0,0,0,-1,1588,379,-0.0794987,3.22021
371,645,0,0,0,0,0,0,0,0,0,-1,1595,379,0,0
378,645,0,0,0,0,0,0,0,0,0,-1,1602,379,0,0
385,645,0,0,0,0,0,0,0,0,0,-1,1609,379,0,0
392,645,0,0,0,0,0,0,0,0,0,-1,1616,379,0,0
399,645,0,0,0,0,0,0,0,0,0,-1,1623,379,0,0
406,645,0,0,0,0,0,0,0,0,0,-1,1630,379,0,0
413,645,0,0,0,0,0,0,0,0,0,-1,1637,379,0,0
420,645,0,0,0,0,0,0,0,0,0,-1,1644,379,0,0
427,645,0,0,0,0,0,0,0,0,0,-1,1651,379,0,0
434,645,0,0,0,0,0,0,0,0,0,-1,1658,379,0,0
441,645,0,0,0,0,0,0,0,0,0,-1,1665,379,0,0
448,645,0,0,0,0,0,0,0,0,0,-1,1672,379,0,0
455,645,0,0,0,0,0,0,0,0,0,-1,1679,379,0,0
462,645,0,0,0,0,0,0,0,0,0,-1,1686,379,0,0
469,645,0,0,0,0,0,0,0,0,0,-1,1693,379,0,0
476,645,0,0,0,0,0,0,0,0,0,-1,1700,379,0,0
483,645,0,0,0,0,0,0,0,0,0,-1,1707,379,0,0
490,645,0,0,0,0,0,0,0,0,0,-1,1714,379,0,0
497,645,0,0,0,0,0,0,0,0,0,-1,1721,379,0,0
504,645,0,0,0,0,0,0,0,0,0,-1,1728,379,0,0
511,645,0,0,0,0,0,0,0,0,0,-1,1735,379,0,0
518,645,0,0,0,0,0,0,0,0,0,-1,1742,379,0,0
525,645,0,0,0,0,0,0,0,0,0,-1,1749,379,0,0
532,645,0,0,0,0,0,0,0,0,0,-1,1756,379,0,0
539,645,0,0,0,0,0,0,0,0,0,-1,1763,379,0,0
546,645,0,0,0,0,0,0,0,0,0,-1,1770,379,0,0
553,645,0,0,0,0,0,0,0,0,0,-1,1777,379,0,0
560,645,0,0,0,0,0,0,0,0,0,-1,1784,379,0,0
567,645,0,0,0,0,0,0,0,0,0,-1,1791,379,0,0
574,645,0,0,0,0,0,0,0,0,0,-1,1798,379,0,0
581,645,0,0,0,0,0,0,0,0,0,-1,1805,379,0,0
588,645,0,0,0,0,0,0,0,0,0,-1,1812,379,0,0
595,645,0,0,0,0,0,0,0,0,0,-1,1819,379,0,0
602,645,0,0,0,0,0,0,0,0,0,-1,1826,379,0,0
609,645,0,0,0,0,0,0,0,0,0,-1,1833,379,0,0
616,645,0,0,0,0,0,0,0,0,0,-1,1840,379,0,0
623,645,0,0,0,0,0,0,0,0,0,-1,1847,379,0,0
630,645,0,0,0,0,0,0,0,0,0,-1,1854,379,0,0
637,645,0,0,0,0,0,0,0,0,0,-1,1861,379,0,0
644,645,0,0,0,0,0,0,0,0,0,-1,1868,379,0,0
651,645,0,0,0,0,0,0,0,0,0,-1,1875,379,0,0
658,645,0,0,0,0,0,0,0,0,0,-1,1882,379,0,0
665,645,0,0,0,0,0,0,0,0,0,-1,1889,379,0,0
672,645,0,0,0,0,0,0,0,0,0,-1,1896,379,0,0
679,645,0,0,0,0,0,0,0,0,0,-1,1903,379,0,0
686,645,0,0,0,0,0,0,0,0,0,-1,1910,379,0,0
693,645,0,0,0,0,0,0,0,0,0,-1,1917,379,0,0
700,645,0,0,0,0,0,0,0,0,0,-1,1924,379,0,0
707,645,0,0,0,0,0,0,0,0,0,-1,1931,379,0,0
714,645,0,0,0,0,0,0,0,0,0,-1,1938,379,0,0
721,645,0,0,0,0,0,0,0,0,0,-1,1945,379,0,0
728,645,0,0,0,0,0,0,0,0,0,-1,1952,379,0,0
735,645,0,0,0,0,0,0,0,0,0,-1,1959,379,0,0
742,645,0,0,0,0,0,0,0,0,0,-1,1966,379,0,0
749,645,0,0,0,0,0,0,0,0,0,-1,1973,379,0,0
756,645,0,0,0,0,0,0,0,0,0,-1,1980,379,0,0
763,645,0,0,0,0,0,0,0,0,0,-1,1987,379,0,0
770,645,0,0,0,0,0,0,0,0,0,-1,1994,379,0,0
777,645,0,0,0,0,0,0,0,0,0,-1,2001,379,0,0
784,645,0,0,0,0,0,0,0,0,0,-1,2008,379,0,0
791,645,0,0,0,0,0,0,0,0,0,-1,2015,379,0,0
798,645,0,0,0,0,0,0,0,0,0,-1,2022,379,0,0
805,645,0,0,0,0,0,0,0,0,0,-1,2029,379,0,0
812,645,0,0,0,0,0,0,0,0,0,-1,2036,379,0,0
-700,638,0,0,0,0,0,0,0,0,0,-1,524,386,0,0
-693,638,0,0,0,0,0,0,0,0,0,-1,531,386,0,0
-686,638,0,0,0,0,0,0,0,0,0,-1,538,386,0,0
-679,638,0,0,0,0,0,0,0,0,0,-1,545,386,0,0
-672,638,0,0,0,0,0,0,0,0,0,-1,552,386,0,0
-665,638,0,0,0,0,0,0,0,0,0,-1,559,386,0,0
-658,638,0,0,0,0,0,0,0,0,0,-1,566,386,0,0
-651,638,0,0,0,0,0,0,0,0,0,-1,573,386,0,0
-644,638,0,0,0,0,0,0,0,0,0,-1,580,386,0,0
-637,638,0,0,0,0,0,0,0,0,0,-1,587,386,0,0
-630,638,0,0,0,0,0,0,0,0,0,-1,594,386,0,0
-623,638,0,0,0,0,0,0,0,0,0,-1,601,386,0,0
-616,638,0,0,0,0,0,0,0,0,0,-1,608,386,0,0
-609,638,0,0,0,0,0,0,0,0,0,-1,615,386,0,0
-602,638,0,0,0,0,0,0,0,0,0,-1,622,386,0,0
-595,638,0,0,0,0,0,0,0,0,0,-1,629,386,0,0
-588,638,0,0,0,0,0,0,0,0,0,-1,636,386,0,0
-581,638,0,0,0,0,0,0,0,0,0,-1,643,386,0,0
-574,638,0,0,0,0,0,0,0,0,0,-1,650,386,0,0
-567,638,0,0,0,0,0,0,0,0,0,-1,657,386,0,0
-560,638,0,0,0,0,0,0,0,0,0,-1,664,386,0,0
-553,638,0,0,0,0,0,0,0,0,0,-1,671,386,0,0
-546,638,0,0,0,0,0,0,0,0,0,-1,678,386,0,0
-539,638,0,0,0,0,0,0,0,0,0,-1,685,386,0,0
-532,638,0,0,0,0,0,0,0,0,0,-1,692,386,0,0
-525,638,0,0,0,0,0,0,0,0,0,-1,699,386,0,0
-518,638,0,0,0,0,0,0,0,0,0,-1,706,386,0,0
-511,638,0,0,0,0,0,0,0,0,0,-1,713,386,0,0
-504,638,0,0,0,0,0,0,0,0,0,-1,720,386,0,0
-497,638,0,0,0,0,0,0,0,0,0,-1,727,386,0,0
-490,638,0,0,0,0,0,0,0,0,0,-1,734,386,0,0
-483,638,0,0,0,0,0,0,0,0,0,-1,741,386,0,0
-476,638,0,0,0,0,0,0,0,0,0,-1,748,386,0,0
-469,638,0,0,0,0,0,0,0,0,0,-1,755,386,0,0
-462,638,0,0,0,0,0,0,0,0,0,-1,762,386,0,0
-455,638,0,0,0,0,0,0,0,0,0,-1,769,386,0,0
-448,638,0,0,0,0,0,0,0,0,0,-1,776,386,0,0
-441,638,0,0,0,0,0,0,0,0,0,-1,783,386,0,0
-434,638,0,0,0,0,0,0,0,0,0,-1,790,386,0,0
-427,638,0,0,0,0,0,0,0,0,0,-1,797,386,0,0
-420,638,0,0,0,0,0,0,0,0,0,-1,804,386,0,0
-413,638,0,0,0,0,0,0,0,0,0,-1,811,386,0,0
-406,638,0,0,0,0,0,0,0,0,0,-1,818,386,0,0
-399,638,0,0,0,0,0,0,0,0,0,-1,825,386,0,0
-392,638,0,0,0,0,0,0,0,0,0,-1,832,386,0,0
-385,638,0,0,0,0,0,0,0,0,0,-1,839,386,0,0
-378,638,0,0,0,0,0,0,0,0,0,-1,846,386,0,0
-371,638,0,0,0,0,0,0,0,0,0,-1,853,386,0,0
-364,638,0,0,0,0,0,0,0,0,0,-1,860,386,0,0
-357,638,0,0,0,0,0,0,0,0,0,-1,867,386,0,0
-350,638,0,0,0,0,0,0,0,0,0,-1,874,386,0,0
-343,638,0,0,0,0,0,0,0,0,0,-1,881,386,0,0
-336,638,0,0,0,0,0,0,0,0,0,-1,888,386,0,0
-329,638,0,0,0,0,0,0,0,0,0,-1,895,386,0,0
-322,638,0,0,0,0,0,0,0,0,0,-1,902,386,0,0
-315,638,0,0,0,0,0,0,0,0,0,-1,909,386,0,0
-308,638,0,0,0,0,0,0,0,0,0,-1,916,386,0,0
-301,638,0,0,0,0,0,0,0,0,0,-1,923,386,0,0
-294,638,0,0,0,0,0,0,0,0,0,-1,930,386,0,0
-287,638,0,0,0,0,0,0,0,0,0,-1,937,386,0,0
-280,638,0,0,0,0,0,0,0,0,0,-1,944,386,0,0
-273,638,0,0,0,0,0,0,0,0,0,-1,951,386,0,0
-266,638,11.033,-30.7778,0,0,0,0,0,0,0,-1,958,386,11.033,30.7778
-259,638,10.9623,-30.0927,0,0,0,0,0,0,0,-1,965,386,10.9623,30.0927
-252,638,10.8915,-29.4076,0,0,0,0,0,0,0,-1,972,386,10.8916,29.4076
-245,638,3.35309,-26.4681,0,0,0,0,0,0,0,-1,979,386,3.35311,26.4681
-238,638,2.93518,-26.3649,0,0,0,0,0,0,0,-1,986,386,2.93516,26.3649
-231,638,2.36829,-26.0088,0,0,0,0,0,0,0,-1,993,386,2.3683,26.0088
-224,638,6.3465,-30.9124,0,0,0,0,0,0,0,-1,1000,386,6.34648,30.9124
-217,638,7.41205,-32.7263,0,0,0,0,0,0,0,-1,1007,386,7.41204,32.7262
-210,638,3.00073,-28.7896,0,0,0,0,0,0,0,-1,1014,386,3.00073,28.7896
-203,638,4.32593,-27.5803,0,0,0,0,0,0,0,-1,1021,386,4.32594,27.5803
-196,638,6.0614,-28.4651,0,0,0,0,0,0,0,-1,1028,386,6.06143,28.4651
-189,638,5.25891,-24.3591,0,0,0,0,0,0,0,-1,1035,386,5.25892,24.3591
-182,638,3.36169,-28.5315,0,0,0,0,0,0,0,-1,1042,386,3.36166,28.5315
-175,638,5.67212,-30.9029,0,0,0,0,0,0,0,-1,1049,386,5.67213,30.9029
-168,638,5.37097,-31.515,0.0147437,-0.014529,-0.0155723,0.0214783,-0.0212637,-0.408186,0.0246772,0.041908,1056,386,5.37095,31.515
-161,638,5.41663,-31.9213,0.0122499,-0.0118522,-0.0115635,0.0169004,-0.0165027,-0.382379,0.0192858,0.0401012,1063,386,5.41666,31.9213
-154,638,5.44568,-32.1733,0.00975478,-0.00881821,-0.00760097,0.0124689,-0.0115323,-0.342959,0.0138606,0.035527,1070,386,5.44569,32.1733
-147,638,5.37158,-32.4201,0.0073928,-0.00552777,-0.00396828,0.00851424,-0.00664921,-0.275419,0.00877667,0.0293838,1077,386,5.37159,32.4201
-140,638,5.33447,-32.7826,0.00544463,-0.00279398,-0.000863162,0.00553409,-0.00288344,-0.103276,0.00493953,0.0267494,1084,386,5.33452,32.7826
-133,638,5.30029,-33.2801,0.00381435,-0.000258778,0.0016563,0.00440284,-0.000847268,0.341393,0.00325462,0.0232551,1091,386,5.30031,33.2801
-126,638,5.25,-33.6178,0.00217695,0.00234582,0.00390852,0.00617081,-0.00164805,0.796198,0.00475931,0.0183668,1098,386,5.25002,33.6178
-119,638,5.19128,-33.9624,0.00101583,0.00452691,0.0053617,0.00841315,-0.00287041,0.943608,0.0067715,0.0165088,1105,386,5.1913,33.9624
-112,638,5.20154,-34.2819,0.000141884,0.00604413,0.00603312,0.00980922,-0.00362321,1.01286,0.00802467,0.0142824,1112,386,5.20149,34.2819
-105,638,5.16284,-34.6012,-0.000523725,0.00663478,0.0060677,0.0101002,-0.00398919,1.05187,0.00838571,0.0159299,1119,386,5.16289,34.6012
-98,638,5.11926,-34.8954,-0.000910958,0.00639422,0.00512164,0.0090323,-0.00354904,1.09515,0.00749027,0.0153883,1126,386,5.11921,34.8954
-91,638,5.06543,-35.1811,-0.000928762,0.00591245,0.00403284,0.00777997,-0.00279629,1.13712,0.00632815,0.012166,1133,386,5.0654,35.1811
-84,638,5.02515,-35.4738,-0.000686156,0.00516914,0.00325851,0.00662201,-0.00213903,1.15138,0.00527431,0.0143503,1140,386,5.02517,35.4738
-77,638,5.01111,-35.7336,-0.00109483,0.00464318,0.00233943,0.00547609,-0.00192774,1.22876,0.00443522,0.0116927,1147,386,5.01112,35.7335
-70,638,5.00659,-35.9836,-0.00199786,0.00510701,0.00083439,0.00520369,-0.00209453,1.45545,0.00433921,0.0107903,1154,386,5.00662,35.9835
-63,638,4.99683,-36.222,-0.00284804,0.0053624,-0.000767503,0.00543353,-0.00291917,-1.47838,0.00489472,0.0107066,1161,386,4.99679,36.222
-56,638,4.99438,-36.4433,-0.0028246,0.00560223,-0.000838277,0.00568481,-0.00290718,-1.4726,0.00504626,0.0145649,1168,386,4.99438,36.4433
-49,638,4.97156,-36.6503,-0.00247799,0.0053129,-0.000801136,0.00539442,-0.00255952,-1.46938,0.00468843,0.0129437,1175,386,4.97162,36.6503
-42,638,4.9613,-36.8643,-0.00208057,0.00493326,-0.000733919,0.00500923,-0.00215654,-1.46765,0.00424503,0.0116514,1182,386,4.96125,36.8642
-35,638,4.95044,-37.0617,-0.00167821,0.00485643,-0.000683001,0.00492705,-0.00174884,-1.46776,0.00399727,0.0110231,1189,386,4.95045,37.0617
-28,638,4.94214,-37.2405,-0.00126971,0.00469623,-0.000625458,0.0047611,-0.00133457,-1.46746,0.00370004,0.0109696,1196,386,4.94218,37.2405
-21,638,4.90955,-37.3811,-0.000880604,0.00445703,-0.000594833,0.00452251,-0.000946089,-1.46115,0.00337487,0.0119756,1203,386,4.90956,37.3811
-14,638,4.89709,-37.5446,-0.000556807,0.00421709,-0.000537286,0.00427681,-0.000616529,-1.46009,0.00307737,0.0119833,1210,386,4.89705,37.5446
-7,638,4.90332,-37.7594,-0.000236743,0.00387829,-0.000539664,0.00394788,-0.00030634,-1.44254,0.00273975,0.0179774,1217,386,4.90334,37.7594
0,638,4.896,-37.7944,-6.26495e-05,0.00378049,-0.000455056,0.00383363,-0.000115796,-1.45453,0.00259522,0.0329693,1224,386,4.89598,37.7944
7,638,4.86169,-37.8713,-3.81809e-06,0.00364298,-0.000285281,0.00366516,-2.60002e-05,-1.4932,0.00245215,0.0252031,1231,386,4.86168,37.8713
14,638,4.85938,-37.9828,-0.000107977,0.0035856,-3.06193e-05,0.00358585,-0.00010823,-1.56251,0.00242745,0.0123377,1238,386,4.85938,37.9829
21,638,4.85364,-38.0987,-0.000369147,0.00366335,0.000326555,0.00368962,-0.000395421,1.49051,0.00260159,0.0106931,1245,386,4.85366,38.0987
28,638,4.86572,-38.1662,-0.000644341,0.00408609,0.000686854,0.0041838,-0.000742053,1.42948,0.00306662,0.00929971,1252,386,4.86578,38.1662
35,638,4.86475,-38.2166,-0.000979401,0.00506943,0.0011717,0.00528847,-0.00119844,1.38599,0.00398564,0.0109966,1259,386,4.86474,38.2166
42,638,4.8761,-38.2749,-0.00132422,0.00585884,0.00181562,0.00629168,-0.00175706,1.33677,0.0048866,0.0100333,1266,386,4.87607,38.2749
49,638,4.90186,-38.2959,-0.0016667,0.0069312,0.00248311,0.0075968,-0.00233231,1.3089,0.00599515,0.00880164,1273,386,4.90183,38.2959
56,638,4.89111,-38.2993,-0.00205031,0.0083883,0.00306956,0.00922402,-0.00288603,1.30498,0.00730396,0.0114627,1280,386,4.89115,38.2994
63,638,4.8761,-38.3058,-0.00246591,0.00978833,0.00365877,0.0107976,-0.00347519,1.30164,0.00859429,0.0127407,1287,386,4.8761,38.3058
70,638,4.84351,-38.2951,-0.00297797,0.0112207,0.00427586,0.0124089,-0.00416619,1.29975,0.00995628,0.0187373,1294,386,4.84347,38.2951
77,638,4.8446,-38.2692,-0.00312908,0.0124777,0.00476893,0.0138195,-0.00447094,1.29651,0.0110102,0.0197146,1301,386,4.8446,38.2692
84,638,4.90381,-38.2053,-0.00318622,0.0134222,0.00504498,0.0148346,-0.00459857,1.29783,0.0117271,0.0136019,1308,386,4.9038,38.2053
91,638,4.90198,-38.1357,-0.00328232,0.0139268,0.00511644,0.015333,-0.00468858,1.30257,0.0120918,0.0143509,1315,386,4.90199,38.1356
98,638,4.88745,-38.0484,-0.00331127,0.0141746,0.00510904,0.015558,-0.00469459,1.30638,0.0122407,0.0135072,1322,386,4.88745,38.0484
105,638,4.87061,-37.9789,-0.00310795,0.0139809,0.00490158,0.0152869,-0.00441405,1.31038,0.0119378,0.0105082,1329,386,4.87066,37.9789
112,638,4.86621,-37.9022,-0.00280267,0.0137837,0.00454849,0.0149491,-0.00396811,1.31997,0.0115189,0.00986224,1336,386,4.86625,37.9021
119,638,4.87341,-37.7944,-0.00239525,0.0132393,0.00408856,0.0142439,-0.00339989,1.32985,0.010809,0.0121503,1343,386,4.87344,37.7944
126,638,4.8595,-37.6332,-0.0019458,0.0125929,0.00355183,0.0134142,-0.00276711,1.34355,0.00999372,0.0157115,1350,386,4.85955,37.6332
133,638,4.84863,-37.4813,-0.00156622,0.0117176,0.00307889,0.0123965,-0.00224514,1.35376,0.00910546,0.0160925,1357,386,4.84865,37.4813
140,638,4.84314,-37.3548,-0.00124165,0.010684,0.00261572,0.0112325,-0.00179014,1.3641,0.00815086,0.0164222,1364,386,4.84309,37.3548
147,638,4.85181,-37.1903,-0.000972492,0.0100598,0.00214462,0.0104621,-0.00137473,1.38539,0.00747521,0.0173373,1371,386,4.8518,37.1903
154,638,4.86499,-37.0297,-0.000772615,0.00950596,0.00178715,0.00980783,-0.00107449,1.40346,0.00692456,0.0157792,1378,386,4.86504,37.0297
161,638,4.86621,-36.8219,-0.000739062,0.00912685,0.00159773,0.00937914,-0.000991355,1.41418,0.00660805,0.0180656,1385,386,4.86619,36.8219
168,638,4.85059,-36.5845,-0.000889934,0.00894629,0.00158077,0.00919409,-0.00113774,1.4153,0.0065417,0.0232876,1392,386,4.85059,36.5845
175,638,4.81201,-36.3968,-0.00117029,0.00868824,0.00163146,0.00895121,-0.00143326,1.41098,0.00649813,0.0202972,1399,386,4.81197,36.3968
182,638,4.76611,-36.1427,-0.00160459,0.00847641,0.00171148,0.00875905,-0.00188723,1.40713,0.00655957,0.0138349,1406,386,4.76606,36.1427
189,638,4.75464,-35.8611,-0.00176433,0.00810841,0.00180263,0.00842725,-0.00208317,1.39573,0.00642611,0.0116069,1413,386,4.7546,35.861
196,638,4.7168,-35.6231,-0.00165123,0.00773892,0.00198034,0.00813947,-0.00205179,1.37122,0.00622402,0.0138146,1420,386,4.71686,35.6231
203,638,4.70142,-35.3682,-0.00163221,0.00776672,0.00231085,0.00830414,-0.00216964,1.34229,0.00638342,0.0199724,1427,386,4.70141,35.3682
210,638,4.69641,-35.082,-0.001737,0.0074908,0.00255348,0.00815026,-0.00239646,1.31806,0.00638406,0.0165086,1434,386,4.69639,35.082
217,638,4.67017,-34.7802,-0.00154616,0.0080249,0.00252591,0.00865061,-0.00217187,1.32797,0.00661104,0.0127158,1441,386,4.67013,34.7802
224,638,4.64233,-34.4494,-0.00120064,0.00887577,0.00258131,0.00949855,-0.00182342,1.33406,0.00701956,0.0110859,1448,386,4.64228,34.4494
231,638,4.58398,-34.1074,-0.000682696,0.00948708,0.00269141,0.0101554,-0.00135105,1.32739,0.00726265,0.0114238,1455,386,4.58397,34.1074
238,638,4.55042,-33.7898,-0.000328815,0.0104093,0.0029586,0.0111705,-0.00109002,1.31897,0.00783564,0.012202,1462,386,4.55036,33.7898
245,638,4.56616,-33.451,-0.000235983,0.010829,0.00307657,0.0116269,-0.00103388,1.31704,0.00811784,0.014756,1469,386,4.56613,33.451
252,638,4.55408,-33.1085,7.70936e-05,0.0114753,0.00331291,0.0123682,-0.000815857,1.30752,0.00853046,0.0217832,1476,386,4.55403,33.1085
259,638,4.50195,-32.7795,0.000483282,0.0123107,0.0037588,0.0134041,-0.000610188,1.2877,0.00914627,0.0216198,1483,386,4.50201,32.7795
266,638,4.41528,-32.3767,0.000766259,0.0128988,0.0041939,0.0142074,-0.000542322,1.26835,0.00965743,0.0129169,1490,386,4.41534,32.3767
273,638,4.39612,-31.9958,0.00105015,0.013669,0.00480037,0.0152875,-0.000568375,1.2456,0.0103863,0.0110183,1497,386,4.39607,31.9958
280,638,4.42419,-31.5647,0.00131211,0.0144939,0.00550381,0.0164897,-0.000683716,1.22292,0.011228,0.0219229,1504,386,4.42414,31.5647
287,638,4.60022,-30.9867,0.00162575,0.015546,0.00641735,0.018053,-0.000881208,1.19837,0.0123396,0.0412303,1511,386,4.6002,30.9867
294,638,4.45618,-30.8733,0.00186935,0.0167185,0.00741496,0.019787,-0.00119922,1.17842,0.0136087,0.0489965,1518,386,4.45621,30.8733
301,638,4.17419,-30.4115,0,0,0,0,0,0,0,-1,1525,386,4.17425,30.4115
308,638,4.47168,-29.2709,0,0,0,0,0,0,0,-1,1532,386,4.47171,29.2709
315,638,4.57898,-28.7047,0,0,0,0,0,0,0,-1,1539,386,4.57902,28.7047
322,638,4.34888,-29.0851,0,0,0,0,0,0,0,-1,1546,386,4.34882,29.0851
329,638,3.82532,-28.4431,0,0,0,0,0,0,0,-1,1553,386,3.82537,28.4431
336,638,4.12573,-27.7598,0,0,0,0,0,0,0,-1,1560,386,4.12573,27.7598
343,638,4.1908,-28.0948,0,0,0,0,0,0,0,-1,1567,386,4.19082,28.0949
350,638,5.91162,-19.0222,0,0,0,0,0,0,0,-1,1574,386,5.91165,19.0222
357,638,0.387329,-3.01077,0,0,0,0,0,0,0,-1,1581,386,0.387332,3.01077
364,638,3.78149,-6.45215,0,0,0,0,0,0,0,-1,1588,386,3.78155,6.45216
371,638,4.18604,-6.71164,0,0,0,0,0,0,0,-1,1595,386,4.18598,6.71164
378,638,4.59045,-6.97113,0,0,0,0,0,0,0,-1,1602,386,4.5904,6.97112
385,638,0,0,0,0,0,0,0,0,0,-1,1609,386,0,0
392,638,0,0,0,0,0,0,0,0,0,-1,1616,386,0,0
399,638,0,0,0,0,0,0,0,0,0,-1,1623,386,0,0
406,638,0,0,0,0,0,0,0,0,0,-1,1630,386,0,0
413,638,0,0,0,0,0,0,0,0,0,-1,1637,386,0,0
420,638,0,0,0,0,0,0,0,0,0,-1,1644,386,0,0
427,638,0,0,0,0,0,0,0,0,0,-1,1651,386,0,0
434,638,0,0,0,0,0,0,0,0,0,-1,1658,386,0,0
441,638,0,0,0,0,0,0,0,0,0,-1,1665,386,0,0
448,638,0,0,0,0,0,0,0,0,0,-1,1672,386,0,0
455,638,0,0,0,0,0,0,0,0,0,-1,1679,386,0,0
462,638,0,0,0,0,0,0,0,0,0,-1,1686,386,0,0
469,638,0,0,0,0,0,0,0,0,0,-1,1693,386,0,0
476,638,0,0,0,0,0,0,0,0,0,-1,1700,386,0,0
483,638,0,0,0,0,0,0,0,0,0,-1,1707,386,0,0
490,638,0,0,0,0,0,0,0,0,0,-1,1714,386,0,0
497,638,0,0,0,0,0,0,0,0,0,-1,1721,386,0,0
504,638,0,0,0,0,0,0,0,0,0,-1,1728,386,0,0
511,638,0,0,0,0,0,0,0,0,0,-1,1735,386,0,0
518,638,0,0,0,0,0,0,0,0,0,-1,1742,386,0,0
525,638,0,0,0,0,0,0,0,0,0,-1,1749,386,0,0
532,638,0,0,0,0,0,0,0,0,0,-1,1756,386,0,0
539,638,0,0,0,0,0,0,0,0,0,-1,1763,386,0,0
546,638,0,0,0,0,0,0,0,0,0,-1,1770,386,0,0
553,638,0,0,0,0,0,0,0,0,0,-1,1777,386,0,0
560,638,0,0,0,0,0,0,0,0,0,-1,1784,386,0,0
567,638,0,0,0,0,0,0,0,0,0,-1,1791,386,0,0
574,638,0,0,0,0,0,0,0,0,0,-1,1798,386,0,0
581,638,0,0,0,0,0,0,0,0,0,-1,1805,386,0,0
588,638,0,0,0,0,0,0,0,0,0,-1,1812,386,0,0
595,638,0,0,0,0,0,0,0,0,0,-1,1819,386,0,0
602,638,0,0,0,0,0,0,0,0,0,-1,1826,386,0,0
609,638,0,0,0,0,0,0,0,0,0,-1,1833,386,0,0
616,638,0,0,0,0,0,0,0,0,0,-1,1840,386,0,0
623,638,0,0,0,0,0,0,0,0,0,-1,1847,386,0,0
630,638,0,0,0,0,0,0,0,0,0,-1,1854,386,0,0
637,638,0,0,0,0,0,0,0,0,0,-1,1861,386,0,0
644,638,0,0,0,0,0,0,0,0,0,-1,1868,386,0,0
651,638,0,0,0,0,0,0,0,0,0,-1,1875,386,0,0
658,638,0,0,0,0,0,0,0,0,0,-1,1882,386,0,0
665,638,0,0,0,0,0,0,0,0,0,-1,1889,386,0,0
672,638,0,0,0,0,0,0,0,0,0,-1,1896,386,0,0
679,638,0,0,0,0,0,0,0,0,0,-1,1903,386,0,0
686,638,0,0,0,0,0,0,0,0,0,-1,1910,386,0,0
693,638,0,0,0,0,0,0,0,0,0,-1,1917,386,0,0
700,638,0,0,0,0,0,0,0,0,0,-1,1924,386,0,0
707,638,0,0,0,0,0,0,0,0,0,-1,1931,386,0,0
714,638,0,0,0,0,0,0,0,0,0,-1,1938,386,0,0
721,638,0,0,0,0,0,0,0,0,0,-1,1945,386,0,0
728,638,0,0,0,0,0,0,0,0,0,-1,1952,386,0,0
735,638,0,0,0,0,0,0,0,0,0,-1,1959,386,0,0
742,638,0,0,0,0,0,0,0,0,0,-1,1966,386,0,0
749,638,0,0,0,0,0,0,0,0,0,-1,1973,386,0,0
756,638,0,0,0,0,0,0,0,0,0,-1,1980,386,0,0
763,638,0,0,0,0,0,0,0,0,0,-1,1987,386,0,0
770,638,0,0,0,0,0,0,0,0,0,-1,1994,386,0,0
777,638,0,0,0,0,0,0,0,0,0,-1,2001,386,0,0
784,638,0,0,0,0,0,0,0,0,0,-1,2008,386,0,0
791,638,0,0,0,0,0,0,0,0,0,-1,2015,386,0,0
798,638,0,0,0,0,0,0,0,0,0,-1,2022,386,0,0
805,638,0,0,0,0,0,0,0,0,0,-1,2029,386,0,0
812,638,0,0,0,0,0,0,0,0,0,-1,2036,386,0,0
-700,631,0,0,0,0,0,0,0,0,0,-1,524,393,0,0
-693,631,0,0,0,0,0,0,0,0,0,-1,531,393,0,0
-686,631,0,0,0,0,0,0,0,0,0,-1,538,393,0,0
-679,631,0,0,0,0,0,0,0,0,0,-1,545,393,0,0
-672,631,0,0,0,0,0,0,0,0,0,-1,552,393,0,0
-665,631,0,0,0,0,0,0,0,0,0,-1,559,393,0,0
-658,631,0,0,0,0,0,0,0,0,0,-1,566,393,0,0
-651,631,0,0,0,0,0,0,0,0,0,-1,573,393,0,0
-644,631,0,0,0,0,0,0,0,0,0,-1,580,393,0,0
-637,631,0,0,0,0,0,0,0,0,0,-1,587,393,0,0
-630,631,0,0,0,0,0,0,0,0,0,-1,594,393,0,0
-623,631,0,0,0,0,0,0,0,0,0,-1,601,393,0,0
-616,631,0,0,0,0,0,0,0,0,0,-1,608,393,0,0
-609,631,0,0,0,0,0,0,0,0,0,-1,615,393,0,0
-602,631,0,0,0,0,0,0,0,0,0,-1,622,393,0,0
-595,631,0,0,0,0,0,0,0,0,0,-1,629,393,0,0
-588,631,0,0,0,0,0,0,0,0,0,-1,636,393,0,0
-581,631,0,0,0,0,0,0,0,0,0,-1,643,393,0,0
-574,631,0,0,0,0,0,0,0,0,0,-1,650,393,0,0
-567,631,0,0,0,0,0,0,0,0,0,-1,657,393,0,0
-560,631,0,0,0,0,0,0,0,0,0,-1,664,393,0,0
-553,631,0,0,0,0,0,0,0,0,0,-1,671,393,0,0
-546,631,0,0,0,0,0,0,0,0,0,-1,678,393,0,0
-539,631,0,0,0,0,0,0,0,0,0,-1,685,393,0,0
-532,631,0,0,0,0,0,0,0,0,0,-1,692,393,0,0
-525,631,0,0,0,0,0,0,0,0,0,-1,699,393,0,0
-518,631,0,0,0,0,0,0,0,0,0,-1,706,393,0,0
-511,631,0,0,0,0,0,0,0,0,0,-1,713,393,0,0
-504,631,0,0,0,0,0,0,0,0,0,-1,720,393,0,0
-497,631,0,0,0,0,0,0,0,0,0,-1,727,393,0,0
-490,631,0,0,0,0,0,0,0,0,0,-1,734,393,0,0
-483,631,0,0,0,0,0,0,0,0,0,-1,741,393,0,0
-476,631,0,0,0,0,0,0,0,0,0,-1,748,393,0,0
-469,631,0,0,0,0,0,0,0,0,0,-1,755,393,0,0
-462,631,0,0,0,0,0,0,0,0,0,-1,762,393,0,0
-455,631,0,0,0,0,0,0,0,0,0,-1,769,393,0,0
-448,631,0,0,0,0,0,0,0,0,0,-1,776,393,0,0
-441,631,0,0,0,0,0,0,0,0,0,-1,783,393,0,0
-434,631,0,0,0,0,0,0,0,0,0,-1,790,393,0,0
-427,631,0,0,0,0,0,0,0,0,0,-1,797,393,0,0
-420,631,0,0,0,0,0,0,0,0,0,-1,804,393,0,0
-413,631,0,0,0,0,0,0,0,0,0,-1,811,393,0,0
-406,631,0,0,0,0,0,0,0,0,0,-1,818,393,0,0
-399,631,0,0,0,0,0,0,0,0,0,-1,825,393,0,0
-392,631,0,0,0,0,0,0,0,0,0,-1,832,393,0,0
-385,631,0,0,0,0,0,0,0,0,0,-1,839,393,0,0
-378,631,0,0,0,0,0,0,0,0,0,-1,846,393,0,0
-371,631,0,0,0,0,0,0,0,0,0,-1,853,393,0,0
-364,631,0,0,0,0,0,0,0,0,0,-1,860,393,0,0
-357,631,0,0,0,0,0,0,0,0,0,-1,867,393,0,0
-350,631,0,0,0,0,0,0,0,0,0,-1,874,393,0,0
-343,631,0,0,0,0,0,0,0,0,0,-1,881,393,0,0
-336,631,0,0,0,0,0,0,0,0,0,-1,888,393,0,0
-329,631,0,0,0,0,0,0,0,0,0,-1,895,393,0,0
-322,631,0,0,0,0,0,0,0,0,0,-1,902,393,0,0
-315,631,0,0,0,0,0,0,0,0,0,-1,909,393,0,0
-308,631,0,0,0,0,0,0,0,0,0,-1,916,393,0,0
-301,631,0,0,0,0,0,0,0,0,0,-1,923,393,0,0
-294,631,0,0,0,0,0,0,0,0,0,-1,930,393,0,0
-287,631,0,0,0,0,0,0,0,0,0,-1,937,393,0,0
-280,631,8.60339,-27.6646,0,0,0,0,0,0,0,-1,944,393,8.6034,27.6645
-273,631,8.9472,-28.1023,0,0,0,0,0,0,0,-1,951,393,8.94721,28.1023
-266,631,9.4726,-28.8027,0,0,0,0,0,0,0,-1,958,393,9.47259,28.8027
-259,631,9.76935,-29.4612,0,0,0,0,0,0,0,-1,965,393,9.76935,29.4613
-252,631,10.028,-29.6031,0,0,0,0,0,0,0,-1,972,393,10.028,29.6031
-245,631,4.06909,-25.853,0,0,0,0,0,0,0,-1,979,393,4.06911,25.853
-238,631,3.05438,-25.4099,0,0,0,0,0,0,0,-1,986,393,3.0544,25.4099
-231,631,2.14966,-25.2306,0,0,0,0,0,0,0,-1,993,393,2.14968,25.2306
-224,631,6.83575,-19.7909,0,0,0,0,0,0,0,-1,1000,393,6.83575,19.7909
-217,631,5.05188,-18.3867,0,0,0,0,0,0,0,-1,1007,393,5.0519,18.3866
-210,631,3.37842,-26.3769,0,0,0,0,0,0,0,-1,1014,393,3.37839,26.3769
-203,631,5.05298,-26.4169,0,0,0,0,0,0,0,-1,1021,393,5.05302,26.4169
-196,631,5.19556,-29.1273,0,0,0,0,0,0,0,-1,1028,393,5.1956,29.1273
-189,631,5.02124,-29.355,0,0,0,0,0,0,0,-1,1035,393,5.02122,29.355
-182,631,4.90894,-30.039,0,0,0,0,0,0,0,-1,1042,393,4.90892,30.039
-175,631,5.2616,-30.9518,0.0110178,-0.00789816,-0.0155887,0.0197933,-0.0166737,-0.512725,0.0210799,0.0433031,1049,393,5.26161,30.9517
-168,631,5.14185,-31.4409,0.00946349,-0.00697922,-0.0126064,0.0162924,-0.0138081,-0.496452,0.0173983,0.022496,1056,393,5.14187,31.4409
-161,631,5.08911,-31.875,0.00784968,-0.00570066,-0.0100523,0.0131969,-0.0110479,-0.48887,0.014016,0.0120239,1063,393,5.0891,31.875
-154,631,5.06287,-32.2758,0.00620134,-0.00405279,-0.00755747,0.0102068,-0.00805821,-0.487354,0.0105696,0.0116582,1070,393,5.06291,32.2758
-147,631,5.0304,-32.6337,0.00458976,-0.00205689,-0.0052701,0.00749687,-0.004964,-0.50409,0.00724366,0.0112531,1077,393,5.03043,32.6337
-140,631,4.9978,-33.0032,0.00328374,-0.00043953,-0.00334453,0.00524984,-0.00240563,-0.531442,0.00452042,0.00995384,1084,393,4.99777,33.0032
-133,631,4.95374,-33.3578,0.00217233,0.00115109,-0.00176626,0.0035003,-0.000176878,-0.644686,0.00239467,0.00866712,1091,393,4.95372,33.3578
-126,631,4.92908,-33.6904,0.00100441,0.00293157,-0.000313176,0.00298118,0.000954795,-1.41367,0.00175786,0.0128862,1098,393,4.92911,33.6904
-119,631,4.90332,-33.9858,0.000221692,0.00445538,0.000645427,0.00455159,0.000125483,1.42282,0.00299344,0.0154815,1105,393,4.90336,33.9858
-112,631,4.89685,-34.294,-0.000329819,0.00552013,0.0011439,0.00573585,-0.000545542,1.3844,0.00401811,0.0140382,1112,393,4.89685,34.294
-105,631,4.93896,-34.6078,-0.000750928,0.0059079,0.00129687,0.00615156,-0.000994591,1.38508,0.00446961,0.0194562,1119,393,4.93899,34.6079
-98,631,4.88452,-34.9013,-0.000912421,0.00559593,0.000851849,0.00570558,-0.00102207,1.44278,0.00418621,0.0166827,1126,393,4.88448,34.9013
-91,631,4.83044,-35.1899,-0.000761502,0.00506812,0.000389057,0.00509397,-0.000787353,1.50445,0.00368656,0.0178307,1133,393,4.83043,35.1899
-84,631,4.80933,-35.4829,-0.000418083,0.00433855,0.000279612,0.00435493,-0.000434463,1.51228,0.00305841,0.0172812,1140,393,4.80935,35.4829
-77,631,4.78308,-35.7531,-0.000531882,0.00376707,0.000106718,0.00376972,-0.000534529,1.54599,0.00270896,0.0114402,1147,393,4.78304,35.7532
-70,631,4.77734,-35.9943,-0.000805564,0.00350475,-0.000174841,0.00351183,-0.000812644,-1.53032,0.0026539,0.0121128,1154,393,4.77732,35.9943
-63,631,4.77734,-36.2437,-0.000938851,0.00319816,-0.000601393,0.00328381,-0.0010245,-1.42933,0.00259891,0.0134633,1161,393,4.7774,36.2437
-56,631,4.76611,-36.4847,-0.000703774,0.00285868,-0.000587526,0.00295307,-0.000798169,-1.41149,0.00228179,0.0146849,1168,393,4.7661,36.4847
-49,631,4.7644,-36.6681,-0.000291402,0.00225259,-0.000483616,0.00234142,-0.000380236,-1.38913,0.00170191,0.0109876,1175,393,4.76441,36.6681
-42,631,4.776,-36.8638,0.000199969,0.00154482,-0.000318387,0.00161638,0.000128401,-1.34969,0.00103744,0.00920955,1182,393,4.77605,36.8638
-35,631,4.77881,-37.0576,0.000654581,0.000972339,-0.000208851,0.00107587,0.000551045,-1.11056,0.000621218,0.0102708,1189,393,4.77883,37.0576
-28,631,4.77454,-37.2293,0.00105051,0.000408544,-0.000132732,0.00107687,0.000382183,-0.196051,0.000630399,0.0136497,1196,393,4.77457,37.2293
-21,631,4.7467,-37.3878,0.00128877,-3.08636e-07,-0.000166656,0.00130997,-2.15059e-05,-0.126512,0.000880569,0.0121465,1203,393,4.74667,37.3878
-14,631,4.72607,-37.5628,0.00135477,-0.000259728,-0.000209463,0.0013815,-0.000286461,-0.12694,0.00102985,0.014483,1210,393,4.72606,37.5628
-7,631,4.75586,-37.7706,0.00126812,-0.000528913,-0.000333629,0.00132806,-0.000588854,-0.177766,0.00113383,0.0226017,1217,393,4.75584,37.7706
0,631,4.77234,-37.8688,0.000933214,-0.000147557,-0.000256823,0.000991138,-0.000205482,-0.22183,0.00073884,0.0238683,1224,393,4.77231,37.8688
7,631,4.7738,-37.9257,0.000316794,4.08819e-05,-4.07e-05,0.000322673,3.50035e-05,-0.143441,0.000204449,0.018623,1231,393,4.77375,37.9257
14,631,4.7865,-38.0363,-0.000453286,0.000313138,0.000227495,0.000375578,-0.000515725,1.30293,0.00051671,0.0102912,1238,393,4.78653,38.0363
21,631,4.79797,-38.1262,-0.0013181,0.000775217,0.000555437,0.000913466,-0.00145634,1.32685,0.00138013,0.0124351,1245,393,4.79803,38.1262
28,631,4.80579,-38.1776,-0.00220917,0.00150466,0.000963875,0.00173992,-0.00244442,1.3314,0.00242722,0.0144143,1252,393,4.80579,38.1776
35,631,4.82422,-38.2135,-0.00320543,0.0025657,0.00154214,0.00295193,-0.00359166,1.32539,0.00378396,0.0142219,1259,393,4.82421,38.2135
42,631,4.87598,-38.2653,-0.00410875,0.00329665,0.00230769,0.00395691,-0.004769,1.29213,0.00504518,0.0130369,1266,393,4.87598,38.2653
49,631,4.8894,-38.2986,-0.00485708,0.00415542,0.00306985,0.00510172,-0.00580338,1.27178,0.00630041,0.0117477,1273,393,4.88945,38.2986
56,631,4.89722,-38.3353,-0.00557967,0.00514341,0.00373559,0.00631646,-0.00675271,1.26653,0.00754689,0.0131631,1280,393,4.89716,38.3353
63,631,4.88464,-38.3497,-0.00636767,0.0061043,0.00449902,0.00755784,-0.00782121,1.2583,0.00887953,0.0143036,1287,393,4.8847,38.3497
70,631,4.87903,-38.3111,-0.0072395,0.00693141,0.00516687,0.00861523,-0.00892332,1.25576,0.0101264,0.015937,1294,393,4.87899,38.3111
77,631,4.90222,-38.2811,-0.00761491,0.00761975,0.00566434,0.00949497,-0.00949012,1.2511,0.010961,0.0166717,1301,393,4.90226,38.2811
84,631,4.92053,-38.2404,-0.00776182,0.00792344,0.0059942,0.00995184,-0.00979023,1.2445,0.0113982,0.0133995,1308,393,4.92057,38.2404
91,631,4.93616,-38.1631,-0.00787169,0.00795041,0.00603736,0.00999097,-0.00991224,1.24486,0.0114912,0.0154855,1315,393,4.9362,38.1631
98,631,4.95532,-38.0795,-0.00787067,0.00785767,0.00596965,0.00986679,-0.00987979,1.24615,0.0114007,0.0136541,1322,393,4.95537,38.0795
105,631,4.95544,-37.9958,-0.00759026,0.00732967,0.00563138,0.00921656,-0.00947715,1.24749,0.0107932,0.0116827,1329,393,4.95545,37.9958
112,631,4.97498,-37.9106,-0.00700673,0.0070325,0.00511481,0.00869829,-0.00867251,1.25595,0.010029,0.0114995,1336,393,4.975,37.9105
119,631,4.97681,-37.8223,-0.00617695,0.00646025,0.00448781,0.00789182,-0.00760852,1.26201,0.00894963,0.0119275,1343,393,4.97678,37.8223
126,631,4.97424,-37.671,-0.00518475,0.00576395,0.00376752,0.0069351,-0.0063559,1.26941,0.007676,0.0168796,1350,393,4.97429,37.671
133,631,4.98193,-37.5208,-0.00408348,0.00492948,0.00301649,0.00584587,-0.00499987,1.27586,0.00626814,0.0182852,1357,393,4.98187,37.5209
140,631,4.97485,-37.372,-0.00292324,0.00413547,0.00224979,0.00479156,-0.00357933,1.28705,0.00484979,0.0191253,1364,393,4.97487,37.372
147,631,4.98169,-37.1721,-0.00184966,0.00374255,0.0015126,0.00412546,-0.00223257,1.32286,0.00372464,0.0219063,1371,393,4.98169,37.1722
154,631,5.05042,-36.9803,-0.000934009,0.00346932,0.000918171,0.00365311,-0.00111779,1.37324,0.00288121,0.0214462,1378,393,5.05043,36.9803
161,631,5.05347,-36.7869,-0.00027443,0.00347342,0.000565504,0.00355689,-0.000357899,1.42425,0.00249912,0.0228256,1385,393,5.05349,36.7869
168,631,5.05432,-36.5696,0.000128754,0.00360821,0.00031702,0.00363686,0.000100105,1.48067,0.0023919,0.0275961,1392,393,5.05429,36.5696
175,631,5.02734,-36.4143,0.00029249,0.00389472,0.000364156,0.00393117,0.000256045,1.47105,0.00253973,0.0218449,1399,393,5.02732,36.4143
182,631,4.9989,-36.1728,-0.000140297,0.00425768,0.000560163,0.0043279,-0.000210523,1.44608,0.00295794,0.011521,1406,393,4.99889,36.1728
189,631,4.98657,-35.8869,-0.00040769,0.00450574,0.000728988,0.00461162,-0.000513566,1.42657,0.00325912,0.010596,1413,393,4.98663,35.8869
196,631,4.96375,-35.6364,-0.000469787,0.00470912,0.000976164,0.00488701,-0.000647673,1.39055,0.00349396,0.0115561,1420,393,4.96377,35.6364
203,631,4.98059,-35.3784,-0.000594478,0.0051093,0.00130278,0.00539278,-0.000877953,1.35654,0.00392074,0.0138879,1427,393,4.98063,35.3784
210,631,4.9541,-35.1096,-0.00079301,0.00525043,0.00157035,0.00563412,-0.0011767,1.33116,0.00420357,0.0159315,1434,393,4.95413,35.1097
217,631,4.93372,-34.8397,-0.00075548,0.00581382,0.00166739,0.0062128,-0.00115446,1.33593,0.00457549,0.0169507,1441,393,4.93368,34.8397
224,631,4.93262,-34.507,-0.000590311,0.0065125,0.00182118,0.00695223,-0.00103004,1.33388,0.00501357,0.0128543,1448,393,4.93267,34.507
231,631,4.88208,-34.1783,-0.000277087,0.0070385,0.00201521,0.00755689,-0.000795478,1.31902,0.00532294,0.0102195,1455,393,4.88208,34.1783
238,631,4.86511,-33.84,-6.8067e-05,0.00778688,0.00229919,0.00841038,-0.000691564,1.30598,0.00585108,0.0164782,1462,393,4.86512,33.84
245,631,4.86902,-33.4908,-5.73364e-05,0.00816042,0.00246845,0.00884488,-0.000741802,1.30031,0.00615877,0.0189144,1469,393,4.86902,33.4908
252,631,4.83875,-33.1656,9.53166e-05,0.00875381,0.00272887,0.00954209,-0.000692967,1.28958,0.00660451,0.0189583,1476,393,4.83873,33.1657
259,631,4.79248,-32.8007,0.00031981,0.00951321,0.00316511,0.0104975,-0.000664491,1.26929,0.00723002,0.0137434,1483,393,4.79246,32.8007
266,631,4.79858,-32.4362,0.00045991,0.0100521,0.00356869,0.0112341,-0.000722128,1.25094,0.00774138,0.0126087,1490,393,4.79864,32.4362
273,631,4.78369,-32.042,0.000603786,0.0107257,0.00409118,0.0121725,-0.000843028,1.23088,0.00841009,0.014821,1497,393,4.78373,32.042
280,631,4.7428,-31.5976,0.000730585,0.0114405,0.00468551,0.013201,-0.0010299,1.21139,0.00916328,0.0133302,1504,393,4.74279,31.5976
287,631,4.70874,-31.197,0.00090729,0.0123144,0.0054359,0.0144899,-0.00126821,1.19011,0.0101092,0.0150958,1511,393,4.70872,31.197
294,631,4.64392,-30.7354,0.00100308,0.0132522,0.00622111,0.0158576,-0.00160233,1.17419,0.0111443,0.019297,1518,393,4.64395,30.7354
301,631,4.56787,-30.2126,0.001075,0.0142274,0.00697452,0.0172371,-0.00193475,1.1634,0.0121876,0.0281433,1525,393,4.56782,30.2126
308,631,4.73413,-29.6028,0.00121251,0.0153127,0.00779488,0.0187728,-0.00224757,1.15303,0.0133277,0.0364887,1532,393,4.73412,29.6029
315,631,4.81787,-29.0902,0,0,0,0,0,0,0,-1,1539,393,4.8179,29.0902
322,631,4.69836,-29.1034,0,0,0,0,0,0,0,-1,1546,393,4.69838,29.1034
329,631,4.25671,-28.2454,0,0,0,0,0,0,0,-1,1553,393,4.25667,28.2454
336,631,4.578,-27.8596,0,0,0,0,0,0,0,-1,1560,393,4.57795,27.8596
343,631,4.90527,-27.2756,0,0,0,0,0,0,0,-1,1567,393,4.90526,27.2756
350,631,2.1344,-9.23401,0,0,0,0,0,0,0,-1,1574,393,2.13439,9.23401
357,631,2.6449,-9.60303,0,0,0,0,0,0,0,-1,1581,393,2.64491,9.60304
364,631,3.39136,-5.7594,0,0,0,0,0,0,0,-1,1588,393,3.39137,5.75939
371,631,3.72839,-6.0574,0,0,0,0,0,0,0,-1,1595,393,3.72845,6.05742
378,631,4.06555,-6.35544,0,0,0,0,0,0,0,-1,1602,393,4.06553,6.35544
385,631,3.90442,-3.58298,0,0,0,0,0,0,0,-1,1609,393,3.90437,3.58299
392,631,0.352295,-2.21301,0,0,0,0,0,0,0,-1,1616,393,0.352345,2.213
399,631,0,0,0,0,0,0,0,0,0,-1,1623,393,0,0
406,631,0,0,0,0,0,0,0,0,0,-1,1630,393,0,0
413,631,0,0,0,0,0,0,0,0,0,-1,1637,393,0,0
420,631,0,0,0,0,0,0,0,0,0,-1,1644,393,0,0
427,631,0,0,0,0,0,0,0,0,0,-1,1651,393,0,0
434,631,0,0,0,0,0,0,0,0,0,-1,1658,393,0,0
441,631,0,0,0,0,0,0,0,0,0,-1,1665,393,0,0
448,631,0,0,0,0,0,0,0,0,0,-1,1672,393,0,0
455,631,0,0,0,0,0,0,0,0,0,-1,1679,393,0,0
462,631,0,0,0,0,0,0,0,0,0,-1,1686,393,0,0
469,631,0,0,0,0,0,0,0,0,0,-1,1693,393,0,0
476,631,0,0,0,0,0,0,0,0,0,-1,1700,393,0,0
483,631,0,0,0,0,0,0,0,0,0,-1,1707,393,0,0
490,631,0,0,0,0,0,0,0,0,0,-1,1714,393,0,0
497,631,0,0,0,0,0,0,0,0,0,-1,1721,393,0,0
504,631,0,0,0,0,0,0,0,0,0,-1,1728,393,0,0
511,631,0,0,0,0,0,0,0,0,0,-1,1735,393,0,0
518,631,0,0,0,0,0,0,0,0,0,-1,1742,393,0,0
525,631,0,0,0,0,0,0,0,0,0,-1,1749,393,0,0
532,631,0,0,0,0,0,0,0,0,0,-1,1756,393,0,0
539,631,0,0,0,0,0,0,0,0,0,-1,1763,393,0,0
546,631,0,0,0,0,0,0,0,0,0,-1,1770,393,0,0
553,631,0,0,0,0,0,0,0,0,0,-1,1777,393,0,0
560,631,0,0,0,0,0,0,0,0,0,-1,1784,393,0,0
567,631,0,0,0,0,0,0,0,0,0,-1,1791,393,0,0
574,631,0,0,0,0,0,0,0,0,0,-1,1798,393,0,0
581,631,0,0,0,0,0,0,0,0,0,-1,1805,393,0,0
588,631,0,0,0,0,0,0,0,0,0,-1,1812,393,0,0
595,631,0,0,0,0,0,0,0,0,0,-1,1819,393,0,0
602,631,0,0,0,0,0,0,0,0,0,-1,1826,393,0,0
609,631,0,0,0,0,0,0,0,0,0,-1,1833,393,0,0
616,631,0,0,0,0,0,0,0,0,0,-1,1840,393,0,0
623,631,0,0,0,0,0,0,0,0,0,-1,1847,393,0,0
630,631,0,0,0,0,0,0,0,0,0,-1,1854,393,0,0
637,631,0,0,0,0,0,0,0,0,0,-1,1861,393,0,0
644,631,0,0,0,0,0,0,0,0,0,-1,1868,393,0,0
651,631,0,0,0,0,0,0,0,0,0,-1,1875,393,0,0
658,631,0,0,0,0,0,0,0,0,0,-1,1882,393,0,0
665,631,0,0,0,0,0,0,0,0,0,-1,1889,393,0,0
672,631,0,0,0,0,0,0,0,0,0,-1,1896,393,0,0
679,631,0,0,0,0,0,0,0,0,0,-1,1903,393,0,0
686,631,0,0,0,0,0,0,0,0,0,-1,1910,393,0,0
693,631,0,0,0,0,0,0,0,0,0,-1,1917,393,0,0
700,631,0,0,0,0,0,0,0,0,0,-1,1924,393,0,0
707,631,0,0,0,0,0,0,0,0,0,-1,1931,393,0,0
714,631,0,0,0,0,0,0,0,0,0,-1,1938,393,0,0
721,631,0,0,0,0,0,0,0,0,0,-1,1945,393,0,0
728,631,0,0,0,0,0,0,0,0,0,-1,1952,393,0,0
735,631,0,0,0,0,0,0,0,0,0,-1,1959,393,0,0
742,631,0,0,0,0,0,0,0,0,0,-1,1966,393,0,0
749,631,0,0,0,0,0,0,0,0,0,-1,1973,393,0,0
756,631,0,0,0,0,0,0,0,0,0,-1,1980,393,0,0
763,631,0,0,0,0,0,0,0,0,0,-1,1987,393,0,0
770,631,0,0,0,0,0,0,0,0,0,-1,1994,393,0,0
777,631,0,0,0,0,0,0,0,0,0,-1,2001,393,0,0
784,631,0,0,0,0,0,0,0,0,0,-1,2008,393,0,0
791,631,0,0,0,0,0,0,0,0,0,-1,2015,393,0,0
798,631,0,0,0,0,0,0,0,0,0,-1,2022,393,0,0
805,631,0,0,0,0,0,0,0,0,0,-1,2029,393,0,0
812,631,0,0,0,0,0,0,0,0,0,-1,2036,393,0,0
-700,624,0,0,0,0,0,0,0,0,0,-1,524,400,0,0
-693,624,0,0,0,0,0,0,0,0,0,-1,531,400,0,0
-686,624,0,0,0,0,0,0,0,0,0,-1,538,400,0,0
-679,624,0,0,0,0,0,0,0,0,0,-1,545,400,0,0
-672,624,0,0,0,0,0,0,0,0,0,-1,552,400,0,0
-665,624,0,0,0,0,0,0,0,0,0,-1,559,400,0,0
-658,624,0,0,0,0,0,0,0,0,0,-1,566,400,0,0
-651,624,0,0,0,0,0,0,0,0,0,-1,573,400,0,0
-644,624,0,0,0,0,0,0,0,0,0,-1,580,400,0,0
-637,624,0,0,0,0,0,0,0,0,0,-1,587,400,0,0
-630,624,0,0,0,0,0,0,0,0,0,-1,594,400,0,0
-623,624,0,0,0,0,0,0,0,0,0,-1,601,400,0,0
-616,624,0,0,0,0,0,0,0,0,0,-1,608,400,0,0
-609,624,0,0,0,0,0,0,0,0,0,-1,615,400,0,0
-602,624,0,0,0,0,0,0,0,0,0,-1,622,400,0,0
-595,624,0,0,0,0,0,0,0,0,0,-1,629,400,0,0
-588,624,0,0,0,0,0,0,0,0,0,-1,636,400,0,0
-581,624,0,0,0,0,0,0,0,0,0,-1,643,400,0,0
-574,624,0,0,0,0,0,0,0,0,0,-1,650,400,0,0
-567,624,0,0,0,0,0,0,0,0,0,-1,657,400,0,0
-560,624,0,0,0,0,0,0,0,0,0,-1,664,400,0,0
-553,624,0,0,0,0,0,0,0,0,0,-1,671,400,0,0
-546,624,0,0,0,0,0,0,0,0,0,-1,678,400,0,0
-539,624,0,0,0,0,0,0,0,0,0,-1,685,400,0,0
-532,624,0,0,0,0,0,0,0,0,0,-1,692,400,0,0
-525,624,0,0,0,0,0,0,0,0,0,-1,699,400,0,0
-518,624,0,0,0,0,0,0,0,0,0,-1,706,400,0,0
-511,624,0,0,0,0,0,0,0,0,0,-1,713,400,0,0
-504,624,0,0,0,0,0,0,0,0,0,-1,720,400,0,0
-497,624,0,0,0,0,0,0,0,0,0,-1,727,400,0,0
-490,624,0,0,0,0,0,0,0,0,0,-1,734,400,0,0
-483,624,0,0,0,0,0,0,0,0,0,-1,741,400,0,0
-476,624,0,0,0,0,0,0,0,0,0,-1,748,400,0,0
-469,624,0,0,0,0,0,0,0,0,0,-1,755,400,0,0
-462,624,0,0,0,0,0,0,0,0,0,-1,762,400,0,0
-455,624,0,0,0,0,0,0,0,0,0,-1,769,400,0,0
-448,624,0,0,0,0,0,0,0,0,0,-1,776,400,0,0
-441,624,0,0,0,0,0,0,0,0,0,-1,783,400,0,0
-434,624,0,0,0,0,0,0,0,0,0,-1,790,400,0,0
-427,624,0,0,0,0,0,0,0,0,0,-1,797,400,0,0
-420,624,0,0,0,0,0,0,0,0,0,-1,804,400,0,0
-413,624,0,0,0,0,0,0,0,0,0,-1,811,400,0,0
-406,624,0,0,0,0,0,0,0,0,0,-1,818,400,0,0
-399,624,0,0,0,0,0,0,0,0,0,-1,825,400,0,0
-392,624,0,0,0,0,0,0,0,0,0,-1,832,400,0,0
-385,624,0,0,0,0,0,0,0,0,0,-1,839,400,0,0
-378,624,0,0,0,0,0,0,0,0,0,-1,846,400,0,0
-371,624,0,0,0,0,0,0,0,0,0,-1,853,400,0,0
-364,624,0,0,0,0,0,0,0,0,0,-1,860,400,0,0
-357,624,0,0,0,0,0,0,0,0,0,-1,867,400,0,0
-350,624,0,0,0,0,0,0,0,0,0,-1,874,400,0,0
-343,624,0,0,0,0,0,0,0,0,0,-1,881,400,0,0
-336,624,0,0,0,0,0,0,0,0,0,-1,888,400,0,0
-329,624,0,0,0,0,0,0,0,0,0,-1,895,400,0,0
-322,624,0,0,0,0,0,0,0,0,0,-1,902,400,0,0
-315,624,0,0,0,0,0,0,0,0,0,-1,909,400,0,0
-308,624,0,0,0,0,0,0,0,0,0,-1,916,400,0,0
-301,624,0,0,0,0,0,0,0,0,0,-1,923,400,0,0
-294,624,-3.88867,-16.7909,0,0,0,0,0,0,0,-1,930,400,-3.88868,16.7909
-287,624,-1.1264,-16.1147,0,0,0,0,0,0,0,-1,937,400,-1.12642,16.1147
-280,624,6.62939,-26.5046,0,0,0,0,0,0,0,-1,944,400,6.62939,26.5046
-273,624,7.30109,-27.0413,0,0,0,0,0,0,0,-1,951,400,7.30109,27.0413
-266,624,7.83124,-27.8354,0,0,0,0,0,0,0,-1,958,400,7.83121,27.8354
-259,624,8.02167,-28.5853,0,0,0,0,0,0,0,-1,965,400,8.02164,28.5853
-252,624,8.22632,-29.2663,0,0,0,0,0,0,0,-1,972,400,8.2263,29.2663
-245,624,4.72278,-25.3516,0,0,0,0,0,0,0,-1,979,400,4.72279,25.3516
-238,624,4.08038,-25.0565,0,0,0,0,0,0,0,-1,986,400,4.0804,25.0565
-231,624,4.95148,-20.7456,0,0,0,0,0,0,0,-1,993,400,4.95146,20.7456
-224,624,4.59351,-27.4048,0,0,0,0,0,0,0,-1,1000,400,4.59353,27.4048
-217,624,5.20221,-28.2745,0,0,0,0,0,0,0,-1,1007,400,5.2022,28.2745
-210,624,5.13104,-28.7629,0,0,0,0,0,0,0,-1,1014,400,5.13105,28.7629
-203,624,4.97021,-29.224,0,0,0,0,0,0,0,-1,1021,400,4.97021,29.224
-196,624,4.88428,-29.4931,0.00826531,0.00234957,-0.0154897,0.021077,-0.0104621,-0.691055,0.0185497,0.0453523,1028,400,4.88433,29.4931
-189,624,4.75085,-29.863,0.00776865,0.000520846,-0.0144288,0.0190217,-0.0107322,-0.662364,0.0173992,0.0407437,1035,400,4.75089,29.863
-182,624,4.72949,-30.4148,0.00734179,-0.000881377,-0.0130689,0.0169306,-0.0104702,-0.632996,0.0159657,0.0343944,1042,400,4.72952,30.4148
-175,624,4.87488,-31.0613,0.00660658,-0.00189159,-0.011368,0.0144937,-0.00977866,-0.60655,0.0141015,0.0250435,1049,400,4.87485,31.0613
-168,624,4.79407,-31.4916,0.00573397,-0.00205882,-0.00957151,0.0121718,-0.00849662,-0.5921,0.0119956,0.0139377,1056,400,4.7941,31.4916
-161,624,4.74536,-31.9223,0.00477551,-0.0018243,-0.00789965,0.0100368,-0.00708558,-0.587551,0.00993443,0.0101637,1063,400,4.74536,31.9223
-154,624,4.724,-32.2866,0.00376221,-0.00119877,-0.00626909,0.0080237,-0.00546027,-0.597014,0.00783173,0.00980505,1070,400,4.724,32.2866
-147,624,4.7019,-32.6621,0.00273649,-0.000210098,-0.00477648,0.00626173,-0.00373534,-0.635804,0.00583293,0.0109032,1077,400,4.70196,32.6621
-140,624,4.67053,-33.0251,0.00193539,0.000555539,-0.00354951,0.0048614,-0.00237047,-0.689409,0.00425708,0.0101825,1084,400,4.67052,33.0251
-133,624,4.6333,-33.3701,0.00125155,0.00139595,-0.00253105,0.00385583,-0.00120833,-0.799657,0.00305407,0.0112086,1091,400,4.63336,33.3701
-126,624,4.60791,-33.6757,0.000510235,0.00247255,-0.00158926,0.00335912,-0.000376336,-1.06194,0.00237482,0.0129994,1098,400,4.60785,33.6757
-119,624,4.58142,-33.9772,7.22975e-05,0.00341163,-0.000963936,0.0036699,-0.000185978,-1.30901,0.00251089,0.0148214,1105,400,4.58144,33.9772
-112,624,4.59534,-34.288,-0.000183877,0.00405377,-0.000605772,0.00413866,-0.000268772,-1.43156,0.00285292,0.0173998,1112,400,4.59535,34.288
-105,624,4.63428,-34.6194,-0.000360994,0.00424631,-0.000436252,0.00428726,-0.000401938,-1.47722,0.00300114,0.013631,1119,400,4.63423,34.6194
-98,624,4.58435,-34.9103,-0.000343494,0.00393149,-0.000578804,0.00400847,-0.000420474,-1.43857,0.00282293,0.0134452,1126,400,4.58437,34.9103
-91,624,4.58215,-35.1999,-0.000113151,0.00348622,-0.000690841,0.00361426,-0.000241192,-1.38753,0.00249379,0.0205298,1133,400,4.5821,35.1999
-84,624,4.60327,-35.4798,0.00022892,0.0029136,-0.000553466,0.00302323,0.000119296,-1.37526,0.00197692,0.0194176,1140,400,4.60326,35.4798
-77,624,4.57471,-35.7379,0.000336546,0.00246685,-0.000443315,0.00255542,0.000247975,-1.3736,0.00162726,0.0135488,1147,400,4.57469,35.7379
-70,624,4.56555,-35.9627,0.000570379,0.00181815,-0.000347246,0.00190828,0.000480253,-1.31685,0.00114615,0.0142208,1154,400,4.56558,35.9627
-63,624,4.5686,-36.2091,0.000929252,0.00112618,-0.000377079,0.00141744,0.000637994,-0.913108,0.000819715,0.0174302,1161,400,4.56866,36.2091
-56,624,4.54041,-36.4727,0.00132536,0.000334684,-0.000286024,0.00140201,0.000258035,-0.26183,0.000861636,0.0148044,1168,400,4.5404,36.4728
-49,624,4.55981,-36.6915,0.00181106,-0.000622119,-0.000117284,0.0018167,-0.00062776,-0.0480535,0.0014659,0.0108394,1175,400,4.55978,36.6915
-42,624,4.56689,-36.8795,0.00243369,-0.0016643,9.8678e-05,0.00243606,-0.00166668,0.024061,0.00238256,0.00999768,1182,400,4.56695,36.8795
-35,624,4.57825,-37.0486,0.00299604,-0.00276013,0.000146455,0.00299976,-0.00276386,0.0254212,0.00332855,0.0149014,1189,400,4.57828,37.0486
-28,624,4.58752,-37.2359,0.00341827,-0.00372776,0.000163735,0.00342202,-0.00373151,0.0228968,0.00413138,0.0188533,1196,400,4.58757,37.2359
-21,624,4.59167,-37.3965,0.00313559,-0.00392125,2.62342e-05,0.00313569,-0.00392134,0.00371748,0.00408279,0.0136718,1203,400,4.59169,37.3965
-14,624,4.60364,-37.5565,0.00251983,-0.00383181,-0.000149616,0.00252336,-0.00383533,-0.0235381,0.00369715,0.015743,1210,400,4.60358,37.5565
-7,624,4.60913,-37.7023,0.00160132,-0.00368496,-0.000428744,0.00163587,-0.00371951,-0.0804047,0.00316898,0.0214042,1217,400,4.60909,37.7023
0,624,4.65063,-37.8224,0.000319356,-0.0024585,-0.00025958,0.000343404,-0.00248254,-0.0923806,0.00178057,0.0204626,1224,400,4.65063,37.8224
7,624,4.65649,-37.9194,-0.00132926,-0.00162096,0.000107113,-0.00129415,-0.00165606,0.316723,0.00100536,0.0155061,1231,400,4.65646,37.9194
14,624,4.71497,-38.0549,-0.0030912,-0.000654161,0.000469576,-0.000566813,-0.00317855,1.38688,0.00195764,0.0132379,1238,400,4.71498,38.0549
21,624,4.73535,-38.1245,-0.00483039,0.000466136,0.000876425,0.000607392,-0.00497165,1.411,0.00353434,0.0142066,1245,400,4.7353,38.1245
28,624,4.74341,-38.1876,-0.00648252,0.00168335,0.00142367,0.00192444,-0.00672361,1.40304,0.00524296,0.0125223,1252,400,4.74341,38.1876
35,624,4.74292,-38.2204,-0.00825101,0.00312846,0.00223892,0.00355312,-0.00867567,1.38335,0.00726384,0.0152241,1259,400,4.74298,38.2204
42,624,4.79602,-38.2635,-0.00979601,0.00406956,0.00324388,0.00479094,-0.0105174,1.35197,0.00904205,0.0181089,1266,400,4.79597,38.2635
49,624,4.86548,-38.2726,-0.010912,0.00491509,0.00422945,0.00597442,-0.0119713,1.32538,0.0105521,0.0195889,1273,400,4.86545,38.2726
56,624,4.89563,-38.3281,-0.0118664,0.00554881,0.00510871,0.00693682,-0.0132544,1.30551,0.0118461,0.0198815,1280,400,4.89565,38.3281
63,624,4.9104,-38.3386,-0.0129579,0.00608545,0.00614661,0.00789705,-0.0147695,1.28418,0.0132855,0.0159378,1287,400,4.91039,38.3386
70,624,4.90588,-38.3433,-0.0141554,0.00643755,0.00704268,0.00861572,-0.0163335,1.27085,0.0146324,0.0129167,1294,400,4.90585,38.3433
77,624,4.93201,-38.2934,-0.0147244,0.00666626,0.00774725,0.00917736,-0.0172355,1.25735,0.0154842,0.0137492,1301,400,4.93197,38.2934
84,624,4.96399,-38.2559,-0.014783,0.00625915,0.00828328,0.00912858,-0.0176525,1.23732,0.0157209,0.0128536,1308,400,4.96403,38.2559
91,624,4.98291,-38.1786,-0.0147251,0.00566827,0.00853454,0.00876861,-0.0178254,1.22235,0.015648,0.0130156,1315,400,4.98288,38.1786
98,624,5.00183,-38.0977,-0.0145255,0.00510653,0.00872099,0.00842101,-0.01784,1.2076,0.0154834,0.0136645,1322,400,5.00183,38.0978
105,624,5.04163,-38.0212,-0.013904,0.00408599,0.00855511,0.00750469,-0.0173227,1.19063,0.0147029,0.0151439,1329,400,5.04165,38.0213
112,624,5.0863,-37.9342,-0.0128477,0.00346546,0.00816171,0.00684765,-0.0162299,1.17794,0.013686,0.0145564,1336,400,5.08627,37.9342
119,624,5.09656,-37.8447,-0.0113125,0.00254518,0.00761851,0.00591442,-0.0146818,1.15441,0.0122451,0.0142275,1343,400,5.0965,37.8447
126,624,5.10535,-37.7088,-0.00945507,0.00148711,0.00688829,0.00481268,-0.0127806,1.12101,0.010499,0.0176507,1350,400,5.10536,37.7088
133,624,5.13391,-37.5336,-0.00733545,0.000373686,0.00595963,0.00361665,-0.0105784,1.07245,0.00851773,0.0182145,1357,400,5.13395,37.5336
140,624,5.13098,-37.368,-0.00500349,-0.000669186,0.00482941,0.00245703,-0.0081297,0.996301,0.00639806,0.0184507,1364,400,5.13099,37.368
147,624,5.14026,-37.1803,-0.00281032,-0.00127281,0.00365251,0.00169096,-0.0057741,0.889121,0.00451975,0.0228863,1371,400,5.14022,37.1803
154,624,5.24158,-37.0073,-0.00101032,-0.00165528,0.00253451,0.00122214,-0.00388774,0.72212,0.00308109,0.02483,1378,400,5.24158,37.0073
161,624,5.24902,-36.8023,0.00039763,-0.00153945,0.00164911,0.00134158,-0.0024834,0.519879,0.00224091,0.0234708,1385,400,5.24905,36.8023
168,624,5.24646,-36.5942,0.00154191,-0.00122529,0.000769124,0.00174131,-0.0014247,0.253675,0.00183094,0.0242013,1392,400,5.24647,36.5942
175,624,5.28674,-36.4157,0.00240992,-0.000703788,0.000328322,0.00244416,-0.000738031,0.103921,0.00192325,0.0186641,1399,400,5.2868,36.4157
182,624,5.26111,-36.2031,0.0017922,0.000117467,0.00020002,0.00181576,9.3909e-05,0.117237,0.00118045,0.0106581,1406,400,5.26106,36.2031
189,624,5.23364,-35.9215,0.00124277,0.00102344,0.00014506,0.00131495,0.000951255,0.461733,0.000784043,0.0104072,1413,400,5.23362,35.9215
196,624,5.21936,-35.6451,0.000898326,0.00181649,0.000234385,0.00187286,0.000841954,1.33477,0.00108313,0.0117947,1420,400,5.21932,35.6451
203,624,5.24927,-35.3689,0.000551442,0.00261707,0.00039477,0.00268994,0.000478567,1.38825,0.00165697,0.014568,1427,400,5.2493,35.3689
210,624,5.25293,-35.1227,0.000185508,0.00311524,0.00060016,0.00323342,6.73315e-05,1.37637,0.00213352,0.0187953,1434,400,5.25297,35.1227
217,624,5.22192,-34.8201,4.27652e-05,0.00375662,0.000827097,0.00393249,-0.000133106,1.36128,0.00266713,0.0219938,1441,400,5.22188,34.8201
224,624,5.20471,-34.51,3.0311e-05,0.00443218,0.00108965,0.00468715,-0.000224655,1.34094,0.00320228,0.0168588,1448,400,5.20467,34.51
231,624,5.21985,-34.2062,0.000163011,0.00499082,0.00137676,0.00535584,-0.000202007,1.31163,0.00363976,0.0115345,1455,400,5.21984,34.2062
238,624,5.20483,-33.9067,0.000265552,0.00567593,0.00168571,0.00615817,-0.000216683,1.29217,0.00417955,0.0171749,1462,400,5.20479,33.9067
245,624,5.21033,-33.5838,0.000236827,0.00610147,0.00189694,0.00666156,-0.000323257,1.2837,0.00455262,0.0185896,1469,400,5.21036,33.5838
252,624,5.16626,-33.1808,0.000280253,0.00668276,0.0021676,0.00734758,-0.000384563,1.2732,0.00503147,0.0137115,1476,400,5.1663,33.1808
259,624,5.13818,-32.8165,0.000368822,0.00737407,0.00257242,0.00821721,-0.000474324,1.25407,0.0056429,0.00953542,1483,400,5.13816,32.8165
266,624,5.14014,-32.4345,0.000414436,0.0078723,0.00293707,0.00889008,-0.000603347,1.23722,0.00613773,0.0138076,1490,400,5.14014,32.4345
273,624,5.13452,-32.0532,0.000465185,0.00847297,0.00338305,0.00971085,-0.000772699,1.22002,0.00674623,0.0172635,1497,400,5.13455,32.0532
280,624,5.07825,-31.6754,0.000498472,0.00910552,0.00388655,0.0106007,-0.000996759,1.20353,0.00742176,0.0158859,1504,400,5.07828,31.6754
287,624,5.05811,-31.2916,0.00057808,0.00985267,0.0045069,0.011682,-0.0012512,1.18523,0.00823677,0.0122461,1511,400,5.05806,31.2916
294,624,5.02405,-30.8925,0.000575307,0.0106322,0.00513311,0.0127894,-0.00158194,1.17295,0.00909954,0.0108367,1518,400,5.02406,30.8925
301,624,4.99353,-30.4266,0.000542641,0.0114064,0.00571142,0.0138565,-0.00190747,1.16556,0.0099347,0.0121728,1525,400,4.99351,30.4266
308,624,4.98755,-29.9457,0.000571299,0.0122574,0.0063387,0.0150353,-0.00220657,1.15777,0.0108342,0.0155375,1532,400,4.98756,29.9457
315,624,4.9939,-29.5084,0.00064362,0.0133431,0.00706583,0.0164931,-0.00250639,1.15143,0.011919,0.0200362,1539,400,4.99394,29.5084
322,624,4.99158,-29.1035,0.000599766,0.0140907,0.00787007,0.0177106,-0.00302006,1.1397,0.0129318,0.0349962,1546,400,4.99154,29.1035
329,624,4.83057,-28.4604,0,0,0,0,0,0,0,-1,1553,400,4.8306,28.4604
336,624,5.00183,-27.9291,0,0,0,0,0,0,0,-1,1560,400,5.0018,27.9291
343,624,5.17297,-27.3978,0,0,0,0,0,0,0,-1,1567,400,5.17301,27.3978
350,624,1.99194,-7.29742,0,0,0,0,0,0,0,-1,1574,400,1.99198,7.29741
357,624,2.64075,-3.13092,0,0,0,0,0,0,0,-1,1581,400,2.64076,3.13091
364,624,3.16565,-4.9458,0,0,0,0,0,0,0,-1,1588,400,3.16564,4.94579
371,624,3.37561,-5.23529,0,0,0,0,0,0,0,-1,1595,400,3.37563,5.23529
378,624,1.50439,-5.22165,0,0,0,0,0,0,0,-1,1602,400,1.50438,5.22164
385,624,1.2301,-10.5866,0,0,0,0,0,0,0,-1,1609,400,1.2301,10.5866
392,624,4.26819,-5.14236,0,0,0,0,0,0,0,-1,1616,400,4.26818,5.14236
399,624,2.22168,-9.19293,0,0,0,0,0,0,0,-1,1623,400,2.22173,9.19294
406,624,2.68213,-9.91171,0,0,0,0,0,0,0,-1,1630,400,2.68213,9.91171
413,624,0,0,0,0,0,0,0,0,0,-1,1637,400,0,0
420,624,0,0,0,0,0,0,0,0,0,-1,1644,400,0,0
427,624,0,0,0,0,0,0,0,0,0,-1,1651,400,0,0
434,624,0,0,0,0,0,0,0,0,0,-1,1658,400,0,0
441,624,0,0,0,0,0,0,0,0,0,-1,1665,400,0,0
448,624,0,0,0,0,0,0,0,0,0,-1,1672,400,0,0
455,624,0,0,0,0,0,0,0,0,0,-1,1679,400,0,0
462,624,0,0,0,0,0,0,0,0,0,-1,1686,400,0,0
469,624,0,0,0,0,0,0,0,0,0,-1,1693,400,0,0
476,624,0,0,0,0,0,0,0,0,0,-1,1700,400,0,0
483,624,0,0,0,0,0,0,0,0,0,-1,1707,400,0,0
490,624,0,0,0,0,0,0,0,0,0,-1,1714,400,0,0
497,624,0,0,0,0,0,0,0,0,0,-1,1721,400,0,0
504,624,0,0,0,0,0,0,0,0,0,-1,1728,400,0,0
511,624,0,0,0,0,0,0,0,0,0,-1,1735,400,0,0
518,624,0,0,0,0,0,0,0,0,0,-1,1742,400,0,0
525,624,0,0,0,0,0,0,0,0,0,-1,1749,400,0,0
532,624,0,0,0,0,0,0,0,0,0,-1,1756,400,0,0
539,624,0,0,0,0,0,0,0,0,0,-1,1763,400,0,0
546,624,0,0,0,0,0,0,0,0,0,-1,1770,400,0,0
553,624,0,0,0,0,0,0,0,0,0,-1,1777,400,0,0
560,624,0,0,0,0,0,0,0,0,0,-1,1784,400,0,0
567,624,0,0,0,0,0,0,0,0,0,-1,1791,400,0,0
574,624,0,0,0,0,0,0,0,0,0,-1,1798,400,0,0
581,624,0,0,0,0,0,0,0,0,0,-1,1805,400,0,0
588,624,0,0,0,0,0,0,0,0,0,-1,1812,400,0,0
595,624,0,0,0,0,0,0,0,0,0,-1,1819,400,0,0
602,624,0,0,0,0,0,0,0,0,0,-1,1826,400,0,0
609,624,0,0,0,0,0,0,0,0,0,-1,1833,400,0,0
616,624,0,0,0,0,0,0,0,0,0,-1,1840,400,0,0
623,624,0,0,0,0,0,0,0,0,0,-1,1847,400,0,0
630,624,0,0,0,0,0,0,0,0,0,-1,1854,400,0,0
637,624,0,0,0,0,0,0,0,0,0,-1,1861,400,0,0
644,624,0,0,0,0,0,0,0,0,0,-1,1868,400,0,0
651,624,0,0,0,0,0,0,0,0,0,-1,1875,400,0,0
658,624,0,0,0,0,0,0,0,0,0,-1,1882,400,0,0
665,624,0,0,0,0,0,0,0,0,0,-1,1889,400,0,0
672,624,0,0,0,0,0,0,0,0,0,-1,1896,400,0,0
679,624,0,0,0,0,0,0,0,0,0,-1,1903,400,0,0
686,624,0,0,0,0,0,0,0,0,0,-1,1910,400,0,0
693,624,0,0,0,0,0,0,0,0,0,-1,1917,400,0,0
700,624,0,0,0,0,0,0,0,0,0,-1,1924,400,0,0
707,624,0,0,0,0,0,0,0,0,0,-1,1931,400,0,0
714,624,0,0,0,0,0,0,0,0,0,-1,1938,400,0,0
721,624,0,0,0,0,0,0,0,0,0,-1,1945,400,0,0
728,624,0,0,0,0,0,0,0,0,0,-1,1952,400,0,0
735,624,0,0,0,0,0,0,0,0,0,-1,1959,400,0,0
742,624,0,0,0,0,0,0,0,0,0,-1,1966,400,0,0
749,624,0,0,0,0,0,0,0,0,0,-1,1973,400,0,0
756,624,0,0,0,0,0,0,0,0,0,-1,1980,400,0,0
763,624,0,0,0,0,0,0,0,0,0,-1,1987,400,0,0
770,624,0,0,0,0,0,0,0,0,0,-1,1994,400,0,0
777,624,0,0,0,0,0,0,0,0,0,-1,2001,400,0,0
784,624,0,0,0,0,0,0,0,0,0,-1,2008,400,0,0
791,624,0,0,0,0,0,0,0,0,0,-1,2015,400,0,0
798,624,0,0,0,0,0,0,0,0,0,-1,2022,400,0,0
805,624,0,0,0,0,0,0,0,0,0,-1,2029,400,0,0
812,624,0,0,0,0,0,0,0,0,0,-1,2036,400,0,0
-700,617,0,0,0,0,0,0,0,0,0,-1,524,407,0,0
-693,617,0,0,0,0,0,0,0,0,0,-1,531,407,0,0
-686,617,0,0,0,0,0,0,0,0,0,-1,538,407,0,0
-679,617,0,0,0,0,0,0,0,0,0,-1,545,407,0,0
-672,617,0,0,0,0,0,0,0,0,0,-1,552,407,0,0
-665,617,0,0,0,0,0,0,0,0,0,-1,559,407,0,0
-658,617,0,0,0,0,0,0,0,0,0,-1,566,407,0,0
-651,617,0,0,0,0,0,0,0,0,0,-1,573,407,0,0
-644,617,0,0,0,0,0,0,0,0,0,-1,580,407,0,0
-637,617,0,0,0,0,0,0,0,0,0,-1,587,407,0,0
-630,617,0,0,0,0,0,0,0,0,0,-1,594,407,0,0
-623,617,0,0,0,0,0,0,0,0,0,-1,601,407,0,0
-616,617,0,0,0,0,0,0,0,0,0,-1,608,407,0,0
-609,617,0,0,0,0,0,0,0,0,0,-1,615,407,0,0
-602,617,0,0,0,0,0,0,0,0,0,-1,622,407,0,0
-595,617,0,0,0,0,0,0,0,0,0,-1,629,407,0,0
-588,617,0,0,0,0,0,0,0,0,0,-1,636,407,0,0
-581,617,0,0,0,0,0,0,0,0,0,-1,643,407,0,0
-574,617,0,0,0,0,0,0,0,0,0,-1,650,407,0,0
-567,617,0,0,0,0,0,0,0,0,0,-1,657,407,0,0
-560,617,0,0,0,0,0,0,0,0,0,-1,664,407,0,0
-553,617,0,0,0,0,0,0,0,0,0,-1,671,407,0,0
-546,617,0,0,0,0,0,0,0,0,0,-1,678,407,0,0
-539,617,0,0,0,0,0,0,0,0,0,-1,685,407,0,0
-532,617,0,0,0,0,0,0,0,0,0,-1,692,407,0,0
-525,617,0,0,0,0,0,0,0,0,0,-1,699,407,0,0
-518,617,0,0,0,0,0,0,0,0,0,-1,706,407,0,0
-511,617,0,0,0,0,0,0,0,0,0,-1,713,407,0,0
-504,617,0,0,0,0,0,0,0,0,0,-1,720,407,0,0
-497,617,0,0,0,0,0,0,0,0,0,-1,727,407,0,0
-490,617,0,0,0,0,0,0,0,0,0,-1,734,407,0,0
-483,617,0,0,0,0,0,0,0,0,0,-1,741,407,0,0
-476,617,0,0,0,0,0,0,0,0,0,-1,748,407,0,0
-469,617,0,0,0,0,0,0,0,0,0,-1,755,407,0,0
-462,617,0,0,0,0,0,0,0,0,0,-1,762,407,0,0
-455,617,0,0,0,0,0,0,0,0,0,-1,769,407,0,0
-448,617,0,0,0,0,0,0,0,0,0,-1,776,407,0,0
-441,617,0,0,0,0,0,0,0,0,0,-1,783,407,0,0
-434,617,0,0,0,0,0,0,0,0,0,-1,790,407,0,0
-427,617,0,0,0,0,0,0,0,0,0,-1,797,407,0,0
-420,617,0,0,0,0,0,0,0,0,0,-1,804,407,0,0
-413,617,0,0,0,0,0,0,0,0,0,-1,811,407,0,0
-406,617,0,0,0,0,0,0,0,0,0,-1,818,407,0,0
-399,617,0,0,0,0,0,0,0,0,0,-1,825,407,0,0
-392,617,0,0,0,0,0,0,0,0,0,-1,832,407,0,0
-385,617,0,0,0,0,0,0,0,0,0,-1,839,407,0,0
-378,617,0,0,0,0,0,0,0,0,0,-1,846,407,0,0
-371,617,0,0,0,0,0,0,0,0,0,-1,853,407,0,0
-364,617,0,0,0,0,0,0,0,0,0,-1,860,407,0,0
-357,617,0,0,0,0,0,0,0,0,0,-1,867,407,0,0
-350,617,0,0,0,0,0,0,0,0,0,-1,874,407,0,0
-343,617,0,0,0,0,0,0,0,0,0,-1,881,407,0,0
-336,617,0,0,0,0,0,0,0,0,0,-1,888,407,0,0
-329,617,0,0,0,0,0,0,0,0,0,-1,895,407,0,0
-322,617,0,0,0,0,0,0,0,0,0,-1,902,407,0,0
-315,617,0,0,0,0,0,0,0,0,0,-1,909,407,0,0
-308,617,0,0,0,0,0,0,0,0,0,-1,916,407,0,0
-301,617,6.8504,-26.4473,0,0,0,0,0,0,0,-1,923,407,6.85041,26.4473
-294,617,8.41962,-26.4389,0,0,0,0,0,0,0,-1,930,407,8.41964,26.4389
-287,617,4.55206,-24.8128,0,0,0,0,0,0,0,-1,937,407,4.55207,24.8128
-280,617,5.17279,-25.0622,0,0,0,0,0,0,0,-1,944,407,5.17279,25.0622
-273,617,5.97894,-25.6442,0,0,0,0,0,0,0,-1,951,407,5.97892,25.6442
-266,617,6.0816,-27.0438,0,0,0,0,0,0,0,-1,958,407,6.08162,27.0438
-259,617,5.65411,-26.9006,0,0,0,0,0,0,0,-1,965,407,5.65411,26.9006
-252,617,5.59381,-26.9561,0,0,0,0,0,0,0,-1,972,407,5.59383,26.9561
-245,617,5.64954,-27.0822,0,0,0,0,0,0,0,-1,979,407,5.64955,27.0821
-238,617,4.34875,-27.1967,0,0,0,0,0,0,0,-1,986,407,4.34873,27.1967
-231,617,4.4068,-27.0587,0,0,0,0,0,0,0,-1,993,407,4.40678,27.0588
-224,617,4.48834,-27.7192,0,0,0,0,0,0,0,-1,1000,407,4.48835,27.7192
-217,617,4.69867,-28.3806,0.00319862,0.0160903,-0.0136613,0.0247501,-0.00546114,-1.00583,0.0185898,0.0443679,1007,407,4.69866,28.3805
-210,617,4.66833,-28.9539,0.00409585,0.0119224,-0.0132603,0.0218349,-0.00581658,-0.928882,0.0168338,0.0308679,1014,407,4.66832,28.954
-203,617,4.58716,-29.4515,0.00447235,0.00849096,-0.0120215,0.0186699,-0.00570657,-0.868204,0.0147222,0.0219673,1021,407,4.5872,29.4515
-196,617,4.54211,-29.8611,0.00451023,0.00612576,-0.0108905,0.0162384,-0.00560237,-0.822416,0.0130987,0.0176345,1028,407,4.54212,29.8611
-189,617,4.47852,-30.2647,0.00430271,0.00421711,-0.0101373,0.0143973,-0.00587745,-0.783287,0.0120452,0.0159736,1035,407,4.47849,30.2647
-182,617,4.48889,-30.6812,0.00414485,0.00262224,-0.00912468,0.0125399,-0.00577284,-0.743778,0.0108108,0.0185443,1042,407,4.48888,30.6812
-175,617,4.46155,-31.0789,0.00376997,0.00119564,-0.00784175,0.0104295,-0.00546388,-0.704052,0.00932413,0.0172995,1049,407,4.46159,31.0789
-168,617,4.43201,-31.5225,0.00328279,0.000375882,-0.00650446,0.0084942,-0.00483553,-0.675476,0.00779196,0.0116512,1056,407,4.43198,31.5225
-161,617,4.39514,-31.9475,0.00272874,-0.000113143,-0.0052453,0.00674216,-0.00412656,-0.653124,0.00633533,0.0105474,1063,407,4.39514,31.9475
-154,617,4.37036,-32.3098,0.00213166,-0.000242728,-0.00400546,0.00512216,-0.00323323,-0.641326,0.0048649,0.0117884,1070,407,4.37038,32.3098
-147,617,4.34412,-32.6735,0.00151249,-5.56318e-05,-0.00286766,0.00370135,-0.00224449,-0.651952,0.00346701,0.0165839,1077,407,4.34418,32.6735
-140,617,4.31396,-33.0578,0.00106673,4.22572e-05,-0.00194525,0.00256606,-0.00145707,-0.656657,0.00235198,0.0126715,1084,407,4.31391,33.0578
-133,617,4.30176,-33.3826,0.000702734,0.000276529,-0.00118084,0.00168955,-0.000710285,-0.696126,0.00142348,0.0144522,1091,407,4.30172,33.3826
-126,617,4.28613,-33.6688,0.0003159,0.000768428,-0.000536446,0.00112437,-4.0047e-05,-0.98497,0.000763282,0.0140987,1098,407,4.28618,33.6688
-119,617,4.26794,-34.0002,0.000167231,0.00123035,-0.000161537,0.00125435,0.000143228,-1.42328,0.000792816,0.0141419,1105,407,4.26794,34.0002
-112,617,4.29626,-34.3123,0.000164374,0.00154753,2.98069e-06,0.00154754,0.000164368,1.56864,0.000981503,0.0157833,1112,407,4.29625,34.3123
-105,617,4.29272,-34.5982,0.000220394,0.00163102,1.25011e-05,0.00163113,0.000220283,1.56194,0.00102194,0.0149331,1119,407,4.29271,34.5982
-98,617,4.27393,-34.9043,0.000389487,0.00143236,-0.000106059,0.00144303,0.00037881,-1.47047,0.000863895,0.0121025,1126,407,4.27397,34.9043
-91,617,4.28833,-35.2038,0.000676055,0.00122427,-0.000184433,0.00128054,0.000619783,-1.27466,0.000739448,0.0186713,1133,407,4.28837,35.2038
-84,617,4.34326,-35.479,0.000991068,0.000951541,-0.000163623,0.00113612,0.000806493,-0.725296,0.000674923,0.0187968,1140,407,4.34332,35.479
-77,617,4.33362,-35.7276,0.00129064,0.000851854,-0.000133157,0.00132789,0.000814607,-0.27275,0.000773209,0.0144788,1147,407,4.3336,35.7276
-70,617,4.33777,-35.9763,0.00203174,5.88362e-05,-0.000144295,0.00204223,4.83387e-05,-0.0726234,0.00134567,0.0159623,1154,407,4.33779,35.9763
-63,617,4.35229,-36.2115,0.00287215,-0.000889439,-0.000166053,0.00287947,-0.000896755,-0.0440302,0.00227818,0.0192663,1161,407,4.35228,36.2115
-56,617,4.32019,-36.4644,0.0034917,-0.00198143,-5.80951e-05,0.00349231,-0.00198205,-0.010613,0.00320046,0.0149049,1168,407,4.32018,36.4644
-49,617,4.33789,-36.6949,0.00410461,-0.00329032,0.000147804,0.00410756,-0.00329328,0.0199766,0.00428149,0.0110053,1175,407,4.33789,36.6949
-42,617,4.36938,-36.9159,0.00502542,-0.0045788,0.000298537,0.00503469,-0.00458807,0.031044,0.0055577,0.0120306,1182,407,4.36941,36.9159
-35,617,4.40344,-37.0828,0.0059143,-0.00616779,8.49685e-05,0.0059149,-0.00616838,0.00703214,0.0069768,0.0174576,1189,407,4.40338,37.0828
-28,617,4.42175,-37.2342,0.00648846,-0.00749681,-2.55397e-05,0.00648851,-0.00749685,-0.00182617,0.00808144,0.0187419,1196,407,4.4217,37.2342
-21,617,4.46143,-37.3915,0.00533967,-0.00686423,-0.000160802,0.00534179,-0.00686635,-0.0131732,0.00706667,0.0132192,1203,407,4.46142,37.3915
-14,617,4.47937,-37.5423,0.00369106,-0.0058408,-0.000331855,0.0037026,-0.00585234,-0.0347592,0.00556289,0.0156125,1210,407,4.47935,37.5423
-7,617,4.46228,-37.6482,0.00162084,-0.00491527,-0.000660743,0.00168697,-0.0049814,-0.0997465,0.00400354,0.0192952,1217,407,4.46225,37.6482
0,617,4.50867,-37.7718,-0.000847251,-0.00262378,-0.000266557,-0.000808117,-0.00266291,-0.145769,0.00157652,0.0166745,1224,407,4.50861,37.7718
7,617,4.573,-37.9335,-0.00371985,-0.000914763,0.000382309,-0.000863591,-0.00377102,1.43774,0.0022813,0.0122855,1231,407,4.573,37.9335
14,617,4.62122,-38.0422,-0.00660336,0.000865837,0.000984377,0.000993392,-0.00673092,1.44194,0.00485242,0.0142382,1238,407,4.62122,38.0422
21,617,4.65564,-38.1116,-0.00929657,0.00267322,0.00159934,0.00288323,-0.00950658,1.44023,0.00748622,0.0135373,1245,407,4.65566,38.1116
28,617,4.69971,-38.2097,-0.011884,0.00438358,0.00245422,0.00474577,-0.0122462,1.42427,0.0101239,0.0115716,1252,407,4.69969,38.2097
35,617,4.66638,-38.2774,-0.0145679,0.00622,0.00365149,0.00684275,-0.0151907,1.40188,0.0130218,0.0134018,1259,407,4.66633,38.2774
42,617,4.74854,-38.2573,-0.0168258,0.00738985,0.00504455,0.00839868,-0.0178347,1.37341,0.015469,0.0207205,1266,407,4.74854,38.2573
49,617,4.80701,-38.2613,-0.0184349,0.00826861,0.0064302,0.00973633,-0.0199026,1.34639,0.0174444,0.0213937,1273,407,4.807,38.2613
56,617,4.86084,-38.2996,-0.0197335,0.0087179,0.0076935,0.010665,-0.0216807,1.32291,0.0190324,0.0157946,1280,407,4.86087,38.2996
63,617,4.89099,-38.3208,-0.0213171,0.00902971,0.00922449,0.0116137,-0.0239011,1.29768,0.0209095,0.0116236,1287,407,4.89095,38.3208
70,617,4.89612,-38.3256,-0.0230164,0.0091505,0.010587,0.0123222,-0.0261881,1.27972,0.0227093,0.0148759,1294,407,4.89608,38.3256
77,617,4.96216,-38.2783,-0.0239193,0.00911519,0.011689,0.0128329,-0.027637,1.26286,0.0238807,0.0125104,1301,407,4.96212,38.2783
84,617,5.03052,-38.2468,-0.0239721,0.00808639,0.0125591,0.0124206,-0.0283062,1.23849,0.0241025,0.0104541,1308,407,5.03052,38.2468
91,617,5.06775,-38.1781,-0.0237226,0.00683527,0.0130984,0.0116813,-0.0285686,1.21644,0.0239103,0.0107237,1315,407,5.06777,38.1781
98,617,5.10693,-38.0947,-0.0231293,0.00565778,0.0135563,0.0110366,-0.0285081,1.19307,0.0235623,0.0127101,1322,407,5.10698,38.0947
105,617,5.15234,-38.0091,-0.0218332,0.00387456,0.0135132,0.00967084,-0.0276295,1.1656,0.0223519,0.014119,1329,407,5.15232,38.0091
112,617,5.20471,-37.9287,-0.0199999,0.00254119,0.0131756,0.00860912,-0.0260678,1.13921,0.0208494,0.0160637,1336,407,5.20471,37.9287
119,617,5.21924,-37.804,-0.0174251,0.000854575,0.0126263,0.00730187,-0.0238724,1.09868,0.018827,0.0184419,1343,407,5.21921,37.804
126,617,5.22192,-37.6817,-0.0143536,-0.000978165,0.0118159,0.00591132,-0.0212431,1.04292,0.0164896,0.0209079,1350,407,5.22198,37.6817
133,617,5.25476,-37.5211,-0.0108069,-0.00278914,0.0106474,0.00457902,-0.0181751,0.965447,0.0138968,0.018639,1357,407,5.25473,37.521
140,617,5.31592,-37.3736,-0.00698047,-0.00446261,0.00915781,0.0035224,-0.0149655,0.853705,0.011335,0.0164021,1364,407,5.31595,37.3736
147,617,5.34424,-37.2024,-0.00347545,-0.00558196,0.00756154,0.00310584,-0.0121632,0.716198,0.00931827,0.0194156,1371,407,5.34425,37.2024
154,617,5.39575,-37.0439,-0.000567375,-0.00633456,0.00593069,0.00314359,-0.0100455,0.559119,0.0079547,0.0216326,1378,407,5.39577,37.044
161,617,5.44824,-36.8561,0.00165379,-0.00624824,0.00453108,0.00371453,-0.00830898,0.42684,0.00710871,0.0236559,1385,407,5.44827,36.8561
168,617,5.50366,-36.6878,0.00375696,-0.0058953,0.00291222,0.00456754,-0.00670589,0.271468,0.00654763,0.0236177,1392,407,5.50367,36.6878
175,617,5.49548,-36.4866,0.00560556,-0.00527021,0.00183442,0.00590663,-0.00557129,0.162677,0.00662773,0.0198816,1399,407,5.49554,36.4866
182,617,5.50854,-36.2251,0.0046266,-0.00400838,0.00120914,0.00479272,-0.0041745,0.13653,0.00518132,0.0121045,1406,407,5.50852,36.2251
189,617,5.49976,-35.9307,0.00359385,-0.00247307,0.000617971,0.00365616,-0.00253538,0.100484,0.00359416,0.011398,1413,407,5.49974,35.9307
196,617,5.48145,-35.6675,0.00276771,-0.00107594,0.000193537,0.00277743,-0.00108566,0.0501832,0.00230054,0.0157351,1420,407,5.48142,35.6675
203,617,5.49634,-35.422,0.00195317,0.000219051,-0.000205467,0.00197718,0.000195039,-0.116339,0.00125816,0.0156721,1427,407,5.49632,35.422
210,617,5.54114,-35.1292,0.00119018,0.001057,-0.000366794,0.00149638,0.000750802,-0.695607,0.000863937,0.015558,1434,407,5.54111,35.1291
217,617,5.52295,-34.8062,0.000855053,0.00181194,-9.38384e-06,0.00181203,0.000854961,-1.56099,0.00104673,0.0216188,1441,407,5.52297,34.8062
224,617,5.51587,-34.5227,0.000675587,0.00254308,0.000364077,0.00261155,0.000607119,1.38491,0.00157808,0.0209655,1448,407,5.51593,34.5227
231,617,5.55322,-34.2281,0.000653538,0.00318886,0.000747408,0.00339279,0.000449607,1.30443,0.00212788,0.01524,1455,407,5.5532,34.2281
238,617,5.5426,-33.9315,0.000685404,0.00386424,0.00108896,0.0042015,0.000348143,1.27046,0.00269246,0.0157225,1462,407,5.54262,33.9316
245,617,5.56042,-33.6124,0.000645059,0.00435874,0.00132931,0.00478552,0.000218277,1.26014,0.00312013,0.013231,1469,407,5.56042,33.6124
252,617,5.5448,-33.1988,0.000609964,0.00491622,0.00160274,0.00544725,7.89303e-05,1.25085,0.00360548,0.0139049,1476,407,5.54475,33.1988
259,617,5.49658,-32.8227,0.000589405,0.00551214,0.00196453,0.0062,-9.84643e-05,1.23399,0.00416655,0.0115718,1483,407,5.49662,32.8227
266,617,5.47131,-32.4246,0.00056856,0.00594708,0.00228541,0.00678702,-0.000271377,1.2186,0.0046178,0.0139025,1490,407,5.47134,32.4246
273,617,5.46912,-32.0391,0.000555172,0.00646819,0.00265903,0.00748803,-0.000464671,1.20456,0.0051539,0.0155118,1497,407,5.46914,32.0391
280,617,5.44702,-31.692,0.000524293,0.00702031,0.00308452,0.00825156,-0.000706966,1.191,0.0057512,0.014472,1504,407,5.44698,31.692
287,617,5.42944,-31.292,0.000542301,0.00765997,0.00359693,0.00916109,-0.000958823,1.17544,0.0064508,0.0130688,1511,407,5.42945,31.292
294,617,5.401,-30.8865,0.000489257,0.00833327,0.00410289,0.0100872,-0.00126464,1.16683,0.00718352,0.0102911,1518,407,5.40094,30.8865
301,617,5.375,-30.4854,0.000406897,0.00899675,0.00455991,0.0109659,-0.00156229,1.16314,0.00788317,0.00805017,1525,407,5.37499,30.4854
308,617,5.34583,-30.0495,0.000388195,0.00972362,0.00505853,0.011939,-0.00182714,1.15802,0.00863304,0.00809222,1532,407,5.34581,30.0495
315,617,5.32227,-29.6314,0.000385224,0.010634,0.00562143,0.0131162,-0.00209694,1.15499,0.00952041,0.00962553,1539,407,5.32225,29.6314
322,617,5.29346,-29.1811,0.000262772,0.0112801,0.00620184,0.0140665,-0.00252363,1.14854,0.0103222,0.0138921,1546,407,5.29347,29.1811
329,617,5.27686,-28.6941,5.05636e-05,0.0118195,0.00664902,0.014814,-0.00294396,1.14763,0.0109896,0.0168205,1553,407,5.27689,28.6941
336,617,5.32239,-28.1645,-0.000381244,0.0123872,0.00695981,0.0154474,-0.00344145,1.15654,0.0116166,0.0307304,1560,407,5.32233,28.1645
343,617,5.39624,-27.6715,0,0,0,0,0,0,0,-1,1567,407,5.3963,27.6715
350,617,5.16016,-27.2165,0,0,0,0,0,0,0,-1,1574,407,5.16021,27.2165
357,617,2.1748,-7.16504,0,0,0,0,0,0,0,-1,1581,407,2.1748,7.16505
364,617,2.30127,-7.60257,0,0,0,0,0,0,0,-1,1588,407,2.30125,7.60258
371,617,2.60266,-6.20667,0,0,0,0,0,0,0,-1,1595,407,2.60261,6.20668
378,617,1.56921,-10.3601,0,0,0,0,0,0,0,-1,1602,407,1.56918,10.3601
385,617,1.74146,-10.3561,0,0,0,0,0,0,0,-1,1609,407,1.7414,10.3561
392,617,1.96936,-5.10449,0,0,0,0,0,0,0,-1,1616,407,1.96931,5.10451
399,617,2.48889,-5.81256,0,0,0,0,0,0,0,-1,1623,407,2.48888,5.81255
406,617,3.01465,-6.51642,0,0,0,0,0,0,0,-1,1630,407,3.01461,6.51643
413,617,3.6427,-7.2074,0,0,0,0,0,0,0,-1,1637,407,3.64274,7.20739
420,617,3.42737,-4.47391,0,0,0,0,0,0,0,-1,1644,407,3.42737,4.47391
427,617,0,0,0,0,0,0,0,0,0,-1,1651,407,0,0
434,617,0,0,0,0,0,0,0,0,0,-1,1658,407,0,0
441,617,0,0,0,0,0,0,0,0,0,-1,1665,407,0,0
448,617,0,0,0,0,0,0,0,0,0,-1,1672,407,0,0
455,617,0,0,0,0,0,0,0,0,0,-1,1679,407,0,0
462,617,0,0,0,0,0,0,0,0,0,-1,1686,407,0,0
469,617,0,0,0,0,0,0,0,0,0,-1,1693,407,0,0
476,617,0,0,0,0,0,0,0,0,0,-1,1700,407,0,0
483,617,0,0,0,0,0,0,0,0,0,-1,1707,407,0,0
490,617,0,0,0,0,0,0,0,0,0,-1,1714,407,0,0
497,617,0,0,0,0,0,0,0,0,0,-1,1721,407,0,0
504,617,0,0,0,0,0,0,0,0,0,-1,1728,407,0,0
511,617,0,0,0,0,0,0,0,0,0,-1,1735,407,0,0
518,617,0,0,0,0,0,0,0,0,0,-1,1742,407,0,0
525,617,0,0,0,0,0,0,0,0,0,-1,1749,407,0,0
532,617,0,0,0,0,0,0,0,0,0,-1,1756,407,0,0
539,617,0,0,0,0,0,0,0,0,0,-1,1763,407,0,0
546,617,0,0,0,0,0,0,0,0,0,-1,1770,407,0,0
553,617,0,0,0,0,0,0,0,0,0,-1,1777,407,0,0
560,617,0,0,0,0,0,0,0,0,0,-1,1784,407,0,0
567,617,0,0,0,0,0,0,0,0,0,-1,1791,407,0,0
574,617,0,0,0,0,0,0,0,0,0,-1,1798,407,0,0
581,617,0,0,0,0,0,0,0,0,0,-1,1805,407,0,0
588,617,0,0,0,0,0,0,0,0,0,-1,1812,407,0,0
595,617,0,0,0,0,0,0,0,0,0,-1,1819,407,0,0
602,617,0,0,0,0,0,0,0,0,0,-1,1826,407,0,0
609,617,0,0,0,0,0,0,0,0,0,-1,1833,407,0,0
616,617,0,0,0,0,0,0,0,0,0,-1,1840,407,0,0
623,617,0,0,0,0,0,0,0,0,0,-1,1847,407,0,0
630,617,0,0,0,0,0,0,0,0,0,-1,1854,407,0,0
637,617,0,0,0,0,0,0,0,0,0,-1,1861,407,0,0
644,617,0,0,0,0,0,0,0,0,0,-1,1868,407,0,0
651,617,0,0,0,0,0,0,0,0,0,-1,1875,407,0,0
658,617,0,0,0,0,0,0,0,0,0,-1,1882,407,0,0
665,617,0,0,0,0,0,0,0,0,0,-1,1889,407,0,0
672,617,0,0,0,0,0,0,0,0,0,-1,1896,407,0,0
679,617,0,0,0,0,0,0,0,0,0,-1,1903,407,0,0
686,617,0,0,0,0,0,0,0,0,0,-1,1910,407,0,0
693,617,0,0,0,0,0,0,0,0,0,-1,1917,407,0,0
700,617,0,0,0,0,0,0,0,0,0,-1,1924,407,0,0
707,617,0,0,0,0,0,0,0,0,0,-1,1931,407,0,0
714,617,0,0,0,0,0,0,0,0,0,-1,1938,407,0,0
721,617,0,0,0,0,0,0,0,0,0,-1,1945,407,0,0
728,617,0,0,0,0,0,0,0,0,0,-1,1952,407,0,0
735,617,0,0,0,0,0,0,0,0,0,-1,1959,407,0,0
742,617,0,0,0,0,0,0,0,0,0,-1,1966,407,0,0
749,617,0,0,0,0,0,0,0,0,0,-1,1973,407,0,0
756,617,0,0,0,0,0,0,0,0,0,-1,1980,407,0,0
763,617,0,0,0,0,0,0,0,0,0,-1,1987,407,0,0
770,617,0,0,0,0,0,0,0,0,0,-1,1994,407,0,0
777,617,0,0,0,0,0,0,0,0,0,-1,2001,407,0,0
784,617,0,0,0,0,0,0,0,0,0,-1,2008,407,0,0
791,617,0,0,0,0,0,0,0,0,0,-1,2015,407,0,0
798,617,0,0,0,0,0,0,0,0,0,-1,2022,407,0,0
805,617,0,0,0,0,0,0,0,0,0,-1,2029,407,0,0
812,617,0,0,0,0,0,0,0,0,0,-1,2036,407,0,0
-700,610,0,0,0,0,0,0,0,0,0,-1,524,414,0,0
-693,610,0,0,0,0,0,0,0,0,0,-1,531,414,0,0
-686,610,0,0,0,0,0,0,0,0,0,-1,538,414,0,0
-679,610,0,0,0,0,0,0,0,0,0,-1,545,414,0,0
-672,610,0,0,0,0,0,0,0,0,0,-1,552,414,0,0
-665,610,0,0,0,0,0,0,0,0,0,-1,559,414,0,0
-658,610,0,0,0,0,0,0,0,0,0,-1,566,414,0,0
-651,610,0,0,0,0,0,0,0,0,0,-1,573,414,0,0
-644,610,0,0,0,0,0,0,0,0,0,-1,580,414,0,0
-637,610,0,0,0,0,0,0,0,0,0,-1,587,414,0,0
-630,610,0,0,0,0,0,0,0,0,0,-1,594,414,0,0
-623,610,0,0,0,0,0,0,0,0,0,-1,601,414,0,0
-616,610,0,0,0,0,0,0,0,0,0,-1,608,414,0,0
-609,610,0,0,0,0,0,0,0,0,0,-1,615,414,0,0
-602,610,0,0,0,0,0,0,0,0,0,-1,622,414,0,0
-595,610,0,0,0,0,0,0,0,0,0,-1,629,414,0,0
-588,610,0,0,0,0,0,0,0,0,0,-1,636,414,0,0
-581,610,0,0,0,0,0,0,0,0,0,-1,643,414,0,0
-574,610,0,0,0,0,0,0,0,0,0,-1,650,414,0,0
-567,610,0,0,0,0,0,0,0,0,0,-1,657,414,0,0
-560,610,0,0,0,0,0,0,0,0,0,-1,664,414,0,0
-553,610,0,0,0,0,0,0,0,0,0,-1,671,414,0,0
-546,610,0,0,0,0,0,0,0,0,0,-1,678,414,0,0
-539,610,0,0,0,0,0,0,0,0,0,-1,685,414,0,0
-532,610,0,0,0,0,0,0,0,0,0,-1,692,414,0,0
-525,610,0,0,0,0,0,0,0,0,0,-1,699,414,0,0
-518,610,0,0,0,0,0,0,0,0,0,-1,706,414,0,0
-511,610,0,0,0,0,0,0,0,0,0,-1,713,414,0,0
-504,610,0,0,0,0,0,0,0,0,0,-1,720,414,0,0
-497,610,0,0,0,0,0,0,0,0,0,-1,727,414,0,0
-490,610,0,0,0,0,0,0,0,0,0,-1,734,414,0,0
-483,610,0,0,0,0,0,0,0,0,0,-1,741,414,0,0
-476,610,0,0,0,0,0,0,0,0,0,-1,748,414,0,0
-469,610,0,0,0,0,0,0,0,0,0,-1,755,414,0,0
-462,610,0,0,0,0,0,0,0,0,0,-1,762,414,0,0
-455,610,0,0,0,0,0,0,0,0,0,-1,769,414,0,0
-448,610,0,0,0,0,0,0,0,0,0,-1,776,414,0,0
-441,610,0,0,0,0,0,0,0,0,0,-1,783,414,0,0
-434,610,0,0,0,0,0,0,0,0,0,-1,790,414,0,0
-427,610,0,0,0,0,0,0,0,0,0,-1,797,414,0,0
-420,610,0,0,0,0,0,0,0,0,0,-1,804,414,0,0
-413,610,0,0,0,0,0,0,0,0,0,-1,811,414,0,0
-406,610,0,0,0,0,0,0,0,0,0,-1,818,414,0,0
-399,610,0,0,0,0,0,0,0,0,0,-1,825,414,0,0
-392,610,0,0,0,0,0,0,0,0,0,-1,832,414,0,0
-385,610,0,0,0,0,0,0,0,0,0,-1,839,414,0,0
-378,610,0,0,0,0,0,0,0,0,0,-1,846,414,0,0
-371,610,0,0,0,0,0,0,0,0,0,-1,853,414,0,0
-364,610,0,0,0,0,0,0,0,0,0,-1,860,414,0,0
-357,610,0,0,0,0,0,0,0,0,0,-1,867,414,0,0
-350,610,0,0,0,0,0,0,0,0,0,-1,874,414,0,0
-343,610,0,0,0,0,0,0,0,0,0,-1,881,414,0,0
-336,610,0,0,0,0,0,0,0,0,0,-1,888,414,0,0
-329,610,0,0,0,0,0,0,0,0,0,-1,895,414,0,0
-322,610,0,0,0,0,0,0,0,0,0,-1,902,414,0,0
-315,610,8.08594,-20.6403,0,0,0,0,0,0,0,-1,909,414,8.08595,20.6403
-308,610,3.97559,-24.1635,0,0,0,0,0,0,0,-1,916,414,3.97556,24.1635
-301,610,4.95953,-24.3575,0,0,0,0,0,0,0,-1,923,414,4.95952,24.3575
-294,610,6.20813,-24.3114,0,0,0,0,0,0,0,-1,930,414,6.20815,24.3114
-287,610,2.427,-24.4821,0,0,0,0,0,0,0,-1,937,414,2.42702,24.4821
-280,610,3.89569,-23.4206,0,0,0,0,0,0,0,-1,944,414,3.89572,23.4206
-273,610,4.6828,-24.2032,0,0,0,0,0,0,0,-1,951,414,4.68281,24.2032
-266,610,4.72711,-26.2971,0,0,0,0,0,0,0,-1,958,414,4.7271,26.2971
-259,610,4.72272,-26.5955,0,0,0,0,0,0,0,-1,965,414,4.72274,26.5955
-252,610,4.65308,-26.7068,0,0,0,0,0,0,0,-1,972,414,4.65306,26.7068
-245,610,4.80487,-26.8913,0,0,0,0,0,0,0,-1,979,414,4.80488,26.8913
-238,610,4.14459,-26.8545,0,0,0,0,0,0,0,-1,986,414,4.14462,26.8545
-231,610,4.13953,-27.3778,0.00102889,0.0226376,-0.0109317,0.0272032,-0.00353672,-1.17517,0.019422,0.0401849,993,414,4.13952,27.3778
-224,610,4.19275,-27.9757,0.000914132,0.0189451,-0.0103454,0.0236521,-0.00379287,-1.14381,0.0171726,0.0277722,1000,414,4.19272,27.9757
-217,610,4.24652,-28.5473,0.00136667,0.0152508,-0.00988204,0.0203854,-0.00376798,-1.0916,0.0150048,0.0177141,1007,414,4.24654,28.5473
-210,610,4.2179,-29.086,0.0019509,0.0120922,-0.0094595,0.0177544,-0.00371128,-1.03143,0.0132478,0.0125179,1014,414,4.21787,29.086
-203,610,4.19751,-29.5332,0.00221364,0.00927799,-0.00845222,0.0149064,-0.00341476,-0.983319,0.0112499,0.0146453,1021,414,4.19751,29.5332
-196,610,4.16919,-29.958,0.00230615,0.00717366,-0.00754545,0.0126681,-0.00318834,-0.941404,0.00968475,0.014619,1028,414,4.16916,29.958
-189,610,4.15039,-30.3514,0.00225281,0.0053328,-0.00692106,0.0108831,-0.00329752,-0.894869,0.00856877,0.0118259,1035,414,4.1504,30.3514
-182,610,4.12476,-30.7435,0.00223468,0.00364641,-0.00607089,0.00905233,-0.00317124,-0.843274,0.0073245,0.0130474,1042,414,4.12479,30.7435
-175,610,4.10059,-31.1227,0.00206563,0.00198657,-0.00500546,0.00703171,-0.00297952,-0.78145,0.00593572,0.0143442,1049,414,4.10061,31.1227
-168,610,4.05481,-31.5241,0.00180664,0.000790109,-0.00393212,0.00526321,-0.00266646,-0.721124,0.00465931,0.0125941,1056,414,4.05478,31.5241
-161,610,4.04114,-31.9594,0.00149868,-0.000137362,-0.00291641,0.00370963,-0.0023483,-0.648667,0.00352686,0.0114041,1063,414,4.04119,31.9594
-154,610,4.02612,-32.3347,0.00117215,-0.000745649,-0.00191909,0.00235857,-0.00193207,-0.553709,0.00248127,0.0146959,1070,414,4.02609,32.3347
-147,610,4.03259,-32.683,0.000829731,-0.00110037,-0.00101354,0.00126418,-0.00153482,-0.404951,0.00161852,0.0163152,1077,414,4.03256,32.683
-140,610,4.01624,-33.035,0.000623956,-0.00143628,-0.000300788,0.000666973,-0.0014793,-0.142048,0.00126839,0.0120327,1084,414,4.01629,33.035
-133,610,3.99146,-33.3516,0.000482617,-0.00161384,0.000279452,0.000519228,-0.00165045,0.130267,0.00130819,0.0135492,1091,414,3.99145,33.3516
-126,610,3.97131,-33.6584,0.000361665,-0.00154384,0.000702435,0.000592615,-0.00177479,0.317652,0.00142249,0.0125843,1098,414,3.97127,33.6584
-119,610,3.98267,-33.9954,0.000431143,-0.00142369,0.000884318,0.000785179,-0.00177773,0.380807,0.00151623,0.0107615,1105,414,3.98271,33.9953
-112,610,4.01587,-34.3091,0.00061442,-0.00133529,0.000879031,0.000952211,-0.00167308,0.366878,0.00153464,0.0186459,1112,414,4.01586,34.3091
-105,610,3.99902,-34.5953,0.000855386,-0.00129817,0.000726911,0.00107778,-0.00152056,0.296903,0.0015074,0.0168087,1119,414,3.99898,34.5953
-98,610,3.98547,-34.8932,0.00114783,-0.00131717,0.000584969,0.0012796,-0.00144894,0.221569,0.00157634,0.0120819,1126,414,3.98548,34.8932
-91,610,3.99951,-35.1952,0.00149086,-0.00125007,0.00050875,0.00158225,-0.00134145,0.177728,0.0016899,0.0141809,1133,414,3.99956,35.1952
-84,610,4.0531,-35.4692,0.00178724,-0.001204,0.000390372,0.00183735,-0.00125411,0.127657,0.00179541,0.0147898,1140,414,4.05306,35.4692
-77,610,4.06689,-35.7428,0.002252,-0.000893842,0.000308171,0.0022819,-0.000923747,0.096736,0.00190535,0.0119244,1147,414,4.06688,35.7428
-70,610,4.07751,-36.0168,0.00351575,-0.00178332,0.000118648,0.00351841,-0.00178597,0.0223753,0.00311645,0.0142579,1154,414,4.0775,36.0168
-63,610,4.09521,-36.2589,0.00489402,-0.00293768,9.21713e-06,0.00489403,-0.00293769,0.0011769,0.00456842,0.0140836,1161,414,4.09525,36.2589
-56,610,4.11963,-36.466,0.00581698,-0.00425594,8.15465e-05,0.00581764,-0.0042566,0.00809491,0.00583959,0.0124153,1168,414,4.11962,36.466
-49,610,4.13025,-36.6696,0.00662013,-0.00594613,0.000299811,0.00662728,-0.00595328,0.0238403,0.00726686,0.0121588,1175,414,4.13026,36.6696
-42,610,4.15076,-36.8857,0.00793561,-0.00742925,0.000297083,0.00794135,-0.00743499,0.0193256,0.00887914,0.015179,1182,414,4.15077,36.8857
-35,610,4.21252,-37.0783,0.00922351,-0.00950759,-0.000291595,0.00922805,-0.00951213,-0.0155624,0.0108201,0.0164597,1189,414,4.21254,37.0784
-28,610,4.25317,-37.2377,0.00998434,-0.0111902,-0.000570731,0.00999971,-0.0112056,-0.0269276,0.0122495,0.0135918,1196,414,4.25317,37.2377
-21,610,4.29309,-37.3848,0.00700461,-0.00857498,-0.000418311,0.00701584,-0.00858621,-0.0268242,0.00902304,0.011109,1203,414,4.29304,37.3848
-14,610,4.31958,-37.5191,0.00371876,-0.00573438,-0.000112245,0.00372009,-0.00573571,-0.0118716,0.0055005,0.0127623,1210,414,4.31961,37.5191
-7,610,4.36536,-37.6286,0.000106442,-0.00319078,-2.47274e-05,0.000106627,-0.00319097,-0.0074989,0.00216373,0.0148325,1217,414,4.36531,37.6286
0,610,4.41125,-37.766,-0.00387558,0.000470264,0.000824688,0.000621498,-0.00402682,1.38943,0.00291389,0.0115753,1224,414,4.4112,37.766
7,610,4.46851,-37.9026,-0.00814438,0.00320217,0.00189631,0.00351071,-0.00845291,1.40951,0.00710094,0.012372,1231,414,4.4685,37.9027
14,610,4.57983,-37.9601,-0.0122077,0.00589688,0.00283209,0.00632956,-0.0126404,1.41919,0.0111525,0.0157366,1238,414,4.57982,37.9601
21,610,4.63257,-38.018,-0.0157461,0.00827055,0.00367031,0.00881894,-0.0162945,1.42248,0.0147118,0.0148383,1245,414,4.63252,38.018
28,610,4.61035,-38.136,-0.0191235,0.0104503,0.00481262,0.0112138,-0.019887,1.41347,0.0181873,0.0152157,1252,414,4.61035,38.136
35,610,4.72156,-38.2056,-0.0225699,0.012551,0.00629279,0.0136444,-0.0236634,1.39875,0.0217971,0.0182783,1259,414,4.7215,38.2056
42,610,4.74976,-38.1882,-0.0253801,0.013716,0.00793195,0.0152639,-0.026928,1.37806,0.0246679,0.0173842,1266,414,4.74976,38.1882
49,610,4.7771,-38.243,-0.0273228,0.0143608,0.0095523,0.0164455,-0.0294076,1.35592,0.0268236,0.0174964,1273,414,4.77706,38.243
56,610,4.85364,-38.2596,-0.0288868,0.014443,0.0110712,0.0171079,-0.0315517,1.33458,0.0285032,0.0166913,1280,414,4.85358,38.2596
63,610,4.83252,-38.1885,-0.0308225,0.0143298,0.0129798,0.0177952,-0.0342878,1.3099,0.0305685,0.0228407,1287,414,4.83247,38.1885
70,610,4.89001,-38.156,-0.0328947,0.0139947,0.0147142,0.0182296,-0.0371296,1.29056,0.0325766,0.0309527,1294,414,4.88999,38.156
77,610,5.00024,-38.1619,-0.0340009,0.0134199,0.0161876,0.0184187,-0.0389998,1.27128,0.033853,0.0357852,1301,414,5.00026,38.1619
84,610,5.13855,-38.1623,-0.0340222,0.0115972,0.0173982,0.0174751,-0.0399001,1.24499,0.0339585,0.0332336,1308,414,5.13859,38.1623
91,610,5.19592,-38.1385,-0.0335097,0.00947308,0.01823,0.0161635,-0.0402001,1.21906,0.0335134,0.0288247,1315,414,5.19589,38.1385
98,610,5.30493,-38.1057,-0.032402,0.00742461,0.0190052,0.0150383,-0.0400157,1.18976,0.0328578,0.0277414,1322,414,5.30498,38.1057
105,610,5.29773,-38.0023,-0.0302238,0.00494899,0.0193192,0.0134875,-0.0387623,1.15464,0.0313208,0.0210137,1329,414,5.29769,38.0023
112,610,5.30225,-37.8983,-0.0273121,0.00286874,0.0192746,0.0122575,-0.0367008,1.11752,0.029417,0.0130537,1336,414,5.30226,37.8983
119,610,5.31238,-37.7876,-0.0235419,0.000415586,0.0189599,0.0108638,-0.0339901,1.06713,0.0270194,0.0188355,1343,414,5.31243,37.7876
126,610,5.34888,-37.6729,-0.0191375,-0.00202656,0.0182992,0.00961839,-0.0307825,1.00407,0.0243689,0.0276034,1350,414,5.3489,37.6729
133,610,5.46033,-37.5215,-0.0140684,-0.00451353,0.0171775,0.00853846,-0.0271204,0.921032,0.0214992,0.0220506,1357,414,5.46035,37.5215
140,610,5.52844,-37.377,-0.00865386,-0.0066257,0.0156671,0.00806007,-0.0233396,0.817717,0.0188305,0.0172238,1364,414,5.5284,37.377
147,610,5.49243,-37.1845,-0.00376138,-0.0079756,0.0139847,0.00827402,-0.020011,0.710624,0.0167925,0.0178497,1371,414,5.49239,37.1845
154,610,5.50732,-36.9872,0.000316641,-0.00888029,0.0121751,0.00873279,-0.0172964,0.604833,0.0152967,0.0222988,1378,414,5.50736,36.9872
161,610,5.6051,-36.7955,0.00345144,-0.0087888,0.0104879,0.00947428,-0.0148116,0.521283,0.0141339,0.0273287,1385,414,5.60505,36.7955
168,610,5.7218,-36.6335,0.00664133,-0.0085404,0.00832324,0.0103153,-0.0122144,0.415693,0.013023,0.0291435,1392,414,5.72177,36.6335
175,610,5.74707,-36.4389,0.00966243,-0.00802922,0.00662849,0.0118704,-0.0102371,0.321538,0.0127754,0.0238488,1399,414,5.74704,36.4389
182,610,5.7467,-36.18,0.00862856,-0.00670162,0.005201,0.0102265,-0.00829957,0.298086,0.0107153,0.0158395,1406,414,5.74671,36.18
189,610,5.74646,-35.9081,0.00708965,-0.00487035,0.00381007,0.00820028,-0.00598098,0.283639,0.00822091,0.013771,1413,414,5.74647,35.9081
196,610,5.76257,-35.6748,0.00563659,-0.00308125,0.00234777,0.00622865,-0.00367331,0.247029,0.00578001,0.0142599,1420,414,5.76259,35.6748
203,610,5.77808,-35.4304,0.00403491,-0.00148548,0.00063539,0.0041071,-0.00155766,0.113128,0.00337915,0.0140166,1427,414,5.77806,35.4304
210,610,5.79907,-35.147,0.00245982,-0.000898646,-0.000852776,0.00266395,-0.00110277,-0.234949,0.00223611,0.0104595,1434,414,5.79908,35.147
217,610,5.8136,-34.8053,0.0016576,1.52005e-05,-0.000844345,0.00201423,-0.000341431,-0.399646,0.00146991,0.0175939,1441,414,5.81365,34.8053
224,610,5.83521,-34.5172,0.0013206,0.000878404,-0.000357957,0.00152024,0.000678767,-0.508744,0.000879383,0.0211543,1448,414,5.83523,34.5171
231,610,5.85254,-34.2377,0.00116893,0.00165927,0.000126433,0.00168995,0.00113825,1.33273,0.00099509,0.0161817,1455,414,5.85257,34.2377
238,610,5.84937,-33.9009,0.00116281,0.00236772,0.000508776,0.00255381,0.000976716,1.22015,0.00148796,0.0114907,1462,414,5.84934,33.9009
245,610,5.87439,-33.5588,0.00113298,0.00293577,0.000769686,0.00321967,0.000849074,1.21742,0.00192682,0.0124929,1469,414,5.87433,33.5588
252,610,5.86609,-33.1914,0.0010558,0.00340886,0.0010379,0.00380123,0.000663431,1.20936,0.00234451,0.014363,1476,414,5.86605,33.1914
259,610,5.84802,-32.8168,0.000956598,0.00385328,0.0013427,0.00437992,0.000429966,1.19701,0.0027877,0.012896,1483,414,5.84807,32.8168
266,610,5.83215,-32.4349,0.00089328,0.00417963,0.00161115,0.00483772,0.000235189,1.18302,0.00314968,0.0129068,1490,414,5.83215,32.4349
273,610,5.82471,-32.0643,0.000835737,0.0045903,0.00191243,0.00539286,3.31711e-05,1.17346,0.00358424,0.0107592,1497,414,5.82473,32.0643
280,610,5.81982,-31.6816,0.000757389,0.00502365,0.00226679,0.00600317,-0.000222127,1.16291,0.00407817,0.010422,1504,414,5.81978,31.6816
287,610,5.80261,-31.2699,0.000723795,0.00553313,0.00268501,0.00673287,-0.000475939,1.15058,0.00465534,0.0129248,1511,414,5.80264,31.2699
294,610,5.79114,-30.8705,0.000625083,0.00609899,0.00309775,0.00749568,-0.000771605,1.14722,0.00527317,0.011094,1518,414,5.79112,30.8705
301,610,5.78345,-30.496,0.000490732,0.0066736,0.00347172,0.0082308,-0.00106647,1.14916,0.00587505,0.0105608,1525,414,5.7835,30.496
308,610,5.76355,-30.0723,0.000415349,0.0073058,0.00388548,0.0090535,-0.00133235,1.14811,0.00652529,0.0124787,1532,414,5.76356,30.0723
315,610,5.72803,-29.6518,0.00033191,0.00811124,0.00434406,0.0100526,-0.00160941,1.15053,0.00729758,0.0134166,1539,414,5.72798,29.6518
322,610,5.69897,-29.1955,0.000130318,0.00873339,0.00479425,0.010873,-0.00200927,1.15104,0.00800293,0.0124417,1546,414,5.69895,29.1955
329,610,5.66992,-28.7368,-0.000148046,0.00923401,0.00514739,0.0115073,-0.00242131,1.15492,0.00859309,0.0119273,1553,414,5.66992,28.7368
336,610,5.65967,-28.2854,-0.000572334,0.00970815,0.0053943,0.0120191,-0.00288331,1.16604,0.00912695,0.0107576,1560,414,5.6597,28.2854
343,610,5.62256,-27.8051,-0.000866933,0.0101177,0.00561626,0.0124808,-0.00323006,1.17252,0.00958047,0.0187673,1567,414,5.62255,27.8051
350,610,5.54175,-27.369,-0.000986611,0.0112401,0.00605393,0.0137304,-0.00347693,1.18054,0.0105061,0.0413483,1574,414,5.54173,27.369
357,610,5.65601,-26.6341,0,0,0,0,0,0,0,-1,1581,414,5.65606,26.6341
364,610,5.89783,-26.2026,0,0,0,0,0,0,0,-1,1588,414,5.89781,26.2026
371,610,3.54138,-13.3788,0,0,0,0,0,0,0,-1,1595,414,3.54137,13.3788
378,610,3.5752,-12.1958,0,0,0,0,0,0,0,-1,1602,414,3.57517,12.1958
385,610,2.57104,-10.3878,0,0,0,0,0,0,0,-1,1609,414,2.57109,10.3878
392,610,1.99744,-1.83582,0,0,0,0,0,0,0,-1,1616,414,1.99741,1.8358
399,610,2.77136,-2.60333,0,0,0,0,0,0,0,-1,1623,414,2.77133,2.60332
406,610,3.54529,-3.37085,0,0,0,0,0,0,0,-1,1630,414,3.54525,3.37084
413,610,3.01929,-3.20306,0,0,0,0,0,0,0,-1,1637,414,3.01929,3.20306
420,610,4.78149,-3.64041,0,0,0,0,0,0,0,-1,1644,414,4.78152,3.64042
427,610,1.70154,-19.6262,0,0,0,0,0,0,0,-1,1651,414,1.70159,19.6262
434,610,4.02295,-19.389,0,0,0,0,0,0,0,-1,1658,414,4.0229,19.389
441,610,0,0,0,0,0,0,0,0,0,-1,1665,414,0,0
448,610,0,0,0,0,0,0,0,0,0,-1,1672,414,0,0
455,610,0,0,0,0,0,0,0,0,0,-1,1679,414,0,0
462,610,0,0,0,0,0,0,0,0,0,-1,1686,414,0,0
469,610,0,0,0,0,0,0,0,0,0,-1,1693,414,0,0
476,610,0,0,0,0,0,0,0,0,0,-1,1700,414,0,0
483,610,0,0,0,0,0,0,0,0,0,-1,1707,414,0,0
490,610,0,0,0,0,0,0,0,0,0,-1,1714,414,0,0
497,610,0,0,0,0,0,0,0,0,0,-1,1721,414,0,0
504,610,0,0,0,0,0,0,0,0,0,-1,1728,414,0,0
511,610,0,0,0,0,0,0,0,0,0,-1,1735,414,0,0
518,610,0,0,0,0,0,0,0,0,0,-1,1742,414,0,0
525,610,0,0,0,0,0,0,0,0,0,-1,1749,414,0,0
532,610,0,0,0,0,0,0,0,0,0,-1,1756,414,0,0
539,610,0,0,0,0,0,0,0,0,0,-1,1763,414,0,0
546,610,0,0,0,0,0,0,0,0,0,-1,1770,414,0,0
553,610,0,0,0,0,0,0,0,0,0,-1,1777,414,0,0
560,610,0,0,0,0,0,0,0,0,0,-1,1784,414,0,0
567,610,0,0,0,0,0,0,0,0,0,-1,1791,414,0,0
574,610,0,0,0,0,0,0,0,0,0,-1,1798,414,0,0
581,610,0,0,0,0,0,0,0,0,0,-1,1805,414,0,0
588,610,0,0,0,0,0,0,0,0,0,-1,1812,414,0,0
595,610,0,0,0,0,0,0,0,0,0,-1,1819,414,0,0
602,610,0,0,0,0,0,0,0,0,0,-1,1826,414,0,0
609,610,0,0,0,0,0,0,0,0,0,-1,1833,414,0,0
616,610,0,0,0,0,0,0,0,0,0,-1,1840,414,0,0
623,610,0,0,0,0,0,0,0,0,0,-1,1847,414,0,0
630,610,0,0,0,0,0,0,0,0,0,-1,1854,414,0,0
637,610,0,0,0,0,0,0,0,0,0,-1,1861,414,0,0
644,610,0,0,0,0,0,0,0,0,0,-1,1868,414,0,0
651,610,0,0,0,0,0,0,0,0,0,-1,1875,414,0,0
658,610,0,0,0,0,0,0,0,0,0,-1,1882,414,0,0
665,610,0,0,0,0,0,0,0,0,0,-1,1889,414,0,0
672,610,0,0,0,0,0,0,0,0,0,-1,1896,414,0,0
679,610,0,0,0,0,0,0,0,0,0,-1,1903,414,0,0
686,610,0,0,0,0,0,0,0,0,0,-1,1910,414,0,0
693,610,0,0,0,0,0,0,0,0,0,-1,1917,414,0,0
700,610,0,0,0,0,0,0,0,0,0,-1,1924,414,0,0
707,610,0,0,0,0,0,0,0,0,0,-1,1931,414,0,0
714,610,0,0,0,0,0,0,0,0,0,-1,1938,414,0,0
721,610,0,0,0,0,0,0,0,0,0,-1,1945,414,0,0
728,610,0,0,0,0,0,0,0,0,0,-1,1952,414,0,0
735,610,0,0,0,0,0,0,0,0,0,-1,1959,414,0,0
742,610,0,0,0,0,0,0,0,0,0,-1,1966,414,0,0
749,610,0,0,0,0,0,0,0,0,0,-1,1973,414,0,0
756,610,0,0,0,0,0,0,0,0,0,-1,1980,414,0,0
763,610,0,0,0,0,0,0,0,0,0,-1,1987,414,0,0
770,610,0,0,0,0,0,0,0,0,0,-1,1994,414,0,0
777,610,0,0,0,0,0,0,0,0,0,-1,2001,414,0,0
784,610,0,0,0,0,0,0,0,0,0,-1,2008,414,0,0
791,610,0,0,0,0,0,0,0,0,0,-1,2015,414,0,0
798,610,0,0,0,0,0,0,0,0,0,-1,2022,414,0,0
805,610,0,0,0,0,0,0,0,0,0,-1,2029,414,0,0
812,610,0,0,0,0,0,0,0,0,0,-1,2036,414,0,0
-700,603,0,0,0,0,0,0,0,0,0,-1,524,421,0,0
-693,603,0,0,0,0,0,0,0,0,0,-1,531,421,0,0
-686,603,0,0,0,0,0,0,0,0,0,-1,538,421,0,0
-679,603,0,0,0,0,0,0,0,0,0,-1,545,421,0,0
-672,603,0,0,0,0,0,0,0,0,0,-1,552,421,0,0
-665,603,0,0,0,0,0,0,0,0,0,-1,559,421,0,0
-658,603,0,0,0,0,0,0,0,0,0,-1,566,421,0,0
-651,603,0,0,0,0,0,0,0,0,0,-1,573,421,0,0
-644,603,0,0,0,0,0,0,0,0,0,-1,580,421,0,0
-637,603,0,0,0,0,0,0,0,0,0,-1,587,421,0,0
-630,603,0,0,0,0,0,0,0,0,0,-1,594,421,0,0
-623,603,0,0,0,0,0,0,0,0,0,-1,601,421,0,0
-616,603,0,0,0,0,0,0,0,0,0,-1,608,421,0,0
-609,603,0,0,0,0,0,0,0,0,0,-1,615,421,0,0
-602,603,0,0,0,0,0,0,0,0,0,-1,622,421,0,0
-595,603,0,0,0,0,0,0,0,0,0,-1,629,421,0,0
-588,603,0,0,0,0,0,0,0,0,0,-1,636,421,0,0
-581,603,0,0,0,0,0,0,0,0,0,-1,643,421,0,0
-574,603,0,0,0,0,0,0,0,0,0,-1,650,421,0,0
-567,603,0,0,0,0,0,0,0,0,0,-1,657,421,0,0
-560,603,0,0,0,0,0,0,0,0,0,-1,664,421,0,0
-553,603,0,0,0,0,0,0,0,0,0,-1,671,421,0,0
-546,603,0,0,0,0,0,0,0,0,0,-1,678,421,0,0
-539,603,0,0,0,0,0,0,0,0,0,-1,685,421,0,0
-532,603,0,0,0,0,0,0,0,0,0,-1,692,421,0,0
-525,603,0,0,0,0,0,0,0,0,0,-1,699,421,0,0
-518,603,0,0,0,0,0,0,0,0,0,-1,706,421,0,0
-511,603,0,0,0,0,0,0,0,0,0,-1,713,421,0,0
-504,603,0,0,0,0,0,0,0,0,0,-1,720,421,0,0
-497,603,0,0,0,0,0,0,0,0,0,-1,727,421,0,0
-490,603,0,0,0,0,0,0,0,0,0,-1,734,421,0,0
-483,603,0,0,0,0,0,0,0,0,0,-1,741,421,0,0
-476,603,0,0,0,0,0,0,0,0,0,-1,748,421,0,0
-469,603,0,0,0,0,0,0,0,0,0,-1,755,421,0,0
-462,603,0,0,0,0,0,0,0,0,0,-1,762,421,0,0
-455,603,0,0,0,0,0,0,0,0,0,-1,769,421,0,0
-448,603,0,0,0,0,0,0,0,0,0,-1,776,421,0,0
-441,603,0,0,0,0,0,0,0,0,0,-1,783,421,0,0
-434,603,0,0,0,0,0,0,0,0,0,-1,790,421,0,0
-427,603,0,0,0,0,0,0,0,0,0,-1,797,421,0,0
-420,603,0,0,0,0,0,0,0,0,0,-1,804,421,0,0
-413,603,0,0,0,0,0,0,0,0,0,-1,811,421,0,0
-406,603,0,0,0,0,0,0,0,0,0,-1,818,421,0,0
-399,603,0,0,0,0,0,0,0,0,0,-1,825,421,0,0
-392,603,0,0,0,0,0,0,0,0,0,-1,832,421,0,0
-385,603,0,0,0,0,0,0,0,0,0,-1,839,421,0,0
-378,603,0,0,0,0,0,0,0,0,0,-1,846,421,0,0
-371,603,0,0,0,0,0,0,0,0,0,-1,853,421,0,0
-364,603,0,0,0,0,0,0,0,0,0,-1,860,421,0,0
-357,603,0,0,0,0,0,0,0,0,0,-1,867,421,0,0
-350,603,0,0,0,0,0,0,0,0,0,-1,874,421,0,0
-343,603,0,0,0,0,0,0,0,0,0,-1,881,421,0,0
-336,603,0,0,0,0,0,0,0,0,0,-1,888,421,0,0
-329,603,4.09686,-17.9702,0,0,0,0,0,0,0,-1,895,421,4.09687,17.9702
-322,603,5.98431,-20.9071,0,0,0,0,0,0,0,-1,902,421,5.98431,20.9071
-315,603,5.99744,-20.4501,0,0,0,0,0,0,0,-1,909,421,5.99745,20.4501
-308,603,5.92249,-20.778,0,0,0,0,0,0,0,-1,916,421,5.92248,20.778
-301,603,2.87506,-22.5246,0,0,0,0,0,0,0,-1,923,421,2.87504,22.5246
-294,603,3.17743,-23.8659,0,0,0,0,0,0,0,-1,930,421,3.17742,23.8659
-287,603,3.67932,-24.1376,0,0,0,0,0,0,0,-1,937,421,3.67935,24.1376
-280,603,3.81903,-24.4882,0,0,0,0,0,0,0,-1,944,421,3.81903,24.4882
-273,603,3.47705,-25.1632,0,0,0,0,0,0,0,-1,951,421,3.47702,25.1632
-266,603,3.85614,-24.6133,0,0,0,0,0,0,0,-1,958,421,3.85616,24.6133
-259,603,3.68701,-25.1721,0,0,0,0,0,0,0,-1,965,421,3.68704,25.1722
-252,603,4.04852,-26.3562,0,0,0,0,0,0,0,-1,972,421,4.04853,26.3562
-245,603,4.05249,-26.7245,0.00359297,0.0209648,-0.0117621,0.0269006,-0.00234277,-1.10344,0.0187635,0.0327063,979,421,4.05249,26.7244
-238,603,3.94257,-27.2019,0.00194159,0.0199712,-0.0100283,0.0244409,-0.00252815,-1.15151,0.0171987,0.0217916,986,421,3.94256,27.2019
-231,603,3.88416,-27.7236,0.000609262,0.0182325,-0.00835688,0.0215651,-0.00272334,-1.19134,0.0153652,0.0139384,993,421,3.88415,27.7236
-224,603,3.84369,-28.2031,0.00014798,0.0162604,-0.00747623,0.019195,-0.00278655,-1.19676,0.0138195,0.0139048,1000,421,3.84367,28.2031
-217,603,3.81549,-28.633,0.000189371,0.0139981,-0.00680501,0.016788,-0.00260052,-1.18172,0.0121519,0.0129286,1007,421,3.81551,28.633
-210,603,3.80634,-29.078,0.000489194,0.0116241,-0.00628328,0.0144517,-0.00233835,-1.14793,0.0105011,0.010492,1014,421,3.80636,29.078
-203,603,3.79614,-29.5501,0.000612319,0.00930729,-0.00535232,0.0118553,-0.0019357,-1.12648,0.00862151,0.0161435,1021,421,3.79609,29.5501
-196,603,3.81824,-30.0002,0.00068427,0.00743999,-0.00452591,0.00970959,-0.00158533,-1.10598,0.00706108,0.0192043,1028,421,3.81826,30.0002
-189,603,3.79431,-30.3634,0.000701526,0.00567634,-0.00391753,0.00782944,-0.00145157,-1.06826,0.00576472,0.0171837,1035,421,3.79426,30.3634
-182,603,3.74683,-30.7661,0.000773787,0.00390301,-0.00312933,0.00583708,-0.00116028,-1.01722,0.00433027,0.012485,1042,421,3.74687,30.7661
-175,603,3.72522,-31.1504,0.000742605,0.00206218,-0.00220195,0.00370107,-0.000896285,-0.93096,0.00281413,0.0119707,1049,421,3.72526,31.1504
-168,603,3.70032,-31.5054,0.000658228,0.00052135,-0.0013386,0.00193014,-0.000750561,-0.759857,0.00159687,0.0148163,1056,421,3.70036,31.5054
-161,603,3.67236,-31.9118,0.000557194,-0.000822685,-0.000516735,0.000729247,-0.000994738,-0.321417,0.00099927,0.014629,1063,421,3.67231,31.9118
-154,603,3.66919,-32.318,0.000466631,-0.00190116,0.000275434,0.000498249,-0.00193278,0.114292,0.00148277,0.0134096,1070,421,3.66914,32.318
-147,603,3.69141,-32.6837,0.00037263,-0.00278179,0.000977758,0.000651114,-0.00306027,0.277472,0.00228831,0.0134319,1077,421,3.69144,32.6837
-140,603,3.71057,-33.0107,0.000373807,-0.00355432,0.00150521,0.000884256,-0.00406477,0.32695,0.00304766,0.0115256,1084,421,3.71056,33.0108
-133,603,3.67139,-33.325,0.000424186,-0.00414239,0.00192747,0.00112897,-0.00484717,0.350548,0.00366617,0.0124912,1091,421,3.67136,33.325
-126,603,3.65796,-33.6394,0.000536826,-0.00447679,0.00218684,0.00135663,-0.00529659,0.358666,0.00405955,0.011286,1098,421,3.65802,33.6394
-119,603,3.69788,-33.9761,0.000799697,-0.00466283,0.00225243,0.00160867,-0.00547179,0.344806,0.00428593,0.0110908,1105,421,3.69792,33.9761
-112,603,3.70581,-34.3066,0.00114425,-0.00475891,0.00215524,0.00184738,-0.00546203,0.315354,0.00438873,0.0163161,1112,421,3.70584,34.3066
-105,603,3.6958,-34.6127,0.00158002,-0.00479042,0.00186772,0.00208722,-0.00529762,0.265169,0.00439589,0.0156394,1119,421,3.69586,34.6127
-98,603,3.70105,-34.8926,0.00202797,-0.00464085,0.00168772,0.00243077,-0.00504364,0.234278,0.00440237,0.0128029,1126,421,3.70107,34.8926
-91,603,3.72473,-35.1793,0.00249676,-0.00430936,0.00162103,0.00286312,-0.00467572,0.222272,0.00439429,0.0103617,1133,421,3.72468,35.1793
-84,603,3.77246,-35.4706,0.00280345,-0.00393932,0.00134469,0.00306172,-0.0041976,0.189759,0.00420824,0.0111235,1140,421,3.77241,35.4706
-77,603,3.81677,-35.7874,0.0034033,-0.00309734,0.00108459,0.00357948,-0.00327352,0.161034,0.0039579,0.0173601,1147,421,3.81674,35.7874
-70,603,3.76648,-36.0318,0,0,0,0,0,0,0,-1,1154,421,3.76643,36.0318
-63,603,3.81287,-36.2414,0,0,0,0,0,0,0,-1,1161,421,3.81281,36.2414
-56,603,3.90125,-36.4534,0,0,0,0,0,0,0,-1,1168,421,3.90126,36.4534
-49,603,3.9231,-36.644,0,0,0,0,0,0,0,-1,1175,421,3.92309,36.6439
-42,603,3.93726,-36.8252,0,0,0,0,0,0,0,-1,1182,421,3.93722,36.8252
-35,603,3.95862,-36.9715,0.0133669,-0.0133227,-0.00125033,0.0134254,-0.0133812,-0.0467107,0.0154768,0.0416038,1189,421,3.95858,36.9715
-28,603,3.9696,-37.1169,0.0144,-0.0152739,-0.00181177,0.0145102,-0.0153841,-0.0607552,0.017262,0.027878,1196,421,3.96962,37.1169
-21,603,4.05334,-37.2771,0.00794984,-0.00864119,-0.000754493,0.00798408,-0.00867543,-0.0453512,0.00962113,0.0234242,1203,421,4.05336,37.2771
-14,603,4.18518,-37.413,0.0020473,-0.00280027,0.000498177,0.00209797,-0.00285093,0.101357,0.00286825,0.0217522,1210,421,4.18523,37.413
-7,603,4.20544,-37.54,-0.00356358,0.00270347,0.0015004,0.00304416,-0.00390427,1.34752,0.00402191,0.0249055,1217,421,4.20541,37.54
0,603,4.20886,-37.7181,-0.00902634,0.00775184,0.0028768,0.00823139,-0.0095059,1.40562,0.0102494,0.0297114,1224,421,4.2089,37.7181
7,603,4.29688,-37.6476,-0.0147898,0.0115721,0.00430231,0.0122565,-0.0154742,1.41305,0.0160462,0.0387322,1231,421,4.29682,37.6476
14,603,4.59021,-37.5123,-0.0200229,0.0151594,0.00550669,0.0160011,-0.0208647,1.41911,0.0213461,0.0374222,1238,421,4.59024,37.5123
21,603,4.61011,-37.6262,-0.0244074,0.0180615,0.00653226,0.0190435,-0.0253895,1.42158,0.0257405,0.0289523,1245,421,4.6101,37.6262
28,603,4.62964,-37.7179,-0.028676,0.0206917,0.00792268,0.021932,-0.0299163,1.41551,0.0300527,0.0338991,1252,421,4.62967,37.7179
35,603,4.58691,-37.7992,0,0,0,0,0,0,0,-1,1259,421,4.58694,37.7991
42,603,4.65173,-37.9212,-0.0363023,0.0239057,0.0114675,0.0260159,-0.0384125,1.38882,0.0374265,0.0421921,1266,421,4.65175,37.9212
49,603,4.77466,-38.1221,-0.0386497,0.0241219,0.0132897,0.0268196,-0.0413474,1.37053,0.0396531,0.0222176,1273,421,4.77462,38.1221
56,603,4.755,-38.0145,-0.0405599,0.0236726,0.0150724,0.0270335,-0.0439209,1.3514,0.0413505,0.0431125,1280,421,4.75502,38.0145
63,603,4.74451,-37.9589,0,0,0,0,0,0,0,-1,1287,421,4.74451,37.9589
70,603,4.83923,-37.9416,0,0,0,0,0,0,0,-1,1294,421,4.83922,37.9416
77,603,5.0437,-38.0334,0,0,0,0,0,0,0,-1,1301,421,5.04368,38.0333
84,603,5.24744,-38.0712,0,0,0,0,0,0,0,-1,1308,421,5.24746,38.0712
91,603,5.32056,-38.0495,0,0,0,0,0,0,0,-1,1315,421,5.32058,38.0495
98,603,5.53015,-38.143,0,0,0,0,0,0,0,-1,1322,421,5.53014,38.143
105,603,5.76331,-37.8478,-0.0399726,0.00702857,0.0255135,0.0182154,-0.0511594,1.15758,0.0415316,0.0484147,1329,421,5.76327,37.8478
112,603,5.57007,-37.5936,-0.0351121,0.00379541,0.0259095,0.0167415,-0.0480583,1.10742,0.0388412,0.0398601,1336,421,5.57008,37.5936
119,603,5.65198,-37.5318,-0.0294576,0.000159149,0.0259015,0.0151866,-0.0444851,1.04508,0.0358089,0.0425591,1343,421,5.65201,37.5318
126,603,5.67981,-37.3455,0,0,0,0,0,0,0,-1,1350,421,5.67986,37.3455
133,603,5.68811,-37.1527,-0.0155068,-0.00670967,0.0246501,0.0139312,-0.0361477,0.873689,0.0298464,0.0425259,1357,421,5.68812,37.1527
140,603,5.83887,-37.0367,-0.00771119,-0.00938029,0.0234811,0.0149501,-0.0320416,0.767635,0.0277224,0.0299773,1364,421,5.83893,37.0367
147,603,5.70728,-36.9561,-0.000745,-0.0109336,0.022223,0.0169601,-0.0286387,0.672727,0.0266127,0.0237587,1371,421,5.70723,36.9561
154,603,5.65771,-36.8915,0.00511081,-0.0118766,0.0208582,0.0191383,-0.0259041,0.592044,0.0261029,0.0314086,1378,421,5.65774,36.8915
161,603,5.82581,-36.7244,0.00962416,-0.0116406,0.0195222,0.0212216,-0.0232381,0.536043,0.0256776,0.0338037,1385,421,5.82575,36.7244
168,603,5.96191,-36.5286,0.0140934,-0.0113022,0.0176051,0.0231022,-0.0203109,0.472973,0.0250818,0.0353156,1392,421,5.96187,36.5286
175,603,6.14868,-36.3491,0.0182866,-0.0107258,0.0159458,0.0253373,-0.0177764,0.416318,0.025019,0.0382994,1399,421,6.14866,36.3491
182,603,6.18726,-36.1161,0.017636,-0.00933819,0.0140426,0.0236193,-0.0153215,0.402786,0.0226519,0.0434175,1406,421,6.18724,36.1161
189,603,6.11194,-35.8319,0.0159398,-0.00696751,0.0119175,0.0210153,-0.012043,0.40262,0.0193191,0.0380249,1413,421,6.11189,35.8319
196,603,6.04053,-35.5525,0.0139326,-0.00463359,0.00924828,0.0177532,-0.00845418,0.39176,0.0154451,0.0289109,1420,421,6.04052,35.5524
203,603,6.06519,-35.351,0.0105366,-0.00266937,0.00538802,0.0124559,-0.00458873,0.342211,0.0101841,0.0168703,1427,421,6.06518,35.351
210,603,6.08838,-35.1759,0.00573246,-0.0027452,0.000348066,0.00574673,-0.00275947,0.040965,0.00501098,0.0126073,1434,421,6.08832,35.1759
217,603,6.08679,-34.8329,0.00242816,-0.00159714,-0.00167686,0.00303518,-0.00220415,-0.347319,0.00303758,0.013647,1441,421,6.08674,34.8329
224,603,6.14539,-34.5069,0.00193987,-0.000528335,-0.00107787,0.00234431,-0.000932772,-0.358962,0.00194965,0.0173473,1448,421,6.14537,34.5069
231,603,6.16492,-34.2035,0.00168219,0.000430237,-0.000486994,0.00184931,0.000263112,-0.330584,0.0011552,0.014434,1455,421,6.16489,34.2035
238,603,6.16772,-33.8732,0.0016722,0.00120752,-5.2182e-05,0.00167799,0.00120173,-0.110464,0.000998514,0.0104257,1462,421,6.16774,33.8732
245,603,6.18445,-33.5379,0.00167319,0.00183597,0.000222059,0.00199109,0.00151808,0.961061,0.00120118,0.0115039,1469,421,6.1844,33.5379
252,603,6.19983,-33.1805,0.00157692,0.00218988,0.000483733,0.00245605,0.00131075,1.06777,0.00141907,0.0108259,1476,421,6.1998,33.1805
259,603,6.19641,-32.8261,0.00142104,0.00244604,0.000730189,0.00282563,0.00104145,1.09139,0.00165006,0.011105,1483,421,6.19643,32.8261
266,603,6.19446,-32.4521,0.00133193,0.00262906,0.000947041,0.00312833,0.00083266,1.08564,0.00187082,0.0122798,1490,421,6.19448,32.4521
273,603,6.20703,-32.0755,0.00124474,0.00289965,0.00118108,0.00351429,0.000630107,1.09096,0.00216363,0.0109494,1497,421,6.20702,32.0755
280,603,6.21582,-31.6791,0.0011289,0.00315079,0.00145472,0.00391135,0.000368344,1.08906,0.00249387,0.0121783,1504,421,6.21578,31.6791
287,603,6.2113,-31.2714,0.00105542,0.00349331,0.00177685,0.00442913,0.000119599,1.08604,0.00291371,0.0116512,1511,421,6.21134,31.2714
294,603,6.17871,-30.8861,0.000932297,0.00393299,0.00210132,0.00501462,-0.000149331,1.09543,0.00339395,0.0103032,1518,421,6.17872,30.8861
301,603,6.16919,-30.4943,0.000774496,0.00440689,0.00240653,0.00560564,-0.000424263,1.10865,0.00388624,0.0123145,1525,421,6.1692,30.4943
308,603,6.15503,-30.0694,0.00067653,0.00493175,0.00275323,0.00628365,-0.000675374,1.11436,0.00443141,0.0176085,1532,421,6.15505,30.0694
315,603,6.12036,-29.6475,0.000553964,0.00564353,0.00313946,0.00714004,-0.000942553,1.12598,0.00510331,0.015423,1539,421,6.12035,29.6475
322,603,6.11523,-29.1981,0.000323406,0.00625413,0.00352349,0.00789401,-0.00131648,1.1352,0.00575194,0.0146664,1546,421,6.11527,29.1981
329,603,6.08289,-28.7452,3.18855e-05,0.00675821,0.00385264,0.00850912,-0.00171902,1.14423,0.00632411,0.0112366,1553,421,6.08287,28.7452
336,603,6.05969,-28.3232,-0.000359179,0.00721835,0.00410967,0.00901923,-0.00216006,1.15779,0.00684736,0.00945996,1560,421,6.05963,28.3232
343,603,6.04529,-27.8641,-0.000664026,0.00768232,0.00437112,0.0095525,-0.0025342,1.16652,0.00735996,0.0117009,1567,421,6.0453,27.8641
350,603,6.01477,-27.3831,-0.000848775,0.00865529,0.0047966,0.0106552,-0.00284872,1.17576,0.0082193,0.0208106,1574,421,6.01476,27.383
357,603,6.01868,-26.8246,-0.00119467,0.00907581,0.0052144,0.0112591,-0.00337794,1.17427,0.00884961,0.0297822,1581,421,6.01865,26.8246
364,603,6.02319,-26.29,-0.00172247,0.00938887,0.00544603,0.011613,-0.00394657,1.18308,0.00933971,0.0456815,1588,421,6.02314,26.29
371,603,5.95239,-25.7284,0,0,0,0,0,0,0,-1,1595,421,5.95241,25.7284
378,603,5.81226,-25.5085,0,0,0,0,0,0,0,-1,1602,421,5.8123,25.5085
385,603,5.62976,-24.9155,0,0,0,0,0,0,0,-1,1609,421,5.62971,24.9155
392,603,4.90527,-19.605,0,0,0,0,0,0,0,-1,1616,421,4.90526,19.605
399,603,2.94299,0.638214,0,0,0,0,0,0,0,-1,1623,421,2.94293,-0.638215
406,603,3.01917,-2.37219,0,0,0,0,0,0,0,-1,1630,421,3.01915,2.37219
413,603,2.38928,-2.41275,0,0,0,0,0,0,0,-1,1637,421,2.38926,2.41274
420,603,-0.228882,-19.7886,0,0,0,0,0,0,0,-1,1644,421,-0.228908,19.7886
427,603,2.09583,-19.588,0,0,0,0,0,0,0,-1,1651,421,2.09584,19.588
434,603,4.43604,-19.4135,0,0,0,0,0,0,0,-1,1658,421,4.436,19.4135
441,603,6.76819,-19.3591,0,0,0,0,0,0,0,-1,1665,421,6.76819,19.3591
448,603,1.14355,-4.59842,0,0,0,0,0,0,0,-1,1672,421,1.14355,4.59841
455,603,0,0,0,0,0,0,0,0,0,-1,1679,421,0,0
462,603,0,0,0,0,0,0,0,0,0,-1,1686,421,0,0
469,603,0,0,0,0,0,0,0,0,0,-1,1693,421,0,0
476,603,0,0,0,0,0,0,0,0,0,-1,1700,421,0,0
483,603,0,0,0,0,0,0,0,0,0,-1,1707,421,0,0
490,603,0,0,0,0,0,0,0,0,0,-1,1714,421,0,0
497,603,0,0,0,0,0,0,0,0,0,-1,1721,421,0,0
504,603,0,0,0,0,0,0,0,0,0,-1,1728,421,0,0
511,603,0,0,0,0,0,0,0,0,0,-1,1735,421,0,0
518,603,0,0,0,0,0,0,0,0,0,-1,1742,421,0,0
525,603,0,0,0,0,0,0,0,0,0,-1,1749,421,0,0
532,603,0,0,0,0,0,0,0,0,0,-1,1756,421,0,0
539,603,0,0,0,0,0,0,0,0,0,-1,1763,421,0,0
546,603,0,0,0,0,0,0,0,0,0,-1,1770,421,0,0
553,603,0,0,0,0,0,0,0,0,0,-1,1777,421,0,0
560,603,0,0,0,0,0,0,0,0,0,-1,1784,421,0,0
567,603,0,0,0,0,0,0,0,0,0,-1,1791,421,0,0
574,603,0,0,0,0,0,0,0,0,0,-1,1798,421,0,0
581,603,0,0,0,0,0,0,0,0,0,-1,1805,421,0,0
588,603,0,0,0,0,0,0,0,0,0,-1,1812,421,0,0
595,603,0,0,0,0,0,0,0,0,0,-1,1819,421,0,0
602,603,0,0,0,0,0,0,0,0,0,-1,1826,421,0,0
609,603,0,0,0,0,0,0,0,0,0,-1,1833,421,0,0
616,603,0,0,0,0,0,0,0,0,0,-1,1840,421,0,0
623,603,0,0,0,0,0,0,0,0,0,-1,1847,421,0,0
630,603,0,0,0,0,0,0,0,0,0,-1,1854,421,0,0
637,603,0,0,0,0,0,0,0,0,0,-1,1861,421,0,0
644,603,0,0,0,0,0,0,0,0,0,-1,1868,421,0,0
651,603,0,0,0,0,0,0,0,0,0,-1,1875,421,0,0
658,603,0,0,0,0,0,0,0,0,0,-1,1882,421,0,0
665,603,0,0,0,0,0,0,0,0,0,-1,1889,421,0,0
672,603,0,0,0,0,0,0,0,0,0,-1,1896,421,0,0
679,603,0,0,0,0,0,0,0,0,0,-1,1903,421,0,0
686,603,0,0,0,0,0,0,0,0,0,-1,1910,421,0,0
693,603,0,0,0,0,0,0,0,0,0,-1,1917,421,0,0
700,603,0,0,0,0,0,0,0,0,0,-1,1924,421,0,0
707,603,0,0,0,0,0,0,0,0,0,-1,1931,421,0,0
714,603,0,0,0,0,0,0,0,0,0,-1,1938,421,0,0
721,603,0,0,0,0,0,0,0,0,0,-1,1945,421,0,0
728,603,0,0,0,0,0,0,0,0,0,-1,1952,421,0,0
735,603,0,0,0,0,0,0,0,0,0,-1,1959,421,0,0
742,603,0,0,0,0,0,0,0,0,0,-1,1966,421,0,0
749,603,0,0,0,0,0,0,0,0,0,-1,1973,421,0,0
756,603,0,0,0,0,0,0,0,0,0,-1,1980,421,0,0
763,603,0,0,0,0,0,0,0,0,0,-1,1987,421,0,0
770,603,0,0,0,0,0,0,0,0,0,-1,1994,421,0,0
777,603,0,0,0,0,0,0,0,0,0,-1,2001,421,0,0
784,603,0,0,0,0,0,0,0,0,0,-1,2008,421,0,0
791,603,0,0,0,0,0,0,0,0,0,-1,2015,421,0,0
798,603,0,0,0,0,0,0,0,0,0,-1,2022,421,0,0
805,603,0,0,0,0,0,0,0,0,0,-1,2029,421,0,0
812,603,0,0,0,0,0,0,0,0,0,-1,2036,421,0,0
-700,596,0,0,0,0,0,0,0,0,0,-1,524,428,0,0
-693,596,0,0,0,0,0,0,0,0,0,-1,531,428,0,0
-686,596,0,0,0,0,0,0,0,0,0,-1,538,428,0,0
-679,596,0,0,0,0,0,0,0,0,0,-1,545,428,0,0
-672,596,0,0,0,0,0,0,0,0,0,-1,552,428,0,0
-665,596,0,0,0,0,0,0,0,0,0,-1,559,428,0,0
-658,596,0,0,0,0,0,0,0,0,0,-1,566,428,0,0
-651,596,0,0,0,0,0,0,0,0,0,-1,573,428,0,0
-644,596,0,0,0,0,0,0,0,0,0,-1,580,428,0,0
-637,596,0,0,0,0,0,0,0,0,0,-1,587,428,0,0
-630,596,0,0,0,0,0,0,0,0,0,-1,594,428,0,0
-623,596,0,0,0,0,0,0,0,0,0,-1,601,428,0,0
-616,596,0,0,0,0,0,0,0,0,0,-1,608,428,0,0
-609,596,0,0,0,0,0,0,0,0,0,-1,615,428,0,0
-602,596,0,0,0,0,0,0,0,0,0,-1,622,428,0,0
-595,596,0,0,0,0,0,0,0,0,0,-1,629,428,0,0
-588,596,0,0,0,0,0,0,0,0,0,-1,636,428,0,0
-581,596,0,0,0,0,0,0,0,0,0,-1,643,428,0,0
-574,596,0,0,0,0,0,0,0,0,0,-1,650,428,0,0
-567,596,0,0,0,0,0,0,0,0,0,-1,657,428,0,0
-560,596,0,0,0,0,0,0,0,0,0,-1,664,428,0,0
-553,596,0,0,0,0,0,0,0,0,0,-1,671,428,0,0
-546,596,0,0,0,0,0,0,0,0,0,-1,678,428,0,0
-539,596,0,0,0,0,0,0,0,0,0,-1,685,428,0,0
-532,596,0,0,0,0,0,0,0,0,0,-1,692,428,0,0
-525,596,0,0,0,0,0,0,0,0,0,-1,699,428,0,0
-518,596,0,0,0,0,0,0,0,0,0,-1,706,428,0,0
-511,596,0,0,0,0,0,0,0,0,0,-1,713,428,0,0
-504,596,0,0,0,0,0,0,0,0,0,-1,720,428,0,0
-497,596,0,0,0,0,0,0,0,0,0,-1,727,428,0,0
-490,596,0,0,0,0,0,0,0,0,0,-1,734,428,0,0
-483,596,0,0,0,0,0,0,0,0,0,-1,741,428,0,0
-476,596,0,0,0,0,0,0,0,0,0,-1,748,428,0,0
-469,596,0,0,0,0,0,0,0,0,0,-1,755,428,0,0
-462,596,0,0,0,0,0,0,0,0,0,-1,762,428,0,0
-455,596,0,0,0,0,0,0,0,0,0,-1,769,428,0,0
-448,596,0,0,0,0,0,0,0,0,0,-1,776,428,0,0
-441,596,0,0,0,0,0,0,0,0,0,-1,783,428,0,0
-434,596,0,0,0,0,0,0,0,0,0,-1,790,428,0,0
-427,596,0,0,0,0,0,0,0,0,0,-1,797,428,0,0
-420,596,0,0,0,0,0,0,0,0,0,-1,804,428,0,0
-413,596,0,0,0,0,0,0,0,0,0,-1,811,428,0,0
-406,596,0,0,0,0,0,0,0,0,0,-1,818,428,0,0
-399,596,0,0,0,0,0,0,0,0,0,-1,825,428,0,0
-392,596,0,0,0,0,0,0,0,0,0,-1,832,428,0,0
-385,596,0,0,0,0,0,0,0,0,0,-1,839,428,0,0
-378,596,0,0,0,0,0,0,0,0,0,-1,846,428,0,0
-371,596,0,0,0,0,0,0,0,0,0,-1,853,428,0,0
-364,596,0,0,0,0,0,0,0,0,0,-1,860,428,0,0
-357,596,0,0,0,0,0,0,0,0,0,-1,867,428,0,0
-350,596,0,0,0,0,0,0,0,0,0,-1,874,428,0,0
-343,596,0,0,0,0,0,0,0,0,0,-1,881,428,0,0
-336,596,-0.98291,-20.0836,0,0,0,0,0,0,0,-1,888,428,-0.982933,20.0836
-329,596,4.43048,-20.1666,0,0,0,0,0,0,0,-1,895,428,4.43045,20.1666
-322,596,4.29657,-19.996,0,0,0,0,0,0,0,-1,902,428,4.29655,19.996
-315,596,4.20044,-19.8317,0,0,0,0,0,0,0,-1,909,428,4.20045,19.8317
-308,596,0.254761,-20.841,0,0,0,0,0,0,0,-1,916,428,0.254731,20.841
-301,596,3.74567,-22.2614,0,0,0,0,0,0,0,-1,923,428,3.74568,22.2614
-294,596,2.38678,-22.5765,0,0,0,0,0,0,0,-1,930,428,2.38679,22.5765
-287,596,3.0224,-23.4192,0,0,0,0,0,0,0,-1,937,428,3.02242,23.4192
-280,596,3.43292,-24.3607,0,0,0,0,0,0,0,-1,944,428,3.43294,24.3607
-273,596,3.30688,-25.0278,0,0,0,0,0,0,0,-1,951,428,3.30692,25.0278
-266,596,3.24115,-24.8551,0,0,0,0,0,0,0,-1,958,428,3.24118,24.8551
-259,596,3.36444,-25.5247,0.00898222,0.0170664,-0.0127051,0.0263569,-0.000308276,-0.939409,0.0176749,0.0382,965,428,3.36447,25.5248
-252,596,3.48505,-26.3152,0.00526792,0.0164864,-0.0108602,0.0231004,-0.00134608,-1.02378,0.015868,0.0203615,972,428,3.48505,26.3152
-245,596,3.50989,-26.8475,0.00282796,0.0158748,-0.00940044,0.0207936,-0.00209079,-1.08872,0.0146093,0.0145608,979,428,3.50989,26.8475
-238,596,3.50793,-27.3226,0.0016903,0.0149257,-0.00797331,0.0186698,-0.00205384,-1.13178,0.0131846,0.0121714,986,428,3.50792,27.3226
-231,596,3.44495,-27.8042,0.000462356,0.0136916,-0.00639225,0.0162756,-0.00212161,-1.18665,0.0116223,0.0134657,993,428,3.44492,27.8042
-224,596,3.40692,-28.2626,-7.50996e-05,0.0123845,-0.00540108,0.0143998,-0.00209042,-1.21366,0.0103672,0.0141257,1000,428,3.40691,28.2626
-217,596,3.3985,-28.6785,-0.000174396,0.0108187,-0.00458194,0.012478,-0.00183369,-1.22335,0.00899246,0.014535,1007,428,3.39851,28.6785
-210,596,3.41742,-29.0988,-8.51707e-05,0.00901888,-0.00382545,0.0104129,-0.00147915,-1.22135,0.00748384,0.0118708,1014,428,3.41744,29.0988
-203,596,3.39624,-29.5419,-5.41836e-05,0.00707492,-0.00286578,0.00808407,-0.00106333,-1.23222,0.00577654,0.0151525,1021,428,3.39624,29.5419
-196,596,3.40906,-29.9628,-2.5119e-05,0.00544571,-0.00203875,0.00612189,-0.0007013,-1.25055,0.00433398,0.0166147,1028,428,3.40909,29.9628
-189,596,3.38086,-30.335,1.28274e-05,0.00383991,-0.00137275,0.00428138,-0.000428642,-1.25965,0.00300733,0.0142815,1035,428,3.3808,30.335
-182,596,3.35315,-30.7452,0.000120652,0.0020917,-0.000576392,0.00224788,-3.55274e-05,-1.30619,0.00151057,0.0125025,1042,428,3.3532,30.7452
-175,596,3.35059,-31.1552,0.000179398,0.000192155,0.00032059,0.00050643,-0.000134877,0.795345,0.000390424,0.014502,1049,428,3.35062,31.1551
-168,596,3.35242,-31.5115,0.000221809,-0.00151582,0.00109631,0.000751827,-0.00204584,0.450326,0.00167183,0.0174448,1056,428,3.35238,31.5115
-161,596,3.33325,-31.8969,0.000255098,-0.00310793,0.00181207,0.00104564,-0.00389848,0.411375,0.00300872,0.0155264,1063,428,3.33329,31.897
-154,596,3.30652,-32.2945,0.000334588,-0.00450055,0.00247852,0.00137935,-0.00554531,0.398923,0.00423225,0.012956,1070,428,3.30647,32.2945
-147,596,3.34253,-32.6317,0.000425708,-0.00575115,0.00305477,0.00168124,-0.00700668,0.38996,0.00532082,0.0128492,1077,428,3.34254,32.6317
-140,596,3.34949,-32.9652,0.000571809,-0.00688147,0.00348092,0.00194465,-0.00825431,0.37566,0.00625271,0.0137929,1084,428,3.34943,32.9652
-133,596,3.33276,-33.3161,0.00074817,-0.00780701,0.00380532,0.00219581,-0.00925465,0.363518,0.00701717,0.0149158,1091,428,3.33278,33.3161
-126,596,3.3418,-33.6323,0.000988081,-0.00841776,0.00396094,0.00243386,-0.00986354,0.349983,0.00751944,0.0113913,1098,428,3.34185,33.6323
-119,596,3.37476,-33.9736,0.00133014,-0.00876924,0.00394388,0.00268775,-0.0101269,0.331528,0.00780301,0.0142305,1105,428,3.37475,33.9736
-112,596,3.35596,-34.3006,0.00172232,-0.00890365,0.00374515,0.00290964,-0.010091,0.307005,0.00787837,0.0162382,1112,428,3.35592,34.3006
-105,596,3.37646,-34.6105,0.00222297,-0.00886819,0.00334724,0.00315485,-0.00980007,0.271526,0.00780063,0.0170438,1119,428,3.37648,34.6105
-98,596,3.43213,-34.892,0.00276488,-0.00845264,0.00303398,0.00353289,-0.00922065,0.247929,0.00760343,0.0144515,1126,428,3.43207,34.892
-91,596,3.41992,-35.2573,0.00334071,-0.0077742,0.00289965,0.0040517,-0.00848518,0.240452,0.00738749,0.0344963,1133,428,3.41991,35.2572
-84,596,3.49207,-35.4606,0,0,0,0,0,0,0,-1,1140,428,3.4921,35.4606
-77,596,3.58716,-35.8604,0,0,0,0,0,0,0,-1,1147,428,3.5871,35.8604
-70,596,3.50696,-32.137,0,0,0,0,0,0,0,-1,1154,428,3.50696,32.137
-63,596,1.95569,-12.2758,0,0,0,0,0,0,0,-1,1161,428,1.95563,12.2759
-56,596,1.60107,-10.5827,0,0,0,0,0,0,0,-1,1168,428,1.60108,10.5827
-49,596,1.59473,-10.0393,0,0,0,0,0,0,0,-1,1175,428,1.59472,10.0393
-42,596,1.99585,-6.6246,0,0,0,0,0,0,0,-1,1182,428,1.99586,6.62459
-35,596,3.52576,-36.7093,0,0,0,0,0,0,0,-1,1189,428,3.52578,36.7093
-28,596,3.68384,-36.9528,0,0,0,0,0,0,0,-1,1196,428,3.68385,36.9528
-21,596,3.7207,-36.6777,0.00858793,-0.007291,-0.0016401,0.00875556,-0.00745863,-0.101855,0.00937125,0.049355,1203,428,3.72076,36.6777
-14,596,4.06409,-37.1808,-0.000193143,0.00194559,0.000891657,0.00226856,-0.000516112,1.22328,0.00171056,0.0487774,1210,428,4.0641,37.1808
-7,596,4.16455,-37.2946,0,0,0,0,0,0,0,-1,1217,428,4.16451,37.2946
0,596,3.974,-37.6561,0,0,0,0,0,0,0,-1,1224,428,3.97402,37.6561
7,596,3.61108,-37.3474,0,0,0,0,0,0,0,-1,1231,428,3.61113,37.3475
14,596,4.63818,-36.9637,0,0,0,0,0,0,0,-1,1238,428,4.63821,36.9637
21,596,4.64941,-37.0433,0,0,0,0,0,0,0,-1,1245,428,4.64936,37.0433
28,596,4.63318,-37.1493,0,0,0,0,0,0,0,-1,1252,428,4.63321,37.1493
35,596,4.23938,-36.6934,0,0,0,0,0,0,0,-1,1259,428,4.23941,36.6934
42,596,4.48291,-37.6924,0,0,0,0,0,0,0,-1,1266,428,4.48292,37.6923
49,596,5.03345,-38.7123,-0.0510319,0.0345245,0.0169042,0.0377433,-0.0542507,1.38263,0.0533971,0.0477552,1273,428,5.03348,38.7123
56,596,4.59912,-37.9453,-0.0534232,0.0335691,0.0190954,0.0375762,-0.0574303,1.36396,0.0552498,0.0431158,1280,428,4.59907,37.9453
63,596,4.42822,-37.5832,-0.0563296,0.0323466,0.0219564,0.0374853,-0.0614683,1.34089,0.0576875,0.0427812,1287,428,4.42817,37.5832
70,596,4.19055,-37.1865,-0.0593034,0.0306659,0.0246481,0.0369759,-0.0656135,1.32017,0.0599943,0.0447536,1294,428,4.19051,37.1865
77,596,3.80969,-36.9854,-0.0607699,0.028308,0.0269918,0.0358486,-0.0683105,1.29838,0.061102,0.046431,1301,428,3.80972,36.9854
84,596,3.37231,-36.643,-0.0602832,0.0237797,0.0287614,0.0326782,-0.0691818,1.27075,0.0600545,0.0469319,1308,428,3.37234,36.643
91,596,3.0946,-36.1489,0,0,0,0,0,0,0,-1,1315,428,3.09465,36.1489
98,596,2.24927,-36.2078,0,0,0,0,0,0,0,-1,1322,428,2.24928,36.2078
105,596,6.1908,-37.7594,0,0,0,0,0,0,0,-1,1329,428,6.19077,37.7594
112,596,5.84631,-37.2305,0,0,0,0,0,0,0,-1,1336,428,5.84631,37.2305
119,596,6.05933,-37.0834,0,0,0,0,0,0,0,-1,1343,428,6.0593,37.0834
126,596,1.31384,-35.9825,0,0,0,0,0,0,0,-1,1350,428,1.31384,35.9825
133,596,5.93518,-36.6278,0,0,0,0,0,0,0,-1,1357,428,5.93516,36.6278
140,596,6.18591,-36.4651,0,0,0,0,0,0,0,-1,1364,428,6.18597,36.465
147,596,5.93848,-36.4145,0,0,0,0,0,0,0,-1,1371,428,5.93847,36.4145
154,596,5.72119,-36.5635,0,0,0,0,0,0,0,-1,1378,428,5.72115,36.5635
161,596,6.0769,-36.4709,0,0,0,0,0,0,0,-1,1385,428,6.07694,36.4708
168,596,6.2196,-36.1395,0,0,0,0,0,0,0,-1,1392,428,6.21955,36.1395
175,596,6.40869,-35.9586,0,0,0,0,0,0,0,-1,1399,428,6.40864,35.9587
182,596,6.50085,-35.9505,0,0,0,0,0,0,0,-1,1406,428,6.50086,35.9505
189,596,6.41687,-35.7628,0,0,0,0,0,0,0,-1,1413,428,6.41685,35.7628
196,596,6.37781,-35.295,0,0,0,0,0,0,0,-1,1420,428,6.37786,35.295
203,596,6.33044,-35.2836,0,0,0,0,0,0,0,-1,1427,428,6.33046,35.2836
210,596,6.3501,-35.1852,0,0,0,0,0,0,0,-1,1434,428,6.35005,35.1852
217,596,6.37842,-34.8455,0,0,0,0,0,0,0,-1,1441,428,6.37843,34.8455
224,596,6.45691,-34.4977,0,0,0,0,0,0,0,-1,1448,428,6.45688,34.4977
231,596,6.51514,-34.2137,0.00216748,-0.000475738,-0.00109459,0.00256191,-0.000870166,-0.345859,0.00206019,0.0204693,1455,428,6.51515,34.2137
238,596,6.52161,-33.8628,0.00218813,0.000403431,-0.000590423,0.00236577,0.000225787,-0.292261,0.00150757,0.0145946,1462,428,6.52164,33.8628
245,596,6.547,-33.5338,0.00223743,0.00106255,-0.000310062,0.00231424,0.00098574,-0.242826,0.001341,0.0135224,1469,428,6.54699,33.5339
252,596,6.55359,-33.1699,0.00215168,0.00122451,-5.55498e-05,0.002155,0.00122119,-0.0596285,0.00124787,0.0106641,1476,428,6.55359,33.1699
259,596,6.54541,-32.8127,0.00196752,0.00123765,0.000130547,0.00199017,0.001215,0.17177,0.00115834,0.00928254,1483,428,6.54541,32.8127
266,596,6.54639,-32.4566,0.00187193,0.00123297,0.000295356,0.00198754,0.00111736,0.373093,0.00115046,0.0106974,1490,428,6.54645,32.4566
273,596,6.5769,-32.0851,0.00177147,0.0013308,0.000467209,0.00206769,0.00103458,0.565062,0.00119378,0.0123521,1497,428,6.57694,32.085
280,596,6.60278,-31.7153,0.00163312,0.0013689,0.00066877,0.0021827,0.000819314,0.687884,0.00127317,0.0128286,1504,428,6.60273,31.7153
287,596,6.59717,-31.3104,0.00153037,0.0015247,0.000904865,0.0024324,0.000622663,0.783833,0.00145903,0.011542,1511,428,6.59714,31.3104
294,596,6.56494,-30.9052,0.00137478,0.0018612,0.00115243,0.0027958,0.000440183,0.889393,0.00173584,0.00973483,1518,428,6.56489,30.9051
301,596,6.55127,-30.4852,0.00118482,0.00225969,0.00140404,0.00322563,0.000218872,0.968183,0.00208131,0.0109548,1525,428,6.55125,30.4852
308,596,6.55298,-30.05,0.0010577,0.00268423,0.00169048,0.00374689,-4.96721e-06,1.0096,0.00249958,0.0163634,1532,428,6.55293,30.05
315,596,6.53259,-29.5981,0.000890908,0.00332202,0.00201166,0.00445685,-0.000243929,1.05717,0.00305579,0.0165138,1539,428,6.53261,29.598
322,596,6.53662,-29.1713,0.000630497,0.00393125,0.00234101,0.00514515,-0.0005834,1.09243,0.00364018,0.0136884,1546,428,6.53658,29.1713
329,596,6.49927,-28.7626,0.000332224,0.00445905,0.00264453,0.00574992,-0.000958642,1.11669,0.00418955,0.0100471,1553,428,6.49922,28.7626
336,596,6.46216,-28.3411,-2.20125e-05,0.00493802,0.00289799,0.0062723,-0.00135629,1.13932,0.00469933,0.00862466,1560,428,6.46218,28.3411
343,596,6.46191,-27.8913,-0.000316062,0.0054416,0.00316208,0.00683903,-0.00171349,1.15467,0.00522502,0.0114472,1567,428,6.46186,27.8913
350,596,6.4613,-27.4014,-0.000509513,0.00632347,0.00355534,0.00783779,-0.00202383,1.16814,0.0060144,0.0121858,1574,428,6.46136,27.4014
357,596,6.4281,-26.9115,-0.000775252,0.00685708,0.00395271,0.00853519,-0.00245336,1.16931,0.00666027,0.00993815,1581,428,6.42811,26.9115
364,596,6.39539,-26.41,-0.00114606,0.00731448,0.00423284,0.00906854,-0.00290011,1.17795,0.00720952,0.0141768,1588,428,6.3954,26.41
371,596,6.38159,-25.9483,-0.00140588,0.00823935,0.00464635,0.0101135,-0.00327999,1.1874,0.00806122,0.0205056,1595,428,6.38164,25.9483
378,596,6.30725,-25.5348,-0.00158979,0.00942651,0.00495103,0.0113246,-0.00348788,1.2047,0.00894206,0.0285564,1602,428,6.30723,25.5348
385,596,6.20215,-24.9778,-0.00141873,0.01127,0.00519871,0.0131279,-0.00327665,1.22756,0.0100243,0.0439695,1609,428,6.2021,24.9777
392,596,6.09949,-24.4801,0,0,0,0,0,0,0,-1,1616,428,6.09953,24.4801
399,596,6.20496,-23.3501,0,0,0,0,0,0,0,-1,1623,428,6.20496,23.3501
406,596,3.60034,-10.1525,0,0,0,0,0,0,0,-1,1630,428,3.60028,10.1525
413,596,3.39124,-2.63528,0,0,0,0,0,0,0,-1,1637,428,3.39122,2.6353
420,596,2.6344,-3.06308,0,0,0,0,0,0,0,-1,1644,428,2.63439,3.06308
427,596,3.77856,-20.1826,0,0,0,0,0,0,0,-1,1651,428,3.77859,20.1826
434,596,4.93384,-19.4499,0,0,0,0,0,0,0,-1,1658,428,4.93385,19.4499
441,596,6.08911,-18.7172,0,0,0,0,0,0,0,-1,1665,428,6.08912,18.7172
448,596,1.0769,0.0083313,0,0,0,0,0,0,0,-1,1672,428,1.07684,-0.00832231
455,596,2.00769,-1.43329,0,0,0,0,0,0,0,-1,1679,428,2.00765,1.4333
462,596,0,0,0,0,0,0,0,0,0,-1,1686,428,0,0
469,596,0,0,0,0,0,0,0,0,0,-1,1693,428,0,0
476,596,0,0,0,0,0,0,0,0,0,-1,1700,428,0,0
483,596,0,0,0,0,0,0,0,0,0,-1,1707,428,0,0
490,596,0,0,0,0,0,0,0,0,0,-1,1714,428,0,0
497,596,0,0,0,0,0,0,0,0,0,-1,1721,428,0,0
504,596,0,0,0,0,0,0,0,0,0,-1,1728,428,0,0
511,596,0,0,0,0,0,0,0,0,0,-1,1735,428,0,0
518,596,0,0,0,0,0,0,0,0,0,-1,1742,428,0,0
525,596,0,0,0,0,0,0,0,0,0,-1,1749,428,0,0
532,596,0,0,0,0,0,0,0,0,0,-1,1756,428,0,0
539,596,0,0,0,0,0,0,0,0,0,-1,1763,428,0,0
546,596,0,0,0,0,0,0,0,0,0,-1,1770,428,0,0
553,596,0,0,0,0,0,0,0,0,0,-1,1777,428,0,0
560,596,0,0,0,0,0,0,0,0,0,-1,1784,428,0,0
567,596,0,0,0,0,0,0,0,0,0,-1,1791,428,0,0
574,596,0,0,0,0,0,0,0,0,0,-1,1798,428,0,0
581,596,0,0,0,0,0,0,0,0,0,-1,1805,428,0,0
588,596,0,0,0,0,0,0,0,0,0,-1,1812,428,0,0
595,596,0,0,0,0,0,0,0,0,0,-1,1819,428,0,0
602,596,0,0,0,0,0,0,0,0,0,-1,1826,428,0,0
609,596,0,0,0,0,0,0,0,0,0,-1,1833,428,0,0
616,596,0,0,0,0,0,0,0,0,0,-1,1840,428,0,0
623,596,0,0,0,0,0,0,0,0,0,-1,1847,428,0,0
630,596,0,0,0,0,0,0,0,0,0,-1,1854,428,0,0
637,596,0,0,0,0,0,0,0,0,0,-1,1861,428,0,0
644,596,0,0,0,0,0,0,0,0,0,-1,1868,428,0,0
651,596,0,0,0,0,0,0,0,0,0,-1,1875,428,0,0
658,596,0,0,0,0,0,0,0,0,0,-1,1882,428,0,0
665,596,0,0,0,0,0,0,0,0,0,-1,1889,428,0,0
672,596,0,0,0,0,0,0,0,0,0,-1,1896,428,0,0
679,596,0,0,0,0,0,0,0,0,0,-1,1903,428,0,0
686,596,0,0,0,0,0,0,0,0,0,-1,1910,428,0,0
693,596,0,0,0,0,0,0,0,0,0,-1,1917,428,0,0
700,596,0,0,0,0,0,0,0,0,0,-1,1924,428,0,0
707,596,0,0,0,0,0,0,0,0,0,-1,1931,428,0,0
714,596,0,0,0,0,0,0,0,0,0,-1,1938,428,0,0
721,596,0,0,0,0,0,0,0,0,0,-1,1945,428,0,0
728,596,0,0,0,0,0,0,0,0,0,-1,1952,428,0,0
735,596,0,0,0,0,0,0,0,0,0,-1,1959,428,0,0
742,596,0,0,0,0,0,0,0,0,0,-1,1966,428,0,0
749,596,0,0,0,0,0,0,0,0,0,-1,1973,428,0,0
756,596,0,0,0,0,0,0,0,0,0,-1,1980,428,0,0
763,596,0,0,0,0,0,0,0,0,0,-1,1987,428,0,0
770,596,0,0,0,0,0,0,0,0,0,-1,1994,428,0,0
777,596,0,0,0,0,0,0,0,0,0,-1,2001,428,0,0
784,596,0,0,0,0,0,0,0,0,0,-1,2008,428,0,0
791,596,0,0,0,0,0,0,0,0,0,-1,2015,428,0,0
798,596,0,0,0,0,0,0,0,0,0,-1,2022,428,0,0
805,596,0,0,0,0,0,0,0,0,0,-1,2029,428,0,0
812,596,0,0,0,0,0,0,0,0,0,-1,2036,428,0,0
-700,589,0,0,0,0,0,0,0,0,0,-1,524,435,0,0
-693,589,0,0,0,0,0,0,0,0,0,-1,531,435,0,0
-686,589,0,0,0,0,0,0,0,0,0,-1,538,435,0,0
-679,589,0,0,0,0,0,0,0,0,0,-1,545,435,0,0
-672,589,0,0,0,0,0,0,0,0,0,-1,552,435,0,0
-665,589,0,0,0,0,0,0,0,0,0,-1,559,435,0,0
-658,589,0,0,0,0,0,0,0,0,0,-1,566,435,0,0
-651,589,0,0,0,0,0,0,0,0,0,-1,573,435,0,0
-644,589,0,0,0,0,0,0,0,0,0,-1,580,435,0,0
-637,589,0,0,0,0,0,0,0,0,0,-1,587,435,0,0
-630,589,0,0,0,0,0,0,0,0,0,-1,594,435,0,0
-623,589,0,0,0,0,0,0,0,0,0,-1,601,435,0,0
-616,589,0,0,0,0,0,0,0,0,0,-1,608,435,0,0
-609,589,0,0,0,0,0,0,0,0,0,-1,615,435,0,0
-602,589,0,0,0,0,0,0,0,0,0,-1,622,435,0,0
-595,589,0,0,0,0,0,0,0,0,0,-1,629,435,0,0
-588,589,0,0,0,0,0,0,0,0,0,-1,636,435,0,0
-581,589,0,0,0,0,0,0,0,0,0,-1,643,435,0,0
-574,589,0,0,0,0,0,0,0,0,0,-1,650,435,0,0
-567,589,0,0,0,0,0,0,0,0,0,-1,657,435,0,0
-560,589,0,0,0,0,0,0,0,0,0,-1,664,435,0,0
-553,589,0,0,0,0,0,0,0,0,0,-1,671,435,0,0
-546,589,0,0,0,0,0,0,0,0,0,-1,678,435,0,0
-539,589,0,0,0,0,0,0,0,0,0,-1,685,435,0,0
-532,589,0,0,0,0,0,0,0,0,0,-1,692,435,0,0
-525,589,0,0,0,0,0,0,0,0,0,-1,699,435,0,0
-518,589,0,0,0,0,0,0,0,0,0,-1,706,435,0,0
-511,589,0,0,0,0,0,0,0,0,0,-1,713,435,0,0
-504,589,0,0,0,0,0,0,0,0,0,-1,720,435,0,0
-497,589,0,0,0,0,0,0,0,0,0,-1,727,435,0,0
-490,589,0,0,0,0,0,0,0,0,0,-1,734,435,0,0
-483,589,0,0,0,0,0,0,0,0,0,-1,741,435,0,0
-476,589,0,0,0,0,0,0,0,0,0,-1,748,435,0,0
-469,589,0,0,0,0,0,0,0,0,0,-1,755,435,0,0
-462,589,0,0,0,0,0,0,0,0,0,-1,762,435,0,0
-455,589,0,0,0,0,0,0,0,0,0,-1,769,435,0,0
-448,589,0,0,0,0,0,0,0,0,0,-1,776,435,0,0
-441,589,0,0,0,0,0,0,0,0,0,-1,783,435,0,0
-434,589,0,0,0,0,0,0,0,0,0,-1,790,435,0,0
-427,589,0,0,0,0,0,0,0,0,0,-1,797,435,0,0
-420,589,0,0,0,0,0,0,0,0,0,-1,804,435,0,0
-413,589,0,0,0,0,0,0,0,0,0,-1,811,435,0,0
-406,589,0,0,0,0,0,0,0,0,0,-1,818,435,0,0
-399,589,0,0,0,0,0,0,0,0,0,-1,825,435,0,0
-392,589,0,0,0,0,0,0,0,0,0,-1,832,435,0,0
-385,589,0,0,0,0,0,0,0,0,0,-1,839,435,0,0
-378,589,0,0,0,0,0,0,0,0,0,-1,846,435,0,0
-371,589,0,0,0,0,0,0,0,0,0,-1,853,435,0,0
-364,589,0,0,0,0,0,0,0,0,0,-1,860,435,0,0
-357,589,0,0,0,0,0,0,0,0,0,-1,867,435,0,0
-350,589,-0.799927,-20.664,0,0,0,0,0,0,0,-1,874,435,-0.799952,20.664
-343,589,-0.370911,-19.1543,0,0,0,0,0,0,0,-1,881,435,-0.370922,19.1543
-336,589,-0.836914,-18.9103,0,0,0,0,0,0,0,-1,888,435,-0.836925,18.9103
-329,589,2.58252,-16.902,0,0,0,0,0,0,0,-1,895,435,2.58251,16.902
-322,589,4.80298,-20.4898,0,0,0,0,0,0,0,-1,902,435,4.80296,20.4898
-315,589,2.75171,-21.8466,0,0,0,0,0,0,0,-1,909,435,2.7517,21.8465
-308,589,3.26825,-22.4919,0,0,0,0,0,0,0,-1,916,435,3.26827,22.4919
-301,589,0.768616,-22.4802,0,0,0,0,0,0,0,-1,923,435,0.768625,22.4802
-294,589,1.57727,-23.056,0,0,0,0,0,0,0,-1,930,435,1.57729,23.056
-287,589,2.5354,-23.6516,0.0235124,0.0151836,-0.0171163,0.0369637,0.00173236,-0.666068,0.0240858,0.0451911,937,435,2.53541,23.6516
-280,589,3.11084,-24.3254,0.0181485,0.0148303,-0.0152936,0.0318727,0.00110608,-0.731369,0.0208896,0.0348867,944,435,3.11081,24.3254
-273,589,3.14746,-24.9026,0.013589,0.0142921,-0.0134501,0.0273953,0.000485845,-0.798464,0.0181037,0.0190844,951,435,3.14743,24.9026
-266,589,3.10754,-25.3983,0.00979094,0.013718,-0.0116424,0.0235613,-5.23049e-05,-0.868939,0.015725,0.0174642,958,435,3.10753,25.3983
-259,589,3.0849,-25.886,0.00686276,0.0126735,-0.00990551,0.0200909,-0.000554681,-0.928051,0.0135826,0.0160749,965,435,3.08491,25.886
-252,589,3.10608,-26.4353,0.00409285,0.012101,-0.00840536,0.0174073,-0.00121344,-1.00768,0.0120297,0.0108651,972,435,3.10607,26.4353
-245,589,3.10809,-26.9018,0.00230412,0.0114525,-0.00721717,0.015423,-0.00166632,-1.06785,0.01088,0.0105812,979,435,3.10808,26.9018
-238,589,3.07538,-27.3648,0.00154265,0.0104632,-0.00598979,0.013471,-0.00146511,-1.10543,0.00950674,0.0139431,986,435,3.07538,27.3648
-231,589,3.03137,-27.8044,0.000626975,0.009249,-0.00459382,0.0112378,-0.00136186,-1.16222,0.00798465,0.0151331,993,435,3.03138,27.8043
-224,589,2.99524,-28.2597,0.00023337,0.00797389,-0.00365196,0.00942488,-0.00121762,-1.1926,0.00672597,0.0147505,1000,435,2.99522,28.2597
-217,589,2.99951,-28.701,0.000188769,0.00651671,-0.0028216,0.00759209,-0.000886619,-1.20667,0.00538134,0.0151493,1007,435,2.99953,28.701
-210,589,3.00885,-29.1178,0.0002115,0.00491966,-0.00202001,0.00566754,-0.000536378,-1.21621,0.00396925,0.0142993,1014,435,3.00887,29.1178
-203,589,2.98663,-29.5378,0.000203066,0.00315666,-0.00110858,0.00352645,-0.000166725,-1.24883,0.00240846,0.0113351,1021,435,2.9866,29.5378
-196,589,2.96704,-29.9458,0.000227692,0.00165003,-0.000348163,0.00173068,0.000147041,-1.34316,0.00110803,0.014237,1028,435,2.96702,29.9458
-189,589,2.97498,-30.3547,0.000320359,0.000163974,0.000360307,0.000610861,-0.000126527,0.678547,0.000455314,0.0179738,1035,435,2.97494,30.3547
-182,589,2.95703,-30.7279,0.000437616,-0.00154913,0.00119826,0.00100072,-0.00211223,0.439306,0.00183506,0.0132488,1042,435,2.95698,30.728
-175,589,2.96057,-31.1231,0.000523269,-0.00346745,0.00214639,0.00145851,-0.00440269,0.410923,0.0035234,0.0163594,1049,435,2.96053,31.1231
-168,589,2.96997,-31.5268,0.00060098,-0.00521438,0.00296295,0.00184465,-0.00645805,0.397406,0.00503419,0.014015,1056,435,2.96991,31.5268
-161,589,2.97607,-31.9041,0.000657276,-0.00687812,0.00372672,0.00218901,-0.00840985,0.389965,0.00646105,0.0130093,1063,435,2.97606,31.9042
-154,589,2.96021,-32.2735,0.000766973,-0.00840453,0.00445564,0.00257511,-0.0102127,0.385504,0.00780964,0.0128201,1070,435,2.96022,32.2735
-147,589,2.98206,-32.6227,0.000889927,-0.00986975,0.00512847,0.00294271,-0.0119225,0.380741,0.00908945,0.0133734,1077,435,2.9821,32.6226
-140,589,3.00488,-32.9444,0.00102475,-0.0112217,0.00566536,0.0032436,-0.0134405,0.37329,0.0102147,0.0144631,1084,435,3.00492,32.9444
-133,589,2.99182,-33.283,0.00115881,-0.0123614,0.00609555,0.00350116,-0.0147037,0.366875,0.0111542,0.01396,1091,435,2.9918,33.283
-126,589,3.01807,-33.6271,0.00136612,-0.0131456,0.00631441,0.00372896,-0.0155084,0.358067,0.0117803,0.0112328,1098,435,3.01812,33.6271
-119,589,3.00562,-33.952,0.0016491,-0.0135926,0.00632757,0.00393357,-0.0158771,0.346471,0.0121108,0.0178269,1105,435,3.00567,33.952
-112,589,2.99426,-34.2632,0.00195286,-0.013704,0.00608134,0.0040374,-0.0157885,0.330226,0.0120982,0.0193134,1112,435,2.99428,34.2632
-105,589,3.03442,-34.6451,0.00222256,-0.0133844,0.00554522,0.00399216,-0.015154,0.308906,0.0116634,0.0256252,1119,435,3.03445,34.6451
-98,589,3.05042,-35.0622,0,0,0,0,0,0,0,-1,1126,435,3.05036,35.0622
-91,589,3.14917,-35.4545,0,0,0,0,0,0,0,-1,1133,435,3.14919,35.4545
-84,589,2.76538,-22.6013,0,0,0,0,0,0,0,-1,1140,435,2.76539,22.6014
-77,589,2.18152,-14.8023,0,0,0,0,0,0,0,-1,1147,435,2.18155,14.8023
-70,589,1.48267,-9.90961,0,0,0,0,0,0,0,-1,1154,435,1.48264,9.9096
-63,589,0.880127,-5.50586,0,0,0,0,0,0,0,-1,1161,435,0.880186,5.50587
-56,589,-2.78052,-7.28082,0,0,0,0,0,0,0,-1,1168,435,-2.78053,7.28082
-49,589,-0.525757,-2.76703,0,0,0,0,0,0,0,-1,1175,435,-0.525771,2.76702
-42,589,-2.7738,-2.87921,0,0,0,0,0,0,0,-1,1182,435,-2.77383,2.87922
-35,589,-2.55225,-3.27551,0,0,0,0,0,0,0,-1,1189,435,-2.55223,3.27552
-28,589,-0.0632324,-3.42938,0,0,0,0,0,0,0,-1,1196,435,-0.063241,3.42938
-21,589,3.40942,-36.087,0,0,0,0,0,0,0,-1,1203,435,3.40942,36.087
-14,589,3.92175,-36.9779,0,0,0,0,0,0,0,-1,1210,435,3.92176,36.9779
-7,589,3.38904,-36.8796,0,0,0,0,0,0,0,-1,1217,435,3.38903,36.8796
0,589,3.37695,-37.542,0,0,0,0,0,0,0,-1,1224,435,3.3769,37.542
7,589,3.22253,-37.2379,0,0,0,0,0,0,0,-1,1231,435,3.22253,37.2379
14,589,3.13245,-36.8568,0,0,0,0,0,0,0,-1,1238,435,3.13244,36.8568
21,589,3.14172,-36.4222,0,0,0,0,0,0,0,-1,1245,435,3.14166,36.4222
28,589,9.57239,-36.7697,0,0,0,0,0,0,0,-1,1252,435,9.57244,36.7697
35,589,8.17761,-37.5545,0,0,0,0,0,0,0,-1,1259,435,8.17761,37.5545
42,589,5.229,-39.2937,0,0,0,0,0,0,0,-1,1266,435,5.22897,39.2937
49,589,5.31067,-39.5288,-0.0649816,0.0475824,0.0210377,0.0513857,-0.0687849,1.39194,0.0696225,0.0472388,1273,435,5.31069,39.5288
56,589,4.49976,-37.9322,-0.0680388,0.0460244,0.0236237,0.0507235,-0.0727379,1.37444,0.0716572,0.0415001,1280,435,4.49971,37.9322
63,589,4.18665,-37.3469,-0.0716121,0.0441486,0.0270421,0.0501542,-0.0776176,1.35226,0.0743349,0.0405269,1287,435,4.18667,37.3469
70,589,3.8988,-37.2417,-0.0751329,0.0416179,0.0303157,0.0490204,-0.0825353,1.3313,0.0767709,0.0451291,1294,435,3.89882,37.2417
77,589,3.43652,-37.2396,-0.0767574,0.0380432,0.0331881,0.0469471,-0.0856613,1.30868,0.0776415,0.0429148,1301,435,3.4365,37.2396
84,589,2.89514,-37.0716,-0.0758128,0.0317738,0.0352512,0.0422951,-0.0863341,1.28075,0.075701,0.0404396,1308,435,2.89516,37.0716
91,589,2.271,-36.6776,-0.0730645,0.024771,0.0365744,0.0369321,-0.0852257,1.24979,0.0723417,0.0415386,1315,435,2.27099,36.6776
98,589,1.85229,-36.4727,-0.0689868,0.0178097,0.0379803,0.0320822,-0.0832592,1.21134,0.0687427,0.0467693,1322,435,1.85228,36.4727
105,589,1.15747,-36.4807,-0.0614354,0.0117346,0.0393461,0.0288764,-0.0785773,1.15992,0.0642124,0.0479176,1329,435,1.1575,36.4807
112,589,0.849976,-36.4031,-0.0523755,0.0056214,0.0403039,0.0262749,-0.073029,1.09724,0.0594136,0.0422105,1336,435,0.84997,36.4031
119,589,-2.4624,-35.4991,-0.0425087,-0.000971039,0.0405509,0.0238202,-0.0672999,1.02206,0.0545682,0.0423187,1343,435,-2.46239,35.4991
126,589,-3.67786,-35.1621,0,0,0,0,0,0,0,-1,1350,435,-3.67784,35.1621
133,589,1.02283,-36.1655,0,0,0,0,0,0,0,-1,1357,435,1.02286,36.1655
140,589,-3.16846,-38.7396,0,0,0,0,0,0,0,-1,1364,435,-3.16841,38.7396
147,589,-0.289673,-35.8461,0,0,0,0,0,0,0,-1,1371,435,-0.289705,35.8461
154,589,-0.520874,-36.4521,0,0,0,0,0,0,0,-1,1378,435,-0.520823,36.4521
161,589,9.09375,-35.1229,0,0,0,0,0,0,0,-1,1385,435,9.09371,35.1229
168,589,10.0815,-34.5519,0,0,0,0,0,0,0,-1,1392,435,10.0815,34.5519
175,589,8.66992,-7.65527,0,0,0,0,0,0,0,-1,1399,435,8.66994,7.65528
182,589,3.8136,-2.45389,0,0,0,0,0,0,0,-1,1406,435,3.81363,2.4539
189,589,3.69983,-3.68149,0,0,0,0,0,0,0,-1,1413,435,3.69987,3.68147
196,589,3.31055,-5.31677,0,0,0,0,0,0,0,-1,1420,435,3.31059,5.31678
203,589,2.72559,-8.84338,0,0,0,0,0,0,0,-1,1427,435,2.72558,8.84338
210,589,3.62378,-14.4032,0,0,0,0,0,0,0,-1,1434,435,3.62378,14.4032
217,589,4.65601,-22.3745,0,0,0,0,0,0,0,-1,1441,435,4.65607,22.3745
224,589,6.79028,-33.9412,0,0,0,0,0,0,0,-1,1448,435,6.79028,33.9412
231,589,6.85889,-34.253,0,0,0,0,0,0,0,-1,1455,435,6.85886,34.253
238,589,6.87439,-33.8587,0,0,0,0,0,0,0,-1,1462,435,6.87437,33.8587
245,589,6.91418,-33.5212,0,0,0,0,0,0,0,-1,1469,435,6.91422,33.5212
252,589,6.91248,-33.1367,0.00307092,0.00083591,-0.00067226,0.00325754,0.000649286,-0.270787,0.00199088,0.0149451,1476,435,6.91246,33.1367
259,589,6.9054,-32.8126,0.00281403,0.00039708,-0.000550721,0.00293361,0.00027751,-0.213798,0.00187011,0.00981511,1483,435,6.90542,32.8126
266,589,6.92212,-32.4461,0.00266258,5.94799e-05,-0.000423567,0.00272977,-7.70716e-06,-0.157311,0.00182242,0.0102857,1490,435,6.92214,32.4461
273,589,6.9491,-32.095,0.00250333,-0.000117316,-0.000287191,0.00253443,-0.000148419,-0.107882,0.0017412,0.0124776,1497,435,6.94915,32.095
280,589,6.96997,-31.7242,0.00230415,-0.000387457,-0.000135605,0.00231096,-0.000394272,-0.0502112,0.00168749,0.0130321,1504,435,6.96995,31.7242
287,589,6.97485,-31.3279,0.00214369,-0.000460378,4.06386e-05,0.00214433,-0.000461012,0.0156007,0.00160544,0.0112834,1511,435,6.97488,31.328
294,589,6.96497,-30.8992,0.00193854,-0.000238604,0.0002356,0.00196375,-0.000263808,0.106571,0.00140538,0.0102149,1518,435,6.96492,30.8992
301,589,6.9679,-30.465,0.00170649,9.0743e-05,0.000451926,0.0018243,-2.70705e-05,0.255017,0.00122532,0.0108816,1525,435,6.96795,30.465
308,589,6.96179,-30.0471,0.00151831,0.000415481,0.000679162,0.00184172,9.20701e-05,0.444419,0.0011983,0.0104513,1532,435,6.9618,30.0471
315,589,6.96509,-29.6278,0.0012832,0.000992234,0.000927253,0.00207631,0.000199121,0.707584,0.00132284,0.0107569,1539,435,6.96506,29.6278
322,589,6.96667,-29.1975,0.000983801,0.00163986,0.00120691,0.00256252,6.11399e-05,0.91809,0.00168834,0.0115214,1546,435,6.96673,29.1975
329,589,6.94617,-28.7751,0.000669691,0.00225162,0.00149513,0.00315212,-0.000230807,1.0287,0.00218242,0.00998994,1553,435,6.94617,28.7751
336,589,6.92798,-28.3438,0.000333148,0.00282441,0.0017611,0.00373588,-0.000578317,1.0932,0.00270405,0.00918593,1560,435,6.92793,28.3437
343,589,6.9021,-27.903,3.26557e-05,0.00343331,0.00204981,0.00439622,-0.000930251,1.13164,0.0032851,0.0110215,1567,435,6.90216,27.9031
350,589,6.88916,-27.4124,-0.000166407,0.00434048,0.00245642,0.00542051,-0.00124643,1.15656,0.00409291,0.016528,1574,435,6.88921,27.4124
357,589,6.87158,-26.9125,-0.000380746,0.00504846,0.00287967,0.00629133,-0.00162361,1.16335,0.00482731,0.0129862,1581,435,6.87161,26.9125
364,589,6.8656,-26.4376,-0.000646158,0.00567566,0.0032411,0.00704201,-0.00201251,1.17183,0.00548988,0.0107592,1588,435,6.86557,26.4376
371,589,6.83936,-25.9649,-0.0008473,0.006579,0.00367571,0.00809063,-0.00235893,1.18063,0.00632835,0.0106347,1595,435,6.83935,25.9649
378,589,6.81372,-25.4609,-0.000989888,0.00764587,0.00400303,0.00921597,-0.00255999,1.19701,0.0071517,0.0116759,1602,435,6.8137,25.4609
385,589,6.7804,-24.9352,-0.000836019,0.00923401,0.0042634,0.0107966,-0.00239857,1.21949,0.00811625,0.0157863,1609,435,6.78043,24.9352
392,589,6.74451,-24.3261,0.000599243,0.0106059,0.00502876,0.0126963,-0.00149122,1.17683,0.00900254,0.0215042,1616,435,6.74449,24.3261
399,589,6.75146,-23.6689,0.00407904,0.0128764,0.00714781,0.0168706,8.4904e-05,1.06123,0.0112189,0.0359333,1623,435,6.75143,23.669
406,589,6.78467,-23.1786,0,0,0,0,0,0,0,-1,1630,435,6.78472,23.1786
413,589,5.61377,-19.0606,0,0,0,0,0,0,0,-1,1637,435,5.61372,19.0606
420,589,2.79724,-5.79956,0,0,0,0,0,0,0,-1,1644,435,2.7973,5.79955
427,589,6.01196,-21.7947,0,0,0,0,0,0,0,-1,1651,435,6.01198,21.7947
434,589,6.12268,-20.6468,0,0,0,0,0,0,0,-1,1658,435,6.12262,20.6468
441,589,6.29358,-18.8969,0,0,0,0,0,0,0,-1,1665,435,6.29358,18.8969
448,589,0.453735,-3.2868,0,0,0,0,0,0,0,-1,1672,435,0.453701,3.28681
455,589,0.664307,-3.46848,0,0,0,0,0,0,0,-1,1679,435,0.66425,3.46846
462,589,3.46716,-4.41891,0,0,0,0,0,0,0,-1,1686,435,3.4672,4.41891
469,589,0.0238037,-3.81497,0,0,0,0,0,0,0,-1,1693,435,0.0237965,3.81498
476,589,0,0,0,0,0,0,0,0,0,-1,1700,435,0,0
483,589,0,0,0,0,0,0,0,0,0,-1,1707,435,0,0
490,589,0,0,0,0,0,0,0,0,0,-1,1714,435,0,0
497,589,0,0,0,0,0,0,0,0,0,-1,1721,435,0,0
504,589,0,0,0,0,0,0,0,0,0,-1,1728,435,0,0
511,589,0,0,0,0,0,0,0,0,0,-1,1735,435,0,0
518,589,0,0,0,0,0,0,0,0,0,-1,1742,435,0,0
525,589,0,0,0,0,0,0,0,0,0,-1,1749,435,0,0
532,589,0,0,0,0,0,0,0,0,0,-1,1756,435,0,0
539,589,0,0,0,0,0,0,0,0,0,-1,1763,435,0,0
546,589,0,0,0,0,0,0,0,0,0,-1,1770,435,0,0
553,589,0,0,0,0,0,0,0,0,0,-1,1777,435,0,0
560,589,0,0,0,0,0,0,0,0,0,-1,1784,435,0,0
567,589,0,0,0,0,0,0,0,0,0,-1,1791,435,0,0
574,589,0,0,0,0,0,0,0,0,0,-1,1798,435,0,0
581,589,0,0,0,0,0,0,0,0,0,-1,1805,435,0,0
588,589,0,0,0,0,0,0,0,0,0,-1,1812,435,0,0
595,589,0,0,0,0,0,0,0,0,0,-1,1819,435,0,0
602,589,0,0,0,0,0,0,0,0,0,-1,1826,435,0,0
609,589,0,0,0,0,0,0,0,0,0,-1,1833,435,0,0
616,589,0,0,0,0,0,0,0,0,0,-1,1840,435,0,0
623,589,0,0,0,0,0,0,0,0,0,-1,1847,435,0,0
630,589,0,0,0,0,0,0,0,0,0,-1,1854,435,0,0
637,589,0,0,0,0,0,0,0,0,0,-1,1861,435,0,0
644,589,0,0,0,0,0,0,0,0,0,-1,1868,435,0,0
651,589,0,0,0,0,0,0,0,0,0,-1,1875,435,0,0
658,589,0,0,0,0,0,0,0,0,0,-1,1882,435,0,0
665,589,0,0,0,0,0,0,0,0,0,-1,1889,435,0,0
672,589,0,0,0,0,0,0,0,0,0,-1,1896,435,0,0
679,589,0,0,0,0,0,0,0,0,0,-1,1903,435,0,0
686,589,0,0,0,0,0,0,0,0,0,-1,1910,435,0,0
693,589,0,0,0,0,0,0,0,0,0,-1,1917,435,0,0
700,589,0,0,0,0,0,0,0,0,0,-1,1924,435,0,0
707,589,0,0,0,0,0,0,0,0,0,-1,1931,435,0,0
714,589,0,0,0,0,0,0,0,0,0,-1,1938,435,0,0
721,589,0,0,0,0,0,0,0,0,0,-1,1945,435,0,0
728,589,0,0,0,0,0,0,0,0,0,-1,1952,435,0,0
735,589,0,0,0,0,0,0,0,0,0,-1,1959,435,0,0
742,589,0,0,0,0,0,0,0,0,0,-1,1966,435,0,0
749,589,0,0,0,0,0,0,0,0,0,-1,1973,435,0,0
756,589,0,0,0,0,0,0,0,0,0,-1,1980,435,0,0
763,589,0,0,0,0,0,0,0,0,0,-1,1987,435,0,0
770,589,0,0,0,0,0,0,0,0,0,-1,1994,435,0,0
777,589,0,0,0,0,0,0,0,0,0,-1,2001,435,0,0
784,589,0,0,0,0,0,0,0,0,0,-1,2008,435,0,0
791,589,0,0,0,0,0,0,0,0,0,-1,2015,435,0,0
798,589,0,0,0,0,0,0,0,0,0,-1,2022,435,0,0
805,589,0,0,0,0,0,0,0,0,0,-1,2029,435,0,0
812,589,0,0,0,0,0,0,0,0,0,-1,2036,435,0,0
-700,582,0,0,0,0,0,0,0,0,0,-1,524,442,0,0
-693,582,0,0,0,0,0,0,0,0,0,-1,531,442,0,0
-686,582,0,0,0,0,0,0,0,0,0,-1,538,442,0,0
-679,582,0,0,0,0,0,0,0,0,0,-1,545,442,0,0
-672,582,0,0,0,0,0,0,0,0,0,-1,552,442,0,0
-665,582,0,0,0,0,0,0,0,0,0,-1,559,442,0,0
-658,582,0,0,0,0,0,0,0,0,0,-1,566,442,0,0
-651,582,0,0,0,0,0,0,0,0,0,-1,573,442,0,0
-644,582,0,0,0,0,0,0,0,0,0,-1,580,442,0,0
-637,582,0,0,0,0,0,0,0,0,0,-1,587,442,0,0
-630,582,0,0,0,0,0,0,0,0,0,-1,594,442,0,0
-623,582,0,0,0,0,0,0,0,0,0,-1,601,442,0,0
-616,582,0,0,0,0,0,0,0,0,0,-1,608,442,0,0
-609,582,0,0,0,0,0,0,0,0,0,-1,615,442,0,0
-602,582,0,0,0,0,0,0,0,0,0,-1,622,442,0,0
-595,582,0,0,0,0,0,0,0,0,0,-1,629,442,0,0
-588,582,0,0,0,0,0,0,0,0,0,-1,636,442,0,0
-581,582,0,0,0,0,0,0,0,0,0,-1,643,442,0,0
-574,582,0,0,0,0,0,0,0,0,0,-1,650,442,0,0
-567,582,0,0,0,0,0,0,0,0,0,-1,657,442,0,0
-560,582,0,0,0,0,0,0,0,0,0,-1,664,442,0,0
-553,582,0,0,0,0,0,0,0,0,0,-1,671,442,0,0
-546,582,0,0,0,0,0,0,0,0,0,-1,678,442,0,0
-539,582,0,0,0,0,0,0,0,0,0,-1,685,442,0,0
-532,582,0,0,0,0,0,0,0,0,0,-1,692,442,0,0
-525,582,0,0,0,0,0,0,0,0,0,-1,699,442,0,0
-518,582,0,0,0,0,0,0,0,0,0,-1,706,442,0,0
-511,582,0,0,0,0,0,0,0,0,0,-1,713,442,0,0
-504,582,0,0,0,0,0,0,0,0,0,-1,720,442,0,0
-497,582,0,0,0,0,0,0,0,0,0,-1,727,442,0,0
-490,582,0,0,0,0,0,0,0,0,0,-1,734,442,0,0
-483,582,0,0,0,0,0,0,0,0,0,-1,741,442,0,0
-476,582,0,0,0,0,0,0,0,0,0,-1,748,442,0,0
-469,582,0,0,0,0,0,0,0,0,0,-1,755,442,0,0
-462,582,0,0,0,0,0,0,0,0,0,-1,762,442,0,0
-455,582,0,0,0,0,0,0,0,0,0,-1,769,442,0,0
-448,582,0,0,0,0,0,0,0,0,0,-1,776,442,0,0
-441,582,0,0,0,0,0,0,0,0,0,-1,783,442,0,0
-434,582,0,0,0,0,0,0,0,0,0,-1,790,442,0,0
-427,582,0,0,0,0,0,0,0,0,0,-1,797,442,0,0
-420,582,0,0,0,0,0,0,0,0,0,-1,804,442,0,0
-413,582,0,0,0,0,0,0,0,0,0,-1,811,442,0,0
-406,582,0,0,0,0,0,0,0,0,0,-1,818,442,0,0
-399,582,0,0,0,0,0,0,0,0,0,-1,825,442,0,0
-392,582,0,0,0,0,0,0,0,0,0,-1,832,442,0,0
-385,582,0,0,0,0,0,0,0,0,0,-1,839,442,0,0
-378,582,0,0,0,0,0,0,0,0,0,-1,846,442,0,0
-371,582,0,0,0,0,0,0,0,0,0,-1,853,442,0,0
-364,582,0,0,0,0,0,0,0,0,0,-1,860,442,0,0
-357,582,-1.4903,-21.5295,0,0,0,0,0,0,0,-1,867,442,-1.49031,21.5295
-350,582,-0.880859,-19.7966,0,0,0,0,0,0,0,-1,874,442,-0.880885,19.7966
-343,582,-0.208557,-18.0078,0,0,0,0,0,0,0,-1,881,442,-0.208576,18.0078
-336,582,-0.167114,-18.7637,0,0,0,0,0,0,0,-1,888,442,-0.167108,18.7637
-329,582,5.38007,-19.6819,0,0,0,0,0,0,0,-1,895,442,5.38008,19.6819
-322,582,1.64917,-20.9464,0,0,0,0,0,0,0,-1,902,442,1.64919,20.9464
-315,582,2.15118,-21.6209,0,0,0,0,0,0,0,-1,909,442,2.1512,21.621
-308,582,2.66333,-22.3046,0.0289402,0.0166491,-0.0183357,0.0421329,0.00345643,-0.623697,0.0270103,0.0496278,916,442,2.66333,22.3046
-301,582,3.14294,-22.9717,0.0250564,0.0147401,-0.0168814,0.0375501,0.00224638,-0.637126,0.0243192,0.0465076,923,442,3.14294,22.9718
-294,582,0.767761,-23.5356,0,0,0,0,0,0,0,-1,930,442,0.767785,23.5356
-287,582,2.69946,-23.8297,0.0166056,0.0121668,-0.0132945,0.0278647,0.000907637,-0.70269,0.0182814,0.0378707,937,442,2.69944,23.8298
-280,582,2.76544,-24.3512,0.013037,0.0115238,-0.0118325,0.0241371,0.000423728,-0.753471,0.015952,0.0181925,944,442,2.76541,24.3512
-273,582,2.76019,-24.9133,0.00990607,0.0108458,-0.0103654,0.0207519,-9.40636e-08,-0.808047,0.0138346,0.0109022,951,442,2.76019,24.9133
-266,582,2.7229,-25.4321,0.00726252,0.0101833,-0.00891957,0.0177612,-0.000315422,-0.866542,0.0119474,0.0106862,958,442,2.7229,25.4321
-259,582,2.69263,-25.936,0.00520788,0.00909875,-0.00747695,0.0148792,-0.000572585,-0.912672,0.0101157,0.00898147,965,442,2.6926,25.936
-252,582,2.67224,-26.4317,0.00315798,0.00843065,-0.00618956,0.0125219,-0.000933304,-0.986728,0.00867581,0.00831744,972,442,2.67225,26.4317
-245,582,2.67371,-26.8752,0.00187689,0.0076754,-0.00515989,0.0106948,-0.00114248,-1.04136,0.00753958,0.0118358,979,442,2.67371,26.8752
-238,582,2.6546,-27.3227,0.00141234,0.0065754,-0.00406002,0.00880512,-0.000817374,-1.06858,0.00616064,0.0159651,986,442,2.65463,27.3227
-231,582,2.61609,-27.7732,0.00078145,0.00529521,-0.00281133,0.00664347,-0.000566817,-1.12361,0.0046295,0.01277,993,442,2.61609,27.7732
-224,582,2.59772,-28.2392,0.000527667,0.00394874,-0.00189878,0.00479384,-0.000317435,-1.15204,0.00330679,0.0102865,1000,442,2.59773,28.2392
-217,582,2.58521,-28.689,0.000529325,0.00249958,-0.00104798,0.00295277,7.61418e-05,-1.16265,0.00194363,0.011912,1007,442,2.58519,28.689
-210,582,2.59174,-29.1044,0.000596917,0.000923051,-0.000180799,0.00100346,0.000516511,-1.15234,0.00057943,0.0123733,1014,442,2.59173,29.1044
-203,582,2.5882,-29.535,0.000660233,-0.000807683,0.000753562,0.000978202,-0.00112565,0.399288,0.00121565,0.0105995,1021,442,2.5882,29.535
-196,582,2.55896,-29.9513,0.000705555,-0.00230507,0.00153469,0.00134995,-0.00294946,0.397531,0.00253888,0.0153483,1028,442,2.55891,29.9513
-189,582,2.55664,-30.3577,0.000795499,-0.00378052,0.00234513,0.00178386,-0.00476889,0.398863,0.00391189,0.0217868,1035,442,2.5567,30.3577
-182,582,2.56323,-30.7683,0.000910155,-0.00556202,0.00329776,0.0022944,-0.00694626,0.397418,0.00555587,0.0164563,1042,442,2.56326,30.7683
-175,582,2.56116,-31.1183,0.00100372,-0.00757705,0.00435595,0.00282739,-0.00940073,0.39649,0.00739211,0.0138099,1049,442,2.56118,31.1183
-168,582,2.55713,-31.5175,0.00108177,-0.00942267,0.00527407,0.00327277,-0.0116137,0.393737,0.00903321,0.0115657,1056,442,2.55713,31.5175
-161,582,2.58289,-31.8866,0.00111479,-0.0112149,0.00614838,0.00365672,-0.0137569,0.39203,0.0106025,0.0133676,1063,442,2.58292,31.8866
-154,582,2.59888,-32.2447,0.00119639,-0.0129237,0.00699413,0.00407426,-0.0158016,0.390354,0.0121229,0.0134867,1070,442,2.59888,32.2447
-147,582,2.61011,-32.6042,0.00128849,-0.0146102,0.00780607,0.00448036,-0.0178021,0.388152,0.0136096,0.0129601,1077,442,2.61009,32.6042
-140,582,2.61804,-32.9316,0.00135291,-0.0162527,0.00849448,0.00478308,-0.0196829,0.383788,0.0149731,0.013316,1084,442,2.61802,32.9316
-133,582,2.65515,-33.2526,0.00138817,-0.0176678,0.00906504,0.00501151,-0.0212912,0.380252,0.0161263,0.0160145,1091,442,2.6551,33.2526
-126,582,2.68726,-33.5106,0.00152757,-0.0187075,0.00938071,0.00520722,-0.0223872,0.373814,0.0169296,0.0151462,1098,442,2.68725,33.5106
-119,582,2.63989,-33.7329,0.00173493,-0.019347,0.00944965,0.00535052,-0.0229626,0.365431,0.0173688,0.0201849,1105,442,2.63995,33.7329
-112,582,2.5896,-34.1161,0.00191337,-0.0194828,0.00917272,0.0053074,-0.0228768,0.354392,0.017294,0.0300178,1112,442,2.58961,34.1161
-105,582,2.66064,-34.6629,0,0,0,0,0,0,0,-1,1119,442,2.66062,34.6629
-98,582,2.61938,-32.8673,0,0,0,0,0,0,0,-1,1126,442,2.61944,32.8673
-91,582,2.16492,-24.1119,0,0,0,0,0,0,0,-1,1133,442,2.16496,24.1119
-84,582,2.10278,-16.7533,0,0,0,0,0,0,0,-1,1140,442,2.10279,16.7533
-77,582,2.30212,-11.4907,0,0,0,0,0,0,0,-1,1147,442,2.30207,11.4907
-70,582,1.49255,-6.36548,0,0,0,0,0,0,0,-1,1154,442,1.49251,6.36549
-63,582,-4.62915,-4.0347,0,0,0,0,0,0,0,-1,1161,442,-4.6292,4.03471
-56,582,-5.81714,-5.24149,0,0,0,0,0,0,0,-1,1168,442,-5.81718,5.24149
-49,582,-3.88672,-10.1064,0,0,0,0,0,0,0,-1,1175,442,-3.88678,10.1064
-42,582,-0.948975,1.13968,0,0,0,0,0,0,0,-1,1182,442,-0.949003,-1.13969
-35,582,-2.58435,-3.86911,0,0,0,0,0,0,0,-1,1189,442,-2.58437,3.86912
-28,582,-0.825317,-3.45941,0,0,0,0,0,0,0,-1,1196,442,-0.825377,3.45942
-21,582,2.94421,-35.6796,0,0,0,0,0,0,0,-1,1203,442,2.94423,35.6796
-14,582,3.13745,-36.3573,0,0,0,0,0,0,0,-1,1210,442,3.13748,36.3573
-7,582,2.96167,-36.4297,0,0,0,0,0,0,0,-1,1217,442,2.96166,36.4297
0,582,2.4231,-36.5092,0,0,0,0,0,0,0,-1,1224,442,2.42304,36.5092
7,582,3.17468,-37.0164,0,0,0,0,0,0,0,-1,1231,442,3.17473,37.0164
14,582,3.3241,-36.488,0,0,0,0,0,0,0,-1,1238,442,3.32407,36.488
21,582,3.5166,-36.2278,0,0,0,0,0,0,0,-1,1245,442,3.51666,36.2278
28,582,9.36011,-37.3895,-0.0618489,0.062009,0.0183499,0.0646704,-0.0645103,1.42676,0.0745825,0.0416737,1252,442,9.36006,37.3895
35,582,8.24683,-37.782,-0.0693578,0.0643973,0.0207264,0.0675354,-0.0724959,1.42053,0.080864,0.0444384,1259,442,8.24681,37.782
42,582,6.87268,-38.2677,-0.0755762,0.0647662,0.0232145,0.0685065,-0.0793165,1.41105,0.0854217,0.0448847,1266,442,6.87268,38.2677
49,582,5.51697,-40.1858,0,0,0,0,0,0,0,-1,1273,442,5.51691,40.1858
56,582,4.78992,-37.5923,-0.0842246,0.0613446,0.0287618,0.0668213,-0.0897014,1.38263,0.0906897,0.0423855,1280,442,4.78998,37.5923
63,582,3.9519,-36.6188,-0.0885794,0.0587038,0.0326752,0.0656274,-0.095503,1.36199,0.0935602,0.0413063,1287,442,3.95194,36.6188
70,582,3.68347,-37.1586,-0.0926686,0.055132,0.0364905,0.0636502,-0.101187,1.34147,0.0959877,0.0448087,1294,442,3.68348,37.1586
77,582,3.35315,-37.4983,-0.0943698,0.0500086,0.0398279,0.0602666,-0.104628,1.31872,0.0963434,0.0438184,1301,442,3.3531,37.4982
84,582,2.46204,-37.1595,-0.0926909,0.0415059,0.0420047,0.0535693,-0.104754,1.29113,0.0929869,0.0429243,1308,442,2.46208,37.1595
91,582,1.34131,-36.6612,-0.0885651,0.0320643,0.0432848,0.0459887,-0.102489,1.25956,0.0877684,0.0438347,1315,442,1.34135,36.6612
98,582,0.467163,-36.627,-0.0828974,0.0227019,0.0448292,0.0391659,-0.0993615,1.21883,0.0824574,0.0447833,1322,442,0.467172,36.627
105,582,-0.261719,-36.7819,-0.0727795,0.0150716,0.0466924,0.0352524,-0.0929604,1.16284,0.0764822,0.0429583,1329,442,-0.261692,36.7819
112,582,-1.68433,-36.5051,-0.061002,0.00714379,0.0481189,0.0320319,-0.08589,1.09347,0.0704095,0.040205,1336,442,-1.68433,36.5051
119,582,-2.84827,-35.8842,-0.0485236,-0.00128198,0.0486095,0.0291419,-0.0789474,1.01156,0.0645759,0.0416138,1343,442,-2.84822,35.8842
126,582,-3.97791,-35.3633,0,0,0,0,0,0,0,-1,1350,442,-3.97793,35.3634
133,582,-5.11572,-34.8787,0,0,0,0,0,0,0,-1,1357,442,-5.11572,34.8787
140,582,-3.52991,-37.774,0,0,0,0,0,0,0,-1,1364,442,-3.52993,37.774
147,582,-2.62756,-36.4707,0,0,0,0,0,0,0,-1,1371,442,-2.62753,36.4707
154,582,-1.8269,-36.09,0,0,0,0,0,0,0,-1,1378,442,-1.82695,36.09
161,582,-2.02856,-35.4669,0,0,0,0,0,0,0,-1,1385,442,-2.02858,35.4669
168,582,7.16553,-31.7727,0,0,0,0,0,0,0,-1,1392,442,7.1655,31.7727
175,582,6.50549,-2.00424,0,0,0,0,0,0,0,-1,1399,442,6.50546,2.00425
182,582,5.18958,-2.18652,0,0,0,0,0,0,0,-1,1406,442,5.1896,2.18652
189,582,6.19751,-0.880951,0,0,0,0,0,0,0,-1,1413,442,6.19754,0.88096
196,582,4.87354,-2.22327,0,0,0,0,0,0,0,-1,1420,442,4.87348,2.22325
203,582,3.11401,-4.48257,0,0,0,0,0,0,0,-1,1427,442,3.11404,4.48259
210,582,2.93115,-11.0731,0,0,0,0,0,0,0,-1,1434,442,2.93113,11.0731
217,582,4.94092,-16.5476,0,0,0,0,0,0,0,-1,1441,442,4.94087,16.5476
224,582,5.21008,-20.9908,0,0,0,0,0,0,0,-1,1448,442,5.21006,20.9908
231,582,5.70032,-25.622,0,0,0,0,0,0,0,-1,1455,442,5.70026,25.6221
238,582,6.44189,-30.7028,0,0,0,0,0,0,0,-1,1462,442,6.44195,30.7028
245,582,7.45862,-33.7057,0,0,0,0,0,0,0,-1,1469,442,7.45862,33.7057
252,582,7.32971,-33.2647,0.00379287,0.000855991,-0.00109803,0.004158,0.000490861,-0.32103,0.00262373,0.0365017,1476,442,7.32975,33.2647
259,582,7.26367,-32.8705,0.00358244,-0.000279129,-0.00109316,0.00387043,-0.000567111,-0.257588,0.00278861,0.0243888,1483,442,7.26371,32.8705
266,582,7.28723,-32.4803,0.0034649,-0.00108615,-0.0010468,0.00369413,-0.00131538,-0.21558,0.00299896,0.0173873,1490,442,7.28723,32.4802
273,582,7.33301,-32.1008,0.00331573,-0.00161161,-0.000979385,0.00350326,-0.00179914,-0.189188,0.0031136,0.0145352,1497,442,7.33296,32.1008
280,582,7.35608,-31.7091,0.00310128,-0.00227253,-0.000921691,0.00325497,-0.00242621,-0.165226,0.00329165,0.0120553,1504,442,7.35602,31.7091
287,582,7.38037,-31.2995,0.00290925,-0.00258966,-0.000832703,0.00303258,-0.00271299,-0.14704,0.00331892,0.011425,1511,442,7.38034,31.2995
294,582,7.37866,-30.8873,0.00265823,-0.00244034,-0.000702947,0.00275337,-0.00253548,-0.134528,0.00305438,0.00957266,1518,442,7.37866,30.8873
301,582,7.39001,-30.463,0.0023786,-0.0021335,-0.000521936,0.00243819,-0.00219309,-0.113675,0.00267512,0.0102783,1525,442,7.39007,30.463
308,582,7.39124,-30.0554,0.00211879,-0.00187408,-0.000352432,0.00214965,-0.00190495,-0.0873653,0.00234235,0.0126615,1532,442,7.39118,30.0553
315,582,7.38281,-29.632,0.00173187,-0.00132924,-0.000211628,0.00174643,-0.0013438,-0.0686987,0.00178919,0.0131888,1539,442,7.38285,29.632
322,582,7.37671,-29.1888,0.00132163,-0.000623805,2.79847e-05,0.00132203,-0.000624208,0.0143808,0.00114748,0.010414,1546,442,7.37672,29.1888
329,582,7.36682,-28.7608,0.00095177,9.85414e-05,0.000309844,0.00105242,-2.10456e-06,0.314076,0.000702313,0.010127,1553,442,7.36682,28.7608
336,582,7.36536,-28.3237,0.000598542,0.000791376,0.000593328,0.00129607,9.38482e-05,0.865945,0.000834525,0.0104299,1560,442,7.36537,28.3237
343,582,7.34216,-27.8537,0.00027096,0.00150107,0.000896722,0.0019734,-0.000201369,1.086,0.0013876,0.0131304,1567,442,7.34217,27.8537
350,582,7.34009,-27.4034,5.30976e-05,0.00240927,0.0013083,0.00299174,-0.000529366,1.15194,0.00219235,0.0158358,1574,442,7.34003,27.4034
357,582,7.34741,-26.9168,-0.000121398,0.00323792,0.00175738,0.00398924,-0.000872718,1.16679,0.00299311,0.0126364,1581,442,7.34736,26.9168
364,582,7.33704,-26.4331,-0.000293503,0.00395588,0.00219657,0.00488721,-0.00122483,1.16978,0.00373399,0.00970313,1588,442,7.33698,26.4331
371,582,7.30347,-25.9609,-0.00040896,0.00481508,0.00268124,0.00594627,-0.00154016,1.17156,0.00456501,0.013292,1595,442,7.30341,25.9609
378,582,7.26697,-25.4798,-0.000478893,0.00577088,0.00306794,0.00702516,-0.00173318,1.1827,0.00535548,0.0148481,1602,442,7.26695,25.4798
385,582,7.24487,-24.9902,-0.000316011,0.00715098,0.00338649,0.00845805,-0.00162308,1.20245,0.00625037,0.0116628,1609,442,7.24484,24.9902
392,582,7.20435,-24.4682,0.000912888,0.00828959,0.00411903,0.0101303,-0.000927804,1.15054,0.00708307,0.0102698,1616,442,7.2043,24.4682
399,582,7.1814,-23.9725,0.00374017,0.0100999,0.00595605,0.0136718,0.000168287,1.03059,0.00905895,0.0190398,1623,442,7.18145,23.9725
406,582,7.20203,-23.3455,0.00590166,0.0119464,0.00733414,0.0168565,0.000991542,0.980843,0.0109222,0.0353195,1630,442,7.20197,23.3454
413,582,7.22791,-22.6941,0,0,0,0,0,0,0,-1,1637,442,7.22787,22.6941
420,582,6.98376,-22.3341,0,0,0,0,0,0,0,-1,1644,442,6.98371,22.3341
427,582,6.78833,-21.7704,0.0161994,0.0189378,0.00861845,0.0262952,0.00884208,0.864174,0.0154505,0.0445689,1651,442,6.78838,21.7704
434,582,6.76892,-21.0207,0.0213146,0.0219007,0.00913141,0.0307438,0.0124715,0.801438,0.0178549,0.0487802,1658,442,6.76888,21.0207
441,582,6.72107,-20.4826,0,0,0,0,0,0,0,-1,1665,442,6.72106,20.4826
448,582,8.14343,-19.6792,0,0,0,0,0,0,0,-1,1672,442,8.14345,19.6792
455,582,5.93567,-16.3171,0,0,0,0,0,0,0,-1,1679,442,5.93569,16.3171
462,582,6.7699,-17.5673,0,0,0,0,0,0,0,-1,1686,442,6.76989,17.5673
469,582,5.39514,-18.6656,0,0,0,0,0,0,0,-1,1693,442,5.39513,18.6656
476,582,1.93579,-8.53891,0,0,0,0,0,0,0,-1,1700,442,1.93579,8.53892
483,582,0,0,0,0,0,0,0,0,0,-1,1707,442,0,0
490,582,0,0,0,0,0,0,0,0,0,-1,1714,442,0,0
497,582,0,0,0,0,0,0,0,0,0,-1,1721,442,0,0
504,582,0,0,0,0,0,0,0,0,0,-1,1728,442,0,0
511,582,0,0,0,0,0,0,0,0,0,-1,1735,442,0,0
518,582,0,0,0,0,0,0,0,0,0,-1,1742,442,0,0
525,582,0,0,0,0,0,0,0,0,0,-1,1749,442,0,0
532,582,0,0,0,0,0,0,0,0,0,-1,1756,442,0,0
539,582,0,0,0,0,0,0,0,0,0,-1,1763,442,0,0
546,582,0,0,0,0,0,0,0,0,0,-1,1770,442,0,0
553,582,0,0,0,0,0,0,0,0,0,-1,1777,442,0,0
560,582,0,0,0,0,0,0,0,0,0,-1,1784,442,0,0
567,582,0,0,0,0,0,0,0,0,0,-1,1791,442,0,0
574,582,0,0,0,0,0,0,0,0,0,-1,1798,442,0,0
581,582,0,0,0,0,0,0,0,0,0,-1,1805,442,0,0
588,582,0,0,0,0,0,0,0,0,0,-1,1812,442,0,0
595,582,0,0,0,0,0,0,0,0,0,-1,1819,442,0,0
602,582,0,0,0,0,0,0,0,0,0,-1,1826,442,0,0
609,582,0,0,0,0,0,0,0,0,0,-1,1833,442,0,0
616,582,0,0,0,0,0,0,0,0,0,-1,1840,442,0,0
623,582,0,0,0,0,0,0,0,0,0,-1,1847,442,0,0
630,582,0,0,0,0,0,0,0,0,0,-1,1854,442,0,0
637,582,0,0,0,0,0,0,0,0,0,-1,1861,442,0,0
644,582,0,0,0,0,0,0,0,0,0,-1,1868,442,0,0
651,582,0,0,0,0,0,0,0,0,0,-1,1875,442,0,0
658,582,0,0,0,0,0,0,0,0,0,-1,1882,442,0,0
665,582,0,0,0,0,0,0,0,0,0,-1,1889,442,0,0
672,582,0,0,0,0,0,0,0,0,0,-1,1896,442,0,0
679,582,0,0,0,0,0,0,0,0,0,-1,1903,442,0,0
686,582,0,0,0,0,0,0,0,0,0,-1,1910,442,0,0
693,582,0,0,0,0,0,0,0,0,0,-1,1917,442,0,0
700,582,0,0,0,0,0,0,0,0,0,-1,1924,442,0,0
707,582,0,0,0,0,0,0,0,0,0,-1,1931,442,0,0
714,582,0,0,0,0,0,0,0,0,0,-1,1938,442,0,0
721,582,0,0,0,0,0,0,0,0,0,-1,1945,442,0,0
728,582,0,0,0,0,0,0,0,0,0,-1,1952,442,0,0
735,582,0,0,0,0,0,0,0,0,0,-1,1959,442,0,0
742,582,0,0,0,0,0,0,0,0,0,-1,1966,442,0,0
749,582,0,0,0,0,0,0,0,0,0,-1,1973,442,0,0
756,582,0,0,0,0,0,0,0,0,0,-1,1980,442,0,0
763,582,0,0,0,0,0,0,0,0,0,-1,1987,442,0,0
770,582,0,0,0,0,0,0,0,0,0,-1,1994,442,0,0
777,582,0,0,0,0,0,0,0,0,0,-1,2001,442,0,0
784,582,0,0,0,0,0,0,0,0,0,-1,2008,442,0,0
791,582,0,0,0,0,0,0,0,0,0,-1,2015,442,0,0
798,582,0,0,0,0,0,0,0,0,0,-1,2022,442,0,0
805,582,0,0,0,0,0,0,0,0,0,-1,2029,442,0,0
812,582,0,0,0,0,0,0,0,0,0,-1,2036,442,0,0
-700,575,0,0,0,0,0,0,0,0,0,-1,524,449,0,0
-693,575,0,0,0,0,0,0,0,0,0,-1,531,449,0,0
-686,575,0,0,0,0,0,0,0,0,0,-1,538,449,0,0
-679,575,0,0,0,0,0,0,0,0,0,-1,545,449,0,0
-672,575,0,0,0,0,0,0,0,0,0,-1,552,449,0,0
-665,575,0,0,0,0,0,0,0,0,0,-1,559,449,0,0
-658,575,0,0,0,0,0,0,0,0,0,-1,566,449,0,0
-651,575,0,0,0,0,0,0,0,0,0,-1,573,449,0,0
-644,575,0,0,0,0,0,0,0,0,0,-1,580,449,0,0
-637,575,0,0,0,0,0,0,0,0,0,-1,587,449,0,0
-630,575,0,0,0,0,0,0,0,0,0,-1,594,449,0,0
-623,575,0,0,0,0,0,0,0,0,0,-1,601,449,0,0
-616,575,0,0,0,0,0,0,0,0,0,-1,608,449,0,0
-609,575,0,0,0,0,0,0,0,0,0,-1,615,449,0,0
-602,575,0,0,0,0,0,0,0,0,0,-1,622,449,0,0
-595,575,0,0,0,0,0,0,0,0,0,-1,629,449,0,0
-588,575,0,0,0,0,0,0,0,0,0,-1,636,449,0,0
-581,575,0,0,0,0,0,0,0,0,0,-1,643,449,0,0
-574,575,0,0,0,0,0,0,0,0,0,-1,650,449,0,0
-567,575,0,0,0,0,0,0,0,0,0,-1,657,449,0,0
-560,575,0,0,0,0,0,0,0,0,0,-1,664,449,0,0
-553,575,0,0,0,0,0,0,0,0,0,-1,671,449,0,0
-546,575,0,0,0,0,0,0,0,0,0,-1,678,449,0,0
-539,575,0,0,0,0,0,0,0,0,0,-1,685,449,0,0
-532,575,0,0,0,0,0,0,0,0,0,-1,692,449,0,0
-525,575,0,0,0,0,0,0,0,0,0,-1,699,449,0,0
-518,575,0,0,0,0,0,0,0,0,0,-1,706,449,0,0
-511,575,0,0,0,0,0,0,0,0,0,-1,713,449,0,0
-504,575,0,0,0,0,0,0,0,0,0,-1,720,449,0,0
-497,575,0,0,0,0,0,0,0,0,0,-1,727,449,0,0
-490,575,0,0,0,0,0,0,0,0,0,-1,734,449,0,0
-483,575,0,0,0,0,0,0,0,0,0,-1,741,449,0,0
-476,575,0,0,0,0,0,0,0,0,0,-1,748,449,0,0
-469,575,0,0,0,0,0,0,0,0,0,-1,755,449,0,0
-462,575,0,0,0,0,0,0,0,0,0,-1,762,449,0,0
-455,575,0,0,0,0,0,0,0,0,0,-1,769,449,0,0
-448,575,0,0,0,0,0,0,0,0,0,-1,776,449,0,0
-441,575,0,0,0,0,0,0,0,0,0,-1,783,449,0,0
-434,575,0,0,0,0,0,0,0,0,0,-1,790,449,0,0
-427,575,0,0,0,0,0,0,0,0,0,-1,797,449,0,0
-420,575,0,0,0,0,0,0,0,0,0,-1,804,449,0,0
-413,575,0,0,0,0,0,0,0,0,0,-1,811,449,0,0
-406,575,0,0,0,0,0,0,0,0,0,-1,818,449,0,0
-399,575,0,0,0,0,0,0,0,0,0,-1,825,449,0,0
-392,575,0,0,0,0,0,0,0,0,0,-1,832,449,0,0
-385,575,0,0,0,0,0,0,0,0,0,-1,839,449,0,0
-378,575,0,0,0,0,0,0,0,0,0,-1,846,449,0,0
-371,575,0.56897,-3.52304,0,0,0,0,0,0,0,-1,853,449,0.568955,3.52306
-364,575,1.49805,-4.67191,0,0,0,0,0,0,0,-1,860,449,1.49803,4.6719
-357,575,3.15521,-8.29892,0,0,0,0,0,0,0,-1,867,449,3.15521,8.29891
-350,575,-0.825928,-18.5347,0,0,0,0,0,0,0,-1,874,449,-0.825948,18.5347
-343,575,0.465393,-16.3569,0,0,0,0,0,0,0,-1,881,449,0.465397,16.3569
-336,575,3.1994,-17.5725,0,0,0,0,0,0,0,-1,888,449,3.19941,17.5725
-329,575,4.0556,-19.0708,0,0,0,0,0,0,0,-1,895,449,4.05558,19.0708
-322,575,2.24902,-19.8683,0,0,0,0,0,0,0,-1,902,449,2.24903,19.8683
-315,575,2.47186,-20.9627,0,0,0,0,0,0,0,-1,909,449,2.47187,20.9627
-308,575,2.11127,-22.3382,0.0193455,0.0141929,-0.0144572,0.0314541,0.00208428,-0.697223,0.0203103,0.0454951,916,449,2.11127,22.3382
-301,575,2.48419,-22.903,0.0170311,0.0122823,-0.0132205,0.0280887,0.00122473,-0.696545,0.0183312,0.0349735,923,449,2.4842,22.903
-294,575,2.41589,-23.3847,0.0143552,0.010784,-0.0117159,0.0244208,0.000718446,-0.709777,0.0160464,0.0252396,930,449,2.41588,23.3847
-287,575,2.33771,-23.9362,0.0117119,0.0095971,-0.0102735,0.0209822,0.000326731,-0.734117,0.0138805,0.0185533,937,449,2.33774,23.9362
-280,575,2.3241,-24.4404,0.00935343,0.00881416,-0.00905902,0.0181468,2.07666e-05,-0.770521,0.012091,0.0142576,944,449,2.32411,24.4404
-273,575,2.31573,-24.9658,0.0072063,0.00805362,-0.00783801,0.0154794,-0.000219493,-0.812398,0.0103935,0.0114454,951,449,2.31573,24.9658
-266,575,2.30597,-25.4604,0.00536763,0.00729987,-0.00661574,0.0130197,-0.000352163,-0.857902,0.00879951,0.013066,958,449,2.30595,25.4605
-259,575,2.25867,-25.941,0.003931,0.00614206,-0.00534897,0.0104986,-0.000425497,-0.887304,0.0071451,0.0127011,965,449,2.25868,25.941
-252,575,2.2027,-26.4068,0.00243602,0.00529948,-0.00418115,0.00828724,-0.000551739,-0.950354,0.00571762,0.0110612,972,449,2.20268,26.4068
-245,575,2.18286,-26.8561,0.00154155,0.0043762,-0.00321876,0.00647586,-0.000558116,-0.992791,0.00451479,0.0148307,979,449,2.18285,26.8561
-238,575,2.17987,-27.3073,0.00128837,0.00310205,-0.00217687,0.00455342,-0.000162996,-0.982757,0.00309138,0.0148948,986,449,2.17985,27.3073
-231,575,2.19165,-27.7508,0.000898574,0.00167933,-0.00102847,0.00238901,0.00018889,-0.966785,0.00153359,0.01241,993,449,2.19166,27.7508
-224,575,2.17285,-28.2014,0.000768343,0.000171995,-0.000105417,0.000786429,0.000153909,-0.169914,0.000481258,0.0115981,1000,449,2.17284,28.2014
-217,575,2.16064,-28.6473,0.000817389,-0.0013948,0.0007971,0.00107468,-0.00165209,0.312223,0.00158602,0.00988151,1007,449,2.16065,28.6473
-210,575,2.1756,-29.0919,0.000939993,-0.00309378,0.00176065,0.00160036,-0.00375415,0.358835,0.0031737,0.00874632,1014,449,2.17561,29.0919
-203,575,2.17578,-29.5213,0.00109231,-0.00491725,0.00276774,0.00217275,-0.00599769,0.372179,0.00488648,0.012222,1021,449,2.17576,29.5213
-196,575,2.14905,-29.922,0.00117896,-0.00649162,0.00361279,0.00261261,-0.00792527,0.377767,0.00633653,0.0154775,1028,449,2.14904,29.922
-189,575,2.13562,-30.3299,0.00126513,-0.00803844,0.00456619,0.00313171,-0.00990502,0.388056,0.0078581,0.0159836,1035,449,2.13558,30.3299
-182,575,2.15222,-30.7297,0.00137054,-0.00996995,0.0056833,0.00372847,-0.0123279,0.393274,0.0097032,0.0154757,1042,449,2.15222,30.7297
-175,575,2.17261,-31.0967,0.00145518,-0.0121425,0.00690672,0.00434793,-0.0150353,0.396634,0.0117442,0.0129402,1049,449,2.17259,31.0967
-168,575,2.14697,-31.4808,0.00151903,-0.0141418,0.00798533,0.00487257,-0.0174954,0.397596,0.0135823,0.0110269,1056,449,2.14699,31.4808
-161,575,2.17285,-31.8514,0.00150954,-0.0161062,0.00903197,0.00531734,-0.019914,0.39898,0.0153584,0.0161633,1063,449,2.17279,31.8514
-154,575,2.20996,-32.1886,0.00153095,-0.0180475,0.0100572,0.00577656,-0.0222931,0.39945,0.0171157,0.0201573,1070,449,2.20995,32.1886
-147,575,2.23633,-32.4967,0.00155333,-0.0199951,0.0110821,0.00623541,-0.0246772,0.399743,0.0188764,0.0183125,1077,449,2.2363,32.4967
-140,575,2.19189,-32.7785,0.00149342,-0.0220789,0.0120114,0.00653545,-0.0271209,0.397432,0.0206075,0.0231863,1084,449,2.19187,32.7785
-133,575,2.23352,-32.9841,0.00135881,-0.0239505,0.0128179,0.00671637,-0.029308,0.395904,0.02212,0.0313243,1091,449,2.23347,32.9841
-126,575,2.26062,-32.9558,0.00136818,-0.0254852,0.0133317,0.00686262,-0.0309797,0.390923,0.0232803,0.0358645,1098,449,2.26056,32.9558
-119,575,2.40906,-33.4705,0,0,0,0,0,0,0,-1,1105,449,2.40911,33.4705
-112,575,2.19019,-33.9729,0,0,0,0,0,0,0,-1,1112,449,2.19015,33.9729
-105,575,1.97119,-34.4753,0,0,0,0,0,0,0,-1,1119,449,1.97119,34.4753
-98,575,1.521,-25.6961,0,0,0,0,0,0,0,-1,1126,449,1.52105,25.6961
-91,575,1.60803,-16.4247,0,0,0,0,0,0,0,-1,1133,449,1.60802,16.4247
-84,575,1.16553,-11.9056,0,0,0,0,0,0,0,-1,1140,449,1.16558,11.9056
-77,575,0.205078,-11.2584,0,0,0,0,0,0,0,-1,1147,449,0.205117,11.2584
-70,575,-4.2467,-1.78738,0,0,0,0,0,0,0,-1,1154,449,-4.24674,1.78739
-63,575,-4.52209,-3.48798,0,0,0,0,0,0,0,-1,1161,449,-4.5221,3.48796
-56,575,-5.5968,-5.4928,0,0,0,0,0,0,0,-1,1168,449,-5.59683,5.49281
-49,575,-5.96863,-7.17612,0,0,0,0,0,0,0,-1,1175,449,-5.96868,7.1761
-42,575,-0.830322,0.773499,0,0,0,0,0,0,0,-1,1182,449,-0.83038,-0.77351
-35,575,-0.62085,0.205139,0,0,0,0,0,0,0,-1,1189,449,-0.620855,-0.205126
-28,575,0.49292,-3.87988,0,0,0,0,0,0,0,-1,1196,449,0.492941,3.87989
-21,575,0.648438,-33.8834,0,0,0,0,0,0,0,-1,1203,449,0.648384,33.8834
-14,575,2.66138,-35.6288,0,0,0,0,0,0,0,-1,1210,449,2.66143,35.6288
-7,575,3.06824,-36.7841,0,0,0,0,0,0,0,-1,1217,449,3.06821,36.784
0,575,3.28967,-36.5562,0,0,0,0,0,0,0,-1,1224,449,3.28965,36.5562
7,575,3.5199,-36.2896,-0.0405364,0.0634681,0.0164538,0.066009,-0.0430774,1.41758,0.0634433,0.0450102,1231,449,3.51986,36.2895
14,575,3.75488,-36.0751,-0.0527259,0.071402,0.0189706,0.0742365,-0.0555604,1.42247,0.0751964,0.0431868,1238,449,3.75488,36.0751
21,575,3.98999,-35.8683,0,0,0,0,0,0,0,-1,1245,449,3.99001,35.8683
28,575,10.0978,-38.6043,-0.0738286,0.0819522,0.0238465,0.0855208,-0.0773972,1.42225,0.0940997,0.0456717,1252,449,10.0978,38.6043
35,575,8.32593,-38.1407,-0.0829686,0.0844099,0.026309,0.0884478,-0.0870065,1.4185,0.1013,0.040206,1259,449,8.32595,38.1407
42,575,7.12439,-38.4129,-0.0906312,0.0845756,0.0288358,0.0891994,-0.095255,1.4118,0.106514,0.0402175,1266,449,7.12435,38.4129
49,575,6.15881,-38.3951,-0.0966454,0.082876,0.0315374,0.0882551,-0.102025,1.40186,0.109954,0.0416565,1273,449,6.15883,38.3951
56,575,5.31738,-37.2935,-0.101757,0.0800144,0.0346686,0.0864022,-0.108144,1.38859,0.112555,0.0459889,1280,449,5.31735,37.2934
63,575,4.60779,-37.6047,-0.106966,0.0764977,0.0389326,0.0844177,-0.114886,1.37011,0.115515,0.0438403,1287,449,4.60775,37.6047
70,575,3.78882,-37.4532,-0.11158,0.0716878,0.0431626,0.0813445,-0.121237,1.35069,0.117714,0.0429134,1294,449,3.78888,37.4533
77,575,3.20178,-37.6045,-0.113204,0.0646853,0.0467835,0.0762386,-0.124757,1.32869,0.117167,0.0457099,1301,449,3.20181,37.6045
84,575,2.81531,-37.3043,-0.11041,0.0533558,0.0487197,0.0667537,-0.123808,1.30243,0.111652,0.0475215,1308,449,2.81527,37.3043
91,575,0.521484,-37.0445,-0.104487,0.0408718,0.0496034,0.0561855,-0.119801,1.27136,0.103795,0.0445108,1315,449,0.521532,37.0445
98,575,-0.48645,-36.8128,-0.0969929,0.0285311,0.0510967,0.0467008,-0.115163,1.22915,0.0961979,0.0437881,1322,449,-0.486451,36.8128
105,575,-1.2019,-36.4986,-0.0839505,0.0191392,0.0535702,0.0419357,-0.106747,1.16846,0.0885187,0.0415685,1329,449,-1.20189,36.4986
112,575,-1.94653,-36.2924,-0.0692069,0.00908885,0.055626,0.0379616,-0.0980797,1.09202,0.0810596,0.0389665,1336,449,-1.94659,36.2924
119,575,-3.01636,-35.8557,-0.054003,-0.00149414,0.0564575,0.0345149,-0.0900121,1.00304,0.0742375,0.0393041,1343,449,-3.01637,35.8557
126,575,-4.27795,-35.5646,0,0,0,0,0,0,0,-1,1350,449,-4.27801,35.5646
133,575,-4.35242,-36.4326,-0.0169712,-0.0191555,0.0560012,0.0379484,-0.0740752,0.775648,0.0657884,0.0467397,1357,449,-4.35237,36.4325
140,575,-3.98816,-36.5632,0.00309552,-0.0244316,0.0558572,0.0468599,-0.068196,0.664602,0.0668072,0.0452804,1364,449,-3.98818,36.5632
147,575,-3.40613,-36.1558,0.0214337,-0.0266677,0.0566215,0.0589008,-0.0641347,0.584563,0.071056,0.0480258,1371,449,-3.40607,36.1558
154,575,-3.0592,-35.6498,0.03695,-0.0265382,0.0582699,0.0715615,-0.0611498,0.535986,0.0766995,0.0448987,1378,449,-3.05918,35.6498
161,575,-2.7179,-35.1419,0,0,0,0,0,0,0,-1,1385,449,-2.71785,35.1419
168,575,7.5509,-35.3165,0,0,0,0,0,0,0,-1,1392,449,7.5509,35.3165
175,575,4.32617,1.93634,0,0,0,0,0,0,0,-1,1399,449,4.32612,-1.93634
182,575,6.3147,-2.88345,0,0,0,0,0,0,0,-1,1406,449,6.31466,2.88346
189,575,6.10449,-1.30817,0,0,0,0,0,0,0,-1,1413,449,6.10455,1.30817
196,575,5.79895,0.818359,0,0,0,0,0,0,0,-1,1420,449,5.79895,-0.81837
203,575,3.29724,-1.46378,0,0,0,0,0,0,0,-1,1427,449,3.29722,1.46377
210,575,2.32739,-7.74503,0,0,0,0,0,0,0,-1,1434,449,2.32741,7.74502
217,575,3.33618,-11.5521,0,0,0,0,0,0,0,-1,1441,449,3.3362,11.5521
224,575,5.51709,-16.3903,0,0,0,0,0,0,0,-1,1448,449,5.51713,16.3903
231,575,5.48572,-20.4595,0,0,0,0,0,0,0,-1,1455,449,5.48571,20.4595
238,575,5.33484,-22.3575,0,0,0,0,0,0,0,-1,1462,449,5.33478,22.3575
245,575,5.59741,-23.513,0,0,0,0,0,0,0,-1,1469,449,5.5974,23.513
252,575,7.72437,-33.5568,0,0,0,0,0,0,0,-1,1476,449,7.72435,33.5568
259,575,7.64551,-33.045,0,0,0,0,0,0,0,-1,1483,449,7.64553,33.045
266,575,7.65613,-32.5902,0,0,0,0,0,0,0,-1,1490,449,7.65607,32.5902
273,575,7.698,-32.1425,0,0,0,0,0,0,0,-1,1497,449,7.69794,32.1425
280,575,7.74597,-31.6901,0,0,0,0,0,0,0,-1,1504,449,7.74597,31.6901
287,575,7.72693,-31.3253,0.00393823,-0.00467995,-0.00147745,0.00418448,-0.00492621,-0.165154,0.00526587,0.0294952,1511,449,7.72694,31.3253
294,575,7.7937,-30.914,0.00360112,-0.0046134,-0.00147479,0.00385787,-0.00487015,-0.172366,0.0050504,0.0136673,1518,449,7.79371,30.914
301,575,7.81934,-30.4792,0.00322523,-0.00434538,-0.00137875,0.00346851,-0.00458866,-0.174651,0.00466677,0.0106178,1525,449,7.81937,30.4792
308,575,7.8291,-30.0509,0.00282772,-0.00418646,-0.00132131,0.00306837,-0.00442711,-0.180154,0.00435115,0.0112385,1532,449,7.82913,30.0509
315,575,7.82178,-29.6193,0.00223827,-0.00368804,-0.00132556,0.00252125,-0.00397102,-0.210323,0.00377934,0.0112937,1539,449,7.82175,29.6193
322,575,7.81946,-29.1851,0.00168345,-0.00293118,-0.00114235,0.00195075,-0.00319848,-0.22986,0.00300187,0.0100824,1546,449,7.81949,29.1851
329,575,7.80286,-28.7599,0.0012231,-0.00209018,-0.000879768,0.00144222,-0.00230929,-0.244091,0.00218513,0.0104516,1553,449,7.80284,28.7599
336,575,7.79517,-28.3206,0.000808288,-0.00126123,-0.00059421,0.000966764,-0.00141971,-0.260635,0.00138608,0.01179,1560,449,7.79514,28.3206
343,575,7.8158,-27.8464,0.000406708,-0.000442948,-0.000295269,0.000499241,-0.000535481,-0.303692,0.000597519,0.012203,1567,449,7.81585,27.8464
350,575,7.80273,-27.3785,0.000149507,0.000511796,0.000125029,0.000550755,0.000110548,1.26873,0.00033643,0.0112091,1574,449,7.80271,27.3785
357,575,7.79773,-26.9,-3.77371e-05,0.00146062,0.000578273,0.00165784,-0.000234956,1.24212,0.00119129,0.0101251,1581,449,7.79775,26.9
364,575,7.79114,-26.4255,-0.000173802,0.00226302,0.00106546,0.00266316,-0.000573952,1.21153,0.00199448,0.00959221,1588,449,7.79116,26.4255
371,575,7.7738,-25.9544,-0.000257752,0.00307825,0.0015685,0.00369988,-0.000879385,1.19346,0.00280603,0.0177142,1595,449,7.77384,25.9544
378,575,7.74463,-25.4737,-0.000293667,0.00394578,0.00198866,0.0047326,-0.00108049,1.19404,0.00357015,0.0178186,1602,449,7.74462,25.4737
385,575,7.71582,-24.979,-0.000140131,0.00516518,0.00235046,0.0060567,-0.00103166,1.20826,0.00442199,0.0117567,1609,449,7.71584,24.979
392,575,7.68677,-24.4843,0.00089383,0.00613216,0.00303701,0.00752342,-0.000497425,1.14123,0.00518937,0.00954903,1616,449,7.68682,24.4843
399,575,7.66394,-24.0061,0.00319923,0.00760082,0.00462865,0.0105252,0.000274805,1.00731,0.00692705,0.00977867,1623,449,7.6639,24.0061
406,575,7.64319,-23.4713,0.00489991,0.00908711,0.00580732,0.0131667,0.000820335,0.958402,0.00851752,0.0117882,1630,449,7.64318,23.4713
413,575,7.62622,-22.9239,0.00695756,0.0113201,0.00626992,0.0157774,0.00250033,0.952799,0.00979179,0.0147929,1637,449,7.62625,22.9239
420,575,7.56494,-22.3782,0.00957643,0.0132352,0.00648167,0.0181407,0.00467092,0.92294,0.0108764,0.0145613,1644,449,7.56489,22.3782
427,575,7.50232,-21.8021,0.012553,0.0147998,0.00687142,0.020639,0.00671376,0.866423,0.012156,0.0159486,1651,449,7.50232,21.8021
434,575,7.42468,-21.3307,0.016143,0.0171103,0.00723242,0.0238752,0.00937805,0.818787,0.0138896,0.0260017,1658,449,7.42471,21.3307
441,575,7.74231,-20.7547,0.0198034,0.0193771,0.00709205,0.0266855,0.012495,0.770377,0.0154173,0.0493179,1665,449,7.74237,20.7547
448,575,8.50952,-19.6648,0.0228797,0.0212748,0.00603893,0.0281692,0.0159852,0.719347,0.0163128,0.0433259,1672,449,8.50954,19.6648
455,575,8.90356,-18.6641,0,0,0,0,0,0,0,-1,1679,449,8.90359,18.6641
462,575,6.34302,-18.2018,0,0,0,0,0,0,0,-1,1686,449,6.34307,18.2019
469,575,6.33569,-18.4387,0,0,0,0,0,0,0,-1,1693,449,6.33565,18.4387
476,575,6.93799,-18.2911,0,0,0,0,0,0,0,-1,1700,449,6.93801,18.2911
483,575,6.96338,-17.7185,0,0,0,0,0,0,0,-1,1707,449,6.96341,17.7185
490,575,5.97229,-17.9191,0,0,0,0,0,0,0,-1,1714,449,5.97233,17.9191
497,575,0,0,0,0,0,0,0,0,0,-1,1721,449,0,0
504,575,0,0,0,0,0,0,0,0,0,-1,1728,449,0,0
511,575,0,0,0,0,0,0,0,0,0,-1,1735,449,0,0
518,575,0,0,0,0,0,0,0,0,0,-1,1742,449,0,0
525,575,0,0,0,0,0,0,0,0,0,-1,1749,449,0,0
532,575,0,0,0,0,0,0,0,0,0,-1,1756,449,0,0
539,575,0,0,0,0,0,0,0,0,0,-1,1763,449,0,0
546,575,0,0,0,0,0,0,0,0,0,-1,1770,449,0,0
553,575,0,0,0,0,0,0,0,0,0,-1,1777,449,0,0
560,575,0,0,0,0,0,0,0,0,0,-1,1784,449,0,0
567,575,0,0,0,0,0,0,0,0,0,-1,1791,449,0,0
574,575,0,0,0,0,0,0,0,0,0,-1,1798,449,0,0
581,575,0,0,0,0,0,0,0,0,0,-1,1805,449,0,0
588,575,0,0,0,0,0,0,0,0,0,-1,1812,449,0,0
595,575,0,0,0,0,0,0,0,0,0,-1,1819,449,0,0
602,575,0,0,0,0,0,0,0,0,0,-1,1826,449,0,0
609,575,0,0,0,0,0,0,0,0,0,-1,1833,449,0,0
616,575,0,0,0,0,0,0,0,0,0,-1,1840,449,0,0
623,575,0,0,0,0,0,0,0,0,0,-1,1847,449,0,0
630,575,0,0,0,0,0,0,0,0,0,-1,1854,449,0,0
637,575,0,0,0,0,0,0,0,0,0,-1,1861,449,0,0
644,575,0,0,0,0,0,0,0,0,0,-1,1868,449,0,0
651,575,0,0,0,0,0,0,0,0,0,-1,1875,449,0,0
658,575,0,0,0,0,0,0,0,0,0,-1,1882,449,0,0
665,575,0,0,0,0,0,0,0,0,0,-1,1889,449,0,0
672,575,0,0,0,0,0,0,0,0,0,-1,1896,449,0,0
679,575,0,0,0,0,0,0,0,0,0,-1,1903,449,0,0
686,575,0,0,0,0,0,0,0,0,0,-1,1910,449,0,0
693,575,0,0,0,0,0,0,0,0,0,-1,1917,449,0,0
700,575,0,0,0,0,0,0,0,0,0,-1,1924,449,0,0
707,575,0,0,0,0,0,0,0,0,0,-1,1931,449,0,0
714,575,0,0,0,0,0,0,0,0,0,-1,1938,449,0,0
721,575,0,0,0,0,0,0,0,0,0,-1,1945,449,0,0
728,575,0,0,0,0,0,0,0,0,0,-1,1952,449,0,0
735,575,0,0,0,0,0,0,0,0,0,-1,1959,449,0,0
742,575,0,0,0,0,0,0,0,0,0,-1,1966,449,0,0
749,575,0,0,0,0,0,0,0,0,0,-1,1973,449,0,0
756,575,0,0,0,0,0,0,0,0,0,-1,1980,449,0,0
763,575,0,0,0,0,0,0,0,0,0,-1,1987,449,0,0
770,575,0,0,0,0,0,0,0,0,0,-1,1994,449,0,0
777,575,0,0,0,0,0,0,0,0,0,-1,2001,449,0,0
784,575,0,0,0,0,0,0,0,0,0,-1,2008,449,0,0
791,575,0,0,0,0,0,0,0,0,0,-1,2015,449,0,0
798,575,0,0,0,0,0,0,0,0,0,-1,2022,449,0,0
805,575,0,0,0,0,0,0,0,0,0,-1,2029,449,0,0
812,575,0,0,0,0,0,0,0,0,0,-1,2036,449,0,0
-700,568,0,0,0,0,0,0,0,0,0,-1,524,456,0,0
-693,568,0,0,0,0,0,0,0,0,0,-1,531,456,0,0
-686,568,0,0,0,0,0,0,0,0,0,-1,538,456,0,0
-679,568,0,0,0,0,0,0,0,0,0,-1,545,456,0,0
-672,568,0,0,0,0,0,0,0,0,0,-1,552,456,0,0
-665,568,0,0,0,0,0,0,0,0,0,-1,559,456,0,0
-658,568,0,0,0,0,0,0,0,0,0,-1,566,456,0,0
-651,568,0,0,0,0,0,0,0,0,0,-1,573,456,0,0
-644,568,0,0,0,0,0,0,0,0,0,-1,580,456,0,0
-637,568,0,0,0,0,0,0,0,0,0,-1,587,456,0,0
-630,568,0,0,0,0,0,0,0,0,0,-1,594,456,0,0
-623,568,0,0,0,0,0,0,0,0,0,-1,601,456,0,0
-616,568,0,0,0,0,0,0,0,0,0,-1,608,456,0,0
-609,568,0,0,0,0,0,0,0,0,0,-1,615,456,0,0
-602,568,0,0,0,0,0,0,0,0,0,-1,622,456,0,0
-595,568,0,0,0,0,0,0,0,0,0,-1,629,456,0,0
-588,568,0,0,0,0,0,0,0,0,0,-1,636,456,0,0
-581,568,0,0,0,0,0,0,0,0,0,-1,643,456,0,0
-574,568,0,0,0,0,0,0,0,0,0,-1,650,456,0,0
-567,568,0,0,0,0,0,0,0,0,0,-1,657,456,0,0
-560,568,0,0,0,0,0,0,0,0,0,-1,664,456,0,0
-553,568,0,0,0,0,0,0,0,0,0,-1,671,456,0,0
-546,568,0,0,0,0,0,0,0,0,0,-1,678,456,0,0
-539,568,0,0,0,0,0,0,0,0,0,-1,685,456,0,0
-532,568,0,0,0,0,0,0,0,0,0,-1,692,456,0,0
-525,568,0,0,0,0,0,0,0,0,0,-1,699,456,0,0
-518,568,0,0,0,0,0,0,0,0,0,-1,706,456,0,0
-511,568,0,0,0,0,0,0,0,0,0,-1,713,456,0,0
-504,568,0,0,0,0,0,0,0,0,0,-1,720,456,0,0
-497,568,0,0,0,0,0,0,0,0,0,-1,727,456,0,0
-490,568,0,0,0,0,0,0,0,0,0,-1,734,456,0,0
-483,568,0,0,0,0,0,0,0,0,0,-1,741,456,0,0
-476,568,0,0,0,0,0,0,0,0,0,-1,748,456,0,0
-469,568,0,0,0,0,0,0,0,0,0,-1,755,456,0,0
-462,568,0,0,0,0,0,0,0,0,0,-1,762,456,0,0
-455,568,0,0,0,0,0,0,0,0,0,-1,769,456,0,0
-448,568,0,0,0,0,0,0,0,0,0,-1,776,456,0,0
-441,568,0,0,0,0,0,0,0,0,0,-1,783,456,0,0
-434,568,0,0,0,0,0,0,0,0,0,-1,790,456,0,0
-427,568,0,0,0,0,0,0,0,0,0,-1,797,456,0,0
-420,568,0,0,0,0,0,0,0,0,0,-1,804,456,0,0
-413,568,0,0,0,0,0,0,0,0,0,-1,811,456,0,0
-406,568,0,0,0,0,0,0,0,0,0,-1,818,456,0,0
-399,568,0,0,0,0,0,0,0,0,0,-1,825,456,0,0
-392,568,0,0,0,0,0,0,0,0,0,-1,832,456,0,0
-385,568,0,0,0,0,0,0,0,0,0,-1,839,456,0,0
-378,568,0.321777,-7.29929,0,0,0,0,0,0,0,-1,846,456,0.321806,7.29927
-371,568,1.09595,-7.46707,0,0,0,0,0,0,0,-1,853,456,1.09597,7.46707
-364,568,1.87787,-7.61115,0,0,0,0,0,0,0,-1,860,456,1.87784,7.61116
-357,568,2.14166,-7.67645,0,0,0,0,0,0,0,-1,867,456,2.14167,7.67646
-350,568,2.7467,-11.2507,0,0,0,0,0,0,0,-1,874,456,2.7467,11.2507
-343,568,2.16516,-11.3762,0,0,0,0,0,0,0,-1,881,456,2.16514,11.3762
-336,568,0.938232,-21.3005,0,0,0,0,0,0,0,-1,888,456,0.938216,21.3005
-329,568,1.87939,-19.926,0,0,0,0,0,0,0,-1,895,456,1.87937,19.926
-322,568,1.96436,-20.4624,0,0,0,0,0,0,0,-1,902,456,1.96438,20.4624
-315,568,2.0625,-21.2776,0.0138685,0.0137179,-0.0123466,0.0261401,0.00144636,-0.782349,0.0169652,0.0405124,909,456,2.06249,21.2777
-308,568,2.01007,-22.2861,0.0126806,0.0118399,-0.0112401,0.0235082,0.00101231,-0.766709,0.0153459,0.0315468,916,456,2.01006,22.2861
-301,568,2.00256,-22.9376,0.0113632,0.00997862,-0.0101544,0.0208489,0.000492938,-0.751364,0.0137379,0.0179787,923,456,2.00256,22.9376
-294,568,1.9325,-23.4333,0.00973812,0.00851127,-0.00888963,0.0180355,0.000213927,-0.75095,0.011953,0.0128882,930,456,1.93253,23.4333
-287,568,1.88153,-23.9664,0.00806851,0.00734564,-0.00768478,0.0154004,1.37957e-05,-0.761899,0.0102623,0.0110318,937,456,1.88154,23.9664
-280,568,1.88336,-24.4922,0.00652509,0.0065102,-0.00665702,0.0131747,-0.000139375,-0.784839,0.00882994,0.010548,944,456,1.88337,24.4922
-273,568,1.86896,-24.9922,0.0050688,0.00571309,-0.00561859,0.0110188,-0.00023687,-0.814035,0.00742606,0.0120382,951,456,1.86893,24.9922
-266,568,1.82056,-25.4712,0.00382105,0.0048837,-0.00455653,0.00893978,-0.000235029,-0.84344,0.00603972,0.0118807,958,456,1.82056,25.4712
-259,568,1.79248,-25.9393,0.00285894,0.00365466,-0.00341497,0.00669487,-0.000181273,-0.843389,0.00452488,0.0126715,965,456,1.7925,25.9393
-252,568,1.75824,-26.3961,0.00183587,0.00259672,-0.0023282,0.00457537,-0.000142786,-0.866382,0.00309894,0.0129644,972,456,1.75826,26.3961
-245,568,1.74799,-26.8212,0.0012842,0.00144714,-0.00139021,0.00275827,-2.69286e-05,-0.814667,0.00184789,0.0151215,979,456,1.74796,26.8212
-238,568,1.75378,-27.279,0.00121124,-7.28588e-05,-0.000358975,0.00130478,-0.000166398,-0.254905,0.000930291,0.0138334,986,456,1.75378,27.279
-231,568,1.74054,-27.7468,0.00103878,-0.00171847,0.000738062,0.00122391,-0.00190361,0.245767,0.00181983,0.0122967,993,456,1.74056,27.7468
-224,568,1.71753,-28.1868,0.00100384,-0.0034725,0.00171693,0.00158653,-0.00405519,0.327182,0.00335959,0.0130666,1000,456,1.71752,28.1868
-217,568,1.72321,-28.6268,0.00107526,-0.00525538,0.0027113,0.00207772,-0.00625784,0.354146,0.00501019,0.0110165,1007,456,1.72321,28.6268
-210,568,1.73193,-29.0571,0.00123873,-0.0071678,0.00381898,0.00271456,-0.00864362,0.368766,0.006849,0.0111864,1014,456,1.73193,29.0571
-203,568,1.74243,-29.4857,0.00146106,-0.00914525,0.0049442,0.00340832,-0.0110925,0.375192,0.00875512,0.0105579,1021,456,1.74246,29.4857
-196,568,1.7605,-29.8694,0.00157392,-0.01084,0.00589424,0.00392666,-0.0131927,0.379781,0.0103553,0.0140151,1028,456,1.76053,29.8694
-189,568,1.74512,-30.2589,0.0016528,-0.0125005,0.00703282,0.00455309,-0.0154008,0.391145,0.0120745,0.014228,1035,456,1.74512,30.2589
-182,568,1.76965,-30.6872,0.001745,-0.0146274,0.00837125,0.00526741,-0.0181498,0.398287,0.0141855,0.0164252,1042,456,1.7697,30.6872
-175,568,1.79932,-31.0573,0.00182747,-0.0170087,0.00982054,0.00601612,-0.0211974,0.403157,0.0165065,0.015565,1049,456,1.79931,31.0573
-168,568,1.7793,-31.3235,0.00189693,-0.01923,0.0111333,0.0066807,-0.0240138,0.405828,0.0186395,0.0219917,1056,456,1.77931,31.3235
-161,568,1.75488,-31.6348,0.001868,-0.0214423,0.0124379,0.00725816,-0.0268325,0.408937,0.0207356,0.0359728,1063,456,1.75492,31.6348
-154,568,1.84033,-32.1754,0,0,0,0,0,0,0,-1,1070,456,1.84033,32.1753
-147,568,1.89709,-32.3557,0.00178921,-0.0260542,0.0150991,0.00840519,-0.0326702,0.412973,0.0250563,0.0442573,1077,456,1.8971,32.3557
-140,568,1.79138,-32.6292,0.00161084,-0.0288955,0.0163903,0.00874745,-0.0360321,0.41066,0.0274066,0.042484,1084,456,1.79136,32.6292
-133,568,1.81873,-32.4539,0.00126894,-0.0316135,0.0175935,0.0089077,-0.0392523,0.409621,0.0295878,0.0459442,1091,456,1.81868,32.4539
-126,568,1.74292,-32.5392,0.00103431,-0.0340629,0.0185198,0.00899919,-0.0420278,0.406159,0.0314504,0.0481765,1098,456,1.74287,32.5393
-119,568,1.87585,-32.699,0,0,0,0,0,0,0,-1,1105,456,1.87583,32.699
-112,568,1.84143,-33.6826,0,0,0,0,0,0,0,-1,1112,456,1.84145,33.6826
-105,568,2.02454,-25.038,0,0,0,0,0,0,0,-1,1119,456,2.02459,25.038
-98,568,1.58618,-14.7874,0,0,0,0,0,0,0,-1,1126,456,1.58617,14.7874
-91,568,1.11621,-11.1853,0,0,0,0,0,0,0,-1,1133,456,1.11626,11.1853
-84,568,0.461792,-9.7959,0,0,0,0,0,0,0,-1,1140,456,0.461793,9.7959
-77,568,-1.13806,-8.57822,0,0,0,0,0,0,0,-1,1147,456,-1.13807,8.57821
-70,568,-4.09766,-1.42911,0,0,0,0,0,0,0,-1,1154,456,-4.09767,1.4291
-63,568,-5.92273,-3.70752,0,0,0,0,0,0,0,-1,1161,456,-5.92272,3.70751
-56,568,-5.24158,-6.01385,0,0,0,0,0,0,0,-1,1168,456,-5.24161,6.01386
-49,568,-5.24365,-8.33557,0,0,0,0,0,0,0,-1,1175,456,-5.24371,8.33557
-42,568,-0.664795,0.521973,0,0,0,0,0,0,0,-1,1182,456,-0.664829,-0.521984
-35,568,-0.153076,-1.67731,0,0,0,0,0,0,0,-1,1189,456,-0.153068,1.67731
-28,568,1.25439,-4.48798,0,0,0,0,0,0,0,-1,1196,456,1.2544,4.48797
-21,568,2.76404,-34.6259,0,0,0,0,0,0,0,-1,1203,456,2.76399,34.6259
-14,568,2.75159,-35.1708,0,0,0,0,0,0,0,-1,1210,456,2.75155,35.1708
-7,568,2.93469,-35.8678,0,0,0,0,0,0,0,-1,1217,456,2.93475,35.8678
0,568,4.15625,-36.6031,0,0,0,0,0,0,0,-1,1224,456,4.15625,36.6031
7,568,4.23889,-36.2286,-0.0420347,0.082188,0.0219368,0.0859481,-0.0457948,1.40104,0.0772304,0.0468421,1231,456,4.23888,36.2286
14,568,4.65466,-35.8047,-0.0580981,0.0925926,0.0252955,0.0967255,-0.062231,1.40884,0.092491,0.043521,1238,456,4.65471,35.8047
21,568,5.25244,-35.4504,0,0,0,0,0,0,0,-1,1245,456,5.25249,35.4504
28,568,8.98315,-39.5318,-0.0855584,0.10578,0.0311625,0.110727,-0.0905058,1.41335,0.116377,0.0474672,1252,456,8.98315,39.5318
35,568,8.04272,-39.3575,-0.096716,0.108329,0.033568,0.113684,-0.102072,1.41259,0.124627,0.0431686,1259,456,8.04269,39.3575
42,568,7.07434,-39.1179,-0.106122,0.108345,0.0359434,0.114209,-0.111986,1.40909,0.130596,0.0410217,1266,456,7.07432,39.1179
49,568,6.32104,-38.7138,-0.113739,0.106235,0.0384975,0.112778,-0.120281,1.40245,0.13458,0.0437372,1273,456,6.32109,38.7138
56,568,5.35803,-38.5131,-0.12025,0.102769,0.0416032,0.110277,-0.127758,1.39225,0.137553,0.0476043,1280,456,5.358,38.5131
63,568,4.51025,-38.2504,-0.126289,0.0982344,0.0459335,0.107268,-0.135322,1.37661,0.140371,0.0473322,1287,456,4.51027,38.2504
70,568,3.76855,-38.0769,-0.131252,0.091957,0.0503104,0.102773,-0.142068,1.35904,0.141964,0.0450987,1294,456,3.7686,38.0769
77,568,3.21191,-37.7472,-0.132514,0.0827546,0.0538488,0.0954732,-0.145233,1.33886,0.139958,0.0478208,1301,456,3.21186,37.7472
84,568,0.59021,-37.7012,-0.128073,0.0678507,0.0549096,0.0821902,-0.142413,1.31535,0.131219,0.0466239,1308,456,0.590236,37.7012
91,568,-0.299072,-37.5207,-0.11993,0.0516302,0.054797,0.0676388,-0.135938,1.28656,0.11972,0.0428034,1315,456,-0.299046,37.5207
98,568,-1.2677,-37.2664,-0.110522,0.0356259,0.0558826,0.0545447,-0.129441,1.24436,0.109118,0.0452381,1322,456,-1.26765,37.2664
105,568,-2.24292,-36.9409,0,0,0,0,0,0,0,-1,1329,456,-2.24297,36.9409
112,568,-2.43396,-36.0659,-0.0765492,0.0117987,0.0620337,0.0437794,-0.10853,1.0948,0.0905458,0.0427986,1336,456,-2.434,36.0659
119,568,-3.17273,-35.6013,-0.0587865,-0.00133816,0.0633864,0.0395287,-0.0996533,0.998137,0.0828183,0.0436415,1343,456,-3.17271,35.6013
126,568,-3.87183,-35.1243,0,0,0,0,0,0,0,-1,1350,456,-3.87182,35.1243
133,568,-5.07153,-35.8647,-0.0146259,-0.022955,0.0637779,0.0451233,-0.0827042,0.752796,0.0748568,0.0488422,1357,456,-5.07151,35.8647
140,568,-4.6488,-35.9205,0.00994025,-0.0289696,0.0644386,0.0577967,-0.0768261,0.638792,0.0779829,0.0472021,1364,456,-4.64876,35.9205
147,568,-4.25012,-35.5272,0.0331808,-0.0311044,0.0665143,0.0749117,-0.0728353,0.560322,0.0853046,0.0450397,1371,456,-4.25011,35.5272
154,568,-3.75232,-35.4412,0.0535826,-0.0299799,0.070004,0.0933257,-0.0697231,0.516351,0.0944645,0.0425885,1378,456,-3.75231,35.4412
161,568,-3.40515,-34.8705,0,0,0,0,0,0,0,-1,1385,456,-3.40516,34.8704
168,568,11.2393,-28.6589,0,0,0,0,0,0,0,-1,1392,456,11.2393,28.6589
175,568,10.5151,0.747498,0,0,0,0,0,0,0,-1,1399,456,10.5152,-0.747501
182,568,6.35095,-3.63361,0,0,0,0,0,0,0,-1,1406,456,6.35093,3.63359
189,568,6.17493,-1.70911,0,0,0,0,0,0,0,-1,1413,456,6.17497,1.70911
196,568,6.04724,0.200836,0,0,0,0,0,0,0,-1,1420,456,6.04724,-0.200835
203,568,5.9281,2.08649,0,0,0,0,0,0,0,-1,1427,456,5.92812,-2.08648
210,568,1.46216,-2.50446,0,0,0,0,0,0,0,-1,1434,456,1.46219,2.50446
217,568,2.62366,-7.86703,0,0,0,0,0,0,0,-1,1441,456,2.62365,7.86704
224,568,3.43494,-12.1555,0,0,0,0,0,0,0,-1,1448,456,3.43492,12.1555
231,568,4.38245,-9.3205,0,0,0,0,0,0,0,-1,1455,456,4.38244,9.32048
238,568,5.88879,-20.7448,0,0,0,0,0,0,0,-1,1462,456,5.88876,20.7449
245,568,3.34387,-10.6774,0,0,0,0,0,0,0,-1,1469,456,3.34389,10.6774
252,568,3.56946,-9.28928,0,0,0,0,0,0,0,-1,1476,456,3.56948,9.28928
259,568,3.38843,-8.73068,0,0,0,0,0,0,0,-1,1483,456,3.38842,8.73068
266,568,3.104,-9.16876,0,0,0,0,0,0,0,-1,1490,456,3.10397,9.16876
273,568,3.77869,-13.1147,0,0,0,0,0,0,0,-1,1497,456,3.77869,13.1147
280,568,4.40002,-14.9322,0,0,0,0,0,0,0,-1,1504,456,4.4,14.9322
287,568,8.16614,-31.4773,0,0,0,0,0,0,0,-1,1511,456,8.16609,31.4773
294,568,8.255,-30.7621,0.00459304,-0.00701379,-0.00234439,0.00504868,-0.00746944,-0.191961,0.00727224,0.0436846,1518,456,8.25504,30.7621
301,568,8.2262,-30.3982,0.0041242,-0.00667638,-0.0022817,0.00458644,-0.00713862,-0.199882,0.00682271,0.0220098,1525,456,8.22618,30.3982
308,568,8.24268,-29.9948,0.00356121,-0.00655694,-0.00231452,0.00406552,-0.00706125,-0.214536,0.00650119,0.0149716,1532,456,8.2427,29.9948
315,568,8.25244,-29.6061,0.00270408,-0.00606405,-0.00248003,0.00335693,-0.00671691,-0.257405,0.00592299,0.00889631,1539,456,8.25239,29.6061
322,568,8.24707,-29.1855,0.00197831,-0.00521165,-0.00234018,0.00267289,-0.00590623,-0.288525,0.00506906,0.00997822,1546,456,8.24703,29.1855
329,568,8.2522,-28.7498,0.00142053,-0.00422247,-0.00208863,0.00210948,-0.00491142,-0.318618,0.00415973,0.0108495,1553,456,8.25218,28.7499
336,568,8.26038,-28.289,0.000932984,-0.00324934,-0.00180283,0.00160283,-0.00391918,-0.355744,0.0032803,0.0115935,1560,456,8.26037,28.289
343,568,8.29492,-27.823,0.000449882,-0.00233584,-0.00151703,0.0011165,-0.00300245,-0.414023,0.00245977,0.0116706,1567,456,8.29496,27.823
350,568,8.28748,-27.3846,0.000146205,-0.00133748,-0.00109904,0.000730343,-0.00192162,-0.488526,0.00158177,0.010101,1574,456,8.2875,27.3845
357,568,8.25269,-26.9138,-6.63537e-05,-0.00028244,-0.000637611,0.000472304,-0.000821097,-0.70147,0.000755742,0.00923337,1581,456,8.25265,26.9138
364,568,8.2677,-26.4205,-0.000194418,0.000585332,-0.000112169,0.000601147,-0.000210233,-1.43073,0.000486235,0.0113002,1588,456,8.2677,26.4205
371,568,8.26929,-25.9321,-0.000239765,0.00140174,0.000428798,0.00150701,-0.000345027,1.33008,0.00113726,0.0205946,1595,456,8.26929,25.9321
378,568,8.25037,-25.4355,-0.000234784,0.00223869,0.000905743,0.00253489,-0.000530981,1.25474,0.00189192,0.018561,1602,456,8.25031,25.4355
385,568,8.20923,-24.9669,-9.16439e-05,0.00337037,0.00133787,0.00382712,-0.000548393,1.2418,0.00275248,0.0092481,1609,456,8.20918,24.967
392,568,8.16345,-24.494,0.000730528,0.00424465,0.00199546,0.00514637,-0.000171194,1.14637,0.00348938,0.0106491,1616,456,8.16349,24.494
399,568,8.09229,-24.0475,0.0025282,0.00546454,0.00335977,0.00766292,0.000329816,0.991387,0.0050023,0.0166597,1623,456,8.09226,24.0475
406,568,8.12878,-23.509,0.00383097,0.00671173,0.00438558,0.00988741,0.000655289,0.944066,0.0063844,0.0154956,1630,456,8.12879,23.509
413,568,8.13,-22.9362,0.00538476,0.00860948,0.00483122,0.0120903,0.00190395,0.946455,0.00750647,0.0125464,1637,456,8.13,22.9362
420,568,8.10779,-22.4069,0.00733625,0.0102148,0.00507215,0.014048,0.00350313,0.923646,0.00844341,0.0110549,1644,456,8.10777,22.4069
427,568,8.07739,-21.8597,0.00946867,0.0114819,0.00539928,0.0159676,0.00498296,0.877556,0.00943346,0.0123648,1651,456,8.07741,21.8597
434,568,8.06958,-21.2973,0.0119833,0.0133049,0.00568634,0.0183687,0.00691949,0.843241,0.0107121,0.0176552,1658,456,8.06956,21.2973
441,568,8.06482,-20.8165,0.0144709,0.0150639,0.00558241,0.0203577,0.00917716,0.81193,0.0117725,0.0276345,1665,456,8.06479,20.8165
448,568,8.68677,-19.7912,0.0165076,0.0166136,0.00485404,0.0214149,0.0117063,0.790859,0.0123818,0.0385363,1672,456,8.68677,19.7912
455,568,8.0166,-19.2877,0,0,0,0,0,0,0,-1,1679,456,8.01663,19.2877
462,568,7.33655,-18.4677,0.0191914,0.0188269,0.00149808,0.0205183,0.0175,0.724873,0.012792,0.049383,1686,456,7.33657,18.4677
469,568,7.40308,-18.4341,0.0194375,0.0193804,-0.000841382,0.0202508,0.0185671,-0.768449,0.0129758,0.0431514,1693,456,7.4031,18.4341
476,568,7.62317,-18.1568,0.0189758,0.019436,-0.00295375,0.0221686,0.0162432,-0.824266,0.0132531,0.0464866,1700,456,7.62319,18.1568
483,568,7.59875,-17.5416,0,0,0,0,0,0,0,-1,1707,456,7.59877,17.5416
490,568,7.68604,-16.8234,0,0,0,0,0,0,0,-1,1714,456,7.68604,16.8234
497,568,7.47803,-14.7749,0,0,0,0,0,0,0,-1,1721,456,7.47806,14.7749
504,568,0,0,0,0,0,0,0,0,0,-1,1728,456,0,0
511,568,0,0,0,0,0,0,0,0,0,-1,1735,456,0,0
518,568,0,0,0,0,0,0,0,0,0,-1,1742,456,0,0
525,568,0,0,0,0,0,0,0,0,0,-1,1749,456,0,0
532,568,0,0,0,0,0,0,0,0,0,-1,1756,456,0,0
539,568,0,0,0,0,0,0,0,0,0,-1,1763,456,0,0
546,568,0,0,0,0,0,0,0,0,0,-1,1770,456,0,0
553,568,0,0,0,0,0,0,0,0,0,-1,1777,456,0,0
560,568,0,0,0,0,0,0,0,0,0,-1,1784,456,0,0
567,568,0,0,0,0,0,0,0,0,0,-1,1791,456,0,0
574,568,0,0,0,0,0,0,0,0,0,-1,1798,456,0,0
581,568,0,0,0,0,0,0,0,0,0,-1,1805,456,0,0
588,568,0,0,0,0,0,0,0,0,0,-1,1812,456,0,0
595,568,0,0,0,0,0,0,0,0,0,-1,1819,456,0,0
602,568,0,0,0,0,0,0,0,0,0,-1,1826,456,0,0
609,568,0,0,0,0,0,0,0,0,0,-1,1833,456,0,0
616,568,0,0,0,0,0,0,0,0,0,-1,1840,456,0,0
623,568,0,0,0,0,0,0,0,0,0,-1,1847,456,0,0
630,568,0,0,0,0,0,0,0,0,0,-1,1854,456,0,0
637,568,0,0,0,0,0,0,0,0,0,-1,1861,456,0,0
644,568,0,0,0,0,0,0,0,0,0,-1,1868,456,0,0
651,568,0,0,0,0,0,0,0,0,0,-1,1875,456,0,0
658,568,0,0,0,0,0,0,0,0,0,-1,1882,456,0,0
665,568,0,0,0,0,0,0,0,0,0,-1,1889,456,0,0
672,568,0,0,0,0,0,0,0,0,0,-1,1896,456,0,0
679,568,0,0,0,0,0,0,0,0,0,-1,1903,456,0,0
686,568,0,0,0,0,0,0,0,0,0,-1,1910,456,0,0
693,568,0,0,0,0,0,0,0,0,0,-1,1917,456,0,0
700,568,0,0,0,0,0,0,0,0,0,-1,1924,456,0,0
707,568,0,0,0,0,0,0,0,0,0,-1,1931,456,0,0
714,568,0,0,0,0,0,0,0,0,0,-1,1938,456,0,0
721,568,0,0,0,0,0,0,0,0,0,-1,1945,456,0,0
728,568,0,0,0,0,0,0,0,0,0,-1,1952,456,0,0
735,568,0,0,0,0,0,0,0,0,0,-1,1959,456,0,0
742,568,0,0,0,0,0,0,0,0,0,-1,1966,456,0,0
749,568,0,0,0,0,0,0,0,0,0,-1,1973,456,0,0
756,568,0,0,0,0,0,0,0,0,0,-1,1980,456,0,0
763,568,0,0,0,0,0,0,0,0,0,-1,1987,456,0,0
770,568,0,0,0,0,0,0,0,0,0,-1,1994,456,0,0
777,568,0,0,0,0,0,0,0,0,0,-1,2001,456,0,0
784,568,0,0,0,0,0,0,0,0,0,-1,2008,456,0,0
791,568,0,0,0,0,0,0,0,0,0,-1,2015,456,0,0
798,568,0,0,0,0,0,0,0,0,0,-1,2022,456,0,0
805,568,0,0,0,0,0,0,0,0,0,-1,2029,456,0,0
812,568,0,0,0,0,0,0,0,0,0,-1,2036,456,0,0
-700,561,0,0,0,0,0,0,0,0,0,-1,524,463,0,0
-693,561,0,0,0,0,0,0,0,0,0,-1,531,463,0,0
-686,561,0,0,0,0,0,0,0,0,0,-1,538,463,0,0
-679,561,0,0,0,0,0,0,0,0,0,-1,545,463,0,0
-672,561,0,0,0,0,0,0,0,0,0,-1,552,463,0,0
-665,561,0,0,0,0,0,0,0,0,0,-1,559,463,0,0
-658,561,0,0,0,0,0,0,0,0,0,-1,566,463,0,0
-651,561,0,0,0,0,0,0,0,0,0,-1,573,463,0,0
-644,561,0,0,0,0,0,0,0,0,0,-1,580,463,0,0
-637,561,0,0,0,0,0,0,0,0,0,-1,587,463,0,0
-630,561,0,0,0,0,0,0,0,0,0,-1,594,463,0,0
-623,561,0,0,0,0,0,0,0,0,0,-1,601,463,0,0
-616,561,0,0,0,0,0,0,0,0,0,-1,608,463,0,0
-609,561,0,0,0,0,0,0,0,0,0,-1,615,463,0,0
-602,561,0,0,0,0,0,0,0,0,0,-1,622,463,0,0
-595,561,0,0,0,0,0,0,0,0,0,-1,629,463,0,0
-588,561,0,0,0,0,0,0,0,0,0,-1,636,463,0,0
-581,561,0,0,0,0,0,0,0,0,0,-1,643,463,0,0
-574,561,0,0,0,0,0,0,0,0,0,-1,650,463,0,0
-567,561,0,0,0,0,0,0,0,0,0,-1,657,463,0,0
-560,561,0,0,0,0,0,0,0,0,0,-1,664,463,0,0
-553,561,0,0,0,0,0,0,0,0,0,-1,671,463,0,0
-546,561,0,0,0,0,0,0,0,0,0,-1,678,463,0,0
-539,561,0,0,0,0,0,0,0,0,0,-1,685,463,0,0
-532,561,0,0,0,0,0,0,0,0,0,-1,692,463,0,0
-525,561,0,0,0,0,0,0,0,0,0,-1,699,463,0,0
-518,561,0,0,0,0,0,0,0,0,0,-1,706,463,0,0
-511,561,0,0,0,0,0,0,0,0,0,-1,713,463,0,0
-504,561,0,0,0,0,0,0,0,0,0,-1,720,463,0,0
-497,561,0,0,0,0,0,0,0,0,0,-1,727,463,0,0
-490,561,0,0,0,0,0,0,0,0,0,-1,734,463,0,0
-483,561,0,0,0,0,0,0,0,0,0,-1,741,463,0,0
-476,561,0,0,0,0,0,0,0,0,0,-1,748,463,0,0
-469,561,0,0,0,0,0,0,0,0,0,-1,755,463,0,0
-462,561,0,0,0,0,0,0,0,0,0,-1,762,463,0,0
-455,561,0,0,0,0,0,0,0,0,0,-1,769,463,0,0
-448,561,0,0,0,0,0,0,0,0,0,-1,776,463,0,0
-441,561,0,0,0,0,0,0,0,0,0,-1,783,463,0,0
-434,561,0,0,0,0,0,0,0,0,0,-1,790,463,0,0
-427,561,0,0,0,0,0,0,0,0,0,-1,797,463,0,0
-420,561,0,0,0,0,0,0,0,0,0,-1,804,463,0,0
-413,561,0,0,0,0,0,0,0,0,0,-1,811,463,0,0
-406,561,0,0,0,0,0,0,0,0,0,-1,818,463,0,0
-399,561,0,0,0,0,0,0,0,0,0,-1,825,463,0,0
-392,561,4.92407,-2.54578,0,0,0,0,0,0,0,-1,832,463,4.92408,2.54576
-385,561,5.55634,-1.02338,0,0,0,0,0,0,0,-1,839,463,5.55634,1.02338
-378,561,0.160522,-4.51785,0,0,0,0,0,0,0,-1,846,463,0.160542,4.51785
-371,561,1.06299,-7.56818,0,0,0,0,0,0,0,-1,853,463,1.06297,7.56817
-364,561,1.45264,-7.57684,0,0,0,0,0,0,0,-1,860,463,1.45264,7.57684
-357,561,0.948242,-12.2803,0,0,0,0,0,0,0,-1,867,463,0.948262,12.2803
-350,561,1.33124,-11.9406,0,0,0,0,0,0,0,-1,874,463,1.33127,11.9406
-343,561,1.13214,-14.1837,0,0,0,0,0,0,0,-1,881,463,1.13217,14.1837
-336,561,1.72522,-20.1378,0,0,0,0,0,0,0,-1,888,463,1.72523,20.1378
-329,561,1.52802,-20.9369,0,0,0,0,0,0,0,-1,895,463,1.52805,20.9369
-322,561,1.67975,-21.0565,0,0,0,0,0,0,0,-1,902,463,1.67974,21.0565
-315,561,1.57092,-21.6391,0.00866458,0.0115678,-0.00962959,0.0198546,0.000377787,-0.860206,0.0131123,0.0231062,909,463,1.57094,21.6391
-308,561,1.57343,-22.299,0.008064,0.00979298,-0.008619,0.0175907,0.000266244,-0.835381,0.0116394,0.0198735,916,463,1.57344,22.299
-301,561,1.51483,-22.9689,0.00735103,0.00799177,-0.00764248,0.0153206,2.22051e-05,-0.806346,0.0102063,0.0141297,923,463,1.51486,22.9689
-294,561,1.45581,-23.4897,0.00640072,0.00656665,-0.00654646,0.0130307,-6.32969e-05,-0.791734,0.00870829,0.0114868,930,463,1.45581,23.4898
-287,561,1.41132,-23.9785,0.00538457,0.00542139,-0.00550967,0.0109127,-0.000106719,-0.787069,0.00731095,0.0095004,937,463,1.41133,23.9785
-280,561,1.40149,-24.4672,0.00439845,0.00455191,-0.00461148,0.0090873,-0.000136941,-0.793717,0.00610436,0.0118719,944,463,1.40151,24.4672
-273,561,1.35413,-24.9652,0.00343555,0.00372094,-0.00369669,0.00727768,-0.000121197,-0.804689,0.00489269,0.0151113,951,463,1.35414,24.9652
-266,561,1.32532,-25.4385,0.00263122,0.00279727,-0.00273306,0.00544857,-2.00747e-05,-0.800583,0.00363909,0.0102069,958,463,1.32534,25.4385
-259,561,1.31763,-25.9145,0.0020385,0.00147994,-0.00166224,0.00344476,7.36795e-05,-0.702169,0.00227235,0.0109027,965,463,1.31765,25.9145
-252,561,1.33044,-26.3784,0.00141412,0.000163526,-0.000610904,0.00166301,-8.53619e-05,-0.386877,0.0011382,0.0151252,972,463,1.33043,26.3785
-245,561,1.32343,-26.8264,0.00112912,-0.00122286,0.000359491,0.00118284,-0.00127658,0.148335,0.00142029,0.0170708,979,463,1.32344,26.8264
-238,561,1.31793,-27.2806,0.00118179,-0.00298235,0.00142562,0.00162309,-0.00342365,0.300196,0.00297491,0.0135253,986,463,1.31793,27.2807
-231,561,1.28406,-27.7501,0.001187,-0.00486902,0.00250786,0.00209069,-0.00577271,0.345857,0.00470291,0.0119295,993,463,1.28405,27.7501
-224,561,1.26465,-28.1932,0.00121094,-0.00692022,0.00359468,0.0025722,-0.00828149,0.362001,0.00654899,0.0114861,1000,463,1.26465,28.1932
-217,561,1.28558,-28.6142,0.00128468,-0.00897372,0.00472278,0.0031278,-0.0108168,0.372084,0.00844907,0.0113582,1007,463,1.28559,28.6142
-210,561,1.29333,-29.0363,0.00147261,-0.0111698,0.00603045,0.00388776,-0.013585,0.38093,0.0105931,0.012302,1014,463,1.29331,29.0363
-203,561,1.29877,-29.4547,0.00176085,-0.0134073,0.00734498,0.00473456,-0.016381,0.384692,0.0127943,0.0139148,1021,463,1.29879,29.4547
-196,561,1.29602,-29.8322,0.00190709,-0.0153337,0.00847203,0.00537333,-0.0187999,0.38836,0.0146565,0.0149599,1028,463,1.29604,29.8322
-189,561,1.31519,-30.1873,0.00197093,-0.0172483,0.00989296,0.00615317,-0.0214306,0.399962,0.0167199,0.0181369,1035,463,1.31522,30.1873
-182,561,1.40161,-30.5694,0.00203162,-0.0197196,0.0115729,0.00703714,-0.0247252,0.408224,0.0192625,0.0237297,1042,463,1.40165,30.5694
-175,561,1.30627,-30.9112,0.00210618,-0.0224529,0.013362,0.00797407,-0.0283208,0.413794,0.0220251,0.0369846,1049,463,1.30626,30.9112
-168,561,1.2085,-31.2741,0.0021924,-0.0250555,0.0150306,0.00885467,-0.0317178,0.417224,0.024633,0.0493151,1056,463,1.20845,31.2741
-161,561,1.21191,-31.5269,0.00215856,-0.0276406,0.0166983,0.00963822,-0.0351203,0.421131,0.0272015,0.0478755,1063,463,1.21191,31.5269
-154,561,1.25,-31.8124,0.00208569,-0.0303862,0.0183755,0.0103705,-0.038671,0.423568,0.0298442,0.0458584,1070,463,1.24995,31.8124
-147,561,1.30066,-32.1563,0,0,0,0,0,0,0,-1,1077,463,1.30061,32.1563
-140,561,1.43469,-32.4364,0,0,0,0,0,0,0,-1,1084,463,1.43467,32.4364
-133,561,1.48633,-31.9516,0,0,0,0,0,0,0,-1,1091,463,1.48632,31.9516
-126,561,1.30872,-32.1221,0,0,0,0,0,0,0,-1,1098,463,1.30875,32.1221
-119,561,1.40186,-32.0946,0,0,0,0,0,0,0,-1,1105,463,1.40192,32.0946
-112,561,1.24365,-29.1982,0,0,0,0,0,0,0,-1,1112,463,1.2437,29.1981
-105,561,0.530518,-13.5379,0,0,0,0,0,0,0,-1,1119,463,0.530477,13.5379
-98,561,1.5387,-7.54352,0,0,0,0,0,0,0,-1,1126,463,1.53871,7.54351
-91,561,1.29553,-6.57968,0,0,0,0,0,0,0,-1,1133,463,1.29549,6.5797
-84,561,1.23364,-5.84555,0,0,0,0,0,0,0,-1,1140,463,1.23363,5.84556
-77,561,-2.36023,1.00204,0,0,0,0,0,0,0,-1,1147,463,-2.3602,-1.00205
-70,561,-3.90015,-1.41541,0,0,0,0,0,0,0,-1,1154,463,-3.90009,1.4154
-63,561,-6.95691,-4.02756,0,0,0,0,0,0,0,-1,1161,463,-6.95696,4.02756
-56,561,-5.37988,-6.66855,0,0,0,0,0,0,0,-1,1168,463,-5.37988,6.66854
-49,561,-5.7439,-9.11029,0,0,0,0,0,0,0,-1,1175,463,-5.74387,9.1103
-42,561,-1.72644,-5.63065,0,0,0,0,0,0,0,-1,1182,463,-1.72648,5.63064
-35,561,-1.65674,-4.87994,0,0,0,0,0,0,0,-1,1189,463,-1.6567,4.87993
-28,561,-1.91418,-3.86896,0,0,0,0,0,0,0,-1,1196,463,-1.91414,3.86895
-21,561,2.46423,-34.2722,0,0,0,0,0,0,0,-1,1203,463,2.46427,34.2722
-14,561,2.47034,-34.7842,0,0,0,0,0,0,0,-1,1210,463,2.47035,34.7842
-7,561,2.75623,-35.4201,0,0,0,0,0,0,0,-1,1217,463,2.75621,35.4201
0,561,-0.934082,-35.0607,0,0,0,0,0,0,0,-1,1224,463,-0.934094,35.0607
7,561,5.03162,-35.9573,0,0,0,0,0,0,0,-1,1231,463,5.03166,35.9573
14,561,5.59143,-35.493,0,0,0,0,0,0,0,-1,1238,463,5.59142,35.493
21,561,8.97266,-40.8302,0,0,0,0,0,0,0,-1,1245,463,8.9727,40.8302
28,561,7.96582,-40.6391,-0.0963716,0.134527,0.0412996,0.141692,-0.103536,1.39902,0.142153,0.0451245,1252,463,7.96578,40.6391
35,561,6.95264,-40.4159,-0.109924,0.137114,0.043393,0.144514,-0.117325,1.40188,0.151444,0.040261,1259,463,6.95261,40.4159
42,561,7.25574,-39.1636,-0.12128,0.137019,0.0452672,0.144722,-0.128984,1.40224,0.158111,0.0464162,1266,463,7.25577,39.1636
49,561,6.46619,-39.013,-0.130675,0.134551,0.0472529,0.142719,-0.138842,1.39965,0.162564,0.0471418,1273,463,6.46617,39.013
56,561,5.41638,-39.0074,-0.138767,0.130502,0.0498889,0.139448,-0.147713,1.39336,0.165815,0.0446181,1280,463,5.41639,39.0074
63,561,4.2074,-38.979,-0.145403,0.124659,0.053748,0.134963,-0.155707,1.38139,0.167961,0.0465231,1287,463,4.20745,38.979
70,561,3.78784,-38.5672,0,0,0,0,0,0,0,-1,1294,463,3.7878,38.5672
77,561,0.668457,-38.2269,-0.150657,0.104836,0.0605285,0.11845,-0.164271,1.34955,0.163942,0.0497984,1301,463,0.668467,38.2269
84,561,-0.328003,-38.0171,-0.143802,0.0853867,0.0595917,0.0999551,-0.158371,1.33103,0.15041,0.0457922,1308,463,-0.328043,38.0171
91,561,-1.10315,-37.8677,0,0,0,0,0,0,0,-1,1315,463,-1.10313,37.8677
98,561,-2.08484,-37.6762,0,0,0,0,0,0,0,-1,1322,463,-2.08481,37.6763
105,561,-3.06702,-37.3474,0,0,0,0,0,0,0,-1,1329,463,-3.06699,37.3473
112,561,-3.18542,-36.1361,-0.0819042,0.0156473,0.0655639,0.0485888,-0.114846,1.1052,0.0969091,0.0468949,1336,463,-3.18541,36.1361
119,561,-3.79797,-35.6122,-0.0622675,-0.000493089,0.0676919,0.0430254,-0.105786,0.999435,0.0884267,0.043134,1343,463,-3.79801,35.6122
126,561,-4.41821,-34.9559,-0.0387214,-0.0139422,0.0687543,0.0435298,-0.0961935,0.874542,0.0825572,0.0466796,1350,463,-4.41818,34.9559
133,561,-5.02881,-34.3337,0,0,0,0,0,0,0,-1,1357,463,-5.02887,34.3337
140,561,-5.23865,-35.4264,0.0178511,-0.0338337,0.0717314,0.0682532,-0.0842358,0.612502,0.0882006,0.0486993,1364,463,-5.2386,35.4264
147,561,-4.97339,-35.312,0.0472918,-0.0356473,0.0759901,0.0923915,-0.0807469,0.535621,0.100037,0.0471444,1371,463,-4.97342,35.312
154,561,-4.61426,-35.1367,0.0747491,-0.0330744,0.0824044,0.11931,-0.0776358,0.495725,0.114552,0.0425526,1378,463,-4.61429,35.1367
161,561,-4.15405,-34.8085,0.0984401,-0.0274652,0.0907418,0.145928,-0.0749531,0.482137,0.129702,0.0464174,1385,463,-4.15409,34.8085
168,561,-3.58484,-34.6274,0,0,0,0,0,0,0,-1,1392,463,-3.58483,34.6274
175,561,10.4185,0.276398,0,0,0,0,0,0,0,-1,1399,463,10.4185,-0.276394
182,561,6.45703,-4.02127,0,0,0,0,0,0,0,-1,1406,463,6.45704,4.02127
189,561,6.50854,-2.08685,0,0,0,0,0,0,0,-1,1413,463,6.50851,2.08686
196,561,6.44775,-0.27182,0,0,0,0,0,0,0,-1,1420,463,6.44773,0.271814
203,561,6.18591,1.1301,0,0,0,0,0,0,0,-1,1427,463,6.18592,-1.13009
210,561,5.68713,2.68427,0,0,0,0,0,0,0,-1,1434,463,5.6871,-2.68425
217,561,3.61743,-7.33582,0,0,0,0,0,0,0,-1,1441,463,3.61738,7.33581
224,561,4.27466,-8.59171,0,0,0,0,0,0,0,-1,1448,463,4.27466,8.59171
231,561,4.93188,-9.8476,0,0,0,0,0,0,0,-1,1455,463,4.93193,9.84761
238,561,2.18018,-5.18359,0,0,0,0,0,0,0,-1,1462,463,2.18023,5.18359
245,561,3.07568,-3.50238,0,0,0,0,0,0,0,-1,1469,463,3.0757,3.50238
252,561,3.47412,-3.71109,0,0,0,0,0,0,0,-1,1476,463,3.47413,3.71109
259,561,3.42212,-3.2334,0,0,0,0,0,0,0,-1,1483,463,3.42214,3.2334
266,561,4.44373,-5.90027,0,0,0,0,0,0,0,-1,1490,463,4.44372,5.90026
273,561,2.59485,-3.65268,0,0,0,0,0,0,0,-1,1497,463,2.5948,3.65268
280,561,3.10767,-6.38235,0,0,0,0,0,0,0,-1,1504,463,3.10766,6.38235
287,561,4.91809,-14.429,0,0,0,0,0,0,0,-1,1511,463,4.9181,14.429
294,561,8.64734,-30.5087,0,0,0,0,0,0,0,-1,1518,463,8.64728,30.5087
301,561,8.5365,-30.1165,0.00511906,-0.00968481,-0.00325916,0.00580482,-0.0103706,-0.207384,0.00946206,0.0493797,1525,463,8.5365,30.1165
308,561,8.62927,-29.8436,0.00431996,-0.00939464,-0.00337758,0.00510666,-0.0101813,-0.228836,0.00898715,0.0327484,1532,463,8.62933,29.8436
315,561,8.66589,-29.5477,0.00305972,-0.00875307,-0.00376086,0.00415544,-0.00984879,-0.2835,0.00830508,0.0188347,1539,463,8.66584,29.5477
322,561,8.68677,-29.1751,0.00210309,-0.00766793,-0.00366023,0.00332213,-0.00888697,-0.321495,0.00728891,0.0181028,1546,463,8.68682,29.1751
329,561,8.70496,-28.7265,0.00143022,-0.00643607,-0.00341117,0.00270339,-0.00770923,-0.357223,0.006239,0.0146077,1553,463,8.70495,28.7265
336,561,8.73926,-28.2521,0.000856202,-0.00527308,-0.00312291,0.00216701,-0.00658389,-0.397407,0.00526249,0.0121562,1560,463,8.73928,28.2521
343,561,8.75769,-27.815,0.000279617,-0.00423477,-0.00284873,0.00165701,-0.00561216,-0.450369,0.00439906,0.0107475,1567,463,8.75767,27.815
350,561,8.75208,-27.3616,-7.12407e-05,-0.00318513,-0.00242836,0.00125643,-0.0045128,-0.500334,0.00350327,0.00943007,1574,463,8.75213,27.3616
357,561,8.72449,-26.8789,-0.000307241,-0.0020291,-0.0019531,0.000966262,-0.00330261,-0.577809,0.00258475,0.00971445,1581,463,8.72453,26.8789
364,561,8.70947,-26.4319,-0.000418846,-0.00110071,-0.00138248,0.000664116,-0.00218367,-0.664506,0.00172042,0.00956777,1588,463,8.70949,26.4319
371,561,8.71045,-25.9244,-0.000406043,-0.000246973,-0.000779507,0.000457047,-0.00111006,-0.836238,0.000930587,0.0157967,1595,463,8.71045,25.9244
378,561,8.6969,-25.4592,-0.000331899,0.00061569,-0.00021587,0.00066255,-0.000378759,-1.35704,0.000608597,0.0115454,1602,463,8.69686,25.4592
385,561,8.68481,-24.9646,-0.000165123,0.00172726,0.000321431,0.00178037,-0.000218229,1.40706,0.00126594,0.0104746,1609,463,8.68485,24.9646
392,561,8.64722,-24.459,0.000477698,0.00258257,0.000981852,0.00296946,9.08099e-05,1.19544,0.00195008,0.0150747,1616,463,8.64725,24.459
399,561,8.61816,-23.9906,0.00182012,0.0036273,0.00214403,0.00505037,0.000397047,0.984825,0.00324268,0.0219014,1623,463,8.6182,23.9906
406,561,8.62354,-23.4832,0.00281384,0.00472421,0.00305958,0.00697424,0.00056381,0.936701,0.00447341,0.0194625,1630,463,8.62358,23.4832
413,561,8.63232,-22.9422,0.00398819,0.00635791,0.0035365,0.00890276,0.00144334,0.94704,0.00551735,0.0168562,1637,463,8.63228,22.9422
420,561,8.60767,-22.4082,0.00545118,0.00774189,0.00385215,0.0106154,0.00257772,0.9299,0.00639329,0.0134971,1644,463,8.60767,22.4082
427,561,8.60583,-21.8455,0.00698405,0.00881275,0.00416703,0.0121646,0.00363224,0.893399,0.00721064,0.0107092,1651,463,8.60587,21.8455
434,561,8.58386,-21.2878,0.00875144,0.0102757,0.0044317,0.0140103,0.00501682,0.870552,0.00819676,0.0119939,1658,463,8.58391,21.2878
441,561,8.55615,-20.7637,0.0104603,0.0116543,0.00439917,0.0154968,0.00661781,0.85284,0.00897877,0.0159297,1665,463,8.55616,20.7637
448,561,8.55933,-20.2075,0.0118311,0.0129074,0.00394526,0.016351,0.00838744,0.853182,0.00944133,0.0222989,1672,463,8.55928,20.2075
455,561,8.47363,-19.5131,0.0129186,0.0138583,0.0030404,0.0164649,0.0103119,0.862057,0.00960658,0.0427059,1679,463,8.47362,19.5131
462,561,8.21069,-18.9499,0.0136211,0.0146523,0.00184222,0.0160497,0.0122237,0.921839,0.00967988,0.0421647,1686,463,8.21071,18.9499
469,561,8.23999,-18.5775,0.0137273,0.0150941,0.000531663,0.0152766,0.0135449,1.24022,0.00965903,0.0252425,1693,463,8.24003,18.5775
476,561,8.2605,-18.0089,0.0132357,0.0153021,-0.000356904,0.015362,0.0131758,-1.40449,0.00959597,0.042127,1700,463,8.26052,18.0089
483,561,8.23169,-17.3978,0,0,0,0,0,0,0,-1,1707,463,8.23164,17.3978
490,561,7.63403,-17.1606,0,0,0,0,0,0,0,-1,1714,463,7.63403,17.1606
497,561,10.3958,-12.7082,0,0,0,0,0,0,0,-1,1721,463,10.3957,12.7082
504,561,10.0769,-0.811401,0,0,0,0,0,0,0,-1,1728,463,10.0769,0.8114
511,561,0,0,0,0,0,0,0,0,0,-1,1735,463,0,0
518,561,0,0,0,0,0,0,0,0,0,-1,1742,463,0,0
525,561,0,0,0,0,0,0,0,0,0,-1,1749,463,0,0
532,561,0,0,0,0,0,0,0,0,0,-1,1756,463,0,0
539,561,0,0,0,0,0,0,0,0,0,-1,1763,463,0,0
546,561,0,0,0,0,0,0,0,0,0,-1,1770,463,0,0
553,561,0,0,0,0,0,0,0,0,0,-1,1777,463,0,0
560,561,0,0,0,0,0,0,0,0,0,-1,1784,463,0,0
567,561,0,0,0,0,0,0,0,0,0,-1,1791,463,0,0
574,561,0,0,0,0,0,0,0,0,0,-1,1798,463,0,0
581,561,0,0,0,0,0,0,0,0,0,-1,1805,463,0,0
588,561,0,0,0,0,0,0,0,0,0,-1,1812,463,0,0
595,561,0,0,0,0,0,0,0,0,0,-1,1819,463,0,0
602,561,0,0,0,0,0,0,0,0,0,-1,1826,463,0,0
609,561,0,0,0,0,0,0,0,0,0,-1,1833,463,0,0
616,561,0,0,0,0,0,0,0,0,0,-1,1840,463,0,0
623,561,0,0,0,0,0,0,0,0,0,-1,1847,463,0,0
630,561,0,0,0,0,0,0,0,0,0,-1,1854,463,0,0
637,561,0,0,0,0,0,0,0,0,0,-1,1861,463,0,0
644,561,0,0,0,0,0,0,0,0,0,-1,1868,463,0,0
651,561,0,0,0,0,0,0,0,0,0,-1,1875,463,0,0
658,561,0,0,0,0,0,0,0,0,0,-1,1882,463,0,0
665,561,0,0,0,0,0,0,0,0,0,-1,1889,463,0,0
672,561,0,0,0,0,0,0,0,0,0,-1,1896,463,0,0
679,561,0,0,0,0,0,0,0,0,0,-1,1903,463,0,0
686,561,0,0,0,0,0,0,0,0,0,-1,1910,463,0,0
693,561,0,0,0,0,0,0,0,0,0,-1,1917,463,0,0
700,561,0,0,0,0,0,0,0,0,0,-1,1924,463,0,0
707,561,0,0,0,0,0,0,0,0,0,-1,1931,463,0,0
714,561,0,0,0,0,0,0,0,0,0,-1,1938,463,0,0
721,561,0,0,0,0,0,0,0,0,0,-1,1945,463,0,0
728,561,0,0,0,0,0,0,0,0,0,-1,1952,463,0,0
735,561,0,0,0,0,0,0,0,0,0,-1,1959,463,0,0
742,561,0,0,0,0,0,0,0,0,0,-1,1966,463,0,0
749,561,0,0,0,0,0,0,0,0,0,-1,1973,463,0,0
756,561,0,0,0,0,0,0,0,0,0,-1,1980,463,0,0
763,561,0,0,0,0,0,0,0,0,0,-1,1987,463,0,0
770,561,0,0,0,0,0,0,0,0,0,-1,1994,463,0,0
777,561,0,0,0,0,0,0,0,0,0,-1,2001,463,0,0
784,561,0,0,0,0,0,0,0,0,0,-1,2008,463,0,0
791,561,0,0,0,0,0,0,0,0,0,-1,2015,463,0,0
798,561,0,0,0,0,0,0,0,0,0,-1,2022,463,0,0
805,561,0,0,0,0,0,0,0,0,0,-1,2029,463,0,0
812,561,0,0,0,0,0,0,0,0,0,-1,2036,463,0,0
-700,554,0,0,0,0,0,0,0,0,0,-1,524,470,0,0
-693,554,0,0,0,0,0,0,0,0,0,-1,531,470,0,0
-686,554,0,0,0,0,0,0,0,0,0,-1,538,470,0,0
-679,554,0,0,0,0,0,0,0,0,0,-1,545,470,0,0
-672,554,0,0,0,0,0,0,0,0,0,-1,552,470,0,0
-665,554,0,0,0,0,0,0,0,0,0,-1,559,470,0,0
-658,554,0,0,0,0,0,0,0,0,0,-1,566,470,0,0
-651,554,0,0,0,0,0,0,0,0,0,-1,573,470,0,0
-644,554,0,0,0,0,0,0,0,0,0,-1,580,470,0,0
-637,554,0,0,0,0,0,0,0,0,0,-1,587,470,0,0
-630,554,0,0,0,0,0,0,0,0,0,-1,594,470,0,0
-623,554,0,0,0,0,0,0,0,0,0,-1,601,470,0,0
-616,554,0,0,0,0,0,0,0,0,0,-1,608,470,0,0
-609,554,0,0,0,0,0,0,0,0,0,-1,615,470,0,0
-602,554,0,0,0,0,0,0,0,0,0,-1,622,470,0,0
-595,554,0,0,0,0,0,0,0,0,0,-1,629,470,0,0
-588,554,0,0,0,0,0,0,0,0,0,-1,636,470,0,0
-581,554,0,0,0,0,0,0,0,0,0,-1,643,470,0,0
-574,554,0,0,0,0,0,0,0,0,0,-1,650,470,0,0
-567,554,0,0,0,0,0,0,0,0,0,-1,657,470,0,0
-560,554,0,0,0,0,0,0,0,0,0,-1,664,470,0,0
-553,554,0,0,0,0,0,0,0,0,0,-1,671,470,0,0
-546,554,0,0,0,0,0,0,0,0,0,-1,678,470,0,0
-539,554,0,0,0,0,0,0,0,0,0,-1,685,470,0,0
-532,554,0,0,0,0,0,0,0,0,0,-1,692,470,0,0
-525,554,0,0,0,0,0,0,0,0,0,-1,699,470,0,0
-518,554,0,0,0,0,0,0,0,0,0,-1,706,470,0,0
-511,554,0,0,0,0,0,0,0,0,0,-1,713,470,0,0
-504,554,0,0,0,0,0,0,0,0,0,-1,720,470,0,0
-497,554,0,0,0,0,0,0,0,0,0,-1,727,470,0,0
-490,554,0,0,0,0,0,0,0,0,0,-1,734,470,0,0
-483,554,0,0,0,0,0,0,0,0,0,-1,741,470,0,0
-476,554,0,0,0,0,0,0,0,0,0,-1,748,470,0,0
-469,554,0,0,0,0,0,0,0,0,0,-1,755,470,0,0
-462,554,0,0,0,0,0,0,0,0,0,-1,762,470,0,0
-455,554,0,0,0,0,0,0,0,0,0,-1,769,470,0,0
-448,554,0,0,0,0,0,0,0,0,0,-1,776,470,0,0
-441,554,0,0,0,0,0,0,0,0,0,-1,783,470,0,0
-434,554,0,0,0,0,0,0,0,0,0,-1,790,470,0,0
-427,554,0,0,0,0,0,0,0,0,0,-1,797,470,0,0
-420,554,0,0,0,0,0,0,0,0,0,-1,804,470,0,0
-413,554,0,0,0,0,0,0,0,0,0,-1,811,470,0,0
-406,554,0,0,0,0,0,0,0,0,0,-1,818,470,0,0
-399,554,-1.32275,-3.95142,0,0,0,0,0,0,0,-1,825,470,-1.32275,3.95141
-392,554,-1.35632,-3.7406,0,0,0,0,0,0,0,-1,832,470,-1.35632,3.7406
-385,554,-0.849243,-4.14447,0,0,0,0,0,0,0,-1,839,470,-0.849262,4.14446
-378,554,-0.982666,-4.55084,0,0,0,0,0,0,0,-1,846,470,-0.982671,4.55084
-371,554,-1.74542,-4.63467,0,0,0,0,0,0,0,-1,853,470,-1.74541,4.63468
-364,554,1.04883,-7.68756,0,0,0,0,0,0,0,-1,860,470,1.0488,7.68757
-357,554,1.06714,-11.5403,0,0,0,0,0,0,0,-1,867,470,1.06715,11.5403
-350,554,1.17157,-18.1341,0,0,0,0,0,0,0,-1,874,470,1.17156,18.1341
-343,554,1.32446,-19.8131,0,0,0,0,0,0,0,-1,881,470,1.32446,19.8131
-336,554,1.21075,-20.2374,0.00529436,0.017714,-0.0111675,0.0242821,-0.00127371,-1.03914,0.0166289,0.0427657,888,470,1.21077,20.2374
-329,554,1.08167,-20.8432,0.00551116,0.0144241,-0.00977241,0.0207082,-0.00077296,-0.999324,0.0140702,0.0216975,895,470,1.08166,20.8432
-322,554,1.0174,-21.3943,0.00544328,0.0117255,-0.00852672,0.0176713,-0.000502503,-0.961877,0.0119519,0.0135135,902,470,1.01737,21.3944
-315,554,1.0329,-21.9056,0.00527835,0.0095104,-0.00740165,0.0150926,-0.000303809,-0.924627,0.0101645,0.0127129,909,470,1.03292,21.9056
-308,554,1.02026,-22.4236,0.00498285,0.00784777,-0.00645008,0.0130225,-0.000191921,-0.894667,0.00874637,0.0140234,916,470,1.02024,22.4236
-301,554,1.01123,-22.9576,0.00459594,0.00612203,-0.00553129,0.0109427,-0.000224689,-0.853941,0.00737115,0.0147122,923,470,1.0112,22.9576
-294,554,0.965576,-23.4724,0.00404897,0.00475848,-0.00454007,0.00895764,-0.000150186,-0.824388,0.00602245,0.0129279,930,470,0.965596,23.4723
-287,554,0.931091,-23.9747,0.00344865,0.00364903,-0.00361285,0.00716308,-6.53942e-05,-0.79926,0.00479733,0.0122923,937,470,0.931094,23.9747
-280,554,0.913513,-24.4574,0.00282186,0.00274762,-0.00278681,0.0055718,-2.32062e-06,-0.778739,0.00371531,0.0122212,944,470,0.913513,24.4574
-273,554,0.868225,-24.9707,0.00219015,0.00188269,-0.00194255,0.00398505,8.7793e-05,-0.745912,0.00262792,0.0156053,951,470,0.868214,24.9707
-266,554,0.840332,-25.4384,0.00169462,0.00087861,-0.00102818,0.00239279,0.00018044,-0.596517,0.00153858,0.0132597,958,470,0.840322,25.4384
-259,554,0.835754,-25.8579,0.00137011,-0.000505291,1.23167e-05,0.00137019,-0.000505372,0.00656714,0.00112057,0.0131662,965,470,0.835784,25.8579
-252,554,0.841309,-26.3037,0.0010641,-0.00208055,0.00106011,0.0013881,-0.00240455,0.29661,0.00221575,0.0150622,972,470,0.841319,26.3037
-245,554,0.8255,-26.7791,0.000992694,-0.00369499,0.00209257,0.0017909,-0.00449319,0.36441,0.00373827,0.0162267,979,470,0.825489,26.7791
-238,554,0.83252,-27.2746,0.00114188,-0.00565994,0.00321104,0.00241826,-0.00693631,0.378345,0.0056069,0.0117054,986,470,0.832546,27.2746
-231,554,0.83728,-27.7373,0.0013065,-0.00779998,0.0043196,0.00302947,-0.00952296,0.379536,0.00756348,0.0103177,993,470,0.837253,27.7373
-224,554,0.842529,-28.1596,0.00139742,-0.0101941,0.00555483,0.00362955,-0.0124262,0.382088,0.0097225,0.0105323,1000,470,0.842552,28.1596
-217,554,0.856262,-28.5781,0.00148513,-0.0126114,0.00686989,0.00427931,-0.0154055,0.386292,0.0119549,0.0103466,1007,470,0.856233,28.5781
-210,554,0.876404,-28.994,0.00171231,-0.0152283,0.00845419,0.00520944,-0.0187254,0.392223,0.0145347,0.0142419,1014,470,0.876417,28.994
-203,554,0.858704,-29.356,0.00208873,-0.0178972,0.0100523,0.00626997,-0.0220784,0.394179,0.0171943,0.0245871,1021,470,0.858679,29.356
-196,554,0.766602,-29.6202,0.00230653,-0.0202468,0.0114517,0.00710176,-0.025042,0.396551,0.0194979,0.0306221,1028,470,0.766554,29.6202
-189,554,0.811768,-29.8907,0.0023595,-0.0226623,0.0132897,0.0081007,-0.0284035,0.407787,0.0221356,0.0379364,1035,470,0.811813,29.8907
-182,554,0.86499,-30.138,0,0,0,0,0,0,0,-1,1042,470,0.865022,30.138
-175,554,0.780273,-30.7404,0,0,0,0,0,0,0,-1,1049,470,0.780245,30.7404
-168,554,0.642212,-31.142,0,0,0,0,0,0,0,-1,1056,470,0.642269,31.142
-161,554,0.530151,-31.2648,0.00250395,-0.0354094,0.0220615,0.0126345,-0.0455399,0.430474,0.0353326,0.0480439,1063,470,0.530158,31.2648
-154,554,0.639771,-31.471,0.00241278,-0.038686,0.0241978,0.0136094,-0.0498827,0.433376,0.0385998,0.0466902,1070,470,0.639824,31.471
-147,554,0.781738,-31.8032,0,0,0,0,0,0,0,-1,1077,470,0.78169,31.8032
-140,554,3.14563,-26.981,0,0,0,0,0,0,0,-1,1084,470,3.14569,26.981
-133,554,2.422,-32.2281,0,0,0,0,0,0,0,-1,1091,470,2.42197,32.2281
-126,554,1.76379,-32.0261,0,0,0,0,0,0,0,-1,1098,470,1.76376,32.0261
-119,554,1.50964,-29.6382,0,0,0,0,0,0,0,-1,1105,470,1.5096,29.6383
-112,554,1.03162,-24.5784,0,0,0,0,0,0,0,-1,1112,470,1.03156,24.5784
-105,554,0.608765,-21.0475,0,0,0,0,0,0,0,-1,1119,470,0.608728,21.0475
-98,554,1.51929,-7.3624,0,0,0,0,0,0,0,-1,1126,470,1.51928,7.36241
-91,554,1.41089,-6.5864,0,0,0,0,0,0,0,-1,1133,470,1.41093,6.58638
-84,554,1.62305,-5.87186,0,0,0,0,0,0,0,-1,1140,470,1.62299,5.87186
-77,554,-2.56958,1.33258,0,0,0,0,0,0,0,-1,1147,470,-2.56959,-1.33257
-70,554,-3.68164,-1.18332,0,0,0,0,0,0,0,-1,1154,470,-3.68158,1.18331
-63,554,-4.86853,-3.88708,0,0,0,0,0,0,0,-1,1161,470,-4.86853,3.88708
-56,554,-5.69958,-6.45422,0,0,0,0,0,0,0,-1,1168,470,-5.69955,6.45422
-49,554,-6.23645,-8.8569,0,0,0,0,0,0,0,-1,1175,470,-6.23643,8.85689
-42,554,-6.62524,-11.5382,0,0,0,0,0,0,0,-1,1182,470,-6.62522,11.5382
-35,554,-2.40173,-4.59482,0,0,0,0,0,0,0,-1,1189,470,-2.40169,4.59481
-28,554,-0.760132,-1.65555,0,0,0,0,0,0,0,-1,1196,470,-0.760095,1.65556
-21,554,-6.11462,-31.9121,0,0,0,0,0,0,0,-1,1203,470,-6.11458,31.9122
-14,554,2.19788,-34.4213,0,0,0,0,0,0,0,-1,1210,470,2.19784,34.4213
-7,554,0.0767822,-33.0583,0,0,0,0,0,0,0,-1,1217,470,0.076815,33.0583
0,554,3.71729,-46.879,0,0,0,0,0,0,0,-1,1224,470,3.71733,46.8791
7,554,10.3652,-42.6125,0,0,0,0,0,0,0,-1,1231,470,10.3653,42.6125
14,554,9.17004,-42.3051,0,0,0,0,0,0,0,-1,1238,470,9.17002,42.305
21,554,8.0249,-42.0229,0,0,0,0,0,0,0,-1,1245,470,8.02489,42.0229
28,554,6.85535,-41.6732,-0.104531,0.169156,0.0564572,0.180344,-0.115719,1.37515,0.172285,0.0444396,1252,470,6.8553,41.6732
35,554,5.78381,-41.3884,-0.120613,0.17134,0.05755,0.182275,-0.131547,1.38303,0.181973,0.0405101,1259,470,5.78379,41.3884
42,554,5.13159,-41.3156,-0.133797,0.17095,0.0580942,0.181649,-0.144496,1.38867,0.188706,0.0430589,1266,470,5.13159,41.3156
49,554,6.56482,-39.325,0,0,0,0,0,0,0,-1,1273,470,6.56485,39.325
56,554,5.19519,-39.5985,-0.154644,0.163206,0.0598016,0.174084,-0.165523,1.39085,0.196093,0.0440505,1280,470,5.1952,39.5985
63,554,3.59583,-39.8079,-0.161254,0.155526,0.0620687,0.167254,-0.172982,1.38406,0.196444,0.0445082,1287,470,3.59588,39.8079
70,554,2.3772,-39.9366,0,0,0,0,0,0,0,-1,1294,470,2.37717,39.9365
77,554,1.0686,-39.8708,-0.163562,0.130736,0.0653113,0.144579,-0.177405,1.36193,0.186219,0.046043,1301,470,1.06858,39.8709
84,554,-1.0177,-38.6379,-0.153117,0.105504,0.0602392,0.118847,-0.16646,1.35282,0.165485,0.0475635,1308,470,-1.0177,38.6379
91,554,-1.99683,-38.4331,0,0,0,0,0,0,0,-1,1315,470,-1.99678,38.4331
98,554,-2.83887,-38.0442,0,0,0,0,0,0,0,-1,1322,470,-2.83886,38.0442
105,554,-3.22754,-36.6053,0,0,0,0,0,0,0,-1,1329,470,-3.22753,36.6053
112,554,-3.87378,-36.2287,0,0,0,0,0,0,0,-1,1336,470,-3.87381,36.2287
119,554,-4.52014,-35.8521,0,0,0,0,0,0,0,-1,1343,470,-4.52009,35.8521
126,554,-4.72595,-34.9205,-0.0375766,-0.01593,0.0663719,0.0404953,-0.0940019,0.866222,0.0796739,0.0440188,1350,470,-4.72598,34.9205
133,554,-5.33435,-34.9234,-0.00833147,-0.0327087,0.0686883,0.0492413,-0.0902814,0.697588,0.0817068,0.0447537,1357,470,-5.3344,34.9234
140,554,-5.84778,-35.0813,0.0255001,-0.0403789,0.0733796,0.0729942,-0.0878731,0.574432,0.0930091,0.0477457,1364,470,-5.84779,35.0813
147,554,-6.37378,-35.2202,0,0,0,0,0,0,0,-1,1371,470,-6.37383,35.2201
154,554,-6.70776,-36.365,0.100338,-0.0365796,0.0936389,0.147874,-0.0841159,0.469753,0.135615,0.0472845,1378,470,-6.70775,36.365
161,554,-5.12292,-34.5718,0.13677,-0.0282836,0.108504,0.190566,-0.0820796,0.460278,0.161512,0.0458185,1385,470,-5.12297,34.5718
168,554,-4.54663,-34.4074,0,0,0,0,0,0,0,-1,1392,470,-4.54668,34.4074
175,554,10.663,0.286957,0,0,0,0,0,0,0,-1,1399,470,10.663,-0.286966
182,554,6.71106,-4.50217,0,0,0,0,0,0,0,-1,1406,470,6.71107,4.50215
189,554,6.90479,-2.50348,0,0,0,0,0,0,0,-1,1413,470,6.90477,2.50348
196,554,6.96216,-0.740906,0,0,0,0,0,0,0,-1,1420,470,6.96214,0.740912
203,554,6.43518,0.414154,0,0,0,0,0,0,0,-1,1427,470,6.43523,-0.414141
210,554,6.21167,1.96707,0,0,0,0,0,0,0,-1,1434,470,6.21165,-1.96706
217,554,5.64551,3.4989,0,0,0,0,0,0,0,-1,1441,470,5.64555,-3.49891
224,554,4.85144,-8.85172,0,0,0,0,0,0,0,-1,1448,470,4.85146,8.85173
231,554,3.25073,-5.29642,0,0,0,0,0,0,0,-1,1455,470,3.25078,5.29642
238,554,4.28625,-3.25253,0,0,0,0,0,0,0,-1,1462,470,4.28622,3.25252
245,554,4.0752,-2.90033,0,0,0,0,0,0,0,-1,1469,470,4.07515,2.90032
252,554,3.52112,-0.934998,0,0,0,0,0,0,0,-1,1476,470,3.52113,0.934996
259,554,3.96448,-2.16425,0,0,0,0,0,0,0,-1,1483,470,3.96446,2.16424
266,554,3.0592,-2.71716,0,0,0,0,0,0,0,-1,1490,470,3.05923,2.71718
273,554,2.58521,-3.06876,0,0,0,0,0,0,0,-1,1497,470,2.58524,3.06874
280,554,2.83301,-0.991699,0,0,0,0,0,0,0,-1,1504,470,2.83303,0.991704
287,554,3.54126,-4.12277,0,0,0,0,0,0,0,-1,1511,470,3.54123,4.12277
294,554,3.62036,-8.50146,0,0,0,0,0,0,0,-1,1518,470,3.62031,8.50145
301,554,8.77271,-29.5704,0,0,0,0,0,0,0,-1,1525,470,8.77273,29.5704
308,554,9.01624,-29.6956,0,0,0,0,0,0,0,-1,1532,470,9.01626,29.6956
315,554,9.099,-29.4974,0,0,0,0,0,0,0,-1,1539,470,9.09895,29.4974
322,554,9.12708,-29.1591,0,0,0,0,0,0,0,-1,1546,470,9.12706,29.1591
329,554,9.18286,-28.4327,0.000906789,-0.00897389,-0.00509612,0.00306416,-0.0111313,-0.400459,0.00862559,0.0423939,1553,470,9.18289,28.4327
336,554,9.17188,-28.1934,0.000303722,-0.007522,-0.00474473,0.0025409,-0.00975918,-0.440595,0.007498,0.0259917,1560,470,9.17185,28.1934
343,554,9.17651,-27.809,-0.000308201,-0.00627586,-0.00442798,0.00204747,-0.00863153,-0.488916,0.00654449,0.014383,1567,470,9.17654,27.809
350,554,9.21509,-27.3257,-0.000641789,-0.00512169,-0.00395228,0.00166116,-0.00742463,-0.527593,0.00558642,0.0099478,1574,470,9.21507,27.3257
357,554,9.22693,-26.8531,-0.000834581,-0.00382263,-0.0034103,0.0013946,-0.00605182,-0.578945,0.00457089,0.0105126,1581,470,9.22688,26.8531
364,554,9.19836,-26.4146,-0.000874631,-0.00279426,-0.00275303,0.0010811,-0.00474999,-0.617667,0.00358183,0.00887725,1588,470,9.19832,26.4146
371,554,9.18213,-25.943,-0.000755138,-0.00186209,-0.0020523,0.000817008,-0.00343424,-0.653688,0.00260489,0.00864973,1595,470,9.18215,25.943
378,554,9.18542,-25.4416,-0.000566116,-0.000895959,-0.00135736,0.000636308,-0.00209838,-0.724944,0.00165238,0.0106227,1602,470,9.18541,25.4416
385,554,9.18872,-24.9426,-0.000339431,0.000260119,-0.000672135,0.0006963,-0.000775612,-0.995161,0.00085022,0.0102797,1609,470,9.18877,24.9426
392,554,9.17749,-24.4339,0.00015236,0.00115147,1.81141e-05,0.0011518,0.000152032,1.55267,0.00072254,0.0134931,1616,470,9.17744,24.4339
399,554,9.15906,-23.9149,0.00109538,0.00207972,0.00100571,0.00270723,0.000467866,1.01295,0.00167084,0.0180813,1623,470,9.15904,23.9149
406,554,9.13281,-23.429,0.00185356,0.00308507,0.00184281,0.00441228,0.000526356,0.946636,0.00278271,0.0167834,1630,470,9.13277,23.429
413,554,9.13123,-22.9123,0.00274966,0.00450202,0.00238464,0.00616636,0.00108533,0.961455,0.00380113,0.015562,1637,470,9.13125,22.9123
420,554,9.11719,-22.3863,0.00385852,0.00572158,0.00280246,0.00774327,0.00183682,0.945852,0.00467186,0.0165781,1644,470,9.11719,22.3863
427,554,9.10364,-21.8511,0.00496148,0.00665706,0.00313069,0.00905272,0.00256582,0.917626,0.00538754,0.0119641,1651,470,9.10367,21.8511
434,554,9.06836,-21.3155,0.0062027,0.00783981,0.0033967,0.0105152,0.00352732,0.903637,0.00617956,0.0102165,1658,470,9.06838,21.3155
441,554,9.04614,-20.7785,0.00738994,0.00892202,0.00344318,0.0116833,0.00462861,0.894856,0.00679369,0.0114497,1665,470,9.04616,20.7785
448,554,9.03149,-20.1982,0.00833444,0.00992407,0.00321304,0.0124391,0.00581936,0.90665,0.0071867,0.017097,1672,470,9.03151,20.1981
455,554,8.97534,-19.6427,0.00909192,0.0106844,0.00268981,0.0126934,0.00708298,0.9293,0.00734493,0.0191417,1679,470,8.97533,19.6427
462,554,8.89075,-19.1101,0.00959443,0.0112854,0.00204932,0.0126568,0.00822302,0.981041,0.00741575,0.0213862,1686,470,8.89079,19.1101
469,554,8.87268,-18.5766,0.00961985,0.0116457,0.00144691,0.012399,0.00886655,1.09079,0.0073761,0.0248448,1693,470,8.87265,18.5766
476,554,8.78235,-18.0025,0.00905711,0.0119239,0.00136004,0.0124664,0.00851457,1.19122,0.00735643,0.043945,1700,470,8.7823,18.0025
483,554,8.68506,-17.4631,0,0,0,0,0,0,0,-1,1707,470,8.68506,17.4631
490,554,11.1191,-11.7417,0,0,0,0,0,0,0,-1,1714,470,11.1192,11.7417
497,554,10.9613,1.60983,0,0,0,0,0,0,0,-1,1721,470,10.9613,-1.60982
504,554,2.13257,-3.81628,0,0,0,0,0,0,0,-1,1728,470,2.1326,3.8163
511,554,1.31396,-4.02713,0,0,0,0,0,0,0,-1,1735,470,1.31398,4.02712
518,554,5.04236,-5.9472,0,0,0,0,0,0,0,-1,1742,470,5.04231,5.94721
525,554,0,0,0,0,0,0,0,0,0,-1,1749,470,0,0
532,554,0,0,0,0,0,0,0,0,0,-1,1756,470,0,0
539,554,0,0,0,0,0,0,0,0,0,-1,1763,470,0,0
546,554,0,0,0,0,0,0,0,0,0,-1,1770,470,0,0
553,554,0,0,0,0,0,0,0,0,0,-1,1777,470,0,0
560,554,0,0,0,0,0,0,0,0,0,-1,1784,470,0,0
567,554,0,0,0,0,0,0,0,0,0,-1,1791,470,0,0
574,554,0,0,0,0,0,0,0,0,0,-1,1798,470,0,0
581,554,0,0,0,0,0,0,0,0,0,-1,1805,470,0,0
588,554,0,0,0,0,0,0,0,0,0,-1,1812,470,0,0
595,554,0,0,0,0,0,0,0,0,0,-1,1819,470,0,0
602,554,0,0,0,0,0,0,0,0,0,-1,1826,470,0,0
609,554,0,0,0,0,0,0,0,0,0,-1,1833,470,0,0
616,554,0,0,0,0,0,0,0,0,0,-1,1840,470,0,0
623,554,0,0,0,0,0,0,0,0,0,-1,1847,470,0,0
630,554,0,0,0,0,0,0,0,0,0,-1,1854,470,0,0
637,554,0,0,0,0,0,0,0,0,0,-1,1861,470,0,0
644,554,0,0,0,0,0,0,0,0,0,-1,1868,470,0,0
651,554,0,0,0,0,0,0,0,0,0,-1,1875,470,0,0
658,554,0,0,0,0,0,0,0,0,0,-1,1882,470,0,0
665,554,0,0,0,0,0,0,0,0,0,-1,1889,470,0,0
672,554,0,0,0,0,0,0,0,0,0,-1,1896,470,0,0
679,554,0,0,0,0,0,0,0,0,0,-1,1903,470,0,0
686,554,0,0,0,0,0,0,0,0,0,-1,1910,470,0,0
693,554,0,0,0,0,0,0,0,0,0,-1,1917,470,0,0
700,554,0,0,0,0,0,0,0,0,0,-1,1924,470,0,0
707,554,0,0,0,0,0,0,0,0,0,-1,1931,470,0,0
714,554,0,0,0,0,0,0,0,0,0,-1,1938,470,0,0
721,554,0,0,0,0,0,0,0,0,0,-1,1945,470,0,0
728,554,0,0,0,0,0,0,0,0,0,-1,1952,470,0,0
735,554,0,0,0,0,0,0,0,0,0,-1,1959,470,0,0
742,554,0,0,0,0,0,0,0,0,0,-1,1966,470,0,0
749,554,0,0,0,0,0,0,0,0,0,-1,1973,470,0,0
756,554,0,0,0,0,0,0,0,0,0,-1,1980,470,0,0
763,554,0,0,0,0,0,0,0,0,0,-1,1987,470,0,0
770,554,0,0,0,0,0,0,0,0,0,-1,1994,470,0,0
777,554,0,0,0,0,0,0,0,0,0,-1,2001,470,0,0
784,554,0,0,0,0,0,0,0,0,0,-1,2008,470,0,0
791,554,0,0,0,0,0,0,0,0,0,-1,2015,470,0,0
798,554,0,0,0,0,0,0,0,0,0,-1,2022,470,0,0
805,554,0,0,0,0,0,0,0,0,0,-1,2029,470,0,0
812,554,0,0,0,0,0,0,0,0,0,-1,2036,470,0,0
-700,547,0,0,0,0,0,0,0,0,0,-1,524,477,0,0
-693,547,0,0,0,0,0,0,0,0,0,-1,531,477,0,0
-686,547,0,0,0,0,0,0,0,0,0,-1,538,477,0,0
-679,547,0,0,0,0,0,0,0,0,0,-1,545,477,0,0
-672,547,0,0,0,0,0,0,0,0,0,-1,552,477,0,0
-665,547,0,0,0,0,0,0,0,0,0,-1,559,477,0,0
-658,547,0,0,0,0,0,0,0,0,0,-1,566,477,0,0
-651,547,0,0,0,0,0,0,0,0,0,-1,573,477,0,0
-644,547,0,0,0,0,0,0,0,0,0,-1,580,477,0,0
-637,547,0,0,0,0,0,0,0,0,0,-1,587,477,0,0
-630,547,0,0,0,0,0,0,0,0,0,-1,594,477,0,0
-623,547,0,0,0,0,0,0,0,0,0,-1,601,477,0,0
-616,547,0,0,0,0,0,0,0,0,0,-1,608,477,0,0
-609,547,0,0,0,0,0,0,0,0,0,-1,615,477,0,0
-602,547,0,0,0,0,0,0,0,0,0,-1,622,477,0,0
-595,547,0,0,0,0,0,0,0,0,0,-1,629,477,0,0
-588,547,0,0,0,0,0,0,0,0,0,-1,636,477,0,0
-581,547,0,0,0,0,0,0,0,0,0,-1,643,477,0,0
-574,547,0,0,0,0,0,0,0,0,0,-1,650,477,0,0
-567,547,0,0,0,0,0,0,0,0,0,-1,657,477,0,0
-560,547,0,0,0,0,0,0,0,0,0,-1,664,477,0,0
-553,547,0,0,0,0,0,0,0,0,0,-1,671,477,0,0
-546,547,0,0,0,0,0,0,0,0,0,-1,678,477,0,0
-539,547,0,0,0,0,0,0,0,0,0,-1,685,477,0,0
-532,547,0,0,0,0,0,0,0,0,0,-1,692,477,0,0
-525,547,0,0,0,0,0,0,0,0,0,-1,699,477,0,0
-518,547,0,0,0,0,0,0,0,0,0,-1,706,477,0,0
-511,547,0,0,0,0,0,0,0,0,0,-1,713,477,0,0
-504,547,0,0,0,0,0,0,0,0,0,-1,720,477,0,0
-497,547,0,0,0,0,0,0,0,0,0,-1,727,477,0,0
-490,547,0,0,0,0,0,0,0,0,0,-1,734,477,0,0
-483,547,0,0,0,0,0,0,0,0,0,-1,741,477,0,0
-476,547,0,0,0,0,0,0,0,0,0,-1,748,477,0,0
-469,547,0,0,0,0,0,0,0,0,0,-1,755,477,0,0
-462,547,0,0,0,0,0,0,0,0,0,-1,762,477,0,0
-455,547,0,0,0,0,0,0,0,0,0,-1,769,477,0,0
-448,547,0,0,0,0,0,0,0,0,0,-1,776,477,0,0
-441,547,0,0,0,0,0,0,0,0,0,-1,783,477,0,0
-434,547,0,0,0,0,0,0,0,0,0,-1,790,477,0,0
-427,547,0,0,0,0,0,0,0,0,0,-1,797,477,0,0
-420,547,0,0,0,0,0,0,0,0,0,-1,804,477,0,0
-413,547,0,0,0,0,0,0,0,0,0,-1,811,477,0,0
-406,547,0.144592,-11.0292,0,0,0,0,0,0,0,-1,818,477,0.144583,11.0292
-399,547,0.775513,-10.0294,0,0,0,0,0,0,0,-1,825,477,0.775482,10.0295
-392,547,-1.52271,-4.41675,0,0,0,0,0,0,0,-1,832,477,-1.52273,4.41674
-385,547,-1.73743,-4.6431,0,0,0,0,0,0,0,-1,839,477,-1.73743,4.64308
-378,547,-2.41339,-4.60071,0,0,0,0,0,0,0,-1,846,477,-2.41337,4.60071
-371,547,1.64569,-11.1445,0,0,0,0,0,0,0,-1,853,477,1.64569,11.1445
-364,547,0.271729,-4.58582,0,0,0,0,0,0,0,-1,860,477,0.271753,4.5858
-357,547,0.782593,-17.9728,0,0,0,0,0,0,0,-1,867,477,0.782602,17.9728
-350,547,0.714722,-18.5436,0,0,0,0,0,0,0,-1,874,477,0.714716,18.5436
-343,547,0.702148,-19.5125,0.0026084,0.0174534,-0.00983968,0.0223562,-0.00229439,-1.10854,0.0157248,0.0464101,881,477,0.702119,19.5125
-336,547,0.639648,-20.2744,0.00287202,0.0145253,-0.0087445,0.0192066,-0.00180924,-1.07928,0.0134481,0.0188527,888,477,0.639635,20.2744
-329,547,0.57782,-20.8424,0.00307294,0.0117064,-0.00752901,0.0160684,-0.00128905,-1.04569,0.0111668,0.0114671,895,477,0.57783,20.8424
-322,547,0.553223,-21.3826,0.00309145,0.00936881,-0.00644004,0.0133943,-0.000934042,-1.01214,0.00925661,0.0118467,902,477,0.553241,21.3826
-315,547,0.526917,-21.931,0.00307734,0.00745066,-0.00544806,0.0111345,-0.000606507,-0.976239,0.00763321,0.0103181,909,477,0.52691,21.931
-308,547,0.519958,-22.4416,0.00296816,0.00594546,-0.00458074,0.00927337,-0.00035975,-0.942505,0.00630559,0.0115511,916,477,0.519935,22.4416
-301,547,0.499634,-22.9482,0.00277646,0.00434544,-0.00372943,0.00737199,-0.000250093,-0.889063,0.00500011,0.0117821,923,477,0.499643,22.9482
-294,547,0.459839,-23.452,0.00250438,0.00307996,-0.00284496,0.00565165,-6.73088e-05,-0.835806,0.0037904,0.0105163,930,477,0.459823,23.452
-287,547,0.444031,-23.9503,0.00219316,0.00202775,-0.00201694,0.00412909,9.18233e-05,-0.764907,0.00272264,0.0124045,937,477,0.444011,23.9504
-280,547,0.450073,-24.4471,0.00180996,0.00114657,-0.00125577,0.0027771,0.000179432,-0.656278,0.00179458,0.0140756,944,477,0.450083,24.4471
-273,547,0.420959,-24.9204,0.00140571,0.000287281,-0.000463945,0.0015731,0.000119882,-0.346277,0.00101115,0.0127652,951,477,0.420986,24.9204
-266,547,0.380554,-25.3976,0.00112199,-0.000766091,0.000432292,0.00121626,-0.000860361,0.21471,0.00120479,0.0124865,958,477,0.380539,25.3976
-259,547,0.351746,-25.8415,0.000974526,-0.00217991,0.00148367,0.00156269,-0.00276808,0.377422,0.00253245,0.0116643,965,477,0.351776,25.8415
-252,547,0.373352,-26.2969,0.000887729,-0.00400131,0.00257724,0.00199537,-0.00510895,0.40591,0.00423095,0.0110802,972,477,0.373342,26.2969
-245,547,0.380188,-26.766,0.000932709,-0.00585969,0.00374586,0.00259276,-0.00751974,0.417158,0.00606504,0.0119424,979,477,0.380186,26.766
-238,547,0.388611,-27.2552,0.00110875,-0.00806003,0.00499229,0.00330224,-0.0102535,0.413983,0.00816221,0.00855883,986,477,0.388591,27.2552
-231,547,0.382324,-27.7124,0.00136054,-0.0105312,0.00622542,0.00402334,-0.013194,0.404181,0.0103998,0.00843484,993,477,0.382334,27.7124
-224,547,0.383972,-28.1073,0.00144614,-0.013408,0.00773555,0.00474287,-0.0167048,0.402869,0.0130089,0.0117902,1000,477,0.383999,28.1073
-217,547,0.407166,-28.5184,0.00149096,-0.0163918,0.00937538,0.00550512,-0.0204059,0.404544,0.0157628,0.0187395,1007,477,0.407171,28.5184
-210,547,0.44873,-28.7917,0.00172118,-0.0196826,0.0113945,0.00665144,-0.0246129,0.408365,0.0190175,0.0322524,1014,477,0.448707,28.7917
-203,547,0.453552,-28.7534,0.00218602,-0.0230545,0.0134365,0.00799973,-0.0288682,0.408357,0.0223935,0.0447016,1021,477,0.453564,28.7534
-196,547,0.39978,-28.7722,0,0,0,0,0,0,0,-1,1028,477,0.399732,28.7723
-189,547,0.244385,-29.5095,0,0,0,0,0,0,0,-1,1035,477,0.244428,29.5095
-182,547,-0.0454102,-23.1846,0,0,0,0,0,0,0,-1,1042,477,-0.0454543,23.1846
-175,547,-0.350098,-12.3584,0,0,0,0,0,0,0,-1,1049,477,-0.350098,12.3584
-168,547,-0.00317383,-30.214,0,0,0,0,0,0,0,-1,1056,477,-0.00312615,30.214
-161,547,-0.266846,-30.9523,0,0,0,0,0,0,0,-1,1063,477,-0.266788,30.9523
-154,547,-0.284424,-31.1176,0,0,0,0,0,0,0,-1,1070,477,-0.284395,31.1176
-147,547,3.69434,-26.413,0,0,0,0,0,0,0,-1,1077,477,3.69437,26.413
-140,547,1.55676,-22.5229,0,0,0,0,0,0,0,-1,1084,477,1.5568,22.5229
-133,547,2.31665,-17.9421,0,0,0,0,0,0,0,-1,1091,477,2.31667,17.9421
-126,547,1.7063,-26.5276,0,0,0,0,0,0,0,-1,1098,477,1.70634,26.5276
-119,547,0.967651,-24.9351,0,0,0,0,0,0,0,-1,1105,477,0.967657,24.9351
-112,547,1.15674,-22.2276,0,0,0,0,0,0,0,-1,1112,477,1.15677,22.2276
-105,547,0.966797,-20.5777,0,0,0,0,0,0,0,-1,1119,477,0.966804,20.5777
-98,547,0.70166,-18.9755,0,0,0,0,0,0,0,-1,1126,477,0.701713,18.9755
-91,547,1.37805,-7.12024,0,0,0,0,0,0,0,-1,1133,477,1.37804,7.12025
-84,547,1.94202,-6.66241,0,0,0,0,0,0,0,-1,1140,477,1.94201,6.66241
-77,547,-2.28357,1.8588,0,0,0,0,0,0,0,-1,1147,477,-2.28356,-1.85879
-70,547,-3.70178,-0.874908,0,0,0,0,0,0,0,-1,1154,477,-3.70182,0.874918
-63,547,-5.12012,-3.60861,0,0,0,0,0,0,0,-1,1161,477,-5.12009,3.60862
-56,547,-6.01917,-6.2399,0,0,0,0,0,0,0,-1,1168,477,-6.01921,6.23991
-49,547,-6.729,-8.60349,0,0,0,0,0,0,0,-1,1175,477,-6.72899,8.60348
-42,547,-2.41736,-5.53012,0,0,0,0,0,0,0,-1,1182,477,-2.41734,5.53011
-35,547,-2.96838,-4.45734,0,0,0,0,0,0,0,-1,1189,477,-2.96839,4.45734
-28,547,-0.869141,-1.29901,0,0,0,0,0,0,0,-1,1196,477,-0.869135,1.29901
-21,547,-7.68262,-30.8089,0,0,0,0,0,0,0,-1,1203,477,-7.68256,30.8089
-14,547,-0.369873,-32.6582,0,0,0,0,0,0,0,-1,1210,477,-0.369835,32.6582
-7,547,-0.265503,-32.8521,0,0,0,0,0,0,0,-1,1217,477,-0.265543,32.8521
0,547,-0.160889,-33.0137,0,0,0,0,0,0,0,-1,1224,477,-0.160899,33.0137
7,547,4.97021,-44.3665,0,0,0,0,0,0,0,-1,1231,477,4.97026,44.3665
14,547,0,0,0,0,0,0,0,0,0,-1,1238,477,0,0
21,547,0,0,0,0,0,0,0,0,0,-1,1245,477,0,0
28,547,0,0,0,0,0,0,0,0,0,-1,1252,477,0,0
35,547,0,0,0,0,0,0,0,0,0,-1,1259,477,0,0
42,547,0,0,0,0,0,0,0,0,0,-1,1266,477,0,0
49,547,0,0,0,0,0,0,0,0,0,-1,1273,477,0,0
56,547,0,0,0,0,0,0,0,0,0,-1,1280,477,0,0
63,547,0,0,0,0,0,0,0,0,0,-1,1287,477,0,0
70,547,0,0,0,0,0,0,0,0,0,-1,1294,477,0,0
77,547,0,0,0,0,0,0,0,0,0,-1,1301,477,0,0
84,547,0,0,0,0,0,0,0,0,0,-1,1308,477,0,0
91,547,0,0,0,0,0,0,0,0,0,-1,1315,477,0,0
98,547,0,0,0,0,0,0,0,0,0,-1,1322,477,0,0
105,547,-6.30908,-24.7713,0,0,0,0,0,0,0,-1,1329,477,-6.30902,24.7713
112,547,-4.54895,-36.2889,0,0,0,0,0,0,0,-1,1336,477,-4.54896,36.2889
119,547,-7.47571,-23.0082,0,0,0,0,0,0,0,-1,1343,477,-7.47572,23.0082
126,547,-5.0531,-34.8758,0,0,0,0,0,0,0,-1,1350,477,-5.05315,34.8758
133,547,-5.52454,-34.0622,-0.0157082,-0.0452402,0.0414124,0.0134919,-0.0744403,0.614145,0.0546819,0.0446996,1357,477,-5.5245,34.0622
140,547,-5.94653,-34.3976,0.0159454,-0.0563343,0.0447042,0.0372907,-0.0776797,0.44547,0.0677297,0.0446311,1364,477,-5.94659,34.3976
147,547,-6.37329,-34.7717,0,0,0,0,0,0,0,-1,1371,477,-6.37334,34.7717
154,547,-7.02429,-35.308,0,0,0,0,0,0,0,-1,1378,477,-7.02426,35.308
161,547,-7.76672,-35.6038,0,0,0,0,0,0,0,-1,1385,477,-7.76675,35.6037
168,547,13.4181,-26.3557,0,0,0,0,0,0,0,-1,1392,477,13.4181,26.3557
175,547,3.35034,-0.26532,0,0,0,0,0,0,0,-1,1399,477,3.3503,0.265306
182,547,4.26038,3.72672,0,0,0,0,0,0,0,-1,1406,477,4.26039,-3.7267
189,547,3.40454,1.28671,0,0,0,0,0,0,0,-1,1413,477,3.40457,-1.28673
196,547,3.53931,1.87793,0,0,0,0,0,0,0,-1,1420,477,3.53928,-1.87794
203,547,6.49414,-0.425842,0,0,0,0,0,0,0,-1,1427,477,6.4941,0.425844
210,547,4.82092,0.53595,0,0,0,0,0,0,0,-1,1434,477,4.82096,-0.535942
217,547,4.68579,0.480072,0,0,0,0,0,0,0,-1,1441,477,4.68577,-0.480069
224,547,4.55615,0.739807,0,0,0,0,0,0,0,-1,1448,477,4.55613,-0.73981
231,547,5.90869,-3.57721,0,0,0,0,0,0,0,-1,1455,477,5.90871,3.57722
238,547,5.50049,-3.15356,0,0,0,0,0,0,0,-1,1462,477,5.50045,3.15356
245,547,5.13708,-2.65213,0,0,0,0,0,0,0,-1,1469,477,5.13708,2.65212
252,547,3.73511,-0.645233,0,0,0,0,0,0,0,-1,1476,477,3.73515,0.645237
259,547,5.86816,-3.20816,0,0,0,0,0,0,0,-1,1483,477,5.86815,3.20816
266,547,5.40222,-2.45731,0,0,0,0,0,0,0,-1,1490,477,5.40221,2.45732
273,547,3.05737,0.495789,0,0,0,0,0,0,0,-1,1497,477,3.05742,-0.49578
280,547,2.0885,1.47797,0,0,0,0,0,0,0,-1,1504,477,2.08848,-1.47795
287,547,2.31177,-2.21716,0,0,0,0,0,0,0,-1,1511,477,2.31174,2.21717
294,547,2.4823,-3.03659,0,0,0,0,0,0,0,-1,1518,477,2.48229,3.0366
301,547,4.72119,-3.93454,0,0,0,0,0,0,0,-1,1525,477,4.72119,3.93453
308,547,4.07471,-5.42175,0,0,0,0,0,0,0,-1,1532,477,4.07468,5.42174
315,547,3.58496,-6.62112,0,0,0,0,0,0,0,-1,1539,477,3.58497,6.62113
322,547,5.73926,-14.1878,0,0,0,0,0,0,0,-1,1546,477,5.73926,14.1878
329,547,9.53418,-28.3251,0,0,0,0,0,0,0,-1,1553,477,9.53421,28.3251
336,547,9.61792,-28.3601,0,0,0,0,0,0,0,-1,1560,477,9.61793,28.3601
343,547,9.7948,-27.9086,-0.00134788,-0.00847672,-0.00625894,0.00229043,-0.012115,-0.526556,0.00893853,0.0476533,1567,477,9.79483,27.9086
350,547,9.70728,-27.3558,-0.00162641,-0.00715719,-0.00569157,0.00193602,-0.0107196,-0.559256,0.00787152,0.0277084,1574,477,9.70724,27.3558
357,547,9.69922,-26.8733,-0.00172087,-0.00566512,-0.0050378,0.00171705,-0.00910305,-0.598835,0.00671463,0.0152746,1581,477,9.69925,26.8733
364,547,9.67456,-26.3899,-0.0016377,-0.00449231,-0.00425894,0.00142674,-0.00755675,-0.623715,0.00557461,0.0100488,1588,477,9.67452,26.3899
371,547,9.67688,-25.9031,-0.00135716,-0.00342908,-0.00342367,0.00118386,-0.00597009,-0.638483,0.00442775,0.00949633,1595,477,9.67683,25.9031
378,547,9.67578,-25.4215,-0.000998311,-0.00231156,-0.00256415,0.000991948,-0.00430182,-0.660052,0.0032494,0.0110172,1602,477,9.67579,25.4215
385,547,9.68103,-24.9203,-0.000632202,-0.001062,-0.00168085,0.000847427,-0.00254163,-0.721817,0.00203654,0.0111122,1609,477,9.681,24.9203
392,547,9.67163,-24.4151,-0.000218123,-8.73718e-05,-0.000921933,0.0007715,-0.001077,-0.820795,0.00107208,0.01208,1616,477,9.67164,24.4151
399,547,9.64563,-23.9031,0.000415706,0.000770484,-6.76007e-05,0.000782928,0.000403262,-1.38875,0.000452092,0.0134926,1623,477,9.64558,23.9031
406,547,9.65417,-23.403,0.00103923,0.001731,0.000736308,0.00219862,0.000571612,1.00498,0.00131722,0.0132172,1630,477,9.65423,23.403
413,547,9.65308,-22.8918,0.00176347,0.00297683,0.0013801,0.00387771,0.000862588,0.992481,0.00235096,0.0135577,1637,477,9.65309,22.8917
420,547,9.63574,-22.3967,0.00263847,0.00408624,0.00193241,0.0054259,0.00129881,0.964609,0.00327143,0.0156842,1644,477,9.63573,22.3967
427,547,9.61707,-21.858,0.00344019,0.00492927,0.00229564,0.00659809,0.00177137,0.942211,0.0039432,0.0150175,1651,477,9.61712,21.858
434,547,9.56726,-21.3349,0.00430695,0.00589203,0.00257961,0.0077981,0.00240088,0.934438,0.00461169,0.0101416,1658,477,9.56721,21.3349
441,547,9.54028,-20.8175,0.00513511,0.0067468,0.0027034,0.00876191,0.00312001,0.930247,0.00512806,0.0099106,1665,477,9.54029,20.8175
448,547,9.52039,-20.259,0.00579396,0.00754268,0.00265057,0.00945939,0.00387726,0.944716,0.00549087,0.0105688,1672,477,9.52044,20.259
455,547,9.50244,-19.7112,0.00632608,0.00814292,0.00241152,0.00981144,0.00465756,0.965529,0.00566705,0.0117285,1679,477,9.50242,19.7113
462,547,9.45154,-19.1657,0.00668553,0.00859631,0.00216385,0.0100063,0.00527554,0.993289,0.00577999,0.0123194,1686,477,9.4515,19.1657
469,547,9.40759,-18.5657,0.00664025,0.0088858,0.00203045,0.0100832,0.00544282,1.03796,0.0058277,0.0200041,1693,477,9.40758,18.5657
476,547,9.42346,-17.8909,0.00601168,0.0091764,0.00241125,0.0104781,0.00470994,1.07577,0.00605983,0.0352393,1700,477,9.42346,17.8909
483,547,9.49011,-17.2102,0,0,0,0,0,0,0,-1,1707,477,9.49011,17.2102
490,547,3.65271,-3.71707,0,0,0,0,0,0,0,-1,1714,477,3.65277,3.71708
497,547,2.55481,-3.81421,0,0,0,0,0,0,0,-1,1721,477,2.55476,3.8142
504,547,4.01953,-2.22714,0,0,0,0,0,0,0,-1,1728,477,4.0195,2.22713
511,547,5.2146,-6.9552,0,0,0,0,0,0,0,-1,1735,477,5.21464,6.95521
518,547,5.24243,-6.56122,0,0,0,0,0,0,0,-1,1742,477,5.24241,6.56121
525,547,5.89368,-5.49866,0,0,0,0,0,0,0,-1,1749,477,5.89372,5.49866
532,547,0,0,0,0,0,0,0,0,0,-1,1756,477,0,0
539,547,0,0,0,0,0,0,0,0,0,-1,1763,477,0,0
546,547,0,0,0,0,0,0,0,0,0,-1,1770,477,0,0
553,547,0,0,0,0,0,0,0,0,0,-1,1777,477,0,0
560,547,0,0,0,0,0,0,0,0,0,-1,1784,477,0,0
567,547,0,0,0,0,0,0,0,0,0,-1,1791,477,0,0
574,547,0,0,0,0,0,0,0,0,0,-1,1798,477,0,0
581,547,0,0,0,0,0,0,0,0,0,-1,1805,477,0,0
588,547,0,0,0,0,0,0,0,0,0,-1,1812,477,0,0
595,547,0,0,0,0,0,0,0,0,0,-1,1819,477,0,0
602,547,0,0,0,0,0,0,0,0,0,-1,1826,477,0,0
609,547,0,0,0,0,0,0,0,0,0,-1,1833,477,0,0
616,547,0,0,0,0,0,0,0,0,0,-1,1840,477,0,0
623,547,0,0,0,0,0,0,0,0,0,-1,1847,477,0,0
630,547,0,0,0,0,0,0,0,0,0,-1,1854,477,0,0
637,547,0,0,0,0,0,0,0,0,0,-1,1861,477,0,0
644,547,0,0,0,0,0,0,0,0,0,-1,1868,477,0,0
651,547,0,0,0,0,0,0,0,0,0,-1,1875,477,0,0
658,547,0,0,0,0,0,0,0,0,0,-1,1882,477,0,0
665,547,0,0,0,0,0,0,0,0,0,-1,1889,477,0,0
672,547,0,0,0,0,0,0,0,0,0,-1,1896,477,0,0
679,547,0,0,0,0,0,0,0,0,0,-1,1903,477,0,0
686,547,0,0,0,0,0,0,0,0,0,-1,1910,477,0,0
693,547,0,0,0,0,0,0,0,0,0,-1,1917,477,0,0
700,547,0,0,0,0,0,0,0,0,0,-1,1924,477,0,0
707,547,0,0,0,0,0,0,0,0,0,-1,1931,477,0,0
714,547,0,0,0,0,0,0,0,0,0,-1,1938,477,0,0
721,547,0,0,0,0,0,0,0,0,0,-1,1945,477,0,0
728,547,0,0,0,0,0,0,0,0,0,-1,1952,477,0,0
735,547,0,0,0,0,0,0,0,0,0,-1,1959,477,0,0
742,547,0,0,0,0,0,0,0,0,0,-1,1966,477,0,0
749,547,0,0,0,0,0,0,0,0,0,-1,1973,477,0,0
756,547,0,0,0,0,0,0,0,0,0,-1,1980,477,0,0
763,547,0,0,0,0,0,0,0,0,0,-1,1987,477,0,0
770,547,0,0,0,0,0,0,0,0,0,-1,1994,477,0,0
777,547,0,0,0,0,0,0,0,0,0,-1,2001,477,0,0
784,547,0,0,0,0,0,0,0,0,0,-1,2008,477,0,0
791,547,0,0,0,0,0,0,0,0,0,-1,2015,477,0,0
798,547,0,0,0,0,0,0,0,0,0,-1,2022,477,0,0
805,547,0,0,0,0,0,0,0,0,0,-1,2029,477,0,0
812,547,0,0,0,0,0,0,0,0,0,-1,2036,477,0,0
-700,540,0,0,0,0,0,0,0,0,0,-1,524,484,0,0
-693,540,0,0,0,0,0,0,0,0,0,-1,531,484,0,0
-686,540,0,0,0,0,0,0,0,0,0,-1,538,484,0,0
-679,540,0,0,0,0,0,0,0,0,0,-1,545,484,0,0
-672,540,0,0,0,0,0,0,0,0,0,-1,552,484,0,0
-665,540,0,0,0,0,0,0,0,0,0,-1,559,484,0,0
-658,540,0,0,0,0,0,0,0,0,0,-1,566,484,0,0
-651,540,0,0,0,0,0,0,0,0,0,-1,573,484,0,0
-644,540,0,0,0,0,0,0,0,0,0,-1,580,484,0,0
-637,540,0,0,0,0,0,0,0,0,0,-1,587,484,0,0
-630,540,0,0,0,0,0,0,0,0,0,-1,594,484,0,0
-623,540,0,0,0,0,0,0,0,0,0,-1,601,484,0,0
-616,540,0,0,0,0,0,0,0,0,0,-1,608,484,0,0
-609,540,0,0,0,0,0,0,0,0,0,-1,615,484,0,0
-602,540,0,0,0,0,0,0,0,0,0,-1,622,484,0,0
-595,540,0,0,0,0,0,0,0,0,0,-1,629,484,0,0
-588,540,0,0,0,0,0,0,0,0,0,-1,636,484,0,0
-581,540,0,0,0,0,0,0,0,0,0,-1,643,484,0,0
-574,540,0,0,0,0,0,0,0,0,0,-1,650,484,0,0
-567,540,0,0,0,0,0,0,0,0,0,-1,657,484,0,0
-560,540,0,0,0,0,0,0,0,0,0,-1,664,484,0,0
-553,540,0,0,0,0,0,0,0,0,0,-1,671,484,0,0
-546,540,0,0,0,0,0,0,0,0,0,-1,678,484,0,0
-539,540,0,0,0,0,0,0,0,0,0,-1,685,484,0,0
-532,540,0,0,0,0,0,0,0,0,0,-1,692,484,0,0
-525,540,0,0,0,0,0,0,0,0,0,-1,699,484,0,0
-518,540,0,0,0,0,0,0,0,0,0,-1,706,484,0,0
-511,540,0,0,0,0,0,0,0,0,0,-1,713,484,0,0
-504,540,0,0,0,0,0,0,0,0,0,-1,720,484,0,0
-497,540,0,0,0,0,0,0,0,0,0,-1,727,484,0,0
-490,540,0,0,0,0,0,0,0,0,0,-1,734,484,0,0
-483,540,0,0,0,0,0,0,0,0,0,-1,741,484,0,0
-476,540,0,0,0,0,0,0,0,0,0,-1,748,484,0,0
-469,540,0,0,0,0,0,0,0,0,0,-1,755,484,0,0
-462,540,0,0,0,0,0,0,0,0,0,-1,762,484,0,0
-455,540,0,0,0,0,0,0,0,0,0,-1,769,484,0,0
-448,540,0,0,0,0,0,0,0,0,0,-1,776,484,0,0
-441,540,0,0,0,0,0,0,0,0,0,-1,783,484,0,0
-434,540,0,0,0,0,0,0,0,0,0,-1,790,484,0,0
-427,540,0,0,0,0,0,0,0,0,0,-1,797,484,0,0
-420,540,0.227051,-10.0402,0,0,0,0,0,0,0,-1,804,484,0.227063,10.0402
-413,540,-0.0393677,-10.3862,0,0,0,0,0,0,0,-1,811,484,-0.0393683,10.3862
-406,540,-0.518372,-11.5288,0,0,0,0,0,0,0,-1,818,484,-0.518402,11.5288
-399,540,0.0863037,-11.3801,0,0,0,0,0,0,0,-1,825,484,0.0863201,11.3801
-392,540,-0.517395,-10.6735,0,0,0,0,0,0,0,-1,832,484,-0.517377,10.6735
-385,540,-2.29407,-5.03418,0,0,0,0,0,0,0,-1,839,484,-2.29408,5.03418
-378,540,1.06445,-10.5824,0,0,0,0,0,0,0,-1,846,484,1.06446,10.5824
-371,540,1.14825,-10.7452,0,0,0,0,0,0,0,-1,853,484,1.14827,10.7452
-364,540,0.272766,-17.4763,0,0,0,0,0,0,0,-1,860,484,0.272774,17.4763
-357,540,0.247009,-18.22,0.00247063,0.0214088,-0.0115536,0.0268779,-0.00299843,-1.12868,0.0189971,0.0485189,867,484,0.246999,18.22
-350,540,0.18158,-18.8752,0.00213774,0.0174083,-0.00957957,0.0220231,-0.00247711,-1.12186,0.0155736,0.0364157,874,484,0.181554,18.8752
-343,540,0.129456,-19.6848,0.00158488,0.0141887,-0.00791034,0.0180005,-0.00222695,-1.12175,0.0128073,0.0193903,881,484,0.129451,19.6848
-336,540,0.0721436,-20.3605,0.00163159,0.011647,-0.00680896,0.0150914,-0.00181287,-1.10246,0.0107165,0.0128914,888,484,0.0721249,20.3605
-329,540,0.0502319,-20.8767,0.00175071,0.00919488,-0.00570678,0.0122861,-0.00134051,-1.07437,0.00867218,0.010307,895,484,0.0502431,20.8767
-322,540,0.0424194,-21.4046,0.00175601,0.00714537,-0.00471455,0.009881,-0.000979624,-1.04502,0.00693697,0.0153481,902,484,0.0424311,21.4046
-315,540,0.0153198,-21.9192,0.00177629,0.00547286,-0.00380353,0.0078534,-0.000604256,-1.01157,0.0054482,0.0140421,909,484,0.0153073,21.9192
-308,540,0.0250854,-22.4238,0.00172831,0.0040884,-0.00296849,0.0061028,-0.000286086,-0.974583,0.00416717,0.0130665,916,484,0.0250818,22.4238
-301,540,-0.0129395,-22.9165,0.00160732,0.00260992,-0.00213863,0.00430522,-8.79762e-05,-0.900521,0.00289992,0.012922,923,484,-0.0129481,22.9165
-294,540,-0.0314941,-23.4156,0.00146808,0.0014544,-0.00131263,0.00277389,0.000148593,-0.782794,0.00180177,0.0114931,930,484,-0.031518,23.4156
-287,540,-0.0271606,-23.9209,0.00132111,0.000470662,-0.00055031,0.00159134,0.000200431,-0.456463,0.0010008,0.00906602,937,484,-0.0271578,23.9209
-280,540,-0.0409546,-24.4033,0.0010842,-0.000360525,0.000167767,0.00110343,-0.000379751,0.114101,0.000889641,0.0108704,944,484,-0.0409369,24.4033
-273,540,-0.0506592,-24.8885,0.000830219,-0.00117225,0.000923085,0.0011908,-0.00153284,0.372404,0.00157662,0.0127447,951,484,-0.0506884,24.8885
-266,540,-0.072998,-25.3717,0.000698244,-0.00222867,0.00180893,0.00156158,-0.003092,0.445291,0.00273475,0.0129601,958,484,-0.0730221,25.3717
-259,540,-0.103943,-25.8391,0.000694626,-0.00360891,0.00287174,0.00213131,-0.0050456,0.463874,0.00425594,0.0116856,965,484,-0.103929,25.8391
-252,540,-0.0828857,-26.285,0.00081167,-0.00562806,0.00400301,0.00272908,-0.00754547,0.446701,0.00614543,0.0108622,972,484,-0.082913,26.285
-245,540,-0.0740967,-26.7436,0.000978603,-0.00772559,0.00531298,0.00349444,-0.0102414,0.442245,0.00824314,0.0115139,979,484,-0.0741206,26.7436
-238,540,-0.0890503,-27.2024,0.00119482,-0.0101821,0.00671543,0.00430724,-0.0132946,0.434001,0.0105948,0.0101734,986,484,-0.0890241,27.2024
-231,540,-0.0837402,-27.6567,0.00154732,-0.013094,0.0081451,0.00517813,-0.0167248,0.419328,0.0132184,0.016062,993,484,-0.0837261,27.6567
-224,540,-0.109436,-28.0485,0.00162405,-0.0166568,0.0100654,0.00607997,-0.0211127,0.416763,0.01648,0.0277231,1000,484,-0.10943,28.0485
-217,540,-0.163574,-28.2506,0.00162526,-0.0204956,0.012202,0.00703363,-0.025904,0.417216,0.0200298,0.0399563,1007,484,-0.163599,28.2506
-210,540,-0.15448,-28.4629,0.00184634,-0.024816,0.0148918,0.0085023,-0.0314719,0.420319,0.024316,0.0486346,1014,484,-0.154454,28.4629
-203,540,-0.271484,-28.7474,0,0,0,0,0,0,0,-1,1021,484,-0.271498,28.7474
-196,540,-0.143799,-26.0272,0,0,0,0,0,0,0,-1,1028,484,-0.143848,26.0272
-189,540,-0.726807,-22.826,0,0,0,0,0,0,0,-1,1035,484,-0.72684,22.8259
-182,540,0.109375,-15.2948,0,0,0,0,0,0,0,-1,1042,484,0.109331,15.2948
-175,540,1.73413,-10.728,0,0,0,0,0,0,0,-1,1049,484,1.73414,10.728
-168,540,1.18164,-7.65347,0,0,0,0,0,0,0,-1,1056,484,1.18163,7.65347
-161,540,-0.405884,-9.86481,0,0,0,0,0,0,0,-1,1063,484,-0.405886,9.8648
-154,540,1.96863,-22.0727,0,0,0,0,0,0,0,-1,1070,484,1.96859,22.0727
-147,540,1.32764,-21.9952,0,0,0,0,0,0,0,-1,1077,484,1.32762,21.9952
-140,540,1.40735,-15.6289,0,0,0,0,0,0,0,-1,1084,484,1.4073,15.6289
-133,540,2.28345,-17.6413,0,0,0,0,0,0,0,-1,1091,484,2.2835,17.6413
-126,540,1.25293,-23.9108,0,0,0,0,0,0,0,-1,1098,484,1.25288,23.9108
-119,540,1.55969,-23.0125,0,0,0,0,0,0,0,-1,1105,484,1.55968,23.0125
-112,540,1.4801,-21.6515,0,0,0,0,0,0,0,-1,1112,484,1.4801,21.6515
-105,540,1.30078,-19.8938,0,0,0,0,0,0,0,-1,1119,484,1.30077,19.8938
-98,540,1.08105,-18.1304,0,0,0,0,0,0,0,-1,1126,484,1.08101,18.1304
-91,540,1.56519,-7.48666,0,0,0,0,0,0,0,-1,1133,484,1.56514,7.48667
-84,540,-0.945923,4.43073,0,0,0,0,0,0,0,-1,1140,484,-0.945891,-4.43074
-77,540,-2.28894,2.14368,0,0,0,0,0,0,0,-1,1147,484,-2.28894,-2.14368
-70,540,-3.75244,-0.452576,0,0,0,0,0,0,0,-1,1154,484,-3.75244,0.452576
-63,540,-5.26257,-3.04767,0,0,0,0,0,0,0,-1,1161,484,-5.26262,3.04766
-56,540,-5.19055,-6.12595,0,0,0,0,0,0,0,-1,1168,484,-5.19057,6.12595
-49,540,-5.63867,-8.52298,0,0,0,0,0,0,0,-1,1175,484,-5.63871,8.52298
-42,540,0,0,0,0,0,0,0,0,0,-1,1182,484,0,0
-35,540,0,0,0,0,0,0,0,0,0,-1,1189,484,0,0
-28,540,0,0,0,0,0,0,0,0,0,-1,1196,484,0,0
-21,540,0,0,0,0,0,0,0,0,0,-1,1203,484,0,0
-14,540,0,0,0,0,0,0,0,0,0,-1,1210,484,0,0
-7,540,0,0,0,0,0,0,0,0,0,-1,1217,484,0,0
0,540,0,0,0,0,0,0,0,0,0,-1,1224,484,0,0
7,540,0,0,0,0,0,0,0,0,0,-1,1231,484,0,0
14,540,0,0,0,0,0,0,0,0,0,-1,1238,484,0,0
21,540,0,0,0,0,0,0,0,0,0,-1,1245,484,0,0
28,540,0,0,0,0,0,0,0,0,0,-1,1252,484,0,0
35,540,0,0,0,0,0,0,0,0,0,-1,1259,484,0,0
42,540,0,0,0,0,0,0,0,0,0,-1,1266,484,0,0
49,540,0,0,0,0,0,0,0,0,0,-1,1273,484,0,0
56,540,0,0,0,0,0,0,0,0,0,-1,1280,484,0,0
63,540,0,0,0,0,0,0,0,0,0,-1,1287,484,0,0
70,540,0,0,0,0,0,0,0,0,0,-1,1294,484,0,0
77,540,0,0,0,0,0,0,0,0,0,-1,1301,484,0,0
84,540,0,0,0,0,0,0,0,0,0,-1,1308,484,0,0
91,540,0,0,0,0,0,0,0,0,0,-1,1315,484,0,0
98,540,0,0,0,0,0,0,0,0,0,-1,1322,484,0,0
105,540,0,0,0,0,0,0,0,0,0,-1,1329,484,0,0
112,540,0,0,0,0,0,0,0,0,0,-1,1336,484,0,0
119,540,0,0,0,0,0,0,0,0,0,-1,1343,484,0,0
126,540,0,0,0,0,0,0,0,0,0,-1,1350,484,0,0
133,540,0,0,0,0,0,0,0,0,0,-1,1357,484,0,0
140,540,0,0,0,0,0,0,0,0,0,-1,1364,484,0,0
147,540,0,0,0,0,0,0,0,0,0,-1,1371,484,0,0
154,540,0,0,0,0,0,0,0,0,0,-1,1378,484,0,0
161,540,0,0,0,0,0,0,0,0,0,-1,1385,484,0,0
168,540,3.05078,-0.0010376,0,0,0,0,0,0,0,-1,1392,484,3.05084,0.00102554
175,540,3.37708,0.617035,0,0,0,0,0,0,0,-1,1399,484,3.37707,-0.617046
182,540,3.32678,1.23267,0,0,0,0,0,0,0,-1,1406,484,3.32678,-1.23266
189,540,3.5813,2.15619,0,0,0,0,0,0,0,-1,1413,484,3.58129,-2.1562
196,540,1.84448,-0.801483,0,0,0,0,0,0,0,-1,1420,484,1.84446,0.80148
203,540,4.14648,0.702087,0,0,0,0,0,0,0,-1,1427,484,4.14645,-0.702089
210,540,4.50671,-0.56076,0,0,0,0,0,0,0,-1,1434,484,4.50667,0.560771
217,540,5.00452,-0.278717,0,0,0,0,0,0,0,-1,1441,484,5.00452,0.278709
224,540,6.44458,-2.83527,0,0,0,0,0,0,0,-1,1448,484,6.44457,2.83525
231,540,6.9231,-3.10504,0,0,0,0,0,0,0,-1,1455,484,6.92307,3.10505
238,540,6.4823,-2.58365,0,0,0,0,0,0,0,-1,1462,484,6.48225,2.58363
245,540,6.02087,-1.97916,0,0,0,0,0,0,0,-1,1469,484,6.02088,1.97915
252,540,6.50647,-3.56006,0,0,0,0,0,0,0,-1,1476,484,6.50649,3.56006
259,540,6.01941,-2.798,0,0,0,0,0,0,0,-1,1483,484,6.01941,2.79801
266,540,5.5332,-2.02853,0,0,0,0,0,0,0,-1,1490,484,5.53323,2.02855
273,540,5.06787,-1.28137,0,0,0,0,0,0,0,-1,1497,484,5.06786,1.28136
280,540,1.62903,-2.14609,0,0,0,0,0,0,0,-1,1504,484,1.62906,2.1461
287,540,1.97156,-2.45053,0,0,0,0,0,0,0,-1,1511,484,1.97159,2.45053
294,540,2.44165,-2.6185,0,0,0,0,0,0,0,-1,1518,484,2.44167,2.6185
301,540,4.36169,-2.54272,0,0,0,0,0,0,0,-1,1525,484,4.36165,2.54272
308,540,4.2019,-4.30469,0,0,0,0,0,0,0,-1,1532,484,4.20193,4.3047
315,540,4.45923,-5.32101,0,0,0,0,0,0,0,-1,1539,484,4.45923,5.32103
322,540,4.71655,-6.33737,0,0,0,0,0,0,0,-1,1546,484,4.71653,6.33736
329,540,5.8949,-12.9383,0,0,0,0,0,0,0,-1,1553,484,5.89492,12.9383
336,540,7.16467,-17.7826,0,0,0,0,0,0,0,-1,1560,484,7.16469,17.7826
343,540,10.4647,-28.1258,0,0,0,0,0,0,0,-1,1567,484,10.4647,28.1258
350,540,10.1416,-27.4473,0,0,0,0,0,0,0,-1,1574,484,10.1416,27.4473
357,540,10.2666,-26.6478,-0.0033825,-0.00788481,-0.0071585,0.00187047,-0.0131378,-0.633058,0.00944395,0.0390838,1581,484,10.2666,26.6478
364,540,10.1267,-26.2987,-0.00300877,-0.00642871,-0.00612433,0.00163983,-0.0110773,-0.64926,0.00798779,0.0222505,1588,484,10.1267,26.2987
371,540,10.1348,-25.8646,-0.00240355,-0.00508665,-0.00502682,0.00145766,-0.00894786,-0.654998,0.00650579,0.0149273,1595,484,10.1347,25.8646
378,540,10.1641,-25.3982,-0.00172611,-0.0036674,-0.00388485,0.00130752,-0.00670103,-0.662977,0.00496097,0.0125001,1602,484,10.1641,25.3982
385,540,10.1779,-24.9081,-0.00110512,-0.00223003,-0.00271991,0.00110989,-0.00444503,-0.683439,0.00339435,0.0141723,1609,484,10.1779,24.9081
392,540,10.1503,-24.3957,-0.000676775,-0.00110035,-0.00183798,0.000961576,-0.0027387,-0.728037,0.00221696,0.0132467,1616,484,10.1502,24.3957
399,540,10.1375,-23.9123,-0.000241316,-0.000254456,-0.00106303,0.000815165,-0.00131094,-0.782308,0.00123858,0.0175641,1623,484,10.1374,23.9123
406,540,10.1621,-23.4128,0.00035008,0.000696632,-0.000254111,0.000830923,0.000215789,-1.08463,0.000497859,0.0174781,1630,484,10.1621,23.4128
413,540,10.1405,-22.8945,0.00100135,0.00179654,0.000510581,0.00204607,0.000751816,1.11621,0.00119506,0.0131246,1637,484,10.1405,22.8945
420,540,10.137,-22.3534,0.00174674,0.00281853,0.00120898,0.00360506,0.000960211,0.994015,0.0021558,0.0118566,1644,484,10.137,22.3534
427,540,10.0951,-21.8402,0.00234631,0.00358397,0.00161601,0.00469558,0.0012347,0.968254,0.00281072,0.0130522,1651,484,10.0951,21.8402
434,540,10.0629,-21.3307,0.00294926,0.00435275,0.00192132,0.00569646,0.00160554,0.960493,0.0033916,0.0159481,1658,484,10.0628,21.3308
441,540,10.0741,-20.7854,0.00353702,0.00502026,0.00210983,0.00651501,0.00204226,0.954407,0.0038477,0.0185607,1665,484,10.0741,20.7854
448,540,10.0564,-20.264,0.00402834,0.00564511,0.00219362,0.00717456,0.00249889,0.961936,0.0042053,0.0117129,1672,484,10.0564,20.264
455,540,10.0287,-19.7178,0.00442579,0.00611751,0.00215831,0.0075898,0.0029535,0.972154,0.00441773,0.0108299,1679,484,10.0287,19.7178
462,540,9.97607,-19.145,0.0047013,0.00646722,0.00217053,0.00792752,0.00324101,0.978573,0.00460225,0.0111931,1686,484,9.97605,19.145
469,540,9.93445,-18.5655,0.004622,0.00670806,0.0023275,0.00821555,0.0031145,0.996048,0.00478925,0.0142126,1693,484,9.93442,18.5655
476,540,9.9342,-17.9862,0.00397189,0.00699198,0.00295662,0.00880185,0.00216201,1.0215,0.00529642,0.0184059,1700,484,9.9342,17.9862
483,540,9.98181,-17.3662,0.00331908,0.00712659,0.00367399,0.00936077,0.0010849,1.02444,0.00591216,0.0331301,1707,484,9.98183,17.3662
490,540,10.1395,-16.6779,0,0,0,0,0,0,0,-1,1714,484,10.1396,16.6779
497,540,10.1476,-15.9936,0,0,0,0,0,0,0,-1,1721,484,10.1476,15.9936
504,540,5.96704,-6.98599,0,0,0,0,0,0,0,-1,1728,484,5.96708,6.98598
511,540,5.82471,-6.83521,0,0,0,0,0,0,0,-1,1735,484,5.82465,6.83522
518,540,9.98181,-12.4608,0,0,0,0,0,0,0,-1,1742,484,9.98187,12.4608
525,540,11.2628,-13.8818,0,0,0,0,0,0,0,-1,1749,484,11.2629,13.8818
532,540,2.84265,-1.07925,0,0,0,0,0,0,0,-1,1756,484,2.84269,1.07927
539,540,0,0,0,0,0,0,0,0,0,-1,1763,484,0,0
546,540,0,0,0,0,0,0,0,0,0,-1,1770,484,0,0
553,540,0,0,0,0,0,0,0,0,0,-1,1777,484,0,0
560,540,0,0,0,0,0,0,0,0,0,-1,1784,484,0,0
567,540,0,0,0,0,0,0,0,0,0,-1,1791,484,0,0
574,540,0,0,0,0,0,0,0,0,0,-1,1798,484,0,0
581,540,0,0,0,0,0,0,0,0,0,-1,1805,484,0,0
588,540,0,0,0,0,0,0,0,0,0,-1,1812,484,0,0
595,540,0,0,0,0,0,0,0,0,0,-1,1819,484,0,0
602,540,0,0,0,0,0,0,0,0,0,-1,1826,484,0,0
609,540,0,0,0,0,0,0,0,0,0,-1,1833,484,0,0
616,540,0,0,0,0,0,0,0,0,0,-1,1840,484,0,0
623,540,0,0,0,0,0,0,0,0,0,-1,1847,484,0,0
630,540,0,0,0,0,0,0,0,0,0,-1,1854,484,0,0
637,540,0,0,0,0,0,0,0,0,0,-1,1861,484,0,0
644,540,0,0,0,0,0,0,0,0,0,-1,1868,484,0,0
651,540,0,0,0,0,0,0,0,0,0,-1,1875,484,0,0
658,540,0,0,0,0,0,0,0,0,0,-1,1882,484,0,0
665,540,0,0,0,0,0,0,0,0,0,-1,1889,484,0,0
672,540,0,0,0,0,0,0,0,0,0,-1,1896,484,0,0
679,540,0,0,0,0,0,0,0,0,0,-1,1903,484,0,0
686,540,0,0,0,0,0,0,0,0,0,-1,1910,484,0,0
693,540,0,0,0,0,0,0,0,0,0,-1,1917,484,0,0
700,540,0,0,0,0,0,0,0,0,0,-1,1924,484,0,0
707,540,0,0,0,0,0,0,0,0,0,-1,1931,484,0,0
714,540,0,0,0,0,0,0,0,0,0,-1,1938,484,0,0
721,540,0,0,0,0,0,0,0,0,0,-1,1945,484,0,0
728,540,0,0,0,0,0,0,0,0,0,-1,1952,484,0,0
735,540,0,0,0,0,0,0,0,0,0,-1,1959,484,0,0
742,540,0,0,0,0,0,0,0,0,0,-1,1966,484,0,0
749,540,0,0,0,0,0,0,0,0,0,-1,1973,484,0,0
756,540,0,0,0,0,0,0,0,0,0,-1,1980,484,0,0
763,540,0,0,0,0,0,0,0,0,0,-1,1987,484,0,0
770,540,0,0,0,0,0,0,0,0,0,-1,1994,484,0,0
777,540,0,0,0,0,0,0,0,0,0,-1,2001,484,0,0
784,540,0,0,0,0,0,0,0,0,0,-1,2008,484,0,0
791,540,0,0,0,0,0,0,0,0,0,-1,2015,484,0,0
798,540,0,0,0,0,0,0,0,0,0,-1,2022,484,0,0
805,540,0,0,0,0,0,0,0,0,0,-1,2029,484,0,0
812,540,0,0,0,0,0,0,0,0,0,-1,2036,484,0,0
-700,533,0,0,0,0,0,0,0,0,0,-1,524,491,0,0
-693,533,0,0,0,0,0,0,0,0,0,-1,531,491,0,0
-686,533,0,0,0,0,0,0,0,0,0,-1,538,491,0,0
-679,533,0,0,0,0,0,0,0,0,0,-1,545,491,0,0
-672,533,0,0,0,0,0,0,0,0,0,-1,552,491,0,0
-665,533,0,0,0,0,0,0,0,0,0,-1,559,491,0,0
-658,533,0,0,0,0,0,0,0,0,0,-1,566,491,0,0
-651,533,0,0,0,0,0,0,0,0,0,-1,573,491,0,0
-644,533,0,0,0,0,0,0,0,0,0,-1,580,491,0,0
-637,533,0,0,0,0,0,0,0,0,0,-1,587,491,0,0
-630,533,0,0,0,0,0,0,0,0,0,-1,594,491,0,0
-623,533,0,0,0,0,0,0,0,0,0,-1,601,491,0,0
-616,533,0,0,0,0,0,0,0,0,0,-1,608,491,0,0
-609,533,0,0,0,0,0,0,0,0,0,-1,615,491,0,0
-602,533,0,0,0,0,0,0,0,0,0,-1,622,491,0,0
-595,533,0,0,0,0,0,0,0,0,0,-1,629,491,0,0
-588,533,0,0,0,0,0,0,0,0,0,-1,636,491,0,0
-581,533,0,0,0,0,0,0,0,0,0,-1,643,491,0,0
-574,533,0,0,0,0,0,0,0,0,0,-1,650,491,0,0
-567,533,0,0,0,0,0,0,0,0,0,-1,657,491,0,0
-560,533,0,0,0,0,0,0,0,0,0,-1,664,491,0,0
-553,533,0,0,0,0,0,0,0,0,0,-1,671,491,0,0
-546,533,0,0,0,0,0,0,0,0,0,-1,678,491,0,0
-539,533,0,0,0,0,0,0,0,0,0,-1,685,491,0,0
-532,533,0,0,0,0,0,0,0,0,0,-1,692,491,0,0
-525,533,0,0,0,0,0,0,0,0,0,-1,699,491,0,0
-518,533,0,0,0,0,0,0,0,0,0,-1,706,491,0,0
-511,533,0,0,0,0,0,0,0,0,0,-1,713,491,0,0
-504,533,0,0,0,0,0,0,0,0,0,-1,720,491,0,0
-497,533,0,0,0,0,0,0,0,0,0,-1,727,491,0,0
-490,533,0,0,0,0,0,0,0,0,0,-1,734,491,0,0
-483,533,0,0,0,0,0,0,0,0,0,-1,741,491,0,0
-476,533,0,0,0,0,0,0,0,0,0,-1,748,491,0,0
-469,533,0,0,0,0,0,0,0,0,0,-1,755,491,0,0
-462,533,0,0,0,0,0,0,0,0,0,-1,762,491,0,0
-455,533,0,0,0,0,0,0,0,0,0,-1,769,491,0,0
-448,533,0,0,0,0,0,0,0,0,0,-1,776,491,0,0
-441,533,0,0,0,0,0,0,0,0,0,-1,783,491,0,0
-434,533,0,0,0,0,0,0,0,0,0,-1,790,491,0,0
-427,533,0.559814,-4.40222,0,0,0,0,0,0,0,-1,797,491,0.559816,4.40222
-420,533,-1.11127,-10.9054,0,0,0,0,0,0,0,-1,804,491,-1.11124,10.9054
-413,533,-0.704773,-11.0942,0,0,0,0,0,0,0,-1,811,491,-0.704742,11.0942
-406,533,-0.670898,-12.0899,0,0,0,0,0,0,0,-1,818,491,-0.670908,12.0899
-399,533,-0.455017,-12.4423,0,0,0,0,0,0,0,-1,825,491,-0.455032,12.4423
-392,533,-1.89661,-10.3905,0,0,0,0,0,0,0,-1,832,491,-1.89661,10.3905
-385,533,-1.69116,-6.64645,0,0,0,0,0,0,0,-1,839,491,-1.69115,6.64645
-378,533,-0.19519,-16.3619,0,0,0,0,0,0,0,-1,846,491,-0.195188,16.3619
-371,533,-0.442078,-17.4046,0,0,0,0,0,0,0,-1,853,491,-0.442103,17.4046
-364,533,-0.374023,-17.9956,0.00277906,0.0209862,-0.011424,0.0264903,-0.00272499,-1.12182,0.018635,0.0383836,860,491,-0.373994,17.9956
-357,533,-0.322754,-18.5667,0.00218262,0.0173499,-0.00957911,0.0219839,-0.0024514,-1.12022,0.0155377,0.0237223,867,491,-0.322729,18.5666
-350,533,-0.309875,-19.1896,0.00164847,0.0140038,-0.00780053,0.0177766,-0.00212433,-1.12031,0.0126189,0.014656,874,491,-0.30985,19.1896
-343,533,-0.366821,-19.7859,0.00106366,0.0111631,-0.00623174,0.0141343,-0.00190748,-1.1259,0.0101188,0.0123862,881,491,-0.36683,19.7859
-336,533,-0.422852,-20.3527,0.00088181,0.00893725,-0.00508925,0.0113998,-0.00158069,-1.12014,0.00817782,0.0155361,888,491,-0.422879,20.3527
-329,533,-0.440674,-20.8658,0.000889071,0.0068069,-0.00405819,0.00887035,-0.00117438,-1.1004,0.00634138,0.0146609,895,491,-0.440654,20.8659
-322,533,-0.458679,-21.3801,0.000857919,0.00501778,-0.00313131,0.006697,-0.000821305,-1.07856,0.0047621,0.0127874,902,491,-0.458664,21.3801
-315,533,-0.490723,-21.892,0.000881371,0.00357042,-0.0022797,0.00487256,-0.000420761,-1.05183,0.00339732,0.0141909,909,491,-0.490751,21.892
-308,533,-0.498962,-22.4061,0.000881344,0.00233992,-0.00149632,0.00327521,-5.39523e-05,-1.01215,0.00220168,0.0132458,916,491,-0.498991,22.4061
-301,533,-0.531067,-22.8898,0.000819043,0.00101334,-0.000702679,0.00162556,0.00020683,-0.854091,0.00102176,0.0143405,923,491,-0.531095,22.8898
-294,533,-0.532593,-23.3757,0.000808159,-2.10328e-06,4.76858e-05,0.000810956,-4.90004e-06,0.0585828,0.000542278,0.0127212,930,491,-0.532606,23.3757
-287,533,-0.517761,-23.8859,0.000835756,-0.000894033,0.000718352,0.00109517,-0.00115345,0.346551,0.00129839,0.0095798,937,491,-0.517779,23.8859
-280,533,-0.532959,-24.3968,0.000777667,-0.00166641,0.0013634,0.00138654,-0.00227528,0.42001,0.0021348,0.00933899,944,491,-0.532983,24.3968
-273,533,-0.555603,-24.881,0.000712347,-0.00242133,0.00205445,0.00172925,-0.00343824,0.459622,0.00303735,0.0132408,951,491,-0.555629,24.8811
-266,533,-0.558716,-25.3542,0.000755048,-0.00348849,0.00291928,0.00224217,-0.00497561,0.47115,0.00426564,0.0122142,958,491,-0.558733,25.3542
-259,533,-0.548035,-25.8278,0.000904517,-0.00484044,0.00400203,0.00295823,-0.00689415,0.474127,0.00583762,0.0118683,965,491,-0.548009,25.8278
-252,533,-0.539185,-26.2754,0.00121018,-0.00711477,0.00520835,0.00371503,-0.00961961,0.448274,0.00794636,0.0151181,972,491,-0.539212,26.2754
-245,533,-0.602539,-26.6985,0.00144486,-0.00958635,0.00675534,0.00465029,-0.0127918,0.443043,0.0104295,0.026087,979,491,-0.602547,26.6985
-238,533,-0.503723,-27.1083,0.00162148,-0.0124309,0.00842216,0.00556343,-0.0163729,0.437759,0.0131675,0.0345958,986,491,-0.503723,27.1083
-231,533,-0.532532,-27.6139,0,0,0,0,0,0,0,-1,993,491,-0.532511,27.6139
-224,533,-0.577393,-28.0844,0,0,0,0,0,0,0,-1,1000,491,-0.577414,28.0844
-217,533,-0.644409,-28.1902,0,0,0,0,0,0,0,-1,1007,491,-0.64442,28.1902
-210,533,-0.605896,-28.3016,0,0,0,0,0,0,0,-1,1014,491,-0.605921,28.3016
-203,533,-0.431274,-29.1487,0,0,0,0,0,0,0,-1,1021,491,-0.431292,29.1487
-196,533,0.688354,-19.5743,0,0,0,0,0,0,0,-1,1028,491,0.688406,19.5743
-189,533,-0.169189,-15.0303,0,0,0,0,0,0,0,-1,1035,491,-0.169241,15.0303
-182,533,1.26123,-11.4969,0,0,0,0,0,0,0,-1,1042,491,1.26128,11.4969
-175,533,0.937744,-7.36966,0,0,0,0,0,0,0,-1,1049,491,0.937769,7.36965
-168,533,2.64807,-2.7543,0,0,0,0,0,0,0,-1,1056,491,2.64812,2.7543
-161,533,1.91833,-1.76553,0,0,0,0,0,0,0,-1,1063,491,1.91836,1.76554
-154,533,0.376709,-11.0633,0,0,0,0,0,0,0,-1,1070,491,0.376715,11.0632
-147,533,0.383789,-12.1586,0,0,0,0,0,0,0,-1,1077,491,0.383829,12.1586
-140,533,1.14001,-15.4608,0,0,0,0,0,0,0,-1,1084,491,1.14005,15.4608
-133,533,0.189941,-16.0795,0,0,0,0,0,0,0,-1,1091,491,0.18994,16.0795
-126,533,2.89612,-2.59003,0,0,0,0,0,0,0,-1,1098,491,2.89608,2.59003
-119,533,1.78284,-22.5394,0,0,0,0,0,0,0,-1,1105,491,1.78279,22.5394
-112,533,1.83862,-21.2401,0,0,0,0,0,0,0,-1,1112,491,1.83859,21.24
-105,533,1.67554,-19.4018,0,0,0,0,0,0,0,-1,1119,491,1.6755,19.4018
-98,533,-1.39392,-5.16367,0,0,0,0,0,0,0,-1,1126,491,-1.39394,5.16367
-91,533,0.367432,4.49753,0,0,0,0,0,0,0,-1,1133,491,0.367468,-4.49754
-84,533,-0.88623,3.03604,0,0,0,0,0,0,0,-1,1140,491,-0.886288,-3.03605
-77,533,0,0,0,0,0,0,0,0,0,-1,1147,491,0,0
-70,533,0,0,0,0,0,0,0,0,0,-1,1154,491,0,0
-63,533,0,0,0,0,0,0,0,0,0,-1,1161,491,0,0
-56,533,0,0,0,0,0,0,0,0,0,-1,1168,491,0,0
-49,533,0,0,0,0,0,0,0,0,0,-1,1175,491,0,0
-42,533,0,0,0,0,0,0,0,0,0,-1,1182,491,0,0
-35,533,0,0,0,0,0,0,0,0,0,-1,1189,491,0,0
-28,533,0,0,0,0,0,0,0,0,0,-1,1196,491,0,0
-21,533,0,0,0,0,0,0,0,0,0,-1,1203,491,0,0
-14,533,0,0,0,0,0,0,0,0,0,-1,1210,491,0,0
-7,533,0,0,0,0,0,0,0,0,0,-1,1217,491,0,0
0,533,0,0,0,0,0,0,0,0,0,-1,1224,491,0,0
7,533,0,0,0,0,0,0,0,0,0,-1,1231,491,0,0
14,533,0,0,0,0,0,0,0,0,0,-1,1238,491,0,0
21,533,0,0,0,0,0,0,0,0,0,-1,1245,491,0,0
28,533,0,0,0,0,0,0,0,0,0,-1,1252,491,0,0
35,533,0,0,0,0,0,0,0,0,0,-1,1259,491,0,0
42,533,0,0,0,0,0,0,0,0,0,-1,1266,491,0,0
49,533,0,0,0,0,0,0,0,0,0,-1,1273,491,0,0
56,533,0,0,0,0,0,0,0,0,0,-1,1280,491,0,0
63,533,0,0,0,0,0,0,0,0,0,-1,1287,491,0,0
70,533,0,0,0,0,0,0,0,0,0,-1,1294,491,0,0
77,533,0,0,0,0,0,0,0,0,0,-1,1301,491,0,0
84,533,0,0,0,0,0,0,0,0,0,-1,1308,491,0,0
91,533,0,0,0,0,0,0,0,0,0,-1,1315,491,0,0
98,533,0,0,0,0,0,0,0,0,0,-1,1322,491,0,0
105,533,0,0,0,0,0,0,0,0,0,-1,1329,491,0,0
112,533,0,0,0,0,0,0,0,0,0,-1,1336,491,0,0
119,533,0,0,0,0,0,0,0,0,0,-1,1343,491,0,0
126,533,0,0,0,0,0,0,0,0,0,-1,1350,491,0,0
133,533,0,0,0,0,0,0,0,0,0,-1,1357,491,0,0
140,533,0,0,0,0,0,0,0,0,0,-1,1364,491,0,0
147,533,0,0,0,0,0,0,0,0,0,-1,1371,491,0,0
154,533,0,0,0,0,0,0,0,0,0,-1,1378,491,0,0
161,533,0,0,0,0,0,0,0,0,0,-1,1385,491,0,0
168,533,0,0,0,0,0,0,0,0,0,-1,1392,491,0,0
175,533,0,0,0,0,0,0,0,0,0,-1,1399,491,0,0
182,533,0,0,0,0,0,0,0,0,0,-1,1406,491,0,0
189,533,0,0,0,0,0,0,0,0,0,-1,1413,491,0,0
196,533,0,0,0,0,0,0,0,0,0,-1,1420,491,0,0
203,533,3.7887,1.16193,0,0,0,0,0,0,0,-1,1427,491,3.78872,-1.16193
210,533,5.09558,-0.216034,0,0,0,0,0,0,0,-1,1434,491,5.09559,0.216028
217,533,6.91614,-2.46814,0,0,0,0,0,0,0,-1,1441,491,6.91618,2.46814
224,533,7.23621,-2.1857,0,0,0,0,0,0,0,-1,1448,491,7.23621,2.1857
231,533,7.23474,-1.92282,0,0,0,0,0,0,0,-1,1455,491,7.2347,1.92282
238,533,7.23535,-1.67258,0,0,0,0,0,0,0,-1,1462,491,7.23539,1.67258
245,533,6.86682,-1.2301,0,0,0,0,0,0,0,-1,1469,491,6.86686,1.23011
252,533,6.63354,-3.07825,0,0,0,0,0,0,0,-1,1476,491,6.6335,3.07824
259,533,6.16431,-2.35037,0,0,0,0,0,0,0,-1,1483,491,6.1643,2.35037
266,533,5.68884,-1.6214,0,0,0,0,0,0,0,-1,1490,491,5.68885,1.6214
273,533,5.21399,-0.864227,0,0,0,0,0,0,0,-1,1497,491,5.21403,0.864227
280,533,1.41089,-1.97946,0,0,0,0,0,0,0,-1,1504,491,1.41087,1.97946
287,533,1.6814,-2.44443,0,0,0,0,0,0,0,-1,1511,491,1.6814,2.44444
294,533,2.2384,-2.57626,0,0,0,0,0,0,0,-1,1518,491,2.23839,2.57625
301,533,3.39941,-4.0817,0,0,0,0,0,0,0,-1,1525,491,3.3994,4.08171
308,533,4.13733,-4.14752,0,0,0,0,0,0,0,-1,1532,491,4.13727,4.14752
315,533,4.80762,-5.29349,0,0,0,0,0,0,0,-1,1539,491,4.80762,5.29347
322,533,5.47803,-6.43942,0,0,0,0,0,0,0,-1,1546,491,5.47798,6.43943
329,533,3.88477,-3.86301,0,0,0,0,0,0,0,-1,1553,491,3.88475,3.86299
336,533,6.70923,-13.2003,0,0,0,0,0,0,0,-1,1560,491,6.70926,13.2004
343,533,7.06677,-17.1133,0,0,0,0,0,0,0,-1,1567,491,7.06673,17.1133
350,533,10.0876,-23.7254,0,0,0,0,0,0,0,-1,1574,491,10.0877,23.7254
357,533,10.7703,-26.4669,0,0,0,0,0,0,0,-1,1581,491,10.7703,26.4669
364,533,10.9331,-25.9523,-0.00489913,-0.00819407,-0.00819762,0.00181492,-0.0149081,-0.686235,0.0105957,0.0446472,1588,491,10.9331,25.9523
371,533,10.608,-25.748,-0.00380668,-0.00642498,-0.00670985,0.00172055,-0.0119522,-0.689054,0.00859922,0.0397856,1595,491,10.608,25.748
378,533,10.6104,-25.3403,-0.00267835,-0.0045923,-0.00518168,0.00163398,-0.00890463,-0.694085,0.00654938,0.0278111,1602,491,10.6103,25.3403
385,533,10.6906,-24.8668,-0.00169307,-0.00296438,-0.00366482,0.00139081,-0.00604826,-0.699528,0.00456693,0.0211732,1609,491,10.6905,24.8668
392,533,10.6661,-24.3912,-0.00118653,-0.00170641,-0.00264311,0.00120939,-0.00410233,-0.736383,0.00321476,0.0131797,1616,491,10.6662,24.3911
399,533,10.6704,-23.9136,-0.000875914,-0.000927822,-0.00194583,0.00104414,-0.00284788,-0.778729,0.0023261,0.0127442,1623,491,10.6704,23.9136
406,533,10.6952,-23.4103,-0.000239923,-3.83293e-05,-0.00112568,0.000991056,-0.00126931,-0.830051,0.00130831,0.0155893,1630,491,10.6951,23.4103
413,533,10.6663,-22.8671,0.000422386,0.000883367,-0.0002438,0.000988383,0.00031737,-1.16407,0.000582691,0.0126445,1637,491,10.6663,22.8671
420,533,10.6224,-22.3413,0.00112186,0.00180092,0.000592854,0.00214458,0.000778194,1.04545,0.0012536,0.0115451,1644,491,10.6224,22.3413
427,533,10.6295,-21.8066,0.00159465,0.00248325,0.00104187,0.0031716,0.000906302,0.986945,0.00188632,0.0126273,1651,491,10.6295,21.8067
434,533,10.5952,-21.3037,0.00201794,0.0030913,0.00136567,0.00402195,0.00108728,0.972619,0.00240234,0.0125455,1658,491,10.5953,21.3037
441,533,10.5992,-20.7698,0.00244916,0.00362007,0.00160484,0.00474291,0.00132631,0.960299,0.00282557,0.0150728,1665,491,10.5992,20.7698
448,533,10.5957,-20.2444,0.00283103,0.00410978,0.00178725,0.00536858,0.00157223,0.957175,0.00318698,0.0165965,1672,491,10.5957,20.2444
455,533,10.5605,-19.7009,0.00313295,0.00450075,0.00189041,0.00582717,0.00180653,0.95896,0.00344432,0.0163132,1679,491,10.5606,19.7009
462,533,10.5096,-19.093,0.0033498,0.00478698,0.00205471,0.00624513,0.00189164,0.953614,0.00369783,0.0148777,1686,491,10.5096,19.093
469,533,10.4871,-18.5616,0.00325621,0.00500751,0.00237095,0.00665934,0.00160438,0.962291,0.00401313,0.0103528,1693,491,10.487,18.5616
476,533,10.4963,-17.9832,0.00261492,0.00528983,0.00310028,0.00732883,0.00057591,0.989037,0.00470568,0.0118057,1700,491,10.4964,17.9831
483,533,10.5277,-17.3826,0.00197734,0.00544,0.00389169,0.0079681,-0.000550756,0.994691,0.00550485,0.0189462,1707,491,10.5277,17.3826
490,533,10.6151,-16.8851,0.0009794,0.00542804,0.00513062,0.00879576,-0.00238832,0.989938,0.00680119,0.0438494,1714,491,10.6151,16.8851
497,533,10.5546,-16.2263,-0.000742736,0.00556328,0.0067283,0.00984072,-0.00502017,1.00451,0.00872911,0.0477756,1721,491,10.5546,16.2263
504,533,10.8378,-15.489,0,0,0,0,0,0,0,-1,1728,491,10.8377,15.489
511,533,11.0146,-14.843,0,0,0,0,0,0,0,-1,1735,491,11.0146,14.843
518,533,10.8801,-14.368,0,0,0,0,0,0,0,-1,1742,491,10.8801,14.368
525,533,10.8694,-13.6813,0,0,0,0,0,0,0,-1,1749,491,10.8693,13.6813
532,533,10.1688,-13.4953,0,0,0,0,0,0,0,-1,1756,491,10.1689,13.4953
539,533,3.61609,1.62427,0,0,0,0,0,0,0,-1,1763,491,3.61606,-1.62426
546,533,3.59607,1.65799,0,0,0,0,0,0,0,-1,1770,491,3.59605,-1.658
553,533,0,0,0,0,0,0,0,0,0,-1,1777,491,0,0
560,533,0,0,0,0,0,0,0,0,0,-1,1784,491,0,0
567,533,0,0,0,0,0,0,0,0,0,-1,1791,491,0,0
574,533,0,0,0,0,0,0,0,0,0,-1,1798,491,0,0
581,533,0,0,0,0,0,0,0,0,0,-1,1805,491,0,0
588,533,0,0,0,0,0,0,0,0,0,-1,1812,491,0,0
595,533,0,0,0,0,0,0,0,0,0,-1,1819,491,0,0
602,533,0,0,0,0,0,0,0,0,0,-1,1826,491,0,0
609,533,0,0,0,0,0,0,0,0,0,-1,1833,491,0,0
616,533,0,0,0,0,0,0,0,0,0,-1,1840,491,0,0
623,533,0,0,0,0,0,0,0,0,0,-1,1847,491,0,0
630,533,0,0,0,0,0,0,0,0,0,-1,1854,491,0,0
637,533,0,0,0,0,0,0,0,0,0,-1,1861,491,0,0
644,533,0,0,0,0,0,0,0,0,0,-1,1868,491,0,0
651,533,0,0,0,0,0,0,0,0,0,-1,1875,491,0,0
658,533,0,0,0,0,0,0,0,0,0,-1,1882,491,0,0
665,533,0,0,0,0,0,0,0,0,0,-1,1889,491,0,0
672,533,0,0,0,0,0,0,0,0,0,-1,1896,491,0,0
679,533,0,0,0,0,0,0,0,0,0,-1,1903,491,0,0
686,533,0,0,0,0,0,0,0,0,0,-1,1910,491,0,0
693,533,0,0,0,0,0,0,0,0,0,-1,1917,491,0,0
700,533,0,0,0,0,0,0,0,0,0,-1,1924,491,0,0
707,533,0,0,0,0,0,0,0,0,0,-1,1931,491,0,0
714,533,0,0,0,0,0,0,0,0,0,-1,1938,491,0,0
721,533,0,0,0,0,0,0,0,0,0,-1,1945,491,0,0
728,533,0,0,0,0,0,0,0,0,0,-1,1952,491,0,0
735,533,0,0,0,0,0,0,0,0,0,-1,1959,491,0,0
742,533,0,0,0,0,0,0,0,0,0,-1,1966,491,0,0
749,533,0,0,0,0,0,0,0,0,0,-1,1973,491,0,0
756,533,0,0,0,0,0,0,0,0,0,-1,1980,491,0,0
763,533,0,0,0,0,0,0,0,0,0,-1,1987,491,0,0
770,533,0,0,0,0,0,0,0,0,0,-1,1994,491,0,0
777,533,0,0,0,0,0,0,0,0,0,-1,2001,491,0,0
784,533,0,0,0,0,0,0,0,0,0,-1,2008,491,0,0
791,533,0,0,0,0,0,0,0,0,0,-1,2015,491,0,0
798,533,0,0,0,0,0,0,0,0,0,-1,2022,491,0,0
805,533,0,0,0,0,0,0,0,0,0,-1,2029,491,0,0
812,533,0,0,0,0,0,0,0,0,0,-1,2036,491,0,0
-700,526,0,0,0,0,0,0,0,0,0,-1,524,498,0,0
-693,526,0,0,0,0,0,0,0,0,0,-1,531,498,0,0
-686,526,0,0,0,0,0,0,0,0,0,-1,538,498,0,0
-679,526,0,0,0,0,0,0,0,0,0,-1,545,498,0,0
-672,526,0,0,0,0,0,0,0,0,0,-1,552,498,0,0
-665,526,0,0,0,0,0,0,0,0,0,-1,559,498,0,0
-658,526,0,0,0,0,0,0,0,0,0,-1,566,498,0,0
-651,526,0,0,0,0,0,0,0,0,0,-1,573,498,0,0
-644,526,0,0,0,0,0,0,0,0,0,-1,580,498,0,0
-637,526,0,0,0,0,0,0,0,0,0,-1,587,498,0,0
-630,526,0,0,0,0,0,0,0,0,0,-1,594,498,0,0
-623,526,0,0,0,0,0,0,0,0,0,-1,601,498,0,0
-616,526,0,0,0,0,0,0,0,0,0,-1,608,498,0,0
-609,526,0,0,0,0,0,0,0,0,0,-1,615,498,0,0
-602,526,0,0,0,0,0,0,0,0,0,-1,622,498,0,0
-595,526,0,0,0,0,0,0,0,0,0,-1,629,498,0,0
-588,526,0,0,0,0,0,0,0,0,0,-1,636,498,0,0
-581,526,0,0,0,0,0,0,0,0,0,-1,643,498,0,0
-574,526,0,0,0,0,0,0,0,0,0,-1,650,498,0,0
-567,526,0,0,0,0,0,0,0,0,0,-1,657,498,0,0
-560,526,0,0,0,0,0,0,0,0,0,-1,664,498,0,0
-553,526,0,0,0,0,0,0,0,0,0,-1,671,498,0,0
-546,526,0,0,0,0,0,0,0,0,0,-1,678,498,0,0
-539,526,0,0,0,0,0,0,0,0,0,-1,685,498,0,0
-532,526,0,0,0,0,0,0,0,0,0,-1,692,498,0,0
-525,526,0,0,0,0,0,0,0,0,0,-1,699,498,0,0
-518,526,0,0,0,0,0,0,0,0,0,-1,706,498,0,0
-511,526,0,0,0,0,0,0,0,0,0,-1,713,498,0,0
-504,526,0,0,0,0,0,0,0,0,0,-1,720,498,0,0
-497,526,0,0,0,0,0,0,0,0,0,-1,727,498,0,0
-490,526,0,0,0,0,0,0,0,0,0,-1,734,498,0,0
-483,526,0,0,0,0,0,0,0,0,0,-1,741,498,0,0
-476,526,0,0,0,0,0,0,0,0,0,-1,748,498,0,0
-469,526,0,0,0,0,0,0,0,0,0,-1,755,498,0,0
-462,526,0,0,0,0,0,0,0,0,0,-1,762,498,0,0
-455,526,0,0,0,0,0,0,0,0,0,-1,769,498,0,0
-448,526,0,0,0,0,0,0,0,0,0,-1,776,498,0,0
-441,526,0,0,0,0,0,0,0,0,0,-1,783,498,0,0
-434,526,-0.153564,-5.96649,0,0,0,0,0,0,0,-1,790,498,-0.153589,5.9665
-427,526,1.23206,-4.59808,0,0,0,0,0,0,0,-1,797,498,1.23208,4.59809
-420,526,-1.76373,-11.6241,0,0,0,0,0,0,0,-1,804,498,-1.76373,11.6241
-413,526,-1.38965,-11.7916,0,0,0,0,0,0,0,-1,811,498,-1.38963,11.7916
-406,526,-1.35187,-12.5182,0,0,0,0,0,0,0,-1,818,498,-1.35185,12.5181
-399,526,-1.32715,-13.2116,0,0,0,0,0,0,0,-1,825,498,-1.32713,13.2116
-392,526,-2.27356,-11.5593,0,0,0,0,0,0,0,-1,832,498,-2.27357,11.5593
-385,526,-0.973755,-15.9856,0,0,0,0,0,0,0,-1,839,498,-0.97373,15.9856
-378,526,-0.871948,-16.5894,0.00551293,0.0240955,-0.0141978,0.031772,-0.00216356,-1.07514,0.0219381,0.0472281,846,498,-0.871975,16.5894
-371,526,-0.82135,-17.3354,0.00385894,0.0199809,-0.0115907,0.0260381,-0.00219829,-1.08924,0.018136,0.0350016,853,498,-0.821347,17.3354
-364,526,-0.862793,-18.015,0.00260819,0.0167675,-0.00948414,0.021523,-0.00214728,-1.10602,0.0151154,0.0184402,860,498,-0.86282,18.015
-357,526,-0.818481,-18.6403,0.00179668,0.0137376,-0.00778007,0.0175741,-0.00203979,-1.11267,0.0124518,0.0130071,867,498,-0.818465,18.6403
-350,526,-0.837708,-19.1989,0.00112527,0.0109445,-0.00621446,0.0139548,-0.00188495,-1.11972,0.00999094,0.0120772,874,498,-0.837685,19.1989
-343,526,-0.891968,-19.7473,0.000544501,0.00843861,-0.00476789,0.0106812,-0.00169811,-1.13114,0.00774912,0.0160291,881,498,-0.891989,19.7473
-336,526,-0.922302,-20.2917,0.000342573,0.00650139,-0.00369586,0.00823261,-0.00138865,-1.13273,0.00600505,0.0157616,888,498,-0.922295,20.2917
-329,526,-0.937866,-20.8307,0.000368772,0.0046519,-0.00276715,0.0060094,-0.000988721,-1.11472,0.00437325,0.016308,895,498,-0.937851,20.8307
-322,526,-0.94928,-21.33,0.000385177,0.00308534,-0.00191987,0.0040823,-0.000611788,-1.09184,0.00294671,0.0111386,902,498,-0.949307,21.33
-315,526,-0.984192,-21.8738,0.000491597,0.0018242,-0.00113071,0.00247033,-0.000154532,-1.05165,0.00170074,0.00952676,909,498,-0.984168,21.8738
-308,526,-1.00623,-22.4077,0.00061982,0.000734658,-0.000396615,0.00107799,0.000276489,-0.857284,0.000646513,0.00895485,916,498,-1.0062,22.4077
-301,526,-1.04224,-22.883,0.000685051,-0.000445792,0.000379165,0.000800414,-0.000561155,0.295357,0.000790137,0.01074,923,498,-1.04223,22.883
-294,526,-1.03595,-23.3538,0.00083781,-0.0013333,0.00108829,0.0012894,-0.00178489,0.393329,0.00178261,0.0105782,930,498,-1.03598,23.3538
-287,526,-1.03479,-23.8568,0.00103668,-0.00214913,0.00171507,0.00178446,-0.00289691,0.411155,0.00272811,0.00993596,937,498,-1.03481,23.8568
-280,526,-1.04138,-24.3619,0.00112644,-0.00289883,0.00235321,0.0022103,-0.00398269,0.431625,0.00362401,0.0122504,944,498,-1.04136,24.3619
-273,526,-1.04584,-24.8668,0.0011904,-0.00362782,0.0030362,0.00265715,-0.00509457,0.450027,0.00454861,0.0107122,951,498,-1.04583,24.8668
-266,526,-1.05536,-25.3444,0.00130734,-0.00474632,0.00394178,0.00325035,-0.00668933,0.457974,0.00585205,0.0113164,958,498,-1.05535,25.3444
-259,526,-1.00012,-25.7835,0.00149789,-0.00609735,0.00511005,0.00406694,-0.0086664,0.465841,0.00750976,0.0268855,965,498,-1.00014,25.7835
-252,526,-1.14557,-26.0262,0.00169431,-0.0087044,0.00646321,0.00478991,-0.0118,0.446673,0.0098591,0.0457598,972,498,-1.1456,26.0263
-245,526,-1.06433,-26.6791,0,0,0,0,0,0,0,-1,979,498,-1.06431,26.6791
-238,526,-0.946655,-27.1045,0,0,0,0,0,0,0,-1,986,498,-0.946658,27.1045
-231,526,-0.547424,-25.8486,0,0,0,0,0,0,0,-1,993,498,-0.547419,25.8486
-224,526,-0.292603,-23.2656,0,0,0,0,0,0,0,-1,1000,498,-0.292617,23.2656
-217,526,-0.377747,-27.9628,0,0,0,0,0,0,0,-1,1007,498,-0.377729,27.9628
-210,526,-0.271851,-28.2935,0,0,0,0,0,0,0,-1,1014,498,-0.271868,28.2935
-203,526,-0.659302,-18.8818,0,0,0,0,0,0,0,-1,1021,498,-0.659273,18.8818
-196,526,-0.328247,-12.179,0,0,0,0,0,0,0,-1,1028,498,-0.328238,12.179
-189,526,0.401245,-5.96826,0,0,0,0,0,0,0,-1,1035,498,0.401197,5.96826
-182,526,1.7323,-2.99405,0,0,0,0,0,0,0,-1,1042,498,1.73226,2.99404
-175,526,2.27637,-2.07983,0,0,0,0,0,0,0,-1,1049,498,2.27639,2.07984
-168,526,2.12036,-1.66049,0,0,0,0,0,0,0,-1,1056,498,2.12035,1.66048
-161,526,2.09082,-1.20572,0,0,0,0,0,0,0,-1,1063,498,2.09086,1.2057
-154,526,-1.3446,-5.37799,0,0,0,0,0,0,0,-1,1070,498,-1.34457,5.37799
-147,526,-0.472656,-6.64996,0,0,0,0,0,0,0,-1,1077,498,-0.472659,6.64997
-140,526,0.422852,-8.03339,0,0,0,0,0,0,0,-1,1084,498,0.422844,8.0334
-133,526,1.09583,-9.2215,0,0,0,0,0,0,0,-1,1091,498,1.09581,9.2215
-126,526,3.42529,-2.36053,0,0,0,0,0,0,0,-1,1098,498,3.42523,2.36052
-119,526,2.7771,-0.764099,0,0,0,0,0,0,0,-1,1105,498,2.7771,0.764107
-112,526,2.57715,-1.1893,0,0,0,0,0,0,0,-1,1112,498,2.57718,1.1893
-105,526,0,0,0,0,0,0,0,0,0,-1,1119,498,0,0
-98,526,0,0,0,0,0,0,0,0,0,-1,1126,498,0,0
-91,526,0,0,0,0,0,0,0,0,0,-1,1133,498,0,0
-84,526,0,0,0,0,0,0,0,0,0,-1,1140,498,0,0
-77,526,0,0,0,0,0,0,0,0,0,-1,1147,498,0,0
-70,526,0,0,0,0,0,0,0,0,0,-1,1154,498,0,0
-63,526,0,0,0,0,0,0,0,0,0,-1,1161,498,0,0
-56,526,0,0,0,0,0,0,0,0,0,-1,1168,498,0,0
-49,526,0,0,0,0,0,0,0,0,0,-1,1175,498,0,0
-42,526,0,0,0,0,0,0,0,0,0,-1,1182,498,0,0
-35,526,0,0,0,0,0,0,0,0,0,-1,1189,498,0,0
-28,526,0,0,0,0,0,0,0,0,0,-1,1196,498,0,0
-21,526,0,0,0,0,0,0,0,0,0,-1,1203,498,0,0
-14,526,0,0,0,0,0,0,0,0,0,-1,1210,498,0,0
-7,526,0,0,0,0,0,0,0,0,0,-1,1217,498,0,0
0,526,0,0,0,0,0,0,0,0,0,-1,1224,498,0,0
7,526,0,0,0,0,0,0,0,0,0,-1,1231,498,0,0
14,526,0,0,0,0,0,0,0,0,0,-1,1238,498,0,0
21,526,0,0,0,0,0,0,0,0,0,-1,1245,498,0,0
28,526,0,0,0,0,0,0,0,0,0,-1,1252,498,0,0
35,526,0,0,0,0,0,0,0,0,0,-1,1259,498,0,0
42,526,0,0,0,0,0,0,0,0,0,-1,1266,498,0,0
49,526,0,0,0,0,0,0,0,0,0,-1,1273,498,0,0
56,526,0,0,0,0,0,0,0,0,0,-1,1280,498,0,0
63,526,0,0,0,0,0,0,0,0,0,-1,1287,498,0,0
70,526,0,0,0,0,0,0,0,0,0,-1,1294,498,0,0
77,526,0,0,0,0,0,0,0,0,0,-1,1301,498,0,0
84,526,0,0,0,0,0,0,0,0,0,-1,1308,498,0,0
91,526,0,0,0,0,0,0,0,0,0,-1,1315,498,0,0
98,526,0,0,0,0,0,0,0,0,0,-1,1322,498,0,0
105,526,0,0,0,0,0,0,0,0,0,-1,1329,498,0,0
112,526,0,0,0,0,0,0,0,0,0,-1,1336,498,0,0
119,526,0,0,0,0,0,0,0,0,0,-1,1343,498,0,0
126,526,0,0,0,0,0,0,0,0,0,-1,1350,498,0,0
133,526,0,0,0,0,0,0,0,0,0,-1,1357,498,0,0
140,526,0,0,0,0,0,0,0,0,0,-1,1364,498,0,0
147,526,0,0,0,0,0,0,0,0,0,-1,1371,498,0,0
154,526,0,0,0,0,0,0,0,0,0,-1,1378,498,0,0
161,526,0,0,0,0,0,0,0,0,0,-1,1385,498,0,0
168,526,0,0,0,0,0,0,0,0,0,-1,1392,498,0,0
175,526,0,0,0,0,0,0,0,0,0,-1,1399,498,0,0
182,526,0,0,0,0,0,0,0,0,0,-1,1406,498,0,0
189,526,0,0,0,0,0,0,0,0,0,-1,1413,498,0,0
196,526,0,0,0,0,0,0,0,0,0,-1,1420,498,0,0
203,526,0,0,0,0,0,0,0,0,0,-1,1427,498,0,0
210,526,0,0,0,0,0,0,0,0,0,-1,1434,498,0,0
217,526,0,0,0,0,0,0,0,0,0,-1,1441,498,0,0
224,526,0,0,0,0,0,0,0,0,0,-1,1448,498,0,0
231,526,7.93237,-1.30618,0,0,0,0,0,0,0,-1,1455,498,7.93238,1.30618
238,526,7.97717,-1.08197,0,0,0,0,0,0,0,-1,1462,498,7.97723,1.08196
245,526,7.2793,-0.792938,0,0,0,0,0,0,0,-1,1469,498,7.27931,0.792926
252,526,6.73523,-2.23608,0,0,0,0,0,0,0,-1,1476,498,6.73525,2.23608
259,526,6.22949,-1.84967,0,0,0,0,0,0,0,-1,1483,498,6.22953,1.84968
266,526,5.72375,-1.46329,0,0,0,0,0,0,0,-1,1490,498,5.72381,1.46328
273,526,4.33984,0.49173,0,0,0,0,0,0,0,-1,1497,498,4.33979,-0.491727
280,526,1.4585,-1.59897,0,0,0,0,0,0,0,-1,1504,498,1.45846,1.59895
287,526,1.46411,-2.40134,0,0,0,0,0,0,0,-1,1511,498,1.46406,2.40133
294,526,5.57471,-4.59085,0,0,0,0,0,0,0,-1,1518,498,5.57466,4.59084
301,526,4.42786,-3.99677,0,0,0,0,0,0,0,-1,1525,498,4.42788,3.99676
308,526,5.79529,-4.19366,0,0,0,0,0,0,0,-1,1532,498,5.79528,4.19368
315,526,5.09851,-5.20068,0,0,0,0,0,0,0,-1,1539,498,5.09851,5.20068
322,526,5.50708,-4.72348,0,0,0,0,0,0,0,-1,1546,498,5.50713,4.72347
329,526,3.88672,-4.345,0,0,0,0,0,0,0,-1,1553,498,3.88674,4.34501
336,526,4.97876,-2.23828,0,0,0,0,0,0,0,-1,1560,498,4.97877,2.23828
343,526,3.31665,-2.69696,0,0,0,0,0,0,0,-1,1567,498,3.31667,2.69696
350,526,6.06287,-6.12015,0,0,0,0,0,0,0,-1,1574,498,6.06286,6.12014
357,526,12.3217,-26.3754,0,0,0,0,0,0,0,-1,1581,498,12.3216,26.3754
364,526,11.755,-25.8354,0,0,0,0,0,0,0,-1,1588,498,11.755,25.8355
371,526,11.1691,-25.9178,0,0,0,0,0,0,0,-1,1595,498,11.1691,25.9178
378,526,11.0131,-25.5222,0,0,0,0,0,0,0,-1,1602,498,11.0131,25.5222
385,526,11.1918,-24.9546,0,0,0,0,0,0,0,-1,1609,498,11.1918,24.9546
392,526,11.2936,-24.4158,-0.00173128,-0.00170067,-0.00333805,0.0016221,-0.00505406,-0.78769,0.00402066,0.0392353,1616,498,11.2936,24.4158
399,526,11.1849,-23.913,-0.00145094,-0.00102093,-0.00268062,0.0014533,-0.00392517,-0.825416,0.00321271,0.0223841,1623,498,11.185,23.9129
406,526,11.2184,-23.368,-0.000670712,-0.000238242,-0.00181678,0.00137513,-0.00228408,-0.84463,0.00213426,0.0131709,1630,498,11.2184,23.368
413,526,11.1769,-22.8564,7.83176e-05,0.000451633,-0.000806817,0.0010931,-0.000563152,-0.899074,0.000972419,0.012877,1637,498,11.1769,22.8564
420,526,11.1388,-22.343,0.000779872,0.00120251,0.000152992,0.00125208,0.000730304,1.25747,0.000726222,0.0128234,1644,498,11.1388,22.343
427,526,11.1542,-21.8027,0.0011665,0.0017405,0.000618215,0.00213509,0.000771916,1.00271,0.00124835,0.0136159,1651,498,11.1541,21.8028
434,526,11.1389,-21.2665,0.00145301,0.00216003,0.000931772,0.0028031,0.000809944,0.966706,0.00166574,0.012257,1658,498,11.1389,21.2666
441,526,11.1094,-20.7316,0.00176792,0.00254002,0.00118517,0.00340043,0.000907506,0.942846,0.00203312,0.0113634,1665,498,11.1094,20.7317
448,526,11.1016,-20.21,0.00207227,0.00288201,0.00141208,0.00394612,0.00100816,0.925011,0.00236736,0.0106763,1672,498,11.1016,20.21
455,526,11.0725,-19.6842,0.0022932,0.00318501,0.00157976,0.00438058,0.00109762,0.92295,0.00263195,0.0134431,1679,498,11.0725,19.6842
462,526,11.0585,-19.1042,0.00245473,0.00342837,0.00181454,0.00482025,0.00106284,0.916457,0.00292433,0.0102768,1686,498,11.0585,19.1042
469,526,11.0604,-18.5707,0.00235761,0.00363594,0.00219776,0.00528559,0.000707953,0.926907,0.00331306,0.0081277,1693,498,11.0604,18.5707
476,526,11.0424,-18.0093,0.00175398,0.00391247,0.00292786,0.00595367,-0.000287215,0.961977,0.00406823,0.0102612,1700,498,11.0424,18.0093
483,526,11.0377,-17.3952,0.0011426,0.0040734,0.00370034,0.00658794,-0.00137193,0.973933,0.00491353,0.0136573,1707,498,11.0377,17.3952
490,526,11.0815,-16.7513,0.000204057,0.00415371,0.00481915,0.00738697,-0.00302921,0.979855,0.00618673,0.0258058,1714,498,11.0815,16.7513
497,526,10.9871,-16.3231,-0.00128575,0.00430973,0.00621366,0.00832645,-0.00530247,0.996932,0.00793296,0.0297123,1721,498,10.987,16.3232
504,526,11.0675,-15.7089,-0.00344169,0.00436241,0.00781639,0.0091966,-0.00827588,1.01691,0.0100924,0.0333697,1728,498,11.0675,15.7089
511,526,11.2155,-15.0485,-0.00561117,0.00459046,0.0101771,0.0108735,-0.0118942,1.0177,0.0131493,0.043086,1735,498,11.2155,15.0485
518,526,11.1481,-14.4265,-0.00855504,0.00461136,0.0132776,0.0128482,-0.0167918,1.01554,0.0171631,0.044196,1742,498,11.1481,14.4265
525,526,11.1072,-13.7605,-0.0128216,0.00522951,0.0166805,0.0151698,-0.0227618,1.03338,0.0220455,0.0485174,1749,498,11.1071,13.7605
532,526,10.9397,-12.9693,0,0,0,0,0,0,0,-1,1756,498,10.9397,12.9693
539,526,10.6063,-12.9149,0,0,0,0,0,0,0,-1,1763,498,10.6063,12.9149
546,526,3.36731,1.07721,0,0,0,0,0,0,0,-1,1770,498,3.36735,-1.07719
553,526,3.40796,1.37137,0,0,0,0,0,0,0,-1,1777,498,3.40792,-1.37138
560,526,0,0,0,0,0,0,0,0,0,-1,1784,498,0,0
567,526,0,0,0,0,0,0,0,0,0,-1,1791,498,0,0
574,526,0,0,0,0,0,0,0,0,0,-1,1798,498,0,0
581,526,0,0,0,0,0,0,0,0,0,-1,1805,498,0,0
588,526,0,0,0,0,0,0,0,0,0,-1,1812,498,0,0
595,526,0,0,0,0,0,0,0,0,0,-1,1819,498,0,0
602,526,0,0,0,0,0,0,0,0,0,-1,1826,498,0,0
609,526,0,0,0,0,0,0,0,0,0,-1,1833,498,0,0
616,526,0,0,0,0,0,0,0,0,0,-1,1840,498,0,0
623,526,0,0,0,0,0,0,0,0,0,-1,1847,498,0,0
630,526,0,0,0,0,0,0,0,0,0,-1,1854,498,0,0
637,526,0,0,0,0,0,0,0,0,0,-1,1861,498,0,0
644,526,0,0,0,0,0,0,0,0,0,-1,1868,498,0,0
651,526,0,0,0,0,0,0,0,0,0,-1,1875,498,0,0
658,526,0,0,0,0,0,0,0,0,0,-1,1882,498,0,0
665,526,0,0,0,0,0,0,0,0,0,-1,1889,498,0,0
672,526,0,0,0,0,0,0,0,0,0,-1,1896,498,0,0
679,526,0,0,0,0,0,0,0,0,0,-1,1903,498,0,0
686,526,0,0,0,0,0,0,0,0,0,-1,1910,498,0,0
693,526,0,0,0,0,0,0,0,0,0,-1,1917,498,0,0
700,526,0,0,0,0,0,0,0,0,0,-1,1924,498,0,0
707,526,0,0,0,0,0,0,0,0,0,-1,1931,498,0,0
714,526,0,0,0,0,0,0,0,0,0,-1,1938,498,0,0
721,526,0,0,0,0,0,0,0,0,0,-1,1945,498,0,0
728,526,0,0,0,0,0,0,0,0,0,-1,1952,498,0,0
735,526,0,0,0,0,0,0,0,0,0,-1,1959,498,0,0
742,526,0,0,0,0,0,0,0,0,0,-1,1966,498,0,0
749,526,0,0,0,0,0,0,0,0,0,-1,1973,498,0,0
756,526,0,0,0,0,0,0,0,0,0,-1,1980,498,0,0
763,526,0,0,0,0,0,0,0,0,0,-1,1987,498,0,0
770,526,0,0,0,0,0,0,0,0,0,-1,1994,498,0,0
777,526,0,0,0,0,0,0,0,0,0,-1,2001,498,0,0
784,526,0,0,0,0,0,0,0,0,0,-1,2008,498,0,0
791,526,0,0,0,0,0,0,0,0,0,-1,2015,498,0,0
798,526,0,0,0,0,0,0,0,0,0,-1,2022,498,0,0
805,526,0,0,0,0,0,0,0,0,0,-1,2029,498,0,0
812,526,0,0,0,0,0,0,0,0,0,-1,2036,498,0,0
-700,519,0,0,0,0,0,0,0,0,0,-1,524,505,0,0
-693,519,0,0,0,0,0,0,0,0,0,-1,531,505,0,0
-686,519,0,0,0,0,0,0,0,0,0,-1,538,505,0,0
-679,519,0,0,0,0,0,0,0,0,0,-1,545,505,0,0
-672,519,0,0,0,0,0,0,0,0,0,-1,552,505,0,0
-665,519,0,0,0,0,0,0,0,0,0,-1,559,505,0,0
-658,519,0,0,0,0,0,0,0,0,0,-1,566,505,0,0
-651,519,0,0,0,0,0,0,0,0,0,-1,573,505,0,0
-644,519,0,0,0,0,0,0,0,0,0,-1,580,505,0,0
-637,519,0,0,0,0,0,0,0,0,0,-1,587,505,0,0
-630,519,0,0,0,0,0,0,0,0,0,-1,594,505,0,0
-623,519,0,0,0,0,0,0,0,0,0,-1,601,505,0,0
-616,519,0,0,0,0,0,0,0,0,0,-1,608,505,0,0
-609,519,0,0,0,0,0,0,0,0,0,-1,615,505,0,0
-602,519,0,0,0,0,0,0,0,0,0,-1,622,505,0,0
-595,519,0,0,0,0,0,0,0,0,0,-1,629,505,0,0
-588,519,0,0,0,0,0,0,0,0,0,-1,636,505,0,0
-581,519,0,0,0,0,0,0,0,0,0,-1,643,505,0,0
-574,519,0,0,0,0,0,0,0,0,0,-1,650,505,0,0
-567,519,0,0,0,0,0,0,0,0,0,-1,657,505,0,0
-560,519,0,0,0,0,0,0,0,0,0,-1,664,505,0,0
-553,519,0,0,0,0,0,0,0,0,0,-1,671,505,0,0
-546,519,0,0,0,0,0,0,0,0,0,-1,678,505,0,0
-539,519,0,0,0,0,0,0,0,0,0,-1,685,505,0,0
-532,519,0,0,0,0,0,0,0,0,0,-1,692,505,0,0
-525,519,0,0,0,0,0,0,0,0,0,-1,699,505,0,0
-518,519,0,0,0,0,0,0,0,0,0,-1,706,505,0,0
-511,519,0,0,0,0,0,0,0,0,0,-1,713,505,0,0
-504,519,0,0,0,0,0,0,0,0,0,-1,720,505,0,0
-497,519,0,0,0,0,0,0,0,0,0,-1,727,505,0,0
-490,519,0,0,0,0,0,0,0,0,0,-1,734,505,0,0
-483,519,0,0,0,0,0,0,0,0,0,-1,741,505,0,0
-476,519,0,0,0,0,0,0,0,0,0,-1,748,505,0,0
-469,519,0,0,0,0,0,0,0,0,0,-1,755,505,0,0
-462,519,0,0,0,0,0,0,0,0,0,-1,762,505,0,0
-455,519,0,0,0,0,0,0,0,0,0,-1,769,505,0,0
-448,519,0,0,0,0,0,0,0,0,0,-1,776,505,0,0
-441,519,1.34839,-5.29346,0,0,0,0,0,0,0,-1,783,505,1.3484,5.29347
-434,519,0.949585,-5.77313,0,0,0,0,0,0,0,-1,790,505,0.949598,5.77315
-427,519,-0.0523682,-9.31567,0,0,0,0,0,0,0,-1,797,505,-0.0523854,9.31568
-420,519,-2.38867,-12.1938,0,0,0,0,0,0,0,-1,804,505,-2.38867,12.1938
-413,519,-2.2298,-12.4998,0,0,0,0,0,0,0,-1,811,505,-2.22979,12.4998
-406,519,-1.44373,-12.3475,0,0,0,0,0,0,0,-1,818,505,-1.44376,12.3475
-399,519,-1.41022,-14.1157,0,0,0,0,0,0,0,-1,825,505,-1.41019,14.1157
-392,519,-1.39392,-15.582,0,0,0,0,0,0,0,-1,832,505,-1.39393,15.582
-385,519,-1.38214,-16.0568,0.00615578,0.0235726,-0.0143609,0.0316591,-0.00193077,-1.05795,0.0217782,0.0441737,839,505,-1.38212,16.0568
-378,519,-1.41479,-16.7265,0.00466351,0.0195538,-0.0118248,0.026082,-0.00186475,-1.06636,0.0180417,0.0326911,846,505,-1.4148,16.7265
-371,519,-1.35797,-17.3748,0.0034164,0.0160245,-0.00963433,0.021234,-0.00179307,-1.07511,0.01479,0.0186696,853,505,-1.35794,17.3748
-364,519,-1.34613,-18.0616,0.00240543,0.013124,-0.00775535,0.0171916,-0.00166224,-1.08774,0.0120534,0.0109389,860,505,-1.34611,18.0617
-357,519,-1.34009,-18.6663,0.00165141,0.0105537,-0.00619298,0.0137292,-0.00152409,-1.09699,0.0097008,0.0105988,867,505,-1.34011,18.6663
-350,519,-1.36469,-19.2063,0.00106937,0.00817559,-0.00479966,0.0105942,-0.00134923,-1.10403,0.00755281,0.0125145,874,505,-1.36469,19.2063
-343,519,-1.42529,-19.7144,0.000568929,0.00595175,-0.00346677,0.00764921,-0.00112853,-1.11547,0.00551428,0.0153574,881,505,-1.42528,19.7144
-336,519,-1.46405,-20.2485,0.000418821,0.0042536,-0.00248041,0.00547131,-0.000798883,-1.11443,0.00394092,0.0152055,888,505,-1.46406,20.2485
-329,519,-1.44934,-20.7772,0.000506869,0.00263991,-0.00164703,0.00353557,-0.000388794,-1.07272,0.00249675,0.0133208,895,505,-1.44933,20.7772
-322,519,-1.45837,-21.3118,0.00059272,0.00125832,-0.000876335,0.00186292,-1.18812e-05,-0.966867,0.00124592,0.0111766,902,505,-1.4584,21.3118
-315,519,-1.47571,-21.8591,0.000774841,0.000147787,-0.000150648,0.000809156,0.000113472,-0.223961,0.000505873,0.00928428,909,505,-1.47571,21.8591
-308,519,-1.50745,-22.4048,0.00100071,-0.00082751,0.000534425,0.00114547,-0.000972271,0.264524,0.00122404,0.00796475,916,505,-1.50747,22.4049
-301,519,-1.54108,-22.8845,0.00113776,-0.00186587,0.00130227,0.00162374,-0.00235185,0.357177,0.00230811,0.0124687,923,505,-1.54105,22.8844
-294,519,-1.53864,-23.3323,0.00135505,-0.00263694,0.00199462,0.00218085,-0.00346273,0.392527,0.00328622,0.0158611,930,505,-1.53865,23.3323
-287,519,-1.5589,-23.863,0.00160324,-0.00338641,0.00261056,0.0027194,-0.00450257,0.404031,0.00421175,0.0106554,937,505,-1.55887,23.863
-280,519,-1.57867,-24.3584,0.00174594,-0.00413043,0.00328204,0.00321283,-0.00559732,0.420311,0.00514827,0.0167747,944,505,-1.57869,24.3584
-273,519,-1.5473,-24.8593,0.00184766,-0.00484608,0.00401257,0.00372595,-0.00672437,0.437804,0.00611572,0.0309993,951,505,-1.54733,24.8592
-266,519,-1.59033,-25.356,0.0019449,-0.00603247,0.00502909,0.00437504,-0.00846261,0.450132,0.00753602,0.0480613,958,505,-1.59031,25.3559
-259,519,-1.43726,-25.8401,0,0,0,0,0,0,0,-1,965,505,-1.43728,25.8401
-252,519,-1.77747,-25.7631,0,0,0,0,0,0,0,-1,972,505,-1.77744,25.7631
-245,519,-1.23254,-23.2696,0,0,0,0,0,0,0,-1,979,505,-1.23256,23.2696
-238,519,-1.06903,-23.1753,0,0,0,0,0,0,0,-1,986,505,-1.06904,23.1753
-231,519,0.337585,-11.2798,0,0,0,0,0,0,0,-1,993,505,0.337568,11.2798
-224,519,-0.0494995,-7.97394,0,0,0,0,0,0,0,-1,1000,505,-0.0495123,7.97392
-217,519,-0.283691,-23.8409,0,0,0,0,0,0,0,-1,1007,505,-0.283683,23.8409
-210,519,-2.14398,-4.74774,0,0,0,0,0,0,0,-1,1014,505,-2.14397,4.74775
-203,519,-0.513611,-5.39017,0,0,0,0,0,0,0,-1,1021,505,-0.513585,5.39017
-196,519,-0.374023,-5.41635,0,0,0,0,0,0,0,-1,1028,505,-0.374047,5.41635
-189,519,-0.234497,-5.44254,0,0,0,0,0,0,0,-1,1035,505,-0.234508,5.44253
-182,519,2.76697,-1.19659,0,0,0,0,0,0,0,-1,1042,505,2.76696,1.19661
-175,519,2.31323,-0.960938,0,0,0,0,0,0,0,-1,1049,505,2.31319,0.960941
-168,519,2.01074,-0.721405,0,0,0,0,0,0,0,-1,1056,505,2.01072,0.721407
-161,519,2.32056,-0.522339,0,0,0,0,0,0,0,-1,1063,505,2.32057,0.522328
-154,519,2.55566,0.116669,0,0,0,0,0,0,0,-1,1070,505,2.55563,-0.116661
-147,519,-0.55127,-6.14001,0,0,0,0,0,0,0,-1,1077,505,-0.551252,6.14001
-140,519,0.240601,-7.53503,0,0,0,0,0,0,0,-1,1084,505,0.240653,7.53501
-133,519,2.70911,-4.4516,0,0,0,0,0,0,0,-1,1091,505,2.70915,4.45161
-126,519,0,0,0,0,0,0,0,0,0,-1,1098,505,0,0
-119,519,0,0,0,0,0,0,0,0,0,-1,1105,505,0,0
-112,519,0,0,0,0,0,0,0,0,0,-1,1112,505,0,0
-105,519,0,0,0,0,0,0,0,0,0,-1,1119,505,0,0
-98,519,0,0,0,0,0,0,0,0,0,-1,1126,505,0,0
-91,519,0,0,0,0,0,0,0,0,0,-1,1133,505,0,0
-84,519,0,0,0,0,0,0,0,0,0,-1,1140,505,0,0
-77,519,0,0,0,0,0,0,0,0,0,-1,1147,505,0,0
-70,519,0,0,0,0,0,0,0,0,0,-1,1154,505,0,0
-63,519,0,0,0,0,0,0,0,0,0,-1,1161,505,0,0
-56,519,0,0,0,0,0,0,0,0,0,-1,1168,505,0,0
-49,519,0,0,0,0,0,0,0,0,0,-1,1175,505,0,0
-42,519,0,0,0,0,0,0,0,0,0,-1,1182,505,0,0
-35,519,0,0,0,0,0,0,0,0,0,-1,1189,505,0,0
-28,519,0,0,0,0,0,0,0,0,0,-1,1196,505,0,0
-21,519,0,0,0,0,0,0,0,0,0,-1,1203,505,0,0
-14,519,0,0,0,0,0,0,0,0,0,-1,1210,505,0,0
-7,519,0,0,0,0,0,0,0,0,0,-1,1217,505,0,0
0,519,0,0,0,0,0,0,0,0,0,-1,1224,505,0,0
7,519,0,0,0,0,0,0,0,0,0,-1,1231,505,0,0
14,519,0,0,0,0,0,0,0,0,0,-1,1238,505,0,0
21,519,0,0,0,0,0,0,0,0,0,-1,1245,505,0,0
28,519,0,0,0,0,0,0,0,0,0,-1,1252,505,0,0
35,519,0,0,0,0,0,0,0,0,0,-1,1259,505,0,0
42,519,0,0,0,0,0,0,0,0,0,-1,1266,505,0,0
49,519,0,0,0,0,0,0,0,0,0,-1,1273,505,0,0
56,519,0,0,0,0,0,0,0,0,0,-1,1280,505,0,0
63,519,0,0,0,0,0,0,0,0,0,-1,1287,505,0,0
70,519,0,0,0,0,0,0,0,0,0,-1,1294,505,0,0
77,519,0,0,0,0,0,0,0,0,0,-1,1301,505,0,0
84,519,0,0,0,0,0,0,0,0,0,-1,1308,505,0,0
91,519,0,0,0,0,0,0,0,0,0,-1,1315,505,0,0
98,519,0,0,0,0,0,0,0,0,0,-1,1322,505,0,0
105,519,0,0,0,0,0,0,0,0,0,-1,1329,505,0,0
112,519,0,0,0,0,0,0,0,0,0,-1,1336,505,0,0
119,519,0,0,0,0,0,0,0,0,0,-1,1343,505,0,0
126,519,0,0,0,0,0,0,0,0,0,-1,1350,505,0,0
133,519,0,0,0,0,0,0,0,0,0,-1,1357,505,0,0
140,519,0,0,0,0,0,0,0,0,0,-1,1364,505,0,0
147,519,0,0,0,0,0,0,0,0,0,-1,1371,505,0,0
154,519,0,0,0,0,0,0,0,0,0,-1,1378,505,0,0
161,519,0,0,0,0,0,0,0,0,0,-1,1385,505,0,0
168,519,0,0,0,0,0,0,0,0,0,-1,1392,505,0,0
175,519,0,0,0,0,0,0,0,0,0,-1,1399,505,0,0
182,519,0,0,0,0,0,0,0,0,0,-1,1406,505,0,0
189,519,0,0,0,0,0,0,0,0,0,-1,1413,505,0,0
196,519,0,0,0,0,0,0,0,0,0,-1,1420,505,0,0
203,519,0,0,0,0,0,0,0,0,0,-1,1427,505,0,0
210,519,0,0,0,0,0,0,0,0,0,-1,1434,505,0,0
217,519,0,0,0,0,0,0,0,0,0,-1,1441,505,0,0
224,519,0,0,0,0,0,0,0,0,0,-1,1448,505,0,0
231,519,0,0,0,0,0,0,0,0,0,-1,1455,505,0,0
238,519,0,0,0,0,0,0,0,0,0,-1,1462,505,0,0
245,519,0,0,0,0,0,0,0,0,0,-1,1469,505,0,0
252,519,5.26208,0.0938416,0,0,0,0,0,0,0,-1,1476,505,5.26207,-0.0938493
259,519,6.14246,-1.36441,0,0,0,0,0,0,0,-1,1483,505,6.14241,1.36441
266,519,5.31909,-0.400787,0,0,0,0,0,0,0,-1,1490,505,5.31912,0.400773
273,519,4.02393,0.325531,0,0,0,0,0,0,0,-1,1497,505,4.0239,-0.325522
280,519,4.68848,0.53006,0,0,0,0,0,0,0,-1,1504,505,4.68842,-0.530073
287,519,7.9519,-3.80801,0,0,0,0,0,0,0,-1,1511,505,7.95193,3.808
294,519,6.92273,-3.38889,0,0,0,0,0,0,0,-1,1518,505,6.92268,3.38888
301,519,5.35669,-2.92661,0,0,0,0,0,0,0,-1,1525,505,5.35675,2.9266
308,519,7.37549,-5.64529,0,0,0,0,0,0,0,-1,1532,505,7.3755,5.64529
315,519,6.30029,-4.53754,0,0,0,0,0,0,0,-1,1539,505,6.30024,4.53753
322,519,5.84302,-5.45117,0,0,0,0,0,0,0,-1,1546,505,5.84303,5.45116
329,519,4.92407,0.62384,0,0,0,0,0,0,0,-1,1553,505,4.92403,-0.623832
336,519,3.10095,-0.329285,0,0,0,0,0,0,0,-1,1560,505,3.1009,0.329283
343,519,2.49146,-2.31119,0,0,0,0,0,0,0,-1,1567,505,2.49145,2.31119
350,519,3.47729,-2.22516,0,0,0,0,0,0,0,-1,1574,505,3.47726,2.22515
357,519,9.01709,-24.3693,0,0,0,0,0,0,0,-1,1581,505,9.01713,24.3693
364,519,12.283,-25.6784,0,0,0,0,0,0,0,-1,1588,505,12.283,25.6784
371,519,8.9231,-23.3576,0,0,0,0,0,0,0,-1,1595,505,8.92307,23.3576
378,519,6.36597,-10.0967,0,0,0,0,0,0,0,-1,1602,505,6.36597,10.0967
385,519,6.24756,-9.72186,0,0,0,0,0,0,0,-1,1609,505,6.24752,9.72183
392,519,11.6935,-24.6515,0,0,0,0,0,0,0,-1,1616,505,11.6935,24.6515
399,519,11.6277,-23.9642,0,0,0,0,0,0,0,-1,1623,505,11.6277,23.9642
406,519,11.6814,-23.3867,-0.000181294,-1.98767e-05,-0.00219191,0.00209281,-0.00229398,-0.8038,0.0025336,0.0346639,1630,505,11.6814,23.3867
413,519,11.7238,-22.8652,0.000675548,0.000437475,-0.00101112,0.00157462,-0.000461595,-0.726804,0.00123276,0.0157441,1637,505,11.7237,22.8652
420,519,11.6826,-22.3104,0.00129476,0.00102205,5.8462e-05,0.00130677,0.00101004,0.202518,0.000791044,0.0153241,1644,505,11.6826,22.3104
427,519,11.6783,-21.8083,0.00143177,0.00139372,0.0004768,0.00188993,0.000935568,0.765459,0.00109117,0.0140958,1651,505,11.6784,21.8083
434,519,11.6688,-21.2766,0.00140261,0.00161871,0.000700373,0.00221932,0.000802002,0.86193,0.00129764,0.0126517,1658,505,11.6688,21.2766
441,519,11.6425,-20.7195,0.0014348,0.00185032,0.00087749,0.00254431,0.000740809,0.901643,0.00151106,0.0125568,1665,505,11.6425,20.7195
448,519,11.6292,-20.1861,0.00152328,0.00203776,0.00105498,0.00286641,0.000694631,0.904983,0.00172662,0.00987514,1672,505,11.6292,20.1861
455,519,11.6117,-19.6619,0.0015488,0.00224475,0.00118749,0.0031342,0.000659345,0.927924,0.00190805,0.0105218,1679,505,11.6117,19.6619
462,519,11.6129,-19.104,0.00157873,0.00243652,0.00139331,0.00346545,0.000549803,0.934707,0.00215059,0.0103018,1686,505,11.6129,19.104
469,519,11.6251,-18.5611,0.00145371,0.00261493,0.00176224,0.00388974,0.000178897,0.944533,0.00253564,0.011054,1693,505,11.6251,18.5611
476,519,11.6056,-17.9825,0.000911679,0.00286719,0.00242292,0.0045022,-0.000723331,0.977177,0.00326936,0.0130307,1700,505,11.6056,17.9825
483,519,11.5811,-17.3963,0.000363439,0.00302618,0.00311572,0.00508306,-0.00169345,0.987309,0.0040723,0.0155732,1707,505,11.581,17.3963
490,519,11.5482,-16.7982,-0.000450284,0.00314126,0.00406465,0.00578915,-0.00309818,0.993406,0.00520892,0.0139735,1714,505,11.5482,16.7981
497,519,11.5193,-16.2922,-0.00163387,0.00331873,0.00526676,0.00666229,-0.00497743,1.00515,0.00674362,0.0164774,1721,505,11.5193,16.2923
504,519,11.4747,-15.693,-0.00328838,0.00345166,0.00664833,0.00753532,-0.00737204,1.01997,0.00860694,0.0170898,1728,505,11.4748,15.693
511,519,11.4844,-15.0433,-0.0052714,0.00367163,0.00837923,0.00869779,-0.0102976,1.0305,0.0109799,0.0230499,1735,505,11.4844,15.0433
518,519,11.4133,-14.4882,-0.00788921,0.00379268,0.0104599,0.00993198,-0.0140285,1.04004,0.0139008,0.0399772,1742,505,11.4134,14.4882
525,519,11.0846,-13.995,-0.0114825,0.00420094,0.0125579,0.0111644,-0.018446,1.0645,0.017267,0.0491691,1749,505,11.0846,13.995
532,519,10.8625,-13.2365,0,0,0,0,0,0,0,-1,1756,505,10.8625,13.2365
539,519,11.6276,-13.1102,0,0,0,0,0,0,0,-1,1763,505,11.6275,13.1102
546,519,4.62024,-2.89774,0,0,0,0,0,0,0,-1,1770,505,4.62023,2.89775
553,519,4.14136,0.0667419,0,0,0,0,0,0,0,-1,1777,505,4.14141,-0.0667503
560,519,3.77856,0.279724,0,0,0,0,0,0,0,-1,1784,505,3.77861,-0.279731
567,519,0,0,0,0,0,0,0,0,0,-1,1791,505,0,0
574,519,0,0,0,0,0,0,0,0,0,-1,1798,505,0,0
581,519,0,0,0,0,0,0,0,0,0,-1,1805,505,0,0
588,519,0,0,0,0,0,0,0,0,0,-1,1812,505,0,0
595,519,0,0,0,0,0,0,0,0,0,-1,1819,505,0,0
602,519,0,0,0,0,0,0,0,0,0,-1,1826,505,0,0
609,519,0,0,0,0,0,0,0,0,0,-1,1833,505,0,0
616,519,0,0,0,0,0,0,0,0,0,-1,1840,505,0,0
623,519,0,0,0,0,0,0,0,0,0,-1,1847,505,0,0
630,519,0,0,0,0,0,0,0,0,0,-1,1854,505,0,0
637,519,0,0,0,0,0,0,0,0,0,-1,1861,505,0,0
644,519,0,0,0,0,0,0,0,0,0,-1,1868,505,0,0
651,519,0,0,0,0,0,0,0,0,0,-1,1875,505,0,0
658,519,0,0,0,0,0,0,0,0,0,-1,1882,505,0,0
665,519,0,0,0,0,0,0,0,0,0,-1,1889,505,0,0
672,519,0,0,0,0,0,0,0,0,0,-1,1896,505,0,0
679,519,0,0,0,0,0,0,0,0,0,-1,1903,505,0,0
686,519,0,0,0,0,0,0,0,0,0,-1,1910,505,0,0
693,519,0,0,0,0,0,0,0,0,0,-1,1917,505,0,0
700,519,0,0,0,0,0,0,0,0,0,-1,1924,505,0,0
707,519,0,0,0,0,0,0,0,0,0,-1,1931,505,0,0
714,519,0,0,0,0,0,0,0,0,0,-1,1938,505,0,0
721,519,0,0,0,0,0,0,0,0,0,-1,1945,505,0,0
728,519,0,0,0,0,0,0,0,0,0,-1,1952,505,0,0
735,519,0,0,0,0,0,0,0,0,0,-1,1959,505,0,0
742,519,0,0,0,0,0,0,0,0,0,-1,1966,505,0,0
749,519,0,0,0,0,0,0,0,0,0,-1,1973,505,0,0
756,519,0,0,0,0,0,0,0,0,0,-1,1980,505,0,0
763,519,0,0,0,0,0,0,0,0,0,-1,1987,505,0,0
770,519,0,0,0,0,0,0,0,0,0,-1,1994,505,0,0
777,519,0,0,0,0,0,0,0,0,0,-1,2001,505,0,0
784,519,0,0,0,0,0,0,0,0,0,-1,2008,505,0,0
791,519,0,0,0,0,0,0,0,0,0,-1,2015,505,0,0
798,519,0,0,0,0,0,0,0,0,0,-1,2022,505,0,0
805,519,0,0,0,0,0,0,0,0,0,-1,2029,505,0,0
812,519,0,0,0,0,0,0,0,0,0,-1,2036,505,0,0
-700,512,0,0,0,0,0,0,0,0,0,-1,524,512,0,0
-693,512,0,0,0,0,0,0,0,0,0,-1,531,512,0,0
-686,512,0,0,0,0,0,0,0,0,0,-1,538,512,0,0
-679,512,0,0,0,0,0,0,0,0,0,-1,545,512,0,0
-672,512,0,0,0,0,0,0,0,0,0,-1,552,512,0,0
-665,512,0,0,0,0,0,0,0,0,0,-1,559,512,0,0
-658,512,0,0,0,0,0,0,0,0,0,-1,566,512,0,0
-651,512,0,0,0,0,0,0,0,0,0,-1,573,512,0,0
-644,512,0,0,0,0,0,0,0,0,0,-1,580,512,0,0
-637,512,0,0,0,0,0,0,0,0,0,-1,587,512,0,0
-630,512,0,0,0,0,0,0,0,0,0,-1,594,512,0,0
-623,512,0,0,0,0,0,0,0,0,0,-1,601,512,0,0
-616,512,0,0,0,0,0,0,0,0,0,-1,608,512,0,0
-609,512,0,0,0,0,0,0,0,0,0,-1,615,512,0,0
-602,512,0,0,0,0,0,0,0,0,0,-1,622,512,0,0
-595,512,0,0,0,0,0,0,0,0,0,-1,629,512,0,0
-588,512,0,0,0,0,0,0,0,0,0,-1,636,512,0,0
-581,512,0,0,0,0,0,0,0,0,0,-1,643,512,0,0
-574,512,0,0,0,0,0,0,0,0,0,-1,650,512,0,0
-567,512,0,0,0,0,0,0,0,0,0,-1,657,512,0,0
-560,512,0,0,0,0,0,0,0,0,0,-1,664,512,0,0
-553,512,0,0,0,0,0,0,0,0,0,-1,671,512,0,0
-546,512,0,0,0,0,0,0,0,0,0,-1,678,512,0,0
-539,512,0,0,0,0,0,0,0,0,0,-1,685,512,0,0
-532,512,0,0,0,0,0,0,0,0,0,-1,692,512,0,0
-525,512,0,0,0,0,0,0,0,0,0,-1,699,512,0,0
-518,512,0,0,0,0,0,0,0,0,0,-1,706,512,0,0
-511,512,0,0,0,0,0,0,0,0,0,-1,713,512,0,0
-504,512,0,0,0,0,0,0,0,0,0,-1,720,512,0,0
-497,512,0,0,0,0,0,0,0,0,0,-1,727,512,0,0
-490,512,0,0,0,0,0,0,0,0,0,-1,734,512,0,0
-483,512,0,0,0,0,0,0,0,0,0,-1,741,512,0,0
-476,512,0,0,0,0,0,0,0,0,0,-1,748,512,0,0
-469,512,0,0,0,0,0,0,0,0,0,-1,755,512,0,0
-462,512,0,0,0,0,0,0,0,0,0,-1,762,512,0,0
-455,512,0,0,0,0,0,0,0,0,0,-1,769,512,0,0
-448,512,1.96283,-4.15674,0,0,0,0,0,0,0,-1,776,512,1.96285,4.15677
-441,512,1.78198,-4.88824,0,0,0,0,0,0,0,-1,783,512,1.78201,4.88826
-434,512,0.0726929,-9.85822,0,0,0,0,0,0,0,-1,790,512,0.0727008,9.85819
-427,512,-0.384583,-9.94824,0,0,0,0,0,0,0,-1,797,512,-0.384552,9.94823
-420,512,-2.93219,-12.4855,0,0,0,0,0,0,0,-1,804,512,-2.93219,12.4855
-413,512,-2.22711,-11.4485,0,0,0,0,0,0,0,-1,811,512,-2.22712,11.4485
-406,512,-2.31512,-12.948,0,0,0,0,0,0,0,-1,818,512,-2.31514,12.948
-399,512,-1.87036,-14.9307,0,0,0,0,0,0,0,-1,825,512,-1.87035,14.9308
-392,512,-1.80908,-15.6561,0.00622489,0.0229868,-0.0141149,0.0310214,-0.0018097,-1.05331,0.0213098,0.0412403,832,512,-1.8091,15.6561
-385,512,-1.82532,-16.3303,0.00490105,0.0189384,-0.0116891,0.0255541,-0.00171467,-1.05577,0.0176355,0.0193573,839,512,-1.82534,16.3303
-378,512,-1.85449,-16.8828,0.00388167,0.0155829,-0.00965274,0.0210197,-0.00155509,-1.05785,0.0145592,0.0159991,846,512,-1.85448,16.8828
-371,512,-1.85779,-17.4911,0.00297738,0.0125557,-0.00782457,0.0169404,-0.00140733,-1.06002,0.0117908,0.0123396,853,512,-1.85781,17.4912
-364,512,-1.8681,-18.1273,0.00220292,0.00992447,-0.00614925,0.0133245,-0.00119708,-1.06572,0.0093077,0.00963963,860,512,-1.86812,18.1273
-357,512,-1.8775,-18.6669,0.00164264,0.00770567,-0.00472594,0.0102888,-0.000940519,-1.07057,0.00719325,0.0111088,867,512,-1.87751,18.6669
-350,512,-1.90179,-19.1995,0.00123069,0.00564922,-0.00348158,0.00756333,-0.000683421,-1.06812,0.00528478,0.0118092,874,512,-1.90177,19.1995
-343,512,-1.95392,-19.7324,0.000857301,0.00366351,-0.00226617,0.00492578,-0.00040497,-1.06259,0.00342683,0.0124671,881,512,-1.95391,19.7324
-336,512,-1.9942,-20.2651,0.000789265,0.00215537,-0.00136753,0.00300095,-5.631e-05,-1.01701,0.00201966,0.0134437,888,512,-1.99423,20.2651
-329,512,-1.98523,-20.7792,0.000950035,0.000753241,-0.000635143,0.00149436,0.000208918,-0.708549,0.000934417,0.0148316,895,512,-1.98523,20.7792
-322,512,-1.99982,-21.3135,0.00110806,-0.00045251,3.43488e-05,0.00110882,-0.000453266,0.0219962,0.000927963,0.0124562,902,512,-1.9998,21.3135
-315,512,-2.00494,-21.8612,0.00134553,-0.00141193,0.000652716,0.00149223,-0.00155863,0.221079,0.00176155,0.0109421,909,512,-2.00497,21.8612
-308,512,-2.03729,-22.3813,0.00163084,-0.00226005,0.00122941,0.00198674,-0.00261595,0.281788,0.00266563,0.011001,916,512,-2.0373,22.3813
-301,512,-2.04779,-22.8724,0.00177659,-0.00311907,0.00192639,0.0024437,-0.00378618,0.333376,0.00362455,0.0152897,923,512,-2.0478,22.8724
-294,512,-2.04016,-23.3371,0.00194586,-0.00375569,0.00256169,0.00292773,-0.00473756,0.366019,0.00446649,0.0160312,930,512,-2.04018,23.3371
-287,512,-2.15857,-23.7768,0.00215153,-0.00441981,0.00310673,0.00338774,-0.00565601,0.378706,0.00527588,0.0241256,937,512,-2.15856,23.7768
-280,512,-2.04779,-24.3359,0.00227116,-0.00518355,0.00378341,0.00385487,-0.00676726,0.396431,0.00620905,0.0418239,944,512,-2.04781,24.3358
-273,512,-1.90637,-24.8856,0,0,0,0,0,0,0,-1,951,512,-1.90634,24.8856
-266,512,-2.05194,-25.437,0,0,0,0,0,0,0,-1,958,512,-2.05194,25.437
-259,512,-0.525452,-14.0815,0,0,0,0,0,0,0,-1,965,512,-0.525475,14.0815
-252,512,1.45941,-3.43475,0,0,0,0,0,0,0,-1,972,512,1.45938,3.43475
-245,512,-1.6731,-22.8959,0,0,0,0,0,0,0,-1,979,512,-1.67312,22.8959
-238,512,0.227051,-8.92969,0,0,0,0,0,0,0,-1,986,512,0.227073,8.92968
-231,512,-2.54437,-10.169,0,0,0,0,0,0,0,-1,993,512,-2.54439,10.169
-224,512,-4.84601,-7.52783,0,0,0,0,0,0,0,-1,1000,512,-4.84602,7.52786
-217,512,-7.37274,-3.89563,0,0,0,0,0,0,0,-1,1007,512,-7.37274,3.89561
-210,512,-3.76642,-1.94702,0,0,0,0,0,0,0,-1,1014,512,-3.76641,1.94702
-203,512,-2.48328,-5.19061,0,0,0,0,0,0,0,-1,1021,512,-2.48328,5.19059
-196,512,-1.14929,-4.63202,0,0,0,0,0,0,0,-1,1028,512,-1.14934,4.632
-189,512,0.197998,4.55505,0,0,0,0,0,0,0,-1,1035,512,0.197996,-4.55506
-182,512,2.73938,0.0778503,0,0,0,0,0,0,0,-1,1042,512,2.73944,-0.077852
-175,512,2.29565,0.209808,0,0,0,0,0,0,0,-1,1049,512,2.29565,-0.209813
-168,512,2.09399,-0.302856,0,0,0,0,0,0,0,-1,1056,512,2.09403,0.302826
-161,512,2.76636,0.0921021,0,0,0,0,0,0,0,-1,1063,512,2.76633,-0.0921104
-154,512,3.41382,0.466187,0,0,0,0,0,0,0,-1,1070,512,3.41382,-0.466178
-147,512,0,0,0,0,0,0,0,0,0,-1,1077,512,0,0
-140,512,0,0,0,0,0,0,0,0,0,-1,1084,512,0,0
-133,512,0,0,0,0,0,0,0,0,0,-1,1091,512,0,0
-126,512,0,0,0,0,0,0,0,0,0,-1,1098,512,0,0
-119,512,0,0,0,0,0,0,0,0,0,-1,1105,512,0,0
-112,512,0,0,0,0,0,0,0,0,0,-1,1112,512,0,0
-105,512,0,0,0,0,0,0,0,0,0,-1,1119,512,0,0
-98,512,0,0,0,0,0,0,0,0,0,-1,1126,512,0,0
-91,512,0,0,0,0,0,0,0,0,0,-1,1133,512,0,0
-84,512,0,0,0,0,0,0,0,0,0,-1,1140,512,0,0
-77,512,0,0,0,0,0,0,0,0,0,-1,1147,512,0,0
-70,512,0,0,0,0,0,0,0,0,0,-1,1154,512,0,0
-63,512,0,0,0,0,0,0,0,0,0,-1,1161,512,0,0
-56,512,0,0,0,0,0,0,0,0,0,-1,1168,512,0,0
-49,512,0,0,0,0,0,0,0,0,0,-1,1175,512,0,0
-42,512,0,0,0,0,0,0,0,0,0,-1,1182,512,0,0
-35,512,0,0,0,0,0,0,0,0,0,-1,1189,512,0,0
-28,512,0,0,0,0,0,0,0,0,0,-1,1196,512,0,0
-21,512,0,0,0,0,0,0,0,0,0,-1,1203,512,0,0
-14,512,0,0,0,0,0,0,0,0,0,-1,1210,512,0,0
-7,512,0,0,0,0,0,0,0,0,0,-1,1217,512,0,0
0,512,0,0,0,0,0,0,0,0,0,-1,1224,512,0,0
7,512,0,0,0,0,0,0,0,0,0,-1,1231,512,0,0
14,512,0,0,0,0,0,0,0,0,0,-1,1238,512,0,0
21,512,0,0,0,0,0,0,0,0,0,-1,1245,512,0,0
28,512,0,0,0,0,0,0,0,0,0,-1,1252,512,0,0
35,512,0,0,0,0,0,0,0,0,0,-1,1259,512,0,0
42,512,0,0,0,0,0,0,0,0,0,-1,1266,512,0,0
49,512,0,0,0,0,0,0,0,0,0,-1,1273,512,0,0
56,512,0,0,0,0,0,0,0,0,0,-1,1280,512,0,0
63,512,0,0,0,0,0,0,0,0,0,-1,1287,512,0,0
70,512,0,0,0,0,0,0,0,0,0,-1,1294,512,0,0
77,512,0,0,0,0,0,0,0,0,0,-1,1301,512,0,0
84,512,0,0,0,0,0,0,0,0,0,-1,1308,512,0,0
91,512,0,0,0,0,0,0,0,0,0,-1,1315,512,0,0
98,512,0,0,0,0,0,0,0,0,0,-1,1322,512,0,0
105,512,0,0,0,0,0,0,0,0,0,-1,1329,512,0,0
112,512,0,0,0,0,0,0,0,0,0,-1,1336,512,0,0
119,512,0,0,0,0,0,0,0,0,0,-1,1343,512,0,0
126,512,0,0,0,0,0,0,0,0,0,-1,1350,512,0,0
133,512,0,0,0,0,0,0,0,0,0,-1,1357,512,0,0
140,512,0,0,0,0,0,0,0,0,0,-1,1364,512,0,0
147,512,0,0,0,0,0,0,0,0,0,-1,1371,512,0,0
154,512,0,0,0,0,0,0,0,0,0,-1,1378,512,0,0
161,512,0,0,0,0,0,0,0,0,0,-1,1385,512,0,0
168,512,0,0,0,0,0,0,0,0,0,-1,1392,512,0,0
175,512,0,0,0,0,0,0,0,0,0,-1,1399,512,0,0
182,512,0,0,0,0,0,0,0,0,0,-1,1406,512,0,0
189,512,0,0,0,0,0,0,0,0,0,-1,1413,512,0,0
196,512,0,0,0,0,0,0,0,0,0,-1,1420,512,0,0
203,512,0,0,0,0,0,0,0,0,0,-1,1427,512,0,0
210,512,0,0,0,0,0,0,0,0,0,-1,1434,512,0,0
217,512,0,0,0,0,0,0,0,0,0,-1,1441,512,0,0
224,512,0,0,0,0,0,0,0,0,0,-1,1448,512,0,0
231,512,0,0,0,0,0,0,0,0,0,-1,1455,512,0,0
238,512,0,0,0,0,0,0,0,0,0,-1,1462,512,0,0
245,512,0,0,0,0,0,0,0,0,0,-1,1469,512,0,0
252,512,0,0,0,0,0,0,0,0,0,-1,1476,512,0,0
259,512,0,0,0,0,0,0,0,0,0,-1,1483,512,0,0
266,512,0,0,0,0,0,0,0,0,0,-1,1490,512,0,0
273,512,4.00745,0.618622,0,0,0,0,0,0,0,-1,1497,512,4.00747,-0.618611
280,512,4.49609,0.649841,0,0,0,0,0,0,0,-1,1504,512,4.49612,-0.649834
287,512,4.77234,0.458069,0,0,0,0,0,0,0,-1,1511,512,4.77233,-0.458083
294,512,8.54956,-2.36273,0,0,0,0,0,0,0,-1,1518,512,8.54952,2.36274
301,512,6.302,-1.69092,0,0,0,0,0,0,0,-1,1525,512,6.30196,1.69093
308,512,8.2439,-6.22754,0,0,0,0,0,0,0,-1,1532,512,8.24394,6.22757
315,512,7.53687,-6.04211,0,0,0,0,0,0,0,-1,1539,512,7.53691,6.04211
322,512,6.82983,-5.85663,0,0,0,0,0,0,0,-1,1546,512,6.82988,5.85666
329,512,4.38147,-0.329651,0,0,0,0,0,0,0,-1,1553,512,4.38144,0.329662
336,512,4.41467,-0.741455,0,0,0,0,0,0,0,-1,1560,512,4.41467,0.741442
343,512,4.44727,-1.21667,0,0,0,0,0,0,0,-1,1567,512,4.44732,1.21666
350,512,4.55469,-1.65082,0,0,0,0,0,0,0,-1,1574,512,4.5547,1.65083
357,512,5.79993,-2.67456,0,0,0,0,0,0,0,-1,1581,512,5.79991,2.67454
364,512,8.56641,-24.3753,0,0,0,0,0,0,0,-1,1588,512,8.56646,24.3753
371,512,5.28467,-7.69269,0,0,0,0,0,0,0,-1,1595,512,5.28464,7.69269
378,512,6.29407,-9.88055,0,0,0,0,0,0,0,-1,1602,512,6.29412,9.88057
385,512,6.45569,-9.32233,0,0,0,0,0,0,0,-1,1609,512,6.45565,9.3223
392,512,6.35522,-8.98425,0,0,0,0,0,0,0,-1,1616,512,6.35526,8.98422
399,512,7.5304,-12.1449,0,0,0,0,0,0,0,-1,1623,512,7.53042,12.1449
406,512,12.2109,-23.4847,0,0,0,0,0,0,0,-1,1630,512,12.2109,23.4847
413,512,12.2823,-22.9064,0,0,0,0,0,0,0,-1,1637,512,12.2823,22.9063
420,512,12.2439,-22.3336,0.00252511,0.00144664,3.75798e-05,0.00252641,0.00144533,0.0347892,0.00146367,0.0258584,1644,512,12.2439,22.3336
427,512,12.2225,-21.7844,0.00241657,0.00156981,0.000342679,0.00253787,0.0014485,0.34022,0.00147012,0.0151626,1651,512,12.2225,21.7844
434,512,12.2164,-21.2754,0.00205459,0.00154868,0.000466622,0.00233241,0.00127086,0.537018,0.00134842,0.011548,1658,512,12.2165,21.2754
441,512,12.1924,-20.7431,0.00178778,0.00157497,0.000588859,0.00227977,0.00108298,0.696012,0.00131677,0.0133825,1665,512,12.1924,20.7431
448,512,12.1619,-20.2134,0.00163488,0.00154981,0.00075374,0.00234728,0.000837402,0.757211,0.00137362,0.00990734,1672,512,12.1619,20.2135
455,512,12.1521,-19.6464,0.00142676,0.00159792,0.00090031,0.00241671,0.000607971,0.832785,0.00145156,0.0088181,1679,512,12.1521,19.6465
462,512,12.161,-19.0733,0.00127455,0.00167551,0.00112178,0.00261458,0.000335478,0.873823,0.00164269,0.00959059,1686,512,12.1611,19.0733
469,512,12.1439,-18.5294,0.00107393,0.00177771,0.0015145,0.00298066,-0.000129023,0.899547,0.00203148,0.0115633,1693,512,12.1439,18.5293
476,512,12.1135,-17.978,0.000559945,0.00197073,0.00213043,0.00350951,-0.000978838,0.945269,0.00272519,0.0141927,1700,512,12.1136,17.978
483,512,12.1108,-17.39,2.85675e-05,0.00210543,0.00277201,0.00402714,-0.00189313,0.964614,0.0034913,0.0135676,1707,512,12.1109,17.39
490,512,12.1044,-16.7983,-0.000730321,0.00222982,0.00356894,0.00461342,-0.00311392,0.981959,0.0044893,0.01071,1714,512,12.1043,16.7983
497,512,12.0789,-16.2287,-0.00173769,0.00242772,0.0045519,0.00535076,-0.00466073,0.999954,0.00578471,0.0112067,1721,512,12.0789,16.2287
504,512,12.02,-15.6439,-0.00307195,0.00262633,0.00566255,0.00611612,-0.00656175,1.01848,0.00732108,0.0130657,1728,512,12.02,15.6439
511,512,11.9891,-15.0192,-0.00480973,0.00285882,0.00688052,0.0069013,-0.00885221,1.0396,0.00911851,0.0149309,1735,512,11.9892,15.0191
518,512,11.995,-14.4233,-0.00703491,0.00311015,0.008144,0.00763216,-0.0115569,1.06393,0.0111558,0.0186264,1742,512,11.995,14.4233
525,512,11.6844,-13.7094,-0.0099294,0.0034122,0.00934149,0.00822021,-0.0147374,1.09546,0.0134314,0.0433229,1749,512,11.6845,13.7094
532,512,11.5051,-12.7886,0,0,0,0,0,0,0,-1,1756,512,11.5052,12.7885
539,512,7.05908,-7.00647,0,0,0,0,0,0,0,-1,1763,512,7.05909,7.00647
546,512,2.77551,-0.66449,0,0,0,0,0,0,0,-1,1770,512,2.77548,0.664503
553,512,3.927,-0.448853,0,0,0,0,0,0,0,-1,1777,512,3.92704,0.448843
560,512,3.55762,-0.201233,0,0,0,0,0,0,0,-1,1784,512,3.55768,0.201259
567,512,3.09045,0.191193,0,0,0,0,0,0,0,-1,1791,512,3.09045,-0.191203
574,512,0,0,0,0,0,0,0,0,0,-1,1798,512,0,0
581,512,0,0,0,0,0,0,0,0,0,-1,1805,512,0,0
588,512,0,0,0,0,0,0,0,0,0,-1,1812,512,0,0
595,512,0,0,0,0,0,0,0,0,0,-1,1819,512,0,0
602,512,0,0,0,0,0,0,0,0,0,-1,1826,512,0,0
609,512,0,0,0,0,0,0,0,0,0,-1,1833,512,0,0
616,512,0,0,0,0,0,0,0,0,0,-1,1840,512,0,0
623,512,0,0,0,0,0,0,0,0,0,-1,1847,512,0,0
630,512,0,0,0,0,0,0,0,0,0,-1,1854,512,0,0
637,512,0,0,0,0,0,0,0,0,0,-1,1861,512,0,0
644,512,0,0,0,0,0,0,0,0,0,-1,1868,512,0,0
651,512,0,0,0,0,0,0,0,0,0,-1,1875,512,0,0
658,512,0,0,0,0,0,0,0,0,0,-1,1882,512,0,0
665,512,0,0,0,0,0,0,0,0,0,-1,1889,512,0,0
672,512,0,0,0,0,0,0,0,0,0,-1,1896,512,0,0
679,512,0,0,0,0,0,0,0,0,0,-1,1903,512,0,0
686,512,0,0,0,0,0,0,0,0,0,-1,1910,512,0,0
693,512,0,0,0,0,0,0,0,0,0,-1,1917,512,0,0
700,512,0,0,0,0,0,0,0,0,0,-1,1924,512,0,0
707,512,0,0,0,0,0,0,0,0,0,-1,1931,512,0,0
714,512,0,0,0,0,0,0,0,0,0,-1,1938,512,0,0
721,512,0,0,0,0,0,0,0,0,0,-1,1945,512,0,0
728,512,0,0,0,0,0,0,0,0,0,-1,1952,512,0,0
735,512,0,0,0,0,0,0,0,0,0,-1,1959,512,0,0
742,512,0,0,0,0,0,0,0,0,0,-1,1966,512,0,0
749,512,0,0,0,0,0,0,0,0,0,-1,1973,512,0,0
756,512,0,0,0,0,0,0,0,0,0,-1,1980,512,0,0
763,512,0,0,0,0,0,0,0,0,0,-1,1987,512,0,0
770,512,0,0,0,0,0,0,0,0,0,-1,1994,512,0,0
777,512,0,0,0,0,0,0,0,0,0,-1,2001,512,0,0
784,512,0,0,0,0,0,0,0,0,0,-1,2008,512,0,0
791,512,0,0,0,0,0,0,0,0,0,-1,2015,512,0,0
798,512,0,0,0,0,0,0,0,0,0,-1,2022,512,0,0
805,512,0,0,0,0,0,0,0,0,0,-1,2029,512,0,0
812,512,0,0,0,0,0,0,0,0,0,-1,2036,512,0,0
-700,505,0,0,0,0,0,0,0,0,0,-1,524,519,0,0
-693,505,0,0,0,0,0,0,0,0,0,-1,531,519,0,0
-686,505,0,0,0,0,0,0,0,0,0,-1,538,519,0,0
-679,505,0,0,0,0,0,0,0,0,0,-1,545,519,0,0
-672,505,0,0,0,0,0,0,0,0,0,-1,552,519,0,0
-665,505,0,0,0,0,0,0,0,0,0,-1,559,519,0,0
-658,505,0,0,0,0,0,0,0,0,0,-1,566,519,0,0
-651,505,0,0,0,0,0,0,0,0,0,-1,573,519,0,0
-644,505,0,0,0,0,0,0,0,0,0,-1,580,519,0,0
-637,505,0,0,0,0,0,0,0,0,0,-1,587,519,0,0
-630,505,0,0,0,0,0,0,0,0,0,-1,594,519,0,0
-623,505,0,0,0,0,0,0,0,0,0,-1,601,519,0,0
-616,505,0,0,0,0,0,0,0,0,0,-1,608,519,0,0
-609,505,0,0,0,0,0,0,0,0,0,-1,615,519,0,0
-602,505,0,0,0,0,0,0,0,0,0,-1,622,519,0,0
-595,505,0,0,0,0,0,0,0,0,0,-1,629,519,0,0
-588,505,0,0,0,0,0,0,0,0,0,-1,636,519,0,0
-581,505,0,0,0,0,0,0,0,0,0,-1,643,519,0,0
-574,505,0,0,0,0,0,0,0,0,0,-1,650,519,0,0
-567,505,0,0,0,0,0,0,0,0,0,-1,657,519,0,0
-560,505,0,0,0,0,0,0,0,0,0,-1,664,519,0,0
-553,505,0,0,0,0,0,0,0,0,0,-1,671,519,0,0
-546,505,0,0,0,0,0,0,0,0,0,-1,678,519,0,0
-539,505,0,0,0,0,0,0,0,0,0,-1,685,519,0,0
-532,505,0,0,0,0,0,0,0,0,0,-1,692,519,0,0
-525,505,0,0,0,0,0,0,0,0,0,-1,699,519,0,0
-518,505,0,0,0,0,0,0,0,0,0,-1,706,519,0,0
-511,505,0,0,0,0,0,0,0,0,0,-1,713,519,0,0
-504,505,0,0,0,0,0,0,0,0,0,-1,720,519,0,0
-497,505,0,0,0,0,0,0,0,0,0,-1,727,519,0,0
-490,505,0,0,0,0,0,0,0,0,0,-1,734,519,0,0
-483,505,0,0,0,0,0,0,0,0,0,-1,741,519,0,0
-476,505,0,0,0,0,0,0,0,0,0,-1,748,519,0,0
-469,505,0,0,0,0,0,0,0,0,0,-1,755,519,0,0
-462,505,0,0,0,0,0,0,0,0,0,-1,762,519,0,0
-455,505,2.72137,-3.26379,0,0,0,0,0,0,0,-1,769,519,2.72135,3.26377
-448,505,2.51111,-3.94989,0,0,0,0,0,0,0,-1,776,519,2.51112,3.94986
-441,505,2.80212,-6.8902,0,0,0,0,0,0,0,-1,783,519,2.80209,6.89019
-434,505,-0.155212,-10.6374,0,0,0,0,0,0,0,-1,790,519,-0.155194,10.6374
-427,505,-0.474426,-10.4702,0,0,0,0,0,0,0,-1,797,519,-0.474433,10.4702
-420,505,-0.922546,-10.1928,0,0,0,0,0,0,0,-1,804,519,-0.92257,10.1928
-413,505,-3.33948,-13.6183,0,0,0,0,0,0,0,-1,811,519,-3.33949,13.6184
-406,505,-2.89685,-13.7448,0,0,0,0,0,0,0,-1,818,519,-2.89684,13.7448
-399,505,-2.60687,-14.6409,0.00566159,0.0222334,-0.0132661,0.0295886,-0.00169364,-1.06455,0.0203138,0.0498251,825,519,-2.60688,14.6409
-392,505,-2.29834,-15.6914,0.00470497,0.0184422,-0.0113016,0.0247987,-0.00165152,-1.05845,0.0171096,0.0219543,832,519,-2.29831,15.6914
-385,505,-2.3606,-16.3701,0.00387621,0.0150323,-0.0093843,0.0203712,-0.00146268,-1.05354,0.0140937,0.00966221,839,519,-2.3606,16.3701
-378,505,-2.39404,-16.9397,0.00323045,0.0121762,-0.00772767,0.0166321,-0.00122549,-1.04774,0.0115183,0.0111083,846,519,-2.39406,16.9397
-371,505,-2.40088,-17.528,0.0026053,0.00953955,-0.00619179,0.0131689,-0.001024,-1.04063,0.00913971,0.0129126,853,519,-2.40088,17.528
-364,505,-2.43622,-18.117,0.00203971,0.00715941,-0.00473447,0.00998176,-0.000782643,-1.03323,0.00693013,0.0143724,860,519,-2.43622,18.117
-357,505,-2.41266,-18.6641,0.00166068,0.00520684,-0.00348293,0.00734204,-0.000474517,-1.02084,0.00506028,0.0124025,867,519,-2.41267,18.6641
-350,505,-2.44763,-19.1727,0.00141414,0.00341918,-0.00239626,0.00501418,-0.000180857,-0.983519,0.00340467,0.0118807,874,519,-2.44763,19.1727
-343,505,-2.47229,-19.7039,0.00117895,0.00165491,-0.00132218,0.00276035,7.35072e-05,-0.874441,0.00181623,0.00961587,881,519,-2.47229,19.7038
-336,505,-2.52863,-20.2387,0.00120149,0.000301246,-0.000517572,0.00143729,6.54456e-05,-0.427493,0.000937142,0.0123418,888,519,-2.5286,20.2387
-329,505,-2.54279,-20.7429,0.00144031,-0.000907744,0.000121915,0.00144663,-0.000914057,0.0517364,0.00137445,0.0177631,895,519,-2.54277,20.7429
-322,505,-2.53473,-21.2939,0.00168294,-0.00195075,0.000707061,0.00181567,-0.00208349,0.185567,0.00225295,0.0203148,902,519,-2.53471,21.2939
-315,505,-2.54175,-21.8476,0.00198429,-0.00277793,0.00124627,0.00229072,-0.00308436,0.241095,0.00311456,0.0148735,909,519,-2.54175,21.8476
-308,505,-2.55768,-22.3358,0.00233824,-0.00351215,0.00175723,0.00282546,-0.00399938,0.270476,0.00395971,0.0125847,916,519,-2.55766,22.3358
-301,505,-2.54993,-22.853,0.00250817,-0.00418331,0.00244046,0.00330367,-0.00497881,0.315101,0.00481438,0.0188711,923,519,-2.54994,22.853
-294,505,-2.57764,-23.1199,0.00261529,-0.00468972,0.00309245,0.0037486,-0.00582303,0.351277,0.00556928,0.0401218,930,519,-2.57765,23.1199
-287,505,-2.67316,-23.8817,0,0,0,0,0,0,0,-1,937,519,-2.67318,23.8817
-280,505,-2.508,-24.5623,0,0,0,0,0,0,0,-1,944,519,-2.50799,24.5623
-273,505,-0.0680542,-9.44867,0,0,0,0,0,0,0,-1,951,519,-0.0680462,9.44866
-266,505,-0.036377,-9.07922,0,0,0,0,0,0,0,-1,958,519,-0.0364055,9.0792
-259,505,0.10321,-6.69824,0,0,0,0,0,0,0,-1,965,519,0.103235,6.69826
-252,505,6.82312,-15.6972,0,0,0,0,0,0,0,-1,972,519,6.82314,15.6972
-245,505,4.26727,-12.9861,0,0,0,0,0,0,0,-1,979,519,4.2673,12.9861
-238,505,1.67432,-11.2307,0,0,0,0,0,0,0,-1,986,519,1.67429,11.2307
-231,505,-0.958435,-8.3075,0,0,0,0,0,0,0,-1,993,519,-0.958421,8.30751
-224,505,-3.69653,-5.12732,0,0,0,0,0,0,0,-1,1000,519,-3.69653,5.12733
-217,505,-6.34302,-1.65533,0,0,0,0,0,0,0,-1,1007,519,-6.34299,1.65535
-210,505,-3.06128,-0.396301,0,0,0,0,0,0,0,-1,1014,519,-3.06129,0.396294
-203,505,-4.26465,2.03607,0,0,0,0,0,0,0,-1,1021,519,-4.26462,-2.03606
-196,505,-5.47595,4.27295,0,0,0,0,0,0,0,-1,1028,519,-5.47597,-4.27292
-189,505,1.51526,5.56207,0,0,0,0,0,0,0,-1,1035,519,1.51523,-5.56209
-182,505,2.97815,7.5097,0,0,0,0,0,0,0,-1,1042,519,2.97812,-7.5097
-175,505,-2.38416,-2.17548,0,0,0,0,0,0,0,-1,1049,519,-2.38411,2.1755
-168,505,0,0,0,0,0,0,0,0,0,-1,1056,519,0,0
-161,505,0,0,0,0,0,0,0,0,0,-1,1063,519,0,0
-154,505,0,0,0,0,0,0,0,0,0,-1,1070,519,0,0
-147,505,0,0,0,0,0,0,0,0,0,-1,1077,519,0,0
-140,505,0,0,0,0,0,0,0,0,0,-1,1084,519,0,0
-133,505,0,0,0,0,0,0,0,0,0,-1,1091,519,0,0
-126,505,0,0,0,0,0,0,0,0,0,-1,1098,519,0,0
-119,505,0,0,0,0,0,0,0,0,0,-1,1105,519,0,0
-112,505,0,0,0,0,0,0,0,0,0,-1,1112,519,0,0
-105,505,0,0,0,0,0,0,0,0,0,-1,1119,519,0,0
-98,505,0,0,0,0,0,0,0,0,0,-1,1126,519,0,0
-91,505,0,0,0,0,0,0,0,0,0,-1,1133,519,0,0
-84,505,0,0,0,0,0,0,0,0,0,-1,1140,519,0,0
-77,505,0,0,0,0,0,0,0,0,0,-1,1147,519,0,0
-70,505,0,0,0,0,0,0,0,0,0,-1,1154,519,0,0
-63,505,0,0,0,0,0,0,0,0,0,-1,1161,519,0,0
-56,505,0,0,0,0,0,0,0,0,0,-1,1168,519,0,0
-49,505,0,0,0,0,0,0,0,0,0,-1,1175,519,0,0
-42,505,0,0,0,0,0,0,0,0,0,-1,1182,519,0,0
-35,505,0,0,0,0,0,0,0,0,0,-1,1189,519,0,0
-28,505,0,0,0,0,0,0,0,0,0,-1,1196,519,0,0
-21,505,0,0,0,0,0,0,0,0,0,-1,1203,519,0,0
-14,505,0,0,0,0,0,0,0,0,0,-1,1210,519,0,0
-7,505,0,0,0,0,0,0,0,0,0,-1,1217,519,0,0
0,505,0,0,0,0,0,0,0,0,0,-1,1224,519,0,0
7,505,0,0,0,0,0,0,0,0,0,-1,1231,519,0,0
14,505,0,0,0,0,0,0,0,0,0,-1,1238,519,0,0
21,505,0,0,0,0,0,0,0,0,0,-1,1245,519,0,0
28,505,0,0,0,0,0,0,0,0,0,-1,1252,519,0,0
35,505,0,0,0,0,0,0,0,0,0,-1,1259,519,0,0
42,505,0,0,0,0,0,0,0,0,0,-1,1266,519,0,0
49,505,0,0,0,0,0,0,0,0,0,-1,1273,519,0,0
56,505,0,0,0,0,0,0,0,0,0,-1,1280,519,0,0
63,505,0,0,0,0,0,0,0,0,0,-1,1287,519,0,0
70,505,0,0,0,0,0,0,0,0,0,-1,1294,519,0,0
77,505,0,0,0,0,0,0,0,0,0,-1,1301,519,0,0
84,505,0,0,0,0,0,0,0,0,0,-1,1308,519,0,0
91,505,0,0,0,0,0,0,0,0,0,-1,1315,519,0,0
98,505,0,0,0,0,0,0,0,0,0,-1,1322,519,0,0
105,505,0,0,0,0,0,0,0,0,0,-1,1329,519,0,0
112,505,0,0,0,0,0,0,0,0,0,-1,1336,519,0,0
119,505,0,0,0,0,0,0,0,0,0,-1,1343,519,0,0
126,505,0,0,0,0,0,0,0,0,0,-1,1350,519,0,0
133,505,0,0,0,0,0,0,0,0,0,-1,1357,519,0,0
140,505,0,0,0,0,0,0,0,0,0,-1,1364,519,0,0
147,505,0,0,0,0,0,0,0,0,0,-1,1371,519,0,0
154,505,0,0,0,0,0,0,0,0,0,-1,1378,519,0,0
161,505,0,0,0,0,0,0,0,0,0,-1,1385,519,0,0
168,505,0,0,0,0,0,0,0,0,0,-1,1392,519,0,0
175,505,0,0,0,0,0,0,0,0,0,-1,1399,519,0,0
182,505,0,0,0,0,0,0,0,0,0,-1,1406,519,0,0
189,505,0,0,0,0,0,0,0,0,0,-1,1413,519,0,0
196,505,0,0,0,0,0,0,0,0,0,-1,1420,519,0,0
203,505,0,0,0,0,0,0,0,0,0,-1,1427,519,0,0
210,505,0,0,0,0,0,0,0,0,0,-1,1434,519,0,0
217,505,0,0,0,0,0,0,0,0,0,-1,1441,519,0,0
224,505,0,0,0,0,0,0,0,0,0,-1,1448,519,0,0
231,505,0,0,0,0,0,0,0,0,0,-1,1455,519,0,0
238,505,0,0,0,0,0,0,0,0,0,-1,1462,519,0,0
245,505,0,0,0,0,0,0,0,0,0,-1,1469,519,0,0
252,505,0,0,0,0,0,0,0,0,0,-1,1476,519,0,0
259,505,0,0,0,0,0,0,0,0,0,-1,1483,519,0,0
266,505,0,0,0,0,0,0,0,0,0,-1,1490,519,0,0
273,505,0,0,0,0,0,0,0,0,0,-1,1497,519,0,0
280,505,0,0,0,0,0,0,0,0,0,-1,1504,519,0,0
287,505,4.39478,0.499512,0,0,0,0,0,0,0,-1,1511,519,4.39476,-0.499506
294,505,4.88867,0.0822754,0,0,0,0,0,0,0,-1,1518,519,4.88871,-0.0822748
301,505,4.82153,-0.0704346,0,0,0,0,0,0,0,-1,1525,519,4.82156,0.0704312
308,505,4.67761,-0.29187,0,0,0,0,0,0,0,-1,1532,519,4.67762,0.291845
315,505,8.44055,-6.54352,0,0,0,0,0,0,0,-1,1539,519,8.44059,6.54349
322,505,4.78955,-0.594116,0,0,0,0,0,0,0,-1,1546,519,4.78957,0.594096
329,505,5.16321,0.434631,0,0,0,0,0,0,0,-1,1553,519,5.16316,-0.434614
336,505,4.94495,-0.920471,0,0,0,0,0,0,0,-1,1560,519,4.945,0.920495
343,505,5.01855,-1.4823,0,0,0,0,0,0,0,-1,1567,519,5.01851,1.48227
350,505,5.33154,-1.77838,0,0,0,0,0,0,0,-1,1574,519,5.33152,1.77838
357,505,5.56567,-1.9425,0,0,0,0,0,0,0,-1,1581,519,5.56562,1.94248
364,505,5.85205,-2.6579,0,0,0,0,0,0,0,-1,1588,519,5.85211,2.65788
371,505,5.88477,-7.00922,0,0,0,0,0,0,0,-1,1595,519,5.88473,7.00924
378,505,5.44104,-7.10162,0,0,0,0,0,0,0,-1,1602,519,5.44099,7.10162
385,505,6.64661,-8.65015,0,0,0,0,0,0,0,-1,1609,519,6.64662,8.65014
392,505,6.34558,-8.3429,0,0,0,0,0,0,0,-1,1616,519,6.34554,8.34288
399,505,7.45898,-9.70386,0,0,0,0,0,0,0,-1,1623,519,7.45899,9.70388
406,505,7.08679,-9.4928,0,0,0,0,0,0,0,-1,1630,519,7.08678,9.49278
413,505,8.4032,-14.0308,0,0,0,0,0,0,0,-1,1637,519,8.4032,14.0308
420,505,12.7417,-22.4787,0,0,0,0,0,0,0,-1,1644,519,12.7418,22.4787
427,505,12.7592,-21.8863,0.00299713,0.00216419,0.000438404,0.00318535,0.00197597,0.405523,0.00185673,0.0303381,1651,519,12.7591,21.8863
434,505,12.7382,-21.2841,0.00248951,0.00188251,0.000396043,0.00268497,0.00168705,0.45846,0.0015671,0.0125343,1658,519,12.7382,21.2841
441,505,12.7468,-20.7029,0.0021375,0.00169442,0.000387417,0.00236225,0.00146967,0.525672,0.00137734,0.0109189,1665,519,12.7468,20.7029
448,505,12.7222,-20.1684,0.00191424,0.00148151,0.00046072,0.00220687,0.00118888,0.565875,0.00127541,0.0109159,1672,519,12.7222,20.1684
455,505,12.7008,-19.6184,0.00161888,0.0013777,0.000527961,0.00203985,0.000956735,0.67312,0.00117846,0.010685,1679,519,12.7008,19.6184
462,505,12.6915,-19.0477,0.00139423,0.00133978,0.000661692,0.00202926,0.000704752,0.764837,0.00118966,0.010678,1686,519,12.6915,19.0477
469,505,12.6908,-18.4995,0.00119825,0.00135824,0.000984443,0.00226593,0.000290554,0.825939,0.00142369,0.0113646,1693,519,12.6908,18.4995
476,505,12.6625,-17.9662,0.000768212,0.00147359,0.00148654,0.0026487,-0.000406902,0.901872,0.00191589,0.0116416,1700,519,12.6624,17.9662
483,505,12.6583,-17.4049,0.000264666,0.00156659,0.00203468,0.00305191,-0.00122065,0.94022,0.00254117,0.0125576,1707,519,12.6583,17.4049
490,505,12.655,-16.8005,-0.000456043,0.00168571,0.00267132,0.00349281,-0.00226314,0.97603,0.00334838,0.0116073,1714,519,12.655,16.8005
497,505,12.6267,-16.2277,-0.00136758,0.00186695,0.00344331,0.00405388,-0.00355451,1.00495,0.00439586,0.0114646,1721,519,12.6267,16.2277
504,505,12.5813,-15.6334,-0.00252637,0.00205732,0.004301,0.00463899,-0.00510804,1.03019,0.00562962,0.0127109,1728,519,12.5813,15.6333
511,505,12.5505,-15.0339,-0.00402848,0.00226379,0.00517373,0.00517288,-0.00693757,1.05857,0.00701667,0.0144753,1735,519,12.5505,15.0339
518,505,12.5818,-14.4415,-0.00587538,0.00249108,0.00598142,0.00560694,-0.00899125,1.09055,0.00850343,0.0209976,1742,519,12.5818,14.4415
525,505,12.3639,-13.7852,-0.00816461,0.00266271,0.00668446,0.00585077,-0.0113527,1.12577,0.0101003,0.032761,1749,519,12.3638,13.7852
532,505,12.2213,-12.8709,0,0,0,0,0,0,0,-1,1756,519,12.2214,12.8709
539,505,7.90369,-7.11932,0,0,0,0,0,0,0,-1,1763,519,7.90373,7.11932
546,505,7.94946,-6.64539,0,0,0,0,0,0,0,-1,1770,519,7.94947,6.64539
553,505,2.82837,0.162659,0,0,0,0,0,0,0,-1,1777,519,2.82841,-0.162672
560,505,3.66223,-0.479797,0,0,0,0,0,0,0,-1,1784,519,3.66219,0.47982
567,505,4.65271,-0.950256,0,0,0,0,0,0,0,-1,1791,519,4.65274,0.95028
574,505,5.54443,-1.19977,0,0,0,0,0,0,0,-1,1798,519,5.54443,1.19974
581,505,0,0,0,0,0,0,0,0,0,-1,1805,519,0,0
588,505,0,0,0,0,0,0,0,0,0,-1,1812,519,0,0
595,505,0,0,0,0,0,0,0,0,0,-1,1819,519,0,0
602,505,0,0,0,0,0,0,0,0,0,-1,1826,519,0,0
609,505,0,0,0,0,0,0,0,0,0,-1,1833,519,0,0
616,505,0,0,0,0,0,0,0,0,0,-1,1840,519,0,0
623,505,0,0,0,0,0,0,0,0,0,-1,1847,519,0,0
630,505,0,0,0,0,0,0,0,0,0,-1,1854,519,0,0
637,505,0,0,0,0,0,0,0,0,0,-1,1861,519,0,0
644,505,0,0,0,0,0,0,0,0,0,-1,1868,519,0,0
651,505,0,0,0,0,0,0,0,0,0,-1,1875,519,0,0
658,505,0,0,0,0,0,0,0,0,0,-1,1882,519,0,0
665,505,0,0,0,0,0,0,0,0,0,-1,1889,519,0,0
672,505,0,0,0,0,0,0,0,0,0,-1,1896,519,0,0
679,505,0,0,0,0,0,0,0,0,0,-1,1903,519,0,0
686,505,0,0,0,0,0,0,0,0,0,-1,1910,519,0,0
693,505,0,0,0,0,0,0,0,0,0,-1,1917,519,0,0
700,505,0,0,0,0,0,0,0,0,0,-1,1924,519,0,0
707,505,0,0,0,0,0,0,0,0,0,-1,1931,519,0,0
714,505,0,0,0,0,0,0,0,0,0,-1,1938,519,0,0
721,505,0,0,0,0,0,0,0,0,0,-1,1945,519,0,0
728,505,0,0,0,0,0,0,0,0,0,-1,1952,519,0,0
735,505,0,0,0,0,0,0,0,0,0,-1,1959,519,0,0
742,505,0,0,0,0,0,0,0,0,0,-1,1966,519,0,0
749,505,0,0,0,0,0,0,0,0,0,-1,1973,519,0,0
756,505,0,0,0,0,0,0,0,0,0,-1,1980,519,0,0
763,505,0,0,0,0,0,0,0,0,0,-1,1987,519,0,0
770,505,0,0,0,0,0,0,0,0,0,-1,1994,519,0,0
777,505,0,0,0,0,0,0,0,0,0,-1,2001,519,0,0
784,505,0,0,0,0,0,0,0,0,0,-1,2008,519,0,0
791,505,0,0,0,0,0,0,0,0,0,-1,2015,519,0,0
798,505,0,0,0,0,0,0,0,0,0,-1,2022,519,0,0
805,505,0,0,0,0,0,0,0,0,0,-1,2029,519,0,0
812,505,0,0,0,0,0,0,0,0,0,-1,2036,519,0,0
-700,498,0,0,0,0,0,0,0,0,0,-1,524,526,0,0
-693,498,0,0,0,0,0,0,0,0,0,-1,531,526,0,0
-686,498,0,0,0,0,0,0,0,0,0,-1,538,526,0,0
-679,498,0,0,0,0,0,0,0,0,0,-1,545,526,0,0
-672,498,0,0,0,0,0,0,0,0,0,-1,552,526,0,0
-665,498,0,0,0,0,0,0,0,0,0,-1,559,526,0,0
-658,498,0,0,0,0,0,0,0,0,0,-1,566,526,0,0
-651,498,0,0,0,0,0,0,0,0,0,-1,573,526,0,0
-644,498,0,0,0,0,0,0,0,0,0,-1,580,526,0,0
-637,498,0,0,0,0,0,0,0,0,0,-1,587,526,0,0
-630,498,0,0,0,0,0,0,0,0,0,-1,594,526,0,0
-623,498,0,0,0,0,0,0,0,0,0,-1,601,526,0,0
-616,498,0,0,0,0,0,0,0,0,0,-1,608,526,0,0
-609,498,0,0,0,0,0,0,0,0,0,-1,615,526,0,0
-602,498,0,0,0,0,0,0,0,0,0,-1,622,526,0,0
-595,498,0,0,0,0,0,0,0,0,0,-1,629,526,0,0
-588,498,0,0,0,0,0,0,0,0,0,-1,636,526,0,0
-581,498,0,0,0,0,0,0,0,0,0,-1,643,526,0,0
-574,498,0,0,0,0,0,0,0,0,0,-1,650,526,0,0
-567,498,0,0,0,0,0,0,0,0,0,-1,657,526,0,0
-560,498,0,0,0,0,0,0,0,0,0,-1,664,526,0,0
-553,498,0,0,0,0,0,0,0,0,0,-1,671,526,0,0
-546,498,0,0,0,0,0,0,0,0,0,-1,678,526,0,0
-539,498,0,0,0,0,0,0,0,0,0,-1,685,526,0,0
-532,498,0,0,0,0,0,0,0,0,0,-1,692,526,0,0
-525,498,0,0,0,0,0,0,0,0,0,-1,699,526,0,0
-518,498,0,0,0,0,0,0,0,0,0,-1,706,526,0,0
-511,498,0,0,0,0,0,0,0,0,0,-1,713,526,0,0
-504,498,0,0,0,0,0,0,0,0,0,-1,720,526,0,0
-497,498,0,0,0,0,0,0,0,0,0,-1,727,526,0,0
-490,498,0,0,0,0,0,0,0,0,0,-1,734,526,0,0
-483,498,0,0,0,0,0,0,0,0,0,-1,741,526,0,0
-476,498,0,0,0,0,0,0,0,0,0,-1,748,526,0,0
-469,498,0,0,0,0,0,0,0,0,0,-1,755,526,0,0
-462,498,6.81024,1.15515,0,0,0,0,0,0,0,-1,762,526,6.81026,-1.15514
-455,498,3.25757,-3.0592,0,0,0,0,0,0,0,-1,769,526,3.25754,3.05921
-448,498,3.05939,-3.74298,0,0,0,0,0,0,0,-1,776,526,3.05939,3.74296
-441,498,2.77191,-6.08209,0,0,0,0,0,0,0,-1,783,526,2.77189,6.08207
-434,498,2.10681,-6.95929,0,0,0,0,0,0,0,-1,790,526,2.10682,6.9593
-427,498,-0.368042,-10.7726,0,0,0,0,0,0,0,-1,797,526,-0.36807,10.7726
-420,498,-1.05035,-10.5142,0,0,0,0,0,0,0,-1,804,526,-1.05034,10.5142
-413,498,-2.97583,-13.6028,0,0,0,0,0,0,0,-1,811,526,-2.97586,13.6028
-406,498,-2.90991,-14.3323,0.0045093,0.0211234,-0.0117445,0.0272018,-0.0015691,-1.09321,0.0186796,0.049913,818,526,-2.90991,14.3323
-399,498,-2.85187,-15.0998,0.00402791,0.0176195,-0.0102866,0.0231524,-0.00150498,-1.07731,0.0159603,0.0257133,825,526,-2.85187,15.0998
-392,498,-2.87933,-15.7728,0.00348591,0.0144702,-0.00878126,0.0193354,-0.00137925,-1.06486,0.0133738,0.0128571,832,526,-2.87933,15.7729
-385,498,-2.90509,-16.371,0.00303976,0.0116161,-0.00729285,0.0157881,-0.00113222,-1.05117,0.0109224,0.00977484,839,526,-2.90509,16.371
-378,498,-2.90521,-16.9352,0.00270273,0.00919313,-0.00597061,0.0127435,-0.00084762,-1.03433,0.00879182,0.0103363,846,526,-2.9052,16.9352
-371,498,-2.94183,-17.5006,0.00231969,0.00690441,-0.00469756,0.00983909,-0.000614994,-1.01239,0.00677371,0.0148485,853,526,-2.94186,17.5006
-364,498,-2.98523,-18.0775,0.00195109,0.00478557,-0.00345509,0.00710279,-0.000366137,-0.980028,0.00486184,0.0158545,860,526,-2.98523,18.0774
-357,498,-2.9613,-18.6304,0.00174475,0.00306964,-0.0023816,0.00487921,-6.4811e-05,-0.921045,0.00327462,0.0112903,867,526,-2.96131,18.6304
-350,498,-2.99274,-19.1705,0.00165786,0.00152393,-0.00146057,0.003053,0.000128791,-0.762491,0.00199379,0.0115124,874,526,-2.99273,19.1706
-343,498,-3.00391,-19.6872,0.00156939,-2.81417e-05,-0.000547383,0.00173895,-0.000197702,-0.300391,0.00123051,0.0118714,881,526,-3.0039,19.6872
-336,498,-3.04974,-20.2192,0.00168163,-0.00126854,0.000160984,0.00169039,-0.0012773,0.0543526,0.00171892,0.014988,888,526,-3.04975,20.2192
-329,498,-3.05432,-20.7206,0.00198911,-0.00233067,0.000719521,0.00210581,-0.00244736,0.160783,0.00263124,0.0222016,895,526,-3.05431,20.7206
-322,498,-3.05707,-21.251,0.00231288,-0.00326439,0.00124182,0.00257689,-0.00352839,0.209475,0.00353912,0.0241891,902,526,-3.05704,21.251
-315,498,-3.08374,-21.7913,0.00267542,-0.00403535,0.0017285,0.00309447,-0.0044544,0.237844,0.00438185,0.0180493,909,526,-3.08373,21.7913
-308,498,-3.06897,-22.306,0.0031121,-0.00473576,0.00220459,0.003689,-0.00531266,0.255941,0.00522521,0.0199416,916,526,-3.06896,22.306
-301,498,-2.98273,-22.8428,0.00332371,-0.00528155,0.00292797,0.00422547,-0.0061833,0.298762,0.00604484,0.0398006,923,526,-2.98275,22.8428
-294,498,-2.90515,-23.3878,0,0,0,0,0,0,0,-1,930,526,-2.90516,23.3877
-287,498,-0.91394,-13.4327,0,0,0,0,0,0,0,-1,937,526,-0.913935,13.4327
-280,498,-0.341614,-8.66608,0,0,0,0,0,0,0,-1,944,526,-0.341589,8.66606
-273,498,-0.988892,-8.62921,0,0,0,0,0,0,0,-1,951,526,-0.988906,8.62922
-266,498,0.362488,-6.33545,0,0,0,0,0,0,0,-1,958,526,0.362478,6.33547
-259,498,10.9454,-17.3615,0,0,0,0,0,0,0,-1,965,526,10.9454,17.3614
-252,498,8.56586,-14.6886,0,0,0,0,0,0,0,-1,972,526,8.56584,14.6886
-245,498,5.97382,-11.928,0,0,0,0,0,0,0,-1,979,526,5.97381,11.928
-238,498,2.24841,-13.8145,0,0,0,0,0,0,0,-1,986,526,2.24838,13.8145
-231,498,0.665894,-10.4898,0,0,0,0,0,0,0,-1,993,526,0.665863,10.4898
-224,498,-2.11243,-4.76312,0,0,0,0,0,0,0,-1,1000,526,-2.11245,4.76314
-217,498,-3.82239,-1.42841,0,0,0,0,0,0,0,-1,1007,526,-3.82241,1.42843
-210,498,-1.80591,-0.358215,0,0,0,0,0,0,0,-1,1014,526,-1.8059,0.3582
-203,498,-3.17316,1.06641,0,0,0,0,0,0,0,-1,1021,526,-3.17313,-1.0664
-196,498,-0.103271,5.40527,0,0,0,0,0,0,0,-1,1028,526,-0.103285,-5.40528
-189,498,3.00256,6.47137,0,0,0,0,0,0,0,-1,1035,526,3.00256,-6.47139
-182,498,0,0,0,0,0,0,0,0,0,-1,1042,526,0,0
-175,498,0,0,0,0,0,0,0,0,0,-1,1049,526,0,0
-168,498,0,0,0,0,0,0,0,0,0,-1,1056,526,0,0
-161,498,0,0,0,0,0,0,0,0,0,-1,1063,526,0,0
-154,498,0,0,0,0,0,0,0,0,0,-1,1070,526,0,0
-147,498,0,0,0,0,0,0,0,0,0,-1,1077,526,0,0
-140,498,0,0,0,0,0,0,0,0,0,-1,1084,526,0,0
-133,498,0,0,0,0,0,0,0,0,0,-1,1091,526,0,0
-126,498,0,0,0,0,0,0,0,0,0,-1,1098,526,0,0
-119,498,0,0,0,0,0,0,0,0,0,-1,1105,526,0,0
-112,498,0,0,0,0,0,0,0,0,0,-1,1112,526,0,0
-105,498,0,0,0,0,0,0,0,0,0,-1,1119,526,0,0
-98,498,0,0,0,0,0,0,0,0,0,-1,1126,526,0,0
-91,498,0,0,0,0,0,0,0,0,0,-1,1133,526,0,0
-84,498,0,0,0,0,0,0,0,0,0,-1,1140,526,0,0
-77,498,0,0,0,0,0,0,0,0,0,-1,1147,526,0,0
-70,498,0,0,0,0,0,0,0,0,0,-1,1154,526,0,0
-63,498,0,0,0,0,0,0,0,0,0,-1,1161,526,0,0
-56,498,0,0,0,0,0,0,0,0,0,-1,1168,526,0,0
-49,498,0,0,0,0,0,0,0,0,0,-1,1175,526,0,0
-42,498,0,0,0,0,0,0,0,0,0,-1,1182,526,0,0
-35,498,0,0,0,0,0,0,0,0,0,-1,1189,526,0,0
-28,498,0,0,0,0,0,0,0,0,0,-1,1196,526,0,0
-21,498,0,0,0,0,0,0,0,0,0,-1,1203,526,0,0
-14,498,0,0,0,0,0,0,0,0,0,-1,1210,526,0,0
-7,498,0,0,0,0,0,0,0,0,0,-1,1217,526,0,0
0,498,0,0,0,0,0,0,0,0,0,-1,1224,526,0,0
7,498,0,0,0,0,0,0,0,0,0,-1,1231,526,0,0
14,498,0,0,0,0,0,0,0,0,0,-1,1238,526,0,0
21,498,0,0,0,0,0,0,0,0,0,-1,1245,526,0,0
28,498,0,0,0,0,0,0,0,0,0,-1,1252,526,0,0
35,498,0,0,0,0,0,0,0,0,0,-1,1259,526,0,0
42,498,0,0,0,0,0,0,0,0,0,-1,1266,526,0,0
49,498,0,0,0,0,0,0,0,0,0,-1,1273,526,0,0
56,498,0,0,0,0,0,0,0,0,0,-1,1280,526,0,0
63,498,0,0,0,0,0,0,0,0,0,-1,1287,526,0,0
70,498,0,0,0,0,0,0,0,0,0,-1,1294,526,0,0
77,498,0,0,0,0,0,0,0,0,0,-1,1301,526,0,0
84,498,0,0,0,0,0,0,0,0,0,-1,1308,526,0,0
91,498,0,0,0,0,0,0,0,0,0,-1,1315,526,0,0
98,498,0,0,0,0,0,0,0,0,0,-1,1322,526,0,0
105,498,0,0,0,0,0,0,0,0,0,-1,1329,526,0,0
112,498,0,0,0,0,0,0,0,0,0,-1,1336,526,0,0
119,498,0,0,0,0,0,0,0,0,0,-1,1343,526,0,0
126,498,0,0,0,0,0,0,0,0,0,-1,1350,526,0,0
133,498,0,0,0,0,0,0,0,0,0,-1,1357,526,0,0
140,498,0,0,0,0,0,0,0,0,0,-1,1364,526,0,0
147,498,0,0,0,0,0,0,0,0,0,-1,1371,526,0,0
154,498,0,0,0,0,0,0,0,0,0,-1,1378,526,0,0
161,498,0,0,0,0,0,0,0,0,0,-1,1385,526,0,0
168,498,0,0,0,0,0,0,0,0,0,-1,1392,526,0,0
175,498,0,0,0,0,0,0,0,0,0,-1,1399,526,0,0
182,498,0,0,0,0,0,0,0,0,0,-1,1406,526,0,0
189,498,0,0,0,0,0,0,0,0,0,-1,1413,526,0,0
196,498,0,0,0,0,0,0,0,0,0,-1,1420,526,0,0
203,498,0,0,0,0,0,0,0,0,0,-1,1427,526,0,0
210,498,0,0,0,0,0,0,0,0,0,-1,1434,526,0,0
217,498,0,0,0,0,0,0,0,0,0,-1,1441,526,0,0
224,498,0,0,0,0,0,0,0,0,0,-1,1448,526,0,0
231,498,0,0,0,0,0,0,0,0,0,-1,1455,526,0,0
238,498,0,0,0,0,0,0,0,0,0,-1,1462,526,0,0
245,498,0,0,0,0,0,0,0,0,0,-1,1469,526,0,0
252,498,0,0,0,0,0,0,0,0,0,-1,1476,526,0,0
259,498,0,0,0,0,0,0,0,0,0,-1,1483,526,0,0
266,498,0,0,0,0,0,0,0,0,0,-1,1490,526,0,0
273,498,0,0,0,0,0,0,0,0,0,-1,1497,526,0,0
280,498,0,0,0,0,0,0,0,0,0,-1,1504,526,0,0
287,498,0,0,0,0,0,0,0,0,0,-1,1511,526,0,0
294,498,0,0,0,0,0,0,0,0,0,-1,1518,526,0,0
301,498,0,0,0,0,0,0,0,0,0,-1,1525,526,0,0
308,498,4.77942,-0.293884,0,0,0,0,0,0,0,-1,1532,526,4.77939,0.293899
315,498,4.56091,-0.564148,0,0,0,0,0,0,0,-1,1539,526,4.56097,0.564142
322,498,4.52344,-0.447266,0,0,0,0,0,0,0,-1,1546,526,4.52341,0.447295
329,498,4.63232,-0.156982,0,0,0,0,0,0,0,-1,1553,526,4.63238,0.156991
336,498,5.22644,0.0925903,0,0,0,0,0,0,0,-1,1560,526,5.22648,-0.0926188
343,498,6.22607,-1.67615,0,0,0,0,0,0,0,-1,1567,526,6.22605,1.67617
350,498,6.19373,-1.59906,0,0,0,0,0,0,0,-1,1574,526,6.19367,1.59906
357,498,6.21472,-1.58929,0,0,0,0,0,0,0,-1,1581,526,6.21476,1.58927
364,498,5.73547,-1.2019,0,0,0,0,0,0,0,-1,1588,526,5.73547,1.20192
371,498,3.27087,-4.55334,0,0,0,0,0,0,0,-1,1595,526,3.27089,4.55332
378,498,8.42944,-4.70624,0,0,0,0,0,0,0,-1,1602,526,8.42942,4.70624
385,498,4.7793,-5.15314,0,0,0,0,0,0,0,-1,1609,526,4.77935,5.15311
392,498,9.12439,-8.57953,0,0,0,0,0,0,0,-1,1616,526,9.12443,8.57955
399,498,7.98938,-9.46021,0,0,0,0,0,0,0,-1,1623,526,7.98936,9.4602
406,498,7.58081,-9.26819,0,0,0,0,0,0,0,-1,1630,526,7.58085,9.26817
413,498,7.17236,-9.07611,0,0,0,0,0,0,0,-1,1637,526,7.17234,9.07614
420,498,11.4314,-16.1147,0,0,0,0,0,0,0,-1,1644,526,11.4313,16.1147
427,498,13.1598,-21.9371,0,0,0,0,0,0,0,-1,1651,526,13.1598,21.9371
434,498,13.1798,-21.2684,0.00287645,0.00226251,0.000386128,0.00306276,0.0020762,0.449554,0.0018052,0.0390147,1658,526,13.1798,21.2684
441,498,13.2753,-20.6918,0.00239684,0.0018847,0.000219892,0.00247829,0.00180324,0.35477,0.00147944,0.0145265,1665,526,13.2752,20.6918
448,498,13.2814,-20.1247,0.00208968,0.00153095,0.000176705,0.00214087,0.00147976,0.281996,0.0012658,0.0109235,1672,526,13.2814,20.1247
455,498,13.256,-19.5858,0.00170198,0.00132878,0.000133883,0.00174504,0.00128572,0.311185,0.00104448,0.0141405,1679,526,13.256,19.5857
462,498,13.2699,-19.0518,0.00141591,0.00121534,0.000155228,0.00150043,0.00113082,0.498604,0.000902667,0.0166787,1686,526,13.2699,19.0518
469,498,13.2688,-18.4999,0.00125827,0.00116979,0.000385635,0.0016022,0.000825865,0.728283,0.000925175,0.0146478,1693,526,13.2688,18.4999
476,498,13.2365,-17.9359,0.000962381,0.0012159,0.000766792,0.00186634,0.00031194,0.867311,0.00115438,0.0104149,1700,526,13.2364,17.9359
483,498,13.2076,-17.3639,0.000521601,0.00127556,0.00123334,0.00218825,-0.000391087,0.933718,0.00160515,0.00883674,1707,526,13.2077,17.3639
490,498,13.183,-16.8031,-0.000125328,0.00139197,0.00174262,0.00253392,-0.00126728,0.9907,0.00223487,0.0109462,1714,526,13.183,16.8031
497,498,13.1725,-16.2189,-0.000913978,0.00155045,0.0023601,0.00298064,-0.00234417,1.02598,0.0030816,0.0121996,1721,526,13.1725,16.2188
504,498,13.1395,-15.6157,-0.00188431,0.00170532,0.00303084,0.00343291,-0.0036119,1.05272,0.00406776,0.0144781,1728,526,13.1396,15.6157
511,498,13.1122,-15.0327,-0.00314315,0.00187968,0.00368932,0.00383125,-0.00509472,1.08423,0.0051706,0.0163591,1735,526,13.1122,15.0326
518,498,13.1481,-14.4443,-0.00465668,0.00206153,0.00425173,0.00412099,-0.00671614,1.11972,0.00631633,0.0172815,1742,526,13.1481,14.4443
525,498,13.0455,-13.8538,-0.00644657,0.00217776,0.00471551,0.00425549,-0.0085243,1.15577,0.00751437,0.0255665,1749,526,13.0456,13.8538
532,498,12.8773,-13.2832,-0.00845245,0.00230234,0.00506522,0.00431229,-0.0104624,1.19304,0.00877305,0.0446837,1756,526,12.8773,13.2832
539,498,12.906,-12.7015,0,0,0,0,0,0,0,-1,1763,526,12.906,12.7015
546,498,10.2014,-8.47589,0,0,0,0,0,0,0,-1,1770,526,10.2014,8.47589
553,498,5.93958,-1.71448,0,0,0,0,0,0,0,-1,1777,526,5.93956,1.71447
560,498,3.69385,-0.615112,0,0,0,0,0,0,0,-1,1784,526,3.69381,0.615118
567,498,5.12695,-0.581604,0,0,0,0,0,0,0,-1,1791,526,5.12699,0.58159
574,498,3.88,0.0286255,0,0,0,0,0,0,0,-1,1798,526,3.87999,-0.0286535
581,498,10.8722,2.58551,0,0,0,0,0,0,0,-1,1805,526,10.8723,-2.58551
588,498,0,0,0,0,0,0,0,0,0,-1,1812,526,0,0
595,498,0,0,0,0,0,0,0,0,0,-1,1819,526,0,0
602,498,0,0,0,0,0,0,0,0,0,-1,1826,526,0,0
609,498,0,0,0,0,0,0,0,0,0,-1,1833,526,0,0
616,498,0,0,0,0,0,0,0,0,0,-1,1840,526,0,0
623,498,0,0,0,0,0,0,0,0,0,-1,1847,526,0,0
630,498,0,0,0,0,0,0,0,0,0,-1,1854,526,0,0
637,498,0,0,0,0,0,0,0,0,0,-1,1861,526,0,0
644,498,0,0,0,0,0,0,0,0,0,-1,1868,526,0,0
651,498,0,0,0,0,0,0,0,0,0,-1,1875,526,0,0
658,498,0,0,0,0,0,0,0,0,0,-1,1882,526,0,0
665,498,0,0,0,0,0,0,0,0,0,-1,1889,526,0,0
672,498,0,0,0,0,0,0,0,0,0,-1,1896,526,0,0
679,498,0,0,0,0,0,0,0,0,0,-1,1903,526,0,0
686,498,0,0,0,0,0,0,0,0,0,-1,1910,526,0,0
693,498,0,0,0,0,0,0,0,0,0,-1,1917,526,0,0
700,498,0,0,0,0,0,0,0,0,0,-1,1924,526,0,0
707,498,0,0,0,0,0,0,0,0,0,-1,1931,526,0,0
714,498,0,0,0,0,0,0,0,0,0,-1,1938,526,0,0
721,498,0,0,0,0,0,0,0,0,0,-1,1945,526,0,0
728,498,0,0,0,0,0,0,0,0,0,-1,1952,526,0,0
735,498,0,0,0,0,0,0,0,0,0,-1,1959,526,0,0
742,498,0,0,0,0,0,0,0,0,0,-1,1966,526,0,0
749,498,0,0,0,0,0,0,0,0,0,-1,1973,526,0,0
756,498,0,0,0,0,0,0,0,0,0,-1,1980,526,0,0
763,498,0,0,0,0,0,0,0,0,0,-1,1987,526,0,0
770,498,0,0,0,0,0,0,0,0,0,-1,1994,526,0,0
777,498,0,0,0,0,0,0,0,0,0,-1,2001,526,0,0
784,498,0,0,0,0,0,0,0,0,0,-1,2008,526,0,0
791,498,0,0,0,0,0,0,0,0,0,-1,2015,526,0,0
798,498,0,0,0,0,0,0,0,0,0,-1,2022,526,0,0
805,498,0,0,0,0,0,0,0,0,0,-1,2029,526,0,0
812,498,0,0,0,0,0,0,0,0,0,-1,2036,526,0,0
-700,491,0,0,0,0,0,0,0,0,0,-1,524,533,0,0
-693,491,0,0,0,0,0,0,0,0,0,-1,531,533,0,0
-686,491,0,0,0,0,0,0,0,0,0,-1,538,533,0,0
-679,491,0,0,0,0,0,0,0,0,0,-1,545,533,0,0
-672,491,0,0,0,0,0,0,0,0,0,-1,552,533,0,0
-665,491,0,0,0,0,0,0,0,0,0,-1,559,533,0,0
-658,491,0,0,0,0,0,0,0,0,0,-1,566,533,0,0
-651,491,0,0,0,0,0,0,0,0,0,-1,573,533,0,0
-644,491,0,0,0,0,0,0,0,0,0,-1,580,533,0,0
-637,491,0,0,0,0,0,0,0,0,0,-1,587,533,0,0
-630,491,0,0,0,0,0,0,0,0,0,-1,594,533,0,0
-623,491,0,0,0,0,0,0,0,0,0,-1,601,533,0,0
-616,491,0,0,0,0,0,0,0,0,0,-1,608,533,0,0
-609,491,0,0,0,0,0,0,0,0,0,-1,615,533,0,0
-602,491,0,0,0,0,0,0,0,0,0,-1,622,533,0,0
-595,491,0,0,0,0,0,0,0,0,0,-1,629,533,0,0
-588,491,0,0,0,0,0,0,0,0,0,-1,636,533,0,0
-581,491,0,0,0,0,0,0,0,0,0,-1,643,533,0,0
-574,491,0,0,0,0,0,0,0,0,0,-1,650,533,0,0
-567,491,0,0,0,0,0,0,0,0,0,-1,657,533,0,0
-560,491,0,0,0,0,0,0,0,0,0,-1,664,533,0,0
-553,491,0,0,0,0,0,0,0,0,0,-1,671,533,0,0
-546,491,0,0,0,0,0,0,0,0,0,-1,678,533,0,0
-539,491,0,0,0,0,0,0,0,0,0,-1,685,533,0,0
-532,491,0,0,0,0,0,0,0,0,0,-1,692,533,0,0
-525,491,0,0,0,0,0,0,0,0,0,-1,699,533,0,0
-518,491,0,0,0,0,0,0,0,0,0,-1,706,533,0,0
-511,491,0,0,0,0,0,0,0,0,0,-1,713,533,0,0
-504,491,0,0,0,0,0,0,0,0,0,-1,720,533,0,0
-497,491,0,0,0,0,0,0,0,0,0,-1,727,533,0,0
-490,491,0,0,0,0,0,0,0,0,0,-1,734,533,0,0
-483,491,0,0,0,0,0,0,0,0,0,-1,741,533,0,0
-476,491,0,0,0,0,0,0,0,0,0,-1,748,533,0,0
-469,491,-5.85913,4.55011,0,0,0,0,0,0,0,-1,755,533,-5.8591,-4.55009
-462,491,-9.93713,4.90381,0,0,0,0,0,0,0,-1,762,533,-9.93716,-4.9038
-455,491,1.9494,-0.27887,0,0,0,0,0,0,0,-1,769,533,1.94941,0.27885
-448,491,2.68909,-1.8999,0,0,0,0,0,0,0,-1,776,533,2.6891,1.89988
-441,491,3.46069,-3.51855,0,0,0,0,0,0,0,-1,783,533,3.46071,3.51854
-434,491,2.67145,-7.44061,0,0,0,0,0,0,0,-1,790,533,2.67146,7.44061
-427,491,2.27136,-8.34546,0,0,0,0,0,0,0,-1,797,533,2.27136,8.34546
-420,491,-1.52142,-8.1123,0,0,0,0,0,0,0,-1,804,533,-1.52142,8.11228
-413,491,-3.37555,-14.095,0,0,0,0,0,0,0,-1,811,533,-3.37555,14.095
-406,491,-3.40039,-14.6422,0.0030009,0.0164369,-0.00880409,0.0207933,-0.00135556,-1.1113,0.0143355,0.0261646,818,533,-3.40038,14.6421
-399,491,-3.38593,-15.2491,0.00277461,0.0136396,-0.0077416,0.0176646,-0.0012504,-1.09134,0.0122145,0.0119845,825,533,-3.38591,15.2491
-392,491,-3.43781,-15.8212,0.00253607,0.0110095,-0.00659289,0.0146096,-0.00106405,-1.07098,0.0101131,0.0111031,832,533,-3.4378,15.8212
-385,491,-3.4527,-16.3694,0.00236267,0.00861184,-0.00542949,0.0117516,-0.000777116,-1.0465,0.00810588,0.0104101,839,533,-3.45271,16.3694
-378,491,-3.45209,-16.9226,0.00225042,0.00654005,-0.00437136,0.00926442,-0.000473963,-1.01347,0.00634018,0.0138555,846,533,-3.45209,16.9226
-371,491,-3.46912,-17.4818,0.00206604,0.00453926,-0.00331579,0.00684153,-0.000236227,-0.963883,0.00464177,0.013909,853,533,-3.46911,17.4818
-364,491,-3.50562,-18.044,0.00187623,0.00266573,-0.00226404,0.00456918,-2.72184e-05,-0.871708,0.00305523,0.013401,860,533,-3.50559,18.044
-357,491,-3.51099,-18.5907,0.00183423,0.00116227,-0.0013589,0.00289807,9.84294e-05,-0.664207,0.00190009,0.0119,867,533,-3.51099,18.5907
-350,491,-3.53021,-19.1424,0.00191284,-0.000152257,-0.000608557,0.00207883,-0.000318248,-0.266284,0.00150324,0.0150059,874,533,-3.53021,19.1424
-343,491,-3.53076,-19.6827,0.00200082,-0.00147215,0.00011272,0.00200447,-0.00147581,0.0324108,0.00201705,0.0239038,881,533,-3.53075,19.6827
-336,491,-3.53412,-20.1824,0.00223478,-0.00260155,0.00069759,0.00233339,-0.00270016,0.140427,0.00290869,0.0242095,888,533,-3.5341,20.1824
-329,491,-3.58551,-20.6765,0.00264243,-0.00351915,0.00115153,0.00285061,-0.00372732,0.17885,0.003809,0.0246905,895,533,-3.58549,20.6765
-322,491,-3.61102,-21.1898,0.00309635,-0.00433967,0.00158305,0.00341934,-0.00466266,0.201265,0.00468451,0.0223276,902,533,-3.61102,21.1898
-315,491,-3.63477,-21.6927,0.00356649,-0.00508293,0.00197939,0.00399794,-0.00551439,0.214616,0.00551516,0.0206321,909,533,-3.63474,21.6927
-308,491,-3.57068,-22.3758,0,0,0,0,0,0,0,-1,916,533,-3.57069,22.3758
-301,491,-3.50671,-23.1712,0,0,0,0,0,0,0,-1,923,533,-3.50674,23.1712
-294,491,-0.777283,-8.60913,0,0,0,0,0,0,0,-1,930,533,-0.777288,8.6091
-287,491,-0.26123,-8.69055,0,0,0,0,0,0,0,-1,937,533,-0.261204,8.69053
-280,491,0.2948,-5.99219,0,0,0,0,0,0,0,-1,944,533,0.294811,5.99221
-273,491,0.369995,-5.33691,0,0,0,0,0,0,0,-1,951,533,0.369985,5.33693
-266,491,1.1167,-5.0321,0,0,0,0,0,0,0,-1,958,533,1.11668,5.0321
-259,491,12.0862,-16.9615,0,0,0,0,0,0,0,-1,965,533,12.0862,16.9615
-252,491,9.72443,-13.8417,0,0,0,0,0,0,0,-1,972,533,9.72444,13.8418
-245,491,5.27258,-14.3619,0,0,0,0,0,0,0,-1,979,533,5.27255,14.3619
-238,491,3.65381,-11.1472,0,0,0,0,0,0,0,-1,986,533,3.6538,11.1472
-231,491,2.17719,-7.86835,0,0,0,0,0,0,0,-1,993,533,2.17719,7.86832
-224,491,0.554626,-4.61725,0,0,0,0,0,0,0,-1,1000,533,0.554608,4.61727
-217,491,-2.92743,-1.0766,0,0,0,0,0,0,0,-1,1007,533,-2.92743,1.07659
-210,491,-0.92395,0.374512,0,0,0,0,0,0,0,-1,1014,533,-0.923959,-0.374531
-203,491,0.417419,4.77161,0,0,0,0,0,0,0,-1,1021,533,0.417446,-4.77162
-196,491,0,0,0,0,0,0,0,0,0,-1,1028,533,0,0
-189,491,0,0,0,0,0,0,0,0,0,-1,1035,533,0,0
-182,491,0,0,0,0,0,0,0,0,0,-1,1042,533,0,0
-175,491,0,0,0,0,0,0,0,0,0,-1,1049,533,0,0
-168,491,0,0,0,0,0,0,0,0,0,-1,1056,533,0,0
-161,491,0,0,0,0,0,0,0,0,0,-1,1063,533,0,0
-154,491,0,0,0,0,0,0,0,0,0,-1,1070,533,0,0
-147,491,0,0,0,0,0,0,0,0,0,-1,1077,533,0,0
-140,491,0,0,0,0,0,0,0,0,0,-1,1084,533,0,0
-133,491,0,0,0,0,0,0,0,0,0,-1,1091,533,0,0
-126,491,0,0,0,0,0,0,0,0,0,-1,1098,533,0,0
-119,491,0,0,0,0,0,0,0,0,0,-1,1105,533,0,0
-112,491,0,0,0,0,0,0,0,0,0,-1,1112,533,0,0
-105,491,0,0,0,0,0,0,0,0,0,-1,1119,533,0,0
-98,491,0,0,0,0,0,0,0,0,0,-1,1126,533,0,0
-91,491,0,0,0,0,0,0,0,0,0,-1,1133,533,0,0
-84,491,0,0,0,0,0,0,0,0,0,-1,1140,533,0,0
-77,491,0,0,0,0,0,0,0,0,0,-1,1147,533,0,0
-70,491,0,0,0,0,0,0,0,0,0,-1,1154,533,0,0
-63,491,0,0,0,0,0,0,0,0,0,-1,1161,533,0,0
-56,491,0,0,0,0,0,0,0,0,0,-1,1168,533,0,0
-49,491,0,0,0,0,0,0,0,0,0,-1,1175,533,0,0
-42,491,0,0,0,0,0,0,0,0,0,-1,1182,533,0,0
-35,491,0,0,0,0,0,0,0,0,0,-1,1189,533,0,0
-28,491,0,0,0,0,0,0,0,0,0,-1,1196,533,0,0
-21,491,0,0,0,0,0,0,0,0,0,-1,1203,533,0,0
-14,491,0,0,0,0,0,0,0,0,0,-1,1210,533,0,0
-7,491,0,0,0,0,0,0,0,0,0,-1,1217,533,0,0
0,491,0,0,0,0,0,0,0,0,0,-1,1224,533,0,0
7,491,0,0,0,0,0,0,0,0,0,-1,1231,533,0,0
14,491,0,0,0,0,0,0,0,0,0,-1,1238,533,0,0
21,491,0,0,0,0,0,0,0,0,0,-1,1245,533,0,0
28,491,0,0,0,0,0,0,0,0,0,-1,1252,533,0,0
35,491,0,0,0,0,0,0,0,0,0,-1,1259,533,0,0
42,491,0,0,0,0,0,0,0,0,0,-1,1266,533,0,0
49,491,0,0,0,0,0,0,0,0,0,-1,1273,533,0,0
56,491,0,0,0,0,0,0,0,0,0,-1,1280,533,0,0
63,491,0,0,0,0,0,0,0,0,0,-1,1287,533,0,0
70,491,0,0,0,0,0,0,0,0,0,-1,1294,533,0,0
77,491,0,0,0,0,0,0,0,0,0,-1,1301,533,0,0
84,491,0,0,0,0,0,0,0,0,0,-1,1308,533,0,0
91,491,0,0,0,0,0,0,0,0,0,-1,1315,533,0,0
98,491,0,0,0,0,0,0,0,0,0,-1,1322,533,0,0
105,491,0,0,0,0,0,0,0,0,0,-1,1329,533,0,0
112,491,0,0,0,0,0,0,0,0,0,-1,1336,533,0,0
119,491,0,0,0,0,0,0,0,0,0,-1,1343,533,0,0
126,491,0,0,0,0,0,0,0,0,0,-1,1350,533,0,0
133,491,0,0,0,0,0,0,0,0,0,-1,1357,533,0,0
140,491,0,0,0,0,0,0,0,0,0,-1,1364,533,0,0
147,491,0,0,0,0,0,0,0,0,0,-1,1371,533,0,0
154,491,0,0,0,0,0,0,0,0,0,-1,1378,533,0,0
161,491,0,0,0,0,0,0,0,0,0,-1,1385,533,0,0
168,491,0,0,0,0,0,0,0,0,0,-1,1392,533,0,0
175,491,0,0,0,0,0,0,0,0,0,-1,1399,533,0,0
182,491,0,0,0,0,0,0,0,0,0,-1,1406,533,0,0
189,491,0,0,0,0,0,0,0,0,0,-1,1413,533,0,0
196,491,0,0,0,0,0,0,0,0,0,-1,1420,533,0,0
203,491,0,0,0,0,0,0,0,0,0,-1,1427,533,0,0
210,491,0,0,0,0,0,0,0,0,0,-1,1434,533,0,0
217,491,0,0,0,0,0,0,0,0,0,-1,1441,533,0,0
224,491,0,0,0,0,0,0,0,0,0,-1,1448,533,0,0
231,491,0,0,0,0,0,0,0,0,0,-1,1455,533,0,0
238,491,0,0,0,0,0,0,0,0,0,-1,1462,533,0,0
245,491,0,0,0,0,0,0,0,0,0,-1,1469,533,0,0
252,491,0,0,0,0,0,0,0,0,0,-1,1476,533,0,0
259,491,0,0,0,0,0,0,0,0,0,-1,1483,533,0,0
266,491,0,0,0,0,0,0,0,0,0,-1,1490,533,0,0
273,491,0,0,0,0,0,0,0,0,0,-1,1497,533,0,0
280,491,0,0,0,0,0,0,0,0,0,-1,1504,533,0,0
287,491,0,0,0,0,0,0,0,0,0,-1,1511,533,0,0
294,491,0,0,0,0,0,0,0,0,0,-1,1518,533,0,0
301,491,0,0,0,0,0,0,0,0,0,-1,1525,533,0,0
308,491,0,0,0,0,0,0,0,0,0,-1,1532,533,0,0
315,491,0,0,0,0,0,0,0,0,0,-1,1539,533,0,0
322,491,4.26331,-0.734314,0,0,0,0,0,0,0,-1,1546,533,4.26326,0.734324
329,491,4.25354,-0.783752,0,0,0,0,0,0,0,-1,1553,533,4.25359,0.783734
336,491,4.81604,-0.722107,0,0,0,0,0,0,0,-1,1560,533,4.81605,0.722115
343,491,6.14478,-1.44281,0,0,0,0,0,0,0,-1,1567,533,6.14474,1.44281
350,491,6.36353,-1.30792,0,0,0,0,0,0,0,-1,1574,533,6.36352,1.3079
357,491,6.69482,-1.06018,0,0,0,0,0,0,0,-1,1581,533,6.69489,1.06018
364,491,8.01086,-1.69604,0,0,0,0,0,0,0,-1,1588,533,8.01087,1.69607
371,491,8.2135,-0.539307,0,0,0,0,0,0,0,-1,1595,533,8.21348,0.53929
378,491,13.3589,2.17267,0,0,0,0,0,0,0,-1,1602,533,13.3589,-2.17264
385,491,8.08228,-4.95471,0,0,0,0,0,0,0,-1,1609,533,8.08227,4.95474
392,491,2.88721,-4.30988,0,0,0,0,0,0,0,-1,1616,533,2.88716,4.30986
399,491,8.95862,-8.55518,0,0,0,0,0,0,0,-1,1623,533,8.95864,8.55516
406,491,8.16541,-9.00806,0,0,0,0,0,0,0,-1,1630,533,8.16535,9.00807
413,491,5.31848,-3.7124,0,0,0,0,0,0,0,-1,1637,533,5.31849,3.7124
420,491,4.86389,-3.95892,0,0,0,0,0,0,0,-1,1644,533,4.86387,3.95893
427,491,11.5096,-15.2742,0,0,0,0,0,0,0,-1,1651,533,11.5096,15.2742
434,491,13.6865,-21.2587,0,0,0,0,0,0,0,-1,1658,533,13.6865,21.2587
441,491,13.7606,-20.7437,0,0,0,0,0,0,0,-1,1665,533,13.7606,20.7437
448,491,13.8062,-20.1369,0.00229621,0.00165059,5.50802e-06,0.00229625,0.00165055,0.00853064,0.0013674,0.0343422,1672,533,13.8061,20.1369
455,491,13.8114,-19.5734,0.00177638,0.00137731,-0.00018559,0.00184935,0.00130434,-0.374599,0.00109731,0.0179511,1679,533,13.8114,19.5734
462,491,13.8546,-19.0428,0.00142599,0.00120413,-0.000284029,0.00161999,0.00101014,-0.599228,0.000944769,0.0160442,1686,533,13.8546,19.0428
469,491,13.825,-18.5117,0.00130756,0.0010954,-0.000160058,0.0013935,0.00100946,-0.492751,0.000831111,0.0154993,1693,533,13.8249,18.5117
476,491,13.8014,-17.9213,0.00116135,0.00106537,0.000103737,0.00122766,0.000999063,0.568756,0.000753884,0.0106883,1700,533,13.8013,17.9213
483,491,13.7732,-17.319,0.000793761,0.00108736,0.000511416,0.00147263,0.000408492,0.925162,0.000877861,0.0123399,1707,533,13.7732,17.319
490,491,13.7516,-16.7892,0.000232052,0.00119969,0.000928503,0.00176287,-0.000331122,1.02558,0.00129976,0.0108255,1714,533,13.7515,16.7892
497,491,13.7281,-16.2122,-0.0004307,0.00132615,0.00143691,0.00213187,-0.00123641,1.05975,0.00196745,0.0114431,1721,533,13.7282,16.2122
504,491,13.7163,-15.6041,-0.00122073,0.00144063,0.00197897,0.0024947,-0.0022748,1.08138,0.00275465,0.01286,1728,533,13.7163,15.6041
511,491,13.676,-15.02,-0.00225147,0.00157619,0.0024984,0.00280954,-0.00348482,1.11224,0.00364102,0.0122501,1735,533,13.676,15.0199
518,491,13.6752,-14.4561,-0.00347724,0.00171371,0.00290785,0.00301594,-0.00477947,1.14975,0.00453891,0.0100535,1742,533,13.6751,14.4561
525,491,13.6873,-13.8642,-0.00485448,0.00180138,0.00323266,0.00311297,-0.00616608,1.18536,0.00545307,0.0102784,1749,533,13.6872,13.8642
532,491,13.6595,-13.2609,-0.00633975,0.00193484,0.0034764,0.00320148,-0.0076064,1.22139,0.00641036,0.022713,1756,533,13.6595,13.2609
539,491,13.5159,-12.7525,-0.00791386,0.00217828,0.00358025,0.00331937,-0.00905495,1.26226,0.00739571,0.0401176,1763,533,13.5159,12.7525
546,491,13.2592,-12.0171,0,0,0,0,0,0,0,-1,1770,533,13.2591,12.0171
553,491,10.5021,-7.77869,0,0,0,0,0,0,0,-1,1777,533,10.502,7.77871
560,491,6.28455,-1.43585,0,0,0,0,0,0,0,-1,1784,533,6.28458,1.43586
567,491,5.67651,-1.3562,0,0,0,0,0,0,0,-1,1791,533,5.67649,1.3562
574,491,8.0719,1.58325,0,0,0,0,0,0,0,-1,1798,533,8.07195,-1.58326
581,491,9.44812,1.60931,0,0,0,0,0,0,0,-1,1805,533,9.44808,-1.60933
588,491,11.0497,1.54962,0,0,0,0,0,0,0,-1,1812,533,11.0496,-1.54963
595,491,0,0,0,0,0,0,0,0,0,-1,1819,533,0,0
602,491,0,0,0,0,0,0,0,0,0,-1,1826,533,0,0
609,491,0,0,0,0,0,0,0,0,0,-1,1833,533,0,0
616,491,0,0,0,0,0,0,0,0,0,-1,1840,533,0,0
623,491,0,0,0,0,0,0,0,0,0,-1,1847,533,0,0
630,491,0,0,0,0,0,0,0,0,0,-1,1854,533,0,0
637,491,0,0,0,0,0,0,0,0,0,-1,1861,533,0,0
644,491,0,0,0,0,0,0,0,0,0,-1,1868,533,0,0
651,491,0,0,0,0,0,0,0,0,0,-1,1875,533,0,0
658,491,0,0,0,0,0,0,0,0,0,-1,1882,533,0,0
665,491,0,0,0,0,0,0,0,0,0,-1,1889,533,0,0
672,491,0,0,0,0,0,0,0,0,0,-1,1896,533,0,0
679,491,0,0,0,0,0,0,0,0,0,-1,1903,533,0,0
686,491,0,0,0,0,0,0,0,0,0,-1,1910,533,0,0
693,491,0,0,0,0,0,0,0,0,0,-1,1917,533,0,0
700,491,0,0,0,0,0,0,0,0,0,-1,1924,533,0,0
707,491,0,0,0,0,0,0,0,0,0,-1,1931,533,0,0
714,491,0,0,0,0,0,0,0,0,0,-1,1938,533,0,0
721,491,0,0,0,0,0,0,0,0,0,-1,1945,533,0,0
728,491,0,0,0,0,0,0,0,0,0,-1,1952,533,0,0
735,491,0,0,0,0,0,0,0,0,0,-1,1959,533,0,0
742,491,0,0,0,0,0,0,0,0,0,-1,1966,533,0,0
749,491,0,0,0,0,0,0,0,0,0,-1,1973,533,0,0
756,491,0,0,0,0,0,0,0,0,0,-1,1980,533,0,0
763,491,0,0,0,0,0,0,0,0,0,-1,1987,533,0,0
770,491,0,0,0,0,0,0,0,0,0,-1,1994,533,0,0
777,491,0,0,0,0,0,0,0,0,0,-1,2001,533,0,0
784,491,0,0,0,0,0,0,0,0,0,-1,2008,533,0,0
791,491,0,0,0,0,0,0,0,0,0,-1,2015,533,0,0
798,491,0,0,0,0,0,0,0,0,0,-1,2022,533,0,0
805,491,0,0,0,0,0,0,0,0,0,-1,2029,533,0,0
812,491,0,0,0,0,0,0,0,0,0,-1,2036,533,0,0
-700,484,0,0,0,0,0,0,0,0,0,-1,524,540,0,0
-693,484,0,0,0,0,0,0,0,0,0,-1,531,540,0,0
-686,484,0,0,0,0,0,0,0,0,0,-1,538,540,0,0
-679,484,0,0,0,0,0,0,0,0,0,-1,545,540,0,0
-672,484,0,0,0,0,0,0,0,0,0,-1,552,540,0,0
-665,484,0,0,0,0,0,0,0,0,0,-1,559,540,0,0
-658,484,0,0,0,0,0,0,0,0,0,-1,566,540,0,0
-651,484,0,0,0,0,0,0,0,0,0,-1,573,540,0,0
-644,484,0,0,0,0,0,0,0,0,0,-1,580,540,0,0
-637,484,0,0,0,0,0,0,0,0,0,-1,587,540,0,0
-630,484,0,0,0,0,0,0,0,0,0,-1,594,540,0,0
-623,484,0,0,0,0,0,0,0,0,0,-1,601,540,0,0
-616,484,0,0,0,0,0,0,0,0,0,-1,608,540,0,0
-609,484,0,0,0,0,0,0,0,0,0,-1,615,540,0,0
-602,484,0,0,0,0,0,0,0,0,0,-1,622,540,0,0
-595,484,0,0,0,0,0,0,0,0,0,-1,629,540,0,0
-588,484,0,0,0,0,0,0,0,0,0,-1,636,540,0,0
-581,484,0,0,0,0,0,0,0,0,0,-1,643,540,0,0
-574,484,0,0,0,0,0,0,0,0,0,-1,650,540,0,0
-567,484,0,0,0,0,0,0,0,0,0,-1,657,540,0,0
-560,484,0,0,0,0,0,0,0,0,0,-1,664,540,0,0
-553,484,0,0,0,0,0,0,0,0,0,-1,671,540,0,0
-546,484,0,0,0,0,0,0,0,0,0,-1,678,540,0,0
-539,484,0,0,0,0,0,0,0,0,0,-1,685,540,0,0
-532,484,0,0,0,0,0,0,0,0,0,-1,692,540,0,0
-525,484,0,0,0,0,0,0,0,0,0,-1,699,540,0,0
-518,484,0,0,0,0,0,0,0,0,0,-1,706,540,0,0
-511,484,0,0,0,0,0,0,0,0,0,-1,713,540,0,0
-504,484,0,0,0,0,0,0,0,0,0,-1,720,540,0,0
-497,484,0,0,0,0,0,0,0,0,0,-1,727,540,0,0
-490,484,0,0,0,0,0,0,0,0,0,-1,734,540,0,0
-483,484,0,0,0,0,0,0,0,0,0,-1,741,540,0,0
-476,484,-8.46552,1.44702,0,0,0,0,0,0,0,-1,748,540,-8.46554,-1.44702
-469,484,-7.82343,1.70355,0,0,0,0,0,0,0,-1,755,540,-7.82345,-1.70355
-462,484,-8.36987,3.08612,0,0,0,0,0,0,0,-1,762,540,-8.36988,-3.0861
-455,484,-6.77197,2.07092,0,0,0,0,0,0,0,-1,769,540,-6.77197,-2.07094
-448,484,3.54895,-1.40106,0,0,0,0,0,0,0,-1,776,540,3.54897,1.40106
-441,484,4.28906,-3.05884,0,0,0,0,0,0,0,-1,783,540,4.28905,3.05883
-434,484,-2.17548,-5.07245,0,0,0,0,0,0,0,-1,790,540,-2.17546,5.07243
-427,484,-3.80286,-12.3263,0,0,0,0,0,0,0,-1,797,540,-3.80287,12.3263
-420,484,-3.73944,-13.2233,0,0,0,0,0,0,0,-1,804,540,-3.73945,13.2233
-413,484,-3.78052,-13.9445,0.00159884,0.0146728,-0.00696071,0.0176849,-0.00141318,-1.16241,0.0122881,0.0313915,811,540,-3.7805,13.9444
-406,484,-3.87231,-14.623,0.0018677,0.0124321,-0.00642722,0.0154692,-0.00116939,-1.12936,0.0107239,0.0161592,818,540,-3.87233,14.6231
-399,484,-3.95123,-15.2256,0.00187169,0.0101598,-0.00562541,0.0130028,-0.000971271,-1.10286,0.00900974,0.0166587,825,540,-3.95124,15.2256
-392,484,-3.98822,-15.7913,0.00185173,0.00795442,-0.00472637,0.0105288,-0.000722693,-1.07204,0.00727211,0.0194864,832,540,-3.98823,15.7913
-385,484,-4.00842,-16.3593,0.0018763,0.00593022,-0.00380432,0.00821388,-0.000407351,-1.03017,0.00561663,0.0141706,839,540,-4.00844,16.3593
-378,484,-4.0166,-16.9129,0.00192677,0.00414904,-0.00293992,0.00618079,-0.000104983,-0.966074,0.00415596,0.0146686,846,540,-4.01659,16.9129
-371,484,-4.0202,-17.4601,0.0018998,0.00241002,-0.0020532,0.0042239,8.59229e-05,-0.847206,0.00278773,0.0153809,853,540,-4.02018,17.4601
-364,484,-4.0459,-18.0057,0.00186537,0.000796068,-0.00117061,0.00261765,4.37965e-05,-0.57118,0.00173068,0.0111852,860,540,-4.04593,18.0057
-357,484,-4.07208,-18.541,0.00197026,-0.000475052,-0.000429499,0.0020435,-0.000548297,-0.168909,0.00157719,0.0125915,867,540,-4.07211,18.541
-350,484,-4.08936,-19.0928,0.00220945,-0.00150566,0.00013649,0.00221446,-0.00151067,0.0366731,0.00216346,0.0150268,874,540,-4.08938,19.0928
-343,484,-4.07098,-19.6533,0.00249742,-0.00249328,0.000622245,0.00257383,-0.00256969,0.122189,0.00296961,0.0231401,881,540,-4.07096,19.6533
-336,484,-4.0744,-20.1586,0.00288636,-0.00342484,0.0010362,0.00305213,-0.00359062,0.158637,0.00383939,0.0266969,888,540,-4.07438,20.1585
-329,484,-4.10785,-20.6035,0.00344084,-0.00410657,0.00132809,0.00366772,-0.00433345,0.169198,0.00462481,0.0377548,895,540,-4.10785,20.6034
-322,484,-4.08423,-21.1464,0,0,0,0,0,0,0,-1,902,540,-4.0842,21.1464
-315,484,-3.97974,-21.7349,0,0,0,0,0,0,0,-1,909,540,-3.97975,21.7348
-308,484,-1.32623,-8.9317,0,0,0,0,0,0,0,-1,916,540,-1.32626,8.93173
-301,484,-1.33453,-6.52667,0,0,0,0,0,0,0,-1,923,540,-1.33454,6.5267
-294,484,-1.61224,-8.17059,0,0,0,0,0,0,0,-1,930,540,-1.61227,8.17058
-287,484,-0.715759,-5.62103,0,0,0,0,0,0,0,-1,937,540,-0.715772,5.62105
-280,484,2.66742,-1.6795,0,0,0,0,0,0,0,-1,944,540,2.6674,1.67949
-273,484,2.53125,-2.22296,0,0,0,0,0,0,0,-1,951,540,2.53128,2.22295
-266,484,2.6778,-2.72058,0,0,0,0,0,0,0,-1,958,540,2.6778,2.72061
-259,484,2.41718,-2.59894,0,0,0,0,0,0,0,-1,965,540,2.41717,2.59892
-252,484,10.6069,-11.696,0,0,0,0,0,0,0,-1,972,540,10.6069,11.696
-245,484,6.34106,-11.6107,0,0,0,0,0,0,0,-1,979,540,6.34104,11.6107
-238,484,4.89319,-8.54059,0,0,0,0,0,0,0,-1,986,540,4.89321,8.5406
-231,484,3.47675,-5.22064,0,0,0,0,0,0,0,-1,993,540,3.47676,5.22067
-224,484,1.71344,-2.03473,0,0,0,0,0,0,0,-1,1000,540,1.71342,2.03472
-217,484,-0.745056,1.17358,0,0,0,0,0,0,0,-1,1007,540,-0.745043,-1.17359
-210,484,0,0,0,0,0,0,0,0,0,-1,1014,540,0,0
-203,484,0,0,0,0,0,0,0,0,0,-1,1021,540,0,0
-196,484,0,0,0,0,0,0,0,0,0,-1,1028,540,0,0
-189,484,0,0,0,0,0,0,0,0,0,-1,1035,540,0,0
-182,484,0,0,0,0,0,0,0,0,0,-1,1042,540,0,0
-175,484,0,0,0,0,0,0,0,0,0,-1,1049,540,0,0
-168,484,0,0,0,0,0,0,0,0,0,-1,1056,540,0,0
-161,484,0,0,0,0,0,0,0,0,0,-1,1063,540,0,0
-154,484,0,0,0,0,0,0,0,0,0,-1,1070,540,0,0
-147,484,0,0,0,0,0,0,0,0,0,-1,1077,540,0,0
-140,484,0,0,0,0,0,0,0,0,0,-1,1084,540,0,0
-133,484,0,0,0,0,0,0,0,0,0,-1,1091,540,0,0
-126,484,0,0,0,0,0,0,0,0,0,-1,1098,540,0,0
-119,484,0,0,0,0,0,0,0,0,0,-1,1105,540,0,0
-112,484,0,0,0,0,0,0,0,0,0,-1,1112,540,0,0
-105,484,0,0,0,0,0,0,0,0,0,-1,1119,540,0,0
-98,484,0,0,0,0,0,0,0,0,0,-1,1126,540,0,0
-91,484,0,0,0,0,0,0,0,0,0,-1,1133,540,0,0
-84,484,0,0,0,0,0,0,0,0,0,-1,1140,540,0,0
-77,484,0,0,0,0,0,0,0,0,0,-1,1147,540,0,0
-70,484,0,0,0,0,0,0,0,0,0,-1,1154,540,0,0
-63,484,0,0,0,0,0,0,0,0,0,-1,1161,540,0,0
-56,484,0,0,0,0,0,0,0,0,0,-1,1168,540,0,0
-49,484,0,0,0,0,0,0,0,0,0,-1,1175,540,0,0
-42,484,0,0,0,0,0,0,0,0,0,-1,1182,540,0,0
-35,484,0,0,0,0,0,0,0,0,0,-1,1189,540,0,0
-28,484,0,0,0,0,0,0,0,0,0,-1,1196,540,0,0
-21,484,0,0,0,0,0,0,0,0,0,-1,1203,540,0,0
-14,484,0,0,0,0,0,0,0,0,0,-1,1210,540,0,0
-7,484,0,0,0,0,0,0,0,0,0,-1,1217,540,0,0
0,484,0,0,0,0,0,0,0,0,0,-1,1224,540,0,0
7,484,0,0,0,0,0,0,0,0,0,-1,1231,540,0,0
14,484,0,0,0,0,0,0,0,0,0,-1,1238,540,0,0
21,484,0,0,0,0,0,0,0,0,0,-1,1245,540,0,0
28,484,0,0,0,0,0,0,0,0,0,-1,1252,540,0,0
35,484,0,0,0,0,0,0,0,0,0,-1,1259,540,0,0
42,484,0,0,0,0,0,0,0,0,0,-1,1266,540,0,0
49,484,0,0,0,0,0,0,0,0,0,-1,1273,540,0,0
56,484,0,0,0,0,0,0,0,0,0,-1,1280,540,0,0
63,484,0,0,0,0,0,0,0,0,0,-1,1287,540,0,0
70,484,0,0,0,0,0,0,0,0,0,-1,1294,540,0,0
77,484,0,0,0,0,0,0,0,0,0,-1,1301,540,0,0
84,484,0,0,0,0,0,0,0,0,0,-1,1308,540,0,0
91,484,0,0,0,0,0,0,0,0,0,-1,1315,540,0,0
98,484,0,0,0,0,0,0,0,0,0,-1,1322,540,0,0
105,484,0,0,0,0,0,0,0,0,0,-1,1329,540,0,0
112,484,0,0,0,0,0,0,0,0,0,-1,1336,540,0,0
119,484,0,0,0,0,0,0,0,0,0,-1,1343,540,0,0
126,484,0,0,0,0,0,0,0,0,0,-1,1350,540,0,0
133,484,0,0,0,0,0,0,0,0,0,-1,1357,540,0,0
140,484,0,0,0,0,0,0,0,0,0,-1,1364,540,0,0
147,484,0,0,0,0,0,0,0,0,0,-1,1371,540,0,0
154,484,0,0,0,0,0,0,0,0,0,-1,1378,540,0,0
161,484,0,0,0,0,0,0,0,0,0,-1,1385,540,0,0
168,484,0,0,0,0,0,0,0,0,0,-1,1392,540,0,0
175,484,0,0,0,0,0,0,0,0,0,-1,1399,540,0,0
182,484,0,0,0,0,0,0,0,0,0,-1,1406,540,0,0
189,484,0,0,0,0,0,0,0,0,0,-1,1413,540,0,0
196,484,0,0,0,0,0,0,0,0,0,-1,1420,540,0,0
203,484,0,0,0,0,0,0,0,0,0,-1,1427,540,0,0
210,484,0,0,0,0,0,0,0,0,0,-1,1434,540,0,0
217,484,0,0,0,0,0,0,0,0,0,-1,1441,540,0,0
224,484,0,0,0,0,0,0,0,0,0,-1,1448,540,0,0
231,484,0,0,0,0,0,0,0,0,0,-1,1455,540,0,0
238,484,0,0,0,0,0,0,0,0,0,-1,1462,540,0,0
245,484,0,0,0,0,0,0,0,0,0,-1,1469,540,0,0
252,484,0,0,0,0,0,0,0,0,0,-1,1476,540,0,0
259,484,0,0,0,0,0,0,0,0,0,-1,1483,540,0,0
266,484,0,0,0,0,0,0,0,0,0,-1,1490,540,0,0
273,484,0,0,0,0,0,0,0,0,0,-1,1497,540,0,0
280,484,0,0,0,0,0,0,0,0,0,-1,1504,540,0,0
287,484,0,0,0,0,0,0,0,0,0,-1,1511,540,0,0
294,484,0,0,0,0,0,0,0,0,0,-1,1518,540,0,0
301,484,0,0,0,0,0,0,0,0,0,-1,1525,540,0,0
308,484,0,0,0,0,0,0,0,0,0,-1,1532,540,0,0
315,484,0,0,0,0,0,0,0,0,0,-1,1539,540,0,0
322,484,0,0,0,0,0,0,0,0,0,-1,1546,540,0,0
329,484,0,0,0,0,0,0,0,0,0,-1,1553,540,0,0
336,484,4.38708,-1.64136,0,0,0,0,0,0,0,-1,1560,540,4.38704,1.64138
343,484,7.57996,-1.05457,0,0,0,0,0,0,0,-1,1567,540,7.57995,1.05454
350,484,8.10425,-1.18878,0,0,0,0,0,0,0,-1,1574,540,8.1043,1.18877
357,484,7.74902,-3.80286,0,0,0,0,0,0,0,-1,1581,540,7.74901,3.80287
364,484,6.31262,-3.87213,0,0,0,0,0,0,0,-1,1588,540,6.31263,3.87215
371,484,7.21008,0.973511,0,0,0,0,0,0,0,-1,1595,540,7.21014,-0.973541
378,484,11.0563,1.5014,0,0,0,0,0,0,0,-1,1602,540,11.0563,-1.5014
385,484,14.3469,2.5545,0,0,0,0,0,0,0,-1,1609,540,14.3469,-2.55453
392,484,7.39453,-4.95026,0,0,0,0,0,0,0,-1,1616,540,7.39448,4.95023
399,484,7.14417,-2.5639,0,0,0,0,0,0,0,-1,1623,540,7.14417,2.56391
406,484,7.88953,-2.47321,0,0,0,0,0,0,0,-1,1630,540,7.88954,2.47323
413,484,4.4895,-1.08673,0,0,0,0,0,0,0,-1,1637,540,4.48952,1.08674
420,484,4.50012,-2.11255,0,0,0,0,0,0,0,-1,1644,540,4.50012,2.11256
427,484,5.28601,-3.54053,0,0,0,0,0,0,0,-1,1651,540,5.28599,3.54051
434,484,11.1488,-13.5359,0,0,0,0,0,0,0,-1,1658,540,11.1489,13.5359
441,484,13.205,-18.1697,0,0,0,0,0,0,0,-1,1665,540,13.205,18.1697
448,484,14.3038,-20.2111,0,0,0,0,0,0,0,-1,1672,540,14.3038,20.2111
455,484,14.3306,-19.6187,0,0,0,0,0,0,0,-1,1679,540,14.3305,19.6186
462,484,14.4019,-19.0154,0.00143592,0.00129037,-0.00068354,0.00205054,0.000675738,-0.732363,0.0012066,0.0253826,1686,540,14.4018,19.0155
469,484,14.4098,-18.4717,0.00135473,0.00112542,-0.000639753,0.00189002,0.000590127,-0.696732,0.00111656,0.0177554,1693,540,14.4098,18.4717
476,484,14.3768,-17.8759,0.00136703,0.00100858,-0.000456901,0.0016786,0.000697015,-0.598489,0.000973774,0.0158227,1700,540,14.3768,17.8758
483,484,14.361,-17.2908,0.00107771,0.000981116,-6.65259e-05,0.00111162,0.000947204,-0.471416,0.00069281,0.0125542,1707,540,14.3609,17.2908
490,484,14.3386,-16.7758,0.000602716,0.00109007,0.000301861,0.00123433,0.000458451,1.12497,0.000720454,0.012383,1714,540,14.3386,16.7758
497,484,14.3049,-16.205,5.32583e-05,0.00117967,0.000745682,0.00155094,-0.00031801,1.10884,0.00115465,0.0130612,1721,540,14.305,16.205
504,484,14.2897,-15.6003,-0.000582707,0.00125007,0.00120264,0.00184567,-0.00117831,1.11096,0.00176001,0.0146032,1728,540,14.2897,15.6003
511,484,14.2842,-15.0282,-0.00141194,0.00134624,0.001634,0.00210534,-0.00217104,1.1359,0.00246907,0.0176044,1735,540,14.2842,15.0282
518,484,14.2609,-14.4643,-0.00238728,0.0014476,0.00195382,0.00226767,-0.00320735,1.1734,0.00317648,0.0155824,1742,540,14.2609,14.4643
525,484,14.2495,-13.8661,-0.00342854,0.00152537,0.00219929,0.00236084,-0.00426401,1.20775,0.00387711,0.0136863,1749,540,14.2495,13.8661
532,484,14.244,-13.2238,-0.00452582,0.00167484,0.00237621,0.00248072,-0.00533169,1.24383,0.00460952,0.0151145,1756,540,14.244,13.2238
539,484,14.1672,-12.5852,-0.0056581,0.00190475,0.00243363,0.00262018,-0.00637353,1.28487,0.00534113,0.0369424,1763,540,14.1672,12.5852
546,484,14.1149,-11.8386,0,0,0,0,0,0,0,-1,1770,540,14.1149,11.8386
553,484,12.4246,-8.96423,0,0,0,0,0,0,0,-1,1777,540,12.4246,8.96422
560,484,10.0549,-5.47931,0,0,0,0,0,0,0,-1,1784,540,10.055,5.47928
567,484,7.78223,-1.38312,0,0,0,0,0,0,0,-1,1791,540,7.78224,1.38311
574,484,5.74463,1.50922,0,0,0,0,0,0,0,-1,1798,540,5.74463,-1.50924
581,484,10.34,2.9491,0,0,0,0,0,0,0,-1,1805,540,10.34,-2.94912
588,484,10.6669,2.88568,0,0,0,0,0,0,0,-1,1812,540,10.6669,-2.88567
595,484,10.7233,1.04767,0,0,0,0,0,0,0,-1,1819,540,10.7233,-1.04766
602,484,0,0,0,0,0,0,0,0,0,-1,1826,540,0,0
609,484,0,0,0,0,0,0,0,0,0,-1,1833,540,0,0
616,484,0,0,0,0,0,0,0,0,0,-1,1840,540,0,0
623,484,0,0,0,0,0,0,0,0,0,-1,1847,540,0,0
630,484,0,0,0,0,0,0,0,0,0,-1,1854,540,0,0
637,484,0,0,0,0,0,0,0,0,0,-1,1861,540,0,0
644,484,0,0,0,0,0,0,0,0,0,-1,1868,540,0,0
651,484,0,0,0,0,0,0,0,0,0,-1,1875,540,0,0
658,484,0,0,0,0,0,0,0,0,0,-1,1882,540,0,0
665,484,0,0,0,0,0,0,0,0,0,-1,1889,540,0,0
672,484,0,0,0,0,0,0,0,0,0,-1,1896,540,0,0
679,484,0,0,0,0,0,0,0,0,0,-1,1903,540,0,0
686,484,0,0,0,0,0,0,0,0,0,-1,1910,540,0,0
693,484,0,0,0,0,0,0,0,0,0,-1,1917,540,0,0
700,484,0,0,0,0,0,0,0,0,0,-1,1924,540,0,0
707,484,0,0,0,0,0,0,0,0,0,-1,1931,540,0,0
714,484,0,0,0,0,0,0,0,0,0,-1,1938,540,0,0
721,484,0,0,0,0,0,0,0,0,0,-1,1945,540,0,0
728,484,0,0,0,0,0,0,0,0,0,-1,1952,540,0,0
735,484,0,0,0,0,0,0,0,0,0,-1,1959,540,0,0
742,484,0,0,0,0,0,0,0,0,0,-1,1966,540,0,0
749,484,0,0,0,0,0,0,0,0,0,-1,1973,540,0,0
756,484,0,0,0,0,0,0,0,0,0,-1,1980,540,0,0
763,484,0,0,0,0,0,0,0,0,0,-1,1987,540,0,0
770,484,0,0,0,0,0,0,0,0,0,-1,1994,540,0,0
777,484,0,0,0,0,0,0,0,0,0,-1,2001,540,0,0
784,484,0,0,0,0,0,0,0,0,0,-1,2008,540,0,0
791,484,0,0,0,0,0,0,0,0,0,-1,2015,540,0,0
798,484,0,0,0,0,0,0,0,0,0,-1,2022,540,0,0
805,484,0,0,0,0,0,0,0,0,0,-1,2029,540,0,0
812,484,0,0,0,0,0,0,0,0,0,-1,2036,540,0,0
-700,477,0,0,0,0,0,0,0,0,0,-1,524,547,0,0
-693,477,0,0,0,0,0,0,0,0,0,-1,531,547,0,0
-686,477,0,0,0,0,0,0,0,0,0,-1,538,547,0,0
-679,477,0,0,0,0,0,0,0,0,0,-1,545,547,0,0
-672,477,0,0,0,0,0,0,0,0,0,-1,552,547,0,0
-665,477,0,0,0,0,0,0,0,0,0,-1,559,547,0,0
-658,477,0,0,0,0,0,0,0,0,0,-1,566,547,0,0
-651,477,0,0,0,0,0,0,0,0,0,-1,573,547,0,0
-644,477,0,0,0,0,0,0,0,0,0,-1,580,547,0,0
-637,477,0,0,0,0,0,0,0,0,0,-1,587,547,0,0
-630,477,0,0,0,0,0,0,0,0,0,-1,594,547,0,0
-623,477,0,0,0,0,0,0,0,0,0,-1,601,547,0,0
-616,477,0,0,0,0,0,0,0,0,0,-1,608,547,0,0
-609,477,0,0,0,0,0,0,0,0,0,-1,615,547,0,0
-602,477,0,0,0,0,0,0,0,0,0,-1,622,547,0,0
-595,477,0,0,0,0,0,0,0,0,0,-1,629,547,0,0
-588,477,0,0,0,0,0,0,0,0,0,-1,636,547,0,0
-581,477,0,0,0,0,0,0,0,0,0,-1,643,547,0,0
-574,477,0,0,0,0,0,0,0,0,0,-1,650,547,0,0
-567,477,0,0,0,0,0,0,0,0,0,-1,657,547,0,0
-560,477,0,0,0,0,0,0,0,0,0,-1,664,547,0,0
-553,477,0,0,0,0,0,0,0,0,0,-1,671,547,0,0
-546,477,0,0,0,0,0,0,0,0,0,-1,678,547,0,0
-539,477,0,0,0,0,0,0,0,0,0,-1,685,547,0,0
-532,477,0,0,0,0,0,0,0,0,0,-1,692,547,0,0
-525,477,0,0,0,0,0,0,0,0,0,-1,699,547,0,0
-518,477,0,0,0,0,0,0,0,0,0,-1,706,547,0,0
-511,477,0,0,0,0,0,0,0,0,0,-1,713,547,0,0
-504,477,0,0,0,0,0,0,0,0,0,-1,720,547,0,0
-497,477,0,0,0,0,0,0,0,0,0,-1,727,547,0,0
-490,477,0,0,0,0,0,0,0,0,0,-1,734,547,0,0
-483,477,-7.73151,-0.224182,0,0,0,0,0,0,0,-1,741,547,-7.73152,0.224176
-476,477,-6.25806,-0.310547,0,0,0,0,0,0,0,-1,748,547,-6.25804,0.310549
-469,477,-7.26617,0.525085,0,0,0,0,0,0,0,-1,755,547,-7.2662,-0.525111
-462,477,-6.65143,1.06042,0,0,0,0,0,0,0,-1,762,547,-6.65143,-1.06043
-455,477,-5.31757,0.429016,0,0,0,0,0,0,0,-1,769,547,-5.31756,-0.42902
-448,477,-4.0697,0.273376,0,0,0,0,0,0,0,-1,776,547,-4.06971,-0.273363
-441,477,-2.47504,-4.76971,0,0,0,0,0,0,0,-1,783,547,-2.47505,4.76973
-434,477,-4.1394,-12.3521,0,0,0,0,0,0,0,-1,790,547,-4.13938,12.3521
-427,477,-4.35297,-12.6592,-0.000248167,0.0149328,-0.00526267,0.0165787,-0.00189409,-1.26768,0.0117349,0.0443628,797,547,-4.35295,12.6592
-420,477,-4.41418,-13.0726,0.000356978,0.0130211,-0.00523394,0.0149042,-0.00152614,-1.22543,0.0104819,0.0352775,804,547,-4.41417,13.0726
-413,477,-4.39514,-13.9352,0.000763503,0.0110441,-0.00492738,0.0130243,-0.00121672,-1.18867,0.00911555,0.0203121,811,547,-4.39514,13.9352
-406,477,-4.48065,-14.5912,0.00108749,0.00922858,-0.00452686,0.0112459,-0.000929809,-1.15158,0.00782562,0.0113448,818,547,-4.48063,14.5913
-399,477,-4.48608,-15.1669,0.00122619,0.00737448,-0.00391761,0.00928009,-0.000679427,-1.11807,0.00642519,0.0184053,825,547,-4.4861,15.1669
-392,477,-4.51416,-15.7614,0.00135773,0.00551972,-0.00321283,0.00726662,-0.000389171,-1.07278,0.00497921,0.0179047,832,547,-4.51418,15.7613
-385,477,-4.52881,-16.3298,0.00152709,0.00381319,-0.00248384,0.00540437,-6.40929e-05,-1.00105,0.00362446,0.0150233,839,547,-4.5288,16.3299
-378,477,-4.56561,-16.8841,0.00170149,0.00227443,-0.00177019,0.00378118,0.000194739,-0.865618,0.00245845,0.013561,846,547,-4.5656,16.8841
-371,477,-4.59387,-17.4255,0.00182,0.000768735,-0.00102036,0.00244215,0.000146579,-0.547553,0.00158151,0.0132963,853,547,-4.59389,17.4254
-364,477,-4.61328,-17.9626,0.00195521,-0.000607992,-0.000287648,0.00198709,-0.000639876,-0.110393,0.00158177,0.0130402,860,547,-4.61327,17.9627
-357,477,-4.63031,-18.4992,0.00223166,-0.00170497,0.000308782,0.00225573,-0.00172905,0.077804,0.0023073,0.0115929,867,547,-4.63031,18.4992
-350,477,-4.63898,-19.0428,0.00266948,-0.00251916,0.000707629,0.00276425,-0.00261393,0.133142,0.0031055,0.0107128,874,547,-4.63897,19.0428
-343,477,-4.5741,-19.616,0.0032223,-0.00324405,0.000965901,0.0033635,-0.00338524,0.145153,0.0038964,0.0195327,881,547,-4.57408,19.6161
-336,477,-4.52563,-20.1633,0.00384273,-0.00408343,0.00122421,0.00402751,-0.0042682,0.149803,0.0047902,0.0430438,888,547,-4.52562,20.1633
-329,477,-4.47748,-20.6973,0,0,0,0,0,0,0,-1,895,547,-4.47749,20.6972
-322,477,-2.04822,-12.0026,0,0,0,0,0,0,0,-1,902,547,-2.04819,12.0026
-315,477,-1.67358,-9.15253,0,0,0,0,0,0,0,-1,909,547,-1.67356,9.15253
-308,477,-1.30127,-6.55188,0,0,0,0,0,0,0,-1,916,547,-1.30128,6.55185
-301,477,-1.21185,-6.28351,0,0,0,0,0,0,0,-1,923,547,-1.21184,6.28352
-294,477,-0.352905,3.27142,0,0,0,0,0,0,0,-1,930,547,-0.35292,-3.27144
-287,477,3.54364,2.15399,0,0,0,0,0,0,0,-1,937,547,3.54362,-2.15396
-280,477,1.97308,-0.954163,0,0,0,0,0,0,0,-1,944,547,1.9731,0.954178
-273,477,2.11621,-3.76709,0,0,0,0,0,0,0,-1,951,547,2.11619,3.76706
-266,477,2.04669,-3.42389,0,0,0,0,0,0,0,-1,958,547,2.04671,3.42391
-259,477,-1.33478,-3.41205,0,0,0,0,0,0,0,-1,965,547,-1.3348,3.41206
-252,477,0.597168,-5.32922,0,0,0,0,0,0,0,-1,972,547,0.597144,5.32924
-245,477,8.2309,-8.48492,0,0,0,0,0,0,0,-1,979,547,8.23091,8.48494
-238,477,6.60938,-5.64063,0,0,0,0,0,0,0,-1,986,547,6.60938,5.64063
-231,477,4.71716,-2.52484,0,0,0,0,0,0,0,-1,993,547,4.71716,2.52483
-224,477,0,0,0,0,0,0,0,0,0,-1,1000,547,0,0
-217,477,0,0,0,0,0,0,0,0,0,-1,1007,547,0,0
-210,477,0,0,0,0,0,0,0,0,0,-1,1014,547,0,0
-203,477,0,0,0,0,0,0,0,0,0,-1,1021,547,0,0
-196,477,0,0,0,0,0,0,0,0,0,-1,1028,547,0,0
-189,477,0,0,0,0,0,0,0,0,0,-1,1035,547,0,0
-182,477,0,0,0,0,0,0,0,0,0,-1,1042,547,0,0
-175,477,0,0,0,0,0,0,0,0,0,-1,1049,547,0,0
-168,477,0,0,0,0,0,0,0,0,0,-1,1056,547,0,0
-161,477,0,0,0,0,0,0,0,0,0,-1,1063,547,0,0
-154,477,0,0,0,0,0,0,0,0,0,-1,1070,547,0,0
-147,477,0,0,0,0,0,0,0,0,0,-1,1077,547,0,0
-140,477,0,0,0,0,0,0,0,0,0,-1,1084,547,0,0
-133,477,0,0,0,0,0,0,0,0,0,-1,1091,547,0,0
-126,477,0,0,0,0,0,0,0,0,0,-1,1098,547,0,0
-119,477,0,0,0,0,0,0,0,0,0,-1,1105,547,0,0
-112,477,0,0,0,0,0,0,0,0,0,-1,1112,547,0,0
-105,477,0,0,0,0,0,0,0,0,0,-1,1119,547,0,0
-98,477,0,0,0,0,0,0,0,0,0,-1,1126,547,0,0
-91,477,0,0,0,0,0,0,0,0,0,-1,1133,547,0,0
-84,477,0,0,0,0,0,0,0,0,0,-1,1140,547,0,0
-77,477,0,0,0,0,0,0,0,0,0,-1,1147,547,0,0
-70,477,0,0,0,0,0,0,0,0,0,-1,1154,547,0,0
-63,477,0,0,0,0,0,0,0,0,0,-1,1161,547,0,0
-56,477,0,0,0,0,0,0,0,0,0,-1,1168,547,0,0
-49,477,0,0,0,0,0,0,0,0,0,-1,1175,547,0,0
-42,477,0,0,0,0,0,0,0,0,0,-1,1182,547,0,0
-35,477,0,0,0,0,0,0,0,0,0,-1,1189,547,0,0
-28,477,0,0,0,0,0,0,0,0,0,-1,1196,547,0,0
-21,477,0,0,0,0,0,0,0,0,0,-1,1203,547,0,0
-14,477,0,0,0,0,0,0,0,0,0,-1,1210,547,0,0
-7,477,0,0,0,0,0,0,0,0,0,-1,1217,547,0,0
0,477,0,0,0,0,0,0,0,0,0,-1,1224,547,0,0
7,477,0,0,0,0,0,0,0,0,0,-1,1231,547,0,0
14,477,0,0,0,0,0,0,0,0,0,-1,1238,547,0,0
21,477,0,0,0,0,0,0,0,0,0,-1,1245,547,0,0
28,477,0,0,0,0,0,0,0,0,0,-1,1252,547,0,0
35,477,0,0,0,0,0,0,0,0,0,-1,1259,547,0,0
42,477,0,0,0,0,0,0,0,0,0,-1,1266,547,0,0
49,477,0,0,0,0,0,0,0,0,0,-1,1273,547,0,0
56,477,0,0,0,0,0,0,0,0,0,-1,1280,547,0,0
63,477,0,0,0,0,0,0,0,0,0,-1,1287,547,0,0
70,477,0,0,0,0,0,0,0,0,0,-1,1294,547,0,0
77,477,0,0,0,0,0,0,0,0,0,-1,1301,547,0,0
84,477,0,0,0,0,0,0,0,0,0,-1,1308,547,0,0
91,477,0,0,0,0,0,0,0,0,0,-1,1315,547,0,0
98,477,0,0,0,0,0,0,0,0,0,-1,1322,547,0,0
105,477,0,0,0,0,0,0,0,0,0,-1,1329,547,0,0
112,477,0,0,0,0,0,0,0,0,0,-1,1336,547,0,0
119,477,0,0,0,0,0,0,0,0,0,-1,1343,547,0,0
126,477,0,0,0,0,0,0,0,0,0,-1,1350,547,0,0
133,477,0,0,0,0,0,0,0,0,0,-1,1357,547,0,0
140,477,0,0,0,0,0,0,0,0,0,-1,1364,547,0,0
147,477,0,0,0,0,0,0,0,0,0,-1,1371,547,0,0
154,477,0,0,0,0,0,0,0,0,0,-1,1378,547,0,0
161,477,0,0,0,0,0,0,0,0,0,-1,1385,547,0,0
168,477,0,0,0,0,0,0,0,0,0,-1,1392,547,0,0
175,477,0,0,0,0,0,0,0,0,0,-1,1399,547,0,0
182,477,0,0,0,0,0,0,0,0,0,-1,1406,547,0,0
189,477,0,0,0,0,0,0,0,0,0,-1,1413,547,0,0
196,477,0,0,0,0,0,0,0,0,0,-1,1420,547,0,0
203,477,0,0,0,0,0,0,0,0,0,-1,1427,547,0,0
210,477,0,0,0,0,0,0,0,0,0,-1,1434,547,0,0
217,477,0,0,0,0,0,0,0,0,0,-1,1441,547,0,0
224,477,0,0,0,0,0,0,0,0,0,-1,1448,547,0,0
231,477,0,0,0,0,0,0,0,0,0,-1,1455,547,0,0
238,477,0,0,0,0,0,0,0,0,0,-1,1462,547,0,0
245,477,0,0,0,0,0,0,0,0,0,-1,1469,547,0,0
252,477,0,0,0,0,0,0,0,0,0,-1,1476,547,0,0
259,477,0,0,0,0,0,0,0,0,0,-1,1483,547,0,0
266,477,0,0,0,0,0,0,0,0,0,-1,1490,547,0,0
273,477,0,0,0,0,0,0,0,0,0,-1,1497,547,0,0
280,477,0,0,0,0,0,0,0,0,0,-1,1504,547,0,0
287,477,0,0,0,0,0,0,0,0,0,-1,1511,547,0,0
294,477,0,0,0,0,0,0,0,0,0,-1,1518,547,0,0
301,477,0,0,0,0,0,0,0,0,0,-1,1525,547,0,0
308,477,0,0,0,0,0,0,0,0,0,-1,1532,547,0,0
315,477,0,0,0,0,0,0,0,0,0,-1,1539,547,0,0
322,477,0,0,0,0,0,0,0,0,0,-1,1546,547,0,0
329,477,0,0,0,0,0,0,0,0,0,-1,1553,547,0,0
336,477,0,0,0,0,0,0,0,0,0,-1,1560,547,0,0
343,477,0,0,0,0,0,0,0,0,0,-1,1567,547,0,0
350,477,1.7699,-3.32275,0,0,0,0,0,0,0,-1,1574,547,1.7699,3.32272
357,477,3.073,-4.83313,0,0,0,0,0,0,0,-1,1581,547,3.07303,4.83316
364,477,4.30127,-4.22864,0,0,0,0,0,0,0,-1,1588,547,4.30125,4.22865
371,477,4.57703,0.283264,0,0,0,0,0,0,0,-1,1595,547,4.57706,-0.283262
378,477,8.57947,1.05969,0,0,0,0,0,0,0,-1,1602,547,8.5795,-1.05972
385,477,12.3726,2.02356,0,0,0,0,0,0,0,-1,1609,547,12.3725,-2.02355
392,477,16.4678,2.76843,0,0,0,0,0,0,0,-1,1616,547,16.4678,-2.76845
399,477,8.00037,-2.29523,0,0,0,0,0,0,0,-1,1623,547,8.00031,2.2952
406,477,4.82495,2.7475,0,0,0,0,0,0,0,-1,1630,547,4.825,-2.74752
413,477,4.88171,-0.336426,0,0,0,0,0,0,0,-1,1637,547,4.88169,0.336398
420,477,3.34875,0.102722,0,0,0,0,0,0,0,-1,1644,547,3.34871,-0.1027
427,477,1.66772,-0.373108,0,0,0,0,0,0,0,-1,1651,547,1.66768,0.373104
434,477,3.76978,-2.30798,0,0,0,0,0,0,0,-1,1658,547,3.76974,2.30801
441,477,4.05444,-2.80402,0,0,0,0,0,0,0,-1,1665,547,4.05444,2.804
448,477,10.4247,-11.7421,0,0,0,0,0,0,0,-1,1672,547,10.4247,11.7421
455,477,13.3054,-16.8109,0,0,0,0,0,0,0,-1,1679,547,13.3054,16.8109
462,477,14.9305,-19.0967,0,0,0,0,0,0,0,-1,1686,547,14.9306,19.0967
469,477,15.0056,-18.4031,0.0014428,0.00119933,-0.000953835,0.00228264,0.000359494,-0.721928,0.00141721,0.0455692,1693,547,15.0056,18.4032
476,477,14.9437,-17.8636,0.0016245,0.00100715,-0.000849533,0.0022197,0.000411952,-0.61114,0.00136339,0.0216347,1700,547,14.9438,17.8637
483,477,14.9543,-17.2906,0.00143221,0.00094737,-0.000454195,0.00170463,0.00067495,-0.540262,0.000991248,0.0119047,1707,547,14.9543,17.2906
490,477,14.923,-16.7581,0.00104723,0.00107006,-0.00012123,0.00118041,0.000936879,-0.832336,0.000719633,0.012402,1714,547,14.923,16.7581
497,477,14.8976,-16.1649,0.000593252,0.00113104,0.000274002,0.00124605,0.000478244,1.17339,0.000725853,0.0137555,1721,547,14.8975,16.1649
504,477,14.8737,-15.5787,7.73636e-05,0.00115779,0.000660751,0.00147105,-0.000235901,1.12808,0.00106805,0.0171697,1728,547,14.8737,15.5787
511,477,14.8899,-15.0408,-0.000591167,0.00120728,0.00102338,0.00167037,-0.00105426,1.14585,0.00158641,0.0222328,1735,547,14.8899,15.0408
518,477,14.8618,-14.4777,-0.00137471,0.0012699,0.00128423,0.00179089,-0.00189569,1.1854,0.00212874,0.0204023,1742,547,14.8619,14.4777
525,477,14.8232,-13.8391,-0.00217431,0.00133621,0.00148518,0.00188023,-0.00271833,1.21968,0.00266964,0.0173056,1749,547,14.8233,13.8391
532,477,14.7908,-13.2021,-0.00301146,0.00148027,0.00163157,0.00201036,-0.00354155,1.25666,0.00324578,0.0194313,1756,547,14.7907,13.2022
539,477,14.7474,-12.5566,-0.00386356,0.00169606,0.00169249,0.00217077,-0.00433826,1.29734,0.00382681,0.0183824,1763,547,14.7474,12.5567
546,477,14.6622,-12.0303,-0.00465605,0.00211349,0.00174077,0.00253489,-0.00507745,1.33329,0.00447596,0.0385362,1770,547,14.6623,12.0304
553,477,14.7285,-11.2858,0,0,0,0,0,0,0,-1,1777,547,14.7285,11.2858
560,477,14.2111,-9.5968,0,0,0,0,0,0,0,-1,1784,547,14.211,9.59678
567,477,13.9529,-8.70972,0,0,0,0,0,0,0,-1,1791,547,13.9529,8.7097
574,477,6.82593,-0.916992,0,0,0,0,0,0,0,-1,1798,547,6.82598,0.916977
581,477,9.29321,-0.557007,0,0,0,0,0,0,0,-1,1805,547,9.29324,0.55703
588,477,9.75195,0.422729,0,0,0,0,0,0,0,-1,1812,547,9.75198,-0.42273
595,477,9.89172,1.21326,0,0,0,0,0,0,0,-1,1819,547,9.89174,-1.21328
602,477,6.5271,-0.964417,0,0,0,0,0,0,0,-1,1826,547,6.52706,0.964427
609,477,0,0,0,0,0,0,0,0,0,-1,1833,547,0,0
616,477,0,0,0,0,0,0,0,0,0,-1,1840,547,0,0
623,477,0,0,0,0,0,0,0,0,0,-1,1847,547,0,0
630,477,0,0,0,0,0,0,0,0,0,-1,1854,547,0,0
637,477,0,0,0,0,0,0,0,0,0,-1,1861,547,0,0
644,477,0,0,0,0,0,0,0,0,0,-1,1868,547,0,0
651,477,0,0,0,0,0,0,0,0,0,-1,1875,547,0,0
658,477,0,0,0,0,0,0,0,0,0,-1,1882,547,0,0
665,477,0,0,0,0,0,0,0,0,0,-1,1889,547,0,0
672,477,0,0,0,0,0,0,0,0,0,-1,1896,547,0,0
679,477,0,0,0,0,0,0,0,0,0,-1,1903,547,0,0
686,477,0,0,0,0,0,0,0,0,0,-1,1910,547,0,0
693,477,0,0,0,0,0,0,0,0,0,-1,1917,547,0,0
700,477,0,0,0,0,0,0,0,0,0,-1,1924,547,0,0
707,477,0,0,0,0,0,0,0,0,0,-1,1931,547,0,0
714,477,0,0,0,0,0,0,0,0,0,-1,1938,547,0,0
721,477,0,0,0,0,0,0,0,0,0,-1,1945,547,0,0
728,477,0,0,0,0,0,0,0,0,0,-1,1952,547,0,0
735,477,0,0,0,0,0,0,0,0,0,-1,1959,547,0,0
742,477,0,0,0,0,0,0,0,0,0,-1,1966,547,0,0
749,477,0,0,0,0,0,0,0,0,0,-1,1973,547,0,0
756,477,0,0,0,0,0,0,0,0,0,-1,1980,547,0,0
763,477,0,0,0,0,0,0,0,0,0,-1,1987,547,0,0
770,477,0,0,0,0,0,0,0,0,0,-1,1994,547,0,0
777,477,0,0,0,0,0,0,0,0,0,-1,2001,547,0,0
784,477,0,0,0,0,0,0,0,0,0,-1,2008,547,0,0
791,477,0,0,0,0,0,0,0,0,0,-1,2015,547,0,0
798,477,0,0,0,0,0,0,0,0,0,-1,2022,547,0,0
805,477,0,0,0,0,0,0,0,0,0,-1,2029,547,0,0
812,477,0,0,0,0,0,0,0,0,0,-1,2036,547,0,0
-700,470,0,0,0,0,0,0,0,0,0,-1,524,554,0,0
-693,470,0,0,0,0,0,0,0,0,0,-1,531,554,0,0
-686,470,0,0,0,0,0,0,0,0,0,-1,538,554,0,0
-679,470,0,0,0,0,0,0,0,0,0,-1,545,554,0,0
-672,470,0,0,0,0,0,0,0,0,0,-1,552,554,0,0
-665,470,0,0,0,0,0,0,0,0,0,-1,559,554,0,0
-658,470,0,0,0,0,0,0,0,0,0,-1,566,554,0,0
-651,470,0,0,0,0,0,0,0,0,0,-1,573,554,0,0
-644,470,0,0,0,0,0,0,0,0,0,-1,580,554,0,0
-637,470,0,0,0,0,0,0,0,0,0,-1,587,554,0,0
-630,470,0,0,0,0,0,0,0,0,0,-1,594,554,0,0
-623,470,0,0,0,0,0,0,0,0,0,-1,601,554,0,0
-616,470,0,0,0,0,0,0,0,0,0,-1,608,554,0,0
-609,470,0,0,0,0,0,0,0,0,0,-1,615,554,0,0
-602,470,0,0,0,0,0,0,0,0,0,-1,622,554,0,0
-595,470,0,0,0,0,0,0,0,0,0,-1,629,554,0,0
-588,470,0,0,0,0,0,0,0,0,0,-1,636,554,0,0
-581,470,0,0,0,0,0,0,0,0,0,-1,643,554,0,0
-574,470,0,0,0,0,0,0,0,0,0,-1,650,554,0,0
-567,470,0,0,0,0,0,0,0,0,0,-1,657,554,0,0
-560,470,0,0,0,0,0,0,0,0,0,-1,664,554,0,0
-553,470,0,0,0,0,0,0,0,0,0,-1,671,554,0,0
-546,470,0,0,0,0,0,0,0,0,0,-1,678,554,0,0
-539,470,0,0,0,0,0,0,0,0,0,-1,685,554,0,0
-532,470,0,0,0,0,0,0,0,0,0,-1,692,554,0,0
-525,470,0,0,0,0,0,0,0,0,0,-1,699,554,0,0
-518,470,0,0,0,0,0,0,0,0,0,-1,706,554,0,0
-511,470,0,0,0,0,0,0,0,0,0,-1,713,554,0,0
-504,470,0,0,0,0,0,0,0,0,0,-1,720,554,0,0
-497,470,0,0,0,0,0,0,0,0,0,-1,727,554,0,0
-490,470,-9.13263,-1.03125,0,0,0,0,0,0,0,-1,734,554,-9.1326,1.03127
-483,470,-7.68677,-1.03955,0,0,0,0,0,0,0,-1,741,554,-7.68678,1.03958
-476,470,-6.17969,-1.03394,0,0,0,0,0,0,0,-1,748,554,-6.17971,1.03395
-469,470,-6.23016,-0.651855,0,0,0,0,0,0,0,-1,755,554,-6.23014,0.651829
-462,470,-4.87915,-1.03705,0,0,0,0,0,0,0,-1,762,554,-4.87914,1.03702
-455,470,-4.14777,-1.37079,0,0,0,0,0,0,0,-1,769,554,-4.14779,1.37078
-448,470,-2.9314,-5.74518,0,0,0,0,0,0,0,-1,776,554,-2.93137,5.74518
-441,470,-4.72839,-11.6099,0,0,0,0,0,0,0,-1,783,554,-4.72841,11.61
-434,470,-4.75104,-12.3038,-0.00131834,0.0126979,-0.00376175,0.0136437,-0.00226412,-1.32448,0.00993684,0.0499067,790,554,-4.75103,12.3038
-427,470,-5.00519,-12.7618,-0.00063511,0.0112454,-0.00373755,0.0123234,-0.00171311,-1.28999,0.00884213,0.0222175,797,554,-5.00519,12.7618
-420,470,-4.97504,-13.3793,-8.15172e-05,0.0097507,-0.00367601,0.0109731,-0.00130391,-1.24977,0.00778651,0.0156259,804,554,-4.97505,13.3793
-413,470,-5.0011,-14.012,0.000294656,0.00811558,-0.00336321,0.00936292,-0.000952683,-1.21564,0.00658253,0.0145109,811,554,-5.00111,14.0119
-406,470,-5.02905,-14.5797,0.000638455,0.00663782,-0.0030258,0.00789883,-0.00062256,-1.17593,0.0054852,0.0115082,818,554,-5.02905,14.5797
-399,470,-5.0437,-15.146,0.000875367,0.00513116,-0.00254679,0.00632201,-0.000315485,-1.13341,0.00432368,0.0140658,825,554,-5.04371,15.146
-392,470,-5.03607,-15.7265,0.00112308,0.00357154,-0.00197961,0.00467488,1.97373e-05,-1.06232,0.00311003,0.014252,832,554,-5.03607,15.7265
-385,470,-5.07013,-16.2982,0.00140758,0.00213364,-0.00139561,0.00321267,0.000328557,-0.912639,0.00204109,0.0109606,839,554,-5.07012,16.2981
-378,470,-5.10687,-16.8547,0.00167883,0.000794428,-0.000793174,0.00214474,0.000328517,-0.531103,0.00133388,0.0157966,846,554,-5.10688,16.8547
-371,470,-5.14392,-17.4012,0.00192942,-0.000506573,-0.000156852,0.00193948,-0.000516631,-0.0640369,0.00149525,0.0142668,853,554,-5.1439,17.4012
-364,470,-5.16217,-17.9214,0.00224104,-0.00166403,0.000427406,0.00228727,-0.00171026,0.10775,0.00231598,0.0146492,860,554,-5.16215,17.9214
-357,470,-5.18933,-18.46,0.00270154,-0.00264623,0.000868576,0.00283907,-0.00278376,0.157042,0.0032464,0.0153166,867,554,-5.18934,18.46
-350,470,-5.1665,-19.0402,0.00335486,-0.0033229,0.00107825,0.00352465,-0.00349268,0.156183,0.00405147,0.0116817,874,554,-5.16651,19.0402
-343,470,-5.08057,-19.5724,0.00420687,-0.00387369,0.0010685,0.00434578,-0.00401259,0.129272,0.00482698,0.0414078,881,554,-5.08056,19.5724
-336,470,-4.90015,-20.2164,0,0,0,0,0,0,0,-1,888,554,-4.90015,20.2164
-329,470,-2.78516,-12.3594,0,0,0,0,0,0,0,-1,895,554,-2.78517,12.3594
-322,470,-2.30829,-11.4527,0,0,0,0,0,0,0,-1,902,554,-2.30827,11.4527
-315,470,-1.04797,-8.29529,0,0,0,0,0,0,0,-1,909,554,-1.04797,8.29526
-308,470,-1.39368,-6.68152,0,0,0,0,0,0,0,-1,916,554,-1.39369,6.68149
-301,470,-0.0340576,3.34888,0,0,0,0,0,0,0,-1,923,554,-0.0340496,-3.3489
-294,470,-1.18378,3.22266,0,0,0,0,0,0,0,-1,930,554,-1.18376,-3.22268
-287,470,-2.15454,3.2204,0,0,0,0,0,0,0,-1,937,554,-2.15452,-3.22037
-280,470,-3.00537,3.099,0,0,0,0,0,0,0,-1,944,554,-3.00536,-3.09898
-273,470,-12.3932,3.65009,0,0,0,0,0,0,0,-1,951,554,-12.3932,-3.65011
-266,470,-11.5706,1.16028,0,0,0,0,0,0,0,-1,958,554,-11.5706,-1.16031
-259,470,-7.50415,-2.77167,0,0,0,0,0,0,0,-1,965,554,-7.50413,2.7717
-252,470,-0.371155,-5.87823,0,0,0,0,0,0,0,-1,972,554,-0.37114,5.87821
-245,470,1.33221,-6.81122,0,0,0,0,0,0,0,-1,979,554,1.33223,6.8112
-238,470,0,0,0,0,0,0,0,0,0,-1,986,554,0,0
-231,470,0,0,0,0,0,0,0,0,0,-1,993,554,0,0
-224,470,0,0,0,0,0,0,0,0,0,-1,1000,554,0,0
-217,470,0,0,0,0,0,0,0,0,0,-1,1007,554,0,0
-210,470,0,0,0,0,0,0,0,0,0,-1,1014,554,0,0
-203,470,0,0,0,0,0,0,0,0,0,-1,1021,554,0,0
-196,470,0,0,0,0,0,0,0,0,0,-1,1028,554,0,0
-189,470,0,0,0,0,0,0,0,0,0,-1,1035,554,0,0
-182,470,0,0,0,0,0,0,0,0,0,-1,1042,554,0,0
-175,470,0,0,0,0,0,0,0,0,0,-1,1049,554,0,0
-168,470,0,0,0,0,0,0,0,0,0,-1,1056,554,0,0
-161,470,0,0,0,0,0,0,0,0,0,-1,1063,554,0,0
-154,470,0,0,0,0,0,0,0,0,0,-1,1070,554,0,0
-147,470,0,0,0,0,0,0,0,0,0,-1,1077,554,0,0
-140,470,0,0,0,0,0,0,0,0,0,-1,1084,554,0,0
-133,470,0,0,0,0,0,0,0,0,0,-1,1091,554,0,0
-126,470,0,0,0,0,0,0,0,0,0,-1,1098,554,0,0
-119,470,0,0,0,0,0,0,0,0,0,-1,1105,554,0,0
-112,470,0,0,0,0,0,0,0,0,0,-1,1112,554,0,0
-105,470,0,0,0,0,0,0,0,0,0,-1,1119,554,0,0
-98,470,0,0,0,0,0,0,0,0,0,-1,1126,554,0,0
-91,470,0,0,0,0,0,0,0,0,0,-1,1133,554,0,0
-84,470,0,0,0,0,0,0,0,0,0,-1,1140,554,0,0
-77,470,0,0,0,0,0,0,0,0,0,-1,1147,554,0,0
-70,470,0,0,0,0,0,0,0,0,0,-1,1154,554,0,0
-63,470,0,0,0,0,0,0,0,0,0,-1,1161,554,0,0
-56,470,0,0,0,0,0,0,0,0,0,-1,1168,554,0,0
-49,470,0,0,0,0,0,0,0,0,0,-1,1175,554,0,0
-42,470,0,0,0,0,0,0,0,0,0,-1,1182,554,0,0
-35,470,0,0,0,0,0,0,0,0,0,-1,1189,554,0,0
-28,470,0,0,0,0,0,0,0,0,0,-1,1196,554,0,0
-21,470,0,0,0,0,0,0,0,0,0,-1,1203,554,0,0
-14,470,0,0,0,0,0,0,0,0,0,-1,1210,554,0,0
-7,470,0,0,0,0,0,0,0,0,0,-1,1217,554,0,0
0,470,0,0,0,0,0,0,0,0,0,-1,1224,554,0,0
7,470,0,0,0,0,0,0,0,0,0,-1,1231,554,0,0
14,470,0,0,0,0,0,0,0,0,0,-1,1238,554,0,0
21,470,0,0,0,0,0,0,0,0,0,-1,1245,554,0,0
28,470,0,0,0,0,0,0,0,0,0,-1,1252,554,0,0
35,470,0,0,0,0,0,0,0,0,0,-1,1259,554,0,0
42,470,0,0,0,0,0,0,0,0,0,-1,1266,554,0,0
49,470,0,0,0,0,0,0,0,0,0,-1,1273,554,0,0
56,470,0,0,0,0,0,0,0,0,0,-1,1280,554,0,0
63,470,0,0,0,0,0,0,0,0,0,-1,1287,554,0,0
70,470,0,0,0,0,0,0,0,0,0,-1,1294,554,0,0
77,470,0,0,0,0,0,0,0,0,0,-1,1301,554,0,0
84,470,0,0,0,0,0,0,0,0,0,-1,1308,554,0,0
91,470,0,0,0,0,0,0,0,0,0,-1,1315,554,0,0
98,470,0,0,0,0,0,0,0,0,0,-1,1322,554,0,0
105,470,0,0,0,0,0,0,0,0,0,-1,1329,554,0,0
112,470,0,0,0,0,0,0,0,0,0,-1,1336,554,0,0
119,470,0,0,0,0,0,0,0,0,0,-1,1343,554,0,0
126,470,0,0,0,0,0,0,0,0,0,-1,1350,554,0,0
133,470,0,0,0,0,0,0,0,0,0,-1,1357,554,0,0
140,470,0,0,0,0,0,0,0,0,0,-1,1364,554,0,0
147,470,0,0,0,0,0,0,0,0,0,-1,1371,554,0,0
154,470,0,0,0,0,0,0,0,0,0,-1,1378,554,0,0
161,470,0,0,0,0,0,0,0,0,0,-1,1385,554,0,0
168,470,0,0,0,0,0,0,0,0,0,-1,1392,554,0,0
175,470,0,0,0,0,0,0,0,0,0,-1,1399,554,0,0
182,470,0,0,0,0,0,0,0,0,0,-1,1406,554,0,0
189,470,0,0,0,0,0,0,0,0,0,-1,1413,554,0,0
196,470,0,0,0,0,0,0,0,0,0,-1,1420,554,0,0
203,470,0,0,0,0,0,0,0,0,0,-1,1427,554,0,0
210,470,0,0,0,0,0,0,0,0,0,-1,1434,554,0,0
217,470,0,0,0,0,0,0,0,0,0,-1,1441,554,0,0
224,470,0,0,0,0,0,0,0,0,0,-1,1448,554,0,0
231,470,0,0,0,0,0,0,0,0,0,-1,1455,554,0,0
238,470,0,0,0,0,0,0,0,0,0,-1,1462,554,0,0
245,470,0,0,0,0,0,0,0,0,0,-1,1469,554,0,0
252,470,0,0,0,0,0,0,0,0,0,-1,1476,554,0,0
259,470,0,0,0,0,0,0,0,0,0,-1,1483,554,0,0
266,470,0,0,0,0,0,0,0,0,0,-1,1490,554,0,0
273,470,0,0,0,0,0,0,0,0,0,-1,1497,554,0,0
280,470,0,0,0,0,0,0,0,0,0,-1,1504,554,0,0
287,470,0,0,0,0,0,0,0,0,0,-1,1511,554,0,0
294,470,0,0,0,0,0,0,0,0,0,-1,1518,554,0,0
301,470,0,0,0,0,0,0,0,0,0,-1,1525,554,0,0
308,470,0,0,0,0,0,0,0,0,0,-1,1532,554,0,0
315,470,0,0,0,0,0,0,0,0,0,-1,1539,554,0,0
322,470,0,0,0,0,0,0,0,0,0,-1,1546,554,0,0
329,470,0,0,0,0,0,0,0,0,0,-1,1553,554,0,0
336,470,0,0,0,0,0,0,0,0,0,-1,1560,554,0,0
343,470,0,0,0,0,0,0,0,0,0,-1,1567,554,0,0
350,470,0,0,0,0,0,0,0,0,0,-1,1574,554,0,0
357,470,0,0,0,0,0,0,0,0,0,-1,1581,554,0,0
364,470,1.33423,0.293335,0,0,0,0,0,0,0,-1,1588,554,1.33422,-0.293348
371,470,2.22498,-0.0305176,0,0,0,0,0,0,0,-1,1595,554,2.22494,0.0305046
378,470,6.27051,0.710083,0,0,0,0,0,0,0,-1,1602,554,6.27054,-0.710093
385,470,10.3657,1.47296,0,0,0,0,0,0,0,-1,1609,554,10.3657,-1.47299
392,470,15.3881,3.01935,0,0,0,0,0,0,0,-1,1616,554,15.388,-3.01937
399,470,18.4479,2.93793,0,0,0,0,0,0,0,-1,1623,554,18.4479,-2.93792
406,470,15.1896,1.36676,0,0,0,0,0,0,0,-1,1630,554,15.1896,-1.36679
413,470,6.55383,1.99207,0,0,0,0,0,0,0,-1,1637,554,6.5538,-1.99208
420,470,4.47095,0.845703,0,0,0,0,0,0,0,-1,1644,554,4.47098,-0.845718
427,470,3.51038,1.19684,0,0,0,0,0,0,0,-1,1651,554,3.51039,-1.19684
434,470,3.31775,-1.37427,0,0,0,0,0,0,0,-1,1658,554,3.31781,1.37426
441,470,2.55457,-2.05902,0,0,0,0,0,0,0,-1,1665,554,2.55461,2.05904
448,470,3.27258,-2.64032,0,0,0,0,0,0,0,-1,1672,554,3.27257,2.64029
455,470,10.3658,-9.82233,0,0,0,0,0,0,0,-1,1679,554,10.3659,9.82233
462,470,11.0651,-11.9958,0,0,0,0,0,0,0,-1,1686,554,11.0651,11.9958
469,470,15.3555,-18.5897,0,0,0,0,0,0,0,-1,1693,554,15.3555,18.5897
476,470,15.463,-17.9075,0,0,0,0,0,0,0,-1,1700,554,15.463,17.9075
483,470,15.5306,-17.2922,0.00207203,0.00114714,-0.00021795,0.00212081,0.00109835,-0.220212,0.00122471,0.016903,1707,554,15.5307,17.2921
490,470,15.4877,-16.7308,0.00177017,0.00127038,2.32761e-05,0.00177125,0.0012693,0.046438,0.00105414,0.0123511,1714,554,15.4877,16.7307
497,470,15.4744,-16.1285,0.00134823,0.00126753,0.000295507,0.00160613,0.00100963,0.717551,0.00093747,0.0133151,1721,554,15.4744,16.1285
504,470,15.4698,-15.5674,0.000862237,0.00120527,0.000509228,0.00157109,0.000496418,0.947841,0.000927325,0.0192981,1728,554,15.4698,15.5674
511,470,15.4556,-15.0164,0.000258898,0.00114894,0.000686036,0.00152165,-0.000113815,1.07312,0.00105442,0.0260174,1735,554,15.4556,15.0164
518,470,15.4392,-14.4352,-0.000438958,0.00111296,0.000776385,0.00143467,-0.000760672,1.17796,0.00128724,0.0258711,1742,554,15.4393,14.4352
525,470,15.3962,-13.8145,-0.00112964,0.00110863,0.00082153,0.0013778,-0.0013988,1.25418,0.00160309,0.0159408,1749,554,15.3962,13.8145
532,470,15.3544,-13.1613,-0.00185073,0.00118628,0.000829286,0.00139797,-0.00206242,1.32087,0.00201009,0.0138679,1756,554,15.3544,13.1613
539,470,15.3359,-12.5554,-0.00256864,0.00133688,0.000795874,0.00149284,-0.00272459,1.37729,0.00246931,0.0171499,1763,554,15.3359,12.5554
546,470,15.3235,-11.9782,-0.00320882,0.00169256,0.000778391,0.0018132,-0.00332947,1.41702,0.00301183,0.0153363,1770,554,15.3235,11.9782
553,470,15.3328,-11.3618,-0.00378496,0.00240248,0.000840463,0.00251461,-0.00389709,1.43816,0.00373037,0.0232852,1777,554,15.3327,11.3618
560,470,15.3802,-10.5425,0,0,0,0,0,0,0,-1,1784,554,15.3802,10.5426
567,470,15.2928,-9.87372,0,0,0,0,0,0,0,-1,1791,554,15.2929,9.87374
574,470,14.2793,-8.07147,0,0,0,0,0,0,0,-1,1798,554,14.2793,8.07147
581,470,8.24646,-4.06317,0,0,0,0,0,0,0,-1,1805,554,8.24648,4.06318
588,470,11.1803,1.74927,0,0,0,0,0,0,0,-1,1812,554,11.1803,-1.74926
595,470,4.72192,3.44116,0,0,0,0,0,0,0,-1,1819,554,4.72191,-3.44116
602,470,14.4307,2.76141,0,0,0,0,0,0,0,-1,1826,554,14.4306,-2.76139
609,470,20.9181,4.41058,0,0,0,0,0,0,0,-1,1833,554,20.9181,-4.4106
616,470,0,0,0,0,0,0,0,0,0,-1,1840,554,0,0
623,470,0,0,0,0,0,0,0,0,0,-1,1847,554,0,0
630,470,0,0,0,0,0,0,0,0,0,-1,1854,554,0,0
637,470,0,0,0,0,0,0,0,0,0,-1,1861,554,0,0
644,470,0,0,0,0,0,0,0,0,0,-1,1868,554,0,0
651,470,0,0,0,0,0,0,0,0,0,-1,1875,554,0,0
658,470,0,0,0,0,0,0,0,0,0,-1,1882,554,0,0
665,470,0,0,0,0,0,0,0,0,0,-1,1889,554,0,0
672,470,0,0,0,0,0,0,0,0,0,-1,1896,554,0,0
679,470,0,0,0,0,0,0,0,0,0,-1,1903,554,0,0
686,470,0,0,0,0,0,0,0,0,0,-1,1910,554,0,0
693,470,0,0,0,0,0,0,0,0,0,-1,1917,554,0,0
700,470,0,0,0,0,0,0,0,0,0,-1,1924,554,0,0
707,470,0,0,0,0,0,0,0,0,0,-1,1931,554,0,0
714,470,0,0,0,0,0,0,0,0,0,-1,1938,554,0,0
721,470,0,0,0,0,0,0,0,0,0,-1,1945,554,0,0
728,470,0,0,0,0,0,0,0,0,0,-1,1952,554,0,0
735,470,0,0,0,0,0,0,0,0,0,-1,1959,554,0,0
742,470,0,0,0,0,0,0,0,0,0,-1,1966,554,0,0
749,470,0,0,0,0,0,0,0,0,0,-1,1973,554,0,0
756,470,0,0,0,0,0,0,0,0,0,-1,1980,554,0,0
763,470,0,0,0,0,0,0,0,0,0,-1,1987,554,0,0
770,470,0,0,0,0,0,0,0,0,0,-1,1994,554,0,0
777,470,0,0,0,0,0,0,0,0,0,-1,2001,554,0,0
784,470,0,0,0,0,0,0,0,0,0,-1,2008,554,0,0
791,470,0,0,0,0,0,0,0,0,0,-1,2015,554,0,0
798,470,0,0,0,0,0,0,0,0,0,-1,2022,554,0,0
805,470,0,0,0,0,0,0,0,0,0,-1,2029,554,0,0
812,470,0,0,0,0,0,0,0,0,0,-1,2036,554,0,0
-700,463,0,0,0,0,0,0,0,0,0,-1,524,561,0,0
-693,463,0,0,0,0,0,0,0,0,0,-1,531,561,0,0
-686,463,0,0,0,0,0,0,0,0,0,-1,538,561,0,0
-679,463,0,0,0,0,0,0,0,0,0,-1,545,561,0,0
-672,463,0,0,0,0,0,0,0,0,0,-1,552,561,0,0
-665,463,0,0,0,0,0,0,0,0,0,-1,559,561,0,0
-658,463,0,0,0,0,0,0,0,0,0,-1,566,561,0,0
-651,463,0,0,0,0,0,0,0,0,0,-1,573,561,0,0
-644,463,0,0,0,0,0,0,0,0,0,-1,580,561,0,0
-637,463,0,0,0,0,0,0,0,0,0,-1,587,561,0,0
-630,463,0,0,0,0,0,0,0,0,0,-1,594,561,0,0
-623,463,0,0,0,0,0,0,0,0,0,-1,601,561,0,0
-616,463,0,0,0,0,0,0,0,0,0,-1,608,561,0,0
-609,463,0,0,0,0,0,0,0,0,0,-1,615,561,0,0
-602,463,0,0,0,0,0,0,0,0,0,-1,622,561,0,0
-595,463,0,0,0,0,0,0,0,0,0,-1,629,561,0,0
-588,463,0,0,0,0,0,0,0,0,0,-1,636,561,0,0
-581,463,0,0,0,0,0,0,0,0,0,-1,643,561,0,0
-574,463,0,0,0,0,0,0,0,0,0,-1,650,561,0,0
-567,463,0,0,0,0,0,0,0,0,0,-1,657,561,0,0
-560,463,0,0,0,0,0,0,0,0,0,-1,664,561,0,0
-553,463,0,0,0,0,0,0,0,0,0,-1,671,561,0,0
-546,463,0,0,0,0,0,0,0,0,0,-1,678,561,0,0
-539,463,0,0,0,0,0,0,0,0,0,-1,685,561,0,0
-532,463,0,0,0,0,0,0,0,0,0,-1,692,561,0,0
-525,463,0,0,0,0,0,0,0,0,0,-1,699,561,0,0
-518,463,0,0,0,0,0,0,0,0,0,-1,706,561,0,0
-511,463,0,0,0,0,0,0,0,0,0,-1,713,561,0,0
-504,463,0,0,0,0,0,0,0,0,0,-1,720,561,0,0
-497,463,-9.81451,-1.67126,0,0,0,0,0,0,0,-1,727,561,-9.81452,1.67127
-490,463,-8.57043,-1.58942,0,0,0,0,0,0,0,-1,734,561,-8.57045,1.58944
-483,463,-7.29224,-1.7226,0,0,0,0,0,0,0,-1,741,561,-7.29226,1.72261
-476,463,-5.77704,-1.7312,0,0,0,0,0,0,0,-1,748,561,-5.77703,1.73121
-469,463,-5.14545,-2.138,0,0,0,0,0,0,0,-1,755,561,-5.14546,2.13799
-462,463,-3.13672,-3.07977,0,0,0,0,0,0,0,-1,762,561,-3.13672,3.07974
-455,463,-2.91406,-5.61798,0,0,0,0,0,0,0,-1,769,561,-2.91406,5.61801
-448,463,-4.00177,-8.54681,0,0,0,0,0,0,0,-1,776,561,-4.00175,8.54683
-441,463,-5.62927,-11.4644,0,0,0,0,0,0,0,-1,783,561,-5.62928,11.4643
-434,463,-5.52832,-12.2207,-0.00104881,0.00965241,-0.00285227,0.0103652,-0.00176157,-1.32592,0.00756598,0.0272428,790,561,-5.52833,12.2207
-427,463,-5.53687,-12.817,-0.00056425,0.00839492,-0.00269372,0.00914246,-0.00131179,-1.3001,0.00657599,0.0107061,797,561,-5.53688,12.817
-420,463,-5.53387,-13.3976,-0.000122488,0.00713135,-0.00256166,0.00794477,-0.000935911,-1.26333,0.00563445,0.0104702,804,561,-5.5339,13.3976
-413,463,-5.5556,-13.9927,0.000180102,0.00569524,-0.00221384,0.00647395,-0.000598606,-1.23257,0.00452871,0.0101942,811,561,-5.55561,13.9927
-406,463,-5.5827,-14.5724,0.000500766,0.00444316,-0.00190339,0.00521213,-0.000268203,-1.18685,0.00356751,0.00962943,818,561,-5.58273,14.5724
-399,463,-5.59576,-15.1263,0.000783596,0.00318259,-0.00151013,0.00391164,5.45455e-05,-1.12103,0.00258977,0.0107693,825,561,-5.59574,15.1263
-392,463,-5.61896,-15.7006,0.00109941,0.00185563,-0.00104307,0.00258702,0.000368032,-0.95928,0.00161603,0.0110901,832,561,-5.61897,15.7006
-385,463,-5.65405,-16.2932,0.00145718,0.000652753,-0.000571953,0.00175419,0.000355749,-0.478953,0.00107076,0.0111441,839,561,-5.65407,16.2932
-378,463,-5.67975,-16.8496,0.00178921,-0.000498066,-4.97612e-05,0.0017903,-0.000499149,-0.0217419,0.00139011,0.011957,846,561,-5.67976,16.8496
-371,463,-5.69818,-17.3966,0.00215157,-0.00156566,0.000494645,0.00221627,-0.00163036,0.130053,0.00222942,0.012124,853,561,-5.69821,17.3966
-364,463,-5.6991,-17.9036,0.0026415,-0.00243077,0.000935685,0.00280861,-0.00259787,0.176724,0.00312222,0.0143077,860,561,-5.69912,17.9036
-357,463,-5.73914,-18.4153,0.00329486,-0.00323147,0.00122431,0.00351698,-0.00345358,0.179468,0.00402451,0.0208418,867,561,-5.73914,18.4154
-350,463,-5.64105,-19.0492,0.00419479,-0.0036426,0.00123483,0.00438474,-0.00383255,0.152632,0.00474783,0.0402869,874,561,-5.64105,19.0492
-343,463,-5.43597,-19.4769,0,0,0,0,0,0,0,-1,881,561,-5.436,19.4769
-336,463,-2.94928,-12.2127,0,0,0,0,0,0,0,-1,888,561,-2.94925,12.2127
-329,463,-2.64307,-12.7037,0,0,0,0,0,0,0,-1,895,561,-2.64307,12.7038
-322,463,-1.82898,-9.11957,0,0,0,0,0,0,0,-1,902,561,-1.829,9.11957
-315,463,-0.944763,-5.96234,0,0,0,0,0,0,0,-1,909,561,-0.94479,5.96237
-308,463,-1.1535,-3.17889,0,0,0,0,0,0,0,-1,916,561,-1.15352,3.17889
-301,463,-1.50366,-3.15338,0,0,0,0,0,0,0,-1,923,561,-1.50364,3.15341
-294,463,-2.35889,-3.93463,0,0,0,0,0,0,0,-1,930,561,-2.35886,3.93465
-287,463,-2.80322,2.73999,0,0,0,0,0,0,0,-1,937,561,-2.80322,-2.74
-280,463,-12.864,5.25146,0,0,0,0,0,0,0,-1,944,561,-12.864,-5.25149
-273,463,-12.4598,3.39178,0,0,0,0,0,0,0,-1,951,561,-12.4598,-3.3918
-266,463,-8.78101,-3.7356,0,0,0,0,0,0,0,-1,958,561,-8.78098,3.73562
-259,463,-6.23285,-5.68842,0,0,0,0,0,0,0,-1,965,561,-6.23288,5.68843
-252,463,0,0,0,0,0,0,0,0,0,-1,972,561,0,0
-245,463,0,0,0,0,0,0,0,0,0,-1,979,561,0,0
-238,463,0,0,0,0,0,0,0,0,0,-1,986,561,0,0
-231,463,0,0,0,0,0,0,0,0,0,-1,993,561,0,0
-224,463,0,0,0,0,0,0,0,0,0,-1,1000,561,0,0
-217,463,0,0,0,0,0,0,0,0,0,-1,1007,561,0,0
-210,463,0,0,0,0,0,0,0,0,0,-1,1014,561,0,0
-203,463,0,0,0,0,0,0,0,0,0,-1,1021,561,0,0
-196,463,0,0,0,0,0,0,0,0,0,-1,1028,561,0,0
-189,463,0,0,0,0,0,0,0,0,0,-1,1035,561,0,0
-182,463,0,0,0,0,0,0,0,0,0,-1,1042,561,0,0
-175,463,0,0,0,0,0,0,0,0,0,-1,1049,561,0,0
-168,463,0,0,0,0,0,0,0,0,0,-1,1056,561,0,0
-161,463,0,0,0,0,0,0,0,0,0,-1,1063,561,0,0
-154,463,0,0,0,0,0,0,0,0,0,-1,1070,561,0,0
-147,463,0,0,0,0,0,0,0,0,0,-1,1077,561,0,0
-140,463,0,0,0,0,0,0,0,0,0,-1,1084,561,0,0
-133,463,0,0,0,0,0,0,0,0,0,-1,1091,561,0,0
-126,463,0,0,0,0,0,0,0,0,0,-1,1098,561,0,0
-119,463,0,0,0,0,0,0,0,0,0,-1,1105,561,0,0
-112,463,0,0,0,0,0,0,0,0,0,-1,1112,561,0,0
-105,463,0,0,0,0,0,0,0,0,0,-1,1119,561,0,0
-98,463,0,0,0,0,0,0,0,0,0,-1,1126,561,0,0
-91,463,0,0,0,0,0,0,0,0,0,-1,1133,561,0,0
-84,463,0,0,0,0,0,0,0,0,0,-1,1140,561,0,0
-77,463,0,0,0,0,0,0,0,0,0,-1,1147,561,0,0
-70,463,0,0,0,0,0,0,0,0,0,-1,1154,561,0,0
-63,463,0,0,0,0,0,0,0,0,0,-1,1161,561,0,0
-56,463,0,0,0,0,0,0,0,0,0,-1,1168,561,0,0
-49,463,0,0,0,0,0,0,0,0,0,-1,1175,561,0,0
-42,463,0,0,0,0,0,0,0,0,0,-1,1182,561,0,0
-35,463,0,0,0,0,0,0,0,0,0,-1,1189,561,0,0
-28,463,0,0,0,0,0,0,0,0,0,-1,1196,561,0,0
-21,463,0,0,0,0,0,0,0,0,0,-1,1203,561,0,0
-14,463,0,0,0,0,0,0,0,0,0,-1,1210,561,0,0
-7,463,0,0,0,0,0,0,0,0,0,-1,1217,561,0,0
0,463,0,0,0,0,0,0,0,0,0,-1,1224,561,0,0
7,463,0,0,0,0,0,0,0,0,0,-1,1231,561,0,0
14,463,0,0,0,0,0,0,0,0,0,-1,1238,561,0,0
21,463,0,0,0,0,0,0,0,0,0,-1,1245,561,0,0
28,463,0,0,0,0,0,0,0,0,0,-1,1252,561,0,0
35,463,0,0,0,0,0,0,0,0,0,-1,1259,561,0,0
42,463,0,0,0,0,0,0,0,0,0,-1,1266,561,0,0
49,463,0,0,0,0,0,0,0,0,0,-1,1273,561,0,0
56,463,0,0,0,0,0,0,0,0,0,-1,1280,561,0,0
63,463,0,0,0,0,0,0,0,0,0,-1,1287,561,0,0
70,463,0,0,0,0,0,0,0,0,0,-1,1294,561,0,0
77,463,0,0,0,0,0,0,0,0,0,-1,1301,561,0,0
84,463,0,0,0,0,0,0,0,0,0,-1,1308,561,0,0
91,463,0,0,0,0,0,0,0,0,0,-1,1315,561,0,0
98,463,0,0,0,0,0,0,0,0,0,-1,1322,561,0,0
105,463,0,0,0,0,0,0,0,0,0,-1,1329,561,0,0
112,463,0,0,0,0,0,0,0,0,0,-1,1336,561,0,0
119,463,0,0,0,0,0,0,0,0,0,-1,1343,561,0,0
126,463,0,0,0,0,0,0,0,0,0,-1,1350,561,0,0
133,463,0,0,0,0,0,0,0,0,0,-1,1357,561,0,0
140,463,0,0,0,0,0,0,0,0,0,-1,1364,561,0,0
147,463,0,0,0,0,0,0,0,0,0,-1,1371,561,0,0
154,463,0,0,0,0,0,0,0,0,0,-1,1378,561,0,0
161,463,0,0,0,0,0,0,0,0,0,-1,1385,561,0,0
168,463,0,0,0,0,0,0,0,0,0,-1,1392,561,0,0
175,463,0,0,0,0,0,0,0,0,0,-1,1399,561,0,0
182,463,0,0,0,0,0,0,0,0,0,-1,1406,561,0,0
189,463,0,0,0,0,0,0,0,0,0,-1,1413,561,0,0
196,463,0,0,0,0,0,0,0,0,0,-1,1420,561,0,0
203,463,0,0,0,0,0,0,0,0,0,-1,1427,561,0,0
210,463,0,0,0,0,0,0,0,0,0,-1,1434,561,0,0
217,463,0,0,0,0,0,0,0,0,0,-1,1441,561,0,0
224,463,0,0,0,0,0,0,0,0,0,-1,1448,561,0,0
231,463,0,0,0,0,0,0,0,0,0,-1,1455,561,0,0
238,463,0,0,0,0,0,0,0,0,0,-1,1462,561,0,0
245,463,0,0,0,0,0,0,0,0,0,-1,1469,561,0,0
252,463,0,0,0,0,0,0,0,0,0,-1,1476,561,0,0
259,463,0,0,0,0,0,0,0,0,0,-1,1483,561,0,0
266,463,0,0,0,0,0,0,0,0,0,-1,1490,561,0,0
273,463,0,0,0,0,0,0,0,0,0,-1,1497,561,0,0
280,463,0,0,0,0,0,0,0,0,0,-1,1504,561,0,0
287,463,0,0,0,0,0,0,0,0,0,-1,1511,561,0,0
294,463,0,0,0,0,0,0,0,0,0,-1,1518,561,0,0
301,463,0,0,0,0,0,0,0,0,0,-1,1525,561,0,0
308,463,0,0,0,0,0,0,0,0,0,-1,1532,561,0,0
315,463,0,0,0,0,0,0,0,0,0,-1,1539,561,0,0
322,463,0,0,0,0,0,0,0,0,0,-1,1546,561,0,0
329,463,0,0,0,0,0,0,0,0,0,-1,1553,561,0,0
336,463,0,0,0,0,0,0,0,0,0,-1,1560,561,0,0
343,463,0,0,0,0,0,0,0,0,0,-1,1567,561,0,0
350,463,0,0,0,0,0,0,0,0,0,-1,1574,561,0,0
357,463,0,0,0,0,0,0,0,0,0,-1,1581,561,0,0
364,463,0,0,0,0,0,0,0,0,0,-1,1588,561,0,0
371,463,1.75842,0.152588,0,0,0,0,0,0,0,-1,1595,561,1.75844,-0.152558
378,463,4.58813,-0.0444336,0,0,0,0,0,0,0,-1,1602,561,4.58809,0.0444505
385,463,8.88574,1.65057,0,0,0,0,0,0,0,-1,1609,561,8.88575,-1.65055
392,463,14.0912,2.50513,0,0,0,0,0,0,0,-1,1616,561,14.0912,-2.5051
399,463,21.4769,2.7002,0,0,0,0,0,0,0,-1,1623,561,21.477,-2.70017
406,463,26.2987,4.32318,0,0,0,0,0,0,0,-1,1630,561,26.2987,-4.3232
413,463,26.5011,2.65222,0,0,0,0,0,0,0,-1,1637,561,26.5011,-2.65224
420,463,8.849,2.26611,0,0,0,0,0,0,0,-1,1644,561,8.84899,-2.26613
427,463,5.12207,1.69183,0,0,0,0,0,0,0,-1,1651,561,5.12206,-1.69184
434,463,4.59814,1.81995,0,0,0,0,0,0,0,-1,1658,561,4.59812,-1.81994
441,463,1.76392,-5.99225,0,0,0,0,0,0,0,-1,1665,561,1.7639,5.99225
448,463,2.49939,-4.30536,0,0,0,0,0,0,0,-1,1672,561,2.49941,4.30536
455,463,4.40295,-3.02557,0,0,0,0,0,0,0,-1,1679,561,4.40299,3.02558
462,463,5.38293,-4.06445,0,0,0,0,0,0,0,-1,1686,561,5.38289,4.06444
469,463,5.94373,-4.50647,0,0,0,0,0,0,0,-1,1693,561,5.94368,4.50646
476,463,15.2559,-17.3189,0,0,0,0,0,0,0,-1,1700,561,15.2558,17.3189
483,463,16.0925,-17.3823,0,0,0,0,0,0,0,-1,1707,561,16.0925,17.3823
490,463,16.0773,-16.7094,0.002069,0.0014417,0.00030644,0.00219385,0.00131685,0.386884,0.00127508,0.0238796,1714,561,16.0773,16.7094
497,463,16.0431,-16.1124,0.00180921,0.00141563,0.000518521,0.00216703,0.00105781,0.604031,0.00125125,0.0133085,1721,561,16.0431,16.1123
504,463,16.0377,-15.545,0.00146976,0.0013115,0.000627286,0.00202289,0.000758376,0.722656,0.00118004,0.0164178,1728,561,16.0377,15.545
511,463,16.0267,-14.9627,0.00105295,0.00119248,0.000705727,0.00183188,0.000413547,0.834666,0.0011094,0.0227616,1735,561,16.0267,14.9627
518,463,16.015,-14.3668,0.000550955,0.00110852,0.000731805,0.00161285,4.66307e-05,0.967388,0.00106003,0.0235404,1742,561,16.0151,14.3668
525,463,15.9889,-13.7861,5.26637e-05,0.00110051,0.000731411,0.00147629,-0.000323111,1.0962,0.00110772,0.0183981,1749,561,15.9889,13.7861
532,463,15.9926,-13.1639,-0.000487658,0.00117564,0.000710641,0.00143791,-0.000749925,1.21725,0.00128379,0.0159443,1756,561,15.9926,13.1639
539,463,15.9498,-12.5199,-0.00103281,0.00131919,0.000685209,0.00150425,-0.00121788,1.30701,0.00157451,0.0172137,1763,561,15.9498,12.5199
546,463,15.9175,-11.9753,-0.00150753,0.00166893,0.000695329,0.00181447,-0.00165307,1.36446,0.00200271,0.0137479,1770,561,15.9175,11.9753
553,463,15.9114,-11.3702,-0.00192496,0.00226845,0.000781968,0.00240952,-0.00206603,1.39231,0.0025865,0.0114904,1777,561,15.9113,11.3702
560,463,15.9137,-10.6418,-0.00218944,0.00300807,0.000986923,0.00318916,-0.00237053,1.38932,0.00322147,0.0209779,1784,561,15.9137,10.6418
567,463,15.7858,-10.0401,-0.00219638,0.00395075,0.0013393,0.00422988,-0.0024755,1.36533,0.00391527,0.0292019,1791,561,15.7858,10.0401
574,463,15.8666,-9.45679,0,0,0,0,0,0,0,-1,1798,561,15.8665,9.45681
581,463,9.4939,-3.88245,0,0,0,0,0,0,0,-1,1805,561,9.49392,3.88245
588,463,1.97424,2.16016,0,0,0,0,0,0,0,-1,1812,561,1.97422,-2.16013
595,463,9.98657,2.99854,0,0,0,0,0,0,0,-1,1819,561,9.98662,-2.99856
602,463,17.2202,4.91302,0,0,0,0,0,0,0,-1,1826,561,17.2202,-4.91305
609,463,17.96,4.03131,0,0,0,0,0,0,0,-1,1833,561,17.96,-4.03132
616,463,20.8352,3.15131,0,0,0,0,0,0,0,-1,1840,561,20.8352,-3.1513
623,463,0,0,0,0,0,0,0,0,0,-1,1847,561,0,0
630,463,0,0,0,0,0,0,0,0,0,-1,1854,561,0,0
637,463,0,0,0,0,0,0,0,0,0,-1,1861,561,0,0
644,463,0,0,0,0,0,0,0,0,0,-1,1868,561,0,0
651,463,0,0,0,0,0,0,0,0,0,-1,1875,561,0,0
658,463,0,0,0,0,0,0,0,0,0,-1,1882,561,0,0
665,463,0,0,0,0,0,0,0,0,0,-1,1889,561,0,0
672,463,0,0,0,0,0,0,0,0,0,-1,1896,561,0,0
679,463,0,0,0,0,0,0,0,0,0,-1,1903,561,0,0
686,463,0,0,0,0,0,0,0,0,0,-1,1910,561,0,0
693,463,0,0,0,0,0,0,0,0,0,-1,1917,561,0,0
700,463,0,0,0,0,0,0,0,0,0,-1,1924,561,0,0
707,463,0,0,0,0,0,0,0,0,0,-1,1931,561,0,0
714,463,0,0,0,0,0,0,0,0,0,-1,1938,561,0,0
721,463,0,0,0,0,0,0,0,0,0,-1,1945,561,0,0
728,463,0,0,0,0,0,0,0,0,0,-1,1952,561,0,0
735,463,0,0,0,0,0,0,0,0,0,-1,1959,561,0,0
742,463,0,0,0,0,0,0,0,0,0,-1,1966,561,0,0
749,463,0,0,0,0,0,0,0,0,0,-1,1973,561,0,0
756,463,0,0,0,0,0,0,0,0,0,-1,1980,561,0,0
763,463,0,0,0,0,0,0,0,0,0,-1,1987,561,0,0
770,463,0,0,0,0,0,0,0,0,0,-1,1994,561,0,0
777,463,0,0,0,0,0,0,0,0,0,-1,2001,561,0,0
784,463,0,0,0,0,0,0,0,0,0,-1,2008,561,0,0
791,463,0,0,0,0,0,0,0,0,0,-1,2015,561,0,0
798,463,0,0,0,0,0,0,0,0,0,-1,2022,561,0,0
805,463,0,0,0,0,0,0,0,0,0,-1,2029,561,0,0
812,463,0,0,0,0,0,0,0,0,0,-1,2036,561,0,0
-700,456,0,0,0,0,0,0,0,0,0,-1,524,568,0,0
-693,456,0,0,0,0,0,0,0,0,0,-1,531,568,0,0
-686,456,0,0,0,0,0,0,0,0,0,-1,538,568,0,0
-679,456,0,0,0,0,0,0,0,0,0,-1,545,568,0,0
-672,456,0,0,0,0,0,0,0,0,0,-1,552,568,0,0
-665,456,0,0,0,0,0,0,0,0,0,-1,559,568,0,0
-658,456,0,0,0,0,0,0,0,0,0,-1,566,568,0,0
-651,456,0,0,0,0,0,0,0,0,0,-1,573,568,0,0
-644,456,0,0,0,0,0,0,0,0,0,-1,580,568,0,0
-637,456,0,0,0,0,0,0,0,0,0,-1,587,568,0,0
-630,456,0,0,0,0,0,0,0,0,0,-1,594,568,0,0
-623,456,0,0,0,0,0,0,0,0,0,-1,601,568,0,0
-616,456,0,0,0,0,0,0,0,0,0,-1,608,568,0,0
-609,456,0,0,0,0,0,0,0,0,0,-1,615,568,0,0
-602,456,0,0,0,0,0,0,0,0,0,-1,622,568,0,0
-595,456,0,0,0,0,0,0,0,0,0,-1,629,568,0,0
-588,456,0,0,0,0,0,0,0,0,0,-1,636,568,0,0
-581,456,0,0,0,0,0,0,0,0,0,-1,643,568,0,0
-574,456,0,0,0,0,0,0,0,0,0,-1,650,568,0,0
-567,456,0,0,0,0,0,0,0,0,0,-1,657,568,0,0
-560,456,0,0,0,0,0,0,0,0,0,-1,664,568,0,0
-553,456,0,0,0,0,0,0,0,0,0,-1,671,568,0,0
-546,456,0,0,0,0,0,0,0,0,0,-1,678,568,0,0
-539,456,0,0,0,0,0,0,0,0,0,-1,685,568,0,0
-532,456,0,0,0,0,0,0,0,0,0,-1,692,568,0,0
-525,456,0,0,0,0,0,0,0,0,0,-1,699,568,0,0
-518,456,0,0,0,0,0,0,0,0,0,-1,706,568,0,0
-511,456,0,0,0,0,0,0,0,0,0,-1,713,568,0,0
-504,456,-10.3994,-2.34839,0,0,0,0,0,0,0,-1,720,568,-10.3994,2.3484
-497,456,-9.21375,-2.38068,0,0,0,0,0,0,0,-1,727,568,-9.21372,2.38069
-490,456,-8.09058,-2.31824,0,0,0,0,0,0,0,-1,734,568,-8.09057,2.31821
-483,456,-6.66119,-2.24329,0,0,0,0,0,0,0,-1,741,568,-6.66121,2.24331
-476,456,-5.1499,-2.21185,0,0,0,0,0,0,0,-1,748,568,-5.14992,2.21184
-469,456,-2.81238,-3.51501,0,0,0,0,0,0,0,-1,755,568,-2.81237,3.51501
-462,456,-4.2431,-5.27478,0,0,0,0,0,0,0,-1,762,568,-4.24312,5.27476
-455,456,-5.98364,-8.72119,0,0,0,0,0,0,0,-1,769,568,-5.98364,8.72122
-448,456,-6.151,-10.6245,0,0,0,0,0,0,0,-1,776,568,-6.15101,10.6244
-441,456,-5.98187,-11.5602,-0.000879388,0.00866926,-0.00277805,0.00941868,-0.00162881,-1.3073,0.00688656,0.0318857,783,568,-5.98186,11.5602
-434,456,-6.10205,-12.2102,-0.000603336,0.00738048,-0.00236096,0.0080264,-0.00124926,-1.30375,0.00581228,0.0166758,790,568,-6.10203,12.2102
-427,456,-6.10193,-12.7994,-0.000298407,0.00623193,-0.00205302,0.00682373,-0.000890208,-1.29015,0.00487307,0.00948907,797,568,-6.10191,12.7995
-420,456,-6.12073,-13.3813,2.85424e-05,0.00509651,-0.00180871,0.00567581,-0.000550753,-1.26084,0.00398018,0.00948227,804,568,-6.12076,13.3813
-413,456,-6.13916,-13.9616,0.000246101,0.00378104,-0.00139134,0.00426297,-0.000235826,-1.23735,0.00292376,0.00887913,811,568,-6.13917,13.9616
-406,456,-6.17023,-14.5319,0.000518016,0.00266475,-0.00105946,0.00309955,8.3213e-05,-1.18136,0.00203919,0.00862835,818,568,-6.17024,14.5319
-399,456,-6.18262,-15.0825,0.000814211,0.00156151,-0.000701734,0.00198287,0.000392847,-1.03004,0.00121237,0.0104864,825,568,-6.18265,15.0825
-392,456,-6.19672,-15.6644,0.00116989,0.000399282,-0.000296965,0.00127105,0.000298121,-0.328319,0.00076754,0.0107252,832,568,-6.19671,15.6644
-385,456,-6.22815,-16.2542,0.00157288,-0.000630124,9.74609e-05,0.00157718,-0.000634428,0.0441252,0.00131497,0.0100745,839,568,-6.22814,16.2542
-378,456,-6.2597,-16.8318,0.0019368,-0.00165265,0.000577933,0.00202756,-0.00174341,0.155766,0.00217923,0.010708,846,568,-6.2597,16.8319
-371,456,-6.26068,-17.3627,0.00238889,-0.00251947,0.00106396,0.0026096,-0.00274017,0.204536,0.003089,0.0118294,853,568,-6.26066,17.3628
-364,456,-6.2392,-17.8591,0.00305116,-0.00308699,0.00138372,0.00334867,-0.0033845,0.211785,0.00388741,0.0237483,860,568,-6.23923,17.8591
-357,456,-6.19476,-18.4793,0,0,0,0,0,0,0,-1,867,568,-6.19475,18.4793
-350,456,-6.04248,-19.2637,0,0,0,0,0,0,0,-1,874,568,-6.04245,19.2636
-343,456,-3.39081,-12.0217,0,0,0,0,0,0,0,-1,881,568,-3.39078,12.0217
-336,456,-3.04517,-12.4623,0,0,0,0,0,0,0,-1,888,568,-3.04519,12.4624
-329,456,-1.06183,-10.7184,0,0,0,0,0,0,0,-1,895,568,-1.06184,10.7184
-322,456,-0.662537,-7.66632,0,0,0,0,0,0,0,-1,902,568,-0.662564,7.66633
-315,456,-0.675476,-3.38397,0,0,0,0,0,0,0,-1,909,568,-0.675473,3.38399
-308,456,-1.1618,-3.15314,0,0,0,0,0,0,0,-1,916,568,-1.16178,3.15314
-301,456,-1.83551,-3.26447,0,0,0,0,0,0,0,-1,923,568,-1.8355,3.26449
-294,456,-2.93414,-3.35449,0,0,0,0,0,0,0,-1,930,568,-2.93413,3.35451
-287,456,-3.7569,-3.53101,0,0,0,0,0,0,0,-1,937,568,-3.75692,3.53101
-280,456,-13.072,4.52856,0,0,0,0,0,0,0,-1,944,568,-13.072,-4.52855
-273,456,-8.26538,-6.66748,0,0,0,0,0,0,0,-1,951,568,-8.26536,6.66745
-266,456,-5.71527,-9.36884,0,0,0,0,0,0,0,-1,958,568,-5.71529,9.36885
-259,456,0,0,0,0,0,0,0,0,0,-1,965,568,0,0
-252,456,0,0,0,0,0,0,0,0,0,-1,972,568,0,0
-245,456,0,0,0,0,0,0,0,0,0,-1,979,568,0,0
-238,456,0,0,0,0,0,0,0,0,0,-1,986,568,0,0
-231,456,0,0,0,0,0,0,0,0,0,-1,993,568,0,0
-224,456,0,0,0,0,0,0,0,0,0,-1,1000,568,0,0
-217,456,0,0,0,0,0,0,0,0,0,-1,1007,568,0,0
-210,456,0,0,0,0,0,0,0,0,0,-1,1014,568,0,0
-203,456,0,0,0,0,0,0,0,0,0,-1,1021,568,0,0
-196,456,0,0,0,0,0,0,0,0,0,-1,1028,568,0,0
-189,456,0,0,0,0,0,0,0,0,0,-1,1035,568,0,0
-182,456,0,0,0,0,0,0,0,0,0,-1,1042,568,0,0
-175,456,0,0,0,0,0,0,0,0,0,-1,1049,568,0,0
-168,456,0,0,0,0,0,0,0,0,0,-1,1056,568,0,0
-161,456,0,0,0,0,0,0,0,0,0,-1,1063,568,0,0
-154,456,0,0,0,0,0,0,0,0,0,-1,1070,568,0,0
-147,456,0,0,0,0,0,0,0,0,0,-1,1077,568,0,0
-140,456,0,0,0,0,0,0,0,0,0,-1,1084,568,0,0
-133,456,0,0,0,0,0,0,0,0,0,-1,1091,568,0,0
-126,456,0,0,0,0,0,0,0,0,0,-1,1098,568,0,0
-119,456,0,0,0,0,0,0,0,0,0,-1,1105,568,0,0
-112,456,0,0,0,0,0,0,0,0,0,-1,1112,568,0,0
-105,456,0,0,0,0,0,0,0,0,0,-1,1119,568,0,0
-98,456,0,0,0,0,0,0,0,0,0,-1,1126,568,0,0
-91,456,0,0,0,0,0,0,0,0,0,-1,1133,568,0,0
-84,456,0,0,0,0,0,0,0,0,0,-1,1140,568,0,0
-77,456,0,0,0,0,0,0,0,0,0,-1,1147,568,0,0
-70,456,0,0,0,0,0,0,0,0,0,-1,1154,568,0,0
-63,456,0,0,0,0,0,0,0,0,0,-1,1161,568,0,0
-56,456,0,0,0,0,0,0,0,0,0,-1,1168,568,0,0
-49,456,0,0,0,0,0,0,0,0,0,-1,1175,568,0,0
-42,456,0,0,0,0,0,0,0,0,0,-1,1182,568,0,0
-35,456,0,0,0,0,0,0,0,0,0,-1,1189,568,0,0
-28,456,0,0,0,0,0,0,0,0,0,-1,1196,568,0,0
-21,456,0,0,0,0,0,0,0,0,0,-1,1203,568,0,0
-14,456,0,0,0,0,0,0,0,0,0,-1,1210,568,0,0
-7,456,0,0,0,0,0,0,0,0,0,-1,1217,568,0,0
0,456,0,0,0,0,0,0,0,0,0,-1,1224,568,0,0
7,456,0,0,0,0,0,0,0,0,0,-1,1231,568,0,0
14,456,0,0,0,0,0,0,0,0,0,-1,1238,568,0,0
21,456,0,0,0,0,0,0,0,0,0,-1,1245,568,0,0
28,456,0,0,0,0,0,0,0,0,0,-1,1252,568,0,0
35,456,0,0,0,0,0,0,0,0,0,-1,1259,568,0,0
42,456,0,0,0,0,0,0,0,0,0,-1,1266,568,0,0
49,456,0,0,0,0,0,0,0,0,0,-1,1273,568,0,0
56,456,0,0,0,0,0,0,0,0,0,-1,1280,568,0,0
63,456,0,0,0,0,0,0,0,0,0,-1,1287,568,0,0
70,456,0,0,0,0,0,0,0,0,0,-1,1294,568,0,0
77,456,0,0,0,0,0,0,0,0,0,-1,1301,568,0,0
84,456,0,0,0,0,0,0,0,0,0,-1,1308,568,0,0
91,456,0,0,0,0,0,0,0,0,0,-1,1315,568,0,0
98,456,0,0,0,0,0,0,0,0,0,-1,1322,568,0,0
105,456,0,0,0,0,0,0,0,0,0,-1,1329,568,0,0
112,456,0,0,0,0,0,0,0,0,0,-1,1336,568,0,0
119,456,0,0,0,0,0,0,0,0,0,-1,1343,568,0,0
126,456,0,0,0,0,0,0,0,0,0,-1,1350,568,0,0
133,456,0,0,0,0,0,0,0,0,0,-1,1357,568,0,0
140,456,0,0,0,0,0,0,0,0,0,-1,1364,568,0,0
147,456,0,0,0,0,0,0,0,0,0,-1,1371,568,0,0
154,456,0,0,0,0,0,0,0,0,0,-1,1378,568,0,0
161,456,0,0,0,0,0,0,0,0,0,-1,1385,568,0,0
168,456,0,0,0,0,0,0,0,0,0,-1,1392,568,0,0
175,456,0,0,0,0,0,0,0,0,0,-1,1399,568,0,0
182,456,0,0,0,0,0,0,0,0,0,-1,1406,568,0,0
189,456,0,0,0,0,0,0,0,0,0,-1,1413,568,0,0
196,456,0,0,0,0,0,0,0,0,0,-1,1420,568,0,0
203,456,0,0,0,0,0,0,0,0,0,-1,1427,568,0,0
210,456,0,0,0,0,0,0,0,0,0,-1,1434,568,0,0
217,456,0,0,0,0,0,0,0,0,0,-1,1441,568,0,0
224,456,0,0,0,0,0,0,0,0,0,-1,1448,568,0,0
231,456,0,0,0,0,0,0,0,0,0,-1,1455,568,0,0
238,456,0,0,0,0,0,0,0,0,0,-1,1462,568,0,0
245,456,0,0,0,0,0,0,0,0,0,-1,1469,568,0,0
252,456,0,0,0,0,0,0,0,0,0,-1,1476,568,0,0
259,456,0,0,0,0,0,0,0,0,0,-1,1483,568,0,0
266,456,0,0,0,0,0,0,0,0,0,-1,1490,568,0,0
273,456,0,0,0,0,0,0,0,0,0,-1,1497,568,0,0
280,456,0,0,0,0,0,0,0,0,0,-1,1504,568,0,0
287,456,0,0,0,0,0,0,0,0,0,-1,1511,568,0,0
294,456,0,0,0,0,0,0,0,0,0,-1,1518,568,0,0
301,456,0,0,0,0,0,0,0,0,0,-1,1525,568,0,0
308,456,0,0,0,0,0,0,0,0,0,-1,1532,568,0,0
315,456,0,0,0,0,0,0,0,0,0,-1,1539,568,0,0
322,456,0,0,0,0,0,0,0,0,0,-1,1546,568,0,0
329,456,0,0,0,0,0,0,0,0,0,-1,1553,568,0,0
336,456,0,0,0,0,0,0,0,0,0,-1,1560,568,0,0
343,456,0,0,0,0,0,0,0,0,0,-1,1567,568,0,0
350,456,0,0,0,0,0,0,0,0,0,-1,1574,568,0,0
357,456,0,0,0,0,0,0,0,0,0,-1,1581,568,0,0
364,456,0,0,0,0,0,0,0,0,0,-1,1588,568,0,0
371,456,0,0,0,0,0,0,0,0,0,-1,1595,568,0,0
378,456,0,0,0,0,0,0,0,0,0,-1,1602,568,0,0
385,456,5.66284,0.660645,0,0,0,0,0,0,0,-1,1609,568,5.66285,-0.660615
392,456,17.5027,4.32971,0,0,0,0,0,0,0,-1,1616,568,17.5026,-4.32971
399,456,24.1917,5.99652,0,0,0,0,0,0,0,-1,1623,568,24.1916,-5.99651
406,456,24.446,4.53003,0,0,0,0,0,0,0,-1,1630,568,24.446,-4.53005
413,456,24.9418,2.90521,0,0,0,0,0,0,0,-1,1637,568,24.9418,-2.90524
420,456,25.3048,1.04712,0,0,0,0,0,0,0,-1,1644,568,25.3048,-1.04713
427,456,6.21375,2.02905,0,0,0,0,0,0,0,-1,1651,568,6.21372,-2.02904
434,456,3.0719,-4.86285,0,0,0,0,0,0,0,-1,1658,568,3.07184,4.86287
441,456,2.90344,-4.70459,0,0,0,0,0,0,0,-1,1665,568,2.90346,4.7046
448,456,3.06995,-4.93689,0,0,0,0,0,0,0,-1,1672,568,3.06991,4.93687
455,456,3.46582,-3.43701,0,0,0,0,0,0,0,-1,1679,568,3.46585,3.43698
462,456,4.68445,-4.45831,0,0,0,0,0,0,0,-1,1686,568,4.68439,4.45833
469,456,4.93201,-2.289,0,0,0,0,0,0,0,-1,1693,568,4.93197,2.28903
476,456,4.8363,-2.79364,0,0,0,0,0,0,0,-1,1700,568,4.83636,2.79363
483,456,12.8522,-13.692,0,0,0,0,0,0,0,-1,1707,568,12.8522,13.6919
490,456,16.6222,-16.7557,0,0,0,0,0,0,0,-1,1714,568,16.6222,16.7557
497,456,16.6892,-16.2139,0.00215967,0.0016086,0.000866995,0.00279386,0.000974408,0.631544,0.00163744,0.0497327,1721,568,16.6892,16.2139
504,456,16.5859,-15.5345,0.00192361,0.00144218,0.000877459,0.00259277,0.000773016,0.651525,0.00153706,0.0129754,1728,568,16.5859,15.5345
511,456,16.6165,-14.9417,0.00164941,0.00122666,0.000865534,0.00232901,0.000547063,0.665635,0.00140625,0.0137916,1735,568,16.6165,14.9417
518,456,16.6273,-14.3428,0.00129159,0.00106955,0.000839074,0.00202695,0.00033418,0.719624,0.00125483,0.0159598,1742,568,16.6273,14.3428
525,456,16.6,-13.7451,0.000914602,0.00104417,0.000798928,0.00178094,0.000177836,0.825854,0.00113268,0.0158571,1749,568,16.5999,13.745
532,456,16.5782,-13.1284,0.000485602,0.00110304,0.000755553,0.00161051,-2.1869e-05,0.979348,0.00108104,0.0162428,1756,568,16.5782,13.1284
539,456,16.5406,-12.5018,5.15929e-05,0.00123283,0.000735671,0.00158563,-0.000301209,1.12363,0.00117048,0.019691,1763,568,16.5407,12.5017
546,456,16.4974,-11.9296,-0.000317711,0.00156311,0.000760245,0.00183197,-0.000586575,1.23087,0.00145675,0.0217999,1770,568,16.4974,11.9296
553,456,16.4645,-11.3117,-0.000638423,0.00205544,0.000862346,0.00230784,-0.000890824,1.28606,0.0019062,0.0137678,1777,568,16.4645,11.3117
560,456,16.4554,-10.7195,-0.000844591,0.0027011,0.0010901,0.00300943,-0.00115292,1.29515,0.00248154,0.0106113,1784,568,16.4555,10.7195
567,456,16.4513,-10.0988,-0.000801106,0.00354611,0.00150193,0.00401454,-0.00126953,1.26847,0.00318502,0.0185353,1791,568,16.4513,10.0987
574,456,16.4614,-9.51239,0,0,0,0,0,0,0,-1,1798,568,16.4615,9.51241
581,456,16.2228,-9.08563,0,0,0,0,0,0,0,-1,1805,568,16.2228,9.08562
588,456,5.23901,-0.0901489,0,0,0,0,0,0,0,-1,1812,568,5.23906,0.0901656
595,456,6.90063,3.14886,0,0,0,0,0,0,0,-1,1819,568,6.90066,-3.14887
602,456,16.894,4.10938,0,0,0,0,0,0,0,-1,1826,568,16.8941,-4.1094
609,456,14.9966,3.5708,0,0,0,0,0,0,0,-1,1833,568,14.9966,-3.57083
616,456,17.7407,2.6579,0,0,0,0,0,0,0,-1,1840,568,17.7408,-2.6579
623,456,20.6838,1.7121,0,0,0,0,0,0,0,-1,1847,568,20.6838,-1.71208
630,456,0,0,0,0,0,0,0,0,0,-1,1854,568,0,0
637,456,0,0,0,0,0,0,0,0,0,-1,1861,568,0,0
644,456,0,0,0,0,0,0,0,0,0,-1,1868,568,0,0
651,456,0,0,0,0,0,0,0,0,0,-1,1875,568,0,0
658,456,0,0,0,0,0,0,0,0,0,-1,1882,568,0,0
665,456,0,0,0,0,0,0,0,0,0,-1,1889,568,0,0
672,456,0,0,0,0,0,0,0,0,0,-1,1896,568,0,0
679,456,0,0,0,0,0,0,0,0,0,-1,1903,568,0,0
686,456,0,0,0,0,0,0,0,0,0,-1,1910,568,0,0
693,456,0,0,0,0,0,0,0,0,0,-1,1917,568,0,0
700,456,0,0,0,0,0,0,0,0,0,-1,1924,568,0,0
707,456,0,0,0,0,0,0,0,0,0,-1,1931,568,0,0
714,456,0,0,0,0,0,0,0,0,0,-1,1938,568,0,0
721,456,0,0,0,0,0,0,0,0,0,-1,1945,568,0,0
728,456,0,0,0,0,0,0,0,0,0,-1,1952,568,0,0
735,456,0,0,0,0,0,0,0,0,0,-1,1959,568,0,0
742,456,0,0,0,0,0,0,0,0,0,-1,1966,568,0,0
749,456,0,0,0,0,0,0,0,0,0,-1,1973,568,0,0
756,456,0,0,0,0,0,0,0,0,0,-1,1980,568,0,0
763,456,0,0,0,0,0,0,0,0,0,-1,1987,568,0,0
770,456,0,0,0,0,0,0,0,0,0,-1,1994,568,0,0
777,456,0,0,0,0,0,0,0,0,0,-1,2001,568,0,0
784,456,0,0,0,0,0,0,0,0,0,-1,2008,568,0,0
791,456,0,0,0,0,0,0,0,0,0,-1,2015,568,0,0
798,456,0,0,0,0,0,0,0,0,0,-1,2022,568,0,0
805,456,0,0,0,0,0,0,0,0,0,-1,2029,568,0,0
812,456,0,0,0,0,0,0,0,0,0,-1,2036,568,0,0
-700,449,0,0,0,0,0,0,0,0,0,-1,524,575,0,0
-693,449,0,0,0,0,0,0,0,0,0,-1,531,575,0,0
-686,449,0,0,0,0,0,0,0,0,0,-1,538,575,0,0
-679,449,0,0,0,0,0,0,0,0,0,-1,545,575,0,0
-672,449,0,0,0,0,0,0,0,0,0,-1,552,575,0,0
-665,449,0,0,0,0,0,0,0,0,0,-1,559,575,0,0
-658,449,0,0,0,0,0,0,0,0,0,-1,566,575,0,0
-651,449,0,0,0,0,0,0,0,0,0,-1,573,575,0,0
-644,449,0,0,0,0,0,0,0,0,0,-1,580,575,0,0
-637,449,0,0,0,0,0,0,0,0,0,-1,587,575,0,0
-630,449,0,0,0,0,0,0,0,0,0,-1,594,575,0,0
-623,449,0,0,0,0,0,0,0,0,0,-1,601,575,0,0
-616,449,0,0,0,0,0,0,0,0,0,-1,608,575,0,0
-609,449,0,0,0,0,0,0,0,0,0,-1,615,575,0,0
-602,449,0,0,0,0,0,0,0,0,0,-1,622,575,0,0
-595,449,0,0,0,0,0,0,0,0,0,-1,629,575,0,0
-588,449,0,0,0,0,0,0,0,0,0,-1,636,575,0,0
-581,449,0,0,0,0,0,0,0,0,0,-1,643,575,0,0
-574,449,0,0,0,0,0,0,0,0,0,-1,650,575,0,0
-567,449,0,0,0,0,0,0,0,0,0,-1,657,575,0,0
-560,449,0,0,0,0,0,0,0,0,0,-1,664,575,0,0
-553,449,0,0,0,0,0,0,0,0,0,-1,671,575,0,0
-546,449,0,0,0,0,0,0,0,0,0,-1,678,575,0,0
-539,449,0,0,0,0,0,0,0,0,0,-1,685,575,0,0
-532,449,0,0,0,0,0,0,0,0,0,-1,692,575,0,0
-525,449,0,0,0,0,0,0,0,0,0,-1,699,575,0,0
-518,449,0,0,0,0,0,0,0,0,0,-1,706,575,0,0
-511,449,-0.941345,-4.4519,0,0,0,0,0,0,0,-1,713,575,-0.941356,4.45191
-504,449,-14.1078,0.318237,0,0,0,0,0,0,0,-1,720,575,-14.1078,-0.318231
-497,449,-8.61292,-3.09009,0,0,0,0,0,0,0,-1,727,575,-8.61291,3.09011
-490,449,-7.50995,-2.96252,0,0,0,0,0,0,0,-1,734,575,-7.50995,2.96251
-483,449,-5.77789,-2.50061,0,0,0,0,0,0,0,-1,741,575,-5.77792,2.50059
-476,449,-4.1723,-2.07739,0,0,0,0,0,0,0,-1,748,575,-4.17228,2.0774
-469,449,-5.0976,-5.78448,0,0,0,0,0,0,0,-1,755,575,-5.09758,5.78451
-462,449,-6.54181,-9.54535,0,0,0,0,0,0,0,-1,762,575,-6.54178,9.54536
-455,449,-6.85638,-10.0557,0,0,0,0,0,0,0,-1,769,575,-6.85638,10.0557
-448,449,-6.5957,-10.8845,-0.000502911,0.00776785,-0.00298641,0.00873345,-0.00146851,-1.25807,0.00636849,0.0395618,776,575,-6.59572,10.8845
-441,449,-6.59473,-11.6717,-0.000498716,0.00646551,-0.00228136,0.00714629,-0.0011795,-1.2808,0.00520213,0.0198504,783,575,-6.59474,11.6717
-434,449,-6.67279,-12.2167,-0.00038072,0.00531081,-0.00175943,0.00581078,-0.000880692,-1.29393,0.00419832,0.013492,790,575,-6.67278,12.2166
-427,449,-6.68817,-12.7761,-0.000214476,0.00427245,-0.00135571,0.00465026,-0.000592288,-1.29901,0.00331529,0.0137215,797,575,-6.68819,12.7761
-420,449,-6.70374,-13.3591,3.11573e-05,0.00327434,-0.00105076,0.00358501,-0.00027952,-1.28332,0.00248842,0.0134591,804,575,-6.70374,13.3591
-413,449,-6.71149,-13.9346,0.000206369,0.00211372,-0.0006176,0.00229623,2.38551e-05,-1.28345,0.00152293,0.0106563,811,575,-6.71147,13.9346
-406,449,-6.74133,-14.5203,0.000474665,0.00115789,-0.000310431,0.00127787,0.000354686,-1.20199,0.000761728,0.00953884,818,575,-6.74135,14.5203
-399,449,-6.76575,-15.0887,0.000845354,0.000236694,-4.08045e-05,0.000848077,0.000233971,-0.0666424,0.000505768,0.00864141,825,575,-6.76577,15.0887
-392,449,-6.76538,-15.6552,0.00132121,-0.00071521,0.0002347,0.00134791,-0.00074191,0.113273,0.00122335,0.00967587,832,575,-6.76537,15.6551
-385,449,-6.78345,-16.2007,0.00185948,-0.00153299,0.000481026,0.00192636,-0.00159988,0.138165,0.00203878,0.0105805,839,575,-6.78342,16.2007
-378,449,-6.82971,-16.761,0.0023636,-0.0023998,0.000847615,0.00250993,-0.00254613,0.170955,0.00291915,0.00935644,846,575,-6.82971,16.761
-371,449,-6.82092,-17.3309,0.00302864,-0.00303731,0.00120111,0.00325781,-0.00326648,0.188534,0.0037668,0.0156416,853,575,-6.82092,17.331
-364,449,-6.77942,-17.9273,0,0,0,0,0,0,0,-1,860,575,-6.77941,17.9273
-357,449,-5.88049,-15.8704,0,0,0,0,0,0,0,-1,867,575,-5.88051,15.8704
-350,449,-2.8764,-9.90204,0,0,0,0,0,0,0,-1,874,575,-2.87638,9.90203
-343,449,-2.98492,-9.2254,0,0,0,0,0,0,0,-1,881,575,-2.98491,9.22541
-336,449,-1.29523,-9.54626,0,0,0,0,0,0,0,-1,888,575,-1.29525,9.54626
-329,449,-0.733398,-7.78937,0,0,0,0,0,0,0,-1,895,575,-0.733398,7.78937
-322,449,-0.628845,-3.16669,0,0,0,0,0,0,0,-1,902,575,-0.628861,3.16667
-315,449,-0.540344,-3.21918,0,0,0,0,0,0,0,-1,909,575,-0.540336,3.21917
-308,449,-1.04413,-2.99341,0,0,0,0,0,0,0,-1,916,575,-1.04415,2.99338
-301,449,-1.58691,-2.80725,0,0,0,0,0,0,0,-1,923,575,-1.58692,2.80728
-294,449,-3.71118,-2.76086,0,0,0,0,0,0,0,-1,930,575,-3.71119,2.76087
-287,449,-4.4082,-2.69525,0,0,0,0,0,0,0,-1,937,575,-4.40822,2.69526
-280,449,-0.847107,-12.8969,0,0,0,0,0,0,0,-1,944,575,-0.847097,12.8969
-273,449,0,0,0,0,0,0,0,0,0,-1,951,575,0,0
-266,449,0,0,0,0,0,0,0,0,0,-1,958,575,0,0
-259,449,0,0,0,0,0,0,0,0,0,-1,965,575,0,0
-252,449,0,0,0,0,0,0,0,0,0,-1,972,575,0,0
-245,449,0,0,0,0,0,0,0,0,0,-1,979,575,0,0
-238,449,0,0,0,0,0,0,0,0,0,-1,986,575,0,0
-231,449,0,0,0,0,0,0,0,0,0,-1,993,575,0,0
-224,449,0,0,0,0,0,0,0,0,0,-1,1000,575,0,0
-217,449,0,0,0,0,0,0,0,0,0,-1,1007,575,0,0
-210,449,0,0,0,0,0,0,0,0,0,-1,1014,575,0,0
-203,449,0,0,0,0,0,0,0,0,0,-1,1021,575,0,0
-196,449,0,0,0,0,0,0,0,0,0,-1,1028,575,0,0
-189,449,0,0,0,0,0,0,0,0,0,-1,1035,575,0,0
-182,449,0,0,0,0,0,0,0,0,0,-1,1042,575,0,0
-175,449,0,0,0,0,0,0,0,0,0,-1,1049,575,0,0
-168,449,0,0,0,0,0,0,0,0,0,-1,1056,575,0,0
-161,449,0,0,0,0,0,0,0,0,0,-1,1063,575,0,0
-154,449,0,0,0,0,0,0,0,0,0,-1,1070,575,0,0
-147,449,0,0,0,0,0,0,0,0,0,-1,1077,575,0,0
-140,449,0,0,0,0,0,0,0,0,0,-1,1084,575,0,0
-133,449,0,0,0,0,0,0,0,0,0,-1,1091,575,0,0
-126,449,0,0,0,0,0,0,0,0,0,-1,1098,575,0,0
-119,449,0,0,0,0,0,0,0,0,0,-1,1105,575,0,0
-112,449,0,0,0,0,0,0,0,0,0,-1,1112,575,0,0
-105,449,0,0,0,0,0,0,0,0,0,-1,1119,575,0,0
-98,449,0,0,0,0,0,0,0,0,0,-1,1126,575,0,0
-91,449,0,0,0,0,0,0,0,0,0,-1,1133,575,0,0
-84,449,0,0,0,0,0,0,0,0,0,-1,1140,575,0,0
-77,449,0,0,0,0,0,0,0,0,0,-1,1147,575,0,0
-70,449,0,0,0,0,0,0,0,0,0,-1,1154,575,0,0
-63,449,0,0,0,0,0,0,0,0,0,-1,1161,575,0,0
-56,449,0,0,0,0,0,0,0,0,0,-1,1168,575,0,0
-49,449,0,0,0,0,0,0,0,0,0,-1,1175,575,0,0
-42,449,0,0,0,0,0,0,0,0,0,-1,1182,575,0,0
-35,449,0,0,0,0,0,0,0,0,0,-1,1189,575,0,0
-28,449,0,0,0,0,0,0,0,0,0,-1,1196,575,0,0
-21,449,0,0,0,0,0,0,0,0,0,-1,1203,575,0,0
-14,449,0,0,0,0,0,0,0,0,0,-1,1210,575,0,0
-7,449,0,0,0,0,0,0,0,0,0,-1,1217,575,0,0
0,449,0,0,0,0,0,0,0,0,0,-1,1224,575,0,0
7,449,0,0,0,0,0,0,0,0,0,-1,1231,575,0,0
14,449,0,0,0,0,0,0,0,0,0,-1,1238,575,0,0
21,449,0,0,0,0,0,0,0,0,0,-1,1245,575,0,0
28,449,0,0,0,0,0,0,0,0,0,-1,1252,575,0,0
35,449,0,0,0,0,0,0,0,0,0,-1,1259,575,0,0
42,449,0,0,0,0,0,0,0,0,0,-1,1266,575,0,0
49,449,0,0,0,0,0,0,0,0,0,-1,1273,575,0,0
56,449,0,0,0,0,0,0,0,0,0,-1,1280,575,0,0
63,449,0,0,0,0,0,0,0,0,0,-1,1287,575,0,0
70,449,0,0,0,0,0,0,0,0,0,-1,1294,575,0,0
77,449,0,0,0,0,0,0,0,0,0,-1,1301,575,0,0
84,449,0,0,0,0,0,0,0,0,0,-1,1308,575,0,0
91,449,0,0,0,0,0,0,0,0,0,-1,1315,575,0,0
98,449,0,0,0,0,0,0,0,0,0,-1,1322,575,0,0
105,449,0,0,0,0,0,0,0,0,0,-1,1329,575,0,0
112,449,0,0,0,0,0,0,0,0,0,-1,1336,575,0,0
119,449,0,0,0,0,0,0,0,0,0,-1,1343,575,0,0
126,449,0,0,0,0,0,0,0,0,0,-1,1350,575,0,0
133,449,0,0,0,0,0,0,0,0,0,-1,1357,575,0,0
140,449,0,0,0,0,0,0,0,0,0,-1,1364,575,0,0
147,449,0,0,0,0,0,0,0,0,0,-1,1371,575,0,0
154,449,0,0,0,0,0,0,0,0,0,-1,1378,575,0,0
161,449,0,0,0,0,0,0,0,0,0,-1,1385,575,0,0
168,449,0,0,0,0,0,0,0,0,0,-1,1392,575,0,0
175,449,0,0,0,0,0,0,0,0,0,-1,1399,575,0,0
182,449,0,0,0,0,0,0,0,0,0,-1,1406,575,0,0
189,449,0,0,0,0,0,0,0,0,0,-1,1413,575,0,0
196,449,0,0,0,0,0,0,0,0,0,-1,1420,575,0,0
203,449,0,0,0,0,0,0,0,0,0,-1,1427,575,0,0
210,449,0,0,0,0,0,0,0,0,0,-1,1434,575,0,0
217,449,0,0,0,0,0,0,0,0,0,-1,1441,575,0,0
224,449,0,0,0,0,0,0,0,0,0,-1,1448,575,0,0
231,449,0,0,0,0,0,0,0,0,0,-1,1455,575,0,0
238,449,0,0,0,0,0,0,0,0,0,-1,1462,575,0,0
245,449,0,0,0,0,0,0,0,0,0,-1,1469,575,0,0
252,449,0,0,0,0,0,0,0,0,0,-1,1476,575,0,0
259,449,0,0,0,0,0,0,0,0,0,-1,1483,575,0,0
266,449,0,0,0,0,0,0,0,0,0,-1,1490,575,0,0
273,449,0,0,0,0,0,0,0,0,0,-1,1497,575,0,0
280,449,0,0,0,0,0,0,0,0,0,-1,1504,575,0,0
287,449,0,0,0,0,0,0,0,0,0,-1,1511,575,0,0
294,449,0,0,0,0,0,0,0,0,0,-1,1518,575,0,0
301,449,0,0,0,0,0,0,0,0,0,-1,1525,575,0,0
308,449,0,0,0,0,0,0,0,0,0,-1,1532,575,0,0
315,449,0,0,0,0,0,0,0,0,0,-1,1539,575,0,0
322,449,0,0,0,0,0,0,0,0,0,-1,1546,575,0,0
329,449,0,0,0,0,0,0,0,0,0,-1,1553,575,0,0
336,449,0,0,0,0,0,0,0,0,0,-1,1560,575,0,0
343,449,0,0,0,0,0,0,0,0,0,-1,1567,575,0,0
350,449,0,0,0,0,0,0,0,0,0,-1,1574,575,0,0
357,449,0,0,0,0,0,0,0,0,0,-1,1581,575,0,0
364,449,0,0,0,0,0,0,0,0,0,-1,1588,575,0,0
371,449,0,0,0,0,0,0,0,0,0,-1,1595,575,0,0
378,449,0,0,0,0,0,0,0,0,0,-1,1602,575,0,0
385,449,0,0,0,0,0,0,0,0,0,-1,1609,575,0,0
392,449,7.95471,3.66217,0,0,0,0,0,0,0,-1,1616,575,7.95471,-3.66218
399,449,19.9791,5.565,0,0,0,0,0,0,0,-1,1623,575,19.9791,-5.56499
406,449,24.9847,4.55969,0,0,0,0,0,0,0,-1,1630,575,24.9848,-4.55968
413,449,30.4159,3.15027,0,0,0,0,0,0,0,-1,1637,575,30.4159,-3.15028
420,449,23.9675,1.29718,0,0,0,0,0,0,0,-1,1644,575,23.9675,-1.29721
427,449,24.4276,-0.596558,0,0,0,0,0,0,0,-1,1651,575,24.4277,0.596569
434,449,25.61,-2.96594,0,0,0,0,0,0,0,-1,1658,575,25.61,2.96595
441,449,3.89856,-6.06458,0,0,0,0,0,0,0,-1,1665,575,3.89855,6.06459
448,449,4.03198,-5.18207,0,0,0,0,0,0,0,-1,1672,575,4.03197,5.18207
455,449,4.21948,-4.09467,0,0,0,0,0,0,0,-1,1679,575,4.21952,4.09465
462,449,4.23181,-2.96924,0,0,0,0,0,0,0,-1,1686,575,4.23185,2.96926
469,449,4.51672,-2.95135,0,0,0,0,0,0,0,-1,1693,575,4.51672,2.95135
476,449,4.71838,-1.86688,0,0,0,0,0,0,0,-1,1700,575,4.71842,1.86689
483,449,4.87878,-1.73126,0,0,0,0,0,0,0,-1,1707,575,4.87875,1.73128
490,449,5.73279,-2.74573,0,0,0,0,0,0,0,-1,1714,575,5.73282,2.74575
497,449,17.2095,-16.4381,0,0,0,0,0,0,0,-1,1721,575,17.2094,16.4381
504,449,17.1208,-15.5587,0,0,0,0,0,0,0,-1,1728,575,17.1209,15.5587
511,449,17.2,-14.9247,0.00227182,0.00142079,0.0011198,0.00304422,0.00064839,0.603828,0.00185159,0.0117805,1735,575,17.1999,14.9247
518,449,17.21,-14.3213,0.00200409,0.00108686,0.00103094,0.00267382,0.000417131,0.576116,0.00166105,0.0122953,1742,575,17.2099,14.3213
525,449,17.168,-13.7192,0.0016709,0.000960227,0.000933829,0.00231472,0.000316415,0.603598,0.00144923,0.0126872,1749,575,17.168,13.7192
532,449,17.1222,-13.1303,0.00127406,0.000932335,0.0008486,0.00196883,0.000237567,0.686053,0.00124097,0.0110196,1756,575,17.1222,13.1303
539,449,17.0807,-12.5298,0.000876055,0.00100252,0.00081432,0.00175606,0.000122518,0.824147,0.00113208,0.0141459,1763,575,17.0807,12.5298
546,449,17.0831,-11.9092,0.000529928,0.00126897,0.000825736,0.0018041,-5.19649e-06,0.995787,0.00120447,0.0241836,1770,575,17.0831,11.9093
553,449,17.0575,-11.3077,0.000220419,0.00164096,0.000906631,0.00208241,-0.000221033,1.11767,0.00146751,0.0171837,1777,575,17.0575,11.3077
560,449,17.0632,-10.7174,-1.72125e-05,0.00218199,0.00109852,0.00263669,-0.000471914,1.17834,0.00193439,0.0137876,1784,575,17.0632,10.7174
567,449,17.0311,-10.1195,-4.89218e-05,0.00290671,0.00145935,0.00350582,-0.00064804,1.18124,0.0025805,0.0100229,1791,575,17.0311,10.1195
574,449,17.0306,-9.46466,-1.68611e-05,0.00369486,0.00185558,0.00446338,-0.000785384,1.17814,0.00326898,0.0231253,1798,575,17.0306,9.46467
581,449,17.0568,-8.73517,0,0,0,0,0,0,0,-1,1805,575,17.0567,8.73514
588,449,12.3274,-4.5672,0,0,0,0,0,0,0,-1,1812,575,12.3274,4.5672
595,449,15.9352,-5.65479,0,0,0,0,0,0,0,-1,1819,575,15.9352,5.65478
602,449,9.46167,4.17444,0,0,0,0,0,0,0,-1,1826,575,9.46164,-4.17442
609,449,12.2028,3.18652,0,0,0,0,0,0,0,-1,1833,575,12.2027,-3.18655
616,449,14.9438,2.19867,0,0,0,0,0,0,0,-1,1840,575,14.9438,-2.19867
623,449,9.83789,-0.0820313,0,0,0,0,0,0,0,-1,1847,575,9.83794,0.0820443
630,449,8.90686,4.99329,0,0,0,0,0,0,0,-1,1854,575,8.90685,-4.99327
637,449,0,0,0,0,0,0,0,0,0,-1,1861,575,0,0
644,449,0,0,0,0,0,0,0,0,0,-1,1868,575,0,0
651,449,0,0,0,0,0,0,0,0,0,-1,1875,575,0,0
658,449,0,0,0,0,0,0,0,0,0,-1,1882,575,0,0
665,449,0,0,0,0,0,0,0,0,0,-1,1889,575,0,0
672,449,0,0,0,0,0,0,0,0,0,-1,1896,575,0,0
679,449,0,0,0,0,0,0,0,0,0,-1,1903,575,0,0
686,449,0,0,0,0,0,0,0,0,0,-1,1910,575,0,0
693,449,0,0,0,0,0,0,0,0,0,-1,1917,575,0,0
700,449,0,0,0,0,0,0,0,0,0,-1,1924,575,0,0
707,449,0,0,0,0,0,0,0,0,0,-1,1931,575,0,0
714,449,0,0,0,0,0,0,0,0,0,-1,1938,575,0,0
721,449,0,0,0,0,0,0,0,0,0,-1,1945,575,0,0
728,449,0,0,0,0,0,0,0,0,0,-1,1952,575,0,0
735,449,0,0,0,0,0,0,0,0,0,-1,1959,575,0,0
742,449,0,0,0,0,0,0,0,0,0,-1,1966,575,0,0
749,449,0,0,0,0,0,0,0,0,0,-1,1973,575,0,0
756,449,0,0,0,0,0,0,0,0,0,-1,1980,575,0,0
763,449,0,0,0,0,0,0,0,0,0,-1,1987,575,0,0
770,449,0,0,0,0,0,0,0,0,0,-1,1994,575,0,0
777,449,0,0,0,0,0,0,0,0,0,-1,2001,575,0,0
784,449,0,0,0,0,0,0,0,0,0,-1,2008,575,0,0
791,449,0,0,0,0,0,0,0,0,0,-1,2015,575,0,0
798,449,0,0,0,0,0,0,0,0,0,-1,2022,575,0,0
805,449,0,0,0,0,0,0,0,0,0,-1,2029,575,0,0
812,449,0,0,0,0,0,0,0,0,0,-1,2036,575,0,0
-700,442,0,0,0,0,0,0,0,0,0,-1,524,582,0,0
-693,442,0,0,0,0,0,0,0,0,0,-1,531,582,0,0
-686,442,0,0,0,0,0,0,0,0,0,-1,538,582,0,0
-679,442,0,0,0,0,0,0,0,0,0,-1,545,582,0,0
-672,442,0,0,0,0,0,0,0,0,0,-1,552,582,0,0
-665,442,0,0,0,0,0,0,0,0,0,-1,559,582,0,0
-658,442,0,0,0,0,0,0,0,0,0,-1,566,582,0,0
-651,442,0,0,0,0,0,0,0,0,0,-1,573,582,0,0
-644,442,0,0,0,0,0,0,0,0,0,-1,580,582,0,0
-637,442,0,0,0,0,0,0,0,0,0,-1,587,582,0,0
-630,442,0,0,0,0,0,0,0,0,0,-1,594,582,0,0
-623,442,0,0,0,0,0,0,0,0,0,-1,601,582,0,0
-616,442,0,0,0,0,0,0,0,0,0,-1,608,582,0,0
-609,442,0,0,0,0,0,0,0,0,0,-1,615,582,0,0
-602,442,0,0,0,0,0,0,0,0,0,-1,622,582,0,0
-595,442,0,0,0,0,0,0,0,0,0,-1,629,582,0,0
-588,442,0,0,0,0,0,0,0,0,0,-1,636,582,0,0
-581,442,0,0,0,0,0,0,0,0,0,-1,643,582,0,0
-574,442,0,0,0,0,0,0,0,0,0,-1,650,582,0,0
-567,442,0,0,0,0,0,0,0,0,0,-1,657,582,0,0
-560,442,0,0,0,0,0,0,0,0,0,-1,664,582,0,0
-553,442,0,0,0,0,0,0,0,0,0,-1,671,582,0,0
-546,442,0,0,0,0,0,0,0,0,0,-1,678,582,0,0
-539,442,0,0,0,0,0,0,0,0,0,-1,685,582,0,0
-532,442,0,0,0,0,0,0,0,0,0,-1,692,582,0,0
-525,442,0,0,0,0,0,0,0,0,0,-1,699,582,0,0
-518,442,-0.493774,-5.72943,0,0,0,0,0,0,0,-1,706,582,-0.493791,5.72946
-511,442,-1.33008,-6.18512,0,0,0,0,0,0,0,-1,713,582,-1.33006,6.18511
-504,442,-3.20807,-6.34082,0,0,0,0,0,0,0,-1,720,582,-3.2081,6.34083
-497,442,-13.6886,-0.250122,0,0,0,0,0,0,0,-1,727,582,-13.6886,0.250143
-490,442,-9.09039,-3.64862,0,0,0,0,0,0,0,-1,734,582,-9.09037,3.64861
-483,442,-7.36499,-1.01892,0,0,0,0,0,0,0,-1,741,582,-7.365,1.01895
-476,442,-4.84369,-4.14868,0,0,0,0,0,0,0,-1,748,582,-4.84367,4.14867
-469,442,-7.31854,-8.48401,0,0,0,0,0,0,0,-1,755,582,-7.31853,8.48401
-462,442,-7.45874,-9.63354,0,0,0,0,0,0,0,-1,762,582,-7.45875,9.63356
-455,442,-7.29926,-10.3997,8.82394e-05,0.00735684,-0.00354194,0.00879733,-0.00135225,-1.18453,0.00636371,0.0443503,769,582,-7.29925,10.3997
-448,442,-7.15692,-10.9948,-8.32012e-05,0.00593131,-0.00261345,0.00690823,-0.00106013,-1.21307,0.0049965,0.0166141,776,582,-7.15695,10.9948
-441,442,-7.20782,-11.6196,-0.000110416,0.004671,-0.00188165,0.00532267,-0.00076209,-1.23739,0.00382785,0.0131027,783,582,-7.20781,11.6196
-434,442,-7.23804,-12.2048,-4.7217e-05,0.00362741,-0.00133213,0.00405952,-0.000479328,-1.25713,0.00287945,0.012968,790,582,-7.23804,12.2048
-427,442,-7.26031,-12.7569,7.07089e-05,0.00267745,-0.000903604,0.00296004,-0.000211882,-1.26769,0.00204764,0.0127571,797,582,-7.26031,12.7569
-420,442,-7.27515,-13.3469,0.000285066,0.00179337,-0.000581638,0.00199161,8.68273e-05,-1.24232,0.00129977,0.0133761,804,582,-7.27512,13.3469
-413,442,-7.28564,-13.9243,0.000445752,0.000785324,-0.000163163,0.000851015,0.000380061,-1.18804,0.000492267,0.0114762,811,582,-7.28563,13.9243
-406,442,-7.31421,-14.5076,0.000701233,-2.76396e-05,0.000122751,0.000721351,-4.77571e-05,0.162445,0.000497584,0.00979885,818,582,-7.31422,14.5076
-399,442,-7.34186,-15.0849,0.00110572,-0.000786968,0.000330239,0.00116168,-0.000842933,0.167875,0.00116223,0.00863294,825,582,-7.34184,15.0849
-392,442,-7.33356,-15.6278,0.00163815,-0.00152807,0.000516281,0.00172021,-0.00161013,0.157621,0.00192312,0.0104548,832,582,-7.33356,15.6278
-385,442,-7.3653,-16.1558,0.00221603,-0.00213552,0.000671953,0.00231742,-0.00223691,0.149771,0.00262959,0.0128515,839,582,-7.36532,16.1558
-378,442,-7.38251,-16.7354,0.00275142,-0.00285391,0.000997357,0.0029236,-0.00302608,0.170943,0.00343521,0.0146802,846,582,-7.38249,16.7353
-371,442,-7.34277,-17.3922,0,0,0,0,0,0,0,-1,853,582,-7.3428,17.3922
-364,442,-6.89764,-17.5333,0,0,0,0,0,0,0,-1,860,582,-6.89765,17.5333
-357,442,-4.9115,-11.2649,0,0,0,0,0,0,0,-1,867,582,-4.91147,11.2649
-350,442,-1.75372,-6.27618,0,0,0,0,0,0,0,-1,874,582,-1.75371,6.27618
-343,442,-1.4599,-4.63605,0,0,0,0,0,0,0,-1,881,582,-1.4599,4.63607
-336,442,-1.4054,-2.64313,0,0,0,0,0,0,0,-1,888,582,-1.40539,2.64315
-329,442,-0.952576,-2.76923,0,0,0,0,0,0,0,-1,895,582,-0.952571,2.7692
-322,442,-0.972534,-2.63208,0,0,0,0,0,0,0,-1,902,582,-0.972512,2.6321
-315,442,-0.445557,-2.89764,0,0,0,0,0,0,0,-1,909,582,-0.445582,2.89765
-308,442,-0.654175,-3.07831,0,0,0,0,0,0,0,-1,916,582,-0.654145,3.07832
-301,442,-1.37427,-2.41455,0,0,0,0,0,0,0,-1,923,582,-1.37425,2.41453
-294,442,-2.99963,-2.07855,0,0,0,0,0,0,0,-1,930,582,-2.99964,2.07857
-287,442,-2.26624,-4.73987,0,0,0,0,0,0,0,-1,937,582,-2.26626,4.73987
-280,442,0,0,0,0,0,0,0,0,0,-1,944,582,0,0
-273,442,0,0,0,0,0,0,0,0,0,-1,951,582,0,0
-266,442,0,0,0,0,0,0,0,0,0,-1,958,582,0,0
-259,442,0,0,0,0,0,0,0,0,0,-1,965,582,0,0
-252,442,0,0,0,0,0,0,0,0,0,-1,972,582,0,0
-245,442,0,0,0,0,0,0,0,0,0,-1,979,582,0,0
-238,442,0,0,0,0,0,0,0,0,0,-1,986,582,0,0
-231,442,0,0,0,0,0,0,0,0,0,-1,993,582,0,0
-224,442,0,0,0,0,0,0,0,0,0,-1,1000,582,0,0
-217,442,0,0,0,0,0,0,0,0,0,-1,1007,582,0,0
-210,442,0,0,0,0,0,0,0,0,0,-1,1014,582,0,0
-203,442,0,0,0,0,0,0,0,0,0,-1,1021,582,0,0
-196,442,0,0,0,0,0,0,0,0,0,-1,1028,582,0,0
-189,442,0,0,0,0,0,0,0,0,0,-1,1035,582,0,0
-182,442,0,0,0,0,0,0,0,0,0,-1,1042,582,0,0
-175,442,0,0,0,0,0,0,0,0,0,-1,1049,582,0,0
-168,442,0,0,0,0,0,0,0,0,0,-1,1056,582,0,0
-161,442,0,0,0,0,0,0,0,0,0,-1,1063,582,0,0
-154,442,0,0,0,0,0,0,0,0,0,-1,1070,582,0,0
-147,442,0,0,0,0,0,0,0,0,0,-1,1077,582,0,0
-140,442,0,0,0,0,0,0,0,0,0,-1,1084,582,0,0
-133,442,0,0,0,0,0,0,0,0,0,-1,1091,582,0,0
-126,442,0,0,0,0,0,0,0,0,0,-1,1098,582,0,0
-119,442,0,0,0,0,0,0,0,0,0,-1,1105,582,0,0
-112,442,0,0,0,0,0,0,0,0,0,-1,1112,582,0,0
-105,442,0,0,0,0,0,0,0,0,0,-1,1119,582,0,0
-98,442,0,0,0,0,0,0,0,0,0,-1,1126,582,0,0
-91,442,0,0,0,0,0,0,0,0,0,-1,1133,582,0,0
-84,442,0,0,0,0,0,0,0,0,0,-1,1140,582,0,0
-77,442,0,0,0,0,0,0,0,0,0,-1,1147,582,0,0
-70,442,0,0,0,0,0,0,0,0,0,-1,1154,582,0,0
-63,442,0,0,0,0,0,0,0,0,0,-1,1161,582,0,0
-56,442,0,0,0,0,0,0,0,0,0,-1,1168,582,0,0
-49,442,0,0,0,0,0,0,0,0,0,-1,1175,582,0,0
-42,442,0,0,0,0,0,0,0,0,0,-1,1182,582,0,0
-35,442,0,0,0,0,0,0,0,0,0,-1,1189,582,0,0
-28,442,0,0,0,0,0,0,0,0,0,-1,1196,582,0,0
-21,442,0,0,0,0,0,0,0,0,0,-1,1203,582,0,0
-14,442,0,0,0,0,0,0,0,0,0,-1,1210,582,0,0
-7,442,0,0,0,0,0,0,0,0,0,-1,1217,582,0,0
0,442,0,0,0,0,0,0,0,0,0,-1,1224,582,0,0
7,442,0,0,0,0,0,0,0,0,0,-1,1231,582,0,0
14,442,0,0,0,0,0,0,0,0,0,-1,1238,582,0,0
21,442,0,0,0,0,0,0,0,0,0,-1,1245,582,0,0
28,442,0,0,0,0,0,0,0,0,0,-1,1252,582,0,0
35,442,0,0,0,0,0,0,0,0,0,-1,1259,582,0,0
42,442,0,0,0,0,0,0,0,0,0,-1,1266,582,0,0
49,442,0,0,0,0,0,0,0,0,0,-1,1273,582,0,0
56,442,0,0,0,0,0,0,0,0,0,-1,1280,582,0,0
63,442,0,0,0,0,0,0,0,0,0,-1,1287,582,0,0
70,442,0,0,0,0,0,0,0,0,0,-1,1294,582,0,0
77,442,0,0,0,0,0,0,0,0,0,-1,1301,582,0,0
84,442,0,0,0,0,0,0,0,0,0,-1,1308,582,0,0
91,442,0,0,0,0,0,0,0,0,0,-1,1315,582,0,0
98,442,0,0,0,0,0,0,0,0,0,-1,1322,582,0,0
105,442,0,0,0,0,0,0,0,0,0,-1,1329,582,0,0
112,442,0,0,0,0,0,0,0,0,0,-1,1336,582,0,0
119,442,0,0,0,0,0,0,0,0,0,-1,1343,582,0,0
126,442,0,0,0,0,0,0,0,0,0,-1,1350,582,0,0
133,442,0,0,0,0,0,0,0,0,0,-1,1357,582,0,0
140,442,0,0,0,0,0,0,0,0,0,-1,1364,582,0,0
147,442,0,0,0,0,0,0,0,0,0,-1,1371,582,0,0
154,442,0,0,0,0,0,0,0,0,0,-1,1378,582,0,0
161,442,0,0,0,0,0,0,0,0,0,-1,1385,582,0,0
168,442,0,0,0,0,0,0,0,0,0,-1,1392,582,0,0
175,442,0,0,0,0,0,0,0,0,0,-1,1399,582,0,0
182,442,0,0,0,0,0,0,0,0,0,-1,1406,582,0,0
189,442,0,0,0,0,0,0,0,0,0,-1,1413,582,0,0
196,442,0,0,0,0,0,0,0,0,0,-1,1420,582,0,0
203,442,0,0,0,0,0,0,0,0,0,-1,1427,582,0,0
210,442,0,0,0,0,0,0,0,0,0,-1,1434,582,0,0
217,442,0,0,0,0,0,0,0,0,0,-1,1441,582,0,0
224,442,0,0,0,0,0,0,0,0,0,-1,1448,582,0,0
231,442,0,0,0,0,0,0,0,0,0,-1,1455,582,0,0
238,442,0,0,0,0,0,0,0,0,0,-1,1462,582,0,0
245,442,0,0,0,0,0,0,0,0,0,-1,1469,582,0,0
252,442,0,0,0,0,0,0,0,0,0,-1,1476,582,0,0
259,442,0,0,0,0,0,0,0,0,0,-1,1483,582,0,0
266,442,0,0,0,0,0,0,0,0,0,-1,1490,582,0,0
273,442,0,0,0,0,0,0,0,0,0,-1,1497,582,0,0
280,442,0,0,0,0,0,0,0,0,0,-1,1504,582,0,0
287,442,0,0,0,0,0,0,0,0,0,-1,1511,582,0,0
294,442,0,0,0,0,0,0,0,0,0,-1,1518,582,0,0
301,442,0,0,0,0,0,0,0,0,0,-1,1525,582,0,0
308,442,0,0,0,0,0,0,0,0,0,-1,1532,582,0,0
315,442,0,0,0,0,0,0,0,0,0,-1,1539,582,0,0
322,442,0,0,0,0,0,0,0,0,0,-1,1546,582,0,0
329,442,0,0,0,0,0,0,0,0,0,-1,1553,582,0,0
336,442,0,0,0,0,0,0,0,0,0,-1,1560,582,0,0
343,442,0,0,0,0,0,0,0,0,0,-1,1567,582,0,0
350,442,0,0,0,0,0,0,0,0,0,-1,1574,582,0,0
357,442,0,0,0,0,0,0,0,0,0,-1,1581,582,0,0
364,442,0,0,0,0,0,0,0,0,0,-1,1588,582,0,0
371,442,0,0,0,0,0,0,0,0,0,-1,1595,582,0,0
378,442,0,0,0,0,0,0,0,0,0,-1,1602,582,0,0
385,442,0,0,0,0,0,0,0,0,0,-1,1609,582,0,0
392,442,0,0,0,0,0,0,0,0,0,-1,1616,582,0,0
399,442,0,0,0,0,0,0,0,0,0,-1,1623,582,0,0
406,442,17.6321,4.08295,0,0,0,0,0,0,0,-1,1630,582,17.6321,-4.08293
413,442,25.4768,2.74445,0,0,0,0,0,0,0,-1,1637,582,25.4768,-2.74444
420,442,22.7478,1.55011,0,0,0,0,0,0,0,-1,1644,582,22.7478,-1.55009
427,442,23.2969,-0.456787,0,0,0,0,0,0,0,-1,1651,582,23.2968,0.456769
434,442,23.9512,-2.49365,0,0,0,0,0,0,0,-1,1658,582,23.9512,2.49366
441,442,24.8251,-4.43958,0,0,0,0,0,0,0,-1,1665,582,24.8251,4.43956
448,442,4.7749,-5.88562,0,0,0,0,0,0,0,-1,1672,582,4.7749,5.8856
455,442,4.87024,-4.60687,0,0,0,0,0,0,0,-1,1679,582,4.87019,4.60686
462,442,5.02307,-3.72821,0,0,0,0,0,0,0,-1,1686,582,5.02311,3.7282
469,442,5.12976,-2.98834,0,0,0,0,0,0,0,-1,1693,582,5.12971,2.98834
476,442,5.4624,1.76947,0,0,0,0,0,0,0,-1,1700,582,5.46234,-1.76944
483,442,5.98486,1.87042,0,0,0,0,0,0,0,-1,1707,582,5.98492,-1.87045
490,442,5.04407,-2.35834,0,0,0,0,0,0,0,-1,1714,582,5.04411,2.35837
497,442,6.20984,-3.07831,0,0,0,0,0,0,0,-1,1721,582,6.2098,3.07833
504,442,17.6931,-15.6078,0,0,0,0,0,0,0,-1,1728,582,17.6931,15.6079
511,442,17.7518,-14.9263,0.00287571,0.00171437,0.0012967,0.00371581,0.000874266,0.574885,0.00224331,0.0351934,1735,582,17.7518,14.9263
518,442,17.7905,-14.2794,0.00267032,0.001182,0.00117943,0.00332073,0.00053159,0.503963,0.00205962,0.0113172,1742,582,17.7906,14.2793
525,442,17.7529,-13.6975,0.00233926,0.000943703,0.00104542,0.00289838,0.000384583,0.491121,0.00181767,0.00993063,1749,582,17.7529,13.6975
532,442,17.7474,-13.1097,0.0019387,0.000820654,0.000932831,0.00246719,0.000292168,0.515454,0.00155657,0.0105086,1756,582,17.7475,13.1097
539,442,17.7145,-12.4925,0.00155352,0.000835711,0.000896421,0.00216021,0.000229015,0.594984,0.0013702,0.0123589,1763,582,17.7145,12.4925
546,442,17.7024,-11.8992,0.00121214,0.00103084,0.000899503,0.00202555,0.000217433,0.735181,0.00128404,0.0165125,1770,582,17.7024,11.8992
553,442,17.6609,-11.3141,0.000904677,0.00129151,0.000958806,0.00207621,0.000119973,0.884926,0.00134593,0.0171182,1777,582,17.6609,11.3142
560,442,17.6432,-10.6985,0.000639616,0.00172745,0.00110439,0.0024146,-4.75309e-05,1.01422,0.00162581,0.0141138,1784,582,17.6432,10.6985
567,442,17.6305,-10.1034,0.00055074,0.00231892,0.00139913,0.00308988,-0.000220212,1.06717,0.00213711,0.0100073,1791,582,17.6304,10.1034
574,442,17.621,-9.47992,0.000559186,0.00298484,0.00175021,0.00390138,-0.000357353,1.08839,0.00272785,0.0118465,1798,582,17.621,9.4799
581,442,17.6649,-8.77277,0.000674353,0.00368266,0.00215391,0.00480564,-0.000448621,1.0902,0.00336329,0.0253211,1805,582,17.665,8.77277
588,442,17.7568,-8.03491,0,0,0,0,0,0,0,-1,1812,582,17.7569,8.0349
595,442,16.27,-6.47083,0,0,0,0,0,0,0,-1,1819,582,16.27,6.47082
602,442,16.2213,-4.49225,0,0,0,0,0,0,0,-1,1826,582,16.2213,4.49223
609,442,12.761,2.97223,0,0,0,0,0,0,0,-1,1833,582,12.761,-2.97221
616,442,9.78345,-0.103394,0,0,0,0,0,0,0,-1,1840,582,9.78341,0.103424
623,442,9.23828,0.326721,0,0,0,0,0,0,0,-1,1847,582,9.23829,-0.326727
630,442,7.74304,2.3924,0,0,0,0,0,0,0,-1,1854,582,7.7431,-2.39238
637,442,5.87805,1.84027,0,0,0,0,0,0,0,-1,1861,582,5.87807,-1.84025
644,442,0,0,0,0,0,0,0,0,0,-1,1868,582,0,0
651,442,0,0,0,0,0,0,0,0,0,-1,1875,582,0,0
658,442,0,0,0,0,0,0,0,0,0,-1,1882,582,0,0
665,442,0,0,0,0,0,0,0,0,0,-1,1889,582,0,0
672,442,0,0,0,0,0,0,0,0,0,-1,1896,582,0,0
679,442,0,0,0,0,0,0,0,0,0,-1,1903,582,0,0
686,442,0,0,0,0,0,0,0,0,0,-1,1910,582,0,0
693,442,0,0,0,0,0,0,0,0,0,-1,1917,582,0,0
700,442,0,0,0,0,0,0,0,0,0,-1,1924,582,0,0
707,442,0,0,0,0,0,0,0,0,0,-1,1931,582,0,0
714,442,0,0,0,0,0,0,0,0,0,-1,1938,582,0,0
721,442,0,0,0,0,0,0,0,0,0,-1,1945,582,0,0
728,442,0,0,0,0,0,0,0,0,0,-1,1952,582,0,0
735,442,0,0,0,0,0,0,0,0,0,-1,1959,582,0,0
742,442,0,0,0,0,0,0,0,0,0,-1,1966,582,0,0
749,442,0,0,0,0,0,0,0,0,0,-1,1973,582,0,0
756,442,0,0,0,0,0,0,0,0,0,-1,1980,582,0,0
763,442,0,0,0,0,0,0,0,0,0,-1,1987,582,0,0
770,442,0,0,0,0,0,0,0,0,0,-1,1994,582,0,0
777,442,0,0,0,0,0,0,0,0,0,-1,2001,582,0,0
784,442,0,0,0,0,0,0,0,0,0,-1,2008,582,0,0
791,442,0,0,0,0,0,0,0,0,0,-1,2015,582,0,0
798,442,0,0,0,0,0,0,0,0,0,-1,2022,582,0,0
805,442,0,0,0,0,0,0,0,0,0,-1,2029,582,0,0
812,442,0,0,0,0,0,0,0,0,0,-1,2036,582,0,0
-700,435,0,0,0,0,0,0,0,0,0,-1,524,589,0,0
-693,435,0,0,0,0,0,0,0,0,0,-1,531,589,0,0
-686,435,0,0,0,0,0,0,0,0,0,-1,538,589,0,0
-679,435,0,0,0,0,0,0,0,0,0,-1,545,589,0,0
-672,435,0,0,0,0,0,0,0,0,0,-1,552,589,0,0
-665,435,0,0,0,0,0,0,0,0,0,-1,559,589,0,0
-658,435,0,0,0,0,0,0,0,0,0,-1,566,589,0,0
-651,435,0,0,0,0,0,0,0,0,0,-1,573,589,0,0
-644,435,0,0,0,0,0,0,0,0,0,-1,580,589,0,0
-637,435,0,0,0,0,0,0,0,0,0,-1,587,589,0,0
-630,435,0,0,0,0,0,0,0,0,0,-1,594,589,0,0
-623,435,0,0,0,0,0,0,0,0,0,-1,601,589,0,0
-616,435,0,0,0,0,0,0,0,0,0,-1,608,589,0,0
-609,435,0,0,0,0,0,0,0,0,0,-1,615,589,0,0
-602,435,0,0,0,0,0,0,0,0,0,-1,622,589,0,0
-595,435,0,0,0,0,0,0,0,0,0,-1,629,589,0,0
-588,435,0,0,0,0,0,0,0,0,0,-1,636,589,0,0
-581,435,0,0,0,0,0,0,0,0,0,-1,643,589,0,0
-574,435,0,0,0,0,0,0,0,0,0,-1,650,589,0,0
-567,435,0,0,0,0,0,0,0,0,0,-1,657,589,0,0
-560,435,0,0,0,0,0,0,0,0,0,-1,664,589,0,0
-553,435,0,0,0,0,0,0,0,0,0,-1,671,589,0,0
-546,435,0,0,0,0,0,0,0,0,0,-1,678,589,0,0
-539,435,0,0,0,0,0,0,0,0,0,-1,685,589,0,0
-532,435,0,0,0,0,0,0,0,0,0,-1,692,589,0,0
-525,435,-10.0776,10.0547,0,0,0,0,0,0,0,-1,699,589,-10.0776,-10.0547
-518,435,-1.83093,-5.82367,0,0,0,0,0,0,0,-1,706,589,-1.83093,5.8237
-511,435,-2.45154,-5.33118,0,0,0,0,0,0,0,-1,713,589,-2.45151,5.33115
-504,435,-3.07208,-4.83862,0,0,0,0,0,0,0,-1,720,589,-3.0721,4.8386
-497,435,-6.31012,-5.84698,0,0,0,0,0,0,0,-1,727,589,-6.31012,5.84697
-490,435,-5.81903,-0.458679,0,0,0,0,0,0,0,-1,734,589,-5.81902,0.458684
-483,435,-6.96503,-3.01624,0,0,0,0,0,0,0,-1,741,589,-6.96505,3.01623
-476,435,-8.00104,-8.07721,0,0,0,0,0,0,0,-1,748,589,-8.00102,8.07724
-469,435,-7.75317,-8.81726,0.000173517,0.00895053,-0.00500513,0.0112186,-0.00209458,-1.14532,0.00826621,0.0391633,755,589,-7.75315,8.81725
-462,435,-7.62384,-9.75134,0.000299598,0.00721973,-0.00397358,0.00902858,-0.00150924,-1.14361,0.00658008,0.0246367,762,589,-7.62382,9.75134
-455,435,-7.78033,-10.3506,0.000264375,0.0058991,-0.00306426,0.00724434,-0.00108086,-1.15712,0.00522723,0.0223166,769,589,-7.78034,10.3507
-448,435,-7.76825,-10.9995,0.000196685,0.00450773,-0.0022091,0.00543869,-0.000734281,-1.17196,0.0038937,0.0124256,776,589,-7.76825,10.9995
-441,435,-7.78491,-11.5803,0.000204875,0.00333386,-0.0015344,0.00396072,-0.000421987,-1.18295,0.0027918,0.0111203,783,589,-7.7849,11.5803
-434,435,-7.81317,-12.1371,0.00026449,0.00239652,-0.00101963,0.00280564,-0.000144633,-1.18922,0.00192046,0.0121214,790,589,-7.81319,12.1371
-427,435,-7.83917,-12.7459,0.000368251,0.00151864,-0.000604983,0.00177822,0.000108667,-1.16548,0.00115097,0.00933082,797,589,-7.83915,12.7459
-420,435,-7.84448,-13.3303,0.000562293,0.000707333,-0.000280719,0.000924748,0.000344878,-0.911802,0.000539619,0.00956407,804,589,-7.84448,13.3303
-413,435,-7.86542,-13.9121,0.000716568,-0.000187083,0.000113803,0.000730679,-0.000201194,0.123371,0.000566227,0.0107171,811,589,-7.8654,13.9121
-406,435,-7.89288,-14.4811,0.000947842,-0.00093915,0.000402067,0.00102994,-0.00102125,0.201421,0.00118426,0.0116159,818,589,-7.8929,14.4811
-399,435,-7.91589,-15.0535,0.00136331,-0.00164138,0.000592021,0.00147575,-0.00175382,0.187689,0.0018669,0.010168,825,589,-7.91587,15.0535
-392,435,-7.92987,-15.6234,0.00192494,-0.00227907,0.000750396,0.00205486,-0.00240899,0.171445,0.00257991,0.0105252,832,589,-7.92987,15.6234
-385,435,-7.93365,-16.1688,0.00249456,-0.00281534,0.000899575,0.00264283,-0.0029636,0.163344,0.00323864,0.0189787,839,589,-7.93367,16.1688
-378,435,-7.96271,-16.6313,0.00301673,-0.00355615,0.00129219,0.00326164,-0.00380106,0.18731,0.00408161,0.0420966,846,589,-7.96268,16.6313
-371,435,-8.1861,-17.1735,0,0,0,0,0,0,0,-1,853,589,-8.18612,17.1735
-364,435,-5.62848,-11.5937,0,0,0,0,0,0,0,-1,860,589,-5.62847,11.5937
-357,435,-5.57343,-10.9666,0,0,0,0,0,0,0,-1,867,589,-5.57342,10.9666
-350,435,-0.86676,-3.69836,0,0,0,0,0,0,0,-1,874,589,-0.866784,3.69834
-343,435,-1.60706,-2.36835,0,0,0,0,0,0,0,-1,881,589,-1.60706,2.36838
-336,435,-2.07263,-1.94012,0,0,0,0,0,0,0,-1,888,589,-2.07265,1.94014
-329,435,-2.55963,-1.5517,0,0,0,0,0,0,0,-1,895,589,-2.5596,1.55168
-322,435,-3.08545,-1.55255,0,0,0,0,0,0,0,-1,902,589,-3.08544,1.55254
-315,435,-0.404297,-2.63763,0,0,0,0,0,0,0,-1,909,589,-0.404276,2.63761
-308,435,-1.70056,-1.90369,0,0,0,0,0,0,0,-1,916,589,-1.70056,1.90367
-301,435,-1.25232,-2.05511,0,0,0,0,0,0,0,-1,923,589,-1.25234,2.05514
-294,435,-1.79974,-1.97321,0,0,0,0,0,0,0,-1,930,589,-1.79973,1.97322
-287,435,0,0,0,0,0,0,0,0,0,-1,937,589,0,0
-280,435,0,0,0,0,0,0,0,0,0,-1,944,589,0,0
-273,435,0,0,0,0,0,0,0,0,0,-1,951,589,0,0
-266,435,0,0,0,0,0,0,0,0,0,-1,958,589,0,0
-259,435,0,0,0,0,0,0,0,0,0,-1,965,589,0,0
-252,435,0,0,0,0,0,0,0,0,0,-1,972,589,0,0
-245,435,0,0,0,0,0,0,0,0,0,-1,979,589,0,0
-238,435,0,0,0,0,0,0,0,0,0,-1,986,589,0,0
-231,435,0,0,0,0,0,0,0,0,0,-1,993,589,0,0
-224,435,0,0,0,0,0,0,0,0,0,-1,1000,589,0,0
-217,435,0,0,0,0,0,0,0,0,0,-1,1007,589,0,0
-210,435,0,0,0,0,0,0,0,0,0,-1,1014,589,0,0
-203,435,0,0,0,0,0,0,0,0,0,-1,1021,589,0,0
-196,435,0,0,0,0,0,0,0,0,0,-1,1028,589,0,0
-189,435,0,0,0,0,0,0,0,0,0,-1,1035,589,0,0
-182,435,0,0,0,0,0,0,0,0,0,-1,1042,589,0,0
-175,435,0,0,0,0,0,0,0,0,0,-1,1049,589,0,0
-168,435,0,0,0,0,0,0,0,0,0,-1,1056,589,0,0
-161,435,0,0,0,0,0,0,0,0,0,-1,1063,589,0,0
-154,435,0,0,0,0,0,0,0,0,0,-1,1070,589,0,0
-147,435,0,0,0,0,0,0,0,0,0,-1,1077,589,0,0
-140,435,0,0,0,0,0,0,0,0,0,-1,1084,589,0,0
-133,435,0,0,0,0,0,0,0,0,0,-1,1091,589,0,0
-126,435,0,0,0,0,0,0,0,0,0,-1,1098,589,0,0
-119,435,0,0,0,0,0,0,0,0,0,-1,1105,589,0,0
-112,435,0,0,0,0,0,0,0,0,0,-1,1112,589,0,0
-105,435,0,0,0,0,0,0,0,0,0,-1,1119,589,0,0
-98,435,0,0,0,0,0,0,0,0,0,-1,1126,589,0,0
-91,435,0,0,0,0,0,0,0,0,0,-1,1133,589,0,0
-84,435,0,0,0,0,0,0,0,0,0,-1,1140,589,0,0
-77,435,0,0,0,0,0,0,0,0,0,-1,1147,589,0,0
-70,435,0,0,0,0,0,0,0,0,0,-1,1154,589,0,0
-63,435,0,0,0,0,0,0,0,0,0,-1,1161,589,0,0
-56,435,0,0,0,0,0,0,0,0,0,-1,1168,589,0,0
-49,435,0,0,0,0,0,0,0,0,0,-1,1175,589,0,0
-42,435,0,0,0,0,0,0,0,0,0,-1,1182,589,0,0
-35,435,0,0,0,0,0,0,0,0,0,-1,1189,589,0,0
-28,435,0,0,0,0,0,0,0,0,0,-1,1196,589,0,0
-21,435,0,0,0,0,0,0,0,0,0,-1,1203,589,0,0
-14,435,0,0,0,0,0,0,0,0,0,-1,1210,589,0,0
-7,435,0,0,0,0,0,0,0,0,0,-1,1217,589,0,0
0,435,0,0,0,0,0,0,0,0,0,-1,1224,589,0,0
7,435,0,0,0,0,0,0,0,0,0,-1,1231,589,0,0
14,435,0,0,0,0,0,0,0,0,0,-1,1238,589,0,0
21,435,0,0,0,0,0,0,0,0,0,-1,1245,589,0,0
28,435,0,0,0,0,0,0,0,0,0,-1,1252,589,0,0
35,435,0,0,0,0,0,0,0,0,0,-1,1259,589,0,0
42,435,0,0,0,0,0,0,0,0,0,-1,1266,589,0,0
49,435,0,0,0,0,0,0,0,0,0,-1,1273,589,0,0
56,435,0,0,0,0,0,0,0,0,0,-1,1280,589,0,0
63,435,0,0,0,0,0,0,0,0,0,-1,1287,589,0,0
70,435,0,0,0,0,0,0,0,0,0,-1,1294,589,0,0
77,435,0,0,0,0,0,0,0,0,0,-1,1301,589,0,0
84,435,0,0,0,0,0,0,0,0,0,-1,1308,589,0,0
91,435,0,0,0,0,0,0,0,0,0,-1,1315,589,0,0
98,435,0,0,0,0,0,0,0,0,0,-1,1322,589,0,0
105,435,0,0,0,0,0,0,0,0,0,-1,1329,589,0,0
112,435,0,0,0,0,0,0,0,0,0,-1,1336,589,0,0
119,435,0,0,0,0,0,0,0,0,0,-1,1343,589,0,0
126,435,0,0,0,0,0,0,0,0,0,-1,1350,589,0,0
133,435,0,0,0,0,0,0,0,0,0,-1,1357,589,0,0
140,435,0,0,0,0,0,0,0,0,0,-1,1364,589,0,0
147,435,0,0,0,0,0,0,0,0,0,-1,1371,589,0,0
154,435,0,0,0,0,0,0,0,0,0,-1,1378,589,0,0
161,435,0,0,0,0,0,0,0,0,0,-1,1385,589,0,0
168,435,0,0,0,0,0,0,0,0,0,-1,1392,589,0,0
175,435,0,0,0,0,0,0,0,0,0,-1,1399,589,0,0
182,435,0,0,0,0,0,0,0,0,0,-1,1406,589,0,0
189,435,0,0,0,0,0,0,0,0,0,-1,1413,589,0,0
196,435,0,0,0,0,0,0,0,0,0,-1,1420,589,0,0
203,435,0,0,0,0,0,0,0,0,0,-1,1427,589,0,0
210,435,0,0,0,0,0,0,0,0,0,-1,1434,589,0,0
217,435,0,0,0,0,0,0,0,0,0,-1,1441,589,0,0
224,435,0,0,0,0,0,0,0,0,0,-1,1448,589,0,0
231,435,0,0,0,0,0,0,0,0,0,-1,1455,589,0,0
238,435,0,0,0,0,0,0,0,0,0,-1,1462,589,0,0
245,435,0,0,0,0,0,0,0,0,0,-1,1469,589,0,0
252,435,0,0,0,0,0,0,0,0,0,-1,1476,589,0,0
259,435,0,0,0,0,0,0,0,0,0,-1,1483,589,0,0
266,435,0,0,0,0,0,0,0,0,0,-1,1490,589,0,0
273,435,0,0,0,0,0,0,0,0,0,-1,1497,589,0,0
280,435,0,0,0,0,0,0,0,0,0,-1,1504,589,0,0
287,435,0,0,0,0,0,0,0,0,0,-1,1511,589,0,0
294,435,0,0,0,0,0,0,0,0,0,-1,1518,589,0,0
301,435,0,0,0,0,0,0,0,0,0,-1,1525,589,0,0
308,435,0,0,0,0,0,0,0,0,0,-1,1532,589,0,0
315,435,0,0,0,0,0,0,0,0,0,-1,1539,589,0,0
322,435,0,0,0,0,0,0,0,0,0,-1,1546,589,0,0
329,435,0,0,0,0,0,0,0,0,0,-1,1553,589,0,0
336,435,0,0,0,0,0,0,0,0,0,-1,1560,589,0,0
343,435,0,0,0,0,0,0,0,0,0,-1,1567,589,0,0
350,435,0,0,0,0,0,0,0,0,0,-1,1574,589,0,0
357,435,0,0,0,0,0,0,0,0,0,-1,1581,589,0,0
364,435,0,0,0,0,0,0,0,0,0,-1,1588,589,0,0
371,435,0,0,0,0,0,0,0,0,0,-1,1595,589,0,0
378,435,0,0,0,0,0,0,0,0,0,-1,1602,589,0,0
385,435,0,0,0,0,0,0,0,0,0,-1,1609,589,0,0
392,435,0,0,0,0,0,0,0,0,0,-1,1616,589,0,0
399,435,0,0,0,0,0,0,0,0,0,-1,1623,589,0,0
406,435,0,0,0,0,0,0,0,0,0,-1,1630,589,0,0
413,435,20.4565,3.49835,0,0,0,0,0,0,0,-1,1637,589,20.4565,-3.49836
420,435,21.4015,1.49609,0,0,0,0,0,0,0,-1,1644,589,21.4015,-1.49609
427,435,22.0464,-0.373962,0,0,0,0,0,0,0,-1,1651,589,22.0464,0.373972
434,435,22.1863,-1.54407,0,0,0,0,0,0,0,-1,1658,589,22.1862,1.54405
441,435,22.3992,-2.38287,0,0,0,0,0,0,0,-1,1665,589,22.3992,2.38289
448,435,7.4585,-0.00292969,0,0,0,0,0,0,0,-1,1672,589,7.45848,0.00294131
455,435,5.49915,-5.047,0,0,0,0,0,0,0,-1,1679,589,5.49914,5.04703
462,435,5.60669,-4.71466,0,0,0,0,0,0,0,-1,1686,589,5.60675,4.71469
469,435,5.87708,1.22351,0,0,0,0,0,0,0,-1,1693,589,5.87703,-1.22351
476,435,6.14136,1.37714,0,0,0,0,0,0,0,-1,1700,589,6.14138,-1.37712
483,435,6.49243,1.36169,0,0,0,0,0,0,0,-1,1707,589,6.49242,-1.36171
490,435,4.38391,-1.36218,0,0,0,0,0,0,0,-1,1714,589,4.38389,1.3622
497,435,7.23499,-3.64551,0,0,0,0,0,0,0,-1,1721,589,7.23495,3.64551
504,435,7.31189,-3.75909,0,0,0,0,0,0,0,-1,1728,589,7.31184,3.75911
511,435,18.3142,-14.9589,0,0,0,0,0,0,0,-1,1735,589,18.3142,14.9589
518,435,18.4016,-14.2832,0.00348579,0.00108978,0.00132643,0.00407514,0.000500434,0.418112,0.00256626,0.0268025,1742,589,18.4016,14.2832
525,435,18.3535,-13.6696,0.00307954,0.000772115,0.0011424,0.00354944,0.000302214,0.390235,0.00227227,0.0117446,1749,589,18.3535,13.6695
532,435,18.3512,-13.0579,0.00261471,0.000599018,0.000988846,0.0030188,0.000194925,0.387941,0.00195081,0.0131632,1756,589,18.3512,13.0579
539,435,18.3383,-12.4485,0.0021984,0.000622244,0.000945663,0.00264131,0.000179327,0.438022,0.00170425,0.0149126,1763,589,18.3382,12.4486
546,435,18.2936,-11.8683,0.00181694,0.000791321,0.000935482,0.00237095,0.000237313,0.534677,0.00150777,0.0146938,1770,589,18.2935,11.8683
553,435,18.2643,-11.2974,0.00147711,0.00100378,0.000969679,0.00223859,0.000242301,0.665704,0.00141854,0.0102117,1777,589,18.2643,11.2974
560,435,18.2366,-10.7053,0.00116056,0.0013888,0.00106956,0.0023503,0.00019905,0.838547,0.00150491,0.00878552,1784,589,18.2365,10.7053
567,435,18.2441,-10.0757,0.000984114,0.00190938,0.00129803,0.00282475,6.8738e-05,0.956585,0.00186068,0.00857565,1791,589,18.2441,10.0757
574,435,18.2169,-9.45251,0.000940018,0.00250912,0.00159356,0.00350078,-5.16473e-05,1.01414,0.00235126,0.00944681,1798,589,18.2169,9.45251
581,435,18.1857,-8.83337,0.00104616,0.00316238,0.00196398,0.00433514,-0.000126605,1.03248,0.00293321,0.0157174,1805,589,18.1857,8.83337
588,435,18.1497,-8.2702,0.00151174,0.00396229,0.00253586,0.00555338,-7.93433e-05,1.01045,0.00372898,0.042237,1812,589,18.1496,8.27019
595,435,17.9774,-7.35834,0,0,0,0,0,0,0,-1,1819,589,17.9774,7.35831
602,435,16.8671,-6.39026,0,0,0,0,0,0,0,-1,1826,589,16.867,6.39024
609,435,15.2611,-3.42242,0,0,0,0,0,0,0,-1,1833,589,15.2611,3.42242
616,435,5.05151,-2.75269,0,0,0,0,0,0,0,-1,1840,589,5.05157,2.7527
623,435,11.7588,3.9704,0,0,0,0,0,0,0,-1,1847,589,11.7587,-3.97043
630,435,4.72742,-0.87561,0,0,0,0,0,0,0,-1,1854,589,4.7274,0.875636
637,435,5.05286,1.48792,0,0,0,0,0,0,0,-1,1861,589,5.05291,-1.48792
644,435,0,0,0,0,0,0,0,0,0,-1,1868,589,0,0
651,435,0,0,0,0,0,0,0,0,0,-1,1875,589,0,0
658,435,0,0,0,0,0,0,0,0,0,-1,1882,589,0,0
665,435,0,0,0,0,0,0,0,0,0,-1,1889,589,0,0
672,435,0,0,0,0,0,0,0,0,0,-1,1896,589,0,0
679,435,0,0,0,0,0,0,0,0,0,-1,1903,589,0,0
686,435,0,0,0,0,0,0,0,0,0,-1,1910,589,0,0
693,435,0,0,0,0,0,0,0,0,0,-1,1917,589,0,0
700,435,0,0,0,0,0,0,0,0,0,-1,1924,589,0,0
707,435,0,0,0,0,0,0,0,0,0,-1,1931,589,0,0
714,435,0,0,0,0,0,0,0,0,0,-1,1938,589,0,0
721,435,0,0,0,0,0,0,0,0,0,-1,1945,589,0,0
728,435,0,0,0,0,0,0,0,0,0,-1,1952,589,0,0
735,435,0,0,0,0,0,0,0,0,0,-1,1959,589,0,0
742,435,0,0,0,0,0,0,0,0,0,-1,1966,589,0,0
749,435,0,0,0,0,0,0,0,0,0,-1,1973,589,0,0
756,435,0,0,0,0,0,0,0,0,0,-1,1980,589,0,0
763,435,0,0,0,0,0,0,0,0,0,-1,1987,589,0,0
770,435,0,0,0,0,0,0,0,0,0,-1,1994,589,0,0
777,435,0,0,0,0,0,0,0,0,0,-1,2001,589,0,0
784,435,0,0,0,0,0,0,0,0,0,-1,2008,589,0,0
791,435,0,0,0,0,0,0,0,0,0,-1,2015,589,0,0
798,435,0,0,0,0,0,0,0,0,0,-1,2022,589,0,0
805,435,0,0,0,0,0,0,0,0,0,-1,2029,589,0,0
812,435,0,0,0,0,0,0,0,0,0,-1,2036,589,0,0
-700,428,0,0,0,0,0,0,0,0,0,-1,524,596,0,0
-693,428,0,0,0,0,0,0,0,0,0,-1,531,596,0,0
-686,428,0,0,0,0,0,0,0,0,0,-1,538,596,0,0
-679,428,0,0,0,0,0,0,0,0,0,-1,545,596,0,0
-672,428,0,0,0,0,0,0,0,0,0,-1,552,596,0,0
-665,428,0,0,0,0,0,0,0,0,0,-1,559,596,0,0
-658,428,0,0,0,0,0,0,0,0,0,-1,566,596,0,0
-651,428,0,0,0,0,0,0,0,0,0,-1,573,596,0,0
-644,428,0,0,0,0,0,0,0,0,0,-1,580,596,0,0
-637,428,0,0,0,0,0,0,0,0,0,-1,587,596,0,0
-630,428,0,0,0,0,0,0,0,0,0,-1,594,596,0,0
-623,428,0,0,0,0,0,0,0,0,0,-1,601,596,0,0
-616,428,0,0,0,0,0,0,0,0,0,-1,608,596,0,0
-609,428,0,0,0,0,0,0,0,0,0,-1,615,596,0,0
-602,428,0,0,0,0,0,0,0,0,0,-1,622,596,0,0
-595,428,0,0,0,0,0,0,0,0,0,-1,629,596,0,0
-588,428,0,0,0,0,0,0,0,0,0,-1,636,596,0,0
-581,428,0,0,0,0,0,0,0,0,0,-1,643,596,0,0
-574,428,0,0,0,0,0,0,0,0,0,-1,650,596,0,0
-567,428,0,0,0,0,0,0,0,0,0,-1,657,596,0,0
-560,428,0,0,0,0,0,0,0,0,0,-1,664,596,0,0
-553,428,0,0,0,0,0,0,0,0,0,-1,671,596,0,0
-546,428,0,0,0,0,0,0,0,0,0,-1,678,596,0,0
-539,428,0,0,0,0,0,0,0,0,0,-1,685,596,0,0
-532,428,0,0,0,0,0,0,0,0,0,-1,692,596,0,0
-525,428,-9.59918,7.58618,0,0,0,0,0,0,0,-1,699,596,-9.59918,-7.5862
-518,428,-2.92285,-4.81854,0,0,0,0,0,0,0,-1,706,596,-2.92285,4.81856
-511,428,-3.68811,-4.79474,0,0,0,0,0,0,0,-1,713,596,-3.68811,4.79474
-504,428,-4.45337,-4.77094,0,0,0,0,0,0,0,-1,720,596,-4.45337,4.77092
-497,428,-2.98108,-3.77502,0,0,0,0,0,0,0,-1,727,596,-2.98106,3.77505
-490,428,-6.39044,-2.80481,0,0,0,0,0,0,0,-1,734,596,-6.39047,2.80483
-483,428,-8.01685,-6.95386,0,0,0,0,0,0,0,-1,741,596,-8.01687,6.95387
-476,428,-8.06281,-8.63672,0,0,0,0,0,0,0,-1,748,596,-8.0628,8.63669
-469,428,-8.177,-9.07117,0.000118427,0.007535,-0.00414891,0.00939132,-0.00173789,-1.15009,0.00691338,0.0253957,755,596,-8.17703,9.07119
-462,428,-8.28424,-9.64923,0.000324685,0.00587751,-0.00328178,0.00739976,-0.00119757,-1.13648,0.005377,0.026829,762,596,-8.28424,9.64925
-455,428,-8.34509,-10.3229,0.000386237,0.00459923,-0.002503,0.00576418,-0.000778711,-1.13519,0.00412692,0.0151202,769,596,-8.34511,10.323
-448,428,-8.3642,-10.956,0.000428067,0.00329577,-0.00177069,0.00414036,-0.000416518,-1.12573,0.00290903,0.011653,776,596,-8.36421,10.956
-441,428,-8.38519,-11.5382,0.00047786,0.00221661,-0.00116446,0.00280043,-0.000105959,-1.10606,0.00190325,0.0138854,783,596,-8.38516,11.5382
-434,428,-8.3833,-12.1406,0.000544076,0.00136747,-0.000687713,0.0017573,0.000154249,-1.05511,0.00112365,0.0104205,790,596,-8.38332,12.1406
-427,428,-8.39996,-12.7528,0.000636149,0.000538407,-0.000291814,0.000883156,0.0002914,-0.702432,0.000519627,0.0102455,797,596,-8.39999,12.7528
-420,428,-8.41016,-13.3011,0.000794812,-0.000242673,3.57096e-05,0.00079604,-0.0002439,0.0343652,0.000627985,0.0106254,804,596,-8.41017,13.3011
-413,428,-8.44543,-13.8622,0.000926982,-0.00106076,0.000393573,0.00100207,-0.00113585,0.188527,0.00123514,0.0138192,811,596,-8.44541,13.8622
-406,428,-8.47467,-14.4431,0.0011029,-0.00182778,0.000680389,0.00125316,-0.00197804,0.21735,0.00188111,0.0174962,818,596,-8.47467,14.4431
-399,428,-8.47211,-15.0176,0.0014813,-0.00257466,0.000846981,0.00165106,-0.00274442,0.197814,0.00256377,0.0163037,825,596,-8.47208,15.0176
-392,428,-8.4649,-15.6312,0.00201392,-0.00322261,0.000979412,0.00219111,-0.0033998,0.178977,0.00325296,0.0259866,832,596,-8.46488,15.6312
-385,428,-8.47546,-16.2159,0,0,0,0,0,0,0,-1,839,596,-8.47548,16.2159
-378,428,-8.6402,-16.597,0,0,0,0,0,0,0,-1,846,596,-8.6402,16.597
-371,428,-5.96155,-11.0703,0,0,0,0,0,0,0,-1,853,596,-5.96154,11.0702
-364,428,-6.33643,-10.7223,0,0,0,0,0,0,0,-1,860,596,-6.33645,10.7223
-357,428,-3.20996,-4.70966,0,0,0,0,0,0,0,-1,867,596,-3.20997,4.70965
-350,428,-1.62793,-3.94055,0,0,0,0,0,0,0,-1,874,596,-1.62794,3.94055
-343,428,-0.0567017,-4.80994,0,0,0,0,0,0,0,-1,881,596,-0.0567096,4.80996
-336,428,-3.29175,-1.39569,0,0,0,0,0,0,0,-1,888,596,-3.29172,1.39568
-329,428,-3.71564,-0.791321,0,0,0,0,0,0,0,-1,895,596,-3.71564,0.791299
-322,428,-5.52863,-3.59827,0,0,0,0,0,0,0,-1,902,596,-5.52865,3.59829
-315,428,-4.57172,-1.22052,0,0,0,0,0,0,0,-1,909,596,-4.57171,1.22052
-308,428,-5.94324,-0.810791,0,0,0,0,0,0,0,-1,916,596,-5.94321,0.810803
-301,428,0,0,0,0,0,0,0,0,0,-1,923,596,0,0
-294,428,0,0,0,0,0,0,0,0,0,-1,930,596,0,0
-287,428,0,0,0,0,0,0,0,0,0,-1,937,596,0,0
-280,428,0,0,0,0,0,0,0,0,0,-1,944,596,0,0
-273,428,0,0,0,0,0,0,0,0,0,-1,951,596,0,0
-266,428,0,0,0,0,0,0,0,0,0,-1,958,596,0,0
-259,428,0,0,0,0,0,0,0,0,0,-1,965,596,0,0
-252,428,0,0,0,0,0,0,0,0,0,-1,972,596,0,0
-245,428,0,0,0,0,0,0,0,0,0,-1,979,596,0,0
-238,428,0,0,0,0,0,0,0,0,0,-1,986,596,0,0
-231,428,0,0,0,0,0,0,0,0,0,-1,993,596,0,0
-224,428,0,0,0,0,0,0,0,0,0,-1,1000,596,0,0
-217,428,0,0,0,0,0,0,0,0,0,-1,1007,596,0,0
-210,428,0,0,0,0,0,0,0,0,0,-1,1014,596,0,0
-203,428,0,0,0,0,0,0,0,0,0,-1,1021,596,0,0
-196,428,0,0,0,0,0,0,0,0,0,-1,1028,596,0,0
-189,428,0,0,0,0,0,0,0,0,0,-1,1035,596,0,0
-182,428,0,0,0,0,0,0,0,0,0,-1,1042,596,0,0
-175,428,0,0,0,0,0,0,0,0,0,-1,1049,596,0,0
-168,428,0,0,0,0,0,0,0,0,0,-1,1056,596,0,0
-161,428,0,0,0,0,0,0,0,0,0,-1,1063,596,0,0
-154,428,0,0,0,0,0,0,0,0,0,-1,1070,596,0,0
-147,428,0,0,0,0,0,0,0,0,0,-1,1077,596,0,0
-140,428,0,0,0,0,0,0,0,0,0,-1,1084,596,0,0
-133,428,0,0,0,0,0,0,0,0,0,-1,1091,596,0,0
-126,428,0,0,0,0,0,0,0,0,0,-1,1098,596,0,0
-119,428,0,0,0,0,0,0,0,0,0,-1,1105,596,0,0
-112,428,0,0,0,0,0,0,0,0,0,-1,1112,596,0,0
-105,428,0,0,0,0,0,0,0,0,0,-1,1119,596,0,0
-98,428,0,0,0,0,0,0,0,0,0,-1,1126,596,0,0
-91,428,0,0,0,0,0,0,0,0,0,-1,1133,596,0,0
-84,428,0,0,0,0,0,0,0,0,0,-1,1140,596,0,0
-77,428,0,0,0,0,0,0,0,0,0,-1,1147,596,0,0
-70,428,0,0,0,0,0,0,0,0,0,-1,1154,596,0,0
-63,428,0,0,0,0,0,0,0,0,0,-1,1161,596,0,0
-56,428,0,0,0,0,0,0,0,0,0,-1,1168,596,0,0
-49,428,0,0,0,0,0,0,0,0,0,-1,1175,596,0,0
-42,428,0,0,0,0,0,0,0,0,0,-1,1182,596,0,0
-35,428,0,0,0,0,0,0,0,0,0,-1,1189,596,0,0
-28,428,0,0,0,0,0,0,0,0,0,-1,1196,596,0,0
-21,428,0,0,0,0,0,0,0,0,0,-1,1203,596,0,0
-14,428,0,0,0,0,0,0,0,0,0,-1,1210,596,0,0
-7,428,0,0,0,0,0,0,0,0,0,-1,1217,596,0,0
0,428,0,0,0,0,0,0,0,0,0,-1,1224,596,0,0
7,428,0,0,0,0,0,0,0,0,0,-1,1231,596,0,0
14,428,0,0,0,0,0,0,0,0,0,-1,1238,596,0,0
21,428,0,0,0,0,0,0,0,0,0,-1,1245,596,0,0
28,428,0,0,0,0,0,0,0,0,0,-1,1252,596,0,0
35,428,0,0,0,0,0,0,0,0,0,-1,1259,596,0,0
42,428,0,0,0,0,0,0,0,0,0,-1,1266,596,0,0
49,428,0,0,0,0,0,0,0,0,0,-1,1273,596,0,0
56,428,0,0,0,0,0,0,0,0,0,-1,1280,596,0,0
63,428,0,0,0,0,0,0,0,0,0,-1,1287,596,0,0
70,428,0,0,0,0,0,0,0,0,0,-1,1294,596,0,0
77,428,0,0,0,0,0,0,0,0,0,-1,1301,596,0,0
84,428,0,0,0,0,0,0,0,0,0,-1,1308,596,0,0
91,428,0,0,0,0,0,0,0,0,0,-1,1315,596,0,0
98,428,0,0,0,0,0,0,0,0,0,-1,1322,596,0,0
105,428,0,0,0,0,0,0,0,0,0,-1,1329,596,0,0
112,428,0,0,0,0,0,0,0,0,0,-1,1336,596,0,0
119,428,0,0,0,0,0,0,0,0,0,-1,1343,596,0,0
126,428,0,0,0,0,0,0,0,0,0,-1,1350,596,0,0
133,428,0,0,0,0,0,0,0,0,0,-1,1357,596,0,0
140,428,0,0,0,0,0,0,0,0,0,-1,1364,596,0,0
147,428,0,0,0,0,0,0,0,0,0,-1,1371,596,0,0
154,428,0,0,0,0,0,0,0,0,0,-1,1378,596,0,0
161,428,0,0,0,0,0,0,0,0,0,-1,1385,596,0,0
168,428,0,0,0,0,0,0,0,0,0,-1,1392,596,0,0
175,428,0,0,0,0,0,0,0,0,0,-1,1399,596,0,0
182,428,0,0,0,0,0,0,0,0,0,-1,1406,596,0,0
189,428,0,0,0,0,0,0,0,0,0,-1,1413,596,0,0
196,428,0,0,0,0,0,0,0,0,0,-1,1420,596,0,0
203,428,0,0,0,0,0,0,0,0,0,-1,1427,596,0,0
210,428,0,0,0,0,0,0,0,0,0,-1,1434,596,0,0
217,428,0,0,0,0,0,0,0,0,0,-1,1441,596,0,0
224,428,0,0,0,0,0,0,0,0,0,-1,1448,596,0,0
231,428,0,0,0,0,0,0,0,0,0,-1,1455,596,0,0
238,428,0,0,0,0,0,0,0,0,0,-1,1462,596,0,0
245,428,0,0,0,0,0,0,0,0,0,-1,1469,596,0,0
252,428,0,0,0,0,0,0,0,0,0,-1,1476,596,0,0
259,428,0,0,0,0,0,0,0,0,0,-1,1483,596,0,0
266,428,0,0,0,0,0,0,0,0,0,-1,1490,596,0,0
273,428,0,0,0,0,0,0,0,0,0,-1,1497,596,0,0
280,428,0,0,0,0,0,0,0,0,0,-1,1504,596,0,0
287,428,0,0,0,0,0,0,0,0,0,-1,1511,596,0,0
294,428,0,0,0,0,0,0,0,0,0,-1,1518,596,0,0
301,428,0,0,0,0,0,0,0,0,0,-1,1525,596,0,0
308,428,0,0,0,0,0,0,0,0,0,-1,1532,596,0,0
315,428,0,0,0,0,0,0,0,0,0,-1,1539,596,0,0
322,428,0,0,0,0,0,0,0,0,0,-1,1546,596,0,0
329,428,0,0,0,0,0,0,0,0,0,-1,1553,596,0,0
336,428,0,0,0,0,0,0,0,0,0,-1,1560,596,0,0
343,428,0,0,0,0,0,0,0,0,0,-1,1567,596,0,0
350,428,0,0,0,0,0,0,0,0,0,-1,1574,596,0,0
357,428,0,0,0,0,0,0,0,0,0,-1,1581,596,0,0
364,428,0,0,0,0,0,0,0,0,0,-1,1588,596,0,0
371,428,0,0,0,0,0,0,0,0,0,-1,1595,596,0,0
378,428,0,0,0,0,0,0,0,0,0,-1,1602,596,0,0
385,428,0,0,0,0,0,0,0,0,0,-1,1609,596,0,0
392,428,0,0,0,0,0,0,0,0,0,-1,1616,596,0,0
399,428,0,0,0,0,0,0,0,0,0,-1,1623,596,0,0
406,428,0,0,0,0,0,0,0,0,0,-1,1630,596,0,0
413,428,0,0,0,0,0,0,0,0,0,-1,1637,596,0,0
420,428,19.8469,1.3399,0,0,0,0,0,0,0,-1,1644,596,19.8469,-1.33992
427,428,20.7299,-0.225281,0,0,0,0,0,0,0,-1,1651,596,20.7299,0.225262
434,428,19.8915,-0.583069,0,0,0,0,0,0,0,-1,1658,596,19.8915,0.583075
441,428,8.17993,0.607483,0,0,0,0,0,0,0,-1,1665,596,8.17997,-0.607513
448,428,7.84338,-0.385986,0,0,0,0,0,0,0,-1,1672,596,7.84336,0.385978
455,428,6.64038,2.1123,0,0,0,0,0,0,0,-1,1679,596,6.64037,-2.11229
462,428,4.84106,4.12341,0,0,0,0,0,0,0,-1,1686,596,4.84107,-4.12339
469,428,7.83789,3.10083,0,0,0,0,0,0,0,-1,1693,596,7.83785,-3.10086
476,428,7.61255,1.73956,0,0,0,0,0,0,0,-1,1700,596,7.61252,-1.73958
483,428,7.22766,1.05121,0,0,0,0,0,0,0,-1,1707,596,7.2277,-1.05121
490,428,5.4071,-3.2793,0,0,0,0,0,0,0,-1,1714,596,5.40707,3.27929
497,428,7.84106,-3.65491,0,0,0,0,0,0,0,-1,1721,596,7.84107,3.65491
504,428,6.92139,-2.83356,0,0,0,0,0,0,0,-1,1728,596,6.92137,2.83353
511,428,7.88501,-3.78723,0,0,0,0,0,0,0,-1,1735,596,7.88502,3.78722
518,428,18.9618,-14.3326,0,0,0,0,0,0,0,-1,1742,596,18.9618,14.3326
525,428,18.9248,-13.6262,0,0,0,0,0,0,0,-1,1749,596,18.9248,13.6262
532,428,18.9121,-12.9895,0.00367513,0.000301237,0.00115972,0.00403531,-5.89474e-05,0.301133,0.00271007,0.0205937,1756,596,18.9121,12.9895
539,428,18.9443,-12.4173,0.00316521,0.000336353,0.00104128,0.00350716,-5.59597e-06,0.317299,0.00233998,0.0203649,1763,596,18.9443,12.4173
546,428,18.9095,-11.8679,0.00267007,0.000468617,0.000966724,0.00303432,0.000104368,0.360336,0.00198901,0.0161354,1770,596,18.9096,11.8679
553,428,18.8734,-11.2778,0.0022224,0.000644111,0.000938847,0.0026597,0.000206804,0.435909,0.00170838,0.0106625,1777,596,18.8734,11.2778
560,428,18.863,-10.6652,0.00177277,0.000986667,0.000973461,0.00242953,0.0003299,0.593524,0.00152169,0.0119306,1784,596,18.863,10.6652
567,428,18.8494,-10.0486,0.00142125,0.00145264,0.00113004,0.0025671,0.000306793,0.792341,0.00161885,0.0116045,1791,596,18.8493,10.0486
574,428,18.8251,-9.42975,0.00120333,0.00200552,0.00137233,0.00303417,0.00017468,0.927573,0.00196714,0.0132673,1798,596,18.825,9.42974
581,428,18.7803,-8.81055,0.00113174,0.00263203,0.00171618,0.00375485,8.92184e-06,0.991436,0.00250026,0.0112675,1805,596,18.7803,8.81052
588,428,18.752,-8.19421,0.00131019,0.00343276,0.00223052,0.0048416,-9.86548e-05,1.00745,0.00326112,0.0177018,1812,596,18.752,8.19421
595,428,18.7073,-7.54102,0.00166129,0.00435174,0.00283683,0.00614613,-0.000133107,1.0068,0.0041425,0.0261373,1819,596,18.7072,7.54099
602,428,18.8188,-6.84814,0,0,0,0,0,0,0,-1,1826,596,18.8189,6.84818
609,428,17.2073,-4.82446,0,0,0,0,0,0,0,-1,1833,596,17.2073,4.82447
616,428,15.7817,-3.09558,0,0,0,0,0,0,0,-1,1840,596,15.7817,3.09556
623,428,9.53577,1.12518,0,0,0,0,0,0,0,-1,1847,596,9.5358,-1.1252
630,428,7.07996,6.88562,0,0,0,0,0,0,0,-1,1854,596,7.0799,-6.88565
637,428,3.95435,1.90857,0,0,0,0,0,0,0,-1,1861,596,3.95439,-1.90858
644,428,5.75476,0.888977,0,0,0,0,0,0,0,-1,1868,596,5.75472,-0.888955
651,428,0,0,0,0,0,0,0,0,0,-1,1875,596,0,0
658,428,0,0,0,0,0,0,0,0,0,-1,1882,596,0,0
665,428,0,0,0,0,0,0,0,0,0,-1,1889,596,0,0
672,428,0,0,0,0,0,0,0,0,0,-1,1896,596,0,0
679,428,0,0,0,0,0,0,0,0,0,-1,1903,596,0,0
686,428,0,0,0,0,0,0,0,0,0,-1,1910,596,0,0
693,428,0,0,0,0,0,0,0,0,0,-1,1917,596,0,0
700,428,0,0,0,0,0,0,0,0,0,-1,1924,596,0,0
707,428,0,0,0,0,0,0,0,0,0,-1,1931,596,0,0
714,428,0,0,0,0,0,0,0,0,0,-1,1938,596,0,0
721,428,0,0,0,0,0,0,0,0,0,-1,1945,596,0,0
728,428,0,0,0,0,0,0,0,0,0,-1,1952,596,0,0
735,428,0,0,0,0,0,0,0,0,0,-1,1959,596,0,0
742,428,0,0,0,0,0,0,0,0,0,-1,1966,596,0,0
749,428,0,0,0,0,0,0,0,0,0,-1,1973,596,0,0
756,428,0,0,0,0,0,0,0,0,0,-1,1980,596,0,0
763,428,0,0,0,0,0,0,0,0,0,-1,1987,596,0,0
770,428,0,0,0,0,0,0,0,0,0,-1,1994,596,0,0
777,428,0,0,0,0,0,0,0,0,0,-1,2001,596,0,0
784,428,0,0,0,0,0,0,0,0,0,-1,2008,596,0,0
791,428,0,0,0,0,0,0,0,0,0,-1,2015,596,0,0
798,428,0,0,0,0,0,0,0,0,0,-1,2022,596,0,0
805,428,0,0,0,0,0,0,0,0,0,-1,2029,596,0,0
812,428,0,0,0,0,0,0,0,0,0,-1,2036,596,0,0
-700,421,0,0,0,0,0,0,0,0,0,-1,524,603,0,0
-693,421,0,0,0,0,0,0,0,0,0,-1,531,603,0,0
-686,421,0,0,0,0,0,0,0,0,0,-1,538,603,0,0
-679,421,0,0,0,0,0,0,0,0,0,-1,545,603,0,0
-672,421,0,0,0,0,0,0,0,0,0,-1,552,603,0,0
-665,421,0,0,0,0,0,0,0,0,0,-1,559,603,0,0
-658,421,0,0,0,0,0,0,0,0,0,-1,566,603,0,0
-651,421,0,0,0,0,0,0,0,0,0,-1,573,603,0,0
-644,421,0,0,0,0,0,0,0,0,0,-1,580,603,0,0
-637,421,0,0,0,0,0,0,0,0,0,-1,587,603,0,0
-630,421,0,0,0,0,0,0,0,0,0,-1,594,603,0,0
-623,421,0,0,0,0,0,0,0,0,0,-1,601,603,0,0
-616,421,0,0,0,0,0,0,0,0,0,-1,608,603,0,0
-609,421,0,0,0,0,0,0,0,0,0,-1,615,603,0,0
-602,421,0,0,0,0,0,0,0,0,0,-1,622,603,0,0
-595,421,0,0,0,0,0,0,0,0,0,-1,629,603,0,0
-588,421,0,0,0,0,0,0,0,0,0,-1,636,603,0,0
-581,421,0,0,0,0,0,0,0,0,0,-1,643,603,0,0
-574,421,0,0,0,0,0,0,0,0,0,-1,650,603,0,0
-567,421,0,0,0,0,0,0,0,0,0,-1,657,603,0,0
-560,421,0,0,0,0,0,0,0,0,0,-1,664,603,0,0
-553,421,0,0,0,0,0,0,0,0,0,-1,671,603,0,0
-546,421,0,0,0,0,0,0,0,0,0,-1,678,603,0,0
-539,421,0,0,0,0,0,0,0,0,0,-1,685,603,0,0
-532,421,-8.97382,6.95636,0,0,0,0,0,0,0,-1,692,603,-8.97384,-6.95634
-525,421,-2.11481,-8.04272,0,0,0,0,0,0,0,-1,699,603,-2.11483,8.0427
-518,421,-3.05908,-5.07233,0,0,0,0,0,0,0,-1,706,603,-3.0591,5.07235
-511,421,-4.63525,-4.08447,0,0,0,0,0,0,0,-1,713,603,-4.63524,4.08449
-504,421,-5.17029,-4.94458,0,0,0,0,0,0,0,-1,720,603,-5.17029,4.9446
-497,421,-6.63141,-2.32501,0,0,0,0,0,0,0,-1,727,603,-6.6314,2.32498
-490,421,-6.7616,-4.14783,0,0,0,0,0,0,0,-1,734,603,-6.76159,4.1478
-483,421,-8.61902,-8.12671,0,0,0,0,0,0,0,-1,741,603,-8.61901,8.12671
-476,421,-8.73462,-8.63123,4.60277e-05,0.00812937,-0.00440149,0.0100633,-0.00188793,-1.1568,0.00741871,0.0355871,748,603,-8.73459,8.6312
-469,421,-8.88647,-9.07593,0.000178427,0.00608925,-0.00345294,0.00767886,-0.00141118,-1.13936,0.0056487,0.0242069,755,603,-8.88645,9.07594
-462,421,-8.91705,-9.73816,0.000381715,0.0045397,-0.00269946,0.00586795,-0.000946538,-1.11353,0.00426266,0.01963,762,603,-8.91707,9.73819
-455,421,-8.9306,-10.3474,0.000481875,0.00332017,-0.00202808,0.00437632,-0.000574275,-1.09068,0.0031266,0.0192816,769,603,-8.93061,10.3474
-448,421,-8.93652,-10.9456,0.000579137,0.00210285,-0.00138421,0.00292101,-0.000239025,-1.03697,0.00203171,0.0188667,776,603,-8.93653,10.9455
-441,421,-8.95178,-11.5273,0.000646622,0.00109934,-0.000823565,0.00172709,1.88744e-05,-0.919513,0.00114515,0.014852,783,603,-8.95175,11.5273
-434,421,-8.97839,-12.1146,0.000713384,0.000328851,-0.000368252,0.00093654,0.000105695,-0.54481,0.00059228,0.0108334,790,603,-8.97842,12.1146
-427,421,-8.97919,-12.7006,0.000792956,-0.000442192,2.68442e-05,0.000793539,-0.000442776,0.0217199,0.000723299,0.0103552,797,603,-8.97919,12.7005
-420,421,-8.99402,-13.2556,0.000909612,-0.00117878,0.000385065,0.000978349,-0.00124752,0.176647,0.00128823,0.0116786,804,603,-8.99405,13.2556
-413,421,-9.03485,-13.8265,0.00102003,-0.00186815,0.00072019,0.00118966,-0.00203777,0.231309,0.00188468,0.0142817,811,603,-9.03485,13.8265
-406,421,-9.0744,-14.4324,0.00114448,-0.00259892,0.00102161,0.00140514,-0.00285958,0.249814,0.00250951,0.0202179,818,603,-9.07438,14.4324
-399,421,-8.9881,-15.0689,0.00149128,-0.00333703,0.0011776,0.00176318,-0.00360893,0.226916,0.00316203,0.0305153,825,603,-8.98809,15.0689
-392,421,-8.89215,-15.6713,0,0,0,0,0,0,0,-1,832,603,-8.89214,15.6713
-385,421,-8.80859,-15.2676,0,0,0,0,0,0,0,-1,839,603,-8.80859,15.2676
-378,421,-4.94733,-8.87909,0,0,0,0,0,0,0,-1,846,603,-4.94731,8.87906
-371,421,-5.65082,-7.01849,0,0,0,0,0,0,0,-1,853,603,-5.65082,7.0185
-364,421,-5.94189,-7.09875,0,0,0,0,0,0,0,-1,860,603,-5.94192,7.09878
-357,421,-7.62531,-8.26337,0,0,0,0,0,0,0,-1,867,603,-7.62532,8.26337
-350,421,-5.38019,-3.75024,0,0,0,0,0,0,0,-1,874,603,-5.38017,3.75026
-343,421,-6.22797,-2.57123,0,0,0,0,0,0,0,-1,881,603,-6.22798,2.57121
-336,421,-6.22882,-2.59369,0,0,0,0,0,0,0,-1,888,603,-6.22883,2.5937
-329,421,-4.50134,-1.49469,0,0,0,0,0,0,0,-1,895,603,-4.50137,1.49468
-322,421,-7.55817,1.13263,0,0,0,0,0,0,0,-1,902,603,-7.55818,-1.13263
-315,421,-4.47821,-1.26733,0,0,0,0,0,0,0,-1,909,603,-4.47824,1.26732
-308,421,0,0,0,0,0,0,0,0,0,-1,916,603,0,0
-301,421,0,0,0,0,0,0,0,0,0,-1,923,603,0,0
-294,421,0,0,0,0,0,0,0,0,0,-1,930,603,0,0
-287,421,0,0,0,0,0,0,0,0,0,-1,937,603,0,0
-280,421,0,0,0,0,0,0,0,0,0,-1,944,603,0,0
-273,421,0,0,0,0,0,0,0,0,0,-1,951,603,0,0
-266,421,0,0,0,0,0,0,0,0,0,-1,958,603,0,0
-259,421,0,0,0,0,0,0,0,0,0,-1,965,603,0,0
-252,421,0,0,0,0,0,0,0,0,0,-1,972,603,0,0
-245,421,0,0,0,0,0,0,0,0,0,-1,979,603,0,0
-238,421,0,0,0,0,0,0,0,0,0,-1,986,603,0,0
-231,421,0,0,0,0,0,0,0,0,0,-1,993,603,0,0
-224,421,0,0,0,0,0,0,0,0,0,-1,1000,603,0,0
-217,421,0,0,0,0,0,0,0,0,0,-1,1007,603,0,0
-210,421,0,0,0,0,0,0,0,0,0,-1,1014,603,0,0
-203,421,0,0,0,0,0,0,0,0,0,-1,1021,603,0,0
-196,421,0,0,0,0,0,0,0,0,0,-1,1028,603,0,0
-189,421,0,0,0,0,0,0,0,0,0,-1,1035,603,0,0
-182,421,0,0,0,0,0,0,0,0,0,-1,1042,603,0,0
-175,421,0,0,0,0,0,0,0,0,0,-1,1049,603,0,0
-168,421,0,0,0,0,0,0,0,0,0,-1,1056,603,0,0
-161,421,0,0,0,0,0,0,0,0,0,-1,1063,603,0,0
-154,421,0,0,0,0,0,0,0,0,0,-1,1070,603,0,0
-147,421,0,0,0,0,0,0,0,0,0,-1,1077,603,0,0
-140,421,0,0,0,0,0,0,0,0,0,-1,1084,603,0,0
-133,421,0,0,0,0,0,0,0,0,0,-1,1091,603,0,0
-126,421,0,0,0,0,0,0,0,0,0,-1,1098,603,0,0
-119,421,0,0,0,0,0,0,0,0,0,-1,1105,603,0,0
-112,421,0,0,0,0,0,0,0,0,0,-1,1112,603,0,0
-105,421,0,0,0,0,0,0,0,0,0,-1,1119,603,0,0
-98,421,0,0,0,0,0,0,0,0,0,-1,1126,603,0,0
-91,421,0,0,0,0,0,0,0,0,0,-1,1133,603,0,0
-84,421,0,0,0,0,0,0,0,0,0,-1,1140,603,0,0
-77,421,0,0,0,0,0,0,0,0,0,-1,1147,603,0,0
-70,421,0,0,0,0,0,0,0,0,0,-1,1154,603,0,0
-63,421,0,0,0,0,0,0,0,0,0,-1,1161,603,0,0
-56,421,0,0,0,0,0,0,0,0,0,-1,1168,603,0,0
-49,421,0,0,0,0,0,0,0,0,0,-1,1175,603,0,0
-42,421,0,0,0,0,0,0,0,0,0,-1,1182,603,0,0
-35,421,0,0,0,0,0,0,0,0,0,-1,1189,603,0,0
-28,421,0,0,0,0,0,0,0,0,0,-1,1196,603,0,0
-21,421,0,0,0,0,0,0,0,0,0,-1,1203,603,0,0
-14,421,0,0,0,0,0,0,0,0,0,-1,1210,603,0,0
-7,421,0,0,0,0,0,0,0,0,0,-1,1217,603,0,0
0,421,0,0,0,0,0,0,0,0,0,-1,1224,603,0,0
7,421,0,0,0,0,0,0,0,0,0,-1,1231,603,0,0
14,421,0,0,0,0,0,0,0,0,0,-1,1238,603,0,0
21,421,0,0,0,0,0,0,0,0,0,-1,1245,603,0,0
28,421,0,0,0,0,0,0,0,0,0,-1,1252,603,0,0
35,421,0,0,0,0,0,0,0,0,0,-1,1259,603,0,0
42,421,0,0,0,0,0,0,0,0,0,-1,1266,603,0,0
49,421,0,0,0,0,0,0,0,0,0,-1,1273,603,0,0
56,421,0,0,0,0,0,0,0,0,0,-1,1280,603,0,0
63,421,0,0,0,0,0,0,0,0,0,-1,1287,603,0,0
70,421,0,0,0,0,0,0,0,0,0,-1,1294,603,0,0
77,421,0,0,0,0,0,0,0,0,0,-1,1301,603,0,0
84,421,0,0,0,0,0,0,0,0,0,-1,1308,603,0,0
91,421,0,0,0,0,0,0,0,0,0,-1,1315,603,0,0
98,421,0,0,0,0,0,0,0,0,0,-1,1322,603,0,0
105,421,0,0,0,0,0,0,0,0,0,-1,1329,603,0,0
112,421,0,0,0,0,0,0,0,0,0,-1,1336,603,0,0
119,421,0,0,0,0,0,0,0,0,0,-1,1343,603,0,0
126,421,0,0,0,0,0,0,0,0,0,-1,1350,603,0,0
133,421,0,0,0,0,0,0,0,0,0,-1,1357,603,0,0
140,421,0,0,0,0,0,0,0,0,0,-1,1364,603,0,0
147,421,0,0,0,0,0,0,0,0,0,-1,1371,603,0,0
154,421,0,0,0,0,0,0,0,0,0,-1,1378,603,0,0
161,421,0,0,0,0,0,0,0,0,0,-1,1385,603,0,0
168,421,0,0,0,0,0,0,0,0,0,-1,1392,603,0,0
175,421,0,0,0,0,0,0,0,0,0,-1,1399,603,0,0
182,421,0,0,0,0,0,0,0,0,0,-1,1406,603,0,0
189,421,0,0,0,0,0,0,0,0,0,-1,1413,603,0,0
196,421,0,0,0,0,0,0,0,0,0,-1,1420,603,0,0
203,421,0,0,0,0,0,0,0,0,0,-1,1427,603,0,0
210,421,0,0,0,0,0,0,0,0,0,-1,1434,603,0,0
217,421,0,0,0,0,0,0,0,0,0,-1,1441,603,0,0
224,421,0,0,0,0,0,0,0,0,0,-1,1448,603,0,0
231,421,0,0,0,0,0,0,0,0,0,-1,1455,603,0,0
238,421,0,0,0,0,0,0,0,0,0,-1,1462,603,0,0
245,421,0,0,0,0,0,0,0,0,0,-1,1469,603,0,0
252,421,0,0,0,0,0,0,0,0,0,-1,1476,603,0,0
259,421,0,0,0,0,0,0,0,0,0,-1,1483,603,0,0
266,421,0,0,0,0,0,0,0,0,0,-1,1490,603,0,0
273,421,0,0,0,0,0,0,0,0,0,-1,1497,603,0,0
280,421,0,0,0,0,0,0,0,0,0,-1,1504,603,0,0
287,421,0,0,0,0,0,0,0,0,0,-1,1511,603,0,0
294,421,0,0,0,0,0,0,0,0,0,-1,1518,603,0,0
301,421,0,0,0,0,0,0,0,0,0,-1,1525,603,0,0
308,421,0,0,0,0,0,0,0,0,0,-1,1532,603,0,0
315,421,0,0,0,0,0,0,0,0,0,-1,1539,603,0,0
322,421,0,0,0,0,0,0,0,0,0,-1,1546,603,0,0
329,421,0,0,0,0,0,0,0,0,0,-1,1553,603,0,0
336,421,0,0,0,0,0,0,0,0,0,-1,1560,603,0,0
343,421,0,0,0,0,0,0,0,0,0,-1,1567,603,0,0
350,421,0,0,0,0,0,0,0,0,0,-1,1574,603,0,0
357,421,0,0,0,0,0,0,0,0,0,-1,1581,603,0,0
364,421,0,0,0,0,0,0,0,0,0,-1,1588,603,0,0
371,421,0,0,0,0,0,0,0,0,0,-1,1595,603,0,0
378,421,0,0,0,0,0,0,0,0,0,-1,1602,603,0,0
385,421,0,0,0,0,0,0,0,0,0,-1,1609,603,0,0
392,421,0,0,0,0,0,0,0,0,0,-1,1616,603,0,0
399,421,0,0,0,0,0,0,0,0,0,-1,1623,603,0,0
406,421,0,0,0,0,0,0,0,0,0,-1,1630,603,0,0
413,421,0,0,0,0,0,0,0,0,0,-1,1637,603,0,0
420,421,0,0,0,0,0,0,0,0,0,-1,1644,603,0,0
427,421,0,0,0,0,0,0,0,0,0,-1,1651,603,0,0
434,421,3.68176,-0.0327759,0,0,0,0,0,0,0,-1,1658,603,3.6818,0.0328037
441,421,8.06689,0.527832,0,0,0,0,0,0,0,-1,1665,603,8.06693,-0.527851
448,421,6.93921,0.802246,0,0,0,0,0,0,0,-1,1672,603,6.93923,-0.802251
455,421,7.29456,2.14825,0,0,0,0,0,0,0,-1,1679,603,7.29461,-2.14827
462,421,7.86902,3.53174,0,0,0,0,0,0,0,-1,1686,603,7.869,-3.53173
469,421,8.06604,2.81213,0,0,0,0,0,0,0,-1,1693,603,8.06606,-2.81212
476,421,8.26306,2.09253,0,0,0,0,0,0,0,-1,1700,603,8.26312,-2.09251
483,421,8.05322,0.798096,0,0,0,0,0,0,0,-1,1707,603,8.05323,-0.7981
490,421,7.51233,0.213074,0,0,0,0,0,0,0,-1,1714,603,7.51235,-0.213043
497,421,7.49634,-2.86688,0,0,0,0,0,0,0,-1,1721,603,7.4963,2.86688
504,421,6.90491,-2.18671,0,0,0,0,0,0,0,-1,1728,603,6.90491,2.18669
511,421,6.31348,-1.50653,0,0,0,0,0,0,0,-1,1735,603,6.31353,1.5065
518,421,6.27588,-2.49878,0,0,0,0,0,0,0,-1,1742,603,6.2759,2.4988
525,421,19.2848,-13.8927,0,0,0,0,0,0,0,-1,1749,603,19.2848,13.8927
532,421,19.39,-13.0198,0.00466605,1.38976e-05,0.00126451,0.00498754,-0.000307593,0.248967,0.00343215,0.0447276,1756,603,19.39,13.0198
539,421,19.5273,-12.3813,0.00404718,8.09571e-05,0.00108367,0.00432395,-0.000195816,0.250057,0.00295007,0.0222137,1763,603,19.5273,12.3814
546,421,19.5153,-11.8447,0.00343088,0.000169761,0.000961471,0.00369324,-9.26008e-05,0.26639,0.0024936,0.013187,1770,603,19.5152,11.8447
553,421,19.4818,-11.2324,0.00289198,0.00031369,0.000891237,0.00317006,3.56092e-05,0.302445,0.00210161,0.0127414,1777,603,19.4818,11.2324
560,421,19.4617,-10.6125,0.00234855,0.000611386,0.000883894,0.0027192,0.000240733,0.397068,0.00173812,0.015254,1784,603,19.4616,10.6125
567,421,19.4518,-10.0189,0.00189073,0.0010138,0.000993821,0.00253851,0.000366019,0.577645,0.00158449,0.017587,1791,603,19.4518,10.0189
574,421,19.4261,-9.3974,0.00159185,0.00152023,0.00121335,0.00276992,0.000342167,0.770646,0.00174378,0.0191359,1798,603,19.4261,9.39738
581,421,19.3947,-8.76874,0.0014568,0.00211696,0.00154937,0.00337102,0.000202735,0.890351,0.00218291,0.0160488,1805,603,19.3946,8.76874
588,421,19.3661,-8.20355,0.00152194,0.00289576,0.00202295,0.00434524,7.24634e-05,0.949069,0.00287297,0.0120198,1812,603,19.366,8.20355
595,421,19.3971,-7.57751,0.00179098,0.00380751,0.00263209,0.00561784,-1.93524e-05,0.96831,0.00375169,0.0180515,1819,603,19.3971,7.5775
602,421,19.4203,-6.90289,0,0,0,0,0,0,0,-1,1826,603,19.4203,6.90288
609,421,17.6451,-5.54187,0,0,0,0,0,0,0,-1,1833,603,17.6451,5.54189
616,421,17.7633,-4.72491,0,0,0,0,0,0,0,-1,1840,603,17.7633,4.7249
623,421,6.19885,0.376648,0,0,0,0,0,0,0,-1,1847,603,6.19881,-0.376624
630,421,6.54993,0.778748,0,0,0,0,0,0,0,-1,1854,603,6.54991,-0.778744
637,421,3.74512,1.65405,0,0,0,0,0,0,0,-1,1861,603,3.74517,-1.65407
644,421,3.58081,0.354675,0,0,0,0,0,0,0,-1,1868,603,3.58082,-0.354704
651,421,3.28687,3.66351,0,0,0,0,0,0,0,-1,1875,603,3.28688,-3.66353
658,421,0,0,0,0,0,0,0,0,0,-1,1882,603,0,0
665,421,0,0,0,0,0,0,0,0,0,-1,1889,603,0,0
672,421,0,0,0,0,0,0,0,0,0,-1,1896,603,0,0
679,421,0,0,0,0,0,0,0,0,0,-1,1903,603,0,0
686,421,0,0,0,0,0,0,0,0,0,-1,1910,603,0,0
693,421,0,0,0,0,0,0,0,0,0,-1,1917,603,0,0
700,421,0,0,0,0,0,0,0,0,0,-1,1924,603,0,0
707,421,0,0,0,0,0,0,0,0,0,-1,1931,603,0,0
714,421,0,0,0,0,0,0,0,0,0,-1,1938,603,0,0
721,421,0,0,0,0,0,0,0,0,0,-1,1945,603,0,0
728,421,0,0,0,0,0,0,0,0,0,-1,1952,603,0,0
735,421,0,0,0,0,0,0,0,0,0,-1,1959,603,0,0
742,421,0,0,0,0,0,0,0,0,0,-1,1966,603,0,0
749,421,0,0,0,0,0,0,0,0,0,-1,1973,603,0,0
756,421,0,0,0,0,0,0,0,0,0,-1,1980,603,0,0
763,421,0,0,0,0,0,0,0,0,0,-1,1987,603,0,0
770,421,0,0,0,0,0,0,0,0,0,-1,1994,603,0,0
777,421,0,0,0,0,0,0,0,0,0,-1,2001,603,0,0
784,421,0,0,0,0,0,0,0,0,0,-1,2008,603,0,0
791,421,0,0,0,0,0,0,0,0,0,-1,2015,603,0,0
798,421,0,0,0,0,0,0,0,0,0,-1,2022,603,0,0
805,421,0,0,0,0,0,0,0,0,0,-1,2029,603,0,0
812,421,0,0,0,0,0,0,0,0,0,-1,2036,603,0,0
-700,414,0,0,0,0,0,0,0,0,0,-1,524,610,0,0
-693,414,0,0,0,0,0,0,0,0,0,-1,531,610,0,0
-686,414,0,0,0,0,0,0,0,0,0,-1,538,610,0,0
-679,414,0,0,0,0,0,0,0,0,0,-1,545,610,0,0
-672,414,0,0,0,0,0,0,0,0,0,-1,552,610,0,0
-665,414,0,0,0,0,0,0,0,0,0,-1,559,610,0,0
-658,414,0,0,0,0,0,0,0,0,0,-1,566,610,0,0
-651,414,0,0,0,0,0,0,0,0,0,-1,573,610,0,0
-644,414,0,0,0,0,0,0,0,0,0,-1,580,610,0,0
-637,414,0,0,0,0,0,0,0,0,0,-1,587,610,0,0
-630,414,0,0,0,0,0,0,0,0,0,-1,594,610,0,0
-623,414,0,0,0,0,0,0,0,0,0,-1,601,610,0,0
-616,414,0,0,0,0,0,0,0,0,0,-1,608,610,0,0
-609,414,0,0,0,0,0,0,0,0,0,-1,615,610,0,0
-602,414,0,0,0,0,0,0,0,0,0,-1,622,610,0,0
-595,414,0,0,0,0,0,0,0,0,0,-1,629,610,0,0
-588,414,0,0,0,0,0,0,0,0,0,-1,636,610,0,0
-581,414,0,0,0,0,0,0,0,0,0,-1,643,610,0,0
-574,414,0,0,0,0,0,0,0,0,0,-1,650,610,0,0
-567,414,0,0,0,0,0,0,0,0,0,-1,657,610,0,0
-560,414,0,0,0,0,0,0,0,0,0,-1,664,610,0,0
-553,414,0,0,0,0,0,0,0,0,0,-1,671,610,0,0
-546,414,0,0,0,0,0,0,0,0,0,-1,678,610,0,0
-539,414,-7.50146,5.65619,0,0,0,0,0,0,0,-1,685,610,-7.50149,-5.65617
-532,414,-8.15204,4.01605,0,0,0,0,0,0,0,-1,692,610,-8.15206,-4.01606
-525,414,-3.47137,-3.27924,0,0,0,0,0,0,0,-1,699,610,-3.47136,3.27922
-518,414,-4.12909,-4.36908,0,0,0,0,0,0,0,-1,706,610,-4.12909,4.36909
-511,414,-3.92542,-4.97021,0,0,0,0,0,0,0,-1,713,610,-3.92542,4.97023
-504,414,-9.35394,-5.49896,0,0,0,0,0,0,0,-1,720,610,-9.35394,5.49898
-497,414,-9.17554,-6.03741,0,0,0,0,0,0,0,-1,727,610,-9.17551,6.03743
-490,414,-9.53833,-6.91229,0,0,0,0,0,0,0,-1,734,610,-9.53833,6.91232
-483,414,-9.27875,-8.03467,0,0,0,0,0,0,0,-1,741,610,-9.27874,8.03468
-476,414,-9.43951,-8.57935,0.000206657,0.0067846,-0.00368625,0.00843584,-0.00144459,-1.14965,0.00616213,0.0244783,748,610,-9.43949,8.57933
-469,414,-9.4917,-9.13013,0.000376369,0.00494267,-0.00288178,0.00633613,-0.00101709,-1.1204,0.00460074,0.013397,755,610,-9.49167,9.13015
-462,414,-9.50916,-9.75238,0.000582739,0.00353339,-0.00223661,0.00473743,-0.0006213,-1.07695,0.00338445,0.0224872,762,610,-9.50914,9.75236
-455,414,-9.54059,-10.3433,0.000707432,0.00238739,-0.00165857,0.00340655,-0.000311734,-1.01979,0.00238176,0.0251978,769,610,-9.54058,10.3433
-448,414,-9.53015,-10.9244,0.000845805,0.00126265,-0.00110045,0.00217424,-6.57866e-05,-0.878987,0.00147191,0.0249636,776,610,-9.53018,10.9244
-441,414,-9.53345,-11.5248,0.000919087,0.000332109,-0.000591496,0.0012859,-3.47074e-05,-0.555104,0.000869069,0.0178061,783,610,-9.53342,11.5248
-434,414,-9.5705,-12.0782,0.000965269,-0.000390932,-0.000156015,0.000982985,-0.000408648,-0.11307,0.000825954,0.0103721,790,610,-9.57053,12.0782
-427,414,-9.58234,-12.6492,0.00099043,-0.00115255,0.000255033,0.00102036,-0.00118249,0.116835,0.00127296,0.0114984,797,610,-9.58235,12.6492
-420,414,-9.5835,-13.2266,0.000996755,-0.00192302,0.000686122,0.00114995,-0.00207621,0.219674,0.00188804,0.0108736,804,610,-9.58348,13.2266
-413,414,-9.61975,-13.8306,0.00101231,-0.00256073,0.0010409,0.00129343,-0.00284184,0.263778,0.00244265,0.010619,811,610,-9.61974,13.8306
-406,414,-9.62793,-14.5009,0.000999805,-0.00336394,0.00141335,0.00141757,-0.0037817,0.287403,0.00310352,0.025001,818,610,-9.62793,14.5009
-399,414,-9.58496,-15.1719,0,0,0,0,0,0,0,-1,825,610,-9.58498,15.1719
-392,414,-9.43781,-14.5624,0,0,0,0,0,0,0,-1,832,610,-9.43779,14.5624
-385,414,-8.14691,-13.0653,0,0,0,0,0,0,0,-1,839,610,-8.14692,13.0653
-378,414,-8.04907,-11.3331,0,0,0,0,0,0,0,-1,846,610,-8.04905,11.3331
-371,414,-5.20886,-8.05151,0,0,0,0,0,0,0,-1,853,610,-5.20887,8.05153
-364,414,-6.76282,-6.58759,0,0,0,0,0,0,0,-1,860,610,-6.7628,6.58756
-357,414,-9.08685,-8.86188,0,0,0,0,0,0,0,-1,867,610,-9.08688,8.86187
-350,414,-6.4502,-2.41821,0,0,0,0,0,0,0,-1,874,610,-6.45021,2.41822
-343,414,-6.80249,-2.32117,0,0,0,0,0,0,0,-1,881,610,-6.80252,2.32116
-336,414,-7.11017,-2.52026,0,0,0,0,0,0,0,-1,888,610,-7.11016,2.52026
-329,414,-7.59747,-2.70313,0,0,0,0,0,0,0,-1,895,610,-7.59747,2.70315
-322,414,-4.42236,-1.29163,0,0,0,0,0,0,0,-1,902,610,-4.42238,1.2916
-315,414,0,0,0,0,0,0,0,0,0,-1,909,610,0,0
-308,414,0,0,0,0,0,0,0,0,0,-1,916,610,0,0
-301,414,0,0,0,0,0,0,0,0,0,-1,923,610,0,0
-294,414,0,0,0,0,0,0,0,0,0,-1,930,610,0,0
-287,414,0,0,0,0,0,0,0,0,0,-1,937,610,0,0
-280,414,0,0,0,0,0,0,0,0,0,-1,944,610,0,0
-273,414,0,0,0,0,0,0,0,0,0,-1,951,610,0,0
-266,414,0,0,0,0,0,0,0,0,0,-1,958,610,0,0
-259,414,0,0,0,0,0,0,0,0,0,-1,965,610,0,0
-252,414,0,0,0,0,0,0,0,0,0,-1,972,610,0,0
-245,414,0,0,0,0,0,0,0,0,0,-1,979,610,0,0
-238,414,0,0,0,0,0,0,0,0,0,-1,986,610,0,0
-231,414,0,0,0,0,0,0,0,0,0,-1,993,610,0,0
-224,414,0,0,0,0,0,0,0,0,0,-1,1000,610,0,0
-217,414,0,0,0,0,0,0,0,0,0,-1,1007,610,0,0
-210,414,0,0,0,0,0,0,0,0,0,-1,1014,610,0,0
-203,414,0,0,0,0,0,0,0,0,0,-1,1021,610,0,0
-196,414,0,0,0,0,0,0,0,0,0,-1,1028,610,0,0
-189,414,0,0,0,0,0,0,0,0,0,-1,1035,610,0,0
-182,414,0,0,0,0,0,0,0,0,0,-1,1042,610,0,0
-175,414,0,0,0,0,0,0,0,0,0,-1,1049,610,0,0
-168,414,0,0,0,0,0,0,0,0,0,-1,1056,610,0,0
-161,414,0,0,0,0,0,0,0,0,0,-1,1063,610,0,0
-154,414,0,0,0,0,0,0,0,0,0,-1,1070,610,0,0
-147,414,0,0,0,0,0,0,0,0,0,-1,1077,610,0,0
-140,414,0,0,0,0,0,0,0,0,0,-1,1084,610,0,0
-133,414,0,0,0,0,0,0,0,0,0,-1,1091,610,0,0
-126,414,0,0,0,0,0,0,0,0,0,-1,1098,610,0,0
-119,414,0,0,0,0,0,0,0,0,0,-1,1105,610,0,0
-112,414,0,0,0,0,0,0,0,0,0,-1,1112,610,0,0
-105,414,0,0,0,0,0,0,0,0,0,-1,1119,610,0,0
-98,414,0,0,0,0,0,0,0,0,0,-1,1126,610,0,0
-91,414,0,0,0,0,0,0,0,0,0,-1,1133,610,0,0
-84,414,0,0,0,0,0,0,0,0,0,-1,1140,610,0,0
-77,414,0,0,0,0,0,0,0,0,0,-1,1147,610,0,0
-70,414,0,0,0,0,0,0,0,0,0,-1,1154,610,0,0
-63,414,0,0,0,0,0,0,0,0,0,-1,1161,610,0,0
-56,414,0,0,0,0,0,0,0,0,0,-1,1168,610,0,0
-49,414,0,0,0,0,0,0,0,0,0,-1,1175,610,0,0
-42,414,0,0,0,0,0,0,0,0,0,-1,1182,610,0,0
-35,414,0,0,0,0,0,0,0,0,0,-1,1189,610,0,0
-28,414,0,0,0,0,0,0,0,0,0,-1,1196,610,0,0
-21,414,0,0,0,0,0,0,0,0,0,-1,1203,610,0,0
-14,414,0,0,0,0,0,0,0,0,0,-1,1210,610,0,0
-7,414,0,0,0,0,0,0,0,0,0,-1,1217,610,0,0
0,414,0,0,0,0,0,0,0,0,0,-1,1224,610,0,0
7,414,0,0,0,0,0,0,0,0,0,-1,1231,610,0,0
14,414,0,0,0,0,0,0,0,0,0,-1,1238,610,0,0
21,414,0,0,0,0,0,0,0,0,0,-1,1245,610,0,0
28,414,0,0,0,0,0,0,0,0,0,-1,1252,610,0,0
35,414,0,0,0,0,0,0,0,0,0,-1,1259,610,0,0
42,414,0,0,0,0,0,0,0,0,0,-1,1266,610,0,0
49,414,0,0,0,0,0,0,0,0,0,-1,1273,610,0,0
56,414,0,0,0,0,0,0,0,0,0,-1,1280,610,0,0
63,414,0,0,0,0,0,0,0,0,0,-1,1287,610,0,0
70,414,0,0,0,0,0,0,0,0,0,-1,1294,610,0,0
77,414,0,0,0,0,0,0,0,0,0,-1,1301,610,0,0
84,414,0,0,0,0,0,0,0,0,0,-1,1308,610,0,0
91,414,0,0,0,0,0,0,0,0,0,-1,1315,610,0,0
98,414,0,0,0,0,0,0,0,0,0,-1,1322,610,0,0
105,414,0,0,0,0,0,0,0,0,0,-1,1329,610,0,0
112,414,0,0,0,0,0,0,0,0,0,-1,1336,610,0,0
119,414,0,0,0,0,0,0,0,0,0,-1,1343,610,0,0
126,414,0,0,0,0,0,0,0,0,0,-1,1350,610,0,0
133,414,0,0,0,0,0,0,0,0,0,-1,1357,610,0,0
140,414,0,0,0,0,0,0,0,0,0,-1,1364,610,0,0
147,414,0,0,0,0,0,0,0,0,0,-1,1371,610,0,0
154,414,0,0,0,0,0,0,0,0,0,-1,1378,610,0,0
161,414,0,0,0,0,0,0,0,0,0,-1,1385,610,0,0
168,414,0,0,0,0,0,0,0,0,0,-1,1392,610,0,0
175,414,0,0,0,0,0,0,0,0,0,-1,1399,610,0,0
182,414,0,0,0,0,0,0,0,0,0,-1,1406,610,0,0
189,414,0,0,0,0,0,0,0,0,0,-1,1413,610,0,0
196,414,0,0,0,0,0,0,0,0,0,-1,1420,610,0,0
203,414,0,0,0,0,0,0,0,0,0,-1,1427,610,0,0
210,414,0,0,0,0,0,0,0,0,0,-1,1434,610,0,0
217,414,0,0,0,0,0,0,0,0,0,-1,1441,610,0,0
224,414,0,0,0,0,0,0,0,0,0,-1,1448,610,0,0
231,414,0,0,0,0,0,0,0,0,0,-1,1455,610,0,0
238,414,0,0,0,0,0,0,0,0,0,-1,1462,610,0,0
245,414,0,0,0,0,0,0,0,0,0,-1,1469,610,0,0
252,414,0,0,0,0,0,0,0,0,0,-1,1476,610,0,0
259,414,0,0,0,0,0,0,0,0,0,-1,1483,610,0,0
266,414,0,0,0,0,0,0,0,0,0,-1,1490,610,0,0
273,414,0,0,0,0,0,0,0,0,0,-1,1497,610,0,0
280,414,0,0,0,0,0,0,0,0,0,-1,1504,610,0,0
287,414,0,0,0,0,0,0,0,0,0,-1,1511,610,0,0
294,414,0,0,0,0,0,0,0,0,0,-1,1518,610,0,0
301,414,0,0,0,0,0,0,0,0,0,-1,1525,610,0,0
308,414,0,0,0,0,0,0,0,0,0,-1,1532,610,0,0
315,414,0,0,0,0,0,0,0,0,0,-1,1539,610,0,0
322,414,0,0,0,0,0,0,0,0,0,-1,1546,610,0,0
329,414,0,0,0,0,0,0,0,0,0,-1,1553,610,0,0
336,414,0,0,0,0,0,0,0,0,0,-1,1560,610,0,0
343,414,0,0,0,0,0,0,0,0,0,-1,1567,610,0,0
350,414,0,0,0,0,0,0,0,0,0,-1,1574,610,0,0
357,414,0,0,0,0,0,0,0,0,0,-1,1581,610,0,0
364,414,0,0,0,0,0,0,0,0,0,-1,1588,610,0,0
371,414,0,0,0,0,0,0,0,0,0,-1,1595,610,0,0
378,414,0,0,0,0,0,0,0,0,0,-1,1602,610,0,0
385,414,0,0,0,0,0,0,0,0,0,-1,1609,610,0,0
392,414,0,0,0,0,0,0,0,0,0,-1,1616,610,0,0
399,414,0,0,0,0,0,0,0,0,0,-1,1623,610,0,0
406,414,0,0,0,0,0,0,0,0,0,-1,1630,610,0,0
413,414,0,0,0,0,0,0,0,0,0,-1,1637,610,0,0
420,414,0,0,0,0,0,0,0,0,0,-1,1644,610,0,0
427,414,0,0,0,0,0,0,0,0,0,-1,1651,610,0,0
434,414,0,0,0,0,0,0,0,0,0,-1,1658,610,0,0
441,414,7.84375,0.584412,0,0,0,0,0,0,0,-1,1665,610,7.84379,-0.584394
448,414,7.40808,1.25446,0,0,0,0,0,0,0,-1,1672,610,7.40807,-1.25446
455,414,6.3512,1.73846,0,0,0,0,0,0,0,-1,1679,610,6.3512,-1.73847
462,414,8.18103,3.22113,0,0,0,0,0,0,0,-1,1686,610,8.18108,-3.22112
469,414,8.38513,2.49579,0,0,0,0,0,0,0,-1,1693,610,8.38516,-2.49576
476,414,8.64099,1.71161,0,0,0,0,0,0,0,-1,1700,610,8.64097,-1.71164
483,414,8.62744,0.687622,0,0,0,0,0,0,0,-1,1707,610,8.62749,-0.687615
490,414,8.38831,-0.0302734,0,0,0,0,0,0,0,-1,1714,610,8.38835,0.0302913
497,414,4.71094,-0.110046,0,0,0,0,0,0,0,-1,1721,610,4.71089,0.110024
504,414,7.19568,-1.43835,0,0,0,0,0,0,0,-1,1728,610,7.19563,1.43836
511,414,5.94153,-1.28772,0,0,0,0,0,0,0,-1,1735,610,5.94151,1.28769
518,414,4.53381,-0.0996704,0,0,0,0,0,0,0,-1,1742,610,4.53378,0.0996819
525,414,6.18811,-1.64056,0,0,0,0,0,0,0,-1,1749,610,6.18814,1.64055
532,414,19.9595,-13.2518,0,0,0,0,0,0,0,-1,1756,610,19.9595,13.2518
539,414,20.1082,-12.4307,0,0,0,0,0,0,0,-1,1763,610,20.1082,12.4307
546,414,20.0905,-11.7977,0.00444021,-2.60813e-05,0.0010965,0.00469488,-0.000280755,0.228215,0.00322758,0.0141572,1770,610,20.0905,11.7976
553,414,20.0941,-11.2049,0.00372462,7.93347e-05,0.000966391,0.00396497,-0.000161015,0.243763,0.00269859,0.0126409,1777,610,20.0941,11.2049
560,414,20.0775,-10.5977,0.00302385,0.000317554,0.000895699,0.00329344,4.79612e-05,0.292361,0.00217982,0.0150751,1784,610,20.0775,10.5976
567,414,20.0531,-9.98187,0.00241191,0.000635232,0.000928816,0.00280881,0.000238329,0.403835,0.00179837,0.024226,1791,610,20.0531,9.98186
574,414,20.0122,-9.37341,0.00199045,0.00108394,0.00109043,0.00271808,0.000356309,0.588429,0.00170573,0.0210046,1798,610,20.0122,9.37344
581,414,20.0151,-8.74341,0.00174719,0.00164537,0.00137541,0.00307263,0.000319924,0.766899,0.00195055,0.0167412,1805,610,20.0152,8.74343
588,414,19.9584,-8.15668,0.00168212,0.00238414,0.00176972,0.00383732,0.000228941,0.883299,0.00248542,0.0164992,1812,610,19.9583,8.15667
595,414,19.9503,-7.5108,0.00186644,0.00326688,0.0023257,0.00499548,0.000137836,0.931621,0.00328534,0.0209882,1819,610,19.9503,7.51081
602,414,19.9491,-6.92114,0.00227185,0.00439713,0.00304537,0.00655993,0.000109042,0.953262,0.0043374,0.0238041,1826,610,19.9491,6.92112
609,414,19.9164,-6.27118,0,0,0,0,0,0,0,-1,1833,610,19.9164,6.2712
616,414,20.1763,-5.40161,0,0,0,0,0,0,0,-1,1840,610,20.1763,5.40159
623,414,9.6969,0.0378418,0,0,0,0,0,0,0,-1,1847,610,9.69685,-0.0378644
630,414,5.47144,0.499329,0,0,0,0,0,0,0,-1,1854,610,5.47142,-0.499303
637,414,8.36707,4.16278,0,0,0,0,0,0,0,-1,1861,610,8.36709,-4.16278
644,414,5.87073,1.51422,0,0,0,0,0,0,0,-1,1868,610,5.87076,-1.51424
651,414,3.6377,0.820557,0,0,0,0,0,0,0,-1,1875,610,3.6377,-0.820543
658,414,2.29761,3.87323,0,0,0,0,0,0,0,-1,1882,610,2.29758,-3.87325
665,414,0,0,0,0,0,0,0,0,0,-1,1889,610,0,0
672,414,0,0,0,0,0,0,0,0,0,-1,1896,610,0,0
679,414,0,0,0,0,0,0,0,0,0,-1,1903,610,0,0
686,414,0,0,0,0,0,0,0,0,0,-1,1910,610,0,0
693,414,0,0,0,0,0,0,0,0,0,-1,1917,610,0,0
700,414,0,0,0,0,0,0,0,0,0,-1,1924,610,0,0
707,414,0,0,0,0,0,0,0,0,0,-1,1931,610,0,0
714,414,0,0,0,0,0,0,0,0,0,-1,1938,610,0,0
721,414,0,0,0,0,0,0,0,0,0,-1,1945,610,0,0
728,414,0,0,0,0,0,0,0,0,0,-1,1952,610,0,0
735,414,0,0,0,0,0,0,0,0,0,-1,1959,610,0,0
742,414,0,0,0,0,0,0,0,0,0,-1,1966,610,0,0
749,414,0,0,0,0,0,0,0,0,0,-1,1973,610,0,0
756,414,0,0,0,0,0,0,0,0,0,-1,1980,610,0,0
763,414,0,0,0,0,0,0,0,0,0,-1,1987,610,0,0
770,414,0,0,0,0,0,0,0,0,0,-1,1994,610,0,0
777,414,0,0,0,0,0,0,0,0,0,-1,2001,610,0,0
784,414,0,0,0,0,0,0,0,0,0,-1,2008,610,0,0
791,414,0,0,0,0,0,0,0,0,0,-1,2015,610,0,0
798,414,0,0,0,0,0,0,0,0,0,-1,2022,610,0,0
805,414,0,0,0,0,0,0,0,0,0,-1,2029,610,0,0
812,414,0,0,0,0,0,0,0,0,0,-1,2036,610,0,0
-700,407,0,0,0,0,0,0,0,0,0,-1,524,617,0,0
-693,407,0,0,0,0,0,0,0,0,0,-1,531,617,0,0
-686,407,0,0,0,0,0,0,0,0,0,-1,538,617,0,0
-679,407,0,0,0,0,0,0,0,0,0,-1,545,617,0,0
-672,407,0,0,0,0,0,0,0,0,0,-1,552,617,0,0
-665,407,0,0,0,0,0,0,0,0,0,-1,559,617,0,0
-658,407,0,0,0,0,0,0,0,0,0,-1,566,617,0,0
-651,407,0,0,0,0,0,0,0,0,0,-1,573,617,0,0
-644,407,0,0,0,0,0,0,0,0,0,-1,580,617,0,0
-637,407,0,0,0,0,0,0,0,0,0,-1,587,617,0,0
-630,407,0,0,0,0,0,0,0,0,0,-1,594,617,0,0
-623,407,0,0,0,0,0,0,0,0,0,-1,601,617,0,0
-616,407,0,0,0,0,0,0,0,0,0,-1,608,617,0,0
-609,407,0,0,0,0,0,0,0,0,0,-1,615,617,0,0
-602,407,0,0,0,0,0,0,0,0,0,-1,622,617,0,0
-595,407,0,0,0,0,0,0,0,0,0,-1,629,617,0,0
-588,407,0,0,0,0,0,0,0,0,0,-1,636,617,0,0
-581,407,0,0,0,0,0,0,0,0,0,-1,643,617,0,0
-574,407,0,0,0,0,0,0,0,0,0,-1,650,617,0,0
-567,407,0,0,0,0,0,0,0,0,0,-1,657,617,0,0
-560,407,0,0,0,0,0,0,0,0,0,-1,664,617,0,0
-553,407,0,0,0,0,0,0,0,0,0,-1,671,617,0,0
-546,407,-8.54517,-0.658142,0,0,0,0,0,0,0,-1,678,617,-8.54515,0.658112
-539,407,-6.09442,-1.01154,0,0,0,0,0,0,0,-1,685,617,-6.09441,1.01155
-532,407,-7.75665,1.62152,0,0,0,0,0,0,0,-1,692,617,-7.75667,-1.62154
-525,407,-3.78247,-2.67639,0,0,0,0,0,0,0,-1,699,617,-3.78246,2.67638
-518,407,-5.013,-5.87323,0,0,0,0,0,0,0,-1,706,617,-5.013,5.87324
-511,407,-9.42743,-4.94189,0,0,0,0,0,0,0,-1,713,617,-9.42745,4.94191
-504,407,-9.80591,-7.48315,0,0,0,0,0,0,0,-1,720,617,-9.80588,7.48317
-497,407,-9.84467,-6.81641,0,0,0,0,0,0,0,-1,727,617,-9.84468,6.8164
-490,407,-10.0933,-7.03192,0,0,0,0,0,0,0,-1,734,617,-10.0933,7.03193
-483,407,-9.95752,-7.91864,0.00027305,0.00780456,-0.00408125,0.00959196,-0.00151435,-1.15801,0.0069546,0.0342602,741,617,-9.9575,7.91864
-476,407,-9.99945,-8.49323,0.000312148,0.00564736,-0.00311504,0.00708092,-0.00112142,-1.13949,0.0051354,0.0169689,748,617,-9.99947,8.49325
-469,407,-10.0353,-9.08838,0.000495397,0.00399689,-0.00239391,0.00521193,-0.000719649,-1.10112,0.00373767,0.013347,755,617,-10.0353,9.08835
-462,407,-10.0637,-9.70184,0.000691451,0.00271897,-0.00180937,0.00377922,-0.000368801,-1.04075,0.00265098,0.0213387,762,617,-10.0637,9.70183
-455,407,-10.0922,-10.3242,0.000836058,0.0016437,-0.00129291,0.00259438,-0.000114622,-0.936766,0.00176903,0.0221317,769,617,-10.0922,10.3241
-448,407,-10.0829,-10.9144,0.00101954,0.000615898,-0.000807758,0.00165031,-1.4869e-05,-0.662977,0.0011052,0.0186064,776,617,-10.0829,10.9144
-441,407,-10.1172,-11.4798,0.00112906,-0.000235713,-0.000358141,0.00121733,-0.000323986,-0.241659,0.000938384,0.0145262,783,617,-10.1172,11.4798
-434,407,-10.1793,-12.0383,0.00120191,-0.000929713,4.25188e-05,0.00120276,-0.00093056,0.0199361,0.00123501,0.0117265,790,617,-10.1793,12.0383
-427,407,-10.1737,-12.6149,0.00122584,-0.00171922,0.000455209,0.00129459,-0.00178798,0.149908,0.00178731,0.0122594,797,617,-10.1737,12.6149
-420,407,-10.1556,-13.2018,0.00116984,-0.00259236,0.000953687,0.00139778,-0.00282031,0.234609,0.00248105,0.0106951,804,617,-10.1556,13.2018
-413,407,-10.1684,-13.7714,0.00115252,-0.00326675,0.00131835,0.00151593,-0.00363016,0.268972,0.00305353,0.0135006,811,617,-10.1684,13.7714
-406,407,-10.2753,-14.1852,0.00102965,-0.00428982,0.00176514,0.00156208,-0.00482225,0.292956,0.00384285,0.0402382,818,617,-10.2753,14.1852
-399,407,-10.1603,-14.5994,0,0,0,0,0,0,0,-1,825,617,-10.1603,14.5994
-392,407,-8.33612,-12.195,0,0,0,0,0,0,0,-1,832,617,-8.33611,12.195
-385,407,-7.65765,-10.7744,0,0,0,0,0,0,0,-1,839,617,-7.65767,10.7744
-378,407,-6.08655,-7.42291,0,0,0,0,0,0,0,-1,846,617,-6.08652,7.42292
-371,407,-7.4007,-5.79449,0,0,0,0,0,0,0,-1,853,617,-7.40072,5.79447
-364,407,-10.0638,-6.6228,0,0,0,0,0,0,0,-1,860,617,-10.0639,6.62279
-357,407,-6.64447,-1.83337,0,0,0,0,0,0,0,-1,867,617,-6.64446,1.8334
-350,407,-7.03351,-1.77551,0,0,0,0,0,0,0,-1,874,617,-7.03349,1.77551
-343,407,-7.40967,-1.95026,0,0,0,0,0,0,0,-1,881,617,-7.40969,1.95026
-336,407,-8.10229,-2.40662,0,0,0,0,0,0,0,-1,888,617,-8.10229,2.40664
-329,407,-8.81232,-2.76331,0,0,0,0,0,0,0,-1,895,617,-8.81235,2.76331
-322,407,0,0,0,0,0,0,0,0,0,-1,902,617,0,0
-315,407,0,0,0,0,0,0,0,0,0,-1,909,617,0,0
-308,407,0,0,0,0,0,0,0,0,0,-1,916,617,0,0
-301,407,0,0,0,0,0,0,0,0,0,-1,923,617,0,0
-294,407,0,0,0,0,0,0,0,0,0,-1,930,617,0,0
-287,407,0,0,0,0,0,0,0,0,0,-1,937,617,0,0
-280,407,0,0,0,0,0,0,0,0,0,-1,944,617,0,0
-273,407,0,0,0,0,0,0,0,0,0,-1,951,617,0,0
-266,407,0,0,0,0,0,0,0,0,0,-1,958,617,0,0
-259,407,0,0,0,0,0,0,0,0,0,-1,965,617,0,0
-252,407,0,0,0,0,0,0,0,0,0,-1,972,617,0,0
-245,407,0,0,0,0,0,0,0,0,0,-1,979,617,0,0
-238,407,0,0,0,0,0,0,0,0,0,-1,986,617,0,0
-231,407,0,0,0,0,0,0,0,0,0,-1,993,617,0,0
-224,407,0,0,0,0,0,0,0,0,0,-1,1000,617,0,0
-217,407,0,0,0,0,0,0,0,0,0,-1,1007,617,0,0
-210,407,0,0,0,0,0,0,0,0,0,-1,1014,617,0,0
-203,407,0,0,0,0,0,0,0,0,0,-1,1021,617,0,0
-196,407,0,0,0,0,0,0,0,0,0,-1,1028,617,0,0
-189,407,0,0,0,0,0,0,0,0,0,-1,1035,617,0,0
-182,407,0,0,0,0,0,0,0,0,0,-1,1042,617,0,0
-175,407,0,0,0,0,0,0,0,0,0,-1,1049,617,0,0
-168,407,0,0,0,0,0,0,0,0,0,-1,1056,617,0,0
-161,407,0,0,0,0,0,0,0,0,0,-1,1063,617,0,0
-154,407,0,0,0,0,0,0,0,0,0,-1,1070,617,0,0
-147,407,0,0,0,0,0,0,0,0,0,-1,1077,617,0,0
-140,407,0,0,0,0,0,0,0,0,0,-1,1084,617,0,0
-133,407,0,0,0,0,0,0,0,0,0,-1,1091,617,0,0
-126,407,0,0,0,0,0,0,0,0,0,-1,1098,617,0,0
-119,407,0,0,0,0,0,0,0,0,0,-1,1105,617,0,0
-112,407,0,0,0,0,0,0,0,0,0,-1,1112,617,0,0
-105,407,0,0,0,0,0,0,0,0,0,-1,1119,617,0,0
-98,407,0,0,0,0,0,0,0,0,0,-1,1126,617,0,0
-91,407,0,0,0,0,0,0,0,0,0,-1,1133,617,0,0
-84,407,0,0,0,0,0,0,0,0,0,-1,1140,617,0,0
-77,407,0,0,0,0,0,0,0,0,0,-1,1147,617,0,0
-70,407,0,0,0,0,0,0,0,0,0,-1,1154,617,0,0
-63,407,0,0,0,0,0,0,0,0,0,-1,1161,617,0,0
-56,407,0,0,0,0,0,0,0,0,0,-1,1168,617,0,0
-49,407,0,0,0,0,0,0,0,0,0,-1,1175,617,0,0
-42,407,0,0,0,0,0,0,0,0,0,-1,1182,617,0,0
-35,407,0,0,0,0,0,0,0,0,0,-1,1189,617,0,0
-28,407,0,0,0,0,0,0,0,0,0,-1,1196,617,0,0
-21,407,0,0,0,0,0,0,0,0,0,-1,1203,617,0,0
-14,407,0,0,0,0,0,0,0,0,0,-1,1210,617,0,0
-7,407,0,0,0,0,0,0,0,0,0,-1,1217,617,0,0
0,407,0,0,0,0,0,0,0,0,0,-1,1224,617,0,0
7,407,0,0,0,0,0,0,0,0,0,-1,1231,617,0,0
14,407,0,0,0,0,0,0,0,0,0,-1,1238,617,0,0
21,407,0,0,0,0,0,0,0,0,0,-1,1245,617,0,0
28,407,0,0,0,0,0,0,0,0,0,-1,1252,617,0,0
35,407,0,0,0,0,0,0,0,0,0,-1,1259,617,0,0
42,407,0,0,0,0,0,0,0,0,0,-1,1266,617,0,0
49,407,0,0,0,0,0,0,0,0,0,-1,1273,617,0,0
56,407,0,0,0,0,0,0,0,0,0,-1,1280,617,0,0
63,407,0,0,0,0,0,0,0,0,0,-1,1287,617,0,0
70,407,0,0,0,0,0,0,0,0,0,-1,1294,617,0,0
77,407,0,0,0,0,0,0,0,0,0,-1,1301,617,0,0
84,407,0,0,0,0,0,0,0,0,0,-1,1308,617,0,0
91,407,0,0,0,0,0,0,0,0,0,-1,1315,617,0,0
98,407,0,0,0,0,0,0,0,0,0,-1,1322,617,0,0
105,407,0,0,0,0,0,0,0,0,0,-1,1329,617,0,0
112,407,0,0,0,0,0,0,0,0,0,-1,1336,617,0,0
119,407,0,0,0,0,0,0,0,0,0,-1,1343,617,0,0
126,407,0,0,0,0,0,0,0,0,0,-1,1350,617,0,0
133,407,0,0,0,0,0,0,0,0,0,-1,1357,617,0,0
140,407,0,0,0,0,0,0,0,0,0,-1,1364,617,0,0
147,407,0,0,0,0,0,0,0,0,0,-1,1371,617,0,0
154,407,0,0,0,0,0,0,0,0,0,-1,1378,617,0,0
161,407,0,0,0,0,0,0,0,0,0,-1,1385,617,0,0
168,407,0,0,0,0,0,0,0,0,0,-1,1392,617,0,0
175,407,0,0,0,0,0,0,0,0,0,-1,1399,617,0,0
182,407,0,0,0,0,0,0,0,0,0,-1,1406,617,0,0
189,407,0,0,0,0,0,0,0,0,0,-1,1413,617,0,0
196,407,0,0,0,0,0,0,0,0,0,-1,1420,617,0,0
203,407,0,0,0,0,0,0,0,0,0,-1,1427,617,0,0
210,407,0,0,0,0,0,0,0,0,0,-1,1434,617,0,0
217,407,0,0,0,0,0,0,0,0,0,-1,1441,617,0,0
224,407,0,0,0,0,0,0,0,0,0,-1,1448,617,0,0
231,407,0,0,0,0,0,0,0,0,0,-1,1455,617,0,0
238,407,0,0,0,0,0,0,0,0,0,-1,1462,617,0,0
245,407,0,0,0,0,0,0,0,0,0,-1,1469,617,0,0
252,407,0,0,0,0,0,0,0,0,0,-1,1476,617,0,0
259,407,0,0,0,0,0,0,0,0,0,-1,1483,617,0,0
266,407,0,0,0,0,0,0,0,0,0,-1,1490,617,0,0
273,407,0,0,0,0,0,0,0,0,0,-1,1497,617,0,0
280,407,0,0,0,0,0,0,0,0,0,-1,1504,617,0,0
287,407,0,0,0,0,0,0,0,0,0,-1,1511,617,0,0
294,407,0,0,0,0,0,0,0,0,0,-1,1518,617,0,0
301,407,0,0,0,0,0,0,0,0,0,-1,1525,617,0,0
308,407,0,0,0,0,0,0,0,0,0,-1,1532,617,0,0
315,407,0,0,0,0,0,0,0,0,0,-1,1539,617,0,0
322,407,0,0,0,0,0,0,0,0,0,-1,1546,617,0,0
329,407,0,0,0,0,0,0,0,0,0,-1,1553,617,0,0
336,407,0,0,0,0,0,0,0,0,0,-1,1560,617,0,0
343,407,0,0,0,0,0,0,0,0,0,-1,1567,617,0,0
350,407,0,0,0,0,0,0,0,0,0,-1,1574,617,0,0
357,407,0,0,0,0,0,0,0,0,0,-1,1581,617,0,0
364,407,0,0,0,0,0,0,0,0,0,-1,1588,617,0,0
371,407,0,0,0,0,0,0,0,0,0,-1,1595,617,0,0
378,407,0,0,0,0,0,0,0,0,0,-1,1602,617,0,0
385,407,0,0,0,0,0,0,0,0,0,-1,1609,617,0,0
392,407,0,0,0,0,0,0,0,0,0,-1,1616,617,0,0
399,407,0,0,0,0,0,0,0,0,0,-1,1623,617,0,0
406,407,0,0,0,0,0,0,0,0,0,-1,1630,617,0,0
413,407,0,0,0,0,0,0,0,0,0,-1,1637,617,0,0
420,407,0,0,0,0,0,0,0,0,0,-1,1644,617,0,0
427,407,0,0,0,0,0,0,0,0,0,-1,1651,617,0,0
434,407,0,0,0,0,0,0,0,0,0,-1,1658,617,0,0
441,407,0,0,0,0,0,0,0,0,0,-1,1665,617,0,0
448,407,7.02893,2.13843,0,0,0,0,0,0,0,-1,1672,617,7.02899,-2.13844
455,407,7.55237,2.29242,0,0,0,0,0,0,0,-1,1679,617,7.55236,-2.29244
462,407,8.2926,2.46173,0,0,0,0,0,0,0,-1,1686,617,8.29261,-2.46174
469,407,8.71509,2.22681,0,0,0,0,0,0,0,-1,1693,617,8.71511,-2.22681
476,407,8.89917,1.47766,0,0,0,0,0,0,0,-1,1700,617,8.89914,-1.47768
483,407,9.02612,0.682983,0,0,0,0,0,0,0,-1,1707,617,9.02608,-0.683004
490,407,9.12659,0.000671387,0,0,0,0,0,0,0,-1,1714,617,9.12653,-0.000675931
497,407,7.76819,0.855835,0,0,0,0,0,0,0,-1,1721,617,7.7682,-0.855865
504,407,4.69336,0.160706,0,0,0,0,0,0,0,-1,1728,617,4.69337,-0.1607
511,407,4.07104,-0.00140381,0,0,0,0,0,0,0,-1,1735,617,4.07109,0.00141425
518,407,6.09534,1.9411,0,0,0,0,0,0,0,-1,1742,617,6.09532,-1.94113
525,407,5.72534,-1.35986,0,0,0,0,0,0,0,-1,1749,617,5.72529,1.35988
532,407,18.5767,-10.6388,0,0,0,0,0,0,0,-1,1756,617,18.5766,10.6388
539,407,20.6339,-12.4265,0,0,0,0,0,0,0,-1,1763,617,20.6339,12.4265
546,407,20.7051,-11.7676,0.00557936,-0.000109185,0.00136756,0.00589105,-0.000420875,0.22409,0.00407491,0.0203184,1770,617,20.7051,11.7676
553,407,20.6802,-11.1787,0.00466883,-4.85626e-05,0.00113063,0.00492581,-0.000305546,0.223495,0.00339031,0.0148134,1777,617,20.6802,11.1787
560,407,20.6791,-10.5542,0.00380952,0.000102184,0.000961909,0.00404424,-0.000132533,0.239335,0.00274141,0.0161095,1784,617,20.6791,10.5542
567,407,20.6492,-9.97949,0.00304279,0.000307345,0.000885673,0.00330451,4.5625e-05,0.287327,0.00218796,0.0292814,1791,617,20.6491,9.97951
574,407,20.6125,-9.41266,0.00249769,0.000686798,0.000969845,0.00291906,0.000265432,0.409862,0.00186387,0.0248566,1798,617,20.6126,9.41266
581,407,20.6039,-8.73206,0.00214172,0.00120813,0.0011936,0.00295655,0.000393291,0.599001,0.0018539,0.0177786,1805,617,20.6038,8.73203
588,407,20.5515,-8.11639,0.0019576,0.00190551,0.00152029,0.00345206,0.000411041,0.776833,0.00217733,0.01282,1812,617,20.5516,8.11637
595,407,20.5562,-7.51141,0.00206434,0.00275221,0.00203603,0.00447315,0.000343396,0.86907,0.00287448,0.0239851,1819,617,20.5562,7.51141
602,407,20.5515,-6.88782,0.00245399,0.00381147,0.00273801,0.00595361,0.000311839,0.906896,0.00386932,0.0206334,1826,617,20.5515,6.88781
609,407,20.4933,-6.22913,0.00318481,0.00515824,0.00369608,0.00799704,0.000346008,0.915838,0.00521985,0.0170918,1833,617,20.4932,6.22911
616,407,20.5508,-5.48621,0.00431867,0.00693496,0.00493384,0.0107311,0.000522499,0.914985,0.00698644,0.0288226,1840,617,20.5508,5.48618
623,407,20.8165,-4.64026,0,0,0,0,0,0,0,-1,1847,617,20.8165,4.64025
630,407,7.06177,0.814575,0,0,0,0,0,0,0,-1,1854,617,7.06178,-0.814579
637,407,9.54077,0.151917,0,0,0,0,0,0,0,-1,1861,617,9.5408,-0.151923
644,407,5.09766,2.27747,0,0,0,0,0,0,0,-1,1868,617,5.09764,-2.27746
651,407,7.37524,0.0513916,0,0,0,0,0,0,0,-1,1875,617,7.3752,-0.0513923
658,407,3.76685,0.594177,0,0,0,0,0,0,0,-1,1882,617,3.76683,-0.594184
665,407,5.76123,0.375061,0,0,0,0,0,0,0,-1,1889,617,5.76118,-0.37509
672,407,0,0,0,0,0,0,0,0,0,-1,1896,617,0,0
679,407,0,0,0,0,0,0,0,0,0,-1,1903,617,0,0
686,407,0,0,0,0,0,0,0,0,0,-1,1910,617,0,0
693,407,0,0,0,0,0,0,0,0,0,-1,1917,617,0,0
700,407,0,0,0,0,0,0,0,0,0,-1,1924,617,0,0
707,407,0,0,0,0,0,0,0,0,0,-1,1931,617,0,0
714,407,0,0,0,0,0,0,0,0,0,-1,1938,617,0,0
721,407,0,0,0,0,0,0,0,0,0,-1,1945,617,0,0
728,407,0,0,0,0,0,0,0,0,0,-1,1952,617,0,0
735,407,0,0,0,0,0,0,0,0,0,-1,1959,617,0,0
742,407,0,0,0,0,0,0,0,0,0,-1,1966,617,0,0
749,407,0,0,0,0,0,0,0,0,0,-1,1973,617,0,0
756,407,0,0,0,0,0,0,0,0,0,-1,1980,617,0,0
763,407,0,0,0,0,0,0,0,0,0,-1,1987,617,0,0
770,407,0,0,0,0,0,0,0,0,0,-1,1994,617,0,0
777,407,0,0,0,0,0,0,0,0,0,-1,2001,617,0,0
784,407,0,0,0,0,0,0,0,0,0,-1,2008,617,0,0
791,407,0,0,0,0,0,0,0,0,0,-1,2015,617,0,0
798,407,0,0,0,0,0,0,0,0,0,-1,2022,617,0,0
805,407,0,0,0,0,0,0,0,0,0,-1,2029,617,0,0
812,407,0,0,0,0,0,0,0,0,0,-1,2036,617,0,0
-700,400,0,0,0,0,0,0,0,0,0,-1,524,624,0,0
-693,400,0,0,0,0,0,0,0,0,0,-1,531,624,0,0
-686,400,0,0,0,0,0,0,0,0,0,-1,538,624,0,0
-679,400,0,0,0,0,0,0,0,0,0,-1,545,624,0,0
-672,400,0,0,0,0,0,0,0,0,0,-1,552,624,0,0
-665,400,0,0,0,0,0,0,0,0,0,-1,559,624,0,0
-658,400,0,0,0,0,0,0,0,0,0,-1,566,624,0,0
-651,400,0,0,0,0,0,0,0,0,0,-1,573,624,0,0
-644,400,0,0,0,0,0,0,0,0,0,-1,580,624,0,0
-637,400,0,0,0,0,0,0,0,0,0,-1,587,624,0,0
-630,400,0,0,0,0,0,0,0,0,0,-1,594,624,0,0
-623,400,0,0,0,0,0,0,0,0,0,-1,601,624,0,0
-616,400,0,0,0,0,0,0,0,0,0,-1,608,624,0,0
-609,400,0,0,0,0,0,0,0,0,0,-1,615,624,0,0
-602,400,0,0,0,0,0,0,0,0,0,-1,622,624,0,0
-595,400,0,0,0,0,0,0,0,0,0,-1,629,624,0,0
-588,400,0,0,0,0,0,0,0,0,0,-1,636,624,0,0
-581,400,0,0,0,0,0,0,0,0,0,-1,643,624,0,0
-574,400,0,0,0,0,0,0,0,0,0,-1,650,624,0,0
-567,400,0,0,0,0,0,0,0,0,0,-1,657,624,0,0
-560,400,0,0,0,0,0,0,0,0,0,-1,664,624,0,0
-553,400,0,0,0,0,0,0,0,0,0,-1,671,624,0,0
-546,400,-8.41174,-1.4599,0,0,0,0,0,0,0,-1,678,624,-8.41173,1.45989
-539,400,-5.69104,-1.7337,0,0,0,0,0,0,0,-1,685,624,-5.69103,1.7337
-532,400,-3.03632,-2.03912,0,0,0,0,0,0,0,-1,692,624,-3.03632,2.03909
-525,400,-6.20813,-7.04071,0,0,0,0,0,0,0,-1,699,624,-6.20814,7.04071
-518,400,-5.26544,-1.58661,0,0,0,0,0,0,0,-1,706,624,-5.26544,1.58658
-511,400,-10.6307,-6.7121,0,0,0,0,0,0,0,-1,713,624,-10.6307,6.71209
-504,400,-10.2663,-6.55109,0,0,0,0,0,0,0,-1,720,624,-10.2663,6.55106
-497,400,-10.7415,-6.52985,0,0,0,0,0,0,0,-1,727,624,-10.7415,6.52984
-490,400,-10.5649,-7.18628,0.00067522,0.00906425,-0.00467443,0.0111502,-0.00141073,-1.15107,0.00794556,0.0316365,734,624,-10.5649,7.1863
-483,400,-10.5869,-7.85101,0.00056857,0.00651049,-0.00350912,0.00813742,-0.00105836,-1.13667,0.00580995,0.0181711,741,624,-10.5869,7.85099
-476,400,-10.5986,-8.44891,0.000603404,0.00460346,-0.00264417,0.00591881,-0.000711946,-1.10919,0.00420333,0.0151349,748,624,-10.5986,8.44892
-469,400,-10.6177,-9.06219,0.000765728,0.00313626,-0.00199767,0.00427383,-0.000371839,-1.05315,0.00298091,0.0155964,755,624,-10.6178,9.0622
-462,400,-10.6144,-9.70184,0.000925717,0.00198569,-0.0014693,0.00301767,-0.000106261,-0.958489,0.00204812,0.0210962,762,624,-10.6144,9.70183
-455,400,-10.6291,-10.2898,0.00106701,0.000989969,-0.00101139,0.00204061,1.63618e-05,-0.766365,0.00135499,0.0200674,769,624,-10.6291,10.2898
-448,400,-10.6747,-10.8773,0.00126668,7.97376e-05,-0.000603462,0.0015196,-0.00017318,-0.396873,0.00107545,0.0139758,776,624,-10.6747,10.8773
-441,400,-10.7008,-11.4279,0.00139351,-0.000660339,-0.000230446,0.00141905,-0.000685878,-0.110373,0.00123961,0.0141558,783,624,-10.7008,11.4279
-434,400,-10.7563,-11.9861,0.0014735,-0.00130668,0.000120292,0.0014787,-0.00131187,0.0431601,0.00161209,0.0127057,790,624,-10.7564,11.9862
-427,400,-10.7728,-12.5707,0.00146764,-0.00210626,0.000528101,0.00154404,-0.00218266,0.143676,0.00216212,0.0112219,797,624,-10.7728,12.5707
-420,400,-10.7198,-13.181,0.00129539,-0.00308024,0.00109943,0.0015561,-0.00334095,0.232832,0.00288923,0.0151379,804,624,-10.7198,13.181
-413,400,-10.8218,-13.6599,0.00115791,-0.00379219,0.00148522,0.00156934,-0.00420362,0.270239,0.00344675,0.0357161,811,624,-10.8219,13.6599
-406,400,-10.8296,-13.758,0,0,0,0,0,0,0,-1,818,624,-10.8296,13.758
-399,400,-11.0176,-13.2944,0,0,0,0,0,0,0,-1,825,624,-11.0176,13.2944
-392,400,-4.92285,-6.63354,0,0,0,0,0,0,0,-1,832,624,-4.92285,6.63354
-385,400,-3.68738,-5.04205,0,0,0,0,0,0,0,-1,839,624,-3.68736,5.04207
-378,400,-6.84064,-1.28662,0,0,0,0,0,0,0,-1,846,624,-6.84062,1.28662
-371,400,-6.98865,-1.2572,0,0,0,0,0,0,0,-1,853,624,-6.98865,1.25721
-364,400,-6.97247,-1.24133,0,0,0,0,0,0,0,-1,860,624,-6.97249,1.24135
-357,400,-7.18329,-1.23218,0,0,0,0,0,0,0,-1,867,624,-7.18327,1.2322
-350,400,-7.40186,-1.19409,0,0,0,0,0,0,0,-1,874,624,-7.40187,1.19407
-343,400,-8.09357,-1.51147,0,0,0,0,0,0,0,-1,881,624,-8.09355,1.51148
-336,400,0,0,0,0,0,0,0,0,0,-1,888,624,0,0
-329,400,0,0,0,0,0,0,0,0,0,-1,895,624,0,0
-322,400,0,0,0,0,0,0,0,0,0,-1,902,624,0,0
-315,400,0,0,0,0,0,0,0,0,0,-1,909,624,0,0
-308,400,0,0,0,0,0,0,0,0,0,-1,916,624,0,0
-301,400,0,0,0,0,0,0,0,0,0,-1,923,624,0,0
-294,400,0,0,0,0,0,0,0,0,0,-1,930,624,0,0
-287,400,0,0,0,0,0,0,0,0,0,-1,937,624,0,0
-280,400,0,0,0,0,0,0,0,0,0,-1,944,624,0,0
-273,400,0,0,0,0,0,0,0,0,0,-1,951,624,0,0
-266,400,0,0,0,0,0,0,0,0,0,-1,958,624,0,0
-259,400,0,0,0,0,0,0,0,0,0,-1,965,624,0,0
-252,400,0,0,0,0,0,0,0,0,0,-1,972,624,0,0
-245,400,0,0,0,0,0,0,0,0,0,-1,979,624,0,0
-238,400,0,0,0,0,0,0,0,0,0,-1,986,624,0,0
-231,400,0,0,0,0,0,0,0,0,0,-1,993,624,0,0
-224,400,0,0,0,0,0,0,0,0,0,-1,1000,624,0,0
-217,400,0,0,0,0,0,0,0,0,0,-1,1007,624,0,0
-210,400,0,0,0,0,0,0,0,0,0,-1,1014,624,0,0
-203,400,0,0,0,0,0,0,0,0,0,-1,1021,624,0,0
-196,400,0,0,0,0,0,0,0,0,0,-1,1028,624,0,0
-189,400,0,0,0,0,0,0,0,0,0,-1,1035,624,0,0
-182,400,0,0,0,0,0,0,0,0,0,-1,1042,624,0,0
-175,400,0,0,0,0,0,0,0,0,0,-1,1049,624,0,0
-168,400,0,0,0,0,0,0,0,0,0,-1,1056,624,0,0
-161,400,0,0,0,0,0,0,0,0,0,-1,1063,624,0,0
-154,400,0,0,0,0,0,0,0,0,0,-1,1070,624,0,0
-147,400,0,0,0,0,0,0,0,0,0,-1,1077,624,0,0
-140,400,0,0,0,0,0,0,0,0,0,-1,1084,624,0,0
-133,400,0,0,0,0,0,0,0,0,0,-1,1091,624,0,0
-126,400,0,0,0,0,0,0,0,0,0,-1,1098,624,0,0
-119,400,0,0,0,0,0,0,0,0,0,-1,1105,624,0,0
-112,400,0,0,0,0,0,0,0,0,0,-1,1112,624,0,0
-105,400,0,0,0,0,0,0,0,0,0,-1,1119,624,0,0
-98,400,0,0,0,0,0,0,0,0,0,-1,1126,624,0,0
-91,400,0,0,0,0,0,0,0,0,0,-1,1133,624,0,0
-84,400,0,0,0,0,0,0,0,0,0,-1,1140,624,0,0
-77,400,0,0,0,0,0,0,0,0,0,-1,1147,624,0,0
-70,400,0,0,0,0,0,0,0,0,0,-1,1154,624,0,0
-63,400,0,0,0,0,0,0,0,0,0,-1,1161,624,0,0
-56,400,0,0,0,0,0,0,0,0,0,-1,1168,624,0,0
-49,400,0,0,0,0,0,0,0,0,0,-1,1175,624,0,0
-42,400,0,0,0,0,0,0,0,0,0,-1,1182,624,0,0
-35,400,0,0,0,0,0,0,0,0,0,-1,1189,624,0,0
-28,400,0,0,0,0,0,0,0,0,0,-1,1196,624,0,0
-21,400,0,0,0,0,0,0,0,0,0,-1,1203,624,0,0
-14,400,0,0,0,0,0,0,0,0,0,-1,1210,624,0,0
-7,400,0,0,0,0,0,0,0,0,0,-1,1217,624,0,0
0,400,0,0,0,0,0,0,0,0,0,-1,1224,624,0,0
7,400,0,0,0,0,0,0,0,0,0,-1,1231,624,0,0
14,400,0,0,0,0,0,0,0,0,0,-1,1238,624,0,0
21,400,0,0,0,0,0,0,0,0,0,-1,1245,624,0,0
28,400,0,0,0,0,0,0,0,0,0,-1,1252,624,0,0
35,400,0,0,0,0,0,0,0,0,0,-1,1259,624,0,0
42,400,0,0,0,0,0,0,0,0,0,-1,1266,624,0,0
49,400,0,0,0,0,0,0,0,0,0,-1,1273,624,0,0
56,400,0,0,0,0,0,0,0,0,0,-1,1280,624,0,0
63,400,0,0,0,0,0,0,0,0,0,-1,1287,624,0,0
70,400,0,0,0,0,0,0,0,0,0,-1,1294,624,0,0
77,400,0,0,0,0,0,0,0,0,0,-1,1301,624,0,0
84,400,0,0,0,0,0,0,0,0,0,-1,1308,624,0,0
91,400,0,0,0,0,0,0,0,0,0,-1,1315,624,0,0
98,400,0,0,0,0,0,0,0,0,0,-1,1322,624,0,0
105,400,0,0,0,0,0,0,0,0,0,-1,1329,624,0,0
112,400,0,0,0,0,0,0,0,0,0,-1,1336,624,0,0
119,400,0,0,0,0,0,0,0,0,0,-1,1343,624,0,0
126,400,0,0,0,0,0,0,0,0,0,-1,1350,624,0,0
133,400,0,0,0,0,0,0,0,0,0,-1,1357,624,0,0
140,400,0,0,0,0,0,0,0,0,0,-1,1364,624,0,0
147,400,0,0,0,0,0,0,0,0,0,-1,1371,624,0,0
154,400,0,0,0,0,0,0,0,0,0,-1,1378,624,0,0
161,400,0,0,0,0,0,0,0,0,0,-1,1385,624,0,0
168,400,0,0,0,0,0,0,0,0,0,-1,1392,624,0,0
175,400,0,0,0,0,0,0,0,0,0,-1,1399,624,0,0
182,400,0,0,0,0,0,0,0,0,0,-1,1406,624,0,0
189,400,0,0,0,0,0,0,0,0,0,-1,1413,624,0,0
196,400,0,0,0,0,0,0,0,0,0,-1,1420,624,0,0
203,400,0,0,0,0,0,0,0,0,0,-1,1427,624,0,0
210,400,0,0,0,0,0,0,0,0,0,-1,1434,624,0,0
217,400,0,0,0,0,0,0,0,0,0,-1,1441,624,0,0
224,400,0,0,0,0,0,0,0,0,0,-1,1448,624,0,0
231,400,0,0,0,0,0,0,0,0,0,-1,1455,624,0,0
238,400,0,0,0,0,0,0,0,0,0,-1,1462,624,0,0
245,400,0,0,0,0,0,0,0,0,0,-1,1469,624,0,0
252,400,0,0,0,0,0,0,0,0,0,-1,1476,624,0,0
259,400,0,0,0,0,0,0,0,0,0,-1,1483,624,0,0
266,400,0,0,0,0,0,0,0,0,0,-1,1490,624,0,0
273,400,0,0,0,0,0,0,0,0,0,-1,1497,624,0,0
280,400,0,0,0,0,0,0,0,0,0,-1,1504,624,0,0
287,400,0,0,0,0,0,0,0,0,0,-1,1511,624,0,0
294,400,0,0,0,0,0,0,0,0,0,-1,1518,624,0,0
301,400,0,0,0,0,0,0,0,0,0,-1,1525,624,0,0
308,400,0,0,0,0,0,0,0,0,0,-1,1532,624,0,0
315,400,0,0,0,0,0,0,0,0,0,-1,1539,624,0,0
322,400,0,0,0,0,0,0,0,0,0,-1,1546,624,0,0
329,400,0,0,0,0,0,0,0,0,0,-1,1553,624,0,0
336,400,0,0,0,0,0,0,0,0,0,-1,1560,624,0,0
343,400,0,0,0,0,0,0,0,0,0,-1,1567,624,0,0
350,400,0,0,0,0,0,0,0,0,0,-1,1574,624,0,0
357,400,0,0,0,0,0,0,0,0,0,-1,1581,624,0,0
364,400,0,0,0,0,0,0,0,0,0,-1,1588,624,0,0
371,400,0,0,0,0,0,0,0,0,0,-1,1595,624,0,0
378,400,0,0,0,0,0,0,0,0,0,-1,1602,624,0,0
385,400,0,0,0,0,0,0,0,0,0,-1,1609,624,0,0
392,400,0,0,0,0,0,0,0,0,0,-1,1616,624,0,0
399,400,0,0,0,0,0,0,0,0,0,-1,1623,624,0,0
406,400,0,0,0,0,0,0,0,0,0,-1,1630,624,0,0
413,400,0,0,0,0,0,0,0,0,0,-1,1637,624,0,0
420,400,0,0,0,0,0,0,0,0,0,-1,1644,624,0,0
427,400,0,0,0,0,0,0,0,0,0,-1,1651,624,0,0
434,400,0,0,0,0,0,0,0,0,0,-1,1658,624,0,0
441,400,0,0,0,0,0,0,0,0,0,-1,1665,624,0,0
448,400,0,0,0,0,0,0,0,0,0,-1,1672,624,0,0
455,400,8.91309,2.75885,0,0,0,0,0,0,0,-1,1679,624,8.91312,-2.75885
462,400,8.90356,2.37878,0,0,0,0,0,0,0,-1,1686,624,8.90353,-2.37878
469,400,9.14429,1.76849,0,0,0,0,0,0,0,-1,1693,624,9.14432,-1.76847
476,400,9.23254,1.25995,0,0,0,0,0,0,0,-1,1700,624,9.23252,-1.25994
483,400,9.59766,0.562439,0,0,0,0,0,0,0,-1,1707,624,9.59771,-0.56242
490,400,9.92578,-0.213745,0,0,0,0,0,0,0,-1,1714,624,9.92579,0.21376
497,400,9.19141,0.175232,0,0,0,0,0,0,0,-1,1721,624,9.19138,-0.175209
504,400,9.23438,0.00823975,0,0,0,0,0,0,0,-1,1728,624,9.23436,-0.00823766
511,400,6.16687,3.3501,0,0,0,0,0,0,0,-1,1735,624,6.16682,-3.35007
518,400,6.55237,1.74994,0,0,0,0,0,0,0,-1,1742,624,6.55236,-1.74993
525,400,6.99731,1.08783,0,0,0,0,0,0,0,-1,1749,624,6.99736,-1.08785
532,400,6.96582,-1.74982,0,0,0,0,0,0,0,-1,1756,624,6.96585,1.74983
539,400,21.2305,-10.5841,0,0,0,0,0,0,0,-1,1763,624,21.2304,10.5841
546,400,21.3461,-11.7689,0,0,0,0,0,0,0,-1,1770,624,21.346,11.7688
553,400,21.2235,-11.1735,0.00591638,-0.000127756,0.0013329,0.00619727,-0.000408646,0.207696,0.00427424,0.0378069,1777,624,21.2236,11.1735
560,400,21.2748,-10.5167,0.0047987,-2.88539e-05,0.00107053,0.00502544,-0.000255597,0.208721,0.00343866,0.0148204,1784,624,21.2747,10.5167
567,400,21.2858,-9.92029,0.00379281,8.06317e-05,0.000869148,0.00398623,-0.000112788,0.218971,0.00269587,0.0180502,1791,624,21.2858,9.92031
574,400,21.2473,-9.35718,0.00304689,0.000402189,0.000865363,0.00330488,0.000144203,0.289735,0.00215679,0.0190708,1798,624,21.2473,9.3572
581,400,21.1809,-8.72363,0.00250856,0.000884878,0.00101765,0.00299852,0.000394915,0.448711,0.00188124,0.0187719,1805,624,21.1809,8.72361
588,400,21.1559,-8.09674,0.00217002,0.00153027,0.0012789,0.00316844,0.000531849,0.662854,0.00195923,0.0161584,1812,624,21.1559,8.09671
595,400,21.1508,-7.48529,0.00215593,0.00231983,0.00174327,0.00398307,0.000492687,0.808885,0.00250734,0.0154737,1819,624,21.1508,7.48531
602,400,21.1481,-6.86359,0.00244467,0.00327907,0.002404,0.0053018,0.000421938,0.871314,0.00340262,0.015168,1826,624,21.1481,6.86359
609,400,21.0814,-6.2265,0.00301645,0.00444006,0.00325971,0.00706477,0.000391738,0.892893,0.00458485,0.0143237,1833,624,21.0814,6.2265
616,400,21.0703,-5.60504,0.00395886,0.00593347,0.00437252,0.00942877,0.000463563,0.896435,0.00613716,0.0178534,1840,624,21.0703,5.60503
623,400,21.1072,-4.97522,0,0,0,0,0,0,0,-1,1847,624,21.1072,4.97523
630,400,11.9432,0.09021,0,0,0,0,0,0,0,-1,1854,624,11.9432,-0.0902007
637,400,6.92896,1.01917,0,0,0,0,0,0,0,-1,1861,624,6.92899,-1.01918
644,400,8.65381,1.4599,0,0,0,0,0,0,0,-1,1868,624,8.65379,-1.45991
651,400,7.90601,0.424072,0,0,0,0,0,0,0,-1,1875,624,7.90598,-0.424097
658,400,8.69031,1.0484,0,0,0,0,0,0,0,-1,1882,624,8.6903,-1.0484
665,400,5.98438,0.522522,0,0,0,0,0,0,0,-1,1889,624,5.98442,-0.522552
672,400,0,0,0,0,0,0,0,0,0,-1,1896,624,0,0
679,400,0,0,0,0,0,0,0,0,0,-1,1903,624,0,0
686,400,0,0,0,0,0,0,0,0,0,-1,1910,624,0,0
693,400,0,0,0,0,0,0,0,0,0,-1,1917,624,0,0
700,400,0,0,0,0,0,0,0,0,0,-1,1924,624,0,0
707,400,0,0,0,0,0,0,0,0,0,-1,1931,624,0,0
714,400,0,0,0,0,0,0,0,0,0,-1,1938,624,0,0
721,400,0,0,0,0,0,0,0,0,0,-1,1945,624,0,0
728,400,0,0,0,0,0,0,0,0,0,-1,1952,624,0,0
735,400,0,0,0,0,0,0,0,0,0,-1,1959,624,0,0
742,400,0,0,0,0,0,0,0,0,0,-1,1966,624,0,0
749,400,0,0,0,0,0,0,0,0,0,-1,1973,624,0,0
756,400,0,0,0,0,0,0,0,0,0,-1,1980,624,0,0
763,400,0,0,0,0,0,0,0,0,0,-1,1987,624,0,0
770,400,0,0,0,0,0,0,0,0,0,-1,1994,624,0,0
777,400,0,0,0,0,0,0,0,0,0,-1,2001,624,0,0
784,400,0,0,0,0,0,0,0,0,0,-1,2008,624,0,0
791,400,0,0,0,0,0,0,0,0,0,-1,2015,624,0,0
798,400,0,0,0,0,0,0,0,0,0,-1,2022,624,0,0
805,400,0,0,0,0,0,0,0,0,0,-1,2029,624,0,0
812,400,0,0,0,0,0,0,0,0,0,-1,2036,624,0,0
-700,393,0,0,0,0,0,0,0,0,0,-1,524,631,0,0
-693,393,0,0,0,0,0,0,0,0,0,-1,531,631,0,0
-686,393,0,0,0,0,0,0,0,0,0,-1,538,631,0,0
-679,393,0,0,0,0,0,0,0,0,0,-1,545,631,0,0
-672,393,0,0,0,0,0,0,0,0,0,-1,552,631,0,0
-665,393,0,0,0,0,0,0,0,0,0,-1,559,631,0,0
-658,393,0,0,0,0,0,0,0,0,0,-1,566,631,0,0
-651,393,0,0,0,0,0,0,0,0,0,-1,573,631,0,0
-644,393,0,0,0,0,0,0,0,0,0,-1,580,631,0,0
-637,393,0,0,0,0,0,0,0,0,0,-1,587,631,0,0
-630,393,0,0,0,0,0,0,0,0,0,-1,594,631,0,0
-623,393,0,0,0,0,0,0,0,0,0,-1,601,631,0,0
-616,393,0,0,0,0,0,0,0,0,0,-1,608,631,0,0
-609,393,0,0,0,0,0,0,0,0,0,-1,615,631,0,0
-602,393,0,0,0,0,0,0,0,0,0,-1,622,631,0,0
-595,393,0,0,0,0,0,0,0,0,0,-1,629,631,0,0
-588,393,0,0,0,0,0,0,0,0,0,-1,636,631,0,0
-581,393,0,0,0,0,0,0,0,0,0,-1,643,631,0,0
-574,393,0,0,0,0,0,0,0,0,0,-1,650,631,0,0
-567,393,0,0,0,0,0,0,0,0,0,-1,657,631,0,0
-560,393,0,0,0,0,0,0,0,0,0,-1,664,631,0,0
-553,393,-2.35107,3.92633,0,0,0,0,0,0,0,-1,671,631,-2.35108,-3.92634
-546,393,-1.78778,2.4856,0,0,0,0,0,0,0,-1,678,631,-1.78778,-2.48557
-539,393,-5.2113,-2.20245,0,0,0,0,0,0,0,-1,685,631,-5.21128,2.20247
-532,393,-2.83643,-2.01624,0,0,0,0,0,0,0,-1,692,631,-2.83642,2.01626
-525,393,-5.9505,-0.952698,0,0,0,0,0,0,0,-1,699,631,-5.95053,0.95268
-518,393,-5.80219,-1.57739,0,0,0,0,0,0,0,-1,706,631,-5.80219,1.57738
-511,393,-6.15527,-2.09906,0,0,0,0,0,0,0,-1,713,631,-6.15526,2.09903
-504,393,-11.5195,-5.32245,0,0,0,0,0,0,0,-1,720,631,-11.5195,5.32244
-497,393,-11.1929,-6.29248,0.00116643,0.0102433,-0.00530418,0.0126857,-0.00127594,-1.13928,0.00891293,0.0400514,727,631,-11.1929,6.29251
-490,393,-11.1586,-7.2049,0.000930212,0.00753367,-0.00399928,0.00941805,-0.000954164,-1.13047,0.00661971,0.019861,734,631,-11.1586,7.20491
-483,393,-11.1749,-7.84735,0.000818335,0.00536159,-0.00298483,0.0068409,-0.000660971,-1.11067,0.00479613,0.0195454,741,631,-11.1748,7.84734
-476,393,-11.1929,-8.43848,0.00086598,0.00370412,-0.00223214,0.00493008,-0.000359986,-1.06854,0.00341305,0.0175813,748,631,-11.193,8.43846
-469,393,-11.2023,-9.0481,0.00102451,0.00241782,-0.00166909,0.00352981,-8.74822e-05,-0.9831,0.0023829,0.0135366,755,631,-11.2023,9.04811
-462,393,-11.2242,-9.685,0.00118378,0.00140888,-0.00121569,0.00251722,7.54454e-05,-0.831558,0.00165357,0.0160208,762,631,-11.2242,9.68501
-455,393,-11.2618,-10.2717,0.00135451,0.000511353,-0.000836132,0.00186933,-3.46894e-06,-0.551897,0.00124738,0.014435,769,631,-11.2619,10.2717
-448,393,-11.3032,-10.8566,0.00159829,-0.00024693,-0.000531212,0.00174029,-0.000388931,-0.261207,0.00130924,0.0130776,776,631,-11.3032,10.8565
-441,393,-11.3177,-11.4111,0.00178823,-0.000832315,-0.000276536,0.00181709,-0.000861179,-0.104,0.00157879,0.0128628,783,631,-11.3177,11.4111
-434,393,-11.3424,-11.9453,0.00192742,-0.00141218,-1.67494e-05,0.00192751,-0.00141226,-0.00501523,0.00193585,0.0123499,790,631,-11.3424,11.9453
-427,393,-11.3122,-12.556,0.00193737,-0.0022123,0.000359985,0.00196837,-0.0022433,0.0858952,0.00243333,0.0206868,797,631,-11.3122,12.556
-420,393,-11.3291,-13.1146,0.00167225,-0.00329673,0.00100524,0.00186791,-0.00349239,0.192235,0.00314178,0.0448573,804,631,-11.3291,13.1146
-413,393,-11.5775,-13.6764,0,0,0,0,0,0,0,-1,811,631,-11.5774,13.6764
-406,393,-11.826,-12.7987,0,0,0,0,0,0,0,-1,818,631,-11.8261,12.7987
-399,393,-5.07343,-5.92365,0,0,0,0,0,0,0,-1,825,631,-5.07344,5.92364
-392,393,-2.08063,-3.02386,0,0,0,0,0,0,0,-1,832,631,-2.08063,3.02384
-385,393,-3.16931,-0.624756,0,0,0,0,0,0,0,-1,839,631,-3.16928,0.624764
-378,393,-7.33081,-0.872314,0,0,0,0,0,0,0,-1,846,631,-7.33081,0.872325
-371,393,-7.47858,-0.811096,0,0,0,0,0,0,0,-1,853,631,-7.47859,0.811075
-364,393,-7.64917,-0.662415,0,0,0,0,0,0,0,-1,860,631,-7.64917,0.662406
-357,393,-8.09686,-0.726013,0,0,0,0,0,0,0,-1,867,631,-8.09689,0.726029
-350,393,-8.38788,-0.511841,0,0,0,0,0,0,0,-1,874,631,-8.38785,0.511811
-343,393,0,0,0,0,0,0,0,0,0,-1,881,631,0,0
-336,393,0,0,0,0,0,0,0,0,0,-1,888,631,0,0
-329,393,0,0,0,0,0,0,0,0,0,-1,895,631,0,0
-322,393,0,0,0,0,0,0,0,0,0,-1,902,631,0,0
-315,393,0,0,0,0,0,0,0,0,0,-1,909,631,0,0
-308,393,0,0,0,0,0,0,0,0,0,-1,916,631,0,0
-301,393,0,0,0,0,0,0,0,0,0,-1,923,631,0,0
-294,393,0,0,0,0,0,0,0,0,0,-1,930,631,0,0
-287,393,0,0,0,0,0,0,0,0,0,-1,937,631,0,0
-280,393,0,0,0,0,0,0,0,0,0,-1,944,631,0,0
-273,393,0,0,0,0,0,0,0,0,0,-1,951,631,0,0
-266,393,0,0,0,0,0,0,0,0,0,-1,958,631,0,0
-259,393,0,0,0,0,0,0,0,0,0,-1,965,631,0,0
-252,393,0,0,0,0,0,0,0,0,0,-1,972,631,0,0
-245,393,0,0,0,0,0,0,0,0,0,-1,979,631,0,0
-238,393,0,0,0,0,0,0,0,0,0,-1,986,631,0,0
-231,393,0,0,0,0,0,0,0,0,0,-1,993,631,0,0
-224,393,0,0,0,0,0,0,0,0,0,-1,1000,631,0,0
-217,393,0,0,0,0,0,0,0,0,0,-1,1007,631,0,0
-210,393,0,0,0,0,0,0,0,0,0,-1,1014,631,0,0
-203,393,0,0,0,0,0,0,0,0,0,-1,1021,631,0,0
-196,393,0,0,0,0,0,0,0,0,0,-1,1028,631,0,0
-189,393,0,0,0,0,0,0,0,0,0,-1,1035,631,0,0
-182,393,0,0,0,0,0,0,0,0,0,-1,1042,631,0,0
-175,393,0,0,0,0,0,0,0,0,0,-1,1049,631,0,0
-168,393,0,0,0,0,0,0,0,0,0,-1,1056,631,0,0
-161,393,0,0,0,0,0,0,0,0,0,-1,1063,631,0,0
-154,393,0,0,0,0,0,0,0,0,0,-1,1070,631,0,0
-147,393,0,0,0,0,0,0,0,0,0,-1,1077,631,0,0
-140,393,0,0,0,0,0,0,0,0,0,-1,1084,631,0,0
-133,393,0,0,0,0,0,0,0,0,0,-1,1091,631,0,0
-126,393,0,0,0,0,0,0,0,0,0,-1,1098,631,0,0
-119,393,0,0,0,0,0,0,0,0,0,-1,1105,631,0,0
-112,393,0,0,0,0,0,0,0,0,0,-1,1112,631,0,0
-105,393,0,0,0,0,0,0,0,0,0,-1,1119,631,0,0
-98,393,0,0,0,0,0,0,0,0,0,-1,1126,631,0,0
-91,393,0,0,0,0,0,0,0,0,0,-1,1133,631,0,0
-84,393,0,0,0,0,0,0,0,0,0,-1,1140,631,0,0
-77,393,0,0,0,0,0,0,0,0,0,-1,1147,631,0,0
-70,393,0,0,0,0,0,0,0,0,0,-1,1154,631,0,0
-63,393,0,0,0,0,0,0,0,0,0,-1,1161,631,0,0
-56,393,0,0,0,0,0,0,0,0,0,-1,1168,631,0,0
-49,393,0,0,0,0,0,0,0,0,0,-1,1175,631,0,0
-42,393,0,0,0,0,0,0,0,0,0,-1,1182,631,0,0
-35,393,0,0,0,0,0,0,0,0,0,-1,1189,631,0,0
-28,393,0,0,0,0,0,0,0,0,0,-1,1196,631,0,0
-21,393,0,0,0,0,0,0,0,0,0,-1,1203,631,0,0
-14,393,0,0,0,0,0,0,0,0,0,-1,1210,631,0,0
-7,393,0,0,0,0,0,0,0,0,0,-1,1217,631,0,0
0,393,0,0,0,0,0,0,0,0,0,-1,1224,631,0,0
7,393,0,0,0,0,0,0,0,0,0,-1,1231,631,0,0
14,393,0,0,0,0,0,0,0,0,0,-1,1238,631,0,0
21,393,0,0,0,0,0,0,0,0,0,-1,1245,631,0,0
28,393,0,0,0,0,0,0,0,0,0,-1,1252,631,0,0
35,393,0,0,0,0,0,0,0,0,0,-1,1259,631,0,0
42,393,0,0,0,0,0,0,0,0,0,-1,1266,631,0,0
49,393,0,0,0,0,0,0,0,0,0,-1,1273,631,0,0
56,393,0,0,0,0,0,0,0,0,0,-1,1280,631,0,0
63,393,0,0,0,0,0,0,0,0,0,-1,1287,631,0,0
70,393,0,0,0,0,0,0,0,0,0,-1,1294,631,0,0
77,393,0,0,0,0,0,0,0,0,0,-1,1301,631,0,0
84,393,0,0,0,0,0,0,0,0,0,-1,1308,631,0,0
91,393,0,0,0,0,0,0,0,0,0,-1,1315,631,0,0
98,393,0,0,0,0,0,0,0,0,0,-1,1322,631,0,0
105,393,0,0,0,0,0,0,0,0,0,-1,1329,631,0,0
112,393,0,0,0,0,0,0,0,0,0,-1,1336,631,0,0
119,393,0,0,0,0,0,0,0,0,0,-1,1343,631,0,0
126,393,0,0,0,0,0,0,0,0,0,-1,1350,631,0,0
133,393,0,0,0,0,0,0,0,0,0,-1,1357,631,0,0
140,393,0,0,0,0,0,0,0,0,0,-1,1364,631,0,0
147,393,0,0,0,0,0,0,0,0,0,-1,1371,631,0,0
154,393,0,0,0,0,0,0,0,0,0,-1,1378,631,0,0
161,393,0,0,0,0,0,0,0,0,0,-1,1385,631,0,0
168,393,0,0,0,0,0,0,0,0,0,-1,1392,631,0,0
175,393,0,0,0,0,0,0,0,0,0,-1,1399,631,0,0
182,393,0,0,0,0,0,0,0,0,0,-1,1406,631,0,0
189,393,0,0,0,0,0,0,0,0,0,-1,1413,631,0,0
196,393,0,0,0,0,0,0,0,0,0,-1,1420,631,0,0
203,393,0,0,0,0,0,0,0,0,0,-1,1427,631,0,0
210,393,0,0,0,0,0,0,0,0,0,-1,1434,631,0,0
217,393,0,0,0,0,0,0,0,0,0,-1,1441,631,0,0
224,393,0,0,0,0,0,0,0,0,0,-1,1448,631,0,0
231,393,0,0,0,0,0,0,0,0,0,-1,1455,631,0,0
238,393,0,0,0,0,0,0,0,0,0,-1,1462,631,0,0
245,393,0,0,0,0,0,0,0,0,0,-1,1469,631,0,0
252,393,0,0,0,0,0,0,0,0,0,-1,1476,631,0,0
259,393,0,0,0,0,0,0,0,0,0,-1,1483,631,0,0
266,393,0,0,0,0,0,0,0,0,0,-1,1490,631,0,0
273,393,0,0,0,0,0,0,0,0,0,-1,1497,631,0,0
280,393,0,0,0,0,0,0,0,0,0,-1,1504,631,0,0
287,393,0,0,0,0,0,0,0,0,0,-1,1511,631,0,0
294,393,0,0,0,0,0,0,0,0,0,-1,1518,631,0,0
301,393,0,0,0,0,0,0,0,0,0,-1,1525,631,0,0
308,393,0,0,0,0,0,0,0,0,0,-1,1532,631,0,0
315,393,0,0,0,0,0,0,0,0,0,-1,1539,631,0,0
322,393,0,0,0,0,0,0,0,0,0,-1,1546,631,0,0
329,393,0,0,0,0,0,0,0,0,0,-1,1553,631,0,0
336,393,0,0,0,0,0,0,0,0,0,-1,1560,631,0,0
343,393,0,0,0,0,0,0,0,0,0,-1,1567,631,0,0
350,393,0,0,0,0,0,0,0,0,0,-1,1574,631,0,0
357,393,0,0,0,0,0,0,0,0,0,-1,1581,631,0,0
364,393,0,0,0,0,0,0,0,0,0,-1,1588,631,0,0
371,393,0,0,0,0,0,0,0,0,0,-1,1595,631,0,0
378,393,0,0,0,0,0,0,0,0,0,-1,1602,631,0,0
385,393,0,0,0,0,0,0,0,0,0,-1,1609,631,0,0
392,393,0,0,0,0,0,0,0,0,0,-1,1616,631,0,0
399,393,0,0,0,0,0,0,0,0,0,-1,1623,631,0,0
406,393,0,0,0,0,0,0,0,0,0,-1,1630,631,0,0
413,393,0,0,0,0,0,0,0,0,0,-1,1637,631,0,0
420,393,0,0,0,0,0,0,0,0,0,-1,1644,631,0,0
427,393,0,0,0,0,0,0,0,0,0,-1,1651,631,0,0
434,393,0,0,0,0,0,0,0,0,0,-1,1658,631,0,0
441,393,0,0,0,0,0,0,0,0,0,-1,1665,631,0,0
448,393,0,0,0,0,0,0,0,0,0,-1,1672,631,0,0
455,393,0,0,0,0,0,0,0,0,0,-1,1679,631,0,0
462,393,8.51099,1.89502,0,0,0,0,0,0,0,-1,1686,631,8.51103,-1.89504
469,393,9.39465,1.51703,0,0,0,0,0,0,0,-1,1693,631,9.39465,-1.51703
476,393,9.95569,1.185,0,0,0,0,0,0,0,-1,1700,631,9.95575,-1.18497
483,393,10.5267,0.887329,0,0,0,0,0,0,0,-1,1707,631,10.5267,-0.887321
490,393,10.9303,0.761414,0,0,0,0,0,0,0,-1,1714,631,10.9303,-0.761386
497,393,8.32153,1.88104,0,0,0,0,0,0,0,-1,1721,631,8.32148,-1.88103
504,393,9.46985,1.78711,0,0,0,0,0,0,0,-1,1728,631,9.46986,-1.78713
511,393,9.66565,-0.375977,0,0,0,0,0,0,0,-1,1735,631,9.66571,0.375949
518,393,7.01599,1.62482,0,0,0,0,0,0,0,-1,1742,631,7.01597,-1.62483
525,393,7.88245,-1.13422,0,0,0,0,0,0,0,-1,1749,631,7.88246,1.13423
532,393,7.06335,-1.18103,0,0,0,0,0,0,0,-1,1756,631,7.06332,1.18101
539,393,9.91626,-2.46301,0,0,0,0,0,0,0,-1,1763,631,9.91625,2.46302
546,393,16.4094,-8.04651,0,0,0,0,0,0,0,-1,1770,631,16.4094,8.04649
553,393,21.7113,-11.2023,0,0,0,0,0,0,0,-1,1777,631,21.7113,11.2022
560,393,21.8685,-10.574,0.00603394,-0.000209617,0.00124768,0.00627404,-0.000449715,0.190111,0.00434037,0.0387377,1784,631,21.8685,10.5739
567,393,21.8698,-9.92041,0.00469663,-0.000193507,0.000894719,0.00485519,-0.000352067,0.175397,0.0033603,0.0153866,1791,631,21.8697,9.92042
574,393,21.8646,-9.32056,0.00368231,6.9069e-05,0.000782173,0.00384436,-9.29831e-05,0.204292,0.00259446,0.015352,1798,631,21.8646,9.32057
581,393,21.8008,-8.69861,0.00290864,0.00051747,0.000840844,0.00317472,0.000251398,0.306465,0.00203785,0.0149875,1805,631,21.8007,8.69861
588,393,21.7744,-8.06024,0.00239575,0.00111454,0.00102639,0.00296505,0.000545244,0.506411,0.00182234,0.0177555,1812,631,21.7744,8.06025
595,393,21.7715,-7.44666,0.002248,0.00185563,0.00142444,0.0034897,0.000613926,0.716965,0.00215122,0.0157964,1819,631,21.7715,7.44664
602,393,21.7644,-6.82556,0.00242895,0.00274212,0.00202493,0.00461651,0.000554561,0.823986,0.00291049,0.0174136,1826,631,21.7644,6.82556
609,393,21.7271,-6.20782,0.00285524,0.00379473,0.00277226,0.00613676,0.000513204,0.869323,0.00393129,0.0160315,1833,631,21.727,6.20783
616,393,21.6919,-5.59668,0.00359024,0.00511845,0.00370624,0.00813853,0.000570153,0.887057,0.00524597,0.0158471,1840,631,21.6919,5.59667
623,393,21.7028,-4.84796,0.00505264,0.00657148,0.0050601,0.0109288,0.000695288,0.859882,0.00706554,0.0325828,1847,631,21.7027,4.84794
630,393,21.7489,-3.966,0,0,0,0,0,0,0,-1,1854,631,21.7488,3.96599
637,393,11.4626,0.608887,0,0,0,0,0,0,0,-1,1861,631,11.4627,-0.608904
644,393,8.97583,1.30585,0,0,0,0,0,0,0,-1,1868,631,8.97586,-1.30584
651,393,11.348,0.53302,0,0,0,0,0,0,0,-1,1875,631,11.348,-0.53305
658,393,9.21338,1.50836,0,0,0,0,0,0,0,-1,1882,631,9.21338,-1.50834
665,393,6.1001,2.32129,0,0,0,0,0,0,0,-1,1889,631,6.10012,-2.3213
672,393,7.14575,2.43225,0,0,0,0,0,0,0,-1,1896,631,7.14572,-2.43222
679,393,0,0,0,0,0,0,0,0,0,-1,1903,631,0,0
686,393,0,0,0,0,0,0,0,0,0,-1,1910,631,0,0
693,393,0,0,0,0,0,0,0,0,0,-1,1917,631,0,0
700,393,0,0,0,0,0,0,0,0,0,-1,1924,631,0,0
707,393,0,0,0,0,0,0,0,0,0,-1,1931,631,0,0
714,393,0,0,0,0,0,0,0,0,0,-1,1938,631,0,0
721,393,0,0,0,0,0,0,0,0,0,-1,1945,631,0,0
728,393,0,0,0,0,0,0,0,0,0,-1,1952,631,0,0
735,393,0,0,0,0,0,0,0,0,0,-1,1959,631,0,0
742,393,0,0,0,0,0,0,0,0,0,-1,1966,631,0,0
749,393,0,0,0,0,0,0,0,0,0,-1,1973,631,0,0
756,393,0,0,0,0,0,0,0,0,0,-1,1980,631,0,0
763,393,0,0,0,0,0,0,0,0,0,-1,1987,631,0,0
770,393,0,0,0,0,0,0,0,0,0,-1,1994,631,0,0
777,393,0,0,0,0,0,0,0,0,0,-1,2001,631,0,0
784,393,0,0,0,0,0,0,0,0,0,-1,2008,631,0,0
791,393,0,0,0,0,0,0,0,0,0,-1,2015,631,0,0
798,393,0,0,0,0,0,0,0,0,0,-1,2022,631,0,0
805,393,0,0,0,0,0,0,0,0,0,-1,2029,631,0,0
812,393,0,0,0,0,0,0,0,0,0,-1,2036,631,0,0
-700,386,0,0,0,0,0,0,0,0,0,-1,524,638,0,0
-693,386,0,0,0,0,0,0,0,0,0,-1,531,638,0,0
-686,386,0,0,0,0,0,0,0,0,0,-1,538,638,0,0
-679,386,0,0,0,0,0,0,0,0,0,-1,545,638,0,0
-672,386,0,0,0,0,0,0,0,0,0,-1,552,638,0,0
-665,386,0,0,0,0,0,0,0,0,0,-1,559,638,0,0
-658,386,0,0,0,0,0,0,0,0,0,-1,566,638,0,0
-651,386,0,0,0,0,0,0,0,0,0,-1,573,638,0,0
-644,386,0,0,0,0,0,0,0,0,0,-1,580,638,0,0
-637,386,0,0,0,0,0,0,0,0,0,-1,587,638,0,0
-630,386,0,0,0,0,0,0,0,0,0,-1,594,638,0,0
-623,386,0,0,0,0,0,0,0,0,0,-1,601,638,0,0
-616,386,0,0,0,0,0,0,0,0,0,-1,608,638,0,0
-609,386,0,0,0,0,0,0,0,0,0,-1,615,638,0,0
-602,386,0,0,0,0,0,0,0,0,0,-1,622,638,0,0
-595,386,0,0,0,0,0,0,0,0,0,-1,629,638,0,0
-588,386,0,0,0,0,0,0,0,0,0,-1,636,638,0,0
-581,386,0,0,0,0,0,0,0,0,0,-1,643,638,0,0
-574,386,0,0,0,0,0,0,0,0,0,-1,650,638,0,0
-567,386,0,0,0,0,0,0,0,0,0,-1,657,638,0,0
-560,386,-3.97229,-5.13898,0,0,0,0,0,0,0,-1,664,638,-3.97232,5.13897
-553,386,-4.94244,-5.54309,0,0,0,0,0,0,0,-1,671,638,-4.94242,5.5431
-546,386,-1.78668,1.72827,0,0,0,0,0,0,0,-1,678,638,-1.78668,-1.72829
-539,386,-0.879456,-2.90009,0,0,0,0,0,0,0,-1,685,638,-0.879442,2.90008
-532,386,-5.4884,1.73328,0,0,0,0,0,0,0,-1,692,638,-5.4884,-1.73325
-525,386,-6.64148,-1.50604,0,0,0,0,0,0,0,-1,699,638,-6.64149,1.50603
-518,386,-9.71906,-3.39722,0,0,0,0,0,0,0,-1,706,638,-9.71906,3.3972
-511,386,-11.7834,-4.45728,0,0,0,0,0,0,0,-1,713,638,-11.7834,4.45728
-504,386,-11.728,-5.71033,0.00163966,0.0111704,-0.00583904,0.0139418,-0.00113175,-1.12765,0.00969385,0.0391409,720,638,-11.728,5.71035
-497,386,-11.7874,-6.60425,0.00120219,0.00836766,-0.0044091,0.0104661,-0.000896286,-1.12658,0.00729457,0.0201473,727,638,-11.7873,6.60425
-490,386,-11.7651,-7.25916,0.0010229,0.00616072,-0.00334682,0.00781088,-0.000627249,-1.11272,0.00542843,0.0134258,734,638,-11.7652,7.25917
-483,386,-11.7631,-7.89862,0.000962979,0.00436385,-0.00251482,0.00569917,-0.000372339,-1.08267,0.00392945,0.0165042,741,638,-11.7631,7.8986
-476,386,-11.7767,-8.49286,0.0010719,0.00296678,-0.00190785,0.00414949,-0.000110805,-1.01586,0.00280399,0.0161072,748,638,-11.7767,8.49284
-469,386,-11.8117,-9.04291,0.00126905,0.0018651,-0.00144459,0.00304209,9.20666e-05,-0.887123,0.00199808,0.011517,755,638,-11.8117,9.04289
-462,386,-11.8334,-9.65277,0.00147177,0.0010027,-0.00107988,0.00234229,0.000132174,-0.678466,0.00151939,0.0110662,762,638,-11.8335,9.6528
-455,386,-11.8545,-10.2234,0.0017196,0.000204228,-0.00078558,0.00205335,-0.000129517,-0.401735,0.00141405,0.0126974,769,638,-11.8545,10.2235
-448,386,-11.8826,-10.8045,0.00205925,-0.000380853,-0.000598202,0.00219802,-0.000519614,-0.227932,0.00166579,0.0124441,776,638,-11.8826,10.8045
-441,386,-11.9021,-11.3857,0.00239335,-0.000788158,-0.000491833,0.00246765,-0.000862456,-0.14993,0.0019957,0.0138606,783,638,-11.9021,11.3857
-434,386,-11.8582,-12.0063,0.00268727,-0.00132323,-0.000341181,0.00271609,-0.00135205,-0.084265,0.00239235,0.0357005,790,638,-11.8582,12.0063
-427,386,-11.7346,-12.7295,0,0,0,0,0,0,0,-1,797,638,-11.7346,12.7295
-420,386,-11.9228,-13.1399,0,0,0,0,0,0,0,-1,804,638,-11.9228,13.1399
-413,386,-5.45691,-5.35785,0,0,0,0,0,0,0,-1,811,638,-5.45691,5.35783
-406,386,-4.51135,-4.10999,0,0,0,0,0,0,0,-1,818,638,-4.51135,4.10996
-399,386,-3.57117,-3.42126,0,0,0,0,0,0,0,-1,825,638,-3.57116,3.42129
-392,386,-4.00977,0.403625,0,0,0,0,0,0,0,-1,832,638,-4.0098,-0.403616
-385,386,-3.2406,-0.118469,0,0,0,0,0,0,0,-1,839,638,-3.24058,0.118485
-378,386,-2.55243,-1.22748,0,0,0,0,0,0,0,-1,846,638,-2.55243,1.22748
-371,386,-7.95807,-0.330261,0,0,0,0,0,0,0,-1,853,638,-7.95806,0.330284
-364,386,-8.90637,-0.665955,0,0,0,0,0,0,0,-1,860,638,-8.90635,0.665951
-357,386,-9.10364,-0.388733,0,0,0,0,0,0,0,-1,867,638,-9.10364,0.388744
-350,386,0,0,0,0,0,0,0,0,0,-1,874,638,0,0
-343,386,0,0,0,0,0,0,0,0,0,-1,881,638,0,0
-336,386,0,0,0,0,0,0,0,0,0,-1,888,638,0,0
-329,386,0,0,0,0,0,0,0,0,0,-1,895,638,0,0
-322,386,0,0,0,0,0,0,0,0,0,-1,902,638,0,0
-315,386,0,0,0,0,0,0,0,0,0,-1,909,638,0,0
-308,386,0,0,0,0,0,0,0,0,0,-1,916,638,0,0
-301,386,0,0,0,0,0,0,0,0,0,-1,923,638,0,0
-294,386,0,0,0,0,0,0,0,0,0,-1,930,638,0,0
-287,386,0,0,0,0,0,0,0,0,0,-1,937,638,0,0
-280,386,0,0,0,0,0,0,0,0,0,-1,944,638,0,0
-273,386,0,0,0,0,0,0,0,0,0,-1,951,638,0,0
-266,386,0,0,0,0,0,0,0,0,0,-1,958,638,0,0
-259,386,0,0,0,0,0,0,0,0,0,-1,965,638,0,0
-252,386,0,0,0,0,0,0,0,0,0,-1,972,638,0,0
-245,386,0,0,0,0,0,0,0,0,0,-1,979,638,0,0
-238,386,0,0,0,0,0,0,0,0,0,-1,986,638,0,0
-231,386,0,0,0,0,0,0,0,0,0,-1,993,638,0,0
-224,386,0,0,0,0,0,0,0,0,0,-1,1000,638,0,0
-217,386,0,0,0,0,0,0,0,0,0,-1,1007,638,0,0
-210,386,0,0,0,0,0,0,0,0,0,-1,1014,638,0,0
-203,386,0,0,0,0,0,0,0,0,0,-1,1021,638,0,0
-196,386,0,0,0,0,0,0,0,0,0,-1,1028,638,0,0
-189,386,0,0,0,0,0,0,0,0,0,-1,1035,638,0,0
-182,386,0,0,0,0,0,0,0,0,0,-1,1042,638,0,0
-175,386,0,0,0,0,0,0,0,0,0,-1,1049,638,0,0
-168,386,0,0,0,0,0,0,0,0,0,-1,1056,638,0,0
-161,386,0,0,0,0,0,0,0,0,0,-1,1063,638,0,0
-154,386,0,0,0,0,0,0,0,0,0,-1,1070,638,0,0
-147,386,0,0,0,0,0,0,0,0,0,-1,1077,638,0,0
-140,386,0,0,0,0,0,0,0,0,0,-1,1084,638,0,0
-133,386,0,0,0,0,0,0,0,0,0,-1,1091,638,0,0
-126,386,0,0,0,0,0,0,0,0,0,-1,1098,638,0,0
-119,386,0,0,0,0,0,0,0,0,0,-1,1105,638,0,0
-112,386,0,0,0,0,0,0,0,0,0,-1,1112,638,0,0
-105,386,0,0,0,0,0,0,0,0,0,-1,1119,638,0,0
-98,386,0,0,0,0,0,0,0,0,0,-1,1126,638,0,0
-91,386,0,0,0,0,0,0,0,0,0,-1,1133,638,0,0
-84,386,0,0,0,0,0,0,0,0,0,-1,1140,638,0,0
-77,386,0,0,0,0,0,0,0,0,0,-1,1147,638,0,0
-70,386,0,0,0,0,0,0,0,0,0,-1,1154,638,0,0
-63,386,0,0,0,0,0,0,0,0,0,-1,1161,638,0,0
-56,386,0,0,0,0,0,0,0,0,0,-1,1168,638,0,0
-49,386,0,0,0,0,0,0,0,0,0,-1,1175,638,0,0
-42,386,0,0,0,0,0,0,0,0,0,-1,1182,638,0,0
-35,386,0,0,0,0,0,0,0,0,0,-1,1189,638,0,0
-28,386,0,0,0,0,0,0,0,0,0,-1,1196,638,0,0
-21,386,0,0,0,0,0,0,0,0,0,-1,1203,638,0,0
-14,386,0,0,0,0,0,0,0,0,0,-1,1210,638,0,0
-7,386,0,0,0,0,0,0,0,0,0,-1,1217,638,0,0
0,386,0,0,0,0,0,0,0,0,0,-1,1224,638,0,0
7,386,0,0,0,0,0,0,0,0,0,-1,1231,638,0,0
14,386,0,0,0,0,0,0,0,0,0,-1,1238,638,0,0
21,386,0,0,0,0,0,0,0,0,0,-1,1245,638,0,0
28,386,0,0,0,0,0,0,0,0,0,-1,1252,638,0,0
35,386,0,0,0,0,0,0,0,0,0,-1,1259,638,0,0
42,386,0,0,0,0,0,0,0,0,0,-1,1266,638,0,0
49,386,0,0,0,0,0,0,0,0,0,-1,1273,638,0,0
56,386,0,0,0,0,0,0,0,0,0,-1,1280,638,0,0
63,386,0,0,0,0,0,0,0,0,0,-1,1287,638,0,0
70,386,0,0,0,0,0,0,0,0,0,-1,1294,638,0,0
77,386,0,0,0,0,0,0,0,0,0,-1,1301,638,0,0
84,386,0,0,0,0,0,0,0,0,0,-1,1308,638,0,0
91,386,0,0,0,0,0,0,0,0,0,-1,1315,638,0,0
98,386,0,0,0,0,0,0,0,0,0,-1,1322,638,0,0
105,386,0,0,0,0,0,0,0,0,0,-1,1329,638,0,0
112,386,0,0,0,0,0,0,0,0,0,-1,1336,638,0,0
119,386,0,0,0,0,0,0,0,0,0,-1,1343,638,0,0
126,386,0,0,0,0,0,0,0,0,0,-1,1350,638,0,0
133,386,0,0,0,0,0,0,0,0,0,-1,1357,638,0,0
140,386,0,0,0,0,0,0,0,0,0,-1,1364,638,0,0
147,386,0,0,0,0,0,0,0,0,0,-1,1371,638,0,0
154,386,0,0,0,0,0,0,0,0,0,-1,1378,638,0,0
161,386,0,0,0,0,0,0,0,0,0,-1,1385,638,0,0
168,386,0,0,0,0,0,0,0,0,0,-1,1392,638,0,0
175,386,0,0,0,0,0,0,0,0,0,-1,1399,638,0,0
182,386,0,0,0,0,0,0,0,0,0,-1,1406,638,0,0
189,386,0,0,0,0,0,0,0,0,0,-1,1413,638,0,0
196,386,0,0,0,0,0,0,0,0,0,-1,1420,638,0,0
203,386,0,0,0,0,0,0,0,0,0,-1,1427,638,0,0
210,386,0,0,0,0,0,0,0,0,0,-1,1434,638,0,0
217,386,0,0,0,0,0,0,0,0,0,-1,1441,638,0,0
224,386,0,0,0,0,0,0,0,0,0,-1,1448,638,0,0
231,386,0,0,0,0,0,0,0,0,0,-1,1455,638,0,0
238,386,0,0,0,0,0,0,0,0,0,-1,1462,638,0,0
245,386,0,0,0,0,0,0,0,0,0,-1,1469,638,0,0
252,386,0,0,0,0,0,0,0,0,0,-1,1476,638,0,0
259,386,0,0,0,0,0,0,0,0,0,-1,1483,638,0,0
266,386,0,0,0,0,0,0,0,0,0,-1,1490,638,0,0
273,386,0,0,0,0,0,0,0,0,0,-1,1497,638,0,0
280,386,0,0,0,0,0,0,0,0,0,-1,1504,638,0,0
287,386,0,0,0,0,0,0,0,0,0,-1,1511,638,0,0
294,386,0,0,0,0,0,0,0,0,0,-1,1518,638,0,0
301,386,0,0,0,0,0,0,0,0,0,-1,1525,638,0,0
308,386,0,0,0,0,0,0,0,0,0,-1,1532,638,0,0
315,386,0,0,0,0,0,0,0,0,0,-1,1539,638,0,0
322,386,0,0,0,0,0,0,0,0,0,-1,1546,638,0,0
329,386,0,0,0,0,0,0,0,0,0,-1,1553,638,0,0
336,386,0,0,0,0,0,0,0,0,0,-1,1560,638,0,0
343,386,0,0,0,0,0,0,0,0,0,-1,1567,638,0,0
350,386,0,0,0,0,0,0,0,0,0,-1,1574,638,0,0
357,386,0,0,0,0,0,0,0,0,0,-1,1581,638,0,0
364,386,0,0,0,0,0,0,0,0,0,-1,1588,638,0,0
371,386,0,0,0,0,0,0,0,0,0,-1,1595,638,0,0
378,386,0,0,0,0,0,0,0,0,0,-1,1602,638,0,0
385,386,0,0,0,0,0,0,0,0,0,-1,1609,638,0,0
392,386,0,0,0,0,0,0,0,0,0,-1,1616,638,0,0
399,386,0,0,0,0,0,0,0,0,0,-1,1623,638,0,0
406,386,0,0,0,0,0,0,0,0,0,-1,1630,638,0,0
413,386,0,0,0,0,0,0,0,0,0,-1,1637,638,0,0
420,386,0,0,0,0,0,0,0,0,0,-1,1644,638,0,0
427,386,0,0,0,0,0,0,0,0,0,-1,1651,638,0,0
434,386,0,0,0,0,0,0,0,0,0,-1,1658,638,0,0
441,386,0,0,0,0,0,0,0,0,0,-1,1665,638,0,0
448,386,0,0,0,0,0,0,0,0,0,-1,1672,638,0,0
455,386,0,0,0,0,0,0,0,0,0,-1,1679,638,0,0
462,386,0,0,0,0,0,0,0,0,0,-1,1686,638,0,0
469,386,9.84692,1.55804,0,0,0,0,0,0,0,-1,1693,638,9.84691,-1.55807
476,386,10.6145,0.986511,0,0,0,0,0,0,0,-1,1700,638,10.6145,-0.986529
483,386,11.4113,0.732971,0,0,0,0,0,0,0,-1,1707,638,11.4112,-0.732958
490,386,7.79785,1.79572,0,0,0,0,0,0,0,-1,1714,638,7.79788,-1.7957
497,386,8.96362,1.77081,0,0,0,0,0,0,0,-1,1721,638,8.96357,-1.77081
504,386,10.0555,1.69427,0,0,0,0,0,0,0,-1,1728,638,10.0555,-1.69426
511,386,11.2172,1.534,0,0,0,0,0,0,0,-1,1735,638,11.2172,-1.53398
518,386,7.41553,1.75238,0,0,0,0,0,0,0,-1,1742,638,7.41547,-1.75238
525,386,8.82422,-1.1449,0,0,0,0,0,0,0,-1,1749,638,8.82426,1.14492
532,386,10.6432,0.617371,0,0,0,0,0,0,0,-1,1756,638,10.6432,-0.617359
539,386,9.62061,-0.393616,0,0,0,0,0,0,0,-1,1763,638,9.62059,0.393634
546,386,10.7963,-2.854,0,0,0,0,0,0,0,-1,1770,638,10.7962,2.854
553,386,16.9939,-7.27942,0,0,0,0,0,0,0,-1,1777,638,16.9939,7.27944
560,386,22.4153,-10.7047,0,0,0,0,0,0,0,-1,1784,638,22.4153,10.7046
567,386,22.402,-9.90076,0.00576528,-0.000418742,0.00102893,0.00593198,-0.000585445,0.160621,0.00416355,0.0341132,1791,638,22.4019,9.90076
574,386,22.4657,-9.26685,0.00439259,-0.000229066,0.000762572,0.00451516,-0.000351639,0.159374,0.0031339,0.0145903,1798,638,22.4657,9.26682
581,386,22.417,-8.69519,0.00331756,0.000169244,0.000687911,0.00346131,2.54976e-05,0.205996,0.00229909,0.0143866,1805,638,22.417,8.69519
588,386,22.4185,-8.06104,0.00259689,0.000692012,0.000776484,0.0028733,0.000415602,0.341988,0.00179312,0.0131307,1812,638,22.4184,8.06101
595,386,22.3892,-7.43475,0.00229201,0.00136396,0.00108523,0.00300826,0.000647716,0.58337,0.00182826,0.0142903,1819,638,22.3892,7.43478
602,386,22.3575,-6.82581,0.00234838,0.0021617,0.00159928,0.00385704,0.00065304,0.756249,0.00238369,0.0157291,1826,638,22.3576,6.8258
609,386,22.3643,-6.2193,0.00264703,0.00309766,0.00223029,0.00511399,0.000630694,0.83574,0.00321975,0.0148093,1833,638,22.3642,6.21928
616,386,22.3296,-5.5929,0.00323763,0.00424189,0.00300424,0.00678568,0.000693847,0.868203,0.00431116,0.0119434,1840,638,22.3296,5.5929
623,386,22.2797,-4.95349,0.00436956,0.00545652,0.00406726,0.00901645,0.000809629,0.851816,0.00576009,0.0104162,1847,638,22.2796,4.95351
630,386,22.3918,-4.26117,0.00573573,0.00675521,0.00511217,0.011383,0.00110795,0.835089,0.00724763,0.037287,1854,638,22.3918,4.26118
637,386,22.5858,-3.56012,0,0,0,0,0,0,0,-1,1861,638,22.5858,3.56012
644,386,11.6521,0.723328,0,0,0,0,0,0,0,-1,1868,638,11.6521,-0.723355
651,386,9.3866,1.31097,0,0,0,0,0,0,0,-1,1875,638,9.3866,-1.31095
658,386,12.0731,-0.00415039,0,0,0,0,0,0,0,-1,1882,638,12.0731,0.00412803
665,386,6.33167,1.78601,0,0,0,0,0,0,0,-1,1889,638,6.33171,-1.78601
672,386,7.23352,2.14435,0,0,0,0,0,0,0,-1,1896,638,7.23353,-2.14433
679,386,8.07764,2.57104,0,0,0,0,0,0,0,-1,1903,638,8.07758,-2.57103
686,386,0,0,0,0,0,0,0,0,0,-1,1910,638,0,0
693,386,0,0,0,0,0,0,0,0,0,-1,1917,638,0,0
700,386,0,0,0,0,0,0,0,0,0,-1,1924,638,0,0
707,386,0,0,0,0,0,0,0,0,0,-1,1931,638,0,0
714,386,0,0,0,0,0,0,0,0,0,-1,1938,638,0,0
721,386,0,0,0,0,0,0,0,0,0,-1,1945,638,0,0
728,386,0,0,0,0,0,0,0,0,0,-1,1952,638,0,0
735,386,0,0,0,0,0,0,0,0,0,-1,1959,638,0,0
742,386,0,0,0,0,0,0,0,0,0,-1,1966,638,0,0
749,386,0,0,0,0,0,0,0,0,0,-1,1973,638,0,0
756,386,0,0,0,0,0,0,0,0,0,-1,1980,638,0,0
763,386,0,0,0,0,0,0,0,0,0,-1,1987,638,0,0
770,386,0,0,0,0,0,0,0,0,0,-1,1994,638,0,0
777,386,0,0,0,0,0,0,0,0,0,-1,2001,638,0,0
784,386,0,0,0,0,0,0,0,0,0,-1,2008,638,0,0
791,386,0,0,0,0,0,0,0,0,0,-1,2015,638,0,0
798,386,0,0,0,0,0,0,0,0,0,-1,2022,638,0,0
805,386,0,0,0,0,0,0,0,0,0,-1,2029,638,0,0
812,386,0,0,0,0,0,0,0,0,0,-1,2036,638,0,0
-700,379,0,0,0,0,0,0,0,0,0,-1,524,645,0,0
-693,379,0,0,0,0,0,0,0,0,0,-1,531,645,0,0
-686,379,0,0,0,0,0,0,0,0,0,-1,538,645,0,0
-679,379,0,0,0,0,0,0,0,0,0,-1,545,645,0,0
-672,379,0,0,0,0,0,0,0,0,0,-1,552,645,0,0
-665,379,0,0,0,0,0,0,0,0,0,-1,559,645,0,0
-658,379,0,0,0,0,0,0,0,0,0,-1,566,645,0,0
-651,379,0,0,0,0,0,0,0,0,0,-1,573,645,0,0
-644,379,0,0,0,0,0,0,0,0,0,-1,580,645,0,0
-637,379,0,0,0,0,0,0,0,0,0,-1,587,645,0,0
-630,379,0,0,0,0,0,0,0,0,0,-1,594,645,0,0
-623,379,0,0,0,0,0,0,0,0,0,-1,601,645,0,0
-616,379,0,0,0,0,0,0,0,0,0,-1,608,645,0,0
-609,379,0,0,0,0,0,0,0,0,0,-1,615,645,0,0
-602,379,0,0,0,0,0,0,0,0,0,-1,622,645,0,0
-595,379,0,0,0,0,0,0,0,0,0,-1,629,645,0,0
-588,379,0,0,0,0,0,0,0,0,0,-1,636,645,0,0
-581,379,0,0,0,0,0,0,0,0,0,-1,643,645,0,0
-574,379,0,0,0,0,0,0,0,0,0,-1,650,645,0,0
-567,379,-8.78058,0.59668,0,0,0,0,0,0,0,-1,657,645,-8.7806,-0.596692
-560,379,-9.53485,-0.211304,0,0,0,0,0,0,0,-1,664,645,-9.53487,0.211282
-553,379,-5.17108,-4.53119,0,0,0,0,0,0,0,-1,671,645,-5.17106,4.53117
-546,379,-6.23053,-4.92102,0,0,0,0,0,0,0,-1,678,645,-6.23054,4.92105
-539,379,-0.71698,-2.19427,0,0,0,0,0,0,0,-1,685,645,-0.716959,2.19427
-532,379,-7.69611,0.217224,0,0,0,0,0,0,0,-1,692,645,-7.69614,-0.217204
-525,379,-7.09833,-1.13043,0,0,0,0,0,0,0,-1,699,645,-7.0983,1.13041
-518,379,-10.5613,-3.82849,0,0,0,0,0,0,0,-1,706,645,-10.5613,3.82849
-511,379,-12.2947,-5.3786,0,0,0,0,0,0,0,-1,713,645,-12.2947,5.37858
-504,379,-12.2749,-6.04663,0.00171435,0.00872249,-0.0045526,0.0109634,-0.000526555,-1.11339,0.00749062,0.027834,720,645,-12.2749,6.04663
-497,379,-12.3453,-6.60541,0.00131675,0.00653277,-0.0034352,0.0082378,-0.000388281,-1.11008,0.00562576,0.0140571,727,645,-12.3454,6.60543
-490,379,-12.3501,-7.22321,0.00115438,0.00477209,-0.0025978,0.00612876,-0.000202288,-1.08952,0.00415491,0.0118027,734,645,-12.3501,7.22319
-483,379,-12.352,-7.84796,0.00113213,0.00333505,-0.00195772,0.0044799,-1.27153e-05,-1.04164,0.00299084,0.013662,741,645,-12.352,7.84795
-476,379,-12.3543,-8.43457,0.00128728,0.00221309,-0.00152079,0.00333987,0.000160505,-0.933134,0.00217505,0.0137098,748,645,-12.3543,8.43457
-469,379,-12.4009,-8.99084,0.00154043,0.00133366,-0.00121248,0.00265393,0.000220166,-0.742869,0.00170065,0.01125,755,645,-12.4009,8.99082
-462,379,-12.4349,-9.5976,0.00182103,0.000667121,-0.00100801,0.00240552,8.26255e-05,-0.525472,0.00157686,0.00868193,762,645,-12.4349,9.59757
-455,379,-12.4434,-10.1812,0.00217653,2.16606e-05,-0.000877883,0.00248889,-0.000290705,-0.341847,0.00176417,0.00934528,769,645,-12.4434,10.1812
-448,379,-12.4413,-10.7418,0.00263968,-0.000291258,-0.000909747,0.0028991,-0.000550678,-0.277783,0.00214004,0.0119007,776,645,-12.4413,10.7418
-441,379,-12.4327,-11.3969,0.00315542,-0.000411796,-0.00107727,0.0034555,-0.000711878,-0.271671,0.00257399,0.0238447,783,645,-12.4327,11.3969
-434,379,-12.3431,-12.209,0,0,0,0,0,0,0,-1,790,645,-12.3431,12.2091
-427,379,-4.16113,-4.13452,0,0,0,0,0,0,0,-1,797,645,-4.16116,4.1345
-420,379,-4.63953,-3.46869,0,0,0,0,0,0,0,-1,804,645,-4.63953,3.46872
-413,379,-4.62543,-3.7912,0,0,0,0,0,0,0,-1,811,645,-4.62541,3.79123
-406,379,-4.64063,-4.38489,0,0,0,0,0,0,0,-1,818,645,-4.64065,4.3849
-399,379,-2.93536,-1.40118,0,0,0,0,0,0,0,-1,825,645,-2.93534,1.40119
-392,379,-4.16711,-0.466003,0,0,0,0,0,0,0,-1,832,645,-4.16714,0.465992
-385,379,-3.51862,0.441101,0,0,0,0,0,0,0,-1,839,645,-3.51859,-0.441072
-378,379,-5.3504,0.212219,0,0,0,0,0,0,0,-1,846,645,-5.35038,-0.212241
-371,379,-4.32092,-0.186707,0,0,0,0,0,0,0,-1,853,645,-4.3209,0.186707
-364,379,-3.40887,-0.549805,0,0,0,0,0,0,0,-1,860,645,-3.4089,0.549802
-357,379,0,0,0,0,0,0,0,0,0,-1,867,645,0,0
-350,379,0,0,0,0,0,0,0,0,0,-1,874,645,0,0
-343,379,0,0,0,0,0,0,0,0,0,-1,881,645,0,0
-336,379,0,0,0,0,0,0,0,0,0,-1,888,645,0,0
-329,379,0,0,0,0,0,0,0,0,0,-1,895,645,0,0
-322,379,0,0,0,0,0,0,0,0,0,-1,902,645,0,0
-315,379,0,0,0,0,0,0,0,0,0,-1,909,645,0,0
-308,379,0,0,0,0,0,0,0,0,0,-1,916,645,0,0
-301,379,0,0,0,0,0,0,0,0,0,-1,923,645,0,0
-294,379,0,0,0,0,0,0,0,0,0,-1,930,645,0,0
-287,379,0,0,0,0,0,0,0,0,0,-1,937,645,0,0
-280,379,0,0,0,0,0,0,0,0,0,-1,944,645,0,0
-273,379,0,0,0,0,0,0,0,0,0,-1,951,645,0,0
-266,379,0,0,0,0,0,0,0,0,0,-1,958,645,0,0
-259,379,0,0,0,0,0,0,0,0,0,-1,965,645,0,0
-252,379,0,0,0,0,0,0,0,0,0,-1,972,645,0,0
-245,379,0,0,0,0,0,0,0,0,0,-1,979,645,0,0
-238,379,0,0,0,0,0,0,0,0,0,-1,986,645,0,0
-231,379,0,0,0,0,0,0,0,0,0,-1,993,645,0,0
-224,379,0,0,0,0,0,0,0,0,0,-1,1000,645,0,0
-217,379,0,0,0,0,0,0,0,0,0,-1,1007,645,0,0
-210,379,0,0,0,0,0,0,0,0,0,-1,1014,645,0,0
-203,379,0,0,0,0,0,0,0,0,0,-1,1021,645,0,0
-196,379,0,0,0,0,0,0,0,0,0,-1,1028,645,0,0
-189,379,0,0,0,0,0,0,0,0,0,-1,1035,645,0,0
-182,379,0,0,0,0,0,0,0,0,0,-1,1042,645,0,0
-175,379,0,0,0,0,0,0,0,0,0,-1,1049,645,0,0
-168,379,0,0,0,0,0,0,0,0,0,-1,1056,645,0,0
-161,379,0,0,0,0,0,0,0,0,0,-1,1063,645,0,0
-154,379,0,0,0,0,0,0,0,0,0,-1,1070,645,0,0
-147,379,0,0,0,0,0,0,0,0,0,-1,1077,645,0,0
-140,379,0,0,0,0,0,0,0,0,0,-1,1084,645,0,0
-133,379,0,0,0,0,0,0,0,0,0,-1,1091,645,0,0
-126,379,0,0,0,0,0,0,0,0,0,-1,1098,645,0,0
-119,379,0,0,0,0,0,0,0,0,0,-1,1105,645,0,0
-112,379,0,0,0,0,0,0,0,0,0,-1,1112,645,0,0
-105,379,0,0,0,0,0,0,0,0,0,-1,1119,645,0,0
-98,379,0,0,0,0,0,0,0,0,0,-1,1126,645,0,0
-91,379,0,0,0,0,0,0,0,0,0,-1,1133,645,0,0
-84,379,0,0,0,0,0,0,0,0,0,-1,1140,645,0,0
-77,379,0,0,0,0,0,0,0,0,0,-1,1147,645,0,0
-70,379,0,0,0,0,0,0,0,0,0,-1,1154,645,0,0
-63,379,0,0,0,0,0,0,0,0,0,-1,1161,645,0,0
-56,379,0,0,0,0,0,0,0,0,0,-1,1168,645,0,0
-49,379,0,0,0,0,0,0,0,0,0,-1,1175,645,0,0
-42,379,0,0,0,0,0,0,0,0,0,-1,1182,645,0,0
-35,379,0,0,0,0,0,0,0,0,0,-1,1189,645,0,0
-28,379,0,0,0,0,0,0,0,0,0,-1,1196,645,0,0
-21,379,0,0,0,0,0,0,0,0,0,-1,1203,645,0,0
-14,379,0,0,0,0,0,0,0,0,0,-1,1210,645,0,0
-7,379,0,0,0,0,0,0,0,0,0,-1,1217,645,0,0
0,379,0,0,0,0,0,0,0,0,0,-1,1224,645,0,0
7,379,0,0,0,0,0,0,0,0,0,-1,1231,645,0,0
14,379,0,0,0,0,0,0,0,0,0,-1,1238,645,0,0
21,379,0,0,0,0,0,0,0,0,0,-1,1245,645,0,0
28,379,0,0,0,0,0,0,0,0,0,-1,1252,645,0,0
35,379,0,0,0,0,0,0,0,0,0,-1,1259,645,0,0
42,379,0,0,0,0,0,0,0,0,0,-1,1266,645,0,0
49,379,0,0,0,0,0,0,0,0,0,-1,1273,645,0,0
56,379,0,0,0,0,0,0,0,0,0,-1,1280,645,0,0
63,379,0,0,0,0,0,0,0,0,0,-1,1287,645,0,0
70,379,0,0,0,0,0,0,0,0,0,-1,1294,645,0,0
77,379,0,0,0,0,0,0,0,0,0,-1,1301,645,0,0
84,379,0,0,0,0,0,0,0,0,0,-1,1308,645,0,0
91,379,0,0,0,0,0,0,0,0,0,-1,1315,645,0,0
98,379,0,0,0,0,0,0,0,0,0,-1,1322,645,0,0
105,379,0,0,0,0,0,0,0,0,0,-1,1329,645,0,0
112,379,0,0,0,0,0,0,0,0,0,-1,1336,645,0,0
119,379,0,0,0,0,0,0,0,0,0,-1,1343,645,0,0
126,379,0,0,0,0,0,0,0,0,0,-1,1350,645,0,0
133,379,0,0,0,0,0,0,0,0,0,-1,1357,645,0,0
140,379,0,0,0,0,0,0,0,0,0,-1,1364,645,0,0
147,379,0,0,0,0,0,0,0,0,0,-1,1371,645,0,0
154,379,0,0,0,0,0,0,0,0,0,-1,1378,645,0,0
161,379,0,0,0,0,0,0,0,0,0,-1,1385,645,0,0
168,379,0,0,0,0,0,0,0,0,0,-1,1392,645,0,0
175,379,0,0,0,0,0,0,0,0,0,-1,1399,645,0,0
182,379,0,0,0,0,0,0,0,0,0,-1,1406,645,0,0
189,379,0,0,0,0,0,0,0,0,0,-1,1413,645,0,0
196,379,0,0,0,0,0,0,0,0,0,-1,1420,645,0,0
203,379,0,0,0,0,0,0,0,0,0,-1,1427,645,0,0
210,379,0,0,0,0,0,0,0,0,0,-1,1434,645,0,0
217,379,0,0,0,0,0,0,0,0,0,-1,1441,645,0,0
224,379,0,0,0,0,0,0,0,0,0,-1,1448,645,0,0
231,379,0,0,0,0,0,0,0,0,0,-1,1455,645,0,0
238,379,0,0,0,0,0,0,0,0,0,-1,1462,645,0,0
245,379,0,0,0,0,0,0,0,0,0,-1,1469,645,0,0
252,379,0,0,0,0,0,0,0,0,0,-1,1476,645,0,0
259,379,0,0,0,0,0,0,0,0,0,-1,1483,645,0,0
266,379,0,0,0,0,0,0,0,0,0,-1,1490,645,0,0
273,379,0,0,0,0,0,0,0,0,0,-1,1497,645,0,0
280,379,0,0,0,0,0,0,0,0,0,-1,1504,645,0,0
287,379,0,0,0,0,0,0,0,0,0,-1,1511,645,0,0
294,379,0,0,0,0,0,0,0,0,0,-1,1518,645,0,0
301,379,0,0,0,0,0,0,0,0,0,-1,1525,645,0,0
308,379,0,0,0,0,0,0,0,0,0,-1,1532,645,0,0
315,379,0,0,0,0,0,0,0,0,0,-1,1539,645,0,0
322,379,0,0,0,0,0,0,0,0,0,-1,1546,645,0,0
329,379,0,0,0,0,0,0,0,0,0,-1,1553,645,0,0
336,379,0,0,0,0,0,0,0,0,0,-1,1560,645,0,0
343,379,0,0,0,0,0,0,0,0,0,-1,1567,645,0,0
350,379,0,0,0,0,0,0,0,0,0,-1,1574,645,0,0
357,379,0,0,0,0,0,0,0,0,0,-1,1581,645,0,0
364,379,0,0,0,0,0,0,0,0,0,-1,1588,645,0,0
371,379,0,0,0,0,0,0,0,0,0,-1,1595,645,0,0
378,379,0,0,0,0,0,0,0,0,0,-1,1602,645,0,0
385,379,0,0,0,0,0,0,0,0,0,-1,1609,645,0,0
392,379,0,0,0,0,0,0,0,0,0,-1,1616,645,0,0
399,379,0,0,0,0,0,0,0,0,0,-1,1623,645,0,0
406,379,0,0,0,0,0,0,0,0,0,-1,1630,645,0,0
413,379,0,0,0,0,0,0,0,0,0,-1,1637,645,0,0
420,379,0,0,0,0,0,0,0,0,0,-1,1644,645,0,0
427,379,0,0,0,0,0,0,0,0,0,-1,1651,645,0,0
434,379,0,0,0,0,0,0,0,0,0,-1,1658,645,0,0
441,379,0,0,0,0,0,0,0,0,0,-1,1665,645,0,0
448,379,0,0,0,0,0,0,0,0,0,-1,1672,645,0,0
455,379,0,0,0,0,0,0,0,0,0,-1,1679,645,0,0
462,379,0,0,0,0,0,0,0,0,0,-1,1686,645,0,0
469,379,0,0,0,0,0,0,0,0,0,-1,1693,645,0,0
476,379,11.1787,0.830383,0,0,0,0,0,0,0,-1,1700,645,11.1787,-0.830365
483,379,7.4231,1.54321,0,0,0,0,0,0,0,-1,1707,645,7.42314,-1.54324
490,379,8.52881,1.56677,0,0,0,0,0,0,0,-1,1714,645,8.52878,-1.56677
497,379,9.63599,1.49573,0,0,0,0,0,0,0,-1,1721,645,9.63604,-1.4957
504,379,10.0833,1.35229,0,0,0,0,0,0,0,-1,1728,645,10.0832,-1.35227
511,379,8.14343,1.59912,0,0,0,0,0,0,0,-1,1735,645,8.14347,-1.59912
518,379,12.7955,-0.324097,0,0,0,0,0,0,0,-1,1742,645,12.7955,0.324101
525,379,6.03711,1.10352,0,0,0,0,0,0,0,-1,1749,645,6.03711,-1.10351
532,379,8.70947,0.887817,0,0,0,0,0,0,0,-1,1756,645,8.70953,-0.887808
539,379,9.87097,0.111389,0,0,0,0,0,0,0,-1,1763,645,9.87095,-0.111395
546,379,8.42383,-0.730652,0,0,0,0,0,0,0,-1,1770,645,8.42378,0.730638
553,379,19.2905,-7.67834,0,0,0,0,0,0,0,-1,1777,645,19.2905,7.67837
560,379,22.5734,-10.4749,0,0,0,0,0,0,0,-1,1784,645,22.5734,10.4749
567,379,22.8127,-9.82758,0.00697401,-0.000717917,0.00113809,0.00713887,-0.000882773,0.143853,0.00507914,0.0490189,1791,645,22.8127,9.8276
574,379,23.0776,-9.2348,0.00520795,-0.000545277,0.000763237,0.00530748,-0.000644808,0.129675,0.00377168,0.0137943,1798,645,23.0777,9.2348
581,379,23.0669,-8.66553,0.00383838,-0.000160476,0.000592892,0.00392443,-0.000246529,0.144135,0.00270222,0.0149484,1805,645,23.0669,8.6655
588,379,23.0493,-8.02985,0.00292229,0.000304198,0.000617353,0.00306056,0.000165927,0.220338,0.00198738,0.0173874,1812,645,23.0493,8.02985
595,379,23.0061,-7.41693,0.00245824,0.000927169,0.000848891,0.0028358,0.000549612,0.418492,0.00173656,0.0143944,1819,645,23.0061,7.41692
602,379,22.9869,-6.82617,0.00236794,0.00164426,0.00127037,0.003327,0.0006852,0.646659,0.00202855,0.0152934,1826,645,22.9869,6.82616
609,379,22.9746,-6.22711,0.00250615,0.00245556,0.00178542,0.00426645,0.000695261,0.778314,0.00264321,0.0164849,1833,645,22.9746,6.22709
616,379,22.9272,-5.60791,0.00290644,0.00340865,0.00240948,0.00558008,0.000735009,0.837318,0.00350086,0.0131365,1840,645,22.9273,5.6079
623,379,22.8994,-4.94165,0.00362989,0.00438669,0.00321803,0.0072485,0.000768086,0.843924,0.00459774,0.0121719,1847,645,22.8995,4.94167
630,379,22.8866,-4.3186,0.00441355,0.00536582,0.00398488,0.00890291,0.000876455,0.844859,0.00566577,0.0136477,1854,645,22.8866,4.31861
637,379,22.9126,-3.59247,0.00516426,0.0065037,0.00480657,0.010687,0.000980975,0.85462,0.00682122,0.0438058,1861,645,22.9126,3.59247
644,379,23.1339,-2.74713,0,0,0,0,0,0,0,-1,1868,645,23.1339,2.74713
651,379,12.9515,0.220825,0,0,0,0,0,0,0,-1,1875,645,12.9515,-0.220814
658,379,13.7498,0.37439,0,0,0,0,0,0,0,-1,1882,645,13.7498,-0.374371
665,379,11.9719,0.353333,0,0,0,0,0,0,0,-1,1889,645,11.9719,-0.353321
672,379,7.57605,2.15326,0,0,0,0,0,0,0,-1,1896,645,7.57599,-2.15326
679,379,8.55078,2.50409,0,0,0,0,0,0,0,-1,1903,645,8.55073,-2.50406
686,379,0,0,0,0,0,0,0,0,0,-1,1910,645,0,0
693,379,0,0,0,0,0,0,0,0,0,-1,1917,645,0,0
700,379,0,0,0,0,0,0,0,0,0,-1,1924,645,0,0
707,379,0,0,0,0,0,0,0,0,0,-1,1931,645,0,0
714,379,0,0,0,0,0,0,0,0,0,-1,1938,645,0,0
721,379,0,0,0,0,0,0,0,0,0,-1,1945,645,0,0
728,379,0,0,0,0,0,0,0,0,0,-1,1952,645,0,0
735,379,0,0,0,0,0,0,0,0,0,-1,1959,645,0,0
742,379,0,0,0,0,0,0,0,0,0,-1,1966,645,0,0
749,379,0,0,0,0,0,0,0,0,0,-1,1973,645,0,0
756,379,0,0,0,0,0,0,0,0,0,-1,1980,645,0,0
763,379,0,0,0,0,0,0,0,0,0,-1,1987,645,0,0
770,379,0,0,0,0,0,0,0,0,0,-1,1994,645,0,0
777,379,0,0,0,0,0,0,0,0,0,-1,2001,645,0,0
784,379,0,0,0,0,0,0,0,0,0,-1,2008,645,0,0
791,379,0,0,0,0,0,0,0,0,0,-1,2015,645,0,0
798,379,0,0,0,0,0,0,0,0,0,-1,2022,645,0,0
805,379,0,0,0,0,0,0,0,0,0,-1,2029,645,0,0
812,379,0,0,0,0,0,0,0,0,0,-1,2036,645,0,0
-700,372,0,0,0,0,0,0,0,0,0,-1,524,652,0,0
-693,372,0,0,0,0,0,0,0,0,0,-1,531,652,0,0
-686,372,0,0,0,0,0,0,0,0,0,-1,538,652,0,0
-679,372,0,0,0,0,0,0,0,0,0,-1,545,652,0,0
-672,372,0,0,0,0,0,0,0,0,0,-1,552,652,0,0
-665,372,0,0,0,0,0,0,0,0,0,-1,559,652,0,0
-658,372,0,0,0,0,0,0,0,0,0,-1,566,652,0,0
-651,372,0,0,0,0,0,0,0,0,0,-1,573,652,0,0
-644,372,0,0,0,0,0,0,0,0,0,-1,580,652,0,0
-637,372,0,0,0,0,0,0,0,0,0,-1,587,652,0,0
-630,372,0,0,0,0,0,0,0,0,0,-1,594,652,0,0
-623,372,0,0,0,0,0,0,0,0,0,-1,601,652,0,0
-616,372,0,0,0,0,0,0,0,0,0,-1,608,652,0,0
-609,372,0,0,0,0,0,0,0,0,0,-1,615,652,0,0
-602,372,0,0,0,0,0,0,0,0,0,-1,622,652,0,0
-595,372,0,0,0,0,0,0,0,0,0,-1,629,652,0,0
-588,372,0,0,0,0,0,0,0,0,0,-1,636,652,0,0
-581,372,0,0,0,0,0,0,0,0,0,-1,643,652,0,0
-574,372,0,0,0,0,0,0,0,0,0,-1,650,652,0,0
-567,372,-7.93744,0.73407,0,0,0,0,0,0,0,-1,657,652,-7.93741,-0.734076
-560,372,-8.78552,-0.158203,0,0,0,0,0,0,0,-1,664,652,-8.78552,0.158216
-553,372,-7.95551,1.61694,0,0,0,0,0,0,0,-1,671,652,-7.95552,-1.61697
-546,372,-4.2403,-3.75372,0,0,0,0,0,0,0,-1,678,652,-4.24028,3.75369
-539,372,-7.92285,-0.0650024,0,0,0,0,0,0,0,-1,685,652,-7.92287,0.0649772
-532,372,-8.59589,-0.419556,0,0,0,0,0,0,0,-1,692,652,-8.59591,0.419539
-525,372,-8.03674,-1.36804,0,0,0,0,0,0,0,-1,699,652,-8.03676,1.36806
-518,372,-12.9089,-4.70984,0,0,0,0,0,0,0,-1,706,652,-12.9089,4.70986
-511,372,-12.878,-5.44214,0.00236179,0.00855498,-0.00451811,0.0109358,-1.90428e-05,-1.08582,0.0072969,0.0335931,713,652,-12.878,5.44214
-504,372,-12.9158,-5.99579,0.00182812,0.00666518,-0.00358192,0.00856862,-7.53165e-05,-1.08234,0.00573768,0.0159949,720,652,-12.9158,5.99576
-497,372,-12.9068,-6.59137,0.00153589,0.00496225,-0.0027553,0.00649355,4.5877e-06,-1.06354,0.00432751,0.0119513,727,652,-12.9068,6.59137
-490,372,-12.9297,-7.18164,0.00142086,0.00357756,-0.00213379,0.00489,0.000108416,-1.01936,0.00322447,0.0132365,734,652,-12.9297,7.18166
-483,372,-12.9397,-7.79132,0.00144414,0.00242555,-0.0016411,0.00364774,0.000221948,-0.930673,0.00236133,0.0137135,741,652,-12.9397,7.79129
-476,372,-12.9638,-8.36469,0.00163053,0.00154002,-0.0013172,0.00290325,0.000267301,-0.768225,0.00185284,0.0140692,748,652,-12.9638,8.36466
-469,372,-13.0096,-8.93109,0.00190589,0.000868669,-0.00111134,0.00261368,0.000160888,-0.56709,0.00169137,0.010543,755,652,-13.0096,8.93109
-462,372,-13.0247,-9.53461,0.00222094,0.000400633,-0.00101191,0.00267179,-5.02215e-05,-0.419145,0.00179817,0.0095215,762,652,-13.0247,9.5346
-455,372,-13.0379,-10.1235,0.00263234,-7.7816e-05,-0.000991549,0.00295637,-0.000401846,-0.315852,0.00211761,0.0099384,769,652,-13.0379,10.1235
-448,372,-13.0313,-10.7141,0.00315402,-5.42014e-05,-0.00119937,0.00355282,-0.000453005,-0.32101,0.00253309,0.0122639,776,652,-13.0312,10.7141
-441,372,-12.9814,-11.3905,0,0,0,0,0,0,0,-1,783,652,-12.9814,11.3905
-434,372,-9.86865,-9.68494,0,0,0,0,0,0,0,-1,790,652,-9.86863,9.68492
-427,372,-4.54248,-3.56268,0,0,0,0,0,0,0,-1,797,652,-4.54247,3.56266
-420,372,-4.66168,-2.93597,0,0,0,0,0,0,0,-1,804,652,-4.66166,2.93599
-413,372,-4.74762,-3.29541,0,0,0,0,0,0,0,-1,811,652,-4.74763,3.29542
-406,372,-0.885437,-0.583923,0,0,0,0,0,0,0,-1,818,652,-0.885437,0.5839
-399,372,-3.97357,-0.825012,0,0,0,0,0,0,0,-1,825,652,-3.97359,0.825037
-392,372,-7.64337,0.173035,0,0,0,0,0,0,0,-1,832,652,-7.64337,-0.173019
-385,372,-6.48871,-0.0271606,0,0,0,0,0,0,0,-1,839,652,-6.48874,0.0271353
-378,372,-5.33044,-0.242432,0,0,0,0,0,0,0,-1,846,652,-5.33042,0.242457
-371,372,-4.40802,-0.495667,0,0,0,0,0,0,0,-1,853,652,-4.40802,0.495661
-364,372,0,0,0,0,0,0,0,0,0,-1,860,652,0,0
-357,372,0,0,0,0,0,0,0,0,0,-1,867,652,0,0
-350,372,0,0,0,0,0,0,0,0,0,-1,874,652,0,0
-343,372,0,0,0,0,0,0,0,0,0,-1,881,652,0,0
-336,372,0,0,0,0,0,0,0,0,0,-1,888,652,0,0
-329,372,0,0,0,0,0,0,0,0,0,-1,895,652,0,0
-322,372,0,0,0,0,0,0,0,0,0,-1,902,652,0,0
-315,372,0,0,0,0,0,0,0,0,0,-1,909,652,0,0
-308,372,0,0,0,0,0,0,0,0,0,-1,916,652,0,0
-301,372,0,0,0,0,0,0,0,0,0,-1,923,652,0,0
-294,372,0,0,0,0,0,0,0,0,0,-1,930,652,0,0
-287,372,0,0,0,0,0,0,0,0,0,-1,937,652,0,0
-280,372,0,0,0,0,0,0,0,0,0,-1,944,652,0,0
-273,372,0,0,0,0,0,0,0,0,0,-1,951,652,0,0
-266,372,0,0,0,0,0,0,0,0,0,-1,958,652,0,0
-259,372,0,0,0,0,0,0,0,0,0,-1,965,652,0,0
-252,372,0,0,0,0,0,0,0,0,0,-1,972,652,0,0
-245,372,0,0,0,0,0,0,0,0,0,-1,979,652,0,0
-238,372,0,0,0,0,0,0,0,0,0,-1,986,652,0,0
-231,372,0,0,0,0,0,0,0,0,0,-1,993,652,0,0
-224,372,0,0,0,0,0,0,0,0,0,-1,1000,652,0,0
-217,372,0,0,0,0,0,0,0,0,0,-1,1007,652,0,0
-210,372,0,0,0,0,0,0,0,0,0,-1,1014,652,0,0
-203,372,0,0,0,0,0,0,0,0,0,-1,1021,652,0,0
-196,372,0,0,0,0,0,0,0,0,0,-1,1028,652,0,0
-189,372,0,0,0,0,0,0,0,0,0,-1,1035,652,0,0
-182,372,0,0,0,0,0,0,0,0,0,-1,1042,652,0,0
-175,372,0,0,0,0,0,0,0,0,0,-1,1049,652,0,0
-168,372,0,0,0,0,0,0,0,0,0,-1,1056,652,0,0
-161,372,0,0,0,0,0,0,0,0,0,-1,1063,652,0,0
-154,372,0,0,0,0,0,0,0,0,0,-1,1070,652,0,0
-147,372,0,0,0,0,0,0,0,0,0,-1,1077,652,0,0
-140,372,0,0,0,0,0,0,0,0,0,-1,1084,652,0,0
-133,372,0,0,0,0,0,0,0,0,0,-1,1091,652,0,0
-126,372,0,0,0,0,0,0,0,0,0,-1,1098,652,0,0
-119,372,0,0,0,0,0,0,0,0,0,-1,1105,652,0,0
-112,372,0,0,0,0,0,0,0,0,0,-1,1112,652,0,0
-105,372,0,0,0,0,0,0,0,0,0,-1,1119,652,0,0
-98,372,0,0,0,0,0,0,0,0,0,-1,1126,652,0,0
-91,372,0,0,0,0,0,0,0,0,0,-1,1133,652,0,0
-84,372,0,0,0,0,0,0,0,0,0,-1,1140,652,0,0
-77,372,0,0,0,0,0,0,0,0,0,-1,1147,652,0,0
-70,372,0,0,0,0,0,0,0,0,0,-1,1154,652,0,0
-63,372,0,0,0,0,0,0,0,0,0,-1,1161,652,0,0
-56,372,0,0,0,0,0,0,0,0,0,-1,1168,652,0,0
-49,372,0,0,0,0,0,0,0,0,0,-1,1175,652,0,0
-42,372,0,0,0,0,0,0,0,0,0,-1,1182,652,0,0
-35,372,0,0,0,0,0,0,0,0,0,-1,1189,652,0,0
-28,372,0,0,0,0,0,0,0,0,0,-1,1196,652,0,0
-21,372,0,0,0,0,0,0,0,0,0,-1,1203,652,0,0
-14,372,0,0,0,0,0,0,0,0,0,-1,1210,652,0,0
-7,372,0,0,0,0,0,0,0,0,0,-1,1217,652,0,0
0,372,0,0,0,0,0,0,0,0,0,-1,1224,652,0,0
7,372,0,0,0,0,0,0,0,0,0,-1,1231,652,0,0
14,372,0,0,0,0,0,0,0,0,0,-1,1238,652,0,0
21,372,0,0,0,0,0,0,0,0,0,-1,1245,652,0,0
28,372,0,0,0,0,0,0,0,0,0,-1,1252,652,0,0
35,372,0,0,0,0,0,0,0,0,0,-1,1259,652,0,0
42,372,0,0,0,0,0,0,0,0,0,-1,1266,652,0,0
49,372,0,0,0,0,0,0,0,0,0,-1,1273,652,0,0
56,372,0,0,0,0,0,0,0,0,0,-1,1280,652,0,0
63,372,0,0,0,0,0,0,0,0,0,-1,1287,652,0,0
70,372,0,0,0,0,0,0,0,0,0,-1,1294,652,0,0
77,372,0,0,0,0,0,0,0,0,0,-1,1301,652,0,0
84,372,0,0,0,0,0,0,0,0,0,-1,1308,652,0,0
91,372,0,0,0,0,0,0,0,0,0,-1,1315,652,0,0
98,372,0,0,0,0,0,0,0,0,0,-1,1322,652,0,0
105,372,0,0,0,0,0,0,0,0,0,-1,1329,652,0,0
112,372,0,0,0,0,0,0,0,0,0,-1,1336,652,0,0
119,372,0,0,0,0,0,0,0,0,0,-1,1343,652,0,0
126,372,0,0,0,0,0,0,0,0,0,-1,1350,652,0,0
133,372,0,0,0,0,0,0,0,0,0,-1,1357,652,0,0
140,372,0,0,0,0,0,0,0,0,0,-1,1364,652,0,0
147,372,0,0,0,0,0,0,0,0,0,-1,1371,652,0,0
154,372,0,0,0,0,0,0,0,0,0,-1,1378,652,0,0
161,372,0,0,0,0,0,0,0,0,0,-1,1385,652,0,0
168,372,0,0,0,0,0,0,0,0,0,-1,1392,652,0,0
175,372,0,0,0,0,0,0,0,0,0,-1,1399,652,0,0
182,372,0,0,0,0,0,0,0,0,0,-1,1406,652,0,0
189,372,0,0,0,0,0,0,0,0,0,-1,1413,652,0,0
196,372,0,0,0,0,0,0,0,0,0,-1,1420,652,0,0
203,372,0,0,0,0,0,0,0,0,0,-1,1427,652,0,0
210,372,0,0,0,0,0,0,0,0,0,-1,1434,652,0,0
217,372,0,0,0,0,0,0,0,0,0,-1,1441,652,0,0
224,372,0,0,0,0,0,0,0,0,0,-1,1448,652,0,0
231,372,0,0,0,0,0,0,0,0,0,-1,1455,652,0,0
238,372,0,0,0,0,0,0,0,0,0,-1,1462,652,0,0
245,372,0,0,0,0,0,0,0,0,0,-1,1469,652,0,0
252,372,0,0,0,0,0,0,0,0,0,-1,1476,652,0,0
259,372,0,0,0,0,0,0,0,0,0,-1,1483,652,0,0
266,372,0,0,0,0,0,0,0,0,0,-1,1490,652,0,0
273,372,0,0,0,0,0,0,0,0,0,-1,1497,652,0,0
280,372,0,0,0,0,0,0,0,0,0,-1,1504,652,0,0
287,372,0,0,0,0,0,0,0,0,0,-1,1511,652,0,0
294,372,0,0,0,0,0,0,0,0,0,-1,1518,652,0,0
301,372,0,0,0,0,0,0,0,0,0,-1,1525,652,0,0
308,372,0,0,0,0,0,0,0,0,0,-1,1532,652,0,0
315,372,0,0,0,0,0,0,0,0,0,-1,1539,652,0,0
322,372,0,0,0,0,0,0,0,0,0,-1,1546,652,0,0
329,372,0,0,0,0,0,0,0,0,0,-1,1553,652,0,0
336,372,0,0,0,0,0,0,0,0,0,-1,1560,652,0,0
343,372,0,0,0,0,0,0,0,0,0,-1,1567,652,0,0
350,372,0,0,0,0,0,0,0,0,0,-1,1574,652,0,0
357,372,0,0,0,0,0,0,0,0,0,-1,1581,652,0,0
364,372,0,0,0,0,0,0,0,0,0,-1,1588,652,0,0
371,372,0,0,0,0,0,0,0,0,0,-1,1595,652,0,0
378,372,0,0,0,0,0,0,0,0,0,-1,1602,652,0,0
385,372,0,0,0,0,0,0,0,0,0,-1,1609,652,0,0
392,372,0,0,0,0,0,0,0,0,0,-1,1616,652,0,0
399,372,0,0,0,0,0,0,0,0,0,-1,1623,652,0,0
406,372,0,0,0,0,0,0,0,0,0,-1,1630,652,0,0
413,372,0,0,0,0,0,0,0,0,0,-1,1637,652,0,0
420,372,0,0,0,0,0,0,0,0,0,-1,1644,652,0,0
427,372,0,0,0,0,0,0,0,0,0,-1,1651,652,0,0
434,372,0,0,0,0,0,0,0,0,0,-1,1658,652,0,0
441,372,0,0,0,0,0,0,0,0,0,-1,1665,652,0,0
448,372,0,0,0,0,0,0,0,0,0,-1,1672,652,0,0
455,372,0,0,0,0,0,0,0,0,0,-1,1679,652,0,0
462,372,0,0,0,0,0,0,0,0,0,-1,1686,652,0,0
469,372,0,0,0,0,0,0,0,0,0,-1,1693,652,0,0
476,372,0,0,0,0,0,0,0,0,0,-1,1700,652,0,0
483,372,8.74182,1.53125,0,0,0,0,0,0,0,-1,1707,652,8.74186,-1.53126
490,372,9.78455,1.67096,0,0,0,0,0,0,0,-1,1714,652,9.7846,-1.67093
497,372,9.97644,1.46069,0,0,0,0,0,0,0,-1,1721,652,9.97647,-1.46071
504,372,10.1216,1.28375,0,0,0,0,0,0,0,-1,1728,652,10.1216,-1.28376
511,372,11.7367,-0.0272217,0,0,0,0,0,0,0,-1,1735,652,11.7367,0.0272326
518,372,12.0657,-0.0995483,0,0,0,0,0,0,0,-1,1742,652,12.0657,0.0995285
525,372,12.3947,-0.171814,0,0,0,0,0,0,0,-1,1749,652,12.3946,0.171824
532,372,9.36597,1.72034,0,0,0,0,0,0,0,-1,1756,652,9.36597,-1.72036
539,372,7.82886,-0.0865479,0,0,0,0,0,0,0,-1,1763,652,7.82882,0.0865771
546,372,10.953,-0.187195,0,0,0,0,0,0,0,-1,1770,652,10.953,0.187181
553,372,14.1201,-4.83234,0,0,0,0,0,0,0,-1,1777,652,14.1201,4.83235
560,372,20.1057,-8.06934,0,0,0,0,0,0,0,-1,1784,652,20.1058,8.06936
567,372,23.2203,-9.78046,0,0,0,0,0,0,0,-1,1791,652,23.2203,9.78047
574,372,23.7135,-9.13489,0.00591575,-0.00085886,0.00074866,0.00599749,-0.000940608,0.108761,0.00434593,0.0364455,1798,652,23.7136,9.1349
581,372,23.6914,-8.63727,0.0042448,-0.000501117,0.000477031,0.00429227,-0.00054859,0.099192,0.00306081,0.0203333,1805,652,23.6915,8.63725
588,372,23.6571,-8.01697,0.00313489,-0.000111657,0.000441777,0.00319393,-0.000170698,0.132858,0.00218841,0.0164097,1812,652,23.6571,8.01697
595,372,23.6213,-7.39752,0.00252161,0.000451941,0.000596971,0.00268146,0.000292097,0.261621,0.00169866,0.0145321,1819,652,23.6213,7.39753
602,372,23.6353,-6.80328,0.00230235,0.00108384,0.000929802,0.00280473,0.000581464,0.495368,0.00170929,0.015553,1826,652,23.6353,6.80326
609,372,23.588,-6.1969,0.0023237,0.00178119,0.00135893,0.00343818,0.00066671,0.686889,0.00210537,0.0163308,1833,652,23.588,6.19693
616,372,23.5481,-5.56628,0.00258881,0.00257522,0.00187447,0.00445649,0.000707537,0.783585,0.00276549,0.015543,1840,652,23.5481,5.56625
623,372,23.5305,-4.91058,0.00303498,0.00338883,0.00250521,0.00572335,0.000700457,0.82065,0.00360484,0.0134137,1847,652,23.5305,4.9106
630,372,23.5159,-4.29218,0.00349734,0.00416387,0.00309643,0.00694492,0.000716295,0.839006,0.00441061,0.0171674,1854,652,23.5158,4.29215
637,372,23.5366,-3.70129,0.00395665,0.00501863,0.0037068,0.00823228,0.000743004,0.856538,0.00525805,0.0272177,1861,652,23.5366,3.70127
644,372,23.7189,-3.06091,0,0,0,0,0,0,0,-1,1868,652,23.7189,3.06093
651,372,21.3998,-0.888,0,0,0,0,0,0,0,-1,1875,652,21.3998,0.887992
658,372,14.157,0.280273,0,0,0,0,0,0,0,-1,1882,652,14.157,-0.280264
665,372,15.2286,0.463867,0,0,0,0,0,0,0,-1,1889,652,15.2287,-0.463854
672,372,9.34106,1.48444,0,0,0,0,0,0,0,-1,1896,652,9.34109,-1.48444
679,372,10.7308,2.32391,0,0,0,0,0,0,0,-1,1903,652,10.7309,-2.3239
686,372,11.6295,2.52997,0,0,0,0,0,0,0,-1,1910,652,11.6296,-2.52996
693,372,0,0,0,0,0,0,0,0,0,-1,1917,652,0,0
700,372,0,0,0,0,0,0,0,0,0,-1,1924,652,0,0
707,372,0,0,0,0,0,0,0,0,0,-1,1931,652,0,0
714,372,0,0,0,0,0,0,0,0,0,-1,1938,652,0,0
721,372,0,0,0,0,0,0,0,0,0,-1,1945,652,0,0
728,372,0,0,0,0,0,0,0,0,0,-1,1952,652,0,0
735,372,0,0,0,0,0,0,0,0,0,-1,1959,652,0,0
742,372,0,0,0,0,0,0,0,0,0,-1,1966,652,0,0
749,372,0,0,0,0,0,0,0,0,0,-1,1973,652,0,0
756,372,0,0,0,0,0,0,0,0,0,-1,1980,652,0,0
763,372,0,0,0,0,0,0,0,0,0,-1,1987,652,0,0
770,372,0,0,0,0,0,0,0,0,0,-1,1994,652,0,0
777,372,0,0,0,0,0,0,0,0,0,-1,2001,652,0,0
784,372,0,0,0,0,0,0,0,0,0,-1,2008,652,0,0
791,372,0,0,0,0,0,0,0,0,0,-1,2015,652,0,0
798,372,0,0,0,0,0,0,0,0,0,-1,2022,652,0,0
805,372,0,0,0,0,0,0,0,0,0,-1,2029,652,0,0
812,372,0,0,0,0,0,0,0,0,0,-1,2036,652,0,0
-700,365,0,0,0,0,0,0,0,0,0,-1,524,659,0,0
-693,365,0,0,0,0,0,0,0,0,0,-1,531,659,0,0
-686,365,0,0,0,0,0,0,0,0,0,-1,538,659,0,0
-679,365,0,0,0,0,0,0,0,0,0,-1,545,659,0,0
-672,365,0,0,0,0,0,0,0,0,0,-1,552,659,0,0
-665,365,0,0,0,0,0,0,0,0,0,-1,559,659,0,0
-658,365,0,0,0,0,0,0,0,0,0,-1,566,659,0,0
-651,365,0,0,0,0,0,0,0,0,0,-1,573,659,0,0
-644,365,0,0,0,0,0,0,0,0,0,-1,580,659,0,0
-637,365,0,0,0,0,0,0,0,0,0,-1,587,659,0,0
-630,365,0,0,0,0,0,0,0,0,0,-1,594,659,0,0
-623,365,0,0,0,0,0,0,0,0,0,-1,601,659,0,0
-616,365,0,0,0,0,0,0,0,0,0,-1,608,659,0,0
-609,365,0,0,0,0,0,0,0,0,0,-1,615,659,0,0
-602,365,0,0,0,0,0,0,0,0,0,-1,622,659,0,0
-595,365,0,0,0,0,0,0,0,0,0,-1,629,659,0,0
-588,365,0,0,0,0,0,0,0,0,0,-1,636,659,0,0
-581,365,0,0,0,0,0,0,0,0,0,-1,643,659,0,0
-574,365,-7.69281,1.59015,0,0,0,0,0,0,0,-1,650,659,-7.69282,-1.59018
-567,365,-8.2583,1.72638,0,0,0,0,0,0,0,-1,657,659,-8.25827,-1.72637
-560,365,-7.17767,0.275757,0,0,0,0,0,0,0,-1,664,659,-7.17768,-0.27577
-553,365,-10.0349,-0.169617,0,0,0,0,0,0,0,-1,671,659,-10.0349,0.169593
-546,365,-10.6303,-1.51642,0,0,0,0,0,0,0,-1,678,659,-10.6303,1.5164
-539,365,-8.38599,1.52936,0,0,0,0,0,0,0,-1,685,659,-8.38598,-1.52935
-532,365,-8.52863,0.166504,0,0,0,0,0,0,0,-1,692,659,-8.52863,-0.166501
-525,365,-9.28229,-2.62726,0,0,0,0,0,0,0,-1,699,659,-9.28227,2.62724
-518,365,-13.5028,-4.62445,0,0,0,0,0,0,0,-1,706,659,-13.5028,4.62442
-511,365,-13.5029,-5.34479,0.00250152,0.006474,-0.00353287,0.0085407,0.000434824,-1.04149,0.00555453,0.0331777,713,659,-13.5029,5.3448
-504,365,-13.4822,-5.98364,0.00201006,0.0050105,-0.00285456,0.00673505,0.000285497,-1.02734,0.00439796,0.0128391,720,659,-13.4822,5.98363
-497,365,-13.4853,-6.58264,0.00174512,0.00368712,-0.00224395,0.00516115,0.000271093,-0.989593,0.00335406,0.0132616,727,659,-13.4853,6.58266
-490,365,-13.5238,-7.17676,0.00161891,0.00260344,-0.00177692,0.00395503,0.000267323,-0.920526,0.00255225,0.0144854,734,659,-13.5238,7.17675
-483,365,-13.557,-7.76801,0.00165515,0.0016973,-0.0014008,0.00307719,0.000275264,-0.79292,0.00196614,0.0133785,741,659,-13.557,7.76801
-476,365,-13.5264,-8.35059,0.00185245,0.00102481,-0.00116509,0.00267503,0.000202225,-0.614756,0.00171991,0.0159867,748,659,-13.5264,8.35058
-469,365,-13.5539,-8.9303,0.0021454,0.00055183,-0.00103551,0.0026552,4.20356e-05,-0.457478,0.00175629,0.0158496,755,659,-13.5539,8.93032
-462,365,-13.6085,-9.49646,0.00250696,0.000279361,-0.00101064,0.00289714,-0.000110815,-0.368439,0.0019694,0.0140919,762,659,-13.6085,9.49649
-455,365,-13.6205,-10.0795,0.00298953,-3.96704e-05,-0.00105943,0.00332328,-0.00037342,-0.305187,0.00234991,0.0154722,769,659,-13.6205,10.0795
-448,365,-13.5421,-10.7829,0.00356406,0.000357201,-0.00140206,0.0040906,-0.000169339,-0.359249,0.00278523,0.0376105,776,659,-13.5421,10.7829
-441,365,-13.3094,-11.5841,0,0,0,0,0,0,0,-1,783,659,-13.3094,11.5841
-434,365,-5.45056,-3.98041,0,0,0,0,0,0,0,-1,790,659,-5.45055,3.98042
-427,365,-5.05377,-4.74689,0,0,0,0,0,0,0,-1,797,659,-5.05376,4.7469
-420,365,-4.58813,-3.16376,0,0,0,0,0,0,0,-1,804,659,-4.58816,3.16374
-413,365,0.141357,0.672729,0,0,0,0,0,0,0,-1,811,659,0.141365,-0.672714
-406,365,-1.75067,-0.934448,0,0,0,0,0,0,0,-1,818,659,-1.7507,0.934424
-399,365,-4.10242,-1.25439,0,0,0,0,0,0,0,-1,825,659,-4.10244,1.25438
-392,365,-7.46545,-0.779724,0,0,0,0,0,0,0,-1,832,659,-7.46543,0.779744
-385,365,-6.27875,-0.887573,0,0,0,0,0,0,0,-1,839,659,-6.27874,0.887545
-378,365,-5.34503,-0.263306,0,0,0,0,0,0,0,-1,846,659,-5.34504,0.263275
-371,365,0,0,0,0,0,0,0,0,0,-1,853,659,0,0
-364,365,0,0,0,0,0,0,0,0,0,-1,860,659,0,0
-357,365,0,0,0,0,0,0,0,0,0,-1,867,659,0,0
-350,365,0,0,0,0,0,0,0,0,0,-1,874,659,0,0
-343,365,0,0,0,0,0,0,0,0,0,-1,881,659,0,0
-336,365,0,0,0,0,0,0,0,0,0,-1,888,659,0,0
-329,365,0,0,0,0,0,0,0,0,0,-1,895,659,0,0
-322,365,0,0,0,0,0,0,0,0,0,-1,902,659,0,0
-315,365,0,0,0,0,0,0,0,0,0,-1,909,659,0,0
-308,365,0,0,0,0,0,0,0,0,0,-1,916,659,0,0
-301,365,0,0,0,0,0,0,0,0,0,-1,923,659,0,0
-294,365,0,0,0,0,0,0,0,0,0,-1,930,659,0,0
-287,365,0,0,0,0,0,0,0,0,0,-1,937,659,0,0
-280,365,0,0,0,0,0,0,0,0,0,-1,944,659,0,0
-273,365,0,0,0,0,0,0,0,0,0,-1,951,659,0,0
-266,365,0,0,0,0,0,0,0,0,0,-1,958,659,0,0
-259,365,0,0,0,0,0,0,0,0,0,-1,965,659,0,0
-252,365,0,0,0,0,0,0,0,0,0,-1,972,659,0,0
-245,365,0,0,0,0,0,0,0,0,0,-1,979,659,0,0
-238,365,0,0,0,0,0,0,0,0,0,-1,986,659,0,0
-231,365,0,0,0,0,0,0,0,0,0,-1,993,659,0,0
-224,365,0,0,0,0,0,0,0,0,0,-1,1000,659,0,0
-217,365,0,0,0,0,0,0,0,0,0,-1,1007,659,0,0
-210,365,0,0,0,0,0,0,0,0,0,-1,1014,659,0,0
-203,365,0,0,0,0,0,0,0,0,0,-1,1021,659,0,0
-196,365,0,0,0,0,0,0,0,0,0,-1,1028,659,0,0
-189,365,0,0,0,0,0,0,0,0,0,-1,1035,659,0,0
-182,365,0,0,0,0,0,0,0,0,0,-1,1042,659,0,0
-175,365,0,0,0,0,0,0,0,0,0,-1,1049,659,0,0
-168,365,0,0,0,0,0,0,0,0,0,-1,1056,659,0,0
-161,365,0,0,0,0,0,0,0,0,0,-1,1063,659,0,0
-154,365,0,0,0,0,0,0,0,0,0,-1,1070,659,0,0
-147,365,0,0,0,0,0,0,0,0,0,-1,1077,659,0,0
-140,365,0,0,0,0,0,0,0,0,0,-1,1084,659,0,0
-133,365,0,0,0,0,0,0,0,0,0,-1,1091,659,0,0
-126,365,0,0,0,0,0,0,0,0,0,-1,1098,659,0,0
-119,365,0,0,0,0,0,0,0,0,0,-1,1105,659,0,0
-112,365,0,0,0,0,0,0,0,0,0,-1,1112,659,0,0
-105,365,0,0,0,0,0,0,0,0,0,-1,1119,659,0,0
-98,365,0,0,0,0,0,0,0,0,0,-1,1126,659,0,0
-91,365,0,0,0,0,0,0,0,0,0,-1,1133,659,0,0
-84,365,0,0,0,0,0,0,0,0,0,-1,1140,659,0,0
-77,365,0,0,0,0,0,0,0,0,0,-1,1147,659,0,0
-70,365,0,0,0,0,0,0,0,0,0,-1,1154,659,0,0
-63,365,0,0,0,0,0,0,0,0,0,-1,1161,659,0,0
-56,365,0,0,0,0,0,0,0,0,0,-1,1168,659,0,0
-49,365,0,0,0,0,0,0,0,0,0,-1,1175,659,0,0
-42,365,0,0,0,0,0,0,0,0,0,-1,1182,659,0,0
-35,365,0,0,0,0,0,0,0,0,0,-1,1189,659,0,0
-28,365,0,0,0,0,0,0,0,0,0,-1,1196,659,0,0
-21,365,0,0,0,0,0,0,0,0,0,-1,1203,659,0,0
-14,365,0,0,0,0,0,0,0,0,0,-1,1210,659,0,0
-7,365,0,0,0,0,0,0,0,0,0,-1,1217,659,0,0
0,365,0,0,0,0,0,0,0,0,0,-1,1224,659,0,0
7,365,0,0,0,0,0,0,0,0,0,-1,1231,659,0,0
14,365,0,0,0,0,0,0,0,0,0,-1,1238,659,0,0
21,365,0,0,0,0,0,0,0,0,0,-1,1245,659,0,0
28,365,0,0,0,0,0,0,0,0,0,-1,1252,659,0,0
35,365,0,0,0,0,0,0,0,0,0,-1,1259,659,0,0
42,365,0,0,0,0,0,0,0,0,0,-1,1266,659,0,0
49,365,0,0,0,0,0,0,0,0,0,-1,1273,659,0,0
56,365,0,0,0,0,0,0,0,0,0,-1,1280,659,0,0
63,365,0,0,0,0,0,0,0,0,0,-1,1287,659,0,0
70,365,0,0,0,0,0,0,0,0,0,-1,1294,659,0,0
77,365,0,0,0,0,0,0,0,0,0,-1,1301,659,0,0
84,365,0,0,0,0,0,0,0,0,0,-1,1308,659,0,0
91,365,0,0,0,0,0,0,0,0,0,-1,1315,659,0,0
98,365,0,0,0,0,0,0,0,0,0,-1,1322,659,0,0
105,365,0,0,0,0,0,0,0,0,0,-1,1329,659,0,0
112,365,0,0,0,0,0,0,0,0,0,-1,1336,659,0,0
119,365,0,0,0,0,0,0,0,0,0,-1,1343,659,0,0
126,365,0,0,0,0,0,0,0,0,0,-1,1350,659,0,0
133,365,0,0,0,0,0,0,0,0,0,-1,1357,659,0,0
140,365,0,0,0,0,0,0,0,0,0,-1,1364,659,0,0
147,365,0,0,0,0,0,0,0,0,0,-1,1371,659,0,0
154,365,0,0,0,0,0,0,0,0,0,-1,1378,659,0,0
161,365,0,0,0,0,0,0,0,0,0,-1,1385,659,0,0
168,365,0,0,0,0,0,0,0,0,0,-1,1392,659,0,0
175,365,0,0,0,0,0,0,0,0,0,-1,1399,659,0,0
182,365,0,0,0,0,0,0,0,0,0,-1,1406,659,0,0
189,365,0,0,0,0,0,0,0,0,0,-1,1413,659,0,0
196,365,0,0,0,0,0,0,0,0,0,-1,1420,659,0,0
203,365,0,0,0,0,0,0,0,0,0,-1,1427,659,0,0
210,365,0,0,0,0,0,0,0,0,0,-1,1434,659,0,0
217,365,0,0,0,0,0,0,0,0,0,-1,1441,659,0,0
224,365,0,0,0,0,0,0,0,0,0,-1,1448,659,0,0
231,365,0,0,0,0,0,0,0,0,0,-1,1455,659,0,0
238,365,0,0,0,0,0,0,0,0,0,-1,1462,659,0,0
245,365,0,0,0,0,0,0,0,0,0,-1,1469,659,0,0
252,365,0,0,0,0,0,0,0,0,0,-1,1476,659,0,0
259,365,0,0,0,0,0,0,0,0,0,-1,1483,659,0,0
266,365,0,0,0,0,0,0,0,0,0,-1,1490,659,0,0
273,365,0,0,0,0,0,0,0,0,0,-1,1497,659,0,0
280,365,0,0,0,0,0,0,0,0,0,-1,1504,659,0,0
287,365,0,0,0,0,0,0,0,0,0,-1,1511,659,0,0
294,365,0,0,0,0,0,0,0,0,0,-1,1518,659,0,0
301,365,0,0,0,0,0,0,0,0,0,-1,1525,659,0,0
308,365,0,0,0,0,0,0,0,0,0,-1,1532,659,0,0
315,365,0,0,0,0,0,0,0,0,0,-1,1539,659,0,0
322,365,0,0,0,0,0,0,0,0,0,-1,1546,659,0,0
329,365,0,0,0,0,0,0,0,0,0,-1,1553,659,0,0
336,365,0,0,0,0,0,0,0,0,0,-1,1560,659,0,0
343,365,0,0,0,0,0,0,0,0,0,-1,1567,659,0,0
350,365,0,0,0,0,0,0,0,0,0,-1,1574,659,0,0
357,365,0,0,0,0,0,0,0,0,0,-1,1581,659,0,0
364,365,0,0,0,0,0,0,0,0,0,-1,1588,659,0,0
371,365,0,0,0,0,0,0,0,0,0,-1,1595,659,0,0
378,365,0,0,0,0,0,0,0,0,0,-1,1602,659,0,0
385,365,0,0,0,0,0,0,0,0,0,-1,1609,659,0,0
392,365,0,0,0,0,0,0,0,0,0,-1,1616,659,0,0
399,365,0,0,0,0,0,0,0,0,0,-1,1623,659,0,0
406,365,0,0,0,0,0,0,0,0,0,-1,1630,659,0,0
413,365,0,0,0,0,0,0,0,0,0,-1,1637,659,0,0
420,365,0,0,0,0,0,0,0,0,0,-1,1644,659,0,0
427,365,0,0,0,0,0,0,0,0,0,-1,1651,659,0,0
434,365,0,0,0,0,0,0,0,0,0,-1,1658,659,0,0
441,365,0,0,0,0,0,0,0,0,0,-1,1665,659,0,0
448,365,0,0,0,0,0,0,0,0,0,-1,1672,659,0,0
455,365,0,0,0,0,0,0,0,0,0,-1,1679,659,0,0
462,365,0,0,0,0,0,0,0,0,0,-1,1686,659,0,0
469,365,0,0,0,0,0,0,0,0,0,-1,1693,659,0,0
476,365,0,0,0,0,0,0,0,0,0,-1,1700,659,0,0
483,365,0,0,0,0,0,0,0,0,0,-1,1707,659,0,0
490,365,8.39551,0.471252,0,0,0,0,0,0,0,-1,1714,659,8.39551,-0.471241
497,365,9.89233,1.35394,0,0,0,0,0,0,0,-1,1721,659,9.89237,-1.35396
504,365,10.1414,1.18005,0,0,0,0,0,0,0,-1,1728,659,10.1413,-1.18004
511,365,10.5151,0.993896,0,0,0,0,0,0,0,-1,1735,659,10.5152,-0.993894
518,365,11.2029,0.398132,0,0,0,0,0,0,0,-1,1742,659,11.2029,-0.398136
525,365,15.5748,3.85303,0,0,0,0,0,0,0,-1,1749,659,15.5748,-3.85303
532,365,11.2446,1.00629,0,0,0,0,0,0,0,-1,1756,659,11.2446,-1.00631
539,365,12.6301,1.03204,0,0,0,0,0,0,0,-1,1763,659,12.6302,-1.03204
546,365,11.647,0.84198,0,0,0,0,0,0,0,-1,1770,659,11.6469,-0.841955
553,365,12.028,-0.558899,0,0,0,0,0,0,0,-1,1777,659,12.028,0.558873
560,365,14.5372,-4.55548,0,0,0,0,0,0,0,-1,1784,659,14.5373,4.55547
567,365,20.5676,-7.53888,0,0,0,0,0,0,0,-1,1791,659,20.5676,7.53887
574,365,24.5223,-9.06024,0,0,0,0,0,0,0,-1,1798,659,24.5223,9.06024
581,365,24.2069,-8.73029,0,0,0,0,0,0,0,-1,1805,659,24.2069,8.73027
588,365,24.2395,-8.04779,0.00335812,-0.000453261,0.000317302,0.00338435,-0.000479496,0.0824943,0.00243188,0.0233743,1812,659,24.2395,8.0478
595,365,24.2372,-7.38373,0.00256922,6.31515e-05,0.000396901,0.00263058,1.79431e-06,0.153377,0.00175312,0.0134682,1819,659,24.2371,7.38372
602,365,24.2145,-6.74841,0.00219442,0.000611235,0.00062859,0.00241364,0.000392013,0.335562,0.00149564,0.015433,1826,659,24.2145,6.74843
609,365,24.1461,-6.13483,0.00210191,0.00120013,0.000979328,0.00272916,0.000572883,0.56966,0.00166173,0.016486,1833,659,24.1461,6.13481
616,365,24.1525,-5.51794,0.00224276,0.00184459,0.00139926,0.00345703,0.000630322,0.714733,0.00212596,0.0177405,1840,659,24.1524,5.51796
623,365,24.1749,-4.89301,0.0024725,0.00250632,0.00187986,0.00436935,0.00060947,0.789896,0.00273249,0.0121325,1847,659,24.1749,4.89301
630,365,24.1244,-4.28394,0.00271638,0.00310659,0.00233986,0.00525946,0.000563507,0.826994,0.00333438,0.0160006,1854,659,24.1244,4.28394
637,365,24.1133,-3.67896,0.00297338,0.00372726,0.00278512,0.00616083,0.000539813,0.85266,0.00393963,0.0209793,1861,659,24.1133,3.67897
644,365,24.1521,-3.04077,0.00301819,0.00437664,0.00318053,0.00694966,0.000445167,0.890596,0.00449208,0.0236765,1868,659,24.152,3.04079
651,365,24.215,-2.36938,0,0,0,0,0,0,0,-1,1875,659,24.215,2.36936
658,365,21.6173,-1.22028,0,0,0,0,0,0,0,-1,1882,659,21.6173,1.22025
665,365,14.0961,0.769043,0,0,0,0,0,0,0,-1,1889,659,14.0961,-0.769063
672,365,10.0579,2.15088,0,0,0,0,0,0,0,-1,1896,659,10.0579,-2.15088
679,365,10.9718,2.19208,0,0,0,0,0,0,0,-1,1903,659,10.9718,-2.19211
686,365,12.2134,2.17108,0,0,0,0,0,0,0,-1,1910,659,12.2134,-2.17109
693,365,13.7141,1.98279,0,0,0,0,0,0,0,-1,1917,659,13.7141,-1.98278
700,365,0,0,0,0,0,0,0,0,0,-1,1924,659,0,0
707,365,0,0,0,0,0,0,0,0,0,-1,1931,659,0,0
714,365,0,0,0,0,0,0,0,0,0,-1,1938,659,0,0
721,365,0,0,0,0,0,0,0,0,0,-1,1945,659,0,0
728,365,0,0,0,0,0,0,0,0,0,-1,1952,659,0,0
735,365,0,0,0,0,0,0,0,0,0,-1,1959,659,0,0
742,365,0,0,0,0,0,0,0,0,0,-1,1966,659,0,0
749,365,0,0,0,0,0,0,0,0,0,-1,1973,659,0,0
756,365,0,0,0,0,0,0,0,0,0,-1,1980,659,0,0
763,365,0,0,0,0,0,0,0,0,0,-1,1987,659,0,0
770,365,0,0,0,0,0,0,0,0,0,-1,1994,659,0,0
777,365,0,0,0,0,0,0,0,0,0,-1,2001,659,0,0
784,365,0,0,0,0,0,0,0,0,0,-1,2008,659,0,0
791,365,0,0,0,0,0,0,0,0,0,-1,2015,659,0,0
798,365,0,0,0,0,0,0,0,0,0,-1,2022,659,0,0
805,365,0,0,0,0,0,0,0,0,0,-1,2029,659,0,0
812,365,0,0,0,0,0,0,0,0,0,-1,2036,659,0,0
-700,358,0,0,0,0,0,0,0,0,0,-1,524,666,0,0
-693,358,0,0,0,0,0,0,0,0,0,-1,531,666,0,0
-686,358,0,0,0,0,0,0,0,0,0,-1,538,666,0,0
-679,358,0,0,0,0,0,0,0,0,0,-1,545,666,0,0
-672,358,0,0,0,0,0,0,0,0,0,-1,552,666,0,0
-665,358,0,0,0,0,0,0,0,0,0,-1,559,666,0,0
-658,358,0,0,0,0,0,0,0,0,0,-1,566,666,0,0
-651,358,0,0,0,0,0,0,0,0,0,-1,573,666,0,0
-644,358,0,0,0,0,0,0,0,0,0,-1,580,666,0,0
-637,358,0,0,0,0,0,0,0,0,0,-1,587,666,0,0
-630,358,0,0,0,0,0,0,0,0,0,-1,594,666,0,0
-623,358,0,0,0,0,0,0,0,0,0,-1,601,666,0,0
-616,358,0,0,0,0,0,0,0,0,0,-1,608,666,0,0
-609,358,0,0,0,0,0,0,0,0,0,-1,615,666,0,0
-602,358,0,0,0,0,0,0,0,0,0,-1,622,666,0,0
-595,358,0,0,0,0,0,0,0,0,0,-1,629,666,0,0
-588,358,0,0,0,0,0,0,0,0,0,-1,636,666,0,0
-581,358,-8.31616,1.61993,0,0,0,0,0,0,0,-1,643,666,-8.31614,-1.61993
-574,358,-8.22406,1.75385,0,0,0,0,0,0,0,-1,650,666,-8.22408,-1.75383
-567,358,-8.14215,1.91577,0,0,0,0,0,0,0,-1,657,666,-8.14214,-1.91579
-560,358,-10.6086,2.18872,0,0,0,0,0,0,0,-1,664,666,-10.6086,-2.18873
-553,358,-13.4767,1.09552,0,0,0,0,0,0,0,-1,671,666,-13.4767,-1.09551
-546,358,-13.3743,-0.185059,0,0,0,0,0,0,0,-1,678,666,-13.3743,0.185037
-539,358,-9.43884,-2.04785,0,0,0,0,0,0,0,-1,685,666,-9.43884,2.04785
-532,358,-12.4141,-2.36572,0,0,0,0,0,0,0,-1,692,666,-12.4141,2.3657
-525,358,-12.731,-3.88031,0,0,0,0,0,0,0,-1,699,666,-12.731,3.88029
-518,358,-14.0436,-4.72577,0,0,0,0,0,0,0,-1,706,666,-14.0436,4.72575
-511,358,-14.0589,-5.33569,0.00245323,0.00482203,-0.00264246,0.00653339,0.000741869,-0.996084,0.00413057,0.016969,713,666,-14.0589,5.33571
-504,358,-14.0632,-5.9516,0.00200462,0.00366851,-0.00213616,0.00512902,0.00054412,-0.971091,0.00325317,0.0120617,720,666,-14.0633,5.95163
-497,358,-14.0676,-6.56726,0.00176935,0.0026375,-0.00168676,0.00394515,0.000461703,-0.911338,0.0024905,0.0118222,727,666,-14.0675,6.56724
-490,358,-14.0958,-7.15356,0.00164966,0.00179345,-0.00134589,0.00306937,0.00037375,-0.812082,0.00193374,0.0112456,734,666,-14.0958,7.15357
-483,358,-14.1313,-7.72137,0.00171962,0.00110197,-0.00108865,0.0025424,0.000279188,-0.647189,0.00160996,0.0104186,741,666,-14.1313,7.72135
-476,358,-14.0964,-8.28949,0.00195485,0.000617352,-0.000960168,0.0024562,0.000115994,-0.481215,0.00160021,0.0127969,748,666,-14.0964,8.28946
-469,358,-14.1413,-8.89648,0.0023113,0.000326944,-0.000946352,0.00269026,-5.20081e-05,-0.380881,0.00181109,0.0161445,755,666,-14.1413,8.89651
-462,358,-14.2252,-9.49622,0.00277945,0.000233729,-0.00104231,0.00315176,-0.000138578,-0.34307,0.00214886,0.0172785,762,666,-14.2252,9.4962
-455,358,-14.1246,-10.1133,0.00342028,9.4583e-05,-0.00121924,0.00381937,-0.000304511,-0.316339,0.00265358,0.0426569,769,666,-14.1246,10.1134
-448,358,-13.9366,-10.8757,0,0,0,0,0,0,0,-1,776,666,-13.9366,10.8757
-441,358,-5.56293,-3.98041,0,0,0,0,0,0,0,-1,783,666,-5.56291,3.98043
-434,358,-5.21558,-4.43127,0,0,0,0,0,0,0,-1,790,666,-5.21559,4.43125
-427,358,-3.56189,-3.15729,0,0,0,0,0,0,0,-1,797,666,-3.56192,3.15729
-420,358,0.200195,1.08234,0,0,0,0,0,0,0,-1,804,666,0.200174,-1.08231
-413,358,0.0325317,0.161072,0,0,0,0,0,0,0,-1,811,666,0.0325501,-0.161098
-406,358,-3.85846,0.753113,0,0,0,0,0,0,0,-1,818,666,-3.85846,-0.753129
-399,358,-1.31213,0.190735,0,0,0,0,0,0,0,-1,825,666,-1.31215,-0.190763
-392,358,-3.73914,-0.832214,0,0,0,0,0,0,0,-1,832,666,-3.73915,0.832202
-385,358,-5.95178,-1.69141,0,0,0,0,0,0,0,-1,839,666,-5.9518,1.69143
-378,358,0,0,0,0,0,0,0,0,0,-1,846,666,0,0
-371,358,0,0,0,0,0,0,0,0,0,-1,853,666,0,0
-364,358,0,0,0,0,0,0,0,0,0,-1,860,666,0,0
-357,358,0,0,0,0,0,0,0,0,0,-1,867,666,0,0
-350,358,0,0,0,0,0,0,0,0,0,-1,874,666,0,0
-343,358,0,0,0,0,0,0,0,0,0,-1,881,666,0,0
-336,358,0,0,0,0,0,0,0,0,0,-1,888,666,0,0
-329,358,0,0,0,0,0,0,0,0,0,-1,895,666,0,0
-322,358,0,0,0,0,0,0,0,0,0,-1,902,666,0,0
-315,358,0,0,0,0,0,0,0,0,0,-1,909,666,0,0
-308,358,0,0,0,0,0,0,0,0,0,-1,916,666,0,0
-301,358,0,0,0,0,0,0,0,0,0,-1,923,666,0,0
-294,358,0,0,0,0,0,0,0,0,0,-1,930,666,0,0
-287,358,0,0,0,0,0,0,0,0,0,-1,937,666,0,0
-280,358,0,0,0,0,0,0,0,0,0,-1,944,666,0,0
-273,358,0,0,0,0,0,0,0,0,0,-1,951,666,0,0
-266,358,0,0,0,0,0,0,0,0,0,-1,958,666,0,0
-259,358,0,0,0,0,0,0,0,0,0,-1,965,666,0,0
-252,358,0,0,0,0,0,0,0,0,0,-1,972,666,0,0
-245,358,0,0,0,0,0,0,0,0,0,-1,979,666,0,0
-238,358,0,0,0,0,0,0,0,0,0,-1,986,666,0,0
-231,358,0,0,0,0,0,0,0,0,0,-1,993,666,0,0
-224,358,0,0,0,0,0,0,0,0,0,-1,1000,666,0,0
-217,358,0,0,0,0,0,0,0,0,0,-1,1007,666,0,0
-210,358,0,0,0,0,0,0,0,0,0,-1,1014,666,0,0
-203,358,0,0,0,0,0,0,0,0,0,-1,1021,666,0,0
-196,358,0,0,0,0,0,0,0,0,0,-1,1028,666,0,0
-189,358,0,0,0,0,0,0,0,0,0,-1,1035,666,0,0
-182,358,0,0,0,0,0,0,0,0,0,-1,1042,666,0,0
-175,358,0,0,0,0,0,0,0,0,0,-1,1049,666,0,0
-168,358,0,0,0,0,0,0,0,0,0,-1,1056,666,0,0
-161,358,0,0,0,0,0,0,0,0,0,-1,1063,666,0,0
-154,358,0,0,0,0,0,0,0,0,0,-1,1070,666,0,0
-147,358,0,0,0,0,0,0,0,0,0,-1,1077,666,0,0
-140,358,0,0,0,0,0,0,0,0,0,-1,1084,666,0,0
-133,358,0,0,0,0,0,0,0,0,0,-1,1091,666,0,0
-126,358,0,0,0,0,0,0,0,0,0,-1,1098,666,0,0
-119,358,0,0,0,0,0,0,0,0,0,-1,1105,666,0,0
-112,358,0,0,0,0,0,0,0,0,0,-1,1112,666,0,0
-105,358,0,0,0,0,0,0,0,0,0,-1,1119,666,0,0
-98,358,0,0,0,0,0,0,0,0,0,-1,1126,666,0,0
-91,358,0,0,0,0,0,0,0,0,0,-1,1133,666,0,0
-84,358,0,0,0,0,0,0,0,0,0,-1,1140,666,0,0
-77,358,0,0,0,0,0,0,0,0,0,-1,1147,666,0,0
-70,358,0,0,0,0,0,0,0,0,0,-1,1154,666,0,0
-63,358,0,0,0,0,0,0,0,0,0,-1,1161,666,0,0
-56,358,0,0,0,0,0,0,0,0,0,-1,1168,666,0,0
-49,358,0,0,0,0,0,0,0,0,0,-1,1175,666,0,0
-42,358,0,0,0,0,0,0,0,0,0,-1,1182,666,0,0
-35,358,0,0,0,0,0,0,0,0,0,-1,1189,666,0,0
-28,358,0,0,0,0,0,0,0,0,0,-1,1196,666,0,0
-21,358,0,0,0,0,0,0,0,0,0,-1,1203,666,0,0
-14,358,0,0,0,0,0,0,0,0,0,-1,1210,666,0,0
-7,358,0,0,0,0,0,0,0,0,0,-1,1217,666,0,0
0,358,0,0,0,0,0,0,0,0,0,-1,1224,666,0,0
7,358,0,0,0,0,0,0,0,0,0,-1,1231,666,0,0
14,358,0,0,0,0,0,0,0,0,0,-1,1238,666,0,0
21,358,0,0,0,0,0,0,0,0,0,-1,1245,666,0,0
28,358,0,0,0,0,0,0,0,0,0,-1,1252,666,0,0
35,358,0,0,0,0,0,0,0,0,0,-1,1259,666,0,0
42,358,0,0,0,0,0,0,0,0,0,-1,1266,666,0,0
49,358,0,0,0,0,0,0,0,0,0,-1,1273,666,0,0
56,358,0,0,0,0,0,0,0,0,0,-1,1280,666,0,0
63,358,0,0,0,0,0,0,0,0,0,-1,1287,666,0,0
70,358,0,0,0,0,0,0,0,0,0,-1,1294,666,0,0
77,358,0,0,0,0,0,0,0,0,0,-1,1301,666,0,0
84,358,0,0,0,0,0,0,0,0,0,-1,1308,666,0,0
91,358,0,0,0,0,0,0,0,0,0,-1,1315,666,0,0
98,358,0,0,0,0,0,0,0,0,0,-1,1322,666,0,0
105,358,0,0,0,0,0,0,0,0,0,-1,1329,666,0,0
112,358,0,0,0,0,0,0,0,0,0,-1,1336,666,0,0
119,358,0,0,0,0,0,0,0,0,0,-1,1343,666,0,0
126,358,0,0,0,0,0,0,0,0,0,-1,1350,666,0,0
133,358,0,0,0,0,0,0,0,0,0,-1,1357,666,0,0
140,358,0,0,0,0,0,0,0,0,0,-1,1364,666,0,0
147,358,0,0,0,0,0,0,0,0,0,-1,1371,666,0,0
154,358,0,0,0,0,0,0,0,0,0,-1,1378,666,0,0
161,358,0,0,0,0,0,0,0,0,0,-1,1385,666,0,0
168,358,0,0,0,0,0,0,0,0,0,-1,1392,666,0,0
175,358,0,0,0,0,0,0,0,0,0,-1,1399,666,0,0
182,358,0,0,0,0,0,0,0,0,0,-1,1406,666,0,0
189,358,0,0,0,0,0,0,0,0,0,-1,1413,666,0,0
196,358,0,0,0,0,0,0,0,0,0,-1,1420,666,0,0
203,358,0,0,0,0,0,0,0,0,0,-1,1427,666,0,0
210,358,0,0,0,0,0,0,0,0,0,-1,1434,666,0,0
217,358,0,0,0,0,0,0,0,0,0,-1,1441,666,0,0
224,358,0,0,0,0,0,0,0,0,0,-1,1448,666,0,0
231,358,0,0,0,0,0,0,0,0,0,-1,1455,666,0,0
238,358,0,0,0,0,0,0,0,0,0,-1,1462,666,0,0
245,358,0,0,0,0,0,0,0,0,0,-1,1469,666,0,0
252,358,0,0,0,0,0,0,0,0,0,-1,1476,666,0,0
259,358,0,0,0,0,0,0,0,0,0,-1,1483,666,0,0
266,358,0,0,0,0,0,0,0,0,0,-1,1490,666,0,0
273,358,0,0,0,0,0,0,0,0,0,-1,1497,666,0,0
280,358,0,0,0,0,0,0,0,0,0,-1,1504,666,0,0
287,358,0,0,0,0,0,0,0,0,0,-1,1511,666,0,0
294,358,0,0,0,0,0,0,0,0,0,-1,1518,666,0,0
301,358,0,0,0,0,0,0,0,0,0,-1,1525,666,0,0
308,358,0,0,0,0,0,0,0,0,0,-1,1532,666,0,0
315,358,0,0,0,0,0,0,0,0,0,-1,1539,666,0,0
322,358,0,0,0,0,0,0,0,0,0,-1,1546,666,0,0
329,358,0,0,0,0,0,0,0,0,0,-1,1553,666,0,0
336,358,0,0,0,0,0,0,0,0,0,-1,1560,666,0,0
343,358,0,0,0,0,0,0,0,0,0,-1,1567,666,0,0
350,358,0,0,0,0,0,0,0,0,0,-1,1574,666,0,0
357,358,0,0,0,0,0,0,0,0,0,-1,1581,666,0,0
364,358,0,0,0,0,0,0,0,0,0,-1,1588,666,0,0
371,358,0,0,0,0,0,0,0,0,0,-1,1595,666,0,0
378,358,0,0,0,0,0,0,0,0,0,-1,1602,666,0,0
385,358,0,0,0,0,0,0,0,0,0,-1,1609,666,0,0
392,358,0,0,0,0,0,0,0,0,0,-1,1616,666,0,0
399,358,0,0,0,0,0,0,0,0,0,-1,1623,666,0,0
406,358,0,0,0,0,0,0,0,0,0,-1,1630,666,0,0
413,358,0,0,0,0,0,0,0,0,0,-1,1637,666,0,0
420,358,0,0,0,0,0,0,0,0,0,-1,1644,666,0,0
427,358,0,0,0,0,0,0,0,0,0,-1,1651,666,0,0
434,358,0,0,0,0,0,0,0,0,0,-1,1658,666,0,0
441,358,0,0,0,0,0,0,0,0,0,-1,1665,666,0,0
448,358,0,0,0,0,0,0,0,0,0,-1,1672,666,0,0
455,358,0,0,0,0,0,0,0,0,0,-1,1679,666,0,0
462,358,0,0,0,0,0,0,0,0,0,-1,1686,666,0,0
469,358,0,0,0,0,0,0,0,0,0,-1,1693,666,0,0
476,358,0,0,0,0,0,0,0,0,0,-1,1700,666,0,0
483,358,0,0,0,0,0,0,0,0,0,-1,1707,666,0,0
490,358,0,0,0,0,0,0,0,0,0,-1,1714,666,0,0
497,358,8.57239,1.1322,0,0,0,0,0,0,0,-1,1721,666,8.57234,-1.13219
504,358,10.5972,0.832947,0,0,0,0,0,0,0,-1,1728,666,10.5972,-0.832968
511,358,10.6873,0.868469,0,0,0,0,0,0,0,-1,1735,666,10.6872,-0.868484
518,358,16.5884,2.34894,0,0,0,0,0,0,0,-1,1742,666,16.5884,-2.34894
525,358,15.7626,3.65344,0,0,0,0,0,0,0,-1,1749,666,15.7626,-3.65342
532,358,14.9368,4.95789,0,0,0,0,0,0,0,-1,1756,666,14.9367,-4.9579
539,358,15.1597,3.42694,0,0,0,0,0,0,0,-1,1763,666,15.1597,-3.42692
546,358,12.3792,1.53558,0,0,0,0,0,0,0,-1,1770,666,12.3792,-1.5356
553,358,11.6584,1.26172,0,0,0,0,0,0,0,-1,1777,666,11.6585,-1.26175
560,358,10.8234,1.43042,0,0,0,0,0,0,0,-1,1784,666,10.8233,-1.43041
567,358,10.1333,-0.955139,0,0,0,0,0,0,0,-1,1791,666,10.1333,0.955132
574,358,14.7886,-2.69293,0,0,0,0,0,0,0,-1,1798,666,14.7885,2.6929
581,358,20.1738,-6.76135,0,0,0,0,0,0,0,-1,1805,666,20.1738,6.76137
588,358,24.7878,-8.07971,0,0,0,0,0,0,0,-1,1812,666,24.7878,8.07974
595,358,24.8345,-7.34979,0.00263877,-0.000189121,0.000332972,0.00267745,-0.000227798,0.115639,0.00186554,0.0159997,1819,666,24.8344,7.3498
602,358,24.7897,-6.69434,0.00212892,0.000281591,0.000438434,0.00222769,0.000182817,0.221589,0.00142809,0.0127188,1826,666,24.7896,6.69436
609,358,24.7286,-6.09344,0.00195819,0.000768203,0.000709897,0.00228946,0.000436929,0.436614,0.00140352,0.0168531,1833,666,24.7286,6.09343
616,358,24.7343,-5.49567,0.00199926,0.00127301,0.00104559,0.00274299,0.00052928,0.618267,0.00168025,0.016037,1840,666,24.7343,5.49567
623,358,24.7795,-4.89069,0.00206218,0.0017976,0.00139761,0.00333375,0.000526033,0.73821,0.00206956,0.0139544,1847,666,24.7796,4.89068
630,358,24.7445,-4.28979,0.00211726,0.00224989,0.00174872,0.00393356,0.000433593,0.80435,0.00249045,0.0168035,1854,666,24.7444,4.28979
637,358,24.7134,-3.67493,0.00214104,0.00272673,0.00205653,0.00451116,0.000356614,0.856121,0.00289589,0.0239022,1861,666,24.7133,3.67496
644,358,24.7173,-3.05042,0.00194933,0.00317912,0.0022793,0.00492501,0.000203435,0.917148,0.00321767,0.0205034,1868,666,24.7173,3.05041
651,358,24.8228,-2.31842,0.00141483,0.00361822,0.00237866,0.00513793,-0.000104881,1.00227,0.00346078,0.0385158,1875,666,24.8228,2.31841
658,358,24.6215,-1.52808,0,0,0,0,0,0,0,-1,1882,666,24.6214,1.5281
665,358,23.3575,-0.825623,0,0,0,0,0,0,0,-1,1889,666,23.3576,0.82563
672,358,12.4299,1.47272,0,0,0,0,0,0,0,-1,1896,666,12.4299,-1.4727
679,358,12.1294,2.19702,0,0,0,0,0,0,0,-1,1903,666,12.1294,-2.19703
686,358,11.9557,2.2002,0,0,0,0,0,0,0,-1,1910,666,11.9557,-2.20021
693,358,13.188,2.52203,0,0,0,0,0,0,0,-1,1917,666,13.188,-2.52202
700,358,0,0,0,0,0,0,0,0,0,-1,1924,666,0,0
707,358,0,0,0,0,0,0,0,0,0,-1,1931,666,0,0
714,358,0,0,0,0,0,0,0,0,0,-1,1938,666,0,0
721,358,0,0,0,0,0,0,0,0,0,-1,1945,666,0,0
728,358,0,0,0,0,0,0,0,0,0,-1,1952,666,0,0
735,358,0,0,0,0,0,0,0,0,0,-1,1959,666,0,0
742,358,0,0,0,0,0,0,0,0,0,-1,1966,666,0,0
749,358,0,0,0,0,0,0,0,0,0,-1,1973,666,0,0
756,358,0,0,0,0,0,0,0,0,0,-1,1980,666,0,0
763,358,0,0,0,0,0,0,0,0,0,-1,1987,666,0,0
770,358,0,0,0,0,0,0,0,0,0,-1,1994,666,0,0
777,358,0,0,0,0,0,0,0,0,0,-1,2001,666,0,0
784,358,0,0,0,0,0,0,0,0,0,-1,2008,666,0,0
791,358,0,0,0,0,0,0,0,0,0,-1,2015,666,0,0
798,358,0,0,0,0,0,0,0,0,0,-1,2022,666,0,0
805,358,0,0,0,0,0,0,0,0,0,-1,2029,666,0,0
812,358,0,0,0,0,0,0,0,0,0,-1,2036,666,0,0
-700,351,0,0,0,0,0,0,0,0,0,-1,524,673,0,0
-693,351,0,0,0,0,0,0,0,0,0,-1,531,673,0,0
-686,351,0,0,0,0,0,0,0,0,0,-1,538,673,0,0
-679,351,0,0,0,0,0,0,0,0,0,-1,545,673,0,0
-672,351,0,0,0,0,0,0,0,0,0,-1,552,673,0,0
-665,351,0,0,0,0,0,0,0,0,0,-1,559,673,0,0
-658,351,0,0,0,0,0,0,0,0,0,-1,566,673,0,0
-651,351,0,0,0,0,0,0,0,0,0,-1,573,673,0,0
-644,351,0,0,0,0,0,0,0,0,0,-1,580,673,0,0
-637,351,0,0,0,0,0,0,0,0,0,-1,587,673,0,0
-630,351,0,0,0,0,0,0,0,0,0,-1,594,673,0,0
-623,351,0,0,0,0,0,0,0,0,0,-1,601,673,0,0
-616,351,0,0,0,0,0,0,0,0,0,-1,608,673,0,0
-609,351,0,0,0,0,0,0,0,0,0,-1,615,673,0,0
-602,351,0,0,0,0,0,0,0,0,0,-1,622,673,0,0
-595,351,0,0,0,0,0,0,0,0,0,-1,629,673,0,0
-588,351,0,0,0,0,0,0,0,0,0,-1,636,673,0,0
-581,351,-9.0647,1.71906,0,0,0,0,0,0,0,-1,643,673,-9.06472,-1.71908
-574,351,-8.23584,2.64764,0,0,0,0,0,0,0,-1,650,673,-8.23584,-2.64764
-567,351,-10.8027,4.56836,0,0,0,0,0,0,0,-1,657,673,-10.8027,-4.56839
-560,351,-14.2001,2.17084,0,0,0,0,0,0,0,-1,664,673,-14.2002,-2.17086
-553,351,-13.4979,0.779541,0,0,0,0,0,0,0,-1,671,673,-13.4978,-0.779519
-546,351,-14.0065,0.73645,0,0,0,0,0,0,0,-1,678,673,-14.0065,-0.736473
-539,351,-12.8123,-1.46393,0,0,0,0,0,0,0,-1,685,673,-12.8123,1.46395
-532,351,-14.1657,-3.36011,0,0,0,0,0,0,0,-1,692,673,-14.1657,3.36012
-525,351,-14.6886,-4.11334,0,0,0,0,0,0,0,-1,699,673,-14.6886,4.11332
-518,351,-14.6323,-4.66589,0.00290664,0.00453412,-0.00228372,0.00614475,0.00129601,-0.956545,0.00374011,0.0197517,706,673,-14.6322,4.66591
-511,351,-14.6197,-5.29724,0.00238696,0.00353313,-0.00192739,0.00497083,0.000949258,-0.929904,0.00304716,0.0116863,713,673,-14.6197,5.29725
-504,351,-14.6509,-5.91827,0.00196255,0.00259456,-0.00153499,0.00384573,0.000711378,-0.886915,0.00236267,0.0112599,720,673,-14.651,5.91825
-497,351,-14.6676,-6.5199,0.00173296,0.0017687,-0.00119396,0.00294493,0.000556736,-0.79288,0.00180653,0.0113549,727,673,-14.6676,6.51987
-490,351,-14.6926,-7.11029,0.00161839,0.00110529,-0.000948556,0.00234448,0.000379202,-0.653325,0.00145317,0.0107895,734,673,-14.6925,7.11028
-483,351,-14.7186,-7.68066,0.00171228,0.000585387,-0.000787197,0.0021169,0.000180769,-0.474784,0.00135504,0.0127968,741,673,-14.7186,7.68067
-476,351,-14.7443,-8.26208,0.00196679,0.000252691,-0.000750708,0.00224908,-2.95993e-05,-0.359675,0.00150935,0.0117095,748,673,-14.7443,8.26207
-469,351,-14.7722,-8.84656,0.00238224,0.000130725,-0.000863896,0.00267551,-0.000162548,-0.32727,0.00184025,0.0133811,755,673,-14.7721,8.84657
-462,351,-14.8145,-9.48694,0.00298934,0.00021809,-0.00113611,0.00339556,-0.000188131,-0.343388,0.00232895,0.0299373,762,673,-14.8144,9.48696
-455,351,-14.7921,-10.1048,0,0,0,0,0,0,0,-1,769,673,-14.7921,10.1048
-448,351,-6.61456,-4.38654,0,0,0,0,0,0,0,-1,776,673,-6.61456,4.38654
-441,351,-4.31567,-2.3009,0,0,0,0,0,0,0,-1,783,673,-4.31565,2.30089
-434,351,-3.81708,-2.28003,0,0,0,0,0,0,0,-1,790,673,-3.81706,2.28006
-427,351,-2.05157,-2.7785,0,0,0,0,0,0,0,-1,797,673,-2.05157,2.77848
-420,351,-1.06989,-2.43665,0,0,0,0,0,0,0,-1,804,673,-1.06991,2.43663
-413,351,-0.392334,-2.06671,0,0,0,0,0,0,0,-1,811,673,-0.392363,2.06672
-406,351,-1.86316,-2.58105,0,0,0,0,0,0,0,-1,818,673,-1.86313,2.58106
-399,351,1.00952,-1.53455,0,0,0,0,0,0,0,-1,825,673,1.00954,1.53457
-392,351,-1.02197,0.877136,0,0,0,0,0,0,0,-1,832,673,-1.02195,-0.877143
-385,351,-1.47205,1.04437,0,0,0,0,0,0,0,-1,839,673,-1.47207,-1.04435
-378,351,0,0,0,0,0,0,0,0,0,-1,846,673,0,0
-371,351,0,0,0,0,0,0,0,0,0,-1,853,673,0,0
-364,351,0,0,0,0,0,0,0,0,0,-1,860,673,0,0
-357,351,0,0,0,0,0,0,0,0,0,-1,867,673,0,0
-350,351,0,0,0,0,0,0,0,0,0,-1,874,673,0,0
-343,351,0,0,0,0,0,0,0,0,0,-1,881,673,0,0
-336,351,0,0,0,0,0,0,0,0,0,-1,888,673,0,0
-329,351,0,0,0,0,0,0,0,0,0,-1,895,673,0,0
-322,351,0,0,0,0,0,0,0,0,0,-1,902,673,0,0
-315,351,0,0,0,0,0,0,0,0,0,-1,909,673,0,0
-308,351,0,0,0,0,0,0,0,0,0,-1,916,673,0,0
-301,351,0,0,0,0,0,0,0,0,0,-1,923,673,0,0
-294,351,0,0,0,0,0,0,0,0,0,-1,930,673,0,0
-287,351,0,0,0,0,0,0,0,0,0,-1,937,673,0,0
-280,351,0,0,0,0,0,0,0,0,0,-1,944,673,0,0
-273,351,0,0,0,0,0,0,0,0,0,-1,951,673,0,0
-266,351,0,0,0,0,0,0,0,0,0,-1,958,673,0,0
-259,351,0,0,0,0,0,0,0,0,0,-1,965,673,0,0
-252,351,0,0,0,0,0,0,0,0,0,-1,972,673,0,0
-245,351,0,0,0,0,0,0,0,0,0,-1,979,673,0,0
-238,351,0,0,0,0,0,0,0,0,0,-1,986,673,0,0
-231,351,0,0,0,0,0,0,0,0,0,-1,993,673,0,0
-224,351,0,0,0,0,0,0,0,0,0,-1,1000,673,0,0
-217,351,0,0,0,0,0,0,0,0,0,-1,1007,673,0,0
-210,351,0,0,0,0,0,0,0,0,0,-1,1014,673,0,0
-203,351,0,0,0,0,0,0,0,0,0,-1,1021,673,0,0
-196,351,0,0,0,0,0,0,0,0,0,-1,1028,673,0,0
-189,351,0,0,0,0,0,0,0,0,0,-1,1035,673,0,0
-182,351,0,0,0,0,0,0,0,0,0,-1,1042,673,0,0
-175,351,0,0,0,0,0,0,0,0,0,-1,1049,673,0,0
-168,351,0,0,0,0,0,0,0,0,0,-1,1056,673,0,0
-161,351,0,0,0,0,0,0,0,0,0,-1,1063,673,0,0
-154,351,0,0,0,0,0,0,0,0,0,-1,1070,673,0,0
-147,351,0,0,0,0,0,0,0,0,0,-1,1077,673,0,0
-140,351,0,0,0,0,0,0,0,0,0,-1,1084,673,0,0
-133,351,0,0,0,0,0,0,0,0,0,-1,1091,673,0,0
-126,351,0,0,0,0,0,0,0,0,0,-1,1098,673,0,0
-119,351,0,0,0,0,0,0,0,0,0,-1,1105,673,0,0
-112,351,0,0,0,0,0,0,0,0,0,-1,1112,673,0,0
-105,351,0,0,0,0,0,0,0,0,0,-1,1119,673,0,0
-98,351,0,0,0,0,0,0,0,0,0,-1,1126,673,0,0
-91,351,0,0,0,0,0,0,0,0,0,-1,1133,673,0,0
-84,351,0,0,0,0,0,0,0,0,0,-1,1140,673,0,0
-77,351,0,0,0,0,0,0,0,0,0,-1,1147,673,0,0
-70,351,0,0,0,0,0,0,0,0,0,-1,1154,673,0,0
-63,351,0,0,0,0,0,0,0,0,0,-1,1161,673,0,0
-56,351,0,0,0,0,0,0,0,0,0,-1,1168,673,0,0
-49,351,0,0,0,0,0,0,0,0,0,-1,1175,673,0,0
-42,351,0,0,0,0,0,0,0,0,0,-1,1182,673,0,0
-35,351,0,0,0,0,0,0,0,0,0,-1,1189,673,0,0
-28,351,0,0,0,0,0,0,0,0,0,-1,1196,673,0,0
-21,351,0,0,0,0,0,0,0,0,0,-1,1203,673,0,0
-14,351,0,0,0,0,0,0,0,0,0,-1,1210,673,0,0
-7,351,0,0,0,0,0,0,0,0,0,-1,1217,673,0,0
0,351,0,0,0,0,0,0,0,0,0,-1,1224,673,0,0
7,351,0,0,0,0,0,0,0,0,0,-1,1231,673,0,0
14,351,0,0,0,0,0,0,0,0,0,-1,1238,673,0,0
21,351,0,0,0,0,0,0,0,0,0,-1,1245,673,0,0
28,351,0,0,0,0,0,0,0,0,0,-1,1252,673,0,0
35,351,0,0,0,0,0,0,0,0,0,-1,1259,673,0,0
42,351,0,0,0,0,0,0,0,0,0,-1,1266,673,0,0
49,351,0,0,0,0,0,0,0,0,0,-1,1273,673,0,0
56,351,0,0,0,0,0,0,0,0,0,-1,1280,673,0,0
63,351,0,0,0,0,0,0,0,0,0,-1,1287,673,0,0
70,351,0,0,0,0,0,0,0,0,0,-1,1294,673,0,0
77,351,0,0,0,0,0,0,0,0,0,-1,1301,673,0,0
84,351,0,0,0,0,0,0,0,0,0,-1,1308,673,0,0
91,351,0,0,0,0,0,0,0,0,0,-1,1315,673,0,0
98,351,0,0,0,0,0,0,0,0,0,-1,1322,673,0,0
105,351,0,0,0,0,0,0,0,0,0,-1,1329,673,0,0
112,351,0,0,0,0,0,0,0,0,0,-1,1336,673,0,0
119,351,0,0,0,0,0,0,0,0,0,-1,1343,673,0,0
126,351,0,0,0,0,0,0,0,0,0,-1,1350,673,0,0
133,351,0,0,0,0,0,0,0,0,0,-1,1357,673,0,0
140,351,0,0,0,0,0,0,0,0,0,-1,1364,673,0,0
147,351,0,0,0,0,0,0,0,0,0,-1,1371,673,0,0
154,351,0,0,0,0,0,0,0,0,0,-1,1378,673,0,0
161,351,0,0,0,0,0,0,0,0,0,-1,1385,673,0,0
168,351,0,0,0,0,0,0,0,0,0,-1,1392,673,0,0
175,351,0,0,0,0,0,0,0,0,0,-1,1399,673,0,0
182,351,0,0,0,0,0,0,0,0,0,-1,1406,673,0,0
189,351,0,0,0,0,0,0,0,0,0,-1,1413,673,0,0
196,351,0,0,0,0,0,0,0,0,0,-1,1420,673,0,0
203,351,0,0,0,0,0,0,0,0,0,-1,1427,673,0,0
210,351,0,0,0,0,0,0,0,0,0,-1,1434,673,0,0
217,351,0,0,0,0,0,0,0,0,0,-1,1441,673,0,0
224,351,0,0,0,0,0,0,0,0,0,-1,1448,673,0,0
231,351,0,0,0,0,0,0,0,0,0,-1,1455,673,0,0
238,351,0,0,0,0,0,0,0,0,0,-1,1462,673,0,0
245,351,0,0,0,0,0,0,0,0,0,-1,1469,673,0,0
252,351,0,0,0,0,0,0,0,0,0,-1,1476,673,0,0
259,351,0,0,0,0,0,0,0,0,0,-1,1483,673,0,0
266,351,0,0,0,0,0,0,0,0,0,-1,1490,673,0,0
273,351,0,0,0,0,0,0,0,0,0,-1,1497,673,0,0
280,351,0,0,0,0,0,0,0,0,0,-1,1504,673,0,0
287,351,0,0,0,0,0,0,0,0,0,-1,1511,673,0,0
294,351,0,0,0,0,0,0,0,0,0,-1,1518,673,0,0
301,351,0,0,0,0,0,0,0,0,0,-1,1525,673,0,0
308,351,0,0,0,0,0,0,0,0,0,-1,1532,673,0,0
315,351,0,0,0,0,0,0,0,0,0,-1,1539,673,0,0
322,351,0,0,0,0,0,0,0,0,0,-1,1546,673,0,0
329,351,0,0,0,0,0,0,0,0,0,-1,1553,673,0,0
336,351,0,0,0,0,0,0,0,0,0,-1,1560,673,0,0
343,351,0,0,0,0,0,0,0,0,0,-1,1567,673,0,0
350,351,0,0,0,0,0,0,0,0,0,-1,1574,673,0,0
357,351,0,0,0,0,0,0,0,0,0,-1,1581,673,0,0
364,351,0,0,0,0,0,0,0,0,0,-1,1588,673,0,0
371,351,0,0,0,0,0,0,0,0,0,-1,1595,673,0,0
378,351,0,0,0,0,0,0,0,0,0,-1,1602,673,0,0
385,351,0,0,0,0,0,0,0,0,0,-1,1609,673,0,0
392,351,0,0,0,0,0,0,0,0,0,-1,1616,673,0,0
399,351,0,0,0,0,0,0,0,0,0,-1,1623,673,0,0
406,351,0,0,0,0,0,0,0,0,0,-1,1630,673,0,0
413,351,0,0,0,0,0,0,0,0,0,-1,1637,673,0,0
420,351,0,0,0,0,0,0,0,0,0,-1,1644,673,0,0
427,351,0,0,0,0,0,0,0,0,0,-1,1651,673,0,0
434,351,0,0,0,0,0,0,0,0,0,-1,1658,673,0,0
441,351,0,0,0,0,0,0,0,0,0,-1,1665,673,0,0
448,351,0,0,0,0,0,0,0,0,0,-1,1672,673,0,0
455,351,0,0,0,0,0,0,0,0,0,-1,1679,673,0,0
462,351,0,0,0,0,0,0,0,0,0,-1,1686,673,0,0
469,351,0,0,0,0,0,0,0,0,0,-1,1693,673,0,0
476,351,0,0,0,0,0,0,0,0,0,-1,1700,673,0,0
483,351,0,0,0,0,0,0,0,0,0,-1,1707,673,0,0
490,351,0,0,0,0,0,0,0,0,0,-1,1714,673,0,0
497,351,0,0,0,0,0,0,0,0,0,-1,1721,673,0,0
504,351,10.8842,1.61615,0,0,0,0,0,0,0,-1,1728,673,10.8842,-1.61618
511,351,15.4548,0.0236816,0,0,0,0,0,0,0,-1,1735,673,15.4549,-0.0236664
518,351,16.7448,2.49268,0,0,0,0,0,0,0,-1,1742,673,16.7448,-2.49269
525,351,16.0701,3.43225,0,0,0,0,0,0,0,-1,1749,673,16.07,-3.43227
532,351,32.3822,3.03021,0,0,0,0,0,0,0,-1,1756,673,32.3822,-3.03019
539,351,15.3387,3.54486,0,0,0,0,0,0,0,-1,1763,673,15.3387,-3.54485
546,351,13.9387,4.59357,0,0,0,0,0,0,0,-1,1770,673,13.9388,-4.59359
553,351,12.0682,2.02832,0,0,0,0,0,0,0,-1,1777,673,12.0683,-2.02831
560,351,12.0173,0.55304,0,0,0,0,0,0,0,-1,1784,673,12.0174,-0.553028
567,351,10.7827,0.130188,0,0,0,0,0,0,0,-1,1791,673,10.7827,-0.130183
574,351,13.405,-1.09204,0,0,0,0,0,0,0,-1,1798,673,13.405,1.09207
581,351,15.2351,-3.06049,0,0,0,0,0,0,0,-1,1805,673,15.2351,3.06046
588,351,25.3372,-8.05353,0,0,0,0,0,0,0,-1,1812,673,25.3371,8.0535
595,351,25.4429,-7.37213,0.00270559,-0.000265058,0.000469588,0.00277806,-0.000337521,0.153104,0.00197418,0.041762,1819,673,25.4429,7.37212
602,351,25.4314,-6.71759,0.00202483,7.35625e-05,0.000357795,0.00208837,1.00239e-05,0.175751,0.00138891,0.0182047,1826,673,25.4314,6.71758
609,351,25.4211,-6.10406,0.00178911,0.000421405,0.000514033,0.00196076,0.000249755,0.322286,0.00123238,0.0169317,1833,673,25.4211,6.10407
616,351,25.3915,-5.48853,0.00175264,0.000772517,0.000756166,0.00216366,0.000361498,0.497883,0.00133832,0.0148268,1840,673,25.3915,5.48851
623,351,25.4103,-4.89838,0.00170823,0.00117726,0.000990152,0.00246787,0.00041762,0.654415,0.00152522,0.0155817,1847,673,25.4103,4.89839
630,351,25.3319,-4.30133,0.00166215,0.00151443,0.00124883,0.00283931,0.000337274,0.75586,0.00179106,0.0239661,1854,673,25.3319,4.30135
637,351,25.3091,-3.66809,0.00156819,0.00188881,0.00144971,0.00318705,0.000269948,0.840464,0.00204068,0.0281626,1861,673,25.3091,3.6681
644,351,25.3071,-3.02722,0.00126564,0.0022168,0.00155518,0.00336749,0.000114954,0.933785,0.00220767,0.0220073,1868,673,25.3072,3.02724
651,351,25.2985,-2.34027,0.000655116,0.00254276,0.00154407,0.00340863,-0.000210747,1.05973,0.00234582,0.0177391,1875,673,25.2984,2.34026
658,351,25.2317,-1.65259,-0.000356705,0.00279751,0.00131966,0.0032768,-0.000835993,1.22242,0.00251004,0.0345612,1882,673,25.2317,1.65258
665,351,25.001,-0.925903,0,0,0,0,0,0,0,-1,1889,673,25.0009,0.925907
672,351,24.0544,-0.50647,0,0,0,0,0,0,0,-1,1896,673,24.0544,0.506471
679,351,14.1252,1.85681,0,0,0,0,0,0,0,-1,1903,673,14.1253,-1.85682
686,351,13.0294,2.1189,0,0,0,0,0,0,0,-1,1910,673,13.0294,-2.11892
693,351,13.5187,2.34595,0,0,0,0,0,0,0,-1,1917,673,13.5187,-2.34596
700,351,14.5629,-2.40173,0,0,0,0,0,0,0,-1,1924,673,14.5629,2.40172
707,351,0,0,0,0,0,0,0,0,0,-1,1931,673,0,0
714,351,0,0,0,0,0,0,0,0,0,-1,1938,673,0,0
721,351,0,0,0,0,0,0,0,0,0,-1,1945,673,0,0
728,351,0,0,0,0,0,0,0,0,0,-1,1952,673,0,0
735,351,0,0,0,0,0,0,0,0,0,-1,1959,673,0,0
742,351,0,0,0,0,0,0,0,0,0,-1,1966,673,0,0
749,351,0,0,0,0,0,0,0,0,0,-1,1973,673,0,0
756,351,0,0,0,0,0,0,0,0,0,-1,1980,673,0,0
763,351,0,0,0,0,0,0,0,0,0,-1,1987,673,0,0
770,351,0,0,0,0,0,0,0,0,0,-1,1994,673,0,0
777,351,0,0,0,0,0,0,0,0,0,-1,2001,673,0,0
784,351,0,0,0,0,0,0,0,0,0,-1,2008,673,0,0
791,351,0,0,0,0,0,0,0,0,0,-1,2015,673,0,0
798,351,0,0,0,0,0,0,0,0,0,-1,2022,673,0,0
805,351,0,0,0,0,0,0,0,0,0,-1,2029,673,0,0
812,351,0,0,0,0,0,0,0,0,0,-1,2036,673,0,0
-700,344,0,0,0,0,0,0,0,0,0,-1,524,680,0,0
-693,344,0,0,0,0,0,0,0,0,0,-1,531,680,0,0
-686,344,0,0,0,0,0,0,0,0,0,-1,538,680,0,0
-679,344,0,0,0,0,0,0,0,0,0,-1,545,680,0,0
-672,344,0,0,0,0,0,0,0,0,0,-1,552,680,0,0
-665,344,0,0,0,0,0,0,0,0,0,-1,559,680,0,0
-658,344,0,0,0,0,0,0,0,0,0,-1,566,680,0,0
-651,344,0,0,0,0,0,0,0,0,0,-1,573,680,0,0
-644,344,0,0,0,0,0,0,0,0,0,-1,580,680,0,0
-637,344,0,0,0,0,0,0,0,0,0,-1,587,680,0,0
-630,344,0,0,0,0,0,0,0,0,0,-1,594,680,0,0
-623,344,0,0,0,0,0,0,0,0,0,-1,601,680,0,0
-616,344,0,0,0,0,0,0,0,0,0,-1,608,680,0,0
-609,344,0,0,0,0,0,0,0,0,0,-1,615,680,0,0
-602,344,0,0,0,0,0,0,0,0,0,-1,622,680,0,0
-595,344,0,0,0,0,0,0,0,0,0,-1,629,680,0,0
-588,344,-9.27826,1.47302,0,0,0,0,0,0,0,-1,636,680,-9.27829,-1.473
-581,344,-10.0098,1.71753,0,0,0,0,0,0,0,-1,643,680,-10.0098,-1.7175
-574,344,-10.2208,3.04871,0,0,0,0,0,0,0,-1,650,680,-10.2208,-3.04869
-567,344,-14.3779,2.29016,0,0,0,0,0,0,0,-1,657,680,-14.3779,-2.29014
-560,344,-14.1238,1.8374,0,0,0,0,0,0,0,-1,664,680,-14.1238,-1.83743
-553,344,-14.7884,2.00116,0,0,0,0,0,0,0,-1,671,680,-14.7884,-2.00115
-546,344,-15.9006,-0.302063,0,0,0,0,0,0,0,-1,678,680,-15.9007,0.302038
-539,344,-15.2166,-2.35431,0,0,0,0,0,0,0,-1,685,680,-15.2165,2.3543
-532,344,-15.1685,-3.34692,0,0,0,0,0,0,0,-1,692,680,-15.1685,3.34695
-525,344,-15.2637,-3.99359,0.00334035,0.00430274,-0.00185202,0.00573506,0.00190803,-0.912499,0.00337236,0.0405702,699,680,-15.2637,3.99361
-518,344,-15.2258,-4.68292,0.00272333,0.00333772,-0.00160017,0.00465992,0.00140114,-0.880233,0.00276074,0.0200551,706,680,-15.2258,4.68292
-511,344,-15.2282,-5.27563,0.00220153,0.00245223,-0.00130731,0.00364018,0.00101358,-0.833193,0.00216935,0.0171959,713,680,-15.2282,5.27563
-504,344,-15.2307,-5.90332,0.0018142,0.00163572,-0.00100303,0.00273195,0.000717969,-0.741028,0.00163538,0.0181144,720,680,-15.2307,5.90334
-497,344,-15.2574,-6.51483,0.00159473,0.000948743,-0.000748002,0.0020865,0.000456979,-0.581585,0.00126646,0.0161853,727,680,-15.2574,6.51482
-490,344,-15.3,-7.09717,0.00148948,0.000412049,-0.00058111,0.00174317,0.000158361,-0.411618,0.00111309,0.0142321,734,680,-15.3,7.09716
-483,344,-15.3239,-7.66528,0.00160603,3.33907e-05,-0.000505759,0.00175464,-0.000115218,-0.285789,0.00120999,0.0144829,741,680,-15.3238,7.66529
-476,344,-15.335,-8.25494,0.00187786,-0.000157642,-0.000556749,0.00202019,-0.000299971,-0.250283,0.00145711,0.0150408,748,680,-15.335,8.25493
-469,344,-15.3256,-8.87268,0.00238546,-6.18162e-05,-0.000828996,0.00263983,-0.000316192,-0.297727,0.0018742,0.0188119,755,680,-15.3256,8.87271
-462,344,-15.3719,-9.48218,0,0,0,0,0,0,0,-1,762,680,-15.3719,9.4822
-455,344,-12.1653,-7.99176,0,0,0,0,0,0,0,-1,769,680,-12.1653,7.99174
-448,344,-5.67657,-2.72864,0,0,0,0,0,0,0,-1,776,680,-5.6766,2.72863
-441,344,-5.09229,-2.34167,0,0,0,0,0,0,0,-1,783,680,-5.09229,2.34168
-434,344,-4.28778,-2.08807,0,0,0,0,0,0,0,-1,790,680,-4.28778,2.08809
-427,344,-3.06506,-1.45404,0,0,0,0,0,0,0,-1,797,680,-3.06505,1.45402
-420,344,-1.96582,-1.57574,0,0,0,0,0,0,0,-1,804,680,-1.96579,1.57574
-413,344,-0.817993,-1.4751,0,0,0,0,0,0,0,-1,811,680,-0.818017,1.47511
-406,344,-0.00714111,-1.25189,0,0,0,0,0,0,0,-1,818,680,-0.00714956,1.25191
-399,344,0.240051,-1.75769,0,0,0,0,0,0,0,-1,825,680,0.240079,1.75767
-392,344,1.11353,-2.05615,0,0,0,0,0,0,0,-1,832,680,1.11351,2.05616
-385,344,0,0,0,0,0,0,0,0,0,-1,839,680,0,0
-378,344,0,0,0,0,0,0,0,0,0,-1,846,680,0,0
-371,344,0,0,0,0,0,0,0,0,0,-1,853,680,0,0
-364,344,0,0,0,0,0,0,0,0,0,-1,860,680,0,0
-357,344,0,0,0,0,0,0,0,0,0,-1,867,680,0,0
-350,344,0,0,0,0,0,0,0,0,0,-1,874,680,0,0
-343,344,0,0,0,0,0,0,0,0,0,-1,881,680,0,0
-336,344,0,0,0,0,0,0,0,0,0,-1,888,680,0,0
-329,344,0,0,0,0,0,0,0,0,0,-1,895,680,0,0
-322,344,0,0,0,0,0,0,0,0,0,-1,902,680,0,0
-315,344,0,0,0,0,0,0,0,0,0,-1,909,680,0,0
-308,344,0,0,0,0,0,0,0,0,0,-1,916,680,0,0
-301,344,0,0,0,0,0,0,0,0,0,-1,923,680,0,0
-294,344,0,0,0,0,0,0,0,0,0,-1,930,680,0,0
-287,344,0,0,0,0,0,0,0,0,0,-1,937,680,0,0
-280,344,0,0,0,0,0,0,0,0,0,-1,944,680,0,0
-273,344,0,0,0,0,0,0,0,0,0,-1,951,680,0,0
-266,344,0,0,0,0,0,0,0,0,0,-1,958,680,0,0
-259,344,0,0,0,0,0,0,0,0,0,-1,965,680,0,0
-252,344,0,0,0,0,0,0,0,0,0,-1,972,680,0,0
-245,344,0,0,0,0,0,0,0,0,0,-1,979,680,0,0
-238,344,0,0,0,0,0,0,0,0,0,-1,986,680,0,0
-231,344,0,0,0,0,0,0,0,0,0,-1,993,680,0,0
-224,344,0,0,0,0,0,0,0,0,0,-1,1000,680,0,0
-217,344,0,0,0,0,0,0,0,0,0,-1,1007,680,0,0
-210,344,0,0,0,0,0,0,0,0,0,-1,1014,680,0,0
-203,344,0,0,0,0,0,0,0,0,0,-1,1021,680,0,0
-196,344,0,0,0,0,0,0,0,0,0,-1,1028,680,0,0
-189,344,0,0,0,0,0,0,0,0,0,-1,1035,680,0,0
-182,344,0,0,0,0,0,0,0,0,0,-1,1042,680,0,0
-175,344,0,0,0,0,0,0,0,0,0,-1,1049,680,0,0
-168,344,0,0,0,0,0,0,0,0,0,-1,1056,680,0,0
-161,344,0,0,0,0,0,0,0,0,0,-1,1063,680,0,0
-154,344,0,0,0,0,0,0,0,0,0,-1,1070,680,0,0
-147,344,0,0,0,0,0,0,0,0,0,-1,1077,680,0,0
-140,344,0,0,0,0,0,0,0,0,0,-1,1084,680,0,0
-133,344,0,0,0,0,0,0,0,0,0,-1,1091,680,0,0
-126,344,0,0,0,0,0,0,0,0,0,-1,1098,680,0,0
-119,344,0,0,0,0,0,0,0,0,0,-1,1105,680,0,0
-112,344,0,0,0,0,0,0,0,0,0,-1,1112,680,0,0
-105,344,0,0,0,0,0,0,0,0,0,-1,1119,680,0,0
-98,344,0,0,0,0,0,0,0,0,0,-1,1126,680,0,0
-91,344,0,0,0,0,0,0,0,0,0,-1,1133,680,0,0
-84,344,0,0,0,0,0,0,0,0,0,-1,1140,680,0,0
-77,344,0,0,0,0,0,0,0,0,0,-1,1147,680,0,0
-70,344,0,0,0,0,0,0,0,0,0,-1,1154,680,0,0
-63,344,0,0,0,0,0,0,0,0,0,-1,1161,680,0,0
-56,344,0,0,0,0,0,0,0,0,0,-1,1168,680,0,0
-49,344,0,0,0,0,0,0,0,0,0,-1,1175,680,0,0
-42,344,0,0,0,0,0,0,0,0,0,-1,1182,680,0,0
-35,344,0,0,0,0,0,0,0,0,0,-1,1189,680,0,0
-28,344,0,0,0,0,0,0,0,0,0,-1,1196,680,0,0
-21,344,0,0,0,0,0,0,0,0,0,-1,1203,680,0,0
-14,344,0,0,0,0,0,0,0,0,0,-1,1210,680,0,0
-7,344,0,0,0,0,0,0,0,0,0,-1,1217,680,0,0
0,344,0,0,0,0,0,0,0,0,0,-1,1224,680,0,0
7,344,0,0,0,0,0,0,0,0,0,-1,1231,680,0,0
14,344,0,0,0,0,0,0,0,0,0,-1,1238,680,0,0
21,344,0,0,0,0,0,0,0,0,0,-1,1245,680,0,0
28,344,0,0,0,0,0,0,0,0,0,-1,1252,680,0,0
35,344,0,0,0,0,0,0,0,0,0,-1,1259,680,0,0
42,344,0,0,0,0,0,0,0,0,0,-1,1266,680,0,0
49,344,0,0,0,0,0,0,0,0,0,-1,1273,680,0,0
56,344,0,0,0,0,0,0,0,0,0,-1,1280,680,0,0
63,344,0,0,0,0,0,0,0,0,0,-1,1287,680,0,0
70,344,0,0,0,0,0,0,0,0,0,-1,1294,680,0,0
77,344,0,0,0,0,0,0,0,0,0,-1,1301,680,0,0
84,344,0,0,0,0,0,0,0,0,0,-1,1308,680,0,0
91,344,0,0,0,0,0,0,0,0,0,-1,1315,680,0,0
98,344,0,0,0,0,0,0,0,0,0,-1,1322,680,0,0
105,344,0,0,0,0,0,0,0,0,0,-1,1329,680,0,0
112,344,0,0,0,0,0,0,0,0,0,-1,1336,680,0,0
119,344,0,0,0,0,0,0,0,0,0,-1,1343,680,0,0
126,344,0,0,0,0,0,0,0,0,0,-1,1350,680,0,0
133,344,0,0,0,0,0,0,0,0,0,-1,1357,680,0,0
140,344,0,0,0,0,0,0,0,0,0,-1,1364,680,0,0
147,344,0,0,0,0,0,0,0,0,0,-1,1371,680,0,0
154,344,0,0,0,0,0,0,0,0,0,-1,1378,680,0,0
161,344,0,0,0,0,0,0,0,0,0,-1,1385,680,0,0
168,344,0,0,0,0,0,0,0,0,0,-1,1392,680,0,0
175,344,0,0,0,0,0,0,0,0,0,-1,1399,680,0,0
182,344,0,0,0,0,0,0,0,0,0,-1,1406,680,0,0
189,344,0,0,0,0,0,0,0,0,0,-1,1413,680,0,0
196,344,0,0,0,0,0,0,0,0,0,-1,1420,680,0,0
203,344,0,0,0,0,0,0,0,0,0,-1,1427,680,0,0
210,344,0,0,0,0,0,0,0,0,0,-1,1434,680,0,0
217,344,0,0,0,0,0,0,0,0,0,-1,1441,680,0,0
224,344,0,0,0,0,0,0,0,0,0,-1,1448,680,0,0
231,344,0,0,0,0,0,0,0,0,0,-1,1455,680,0,0
238,344,0,0,0,0,0,0,0,0,0,-1,1462,680,0,0
245,344,0,0,0,0,0,0,0,0,0,-1,1469,680,0,0
252,344,0,0,0,0,0,0,0,0,0,-1,1476,680,0,0
259,344,0,0,0,0,0,0,0,0,0,-1,1483,680,0,0
266,344,0,0,0,0,0,0,0,0,0,-1,1490,680,0,0
273,344,0,0,0,0,0,0,0,0,0,-1,1497,680,0,0
280,344,0,0,0,0,0,0,0,0,0,-1,1504,680,0,0
287,344,0,0,0,0,0,0,0,0,0,-1,1511,680,0,0
294,344,0,0,0,0,0,0,0,0,0,-1,1518,680,0,0
301,344,0,0,0,0,0,0,0,0,0,-1,1525,680,0,0
308,344,0,0,0,0,0,0,0,0,0,-1,1532,680,0,0
315,344,0,0,0,0,0,0,0,0,0,-1,1539,680,0,0
322,344,0,0,0,0,0,0,0,0,0,-1,1546,680,0,0
329,344,0,0,0,0,0,0,0,0,0,-1,1553,680,0,0
336,344,0,0,0,0,0,0,0,0,0,-1,1560,680,0,0
343,344,0,0,0,0,0,0,0,0,0,-1,1567,680,0,0
350,344,0,0,0,0,0,0,0,0,0,-1,1574,680,0,0
357,344,0,0,0,0,0,0,0,0,0,-1,1581,680,0,0
364,344,0,0,0,0,0,0,0,0,0,-1,1588,680,0,0
371,344,0,0,0,0,0,0,0,0,0,-1,1595,680,0,0
378,344,0,0,0,0,0,0,0,0,0,-1,1602,680,0,0
385,344,0,0,0,0,0,0,0,0,0,-1,1609,680,0,0
392,344,0,0,0,0,0,0,0,0,0,-1,1616,680,0,0
399,344,0,0,0,0,0,0,0,0,0,-1,1623,680,0,0
406,344,0,0,0,0,0,0,0,0,0,-1,1630,680,0,0
413,344,0,0,0,0,0,0,0,0,0,-1,1637,680,0,0
420,344,0,0,0,0,0,0,0,0,0,-1,1644,680,0,0
427,344,0,0,0,0,0,0,0,0,0,-1,1651,680,0,0
434,344,0,0,0,0,0,0,0,0,0,-1,1658,680,0,0
441,344,0,0,0,0,0,0,0,0,0,-1,1665,680,0,0
448,344,0,0,0,0,0,0,0,0,0,-1,1672,680,0,0
455,344,0,0,0,0,0,0,0,0,0,-1,1679,680,0,0
462,344,0,0,0,0,0,0,0,0,0,-1,1686,680,0,0
469,344,0,0,0,0,0,0,0,0,0,-1,1693,680,0,0
476,344,0,0,0,0,0,0,0,0,0,-1,1700,680,0,0
483,344,0,0,0,0,0,0,0,0,0,-1,1707,680,0,0
490,344,0,0,0,0,0,0,0,0,0,-1,1714,680,0,0
497,344,0,0,0,0,0,0,0,0,0,-1,1721,680,0,0
504,344,0,0,0,0,0,0,0,0,0,-1,1728,680,0,0
511,344,15.4819,0.452637,0,0,0,0,0,0,0,-1,1735,680,15.4819,-0.452656
518,344,17.1357,2.31207,0,0,0,0,0,0,0,-1,1742,680,17.1358,-2.31207
525,344,31.5201,2.6217,0,0,0,0,0,0,0,-1,1749,680,31.5201,-2.62168
532,344,31.9766,2.61047,0,0,0,0,0,0,0,-1,1756,680,31.9765,-2.6105
539,344,32.4379,2.65314,0,0,0,0,0,0,0,-1,1763,680,32.4378,-2.65316
546,344,14.6722,4.30243,0,0,0,0,0,0,0,-1,1770,680,14.6722,-4.30241
553,344,14.8136,4.35681,0,0,0,0,0,0,0,-1,1777,680,14.8136,-4.35679
560,344,11.9363,2.14185,0,0,0,0,0,0,0,-1,1784,680,11.9362,-2.14182
567,344,11.397,0.925842,0,0,0,0,0,0,0,-1,1791,680,11.397,-0.92583
574,344,10.0004,0.504639,0,0,0,0,0,0,0,-1,1798,680,10.0004,-0.504645
581,344,13.6709,-0.969604,0,0,0,0,0,0,0,-1,1805,680,13.6709,0.969629
588,344,16.1447,-3.15948,0,0,0,0,0,0,0,-1,1812,680,16.1447,3.15946
595,344,25.9971,-7.37354,0,0,0,0,0,0,0,-1,1819,680,25.997,7.37355
602,344,26.1095,-6.74371,0,0,0,0,0,0,0,-1,1826,680,26.1095,6.74373
609,344,26.0693,-6.07208,0.00162685,0.000207002,0.00039846,0.00173103,0.000102824,0.255728,0.00112132,0.0153054,1833,680,26.0694,6.07208
616,344,26.0458,-5.42523,0.00156883,0.000425962,0.000600021,0.00182599,0.000168806,0.404897,0.00116514,0.022188,1840,680,26.0457,5.42526
623,344,26.035,-4.84686,0.00147973,0.000734908,0.000759521,0.00195323,0.000261411,0.557459,0.00122435,0.0203873,1847,680,26.0351,4.84684
630,344,25.9471,-4.25793,0.0013892,0.000978101,0.000955026,0.00216054,0.000206753,0.679401,0.00137663,0.0250053,1854,680,25.9472,4.25796
637,344,25.92,-3.65979,0.0012125,0.00126725,0.00107771,0.00231793,0.000161818,0.798096,0.00149427,0.0233005,1861,680,25.92,3.65978
644,344,25.9238,-3.01007,0.000842006,0.00150083,0.00110162,0.00232123,2.16e-05,0.930679,0.00154034,0.0166324,1868,680,25.9238,3.01007
651,344,25.9026,-2.33423,0.000201898,0.00174455,0.00102219,0.00225378,-0.000307329,1.10861,0.00161474,0.0118456,1875,680,25.9025,2.33421
658,344,25.88,-1.60748,-0.000786883,0.00195048,0.000773451,0.0021539,-0.000990307,1.31361,0.00185628,0.0230178,1882,680,25.88,1.60747
665,344,25.76,-1.04816,-0.00218938,0.0021049,0.000347127,0.00213278,-0.00221726,1.49066,0.00251165,0.0371812,1889,680,25.76,1.04819
672,344,25.7963,-0.528992,0,0,0,0,0,0,0,-1,1896,680,25.7962,0.529021
679,344,25.8064,-0.17218,0,0,0,0,0,0,0,-1,1903,680,25.8064,0.172207
686,344,15.024,1.82709,0,0,0,0,0,0,0,-1,1910,680,15.024,-1.82706
693,344,12.4362,-1.42346,0,0,0,0,0,0,0,-1,1917,680,12.4361,1.42348
700,344,17.5396,2.61206,0,0,0,0,0,0,0,-1,1924,680,17.5396,-2.61204
707,344,18.5829,3.29352,0,0,0,0,0,0,0,-1,1931,680,18.5828,-3.2935
714,344,0,0,0,0,0,0,0,0,0,-1,1938,680,0,0
721,344,0,0,0,0,0,0,0,0,0,-1,1945,680,0,0
728,344,0,0,0,0,0,0,0,0,0,-1,1952,680,0,0
735,344,0,0,0,0,0,0,0,0,0,-1,1959,680,0,0
742,344,0,0,0,0,0,0,0,0,0,-1,1966,680,0,0
749,344,0,0,0,0,0,0,0,0,0,-1,1973,680,0,0
756,344,0,0,0,0,0,0,0,0,0,-1,1980,680,0,0
763,344,0,0,0,0,0,0,0,0,0,-1,1987,680,0,0
770,344,0,0,0,0,0,0,0,0,0,-1,1994,680,0,0
777,344,0,0,0,0,0,0,0,0,0,-1,2001,680,0,0
784,344,0,0,0,0,0,0,0,0,0,-1,2008,680,0,0
791,344,0,0,0,0,0,0,0,0,0,-1,2015,680,0,0
798,344,0,0,0,0,0,0,0,0,0,-1,2022,680,0,0
805,344,0,0,0,0,0,0,0,0,0,-1,2029,680,0,0
812,344,0,0,0,0,0,0,0,0,0,-1,2036,680,0,0
-700,337,0,0,0,0,0,0,0,0,0,-1,524,687,0,0
-693,337,0,0,0,0,0,0,0,0,0,-1,531,687,0,0
-686,337,0,0,0,0,0,0,0,0,0,-1,538,687,0,0
-679,337,0,0,0,0,0,0,0,0,0,-1,545,687,0,0
-672,337,0,0,0,0,0,0,0,0,0,-1,552,687,0,0
-665,337,0,0,0,0,0,0,0,0,0,-1,559,687,0,0
-658,337,0,0,0,0,0,0,0,0,0,-1,566,687,0,0
-651,337,0,0,0,0,0,0,0,0,0,-1,573,687,0,0
-644,337,0,0,0,0,0,0,0,0,0,-1,580,687,0,0
-637,337,0,0,0,0,0,0,0,0,0,-1,587,687,0,0
-630,337,0,0,0,0,0,0,0,0,0,-1,594,687,0,0
-623,337,0,0,0,0,0,0,0,0,0,-1,601,687,0,0
-616,337,0,0,0,0,0,0,0,0,0,-1,608,687,0,0
-609,337,0,0,0,0,0,0,0,0,0,-1,615,687,0,0
-602,337,0,0,0,0,0,0,0,0,0,-1,622,687,0,0
-595,337,0,0,0,0,0,0,0,0,0,-1,629,687,0,0
-588,337,-10.8413,1.27863,0,0,0,0,0,0,0,-1,636,687,-10.8413,-1.27861
-581,337,-11.2157,1.31567,0,0,0,0,0,0,0,-1,643,687,-11.2157,-1.3157
-574,337,-6.03339,2.0321,0,0,0,0,0,0,0,-1,650,687,-6.03337,-2.03213
-567,337,-13.8102,1.56787,0,0,0,0,0,0,0,-1,657,687,-13.8102,-1.56789
-560,337,-15.5435,2.34247,0,0,0,0,0,0,0,-1,664,687,-15.5435,-2.34247
-553,337,-16.5103,0.444519,0,0,0,0,0,0,0,-1,671,687,-16.5103,-0.44452
-546,337,-15.7353,-1.5368,0,0,0,0,0,0,0,-1,678,687,-15.7353,1.53682
-539,337,-15.7044,-2.64276,0,0,0,0,0,0,0,-1,685,687,-15.7044,2.64273
-532,337,-15.7401,-3.47357,0.00342222,0.00387742,-0.00128306,0.00495291,0.00234672,-0.87318,0.00286087,0.0305749,692,687,-15.7401,3.47355
-525,337,-15.8391,-4.07544,0.00283388,0.00288968,-0.00113742,0.00399955,0.00172402,-0.797661,0.00231645,0.0163464,699,687,-15.839,4.07543
-518,337,-15.8336,-4.69464,0.00231764,0.0020837,-0.000928029,0.00313604,0.0012653,-0.722708,0.00182181,0.0226874,706,687,-15.8335,4.69461
-511,337,-15.8464,-5.28204,0.00190169,0.00135329,-0.000691207,0.0023711,0.000883884,-0.596573,0.00138365,0.0236117,713,687,-15.8464,5.28202
-504,337,-15.8365,-5.91693,0.00157443,0.000706243,-0.000449208,0.00176502,0.000515657,-0.401253,0.00104797,0.0239216,720,687,-15.8365,5.91696
-497,337,-15.8578,-6.49939,0.00137914,0.000206898,-0.000268289,0.00143762,0.000148413,-0.214635,0.000912973,0.0174598,727,687,-15.8578,6.49937
-490,337,-15.8962,-7.07117,0.00131812,-0.000143497,-0.000176217,0.00133907,-0.000164442,-0.118304,0.000952272,0.0146324,734,687,-15.8962,7.07119
-483,337,-15.916,-7.66522,0.00147877,-0.000303864,-0.000199112,0.00150074,-0.000325833,-0.109891,0.00112495,0.0142639,741,687,-15.916,7.66523
-476,337,-15.9067,-8.289,0.00178916,-0.00025523,-0.000374069,0.00185546,-0.000321525,-0.175405,0.00135691,0.0156572,748,687,-15.9067,8.289
-469,337,-15.9117,-8.90918,0,0,0,0,0,0,0,-1,755,687,-15.9117,8.90921
-462,337,-14.186,-8.89264,0,0,0,0,0,0,0,-1,762,687,-14.186,8.89266
-455,337,-6.00574,-3.12933,0,0,0,0,0,0,0,-1,769,687,-6.00576,3.12934
-448,337,-5.30627,-2.07202,0,0,0,0,0,0,0,-1,776,687,-5.30628,2.07205
-441,337,-4.24762,-1.49597,0,0,0,0,0,0,0,-1,783,687,-4.24762,1.49598
-434,337,-6.86908,1.37531,0,0,0,0,0,0,0,-1,790,687,-6.86908,-1.3753
-427,337,-9.92004,2.487,0,0,0,0,0,0,0,-1,797,687,-9.92002,-2.48701
-420,337,-2.95996,-1.76697,0,0,0,0,0,0,0,-1,804,687,-2.95998,1.76696
-413,337,-1.29169,-1.99487,0,0,0,0,0,0,0,-1,811,687,-1.29171,1.9949
-406,337,-1.02356,-1.89563,0,0,0,0,0,0,0,-1,818,687,-1.02357,1.89564
-399,337,-0.472839,-2.21338,0,0,0,0,0,0,0,-1,825,687,-0.472837,2.2134
-392,337,0,0,0,0,0,0,0,0,0,-1,832,687,0,0
-385,337,0,0,0,0,0,0,0,0,0,-1,839,687,0,0
-378,337,0,0,0,0,0,0,0,0,0,-1,846,687,0,0
-371,337,0,0,0,0,0,0,0,0,0,-1,853,687,0,0
-364,337,0,0,0,0,0,0,0,0,0,-1,860,687,0,0
-357,337,0,0,0,0,0,0,0,0,0,-1,867,687,0,0
-350,337,0,0,0,0,0,0,0,0,0,-1,874,687,0,0
-343,337,0,0,0,0,0,0,0,0,0,-1,881,687,0,0
-336,337,0,0,0,0,0,0,0,0,0,-1,888,687,0,0
-329,337,0,0,0,0,0,0,0,0,0,-1,895,687,0,0
-322,337,0,0,0,0,0,0,0,0,0,-1,902,687,0,0
-315,337,0,0,0,0,0,0,0,0,0,-1,909,687,0,0
-308,337,0,0,0,0,0,0,0,0,0,-1,916,687,0,0
-301,337,0,0,0,0,0,0,0,0,0,-1,923,687,0,0
-294,337,0,0,0,0,0,0,0,0,0,-1,930,687,0,0
-287,337,0,0,0,0,0,0,0,0,0,-1,937,687,0,0
-280,337,0,0,0,0,0,0,0,0,0,-1,944,687,0,0
-273,337,0,0,0,0,0,0,0,0,0,-1,951,687,0,0
-266,337,0,0,0,0,0,0,0,0,0,-1,958,687,0,0
-259,337,0,0,0,0,0,0,0,0,0,-1,965,687,0,0
-252,337,0,0,0,0,0,0,0,0,0,-1,972,687,0,0
-245,337,0,0,0,0,0,0,0,0,0,-1,979,687,0,0
-238,337,0,0,0,0,0,0,0,0,0,-1,986,687,0,0
-231,337,0,0,0,0,0,0,0,0,0,-1,993,687,0,0
-224,337,0,0,0,0,0,0,0,0,0,-1,1000,687,0,0
-217,337,0,0,0,0,0,0,0,0,0,-1,1007,687,0,0
-210,337,0,0,0,0,0,0,0,0,0,-1,1014,687,0,0
-203,337,0,0,0,0,0,0,0,0,0,-1,1021,687,0,0
-196,337,0,0,0,0,0,0,0,0,0,-1,1028,687,0,0
-189,337,0,0,0,0,0,0,0,0,0,-1,1035,687,0,0
-182,337,0,0,0,0,0,0,0,0,0,-1,1042,687,0,0
-175,337,0,0,0,0,0,0,0,0,0,-1,1049,687,0,0
-168,337,0,0,0,0,0,0,0,0,0,-1,1056,687,0,0
-161,337,0,0,0,0,0,0,0,0,0,-1,1063,687,0,0
-154,337,0,0,0,0,0,0,0,0,0,-1,1070,687,0,0
-147,337,0,0,0,0,0,0,0,0,0,-1,1077,687,0,0
-140,337,0,0,0,0,0,0,0,0,0,-1,1084,687,0,0
-133,337,0,0,0,0,0,0,0,0,0,-1,1091,687,0,0
-126,337,0,0,0,0,0,0,0,0,0,-1,1098,687,0,0
-119,337,0,0,0,0,0,0,0,0,0,-1,1105,687,0,0
-112,337,0,0,0,0,0,0,0,0,0,-1,1112,687,0,0
-105,337,0,0,0,0,0,0,0,0,0,-1,1119,687,0,0
-98,337,0,0,0,0,0,0,0,0,0,-1,1126,687,0,0
-91,337,0,0,0,0,0,0,0,0,0,-1,1133,687,0,0
-84,337,0,0,0,0,0,0,0,0,0,-1,1140,687,0,0
-77,337,0,0,0,0,0,0,0,0,0,-1,1147,687,0,0
-70,337,0,0,0,0,0,0,0,0,0,-1,1154,687,0,0
-63,337,0,0,0,0,0,0,0,0,0,-1,1161,687,0,0
-56,337,0,0,0,0,0,0,0,0,0,-1,1168,687,0,0
-49,337,0,0,0,0,0,0,0,0,0,-1,1175,687,0,0
-42,337,0,0,0,0,0,0,0,0,0,-1,1182,687,0,0
-35,337,0,0,0,0,0,0,0,0,0,-1,1189,687,0,0
-28,337,0,0,0,0,0,0,0,0,0,-1,1196,687,0,0
-21,337,0,0,0,0,0,0,0,0,0,-1,1203,687,0,0
-14,337,0,0,0,0,0,0,0,0,0,-1,1210,687,0,0
-7,337,0,0,0,0,0,0,0,0,0,-1,1217,687,0,0
0,337,0,0,0,0,0,0,0,0,0,-1,1224,687,0,0
7,337,0,0,0,0,0,0,0,0,0,-1,1231,687,0,0
14,337,0,0,0,0,0,0,0,0,0,-1,1238,687,0,0
21,337,0,0,0,0,0,0,0,0,0,-1,1245,687,0,0
28,337,0,0,0,0,0,0,0,0,0,-1,1252,687,0,0
35,337,0,0,0,0,0,0,0,0,0,-1,1259,687,0,0
42,337,0,0,0,0,0,0,0,0,0,-1,1266,687,0,0
49,337,0,0,0,0,0,0,0,0,0,-1,1273,687,0,0
56,337,0,0,0,0,0,0,0,0,0,-1,1280,687,0,0
63,337,0,0,0,0,0,0,0,0,0,-1,1287,687,0,0
70,337,0,0,0,0,0,0,0,0,0,-1,1294,687,0,0
77,337,0,0,0,0,0,0,0,0,0,-1,1301,687,0,0
84,337,0,0,0,0,0,0,0,0,0,-1,1308,687,0,0
91,337,0,0,0,0,0,0,0,0,0,-1,1315,687,0,0
98,337,0,0,0,0,0,0,0,0,0,-1,1322,687,0,0
105,337,0,0,0,0,0,0,0,0,0,-1,1329,687,0,0
112,337,0,0,0,0,0,0,0,0,0,-1,1336,687,0,0
119,337,0,0,0,0,0,0,0,0,0,-1,1343,687,0,0
126,337,0,0,0,0,0,0,0,0,0,-1,1350,687,0,0
133,337,0,0,0,0,0,0,0,0,0,-1,1357,687,0,0
140,337,0,0,0,0,0,0,0,0,0,-1,1364,687,0,0
147,337,0,0,0,0,0,0,0,0,0,-1,1371,687,0,0
154,337,0,0,0,0,0,0,0,0,0,-1,1378,687,0,0
161,337,0,0,0,0,0,0,0,0,0,-1,1385,687,0,0
168,337,0,0,0,0,0,0,0,0,0,-1,1392,687,0,0
175,337,0,0,0,0,0,0,0,0,0,-1,1399,687,0,0
182,337,0,0,0,0,0,0,0,0,0,-1,1406,687,0,0
189,337,0,0,0,0,0,0,0,0,0,-1,1413,687,0,0
196,337,0,0,0,0,0,0,0,0,0,-1,1420,687,0,0
203,337,0,0,0,0,0,0,0,0,0,-1,1427,687,0,0
210,337,0,0,0,0,0,0,0,0,0,-1,1434,687,0,0
217,337,0,0,0,0,0,0,0,0,0,-1,1441,687,0,0
224,337,0,0,0,0,0,0,0,0,0,-1,1448,687,0,0
231,337,0,0,0,0,0,0,0,0,0,-1,1455,687,0,0
238,337,0,0,0,0,0,0,0,0,0,-1,1462,687,0,0
245,337,0,0,0,0,0,0,0,0,0,-1,1469,687,0,0
252,337,0,0,0,0,0,0,0,0,0,-1,1476,687,0,0
259,337,0,0,0,0,0,0,0,0,0,-1,1483,687,0,0
266,337,0,0,0,0,0,0,0,0,0,-1,1490,687,0,0
273,337,0,0,0,0,0,0,0,0,0,-1,1497,687,0,0
280,337,0,0,0,0,0,0,0,0,0,-1,1504,687,0,0
287,337,0,0,0,0,0,0,0,0,0,-1,1511,687,0,0
294,337,0,0,0,0,0,0,0,0,0,-1,1518,687,0,0
301,337,0,0,0,0,0,0,0,0,0,-1,1525,687,0,0
308,337,0,0,0,0,0,0,0,0,0,-1,1532,687,0,0
315,337,0,0,0,0,0,0,0,0,0,-1,1539,687,0,0
322,337,0,0,0,0,0,0,0,0,0,-1,1546,687,0,0
329,337,0,0,0,0,0,0,0,0,0,-1,1553,687,0,0
336,337,0,0,0,0,0,0,0,0,0,-1,1560,687,0,0
343,337,0,0,0,0,0,0,0,0,0,-1,1567,687,0,0
350,337,0,0,0,0,0,0,0,0,0,-1,1574,687,0,0
357,337,0,0,0,0,0,0,0,0,0,-1,1581,687,0,0
364,337,0,0,0,0,0,0,0,0,0,-1,1588,687,0,0
371,337,0,0,0,0,0,0,0,0,0,-1,1595,687,0,0
378,337,0,0,0,0,0,0,0,0,0,-1,1602,687,0,0
385,337,0,0,0,0,0,0,0,0,0,-1,1609,687,0,0
392,337,0,0,0,0,0,0,0,0,0,-1,1616,687,0,0
399,337,0,0,0,0,0,0,0,0,0,-1,1623,687,0,0
406,337,0,0,0,0,0,0,0,0,0,-1,1630,687,0,0
413,337,0,0,0,0,0,0,0,0,0,-1,1637,687,0,0
420,337,0,0,0,0,0,0,0,0,0,-1,1644,687,0,0
427,337,0,0,0,0,0,0,0,0,0,-1,1651,687,0,0
434,337,0,0,0,0,0,0,0,0,0,-1,1658,687,0,0
441,337,0,0,0,0,0,0,0,0,0,-1,1665,687,0,0
448,337,0,0,0,0,0,0,0,0,0,-1,1672,687,0,0
455,337,0,0,0,0,0,0,0,0,0,-1,1679,687,0,0
462,337,0,0,0,0,0,0,0,0,0,-1,1686,687,0,0
469,337,0,0,0,0,0,0,0,0,0,-1,1693,687,0,0
476,337,0,0,0,0,0,0,0,0,0,-1,1700,687,0,0
483,337,0,0,0,0,0,0,0,0,0,-1,1707,687,0,0
490,337,0,0,0,0,0,0,0,0,0,-1,1714,687,0,0
497,337,0,0,0,0,0,0,0,0,0,-1,1721,687,0,0
504,337,0,0,0,0,0,0,0,0,0,-1,1728,687,0,0
511,337,0,0,0,0,0,0,0,0,0,-1,1735,687,0,0
518,337,18.0369,1.64581,0,0,0,0,0,0,0,-1,1742,687,18.0368,-1.64581
525,337,31.0717,2.13745,0,0,0,0,0,0,0,-1,1749,687,31.0717,-2.13747
532,337,31.5126,2.13904,0,0,0,0,0,0,0,-1,1756,687,31.5125,-2.13905
539,337,31.9684,2.15594,0,0,0,0,0,0,0,-1,1763,687,31.9684,-2.15596
546,337,32.3584,1.43719,0,0,0,0,0,0,0,-1,1770,687,32.3585,-1.43722
553,337,32.1809,1.36395,0,0,0,0,0,0,0,-1,1777,687,32.181,-1.36396
560,337,18.4053,3.62793,0,0,0,0,0,0,0,-1,1784,687,18.4052,-3.6279
567,337,11.9288,1.38776,0,0,0,0,0,0,0,-1,1791,687,11.9288,-1.38777
574,337,10.704,1.19476,0,0,0,0,0,0,0,-1,1798,687,10.704,-1.19478
581,337,8.50427,0.561768,0,0,0,0,0,0,0,-1,1805,687,8.5043,-0.561754
588,337,8.5885,-0.0536499,0,0,0,0,0,0,0,-1,1812,687,8.58844,0.0536788
595,337,13.8816,-1.70703,0,0,0,0,0,0,0,-1,1819,687,13.8816,1.70702
602,337,26.6702,-6.70679,0,0,0,0,0,0,0,-1,1826,687,26.6701,6.70679
609,337,26.6772,-5.995,0.00167329,0.000109123,0.00035762,0.00175118,3.1238e-05,0.214439,0.00115718,0.025996,1833,687,26.6773,5.99502
616,337,26.6368,-5.39471,0.00155346,0.000192035,0.000521771,0.00173042,1.50675e-05,0.326992,0.00114863,0.0169684,1840,687,26.6368,5.3947
623,337,26.6284,-4.80426,0.0014108,0.000408621,0.000611213,0.00170008,0.00011935,0.44204,0.00109577,0.0161648,1847,687,26.6285,4.80429
630,337,26.5865,-4.18811,0.00127557,0.000572765,0.000746974,0.00174967,9.86654e-05,0.56554,0.00113499,0.0199529,1854,687,26.5865,4.18813
637,337,26.5524,-3.58636,0.00100936,0.000793267,0.000800777,0.00170934,9.3279e-05,0.718341,0.00110978,0.0165641,1861,687,26.5524,3.58639
644,337,26.5417,-2.94171,0.000577709,0.000980404,0.000774501,0.0015793,-2.11885e-05,0.912568,0.00106,0.0110455,1868,687,26.5417,2.9417
651,337,26.5215,-2.3028,-8.48321e-05,0.00119157,0.00066352,0.001474,-0.000367261,1.16837,0.00112524,0.0101227,1875,687,26.5215,2.30281
658,337,26.5112,-1.69531,-0.0010388,0.00139895,0.000427605,0.00147178,-0.00111163,1.40209,0.00149635,0.0117557,1882,687,26.5112,1.69532
665,337,26.5299,-1.09497,-0.00232934,0.00159467,5.32562e-05,0.00159539,-0.00233007,1.55723,0.00227956,0.0157888,1889,687,26.5299,1.09496
672,337,26.4977,-0.524902,-0.00409343,0.00177392,-0.000625895,0.00183995,-0.00415946,-1.4657,0.003549,0.0335823,1896,687,26.4977,0.524928
679,337,26.7914,0.0133667,0,0,0,0,0,0,0,-1,1903,687,26.7914,-0.0133699
686,337,18.5614,1.68597,0,0,0,0,0,0,0,-1,1910,687,18.5614,-1.68598
693,337,16.5415,2.21411,0,0,0,0,0,0,0,-1,1917,687,16.5415,-2.2141
700,337,17.2661,2.44379,0,0,0,0,0,0,0,-1,1924,687,17.2661,-2.44378
707,337,17.3544,5.61853,0,0,0,0,0,0,0,-1,1931,687,17.3543,-5.61851
714,337,0,0,0,0,0,0,0,0,0,-1,1938,687,0,0
721,337,0,0,0,0,0,0,0,0,0,-1,1945,687,0,0
728,337,0,0,0,0,0,0,0,0,0,-1,1952,687,0,0
735,337,0,0,0,0,0,0,0,0,0,-1,1959,687,0,0
742,337,0,0,0,0,0,0,0,0,0,-1,1966,687,0,0
749,337,0,0,0,0,0,0,0,0,0,-1,1973,687,0,0
756,337,0,0,0,0,0,0,0,0,0,-1,1980,687,0,0
763,337,0,0,0,0,0,0,0,0,0,-1,1987,687,0,0
770,337,0,0,0,0,0,0,0,0,0,-1,1994,687,0,0
777,337,0,0,0,0,0,0,0,0,0,-1,2001,687,0,0
784,337,0,0,0,0,0,0,0,0,0,-1,2008,687,0,0
791,337,0,0,0,0,0,0,0,0,0,-1,2015,687,0,0
798,337,0,0,0,0,0,0,0,0,0,-1,2022,687,0,0
805,337,0,0,0,0,0,0,0,0,0,-1,2029,687,0,0
812,337,0,0,0,0,0,0,0,0,0,-1,2036,687,0,0
-700,330,0,0,0,0,0,0,0,0,0,-1,524,694,0,0
-693,330,0,0,0,0,0,0,0,0,0,-1,531,694,0,0
-686,330,0,0,0,0,0,0,0,0,0,-1,538,694,0,0
-679,330,0,0,0,0,0,0,0,0,0,-1,545,694,0,0
-672,330,0,0,0,0,0,0,0,0,0,-1,552,694,0,0
-665,330,0,0,0,0,0,0,0,0,0,-1,559,694,0,0
-658,330,0,0,0,0,0,0,0,0,0,-1,566,694,0,0
-651,330,0,0,0,0,0,0,0,0,0,-1,573,694,0,0
-644,330,0,0,0,0,0,0,0,0,0,-1,580,694,0,0
-637,330,0,0,0,0,0,0,0,0,0,-1,587,694,0,0
-630,330,0,0,0,0,0,0,0,0,0,-1,594,694,0,0
-623,330,0,0,0,0,0,0,0,0,0,-1,601,694,0,0
-616,330,0,0,0,0,0,0,0,0,0,-1,608,694,0,0
-609,330,0,0,0,0,0,0,0,0,0,-1,615,694,0,0
-602,330,0,0,0,0,0,0,0,0,0,-1,622,694,0,0
-595,330,-4.67883,1.65515,0,0,0,0,0,0,0,-1,629,694,-4.67881,-1.65515
-588,330,-8.5047,2.67346,0,0,0,0,0,0,0,-1,636,694,-8.50469,-2.67348
-581,330,-12.4227,0.947083,0,0,0,0,0,0,0,-1,643,694,-12.4227,-0.947109
-574,330,-9.02118,1.87952,0,0,0,0,0,0,0,-1,650,694,-9.02115,-1.87953
-567,330,-8.35577,0.909973,0,0,0,0,0,0,0,-1,657,694,-8.35575,-0.909945
-560,330,-13.1036,-0.584656,0,0,0,0,0,0,0,-1,664,694,-13.1035,0.584658
-553,330,-16.2729,-1.07758,0,0,0,0,0,0,0,-1,671,694,-16.273,1.07755
-546,330,-16.2177,-1.97516,0,0,0,0,0,0,0,-1,678,694,-16.2177,1.97516
-539,330,-16.4636,-2.76465,0,0,0,0,0,0,0,-1,685,694,-16.4636,2.76462
-532,330,-16.4366,-3.45129,0.00277397,0.00246499,-0.000628718,0.0032669,0.00197206,-0.664922,0.00189961,0.0161223,692,694,-16.4366,3.45131
-525,330,-16.4071,-4.09808,0.00238805,0.00169512,-0.00051814,0.00266489,0.00141828,-0.490703,0.00153964,0.0109943,699,694,-16.4071,4.09807
-518,330,-16.412,-4.66003,0.00202388,0.00106047,-0.000359579,0.00214328,0.000941065,-0.320622,0.00124048,0.0144744,706,694,-16.412,4.66002
-511,330,-16.4406,-5.25409,0.0017134,0.00052059,-0.000188024,0.00174234,0.000491654,-0.152699,0.00103727,0.0196351,713,694,-16.4406,5.25411
-504,330,-16.4494,-5.88354,0.0014643,8.45606e-05,-1.19585e-05,0.0014644,8.4457e-05,-0.00866639,0.000949368,0.0187883,720,694,-16.4494,5.88356
-497,330,-16.4895,-6.43982,0.00132464,-0.000188975,9.54892e-05,0.00133064,-0.000194975,0.0627552,0.000958717,0.0143691,727,694,-16.4895,6.43979
-490,330,-16.4686,-7.04248,0.00134233,-0.000318254,0.000127014,0.00135199,-0.000327913,0.0758992,0.00102821,0.0143898,734,694,-16.4686,7.04249
-483,330,-16.4844,-7.64807,0.00155262,-0.00022408,3.57311e-05,0.00155334,-0.000224798,0.0201001,0.00111805,0.0139347,741,694,-16.4843,7.64809
-476,330,-16.5339,-8.3147,0.00189109,0.000106187,-0.000242949,0.00192357,7.37092e-05,-0.132893,0.00125853,0.0496176,748,694,-16.5339,8.31468
-469,330,-16.1478,-9.23303,0,0,0,0,0,0,0,-1,755,694,-16.1478,9.23301
-462,330,-7.26733,-3.84833,0,0,0,0,0,0,0,-1,762,694,-7.26731,3.84832
-455,330,-5.04254,-1.79303,0,0,0,0,0,0,0,-1,769,694,-5.04252,1.79305
-448,330,-4.89886,-1.66156,0,0,0,0,0,0,0,-1,776,694,-4.89886,1.66157
-441,330,-5.30676,-2.34045,0,0,0,0,0,0,0,-1,783,694,-5.30679,2.34048
-434,330,-7.20428,1.00024,0,0,0,0,0,0,0,-1,790,694,-7.20431,-1.00027
-427,330,-16.0428,2.89258,0,0,0,0,0,0,0,-1,797,694,-16.0428,-2.89259
-420,330,-29.0331,0.271606,0,0,0,0,0,0,0,-1,804,694,-29.0331,-0.27158
-413,330,-29.0896,0.56366,0,0,0,0,0,0,0,-1,811,694,-29.0896,-0.563671
-406,330,-1.65375,-1.74371,0,0,0,0,0,0,0,-1,818,694,-1.65375,1.74371
-399,330,0,0,0,0,0,0,0,0,0,-1,825,694,0,0
-392,330,0,0,0,0,0,0,0,0,0,-1,832,694,0,0
-385,330,0,0,0,0,0,0,0,0,0,-1,839,694,0,0
-378,330,0,0,0,0,0,0,0,0,0,-1,846,694,0,0
-371,330,0,0,0,0,0,0,0,0,0,-1,853,694,0,0
-364,330,0,0,0,0,0,0,0,0,0,-1,860,694,0,0
-357,330,0,0,0,0,0,0,0,0,0,-1,867,694,0,0
-350,330,0,0,0,0,0,0,0,0,0,-1,874,694,0,0
-343,330,0,0,0,0,0,0,0,0,0,-1,881,694,0,0
-336,330,0,0,0,0,0,0,0,0,0,-1,888,694,0,0
-329,330,0,0,0,0,0,0,0,0,0,-1,895,694,0,0
-322,330,0,0,0,0,0,0,0,0,0,-1,902,694,0,0
-315,330,0,0,0,0,0,0,0,0,0,-1,909,694,0,0
-308,330,0,0,0,0,0,0,0,0,0,-1,916,694,0,0
-301,330,0,0,0,0,0,0,0,0,0,-1,923,694,0,0
-294,330,0,0,0,0,0,0,0,0,0,-1,930,694,0,0
-287,330,0,0,0,0,0,0,0,0,0,-1,937,694,0,0
-280,330,0,0,0,0,0,0,0,0,0,-1,944,694,0,0
-273,330,0,0,0,0,0,0,0,0,0,-1,951,694,0,0
-266,330,0,0,0,0,0,0,0,0,0,-1,958,694,0,0
-259,330,0,0,0,0,0,0,0,0,0,-1,965,694,0,0
-252,330,0,0,0,0,0,0,0,0,0,-1,972,694,0,0
-245,330,0,0,0,0,0,0,0,0,0,-1,979,694,0,0
-238,330,0,0,0,0,0,0,0,0,0,-1,986,694,0,0
-231,330,0,0,0,0,0,0,0,0,0,-1,993,694,0,0
-224,330,0,0,0,0,0,0,0,0,0,-1,1000,694,0,0
-217,330,0,0,0,0,0,0,0,0,0,-1,1007,694,0,0
-210,330,0,0,0,0,0,0,0,0,0,-1,1014,694,0,0
-203,330,0,0,0,0,0,0,0,0,0,-1,1021,694,0,0
-196,330,0,0,0,0,0,0,0,0,0,-1,1028,694,0,0
-189,330,0,0,0,0,0,0,0,0,0,-1,1035,694,0,0
-182,330,0,0,0,0,0,0,0,0,0,-1,1042,694,0,0
-175,330,0,0,0,0,0,0,0,0,0,-1,1049,694,0,0
-168,330,0,0,0,0,0,0,0,0,0,-1,1056,694,0,0
-161,330,0,0,0,0,0,0,0,0,0,-1,1063,694,0,0
-154,330,0,0,0,0,0,0,0,0,0,-1,1070,694,0,0
-147,330,0,0,0,0,0,0,0,0,0,-1,1077,694,0,0
-140,330,0,0,0,0,0,0,0,0,0,-1,1084,694,0,0
-133,330,0,0,0,0,0,0,0,0,0,-1,1091,694,0,0
-126,330,0,0,0,0,0,0,0,0,0,-1,1098,694,0,0
-119,330,0,0,0,0,0,0,0,0,0,-1,1105,694,0,0
-112,330,0,0,0,0,0,0,0,0,0,-1,1112,694,0,0
-105,330,0,0,0,0,0,0,0,0,0,-1,1119,694,0,0
-98,330,0,0,0,0,0,0,0,0,0,-1,1126,694,0,0
-91,330,0,0,0,0,0,0,0,0,0,-1,1133,694,0,0
-84,330,0,0,0,0,0,0,0,0,0,-1,1140,694,0,0
-77,330,0,0,0,0,0,0,0,0,0,-1,1147,694,0,0
-70,330,0,0,0,0,0,0,0,0,0,-1,1154,694,0,0
-63,330,0,0,0,0,0,0,0,0,0,-1,1161,694,0,0
-56,330,0,0,0,0,0,0,0,0,0,-1,1168,694,0,0
-49,330,0,0,0,0,0,0,0,0,0,-1,1175,694,0,0
-42,330,0,0,0,0,0,0,0,0,0,-1,1182,694,0,0
-35,330,0,0,0,0,0,0,0,0,0,-1,1189,694,0,0
-28,330,0,0,0,0,0,0,0,0,0,-1,1196,694,0,0
-21,330,0,0,0,0,0,0,0,0,0,-1,1203,694,0,0
-14,330,0,0,0,0,0,0,0,0,0,-1,1210,694,0,0
-7,330,0,0,0,0,0,0,0,0,0,-1,1217,694,0,0
0,330,0,0,0,0,0,0,0,0,0,-1,1224,694,0,0
7,330,0,0,0,0,0,0,0,0,0,-1,1231,694,0,0
14,330,0,0,0,0,0,0,0,0,0,-1,1238,694,0,0
21,330,0,0,0,0,0,0,0,0,0,-1,1245,694,0,0
28,330,0,0,0,0,0,0,0,0,0,-1,1252,694,0,0
35,330,0,0,0,0,0,0,0,0,0,-1,1259,694,0,0
42,330,0,0,0,0,0,0,0,0,0,-1,1266,694,0,0
49,330,0,0,0,0,0,0,0,0,0,-1,1273,694,0,0
56,330,0,0,0,0,0,0,0,0,0,-1,1280,694,0,0
63,330,0,0,0,0,0,0,0,0,0,-1,1287,694,0,0
70,330,0,0,0,0,0,0,0,0,0,-1,1294,694,0,0
77,330,0,0,0,0,0,0,0,0,0,-1,1301,694,0,0
84,330,0,0,0,0,0,0,0,0,0,-1,1308,694,0,0
91,330,0,0,0,0,0,0,0,0,0,-1,1315,694,0,0
98,330,0,0,0,0,0,0,0,0,0,-1,1322,694,0,0
105,330,0,0,0,0,0,0,0,0,0,-1,1329,694,0,0
112,330,0,0,0,0,0,0,0,0,0,-1,1336,694,0,0
119,330,0,0,0,0,0,0,0,0,0,-1,1343,694,0,0
126,330,0,0,0,0,0,0,0,0,0,-1,1350,694,0,0
133,330,0,0,0,0,0,0,0,0,0,-1,1357,694,0,0
140,330,0,0,0,0,0,0,0,0,0,-1,1364,694,0,0
147,330,0,0,0,0,0,0,0,0,0,-1,1371,694,0,0
154,330,0,0,0,0,0,0,0,0,0,-1,1378,694,0,0
161,330,0,0,0,0,0,0,0,0,0,-1,1385,694,0,0
168,330,0,0,0,0,0,0,0,0,0,-1,1392,694,0,0
175,330,0,0,0,0,0,0,0,0,0,-1,1399,694,0,0
182,330,0,0,0,0,0,0,0,0,0,-1,1406,694,0,0
189,330,0,0,0,0,0,0,0,0,0,-1,1413,694,0,0
196,330,0,0,0,0,0,0,0,0,0,-1,1420,694,0,0
203,330,0,0,0,0,0,0,0,0,0,-1,1427,694,0,0
210,330,0,0,0,0,0,0,0,0,0,-1,1434,694,0,0
217,330,0,0,0,0,0,0,0,0,0,-1,1441,694,0,0
224,330,0,0,0,0,0,0,0,0,0,-1,1448,694,0,0
231,330,0,0,0,0,0,0,0,0,0,-1,1455,694,0,0
238,330,0,0,0,0,0,0,0,0,0,-1,1462,694,0,0
245,330,0,0,0,0,0,0,0,0,0,-1,1469,694,0,0
252,330,0,0,0,0,0,0,0,0,0,-1,1476,694,0,0
259,330,0,0,0,0,0,0,0,0,0,-1,1483,694,0,0
266,330,0,0,0,0,0,0,0,0,0,-1,1490,694,0,0
273,330,0,0,0,0,0,0,0,0,0,-1,1497,694,0,0
280,330,0,0,0,0,0,0,0,0,0,-1,1504,694,0,0
287,330,0,0,0,0,0,0,0,0,0,-1,1511,694,0,0
294,330,0,0,0,0,0,0,0,0,0,-1,1518,694,0,0
301,330,0,0,0,0,0,0,0,0,0,-1,1525,694,0,0
308,330,0,0,0,0,0,0,0,0,0,-1,1532,694,0,0
315,330,0,0,0,0,0,0,0,0,0,-1,1539,694,0,0
322,330,0,0,0,0,0,0,0,0,0,-1,1546,694,0,0
329,330,0,0,0,0,0,0,0,0,0,-1,1553,694,0,0
336,330,0,0,0,0,0,0,0,0,0,-1,1560,694,0,0
343,330,0,0,0,0,0,0,0,0,0,-1,1567,694,0,0
350,330,0,0,0,0,0,0,0,0,0,-1,1574,694,0,0
357,330,0,0,0,0,0,0,0,0,0,-1,1581,694,0,0
364,330,0,0,0,0,0,0,0,0,0,-1,1588,694,0,0
371,330,0,0,0,0,0,0,0,0,0,-1,1595,694,0,0
378,330,0,0,0,0,0,0,0,0,0,-1,1602,694,0,0
385,330,0,0,0,0,0,0,0,0,0,-1,1609,694,0,0
392,330,0,0,0,0,0,0,0,0,0,-1,1616,694,0,0
399,330,0,0,0,0,0,0,0,0,0,-1,1623,694,0,0
406,330,0,0,0,0,0,0,0,0,0,-1,1630,694,0,0
413,330,0,0,0,0,0,0,0,0,0,-1,1637,694,0,0
420,330,0,0,0,0,0,0,0,0,0,-1,1644,694,0,0
427,330,0,0,0,0,0,0,0,0,0,-1,1651,694,0,0
434,330,0,0,0,0,0,0,0,0,0,-1,1658,694,0,0
441,330,0,0,0,0,0,0,0,0,0,-1,1665,694,0,0
448,330,0,0,0,0,0,0,0,0,0,-1,1672,694,0,0
455,330,0,0,0,0,0,0,0,0,0,-1,1679,694,0,0
462,330,0,0,0,0,0,0,0,0,0,-1,1686,694,0,0
469,330,0,0,0,0,0,0,0,0,0,-1,1693,694,0,0
476,330,0,0,0,0,0,0,0,0,0,-1,1700,694,0,0
483,330,0,0,0,0,0,0,0,0,0,-1,1707,694,0,0
490,330,0,0,0,0,0,0,0,0,0,-1,1714,694,0,0
497,330,0,0,0,0,0,0,0,0,0,-1,1721,694,0,0
504,330,0,0,0,0,0,0,0,0,0,-1,1728,694,0,0
511,330,0,0,0,0,0,0,0,0,0,-1,1735,694,0,0
518,330,0,0,0,0,0,0,0,0,0,-1,1742,694,0,0
525,330,30.6694,0.69519,0,0,0,0,0,0,0,-1,1749,694,30.6694,-0.695206
532,330,30.9469,1.32501,0,0,0,0,0,0,0,-1,1756,694,30.9469,-1.32501
539,330,31.5155,1.62506,0,0,0,0,0,0,0,-1,1763,694,31.5155,-1.62507
546,330,31.4187,1.85651,0,0,0,0,0,0,0,-1,1770,694,31.4187,-1.85651
553,330,31.8452,1.81476,0,0,0,0,0,0,0,-1,1777,694,31.8452,-1.81475
560,330,32.2401,2.43225,0,0,0,0,0,0,0,-1,1784,694,32.2401,-2.43227
567,330,18.0321,3.98578,0,0,0,0,0,0,0,-1,1791,694,18.0321,-3.98576
574,330,12.0454,2.1662,0,0,0,0,0,0,0,-1,1798,694,12.0455,-2.16618
581,330,11.4215,4.50836,0,0,0,0,0,0,0,-1,1805,694,11.4215,-4.50837
588,330,6.45667,-0.0630493,0,0,0,0,0,0,0,-1,1812,694,6.45661,0.0630695
595,330,8.23193,-0.258484,0,0,0,0,0,0,0,-1,1819,694,8.23188,0.258459
602,330,27.0597,-6.79565,0,0,0,0,0,0,0,-1,1826,694,27.0597,6.79567
609,330,27.1703,-6.0304,0.00175823,0.000161578,0.000419739,0.00186185,5.79586e-05,0.242027,0.00122237,0.038041,1833,694,27.1703,6.0304
616,330,27.249,-5.38422,0.00156673,5.89883e-05,0.00053497,0.00173726,-0.00011154,0.30858,0.00119709,0.0110468,1840,694,27.249,5.38421
623,330,27.2319,-4.77454,0.00139123,0.000184183,0.000561469,0.00161202,-3.66033e-05,0.374656,0.00108709,0.0130749,1847,694,27.232,4.77455
630,330,27.2296,-4.15137,0.00123482,0.000292347,0.000641562,0.00155962,-3.24482e-05,0.46864,0.00105073,0.0135644,1854,694,27.2296,4.15139
637,330,27.2056,-3.53467,0.000902074,0.000458815,0.000632515,0.00135066,1.02242e-05,0.616885,0.000897054,0.0126783,1861,694,27.2056,3.53468
644,330,27.172,-2.90723,0.000433622,0.000629751,0.000569879,0.00110994,-4.6568e-05,0.870603,0.000755962,0.00818637,1868,694,27.1721,2.90722
651,330,27.1533,-2.28528,-0.000217449,0.000835811,0.000446977,0.000999925,-0.000381564,1.21891,0.000823806,0.0110062,1875,694,27.1533,2.28527
658,330,27.1139,-1.68231,-0.00110144,0.00106691,0.000235405,0.00109217,-0.00112671,1.46389,0.00128112,0.0120975,1882,694,27.1139,1.68234
665,330,27.0814,-1.06744,-0.00224437,0.00131444,-7.61217e-05,0.00131607,-0.002246,-1.54942,0.00207979,0.0109196,1889,694,27.0814,1.06746
672,330,27.136,-0.414856,-0.00373348,0.00159226,-0.000577444,0.00165415,-0.00379537,-1.46402,0.00322622,0.0259622,1896,694,27.136,0.414851
679,330,26.783,0.10083,-0.00598512,0.0017301,-0.00138228,0.00197028,-0.0062253,-1.39876,0.00493972,0.0421321,1903,694,26.783,-0.100823
686,330,26.5006,0.738037,0,0,0,0,0,0,0,-1,1910,694,26.5007,-0.738021
693,330,17.3999,2.5976,0,0,0,0,0,0,0,-1,1917,694,17.4,-2.59759
700,330,17.1072,4.13,0,0,0,0,0,0,0,-1,1924,694,17.1071,-4.13002
707,330,16.663,4.88672,0,0,0,0,0,0,0,-1,1931,694,16.6629,-4.88673
714,330,16.5454,5.80896,0,0,0,0,0,0,0,-1,1938,694,16.5454,-5.80899
721,330,0,0,0,0,0,0,0,0,0,-1,1945,694,0,0
728,330,0,0,0,0,0,0,0,0,0,-1,1952,694,0,0
735,330,0,0,0,0,0,0,0,0,0,-1,1959,694,0,0
742,330,0,0,0,0,0,0,0,0,0,-1,1966,694,0,0
749,330,0,0,0,0,0,0,0,0,0,-1,1973,694,0,0
756,330,0,0,0,0,0,0,0,0,0,-1,1980,694,0,0
763,330,0,0,0,0,0,0,0,0,0,-1,1987,694,0,0
770,330,0,0,0,0,0,0,0,0,0,-1,1994,694,0,0
777,330,0,0,0,0,0,0,0,0,0,-1,2001,694,0,0
784,330,0,0,0,0,0,0,0,0,0,-1,2008,694,0,0
791,330,0,0,0,0,0,0,0,0,0,-1,2015,694,0,0
798,330,0,0,0,0,0,0,0,0,0,-1,2022,694,0,0
805,330,0,0,0,0,0,0,0,0,0,-1,2029,694,0,0
812,330,0,0,0,0,0,0,0,0,0,-1,2036,694,0,0
-700,323,0,0,0,0,0,0,0,0,0,-1,524,701,0,0
-693,323,0,0,0,0,0,0,0,0,0,-1,531,701,0,0
-686,323,0,0,0,0,0,0,0,0,0,-1,538,701,0,0
-679,323,0,0,0,0,0,0,0,0,0,-1,545,701,0,0
-672,323,0,0,0,0,0,0,0,0,0,-1,552,701,0,0
-665,323,0,0,0,0,0,0,0,0,0,-1,559,701,0,0
-658,323,0,0,0,0,0,0,0,0,0,-1,566,701,0,0
-651,323,0,0,0,0,0,0,0,0,0,-1,573,701,0,0
-644,323,0,0,0,0,0,0,0,0,0,-1,580,701,0,0
-637,323,0,0,0,0,0,0,0,0,0,-1,587,701,0,0
-630,323,0,0,0,0,0,0,0,0,0,-1,594,701,0,0
-623,323,0,0,0,0,0,0,0,0,0,-1,601,701,0,0
-616,323,0,0,0,0,0,0,0,0,0,-1,608,701,0,0
-609,323,0,0,0,0,0,0,0,0,0,-1,615,701,0,0
-602,323,-4.15833,2.12256,0,0,0,0,0,0,0,-1,622,701,-4.1583,-2.12257
-595,323,-4.052,1.79156,0,0,0,0,0,0,0,-1,629,701,-4.05198,-1.79158
-588,323,-4.07019,1.94543,0,0,0,0,0,0,0,-1,636,701,-4.07019,-1.94542
-581,323,-6.63727,0.562805,0,0,0,0,0,0,0,-1,643,701,-6.63728,-0.56279
-574,323,-6.15887,0.426697,0,0,0,0,0,0,0,-1,650,701,-6.15887,-0.426727
-567,323,-10.0015,0.0371094,0,0,0,0,0,0,0,-1,657,701,-10.0015,-0.037126
-560,323,-16.3503,-1.16956,0,0,0,0,0,0,0,-1,664,701,-16.3503,1.16957
-553,323,-16.9679,-1.80151,0,0,0,0,0,0,0,-1,671,701,-16.9679,1.80151
-546,323,-16.9407,-2.28027,0.00335058,0.00279681,-0.000364281,0.00353126,0.00261613,-0.460435,0.00211615,0.0244202,678,701,-16.9407,2.28025
-539,323,-16.9144,-2.79608,0.00297245,0.00227357,-0.000424743,0.00317302,0.002073,-0.441183,0.00186043,0.0200671,685,701,-16.9144,2.79606
-532,323,-16.9631,-3.4386,0.00257474,0.00171636,-0.000384308,0.00272165,0.00156944,-0.365142,0.00157749,0.0113173,692,701,-16.9631,3.43861
-525,323,-16.994,-4.05304,0.00212443,0.00115086,-0.000245558,0.00218286,0.00109243,-0.233599,0.00126027,0.00831083,699,701,-16.994,4.05305
-518,323,-17.01,-4.62732,0.00178686,0.000574786,-0.000108603,0.00179651,0.000565132,-0.0886597,0.00106073,0.0103449,706,701,-17.01,4.62731
-511,323,-17.0469,-5.21027,0.00150384,7.99017e-05,5.4769e-05,0.00150594,7.77982e-05,0.0383876,0.000979058,0.0140931,713,701,-17.0469,5.21027
-504,323,-17.0672,-5.80573,0.00117936,-0.000288297,0.000247539,0.00121999,-0.000328923,0.16267,0.000942299,0.0152612,720,701,-17.0672,5.80573
-497,323,-17.0735,-6.38928,0.000912216,-0.000488242,0.000389225,0.00101312,-0.000589147,0.253663,0.000935804,0.0124855,727,701,-17.0735,6.38931
-490,323,-17.088,-6.99017,0.000747164,-0.000544869,0.000512543,0.000925791,-0.000723496,0.335349,0.000954601,0.0135716,734,701,-17.088,6.99015
-483,323,-17.0782,-7.5578,0.000620186,-0.000299314,0.000539195,0.000869027,-0.000548155,0.43238,0.000825172,0.0278949,741,701,-17.0782,7.55777
-476,323,-16.8941,-8.51117,0,0,0,0,0,0,0,-1,748,701,-16.8941,8.51117
-469,323,-8.33301,-3.64001,0,0,0,0,0,0,0,-1,755,701,-8.33298,3.64
-462,323,-5.29431,-1.45697,0,0,0,0,0,0,0,-1,762,701,-5.29431,1.45699
-455,323,-5.0658,-1.36639,0,0,0,0,0,0,0,-1,769,701,-5.06578,1.3664
-448,323,-4.91608,-1.59601,0,0,0,0,0,0,0,-1,776,701,-4.91606,1.59604
-441,323,-14.4006,0.535217,0,0,0,0,0,0,0,-1,783,701,-14.4006,-0.535203
-434,323,-15.3158,2.479,0,0,0,0,0,0,0,-1,790,701,-15.3158,-2.47898
-427,323,-28.3923,1.16797,0,0,0,0,0,0,0,-1,797,701,-28.3923,-1.16796
-420,323,-28.7292,1.09302,0,0,0,0,0,0,0,-1,804,701,-28.7292,-1.09304
-413,323,-28.7955,1.22418,0,0,0,0,0,0,0,-1,811,701,-28.7956,-1.22419
-406,323,0,0,0,0,0,0,0,0,0,-1,818,701,0,0
-399,323,0,0,0,0,0,0,0,0,0,-1,825,701,0,0
-392,323,0,0,0,0,0,0,0,0,0,-1,832,701,0,0
-385,323,0,0,0,0,0,0,0,0,0,-1,839,701,0,0
-378,323,0,0,0,0,0,0,0,0,0,-1,846,701,0,0
-371,323,0,0,0,0,0,0,0,0,0,-1,853,701,0,0
-364,323,0,0,0,0,0,0,0,0,0,-1,860,701,0,0
-357,323,0,0,0,0,0,0,0,0,0,-1,867,701,0,0
-350,323,0,0,0,0,0,0,0,0,0,-1,874,701,0,0
-343,323,0,0,0,0,0,0,0,0,0,-1,881,701,0,0
-336,323,0,0,0,0,0,0,0,0,0,-1,888,701,0,0
-329,323,0,0,0,0,0,0,0,0,0,-1,895,701,0,0
-322,323,0,0,0,0,0,0,0,0,0,-1,902,701,0,0
-315,323,0,0,0,0,0,0,0,0,0,-1,909,701,0,0
-308,323,0,0,0,0,0,0,0,0,0,-1,916,701,0,0
-301,323,0,0,0,0,0,0,0,0,0,-1,923,701,0,0
-294,323,0,0,0,0,0,0,0,0,0,-1,930,701,0,0
-287,323,0,0,0,0,0,0,0,0,0,-1,937,701,0,0
-280,323,0,0,0,0,0,0,0,0,0,-1,944,701,0,0
-273,323,0,0,0,0,0,0,0,0,0,-1,951,701,0,0
-266,323,0,0,0,0,0,0,0,0,0,-1,958,701,0,0
-259,323,0,0,0,0,0,0,0,0,0,-1,965,701,0,0
-252,323,0,0,0,0,0,0,0,0,0,-1,972,701,0,0
-245,323,0,0,0,0,0,0,0,0,0,-1,979,701,0,0
-238,323,0,0,0,0,0,0,0,0,0,-1,986,701,0,0
-231,323,0,0,0,0,0,0,0,0,0,-1,993,701,0,0
-224,323,0,0,0,0,0,0,0,0,0,-1,1000,701,0,0
-217,323,0,0,0,0,0,0,0,0,0,-1,1007,701,0,0
-210,323,0,0,0,0,0,0,0,0,0,-1,1014,701,0,0
-203,323,0,0,0,0,0,0,0,0,0,-1,1021,701,0,0
-196,323,0,0,0,0,0,0,0,0,0,-1,1028,701,0,0
-189,323,0,0,0,0,0,0,0,0,0,-1,1035,701,0,0
-182,323,0,0,0,0,0,0,0,0,0,-1,1042,701,0,0
-175,323,0,0,0,0,0,0,0,0,0,-1,1049,701,0,0
-168,323,0,0,0,0,0,0,0,0,0,-1,1056,701,0,0
-161,323,0,0,0,0,0,0,0,0,0,-1,1063,701,0,0
-154,323,0,0,0,0,0,0,0,0,0,-1,1070,701,0,0
-147,323,0,0,0,0,0,0,0,0,0,-1,1077,701,0,0
-140,323,0,0,0,0,0,0,0,0,0,-1,1084,701,0,0
-133,323,0,0,0,0,0,0,0,0,0,-1,1091,701,0,0
-126,323,0,0,0,0,0,0,0,0,0,-1,1098,701,0,0
-119,323,0,0,0,0,0,0,0,0,0,-1,1105,701,0,0
-112,323,0,0,0,0,0,0,0,0,0,-1,1112,701,0,0
-105,323,0,0,0,0,0,0,0,0,0,-1,1119,701,0,0
-98,323,0,0,0,0,0,0,0,0,0,-1,1126,701,0,0
-91,323,0,0,0,0,0,0,0,0,0,-1,1133,701,0,0
-84,323,0,0,0,0,0,0,0,0,0,-1,1140,701,0,0
-77,323,0,0,0,0,0,0,0,0,0,-1,1147,701,0,0
-70,323,0,0,0,0,0,0,0,0,0,-1,1154,701,0,0
-63,323,0,0,0,0,0,0,0,0,0,-1,1161,701,0,0
-56,323,0,0,0,0,0,0,0,0,0,-1,1168,701,0,0
-49,323,0,0,0,0,0,0,0,0,0,-1,1175,701,0,0
-42,323,0,0,0,0,0,0,0,0,0,-1,1182,701,0,0
-35,323,0,0,0,0,0,0,0,0,0,-1,1189,701,0,0
-28,323,0,0,0,0,0,0,0,0,0,-1,1196,701,0,0
-21,323,0,0,0,0,0,0,0,0,0,-1,1203,701,0,0
-14,323,0,0,0,0,0,0,0,0,0,-1,1210,701,0,0
-7,323,0,0,0,0,0,0,0,0,0,-1,1217,701,0,0
0,323,0,0,0,0,0,0,0,0,0,-1,1224,701,0,0
7,323,0,0,0,0,0,0,0,0,0,-1,1231,701,0,0
14,323,0,0,0,0,0,0,0,0,0,-1,1238,701,0,0
21,323,0,0,0,0,0,0,0,0,0,-1,1245,701,0,0
28,323,0,0,0,0,0,0,0,0,0,-1,1252,701,0,0
35,323,0,0,0,0,0,0,0,0,0,-1,1259,701,0,0
42,323,0,0,0,0,0,0,0,0,0,-1,1266,701,0,0
49,323,0,0,0,0,0,0,0,0,0,-1,1273,701,0,0
56,323,0,0,0,0,0,0,0,0,0,-1,1280,701,0,0
63,323,0,0,0,0,0,0,0,0,0,-1,1287,701,0,0
70,323,0,0,0,0,0,0,0,0,0,-1,1294,701,0,0
77,323,0,0,0,0,0,0,0,0,0,-1,1301,701,0,0
84,323,0,0,0,0,0,0,0,0,0,-1,1308,701,0,0
91,323,0,0,0,0,0,0,0,0,0,-1,1315,701,0,0
98,323,0,0,0,0,0,0,0,0,0,-1,1322,701,0,0
105,323,0,0,0,0,0,0,0,0,0,-1,1329,701,0,0
112,323,0,0,0,0,0,0,0,0,0,-1,1336,701,0,0
119,323,0,0,0,0,0,0,0,0,0,-1,1343,701,0,0
126,323,0,0,0,0,0,0,0,0,0,-1,1350,701,0,0
133,323,0,0,0,0,0,0,0,0,0,-1,1357,701,0,0
140,323,0,0,0,0,0,0,0,0,0,-1,1364,701,0,0
147,323,0,0,0,0,0,0,0,0,0,-1,1371,701,0,0
154,323,0,0,0,0,0,0,0,0,0,-1,1378,701,0,0
161,323,0,0,0,0,0,0,0,0,0,-1,1385,701,0,0
168,323,0,0,0,0,0,0,0,0,0,-1,1392,701,0,0
175,323,0,0,0,0,0,0,0,0,0,-1,1399,701,0,0
182,323,0,0,0,0,0,0,0,0,0,-1,1406,701,0,0
189,323,0,0,0,0,0,0,0,0,0,-1,1413,701,0,0
196,323,0,0,0,0,0,0,0,0,0,-1,1420,701,0,0
203,323,0,0,0,0,0,0,0,0,0,-1,1427,701,0,0
210,323,0,0,0,0,0,0,0,0,0,-1,1434,701,0,0
217,323,0,0,0,0,0,0,0,0,0,-1,1441,701,0,0
224,323,0,0,0,0,0,0,0,0,0,-1,1448,701,0,0
231,323,0,0,0,0,0,0,0,0,0,-1,1455,701,0,0
238,323,0,0,0,0,0,0,0,0,0,-1,1462,701,0,0
245,323,0,0,0,0,0,0,0,0,0,-1,1469,701,0,0
252,323,0,0,0,0,0,0,0,0,0,-1,1476,701,0,0
259,323,0,0,0,0,0,0,0,0,0,-1,1483,701,0,0
266,323,0,0,0,0,0,0,0,0,0,-1,1490,701,0,0
273,323,0,0,0,0,0,0,0,0,0,-1,1497,701,0,0
280,323,0,0,0,0,0,0,0,0,0,-1,1504,701,0,0
287,323,0,0,0,0,0,0,0,0,0,-1,1511,701,0,0
294,323,0,0,0,0,0,0,0,0,0,-1,1518,701,0,0
301,323,0,0,0,0,0,0,0,0,0,-1,1525,701,0,0
308,323,0,0,0,0,0,0,0,0,0,-1,1532,701,0,0
315,323,0,0,0,0,0,0,0,0,0,-1,1539,701,0,0
322,323,0,0,0,0,0,0,0,0,0,-1,1546,701,0,0
329,323,0,0,0,0,0,0,0,0,0,-1,1553,701,0,0
336,323,0,0,0,0,0,0,0,0,0,-1,1560,701,0,0
343,323,0,0,0,0,0,0,0,0,0,-1,1567,701,0,0
350,323,0,0,0,0,0,0,0,0,0,-1,1574,701,0,0
357,323,0,0,0,0,0,0,0,0,0,-1,1581,701,0,0
364,323,0,0,0,0,0,0,0,0,0,-1,1588,701,0,0
371,323,0,0,0,0,0,0,0,0,0,-1,1595,701,0,0
378,323,0,0,0,0,0,0,0,0,0,-1,1602,701,0,0
385,323,0,0,0,0,0,0,0,0,0,-1,1609,701,0,0
392,323,0,0,0,0,0,0,0,0,0,-1,1616,701,0,0
399,323,0,0,0,0,0,0,0,0,0,-1,1623,701,0,0
406,323,0,0,0,0,0,0,0,0,0,-1,1630,701,0,0
413,323,0,0,0,0,0,0,0,0,0,-1,1637,701,0,0
420,323,0,0,0,0,0,0,0,0,0,-1,1644,701,0,0
427,323,0,0,0,0,0,0,0,0,0,-1,1651,701,0,0
434,323,0,0,0,0,0,0,0,0,0,-1,1658,701,0,0
441,323,0,0,0,0,0,0,0,0,0,-1,1665,701,0,0
448,323,0,0,0,0,0,0,0,0,0,-1,1672,701,0,0
455,323,0,0,0,0,0,0,0,0,0,-1,1679,701,0,0
462,323,0,0,0,0,0,0,0,0,0,-1,1686,701,0,0
469,323,0,0,0,0,0,0,0,0,0,-1,1693,701,0,0
476,323,0,0,0,0,0,0,0,0,0,-1,1700,701,0,0
483,323,0,0,0,0,0,0,0,0,0,-1,1707,701,0,0
490,323,0,0,0,0,0,0,0,0,0,-1,1714,701,0,0
497,323,0,0,0,0,0,0,0,0,0,-1,1721,701,0,0
504,323,0,0,0,0,0,0,0,0,0,-1,1728,701,0,0
511,323,0,0,0,0,0,0,0,0,0,-1,1735,701,0,0
518,323,0,0,0,0,0,0,0,0,0,-1,1742,701,0,0
525,323,0,0,0,0,0,0,0,0,0,-1,1749,701,0,0
532,323,33.6193,1.69446,0,0,0,0,0,0,0,-1,1756,701,33.6193,-1.69444
539,323,32.2698,2.44037,0,0,0,0,0,0,0,-1,1763,701,32.2697,-2.44036
546,323,31.1644,3.9444,0,0,0,0,0,0,0,-1,1770,701,31.1644,-3.94438
553,323,30.2488,5.8775,0,0,0,0,0,0,0,-1,1777,701,30.2487,-5.87752
560,323,40.6711,1.25153,0,0,0,0,0,0,0,-1,1784,701,40.6711,-1.25154
567,323,42.1637,2.01208,0,0,0,0,0,0,0,-1,1791,701,42.1637,-2.01207
574,323,12.514,5.89685,0,0,0,0,0,0,0,-1,1798,701,12.5141,-5.89683
581,323,11.821,5.3476,0,0,0,0,0,0,0,-1,1805,701,11.821,-5.34762
588,323,11.7933,7.00818,0,0,0,0,0,0,0,-1,1812,701,11.7933,-7.00819
595,323,6.67847,0.06604,0,0,0,0,0,0,0,-1,1819,701,6.67841,-0.0660418
602,323,11.2856,-0.595459,0,0,0,0,0,0,0,-1,1826,701,11.2856,0.595433
609,323,27.8608,-5.97797,0,0,0,0,0,0,0,-1,1833,701,27.8608,5.978
616,323,27.8584,-5.34875,-0.000256509,0.000299793,0.000886976,0.000951209,-0.000907925,0.937339,0.00107347,0.0134887,1840,701,27.8583,5.34878
623,323,27.8422,-4.72668,0.000628738,0.000143526,0.000707019,0.00113362,-0.000361353,0.620123,0.000900691,0.0123323,1847,701,27.8422,4.7267
630,323,27.8258,-4.09949,0.00132845,5.53629e-05,0.000612621,0.00157536,-0.000191548,0.383125,0.00111957,0.0135487,1854,701,27.8259,4.09947
637,323,27.8275,-3.48865,0.000968929,0.000177671,0.00055819,0.00125748,-0.000110877,0.477104,0.000877615,0.0109602,1861,701,27.8275,3.48862
644,323,27.7957,-2.89331,0.000492492,0.000356404,0.000476044,0.000905331,-5.6435e-05,0.714411,0.000623218,0.00792086,1868,701,27.7957,2.89331
651,323,27.7826,-2.25848,-0.000127206,0.000587128,0.000354713,0.000733339,-0.000273417,1.17982,0.000601129,0.0100359,1875,701,27.7826,2.25851
658,323,27.7126,-1.62323,-0.000932496,0.00088523,0.000172478,0.000901452,-0.000948718,1.47702,0.00106831,0.0154252,1882,701,27.7127,1.62325
665,323,27.6555,-1.02289,-0.00193565,0.00121832,-7.89475e-05,0.00122029,-0.00193762,-1.54579,0.00183883,0.0131185,1889,701,27.6556,1.02292
672,323,27.6895,-0.358276,-0.00318164,0.0016291,-0.000437429,0.00166855,-0.00322109,-1.48085,0.00287008,0.0149895,1896,701,27.6894,0.358283
679,323,27.5879,0.237976,-0.00495962,0.0020085,-0.000990536,0.00214657,-0.00509769,-1.4323,0.0042966,0.0410745,1903,701,27.5878,-0.237993
686,323,27.4893,0.658264,0,0,0,0,0,0,0,-1,1910,701,27.4892,-0.658281
693,323,23.8806,1.08844,0,0,0,0,0,0,0,-1,1917,701,23.8806,-1.08845
700,323,10.7705,0.828613,0,0,0,0,0,0,0,-1,1924,701,10.7705,-0.828591
707,323,16.9005,4.79193,0,0,0,0,0,0,0,-1,1931,701,16.9005,-4.7919
714,323,16.2346,6.25958,0,0,0,0,0,0,0,-1,1938,701,16.2346,-6.25956
721,323,0,0,0,0,0,0,0,0,0,-1,1945,701,0,0
728,323,0,0,0,0,0,0,0,0,0,-1,1952,701,0,0
735,323,0,0,0,0,0,0,0,0,0,-1,1959,701,0,0
742,323,0,0,0,0,0,0,0,0,0,-1,1966,701,0,0
749,323,0,0,0,0,0,0,0,0,0,-1,1973,701,0,0
756,323,0,0,0,0,0,0,0,0,0,-1,1980,701,0,0
763,323,0,0,0,0,0,0,0,0,0,-1,1987,701,0,0
770,323,0,0,0,0,0,0,0,0,0,-1,1994,701,0,0
777,323,0,0,0,0,0,0,0,0,0,-1,2001,701,0,0
784,323,0,0,0,0,0,0,0,0,0,-1,2008,701,0,0
791,323,0,0,0,0,0,0,0,0,0,-1,2015,701,0,0
798,323,0,0,0,0,0,0,0,0,0,-1,2022,701,0,0
805,323,0,0,0,0,0,0,0,0,0,-1,2029,701,0,0
812,323,0,0,0,0,0,0,0,0,0,-1,2036,701,0,0
-700,316,0,0,0,0,0,0,0,0,0,-1,524,708,0,0
-693,316,0,0,0,0,0,0,0,0,0,-1,531,708,0,0
-686,316,0,0,0,0,0,0,0,0,0,-1,538,708,0,0
-679,316,0,0,0,0,0,0,0,0,0,-1,545,708,0,0
-672,316,0,0,0,0,0,0,0,0,0,-1,552,708,0,0
-665,316,0,0,0,0,0,0,0,0,0,-1,559,708,0,0
-658,316,0,0,0,0,0,0,0,0,0,-1,566,708,0,0
-651,316,0,0,0,0,0,0,0,0,0,-1,573,708,0,0
-644,316,0,0,0,0,0,0,0,0,0,-1,580,708,0,0
-637,316,0,0,0,0,0,0,0,0,0,-1,587,708,0,0
-630,316,0,0,0,0,0,0,0,0,0,-1,594,708,0,0
-623,316,0,0,0,0,0,0,0,0,0,-1,601,708,0,0
-616,316,0,0,0,0,0,0,0,0,0,-1,608,708,0,0
-609,316,0,0,0,0,0,0,0,0,0,-1,615,708,0,0
-602,316,-0.451782,-0.0494995,0,0,0,0,0,0,0,-1,622,708,-0.451768,0.0495022
-595,316,-3.3761,2.17188,0,0,0,0,0,0,0,-1,629,708,-3.37609,-2.17189
-588,316,-5.00177,2.60675,0,0,0,0,0,0,0,-1,636,708,-5.00175,-2.60676
-581,316,-3.94653,0.393433,0,0,0,0,0,0,0,-1,643,708,-3.94655,-0.39342
-574,316,-9.67395,1.06067,0,0,0,0,0,0,0,-1,650,708,-9.67396,-1.06065
-567,316,-10.1962,0.448425,0,0,0,0,0,0,0,-1,657,708,-10.1962,-0.448411
-560,316,-17.2615,-1.4079,0,0,0,0,0,0,0,-1,664,708,-17.2615,1.40788
-553,316,-17.3914,-1.78241,0,0,0,0,0,0,0,-1,671,708,-17.3914,1.78241
-546,316,-17.6179,-2.20203,0.00272901,0.00255778,-0.000215693,0.00287546,0.00241133,-0.596474,0.00178252,0.0285872,678,708,-17.6179,2.20203
-539,316,-17.5239,-2.8374,0.00246434,0.00195598,-0.000252393,0.00256836,0.00185196,-0.390936,0.00153039,0.0141673,685,708,-17.5238,2.83742
-532,316,-17.5516,-3.41895,0.0021655,0.00128123,-0.000236296,0.00222468,0.00122204,-0.24541,0.0012865,0.0115059,692,708,-17.5516,3.41893
-525,316,-17.574,-3.99713,0.00176272,0.000760421,-3.71321e-05,0.00176409,0.000759048,-0.0369795,0.00102179,0.0100939,699,708,-17.5739,3.99715
-518,316,-17.5815,-4.58337,0.00146431,0.000159112,0.000136647,0.00147847,0.000144959,0.103203,0.000941053,0.010223,706,708,-17.5815,4.58335
-511,316,-17.6295,-5.17657,0.00118596,-0.0003863,0.000349524,0.00126016,-0.0004605,0.209182,0.00102857,0.0116236,713,708,-17.6295,5.17659
-504,316,-17.6427,-5.81012,0.000775449,-0.000793823,0.000614591,0.000987495,-0.00100587,0.332231,0.00115089,0.0152685,720,708,-17.6427,5.81009
-497,316,-17.6508,-6.37311,0.000408874,-0.00105676,0.000841249,0.000791728,-0.00143961,0.427089,0.00130624,0.0131879,727,708,-17.6508,6.37309
-490,316,-17.6762,-6.95734,0.000137136,-0.0011767,0.00108836,0.00075146,-0.00179103,0.513871,0.00150825,0.0175177,734,708,-17.6762,6.95734
-483,316,-17.5947,-7.50806,0,0,0,0,0,0,0,-1,741,708,-17.5948,7.50806
-476,316,-8.90894,-3.31207,0,0,0,0,0,0,0,-1,748,708,-8.90896,3.31206
-469,316,-6.24194,-1.42725,0,0,0,0,0,0,0,-1,755,708,-6.24192,1.42725
-462,316,-5.74237,-1.40039,0,0,0,0,0,0,0,-1,762,708,-5.74238,1.40039
-455,316,-5.44745,-1.21899,0,0,0,0,0,0,0,-1,769,708,-5.44746,1.21898
-448,316,-14.8945,0.655396,0,0,0,0,0,0,0,-1,776,708,-14.8946,-0.655396
-441,316,-14.9626,0.576111,0,0,0,0,0,0,0,-1,783,708,-14.9626,-0.576115
-434,316,-27.7723,1.15576,0,0,0,0,0,0,0,-1,790,708,-27.7723,-1.15579
-427,316,-28.0504,1.31427,0,0,0,0,0,0,0,-1,797,708,-28.0504,-1.31427
-420,316,-28.198,1.62891,0,0,0,0,0,0,0,-1,804,708,-28.198,-1.62889
-413,316,0,0,0,0,0,0,0,0,0,-1,811,708,0,0
-406,316,0,0,0,0,0,0,0,0,0,-1,818,708,0,0
-399,316,0,0,0,0,0,0,0,0,0,-1,825,708,0,0
-392,316,0,0,0,0,0,0,0,0,0,-1,832,708,0,0
-385,316,0,0,0,0,0,0,0,0,0,-1,839,708,0,0
-378,316,0,0,0,0,0,0,0,0,0,-1,846,708,0,0
-371,316,0,0,0,0,0,0,0,0,0,-1,853,708,0,0
-364,316,0,0,0,0,0,0,0,0,0,-1,860,708,0,0
-357,316,0,0,0,0,0,0,0,0,0,-1,867,708,0,0
-350,316,0,0,0,0,0,0,0,0,0,-1,874,708,0,0
-343,316,0,0,0,0,0,0,0,0,0,-1,881,708,0,0
-336,316,0,0,0,0,0,0,0,0,0,-1,888,708,0,0
-329,316,0,0,0,0,0,0,0,0,0,-1,895,708,0,0
-322,316,0,0,0,0,0,0,0,0,0,-1,902,708,0,0
-315,316,0,0,0,0,0,0,0,0,0,-1,909,708,0,0
-308,316,0,0,0,0,0,0,0,0,0,-1,916,708,0,0
-301,316,0,0,0,0,0,0,0,0,0,-1,923,708,0,0
-294,316,0,0,0,0,0,0,0,0,0,-1,930,708,0,0
-287,316,0,0,0,0,0,0,0,0,0,-1,937,708,0,0
-280,316,0,0,0,0,0,0,0,0,0,-1,944,708,0,0
-273,316,0,0,0,0,0,0,0,0,0,-1,951,708,0,0
-266,316,0,0,0,0,0,0,0,0,0,-1,958,708,0,0
-259,316,0,0,0,0,0,0,0,0,0,-1,965,708,0,0
-252,316,0,0,0,0,0,0,0,0,0,-1,972,708,0,0
-245,316,0,0,0,0,0,0,0,0,0,-1,979,708,0,0
-238,316,0,0,0,0,0,0,0,0,0,-1,986,708,0,0
-231,316,0,0,0,0,0,0,0,0,0,-1,993,708,0,0
-224,316,0,0,0,0,0,0,0,0,0,-1,1000,708,0,0
-217,316,0,0,0,0,0,0,0,0,0,-1,1007,708,0,0
-210,316,0,0,0,0,0,0,0,0,0,-1,1014,708,0,0
-203,316,0,0,0,0,0,0,0,0,0,-1,1021,708,0,0
-196,316,0,0,0,0,0,0,0,0,0,-1,1028,708,0,0
-189,316,0,0,0,0,0,0,0,0,0,-1,1035,708,0,0
-182,316,0,0,0,0,0,0,0,0,0,-1,1042,708,0,0
-175,316,0,0,0,0,0,0,0,0,0,-1,1049,708,0,0
-168,316,0,0,0,0,0,0,0,0,0,-1,1056,708,0,0
-161,316,0,0,0,0,0,0,0,0,0,-1,1063,708,0,0
-154,316,0,0,0,0,0,0,0,0,0,-1,1070,708,0,0
-147,316,0,0,0,0,0,0,0,0,0,-1,1077,708,0,0
-140,316,0,0,0,0,0,0,0,0,0,-1,1084,708,0,0
-133,316,0,0,0,0,0,0,0,0,0,-1,1091,708,0,0
-126,316,0,0,0,0,0,0,0,0,0,-1,1098,708,0,0
-119,316,0,0,0,0,0,0,0,0,0,-1,1105,708,0,0
-112,316,0,0,0,0,0,0,0,0,0,-1,1112,708,0,0
-105,316,0,0,0,0,0,0,0,0,0,-1,1119,708,0,0
-98,316,0,0,0,0,0,0,0,0,0,-1,1126,708,0,0
-91,316,0,0,0,0,0,0,0,0,0,-1,1133,708,0,0
-84,316,0,0,0,0,0,0,0,0,0,-1,1140,708,0,0
-77,316,0,0,0,0,0,0,0,0,0,-1,1147,708,0,0
-70,316,0,0,0,0,0,0,0,0,0,-1,1154,708,0,0
-63,316,0,0,0,0,0,0,0,0,0,-1,1161,708,0,0
-56,316,0,0,0,0,0,0,0,0,0,-1,1168,708,0,0
-49,316,0,0,0,0,0,0,0,0,0,-1,1175,708,0,0
-42,316,0,0,0,0,0,0,0,0,0,-1,1182,708,0,0
-35,316,0,0,0,0,0,0,0,0,0,-1,1189,708,0,0
-28,316,0,0,0,0,0,0,0,0,0,-1,1196,708,0,0
-21,316,0,0,0,0,0,0,0,0,0,-1,1203,708,0,0
-14,316,0,0,0,0,0,0,0,0,0,-1,1210,708,0,0
-7,316,0,0,0,0,0,0,0,0,0,-1,1217,708,0,0
0,316,0,0,0,0,0,0,0,0,0,-1,1224,708,0,0
7,316,0,0,0,0,0,0,0,0,0,-1,1231,708,0,0
14,316,0,0,0,0,0,0,0,0,0,-1,1238,708,0,0
21,316,0,0,0,0,0,0,0,0,0,-1,1245,708,0,0
28,316,0,0,0,0,0,0,0,0,0,-1,1252,708,0,0
35,316,0,0,0,0,0,0,0,0,0,-1,1259,708,0,0
42,316,0,0,0,0,0,0,0,0,0,-1,1266,708,0,0
49,316,0,0,0,0,0,0,0,0,0,-1,1273,708,0,0
56,316,0,0,0,0,0,0,0,0,0,-1,1280,708,0,0
63,316,0,0,0,0,0,0,0,0,0,-1,1287,708,0,0
70,316,0,0,0,0,0,0,0,0,0,-1,1294,708,0,0
77,316,0,0,0,0,0,0,0,0,0,-1,1301,708,0,0
84,316,0,0,0,0,0,0,0,0,0,-1,1308,708,0,0
91,316,0,0,0,0,0,0,0,0,0,-1,1315,708,0,0
98,316,0,0,0,0,0,0,0,0,0,-1,1322,708,0,0
105,316,0,0,0,0,0,0,0,0,0,-1,1329,708,0,0
112,316,0,0,0,0,0,0,0,0,0,-1,1336,708,0,0
119,316,0,0,0,0,0,0,0,0,0,-1,1343,708,0,0
126,316,0,0,0,0,0,0,0,0,0,-1,1350,708,0,0
133,316,0,0,0,0,0,0,0,0,0,-1,1357,708,0,0
140,316,0,0,0,0,0,0,0,0,0,-1,1364,708,0,0
147,316,0,0,0,0,0,0,0,0,0,-1,1371,708,0,0
154,316,0,0,0,0,0,0,0,0,0,-1,1378,708,0,0
161,316,0,0,0,0,0,0,0,0,0,-1,1385,708,0,0
168,316,0,0,0,0,0,0,0,0,0,-1,1392,708,0,0
175,316,0,0,0,0,0,0,0,0,0,-1,1399,708,0,0
182,316,0,0,0,0,0,0,0,0,0,-1,1406,708,0,0
189,316,0,0,0,0,0,0,0,0,0,-1,1413,708,0,0
196,316,0,0,0,0,0,0,0,0,0,-1,1420,708,0,0
203,316,0,0,0,0,0,0,0,0,0,-1,1427,708,0,0
210,316,0,0,0,0,0,0,0,0,0,-1,1434,708,0,0
217,316,0,0,0,0,0,0,0,0,0,-1,1441,708,0,0
224,316,0,0,0,0,0,0,0,0,0,-1,1448,708,0,0
231,316,0,0,0,0,0,0,0,0,0,-1,1455,708,0,0
238,316,0,0,0,0,0,0,0,0,0,-1,1462,708,0,0
245,316,0,0,0,0,0,0,0,0,0,-1,1469,708,0,0
252,316,0,0,0,0,0,0,0,0,0,-1,1476,708,0,0
259,316,0,0,0,0,0,0,0,0,0,-1,1483,708,0,0
266,316,0,0,0,0,0,0,0,0,0,-1,1490,708,0,0
273,316,0,0,0,0,0,0,0,0,0,-1,1497,708,0,0
280,316,0,0,0,0,0,0,0,0,0,-1,1504,708,0,0
287,316,0,0,0,0,0,0,0,0,0,-1,1511,708,0,0
294,316,0,0,0,0,0,0,0,0,0,-1,1518,708,0,0
301,316,0,0,0,0,0,0,0,0,0,-1,1525,708,0,0
308,316,0,0,0,0,0,0,0,0,0,-1,1532,708,0,0
315,316,0,0,0,0,0,0,0,0,0,-1,1539,708,0,0
322,316,0,0,0,0,0,0,0,0,0,-1,1546,708,0,0
329,316,0,0,0,0,0,0,0,0,0,-1,1553,708,0,0
336,316,0,0,0,0,0,0,0,0,0,-1,1560,708,0,0
343,316,0,0,0,0,0,0,0,0,0,-1,1567,708,0,0
350,316,0,0,0,0,0,0,0,0,0,-1,1574,708,0,0
357,316,0,0,0,0,0,0,0,0,0,-1,1581,708,0,0
364,316,0,0,0,0,0,0,0,0,0,-1,1588,708,0,0
371,316,0,0,0,0,0,0,0,0,0,-1,1595,708,0,0
378,316,0,0,0,0,0,0,0,0,0,-1,1602,708,0,0
385,316,0,0,0,0,0,0,0,0,0,-1,1609,708,0,0
392,316,0,0,0,0,0,0,0,0,0,-1,1616,708,0,0
399,316,0,0,0,0,0,0,0,0,0,-1,1623,708,0,0
406,316,0,0,0,0,0,0,0,0,0,-1,1630,708,0,0
413,316,0,0,0,0,0,0,0,0,0,-1,1637,708,0,0
420,316,0,0,0,0,0,0,0,0,0,-1,1644,708,0,0
427,316,0,0,0,0,0,0,0,0,0,-1,1651,708,0,0
434,316,0,0,0,0,0,0,0,0,0,-1,1658,708,0,0
441,316,0,0,0,0,0,0,0,0,0,-1,1665,708,0,0
448,316,0,0,0,0,0,0,0,0,0,-1,1672,708,0,0
455,316,0,0,0,0,0,0,0,0,0,-1,1679,708,0,0
462,316,0,0,0,0,0,0,0,0,0,-1,1686,708,0,0
469,316,0,0,0,0,0,0,0,0,0,-1,1693,708,0,0
476,316,0,0,0,0,0,0,0,0,0,-1,1700,708,0,0
483,316,0,0,0,0,0,0,0,0,0,-1,1707,708,0,0
490,316,0,0,0,0,0,0,0,0,0,-1,1714,708,0,0
497,316,0,0,0,0,0,0,0,0,0,-1,1721,708,0,0
504,316,0,0,0,0,0,0,0,0,0,-1,1728,708,0,0
511,316,0,0,0,0,0,0,0,0,0,-1,1735,708,0,0
518,316,0,0,0,0,0,0,0,0,0,-1,1742,708,0,0
525,316,0,0,0,0,0,0,0,0,0,-1,1749,708,0,0
532,316,33.8604,0.531128,0,0,0,0,0,0,0,-1,1756,708,33.8604,-0.531151
539,316,44.4543,2.73468,0,0,0,0,0,0,0,-1,1763,708,44.4543,-2.7347
546,316,44.713,3.35498,0,0,0,0,0,0,0,-1,1770,708,44.7131,-3.35501
553,316,39.9031,6.57275,0,0,0,0,0,0,0,-1,1777,708,39.9031,-6.57274
560,316,39.1196,1.10046,0,0,0,0,0,0,0,-1,1784,708,39.1197,-1.10048
567,316,47.3683,6.04919,0,0,0,0,0,0,0,-1,1791,708,47.3683,-6.04918
574,316,45.9872,6.7655,0,0,0,0,0,0,0,-1,1798,708,45.9871,-6.76552
581,316,24.6815,7.77496,0,0,0,0,0,0,0,-1,1805,708,24.6815,-7.77499
588,316,19.7659,2.90198,0,0,0,0,0,0,0,-1,1812,708,19.7659,-2.902
595,316,12.5363,1.50702,0,0,0,0,0,0,0,-1,1819,708,12.5363,-1.50701
602,316,7.79919,0.0422363,0,0,0,0,0,0,0,-1,1826,708,7.79923,-0.0422066
609,316,28.4287,-5.9549,0,0,0,0,0,0,0,-1,1833,708,28.4287,5.95488
616,316,28.4727,-5.30981,0.0046926,0.00351501,-0.000929325,0.00520395,0.00300366,-0.503029,0.00301641,0.014778,1840,708,28.4727,5.30982
623,316,28.4685,-4.68848,0.0036232,0.00190355,-0.000473985,0.00374519,0.00178156,-0.251905,0.00216314,0.0104919,1847,708,28.4685,4.68847
630,316,28.4303,-4.08887,0.00331839,0.000884399,-0.000183352,0.00333212,0.000870665,-0.0747673,0.00199554,0.0131895,1854,708,28.4304,4.08886
637,316,28.4327,-3.46033,0.00201446,0.000463464,8.80448e-05,0.00201944,0.000458482,0.0565246,0.00122247,0.0129377,1861,708,28.4328,3.46034
644,316,28.4193,-2.84534,0.00100885,0.000376788,0.000232377,0.00108509,0.00030055,0.317011,0.000646917,0.0120723,1868,708,28.4193,2.84533
651,316,28.3772,-2.23474,0.000108054,0.000466131,0.000295234,0.000632372,-5.81871e-05,1.05797,0.000442254,0.0142483,1875,708,28.3772,2.23476
658,316,28.3212,-1.61481,-0.000629135,0.000822481,0.00021594,0.000853923,-0.000660577,1.42621,0.000876769,0.0258457,1882,708,28.3212,1.61483
665,316,28.2815,-0.986328,-0.001417,0.00127083,9.61651e-05,0.00127426,-0.00142043,1.53508,0.00155655,0.0192621,1889,708,28.2815,0.986339
672,316,28.3015,-0.381104,-0.00236069,0.00181607,-7.67244e-05,0.00181748,-0.0023621,-1.55244,0.0024199,0.0131609,1896,708,28.3015,0.381086
679,316,28.3329,0.314026,-0.00361834,0.00240609,-0.000341561,0.00242539,-0.00363765,-1.51434,0.00352374,0.0374705,1903,708,28.3329,-0.314005
686,316,28.3981,0.993408,0,0,0,0,0,0,0,-1,1910,708,28.3981,-0.993424
693,316,26.4315,1.80652,0,0,0,0,0,0,0,-1,1917,708,26.4315,-1.80651
700,316,12.8749,2.89136,0,0,0,0,0,0,0,-1,1924,708,12.8748,-2.89137
707,316,15.7089,5.41486,0,0,0,0,0,0,0,-1,1931,708,15.7088,-5.41487
714,316,16.1727,5.52045,0,0,0,0,0,0,0,-1,1938,708,16.1728,-5.52042
721,316,16.7094,6.53351,0,0,0,0,0,0,0,-1,1945,708,16.7094,-6.5335
728,316,0,0,0,0,0,0,0,0,0,-1,1952,708,0,0
735,316,0,0,0,0,0,0,0,0,0,-1,1959,708,0,0
742,316,0,0,0,0,0,0,0,0,0,-1,1966,708,0,0
749,316,0,0,0,0,0,0,0,0,0,-1,1973,708,0,0
756,316,0,0,0,0,0,0,0,0,0,-1,1980,708,0,0
763,316,0,0,0,0,0,0,0,0,0,-1,1987,708,0,0
770,316,0,0,0,0,0,0,0,0,0,-1,1994,708,0,0
777,316,0,0,0,0,0,0,0,0,0,-1,2001,708,0,0
784,316,0,0,0,0,0,0,0,0,0,-1,2008,708,0,0
791,316,0,0,0,0,0,0,0,0,0,-1,2015,708,0,0
798,316,0,0,0,0,0,0,0,0,0,-1,2022,708,0,0
805,316,0,0,0,0,0,0,0,0,0,-1,2029,708,0,0
812,316,0,0,0,0,0,0,0,0,0,-1,2036,708,0,0
-700,309,0,0,0,0,0,0,0,0,0,-1,524,715,0,0
-693,309,0,0,0,0,0,0,0,0,0,-1,531,715,0,0
-686,309,0,0,0,0,0,0,0,0,0,-1,538,715,0,0
-679,309,0,0,0,0,0,0,0,0,0,-1,545,715,0,0
-672,309,0,0,0,0,0,0,0,0,0,-1,552,715,0,0
-665,309,0,0,0,0,0,0,0,0,0,-1,559,715,0,0
-658,309,0,0,0,0,0,0,0,0,0,-1,566,715,0,0
-651,309,0,0,0,0,0,0,0,0,0,-1,573,715,0,0
-644,309,0,0,0,0,0,0,0,0,0,-1,580,715,0,0
-637,309,0,0,0,0,0,0,0,0,0,-1,587,715,0,0
-630,309,0,0,0,0,0,0,0,0,0,-1,594,715,0,0
-623,309,0,0,0,0,0,0,0,0,0,-1,601,715,0,0
-616,309,0,0,0,0,0,0,0,0,0,-1,608,715,0,0
-609,309,-5.95392,-3.93689,0,0,0,0,0,0,0,-1,615,715,-5.95392,3.93686
-602,309,-4.99786,-3.31287,0,0,0,0,0,0,0,-1,622,715,-4.99786,3.31284
-595,309,-6.80847,2.4046,0,0,0,0,0,0,0,-1,629,715,-6.80845,-2.40458
-588,309,-6.08795,2.19324,0,0,0,0,0,0,0,-1,636,715,-6.08793,-2.19325
-581,309,-5.97552,1.3277,0,0,0,0,0,0,0,-1,643,715,-5.97552,-1.32769
-574,309,-8.73602,0.208435,0,0,0,0,0,0,0,-1,650,715,-8.73604,-0.208437
-567,309,-10.3909,0.85968,0,0,0,0,0,0,0,-1,657,715,-10.3909,-0.859696
-560,309,-17.5211,-1.47913,0,0,0,0,0,0,0,-1,664,715,-17.5211,1.47911
-553,309,-18.255,-1.57544,0,0,0,0,0,0,0,-1,671,715,-18.255,1.57546
-546,309,-18.1749,-2.1936,0.00239663,0.00213752,9.51336e-05,0.00242781,0.00210634,0.316696,0.00152274,0.0236505,678,715,-18.1749,2.19359
-539,309,-18.1146,-2.81708,0.002084,0.00151228,5.83036e-05,0.00208988,0.00150639,0.1006,0.00124519,0.0154784,685,715,-18.1146,2.81706
-532,309,-18.1401,-3.3938,0.00172866,0.000797764,5.27927e-05,0.00173164,0.00079478,0.0564704,0.00100089,0.0127135,692,715,-18.1401,3.39378
-525,309,-18.1475,-4.00732,0.00133964,0.000306145,0.000262321,0.00140241,0.000243375,0.234871,0.000865298,0.0155386,699,715,-18.1475,4.00734
-518,309,-18.1666,-4.58441,0.00126819,-0.000369174,0.000551664,0.00143671,-0.000537697,0.296478,0.00117866,0.0155303,706,715,-18.1666,4.58442
-511,309,-18.2054,-5.14496,0.00132243,-0.00107593,0.000982626,0.0016736,-0.0014271,0.343234,0.00179208,0.0130478,713,715,-18.2054,5.14497
-504,309,-18.2278,-5.75287,0.00129804,-0.00171493,0.00160324,0.00199153,-0.00240841,0.40825,0.0025441,0.0110073,720,715,-18.2279,5.75286
-497,309,-18.2463,-6.32837,0.00154579,-0.00238907,0.0023872,0.00267182,-0.0035151,0.440749,0.00358306,0.0149668,727,715,-18.2462,6.32836
-490,309,-18.2767,-6.91797,0,0,0,0,0,0,0,-1,734,715,-18.2767,6.91796
-483,309,-17.7261,-7.75836,0,0,0,0,0,0,0,-1,741,715,-17.7261,7.75839
-476,309,-5.29486,-1.2262,0,0,0,0,0,0,0,-1,748,715,-5.29484,1.22622
-469,309,-4.22717,-0.592896,0,0,0,0,0,0,0,-1,755,715,-4.2272,0.592905
-462,309,-10.428,2.46948,0,0,0,0,0,0,0,-1,762,715,-10.428,-2.46947
-455,309,-15.8216,0.00915527,0,0,0,0,0,0,0,-1,769,715,-15.8216,-0.00913359
-448,309,-37.3543,-1.02441,0,0,0,0,0,0,0,-1,776,715,-37.3543,1.02444
-441,309,-19.8181,1.4425,0,0,0,0,0,0,0,-1,783,715,-19.8181,-1.44249
-434,309,-28.3196,0.95105,0,0,0,0,0,0,0,-1,790,715,-28.3196,-0.951068
-427,309,-27.8553,1.40332,0,0,0,0,0,0,0,-1,797,715,-27.8553,-1.40334
-420,309,-27.3148,1.90747,0,0,0,0,0,0,0,-1,804,715,-27.3148,-1.90745
-413,309,0,0,0,0,0,0,0,0,0,-1,811,715,0,0
-406,309,0,0,0,0,0,0,0,0,0,-1,818,715,0,0
-399,309,0,0,0,0,0,0,0,0,0,-1,825,715,0,0
-392,309,0,0,0,0,0,0,0,0,0,-1,832,715,0,0
-385,309,0,0,0,0,0,0,0,0,0,-1,839,715,0,0
-378,309,0,0,0,0,0,0,0,0,0,-1,846,715,0,0
-371,309,0,0,0,0,0,0,0,0,0,-1,853,715,0,0
-364,309,0,0,0,0,0,0,0,0,0,-1,860,715,0,0
-357,309,0,0,0,0,0,0,0,0,0,-1,867,715,0,0
-350,309,0,0,0,0,0,0,0,0,0,-1,874,715,0,0
-343,309,0,0,0,0,0,0,0,0,0,-1,881,715,0,0
-336,309,0,0,0,0,0,0,0,0,0,-1,888,715,0,0
-329,309,0,0,0,0,0,0,0,0,0,-1,895,715,0,0
-322,309,0,0,0,0,0,0,0,0,0,-1,902,715,0,0
-315,309,0,0,0,0,0,0,0,0,0,-1,909,715,0,0
-308,309,0,0,0,0,0,0,0,0,0,-1,916,715,0,0
-301,309,0,0,0,0,0,0,0,0,0,-1,923,715,0,0
-294,309,0,0,0,0,0,0,0,0,0,-1,930,715,0,0
-287,309,0,0,0,0,0,0,0,0,0,-1,937,715,0,0
-280,309,0,0,0,0,0,0,0,0,0,-1,944,715,0,0
-273,309,0,0,0,0,0,0,0,0,0,-1,951,715,0,0
-266,309,0,0,0,0,0,0,0,0,0,-1,958,715,0,0
-259,309,0,0,0,0,0,0,0,0,0,-1,965,715,0,0
-252,309,0,0,0,0,0,0,0,0,0,-1,972,715,0,0
-245,309,0,0,0,0,0,0,0,0,0,-1,979,715,0,0
-238,309,0,0,0,0,0,0,0,0,0,-1,986,715,0,0
-231,309,0,0,0,0,0,0,0,0,0,-1,993,715,0,0
-224,309,0,0,0,0,0,0,0,0,0,-1,1000,715,0,0
-217,309,0,0,0,0,0,0,0,0,0,-1,1007,715,0,0
-210,309,0,0,0,0,0,0,0,0,0,-1,1014,715,0,0
-203,309,0,0,0,0,0,0,0,0,0,-1,1021,715,0,0
-196,309,0,0,0,0,0,0,0,0,0,-1,1028,715,0,0
-189,309,0,0,0,0,0,0,0,0,0,-1,1035,715,0,0
-182,309,0,0,0,0,0,0,0,0,0,-1,1042,715,0,0
-175,309,0,0,0,0,0,0,0,0,0,-1,1049,715,0,0
-168,309,0,0,0,0,0,0,0,0,0,-1,1056,715,0,0
-161,309,0,0,0,0,0,0,0,0,0,-1,1063,715,0,0
-154,309,0,0,0,0,0,0,0,0,0,-1,1070,715,0,0
-147,309,0,0,0,0,0,0,0,0,0,-1,1077,715,0,0
-140,309,0,0,0,0,0,0,0,0,0,-1,1084,715,0,0
-133,309,0,0,0,0,0,0,0,0,0,-1,1091,715,0,0
-126,309,0,0,0,0,0,0,0,0,0,-1,1098,715,0,0
-119,309,0,0,0,0,0,0,0,0,0,-1,1105,715,0,0
-112,309,0,0,0,0,0,0,0,0,0,-1,1112,715,0,0
-105,309,0,0,0,0,0,0,0,0,0,-1,1119,715,0,0
-98,309,0,0,0,0,0,0,0,0,0,-1,1126,715,0,0
-91,309,0,0,0,0,0,0,0,0,0,-1,1133,715,0,0
-84,309,0,0,0,0,0,0,0,0,0,-1,1140,715,0,0
-77,309,0,0,0,0,0,0,0,0,0,-1,1147,715,0,0
-70,309,0,0,0,0,0,0,0,0,0,-1,1154,715,0,0
-63,309,0,0,0,0,0,0,0,0,0,-1,1161,715,0,0
-56,309,0,0,0,0,0,0,0,0,0,-1,1168,715,0,0
-49,309,0,0,0,0,0,0,0,0,0,-1,1175,715,0,0
-42,309,0,0,0,0,0,0,0,0,0,-1,1182,715,0,0
-35,309,0,0,0,0,0,0,0,0,0,-1,1189,715,0,0
-28,309,0,0,0,0,0,0,0,0,0,-1,1196,715,0,0
-21,309,0,0,0,0,0,0,0,0,0,-1,1203,715,0,0
-14,309,0,0,0,0,0,0,0,0,0,-1,1210,715,0,0
-7,309,0,0,0,0,0,0,0,0,0,-1,1217,715,0,0
0,309,0,0,0,0,0,0,0,0,0,-1,1224,715,0,0
7,309,0,0,0,0,0,0,0,0,0,-1,1231,715,0,0
14,309,0,0,0,0,0,0,0,0,0,-1,1238,715,0,0
21,309,0,0,0,0,0,0,0,0,0,-1,1245,715,0,0
28,309,0,0,0,0,0,0,0,0,0,-1,1252,715,0,0
35,309,0,0,0,0,0,0,0,0,0,-1,1259,715,0,0
42,309,0,0,0,0,0,0,0,0,0,-1,1266,715,0,0
49,309,0,0,0,0,0,0,0,0,0,-1,1273,715,0,0
56,309,0,0,0,0,0,0,0,0,0,-1,1280,715,0,0
63,309,0,0,0,0,0,0,0,0,0,-1,1287,715,0,0
70,309,0,0,0,0,0,0,0,0,0,-1,1294,715,0,0
77,309,0,0,0,0,0,0,0,0,0,-1,1301,715,0,0
84,309,0,0,0,0,0,0,0,0,0,-1,1308,715,0,0
91,309,0,0,0,0,0,0,0,0,0,-1,1315,715,0,0
98,309,0,0,0,0,0,0,0,0,0,-1,1322,715,0,0
105,309,0,0,0,0,0,0,0,0,0,-1,1329,715,0,0
112,309,0,0,0,0,0,0,0,0,0,-1,1336,715,0,0
119,309,0,0,0,0,0,0,0,0,0,-1,1343,715,0,0
126,309,0,0,0,0,0,0,0,0,0,-1,1350,715,0,0
133,309,0,0,0,0,0,0,0,0,0,-1,1357,715,0,0
140,309,0,0,0,0,0,0,0,0,0,-1,1364,715,0,0
147,309,0,0,0,0,0,0,0,0,0,-1,1371,715,0,0
154,309,0,0,0,0,0,0,0,0,0,-1,1378,715,0,0
161,309,0,0,0,0,0,0,0,0,0,-1,1385,715,0,0
168,309,0,0,0,0,0,0,0,0,0,-1,1392,715,0,0
175,309,0,0,0,0,0,0,0,0,0,-1,1399,715,0,0
182,309,0,0,0,0,0,0,0,0,0,-1,1406,715,0,0
189,309,0,0,0,0,0,0,0,0,0,-1,1413,715,0,0
196,309,0,0,0,0,0,0,0,0,0,-1,1420,715,0,0
203,309,0,0,0,0,0,0,0,0,0,-1,1427,715,0,0
210,309,0,0,0,0,0,0,0,0,0,-1,1434,715,0,0
217,309,0,0,0,0,0,0,0,0,0,-1,1441,715,0,0
224,309,0,0,0,0,0,0,0,0,0,-1,1448,715,0,0
231,309,0,0,0,0,0,0,0,0,0,-1,1455,715,0,0
238,309,0,0,0,0,0,0,0,0,0,-1,1462,715,0,0
245,309,0,0,0,0,0,0,0,0,0,-1,1469,715,0,0
252,309,0,0,0,0,0,0,0,0,0,-1,1476,715,0,0
259,309,0,0,0,0,0,0,0,0,0,-1,1483,715,0,0
266,309,0,0,0,0,0,0,0,0,0,-1,1490,715,0,0
273,309,0,0,0,0,0,0,0,0,0,-1,1497,715,0,0
280,309,0,0,0,0,0,0,0,0,0,-1,1504,715,0,0
287,309,0,0,0,0,0,0,0,0,0,-1,1511,715,0,0
294,309,0,0,0,0,0,0,0,0,0,-1,1518,715,0,0
301,309,0,0,0,0,0,0,0,0,0,-1,1525,715,0,0
308,309,0,0,0,0,0,0,0,0,0,-1,1532,715,0,0
315,309,0,0,0,0,0,0,0,0,0,-1,1539,715,0,0
322,309,0,0,0,0,0,0,0,0,0,-1,1546,715,0,0
329,309,0,0,0,0,0,0,0,0,0,-1,1553,715,0,0
336,309,0,0,0,0,0,0,0,0,0,-1,1560,715,0,0
343,309,0,0,0,0,0,0,0,0,0,-1,1567,715,0,0
350,309,0,0,0,0,0,0,0,0,0,-1,1574,715,0,0
357,309,0,0,0,0,0,0,0,0,0,-1,1581,715,0,0
364,309,0,0,0,0,0,0,0,0,0,-1,1588,715,0,0
371,309,0,0,0,0,0,0,0,0,0,-1,1595,715,0,0
378,309,0,0,0,0,0,0,0,0,0,-1,1602,715,0,0
385,309,0,0,0,0,0,0,0,0,0,-1,1609,715,0,0
392,309,0,0,0,0,0,0,0,0,0,-1,1616,715,0,0
399,309,0,0,0,0,0,0,0,0,0,-1,1623,715,0,0
406,309,0,0,0,0,0,0,0,0,0,-1,1630,715,0,0
413,309,0,0,0,0,0,0,0,0,0,-1,1637,715,0,0
420,309,0,0,0,0,0,0,0,0,0,-1,1644,715,0,0
427,309,0,0,0,0,0,0,0,0,0,-1,1651,715,0,0
434,309,0,0,0,0,0,0,0,0,0,-1,1658,715,0,0
441,309,0,0,0,0,0,0,0,0,0,-1,1665,715,0,0
448,309,0,0,0,0,0,0,0,0,0,-1,1672,715,0,0
455,309,0,0,0,0,0,0,0,0,0,-1,1679,715,0,0
462,309,0,0,0,0,0,0,0,0,0,-1,1686,715,0,0
469,309,0,0,0,0,0,0,0,0,0,-1,1693,715,0,0
476,309,0,0,0,0,0,0,0,0,0,-1,1700,715,0,0
483,309,0,0,0,0,0,0,0,0,0,-1,1707,715,0,0
490,309,0,0,0,0,0,0,0,0,0,-1,1714,715,0,0
497,309,0,0,0,0,0,0,0,0,0,-1,1721,715,0,0
504,309,0,0,0,0,0,0,0,0,0,-1,1728,715,0,0
511,309,0,0,0,0,0,0,0,0,0,-1,1735,715,0,0
518,309,0,0,0,0,0,0,0,0,0,-1,1742,715,0,0
525,309,0,0,0,0,0,0,0,0,0,-1,1749,715,0,0
532,309,0,0,0,0,0,0,0,0,0,-1,1756,715,0,0
539,309,44.2073,2.66235,0,0,0,0,0,0,0,-1,1763,715,44.2073,-2.66238
546,309,44.4976,3.25531,0,0,0,0,0,0,0,-1,1770,715,44.4976,-3.25533
553,309,47.9611,4.06433,0,0,0,0,0,0,0,-1,1777,715,47.9611,-4.06434
560,309,47.9784,4.64801,0,0,0,0,0,0,0,-1,1784,715,47.9784,-4.64799
567,309,47.0073,5.43121,0,0,0,0,0,0,0,-1,1791,715,47.0073,-5.43121
574,309,45.8746,6.53271,0,0,0,0,0,0,0,-1,1798,715,45.8747,-6.53269
581,309,45.0629,7.73468,0,0,0,0,0,0,0,-1,1805,715,45.0629,-7.73471
588,309,26.2064,7.76422,0,0,0,0,0,0,0,-1,1812,715,26.2064,-7.7642
595,309,19.585,3.71558,0,0,0,0,0,0,0,-1,1819,715,19.5849,-3.71555
602,309,11.0811,3.47772,0,0,0,0,0,0,0,-1,1826,715,11.0811,-3.47772
609,309,29.0286,-6.00995,0,0,0,0,0,0,0,-1,1833,715,29.0286,6.00993
616,309,29.0886,-5.32678,0.00860852,0.00787198,-0.00237985,0.0106484,0.00583208,-0.708634,0.00615719,0.0242419,1840,715,29.0886,5.32677
623,309,29.106,-4.66504,0.00638665,0.0046927,-0.0015891,0.0073404,0.00373895,-0.540553,0.00423823,0.0111632,1847,715,29.106,4.66506
630,309,29.0513,-4.06244,0.00550624,0.0024855,-0.00110225,0.00586567,0.00212607,-0.315219,0.00342899,0.0115858,1854,715,29.0513,4.06245
637,309,29.0098,-3.44501,0.00332754,0.00118237,-0.000513302,0.00344404,0.00106588,-0.223177,0.00203596,0.0145013,1861,715,29.0098,3.445
644,309,28.9753,-2.81635,0.0017262,0.000659663,-9.71177e-05,0.00173497,0.000650892,-0.0900721,0.00101204,0.0151846,1868,715,28.9753,2.81635
651,309,28.9651,-2.19934,0.000410752,0.000423994,0.000212238,0.000629715,0.000205032,0.80099,0.000370865,0.0143912,1875,715,28.9651,2.19934
658,309,28.9615,-1.57501,-0.000381745,0.000702285,0.000245029,0.000755097,-0.000434557,1.35851,0.000695108,0.0199787,1882,715,28.9615,1.57502
665,309,28.9641,-0.959045,-0.000977932,0.00121732,0.000218776,0.00123891,-0.000999523,1.47243,0.00129482,0.0176015,1889,715,28.9641,0.959073
672,309,28.9376,-0.351501,-0.00166966,0.00182752,0.000166703,0.00183545,-0.00167758,1.52327,0.00202893,0.015413,1896,715,28.9376,0.351513
679,309,28.923,0.318726,-0.00253054,0.00251815,7.97935e-05,0.00251941,-0.0025318,1.555,0.00291632,0.0210234,1903,715,28.923,-0.318748
686,309,28.6984,1.10242,-0.00349287,0.00331346,-1.65564e-05,0.0033135,-0.00349291,-1.56836,0.00393014,0.0384999,1910,715,28.6983,-1.10243
693,309,28.1566,1.78925,0,0,0,0,0,0,0,-1,1917,715,28.1566,-1.78923
700,309,23.0179,3.08337,0,0,0,0,0,0,0,-1,1924,715,23.018,-3.08336
707,309,15.6318,4.58655,0,0,0,0,0,0,0,-1,1931,715,15.6318,-4.58657
714,309,16.7573,6.68286,0,0,0,0,0,0,0,-1,1938,715,16.7574,-6.68284
721,309,16.8337,5.4458,0,0,0,0,0,0,0,-1,1945,715,16.8338,-5.44582
728,309,0,0,0,0,0,0,0,0,0,-1,1952,715,0,0
735,309,0,0,0,0,0,0,0,0,0,-1,1959,715,0,0
742,309,0,0,0,0,0,0,0,0,0,-1,1966,715,0,0
749,309,0,0,0,0,0,0,0,0,0,-1,1973,715,0,0
756,309,0,0,0,0,0,0,0,0,0,-1,1980,715,0,0
763,309,0,0,0,0,0,0,0,0,0,-1,1987,715,0,0
770,309,0,0,0,0,0,0,0,0,0,-1,1994,715,0,0
777,309,0,0,0,0,0,0,0,0,0,-1,2001,715,0,0
784,309,0,0,0,0,0,0,0,0,0,-1,2008,715,0,0
791,309,0,0,0,0,0,0,0,0,0,-1,2015,715,0,0
798,309,0,0,0,0,0,0,0,0,0,-1,2022,715,0,0
805,309,0,0,0,0,0,0,0,0,0,-1,2029,715,0,0
812,309,0,0,0,0,0,0,0,0,0,-1,2036,715,0,0
-700,302,0,0,0,0,0,0,0,0,0,-1,524,722,0,0
-693,302,0,0,0,0,0,0,0,0,0,-1,531,722,0,0
-686,302,0,0,0,0,0,0,0,0,0,-1,538,722,0,0
-679,302,0,0,0,0,0,0,0,0,0,-1,545,722,0,0
-672,302,0,0,0,0,0,0,0,0,0,-1,552,722,0,0
-665,302,0,0,0,0,0,0,0,0,0,-1,559,722,0,0
-658,302,0,0,0,0,0,0,0,0,0,-1,566,722,0,0
-651,302,0,0,0,0,0,0,0,0,0,-1,573,722,0,0
-644,302,0,0,0,0,0,0,0,0,0,-1,580,722,0,0
-637,302,0,0,0,0,0,0,0,0,0,-1,587,722,0,0
-630,302,0,0,0,0,0,0,0,0,0,-1,594,722,0,0
-623,302,0,0,0,0,0,0,0,0,0,-1,601,722,0,0
-616,302,0,0,0,0,0,0,0,0,0,-1,608,722,0,0
-609,302,-7.79266,-3.71649,0,0,0,0,0,0,0,-1,615,722,-7.79267,3.7165
-602,302,0.92865,-1.99158,0,0,0,0,0,0,0,-1,622,722,0.928637,1.99157
-595,302,-7.89941,2.13641,0,0,0,0,0,0,0,-1,629,722,-7.89939,-2.13639
-588,302,-7.10895,1.79163,0,0,0,0,0,0,0,-1,636,722,-7.10896,-1.79163
-581,302,-9.17566,1.09448,0,0,0,0,0,0,0,-1,643,722,-9.17569,-1.09445
-574,302,-11.5183,-0.344543,0,0,0,0,0,0,0,-1,650,722,-11.5183,0.344557
-567,302,-12.1534,-0.672241,0,0,0,0,0,0,0,-1,657,722,-12.1535,0.672246
-560,302,-18.8378,-1.01666,0,0,0,0,0,0,0,-1,664,722,-18.8379,1.01663
-553,302,-18.7433,-1.57788,0.00241723,0.00231059,0.000404298,0.00277171,0.00195611,0.719835,0.00164479,0.0245083,671,722,-18.7434,1.57789
-546,302,-18.7098,-2.19763,0.00199088,0.00165987,0.00024977,0.002125,0.00152575,0.4928,0.00126514,0.015904,678,722,-18.7098,2.19765
-539,302,-18.7225,-2.758,0.00167994,0.0010468,0.000260478,0.00177333,0.000953411,0.344247,0.0010248,0.0149104,685,722,-18.7225,2.75802
-532,302,-18.7461,-3.3443,0.00131887,0.000333166,0.000297934,0.00140193,0.000250112,0.271864,0.000863408,0.0147867,692,722,-18.7461,3.34429
-525,302,-18.7147,-4.00958,0.00107147,-0.000190912,0.000582366,0.00129908,-0.000418531,0.372594,0.00103419,0.0195797,699,722,-18.7147,4.00958
-518,302,-18.7421,-4.5824,0.00133797,-0.000950511,0.00107577,0.00176426,-0.0013768,0.377281,0.00181808,0.020165,706,722,-18.7421,4.58238
-511,302,-18.8007,-5.11792,0.00183963,-0.00177834,0.00178318,0.00257075,-0.00250946,0.389107,0.00293313,0.0111649,713,722,-18.8007,5.1179
-504,302,-18.7994,-5.71625,0.00234548,-0.00255306,0.0028117,0.00362509,-0.00383267,0.42709,0.0043063,0.0103394,720,722,-18.7994,5.71623
-497,302,-18.851,-6.27441,0.00347566,-0.00343093,0.00416742,0.00543463,-0.0053899,0.439417,0.00624956,0.0156425,727,722,-18.851,6.27439
-490,302,-18.9089,-6.83221,0,0,0,0,0,0,0,-1,734,722,-18.9089,6.83224
-483,302,-9.53412,-3.1673,0,0,0,0,0,0,0,-1,741,722,-9.53411,3.1673
-476,302,-4.29749,-0.203491,0,0,0,0,0,0,0,-1,748,722,-4.29751,0.203464
-469,302,-12.369,1.42859,0,0,0,0,0,0,0,-1,755,722,-12.3689,-1.42857
-462,302,-17.4766,0.310791,0,0,0,0,0,0,0,-1,762,722,-17.4766,-0.310788
-455,302,-36.7368,-2.97418,0,0,0,0,0,0,0,-1,769,722,-36.7368,2.97416
-448,302,-37.3755,-1.21204,0,0,0,0,0,0,0,-1,776,722,-37.3755,1.21201
-441,302,-38.1774,-1.19635,0,0,0,0,0,0,0,-1,783,722,-38.1774,1.19636
-434,302,-38.5441,-0.682678,0,0,0,0,0,0,0,-1,790,722,-38.5441,0.682664
-427,302,-27.1735,1.81506,0,0,0,0,0,0,0,-1,797,722,-27.1735,-1.81504
-420,302,0,0,0,0,0,0,0,0,0,-1,804,722,0,0
-413,302,0,0,0,0,0,0,0,0,0,-1,811,722,0,0
-406,302,0,0,0,0,0,0,0,0,0,-1,818,722,0,0
-399,302,0,0,0,0,0,0,0,0,0,-1,825,722,0,0
-392,302,0,0,0,0,0,0,0,0,0,-1,832,722,0,0
-385,302,0,0,0,0,0,0,0,0,0,-1,839,722,0,0
-378,302,0,0,0,0,0,0,0,0,0,-1,846,722,0,0
-371,302,0,0,0,0,0,0,0,0,0,-1,853,722,0,0
-364,302,0,0,0,0,0,0,0,0,0,-1,860,722,0,0
-357,302,0,0,0,0,0,0,0,0,0,-1,867,722,0,0
-350,302,0,0,0,0,0,0,0,0,0,-1,874,722,0,0
-343,302,0,0,0,0,0,0,0,0,0,-1,881,722,0,0
-336,302,0,0,0,0,0,0,0,0,0,-1,888,722,0,0
-329,302,0,0,0,0,0,0,0,0,0,-1,895,722,0,0
-322,302,0,0,0,0,0,0,0,0,0,-1,902,722,0,0
-315,302,0,0,0,0,0,0,0,0,0,-1,909,722,0,0
-308,302,0,0,0,0,0,0,0,0,0,-1,916,722,0,0
-301,302,0,0,0,0,0,0,0,0,0,-1,923,722,0,0
-294,302,0,0,0,0,0,0,0,0,0,-1,930,722,0,0
-287,302,0,0,0,0,0,0,0,0,0,-1,937,722,0,0
-280,302,0,0,0,0,0,0,0,0,0,-1,944,722,0,0
-273,302,0,0,0,0,0,0,0,0,0,-1,951,722,0,0
-266,302,0,0,0,0,0,0,0,0,0,-1,958,722,0,0
-259,302,0,0,0,0,0,0,0,0,0,-1,965,722,0,0
-252,302,0,0,0,0,0,0,0,0,0,-1,972,722,0,0
-245,302,0,0,0,0,0,0,0,0,0,-1,979,722,0,0
-238,302,0,0,0,0,0,0,0,0,0,-1,986,722,0,0
-231,302,0,0,0,0,0,0,0,0,0,-1,993,722,0,0
-224,302,0,0,0,0,0,0,0,0,0,-1,1000,722,0,0
-217,302,0,0,0,0,0,0,0,0,0,-1,1007,722,0,0
-210,302,0,0,0,0,0,0,0,0,0,-1,1014,722,0,0
-203,302,0,0,0,0,0,0,0,0,0,-1,1021,722,0,0
-196,302,0,0,0,0,0,0,0,0,0,-1,1028,722,0,0
-189,302,0,0,0,0,0,0,0,0,0,-1,1035,722,0,0
-182,302,0,0,0,0,0,0,0,0,0,-1,1042,722,0,0
-175,302,0,0,0,0,0,0,0,0,0,-1,1049,722,0,0
-168,302,0,0,0,0,0,0,0,0,0,-1,1056,722,0,0
-161,302,0,0,0,0,0,0,0,0,0,-1,1063,722,0,0
-154,302,0,0,0,0,0,0,0,0,0,-1,1070,722,0,0
-147,302,0,0,0,0,0,0,0,0,0,-1,1077,722,0,0
-140,302,0,0,0,0,0,0,0,0,0,-1,1084,722,0,0
-133,302,0,0,0,0,0,0,0,0,0,-1,1091,722,0,0
-126,302,0,0,0,0,0,0,0,0,0,-1,1098,722,0,0
-119,302,0,0,0,0,0,0,0,0,0,-1,1105,722,0,0
-112,302,0,0,0,0,0,0,0,0,0,-1,1112,722,0,0
-105,302,0,0,0,0,0,0,0,0,0,-1,1119,722,0,0
-98,302,0,0,0,0,0,0,0,0,0,-1,1126,722,0,0
-91,302,0,0,0,0,0,0,0,0,0,-1,1133,722,0,0
-84,302,0,0,0,0,0,0,0,0,0,-1,1140,722,0,0
-77,302,0,0,0,0,0,0,0,0,0,-1,1147,722,0,0
-70,302,0,0,0,0,0,0,0,0,0,-1,1154,722,0,0
-63,302,0,0,0,0,0,0,0,0,0,-1,1161,722,0,0
-56,302,0,0,0,0,0,0,0,0,0,-1,1168,722,0,0
-49,302,0,0,0,0,0,0,0,0,0,-1,1175,722,0,0
-42,302,0,0,0,0,0,0,0,0,0,-1,1182,722,0,0
-35,302,0,0,0,0,0,0,0,0,0,-1,1189,722,0,0
-28,302,0,0,0,0,0,0,0,0,0,-1,1196,722,0,0
-21,302,0,0,0,0,0,0,0,0,0,-1,1203,722,0,0
-14,302,0,0,0,0,0,0,0,0,0,-1,1210,722,0,0
-7,302,0,0,0,0,0,0,0,0,0,-1,1217,722,0,0
0,302,0,0,0,0,0,0,0,0,0,-1,1224,722,0,0
7,302,0,0,0,0,0,0,0,0,0,-1,1231,722,0,0
14,302,0,0,0,0,0,0,0,0,0,-1,1238,722,0,0
21,302,0,0,0,0,0,0,0,0,0,-1,1245,722,0,0
28,302,0,0,0,0,0,0,0,0,0,-1,1252,722,0,0
35,302,0,0,0,0,0,0,0,0,0,-1,1259,722,0,0
42,302,0,0,0,0,0,0,0,0,0,-1,1266,722,0,0
49,302,0,0,0,0,0,0,0,0,0,-1,1273,722,0,0
56,302,0,0,0,0,0,0,0,0,0,-1,1280,722,0,0
63,302,0,0,0,0,0,0,0,0,0,-1,1287,722,0,0
70,302,0,0,0,0,0,0,0,0,0,-1,1294,722,0,0
77,302,0,0,0,0,0,0,0,0,0,-1,1301,722,0,0
84,302,0,0,0,0,0,0,0,0,0,-1,1308,722,0,0
91,302,0,0,0,0,0,0,0,0,0,-1,1315,722,0,0
98,302,0,0,0,0,0,0,0,0,0,-1,1322,722,0,0
105,302,0,0,0,0,0,0,0,0,0,-1,1329,722,0,0
112,302,0,0,0,0,0,0,0,0,0,-1,1336,722,0,0
119,302,0,0,0,0,0,0,0,0,0,-1,1343,722,0,0
126,302,0,0,0,0,0,0,0,0,0,-1,1350,722,0,0
133,302,0,0,0,0,0,0,0,0,0,-1,1357,722,0,0
140,302,0,0,0,0,0,0,0,0,0,-1,1364,722,0,0
147,302,0,0,0,0,0,0,0,0,0,-1,1371,722,0,0
154,302,0,0,0,0,0,0,0,0,0,-1,1378,722,0,0
161,302,0,0,0,0,0,0,0,0,0,-1,1385,722,0,0
168,302,0,0,0,0,0,0,0,0,0,-1,1392,722,0,0
175,302,0,0,0,0,0,0,0,0,0,-1,1399,722,0,0
182,302,0,0,0,0,0,0,0,0,0,-1,1406,722,0,0
189,302,0,0,0,0,0,0,0,0,0,-1,1413,722,0,0
196,302,0,0,0,0,0,0,0,0,0,-1,1420,722,0,0
203,302,0,0,0,0,0,0,0,0,0,-1,1427,722,0,0
210,302,0,0,0,0,0,0,0,0,0,-1,1434,722,0,0
217,302,0,0,0,0,0,0,0,0,0,-1,1441,722,0,0
224,302,0,0,0,0,0,0,0,0,0,-1,1448,722,0,0
231,302,0,0,0,0,0,0,0,0,0,-1,1455,722,0,0
238,302,0,0,0,0,0,0,0,0,0,-1,1462,722,0,0
245,302,0,0,0,0,0,0,0,0,0,-1,1469,722,0,0
252,302,0,0,0,0,0,0,0,0,0,-1,1476,722,0,0
259,302,0,0,0,0,0,0,0,0,0,-1,1483,722,0,0
266,302,0,0,0,0,0,0,0,0,0,-1,1490,722,0,0
273,302,0,0,0,0,0,0,0,0,0,-1,1497,722,0,0
280,302,0,0,0,0,0,0,0,0,0,-1,1504,722,0,0
287,302,0,0,0,0,0,0,0,0,0,-1,1511,722,0,0
294,302,0,0,0,0,0,0,0,0,0,-1,1518,722,0,0
301,302,0,0,0,0,0,0,0,0,0,-1,1525,722,0,0
308,302,0,0,0,0,0,0,0,0,0,-1,1532,722,0,0
315,302,0,0,0,0,0,0,0,0,0,-1,1539,722,0,0
322,302,0,0,0,0,0,0,0,0,0,-1,1546,722,0,0
329,302,0,0,0,0,0,0,0,0,0,-1,1553,722,0,0
336,302,0,0,0,0,0,0,0,0,0,-1,1560,722,0,0
343,302,0,0,0,0,0,0,0,0,0,-1,1567,722,0,0
350,302,0,0,0,0,0,0,0,0,0,-1,1574,722,0,0
357,302,0,0,0,0,0,0,0,0,0,-1,1581,722,0,0
364,302,0,0,0,0,0,0,0,0,0,-1,1588,722,0,0
371,302,0,0,0,0,0,0,0,0,0,-1,1595,722,0,0
378,302,0,0,0,0,0,0,0,0,0,-1,1602,722,0,0
385,302,0,0,0,0,0,0,0,0,0,-1,1609,722,0,0
392,302,0,0,0,0,0,0,0,0,0,-1,1616,722,0,0
399,302,0,0,0,0,0,0,0,0,0,-1,1623,722,0,0
406,302,0,0,0,0,0,0,0,0,0,-1,1630,722,0,0
413,302,0,0,0,0,0,0,0,0,0,-1,1637,722,0,0
420,302,0,0,0,0,0,0,0,0,0,-1,1644,722,0,0
427,302,0,0,0,0,0,0,0,0,0,-1,1651,722,0,0
434,302,0,0,0,0,0,0,0,0,0,-1,1658,722,0,0
441,302,0,0,0,0,0,0,0,0,0,-1,1665,722,0,0
448,302,0,0,0,0,0,0,0,0,0,-1,1672,722,0,0
455,302,0,0,0,0,0,0,0,0,0,-1,1679,722,0,0
462,302,0,0,0,0,0,0,0,0,0,-1,1686,722,0,0
469,302,0,0,0,0,0,0,0,0,0,-1,1693,722,0,0
476,302,0,0,0,0,0,0,0,0,0,-1,1700,722,0,0
483,302,0,0,0,0,0,0,0,0,0,-1,1707,722,0,0
490,302,0,0,0,0,0,0,0,0,0,-1,1714,722,0,0
497,302,0,0,0,0,0,0,0,0,0,-1,1721,722,0,0
504,302,0,0,0,0,0,0,0,0,0,-1,1728,722,0,0
511,302,0,0,0,0,0,0,0,0,0,-1,1735,722,0,0
518,302,0,0,0,0,0,0,0,0,0,-1,1742,722,0,0
525,302,0,0,0,0,0,0,0,0,0,-1,1749,722,0,0
532,302,0,0,0,0,0,0,0,0,0,-1,1756,722,0,0
539,302,0,0,0,0,0,0,0,0,0,-1,1763,722,0,0
546,302,48.9873,1.50562,0,0,0,0,0,0,0,-1,1770,722,48.9873,-1.50562
553,302,48.5511,2.79346,0,0,0,0,0,0,0,-1,1777,722,48.5512,-2.79343
560,302,47.9004,3.90967,0,0,0,0,0,0,0,-1,1784,722,47.9004,-3.90967
567,302,46.8901,4.84912,0,0,0,0,0,0,0,-1,1791,722,46.8901,-4.84912
574,302,45.9537,6.00867,0,0,0,0,0,0,0,-1,1798,722,45.9537,-6.00864
581,302,45.137,7.38043,0,0,0,0,0,0,0,-1,1805,722,45.1369,-7.38044
588,302,26.9731,7.19983,0,0,0,0,0,0,0,-1,1812,722,26.9732,-7.19981
595,302,27.3826,8.13104,0,0,0,0,0,0,0,-1,1819,722,27.3825,-8.13102
602,302,14.7349,5.21246,0,0,0,0,0,0,0,-1,1826,722,14.7349,-5.21247
609,302,28.6851,-5.53937,0,0,0,0,0,0,0,-1,1833,722,28.685,5.53938
616,302,29.7914,-5.2569,0,0,0,0,0,0,0,-1,1840,722,29.7914,5.25688
623,302,29.7157,-4.63177,0.0093477,0.00662082,-0.00226262,0.0106259,0.00534259,-0.514236,0.00613491,0.0147361,1847,722,29.7157,4.63175
630,302,29.6434,-4.02173,0.00815237,0.00383988,-0.00184617,0.00883474,0.00315751,-0.35404,0.00516943,0.011313,1854,722,29.6434,4.02172
637,302,29.5917,-3.42657,0.00509393,0.00188935,-0.00107475,0.005421,0.00156229,-0.295414,0.00322206,0.0146858,1861,722,29.5916,3.42658
644,302,29.5916,-2.80383,0.00272064,0.000934241,-0.000450222,0.00282769,0.000827188,-0.233443,0.00167876,0.0160306,1868,722,29.5915,2.80383
651,302,29.5952,-2.17096,0.000807573,0.000352728,0.000103705,0.000830102,0.000330199,0.213918,0.000482586,0.0149356,1875,722,29.5952,2.17099
658,302,29.5896,-1.56738,-0.000179138,0.000504133,0.000219993,0.000568837,-0.000243842,1.28474,0.000481544,0.0149112,1882,722,29.5896,1.56738
665,302,29.571,-0.96106,-0.000630527,0.00108118,0.000254763,0.00111829,-0.00066764,1.42614,0.001042,0.014353,1889,722,29.571,0.96109
672,302,29.5272,-0.337219,-0.00113916,0.00178376,0.000297219,0.00181367,-0.00116908,1.47048,0.00173544,0.0118397,1896,722,29.5272,0.337238
679,302,29.4983,0.292297,-0.00172363,0.00257383,0.000339433,0.00260047,-0.00175027,1.49246,0.00252784,0.0102458,1903,722,29.4983,-0.292315
686,302,29.5049,0.947876,-0.00234422,0.00349314,0.000418501,0.00352299,-0.00237407,1.49959,0.00342614,0.0205136,1910,722,29.5049,-0.947886
693,302,29.366,1.48413,0,0,0,0,0,0,0,-1,1917,722,29.366,-1.48414
700,302,25.4069,1.97308,0,0,0,0,0,0,0,-1,1924,722,25.4068,-1.97311
707,302,16.7321,4.76685,0,0,0,0,0,0,0,-1,1931,722,16.7321,-4.76687
714,302,17.2,5.77594,0,0,0,0,0,0,0,-1,1938,722,17.2,-5.77595
721,302,17.7914,6.60394,0,0,0,0,0,0,0,-1,1945,722,17.7914,-6.60395
728,302,17.2798,4.81702,0,0,0,0,0,0,0,-1,1952,722,17.2798,-4.81703
735,302,0,0,0,0,0,0,0,0,0,-1,1959,722,0,0
742,302,0,0,0,0,0,0,0,0,0,-1,1966,722,0,0
749,302,0,0,0,0,0,0,0,0,0,-1,1973,722,0,0
756,302,0,0,0,0,0,0,0,0,0,-1,1980,722,0,0
763,302,0,0,0,0,0,0,0,0,0,-1,1987,722,0,0
770,302,0,0,0,0,0,0,0,0,0,-1,1994,722,0,0
777,302,0,0,0,0,0,0,0,0,0,-1,2001,722,0,0
784,302,0,0,0,0,0,0,0,0,0,-1,2008,722,0,0
791,302,0,0,0,0,0,0,0,0,0,-1,2015,722,0,0
798,302,0,0,0,0,0,0,0,0,0,-1,2022,722,0,0
805,302,0,0,0,0,0,0,0,0,0,-1,2029,722,0,0
812,302,0,0,0,0,0,0,0,0,0,-1,2036,722,0,0
-700,295,0,0,0,0,0,0,0,0,0,-1,524,729,0,0
-693,295,0,0,0,0,0,0,0,0,0,-1,531,729,0,0
-686,295,0,0,0,0,0,0,0,0,0,-1,538,729,0,0
-679,295,0,0,0,0,0,0,0,0,0,-1,545,729,0,0
-672,295,0,0,0,0,0,0,0,0,0,-1,552,729,0,0
-665,295,0,0,0,0,0,0,0,0,0,-1,559,729,0,0
-658,295,0,0,0,0,0,0,0,0,0,-1,566,729,0,0
-651,295,0,0,0,0,0,0,0,0,0,-1,573,729,0,0
-644,295,0,0,0,0,0,0,0,0,0,-1,580,729,0,0
-637,295,0,0,0,0,0,0,0,0,0,-1,587,729,0,0
-630,295,0,0,0,0,0,0,0,0,0,-1,594,729,0,0
-623,295,0,0,0,0,0,0,0,0,0,-1,601,729,0,0
-616,295,-13.4911,1.31738,0,0,0,0,0,0,0,-1,608,729,-13.4911,-1.3174
-609,295,-10.2864,0.832031,0,0,0,0,0,0,0,-1,615,729,-10.2863,-0.832034
-602,295,-8.19006,3.01587,0,0,0,0,0,0,0,-1,622,729,-8.19005,-3.01588
-595,295,-0.615479,-1.95447,0,0,0,0,0,0,0,-1,629,729,-0.615481,1.95445
-588,295,-7.98999,1.56903,0,0,0,0,0,0,0,-1,636,729,-7.98997,-1.56905
-581,295,-12.0404,0.150574,0,0,0,0,0,0,0,-1,643,729,-12.0404,-0.150604
-574,295,-12.1605,-0.0739746,0,0,0,0,0,0,0,-1,650,729,-12.1605,0.0739856
-567,295,-18.9804,-0.365906,0,0,0,0,0,0,0,-1,657,729,-18.9804,0.36589
-560,295,-19.2263,-1.02936,0.00258432,0.00230248,0.000548583,0.00300979,0.001877,0.659677,0.00175532,0.0331365,664,729,-19.2263,1.02939
-553,295,-19.265,-1.63135,0.00208517,0.00181158,0.000361302,0.00233471,0.00156204,0.604425,0.00137339,0.0175012,671,729,-19.265,1.63137
-546,295,-19.3068,-2.19403,0.00162041,0.00116711,0.000351397,0.00181191,0.000975611,0.498971,0.00104714,0.020257,678,729,-19.3068,2.19406
-539,295,-19.3278,-2.71527,0.00126966,0.000570323,0.000457899,0.00149613,0.000343849,0.459313,0.000904851,0.0189755,685,729,-19.3278,2.7153
-532,295,-19.3611,-3.28497,0.000871639,-0.000207355,0.00058395,0.00112716,-0.000462877,0.412473,0.000944336,0.0167564,692,729,-19.3611,3.285
-525,295,-19.358,-3.93158,0.000825325,-0.000833475,0.00101913,0.0013099,-0.00131805,0.44384,0.00151725,0.0155966,699,729,-19.358,3.93158
-518,295,-19.3593,-4.51666,0.00142413,-0.00162872,0.00177504,0.0022388,-0.00244339,0.430279,0.00270413,0.0112097,706,729,-19.3592,4.51664
-511,295,-19.3759,-5.08154,0.00230044,-0.00240718,0.00272237,0.00354548,-0.00365222,0.428938,0.00415575,0.00952854,713,729,-19.3759,5.08156
-504,295,-19.3854,-5.67645,0.00325089,-0.00303404,0.00402371,0.00521385,-0.00499699,0.453878,0.00589568,0.0113419,720,729,-19.3854,5.67644
-497,295,-19.455,-6.19122,0.00502193,-0.00366548,0.00568614,0.00783364,-0.0064772,0.459226,0.00827473,0.0221726,727,729,-19.455,6.19124
-490,295,-19.5331,-6.66217,0,0,0,0,0,0,0,-1,734,729,-19.5331,6.6622
-483,295,-6.84503,-0.454651,0,0,0,0,0,0,0,-1,741,729,-6.84505,0.454639
-476,295,-13.1738,-0.836243,0,0,0,0,0,0,0,-1,748,729,-13.1738,0.836223
-469,295,-26.5608,-0.466187,0,0,0,0,0,0,0,-1,755,729,-26.5608,0.466162
-462,295,-29.7701,-0.792664,0,0,0,0,0,0,0,-1,762,729,-29.7701,0.792642
-455,295,-37.9785,-0.938904,0,0,0,0,0,0,0,-1,769,729,-37.9785,0.938906
-448,295,-37.5112,-1.31531,0,0,0,0,0,0,0,-1,776,729,-37.5112,1.31531
-441,295,-37.28,-1.02405,0,0,0,0,0,0,0,-1,783,729,-37.28,1.02408
-434,295,-37.5234,-0.676086,0,0,0,0,0,0,0,-1,790,729,-37.5234,0.676077
-427,295,0,0,0,0,0,0,0,0,0,-1,797,729,0,0
-420,295,0,0,0,0,0,0,0,0,0,-1,804,729,0,0
-413,295,0,0,0,0,0,0,0,0,0,-1,811,729,0,0
-406,295,0,0,0,0,0,0,0,0,0,-1,818,729,0,0
-399,295,0,0,0,0,0,0,0,0,0,-1,825,729,0,0
-392,295,0,0,0,0,0,0,0,0,0,-1,832,729,0,0
-385,295,0,0,0,0,0,0,0,0,0,-1,839,729,0,0
-378,295,0,0,0,0,0,0,0,0,0,-1,846,729,0,0
-371,295,0,0,0,0,0,0,0,0,0,-1,853,729,0,0
-364,295,0,0,0,0,0,0,0,0,0,-1,860,729,0,0
-357,295,0,0,0,0,0,0,0,0,0,-1,867,729,0,0
-350,295,0,0,0,0,0,0,0,0,0,-1,874,729,0,0
-343,295,0,0,0,0,0,0,0,0,0,-1,881,729,0,0
-336,295,0,0,0,0,0,0,0,0,0,-1,888,729,0,0
-329,295,0,0,0,0,0,0,0,0,0,-1,895,729,0,0
-322,295,0,0,0,0,0,0,0,0,0,-1,902,729,0,0
-315,295,0,0,0,0,0,0,0,0,0,-1,909,729,0,0
-308,295,0,0,0,0,0,0,0,0,0,-1,916,729,0,0
-301,295,0,0,0,0,0,0,0,0,0,-1,923,729,0,0
-294,295,0,0,0,0,0,0,0,0,0,-1,930,729,0,0
-287,295,0,0,0,0,0,0,0,0,0,-1,937,729,0,0
-280,295,0,0,0,0,0,0,0,0,0,-1,944,729,0,0
-273,295,0,0,0,0,0,0,0,0,0,-1,951,729,0,0
-266,295,0,0,0,0,0,0,0,0,0,-1,958,729,0,0
-259,295,0,0,0,0,0,0,0,0,0,-1,965,729,0,0
-252,295,0,0,0,0,0,0,0,0,0,-1,972,729,0,0
-245,295,0,0,0,0,0,0,0,0,0,-1,979,729,0,0
-238,295,0,0,0,0,0,0,0,0,0,-1,986,729,0,0
-231,295,0,0,0,0,0,0,0,0,0,-1,993,729,0,0
-224,295,0,0,0,0,0,0,0,0,0,-1,1000,729,0,0
-217,295,0,0,0,0,0,0,0,0,0,-1,1007,729,0,0
-210,295,0,0,0,0,0,0,0,0,0,-1,1014,729,0,0
-203,295,0,0,0,0,0,0,0,0,0,-1,1021,729,0,0
-196,295,0,0,0,0,0,0,0,0,0,-1,1028,729,0,0
-189,295,0,0,0,0,0,0,0,0,0,-1,1035,729,0,0
-182,295,0,0,0,0,0,0,0,0,0,-1,1042,729,0,0
-175,295,0,0,0,0,0,0,0,0,0,-1,1049,729,0,0
-168,295,0,0,0,0,0,0,0,0,0,-1,1056,729,0,0
-161,295,0,0,0,0,0,0,0,0,0,-1,1063,729,0,0
-154,295,0,0,0,0,0,0,0,0,0,-1,1070,729,0,0
-147,295,0,0,0,0,0,0,0,0,0,-1,1077,729,0,0
-140,295,0,0,0,0,0,0,0,0,0,-1,1084,729,0,0
-133,295,0,0,0,0,0,0,0,0,0,-1,1091,729,0,0
-126,295,0,0,0,0,0,0,0,0,0,-1,1098,729,0,0
-119,295,0,0,0,0,0,0,0,0,0,-1,1105,729,0,0
-112,295,0,0,0,0,0,0,0,0,0,-1,1112,729,0,0
-105,295,0,0,0,0,0,0,0,0,0,-1,1119,729,0,0
-98,295,0,0,0,0,0,0,0,0,0,-1,1126,729,0,0
-91,295,0,0,0,0,0,0,0,0,0,-1,1133,729,0,0
-84,295,0,0,0,0,0,0,0,0,0,-1,1140,729,0,0
-77,295,0,0,0,0,0,0,0,0,0,-1,1147,729,0,0
-70,295,0,0,0,0,0,0,0,0,0,-1,1154,729,0,0
-63,295,0,0,0,0,0,0,0,0,0,-1,1161,729,0,0
-56,295,0,0,0,0,0,0,0,0,0,-1,1168,729,0,0
-49,295,0,0,0,0,0,0,0,0,0,-1,1175,729,0,0
-42,295,0,0,0,0,0,0,0,0,0,-1,1182,729,0,0
-35,295,0,0,0,0,0,0,0,0,0,-1,1189,729,0,0
-28,295,0,0,0,0,0,0,0,0,0,-1,1196,729,0,0
-21,295,0,0,0,0,0,0,0,0,0,-1,1203,729,0,0
-14,295,0,0,0,0,0,0,0,0,0,-1,1210,729,0,0
-7,295,0,0,0,0,0,0,0,0,0,-1,1217,729,0,0
0,295,0,0,0,0,0,0,0,0,0,-1,1224,729,0,0
7,295,0,0,0,0,0,0,0,0,0,-1,1231,729,0,0
14,295,0,0,0,0,0,0,0,0,0,-1,1238,729,0,0
21,295,0,0,0,0,0,0,0,0,0,-1,1245,729,0,0
28,295,0,0,0,0,0,0,0,0,0,-1,1252,729,0,0
35,295,0,0,0,0,0,0,0,0,0,-1,1259,729,0,0
42,295,0,0,0,0,0,0,0,0,0,-1,1266,729,0,0
49,295,0,0,0,0,0,0,0,0,0,-1,1273,729,0,0
56,295,0,0,0,0,0,0,0,0,0,-1,1280,729,0,0
63,295,0,0,0,0,0,0,0,0,0,-1,1287,729,0,0
70,295,0,0,0,0,0,0,0,0,0,-1,1294,729,0,0
77,295,0,0,0,0,0,0,0,0,0,-1,1301,729,0,0
84,295,0,0,0,0,0,0,0,0,0,-1,1308,729,0,0
91,295,0,0,0,0,0,0,0,0,0,-1,1315,729,0,0
98,295,0,0,0,0,0,0,0,0,0,-1,1322,729,0,0
105,295,0,0,0,0,0,0,0,0,0,-1,1329,729,0,0
112,295,0,0,0,0,0,0,0,0,0,-1,1336,729,0,0
119,295,0,0,0,0,0,0,0,0,0,-1,1343,729,0,0
126,295,0,0,0,0,0,0,0,0,0,-1,1350,729,0,0
133,295,0,0,0,0,0,0,0,0,0,-1,1357,729,0,0
140,295,0,0,0,0,0,0,0,0,0,-1,1364,729,0,0
147,295,0,0,0,0,0,0,0,0,0,-1,1371,729,0,0
154,295,0,0,0,0,0,0,0,0,0,-1,1378,729,0,0
161,295,0,0,0,0,0,0,0,0,0,-1,1385,729,0,0
168,295,0,0,0,0,0,0,0,0,0,-1,1392,729,0,0
175,295,0,0,0,0,0,0,0,0,0,-1,1399,729,0,0
182,295,0,0,0,0,0,0,0,0,0,-1,1406,729,0,0
189,295,0,0,0,0,0,0,0,0,0,-1,1413,729,0,0
196,295,0,0,0,0,0,0,0,0,0,-1,1420,729,0,0
203,295,0,0,0,0,0,0,0,0,0,-1,1427,729,0,0
210,295,0,0,0,0,0,0,0,0,0,-1,1434,729,0,0
217,295,0,0,0,0,0,0,0,0,0,-1,1441,729,0,0
224,295,0,0,0,0,0,0,0,0,0,-1,1448,729,0,0
231,295,0,0,0,0,0,0,0,0,0,-1,1455,729,0,0
238,295,0,0,0,0,0,0,0,0,0,-1,1462,729,0,0
245,295,0,0,0,0,0,0,0,0,0,-1,1469,729,0,0
252,295,0,0,0,0,0,0,0,0,0,-1,1476,729,0,0
259,295,0,0,0,0,0,0,0,0,0,-1,1483,729,0,0
266,295,0,0,0,0,0,0,0,0,0,-1,1490,729,0,0
273,295,0,0,0,0,0,0,0,0,0,-1,1497,729,0,0
280,295,0,0,0,0,0,0,0,0,0,-1,1504,729,0,0
287,295,0,0,0,0,0,0,0,0,0,-1,1511,729,0,0
294,295,0,0,0,0,0,0,0,0,0,-1,1518,729,0,0
301,295,0,0,0,0,0,0,0,0,0,-1,1525,729,0,0
308,295,0,0,0,0,0,0,0,0,0,-1,1532,729,0,0
315,295,0,0,0,0,0,0,0,0,0,-1,1539,729,0,0
322,295,0,0,0,0,0,0,0,0,0,-1,1546,729,0,0
329,295,0,0,0,0,0,0,0,0,0,-1,1553,729,0,0
336,295,0,0,0,0,0,0,0,0,0,-1,1560,729,0,0
343,295,0,0,0,0,0,0,0,0,0,-1,1567,729,0,0
350,295,0,0,0,0,0,0,0,0,0,-1,1574,729,0,0
357,295,0,0,0,0,0,0,0,0,0,-1,1581,729,0,0
364,295,0,0,0,0,0,0,0,0,0,-1,1588,729,0,0
371,295,0,0,0,0,0,0,0,0,0,-1,1595,729,0,0
378,295,0,0,0,0,0,0,0,0,0,-1,1602,729,0,0
385,295,0,0,0,0,0,0,0,0,0,-1,1609,729,0,0
392,295,0,0,0,0,0,0,0,0,0,-1,1616,729,0,0
399,295,0,0,0,0,0,0,0,0,0,-1,1623,729,0,0
406,295,0,0,0,0,0,0,0,0,0,-1,1630,729,0,0
413,295,0,0,0,0,0,0,0,0,0,-1,1637,729,0,0
420,295,0,0,0,0,0,0,0,0,0,-1,1644,729,0,0
427,295,0,0,0,0,0,0,0,0,0,-1,1651,729,0,0
434,295,0,0,0,0,0,0,0,0,0,-1,1658,729,0,0
441,295,0,0,0,0,0,0,0,0,0,-1,1665,729,0,0
448,295,0,0,0,0,0,0,0,0,0,-1,1672,729,0,0
455,295,0,0,0,0,0,0,0,0,0,-1,1679,729,0,0
462,295,0,0,0,0,0,0,0,0,0,-1,1686,729,0,0
469,295,0,0,0,0,0,0,0,0,0,-1,1693,729,0,0
476,295,0,0,0,0,0,0,0,0,0,-1,1700,729,0,0
483,295,0,0,0,0,0,0,0,0,0,-1,1707,729,0,0
490,295,0,0,0,0,0,0,0,0,0,-1,1714,729,0,0
497,295,0,0,0,0,0,0,0,0,0,-1,1721,729,0,0
504,295,0,0,0,0,0,0,0,0,0,-1,1728,729,0,0
511,295,0,0,0,0,0,0,0,0,0,-1,1735,729,0,0
518,295,0,0,0,0,0,0,0,0,0,-1,1742,729,0,0
525,295,0,0,0,0,0,0,0,0,0,-1,1749,729,0,0
532,295,0,0,0,0,0,0,0,0,0,-1,1756,729,0,0
539,295,0,0,0,0,0,0,0,0,0,-1,1763,729,0,0
546,295,48.8486,1.93115,0,0,0,0,0,0,0,-1,1770,729,48.8486,-1.93117
553,295,48.7095,2.24249,0,0,0,0,0,0,0,-1,1777,729,48.7095,-2.24251
560,295,47.8405,3.19769,0,0,0,0,0,0,0,-1,1784,729,47.8405,-3.19772
567,295,46.9696,2.94031,0,0,0,0,0,0,0,-1,1791,729,46.9696,-2.94032
574,295,45.8945,5.06598,0,0,0,0,0,0,0,-1,1798,729,45.8945,-5.06597
581,295,37.8191,2.19592,0,0,0,0,0,0,0,-1,1805,729,37.8191,-2.19594
588,295,39.0542,2.45679,0,0,0,0,0,0,0,-1,1812,729,39.0542,-2.45676
595,295,27.2102,6.99121,0,0,0,0,0,0,0,-1,1819,729,27.2103,-6.99121
602,295,26.9065,7.82141,0,0,0,0,0,0,0,-1,1826,729,26.9064,-7.8214
609,295,11.7737,2.19989,0,0,0,0,0,0,0,-1,1833,729,11.7736,-2.19988
616,295,30.4554,-5.15314,0,0,0,0,0,0,0,-1,1840,729,30.4554,5.15316
623,295,30.3242,-4.57751,0.011068,0.0074776,-0.00230583,0.0121951,0.00635055,-0.454635,0.00704285,0.0310537,1847,729,30.3242,4.57751
630,295,30.2415,-3.98456,0.0101558,0.00468287,-0.00211797,0.0108797,0.00395899,-0.329336,0.00635851,0.0124116,1854,729,30.2415,3.98455
637,295,30.2329,-3.39307,0.00682715,0.00252977,-0.00136697,0.00722512,0.0021318,-0.283303,0.00428664,0.0138506,1861,729,30.233,3.39306
644,295,30.2314,-2.78223,0.00393462,0.00127807,-0.00067265,0.00409522,0.00111746,-0.234381,0.00244434,0.0135669,1868,729,30.2314,2.78224
651,295,30.2141,-2.15192,0.00143952,0.000321789,5.30519e-05,0.00144203,0.000319276,0.0473222,0.000874574,0.0133868,1875,729,30.2141,2.1519
658,295,30.1881,-1.5379,0.000187897,0.000290934,0.00022075,0.000466097,1.27338e-05,0.900035,0.000306575,0.0126297,1882,729,30.1881,1.53792
665,295,30.1554,-0.919189,-0.00015949,0.000914765,0.000295938,0.000990896,-0.00023562,1.319,0.000751551,0.0114676,1889,729,30.1554,0.91922
672,295,30.1196,-0.310364,-0.000543494,0.00167146,0.000389263,0.00173788,-0.000609913,1.4018,0.00140668,0.0133792,1896,729,30.1197,0.310377
679,295,30.0959,0.309753,-0.000912191,0.00255783,0.000555469,0.00264458,-0.00099894,1.41588,0.00217393,0.0107935,1903,729,30.096,-0.309731
686,295,30.1174,0.907471,-0.00129986,0.00357087,0.000771345,0.0036901,-0.00141909,1.41743,0.00304538,0.0114126,1910,729,30.1175,-0.90748
693,295,30.0754,1.50891,-0.0016448,0.00468905,0.00102266,0.00485008,-0.00180582,1.41462,0.00397451,0.0475632,1917,729,30.0754,-1.50892
700,295,30.113,2.11798,0,0,0,0,0,0,0,-1,1924,729,30.113,-2.11797
707,295,22.2661,3.05206,0,0,0,0,0,0,0,-1,1931,729,22.2662,-3.05207
714,295,17.4906,4.63068,0,0,0,0,0,0,0,-1,1938,729,17.4906,-4.63066
721,295,18.3792,5.32281,0,0,0,0,0,0,0,-1,1945,729,18.3791,-5.32283
728,295,17.379,3.74866,0,0,0,0,0,0,0,-1,1952,729,17.379,-3.74863
735,295,0,0,0,0,0,0,0,0,0,-1,1959,729,0,0
742,295,0,0,0,0,0,0,0,0,0,-1,1966,729,0,0
749,295,0,0,0,0,0,0,0,0,0,-1,1973,729,0,0
756,295,0,0,0,0,0,0,0,0,0,-1,1980,729,0,0
763,295,0,0,0,0,0,0,0,0,0,-1,1987,729,0,0
770,295,0,0,0,0,0,0,0,0,0,-1,1994,729,0,0
777,295,0,0,0,0,0,0,0,0,0,-1,2001,729,0,0
784,295,0,0,0,0,0,0,0,0,0,-1,2008,729,0,0
791,295,0,0,0,0,0,0,0,0,0,-1,2015,729,0,0
798,295,0,0,0,0,0,0,0,0,0,-1,2022,729,0,0
805,295,0,0,0,0,0,0,0,0,0,-1,2029,729,0,0
812,295,0,0,0,0,0,0,0,0,0,-1,2036,729,0,0
-700,288,0,0,0,0,0,0,0,0,0,-1,524,736,0,0
-693,288,0,0,0,0,0,0,0,0,0,-1,531,736,0,0
-686,288,0,0,0,0,0,0,0,0,0,-1,538,736,0,0
-679,288,0,0,0,0,0,0,0,0,0,-1,545,736,0,0
-672,288,0,0,0,0,0,0,0,0,0,-1,552,736,0,0
-665,288,0,0,0,0,0,0,0,0,0,-1,559,736,0,0
-658,288,0,0,0,0,0,0,0,0,0,-1,566,736,0,0
-651,288,0,0,0,0,0,0,0,0,0,-1,573,736,0,0
-644,288,0,0,0,0,0,0,0,0,0,-1,580,736,0,0
-637,288,0,0,0,0,0,0,0,0,0,-1,587,736,0,0
-630,288,0,0,0,0,0,0,0,0,0,-1,594,736,0,0
-623,288,0,0,0,0,0,0,0,0,0,-1,601,736,0,0
-616,288,-11.7584,2.4425,0,0,0,0,0,0,0,-1,608,736,-11.7584,-2.44251
-609,288,-10.3007,2.32178,0,0,0,0,0,0,0,-1,615,736,-10.3007,-2.32178
-602,288,-10.1458,-1.85559,0,0,0,0,0,0,0,-1,622,736,-10.1458,1.85556
-595,288,-7.63208,1.81769,0,0,0,0,0,0,0,-1,629,736,-7.63205,-1.81766
-588,288,-8.19269,1.50598,0,0,0,0,0,0,0,-1,636,736,-8.19268,-1.50601
-581,288,-13.1915,0.659241,0,0,0,0,0,0,0,-1,643,736,-13.1915,-0.659228
-574,288,-19.4545,0.168335,0,0,0,0,0,0,0,-1,650,736,-19.4545,-0.168335
-567,288,-19.6045,-0.436951,0.00314003,0.00236818,0.000261687,0.00322039,0.00228782,0.297928,0.00191339,0.0386919,657,736,-19.6045,0.436967
-560,288,-19.8516,-1.06451,0.0022791,0.00179797,0.000291972,0.00241684,0.00166022,0.440819,0.0014275,0.0175739,664,736,-19.8516,1.06449
-553,288,-19.8364,-1.5965,0.00169784,0.00126454,0.000336435,0.00188135,0.00108103,0.499343,0.00109022,0.0188226,671,736,-19.8364,1.59653
-546,288,-19.8729,-2.1496,0.00120702,0.000594004,0.000495706,0.00148333,0.000317698,0.508506,0.000901834,0.0207946,678,736,-19.8729,2.14959
-539,288,-19.9009,-2.71313,0.000824388,-2.90795e-05,0.000740477,0.00125229,-0.000456984,0.523994,0.00102184,0.0180731,685,736,-19.9009,2.71311
-532,288,-19.9028,-3.29291,0.000437655,-0.000878222,0.000954925,0.000939357,-0.00137992,0.483747,0.00134707,0.0148682,692,736,-19.9028,3.29288
-525,288,-19.93,-3.89661,0.000732293,-0.00159421,0.00153498,0.001495,-0.00235692,0.461151,0.00224239,0.0134804,699,736,-19.93,3.89662
-518,288,-19.9684,-4.47687,0.00174887,-0.0023547,0.00251855,0.00294561,-0.00355144,0.443587,0.00375651,0.0117042,706,736,-19.9685,4.47685
-511,288,-19.9875,-5.05054,0.00303952,-0.00298806,0.0035987,0.00471972,-0.00466826,0.436812,0.00542018,0.0088945,713,736,-19.9875,5.05054
-504,288,-19.9993,-5.64178,0.00441157,-0.00340919,0.00502047,0.00686485,-0.00586248,0.454531,0.00735572,0.010958,720,736,-19.9992,5.64178
-497,288,-20.0198,-6.02881,0.00663985,-0.00375254,0.00678157,0.00998707,-0.00709977,0.458496,0.00991193,0.0317915,727,736,-20.0198,6.0288
-490,288,-19.9495,-6.33984,0,0,0,0,0,0,0,-1,734,736,-19.9495,6.33986
-483,288,-17.3287,0.564758,0,0,0,0,0,0,0,-1,741,736,-17.3287,-0.56477
-476,288,-26.136,0.452148,0,0,0,0,0,0,0,-1,748,736,-26.136,-0.452177
-469,288,-27.7904,0.649841,0,0,0,0,0,0,0,-1,755,736,-27.7904,-0.649854
-462,288,-37.9703,-0.50116,0,0,0,0,0,0,0,-1,762,736,-37.9703,0.501165
-455,288,-37.684,-0.519958,0,0,0,0,0,0,0,-1,769,736,-37.684,0.519953
-448,288,-37.1351,-0.759033,0,0,0,0,0,0,0,-1,776,736,-37.135,0.759008
-441,288,-36.8298,-0.803833,0,0,0,0,0,0,0,-1,783,736,-36.8299,0.803834
-434,288,-36.2269,-0.579102,0,0,0,0,0,0,0,-1,790,736,-36.2268,0.579116
-427,288,0,0,0,0,0,0,0,0,0,-1,797,736,0,0
-420,288,0,0,0,0,0,0,0,0,0,-1,804,736,0,0
-413,288,0,0,0,0,0,0,0,0,0,-1,811,736,0,0
-406,288,0,0,0,0,0,0,0,0,0,-1,818,736,0,0
-399,288,0,0,0,0,0,0,0,0,0,-1,825,736,0,0
-392,288,0,0,0,0,0,0,0,0,0,-1,832,736,0,0
-385,288,0,0,0,0,0,0,0,0,0,-1,839,736,0,0
-378,288,0,0,0,0,0,0,0,0,0,-1,846,736,0,0
-371,288,0,0,0,0,0,0,0,0,0,-1,853,736,0,0
-364,288,0,0,0,0,0,0,0,0,0,-1,860,736,0,0
-357,288,0,0,0,0,0,0,0,0,0,-1,867,736,0,0
-350,288,0,0,0,0,0,0,0,0,0,-1,874,736,0,0
-343,288,0,0,0,0,0,0,0,0,0,-1,881,736,0,0
-336,288,0,0,0,0,0,0,0,0,0,-1,888,736,0,0
-329,288,0,0,0,0,0,0,0,0,0,-1,895,736,0,0
-322,288,0,0,0,0,0,0,0,0,0,-1,902,736,0,0
-315,288,0,0,0,0,0,0,0,0,0,-1,909,736,0,0
-308,288,0,0,0,0,0,0,0,0,0,-1,916,736,0,0
-301,288,0,0,0,0,0,0,0,0,0,-1,923,736,0,0
-294,288,0,0,0,0,0,0,0,0,0,-1,930,736,0,0
-287,288,0,0,0,0,0,0,0,0,0,-1,937,736,0,0
-280,288,0,0,0,0,0,0,0,0,0,-1,944,736,0,0
-273,288,0,0,0,0,0,0,0,0,0,-1,951,736,0,0
-266,288,0,0,0,0,0,0,0,0,0,-1,958,736,0,0
-259,288,0,0,0,0,0,0,0,0,0,-1,965,736,0,0
-252,288,0,0,0,0,0,0,0,0,0,-1,972,736,0,0
-245,288,0,0,0,0,0,0,0,0,0,-1,979,736,0,0
-238,288,0,0,0,0,0,0,0,0,0,-1,986,736,0,0
-231,288,0,0,0,0,0,0,0,0,0,-1,993,736,0,0
-224,288,0,0,0,0,0,0,0,0,0,-1,1000,736,0,0
-217,288,0,0,0,0,0,0,0,0,0,-1,1007,736,0,0
-210,288,0,0,0,0,0,0,0,0,0,-1,1014,736,0,0
-203,288,0,0,0,0,0,0,0,0,0,-1,1021,736,0,0
-196,288,0,0,0,0,0,0,0,0,0,-1,1028,736,0,0
-189,288,0,0,0,0,0,0,0,0,0,-1,1035,736,0,0
-182,288,0,0,0,0,0,0,0,0,0,-1,1042,736,0,0
-175,288,0,0,0,0,0,0,0,0,0,-1,1049,736,0,0
-168,288,0,0,0,0,0,0,0,0,0,-1,1056,736,0,0
-161,288,0,0,0,0,0,0,0,0,0,-1,1063,736,0,0
-154,288,0,0,0,0,0,0,0,0,0,-1,1070,736,0,0
-147,288,0,0,0,0,0,0,0,0,0,-1,1077,736,0,0
-140,288,0,0,0,0,0,0,0,0,0,-1,1084,736,0,0
-133,288,0,0,0,0,0,0,0,0,0,-1,1091,736,0,0
-126,288,0,0,0,0,0,0,0,0,0,-1,1098,736,0,0
-119,288,0,0,0,0,0,0,0,0,0,-1,1105,736,0,0
-112,288,0,0,0,0,0,0,0,0,0,-1,1112,736,0,0
-105,288,0,0,0,0,0,0,0,0,0,-1,1119,736,0,0
-98,288,0,0,0,0,0,0,0,0,0,-1,1126,736,0,0
-91,288,0,0,0,0,0,0,0,0,0,-1,1133,736,0,0
-84,288,0,0,0,0,0,0,0,0,0,-1,1140,736,0,0
-77,288,0,0,0,0,0,0,0,0,0,-1,1147,736,0,0
-70,288,0,0,0,0,0,0,0,0,0,-1,1154,736,0,0
-63,288,0,0,0,0,0,0,0,0,0,-1,1161,736,0,0
-56,288,0,0,0,0,0,0,0,0,0,-1,1168,736,0,0
-49,288,0,0,0,0,0,0,0,0,0,-1,1175,736,0,0
-42,288,0,0,0,0,0,0,0,0,0,-1,1182,736,0,0
-35,288,0,0,0,0,0,0,0,0,0,-1,1189,736,0,0
-28,288,0,0,0,0,0,0,0,0,0,-1,1196,736,0,0
-21,288,0,0,0,0,0,0,0,0,0,-1,1203,736,0,0
-14,288,0,0,0,0,0,0,0,0,0,-1,1210,736,0,0
-7,288,0,0,0,0,0,0,0,0,0,-1,1217,736,0,0
0,288,0,0,0,0,0,0,0,0,0,-1,1224,736,0,0
7,288,0,0,0,0,0,0,0,0,0,-1,1231,736,0,0
14,288,0,0,0,0,0,0,0,0,0,-1,1238,736,0,0
21,288,0,0,0,0,0,0,0,0,0,-1,1245,736,0,0
28,288,0,0,0,0,0,0,0,0,0,-1,1252,736,0,0
35,288,0,0,0,0,0,0,0,0,0,-1,1259,736,0,0
42,288,0,0,0,0,0,0,0,0,0,-1,1266,736,0,0
49,288,0,0,0,0,0,0,0,0,0,-1,1273,736,0,0
56,288,0,0,0,0,0,0,0,0,0,-1,1280,736,0,0
63,288,0,0,0,0,0,0,0,0,0,-1,1287,736,0,0
70,288,0,0,0,0,0,0,0,0,0,-1,1294,736,0,0
77,288,0,0,0,0,0,0,0,0,0,-1,1301,736,0,0
84,288,0,0,0,0,0,0,0,0,0,-1,1308,736,0,0
91,288,0,0,0,0,0,0,0,0,0,-1,1315,736,0,0
98,288,0,0,0,0,0,0,0,0,0,-1,1322,736,0,0
105,288,0,0,0,0,0,0,0,0,0,-1,1329,736,0,0
112,288,0,0,0,0,0,0,0,0,0,-1,1336,736,0,0
119,288,0,0,0,0,0,0,0,0,0,-1,1343,736,0,0
126,288,0,0,0,0,0,0,0,0,0,-1,1350,736,0,0
133,288,0,0,0,0,0,0,0,0,0,-1,1357,736,0,0
140,288,0,0,0,0,0,0,0,0,0,-1,1364,736,0,0
147,288,0,0,0,0,0,0,0,0,0,-1,1371,736,0,0
154,288,0,0,0,0,0,0,0,0,0,-1,1378,736,0,0
161,288,0,0,0,0,0,0,0,0,0,-1,1385,736,0,0
168,288,0,0,0,0,0,0,0,0,0,-1,1392,736,0,0
175,288,0,0,0,0,0,0,0,0,0,-1,1399,736,0,0
182,288,0,0,0,0,0,0,0,0,0,-1,1406,736,0,0
189,288,0,0,0,0,0,0,0,0,0,-1,1413,736,0,0
196,288,0,0,0,0,0,0,0,0,0,-1,1420,736,0,0
203,288,0,0,0,0,0,0,0,0,0,-1,1427,736,0,0
210,288,0,0,0,0,0,0,0,0,0,-1,1434,736,0,0
217,288,0,0,0,0,0,0,0,0,0,-1,1441,736,0,0
224,288,0,0,0,0,0,0,0,0,0,-1,1448,736,0,0
231,288,0,0,0,0,0,0,0,0,0,-1,1455,736,0,0
238,288,0,0,0,0,0,0,0,0,0,-1,1462,736,0,0
245,288,0,0,0,0,0,0,0,0,0,-1,1469,736,0,0
252,288,0,0,0,0,0,0,0,0,0,-1,1476,736,0,0
259,288,0,0,0,0,0,0,0,0,0,-1,1483,736,0,0
266,288,0,0,0,0,0,0,0,0,0,-1,1490,736,0,0
273,288,0,0,0,0,0,0,0,0,0,-1,1497,736,0,0
280,288,0,0,0,0,0,0,0,0,0,-1,1504,736,0,0
287,288,0,0,0,0,0,0,0,0,0,-1,1511,736,0,0
294,288,0,0,0,0,0,0,0,0,0,-1,1518,736,0,0
301,288,0,0,0,0,0,0,0,0,0,-1,1525,736,0,0
308,288,0,0,0,0,0,0,0,0,0,-1,1532,736,0,0
315,288,0,0,0,0,0,0,0,0,0,-1,1539,736,0,0
322,288,0,0,0,0,0,0,0,0,0,-1,1546,736,0,0
329,288,0,0,0,0,0,0,0,0,0,-1,1553,736,0,0
336,288,0,0,0,0,0,0,0,0,0,-1,1560,736,0,0
343,288,0,0,0,0,0,0,0,0,0,-1,1567,736,0,0
350,288,0,0,0,0,0,0,0,0,0,-1,1574,736,0,0
357,288,0,0,0,0,0,0,0,0,0,-1,1581,736,0,0
364,288,0,0,0,0,0,0,0,0,0,-1,1588,736,0,0
371,288,0,0,0,0,0,0,0,0,0,-1,1595,736,0,0
378,288,0,0,0,0,0,0,0,0,0,-1,1602,736,0,0
385,288,0,0,0,0,0,0,0,0,0,-1,1609,736,0,0
392,288,0,0,0,0,0,0,0,0,0,-1,1616,736,0,0
399,288,0,0,0,0,0,0,0,0,0,-1,1623,736,0,0
406,288,0,0,0,0,0,0,0,0,0,-1,1630,736,0,0
413,288,0,0,0,0,0,0,0,0,0,-1,1637,736,0,0
420,288,0,0,0,0,0,0,0,0,0,-1,1644,736,0,0
427,288,0,0,0,0,0,0,0,0,0,-1,1651,736,0,0
434,288,0,0,0,0,0,0,0,0,0,-1,1658,736,0,0
441,288,0,0,0,0,0,0,0,0,0,-1,1665,736,0,0
448,288,0,0,0,0,0,0,0,0,0,-1,1672,736,0,0
455,288,0,0,0,0,0,0,0,0,0,-1,1679,736,0,0
462,288,0,0,0,0,0,0,0,0,0,-1,1686,736,0,0
469,288,0,0,0,0,0,0,0,0,0,-1,1693,736,0,0
476,288,0,0,0,0,0,0,0,0,0,-1,1700,736,0,0
483,288,0,0,0,0,0,0,0,0,0,-1,1707,736,0,0
490,288,0,0,0,0,0,0,0,0,0,-1,1714,736,0,0
497,288,0,0,0,0,0,0,0,0,0,-1,1721,736,0,0
504,288,0,0,0,0,0,0,0,0,0,-1,1728,736,0,0
511,288,0,0,0,0,0,0,0,0,0,-1,1735,736,0,0
518,288,0,0,0,0,0,0,0,0,0,-1,1742,736,0,0
525,288,0,0,0,0,0,0,0,0,0,-1,1749,736,0,0
532,288,0,0,0,0,0,0,0,0,0,-1,1756,736,0,0
539,288,0,0,0,0,0,0,0,0,0,-1,1763,736,0,0
546,288,0,0,0,0,0,0,0,0,0,-1,1770,736,0,0
553,288,48.1055,1.96002,0,0,0,0,0,0,0,-1,1777,736,48.1055,-1.96004
560,288,47.8082,2.60095,0,0,0,0,0,0,0,-1,1784,736,47.8083,-2.60093
567,288,47.3468,3.09174,0,0,0,0,0,0,0,-1,1791,736,47.3468,-3.09172
574,288,46.9019,3.56555,0,0,0,0,0,0,0,-1,1798,736,46.9018,-3.56554
581,288,47.3462,4.99207,0,0,0,0,0,0,0,-1,1805,736,47.3462,-4.99204
588,288,46.9681,4.93774,0,0,0,0,0,0,0,-1,1812,736,46.9682,-4.93773
595,288,47.035,3.35156,0,0,0,0,0,0,0,-1,1819,736,47.035,-3.35157
602,288,26.7634,7.61279,0,0,0,0,0,0,0,-1,1826,736,26.7635,-7.61279
609,288,17.5223,4.86414,0,0,0,0,0,0,0,-1,1833,736,17.5223,-4.86412
616,288,13.4886,0.801331,0,0,0,0,0,0,0,-1,1840,736,13.4886,-0.80132
623,288,30.9315,-4.56726,0,0,0,0,0,0,0,-1,1847,736,30.9316,4.56723
630,288,30.8214,-3.9458,0.0118337,0.00553442,-0.00250524,0.0127086,0.00465958,-0.335965,0.00742377,0.0258105,1854,736,30.8215,3.9458
637,288,30.8618,-3.36591,0.00856329,0.00337546,-0.00179304,0.00912268,0.00281606,-0.302414,0.00539397,0.0112156,1861,736,30.8618,3.36591
644,288,30.8583,-2.76825,0.00526355,0.00182015,-0.000994385,0.00553008,0.00155362,-0.261878,0.00329335,0.0103775,1868,736,30.8583,2.76824
651,288,30.8165,-2.1405,0.00208436,0.000338456,-3.1885e-05,0.00208494,0.000337874,-0.0182547,0.00129214,0.0113765,1875,736,30.8165,2.14048
658,288,30.7981,-1.49854,0.000439883,-4.77182e-05,0.000215973,0.000521787,-0.000129622,0.362474,0.000398161,0.016076,1882,736,30.798,1.49855
665,288,30.783,-0.892578,0.000204185,0.000600471,0.00035136,0.000805707,-1.05091e-06,1.04214,0.000537488,0.0163564,1889,736,30.783,0.892591
672,288,30.7561,-0.29718,-7.41492e-05,0.00138424,0.000498542,0.00153838,-0.000228283,1.27095,0.00110953,0.0156005,1896,736,30.7561,0.297197
679,288,30.7368,0.33197,-0.00032524,0.00233378,0.000735438,0.00252364,-0.000515093,1.31816,0.00187782,0.0132371,1903,736,30.7368,-0.331963
686,288,30.7009,0.908264,-0.000595607,0.00340286,0.00101887,0.00364751,-0.000840261,1.33513,0.00275481,0.0104353,1910,736,30.7009,-0.908282
693,288,30.7039,1.58185,-0.000831297,0.00462161,0.00137013,0.00494652,-0.0011562,1.33796,0.00374308,0.0228424,1917,736,30.7039,-1.58183
700,288,30.7078,2.31439,0,0,0,0,0,0,0,-1,1924,736,30.7078,-2.31442
707,288,30.3297,3.10901,0,0,0,0,0,0,0,-1,1931,736,30.3297,-3.10903
714,288,23.0149,3.82544,0,0,0,0,0,0,0,-1,1938,736,23.0149,-3.82541
721,288,18.0732,3.69385,0,0,0,0,0,0,0,-1,1945,736,18.0732,-3.69387
728,288,19.3208,3.91455,0,0,0,0,0,0,0,-1,1952,736,19.3209,-3.91455
735,288,18.7712,3.51312,0,0,0,0,0,0,0,-1,1959,736,18.7713,-3.51309
742,288,0,0,0,0,0,0,0,0,0,-1,1966,736,0,0
749,288,0,0,0,0,0,0,0,0,0,-1,1973,736,0,0
756,288,0,0,0,0,0,0,0,0,0,-1,1980,736,0,0
763,288,0,0,0,0,0,0,0,0,0,-1,1987,736,0,0
770,288,0,0,0,0,0,0,0,0,0,-1,1994,736,0,0
777,288,0,0,0,0,0,0,0,0,0,-1,2001,736,0,0
784,288,0,0,0,0,0,0,0,0,0,-1,2008,736,0,0
791,288,0,0,0,0,0,0,0,0,0,-1,2015,736,0,0
798,288,0,0,0,0,0,0,0,0,0,-1,2022,736,0,0
805,288,0,0,0,0,0,0,0,0,0,-1,2029,736,0,0
812,288,0,0,0,0,0,0,0,0,0,-1,2036,736,0,0
-700,281,0,0,0,0,0,0,0,0,0,-1,524,743,0,0
-693,281,0,0,0,0,0,0,0,0,0,-1,531,743,0,0
-686,281,0,0,0,0,0,0,0,0,0,-1,538,743,0,0
-679,281,0,0,0,0,0,0,0,0,0,-1,545,743,0,0
-672,281,0,0,0,0,0,0,0,0,0,-1,552,743,0,0
-665,281,0,0,0,0,0,0,0,0,0,-1,559,743,0,0
-658,281,0,0,0,0,0,0,0,0,0,-1,566,743,0,0
-651,281,0,0,0,0,0,0,0,0,0,-1,573,743,0,0
-644,281,0,0,0,0,0,0,0,0,0,-1,580,743,0,0
-637,281,0,0,0,0,0,0,0,0,0,-1,587,743,0,0
-630,281,0,0,0,0,0,0,0,0,0,-1,594,743,0,0
-623,281,-19.1697,5.67017,0,0,0,0,0,0,0,-1,601,743,-19.1697,-5.67019
-616,281,-11.5906,2.6853,0,0,0,0,0,0,0,-1,608,743,-11.5906,-2.68529
-609,281,-16.1972,4.14838,0,0,0,0,0,0,0,-1,615,743,-16.1972,-4.14837
-602,281,-12.7697,3.94086,0,0,0,0,0,0,0,-1,622,743,-12.7697,-3.94086
-595,281,-10.4797,-1.07404,0,0,0,0,0,0,0,-1,629,743,-10.4798,1.07402
-588,281,-13.277,1.49817,0,0,0,0,0,0,0,-1,636,743,-13.2771,-1.49817
-581,281,-20.3958,0.793518,0,0,0,0,0,0,0,-1,643,743,-20.3958,-0.793528
-574,281,-20.2665,0.170715,0.0043714,0.00241586,-0.000184256,0.00438861,0.00239865,-0.0931301,0.00253743,0.0409096,650,743,-20.2666,-0.170685
-567,281,-20.3932,-0.408386,0.00310316,0.00201794,-0.000107234,0.00311366,0.00200744,-0.097555,0.0018226,0.0202332,657,743,-20.3932,0.408391
-560,281,-20.4582,-0.995789,0.00213311,0.00141595,0.000110334,0.0021497,0.00139936,0.149252,0.00125984,0.00896371,664,743,-20.4582,0.995817
-553,281,-20.4513,-1.58264,0.00143537,0.000803934,0.000332838,0.00157841,0.000660894,0.405895,0.000915301,0.0146386,671,743,-20.4513,1.58265
-546,281,-20.4676,-2.1239,0.000874904,9.13934e-05,0.000625278,0.00122101,-0.000254717,0.505549,0.000910865,0.0168889,678,743,-20.4676,2.12392
-539,281,-20.4832,-2.70496,0.000430573,-0.000596114,0.000982704,0.00102594,-0.00119148,0.544703,0.00128141,0.0150586,685,743,-20.4831,2.70496
-532,281,-20.4975,-3.26581,3.61973e-05,-0.00149903,0.00127084,0.000753258,-0.00221609,0.513713,0.00178235,0.0145833,692,743,-20.4975,3.26578
-525,281,-20.5364,-3.86957,0.000702896,-0.00226344,0.00197113,0.00168653,-0.00324707,0.462866,0.00289553,0.0162989,699,743,-20.5364,3.86954
-518,281,-20.544,-4.46387,0.00210297,-0.00293484,0.00311662,0.00359133,-0.0044232,0.445532,0.00463549,0.0121427,706,743,-20.544,4.46384
-511,281,-20.5703,-5.03333,0.00372,-0.00343766,0.00423405,0.00568511,-0.00540277,0.434533,0.00640228,0.0116287,713,743,-20.5702,5.03335
-504,281,-20.6362,-5.63342,0.00541155,-0.00371361,0.00566525,0.00812304,-0.00642511,0.446397,0.00841842,0.0159167,720,743,-20.6362,5.63342
-497,281,-20.5045,-6.10522,0.00793572,-0.00389572,0.00740888,0.0115009,-0.00746089,0.448497,0.0110301,0.0486536,727,743,-20.5045,6.10525
-490,281,-20.2975,-6.46204,0,0,0,0,0,0,0,-1,734,743,-20.2976,6.46205
-483,281,-22.1078,-2.34973,0,0,0,0,0,0,0,-1,741,743,-22.1078,2.3497
-476,281,-28.0016,2.17786,0,0,0,0,0,0,0,-1,748,743,-28.0016,-2.17786
-469,281,-34.6448,0.171692,0,0,0,0,0,0,0,-1,755,743,-34.6448,-0.171685
-462,281,-36.8687,-0.0911865,0,0,0,0,0,0,0,-1,762,743,-36.8687,0.0912127
-455,281,-36.2665,1.30328,0,0,0,0,0,0,0,-1,769,743,-36.2665,-1.30328
-448,281,-36.1181,1.83911,0,0,0,0,0,0,0,-1,776,743,-36.1181,-1.83909
-441,281,-35.7243,0.524963,0,0,0,0,0,0,0,-1,783,743,-35.7243,-0.524959
-434,281,0,0,0,0,0,0,0,0,0,-1,790,743,0,0
-427,281,0,0,0,0,0,0,0,0,0,-1,797,743,0,0
-420,281,0,0,0,0,0,0,0,0,0,-1,804,743,0,0
-413,281,0,0,0,0,0,0,0,0,0,-1,811,743,0,0
-406,281,0,0,0,0,0,0,0,0,0,-1,818,743,0,0
-399,281,0,0,0,0,0,0,0,0,0,-1,825,743,0,0
-392,281,0,0,0,0,0,0,0,0,0,-1,832,743,0,0
-385,281,0,0,0,0,0,0,0,0,0,-1,839,743,0,0
-378,281,0,0,0,0,0,0,0,0,0,-1,846,743,0,0
-371,281,0,0,0,0,0,0,0,0,0,-1,853,743,0,0
-364,281,0,0,0,0,0,0,0,0,0,-1,860,743,0,0
-357,281,0,0,0,0,0,0,0,0,0,-1,867,743,0,0
-350,281,0,0,0,0,0,0,0,0,0,-1,874,743,0,0
-343,281,0,0,0,0,0,0,0,0,0,-1,881,743,0,0
-336,281,0,0,0,0,0,0,0,0,0,-1,888,743,0,0
-329,281,0,0,0,0,0,0,0,0,0,-1,895,743,0,0
-322,281,0,0,0,0,0,0,0,0,0,-1,902,743,0,0
-315,281,0,0,0,0,0,0,0,0,0,-1,909,743,0,0
-308,281,0,0,0,0,0,0,0,0,0,-1,916,743,0,0
-301,281,0,0,0,0,0,0,0,0,0,-1,923,743,0,0
-294,281,0,0,0,0,0,0,0,0,0,-1,930,743,0,0
-287,281,0,0,0,0,0,0,0,0,0,-1,937,743,0,0
-280,281,0,0,0,0,0,0,0,0,0,-1,944,743,0,0
-273,281,0,0,0,0,0,0,0,0,0,-1,951,743,0,0
-266,281,0,0,0,0,0,0,0,0,0,-1,958,743,0,0
-259,281,0,0,0,0,0,0,0,0,0,-1,965,743,0,0
-252,281,0,0,0,0,0,0,0,0,0,-1,972,743,0,0
-245,281,0,0,0,0,0,0,0,0,0,-1,979,743,0,0
-238,281,0,0,0,0,0,0,0,0,0,-1,986,743,0,0
-231,281,0,0,0,0,0,0,0,0,0,-1,993,743,0,0
-224,281,0,0,0,0,0,0,0,0,0,-1,1000,743,0,0
-217,281,0,0,0,0,0,0,0,0,0,-1,1007,743,0,0
-210,281,0,0,0,0,0,0,0,0,0,-1,1014,743,0,0
-203,281,0,0,0,0,0,0,0,0,0,-1,1021,743,0,0
-196,281,0,0,0,0,0,0,0,0,0,-1,1028,743,0,0
-189,281,0,0,0,0,0,0,0,0,0,-1,1035,743,0,0
-182,281,0,0,0,0,0,0,0,0,0,-1,1042,743,0,0
-175,281,0,0,0,0,0,0,0,0,0,-1,1049,743,0,0
-168,281,0,0,0,0,0,0,0,0,0,-1,1056,743,0,0
-161,281,0,0,0,0,0,0,0,0,0,-1,1063,743,0,0
-154,281,0,0,0,0,0,0,0,0,0,-1,1070,743,0,0
-147,281,0,0,0,0,0,0,0,0,0,-1,1077,743,0,0
-140,281,0,0,0,0,0,0,0,0,0,-1,1084,743,0,0
-133,281,0,0,0,0,0,0,0,0,0,-1,1091,743,0,0
-126,281,0,0,0,0,0,0,0,0,0,-1,1098,743,0,0
-119,281,0,0,0,0,0,0,0,0,0,-1,1105,743,0,0
-112,281,0,0,0,0,0,0,0,0,0,-1,1112,743,0,0
-105,281,0,0,0,0,0,0,0,0,0,-1,1119,743,0,0
-98,281,0,0,0,0,0,0,0,0,0,-1,1126,743,0,0
-91,281,0,0,0,0,0,0,0,0,0,-1,1133,743,0,0
-84,281,0,0,0,0,0,0,0,0,0,-1,1140,743,0,0
-77,281,0,0,0,0,0,0,0,0,0,-1,1147,743,0,0
-70,281,0,0,0,0,0,0,0,0,0,-1,1154,743,0,0
-63,281,0,0,0,0,0,0,0,0,0,-1,1161,743,0,0
-56,281,0,0,0,0,0,0,0,0,0,-1,1168,743,0,0
-49,281,0,0,0,0,0,0,0,0,0,-1,1175,743,0,0
-42,281,0,0,0,0,0,0,0,0,0,-1,1182,743,0,0
-35,281,0,0,0,0,0,0,0,0,0,-1,1189,743,0,0
-28,281,0,0,0,0,0,0,0,0,0,-1,1196,743,0,0
-21,281,0,0,0,0,0,0,0,0,0,-1,1203,743,0,0
-14,281,0,0,0,0,0,0,0,0,0,-1,1210,743,0,0
-7,281,0,0,0,0,0,0,0,0,0,-1,1217,743,0,0
0,281,0,0,0,0,0,0,0,0,0,-1,1224,743,0,0
7,281,0,0,0,0,0,0,0,0,0,-1,1231,743,0,0
14,281,0,0,0,0,0,0,0,0,0,-1,1238,743,0,0
21,281,0,0,0,0,0,0,0,0,0,-1,1245,743,0,0
28,281,0,0,0,0,0,0,0,0,0,-1,1252,743,0,0
35,281,0,0,0,0,0,0,0,0,0,-1,1259,743,0,0
42,281,0,0,0,0,0,0,0,0,0,-1,1266,743,0,0
49,281,0,0,0,0,0,0,0,0,0,-1,1273,743,0,0
56,281,0,0,0,0,0,0,0,0,0,-1,1280,743,0,0
63,281,0,0,0,0,0,0,0,0,0,-1,1287,743,0,0
70,281,0,0,0,0,0,0,0,0,0,-1,1294,743,0,0
77,281,0,0,0,0,0,0,0,0,0,-1,1301,743,0,0
84,281,0,0,0,0,0,0,0,0,0,-1,1308,743,0,0
91,281,0,0,0,0,0,0,0,0,0,-1,1315,743,0,0
98,281,0,0,0,0,0,0,0,0,0,-1,1322,743,0,0
105,281,0,0,0,0,0,0,0,0,0,-1,1329,743,0,0
112,281,0,0,0,0,0,0,0,0,0,-1,1336,743,0,0
119,281,0,0,0,0,0,0,0,0,0,-1,1343,743,0,0
126,281,0,0,0,0,0,0,0,0,0,-1,1350,743,0,0
133,281,0,0,0,0,0,0,0,0,0,-1,1357,743,0,0
140,281,0,0,0,0,0,0,0,0,0,-1,1364,743,0,0
147,281,0,0,0,0,0,0,0,0,0,-1,1371,743,0,0
154,281,0,0,0,0,0,0,0,0,0,-1,1378,743,0,0
161,281,0,0,0,0,0,0,0,0,0,-1,1385,743,0,0
168,281,0,0,0,0,0,0,0,0,0,-1,1392,743,0,0
175,281,0,0,0,0,0,0,0,0,0,-1,1399,743,0,0
182,281,0,0,0,0,0,0,0,0,0,-1,1406,743,0,0
189,281,0,0,0,0,0,0,0,0,0,-1,1413,743,0,0
196,281,0,0,0,0,0,0,0,0,0,-1,1420,743,0,0
203,281,0,0,0,0,0,0,0,0,0,-1,1427,743,0,0
210,281,0,0,0,0,0,0,0,0,0,-1,1434,743,0,0
217,281,0,0,0,0,0,0,0,0,0,-1,1441,743,0,0
224,281,0,0,0,0,0,0,0,0,0,-1,1448,743,0,0
231,281,0,0,0,0,0,0,0,0,0,-1,1455,743,0,0
238,281,0,0,0,0,0,0,0,0,0,-1,1462,743,0,0
245,281,0,0,0,0,0,0,0,0,0,-1,1469,743,0,0
252,281,0,0,0,0,0,0,0,0,0,-1,1476,743,0,0
259,281,0,0,0,0,0,0,0,0,0,-1,1483,743,0,0
266,281,0,0,0,0,0,0,0,0,0,-1,1490,743,0,0
273,281,0,0,0,0,0,0,0,0,0,-1,1497,743,0,0
280,281,0,0,0,0,0,0,0,0,0,-1,1504,743,0,0
287,281,0,0,0,0,0,0,0,0,0,-1,1511,743,0,0
294,281,0,0,0,0,0,0,0,0,0,-1,1518,743,0,0
301,281,0,0,0,0,0,0,0,0,0,-1,1525,743,0,0
308,281,0,0,0,0,0,0,0,0,0,-1,1532,743,0,0
315,281,0,0,0,0,0,0,0,0,0,-1,1539,743,0,0
322,281,0,0,0,0,0,0,0,0,0,-1,1546,743,0,0
329,281,0,0,0,0,0,0,0,0,0,-1,1553,743,0,0
336,281,0,0,0,0,0,0,0,0,0,-1,1560,743,0,0
343,281,0,0,0,0,0,0,0,0,0,-1,1567,743,0,0
350,281,0,0,0,0,0,0,0,0,0,-1,1574,743,0,0
357,281,0,0,0,0,0,0,0,0,0,-1,1581,743,0,0
364,281,0,0,0,0,0,0,0,0,0,-1,1588,743,0,0
371,281,0,0,0,0,0,0,0,0,0,-1,1595,743,0,0
378,281,0,0,0,0,0,0,0,0,0,-1,1602,743,0,0
385,281,0,0,0,0,0,0,0,0,0,-1,1609,743,0,0
392,281,0,0,0,0,0,0,0,0,0,-1,1616,743,0,0
399,281,0,0,0,0,0,0,0,0,0,-1,1623,743,0,0
406,281,0,0,0,0,0,0,0,0,0,-1,1630,743,0,0
413,281,0,0,0,0,0,0,0,0,0,-1,1637,743,0,0
420,281,0,0,0,0,0,0,0,0,0,-1,1644,743,0,0
427,281,0,0,0,0,0,0,0,0,0,-1,1651,743,0,0
434,281,0,0,0,0,0,0,0,0,0,-1,1658,743,0,0
441,281,0,0,0,0,0,0,0,0,0,-1,1665,743,0,0
448,281,0,0,0,0,0,0,0,0,0,-1,1672,743,0,0
455,281,0,0,0,0,0,0,0,0,0,-1,1679,743,0,0
462,281,0,0,0,0,0,0,0,0,0,-1,1686,743,0,0
469,281,0,0,0,0,0,0,0,0,0,-1,1693,743,0,0
476,281,0,0,0,0,0,0,0,0,0,-1,1700,743,0,0
483,281,0,0,0,0,0,0,0,0,0,-1,1707,743,0,0
490,281,0,0,0,0,0,0,0,0,0,-1,1714,743,0,0
497,281,0,0,0,0,0,0,0,0,0,-1,1721,743,0,0
504,281,0,0,0,0,0,0,0,0,0,-1,1728,743,0,0
511,281,0,0,0,0,0,0,0,0,0,-1,1735,743,0,0
518,281,0,0,0,0,0,0,0,0,0,-1,1742,743,0,0
525,281,0,0,0,0,0,0,0,0,0,-1,1749,743,0,0
532,281,0,0,0,0,0,0,0,0,0,-1,1756,743,0,0
539,281,0,0,0,0,0,0,0,0,0,-1,1763,743,0,0
546,281,0,0,0,0,0,0,0,0,0,-1,1770,743,0,0
553,281,0,0,0,0,0,0,0,0,0,-1,1777,743,0,0
560,281,48.1221,2.78314,0,0,0,0,0,0,0,-1,1784,743,48.1221,-2.78313
567,281,47.6973,3.24493,0,0,0,0,0,0,0,-1,1791,743,47.6972,-3.24495
574,281,49.8606,3.48309,0,0,0,0,0,0,0,-1,1798,743,49.8606,-3.48311
581,281,47.3994,3.96222,0,0,0,0,0,0,0,-1,1805,743,47.3994,-3.96222
588,281,47.439,4.15167,0,0,0,0,0,0,0,-1,1812,743,47.439,-4.15165
595,281,47.6526,4.25018,0,0,0,0,0,0,0,-1,1819,743,47.6526,-4.25016
602,281,45.9985,3.98254,0,0,0,0,0,0,0,-1,1826,743,45.9985,-3.98254
609,281,32.7925,1.28723,0,0,0,0,0,0,0,-1,1833,743,32.7925,-1.28722
616,281,21.3191,-0.253906,0,0,0,0,0,0,0,-1,1840,743,21.3191,0.253931
623,281,30.5835,-4.11304,0,0,0,0,0,0,0,-1,1847,743,30.5835,4.11306
630,281,31.371,-3.87152,0,0,0,0,0,0,0,-1,1854,743,31.3709,3.8715
637,281,31.4355,-3.33429,0.0094262,0.00434601,-0.00233362,0.0103354,0.00343678,-0.371529,0.00607772,0.0162148,1861,743,31.4355,3.33427
644,281,31.4438,-2.73456,0.00609584,0.00257122,-0.00144825,0.00661458,0.00205249,-0.343943,0.00390947,0.0106235,1868,743,31.4439,2.73455
651,281,31.4336,-2.13489,0.00245708,0.000565646,-0.000262001,0.0024927,0.000530024,-0.135131,0.00151632,0.0116528,1875,743,31.4336,2.13486
658,281,31.4189,-1.49878,0.000445592,-0.000317693,8.14839e-05,0.000454194,-0.000326295,0.105175,0.000452628,0.0193051,1882,743,31.419,1.4988
665,281,31.3896,-0.899048,0.000339254,0.000277652,0.000304854,0.000614859,2.04731e-06,0.735052,0.000409225,0.0200842,1889,743,31.3897,0.899048
672,281,31.3711,-0.275818,0.000176563,0.001045,0.00051122,0.00128152,-5.99573e-05,1.13747,0.000875021,0.0127689,1896,743,31.3711,0.275815
679,281,31.3423,0.320557,2.49308e-05,0.00205564,0.000776916,0.00231877,-0.000238208,1.24423,0.00163106,0.01912,1903,743,31.3423,-0.320568
686,281,31.2743,0.901672,-0.000151194,0.00318652,0.00107748,0.00350413,-0.000468803,1.28414,0.00250701,0.0149757,1910,743,31.2743,-0.901683
693,281,31.2587,1.50275,-0.000293184,0.00448941,0.00145266,0.00489606,-0.000699836,1.29785,0.00352058,0.0118287,1917,743,31.2587,-1.50275
700,281,31.2375,2.16241,-0.000404524,0.00624992,0.00200633,0.00680803,-0.000962631,1.29948,0.00489124,0.0325025,1924,743,31.2376,-2.16244
707,281,31.3079,2.81909,0,0,0,0,0,0,0,-1,1931,743,31.3079,-2.81908
714,281,25.0125,2.5105,0,0,0,0,0,0,0,-1,1938,743,25.0124,-2.51053
721,281,16.9656,3.22174,0,0,0,0,0,0,0,-1,1945,743,16.9656,-3.22172
728,281,19.0251,3.63934,0,0,0,0,0,0,0,-1,1952,743,19.0252,-3.63932
735,281,19.0869,2.50311,0,0,0,0,0,0,0,-1,1959,743,19.0869,-2.5031
742,281,0,0,0,0,0,0,0,0,0,-1,1966,743,0,0
749,281,0,0,0,0,0,0,0,0,0,-1,1973,743,0,0
756,281,0,0,0,0,0,0,0,0,0,-1,1980,743,0,0
763,281,0,0,0,0,0,0,0,0,0,-1,1987,743,0,0
770,281,0,0,0,0,0,0,0,0,0,-1,1994,743,0,0
777,281,0,0,0,0,0,0,0,0,0,-1,2001,743,0,0
784,281,0,0,0,0,0,0,0,0,0,-1,2008,743,0,0
791,281,0,0,0,0,0,0,0,0,0,-1,2015,743,0,0
798,281,0,0,0,0,0,0,0,0,0,-1,2022,743,0,0
805,281,0,0,0,0,0,0,0,0,0,-1,2029,743,0,0
812,281,0,0,0,0,0,0,0,0,0,-1,2036,743,0,0
-700,274,0,0,0,0,0,0,0,0,0,-1,524,750,0,0
-693,274,0,0,0,0,0,0,0,0,0,-1,531,750,0,0
-686,274,0,0,0,0,0,0,0,0,0,-1,538,750,0,0
-679,274,0,0,0,0,0,0,0,0,0,-1,545,750,0,0
-672,274,0,0,0,0,0,0,0,0,0,-1,552,750,0,0
-665,274,0,0,0,0,0,0,0,0,0,-1,559,750,0,0
-658,274,0,0,0,0,0,0,0,0,0,-1,566,750,0,0
-651,274,0,0,0,0,0,0,0,0,0,-1,573,750,0,0
-644,274,0,0,0,0,0,0,0,0,0,-1,580,750,0,0
-637,274,0,0,0,0,0,0,0,0,0,-1,587,750,0,0
-630,274,0,0,0,0,0,0,0,0,0,-1,594,750,0,0
-623,274,-19.6909,5.12701,0,0,0,0,0,0,0,-1,601,750,-19.6908,-5.12703
-616,274,-17.9133,3.9024,0,0,0,0,0,0,0,-1,608,750,-17.9133,-3.90239
-609,274,-18.6586,4.92523,0,0,0,0,0,0,0,-1,615,750,-18.6586,-4.92526
-602,274,-18.191,4.28918,0,0,0,0,0,0,0,-1,622,750,-18.191,-4.28919
-595,274,-18.4185,1.95624,0,0,0,0,0,0,0,-1,629,750,-18.4185,-1.95626
-588,274,-20.3015,1.91742,0,0,0,0,0,0,0,-1,636,750,-20.3015,-1.91739
-581,274,-21.1727,0.689087,0.00615776,0.00227681,-0.000867565,0.00634287,0.0020917,-0.210216,0.00373213,0.0482913,643,750,-21.1727,-0.689094
-574,274,-20.8522,0.136536,0.00429517,0.00203471,-0.00055712,0.00442502,0.00190486,-0.228986,0.00256301,0.0252694,650,750,-20.8523,-0.136539
-567,274,-20.9904,-0.405396,0.00293768,0.00163941,-0.00026509,0.00298973,0.00158737,-0.193852,0.00172722,0.0249738,657,750,-20.9904,0.405373
-560,274,-21.0064,-0.955933,0.00186102,0.00105601,9.35672e-05,0.00187175,0.00104528,0.114203,0.00108312,0.0147816,664,750,-21.0064,0.95594
-553,274,-21.0419,-1.56018,0.00103626,0.0004144,0.000450028,0.00127232,0.000178336,0.483097,0.000795462,0.00964156,671,750,-21.0419,1.56018
-546,274,-21.068,-2.14478,0.000381746,-0.000306446,0.000846469,0.000951385,-0.000876085,0.592346,0.00105539,0.0114649,678,750,-21.068,2.14479
-539,274,-21.0825,-2.70764,-0.00012349,-0.00103317,0.00127126,0.000771852,-0.00192851,0.613602,0.00160602,0.0120047,685,750,-21.0825,2.70767
-532,274,-21.1014,-3.24274,-0.000482785,-0.00195193,0.00160069,0.000543835,-0.00297855,0.570279,0.0021896,0.0132928,692,750,-21.1014,3.24274
-525,274,-21.1207,-3.81891,0.000627188,-0.00273201,0.00238619,0.00186563,-0.00397045,0.478735,0.00344174,0.0135611,699,750,-21.1208,3.8189
-518,274,-21.1251,-4.4223,0.00240562,-0.00330642,0.00363057,0.0041689,-0.0050697,0.452121,0.00534235,0.0127151,706,750,-21.1251,4.42231
-511,274,-21.1465,-5.01617,0.00431246,-0.00369549,0.00471646,0.00649531,-0.00587834,0.43346,0.00714689,0.0136795,713,750,-21.1466,5.01615
-504,274,-21.2385,-5.63416,0.00630071,-0.00388077,0.00609758,0.00915327,-0.00673334,0.437573,0.00920754,0.0273623,720,750,-21.2385,5.63413
-497,274,-21.0786,-6.17456,0,0,0,0,0,0,0,-1,727,750,-21.0786,6.17457
-490,274,-13.6545,-3.58826,0,0,0,0,0,0,0,-1,734,750,-13.6546,3.58825
-483,274,-27.8608,1.30981,0,0,0,0,0,0,0,-1,741,750,-27.8608,-1.30979
-476,274,-33.7561,-0.508606,0,0,0,0,0,0,0,-1,748,750,-33.7561,0.508636
-469,274,-36.6401,0.389771,0,0,0,0,0,0,0,-1,755,750,-36.6401,-0.389773
-462,274,-36.1891,1.21643,0,0,0,0,0,0,0,-1,762,750,-36.1891,-1.21645
-455,274,-36.5449,1.18762,0.00871486,0.000121178,0.0273593,0.0321127,-0.0232767,0.707508,0.0321144,0.0466521,769,750,-36.5449,-1.1876
-448,274,-36.7905,1.0957,0,0,0,0,0,0,0,-1,776,750,-36.7905,-1.09567
-441,274,0,0,0,0,0,0,0,0,0,-1,783,750,0,0
-434,274,0,0,0,0,0,0,0,0,0,-1,790,750,0,0
-427,274,0,0,0,0,0,0,0,0,0,-1,797,750,0,0
-420,274,0,0,0,0,0,0,0,0,0,-1,804,750,0,0
-413,274,0,0,0,0,0,0,0,0,0,-1,811,750,0,0
-406,274,0,0,0,0,0,0,0,0,0,-1,818,750,0,0
-399,274,0,0,0,0,0,0,0,0,0,-1,825,750,0,0
-392,274,0,0,0,0,0,0,0,0,0,-1,832,750,0,0
-385,274,0,0,0,0,0,0,0,0,0,-1,839,750,0,0
-378,274,0,0,0,0,0,0,0,0,0,-1,846,750,0,0
-371,274,0,0,0,0,0,0,0,0,0,-1,853,750,0,0
-364,274,0,0,0,0,0,0,0,0,0,-1,860,750,0,0
-357,274,0,0,0,0,0,0,0,0,0,-1,867,750,0,0
-350,274,0,0,0,0,0,0,0,0,0,-1,874,750,0,0
-343,274,0,0,0,0,0,0,0,0,0,-1,881,750,0,0
-336,274,0,0,0,0,0,0,0,0,0,-1,888,750,0,0
-329,274,0,0,0,0,0,0,0,0,0,-1,895,750,0,0
-322,274,0,0,0,0,0,0,0,0,0,-1,902,750,0,0
-315,274,0,0,0,0,0,0,0,0,0,-1,909,750,0,0
-308,274,0,0,0,0,0,0,0,0,0,-1,916,750,0,0
-301,274,0,0,0,0,0,0,0,0,0,-1,923,750,0,0
-294,274,0,0,0,0,0,0,0,0,0,-1,930,750,0,0
-287,274,0,0,0,0,0,0,0,0,0,-1,937,750,0,0
-280,274,0,0,0,0,0,0,0,0,0,-1,944,750,0,0
-273,274,0,0,0,0,0,0,0,0,0,-1,951,750,0,0
-266,274,0,0,0,0,0,0,0,0,0,-1,958,750,0,0
-259,274,0,0,0,0,0,0,0,0,0,-1,965,750,0,0
-252,274,0,0,0,0,0,0,0,0,0,-1,972,750,0,0
-245,274,0,0,0,0,0,0,0,0,0,-1,979,750,0,0
-238,274,0,0,0,0,0,0,0,0,0,-1,986,750,0,0
-231,274,0,0,0,0,0,0,0,0,0,-1,993,750,0,0
-224,274,0,0,0,0,0,0,0,0,0,-1,1000,750,0,0
-217,274,0,0,0,0,0,0,0,0,0,-1,1007,750,0,0
-210,274,0,0,0,0,0,0,0,0,0,-1,1014,750,0,0
-203,274,0,0,0,0,0,0,0,0,0,-1,1021,750,0,0
-196,274,0,0,0,0,0,0,0,0,0,-1,1028,750,0,0
-189,274,0,0,0,0,0,0,0,0,0,-1,1035,750,0,0
-182,274,0,0,0,0,0,0,0,0,0,-1,1042,750,0,0
-175,274,0,0,0,0,0,0,0,0,0,-1,1049,750,0,0
-168,274,0,0,0,0,0,0,0,0,0,-1,1056,750,0,0
-161,274,0,0,0,0,0,0,0,0,0,-1,1063,750,0,0
-154,274,0,0,0,0,0,0,0,0,0,-1,1070,750,0,0
-147,274,0,0,0,0,0,0,0,0,0,-1,1077,750,0,0
-140,274,0,0,0,0,0,0,0,0,0,-1,1084,750,0,0
-133,274,0,0,0,0,0,0,0,0,0,-1,1091,750,0,0
-126,274,0,0,0,0,0,0,0,0,0,-1,1098,750,0,0
-119,274,0,0,0,0,0,0,0,0,0,-1,1105,750,0,0
-112,274,0,0,0,0,0,0,0,0,0,-1,1112,750,0,0
-105,274,0,0,0,0,0,0,0,0,0,-1,1119,750,0,0
-98,274,0,0,0,0,0,0,0,0,0,-1,1126,750,0,0
-91,274,0,0,0,0,0,0,0,0,0,-1,1133,750,0,0
-84,274,0,0,0,0,0,0,0,0,0,-1,1140,750,0,0
-77,274,0,0,0,0,0,0,0,0,0,-1,1147,750,0,0
-70,274,0,0,0,0,0,0,0,0,0,-1,1154,750,0,0
-63,274,0,0,0,0,0,0,0,0,0,-1,1161,750,0,0
-56,274,0,0,0,0,0,0,0,0,0,-1,1168,750,0,0
-49,274,0,0,0,0,0,0,0,0,0,-1,1175,750,0,0
-42,274,0,0,0,0,0,0,0,0,0,-1,1182,750,0,0
-35,274,0,0,0,0,0,0,0,0,0,-1,1189,750,0,0
-28,274,0,0,0,0,0,0,0,0,0,-1,1196,750,0,0
-21,274,0,0,0,0,0,0,0,0,0,-1,1203,750,0,0
-14,274,0,0,0,0,0,0,0,0,0,-1,1210,750,0,0
-7,274,0,0,0,0,0,0,0,0,0,-1,1217,750,0,0
0,274,0,0,0,0,0,0,0,0,0,-1,1224,750,0,0
7,274,0,0,0,0,0,0,0,0,0,-1,1231,750,0,0
14,274,0,0,0,0,0,0,0,0,0,-1,1238,750,0,0
21,274,0,0,0,0,0,0,0,0,0,-1,1245,750,0,0
28,274,0,0,0,0,0,0,0,0,0,-1,1252,750,0,0
35,274,0,0,0,0,0,0,0,0,0,-1,1259,750,0,0
42,274,0,0,0,0,0,0,0,0,0,-1,1266,750,0,0
49,274,0,0,0,0,0,0,0,0,0,-1,1273,750,0,0
56,274,0,0,0,0,0,0,0,0,0,-1,1280,750,0,0
63,274,0,0,0,0,0,0,0,0,0,-1,1287,750,0,0
70,274,0,0,0,0,0,0,0,0,0,-1,1294,750,0,0
77,274,0,0,0,0,0,0,0,0,0,-1,1301,750,0,0
84,274,0,0,0,0,0,0,0,0,0,-1,1308,750,0,0
91,274,0,0,0,0,0,0,0,0,0,-1,1315,750,0,0
98,274,0,0,0,0,0,0,0,0,0,-1,1322,750,0,0
105,274,0,0,0,0,0,0,0,0,0,-1,1329,750,0,0
112,274,0,0,0,0,0,0,0,0,0,-1,1336,750,0,0
119,274,0,0,0,0,0,0,0,0,0,-1,1343,750,0,0
126,274,0,0,0,0,0,0,0,0,0,-1,1350,750,0,0
133,274,0,0,0,0,0,0,0,0,0,-1,1357,750,0,0
140,274,0,0,0,0,0,0,0,0,0,-1,1364,750,0,0
147,274,0,0,0,0,0,0,0,0,0,-1,1371,750,0,0
154,274,0,0,0,0,0,0,0,0,0,-1,1378,750,0,0
161,274,0,0,0,0,0,0,0,0,0,-1,1385,750,0,0
168,274,0,0,0,0,0,0,0,0,0,-1,1392,750,0,0
175,274,0,0,0,0,0,0,0,0,0,-1,1399,750,0,0
182,274,0,0,0,0,0,0,0,0,0,-1,1406,750,0,0
189,274,0,0,0,0,0,0,0,0,0,-1,1413,750,0,0
196,274,0,0,0,0,0,0,0,0,0,-1,1420,750,0,0
203,274,0,0,0,0,0,0,0,0,0,-1,1427,750,0,0
210,274,0,0,0,0,0,0,0,0,0,-1,1434,750,0,0
217,274,0,0,0,0,0,0,0,0,0,-1,1441,750,0,0
224,274,0,0,0,0,0,0,0,0,0,-1,1448,750,0,0
231,274,0,0,0,0,0,0,0,0,0,-1,1455,750,0,0
238,274,0,0,0,0,0,0,0,0,0,-1,1462,750,0,0
245,274,0,0,0,0,0,0,0,0,0,-1,1469,750,0,0
252,274,0,0,0,0,0,0,0,0,0,-1,1476,750,0,0
259,274,0,0,0,0,0,0,0,0,0,-1,1483,750,0,0
266,274,0,0,0,0,0,0,0,0,0,-1,1490,750,0,0
273,274,0,0,0,0,0,0,0,0,0,-1,1497,750,0,0
280,274,0,0,0,0,0,0,0,0,0,-1,1504,750,0,0
287,274,0,0,0,0,0,0,0,0,0,-1,1511,750,0,0
294,274,0,0,0,0,0,0,0,0,0,-1,1518,750,0,0
301,274,0,0,0,0,0,0,0,0,0,-1,1525,750,0,0
308,274,0,0,0,0,0,0,0,0,0,-1,1532,750,0,0
315,274,0,0,0,0,0,0,0,0,0,-1,1539,750,0,0
322,274,0,0,0,0,0,0,0,0,0,-1,1546,750,0,0
329,274,0,0,0,0,0,0,0,0,0,-1,1553,750,0,0
336,274,0,0,0,0,0,0,0,0,0,-1,1560,750,0,0
343,274,0,0,0,0,0,0,0,0,0,-1,1567,750,0,0
350,274,0,0,0,0,0,0,0,0,0,-1,1574,750,0,0
357,274,0,0,0,0,0,0,0,0,0,-1,1581,750,0,0
364,274,0,0,0,0,0,0,0,0,0,-1,1588,750,0,0
371,274,0,0,0,0,0,0,0,0,0,-1,1595,750,0,0
378,274,0,0,0,0,0,0,0,0,0,-1,1602,750,0,0
385,274,0,0,0,0,0,0,0,0,0,-1,1609,750,0,0
392,274,0,0,0,0,0,0,0,0,0,-1,1616,750,0,0
399,274,0,0,0,0,0,0,0,0,0,-1,1623,750,0,0
406,274,0,0,0,0,0,0,0,0,0,-1,1630,750,0,0
413,274,0,0,0,0,0,0,0,0,0,-1,1637,750,0,0
420,274,0,0,0,0,0,0,0,0,0,-1,1644,750,0,0
427,274,0,0,0,0,0,0,0,0,0,-1,1651,750,0,0
434,274,0,0,0,0,0,0,0,0,0,-1,1658,750,0,0
441,274,0,0,0,0,0,0,0,0,0,-1,1665,750,0,0
448,274,0,0,0,0,0,0,0,0,0,-1,1672,750,0,0
455,274,0,0,0,0,0,0,0,0,0,-1,1679,750,0,0
462,274,0,0,0,0,0,0,0,0,0,-1,1686,750,0,0
469,274,0,0,0,0,0,0,0,0,0,-1,1693,750,0,0
476,274,0,0,0,0,0,0,0,0,0,-1,1700,750,0,0
483,274,0,0,0,0,0,0,0,0,0,-1,1707,750,0,0
490,274,0,0,0,0,0,0,0,0,0,-1,1714,750,0,0
497,274,0,0,0,0,0,0,0,0,0,-1,1721,750,0,0
504,274,0,0,0,0,0,0,0,0,0,-1,1728,750,0,0
511,274,0,0,0,0,0,0,0,0,0,-1,1735,750,0,0
518,274,0,0,0,0,0,0,0,0,0,-1,1742,750,0,0
525,274,0,0,0,0,0,0,0,0,0,-1,1749,750,0,0
532,274,0,0,0,0,0,0,0,0,0,-1,1756,750,0,0
539,274,0,0,0,0,0,0,0,0,0,-1,1763,750,0,0
546,274,0,0,0,0,0,0,0,0,0,-1,1770,750,0,0
553,274,0,0,0,0,0,0,0,0,0,-1,1777,750,0,0
560,274,48.2606,3.16077,0,0,0,0,0,0,0,-1,1784,750,48.2606,-3.16077
567,274,49.3839,3.81525,0,0,0,0,0,0,0,-1,1791,750,49.3839,-3.81527
574,274,49.8195,3.0932,-0.0283684,0.0301166,0.00723074,0.0309973,-0.0292491,1.44959,0.0347882,0.0476815,1798,750,49.8194,-3.09318
581,274,48.5458,3.479,0,0,0,0,0,0,0,-1,1805,750,48.5458,-3.47899
588,274,48.214,3.53003,0,0,0,0,0,0,0,-1,1812,750,48.214,-3.53005
595,274,48.297,3.80011,0,0,0,0,0,0,0,-1,1819,750,48.297,-3.80011
602,274,48.3679,4.1048,0,0,0,0,0,0,0,-1,1826,750,48.3679,-4.1048
609,274,44.6676,3.10461,0,0,0,0,0,0,0,-1,1833,750,44.6676,-3.1046
616,274,32.7869,1.78436,0,0,0,0,0,0,0,-1,1840,750,32.7868,-1.78437
623,274,24.8231,-1.80353,0,0,0,0,0,0,0,-1,1847,750,24.8232,1.80351
630,274,32.1343,-3.93585,0,0,0,0,0,0,0,-1,1854,750,32.1343,3.93586
637,274,32.0315,-3.33539,0.0100015,0.00471941,-0.00249913,0.0109965,0.00372442,-0.378899,0.00645802,0.0185978,1861,750,32.0315,3.33539
644,274,32.0249,-2.69611,0.00684532,0.00300679,-0.00167612,0.00747418,0.00237793,-0.358937,0.00440933,0.0121882,1868,750,32.0249,2.6961
651,274,32.0176,-2.09735,0.00296733,0.00075113,-0.000464967,0.00306093,0.000657531,-0.198647,0.00186058,0.0136357,1875,750,32.0176,2.09734
658,274,32.0029,-1.50342,0.000578058,-0.00054944,-0.00015647,0.000599369,-0.000570752,-0.135369,0.000675637,0.0160783,1882,750,32.0029,1.5034
665,274,31.9698,-0.861877,0.00050273,-4.65166e-05,9.46185e-05,0.000518573,-6.23595e-05,0.165901,0.000368266,0.0162989,1889,750,31.9699,0.861887
672,274,31.9799,-0.253174,0.000432222,0.000656216,0.000353773,0.000915296,0.000173141,0.938697,0.000561454,0.0139731,1896,750,31.9798,0.253199
679,274,31.9397,0.3573,0.000408002,0.00167643,0.000672338,0.00196648,0.000117951,1.16351,0.00127349,0.0147731,1903,750,31.9397,-0.357312
686,274,31.9073,0.955017,0.000424839,0.00286841,0.00103021,0.00324478,4.84739e-05,1.22053,0.00214721,0.0156145,1910,750,31.9073,-0.955009
693,274,31.8693,1.55804,0.00047204,0.00422942,0.00147302,0.00473804,-3.65812e-05,1.23832,0.00317096,0.0122402,1917,750,31.8693,-1.55805
700,274,31.8597,2.19519,0.000544311,0.00595147,0.00206278,0.00664854,-0.000152756,1.24492,0.00448415,0.0164521,1924,750,31.8598,-2.19517
707,274,31.7852,2.83417,0.000711593,0.00802352,0.00298707,0.00908864,-0.000353528,1.22827,0.00618031,0.0305689,1931,750,31.7852,-2.83419
714,274,31.9574,3.50385,0,0,0,0,0,0,0,-1,1938,750,31.9574,-3.50385
721,274,25.6215,3.91144,0,0,0,0,0,0,0,-1,1945,750,25.6214,-3.91141
728,274,19.2209,3.95154,0,0,0,0,0,0,0,-1,1952,750,19.221,-3.95151
735,274,20.6608,4.10931,0,0,0,0,0,0,0,-1,1959,750,20.6607,-4.10932
742,274,11.7815,-0.740234,0,0,0,0,0,0,0,-1,1966,750,11.7815,0.740253
749,274,0,0,0,0,0,0,0,0,0,-1,1973,750,0,0
756,274,0,0,0,0,0,0,0,0,0,-1,1980,750,0,0
763,274,0,0,0,0,0,0,0,0,0,-1,1987,750,0,0
770,274,0,0,0,0,0,0,0,0,0,-1,1994,750,0,0
777,274,0,0,0,0,0,0,0,0,0,-1,2001,750,0,0
784,274,0,0,0,0,0,0,0,0,0,-1,2008,750,0,0
791,274,0,0,0,0,0,0,0,0,0,-1,2015,750,0,0
798,274,0,0,0,0,0,0,0,0,0,-1,2022,750,0,0
805,274,0,0,0,0,0,0,0,0,0,-1,2029,750,0,0
812,274,0,0,0,0,0,0,0,0,0,-1,2036,750,0,0
-700,267,0,0,0,0,0,0,0,0,0,-1,524,757,0,0
-693,267,0,0,0,0,0,0,0,0,0,-1,531,757,0,0
-686,267,0,0,0,0,0,0,0,0,0,-1,538,757,0,0
-679,267,0,0,0,0,0,0,0,0,0,-1,545,757,0,0
-672,267,0,0,0,0,0,0,0,0,0,-1,552,757,0,0
-665,267,0,0,0,0,0,0,0,0,0,-1,559,757,0,0
-658,267,0,0,0,0,0,0,0,0,0,-1,566,757,0,0
-651,267,0,0,0,0,0,0,0,0,0,-1,573,757,0,0
-644,267,0,0,0,0,0,0,0,0,0,-1,580,757,0,0
-637,267,0,0,0,0,0,0,0,0,0,-1,587,757,0,0
-630,267,-21.3979,5.17529,0,0,0,0,0,0,0,-1,594,757,-21.3979,-5.17529
-623,267,-20.043,4.43115,0,0,0,0,0,0,0,-1,601,757,-20.043,-4.43116
-616,267,-18.6576,5.19214,0,0,0,0,0,0,0,-1,608,757,-18.6576,-5.19215
-609,267,-18.6078,4.34973,0,0,0,0,0,0,0,-1,615,757,-18.6078,-4.34976
-602,267,-19.3658,2.84296,0,0,0,0,0,0,0,-1,622,757,-19.3658,-2.84295
-595,267,-21.6169,2.06018,0,0,0,0,0,0,0,-1,629,757,-21.617,-2.06016
-588,267,-21.3946,1.53125,0.00826176,0.00245565,-0.00217954,0.00898887,0.00172853,-0.321998,0.00550757,0.0473811,636,757,-21.3946,-1.53123
-581,267,-21.439,0.922119,0.0058654,0.00210044,-0.00159442,0.00644988,0.00151596,-0.351368,0.00389423,0.0353162,643,757,-21.439,-0.922106
-574,267,-21.456,0.22467,0.00407478,0.00180573,-0.00101593,0.00446317,0.00141734,-0.365154,0.00263337,0.0202527,650,757,-21.456,-0.224676
-567,267,-21.5536,-0.349365,0.00268891,0.00135319,-0.000497984,0.00285413,0.00118797,-0.320353,0.00165552,0.0267586,657,757,-21.5536,0.349384
-560,267,-21.5772,-0.898071,0.00154553,0.000745615,2.4757e-05,0.0015463,0.000744849,0.03091,0.000892955,0.0226648,664,757,-21.5772,0.89808
-553,267,-21.6114,-1.47711,0.000611188,4.56054e-05,0.000540975,0.000938827,-0.000282034,0.54456,0.000738082,0.0178452,671,757,-21.6114,1.47714
-546,267,-21.6343,-2.09912,-0.000150114,-0.000720681,0.00108748,0.000688877,-0.00155967,0.657121,0.00133026,0.0115284,678,757,-21.6344,2.09912
-539,267,-21.6439,-2.68018,-0.000693748,-0.00149485,0.00159321,0.000548487,-0.00273709,0.662244,0.00203238,0.0111509,685,757,-21.6439,2.68016
-532,267,-21.6403,-3.24677,-0.000982406,-0.00242644,0.00196634,0.000390282,-0.00379913,0.609446,0.00267236,0.0123015,692,757,-21.6403,3.24674
-525,267,-21.6934,-3.78381,0.000549905,-0.00313736,0.00279855,0.00205752,-0.00464498,0.494136,0.00396464,0.0118157,699,757,-21.6934,3.78382
-518,267,-21.7249,-4.36963,0.00261521,-0.00356124,0.00408696,0.00464953,-0.00559556,0.461851,0.0059234,0.0120414,706,757,-21.7249,4.3696
-511,267,-21.7159,-4.95868,0.00470414,-0.00378947,0.00508502,0.0070825,-0.00616783,0.43749,0.00765615,0.0187832,713,757,-21.716,4.95871
-504,267,-21.8335,-5.40424,0.00690197,-0.00384361,0.00635821,0.00985346,-0.0067951,0.434601,0.00966597,0.0353027,720,757,-21.8335,5.40423
-497,267,-22.0096,-5.84668,0,0,0,0,0,0,0,-1,727,757,-22.0097,5.84668
-490,267,-23.4949,-0.494995,0,0,0,0,0,0,0,-1,734,757,-23.4949,0.494981
-483,267,-33.2785,-0.448425,0,0,0,0,0,0,0,-1,741,757,-33.2785,0.448407
-476,267,-36.8569,0.730957,0,0,0,0,0,0,0,-1,748,757,-36.8569,-0.730982
-469,267,-36.4594,0.814514,0,0,0,0,0,0,0,-1,755,757,-36.4594,-0.814491
-462,267,-35.7729,1.06555,0,0,0,0,0,0,0,-1,762,757,-35.7729,-1.06557
-455,267,-36.7804,1.13776,0,0,0,0,0,0,0,-1,769,757,-36.7804,-1.13775
-448,267,-37.1287,1.08661,0,0,0,0,0,0,0,-1,776,757,-37.1286,-1.08664
-441,267,0,0,0,0,0,0,0,0,0,-1,783,757,0,0
-434,267,0,0,0,0,0,0,0,0,0,-1,790,757,0,0
-427,267,0,0,0,0,0,0,0,0,0,-1,797,757,0,0
-420,267,0,0,0,0,0,0,0,0,0,-1,804,757,0,0
-413,267,0,0,0,0,0,0,0,0,0,-1,811,757,0,0
-406,267,0,0,0,0,0,0,0,0,0,-1,818,757,0,0
-399,267,0,0,0,0,0,0,0,0,0,-1,825,757,0,0
-392,267,0,0,0,0,0,0,0,0,0,-1,832,757,0,0
-385,267,0,0,0,0,0,0,0,0,0,-1,839,757,0,0
-378,267,0,0,0,0,0,0,0,0,0,-1,846,757,0,0
-371,267,0,0,0,0,0,0,0,0,0,-1,853,757,0,0
-364,267,0,0,0,0,0,0,0,0,0,-1,860,757,0,0
-357,267,0,0,0,0,0,0,0,0,0,-1,867,757,0,0
-350,267,0,0,0,0,0,0,0,0,0,-1,874,757,0,0
-343,267,0,0,0,0,0,0,0,0,0,-1,881,757,0,0
-336,267,0,0,0,0,0,0,0,0,0,-1,888,757,0,0
-329,267,0,0,0,0,0,0,0,0,0,-1,895,757,0,0
-322,267,0,0,0,0,0,0,0,0,0,-1,902,757,0,0
-315,267,0,0,0,0,0,0,0,0,0,-1,909,757,0,0
-308,267,0,0,0,0,0,0,0,0,0,-1,916,757,0,0
-301,267,0,0,0,0,0,0,0,0,0,-1,923,757,0,0
-294,267,0,0,0,0,0,0,0,0,0,-1,930,757,0,0
-287,267,0,0,0,0,0,0,0,0,0,-1,937,757,0,0
-280,267,0,0,0,0,0,0,0,0,0,-1,944,757,0,0
-273,267,0,0,0,0,0,0,0,0,0,-1,951,757,0,0
-266,267,0,0,0,0,0,0,0,0,0,-1,958,757,0,0
-259,267,0,0,0,0,0,0,0,0,0,-1,965,757,0,0
-252,267,0,0,0,0,0,0,0,0,0,-1,972,757,0,0
-245,267,0,0,0,0,0,0,0,0,0,-1,979,757,0,0
-238,267,0,0,0,0,0,0,0,0,0,-1,986,757,0,0
-231,267,0,0,0,0,0,0,0,0,0,-1,993,757,0,0
-224,267,0,0,0,0,0,0,0,0,0,-1,1000,757,0,0
-217,267,0,0,0,0,0,0,0,0,0,-1,1007,757,0,0
-210,267,0,0,0,0,0,0,0,0,0,-1,1014,757,0,0
-203,267,0,0,0,0,0,0,0,0,0,-1,1021,757,0,0
-196,267,0,0,0,0,0,0,0,0,0,-1,1028,757,0,0
-189,267,0,0,0,0,0,0,0,0,0,-1,1035,757,0,0
-182,267,0,0,0,0,0,0,0,0,0,-1,1042,757,0,0
-175,267,0,0,0,0,0,0,0,0,0,-1,1049,757,0,0
-168,267,0,0,0,0,0,0,0,0,0,-1,1056,757,0,0
-161,267,0,0,0,0,0,0,0,0,0,-1,1063,757,0,0
-154,267,0,0,0,0,0,0,0,0,0,-1,1070,757,0,0
-147,267,0,0,0,0,0,0,0,0,0,-1,1077,757,0,0
-140,267,0,0,0,0,0,0,0,0,0,-1,1084,757,0,0
-133,267,0,0,0,0,0,0,0,0,0,-1,1091,757,0,0
-126,267,0,0,0,0,0,0,0,0,0,-1,1098,757,0,0
-119,267,0,0,0,0,0,0,0,0,0,-1,1105,757,0,0
-112,267,0,0,0,0,0,0,0,0,0,-1,1112,757,0,0
-105,267,0,0,0,0,0,0,0,0,0,-1,1119,757,0,0
-98,267,0,0,0,0,0,0,0,0,0,-1,1126,757,0,0
-91,267,0,0,0,0,0,0,0,0,0,-1,1133,757,0,0
-84,267,0,0,0,0,0,0,0,0,0,-1,1140,757,0,0
-77,267,0,0,0,0,0,0,0,0,0,-1,1147,757,0,0
-70,267,0,0,0,0,0,0,0,0,0,-1,1154,757,0,0
-63,267,0,0,0,0,0,0,0,0,0,-1,1161,757,0,0
-56,267,0,0,0,0,0,0,0,0,0,-1,1168,757,0,0
-49,267,0,0,0,0,0,0,0,0,0,-1,1175,757,0,0
-42,267,0,0,0,0,0,0,0,0,0,-1,1182,757,0,0
-35,267,0,0,0,0,0,0,0,0,0,-1,1189,757,0,0
-28,267,0,0,0,0,0,0,0,0,0,-1,1196,757,0,0
-21,267,0,0,0,0,0,0,0,0,0,-1,1203,757,0,0
-14,267,0,0,0,0,0,0,0,0,0,-1,1210,757,0,0
-7,267,0,0,0,0,0,0,0,0,0,-1,1217,757,0,0
0,267,0,0,0,0,0,0,0,0,0,-1,1224,757,0,0
7,267,0,0,0,0,0,0,0,0,0,-1,1231,757,0,0
14,267,0,0,0,0,0,0,0,0,0,-1,1238,757,0,0
21,267,0,0,0,0,0,0,0,0,0,-1,1245,757,0,0
28,267,0,0,0,0,0,0,0,0,0,-1,1252,757,0,0
35,267,0,0,0,0,0,0,0,0,0,-1,1259,757,0,0
42,267,0,0,0,0,0,0,0,0,0,-1,1266,757,0,0
49,267,0,0,0,0,0,0,0,0,0,-1,1273,757,0,0
56,267,0,0,0,0,0,0,0,0,0,-1,1280,757,0,0
63,267,0,0,0,0,0,0,0,0,0,-1,1287,757,0,0
70,267,0,0,0,0,0,0,0,0,0,-1,1294,757,0,0
77,267,0,0,0,0,0,0,0,0,0,-1,1301,757,0,0
84,267,0,0,0,0,0,0,0,0,0,-1,1308,757,0,0
91,267,0,0,0,0,0,0,0,0,0,-1,1315,757,0,0
98,267,0,0,0,0,0,0,0,0,0,-1,1322,757,0,0
105,267,0,0,0,0,0,0,0,0,0,-1,1329,757,0,0
112,267,0,0,0,0,0,0,0,0,0,-1,1336,757,0,0
119,267,0,0,0,0,0,0,0,0,0,-1,1343,757,0,0
126,267,0,0,0,0,0,0,0,0,0,-1,1350,757,0,0
133,267,0,0,0,0,0,0,0,0,0,-1,1357,757,0,0
140,267,0,0,0,0,0,0,0,0,0,-1,1364,757,0,0
147,267,0,0,0,0,0,0,0,0,0,-1,1371,757,0,0
154,267,0,0,0,0,0,0,0,0,0,-1,1378,757,0,0
161,267,0,0,0,0,0,0,0,0,0,-1,1385,757,0,0
168,267,0,0,0,0,0,0,0,0,0,-1,1392,757,0,0
175,267,0,0,0,0,0,0,0,0,0,-1,1399,757,0,0
182,267,0,0,0,0,0,0,0,0,0,-1,1406,757,0,0
189,267,0,0,0,0,0,0,0,0,0,-1,1413,757,0,0
196,267,0,0,0,0,0,0,0,0,0,-1,1420,757,0,0
203,267,0,0,0,0,0,0,0,0,0,-1,1427,757,0,0
210,267,0,0,0,0,0,0,0,0,0,-1,1434,757,0,0
217,267,0,0,0,0,0,0,0,0,0,-1,1441,757,0,0
224,267,0,0,0,0,0,0,0,0,0,-1,1448,757,0,0
231,267,0,0,0,0,0,0,0,0,0,-1,1455,757,0,0
238,267,0,0,0,0,0,0,0,0,0,-1,1462,757,0,0
245,267,0,0,0,0,0,0,0,0,0,-1,1469,757,0,0
252,267,0,0,0,0,0,0,0,0,0,-1,1476,757,0,0
259,267,0,0,0,0,0,0,0,0,0,-1,1483,757,0,0
266,267,0,0,0,0,0,0,0,0,0,-1,1490,757,0,0
273,267,0,0,0,0,0,0,0,0,0,-1,1497,757,0,0
280,267,0,0,0,0,0,0,0,0,0,-1,1504,757,0,0
287,267,0,0,0,0,0,0,0,0,0,-1,1511,757,0,0
294,267,0,0,0,0,0,0,0,0,0,-1,1518,757,0,0
301,267,0,0,0,0,0,0,0,0,0,-1,1525,757,0,0
308,267,0,0,0,0,0,0,0,0,0,-1,1532,757,0,0
315,267,0,0,0,0,0,0,0,0,0,-1,1539,757,0,0
322,267,0,0,0,0,0,0,0,0,0,-1,1546,757,0,0
329,267,0,0,0,0,0,0,0,0,0,-1,1553,757,0,0
336,267,0,0,0,0,0,0,0,0,0,-1,1560,757,0,0
343,267,0,0,0,0,0,0,0,0,0,-1,1567,757,0,0
350,267,0,0,0,0,0,0,0,0,0,-1,1574,757,0,0
357,267,0,0,0,0,0,0,0,0,0,-1,1581,757,0,0
364,267,0,0,0,0,0,0,0,0,0,-1,1588,757,0,0
371,267,0,0,0,0,0,0,0,0,0,-1,1595,757,0,0
378,267,0,0,0,0,0,0,0,0,0,-1,1602,757,0,0
385,267,0,0,0,0,0,0,0,0,0,-1,1609,757,0,0
392,267,0,0,0,0,0,0,0,0,0,-1,1616,757,0,0
399,267,0,0,0,0,0,0,0,0,0,-1,1623,757,0,0
406,267,0,0,0,0,0,0,0,0,0,-1,1630,757,0,0
413,267,0,0,0,0,0,0,0,0,0,-1,1637,757,0,0
420,267,0,0,0,0,0,0,0,0,0,-1,1644,757,0,0
427,267,0,0,0,0,0,0,0,0,0,-1,1651,757,0,0
434,267,0,0,0,0,0,0,0,0,0,-1,1658,757,0,0
441,267,0,0,0,0,0,0,0,0,0,-1,1665,757,0,0
448,267,0,0,0,0,0,0,0,0,0,-1,1672,757,0,0
455,267,0,0,0,0,0,0,0,0,0,-1,1679,757,0,0
462,267,0,0,0,0,0,0,0,0,0,-1,1686,757,0,0
469,267,0,0,0,0,0,0,0,0,0,-1,1693,757,0,0
476,267,0,0,0,0,0,0,0,0,0,-1,1700,757,0,0
483,267,0,0,0,0,0,0,0,0,0,-1,1707,757,0,0
490,267,0,0,0,0,0,0,0,0,0,-1,1714,757,0,0
497,267,0,0,0,0,0,0,0,0,0,-1,1721,757,0,0
504,267,0,0,0,0,0,0,0,0,0,-1,1728,757,0,0
511,267,0,0,0,0,0,0,0,0,0,-1,1735,757,0,0
518,267,0,0,0,0,0,0,0,0,0,-1,1742,757,0,0
525,267,0,0,0,0,0,0,0,0,0,-1,1749,757,0,0
532,267,0,0,0,0,0,0,0,0,0,-1,1756,757,0,0
539,267,0,0,0,0,0,0,0,0,0,-1,1763,757,0,0
546,267,0,0,0,0,0,0,0,0,0,-1,1770,757,0,0
553,267,0,0,0,0,0,0,0,0,0,-1,1777,757,0,0
560,267,0,0,0,0,0,0,0,0,0,-1,1784,757,0,0
567,267,49.8069,3.02502,0,0,0,0,0,0,0,-1,1791,757,49.8069,-3.02504
574,267,49.8621,2.88489,0,0,0,0,0,0,0,-1,1798,757,49.862,-2.88486
581,267,49.7841,3.12476,0,0,0,0,0,0,0,-1,1805,757,49.784,-3.12478
588,267,48.9998,3.05487,0,0,0,0,0,0,0,-1,1812,757,48.9997,-3.05486
595,267,49.0627,3.46057,0.0177987,0.0215316,-0.0040593,0.024133,0.0151973,-1.00088,0.0140887,0.0466063,1819,757,49.0628,-3.46059
602,267,50.0582,3.47998,0.0189079,0.0178373,-0.00436495,0.0227703,0.013975,-0.724385,0.0132593,0.0463464,1826,757,50.0582,-3.47998
609,267,51.6356,3.68109,0,0,0,0,0,0,0,-1,1833,757,51.6356,-3.68106
616,267,44.2543,3.28918,0,0,0,0,0,0,0,-1,1840,757,44.2542,-3.28918
623,267,24.1475,-1.1391,0,0,0,0,0,0,0,-1,1847,757,24.1475,1.13913
630,267,32.9327,-3.50543,0,0,0,0,0,0,0,-1,1854,757,32.9328,3.50542
637,267,32.7189,-3.12787,0.0100115,0.0047086,-0.00240306,0.0109384,0.00378165,-0.368149,0.00641472,0.0388799,1861,757,32.7189,3.12785
644,267,32.6334,-2.66626,0.00712016,0.00316271,-0.00170244,0.00775173,0.00253114,-0.355242,0.00456437,0.0134278,1868,757,32.6335,2.66628
651,267,32.5984,-2.04736,0.00331632,0.00089328,-0.000590703,0.00345265,0.000756946,-0.226828,0.00209553,0.0142914,1875,757,32.5983,2.04735
658,267,32.5828,-1.4549,0.000688967,-0.000667327,-0.000409205,0.000802863,-0.000781223,-0.271464,0.000914601,0.0146515,1882,757,32.5828,1.45489
665,267,32.5745,-0.85437,0.000521545,-0.00031978,-0.000223199,0.000577092,-0.000375326,-0.24391,0.000553977,0.0150851,1889,757,32.5744,0.854391
672,267,32.5779,-0.244324,0.000420702,0.000226892,3.95345e-05,0.000428456,0.000219138,0.19368,0.000247391,0.0138075,1896,757,32.5779,0.244352
679,267,32.5466,0.367798,0.000402558,0.0011508,0.000396034,0.00132148,0.000231876,1.16387,0.000814766,0.0128509,1903,757,32.5466,-0.367777
686,267,32.5247,0.981628,0.000515147,0.00233614,0.000810012,0.0026443,0.000206987,1.20727,0.00169808,0.0140823,1910,757,32.5246,-0.981621
693,267,32.4832,1.55603,0.00071016,0.00369908,0.0013297,0.004205,0.000204238,1.20723,0.00273779,0.0142441,1917,757,32.4832,-1.55601
700,267,32.476,2.16479,0.000953587,0.00533406,0.00197762,0.00609478,0.000192874,1.20358,0.00400044,0.0154106,1924,757,32.4759,-2.1648
707,267,32.4607,2.76434,0.00129676,0.00728269,0.00289887,0.00845641,0.000123033,1.18608,0.00559705,0.0156712,1931,757,32.4607,-2.76433
714,267,32.5138,3.45013,0.00191194,0.00987937,0.00427665,0.0117403,5.1023e-05,1.16037,0.00780991,0.0354789,1938,757,32.5138,-3.45012
721,267,32.5974,4.1673,0,0,0,0,0,0,0,-1,1945,757,32.5974,-4.16732
728,267,26.7886,3.90027,0,0,0,0,0,0,0,-1,1952,757,26.7886,-3.90028
735,267,24.6713,2.82483,0,0,0,0,0,0,0,-1,1959,757,24.6713,-2.82483
742,267,18.1177,3.56561,0,0,0,0,0,0,0,-1,1966,757,18.1176,-3.56564
749,267,0,0,0,0,0,0,0,0,0,-1,1973,757,0,0
756,267,0,0,0,0,0,0,0,0,0,-1,1980,757,0,0
763,267,0,0,0,0,0,0,0,0,0,-1,1987,757,0,0
770,267,0,0,0,0,0,0,0,0,0,-1,1994,757,0,0
777,267,0,0,0,0,0,0,0,0,0,-1,2001,757,0,0
784,267,0,0,0,0,0,0,0,0,0,-1,2008,757,0,0
791,267,0,0,0,0,0,0,0,0,0,-1,2015,757,0,0
798,267,0,0,0,0,0,0,0,0,0,-1,2022,757,0,0
805,267,0,0,0,0,0,0,0,0,0,-1,2029,757,0,0
812,267,0,0,0,0,0,0,0,0,0,-1,2036,757,0,0
-700,260,0,0,0,0,0,0,0,0,0,-1,524,764,0,0
-693,260,0,0,0,0,0,0,0,0,0,-1,531,764,0,0
-686,260,0,0,0,0,0,0,0,0,0,-1,538,764,0,0
-679,260,0,0,0,0,0,0,0,0,0,-1,545,764,0,0
-672,260,0,0,0,0,0,0,0,0,0,-1,552,764,0,0
-665,260,0,0,0,0,0,0,0,0,0,-1,559,764,0,0
-658,260,0,0,0,0,0,0,0,0,0,-1,566,764,0,0
-651,260,0,0,0,0,0,0,0,0,0,-1,573,764,0,0
-644,260,0,0,0,0,0,0,0,0,0,-1,580,764,0,0
-637,260,0,0,0,0,0,0,0,0,0,-1,587,764,0,0
-630,260,-21.8905,4.49341,0,0,0,0,0,0,0,-1,594,764,-21.8905,-4.49342
-623,260,-20.3127,3.53546,0,0,0,0,0,0,0,-1,601,764,-20.3127,-3.53544
-616,260,-23.4346,3.65009,0,0,0,0,0,0,0,-1,608,764,-23.4345,-3.65008
-609,260,-18.557,3.77429,0,0,0,0,0,0,0,-1,615,764,-18.557,-3.77426
-602,260,-20.5432,2.90839,0,0,0,0,0,0,0,-1,622,764,-20.5432,-2.90838
-595,260,-22.8056,1.86359,0,0,0,0,0,0,0,-1,629,764,-22.8056,-1.86358
-588,260,-22.4462,1.29517,0.00699417,0.00271085,-0.00295435,0.00850147,0.00120356,-0.471771,0.0053121,0.0460267,636,764,-22.4462,-1.29514
-581,260,-22.1158,0.771057,0.0050609,0.00221083,-0.00209637,0.00617072,0.00110101,-0.486891,0.00380035,0.0276009,643,764,-22.1158,-0.771057
-574,260,-22.1096,0.225769,0.00347342,0.00175463,-0.00130031,0.00417267,0.00105538,-0.493392,0.00250522,0.0176364,650,764,-22.1095,-0.225799
-567,260,-22.1317,-0.312256,0.0021578,0.00115276,-0.000587375,0.00242829,0.000882279,-0.431549,0.00141932,0.01868,657,764,-22.1317,0.312244
-560,260,-22.1696,-0.859924,0.00102389,0.000436597,8.37395e-05,0.0010356,0.00042489,0.138898,0.000601103,0.0205417,664,764,-22.1696,0.859931
-553,260,-22.2092,-1.45416,4.73537e-05,-0.000394691,0.000739293,0.000597956,-0.000945294,0.640145,0.000898487,0.0174386,671,764,-22.2092,1.45417
-546,260,-22.2085,-2.05432,-0.000775822,-0.00127318,0.00141238,0.000409603,-0.00245861,0.698256,0.00179128,0.0117556,678,764,-22.2085,2.05433
-539,260,-22.2076,-2.6377,-0.00127444,-0.0021263,0.00193634,0.000282262,-0.003683,0.677139,0.00255462,0.0126801,685,764,-22.2076,2.63768
-532,260,-22.2025,-3.17932,-0.00139705,-0.00302553,0.00227808,0.000207929,-0.00463051,0.613762,0.0031586,0.0167164,692,764,-22.2025,3.17934
-525,260,-22.2562,-3.76666,0.000533356,-0.00351339,0.00304329,0.00216452,-0.00514455,0.492022,0.00433523,0.0146611,699,764,-22.2562,3.76665
-518,260,-22.3198,-4.31781,0.00276948,-0.00370228,0.0042733,0.00489382,-0.00582663,0.461341,0.00619726,0.0178786,706,764,-22.3198,4.31779
-511,260,-22.3242,-4.87976,0.00490759,-0.00370505,0.00511036,0.0072841,-0.00608156,0.435288,0.00772707,0.0334537,713,764,-22.3242,4.87976
-504,260,-22.4334,-5.43604,0,0,0,0,0,0,0,-1,720,764,-22.4334,5.43604
-497,260,-16.6542,-3.67334,0,0,0,0,0,0,0,-1,727,764,-16.6542,3.67331
-490,260,-29.4557,0.921387,0,0,0,0,0,0,0,-1,734,764,-29.4557,-0.921369
-483,260,-37.6458,0.823425,0,0,0,0,0,0,0,-1,741,764,-37.6458,-0.823419
-476,260,-36.9046,1.06104,0.0207443,-0.00202469,0.016315,0.0292542,-0.0105346,0.480777,0.0238045,0.0439635,748,764,-36.9046,-1.06106
-469,260,-36.2234,1.3219,0.0232057,-0.00172267,0.0212818,0.0354046,-0.0139216,0.520489,0.029365,0.0483879,755,764,-36.2234,-1.3219
-462,260,-36.4485,1.42078,0,0,0,0,0,0,0,-1,762,764,-36.4485,-1.42077
-455,260,-37.0285,1.19409,0,0,0,0,0,0,0,-1,769,764,-37.0285,-1.1941
-448,260,0,0,0,0,0,0,0,0,0,-1,776,764,0,0
-441,260,0,0,0,0,0,0,0,0,0,-1,783,764,0,0
-434,260,0,0,0,0,0,0,0,0,0,-1,790,764,0,0
-427,260,0,0,0,0,0,0,0,0,0,-1,797,764,0,0
-420,260,0,0,0,0,0,0,0,0,0,-1,804,764,0,0
-413,260,0,0,0,0,0,0,0,0,0,-1,811,764,0,0
-406,260,0,0,0,0,0,0,0,0,0,-1,818,764,0,0
-399,260,0,0,0,0,0,0,0,0,0,-1,825,764,0,0
-392,260,0,0,0,0,0,0,0,0,0,-1,832,764,0,0
-385,260,0,0,0,0,0,0,0,0,0,-1,839,764,0,0
-378,260,0,0,0,0,0,0,0,0,0,-1,846,764,0,0
-371,260,0,0,0,0,0,0,0,0,0,-1,853,764,0,0
-364,260,0,0,0,0,0,0,0,0,0,-1,860,764,0,0
-357,260,0,0,0,0,0,0,0,0,0,-1,867,764,0,0
-350,260,0,0,0,0,0,0,0,0,0,-1,874,764,0,0
-343,260,0,0,0,0,0,0,0,0,0,-1,881,764,0,0
-336,260,0,0,0,0,0,0,0,0,0,-1,888,764,0,0
-329,260,0,0,0,0,0,0,0,0,0,-1,895,764,0,0
-322,260,0,0,0,0,0,0,0,0,0,-1,902,764,0,0
-315,260,0,0,0,0,0,0,0,0,0,-1,909,764,0,0
-308,260,0,0,0,0,0,0,0,0,0,-1,916,764,0,0
-301,260,0,0,0,0,0,0,0,0,0,-1,923,764,0,0
-294,260,0,0,0,0,0,0,0,0,0,-1,930,764,0,0
-287,260,0,0,0,0,0,0,0,0,0,-1,937,764,0,0
-280,260,0,0,0,0,0,0,0,0,0,-1,944,764,0,0
-273,260,0,0,0,0,0,0,0,0,0,-1,951,764,0,0
-266,260,0,0,0,0,0,0,0,0,0,-1,958,764,0,0
-259,260,0,0,0,0,0,0,0,0,0,-1,965,764,0,0
-252,260,0,0,0,0,0,0,0,0,0,-1,972,764,0,0
-245,260,0,0,0,0,0,0,0,0,0,-1,979,764,0,0
-238,260,0,0,0,0,0,0,0,0,0,-1,986,764,0,0
-231,260,0,0,0,0,0,0,0,0,0,-1,993,764,0,0
-224,260,0,0,0,0,0,0,0,0,0,-1,1000,764,0,0
-217,260,0,0,0,0,0,0,0,0,0,-1,1007,764,0,0
-210,260,0,0,0,0,0,0,0,0,0,-1,1014,764,0,0
-203,260,0,0,0,0,0,0,0,0,0,-1,1021,764,0,0
-196,260,0,0,0,0,0,0,0,0,0,-1,1028,764,0,0
-189,260,0,0,0,0,0,0,0,0,0,-1,1035,764,0,0
-182,260,0,0,0,0,0,0,0,0,0,-1,1042,764,0,0
-175,260,0,0,0,0,0,0,0,0,0,-1,1049,764,0,0
-168,260,0,0,0,0,0,0,0,0,0,-1,1056,764,0,0
-161,260,0,0,0,0,0,0,0,0,0,-1,1063,764,0,0
-154,260,0,0,0,0,0,0,0,0,0,-1,1070,764,0,0
-147,260,0,0,0,0,0,0,0,0,0,-1,1077,764,0,0
-140,260,0,0,0,0,0,0,0,0,0,-1,1084,764,0,0
-133,260,0,0,0,0,0,0,0,0,0,-1,1091,764,0,0
-126,260,0,0,0,0,0,0,0,0,0,-1,1098,764,0,0
-119,260,0,0,0,0,0,0,0,0,0,-1,1105,764,0,0
-112,260,0,0,0,0,0,0,0,0,0,-1,1112,764,0,0
-105,260,0,0,0,0,0,0,0,0,0,-1,1119,764,0,0
-98,260,0,0,0,0,0,0,0,0,0,-1,1126,764,0,0
-91,260,0,0,0,0,0,0,0,0,0,-1,1133,764,0,0
-84,260,0,0,0,0,0,0,0,0,0,-1,1140,764,0,0
-77,260,0,0,0,0,0,0,0,0,0,-1,1147,764,0,0
-70,260,0,0,0,0,0,0,0,0,0,-1,1154,764,0,0
-63,260,0,0,0,0,0,0,0,0,0,-1,1161,764,0,0
-56,260,0,0,0,0,0,0,0,0,0,-1,1168,764,0,0
-49,260,0,0,0,0,0,0,0,0,0,-1,1175,764,0,0
-42,260,0,0,0,0,0,0,0,0,0,-1,1182,764,0,0
-35,260,0,0,0,0,0,0,0,0,0,-1,1189,764,0,0
-28,260,0,0,0,0,0,0,0,0,0,-1,1196,764,0,0
-21,260,0,0,0,0,0,0,0,0,0,-1,1203,764,0,0
-14,260,0,0,0,0,0,0,0,0,0,-1,1210,764,0,0
-7,260,0,0,0,0,0,0,0,0,0,-1,1217,764,0,0
0,260,0,0,0,0,0,0,0,0,0,-1,1224,764,0,0
7,260,0,0,0,0,0,0,0,0,0,-1,1231,764,0,0
14,260,0,0,0,0,0,0,0,0,0,-1,1238,764,0,0
21,260,0,0,0,0,0,0,0,0,0,-1,1245,764,0,0
28,260,0,0,0,0,0,0,0,0,0,-1,1252,764,0,0
35,260,0,0,0,0,0,0,0,0,0,-1,1259,764,0,0
42,260,0,0,0,0,0,0,0,0,0,-1,1266,764,0,0
49,260,0,0,0,0,0,0,0,0,0,-1,1273,764,0,0
56,260,0,0,0,0,0,0,0,0,0,-1,1280,764,0,0
63,260,0,0,0,0,0,0,0,0,0,-1,1287,764,0,0
70,260,0,0,0,0,0,0,0,0,0,-1,1294,764,0,0
77,260,0,0,0,0,0,0,0,0,0,-1,1301,764,0,0
84,260,0,0,0,0,0,0,0,0,0,-1,1308,764,0,0
91,260,0,0,0,0,0,0,0,0,0,-1,1315,764,0,0
98,260,0,0,0,0,0,0,0,0,0,-1,1322,764,0,0
105,260,0,0,0,0,0,0,0,0,0,-1,1329,764,0,0
112,260,0,0,0,0,0,0,0,0,0,-1,1336,764,0,0
119,260,0,0,0,0,0,0,0,0,0,-1,1343,764,0,0
126,260,0,0,0,0,0,0,0,0,0,-1,1350,764,0,0
133,260,0,0,0,0,0,0,0,0,0,-1,1357,764,0,0
140,260,0,0,0,0,0,0,0,0,0,-1,1364,764,0,0
147,260,0,0,0,0,0,0,0,0,0,-1,1371,764,0,0
154,260,0,0,0,0,0,0,0,0,0,-1,1378,764,0,0
161,260,0,0,0,0,0,0,0,0,0,-1,1385,764,0,0
168,260,0,0,0,0,0,0,0,0,0,-1,1392,764,0,0
175,260,0,0,0,0,0,0,0,0,0,-1,1399,764,0,0
182,260,0,0,0,0,0,0,0,0,0,-1,1406,764,0,0
189,260,0,0,0,0,0,0,0,0,0,-1,1413,764,0,0
196,260,0,0,0,0,0,0,0,0,0,-1,1420,764,0,0
203,260,0,0,0,0,0,0,0,0,0,-1,1427,764,0,0
210,260,0,0,0,0,0,0,0,0,0,-1,1434,764,0,0
217,260,0,0,0,0,0,0,0,0,0,-1,1441,764,0,0
224,260,0,0,0,0,0,0,0,0,0,-1,1448,764,0,0
231,260,0,0,0,0,0,0,0,0,0,-1,1455,764,0,0
238,260,0,0,0,0,0,0,0,0,0,-1,1462,764,0,0
245,260,0,0,0,0,0,0,0,0,0,-1,1469,764,0,0
252,260,0,0,0,0,0,0,0,0,0,-1,1476,764,0,0
259,260,0,0,0,0,0,0,0,0,0,-1,1483,764,0,0
266,260,0,0,0,0,0,0,0,0,0,-1,1490,764,0,0
273,260,0,0,0,0,0,0,0,0,0,-1,1497,764,0,0
280,260,0,0,0,0,0,0,0,0,0,-1,1504,764,0,0
287,260,0,0,0,0,0,0,0,0,0,-1,1511,764,0,0
294,260,0,0,0,0,0,0,0,0,0,-1,1518,764,0,0
301,260,0,0,0,0,0,0,0,0,0,-1,1525,764,0,0
308,260,0,0,0,0,0,0,0,0,0,-1,1532,764,0,0
315,260,0,0,0,0,0,0,0,0,0,-1,1539,764,0,0
322,260,0,0,0,0,0,0,0,0,0,-1,1546,764,0,0
329,260,0,0,0,0,0,0,0,0,0,-1,1553,764,0,0
336,260,0,0,0,0,0,0,0,0,0,-1,1560,764,0,0
343,260,0,0,0,0,0,0,0,0,0,-1,1567,764,0,0
350,260,0,0,0,0,0,0,0,0,0,-1,1574,764,0,0
357,260,0,0,0,0,0,0,0,0,0,-1,1581,764,0,0
364,260,0,0,0,0,0,0,0,0,0,-1,1588,764,0,0
371,260,0,0,0,0,0,0,0,0,0,-1,1595,764,0,0
378,260,0,0,0,0,0,0,0,0,0,-1,1602,764,0,0
385,260,0,0,0,0,0,0,0,0,0,-1,1609,764,0,0
392,260,0,0,0,0,0,0,0,0,0,-1,1616,764,0,0
399,260,0,0,0,0,0,0,0,0,0,-1,1623,764,0,0
406,260,0,0,0,0,0,0,0,0,0,-1,1630,764,0,0
413,260,0,0,0,0,0,0,0,0,0,-1,1637,764,0,0
420,260,0,0,0,0,0,0,0,0,0,-1,1644,764,0,0
427,260,0,0,0,0,0,0,0,0,0,-1,1651,764,0,0
434,260,0,0,0,0,0,0,0,0,0,-1,1658,764,0,0
441,260,0,0,0,0,0,0,0,0,0,-1,1665,764,0,0
448,260,0,0,0,0,0,0,0,0,0,-1,1672,764,0,0
455,260,0,0,0,0,0,0,0,0,0,-1,1679,764,0,0
462,260,0,0,0,0,0,0,0,0,0,-1,1686,764,0,0
469,260,0,0,0,0,0,0,0,0,0,-1,1693,764,0,0
476,260,0,0,0,0,0,0,0,0,0,-1,1700,764,0,0
483,260,0,0,0,0,0,0,0,0,0,-1,1707,764,0,0
490,260,0,0,0,0,0,0,0,0,0,-1,1714,764,0,0
497,260,0,0,0,0,0,0,0,0,0,-1,1721,764,0,0
504,260,0,0,0,0,0,0,0,0,0,-1,1728,764,0,0
511,260,0,0,0,0,0,0,0,0,0,-1,1735,764,0,0
518,260,0,0,0,0,0,0,0,0,0,-1,1742,764,0,0
525,260,0,0,0,0,0,0,0,0,0,-1,1749,764,0,0
532,260,0,0,0,0,0,0,0,0,0,-1,1756,764,0,0
539,260,0,0,0,0,0,0,0,0,0,-1,1763,764,0,0
546,260,0,0,0,0,0,0,0,0,0,-1,1770,764,0,0
553,260,0,0,0,0,0,0,0,0,0,-1,1777,764,0,0
560,260,0,0,0,0,0,0,0,0,0,-1,1784,764,0,0
567,260,0,0,0,0,0,0,0,0,0,-1,1791,764,0,0
574,260,49.8212,2.82782,-0.00832457,0.019073,0.00364841,0.0195505,-0.00880209,1.44065,0.0167569,0.0389274,1798,764,49.8211,-2.82783
581,260,49.7648,3.02527,0.00825455,0.0226171,-0.00135969,0.0227447,0.00812696,-1.47723,0.0133087,0.0487744,1805,764,49.7648,-3.02526
588,260,49.6661,3.22156,0,0,0,0,0,0,0,-1,1812,764,49.6662,-3.22156
595,260,49.87,2.90942,0.020035,0.0195204,-0.00424711,0.0240326,0.0155228,-0.755145,0.0140708,0.0447369,1819,764,49.87,-2.90942
602,260,50.4659,2.96179,0.0196817,0.0164236,-0.00431714,0.0226669,0.0134384,-0.604983,0.0131618,0.0440825,1826,764,50.466,-2.9618
609,260,51.4896,2.97894,0,0,0,0,0,0,0,-1,1833,764,51.4896,-2.97894
616,260,46.0709,2.74542,0,0,0,0,0,0,0,-1,1840,764,46.0709,-2.74545
623,260,32.2268,3.25836,0,0,0,0,0,0,0,-1,1847,764,32.2268,-3.25833
630,260,24.3739,-0.536316,0,0,0,0,0,0,0,-1,1854,764,24.3739,0.536343
637,260,33.4097,-3.21478,0,0,0,0,0,0,0,-1,1861,764,33.4097,3.2148
644,260,33.3456,-2.63721,0.0054597,0.00343198,-0.00182895,0.00653701,0.00235467,-0.532314,0.003823,0.0346591,1868,764,33.3456,2.6372
651,260,33.2491,-2.0097,0.00186585,0.00134262,-0.000923126,0.00256372,0.000644752,-0.647317,0.0015399,0.0158327,1875,764,33.2492,2.00973
658,260,33.1973,-1.40637,-0.00069135,-0.000255419,-0.000895769,0.000448522,-0.00139529,-0.904743,0.00111032,0.0156296,1882,764,33.1973,1.40638
665,260,33.167,-0.817688,-0.000641656,-0.000183675,-0.000757528,0.000378716,-0.00120405,-0.932175,0.000954323,0.0155238,1889,764,33.1669,0.817673
672,260,33.1484,-0.208435,-0.000482296,4.96829e-05,-0.000472833,0.000326208,-0.000758821,-1.04161,0.000642825,0.0136391,1896,764,33.1484,0.208455
679,260,33.1146,0.396545,-0.000253034,0.000715006,-6.01952e-05,0.000718735,-0.000256763,-1.50893,0.000583877,0.0123251,1903,764,33.1146,-0.396517
686,260,33.0948,0.993408,0.000158979,0.00175537,0.000405518,0.00185247,6.18751e-05,1.33577,0.00121488,0.0168149,1910,764,33.0948,-0.993396
693,260,33.0703,1.54089,0.000664744,0.00304295,0.00100443,0.00341039,0.000297296,1.22009,0.00218126,0.0170888,1917,764,33.0703,-1.54091
700,260,33.0343,2.14569,0.00108584,0.00458432,0.00165408,0.00524253,0.000427634,1.19207,0.00336156,0.0145705,1924,764,33.0343,-2.14571
707,260,33.0194,2.7619,0.00165748,0.00639739,0.00252601,0.00749117,0.000563702,1.16217,0.00481722,0.0144735,1931,764,33.0194,-2.7619
714,260,33.012,3.40649,0.00248143,0.0087272,0.00375293,0.0104866,0.000722013,1.13241,0.00676327,0.0268287,1938,764,33.0119,-3.40648
721,260,32.9,4.3197,0,0,0,0,0,0,0,-1,1945,764,32.9,-4.31972
728,260,33.4344,5.75409,0,0,0,0,0,0,0,-1,1952,764,33.4345,-5.75408
735,260,26.9788,4.85681,0,0,0,0,0,0,0,-1,1959,764,26.9787,-4.85678
742,260,32.1443,1.73688,0,0,0,0,0,0,0,-1,1966,764,32.1442,-1.73688
749,260,33.6013,2.94733,0,0,0,0,0,0,0,-1,1973,764,33.6013,-2.9473
756,260,0,0,0,0,0,0,0,0,0,-1,1980,764,0,0
763,260,0,0,0,0,0,0,0,0,0,-1,1987,764,0,0
770,260,0,0,0,0,0,0,0,0,0,-1,1994,764,0,0
777,260,0,0,0,0,0,0,0,0,0,-1,2001,764,0,0
784,260,0,0,0,0,0,0,0,0,0,-1,2008,764,0,0
791,260,0,0,0,0,0,0,0,0,0,-1,2015,764,0,0
798,260,0,0,0,0,0,0,0,0,0,-1,2022,764,0,0
805,260,0,0,0,0,0,0,0,0,0,-1,2029,764,0,0
812,260,0,0,0,0,0,0,0,0,0,-1,2036,764,0,0
-700,253,0,0,0,0,0,0,0,0,0,-1,524,771,0,0
-693,253,0,0,0,0,0,0,0,0,0,-1,531,771,0,0
-686,253,0,0,0,0,0,0,0,0,0,-1,538,771,0,0
-679,253,0,0,0,0,0,0,0,0,0,-1,545,771,0,0
-672,253,0,0,0,0,0,0,0,0,0,-1,552,771,0,0
-665,253,0,0,0,0,0,0,0,0,0,-1,559,771,0,0
-658,253,0,0,0,0,0,0,0,0,0,-1,566,771,0,0
-651,253,0,0,0,0,0,0,0,0,0,-1,573,771,0,0
-644,253,0,0,0,0,0,0,0,0,0,-1,580,771,0,0
-637,253,-24.7979,-0.491394,0,0,0,0,0,0,0,-1,587,771,-24.7978,0.491371
-630,253,-25.156,0.540405,0,0,0,0,0,0,0,-1,594,771,-25.156,-0.540421
-623,253,-20.808,2.84314,0,0,0,0,0,0,0,-1,601,771,-20.8081,-2.84312
-616,253,-25.0877,2.96875,0,0,0,0,0,0,0,-1,608,771,-25.0877,-2.96876
-609,253,-24.28,2.08228,0,0,0,0,0,0,0,-1,615,771,-24.2801,-2.08227
-602,253,-22.4836,2.97498,0,0,0,0,0,0,0,-1,622,771,-22.4836,-2.97498
-595,253,-22.8359,1.98547,0,0,0,0,0,0,0,-1,629,771,-22.8359,-1.9855
-588,253,-22.7518,1.36493,0.00575659,0.00295177,-0.00345799,0.00808573,0.000622636,-0.592755,0.00519539,0.0409794,636,771,-22.7518,-1.36493
-581,253,-22.6623,0.768555,0.00422688,0.002305,-0.00242079,0.00587048,0.000661394,-0.59646,0.00371288,0.0259241,643,771,-22.6623,-0.76853
-574,253,-22.6838,0.228455,0.00284168,0.00168982,-0.00146276,0.00383781,0.000693697,-0.597853,0.00236151,0.0201559,650,771,-22.6838,-0.228441
-567,253,-22.7018,-0.358826,0.00161247,0.000944026,-0.000591692,0.00195781,0.000598686,-0.52831,0.00115841,0.0175102,657,771,-22.7018,0.358847
-560,253,-22.7253,-0.883484,0.000506197,0.000127177,0.000206663,0.000597086,3.62874e-05,0.414334,0.00038653,0.01385,664,771,-22.7253,0.883488
-553,253,-22.7674,-1.44659,-0.000510017,-0.000779434,0.000960921,0.000325592,-0.00161504,0.715758,0.00120004,0.0117627,671,771,-22.7674,1.44662
-546,253,-22.791,-2.00116,-0.00141657,-0.00169205,0.00171082,0.000162045,-0.00327067,0.74523,0.00223642,0.0103444,678,771,-22.7909,2.00115
-539,253,-22.8254,-2.60907,-0.0018762,-0.00249138,0.00214881,-1.30686e-05,-0.0043545,0.714309,0.00289866,0.0119222,685,771,-22.8254,2.60908
-532,253,-22.8094,-3.18793,-0.00188286,-0.00320051,0.00234603,-0.000104904,-0.00497846,0.648511,0.00328457,0.016044,692,771,-22.8094,3.18792
-525,253,-22.8217,-3.76605,0.000198493,-0.0034361,0.0029765,0.00186862,-0.00510623,0.511328,0.00416903,0.0151357,699,771,-22.8217,3.76604
-518,253,-22.8963,-4.32806,0.00240994,-0.00342204,0.00406338,0.00449536,-0.00550745,0.474169,0.00578497,0.0272227,706,771,-22.8963,4.32807
-511,253,-23.0619,-4.7959,0,0,0,0,0,0,0,-1,713,771,-23.0619,4.79591
-504,253,-19.317,-4.1723,0,0,0,0,0,0,0,-1,720,771,-19.317,4.1723
-497,253,-21.7737,-1.76837,0,0,0,0,0,0,0,-1,727,771,-21.7738,1.7684
-490,253,-29.7674,0.438354,0,0,0,0,0,0,0,-1,734,771,-29.7674,-0.438339
-483,253,-37.5868,1.23041,0,0,0,0,0,0,0,-1,741,771,-37.5868,-1.23039
-476,253,-37.3028,1.42999,0.0210629,-0.00152706,0.0149417,0.0284984,-0.00896255,0.461753,0.0225872,0.0465976,748,771,-37.3028,-1.43002
-469,253,-36.838,1.62799,0.0242668,-0.00101609,0.0194315,0.034807,-0.0115563,0.497012,0.0278673,0.0435691,755,771,-36.838,-1.62801
-462,253,-37.3279,1.13068,0,0,0,0,0,0,0,-1,762,771,-37.328,-1.1307
-455,253,-37.3103,1.08057,0,0,0,0,0,0,0,-1,769,771,-37.3103,-1.08058
-448,253,0,0,0,0,0,0,0,0,0,-1,776,771,0,0
-441,253,0,0,0,0,0,0,0,0,0,-1,783,771,0,0
-434,253,0,0,0,0,0,0,0,0,0,-1,790,771,0,0
-427,253,0,0,0,0,0,0,0,0,0,-1,797,771,0,0
-420,253,0,0,0,0,0,0,0,0,0,-1,804,771,0,0
-413,253,0,0,0,0,0,0,0,0,0,-1,811,771,0,0
-406,253,0,0,0,0,0,0,0,0,0,-1,818,771,0,0
-399,253,0,0,0,0,0,0,0,0,0,-1,825,771,0,0
-392,253,0,0,0,0,0,0,0,0,0,-1,832,771,0,0
-385,253,0,0,0,0,0,0,0,0,0,-1,839,771,0,0
-378,253,0,0,0,0,0,0,0,0,0,-1,846,771,0,0
-371,253,0,0,0,0,0,0,0,0,0,-1,853,771,0,0
-364,253,0,0,0,0,0,0,0,0,0,-1,860,771,0,0
-357,253,0,0,0,0,0,0,0,0,0,-1,867,771,0,0
-350,253,0,0,0,0,0,0,0,0,0,-1,874,771,0,0
-343,253,0,0,0,0,0,0,0,0,0,-1,881,771,0,0
-336,253,0,0,0,0,0,0,0,0,0,-1,888,771,0,0
-329,253,0,0,0,0,0,0,0,0,0,-1,895,771,0,0
-322,253,0,0,0,0,0,0,0,0,0,-1,902,771,0,0
-315,253,0,0,0,0,0,0,0,0,0,-1,909,771,0,0
-308,253,0,0,0,0,0,0,0,0,0,-1,916,771,0,0
-301,253,0,0,0,0,0,0,0,0,0,-1,923,771,0,0
-294,253,0,0,0,0,0,0,0,0,0,-1,930,771,0,0
-287,253,0,0,0,0,0,0,0,0,0,-1,937,771,0,0
-280,253,0,0,0,0,0,0,0,0,0,-1,944,771,0,0
-273,253,0,0,0,0,0,0,0,0,0,-1,951,771,0,0
-266,253,0,0,0,0,0,0,0,0,0,-1,958,771,0,0
-259,253,0,0,0,0,0,0,0,0,0,-1,965,771,0,0
-252,253,0,0,0,0,0,0,0,0,0,-1,972,771,0,0
-245,253,0,0,0,0,0,0,0,0,0,-1,979,771,0,0
-238,253,0,0,0,0,0,0,0,0,0,-1,986,771,0,0
-231,253,0,0,0,0,0,0,0,0,0,-1,993,771,0,0
-224,253,0,0,0,0,0,0,0,0,0,-1,1000,771,0,0
-217,253,0,0,0,0,0,0,0,0,0,-1,1007,771,0,0
-210,253,0,0,0,0,0,0,0,0,0,-1,1014,771,0,0
-203,253,0,0,0,0,0,0,0,0,0,-1,1021,771,0,0
-196,253,0,0,0,0,0,0,0,0,0,-1,1028,771,0,0
-189,253,0,0,0,0,0,0,0,0,0,-1,1035,771,0,0
-182,253,0,0,0,0,0,0,0,0,0,-1,1042,771,0,0
-175,253,0,0,0,0,0,0,0,0,0,-1,1049,771,0,0
-168,253,0,0,0,0,0,0,0,0,0,-1,1056,771,0,0
-161,253,0,0,0,0,0,0,0,0,0,-1,1063,771,0,0
-154,253,0,0,0,0,0,0,0,0,0,-1,1070,771,0,0
-147,253,0,0,0,0,0,0,0,0,0,-1,1077,771,0,0
-140,253,0,0,0,0,0,0,0,0,0,-1,1084,771,0,0
-133,253,0,0,0,0,0,0,0,0,0,-1,1091,771,0,0
-126,253,0,0,0,0,0,0,0,0,0,-1,1098,771,0,0
-119,253,0,0,0,0,0,0,0,0,0,-1,1105,771,0,0
-112,253,0,0,0,0,0,0,0,0,0,-1,1112,771,0,0
-105,253,0,0,0,0,0,0,0,0,0,-1,1119,771,0,0
-98,253,0,0,0,0,0,0,0,0,0,-1,1126,771,0,0
-91,253,0,0,0,0,0,0,0,0,0,-1,1133,771,0,0
-84,253,0,0,0,0,0,0,0,0,0,-1,1140,771,0,0
-77,253,0,0,0,0,0,0,0,0,0,-1,1147,771,0,0
-70,253,0,0,0,0,0,0,0,0,0,-1,1154,771,0,0
-63,253,0,0,0,0,0,0,0,0,0,-1,1161,771,0,0
-56,253,0,0,0,0,0,0,0,0,0,-1,1168,771,0,0
-49,253,0,0,0,0,0,0,0,0,0,-1,1175,771,0,0
-42,253,0,0,0,0,0,0,0,0,0,-1,1182,771,0,0
-35,253,0,0,0,0,0,0,0,0,0,-1,1189,771,0,0
-28,253,0,0,0,0,0,0,0,0,0,-1,1196,771,0,0
-21,253,0,0,0,0,0,0,0,0,0,-1,1203,771,0,0
-14,253,0,0,0,0,0,0,0,0,0,-1,1210,771,0,0
-7,253,0,0,0,0,0,0,0,0,0,-1,1217,771,0,0
0,253,0,0,0,0,0,0,0,0,0,-1,1224,771,0,0
7,253,0,0,0,0,0,0,0,0,0,-1,1231,771,0,0
14,253,0,0,0,0,0,0,0,0,0,-1,1238,771,0,0
21,253,0,0,0,0,0,0,0,0,0,-1,1245,771,0,0
28,253,0,0,0,0,0,0,0,0,0,-1,1252,771,0,0
35,253,0,0,0,0,0,0,0,0,0,-1,1259,771,0,0
42,253,0,0,0,0,0,0,0,0,0,-1,1266,771,0,0
49,253,0,0,0,0,0,0,0,0,0,-1,1273,771,0,0
56,253,0,0,0,0,0,0,0,0,0,-1,1280,771,0,0
63,253,0,0,0,0,0,0,0,0,0,-1,1287,771,0,0
70,253,0,0,0,0,0,0,0,0,0,-1,1294,771,0,0
77,253,0,0,0,0,0,0,0,0,0,-1,1301,771,0,0
84,253,0,0,0,0,0,0,0,0,0,-1,1308,771,0,0
91,253,0,0,0,0,0,0,0,0,0,-1,1315,771,0,0
98,253,0,0,0,0,0,0,0,0,0,-1,1322,771,0,0
105,253,0,0,0,0,0,0,0,0,0,-1,1329,771,0,0
112,253,0,0,0,0,0,0,0,0,0,-1,1336,771,0,0
119,253,0,0,0,0,0,0,0,0,0,-1,1343,771,0,0
126,253,0,0,0,0,0,0,0,0,0,-1,1350,771,0,0
133,253,0,0,0,0,0,0,0,0,0,-1,1357,771,0,0
140,253,0,0,0,0,0,0,0,0,0,-1,1364,771,0,0
147,253,0,0,0,0,0,0,0,0,0,-1,1371,771,0,0
154,253,0,0,0,0,0,0,0,0,0,-1,1378,771,0,0
161,253,0,0,0,0,0,0,0,0,0,-1,1385,771,0,0
168,253,0,0,0,0,0,0,0,0,0,-1,1392,771,0,0
175,253,0,0,0,0,0,0,0,0,0,-1,1399,771,0,0
182,253,0,0,0,0,0,0,0,0,0,-1,1406,771,0,0
189,253,0,0,0,0,0,0,0,0,0,-1,1413,771,0,0
196,253,0,0,0,0,0,0,0,0,0,-1,1420,771,0,0
203,253,0,0,0,0,0,0,0,0,0,-1,1427,771,0,0
210,253,0,0,0,0,0,0,0,0,0,-1,1434,771,0,0
217,253,0,0,0,0,0,0,0,0,0,-1,1441,771,0,0
224,253,0,0,0,0,0,0,0,0,0,-1,1448,771,0,0
231,253,0,0,0,0,0,0,0,0,0,-1,1455,771,0,0
238,253,0,0,0,0,0,0,0,0,0,-1,1462,771,0,0
245,253,0,0,0,0,0,0,0,0,0,-1,1469,771,0,0
252,253,0,0,0,0,0,0,0,0,0,-1,1476,771,0,0
259,253,0,0,0,0,0,0,0,0,0,-1,1483,771,0,0
266,253,0,0,0,0,0,0,0,0,0,-1,1490,771,0,0
273,253,0,0,0,0,0,0,0,0,0,-1,1497,771,0,0
280,253,0,0,0,0,0,0,0,0,0,-1,1504,771,0,0
287,253,0,0,0,0,0,0,0,0,0,-1,1511,771,0,0
294,253,0,0,0,0,0,0,0,0,0,-1,1518,771,0,0
301,253,0,0,0,0,0,0,0,0,0,-1,1525,771,0,0
308,253,0,0,0,0,0,0,0,0,0,-1,1532,771,0,0
315,253,0,0,0,0,0,0,0,0,0,-1,1539,771,0,0
322,253,0,0,0,0,0,0,0,0,0,-1,1546,771,0,0
329,253,0,0,0,0,0,0,0,0,0,-1,1553,771,0,0
336,253,0,0,0,0,0,0,0,0,0,-1,1560,771,0,0
343,253,0,0,0,0,0,0,0,0,0,-1,1567,771,0,0
350,253,0,0,0,0,0,0,0,0,0,-1,1574,771,0,0
357,253,0,0,0,0,0,0,0,0,0,-1,1581,771,0,0
364,253,0,0,0,0,0,0,0,0,0,-1,1588,771,0,0
371,253,0,0,0,0,0,0,0,0,0,-1,1595,771,0,0
378,253,0,0,0,0,0,0,0,0,0,-1,1602,771,0,0
385,253,0,0,0,0,0,0,0,0,0,-1,1609,771,0,0
392,253,0,0,0,0,0,0,0,0,0,-1,1616,771,0,0
399,253,0,0,0,0,0,0,0,0,0,-1,1623,771,0,0
406,253,0,0,0,0,0,0,0,0,0,-1,1630,771,0,0
413,253,0,0,0,0,0,0,0,0,0,-1,1637,771,0,0
420,253,0,0,0,0,0,0,0,0,0,-1,1644,771,0,0
427,253,0,0,0,0,0,0,0,0,0,-1,1651,771,0,0
434,253,0,0,0,0,0,0,0,0,0,-1,1658,771,0,0
441,253,0,0,0,0,0,0,0,0,0,-1,1665,771,0,0
448,253,0,0,0,0,0,0,0,0,0,-1,1672,771,0,0
455,253,0,0,0,0,0,0,0,0,0,-1,1679,771,0,0
462,253,0,0,0,0,0,0,0,0,0,-1,1686,771,0,0
469,253,0,0,0,0,0,0,0,0,0,-1,1693,771,0,0
476,253,0,0,0,0,0,0,0,0,0,-1,1700,771,0,0
483,253,0,0,0,0,0,0,0,0,0,-1,1707,771,0,0
490,253,0,0,0,0,0,0,0,0,0,-1,1714,771,0,0
497,253,0,0,0,0,0,0,0,0,0,-1,1721,771,0,0
504,253,0,0,0,0,0,0,0,0,0,-1,1728,771,0,0
511,253,0,0,0,0,0,0,0,0,0,-1,1735,771,0,0
518,253,0,0,0,0,0,0,0,0,0,-1,1742,771,0,0
525,253,0,0,0,0,0,0,0,0,0,-1,1749,771,0,0
532,253,0,0,0,0,0,0,0,0,0,-1,1756,771,0,0
539,253,0,0,0,0,0,0,0,0,0,-1,1763,771,0,0
546,253,0,0,0,0,0,0,0,0,0,-1,1770,771,0,0
553,253,0,0,0,0,0,0,0,0,0,-1,1777,771,0,0
560,253,0,0,0,0,0,0,0,0,0,-1,1784,771,0,0
567,253,0,0,0,0,0,0,0,0,0,-1,1791,771,0,0
574,253,49.7415,2.70471,-0.0116802,0.00816121,0.0045192,0.00914204,-0.012661,1.35707,0.0126425,0.0353603,1798,771,49.7415,-2.70473
581,253,49.7642,2.75299,0.00670776,0.0157824,-0.000844964,0.0158604,0.00662976,-1.47874,0.00919797,0.0388276,1805,771,49.7642,-2.75298
588,253,49.8607,2.84253,0.0166671,0.01812,-0.00326849,0.0207418,0.0140453,-0.894753,0.0122232,0.0426596,1812,771,49.8607,-2.8425
595,253,50.3896,2.63025,0.0195861,0.0169604,-0.00402376,0.0225058,0.0140408,-0.627709,0.013126,0.0457927,1819,771,50.3897,-2.63027
602,253,50.7019,2.45923,0.0188689,0.0147187,-0.00409747,0.0213868,0.0122009,-0.55101,0.0123885,0.0471923,1826,771,50.7019,-2.45923
609,253,50.9303,2.36438,0,0,0,0,0,0,0,-1,1833,771,50.9303,-2.3644
616,253,48.9897,2.68323,0,0,0,0,0,0,0,-1,1840,771,48.9898,-2.68324
623,253,48.6895,1.55469,0,0,0,0,0,0,0,-1,1847,771,48.6894,-1.55471
630,253,33.561,2.96838,0,0,0,0,0,0,0,-1,1854,771,33.561,-2.96836
637,253,22.3192,-0.604004,0,0,0,0,0,0,0,-1,1861,771,22.3192,0.603986
644,253,34.0719,-2.60486,0,0,0,0,0,0,0,-1,1868,771,34.0718,2.60487
651,253,33.7739,-1.92365,0.00112832,0.00194363,-0.00114295,0.00274945,0.000322499,-0.956701,0.00173548,0.0299209,1875,771,33.7739,1.92365
658,253,33.7524,-1.37457,-0.00128526,0.000455499,-0.00122505,0.00108788,-0.00191764,-1.09426,0.00175715,0.0195299,1882,771,33.7525,1.37456
665,253,33.6823,-0.799377,-0.00127083,0.00024682,-0.00114713,0.000863393,-0.0018874,-1.07761,0.00162444,0.0217991,1889,771,33.6823,0.799407
672,253,33.6698,-0.185425,-0.00107835,0.000106732,-0.000878446,0.000573799,-0.00154542,-1.08211,0.00126567,0.0177875,1896,771,33.6699,0.185439
679,253,33.7133,0.452698,-0.000808566,0.000407977,-0.00046249,0.000563833,-0.000964423,-1.24575,0.000892386,0.0132272,1903,771,33.7132,-0.452727
686,253,33.6816,1.04462,-0.000294596,0.00120258,-2.45251e-05,0.00120299,-0.000294998,-1.55442,0.000916291,0.0203503,1910,771,33.6816,-1.04459
693,253,33.6456,1.60236,0.000447308,0.00232059,0.000575477,0.00248325,0.000284645,1.29532,0.00156925,0.0199327,1917,771,33.6457,-1.60237
700,253,33.6429,2.17023,0.00105267,0.00371939,0.0011924,0.00417479,0.000597267,1.20597,0.00260701,0.0160554,1924,771,33.6429,-2.17024
707,253,33.6198,2.79114,0.00171406,0.0053875,0.00194906,0.00622891,0.000872657,1.16326,0.00389445,0.0153152,1931,771,33.6198,-2.79113
714,253,33.5903,3.41589,0.00255962,0.00747081,0.00297216,0.00887057,0.00115987,1.13065,0.00556751,0.0208953,1938,771,33.5904,-3.4159
721,253,33.5378,4.19061,0.00341658,0.00985792,0.00415459,0.011894,0.00138051,1.11512,0.00751157,0.0387746,1945,771,33.5379,-4.19063
728,253,33.5167,4.94263,0,0,0,0,0,0,0,-1,1952,771,33.5168,-4.94264
735,253,34.5735,6.15118,0,0,0,0,0,0,0,-1,1959,771,34.5734,-6.1512
742,253,31.0571,5.7337,0,0,0,0,0,0,0,-1,1966,771,31.0571,-5.73373
749,253,33.7754,3.21533,0,0,0,0,0,0,0,-1,1973,771,33.7754,-3.21533
756,253,0,0,0,0,0,0,0,0,0,-1,1980,771,0,0
763,253,0,0,0,0,0,0,0,0,0,-1,1987,771,0,0
770,253,0,0,0,0,0,0,0,0,0,-1,1994,771,0,0
777,253,0,0,0,0,0,0,0,0,0,-1,2001,771,0,0
784,253,0,0,0,0,0,0,0,0,0,-1,2008,771,0,0
791,253,0,0,0,0,0,0,0,0,0,-1,2015,771,0,0
798,253,0,0,0,0,0,0,0,0,0,-1,2022,771,0,0
805,253,0,0,0,0,0,0,0,0,0,-1,2029,771,0,0
812,253,0,0,0,0,0,0,0,0,0,-1,2036,771,0,0
-700,246,0,0,0,0,0,0,0,0,0,-1,524,778,0,0
-693,246,0,0,0,0,0,0,0,0,0,-1,531,778,0,0
-686,246,0,0,0,0,0,0,0,0,0,-1,538,778,0,0
-679,246,0,0,0,0,0,0,0,0,0,-1,545,778,0,0
-672,246,0,0,0,0,0,0,0,0,0,-1,552,778,0,0
-665,246,0,0,0,0,0,0,0,0,0,-1,559,778,0,0
-658,246,0,0,0,0,0,0,0,0,0,-1,566,778,0,0
-651,246,0,0,0,0,0,0,0,0,0,-1,573,778,0,0
-644,246,0,0,0,0,0,0,0,0,0,-1,580,778,0,0
-637,246,-24.1234,0.130432,0,0,0,0,0,0,0,-1,587,778,-24.1234,-0.130438
-630,246,-24.0781,1.38916,0,0,0,0,0,0,0,-1,594,778,-24.0781,-1.38913
-623,246,-23.9183,2.49573,0,0,0,0,0,0,0,-1,601,778,-23.9183,-2.49575
-616,246,-26.8182,2.0705,0,0,0,0,0,0,0,-1,608,778,-26.8182,-2.07052
-609,246,-26.0615,1.16388,0,0,0,0,0,0,0,-1,615,778,-26.0615,-1.16388
-602,246,-23.0586,2.74475,0,0,0,0,0,0,0,-1,622,778,-23.0586,-2.74478
-595,246,-23.1023,2.11554,0.00637452,0.00405793,-0.00490721,0.0102583,0.000174163,-0.6695,0.00678155,0.04749,629,778,-23.1023,-2.11556
-588,246,-23.1383,1.43823,0.00473869,0.00316116,-0.00350401,0.00754161,0.000358235,-0.674691,0.00491269,0.0307503,636,778,-23.1383,-1.43823
-581,246,-23.2654,0.841431,0.0034945,0.00236918,-0.00246069,0.00545604,0.000407646,-0.673,0.00350938,0.0178028,643,778,-23.2654,-0.841409
-574,246,-23.2216,0.208862,0.00226196,0.00161055,-0.00145307,0.00342538,0.000447131,-0.675146,0.0021501,0.0180146,650,778,-23.2216,-0.208857
-567,246,-23.2555,-0.363037,0.0010956,0.000742683,-0.000499482,0.00144888,0.000389405,-0.615601,0.000865814,0.0224509,657,778,-23.2555,0.363055
-560,246,-23.3118,-0.899597,-7.78858e-06,-0.000126757,0.000367894,0.000305399,-0.000439945,0.705247,0.000432656,0.017662,664,778,-23.3118,0.899589
-553,246,-23.3055,-1.39771,-0.00106794,-0.0010373,0.00119216,0.000139638,-0.00224487,0.791822,0.00154523,0.012142,671,778,-23.3055,1.39768
-546,246,-23.3479,-1.94055,-0.00205636,-0.00190994,0.00201422,3.23972e-05,-0.0039987,0.803563,0.00267667,0.0102103,678,778,-23.3479,1.94056
-539,246,-23.3858,-2.55817,-0.0024105,-0.00257092,0.00232506,-0.000164267,-0.00481716,0.768155,0.00315811,0.0108713,685,778,-23.3858,2.55814
-532,246,-23.3776,-3.16913,-0.00224179,-0.00304481,0.00235397,-0.000255326,-0.00503127,0.700928,0.00327239,0.0135922,692,778,-23.3776,3.16914
-525,246,-23.4095,-3.71643,-0.000114909,-0.00302669,0.00282291,0.00160543,-0.00474703,0.547318,0.00381416,0.0255471,699,778,-23.4095,3.71642
-518,246,-23.6102,-4.06445,0.00197956,-0.00286158,0.00371471,0.00399275,-0.00487477,0.496643,0.0051281,0.0401874,706,778,-23.6102,4.06443
-511,246,-23.9328,-4.26959,0,0,0,0,0,0,0,-1,713,778,-23.9328,4.26958
-504,246,-20.0047,-2.88214,0,0,0,0,0,0,0,-1,720,778,-20.0047,2.88216
-497,246,-29.4669,1.82684,0,0,0,0,0,0,0,-1,727,778,-29.4669,-1.82687
-490,246,-37.6978,0.940002,0,0,0,0,0,0,0,-1,734,778,-37.6978,-0.93999
-483,246,-37.5725,0.796143,0,0,0,0,0,0,0,-1,741,778,-37.5725,-0.796172
-476,246,-37.3687,1.33521,0.0202093,-0.000539192,0.0125701,0.0261333,-0.00646322,0.440407,0.0199291,0.0445595,748,778,-37.3687,-1.33518
-469,246,-37.0851,1.45538,0.0235412,0.000378819,0.0162857,0.0319437,-0.00802369,0.476321,0.0244139,0.0416215,755,778,-37.0851,-1.45537
-462,246,-37.156,1.3656,0.0243201,0.00195733,0.020163,0.0361945,-0.00991708,0.532233,0.0280264,0.0450548,762,778,-37.156,-1.36561
-455,246,0,0,0,0,0,0,0,0,0,-1,769,778,0,0
-448,246,0,0,0,0,0,0,0,0,0,-1,776,778,0,0
-441,246,0,0,0,0,0,0,0,0,0,-1,783,778,0,0
-434,246,0,0,0,0,0,0,0,0,0,-1,790,778,0,0
-427,246,0,0,0,0,0,0,0,0,0,-1,797,778,0,0
-420,246,0,0,0,0,0,0,0,0,0,-1,804,778,0,0
-413,246,0,0,0,0,0,0,0,0,0,-1,811,778,0,0
-406,246,0,0,0,0,0,0,0,0,0,-1,818,778,0,0
-399,246,0,0,0,0,0,0,0,0,0,-1,825,778,0,0
-392,246,0,0,0,0,0,0,0,0,0,-1,832,778,0,0
-385,246,0,0,0,0,0,0,0,0,0,-1,839,778,0,0
-378,246,0,0,0,0,0,0,0,0,0,-1,846,778,0,0
-371,246,0,0,0,0,0,0,0,0,0,-1,853,778,0,0
-364,246,0,0,0,0,0,0,0,0,0,-1,860,778,0,0
-357,246,0,0,0,0,0,0,0,0,0,-1,867,778,0,0
-350,246,0,0,0,0,0,0,0,0,0,-1,874,778,0,0
-343,246,0,0,0,0,0,0,0,0,0,-1,881,778,0,0
-336,246,0,0,0,0,0,0,0,0,0,-1,888,778,0,0
-329,246,0,0,0,0,0,0,0,0,0,-1,895,778,0,0
-322,246,0,0,0,0,0,0,0,0,0,-1,902,778,0,0
-315,246,0,0,0,0,0,0,0,0,0,-1,909,778,0,0
-308,246,0,0,0,0,0,0,0,0,0,-1,916,778,0,0
-301,246,0,0,0,0,0,0,0,0,0,-1,923,778,0,0
-294,246,0,0,0,0,0,0,0,0,0,-1,930,778,0,0
-287,246,0,0,0,0,0,0,0,0,0,-1,937,778,0,0
-280,246,0,0,0,0,0,0,0,0,0,-1,944,778,0,0
-273,246,0,0,0,0,0,0,0,0,0,-1,951,778,0,0
-266,246,0,0,0,0,0,0,0,0,0,-1,958,778,0,0
-259,246,0,0,0,0,0,0,0,0,0,-1,965,778,0,0
-252,246,0,0,0,0,0,0,0,0,0,-1,972,778,0,0
-245,246,0,0,0,0,0,0,0,0,0,-1,979,778,0,0
-238,246,0,0,0,0,0,0,0,0,0,-1,986,778,0,0
-231,246,0,0,0,0,0,0,0,0,0,-1,993,778,0,0
-224,246,0,0,0,0,0,0,0,0,0,-1,1000,778,0,0
-217,246,0,0,0,0,0,0,0,0,0,-1,1007,778,0,0
-210,246,0,0,0,0,0,0,0,0,0,-1,1014,778,0,0
-203,246,0,0,0,0,0,0,0,0,0,-1,1021,778,0,0
-196,246,0,0,0,0,0,0,0,0,0,-1,1028,778,0,0
-189,246,0,0,0,0,0,0,0,0,0,-1,1035,778,0,0
-182,246,0,0,0,0,0,0,0,0,0,-1,1042,778,0,0
-175,246,0,0,0,0,0,0,0,0,0,-1,1049,778,0,0
-168,246,0,0,0,0,0,0,0,0,0,-1,1056,778,0,0
-161,246,0,0,0,0,0,0,0,0,0,-1,1063,778,0,0
-154,246,0,0,0,0,0,0,0,0,0,-1,1070,778,0,0
-147,246,0,0,0,0,0,0,0,0,0,-1,1077,778,0,0
-140,246,0,0,0,0,0,0,0,0,0,-1,1084,778,0,0
-133,246,0,0,0,0,0,0,0,0,0,-1,1091,778,0,0
-126,246,0,0,0,0,0,0,0,0,0,-1,1098,778,0,0
-119,246,0,0,0,0,0,0,0,0,0,-1,1105,778,0,0
-112,246,0,0,0,0,0,0,0,0,0,-1,1112,778,0,0
-105,246,0,0,0,0,0,0,0,0,0,-1,1119,778,0,0
-98,246,0,0,0,0,0,0,0,0,0,-1,1126,778,0,0
-91,246,0,0,0,0,0,0,0,0,0,-1,1133,778,0,0
-84,246,0,0,0,0,0,0,0,0,0,-1,1140,778,0,0
-77,246,0,0,0,0,0,0,0,0,0,-1,1147,778,0,0
-70,246,0,0,0,0,0,0,0,0,0,-1,1154,778,0,0
-63,246,0,0,0,0,0,0,0,0,0,-1,1161,778,0,0
-56,246,0,0,0,0,0,0,0,0,0,-1,1168,778,0,0
-49,246,0,0,0,0,0,0,0,0,0,-1,1175,778,0,0
-42,246,0,0,0,0,0,0,0,0,0,-1,1182,778,0,0
-35,246,0,0,0,0,0,0,0,0,0,-1,1189,778,0,0
-28,246,0,0,0,0,0,0,0,0,0,-1,1196,778,0,0
-21,246,0,0,0,0,0,0,0,0,0,-1,1203,778,0,0
-14,246,0,0,0,0,0,0,0,0,0,-1,1210,778,0,0
-7,246,0,0,0,0,0,0,0,0,0,-1,1217,778,0,0
0,246,0,0,0,0,0,0,0,0,0,-1,1224,778,0,0
7,246,0,0,0,0,0,0,0,0,0,-1,1231,778,0,0
14,246,0,0,0,0,0,0,0,0,0,-1,1238,778,0,0
21,246,0,0,0,0,0,0,0,0,0,-1,1245,778,0,0
28,246,0,0,0,0,0,0,0,0,0,-1,1252,778,0,0
35,246,0,0,0,0,0,0,0,0,0,-1,1259,778,0,0
42,246,0,0,0,0,0,0,0,0,0,-1,1266,778,0,0
49,246,0,0,0,0,0,0,0,0,0,-1,1273,778,0,0
56,246,0,0,0,0,0,0,0,0,0,-1,1280,778,0,0
63,246,0,0,0,0,0,0,0,0,0,-1,1287,778,0,0
70,246,0,0,0,0,0,0,0,0,0,-1,1294,778,0,0
77,246,0,0,0,0,0,0,0,0,0,-1,1301,778,0,0
84,246,0,0,0,0,0,0,0,0,0,-1,1308,778,0,0
91,246,0,0,0,0,0,0,0,0,0,-1,1315,778,0,0
98,246,0,0,0,0,0,0,0,0,0,-1,1322,778,0,0
105,246,0,0,0,0,0,0,0,0,0,-1,1329,778,0,0
112,246,0,0,0,0,0,0,0,0,0,-1,1336,778,0,0
119,246,0,0,0,0,0,0,0,0,0,-1,1343,778,0,0
126,246,0,0,0,0,0,0,0,0,0,-1,1350,778,0,0
133,246,0,0,0,0,0,0,0,0,0,-1,1357,778,0,0
140,246,0,0,0,0,0,0,0,0,0,-1,1364,778,0,0
147,246,0,0,0,0,0,0,0,0,0,-1,1371,778,0,0
154,246,0,0,0,0,0,0,0,0,0,-1,1378,778,0,0
161,246,0,0,0,0,0,0,0,0,0,-1,1385,778,0,0
168,246,0,0,0,0,0,0,0,0,0,-1,1392,778,0,0
175,246,0,0,0,0,0,0,0,0,0,-1,1399,778,0,0
182,246,0,0,0,0,0,0,0,0,0,-1,1406,778,0,0
189,246,0,0,0,0,0,0,0,0,0,-1,1413,778,0,0
196,246,0,0,0,0,0,0,0,0,0,-1,1420,778,0,0
203,246,0,0,0,0,0,0,0,0,0,-1,1427,778,0,0
210,246,0,0,0,0,0,0,0,0,0,-1,1434,778,0,0
217,246,0,0,0,0,0,0,0,0,0,-1,1441,778,0,0
224,246,0,0,0,0,0,0,0,0,0,-1,1448,778,0,0
231,246,0,0,0,0,0,0,0,0,0,-1,1455,778,0,0
238,246,0,0,0,0,0,0,0,0,0,-1,1462,778,0,0
245,246,0,0,0,0,0,0,0,0,0,-1,1469,778,0,0
252,246,0,0,0,0,0,0,0,0,0,-1,1476,778,0,0
259,246,0,0,0,0,0,0,0,0,0,-1,1483,778,0,0
266,246,0,0,0,0,0,0,0,0,0,-1,1490,778,0,0
273,246,0,0,0,0,0,0,0,0,0,-1,1497,778,0,0
280,246,0,0,0,0,0,0,0,0,0,-1,1504,778,0,0
287,246,0,0,0,0,0,0,0,0,0,-1,1511,778,0,0
294,246,0,0,0,0,0,0,0,0,0,-1,1518,778,0,0
301,246,0,0,0,0,0,0,0,0,0,-1,1525,778,0,0
308,246,0,0,0,0,0,0,0,0,0,-1,1532,778,0,0
315,246,0,0,0,0,0,0,0,0,0,-1,1539,778,0,0
322,246,0,0,0,0,0,0,0,0,0,-1,1546,778,0,0
329,246,0,0,0,0,0,0,0,0,0,-1,1553,778,0,0
336,246,0,0,0,0,0,0,0,0,0,-1,1560,778,0,0
343,246,0,0,0,0,0,0,0,0,0,-1,1567,778,0,0
350,246,0,0,0,0,0,0,0,0,0,-1,1574,778,0,0
357,246,0,0,0,0,0,0,0,0,0,-1,1581,778,0,0
364,246,0,0,0,0,0,0,0,0,0,-1,1588,778,0,0
371,246,0,0,0,0,0,0,0,0,0,-1,1595,778,0,0
378,246,0,0,0,0,0,0,0,0,0,-1,1602,778,0,0
385,246,0,0,0,0,0,0,0,0,0,-1,1609,778,0,0
392,246,0,0,0,0,0,0,0,0,0,-1,1616,778,0,0
399,246,0,0,0,0,0,0,0,0,0,-1,1623,778,0,0
406,246,0,0,0,0,0,0,0,0,0,-1,1630,778,0,0
413,246,0,0,0,0,0,0,0,0,0,-1,1637,778,0,0
420,246,0,0,0,0,0,0,0,0,0,-1,1644,778,0,0
427,246,0,0,0,0,0,0,0,0,0,-1,1651,778,0,0
434,246,0,0,0,0,0,0,0,0,0,-1,1658,778,0,0
441,246,0,0,0,0,0,0,0,0,0,-1,1665,778,0,0
448,246,0,0,0,0,0,0,0,0,0,-1,1672,778,0,0
455,246,0,0,0,0,0,0,0,0,0,-1,1679,778,0,0
462,246,0,0,0,0,0,0,0,0,0,-1,1686,778,0,0
469,246,0,0,0,0,0,0,0,0,0,-1,1693,778,0,0
476,246,0,0,0,0,0,0,0,0,0,-1,1700,778,0,0
483,246,0,0,0,0,0,0,0,0,0,-1,1707,778,0,0
490,246,0,0,0,0,0,0,0,0,0,-1,1714,778,0,0
497,246,0,0,0,0,0,0,0,0,0,-1,1721,778,0,0
504,246,0,0,0,0,0,0,0,0,0,-1,1728,778,0,0
511,246,0,0,0,0,0,0,0,0,0,-1,1735,778,0,0
518,246,0,0,0,0,0,0,0,0,0,-1,1742,778,0,0
525,246,0,0,0,0,0,0,0,0,0,-1,1749,778,0,0
532,246,0,0,0,0,0,0,0,0,0,-1,1756,778,0,0
539,246,0,0,0,0,0,0,0,0,0,-1,1763,778,0,0
546,246,0,0,0,0,0,0,0,0,0,-1,1770,778,0,0
553,246,0,0,0,0,0,0,0,0,0,-1,1777,778,0,0
560,246,0,0,0,0,0,0,0,0,0,-1,1784,778,0,0
567,246,0,0,0,0,0,0,0,0,0,-1,1791,778,0,0
574,246,0,0,0,0,0,0,0,0,0,-1,1798,778,0,0
581,246,49.8547,2.78979,0.000751178,0.00769557,0.000201997,0.00770144,0.000745307,1.54174,0.00490477,0.0374398,1805,778,49.8547,-2.7898
588,246,49.8752,2.67743,0.0129772,0.0131411,-0.00236747,0.0154281,0.0106903,-0.802694,0.00912571,0.0414212,1812,778,49.8752,-2.6774
595,246,50.0453,2.6687,0.0170626,0.0139611,-0.00333744,0.019192,0.0118317,-0.567914,0.0111803,0.0421243,1819,778,50.0452,-2.66871
602,246,49.8834,2.87042,0.0168288,0.0128753,-0.00357332,0.0189357,0.0107684,-0.53275,0.0109668,0.0464975,1826,778,49.8834,-2.87042
609,246,49.8859,2.60968,0,0,0,0,0,0,0,-1,1833,778,49.8858,-2.6097
616,246,49.9581,2.46924,0,0,0,0,0,0,0,-1,1840,778,49.9582,-2.46923
623,246,49.0791,3.21552,0,0,0,0,0,0,0,-1,1847,778,49.0791,-3.2155
630,246,49.6285,1.76843,0,0,0,0,0,0,0,-1,1854,778,49.6286,-1.76846
637,246,29.5785,0.837585,0,0,0,0,0,0,0,-1,1861,778,29.5785,-0.837606
644,246,28.1232,-1.43188,0,0,0,0,0,0,0,-1,1868,778,28.1232,1.43188
651,246,34.2765,-1.86652,0,0,0,0,0,0,0,-1,1875,778,34.2764,1.86653
658,246,34.2363,-1.41479,-0.00178067,0.00101474,-0.00149974,0.00166711,-0.00243303,-1.1605,0.00238094,0.035107,1882,778,34.2364,1.41477
665,246,34.3232,-0.763184,-0.00190354,0.000641451,-0.00151343,0.00134625,-0.00260834,-1.13496,0.00232162,0.0246966,1889,778,34.3233,0.763208
672,246,34.3044,-0.115479,-0.00179356,0.000230543,-0.00130347,0.00086873,-0.00243175,-1.1155,0.00197548,0.0231931,1896,778,34.3045,0.115451
679,246,34.3011,0.451843,-0.00160275,0.000215271,-0.000905417,0.000589258,-0.00197673,-1.17909,0.00155199,0.0216849,1903,778,34.3011,-0.451846
686,246,34.3301,1.04944,-0.0010897,0.000771418,-0.000511539,0.000902749,-0.00122104,-1.31949,0.00123075,0.0233089,1910,778,34.3301,-1.04943
693,246,34.3019,1.60803,-0.000125277,0.00171566,9.69714e-05,0.00172075,-0.000130371,1.51831,0.001193,0.0178709,1917,778,34.3019,-1.60802
700,246,34.2803,2.18011,0.000690868,0.00295581,0.000731376,0.00317145,0.000475229,1.28408,0.00197504,0.0144147,1924,778,34.2803,-2.18009
707,246,34.2395,2.80518,0.00143799,0.00461748,0.00142208,0.00516072,0.000894757,1.2059,0.00318441,0.0136071,1931,778,34.2395,-2.80519
714,246,34.2013,3.42938,0.00230712,0.00657317,0.00229642,0.00757437,0.00130592,1.15966,0.00467547,0.0134365,1938,778,34.2013,-3.42937
721,246,34.166,4.00519,0.00315557,0.00883613,0.0032774,0.0103327,0.00165897,1.14243,0.00640749,0.0202845,1945,778,34.166,-4.00522
728,246,34.2996,4.70807,0.00387012,0.0118102,0.00429554,0.0136893,0.00199099,1.15842,0.00854028,0.0451099,1952,778,34.2996,-4.70806
735,246,34.6007,5.48322,0,0,0,0,0,0,0,-1,1959,778,34.6007,-5.48319
742,246,31.7356,6.70013,0,0,0,0,0,0,0,-1,1966,778,31.7356,-6.70011
749,246,32.3883,7.69324,0,0,0,0,0,0,0,-1,1973,778,32.3883,-7.69322
756,246,33.6919,3.45264,0,0,0,0,0,0,0,-1,1980,778,33.6919,-3.45262
763,246,0,0,0,0,0,0,0,0,0,-1,1987,778,0,0
770,246,0,0,0,0,0,0,0,0,0,-1,1994,778,0,0
777,246,0,0,0,0,0,0,0,0,0,-1,2001,778,0,0
784,246,0,0,0,0,0,0,0,0,0,-1,2008,778,0,0
791,246,0,0,0,0,0,0,0,0,0,-1,2015,778,0,0
798,246,0,0,0,0,0,0,0,0,0,-1,2022,778,0,0
805,246,0,0,0,0,0,0,0,0,0,-1,2029,778,0,0
812,246,0,0,0,0,0,0,0,0,0,-1,2036,778,0,0
-700,239,0,0,0,0,0,0,0,0,0,-1,524,785,0,0
-693,239,0,0,0,0,0,0,0,0,0,-1,531,785,0,0
-686,239,0,0,0,0,0,0,0,0,0,-1,538,785,0,0
-679,239,0,0,0,0,0,0,0,0,0,-1,545,785,0,0
-672,239,0,0,0,0,0,0,0,0,0,-1,552,785,0,0
-665,239,0,0,0,0,0,0,0,0,0,-1,559,785,0,0
-658,239,0,0,0,0,0,0,0,0,0,-1,566,785,0,0
-651,239,0,0,0,0,0,0,0,0,0,-1,573,785,0,0
-644,239,0,0,0,0,0,0,0,0,0,-1,580,785,0,0
-637,239,-23.2709,0.465088,0,0,0,0,0,0,0,-1,587,785,-23.271,-0.465116
-630,239,-23.4006,0.956299,0,0,0,0,0,0,0,-1,594,785,-23.4005,-0.956285
-623,239,-30.6328,2.52185,0,0,0,0,0,0,0,-1,601,785,-30.6328,-2.52183
-616,239,-29.1425,1.42139,0,0,0,0,0,0,0,-1,608,785,-29.1425,-1.42139
-609,239,-27.8569,0.322937,0,0,0,0,0,0,0,-1,615,785,-27.857,-0.322963
-602,239,-23.6484,3.46777,0,0,0,0,0,0,0,-1,622,785,-23.6484,-3.46775
-595,239,-23.7038,2.44702,0.00601082,0.00474296,-0.00383931,0.00926819,0.0014856,-0.703579,0.00574795,0.0414104,629,785,-23.7038,-2.44703
-588,239,-23.7463,1.51117,0.00410825,0.00333255,-0.00336352,0.00710621,0.00033459,-0.727997,0.00462997,0.019912,636,785,-23.7463,-1.51119
-581,239,-23.84,0.846985,0.0030133,0.00241198,-0.00237544,0.00510703,0.000318249,-0.722448,0.00330372,0.010788,643,785,-23.84,-0.846982
-574,239,-23.8264,0.236633,0.00187103,0.00151838,-0.00137329,0.00307926,0.000310144,-0.721549,0.00195767,0.0116187,650,785,-23.8264,-0.23666
-567,239,-23.8587,-0.34375,0.000741958,0.000544292,-0.000383395,0.00103905,0.000247196,-0.659253,0.000626769,0.01645,657,785,-23.8587,0.343772
-560,239,-23.8878,-0.863403,-0.000363243,-0.00028965,0.000529532,0.000204362,-0.000857255,0.820087,0.000650415,0.0168713,664,785,-23.8878,0.863376
-553,239,-23.8836,-1.39008,-0.00140811,-0.00110443,0.00137395,0.000126048,-0.00263859,0.840432,0.00180254,0.0137879,671,785,-23.8836,1.39005
-546,239,-23.937,-1.9317,-0.00237188,-0.00169169,0.00218631,0.00018082,-0.00424439,0.862558,0.00289175,0.0146222,678,785,-23.937,1.93172
-539,239,-24.0059,-2.52252,-0.00257687,-0.00206892,0.0023512,4.19775e-05,-0.00468777,0.839198,0.00313927,0.0174153,685,785,-24.0059,2.52255
-532,239,-24.0128,-3.07965,-0.00226136,-0.00222607,0.00223611,-7.53556e-06,-0.0044799,0.789344,0.00298409,0.0201355,692,785,-24.0128,3.07967
-525,239,-24.048,-3.4577,-0.000236992,-0.00193439,0.0025364,0.00158894,-0.00376032,0.62395,0.00317208,0.0313282,699,785,-24.048,3.45773
-518,239,-24.2567,-3.7926,0,0,0,0,0,0,0,-1,706,785,-24.2567,3.79258
-511,239,-20.9849,-2.09235,0,0,0,0,0,0,0,-1,713,785,-20.9848,2.09234
-504,239,-25.5015,2.00421,0,0,0,0,0,0,0,-1,720,785,-25.5015,-2.00422
-497,239,-37.7755,0.942261,0,0,0,0,0,0,0,-1,727,785,-37.7755,-0.94226
-490,239,-37.6144,0.96283,0.0112314,-0.000212827,0.00573838,0.0136131,-0.00259451,0.393408,0.0100525,0.046552,734,785,-37.6144,-0.962836
-483,239,-37.5193,0.879456,0.0147698,0.000256557,0.00729798,0.0178049,-0.00277852,0.39412,0.0128963,0.0448736,741,785,-37.5193,-0.879446
-476,239,-37.4104,1.16174,0.0185202,0.000999408,0.00957853,0.0227403,-0.00322068,0.414991,0.0163399,0.0409333,748,785,-37.4104,-1.16177
-469,239,-37.2798,1.21179,0.0214757,0.00215718,0.0123196,0.0274713,-0.00383837,0.452926,0.0197186,0.0430841,755,785,-37.2799,-1.21182
-462,239,-37.219,1.30139,0.021581,0.00427863,0.015158,0.0303829,-0.00452323,0.526087,0.0219191,0.0444481,762,785,-37.219,-1.30142
-455,239,0,0,0,0,0,0,0,0,0,-1,769,785,0,0
-448,239,0,0,0,0,0,0,0,0,0,-1,776,785,0,0
-441,239,0,0,0,0,0,0,0,0,0,-1,783,785,0,0
-434,239,0,0,0,0,0,0,0,0,0,-1,790,785,0,0
-427,239,0,0,0,0,0,0,0,0,0,-1,797,785,0,0
-420,239,0,0,0,0,0,0,0,0,0,-1,804,785,0,0
-413,239,0,0,0,0,0,0,0,0,0,-1,811,785,0,0
-406,239,0,0,0,0,0,0,0,0,0,-1,818,785,0,0
-399,239,0,0,0,0,0,0,0,0,0,-1,825,785,0,0
-392,239,0,0,0,0,0,0,0,0,0,-1,832,785,0,0
-385,239,0,0,0,0,0,0,0,0,0,-1,839,785,0,0
-378,239,0,0,0,0,0,0,0,0,0,-1,846,785,0,0
-371,239,0,0,0,0,0,0,0,0,0,-1,853,785,0,0
-364,239,0,0,0,0,0,0,0,0,0,-1,860,785,0,0
-357,239,0,0,0,0,0,0,0,0,0,-1,867,785,0,0
-350,239,0,0,0,0,0,0,0,0,0,-1,874,785,0,0
-343,239,0,0,0,0,0,0,0,0,0,-1,881,785,0,0
-336,239,0,0,0,0,0,0,0,0,0,-1,888,785,0,0
-329,239,0,0,0,0,0,0,0,0,0,-1,895,785,0,0
-322,239,0,0,0,0,0,0,0,0,0,-1,902,785,0,0
-315,239,0,0,0,0,0,0,0,0,0,-1,909,785,0,0
-308,239,0,0,0,0,0,0,0,0,0,-1,916,785,0,0
-301,239,0,0,0,0,0,0,0,0,0,-1,923,785,0,0
-294,239,0,0,0,0,0,0,0,0,0,-1,930,785,0,0
-287,239,0,0,0,0,0,0,0,0,0,-1,937,785,0,0
-280,239,0,0,0,0,0,0,0,0,0,-1,944,785,0,0
-273,239,0,0,0,0,0,0,0,0,0,-1,951,785,0,0
-266,239,0,0,0,0,0,0,0,0,0,-1,958,785,0,0
-259,239,0,0,0,0,0,0,0,0,0,-1,965,785,0,0
-252,239,0,0,0,0,0,0,0,0,0,-1,972,785,0,0
-245,239,0,0,0,0,0,0,0,0,0,-1,979,785,0,0
-238,239,0,0,0,0,0,0,0,0,0,-1,986,785,0,0
-231,239,0,0,0,0,0,0,0,0,0,-1,993,785,0,0
-224,239,0,0,0,0,0,0,0,0,0,-1,1000,785,0,0
-217,239,0,0,0,0,0,0,0,0,0,-1,1007,785,0,0
-210,239,0,0,0,0,0,0,0,0,0,-1,1014,785,0,0
-203,239,0,0,0,0,0,0,0,0,0,-1,1021,785,0,0
-196,239,0,0,0,0,0,0,0,0,0,-1,1028,785,0,0
-189,239,0,0,0,0,0,0,0,0,0,-1,1035,785,0,0
-182,239,0,0,0,0,0,0,0,0,0,-1,1042,785,0,0
-175,239,0,0,0,0,0,0,0,0,0,-1,1049,785,0,0
-168,239,0,0,0,0,0,0,0,0,0,-1,1056,785,0,0
-161,239,0,0,0,0,0,0,0,0,0,-1,1063,785,0,0
-154,239,0,0,0,0,0,0,0,0,0,-1,1070,785,0,0
-147,239,0,0,0,0,0,0,0,0,0,-1,1077,785,0,0
-140,239,0,0,0,0,0,0,0,0,0,-1,1084,785,0,0
-133,239,0,0,0,0,0,0,0,0,0,-1,1091,785,0,0
-126,239,0,0,0,0,0,0,0,0,0,-1,1098,785,0,0
-119,239,0,0,0,0,0,0,0,0,0,-1,1105,785,0,0
-112,239,0,0,0,0,0,0,0,0,0,-1,1112,785,0,0
-105,239,0,0,0,0,0,0,0,0,0,-1,1119,785,0,0
-98,239,0,0,0,0,0,0,0,0,0,-1,1126,785,0,0
-91,239,0,0,0,0,0,0,0,0,0,-1,1133,785,0,0
-84,239,0,0,0,0,0,0,0,0,0,-1,1140,785,0,0
-77,239,0,0,0,0,0,0,0,0,0,-1,1147,785,0,0
-70,239,0,0,0,0,0,0,0,0,0,-1,1154,785,0,0
-63,239,0,0,0,0,0,0,0,0,0,-1,1161,785,0,0
-56,239,0,0,0,0,0,0,0,0,0,-1,1168,785,0,0
-49,239,0,0,0,0,0,0,0,0,0,-1,1175,785,0,0
-42,239,0,0,0,0,0,0,0,0,0,-1,1182,785,0,0
-35,239,0,0,0,0,0,0,0,0,0,-1,1189,785,0,0
-28,239,0,0,0,0,0,0,0,0,0,-1,1196,785,0,0
-21,239,0,0,0,0,0,0,0,0,0,-1,1203,785,0,0
-14,239,0,0,0,0,0,0,0,0,0,-1,1210,785,0,0
-7,239,0,0,0,0,0,0,0,0,0,-1,1217,785,0,0
0,239,0,0,0,0,0,0,0,0,0,-1,1224,785,0,0
7,239,0,0,0,0,0,0,0,0,0,-1,1231,785,0,0
14,239,0,0,0,0,0,0,0,0,0,-1,1238,785,0,0
21,239,0,0,0,0,0,0,0,0,0,-1,1245,785,0,0
28,239,0,0,0,0,0,0,0,0,0,-1,1252,785,0,0
35,239,0,0,0,0,0,0,0,0,0,-1,1259,785,0,0
42,239,0,0,0,0,0,0,0,0,0,-1,1266,785,0,0
49,239,0,0,0,0,0,0,0,0,0,-1,1273,785,0,0
56,239,0,0,0,0,0,0,0,0,0,-1,1280,785,0,0
63,239,0,0,0,0,0,0,0,0,0,-1,1287,785,0,0
70,239,0,0,0,0,0,0,0,0,0,-1,1294,785,0,0
77,239,0,0,0,0,0,0,0,0,0,-1,1301,785,0,0
84,239,0,0,0,0,0,0,0,0,0,-1,1308,785,0,0
91,239,0,0,0,0,0,0,0,0,0,-1,1315,785,0,0
98,239,0,0,0,0,0,0,0,0,0,-1,1322,785,0,0
105,239,0,0,0,0,0,0,0,0,0,-1,1329,785,0,0
112,239,0,0,0,0,0,0,0,0,0,-1,1336,785,0,0
119,239,0,0,0,0,0,0,0,0,0,-1,1343,785,0,0
126,239,0,0,0,0,0,0,0,0,0,-1,1350,785,0,0
133,239,0,0,0,0,0,0,0,0,0,-1,1357,785,0,0
140,239,0,0,0,0,0,0,0,0,0,-1,1364,785,0,0
147,239,0,0,0,0,0,0,0,0,0,-1,1371,785,0,0
154,239,0,0,0,0,0,0,0,0,0,-1,1378,785,0,0
161,239,0,0,0,0,0,0,0,0,0,-1,1385,785,0,0
168,239,0,0,0,0,0,0,0,0,0,-1,1392,785,0,0
175,239,0,0,0,0,0,0,0,0,0,-1,1399,785,0,0
182,239,0,0,0,0,0,0,0,0,0,-1,1406,785,0,0
189,239,0,0,0,0,0,0,0,0,0,-1,1413,785,0,0
196,239,0,0,0,0,0,0,0,0,0,-1,1420,785,0,0
203,239,0,0,0,0,0,0,0,0,0,-1,1427,785,0,0
210,239,0,0,0,0,0,0,0,0,0,-1,1434,785,0,0
217,239,0,0,0,0,0,0,0,0,0,-1,1441,785,0,0
224,239,0,0,0,0,0,0,0,0,0,-1,1448,785,0,0
231,239,0,0,0,0,0,0,0,0,0,-1,1455,785,0,0
238,239,0,0,0,0,0,0,0,0,0,-1,1462,785,0,0
245,239,0,0,0,0,0,0,0,0,0,-1,1469,785,0,0
252,239,0,0,0,0,0,0,0,0,0,-1,1476,785,0,0
259,239,0,0,0,0,0,0,0,0,0,-1,1483,785,0,0
266,239,0,0,0,0,0,0,0,0,0,-1,1490,785,0,0
273,239,0,0,0,0,0,0,0,0,0,-1,1497,785,0,0
280,239,0,0,0,0,0,0,0,0,0,-1,1504,785,0,0
287,239,0,0,0,0,0,0,0,0,0,-1,1511,785,0,0
294,239,0,0,0,0,0,0,0,0,0,-1,1518,785,0,0
301,239,0,0,0,0,0,0,0,0,0,-1,1525,785,0,0
308,239,0,0,0,0,0,0,0,0,0,-1,1532,785,0,0
315,239,0,0,0,0,0,0,0,0,0,-1,1539,785,0,0
322,239,0,0,0,0,0,0,0,0,0,-1,1546,785,0,0
329,239,0,0,0,0,0,0,0,0,0,-1,1553,785,0,0
336,239,0,0,0,0,0,0,0,0,0,-1,1560,785,0,0
343,239,0,0,0,0,0,0,0,0,0,-1,1567,785,0,0
350,239,0,0,0,0,0,0,0,0,0,-1,1574,785,0,0
357,239,0,0,0,0,0,0,0,0,0,-1,1581,785,0,0
364,239,0,0,0,0,0,0,0,0,0,-1,1588,785,0,0
371,239,0,0,0,0,0,0,0,0,0,-1,1595,785,0,0
378,239,0,0,0,0,0,0,0,0,0,-1,1602,785,0,0
385,239,0,0,0,0,0,0,0,0,0,-1,1609,785,0,0
392,239,0,0,0,0,0,0,0,0,0,-1,1616,785,0,0
399,239,0,0,0,0,0,0,0,0,0,-1,1623,785,0,0
406,239,0,0,0,0,0,0,0,0,0,-1,1630,785,0,0
413,239,0,0,0,0,0,0,0,0,0,-1,1637,785,0,0
420,239,0,0,0,0,0,0,0,0,0,-1,1644,785,0,0
427,239,0,0,0,0,0,0,0,0,0,-1,1651,785,0,0
434,239,0,0,0,0,0,0,0,0,0,-1,1658,785,0,0
441,239,0,0,0,0,0,0,0,0,0,-1,1665,785,0,0
448,239,0,0,0,0,0,0,0,0,0,-1,1672,785,0,0
455,239,0,0,0,0,0,0,0,0,0,-1,1679,785,0,0
462,239,0,0,0,0,0,0,0,0,0,-1,1686,785,0,0
469,239,0,0,0,0,0,0,0,0,0,-1,1693,785,0,0
476,239,0,0,0,0,0,0,0,0,0,-1,1700,785,0,0
483,239,0,0,0,0,0,0,0,0,0,-1,1707,785,0,0
490,239,0,0,0,0,0,0,0,0,0,-1,1714,785,0,0
497,239,0,0,0,0,0,0,0,0,0,-1,1721,785,0,0
504,239,0,0,0,0,0,0,0,0,0,-1,1728,785,0,0
511,239,0,0,0,0,0,0,0,0,0,-1,1735,785,0,0
518,239,0,0,0,0,0,0,0,0,0,-1,1742,785,0,0
525,239,0,0,0,0,0,0,0,0,0,-1,1749,785,0,0
532,239,0,0,0,0,0,0,0,0,0,-1,1756,785,0,0
539,239,0,0,0,0,0,0,0,0,0,-1,1763,785,0,0
546,239,0,0,0,0,0,0,0,0,0,-1,1770,785,0,0
553,239,0,0,0,0,0,0,0,0,0,-1,1777,785,0,0
560,239,0,0,0,0,0,0,0,0,0,-1,1784,785,0,0
567,239,0,0,0,0,0,0,0,0,0,-1,1791,785,0,0
574,239,0,0,0,0,0,0,0,0,0,-1,1798,785,0,0
581,239,49.7808,3.01544,-0.00612304,0.000542212,0.00104186,0.000701271,-0.0062821,1.4193,0.00444032,0.0362491,1805,785,49.7807,-3.01546
588,239,49.7534,2.9325,0.0075512,0.00793683,-0.00133869,0.00909651,0.00639151,-0.856922,0.00539372,0.0384099,1812,785,49.7534,-2.93247
595,239,49.7991,2.73016,0.0133284,0.0107021,-0.00242477,0.0147728,0.00925774,-0.537225,0.00861983,0.0341674,1819,785,49.7991,-2.73017
602,239,49.8313,2.78662,0.0140908,0.010949,-0.0028885,0.015808,0.00923187,-0.536344,0.00916956,0.0397305,1826,785,49.8313,-2.7866
609,239,49.8523,2.87958,0,0,0,0,0,0,0,-1,1833,785,49.8523,-2.87956
616,239,49.228,3.09473,0,0,0,0,0,0,0,-1,1840,785,49.2281,-3.09472
623,239,49.2789,3.14166,0,0,0,0,0,0,0,-1,1847,785,49.2789,-3.14165
630,239,49.3297,3.1886,0,0,0,0,0,0,0,-1,1854,785,49.3297,-3.18858
637,239,39.5542,2.54114,0,0,0,0,0,0,0,-1,1861,785,39.5543,-2.54114
644,239,18.3466,0.735413,0,0,0,0,0,0,0,-1,1868,785,18.3465,-0.735414
651,239,34.2471,-2.15778,0,0,0,0,0,0,0,-1,1875,785,34.2471,2.1578
658,239,34.7321,-1.53088,0,0,0,0,0,0,0,-1,1882,785,34.732,1.53086
665,239,34.9722,-0.699646,-0.00240746,0.000987654,-0.00171499,0.00170317,-0.00312298,-1.17554,0.00282628,0.0202396,1889,785,34.9722,0.69964
672,239,34.9427,-0.0881348,-0.00240197,0.000471354,-0.00161803,0.00119849,-0.0031291,-1.14845,0.00258008,0.0211352,1896,785,34.9427,0.088125
679,239,34.9178,0.503479,-0.00232858,0.000230083,-0.00128113,0.000761269,-0.00285977,-1.17775,0.00220453,0.022566,1903,785,34.9179,-0.503472
686,239,34.9158,1.12128,-0.00186963,0.000547126,-0.000975103,0.000891489,-0.00221399,-1.23131,0.00184635,0.0237136,1910,785,34.9158,-1.12126
693,239,34.8998,1.64209,-0.000716287,0.00127467,-0.000397744,0.00135119,-0.000792806,-1.38074,0.00125175,0.0154291,1917,785,34.8998,-1.64207
700,239,34.8683,2.20502,0.00028142,0.00233056,0.000247144,0.00235995,0.000252034,1.45245,0.00149638,0.011438,1924,785,34.8683,-2.20503
707,239,34.8279,2.81573,0.00102989,0.00399864,0.000833348,0.00421657,0.000811959,1.31501,0.00258329,0.0106983,1931,785,34.8279,-2.81572
714,239,34.804,3.40198,0.00183241,0.00585698,0.00153502,0.00637562,0.00131376,1.24497,0.00388721,0.010411,1938,785,34.8039,-3.40197
721,239,34.7417,3.9895,0.00251987,0.00804911,0.00225144,0.0088499,0.00171909,1.22907,0.00541858,0.023361,1945,785,34.7417,-3.98948
728,239,34.6078,4.50873,0.00288136,0.010937,0.00282513,0.011829,0.00198935,1.26496,0.00731362,0.0441919,1952,785,34.6078,-4.50873
735,239,34.6984,5.08228,0,0,0,0,0,0,0,-1,1959,785,34.6983,-5.08228
742,239,32.4141,7.6665,0,0,0,0,0,0,0,-1,1966,785,32.4141,-7.6665
749,239,32.1489,3.4411,0,0,0,0,0,0,0,-1,1973,785,32.149,-3.44109
756,239,32.9064,3.6687,0,0,0,0,0,0,0,-1,1980,785,32.9063,-3.66873
763,239,0,0,0,0,0,0,0,0,0,-1,1987,785,0,0
770,239,0,0,0,0,0,0,0,0,0,-1,1994,785,0,0
777,239,0,0,0,0,0,0,0,0,0,-1,2001,785,0,0
784,239,0,0,0,0,0,0,0,0,0,-1,2008,785,0,0
791,239,0,0,0,0,0,0,0,0,0,-1,2015,785,0,0
798,239,0,0,0,0,0,0,0,0,0,-1,2022,785,0,0
805,239,0,0,0,0,0,0,0,0,0,-1,2029,785,0,0
812,239,0,0,0,0,0,0,0,0,0,-1,2036,785,0,0
-700,232,0,0,0,0,0,0,0,0,0,-1,524,792,0,0
-693,232,0,0,0,0,0,0,0,0,0,-1,531,792,0,0
-686,232,0,0,0,0,0,0,0,0,0,-1,538,792,0,0
-679,232,0,0,0,0,0,0,0,0,0,-1,545,792,0,0
-672,232,0,0,0,0,0,0,0,0,0,-1,552,792,0,0
-665,232,0,0,0,0,0,0,0,0,0,-1,559,792,0,0
-658,232,0,0,0,0,0,0,0,0,0,-1,566,792,0,0
-651,232,0,0,0,0,0,0,0,0,0,-1,573,792,0,0
-644,232,-22.5826,0.269348,0,0,0,0,0,0,0,-1,580,792,-22.5826,-0.269357
-637,232,-30.1556,5.06824,0,0,0,0,0,0,0,-1,587,792,-30.1556,-5.06823
-630,232,-32.2345,1.80212,0,0,0,0,0,0,0,-1,594,792,-32.2345,-1.80211
-623,232,-31.5665,1.05115,0,0,0,0,0,0,0,-1,601,792,-31.5664,-1.05112
-616,232,-30.6812,0.432861,0,0,0,0,0,0,0,-1,608,792,-30.6812,-0.432881
-609,232,-29.7142,-0.478943,0,0,0,0,0,0,0,-1,615,792,-29.7142,0.478965
-602,232,-24.2755,3.41608,0,0,0,0,0,0,0,-1,622,792,-24.2755,-3.41609
-595,232,-24.2728,2.45251,0.006117,0.00703443,-0.0020183,0.00864549,0.00450595,-0.89714,0.00499297,0.0375319,629,792,-24.2728,-2.45253
-588,232,-24.3354,1.48926,0.0038311,0.00429936,-0.00262888,0.00670452,0.00142594,-0.829811,0.00407832,0.0132267,636,792,-24.3354,-1.48924
-581,232,-24.3801,0.844788,0.00271204,0.00269283,-0.00205647,0.00475892,0.000645947,-0.783063,0.00298072,0.00781712,643,792,-24.3801,-0.844805
-574,232,-24.3979,0.281738,0.00166319,0.00138314,-0.0012203,0.00275147,0.000294864,-0.728275,0.00174435,0.00842938,650,792,-24.398,-0.281756
-567,232,-24.432,-0.266113,0.000601025,0.000303814,-0.000215133,0.000713888,0.000190951,-0.483149,0.000426761,0.0109771,657,792,-24.432,0.266083
-560,232,-24.4625,-0.810974,-0.000499374,-0.000475307,0.00072198,0.000234739,-0.00120942,0.793731,0.000894849,0.0146202,664,792,-24.4625,0.810977
-553,232,-24.485,-1.37146,-0.00157241,-0.00120224,0.00154245,0.000166195,-0.00294084,0.84511,0.00201824,0.0144703,671,792,-24.485,1.37148
-546,232,-24.5274,-1.93304,-0.00247681,-0.00147174,0.00238812,0.000466146,-0.00441469,0.889101,0.00311018,0.0207527,678,792,-24.5274,1.93304
-539,232,-24.6257,-2.44647,-0.00242429,-0.001522,0.00249193,0.000559299,-0.00450559,0.874949,0.00320646,0.0317858,685,792,-24.6258,2.44649
-532,232,-24.7272,-2.95929,-0.00195625,-0.00137135,0.00230235,0.000657045,-0.00398465,0.848572,0.00290036,0.0332811,692,792,-24.7272,2.95928
-525,232,-24.6658,-3.10681,0,0,0,0,0,0,0,-1,699,792,-24.6658,3.10678
-518,232,-20.8098,-3.08154,0,0,0,0,0,0,0,-1,706,792,-20.8098,3.08155
-511,232,-21.6708,-0.962708,0,0,0,0,0,0,0,-1,713,792,-21.6708,0.962731
-504,232,-34.2155,0.346985,0,0,0,0,0,0,0,-1,720,792,-34.2155,-0.346955
-497,232,-37.6876,0.981445,0,0,0,0,0,0,0,-1,727,792,-37.6876,-0.98142
-490,232,-37.5376,1.01227,0.0103114,0.0016057,0.00445959,0.0121903,-0.00027324,0.398755,0.00821949,0.0437063,734,792,-37.5376,-1.01227
-483,232,-37.4681,1.01434,0.0134988,0.00221573,0.0054083,0.0156724,4.21181e-05,0.382146,0.0104343,0.0430663,741,792,-37.4681,-1.01437
-476,232,-37.4058,1.04639,0.0168542,0.00318261,0.0068369,0.0196864,0.000350348,0.39274,0.0130091,0.0362408,748,792,-37.4058,-1.0464
-469,232,-37.3608,1.07227,0.0191315,0.00475775,0.00855084,0.0231146,0.000774665,0.435925,0.0151581,0.0338304,755,792,-37.3609,-1.07226
-462,232,0,0,0,0,0,0,0,0,0,-1,762,792,0,0
-455,232,0,0,0,0,0,0,0,0,0,-1,769,792,0,0
-448,232,0,0,0,0,0,0,0,0,0,-1,776,792,0,0
-441,232,0,0,0,0,0,0,0,0,0,-1,783,792,0,0
-434,232,0,0,0,0,0,0,0,0,0,-1,790,792,0,0
-427,232,0,0,0,0,0,0,0,0,0,-1,797,792,0,0
-420,232,0,0,0,0,0,0,0,0,0,-1,804,792,0,0
-413,232,0,0,0,0,0,0,0,0,0,-1,811,792,0,0
-406,232,0,0,0,0,0,0,0,0,0,-1,818,792,0,0
-399,232,0,0,0,0,0,0,0,0,0,-1,825,792,0,0
-392,232,0,0,0,0,0,0,0,0,0,-1,832,792,0,0
-385,232,0,0,0,0,0,0,0,0,0,-1,839,792,0,0
-378,232,0,0,0,0,0,0,0,0,0,-1,846,792,0,0
-371,232,0,0,0,0,0,0,0,0,0,-1,853,792,0,0
-364,232,0,0,0,0,0,0,0,0,0,-1,860,792,0,0
-357,232,0,0,0,0,0,0,0,0,0,-1,867,792,0,0
-350,232,0,0,0,0,0,0,0,0,0,-1,874,792,0,0
-343,232,0,0,0,0,0,0,0,0,0,-1,881,792,0,0
-336,232,0,0,0,0,0,0,0,0,0,-1,888,792,0,0
-329,232,0,0,0,0,0,0,0,0,0,-1,895,792,0,0
-322,232,0,0,0,0,0,0,0,0,0,-1,902,792,0,0
-315,232,0,0,0,0,0,0,0,0,0,-1,909,792,0,0
-308,232,0,0,0,0,0,0,0,0,0,-1,916,792,0,0
-301,232,0,0,0,0,0,0,0,0,0,-1,923,792,0,0
-294,232,0,0,0,0,0,0,0,0,0,-1,930,792,0,0
-287,232,0,0,0,0,0,0,0,0,0,-1,937,792,0,0
-280,232,0,0,0,0,0,0,0,0,0,-1,944,792,0,0
-273,232,0,0,0,0,0,0,0,0,0,-1,951,792,0,0
-266,232,0,0,0,0,0,0,0,0,0,-1,958,792,0,0
-259,232,0,0,0,0,0,0,0,0,0,-1,965,792,0,0
-252,232,0,0,0,0,0,0,0,0,0,-1,972,792,0,0
-245,232,0,0,0,0,0,0,0,0,0,-1,979,792,0,0
-238,232,0,0,0,0,0,0,0,0,0,-1,986,792,0,0
-231,232,0,0,0,0,0,0,0,0,0,-1,993,792,0,0
-224,232,0,0,0,0,0,0,0,0,0,-1,1000,792,0,0
-217,232,0,0,0,0,0,0,0,0,0,-1,1007,792,0,0
-210,232,0,0,0,0,0,0,0,0,0,-1,1014,792,0,0
-203,232,0,0,0,0,0,0,0,0,0,-1,1021,792,0,0
-196,232,0,0,0,0,0,0,0,0,0,-1,1028,792,0,0
-189,232,0,0,0,0,0,0,0,0,0,-1,1035,792,0,0
-182,232,0,0,0,0,0,0,0,0,0,-1,1042,792,0,0
-175,232,0,0,0,0,0,0,0,0,0,-1,1049,792,0,0
-168,232,0,0,0,0,0,0,0,0,0,-1,1056,792,0,0
-161,232,0,0,0,0,0,0,0,0,0,-1,1063,792,0,0
-154,232,0,0,0,0,0,0,0,0,0,-1,1070,792,0,0
-147,232,0,0,0,0,0,0,0,0,0,-1,1077,792,0,0
-140,232,0,0,0,0,0,0,0,0,0,-1,1084,792,0,0
-133,232,0,0,0,0,0,0,0,0,0,-1,1091,792,0,0
-126,232,0,0,0,0,0,0,0,0,0,-1,1098,792,0,0
-119,232,0,0,0,0,0,0,0,0,0,-1,1105,792,0,0
-112,232,0,0,0,0,0,0,0,0,0,-1,1112,792,0,0
-105,232,0,0,0,0,0,0,0,0,0,-1,1119,792,0,0
-98,232,0,0,0,0,0,0,0,0,0,-1,1126,792,0,0
-91,232,0,0,0,0,0,0,0,0,0,-1,1133,792,0,0
-84,232,0,0,0,0,0,0,0,0,0,-1,1140,792,0,0
-77,232,0,0,0,0,0,0,0,0,0,-1,1147,792,0,0
-70,232,0,0,0,0,0,0,0,0,0,-1,1154,792,0,0
-63,232,0,0,0,0,0,0,0,0,0,-1,1161,792,0,0
-56,232,0,0,0,0,0,0,0,0,0,-1,1168,792,0,0
-49,232,0,0,0,0,0,0,0,0,0,-1,1175,792,0,0
-42,232,0,0,0,0,0,0,0,0,0,-1,1182,792,0,0
-35,232,0,0,0,0,0,0,0,0,0,-1,1189,792,0,0
-28,232,0,0,0,0,0,0,0,0,0,-1,1196,792,0,0
-21,232,0,0,0,0,0,0,0,0,0,-1,1203,792,0,0
-14,232,0,0,0,0,0,0,0,0,0,-1,1210,792,0,0
-7,232,0,0,0,0,0,0,0,0,0,-1,1217,792,0,0
0,232,0,0,0,0,0,0,0,0,0,-1,1224,792,0,0
7,232,0,0,0,0,0,0,0,0,0,-1,1231,792,0,0
14,232,0,0,0,0,0,0,0,0,0,-1,1238,792,0,0
21,232,0,0,0,0,0,0,0,0,0,-1,1245,792,0,0
28,232,0,0,0,0,0,0,0,0,0,-1,1252,792,0,0
35,232,0,0,0,0,0,0,0,0,0,-1,1259,792,0,0
42,232,0,0,0,0,0,0,0,0,0,-1,1266,792,0,0
49,232,0,0,0,0,0,0,0,0,0,-1,1273,792,0,0
56,232,0,0,0,0,0,0,0,0,0,-1,1280,792,0,0
63,232,0,0,0,0,0,0,0,0,0,-1,1287,792,0,0
70,232,0,0,0,0,0,0,0,0,0,-1,1294,792,0,0
77,232,0,0,0,0,0,0,0,0,0,-1,1301,792,0,0
84,232,0,0,0,0,0,0,0,0,0,-1,1308,792,0,0
91,232,0,0,0,0,0,0,0,0,0,-1,1315,792,0,0
98,232,0,0,0,0,0,0,0,0,0,-1,1322,792,0,0
105,232,0,0,0,0,0,0,0,0,0,-1,1329,792,0,0
112,232,0,0,0,0,0,0,0,0,0,-1,1336,792,0,0
119,232,0,0,0,0,0,0,0,0,0,-1,1343,792,0,0
126,232,0,0,0,0,0,0,0,0,0,-1,1350,792,0,0
133,232,0,0,0,0,0,0,0,0,0,-1,1357,792,0,0
140,232,0,0,0,0,0,0,0,0,0,-1,1364,792,0,0
147,232,0,0,0,0,0,0,0,0,0,-1,1371,792,0,0
154,232,0,0,0,0,0,0,0,0,0,-1,1378,792,0,0
161,232,0,0,0,0,0,0,0,0,0,-1,1385,792,0,0
168,232,0,0,0,0,0,0,0,0,0,-1,1392,792,0,0
175,232,0,0,0,0,0,0,0,0,0,-1,1399,792,0,0
182,232,0,0,0,0,0,0,0,0,0,-1,1406,792,0,0
189,232,0,0,0,0,0,0,0,0,0,-1,1413,792,0,0
196,232,0,0,0,0,0,0,0,0,0,-1,1420,792,0,0
203,232,0,0,0,0,0,0,0,0,0,-1,1427,792,0,0
210,232,0,0,0,0,0,0,0,0,0,-1,1434,792,0,0
217,232,0,0,0,0,0,0,0,0,0,-1,1441,792,0,0
224,232,0,0,0,0,0,0,0,0,0,-1,1448,792,0,0
231,232,0,0,0,0,0,0,0,0,0,-1,1455,792,0,0
238,232,0,0,0,0,0,0,0,0,0,-1,1462,792,0,0
245,232,0,0,0,0,0,0,0,0,0,-1,1469,792,0,0
252,232,0,0,0,0,0,0,0,0,0,-1,1476,792,0,0
259,232,0,0,0,0,0,0,0,0,0,-1,1483,792,0,0
266,232,0,0,0,0,0,0,0,0,0,-1,1490,792,0,0
273,232,0,0,0,0,0,0,0,0,0,-1,1497,792,0,0
280,232,0,0,0,0,0,0,0,0,0,-1,1504,792,0,0
287,232,0,0,0,0,0,0,0,0,0,-1,1511,792,0,0
294,232,0,0,0,0,0,0,0,0,0,-1,1518,792,0,0
301,232,0,0,0,0,0,0,0,0,0,-1,1525,792,0,0
308,232,0,0,0,0,0,0,0,0,0,-1,1532,792,0,0
315,232,0,0,0,0,0,0,0,0,0,-1,1539,792,0,0
322,232,0,0,0,0,0,0,0,0,0,-1,1546,792,0,0
329,232,0,0,0,0,0,0,0,0,0,-1,1553,792,0,0
336,232,0,0,0,0,0,0,0,0,0,-1,1560,792,0,0
343,232,0,0,0,0,0,0,0,0,0,-1,1567,792,0,0
350,232,0,0,0,0,0,0,0,0,0,-1,1574,792,0,0
357,232,0,0,0,0,0,0,0,0,0,-1,1581,792,0,0
364,232,0,0,0,0,0,0,0,0,0,-1,1588,792,0,0
371,232,0,0,0,0,0,0,0,0,0,-1,1595,792,0,0
378,232,0,0,0,0,0,0,0,0,0,-1,1602,792,0,0
385,232,0,0,0,0,0,0,0,0,0,-1,1609,792,0,0
392,232,0,0,0,0,0,0,0,0,0,-1,1616,792,0,0
399,232,0,0,0,0,0,0,0,0,0,-1,1623,792,0,0
406,232,0,0,0,0,0,0,0,0,0,-1,1630,792,0,0
413,232,0,0,0,0,0,0,0,0,0,-1,1637,792,0,0
420,232,0,0,0,0,0,0,0,0,0,-1,1644,792,0,0
427,232,0,0,0,0,0,0,0,0,0,-1,1651,792,0,0
434,232,0,0,0,0,0,0,0,0,0,-1,1658,792,0,0
441,232,0,0,0,0,0,0,0,0,0,-1,1665,792,0,0
448,232,0,0,0,0,0,0,0,0,0,-1,1672,792,0,0
455,232,0,0,0,0,0,0,0,0,0,-1,1679,792,0,0
462,232,0,0,0,0,0,0,0,0,0,-1,1686,792,0,0
469,232,0,0,0,0,0,0,0,0,0,-1,1693,792,0,0
476,232,0,0,0,0,0,0,0,0,0,-1,1700,792,0,0
483,232,0,0,0,0,0,0,0,0,0,-1,1707,792,0,0
490,232,0,0,0,0,0,0,0,0,0,-1,1714,792,0,0
497,232,0,0,0,0,0,0,0,0,0,-1,1721,792,0,0
504,232,0,0,0,0,0,0,0,0,0,-1,1728,792,0,0
511,232,0,0,0,0,0,0,0,0,0,-1,1735,792,0,0
518,232,0,0,0,0,0,0,0,0,0,-1,1742,792,0,0
525,232,0,0,0,0,0,0,0,0,0,-1,1749,792,0,0
532,232,0,0,0,0,0,0,0,0,0,-1,1756,792,0,0
539,232,0,0,0,0,0,0,0,0,0,-1,1763,792,0,0
546,232,0,0,0,0,0,0,0,0,0,-1,1770,792,0,0
553,232,0,0,0,0,0,0,0,0,0,-1,1777,792,0,0
560,232,0,0,0,0,0,0,0,0,0,-1,1784,792,0,0
567,232,0,0,0,0,0,0,0,0,0,-1,1791,792,0,0
574,232,0,0,0,0,0,0,0,0,0,-1,1798,792,0,0
581,232,0,0,0,0,0,0,0,0,0,-1,1805,792,0,0
588,232,49.7363,2.91187,0.00234484,0.00317196,-0.00056423,0.00345796,0.00205883,-1.10165,0.00200853,0.0386638,1812,792,49.7364,-2.91186
595,232,49.7865,2.71021,0.00904526,0.00714217,-0.00143973,0.00981948,0.00636794,-0.493392,0.00575202,0.0353843,1819,792,49.7865,-2.7102
602,232,49.8021,2.66693,0.0107132,0.00872689,-0.00211083,0.0120528,0.00738724,-0.565512,0.0070176,0.0358061,1826,792,49.8021,-2.6669
609,232,49.8518,2.77679,0,0,0,0,0,0,0,-1,1833,792,49.8518,-2.7768
616,232,49.5927,2.9823,0.00804538,0.00765908,-0.00209832,0.00995942,0.00574503,-0.739503,0.00577267,0.0487228,1840,792,49.5926,-2.98227
623,232,49.5105,3.03015,0.00574008,0.00637772,-0.00206186,0.00814526,0.00397254,-0.862103,0.00470314,0.045491,1847,792,49.5105,-3.03015
630,232,49.5938,3.06738,0,0,0,0,0,0,0,-1,1854,792,49.5938,-3.0674
637,232,47.0471,4.04309,0,0,0,0,0,0,0,-1,1861,792,47.0471,-4.04309
644,232,30.7756,4.24139,0,0,0,0,0,0,0,-1,1868,792,30.7757,-4.24141
651,232,31.6797,-0.564087,0,0,0,0,0,0,0,-1,1875,792,31.6797,0.564059
658,232,35.7219,-1.25769,0,0,0,0,0,0,0,-1,1882,792,35.7219,1.25768
665,232,35.5811,-0.664001,-0.00298876,0.00130989,-0.00194462,0.00205904,-0.00373791,-1.20308,0.00339333,0.0242535,1889,792,35.581,0.664008
672,232,35.5088,-0.0500488,-0.00307852,0.000717973,-0.00192797,0.00152535,-0.0038859,-1.17421,0.00322175,0.0267304,1896,792,35.5088,0.0500258
679,232,35.5116,0.541382,-0.00313459,0.000280641,-0.00164622,0.000944942,-0.0037989,-1.18725,0.00289937,0.0204957,1903,792,35.5116,-0.541389
686,232,35.4878,1.1582,-0.00274561,0.000353704,-0.00144066,0.000919922,-0.00331182,-1.19631,0.00257,0.0190817,1910,792,35.4877,-1.15821
693,232,35.4596,1.6911,-0.00141881,0.000815483,-0.000928933,0.00115124,-0.00175457,-1.22396,0.00168968,0.0107596,1917,792,35.4596,-1.69113
700,232,35.45,2.24463,-0.000226446,0.00166116,-0.000256487,0.00169539,-0.000260677,-1.43812,0.00122642,0.0119413,1924,792,35.45,-2.24462
707,232,35.4231,2.83826,0.000586493,0.0032595,0.000290321,0.00329067,0.000555324,1.46385,0.0020341,0.0124263,1931,792,35.4231,-2.83827
714,232,35.4086,3.39056,0.0014155,0.00500514,0.000925804,0.00522985,0.00119079,1.33268,0.0031652,0.0139446,1938,792,35.4085,-3.39055
721,232,35.3629,3.966,0.00209703,0.00708716,0.00155339,0.0075312,0.00165298,1.29237,0.00457055,0.022072,1945,792,35.3629,-3.96602
728,232,35.2852,4.40918,0.00239796,0.0097939,0.00199973,0.0103,0.0018919,1.32293,0.00633095,0.0447779,1952,792,35.2852,-4.40919
735,232,35.4563,5.04309,0,0,0,0,0,0,0,-1,1959,792,35.4563,-5.04307
742,232,25.6461,6.00684,0,0,0,0,0,0,0,-1,1966,792,25.6461,-6.00684
749,232,31.2874,3.74713,0,0,0,0,0,0,0,-1,1973,792,31.2874,-3.74713
756,232,32.1207,3.896,0,0,0,0,0,0,0,-1,1980,792,32.1207,-3.89597
763,232,32.7255,4.05878,0,0,0,0,0,0,0,-1,1987,792,32.7255,-4.05881
770,232,0,0,0,0,0,0,0,0,0,-1,1994,792,0,0
777,232,0,0,0,0,0,0,0,0,0,-1,2001,792,0,0
784,232,0,0,0,0,0,0,0,0,0,-1,2008,792,0,0
791,232,0,0,0,0,0,0,0,0,0,-1,2015,792,0,0
798,232,0,0,0,0,0,0,0,0,0,-1,2022,792,0,0
805,232,0,0,0,0,0,0,0,0,0,-1,2029,792,0,0
812,232,0,0,0,0,0,0,0,0,0,-1,2036,792,0,0
-700,225,0,0,0,0,0,0,0,0,0,-1,524,799,0,0
-693,225,0,0,0,0,0,0,0,0,0,-1,531,799,0,0
-686,225,0,0,0,0,0,0,0,0,0,-1,538,799,0,0
-679,225,0,0,0,0,0,0,0,0,0,-1,545,799,0,0
-672,225,0,0,0,0,0,0,0,0,0,-1,552,799,0,0
-665,225,0,0,0,0,0,0,0,0,0,-1,559,799,0,0
-658,225,0,0,0,0,0,0,0,0,0,-1,566,799,0,0
-651,225,0,0,0,0,0,0,0,0,0,-1,573,799,0,0
-644,225,-28.9417,3.77637,0,0,0,0,0,0,0,-1,580,799,-28.9416,-3.77637
-637,225,-29.6128,3.23175,0,0,0,0,0,0,0,-1,587,799,-29.6128,-3.23173
-630,225,-29.8912,5.02606,0,0,0,0,0,0,0,-1,594,799,-29.8912,-5.02606
-623,225,-32.8276,-0.00836182,0,0,0,0,0,0,0,-1,601,799,-32.8276,0.00837668
-616,225,-32.0569,-0.549255,0,0,0,0,0,0,0,-1,608,799,-32.0569,0.549265
-609,225,-24.2545,3.77222,0,0,0,0,0,0,0,-1,615,799,-24.2544,-3.77222
-602,225,-25.0909,2.7066,0,0,0,0,0,0,0,-1,622,799,-25.0909,-2.70659
-595,225,-24.9498,2.06793,0.00661178,0.00891032,-0.00151588,0.00966334,0.00585876,-1.10975,0.005621,0.0311178,629,799,-24.9499,-2.06794
-588,225,-24.9121,1.40222,0.00401236,0.00507682,-0.00235058,0.00695468,0.0021345,-0.896734,0.00411387,0.012053,636,799,-24.9121,-1.40221
-581,225,-24.9381,0.858826,0.00268333,0.00284765,-0.00186825,0.00463554,0.000895434,-0.807373,0.00283934,0.00993112,643,799,-24.9381,-0.858838
-574,225,-24.9678,0.304199,0.00147474,0.00115774,-0.000961596,0.00229081,0.000341667,-0.703716,0.00142702,0.00906895,650,799,-24.9678,-0.304177
-567,225,-24.9896,-0.251221,0.000344077,4.04837e-05,5.30548e-05,0.000353082,3.14791e-05,0.16812,0.000225628,0.0122619,657,799,-24.9896,0.251209
-560,225,-25.0239,-0.780029,-0.00078455,-0.000596283,0.000855221,0.00016997,-0.0015508,0.840212,0.00109493,0.013161,664,799,-25.0239,0.780019
-553,225,-25.0445,-1.35315,-0.00191885,-0.0011451,0.0014203,-5.99199e-05,-0.00300402,0.918367,0.00198301,0.0120655,671,799,-25.0445,1.35316
-546,225,-25.0891,-1.90149,-0.00277992,-0.00109973,0.00207223,0.000296222,-0.00417587,0.977977,0.00288772,0.0201737,678,799,-25.089,1.90151
-539,225,-25.1151,-2.43018,-0.00252091,-0.000891037,0.00211808,0.000563474,-0.00397542,0.969044,0.00285669,0.0430562,685,799,-25.1151,2.43017
-532,225,-25.3016,-2.88202,-0.00205136,-0.000571097,0.0018732,0.000702893,-0.00332535,0.973543,0.00248457,0.0442064,692,799,-25.3016,2.88202
-525,225,-25.6219,-3.11713,0,0,0,0,0,0,0,-1,699,799,-25.6219,3.11715
-518,225,-21.963,0.171326,0,0,0,0,0,0,0,-1,706,799,-21.9629,-0.171319
-511,225,-33.0002,0.660217,0,0,0,0,0,0,0,-1,713,799,-33.0002,-0.660239
-504,225,-37.438,1.19312,0,0,0,0,0,0,0,-1,720,799,-37.438,-1.19314
-497,225,-37.8238,0.747559,0,0,0,0,0,0,0,-1,727,799,-37.8238,-0.747565
-490,225,-37.4875,1.00446,0.00930699,0.0031827,0.00328212,0.0107336,0.00175607,0.410028,0.00664815,0.0379737,734,799,-37.4875,-1.00445
-483,225,-37.4111,1.0249,0.0123595,0.00413282,0.00380921,0.0138523,0.00263994,0.373516,0.00849279,0.0345799,741,799,-37.4111,-1.02488
-476,225,-37.332,1.07758,0.015505,0.00567035,0.00460132,0.0173221,0.00385328,0.376104,0.010502,0.0327358,748,799,-37.332,-1.07756
-469,225,-37.27,1.16718,0.0173337,0.00807435,0.00546919,0.0198696,0.00553842,0.434168,0.0118402,0.035782,755,799,-37.27,-1.16716
-462,225,0,0,0,0,0,0,0,0,0,-1,762,799,0,0
-455,225,0,0,0,0,0,0,0,0,0,-1,769,799,0,0
-448,225,0,0,0,0,0,0,0,0,0,-1,776,799,0,0
-441,225,0,0,0,0,0,0,0,0,0,-1,783,799,0,0
-434,225,0,0,0,0,0,0,0,0,0,-1,790,799,0,0
-427,225,0,0,0,0,0,0,0,0,0,-1,797,799,0,0
-420,225,0,0,0,0,0,0,0,0,0,-1,804,799,0,0
-413,225,0,0,0,0,0,0,0,0,0,-1,811,799,0,0
-406,225,0,0,0,0,0,0,0,0,0,-1,818,799,0,0
-399,225,0,0,0,0,0,0,0,0,0,-1,825,799,0,0
-392,225,0,0,0,0,0,0,0,0,0,-1,832,799,0,0
-385,225,0,0,0,0,0,0,0,0,0,-1,839,799,0,0
-378,225,0,0,0,0,0,0,0,0,0,-1,846,799,0,0
-371,225,0,0,0,0,0,0,0,0,0,-1,853,799,0,0
-364,225,0,0,0,0,0,0,0,0,0,-1,860,799,0,0
-357,225,0,0,0,0,0,0,0,0,0,-1,867,799,0,0
-350,225,0,0,0,0,0,0,0,0,0,-1,874,799,0,0
-343,225,0,0,0,0,0,0,0,0,0,-1,881,799,0,0
-336,225,0,0,0,0,0,0,0,0,0,-1,888,799,0,0
-329,225,0,0,0,0,0,0,0,0,0,-1,895,799,0,0
-322,225,0,0,0,0,0,0,0,0,0,-1,902,799,0,0
-315,225,0,0,0,0,0,0,0,0,0,-1,909,799,0,0
-308,225,0,0,0,0,0,0,0,0,0,-1,916,799,0,0
-301,225,0,0,0,0,0,0,0,0,0,-1,923,799,0,0
-294,225,0,0,0,0,0,0,0,0,0,-1,930,799,0,0
-287,225,0,0,0,0,0,0,0,0,0,-1,937,799,0,0
-280,225,0,0,0,0,0,0,0,0,0,-1,944,799,0,0
-273,225,0,0,0,0,0,0,0,0,0,-1,951,799,0,0
-266,225,0,0,0,0,0,0,0,0,0,-1,958,799,0,0
-259,225,0,0,0,0,0,0,0,0,0,-1,965,799,0,0
-252,225,0,0,0,0,0,0,0,0,0,-1,972,799,0,0
-245,225,0,0,0,0,0,0,0,0,0,-1,979,799,0,0
-238,225,0,0,0,0,0,0,0,0,0,-1,986,799,0,0
-231,225,0,0,0,0,0,0,0,0,0,-1,993,799,0,0
-224,225,0,0,0,0,0,0,0,0,0,-1,1000,799,0,0
-217,225,0,0,0,0,0,0,0,0,0,-1,1007,799,0,0
-210,225,0,0,0,0,0,0,0,0,0,-1,1014,799,0,0
-203,225,0,0,0,0,0,0,0,0,0,-1,1021,799,0,0
-196,225,0,0,0,0,0,0,0,0,0,-1,1028,799,0,0
-189,225,0,0,0,0,0,0,0,0,0,-1,1035,799,0,0
-182,225,0,0,0,0,0,0,0,0,0,-1,1042,799,0,0
-175,225,0,0,0,0,0,0,0,0,0,-1,1049,799,0,0
-168,225,0,0,0,0,0,0,0,0,0,-1,1056,799,0,0
-161,225,0,0,0,0,0,0,0,0,0,-1,1063,799,0,0
-154,225,0,0,0,0,0,0,0,0,0,-1,1070,799,0,0
-147,225,0,0,0,0,0,0,0,0,0,-1,1077,799,0,0
-140,225,0,0,0,0,0,0,0,0,0,-1,1084,799,0,0
-133,225,0,0,0,0,0,0,0,0,0,-1,1091,799,0,0
-126,225,0,0,0,0,0,0,0,0,0,-1,1098,799,0,0
-119,225,0,0,0,0,0,0,0,0,0,-1,1105,799,0,0
-112,225,0,0,0,0,0,0,0,0,0,-1,1112,799,0,0
-105,225,0,0,0,0,0,0,0,0,0,-1,1119,799,0,0
-98,225,0,0,0,0,0,0,0,0,0,-1,1126,799,0,0
-91,225,0,0,0,0,0,0,0,0,0,-1,1133,799,0,0
-84,225,0,0,0,0,0,0,0,0,0,-1,1140,799,0,0
-77,225,0,0,0,0,0,0,0,0,0,-1,1147,799,0,0
-70,225,0,0,0,0,0,0,0,0,0,-1,1154,799,0,0
-63,225,0,0,0,0,0,0,0,0,0,-1,1161,799,0,0
-56,225,0,0,0,0,0,0,0,0,0,-1,1168,799,0,0
-49,225,0,0,0,0,0,0,0,0,0,-1,1175,799,0,0
-42,225,0,0,0,0,0,0,0,0,0,-1,1182,799,0,0
-35,225,0,0,0,0,0,0,0,0,0,-1,1189,799,0,0
-28,225,0,0,0,0,0,0,0,0,0,-1,1196,799,0,0
-21,225,0,0,0,0,0,0,0,0,0,-1,1203,799,0,0
-14,225,0,0,0,0,0,0,0,0,0,-1,1210,799,0,0
-7,225,0,0,0,0,0,0,0,0,0,-1,1217,799,0,0
0,225,0,0,0,0,0,0,0,0,0,-1,1224,799,0,0
7,225,0,0,0,0,0,0,0,0,0,-1,1231,799,0,0
14,225,0,0,0,0,0,0,0,0,0,-1,1238,799,0,0
21,225,0,0,0,0,0,0,0,0,0,-1,1245,799,0,0
28,225,0,0,0,0,0,0,0,0,0,-1,1252,799,0,0
35,225,0,0,0,0,0,0,0,0,0,-1,1259,799,0,0
42,225,0,0,0,0,0,0,0,0,0,-1,1266,799,0,0
49,225,0,0,0,0,0,0,0,0,0,-1,1273,799,0,0
56,225,0,0,0,0,0,0,0,0,0,-1,1280,799,0,0
63,225,0,0,0,0,0,0,0,0,0,-1,1287,799,0,0
70,225,0,0,0,0,0,0,0,0,0,-1,1294,799,0,0
77,225,0,0,0,0,0,0,0,0,0,-1,1301,799,0,0
84,225,0,0,0,0,0,0,0,0,0,-1,1308,799,0,0
91,225,0,0,0,0,0,0,0,0,0,-1,1315,799,0,0
98,225,0,0,0,0,0,0,0,0,0,-1,1322,799,0,0
105,225,0,0,0,0,0,0,0,0,0,-1,1329,799,0,0
112,225,0,0,0,0,0,0,0,0,0,-1,1336,799,0,0
119,225,0,0,0,0,0,0,0,0,0,-1,1343,799,0,0
126,225,0,0,0,0,0,0,0,0,0,-1,1350,799,0,0
133,225,0,0,0,0,0,0,0,0,0,-1,1357,799,0,0
140,225,0,0,0,0,0,0,0,0,0,-1,1364,799,0,0
147,225,0,0,0,0,0,0,0,0,0,-1,1371,799,0,0
154,225,0,0,0,0,0,0,0,0,0,-1,1378,799,0,0
161,225,0,0,0,0,0,0,0,0,0,-1,1385,799,0,0
168,225,0,0,0,0,0,0,0,0,0,-1,1392,799,0,0
175,225,0,0,0,0,0,0,0,0,0,-1,1399,799,0,0
182,225,0,0,0,0,0,0,0,0,0,-1,1406,799,0,0
189,225,0,0,0,0,0,0,0,0,0,-1,1413,799,0,0
196,225,0,0,0,0,0,0,0,0,0,-1,1420,799,0,0
203,225,0,0,0,0,0,0,0,0,0,-1,1427,799,0,0
210,225,0,0,0,0,0,0,0,0,0,-1,1434,799,0,0
217,225,0,0,0,0,0,0,0,0,0,-1,1441,799,0,0
224,225,0,0,0,0,0,0,0,0,0,-1,1448,799,0,0
231,225,0,0,0,0,0,0,0,0,0,-1,1455,799,0,0
238,225,0,0,0,0,0,0,0,0,0,-1,1462,799,0,0
245,225,0,0,0,0,0,0,0,0,0,-1,1469,799,0,0
252,225,0,0,0,0,0,0,0,0,0,-1,1476,799,0,0
259,225,0,0,0,0,0,0,0,0,0,-1,1483,799,0,0
266,225,0,0,0,0,0,0,0,0,0,-1,1490,799,0,0
273,225,0,0,0,0,0,0,0,0,0,-1,1497,799,0,0
280,225,0,0,0,0,0,0,0,0,0,-1,1504,799,0,0
287,225,0,0,0,0,0,0,0,0,0,-1,1511,799,0,0
294,225,0,0,0,0,0,0,0,0,0,-1,1518,799,0,0
301,225,0,0,0,0,0,0,0,0,0,-1,1525,799,0,0
308,225,0,0,0,0,0,0,0,0,0,-1,1532,799,0,0
315,225,0,0,0,0,0,0,0,0,0,-1,1539,799,0,0
322,225,0,0,0,0,0,0,0,0,0,-1,1546,799,0,0
329,225,0,0,0,0,0,0,0,0,0,-1,1553,799,0,0
336,225,0,0,0,0,0,0,0,0,0,-1,1560,799,0,0
343,225,0,0,0,0,0,0,0,0,0,-1,1567,799,0,0
350,225,0,0,0,0,0,0,0,0,0,-1,1574,799,0,0
357,225,0,0,0,0,0,0,0,0,0,-1,1581,799,0,0
364,225,0,0,0,0,0,0,0,0,0,-1,1588,799,0,0
371,225,0,0,0,0,0,0,0,0,0,-1,1595,799,0,0
378,225,0,0,0,0,0,0,0,0,0,-1,1602,799,0,0
385,225,0,0,0,0,0,0,0,0,0,-1,1609,799,0,0
392,225,0,0,0,0,0,0,0,0,0,-1,1616,799,0,0
399,225,0,0,0,0,0,0,0,0,0,-1,1623,799,0,0
406,225,0,0,0,0,0,0,0,0,0,-1,1630,799,0,0
413,225,0,0,0,0,0,0,0,0,0,-1,1637,799,0,0
420,225,0,0,0,0,0,0,0,0,0,-1,1644,799,0,0
427,225,0,0,0,0,0,0,0,0,0,-1,1651,799,0,0
434,225,0,0,0,0,0,0,0,0,0,-1,1658,799,0,0
441,225,0,0,0,0,0,0,0,0,0,-1,1665,799,0,0
448,225,0,0,0,0,0,0,0,0,0,-1,1672,799,0,0
455,225,0,0,0,0,0,0,0,0,0,-1,1679,799,0,0
462,225,0,0,0,0,0,0,0,0,0,-1,1686,799,0,0
469,225,0,0,0,0,0,0,0,0,0,-1,1693,799,0,0
476,225,0,0,0,0,0,0,0,0,0,-1,1700,799,0,0
483,225,0,0,0,0,0,0,0,0,0,-1,1707,799,0,0
490,225,0,0,0,0,0,0,0,0,0,-1,1714,799,0,0
497,225,0,0,0,0,0,0,0,0,0,-1,1721,799,0,0
504,225,0,0,0,0,0,0,0,0,0,-1,1728,799,0,0
511,225,0,0,0,0,0,0,0,0,0,-1,1735,799,0,0
518,225,0,0,0,0,0,0,0,0,0,-1,1742,799,0,0
525,225,0,0,0,0,0,0,0,0,0,-1,1749,799,0,0
532,225,0,0,0,0,0,0,0,0,0,-1,1756,799,0,0
539,225,0,0,0,0,0,0,0,0,0,-1,1763,799,0,0
546,225,0,0,0,0,0,0,0,0,0,-1,1770,799,0,0
553,225,0,0,0,0,0,0,0,0,0,-1,1777,799,0,0
560,225,0,0,0,0,0,0,0,0,0,-1,1784,799,0,0
567,225,0,0,0,0,0,0,0,0,0,-1,1791,799,0,0
574,225,0,0,0,0,0,0,0,0,0,-1,1798,799,0,0
581,225,0,0,0,0,0,0,0,0,0,-1,1805,799,0,0
588,225,49.7561,2.91852,-0.000677759,0.000205378,-0.000543374,0.000463979,-0.00093636,-1.1266,0.000823677,0.0371971,1812,799,49.756,-2.9185
595,225,49.8087,2.71155,0.00573994,0.00413541,-0.000785253,0.00606028,0.00381507,-0.387341,0.00353782,0.0340233,1819,799,49.8087,-2.71152
602,225,49.7911,2.59332,0.00762182,0.00649531,-0.00144489,0.00860936,0.00550777,-0.599546,0.00503491,0.0328868,1826,799,49.7911,-2.59334
609,225,49.7869,2.70996,0.00744834,0.00731479,-0.00168996,0.00907284,0.00569028,-0.765652,0.00529439,0.0324638,1833,799,49.7869,-2.70998
616,225,49.7638,2.79486,0.00591819,0.00684363,-0.00176676,0.00820725,0.00455456,-0.913474,0.00474799,0.0396088,1840,799,49.7638,-2.79484
623,225,49.7675,2.86646,0.00387666,0.00587283,-0.00190818,0.00702819,0.0027213,-1.02636,0.004092,0.0426217,1847,799,49.7674,-2.86646
630,225,50.1709,2.78601,0.00229934,0.00497251,-0.00196191,0.00600985,0.00126199,-1.08442,0.00365918,0.0451696,1854,799,50.1709,-2.786
637,225,50.7728,2.51971,0,0,0,0,0,0,0,-1,1861,799,50.7728,-2.51973
644,225,42.0298,2.46411,0,0,0,0,0,0,0,-1,1868,799,42.0298,-2.4641
651,225,27.9657,0.579529,0,0,0,0,0,0,0,-1,1875,799,27.9657,-0.579541
658,225,36.8728,-0.846985,0,0,0,0,0,0,0,-1,1882,799,36.8728,0.846958
665,225,36.3595,-0.467163,-0.00346271,0.00139399,-0.00212474,0.00219232,-0.00426103,-1.21139,0.00378912,0.0299405,1889,799,36.3595,0.467157
672,225,36.1095,0.0778198,-0.00362982,0.000773718,-0.00214978,0.00164918,-0.00450528,-1.18407,0.00367861,0.0281292,1896,799,36.1094,-0.0778449
679,225,36.0796,0.61554,-0.00380529,0.000277832,-0.001932,0.00104707,-0.00457453,-1.19188,0.00345205,0.0212682,1903,799,36.0796,-0.615519
686,225,36.0598,1.15924,-0.0035206,0.000171431,-0.00182793,0.000923318,-0.00427248,-1.18056,0.0032008,0.0118277,1910,799,36.0598,-1.15926
693,225,36.0355,1.70776,-0.00211466,0.000401923,-0.00140909,0.00103277,-0.0027455,-1.14986,0.00225486,0.0104545,1917,799,36.0355,-1.70776
700,225,36.0201,2.27057,-0.000779972,0.00104331,-0.000729366,0.00129917,-0.00103583,-1.23341,0.00135097,0.0110912,1924,799,36.0201,-2.27057
707,225,35.9906,2.85681,9.1518e-05,0.00256252,-0.000229977,0.00258375,7.02962e-05,-1.47878,0.00169955,0.0118084,1931,799,35.9905,-2.85681
714,225,35.985,3.42963,0.000993796,0.00423144,0.00036103,0.00427121,0.000954026,1.46108,0.00258874,0.0134301,1938,799,35.985,-3.42966
721,225,36.0044,4.01758,0.00172546,0.00624571,0.000927068,0.00642846,0.00154272,1.37617,0.00387515,0.0169651,1945,799,36.0044,-4.01757
728,225,35.9419,4.42737,0.0020555,0.00882854,0.00129659,0.00906827,0.00181577,1.38797,0.00554034,0.0340111,1952,799,35.9419,-4.42737
735,225,36.4082,5.39514,0,0,0,0,0,0,0,-1,1959,799,36.4082,-5.39513
742,225,29.0922,3.2132,0,0,0,0,0,0,0,-1,1966,799,29.0921,-3.21322
749,225,29.9529,4.45538,0,0,0,0,0,0,0,-1,1973,799,29.9529,-4.45537
756,225,31.8855,3.83466,0,0,0,0,0,0,0,-1,1980,799,31.8855,-3.83463
763,225,29.1302,5.2796,0,0,0,0,0,0,0,-1,1987,799,29.1303,-5.27958
770,225,0,0,0,0,0,0,0,0,0,-1,1994,799,0,0
777,225,0,0,0,0,0,0,0,0,0,-1,2001,799,0,0
784,225,0,0,0,0,0,0,0,0,0,-1,2008,799,0,0
791,225,0,0,0,0,0,0,0,0,0,-1,2015,799,0,0
798,225,0,0,0,0,0,0,0,0,0,-1,2022,799,0,0
805,225,0,0,0,0,0,0,0,0,0,-1,2029,799,0,0
812,225,0,0,0,0,0,0,0,0,0,-1,2036,799,0,0
-700,218,0,0,0,0,0,0,0,0,0,-1,524,806,0,0
-693,218,0,0,0,0,0,0,0,0,0,-1,531,806,0,0
-686,218,0,0,0,0,0,0,0,0,0,-1,538,806,0,0
-679,218,0,0,0,0,0,0,0,0,0,-1,545,806,0,0
-672,218,0,0,0,0,0,0,0,0,0,-1,552,806,0,0
-665,218,0,0,0,0,0,0,0,0,0,-1,559,806,0,0
-658,218,0,0,0,0,0,0,0,0,0,-1,566,806,0,0
-651,218,-26.2643,2.93054,0,0,0,0,0,0,0,-1,573,806,-26.2643,-2.93053
-644,218,-28.7305,4.12079,0,0,0,0,0,0,0,-1,580,806,-28.7305,-4.12076
-637,218,-29.3349,3.56067,0,0,0,0,0,0,0,-1,587,806,-29.3349,-3.56068
-630,218,-29.7347,3.06238,0,0,0,0,0,0,0,-1,594,806,-29.7347,-3.06238
-623,218,-29.4469,4.34161,0,0,0,0,0,0,0,-1,601,806,-29.4469,-4.34164
-616,218,-20.0258,1.87585,0,0,0,0,0,0,0,-1,608,806,-20.0258,-1.87585
-609,218,-25.5375,3.22455,0,0,0,0,0,0,0,-1,615,806,-25.5375,-3.22456
-602,218,-25.553,2.61102,0.0110559,0.0168663,0.00243968,0.0177548,0.0101674,1.22154,0.0102867,0.0421833,622,806,-25.553,-2.61102
-595,218,-25.5283,1.98785,0.00641203,0.0102152,-0.000806575,0.0103791,0.00624804,-1.37022,0.0060338,0.0185668,629,806,-25.5283,-1.98784
-588,218,-25.512,1.40833,0.00375388,0.00584831,-0.00174729,0.00683817,0.00276402,-1.05536,0.0039721,0.0113338,636,806,-25.5119,-1.4083
-581,218,-25.5161,0.883057,0.00240945,0.00316223,-0.0013168,0.00415537,0.0014163,-0.924606,0.00243928,0.0109814,643,806,-25.5161,-0.883062
-574,218,-25.5417,0.349365,0.00122592,0.00122603,-0.000349012,0.00157498,0.000876961,-0.785478,0.000911271,0.0103887,650,806,-25.5417,-0.349342
-567,218,-25.5254,-0.223022,0.00018107,0.000201981,0.000658646,0.000850255,-0.000467203,0.793335,0.000771277,0.0171962,657,806,-25.5254,0.222996
-560,218,-25.5677,-0.746155,-0.000885852,-0.000163849,0.00126161,0.000787393,-0.00183709,0.924746,0.00155512,0.0177954,664,806,-25.5677,0.746135
-553,218,-25.5331,-1.39685,-0.00201591,-0.000503441,0.00148884,0.000410211,-0.00292957,1.02039,0.00210316,0.0179944,671,806,-25.5331,1.39688
-546,218,-25.6565,-2.06348,-0.00278122,-0.000261698,0.00186817,0.000731773,-0.00377469,1.08204,0.00279253,0.0221204,678,806,-25.6565,2.06349
-539,218,-25.6933,-2.60162,-0.00247927,3.10358e-05,0.0018053,0.000974635,-0.00342287,1.08917,0.00266683,0.03426,685,806,-25.6933,2.60163
-532,218,-25.8341,-2.85333,-0.00210951,0.000386838,0.00146702,0.00106482,-0.00278749,1.13788,0.00229707,0.0453431,692,806,-25.8341,2.85336
-525,218,-26.3137,-3.02502,0,0,0,0,0,0,0,-1,699,806,-26.3136,3.02505
-518,218,-23.61,2.54181,0,0,0,0,0,0,0,-1,706,806,-23.61,-2.54183
-511,218,-36.9542,1.57483,0,0,0,0,0,0,0,-1,713,806,-36.9542,-1.57485
-504,218,-37.2868,1.20459,0,0,0,0,0,0,0,-1,720,806,-37.2868,-1.2046
-497,218,-37.6194,0.834351,0,0,0,0,0,0,0,-1,727,806,-37.6194,-0.83436
-490,218,-37.3901,1.00623,0.00842818,0.00458413,0.00191335,0.00921818,0.00379412,0.391568,0.00534978,0.0352974,734,806,-37.3901,-1.00625
-483,218,-37.3401,1.07697,0.0115902,0.00580921,0.00210345,0.0122745,0.00512487,0.314543,0.00711877,0.0335294,741,806,-37.3401,-1.07699
-476,218,-37.255,1.14471,0.0147517,0.00773269,0.00250807,0.0155557,0.0069286,0.310246,0.00899895,0.0368021,748,806,-37.255,-1.14474
-469,218,0,0,0,0,0,0,0,0,0,-1,755,806,0,0
-462,218,0,0,0,0,0,0,0,0,0,-1,762,806,0,0
-455,218,0,0,0,0,0,0,0,0,0,-1,769,806,0,0
-448,218,0,0,0,0,0,0,0,0,0,-1,776,806,0,0
-441,218,0,0,0,0,0,0,0,0,0,-1,783,806,0,0
-434,218,0,0,0,0,0,0,0,0,0,-1,790,806,0,0
-427,218,0,0,0,0,0,0,0,0,0,-1,797,806,0,0
-420,218,0,0,0,0,0,0,0,0,0,-1,804,806,0,0
-413,218,0,0,0,0,0,0,0,0,0,-1,811,806,0,0
-406,218,0,0,0,0,0,0,0,0,0,-1,818,806,0,0
-399,218,0,0,0,0,0,0,0,0,0,-1,825,806,0,0
-392,218,0,0,0,0,0,0,0,0,0,-1,832,806,0,0
-385,218,0,0,0,0,0,0,0,0,0,-1,839,806,0,0
-378,218,0,0,0,0,0,0,0,0,0,-1,846,806,0,0
-371,218,0,0,0,0,0,0,0,0,0,-1,853,806,0,0
-364,218,0,0,0,0,0,0,0,0,0,-1,860,806,0,0
-357,218,0,0,0,0,0,0,0,0,0,-1,867,806,0,0
-350,218,0,0,0,0,0,0,0,0,0,-1,874,806,0,0
-343,218,0,0,0,0,0,0,0,0,0,-1,881,806,0,0
-336,218,0,0,0,0,0,0,0,0,0,-1,888,806,0,0
-329,218,0,0,0,0,0,0,0,0,0,-1,895,806,0,0
-322,218,0,0,0,0,0,0,0,0,0,-1,902,806,0,0
-315,218,0,0,0,0,0,0,0,0,0,-1,909,806,0,0
-308,218,0,0,0,0,0,0,0,0,0,-1,916,806,0,0
-301,218,0,0,0,0,0,0,0,0,0,-1,923,806,0,0
-294,218,0,0,0,0,0,0,0,0,0,-1,930,806,0,0
-287,218,0,0,0,0,0,0,0,0,0,-1,937,806,0,0
-280,218,0,0,0,0,0,0,0,0,0,-1,944,806,0,0
-273,218,0,0,0,0,0,0,0,0,0,-1,951,806,0,0
-266,218,0,0,0,0,0,0,0,0,0,-1,958,806,0,0
-259,218,0,0,0,0,0,0,0,0,0,-1,965,806,0,0
-252,218,0,0,0,0,0,0,0,0,0,-1,972,806,0,0
-245,218,0,0,0,0,0,0,0,0,0,-1,979,806,0,0
-238,218,0,0,0,0,0,0,0,0,0,-1,986,806,0,0
-231,218,0,0,0,0,0,0,0,0,0,-1,993,806,0,0
-224,218,0,0,0,0,0,0,0,0,0,-1,1000,806,0,0
-217,218,0,0,0,0,0,0,0,0,0,-1,1007,806,0,0
-210,218,0,0,0,0,0,0,0,0,0,-1,1014,806,0,0
-203,218,0,0,0,0,0,0,0,0,0,-1,1021,806,0,0
-196,218,0,0,0,0,0,0,0,0,0,-1,1028,806,0,0
-189,218,0,0,0,0,0,0,0,0,0,-1,1035,806,0,0
-182,218,0,0,0,0,0,0,0,0,0,-1,1042,806,0,0
-175,218,0,0,0,0,0,0,0,0,0,-1,1049,806,0,0
-168,218,0,0,0,0,0,0,0,0,0,-1,1056,806,0,0
-161,218,0,0,0,0,0,0,0,0,0,-1,1063,806,0,0
-154,218,0,0,0,0,0,0,0,0,0,-1,1070,806,0,0
-147,218,0,0,0,0,0,0,0,0,0,-1,1077,806,0,0
-140,218,0,0,0,0,0,0,0,0,0,-1,1084,806,0,0
-133,218,0,0,0,0,0,0,0,0,0,-1,1091,806,0,0
-126,218,0,0,0,0,0,0,0,0,0,-1,1098,806,0,0
-119,218,0,0,0,0,0,0,0,0,0,-1,1105,806,0,0
-112,218,0,0,0,0,0,0,0,0,0,-1,1112,806,0,0
-105,218,0,0,0,0,0,0,0,0,0,-1,1119,806,0,0
-98,218,0,0,0,0,0,0,0,0,0,-1,1126,806,0,0
-91,218,0,0,0,0,0,0,0,0,0,-1,1133,806,0,0
-84,218,0,0,0,0,0,0,0,0,0,-1,1140,806,0,0
-77,218,0,0,0,0,0,0,0,0,0,-1,1147,806,0,0
-70,218,0,0,0,0,0,0,0,0,0,-1,1154,806,0,0
-63,218,0,0,0,0,0,0,0,0,0,-1,1161,806,0,0
-56,218,0,0,0,0,0,0,0,0,0,-1,1168,806,0,0
-49,218,0,0,0,0,0,0,0,0,0,-1,1175,806,0,0
-42,218,0,0,0,0,0,0,0,0,0,-1,1182,806,0,0
-35,218,0,0,0,0,0,0,0,0,0,-1,1189,806,0,0
-28,218,0,0,0,0,0,0,0,0,0,-1,1196,806,0,0
-21,218,0,0,0,0,0,0,0,0,0,-1,1203,806,0,0
-14,218,0,0,0,0,0,0,0,0,0,-1,1210,806,0,0
-7,218,0,0,0,0,0,0,0,0,0,-1,1217,806,0,0
0,218,0,0,0,0,0,0,0,0,0,-1,1224,806,0,0
7,218,0,0,0,0,0,0,0,0,0,-1,1231,806,0,0
14,218,0,0,0,0,0,0,0,0,0,-1,1238,806,0,0
21,218,0,0,0,0,0,0,0,0,0,-1,1245,806,0,0
28,218,0,0,0,0,0,0,0,0,0,-1,1252,806,0,0
35,218,0,0,0,0,0,0,0,0,0,-1,1259,806,0,0
42,218,0,0,0,0,0,0,0,0,0,-1,1266,806,0,0
49,218,0,0,0,0,0,0,0,0,0,-1,1273,806,0,0
56,218,0,0,0,0,0,0,0,0,0,-1,1280,806,0,0
63,218,0,0,0,0,0,0,0,0,0,-1,1287,806,0,0
70,218,0,0,0,0,0,0,0,0,0,-1,1294,806,0,0
77,218,0,0,0,0,0,0,0,0,0,-1,1301,806,0,0
84,218,0,0,0,0,0,0,0,0,0,-1,1308,806,0,0
91,218,0,0,0,0,0,0,0,0,0,-1,1315,806,0,0
98,218,0,0,0,0,0,0,0,0,0,-1,1322,806,0,0
105,218,0,0,0,0,0,0,0,0,0,-1,1329,806,0,0
112,218,0,0,0,0,0,0,0,0,0,-1,1336,806,0,0
119,218,0,0,0,0,0,0,0,0,0,-1,1343,806,0,0
126,218,0,0,0,0,0,0,0,0,0,-1,1350,806,0,0
133,218,0,0,0,0,0,0,0,0,0,-1,1357,806,0,0
140,218,0,0,0,0,0,0,0,0,0,-1,1364,806,0,0
147,218,0,0,0,0,0,0,0,0,0,-1,1371,806,0,0
154,218,0,0,0,0,0,0,0,0,0,-1,1378,806,0,0
161,218,0,0,0,0,0,0,0,0,0,-1,1385,806,0,0
168,218,0,0,0,0,0,0,0,0,0,-1,1392,806,0,0
175,218,0,0,0,0,0,0,0,0,0,-1,1399,806,0,0
182,218,0,0,0,0,0,0,0,0,0,-1,1406,806,0,0
189,218,0,0,0,0,0,0,0,0,0,-1,1413,806,0,0
196,218,0,0,0,0,0,0,0,0,0,-1,1420,806,0,0
203,218,0,0,0,0,0,0,0,0,0,-1,1427,806,0,0
210,218,0,0,0,0,0,0,0,0,0,-1,1434,806,0,0
217,218,0,0,0,0,0,0,0,0,0,-1,1441,806,0,0
224,218,0,0,0,0,0,0,0,0,0,-1,1448,806,0,0
231,218,0,0,0,0,0,0,0,0,0,-1,1455,806,0,0
238,218,0,0,0,0,0,0,0,0,0,-1,1462,806,0,0
245,218,0,0,0,0,0,0,0,0,0,-1,1469,806,0,0
252,218,0,0,0,0,0,0,0,0,0,-1,1476,806,0,0
259,218,0,0,0,0,0,0,0,0,0,-1,1483,806,0,0
266,218,0,0,0,0,0,0,0,0,0,-1,1490,806,0,0
273,218,0,0,0,0,0,0,0,0,0,-1,1497,806,0,0
280,218,0,0,0,0,0,0,0,0,0,-1,1504,806,0,0
287,218,0,0,0,0,0,0,0,0,0,-1,1511,806,0,0
294,218,0,0,0,0,0,0,0,0,0,-1,1518,806,0,0
301,218,0,0,0,0,0,0,0,0,0,-1,1525,806,0,0
308,218,0,0,0,0,0,0,0,0,0,-1,1532,806,0,0
315,218,0,0,0,0,0,0,0,0,0,-1,1539,806,0,0
322,218,0,0,0,0,0,0,0,0,0,-1,1546,806,0,0
329,218,0,0,0,0,0,0,0,0,0,-1,1553,806,0,0
336,218,0,0,0,0,0,0,0,0,0,-1,1560,806,0,0
343,218,0,0,0,0,0,0,0,0,0,-1,1567,806,0,0
350,218,0,0,0,0,0,0,0,0,0,-1,1574,806,0,0
357,218,0,0,0,0,0,0,0,0,0,-1,1581,806,0,0
364,218,0,0,0,0,0,0,0,0,0,-1,1588,806,0,0
371,218,0,0,0,0,0,0,0,0,0,-1,1595,806,0,0
378,218,0,0,0,0,0,0,0,0,0,-1,1602,806,0,0
385,218,0,0,0,0,0,0,0,0,0,-1,1609,806,0,0
392,218,0,0,0,0,0,0,0,0,0,-1,1616,806,0,0
399,218,0,0,0,0,0,0,0,0,0,-1,1623,806,0,0
406,218,0,0,0,0,0,0,0,0,0,-1,1630,806,0,0
413,218,0,0,0,0,0,0,0,0,0,-1,1637,806,0,0
420,218,0,0,0,0,0,0,0,0,0,-1,1644,806,0,0
427,218,0,0,0,0,0,0,0,0,0,-1,1651,806,0,0
434,218,0,0,0,0,0,0,0,0,0,-1,1658,806,0,0
441,218,0,0,0,0,0,0,0,0,0,-1,1665,806,0,0
448,218,0,0,0,0,0,0,0,0,0,-1,1672,806,0,0
455,218,0,0,0,0,0,0,0,0,0,-1,1679,806,0,0
462,218,0,0,0,0,0,0,0,0,0,-1,1686,806,0,0
469,218,0,0,0,0,0,0,0,0,0,-1,1693,806,0,0
476,218,0,0,0,0,0,0,0,0,0,-1,1700,806,0,0
483,218,0,0,0,0,0,0,0,0,0,-1,1707,806,0,0
490,218,0,0,0,0,0,0,0,0,0,-1,1714,806,0,0
497,218,0,0,0,0,0,0,0,0,0,-1,1721,806,0,0
504,218,0,0,0,0,0,0,0,0,0,-1,1728,806,0,0
511,218,0,0,0,0,0,0,0,0,0,-1,1735,806,0,0
518,218,0,0,0,0,0,0,0,0,0,-1,1742,806,0,0
525,218,0,0,0,0,0,0,0,0,0,-1,1749,806,0,0
532,218,0,0,0,0,0,0,0,0,0,-1,1756,806,0,0
539,218,0,0,0,0,0,0,0,0,0,-1,1763,806,0,0
546,218,0,0,0,0,0,0,0,0,0,-1,1770,806,0,0
553,218,0,0,0,0,0,0,0,0,0,-1,1777,806,0,0
560,218,0,0,0,0,0,0,0,0,0,-1,1784,806,0,0
567,218,0,0,0,0,0,0,0,0,0,-1,1791,806,0,0
574,218,0,0,0,0,0,0,0,0,0,-1,1798,806,0,0
581,218,0,0,0,0,0,0,0,0,0,-1,1805,806,0,0
588,218,0,0,0,0,0,0,0,0,0,-1,1812,806,0,0
595,218,49.812,2.72876,0.00455155,0.00127481,-0.000106803,0.00455503,0.00127133,-0.0325482,0.00271405,0.0364137,1819,806,49.812,-2.72876
602,218,49.7845,2.66644,0.00588546,0.00405485,-0.000715961,0.00613221,0.0038081,-0.3319,0.00357482,0.0314583,1826,806,49.7846,-2.66647
609,218,49.751,2.77136,0.00570262,0.0056307,-0.00109929,0.00676654,0.00456678,-0.769047,0.00398554,0.0293276,1833,806,49.751,-2.77137
616,218,49.6785,2.82758,0.00435919,0.00591315,-0.00132294,0.0066704,0.00360194,-1.05092,0.00385526,0.0333585,1840,806,49.6784,-2.82755
623,218,49.7338,2.78754,0.00241668,0.00535378,-0.0016217,0.00607305,0.00169741,-1.15334,0.00361815,0.0384182,1847,806,49.7337,-2.78752
630,218,49.9503,2.71582,0.000686619,0.00471763,-0.00173088,0.00535885,4.5398e-05,-1.21601,0.00355753,0.0421206,1854,806,49.9503,-2.71581
637,218,50.1974,2.58502,0,0,0,0,0,0,0,-1,1861,806,50.1974,-2.585
644,218,48.4269,3.07513,0,0,0,0,0,0,0,-1,1868,806,48.4269,-3.07511
651,218,41.7338,1.99164,0,0,0,0,0,0,0,-1,1875,806,41.7338,-1.99162
658,218,28.41,0.514954,0,0,0,0,0,0,0,-1,1882,806,28.41,-0.514983
665,218,37.0885,-0.485474,0,0,0,0,0,0,0,-1,1889,806,37.0885,0.485452
672,218,36.8875,0.146179,-0.00403577,0.000900827,-0.0022397,0.00176551,-0.00490045,-1.20236,0.00398794,0.023397,1896,806,36.8875,-0.146172
679,218,36.7455,0.641968,-0.00428181,0.000412173,-0.00207773,0.00119972,-0.00506936,-1.20849,0.00384243,0.0195587,1903,806,36.7455,-0.641952
686,218,36.6636,1.15076,-0.00409388,0.000166107,-0.00205209,0.000993803,-0.00492157,-1.18741,0.0036576,0.0121255,1910,806,36.6636,-1.15076
693,218,36.632,1.72125,-0.00269097,0.000136625,-0.00175743,0.000978348,-0.00353269,-1.12413,0.0027401,0.0116109,1917,806,36.632,-1.72127
700,218,36.6024,2.289,-0.00129663,0.000524144,-0.00110337,0.00104422,-0.0018167,-1.13033,0.00167171,0.00923717,1924,806,36.6024,-2.28902
707,218,36.5737,2.8653,-0.000424015,0.00189032,-0.000673131,0.00207186,-0.000605556,-1.30737,0.00162124,0.0079442,1931,806,36.5738,-2.86531
714,218,36.5664,3.44629,0.000507241,0.00346208,-0.000130914,0.00346786,0.000501452,-1.52661,0.00216421,0.0104982,1938,806,36.5665,-3.44629
721,218,36.578,4.03186,0.00126065,0.00539335,0.000375317,0.00542716,0.00122684,1.48096,0.0032864,0.014556,1945,806,36.578,-4.03188
728,218,36.5959,4.64655,0.00160264,0.0078436,0.000678429,0.00791649,0.00152974,1.46376,0.00484886,0.0269065,1952,806,36.596,-4.64654
735,218,36.7705,5.31384,0.00154405,0.0113373,0.00102921,0.0114443,0.00143705,1.46721,0.00719846,0.0462679,1959,806,36.7705,-5.31384
742,218,37.4351,5.90143,0,0,0,0,0,0,0,-1,1966,806,37.435,-5.90141
749,218,37.2681,4.93146,0,0,0,0,0,0,0,-1,1973,806,37.2681,-4.93147
756,218,36.3894,6.14001,0,0,0,0,0,0,0,-1,1980,806,36.3894,-6.14
763,218,35.5266,6.25061,0,0,0,0,0,0,0,-1,1987,806,35.5266,-6.25058
770,218,0,0,0,0,0,0,0,0,0,-1,1994,806,0,0
777,218,0,0,0,0,0,0,0,0,0,-1,2001,806,0,0
784,218,0,0,0,0,0,0,0,0,0,-1,2008,806,0,0
791,218,0,0,0,0,0,0,0,0,0,-1,2015,806,0,0
798,218,0,0,0,0,0,0,0,0,0,-1,2022,806,0,0
805,218,0,0,0,0,0,0,0,0,0,-1,2029,806,0,0
812,218,0,0,0,0,0,0,0,0,0,-1,2036,806,0,0
-700,211,0,0,0,0,0,0,0,0,0,-1,524,813,0,0
-693,211,0,0,0,0,0,0,0,0,0,-1,531,813,0,0
-686,211,0,0,0,0,0,0,0,0,0,-1,538,813,0,0
-679,211,0,0,0,0,0,0,0,0,0,-1,545,813,0,0
-672,211,0,0,0,0,0,0,0,0,0,-1,552,813,0,0
-665,211,0,0,0,0,0,0,0,0,0,-1,559,813,0,0
-658,211,0,0,0,0,0,0,0,0,0,-1,566,813,0,0
-651,211,-27.4962,4.72015,0,0,0,0,0,0,0,-1,573,813,-27.4961,-4.72016
-644,211,-25.6163,4.17889,0,0,0,0,0,0,0,-1,580,813,-25.6163,-4.17889
-637,211,-29.3029,4.28766,0,0,0,0,0,0,0,-1,587,813,-29.3029,-4.28766
-630,211,-26.2802,6.70776,0,0,0,0,0,0,0,-1,594,813,-26.2802,-6.70775
-623,211,-26.2827,6.96381,0,0,0,0,0,0,0,-1,601,813,-26.2827,-6.96378
-616,211,-25.8627,3.87122,0,0,0,0,0,0,0,-1,608,813,-25.8627,-3.87119
-609,211,-25.8851,3.19189,0.019002,0.0280778,0.00897914,0.0336006,0.0134792,1.01937,0.0195252,0.0430465,615,813,-25.8851,-3.19186
-602,211,-25.9669,2.53406,0.011346,0.0176687,0.00317791,0.0189899,0.0100248,1.17679,0.0109695,0.0222903,622,813,-25.9668,-2.53403
-595,211,-26.0532,1.98602,0.00663125,0.0107366,-6.19485e-05,0.0107375,0.00663031,-1.55571,0.0062561,0.0113074,629,813,-26.0531,-1.98602
-588,211,-26.0704,1.44299,0.00391231,0.0060218,-0.00111295,0.0065004,0.00343371,-1.16467,0.003755,0.0110999,636,813,-26.0704,-1.44302
-581,211,-26.087,0.906494,0.00252542,0.00301668,-0.000764782,0.00357431,0.00196779,-0.940785,0.00206714,0.0119549,643,813,-26.087,-0.906492
-574,211,-26.1154,0.365173,0.00133424,0.00100142,0.000179323,0.00141247,0.000923186,0.411364,0.000828216,0.013274,650,813,-26.1154,-0.365188
-567,211,-26.1158,-0.198608,0.000353088,0.000217696,0.00107771,0.00136523,-0.000794445,0.754032,0.00126132,0.0195628,657,813,-26.1159,0.198601
-560,211,-26.1254,-0.736938,-0.000652972,0.000227625,0.00141288,0.00126722,-0.00169257,0.936445,0.00171471,0.0244484,664,813,-26.1253,0.736962
-553,211,-25.9637,-1.37646,-0.00174937,8.5387e-05,0.00131297,0.000769715,-0.0024337,1.09033,0.00193087,0.0392501,671,813,-25.9638,1.37648
-546,211,-26.3307,-1.78516,-0.00238473,0.000416271,0.00150485,0.00107149,-0.00303994,1.16015,0.00246275,0.0458459,678,813,-26.3307,1.78515
-539,211,-26.2729,-2.38074,-0.00208549,0.000742755,0.00144112,0.00134768,-0.00269042,1.17337,0.00237397,0.0293399,685,813,-26.2729,2.38072
-532,211,-26.2691,-2.79108,0,0,0,0,0,0,0,-1,692,813,-26.2691,2.79106
-525,211,-14.3009,2.3233,0,0,0,0,0,0,0,-1,699,813,-14.3009,-2.3233
-518,211,-34.952,1.93011,0,0,0,0,0,0,0,-1,706,813,-34.952,-1.9301
-511,211,-36.6396,1.89478,0,0,0,0,0,0,0,-1,713,813,-36.6397,-1.89478
-504,211,-37.1398,1.26886,0,0,0,0,0,0,0,-1,720,813,-37.1398,-1.26884
-497,211,-37.4067,0.953735,0,0,0,0,0,0,0,-1,727,813,-37.4067,-0.953753
-490,211,-37.3082,1.0874,0.00776165,0.00550664,0.000844128,0.00804262,0.00522566,0.321325,0.00471231,0.0350756,734,813,-37.3083,-1.08741
-483,211,-37.2736,1.04004,0.0109998,0.00675914,0.000848747,0.0111634,0.00659558,0.190376,0.00648054,0.0315006,741,813,-37.2736,-1.04004
-476,211,-37.186,0.90332,0.0140217,0.00854636,0.00132792,0.0143268,0.00824131,0.225809,0.00830273,0.0346943,748,813,-37.186,-0.90332
-469,211,0,0,0,0,0,0,0,0,0,-1,755,813,0,0
-462,211,0,0,0,0,0,0,0,0,0,-1,762,813,0,0
-455,211,0,0,0,0,0,0,0,0,0,-1,769,813,0,0
-448,211,0,0,0,0,0,0,0,0,0,-1,776,813,0,0
-441,211,0,0,0,0,0,0,0,0,0,-1,783,813,0,0
-434,211,0,0,0,0,0,0,0,0,0,-1,790,813,0,0
-427,211,0,0,0,0,0,0,0,0,0,-1,797,813,0,0
-420,211,0,0,0,0,0,0,0,0,0,-1,804,813,0,0
-413,211,0,0,0,0,0,0,0,0,0,-1,811,813,0,0
-406,211,0,0,0,0,0,0,0,0,0,-1,818,813,0,0
-399,211,0,0,0,0,0,0,0,0,0,-1,825,813,0,0
-392,211,0,0,0,0,0,0,0,0,0,-1,832,813,0,0
-385,211,0,0,0,0,0,0,0,0,0,-1,839,813,0,0
-378,211,0,0,0,0,0,0,0,0,0,-1,846,813,0,0
-371,211,0,0,0,0,0,0,0,0,0,-1,853,813,0,0
-364,211,0,0,0,0,0,0,0,0,0,-1,860,813,0,0
-357,211,0,0,0,0,0,0,0,0,0,-1,867,813,0,0
-350,211,0,0,0,0,0,0,0,0,0,-1,874,813,0,0
-343,211,0,0,0,0,0,0,0,0,0,-1,881,813,0,0
-336,211,0,0,0,0,0,0,0,0,0,-1,888,813,0,0
-329,211,0,0,0,0,0,0,0,0,0,-1,895,813,0,0
-322,211,0,0,0,0,0,0,0,0,0,-1,902,813,0,0
-315,211,0,0,0,0,0,0,0,0,0,-1,909,813,0,0
-308,211,0,0,0,0,0,0,0,0,0,-1,916,813,0,0
-301,211,0,0,0,0,0,0,0,0,0,-1,923,813,0,0
-294,211,0,0,0,0,0,0,0,0,0,-1,930,813,0,0
-287,211,0,0,0,0,0,0,0,0,0,-1,937,813,0,0
-280,211,0,0,0,0,0,0,0,0,0,-1,944,813,0,0
-273,211,0,0,0,0,0,0,0,0,0,-1,951,813,0,0
-266,211,0,0,0,0,0,0,0,0,0,-1,958,813,0,0
-259,211,0,0,0,0,0,0,0,0,0,-1,965,813,0,0
-252,211,0,0,0,0,0,0,0,0,0,-1,972,813,0,0
-245,211,0,0,0,0,0,0,0,0,0,-1,979,813,0,0
-238,211,0,0,0,0,0,0,0,0,0,-1,986,813,0,0
-231,211,0,0,0,0,0,0,0,0,0,-1,993,813,0,0
-224,211,0,0,0,0,0,0,0,0,0,-1,1000,813,0,0
-217,211,0,0,0,0,0,0,0,0,0,-1,1007,813,0,0
-210,211,0,0,0,0,0,0,0,0,0,-1,1014,813,0,0
-203,211,0,0,0,0,0,0,0,0,0,-1,1021,813,0,0
-196,211,0,0,0,0,0,0,0,0,0,-1,1028,813,0,0
-189,211,0,0,0,0,0,0,0,0,0,-1,1035,813,0,0
-182,211,0,0,0,0,0,0,0,0,0,-1,1042,813,0,0
-175,211,0,0,0,0,0,0,0,0,0,-1,1049,813,0,0
-168,211,0,0,0,0,0,0,0,0,0,-1,1056,813,0,0
-161,211,0,0,0,0,0,0,0,0,0,-1,1063,813,0,0
-154,211,0,0,0,0,0,0,0,0,0,-1,1070,813,0,0
-147,211,0,0,0,0,0,0,0,0,0,-1,1077,813,0,0
-140,211,0,0,0,0,0,0,0,0,0,-1,1084,813,0,0
-133,211,0,0,0,0,0,0,0,0,0,-1,1091,813,0,0
-126,211,0,0,0,0,0,0,0,0,0,-1,1098,813,0,0
-119,211,0,0,0,0,0,0,0,0,0,-1,1105,813,0,0
-112,211,0,0,0,0,0,0,0,0,0,-1,1112,813,0,0
-105,211,0,0,0,0,0,0,0,0,0,-1,1119,813,0,0
-98,211,0,0,0,0,0,0,0,0,0,-1,1126,813,0,0
-91,211,0,0,0,0,0,0,0,0,0,-1,1133,813,0,0
-84,211,0,0,0,0,0,0,0,0,0,-1,1140,813,0,0
-77,211,0,0,0,0,0,0,0,0,0,-1,1147,813,0,0
-70,211,0,0,0,0,0,0,0,0,0,-1,1154,813,0,0
-63,211,0,0,0,0,0,0,0,0,0,-1,1161,813,0,0
-56,211,0,0,0,0,0,0,0,0,0,-1,1168,813,0,0
-49,211,0,0,0,0,0,0,0,0,0,-1,1175,813,0,0
-42,211,0,0,0,0,0,0,0,0,0,-1,1182,813,0,0
-35,211,0,0,0,0,0,0,0,0,0,-1,1189,813,0,0
-28,211,0,0,0,0,0,0,0,0,0,-1,1196,813,0,0
-21,211,0,0,0,0,0,0,0,0,0,-1,1203,813,0,0
-14,211,0,0,0,0,0,0,0,0,0,-1,1210,813,0,0
-7,211,0,0,0,0,0,0,0,0,0,-1,1217,813,0,0
0,211,0,0,0,0,0,0,0,0,0,-1,1224,813,0,0
7,211,0,0,0,0,0,0,0,0,0,-1,1231,813,0,0
14,211,0,0,0,0,0,0,0,0,0,-1,1238,813,0,0
21,211,0,0,0,0,0,0,0,0,0,-1,1245,813,0,0
28,211,0,0,0,0,0,0,0,0,0,-1,1252,813,0,0
35,211,0,0,0,0,0,0,0,0,0,-1,1259,813,0,0
42,211,0,0,0,0,0,0,0,0,0,-1,1266,813,0,0
49,211,0,0,0,0,0,0,0,0,0,-1,1273,813,0,0
56,211,0,0,0,0,0,0,0,0,0,-1,1280,813,0,0
63,211,0,0,0,0,0,0,0,0,0,-1,1287,813,0,0
70,211,0,0,0,0,0,0,0,0,0,-1,1294,813,0,0
77,211,0,0,0,0,0,0,0,0,0,-1,1301,813,0,0
84,211,0,0,0,0,0,0,0,0,0,-1,1308,813,0,0
91,211,0,0,0,0,0,0,0,0,0,-1,1315,813,0,0
98,211,0,0,0,0,0,0,0,0,0,-1,1322,813,0,0
105,211,0,0,0,0,0,0,0,0,0,-1,1329,813,0,0
112,211,0,0,0,0,0,0,0,0,0,-1,1336,813,0,0
119,211,0,0,0,0,0,0,0,0,0,-1,1343,813,0,0
126,211,0,0,0,0,0,0,0,0,0,-1,1350,813,0,0
133,211,0,0,0,0,0,0,0,0,0,-1,1357,813,0,0
140,211,0,0,0,0,0,0,0,0,0,-1,1364,813,0,0
147,211,0,0,0,0,0,0,0,0,0,-1,1371,813,0,0
154,211,0,0,0,0,0,0,0,0,0,-1,1378,813,0,0
161,211,0,0,0,0,0,0,0,0,0,-1,1385,813,0,0
168,211,0,0,0,0,0,0,0,0,0,-1,1392,813,0,0
175,211,0,0,0,0,0,0,0,0,0,-1,1399,813,0,0
182,211,0,0,0,0,0,0,0,0,0,-1,1406,813,0,0
189,211,0,0,0,0,0,0,0,0,0,-1,1413,813,0,0
196,211,0,0,0,0,0,0,0,0,0,-1,1420,813,0,0
203,211,0,0,0,0,0,0,0,0,0,-1,1427,813,0,0
210,211,0,0,0,0,0,0,0,0,0,-1,1434,813,0,0
217,211,0,0,0,0,0,0,0,0,0,-1,1441,813,0,0
224,211,0,0,0,0,0,0,0,0,0,-1,1448,813,0,0
231,211,0,0,0,0,0,0,0,0,0,-1,1455,813,0,0
238,211,0,0,0,0,0,0,0,0,0,-1,1462,813,0,0
245,211,0,0,0,0,0,0,0,0,0,-1,1469,813,0,0
252,211,0,0,0,0,0,0,0,0,0,-1,1476,813,0,0
259,211,0,0,0,0,0,0,0,0,0,-1,1483,813,0,0
266,211,0,0,0,0,0,0,0,0,0,-1,1490,813,0,0
273,211,0,0,0,0,0,0,0,0,0,-1,1497,813,0,0
280,211,0,0,0,0,0,0,0,0,0,-1,1504,813,0,0
287,211,0,0,0,0,0,0,0,0,0,-1,1511,813,0,0
294,211,0,0,0,0,0,0,0,0,0,-1,1518,813,0,0
301,211,0,0,0,0,0,0,0,0,0,-1,1525,813,0,0
308,211,0,0,0,0,0,0,0,0,0,-1,1532,813,0,0
315,211,0,0,0,0,0,0,0,0,0,-1,1539,813,0,0
322,211,0,0,0,0,0,0,0,0,0,-1,1546,813,0,0
329,211,0,0,0,0,0,0,0,0,0,-1,1553,813,0,0
336,211,0,0,0,0,0,0,0,0,0,-1,1560,813,0,0
343,211,0,0,0,0,0,0,0,0,0,-1,1567,813,0,0
350,211,0,0,0,0,0,0,0,0,0,-1,1574,813,0,0
357,211,0,0,0,0,0,0,0,0,0,-1,1581,813,0,0
364,211,0,0,0,0,0,0,0,0,0,-1,1588,813,0,0
371,211,0,0,0,0,0,0,0,0,0,-1,1595,813,0,0
378,211,0,0,0,0,0,0,0,0,0,-1,1602,813,0,0
385,211,0,0,0,0,0,0,0,0,0,-1,1609,813,0,0
392,211,0,0,0,0,0,0,0,0,0,-1,1616,813,0,0
399,211,0,0,0,0,0,0,0,0,0,-1,1623,813,0,0
406,211,0,0,0,0,0,0,0,0,0,-1,1630,813,0,0
413,211,0,0,0,0,0,0,0,0,0,-1,1637,813,0,0
420,211,0,0,0,0,0,0,0,0,0,-1,1644,813,0,0
427,211,0,0,0,0,0,0,0,0,0,-1,1651,813,0,0
434,211,0,0,0,0,0,0,0,0,0,-1,1658,813,0,0
441,211,0,0,0,0,0,0,0,0,0,-1,1665,813,0,0
448,211,0,0,0,0,0,0,0,0,0,-1,1672,813,0,0
455,211,0,0,0,0,0,0,0,0,0,-1,1679,813,0,0
462,211,0,0,0,0,0,0,0,0,0,-1,1686,813,0,0
469,211,0,0,0,0,0,0,0,0,0,-1,1693,813,0,0
476,211,0,0,0,0,0,0,0,0,0,-1,1700,813,0,0
483,211,0,0,0,0,0,0,0,0,0,-1,1707,813,0,0
490,211,0,0,0,0,0,0,0,0,0,-1,1714,813,0,0
497,211,0,0,0,0,0,0,0,0,0,-1,1721,813,0,0
504,211,0,0,0,0,0,0,0,0,0,-1,1728,813,0,0
511,211,0,0,0,0,0,0,0,0,0,-1,1735,813,0,0
518,211,0,0,0,0,0,0,0,0,0,-1,1742,813,0,0
525,211,0,0,0,0,0,0,0,0,0,-1,1749,813,0,0
532,211,0,0,0,0,0,0,0,0,0,-1,1756,813,0,0
539,211,0,0,0,0,0,0,0,0,0,-1,1763,813,0,0
546,211,0,0,0,0,0,0,0,0,0,-1,1770,813,0,0
553,211,0,0,0,0,0,0,0,0,0,-1,1777,813,0,0
560,211,0,0,0,0,0,0,0,0,0,-1,1784,813,0,0
567,211,0,0,0,0,0,0,0,0,0,-1,1791,813,0,0
574,211,0,0,0,0,0,0,0,0,0,-1,1798,813,0,0
581,211,0,0,0,0,0,0,0,0,0,-1,1805,813,0,0
588,211,0,0,0,0,0,0,0,0,0,-1,1812,813,0,0
595,211,49.8525,2.59668,0.00358332,-0.000995259,5.63617e-05,0.00358401,-0.000995953,0.0123074,0.00278141,0.0389268,1819,813,49.8526,-2.59667
602,211,49.8069,2.71826,0.00363915,0.00140053,-0.000130325,0.00364671,0.00139296,-0.0579557,0.00212489,0.0342732,1826,813,49.8068,-2.71825
609,211,49.7747,2.81409,0.00304945,0.00328414,-0.00033904,0.00352557,0.00280802,-0.952002,0.00215146,0.0364729,1833,813,49.7746,-2.81408
616,211,49.6954,2.83966,0.00194605,0.00435455,-0.000560339,0.00447853,0.00182207,-1.35304,0.0026006,0.0322527,1840,813,49.6955,-2.83969
623,211,49.7222,2.81445,0.000391378,0.00441808,-0.000995918,0.00465094,0.000158524,-1.34111,0.00304916,0.0321641,1847,813,49.7221,-2.81444
630,211,49.7833,2.76941,-0.00101833,0.00419953,-0.00125446,0.00448546,-0.00130426,-1.3467,0.00350686,0.0381543,1854,813,49.7833,-2.76938
637,211,49.7695,2.93201,-0.00203602,0.00368018,-0.00148894,0.00404476,-0.0024006,-1.33066,0.00376137,0.0432007,1861,813,49.7695,-2.93198
644,211,48.9133,2.94745,-0.00289291,0.00309555,-0.00159059,0.0034918,-0.00328917,-1.32664,0.00391558,0.0491804,1868,813,48.9133,-2.94747
651,211,48.5043,2.95557,0,0,0,0,0,0,0,-1,1875,813,48.5043,-2.95558
658,211,27.7909,1.52234,0,0,0,0,0,0,0,-1,1882,813,27.7909,-1.52234
665,211,37.8842,-0.184204,0,0,0,0,0,0,0,-1,1889,813,37.8841,0.184195
672,211,37.6857,0.185791,-0.00423863,0.00104284,-0.00217753,0.00182484,-0.00502063,-1.22602,0.00409328,0.0414481,1896,813,37.6857,-0.185791
679,211,37.4282,0.645508,-0.00450248,0.000587934,-0.002049,0.00131022,-0.00522476,-1.23189,0.00399224,0.0247152,1903,813,37.4282,-0.64553
686,211,37.2294,1.18103,-0.00438722,0.000267913,-0.00209538,0.00107215,-0.00519145,-1.20432,0.0038682,0.0121895,1910,813,37.2294,-1.181
693,211,37.1957,1.72906,-0.00312398,-7.55939e-06,-0.00197178,0.00094738,-0.00407892,-1.11978,0.00308397,0.0114928,1917,813,37.1956,-1.72909
700,211,37.1342,2.27393,-0.00181139,0.000109375,-0.00142313,0.000865859,-0.00256788,-1.08222,0.00206205,0.0126344,1924,813,37.1341,-2.27396
707,211,37.1588,2.89587,-0.00101929,0.00124391,-0.00110265,0.0016923,-0.00146768,-1.18458,0.00182595,0.0194994,1931,813,37.1588,-2.89585
714,211,37.1578,3.48865,-0.000109759,0.00269318,-0.000622637,0.00282527,-0.000241845,-1.36176,0.00196909,0.0222535,1938,813,37.1579,-3.48866
721,211,37.1409,4.01355,0.00065541,0.0045484,-0.000145589,0.00455383,0.000649973,-1.53347,0.0028441,0.0177874,1945,813,37.1409,-4.01357
728,211,37.1401,4.59552,0.0010273,0.00687128,0.000152239,0.00687524,0.00102334,1.54477,0.00428333,0.0172772,1952,813,37.1402,-4.59554
735,211,37.2006,5.21173,0.0009784,0.0100827,0.000428333,0.0101028,0.000958292,1.52389,0.00643958,0.0286526,1959,813,37.2006,-5.21175
742,211,37.5681,5.77179,0,0,0,0,0,0,0,-1,1966,813,37.5681,-5.77181
749,211,37.8247,6.22522,0,0,0,0,0,0,0,-1,1973,813,37.8247,-6.22521
756,211,36.8253,6.28418,0,0,0,0,0,0,0,-1,1980,813,36.8254,-6.28418
763,211,37.4376,7.98285,0,0,0,0,0,0,0,-1,1987,813,37.4377,-7.98283
770,211,36.3982,6.86078,0,0,0,0,0,0,0,-1,1994,813,36.3981,-6.86079
777,211,0,0,0,0,0,0,0,0,0,-1,2001,813,0,0
784,211,0,0,0,0,0,0,0,0,0,-1,2008,813,0,0
791,211,0,0,0,0,0,0,0,0,0,-1,2015,813,0,0
798,211,0,0,0,0,0,0,0,0,0,-1,2022,813,0,0
805,211,0,0,0,0,0,0,0,0,0,-1,2029,813,0,0
812,211,0,0,0,0,0,0,0,0,0,-1,2036,813,0,0
-700,204,0,0,0,0,0,0,0,0,0,-1,524,820,0,0
-693,204,0,0,0,0,0,0,0,0,0,-1,531,820,0,0
-686,204,0,0,0,0,0,0,0,0,0,-1,538,820,0,0
-679,204,0,0,0,0,0,0,0,0,0,-1,545,820,0,0
-672,204,0,0,0,0,0,0,0,0,0,-1,552,820,0,0
-665,204,0,0,0,0,0,0,0,0,0,-1,559,820,0,0
-658,204,0,0,0,0,0,0,0,0,0,-1,566,820,0,0
-651,204,-29.7738,6.63892,0,0,0,0,0,0,0,-1,573,820,-29.7738,-6.63892
-644,204,-28.3356,5.77948,0,0,0,0,0,0,0,-1,580,820,-28.3356,-5.77951
-637,204,-26.352,7.71545,0,0,0,0,0,0,0,-1,587,820,-26.352,-7.71546
-630,204,-26.3576,4.56836,0,0,0,0,0,0,0,-1,594,820,-26.3576,-4.56833
-623,204,-27.0118,4.28339,0,0,0,0,0,0,0,-1,601,820,-27.0118,-4.28337
-616,204,-26.5255,3.76392,0,0,0,0,0,0,0,-1,608,820,-26.5254,-3.76393
-609,204,-26.5083,3.1449,0.0186734,0.0282874,0.00941258,0.0340494,0.0129114,1.02148,0.0198488,0.0372533,615,820,-26.5083,-3.14489
-602,204,-26.5579,2.53424,0.0112661,0.0179855,0.00396245,0.0198208,0.00943073,1.13703,0.011448,0.0174404,622,820,-26.5578,-2.53426
-595,204,-26.6074,1.98242,0.00655689,0.0108728,0.00076686,0.011005,0.00642468,1.40007,0.00638344,0.015138,629,820,-26.6074,-1.98245
-588,204,-26.626,1.43396,0.00384942,0.00587649,-0.000403446,0.00595383,0.00377207,-1.38138,0.00347808,0.0129598,636,820,-26.626,-1.43398
-581,204,-26.6312,0.883423,0.00248041,0.00262442,-0.000196422,0.00276162,0.00234321,-0.961082,0.00171867,0.0131826,643,820,-26.6313,-0.883448
-574,204,-26.6486,0.365845,0.00134243,0.000569641,0.000584386,0.00165661,0.000255459,0.493294,0.00102987,0.0142971,650,820,-26.6486,-0.365866
-567,204,-26.6425,-0.180298,0.000508614,9.44586e-08,0.00123749,0.0015177,-0.00100899,0.684077,0.00146861,0.0142887,657,820,-26.6425,0.180278
-560,204,-26.5856,-0.780762,-0.000376736,0.000280806,0.00127815,0.00127179,-0.00136772,0.911281,0.00152426,0.0188499,664,820,-26.5856,0.780792
-553,204,-26.738,-1.18616,-0.00138478,0.000160915,0.000915546,0.000586197,-0.00181007,1.13594,0.00144238,0.0217546,671,820,-26.738,1.18613
-546,204,-26.9047,-1.65924,-0.00189779,0.000552461,0.00099298,0.000904339,-0.00224967,1.23024,0.00187537,0.0250324,678,820,-26.9047,1.65925
-539,204,-26.7742,-2.28705,-0.0016147,0.000914697,0.00098132,0.00125076,-0.00195077,1.24085,0.00186307,0.0474674,685,820,-26.7742,2.28704
-532,204,-26.6377,-3.16681,0,0,0,0,0,0,0,-1,692,820,-26.6377,3.16683
-525,204,-25.7137,1.52496,0,0,0,0,0,0,0,-1,699,820,-25.7137,-1.52496
-518,204,-36.8046,1.66382,0,0,0,0,0,0,0,-1,706,820,-36.8046,-1.6638
-511,204,-36.8237,1.62372,0.000375258,0.00344646,0.000131366,0.00345207,0.000369649,1.52813,0.00218859,0.0476208,713,820,-36.8237,-1.62373
-504,204,-36.9961,1.40375,0.00190443,0.00413122,-5.11333e-05,0.00413239,0.00190326,-1.54785,0.00238831,0.0452063,720,820,-36.9961,-1.40376
-497,204,-37.177,1.25989,0,0,0,0,0,0,0,-1,727,820,-37.177,-1.25991
-490,204,-37.3236,1.0451,0.00712918,0.00624458,-0.000376837,0.00726795,0.00610582,-0.352825,0.00450813,0.0357877,734,820,-37.3236,-1.04512
-483,204,-37.342,0.823975,0.0109268,0.00722727,-0.000316338,0.0109536,0.00720041,-0.0846884,0.00642763,0.0382203,741,820,-37.342,-0.823948
-476,204,0,0,0,0,0,0,0,0,0,-1,748,820,0,0
-469,204,0,0,0,0,0,0,0,0,0,-1,755,820,0,0
-462,204,0,0,0,0,0,0,0,0,0,-1,762,820,0,0
-455,204,0,0,0,0,0,0,0,0,0,-1,769,820,0,0
-448,204,0,0,0,0,0,0,0,0,0,-1,776,820,0,0
-441,204,0,0,0,0,0,0,0,0,0,-1,783,820,0,0
-434,204,0,0,0,0,0,0,0,0,0,-1,790,820,0,0
-427,204,0,0,0,0,0,0,0,0,0,-1,797,820,0,0
-420,204,0,0,0,0,0,0,0,0,0,-1,804,820,0,0
-413,204,0,0,0,0,0,0,0,0,0,-1,811,820,0,0
-406,204,0,0,0,0,0,0,0,0,0,-1,818,820,0,0
-399,204,0,0,0,0,0,0,0,0,0,-1,825,820,0,0
-392,204,0,0,0,0,0,0,0,0,0,-1,832,820,0,0
-385,204,0,0,0,0,0,0,0,0,0,-1,839,820,0,0
-378,204,0,0,0,0,0,0,0,0,0,-1,846,820,0,0
-371,204,0,0,0,0,0,0,0,0,0,-1,853,820,0,0
-364,204,0,0,0,0,0,0,0,0,0,-1,860,820,0,0
-357,204,0,0,0,0,0,0,0,0,0,-1,867,820,0,0
-350,204,0,0,0,0,0,0,0,0,0,-1,874,820,0,0
-343,204,0,0,0,0,0,0,0,0,0,-1,881,820,0,0
-336,204,0,0,0,0,0,0,0,0,0,-1,888,820,0,0
-329,204,0,0,0,0,0,0,0,0,0,-1,895,820,0,0
-322,204,0,0,0,0,0,0,0,0,0,-1,902,820,0,0
-315,204,0,0,0,0,0,0,0,0,0,-1,909,820,0,0
-308,204,0,0,0,0,0,0,0,0,0,-1,916,820,0,0
-301,204,0,0,0,0,0,0,0,0,0,-1,923,820,0,0
-294,204,0,0,0,0,0,0,0,0,0,-1,930,820,0,0
-287,204,0,0,0,0,0,0,0,0,0,-1,937,820,0,0
-280,204,0,0,0,0,0,0,0,0,0,-1,944,820,0,0
-273,204,0,0,0,0,0,0,0,0,0,-1,951,820,0,0
-266,204,0,0,0,0,0,0,0,0,0,-1,958,820,0,0
-259,204,0,0,0,0,0,0,0,0,0,-1,965,820,0,0
-252,204,0,0,0,0,0,0,0,0,0,-1,972,820,0,0
-245,204,0,0,0,0,0,0,0,0,0,-1,979,820,0,0
-238,204,0,0,0,0,0,0,0,0,0,-1,986,820,0,0
-231,204,0,0,0,0,0,0,0,0,0,-1,993,820,0,0
-224,204,0,0,0,0,0,0,0,0,0,-1,1000,820,0,0
-217,204,0,0,0,0,0,0,0,0,0,-1,1007,820,0,0
-210,204,0,0,0,0,0,0,0,0,0,-1,1014,820,0,0
-203,204,0,0,0,0,0,0,0,0,0,-1,1021,820,0,0
-196,204,0,0,0,0,0,0,0,0,0,-1,1028,820,0,0
-189,204,0,0,0,0,0,0,0,0,0,-1,1035,820,0,0
-182,204,0,0,0,0,0,0,0,0,0,-1,1042,820,0,0
-175,204,0,0,0,0,0,0,0,0,0,-1,1049,820,0,0
-168,204,0,0,0,0,0,0,0,0,0,-1,1056,820,0,0
-161,204,0,0,0,0,0,0,0,0,0,-1,1063,820,0,0
-154,204,0,0,0,0,0,0,0,0,0,-1,1070,820,0,0
-147,204,0,0,0,0,0,0,0,0,0,-1,1077,820,0,0
-140,204,0,0,0,0,0,0,0,0,0,-1,1084,820,0,0
-133,204,0,0,0,0,0,0,0,0,0,-1,1091,820,0,0
-126,204,0,0,0,0,0,0,0,0,0,-1,1098,820,0,0
-119,204,0,0,0,0,0,0,0,0,0,-1,1105,820,0,0
-112,204,0,0,0,0,0,0,0,0,0,-1,1112,820,0,0
-105,204,0,0,0,0,0,0,0,0,0,-1,1119,820,0,0
-98,204,0,0,0,0,0,0,0,0,0,-1,1126,820,0,0
-91,204,0,0,0,0,0,0,0,0,0,-1,1133,820,0,0
-84,204,0,0,0,0,0,0,0,0,0,-1,1140,820,0,0
-77,204,0,0,0,0,0,0,0,0,0,-1,1147,820,0,0
-70,204,0,0,0,0,0,0,0,0,0,-1,1154,820,0,0
-63,204,0,0,0,0,0,0,0,0,0,-1,1161,820,0,0
-56,204,0,0,0,0,0,0,0,0,0,-1,1168,820,0,0
-49,204,0,0,0,0,0,0,0,0,0,-1,1175,820,0,0
-42,204,0,0,0,0,0,0,0,0,0,-1,1182,820,0,0
-35,204,0,0,0,0,0,0,0,0,0,-1,1189,820,0,0
-28,204,0,0,0,0,0,0,0,0,0,-1,1196,820,0,0
-21,204,0,0,0,0,0,0,0,0,0,-1,1203,820,0,0
-14,204,0,0,0,0,0,0,0,0,0,-1,1210,820,0,0
-7,204,0,0,0,0,0,0,0,0,0,-1,1217,820,0,0
0,204,0,0,0,0,0,0,0,0,0,-1,1224,820,0,0
7,204,0,0,0,0,0,0,0,0,0,-1,1231,820,0,0
14,204,0,0,0,0,0,0,0,0,0,-1,1238,820,0,0
21,204,0,0,0,0,0,0,0,0,0,-1,1245,820,0,0
28,204,0,0,0,0,0,0,0,0,0,-1,1252,820,0,0
35,204,0,0,0,0,0,0,0,0,0,-1,1259,820,0,0
42,204,0,0,0,0,0,0,0,0,0,-1,1266,820,0,0
49,204,0,0,0,0,0,0,0,0,0,-1,1273,820,0,0
56,204,0,0,0,0,0,0,0,0,0,-1,1280,820,0,0
63,204,0,0,0,0,0,0,0,0,0,-1,1287,820,0,0
70,204,0,0,0,0,0,0,0,0,0,-1,1294,820,0,0
77,204,0,0,0,0,0,0,0,0,0,-1,1301,820,0,0
84,204,0,0,0,0,0,0,0,0,0,-1,1308,820,0,0
91,204,0,0,0,0,0,0,0,0,0,-1,1315,820,0,0
98,204,0,0,0,0,0,0,0,0,0,-1,1322,820,0,0
105,204,0,0,0,0,0,0,0,0,0,-1,1329,820,0,0
112,204,0,0,0,0,0,0,0,0,0,-1,1336,820,0,0
119,204,0,0,0,0,0,0,0,0,0,-1,1343,820,0,0
126,204,0,0,0,0,0,0,0,0,0,-1,1350,820,0,0
133,204,0,0,0,0,0,0,0,0,0,-1,1357,820,0,0
140,204,0,0,0,0,0,0,0,0,0,-1,1364,820,0,0
147,204,0,0,0,0,0,0,0,0,0,-1,1371,820,0,0
154,204,0,0,0,0,0,0,0,0,0,-1,1378,820,0,0
161,204,0,0,0,0,0,0,0,0,0,-1,1385,820,0,0
168,204,0,0,0,0,0,0,0,0,0,-1,1392,820,0,0
175,204,0,0,0,0,0,0,0,0,0,-1,1399,820,0,0
182,204,0,0,0,0,0,0,0,0,0,-1,1406,820,0,0
189,204,0,0,0,0,0,0,0,0,0,-1,1413,820,0,0
196,204,0,0,0,0,0,0,0,0,0,-1,1420,820,0,0
203,204,0,0,0,0,0,0,0,0,0,-1,1427,820,0,0
210,204,0,0,0,0,0,0,0,0,0,-1,1434,820,0,0
217,204,0,0,0,0,0,0,0,0,0,-1,1441,820,0,0
224,204,0,0,0,0,0,0,0,0,0,-1,1448,820,0,0
231,204,0,0,0,0,0,0,0,0,0,-1,1455,820,0,0
238,204,0,0,0,0,0,0,0,0,0,-1,1462,820,0,0
245,204,0,0,0,0,0,0,0,0,0,-1,1469,820,0,0
252,204,0,0,0,0,0,0,0,0,0,-1,1476,820,0,0
259,204,0,0,0,0,0,0,0,0,0,-1,1483,820,0,0
266,204,0,0,0,0,0,0,0,0,0,-1,1490,820,0,0
273,204,0,0,0,0,0,0,0,0,0,-1,1497,820,0,0
280,204,0,0,0,0,0,0,0,0,0,-1,1504,820,0,0
287,204,0,0,0,0,0,0,0,0,0,-1,1511,820,0,0
294,204,0,0,0,0,0,0,0,0,0,-1,1518,820,0,0
301,204,0,0,0,0,0,0,0,0,0,-1,1525,820,0,0
308,204,0,0,0,0,0,0,0,0,0,-1,1532,820,0,0
315,204,0,0,0,0,0,0,0,0,0,-1,1539,820,0,0
322,204,0,0,0,0,0,0,0,0,0,-1,1546,820,0,0
329,204,0,0,0,0,0,0,0,0,0,-1,1553,820,0,0
336,204,0,0,0,0,0,0,0,0,0,-1,1560,820,0,0
343,204,0,0,0,0,0,0,0,0,0,-1,1567,820,0,0
350,204,0,0,0,0,0,0,0,0,0,-1,1574,820,0,0
357,204,0,0,0,0,0,0,0,0,0,-1,1581,820,0,0
364,204,0,0,0,0,0,0,0,0,0,-1,1588,820,0,0
371,204,0,0,0,0,0,0,0,0,0,-1,1595,820,0,0
378,204,0,0,0,0,0,0,0,0,0,-1,1602,820,0,0
385,204,0,0,0,0,0,0,0,0,0,-1,1609,820,0,0
392,204,0,0,0,0,0,0,0,0,0,-1,1616,820,0,0
399,204,0,0,0,0,0,0,0,0,0,-1,1623,820,0,0
406,204,0,0,0,0,0,0,0,0,0,-1,1630,820,0,0
413,204,0,0,0,0,0,0,0,0,0,-1,1637,820,0,0
420,204,0,0,0,0,0,0,0,0,0,-1,1644,820,0,0
427,204,0,0,0,0,0,0,0,0,0,-1,1651,820,0,0
434,204,0,0,0,0,0,0,0,0,0,-1,1658,820,0,0
441,204,0,0,0,0,0,0,0,0,0,-1,1665,820,0,0
448,204,0,0,0,0,0,0,0,0,0,-1,1672,820,0,0
455,204,0,0,0,0,0,0,0,0,0,-1,1679,820,0,0
462,204,0,0,0,0,0,0,0,0,0,-1,1686,820,0,0
469,204,0,0,0,0,0,0,0,0,0,-1,1693,820,0,0
476,204,0,0,0,0,0,0,0,0,0,-1,1700,820,0,0
483,204,0,0,0,0,0,0,0,0,0,-1,1707,820,0,0
490,204,0,0,0,0,0,0,0,0,0,-1,1714,820,0,0
497,204,0,0,0,0,0,0,0,0,0,-1,1721,820,0,0
504,204,0,0,0,0,0,0,0,0,0,-1,1728,820,0,0
511,204,0,0,0,0,0,0,0,0,0,-1,1735,820,0,0
518,204,0,0,0,0,0,0,0,0,0,-1,1742,820,0,0
525,204,0,0,0,0,0,0,0,0,0,-1,1749,820,0,0
532,204,0,0,0,0,0,0,0,0,0,-1,1756,820,0,0
539,204,0,0,0,0,0,0,0,0,0,-1,1763,820,0,0
546,204,0,0,0,0,0,0,0,0,0,-1,1770,820,0,0
553,204,0,0,0,0,0,0,0,0,0,-1,1777,820,0,0
560,204,0,0,0,0,0,0,0,0,0,-1,1784,820,0,0
567,204,0,0,0,0,0,0,0,0,0,-1,1791,820,0,0
574,204,0,0,0,0,0,0,0,0,0,-1,1798,820,0,0
581,204,0,0,0,0,0,0,0,0,0,-1,1805,820,0,0
588,204,0,0,0,0,0,0,0,0,0,-1,1812,820,0,0
595,204,0,0,0,0,0,0,0,0,0,-1,1819,820,0,0
602,204,49.8004,2.7807,0.00307357,-0.000522874,-0.000193501,0.00308395,-0.000533255,-0.0535972,0.00225484,0.0375447,1826,820,49.8004,-2.78071
609,204,49.7897,2.7821,0.00204782,0.00124531,-0.000228311,0.00210823,0.00118491,-0.258654,0.00122031,0.0412152,1833,820,49.7897,-2.78212
616,204,49.7621,2.79724,0.000920504,0.00276882,-0.000332172,0.0028267,0.000862621,-1.39827,0.00167279,0.0375118,1840,820,49.762,-2.79722
623,204,49.7552,2.78479,-0.00050576,0.0033872,-0.000747311,0.00352573,-0.000644288,-1.38751,0.00259208,0.0273392,1847,820,49.7553,-2.78481
630,204,49.7559,2.75977,-0.00183861,0.00358967,-0.00106224,0.00379013,-0.00203907,-1.38427,0.00341573,0.0276066,1854,820,49.7558,-2.75978
637,204,49.7894,2.73901,-0.00277252,0.00327844,-0.001367,0.00357293,-0.00306701,-1.35861,0.00383728,0.0348573,1861,820,49.7894,-2.739
644,204,49.675,2.82306,-0.00346499,0.00277878,-0.00153572,0.00313606,-0.00382227,-1.34221,0.0040239,0.04165,1868,820,49.675,-2.82307
651,204,49.6055,2.86572,0,0,0,0,0,0,0,-1,1875,820,49.6055,-2.86572
658,204,34.9631,1.64844,0,0,0,0,0,0,0,-1,1882,820,34.9631,-1.64842
665,204,21.8292,1.51099,0,0,0,0,0,0,0,-1,1889,820,21.8292,-1.51099
672,204,38.407,0.0742188,0,0,0,0,0,0,0,-1,1896,820,38.407,-0.0742486
679,204,37.8702,0.492615,-0.00448076,0.000545391,-0.00206028,0.00128198,-0.00521734,-1.22744,0.00397507,0.0383845,1903,820,37.8702,-0.492596
686,204,37.8036,1.18677,-0.00438015,0.000189633,-0.00211668,0.00101939,-0.00520991,-1.1972,0.00385822,0.0184637,1910,820,37.8036,-1.18679
693,204,37.7294,1.72815,-0.00329652,-0.000216865,-0.00212272,0.000865713,-0.0043791,-1.09918,0.00324667,0.0165244,1917,820,37.7293,-1.72817
700,204,37.7236,2.31641,-0.00216491,-0.000286994,-0.00170378,0.000719432,-0.00317133,-1.03724,0.0023904,0.0166828,1924,820,37.7236,-2.31639
707,204,37.7007,2.93005,-0.00152369,0.000621355,-0.00150433,0.00139635,-0.00229868,-1.09508,0.00215443,0.0151232,1931,820,37.7007,-2.93004
714,204,37.7102,3.5379,-0.00067578,0.00198956,-0.00107956,0.00237196,-0.00105818,-1.23037,0.00202823,0.024682,1938,820,37.7101,-3.53791
721,204,37.7014,4.03992,8.51025e-05,0.00380384,-0.000602946,0.00389916,-1.02145e-05,-1.41401,0.00260285,0.0222409,1945,820,37.7015,-4.03993
728,204,37.6589,4.58807,0.000548194,0.00610891,-0.000180795,0.00611479,0.000542322,-1.53833,0.00390831,0.0131061,1952,820,37.659,-4.58805
735,204,37.5912,5.17145,0.000620577,0.00914922,0.000175042,0.00915281,0.000616986,1.55028,0.00590696,0.0149028,1959,820,37.5912,-5.17145
742,204,37.7013,5.64221,0,0,0,0,0,0,0,-1,1966,820,37.7013,-5.64221
749,204,37.5303,6.30426,0,0,0,0,0,0,0,-1,1973,820,37.5303,-6.30424
756,204,37.4844,6.88165,0,0,0,0,0,0,0,-1,1980,820,37.4843,-6.88164
763,204,37.7672,7.61639,0,0,0,0,0,0,0,-1,1987,820,37.7672,-7.61641
770,204,37.7667,8.14209,0,0,0,0,0,0,0,-1,1994,820,37.7667,-8.14207
777,204,0,0,0,0,0,0,0,0,0,-1,2001,820,0,0
784,204,0,0,0,0,0,0,0,0,0,-1,2008,820,0,0
791,204,0,0,0,0,0,0,0,0,0,-1,2015,820,0,0
798,204,0,0,0,0,0,0,0,0,0,-1,2022,820,0,0
805,204,0,0,0,0,0,0,0,0,0,-1,2029,820,0,0
812,204,0,0,0,0,0,0,0,0,0,-1,2036,820,0,0
-700,197,0,0,0,0,0,0,0,0,0,-1,524,827,0,0
-693,197,0,0,0,0,0,0,0,0,0,-1,531,827,0,0
-686,197,0,0,0,0,0,0,0,0,0,-1,538,827,0,0
-679,197,0,0,0,0,0,0,0,0,0,-1,545,827,0,0
-672,197,0,0,0,0,0,0,0,0,0,-1,552,827,0,0
-665,197,0,0,0,0,0,0,0,0,0,-1,559,827,0,0
-658,197,-30.9475,5.40405,0,0,0,0,0,0,0,-1,566,827,-30.9475,-5.40403
-651,197,-29.9881,5.92792,0,0,0,0,0,0,0,-1,573,827,-29.9881,-5.92791
-644,197,-29.2618,6.60645,0,0,0,0,0,0,0,-1,580,827,-29.2618,-6.60645
-637,197,-27.4547,5.95972,0,0,0,0,0,0,0,-1,587,827,-27.4547,-5.95974
-630,197,-27.0933,4.53906,0,0,0,0,0,0,0,-1,594,827,-27.0933,-4.53909
-623,197,-27.2331,4.17621,0,0,0,0,0,0,0,-1,601,827,-27.2331,-4.17619
-616,197,-27.1581,3.63824,0.0268782,0.0402798,0.0162681,0.051173,0.0159849,0.98076,0.0302302,0.0495589,608,827,-27.1581,-3.63827
-609,197,-27.095,3.08887,0.0183796,0.0280913,0.00959485,0.0339891,0.0124819,1.01965,0.0198529,0.0336944,615,827,-27.095,-3.08887
-602,197,-27.1228,2.52759,0.0112051,0.0178961,0.00448747,0.0201479,0.00895328,1.10571,0.0116564,0.0182193,622,827,-27.1228,-2.52757
-595,197,-27.1641,2.02203,0.00657553,0.0107175,0.00145972,0.0111803,0.00611279,1.26381,0.00646433,0.0180751,629,827,-27.1641,-2.02201
-588,197,-27.173,1.46277,0.00394528,0.00561852,0.000322909,0.00567868,0.00388513,1.38662,0.0033519,0.0201808,636,827,-27.1731,-1.4628
-581,197,-27.1746,0.896729,0.00262604,0.0023325,0.000475824,0.00297722,0.00198132,0.635803,0.00175,0.0121113,643,827,-27.1745,-0.896758
-574,197,-27.1857,0.383118,0.00154676,0.000452494,0.00111389,0.00224064,-0.000241384,0.557111,0.00158038,0.0127303,650,827,-27.1857,-0.383103
-567,197,-27.1547,-0.152222,0.000809711,0.00011596,0.00147756,0.00198057,-0.0010549,0.670105,0.00177948,0.0152894,657,827,-27.1547,0.152229
-560,197,-27.1024,-0.696045,0,0,0,0,0,0,0,-1,664,827,-27.1024,0.69606
-553,197,-27.5303,-1.14655,0,0,0,0,0,0,0,-1,671,827,-27.5303,1.14656
-546,197,-27.4232,-1.6001,0,0,0,0,0,0,0,-1,678,827,-27.4231,1.6001
-539,197,-27.1883,-2.0943,0,0,0,0,0,0,0,-1,685,827,-27.1883,2.0943
-532,197,-16.0519,0.0410156,0,0,0,0,0,0,0,-1,692,827,-16.0519,-0.0410415
-525,197,-35.3785,2.11829,0,0,0,0,0,0,0,-1,699,827,-35.3785,-2.11826
-518,197,-37.0124,1.47058,0,0,0,0,0,0,0,-1,706,827,-37.0124,-1.47059
-511,197,-36.9974,1.40375,0.000187913,0.00340366,-0.000186729,0.00341446,0.000177106,-1.51299,0.00221963,0.0403098,713,827,-36.9973,-1.40376
-504,197,-37.0435,1.35645,0.00164703,0.00408706,-0.000432106,0.00416133,0.00157277,-1.4006,0.00242629,0.0378356,720,827,-37.0435,-1.35644
-497,197,-37.0116,0.94989,0,0,0,0,0,0,0,-1,727,827,-37.0116,-0.949881
-490,197,-37.3945,1.03766,0.00720547,0.00572287,-0.000523276,0.00737155,0.00555679,-0.307335,0.00443499,0.0404361,734,827,-37.3944,-1.03764
-483,197,-37.3693,0.823364,0.0120305,0.00570299,0.000212079,0.0120376,0.00569589,0.0334666,0.00695327,0.0419586,741,827,-37.3694,-0.823388
-476,197,0,0,0,0,0,0,0,0,0,-1,748,827,0,0
-469,197,0,0,0,0,0,0,0,0,0,-1,755,827,0,0
-462,197,0,0,0,0,0,0,0,0,0,-1,762,827,0,0
-455,197,0,0,0,0,0,0,0,0,0,-1,769,827,0,0
-448,197,0,0,0,0,0,0,0,0,0,-1,776,827,0,0
-441,197,0,0,0,0,0,0,0,0,0,-1,783,827,0,0
-434,197,0,0,0,0,0,0,0,0,0,-1,790,827,0,0
-427,197,0,0,0,0,0,0,0,0,0,-1,797,827,0,0
-420,197,0,0,0,0,0,0,0,0,0,-1,804,827,0,0
-413,197,0,0,0,0,0,0,0,0,0,-1,811,827,0,0
-406,197,0,0,0,0,0,0,0,0,0,-1,818,827,0,0
-399,197,0,0,0,0,0,0,0,0,0,-1,825,827,0,0
-392,197,0,0,0,0,0,0,0,0,0,-1,832,827,0,0
-385,197,0,0,0,0,0,0,0,0,0,-1,839,827,0,0
-378,197,0,0,0,0,0,0,0,0,0,-1,846,827,0,0
-371,197,0,0,0,0,0,0,0,0,0,-1,853,827,0,0
-364,197,0,0,0,0,0,0,0,0,0,-1,860,827,0,0
-357,197,0,0,0,0,0,0,0,0,0,-1,867,827,0,0
-350,197,0,0,0,0,0,0,0,0,0,-1,874,827,0,0
-343,197,0,0,0,0,0,0,0,0,0,-1,881,827,0,0
-336,197,0,0,0,0,0,0,0,0,0,-1,888,827,0,0
-329,197,0,0,0,0,0,0,0,0,0,-1,895,827,0,0
-322,197,0,0,0,0,0,0,0,0,0,-1,902,827,0,0
-315,197,0,0,0,0,0,0,0,0,0,-1,909,827,0,0
-308,197,0,0,0,0,0,0,0,0,0,-1,916,827,0,0
-301,197,0,0,0,0,0,0,0,0,0,-1,923,827,0,0
-294,197,0,0,0,0,0,0,0,0,0,-1,930,827,0,0
-287,197,0,0,0,0,0,0,0,0,0,-1,937,827,0,0
-280,197,0,0,0,0,0,0,0,0,0,-1,944,827,0,0
-273,197,0,0,0,0,0,0,0,0,0,-1,951,827,0,0
-266,197,0,0,0,0,0,0,0,0,0,-1,958,827,0,0
-259,197,0,0,0,0,0,0,0,0,0,-1,965,827,0,0
-252,197,0,0,0,0,0,0,0,0,0,-1,972,827,0,0
-245,197,0,0,0,0,0,0,0,0,0,-1,979,827,0,0
-238,197,0,0,0,0,0,0,0,0,0,-1,986,827,0,0
-231,197,0,0,0,0,0,0,0,0,0,-1,993,827,0,0
-224,197,0,0,0,0,0,0,0,0,0,-1,1000,827,0,0
-217,197,0,0,0,0,0,0,0,0,0,-1,1007,827,0,0
-210,197,0,0,0,0,0,0,0,0,0,-1,1014,827,0,0
-203,197,0,0,0,0,0,0,0,0,0,-1,1021,827,0,0
-196,197,0,0,0,0,0,0,0,0,0,-1,1028,827,0,0
-189,197,0,0,0,0,0,0,0,0,0,-1,1035,827,0,0
-182,197,0,0,0,0,0,0,0,0,0,-1,1042,827,0,0
-175,197,0,0,0,0,0,0,0,0,0,-1,1049,827,0,0
-168,197,0,0,0,0,0,0,0,0,0,-1,1056,827,0,0
-161,197,0,0,0,0,0,0,0,0,0,-1,1063,827,0,0
-154,197,0,0,0,0,0,0,0,0,0,-1,1070,827,0,0
-147,197,0,0,0,0,0,0,0,0,0,-1,1077,827,0,0
-140,197,0,0,0,0,0,0,0,0,0,-1,1084,827,0,0
-133,197,0,0,0,0,0,0,0,0,0,-1,1091,827,0,0
-126,197,0,0,0,0,0,0,0,0,0,-1,1098,827,0,0
-119,197,0,0,0,0,0,0,0,0,0,-1,1105,827,0,0
-112,197,0,0,0,0,0,0,0,0,0,-1,1112,827,0,0
-105,197,0,0,0,0,0,0,0,0,0,-1,1119,827,0,0
-98,197,0,0,0,0,0,0,0,0,0,-1,1126,827,0,0
-91,197,0,0,0,0,0,0,0,0,0,-1,1133,827,0,0
-84,197,0,0,0,0,0,0,0,0,0,-1,1140,827,0,0
-77,197,0,0,0,0,0,0,0,0,0,-1,1147,827,0,0
-70,197,0,0,0,0,0,0,0,0,0,-1,1154,827,0,0
-63,197,0,0,0,0,0,0,0,0,0,-1,1161,827,0,0
-56,197,0,0,0,0,0,0,0,0,0,-1,1168,827,0,0
-49,197,0,0,0,0,0,0,0,0,0,-1,1175,827,0,0
-42,197,0,0,0,0,0,0,0,0,0,-1,1182,827,0,0
-35,197,0,0,0,0,0,0,0,0,0,-1,1189,827,0,0
-28,197,0,0,0,0,0,0,0,0,0,-1,1196,827,0,0
-21,197,0,0,0,0,0,0,0,0,0,-1,1203,827,0,0
-14,197,0,0,0,0,0,0,0,0,0,-1,1210,827,0,0
-7,197,0,0,0,0,0,0,0,0,0,-1,1217,827,0,0
0,197,0,0,0,0,0,0,0,0,0,-1,1224,827,0,0
7,197,0,0,0,0,0,0,0,0,0,-1,1231,827,0,0
14,197,0,0,0,0,0,0,0,0,0,-1,1238,827,0,0
21,197,0,0,0,0,0,0,0,0,0,-1,1245,827,0,0
28,197,0,0,0,0,0,0,0,0,0,-1,1252,827,0,0
35,197,0,0,0,0,0,0,0,0,0,-1,1259,827,0,0
42,197,0,0,0,0,0,0,0,0,0,-1,1266,827,0,0
49,197,0,0,0,0,0,0,0,0,0,-1,1273,827,0,0
56,197,0,0,0,0,0,0,0,0,0,-1,1280,827,0,0
63,197,0,0,0,0,0,0,0,0,0,-1,1287,827,0,0
70,197,0,0,0,0,0,0,0,0,0,-1,1294,827,0,0
77,197,0,0,0,0,0,0,0,0,0,-1,1301,827,0,0
84,197,0,0,0,0,0,0,0,0,0,-1,1308,827,0,0
91,197,0,0,0,0,0,0,0,0,0,-1,1315,827,0,0
98,197,0,0,0,0,0,0,0,0,0,-1,1322,827,0,0
105,197,0,0,0,0,0,0,0,0,0,-1,1329,827,0,0
112,197,0,0,0,0,0,0,0,0,0,-1,1336,827,0,0
119,197,0,0,0,0,0,0,0,0,0,-1,1343,827,0,0
126,197,0,0,0,0,0,0,0,0,0,-1,1350,827,0,0
133,197,0,0,0,0,0,0,0,0,0,-1,1357,827,0,0
140,197,0,0,0,0,0,0,0,0,0,-1,1364,827,0,0
147,197,0,0,0,0,0,0,0,0,0,-1,1371,827,0,0
154,197,0,0,0,0,0,0,0,0,0,-1,1378,827,0,0
161,197,0,0,0,0,0,0,0,0,0,-1,1385,827,0,0
168,197,0,0,0,0,0,0,0,0,0,-1,1392,827,0,0
175,197,0,0,0,0,0,0,0,0,0,-1,1399,827,0,0
182,197,0,0,0,0,0,0,0,0,0,-1,1406,827,0,0
189,197,0,0,0,0,0,0,0,0,0,-1,1413,827,0,0
196,197,0,0,0,0,0,0,0,0,0,-1,1420,827,0,0
203,197,0,0,0,0,0,0,0,0,0,-1,1427,827,0,0
210,197,0,0,0,0,0,0,0,0,0,-1,1434,827,0,0
217,197,0,0,0,0,0,0,0,0,0,-1,1441,827,0,0
224,197,0,0,0,0,0,0,0,0,0,-1,1448,827,0,0
231,197,0,0,0,0,0,0,0,0,0,-1,1455,827,0,0
238,197,0,0,0,0,0,0,0,0,0,-1,1462,827,0,0
245,197,0,0,0,0,0,0,0,0,0,-1,1469,827,0,0
252,197,0,0,0,0,0,0,0,0,0,-1,1476,827,0,0
259,197,0,0,0,0,0,0,0,0,0,-1,1483,827,0,0
266,197,0,0,0,0,0,0,0,0,0,-1,1490,827,0,0
273,197,0,0,0,0,0,0,0,0,0,-1,1497,827,0,0
280,197,0,0,0,0,0,0,0,0,0,-1,1504,827,0,0
287,197,0,0,0,0,0,0,0,0,0,-1,1511,827,0,0
294,197,0,0,0,0,0,0,0,0,0,-1,1518,827,0,0
301,197,0,0,0,0,0,0,0,0,0,-1,1525,827,0,0
308,197,0,0,0,0,0,0,0,0,0,-1,1532,827,0,0
315,197,0,0,0,0,0,0,0,0,0,-1,1539,827,0,0
322,197,0,0,0,0,0,0,0,0,0,-1,1546,827,0,0
329,197,0,0,0,0,0,0,0,0,0,-1,1553,827,0,0
336,197,0,0,0,0,0,0,0,0,0,-1,1560,827,0,0
343,197,0,0,0,0,0,0,0,0,0,-1,1567,827,0,0
350,197,0,0,0,0,0,0,0,0,0,-1,1574,827,0,0
357,197,0,0,0,0,0,0,0,0,0,-1,1581,827,0,0
364,197,0,0,0,0,0,0,0,0,0,-1,1588,827,0,0
371,197,0,0,0,0,0,0,0,0,0,-1,1595,827,0,0
378,197,0,0,0,0,0,0,0,0,0,-1,1602,827,0,0
385,197,0,0,0,0,0,0,0,0,0,-1,1609,827,0,0
392,197,0,0,0,0,0,0,0,0,0,-1,1616,827,0,0
399,197,0,0,0,0,0,0,0,0,0,-1,1623,827,0,0
406,197,0,0,0,0,0,0,0,0,0,-1,1630,827,0,0
413,197,0,0,0,0,0,0,0,0,0,-1,1637,827,0,0
420,197,0,0,0,0,0,0,0,0,0,-1,1644,827,0,0
427,197,0,0,0,0,0,0,0,0,0,-1,1651,827,0,0
434,197,0,0,0,0,0,0,0,0,0,-1,1658,827,0,0
441,197,0,0,0,0,0,0,0,0,0,-1,1665,827,0,0
448,197,0,0,0,0,0,0,0,0,0,-1,1672,827,0,0
455,197,0,0,0,0,0,0,0,0,0,-1,1679,827,0,0
462,197,0,0,0,0,0,0,0,0,0,-1,1686,827,0,0
469,197,0,0,0,0,0,0,0,0,0,-1,1693,827,0,0
476,197,0,0,0,0,0,0,0,0,0,-1,1700,827,0,0
483,197,0,0,0,0,0,0,0,0,0,-1,1707,827,0,0
490,197,0,0,0,0,0,0,0,0,0,-1,1714,827,0,0
497,197,0,0,0,0,0,0,0,0,0,-1,1721,827,0,0
504,197,0,0,0,0,0,0,0,0,0,-1,1728,827,0,0
511,197,0,0,0,0,0,0,0,0,0,-1,1735,827,0,0
518,197,0,0,0,0,0,0,0,0,0,-1,1742,827,0,0
525,197,0,0,0,0,0,0,0,0,0,-1,1749,827,0,0
532,197,0,0,0,0,0,0,0,0,0,-1,1756,827,0,0
539,197,0,0,0,0,0,0,0,0,0,-1,1763,827,0,0
546,197,0,0,0,0,0,0,0,0,0,-1,1770,827,0,0
553,197,0,0,0,0,0,0,0,0,0,-1,1777,827,0,0
560,197,0,0,0,0,0,0,0,0,0,-1,1784,827,0,0
567,197,0,0,0,0,0,0,0,0,0,-1,1791,827,0,0
574,197,0,0,0,0,0,0,0,0,0,-1,1798,827,0,0
581,197,0,0,0,0,0,0,0,0,0,-1,1805,827,0,0
588,197,0,0,0,0,0,0,0,0,0,-1,1812,827,0,0
595,197,0,0,0,0,0,0,0,0,0,-1,1819,827,0,0
602,197,49.7122,2.74731,0.00247584,-0.00164622,-0.000343024,0.00250419,-0.00167457,-0.0824607,0.00242841,0.0383477,1826,827,49.7122,-2.74734
609,197,49.7854,2.67938,0.00132036,2.04468e-05,-0.000388025,0.00142737,-8.65694e-05,-0.269107,0.000981711,0.0402987,1833,827,49.7854,-2.67935
616,197,49.7792,2.63922,0.000283774,0.00171365,-0.000417113,0.00182643,0.000170993,-1.30673,0.00116482,0.0399084,1840,827,49.7792,-2.6392
623,197,49.7744,2.651,-0.000966784,0.00269314,-0.000706381,0.00282474,-0.00109839,-1.3866,0.00233698,0.0337424,1847,827,49.7744,-2.651
630,197,49.7529,2.67523,-0.00223021,0.00319439,-0.00100867,0.00337587,-0.0024117,-1.39278,0.00335688,0.029287,1854,827,49.7529,-2.67525
637,197,49.7694,2.66827,-0.00312372,0.0030349,-0.00132917,0.00330952,-0.00339834,-1.36705,0.0038729,0.0277461,1861,827,49.7694,-2.66827
644,197,49.7939,2.6228,-0.00371849,0.00259049,-0.00151692,0.00293626,-0.00406426,-1.34668,0.00405921,0.034649,1868,827,49.794,-2.62278
651,197,49.8927,2.75739,0,0,0,0,0,0,0,-1,1875,827,49.8927,-2.75739
658,197,40.4694,3.05927,0,0,0,0,0,0,0,-1,1882,827,40.4694,-3.05926
665,197,14.0618,1.80304,0,0,0,0,0,0,0,-1,1889,827,14.0617,-1.80303
672,197,37.0833,-0.0733032,0,0,0,0,0,0,0,-1,1896,827,37.0833,0.0732821
679,197,38.2566,0.296265,0,0,0,0,0,0,0,-1,1903,827,38.2566,-0.296289
686,197,38.3772,1.24176,-0.00416713,4.84897e-05,-0.00202845,0.000865994,-0.00498464,-1.18769,0.0036462,0.031237,1910,827,38.3772,-1.24179
693,197,38.288,1.86603,-0.00325984,-0.000435772,-0.00210914,0.000690367,-0.00438598,-1.08037,0.00317919,0.0196948,1917,827,38.288,-1.86606
700,197,38.2633,2.3941,-0.00236843,-0.000622355,-0.00180946,0.000513672,-0.00350446,-1.01017,0.002525,0.0224282,1924,827,38.2633,-2.39409
707,197,38.2925,2.95447,-0.00194184,5.54575e-05,-0.00174006,0.00106308,-0.00294946,-1.04591,0.00240046,0.00935388,1931,827,38.2924,-2.95444
714,197,38.2682,3.50775,-0.00121912,0.0012922,-0.00143235,0.00194136,-0.00186827,-1.14528,0.00219963,0.0122314,1938,827,38.2682,-3.50778
721,197,38.2587,4.04724,-0.000493677,0.00300577,-0.00102712,0.00328497,-0.000772873,-1.30539,0.00248795,0.0134218,1945,827,38.2586,-4.04724
728,197,38.2249,4.61115,3.14313e-05,0.0052181,-0.000610638,0.00528903,-3.94909e-05,-1.45517,0.00353925,0.0110993,1952,827,38.2249,-4.61115
735,197,38.1813,5.18146,0.000208186,0.00803935,-0.000307124,0.00805138,0.000196159,-1.53166,0.00530341,0.0109695,1959,827,38.1813,-5.18147
742,197,38.1517,5.77399,4.9569e-05,0.0116775,-0.000152248,0.0116795,4.75757e-05,-1.55771,0.00777052,0.0192495,1966,827,38.1517,-5.77398
749,197,38.1591,6.35254,-0.000483562,0.0166079,-1.65077e-05,0.016608,-0.000483577,-1.56983,0.0112366,0.0428536,1973,827,38.1591,-6.35252
756,197,38.0649,6.81854,-0.00120261,0.0232739,9.61354e-05,0.0232743,-0.00120298,1.56687,0.0159323,0.0480774,1980,827,38.0649,-6.81854
763,197,38.0927,7.27002,0,0,0,0,0,0,0,-1,1987,827,38.0926,-7.27003
770,197,38.1365,7.77692,0,0,0,0,0,0,0,-1,1994,827,38.1365,-7.77694
777,197,0,0,0,0,0,0,0,0,0,-1,2001,827,0,0
784,197,0,0,0,0,0,0,0,0,0,-1,2008,827,0,0
791,197,0,0,0,0,0,0,0,0,0,-1,2015,827,0,0
798,197,0,0,0,0,0,0,0,0,0,-1,2022,827,0,0
805,197,0,0,0,0,0,0,0,0,0,-1,2029,827,0,0
812,197,0,0,0,0,0,0,0,0,0,-1,2036,827,0,0
-700,190,0,0,0,0,0,0,0,0,0,-1,524,834,0,0
-693,190,0,0,0,0,0,0,0,0,0,-1,531,834,0,0
-686,190,0,0,0,0,0,0,0,0,0,-1,538,834,0,0
-679,190,0,0,0,0,0,0,0,0,0,-1,545,834,0,0
-672,190,0,0,0,0,0,0,0,0,0,-1,552,834,0,0
-665,190,0,0,0,0,0,0,0,0,0,-1,559,834,0,0
-658,190,-31.2352,4.43243,0.111272,0.141788,0.100836,0.228514,0.0245463,0.860486,0.144855,0.0464229,566,834,-31.2352,-4.43245
-651,190,-30.3551,5.23077,0.0938626,0.123449,0.0815607,0.191547,0.0257644,0.875112,0.120035,0.0476559,573,834,-30.3551,-5.23078
-644,190,-29.8104,6.13745,0.0770328,0.105193,0.0639163,0.156562,0.0256642,0.893812,0.0969587,0.0489035,580,834,-29.8105,-6.13743
-637,190,-29.5972,7.34424,0,0,0,0,0,0,0,-1,587,834,-29.5971,-7.34426
-630,190,-29.4797,8.02679,0,0,0,0,0,0,0,-1,594,834,-29.4798,-8.02678
-623,190,-28.1605,4.0368,0,0,0,0,0,0,0,-1,601,834,-28.1605,-4.03678
-616,190,-27.885,3.55225,0.0259424,0.0395848,0.0155412,0.0497359,0.0157913,0.992196,0.0293456,0.0470276,608,834,-27.885,-3.55225
-609,190,-27.6082,3.05707,0.0177834,0.0275975,0.00938933,0.0332847,0.0120962,1.02619,0.0194545,0.0263118,615,834,-27.6082,-3.05708
-602,190,-27.6598,2.56244,0.0108725,0.0175317,0.00469938,0.0199615,0.00844272,1.09361,0.0115703,0.0170376,622,834,-27.6598,-2.56246
-595,190,-27.7131,2.03802,0.0063546,0.0103094,0.00193711,0.0111001,0.00556387,1.18324,0.00640864,0.0193326,629,834,-27.713,-2.03804
-588,190,-27.7229,1.49615,0.00382277,0.00517196,0.000922507,0.00564021,0.00335452,1.1011,0.00327581,0.01882,636,834,-27.7229,-1.49617
-581,190,-27.7238,0.930176,0.00259244,0.00198087,0.00107222,0.00340162,0.00117169,0.64649,0.00199536,0.0134227,643,834,-27.7237,-0.930206
-574,190,-27.7172,0.38269,0.00162855,0.000391976,0.00156053,0.00268882,-0.00066829,0.596784,0.00205191,0.01124,650,834,-27.7171,-0.382718
-567,190,-27.6432,-0.209656,0.00102839,0.00025778,0.00161859,0.0023069,-0.00102074,0.668548,0.00196847,0.0225786,657,834,-27.6433,0.209657
-560,190,-27.534,-0.843323,0,0,0,0,0,0,0,-1,664,834,-27.534,0.843352
-553,190,-27.9185,-1.35315,0,0,0,0,0,0,0,-1,671,834,-27.9185,1.35314
-546,190,-27.9538,-1.63849,0,0,0,0,0,0,0,-1,678,834,-27.9538,1.63846
-539,190,-16.4624,-0.542542,0,0,0,0,0,0,0,-1,685,834,-16.4624,0.542527
-532,190,-21.6292,2.06122,0,0,0,0,0,0,0,-1,692,834,-21.6292,-2.06123
-525,190,-37.2665,1.09381,0,0,0,0,0,0,0,-1,699,834,-37.2665,-1.09378
-518,190,-37.2131,1.12982,-0.000112814,0.0025119,-0.000273717,0.00254014,-0.000141055,-1.46799,0.00174235,0.0451797,706,834,-37.2131,-1.12983
-511,190,-37.158,1.1543,0.000245027,0.0031245,-0.000464382,0.00319754,0.000171987,-1.41479,0.00207674,0.0387539,713,834,-37.158,-1.15428
-504,190,-37.0334,1.32959,0.00180025,0.0035851,-0.000602324,0.00376934,0.00161601,-1.27395,0.00218359,0.0396439,720,834,-37.0335,-1.32961
-497,190,-37.0607,0.883545,0.00449902,0.00405013,-0.000448396,0.004776,0.00377314,-0.553356,0.00290794,0.0454325,727,834,-37.0607,-0.883548
-490,190,-36.6495,0.929443,0,0,0,0,0,0,0,-1,734,834,-36.6495,-0.929453
-483,190,0,0,0,0,0,0,0,0,0,-1,741,834,0,0
-476,190,0,0,0,0,0,0,0,0,0,-1,748,834,0,0
-469,190,0,0,0,0,0,0,0,0,0,-1,755,834,0,0
-462,190,0,0,0,0,0,0,0,0,0,-1,762,834,0,0
-455,190,0,0,0,0,0,0,0,0,0,-1,769,834,0,0
-448,190,0,0,0,0,0,0,0,0,0,-1,776,834,0,0
-441,190,0,0,0,0,0,0,0,0,0,-1,783,834,0,0
-434,190,0,0,0,0,0,0,0,0,0,-1,790,834,0,0
-427,190,0,0,0,0,0,0,0,0,0,-1,797,834,0,0
-420,190,0,0,0,0,0,0,0,0,0,-1,804,834,0,0
-413,190,0,0,0,0,0,0,0,0,0,-1,811,834,0,0
-406,190,0,0,0,0,0,0,0,0,0,-1,818,834,0,0
-399,190,0,0,0,0,0,0,0,0,0,-1,825,834,0,0
-392,190,0,0,0,0,0,0,0,0,0,-1,832,834,0,0
-385,190,0,0,0,0,0,0,0,0,0,-1,839,834,0,0
-378,190,0,0,0,0,0,0,0,0,0,-1,846,834,0,0
-371,190,0,0,0,0,0,0,0,0,0,-1,853,834,0,0
-364,190,0,0,0,0,0,0,0,0,0,-1,860,834,0,0
-357,190,0,0,0,0,0,0,0,0,0,-1,867,834,0,0
-350,190,0,0,0,0,0,0,0,0,0,-1,874,834,0,0
-343,190,0,0,0,0,0,0,0,0,0,-1,881,834,0,0
-336,190,0,0,0,0,0,0,0,0,0,-1,888,834,0,0
-329,190,0,0,0,0,0,0,0,0,0,-1,895,834,0,0
-322,190,0,0,0,0,0,0,0,0,0,-1,902,834,0,0
-315,190,0,0,0,0,0,0,0,0,0,-1,909,834,0,0
-308,190,0,0,0,0,0,0,0,0,0,-1,916,834,0,0
-301,190,0,0,0,0,0,0,0,0,0,-1,923,834,0,0
-294,190,0,0,0,0,0,0,0,0,0,-1,930,834,0,0
-287,190,0,0,0,0,0,0,0,0,0,-1,937,834,0,0
-280,190,0,0,0,0,0,0,0,0,0,-1,944,834,0,0
-273,190,0,0,0,0,0,0,0,0,0,-1,951,834,0,0
-266,190,0,0,0,0,0,0,0,0,0,-1,958,834,0,0
-259,190,0,0,0,0,0,0,0,0,0,-1,965,834,0,0
-252,190,0,0,0,0,0,0,0,0,0,-1,972,834,0,0
-245,190,0,0,0,0,0,0,0,0,0,-1,979,834,0,0
-238,190,0,0,0,0,0,0,0,0,0,-1,986,834,0,0
-231,190,0,0,0,0,0,0,0,0,0,-1,993,834,0,0
-224,190,0,0,0,0,0,0,0,0,0,-1,1000,834,0,0
-217,190,0,0,0,0,0,0,0,0,0,-1,1007,834,0,0
-210,190,0,0,0,0,0,0,0,0,0,-1,1014,834,0,0
-203,190,0,0,0,0,0,0,0,0,0,-1,1021,834,0,0
-196,190,0,0,0,0,0,0,0,0,0,-1,1028,834,0,0
-189,190,0,0,0,0,0,0,0,0,0,-1,1035,834,0,0
-182,190,0,0,0,0,0,0,0,0,0,-1,1042,834,0,0
-175,190,0,0,0,0,0,0,0,0,0,-1,1049,834,0,0
-168,190,0,0,0,0,0,0,0,0,0,-1,1056,834,0,0
-161,190,0,0,0,0,0,0,0,0,0,-1,1063,834,0,0
-154,190,0,0,0,0,0,0,0,0,0,-1,1070,834,0,0
-147,190,0,0,0,0,0,0,0,0,0,-1,1077,834,0,0
-140,190,0,0,0,0,0,0,0,0,0,-1,1084,834,0,0
-133,190,0,0,0,0,0,0,0,0,0,-1,1091,834,0,0
-126,190,0,0,0,0,0,0,0,0,0,-1,1098,834,0,0
-119,190,0,0,0,0,0,0,0,0,0,-1,1105,834,0,0
-112,190,0,0,0,0,0,0,0,0,0,-1,1112,834,0,0
-105,190,0,0,0,0,0,0,0,0,0,-1,1119,834,0,0
-98,190,0,0,0,0,0,0,0,0,0,-1,1126,834,0,0
-91,190,0,0,0,0,0,0,0,0,0,-1,1133,834,0,0
-84,190,0,0,0,0,0,0,0,0,0,-1,1140,834,0,0
-77,190,0,0,0,0,0,0,0,0,0,-1,1147,834,0,0
-70,190,0,0,0,0,0,0,0,0,0,-1,1154,834,0,0
-63,190,0,0,0,0,0,0,0,0,0,-1,1161,834,0,0
-56,190,0,0,0,0,0,0,0,0,0,-1,1168,834,0,0
-49,190,0,0,0,0,0,0,0,0,0,-1,1175,834,0,0
-42,190,0,0,0,0,0,0,0,0,0,-1,1182,834,0,0
-35,190,0,0,0,0,0,0,0,0,0,-1,1189,834,0,0
-28,190,0,0,0,0,0,0,0,0,0,-1,1196,834,0,0
-21,190,0,0,0,0,0,0,0,0,0,-1,1203,834,0,0
-14,190,0,0,0,0,0,0,0,0,0,-1,1210,834,0,0
-7,190,0,0,0,0,0,0,0,0,0,-1,1217,834,0,0
0,190,0,0,0,0,0,0,0,0,0,-1,1224,834,0,0
7,190,0,0,0,0,0,0,0,0,0,-1,1231,834,0,0
14,190,0,0,0,0,0,0,0,0,0,-1,1238,834,0,0
21,190,0,0,0,0,0,0,0,0,0,-1,1245,834,0,0
28,190,0,0,0,0,0,0,0,0,0,-1,1252,834,0,0
35,190,0,0,0,0,0,0,0,0,0,-1,1259,834,0,0
42,190,0,0,0,0,0,0,0,0,0,-1,1266,834,0,0
49,190,0,0,0,0,0,0,0,0,0,-1,1273,834,0,0
56,190,0,0,0,0,0,0,0,0,0,-1,1280,834,0,0
63,190,0,0,0,0,0,0,0,0,0,-1,1287,834,0,0
70,190,0,0,0,0,0,0,0,0,0,-1,1294,834,0,0
77,190,0,0,0,0,0,0,0,0,0,-1,1301,834,0,0
84,190,0,0,0,0,0,0,0,0,0,-1,1308,834,0,0
91,190,0,0,0,0,0,0,0,0,0,-1,1315,834,0,0
98,190,0,0,0,0,0,0,0,0,0,-1,1322,834,0,0
105,190,0,0,0,0,0,0,0,0,0,-1,1329,834,0,0
112,190,0,0,0,0,0,0,0,0,0,-1,1336,834,0,0
119,190,0,0,0,0,0,0,0,0,0,-1,1343,834,0,0
126,190,0,0,0,0,0,0,0,0,0,-1,1350,834,0,0
133,190,0,0,0,0,0,0,0,0,0,-1,1357,834,0,0
140,190,0,0,0,0,0,0,0,0,0,-1,1364,834,0,0
147,190,0,0,0,0,0,0,0,0,0,-1,1371,834,0,0
154,190,0,0,0,0,0,0,0,0,0,-1,1378,834,0,0
161,190,0,0,0,0,0,0,0,0,0,-1,1385,834,0,0
168,190,0,0,0,0,0,0,0,0,0,-1,1392,834,0,0
175,190,0,0,0,0,0,0,0,0,0,-1,1399,834,0,0
182,190,0,0,0,0,0,0,0,0,0,-1,1406,834,0,0
189,190,0,0,0,0,0,0,0,0,0,-1,1413,834,0,0
196,190,0,0,0,0,0,0,0,0,0,-1,1420,834,0,0
203,190,0,0,0,0,0,0,0,0,0,-1,1427,834,0,0
210,190,0,0,0,0,0,0,0,0,0,-1,1434,834,0,0
217,190,0,0,0,0,0,0,0,0,0,-1,1441,834,0,0
224,190,0,0,0,0,0,0,0,0,0,-1,1448,834,0,0
231,190,0,0,0,0,0,0,0,0,0,-1,1455,834,0,0
238,190,0,0,0,0,0,0,0,0,0,-1,1462,834,0,0
245,190,0,0,0,0,0,0,0,0,0,-1,1469,834,0,0
252,190,0,0,0,0,0,0,0,0,0,-1,1476,834,0,0
259,190,0,0,0,0,0,0,0,0,0,-1,1483,834,0,0
266,190,0,0,0,0,0,0,0,0,0,-1,1490,834,0,0
273,190,0,0,0,0,0,0,0,0,0,-1,1497,834,0,0
280,190,0,0,0,0,0,0,0,0,0,-1,1504,834,0,0
287,190,0,0,0,0,0,0,0,0,0,-1,1511,834,0,0
294,190,0,0,0,0,0,0,0,0,0,-1,1518,834,0,0
301,190,0,0,0,0,0,0,0,0,0,-1,1525,834,0,0
308,190,0,0,0,0,0,0,0,0,0,-1,1532,834,0,0
315,190,0,0,0,0,0,0,0,0,0,-1,1539,834,0,0
322,190,0,0,0,0,0,0,0,0,0,-1,1546,834,0,0
329,190,0,0,0,0,0,0,0,0,0,-1,1553,834,0,0
336,190,0,0,0,0,0,0,0,0,0,-1,1560,834,0,0
343,190,0,0,0,0,0,0,0,0,0,-1,1567,834,0,0
350,190,0,0,0,0,0,0,0,0,0,-1,1574,834,0,0
357,190,0,0,0,0,0,0,0,0,0,-1,1581,834,0,0
364,190,0,0,0,0,0,0,0,0,0,-1,1588,834,0,0
371,190,0,0,0,0,0,0,0,0,0,-1,1595,834,0,0
378,190,0,0,0,0,0,0,0,0,0,-1,1602,834,0,0
385,190,0,0,0,0,0,0,0,0,0,-1,1609,834,0,0
392,190,0,0,0,0,0,0,0,0,0,-1,1616,834,0,0
399,190,0,0,0,0,0,0,0,0,0,-1,1623,834,0,0
406,190,0,0,0,0,0,0,0,0,0,-1,1630,834,0,0
413,190,0,0,0,0,0,0,0,0,0,-1,1637,834,0,0
420,190,0,0,0,0,0,0,0,0,0,-1,1644,834,0,0
427,190,0,0,0,0,0,0,0,0,0,-1,1651,834,0,0
434,190,0,0,0,0,0,0,0,0,0,-1,1658,834,0,0
441,190,0,0,0,0,0,0,0,0,0,-1,1665,834,0,0
448,190,0,0,0,0,0,0,0,0,0,-1,1672,834,0,0
455,190,0,0,0,0,0,0,0,0,0,-1,1679,834,0,0
462,190,0,0,0,0,0,0,0,0,0,-1,1686,834,0,0
469,190,0,0,0,0,0,0,0,0,0,-1,1693,834,0,0
476,190,0,0,0,0,0,0,0,0,0,-1,1700,834,0,0
483,190,0,0,0,0,0,0,0,0,0,-1,1707,834,0,0
490,190,0,0,0,0,0,0,0,0,0,-1,1714,834,0,0
497,190,0,0,0,0,0,0,0,0,0,-1,1721,834,0,0
504,190,0,0,0,0,0,0,0,0,0,-1,1728,834,0,0
511,190,0,0,0,0,0,0,0,0,0,-1,1735,834,0,0
518,190,0,0,0,0,0,0,0,0,0,-1,1742,834,0,0
525,190,0,0,0,0,0,0,0,0,0,-1,1749,834,0,0
532,190,0,0,0,0,0,0,0,0,0,-1,1756,834,0,0
539,190,0,0,0,0,0,0,0,0,0,-1,1763,834,0,0
546,190,0,0,0,0,0,0,0,0,0,-1,1770,834,0,0
553,190,0,0,0,0,0,0,0,0,0,-1,1777,834,0,0
560,190,0,0,0,0,0,0,0,0,0,-1,1784,834,0,0
567,190,0,0,0,0,0,0,0,0,0,-1,1791,834,0,0
574,190,0,0,0,0,0,0,0,0,0,-1,1798,834,0,0
581,190,0,0,0,0,0,0,0,0,0,-1,1805,834,0,0
588,190,0,0,0,0,0,0,0,0,0,-1,1812,834,0,0
595,190,0,0,0,0,0,0,0,0,0,-1,1819,834,0,0
602,190,49.696,2.59552,0.00308261,-0.0016941,-0.000958394,0.00326773,-0.00187922,-0.190804,0.00300742,0.0397105,1826,834,49.696,-2.59551
609,190,49.7218,2.55731,0.00181553,-0.000355837,-0.00103835,0.00223214,-0.000772447,-0.381559,0.00180164,0.0390421,1833,834,49.7218,-2.55734
616,190,49.7383,2.71326,0.000713364,0.00109576,-0.000985445,0.00190838,-9.92605e-05,-0.881218,0.0013066,0.0410532,1840,834,49.7383,-2.71327
623,190,49.8174,2.77606,-0.000564824,0.00212775,-0.00102086,0.00247103,-0.000908106,-1.24641,0.00201931,0.0387516,1847,834,49.8173,-2.77608
630,190,49.7963,2.61932,-0.00191694,0.00276274,-0.00117281,0.00304022,-0.00219442,-1.33848,0.00303534,0.0386299,1854,834,49.7962,-2.61931
637,190,49.7599,2.65802,-0.00292888,0.00274199,-0.0014083,0.00307246,-0.00325935,-1.3403,0.00365621,0.0320703,1861,834,49.7599,-2.65801
644,190,49.7502,2.70148,-0.00357205,0.0023572,-0.00155139,0.00273859,-0.00395344,-1.32974,0.00388481,0.0273352,1868,834,49.7503,-2.7015
651,190,49.7986,2.81,-0.00383342,0.0018243,-0.0016338,0.0022622,-0.00427133,-1.30892,0.00383112,0.0444791,1875,834,49.7986,-2.80998
658,190,49.8358,2.93671,0,0,0,0,0,0,0,-1,1882,834,49.8359,-2.9367
665,190,25.9916,3.05157,0,0,0,0,0,0,0,-1,1889,834,25.9916,-3.05156
672,190,27.2662,1.70862,0,0,0,0,0,0,0,-1,1896,834,27.2662,-1.70861
679,190,39.0159,0.872437,0,0,0,0,0,0,0,-1,1903,834,39.0159,-0.872428
686,190,38.9106,1.3479,-0.00402872,9.6127e-05,-0.00183432,0.000793835,-0.00472643,-1.20733,0.00344618,0.0260423,1910,834,38.9107,-1.34789
693,190,38.9397,1.87982,-0.00327266,-0.0003655,-0.00193,0.000597076,-0.00423524,-1.10815,0.00304211,0.0205771,1917,834,38.9397,-1.87979
700,190,38.8363,2.41907,-0.00260415,-0.000578291,-0.00172236,0.000406912,-0.00358936,-1.05121,0.00253943,0.0141517,1924,834,38.8363,-2.41907
707,190,38.8544,2.98224,-0.0023681,-9.31097e-05,-0.00175541,0.000861135,-0.00332234,-1.07288,0.00255086,0.0132001,1931,834,38.8543,-2.98227
714,190,38.8529,3.51215,-0.00176386,0.00092254,-0.0016013,0.0016694,-0.00251072,-1.13438,0.00242963,0.0122479,1938,834,38.8529,-3.51215
721,190,38.8387,4.05603,-0.0010979,0.00238301,-0.00134492,0.0028421,-0.00155699,-1.24185,0.00257569,0.0119742,1945,834,38.8387,-4.05605
728,190,38.8115,4.60907,-0.0005469,0.00436561,-0.00100894,0.00456475,-0.000746047,-1.37592,0.00331991,0.0129013,1952,834,38.8115,-4.60909
735,190,38.7964,5.15771,-0.000272137,0.00687511,-0.00081151,0.0069661,-0.000363119,-1.45915,0.00476971,0.0115599,1959,834,38.7963,-5.15774
742,190,38.7379,5.77148,-0.000252802,0.0100634,-0.000725433,0.0101141,-0.000303565,-1.50093,0.00684618,0.0158167,1966,834,38.7379,-5.77147
749,190,38.6934,6.44257,-0.00046997,0.0142863,-0.000636651,0.0143137,-0.000497386,-1.52776,0.00971253,0.0384146,1973,834,38.6933,-6.44256
756,190,38.4349,6.35352,-0.000700575,0.020018,-0.000443803,0.0200275,-0.000710077,-1.54939,0.0135946,0.0441766,1980,834,38.4349,-6.35354
763,190,38.3411,6.77124,0,0,0,0,0,0,0,-1,1987,834,38.3411,-6.77122
770,190,39.8972,7.38257,0,0,0,0,0,0,0,-1,1994,834,39.8972,-7.38259
777,190,40.5735,6.99371,0,0,0,0,0,0,0,-1,2001,834,40.5735,-6.99373
784,190,0,0,0,0,0,0,0,0,0,-1,2008,834,0,0
791,190,0,0,0,0,0,0,0,0,0,-1,2015,834,0,0
798,190,0,0,0,0,0,0,0,0,0,-1,2022,834,0,0
805,190,0,0,0,0,0,0,0,0,0,-1,2029,834,0,0
812,190,0,0,0,0,0,0,0,0,0,-1,2036,834,0,0
-700,183,0,0,0,0,0,0,0,0,0,-1,524,841,0,0
-693,183,0,0,0,0,0,0,0,0,0,-1,531,841,0,0
-686,183,0,0,0,0,0,0,0,0,0,-1,538,841,0,0
-679,183,0,0,0,0,0,0,0,0,0,-1,545,841,0,0
-672,183,0,0,0,0,0,0,0,0,0,-1,552,841,0,0
-665,183,0,0,0,0,0,0,0,0,0,-1,559,841,0,0
-658,183,-31.3589,3.53003,0.103116,0.143448,0.0949576,0.220357,0.0262062,0.890028,0.138995,0.0494324,566,841,-31.3589,-3.53005
-651,183,-30.7267,4.59363,0.0876019,0.123634,0.0758379,0.183566,0.0276693,0.902015,0.114276,0.0473887,573,841,-30.7267,-4.59364
-644,183,-30.3493,5.66815,0.0720308,0.103905,0.0589476,0.149032,0.0269038,0.917421,0.0917114,0.0477551,580,841,-30.3493,-5.66812
-637,183,-29.6465,6.53534,0.0578044,0.085022,0.0442158,0.117676,0.0251505,0.934688,0.0715559,0.0499672,587,841,-29.6465,-6.53536
-630,183,-29.4997,7.2384,0.0452165,0.0677296,0.0320801,0.0904707,0.0224754,0.954132,0.0543925,0.0480616,594,841,-29.4997,-7.23841
-623,183,-28.3224,4.11273,0,0,0,0,0,0,0,-1,601,841,-28.3224,-4.11275
-616,183,-28.2571,3.58008,0.0241156,0.0379051,0.0145501,0.0471113,0.0149094,1.00666,0.0278038,0.0418107,608,841,-28.2571,-3.58009
-609,183,-28.196,3.06824,0.0163844,0.0262293,0.00899736,0.0315627,0.011051,1.0357,0.0184936,0.0185783,615,841,-28.196,-3.06824
-602,183,-28.2022,2.54626,0.00982333,0.0164117,0.00478133,0.0189238,0.00731123,1.08704,0.0110193,0.0127331,622,841,-28.2022,-2.54624
-595,183,-28.231,2.02411,0.00550474,0.00931871,0.00233794,0.0104288,0.00439467,1.12751,0.0060458,0.0125302,629,841,-28.231,-2.02413
-588,183,-28.236,1.48077,0.00316169,0.00439943,0.00146143,0.00536763,0.00219349,0.985684,0.0031162,0.0138735,636,841,-28.236,-1.4808
-581,183,-28.2731,0.943726,0.0021391,0.00158498,0.00158212,0.00346823,0.000255844,0.698718,0.00223177,0.0149294,643,841,-28.2731,-0.943753
-574,183,-28.2564,0.44281,0.00139993,0.000425218,0.00189728,0.00287145,-0.00104629,0.65968,0.0023423,0.0143328,650,841,-28.2564,-0.442832
-567,183,-28.0752,-0.115234,0.000948257,0.000412014,0.00174795,0.00244853,-0.00108826,0.709295,0.0020917,0.0469188,657,841,-28.0752,0.115262
-560,183,-28.0088,-0.707397,0,0,0,0,0,0,0,-1,664,841,-28.0088,0.707415
-553,183,-27.183,-1.10352,0,0,0,0,0,0,0,-1,671,841,-27.1831,1.10353
-546,183,-26.27,-1.5625,0,0,0,0,0,0,0,-1,678,841,-26.27,1.56248
-539,183,-16.8032,-0.417297,0,0,0,0,0,0,0,-1,685,841,-16.8032,0.41732
-532,183,-29.9686,0.953613,0,0,0,0,0,0,0,-1,692,841,-29.9686,-0.953627
-525,183,-37.0859,1.31323,0,0,0,0,0,0,0,-1,699,841,-37.0859,-1.31323
-518,183,-37.2976,0.996521,0,0,0,0,0,0,0,-1,706,841,-37.2976,-0.996509
-511,183,-37.4994,0.598511,0,0,0,0,0,0,0,-1,713,841,-37.4994,-0.598488
-504,183,-37.7003,0.25238,0,0,0,0,0,0,0,-1,720,841,-37.7003,-0.252409
-497,183,-37.2502,0.532471,0.00490587,0.00221963,0.000338191,0.00494779,0.00217771,0.123334,0.00286343,0.0435693,727,841,-37.2502,-0.532467
-490,183,-36.9966,0.708496,0.00918605,0.000350555,0.00221166,0.00970874,-0.000172137,0.232076,0.00653063,0.0428696,734,841,-36.9967,-0.708474
-483,183,0,0,0,0,0,0,0,0,0,-1,741,841,0,0
-476,183,0,0,0,0,0,0,0,0,0,-1,748,841,0,0
-469,183,0,0,0,0,0,0,0,0,0,-1,755,841,0,0
-462,183,0,0,0,0,0,0,0,0,0,-1,762,841,0,0
-455,183,0,0,0,0,0,0,0,0,0,-1,769,841,0,0
-448,183,0,0,0,0,0,0,0,0,0,-1,776,841,0,0
-441,183,0,0,0,0,0,0,0,0,0,-1,783,841,0,0
-434,183,0,0,0,0,0,0,0,0,0,-1,790,841,0,0
-427,183,0,0,0,0,0,0,0,0,0,-1,797,841,0,0
-420,183,0,0,0,0,0,0,0,0,0,-1,804,841,0,0
-413,183,0,0,0,0,0,0,0,0,0,-1,811,841,0,0
-406,183,0,0,0,0,0,0,0,0,0,-1,818,841,0,0
-399,183,0,0,0,0,0,0,0,0,0,-1,825,841,0,0
-392,183,0,0,0,0,0,0,0,0,0,-1,832,841,0,0
-385,183,0,0,0,0,0,0,0,0,0,-1,839,841,0,0
-378,183,0,0,0,0,0,0,0,0,0,-1,846,841,0,0
-371,183,0,0,0,0,0,0,0,0,0,-1,853,841,0,0
-364,183,0,0,0,0,0,0,0,0,0,-1,860,841,0,0
-357,183,0,0,0,0,0,0,0,0,0,-1,867,841,0,0
-350,183,0,0,0,0,0,0,0,0,0,-1,874,841,0,0
-343,183,0,0,0,0,0,0,0,0,0,-1,881,841,0,0
-336,183,0,0,0,0,0,0,0,0,0,-1,888,841,0,0
-329,183,0,0,0,0,0,0,0,0,0,-1,895,841,0,0
-322,183,0,0,0,0,0,0,0,0,0,-1,902,841,0,0
-315,183,0,0,0,0,0,0,0,0,0,-1,909,841,0,0
-308,183,0,0,0,0,0,0,0,0,0,-1,916,841,0,0
-301,183,0,0,0,0,0,0,0,0,0,-1,923,841,0,0
-294,183,0,0,0,0,0,0,0,0,0,-1,930,841,0,0
-287,183,0,0,0,0,0,0,0,0,0,-1,937,841,0,0
-280,183,0,0,0,0,0,0,0,0,0,-1,944,841,0,0
-273,183,0,0,0,0,0,0,0,0,0,-1,951,841,0,0
-266,183,0,0,0,0,0,0,0,0,0,-1,958,841,0,0
-259,183,0,0,0,0,0,0,0,0,0,-1,965,841,0,0
-252,183,0,0,0,0,0,0,0,0,0,-1,972,841,0,0
-245,183,0,0,0,0,0,0,0,0,0,-1,979,841,0,0
-238,183,0,0,0,0,0,0,0,0,0,-1,986,841,0,0
-231,183,0,0,0,0,0,0,0,0,0,-1,993,841,0,0
-224,183,0,0,0,0,0,0,0,0,0,-1,1000,841,0,0
-217,183,0,0,0,0,0,0,0,0,0,-1,1007,841,0,0
-210,183,0,0,0,0,0,0,0,0,0,-1,1014,841,0,0
-203,183,0,0,0,0,0,0,0,0,0,-1,1021,841,0,0
-196,183,0,0,0,0,0,0,0,0,0,-1,1028,841,0,0
-189,183,0,0,0,0,0,0,0,0,0,-1,1035,841,0,0
-182,183,0,0,0,0,0,0,0,0,0,-1,1042,841,0,0
-175,183,0,0,0,0,0,0,0,0,0,-1,1049,841,0,0
-168,183,0,0,0,0,0,0,0,0,0,-1,1056,841,0,0
-161,183,0,0,0,0,0,0,0,0,0,-1,1063,841,0,0
-154,183,0,0,0,0,0,0,0,0,0,-1,1070,841,0,0
-147,183,0,0,0,0,0,0,0,0,0,-1,1077,841,0,0
-140,183,0,0,0,0,0,0,0,0,0,-1,1084,841,0,0
-133,183,0,0,0,0,0,0,0,0,0,-1,1091,841,0,0
-126,183,0,0,0,0,0,0,0,0,0,-1,1098,841,0,0
-119,183,0,0,0,0,0,0,0,0,0,-1,1105,841,0,0
-112,183,0,0,0,0,0,0,0,0,0,-1,1112,841,0,0
-105,183,0,0,0,0,0,0,0,0,0,-1,1119,841,0,0
-98,183,0,0,0,0,0,0,0,0,0,-1,1126,841,0,0
-91,183,0,0,0,0,0,0,0,0,0,-1,1133,841,0,0
-84,183,0,0,0,0,0,0,0,0,0,-1,1140,841,0,0
-77,183,0,0,0,0,0,0,0,0,0,-1,1147,841,0,0
-70,183,0,0,0,0,0,0,0,0,0,-1,1154,841,0,0
-63,183,0,0,0,0,0,0,0,0,0,-1,1161,841,0,0
-56,183,0,0,0,0,0,0,0,0,0,-1,1168,841,0,0
-49,183,0,0,0,0,0,0,0,0,0,-1,1175,841,0,0
-42,183,0,0,0,0,0,0,0,0,0,-1,1182,841,0,0
-35,183,0,0,0,0,0,0,0,0,0,-1,1189,841,0,0
-28,183,0,0,0,0,0,0,0,0,0,-1,1196,841,0,0
-21,183,0,0,0,0,0,0,0,0,0,-1,1203,841,0,0
-14,183,0,0,0,0,0,0,0,0,0,-1,1210,841,0,0
-7,183,0,0,0,0,0,0,0,0,0,-1,1217,841,0,0
0,183,0,0,0,0,0,0,0,0,0,-1,1224,841,0,0
7,183,0,0,0,0,0,0,0,0,0,-1,1231,841,0,0
14,183,0,0,0,0,0,0,0,0,0,-1,1238,841,0,0
21,183,0,0,0,0,0,0,0,0,0,-1,1245,841,0,0
28,183,0,0,0,0,0,0,0,0,0,-1,1252,841,0,0
35,183,0,0,0,0,0,0,0,0,0,-1,1259,841,0,0
42,183,0,0,0,0,0,0,0,0,0,-1,1266,841,0,0
49,183,0,0,0,0,0,0,0,0,0,-1,1273,841,0,0
56,183,0,0,0,0,0,0,0,0,0,-1,1280,841,0,0
63,183,0,0,0,0,0,0,0,0,0,-1,1287,841,0,0
70,183,0,0,0,0,0,0,0,0,0,-1,1294,841,0,0
77,183,0,0,0,0,0,0,0,0,0,-1,1301,841,0,0
84,183,0,0,0,0,0,0,0,0,0,-1,1308,841,0,0
91,183,0,0,0,0,0,0,0,0,0,-1,1315,841,0,0
98,183,0,0,0,0,0,0,0,0,0,-1,1322,841,0,0
105,183,0,0,0,0,0,0,0,0,0,-1,1329,841,0,0
112,183,0,0,0,0,0,0,0,0,0,-1,1336,841,0,0
119,183,0,0,0,0,0,0,0,0,0,-1,1343,841,0,0
126,183,0,0,0,0,0,0,0,0,0,-1,1350,841,0,0
133,183,0,0,0,0,0,0,0,0,0,-1,1357,841,0,0
140,183,0,0,0,0,0,0,0,0,0,-1,1364,841,0,0
147,183,0,0,0,0,0,0,0,0,0,-1,1371,841,0,0
154,183,0,0,0,0,0,0,0,0,0,-1,1378,841,0,0
161,183,0,0,0,0,0,0,0,0,0,-1,1385,841,0,0
168,183,0,0,0,0,0,0,0,0,0,-1,1392,841,0,0
175,183,0,0,0,0,0,0,0,0,0,-1,1399,841,0,0
182,183,0,0,0,0,0,0,0,0,0,-1,1406,841,0,0
189,183,0,0,0,0,0,0,0,0,0,-1,1413,841,0,0
196,183,0,0,0,0,0,0,0,0,0,-1,1420,841,0,0
203,183,0,0,0,0,0,0,0,0,0,-1,1427,841,0,0
210,183,0,0,0,0,0,0,0,0,0,-1,1434,841,0,0
217,183,0,0,0,0,0,0,0,0,0,-1,1441,841,0,0
224,183,0,0,0,0,0,0,0,0,0,-1,1448,841,0,0
231,183,0,0,0,0,0,0,0,0,0,-1,1455,841,0,0
238,183,0,0,0,0,0,0,0,0,0,-1,1462,841,0,0
245,183,0,0,0,0,0,0,0,0,0,-1,1469,841,0,0
252,183,0,0,0,0,0,0,0,0,0,-1,1476,841,0,0
259,183,0,0,0,0,0,0,0,0,0,-1,1483,841,0,0
266,183,0,0,0,0,0,0,0,0,0,-1,1490,841,0,0
273,183,0,0,0,0,0,0,0,0,0,-1,1497,841,0,0
280,183,0,0,0,0,0,0,0,0,0,-1,1504,841,0,0
287,183,0,0,0,0,0,0,0,0,0,-1,1511,841,0,0
294,183,0,0,0,0,0,0,0,0,0,-1,1518,841,0,0
301,183,0,0,0,0,0,0,0,0,0,-1,1525,841,0,0
308,183,0,0,0,0,0,0,0,0,0,-1,1532,841,0,0
315,183,0,0,0,0,0,0,0,0,0,-1,1539,841,0,0
322,183,0,0,0,0,0,0,0,0,0,-1,1546,841,0,0
329,183,0,0,0,0,0,0,0,0,0,-1,1553,841,0,0
336,183,0,0,0,0,0,0,0,0,0,-1,1560,841,0,0
343,183,0,0,0,0,0,0,0,0,0,-1,1567,841,0,0
350,183,0,0,0,0,0,0,0,0,0,-1,1574,841,0,0
357,183,0,0,0,0,0,0,0,0,0,-1,1581,841,0,0
364,183,0,0,0,0,0,0,0,0,0,-1,1588,841,0,0
371,183,0,0,0,0,0,0,0,0,0,-1,1595,841,0,0
378,183,0,0,0,0,0,0,0,0,0,-1,1602,841,0,0
385,183,0,0,0,0,0,0,0,0,0,-1,1609,841,0,0
392,183,0,0,0,0,0,0,0,0,0,-1,1616,841,0,0
399,183,0,0,0,0,0,0,0,0,0,-1,1623,841,0,0
406,183,0,0,0,0,0,0,0,0,0,-1,1630,841,0,0
413,183,0,0,0,0,0,0,0,0,0,-1,1637,841,0,0
420,183,0,0,0,0,0,0,0,0,0,-1,1644,841,0,0
427,183,0,0,0,0,0,0,0,0,0,-1,1651,841,0,0
434,183,0,0,0,0,0,0,0,0,0,-1,1658,841,0,0
441,183,0,0,0,0,0,0,0,0,0,-1,1665,841,0,0
448,183,0,0,0,0,0,0,0,0,0,-1,1672,841,0,0
455,183,0,0,0,0,0,0,0,0,0,-1,1679,841,0,0
462,183,0,0,0,0,0,0,0,0,0,-1,1686,841,0,0
469,183,0,0,0,0,0,0,0,0,0,-1,1693,841,0,0
476,183,0,0,0,0,0,0,0,0,0,-1,1700,841,0,0
483,183,0,0,0,0,0,0,0,0,0,-1,1707,841,0,0
490,183,0,0,0,0,0,0,0,0,0,-1,1714,841,0,0
497,183,0,0,0,0,0,0,0,0,0,-1,1721,841,0,0
504,183,0,0,0,0,0,0,0,0,0,-1,1728,841,0,0
511,183,0,0,0,0,0,0,0,0,0,-1,1735,841,0,0
518,183,0,0,0,0,0,0,0,0,0,-1,1742,841,0,0
525,183,0,0,0,0,0,0,0,0,0,-1,1749,841,0,0
532,183,0,0,0,0,0,0,0,0,0,-1,1756,841,0,0
539,183,0,0,0,0,0,0,0,0,0,-1,1763,841,0,0
546,183,0,0,0,0,0,0,0,0,0,-1,1770,841,0,0
553,183,0,0,0,0,0,0,0,0,0,-1,1777,841,0,0
560,183,0,0,0,0,0,0,0,0,0,-1,1784,841,0,0
567,183,0,0,0,0,0,0,0,0,0,-1,1791,841,0,0
574,183,0,0,0,0,0,0,0,0,0,-1,1798,841,0,0
581,183,0,0,0,0,0,0,0,0,0,-1,1805,841,0,0
588,183,0,0,0,0,0,0,0,0,0,-1,1812,841,0,0
595,183,0,0,0,0,0,0,0,0,0,-1,1819,841,0,0
602,183,0,0,0,0,0,0,0,0,0,-1,1826,841,0,0
609,183,49.6525,2.7204,0.00184903,-0.00105285,-0.00138071,0.00240099,-0.00160481,-0.380301,0.00232792,0.0383112,1833,841,49.6525,-2.72042
616,183,49.6604,2.82196,0.000748021,4.93202e-05,-0.00128092,0.00172637,-0.00092903,-0.652269,0.00155596,0.0394037,1840,841,49.6604,-2.82196
623,183,49.8151,2.77332,-0.000399803,0.00106806,-0.00108023,0.0016401,-0.000971839,-1.08379,0.00152437,0.0426672,1847,841,49.8151,-2.77333
630,183,49.894,2.60809,-0.00163779,0.00183301,-0.00105882,0.00213051,-0.0019353,-1.29688,0.0023483,0.0399676,1854,841,49.8941,-2.60809
637,183,49.7791,2.61285,-0.00265154,0.00205401,-0.0011653,0.00232677,-0.00292431,-1.34086,0.00303825,0.0336024,1861,841,49.779,-2.61287
644,183,49.691,2.7135,-0.00330223,0.00183167,-0.00126422,0.0021261,-0.00359666,-1.34198,0.0033402,0.0286208,1868,841,49.6911,-2.71351
651,183,49.7279,2.77802,-0.00355409,0.00140851,-0.00133446,0.00174459,-0.00389017,-1.32408,0.00333091,0.0272009,1875,841,49.7279,-2.778
658,183,49.8661,2.66248,0,0,0,0,0,0,0,-1,1882,841,49.8661,-2.66245
665,183,38.4337,2.66992,0,0,0,0,0,0,0,-1,1889,841,38.4337,-2.6699
672,183,29.168,1.54572,0,0,0,0,0,0,0,-1,1896,841,29.168,-1.54574
679,183,39.699,0.986572,0,0,0,0,0,0,0,-1,1903,841,39.699,-0.986554
686,183,39.6152,1.42133,-0.00361321,8.22395e-05,-0.00151085,0.000621305,-0.00415228,-1.22808,0.00299683,0.0289038,1910,841,39.6152,-1.42136
693,183,39.5865,1.89325,-0.00295862,-0.000264925,-0.00165737,0.000523844,-0.00374739,-1.1266,0.00268993,0.0258792,1917,841,39.5865,-1.89323
700,183,39.4611,2.46246,-0.00246245,-0.000422963,-0.00155076,0.00041329,-0.00329871,-1.07624,0.00234905,0.0239983,1924,841,39.461,-2.46244
707,183,39.4159,3.01556,-0.00234832,-5.21675e-05,-0.00164894,0.000809005,-0.00320949,-1.0895,0.00245418,0.012512,1931,841,39.416,-3.01559
714,183,39.4343,3.54834,-0.00185434,0.000768608,-0.00160286,0.00152816,-0.00261389,-1.12827,0.00241864,0.0168508,1938,841,39.4343,-3.54831
721,183,39.4021,4.06824,-0.00126461,0.00197031,-0.00144133,0.00251933,-0.00181362,-1.20686,0.00251266,0.0158254,1945,841,39.4021,-4.06825
728,183,39.3693,4.617,-0.000725869,0.00372918,-0.00113793,0.004003,-0.000999692,-1.33465,0.00305688,0.0130467,1952,841,39.3692,-4.61703
735,183,39.3584,5.17065,-0.000390811,0.00595226,-0.000978464,0.00609977,-0.000538316,-1.42117,0.00425731,0.0120764,1959,841,39.3584,-5.17066
742,183,39.3425,5.74646,-0.000248305,0.00875312,-0.000886694,0.00883963,-0.000334819,-1.47354,0.0060078,0.0112625,1966,841,39.3425,-5.74644
749,183,39.2477,6.36377,-0.000251665,0.012378,-0.000767946,0.0124245,-0.000298189,-1.51029,0.00838417,0.0319014,1973,841,39.2476,-6.36379
756,183,39.1527,6.98224,0,0,0,0,0,0,0,-1,1980,841,39.1527,-6.98221
763,183,39.7151,7.11493,0,0,0,0,0,0,0,-1,1987,841,39.7151,-7.11491
770,183,41.0603,7.72028,0,0,0,0,0,0,0,-1,1994,841,41.0603,-7.72026
777,183,42.1948,7.22906,0,0,0,0,0,0,0,-1,2001,841,42.1948,-7.22905
784,183,0,0,0,0,0,0,0,0,0,-1,2008,841,0,0
791,183,0,0,0,0,0,0,0,0,0,-1,2015,841,0,0
798,183,0,0,0,0,0,0,0,0,0,-1,2022,841,0,0
805,183,0,0,0,0,0,0,0,0,0,-1,2029,841,0,0
812,183,0,0,0,0,0,0,0,0,0,-1,2036,841,0,0
-700,176,0,0,0,0,0,0,0,0,0,-1,524,848,0,0
-693,176,0,0,0,0,0,0,0,0,0,-1,531,848,0,0
-686,176,0,0,0,0,0,0,0,0,0,-1,538,848,0,0
-679,176,0,0,0,0,0,0,0,0,0,-1,545,848,0,0
-672,176,0,0,0,0,0,0,0,0,0,-1,552,848,0,0
-665,176,-33.7764,9.92517,0,0,0,0,0,0,0,-1,559,848,-33.7764,-9.92515
-658,176,-31.3765,2.64471,0,0,0,0,0,0,0,-1,566,848,-31.3765,-2.64472
-651,176,-29.7728,4.25934,0,0,0,0,0,0,0,-1,573,848,-29.7729,-4.25935
-644,176,-29.6554,4.92908,0.0666418,0.100756,0.0550085,0.141291,0.0261066,0.935739,0.0868106,0.047538,580,848,-29.6554,-4.92906
-637,176,-29.7142,5.8111,0.0532191,0.0815049,0.040846,0.110587,0.0241368,0.952064,0.0671413,0.0482776,587,848,-29.7142,-5.8111
-630,176,-29.6483,6.24756,0.041384,0.0641928,0.0294647,0.0843832,0.0211936,0.970046,0.0506899,0.0448594,594,848,-29.6483,-6.24756
-623,176,-28.7687,4.09656,0.0307043,0.0485369,0.0203842,0.0618695,0.0173716,0.991566,0.0368471,0.0422946,601,848,-28.7688,-4.09653
-616,176,-28.7589,3.61749,0.0216677,0.0349741,0.0134662,0.043341,0.0133008,1.01484,0.0256375,0.0289648,608,848,-28.7589,-3.6175
-609,176,-28.7577,3.07068,0.0144893,0.0237757,0.00847956,0.0288001,0.00946492,1.03589,0.0169501,0.0127087,615,848,-28.7577,-3.0707
-602,176,-28.7579,2.52844,0.00841882,0.0144055,0.00472782,0.0170079,0.00581641,1.06761,0.00998162,0.0132431,622,848,-28.7579,-2.52843
-595,176,-28.7674,2.01001,0.00446598,0.00771868,0.00260624,0.00916438,0.00302027,1.06435,0.00539255,0.0124399,629,848,-28.7674,-2.01001
-588,176,-28.7728,1.49817,0.00246847,0.00331374,0.00186295,0.00480139,0.000980821,0.896943,0.00292924,0.0138207,636,848,-28.7729,-1.49819
-581,176,-28.8124,1.00574,0.0017724,0.00111228,0.0019703,0.0034401,-0.000555416,0.70241,0.00249919,0.0130239,643,848,-28.8124,-1.00577
-574,176,-28.8368,0.487732,0.00123965,0.000409494,0.00218365,0.00304732,-0.00139817,0.691476,0.00262482,0.0213604,650,848,-28.8368,-0.487711
-567,176,-28.8207,-0.113403,0,0,0,0,0,0,0,-1,657,848,-28.8207,0.113408
-560,176,-28.8149,-0.578552,0,0,0,0,0,0,0,-1,664,848,-28.8149,0.578559
-553,176,-28.7329,-1.22339,0,0,0,0,0,0,0,-1,671,848,-28.7329,1.22339
-546,176,-16.657,-0.403198,0,0,0,0,0,0,0,-1,678,848,-16.657,0.403182
-539,176,-22.7061,1.48657,0,0,0,0,0,0,0,-1,685,848,-22.7061,-1.48657
-532,176,-36.9853,1.30768,0,0,0,0,0,0,0,-1,692,848,-36.9853,-1.30766
-525,176,-37.0809,1.26764,7.24201e-05,0.0012356,7.91499e-05,0.00124096,6.7059e-05,1.50317,0.000805887,0.0484843,699,848,-37.0809,-1.26763
-518,176,-37.2232,1.10681,-4.61056e-05,0.00161593,-0.000189934,0.00163736,-6.75346e-05,-1.45845,0.00111476,0.0402348,706,848,-37.2232,-1.10682
-511,176,-37.3646,0.720459,0.000262671,0.00165538,-0.000216647,0.00168831,0.000229748,-1.41999,0.00105731,0.0390785,713,848,-37.3646,-0.720456
-504,176,-37.6227,0.303711,0.00235415,0.00115787,0.000291674,0.00242148,0.00109054,0.226852,0.00140034,0.0425641,720,848,-37.6227,-0.303691
-497,176,-37.6378,0.343628,0.00581215,-0.000170592,0.00178361,0.00630353,-0.000661971,0.268829,0.00443949,0.0453091,727,848,-37.6377,-0.34362
-490,176,-37.3428,0.573914,0.0106861,-0.00316205,0.00469322,0.0121268,-0.00460273,0.29784,0.00997908,0.0424016,734,848,-37.3428,-0.573934
-483,176,0,0,0,0,0,0,0,0,0,-1,741,848,0,0
-476,176,0,0,0,0,0,0,0,0,0,-1,748,848,0,0
-469,176,0,0,0,0,0,0,0,0,0,-1,755,848,0,0
-462,176,0,0,0,0,0,0,0,0,0,-1,762,848,0,0
-455,176,0,0,0,0,0,0,0,0,0,-1,769,848,0,0
-448,176,0,0,0,0,0,0,0,0,0,-1,776,848,0,0
-441,176,0,0,0,0,0,0,0,0,0,-1,783,848,0,0
-434,176,0,0,0,0,0,0,0,0,0,-1,790,848,0,0
-427,176,0,0,0,0,0,0,0,0,0,-1,797,848,0,0
-420,176,0,0,0,0,0,0,0,0,0,-1,804,848,0,0
-413,176,0,0,0,0,0,0,0,0,0,-1,811,848,0,0
-406,176,0,0,0,0,0,0,0,0,0,-1,818,848,0,0
-399,176,0,0,0,0,0,0,0,0,0,-1,825,848,0,0
-392,176,0,0,0,0,0,0,0,0,0,-1,832,848,0,0
-385,176,0,0,0,0,0,0,0,0,0,-1,839,848,0,0
-378,176,0,0,0,0,0,0,0,0,0,-1,846,848,0,0
-371,176,0,0,0,0,0,0,0,0,0,-1,853,848,0,0
-364,176,0,0,0,0,0,0,0,0,0,-1,860,848,0,0
-357,176,0,0,0,0,0,0,0,0,0,-1,867,848,0,0
-350,176,0,0,0,0,0,0,0,0,0,-1,874,848,0,0
-343,176,0,0,0,0,0,0,0,0,0,-1,881,848,0,0
-336,176,0,0,0,0,0,0,0,0,0,-1,888,848,0,0
-329,176,0,0,0,0,0,0,0,0,0,-1,895,848,0,0
-322,176,0,0,0,0,0,0,0,0,0,-1,902,848,0,0
-315,176,0,0,0,0,0,0,0,0,0,-1,909,848,0,0
-308,176,0,0,0,0,0,0,0,0,0,-1,916,848,0,0
-301,176,0,0,0,0,0,0,0,0,0,-1,923,848,0,0
-294,176,0,0,0,0,0,0,0,0,0,-1,930,848,0,0
-287,176,0,0,0,0,0,0,0,0,0,-1,937,848,0,0
-280,176,0,0,0,0,0,0,0,0,0,-1,944,848,0,0
-273,176,0,0,0,0,0,0,0,0,0,-1,951,848,0,0
-266,176,0,0,0,0,0,0,0,0,0,-1,958,848,0,0
-259,176,0,0,0,0,0,0,0,0,0,-1,965,848,0,0
-252,176,0,0,0,0,0,0,0,0,0,-1,972,848,0,0
-245,176,0,0,0,0,0,0,0,0,0,-1,979,848,0,0
-238,176,0,0,0,0,0,0,0,0,0,-1,986,848,0,0
-231,176,0,0,0,0,0,0,0,0,0,-1,993,848,0,0
-224,176,0,0,0,0,0,0,0,0,0,-1,1000,848,0,0
-217,176,0,0,0,0,0,0,0,0,0,-1,1007,848,0,0
-210,176,0,0,0,0,0,0,0,0,0,-1,1014,848,0,0
-203,176,0,0,0,0,0,0,0,0,0,-1,1021,848,0,0
-196,176,0,0,0,0,0,0,0,0,0,-1,1028,848,0,0
-189,176,0,0,0,0,0,0,0,0,0,-1,1035,848,0,0
-182,176,0,0,0,0,0,0,0,0,0,-1,1042,848,0,0
-175,176,0,0,0,0,0,0,0,0,0,-1,1049,848,0,0
-168,176,0,0,0,0,0,0,0,0,0,-1,1056,848,0,0
-161,176,0,0,0,0,0,0,0,0,0,-1,1063,848,0,0
-154,176,0,0,0,0,0,0,0,0,0,-1,1070,848,0,0
-147,176,0,0,0,0,0,0,0,0,0,-1,1077,848,0,0
-140,176,0,0,0,0,0,0,0,0,0,-1,1084,848,0,0
-133,176,0,0,0,0,0,0,0,0,0,-1,1091,848,0,0
-126,176,0,0,0,0,0,0,0,0,0,-1,1098,848,0,0
-119,176,0,0,0,0,0,0,0,0,0,-1,1105,848,0,0
-112,176,0,0,0,0,0,0,0,0,0,-1,1112,848,0,0
-105,176,0,0,0,0,0,0,0,0,0,-1,1119,848,0,0
-98,176,0,0,0,0,0,0,0,0,0,-1,1126,848,0,0
-91,176,0,0,0,0,0,0,0,0,0,-1,1133,848,0,0
-84,176,0,0,0,0,0,0,0,0,0,-1,1140,848,0,0
-77,176,0,0,0,0,0,0,0,0,0,-1,1147,848,0,0
-70,176,0,0,0,0,0,0,0,0,0,-1,1154,848,0,0
-63,176,0,0,0,0,0,0,0,0,0,-1,1161,848,0,0
-56,176,0,0,0,0,0,0,0,0,0,-1,1168,848,0,0
-49,176,0,0,0,0,0,0,0,0,0,-1,1175,848,0,0
-42,176,0,0,0,0,0,0,0,0,0,-1,1182,848,0,0
-35,176,0,0,0,0,0,0,0,0,0,-1,1189,848,0,0
-28,176,0,0,0,0,0,0,0,0,0,-1,1196,848,0,0
-21,176,0,0,0,0,0,0,0,0,0,-1,1203,848,0,0
-14,176,0,0,0,0,0,0,0,0,0,-1,1210,848,0,0
-7,176,0,0,0,0,0,0,0,0,0,-1,1217,848,0,0
0,176,0,0,0,0,0,0,0,0,0,-1,1224,848,0,0
7,176,0,0,0,0,0,0,0,0,0,-1,1231,848,0,0
14,176,0,0,0,0,0,0,0,0,0,-1,1238,848,0,0
21,176,0,0,0,0,0,0,0,0,0,-1,1245,848,0,0
28,176,0,0,0,0,0,0,0,0,0,-1,1252,848,0,0
35,176,0,0,0,0,0,0,0,0,0,-1,1259,848,0,0
42,176,0,0,0,0,0,0,0,0,0,-1,1266,848,0,0
49,176,0,0,0,0,0,0,0,0,0,-1,1273,848,0,0
56,176,0,0,0,0,0,0,0,0,0,-1,1280,848,0,0
63,176,0,0,0,0,0,0,0,0,0,-1,1287,848,0,0
70,176,0,0,0,0,0,0,0,0,0,-1,1294,848,0,0
77,176,0,0,0,0,0,0,0,0,0,-1,1301,848,0,0
84,176,0,0,0,0,0,0,0,0,0,-1,1308,848,0,0
91,176,0,0,0,0,0,0,0,0,0,-1,1315,848,0,0
98,176,0,0,0,0,0,0,0,0,0,-1,1322,848,0,0
105,176,0,0,0,0,0,0,0,0,0,-1,1329,848,0,0
112,176,0,0,0,0,0,0,0,0,0,-1,1336,848,0,0
119,176,0,0,0,0,0,0,0,0,0,-1,1343,848,0,0
126,176,0,0,0,0,0,0,0,0,0,-1,1350,848,0,0
133,176,0,0,0,0,0,0,0,0,0,-1,1357,848,0,0
140,176,0,0,0,0,0,0,0,0,0,-1,1364,848,0,0
147,176,0,0,0,0,0,0,0,0,0,-1,1371,848,0,0
154,176,0,0,0,0,0,0,0,0,0,-1,1378,848,0,0
161,176,0,0,0,0,0,0,0,0,0,-1,1385,848,0,0
168,176,0,0,0,0,0,0,0,0,0,-1,1392,848,0,0
175,176,0,0,0,0,0,0,0,0,0,-1,1399,848,0,0
182,176,0,0,0,0,0,0,0,0,0,-1,1406,848,0,0
189,176,0,0,0,0,0,0,0,0,0,-1,1413,848,0,0
196,176,0,0,0,0,0,0,0,0,0,-1,1420,848,0,0
203,176,0,0,0,0,0,0,0,0,0,-1,1427,848,0,0
210,176,0,0,0,0,0,0,0,0,0,-1,1434,848,0,0
217,176,0,0,0,0,0,0,0,0,0,-1,1441,848,0,0
224,176,0,0,0,0,0,0,0,0,0,-1,1448,848,0,0
231,176,0,0,0,0,0,0,0,0,0,-1,1455,848,0,0
238,176,0,0,0,0,0,0,0,0,0,-1,1462,848,0,0
245,176,0,0,0,0,0,0,0,0,0,-1,1469,848,0,0
252,176,0,0,0,0,0,0,0,0,0,-1,1476,848,0,0
259,176,0,0,0,0,0,0,0,0,0,-1,1483,848,0,0
266,176,0,0,0,0,0,0,0,0,0,-1,1490,848,0,0
273,176,0,0,0,0,0,0,0,0,0,-1,1497,848,0,0
280,176,0,0,0,0,0,0,0,0,0,-1,1504,848,0,0
287,176,0,0,0,0,0,0,0,0,0,-1,1511,848,0,0
294,176,0,0,0,0,0,0,0,0,0,-1,1518,848,0,0
301,176,0,0,0,0,0,0,0,0,0,-1,1525,848,0,0
308,176,0,0,0,0,0,0,0,0,0,-1,1532,848,0,0
315,176,0,0,0,0,0,0,0,0,0,-1,1539,848,0,0
322,176,0,0,0,0,0,0,0,0,0,-1,1546,848,0,0
329,176,0,0,0,0,0,0,0,0,0,-1,1553,848,0,0
336,176,0,0,0,0,0,0,0,0,0,-1,1560,848,0,0
343,176,0,0,0,0,0,0,0,0,0,-1,1567,848,0,0
350,176,0,0,0,0,0,0,0,0,0,-1,1574,848,0,0
357,176,0,0,0,0,0,0,0,0,0,-1,1581,848,0,0
364,176,0,0,0,0,0,0,0,0,0,-1,1588,848,0,0
371,176,0,0,0,0,0,0,0,0,0,-1,1595,848,0,0
378,176,0,0,0,0,0,0,0,0,0,-1,1602,848,0,0
385,176,0,0,0,0,0,0,0,0,0,-1,1609,848,0,0
392,176,0,0,0,0,0,0,0,0,0,-1,1616,848,0,0
399,176,0,0,0,0,0,0,0,0,0,-1,1623,848,0,0
406,176,0,0,0,0,0,0,0,0,0,-1,1630,848,0,0
413,176,0,0,0,0,0,0,0,0,0,-1,1637,848,0,0
420,176,0,0,0,0,0,0,0,0,0,-1,1644,848,0,0
427,176,0,0,0,0,0,0,0,0,0,-1,1651,848,0,0
434,176,0,0,0,0,0,0,0,0,0,-1,1658,848,0,0
441,176,0,0,0,0,0,0,0,0,0,-1,1665,848,0,0
448,176,0,0,0,0,0,0,0,0,0,-1,1672,848,0,0
455,176,0,0,0,0,0,0,0,0,0,-1,1679,848,0,0
462,176,0,0,0,0,0,0,0,0,0,-1,1686,848,0,0
469,176,0,0,0,0,0,0,0,0,0,-1,1693,848,0,0
476,176,0,0,0,0,0,0,0,0,0,-1,1700,848,0,0
483,176,0,0,0,0,0,0,0,0,0,-1,1707,848,0,0
490,176,0,0,0,0,0,0,0,0,0,-1,1714,848,0,0
497,176,0,0,0,0,0,0,0,0,0,-1,1721,848,0,0
504,176,0,0,0,0,0,0,0,0,0,-1,1728,848,0,0
511,176,0,0,0,0,0,0,0,0,0,-1,1735,848,0,0
518,176,0,0,0,0,0,0,0,0,0,-1,1742,848,0,0
525,176,0,0,0,0,0,0,0,0,0,-1,1749,848,0,0
532,176,0,0,0,0,0,0,0,0,0,-1,1756,848,0,0
539,176,0,0,0,0,0,0,0,0,0,-1,1763,848,0,0
546,176,0,0,0,0,0,0,0,0,0,-1,1770,848,0,0
553,176,0,0,0,0,0,0,0,0,0,-1,1777,848,0,0
560,176,0,0,0,0,0,0,0,0,0,-1,1784,848,0,0
567,176,0,0,0,0,0,0,0,0,0,-1,1791,848,0,0
574,176,0,0,0,0,0,0,0,0,0,-1,1798,848,0,0
581,176,0,0,0,0,0,0,0,0,0,-1,1805,848,0,0
588,176,0,0,0,0,0,0,0,0,0,-1,1812,848,0,0
595,176,0,0,0,0,0,0,0,0,0,-1,1819,848,0,0
602,176,0,0,0,0,0,0,0,0,0,-1,1826,848,0,0
609,176,49.7205,2.72156,0.00162456,-0.00234508,-0.00164352,0.00221669,-0.00293721,-0.345805,0.00298528,0.0376028,1833,848,49.7204,-2.72155
616,176,49.8076,2.62323,0.000576729,-0.00150445,-0.00152246,0.00138024,-0.00230796,-0.485618,0.00215172,0.0391668,1840,848,49.8076,-2.62324
623,176,49.9163,2.6488,-0.000386055,-0.000480306,-0.00111113,0.00067895,-0.00154531,-0.764205,0.00131625,0.0444766,1847,848,49.9162,-2.64883
630,176,49.9089,2.63623,-0.00139584,0.000437977,-0.000906528,0.000810454,-0.00176832,-1.18094,0.00152271,0.0406122,1854,848,49.9089,-2.63622
637,176,49.7017,2.67395,-0.00229086,0.000997255,-0.000847295,0.00120275,-0.00249635,-1.33286,0.00217877,0.0323007,1861,848,49.7017,-2.67397
644,176,49.6573,2.7218,-0.00290008,0.00102975,-0.00089062,0.00122217,-0.0030925,-1.35801,0.0025679,0.0318227,1868,848,49.6574,-2.7218
651,176,49.6998,2.71729,-0.00313753,0.000779593,-0.000952624,0.000998979,-0.00335692,-1.34445,0.00263484,0.0334322,1875,848,49.6999,-2.71728
658,176,49.7994,2.664,-0.00320218,0.000513485,-0.00106887,0.000799019,-0.00348772,-1.30976,0.00263222,0.0439438,1882,848,49.7994,-2.66401
665,176,49.8939,2.59131,0,0,0,0,0,0,0,-1,1889,848,49.8939,-2.59133
672,176,16.9304,2.80719,0,0,0,0,0,0,0,-1,1896,848,16.9305,-2.80719
679,176,40.4514,0.889893,0,0,0,0,0,0,0,-1,1903,848,40.4514,-0.889908
686,176,40.3313,1.4978,-0.00304536,-0.000126979,-0.0011648,0.000280914,-0.00345325,-1.23396,0.00240129,0.0406649,1910,848,40.3313,-1.4978
693,176,40.165,2.03589,-0.00246745,-0.000330631,-0.00135624,0.000327479,-0.00312556,-1.11902,0.002201,0.0225561,1917,848,40.1651,-2.03588
700,176,40.0325,2.57947,-0.00209814,-0.000405672,-0.0013456,0.000337674,-0.00284148,-1.06609,0.00201633,0.0260484,1924,848,40.0325,-2.57948
707,176,40.033,3.08185,-0.00206537,-8.12025e-05,-0.00148144,0.000709657,-0.00285623,-1.08044,0.00217956,0.0154001,1931,848,40.0329,-3.08182
714,176,39.9932,3.55969,-0.00170945,0.000607648,-0.00150586,0.00134906,-0.00245085,-1.11329,0.00222441,0.0123113,1938,848,39.9931,-3.55971
721,176,39.9572,4.0683,-0.0012778,0.00160589,-0.00141921,0.00218717,-0.00185908,-1.18205,0.00233867,0.0126897,1945,848,39.9572,-4.06828
728,176,39.9301,4.64929,-0.000856645,0.00318704,-0.00114075,0.00348665,-0.00115626,-1.31395,0.00279087,0.0150742,1952,848,39.9301,-4.64929
735,176,39.9137,5.20386,-0.000549696,0.00518645,-0.00098998,0.0053525,-0.000715747,-1.40461,0.00382928,0.0141313,1959,848,39.9137,-5.20385
742,176,39.8969,5.74738,-0.000348675,0.00769254,-0.000863902,0.00778431,-0.000440439,-1.46497,0.00534241,0.0174916,1966,848,39.8968,-5.74735
749,176,39.8773,6.29553,-0.000202325,0.0108539,-0.000690417,0.0108969,-0.000245272,-1.50867,0.00734769,0.0306468,1973,848,39.8773,-6.29552
756,176,39.8706,6.87939,0,0,0,0,0,0,0,-1,1980,848,39.8706,-6.87941
763,176,40.4291,6.078,0,0,0,0,0,0,0,-1,1987,848,40.4291,-6.07798
770,176,36.4186,4.25641,0,0,0,0,0,0,0,-1,1994,848,36.4186,-4.25639
777,176,43.8328,7.50177,0,0,0,0,0,0,0,-1,2001,848,43.8328,-7.50178
784,176,0,0,0,0,0,0,0,0,0,-1,2008,848,0,0
791,176,0,0,0,0,0,0,0,0,0,-1,2015,848,0,0
798,176,0,0,0,0,0,0,0,0,0,-1,2022,848,0,0
805,176,0,0,0,0,0,0,0,0,0,-1,2029,848,0,0
812,176,0,0,0,0,0,0,0,0,0,-1,2036,848,0,0
-700,169,0,0,0,0,0,0,0,0,0,-1,524,855,0,0
-693,169,0,0,0,0,0,0,0,0,0,-1,531,855,0,0
-686,169,0,0,0,0,0,0,0,0,0,-1,538,855,0,0
-679,169,0,0,0,0,0,0,0,0,0,-1,545,855,0,0
-672,169,0,0,0,0,0,0,0,0,0,-1,552,855,0,0
-665,169,-33.4412,9.59009,0,0,0,0,0,0,0,-1,559,855,-33.4412,-9.59006
-658,169,-33.7145,9.20746,0,0,0,0,0,0,0,-1,566,855,-33.7145,-9.20747
-651,169,-32.4609,6.19879,0,0,0,0,0,0,0,-1,573,855,-32.4609,-6.19876
-644,169,-29.9612,4.57916,0,0,0,0,0,0,0,-1,580,855,-29.9612,-4.57917
-637,169,-29.8447,4.98871,0.0519179,0.0736305,0.035771,0.100156,0.0253921,0.932728,0.0601216,0.0480097,587,855,-29.8447,-4.98869
-630,169,-29.777,5.37573,0.0395584,0.0580924,0.0258484,0.0762847,0.021366,0.957518,0.0454409,0.045207,594,855,-29.777,-5.37574
-623,169,-29.164,4.13208,0.0284298,0.0440514,0.0180862,0.0559414,0.0165398,0.989234,0.0331846,0.0396068,601,855,-29.164,-4.13207
-616,169,-29.258,3.58942,0.0196677,0.031183,0.0118866,0.038633,0.0122177,1.01094,0.0228013,0.0238693,608,855,-29.258,-3.58941
-609,169,-29.2773,3.07751,0.0127975,0.0206811,0.00749941,0.0252115,0.00826704,1.02736,0.0148405,0.0141661,615,855,-29.2773,-3.07751
-602,169,-29.3008,2.5426,0.00707918,0.0119418,0.00427176,0.0144257,0.00459528,1.04411,0.00850951,0.0135881,622,855,-29.3008,-2.54261
-595,169,-29.3119,2.01575,0.00344583,0.00585593,0.00256192,0.00748206,0.0018197,1.00523,0.00450567,0.0121032,629,855,-29.3119,-2.01577
-588,169,-29.3117,1.52856,0.0017796,0.00210729,0.00203514,0.00398517,-9.82885e-05,0.825566,0.00269014,0.0105515,636,855,-29.3117,-1.52857
-581,169,-29.3628,1.04761,0.00133544,0.000556544,0.00221775,0.00319768,-0.00130569,0.698482,0.00267541,0.0156338,643,855,-29.3628,-1.04759
-574,169,-29.5712,0.506653,0.00093119,0.000199432,0.00238569,0.0029789,-0.00184827,0.709309,0.00281233,0.0287009,650,855,-29.5712,-0.506658
-567,169,-29.3873,0.0770874,0.000671947,0.000321023,0.00209394,0.00259776,-0.00160479,0.743598,0.00244882,0.0391851,657,855,-29.3873,-0.0770893
-560,169,-29.3388,-0.302246,0.0004141,0.00049667,0.00150047,0.00195642,-0.00104565,0.799152,0.00175964,0.0467974,664,855,-29.3388,0.302248
-553,169,-29.1512,-0.733398,0,0,0,0,0,0,0,-1,671,855,-29.1512,0.733379
-546,169,-19.0852,-1.05609,0,0,0,0,0,0,0,-1,678,855,-19.0852,1.05612
-539,169,-33.2307,1.10706,0,0,0,0,0,0,0,-1,685,855,-33.2307,-1.10708
-532,169,-37.1539,1.06854,0,0,0,0,0,0,0,-1,692,855,-37.1539,-1.06852
-525,169,-37.1329,1.1972,0.000295683,0.000740928,0.000239112,0.000845009,0.000191602,1.16025,0.000511575,0.0454114,699,855,-37.1329,-1.19721
-518,169,-37.2228,1.18085,8.24252e-05,0.000912846,4.8116e-06,0.000912874,8.23973e-05,1.565,0.000583061,0.0414056,706,855,-37.2228,-1.18087
-511,169,-37.3204,0.819336,0.000472816,0.000480443,0.000157641,0.000634317,0.000318942,0.797492,0.000366225,0.0395012,713,855,-37.3203,-0.819324
-504,169,-37.5349,0.282532,0.00298948,-0.000562822,0.00117305,0.00334189,-0.000915231,0.291843,0.00258753,0.0426137,720,855,-37.5349,-0.282532
-497,169,-37.5709,0.544373,0.00677372,-0.0026039,0.00343705,0.00789854,-0.00372872,0.316276,0.00685538,0.0433672,727,855,-37.5709,-0.544403
-490,169,0,0,0,0,0,0,0,0,0,-1,734,855,0,0
-483,169,0,0,0,0,0,0,0,0,0,-1,741,855,0,0
-476,169,0,0,0,0,0,0,0,0,0,-1,748,855,0,0
-469,169,0,0,0,0,0,0,0,0,0,-1,755,855,0,0
-462,169,0,0,0,0,0,0,0,0,0,-1,762,855,0,0
-455,169,0,0,0,0,0,0,0,0,0,-1,769,855,0,0
-448,169,0,0,0,0,0,0,0,0,0,-1,776,855,0,0
-441,169,0,0,0,0,0,0,0,0,0,-1,783,855,0,0
-434,169,0,0,0,0,0,0,0,0,0,-1,790,855,0,0
-427,169,0,0,0,0,0,0,0,0,0,-1,797,855,0,0
-420,169,0,0,0,0,0,0,0,0,0,-1,804,855,0,0
-413,169,0,0,0,0,0,0,0,0,0,-1,811,855,0,0
-406,169,0,0,0,0,0,0,0,0,0,-1,818,855,0,0
-399,169,0,0,0,0,0,0,0,0,0,-1,825,855,0,0
-392,169,0,0,0,0,0,0,0,0,0,-1,832,855,0,0
-385,169,0,0,0,0,0,0,0,0,0,-1,839,855,0,0
-378,169,0,0,0,0,0,0,0,0,0,-1,846,855,0,0
-371,169,0,0,0,0,0,0,0,0,0,-1,853,855,0,0
-364,169,0,0,0,0,0,0,0,0,0,-1,860,855,0,0
-357,169,0,0,0,0,0,0,0,0,0,-1,867,855,0,0
-350,169,0,0,0,0,0,0,0,0,0,-1,874,855,0,0
-343,169,0,0,0,0,0,0,0,0,0,-1,881,855,0,0
-336,169,0,0,0,0,0,0,0,0,0,-1,888,855,0,0
-329,169,0,0,0,0,0,0,0,0,0,-1,895,855,0,0
-322,169,0,0,0,0,0,0,0,0,0,-1,902,855,0,0
-315,169,0,0,0,0,0,0,0,0,0,-1,909,855,0,0
-308,169,0,0,0,0,0,0,0,0,0,-1,916,855,0,0
-301,169,0,0,0,0,0,0,0,0,0,-1,923,855,0,0
-294,169,0,0,0,0,0,0,0,0,0,-1,930,855,0,0
-287,169,0,0,0,0,0,0,0,0,0,-1,937,855,0,0
-280,169,0,0,0,0,0,0,0,0,0,-1,944,855,0,0
-273,169,0,0,0,0,0,0,0,0,0,-1,951,855,0,0
-266,169,0,0,0,0,0,0,0,0,0,-1,958,855,0,0
-259,169,0,0,0,0,0,0,0,0,0,-1,965,855,0,0
-252,169,0,0,0,0,0,0,0,0,0,-1,972,855,0,0
-245,169,0,0,0,0,0,0,0,0,0,-1,979,855,0,0
-238,169,0,0,0,0,0,0,0,0,0,-1,986,855,0,0
-231,169,0,0,0,0,0,0,0,0,0,-1,993,855,0,0
-224,169,0,0,0,0,0,0,0,0,0,-1,1000,855,0,0
-217,169,0,0,0,0,0,0,0,0,0,-1,1007,855,0,0
-210,169,0,0,0,0,0,0,0,0,0,-1,1014,855,0,0
-203,169,0,0,0,0,0,0,0,0,0,-1,1021,855,0,0
-196,169,0,0,0,0,0,0,0,0,0,-1,1028,855,0,0
-189,169,0,0,0,0,0,0,0,0,0,-1,1035,855,0,0
-182,169,0,0,0,0,0,0,0,0,0,-1,1042,855,0,0
-175,169,0,0,0,0,0,0,0,0,0,-1,1049,855,0,0
-168,169,0,0,0,0,0,0,0,0,0,-1,1056,855,0,0
-161,169,0,0,0,0,0,0,0,0,0,-1,1063,855,0,0
-154,169,0,0,0,0,0,0,0,0,0,-1,1070,855,0,0
-147,169,0,0,0,0,0,0,0,0,0,-1,1077,855,0,0
-140,169,0,0,0,0,0,0,0,0,0,-1,1084,855,0,0
-133,169,0,0,0,0,0,0,0,0,0,-1,1091,855,0,0
-126,169,0,0,0,0,0,0,0,0,0,-1,1098,855,0,0
-119,169,0,0,0,0,0,0,0,0,0,-1,1105,855,0,0
-112,169,0,0,0,0,0,0,0,0,0,-1,1112,855,0,0
-105,169,0,0,0,0,0,0,0,0,0,-1,1119,855,0,0
-98,169,0,0,0,0,0,0,0,0,0,-1,1126,855,0,0
-91,169,0,0,0,0,0,0,0,0,0,-1,1133,855,0,0
-84,169,0,0,0,0,0,0,0,0,0,-1,1140,855,0,0
-77,169,0,0,0,0,0,0,0,0,0,-1,1147,855,0,0
-70,169,0,0,0,0,0,0,0,0,0,-1,1154,855,0,0
-63,169,0,0,0,0,0,0,0,0,0,-1,1161,855,0,0
-56,169,0,0,0,0,0,0,0,0,0,-1,1168,855,0,0
-49,169,0,0,0,0,0,0,0,0,0,-1,1175,855,0,0
-42,169,0,0,0,0,0,0,0,0,0,-1,1182,855,0,0
-35,169,0,0,0,0,0,0,0,0,0,-1,1189,855,0,0
-28,169,0,0,0,0,0,0,0,0,0,-1,1196,855,0,0
-21,169,0,0,0,0,0,0,0,0,0,-1,1203,855,0,0
-14,169,0,0,0,0,0,0,0,0,0,-1,1210,855,0,0
-7,169,0,0,0,0,0,0,0,0,0,-1,1217,855,0,0
0,169,0,0,0,0,0,0,0,0,0,-1,1224,855,0,0
7,169,0,0,0,0,0,0,0,0,0,-1,1231,855,0,0
14,169,0,0,0,0,0,0,0,0,0,-1,1238,855,0,0
21,169,0,0,0,0,0,0,0,0,0,-1,1245,855,0,0
28,169,0,0,0,0,0,0,0,0,0,-1,1252,855,0,0
35,169,0,0,0,0,0,0,0,0,0,-1,1259,855,0,0
42,169,0,0,0,0,0,0,0,0,0,-1,1266,855,0,0
49,169,0,0,0,0,0,0,0,0,0,-1,1273,855,0,0
56,169,0,0,0,0,0,0,0,0,0,-1,1280,855,0,0
63,169,0,0,0,0,0,0,0,0,0,-1,1287,855,0,0
70,169,0,0,0,0,0,0,0,0,0,-1,1294,855,0,0
77,169,0,0,0,0,0,0,0,0,0,-1,1301,855,0,0
84,169,0,0,0,0,0,0,0,0,0,-1,1308,855,0,0
91,169,0,0,0,0,0,0,0,0,0,-1,1315,855,0,0
98,169,0,0,0,0,0,0,0,0,0,-1,1322,855,0,0
105,169,0,0,0,0,0,0,0,0,0,-1,1329,855,0,0
112,169,0,0,0,0,0,0,0,0,0,-1,1336,855,0,0
119,169,0,0,0,0,0,0,0,0,0,-1,1343,855,0,0
126,169,0,0,0,0,0,0,0,0,0,-1,1350,855,0,0
133,169,0,0,0,0,0,0,0,0,0,-1,1357,855,0,0
140,169,0,0,0,0,0,0,0,0,0,-1,1364,855,0,0
147,169,0,0,0,0,0,0,0,0,0,-1,1371,855,0,0
154,169,0,0,0,0,0,0,0,0,0,-1,1378,855,0,0
161,169,0,0,0,0,0,0,0,0,0,-1,1385,855,0,0
168,169,0,0,0,0,0,0,0,0,0,-1,1392,855,0,0
175,169,0,0,0,0,0,0,0,0,0,-1,1399,855,0,0
182,169,0,0,0,0,0,0,0,0,0,-1,1406,855,0,0
189,169,0,0,0,0,0,0,0,0,0,-1,1413,855,0,0
196,169,0,0,0,0,0,0,0,0,0,-1,1420,855,0,0
203,169,0,0,0,0,0,0,0,0,0,-1,1427,855,0,0
210,169,0,0,0,0,0,0,0,0,0,-1,1434,855,0,0
217,169,0,0,0,0,0,0,0,0,0,-1,1441,855,0,0
224,169,0,0,0,0,0,0,0,0,0,-1,1448,855,0,0
231,169,0,0,0,0,0,0,0,0,0,-1,1455,855,0,0
238,169,0,0,0,0,0,0,0,0,0,-1,1462,855,0,0
245,169,0,0,0,0,0,0,0,0,0,-1,1469,855,0,0
252,169,0,0,0,0,0,0,0,0,0,-1,1476,855,0,0
259,169,0,0,0,0,0,0,0,0,0,-1,1483,855,0,0
266,169,0,0,0,0,0,0,0,0,0,-1,1490,855,0,0
273,169,0,0,0,0,0,0,0,0,0,-1,1497,855,0,0
280,169,0,0,0,0,0,0,0,0,0,-1,1504,855,0,0
287,169,0,0,0,0,0,0,0,0,0,-1,1511,855,0,0
294,169,0,0,0,0,0,0,0,0,0,-1,1518,855,0,0
301,169,0,0,0,0,0,0,0,0,0,-1,1525,855,0,0
308,169,0,0,0,0,0,0,0,0,0,-1,1532,855,0,0
315,169,0,0,0,0,0,0,0,0,0,-1,1539,855,0,0
322,169,0,0,0,0,0,0,0,0,0,-1,1546,855,0,0
329,169,0,0,0,0,0,0,0,0,0,-1,1553,855,0,0
336,169,0,0,0,0,0,0,0,0,0,-1,1560,855,0,0
343,169,0,0,0,0,0,0,0,0,0,-1,1567,855,0,0
350,169,0,0,0,0,0,0,0,0,0,-1,1574,855,0,0
357,169,0,0,0,0,0,0,0,0,0,-1,1581,855,0,0
364,169,0,0,0,0,0,0,0,0,0,-1,1588,855,0,0
371,169,0,0,0,0,0,0,0,0,0,-1,1595,855,0,0
378,169,0,0,0,0,0,0,0,0,0,-1,1602,855,0,0
385,169,0,0,0,0,0,0,0,0,0,-1,1609,855,0,0
392,169,0,0,0,0,0,0,0,0,0,-1,1616,855,0,0
399,169,0,0,0,0,0,0,0,0,0,-1,1623,855,0,0
406,169,0,0,0,0,0,0,0,0,0,-1,1630,855,0,0
413,169,0,0,0,0,0,0,0,0,0,-1,1637,855,0,0
420,169,0,0,0,0,0,0,0,0,0,-1,1644,855,0,0
427,169,0,0,0,0,0,0,0,0,0,-1,1651,855,0,0
434,169,0,0,0,0,0,0,0,0,0,-1,1658,855,0,0
441,169,0,0,0,0,0,0,0,0,0,-1,1665,855,0,0
448,169,0,0,0,0,0,0,0,0,0,-1,1672,855,0,0
455,169,0,0,0,0,0,0,0,0,0,-1,1679,855,0,0
462,169,0,0,0,0,0,0,0,0,0,-1,1686,855,0,0
469,169,0,0,0,0,0,0,0,0,0,-1,1693,855,0,0
476,169,0,0,0,0,0,0,0,0,0,-1,1700,855,0,0
483,169,0,0,0,0,0,0,0,0,0,-1,1707,855,0,0
490,169,0,0,0,0,0,0,0,0,0,-1,1714,855,0,0
497,169,0,0,0,0,0,0,0,0,0,-1,1721,855,0,0
504,169,0,0,0,0,0,0,0,0,0,-1,1728,855,0,0
511,169,0,0,0,0,0,0,0,0,0,-1,1735,855,0,0
518,169,0,0,0,0,0,0,0,0,0,-1,1742,855,0,0
525,169,0,0,0,0,0,0,0,0,0,-1,1749,855,0,0
532,169,0,0,0,0,0,0,0,0,0,-1,1756,855,0,0
539,169,0,0,0,0,0,0,0,0,0,-1,1763,855,0,0
546,169,0,0,0,0,0,0,0,0,0,-1,1770,855,0,0
553,169,0,0,0,0,0,0,0,0,0,-1,1777,855,0,0
560,169,0,0,0,0,0,0,0,0,0,-1,1784,855,0,0
567,169,0,0,0,0,0,0,0,0,0,-1,1791,855,0,0
574,169,0,0,0,0,0,0,0,0,0,-1,1798,855,0,0
581,169,0,0,0,0,0,0,0,0,0,-1,1805,855,0,0
588,169,0,0,0,0,0,0,0,0,0,-1,1812,855,0,0
595,169,0,0,0,0,0,0,0,0,0,-1,1819,855,0,0
602,169,0,0,0,0,0,0,0,0,0,-1,1826,855,0,0
609,169,0,0,0,0,0,0,0,0,0,-1,1833,855,0,0
616,169,49.8674,2.53613,0.00042282,-0.00253319,-0.00212572,0.00153387,-0.00364424,-0.481618,0.00307123,0.0434124,1840,855,49.8674,-2.53614
623,169,49.8059,3.00208,-0.00061644,-0.00158858,-0.00159446,0.000564396,-0.00276941,-0.637449,0.00206034,0.0475003,1847,855,49.8059,-3.00209
630,169,49.8856,2.62128,-0.00147635,-0.000653305,-0.00120621,0.000209651,-0.0023393,-0.949791,0.00163391,0.0430885,1854,855,49.8856,-2.62125
637,169,49.7157,2.75568,-0.00217289,0.000166618,-0.000892357,0.00046813,-0.00247441,-1.24496,0.00182576,0.035815,1861,855,49.7157,-2.75565
644,169,49.73,2.72931,-0.00262677,0.000428572,-0.000787679,0.000619685,-0.00281789,-1.33277,0.00211562,0.0353205,1868,855,49.7299,-2.72929
651,169,49.6964,2.74194,-0.00276122,0.000336129,-0.000767576,0.000515912,-0.002941,-1.34072,0.00215334,0.0372573,1875,855,49.6964,-2.74195
658,169,49.7175,2.74017,-0.0027613,0.000183104,-0.000822583,0.000397325,-0.00297552,-1.31603,0.00212852,0.0356973,1882,855,49.7175,-2.7402
665,169,49.6849,2.94281,0,0,0,0,0,0,0,-1,1889,855,49.685,-2.94279
672,169,31.2465,2.96387,0,0,0,0,0,0,0,-1,1896,855,31.2464,-2.9639
679,169,38.4297,1.08197,0,0,0,0,0,0,0,-1,1903,855,38.4296,-1.08194
686,169,40.7556,1.51617,0,0,0,0,0,0,0,-1,1910,855,40.7556,-1.51615
693,169,40.7385,2.07153,-0.00199582,-0.000317366,-0.00106238,0.000197278,-0.00251046,-1.11969,0.00174312,0.0229109,1917,855,40.7385,-2.07151
700,169,40.7129,2.64331,-0.00178301,-0.00030659,-0.00111977,0.000296407,-0.002386,-1.07682,0.00169812,0.0208844,1924,855,40.7128,-2.64331
707,169,40.6442,3.14221,-0.00185858,2.16529e-05,-0.00126612,0.000658522,-0.00249545,-1.10475,0.00192114,0.0203382,1931,855,40.6441,-3.14222
714,169,40.5364,3.5816,-0.00163882,0.000597929,-0.00133202,0.00121882,-0.00225971,-1.13461,0.00203808,0.0144602,1938,855,40.5364,-3.58158
721,169,40.5183,4.10779,-0.00135368,0.00139976,-0.0013315,0.0019383,-0.00189223,-1.18645,0.00221161,0.0161211,1945,855,40.5183,-4.10776
728,169,40.4929,4.67236,-0.00102721,0.00277984,-0.00111629,0.00308301,-0.00133038,-1.30561,0.00261419,0.0132489,1952,855,40.4929,-4.67234
735,169,40.449,5.2149,-0.00070969,0.00453698,-0.00100039,0.00472126,-0.000893964,-1.38864,0.00348394,0.0185936,1959,855,40.449,-5.21488
742,169,40.4385,5.73578,-0.000406223,0.0067557,-0.000863714,0.00685839,-0.000508912,-1.45246,0.00475099,0.0155331,1966,855,40.4385,-5.73575
749,169,40.4281,6.20203,-7.1144e-05,0.00948801,-0.000659854,0.00953335,-0.000116477,-1.5022,0.00639474,0.0272707,1973,855,40.4282,-6.20203
756,169,40.564,6.6571,0,0,0,0,0,0,0,-1,1980,855,40.5639,-6.65712
763,169,40.7463,5.97388,0,0,0,0,0,0,0,-1,1987,855,40.7464,-5.97389
770,169,37.2059,3.97021,0,0,0,0,0,0,0,-1,1994,855,37.2059,-3.97022
777,169,41.7505,8.7085,0,0,0,0,0,0,0,-1,2001,855,41.7505,-8.70852
784,169,37.6997,9.83215,0,0,0,0,0,0,0,-1,2008,855,37.6997,-9.83216
791,169,0,0,0,0,0,0,0,0,0,-1,2015,855,0,0
798,169,0,0,0,0,0,0,0,0,0,-1,2022,855,0,0
805,169,0,0,0,0,0,0,0,0,0,-1,2029,855,0,0
812,169,0,0,0,0,0,0,0,0,0,-1,2036,855,0,0
-700,162,0,0,0,0,0,0,0,0,0,-1,524,862,0,0
-693,162,0,0,0,0,0,0,0,0,0,-1,531,862,0,0
-686,162,0,0,0,0,0,0,0,0,0,-1,538,862,0,0
-679,162,0,0,0,0,0,0,0,0,0,-1,545,862,0,0
-672,162,0,0,0,0,0,0,0,0,0,-1,552,862,0,0
-665,162,-33.2766,8.81995,0,0,0,0,0,0,0,-1,559,862,-33.2766,-8.81994
-658,162,-33.4402,8.51373,0,0,0,0,0,0,0,-1,566,862,-33.4402,-8.51374
-651,162,-31.4752,7.64276,0,0,0,0,0,0,0,-1,573,862,-31.4752,-7.64274
-644,162,-30.2794,4.29871,0,0,0,0,0,0,0,-1,580,862,-30.2794,-4.2987
-637,162,-30.1662,4.40515,0.0492764,0.0650487,0.0309903,0.0891406,0.0251846,0.909989,0.0530632,0.0470924,587,862,-30.1662,-4.40516
-630,162,-30.2075,4.46521,0.036825,0.051298,0.0224021,0.0676035,0.0205195,0.941622,0.0400227,0.0436281,594,862,-30.2074,-4.46521
-623,162,-29.6835,4.15027,0.0256597,0.0388919,0.0158162,0.04942,0.0151316,0.983494,0.0292384,0.0341948,601,862,-29.6835,-4.15028
-616,162,-29.7349,3.61005,0.0172445,0.0270876,0.0103898,0.0336626,0.0106695,1.00659,0.0198645,0.0217179,608,862,-29.7349,-3.61005
-609,162,-29.8024,3.08179,0.0107445,0.0175189,0.00661191,0.0215608,0.00670266,1.02211,0.0127415,0.0143048,615,862,-29.8024,-3.08176
-602,162,-29.8383,2.55817,0.00547612,0.00963252,0.00390666,0.0119794,0.00312929,1.02984,0.00717435,0.0115013,622,862,-29.8383,-2.55817
-595,162,-29.8394,2.05743,0.00229155,0.00432958,0.00256081,0.00606667,0.000554454,0.974757,0.00387288,0.0111354,629,862,-29.8394,-2.05742
-588,162,-29.8344,1.55743,0.00103728,0.00130945,0.00215521,0.00333286,-0.000986136,0.816928,0.00261339,0.0117213,636,862,-29.8344,-1.55741
-581,162,-30.0375,1.05682,0.000874883,0.000265095,0.00230368,0.00289376,-0.00175378,0.719605,0.00271003,0.0258987,643,862,-30.0375,-1.0568
-574,162,-30.294,0.522827,0.000552429,2.65825e-05,0.00239783,0.0027017,-0.00212269,0.730791,0.00279204,0.0374149,650,862,-30.294,-0.522798
-567,162,-30.2372,0.00177002,0.000333495,0.000165592,0.00207635,0.00232759,-0.0018285,0.765193,0.00240528,0.0431446,657,862,-30.2372,-0.00178949
-560,162,-30.0107,-0.642395,0.000234894,0.00027243,0.00150815,0.00176193,-0.00125461,0.79162,0.00174979,0.0410558,664,862,-30.0108,0.642409
-553,162,-29.6144,-1.31213,0,0,0,0,0,0,0,-1,671,862,-29.6144,1.31214
-546,162,-22.8181,-1.51154,0,0,0,0,0,0,0,-1,678,862,-22.8181,1.51155
-539,162,-37.3118,0.89386,0,0,0,0,0,0,0,-1,685,862,-37.3118,-0.89384
-532,162,-37.2178,1.04224,0.00043313,1.57363e-05,0.00067625,0.000932154,-0.000483287,0.63573,0.00083079,0.0395481,692,862,-37.2178,-1.04225
-525,162,-37.2134,1.14905,0.000383768,0.000223714,0.000247914,0.000564251,4.32307e-05,0.629278,0.000362617,0.0422057,699,862,-37.2134,-1.14903
-518,162,-37.3092,1.13641,9.27167e-05,6.23418e-05,0.000108396,0.000186984,-3.19252e-05,0.715796,0.000136547,0.0409329,706,862,-37.3092,-1.13639
-511,162,-37.2891,0.653931,0.000601374,-0.000991308,0.000542462,0.00076858,-0.00115851,0.298996,0.00112018,0.0409043,713,862,-37.2891,-0.65394
-504,162,-37.3845,0.492065,0.00350232,-0.00264489,0.00216453,0.004188,-0.00333057,0.306781,0.00435025,0.0425993,720,862,-37.3845,-0.492096
-497,162,-37.3625,0.90155,0.00735765,-0.00527038,0.00509823,0.00915897,-0.0070717,0.339632,0.00939657,0.0411943,727,862,-37.3626,-0.901541
-490,162,0,0,0,0,0,0,0,0,0,-1,734,862,0,0
-483,162,0,0,0,0,0,0,0,0,0,-1,741,862,0,0
-476,162,0,0,0,0,0,0,0,0,0,-1,748,862,0,0
-469,162,0,0,0,0,0,0,0,0,0,-1,755,862,0,0
-462,162,0,0,0,0,0,0,0,0,0,-1,762,862,0,0
-455,162,0,0,0,0,0,0,0,0,0,-1,769,862,0,0
-448,162,0,0,0,0,0,0,0,0,0,-1,776,862,0,0
-441,162,0,0,0,0,0,0,0,0,0,-1,783,862,0,0
-434,162,0,0,0,0,0,0,0,0,0,-1,790,862,0,0
-427,162,0,0,0,0,0,0,0,0,0,-1,797,862,0,0
-420,162,0,0,0,0,0,0,0,0,0,-1,804,862,0,0
-413,162,0,0,0,0,0,0,0,0,0,-1,811,862,0,0
-406,162,0,0,0,0,0,0,0,0,0,-1,818,862,0,0
-399,162,0,0,0,0,0,0,0,0,0,-1,825,862,0,0
-392,162,0,0,0,0,0,0,0,0,0,-1,832,862,0,0
-385,162,0,0,0,0,0,0,0,0,0,-1,839,862,0,0
-378,162,0,0,0,0,0,0,0,0,0,-1,846,862,0,0
-371,162,0,0,0,0,0,0,0,0,0,-1,853,862,0,0
-364,162,0,0,0,0,0,0,0,0,0,-1,860,862,0,0
-357,162,0,0,0,0,0,0,0,0,0,-1,867,862,0,0
-350,162,0,0,0,0,0,0,0,0,0,-1,874,862,0,0
-343,162,0,0,0,0,0,0,0,0,0,-1,881,862,0,0
-336,162,0,0,0,0,0,0,0,0,0,-1,888,862,0,0
-329,162,0,0,0,0,0,0,0,0,0,-1,895,862,0,0
-322,162,0,0,0,0,0,0,0,0,0,-1,902,862,0,0
-315,162,0,0,0,0,0,0,0,0,0,-1,909,862,0,0
-308,162,0,0,0,0,0,0,0,0,0,-1,916,862,0,0
-301,162,0,0,0,0,0,0,0,0,0,-1,923,862,0,0
-294,162,0,0,0,0,0,0,0,0,0,-1,930,862,0,0
-287,162,0,0,0,0,0,0,0,0,0,-1,937,862,0,0
-280,162,0,0,0,0,0,0,0,0,0,-1,944,862,0,0
-273,162,0,0,0,0,0,0,0,0,0,-1,951,862,0,0
-266,162,0,0,0,0,0,0,0,0,0,-1,958,862,0,0
-259,162,0,0,0,0,0,0,0,0,0,-1,965,862,0,0
-252,162,0,0,0,0,0,0,0,0,0,-1,972,862,0,0
-245,162,0,0,0,0,0,0,0,0,0,-1,979,862,0,0
-238,162,0,0,0,0,0,0,0,0,0,-1,986,862,0,0
-231,162,0,0,0,0,0,0,0,0,0,-1,993,862,0,0
-224,162,0,0,0,0,0,0,0,0,0,-1,1000,862,0,0
-217,162,0,0,0,0,0,0,0,0,0,-1,1007,862,0,0
-210,162,0,0,0,0,0,0,0,0,0,-1,1014,862,0,0
-203,162,0,0,0,0,0,0,0,0,0,-1,1021,862,0,0
-196,162,0,0,0,0,0,0,0,0,0,-1,1028,862,0,0
-189,162,0,0,0,0,0,0,0,0,0,-1,1035,862,0,0
-182,162,0,0,0,0,0,0,0,0,0,-1,1042,862,0,0
-175,162,0,0,0,0,0,0,0,0,0,-1,1049,862,0,0
-168,162,0,0,0,0,0,0,0,0,0,-1,1056,862,0,0
-161,162,0,0,0,0,0,0,0,0,0,-1,1063,862,0,0
-154,162,0,0,0,0,0,0,0,0,0,-1,1070,862,0,0
-147,162,0,0,0,0,0,0,0,0,0,-1,1077,862,0,0
-140,162,0,0,0,0,0,0,0,0,0,-1,1084,862,0,0
-133,162,0,0,0,0,0,0,0,0,0,-1,1091,862,0,0
-126,162,0,0,0,0,0,0,0,0,0,-1,1098,862,0,0
-119,162,0,0,0,0,0,0,0,0,0,-1,1105,862,0,0
-112,162,0,0,0,0,0,0,0,0,0,-1,1112,862,0,0
-105,162,0,0,0,0,0,0,0,0,0,-1,1119,862,0,0
-98,162,0,0,0,0,0,0,0,0,0,-1,1126,862,0,0
-91,162,0,0,0,0,0,0,0,0,0,-1,1133,862,0,0
-84,162,0,0,0,0,0,0,0,0,0,-1,1140,862,0,0
-77,162,0,0,0,0,0,0,0,0,0,-1,1147,862,0,0
-70,162,0,0,0,0,0,0,0,0,0,-1,1154,862,0,0
-63,162,0,0,0,0,0,0,0,0,0,-1,1161,862,0,0
-56,162,0,0,0,0,0,0,0,0,0,-1,1168,862,0,0
-49,162,0,0,0,0,0,0,0,0,0,-1,1175,862,0,0
-42,162,0,0,0,0,0,0,0,0,0,-1,1182,862,0,0
-35,162,0,0,0,0,0,0,0,0,0,-1,1189,862,0,0
-28,162,0,0,0,0,0,0,0,0,0,-1,1196,862,0,0
-21,162,0,0,0,0,0,0,0,0,0,-1,1203,862,0,0
-14,162,0,0,0,0,0,0,0,0,0,-1,1210,862,0,0
-7,162,0,0,0,0,0,0,0,0,0,-1,1217,862,0,0
0,162,0,0,0,0,0,0,0,0,0,-1,1224,862,0,0
7,162,0,0,0,0,0,0,0,0,0,-1,1231,862,0,0
14,162,0,0,0,0,0,0,0,0,0,-1,1238,862,0,0
21,162,0,0,0,0,0,0,0,0,0,-1,1245,862,0,0
28,162,0,0,0,0,0,0,0,0,0,-1,1252,862,0,0
35,162,0,0,0,0,0,0,0,0,0,-1,1259,862,0,0
42,162,0,0,0,0,0,0,0,0,0,-1,1266,862,0,0
49,162,0,0,0,0,0,0,0,0,0,-1,1273,862,0,0
56,162,0,0,0,0,0,0,0,0,0,-1,1280,862,0,0
63,162,0,0,0,0,0,0,0,0,0,-1,1287,862,0,0
70,162,0,0,0,0,0,0,0,0,0,-1,1294,862,0,0
77,162,0,0,0,0,0,0,0,0,0,-1,1301,862,0,0
84,162,0,0,0,0,0,0,0,0,0,-1,1308,862,0,0
91,162,0,0,0,0,0,0,0,0,0,-1,1315,862,0,0
98,162,0,0,0,0,0,0,0,0,0,-1,1322,862,0,0
105,162,0,0,0,0,0,0,0,0,0,-1,1329,862,0,0
112,162,0,0,0,0,0,0,0,0,0,-1,1336,862,0,0
119,162,0,0,0,0,0,0,0,0,0,-1,1343,862,0,0
126,162,0,0,0,0,0,0,0,0,0,-1,1350,862,0,0
133,162,0,0,0,0,0,0,0,0,0,-1,1357,862,0,0
140,162,0,0,0,0,0,0,0,0,0,-1,1364,862,0,0
147,162,0,0,0,0,0,0,0,0,0,-1,1371,862,0,0
154,162,0,0,0,0,0,0,0,0,0,-1,1378,862,0,0
161,162,0,0,0,0,0,0,0,0,0,-1,1385,862,0,0
168,162,0,0,0,0,0,0,0,0,0,-1,1392,862,0,0
175,162,0,0,0,0,0,0,0,0,0,-1,1399,862,0,0
182,162,0,0,0,0,0,0,0,0,0,-1,1406,862,0,0
189,162,0,0,0,0,0,0,0,0,0,-1,1413,862,0,0
196,162,0,0,0,0,0,0,0,0,0,-1,1420,862,0,0
203,162,0,0,0,0,0,0,0,0,0,-1,1427,862,0,0
210,162,0,0,0,0,0,0,0,0,0,-1,1434,862,0,0
217,162,0,0,0,0,0,0,0,0,0,-1,1441,862,0,0
224,162,0,0,0,0,0,0,0,0,0,-1,1448,862,0,0
231,162,0,0,0,0,0,0,0,0,0,-1,1455,862,0,0
238,162,0,0,0,0,0,0,0,0,0,-1,1462,862,0,0
245,162,0,0,0,0,0,0,0,0,0,-1,1469,862,0,0
252,162,0,0,0,0,0,0,0,0,0,-1,1476,862,0,0
259,162,0,0,0,0,0,0,0,0,0,-1,1483,862,0,0
266,162,0,0,0,0,0,0,0,0,0,-1,1490,862,0,0
273,162,0,0,0,0,0,0,0,0,0,-1,1497,862,0,0
280,162,0,0,0,0,0,0,0,0,0,-1,1504,862,0,0
287,162,0,0,0,0,0,0,0,0,0,-1,1511,862,0,0
294,162,0,0,0,0,0,0,0,0,0,-1,1518,862,0,0
301,162,0,0,0,0,0,0,0,0,0,-1,1525,862,0,0
308,162,0,0,0,0,0,0,0,0,0,-1,1532,862,0,0
315,162,0,0,0,0,0,0,0,0,0,-1,1539,862,0,0
322,162,0,0,0,0,0,0,0,0,0,-1,1546,862,0,0
329,162,0,0,0,0,0,0,0,0,0,-1,1553,862,0,0
336,162,0,0,0,0,0,0,0,0,0,-1,1560,862,0,0
343,162,0,0,0,0,0,0,0,0,0,-1,1567,862,0,0
350,162,0,0,0,0,0,0,0,0,0,-1,1574,862,0,0
357,162,0,0,0,0,0,0,0,0,0,-1,1581,862,0,0
364,162,0,0,0,0,0,0,0,0,0,-1,1588,862,0,0
371,162,0,0,0,0,0,0,0,0,0,-1,1595,862,0,0
378,162,0,0,0,0,0,0,0,0,0,-1,1602,862,0,0
385,162,0,0,0,0,0,0,0,0,0,-1,1609,862,0,0
392,162,0,0,0,0,0,0,0,0,0,-1,1616,862,0,0
399,162,0,0,0,0,0,0,0,0,0,-1,1623,862,0,0
406,162,0,0,0,0,0,0,0,0,0,-1,1630,862,0,0
413,162,0,0,0,0,0,0,0,0,0,-1,1637,862,0,0
420,162,0,0,0,0,0,0,0,0,0,-1,1644,862,0,0
427,162,0,0,0,0,0,0,0,0,0,-1,1651,862,0,0
434,162,0,0,0,0,0,0,0,0,0,-1,1658,862,0,0
441,162,0,0,0,0,0,0,0,0,0,-1,1665,862,0,0
448,162,0,0,0,0,0,0,0,0,0,-1,1672,862,0,0
455,162,0,0,0,0,0,0,0,0,0,-1,1679,862,0,0
462,162,0,0,0,0,0,0,0,0,0,-1,1686,862,0,0
469,162,0,0,0,0,0,0,0,0,0,-1,1693,862,0,0
476,162,0,0,0,0,0,0,0,0,0,-1,1700,862,0,0
483,162,0,0,0,0,0,0,0,0,0,-1,1707,862,0,0
490,162,0,0,0,0,0,0,0,0,0,-1,1714,862,0,0
497,162,0,0,0,0,0,0,0,0,0,-1,1721,862,0,0
504,162,0,0,0,0,0,0,0,0,0,-1,1728,862,0,0
511,162,0,0,0,0,0,0,0,0,0,-1,1735,862,0,0
518,162,0,0,0,0,0,0,0,0,0,-1,1742,862,0,0
525,162,0,0,0,0,0,0,0,0,0,-1,1749,862,0,0
532,162,0,0,0,0,0,0,0,0,0,-1,1756,862,0,0
539,162,0,0,0,0,0,0,0,0,0,-1,1763,862,0,0
546,162,0,0,0,0,0,0,0,0,0,-1,1770,862,0,0
553,162,0,0,0,0,0,0,0,0,0,-1,1777,862,0,0
560,162,0,0,0,0,0,0,0,0,0,-1,1784,862,0,0
567,162,0,0,0,0,0,0,0,0,0,-1,1791,862,0,0
574,162,0,0,0,0,0,0,0,0,0,-1,1798,862,0,0
581,162,0,0,0,0,0,0,0,0,0,-1,1805,862,0,0
588,162,0,0,0,0,0,0,0,0,0,-1,1812,862,0,0
595,162,0,0,0,0,0,0,0,0,0,-1,1819,862,0,0
602,162,0,0,0,0,0,0,0,0,0,-1,1826,862,0,0
609,162,0,0,0,0,0,0,0,0,0,-1,1833,862,0,0
616,162,49.8195,3.04272,-1.10086e-05,-0.00344101,-0.00241275,0.00123415,-0.00468617,-0.476427,0.00360659,0.0444813,1840,862,49.8194,-3.04273
623,162,49.8064,2.93372,-0.00108787,-0.00252636,-0.00186581,0.000192521,-0.00380675,-0.601432,0.00260438,0.0469254,1847,862,49.8064,-2.93374
630,162,49.6976,2.78235,-0.00178639,-0.00163738,-0.00142106,-0.000288872,-0.0031349,-0.81159,0.0020006,0.0423893,1854,862,49.6977,-2.78232
637,162,49.6637,2.70142,-0.00223296,-0.000671144,-0.000953846,-0.000219315,-0.00268479,-1.12842,0.00172142,0.0379862,1861,862,49.6637,-2.70141
644,162,49.7035,2.61414,-0.00249856,-0.000229689,-0.000732533,-1.37368e-05,-0.00271451,-1.28411,0.00180511,0.0372486,1868,862,49.7035,-2.61411
651,162,49.7065,2.61261,-0.00251708,-0.000185269,-0.000639073,-2.16067e-05,-0.00268075,-1.32009,0.00178001,0.0358364,1875,862,49.7065,-2.61263
658,162,49.7222,2.69775,-0.00243493,-0.000231437,-0.000624126,-6.69381e-05,-0.00259943,-1.31309,0.00171108,0.0352114,1882,862,49.7222,-2.69776
665,162,49.7153,2.82391,-0.00248445,-0.00026852,-0.000739664,-4.43102e-05,-0.00270866,-1.27648,0.00179119,0.0453051,1889,862,49.7154,-2.82392
672,162,49.7023,2.88379,0,0,0,0,0,0,0,-1,1896,862,49.7022,-2.88376
679,162,26.5077,2.54785,0,0,0,0,0,0,0,-1,1903,862,26.5077,-2.54787
686,162,41.0264,1.3573,0,0,0,0,0,0,0,-1,1910,862,41.0264,-1.35728
693,162,41.2689,2.12378,-0.00164659,-0.000360785,-0.000891626,9.55496e-05,-0.00210292,-1.09775,0.00143486,0.0260987,1917,862,41.2689,-2.12379
700,162,41.2471,2.63245,-0.00150445,-0.000258932,-0.00100711,0.000302415,-0.0020658,-1.0623,0.00148828,0.0252736,1924,862,41.2471,-2.63246
707,162,41.1636,3.11218,-0.00163756,0.000106931,-0.00113479,0.000665965,-0.00219659,-1.11306,0.00172966,0.0187394,1931,862,41.1636,-3.1122
714,162,41.0674,3.58618,-0.00151931,0.000593557,-0.00120236,0.00113766,-0.00206341,-1.14584,0.00187372,0.0212773,1938,862,41.0674,-3.58615
721,162,40.9979,4.1886,-0.00134617,0.00126293,-0.00126985,0.00177892,-0.00186216,-1.18484,0.00210236,0.0282514,1945,862,40.998,-4.1886
728,162,40.9779,4.70435,-0.00117976,0.00244757,-0.00115213,0.00278258,-0.00151477,-1.28783,0.00251681,0.0230637,1952,862,40.9779,-4.70432
735,162,40.995,5.23132,-0.000964974,0.00393834,-0.00111009,0.00417795,-0.00120459,-1.35821,0.00326184,0.01129,1959,862,40.995,-5.23131
742,162,40.9775,5.74255,-0.000689989,0.00585534,-0.00100589,0.00600644,-0.000841085,-1.4217,0.00431208,0.0125504,1966,862,40.9775,-5.74253
749,162,40.9586,6.25458,-0.000311654,0.0081797,-0.000801678,0.00825473,-0.000386679,-1.47748,0.00563647,0.0190336,1973,862,40.9586,-6.2546
756,162,40.9736,6.81287,0.000413863,0.0111288,-0.00029159,0.0111367,0.000405934,-1.54361,0.00729295,0.0437004,1980,862,40.9736,-6.81288
763,162,41.4421,7.54657,0,0,0,0,0,0,0,-1,1987,862,41.4421,-7.54656
770,162,41.4475,8.05402,0,0,0,0,0,0,0,-1,1994,862,41.4475,-8.054
777,162,41.5211,8.40649,0,0,0,0,0,0,0,-1,2001,862,41.5211,-8.40648
784,162,41.6035,8.97766,0,0,0,0,0,0,0,-1,2008,862,41.6035,-8.97765
791,162,0,0,0,0,0,0,0,0,0,-1,2015,862,0,0
798,162,0,0,0,0,0,0,0,0,0,-1,2022,862,0,0
805,162,0,0,0,0,0,0,0,0,0,-1,2029,862,0,0
812,162,0,0,0,0,0,0,0,0,0,-1,2036,862,0,0
-700,155,0,0,0,0,0,0,0,0,0,-1,524,869,0,0
-693,155,0,0,0,0,0,0,0,0,0,-1,531,869,0,0
-686,155,0,0,0,0,0,0,0,0,0,-1,538,869,0,0
-679,155,0,0,0,0,0,0,0,0,0,-1,545,869,0,0
-672,155,0,0,0,0,0,0,0,0,0,-1,552,869,0,0
-665,155,-33.1615,8.08392,0,0,0,0,0,0,0,-1,559,869,-33.1615,-8.0839
-658,155,-33.2554,7.73621,0,0,0,0,0,0,0,-1,566,869,-33.2553,-7.73623
-651,155,-32.5104,7.12701,0,0,0,0,0,0,0,-1,573,869,-32.5104,-7.12704
-644,155,-31.7914,6.36261,0,0,0,0,0,0,0,-1,580,869,-31.7914,-6.36263
-637,155,-31.0716,3.80286,0,0,0,0,0,0,0,-1,587,869,-31.0716,-3.80284
-630,155,-30.6779,3.99133,0.0333172,0.0434428,0.0184987,0.057559,0.019201,0.918971,0.0338396,0.0460725,594,869,-30.6779,-3.99131
-623,155,-30.1788,4.18073,0.0224653,0.0331412,0.0133475,0.0421785,0.013428,0.975617,0.0248816,0.0267592,601,869,-30.1788,-4.18073
-616,155,-30.256,3.62543,0.0146744,0.0227473,0.0088284,0.0284183,0.00900348,0.999815,0.0167703,0.0163883,608,869,-30.256,-3.62542
-609,155,-30.3303,3.07544,0.00870051,0.0143078,0.00570516,0.017861,0.00514734,1.01378,0.010616,0.0151232,615,869,-30.3303,-3.07543
-602,155,-30.3679,2.55426,0.00403151,0.00744406,0.00352533,0.00965433,0.00182124,1.01078,0.00592322,0.0131788,622,869,-30.3679,-2.55424
-595,155,-30.3788,2.06384,0.00146294,0.00307322,0.00249564,0.00489038,-0.000354219,0.941437,0.00338451,0.0122481,629,869,-30.3788,-2.06385
-588,155,-30.3524,1.61346,0.000679411,0.000853668,0.00216502,0.00293331,-0.00140023,0.805509,0.00255363,0.0154468,636,869,-30.3524,-1.61344
-581,155,-30.6114,1.23499,0.000691736,0.000255017,0.00227357,0.00275741,-0.00181065,0.737524,0.00265618,0.0313746,643,869,-30.6114,-1.23496
-574,155,-30.7303,0.800354,0.000310032,6.43977e-05,0.00231172,0.0025022,-0.00212777,0.758859,0.00267602,0.0367496,650,869,-30.7303,-0.800368
-567,155,-30.689,0.129211,4.04218e-05,0.000204785,0.00198015,0.00210446,-0.00185925,0.806138,0.00228991,0.0445537,657,869,-30.689,-0.129197
-560,155,-30.5657,-0.493347,3.96323e-05,0.000241383,0.00147996,0.0016239,-0.00134289,0.819426,0.00171544,0.0387774,664,869,-30.5657,0.49333
-553,155,-30.3036,-1.37634,0,0,0,0,0,0,0,-1,671,869,-30.3036,1.37634
-546,155,-22.7988,0.873657,0,0,0,0,0,0,0,-1,678,869,-22.7988,-0.873645
-539,155,-37.3293,0.810791,0,0,0,0,0,0,0,-1,685,869,-37.3293,-0.810792
-532,155,-37.2778,0.953369,0.000322902,-9.09929e-05,0.000724767,0.000869688,-0.00063778,0.646331,0.000873763,0.0362228,692,869,-37.2778,-0.953341
-525,155,-37.2525,1.05981,0.000132613,-0.000173101,0.000381774,0.000390994,-0.000431481,0.594979,0.000475048,0.0391959,699,869,-37.2525,-1.05981
-518,155,-37.345,1.00861,-0.00025478,-0.000856201,0.000393028,-6.06191e-05,-0.00105036,0.458847,0.000680935,0.0424476,706,869,-37.345,-1.00858
-511,155,-37.2466,0.703613,0.000414935,-0.0027218,0.00111178,0.000769024,-0.00307588,0.30833,0.00234927,0.0418012,713,869,-37.2466,-0.703596
-504,155,-37.1718,0.788574,0.00357892,-0.00508545,0.00318055,0.00462109,-0.00612762,0.316646,0.00622606,0.0416563,720,869,-37.1717,-0.788586
-497,155,0,0,0,0,0,0,0,0,0,-1,727,869,0,0
-490,155,0,0,0,0,0,0,0,0,0,-1,734,869,0,0
-483,155,0,0,0,0,0,0,0,0,0,-1,741,869,0,0
-476,155,0,0,0,0,0,0,0,0,0,-1,748,869,0,0
-469,155,0,0,0,0,0,0,0,0,0,-1,755,869,0,0
-462,155,0,0,0,0,0,0,0,0,0,-1,762,869,0,0
-455,155,0,0,0,0,0,0,0,0,0,-1,769,869,0,0
-448,155,0,0,0,0,0,0,0,0,0,-1,776,869,0,0
-441,155,0,0,0,0,0,0,0,0,0,-1,783,869,0,0
-434,155,0,0,0,0,0,0,0,0,0,-1,790,869,0,0
-427,155,0,0,0,0,0,0,0,0,0,-1,797,869,0,0
-420,155,0,0,0,0,0,0,0,0,0,-1,804,869,0,0
-413,155,0,0,0,0,0,0,0,0,0,-1,811,869,0,0
-406,155,0,0,0,0,0,0,0,0,0,-1,818,869,0,0
-399,155,0,0,0,0,0,0,0,0,0,-1,825,869,0,0
-392,155,0,0,0,0,0,0,0,0,0,-1,832,869,0,0
-385,155,0,0,0,0,0,0,0,0,0,-1,839,869,0,0
-378,155,0,0,0,0,0,0,0,0,0,-1,846,869,0,0
-371,155,0,0,0,0,0,0,0,0,0,-1,853,869,0,0
-364,155,0,0,0,0,0,0,0,0,0,-1,860,869,0,0
-357,155,0,0,0,0,0,0,0,0,0,-1,867,869,0,0
-350,155,0,0,0,0,0,0,0,0,0,-1,874,869,0,0
-343,155,0,0,0,0,0,0,0,0,0,-1,881,869,0,0
-336,155,0,0,0,0,0,0,0,0,0,-1,888,869,0,0
-329,155,0,0,0,0,0,0,0,0,0,-1,895,869,0,0
-322,155,0,0,0,0,0,0,0,0,0,-1,902,869,0,0
-315,155,0,0,0,0,0,0,0,0,0,-1,909,869,0,0
-308,155,0,0,0,0,0,0,0,0,0,-1,916,869,0,0
-301,155,0,0,0,0,0,0,0,0,0,-1,923,869,0,0
-294,155,0,0,0,0,0,0,0,0,0,-1,930,869,0,0
-287,155,0,0,0,0,0,0,0,0,0,-1,937,869,0,0
-280,155,0,0,0,0,0,0,0,0,0,-1,944,869,0,0
-273,155,0,0,0,0,0,0,0,0,0,-1,951,869,0,0
-266,155,0,0,0,0,0,0,0,0,0,-1,958,869,0,0
-259,155,0,0,0,0,0,0,0,0,0,-1,965,869,0,0
-252,155,0,0,0,0,0,0,0,0,0,-1,972,869,0,0
-245,155,0,0,0,0,0,0,0,0,0,-1,979,869,0,0
-238,155,0,0,0,0,0,0,0,0,0,-1,986,869,0,0
-231,155,0,0,0,0,0,0,0,0,0,-1,993,869,0,0
-224,155,0,0,0,0,0,0,0,0,0,-1,1000,869,0,0
-217,155,0,0,0,0,0,0,0,0,0,-1,1007,869,0,0
-210,155,0,0,0,0,0,0,0,0,0,-1,1014,869,0,0
-203,155,0,0,0,0,0,0,0,0,0,-1,1021,869,0,0
-196,155,0,0,0,0,0,0,0,0,0,-1,1028,869,0,0
-189,155,0,0,0,0,0,0,0,0,0,-1,1035,869,0,0
-182,155,0,0,0,0,0,0,0,0,0,-1,1042,869,0,0
-175,155,0,0,0,0,0,0,0,0,0,-1,1049,869,0,0
-168,155,0,0,0,0,0,0,0,0,0,-1,1056,869,0,0
-161,155,0,0,0,0,0,0,0,0,0,-1,1063,869,0,0
-154,155,0,0,0,0,0,0,0,0,0,-1,1070,869,0,0
-147,155,0,0,0,0,0,0,0,0,0,-1,1077,869,0,0
-140,155,0,0,0,0,0,0,0,0,0,-1,1084,869,0,0
-133,155,0,0,0,0,0,0,0,0,0,-1,1091,869,0,0
-126,155,0,0,0,0,0,0,0,0,0,-1,1098,869,0,0
-119,155,0,0,0,0,0,0,0,0,0,-1,1105,869,0,0
-112,155,0,0,0,0,0,0,0,0,0,-1,1112,869,0,0
-105,155,0,0,0,0,0,0,0,0,0,-1,1119,869,0,0
-98,155,0,0,0,0,0,0,0,0,0,-1,1126,869,0,0
-91,155,0,0,0,0,0,0,0,0,0,-1,1133,869,0,0
-84,155,0,0,0,0,0,0,0,0,0,-1,1140,869,0,0
-77,155,0,0,0,0,0,0,0,0,0,-1,1147,869,0,0
-70,155,0,0,0,0,0,0,0,0,0,-1,1154,869,0,0
-63,155,0,0,0,0,0,0,0,0,0,-1,1161,869,0,0
-56,155,0,0,0,0,0,0,0,0,0,-1,1168,869,0,0
-49,155,0,0,0,0,0,0,0,0,0,-1,1175,869,0,0
-42,155,0,0,0,0,0,0,0,0,0,-1,1182,869,0,0
-35,155,0,0,0,0,0,0,0,0,0,-1,1189,869,0,0
-28,155,0,0,0,0,0,0,0,0,0,-1,1196,869,0,0
-21,155,0,0,0,0,0,0,0,0,0,-1,1203,869,0,0
-14,155,0,0,0,0,0,0,0,0,0,-1,1210,869,0,0
-7,155,0,0,0,0,0,0,0,0,0,-1,1217,869,0,0
0,155,0,0,0,0,0,0,0,0,0,-1,1224,869,0,0
7,155,0,0,0,0,0,0,0,0,0,-1,1231,869,0,0
14,155,0,0,0,0,0,0,0,0,0,-1,1238,869,0,0
21,155,0,0,0,0,0,0,0,0,0,-1,1245,869,0,0
28,155,0,0,0,0,0,0,0,0,0,-1,1252,869,0,0
35,155,0,0,0,0,0,0,0,0,0,-1,1259,869,0,0
42,155,0,0,0,0,0,0,0,0,0,-1,1266,869,0,0
49,155,0,0,0,0,0,0,0,0,0,-1,1273,869,0,0
56,155,0,0,0,0,0,0,0,0,0,-1,1280,869,0,0
63,155,0,0,0,0,0,0,0,0,0,-1,1287,869,0,0
70,155,0,0,0,0,0,0,0,0,0,-1,1294,869,0,0
77,155,0,0,0,0,0,0,0,0,0,-1,1301,869,0,0
84,155,0,0,0,0,0,0,0,0,0,-1,1308,869,0,0
91,155,0,0,0,0,0,0,0,0,0,-1,1315,869,0,0
98,155,0,0,0,0,0,0,0,0,0,-1,1322,869,0,0
105,155,0,0,0,0,0,0,0,0,0,-1,1329,869,0,0
112,155,0,0,0,0,0,0,0,0,0,-1,1336,869,0,0
119,155,0,0,0,0,0,0,0,0,0,-1,1343,869,0,0
126,155,0,0,0,0,0,0,0,0,0,-1,1350,869,0,0
133,155,0,0,0,0,0,0,0,0,0,-1,1357,869,0,0
140,155,0,0,0,0,0,0,0,0,0,-1,1364,869,0,0
147,155,0,0,0,0,0,0,0,0,0,-1,1371,869,0,0
154,155,0,0,0,0,0,0,0,0,0,-1,1378,869,0,0
161,155,0,0,0,0,0,0,0,0,0,-1,1385,869,0,0
168,155,0,0,0,0,0,0,0,0,0,-1,1392,869,0,0
175,155,0,0,0,0,0,0,0,0,0,-1,1399,869,0,0
182,155,0,0,0,0,0,0,0,0,0,-1,1406,869,0,0
189,155,0,0,0,0,0,0,0,0,0,-1,1413,869,0,0
196,155,0,0,0,0,0,0,0,0,0,-1,1420,869,0,0
203,155,0,0,0,0,0,0,0,0,0,-1,1427,869,0,0
210,155,0,0,0,0,0,0,0,0,0,-1,1434,869,0,0
217,155,0,0,0,0,0,0,0,0,0,-1,1441,869,0,0
224,155,0,0,0,0,0,0,0,0,0,-1,1448,869,0,0
231,155,0,0,0,0,0,0,0,0,0,-1,1455,869,0,0
238,155,0,0,0,0,0,0,0,0,0,-1,1462,869,0,0
245,155,0,0,0,0,0,0,0,0,0,-1,1469,869,0,0
252,155,0,0,0,0,0,0,0,0,0,-1,1476,869,0,0
259,155,0,0,0,0,0,0,0,0,0,-1,1483,869,0,0
266,155,0,0,0,0,0,0,0,0,0,-1,1490,869,0,0
273,155,0,0,0,0,0,0,0,0,0,-1,1497,869,0,0
280,155,0,0,0,0,0,0,0,0,0,-1,1504,869,0,0
287,155,0,0,0,0,0,0,0,0,0,-1,1511,869,0,0
294,155,0,0,0,0,0,0,0,0,0,-1,1518,869,0,0
301,155,0,0,0,0,0,0,0,0,0,-1,1525,869,0,0
308,155,0,0,0,0,0,0,0,0,0,-1,1532,869,0,0
315,155,0,0,0,0,0,0,0,0,0,-1,1539,869,0,0
322,155,0,0,0,0,0,0,0,0,0,-1,1546,869,0,0
329,155,0,0,0,0,0,0,0,0,0,-1,1553,869,0,0
336,155,0,0,0,0,0,0,0,0,0,-1,1560,869,0,0
343,155,0,0,0,0,0,0,0,0,0,-1,1567,869,0,0
350,155,0,0,0,0,0,0,0,0,0,-1,1574,869,0,0
357,155,0,0,0,0,0,0,0,0,0,-1,1581,869,0,0
364,155,0,0,0,0,0,0,0,0,0,-1,1588,869,0,0
371,155,0,0,0,0,0,0,0,0,0,-1,1595,869,0,0
378,155,0,0,0,0,0,0,0,0,0,-1,1602,869,0,0
385,155,0,0,0,0,0,0,0,0,0,-1,1609,869,0,0
392,155,0,0,0,0,0,0,0,0,0,-1,1616,869,0,0
399,155,0,0,0,0,0,0,0,0,0,-1,1623,869,0,0
406,155,0,0,0,0,0,0,0,0,0,-1,1630,869,0,0
413,155,0,0,0,0,0,0,0,0,0,-1,1637,869,0,0
420,155,0,0,0,0,0,0,0,0,0,-1,1644,869,0,0
427,155,0,0,0,0,0,0,0,0,0,-1,1651,869,0,0
434,155,0,0,0,0,0,0,0,0,0,-1,1658,869,0,0
441,155,0,0,0,0,0,0,0,0,0,-1,1665,869,0,0
448,155,0,0,0,0,0,0,0,0,0,-1,1672,869,0,0
455,155,0,0,0,0,0,0,0,0,0,-1,1679,869,0,0
462,155,0,0,0,0,0,0,0,0,0,-1,1686,869,0,0
469,155,0,0,0,0,0,0,0,0,0,-1,1693,869,0,0
476,155,0,0,0,0,0,0,0,0,0,-1,1700,869,0,0
483,155,0,0,0,0,0,0,0,0,0,-1,1707,869,0,0
490,155,0,0,0,0,0,0,0,0,0,-1,1714,869,0,0
497,155,0,0,0,0,0,0,0,0,0,-1,1721,869,0,0
504,155,0,0,0,0,0,0,0,0,0,-1,1728,869,0,0
511,155,0,0,0,0,0,0,0,0,0,-1,1735,869,0,0
518,155,0,0,0,0,0,0,0,0,0,-1,1742,869,0,0
525,155,0,0,0,0,0,0,0,0,0,-1,1749,869,0,0
532,155,0,0,0,0,0,0,0,0,0,-1,1756,869,0,0
539,155,0,0,0,0,0,0,0,0,0,-1,1763,869,0,0
546,155,0,0,0,0,0,0,0,0,0,-1,1770,869,0,0
553,155,0,0,0,0,0,0,0,0,0,-1,1777,869,0,0
560,155,0,0,0,0,0,0,0,0,0,-1,1784,869,0,0
567,155,0,0,0,0,0,0,0,0,0,-1,1791,869,0,0
574,155,0,0,0,0,0,0,0,0,0,-1,1798,869,0,0
581,155,0,0,0,0,0,0,0,0,0,-1,1805,869,0,0
588,155,0,0,0,0,0,0,0,0,0,-1,1812,869,0,0
595,155,0,0,0,0,0,0,0,0,0,-1,1819,869,0,0
602,155,0,0,0,0,0,0,0,0,0,-1,1826,869,0,0
609,155,0,0,0,0,0,0,0,0,0,-1,1833,869,0,0
616,155,49.885,3.06439,-0.00127132,-0.00357654,-0.00324974,0.00102415,-0.00587202,-0.61498,0.00429694,0.046138,1840,869,49.885,-3.06439
623,155,49.8424,3.07922,-0.00191223,-0.00270722,-0.00258768,0.000308311,-0.00492776,-0.709189,0.00339262,0.0441069,1847,869,49.8424,-3.07922
630,155,49.7344,2.90894,-0.00201913,-0.00195687,-0.00199699,9.23476e-06,-0.00398523,-0.793192,0.00265991,0.0437905,1854,869,49.7344,-2.90896
637,155,49.6576,2.74445,-0.00179268,-0.00106658,-0.00134322,-3.82148e-05,-0.00282105,-0.917386,0.00186809,0.0395742,1861,869,49.6576,-2.74443
644,155,49.6514,2.60095,-0.00158589,-0.000614547,-0.000985053,-1.94297e-06,-0.00219849,-1.01443,0.00146501,0.0363717,1868,869,49.6514,-2.60098
651,155,49.7008,2.55798,-0.00139061,-0.000516425,-0.000805214,-3.73191e-05,-0.00186972,-1.03406,0.00123423,0.0352334,1875,869,49.7008,-2.55797
658,155,49.7579,2.62695,-0.00123248,-0.000500688,-0.00071253,-6.55965e-05,-0.00166757,-1.0226,0.0010905,0.0287762,1882,869,49.7579,-2.62695
665,155,49.7054,2.73419,-0.0012724,-0.000472719,-0.000783807,7.34063e-06,-0.00175246,-1.02126,0.00117076,0.0324504,1889,869,49.7055,-2.73419
672,155,49.6382,2.81079,0,0,0,0,0,0,0,-1,1896,869,49.6382,-2.81082
679,155,35.1565,2.78528,0,0,0,0,0,0,0,-1,1903,869,35.1565,-2.7853
686,155,42.1025,1.72925,0,0,0,0,0,0,0,-1,1910,869,42.1025,-1.72922
693,155,41.8184,2.16626,-0.000786344,-0.000337736,-0.000929292,0.000393939,-0.00151802,-0.903819,0.00116573,0.0465679,1917,869,41.8183,-2.16629
700,155,41.8148,2.70874,-0.000803717,-0.000176794,-0.00108997,0.000643897,-0.00162441,-0.925413,0.00134978,0.031866,1924,869,41.8148,-2.70876
707,155,41.8324,3.25671,-0.00103389,0.000163541,-0.00112687,0.000840876,-0.00171122,-1.02959,0.00150174,0.0228535,1931,869,41.8323,-3.2567
714,155,41.7897,3.68872,-0.00111034,0.000570487,-0.00110095,0.00111513,-0.00165499,-1.11139,0.00160942,0.0438807,1938,869,41.7897,-3.68871
721,155,41.5631,4.18066,-0.00108612,0.00117369,-0.00119821,0.00169072,-0.00160315,-1.16343,0.00190194,0.0308579,1945,869,41.5631,-4.18069
728,155,41.5458,4.73865,-0.00113449,0.00222719,-0.00114862,0.00258217,-0.00148947,-1.27106,0.00237881,0.0201791,1952,869,41.5458,-4.73866
735,155,41.5604,5.24689,-0.00109475,0.00350269,-0.00118367,0.00378954,-0.0013816,-1.33304,0.00309157,0.016339,1959,869,41.5604,-5.24691
742,155,41.5452,5.7619,-0.000943012,0.00515204,-0.00116154,0.0053659,-0.00115686,-1.38872,0.00401878,0.0171416,1966,869,41.5452,-5.7619
749,155,41.4618,6.24622,-0.000641292,0.00712077,-0.00104006,0.00725772,-0.000778235,-1.43988,0.00511765,0.0152377,1973,869,41.4618,-6.2462
756,155,41.4137,6.83569,-5.46637e-06,0.00959294,-0.000619234,0.00963272,-4.52506e-05,-1.50664,0.00643695,0.0271812,1980,869,41.4137,-6.83567
763,155,41.5446,7.36743,0.0011901,0.0130742,0.000390096,0.013087,0.00117731,1.53802,0.0083599,0.0454562,1987,869,41.5445,-7.36741
770,155,41.5548,7.80774,0,0,0,0,0,0,0,-1,1994,869,41.5548,-7.80776
777,155,41.5518,8.28619,0.0058069,0.0235634,0.00469309,0.0247275,0.00464282,1.32766,0.015176,0.0436855,2001,869,41.5517,-8.28618
784,155,41.6719,8.83881,0,0,0,0,0,0,0,-1,2008,869,41.6719,-8.83883
791,155,0,0,0,0,0,0,0,0,0,-1,2015,869,0,0
798,155,0,0,0,0,0,0,0,0,0,-1,2022,869,0,0
805,155,0,0,0,0,0,0,0,0,0,-1,2029,869,0,0
812,155,0,0,0,0,0,0,0,0,0,-1,2036,869,0,0
-700,148,0,0,0,0,0,0,0,0,0,-1,524,876,0,0
-693,148,0,0,0,0,0,0,0,0,0,-1,531,876,0,0
-686,148,0,0,0,0,0,0,0,0,0,-1,538,876,0,0
-679,148,0,0,0,0,0,0,0,0,0,-1,545,876,0,0
-672,148,-32.5711,5.84479,0,0,0,0,0,0,0,-1,552,876,-32.5711,-5.8448
-665,148,-33.0404,7.24585,0,0,0,0,0,0,0,-1,559,876,-33.0404,-7.24583
-658,148,-32.8415,6.6394,0,0,0,0,0,0,0,-1,566,876,-32.8415,-6.63939
-651,148,-33.773,6.49512,0,0,0,0,0,0,0,-1,573,876,-33.773,-6.49509
-644,148,-32.8632,5.27728,0,0,0,0,0,0,0,-1,580,876,-32.8632,-5.2773
-637,148,-31.9534,4.05951,0,0,0,0,0,0,0,-1,587,876,-31.9534,-4.0595
-630,148,-30.4735,4.84351,0,0,0,0,0,0,0,-1,594,876,-30.4735,-4.84353
-623,148,-30.6252,4.21643,0.0188543,0.0272803,0.0109639,0.0348128,0.0113218,0.968832,0.0205044,0.0259482,601,876,-30.6252,-4.21645
-616,148,-30.7637,3.61603,0.0118741,0.0184686,0.00738862,0.0232623,0.00708039,0.99527,0.0137689,0.0141547,608,876,-30.7637,-3.61602
-609,148,-30.8473,3.07617,0.00649193,0.0112824,0.00492919,0.0143675,0.00340683,1.01156,0.00866883,0.0137213,615,876,-30.8473,-3.07617
-602,148,-30.89,2.56451,0.00242241,0.00555417,0.00324623,0.00759245,0.000384129,1.01012,0.00493857,0.0149229,622,876,-30.89,-2.5645
-595,148,-30.8909,2.08118,0.000400629,0.00212929,0.00248804,0.00389886,-0.00136894,0.952574,0.00315611,0.012444,629,876,-30.8909,-2.08117
-588,148,-30.9019,1.55823,-8.62907e-06,0.000530931,0.00222008,0.00249757,-0.00197526,0.845861,0.00258825,0.0229756,636,876,-30.9018,-1.55823
-581,148,-31.1767,1.08197,0,0,0,0,0,0,0,-1,643,876,-31.1767,-1.08196
-574,148,-30.7745,0.835815,0,0,0,0,0,0,0,-1,650,876,-30.7745,-0.835836
-567,148,-30.3724,0.589722,0,0,0,0,0,0,0,-1,657,876,-30.3724,-0.589713
-560,148,-31.157,-0.369141,0,0,0,0,0,0,0,-1,664,876,-31.157,0.369127
-553,148,-18.3896,-0.00280762,0,0,0,0,0,0,0,-1,671,876,-18.3897,0.00278524
-546,148,-37.299,0.814758,0,0,0,0,0,0,0,-1,678,876,-37.299,-0.814777
-539,148,-37.2784,0.876099,-0.000182567,-0.000337151,0.0011984,0.000941028,-0.00146075,0.753195,0.00139744,0.0394262,685,876,-37.2784,-0.876095
-532,148,-37.2521,0.955933,6.37895e-05,-0.000340468,0.000930045,0.000813417,-0.0010901,0.678396,0.00110286,0.0361739,692,876,-37.2521,-0.955917
-525,148,-37.2389,1.02515,-0.000164244,-0.000638994,0.000657292,0.000297223,-0.00110046,0.612115,0.000850212,0.0370428,699,876,-37.2389,-1.02516
-518,148,-37.2899,0.923218,-0.000610138,-0.0016701,0.000764853,-0.000209591,-0.00207064,0.48242,0.00131614,0.0442796,706,876,-37.2899,-0.92319
-511,148,-37.2335,0.860352,4.68164e-05,-0.00381527,0.00161477,0.000632994,-0.00440145,0.348218,0.00316646,0.0436409,713,876,-37.2335,-0.860347
-504,148,-37.1236,1.28314,0.00310884,-0.00607573,0.00373651,0.00443691,-0.0074038,0.341504,0.0069074,0.0428262,720,876,-37.1236,-1.28316
-497,148,0,0,0,0,0,0,0,0,0,-1,727,876,0,0
-490,148,0,0,0,0,0,0,0,0,0,-1,734,876,0,0
-483,148,0,0,0,0,0,0,0,0,0,-1,741,876,0,0
-476,148,0,0,0,0,0,0,0,0,0,-1,748,876,0,0
-469,148,0,0,0,0,0,0,0,0,0,-1,755,876,0,0
-462,148,0,0,0,0,0,0,0,0,0,-1,762,876,0,0
-455,148,0,0,0,0,0,0,0,0,0,-1,769,876,0,0
-448,148,0,0,0,0,0,0,0,0,0,-1,776,876,0,0
-441,148,0,0,0,0,0,0,0,0,0,-1,783,876,0,0
-434,148,0,0,0,0,0,0,0,0,0,-1,790,876,0,0
-427,148,0,0,0,0,0,0,0,0,0,-1,797,876,0,0
-420,148,0,0,0,0,0,0,0,0,0,-1,804,876,0,0
-413,148,0,0,0,0,0,0,0,0,0,-1,811,876,0,0
-406,148,0,0,0,0,0,0,0,0,0,-1,818,876,0,0
-399,148,0,0,0,0,0,0,0,0,0,-1,825,876,0,0
-392,148,0,0,0,0,0,0,0,0,0,-1,832,876,0,0
-385,148,0,0,0,0,0,0,0,0,0,-1,839,876,0,0
-378,148,0,0,0,0,0,0,0,0,0,-1,846,876,0,0
-371,148,0,0,0,0,0,0,0,0,0,-1,853,876,0,0
-364,148,0,0,0,0,0,0,0,0,0,-1,860,876,0,0
-357,148,0,0,0,0,0,0,0,0,0,-1,867,876,0,0
-350,148,0,0,0,0,0,0,0,0,0,-1,874,876,0,0
-343,148,0,0,0,0,0,0,0,0,0,-1,881,876,0,0
-336,148,0,0,0,0,0,0,0,0,0,-1,888,876,0,0
-329,148,0,0,0,0,0,0,0,0,0,-1,895,876,0,0
-322,148,0,0,0,0,0,0,0,0,0,-1,902,876,0,0
-315,148,0,0,0,0,0,0,0,0,0,-1,909,876,0,0
-308,148,0,0,0,0,0,0,0,0,0,-1,916,876,0,0
-301,148,0,0,0,0,0,0,0,0,0,-1,923,876,0,0
-294,148,0,0,0,0,0,0,0,0,0,-1,930,876,0,0
-287,148,0,0,0,0,0,0,0,0,0,-1,937,876,0,0
-280,148,0,0,0,0,0,0,0,0,0,-1,944,876,0,0
-273,148,0,0,0,0,0,0,0,0,0,-1,951,876,0,0
-266,148,0,0,0,0,0,0,0,0,0,-1,958,876,0,0
-259,148,0,0,0,0,0,0,0,0,0,-1,965,876,0,0
-252,148,0,0,0,0,0,0,0,0,0,-1,972,876,0,0
-245,148,0,0,0,0,0,0,0,0,0,-1,979,876,0,0
-238,148,0,0,0,0,0,0,0,0,0,-1,986,876,0,0
-231,148,0,0,0,0,0,0,0,0,0,-1,993,876,0,0
-224,148,0,0,0,0,0,0,0,0,0,-1,1000,876,0,0
-217,148,0,0,0,0,0,0,0,0,0,-1,1007,876,0,0
-210,148,0,0,0,0,0,0,0,0,0,-1,1014,876,0,0
-203,148,0,0,0,0,0,0,0,0,0,-1,1021,876,0,0
-196,148,0,0,0,0,0,0,0,0,0,-1,1028,876,0,0
-189,148,0,0,0,0,0,0,0,0,0,-1,1035,876,0,0
-182,148,0,0,0,0,0,0,0,0,0,-1,1042,876,0,0
-175,148,0,0,0,0,0,0,0,0,0,-1,1049,876,0,0
-168,148,0,0,0,0,0,0,0,0,0,-1,1056,876,0,0
-161,148,0,0,0,0,0,0,0,0,0,-1,1063,876,0,0
-154,148,0,0,0,0,0,0,0,0,0,-1,1070,876,0,0
-147,148,0,0,0,0,0,0,0,0,0,-1,1077,876,0,0
-140,148,0,0,0,0,0,0,0,0,0,-1,1084,876,0,0
-133,148,0,0,0,0,0,0,0,0,0,-1,1091,876,0,0
-126,148,0,0,0,0,0,0,0,0,0,-1,1098,876,0,0
-119,148,0,0,0,0,0,0,0,0,0,-1,1105,876,0,0
-112,148,0,0,0,0,0,0,0,0,0,-1,1112,876,0,0
-105,148,0,0,0,0,0,0,0,0,0,-1,1119,876,0,0
-98,148,0,0,0,0,0,0,0,0,0,-1,1126,876,0,0
-91,148,0,0,0,0,0,0,0,0,0,-1,1133,876,0,0
-84,148,0,0,0,0,0,0,0,0,0,-1,1140,876,0,0
-77,148,0,0,0,0,0,0,0,0,0,-1,1147,876,0,0
-70,148,0,0,0,0,0,0,0,0,0,-1,1154,876,0,0
-63,148,0,0,0,0,0,0,0,0,0,-1,1161,876,0,0
-56,148,0,0,0,0,0,0,0,0,0,-1,1168,876,0,0
-49,148,0,0,0,0,0,0,0,0,0,-1,1175,876,0,0
-42,148,0,0,0,0,0,0,0,0,0,-1,1182,876,0,0
-35,148,0,0,0,0,0,0,0,0,0,-1,1189,876,0,0
-28,148,0,0,0,0,0,0,0,0,0,-1,1196,876,0,0
-21,148,0,0,0,0,0,0,0,0,0,-1,1203,876,0,0
-14,148,0,0,0,0,0,0,0,0,0,-1,1210,876,0,0
-7,148,0,0,0,0,0,0,0,0,0,-1,1217,876,0,0
0,148,0,0,0,0,0,0,0,0,0,-1,1224,876,0,0
7,148,0,0,0,0,0,0,0,0,0,-1,1231,876,0,0
14,148,0,0,0,0,0,0,0,0,0,-1,1238,876,0,0
21,148,0,0,0,0,0,0,0,0,0,-1,1245,876,0,0
28,148,0,0,0,0,0,0,0,0,0,-1,1252,876,0,0
35,148,0,0,0,0,0,0,0,0,0,-1,1259,876,0,0
42,148,0,0,0,0,0,0,0,0,0,-1,1266,876,0,0
49,148,0,0,0,0,0,0,0,0,0,-1,1273,876,0,0
56,148,0,0,0,0,0,0,0,0,0,-1,1280,876,0,0
63,148,0,0,0,0,0,0,0,0,0,-1,1287,876,0,0
70,148,0,0,0,0,0,0,0,0,0,-1,1294,876,0,0
77,148,0,0,0,0,0,0,0,0,0,-1,1301,876,0,0
84,148,0,0,0,0,0,0,0,0,0,-1,1308,876,0,0
91,148,0,0,0,0,0,0,0,0,0,-1,1315,876,0,0
98,148,0,0,0,0,0,0,0,0,0,-1,1322,876,0,0
105,148,0,0,0,0,0,0,0,0,0,-1,1329,876,0,0
112,148,0,0,0,0,0,0,0,0,0,-1,1336,876,0,0
119,148,0,0,0,0,0,0,0,0,0,-1,1343,876,0,0
126,148,0,0,0,0,0,0,0,0,0,-1,1350,876,0,0
133,148,0,0,0,0,0,0,0,0,0,-1,1357,876,0,0
140,148,0,0,0,0,0,0,0,0,0,-1,1364,876,0,0
147,148,0,0,0,0,0,0,0,0,0,-1,1371,876,0,0
154,148,0,0,0,0,0,0,0,0,0,-1,1378,876,0,0
161,148,0,0,0,0,0,0,0,0,0,-1,1385,876,0,0
168,148,0,0,0,0,0,0,0,0,0,-1,1392,876,0,0
175,148,0,0,0,0,0,0,0,0,0,-1,1399,876,0,0
182,148,0,0,0,0,0,0,0,0,0,-1,1406,876,0,0
189,148,0,0,0,0,0,0,0,0,0,-1,1413,876,0,0
196,148,0,0,0,0,0,0,0,0,0,-1,1420,876,0,0
203,148,0,0,0,0,0,0,0,0,0,-1,1427,876,0,0
210,148,0,0,0,0,0,0,0,0,0,-1,1434,876,0,0
217,148,0,0,0,0,0,0,0,0,0,-1,1441,876,0,0
224,148,0,0,0,0,0,0,0,0,0,-1,1448,876,0,0
231,148,0,0,0,0,0,0,0,0,0,-1,1455,876,0,0
238,148,0,0,0,0,0,0,0,0,0,-1,1462,876,0,0
245,148,0,0,0,0,0,0,0,0,0,-1,1469,876,0,0
252,148,0,0,0,0,0,0,0,0,0,-1,1476,876,0,0
259,148,0,0,0,0,0,0,0,0,0,-1,1483,876,0,0
266,148,0,0,0,0,0,0,0,0,0,-1,1490,876,0,0
273,148,0,0,0,0,0,0,0,0,0,-1,1497,876,0,0
280,148,0,0,0,0,0,0,0,0,0,-1,1504,876,0,0
287,148,0,0,0,0,0,0,0,0,0,-1,1511,876,0,0
294,148,0,0,0,0,0,0,0,0,0,-1,1518,876,0,0
301,148,0,0,0,0,0,0,0,0,0,-1,1525,876,0,0
308,148,0,0,0,0,0,0,0,0,0,-1,1532,876,0,0
315,148,0,0,0,0,0,0,0,0,0,-1,1539,876,0,0
322,148,0,0,0,0,0,0,0,0,0,-1,1546,876,0,0
329,148,0,0,0,0,0,0,0,0,0,-1,1553,876,0,0
336,148,0,0,0,0,0,0,0,0,0,-1,1560,876,0,0
343,148,0,0,0,0,0,0,0,0,0,-1,1567,876,0,0
350,148,0,0,0,0,0,0,0,0,0,-1,1574,876,0,0
357,148,0,0,0,0,0,0,0,0,0,-1,1581,876,0,0
364,148,0,0,0,0,0,0,0,0,0,-1,1588,876,0,0
371,148,0,0,0,0,0,0,0,0,0,-1,1595,876,0,0
378,148,0,0,0,0,0,0,0,0,0,-1,1602,876,0,0
385,148,0,0,0,0,0,0,0,0,0,-1,1609,876,0,0
392,148,0,0,0,0,0,0,0,0,0,-1,1616,876,0,0
399,148,0,0,0,0,0,0,0,0,0,-1,1623,876,0,0
406,148,0,0,0,0,0,0,0,0,0,-1,1630,876,0,0
413,148,0,0,0,0,0,0,0,0,0,-1,1637,876,0,0
420,148,0,0,0,0,0,0,0,0,0,-1,1644,876,0,0
427,148,0,0,0,0,0,0,0,0,0,-1,1651,876,0,0
434,148,0,0,0,0,0,0,0,0,0,-1,1658,876,0,0
441,148,0,0,0,0,0,0,0,0,0,-1,1665,876,0,0
448,148,0,0,0,0,0,0,0,0,0,-1,1672,876,0,0
455,148,0,0,0,0,0,0,0,0,0,-1,1679,876,0,0
462,148,0,0,0,0,0,0,0,0,0,-1,1686,876,0,0
469,148,0,0,0,0,0,0,0,0,0,-1,1693,876,0,0
476,148,0,0,0,0,0,0,0,0,0,-1,1700,876,0,0
483,148,0,0,0,0,0,0,0,0,0,-1,1707,876,0,0
490,148,0,0,0,0,0,0,0,0,0,-1,1714,876,0,0
497,148,0,0,0,0,0,0,0,0,0,-1,1721,876,0,0
504,148,0,0,0,0,0,0,0,0,0,-1,1728,876,0,0
511,148,0,0,0,0,0,0,0,0,0,-1,1735,876,0,0
518,148,0,0,0,0,0,0,0,0,0,-1,1742,876,0,0
525,148,0,0,0,0,0,0,0,0,0,-1,1749,876,0,0
532,148,0,0,0,0,0,0,0,0,0,-1,1756,876,0,0
539,148,0,0,0,0,0,0,0,0,0,-1,1763,876,0,0
546,148,0,0,0,0,0,0,0,0,0,-1,1770,876,0,0
553,148,0,0,0,0,0,0,0,0,0,-1,1777,876,0,0
560,148,0,0,0,0,0,0,0,0,0,-1,1784,876,0,0
567,148,0,0,0,0,0,0,0,0,0,-1,1791,876,0,0
574,148,0,0,0,0,0,0,0,0,0,-1,1798,876,0,0
581,148,0,0,0,0,0,0,0,0,0,-1,1805,876,0,0
588,148,0,0,0,0,0,0,0,0,0,-1,1812,876,0,0
595,148,0,0,0,0,0,0,0,0,0,-1,1819,876,0,0
602,148,0,0,0,0,0,0,0,0,0,-1,1826,876,0,0
609,148,0,0,0,0,0,0,0,0,0,-1,1833,876,0,0
616,148,0,0,0,0,0,0,0,0,0,-1,1840,876,0,0
623,148,49.9486,2.9248,-0.00216759,-0.00209499,-0.00323424,0.00110315,-0.00536573,-0.79101,0.00399596,0.0434741,1847,876,49.9487,-2.92483
630,148,49.8286,2.7168,-0.00222136,-0.00152266,-0.00248987,0.000642249,-0.00438627,-0.855097,0.00316009,0.0415065,1854,876,49.8286,-2.7168
637,148,49.7045,2.67688,-0.00189331,-0.000869591,-0.00175992,0.00045139,-0.00321429,-0.926916,0.00230809,0.0372902,1861,876,49.7045,-2.67688
644,148,49.6152,2.72882,-0.00155054,-0.000550801,-0.00133569,0.000375486,-0.00247683,-0.964451,0.00178956,0.0361806,1868,876,49.6153,-2.7288
651,148,49.6328,2.58136,-0.00124591,-0.000480912,-0.00111311,0.000313588,-0.00204041,-0.950892,0.00147595,0.0366912,1875,876,49.6329,-2.58134
658,148,49.6965,2.62067,-0.0009816,-0.000435571,-0.000957602,0.000287175,-0.00170435,-0.924265,0.00124306,0.0317141,1882,876,49.6965,-2.62069
665,148,49.658,2.8269,-0.000918977,-0.000367162,-0.000975756,0.000370946,-0.00165708,-0.923183,0.0012469,0.0247239,1889,876,49.6579,-2.8269
672,148,49.699,2.71552,-0.000842421,-0.000290498,-0.00101872,0.000488972,-0.00162189,-0.91767,0.00127588,0.0322469,1896,876,49.699,-2.7155
679,148,49.5635,2.97101,0,0,0,0,0,0,0,-1,1903,876,49.5635,-2.97098
686,148,21.6195,2.40845,0,0,0,0,0,0,0,-1,1910,876,21.6196,-2.40846
693,148,42.6652,2.26563,0,0,0,0,0,0,0,-1,1917,876,42.6652,-2.26565
700,148,42.4044,2.79102,-0.000335878,8.00094e-05,-0.00113303,0.00102402,-0.00127989,-0.876152,0.0013329,0.0349456,1924,876,42.4044,-2.79099
707,148,42.5024,3.45416,-0.000569608,0.000369559,-0.00108551,0.0010827,-0.00128275,-0.98954,0.00136732,0.0278908,1931,876,42.5025,-3.45416
714,148,42.3682,3.78772,-0.000702906,0.000701559,-0.000985845,0.00120971,-0.00121105,-1.09487,0.00139763,0.0285279,1938,876,42.3682,-3.78773
721,148,42.0975,4.22455,-0.000715654,0.00118618,-0.00110134,0.00169033,-0.0012198,-1.14151,0.00168747,0.0215242,1945,876,42.0975,-4.22457
728,148,42.113,4.73883,-0.000874958,0.00210233,-0.00108495,0.00245574,-0.00122837,-1.25589,0.00216601,0.0200861,1952,876,42.113,-4.73881
735,148,42.121,5.28217,-0.000956776,0.00320451,-0.0011623,0.00350714,-0.00125941,-1.31608,0.00285214,0.0198361,1959,876,42.1209,-5.2822
742,148,42.0692,5.78314,-0.000911215,0.00463452,-0.00121784,0.00489018,-0.00116687,-1.36388,0.00371074,0.0214863,1966,876,42.0692,-5.78314
749,148,41.9681,6.25946,-0.000698279,0.00630879,-0.00117964,0.00650205,-0.000891543,-1.40841,0.0046604,0.0188289,1973,876,41.9682,-6.25945
756,148,41.8794,6.81873,-0.000175207,0.00838531,-0.000860487,0.00847095,-0.000260845,-1.4716,0.00573622,0.024867,1980,876,41.8795,-6.81872
763,148,41.993,7.20734,0.000886393,0.0112952,2.82401e-05,0.0112953,0.000886316,1.56808,0.00725283,0.0464766,1987,876,41.993,-7.20737
770,148,42.0762,7.60828,0,0,0,0,0,0,0,-1,1994,876,42.0761,-7.60828
777,148,41.6797,8.04468,0,0,0,0,0,0,0,-1,2001,876,41.6797,-8.04468
784,148,41.9512,8.74304,0,0,0,0,0,0,0,-1,2008,876,41.9511,-8.74307
791,148,40.6108,9.98114,0,0,0,0,0,0,0,-1,2015,876,40.6108,-9.98111
798,148,0,0,0,0,0,0,0,0,0,-1,2022,876,0,0
805,148,0,0,0,0,0,0,0,0,0,-1,2029,876,0,0
812,148,0,0,0,0,0,0,0,0,0,-1,2036,876,0,0
-700,141,0,0,0,0,0,0,0,0,0,-1,524,883,0,0
-693,141,0,0,0,0,0,0,0,0,0,-1,531,883,0,0
-686,141,0,0,0,0,0,0,0,0,0,-1,538,883,0,0
-679,141,0,0,0,0,0,0,0,0,0,-1,545,883,0,0
-672,141,-32.6808,6.22559,0,0,0,0,0,0,0,-1,552,883,-32.6808,-6.22556
-665,141,-32.7592,6.39966,0,0,0,0,0,0,0,-1,559,883,-32.7592,-6.39964
-658,141,-32.7452,6.06702,0,0,0,0,0,0,0,-1,566,883,-32.7452,-6.06702
-651,141,-31.8463,5.62921,0,0,0,0,0,0,0,-1,573,883,-31.8463,-5.62923
-644,141,-33.9797,4.16364,0,0,0,0,0,0,0,-1,580,883,-33.9797,-4.16365
-637,141,-32.0883,5.23395,0,0,0,0,0,0,0,-1,587,883,-32.0883,-5.23396
-630,141,-31.6355,4.77094,0,0,0,0,0,0,0,-1,594,883,-31.6355,-4.77094
-623,141,-31.0653,4.12726,0.0141922,0.0212677,0.00875027,0.0271683,0.00829159,0.977502,0.0160776,0.0278428,601,883,-31.0653,-4.12724
-616,141,-31.2745,3.56775,0.00880299,0.0143888,0.00608486,0.0182911,0.00490068,1.00055,0.010933,0.0130972,608,883,-31.2744,-3.56778
-609,141,-31.3516,3.07855,0.00424288,0.00865433,0.0042631,0.0112485,0.00164868,1.02413,0.00701434,0.0137088,615,883,-31.3516,-3.07855
-602,141,-31.3727,2.59039,0.000702412,0.00410296,0.0030367,0.00588298,-0.00107761,1.04061,0.00432616,0.0143453,622,883,-31.3728,-2.59038
-595,141,-31.3559,2.09656,-0.000978125,0.00148517,0.00249197,0.00303325,-0.00252621,1.01491,0.0032142,0.0145221,629,883,-31.3559,-2.09658
-588,141,-31.6748,1.60706,-0.00120688,0.000208709,0.00226663,0.00187549,-0.00287366,0.936735,0.00276203,0.0289963,636,883,-31.6748,-1.60705
-581,141,-31.6374,1.1601,0,0,0,0,0,0,0,-1,643,883,-31.6374,-1.16011
-574,141,-30.8482,0.942627,0,0,0,0,0,0,0,-1,650,883,-30.8482,-0.942628
-567,141,-30.5335,0.480103,0,0,0,0,0,0,0,-1,657,883,-30.5335,-0.480081
-560,141,-30.5542,0.23175,0,0,0,0,0,0,0,-1,664,883,-30.5542,-0.231742
-553,141,-32.0876,1.39459,0,0,0,0,0,0,0,-1,671,883,-32.0876,-1.3946
-546,141,-37.2479,0.917664,0,0,0,0,0,0,0,-1,678,883,-37.2479,-0.91764
-539,141,-37.2443,0.919556,-0.00107467,-0.000863772,0.00133064,0.000365593,-0.00230403,0.824939,0.00167127,0.0324399,685,883,-37.2443,-0.919583
-532,141,-37.2469,0.953796,-0.000755166,-0.000879005,0.00111659,0.000301219,-0.00193539,0.757699,0.0014015,0.0309325,692,883,-37.2469,-0.953789
-525,141,-37.2211,1.05408,-0.000980677,-0.00120676,0.000880795,-0.000205701,-0.00198174,0.721576,0.00125821,0.0382554,699,883,-37.2211,-1.05407
-518,141,-37.253,1.02747,-0.00147954,-0.0021989,0.000987045,-0.000788684,-0.00288976,0.610674,0.0017248,0.0436602,706,883,-37.253,-1.02748
-511,141,-37.2662,1.02844,-0.000987502,-0.00391331,0.00173409,-0.000181667,-0.00471914,0.435011,0.00308732,0.0420011,713,883,-37.2662,-1.02842
-504,141,-37.2846,1.14545,0.00151582,-0.00542373,0.00352501,0.00299226,-0.00690017,0.396647,0.00585806,0.0423548,720,883,-37.2846,-1.14543
-497,141,0,0,0,0,0,0,0,0,0,-1,727,883,0,0
-490,141,0,0,0,0,0,0,0,0,0,-1,734,883,0,0
-483,141,0,0,0,0,0,0,0,0,0,-1,741,883,0,0
-476,141,0,0,0,0,0,0,0,0,0,-1,748,883,0,0
-469,141,0,0,0,0,0,0,0,0,0,-1,755,883,0,0
-462,141,0,0,0,0,0,0,0,0,0,-1,762,883,0,0
-455,141,0,0,0,0,0,0,0,0,0,-1,769,883,0,0
-448,141,0,0,0,0,0,0,0,0,0,-1,776,883,0,0
-441,141,0,0,0,0,0,0,0,0,0,-1,783,883,0,0
-434,141,0,0,0,0,0,0,0,0,0,-1,790,883,0,0
-427,141,0,0,0,0,0,0,0,0,0,-1,797,883,0,0
-420,141,0,0,0,0,0,0,0,0,0,-1,804,883,0,0
-413,141,0,0,0,0,0,0,0,0,0,-1,811,883,0,0
-406,141,0,0,0,0,0,0,0,0,0,-1,818,883,0,0
-399,141,0,0,0,0,0,0,0,0,0,-1,825,883,0,0
-392,141,0,0,0,0,0,0,0,0,0,-1,832,883,0,0
-385,141,0,0,0,0,0,0,0,0,0,-1,839,883,0,0
-378,141,0,0,0,0,0,0,0,0,0,-1,846,883,0,0
-371,141,0,0,0,0,0,0,0,0,0,-1,853,883,0,0
-364,141,0,0,0,0,0,0,0,0,0,-1,860,883,0,0
-357,141,0,0,0,0,0,0,0,0,0,-1,867,883,0,0
-350,141,0,0,0,0,0,0,0,0,0,-1,874,883,0,0
-343,141,0,0,0,0,0,0,0,0,0,-1,881,883,0,0
-336,141,0,0,0,0,0,0,0,0,0,-1,888,883,0,0
-329,141,0,0,0,0,0,0,0,0,0,-1,895,883,0,0
-322,141,0,0,0,0,0,0,0,0,0,-1,902,883,0,0
-315,141,0,0,0,0,0,0,0,0,0,-1,909,883,0,0
-308,141,0,0,0,0,0,0,0,0,0,-1,916,883,0,0
-301,141,0,0,0,0,0,0,0,0,0,-1,923,883,0,0
-294,141,0,0,0,0,0,0,0,0,0,-1,930,883,0,0
-287,141,0,0,0,0,0,0,0,0,0,-1,937,883,0,0
-280,141,0,0,0,0,0,0,0,0,0,-1,944,883,0,0
-273,141,0,0,0,0,0,0,0,0,0,-1,951,883,0,0
-266,141,0,0,0,0,0,0,0,0,0,-1,958,883,0,0
-259,141,0,0,0,0,0,0,0,0,0,-1,965,883,0,0
-252,141,0,0,0,0,0,0,0,0,0,-1,972,883,0,0
-245,141,0,0,0,0,0,0,0,0,0,-1,979,883,0,0
-238,141,0,0,0,0,0,0,0,0,0,-1,986,883,0,0
-231,141,0,0,0,0,0,0,0,0,0,-1,993,883,0,0
-224,141,0,0,0,0,0,0,0,0,0,-1,1000,883,0,0
-217,141,0,0,0,0,0,0,0,0,0,-1,1007,883,0,0
-210,141,0,0,0,0,0,0,0,0,0,-1,1014,883,0,0
-203,141,0,0,0,0,0,0,0,0,0,-1,1021,883,0,0
-196,141,0,0,0,0,0,0,0,0,0,-1,1028,883,0,0
-189,141,0,0,0,0,0,0,0,0,0,-1,1035,883,0,0
-182,141,0,0,0,0,0,0,0,0,0,-1,1042,883,0,0
-175,141,0,0,0,0,0,0,0,0,0,-1,1049,883,0,0
-168,141,0,0,0,0,0,0,0,0,0,-1,1056,883,0,0
-161,141,0,0,0,0,0,0,0,0,0,-1,1063,883,0,0
-154,141,0,0,0,0,0,0,0,0,0,-1,1070,883,0,0
-147,141,0,0,0,0,0,0,0,0,0,-1,1077,883,0,0
-140,141,0,0,0,0,0,0,0,0,0,-1,1084,883,0,0
-133,141,0,0,0,0,0,0,0,0,0,-1,1091,883,0,0
-126,141,0,0,0,0,0,0,0,0,0,-1,1098,883,0,0
-119,141,0,0,0,0,0,0,0,0,0,-1,1105,883,0,0
-112,141,0,0,0,0,0,0,0,0,0,-1,1112,883,0,0
-105,141,0,0,0,0,0,0,0,0,0,-1,1119,883,0,0
-98,141,0,0,0,0,0,0,0,0,0,-1,1126,883,0,0
-91,141,0,0,0,0,0,0,0,0,0,-1,1133,883,0,0
-84,141,0,0,0,0,0,0,0,0,0,-1,1140,883,0,0
-77,141,0,0,0,0,0,0,0,0,0,-1,1147,883,0,0
-70,141,0,0,0,0,0,0,0,0,0,-1,1154,883,0,0
-63,141,0,0,0,0,0,0,0,0,0,-1,1161,883,0,0
-56,141,0,0,0,0,0,0,0,0,0,-1,1168,883,0,0
-49,141,0,0,0,0,0,0,0,0,0,-1,1175,883,0,0
-42,141,0,0,0,0,0,0,0,0,0,-1,1182,883,0,0
-35,141,0,0,0,0,0,0,0,0,0,-1,1189,883,0,0
-28,141,0,0,0,0,0,0,0,0,0,-1,1196,883,0,0
-21,141,0,0,0,0,0,0,0,0,0,-1,1203,883,0,0
-14,141,0,0,0,0,0,0,0,0,0,-1,1210,883,0,0
-7,141,0,0,0,0,0,0,0,0,0,-1,1217,883,0,0
0,141,0,0,0,0,0,0,0,0,0,-1,1224,883,0,0
7,141,0,0,0,0,0,0,0,0,0,-1,1231,883,0,0
14,141,0,0,0,0,0,0,0,0,0,-1,1238,883,0,0
21,141,0,0,0,0,0,0,0,0,0,-1,1245,883,0,0
28,141,0,0,0,0,0,0,0,0,0,-1,1252,883,0,0
35,141,0,0,0,0,0,0,0,0,0,-1,1259,883,0,0
42,141,0,0,0,0,0,0,0,0,0,-1,1266,883,0,0
49,141,0,0,0,0,0,0,0,0,0,-1,1273,883,0,0
56,141,0,0,0,0,0,0,0,0,0,-1,1280,883,0,0
63,141,0,0,0,0,0,0,0,0,0,-1,1287,883,0,0
70,141,0,0,0,0,0,0,0,0,0,-1,1294,883,0,0
77,141,0,0,0,0,0,0,0,0,0,-1,1301,883,0,0
84,141,0,0,0,0,0,0,0,0,0,-1,1308,883,0,0
91,141,0,0,0,0,0,0,0,0,0,-1,1315,883,0,0
98,141,0,0,0,0,0,0,0,0,0,-1,1322,883,0,0
105,141,0,0,0,0,0,0,0,0,0,-1,1329,883,0,0
112,141,0,0,0,0,0,0,0,0,0,-1,1336,883,0,0
119,141,0,0,0,0,0,0,0,0,0,-1,1343,883,0,0
126,141,0,0,0,0,0,0,0,0,0,-1,1350,883,0,0
133,141,0,0,0,0,0,0,0,0,0,-1,1357,883,0,0
140,141,0,0,0,0,0,0,0,0,0,-1,1364,883,0,0
147,141,0,0,0,0,0,0,0,0,0,-1,1371,883,0,0
154,141,0,0,0,0,0,0,0,0,0,-1,1378,883,0,0
161,141,0,0,0,0,0,0,0,0,0,-1,1385,883,0,0
168,141,0,0,0,0,0,0,0,0,0,-1,1392,883,0,0
175,141,0,0,0,0,0,0,0,0,0,-1,1399,883,0,0
182,141,0,0,0,0,0,0,0,0,0,-1,1406,883,0,0
189,141,0,0,0,0,0,0,0,0,0,-1,1413,883,0,0
196,141,0,0,0,0,0,0,0,0,0,-1,1420,883,0,0
203,141,0,0,0,0,0,0,0,0,0,-1,1427,883,0,0
210,141,0,0,0,0,0,0,0,0,0,-1,1434,883,0,0
217,141,0,0,0,0,0,0,0,0,0,-1,1441,883,0,0
224,141,0,0,0,0,0,0,0,0,0,-1,1448,883,0,0
231,141,0,0,0,0,0,0,0,0,0,-1,1455,883,0,0
238,141,0,0,0,0,0,0,0,0,0,-1,1462,883,0,0
245,141,0,0,0,0,0,0,0,0,0,-1,1469,883,0,0
252,141,0,0,0,0,0,0,0,0,0,-1,1476,883,0,0
259,141,0,0,0,0,0,0,0,0,0,-1,1483,883,0,0
266,141,0,0,0,0,0,0,0,0,0,-1,1490,883,0,0
273,141,0,0,0,0,0,0,0,0,0,-1,1497,883,0,0
280,141,0,0,0,0,0,0,0,0,0,-1,1504,883,0,0
287,141,0,0,0,0,0,0,0,0,0,-1,1511,883,0,0
294,141,0,0,0,0,0,0,0,0,0,-1,1518,883,0,0
301,141,0,0,0,0,0,0,0,0,0,-1,1525,883,0,0
308,141,0,0,0,0,0,0,0,0,0,-1,1532,883,0,0
315,141,0,0,0,0,0,0,0,0,0,-1,1539,883,0,0
322,141,0,0,0,0,0,0,0,0,0,-1,1546,883,0,0
329,141,0,0,0,0,0,0,0,0,0,-1,1553,883,0,0
336,141,0,0,0,0,0,0,0,0,0,-1,1560,883,0,0
343,141,0,0,0,0,0,0,0,0,0,-1,1567,883,0,0
350,141,0,0,0,0,0,0,0,0,0,-1,1574,883,0,0
357,141,0,0,0,0,0,0,0,0,0,-1,1581,883,0,0
364,141,0,0,0,0,0,0,0,0,0,-1,1588,883,0,0
371,141,0,0,0,0,0,0,0,0,0,-1,1595,883,0,0
378,141,0,0,0,0,0,0,0,0,0,-1,1602,883,0,0
385,141,0,0,0,0,0,0,0,0,0,-1,1609,883,0,0
392,141,0,0,0,0,0,0,0,0,0,-1,1616,883,0,0
399,141,0,0,0,0,0,0,0,0,0,-1,1623,883,0,0
406,141,0,0,0,0,0,0,0,0,0,-1,1630,883,0,0
413,141,0,0,0,0,0,0,0,0,0,-1,1637,883,0,0
420,141,0,0,0,0,0,0,0,0,0,-1,1644,883,0,0
427,141,0,0,0,0,0,0,0,0,0,-1,1651,883,0,0
434,141,0,0,0,0,0,0,0,0,0,-1,1658,883,0,0
441,141,0,0,0,0,0,0,0,0,0,-1,1665,883,0,0
448,141,0,0,0,0,0,0,0,0,0,-1,1672,883,0,0
455,141,0,0,0,0,0,0,0,0,0,-1,1679,883,0,0
462,141,0,0,0,0,0,0,0,0,0,-1,1686,883,0,0
469,141,0,0,0,0,0,0,0,0,0,-1,1693,883,0,0
476,141,0,0,0,0,0,0,0,0,0,-1,1700,883,0,0
483,141,0,0,0,0,0,0,0,0,0,-1,1707,883,0,0
490,141,0,0,0,0,0,0,0,0,0,-1,1714,883,0,0
497,141,0,0,0,0,0,0,0,0,0,-1,1721,883,0,0
504,141,0,0,0,0,0,0,0,0,0,-1,1728,883,0,0
511,141,0,0,0,0,0,0,0,0,0,-1,1735,883,0,0
518,141,0,0,0,0,0,0,0,0,0,-1,1742,883,0,0
525,141,0,0,0,0,0,0,0,0,0,-1,1749,883,0,0
532,141,0,0,0,0,0,0,0,0,0,-1,1756,883,0,0
539,141,0,0,0,0,0,0,0,0,0,-1,1763,883,0,0
546,141,0,0,0,0,0,0,0,0,0,-1,1770,883,0,0
553,141,0,0,0,0,0,0,0,0,0,-1,1777,883,0,0
560,141,0,0,0,0,0,0,0,0,0,-1,1784,883,0,0
567,141,0,0,0,0,0,0,0,0,0,-1,1791,883,0,0
574,141,0,0,0,0,0,0,0,0,0,-1,1798,883,0,0
581,141,0,0,0,0,0,0,0,0,0,-1,1805,883,0,0
588,141,0,0,0,0,0,0,0,0,0,-1,1812,883,0,0
595,141,0,0,0,0,0,0,0,0,0,-1,1819,883,0,0
602,141,0,0,0,0,0,0,0,0,0,-1,1826,883,0,0
609,141,0,0,0,0,0,0,0,0,0,-1,1833,883,0,0
616,141,0,0,0,0,0,0,0,0,0,-1,1840,883,0,0
623,141,49.6942,2.91327,-0.00278373,-0.00252158,-0.00304524,0.000395404,-0.00570071,-0.806906,0.00393889,0.0450208,1847,883,49.6942,-2.91324
630,141,49.8999,2.51672,-0.00271067,-0.00186629,-0.00233994,8.92472e-05,-0.0046662,-0.874652,0.00314097,0.0435233,1854,883,49.8999,-2.51672
637,141,49.8905,2.44464,-0.00225531,-0.00113286,-0.00173807,0.000132351,-0.00352052,-0.941565,0.00239235,0.041686,1861,883,49.8905,-2.44463
644,141,49.7521,2.73743,-0.00175636,-0.000707806,-0.00139858,0.000261537,-0.0027257,-0.964723,0.00191029,0.0398825,1868,883,49.7521,-2.7374
651,141,49.8097,2.65643,-0.00129914,-0.000529493,-0.00121691,0.00036199,-0.00219063,-0.938538,0.00159483,0.0367383,1875,883,49.8097,-2.65646
658,141,49.8265,2.60052,-0.000876483,-0.00037922,-0.00103836,0.000439856,-0.00169556,-0.902909,0.001302,0.0356988,1882,883,49.8265,-2.60055
665,141,49.6392,2.74799,-0.000651703,-0.000231989,-0.00100232,0.00058221,-0.0014659,-0.888593,0.00121862,0.0288116,1889,883,49.6392,-2.74801
672,141,49.6689,2.76837,-0.000487347,-0.000136463,-0.000986079,0.00068966,-0.00131347,-0.873436,0.00117505,0.0238841,1896,883,49.6689,-2.76838
679,141,49.6807,2.7218,-0.000359766,-0.000114995,-0.000853636,0.000624984,-0.00109974,-0.856598,0.00100827,0.0432202,1903,883,49.6807,-2.72178
686,141,49.6798,2.63165,0,0,0,0,0,0,0,-1,1910,883,49.6798,-2.63166
693,141,42.5828,1.99585,0,0,0,0,0,0,0,-1,1917,883,42.5827,-1.99588
700,141,42.8655,2.75317,4.54696e-05,0.000304597,-0.000997312,0.00118073,-0.000830659,-0.849993,0.00116712,0.0335265,1924,883,42.8655,-2.75315
707,141,42.8186,3.39111,-0.00020861,0.000552613,-0.000913237,0.00116138,-0.000817375,-0.982839,0.00114817,0.0277825,1931,883,42.8186,-3.39111
714,141,42.5986,3.76263,-0.000420519,0.000816659,-0.000758426,0.00117677,-0.000780634,-1.1275,0.0011378,0.026741,1938,883,42.5986,-3.76266
721,141,42.5865,4.23218,-0.000491659,0.0011767,-0.000909199,0.00157642,-0.000891375,-1.15659,0.00144296,0.0157364,1945,883,42.5865,-4.23219
728,141,42.637,4.71033,-0.000764335,0.00192718,-0.000942721,0.00222452,-0.00106168,-1.26526,0.00193648,0.0164306,1952,883,42.6369,-4.71032
735,141,42.6318,5.2868,-0.000962665,0.00284396,-0.00107508,0.0031266,-0.0012453,-1.31371,0.00260085,0.0185356,1959,883,42.6318,-5.28681
742,141,42.5686,5.79413,-0.00102092,0.00407593,-0.00121223,0.00434955,-0.00129455,-1.3488,0.00341404,0.0189239,1966,883,42.5686,-5.7941
749,141,42.5347,6.2525,-0.000895458,0.00549869,-0.00124185,0.00573141,-0.00112818,-1.38555,0.00424724,0.0147183,1973,883,42.5346,-6.25253
756,141,42.5205,6.75391,-0.000467846,0.00724156,-0.000991563,0.00736705,-0.000593335,-1.44491,0.00512061,0.0225587,1980,883,42.5205,-6.75388
763,141,42.5693,7.21826,0.000494007,0.00967289,-0.000171067,0.00967608,0.00049082,-1.55217,0.00629349,0.0464138,1987,883,42.5693,-7.21825
770,141,42.5944,7.68323,0,0,0,0,0,0,0,-1,1994,883,42.5944,-7.68321
777,141,41.9448,7.77423,0,0,0,0,0,0,0,-1,2001,883,41.9448,-7.77425
784,141,42.7319,7.87225,0,0,0,0,0,0,0,-1,2008,883,42.7319,-7.87224
791,141,42.5815,7.74707,0,0,0,0,0,0,0,-1,2015,883,42.5815,-7.74706
798,141,0,0,0,0,0,0,0,0,0,-1,2022,883,0,0
805,141,0,0,0,0,0,0,0,0,0,-1,2029,883,0,0
812,141,0,0,0,0,0,0,0,0,0,-1,2036,883,0,0
-700,134,0,0,0,0,0,0,0,0,0,-1,524,890,0,0
-693,134,0,0,0,0,0,0,0,0,0,-1,531,890,0,0
-686,134,0,0,0,0,0,0,0,0,0,-1,538,890,0,0
-679,134,0,0,0,0,0,0,0,0,0,-1,545,890,0,0
-672,134,-32.6097,6.05707,0,0,0,0,0,0,0,-1,552,890,-32.6097,-6.0571
-665,134,-32.6754,5.7088,0,0,0,0,0,0,0,-1,559,890,-32.6754,-5.70882
-658,134,-32.8779,5.24426,0,0,0,0,0,0,0,-1,566,890,-32.8779,-5.24428
-651,134,-33.2084,4.8457,0,0,0,0,0,0,0,-1,573,890,-33.2085,-4.84571
-644,134,-33.7982,4.32037,0,0,0,0,0,0,0,-1,580,890,-33.7982,-4.32037
-637,134,-28.7275,0.339355,0,0,0,0,0,0,0,-1,587,890,-28.7275,-0.339377
-630,134,-31.9084,4.34515,0,0,0,0,0,0,0,-1,594,890,-31.9084,-4.34514
-623,134,-31.6032,3.99304,0.00916704,0.0157204,0.00596649,0.0192508,0.0056367,1.03651,0.0114281,0.0265146,601,890,-31.6032,-3.99306
-616,134,-31.7879,3.55646,0.00543474,0.0106154,0.00444087,0.0131662,0.00288396,1.04942,0.00799153,0.0129743,608,890,-31.7879,-3.55646
-609,134,-31.8804,3.07928,0.00184262,0.00631088,0.00344287,0.00818098,-2.74815e-05,1.0732,0.00546317,0.011545,615,890,-31.8804,-3.07931
-602,134,-31.8771,2.57941,-0.00109378,0.00292517,0.00274831,0.00432028,-0.0024889,1.10107,0.00397839,0.0119727,622,890,-31.8771,-2.57942
-595,134,-31.8118,2.15442,-0.00248405,0.000987416,0.00240978,0.0022215,-0.00371813,1.0975,0.00346534,0.0213647,629,890,-31.8118,-2.15441
-588,134,-32.2454,1.77783,-0.00260258,-5.51469e-05,0.00222281,0.00123302,-0.00389074,1.04557,0.00308801,0.0377175,636,890,-32.2453,-1.77786
-581,134,-32.3805,1.29041,0,0,0,0,0,0,0,-1,643,890,-32.3805,-1.29042
-574,134,-31.1517,0.757751,0,0,0,0,0,0,0,-1,650,890,-31.1517,-0.757758
-567,134,-30.9003,0.296326,0,0,0,0,0,0,0,-1,657,890,-30.9002,-0.296302
-560,134,-22.9123,0.106567,0,0,0,0,0,0,0,-1,664,890,-22.9123,-0.106594
-553,134,-37.2243,0.920227,0,0,0,0,0,0,0,-1,671,890,-37.2243,-0.920238
-546,134,-37.2241,0.914795,-0.00255125,-0.00139143,0.00135061,-0.000501497,-0.00344118,0.988182,0.00214657,0.0319398,678,890,-37.2241,-0.914787
-539,134,-37.2216,0.919434,-0.00223326,-0.00131599,0.00119911,-0.000490804,-0.00305845,0.968054,0.00189665,0.0195547,685,890,-37.2216,-0.919431
-532,134,-37.2426,0.971069,-0.00184408,-0.00132401,0.000996736,-0.000553951,-0.00261414,0.912997,0.0015906,0.0241997,692,890,-37.2425,-0.971074
-525,134,-37.2129,1.14404,-0.00198121,-0.0016297,0.000729178,-0.00105539,-0.00255551,0.90366,0.00148286,0.0354219,699,890,-37.2129,-1.14407
-518,134,-37.1686,1.1452,-0.00253544,-0.00251791,0.000689958,-0.00183666,-0.00321669,0.791752,0.00186338,0.0431316,706,890,-37.1687,-1.14519
-511,134,-37.36,1.36847,-0.00222829,-0.00380061,0.00110981,-0.0016544,-0.0043745,0.477238,0.00255048,0.0454709,713,890,-37.36,-1.36844
-504,134,0,0,0,0,0,0,0,0,0,-1,720,890,0,0
-497,134,0,0,0,0,0,0,0,0,0,-1,727,890,0,0
-490,134,0,0,0,0,0,0,0,0,0,-1,734,890,0,0
-483,134,0,0,0,0,0,0,0,0,0,-1,741,890,0,0
-476,134,0,0,0,0,0,0,0,0,0,-1,748,890,0,0
-469,134,0,0,0,0,0,0,0,0,0,-1,755,890,0,0
-462,134,0,0,0,0,0,0,0,0,0,-1,762,890,0,0
-455,134,0,0,0,0,0,0,0,0,0,-1,769,890,0,0
-448,134,0,0,0,0,0,0,0,0,0,-1,776,890,0,0
-441,134,0,0,0,0,0,0,0,0,0,-1,783,890,0,0
-434,134,0,0,0,0,0,0,0,0,0,-1,790,890,0,0
-427,134,0,0,0,0,0,0,0,0,0,-1,797,890,0,0
-420,134,0,0,0,0,0,0,0,0,0,-1,804,890,0,0
-413,134,0,0,0,0,0,0,0,0,0,-1,811,890,0,0
-406,134,0,0,0,0,0,0,0,0,0,-1,818,890,0,0
-399,134,0,0,0,0,0,0,0,0,0,-1,825,890,0,0
-392,134,0,0,0,0,0,0,0,0,0,-1,832,890,0,0
-385,134,0,0,0,0,0,0,0,0,0,-1,839,890,0,0
-378,134,0,0,0,0,0,0,0,0,0,-1,846,890,0,0
-371,134,0,0,0,0,0,0,0,0,0,-1,853,890,0,0
-364,134,0,0,0,0,0,0,0,0,0,-1,860,890,0,0
-357,134,0,0,0,0,0,0,0,0,0,-1,867,890,0,0
-350,134,0,0,0,0,0,0,0,0,0,-1,874,890,0,0
-343,134,0,0,0,0,0,0,0,0,0,-1,881,890,0,0
-336,134,0,0,0,0,0,0,0,0,0,-1,888,890,0,0
-329,134,0,0,0,0,0,0,0,0,0,-1,895,890,0,0
-322,134,0,0,0,0,0,0,0,0,0,-1,902,890,0,0
-315,134,0,0,0,0,0,0,0,0,0,-1,909,890,0,0
-308,134,0,0,0,0,0,0,0,0,0,-1,916,890,0,0
-301,134,0,0,0,0,0,0,0,0,0,-1,923,890,0,0
-294,134,0,0,0,0,0,0,0,0,0,-1,930,890,0,0
-287,134,0,0,0,0,0,0,0,0,0,-1,937,890,0,0
-280,134,0,0,0,0,0,0,0,0,0,-1,944,890,0,0
-273,134,0,0,0,0,0,0,0,0,0,-1,951,890,0,0
-266,134,0,0,0,0,0,0,0,0,0,-1,958,890,0,0
-259,134,0,0,0,0,0,0,0,0,0,-1,965,890,0,0
-252,134,0,0,0,0,0,0,0,0,0,-1,972,890,0,0
-245,134,0,0,0,0,0,0,0,0,0,-1,979,890,0,0
-238,134,0,0,0,0,0,0,0,0,0,-1,986,890,0,0
-231,134,0,0,0,0,0,0,0,0,0,-1,993,890,0,0
-224,134,0,0,0,0,0,0,0,0,0,-1,1000,890,0,0
-217,134,0,0,0,0,0,0,0,0,0,-1,1007,890,0,0
-210,134,0,0,0,0,0,0,0,0,0,-1,1014,890,0,0
-203,134,0,0,0,0,0,0,0,0,0,-1,1021,890,0,0
-196,134,0,0,0,0,0,0,0,0,0,-1,1028,890,0,0
-189,134,0,0,0,0,0,0,0,0,0,-1,1035,890,0,0
-182,134,0,0,0,0,0,0,0,0,0,-1,1042,890,0,0
-175,134,0,0,0,0,0,0,0,0,0,-1,1049,890,0,0
-168,134,0,0,0,0,0,0,0,0,0,-1,1056,890,0,0
-161,134,0,0,0,0,0,0,0,0,0,-1,1063,890,0,0
-154,134,0,0,0,0,0,0,0,0,0,-1,1070,890,0,0
-147,134,0,0,0,0,0,0,0,0,0,-1,1077,890,0,0
-140,134,0,0,0,0,0,0,0,0,0,-1,1084,890,0,0
-133,134,0,0,0,0,0,0,0,0,0,-1,1091,890,0,0
-126,134,0,0,0,0,0,0,0,0,0,-1,1098,890,0,0
-119,134,0,0,0,0,0,0,0,0,0,-1,1105,890,0,0
-112,134,0,0,0,0,0,0,0,0,0,-1,1112,890,0,0
-105,134,0,0,0,0,0,0,0,0,0,-1,1119,890,0,0
-98,134,0,0,0,0,0,0,0,0,0,-1,1126,890,0,0
-91,134,0,0,0,0,0,0,0,0,0,-1,1133,890,0,0
-84,134,0,0,0,0,0,0,0,0,0,-1,1140,890,0,0
-77,134,0,0,0,0,0,0,0,0,0,-1,1147,890,0,0
-70,134,0,0,0,0,0,0,0,0,0,-1,1154,890,0,0
-63,134,0,0,0,0,0,0,0,0,0,-1,1161,890,0,0
-56,134,0,0,0,0,0,0,0,0,0,-1,1168,890,0,0
-49,134,0,0,0,0,0,0,0,0,0,-1,1175,890,0,0
-42,134,0,0,0,0,0,0,0,0,0,-1,1182,890,0,0
-35,134,0,0,0,0,0,0,0,0,0,-1,1189,890,0,0
-28,134,0,0,0,0,0,0,0,0,0,-1,1196,890,0,0
-21,134,0,0,0,0,0,0,0,0,0,-1,1203,890,0,0
-14,134,0,0,0,0,0,0,0,0,0,-1,1210,890,0,0
-7,134,0,0,0,0,0,0,0,0,0,-1,1217,890,0,0
0,134,0,0,0,0,0,0,0,0,0,-1,1224,890,0,0
7,134,0,0,0,0,0,0,0,0,0,-1,1231,890,0,0
14,134,0,0,0,0,0,0,0,0,0,-1,1238,890,0,0
21,134,0,0,0,0,0,0,0,0,0,-1,1245,890,0,0
28,134,0,0,0,0,0,0,0,0,0,-1,1252,890,0,0
35,134,0,0,0,0,0,0,0,0,0,-1,1259,890,0,0
42,134,0,0,0,0,0,0,0,0,0,-1,1266,890,0,0
49,134,0,0,0,0,0,0,0,0,0,-1,1273,890,0,0
56,134,0,0,0,0,0,0,0,0,0,-1,1280,890,0,0
63,134,0,0,0,0,0,0,0,0,0,-1,1287,890,0,0
70,134,0,0,0,0,0,0,0,0,0,-1,1294,890,0,0
77,134,0,0,0,0,0,0,0,0,0,-1,1301,890,0,0
84,134,0,0,0,0,0,0,0,0,0,-1,1308,890,0,0
91,134,0,0,0,0,0,0,0,0,0,-1,1315,890,0,0
98,134,0,0,0,0,0,0,0,0,0,-1,1322,890,0,0
105,134,0,0,0,0,0,0,0,0,0,-1,1329,890,0,0
112,134,0,0,0,0,0,0,0,0,0,-1,1336,890,0,0
119,134,0,0,0,0,0,0,0,0,0,-1,1343,890,0,0
126,134,0,0,0,0,0,0,0,0,0,-1,1350,890,0,0
133,134,0,0,0,0,0,0,0,0,0,-1,1357,890,0,0
140,134,0,0,0,0,0,0,0,0,0,-1,1364,890,0,0
147,134,0,0,0,0,0,0,0,0,0,-1,1371,890,0,0
154,134,0,0,0,0,0,0,0,0,0,-1,1378,890,0,0
161,134,0,0,0,0,0,0,0,0,0,-1,1385,890,0,0
168,134,0,0,0,0,0,0,0,0,0,-1,1392,890,0,0
175,134,0,0,0,0,0,0,0,0,0,-1,1399,890,0,0
182,134,0,0,0,0,0,0,0,0,0,-1,1406,890,0,0
189,134,0,0,0,0,0,0,0,0,0,-1,1413,890,0,0
196,134,0,0,0,0,0,0,0,0,0,-1,1420,890,0,0
203,134,0,0,0,0,0,0,0,0,0,-1,1427,890,0,0
210,134,0,0,0,0,0,0,0,0,0,-1,1434,890,0,0
217,134,0,0,0,0,0,0,0,0,0,-1,1441,890,0,0
224,134,0,0,0,0,0,0,0,0,0,-1,1448,890,0,0
231,134,0,0,0,0,0,0,0,0,0,-1,1455,890,0,0
238,134,0,0,0,0,0,0,0,0,0,-1,1462,890,0,0
245,134,0,0,0,0,0,0,0,0,0,-1,1469,890,0,0
252,134,0,0,0,0,0,0,0,0,0,-1,1476,890,0,0
259,134,0,0,0,0,0,0,0,0,0,-1,1483,890,0,0
266,134,0,0,0,0,0,0,0,0,0,-1,1490,890,0,0
273,134,0,0,0,0,0,0,0,0,0,-1,1497,890,0,0
280,134,0,0,0,0,0,0,0,0,0,-1,1504,890,0,0
287,134,0,0,0,0,0,0,0,0,0,-1,1511,890,0,0
294,134,0,0,0,0,0,0,0,0,0,-1,1518,890,0,0
301,134,0,0,0,0,0,0,0,0,0,-1,1525,890,0,0
308,134,0,0,0,0,0,0,0,0,0,-1,1532,890,0,0
315,134,0,0,0,0,0,0,0,0,0,-1,1539,890,0,0
322,134,0,0,0,0,0,0,0,0,0,-1,1546,890,0,0
329,134,0,0,0,0,0,0,0,0,0,-1,1553,890,0,0
336,134,0,0,0,0,0,0,0,0,0,-1,1560,890,0,0
343,134,0,0,0,0,0,0,0,0,0,-1,1567,890,0,0
350,134,0,0,0,0,0,0,0,0,0,-1,1574,890,0,0
357,134,0,0,0,0,0,0,0,0,0,-1,1581,890,0,0
364,134,0,0,0,0,0,0,0,0,0,-1,1588,890,0,0
371,134,0,0,0,0,0,0,0,0,0,-1,1595,890,0,0
378,134,0,0,0,0,0,0,0,0,0,-1,1602,890,0,0
385,134,0,0,0,0,0,0,0,0,0,-1,1609,890,0,0
392,134,0,0,0,0,0,0,0,0,0,-1,1616,890,0,0
399,134,0,0,0,0,0,0,0,0,0,-1,1623,890,0,0
406,134,0,0,0,0,0,0,0,0,0,-1,1630,890,0,0
413,134,0,0,0,0,0,0,0,0,0,-1,1637,890,0,0
420,134,0,0,0,0,0,0,0,0,0,-1,1644,890,0,0
427,134,0,0,0,0,0,0,0,0,0,-1,1651,890,0,0
434,134,0,0,0,0,0,0,0,0,0,-1,1658,890,0,0
441,134,0,0,0,0,0,0,0,0,0,-1,1665,890,0,0
448,134,0,0,0,0,0,0,0,0,0,-1,1672,890,0,0
455,134,0,0,0,0,0,0,0,0,0,-1,1679,890,0,0
462,134,0,0,0,0,0,0,0,0,0,-1,1686,890,0,0
469,134,0,0,0,0,0,0,0,0,0,-1,1693,890,0,0
476,134,0,0,0,0,0,0,0,0,0,-1,1700,890,0,0
483,134,0,0,0,0,0,0,0,0,0,-1,1707,890,0,0
490,134,0,0,0,0,0,0,0,0,0,-1,1714,890,0,0
497,134,0,0,0,0,0,0,0,0,0,-1,1721,890,0,0
504,134,0,0,0,0,0,0,0,0,0,-1,1728,890,0,0
511,134,0,0,0,0,0,0,0,0,0,-1,1735,890,0,0
518,134,0,0,0,0,0,0,0,0,0,-1,1742,890,0,0
525,134,0,0,0,0,0,0,0,0,0,-1,1749,890,0,0
532,134,0,0,0,0,0,0,0,0,0,-1,1756,890,0,0
539,134,0,0,0,0,0,0,0,0,0,-1,1763,890,0,0
546,134,0,0,0,0,0,0,0,0,0,-1,1770,890,0,0
553,134,0,0,0,0,0,0,0,0,0,-1,1777,890,0,0
560,134,0,0,0,0,0,0,0,0,0,-1,1784,890,0,0
567,134,0,0,0,0,0,0,0,0,0,-1,1791,890,0,0
574,134,0,0,0,0,0,0,0,0,0,-1,1798,890,0,0
581,134,0,0,0,0,0,0,0,0,0,-1,1805,890,0,0
588,134,0,0,0,0,0,0,0,0,0,-1,1812,890,0,0
595,134,0,0,0,0,0,0,0,0,0,-1,1819,890,0,0
602,134,0,0,0,0,0,0,0,0,0,-1,1826,890,0,0
609,134,0,0,0,0,0,0,0,0,0,-1,1833,890,0,0
616,134,0,0,0,0,0,0,0,0,0,-1,1840,890,0,0
623,134,49.5543,2.92194,0,0,0,0,0,0,0,-1,1847,890,49.5544,-2.92192
630,134,50.0958,2.15479,0,0,0,0,0,0,0,-1,1854,890,50.0958,-2.15479
637,134,50.0514,2.39465,-0.00275858,-0.00195931,-0.00157106,-0.000737854,-0.00398004,-0.909944,0.00244481,0.0441843,1861,890,50.0514,-2.39467
644,134,49.964,2.74896,-0.00203525,-0.00125609,-0.00143527,-0.000158465,-0.00313288,-0.917921,0.00203782,0.0415873,1868,890,49.964,-2.74899
651,134,49.9675,2.81543,-0.00138811,-0.000873864,-0.00136247,0.000255532,-0.00251751,-0.87866,0.00176967,0.0417146,1875,890,49.9675,-2.81545
658,134,49.8094,2.78778,-0.000797218,-0.000574694,-0.00119625,0.000515455,-0.00188737,-0.831769,0.0014607,0.0387174,1882,890,49.8095,-2.78779
665,134,49.634,2.64612,-0.000404213,-0.000326098,-0.00109215,0.000727696,-0.00145801,-0.803272,0.00128518,0.0333046,1889,890,49.634,-2.64612
672,134,49.6886,2.64819,-0.000163631,-0.000196977,-0.000978271,0.000798109,-0.00115872,-0.776877,0.00113615,0.0238886,1896,890,49.6887,-2.64818
679,134,49.7117,2.62445,-1.46951e-05,-0.000163505,-0.000785038,0.000699456,-0.000877656,-0.73815,0.000912482,0.0224423,1903,890,49.7117,-2.62446
686,134,49.7412,2.5202,0,0,0,0,0,0,0,-1,1910,890,49.7412,-2.52018
693,134,34.5778,2.48096,0,0,0,0,0,0,0,-1,1917,890,34.5777,-2.48099
700,134,43.0406,2.50012,0,0,0,0,0,0,0,-1,1924,890,43.0406,-2.50013
707,134,42.9314,2.99225,8.85605e-05,0.000592925,-0.000676912,0.0010631,-0.000381619,-0.963708,0.000864491,0.0227667,1931,890,42.9314,-2.99223
714,134,42.9666,3.58881,-0.000213859,0.000834736,-0.000451719,0.00100249,-0.000381615,-1.21521,0.000825479,0.0234799,1938,890,42.9665,-3.58884
721,134,43.1346,4.17981,-0.000342252,0.00115215,-0.000610304,0.00136972,-0.00055982,-1.22835,0.00114627,0.0212073,1945,890,43.1346,-4.1798
728,134,43.1875,4.67419,-0.000687297,0.00181267,-0.000659917,0.00197617,-0.000850802,-1.32792,0.00167471,0.0195629,1952,890,43.1875,-4.67417
735,134,43.1476,5.25244,-0.000948646,0.00261852,-0.000799312,0.00278943,-0.00111956,-1.36014,0.00232449,0.0263124,1959,890,43.1476,-5.25246
742,134,43.1016,5.79944,-0.00107148,0.00374774,-0.000939579,0.00392445,-0.00124819,-1.3849,0.00311681,0.0166458,1966,890,43.1015,-5.79945
749,134,43.0956,6.27112,-0.00101025,0.00506184,-0.000921662,0.00519865,-0.00114707,-1.42343,0.00390469,0.0126857,1973,890,43.0956,-6.27109
756,134,43.0802,6.72754,-0.000648374,0.00667865,-0.000583155,0.00672477,-0.000694496,-1.49187,0.0047317,0.0180927,1980,890,43.0802,-6.72755
763,134,43.0547,7.20129,0.000216309,0.00889328,0.0003455,0.00890701,0.000202573,1.53106,0.00587165,0.0403146,1987,890,43.0547,-7.20127
770,134,43.0233,7.68384,0,0,0,0,0,0,0,-1,1994,890,43.0233,-7.68383
777,134,43.6969,5.94574,0,0,0,0,0,0,0,-1,2001,890,43.697,-5.94577
784,134,42.3352,7.4964,0,0,0,0,0,0,0,-1,2008,890,42.3352,-7.49641
791,134,42.2061,9.63593,0,0,0,0,0,0,0,-1,2015,890,42.2061,-9.63591
798,134,0,0,0,0,0,0,0,0,0,-1,2022,890,0,0
805,134,0,0,0,0,0,0,0,0,0,-1,2029,890,0,0
812,134,0,0,0,0,0,0,0,0,0,-1,2036,890,0,0
-700,127,0,0,0,0,0,0,0,0,0,-1,524,897,0,0
-693,127,0,0,0,0,0,0,0,0,0,-1,531,897,0,0
-686,127,0,0,0,0,0,0,0,0,0,-1,538,897,0,0
-679,127,-32.9667,3.50061,0,0,0,0,0,0,0,-1,545,897,-32.9667,-3.5006
-672,127,-32.0874,2.69391,0,0,0,0,0,0,0,-1,552,897,-32.0874,-2.69393
-665,127,-31.0463,1.13654,0,0,0,0,0,0,0,-1,559,897,-31.0462,-1.13651
-658,127,-33.3229,4.29913,0,0,0,0,0,0,0,-1,566,897,-33.3229,-4.29914
-651,127,-34.5706,4.06219,0,0,0,0,0,0,0,-1,573,897,-34.5706,-4.06219
-644,127,-33.8521,1.84509,0,0,0,0,0,0,0,-1,580,897,-33.8521,-1.84508
-637,127,-32.9194,3.28632,0,0,0,0,0,0,0,-1,587,897,-32.9194,-3.2863
-630,127,-32.4821,3.72974,0.00962142,0.0122106,0.00291338,0.014104,0.00772794,0.994472,0.00815543,0.047217,594,897,-32.4821,-3.72972
-623,127,-32.2387,3.92444,0.00469415,0.0100708,0.00325021,0.0116004,0.00316453,1.13093,0.00692414,0.0169834,601,897,-32.2387,-3.92444
-616,127,-32.3061,3.53326,0.00239889,0.0067788,0.00281491,0.0081553,0.00102239,1.11598,0.00513014,0.0110766,608,897,-32.3061,-3.53324
-609,127,-32.3748,3.06116,-0.000323888,0.00399171,0.0025941,0.00520814,-0.00154032,1.13232,0.00408355,0.0142828,615,897,-32.3748,-3.06114
-602,127,-32.3857,2.59399,-0.00277652,0.00177994,0.0023838,0.00279911,-0.00379569,1.16678,0.00382197,0.0157016,622,897,-32.3857,-2.594
-595,127,-32.3392,2.20569,-0.00397172,0.000437106,0.00223386,0.00137109,-0.0049057,1.17478,0.00381063,0.0268528,629,897,-32.3392,-2.20568
-588,127,-32.4296,1.68878,-0.00401058,-0.000387365,0.00210151,0.000575599,-0.00497355,1.14112,0.00352327,0.0355504,636,897,-32.4296,-1.68878
-581,127,-32.1671,1.21149,0,0,0,0,0,0,0,-1,643,897,-32.167,-1.2115
-574,127,-25.2603,0.511169,0,0,0,0,0,0,0,-1,650,897,-25.2603,-0.51117
-567,127,-24.5417,-0.0447388,0,0,0,0,0,0,0,-1,657,897,-24.5417,0.0447226
-560,127,-18.9678,1.21667,0,0,0,0,0,0,0,-1,664,897,-18.9677,-1.2167
-553,127,-37.2431,0.834961,0,0,0,0,0,0,0,-1,671,897,-37.2431,-0.834933
-546,127,-37.2056,0.860229,-0.00381107,-0.00158896,0.00116407,-0.00109082,-0.00430921,1.16645,0.00258703,0.023163,678,897,-37.2056,-0.86025
-539,127,-37.1881,0.905273,-0.00343557,-0.00149051,0.000929611,-0.00111768,-0.0038084,1.18938,0.00226044,0.0203889,685,897,-37.1881,-0.905283
-532,127,-37.2117,0.944946,-0.00295465,-0.00142488,0.000650756,-0.00118551,-0.00319402,1.21832,0.00186437,0.0170209,692,897,-37.2117,-0.944966
-525,127,-37.3175,1.14832,-0.0029635,-0.00164602,0.000163612,-0.00162601,-0.00298351,1.44907,0.00172485,0.0323975,699,897,-37.3175,-1.14832
-518,127,-37.3978,1.41315,-0.00379303,-0.0024336,-0.000311071,-0.0023658,-0.00386083,-1.3562,0.00224787,0.0409505,706,897,-37.3979,-1.41312
-511,127,-37.287,1.24011,-0.00398293,-0.00349698,-0.000592628,-0.00309945,-0.00438046,-0.979945,0.00260068,0.0436991,713,897,-37.2871,-1.24014
-504,127,0,0,0,0,0,0,0,0,0,-1,720,897,0,0
-497,127,0,0,0,0,0,0,0,0,0,-1,727,897,0,0
-490,127,0,0,0,0,0,0,0,0,0,-1,734,897,0,0
-483,127,0,0,0,0,0,0,0,0,0,-1,741,897,0,0
-476,127,0,0,0,0,0,0,0,0,0,-1,748,897,0,0
-469,127,0,0,0,0,0,0,0,0,0,-1,755,897,0,0
-462,127,0,0,0,0,0,0,0,0,0,-1,762,897,0,0
-455,127,0,0,0,0,0,0,0,0,0,-1,769,897,0,0
-448,127,0,0,0,0,0,0,0,0,0,-1,776,897,0,0
-441,127,0,0,0,0,0,0,0,0,0,-1,783,897,0,0
-434,127,0,0,0,0,0,0,0,0,0,-1,790,897,0,0
-427,127,0,0,0,0,0,0,0,0,0,-1,797,897,0,0
-420,127,0,0,0,0,0,0,0,0,0,-1,804,897,0,0
-413,127,0,0,0,0,0,0,0,0,0,-1,811,897,0,0
-406,127,0,0,0,0,0,0,0,0,0,-1,818,897,0,0
-399,127,0,0,0,0,0,0,0,0,0,-1,825,897,0,0
-392,127,0,0,0,0,0,0,0,0,0,-1,832,897,0,0
-385,127,0,0,0,0,0,0,0,0,0,-1,839,897,0,0
-378,127,0,0,0,0,0,0,0,0,0,-1,846,897,0,0
-371,127,0,0,0,0,0,0,0,0,0,-1,853,897,0,0
-364,127,0,0,0,0,0,0,0,0,0,-1,860,897,0,0
-357,127,0,0,0,0,0,0,0,0,0,-1,867,897,0,0
-350,127,0,0,0,0,0,0,0,0,0,-1,874,897,0,0
-343,127,0,0,0,0,0,0,0,0,0,-1,881,897,0,0
-336,127,0,0,0,0,0,0,0,0,0,-1,888,897,0,0
-329,127,0,0,0,0,0,0,0,0,0,-1,895,897,0,0
-322,127,0,0,0,0,0,0,0,0,0,-1,902,897,0,0
-315,127,0,0,0,0,0,0,0,0,0,-1,909,897,0,0
-308,127,0,0,0,0,0,0,0,0,0,-1,916,897,0,0
-301,127,0,0,0,0,0,0,0,0,0,-1,923,897,0,0
-294,127,0,0,0,0,0,0,0,0,0,-1,930,897,0,0
-287,127,0,0,0,0,0,0,0,0,0,-1,937,897,0,0
-280,127,0,0,0,0,0,0,0,0,0,-1,944,897,0,0
-273,127,0,0,0,0,0,0,0,0,0,-1,951,897,0,0
-266,127,0,0,0,0,0,0,0,0,0,-1,958,897,0,0
-259,127,0,0,0,0,0,0,0,0,0,-1,965,897,0,0
-252,127,0,0,0,0,0,0,0,0,0,-1,972,897,0,0
-245,127,0,0,0,0,0,0,0,0,0,-1,979,897,0,0
-238,127,0,0,0,0,0,0,0,0,0,-1,986,897,0,0
-231,127,0,0,0,0,0,0,0,0,0,-1,993,897,0,0
-224,127,0,0,0,0,0,0,0,0,0,-1,1000,897,0,0
-217,127,0,0,0,0,0,0,0,0,0,-1,1007,897,0,0
-210,127,0,0,0,0,0,0,0,0,0,-1,1014,897,0,0
-203,127,0,0,0,0,0,0,0,0,0,-1,1021,897,0,0
-196,127,0,0,0,0,0,0,0,0,0,-1,1028,897,0,0
-189,127,0,0,0,0,0,0,0,0,0,-1,1035,897,0,0
-182,127,0,0,0,0,0,0,0,0,0,-1,1042,897,0,0
-175,127,0,0,0,0,0,0,0,0,0,-1,1049,897,0,0
-168,127,0,0,0,0,0,0,0,0,0,-1,1056,897,0,0
-161,127,0,0,0,0,0,0,0,0,0,-1,1063,897,0,0
-154,127,0,0,0,0,0,0,0,0,0,-1,1070,897,0,0
-147,127,0,0,0,0,0,0,0,0,0,-1,1077,897,0,0
-140,127,0,0,0,0,0,0,0,0,0,-1,1084,897,0,0
-133,127,0,0,0,0,0,0,0,0,0,-1,1091,897,0,0
-126,127,0,0,0,0,0,0,0,0,0,-1,1098,897,0,0
-119,127,0,0,0,0,0,0,0,0,0,-1,1105,897,0,0
-112,127,0,0,0,0,0,0,0,0,0,-1,1112,897,0,0
-105,127,0,0,0,0,0,0,0,0,0,-1,1119,897,0,0
-98,127,0,0,0,0,0,0,0,0,0,-1,1126,897,0,0
-91,127,0,0,0,0,0,0,0,0,0,-1,1133,897,0,0
-84,127,0,0,0,0,0,0,0,0,0,-1,1140,897,0,0
-77,127,0,0,0,0,0,0,0,0,0,-1,1147,897,0,0
-70,127,0,0,0,0,0,0,0,0,0,-1,1154,897,0,0
-63,127,0,0,0,0,0,0,0,0,0,-1,1161,897,0,0
-56,127,0,0,0,0,0,0,0,0,0,-1,1168,897,0,0
-49,127,0,0,0,0,0,0,0,0,0,-1,1175,897,0,0
-42,127,0,0,0,0,0,0,0,0,0,-1,1182,897,0,0
-35,127,0,0,0,0,0,0,0,0,0,-1,1189,897,0,0
-28,127,0,0,0,0,0,0,0,0,0,-1,1196,897,0,0
-21,127,0,0,0,0,0,0,0,0,0,-1,1203,897,0,0
-14,127,0,0,0,0,0,0,0,0,0,-1,1210,897,0,0
-7,127,0,0,0,0,0,0,0,0,0,-1,1217,897,0,0
0,127,0,0,0,0,0,0,0,0,0,-1,1224,897,0,0
7,127,0,0,0,0,0,0,0,0,0,-1,1231,897,0,0
14,127,0,0,0,0,0,0,0,0,0,-1,1238,897,0,0
21,127,0,0,0,0,0,0,0,0,0,-1,1245,897,0,0
28,127,0,0,0,0,0,0,0,0,0,-1,1252,897,0,0
35,127,0,0,0,0,0,0,0,0,0,-1,1259,897,0,0
42,127,0,0,0,0,0,0,0,0,0,-1,1266,897,0,0
49,127,0,0,0,0,0,0,0,0,0,-1,1273,897,0,0
56,127,0,0,0,0,0,0,0,0,0,-1,1280,897,0,0
63,127,0,0,0,0,0,0,0,0,0,-1,1287,897,0,0
70,127,0,0,0,0,0,0,0,0,0,-1,1294,897,0,0
77,127,0,0,0,0,0,0,0,0,0,-1,1301,897,0,0
84,127,0,0,0,0,0,0,0,0,0,-1,1308,897,0,0
91,127,0,0,0,0,0,0,0,0,0,-1,1315,897,0,0
98,127,0,0,0,0,0,0,0,0,0,-1,1322,897,0,0
105,127,0,0,0,0,0,0,0,0,0,-1,1329,897,0,0
112,127,0,0,0,0,0,0,0,0,0,-1,1336,897,0,0
119,127,0,0,0,0,0,0,0,0,0,-1,1343,897,0,0
126,127,0,0,0,0,0,0,0,0,0,-1,1350,897,0,0
133,127,0,0,0,0,0,0,0,0,0,-1,1357,897,0,0
140,127,0,0,0,0,0,0,0,0,0,-1,1364,897,0,0
147,127,0,0,0,0,0,0,0,0,0,-1,1371,897,0,0
154,127,0,0,0,0,0,0,0,0,0,-1,1378,897,0,0
161,127,0,0,0,0,0,0,0,0,0,-1,1385,897,0,0
168,127,0,0,0,0,0,0,0,0,0,-1,1392,897,0,0
175,127,0,0,0,0,0,0,0,0,0,-1,1399,897,0,0
182,127,0,0,0,0,0,0,0,0,0,-1,1406,897,0,0
189,127,0,0,0,0,0,0,0,0,0,-1,1413,897,0,0
196,127,0,0,0,0,0,0,0,0,0,-1,1420,897,0,0
203,127,0,0,0,0,0,0,0,0,0,-1,1427,897,0,0
210,127,0,0,0,0,0,0,0,0,0,-1,1434,897,0,0
217,127,0,0,0,0,0,0,0,0,0,-1,1441,897,0,0
224,127,0,0,0,0,0,0,0,0,0,-1,1448,897,0,0
231,127,0,0,0,0,0,0,0,0,0,-1,1455,897,0,0
238,127,0,0,0,0,0,0,0,0,0,-1,1462,897,0,0
245,127,0,0,0,0,0,0,0,0,0,-1,1469,897,0,0
252,127,0,0,0,0,0,0,0,0,0,-1,1476,897,0,0
259,127,0,0,0,0,0,0,0,0,0,-1,1483,897,0,0
266,127,0,0,0,0,0,0,0,0,0,-1,1490,897,0,0
273,127,0,0,0,0,0,0,0,0,0,-1,1497,897,0,0
280,127,0,0,0,0,0,0,0,0,0,-1,1504,897,0,0
287,127,0,0,0,0,0,0,0,0,0,-1,1511,897,0,0
294,127,0,0,0,0,0,0,0,0,0,-1,1518,897,0,0
301,127,0,0,0,0,0,0,0,0,0,-1,1525,897,0,0
308,127,0,0,0,0,0,0,0,0,0,-1,1532,897,0,0
315,127,0,0,0,0,0,0,0,0,0,-1,1539,897,0,0
322,127,0,0,0,0,0,0,0,0,0,-1,1546,897,0,0
329,127,0,0,0,0,0,0,0,0,0,-1,1553,897,0,0
336,127,0,0,0,0,0,0,0,0,0,-1,1560,897,0,0
343,127,0,0,0,0,0,0,0,0,0,-1,1567,897,0,0
350,127,0,0,0,0,0,0,0,0,0,-1,1574,897,0,0
357,127,0,0,0,0,0,0,0,0,0,-1,1581,897,0,0
364,127,0,0,0,0,0,0,0,0,0,-1,1588,897,0,0
371,127,0,0,0,0,0,0,0,0,0,-1,1595,897,0,0
378,127,0,0,0,0,0,0,0,0,0,-1,1602,897,0,0
385,127,0,0,0,0,0,0,0,0,0,-1,1609,897,0,0
392,127,0,0,0,0,0,0,0,0,0,-1,1616,897,0,0
399,127,0,0,0,0,0,0,0,0,0,-1,1623,897,0,0
406,127,0,0,0,0,0,0,0,0,0,-1,1630,897,0,0
413,127,0,0,0,0,0,0,0,0,0,-1,1637,897,0,0
420,127,0,0,0,0,0,0,0,0,0,-1,1644,897,0,0
427,127,0,0,0,0,0,0,0,0,0,-1,1651,897,0,0
434,127,0,0,0,0,0,0,0,0,0,-1,1658,897,0,0
441,127,0,0,0,0,0,0,0,0,0,-1,1665,897,0,0
448,127,0,0,0,0,0,0,0,0,0,-1,1672,897,0,0
455,127,0,0,0,0,0,0,0,0,0,-1,1679,897,0,0
462,127,0,0,0,0,0,0,0,0,0,-1,1686,897,0,0
469,127,0,0,0,0,0,0,0,0,0,-1,1693,897,0,0
476,127,0,0,0,0,0,0,0,0,0,-1,1700,897,0,0
483,127,0,0,0,0,0,0,0,0,0,-1,1707,897,0,0
490,127,0,0,0,0,0,0,0,0,0,-1,1714,897,0,0
497,127,0,0,0,0,0,0,0,0,0,-1,1721,897,0,0
504,127,0,0,0,0,0,0,0,0,0,-1,1728,897,0,0
511,127,0,0,0,0,0,0,0,0,0,-1,1735,897,0,0
518,127,0,0,0,0,0,0,0,0,0,-1,1742,897,0,0
525,127,0,0,0,0,0,0,0,0,0,-1,1749,897,0,0
532,127,0,0,0,0,0,0,0,0,0,-1,1756,897,0,0
539,127,0,0,0,0,0,0,0,0,0,-1,1763,897,0,0
546,127,0,0,0,0,0,0,0,0,0,-1,1770,897,0,0
553,127,0,0,0,0,0,0,0,0,0,-1,1777,897,0,0
560,127,0,0,0,0,0,0,0,0,0,-1,1784,897,0,0
567,127,0,0,0,0,0,0,0,0,0,-1,1791,897,0,0
574,127,0,0,0,0,0,0,0,0,0,-1,1798,897,0,0
581,127,0,0,0,0,0,0,0,0,0,-1,1805,897,0,0
588,127,0,0,0,0,0,0,0,0,0,-1,1812,897,0,0
595,127,0,0,0,0,0,0,0,0,0,-1,1819,897,0,0
602,127,0,0,0,0,0,0,0,0,0,-1,1826,897,0,0
609,127,0,0,0,0,0,0,0,0,0,-1,1833,897,0,0
616,127,0,0,0,0,0,0,0,0,0,-1,1840,897,0,0
623,127,0,0,0,0,0,0,0,0,0,-1,1847,897,0,0
630,127,49.7661,2.54816,0,0,0,0,0,0,0,-1,1854,897,49.7661,-2.54817
637,127,49.8269,2.78284,-0.00313249,-0.00241059,-0.00143921,-0.00128776,-0.00425532,-0.908264,0.00251981,0.0413279,1861,897,49.8269,-2.78281
644,127,49.8358,2.93518,-0.00219879,-0.0015748,-0.00150631,-0.00034851,-0.00342508,-0.887518,0.00217654,0.0413731,1868,897,49.8359,-2.93519
651,127,49.744,2.95477,-0.00137978,-0.00107285,-0.00155153,0.000332786,-0.00278542,-0.834695,0.00197723,0.042812,1875,897,49.744,-2.95476
658,127,49.6256,2.84229,-0.000645884,-0.000676697,-0.00141909,0.000757883,-0.00208046,-0.77997,0.00169699,0.0414026,1882,897,49.6256,-2.84227
665,127,49.6057,2.60321,-0.000101271,-0.000337627,-0.00125414,0.00104025,-0.00147915,-0.738422,0.00146191,0.0388828,1889,897,49.6057,-2.60322
672,127,49.6465,2.55249,0.000208603,-0.000171626,-0.00104766,0.00108326,-0.00104628,-0.695642,0.00122955,0.0332119,1896,897,49.6465,-2.55247
679,127,49.7211,2.63165,0.000373902,-0.000120359,-0.000787696,0.000952324,-0.000698782,-0.633392,0.000957006,0.0265036,1903,897,49.7211,-2.63162
686,127,49.714,2.57922,0.00048482,-0.000114961,-0.000557616,0.000818072,-0.000448213,-0.538681,0.000741412,0.0483127,1910,897,49.7139,-2.5792
693,127,49.6831,2.37207,0,0,0,0,0,0,0,-1,1917,897,49.6831,-2.37205
700,127,43.5055,2.50787,0,0,0,0,0,0,0,-1,1924,897,43.5056,-2.50787
707,127,43.3961,3.02435,0.000328914,0.000652808,-0.000561646,0.00107539,-9.36665e-05,-0.925763,0.0007501,0.0273118,1931,897,43.3962,-3.02437
714,127,43.6262,3.6283,-7.39686e-05,0.000889177,-0.000279007,0.000964163,-0.000148954,-1.30824,0.000697747,0.0223352,1938,897,43.6262,-3.6283
721,127,43.7797,4.29755,-0.000250757,0.00119777,-0.000459881,0.00133144,-0.000384426,-1.28793,0.00103974,0.0201467,1945,897,43.7796,-4.29752
728,127,43.6981,4.72113,-0.000677396,0.00182845,-0.000554636,0.00194572,-0.000794669,-1.36242,0.00162802,0.0173762,1952,897,43.6981,-4.7211
735,127,43.6611,5.24768,-0.0010638,0.00260377,-0.000741351,0.00274796,-0.00120799,-1.3787,0.00234094,0.0214347,1959,897,43.6611,-5.24769
742,127,43.6403,5.77155,-0.00136246,0.00373209,-0.000952366,0.0039043,-0.00153467,-1.3919,0.00323801,0.0186155,1966,897,43.6403,-5.77153
749,127,43.615,6.25458,-0.00152851,0.00510314,-0.000985663,0.00524653,-0.00167191,-1.42633,0.0041683,0.0127695,1973,897,43.6149,-6.25456
756,127,43.5819,6.7066,-0.00141541,0.00680172,-0.000683883,0.00685825,-0.00147194,-1.48833,0.00513364,0.0158061,1980,897,43.582,-6.70659
763,127,43.543,7.18036,-0.000850771,0.00902339,0.000190231,0.00902705,-0.000854434,1.55154,0.00632212,0.026273,1987,897,43.5429,-7.18034
770,127,43.5424,7.66187,0,0,0,0,0,0,0,-1,1994,897,43.5424,-7.66184
777,127,42.703,5.33789,0,0,0,0,0,0,0,-1,2001,897,42.7031,-5.33791
784,127,42.6145,8.47131,0,0,0,0,0,0,0,-1,2008,897,42.6146,-8.47131
791,127,42.5813,5.51636,0,0,0,0,0,0,0,-1,2015,897,42.5813,-5.51633
798,127,0,0,0,0,0,0,0,0,0,-1,2022,897,0,0
805,127,0,0,0,0,0,0,0,0,0,-1,2029,897,0,0
812,127,0,0,0,0,0,0,0,0,0,-1,2036,897,0,0
-700,120,0,0,0,0,0,0,0,0,0,-1,524,904,0,0
-693,120,0,0,0,0,0,0,0,0,0,-1,531,904,0,0
-686,120,0,0,0,0,0,0,0,0,0,-1,538,904,0,0
-679,120,-33.0936,4.02045,0.115268,-0.0106779,-0.0153885,0.117121,-0.0125309,-0.119835,0.0825753,0.0465807,545,904,-33.0936,-4.02042
-672,120,-31.7158,3.0824,0,0,0,0,0,0,0,-1,552,904,-31.7157,-3.0824
-665,120,-30.9061,1.8797,0,0,0,0,0,0,0,-1,559,904,-30.9061,-1.87969
-658,120,-30.1428,0.909485,0,0,0,0,0,0,0,-1,566,904,-30.1428,-0.9095
-651,120,-33.7668,3.00983,0,0,0,0,0,0,0,-1,573,904,-33.7668,-3.00981
-644,120,-34.8061,4.37976,0,0,0,0,0,0,0,-1,580,904,-34.8061,-4.37974
-637,120,-33.7903,4.4054,0.00858751,0.00959271,0.00282805,0.0119625,0.00621775,0.87334,0.00690834,0.0460337,587,904,-33.7903,-4.40538
-630,120,-32.7837,4.32556,0.00534422,0.00767447,0.003065,0.00978833,0.00323036,0.967033,0.00575912,0.0283853,594,904,-32.7837,-4.32557
-623,120,-32.7781,3.9295,0.00149652,0.00646826,0.00338725,0.00818394,-0.000219161,1.10195,0.00553046,0.0116935,601,904,-32.7781,-3.92952
-616,120,-32.7868,3.50641,-6.65965e-05,0.00426173,0.00294838,0.00575496,-0.00155983,1.102,0.00444869,0.010804,608,904,-32.7868,-3.50639
-609,120,-32.8326,3.05078,-0.00233838,0.00242843,0.00269706,0.00364429,-0.00355425,1.14727,0.00415619,0.0144898,615,904,-32.8326,-3.05076
-602,120,-32.8673,2.62561,-0.00453075,0.00089903,0.00244618,0.00183851,-0.00547023,1.20411,0.00438992,0.0161783,622,904,-32.8673,-2.62559
-595,120,-32.8188,2.25012,-0.00559982,-0.000103178,0.00226822,0.000711937,-0.00641493,1.2258,0.00453261,0.0289112,629,904,-32.8188,-2.25013
-588,120,-32.8013,1.7121,-0.00557398,-0.000759883,0.00215342,6.27881e-05,-0.00639665,1.20588,0.00428552,0.0392849,636,904,-32.8013,-1.71207
-581,120,-32.5607,1.06122,0,0,0,0,0,0,0,-1,643,904,-32.5607,-1.06121
-574,120,-27.5438,0.505066,0,0,0,0,0,0,0,-1,650,904,-27.5438,-0.505085
-567,120,-25.2822,-0.410645,0,0,0,0,0,0,0,-1,657,904,-25.2821,0.410629
-560,120,-27.3358,1.10327,0,0,0,0,0,0,0,-1,664,904,-27.3358,-1.10324
-553,120,-37.1956,0.810486,0,0,0,0,0,0,0,-1,671,904,-37.1955,-0.810486
-546,120,-37.1408,0.834961,-0.00488409,-0.00157824,0.00126032,-0.00115257,-0.00530976,1.24508,0.00322505,0.0311096,678,904,-37.1408,-0.834952
-539,120,-37.1438,0.944763,-0.00435472,-0.00138694,0.0010287,-0.00106524,-0.00467642,1.26771,0.00283016,0.0249978,685,904,-37.1438,-0.944752
-532,120,-37.1999,0.950317,-0.00368625,-0.0011575,0.0007311,-0.000961341,-0.00388241,1.30867,0.00233476,0.0276273,692,904,-37.1999,-0.950296
-525,120,-37.3232,1.07782,-0.00352696,-0.00108373,8.31875e-05,-0.0010809,-0.00352979,1.5368,0.00208832,0.0353192,699,904,-37.3232,-1.07781
-518,120,-37.4577,1.28143,-0.004873,-0.00146062,-0.00077652,-0.00129223,-0.00504139,-1.35724,0.00302367,0.0369202,706,904,-37.4577,-1.28144
-511,120,-37.2982,1.03973,-0.00563035,-0.00198682,-0.00173509,-0.00129277,-0.00632441,-1.19028,0.00385823,0.0374881,713,904,-37.2982,-1.03976
-504,120,0,0,0,0,0,0,0,0,0,-1,720,904,0,0
-497,120,0,0,0,0,0,0,0,0,0,-1,727,904,0,0
-490,120,0,0,0,0,0,0,0,0,0,-1,734,904,0,0
-483,120,0,0,0,0,0,0,0,0,0,-1,741,904,0,0
-476,120,0,0,0,0,0,0,0,0,0,-1,748,904,0,0
-469,120,0,0,0,0,0,0,0,0,0,-1,755,904,0,0
-462,120,0,0,0,0,0,0,0,0,0,-1,762,904,0,0
-455,120,0,0,0,0,0,0,0,0,0,-1,769,904,0,0
-448,120,0,0,0,0,0,0,0,0,0,-1,776,904,0,0
-441,120,0,0,0,0,0,0,0,0,0,-1,783,904,0,0
-434,120,0,0,0,0,0,0,0,0,0,-1,790,904,0,0
-427,120,0,0,0,0,0,0,0,0,0,-1,797,904,0,0
-420,120,0,0,0,0,0,0,0,0,0,-1,804,904,0,0
-413,120,0,0,0,0,0,0,0,0,0,-1,811,904,0,0
-406,120,0,0,0,0,0,0,0,0,0,-1,818,904,0,0
-399,120,0,0,0,0,0,0,0,0,0,-1,825,904,0,0
-392,120,0,0,0,0,0,0,0,0,0,-1,832,904,0,0
-385,120,0,0,0,0,0,0,0,0,0,-1,839,904,0,0
-378,120,0,0,0,0,0,0,0,0,0,-1,846,904,0,0
-371,120,0,0,0,0,0,0,0,0,0,-1,853,904,0,0
-364,120,0,0,0,0,0,0,0,0,0,-1,860,904,0,0
-357,120,0,0,0,0,0,0,0,0,0,-1,867,904,0,0
-350,120,0,0,0,0,0,0,0,0,0,-1,874,904,0,0
-343,120,0,0,0,0,0,0,0,0,0,-1,881,904,0,0
-336,120,0,0,0,0,0,0,0,0,0,-1,888,904,0,0
-329,120,0,0,0,0,0,0,0,0,0,-1,895,904,0,0
-322,120,0,0,0,0,0,0,0,0,0,-1,902,904,0,0
-315,120,0,0,0,0,0,0,0,0,0,-1,909,904,0,0
-308,120,0,0,0,0,0,0,0,0,0,-1,916,904,0,0
-301,120,0,0,0,0,0,0,0,0,0,-1,923,904,0,0
-294,120,0,0,0,0,0,0,0,0,0,-1,930,904,0,0
-287,120,0,0,0,0,0,0,0,0,0,-1,937,904,0,0
-280,120,0,0,0,0,0,0,0,0,0,-1,944,904,0,0
-273,120,0,0,0,0,0,0,0,0,0,-1,951,904,0,0
-266,120,0,0,0,0,0,0,0,0,0,-1,958,904,0,0
-259,120,0,0,0,0,0,0,0,0,0,-1,965,904,0,0
-252,120,0,0,0,0,0,0,0,0,0,-1,972,904,0,0
-245,120,0,0,0,0,0,0,0,0,0,-1,979,904,0,0
-238,120,0,0,0,0,0,0,0,0,0,-1,986,904,0,0
-231,120,0,0,0,0,0,0,0,0,0,-1,993,904,0,0
-224,120,0,0,0,0,0,0,0,0,0,-1,1000,904,0,0
-217,120,0,0,0,0,0,0,0,0,0,-1,1007,904,0,0
-210,120,0,0,0,0,0,0,0,0,0,-1,1014,904,0,0
-203,120,0,0,0,0,0,0,0,0,0,-1,1021,904,0,0
-196,120,0,0,0,0,0,0,0,0,0,-1,1028,904,0,0
-189,120,0,0,0,0,0,0,0,0,0,-1,1035,904,0,0
-182,120,0,0,0,0,0,0,0,0,0,-1,1042,904,0,0
-175,120,0,0,0,0,0,0,0,0,0,-1,1049,904,0,0
-168,120,0,0,0,0,0,0,0,0,0,-1,1056,904,0,0
-161,120,0,0,0,0,0,0,0,0,0,-1,1063,904,0,0
-154,120,0,0,0,0,0,0,0,0,0,-1,1070,904,0,0
-147,120,0,0,0,0,0,0,0,0,0,-1,1077,904,0,0
-140,120,0,0,0,0,0,0,0,0,0,-1,1084,904,0,0
-133,120,0,0,0,0,0,0,0,0,0,-1,1091,904,0,0
-126,120,0,0,0,0,0,0,0,0,0,-1,1098,904,0,0
-119,120,0,0,0,0,0,0,0,0,0,-1,1105,904,0,0
-112,120,0,0,0,0,0,0,0,0,0,-1,1112,904,0,0
-105,120,0,0,0,0,0,0,0,0,0,-1,1119,904,0,0
-98,120,0,0,0,0,0,0,0,0,0,-1,1126,904,0,0
-91,120,0,0,0,0,0,0,0,0,0,-1,1133,904,0,0
-84,120,0,0,0,0,0,0,0,0,0,-1,1140,904,0,0
-77,120,0,0,0,0,0,0,0,0,0,-1,1147,904,0,0
-70,120,0,0,0,0,0,0,0,0,0,-1,1154,904,0,0
-63,120,0,0,0,0,0,0,0,0,0,-1,1161,904,0,0
-56,120,0,0,0,0,0,0,0,0,0,-1,1168,904,0,0
-49,120,0,0,0,0,0,0,0,0,0,-1,1175,904,0,0
-42,120,0,0,0,0,0,0,0,0,0,-1,1182,904,0,0
-35,120,0,0,0,0,0,0,0,0,0,-1,1189,904,0,0
-28,120,0,0,0,0,0,0,0,0,0,-1,1196,904,0,0
-21,120,0,0,0,0,0,0,0,0,0,-1,1203,904,0,0
-14,120,0,0,0,0,0,0,0,0,0,-1,1210,904,0,0
-7,120,0,0,0,0,0,0,0,0,0,-1,1217,904,0,0
0,120,0,0,0,0,0,0,0,0,0,-1,1224,904,0,0
7,120,0,0,0,0,0,0,0,0,0,-1,1231,904,0,0
14,120,0,0,0,0,0,0,0,0,0,-1,1238,904,0,0
21,120,0,0,0,0,0,0,0,0,0,-1,1245,904,0,0
28,120,0,0,0,0,0,0,0,0,0,-1,1252,904,0,0
35,120,0,0,0,0,0,0,0,0,0,-1,1259,904,0,0
42,120,0,0,0,0,0,0,0,0,0,-1,1266,904,0,0
49,120,0,0,0,0,0,0,0,0,0,-1,1273,904,0,0
56,120,0,0,0,0,0,0,0,0,0,-1,1280,904,0,0
63,120,0,0,0,0,0,0,0,0,0,-1,1287,904,0,0
70,120,0,0,0,0,0,0,0,0,0,-1,1294,904,0,0
77,120,0,0,0,0,0,0,0,0,0,-1,1301,904,0,0
84,120,0,0,0,0,0,0,0,0,0,-1,1308,904,0,0
91,120,0,0,0,0,0,0,0,0,0,-1,1315,904,0,0
98,120,0,0,0,0,0,0,0,0,0,-1,1322,904,0,0
105,120,0,0,0,0,0,0,0,0,0,-1,1329,904,0,0
112,120,0,0,0,0,0,0,0,0,0,-1,1336,904,0,0
119,120,0,0,0,0,0,0,0,0,0,-1,1343,904,0,0
126,120,0,0,0,0,0,0,0,0,0,-1,1350,904,0,0
133,120,0,0,0,0,0,0,0,0,0,-1,1357,904,0,0
140,120,0,0,0,0,0,0,0,0,0,-1,1364,904,0,0
147,120,0,0,0,0,0,0,0,0,0,-1,1371,904,0,0
154,120,0,0,0,0,0,0,0,0,0,-1,1378,904,0,0
161,120,0,0,0,0,0,0,0,0,0,-1,1385,904,0,0
168,120,0,0,0,0,0,0,0,0,0,-1,1392,904,0,0
175,120,0,0,0,0,0,0,0,0,0,-1,1399,904,0,0
182,120,0,0,0,0,0,0,0,0,0,-1,1406,904,0,0
189,120,0,0,0,0,0,0,0,0,0,-1,1413,904,0,0
196,120,0,0,0,0,0,0,0,0,0,-1,1420,904,0,0
203,120,0,0,0,0,0,0,0,0,0,-1,1427,904,0,0
210,120,0,0,0,0,0,0,0,0,0,-1,1434,904,0,0
217,120,0,0,0,0,0,0,0,0,0,-1,1441,904,0,0
224,120,0,0,0,0,0,0,0,0,0,-1,1448,904,0,0
231,120,0,0,0,0,0,0,0,0,0,-1,1455,904,0,0
238,120,0,0,0,0,0,0,0,0,0,-1,1462,904,0,0
245,120,0,0,0,0,0,0,0,0,0,-1,1469,904,0,0
252,120,0,0,0,0,0,0,0,0,0,-1,1476,904,0,0
259,120,0,0,0,0,0,0,0,0,0,-1,1483,904,0,0
266,120,0,0,0,0,0,0,0,0,0,-1,1490,904,0,0
273,120,0,0,0,0,0,0,0,0,0,-1,1497,904,0,0
280,120,0,0,0,0,0,0,0,0,0,-1,1504,904,0,0
287,120,0,0,0,0,0,0,0,0,0,-1,1511,904,0,0
294,120,0,0,0,0,0,0,0,0,0,-1,1518,904,0,0
301,120,0,0,0,0,0,0,0,0,0,-1,1525,904,0,0
308,120,0,0,0,0,0,0,0,0,0,-1,1532,904,0,0
315,120,0,0,0,0,0,0,0,0,0,-1,1539,904,0,0
322,120,0,0,0,0,0,0,0,0,0,-1,1546,904,0,0
329,120,0,0,0,0,0,0,0,0,0,-1,1553,904,0,0
336,120,0,0,0,0,0,0,0,0,0,-1,1560,904,0,0
343,120,0,0,0,0,0,0,0,0,0,-1,1567,904,0,0
350,120,0,0,0,0,0,0,0,0,0,-1,1574,904,0,0
357,120,0,0,0,0,0,0,0,0,0,-1,1581,904,0,0
364,120,0,0,0,0,0,0,0,0,0,-1,1588,904,0,0
371,120,0,0,0,0,0,0,0,0,0,-1,1595,904,0,0
378,120,0,0,0,0,0,0,0,0,0,-1,1602,904,0,0
385,120,0,0,0,0,0,0,0,0,0,-1,1609,904,0,0
392,120,0,0,0,0,0,0,0,0,0,-1,1616,904,0,0
399,120,0,0,0,0,0,0,0,0,0,-1,1623,904,0,0
406,120,0,0,0,0,0,0,0,0,0,-1,1630,904,0,0
413,120,0,0,0,0,0,0,0,0,0,-1,1637,904,0,0
420,120,0,0,0,0,0,0,0,0,0,-1,1644,904,0,0
427,120,0,0,0,0,0,0,0,0,0,-1,1651,904,0,0
434,120,0,0,0,0,0,0,0,0,0,-1,1658,904,0,0
441,120,0,0,0,0,0,0,0,0,0,-1,1665,904,0,0
448,120,0,0,0,0,0,0,0,0,0,-1,1672,904,0,0
455,120,0,0,0,0,0,0,0,0,0,-1,1679,904,0,0
462,120,0,0,0,0,0,0,0,0,0,-1,1686,904,0,0
469,120,0,0,0,0,0,0,0,0,0,-1,1693,904,0,0
476,120,0,0,0,0,0,0,0,0,0,-1,1700,904,0,0
483,120,0,0,0,0,0,0,0,0,0,-1,1707,904,0,0
490,120,0,0,0,0,0,0,0,0,0,-1,1714,904,0,0
497,120,0,0,0,0,0,0,0,0,0,-1,1721,904,0,0
504,120,0,0,0,0,0,0,0,0,0,-1,1728,904,0,0
511,120,0,0,0,0,0,0,0,0,0,-1,1735,904,0,0
518,120,0,0,0,0,0,0,0,0,0,-1,1742,904,0,0
525,120,0,0,0,0,0,0,0,0,0,-1,1749,904,0,0
532,120,0,0,0,0,0,0,0,0,0,-1,1756,904,0,0
539,120,0,0,0,0,0,0,0,0,0,-1,1763,904,0,0
546,120,0,0,0,0,0,0,0,0,0,-1,1770,904,0,0
553,120,0,0,0,0,0,0,0,0,0,-1,1777,904,0,0
560,120,0,0,0,0,0,0,0,0,0,-1,1784,904,0,0
567,120,0,0,0,0,0,0,0,0,0,-1,1791,904,0,0
574,120,0,0,0,0,0,0,0,0,0,-1,1798,904,0,0
581,120,0,0,0,0,0,0,0,0,0,-1,1805,904,0,0
588,120,0,0,0,0,0,0,0,0,0,-1,1812,904,0,0
595,120,0,0,0,0,0,0,0,0,0,-1,1819,904,0,0
602,120,0,0,0,0,0,0,0,0,0,-1,1826,904,0,0
609,120,0,0,0,0,0,0,0,0,0,-1,1833,904,0,0
616,120,0,0,0,0,0,0,0,0,0,-1,1840,904,0,0
623,120,0,0,0,0,0,0,0,0,0,-1,1847,904,0,0
630,120,48.8513,2.64484,0,0,0,0,0,0,0,-1,1854,904,48.8513,-2.64483
637,120,49.5952,3.02875,0,0,0,0,0,0,0,-1,1861,904,49.5952,-3.02874
644,120,49.5448,2.99438,-0.00236643,-0.00132858,-0.00147107,-0.000287591,-0.00340742,-0.954959,0.00218208,0.0404856,1868,904,49.5447,-2.99441
651,120,49.5315,3.03351,-0.00139439,-0.000828303,-0.00165507,0.000567756,-0.00279045,-0.870086,0.0020756,0.0404755,1875,904,49.5315,-3.03348
658,120,49.6195,2.87769,-0.00054642,-0.000428168,-0.00159094,0.00110475,-0.00207933,-0.803972,0.00186681,0.0409914,1882,904,49.6196,-2.8777
665,120,49.613,2.67865,0.000133512,-6.67921e-05,-0.00140409,0.00144102,-0.0013743,-0.749794,0.00162557,0.0393777,1889,904,49.613,-2.67864
672,120,49.6675,2.62555,0.000475793,8.89107e-05,-0.00113016,0.00142895,-0.000864244,-0.700638,0.00133729,0.0381952,1896,904,49.6674,-2.62556
679,120,49.6572,2.65149,0.000627197,0.000102262,-0.000805937,0.00121233,-0.000482869,-0.62798,0.00100847,0.0331644,1903,904,49.6572,-2.65149
686,120,49.6642,2.65826,0.00070267,8.58045e-05,-0.000545293,0.00102072,-0.000232241,-0.528017,0.000769661,0.0281843,1910,904,49.6642,-2.65829
693,120,49.639,2.63196,0,0,0,0,0,0,0,-1,1917,904,49.6391,-2.63197
700,120,42.2007,3.00946,0,0,0,0,0,0,0,-1,1924,904,42.2007,-3.00944
707,120,43.9984,3.18793,0,0,0,0,0,0,0,-1,1931,904,43.9984,-3.1879
714,120,44.4489,3.68744,0,0,0,0,0,0,0,-1,1938,904,44.4489,-3.68744
721,120,44.2999,4.37109,-0.000355027,0.0012359,-0.000377545,0.00132095,-0.000440076,-1.34923,0.00105828,0.0179596,1945,904,44.2999,-4.3711
728,120,44.2175,4.84442,-0.00083976,0.00183276,-0.000479095,0.00191605,-0.00092305,-1.39867,0.00167224,0.0125004,1952,904,44.2175,-4.84441
735,120,44.167,5.27618,-0.00132234,0.00263051,-0.000631175,0.00272885,-0.00142068,-1.41624,0.00243509,0.0138573,1959,904,44.1669,-5.27621
742,120,44.1399,5.78052,-0.00177307,0.00380178,-0.000821705,0.00392038,-0.00189166,-1.42746,0.00342304,0.0147384,1966,904,44.1399,-5.78055
749,120,44.1187,6.23785,-0.00213395,0.00533553,-0.000800008,0.00542025,-0.00221867,-1.46529,0.00453762,0.0111509,1973,904,44.1187,-6.23784
756,120,44.066,6.70001,-0.00223366,0.0072827,-0.000393961,0.00729898,-0.00224995,-1.52949,0.00576425,0.0141546,1980,904,44.0661,-6.7
763,120,43.984,7.15582,-0.00192863,0.00975914,0.000614602,0.00979137,-0.00196086,1.5184,0.00726989,0.0304715,1987,904,43.984,-7.15584
770,120,43.9233,7.6377,0,0,0,0,0,0,0,-1,1994,904,43.9233,-7.63767
777,120,41.3512,6.78638,0,0,0,0,0,0,0,-1,2001,904,41.3512,-6.78635
784,120,43.5239,5.77271,0,0,0,0,0,0,0,-1,2008,904,43.524,-5.77269
791,120,41.957,6.00659,0,0,0,0,0,0,0,-1,2015,904,41.957,-6.00662
798,120,40.751,6.32587,0,0,0,0,0,0,0,-1,2022,904,40.7509,-6.32586
805,120,0,0,0,0,0,0,0,0,0,-1,2029,904,0,0
812,120,0,0,0,0,0,0,0,0,0,-1,2036,904,0,0
-700,113,0,0,0,0,0,0,0,0,0,-1,524,911,0,0
-693,113,0,0,0,0,0,0,0,0,0,-1,531,911,0,0
-686,113,0,0,0,0,0,0,0,0,0,-1,538,911,0,0
-679,113,-33.2078,4.54938,0,0,0,0,0,0,0,-1,545,911,-33.2078,-4.54935
-672,113,-31.5336,3.78552,0,0,0,0,0,0,0,-1,552,911,-31.5336,-3.7855
-665,113,-30.766,2.62286,0,0,0,0,0,0,0,-1,559,911,-30.766,-2.62287
-658,113,-32.8323,4.89233,0,0,0,0,0,0,0,-1,566,911,-32.8323,-4.89234
-651,113,-33.178,5.57391,0,0,0,0,0,0,0,-1,573,911,-33.1781,-5.57393
-644,113,-33.4327,4.91858,0,0,0,0,0,0,0,-1,580,911,-33.4328,-4.9186
-637,113,-33.3736,4.5824,0.00396771,0.00750475,0.00294974,0.0091755,0.00229696,1.05544,0.00551322,0.0408761,587,911,-33.3736,-4.58242
-630,113,-33.2029,4.34698,0.00205593,0.00590197,0.00312114,0.00764495,0.000312951,1.06149,0.00499558,0.0197092,594,911,-33.2029,-4.34697
-623,113,-33.2716,3.92603,-0.000825743,0.00487453,0.00334592,0.00641967,-0.00237089,1.13817,0.00525161,0.0119036,601,911,-33.2716,-3.92602
-616,113,-33.2818,3.5061,-0.00193158,0.00303913,0.00286221,0.00434445,-0.0032369,1.14292,0.00439264,0.0109083,608,911,-33.2818,-3.50612
-609,113,-33.2861,3.08081,-0.00392047,0.00151587,0.00252973,0.00251092,-0.00491552,1.19604,0.00436193,0.0117717,615,911,-33.2861,-3.08079
-602,113,-33.3148,2.63861,-0.00598402,0.000220466,0.00218183,0.000910889,-0.00667445,1.26432,0.00478226,0.0181957,622,911,-33.3148,-2.63861
-595,113,-33.3514,2.32031,-0.00706714,-0.000671378,0.00193234,-0.0001329,-0.00760562,1.29902,0.0050267,0.0238301,629,911,-33.3514,-2.32028
-588,113,-33.32,1.87347,-0.00703815,-0.0012606,0.00180821,-0.000741351,-0.0075574,1.29116,0.00481023,0.0293029,636,911,-33.32,-1.87347
-581,113,-33.3268,1.40253,-0.0071325,-0.00147565,0.00189731,-0.000898227,-0.00770991,1.27537,0.00486823,0.0303208,643,911,-33.3268,-1.40251
-574,113,-33.313,0.771851,0,0,0,0,0,0,0,-1,650,911,-33.313,-0.771869
-567,113,-21.8396,0.437378,0,0,0,0,0,0,0,-1,657,911,-21.8396,-0.437351
-560,113,-37.2017,0.862549,0,0,0,0,0,0,0,-1,664,911,-37.2017,-0.862546
-553,113,-37.187,0.89563,-0.0064408,-0.00173198,0.00103716,-0.00151366,-0.00665912,1.36333,0.00403074,0.0402433,671,911,-37.1869,-0.895634
-546,113,-37.1754,0.838379,-0.00600485,-0.00153128,0.000913862,-0.0013518,-0.00618433,1.37686,0.00375431,0.0363187,678,911,-37.1754,-0.838395
-539,113,-37.1686,0.995544,-0.0051977,-0.00109271,0.000747312,-0.000960892,-0.00532952,1.39621,0.00327997,0.0367795,685,911,-37.1686,-0.995547
-532,113,-37.1555,0.978149,-0.00410852,-0.000458041,0.000491529,-0.000393016,-0.00417355,1.43927,0.00266105,0.0383276,692,911,-37.1555,-0.978139
-525,113,-37.2291,0.984558,-0.00348761,0.000263379,-0.000186129,0.000272593,-0.00349683,-1.52134,0.00242719,0.0382556,699,911,-37.2291,-0.98458
-518,113,-37.3417,1.02832,-0.00506994,0.000688057,-0.00122611,0.000938272,-0.00532016,-1.36949,0.00389736,0.0383042,706,911,-37.3418,-1.02832
-511,113,-37.3105,0.871338,-0.00581109,0.00101582,-0.00260115,0.00189395,-0.00668921,-1.24522,0.0052069,0.0371363,713,911,-37.3105,-0.871327
-504,113,0,0,0,0,0,0,0,0,0,-1,720,911,0,0
-497,113,0,0,0,0,0,0,0,0,0,-1,727,911,0,0
-490,113,0,0,0,0,0,0,0,0,0,-1,734,911,0,0
-483,113,0,0,0,0,0,0,0,0,0,-1,741,911,0,0
-476,113,0,0,0,0,0,0,0,0,0,-1,748,911,0,0
-469,113,0,0,0,0,0,0,0,0,0,-1,755,911,0,0
-462,113,0,0,0,0,0,0,0,0,0,-1,762,911,0,0
-455,113,0,0,0,0,0,0,0,0,0,-1,769,911,0,0
-448,113,0,0,0,0,0,0,0,0,0,-1,776,911,0,0
-441,113,0,0,0,0,0,0,0,0,0,-1,783,911,0,0
-434,113,0,0,0,0,0,0,0,0,0,-1,790,911,0,0
-427,113,0,0,0,0,0,0,0,0,0,-1,797,911,0,0
-420,113,0,0,0,0,0,0,0,0,0,-1,804,911,0,0
-413,113,0,0,0,0,0,0,0,0,0,-1,811,911,0,0
-406,113,0,0,0,0,0,0,0,0,0,-1,818,911,0,0
-399,113,0,0,0,0,0,0,0,0,0,-1,825,911,0,0
-392,113,0,0,0,0,0,0,0,0,0,-1,832,911,0,0
-385,113,0,0,0,0,0,0,0,0,0,-1,839,911,0,0
-378,113,0,0,0,0,0,0,0,0,0,-1,846,911,0,0
-371,113,0,0,0,0,0,0,0,0,0,-1,853,911,0,0
-364,113,0,0,0,0,0,0,0,0,0,-1,860,911,0,0
-357,113,0,0,0,0,0,0,0,0,0,-1,867,911,0,0
-350,113,0,0,0,0,0,0,0,0,0,-1,874,911,0,0
-343,113,0,0,0,0,0,0,0,0,0,-1,881,911,0,0
-336,113,0,0,0,0,0,0,0,0,0,-1,888,911,0,0
-329,113,0,0,0,0,0,0,0,0,0,-1,895,911,0,0
-322,113,0,0,0,0,0,0,0,0,0,-1,902,911,0,0
-315,113,0,0,0,0,0,0,0,0,0,-1,909,911,0,0
-308,113,0,0,0,0,0,0,0,0,0,-1,916,911,0,0
-301,113,0,0,0,0,0,0,0,0,0,-1,923,911,0,0
-294,113,0,0,0,0,0,0,0,0,0,-1,930,911,0,0
-287,113,0,0,0,0,0,0,0,0,0,-1,937,911,0,0
-280,113,0,0,0,0,0,0,0,0,0,-1,944,911,0,0
-273,113,0,0,0,0,0,0,0,0,0,-1,951,911,0,0
-266,113,0,0,0,0,0,0,0,0,0,-1,958,911,0,0
-259,113,0,0,0,0,0,0,0,0,0,-1,965,911,0,0
-252,113,0,0,0,0,0,0,0,0,0,-1,972,911,0,0
-245,113,0,0,0,0,0,0,0,0,0,-1,979,911,0,0
-238,113,0,0,0,0,0,0,0,0,0,-1,986,911,0,0
-231,113,0,0,0,0,0,0,0,0,0,-1,993,911,0,0
-224,113,0,0,0,0,0,0,0,0,0,-1,1000,911,0,0
-217,113,0,0,0,0,0,0,0,0,0,-1,1007,911,0,0
-210,113,0,0,0,0,0,0,0,0,0,-1,1014,911,0,0
-203,113,0,0,0,0,0,0,0,0,0,-1,1021,911,0,0
-196,113,0,0,0,0,0,0,0,0,0,-1,1028,911,0,0
-189,113,0,0,0,0,0,0,0,0,0,-1,1035,911,0,0
-182,113,0,0,0,0,0,0,0,0,0,-1,1042,911,0,0
-175,113,0,0,0,0,0,0,0,0,0,-1,1049,911,0,0
-168,113,0,0,0,0,0,0,0,0,0,-1,1056,911,0,0
-161,113,0,0,0,0,0,0,0,0,0,-1,1063,911,0,0
-154,113,0,0,0,0,0,0,0,0,0,-1,1070,911,0,0
-147,113,0,0,0,0,0,0,0,0,0,-1,1077,911,0,0
-140,113,0,0,0,0,0,0,0,0,0,-1,1084,911,0,0
-133,113,0,0,0,0,0,0,0,0,0,-1,1091,911,0,0
-126,113,0,0,0,0,0,0,0,0,0,-1,1098,911,0,0
-119,113,0,0,0,0,0,0,0,0,0,-1,1105,911,0,0
-112,113,0,0,0,0,0,0,0,0,0,-1,1112,911,0,0
-105,113,0,0,0,0,0,0,0,0,0,-1,1119,911,0,0
-98,113,0,0,0,0,0,0,0,0,0,-1,1126,911,0,0
-91,113,0,0,0,0,0,0,0,0,0,-1,1133,911,0,0
-84,113,0,0,0,0,0,0,0,0,0,-1,1140,911,0,0
-77,113,0,0,0,0,0,0,0,0,0,-1,1147,911,0,0
-70,113,0,0,0,0,0,0,0,0,0,-1,1154,911,0,0
-63,113,0,0,0,0,0,0,0,0,0,-1,1161,911,0,0
-56,113,0,0,0,0,0,0,0,0,0,-1,1168,911,0,0
-49,113,0,0,0,0,0,0,0,0,0,-1,1175,911,0,0
-42,113,0,0,0,0,0,0,0,0,0,-1,1182,911,0,0
-35,113,0,0,0,0,0,0,0,0,0,-1,1189,911,0,0
-28,113,0,0,0,0,0,0,0,0,0,-1,1196,911,0,0
-21,113,0,0,0,0,0,0,0,0,0,-1,1203,911,0,0
-14,113,0,0,0,0,0,0,0,0,0,-1,1210,911,0,0
-7,113,0,0,0,0,0,0,0,0,0,-1,1217,911,0,0
0,113,0,0,0,0,0,0,0,0,0,-1,1224,911,0,0
7,113,0,0,0,0,0,0,0,0,0,-1,1231,911,0,0
14,113,0,0,0,0,0,0,0,0,0,-1,1238,911,0,0
21,113,0,0,0,0,0,0,0,0,0,-1,1245,911,0,0
28,113,0,0,0,0,0,0,0,0,0,-1,1252,911,0,0
35,113,0,0,0,0,0,0,0,0,0,-1,1259,911,0,0
42,113,0,0,0,0,0,0,0,0,0,-1,1266,911,0,0
49,113,0,0,0,0,0,0,0,0,0,-1,1273,911,0,0
56,113,0,0,0,0,0,0,0,0,0,-1,1280,911,0,0
63,113,0,0,0,0,0,0,0,0,0,-1,1287,911,0,0
70,113,0,0,0,0,0,0,0,0,0,-1,1294,911,0,0
77,113,0,0,0,0,0,0,0,0,0,-1,1301,911,0,0
84,113,0,0,0,0,0,0,0,0,0,-1,1308,911,0,0
91,113,0,0,0,0,0,0,0,0,0,-1,1315,911,0,0
98,113,0,0,0,0,0,0,0,0,0,-1,1322,911,0,0
105,113,0,0,0,0,0,0,0,0,0,-1,1329,911,0,0
112,113,0,0,0,0,0,0,0,0,0,-1,1336,911,0,0
119,113,0,0,0,0,0,0,0,0,0,-1,1343,911,0,0
126,113,0,0,0,0,0,0,0,0,0,-1,1350,911,0,0
133,113,0,0,0,0,0,0,0,0,0,-1,1357,911,0,0
140,113,0,0,0,0,0,0,0,0,0,-1,1364,911,0,0
147,113,0,0,0,0,0,0,0,0,0,-1,1371,911,0,0
154,113,0,0,0,0,0,0,0,0,0,-1,1378,911,0,0
161,113,0,0,0,0,0,0,0,0,0,-1,1385,911,0,0
168,113,0,0,0,0,0,0,0,0,0,-1,1392,911,0,0
175,113,0,0,0,0,0,0,0,0,0,-1,1399,911,0,0
182,113,0,0,0,0,0,0,0,0,0,-1,1406,911,0,0
189,113,0,0,0,0,0,0,0,0,0,-1,1413,911,0,0
196,113,0,0,0,0,0,0,0,0,0,-1,1420,911,0,0
203,113,0,0,0,0,0,0,0,0,0,-1,1427,911,0,0
210,113,0,0,0,0,0,0,0,0,0,-1,1434,911,0,0
217,113,0,0,0,0,0,0,0,0,0,-1,1441,911,0,0
224,113,0,0,0,0,0,0,0,0,0,-1,1448,911,0,0
231,113,0,0,0,0,0,0,0,0,0,-1,1455,911,0,0
238,113,0,0,0,0,0,0,0,0,0,-1,1462,911,0,0
245,113,0,0,0,0,0,0,0,0,0,-1,1469,911,0,0
252,113,0,0,0,0,0,0,0,0,0,-1,1476,911,0,0
259,113,0,0,0,0,0,0,0,0,0,-1,1483,911,0,0
266,113,0,0,0,0,0,0,0,0,0,-1,1490,911,0,0
273,113,0,0,0,0,0,0,0,0,0,-1,1497,911,0,0
280,113,0,0,0,0,0,0,0,0,0,-1,1504,911,0,0
287,113,0,0,0,0,0,0,0,0,0,-1,1511,911,0,0
294,113,0,0,0,0,0,0,0,0,0,-1,1518,911,0,0
301,113,0,0,0,0,0,0,0,0,0,-1,1525,911,0,0
308,113,0,0,0,0,0,0,0,0,0,-1,1532,911,0,0
315,113,0,0,0,0,0,0,0,0,0,-1,1539,911,0,0
322,113,0,0,0,0,0,0,0,0,0,-1,1546,911,0,0
329,113,0,0,0,0,0,0,0,0,0,-1,1553,911,0,0
336,113,0,0,0,0,0,0,0,0,0,-1,1560,911,0,0
343,113,0,0,0,0,0,0,0,0,0,-1,1567,911,0,0
350,113,0,0,0,0,0,0,0,0,0,-1,1574,911,0,0
357,113,0,0,0,0,0,0,0,0,0,-1,1581,911,0,0
364,113,0,0,0,0,0,0,0,0,0,-1,1588,911,0,0
371,113,0,0,0,0,0,0,0,0,0,-1,1595,911,0,0
378,113,0,0,0,0,0,0,0,0,0,-1,1602,911,0,0
385,113,0,0,0,0,0,0,0,0,0,-1,1609,911,0,0
392,113,0,0,0,0,0,0,0,0,0,-1,1616,911,0,0
399,113,0,0,0,0,0,0,0,0,0,-1,1623,911,0,0
406,113,0,0,0,0,0,0,0,0,0,-1,1630,911,0,0
413,113,0,0,0,0,0,0,0,0,0,-1,1637,911,0,0
420,113,0,0,0,0,0,0,0,0,0,-1,1644,911,0,0
427,113,0,0,0,0,0,0,0,0,0,-1,1651,911,0,0
434,113,0,0,0,0,0,0,0,0,0,-1,1658,911,0,0
441,113,0,0,0,0,0,0,0,0,0,-1,1665,911,0,0
448,113,0,0,0,0,0,0,0,0,0,-1,1672,911,0,0
455,113,0,0,0,0,0,0,0,0,0,-1,1679,911,0,0
462,113,0,0,0,0,0,0,0,0,0,-1,1686,911,0,0
469,113,0,0,0,0,0,0,0,0,0,-1,1693,911,0,0
476,113,0,0,0,0,0,0,0,0,0,-1,1700,911,0,0
483,113,0,0,0,0,0,0,0,0,0,-1,1707,911,0,0
490,113,0,0,0,0,0,0,0,0,0,-1,1714,911,0,0
497,113,0,0,0,0,0,0,0,0,0,-1,1721,911,0,0
504,113,0,0,0,0,0,0,0,0,0,-1,1728,911,0,0
511,113,0,0,0,0,0,0,0,0,0,-1,1735,911,0,0
518,113,0,0,0,0,0,0,0,0,0,-1,1742,911,0,0
525,113,0,0,0,0,0,0,0,0,0,-1,1749,911,0,0
532,113,0,0,0,0,0,0,0,0,0,-1,1756,911,0,0
539,113,0,0,0,0,0,0,0,0,0,-1,1763,911,0,0
546,113,0,0,0,0,0,0,0,0,0,-1,1770,911,0,0
553,113,0,0,0,0,0,0,0,0,0,-1,1777,911,0,0
560,113,0,0,0,0,0,0,0,0,0,-1,1784,911,0,0
567,113,0,0,0,0,0,0,0,0,0,-1,1791,911,0,0
574,113,0,0,0,0,0,0,0,0,0,-1,1798,911,0,0
581,113,0,0,0,0,0,0,0,0,0,-1,1805,911,0,0
588,113,0,0,0,0,0,0,0,0,0,-1,1812,911,0,0
595,113,0,0,0,0,0,0,0,0,0,-1,1819,911,0,0
602,113,0,0,0,0,0,0,0,0,0,-1,1826,911,0,0
609,113,0,0,0,0,0,0,0,0,0,-1,1833,911,0,0
616,113,0,0,0,0,0,0,0,0,0,-1,1840,911,0,0
623,113,0,0,0,0,0,0,0,0,0,-1,1847,911,0,0
630,113,49.9822,2.26221,0,0,0,0,0,0,0,-1,1854,911,49.9821,-2.26218
637,113,49.8424,2.52753,-0.00347201,-0.00183992,-0.00122708,-0.00118231,-0.00412962,-1.07883,0.00245575,0.0412789,1861,911,49.8424,-2.52751
644,113,49.6616,2.80792,-0.00224188,-0.00105101,-0.00157345,3.58968e-05,-0.00332879,-0.966284,0.00223125,0.0384807,1868,911,49.6616,-2.80793
651,113,49.4946,3.06604,-0.00124059,-0.000619674,-0.00179564,0.000892147,-0.00275241,-0.871,0.00219365,0.0415569,1875,911,49.4947,-3.06602
658,113,49.8972,2.72699,-0.000402716,-0.000263295,-0.00175288,0.00142125,-0.00208727,-0.805272,0.00203778,0.0429368,1882,911,49.8973,-2.72701
665,113,49.7924,2.80914,0.000298181,8.31069e-05,-0.00152693,0.00172136,-0.00134007,-0.750243,0.00177208,0.039044,1889,911,49.7924,-2.80916
672,113,49.7114,2.73328,0.000586893,0.000201194,-0.00117233,0.00158213,-0.000794042,-0.703878,0.00139681,0.0390071,1896,911,49.7114,-2.73328
679,113,49.6572,2.61462,0.000674382,0.000169413,-0.000787567,0.00124895,-0.000405152,-0.63028,0.000995552,0.0322303,1903,911,49.6572,-2.61465
686,113,49.6382,2.62836,0.000706091,0.000119538,-0.000503128,0.000995179,-0.000169551,-0.52152,0.000726594,0.0303727,1910,911,49.6382,-2.62838
693,113,49.642,2.69427,0,0,0,0,0,0,0,-1,1917,911,49.642,-2.69425
700,113,43.897,2.79669,0,0,0,0,0,0,0,-1,1924,911,43.897,-2.79671
707,113,44.5781,3.39374,0,0,0,0,0,0,0,-1,1931,911,44.5781,-3.39375
714,113,44.677,3.82745,-0.000399001,0.000877552,-7.84891e-05,0.00088236,-0.000403809,-1.50962,0.00075951,0.0226882,1938,911,44.677,-3.82746
721,113,44.703,4.29114,-0.000678072,0.0011884,-0.00029112,0.00123276,-0.000722425,-1.41961,0.00114157,0.0223416,1945,911,44.703,-4.29111
728,113,44.7397,4.85327,-0.00117833,0.00178431,-0.00039595,0.00183631,-0.00123034,-1.4402,0.00178202,0.0226972,1952,911,44.7397,-4.85327
735,113,44.6566,5.32605,-0.0017056,0.00264456,-0.000527046,0.0027075,-0.00176854,-1.45193,0.00260313,0.0196948,1959,911,44.6566,-5.32606
742,113,44.6082,5.76361,-0.00225278,0.00391835,-0.000717625,0.0040007,-0.00233513,-1.45654,0.00369988,0.0126573,1966,911,44.6081,-5.76359
749,113,44.6259,6.21643,-0.00278639,0.00570507,-0.000705292,0.00576325,-0.00284457,-1.48849,0.00506406,0.00968045,1973,911,44.6258,-6.21646
756,113,44.5667,6.69318,-0.00310415,0.00799278,-0.000278179,0.00799975,-0.00311112,-1.54575,0.0066186,0.0142383,1980,911,44.5666,-6.69318
763,113,44.4274,7.21497,-0.00309712,0.0108196,0.000712439,0.010856,-0.0031335,1.51978,0.00847714,0.031366,1987,911,44.4273,-7.21497
770,113,44.3077,7.73016,0,0,0,0,0,0,0,-1,1994,911,44.3078,-7.73014
777,113,41.8534,7.79913,0,0,0,0,0,0,0,-1,2001,911,41.8533,-7.79911
784,113,42.8354,6.22766,0,0,0,0,0,0,0,-1,2008,911,42.8355,-6.22766
791,113,41.7288,7.26263,0,0,0,0,0,0,0,-1,2015,911,41.7287,-7.26261
798,113,41.9556,6.86206,0,0,0,0,0,0,0,-1,2022,911,41.9555,-6.86204
805,113,0,0,0,0,0,0,0,0,0,-1,2029,911,0,0
812,113,0,0,0,0,0,0,0,0,0,-1,2036,911,0,0
-700,106,0,0,0,0,0,0,0,0,0,-1,524,918,0,0
-693,106,0,0,0,0,0,0,0,0,0,-1,531,918,0,0
-686,106,0,0,0,0,0,0,0,0,0,-1,538,918,0,0
-679,106,-33.2582,5.1925,0,0,0,0,0,0,0,-1,545,918,-33.2582,-5.19253
-672,106,-32.5009,4.68066,0,0,0,0,0,0,0,-1,552,918,-32.5009,-4.68066
-665,106,-32.7547,6.94861,0,0,0,0,0,0,0,-1,559,918,-32.7547,-6.94862
-658,106,-33.788,5.34808,0,0,0,0,0,0,0,-1,566,918,-33.788,-5.34806
-651,106,-33.2894,5.78986,0,0,0,0,0,0,0,-1,573,918,-33.2894,-5.78983
-644,106,-33.3612,5.23151,0.00278697,0.00812674,0.00238985,0.00904011,0.00187361,1.20574,0.00550944,0.0444006,580,918,-33.3612,-5.23149
-637,106,-33.3517,4.80615,0.000468553,0.00718003,0.00270882,0.00813692,-0.000488328,1.23123,0.00559449,0.0330112,587,918,-33.3517,-4.80615
-630,106,-33.6142,4.40216,-0.000492039,0.005587,0.00284419,0.00671018,-0.00161522,1.19469,0.00509788,0.0153606,594,918,-33.6142,-4.40217
-623,106,-33.7576,3.88623,-0.00262742,0.00440229,0.00304718,0.00553926,-0.00376439,1.21367,0.00540395,0.0145108,601,918,-33.7576,-3.88625
-616,106,-33.7994,3.45276,-0.00340924,0.00265704,0.00261168,0.00362651,-0.0043787,1.21536,0.00462861,0.0144679,608,918,-33.7994,-3.45278
-609,106,-33.7808,3.06433,-0.00518711,0.00119701,0.00231075,0.00194561,-0.00593571,1.2575,0.00474068,0.0120696,615,918,-33.7807,-3.06431
-602,106,-33.7911,2.63336,-0.0071281,-8.38775e-06,0.00197875,0.000504597,-0.00764108,1.31713,0.00527031,0.018307,622,918,-33.7911,-2.63339
-595,106,-33.9193,2.25641,-0.00826231,-0.000830472,0.00174273,-0.000442107,-0.00865068,1.35153,0.00562554,0.022847,629,918,-33.9193,-2.25643
-588,106,-33.9042,1.80676,-0.00828612,-0.00136631,0.00163181,-0.00100081,-0.00865162,1.35045,0.00546478,0.0276289,636,918,-33.9042,-1.80678
-581,106,-33.7242,1.32202,-0.00841391,-0.00150262,0.00171699,-0.00109957,-0.00881696,1.34023,0.00554789,0.01611,643,918,-33.7243,-1.32203
-574,106,-33.702,0.870056,0,0,0,0,0,0,0,-1,650,918,-33.702,-0.870028
-567,106,-36.2079,0.840881,0,0,0,0,0,0,0,-1,657,918,-36.208,-0.840858
-560,106,-37.1635,0.931213,0,0,0,0,0,0,0,-1,664,918,-37.1635,-0.931244
-553,106,-37.1662,1.0213,-0.00764894,-0.00162727,0.00077592,-0.0015289,-0.00774731,1.44469,0.00473819,0.0368569,671,918,-37.1662,-1.0213
-546,106,-37.0576,1.08112,-0.00698715,-0.0012741,0.00060381,-0.00121098,-0.00705027,1.46664,0.00435303,0.0408024,678,918,-37.0576,-1.08113
-539,106,-36.9141,0.923096,-0.00580179,-0.000663318,0.000372599,-0.000636441,-0.00582867,1.49879,0.00369196,0.0411416,685,918,-36.914,-0.923067
-532,106,-36.957,1.02777,-0.00411157,0.000239548,-2.53616e-05,0.000239696,-0.00411172,-1.56497,0.00282444,0.04055,692,918,-36.957,-1.02775
-525,106,-37.2191,1.13123,-0.00291122,0.00137589,-0.000943319,0.00157427,-0.0031096,-1.36351,0.00275224,0.0381462,699,918,-37.2191,-1.13123
-518,106,-37.3348,0.892395,-0.0047059,0.00241483,-0.00226416,0.00307378,-0.00536485,-1.28759,0.00493154,0.0397293,706,918,-37.3348,-0.892418
-511,106,0,0,0,0,0,0,0,0,0,-1,713,918,0,0
-504,106,0,0,0,0,0,0,0,0,0,-1,720,918,0,0
-497,106,0,0,0,0,0,0,0,0,0,-1,727,918,0,0
-490,106,0,0,0,0,0,0,0,0,0,-1,734,918,0,0
-483,106,0,0,0,0,0,0,0,0,0,-1,741,918,0,0
-476,106,0,0,0,0,0,0,0,0,0,-1,748,918,0,0
-469,106,0,0,0,0,0,0,0,0,0,-1,755,918,0,0
-462,106,0,0,0,0,0,0,0,0,0,-1,762,918,0,0
-455,106,0,0,0,0,0,0,0,0,0,-1,769,918,0,0
-448,106,0,0,0,0,0,0,0,0,0,-1,776,918,0,0
-441,106,0,0,0,0,0,0,0,0,0,-1,783,918,0,0
-434,106,0,0,0,0,0,0,0,0,0,-1,790,918,0,0
-427,106,0,0,0,0,0,0,0,0,0,-1,797,918,0,0
-420,106,0,0,0,0,0,0,0,0,0,-1,804,918,0,0
-413,106,0,0,0,0,0,0,0,0,0,-1,811,918,0,0
-406,106,0,0,0,0,0,0,0,0,0,-1,818,918,0,0
-399,106,0,0,0,0,0,0,0,0,0,-1,825,918,0,0
-392,106,0,0,0,0,0,0,0,0,0,-1,832,918,0,0
-385,106,0,0,0,0,0,0,0,0,0,-1,839,918,0,0
-378,106,0,0,0,0,0,0,0,0,0,-1,846,918,0,0
-371,106,0,0,0,0,0,0,0,0,0,-1,853,918,0,0
-364,106,0,0,0,0,0,0,0,0,0,-1,860,918,0,0
-357,106,0,0,0,0,0,0,0,0,0,-1,867,918,0,0
-350,106,0,0,0,0,0,0,0,0,0,-1,874,918,0,0
-343,106,0,0,0,0,0,0,0,0,0,-1,881,918,0,0
-336,106,0,0,0,0,0,0,0,0,0,-1,888,918,0,0
-329,106,0,0,0,0,0,0,0,0,0,-1,895,918,0,0
-322,106,0,0,0,0,0,0,0,0,0,-1,902,918,0,0
-315,106,0,0,0,0,0,0,0,0,0,-1,909,918,0,0
-308,106,0,0,0,0,0,0,0,0,0,-1,916,918,0,0
-301,106,0,0,0,0,0,0,0,0,0,-1,923,918,0,0
-294,106,0,0,0,0,0,0,0,0,0,-1,930,918,0,0
-287,106,0,0,0,0,0,0,0,0,0,-1,937,918,0,0
-280,106,0,0,0,0,0,0,0,0,0,-1,944,918,0,0
-273,106,0,0,0,0,0,0,0,0,0,-1,951,918,0,0
-266,106,0,0,0,0,0,0,0,0,0,-1,958,918,0,0
-259,106,0,0,0,0,0,0,0,0,0,-1,965,918,0,0
-252,106,0,0,0,0,0,0,0,0,0,-1,972,918,0,0
-245,106,0,0,0,0,0,0,0,0,0,-1,979,918,0,0
-238,106,0,0,0,0,0,0,0,0,0,-1,986,918,0,0
-231,106,0,0,0,0,0,0,0,0,0,-1,993,918,0,0
-224,106,0,0,0,0,0,0,0,0,0,-1,1000,918,0,0
-217,106,0,0,0,0,0,0,0,0,0,-1,1007,918,0,0
-210,106,0,0,0,0,0,0,0,0,0,-1,1014,918,0,0
-203,106,0,0,0,0,0,0,0,0,0,-1,1021,918,0,0
-196,106,0,0,0,0,0,0,0,0,0,-1,1028,918,0,0
-189,106,0,0,0,0,0,0,0,0,0,-1,1035,918,0,0
-182,106,0,0,0,0,0,0,0,0,0,-1,1042,918,0,0
-175,106,0,0,0,0,0,0,0,0,0,-1,1049,918,0,0
-168,106,0,0,0,0,0,0,0,0,0,-1,1056,918,0,0
-161,106,0,0,0,0,0,0,0,0,0,-1,1063,918,0,0
-154,106,0,0,0,0,0,0,0,0,0,-1,1070,918,0,0
-147,106,0,0,0,0,0,0,0,0,0,-1,1077,918,0,0
-140,106,0,0,0,0,0,0,0,0,0,-1,1084,918,0,0
-133,106,0,0,0,0,0,0,0,0,0,-1,1091,918,0,0
-126,106,0,0,0,0,0,0,0,0,0,-1,1098,918,0,0
-119,106,0,0,0,0,0,0,0,0,0,-1,1105,918,0,0
-112,106,0,0,0,0,0,0,0,0,0,-1,1112,918,0,0
-105,106,0,0,0,0,0,0,0,0,0,-1,1119,918,0,0
-98,106,0,0,0,0,0,0,0,0,0,-1,1126,918,0,0
-91,106,0,0,0,0,0,0,0,0,0,-1,1133,918,0,0
-84,106,0,0,0,0,0,0,0,0,0,-1,1140,918,0,0
-77,106,0,0,0,0,0,0,0,0,0,-1,1147,918,0,0
-70,106,0,0,0,0,0,0,0,0,0,-1,1154,918,0,0
-63,106,0,0,0,0,0,0,0,0,0,-1,1161,918,0,0
-56,106,0,0,0,0,0,0,0,0,0,-1,1168,918,0,0
-49,106,0,0,0,0,0,0,0,0,0,-1,1175,918,0,0
-42,106,0,0,0,0,0,0,0,0,0,-1,1182,918,0,0
-35,106,0,0,0,0,0,0,0,0,0,-1,1189,918,0,0
-28,106,0,0,0,0,0,0,0,0,0,-1,1196,918,0,0
-21,106,0,0,0,0,0,0,0,0,0,-1,1203,918,0,0
-14,106,0,0,0,0,0,0,0,0,0,-1,1210,918,0,0
-7,106,0,0,0,0,0,0,0,0,0,-1,1217,918,0,0
0,106,0,0,0,0,0,0,0,0,0,-1,1224,918,0,0
7,106,0,0,0,0,0,0,0,0,0,-1,1231,918,0,0
14,106,0,0,0,0,0,0,0,0,0,-1,1238,918,0,0
21,106,0,0,0,0,0,0,0,0,0,-1,1245,918,0,0
28,106,0,0,0,0,0,0,0,0,0,-1,1252,918,0,0
35,106,0,0,0,0,0,0,0,0,0,-1,1259,918,0,0
42,106,0,0,0,0,0,0,0,0,0,-1,1266,918,0,0
49,106,0,0,0,0,0,0,0,0,0,-1,1273,918,0,0
56,106,0,0,0,0,0,0,0,0,0,-1,1280,918,0,0
63,106,0,0,0,0,0,0,0,0,0,-1,1287,918,0,0
70,106,0,0,0,0,0,0,0,0,0,-1,1294,918,0,0
77,106,0,0,0,0,0,0,0,0,0,-1,1301,918,0,0
84,106,0,0,0,0,0,0,0,0,0,-1,1308,918,0,0
91,106,0,0,0,0,0,0,0,0,0,-1,1315,918,0,0
98,106,0,0,0,0,0,0,0,0,0,-1,1322,918,0,0
105,106,0,0,0,0,0,0,0,0,0,-1,1329,918,0,0
112,106,0,0,0,0,0,0,0,0,0,-1,1336,918,0,0
119,106,0,0,0,0,0,0,0,0,0,-1,1343,918,0,0
126,106,0,0,0,0,0,0,0,0,0,-1,1350,918,0,0
133,106,0,0,0,0,0,0,0,0,0,-1,1357,918,0,0
140,106,0,0,0,0,0,0,0,0,0,-1,1364,918,0,0
147,106,0,0,0,0,0,0,0,0,0,-1,1371,918,0,0
154,106,0,0,0,0,0,0,0,0,0,-1,1378,918,0,0
161,106,0,0,0,0,0,0,0,0,0,-1,1385,918,0,0
168,106,0,0,0,0,0,0,0,0,0,-1,1392,918,0,0
175,106,0,0,0,0,0,0,0,0,0,-1,1399,918,0,0
182,106,0,0,0,0,0,0,0,0,0,-1,1406,918,0,0
189,106,0,0,0,0,0,0,0,0,0,-1,1413,918,0,0
196,106,0,0,0,0,0,0,0,0,0,-1,1420,918,0,0
203,106,0,0,0,0,0,0,0,0,0,-1,1427,918,0,0
210,106,0,0,0,0,0,0,0,0,0,-1,1434,918,0,0
217,106,0,0,0,0,0,0,0,0,0,-1,1441,918,0,0
224,106,0,0,0,0,0,0,0,0,0,-1,1448,918,0,0
231,106,0,0,0,0,0,0,0,0,0,-1,1455,918,0,0
238,106,0,0,0,0,0,0,0,0,0,-1,1462,918,0,0
245,106,0,0,0,0,0,0,0,0,0,-1,1469,918,0,0
252,106,0,0,0,0,0,0,0,0,0,-1,1476,918,0,0
259,106,0,0,0,0,0,0,0,0,0,-1,1483,918,0,0
266,106,0,0,0,0,0,0,0,0,0,-1,1490,918,0,0
273,106,0,0,0,0,0,0,0,0,0,-1,1497,918,0,0
280,106,0,0,0,0,0,0,0,0,0,-1,1504,918,0,0
287,106,0,0,0,0,0,0,0,0,0,-1,1511,918,0,0
294,106,0,0,0,0,0,0,0,0,0,-1,1518,918,0,0
301,106,0,0,0,0,0,0,0,0,0,-1,1525,918,0,0
308,106,0,0,0,0,0,0,0,0,0,-1,1532,918,0,0
315,106,0,0,0,0,0,0,0,0,0,-1,1539,918,0,0
322,106,0,0,0,0,0,0,0,0,0,-1,1546,918,0,0
329,106,0,0,0,0,0,0,0,0,0,-1,1553,918,0,0
336,106,0,0,0,0,0,0,0,0,0,-1,1560,918,0,0
343,106,0,0,0,0,0,0,0,0,0,-1,1567,918,0,0
350,106,0,0,0,0,0,0,0,0,0,-1,1574,918,0,0
357,106,0,0,0,0,0,0,0,0,0,-1,1581,918,0,0
364,106,0,0,0,0,0,0,0,0,0,-1,1588,918,0,0
371,106,0,0,0,0,0,0,0,0,0,-1,1595,918,0,0
378,106,0,0,0,0,0,0,0,0,0,-1,1602,918,0,0
385,106,0,0,0,0,0,0,0,0,0,-1,1609,918,0,0
392,106,0,0,0,0,0,0,0,0,0,-1,1616,918,0,0
399,106,0,0,0,0,0,0,0,0,0,-1,1623,918,0,0
406,106,0,0,0,0,0,0,0,0,0,-1,1630,918,0,0
413,106,0,0,0,0,0,0,0,0,0,-1,1637,918,0,0
420,106,0,0,0,0,0,0,0,0,0,-1,1644,918,0,0
427,106,0,0,0,0,0,0,0,0,0,-1,1651,918,0,0
434,106,0,0,0,0,0,0,0,0,0,-1,1658,918,0,0
441,106,0,0,0,0,0,0,0,0,0,-1,1665,918,0,0
448,106,0,0,0,0,0,0,0,0,0,-1,1672,918,0,0
455,106,0,0,0,0,0,0,0,0,0,-1,1679,918,0,0
462,106,0,0,0,0,0,0,0,0,0,-1,1686,918,0,0
469,106,0,0,0,0,0,0,0,0,0,-1,1693,918,0,0
476,106,0,0,0,0,0,0,0,0,0,-1,1700,918,0,0
483,106,0,0,0,0,0,0,0,0,0,-1,1707,918,0,0
490,106,0,0,0,0,0,0,0,0,0,-1,1714,918,0,0
497,106,0,0,0,0,0,0,0,0,0,-1,1721,918,0,0
504,106,0,0,0,0,0,0,0,0,0,-1,1728,918,0,0
511,106,0,0,0,0,0,0,0,0,0,-1,1735,918,0,0
518,106,0,0,0,0,0,0,0,0,0,-1,1742,918,0,0
525,106,0,0,0,0,0,0,0,0,0,-1,1749,918,0,0
532,106,0,0,0,0,0,0,0,0,0,-1,1756,918,0,0
539,106,0,0,0,0,0,0,0,0,0,-1,1763,918,0,0
546,106,0,0,0,0,0,0,0,0,0,-1,1770,918,0,0
553,106,0,0,0,0,0,0,0,0,0,-1,1777,918,0,0
560,106,0,0,0,0,0,0,0,0,0,-1,1784,918,0,0
567,106,0,0,0,0,0,0,0,0,0,-1,1791,918,0,0
574,106,0,0,0,0,0,0,0,0,0,-1,1798,918,0,0
581,106,0,0,0,0,0,0,0,0,0,-1,1805,918,0,0
588,106,0,0,0,0,0,0,0,0,0,-1,1812,918,0,0
595,106,0,0,0,0,0,0,0,0,0,-1,1819,918,0,0
602,106,0,0,0,0,0,0,0,0,0,-1,1826,918,0,0
609,106,0,0,0,0,0,0,0,0,0,-1,1833,918,0,0
616,106,0,0,0,0,0,0,0,0,0,-1,1840,918,0,0
623,106,0,0,0,0,0,0,0,0,0,-1,1847,918,0,0
630,106,49.6086,2.82959,0,0,0,0,0,0,0,-1,1854,918,49.6086,-2.82961
637,106,49.7284,2.73962,-0.00340895,-0.00168577,-0.000832065,-0.00134958,-0.00374514,-1.18681,0.00219018,0.0407925,1861,918,49.7284,-2.73965
644,106,49.6749,2.80469,-0.00210903,-0.000993997,-0.00143224,-1.45854e-05,-0.00308844,-0.971005,0.00205412,0.0396779,1868,918,49.6749,-2.80466
651,106,49.5074,2.94244,-0.00110435,-0.00062983,-0.00178686,0.000935456,-0.00266963,-0.851402,0.00216018,0.0421572,1875,918,49.5074,-2.94246
658,106,50.0366,2.41376,-0.000305794,-0.000298967,-0.00181232,0.00150995,-0.00211471,-0.78634,0.00210238,0.0448715,1882,918,50.0366,-2.41377
665,106,49.6301,2.9906,0,0,0,0,0,0,0,-1,1889,918,49.6302,-2.99062
672,106,49.6205,2.99707,0.000622106,0.000156155,-0.00118587,0.00159766,-0.000819404,-0.688403,0.0014194,0.0425815,1896,918,49.6205,-2.99705
679,106,49.6602,2.73456,0.000656759,0.000105737,-0.000751762,0.00118191,-0.000419409,-0.609755,0.000958821,0.0347906,1903,918,49.6602,-2.73453
686,106,49.6299,2.69208,0.000664753,3.21782e-05,-0.000451248,0.000899521,-0.00020259,-0.479728,0.000677386,0.0332236,1910,918,49.6299,-2.69207
693,106,49.7111,2.53662,0.000701872,0.000286913,-0.000478321,0.00101577,-2.69896e-05,-0.580762,0.000686356,0.0373778,1917,918,49.711,-2.53663
700,106,50.0138,2.13794,0,0,0,0,0,0,0,-1,1924,918,50.0138,-2.13796
707,106,45.0372,3.28851,0,0,0,0,0,0,0,-1,1931,918,45.0373,-3.28854
714,106,45.2063,3.80658,-0.000635492,0.000775898,-2.50437e-05,0.000776343,-0.000635936,-1.55306,0.000816722,0.0355735,1938,918,45.2063,-3.8066
721,106,45.2391,4.34503,-0.000952016,0.0011266,-0.000261178,0.00115891,-0.000984331,-1.4477,0.00123877,0.0272049,1945,918,45.2391,-4.34504
728,106,45.2615,4.88611,-0.00144379,0.00173411,-0.000382464,0.00177949,-0.00148917,-1.45269,0.00188964,0.0257509,1952,918,45.2614,-4.88609
735,106,45.1954,5.34821,-0.00198779,0.00266432,-0.000514153,0.00272046,-0.00204393,-1.46202,0.00275996,0.0227221,1959,918,45.1954,-5.34818
742,106,45.1329,5.75629,-0.00259833,0.00402959,-0.000725101,0.00410799,-0.00267673,-1.46309,0.0039461,0.0124801,1966,918,45.133,-5.7563
749,106,45.1165,6.19696,-0.00326972,0.00605327,-0.000756313,0.00611422,-0.00333068,-1.49037,0.00553139,0.00982513,1973,918,45.1164,-6.19698
756,106,45.0654,6.6427,-0.00375655,0.00867634,-0.000351394,0.00868627,-0.00376648,-1.54256,0.00737425,0.0128387,1980,918,45.0654,-6.64269
763,106,44.9545,7.17181,-0.00396344,0.0118336,0.000573066,0.0118543,-0.0039842,1.53458,0.00951324,0.0244998,1987,918,44.9544,-7.17182
770,106,44.8281,7.54657,-0.00375267,0.0156693,0.00201333,0.0158758,-0.00395918,1.46858,0.0121211,0.0451457,1994,918,44.8282,-7.54655
777,106,45.0331,8.15002,0,0,0,0,0,0,0,-1,2001,918,45.033,-8.15002
784,106,43.8042,7.9173,0,0,0,0,0,0,0,-1,2008,918,43.8042,-7.91727
791,106,42.7102,7.58215,0,0,0,0,0,0,0,-1,2015,918,42.7103,-7.58217
798,106,42.3765,7.3313,0,0,0,0,0,0,0,-1,2022,918,42.3766,-7.33131
805,106,0,0,0,0,0,0,0,0,0,-1,2029,918,0,0
812,106,0,0,0,0,0,0,0,0,0,-1,2036,918,0,0
-700,99,0,0,0,0,0,0,0,0,0,-1,524,925,0,0
-693,99,0,0,0,0,0,0,0,0,0,-1,531,925,0,0
-686,99,0,0,0,0,0,0,0,0,0,-1,538,925,0,0
-679,99,-33.3048,5.5047,0,0,0,0,0,0,0,-1,545,925,-33.3048,-5.50473
-672,99,-33.2032,5.5224,0,0,0,0,0,0,0,-1,552,925,-33.2033,-5.5224
-665,99,-34.1671,5.56445,0,0,0,0,0,0,0,-1,559,925,-34.1671,-5.56448
-658,99,-34.1485,5.33026,0,0,0,0,0,0,0,-1,566,925,-34.1485,-5.33027
-651,99,-33.3627,5.68573,0,0,0,0,0,0,0,-1,573,925,-33.3627,-5.68572
-644,99,-33.6097,5.18408,-0.00209337,0.0107563,0.00273733,0.0113152,-0.00265219,1.36941,0.00856549,0.0474253,580,925,-33.6097,-5.18406
-637,99,-33.847,4.71368,-0.002964,0.00897416,0.00281526,0.00960475,-0.00359459,1.35044,0.00787958,0.0307626,587,925,-33.847,-4.71369
-630,99,-34.0815,4.30481,-0.00308078,0.00678015,0.00279643,0.00751797,-0.00381861,1.31283,0.00666033,0.0164011,594,925,-34.0815,-4.30483
-623,99,-34.243,3.86456,-0.00454189,0.00506472,0.00282097,0.00583184,-0.00530901,1.30528,0.00643453,0.0107132,601,925,-34.2431,-3.86458
-616,99,-34.2537,3.44379,-0.00501462,0.00310658,0.00232198,0.00372359,-0.00563163,1.31107,0.00543856,0.0119767,608,925,-34.2537,-3.44378
-609,99,-34.2449,3.07208,-0.00651202,0.00154358,0.0019548,0.00199288,-0.00696131,1.34488,0.00542851,0.011759,615,925,-34.2449,-3.07208
-602,99,-34.2373,2.69965,-0.00827509,0.000337058,0.00159529,0.000623066,-0.0085611,1.3934,0.00592601,0.01524,622,925,-34.2373,-2.69966
-595,99,-34.3369,2.31995,-0.00941991,-0.000476551,0.00138244,-0.000267734,-0.00962873,1.42088,0.00633179,0.0205901,629,925,-34.3369,-2.31995
-588,99,-34.3319,1.89838,-0.00948647,-0.00100726,0.00131361,-0.000808414,-0.00968531,1.42057,0.00620498,0.0227865,636,925,-34.3319,-1.89838
-581,99,-34.2622,1.38843,-0.009623,-0.00116587,0.00141773,-0.000934533,-0.00985433,1.40905,0.00628126,0.0162876,643,925,-34.2622,-1.3884
-574,99,-34.699,0.935547,-0.00972724,-0.00109453,0.0012375,-0.000920638,-0.00990113,1.43119,0.00631628,0.0363555,650,925,-34.699,-0.935535
-567,99,-35.7095,0.531189,0,0,0,0,0,0,0,-1,657,925,-35.7096,-0.531217
-560,99,-37.1132,0.885803,0,0,0,0,0,0,0,-1,664,925,-37.1131,-0.885819
-553,99,-37.1725,0.961975,-0.00867319,-0.00116525,0.000510184,-0.00113074,-0.0087077,1.50326,0.00546734,0.0395947,671,925,-37.1725,-0.961994
-546,99,-37.1406,0.896423,-0.00770335,-0.000755532,0.000313165,-0.000741445,-0.00771744,1.52584,0.00491648,0.0423874,678,925,-37.1406,-0.896426
-539,99,-36.8876,0.790344,-0.00605912,-0.000112187,3.45531e-05,-0.000111986,-0.00605932,1.56499,0.00400274,0.0400283,685,925,-36.8877,-0.790343
-532,99,-36.8145,0.858093,-0.00373624,0.000764203,-0.000475029,0.000813797,-0.00378584,-1.46677,0.00283437,0.0407176,692,925,-36.8145,-0.858092
-525,99,-37.1429,1.05554,-0.00211644,0.00188302,-0.0016286,0.0024623,-0.00269572,-1.22906,0.002979,0.0387618,699,925,-37.1429,-1.05555
-518,99,-37.3155,0.892822,-0.00435211,0.00302257,-0.00315347,0.00418712,-0.00551666,-1.21704,0.00561999,0.0417156,706,925,-37.3155,-0.892801
-511,99,0,0,0,0,0,0,0,0,0,-1,713,925,0,0
-504,99,0,0,0,0,0,0,0,0,0,-1,720,925,0,0
-497,99,0,0,0,0,0,0,0,0,0,-1,727,925,0,0
-490,99,0,0,0,0,0,0,0,0,0,-1,734,925,0,0
-483,99,0,0,0,0,0,0,0,0,0,-1,741,925,0,0
-476,99,0,0,0,0,0,0,0,0,0,-1,748,925,0,0
-469,99,0,0,0,0,0,0,0,0,0,-1,755,925,0,0
-462,99,0,0,0,0,0,0,0,0,0,-1,762,925,0,0
-455,99,0,0,0,0,0,0,0,0,0,-1,769,925,0,0
-448,99,0,0,0,0,0,0,0,0,0,-1,776,925,0,0
-441,99,0,0,0,0,0,0,0,0,0,-1,783,925,0,0
-434,99,0,0,0,0,0,0,0,0,0,-1,790,925,0,0
-427,99,0,0,0,0,0,0,0,0,0,-1,797,925,0,0
-420,99,0,0,0,0,0,0,0,0,0,-1,804,925,0,0
-413,99,0,0,0,0,0,0,0,0,0,-1,811,925,0,0
-406,99,0,0,0,0,0,0,0,0,0,-1,818,925,0,0
-399,99,0,0,0,0,0,0,0,0,0,-1,825,925,0,0
-392,99,0,0,0,0,0,0,0,0,0,-1,832,925,0,0
-385,99,0,0,0,0,0,0,0,0,0,-1,839,925,0,0
-378,99,0,0,0,0,0,0,0,0,0,-1,846,925,0,0
-371,99,0,0,0,0,0,0,0,0,0,-1,853,925,0,0
-364,99,0,0,0,0,0,0,0,0,0,-1,860,925,0,0
-357,99,0,0,0,0,0,0,0,0,0,-1,867,925,0,0
-350,99,0,0,0,0,0,0,0,0,0,-1,874,925,0,0
-343,99,0,0,0,0,0,0,0,0,0,-1,881,925,0,0
-336,99,0,0,0,0,0,0,0,0,0,-1,888,925,0,0
-329,99,0,0,0,0,0,0,0,0,0,-1,895,925,0,0
-322,99,0,0,0,0,0,0,0,0,0,-1,902,925,0,0
-315,99,0,0,0,0,0,0,0,0,0,-1,909,925,0,0
-308,99,0,0,0,0,0,0,0,0,0,-1,916,925,0,0
-301,99,0,0,0,0,0,0,0,0,0,-1,923,925,0,0
-294,99,0,0,0,0,0,0,0,0,0,-1,930,925,0,0
-287,99,0,0,0,0,0,0,0,0,0,-1,937,925,0,0
-280,99,0,0,0,0,0,0,0,0,0,-1,944,925,0,0
-273,99,0,0,0,0,0,0,0,0,0,-1,951,925,0,0
-266,99,0,0,0,0,0,0,0,0,0,-1,958,925,0,0
-259,99,0,0,0,0,0,0,0,0,0,-1,965,925,0,0
-252,99,0,0,0,0,0,0,0,0,0,-1,972,925,0,0
-245,99,0,0,0,0,0,0,0,0,0,-1,979,925,0,0
-238,99,0,0,0,0,0,0,0,0,0,-1,986,925,0,0
-231,99,0,0,0,0,0,0,0,0,0,-1,993,925,0,0
-224,99,0,0,0,0,0,0,0,0,0,-1,1000,925,0,0
-217,99,0,0,0,0,0,0,0,0,0,-1,1007,925,0,0
-210,99,0,0,0,0,0,0,0,0,0,-1,1014,925,0,0
-203,99,0,0,0,0,0,0,0,0,0,-1,1021,925,0,0
-196,99,0,0,0,0,0,0,0,0,0,-1,1028,925,0,0
-189,99,0,0,0,0,0,0,0,0,0,-1,1035,925,0,0
-182,99,0,0,0,0,0,0,0,0,0,-1,1042,925,0,0
-175,99,0,0,0,0,0,0,0,0,0,-1,1049,925,0,0
-168,99,0,0,0,0,0,0,0,0,0,-1,1056,925,0,0
-161,99,0,0,0,0,0,0,0,0,0,-1,1063,925,0,0
-154,99,0,0,0,0,0,0,0,0,0,-1,1070,925,0,0
-147,99,0,0,0,0,0,0,0,0,0,-1,1077,925,0,0
-140,99,0,0,0,0,0,0,0,0,0,-1,1084,925,0,0
-133,99,0,0,0,0,0,0,0,0,0,-1,1091,925,0,0
-126,99,0,0,0,0,0,0,0,0,0,-1,1098,925,0,0
-119,99,0,0,0,0,0,0,0,0,0,-1,1105,925,0,0
-112,99,0,0,0,0,0,0,0,0,0,-1,1112,925,0,0
-105,99,0,0,0,0,0,0,0,0,0,-1,1119,925,0,0
-98,99,0,0,0,0,0,0,0,0,0,-1,1126,925,0,0
-91,99,0,0,0,0,0,0,0,0,0,-1,1133,925,0,0
-84,99,0,0,0,0,0,0,0,0,0,-1,1140,925,0,0
-77,99,0,0,0,0,0,0,0,0,0,-1,1147,925,0,0
-70,99,0,0,0,0,0,0,0,0,0,-1,1154,925,0,0
-63,99,0,0,0,0,0,0,0,0,0,-1,1161,925,0,0
-56,99,0,0,0,0,0,0,0,0,0,-1,1168,925,0,0
-49,99,0,0,0,0,0,0,0,0,0,-1,1175,925,0,0
-42,99,0,0,0,0,0,0,0,0,0,-1,1182,925,0,0
-35,99,0,0,0,0,0,0,0,0,0,-1,1189,925,0,0
-28,99,0,0,0,0,0,0,0,0,0,-1,1196,925,0,0
-21,99,0,0,0,0,0,0,0,0,0,-1,1203,925,0,0
-14,99,0,0,0,0,0,0,0,0,0,-1,1210,925,0,0
-7,99,0,0,0,0,0,0,0,0,0,-1,1217,925,0,0
0,99,0,0,0,0,0,0,0,0,0,-1,1224,925,0,0
7,99,0,0,0,0,0,0,0,0,0,-1,1231,925,0,0
14,99,0,0,0,0,0,0,0,0,0,-1,1238,925,0,0
21,99,0,0,0,0,0,0,0,0,0,-1,1245,925,0,0
28,99,0,0,0,0,0,0,0,0,0,-1,1252,925,0,0
35,99,0,0,0,0,0,0,0,0,0,-1,1259,925,0,0
42,99,0,0,0,0,0,0,0,0,0,-1,1266,925,0,0
49,99,0,0,0,0,0,0,0,0,0,-1,1273,925,0,0
56,99,0,0,0,0,0,0,0,0,0,-1,1280,925,0,0
63,99,0,0,0,0,0,0,0,0,0,-1,1287,925,0,0
70,99,0,0,0,0,0,0,0,0,0,-1,1294,925,0,0
77,99,0,0,0,0,0,0,0,0,0,-1,1301,925,0,0
84,99,0,0,0,0,0,0,0,0,0,-1,1308,925,0,0
91,99,0,0,0,0,0,0,0,0,0,-1,1315,925,0,0
98,99,0,0,0,0,0,0,0,0,0,-1,1322,925,0,0
105,99,0,0,0,0,0,0,0,0,0,-1,1329,925,0,0
112,99,0,0,0,0,0,0,0,0,0,-1,1336,925,0,0
119,99,0,0,0,0,0,0,0,0,0,-1,1343,925,0,0
126,99,0,0,0,0,0,0,0,0,0,-1,1350,925,0,0
133,99,0,0,0,0,0,0,0,0,0,-1,1357,925,0,0
140,99,0,0,0,0,0,0,0,0,0,-1,1364,925,0,0
147,99,0,0,0,0,0,0,0,0,0,-1,1371,925,0,0
154,99,0,0,0,0,0,0,0,0,0,-1,1378,925,0,0
161,99,0,0,0,0,0,0,0,0,0,-1,1385,925,0,0
168,99,0,0,0,0,0,0,0,0,0,-1,1392,925,0,0
175,99,0,0,0,0,0,0,0,0,0,-1,1399,925,0,0
182,99,0,0,0,0,0,0,0,0,0,-1,1406,925,0,0
189,99,0,0,0,0,0,0,0,0,0,-1,1413,925,0,0
196,99,0,0,0,0,0,0,0,0,0,-1,1420,925,0,0
203,99,0,0,0,0,0,0,0,0,0,-1,1427,925,0,0
210,99,0,0,0,0,0,0,0,0,0,-1,1434,925,0,0
217,99,0,0,0,0,0,0,0,0,0,-1,1441,925,0,0
224,99,0,0,0,0,0,0,0,0,0,-1,1448,925,0,0
231,99,0,0,0,0,0,0,0,0,0,-1,1455,925,0,0
238,99,0,0,0,0,0,0,0,0,0,-1,1462,925,0,0
245,99,0,0,0,0,0,0,0,0,0,-1,1469,925,0,0
252,99,0,0,0,0,0,0,0,0,0,-1,1476,925,0,0
259,99,0,0,0,0,0,0,0,0,0,-1,1483,925,0,0
266,99,0,0,0,0,0,0,0,0,0,-1,1490,925,0,0
273,99,0,0,0,0,0,0,0,0,0,-1,1497,925,0,0
280,99,0,0,0,0,0,0,0,0,0,-1,1504,925,0,0
287,99,0,0,0,0,0,0,0,0,0,-1,1511,925,0,0
294,99,0,0,0,0,0,0,0,0,0,-1,1518,925,0,0
301,99,0,0,0,0,0,0,0,0,0,-1,1525,925,0,0
308,99,0,0,0,0,0,0,0,0,0,-1,1532,925,0,0
315,99,0,0,0,0,0,0,0,0,0,-1,1539,925,0,0
322,99,0,0,0,0,0,0,0,0,0,-1,1546,925,0,0
329,99,0,0,0,0,0,0,0,0,0,-1,1553,925,0,0
336,99,0,0,0,0,0,0,0,0,0,-1,1560,925,0,0
343,99,0,0,0,0,0,0,0,0,0,-1,1567,925,0,0
350,99,0,0,0,0,0,0,0,0,0,-1,1574,925,0,0
357,99,0,0,0,0,0,0,0,0,0,-1,1581,925,0,0
364,99,0,0,0,0,0,0,0,0,0,-1,1588,925,0,0
371,99,0,0,0,0,0,0,0,0,0,-1,1595,925,0,0
378,99,0,0,0,0,0,0,0,0,0,-1,1602,925,0,0
385,99,0,0,0,0,0,0,0,0,0,-1,1609,925,0,0
392,99,0,0,0,0,0,0,0,0,0,-1,1616,925,0,0
399,99,0,0,0,0,0,0,0,0,0,-1,1623,925,0,0
406,99,0,0,0,0,0,0,0,0,0,-1,1630,925,0,0
413,99,0,0,0,0,0,0,0,0,0,-1,1637,925,0,0
420,99,0,0,0,0,0,0,0,0,0,-1,1644,925,0,0
427,99,0,0,0,0,0,0,0,0,0,-1,1651,925,0,0
434,99,0,0,0,0,0,0,0,0,0,-1,1658,925,0,0
441,99,0,0,0,0,0,0,0,0,0,-1,1665,925,0,0
448,99,0,0,0,0,0,0,0,0,0,-1,1672,925,0,0
455,99,0,0,0,0,0,0,0,0,0,-1,1679,925,0,0
462,99,0,0,0,0,0,0,0,0,0,-1,1686,925,0,0
469,99,0,0,0,0,0,0,0,0,0,-1,1693,925,0,0
476,99,0,0,0,0,0,0,0,0,0,-1,1700,925,0,0
483,99,0,0,0,0,0,0,0,0,0,-1,1707,925,0,0
490,99,0,0,0,0,0,0,0,0,0,-1,1714,925,0,0
497,99,0,0,0,0,0,0,0,0,0,-1,1721,925,0,0
504,99,0,0,0,0,0,0,0,0,0,-1,1728,925,0,0
511,99,0,0,0,0,0,0,0,0,0,-1,1735,925,0,0
518,99,0,0,0,0,0,0,0,0,0,-1,1742,925,0,0
525,99,0,0,0,0,0,0,0,0,0,-1,1749,925,0,0
532,99,0,0,0,0,0,0,0,0,0,-1,1756,925,0,0
539,99,0,0,0,0,0,0,0,0,0,-1,1763,925,0,0
546,99,0,0,0,0,0,0,0,0,0,-1,1770,925,0,0
553,99,0,0,0,0,0,0,0,0,0,-1,1777,925,0,0
560,99,0,0,0,0,0,0,0,0,0,-1,1784,925,0,0
567,99,0,0,0,0,0,0,0,0,0,-1,1791,925,0,0
574,99,0,0,0,0,0,0,0,0,0,-1,1798,925,0,0
581,99,0,0,0,0,0,0,0,0,0,-1,1805,925,0,0
588,99,0,0,0,0,0,0,0,0,0,-1,1812,925,0,0
595,99,0,0,0,0,0,0,0,0,0,-1,1819,925,0,0
602,99,0,0,0,0,0,0,0,0,0,-1,1826,925,0,0
609,99,0,0,0,0,0,0,0,0,0,-1,1833,925,0,0
616,99,0,0,0,0,0,0,0,0,0,-1,1840,925,0,0
623,99,0,0,0,0,0,0,0,0,0,-1,1847,925,0,0
630,99,0,0,0,0,0,0,0,0,0,-1,1854,925,0,0
637,99,49.8081,2.72443,-0.00323886,-0.00199896,-0.00029785,-0.00193112,-0.0033067,-1.34686,0.00191808,0.0416468,1861,925,49.8081,-2.72445
644,99,49.8204,2.51746,-0.00192547,-0.00112706,-0.00115194,-0.000307112,-0.00274541,-0.952198,0.00173698,0.0376484,1868,925,49.8204,-2.51747
651,99,49.8719,2.34583,-0.000959001,-0.00066777,-0.00163312,0.000826212,-0.00245298,-0.829863,0.00196937,0.0378552,1875,925,49.872,-2.34581
658,99,49.9086,2.46521,0,0,0,0,0,0,0,-1,1882,925,49.9086,-2.46519
665,99,49.656,2.67877,0.000364756,0.000174766,-0.0015061,0.00177885,-0.00123933,-0.753903,0.00175181,0.041904,1889,925,49.656,-2.67876
672,99,49.5774,2.95172,0.000534933,0.000323592,-0.00108249,0.0015169,-0.00065837,-0.736743,0.00128808,0.039512,1896,925,49.5774,-2.95169
679,99,49.635,2.83136,0.000513928,0.000269514,-0.000620835,0.00102447,-0.000241027,-0.688219,0.000775903,0.0343656,1903,925,49.635,-2.83136
686,99,49.6338,2.73462,0.00051118,0.000177726,-0.000320783,0.000705978,-1.7071e-05,-0.545737,0.000476444,0.0307999,1910,925,49.6338,-2.73463
693,99,49.6484,2.66998,0.000536201,0.000376523,-0.000331815,0.000797647,0.000115077,-0.667336,0.000497858,0.0359326,1917,925,49.6484,-2.67001
700,99,49.7539,2.52374,0,0,0,0,0,0,0,-1,1924,925,49.7539,-2.52371
707,99,45.3309,3.22766,0,0,0,0,0,0,0,-1,1931,925,45.3309,-3.22764
714,99,45.7922,3.79102,0,0,0,0,0,0,0,-1,1938,925,45.7922,-3.79101
721,99,45.7032,4.33063,-0.00124628,0.00120915,-0.000228827,0.00123029,-0.00126742,-1.47866,0.00144211,0.030969,1945,925,45.7033,-4.33061
728,99,45.7167,4.84143,-0.00170867,0.00177298,-0.000377756,0.0018135,-0.00174918,-1.46395,0.00205703,0.0236184,1952,925,45.7167,-4.84145
735,99,45.6903,5.32703,-0.00223924,0.00271227,-0.000521967,0.0027667,-0.00229367,-1.4669,0.00292586,0.0194576,1959,925,45.6903,-5.32702
742,99,45.6312,5.75854,-0.00286454,0.00405432,-0.000774588,0.00413997,-0.0029502,-1.46066,0.00411268,0.0143821,1966,925,45.6312,-5.75853
749,99,45.5841,6.18927,-0.003618,0.00611641,-0.000894403,0.0061979,-0.00369949,-1.47993,0.00577463,0.0125641,1973,925,45.5841,-6.1893
756,99,45.5415,6.59882,-0.00422761,0.0088228,-0.000589903,0.00884941,-0.00425422,-1.52572,0.00771889,0.0131962,1980,925,45.5415,-6.59881
763,99,45.4833,7.02948,-0.0045807,0.0120467,0.000183868,0.0120488,-0.00458273,1.55974,0.00991947,0.0156883,1987,925,45.4833,-7.02949
770,99,45.4755,7.5545,-0.00454573,0.0157791,0.00140316,0.0158755,-0.00464214,1.50219,0.0124236,0.0284586,1994,925,45.4755,-7.55448
777,99,45.5027,8.02417,-0.00455575,0.0200528,0.003668,0.0205879,-0.00509085,1.42594,0.0156998,0.0430424,2001,925,45.5027,-8.02415
784,99,45.5791,8.49072,0,0,0,0,0,0,0,-1,2008,925,45.579,-8.4907
791,99,44.0027,7.8559,0,0,0,0,0,0,0,-1,2015,925,44.0027,-7.8559
798,99,43.7197,7.77515,0,0,0,0,0,0,0,-1,2022,925,43.7196,-7.77516
805,99,0,0,0,0,0,0,0,0,0,-1,2029,925,0,0
812,99,0,0,0,0,0,0,0,0,0,-1,2036,925,0,0
-700,92,0,0,0,0,0,0,0,0,0,-1,524,932,0,0
-693,92,0,0,0,0,0,0,0,0,0,-1,531,932,0,0
-686,92,-34.1224,5.68683,0,0,0,0,0,0,0,-1,538,932,-34.1224,-5.68683
-679,92,-33.9181,5.70709,0,0,0,0,0,0,0,-1,545,932,-33.9181,-5.70707
-672,92,-33.8231,5.72308,0.00364112,0.0231909,0.00523078,0.0245025,0.00232955,1.32512,0.0156165,0.0460737,552,932,-33.8231,-5.72305
-665,92,-34.3627,5.45258,-0.00124898,0.0213984,0.0049509,0.0224334,-0.00228399,1.36471,0.0157721,0.047535,559,932,-34.3627,-5.45257
-658,92,-34.5212,5.37811,-0.00403217,0.0191813,0.00454663,0.02004,-0.00489091,1.38412,0.015254,0.045736,566,932,-34.5212,-5.37812
-651,92,-33.7422,5.44806,0,0,0,0,0,0,0,-1,573,932,-33.7423,-5.44805
-644,92,-34.0969,5.06714,-0.0055778,0.0141054,0.00380364,0.0148148,-0.00628725,1.3864,0.0125105,0.0455505,580,932,-34.0968,-5.06716
-637,92,-34.5046,4.62006,-0.00515687,0.011454,0.00336577,0.0121101,-0.00581294,1.37828,0.0105586,0.0266933,587,932,-34.5046,-4.62005
-630,92,-34.5565,4.22339,-0.00464596,0.00854463,0.00300258,0.00919595,-0.00529728,1.35719,0.00846798,0.0137608,594,932,-34.5565,-4.2234
-623,92,-34.6453,3.85663,-0.00563953,0.00611575,0.00282994,0.00676155,-0.00628533,1.34644,0.00753429,0.00978226,601,932,-34.6453,-3.85662
-616,92,-34.6677,3.474,-0.00596808,0.00387783,0.00222084,0.00435558,-0.00644583,1.3589,0.006275,0.00904426,608,932,-34.6677,-3.47399
-609,92,-34.6868,3.09314,-0.00723569,0.00218335,0.00169455,0.00247893,-0.00753128,1.3981,0.00601977,0.00972855,615,932,-34.6868,-3.09313
-602,92,-34.6647,2.69989,-0.00887676,0.000910852,0.0011992,0.00105564,-0.00902154,1.45064,0.00639535,0.0112676,622,932,-34.6647,-2.69991
-595,92,-34.5766,2.2453,-0.0100908,7.39049e-07,0.000902103,8.07461e-05,-0.0101708,1.48234,0.00680762,0.0210187,629,932,-34.5766,-2.24533
-588,92,-34.6292,1.90155,-0.0103029,-0.000603029,0.000799538,-0.000537567,-0.0103684,1.4891,0.00674019,0.0241928,636,932,-34.6291,-1.90157
-581,92,-34.895,1.50195,-0.0104842,-0.000835645,0.000871626,-0.000757537,-0.0105623,1.48142,0.0068031,0.0258766,643,932,-34.895,-1.50194
-574,92,-35.5739,1.05505,-0.0105673,-0.00084041,0.000711754,-0.000788605,-0.0106191,1.49814,0.00683173,0.0469888,650,932,-35.5739,-1.05507
-567,92,-36.5244,0.619568,0,0,0,0,0,0,0,-1,657,932,-36.5244,-0.619565
-560,92,-37.0833,0.843018,-0.0100261,-0.000936258,0.000135361,-0.000934243,-0.0100281,1.55591,0.0063968,0.0390923,664,932,-37.0832,-0.843046
-553,92,-37.2014,0.928528,-0.00923289,-0.000651025,2.67995e-05,-0.000650941,-0.00923298,1.56767,0.00595022,0.0402519,671,932,-37.2014,-0.928523
-546,92,-37.2336,0.993835,-0.00787284,-0.00015264,-0.000116304,-0.000150888,-0.00787459,-1.55574,0.00520016,0.039333,678,932,-37.2336,-0.99384
-539,92,-37.1022,0.992004,-0.00577772,0.000523297,-0.00033204,0.000540746,-0.00579517,-1.51829,0.00405573,0.0379926,685,932,-37.1022,-0.991976
-532,92,-37.0425,0.991333,-0.00299565,0.00131708,-0.000806359,0.00146292,-0.00314148,-1.39187,0.0027166,0.0407107,692,932,-37.0425,-0.991307
-525,92,-37.126,0.943115,-0.00122837,0.00228496,-0.00205709,0.00323338,-0.00217679,-1.13879,0.00314336,0.0376144,699,932,-37.126,-0.943122
-518,92,-37.3085,0.915833,-0.00387414,0.00322925,-0.00388395,0.0049406,-0.00558549,-1.15577,0.00608104,0.0399625,706,932,-37.3085,-0.915823
-511,92,0,0,0,0,0,0,0,0,0,-1,713,932,0,0
-504,92,0,0,0,0,0,0,0,0,0,-1,720,932,0,0
-497,92,0,0,0,0,0,0,0,0,0,-1,727,932,0,0
-490,92,0,0,0,0,0,0,0,0,0,-1,734,932,0,0
-483,92,0,0,0,0,0,0,0,0,0,-1,741,932,0,0
-476,92,0,0,0,0,0,0,0,0,0,-1,748,932,0,0
-469,92,0,0,0,0,0,0,0,0,0,-1,755,932,0,0
-462,92,0,0,0,0,0,0,0,0,0,-1,762,932,0,0
-455,92,0,0,0,0,0,0,0,0,0,-1,769,932,0,0
-448,92,0,0,0,0,0,0,0,0,0,-1,776,932,0,0
-441,92,0,0,0,0,0,0,0,0,0,-1,783,932,0,0
-434,92,0,0,0,0,0,0,0,0,0,-1,790,932,0,0
-427,92,0,0,0,0,0,0,0,0,0,-1,797,932,0,0
-420,92,0,0,0,0,0,0,0,0,0,-1,804,932,0,0
-413,92,0,0,0,0,0,0,0,0,0,-1,811,932,0,0
-406,92,0,0,0,0,0,0,0,0,0,-1,818,932,0,0
-399,92,0,0,0,0,0,0,0,0,0,-1,825,932,0,0
-392,92,0,0,0,0,0,0,0,0,0,-1,832,932,0,0
-385,92,0,0,0,0,0,0,0,0,0,-1,839,932,0,0
-378,92,0,0,0,0,0,0,0,0,0,-1,846,932,0,0
-371,92,0,0,0,0,0,0,0,0,0,-1,853,932,0,0
-364,92,0,0,0,0,0,0,0,0,0,-1,860,932,0,0
-357,92,0,0,0,0,0,0,0,0,0,-1,867,932,0,0
-350,92,0,0,0,0,0,0,0,0,0,-1,874,932,0,0
-343,92,0,0,0,0,0,0,0,0,0,-1,881,932,0,0
-336,92,0,0,0,0,0,0,0,0,0,-1,888,932,0,0
-329,92,0,0,0,0,0,0,0,0,0,-1,895,932,0,0
-322,92,0,0,0,0,0,0,0,0,0,-1,902,932,0,0
-315,92,0,0,0,0,0,0,0,0,0,-1,909,932,0,0
-308,92,0,0,0,0,0,0,0,0,0,-1,916,932,0,0
-301,92,0,0,0,0,0,0,0,0,0,-1,923,932,0,0
-294,92,0,0,0,0,0,0,0,0,0,-1,930,932,0,0
-287,92,0,0,0,0,0,0,0,0,0,-1,937,932,0,0
-280,92,0,0,0,0,0,0,0,0,0,-1,944,932,0,0
-273,92,0,0,0,0,0,0,0,0,0,-1,951,932,0,0
-266,92,0,0,0,0,0,0,0,0,0,-1,958,932,0,0
-259,92,0,0,0,0,0,0,0,0,0,-1,965,932,0,0
-252,92,0,0,0,0,0,0,0,0,0,-1,972,932,0,0
-245,92,0,0,0,0,0,0,0,0,0,-1,979,932,0,0
-238,92,0,0,0,0,0,0,0,0,0,-1,986,932,0,0
-231,92,0,0,0,0,0,0,0,0,0,-1,993,932,0,0
-224,92,0,0,0,0,0,0,0,0,0,-1,1000,932,0,0
-217,92,0,0,0,0,0,0,0,0,0,-1,1007,932,0,0
-210,92,0,0,0,0,0,0,0,0,0,-1,1014,932,0,0
-203,92,0,0,0,0,0,0,0,0,0,-1,1021,932,0,0
-196,92,0,0,0,0,0,0,0,0,0,-1,1028,932,0,0
-189,92,0,0,0,0,0,0,0,0,0,-1,1035,932,0,0
-182,92,0,0,0,0,0,0,0,0,0,-1,1042,932,0,0
-175,92,0,0,0,0,0,0,0,0,0,-1,1049,932,0,0
-168,92,0,0,0,0,0,0,0,0,0,-1,1056,932,0,0
-161,92,0,0,0,0,0,0,0,0,0,-1,1063,932,0,0
-154,92,0,0,0,0,0,0,0,0,0,-1,1070,932,0,0
-147,92,0,0,0,0,0,0,0,0,0,-1,1077,932,0,0
-140,92,0,0,0,0,0,0,0,0,0,-1,1084,932,0,0
-133,92,0,0,0,0,0,0,0,0,0,-1,1091,932,0,0
-126,92,0,0,0,0,0,0,0,0,0,-1,1098,932,0,0
-119,92,0,0,0,0,0,0,0,0,0,-1,1105,932,0,0
-112,92,0,0,0,0,0,0,0,0,0,-1,1112,932,0,0
-105,92,0,0,0,0,0,0,0,0,0,-1,1119,932,0,0
-98,92,0,0,0,0,0,0,0,0,0,-1,1126,932,0,0
-91,92,0,0,0,0,0,0,0,0,0,-1,1133,932,0,0
-84,92,0,0,0,0,0,0,0,0,0,-1,1140,932,0,0
-77,92,0,0,0,0,0,0,0,0,0,-1,1147,932,0,0
-70,92,0,0,0,0,0,0,0,0,0,-1,1154,932,0,0
-63,92,0,0,0,0,0,0,0,0,0,-1,1161,932,0,0
-56,92,0,0,0,0,0,0,0,0,0,-1,1168,932,0,0
-49,92,0,0,0,0,0,0,0,0,0,-1,1175,932,0,0
-42,92,0,0,0,0,0,0,0,0,0,-1,1182,932,0,0
-35,92,0,0,0,0,0,0,0,0,0,-1,1189,932,0,0
-28,92,0,0,0,0,0,0,0,0,0,-1,1196,932,0,0
-21,92,0,0,0,0,0,0,0,0,0,-1,1203,932,0,0
-14,92,0,0,0,0,0,0,0,0,0,-1,1210,932,0,0
-7,92,0,0,0,0,0,0,0,0,0,-1,1217,932,0,0
0,92,0,0,0,0,0,0,0,0,0,-1,1224,932,0,0
7,92,0,0,0,0,0,0,0,0,0,-1,1231,932,0,0
14,92,0,0,0,0,0,0,0,0,0,-1,1238,932,0,0
21,92,0,0,0,0,0,0,0,0,0,-1,1245,932,0,0
28,92,0,0,0,0,0,0,0,0,0,-1,1252,932,0,0
35,92,0,0,0,0,0,0,0,0,0,-1,1259,932,0,0
42,92,0,0,0,0,0,0,0,0,0,-1,1266,932,0,0
49,92,0,0,0,0,0,0,0,0,0,-1,1273,932,0,0
56,92,0,0,0,0,0,0,0,0,0,-1,1280,932,0,0
63,92,0,0,0,0,0,0,0,0,0,-1,1287,932,0,0
70,92,0,0,0,0,0,0,0,0,0,-1,1294,932,0,0
77,92,0,0,0,0,0,0,0,0,0,-1,1301,932,0,0
84,92,0,0,0,0,0,0,0,0,0,-1,1308,932,0,0
91,92,0,0,0,0,0,0,0,0,0,-1,1315,932,0,0
98,92,0,0,0,0,0,0,0,0,0,-1,1322,932,0,0
105,92,0,0,0,0,0,0,0,0,0,-1,1329,932,0,0
112,92,0,0,0,0,0,0,0,0,0,-1,1336,932,0,0
119,92,0,0,0,0,0,0,0,0,0,-1,1343,932,0,0
126,92,0,0,0,0,0,0,0,0,0,-1,1350,932,0,0
133,92,0,0,0,0,0,0,0,0,0,-1,1357,932,0,0
140,92,0,0,0,0,0,0,0,0,0,-1,1364,932,0,0
147,92,0,0,0,0,0,0,0,0,0,-1,1371,932,0,0
154,92,0,0,0,0,0,0,0,0,0,-1,1378,932,0,0
161,92,0,0,0,0,0,0,0,0,0,-1,1385,932,0,0
168,92,0,0,0,0,0,0,0,0,0,-1,1392,932,0,0
175,92,0,0,0,0,0,0,0,0,0,-1,1399,932,0,0
182,92,0,0,0,0,0,0,0,0,0,-1,1406,932,0,0
189,92,0,0,0,0,0,0,0,0,0,-1,1413,932,0,0
196,92,0,0,0,0,0,0,0,0,0,-1,1420,932,0,0
203,92,0,0,0,0,0,0,0,0,0,-1,1427,932,0,0
210,92,0,0,0,0,0,0,0,0,0,-1,1434,932,0,0
217,92,0,0,0,0,0,0,0,0,0,-1,1441,932,0,0
224,92,0,0,0,0,0,0,0,0,0,-1,1448,932,0,0
231,92,0,0,0,0,0,0,0,0,0,-1,1455,932,0,0
238,92,0,0,0,0,0,0,0,0,0,-1,1462,932,0,0
245,92,0,0,0,0,0,0,0,0,0,-1,1469,932,0,0
252,92,0,0,0,0,0,0,0,0,0,-1,1476,932,0,0
259,92,0,0,0,0,0,0,0,0,0,-1,1483,932,0,0
266,92,0,0,0,0,0,0,0,0,0,-1,1490,932,0,0
273,92,0,0,0,0,0,0,0,0,0,-1,1497,932,0,0
280,92,0,0,0,0,0,0,0,0,0,-1,1504,932,0,0
287,92,0,0,0,0,0,0,0,0,0,-1,1511,932,0,0
294,92,0,0,0,0,0,0,0,0,0,-1,1518,932,0,0
301,92,0,0,0,0,0,0,0,0,0,-1,1525,932,0,0
308,92,0,0,0,0,0,0,0,0,0,-1,1532,932,0,0
315,92,0,0,0,0,0,0,0,0,0,-1,1539,932,0,0
322,92,0,0,0,0,0,0,0,0,0,-1,1546,932,0,0
329,92,0,0,0,0,0,0,0,0,0,-1,1553,932,0,0
336,92,0,0,0,0,0,0,0,0,0,-1,1560,932,0,0
343,92,0,0,0,0,0,0,0,0,0,-1,1567,932,0,0
350,92,0,0,0,0,0,0,0,0,0,-1,1574,932,0,0
357,92,0,0,0,0,0,0,0,0,0,-1,1581,932,0,0
364,92,0,0,0,0,0,0,0,0,0,-1,1588,932,0,0
371,92,0,0,0,0,0,0,0,0,0,-1,1595,932,0,0
378,92,0,0,0,0,0,0,0,0,0,-1,1602,932,0,0
385,92,0,0,0,0,0,0,0,0,0,-1,1609,932,0,0
392,92,0,0,0,0,0,0,0,0,0,-1,1616,932,0,0
399,92,0,0,0,0,0,0,0,0,0,-1,1623,932,0,0
406,92,0,0,0,0,0,0,0,0,0,-1,1630,932,0,0
413,92,0,0,0,0,0,0,0,0,0,-1,1637,932,0,0
420,92,0,0,0,0,0,0,0,0,0,-1,1644,932,0,0
427,92,0,0,0,0,0,0,0,0,0,-1,1651,932,0,0
434,92,0,0,0,0,0,0,0,0,0,-1,1658,932,0,0
441,92,0,0,0,0,0,0,0,0,0,-1,1665,932,0,0
448,92,0,0,0,0,0,0,0,0,0,-1,1672,932,0,0
455,92,0,0,0,0,0,0,0,0,0,-1,1679,932,0,0
462,92,0,0,0,0,0,0,0,0,0,-1,1686,932,0,0
469,92,0,0,0,0,0,0,0,0,0,-1,1693,932,0,0
476,92,0,0,0,0,0,0,0,0,0,-1,1700,932,0,0
483,92,0,0,0,0,0,0,0,0,0,-1,1707,932,0,0
490,92,0,0,0,0,0,0,0,0,0,-1,1714,932,0,0
497,92,0,0,0,0,0,0,0,0,0,-1,1721,932,0,0
504,92,0,0,0,0,0,0,0,0,0,-1,1728,932,0,0
511,92,0,0,0,0,0,0,0,0,0,-1,1735,932,0,0
518,92,0,0,0,0,0,0,0,0,0,-1,1742,932,0,0
525,92,0,0,0,0,0,0,0,0,0,-1,1749,932,0,0
532,92,0,0,0,0,0,0,0,0,0,-1,1756,932,0,0
539,92,0,0,0,0,0,0,0,0,0,-1,1763,932,0,0
546,92,0,0,0,0,0,0,0,0,0,-1,1770,932,0,0
553,92,0,0,0,0,0,0,0,0,0,-1,1777,932,0,0
560,92,0,0,0,0,0,0,0,0,0,-1,1784,932,0,0
567,92,0,0,0,0,0,0,0,0,0,-1,1791,932,0,0
574,92,0,0,0,0,0,0,0,0,0,-1,1798,932,0,0
581,92,0,0,0,0,0,0,0,0,0,-1,1805,932,0,0
588,92,0,0,0,0,0,0,0,0,0,-1,1812,932,0,0
595,92,0,0,0,0,0,0,0,0,0,-1,1819,932,0,0
602,92,0,0,0,0,0,0,0,0,0,-1,1826,932,0,0
609,92,0,0,0,0,0,0,0,0,0,-1,1833,932,0,0
616,92,0,0,0,0,0,0,0,0,0,-1,1840,932,0,0
623,92,0,0,0,0,0,0,0,0,0,-1,1847,932,0,0
630,92,0,0,0,0,0,0,0,0,0,-1,1854,932,0,0
637,92,49.8602,2.5686,-0.00269504,-0.00272073,-2.06081e-05,-0.0026836,-0.00273217,-0.506676,0.00180547,0.0445692,1861,932,49.8602,-2.56861
644,92,49.8145,2.49817,-0.00151588,-0.00156229,-0.000979506,-0.000559301,-0.00251886,-0.773555,0.00152733,0.0368905,1868,932,49.8144,-2.49819
651,92,49.7279,2.50726,-0.000685254,-0.000933421,-0.00148062,0.000676474,-0.00229515,-0.743593,0.00179851,0.0364724,1875,932,49.7279,-2.50729
658,92,49.6531,2.36725,-0.000132472,-0.000388978,-0.00157486,0.00131935,-0.0018408,-0.744769,0.00183278,0.0394663,1882,932,49.653,-2.36722
665,92,49.5551,2.37146,0.000340764,0.00012684,-0.00138354,0.00162147,-0.00115387,-0.74682,0.00160991,0.0389728,1889,932,49.5551,-2.37149
672,92,49.5942,2.75671,0.000405933,0.000336289,-0.000972079,0.00134381,-0.000601591,-0.767495,0.00115011,0.0389649,1896,932,49.5942,-2.75668
679,92,49.7367,2.79938,0.000305995,0.000287595,-0.000522357,0.000819232,-0.000225643,-0.776593,0.000634879,0.0364391,1903,932,49.7366,-2.7994
686,92,49.6935,2.66394,0.000287684,0.000178641,-0.000251609,0.000490611,-2.42854e-05,-0.678702,0.000335462,0.0296672,1910,932,49.6935,-2.66391
693,92,49.6433,2.81256,0.000300534,0.000322162,-0.000264494,0.000576063,4.6633e-05,-0.805829,0.00036948,0.0281549,1917,932,49.6433,-2.81259
700,92,49.6608,2.8468,0,0,0,0,0,0,0,-1,1924,932,49.6608,-2.84681
707,92,32.9893,3.26874,0,0,0,0,0,0,0,-1,1931,932,32.9893,-3.26874
714,92,46.4294,3.83875,0,0,0,0,0,0,0,-1,1938,932,46.4295,-3.83873
721,92,46.2844,4.42615,-0.0015597,0.00118251,-0.000284964,0.00121181,-0.001589,-1.46834,0.00162193,0.0335688,1945,932,46.2844,-4.42613
728,92,46.1304,4.93463,-0.00197052,0.00174319,-0.000420535,0.00179022,-0.00201755,-1.45944,0.00219972,0.024786,1952,932,46.1304,-4.93462
735,92,46.1235,5.35889,-0.00245717,0.00271485,-0.000542676,0.00277118,-0.0025135,-1.46737,0.00305232,0.0190819,1959,932,46.1235,-5.35891
742,92,46.1527,5.74152,-0.00306201,0.0040557,-0.000754038,0.00413471,-0.00314102,-1.4664,0.00421368,0.0194541,1966,932,46.1527,-5.7415
749,92,46.0742,6.16357,-0.00382295,0.00616116,-0.000846134,0.00623236,-0.00389415,-1.48685,0.00589827,0.0177126,1973,932,46.0743,-6.16358
756,92,46.0031,6.56921,-0.00445777,0.00897494,-0.00051395,0.00899457,-0.00447741,-1.53261,0.00792246,0.0154479,1980,932,46.003,-6.56923
763,92,45.9645,6.99017,-0.00485899,0.0123399,0.00027988,0.0123444,-0.00486354,1.55453,0.0102432,0.0172927,1987,932,45.9645,-6.9902
770,92,45.9142,7.49719,-0.00491474,0.0160893,0.00148119,0.0161932,-0.00501868,1.50074,0.0128006,0.0259595,1994,932,45.9142,-7.4972
777,92,45.9639,8.03595,-0.0050233,0.0203002,0.00357993,0.0207966,-0.00551966,1.43302,0.0160243,0.0437485,2001,932,45.9638,-8.03597
784,92,46.1294,8.6272,0,0,0,0,0,0,0,-1,2008,932,46.1293,-8.62718
791,92,44.9756,8.25726,0,0,0,0,0,0,0,-1,2015,932,44.9755,-8.25728
798,92,45.0798,8.31824,0,0,0,0,0,0,0,-1,2022,932,45.0798,-8.31824
805,92,0,0,0,0,0,0,0,0,0,-1,2029,932,0,0
812,92,0,0,0,0,0,0,0,0,0,-1,2036,932,0,0
-700,85,0,0,0,0,0,0,0,0,0,-1,524,939,0,0
-693,85,0,0,0,0,0,0,0,0,0,-1,531,939,0,0
-686,85,-33.4855,6.54498,0,0,0,0,0,0,0,-1,538,939,-33.4855,-6.54501
-679,85,-34.5713,5.76904,0,0,0,0,0,0,0,-1,545,939,-34.5713,-5.76904
-672,85,-34.5441,5.72784,-0.00701689,0.0308459,0.00945994,0.0330779,-0.00924886,1.33909,0.0256958,0.0457597,552,939,-34.5441,-5.72786
-665,85,-34.7294,5.52997,-0.0087378,0.0272737,0.0079016,0.0289311,-0.0103953,1.36403,0.0235308,0.0432294,559,939,-34.7294,-5.52997
-658,85,-34.7354,5.3504,-0.00921386,0.0237121,0.00658729,0.0249811,-0.0104828,1.38049,0.0210377,0.0441706,566,939,-34.7353,-5.35037
-651,85,-34.4893,5.25342,-0.00880797,0.0201959,0.00554,0.0212181,-0.00983013,1.38834,0.0183232,0.043761,573,939,-34.4892,-5.25342
-644,85,-34.6243,4.89258,-0.00789173,0.0167582,0.00474006,0.0176383,-0.0087718,1.38722,0.0155316,0.035025,580,939,-34.6243,-4.8926
-637,85,-34.913,4.55353,-0.00660175,0.0135317,0.00382248,0.014233,-0.00730305,1.38935,0.0126466,0.0194683,587,939,-34.913,-4.55352
-630,85,-35.0001,4.15521,-0.00572588,0.010107,0.0031031,0.0106935,-0.00631234,1.38401,0.00992633,0.0120979,594,939,-35.0001,-4.15519
-623,85,-35.0745,3.79779,-0.00636355,0.007119,0.00270007,0.00763962,-0.00688418,1.38032,0.0083891,0.00991447,601,939,-35.0745,-3.79777
-616,85,-35.0793,3.45404,-0.00655438,0.00464672,0.00195478,0.00497806,-0.00688572,1.40289,0.00687901,0.0101596,608,939,-35.0793,-3.45406
-609,85,-35.0922,3.0835,-0.00759742,0.00286153,0.00128317,0.00301666,-0.00775255,1.45049,0.00641488,0.0130829,615,939,-35.0922,-3.08348
-602,85,-35.1032,2.70734,-0.00910829,0.00152627,0.000670332,0.00156835,-0.00915038,1.50809,0.00668465,0.017008,622,939,-35.1032,-2.70732
-595,85,-35.0247,2.31781,-0.0103488,0.000532484,0.000285383,0.000539963,-0.0103563,1.54459,0.00709103,0.0189222,629,939,-35.0246,-2.31783
-588,85,-35.0234,1.95221,-0.0106764,-0.000143749,0.000136935,-0.000141969,-0.0106782,1.5578,0.00707193,0.0188621,636,939,-35.0233,-1.95219
-581,85,-35.2614,1.61237,-0.0108682,-0.000434266,0.000169334,-0.000431518,-0.010871,1.55457,0.00710784,0.0281637,643,939,-35.2613,-1.61234
-574,85,-35.9366,1.23944,-0.010922,-0.000496123,4.69354e-05,-0.000495912,-0.0109222,1.56629,0.00712192,0.0468483,650,939,-35.9367,-1.23944
-567,85,-36.865,0.871704,0,0,0,0,0,0,0,-1,657,939,-36.865,-0.871685
-560,85,-37.0293,0.947266,-0.0103201,-0.00044998,-0.000372911,-0.00043591,-0.0103341,-1.53309,0.00674881,0.0361077,664,939,-37.0293,-0.947274
-553,85,-37.155,0.837036,-0.00927417,-0.000123976,-0.000386221,-0.000107703,-0.00929044,-1.52869,0.00615804,0.0414963,671,939,-37.155,-0.837009
-546,85,-37.2449,0.928711,-0.00753465,0.000382466,-0.000390366,0.000401668,-0.00755385,-1.52165,0.00517499,0.0405747,678,939,-37.2449,-0.9287
-539,85,-37.2841,1.19257,-0.00499856,0.000970791,-0.000445076,0.00100379,-0.00503156,-1.49678,0.00373422,0.0377022,685,939,-37.2841,-1.19259
-532,85,-37.1738,1.2085,-0.00174895,0.00154781,-0.000800695,0.00173199,-0.00193313,-1.34471,0.00211712,0.0396678,692,939,-37.1738,-1.2085
-525,85,-37.2472,1.02673,0.000237884,0.00218861,-0.00205352,0.00348664,-0.00106014,-1.00711,0.00274687,0.0377553,699,939,-37.2472,-1.02673
-518,85,-37.3053,0.914856,-0.00245717,0.00268348,-0.00404674,0.00490718,-0.00468087,-1.06833,0.00553618,0.0357084,706,939,-37.3053,-0.914868
-511,85,0,0,0,0,0,0,0,0,0,-1,713,939,0,0
-504,85,0,0,0,0,0,0,0,0,0,-1,720,939,0,0
-497,85,0,0,0,0,0,0,0,0,0,-1,727,939,0,0
-490,85,0,0,0,0,0,0,0,0,0,-1,734,939,0,0
-483,85,0,0,0,0,0,0,0,0,0,-1,741,939,0,0
-476,85,0,0,0,0,0,0,0,0,0,-1,748,939,0,0
-469,85,0,0,0,0,0,0,0,0,0,-1,755,939,0,0
-462,85,0,0,0,0,0,0,0,0,0,-1,762,939,0,0
-455,85,0,0,0,0,0,0,0,0,0,-1,769,939,0,0
-448,85,0,0,0,0,0,0,0,0,0,-1,776,939,0,0
-441,85,0,0,0,0,0,0,0,0,0,-1,783,939,0,0
-434,85,0,0,0,0,0,0,0,0,0,-1,790,939,0,0
-427,85,0,0,0,0,0,0,0,0,0,-1,797,939,0,0
-420,85,0,0,0,0,0,0,0,0,0,-1,804,939,0,0
-413,85,0,0,0,0,0,0,0,0,0,-1,811,939,0,0
-406,85,0,0,0,0,0,0,0,0,0,-1,818,939,0,0
-399,85,0,0,0,0,0,0,0,0,0,-1,825,939,0,0
-392,85,0,0,0,0,0,0,0,0,0,-1,832,939,0,0
-385,85,0,0,0,0,0,0,0,0,0,-1,839,939,0,0
-378,85,0,0,0,0,0,0,0,0,0,-1,846,939,0,0
-371,85,0,0,0,0,0,0,0,0,0,-1,853,939,0,0
-364,85,0,0,0,0,0,0,0,0,0,-1,860,939,0,0
-357,85,0,0,0,0,0,0,0,0,0,-1,867,939,0,0
-350,85,0,0,0,0,0,0,0,0,0,-1,874,939,0,0
-343,85,0,0,0,0,0,0,0,0,0,-1,881,939,0,0
-336,85,0,0,0,0,0,0,0,0,0,-1,888,939,0,0
-329,85,0,0,0,0,0,0,0,0,0,-1,895,939,0,0
-322,85,0,0,0,0,0,0,0,0,0,-1,902,939,0,0
-315,85,0,0,0,0,0,0,0,0,0,-1,909,939,0,0
-308,85,0,0,0,0,0,0,0,0,0,-1,916,939,0,0
-301,85,0,0,0,0,0,0,0,0,0,-1,923,939,0,0
-294,85,0,0,0,0,0,0,0,0,0,-1,930,939,0,0
-287,85,0,0,0,0,0,0,0,0,0,-1,937,939,0,0
-280,85,0,0,0,0,0,0,0,0,0,-1,944,939,0,0
-273,85,0,0,0,0,0,0,0,0,0,-1,951,939,0,0
-266,85,0,0,0,0,0,0,0,0,0,-1,958,939,0,0
-259,85,0,0,0,0,0,0,0,0,0,-1,965,939,0,0
-252,85,0,0,0,0,0,0,0,0,0,-1,972,939,0,0
-245,85,0,0,0,0,0,0,0,0,0,-1,979,939,0,0
-238,85,0,0,0,0,0,0,0,0,0,-1,986,939,0,0
-231,85,0,0,0,0,0,0,0,0,0,-1,993,939,0,0
-224,85,0,0,0,0,0,0,0,0,0,-1,1000,939,0,0
-217,85,0,0,0,0,0,0,0,0,0,-1,1007,939,0,0
-210,85,0,0,0,0,0,0,0,0,0,-1,1014,939,0,0
-203,85,0,0,0,0,0,0,0,0,0,-1,1021,939,0,0
-196,85,0,0,0,0,0,0,0,0,0,-1,1028,939,0,0
-189,85,0,0,0,0,0,0,0,0,0,-1,1035,939,0,0
-182,85,0,0,0,0,0,0,0,0,0,-1,1042,939,0,0
-175,85,0,0,0,0,0,0,0,0,0,-1,1049,939,0,0
-168,85,0,0,0,0,0,0,0,0,0,-1,1056,939,0,0
-161,85,0,0,0,0,0,0,0,0,0,-1,1063,939,0,0
-154,85,0,0,0,0,0,0,0,0,0,-1,1070,939,0,0
-147,85,0,0,0,0,0,0,0,0,0,-1,1077,939,0,0
-140,85,0,0,0,0,0,0,0,0,0,-1,1084,939,0,0
-133,85,0,0,0,0,0,0,0,0,0,-1,1091,939,0,0
-126,85,0,0,0,0,0,0,0,0,0,-1,1098,939,0,0
-119,85,0,0,0,0,0,0,0,0,0,-1,1105,939,0,0
-112,85,0,0,0,0,0,0,0,0,0,-1,1112,939,0,0
-105,85,0,0,0,0,0,0,0,0,0,-1,1119,939,0,0
-98,85,0,0,0,0,0,0,0,0,0,-1,1126,939,0,0
-91,85,0,0,0,0,0,0,0,0,0,-1,1133,939,0,0
-84,85,0,0,0,0,0,0,0,0,0,-1,1140,939,0,0
-77,85,0,0,0,0,0,0,0,0,0,-1,1147,939,0,0
-70,85,0,0,0,0,0,0,0,0,0,-1,1154,939,0,0
-63,85,0,0,0,0,0,0,0,0,0,-1,1161,939,0,0
-56,85,0,0,0,0,0,0,0,0,0,-1,1168,939,0,0
-49,85,0,0,0,0,0,0,0,0,0,-1,1175,939,0,0
-42,85,0,0,0,0,0,0,0,0,0,-1,1182,939,0,0
-35,85,0,0,0,0,0,0,0,0,0,-1,1189,939,0,0
-28,85,0,0,0,0,0,0,0,0,0,-1,1196,939,0,0
-21,85,0,0,0,0,0,0,0,0,0,-1,1203,939,0,0
-14,85,0,0,0,0,0,0,0,0,0,-1,1210,939,0,0
-7,85,0,0,0,0,0,0,0,0,0,-1,1217,939,0,0
0,85,0,0,0,0,0,0,0,0,0,-1,1224,939,0,0
7,85,0,0,0,0,0,0,0,0,0,-1,1231,939,0,0
14,85,0,0,0,0,0,0,0,0,0,-1,1238,939,0,0
21,85,0,0,0,0,0,0,0,0,0,-1,1245,939,0,0
28,85,0,0,0,0,0,0,0,0,0,-1,1252,939,0,0
35,85,0,0,0,0,0,0,0,0,0,-1,1259,939,0,0
42,85,0,0,0,0,0,0,0,0,0,-1,1266,939,0,0
49,85,0,0,0,0,0,0,0,0,0,-1,1273,939,0,0
56,85,0,0,0,0,0,0,0,0,0,-1,1280,939,0,0
63,85,0,0,0,0,0,0,0,0,0,-1,1287,939,0,0
70,85,0,0,0,0,0,0,0,0,0,-1,1294,939,0,0
77,85,0,0,0,0,0,0,0,0,0,-1,1301,939,0,0
84,85,0,0,0,0,0,0,0,0,0,-1,1308,939,0,0
91,85,0,0,0,0,0,0,0,0,0,-1,1315,939,0,0
98,85,0,0,0,0,0,0,0,0,0,-1,1322,939,0,0
105,85,0,0,0,0,0,0,0,0,0,-1,1329,939,0,0
112,85,0,0,0,0,0,0,0,0,0,-1,1336,939,0,0
119,85,0,0,0,0,0,0,0,0,0,-1,1343,939,0,0
126,85,0,0,0,0,0,0,0,0,0,-1,1350,939,0,0
133,85,0,0,0,0,0,0,0,0,0,-1,1357,939,0,0
140,85,0,0,0,0,0,0,0,0,0,-1,1364,939,0,0
147,85,0,0,0,0,0,0,0,0,0,-1,1371,939,0,0
154,85,0,0,0,0,0,0,0,0,0,-1,1378,939,0,0
161,85,0,0,0,0,0,0,0,0,0,-1,1385,939,0,0
168,85,0,0,0,0,0,0,0,0,0,-1,1392,939,0,0
175,85,0,0,0,0,0,0,0,0,0,-1,1399,939,0,0
182,85,0,0,0,0,0,0,0,0,0,-1,1406,939,0,0
189,85,0,0,0,0,0,0,0,0,0,-1,1413,939,0,0
196,85,0,0,0,0,0,0,0,0,0,-1,1420,939,0,0
203,85,0,0,0,0,0,0,0,0,0,-1,1427,939,0,0
210,85,0,0,0,0,0,0,0,0,0,-1,1434,939,0,0
217,85,0,0,0,0,0,0,0,0,0,-1,1441,939,0,0
224,85,0,0,0,0,0,0,0,0,0,-1,1448,939,0,0
231,85,0,0,0,0,0,0,0,0,0,-1,1455,939,0,0
238,85,0,0,0,0,0,0,0,0,0,-1,1462,939,0,0
245,85,0,0,0,0,0,0,0,0,0,-1,1469,939,0,0
252,85,0,0,0,0,0,0,0,0,0,-1,1476,939,0,0
259,85,0,0,0,0,0,0,0,0,0,-1,1483,939,0,0
266,85,0,0,0,0,0,0,0,0,0,-1,1490,939,0,0
273,85,0,0,0,0,0,0,0,0,0,-1,1497,939,0,0
280,85,0,0,0,0,0,0,0,0,0,-1,1504,939,0,0
287,85,0,0,0,0,0,0,0,0,0,-1,1511,939,0,0
294,85,0,0,0,0,0,0,0,0,0,-1,1518,939,0,0
301,85,0,0,0,0,0,0,0,0,0,-1,1525,939,0,0
308,85,0,0,0,0,0,0,0,0,0,-1,1532,939,0,0
315,85,0,0,0,0,0,0,0,0,0,-1,1539,939,0,0
322,85,0,0,0,0,0,0,0,0,0,-1,1546,939,0,0
329,85,0,0,0,0,0,0,0,0,0,-1,1553,939,0,0
336,85,0,0,0,0,0,0,0,0,0,-1,1560,939,0,0
343,85,0,0,0,0,0,0,0,0,0,-1,1567,939,0,0
350,85,0,0,0,0,0,0,0,0,0,-1,1574,939,0,0
357,85,0,0,0,0,0,0,0,0,0,-1,1581,939,0,0
364,85,0,0,0,0,0,0,0,0,0,-1,1588,939,0,0
371,85,0,0,0,0,0,0,0,0,0,-1,1595,939,0,0
378,85,0,0,0,0,0,0,0,0,0,-1,1602,939,0,0
385,85,0,0,0,0,0,0,0,0,0,-1,1609,939,0,0
392,85,0,0,0,0,0,0,0,0,0,-1,1616,939,0,0
399,85,0,0,0,0,0,0,0,0,0,-1,1623,939,0,0
406,85,0,0,0,0,0,0,0,0,0,-1,1630,939,0,0
413,85,0,0,0,0,0,0,0,0,0,-1,1637,939,0,0
420,85,0,0,0,0,0,0,0,0,0,-1,1644,939,0,0
427,85,0,0,0,0,0,0,0,0,0,-1,1651,939,0,0
434,85,0,0,0,0,0,0,0,0,0,-1,1658,939,0,0
441,85,0,0,0,0,0,0,0,0,0,-1,1665,939,0,0
448,85,0,0,0,0,0,0,0,0,0,-1,1672,939,0,0
455,85,0,0,0,0,0,0,0,0,0,-1,1679,939,0,0
462,85,0,0,0,0,0,0,0,0,0,-1,1686,939,0,0
469,85,0,0,0,0,0,0,0,0,0,-1,1693,939,0,0
476,85,0,0,0,0,0,0,0,0,0,-1,1700,939,0,0
483,85,0,0,0,0,0,0,0,0,0,-1,1707,939,0,0
490,85,0,0,0,0,0,0,0,0,0,-1,1714,939,0,0
497,85,0,0,0,0,0,0,0,0,0,-1,1721,939,0,0
504,85,0,0,0,0,0,0,0,0,0,-1,1728,939,0,0
511,85,0,0,0,0,0,0,0,0,0,-1,1735,939,0,0
518,85,0,0,0,0,0,0,0,0,0,-1,1742,939,0,0
525,85,0,0,0,0,0,0,0,0,0,-1,1749,939,0,0
532,85,0,0,0,0,0,0,0,0,0,-1,1756,939,0,0
539,85,0,0,0,0,0,0,0,0,0,-1,1763,939,0,0
546,85,0,0,0,0,0,0,0,0,0,-1,1770,939,0,0
553,85,0,0,0,0,0,0,0,0,0,-1,1777,939,0,0
560,85,0,0,0,0,0,0,0,0,0,-1,1784,939,0,0
567,85,0,0,0,0,0,0,0,0,0,-1,1791,939,0,0
574,85,0,0,0,0,0,0,0,0,0,-1,1798,939,0,0
581,85,0,0,0,0,0,0,0,0,0,-1,1805,939,0,0
588,85,0,0,0,0,0,0,0,0,0,-1,1812,939,0,0
595,85,0,0,0,0,0,0,0,0,0,-1,1819,939,0,0
602,85,0,0,0,0,0,0,0,0,0,-1,1826,939,0,0
609,85,0,0,0,0,0,0,0,0,0,-1,1833,939,0,0
616,85,0,0,0,0,0,0,0,0,0,-1,1840,939,0,0
623,85,0,0,0,0,0,0,0,0,0,-1,1847,939,0,0
630,85,0,0,0,0,0,0,0,0,0,-1,1854,939,0,0
637,85,49.8021,2.72852,-0.00291521,-0.00345355,0.000202751,-0.00284739,-0.00352136,0.32279,0.00215829,0.0475365,1861,939,49.8021,-2.72854
644,85,49.6476,2.80426,-0.00153134,-0.00225999,-0.00080795,-0.00100937,-0.00278196,-0.573584,0.00162619,0.0387553,1868,939,49.6476,-2.80424
651,85,49.5765,2.73041,-0.000646072,-0.0015811,-0.001308,0.000275453,-0.00250262,-0.613761,0.0017674,0.0388989,1875,939,49.5766,-2.73041
658,85,49.5327,2.57642,-0.000111009,-0.00097271,-0.00138674,0.000910273,-0.00199399,-0.63478,0.00171525,0.0380683,1882,939,49.5327,-2.57644
665,85,49.5607,2.42731,0.000313702,-0.000434182,-0.00120837,0.00120467,-0.00132515,-0.635342,0.00146114,0.0380421,1889,939,49.5606,-2.4273
672,85,49.7487,2.61572,0.00031344,-0.000197071,-0.000813297,0.000910598,-0.000794228,-0.63334,0.000985046,0.0409978,1896,939,49.7486,-2.61569
679,85,49.8281,2.6275,0.000166766,-0.000250906,-0.000379802,0.000391361,-0.000475501,-0.534033,0.000501268,0.0398637,1903,939,49.8282,-2.62751
686,85,49.6576,2.66846,0.00013284,-0.000373638,-0.000137777,0.000167894,-0.000408691,-0.249135,0.000342431,0.0340397,1910,939,49.6576,-2.66848
693,85,49.6176,2.78351,0.000119227,-0.000275142,-0.000148801,0.000169072,-0.000324987,-0.323229,0.000289941,0.0310031,1917,939,49.6175,-2.78353
700,85,49.6409,2.79358,-9.45124e-05,-0.00024708,-0.000184164,2.85422e-05,-0.000370134,-0.589048,0.0002568,0.0452139,1924,939,49.6409,-2.79356
707,85,49.7383,2.85205,0,0,0,0,0,0,0,-1,1931,939,49.7383,-2.85206
714,85,46.8271,3.96808,0,0,0,0,0,0,0,-1,1938,939,46.8271,-3.96805
721,85,46.6844,4.50146,-0.00186663,0.00076713,-0.000259088,0.000792374,-0.00189188,-1.47367,0.0015925,0.030757,1945,939,46.6844,-4.50149
728,85,46.5172,5.05688,-0.00223084,0.00141714,-0.000372925,0.00145487,-0.00226857,-1.46996,0.00216677,0.026648,1952,939,46.5172,-5.05686
735,85,46.5464,5.39105,-0.00267074,0.00248797,-0.000484604,0.0025331,-0.00271587,-1.47794,0.00303111,0.0242456,1959,939,46.5464,-5.39103
742,85,46.6278,5.76825,-0.00324255,0.00389,-0.000671129,0.0039526,-0.00330515,-1.47779,0.00419582,0.0174575,1966,939,46.6278,-5.76822
749,85,46.5448,6.16364,-0.00395625,0.00610591,-0.000771038,0.00616465,-0.00401499,-1.49476,0.00592073,0.0139935,1973,939,46.5448,-6.16361
756,85,46.4509,6.5285,-0.004533,0.00910023,-0.000478506,0.00911701,-0.00454977,-1.53576,0.00803604,0.0136601,1980,939,46.4509,-6.52848
763,85,46.4033,6.89606,-0.00488068,0.0127,0.000294357,0.0127049,-0.00488561,1.55406,0.010485,0.01432,1987,939,46.4034,-6.89604
770,85,46.3069,7.31396,-0.00490019,0.0165827,0.00147488,0.0166835,-0.00500097,1.50257,0.0131112,0.0204628,1994,939,46.3068,-7.31398
777,85,46.2444,8.03668,-0.00492725,0.02088,0.00336,0.0213103,-0.00535754,1.44343,0.0162891,0.041222,2001,939,46.2444,-8.03669
784,85,46.3457,8.95868,0,0,0,0,0,0,0,-1,2008,939,46.3457,-8.95866
791,85,46.3108,9.79047,0,0,0,0,0,0,0,-1,2015,939,46.3109,-9.79046
798,85,46.4202,8.76849,0,0,0,0,0,0,0,-1,2022,939,46.4201,-8.76851
805,85,47.3477,8.97565,0,0,0,0,0,0,0,-1,2029,939,47.3476,-8.97562
812,85,0,0,0,0,0,0,0,0,0,-1,2036,939,0,0
-700,78,0,0,0,0,0,0,0,0,0,-1,524,946,0,0
-693,78,0,0,0,0,0,0,0,0,0,-1,531,946,0,0
-686,78,-34.9806,6.20044,0,0,0,0,0,0,0,-1,538,946,-34.9806,-6.20043
-679,78,-34.9113,5.61963,0,0,0,0,0,0,0,-1,545,946,-34.9113,-5.61964
-672,78,-34.9642,5.44281,-0.0136395,0.0358253,0.0121115,0.0386315,-0.0164457,1.34311,0.0326475,0.0487751,552,946,-34.9642,-5.44278
-665,78,-35.0706,5.23035,-0.0131128,0.030982,0.00979218,0.0330588,-0.0151895,1.36181,0.0284859,0.0457921,559,946,-35.0706,-5.23032
-658,78,-34.6732,5.45105,0,0,0,0,0,0,0,-1,566,946,-34.6732,-5.45104
-651,78,-34.8729,5.10693,-0.0106075,0.022298,0.00653745,0.0235493,-0.0118587,1.38169,0.0208109,0.0448459,573,946,-34.8729,-5.10693
-644,78,-35.0734,4.74512,-0.00901039,0.0183562,0.00545829,0.0194047,-0.0100589,1.38102,0.0172937,0.0283385,580,946,-35.0733,-4.74509
-637,78,-35.2961,4.42004,-0.00721531,0.0147995,0.00420374,0.0155749,-0.0079907,1.38839,0.0138385,0.016474,587,946,-35.2961,-4.42003
-630,78,-35.4285,4.07098,-0.0061724,0.0111195,0.00318707,0.0116882,-0.00674111,1.39421,0.0107672,0.0151505,594,946,-35.4285,-4.07098
-623,78,-35.4599,3.73047,-0.00656539,0.00783194,0.00252484,0.00826188,-0.00699533,1.40213,0.00881886,0.0131515,601,946,-35.4599,-3.73047
-616,78,-35.454,3.39935,-0.00666222,0.00526271,0.0016054,0.00547506,-0.00687456,1.43929,0.0071453,0.0121334,608,946,-35.454,-3.39938
-609,78,-35.4285,3.07727,-0.00749076,0.00346657,0.000768781,0.00352025,-0.00754444,1.50109,0.00652752,0.0128794,615,946,-35.4284,-3.07729
-602,78,-35.4556,2.72687,-0.00882878,0.00211149,1.23694e-05,0.0021115,-0.00882879,1.56967,0.00670151,0.0170928,622,946,-35.4556,-2.72687
-595,78,-35.4025,2.34296,-0.0100497,0.00102218,-0.000467504,0.00104188,-0.0100694,-1.52867,0.00708579,0.0165272,629,946,-35.4025,-2.34295
-588,78,-35.3932,2.04828,-0.0104529,0.000268993,-0.000679974,0.000311946,-0.0104958,-1.50771,0.00710349,0.013857,636,946,-35.3932,-2.04829
-581,78,-35.5441,1.74249,-0.0106326,-8.13443e-05,-0.000697127,-3.54843e-05,-0.0106785,-1.50511,0.00710717,0.031732,643,946,-35.5441,-1.74249
-574,78,-36.2762,1.32654,-0.0106623,-0.000204935,-0.000768876,-0.000148705,-0.0107185,-1.49779,0.00709661,0.0403409,650,946,-36.2762,-1.32656
-567,78,-37.0925,1.03003,0,0,0,0,0,0,0,-1,657,946,-37.0925,-1.03005
-560,78,-36.9916,0.895691,-0.0100119,-9.20507e-05,-0.000968403,1.60281e-06,-0.0101056,-1.47439,0.00673757,0.0337165,664,946,-36.9916,-0.895702
-553,78,-36.91,0.805115,-0.00879341,0.000243853,-0.000828589,0.000319195,-0.00886875,-1.48012,0.00602172,0.0419684,671,946,-36.91,-0.805111
-546,78,-37.2034,0.828613,-0.00678202,0.000702315,-0.000637142,0.000756167,-0.00683587,-1.48647,0.00482908,0.0412891,678,946,-37.2035,-0.8286
-539,78,-37.1178,1.09601,-0.00391385,0.00114558,-0.000464608,0.0011879,-0.00395616,-1.47998,0.00310997,0.0377936,685,946,-37.1178,-1.09598
-532,78,-37.0455,1.22235,-0.00026369,0.00147532,-0.000640249,0.00168561,-0.000473981,-1.25345,0.00131062,0.0403963,692,946,-37.0455,-1.22236
-525,78,-37.0269,1.20575,0.00200928,0.00178985,-0.00179014,0.00369306,0.000106062,-0.754792,0.00242746,0.0402949,699,946,-37.0269,-1.20575
-518,78,-37.0692,1.12531,-0.000286244,0.00186026,-0.00376366,0.00470071,-0.00312669,-0.924293,0.00454951,0.0388414,706,946,-37.0692,-1.1253
-511,78,0,0,0,0,0,0,0,0,0,-1,713,946,0,0
-504,78,0,0,0,0,0,0,0,0,0,-1,720,946,0,0
-497,78,0,0,0,0,0,0,0,0,0,-1,727,946,0,0
-490,78,0,0,0,0,0,0,0,0,0,-1,734,946,0,0
-483,78,0,0,0,0,0,0,0,0,0,-1,741,946,0,0
-476,78,0,0,0,0,0,0,0,0,0,-1,748,946,0,0
-469,78,0,0,0,0,0,0,0,0,0,-1,755,946,0,0
-462,78,0,0,0,0,0,0,0,0,0,-1,762,946,0,0
-455,78,0,0,0,0,0,0,0,0,0,-1,769,946,0,0
-448,78,0,0,0,0,0,0,0,0,0,-1,776,946,0,0
-441,78,0,0,0,0,0,0,0,0,0,-1,783,946,0,0
-434,78,0,0,0,0,0,0,0,0,0,-1,790,946,0,0
-427,78,0,0,0,0,0,0,0,0,0,-1,797,946,0,0
-420,78,0,0,0,0,0,0,0,0,0,-1,804,946,0,0
-413,78,0,0,0,0,0,0,0,0,0,-1,811,946,0,0
-406,78,0,0,0,0,0,0,0,0,0,-1,818,946,0,0
-399,78,0,0,0,0,0,0,0,0,0,-1,825,946,0,0
-392,78,0,0,0,0,0,0,0,0,0,-1,832,946,0,0
-385,78,0,0,0,0,0,0,0,0,0,-1,839,946,0,0
-378,78,0,0,0,0,0,0,0,0,0,-1,846,946,0,0
-371,78,0,0,0,0,0,0,0,0,0,-1,853,946,0,0
-364,78,0,0,0,0,0,0,0,0,0,-1,860,946,0,0
-357,78,0,0,0,0,0,0,0,0,0,-1,867,946,0,0
-350,78,0,0,0,0,0,0,0,0,0,-1,874,946,0,0
-343,78,0,0,0,0,0,0,0,0,0,-1,881,946,0,0
-336,78,0,0,0,0,0,0,0,0,0,-1,888,946,0,0
-329,78,0,0,0,0,0,0,0,0,0,-1,895,946,0,0
-322,78,0,0,0,0,0,0,0,0,0,-1,902,946,0,0
-315,78,0,0,0,0,0,0,0,0,0,-1,909,946,0,0
-308,78,0,0,0,0,0,0,0,0,0,-1,916,946,0,0
-301,78,0,0,0,0,0,0,0,0,0,-1,923,946,0,0
-294,78,0,0,0,0,0,0,0,0,0,-1,930,946,0,0
-287,78,0,0,0,0,0,0,0,0,0,-1,937,946,0,0
-280,78,0,0,0,0,0,0,0,0,0,-1,944,946,0,0
-273,78,0,0,0,0,0,0,0,0,0,-1,951,946,0,0
-266,78,0,0,0,0,0,0,0,0,0,-1,958,946,0,0
-259,78,0,0,0,0,0,0,0,0,0,-1,965,946,0,0
-252,78,0,0,0,0,0,0,0,0,0,-1,972,946,0,0
-245,78,0,0,0,0,0,0,0,0,0,-1,979,946,0,0
-238,78,0,0,0,0,0,0,0,0,0,-1,986,946,0,0
-231,78,0,0,0,0,0,0,0,0,0,-1,993,946,0,0
-224,78,0,0,0,0,0,0,0,0,0,-1,1000,946,0,0
-217,78,0,0,0,0,0,0,0,0,0,-1,1007,946,0,0
-210,78,0,0,0,0,0,0,0,0,0,-1,1014,946,0,0
-203,78,0,0,0,0,0,0,0,0,0,-1,1021,946,0,0
-196,78,0,0,0,0,0,0,0,0,0,-1,1028,946,0,0
-189,78,0,0,0,0,0,0,0,0,0,-1,1035,946,0,0
-182,78,0,0,0,0,0,0,0,0,0,-1,1042,946,0,0
-175,78,0,0,0,0,0,0,0,0,0,-1,1049,946,0,0
-168,78,0,0,0,0,0,0,0,0,0,-1,1056,946,0,0
-161,78,0,0,0,0,0,0,0,0,0,-1,1063,946,0,0
-154,78,0,0,0,0,0,0,0,0,0,-1,1070,946,0,0
-147,78,0,0,0,0,0,0,0,0,0,-1,1077,946,0,0
-140,78,0,0,0,0,0,0,0,0,0,-1,1084,946,0,0
-133,78,0,0,0,0,0,0,0,0,0,-1,1091,946,0,0
-126,78,0,0,0,0,0,0,0,0,0,-1,1098,946,0,0
-119,78,0,0,0,0,0,0,0,0,0,-1,1105,946,0,0
-112,78,0,0,0,0,0,0,0,0,0,-1,1112,946,0,0
-105,78,0,0,0,0,0,0,0,0,0,-1,1119,946,0,0
-98,78,0,0,0,0,0,0,0,0,0,-1,1126,946,0,0
-91,78,0,0,0,0,0,0,0,0,0,-1,1133,946,0,0
-84,78,0,0,0,0,0,0,0,0,0,-1,1140,946,0,0
-77,78,0,0,0,0,0,0,0,0,0,-1,1147,946,0,0
-70,78,0,0,0,0,0,0,0,0,0,-1,1154,946,0,0
-63,78,0,0,0,0,0,0,0,0,0,-1,1161,946,0,0
-56,78,0,0,0,0,0,0,0,0,0,-1,1168,946,0,0
-49,78,0,0,0,0,0,0,0,0,0,-1,1175,946,0,0
-42,78,0,0,0,0,0,0,0,0,0,-1,1182,946,0,0
-35,78,0,0,0,0,0,0,0,0,0,-1,1189,946,0,0
-28,78,0,0,0,0,0,0,0,0,0,-1,1196,946,0,0
-21,78,0,0,0,0,0,0,0,0,0,-1,1203,946,0,0
-14,78,0,0,0,0,0,0,0,0,0,-1,1210,946,0,0
-7,78,0,0,0,0,0,0,0,0,0,-1,1217,946,0,0
0,78,0,0,0,0,0,0,0,0,0,-1,1224,946,0,0
7,78,0,0,0,0,0,0,0,0,0,-1,1231,946,0,0
14,78,0,0,0,0,0,0,0,0,0,-1,1238,946,0,0
21,78,0,0,0,0,0,0,0,0,0,-1,1245,946,0,0
28,78,0,0,0,0,0,0,0,0,0,-1,1252,946,0,0
35,78,0,0,0,0,0,0,0,0,0,-1,1259,946,0,0
42,78,0,0,0,0,0,0,0,0,0,-1,1266,946,0,0
49,78,0,0,0,0,0,0,0,0,0,-1,1273,946,0,0
56,78,0,0,0,0,0,0,0,0,0,-1,1280,946,0,0
63,78,0,0,0,0,0,0,0,0,0,-1,1287,946,0,0
70,78,0,0,0,0,0,0,0,0,0,-1,1294,946,0,0
77,78,0,0,0,0,0,0,0,0,0,-1,1301,946,0,0
84,78,0,0,0,0,0,0,0,0,0,-1,1308,946,0,0
91,78,0,0,0,0,0,0,0,0,0,-1,1315,946,0,0
98,78,0,0,0,0,0,0,0,0,0,-1,1322,946,0,0
105,78,0,0,0,0,0,0,0,0,0,-1,1329,946,0,0
112,78,0,0,0,0,0,0,0,0,0,-1,1336,946,0,0
119,78,0,0,0,0,0,0,0,0,0,-1,1343,946,0,0
126,78,0,0,0,0,0,0,0,0,0,-1,1350,946,0,0
133,78,0,0,0,0,0,0,0,0,0,-1,1357,946,0,0
140,78,0,0,0,0,0,0,0,0,0,-1,1364,946,0,0
147,78,0,0,0,0,0,0,0,0,0,-1,1371,946,0,0
154,78,0,0,0,0,0,0,0,0,0,-1,1378,946,0,0
161,78,0,0,0,0,0,0,0,0,0,-1,1385,946,0,0
168,78,0,0,0,0,0,0,0,0,0,-1,1392,946,0,0
175,78,0,0,0,0,0,0,0,0,0,-1,1399,946,0,0
182,78,0,0,0,0,0,0,0,0,0,-1,1406,946,0,0
189,78,0,0,0,0,0,0,0,0,0,-1,1413,946,0,0
196,78,0,0,0,0,0,0,0,0,0,-1,1420,946,0,0
203,78,0,0,0,0,0,0,0,0,0,-1,1427,946,0,0
210,78,0,0,0,0,0,0,0,0,0,-1,1434,946,0,0
217,78,0,0,0,0,0,0,0,0,0,-1,1441,946,0,0
224,78,0,0,0,0,0,0,0,0,0,-1,1448,946,0,0
231,78,0,0,0,0,0,0,0,0,0,-1,1455,946,0,0
238,78,0,0,0,0,0,0,0,0,0,-1,1462,946,0,0
245,78,0,0,0,0,0,0,0,0,0,-1,1469,946,0,0
252,78,0,0,0,0,0,0,0,0,0,-1,1476,946,0,0
259,78,0,0,0,0,0,0,0,0,0,-1,1483,946,0,0
266,78,0,0,0,0,0,0,0,0,0,-1,1490,946,0,0
273,78,0,0,0,0,0,0,0,0,0,-1,1497,946,0,0
280,78,0,0,0,0,0,0,0,0,0,-1,1504,946,0,0
287,78,0,0,0,0,0,0,0,0,0,-1,1511,946,0,0
294,78,0,0,0,0,0,0,0,0,0,-1,1518,946,0,0
301,78,0,0,0,0,0,0,0,0,0,-1,1525,946,0,0
308,78,0,0,0,0,0,0,0,0,0,-1,1532,946,0,0
315,78,0,0,0,0,0,0,0,0,0,-1,1539,946,0,0
322,78,0,0,0,0,0,0,0,0,0,-1,1546,946,0,0
329,78,0,0,0,0,0,0,0,0,0,-1,1553,946,0,0
336,78,0,0,0,0,0,0,0,0,0,-1,1560,946,0,0
343,78,0,0,0,0,0,0,0,0,0,-1,1567,946,0,0
350,78,0,0,0,0,0,0,0,0,0,-1,1574,946,0,0
357,78,0,0,0,0,0,0,0,0,0,-1,1581,946,0,0
364,78,0,0,0,0,0,0,0,0,0,-1,1588,946,0,0
371,78,0,0,0,0,0,0,0,0,0,-1,1595,946,0,0
378,78,0,0,0,0,0,0,0,0,0,-1,1602,946,0,0
385,78,0,0,0,0,0,0,0,0,0,-1,1609,946,0,0
392,78,0,0,0,0,0,0,0,0,0,-1,1616,946,0,0
399,78,0,0,0,0,0,0,0,0,0,-1,1623,946,0,0
406,78,0,0,0,0,0,0,0,0,0,-1,1630,946,0,0
413,78,0,0,0,0,0,0,0,0,0,-1,1637,946,0,0
420,78,0,0,0,0,0,0,0,0,0,-1,1644,946,0,0
427,78,0,0,0,0,0,0,0,0,0,-1,1651,946,0,0
434,78,0,0,0,0,0,0,0,0,0,-1,1658,946,0,0
441,78,0,0,0,0,0,0,0,0,0,-1,1665,946,0,0
448,78,0,0,0,0,0,0,0,0,0,-1,1672,946,0,0
455,78,0,0,0,0,0,0,0,0,0,-1,1679,946,0,0
462,78,0,0,0,0,0,0,0,0,0,-1,1686,946,0,0
469,78,0,0,0,0,0,0,0,0,0,-1,1693,946,0,0
476,78,0,0,0,0,0,0,0,0,0,-1,1700,946,0,0
483,78,0,0,0,0,0,0,0,0,0,-1,1707,946,0,0
490,78,0,0,0,0,0,0,0,0,0,-1,1714,946,0,0
497,78,0,0,0,0,0,0,0,0,0,-1,1721,946,0,0
504,78,0,0,0,0,0,0,0,0,0,-1,1728,946,0,0
511,78,0,0,0,0,0,0,0,0,0,-1,1735,946,0,0
518,78,0,0,0,0,0,0,0,0,0,-1,1742,946,0,0
525,78,0,0,0,0,0,0,0,0,0,-1,1749,946,0,0
532,78,0,0,0,0,0,0,0,0,0,-1,1756,946,0,0
539,78,0,0,0,0,0,0,0,0,0,-1,1763,946,0,0
546,78,0,0,0,0,0,0,0,0,0,-1,1770,946,0,0
553,78,0,0,0,0,0,0,0,0,0,-1,1777,946,0,0
560,78,0,0,0,0,0,0,0,0,0,-1,1784,946,0,0
567,78,0,0,0,0,0,0,0,0,0,-1,1791,946,0,0
574,78,0,0,0,0,0,0,0,0,0,-1,1798,946,0,0
581,78,0,0,0,0,0,0,0,0,0,-1,1805,946,0,0
588,78,0,0,0,0,0,0,0,0,0,-1,1812,946,0,0
595,78,0,0,0,0,0,0,0,0,0,-1,1819,946,0,0
602,78,0,0,0,0,0,0,0,0,0,-1,1826,946,0,0
609,78,0,0,0,0,0,0,0,0,0,-1,1833,946,0,0
616,78,0,0,0,0,0,0,0,0,0,-1,1840,946,0,0
623,78,0,0,0,0,0,0,0,0,0,-1,1847,946,0,0
630,78,0,0,0,0,0,0,0,0,0,-1,1854,946,0,0
637,78,49.6602,2.97729,-0.00215321,-0.00317479,-0.000547035,-0.00191557,-0.00341243,-0.409826,0.00197511,0.0439779,1861,946,49.6601,-2.97728
644,78,49.6064,3.01093,-0.00100607,-0.00223916,-0.00127525,-0.000206143,-0.00303909,-0.56023,0.00196096,0.0413505,1868,946,49.6065,-3.01095
651,78,49.6312,2.97357,-0.000313524,-0.00169487,-0.0015814,0.000721452,-0.00272984,-0.579509,0.00210206,0.0405178,1875,946,49.6312,-2.97356
658,78,49.6938,2.73926,5.76173e-05,-0.00114811,-0.0015011,0.00107239,-0.00216288,-0.59445,0.00190292,0.0373921,1882,946,49.6938,-2.73925
665,78,49.7062,2.56879,0.000310506,-0.000646214,-0.00120325,0.001127,-0.00146271,-0.5962,0.00149935,0.0389681,1889,946,49.7062,-2.5688
672,78,49.6244,2.69586,0.000163378,-0.000399946,-0.000721948,0.000656663,-0.000893231,-0.599409,0.000898299,0.040118,1896,946,49.6243,-2.69588
679,78,49.6981,2.67169,-8.92796e-05,-0.000432106,-0.000226093,2.30331e-05,-0.000544419,-0.461048,0.000370862,0.04058,1903,946,49.6981,-2.67172
686,78,49.6316,2.69592,-0.000175924,-0.000569507,5.14427e-05,-0.000169311,-0.00057612,0.127843,0.000341914,0.0382015,1910,946,49.6315,-2.69593
693,78,49.5989,2.70648,-0.000236519,-0.000531452,8.36558e-05,-0.000214443,-0.000553528,0.258009,0.000322269,0.0330967,1917,946,49.5988,-2.70648
700,78,49.5826,2.71417,-0.000482969,-0.000506485,7.3118e-05,-0.00042067,-0.000568785,0.705677,0.000340724,0.0318623,1924,946,49.5826,-2.71416
707,78,49.6469,2.86414,0,0,0,0,0,0,0,-1,1931,946,49.6468,-2.86414
714,78,47.0048,4.23993,0,0,0,0,0,0,0,-1,1938,946,47.0047,-4.23992
721,78,46.981,4.61694,-0.0022758,0.00066086,-0.000102555,0.000664437,-0.00227938,-1.53593,0.00178282,0.0307301,1945,946,46.9809,-4.61696
728,78,46.9468,5.08331,-0.0025818,0.00138389,-0.000197882,0.00139374,-0.00259165,-1.52106,0.00233536,0.0309188,1952,946,46.9468,-5.08329
735,78,47.0121,5.44952,-0.00297016,0.00250737,-0.000322991,0.00252635,-0.00298914,-1.5121,0.0031881,0.0225122,1959,946,47.0121,-5.44951
742,78,47.059,5.7804,-0.00349684,0.00392064,-0.000535026,0.00395903,-0.00353524,-1.49916,0.00432912,0.0179098,1966,946,47.0589,-5.78037
749,78,46.9596,6.1377,-0.00414616,0.00616374,-0.000708646,0.00621222,-0.00419464,-1.50249,0.00604593,0.0148244,1973,946,46.9596,-6.13769
756,78,46.9176,6.47571,-0.00465281,0.00921115,-0.000549321,0.00923288,-0.00467454,-1.53126,0.00817196,0.0151828,1980,946,46.9176,-6.47569
763,78,46.8369,6.7926,-0.00493942,0.012945,0.000108059,0.0129456,-0.00494007,1.56475,0.0106655,0.0157815,1987,946,46.837,-6.79258
770,78,46.7158,7.10211,-0.00492145,0.0169366,0.00118234,0.0170004,-0.00498522,1.51691,0.0133102,0.0219587,1994,946,46.7158,-7.10213
777,78,46.6948,7.68677,-0.00486776,0.0212439,0.00277979,0.0215366,-0.00516041,1.46591,0.0163516,0.0428367,2001,946,46.6948,-7.68678
784,78,46.7207,8.31982,0,0,0,0,0,0,0,-1,2008,946,46.7208,-8.3198
791,78,45.7527,8.48956,0,0,0,0,0,0,0,-1,2015,946,45.7526,-8.48958
798,78,47.4456,9.10638,0,0,0,0,0,0,0,-1,2022,946,47.4455,-9.1064
805,78,44.4521,7.54877,0,0,0,0,0,0,0,-1,2029,946,44.4522,-7.54875
812,78,0,0,0,0,0,0,0,0,0,-1,2036,946,0,0
-700,71,0,0,0,0,0,0,0,0,0,-1,524,953,0,0
-693,71,0,0,0,0,0,0,0,0,0,-1,531,953,0,0
-686,71,-35.093,5.51038,-0.0225655,0.051533,0.0228618,0.0580189,-0.0290513,1.29436,0.051189,0.0440157,538,953,-35.093,-5.51035
-679,71,-35.0537,5.29364,-0.0202345,0.0444463,0.0177261,0.0489857,-0.0247739,1.3201,0.0433431,0.0479267,545,953,-35.0537,-5.29365
-672,71,-35.0999,5.10785,-0.0182357,0.0383411,0.0140891,0.0416555,-0.0215501,1.33975,0.0371021,0.0466168,552,953,-35.0998,-5.10785
-665,71,-35.369,4.9314,0,0,0,0,0,0,0,-1,559,953,-35.369,-4.93139
-658,71,-35.0817,5.47131,0,0,0,0,0,0,0,-1,566,953,-35.0817,-5.47129
-651,71,-35.2818,5.11169,-0.0119703,0.0235541,0.00746989,0.0250609,-0.0134771,1.37175,0.0225825,0.0447293,573,953,-35.2818,-5.11168
-644,71,-35.4633,4.68835,-0.00993803,0.0194054,0.00614101,0.0206388,-0.0111714,1.37259,0.0186348,0.0328162,580,953,-35.4632,-4.68837
-637,71,-35.6889,4.34125,-0.0077642,0.0157236,0.00452432,0.0165649,-0.00860555,1.38693,0.0147724,0.0161065,587,953,-35.6889,-4.34123
-630,71,-35.793,4.02783,-0.00655074,0.0119445,0.00318927,0.012479,-0.00708524,1.40475,0.0114376,0.0156033,594,953,-35.793,-4.02781
-623,71,-35.8231,3.6875,-0.00668198,0.00852771,0.00225187,0.00885411,-0.00700838,1.42685,0.00917885,0.0150916,601,953,-35.8231,-3.68751
-616,71,-35.8165,3.34332,-0.00666237,0.00596277,0.0011179,0.006061,-0.00676059,1.48316,0.00740622,0.0148386,608,953,-35.8165,-3.34334
-609,71,-35.7863,3.06775,-0.00724338,0.00419558,8.55755e-05,0.00419622,-0.00724402,1.56332,0.0066827,0.0155393,615,953,-35.7863,-3.06774
-602,71,-35.7559,2.75513,-0.00834986,0.00282643,-0.000836866,0.00288875,-0.00841217,-1.49647,0.00677939,0.0175072,622,953,-35.7558,-2.75513
-595,71,-35.7798,2.43231,-0.00947142,0.00162785,-0.00140855,0.00180381,-0.00964738,-1.44652,0.00710955,0.0192606,629,953,-35.7798,-2.43229
-588,71,-35.3966,2.23102,0,0,0,0,0,0,0,-1,636,953,-35.3966,-2.23103
-581,71,-36.0148,1.67932,-0.00999312,0.000350183,-0.00175256,0.000639068,-0.010282,-1.40743,0.00707732,0.0386492,643,953,-36.0148,-1.67935
-574,71,-36.7681,1.17419,-0.00995146,0.000120606,-0.00175881,0.000418899,-0.0102498,-1.4028,0.00697699,0.0427597,650,953,-36.7681,-1.17419
-567,71,-37.3666,0.788574,0,0,0,0,0,0,0,-1,657,953,-37.3666,-0.788549
-560,71,-37.0612,0.81842,-0.00926083,0.000194824,-0.00163716,0.000470259,-0.00953627,-1.40412,0.00651992,0.0274558,664,953,-37.0612,-0.81843
-553,71,-37.0037,1.07269,-0.00794347,0.000480578,-0.00127733,0.000669998,-0.00813289,-1.42358,0.00565849,0.0372341,671,953,-37.0037,-1.07272
-546,71,-37.0843,1.12817,-0.00578073,0.000818065,-0.000801673,0.000914061,-0.00587673,-1.45162,0.00425536,0.0379514,678,953,-37.0843,-1.12816
-539,71,-37.0794,1.11664,-0.00272038,0.00103332,-0.000294639,0.00105631,-0.00274336,-1.49294,0.00226467,0.039021,685,953,-37.0794,-1.11665
-532,71,-37.1469,1.19812,0.00114855,0.00105791,-0.000194445,0.00130289,0.000903573,-0.670913,0.000770772,0.0444076,692,953,-37.1469,-1.19811
-525,71,-37.1589,1.21997,0.00351524,0.000996771,-0.00109979,0.0039279,0.000584115,-0.358956,0.00244724,0.0444009,699,953,-37.159,-1.21999
-518,71,0,0,0,0,0,0,0,0,0,-1,706,953,0,0
-511,71,0,0,0,0,0,0,0,0,0,-1,713,953,0,0
-504,71,0,0,0,0,0,0,0,0,0,-1,720,953,0,0
-497,71,0,0,0,0,0,0,0,0,0,-1,727,953,0,0
-490,71,0,0,0,0,0,0,0,0,0,-1,734,953,0,0
-483,71,0,0,0,0,0,0,0,0,0,-1,741,953,0,0
-476,71,0,0,0,0,0,0,0,0,0,-1,748,953,0,0
-469,71,0,0,0,0,0,0,0,0,0,-1,755,953,0,0
-462,71,0,0,0,0,0,0,0,0,0,-1,762,953,0,0
-455,71,0,0,0,0,0,0,0,0,0,-1,769,953,0,0
-448,71,0,0,0,0,0,0,0,0,0,-1,776,953,0,0
-441,71,0,0,0,0,0,0,0,0,0,-1,783,953,0,0
-434,71,0,0,0,0,0,0,0,0,0,-1,790,953,0,0
-427,71,0,0,0,0,0,0,0,0,0,-1,797,953,0,0
-420,71,0,0,0,0,0,0,0,0,0,-1,804,953,0,0
-413,71,0,0,0,0,0,0,0,0,0,-1,811,953,0,0
-406,71,0,0,0,0,0,0,0,0,0,-1,818,953,0,0
-399,71,0,0,0,0,0,0,0,0,0,-1,825,953,0,0
-392,71,0,0,0,0,0,0,0,0,0,-1,832,953,0,0
-385,71,0,0,0,0,0,0,0,0,0,-1,839,953,0,0
-378,71,0,0,0,0,0,0,0,0,0,-1,846,953,0,0
-371,71,0,0,0,0,0,0,0,0,0,-1,853,953,0,0
-364,71,0,0,0,0,0,0,0,0,0,-1,860,953,0,0
-357,71,0,0,0,0,0,0,0,0,0,-1,867,953,0,0
-350,71,0,0,0,0,0,0,0,0,0,-1,874,953,0,0
-343,71,0,0,0,0,0,0,0,0,0,-1,881,953,0,0
-336,71,0,0,0,0,0,0,0,0,0,-1,888,953,0,0
-329,71,0,0,0,0,0,0,0,0,0,-1,895,953,0,0
-322,71,0,0,0,0,0,0,0,0,0,-1,902,953,0,0
-315,71,0,0,0,0,0,0,0,0,0,-1,909,953,0,0
-308,71,0,0,0,0,0,0,0,0,0,-1,916,953,0,0
-301,71,0,0,0,0,0,0,0,0,0,-1,923,953,0,0
-294,71,0,0,0,0,0,0,0,0,0,-1,930,953,0,0
-287,71,0,0,0,0,0,0,0,0,0,-1,937,953,0,0
-280,71,0,0,0,0,0,0,0,0,0,-1,944,953,0,0
-273,71,0,0,0,0,0,0,0,0,0,-1,951,953,0,0
-266,71,0,0,0,0,0,0,0,0,0,-1,958,953,0,0
-259,71,0,0,0,0,0,0,0,0,0,-1,965,953,0,0
-252,71,0,0,0,0,0,0,0,0,0,-1,972,953,0,0
-245,71,0,0,0,0,0,0,0,0,0,-1,979,953,0,0
-238,71,0,0,0,0,0,0,0,0,0,-1,986,953,0,0
-231,71,0,0,0,0,0,0,0,0,0,-1,993,953,0,0
-224,71,0,0,0,0,0,0,0,0,0,-1,1000,953,0,0
-217,71,0,0,0,0,0,0,0,0,0,-1,1007,953,0,0
-210,71,0,0,0,0,0,0,0,0,0,-1,1014,953,0,0
-203,71,0,0,0,0,0,0,0,0,0,-1,1021,953,0,0
-196,71,0,0,0,0,0,0,0,0,0,-1,1028,953,0,0
-189,71,0,0,0,0,0,0,0,0,0,-1,1035,953,0,0
-182,71,0,0,0,0,0,0,0,0,0,-1,1042,953,0,0
-175,71,0,0,0,0,0,0,0,0,0,-1,1049,953,0,0
-168,71,0,0,0,0,0,0,0,0,0,-1,1056,953,0,0
-161,71,0,0,0,0,0,0,0,0,0,-1,1063,953,0,0
-154,71,0,0,0,0,0,0,0,0,0,-1,1070,953,0,0
-147,71,0,0,0,0,0,0,0,0,0,-1,1077,953,0,0
-140,71,0,0,0,0,0,0,0,0,0,-1,1084,953,0,0
-133,71,0,0,0,0,0,0,0,0,0,-1,1091,953,0,0
-126,71,0,0,0,0,0,0,0,0,0,-1,1098,953,0,0
-119,71,0,0,0,0,0,0,0,0,0,-1,1105,953,0,0
-112,71,0,0,0,0,0,0,0,0,0,-1,1112,953,0,0
-105,71,0,0,0,0,0,0,0,0,0,-1,1119,953,0,0
-98,71,0,0,0,0,0,0,0,0,0,-1,1126,953,0,0
-91,71,0,0,0,0,0,0,0,0,0,-1,1133,953,0,0
-84,71,0,0,0,0,0,0,0,0,0,-1,1140,953,0,0
-77,71,0,0,0,0,0,0,0,0,0,-1,1147,953,0,0
-70,71,0,0,0,0,0,0,0,0,0,-1,1154,953,0,0
-63,71,0,0,0,0,0,0,0,0,0,-1,1161,953,0,0
-56,71,0,0,0,0,0,0,0,0,0,-1,1168,953,0,0
-49,71,0,0,0,0,0,0,0,0,0,-1,1175,953,0,0
-42,71,0,0,0,0,0,0,0,0,0,-1,1182,953,0,0
-35,71,0,0,0,0,0,0,0,0,0,-1,1189,953,0,0
-28,71,0,0,0,0,0,0,0,0,0,-1,1196,953,0,0
-21,71,0,0,0,0,0,0,0,0,0,-1,1203,953,0,0
-14,71,0,0,0,0,0,0,0,0,0,-1,1210,953,0,0
-7,71,0,0,0,0,0,0,0,0,0,-1,1217,953,0,0
0,71,0,0,0,0,0,0,0,0,0,-1,1224,953,0,0
7,71,0,0,0,0,0,0,0,0,0,-1,1231,953,0,0
14,71,0,0,0,0,0,0,0,0,0,-1,1238,953,0,0
21,71,0,0,0,0,0,0,0,0,0,-1,1245,953,0,0
28,71,0,0,0,0,0,0,0,0,0,-1,1252,953,0,0
35,71,0,0,0,0,0,0,0,0,0,-1,1259,953,0,0
42,71,0,0,0,0,0,0,0,0,0,-1,1266,953,0,0
49,71,0,0,0,0,0,0,0,0,0,-1,1273,953,0,0
56,71,0,0,0,0,0,0,0,0,0,-1,1280,953,0,0
63,71,0,0,0,0,0,0,0,0,0,-1,1287,953,0,0
70,71,0,0,0,0,0,0,0,0,0,-1,1294,953,0,0
77,71,0,0,0,0,0,0,0,0,0,-1,1301,953,0,0
84,71,0,0,0,0,0,0,0,0,0,-1,1308,953,0,0
91,71,0,0,0,0,0,0,0,0,0,-1,1315,953,0,0
98,71,0,0,0,0,0,0,0,0,0,-1,1322,953,0,0
105,71,0,0,0,0,0,0,0,0,0,-1,1329,953,0,0
112,71,0,0,0,0,0,0,0,0,0,-1,1336,953,0,0
119,71,0,0,0,0,0,0,0,0,0,-1,1343,953,0,0
126,71,0,0,0,0,0,0,0,0,0,-1,1350,953,0,0
133,71,0,0,0,0,0,0,0,0,0,-1,1357,953,0,0
140,71,0,0,0,0,0,0,0,0,0,-1,1364,953,0,0
147,71,0,0,0,0,0,0,0,0,0,-1,1371,953,0,0
154,71,0,0,0,0,0,0,0,0,0,-1,1378,953,0,0
161,71,0,0,0,0,0,0,0,0,0,-1,1385,953,0,0
168,71,0,0,0,0,0,0,0,0,0,-1,1392,953,0,0
175,71,0,0,0,0,0,0,0,0,0,-1,1399,953,0,0
182,71,0,0,0,0,0,0,0,0,0,-1,1406,953,0,0
189,71,0,0,0,0,0,0,0,0,0,-1,1413,953,0,0
196,71,0,0,0,0,0,0,0,0,0,-1,1420,953,0,0
203,71,0,0,0,0,0,0,0,0,0,-1,1427,953,0,0
210,71,0,0,0,0,0,0,0,0,0,-1,1434,953,0,0
217,71,0,0,0,0,0,0,0,0,0,-1,1441,953,0,0
224,71,0,0,0,0,0,0,0,0,0,-1,1448,953,0,0
231,71,0,0,0,0,0,0,0,0,0,-1,1455,953,0,0
238,71,0,0,0,0,0,0,0,0,0,-1,1462,953,0,0
245,71,0,0,0,0,0,0,0,0,0,-1,1469,953,0,0
252,71,0,0,0,0,0,0,0,0,0,-1,1476,953,0,0
259,71,0,0,0,0,0,0,0,0,0,-1,1483,953,0,0
266,71,0,0,0,0,0,0,0,0,0,-1,1490,953,0,0
273,71,0,0,0,0,0,0,0,0,0,-1,1497,953,0,0
280,71,0,0,0,0,0,0,0,0,0,-1,1504,953,0,0
287,71,0,0,0,0,0,0,0,0,0,-1,1511,953,0,0
294,71,0,0,0,0,0,0,0,0,0,-1,1518,953,0,0
301,71,0,0,0,0,0,0,0,0,0,-1,1525,953,0,0
308,71,0,0,0,0,0,0,0,0,0,-1,1532,953,0,0
315,71,0,0,0,0,0,0,0,0,0,-1,1539,953,0,0
322,71,0,0,0,0,0,0,0,0,0,-1,1546,953,0,0
329,71,0,0,0,0,0,0,0,0,0,-1,1553,953,0,0
336,71,0,0,0,0,0,0,0,0,0,-1,1560,953,0,0
343,71,0,0,0,0,0,0,0,0,0,-1,1567,953,0,0
350,71,0,0,0,0,0,0,0,0,0,-1,1574,953,0,0
357,71,0,0,0,0,0,0,0,0,0,-1,1581,953,0,0
364,71,0,0,0,0,0,0,0,0,0,-1,1588,953,0,0
371,71,0,0,0,0,0,0,0,0,0,-1,1595,953,0,0
378,71,0,0,0,0,0,0,0,0,0,-1,1602,953,0,0
385,71,0,0,0,0,0,0,0,0,0,-1,1609,953,0,0
392,71,0,0,0,0,0,0,0,0,0,-1,1616,953,0,0
399,71,0,0,0,0,0,0,0,0,0,-1,1623,953,0,0
406,71,0,0,0,0,0,0,0,0,0,-1,1630,953,0,0
413,71,0,0,0,0,0,0,0,0,0,-1,1637,953,0,0
420,71,0,0,0,0,0,0,0,0,0,-1,1644,953,0,0
427,71,0,0,0,0,0,0,0,0,0,-1,1651,953,0,0
434,71,0,0,0,0,0,0,0,0,0,-1,1658,953,0,0
441,71,0,0,0,0,0,0,0,0,0,-1,1665,953,0,0
448,71,0,0,0,0,0,0,0,0,0,-1,1672,953,0,0
455,71,0,0,0,0,0,0,0,0,0,-1,1679,953,0,0
462,71,0,0,0,0,0,0,0,0,0,-1,1686,953,0,0
469,71,0,0,0,0,0,0,0,0,0,-1,1693,953,0,0
476,71,0,0,0,0,0,0,0,0,0,-1,1700,953,0,0
483,71,0,0,0,0,0,0,0,0,0,-1,1707,953,0,0
490,71,0,0,0,0,0,0,0,0,0,-1,1714,953,0,0
497,71,0,0,0,0,0,0,0,0,0,-1,1721,953,0,0
504,71,0,0,0,0,0,0,0,0,0,-1,1728,953,0,0
511,71,0,0,0,0,0,0,0,0,0,-1,1735,953,0,0
518,71,0,0,0,0,0,0,0,0,0,-1,1742,953,0,0
525,71,0,0,0,0,0,0,0,0,0,-1,1749,953,0,0
532,71,0,0,0,0,0,0,0,0,0,-1,1756,953,0,0
539,71,0,0,0,0,0,0,0,0,0,-1,1763,953,0,0
546,71,0,0,0,0,0,0,0,0,0,-1,1770,953,0,0
553,71,0,0,0,0,0,0,0,0,0,-1,1777,953,0,0
560,71,0,0,0,0,0,0,0,0,0,-1,1784,953,0,0
567,71,0,0,0,0,0,0,0,0,0,-1,1791,953,0,0
574,71,0,0,0,0,0,0,0,0,0,-1,1798,953,0,0
581,71,0,0,0,0,0,0,0,0,0,-1,1805,953,0,0
588,71,0,0,0,0,0,0,0,0,0,-1,1812,953,0,0
595,71,0,0,0,0,0,0,0,0,0,-1,1819,953,0,0
602,71,0,0,0,0,0,0,0,0,0,-1,1826,953,0,0
609,71,0,0,0,0,0,0,0,0,0,-1,1833,953,0,0
616,71,0,0,0,0,0,0,0,0,0,-1,1840,953,0,0
623,71,0,0,0,0,0,0,0,0,0,-1,1847,953,0,0
630,71,0,0,0,0,0,0,0,0,0,-1,1854,953,0,0
637,71,49.6831,2.88623,-0.0016101,-0.00195844,-0.000892574,-0.000874867,-0.00269368,-0.689043,0.00158671,0.0399979,1861,953,49.6831,-2.88625
644,71,49.6479,2.88385,-0.000712171,-0.00130469,-0.00145423,0.000475674,-0.00249254,-0.684912,0.00184085,0.0439936,1868,953,49.648,-2.88383
651,71,49.6859,2.72107,-0.000198264,-0.000947733,-0.0016548,0.0011237,-0.0022697,-0.67405,0.00199607,0.0421625,1875,953,49.6859,-2.72106
658,71,49.7899,2.73688,4.11518e-05,-0.000557417,-0.00149059,0.0012622,-0.00177847,-0.686324,0.00176395,0.039312,1882,953,49.79,-2.73688
665,71,49.8063,2.55823,0.000149625,-0.000160853,-0.00112637,0.0011314,-0.00114263,-0.716918,0.00131292,0.0401218,1889,953,49.8063,-2.55826
672,71,49.6504,2.74634,-9.95037e-05,5.25342e-05,-0.000589998,0.00057139,-0.00061836,-0.849468,0.000687081,0.0402884,1896,953,49.6504,-2.74633
679,71,49.5885,2.80847,-0.000400768,2.15093e-05,-1.10971e-05,2.18007e-05,-0.000401059,-1.54454,0.000274928,0.0402697,1903,953,49.5886,-2.80847
686,71,49.5739,2.65808,-0.00050348,-0.000147591,0.000338124,5.65539e-05,-0.000707625,1.02762,0.000491687,0.0380164,1910,953,49.5739,-2.65807
693,71,49.6168,2.52142,-0.000579225,-0.000195708,0.000434873,8.78084e-05,-0.000862741,0.99305,0.000606553,0.0343912,1917,953,49.6169,-2.52142
700,71,49.5936,2.54303,-0.000822017,-0.000207998,0.000465506,4.26223e-05,-0.00107264,1.07692,0.000729714,0.0381296,1924,953,49.5936,-2.54306
707,71,49.6351,2.7525,0,0,0,0,0,0,0,-1,1931,953,49.6352,-2.75247
714,71,47.735,4.36212,0,0,0,0,0,0,0,-1,1938,953,47.735,-4.36213
721,71,47.5126,4.67657,-0.0025403,0.000952559,0.000237385,0.000968619,-0.00255636,1.50325,0.00210284,0.0433078,1945,953,47.5126,-4.67656
728,71,47.3318,5.10223,-0.00279517,0.00167914,0.000167041,0.00168537,-0.0028014,1.53353,0.00261701,0.0257909,1952,953,47.3318,-5.10223
735,71,47.3828,5.50171,-0.00313796,0.00279059,1.89796e-05,0.00279065,-0.00313803,1.5676,0.00342488,0.0199139,1959,953,47.3828,-5.50172
742,71,47.4427,5.82721,-0.00364396,0.00415802,-0.000253962,0.00416628,-0.00365222,-1.53829,0.00451726,0.020063,1966,953,47.4428,-5.82721
749,71,47.408,6.14899,-0.00427269,0.00632637,-0.000549905,0.00635483,-0.00430115,-1.5191,0.0061902,0.0187719,1973,953,47.4079,-6.14897
756,71,47.356,6.44348,-0.00476916,0.00928714,-0.00060835,0.00931342,-0.00479544,-1.52762,0.0082838,0.0174857,1980,953,47.356,-6.44346
763,71,47.2858,6.77618,-0.00505264,0.0129899,-0.000204729,0.0129922,-0.00505497,-1.55945,0.0107502,0.019165,1987,953,47.2857,-6.77621
770,71,47.0747,7.02637,-0.00504237,0.0169777,0.000611357,0.0169947,-0.00505933,1.54306,0.01334,0.0236901,1994,953,47.0747,-7.02636
777,71,46.933,7.5838,-0.00493769,0.0211586,0.00182149,0.0212852,-0.00506422,1.50145,0.0161451,0.0423781,2001,953,46.933,-7.58381
784,71,46.9182,8.30408,-0.00390005,0.0256099,0.00387842,0.0261111,-0.00440127,1.44228,0.0190448,0.0450183,2008,953,46.9181,-8.30405
791,71,46.7136,8.86627,0,0,0,0,0,0,0,-1,2015,953,46.7137,-8.86625
798,71,45.7324,8.90094,0,0,0,0,0,0,0,-1,2022,953,45.7324,-8.90094
805,71,45.0161,6.63287,0,0,0,0,0,0,0,-1,2029,953,45.0161,-6.63289
812,71,0,0,0,0,0,0,0,0,0,-1,2036,953,0,0
-700,64,0,0,0,0,0,0,0,0,0,-1,524,960,0,0
-693,64,0,0,0,0,0,0,0,0,0,-1,531,960,0,0
-686,64,-35.1502,4.73468,-0.0340718,0.0543699,0.0274501,0.062197,-0.0418989,1.29303,0.0604795,0.0471263,538,960,-35.1502,-4.73469
-679,64,-35.3992,4.70898,-0.0288779,0.04642,0.0212307,0.0519936,-0.0344515,1.31407,0.0502505,0.0457558,545,960,-35.3992,-4.70896
-672,64,-35.3686,4.62201,-0.0246242,0.039757,0.0167943,0.0438746,-0.0287417,1.33036,0.0422274,0.0499227,552,960,-35.3686,-4.62203
-665,64,-36.2169,4.40826,0,0,0,0,0,0,0,-1,559,960,-36.2169,-4.40829
-658,64,-36.2578,4.66199,0,0,0,0,0,0,0,-1,566,960,-36.2578,-4.66198
-651,64,-36.1415,4.69928,-0.0143839,0.02427,0.00872232,0.026147,-0.016261,1.35883,0.024705,0.0438583,573,960,-36.1415,-4.69925
-644,64,-36.0587,4.42651,-0.0116523,0.020043,0.00702487,0.0215302,-0.0131395,1.36217,0.020211,0.0320999,580,960,-36.0587,-4.42653
-637,64,-36.0602,4.16998,-0.00885859,0.0163679,0.00492575,0.0172956,-0.00978628,1.38464,0.0158348,0.0166972,587,960,-36.0602,-4.16998
-630,64,-36.1248,3.93262,-0.00720402,0.0125791,0.00318834,0.0130802,-0.00770517,1.41489,0.0121335,0.0143054,594,960,-36.1248,-3.93262
-623,64,-36.1574,3.66351,-0.00674388,0.00904356,0.00190854,0.00927101,-0.00697133,1.45218,0.0094088,0.0146961,601,960,-36.1574,-3.66349
-616,64,-36.169,3.33978,-0.00650101,0.00653544,0.000570637,0.00656037,-0.00652594,1.52714,0.00755539,0.0177876,608,960,-36.169,-3.33976
-609,64,-36.1309,3.10535,-0.00677273,0.00480852,-0.000646581,0.00484451,-0.00680872,-1.5152,0.00675978,0.016874,615,960,-36.1309,-3.10534
-602,64,-36.1118,2.82648,-0.00759003,0.00341833,-0.00174571,0.00368854,-0.00786023,-1.41723,0.00681114,0.0169484,622,960,-36.1118,-2.82649
-595,64,-36.1434,2.54498,-0.00855,0.00213034,-0.00241767,0.00265213,-0.00907179,-1.35823,0.007099,0.0202558,629,960,-36.1434,-2.54501
-588,64,-35.8265,2.56976,0,0,0,0,0,0,0,-1,636,960,-35.8265,-2.56979
-581,64,-36.3723,1.71613,-0.00887068,0.000659806,-0.0028728,0.00145878,-0.00966965,-1.29953,0.00698367,0.0421388,643,960,-36.3723,-1.7161
-574,64,-36.9361,1.12561,-0.00874742,0.000341227,-0.0028096,0.00113963,-0.00954582,-1.29393,0.00677578,0.0430854,650,960,-36.9361,-1.1256
-567,64,-37.0435,0.841797,-0.00867137,0.000179531,-0.00271406,0.000945489,-0.00943733,-1.29573,0.00662923,0.0243341,657,960,-37.0435,-0.841787
-560,64,-37.0573,0.847839,-0.00808144,0.000266639,-0.00227161,0.000844738,-0.00865954,-1.3216,0.00607421,0.0323658,664,960,-37.0572,-0.847849
-553,64,-37.0897,0.916443,-0.00676061,0.000441402,-0.00160644,0.000783479,-0.00710269,-1.36099,0.00501672,0.037648,671,960,-37.0897,-0.916446
-546,64,-37.3863,1.06555,-0.00458336,0.000599924,-0.000740267,0.000703575,-0.00468701,-1.43168,0.00338367,0.0387561,678,960,-37.3863,-1.06557
-539,64,-37.5961,1.07623,-0.00146899,0.000534364,0.000202379,0.000554604,-0.00148923,1.47112,0.00122044,0.0400763,685,960,-37.5961,-1.07625
-532,64,-37.3314,0.923035,0.00247599,0.00025379,0.000645916,0.00265009,7.96855e-05,0.263289,0.00174078,0.0432865,692,960,-37.3314,-0.923023
-525,64,-37.1458,0.868042,0.00487927,-0.000182688,9.41686e-05,0.00488102,-0.000184439,0.0185946,0.0033172,0.0427831,699,960,-37.1458,-0.868038
-518,64,0,0,0,0,0,0,0,0,0,-1,706,960,0,0
-511,64,0,0,0,0,0,0,0,0,0,-1,713,960,0,0
-504,64,0,0,0,0,0,0,0,0,0,-1,720,960,0,0
-497,64,0,0,0,0,0,0,0,0,0,-1,727,960,0,0
-490,64,0,0,0,0,0,0,0,0,0,-1,734,960,0,0
-483,64,0,0,0,0,0,0,0,0,0,-1,741,960,0,0
-476,64,0,0,0,0,0,0,0,0,0,-1,748,960,0,0
-469,64,0,0,0,0,0,0,0,0,0,-1,755,960,0,0
-462,64,0,0,0,0,0,0,0,0,0,-1,762,960,0,0
-455,64,0,0,0,0,0,0,0,0,0,-1,769,960,0,0
-448,64,0,0,0,0,0,0,0,0,0,-1,776,960,0,0
-441,64,0,0,0,0,0,0,0,0,0,-1,783,960,0,0
-434,64,0,0,0,0,0,0,0,0,0,-1,790,960,0,0
-427,64,0,0,0,0,0,0,0,0,0,-1,797,960,0,0
-420,64,0,0,0,0,0,0,0,0,0,-1,804,960,0,0
-413,64,0,0,0,0,0,0,0,0,0,-1,811,960,0,0
-406,64,0,0,0,0,0,0,0,0,0,-1,818,960,0,0
-399,64,0,0,0,0,0,0,0,0,0,-1,825,960,0,0
-392,64,0,0,0,0,0,0,0,0,0,-1,832,960,0,0
-385,64,0,0,0,0,0,0,0,0,0,-1,839,960,0,0
-378,64,0,0,0,0,0,0,0,0,0,-1,846,960,0,0
-371,64,0,0,0,0,0,0,0,0,0,-1,853,960,0,0
-364,64,0,0,0,0,0,0,0,0,0,-1,860,960,0,0
-357,64,0,0,0,0,0,0,0,0,0,-1,867,960,0,0
-350,64,0,0,0,0,0,0,0,0,0,-1,874,960,0,0
-343,64,0,0,0,0,0,0,0,0,0,-1,881,960,0,0
-336,64,0,0,0,0,0,0,0,0,0,-1,888,960,0,0
-329,64,0,0,0,0,0,0,0,0,0,-1,895,960,0,0
-322,64,0,0,0,0,0,0,0,0,0,-1,902,960,0,0
-315,64,0,0,0,0,0,0,0,0,0,-1,909,960,0,0
-308,64,0,0,0,0,0,0,0,0,0,-1,916,960,0,0
-301,64,0,0,0,0,0,0,0,0,0,-1,923,960,0,0
-294,64,0,0,0,0,0,0,0,0,0,-1,930,960,0,0
-287,64,0,0,0,0,0,0,0,0,0,-1,937,960,0,0
-280,64,0,0,0,0,0,0,0,0,0,-1,944,960,0,0
-273,64,0,0,0,0,0,0,0,0,0,-1,951,960,0,0
-266,64,0,0,0,0,0,0,0,0,0,-1,958,960,0,0
-259,64,0,0,0,0,0,0,0,0,0,-1,965,960,0,0
-252,64,0,0,0,0,0,0,0,0,0,-1,972,960,0,0
-245,64,0,0,0,0,0,0,0,0,0,-1,979,960,0,0
-238,64,0,0,0,0,0,0,0,0,0,-1,986,960,0,0
-231,64,0,0,0,0,0,0,0,0,0,-1,993,960,0,0
-224,64,0,0,0,0,0,0,0,0,0,-1,1000,960,0,0
-217,64,0,0,0,0,0,0,0,0,0,-1,1007,960,0,0
-210,64,0,0,0,0,0,0,0,0,0,-1,1014,960,0,0
-203,64,0,0,0,0,0,0,0,0,0,-1,1021,960,0,0
-196,64,0,0,0,0,0,0,0,0,0,-1,1028,960,0,0
-189,64,0,0,0,0,0,0,0,0,0,-1,1035,960,0,0
-182,64,0,0,0,0,0,0,0,0,0,-1,1042,960,0,0
-175,64,0,0,0,0,0,0,0,0,0,-1,1049,960,0,0
-168,64,0,0,0,0,0,0,0,0,0,-1,1056,960,0,0
-161,64,0,0,0,0,0,0,0,0,0,-1,1063,960,0,0
-154,64,0,0,0,0,0,0,0,0,0,-1,1070,960,0,0
-147,64,0,0,0,0,0,0,0,0,0,-1,1077,960,0,0
-140,64,0,0,0,0,0,0,0,0,0,-1,1084,960,0,0
-133,64,0,0,0,0,0,0,0,0,0,-1,1091,960,0,0
-126,64,0,0,0,0,0,0,0,0,0,-1,1098,960,0,0
-119,64,0,0,0,0,0,0,0,0,0,-1,1105,960,0,0
-112,64,0,0,0,0,0,0,0,0,0,-1,1112,960,0,0
-105,64,0,0,0,0,0,0,0,0,0,-1,1119,960,0,0
-98,64,0,0,0,0,0,0,0,0,0,-1,1126,960,0,0
-91,64,0,0,0,0,0,0,0,0,0,-1,1133,960,0,0
-84,64,0,0,0,0,0,0,0,0,0,-1,1140,960,0,0
-77,64,0,0,0,0,0,0,0,0,0,-1,1147,960,0,0
-70,64,0,0,0,0,0,0,0,0,0,-1,1154,960,0,0
-63,64,0,0,0,0,0,0,0,0,0,-1,1161,960,0,0
-56,64,0,0,0,0,0,0,0,0,0,-1,1168,960,0,0
-49,64,0,0,0,0,0,0,0,0,0,-1,1175,960,0,0
-42,64,0,0,0,0,0,0,0,0,0,-1,1182,960,0,0
-35,64,0,0,0,0,0,0,0,0,0,-1,1189,960,0,0
-28,64,0,0,0,0,0,0,0,0,0,-1,1196,960,0,0
-21,64,0,0,0,0,0,0,0,0,0,-1,1203,960,0,0
-14,64,0,0,0,0,0,0,0,0,0,-1,1210,960,0,0
-7,64,0,0,0,0,0,0,0,0,0,-1,1217,960,0,0
0,64,0,0,0,0,0,0,0,0,0,-1,1224,960,0,0
7,64,0,0,0,0,0,0,0,0,0,-1,1231,960,0,0
14,64,0,0,0,0,0,0,0,0,0,-1,1238,960,0,0
21,64,0,0,0,0,0,0,0,0,0,-1,1245,960,0,0
28,64,0,0,0,0,0,0,0,0,0,-1,1252,960,0,0
35,64,0,0,0,0,0,0,0,0,0,-1,1259,960,0,0
42,64,0,0,0,0,0,0,0,0,0,-1,1266,960,0,0
49,64,0,0,0,0,0,0,0,0,0,-1,1273,960,0,0
56,64,0,0,0,0,0,0,0,0,0,-1,1280,960,0,0
63,64,0,0,0,0,0,0,0,0,0,-1,1287,960,0,0
70,64,0,0,0,0,0,0,0,0,0,-1,1294,960,0,0
77,64,0,0,0,0,0,0,0,0,0,-1,1301,960,0,0
84,64,0,0,0,0,0,0,0,0,0,-1,1308,960,0,0
91,64,0,0,0,0,0,0,0,0,0,-1,1315,960,0,0
98,64,0,0,0,0,0,0,0,0,0,-1,1322,960,0,0
105,64,0,0,0,0,0,0,0,0,0,-1,1329,960,0,0
112,64,0,0,0,0,0,0,0,0,0,-1,1336,960,0,0
119,64,0,0,0,0,0,0,0,0,0,-1,1343,960,0,0
126,64,0,0,0,0,0,0,0,0,0,-1,1350,960,0,0
133,64,0,0,0,0,0,0,0,0,0,-1,1357,960,0,0
140,64,0,0,0,0,0,0,0,0,0,-1,1364,960,0,0
147,64,0,0,0,0,0,0,0,0,0,-1,1371,960,0,0
154,64,0,0,0,0,0,0,0,0,0,-1,1378,960,0,0
161,64,0,0,0,0,0,0,0,0,0,-1,1385,960,0,0
168,64,0,0,0,0,0,0,0,0,0,-1,1392,960,0,0
175,64,0,0,0,0,0,0,0,0,0,-1,1399,960,0,0
182,64,0,0,0,0,0,0,0,0,0,-1,1406,960,0,0
189,64,0,0,0,0,0,0,0,0,0,-1,1413,960,0,0
196,64,0,0,0,0,0,0,0,0,0,-1,1420,960,0,0
203,64,0,0,0,0,0,0,0,0,0,-1,1427,960,0,0
210,64,0,0,0,0,0,0,0,0,0,-1,1434,960,0,0
217,64,0,0,0,0,0,0,0,0,0,-1,1441,960,0,0
224,64,0,0,0,0,0,0,0,0,0,-1,1448,960,0,0
231,64,0,0,0,0,0,0,0,0,0,-1,1455,960,0,0
238,64,0,0,0,0,0,0,0,0,0,-1,1462,960,0,0
245,64,0,0,0,0,0,0,0,0,0,-1,1469,960,0,0
252,64,0,0,0,0,0,0,0,0,0,-1,1476,960,0,0
259,64,0,0,0,0,0,0,0,0,0,-1,1483,960,0,0
266,64,0,0,0,0,0,0,0,0,0,-1,1490,960,0,0
273,64,0,0,0,0,0,0,0,0,0,-1,1497,960,0,0
280,64,0,0,0,0,0,0,0,0,0,-1,1504,960,0,0
287,64,0,0,0,0,0,0,0,0,0,-1,1511,960,0,0
294,64,0,0,0,0,0,0,0,0,0,-1,1518,960,0,0
301,64,0,0,0,0,0,0,0,0,0,-1,1525,960,0,0
308,64,0,0,0,0,0,0,0,0,0,-1,1532,960,0,0
315,64,0,0,0,0,0,0,0,0,0,-1,1539,960,0,0
322,64,0,0,0,0,0,0,0,0,0,-1,1546,960,0,0
329,64,0,0,0,0,0,0,0,0,0,-1,1553,960,0,0
336,64,0,0,0,0,0,0,0,0,0,-1,1560,960,0,0
343,64,0,0,0,0,0,0,0,0,0,-1,1567,960,0,0
350,64,0,0,0,0,0,0,0,0,0,-1,1574,960,0,0
357,64,0,0,0,0,0,0,0,0,0,-1,1581,960,0,0
364,64,0,0,0,0,0,0,0,0,0,-1,1588,960,0,0
371,64,0,0,0,0,0,0,0,0,0,-1,1595,960,0,0
378,64,0,0,0,0,0,0,0,0,0,-1,1602,960,0,0
385,64,0,0,0,0,0,0,0,0,0,-1,1609,960,0,0
392,64,0,0,0,0,0,0,0,0,0,-1,1616,960,0,0
399,64,0,0,0,0,0,0,0,0,0,-1,1623,960,0,0
406,64,0,0,0,0,0,0,0,0,0,-1,1630,960,0,0
413,64,0,0,0,0,0,0,0,0,0,-1,1637,960,0,0
420,64,0,0,0,0,0,0,0,0,0,-1,1644,960,0,0
427,64,0,0,0,0,0,0,0,0,0,-1,1651,960,0,0
434,64,0,0,0,0,0,0,0,0,0,-1,1658,960,0,0
441,64,0,0,0,0,0,0,0,0,0,-1,1665,960,0,0
448,64,0,0,0,0,0,0,0,0,0,-1,1672,960,0,0
455,64,0,0,0,0,0,0,0,0,0,-1,1679,960,0,0
462,64,0,0,0,0,0,0,0,0,0,-1,1686,960,0,0
469,64,0,0,0,0,0,0,0,0,0,-1,1693,960,0,0
476,64,0,0,0,0,0,0,0,0,0,-1,1700,960,0,0
483,64,0,0,0,0,0,0,0,0,0,-1,1707,960,0,0
490,64,0,0,0,0,0,0,0,0,0,-1,1714,960,0,0
497,64,0,0,0,0,0,0,0,0,0,-1,1721,960,0,0
504,64,0,0,0,0,0,0,0,0,0,-1,1728,960,0,0
511,64,0,0,0,0,0,0,0,0,0,-1,1735,960,0,0
518,64,0,0,0,0,0,0,0,0,0,-1,1742,960,0,0
525,64,0,0,0,0,0,0,0,0,0,-1,1749,960,0,0
532,64,0,0,0,0,0,0,0,0,0,-1,1756,960,0,0
539,64,0,0,0,0,0,0,0,0,0,-1,1763,960,0,0
546,64,0,0,0,0,0,0,0,0,0,-1,1770,960,0,0
553,64,0,0,0,0,0,0,0,0,0,-1,1777,960,0,0
560,64,0,0,0,0,0,0,0,0,0,-1,1784,960,0,0
567,64,0,0,0,0,0,0,0,0,0,-1,1791,960,0,0
574,64,0,0,0,0,0,0,0,0,0,-1,1798,960,0,0
581,64,0,0,0,0,0,0,0,0,0,-1,1805,960,0,0
588,64,0,0,0,0,0,0,0,0,0,-1,1812,960,0,0
595,64,0,0,0,0,0,0,0,0,0,-1,1819,960,0,0
602,64,0,0,0,0,0,0,0,0,0,-1,1826,960,0,0
609,64,0,0,0,0,0,0,0,0,0,-1,1833,960,0,0
616,64,0,0,0,0,0,0,0,0,0,-1,1840,960,0,0
623,64,0,0,0,0,0,0,0,0,0,-1,1847,960,0,0
630,64,0,0,0,0,0,0,0,0,0,-1,1854,960,0,0
637,64,0,0,0,0,0,0,0,0,0,-1,1861,960,0,0
644,64,49.5757,2.73633,-0.000490251,-0.00049812,-0.000943127,0.00044895,-0.00143732,-0.783312,0.00113778,0.0413911,1868,960,49.5757,-2.73632
651,64,49.6292,2.68188,-0.000146423,-0.000299685,-0.00120104,0.000980432,-0.00142654,-0.753539,0.0013976,0.0392026,1875,960,49.6291,-2.6819
658,64,49.701,2.62158,-1.91322e-05,-6.13206e-05,-0.00108477,0.00104475,-0.00112521,-0.775677,0.00125311,0.0370397,1882,960,49.701,-2.6216
665,64,49.7256,2.69019,2.13075e-05,0.000202871,-0.000761144,0.000878628,-0.00065445,-0.844753,0.000888272,0.0411899,1889,960,49.7255,-2.69019
672,64,49.6973,2.80402,-0.000215245,0.000352343,-0.000260839,0.000454005,-0.000316907,-1.19916,0.000447426,0.042518,1896,960,49.6973,-2.80404
679,64,49.5289,2.74896,-0.000449844,0.000294982,0.000346993,0.000431583,-0.000586446,1.19576,0.000590022,0.0396804,1903,960,49.5289,-2.74895
686,64,49.4961,2.56848,-0.000482547,9.71269e-05,0.000757515,0.00061836,-0.00100378,0.968113,0.000945313,0.0356856,1910,960,49.4961,-2.56846
693,64,49.5714,2.45819,-0.000512313,-1.4076e-05,0.000905821,0.000676258,-0.00120265,0.91959,0.00109889,0.0332319,1917,960,49.5714,-2.45819
700,64,49.6356,2.578,-0.000697971,-6.09378e-05,0.000966153,0.000637848,-0.00139676,0.944625,0.00120161,0.033942,1924,960,49.6356,-2.57802
707,64,49.5338,3.05676,0,0,0,0,0,0,0,-1,1931,960,49.5338,-3.05679
714,64,48.5795,4.47711,0,0,0,0,0,0,0,-1,1938,960,48.5795,-4.47714
721,64,47.9187,4.69611,-0.00228146,0.00110462,0.00069248,0.00124076,-0.0024176,1.37667,0.00214828,0.0412966,1945,960,47.9187,-4.69611
728,64,47.686,5.13519,-0.00253575,0.00185884,0.000634576,0.00194864,-0.00262555,1.43022,0.00265053,0.0199931,1952,960,47.6861,-5.13522
735,64,47.691,5.52881,-0.00288115,0.0029881,0.00045135,0.00302261,-0.00291566,1.49449,0.00342864,0.0281998,1959,960,47.6911,-5.52878
742,64,47.7798,5.81934,-0.00343264,0.00434587,0.000112235,0.00434749,-0.00343426,1.55637,0.0045031,0.0247135,1966,960,47.7798,-5.81932
749,64,47.7744,6.12463,-0.00413964,0.0064557,-0.000308433,0.00646467,-0.00414861,-1.54172,0.00617602,0.0156206,1973,960,47.7744,-6.12463
756,64,47.7235,6.41876,-0.00475712,0.00931591,-0.000594934,0.00934102,-0.00478223,-1.52862,0.00829445,0.0152237,1980,960,47.7236,-6.41874
763,64,47.6876,6.72711,-0.00518154,0.0129163,-0.000492733,0.0129297,-0.00519494,-1.5436,0.0107772,0.0169438,1987,960,47.6877,-6.72712
770,64,47.4921,6.987,-0.00527852,0.0168176,7.47417e-07,0.0168176,-0.00527852,1.57076,0.0133244,0.0181071,1994,960,47.4921,-6.98701
777,64,47.2849,7.34381,-0.00521628,0.0207832,0.00080312,0.0208079,-0.00524106,1.53995,0.0159094,0.0333482,2001,960,47.285,-7.34384
784,64,47.1482,7.75574,-0.00413802,0.0248678,0.00240228,0.0250654,-0.00433563,1.48872,0.0183272,0.0422181,2008,960,47.1483,-7.75572
791,64,46.957,8.17694,0,0,0,0,0,0,0,-1,2015,960,46.957,-8.17693
798,64,48.116,7.40686,0,0,0,0,0,0,0,-1,2022,960,48.1159,-7.40687
805,64,45.2212,5.37988,0,0,0,0,0,0,0,-1,2029,960,45.2211,-5.37991
812,64,0,0,0,0,0,0,0,0,0,-1,2036,960,0,0
-700,57,0,0,0,0,0,0,0,0,0,-1,524,967,0,0
-693,57,0,0,0,0,0,0,0,0,0,-1,531,967,0,0
-686,57,-35.8296,4.75195,-0.0373092,0.0494722,0.030593,0.0591728,-0.0470098,1.26374,0.0614385,0.0465996,538,967,-35.8296,-4.75198
-679,57,-35.7198,4.3244,-0.0310708,0.0424771,0.0236981,0.0494515,-0.0380452,1.28457,0.0506592,0.0475008,545,967,-35.7198,-4.32439
-672,57,-35.6998,4.13574,0,0,0,0,0,0,0,-1,552,967,-35.6998,-4.13576
-665,57,-35.8188,4.14679,0,0,0,0,0,0,0,-1,559,967,-35.8189,-4.14679
-658,57,-37.0254,3.84052,0,0,0,0,0,0,0,-1,566,967,-37.0254,-3.84054
-651,57,-36.6166,4.36682,-0.0146584,0.022919,0.00974335,0.025295,-0.0170345,1.3316,0.0245936,0.0473116,573,967,-36.6166,-4.36682
-644,57,-36.468,4.22375,-0.0117385,0.0191303,0.00773506,0.0209601,-0.0135683,1.33851,0.0200867,0.0327948,580,967,-36.4679,-4.22377
-637,57,-36.3824,4.026,-0.00871267,0.015947,0.00517232,0.0169879,-0.00975361,1.3722,0.0156264,0.0192487,587,967,-36.3824,-4.02597
-630,57,-36.4639,3.8222,-0.00685383,0.0124073,0.0031226,0.0129009,-0.00734742,1.41402,0.011836,0.0138081,594,967,-36.4639,-3.82219
-623,57,-36.487,3.61462,-0.00614447,0.00899429,0.00161137,0.0091639,-0.00631408,1.46592,0.00898657,0.0131276,601,967,-36.487,-3.61463
-616,57,-36.4745,3.36755,-0.00572849,0.00661663,0.000105178,0.00661752,-0.00572938,1.56228,0.00713463,0.0158635,608,967,-36.4746,-3.36753
-609,57,-36.4605,3.1048,-0.00576323,0.0049906,-0.00126002,0.00513626,-0.0059089,-1.4557,0.00638212,0.016358,615,967,-36.4605,-3.10479
-602,57,-36.4466,2.85846,-0.00636808,0.00364557,-0.00250984,0.00423942,-0.00696193,-1.33846,0.00653047,0.0115288,622,967,-36.4466,-2.85843
-595,57,-36.4386,2.61249,-0.00721538,0.00233781,-0.00324631,0.00333654,-0.0082141,-1.27234,0.0068641,0.013643,629,967,-36.4386,-2.61249
-588,57,-36.272,2.49139,0,0,0,0,0,0,0,-1,636,967,-36.272,-2.4914
-581,57,-36.6603,1.69635,0,0,0,0,0,0,0,-1,643,967,-36.6603,-1.69636
-574,57,-37.0485,0.901306,0,0,0,0,0,0,0,-1,650,967,-37.0485,-0.901318
-567,57,-37.0173,0.880859,-0.00729694,0.000293905,-0.00336322,0.00156963,-0.00857266,-1.20825,0.00630379,0.0310894,657,967,-37.0173,-0.880848
-560,57,-37.004,0.905518,-0.00679553,0.000370173,-0.00268206,0.00126284,-0.00768819,-1.2495,0.00559413,0.0390504,664,967,-37.004,-0.905496
-553,57,-36.9577,0.752502,-0.00557945,0.000524959,-0.00171372,0.000973153,-0.00602764,-1.31499,0.00437901,0.0406743,671,967,-36.9577,-0.752529
-546,57,-37.0389,0.991272,-0.00351319,0.000612687,-0.000460951,0.000663558,-0.00356406,-1.46088,0.00262533,0.0435056,678,967,-37.039,-0.991242
-539,57,-37.5899,0.85437,-0.000452195,0.000395713,0.000909498,0.000975214,-0.0010317,1.0035,0.00115884,0.0431919,685,967,-37.5899,-0.854385
-532,57,-37.321,0.533691,0.00353099,-6.22162e-05,0.00165867,0.00417958,-0.000710808,0.37275,0.00305105,0.0413202,692,967,-37.3211,-0.533691
-525,57,-36.9827,0.767761,0.00603821,-0.000754901,0.00146514,0.00634074,-0.00105743,0.203623,0.00462015,0.0427211,699,967,-36.9827,-0.767772
-518,57,0,0,0,0,0,0,0,0,0,-1,706,967,0,0
-511,57,0,0,0,0,0,0,0,0,0,-1,713,967,0,0
-504,57,0,0,0,0,0,0,0,0,0,-1,720,967,0,0
-497,57,0,0,0,0,0,0,0,0,0,-1,727,967,0,0
-490,57,0,0,0,0,0,0,0,0,0,-1,734,967,0,0
-483,57,0,0,0,0,0,0,0,0,0,-1,741,967,0,0
-476,57,0,0,0,0,0,0,0,0,0,-1,748,967,0,0
-469,57,0,0,0,0,0,0,0,0,0,-1,755,967,0,0
-462,57,0,0,0,0,0,0,0,0,0,-1,762,967,0,0
-455,57,0,0,0,0,0,0,0,0,0,-1,769,967,0,0
-448,57,0,0,0,0,0,0,0,0,0,-1,776,967,0,0
-441,57,0,0,0,0,0,0,0,0,0,-1,783,967,0,0
-434,57,0,0,0,0,0,0,0,0,0,-1,790,967,0,0
-427,57,0,0,0,0,0,0,0,0,0,-1,797,967,0,0
-420,57,0,0,0,0,0,0,0,0,0,-1,804,967,0,0
-413,57,0,0,0,0,0,0,0,0,0,-1,811,967,0,0
-406,57,0,0,0,0,0,0,0,0,0,-1,818,967,0,0
-399,57,0,0,0,0,0,0,0,0,0,-1,825,967,0,0
-392,57,0,0,0,0,0,0,0,0,0,-1,832,967,0,0
-385,57,0,0,0,0,0,0,0,0,0,-1,839,967,0,0
-378,57,0,0,0,0,0,0,0,0,0,-1,846,967,0,0
-371,57,0,0,0,0,0,0,0,0,0,-1,853,967,0,0
-364,57,0,0,0,0,0,0,0,0,0,-1,860,967,0,0
-357,57,0,0,0,0,0,0,0,0,0,-1,867,967,0,0
-350,57,0,0,0,0,0,0,0,0,0,-1,874,967,0,0
-343,57,0,0,0,0,0,0,0,0,0,-1,881,967,0,0
-336,57,0,0,0,0,0,0,0,0,0,-1,888,967,0,0
-329,57,0,0,0,0,0,0,0,0,0,-1,895,967,0,0
-322,57,0,0,0,0,0,0,0,0,0,-1,902,967,0,0
-315,57,0,0,0,0,0,0,0,0,0,-1,909,967,0,0
-308,57,0,0,0,0,0,0,0,0,0,-1,916,967,0,0
-301,57,0,0,0,0,0,0,0,0,0,-1,923,967,0,0
-294,57,0,0,0,0,0,0,0,0,0,-1,930,967,0,0
-287,57,0,0,0,0,0,0,0,0,0,-1,937,967,0,0
-280,57,0,0,0,0,0,0,0,0,0,-1,944,967,0,0
-273,57,0,0,0,0,0,0,0,0,0,-1,951,967,0,0
-266,57,0,0,0,0,0,0,0,0,0,-1,958,967,0,0
-259,57,0,0,0,0,0,0,0,0,0,-1,965,967,0,0
-252,57,0,0,0,0,0,0,0,0,0,-1,972,967,0,0
-245,57,0,0,0,0,0,0,0,0,0,-1,979,967,0,0
-238,57,0,0,0,0,0,0,0,0,0,-1,986,967,0,0
-231,57,0,0,0,0,0,0,0,0,0,-1,993,967,0,0
-224,57,0,0,0,0,0,0,0,0,0,-1,1000,967,0,0
-217,57,0,0,0,0,0,0,0,0,0,-1,1007,967,0,0
-210,57,0,0,0,0,0,0,0,0,0,-1,1014,967,0,0
-203,57,0,0,0,0,0,0,0,0,0,-1,1021,967,0,0
-196,57,0,0,0,0,0,0,0,0,0,-1,1028,967,0,0
-189,57,0,0,0,0,0,0,0,0,0,-1,1035,967,0,0
-182,57,0,0,0,0,0,0,0,0,0,-1,1042,967,0,0
-175,57,0,0,0,0,0,0,0,0,0,-1,1049,967,0,0
-168,57,0,0,0,0,0,0,0,0,0,-1,1056,967,0,0
-161,57,0,0,0,0,0,0,0,0,0,-1,1063,967,0,0
-154,57,0,0,0,0,0,0,0,0,0,-1,1070,967,0,0
-147,57,0,0,0,0,0,0,0,0,0,-1,1077,967,0,0
-140,57,0,0,0,0,0,0,0,0,0,-1,1084,967,0,0
-133,57,0,0,0,0,0,0,0,0,0,-1,1091,967,0,0
-126,57,0,0,0,0,0,0,0,0,0,-1,1098,967,0,0
-119,57,0,0,0,0,0,0,0,0,0,-1,1105,967,0,0
-112,57,0,0,0,0,0,0,0,0,0,-1,1112,967,0,0
-105,57,0,0,0,0,0,0,0,0,0,-1,1119,967,0,0
-98,57,0,0,0,0,0,0,0,0,0,-1,1126,967,0,0
-91,57,0,0,0,0,0,0,0,0,0,-1,1133,967,0,0
-84,57,0,0,0,0,0,0,0,0,0,-1,1140,967,0,0
-77,57,0,0,0,0,0,0,0,0,0,-1,1147,967,0,0
-70,57,0,0,0,0,0,0,0,0,0,-1,1154,967,0,0
-63,57,0,0,0,0,0,0,0,0,0,-1,1161,967,0,0
-56,57,0,0,0,0,0,0,0,0,0,-1,1168,967,0,0
-49,57,0,0,0,0,0,0,0,0,0,-1,1175,967,0,0
-42,57,0,0,0,0,0,0,0,0,0,-1,1182,967,0,0
-35,57,0,0,0,0,0,0,0,0,0,-1,1189,967,0,0
-28,57,0,0,0,0,0,0,0,0,0,-1,1196,967,0,0
-21,57,0,0,0,0,0,0,0,0,0,-1,1203,967,0,0
-14,57,0,0,0,0,0,0,0,0,0,-1,1210,967,0,0
-7,57,0,0,0,0,0,0,0,0,0,-1,1217,967,0,0
0,57,0,0,0,0,0,0,0,0,0,-1,1224,967,0,0
7,57,0,0,0,0,0,0,0,0,0,-1,1231,967,0,0
14,57,0,0,0,0,0,0,0,0,0,-1,1238,967,0,0
21,57,0,0,0,0,0,0,0,0,0,-1,1245,967,0,0
28,57,0,0,0,0,0,0,0,0,0,-1,1252,967,0,0
35,57,0,0,0,0,0,0,0,0,0,-1,1259,967,0,0
42,57,0,0,0,0,0,0,0,0,0,-1,1266,967,0,0
49,57,0,0,0,0,0,0,0,0,0,-1,1273,967,0,0
56,57,0,0,0,0,0,0,0,0,0,-1,1280,967,0,0
63,57,0,0,0,0,0,0,0,0,0,-1,1287,967,0,0
70,57,0,0,0,0,0,0,0,0,0,-1,1294,967,0,0
77,57,0,0,0,0,0,0,0,0,0,-1,1301,967,0,0
84,57,0,0,0,0,0,0,0,0,0,-1,1308,967,0,0
91,57,0,0,0,0,0,0,0,0,0,-1,1315,967,0,0
98,57,0,0,0,0,0,0,0,0,0,-1,1322,967,0,0
105,57,0,0,0,0,0,0,0,0,0,-1,1329,967,0,0
112,57,0,0,0,0,0,0,0,0,0,-1,1336,967,0,0
119,57,0,0,0,0,0,0,0,0,0,-1,1343,967,0,0
126,57,0,0,0,0,0,0,0,0,0,-1,1350,967,0,0
133,57,0,0,0,0,0,0,0,0,0,-1,1357,967,0,0
140,57,0,0,0,0,0,0,0,0,0,-1,1364,967,0,0
147,57,0,0,0,0,0,0,0,0,0,-1,1371,967,0,0
154,57,0,0,0,0,0,0,0,0,0,-1,1378,967,0,0
161,57,0,0,0,0,0,0,0,0,0,-1,1385,967,0,0
168,57,0,0,0,0,0,0,0,0,0,-1,1392,967,0,0
175,57,0,0,0,0,0,0,0,0,0,-1,1399,967,0,0
182,57,0,0,0,0,0,0,0,0,0,-1,1406,967,0,0
189,57,0,0,0,0,0,0,0,0,0,-1,1413,967,0,0
196,57,0,0,0,0,0,0,0,0,0,-1,1420,967,0,0
203,57,0,0,0,0,0,0,0,0,0,-1,1427,967,0,0
210,57,0,0,0,0,0,0,0,0,0,-1,1434,967,0,0
217,57,0,0,0,0,0,0,0,0,0,-1,1441,967,0,0
224,57,0,0,0,0,0,0,0,0,0,-1,1448,967,0,0
231,57,0,0,0,0,0,0,0,0,0,-1,1455,967,0,0
238,57,0,0,0,0,0,0,0,0,0,-1,1462,967,0,0
245,57,0,0,0,0,0,0,0,0,0,-1,1469,967,0,0
252,57,0,0,0,0,0,0,0,0,0,-1,1476,967,0,0
259,57,0,0,0,0,0,0,0,0,0,-1,1483,967,0,0
266,57,0,0,0,0,0,0,0,0,0,-1,1490,967,0,0
273,57,0,0,0,0,0,0,0,0,0,-1,1497,967,0,0
280,57,0,0,0,0,0,0,0,0,0,-1,1504,967,0,0
287,57,0,0,0,0,0,0,0,0,0,-1,1511,967,0,0
294,57,0,0,0,0,0,0,0,0,0,-1,1518,967,0,0
301,57,0,0,0,0,0,0,0,0,0,-1,1525,967,0,0
308,57,0,0,0,0,0,0,0,0,0,-1,1532,967,0,0
315,57,0,0,0,0,0,0,0,0,0,-1,1539,967,0,0
322,57,0,0,0,0,0,0,0,0,0,-1,1546,967,0,0
329,57,0,0,0,0,0,0,0,0,0,-1,1553,967,0,0
336,57,0,0,0,0,0,0,0,0,0,-1,1560,967,0,0
343,57,0,0,0,0,0,0,0,0,0,-1,1567,967,0,0
350,57,0,0,0,0,0,0,0,0,0,-1,1574,967,0,0
357,57,0,0,0,0,0,0,0,0,0,-1,1581,967,0,0
364,57,0,0,0,0,0,0,0,0,0,-1,1588,967,0,0
371,57,0,0,0,0,0,0,0,0,0,-1,1595,967,0,0
378,57,0,0,0,0,0,0,0,0,0,-1,1602,967,0,0
385,57,0,0,0,0,0,0,0,0,0,-1,1609,967,0,0
392,57,0,0,0,0,0,0,0,0,0,-1,1616,967,0,0
399,57,0,0,0,0,0,0,0,0,0,-1,1623,967,0,0
406,57,0,0,0,0,0,0,0,0,0,-1,1630,967,0,0
413,57,0,0,0,0,0,0,0,0,0,-1,1637,967,0,0
420,57,0,0,0,0,0,0,0,0,0,-1,1644,967,0,0
427,57,0,0,0,0,0,0,0,0,0,-1,1651,967,0,0
434,57,0,0,0,0,0,0,0,0,0,-1,1658,967,0,0
441,57,0,0,0,0,0,0,0,0,0,-1,1665,967,0,0
448,57,0,0,0,0,0,0,0,0,0,-1,1672,967,0,0
455,57,0,0,0,0,0,0,0,0,0,-1,1679,967,0,0
462,57,0,0,0,0,0,0,0,0,0,-1,1686,967,0,0
469,57,0,0,0,0,0,0,0,0,0,-1,1693,967,0,0
476,57,0,0,0,0,0,0,0,0,0,-1,1700,967,0,0
483,57,0,0,0,0,0,0,0,0,0,-1,1707,967,0,0
490,57,0,0,0,0,0,0,0,0,0,-1,1714,967,0,0
497,57,0,0,0,0,0,0,0,0,0,-1,1721,967,0,0
504,57,0,0,0,0,0,0,0,0,0,-1,1728,967,0,0
511,57,0,0,0,0,0,0,0,0,0,-1,1735,967,0,0
518,57,0,0,0,0,0,0,0,0,0,-1,1742,967,0,0
525,57,0,0,0,0,0,0,0,0,0,-1,1749,967,0,0
532,57,0,0,0,0,0,0,0,0,0,-1,1756,967,0,0
539,57,0,0,0,0,0,0,0,0,0,-1,1763,967,0,0
546,57,0,0,0,0,0,0,0,0,0,-1,1770,967,0,0
553,57,0,0,0,0,0,0,0,0,0,-1,1777,967,0,0
560,57,0,0,0,0,0,0,0,0,0,-1,1784,967,0,0
567,57,0,0,0,0,0,0,0,0,0,-1,1791,967,0,0
574,57,0,0,0,0,0,0,0,0,0,-1,1798,967,0,0
581,57,0,0,0,0,0,0,0,0,0,-1,1805,967,0,0
588,57,0,0,0,0,0,0,0,0,0,-1,1812,967,0,0
595,57,0,0,0,0,0,0,0,0,0,-1,1819,967,0,0
602,57,0,0,0,0,0,0,0,0,0,-1,1826,967,0,0
609,57,0,0,0,0,0,0,0,0,0,-1,1833,967,0,0
616,57,0,0,0,0,0,0,0,0,0,-1,1840,967,0,0
623,57,0,0,0,0,0,0,0,0,0,-1,1847,967,0,0
630,57,0,0,0,0,0,0,0,0,0,-1,1854,967,0,0
637,57,0,0,0,0,0,0,0,0,0,-1,1861,967,0,0
644,57,49.5818,2.71716,8.3097e-05,0.000374516,-0.000555303,0.000802908,-0.000345295,-0.913704,0.000680239,0.0406602,1868,967,49.5818,-2.71719
651,57,49.6213,2.63318,0.000199138,0.000262136,-0.000859457,0.00109067,-0.000629397,-0.803715,0.00100491,0.032758,1875,967,49.6213,-2.63315
658,57,49.6934,2.67743,0.000169159,0.000257371,-0.000788173,0.00100267,-0.000576141,-0.813349,0.00092255,0.0332583,1882,967,49.6934,-2.67745
665,57,49.6583,2.69464,0.000109128,0.000335833,-0.000500552,0.000735707,-0.000290746,-0.896747,0.000610902,0.0415614,1889,967,49.6584,-2.69463
672,57,49.6213,2.77081,-0.000152291,0.000382085,-2.4287e-05,0.000383187,-0.000153392,-1.52547,0.000319123,0.0420151,1896,967,49.6214,-2.7708
679,57,49.5259,2.62109,-0.000372506,0.000289356,0.00062655,0.000667001,-0.000750151,1.02837,0.000818663,0.03958,1903,967,49.5259,-2.6211
686,57,49.5616,2.4776,-0.000385908,6.48062e-05,0.0011395,0.00100102,-0.00132212,0.883023,0.00134553,0.0371143,1910,967,49.5617,-2.47763
693,57,49.5857,2.49274,-0.000414389,-9.55057e-05,0.00138538,0.00113958,-0.00164947,0.84269,0.00161921,0.0315028,1917,967,49.5857,-2.49276
700,57,49.6199,2.6629,-0.000587189,-0.000156329,0.00148554,0.00112932,-0.00187283,0.857405,0.00175092,0.0256165,1924,967,49.6199,-2.66288
707,57,49.6157,2.90448,0,0,0,0,0,0,0,-1,1931,967,49.6158,-2.90448
714,57,48.95,3.34711,0,0,0,0,0,0,0,-1,1938,967,48.95,-3.3471
721,57,48.124,4.89142,0,0,0,0,0,0,0,-1,1945,967,48.124,-4.89143
728,57,48.0106,5.26398,-0.00241762,0.00191034,0.00119638,0.00221904,-0.00272632,1.31828,0.00286021,0.0221764,1952,967,48.0106,-5.264
735,57,48.0636,5.57098,-0.00278278,0.00305839,0.000976482,0.00321731,-0.0029417,1.40947,0.00355709,0.0282768,1959,967,48.0636,-5.571
742,57,48.0948,5.75311,-0.00339188,0.00442574,0.000567426,0.00446671,-0.00343285,1.49872,0.00457381,0.0206302,1966,967,48.0949,-5.75313
749,57,48.0646,6.11359,-0.00417815,0.0065012,2.43357e-05,0.00650126,-0.00417821,1.56852,0.00621423,0.01447,1973,967,48.0646,-6.11358
756,57,48.0355,6.38678,-0.00491564,0.00926101,-0.000483241,0.00927747,-0.00493209,-1.53676,0.00833078,0.0116076,1980,967,48.0355,-6.38676
763,57,47.9769,6.63843,-0.00548797,0.0127212,-0.000701376,0.0127482,-0.00551495,-1.53235,0.0108164,0.0120125,1987,967,47.9769,-6.63842
770,57,47.8829,6.87354,-0.00570772,0.0164856,-0.00056072,0.0164998,-0.00572188,-1.54555,0.0133232,0.0118637,1994,967,47.8829,-6.87356
777,57,47.7964,7.0946,-0.00574077,0.0202122,-0.000157223,0.0202132,-0.00574172,-1.56474,0.0157423,0.0268807,2001,967,47.7963,-7.09463
784,57,47.7761,7.34668,-0.00472282,0.0239068,0.00100602,0.0239421,-0.00475813,1.53571,0.0177612,0.0461137,2008,967,47.7762,-7.34668
791,57,47.7659,7.66919,0,0,0,0,0,0,0,-1,2015,967,47.7658,-7.66918
798,57,48.2959,7.38232,0,0,0,0,0,0,0,-1,2022,967,48.296,-7.38235
805,57,48.4338,7.46216,0,0,0,0,0,0,0,-1,2029,967,48.4337,-7.46214
812,57,0,0,0,0,0,0,0,0,0,-1,2036,967,0,0
-700,50,0,0,0,0,0,0,0,0,0,-1,524,974,0,0
-693,50,-33.1175,1.8819,0,0,0,0,0,0,0,-1,531,974,-33.1175,-1.88189
-686,50,-36.1718,4.38,0,0,0,0,0,0,0,-1,538,974,-36.1718,-4.37999
-679,50,-36.0198,3.96405,0,0,0,0,0,0,0,-1,545,974,-36.0198,-3.96405
-672,50,-36.3281,3.1709,0,0,0,0,0,0,0,-1,552,974,-36.3281,-3.17089
-665,50,-36.2757,2.62836,0,0,0,0,0,0,0,-1,559,974,-36.2757,-2.62836
-658,50,-36.5864,4.40717,0,0,0,0,0,0,0,-1,566,974,-36.5864,-4.40714
-651,50,-36.6014,4.22064,-0.0135435,0.0209918,0.0101313,0.0237445,-0.0162962,1.3055,0.0232505,0.0469589,573,974,-36.6014,-4.22065
-644,50,-36.5859,4.05597,-0.0108061,0.0177001,0.00802889,0.0198059,-0.0129119,1.31429,0.0190289,0.0313108,580,974,-36.5859,-4.05596
-637,50,-36.6608,3.91766,-0.00807254,0.0150269,0.00527262,0.0161735,-0.00921914,1.35667,0.0148426,0.0181228,587,974,-36.6608,-3.91765
-630,50,-36.751,3.74969,-0.006152,0.011851,0.00299566,0.0123364,-0.00663738,1.41016,0.011118,0.0118572,594,974,-36.751,-3.74972
-623,50,-36.7734,3.57776,-0.00515187,0.00871698,0.00122506,0.00882436,-0.00525925,1.48337,0.00821756,0.0121554,601,974,-36.7734,-3.57775
-616,50,-36.7587,3.38165,-0.00455793,0.00657106,-0.00050132,0.0065936,-0.00458047,-1.52587,0.00648616,0.0135303,608,974,-36.7587,-3.38168
-609,50,-36.7368,3.10175,-0.00437155,0.00511906,-0.0020668,0.00554962,-0.00480211,-1.36541,0.00598177,0.0125798,615,974,-36.7368,-3.10174
-602,50,-36.7523,2.87012,-0.00476392,0.00389604,-0.00351433,0.00514272,-0.00601061,-1.2299,0.00644587,0.0117736,622,974,-36.7523,-2.8701
-595,50,-36.7503,2.651,-0.00549784,0.00260231,-0.00434575,0.00449266,-0.00738819,-1.1605,0.00692698,0.0122919,629,974,-36.7503,-2.65103
-588,50,-36.7775,2.2901,-0.00578839,0.0016251,-0.00478425,0.00397054,-0.00813383,-1.11499,0.00712492,0.0191615,636,974,-36.7775,-2.29011
-581,50,-36.965,1.42462,-0.00570133,0.00103496,-0.00488949,0.00360411,-0.00827048,-1.087,0.00703004,0.0242801,643,974,-36.965,-1.42462
-574,50,-37.1583,0.571777,0,0,0,0,0,0,0,-1,650,974,-37.1584,-0.571766
-567,50,-37.0344,0.855835,-0.0056744,0.000522388,-0.00421916,0.00265862,-0.00781063,-1.10211,0.00628366,0.0357348,657,974,-37.0344,-0.855853
-560,50,-36.9213,0.95459,-0.00532557,0.000578633,-0.00327481,0.00203553,-0.00678247,-1.15221,0.0053313,0.0412492,664,974,-36.9214,-0.9546
-553,50,-36.8484,0.96167,-0.0043327,0.000690747,-0.00195119,0.00135957,-0.00500152,-1.24057,0.00386802,0.0423615,671,974,-36.8484,-0.961651
-546,50,-36.8751,0.847778,-0.00252745,0.000686355,-0.000243144,0.000704647,-0.00254574,-1.49571,0.00197441,0.043671,678,974,-36.8751,-0.847758
-539,50,-37.0402,0.999695,0.000321168,0.000337484,0.00163022,0.00195957,-0.00130091,0.7879,0.0018952,0.0442191,685,974,-37.0402,-0.999698
-532,50,-37.0753,0.676453,0.00423888,-0.000212205,0.00271328,0.0055226,-0.00149592,0.441917,0.00426866,0.0419834,692,974,-37.0752,-0.676476
-525,50,-36.9397,0.862,0.00685844,-0.000962683,0.00290994,0.00782233,-0.00192657,0.319865,0.00596176,0.0439811,699,974,-36.9397,-0.862012
-518,50,0,0,0,0,0,0,0,0,0,-1,706,974,0,0
-511,50,0,0,0,0,0,0,0,0,0,-1,713,974,0,0
-504,50,0,0,0,0,0,0,0,0,0,-1,720,974,0,0
-497,50,0,0,0,0,0,0,0,0,0,-1,727,974,0,0
-490,50,0,0,0,0,0,0,0,0,0,-1,734,974,0,0
-483,50,0,0,0,0,0,0,0,0,0,-1,741,974,0,0
-476,50,0,0,0,0,0,0,0,0,0,-1,748,974,0,0
-469,50,0,0,0,0,0,0,0,0,0,-1,755,974,0,0
-462,50,0,0,0,0,0,0,0,0,0,-1,762,974,0,0
-455,50,0,0,0,0,0,0,0,0,0,-1,769,974,0,0
-448,50,0,0,0,0,0,0,0,0,0,-1,776,974,0,0
-441,50,0,0,0,0,0,0,0,0,0,-1,783,974,0,0
-434,50,0,0,0,0,0,0,0,0,0,-1,790,974,0,0
-427,50,0,0,0,0,0,0,0,0,0,-1,797,974,0,0
-420,50,0,0,0,0,0,0,0,0,0,-1,804,974,0,0
-413,50,0,0,0,0,0,0,0,0,0,-1,811,974,0,0
-406,50,0,0,0,0,0,0,0,0,0,-1,818,974,0,0
-399,50,0,0,0,0,0,0,0,0,0,-1,825,974,0,0
-392,50,0,0,0,0,0,0,0,0,0,-1,832,974,0,0
-385,50,0,0,0,0,0,0,0,0,0,-1,839,974,0,0
-378,50,0,0,0,0,0,0,0,0,0,-1,846,974,0,0
-371,50,0,0,0,0,0,0,0,0,0,-1,853,974,0,0
-364,50,0,0,0,0,0,0,0,0,0,-1,860,974,0,0
-357,50,0,0,0,0,0,0,0,0,0,-1,867,974,0,0
-350,50,0,0,0,0,0,0,0,0,0,-1,874,974,0,0
-343,50,0,0,0,0,0,0,0,0,0,-1,881,974,0,0
-336,50,0,0,0,0,0,0,0,0,0,-1,888,974,0,0
-329,50,0,0,0,0,0,0,0,0,0,-1,895,974,0,0
-322,50,0,0,0,0,0,0,0,0,0,-1,902,974,0,0
-315,50,0,0,0,0,0,0,0,0,0,-1,909,974,0,0
-308,50,0,0,0,0,0,0,0,0,0,-1,916,974,0,0
-301,50,0,0,0,0,0,0,0,0,0,-1,923,974,0,0
-294,50,0,0,0,0,0,0,0,0,0,-1,930,974,0,0
-287,50,0,0,0,0,0,0,0,0,0,-1,937,974,0,0
-280,50,0,0,0,0,0,0,0,0,0,-1,944,974,0,0
-273,50,0,0,0,0,0,0,0,0,0,-1,951,974,0,0
-266,50,0,0,0,0,0,0,0,0,0,-1,958,974,0,0
-259,50,0,0,0,0,0,0,0,0,0,-1,965,974,0,0
-252,50,0,0,0,0,0,0,0,0,0,-1,972,974,0,0
-245,50,0,0,0,0,0,0,0,0,0,-1,979,974,0,0
-238,50,0,0,0,0,0,0,0,0,0,-1,986,974,0,0
-231,50,0,0,0,0,0,0,0,0,0,-1,993,974,0,0
-224,50,0,0,0,0,0,0,0,0,0,-1,1000,974,0,0
-217,50,0,0,0,0,0,0,0,0,0,-1,1007,974,0,0
-210,50,0,0,0,0,0,0,0,0,0,-1,1014,974,0,0
-203,50,0,0,0,0,0,0,0,0,0,-1,1021,974,0,0
-196,50,0,0,0,0,0,0,0,0,0,-1,1028,974,0,0
-189,50,0,0,0,0,0,0,0,0,0,-1,1035,974,0,0
-182,50,0,0,0,0,0,0,0,0,0,-1,1042,974,0,0
-175,50,0,0,0,0,0,0,0,0,0,-1,1049,974,0,0
-168,50,0,0,0,0,0,0,0,0,0,-1,1056,974,0,0
-161,50,0,0,0,0,0,0,0,0,0,-1,1063,974,0,0
-154,50,0,0,0,0,0,0,0,0,0,-1,1070,974,0,0
-147,50,0,0,0,0,0,0,0,0,0,-1,1077,974,0,0
-140,50,0,0,0,0,0,0,0,0,0,-1,1084,974,0,0
-133,50,0,0,0,0,0,0,0,0,0,-1,1091,974,0,0
-126,50,0,0,0,0,0,0,0,0,0,-1,1098,974,0,0
-119,50,0,0,0,0,0,0,0,0,0,-1,1105,974,0,0
-112,50,0,0,0,0,0,0,0,0,0,-1,1112,974,0,0
-105,50,0,0,0,0,0,0,0,0,0,-1,1119,974,0,0
-98,50,0,0,0,0,0,0,0,0,0,-1,1126,974,0,0
-91,50,0,0,0,0,0,0,0,0,0,-1,1133,974,0,0
-84,50,0,0,0,0,0,0,0,0,0,-1,1140,974,0,0
-77,50,0,0,0,0,0,0,0,0,0,-1,1147,974,0,0
-70,50,0,0,0,0,0,0,0,0,0,-1,1154,974,0,0
-63,50,0,0,0,0,0,0,0,0,0,-1,1161,974,0,0
-56,50,0,0,0,0,0,0,0,0,0,-1,1168,974,0,0
-49,50,0,0,0,0,0,0,0,0,0,-1,1175,974,0,0
-42,50,0,0,0,0,0,0,0,0,0,-1,1182,974,0,0
-35,50,0,0,0,0,0,0,0,0,0,-1,1189,974,0,0
-28,50,0,0,0,0,0,0,0,0,0,-1,1196,974,0,0
-21,50,0,0,0,0,0,0,0,0,0,-1,1203,974,0,0
-14,50,0,0,0,0,0,0,0,0,0,-1,1210,974,0,0
-7,50,0,0,0,0,0,0,0,0,0,-1,1217,974,0,0
0,50,0,0,0,0,0,0,0,0,0,-1,1224,974,0,0
7,50,0,0,0,0,0,0,0,0,0,-1,1231,974,0,0
14,50,0,0,0,0,0,0,0,0,0,-1,1238,974,0,0
21,50,0,0,0,0,0,0,0,0,0,-1,1245,974,0,0
28,50,0,0,0,0,0,0,0,0,0,-1,1252,974,0,0
35,50,0,0,0,0,0,0,0,0,0,-1,1259,974,0,0
42,50,0,0,0,0,0,0,0,0,0,-1,1266,974,0,0
49,50,0,0,0,0,0,0,0,0,0,-1,1273,974,0,0
56,50,0,0,0,0,0,0,0,0,0,-1,1280,974,0,0
63,50,0,0,0,0,0,0,0,0,0,-1,1287,974,0,0
70,50,0,0,0,0,0,0,0,0,0,-1,1294,974,0,0
77,50,0,0,0,0,0,0,0,0,0,-1,1301,974,0,0
84,50,0,0,0,0,0,0,0,0,0,-1,1308,974,0,0
91,50,0,0,0,0,0,0,0,0,0,-1,1315,974,0,0
98,50,0,0,0,0,0,0,0,0,0,-1,1322,974,0,0
105,50,0,0,0,0,0,0,0,0,0,-1,1329,974,0,0
112,50,0,0,0,0,0,0,0,0,0,-1,1336,974,0,0
119,50,0,0,0,0,0,0,0,0,0,-1,1343,974,0,0
126,50,0,0,0,0,0,0,0,0,0,-1,1350,974,0,0
133,50,0,0,0,0,0,0,0,0,0,-1,1357,974,0,0
140,50,0,0,0,0,0,0,0,0,0,-1,1364,974,0,0
147,50,0,0,0,0,0,0,0,0,0,-1,1371,974,0,0
154,50,0,0,0,0,0,0,0,0,0,-1,1378,974,0,0
161,50,0,0,0,0,0,0,0,0,0,-1,1385,974,0,0
168,50,0,0,0,0,0,0,0,0,0,-1,1392,974,0,0
175,50,0,0,0,0,0,0,0,0,0,-1,1399,974,0,0
182,50,0,0,0,0,0,0,0,0,0,-1,1406,974,0,0
189,50,0,0,0,0,0,0,0,0,0,-1,1413,974,0,0
196,50,0,0,0,0,0,0,0,0,0,-1,1420,974,0,0
203,50,0,0,0,0,0,0,0,0,0,-1,1427,974,0,0
210,50,0,0,0,0,0,0,0,0,0,-1,1434,974,0,0
217,50,0,0,0,0,0,0,0,0,0,-1,1441,974,0,0
224,50,0,0,0,0,0,0,0,0,0,-1,1448,974,0,0
231,50,0,0,0,0,0,0,0,0,0,-1,1455,974,0,0
238,50,0,0,0,0,0,0,0,0,0,-1,1462,974,0,0
245,50,0,0,0,0,0,0,0,0,0,-1,1469,974,0,0
252,50,0,0,0,0,0,0,0,0,0,-1,1476,974,0,0
259,50,0,0,0,0,0,0,0,0,0,-1,1483,974,0,0
266,50,0,0,0,0,0,0,0,0,0,-1,1490,974,0,0
273,50,0,0,0,0,0,0,0,0,0,-1,1497,974,0,0
280,50,0,0,0,0,0,0,0,0,0,-1,1504,974,0,0
287,50,0,0,0,0,0,0,0,0,0,-1,1511,974,0,0
294,50,0,0,0,0,0,0,0,0,0,-1,1518,974,0,0
301,50,0,0,0,0,0,0,0,0,0,-1,1525,974,0,0
308,50,0,0,0,0,0,0,0,0,0,-1,1532,974,0,0
315,50,0,0,0,0,0,0,0,0,0,-1,1539,974,0,0
322,50,0,0,0,0,0,0,0,0,0,-1,1546,974,0,0
329,50,0,0,0,0,0,0,0,0,0,-1,1553,974,0,0
336,50,0,0,0,0,0,0,0,0,0,-1,1560,974,0,0
343,50,0,0,0,0,0,0,0,0,0,-1,1567,974,0,0
350,50,0,0,0,0,0,0,0,0,0,-1,1574,974,0,0
357,50,0,0,0,0,0,0,0,0,0,-1,1581,974,0,0
364,50,0,0,0,0,0,0,0,0,0,-1,1588,974,0,0
371,50,0,0,0,0,0,0,0,0,0,-1,1595,974,0,0
378,50,0,0,0,0,0,0,0,0,0,-1,1602,974,0,0
385,50,0,0,0,0,0,0,0,0,0,-1,1609,974,0,0
392,50,0,0,0,0,0,0,0,0,0,-1,1616,974,0,0
399,50,0,0,0,0,0,0,0,0,0,-1,1623,974,0,0
406,50,0,0,0,0,0,0,0,0,0,-1,1630,974,0,0
413,50,0,0,0,0,0,0,0,0,0,-1,1637,974,0,0
420,50,0,0,0,0,0,0,0,0,0,-1,1644,974,0,0
427,50,0,0,0,0,0,0,0,0,0,-1,1651,974,0,0
434,50,0,0,0,0,0,0,0,0,0,-1,1658,974,0,0
441,50,0,0,0,0,0,0,0,0,0,-1,1665,974,0,0
448,50,0,0,0,0,0,0,0,0,0,-1,1672,974,0,0
455,50,0,0,0,0,0,0,0,0,0,-1,1679,974,0,0
462,50,0,0,0,0,0,0,0,0,0,-1,1686,974,0,0
469,50,0,0,0,0,0,0,0,0,0,-1,1693,974,0,0
476,50,0,0,0,0,0,0,0,0,0,-1,1700,974,0,0
483,50,0,0,0,0,0,0,0,0,0,-1,1707,974,0,0
490,50,0,0,0,0,0,0,0,0,0,-1,1714,974,0,0
497,50,0,0,0,0,0,0,0,0,0,-1,1721,974,0,0
504,50,0,0,0,0,0,0,0,0,0,-1,1728,974,0,0
511,50,0,0,0,0,0,0,0,0,0,-1,1735,974,0,0
518,50,0,0,0,0,0,0,0,0,0,-1,1742,974,0,0
525,50,0,0,0,0,0,0,0,0,0,-1,1749,974,0,0
532,50,0,0,0,0,0,0,0,0,0,-1,1756,974,0,0
539,50,0,0,0,0,0,0,0,0,0,-1,1763,974,0,0
546,50,0,0,0,0,0,0,0,0,0,-1,1770,974,0,0
553,50,0,0,0,0,0,0,0,0,0,-1,1777,974,0,0
560,50,0,0,0,0,0,0,0,0,0,-1,1784,974,0,0
567,50,0,0,0,0,0,0,0,0,0,-1,1791,974,0,0
574,50,0,0,0,0,0,0,0,0,0,-1,1798,974,0,0
581,50,0,0,0,0,0,0,0,0,0,-1,1805,974,0,0
588,50,0,0,0,0,0,0,0,0,0,-1,1812,974,0,0
595,50,0,0,0,0,0,0,0,0,0,-1,1819,974,0,0
602,50,0,0,0,0,0,0,0,0,0,-1,1826,974,0,0
609,50,0,0,0,0,0,0,0,0,0,-1,1833,974,0,0
616,50,0,0,0,0,0,0,0,0,0,-1,1840,974,0,0
623,50,0,0,0,0,0,0,0,0,0,-1,1847,974,0,0
630,50,0,0,0,0,0,0,0,0,0,-1,1854,974,0,0
637,50,0,0,0,0,0,0,0,0,0,-1,1861,974,0,0
644,50,49.6058,2.69812,0.00033001,0.000737552,0.000244909,0.000852376,0.000215186,1.13238,0.000511829,0.0398701,1868,974,49.6059,-2.6981
651,50,49.5671,2.7099,0.000198217,0.000420171,-0.000214585,0.000550777,6.76104e-05,-1.02404,0.000346852,0.0323304,1875,974,49.5671,-2.7099
658,50,49.6262,2.70184,1.80622e-05,0.000276235,-0.0002831,0.00045829,-0.000163993,-0.999304,0.000372428,0.0351399,1882,974,49.6262,-2.70187
665,50,49.694,2.75366,-0.000132419,0.000260593,-0.000103532,0.000286198,-0.000158025,-1.32834,0.000260007,0.0405588,1889,974,49.694,-2.75364
672,50,49.6251,2.7746,-0.000394414,0.000280342,0.000290248,0.000388012,-0.000502084,1.21557,0.000515302,0.0417481,1896,974,49.6251,-2.77462
679,50,49.516,2.72998,-0.000565555,0.000214375,0.000933778,0.000836346,-0.00118753,0.9832,0.00117433,0.0410627,1903,974,49.516,-2.72999
686,50,49.5466,2.57678,-0.000523398,1.33067e-05,0.00150578,0.00127446,-0.00178455,0.87358,0.00177429,0.0414397,1910,974,49.5466,-2.57679
693,50,49.5944,2.56622,-0.00049603,-0.000152402,0.00182264,0.0015065,-0.00215493,0.832393,0.00212495,0.037323,1917,974,49.5943,-2.56623
700,50,49.5673,2.69946,-0.00060073,-0.000208945,0.00195936,0.00156429,-0.00237397,0.835222,0.00228972,0.02237,1924,974,49.5672,-2.69945
707,50,49.611,2.74274,-0.000941213,-2.40715e-05,0.00196267,0.00153289,-0.00249817,0.900163,0.00234947,0.0392933,1931,974,49.611,-2.74275
714,50,49.5875,2.88,0,0,0,0,0,0,0,-1,1938,974,49.5875,-2.88003
721,50,48.3801,4.92395,0,0,0,0,0,0,0,-1,1945,974,48.3801,-4.92392
728,50,48.3497,5.27643,-0.00233468,0.00205086,0.00172025,0.00264511,-0.00292893,1.23818,0.00321956,0.0223286,1952,974,48.3497,-5.27641
735,50,48.4109,5.56085,-0.00271767,0.00320747,0.0014716,0.00355284,-0.00306303,1.34028,0.00382316,0.0209176,1959,974,48.4109,-5.56087
742,50,48.4182,5.8219,-0.00340611,0.00461613,0.000979663,0.00473404,-0.00352402,1.45102,0.00478482,0.0162499,1966,974,48.4182,-5.82189
749,50,48.3853,6.04999,-0.0043111,0.00667258,0.000333697,0.00668271,-0.00432123,1.54045,0.0064017,0.0166736,1973,974,48.3853,-6.04997
756,50,48.3473,6.3158,-0.00523866,0.00937863,-0.00035669,0.00938733,-0.00524736,-1.54641,0.00856129,0.0137351,1980,974,48.3473,-6.31579
763,50,48.2722,6.57172,-0.00607086,0.0127898,-0.000874348,0.0128303,-0.00611131,-1.52457,0.0111629,0.0137544,1987,974,48.2723,-6.57169
770,50,48.1941,6.77173,-0.00656475,0.0165775,-0.00108781,0.0166285,-0.00661577,-1.52393,0.0138289,0.0135035,1994,974,48.1941,-6.77175
777,50,48.1626,7.02985,-0.00688177,0.0203487,-0.00109435,0.0203926,-0.00692568,-1.53069,0.0163986,0.0255795,2001,974,48.1626,-7.02985
784,50,48.2344,7.245,-0.00621394,0.0241078,-0.00042052,0.0241136,-0.00621977,-1.55693,0.0185009,0.0445355,2008,974,48.2343,-7.24499
791,50,48.323,7.40137,-0.00358535,0.0270129,0.000431248,0.027019,-0.00359143,1.55671,0.0193214,0.0481425,2015,974,48.3231,-7.40138
798,50,48.5007,7.40479,0,0,0,0,0,0,0,-1,2022,974,48.5007,-7.40481
805,50,48.6724,7.48871,0,0,0,0,0,0,0,-1,2029,974,48.6725,-7.48869
812,50,0,0,0,0,0,0,0,0,0,-1,2036,974,0,0
-700,43,0,0,0,0,0,0,0,0,0,-1,524,981,0,0
-693,43,-33.87,1.84467,-0.0447609,0.0440667,0.0413757,0.0603533,-0.0610474,1.1958,0.0700911,0.0418641,531,981,-33.87,-1.84464
-686,43,-34.6178,2.76685,-0.0353766,0.0375998,0.0308638,0.0489025,-0.0466793,1.21975,0.0551891,0.0441073,538,981,-34.6178,-2.76685
-679,43,-36.2199,3.80994,-0.0290511,0.0326398,0.0240088,0.0408822,-0.0372936,1.24009,0.0451507,0.0452863,545,981,-36.2199,-3.80997
-672,43,-36.2554,3.10968,-0.0240198,0.028536,0.0191349,0.0347646,-0.0302484,1.2561,0.0375655,0.0482213,552,981,-36.2554,-3.10966
-665,43,-36.4069,2.59998,-0.0198108,0.0249869,0.0154287,0.0297864,-0.0246104,1.26921,0.0314534,0.0478972,559,981,-36.4068,-2.59999
-658,43,-36.775,4.29663,0,0,0,0,0,0,0,-1,566,981,-36.775,-4.29666
-651,43,-36.7898,4.13257,-0.0132064,0.0188118,0.0101259,0.0217454,-0.0161399,1.28881,0.0219528,0.0426224,573,981,-36.7898,-4.13255
-644,43,-36.8516,3.99286,-0.010455,0.0160567,0.0079046,0.0182346,-0.0126329,1.30194,0.0179189,0.0239525,580,981,-36.8516,-3.99284
-637,43,-36.9398,3.82996,-0.00771896,0.0139025,0.00491724,0.0149682,-0.00878473,1.35736,0.0138678,0.0171581,587,981,-36.9397,-3.82994
-630,43,-36.9744,3.65845,-0.0055717,0.0111275,0.00244903,0.0114793,-0.00592346,1.42814,0.0102167,0.0140196,594,981,-36.9744,-3.65847
-623,43,-36.9776,3.50568,-0.00418783,0.00835769,0.000526892,0.00837978,-0.00420992,1.5289,0.00740037,0.0123548,601,981,-36.9776,-3.50567
-616,43,-36.9682,3.30664,-0.00332185,0.00647537,-0.0013218,0.00665057,-0.00349705,-1.43902,0.00595229,0.0117157,608,981,-36.9682,-3.30666
-609,43,-36.9683,3.0965,-0.002857,0.00522819,-0.00301817,0.00623058,-0.0038594,-1.25014,0.00587883,0.0137088,615,981,-36.9683,-3.09651
-602,43,-36.9594,2.92163,-0.00299119,0.00416119,-0.00461501,0.00642345,-0.00525345,-1.11502,0.00675293,0.0153485,622,981,-36.9594,-2.92162
-595,43,-37.038,2.72205,-0.00355314,0.00289589,-0.00550135,0.00604808,-0.00670533,-1.05048,0.00736645,0.0145788,629,981,-37.038,-2.72205
-588,43,-37.0384,2.18573,-0.00378554,0.00192405,-0.00594499,0.00566416,-0.00752564,-1.00924,0.00764037,0.0241952,636,981,-37.0384,-2.18575
-581,43,-37.0505,1.22949,-0.00366886,0.0013262,-0.0060011,0.00532874,-0.00767139,-0.982586,0.00754614,0.0297319,643,981,-37.0506,-1.22951
-574,43,-37.0641,0.8797,-0.00363162,0.000923182,-0.00571825,0.00480086,-0.0075093,-0.974905,0.00716438,0.0260464,650,981,-37.0641,-0.879695
-567,43,-37.0063,0.797729,-0.00381124,0.00074219,-0.00505294,0.00400765,-0.00707669,-0.997063,0.0064808,0.0361889,657,981,-37.0063,-0.797748
-560,43,-36.8708,0.942444,-0.00368781,0.000731634,-0.00384279,0.00295473,-0.00591091,-1.04633,0.00521257,0.0418494,664,981,-36.8709,-0.942425
-553,43,-36.8882,0.84198,-0.00304409,0.000740234,-0.00215316,0.0017145,-0.00401835,-1.14588,0.00339779,0.0421336,671,981,-36.8882,-0.842001
-546,43,-37.0198,0.784729,-0.00167799,0.00057154,3.08981e-05,0.000571964,-0.00167842,1.55706,0.00135059,0.0428668,678,981,-37.0198,-0.784755
-539,43,-37.0668,0.817627,0.000732499,3.23773e-05,0.00243089,0.0028384,-0.00207352,0.713887,0.00284734,0.0439717,685,981,-37.0668,-0.817649
-532,43,-37.1336,0.910889,0.00439593,-0.000651532,0.00385121,0.00647665,-0.00273226,0.495349,0.0054613,0.0433692,692,981,-37.1336,-0.91087
-525,43,-37.1202,0.944397,0.00710299,-0.00147916,0.0044816,0.0090166,-0.00339277,0.403556,0.00740574,0.0459925,699,981,-37.1202,-0.944396
-518,43,0,0,0,0,0,0,0,0,0,-1,706,981,0,0
-511,43,0,0,0,0,0,0,0,0,0,-1,713,981,0,0
-504,43,0,0,0,0,0,0,0,0,0,-1,720,981,0,0
-497,43,0,0,0,0,0,0,0,0,0,-1,727,981,0,0
-490,43,0,0,0,0,0,0,0,0,0,-1,734,981,0,0
-483,43,0,0,0,0,0,0,0,0,0,-1,741,981,0,0
-476,43,0,0,0,0,0,0,0,0,0,-1,748,981,0,0
-469,43,0,0,0,0,0,0,0,0,0,-1,755,981,0,0
-462,43,0,0,0,0,0,0,0,0,0,-1,762,981,0,0
-455,43,0,0,0,0,0,0,0,0,0,-1,769,981,0,0
-448,43,0,0,0,0,0,0,0,0,0,-1,776,981,0,0
-441,43,0,0,0,0,0,0,0,0,0,-1,783,981,0,0
-434,43,0,0,0,0,0,0,0,0,0,-1,790,981,0,0
-427,43,0,0,0,0,0,0,0,0,0,-1,797,981,0,0
-420,43,0,0,0,0,0,0,0,0,0,-1,804,981,0,0
-413,43,0,0,0,0,0,0,0,0,0,-1,811,981,0,0
-406,43,0,0,0,0,0,0,0,0,0,-1,818,981,0,0
-399,43,0,0,0,0,0,0,0,0,0,-1,825,981,0,0
-392,43,0,0,0,0,0,0,0,0,0,-1,832,981,0,0
-385,43,0,0,0,0,0,0,0,0,0,-1,839,981,0,0
-378,43,0,0,0,0,0,0,0,0,0,-1,846,981,0,0
-371,43,0,0,0,0,0,0,0,0,0,-1,853,981,0,0
-364,43,0,0,0,0,0,0,0,0,0,-1,860,981,0,0
-357,43,0,0,0,0,0,0,0,0,0,-1,867,981,0,0
-350,43,0,0,0,0,0,0,0,0,0,-1,874,981,0,0
-343,43,0,0,0,0,0,0,0,0,0,-1,881,981,0,0
-336,43,0,0,0,0,0,0,0,0,0,-1,888,981,0,0
-329,43,0,0,0,0,0,0,0,0,0,-1,895,981,0,0
-322,43,0,0,0,0,0,0,0,0,0,-1,902,981,0,0
-315,43,0,0,0,0,0,0,0,0,0,-1,909,981,0,0
-308,43,0,0,0,0,0,0,0,0,0,-1,916,981,0,0
-301,43,0,0,0,0,0,0,0,0,0,-1,923,981,0,0
-294,43,0,0,0,0,0,0,0,0,0,-1,930,981,0,0
-287,43,0,0,0,0,0,0,0,0,0,-1,937,981,0,0
-280,43,0,0,0,0,0,0,0,0,0,-1,944,981,0,0
-273,43,0,0,0,0,0,0,0,0,0,-1,951,981,0,0
-266,43,0,0,0,0,0,0,0,0,0,-1,958,981,0,0
-259,43,0,0,0,0,0,0,0,0,0,-1,965,981,0,0
-252,43,0,0,0,0,0,0,0,0,0,-1,972,981,0,0
-245,43,0,0,0,0,0,0,0,0,0,-1,979,981,0,0
-238,43,0,0,0,0,0,0,0,0,0,-1,986,981,0,0
-231,43,0,0,0,0,0,0,0,0,0,-1,993,981,0,0
-224,43,0,0,0,0,0,0,0,0,0,-1,1000,981,0,0
-217,43,0,0,0,0,0,0,0,0,0,-1,1007,981,0,0
-210,43,0,0,0,0,0,0,0,0,0,-1,1014,981,0,0
-203,43,0,0,0,0,0,0,0,0,0,-1,1021,981,0,0
-196,43,0,0,0,0,0,0,0,0,0,-1,1028,981,0,0
-189,43,0,0,0,0,0,0,0,0,0,-1,1035,981,0,0
-182,43,0,0,0,0,0,0,0,0,0,-1,1042,981,0,0
-175,43,0,0,0,0,0,0,0,0,0,-1,1049,981,0,0
-168,43,0,0,0,0,0,0,0,0,0,-1,1056,981,0,0
-161,43,0,0,0,0,0,0,0,0,0,-1,1063,981,0,0
-154,43,0,0,0,0,0,0,0,0,0,-1,1070,981,0,0
-147,43,0,0,0,0,0,0,0,0,0,-1,1077,981,0,0
-140,43,0,0,0,0,0,0,0,0,0,-1,1084,981,0,0
-133,43,0,0,0,0,0,0,0,0,0,-1,1091,981,0,0
-126,43,0,0,0,0,0,0,0,0,0,-1,1098,981,0,0
-119,43,0,0,0,0,0,0,0,0,0,-1,1105,981,0,0
-112,43,0,0,0,0,0,0,0,0,0,-1,1112,981,0,0
-105,43,0,0,0,0,0,0,0,0,0,-1,1119,981,0,0
-98,43,0,0,0,0,0,0,0,0,0,-1,1126,981,0,0
-91,43,0,0,0,0,0,0,0,0,0,-1,1133,981,0,0
-84,43,0,0,0,0,0,0,0,0,0,-1,1140,981,0,0
-77,43,0,0,0,0,0,0,0,0,0,-1,1147,981,0,0
-70,43,0,0,0,0,0,0,0,0,0,-1,1154,981,0,0
-63,43,0,0,0,0,0,0,0,0,0,-1,1161,981,0,0
-56,43,0,0,0,0,0,0,0,0,0,-1,1168,981,0,0
-49,43,0,0,0,0,0,0,0,0,0,-1,1175,981,0,0
-42,43,0,0,0,0,0,0,0,0,0,-1,1182,981,0,0
-35,43,0,0,0,0,0,0,0,0,0,-1,1189,981,0,0
-28,43,0,0,0,0,0,0,0,0,0,-1,1196,981,0,0
-21,43,0,0,0,0,0,0,0,0,0,-1,1203,981,0,0
-14,43,0,0,0,0,0,0,0,0,0,-1,1210,981,0,0
-7,43,0,0,0,0,0,0,0,0,0,-1,1217,981,0,0
0,43,0,0,0,0,0,0,0,0,0,-1,1224,981,0,0
7,43,0,0,0,0,0,0,0,0,0,-1,1231,981,0,0
14,43,0,0,0,0,0,0,0,0,0,-1,1238,981,0,0
21,43,0,0,0,0,0,0,0,0,0,-1,1245,981,0,0
28,43,0,0,0,0,0,0,0,0,0,-1,1252,981,0,0
35,43,0,0,0,0,0,0,0,0,0,-1,1259,981,0,0
42,43,0,0,0,0,0,0,0,0,0,-1,1266,981,0,0
49,43,0,0,0,0,0,0,0,0,0,-1,1273,981,0,0
56,43,0,0,0,0,0,0,0,0,0,-1,1280,981,0,0
63,43,0,0,0,0,0,0,0,0,0,-1,1287,981,0,0
70,43,0,0,0,0,0,0,0,0,0,-1,1294,981,0,0
77,43,0,0,0,0,0,0,0,0,0,-1,1301,981,0,0
84,43,0,0,0,0,0,0,0,0,0,-1,1308,981,0,0
91,43,0,0,0,0,0,0,0,0,0,-1,1315,981,0,0
98,43,0,0,0,0,0,0,0,0,0,-1,1322,981,0,0
105,43,0,0,0,0,0,0,0,0,0,-1,1329,981,0,0
112,43,0,0,0,0,0,0,0,0,0,-1,1336,981,0,0
119,43,0,0,0,0,0,0,0,0,0,-1,1343,981,0,0
126,43,0,0,0,0,0,0,0,0,0,-1,1350,981,0,0
133,43,0,0,0,0,0,0,0,0,0,-1,1357,981,0,0
140,43,0,0,0,0,0,0,0,0,0,-1,1364,981,0,0
147,43,0,0,0,0,0,0,0,0,0,-1,1371,981,0,0
154,43,0,0,0,0,0,0,0,0,0,-1,1378,981,0,0
161,43,0,0,0,0,0,0,0,0,0,-1,1385,981,0,0
168,43,0,0,0,0,0,0,0,0,0,-1,1392,981,0,0
175,43,0,0,0,0,0,0,0,0,0,-1,1399,981,0,0
182,43,0,0,0,0,0,0,0,0,0,-1,1406,981,0,0
189,43,0,0,0,0,0,0,0,0,0,-1,1413,981,0,0
196,43,0,0,0,0,0,0,0,0,0,-1,1420,981,0,0
203,43,0,0,0,0,0,0,0,0,0,-1,1427,981,0,0
210,43,0,0,0,0,0,0,0,0,0,-1,1434,981,0,0
217,43,0,0,0,0,0,0,0,0,0,-1,1441,981,0,0
224,43,0,0,0,0,0,0,0,0,0,-1,1448,981,0,0
231,43,0,0,0,0,0,0,0,0,0,-1,1455,981,0,0
238,43,0,0,0,0,0,0,0,0,0,-1,1462,981,0,0
245,43,0,0,0,0,0,0,0,0,0,-1,1469,981,0,0
252,43,0,0,0,0,0,0,0,0,0,-1,1476,981,0,0
259,43,0,0,0,0,0,0,0,0,0,-1,1483,981,0,0
266,43,0,0,0,0,0,0,0,0,0,-1,1490,981,0,0
273,43,0,0,0,0,0,0,0,0,0,-1,1497,981,0,0
280,43,0,0,0,0,0,0,0,0,0,-1,1504,981,0,0
287,43,0,0,0,0,0,0,0,0,0,-1,1511,981,0,0
294,43,0,0,0,0,0,0,0,0,0,-1,1518,981,0,0
301,43,0,0,0,0,0,0,0,0,0,-1,1525,981,0,0
308,43,0,0,0,0,0,0,0,0,0,-1,1532,981,0,0
315,43,0,0,0,0,0,0,0,0,0,-1,1539,981,0,0
322,43,0,0,0,0,0,0,0,0,0,-1,1546,981,0,0
329,43,0,0,0,0,0,0,0,0,0,-1,1553,981,0,0
336,43,0,0,0,0,0,0,0,0,0,-1,1560,981,0,0
343,43,0,0,0,0,0,0,0,0,0,-1,1567,981,0,0
350,43,0,0,0,0,0,0,0,0,0,-1,1574,981,0,0
357,43,0,0,0,0,0,0,0,0,0,-1,1581,981,0,0
364,43,0,0,0,0,0,0,0,0,0,-1,1588,981,0,0
371,43,0,0,0,0,0,0,0,0,0,-1,1595,981,0,0
378,43,0,0,0,0,0,0,0,0,0,-1,1602,981,0,0
385,43,0,0,0,0,0,0,0,0,0,-1,1609,981,0,0
392,43,0,0,0,0,0,0,0,0,0,-1,1616,981,0,0
399,43,0,0,0,0,0,0,0,0,0,-1,1623,981,0,0
406,43,0,0,0,0,0,0,0,0,0,-1,1630,981,0,0
413,43,0,0,0,0,0,0,0,0,0,-1,1637,981,0,0
420,43,0,0,0,0,0,0,0,0,0,-1,1644,981,0,0
427,43,0,0,0,0,0,0,0,0,0,-1,1651,981,0,0
434,43,0,0,0,0,0,0,0,0,0,-1,1658,981,0,0
441,43,0,0,0,0,0,0,0,0,0,-1,1665,981,0,0
448,43,0,0,0,0,0,0,0,0,0,-1,1672,981,0,0
455,43,0,0,0,0,0,0,0,0,0,-1,1679,981,0,0
462,43,0,0,0,0,0,0,0,0,0,-1,1686,981,0,0
469,43,0,0,0,0,0,0,0,0,0,-1,1693,981,0,0
476,43,0,0,0,0,0,0,0,0,0,-1,1700,981,0,0
483,43,0,0,0,0,0,0,0,0,0,-1,1707,981,0,0
490,43,0,0,0,0,0,0,0,0,0,-1,1714,981,0,0
497,43,0,0,0,0,0,0,0,0,0,-1,1721,981,0,0
504,43,0,0,0,0,0,0,0,0,0,-1,1728,981,0,0
511,43,0,0,0,0,0,0,0,0,0,-1,1735,981,0,0
518,43,0,0,0,0,0,0,0,0,0,-1,1742,981,0,0
525,43,0,0,0,0,0,0,0,0,0,-1,1749,981,0,0
532,43,0,0,0,0,0,0,0,0,0,-1,1756,981,0,0
539,43,0,0,0,0,0,0,0,0,0,-1,1763,981,0,0
546,43,0,0,0,0,0,0,0,0,0,-1,1770,981,0,0
553,43,0,0,0,0,0,0,0,0,0,-1,1777,981,0,0
560,43,0,0,0,0,0,0,0,0,0,-1,1784,981,0,0
567,43,0,0,0,0,0,0,0,0,0,-1,1791,981,0,0
574,43,0,0,0,0,0,0,0,0,0,-1,1798,981,0,0
581,43,0,0,0,0,0,0,0,0,0,-1,1805,981,0,0
588,43,0,0,0,0,0,0,0,0,0,-1,1812,981,0,0
595,43,0,0,0,0,0,0,0,0,0,-1,1819,981,0,0
602,43,0,0,0,0,0,0,0,0,0,-1,1826,981,0,0
609,43,0,0,0,0,0,0,0,0,0,-1,1833,981,0,0
616,43,0,0,0,0,0,0,0,0,0,-1,1840,981,0,0
623,43,0,0,0,0,0,0,0,0,0,-1,1847,981,0,0
630,43,0,0,0,0,0,0,0,0,0,-1,1854,981,0,0
637,43,0,0,0,0,0,0,0,0,0,-1,1861,981,0,0
644,43,49.5236,2.67365,0.000819636,0.00176119,0.00107193,0.00246117,0.000119658,0.992311,0.00160238,0.0388309,1868,981,49.5235,-2.67364
651,43,49.4358,2.63904,0.000542708,0.00111725,0.000287992,0.00123676,0.000423206,1.17747,0.000725799,0.0362745,1875,981,49.4358,-2.63905
658,43,49.6062,2.63824,0.000238387,0.000726545,-6.8553e-06,0.000726641,0.000238291,-1.55676,0.000427727,0.0371036,1882,981,49.6062,-2.63824
665,43,49.6665,2.75555,-4.64415e-06,0.000503208,1.49712e-05,0.000503649,-5.08511e-06,1.54135,0.000337474,0.0388868,1889,981,49.6665,-2.75554
672,43,49.6896,2.38074,-0.0002938,0.00037987,0.000306987,0.000498775,-0.000412705,1.20126,0.000527025,0.0398287,1896,981,49.6896,-2.38074
679,43,49.5669,2.53601,-0.000458099,0.000258813,0.000943821,0.000909955,-0.00110924,0.966881,0.00116767,0.0393075,1903,981,49.5669,-2.53601
686,43,49.5354,2.70813,-0.000387819,1.45422e-05,0.00158759,0.00141365,-0.00178693,0.848423,0.00185204,0.0409853,1910,981,49.5354,-2.70813
693,43,49.5726,2.68066,-0.000301988,-0.000195233,0.00200153,0.00175363,-0.00225085,0.798729,0.00231792,0.0383056,1917,981,49.5727,-2.68067
700,43,49.5597,2.64618,-0.000338007,-0.000281819,0.00220992,0.00190019,-0.00252002,0.791754,0.00256036,0.0338876,1924,981,49.5597,-2.64619
707,43,49.6348,2.59912,-0.000630702,-9.12175e-05,0.00226427,0.00191932,-0.00264124,0.844684,0.00264401,0.0332467,1931,981,49.6347,-2.59912
714,43,49.6516,2.5741,0,0,0,0,0,0,0,-1,1938,981,49.6516,-2.57412
721,43,48.7952,4.91986,0,0,0,0,0,0,0,-1,1945,981,48.7952,-4.91984
728,43,48.752,5.2644,-0.00212496,0.00209743,0.00215813,0.00300529,-0.00303281,1.1726,0.00348611,0.0211601,1952,981,48.752,-5.26441
735,43,48.712,5.57806,-0.00250235,0.00327104,0.00187677,0.00382749,-0.0030588,1.28256,0.00398405,0.0146502,1959,981,48.712,-5.57805
742,43,48.6964,5.80518,-0.00319481,0.00475295,0.00131646,0.00496533,-0.00340719,1.41085,0.0048617,0.0159932,1966,981,48.6964,-5.80519
749,43,48.6615,6.0166,-0.00417316,0.00681131,0.000599747,0.00684396,-0.00420581,1.51641,0.00643991,0.0182406,1973,981,48.6615,-6.01659
756,43,48.6451,6.23975,-0.00519404,0.00951323,-0.000234418,0.00951696,-0.00519778,-1.55486,0.00861669,0.0201836,1980,981,48.6452,-6.23973
763,43,48.5867,6.44299,-0.00612806,0.0129539,-0.0010099,0.0130072,-0.00618136,-1.51807,0.0113097,0.02425,1987,981,48.5867,-6.44301
770,43,48.4844,6.72046,-0.0066678,0.0168755,-0.00155664,0.016978,-0.00677027,-1.50506,0.0141269,0.0203697,1994,981,48.4843,-6.72047
777,43,48.5115,7.01801,-0.00687147,0.020833,-0.00192481,0.0209661,-0.00700456,-1.50176,0.0168061,0.0249038,2001,981,48.5116,-7.01802
784,43,48.5515,7.33105,-0.00593392,0.0248793,-0.00164289,0.0249666,-0.00602127,-1.51768,0.0189727,0.0442971,2008,981,48.5515,-7.33108
791,43,48.5359,7.47791,-0.00276994,0.0280872,-0.00118095,0.0281323,-0.00281507,-1.5326,0.0197602,0.0447609,2015,981,48.536,-7.47793
798,43,48.7158,7.40881,0,0,0,0,0,0,0,-1,2022,981,48.7159,-7.40882
805,43,48.3674,8.36597,0,0,0,0,0,0,0,-1,2029,981,48.3673,-8.36596
812,43,48.8098,8.76965,0,0,0,0,0,0,0,-1,2036,981,48.8097,-8.76968
-700,36,0,0,0,0,0,0,0,0,0,-1,524,988,0,0
-693,36,-34.8498,1.87915,-0.0435804,0.0383051,0.0378837,0.053143,-0.0584183,1.19749,0.0644339,0.0447238,531,988,-34.8498,-1.87918
-686,36,-35.2757,2.37976,-0.0345002,0.0332899,0.0282402,0.0435127,-0.0447231,1.22348,0.0509445,0.0433596,538,988,-35.2757,-2.37977
-679,36,-35.7519,2.79413,-0.0282738,0.029339,0.0219166,0.0367286,-0.0356633,1.2456,0.041797,0.0438616,545,988,-35.7519,-2.79415
-672,36,-36.0582,2.94861,-0.0232982,0.0259743,0.0174193,0.0315105,-0.0288344,1.26307,0.0348516,0.0499138,552,988,-36.0582,-2.94861
-665,36,-36.2701,2.83362,-0.0191498,0.0229804,0.0140195,0.0272192,-0.0233885,1.27719,0.0292462,0.0454037,559,988,-36.2701,-2.8336
-658,36,-36.8506,4.01819,0,0,0,0,0,0,0,-1,566,988,-36.8506,-4.01821
-651,36,-36.9418,3.8866,-0.0127001,0.017539,0.00919346,0.0201147,-0.0152757,1.29764,0.0204962,0.0411797,573,988,-36.9418,-3.88662
-644,36,-37.0695,3.77734,-0.00999904,0.0150811,0.00709012,0.0169467,-0.0118646,1.3135,0.0167203,0.0259491,580,988,-37.0695,-3.77734
-637,36,-37.1815,3.64935,-0.0073141,0.0131824,0.00418634,0.0140045,-0.00813617,1.37689,0.0129317,0.0204325,587,988,-37.1814,-3.64935
-630,36,-37.164,3.57672,-0.00500414,0.0106421,0.0017889,0.010844,-0.00520607,1.45839,0.00945518,0.015223,594,988,-37.164,-3.57674
-623,36,-37.1751,3.45258,-0.00331691,0.00813144,-0.000126613,0.00813284,-0.00331831,-1.55974,0.00680332,0.0132104,601,988,-37.1751,-3.45258
-616,36,-37.1702,3.29602,-0.00224952,0.00639009,-0.00199992,0.00683058,-0.00269001,-1.354,0.00566735,0.0112735,608,988,-37.1702,-3.29601
-609,36,-37.1521,3.15393,-0.00153978,0.00525083,-0.0037546,0.00691765,-0.0032066,-1.15299,0.0059747,0.0145791,615,988,-37.1521,-3.15395
-602,36,-37.1655,2.9859,-0.0014034,0.00430998,-0.00542404,0.00758361,-0.00467703,-1.02778,0.00714468,0.0182644,622,988,-37.1654,-2.98593
-595,36,-37.2845,2.76489,-0.00173991,0.00305194,-0.00633463,0.00742861,-0.00611658,-0.966196,0.00783253,0.0207974,629,988,-37.2845,-2.76487
-588,36,-37.2332,1.99103,-0.00185076,0.00205882,-0.00677363,0.00715408,-0.00694602,-0.925876,0.00814099,0.0317128,636,988,-37.2332,-1.99105
-581,36,-37.0277,0.948975,0,0,0,0,0,0,0,-1,643,988,-37.0277,-0.948957
-574,36,-37.0259,0.920715,-0.00169042,0.000989451,-0.00645343,0.00624059,-0.00694155,-0.887759,0.0076143,0.025347,650,988,-37.0259,-0.920745
-567,36,-37.0185,0.769897,-0.00200692,0.000775363,-0.0056505,0.00520345,-0.00643501,-0.906097,0.006732,0.0325137,657,988,-37.0185,-0.769876
-560,36,-36.9833,0.589417,-0.00215336,0.000703005,-0.00425779,0.00376576,-0.00521611,-0.947215,0.00520817,0.0421984,664,988,-36.9832,-0.58942
-553,36,-37.0204,0.713379,-0.00193693,0.000618521,-0.00231576,0.00198566,-0.00330408,-1.03749,0.00308549,0.0447831,671,988,-37.0204,-0.713392
-546,36,-37.0913,0.755798,-0.00113482,0.000303406,0.000199981,0.000330695,-0.00116211,1.43518,0.000905331,0.0427876,678,988,-37.0913,-0.7558
-539,36,-37.1527,0.786682,0.000648716,-0.000381378,0.00292649,0.00310514,-0.0028378,0.698293,0.00343231,0.0422555,685,988,-37.1527,-0.786698
-532,36,-37.1838,0.966125,0.00386084,-0.00117068,0.00447729,0.00648075,-0.00379059,0.529434,0.00599758,0.0440986,692,988,-37.1838,-0.966154
-525,36,-37.1388,1.01233,0.00651392,-0.00206678,0.00540376,0.00912341,-0.00467627,0.449876,0.00810398,0.0496341,699,988,-37.1388,-1.01233
-518,36,0,0,0,0,0,0,0,0,0,-1,706,988,0,0
-511,36,0,0,0,0,0,0,0,0,0,-1,713,988,0,0
-504,36,0,0,0,0,0,0,0,0,0,-1,720,988,0,0
-497,36,0,0,0,0,0,0,0,0,0,-1,727,988,0,0
-490,36,0,0,0,0,0,0,0,0,0,-1,734,988,0,0
-483,36,0,0,0,0,0,0,0,0,0,-1,741,988,0,0
-476,36,0,0,0,0,0,0,0,0,0,-1,748,988,0,0
-469,36,0,0,0,0,0,0,0,0,0,-1,755,988,0,0
-462,36,0,0,0,0,0,0,0,0,0,-1,762,988,0,0
-455,36,0,0,0,0,0,0,0,0,0,-1,769,988,0,0
-448,36,0,0,0,0,0,0,0,0,0,-1,776,988,0,0
-441,36,0,0,0,0,0,0,0,0,0,-1,783,988,0,0
-434,36,0,0,0,0,0,0,0,0,0,-1,790,988,0,0
-427,36,0,0,0,0,0,0,0,0,0,-1,797,988,0,0
-420,36,0,0,0,0,0,0,0,0,0,-1,804,988,0,0
-413,36,0,0,0,0,0,0,0,0,0,-1,811,988,0,0
-406,36,0,0,0,0,0,0,0,0,0,-1,818,988,0,0
-399,36,0,0,0,0,0,0,0,0,0,-1,825,988,0,0
-392,36,0,0,0,0,0,0,0,0,0,-1,832,988,0,0
-385,36,0,0,0,0,0,0,0,0,0,-1,839,988,0,0
-378,36,0,0,0,0,0,0,0,0,0,-1,846,988,0,0
-371,36,0,0,0,0,0,0,0,0,0,-1,853,988,0,0
-364,36,0,0,0,0,0,0,0,0,0,-1,860,988,0,0
-357,36,0,0,0,0,0,0,0,0,0,-1,867,988,0,0
-350,36,0,0,0,0,0,0,0,0,0,-1,874,988,0,0
-343,36,0,0,0,0,0,0,0,0,0,-1,881,988,0,0
-336,36,0,0,0,0,0,0,0,0,0,-1,888,988,0,0
-329,36,0,0,0,0,0,0,0,0,0,-1,895,988,0,0
-322,36,0,0,0,0,0,0,0,0,0,-1,902,988,0,0
-315,36,0,0,0,0,0,0,0,0,0,-1,909,988,0,0
-308,36,0,0,0,0,0,0,0,0,0,-1,916,988,0,0
-301,36,0,0,0,0,0,0,0,0,0,-1,923,988,0,0
-294,36,0,0,0,0,0,0,0,0,0,-1,930,988,0,0
-287,36,0,0,0,0,0,0,0,0,0,-1,937,988,0,0
-280,36,0,0,0,0,0,0,0,0,0,-1,944,988,0,0
-273,36,0,0,0,0,0,0,0,0,0,-1,951,988,0,0
-266,36,0,0,0,0,0,0,0,0,0,-1,958,988,0,0
-259,36,0,0,0,0,0,0,0,0,0,-1,965,988,0,0
-252,36,0,0,0,0,0,0,0,0,0,-1,972,988,0,0
-245,36,0,0,0,0,0,0,0,0,0,-1,979,988,0,0
-238,36,0,0,0,0,0,0,0,0,0,-1,986,988,0,0
-231,36,0,0,0,0,0,0,0,0,0,-1,993,988,0,0
-224,36,0,0,0,0,0,0,0,0,0,-1,1000,988,0,0
-217,36,0,0,0,0,0,0,0,0,0,-1,1007,988,0,0
-210,36,0,0,0,0,0,0,0,0,0,-1,1014,988,0,0
-203,36,0,0,0,0,0,0,0,0,0,-1,1021,988,0,0
-196,36,0,0,0,0,0,0,0,0,0,-1,1028,988,0,0
-189,36,0,0,0,0,0,0,0,0,0,-1,1035,988,0,0
-182,36,0,0,0,0,0,0,0,0,0,-1,1042,988,0,0
-175,36,0,0,0,0,0,0,0,0,0,-1,1049,988,0,0
-168,36,0,0,0,0,0,0,0,0,0,-1,1056,988,0,0
-161,36,0,0,0,0,0,0,0,0,0,-1,1063,988,0,0
-154,36,0,0,0,0,0,0,0,0,0,-1,1070,988,0,0
-147,36,0,0,0,0,0,0,0,0,0,-1,1077,988,0,0
-140,36,0,0,0,0,0,0,0,0,0,-1,1084,988,0,0
-133,36,0,0,0,0,0,0,0,0,0,-1,1091,988,0,0
-126,36,0,0,0,0,0,0,0,0,0,-1,1098,988,0,0
-119,36,0,0,0,0,0,0,0,0,0,-1,1105,988,0,0
-112,36,0,0,0,0,0,0,0,0,0,-1,1112,988,0,0
-105,36,0,0,0,0,0,0,0,0,0,-1,1119,988,0,0
-98,36,0,0,0,0,0,0,0,0,0,-1,1126,988,0,0
-91,36,0,0,0,0,0,0,0,0,0,-1,1133,988,0,0
-84,36,0,0,0,0,0,0,0,0,0,-1,1140,988,0,0
-77,36,0,0,0,0,0,0,0,0,0,-1,1147,988,0,0
-70,36,0,0,0,0,0,0,0,0,0,-1,1154,988,0,0
-63,36,0,0,0,0,0,0,0,0,0,-1,1161,988,0,0
-56,36,0,0,0,0,0,0,0,0,0,-1,1168,988,0,0
-49,36,0,0,0,0,0,0,0,0,0,-1,1175,988,0,0
-42,36,0,0,0,0,0,0,0,0,0,-1,1182,988,0,0
-35,36,0,0,0,0,0,0,0,0,0,-1,1189,988,0,0
-28,36,0,0,0,0,0,0,0,0,0,-1,1196,988,0,0
-21,36,0,0,0,0,0,0,0,0,0,-1,1203,988,0,0
-14,36,0,0,0,0,0,0,0,0,0,-1,1210,988,0,0
-7,36,0,0,0,0,0,0,0,0,0,-1,1217,988,0,0
0,36,0,0,0,0,0,0,0,0,0,-1,1224,988,0,0
7,36,0,0,0,0,0,0,0,0,0,-1,1231,988,0,0
14,36,0,0,0,0,0,0,0,0,0,-1,1238,988,0,0
21,36,0,0,0,0,0,0,0,0,0,-1,1245,988,0,0
28,36,0,0,0,0,0,0,0,0,0,-1,1252,988,0,0
35,36,0,0,0,0,0,0,0,0,0,-1,1259,988,0,0
42,36,0,0,0,0,0,0,0,0,0,-1,1266,988,0,0
49,36,0,0,0,0,0,0,0,0,0,-1,1273,988,0,0
56,36,0,0,0,0,0,0,0,0,0,-1,1280,988,0,0
63,36,0,0,0,0,0,0,0,0,0,-1,1287,988,0,0
70,36,0,0,0,0,0,0,0,0,0,-1,1294,988,0,0
77,36,0,0,0,0,0,0,0,0,0,-1,1301,988,0,0
84,36,0,0,0,0,0,0,0,0,0,-1,1308,988,0,0
91,36,0,0,0,0,0,0,0,0,0,-1,1315,988,0,0
98,36,0,0,0,0,0,0,0,0,0,-1,1322,988,0,0
105,36,0,0,0,0,0,0,0,0,0,-1,1329,988,0,0
112,36,0,0,0,0,0,0,0,0,0,-1,1336,988,0,0
119,36,0,0,0,0,0,0,0,0,0,-1,1343,988,0,0
126,36,0,0,0,0,0,0,0,0,0,-1,1350,988,0,0
133,36,0,0,0,0,0,0,0,0,0,-1,1357,988,0,0
140,36,0,0,0,0,0,0,0,0,0,-1,1364,988,0,0
147,36,0,0,0,0,0,0,0,0,0,-1,1371,988,0,0
154,36,0,0,0,0,0,0,0,0,0,-1,1378,988,0,0
161,36,0,0,0,0,0,0,0,0,0,-1,1385,988,0,0
168,36,0,0,0,0,0,0,0,0,0,-1,1392,988,0,0
175,36,0,0,0,0,0,0,0,0,0,-1,1399,988,0,0
182,36,0,0,0,0,0,0,0,0,0,-1,1406,988,0,0
189,36,0,0,0,0,0,0,0,0,0,-1,1413,988,0,0
196,36,0,0,0,0,0,0,0,0,0,-1,1420,988,0,0
203,36,0,0,0,0,0,0,0,0,0,-1,1427,988,0,0
210,36,0,0,0,0,0,0,0,0,0,-1,1434,988,0,0
217,36,0,0,0,0,0,0,0,0,0,-1,1441,988,0,0
224,36,0,0,0,0,0,0,0,0,0,-1,1448,988,0,0
231,36,0,0,0,0,0,0,0,0,0,-1,1455,988,0,0
238,36,0,0,0,0,0,0,0,0,0,-1,1462,988,0,0
245,36,0,0,0,0,0,0,0,0,0,-1,1469,988,0,0
252,36,0,0,0,0,0,0,0,0,0,-1,1476,988,0,0
259,36,0,0,0,0,0,0,0,0,0,-1,1483,988,0,0
266,36,0,0,0,0,0,0,0,0,0,-1,1490,988,0,0
273,36,0,0,0,0,0,0,0,0,0,-1,1497,988,0,0
280,36,0,0,0,0,0,0,0,0,0,-1,1504,988,0,0
287,36,0,0,0,0,0,0,0,0,0,-1,1511,988,0,0
294,36,0,0,0,0,0,0,0,0,0,-1,1518,988,0,0
301,36,0,0,0,0,0,0,0,0,0,-1,1525,988,0,0
308,36,0,0,0,0,0,0,0,0,0,-1,1532,988,0,0
315,36,0,0,0,0,0,0,0,0,0,-1,1539,988,0,0
322,36,0,0,0,0,0,0,0,0,0,-1,1546,988,0,0
329,36,0,0,0,0,0,0,0,0,0,-1,1553,988,0,0
336,36,0,0,0,0,0,0,0,0,0,-1,1560,988,0,0
343,36,0,0,0,0,0,0,0,0,0,-1,1567,988,0,0
350,36,0,0,0,0,0,0,0,0,0,-1,1574,988,0,0
357,36,0,0,0,0,0,0,0,0,0,-1,1581,988,0,0
364,36,0,0,0,0,0,0,0,0,0,-1,1588,988,0,0
371,36,0,0,0,0,0,0,0,0,0,-1,1595,988,0,0
378,36,0,0,0,0,0,0,0,0,0,-1,1602,988,0,0
385,36,0,0,0,0,0,0,0,0,0,-1,1609,988,0,0
392,36,0,0,0,0,0,0,0,0,0,-1,1616,988,0,0
399,36,0,0,0,0,0,0,0,0,0,-1,1623,988,0,0
406,36,0,0,0,0,0,0,0,0,0,-1,1630,988,0,0
413,36,0,0,0,0,0,0,0,0,0,-1,1637,988,0,0
420,36,0,0,0,0,0,0,0,0,0,-1,1644,988,0,0
427,36,0,0,0,0,0,0,0,0,0,-1,1651,988,0,0
434,36,0,0,0,0,0,0,0,0,0,-1,1658,988,0,0
441,36,0,0,0,0,0,0,0,0,0,-1,1665,988,0,0
448,36,0,0,0,0,0,0,0,0,0,-1,1672,988,0,0
455,36,0,0,0,0,0,0,0,0,0,-1,1679,988,0,0
462,36,0,0,0,0,0,0,0,0,0,-1,1686,988,0,0
469,36,0,0,0,0,0,0,0,0,0,-1,1693,988,0,0
476,36,0,0,0,0,0,0,0,0,0,-1,1700,988,0,0
483,36,0,0,0,0,0,0,0,0,0,-1,1707,988,0,0
490,36,0,0,0,0,0,0,0,0,0,-1,1714,988,0,0
497,36,0,0,0,0,0,0,0,0,0,-1,1721,988,0,0
504,36,0,0,0,0,0,0,0,0,0,-1,1728,988,0,0
511,36,0,0,0,0,0,0,0,0,0,-1,1735,988,0,0
518,36,0,0,0,0,0,0,0,0,0,-1,1742,988,0,0
525,36,0,0,0,0,0,0,0,0,0,-1,1749,988,0,0
532,36,0,0,0,0,0,0,0,0,0,-1,1756,988,0,0
539,36,0,0,0,0,0,0,0,0,0,-1,1763,988,0,0
546,36,0,0,0,0,0,0,0,0,0,-1,1770,988,0,0
553,36,0,0,0,0,0,0,0,0,0,-1,1777,988,0,0
560,36,0,0,0,0,0,0,0,0,0,-1,1784,988,0,0
567,36,0,0,0,0,0,0,0,0,0,-1,1791,988,0,0
574,36,0,0,0,0,0,0,0,0,0,-1,1798,988,0,0
581,36,0,0,0,0,0,0,0,0,0,-1,1805,988,0,0
588,36,0,0,0,0,0,0,0,0,0,-1,1812,988,0,0
595,36,0,0,0,0,0,0,0,0,0,-1,1819,988,0,0
602,36,0,0,0,0,0,0,0,0,0,-1,1826,988,0,0
609,36,0,0,0,0,0,0,0,0,0,-1,1833,988,0,0
616,36,0,0,0,0,0,0,0,0,0,-1,1840,988,0,0
623,36,0,0,0,0,0,0,0,0,0,-1,1847,988,0,0
630,36,0,0,0,0,0,0,0,0,0,-1,1854,988,0,0
637,36,0,0,0,0,0,0,0,0,0,-1,1861,988,0,0
644,36,49.4761,2.70801,0.00106901,0.00371966,0.00154573,0.00443045,0.000358222,1.13979,0.00284176,0.0403174,1868,988,49.4761,-2.70798
651,36,49.4155,2.67645,0.000669473,0.00259516,0.000584821,0.00275885,0.00050578,1.29788,0.00169597,0.0382889,1875,988,49.4156,-2.67643
658,36,49.652,2.77454,0.000273866,0.00182215,0.000152648,0.00183706,0.000258959,1.47345,0.00114816,0.0378778,1882,988,49.652,-2.77452
665,36,49.7142,2.88574,-1.73021e-05,0.00128261,7.72896e-05,0.00128719,-2.18814e-05,1.51162,0.000865512,0.0364102,1889,988,49.7142,-2.88577
672,36,49.6285,2.66461,-0.000285641,0.000903994,0.000303621,0.000977004,-0.000358652,1.33481,0.000798213,0.0383967,1896,988,49.6285,-2.66461
679,36,49.6006,2.67731,-0.000396076,0.000629975,0.000940289,0.00118809,-0.000954189,1.03513,0.0012393,0.0391369,1903,988,49.6006,-2.67729
686,36,49.5874,2.76276,-0.00027397,0.000270029,0.00165212,0.00167239,-0.00167633,0.866985,0.00193338,0.0360529,1910,988,49.5873,-2.76274
693,36,49.6041,2.69952,-0.000120519,-3.65465e-05,0.00217112,0.002093,-0.00225006,0.795066,0.00250801,0.0377246,1917,988,49.6041,-2.69953
700,36,49.6265,2.63098,-8.13894e-05,-0.000197201,0.00245965,0.00232103,-0.00259962,0.773629,0.00284246,0.0356723,1924,988,49.6265,-2.63098
707,36,49.6355,2.6593,-0.000309426,-4.49202e-05,0.0025806,0.00240682,-0.00276116,0.811,0.00298607,0.0288145,1931,988,49.6355,-2.6593
714,36,49.6154,2.96436,-0.00082174,0.000408525,0.00257157,0.00243751,-0.00285072,0.902795,0.00305626,0.0442419,1938,988,49.6154,-2.96435
721,36,49.1074,5.00952,0,0,0,0,0,0,0,-1,1945,988,49.1074,-5.00952
728,36,48.9952,5.33606,-0.00190062,0.0021631,0.00256038,0.00339988,-0.0031374,1.1208,0.00377531,0.0231582,1952,988,48.9953,-5.33604
735,36,48.9365,5.62738,-0.0022994,0.00333576,0.00224103,0.00411831,-0.00308195,1.23484,0.00417141,0.0201409,1959,988,48.9365,-5.62737
742,36,48.9055,5.78363,-0.00302582,0.00486453,0.00163816,0.00519112,-0.0033524,1.37401,0.00497054,0.0159817,1966,988,48.9056,-5.78365
749,36,48.8976,5.99744,-0.00408213,0.00688036,0.000885399,0.00695141,-0.00415318,1.49072,0.00647873,0.0169618,1973,988,48.8975,-5.99742
756,36,48.8796,6.19702,-0.00520024,0.00949249,-5.50417e-05,0.0094927,-0.00520045,-1.56705,0.0086029,0.0165216,1980,988,48.8796,-6.19702
763,36,48.7858,6.37482,-0.00626344,0.0127477,-0.00108866,0.0128099,-0.00632558,-1.51378,0.0112573,0.0196846,1987,988,48.7858,-6.37482
770,36,48.7234,6.60364,-0.00691127,0.016538,-0.00195933,0.0167006,-0.00707386,-1.48801,0.0140963,0.0166458,1994,988,48.7234,-6.60364
777,36,48.7573,6.91382,-0.00708808,0.0202695,-0.00268425,0.0205304,-0.00734897,-1.47391,0.0166851,0.0253032,2001,988,48.7573,-6.91382
784,36,48.9233,7.35278,-0.0061315,0.0238642,-0.00284603,0.0241318,-0.00639915,-1.47703,0.0185917,0.0470622,2008,988,48.9233,-7.35277
791,36,49.0654,7.77478,0,0,0,0,0,0,0,-1,2015,988,49.0654,-7.77481
798,36,48.1423,7.30859,0,0,0,0,0,0,0,-1,2022,988,48.1422,-7.30862
805,36,48.7246,7.81207,0,0,0,0,0,0,0,-1,2029,988,48.7247,-7.81208
812,36,47.6907,8.15302,0,0,0,0,0,0,0,-1,2036,988,47.6907,-8.15304
-700,29,0,0,0,0,0,0,0,0,0,-1,524,995,0,0
-693,29,-35.4083,1.82428,0,0,0,0,0,0,0,-1,531,995,-35.4083,-1.82431
-686,29,-35.8528,2.49463,0,0,0,0,0,0,0,-1,538,995,-35.8528,-2.49465
-679,29,-36.1918,2.71844,-0.0280275,0.0258911,0.0187459,0.0317679,-0.0339044,1.267,0.0379226,0.0467516,545,995,-36.1918,-2.71843
-672,29,-36.2957,2.86255,-0.0234817,0.0231828,0.0149281,0.0275496,-0.0278486,1.28621,0.0319843,0.0453873,552,995,-36.2957,-2.86255
-665,29,-36.1497,3.00916,-0.0195445,0.0207242,0.0120345,0.0240466,-0.022867,1.30143,0.0270884,0.0433105,559,995,-36.1497,-3.00913
-658,29,-36.0847,2.98615,-0.0161416,0.0183833,0.00978498,0.0209637,-0.0187219,1.31296,0.0229247,0.0459289,566,995,-36.0847,-2.98616
-651,29,-36.781,3.02124,0,0,0,0,0,0,0,-1,573,995,-36.781,-3.02123
-644,29,-37.1423,3.32593,-0.010396,0.013897,0.00598831,0.0152929,-0.0117919,1.34178,0.0156809,0.0439231,580,995,-37.1423,-3.32593
-637,29,-37.3531,3.5072,-0.0076635,0.0122644,0.00324619,0.0127798,-0.00817896,1.41332,0.0121974,0.0255745,587,995,-37.3532,-3.50718
-630,29,-37.3314,3.50159,-0.00506853,0.00998096,0.00103961,0.0100524,-0.00514,1.50215,0.00892289,0.0132779,594,995,-37.3314,-3.50156
-623,29,-37.3236,3.43109,-0.0029502,0.00773819,-0.000770611,0.00779346,-0.00300547,-1.49919,0.0064358,0.0119954,601,995,-37.3236,-3.43109
-616,29,-37.3517,3.29926,-0.00152423,0.00614214,-0.00261238,0.00694769,-0.00232977,-1.27169,0.00557314,0.0135722,608,995,-37.3517,-3.29924
-609,29,-37.3677,3.19568,-0.000556261,0.00509965,-0.00440511,0.00750642,-0.00296303,-1.07075,0.00623138,0.0203532,615,995,-37.3677,-3.19567
-602,29,-37.4068,3.05847,-0.000148316,0.00426582,-0.00608583,0.00853243,-0.00441492,-0.959351,0.00760011,0.0220357,622,995,-37.4068,-3.05848
-595,29,-37.4565,2.79871,-0.000243285,0.00302934,-0.00698481,0.00856694,-0.00578089,-0.900457,0.00833562,0.0227898,629,995,-37.4566,-2.79869
-588,29,-37.2318,2.1333,-0.000203034,0.00201214,-0.00738966,0.00837676,-0.00656765,-0.859786,0.00864921,0.0385121,636,995,-37.2318,-2.13329
-581,29,-37.0137,1.32196,0,0,0,0,0,0,0,-1,643,995,-37.0137,-1.32194
-574,29,-37.0071,0.885132,-3.78403e-05,0.000828043,-0.00695762,0.00736618,-0.00657598,-0.816471,0.00805382,0.0294722,650,995,-37.0072,-0.885124
-567,29,-37.0135,0.741882,-0.000493955,0.000565018,-0.00601615,0.00607493,-0.00600387,-0.829291,0.00697374,0.0305799,657,995,-37.0135,-0.741881
-560,29,-37.1104,0.730957,-0.000914852,0.000413873,-0.00444825,0.0042471,-0.00474808,-0.859527,0.00519605,0.0365694,664,995,-37.1104,-0.73097
-553,29,-37.1977,0.794189,-0.00114547,0.000227015,-0.00227021,0.00191243,-0.00283089,-0.932173,0.00275562,0.0408184,671,995,-37.1977,-0.79418
-546,29,-37.0923,0.699585,-0.000946774,-0.000224453,0.000549383,7.18497e-05,-0.00124308,1.07618,0.000853676,0.0425618,678,995,-37.0923,-0.699607
-539,29,-37.1833,0.938843,0.000138972,-0.000987107,0.00353409,0.00315459,-0.00400272,0.706404,0.00414194,0.0409694,685,995,-37.1833,-0.938846
-532,29,-37.1814,1.08612,0.00276944,-0.00178299,0.00514991,0.00612374,-0.00513729,0.577311,0.00650987,0.0432613,692,995,-37.1814,-1.08614
-525,29,-37.1329,1.1568,0.00522212,-0.00262147,0.00639335,0.00880068,-0.00620003,0.510285,0.00870394,0.0483737,699,995,-37.1329,-1.15679
-518,29,0,0,0,0,0,0,0,0,0,-1,706,995,0,0
-511,29,0,0,0,0,0,0,0,0,0,-1,713,995,0,0
-504,29,0,0,0,0,0,0,0,0,0,-1,720,995,0,0
-497,29,0,0,0,0,0,0,0,0,0,-1,727,995,0,0
-490,29,0,0,0,0,0,0,0,0,0,-1,734,995,0,0
-483,29,0,0,0,0,0,0,0,0,0,-1,741,995,0,0
-476,29,0,0,0,0,0,0,0,0,0,-1,748,995,0,0
-469,29,0,0,0,0,0,0,0,0,0,-1,755,995,0,0
-462,29,0,0,0,0,0,0,0,0,0,-1,762,995,0,0
-455,29,0,0,0,0,0,0,0,0,0,-1,769,995,0,0
-448,29,0,0,0,0,0,0,0,0,0,-1,776,995,0,0
-441,29,0,0,0,0,0,0,0,0,0,-1,783,995,0,0
-434,29,0,0,0,0,0,0,0,0,0,-1,790,995,0,0
-427,29,0,0,0,0,0,0,0,0,0,-1,797,995,0,0
-420,29,0,0,0,0,0,0,0,0,0,-1,804,995,0,0
-413,29,0,0,0,0,0,0,0,0,0,-1,811,995,0,0
-406,29,0,0,0,0,0,0,0,0,0,-1,818,995,0,0
-399,29,0,0,0,0,0,0,0,0,0,-1,825,995,0,0
-392,29,0,0,0,0,0,0,0,0,0,-1,832,995,0,0
-385,29,0,0,0,0,0,0,0,0,0,-1,839,995,0,0
-378,29,0,0,0,0,0,0,0,0,0,-1,846,995,0,0
-371,29,0,0,0,0,0,0,0,0,0,-1,853,995,0,0
-364,29,0,0,0,0,0,0,0,0,0,-1,860,995,0,0
-357,29,0,0,0,0,0,0,0,0,0,-1,867,995,0,0
-350,29,0,0,0,0,0,0,0,0,0,-1,874,995,0,0
-343,29,0,0,0,0,0,0,0,0,0,-1,881,995,0,0
-336,29,0,0,0,0,0,0,0,0,0,-1,888,995,0,0
-329,29,0,0,0,0,0,0,0,0,0,-1,895,995,0,0
-322,29,0,0,0,0,0,0,0,0,0,-1,902,995,0,0
-315,29,0,0,0,0,0,0,0,0,0,-1,909,995,0,0
-308,29,0,0,0,0,0,0,0,0,0,-1,916,995,0,0
-301,29,0,0,0,0,0,0,0,0,0,-1,923,995,0,0
-294,29,0,0,0,0,0,0,0,0,0,-1,930,995,0,0
-287,29,0,0,0,0,0,0,0,0,0,-1,937,995,0,0
-280,29,0,0,0,0,0,0,0,0,0,-1,944,995,0,0
-273,29,0,0,0,0,0,0,0,0,0,-1,951,995,0,0
-266,29,0,0,0,0,0,0,0,0,0,-1,958,995,0,0
-259,29,0,0,0,0,0,0,0,0,0,-1,965,995,0,0
-252,29,0,0,0,0,0,0,0,0,0,-1,972,995,0,0
-245,29,0,0,0,0,0,0,0,0,0,-1,979,995,0,0
-238,29,0,0,0,0,0,0,0,0,0,-1,986,995,0,0
-231,29,0,0,0,0,0,0,0,0,0,-1,993,995,0,0
-224,29,0,0,0,0,0,0,0,0,0,-1,1000,995,0,0
-217,29,0,0,0,0,0,0,0,0,0,-1,1007,995,0,0
-210,29,0,0,0,0,0,0,0,0,0,-1,1014,995,0,0
-203,29,0,0,0,0,0,0,0,0,0,-1,1021,995,0,0
-196,29,0,0,0,0,0,0,0,0,0,-1,1028,995,0,0
-189,29,0,0,0,0,0,0,0,0,0,-1,1035,995,0,0
-182,29,0,0,0,0,0,0,0,0,0,-1,1042,995,0,0
-175,29,0,0,0,0,0,0,0,0,0,-1,1049,995,0,0
-168,29,0,0,0,0,0,0,0,0,0,-1,1056,995,0,0
-161,29,0,0,0,0,0,0,0,0,0,-1,1063,995,0,0
-154,29,0,0,0,0,0,0,0,0,0,-1,1070,995,0,0
-147,29,0,0,0,0,0,0,0,0,0,-1,1077,995,0,0
-140,29,0,0,0,0,0,0,0,0,0,-1,1084,995,0,0
-133,29,0,0,0,0,0,0,0,0,0,-1,1091,995,0,0
-126,29,0,0,0,0,0,0,0,0,0,-1,1098,995,0,0
-119,29,0,0,0,0,0,0,0,0,0,-1,1105,995,0,0
-112,29,0,0,0,0,0,0,0,0,0,-1,1112,995,0,0
-105,29,0,0,0,0,0,0,0,0,0,-1,1119,995,0,0
-98,29,0,0,0,0,0,0,0,0,0,-1,1126,995,0,0
-91,29,0,0,0,0,0,0,0,0,0,-1,1133,995,0,0
-84,29,0,0,0,0,0,0,0,0,0,-1,1140,995,0,0
-77,29,0,0,0,0,0,0,0,0,0,-1,1147,995,0,0
-70,29,0,0,0,0,0,0,0,0,0,-1,1154,995,0,0
-63,29,0,0,0,0,0,0,0,0,0,-1,1161,995,0,0
-56,29,0,0,0,0,0,0,0,0,0,-1,1168,995,0,0
-49,29,0,0,0,0,0,0,0,0,0,-1,1175,995,0,0
-42,29,0,0,0,0,0,0,0,0,0,-1,1182,995,0,0
-35,29,0,0,0,0,0,0,0,0,0,-1,1189,995,0,0
-28,29,0,0,0,0,0,0,0,0,0,-1,1196,995,0,0
-21,29,0,0,0,0,0,0,0,0,0,-1,1203,995,0,0
-14,29,0,0,0,0,0,0,0,0,0,-1,1210,995,0,0
-7,29,0,0,0,0,0,0,0,0,0,-1,1217,995,0,0
0,29,0,0,0,0,0,0,0,0,0,-1,1224,995,0,0
7,29,0,0,0,0,0,0,0,0,0,-1,1231,995,0,0
14,29,0,0,0,0,0,0,0,0,0,-1,1238,995,0,0
21,29,0,0,0,0,0,0,0,0,0,-1,1245,995,0,0
28,29,0,0,0,0,0,0,0,0,0,-1,1252,995,0,0
35,29,0,0,0,0,0,0,0,0,0,-1,1259,995,0,0
42,29,0,0,0,0,0,0,0,0,0,-1,1266,995,0,0
49,29,0,0,0,0,0,0,0,0,0,-1,1273,995,0,0
56,29,0,0,0,0,0,0,0,0,0,-1,1280,995,0,0
63,29,0,0,0,0,0,0,0,0,0,-1,1287,995,0,0
70,29,0,0,0,0,0,0,0,0,0,-1,1294,995,0,0
77,29,0,0,0,0,0,0,0,0,0,-1,1301,995,0,0
84,29,0,0,0,0,0,0,0,0,0,-1,1308,995,0,0
91,29,0,0,0,0,0,0,0,0,0,-1,1315,995,0,0
98,29,0,0,0,0,0,0,0,0,0,-1,1322,995,0,0
105,29,0,0,0,0,0,0,0,0,0,-1,1329,995,0,0
112,29,0,0,0,0,0,0,0,0,0,-1,1336,995,0,0
119,29,0,0,0,0,0,0,0,0,0,-1,1343,995,0,0
126,29,0,0,0,0,0,0,0,0,0,-1,1350,995,0,0
133,29,0,0,0,0,0,0,0,0,0,-1,1357,995,0,0
140,29,0,0,0,0,0,0,0,0,0,-1,1364,995,0,0
147,29,0,0,0,0,0,0,0,0,0,-1,1371,995,0,0
154,29,0,0,0,0,0,0,0,0,0,-1,1378,995,0,0
161,29,0,0,0,0,0,0,0,0,0,-1,1385,995,0,0
168,29,0,0,0,0,0,0,0,0,0,-1,1392,995,0,0
175,29,0,0,0,0,0,0,0,0,0,-1,1399,995,0,0
182,29,0,0,0,0,0,0,0,0,0,-1,1406,995,0,0
189,29,0,0,0,0,0,0,0,0,0,-1,1413,995,0,0
196,29,0,0,0,0,0,0,0,0,0,-1,1420,995,0,0
203,29,0,0,0,0,0,0,0,0,0,-1,1427,995,0,0
210,29,0,0,0,0,0,0,0,0,0,-1,1434,995,0,0
217,29,0,0,0,0,0,0,0,0,0,-1,1441,995,0,0
224,29,0,0,0,0,0,0,0,0,0,-1,1448,995,0,0
231,29,0,0,0,0,0,0,0,0,0,-1,1455,995,0,0
238,29,0,0,0,0,0,0,0,0,0,-1,1462,995,0,0
245,29,0,0,0,0,0,0,0,0,0,-1,1469,995,0,0
252,29,0,0,0,0,0,0,0,0,0,-1,1476,995,0,0
259,29,0,0,0,0,0,0,0,0,0,-1,1483,995,0,0
266,29,0,0,0,0,0,0,0,0,0,-1,1490,995,0,0
273,29,0,0,0,0,0,0,0,0,0,-1,1497,995,0,0
280,29,0,0,0,0,0,0,0,0,0,-1,1504,995,0,0
287,29,0,0,0,0,0,0,0,0,0,-1,1511,995,0,0
294,29,0,0,0,0,0,0,0,0,0,-1,1518,995,0,0
301,29,0,0,0,0,0,0,0,0,0,-1,1525,995,0,0
308,29,0,0,0,0,0,0,0,0,0,-1,1532,995,0,0
315,29,0,0,0,0,0,0,0,0,0,-1,1539,995,0,0
322,29,0,0,0,0,0,0,0,0,0,-1,1546,995,0,0
329,29,0,0,0,0,0,0,0,0,0,-1,1553,995,0,0
336,29,0,0,0,0,0,0,0,0,0,-1,1560,995,0,0
343,29,0,0,0,0,0,0,0,0,0,-1,1567,995,0,0
350,29,0,0,0,0,0,0,0,0,0,-1,1574,995,0,0
357,29,0,0,0,0,0,0,0,0,0,-1,1581,995,0,0
364,29,0,0,0,0,0,0,0,0,0,-1,1588,995,0,0
371,29,0,0,0,0,0,0,0,0,0,-1,1595,995,0,0
378,29,0,0,0,0,0,0,0,0,0,-1,1602,995,0,0
385,29,0,0,0,0,0,0,0,0,0,-1,1609,995,0,0
392,29,0,0,0,0,0,0,0,0,0,-1,1616,995,0,0
399,29,0,0,0,0,0,0,0,0,0,-1,1623,995,0,0
406,29,0,0,0,0,0,0,0,0,0,-1,1630,995,0,0
413,29,0,0,0,0,0,0,0,0,0,-1,1637,995,0,0
420,29,0,0,0,0,0,0,0,0,0,-1,1644,995,0,0
427,29,0,0,0,0,0,0,0,0,0,-1,1651,995,0,0
434,29,0,0,0,0,0,0,0,0,0,-1,1658,995,0,0
441,29,0,0,0,0,0,0,0,0,0,-1,1665,995,0,0
448,29,0,0,0,0,0,0,0,0,0,-1,1672,995,0,0
455,29,0,0,0,0,0,0,0,0,0,-1,1679,995,0,0
462,29,0,0,0,0,0,0,0,0,0,-1,1686,995,0,0
469,29,0,0,0,0,0,0,0,0,0,-1,1693,995,0,0
476,29,0,0,0,0,0,0,0,0,0,-1,1700,995,0,0
483,29,0,0,0,0,0,0,0,0,0,-1,1707,995,0,0
490,29,0,0,0,0,0,0,0,0,0,-1,1714,995,0,0
497,29,0,0,0,0,0,0,0,0,0,-1,1721,995,0,0
504,29,0,0,0,0,0,0,0,0,0,-1,1728,995,0,0
511,29,0,0,0,0,0,0,0,0,0,-1,1735,995,0,0
518,29,0,0,0,0,0,0,0,0,0,-1,1742,995,0,0
525,29,0,0,0,0,0,0,0,0,0,-1,1749,995,0,0
532,29,0,0,0,0,0,0,0,0,0,-1,1756,995,0,0
539,29,0,0,0,0,0,0,0,0,0,-1,1763,995,0,0
546,29,0,0,0,0,0,0,0,0,0,-1,1770,995,0,0
553,29,0,0,0,0,0,0,0,0,0,-1,1777,995,0,0
560,29,0,0,0,0,0,0,0,0,0,-1,1784,995,0,0
567,29,0,0,0,0,0,0,0,0,0,-1,1791,995,0,0
574,29,0,0,0,0,0,0,0,0,0,-1,1798,995,0,0
581,29,0,0,0,0,0,0,0,0,0,-1,1805,995,0,0
588,29,0,0,0,0,0,0,0,0,0,-1,1812,995,0,0
595,29,0,0,0,0,0,0,0,0,0,-1,1819,995,0,0
602,29,0,0,0,0,0,0,0,0,0,-1,1826,995,0,0
609,29,0,0,0,0,0,0,0,0,0,-1,1833,995,0,0
616,29,0,0,0,0,0,0,0,0,0,-1,1840,995,0,0
623,29,0,0,0,0,0,0,0,0,0,-1,1847,995,0,0
630,29,0,0,0,0,0,0,0,0,0,-1,1854,995,0,0
637,29,0,0,0,0,0,0,0,0,0,-1,1861,995,0,0
644,29,49.6166,2.8819,0.00109227,0.00559497,0.0021339,0.00644557,0.00024167,1.19149,0.0042188,0.0434261,1868,995,49.6166,-2.88192
651,29,49.5623,2.93176,0.000585905,0.00403171,0.00104798,0.0043254,0.000292213,1.29756,0.0027913,0.0439841,1875,995,49.5622,-2.93173
658,29,49.6814,3.01886,0.000120022,0.00289873,0.000472656,0.00297693,4.18244e-05,1.40684,0.00197083,0.0428569,1882,995,49.6814,-3.01889
665,29,49.7125,3.03992,-0.000192186,0.00208802,0.000288013,0.00212384,-0.000228002,1.44708,0.00149769,0.0382722,1889,995,49.7125,-3.0399
672,29,49.5632,2.93408,-0.000416244,0.0015047,0.000422399,0.00159347,-0.000505023,1.36363,0.00126473,0.0389395,1896,995,49.5633,-2.93409
679,29,49.5913,2.72662,-0.000456988,0.00109366,0.00101545,0.00159593,-0.000959264,1.11145,0.00149043,0.0390824,1903,995,49.5913,-2.72662
686,29,49.5991,2.67615,-0.000289298,0.000625827,0.00175069,0.00197776,-0.00164123,0.913219,0.00209244,0.0359614,1910,995,49.5991,-2.67616
693,29,49.5786,2.71906,-8.02423e-05,0.000212903,0.0023412,0.00241211,-0.00227945,0.81666,0.00270904,0.0361629,1917,995,49.5787,-2.71904
700,29,49.5878,2.69324,2.57874e-05,-2.80729e-05,0.00268639,0.00268538,-0.00268766,0.780386,0.00310213,0.0346876,1924,995,49.5878,-2.69326
707,29,49.5646,2.74567,-0.000140728,8.08554e-05,0.00285416,0.00282637,-0.00288624,0.804797,0.00329824,0.0263537,1931,995,49.5646,-2.74564
714,29,49.5664,3.10638,-0.000610524,0.000500926,0.0028884,0.00288658,-0.00299618,0.880436,0.00339661,0.0454237,1938,995,49.5664,-3.1064
721,29,49.1571,5.12976,0,0,0,0,0,0,0,-1,1945,995,49.1571,-5.12978
728,29,49.1715,5.43103,-0.00183572,0.00223221,0.00287847,0.00372282,-0.00332633,1.09297,0.00407197,0.0290833,1952,995,49.1715,-5.43105
735,29,49.1216,5.68329,-0.00227005,0.00336836,0.00254253,0.00434552,-0.00324721,1.20388,0.00439892,0.017278,1959,995,49.1216,-5.68328
742,29,49.1151,5.81189,-0.00301875,0.00492022,0.0019179,0.00535926,-0.0034578,1.34575,0.00512984,0.0139613,1966,995,49.1151,-5.81187
749,29,49.0929,5.98102,-0.00410774,0.00688631,0.00114514,0.00700432,-0.00422575,1.4681,0.0065495,0.0149154,1973,995,49.093,-5.98105
756,29,49.0742,6.17383,-0.00521529,0.00942119,0.000125439,0.00942227,-0.00521636,1.56223,0.00856711,0.0140823,1980,995,49.0742,-6.17384
763,29,49.0183,6.30023,-0.00618007,0.012523,-0.00112481,0.0125904,-0.00624747,-1.51094,0.0110797,0.0134934,1987,995,49.0183,-6.30023
770,29,48.9297,6.4151,-0.00667601,0.0162261,-0.00229308,0.0164534,-0.00690335,-1.47198,0.0138557,0.0172879,1994,995,48.9296,-6.41512
777,29,48.8613,6.62769,-0.00647933,0.0198671,-0.00335406,0.0202873,-0.00689962,-1.44614,0.0163184,0.028625,2001,995,48.8614,-6.62767
784,29,49.0457,7.18195,0,0,0,0,0,0,0,-1,2008,995,49.0457,-7.18195
791,29,48.3975,6.97223,0,0,0,0,0,0,0,-1,2015,995,48.3975,-6.97226
798,29,48.2903,7.21045,0,0,0,0,0,0,0,-1,2022,995,48.2903,-7.21048
805,29,48.4883,7.36707,0,0,0,0,0,0,0,-1,2029,995,48.4884,-7.36705
812,29,47.155,4.62274,0,0,0,0,0,0,0,-1,2036,995,47.1551,-4.62272
-700,22,0,0,0,0,0,0,0,0,0,-1,524,1002,0,0
-693,22,-35.5781,2.49762,-0.0349928,0.0288952,0.0252908,0.0376948,-0.0437925,1.23596,0.0470906,0.0445992,531,1002,-35.5781,-2.49763
-686,22,-36.0458,2.68359,-0.029985,0.0251519,0.0187864,0.0309444,-0.0357774,1.27171,0.0385555,0.046813,538,1002,-36.0458,-2.68357
-679,22,-36.4518,2.7243,-0.0259479,0.0225159,0.0146123,0.0265807,-0.0300128,1.29948,0.0326943,0.0489703,545,1002,-36.4518,-2.72428
-672,22,-36.5809,2.72095,-0.0222313,0.0203488,0.01168,0.0233423,-0.0252248,1.31991,0.0280472,0.0456044,552,1002,-36.5809,-2.72096
-665,22,-36.4457,3.08997,-0.0188306,0.0183795,0.00946398,0.0206483,-0.0210994,1.33551,0.0241035,0.0440496,559,1002,-36.4457,-3.08997
-658,22,-36.355,3.44092,-0.0157693,0.016454,0.00774086,0.0182171,-0.0175324,1.34685,0.0206412,0.0497768,566,1002,-36.355,-3.44091
-651,22,-36.5532,2.65375,0,0,0,0,0,0,0,-1,573,1002,-36.5531,-2.65374
-644,22,-37.1238,3.0578,-0.0103544,0.0126308,0.00460767,0.01352,-0.0112437,1.38014,0.0143174,0.0391934,580,1002,-37.1239,-3.05777
-637,22,-37.4775,3.36713,-0.00779698,0.0112507,0.00210921,0.0114814,-0.00802774,1.46182,0.0113223,0.0248038,587,1002,-37.4775,-3.36711
-630,22,-37.4538,3.40912,-0.00508509,0.00921708,0.000229294,0.00922075,-0.00508877,1.55477,0.00837563,0.0138855,594,1002,-37.4538,-3.40915
-623,22,-37.4708,3.35376,-0.00261422,0.00721941,-0.0013829,0.00741018,-0.00280499,-1.43371,0.00609424,0.0107857,601,1002,-37.4707,-3.35379
-616,22,-37.4733,3.23712,-0.000954745,0.00576897,-0.00316753,0.00702613,-0.00221191,-1.19297,0.00556977,0.0165334,608,1002,-37.4733,-3.23715
-609,22,-37.5394,3.15833,0.000187646,0.00480335,-0.0049221,0.00793179,-0.00294079,-1.00462,0.006494,0.0277673,615,1002,-37.5394,-3.15835
-602,22,-37.6323,3.06866,0.000771938,0.0040884,-0.00653355,0.00917087,-0.00431053,-0.909675,0.00795031,0.0285069,622,1002,-37.6323,-3.06865
-595,22,-37.5918,2.82782,0.000855074,0.00292533,-0.00739174,0.00935407,-0.00557367,-0.854965,0.00871017,0.0276682,629,1002,-37.5918,-2.82784
-588,22,-37.2357,2.11987,0.00101721,0.00193882,-0.00773868,0.0092304,-0.00627437,-0.815136,0.00900575,0.0445094,636,1002,-37.2357,-2.11989
-581,22,-37.0297,0.949402,0,0,0,0,0,0,0,-1,643,1002,-37.0297,-0.949397
-574,22,-37.001,0.86084,0.0011626,0.000767545,-0.00720406,0.00817184,-0.0062417,-0.771692,0.0083465,0.034123,650,1002,-37.001,-0.860834
-567,22,-36.9684,0.730347,0.000567648,0.000537024,-0.00614786,0.00670021,-0.00559554,-0.784153,0.0071085,0.0311773,657,1002,-36.9684,-0.730323
-560,22,-37.0324,0.837036,-0.000120638,0.000404468,-0.00443695,0.00458663,-0.0043028,-0.814951,0.00513318,0.0348123,664,1002,-37.0324,-0.837008
-553,22,-37.0692,0.828369,-0.00078212,0.0002229,-0.00206685,0.00184745,-0.00240667,-0.904649,0.00246318,0.038408,671,1002,-37.0691,-0.828389
-546,22,-37.0854,0.723511,-0.00115965,-0.000249718,0.00100007,0.000394011,-0.00180338,0.998874,0.00135285,0.0419131,678,1002,-37.0854,-0.723529
-539,22,-37.13,0.83728,-0.00072769,-0.00094595,0.00417747,0.00334208,-0.00501572,0.772339,0.00485752,0.0410052,685,1002,-37.13,-0.837267
-532,22,-37.0794,1.09283,0.00134622,-0.00161763,0.00580927,0.00585961,-0.00613101,0.660514,0.00692338,0.0404504,692,1002,-37.0794,-1.09281
-525,22,0,0,0,0,0,0,0,0,0,-1,699,1002,0,0
-518,22,0,0,0,0,0,0,0,0,0,-1,706,1002,0,0
-511,22,0,0,0,0,0,0,0,0,0,-1,713,1002,0,0
-504,22,0,0,0,0,0,0,0,0,0,-1,720,1002,0,0
-497,22,0,0,0,0,0,0,0,0,0,-1,727,1002,0,0
-490,22,0,0,0,0,0,0,0,0,0,-1,734,1002,0,0
-483,22,0,0,0,0,0,0,0,0,0,-1,741,1002,0,0
-476,22,0,0,0,0,0,0,0,0,0,-1,748,1002,0,0
-469,22,0,0,0,0,0,0,0,0,0,-1,755,1002,0,0
-462,22,0,0,0,0,0,0,0,0,0,-1,762,1002,0,0
-455,22,0,0,0,0,0,0,0,0,0,-1,769,1002,0,0
-448,22,0,0,0,0,0,0,0,0,0,-1,776,1002,0,0
-441,22,0,0,0,0,0,0,0,0,0,-1,783,1002,0,0
-434,22,0,0,0,0,0,0,0,0,0,-1,790,1002,0,0
-427,22,0,0,0,0,0,0,0,0,0,-1,797,1002,0,0
-420,22,0,0,0,0,0,0,0,0,0,-1,804,1002,0,0
-413,22,0,0,0,0,0,0,0,0,0,-1,811,1002,0,0
-406,22,0,0,0,0,0,0,0,0,0,-1,818,1002,0,0
-399,22,0,0,0,0,0,0,0,0,0,-1,825,1002,0,0
-392,22,0,0,0,0,0,0,0,0,0,-1,832,1002,0,0
-385,22,0,0,0,0,0,0,0,0,0,-1,839,1002,0,0
-378,22,0,0,0,0,0,0,0,0,0,-1,846,1002,0,0
-371,22,0,0,0,0,0,0,0,0,0,-1,853,1002,0,0
-364,22,0,0,0,0,0,0,0,0,0,-1,860,1002,0,0
-357,22,0,0,0,0,0,0,0,0,0,-1,867,1002,0,0
-350,22,0,0,0,0,0,0,0,0,0,-1,874,1002,0,0
-343,22,0,0,0,0,0,0,0,0,0,-1,881,1002,0,0
-336,22,0,0,0,0,0,0,0,0,0,-1,888,1002,0,0
-329,22,0,0,0,0,0,0,0,0,0,-1,895,1002,0,0
-322,22,0,0,0,0,0,0,0,0,0,-1,902,1002,0,0
-315,22,0,0,0,0,0,0,0,0,0,-1,909,1002,0,0
-308,22,0,0,0,0,0,0,0,0,0,-1,916,1002,0,0
-301,22,0,0,0,0,0,0,0,0,0,-1,923,1002,0,0
-294,22,0,0,0,0,0,0,0,0,0,-1,930,1002,0,0
-287,22,0,0,0,0,0,0,0,0,0,-1,937,1002,0,0
-280,22,0,0,0,0,0,0,0,0,0,-1,944,1002,0,0
-273,22,0,0,0,0,0,0,0,0,0,-1,951,1002,0,0
-266,22,0,0,0,0,0,0,0,0,0,-1,958,1002,0,0
-259,22,0,0,0,0,0,0,0,0,0,-1,965,1002,0,0
-252,22,0,0,0,0,0,0,0,0,0,-1,972,1002,0,0
-245,22,0,0,0,0,0,0,0,0,0,-1,979,1002,0,0
-238,22,0,0,0,0,0,0,0,0,0,-1,986,1002,0,0
-231,22,0,0,0,0,0,0,0,0,0,-1,993,1002,0,0
-224,22,0,0,0,0,0,0,0,0,0,-1,1000,1002,0,0
-217,22,0,0,0,0,0,0,0,0,0,-1,1007,1002,0,0
-210,22,0,0,0,0,0,0,0,0,0,-1,1014,1002,0,0
-203,22,0,0,0,0,0,0,0,0,0,-1,1021,1002,0,0
-196,22,0,0,0,0,0,0,0,0,0,-1,1028,1002,0,0
-189,22,0,0,0,0,0,0,0,0,0,-1,1035,1002,0,0
-182,22,0,0,0,0,0,0,0,0,0,-1,1042,1002,0,0
-175,22,0,0,0,0,0,0,0,0,0,-1,1049,1002,0,0
-168,22,0,0,0,0,0,0,0,0,0,-1,1056,1002,0,0
-161,22,0,0,0,0,0,0,0,0,0,-1,1063,1002,0,0
-154,22,0,0,0,0,0,0,0,0,0,-1,1070,1002,0,0
-147,22,0,0,0,0,0,0,0,0,0,-1,1077,1002,0,0
-140,22,0,0,0,0,0,0,0,0,0,-1,1084,1002,0,0
-133,22,0,0,0,0,0,0,0,0,0,-1,1091,1002,0,0
-126,22,0,0,0,0,0,0,0,0,0,-1,1098,1002,0,0
-119,22,0,0,0,0,0,0,0,0,0,-1,1105,1002,0,0
-112,22,0,0,0,0,0,0,0,0,0,-1,1112,1002,0,0
-105,22,0,0,0,0,0,0,0,0,0,-1,1119,1002,0,0
-98,22,0,0,0,0,0,0,0,0,0,-1,1126,1002,0,0
-91,22,0,0,0,0,0,0,0,0,0,-1,1133,1002,0,0
-84,22,0,0,0,0,0,0,0,0,0,-1,1140,1002,0,0
-77,22,0,0,0,0,0,0,0,0,0,-1,1147,1002,0,0
-70,22,0,0,0,0,0,0,0,0,0,-1,1154,1002,0,0
-63,22,0,0,0,0,0,0,0,0,0,-1,1161,1002,0,0
-56,22,0,0,0,0,0,0,0,0,0,-1,1168,1002,0,0
-49,22,0,0,0,0,0,0,0,0,0,-1,1175,1002,0,0
-42,22,0,0,0,0,0,0,0,0,0,-1,1182,1002,0,0
-35,22,0,0,0,0,0,0,0,0,0,-1,1189,1002,0,0
-28,22,0,0,0,0,0,0,0,0,0,-1,1196,1002,0,0
-21,22,0,0,0,0,0,0,0,0,0,-1,1203,1002,0,0
-14,22,0,0,0,0,0,0,0,0,0,-1,1210,1002,0,0
-7,22,0,0,0,0,0,0,0,0,0,-1,1217,1002,0,0
0,22,0,0,0,0,0,0,0,0,0,-1,1224,1002,0,0
7,22,0,0,0,0,0,0,0,0,0,-1,1231,1002,0,0
14,22,0,0,0,0,0,0,0,0,0,-1,1238,1002,0,0
21,22,0,0,0,0,0,0,0,0,0,-1,1245,1002,0,0
28,22,0,0,0,0,0,0,0,0,0,-1,1252,1002,0,0
35,22,0,0,0,0,0,0,0,0,0,-1,1259,1002,0,0
42,22,0,0,0,0,0,0,0,0,0,-1,1266,1002,0,0
49,22,0,0,0,0,0,0,0,0,0,-1,1273,1002,0,0
56,22,0,0,0,0,0,0,0,0,0,-1,1280,1002,0,0
63,22,0,0,0,0,0,0,0,0,0,-1,1287,1002,0,0
70,22,0,0,0,0,0,0,0,0,0,-1,1294,1002,0,0
77,22,0,0,0,0,0,0,0,0,0,-1,1301,1002,0,0
84,22,0,0,0,0,0,0,0,0,0,-1,1308,1002,0,0
91,22,0,0,0,0,0,0,0,0,0,-1,1315,1002,0,0
98,22,0,0,0,0,0,0,0,0,0,-1,1322,1002,0,0
105,22,0,0,0,0,0,0,0,0,0,-1,1329,1002,0,0
112,22,0,0,0,0,0,0,0,0,0,-1,1336,1002,0,0
119,22,0,0,0,0,0,0,0,0,0,-1,1343,1002,0,0
126,22,0,0,0,0,0,0,0,0,0,-1,1350,1002,0,0
133,22,0,0,0,0,0,0,0,0,0,-1,1357,1002,0,0
140,22,0,0,0,0,0,0,0,0,0,-1,1364,1002,0,0
147,22,0,0,0,0,0,0,0,0,0,-1,1371,1002,0,0
154,22,0,0,0,0,0,0,0,0,0,-1,1378,1002,0,0
161,22,0,0,0,0,0,0,0,0,0,-1,1385,1002,0,0
168,22,0,0,0,0,0,0,0,0,0,-1,1392,1002,0,0
175,22,0,0,0,0,0,0,0,0,0,-1,1399,1002,0,0
182,22,0,0,0,0,0,0,0,0,0,-1,1406,1002,0,0
189,22,0,0,0,0,0,0,0,0,0,-1,1413,1002,0,0
196,22,0,0,0,0,0,0,0,0,0,-1,1420,1002,0,0
203,22,0,0,0,0,0,0,0,0,0,-1,1427,1002,0,0
210,22,0,0,0,0,0,0,0,0,0,-1,1434,1002,0,0
217,22,0,0,0,0,0,0,0,0,0,-1,1441,1002,0,0
224,22,0,0,0,0,0,0,0,0,0,-1,1448,1002,0,0
231,22,0,0,0,0,0,0,0,0,0,-1,1455,1002,0,0
238,22,0,0,0,0,0,0,0,0,0,-1,1462,1002,0,0
245,22,0,0,0,0,0,0,0,0,0,-1,1469,1002,0,0
252,22,0,0,0,0,0,0,0,0,0,-1,1476,1002,0,0
259,22,0,0,0,0,0,0,0,0,0,-1,1483,1002,0,0
266,22,0,0,0,0,0,0,0,0,0,-1,1490,1002,0,0
273,22,0,0,0,0,0,0,0,0,0,-1,1497,1002,0,0
280,22,0,0,0,0,0,0,0,0,0,-1,1504,1002,0,0
287,22,0,0,0,0,0,0,0,0,0,-1,1511,1002,0,0
294,22,0,0,0,0,0,0,0,0,0,-1,1518,1002,0,0
301,22,0,0,0,0,0,0,0,0,0,-1,1525,1002,0,0
308,22,0,0,0,0,0,0,0,0,0,-1,1532,1002,0,0
315,22,0,0,0,0,0,0,0,0,0,-1,1539,1002,0,0
322,22,0,0,0,0,0,0,0,0,0,-1,1546,1002,0,0
329,22,0,0,0,0,0,0,0,0,0,-1,1553,1002,0,0
336,22,0,0,0,0,0,0,0,0,0,-1,1560,1002,0,0
343,22,0,0,0,0,0,0,0,0,0,-1,1567,1002,0,0
350,22,0,0,0,0,0,0,0,0,0,-1,1574,1002,0,0
357,22,0,0,0,0,0,0,0,0,0,-1,1581,1002,0,0
364,22,0,0,0,0,0,0,0,0,0,-1,1588,1002,0,0
371,22,0,0,0,0,0,0,0,0,0,-1,1595,1002,0,0
378,22,0,0,0,0,0,0,0,0,0,-1,1602,1002,0,0
385,22,0,0,0,0,0,0,0,0,0,-1,1609,1002,0,0
392,22,0,0,0,0,0,0,0,0,0,-1,1616,1002,0,0
399,22,0,0,0,0,0,0,0,0,0,-1,1623,1002,0,0
406,22,0,0,0,0,0,0,0,0,0,-1,1630,1002,0,0
413,22,0,0,0,0,0,0,0,0,0,-1,1637,1002,0,0
420,22,0,0,0,0,0,0,0,0,0,-1,1644,1002,0,0
427,22,0,0,0,0,0,0,0,0,0,-1,1651,1002,0,0
434,22,0,0,0,0,0,0,0,0,0,-1,1658,1002,0,0
441,22,0,0,0,0,0,0,0,0,0,-1,1665,1002,0,0
448,22,0,0,0,0,0,0,0,0,0,-1,1672,1002,0,0
455,22,0,0,0,0,0,0,0,0,0,-1,1679,1002,0,0
462,22,0,0,0,0,0,0,0,0,0,-1,1686,1002,0,0
469,22,0,0,0,0,0,0,0,0,0,-1,1693,1002,0,0
476,22,0,0,0,0,0,0,0,0,0,-1,1700,1002,0,0
483,22,0,0,0,0,0,0,0,0,0,-1,1707,1002,0,0
490,22,0,0,0,0,0,0,0,0,0,-1,1714,1002,0,0
497,22,0,0,0,0,0,0,0,0,0,-1,1721,1002,0,0
504,22,0,0,0,0,0,0,0,0,0,-1,1728,1002,0,0
511,22,0,0,0,0,0,0,0,0,0,-1,1735,1002,0,0
518,22,0,0,0,0,0,0,0,0,0,-1,1742,1002,0,0
525,22,0,0,0,0,0,0,0,0,0,-1,1749,1002,0,0
532,22,0,0,0,0,0,0,0,0,0,-1,1756,1002,0,0
539,22,0,0,0,0,0,0,0,0,0,-1,1763,1002,0,0
546,22,0,0,0,0,0,0,0,0,0,-1,1770,1002,0,0
553,22,0,0,0,0,0,0,0,0,0,-1,1777,1002,0,0
560,22,0,0,0,0,0,0,0,0,0,-1,1784,1002,0,0
567,22,0,0,0,0,0,0,0,0,0,-1,1791,1002,0,0
574,22,0,0,0,0,0,0,0,0,0,-1,1798,1002,0,0
581,22,0,0,0,0,0,0,0,0,0,-1,1805,1002,0,0
588,22,0,0,0,0,0,0,0,0,0,-1,1812,1002,0,0
595,22,0,0,0,0,0,0,0,0,0,-1,1819,1002,0,0
602,22,0,0,0,0,0,0,0,0,0,-1,1826,1002,0,0
609,22,0,0,0,0,0,0,0,0,0,-1,1833,1002,0,0
616,22,0,0,0,0,0,0,0,0,0,-1,1840,1002,0,0
623,22,0,0,0,0,0,0,0,0,0,-1,1847,1002,0,0
630,22,0,0,0,0,0,0,0,0,0,-1,1854,1002,0,0
637,22,0,0,0,0,0,0,0,0,0,-1,1861,1002,0,0
644,22,49.723,2.83673,0.000586525,0.00638831,0.00303371,0.00768486,-0.000710032,1.16691,0.00537557,0.0430223,1868,1002,49.723,-2.83675
651,22,49.6683,2.8764,0.000184149,0.00470461,0.00172985,0.00529061,-0.000401851,1.24417,0.00366837,0.0460048,1875,1002,49.6684,-2.87641
658,22,49.7052,3.01166,-0.000205066,0.00344316,0.000946751,0.00367422,-0.000436123,1.33142,0.00260704,0.0424261,1882,1002,49.7052,-3.01168
665,22,49.6805,2.96942,-0.000449233,0.00252487,0.000610344,0.00264525,-0.000569615,1.37606,0.00198086,0.0382474,1889,1002,49.6806,-2.9694
672,22,49.5743,2.69501,-0.000582309,0.00186004,0.000626341,0.0020113,-0.000733567,1.33384,0.00164099,0.0381174,1896,1002,49.5743,-2.69502
679,22,49.6052,2.54541,-0.000545474,0.00137945,0.00114021,0.0019091,-0.00107513,1.13593,0.00174523,0.0380013,1903,1002,49.6052,-2.54538
686,22,49.6111,2.57928,-0.000342038,0.000840102,0.00187386,0.0022139,-0.00171584,0.938174,0.0022749,0.0372207,1910,1002,49.6111,-2.57926
693,22,49.557,2.75995,-8.67692e-05,0.000341752,0.00251375,0.00265036,-0.00239538,0.827913,0.0029144,0.0361871,1917,1002,49.557,-2.75997
700,22,49.6093,2.70959,6.59537e-05,2.99434e-05,0.00290788,0.00295588,-0.00285999,0.782302,0.00335795,0.0328722,1924,1002,49.6092,-2.70961
707,22,49.5288,2.77136,-5.60101e-05,0.000100633,0.00311096,0.00313426,-0.00308964,0.797983,0.0035934,0.0329012,1931,1002,49.5288,-2.77133
714,22,49.5343,2.8772,-0.000496158,0.000495653,0.00318375,0.00322189,-0.0032224,0.862658,0.00372061,0.0416916,1938,1002,49.5343,-2.8772
721,22,49.3402,4.22791,0,0,0,0,0,0,0,-1,1945,1002,49.3402,-4.22789
728,22,49.2325,5.16724,-0.00189692,0.00218196,0.00320341,0.00394003,-0.003655,1.06886,0.00438602,0.0455711,1952,1002,49.2325,-5.16725
735,22,49.2915,5.7652,-0.00235336,0.00328148,0.00287458,0.00448911,-0.00356099,1.17308,0.00465801,0.016584,1959,1002,49.2916,-5.76521
742,22,49.3036,5.87445,-0.0030819,0.00487505,0.0022501,0.00546726,-0.00367411,1.31344,0.00531151,0.0166001,1966,1002,49.3036,-5.87447
749,22,49.2556,5.9881,-0.00413993,0.0068212,0.00148267,0.00701822,-0.00433694,1.43869,0.00661655,0.0130093,1973,1002,49.2556,-5.98811
756,22,49.2455,6.09888,-0.00511898,0.00934166,0.000453978,0.0093559,-0.00513322,1.53944,0.00848289,0.0178604,1980,1002,49.2455,-6.09889
763,22,49.1787,6.24036,-0.005781,0.0123803,-0.000932203,0.012428,-0.00582873,-1.51965,0.0107676,0.0202734,1987,1002,49.1787,-6.24038
770,22,49.0405,6.31696,-0.00590322,0.01607,-0.00230816,0.0163098,-0.00614307,-1.46726,0.0133988,0.0187603,1994,1002,49.0405,-6.31695
777,22,48.8196,6.27863,-0.00508252,0.0197535,-0.00361317,0.0202685,-0.00559749,-1.42922,0.0157141,0.0375651,2001,1002,48.8195,-6.27866
784,22,48.6448,6.27637,0,0,0,0,0,0,0,-1,2008,1002,48.6447,-6.27634
791,22,48.1096,6.41565,0,0,0,0,0,0,0,-1,2015,1002,48.1097,-6.41563
798,22,48.0718,6.70221,0,0,0,0,0,0,0,-1,2022,1002,48.0719,-6.7022
805,22,48.0747,6.95825,0,0,0,0,0,0,0,-1,2029,1002,48.0746,-6.95827
812,22,46.6714,4.56311,0,0,0,0,0,0,0,-1,2036,1002,46.6713,-4.56312
-700,15,0,0,0,0,0,0,0,0,0,-1,524,1009,0,0
-693,15,-35.6298,2.02533,-0.0321723,0.0244288,0.0170535,0.0291698,-0.0369132,1.29964,0.0382402,0.0455736,531,1009,-35.6298,-2.02534
-686,15,-36.0703,2.20001,-0.0288385,0.0213848,0.0120408,0.0241223,-0.031576,1.34724,0.0322533,0.0452517,538,1009,-36.0703,-2.20002
-679,15,-36.5712,2.6156,-0.0256846,0.0193906,0.00913608,0.021172,-0.027466,1.37823,0.0281594,0.0469664,545,1009,-36.5712,-2.61561
-672,15,-36.8195,2.64648,-0.0224308,0.0178009,0.00727275,0.0190752,-0.0237051,1.39734,0.0247474,0.0429207,552,1009,-36.8195,-2.6465
-665,15,-37.1636,2.52612,0,0,0,0,0,0,0,-1,559,1009,-37.1636,-2.52614
-658,15,-37.2264,2.58997,0,0,0,0,0,0,0,-1,566,1009,-37.2264,-2.58999
-651,15,-36.1127,2.05774,0,0,0,0,0,0,0,-1,573,1009,-36.1127,-2.05775
-644,15,-37.4752,3.25439,0,0,0,0,0,0,0,-1,580,1009,-37.4751,-3.25441
-637,15,-37.4586,3.29993,-0.0082326,0.0104285,0.000733322,0.0104573,-0.00826137,1.53158,0.010832,0.0277771,587,1009,-37.4586,-3.29995
-630,15,-37.4843,3.31476,-0.00526109,0.00861357,-0.000671483,0.00864599,-0.00529351,-1.52255,0.00812519,0.0152056,594,1009,-37.4842,-3.31473
-623,15,-37.5355,3.28699,-0.00243533,0.00683168,-0.00196202,0.00722996,-0.00283361,-1.37052,0.00599217,0.00987099,601,1009,-37.5355,-3.28699
-616,15,-37.5597,3.23804,-0.000584525,0.00548006,-0.0036111,0.00716315,-0.00226761,-1.13464,0.00568413,0.0149995,608,1009,-37.5597,-3.23802
-609,15,-37.5991,3.20184,0.000682381,0.00454284,-0.00526558,0.00822083,-0.00299561,-0.96108,0.00670596,0.0228261,615,1009,-37.5991,-3.20182
-602,15,-37.6287,3.13269,0.00137576,0.00392938,-0.00676257,0.00953462,-0.00422948,-0.878703,0.00814109,0.0233897,622,1009,-37.6286,-3.13272
-595,15,-37.4019,2.45013,0.00159256,0.00283799,-0.00752812,0.0097691,-0.00533855,-0.826664,0.00884655,0.0448125,629,1009,-37.4019,-2.45012
-588,15,-37.0149,1.64673,0,0,0,0,0,0,0,-1,636,1009,-37.0149,-1.64671
-581,15,-36.9946,0.872742,0.00217681,0.00120904,-0.00769191,0.00940004,-0.00601419,-0.753986,0.00897069,0.0406641,643,1009,-36.9946,-0.87276
-574,15,-36.9622,0.811401,0.00196729,0.000716173,-0.00719405,0.00856293,-0.00587947,-0.74203,0.00838616,0.0354043,650,1009,-36.9622,-0.811404
-567,15,-36.9735,0.930725,0.00125646,0.000471746,-0.00609735,0.00697406,-0.00524586,-0.753268,0.00707865,0.0345062,657,1009,-36.9735,-0.930704
-560,15,-36.9056,1.09601,0.000339223,0.000302017,-0.00434061,0.00466127,-0.00402003,-0.783255,0.00501671,0.0379269,664,1009,-36.9056,-1.09599
-553,15,-36.9431,0.93634,-0.000697049,3.16013e-05,-0.00191767,0.00161924,-0.00228469,-0.879271,0.00226482,0.0404409,671,1009,-36.9431,-0.936314
-546,15,-37.0914,0.803467,-0.00159361,-0.000609362,0.00120082,0.000196266,-0.00239924,0.979871,0.00166877,0.0422641,678,1009,-37.0914,-0.803451
-539,15,-37.087,0.911987,-0.001788,-0.0014547,0.00435449,0.00273632,-0.00597902,0.804524,0.00514659,0.0433272,685,1009,-37.0871,-0.91196
-532,15,-37.0154,1.12659,-0.000355349,-0.00234302,0.00587471,0.004609,-0.00730737,0.701606,0.00693847,0.0412931,692,1009,-37.0154,-1.1266
-525,15,0,0,0,0,0,0,0,0,0,-1,699,1009,0,0
-518,15,0,0,0,0,0,0,0,0,0,-1,706,1009,0,0
-511,15,0,0,0,0,0,0,0,0,0,-1,713,1009,0,0
-504,15,0,0,0,0,0,0,0,0,0,-1,720,1009,0,0
-497,15,0,0,0,0,0,0,0,0,0,-1,727,1009,0,0
-490,15,0,0,0,0,0,0,0,0,0,-1,734,1009,0,0
-483,15,0,0,0,0,0,0,0,0,0,-1,741,1009,0,0
-476,15,0,0,0,0,0,0,0,0,0,-1,748,1009,0,0
-469,15,0,0,0,0,0,0,0,0,0,-1,755,1009,0,0
-462,15,0,0,0,0,0,0,0,0,0,-1,762,1009,0,0
-455,15,0,0,0,0,0,0,0,0,0,-1,769,1009,0,0
-448,15,0,0,0,0,0,0,0,0,0,-1,776,1009,0,0
-441,15,0,0,0,0,0,0,0,0,0,-1,783,1009,0,0
-434,15,0,0,0,0,0,0,0,0,0,-1,790,1009,0,0
-427,15,0,0,0,0,0,0,0,0,0,-1,797,1009,0,0
-420,15,0,0,0,0,0,0,0,0,0,-1,804,1009,0,0
-413,15,0,0,0,0,0,0,0,0,0,-1,811,1009,0,0
-406,15,0,0,0,0,0,0,0,0,0,-1,818,1009,0,0
-399,15,0,0,0,0,0,0,0,0,0,-1,825,1009,0,0
-392,15,0,0,0,0,0,0,0,0,0,-1,832,1009,0,0
-385,15,0,0,0,0,0,0,0,0,0,-1,839,1009,0,0
-378,15,0,0,0,0,0,0,0,0,0,-1,846,1009,0,0
-371,15,0,0,0,0,0,0,0,0,0,-1,853,1009,0,0
-364,15,0,0,0,0,0,0,0,0,0,-1,860,1009,0,0
-357,15,0,0,0,0,0,0,0,0,0,-1,867,1009,0,0
-350,15,0,0,0,0,0,0,0,0,0,-1,874,1009,0,0
-343,15,0,0,0,0,0,0,0,0,0,-1,881,1009,0,0
-336,15,0,0,0,0,0,0,0,0,0,-1,888,1009,0,0
-329,15,0,0,0,0,0,0,0,0,0,-1,895,1009,0,0
-322,15,0,0,0,0,0,0,0,0,0,-1,902,1009,0,0
-315,15,0,0,0,0,0,0,0,0,0,-1,909,1009,0,0
-308,15,0,0,0,0,0,0,0,0,0,-1,916,1009,0,0
-301,15,0,0,0,0,0,0,0,0,0,-1,923,1009,0,0
-294,15,0,0,0,0,0,0,0,0,0,-1,930,1009,0,0
-287,15,0,0,0,0,0,0,0,0,0,-1,937,1009,0,0
-280,15,0,0,0,0,0,0,0,0,0,-1,944,1009,0,0
-273,15,0,0,0,0,0,0,0,0,0,-1,951,1009,0,0
-266,15,0,0,0,0,0,0,0,0,0,-1,958,1009,0,0
-259,15,0,0,0,0,0,0,0,0,0,-1,965,1009,0,0
-252,15,0,0,0,0,0,0,0,0,0,-1,972,1009,0,0
-245,15,0,0,0,0,0,0,0,0,0,-1,979,1009,0,0
-238,15,0,0,0,0,0,0,0,0,0,-1,986,1009,0,0
-231,15,0,0,0,0,0,0,0,0,0,-1,993,1009,0,0
-224,15,0,0,0,0,0,0,0,0,0,-1,1000,1009,0,0
-217,15,0,0,0,0,0,0,0,0,0,-1,1007,1009,0,0
-210,15,0,0,0,0,0,0,0,0,0,-1,1014,1009,0,0
-203,15,0,0,0,0,0,0,0,0,0,-1,1021,1009,0,0
-196,15,0,0,0,0,0,0,0,0,0,-1,1028,1009,0,0
-189,15,0,0,0,0,0,0,0,0,0,-1,1035,1009,0,0
-182,15,0,0,0,0,0,0,0,0,0,-1,1042,1009,0,0
-175,15,0,0,0,0,0,0,0,0,0,-1,1049,1009,0,0
-168,15,0,0,0,0,0,0,0,0,0,-1,1056,1009,0,0
-161,15,0,0,0,0,0,0,0,0,0,-1,1063,1009,0,0
-154,15,0,0,0,0,0,0,0,0,0,-1,1070,1009,0,0
-147,15,0,0,0,0,0,0,0,0,0,-1,1077,1009,0,0
-140,15,0,0,0,0,0,0,0,0,0,-1,1084,1009,0,0
-133,15,0,0,0,0,0,0,0,0,0,-1,1091,1009,0,0
-126,15,0,0,0,0,0,0,0,0,0,-1,1098,1009,0,0
-119,15,0,0,0,0,0,0,0,0,0,-1,1105,1009,0,0
-112,15,0,0,0,0,0,0,0,0,0,-1,1112,1009,0,0
-105,15,0,0,0,0,0,0,0,0,0,-1,1119,1009,0,0
-98,15,0,0,0,0,0,0,0,0,0,-1,1126,1009,0,0
-91,15,0,0,0,0,0,0,0,0,0,-1,1133,1009,0,0
-84,15,0,0,0,0,0,0,0,0,0,-1,1140,1009,0,0
-77,15,0,0,0,0,0,0,0,0,0,-1,1147,1009,0,0
-70,15,0,0,0,0,0,0,0,0,0,-1,1154,1009,0,0
-63,15,0,0,0,0,0,0,0,0,0,-1,1161,1009,0,0
-56,15,0,0,0,0,0,0,0,0,0,-1,1168,1009,0,0
-49,15,0,0,0,0,0,0,0,0,0,-1,1175,1009,0,0
-42,15,0,0,0,0,0,0,0,0,0,-1,1182,1009,0,0
-35,15,0,0,0,0,0,0,0,0,0,-1,1189,1009,0,0
-28,15,0,0,0,0,0,0,0,0,0,-1,1196,1009,0,0
-21,15,0,0,0,0,0,0,0,0,0,-1,1203,1009,0,0
-14,15,0,0,0,0,0,0,0,0,0,-1,1210,1009,0,0
-7,15,0,0,0,0,0,0,0,0,0,-1,1217,1009,0,0
0,15,0,0,0,0,0,0,0,0,0,-1,1224,1009,0,0
7,15,0,0,0,0,0,0,0,0,0,-1,1231,1009,0,0
14,15,0,0,0,0,0,0,0,0,0,-1,1238,1009,0,0
21,15,0,0,0,0,0,0,0,0,0,-1,1245,1009,0,0
28,15,0,0,0,0,0,0,0,0,0,-1,1252,1009,0,0
35,15,0,0,0,0,0,0,0,0,0,-1,1259,1009,0,0
42,15,0,0,0,0,0,0,0,0,0,-1,1266,1009,0,0
49,15,0,0,0,0,0,0,0,0,0,-1,1273,1009,0,0
56,15,0,0,0,0,0,0,0,0,0,-1,1280,1009,0,0
63,15,0,0,0,0,0,0,0,0,0,-1,1287,1009,0,0
70,15,0,0,0,0,0,0,0,0,0,-1,1294,1009,0,0
77,15,0,0,0,0,0,0,0,0,0,-1,1301,1009,0,0
84,15,0,0,0,0,0,0,0,0,0,-1,1308,1009,0,0
91,15,0,0,0,0,0,0,0,0,0,-1,1315,1009,0,0
98,15,0,0,0,0,0,0,0,0,0,-1,1322,1009,0,0
105,15,0,0,0,0,0,0,0,0,0,-1,1329,1009,0,0
112,15,0,0,0,0,0,0,0,0,0,-1,1336,1009,0,0
119,15,0,0,0,0,0,0,0,0,0,-1,1343,1009,0,0
126,15,0,0,0,0,0,0,0,0,0,-1,1350,1009,0,0
133,15,0,0,0,0,0,0,0,0,0,-1,1357,1009,0,0
140,15,0,0,0,0,0,0,0,0,0,-1,1364,1009,0,0
147,15,0,0,0,0,0,0,0,0,0,-1,1371,1009,0,0
154,15,0,0,0,0,0,0,0,0,0,-1,1378,1009,0,0
161,15,0,0,0,0,0,0,0,0,0,-1,1385,1009,0,0
168,15,0,0,0,0,0,0,0,0,0,-1,1392,1009,0,0
175,15,0,0,0,0,0,0,0,0,0,-1,1399,1009,0,0
182,15,0,0,0,0,0,0,0,0,0,-1,1406,1009,0,0
189,15,0,0,0,0,0,0,0,0,0,-1,1413,1009,0,0
196,15,0,0,0,0,0,0,0,0,0,-1,1420,1009,0,0
203,15,0,0,0,0,0,0,0,0,0,-1,1427,1009,0,0
210,15,0,0,0,0,0,0,0,0,0,-1,1434,1009,0,0
217,15,0,0,0,0,0,0,0,0,0,-1,1441,1009,0,0
224,15,0,0,0,0,0,0,0,0,0,-1,1448,1009,0,0
231,15,0,0,0,0,0,0,0,0,0,-1,1455,1009,0,0
238,15,0,0,0,0,0,0,0,0,0,-1,1462,1009,0,0
245,15,0,0,0,0,0,0,0,0,0,-1,1469,1009,0,0
252,15,0,0,0,0,0,0,0,0,0,-1,1476,1009,0,0
259,15,0,0,0,0,0,0,0,0,0,-1,1483,1009,0,0
266,15,0,0,0,0,0,0,0,0,0,-1,1490,1009,0,0
273,15,0,0,0,0,0,0,0,0,0,-1,1497,1009,0,0
280,15,0,0,0,0,0,0,0,0,0,-1,1504,1009,0,0
287,15,0,0,0,0,0,0,0,0,0,-1,1511,1009,0,0
294,15,0,0,0,0,0,0,0,0,0,-1,1518,1009,0,0
301,15,0,0,0,0,0,0,0,0,0,-1,1525,1009,0,0
308,15,0,0,0,0,0,0,0,0,0,-1,1532,1009,0,0
315,15,0,0,0,0,0,0,0,0,0,-1,1539,1009,0,0
322,15,0,0,0,0,0,0,0,0,0,-1,1546,1009,0,0
329,15,0,0,0,0,0,0,0,0,0,-1,1553,1009,0,0
336,15,0,0,0,0,0,0,0,0,0,-1,1560,1009,0,0
343,15,0,0,0,0,0,0,0,0,0,-1,1567,1009,0,0
350,15,0,0,0,0,0,0,0,0,0,-1,1574,1009,0,0
357,15,0,0,0,0,0,0,0,0,0,-1,1581,1009,0,0
364,15,0,0,0,0,0,0,0,0,0,-1,1588,1009,0,0
371,15,0,0,0,0,0,0,0,0,0,-1,1595,1009,0,0
378,15,0,0,0,0,0,0,0,0,0,-1,1602,1009,0,0
385,15,0,0,0,0,0,0,0,0,0,-1,1609,1009,0,0
392,15,0,0,0,0,0,0,0,0,0,-1,1616,1009,0,0
399,15,0,0,0,0,0,0,0,0,0,-1,1623,1009,0,0
406,15,0,0,0,0,0,0,0,0,0,-1,1630,1009,0,0
413,15,0,0,0,0,0,0,0,0,0,-1,1637,1009,0,0
420,15,0,0,0,0,0,0,0,0,0,-1,1644,1009,0,0
427,15,0,0,0,0,0,0,0,0,0,-1,1651,1009,0,0
434,15,0,0,0,0,0,0,0,0,0,-1,1658,1009,0,0
441,15,0,0,0,0,0,0,0,0,0,-1,1665,1009,0,0
448,15,0,0,0,0,0,0,0,0,0,-1,1672,1009,0,0
455,15,0,0,0,0,0,0,0,0,0,-1,1679,1009,0,0
462,15,0,0,0,0,0,0,0,0,0,-1,1686,1009,0,0
469,15,0,0,0,0,0,0,0,0,0,-1,1693,1009,0,0
476,15,0,0,0,0,0,0,0,0,0,-1,1700,1009,0,0
483,15,0,0,0,0,0,0,0,0,0,-1,1707,1009,0,0
490,15,0,0,0,0,0,0,0,0,0,-1,1714,1009,0,0
497,15,0,0,0,0,0,0,0,0,0,-1,1721,1009,0,0
504,15,0,0,0,0,0,0,0,0,0,-1,1728,1009,0,0
511,15,0,0,0,0,0,0,0,0,0,-1,1735,1009,0,0
518,15,0,0,0,0,0,0,0,0,0,-1,1742,1009,0,0
525,15,0,0,0,0,0,0,0,0,0,-1,1749,1009,0,0
532,15,0,0,0,0,0,0,0,0,0,-1,1756,1009,0,0
539,15,0,0,0,0,0,0,0,0,0,-1,1763,1009,0,0
546,15,0,0,0,0,0,0,0,0,0,-1,1770,1009,0,0
553,15,0,0,0,0,0,0,0,0,0,-1,1777,1009,0,0
560,15,0,0,0,0,0,0,0,0,0,-1,1784,1009,0,0
567,15,0,0,0,0,0,0,0,0,0,-1,1791,1009,0,0
574,15,0,0,0,0,0,0,0,0,0,-1,1798,1009,0,0
581,15,0,0,0,0,0,0,0,0,0,-1,1805,1009,0,0
588,15,0,0,0,0,0,0,0,0,0,-1,1812,1009,0,0
595,15,0,0,0,0,0,0,0,0,0,-1,1819,1009,0,0
602,15,0,0,0,0,0,0,0,0,0,-1,1826,1009,0,0
609,15,0,0,0,0,0,0,0,0,0,-1,1833,1009,0,0
616,15,0,0,0,0,0,0,0,0,0,-1,1840,1009,0,0
623,15,0,0,0,0,0,0,0,0,0,-1,1847,1009,0,0
630,15,0,0,0,0,0,0,0,0,0,-1,1854,1009,0,0
637,15,0,0,0,0,0,0,0,0,0,-1,1861,1009,0,0
644,15,49.6021,2.54401,5.54144e-05,0.00662011,0.00374436,0.00831712,-0.0016416,1.14527,0.00616523,0.0420159,1868,1009,49.602,-2.544
651,15,49.6106,2.67834,-0.00018824,0.00497217,0.00219226,0.00577774,-0.000993806,1.21865,0.00422226,0.0418249,1875,1009,49.6106,-2.67835
658,15,49.5658,2.64136,-0.000481598,0.00372753,0.00122011,0.00405563,-0.0008097,1.3081,0.00301018,0.0389243,1882,1009,49.5657,-2.64137
665,15,49.5297,2.51782,-0.00066741,0.00280015,0.000766454,0.00296201,-0.000829268,1.36268,0.00230145,0.0378779,1889,1009,49.5296,-2.51783
672,15,49.5557,2.45538,-0.000733362,0.00212489,0.000704484,0.00228909,-0.000897566,1.3418,0.00189739,0.0377538,1896,1009,49.5557,-2.45541
679,15,49.6083,2.48523,-0.000636964,0.00162284,0.00115498,0.00210869,-0.00112281,1.17261,0.00189443,0.037491,1903,1009,49.6083,-2.48521
686,15,49.6101,2.55615,-0.000407169,0.00104361,0.00188221,0.00233537,-0.00169893,0.969324,0.00233885,0.0403745,1910,1009,49.6101,-2.55612
693,15,49.5815,2.58734,-0.000113301,0.000489184,0.00256156,0.00276716,-0.00239128,0.84393,0.00298086,0.0390323,1917,1009,49.5815,-2.58736
700,15,49.5894,2.65131,8.32831e-05,0.0001181,0.00300387,0.00310462,-0.00290323,0.788296,0.00346928,0.0303915,1924,1009,49.5893,-2.65128
707,15,49.5355,2.74829,9.06637e-06,0.00014452,0.00323425,0.00331175,-0.00315816,0.795867,0.00373575,0.029659,1931,1009,49.5355,-2.74831
714,15,49.5654,2.77026,-0.000405405,0.000507327,0.00335048,0.00343238,-0.00333046,0.853086,0.00390467,0.0360021,1938,1009,49.5655,-2.77024
721,15,49.387,3.77625,0,0,0,0,0,0,0,-1,1945,1009,49.387,-3.77626
728,15,49.1606,5.23901,-0.00194586,0.00212805,0.00341174,0.00406466,-0.00388247,1.05452,0.00458868,0.0488216,1952,1009,49.1606,-5.23904
735,15,49.3553,5.79663,-0.00240014,0.00317255,0.00309239,0.00454873,-0.00377632,1.15209,0.00481336,0.0183793,1959,1009,49.3554,-5.79664
742,15,49.3767,5.9577,-0.00305716,0.00477296,0.0024933,0.00549947,-0.00378368,1.28726,0.00539006,0.0325613,1966,1009,49.3767,-5.95771
749,15,49.3719,6.02228,-0.0040697,0.00665291,0.00174571,0.00692996,-0.00434675,1.4134,0.00656731,0.0202092,1973,1009,49.372,-6.02227
756,15,49.3728,5.9928,-0.0050133,0.00913516,0.000719892,0.0091717,-0.00504984,1.52009,0.00832497,0.0167061,1980,1009,49.3728,-5.99283
763,15,49.3032,6.11853,-0.0055906,0.0120695,-0.000758957,0.012102,-0.00562316,-1.52793,0.010459,0.0142813,1987,1009,49.3032,-6.1185
770,15,49.184,6.15424,-0.00566194,0.0156628,-0.00232863,0.0159141,-0.00591326,-1.46329,0.0130355,0.0183894,1994,1009,49.184,-6.15424
777,15,48.8699,6.15173,-0.00474196,0.0192996,-0.00391425,0.0199209,-0.00536319,-1.4134,0.0153832,0.040559,2001,1009,48.8698,-6.15175
784,15,48.6113,6.13141,0,0,0,0,0,0,0,-1,2008,1009,48.6114,-6.13139
791,15,47.7546,5.81818,0,0,0,0,0,0,0,-1,2015,1009,47.7547,-5.81817
798,15,47.7498,6.1192,0,0,0,0,0,0,0,-1,2022,1009,47.7496,-6.1192
805,15,47.6919,6.42041,0,0,0,0,0,0,0,-1,2029,1009,47.6918,-6.42044
812,15,47.5364,5.93921,0,0,0,0,0,0,0,-1,2036,1009,47.5364,-5.93921
-700,8,0,0,0,0,0,0,0,0,0,-1,524,1016,0,0
-693,8,-35.9124,2.10034,-0.0293438,0.0229393,0.00660463,0.0237607,-0.0301653,1.44706,0.0312073,0.0437349,531,1016,-35.9123,-2.10033
-686,8,-36.4094,2.40009,-0.0279825,0.0201582,0.00351745,0.0204139,-0.0282382,1.49824,0.0282101,0.0431867,538,1016,-36.4094,-2.40006
-679,8,-36.7925,2.53156,-0.0258688,0.0183514,0.00226182,0.0184668,-0.0259842,1.51982,0.0257858,0.0450641,545,1016,-36.7925,-2.53156
-672,8,-37.0685,2.61615,-0.0231384,0.0169132,0.00178782,0.0169928,-0.023218,1.52628,0.0233083,0.0433692,552,1016,-37.0685,-2.61615
-665,8,-37.2745,2.62079,-0.0201808,0.0155599,0.00160465,0.0156318,-0.0202527,1.52602,0.0207751,0.0460929,559,1016,-37.2745,-2.62082
-658,8,-37.2859,2.68939,-0.0172217,0.0141353,0.00152758,0.0142095,-0.017296,1.52223,0.0182188,0.0414061,566,1016,-37.2859,-2.68941
-651,8,-36.9595,2.9389,0,0,0,0,0,0,0,-1,573,1016,-36.9595,-2.93893
-644,8,-37.2396,2.95221,0,0,0,0,0,0,0,-1,580,1016,-37.2396,-2.95222
-637,8,-37.2999,3.104,-0.00901262,0.00994839,-0.000848474,0.00998628,-0.00905051,-1.52617,0.0109953,0.0389073,587,1016,-37.2999,-3.10403
-630,8,-37.5215,3.25159,-0.00577514,0.00819022,-0.00167851,0.00838912,-0.00597404,-1.45284,0.00833156,0.0224506,594,1016,-37.5215,-3.25158
-623,8,-37.5092,3.27509,-0.00262061,0.00654049,-0.00266817,0.00726094,-0.00334106,-1.30707,0.00625897,0.0153125,601,1016,-37.5092,-3.27508
-616,8,-37.5428,3.23444,-0.000586325,0.00525486,-0.00414735,0.00740678,-0.00273825,-1.09217,0.00606044,0.01601,608,1016,-37.5429,-3.23445
-609,8,-37.5685,3.17847,0.000790107,0.00434263,-0.00566305,0.00850146,-0.00336871,-0.937368,0.00706358,0.019826,615,1016,-37.5685,-3.17849
-602,8,-37.5456,3.21289,0.00157346,0.00380363,-0.00697981,0.00975687,-0.00437977,-0.864608,0.00835628,0.0237931,622,1016,-37.5456,-3.21289
-595,8,-37.5656,3.16803,0,0,0,0,0,0,0,-1,629,1016,-37.5656,-3.16801
-588,8,-36.9613,0.723267,0,0,0,0,0,0,0,-1,636,1016,-36.9613,-0.723254
-581,8,-36.9603,0.905884,0.00260875,0.00114551,-0.00751474,0.0094274,-0.00567314,-0.736872,0.00880765,0.0318924,643,1016,-36.9602,-0.905866
-574,8,-36.8675,1.13055,0.0023561,0.000636276,-0.00693798,0.00848726,-0.00549488,-0.723741,0.00813398,0.0377159,650,1016,-36.8675,-1.13057
-567,8,-36.881,1.26733,0.00157766,0.000335751,-0.00577371,0.00676371,-0.0048503,-0.73183,0.00673561,0.0407374,657,1016,-36.8811,-1.26736
-560,8,-36.8779,1.185,0.000504791,5.92181e-05,-0.00396025,0.00424852,-0.00368451,-0.7573,0.00458399,0.0400589,664,1016,-36.878,-1.18499
-553,8,-36.9038,0.943298,-0.00081709,-0.000396286,-0.00149328,0.000901341,-0.00211472,-0.855387,0.00178768,0.0398982,671,1016,-36.9038,-0.943327
-546,8,-37.1302,0.812378,-0.00215619,-0.00133908,0.00164052,-5.70002e-05,-0.00343826,0.907435,0.00227341,0.0401636,678,1016,-37.1302,-0.812398
-539,8,-37.1741,1.03314,-0.00295163,-0.00251106,0.00467519,0.00194903,-0.00741172,0.808939,0.00570294,0.0407248,685,1016,-37.1741,-1.03312
-532,8,-37.1147,1.05945,-0.00223573,-0.00378194,0.00598917,0.00303003,-0.00904769,0.721211,0.00725585,0.0409385,692,1016,-37.1147,-1.05943
-525,8,0,0,0,0,0,0,0,0,0,-1,699,1016,0,0
-518,8,0,0,0,0,0,0,0,0,0,-1,706,1016,0,0
-511,8,0,0,0,0,0,0,0,0,0,-1,713,1016,0,0
-504,8,0,0,0,0,0,0,0,0,0,-1,720,1016,0,0
-497,8,0,0,0,0,0,0,0,0,0,-1,727,1016,0,0
-490,8,0,0,0,0,0,0,0,0,0,-1,734,1016,0,0
-483,8,0,0,0,0,0,0,0,0,0,-1,741,1016,0,0
-476,8,0,0,0,0,0,0,0,0,0,-1,748,1016,0,0
-469,8,0,0,0,0,0,0,0,0,0,-1,755,1016,0,0
-462,8,0,0,0,0,0,0,0,0,0,-1,762,1016,0,0
-455,8,0,0,0,0,0,0,0,0,0,-1,769,1016,0,0
-448,8,0,0,0,0,0,0,0,0,0,-1,776,1016,0,0
-441,8,0,0,0,0,0,0,0,0,0,-1,783,1016,0,0
-434,8,0,0,0,0,0,0,0,0,0,-1,790,1016,0,0
-427,8,0,0,0,0,0,0,0,0,0,-1,797,1016,0,0
-420,8,0,0,0,0,0,0,0,0,0,-1,804,1016,0,0
-413,8,0,0,0,0,0,0,0,0,0,-1,811,1016,0,0
-406,8,0,0,0,0,0,0,0,0,0,-1,818,1016,0,0
-399,8,0,0,0,0,0,0,0,0,0,-1,825,1016,0,0
-392,8,0,0,0,0,0,0,0,0,0,-1,832,1016,0,0
-385,8,0,0,0,0,0,0,0,0,0,-1,839,1016,0,0
-378,8,0,0,0,0,0,0,0,0,0,-1,846,1016,0,0
-371,8,0,0,0,0,0,0,0,0,0,-1,853,1016,0,0
-364,8,0,0,0,0,0,0,0,0,0,-1,860,1016,0,0
-357,8,0,0,0,0,0,0,0,0,0,-1,867,1016,0,0
-350,8,0,0,0,0,0,0,0,0,0,-1,874,1016,0,0
-343,8,0,0,0,0,0,0,0,0,0,-1,881,1016,0,0
-336,8,0,0,0,0,0,0,0,0,0,-1,888,1016,0,0
-329,8,0,0,0,0,0,0,0,0,0,-1,895,1016,0,0
-322,8,0,0,0,0,0,0,0,0,0,-1,902,1016,0,0
-315,8,0,0,0,0,0,0,0,0,0,-1,909,1016,0,0
-308,8,0,0,0,0,0,0,0,0,0,-1,916,1016,0,0
-301,8,0,0,0,0,0,0,0,0,0,-1,923,1016,0,0
-294,8,0,0,0,0,0,0,0,0,0,-1,930,1016,0,0
-287,8,0,0,0,0,0,0,0,0,0,-1,937,1016,0,0
-280,8,0,0,0,0,0,0,0,0,0,-1,944,1016,0,0
-273,8,0,0,0,0,0,0,0,0,0,-1,951,1016,0,0
-266,8,0,0,0,0,0,0,0,0,0,-1,958,1016,0,0
-259,8,0,0,0,0,0,0,0,0,0,-1,965,1016,0,0
-252,8,0,0,0,0,0,0,0,0,0,-1,972,1016,0,0
-245,8,0,0,0,0,0,0,0,0,0,-1,979,1016,0,0
-238,8,0,0,0,0,0,0,0,0,0,-1,986,1016,0,0
-231,8,0,0,0,0,0,0,0,0,0,-1,993,1016,0,0
-224,8,0,0,0,0,0,0,0,0,0,-1,1000,1016,0,0
-217,8,0,0,0,0,0,0,0,0,0,-1,1007,1016,0,0
-210,8,0,0,0,0,0,0,0,0,0,-1,1014,1016,0,0
-203,8,0,0,0,0,0,0,0,0,0,-1,1021,1016,0,0
-196,8,0,0,0,0,0,0,0,0,0,-1,1028,1016,0,0
-189,8,0,0,0,0,0,0,0,0,0,-1,1035,1016,0,0
-182,8,0,0,0,0,0,0,0,0,0,-1,1042,1016,0,0
-175,8,0,0,0,0,0,0,0,0,0,-1,1049,1016,0,0
-168,8,0,0,0,0,0,0,0,0,0,-1,1056,1016,0,0
-161,8,0,0,0,0,0,0,0,0,0,-1,1063,1016,0,0
-154,8,0,0,0,0,0,0,0,0,0,-1,1070,1016,0,0
-147,8,0,0,0,0,0,0,0,0,0,-1,1077,1016,0,0
-140,8,0,0,0,0,0,0,0,0,0,-1,1084,1016,0,0
-133,8,0,0,0,0,0,0,0,0,0,-1,1091,1016,0,0
-126,8,0,0,0,0,0,0,0,0,0,-1,1098,1016,0,0
-119,8,0,0,0,0,0,0,0,0,0,-1,1105,1016,0,0
-112,8,0,0,0,0,0,0,0,0,0,-1,1112,1016,0,0
-105,8,0,0,0,0,0,0,0,0,0,-1,1119,1016,0,0
-98,8,0,0,0,0,0,0,0,0,0,-1,1126,1016,0,0
-91,8,0,0,0,0,0,0,0,0,0,-1,1133,1016,0,0
-84,8,0,0,0,0,0,0,0,0,0,-1,1140,1016,0,0
-77,8,0,0,0,0,0,0,0,0,0,-1,1147,1016,0,0
-70,8,0,0,0,0,0,0,0,0,0,-1,1154,1016,0,0
-63,8,0,0,0,0,0,0,0,0,0,-1,1161,1016,0,0
-56,8,0,0,0,0,0,0,0,0,0,-1,1168,1016,0,0
-49,8,0,0,0,0,0,0,0,0,0,-1,1175,1016,0,0
-42,8,0,0,0,0,0,0,0,0,0,-1,1182,1016,0,0
-35,8,0,0,0,0,0,0,0,0,0,-1,1189,1016,0,0
-28,8,0,0,0,0,0,0,0,0,0,-1,1196,1016,0,0
-21,8,0,0,0,0,0,0,0,0,0,-1,1203,1016,0,0
-14,8,0,0,0,0,0,0,0,0,0,-1,1210,1016,0,0
-7,8,0,0,0,0,0,0,0,0,0,-1,1217,1016,0,0
0,8,0,0,0,0,0,0,0,0,0,-1,1224,1016,0,0
7,8,0,0,0,0,0,0,0,0,0,-1,1231,1016,0,0
14,8,0,0,0,0,0,0,0,0,0,-1,1238,1016,0,0
21,8,0,0,0,0,0,0,0,0,0,-1,1245,1016,0,0
28,8,0,0,0,0,0,0,0,0,0,-1,1252,1016,0,0
35,8,0,0,0,0,0,0,0,0,0,-1,1259,1016,0,0
42,8,0,0,0,0,0,0,0,0,0,-1,1266,1016,0,0
49,8,0,0,0,0,0,0,0,0,0,-1,1273,1016,0,0
56,8,0,0,0,0,0,0,0,0,0,-1,1280,1016,0,0
63,8,0,0,0,0,0,0,0,0,0,-1,1287,1016,0,0
70,8,0,0,0,0,0,0,0,0,0,-1,1294,1016,0,0
77,8,0,0,0,0,0,0,0,0,0,-1,1301,1016,0,0
84,8,0,0,0,0,0,0,0,0,0,-1,1308,1016,0,0
91,8,0,0,0,0,0,0,0,0,0,-1,1315,1016,0,0
98,8,0,0,0,0,0,0,0,0,0,-1,1322,1016,0,0
105,8,0,0,0,0,0,0,0,0,0,-1,1329,1016,0,0
112,8,0,0,0,0,0,0,0,0,0,-1,1336,1016,0,0
119,8,0,0,0,0,0,0,0,0,0,-1,1343,1016,0,0
126,8,0,0,0,0,0,0,0,0,0,-1,1350,1016,0,0
133,8,0,0,0,0,0,0,0,0,0,-1,1357,1016,0,0
140,8,0,0,0,0,0,0,0,0,0,-1,1364,1016,0,0
147,8,0,0,0,0,0,0,0,0,0,-1,1371,1016,0,0
154,8,0,0,0,0,0,0,0,0,0,-1,1378,1016,0,0
161,8,0,0,0,0,0,0,0,0,0,-1,1385,1016,0,0
168,8,0,0,0,0,0,0,0,0,0,-1,1392,1016,0,0
175,8,0,0,0,0,0,0,0,0,0,-1,1399,1016,0,0
182,8,0,0,0,0,0,0,0,0,0,-1,1406,1016,0,0
189,8,0,0,0,0,0,0,0,0,0,-1,1413,1016,0,0
196,8,0,0,0,0,0,0,0,0,0,-1,1420,1016,0,0
203,8,0,0,0,0,0,0,0,0,0,-1,1427,1016,0,0
210,8,0,0,0,0,0,0,0,0,0,-1,1434,1016,0,0
217,8,0,0,0,0,0,0,0,0,0,-1,1441,1016,0,0
224,8,0,0,0,0,0,0,0,0,0,-1,1448,1016,0,0
231,8,0,0,0,0,0,0,0,0,0,-1,1455,1016,0,0
238,8,0,0,0,0,0,0,0,0,0,-1,1462,1016,0,0
245,8,0,0,0,0,0,0,0,0,0,-1,1469,1016,0,0
252,8,0,0,0,0,0,0,0,0,0,-1,1476,1016,0,0
259,8,0,0,0,0,0,0,0,0,0,-1,1483,1016,0,0
266,8,0,0,0,0,0,0,0,0,0,-1,1490,1016,0,0
273,8,0,0,0,0,0,0,0,0,0,-1,1497,1016,0,0
280,8,0,0,0,0,0,0,0,0,0,-1,1504,1016,0,0
287,8,0,0,0,0,0,0,0,0,0,-1,1511,1016,0,0
294,8,0,0,0,0,0,0,0,0,0,-1,1518,1016,0,0
301,8,0,0,0,0,0,0,0,0,0,-1,1525,1016,0,0
308,8,0,0,0,0,0,0,0,0,0,-1,1532,1016,0,0
315,8,0,0,0,0,0,0,0,0,0,-1,1539,1016,0,0
322,8,0,0,0,0,0,0,0,0,0,-1,1546,1016,0,0
329,8,0,0,0,0,0,0,0,0,0,-1,1553,1016,0,0
336,8,0,0,0,0,0,0,0,0,0,-1,1560,1016,0,0
343,8,0,0,0,0,0,0,0,0,0,-1,1567,1016,0,0
350,8,0,0,0,0,0,0,0,0,0,-1,1574,1016,0,0
357,8,0,0,0,0,0,0,0,0,0,-1,1581,1016,0,0
364,8,0,0,0,0,0,0,0,0,0,-1,1588,1016,0,0
371,8,0,0,0,0,0,0,0,0,0,-1,1595,1016,0,0
378,8,0,0,0,0,0,0,0,0,0,-1,1602,1016,0,0
385,8,0,0,0,0,0,0,0,0,0,-1,1609,1016,0,0
392,8,0,0,0,0,0,0,0,0,0,-1,1616,1016,0,0
399,8,0,0,0,0,0,0,0,0,0,-1,1623,1016,0,0
406,8,0,0,0,0,0,0,0,0,0,-1,1630,1016,0,0
413,8,0,0,0,0,0,0,0,0,0,-1,1637,1016,0,0
420,8,0,0,0,0,0,0,0,0,0,-1,1644,1016,0,0
427,8,0,0,0,0,0,0,0,0,0,-1,1651,1016,0,0
434,8,0,0,0,0,0,0,0,0,0,-1,1658,1016,0,0
441,8,0,0,0,0,0,0,0,0,0,-1,1665,1016,0,0
448,8,0,0,0,0,0,0,0,0,0,-1,1672,1016,0,0
455,8,0,0,0,0,0,0,0,0,0,-1,1679,1016,0,0
462,8,0,0,0,0,0,0,0,0,0,-1,1686,1016,0,0
469,8,0,0,0,0,0,0,0,0,0,-1,1693,1016,0,0
476,8,0,0,0,0,0,0,0,0,0,-1,1700,1016,0,0
483,8,0,0,0,0,0,0,0,0,0,-1,1707,1016,0,0
490,8,0,0,0,0,0,0,0,0,0,-1,1714,1016,0,0
497,8,0,0,0,0,0,0,0,0,0,-1,1721,1016,0,0
504,8,0,0,0,0,0,0,0,0,0,-1,1728,1016,0,0
511,8,0,0,0,0,0,0,0,0,0,-1,1735,1016,0,0
518,8,0,0,0,0,0,0,0,0,0,-1,1742,1016,0,0
525,8,0,0,0,0,0,0,0,0,0,-1,1749,1016,0,0
532,8,0,0,0,0,0,0,0,0,0,-1,1756,1016,0,0
539,8,0,0,0,0,0,0,0,0,0,-1,1763,1016,0,0
546,8,0,0,0,0,0,0,0,0,0,-1,1770,1016,0,0
553,8,0,0,0,0,0,0,0,0,0,-1,1777,1016,0,0
560,8,0,0,0,0,0,0,0,0,0,-1,1784,1016,0,0
567,8,0,0,0,0,0,0,0,0,0,-1,1791,1016,0,0
574,8,0,0,0,0,0,0,0,0,0,-1,1798,1016,0,0
581,8,0,0,0,0,0,0,0,0,0,-1,1805,1016,0,0
588,8,0,0,0,0,0,0,0,0,0,-1,1812,1016,0,0
595,8,0,0,0,0,0,0,0,0,0,-1,1819,1016,0,0
602,8,0,0,0,0,0,0,0,0,0,-1,1826,1016,0,0
609,8,0,0,0,0,0,0,0,0,0,-1,1833,1016,0,0
616,8,0,0,0,0,0,0,0,0,0,-1,1840,1016,0,0
623,8,0,0,0,0,0,0,0,0,0,-1,1847,1016,0,0
630,8,0,0,0,0,0,0,0,0,0,-1,1854,1016,0,0
637,8,0,0,0,0,0,0,0,0,0,-1,1861,1016,0,0
644,8,49.5121,2.33734,-0.000470395,0.00694929,0.00426462,0.00889187,-0.00241298,1.14337,0.00687488,0.0427117,1868,1016,49.5121,-2.33736
651,8,49.5498,2.48914,-0.000501964,0.00520275,0.00259897,0.00620922,-0.00150844,1.20132,0.00472328,0.040325,1875,1016,49.5498,-2.48915
658,8,49.5608,2.55225,-0.000690411,0.00392882,0.00150418,0.00437544,-0.00113704,1.28216,0.00336072,0.040033,1882,1016,49.5608,-2.55227
665,8,49.5465,2.69482,-0.000829659,0.00298185,0.000968534,0.00321385,-0.00106165,1.3357,0.00257059,0.0397093,1889,1016,49.5465,-2.6948
672,8,49.6353,2.50989,-0.000858928,0.00230255,0.000835237,0.00250965,-0.00106602,1.32775,0.00211976,0.0399956,1896,1016,49.6353,-2.50989
679,8,49.5994,2.53174,-0.000735452,0.00179676,0.00119699,0.00227301,-0.0012117,1.19212,0.00204277,0.0381474,1903,1016,49.5994,-2.53172
686,8,49.5712,2.61395,-0.000518974,0.00120171,0.00187012,0.0023999,-0.00171716,1.00099,0.00238785,0.0394172,1910,1016,49.5712,-2.61393
693,8,49.584,2.65961,-0.0002255,0.000610157,0.00254215,0.00276859,-0.00238393,0.86685,0.00297757,0.0382935,1917,1016,49.5839,-2.65964
700,8,49.5339,2.69464,-8.49417e-06,0.000199501,0.00299956,0.00309687,-0.00290586,0.802727,0.00346626,0.0296039,1924,1016,49.5339,-2.69465
707,8,49.5337,2.71808,-5.63395e-05,0.000185587,0.00323288,0.00329977,-0.00317052,0.804098,0.00373587,0.0252218,1931,1016,49.5337,-2.71809
714,8,49.5988,2.67639,-0.000461569,0.000509729,0.00337465,0.0034335,-0.00338534,0.856863,0.00393689,0.0325436,1938,1016,49.5987,-2.67637
721,8,49.5999,3.88824,0,0,0,0,0,0,0,-1,1945,1016,49.5998,-3.88827
728,8,49.2542,5.27795,-0.00210896,0.00204787,0.00347441,0.00401808,-0.00407917,1.05495,0.00467499,0.0444457,1952,1016,49.2541,-5.27798
735,8,49.2518,5.79785,-0.00253425,0.00306509,0.00320589,0.0045217,-0.00399086,1.14433,0.00491791,0.0480355,1959,1016,49.2519,-5.79787
742,8,49.3304,6.05438,0,0,0,0,0,0,0,-1,1966,1016,49.3305,-6.05438
749,8,49.5021,5.95367,-0.00401683,0.00648076,0.00204915,0.00686658,-0.00440264,1.38469,0.00655792,0.0465088,1973,1016,49.5021,-5.95366
756,8,49.3978,5.90894,-0.0048425,0.00890785,0.00114074,0.00900185,-0.00493649,1.48858,0.0081606,0.0267285,1980,1016,49.3978,-5.90893
763,8,49.4127,5.9942,-0.00525188,0.01177,-0.000269889,0.0117743,-0.00525616,-1.55495,0.0100697,0.015755,1987,1016,49.4127,-5.99417
770,8,49.3291,5.97516,-0.00515003,0.0153179,-0.0017989,0.0154748,-0.00530693,-1.4838,0.0124679,0.0208033,1994,1016,49.3291,-5.97516
777,8,48.9553,5.99847,-0.0039645,0.0189943,-0.00341745,0.0194922,-0.0044624,-1.42612,0.0147096,0.0352369,2001,1016,48.9552,-5.99846
784,8,48.5728,5.99805,0,0,0,0,0,0,0,-1,2008,1016,48.5729,-5.99803
791,8,48.0955,6.36908,0,0,0,0,0,0,0,-1,2015,1016,48.0954,-6.36908
798,8,47.5479,7.03241,0,0,0,0,0,0,0,-1,2022,1016,47.5478,-7.0324
805,8,47.9192,4.58588,0,0,0,0,0,0,0,-1,2029,1016,47.9192,-4.58588
812,8,47.908,4.43079,0,0,0,0,0,0,0,-1,2036,1016,47.9081,-4.43076
-700,1,0,0,0,0,0,0,0,0,0,-1,524,1023,0,0
-693,1,-38.2672,4.88776,-0.027598,0.0243369,-0.00299125,0.0245087,-0.0277697,-1.51345,0.0302025,0.0436671,531,1023,-38.2672,-4.88774
-686,1,-36.7203,2.52441,-0.0276764,0.0215036,-0.00470782,0.0219502,-0.028123,-1.47621,0.0289829,0.0464634,538,1023,-36.7203,-2.52439
-679,1,-37.4799,2.24933,-0.0262944,0.0195158,-0.0045403,0.0199615,-0.0267401,-1.47295,0.0270577,0.0479449,545,1023,-37.4799,-2.24933
-672,1,-37.4586,2.47644,-0.0239109,0.0178561,-0.00367711,0.0181773,-0.0242321,-1.48365,0.0245682,0.0465907,552,1023,-37.4586,-2.47646
-665,1,-37.4,2.62201,-0.0210637,0.0162786,-0.00268101,0.0164701,-0.0212552,-1.49949,0.0218391,0.0458168,559,1023,-37.4,-2.62203
-658,1,-37.3492,2.78149,-0.0180692,0.0146447,-0.00177462,0.0147407,-0.0181652,-1.51676,0.0190325,0.0338413,566,1023,-37.3492,-2.78147
-651,1,-37.2214,2.94788,-0.0150683,0.012865,-0.00114572,0.0129119,-0.0151152,-1.52987,0.0161981,0.0269561,573,1023,-37.2214,-2.94788
-644,1,-37.0192,3.15161,0,0,0,0,0,0,0,-1,580,1023,-37.0192,-3.1516
-637,1,-37.3148,3.09076,-0.00967633,0.0099004,-0.00211486,0.0101263,-0.00990219,-1.4644,0.0115637,0.0353184,587,1023,-37.3148,-3.09073
-630,1,-37.5536,3.1394,-0.00627635,0.00803739,-0.00238675,0.00842488,-0.00666384,-1.40985,0.00873123,0.0301232,594,1023,-37.5536,-3.1394
-623,1,-37.463,3.25415,-0.00292834,0.00639177,-0.00305926,0.00730623,-0.0038428,-1.28034,0.00653961,0.0160049,601,1023,-37.4629,-3.25412
-616,1,-37.5577,3.19568,-0.00081507,0.00505495,-0.00437221,0.00738592,-0.00314603,-1.081,0.00624271,0.0202243,608,1023,-37.5577,-3.1957
-609,1,-37.5436,3.25885,0.000573978,0.00411752,-0.00574665,0.00835933,-0.00366783,-0.934932,0.0071178,0.0216715,615,1023,-37.5436,-3.25884
-602,1,-37.3984,3.32355,0.00135158,0.0036148,-0.00686568,0.0094415,-0.00447512,-0.867074,0.00820354,0.0150044,622,1023,-37.3984,-3.32358
-595,1,-37.2568,3.31793,0,0,0,0,0,0,0,-1,629,1023,-37.2568,-3.31796
-588,1,-37.1396,2.12982,0.00214748,0.00176062,-0.0072865,0.00924312,-0.00533502,-0.772128,0.0085169,0.0498666,636,1023,-37.1396,-2.12979
-581,1,-36.9677,0.937622,0.00248007,0.00109372,-0.00699833,0.00881947,-0.00524568,-0.736035,0.00820743,0.0284874,643,1023,-36.9676,-0.93761
-574,1,-36.9163,1.13367,0.00221182,0.000653619,-0.00634639,0.00782676,-0.00496132,-0.724323,0.00744472,0.0366177,650,1023,-36.9163,-1.13369
-567,1,-36.8244,1.24414,0.0014322,0.00039503,-0.00512298,0.00606277,-0.00423554,-0.734956,0.00597685,0.0426494,657,1023,-36.8244,-1.24412
-560,1,-36.8843,1.15143,0.000321678,0.000126925,-0.00327233,0.00349808,-0.00304948,-0.770524,0.00378319,0.0403586,664,1023,-36.8843,-1.15141
-553,1,-36.9471,0.845764,-0.00109134,-0.000375449,-0.000793343,0.00013696,-0.00160375,-0.997318,0.00111762,0.0382121,671,1023,-36.9471,-0.845786
-546,1,-37.0184,0.614624,-0.00260248,-0.00145787,0.00230155,0.000341462,-0.00440181,0.907256,0.00305473,0.0402047,678,1023,-37.0184,-0.61465
-539,1,-37.1686,0.675232,-0.00369762,-0.00281347,0.00517196,0.00193528,-0.00844637,0.828032,0.00637469,0.0396073,685,1023,-37.1686,-0.675216
-532,1,-37.147,0.87854,-0.00340493,-0.00428869,0.00627325,0.00244198,-0.0101356,0.750237,0.00770122,0.0410898,692,1023,-37.147,-0.878539
-525,1,0,0,0,0,0,0,0,0,0,-1,699,1023,0,0
-518,1,0,0,0,0,0,0,0,0,0,-1,706,1023,0,0
-511,1,0,0,0,0,0,0,0,0,0,-1,713,1023,0,0
-504,1,0,0,0,0,0,0,0,0,0,-1,720,1023,0,0
-497,1,0,0,0,0,0,0,0,0,0,-1,727,1023,0,0
-490,1,0,0,0,0,0,0,0,0,0,-1,734,1023,0,0
-483,1,0,0,0,0,0,0,0,0,0,-1,741,1023,0,0
-476,1,0,0,0,0,0,0,0,0,0,-1,748,1023,0,0
-469,1,0,0,0,0,0,0,0,0,0,-1,755,1023,0,0
-462,1,0,0,0,0,0,0,0,0,0,-1,762,1023,0,0
-455,1,0,0,0,0,0,0,0,0,0,-1,769,1023,0,0
-448,1,0,0,0,0,0,0,0,0,0,-1,776,1023,0,0
-441,1,0,0,0,0,0,0,0,0,0,-1,783,1023,0,0
-434,1,0,0,0,0,0,0,0,0,0,-1,790,1023,0,0
-427,1,0,0,0,0,0,0,0,0,0,-1,797,1023,0,0
-420,1,0,0,0,0,0,0,0,0,0,-1,804,1023,0,0
-413,1,0,0,0,0,0,0,0,0,0,-1,811,1023,0,0
-406,1,0,0,0,0,0,0,0,0,0,-1,818,1023,0,0
-399,1,0,0,0,0,0,0,0,0,0,-1,825,1023,0,0
-392,1,0,0,0,0,0,0,0,0,0,-1,832,1023,0,0
-385,1,0,0,0,0,0,0,0,0,0,-1,839,1023,0,0
-378,1,0,0,0,0,0,0,0,0,0,-1,846,1023,0,0
-371,1,0,0,0,0,0,0,0,0,0,-1,853,1023,0,0
-364,1,0,0,0,0,0,0,0,0,0,-1,860,1023,0,0
-357,1,0,0,0,0,0,0,0,0,0,-1,867,1023,0,0
-350,1,0,0,0,0,0,0,0,0,0,-1,874,1023,0,0
-343,1,0,0,0,0,0,0,0,0,0,-1,881,1023,0,0
-336,1,0,0,0,0,0,0,0,0,0,-1,888,1023,0,0
-329,1,0,0,0,0,0,0,0,0,0,-1,895,1023,0,0
-322,1,0,0,0,0,0,0,0,0,0,-1,902,1023,0,0
-315,1,0,0,0,0,0,0,0,0,0,-1,909,1023,0,0
-308,1,0,0,0,0,0,0,0,0,0,-1,916,1023,0,0
-301,1,0,0,0,0,0,0,0,0,0,-1,923,1023,0,0
-294,1,0,0,0,0,0,0,0,0,0,-1,930,1023,0,0
-287,1,0,0,0,0,0,0,0,0,0,-1,937,1023,0,0
-280,1,0,0,0,0,0,0,0,0,0,-1,944,1023,0,0
-273,1,0,0,0,0,0,0,0,0,0,-1,951,1023,0,0
-266,1,0,0,0,0,0,0,0,0,0,-1,958,1023,0,0
-259,1,0,0,0,0,0,0,0,0,0,-1,965,1023,0,0
-252,1,0,0,0,0,0,0,0,0,0,-1,972,1023,0,0
-245,1,0,0,0,0,0,0,0,0,0,-1,979,1023,0,0
-238,1,0,0,0,0,0,0,0,0,0,-1,986,1023,0,0
-231,1,0,0,0,0,0,0,0,0,0,-1,993,1023,0,0
-224,1,0,0,0,0,0,0,0,0,0,-1,1000,1023,0,0
-217,1,0,0,0,0,0,0,0,0,0,-1,1007,1023,0,0
-210,1,0,0,0,0,0,0,0,0,0,-1,1014,1023,0,0
-203,1,0,0,0,0,0,0,0,0,0,-1,1021,1023,0,0
-196,1,0,0,0,0,0,0,0,0,0,-1,1028,1023,0,0
-189,1,0,0,0,0,0,0,0,0,0,-1,1035,1023,0,0
-182,1,0,0,0,0,0,0,0,0,0,-1,1042,1023,0,0
-175,1,0,0,0,0,0,0,0,0,0,-1,1049,1023,0,0
-168,1,0,0,0,0,0,0,0,0,0,-1,1056,1023,0,0
-161,1,0,0,0,0,0,0,0,0,0,-1,1063,1023,0,0
-154,1,0,0,0,0,0,0,0,0,0,-1,1070,1023,0,0
-147,1,0,0,0,0,0,0,0,0,0,-1,1077,1023,0,0
-140,1,0,0,0,0,0,0,0,0,0,-1,1084,1023,0,0
-133,1,0,0,0,0,0,0,0,0,0,-1,1091,1023,0,0
-126,1,0,0,0,0,0,0,0,0,0,-1,1098,1023,0,0
-119,1,0,0,0,0,0,0,0,0,0,-1,1105,1023,0,0
-112,1,0,0,0,0,0,0,0,0,0,-1,1112,1023,0,0
-105,1,0,0,0,0,0,0,0,0,0,-1,1119,1023,0,0
-98,1,0,0,0,0,0,0,0,0,0,-1,1126,1023,0,0
-91,1,0,0,0,0,0,0,0,0,0,-1,1133,1023,0,0
-84,1,0,0,0,0,0,0,0,0,0,-1,1140,1023,0,0
-77,1,0,0,0,0,0,0,0,0,0,-1,1147,1023,0,0
-70,1,0,0,0,0,0,0,0,0,0,-1,1154,1023,0,0
-63,1,0,0,0,0,0,0,0,0,0,-1,1161,1023,0,0
-56,1,0,0,0,0,0,0,0,0,0,-1,1168,1023,0,0
-49,1,0,0,0,0,0,0,0,0,0,-1,1175,1023,0,0
-42,1,0,0,0,0,0,0,0,0,0,-1,1182,1023,0,0
-35,1,0,0,0,0,0,0,0,0,0,-1,1189,1023,0,0
-28,1,0,0,0,0,0,0,0,0,0,-1,1196,1023,0,0
-21,1,0,0,0,0,0,0,0,0,0,-1,1203,1023,0,0
-14,1,0,0,0,0,0,0,0,0,0,-1,1210,1023,0,0
-7,1,0,0,0,0,0,0,0,0,0,-1,1217,1023,0,0
0,1,0,0,0,0,0,0,0,0,0,-1,1224,1023,0,0
7,1,0,0,0,0,0,0,0,0,0,-1,1231,1023,0,0
14,1,0,0,0,0,0,0,0,0,0,-1,1238,1023,0,0
21,1,0,0,0,0,0,0,0,0,0,-1,1245,1023,0,0
28,1,0,0,0,0,0,0,0,0,0,-1,1252,1023,0,0
35,1,0,0,0,0,0,0,0,0,0,-1,1259,1023,0,0
42,1,0,0,0,0,0,0,0,0,0,-1,1266,1023,0,0
49,1,0,0,0,0,0,0,0,0,0,-1,1273,1023,0,0
56,1,0,0,0,0,0,0,0,0,0,-1,1280,1023,0,0
63,1,0,0,0,0,0,0,0,0,0,-1,1287,1023,0,0
70,1,0,0,0,0,0,0,0,0,0,-1,1294,1023,0,0
77,1,0,0,0,0,0,0,0,0,0,-1,1301,1023,0,0
84,1,0,0,0,0,0,0,0,0,0,-1,1308,1023,0,0
91,1,0,0,0,0,0,0,0,0,0,-1,1315,1023,0,0
98,1,0,0,0,0,0,0,0,0,0,-1,1322,1023,0,0
105,1,0,0,0,0,0,0,0,0,0,-1,1329,1023,0,0
112,1,0,0,0,0,0,0,0,0,0,-1,1336,1023,0,0
119,1,0,0,0,0,0,0,0,0,0,-1,1343,1023,0,0
126,1,0,0,0,0,0,0,0,0,0,-1,1350,1023,0,0
133,1,0,0,0,0,0,0,0,0,0,-1,1357,1023,0,0
140,1,0,0,0,0,0,0,0,0,0,-1,1364,1023,0,0
147,1,0,0,0,0,0,0,0,0,0,-1,1371,1023,0,0
154,1,0,0,0,0,0,0,0,0,0,-1,1378,1023,0,0
161,1,0,0,0,0,0,0,0,0,0,-1,1385,1023,0,0
168,1,0,0,0,0,0,0,0,0,0,-1,1392,1023,0,0
175,1,0,0,0,0,0,0,0,0,0,-1,1399,1023,0,0
182,1,0,0,0,0,0,0,0,0,0,-1,1406,1023,0,0
189,1,0,0,0,0,0,0,0,0,0,-1,1413,1023,0,0
196,1,0,0,0,0,0,0,0,0,0,-1,1420,1023,0,0
203,1,0,0,0,0,0,0,0,0,0,-1,1427,1023,0,0
210,1,0,0,0,0,0,0,0,0,0,-1,1434,1023,0,0
217,1,0,0,0,0,0,0,0,0,0,-1,1441,1023,0,0
224,1,0,0,0,0,0,0,0,0,0,-1,1448,1023,0,0
231,1,0,0,0,0,0,0,0,0,0,-1,1455,1023,0,0
238,1,0,0,0,0,0,0,0,0,0,-1,1462,1023,0,0
245,1,0,0,0,0,0,0,0,0,0,-1,1469,1023,0,0
252,1,0,0,0,0,0,0,0,0,0,-1,1476,1023,0,0
259,1,0,0,0,0,0,0,0,0,0,-1,1483,1023,0,0
266,1,0,0,0,0,0,0,0,0,0,-1,1490,1023,0,0
273,1,0,0,0,0,0,0,0,0,0,-1,1497,1023,0,0
280,1,0,0,0,0,0,0,0,0,0,-1,1504,1023,0,0
287,1,0,0,0,0,0,0,0,0,0,-1,1511,1023,0,0
294,1,0,0,0,0,0,0,0,0,0,-1,1518,1023,0,0
301,1,0,0,0,0,0,0,0,0,0,-1,1525,1023,0,0
308,1,0,0,0,0,0,0,0,0,0,-1,1532,1023,0,0
315,1,0,0,0,0,0,0,0,0,0,-1,1539,1023,0,0
322,1,0,0,0,0,0,0,0,0,0,-1,1546,1023,0,0
329,1,0,0,0,0,0,0,0,0,0,-1,1553,1023,0,0
336,1,0,0,0,0,0,0,0,0,0,-1,1560,1023,0,0
343,1,0,0,0,0,0,0,0,0,0,-1,1567,1023,0,0
350,1,0,0,0,0,0,0,0,0,0,-1,1574,1023,0,0
357,1,0,0,0,0,0,0,0,0,0,-1,1581,1023,0,0
364,1,0,0,0,0,0,0,0,0,0,-1,1588,1023,0,0
371,1,0,0,0,0,0,0,0,0,0,-1,1595,1023,0,0
378,1,0,0,0,0,0,0,0,0,0,-1,1602,1023,0,0
385,1,0,0,0,0,0,0,0,0,0,-1,1609,1023,0,0
392,1,0,0,0,0,0,0,0,0,0,-1,1616,1023,0,0
399,1,0,0,0,0,0,0,0,0,0,-1,1623,1023,0,0
406,1,0,0,0,0,0,0,0,0,0,-1,1630,1023,0,0
413,1,0,0,0,0,0,0,0,0,0,-1,1637,1023,0,0
420,1,0,0,0,0,0,0,0,0,0,-1,1644,1023,0,0
427,1,0,0,0,0,0,0,0,0,0,-1,1651,1023,0,0
434,1,0,0,0,0,0,0,0,0,0,-1,1658,1023,0,0
441,1,0,0,0,0,0,0,0,0,0,-1,1665,1023,0,0
448,1,0,0,0,0,0,0,0,0,0,-1,1672,1023,0,0
455,1,0,0,0,0,0,0,0,0,0,-1,1679,1023,0,0
462,1,0,0,0,0,0,0,0,0,0,-1,1686,1023,0,0
469,1,0,0,0,0,0,0,0,0,0,-1,1693,1023,0,0
476,1,0,0,0,0,0,0,0,0,0,-1,1700,1023,0,0
483,1,0,0,0,0,0,0,0,0,0,-1,1707,1023,0,0
490,1,0,0,0,0,0,0,0,0,0,-1,1714,1023,0,0
497,1,0,0,0,0,0,0,0,0,0,-1,1721,1023,0,0
504,1,0,0,0,0,0,0,0,0,0,-1,1728,1023,0,0
511,1,0,0,0,0,0,0,0,0,0,-1,1735,1023,0,0
518,1,0,0,0,0,0,0,0,0,0,-1,1742,1023,0,0
525,1,0,0,0,0,0,0,0,0,0,-1,1749,1023,0,0
532,1,0,0,0,0,0,0,0,0,0,-1,1756,1023,0,0
539,1,0,0,0,0,0,0,0,0,0,-1,1763,1023,0,0
546,1,0,0,0,0,0,0,0,0,0,-1,1770,1023,0,0
553,1,0,0,0,0,0,0,0,0,0,-1,1777,1023,0,0
560,1,0,0,0,0,0,0,0,0,0,-1,1784,1023,0,0
567,1,0,0,0,0,0,0,0,0,0,-1,1791,1023,0,0
574,1,0,0,0,0,0,0,0,0,0,-1,1798,1023,0,0
581,1,0,0,0,0,0,0,0,0,0,-1,1805,1023,0,0
588,1,0,0,0,0,0,0,0,0,0,-1,1812,1023,0,0
595,1,0,0,0,0,0,0,0,0,0,-1,1819,1023,0,0
602,1,0,0,0,0,0,0,0,0,0,-1,1826,1023,0,0
609,1,0,0,0,0,0,0,0,0,0,-1,1833,1023,0,0
616,1,0,0,0,0,0,0,0,0,0,-1,1840,1023,0,0
623,1,0,0,0,0,0,0,0,0,0,-1,1847,1023,0,0
630,1,0,0,0,0,0,0,0,0,0,-1,1854,1023,0,0
637,1,0,0,0,0,0,0,0,0,0,-1,1861,1023,0,0
644,1,0,0,0,0,0,0,0,0,0,-1,1868,1023,0,0
651,1,49.6073,2.49951,-0.000991286,0.00507017,0.00287301,0.00621551,-0.00213662,1.19145,0.00501012,0.038458,1875,1023,49.6073,-2.49951
658,1,49.6429,2.73145,-0.000991274,0.00382721,0.00173375,0.00438619,-0.00155025,1.25891,0.00355538,0.0406621,1882,1023,49.643,-2.73145
665,1,49.7252,2.73608,-0.00102626,0.0029142,0.001167,0.00323388,-0.00134595,1.30342,0.00271802,0.0420367,1889,1023,49.7252,-2.73608
672,1,49.8146,2.66644,-0.000986179,0.00227114,0.000996809,0.00255197,-0.00126701,1.29618,0.00224611,0.0414688,1896,1023,49.8146,-2.66645
679,1,49.6511,2.57239,-0.000841855,0.00178847,0.00127953,0.0023082,-0.00136159,1.18496,0.00214212,0.0388291,1903,1023,49.6511,-2.57236
686,1,49.5212,2.71033,-0.000676324,0.00119917,0.00188549,0.00236723,-0.00184439,1.01616,0.00243782,0.0389133,1910,1023,49.5213,-2.71031
693,1,49.5104,2.8183,-0.000433185,0.000598037,0.00252432,0.00265887,-0.00249401,0.886141,0.00297552,0.0353261,1917,1023,49.5104,-2.81829
700,1,49.5203,2.78876,-0.000242513,0.000167339,0.00297401,0.00294347,-0.00301864,0.819797,0.00344232,0.0291185,1924,1023,49.5202,-2.78876
707,1,49.5134,2.7149,-0.000293682,0.000122212,0.00320326,0.00312427,-0.00329574,0.817811,0.00370704,0.0263693,1931,1023,49.5135,-2.71493
714,1,49.5447,2.65265,-0.000706056,0.000413836,0.00336404,0.00326421,-0.00355643,0.867867,0.00393911,0.0316622,1938,1023,49.5446,-2.65265
721,1,49.6642,2.60828,0,0,0,0,0,0,0,-1,1945,1023,49.6642,-2.60829
728,1,49.5306,5.50848,0,0,0,0,0,0,0,-1,1952,1023,49.5307,-5.50847
735,1,49.25,5.96051,0,0,0,0,0,0,0,-1,1959,1023,49.25,-5.96048
742,1,49.2734,5.80841,0,0,0,0,0,0,0,-1,1966,1023,49.2734,-5.80838
749,1,49.4745,6.0119,0,0,0,0,0,0,0,-1,1973,1023,49.4745,-6.01193
756,1,49.4568,5.9646,-0.00490385,0.0086438,0.00155528,0.00882005,-0.0050801,1.45795,0.00812151,0.0265998,1980,1023,49.4568,-5.96463
763,1,49.3871,5.91138,-0.00515956,0.011461,0.000254648,0.0114649,-0.00516346,1.55548,0.00982751,0.0161986,1987,1023,49.387,-5.9114
770,1,49.3429,5.88971,-0.0049312,0.0150001,-0.00115717,0.0150671,-0.00499816,-1.513,0.0120611,0.018718,1994,1023,49.343,-5.88971
777,1,49.0652,5.82239,-0.00355494,0.018783,-0.0027174,0.0191088,-0.00388076,-1.45147,0.0142105,0.0254905,2001,1023,49.0652,-5.82239
784,1,48.8594,5.88672,-0.00103508,0.0222045,-0.00428077,0.022968,-0.00179853,-1.39431,0.0159453,0.0447631,2008,1023,48.8594,-5.8867
791,1,48.7009,6.29266,0.00307419,0.0248249,-0.00614782,0.0264423,0.00145678,-1.31354,0.0171632,0.0453133,2015,1023,48.701,-6.29269
798,1,48.3123,6.7251,0,0,0,0,0,0,0,-1,2022,1023,48.3123,-6.7251
805,1,48.5642,4.40192,0,0,0,0,0,0,0,-1,2029,1023,48.5642,-4.40193
812,1,48.519,4.28564,0,0,0,0,0,0,0,-1,2036,1023,48.5191,-4.28566
-700,-6,0,0,0,0,0,0,0,0,0,-1,524,1030,0,0
-693,-6,-37.1646,3.7207,0,0,0,0,0,0,0,-1,531,1030,-37.1646,-3.72065
-686,-6,-37.2843,3.27271,0,0,0,0,0,0,0,-1,538,1030,-37.2843,-3.27276
-679,-6,-37.1627,2.83752,-0.0277806,0.0218443,-0.0110701,0.0242018,-0.0301381,-1.36097,0.0314355,0.0484362,545,1030,-37.1627,-2.83757
-672,-6,-37.3707,2.6676,-0.0253692,0.0197735,-0.00917352,0.0215664,-0.0271621,-1.37778,0.0281952,0.0476982,552,1030,-37.3707,-2.66757
-665,-6,-37.5154,2.47766,-0.0223451,0.0177666,-0.00714192,0.0190003,-0.0235788,-1.39975,0.0246304,0.0440799,559,1030,-37.5154,-2.47766
-658,-6,-37.5375,2.58301,0,0,0,0,0,0,0,-1,566,1030,-37.5375,-2.58298
-651,-6,-37.3256,2.68591,0,0,0,0,0,0,0,-1,573,1030,-37.3255,-2.68589
-644,-6,-37.0748,3.22327,0,0,0,0,0,0,0,-1,580,1030,-37.0749,-3.22332
-637,-6,-37.2855,3.14795,-0.0101694,0.00994549,-0.00339754,0.0105039,-0.0107278,-1.40791,0.0122583,0.0389952,587,1030,-37.2855,-3.14789
-630,-6,-37.4003,3.12048,-0.00657901,0.00788499,-0.00298293,0.00847602,-0.00717004,-1.37519,0.00904374,0.0218643,594,1030,-37.4003,-3.12049
-623,-6,-37.3974,3.18494,-0.0030585,0.00612367,-0.00326578,0.00716671,-0.00410154,-1.26165,0.00658547,0.0177075,601,1030,-37.3974,-3.18494
-616,-6,-37.4448,3.19824,-0.000907284,0.00468736,-0.00436854,0.00707745,-0.00329737,-1.07017,0.006121,0.0200015,608,1030,-37.4447,-3.19823
-609,-6,-37.4046,3.31995,0.000458919,0.00368089,-0.00556155,0.00786008,-0.00372027,-0.926372,0.00682684,0.0192275,615,1030,-37.4046,-3.32001
-602,-6,-37.3273,3.39807,0.00120246,0.00316346,-0.00646268,0.0087196,-0.00435368,-0.860683,0.00768688,0.0138607,622,1030,-37.3274,-3.39806
-595,-6,-37.3282,3.44336,0,0,0,0,0,0,0,-1,629,1030,-37.3282,-3.44333
-588,-6,-37.0836,2.02722,0.00197292,0.00139804,-0.00658299,0.00827474,-0.00490378,-0.76358,0.00769115,0.029766,636,1030,-37.0836,-2.02723
-581,-6,-36.9817,0.924194,0.0022911,0.000789621,-0.00623648,0.00782186,-0.00474114,-0.725497,0.00732559,0.0214282,643,1030,-36.9817,-0.924221
-574,-6,-36.9999,0.934082,0.00203961,0.000441499,-0.0055588,0.00685649,-0.00437538,-0.714014,0.00653725,0.0296221,650,1030,-36.9999,-0.934112
-567,-6,-36.9537,0.987793,0.0012988,0.000273718,-0.00434795,0.00516432,-0.00359179,-0.726728,0.00508245,0.0403122,657,1030,-36.9537,-0.9878
-560,-6,-36.8436,0.916382,0.000221434,0.000102573,-0.00256063,0.00272332,-0.00239931,-0.773796,0.00295952,0.042463,664,1030,-36.8436,-0.916351
-553,-6,-36.8783,0.744629,-0.00116302,-0.000317377,-0.000199789,-0.000272552,-0.00120785,-1.35009,0.000731505,0.0414076,671,1030,-36.8783,-0.744666
-546,-6,-37.0111,0.635864,-0.00266559,-0.00135399,0.00270734,0.000775839,-0.00479543,0.904225,0.00348447,0.0431557,678,1030,-37.0111,-0.635847
-539,-6,-37.1011,0.703613,-0.00382147,-0.00271565,0.00528819,0.00204845,-0.00858557,0.837487,0.00651478,0.0435716,685,1030,-37.101,-0.703627
-532,-6,-37.0764,1.05579,-0.00363278,-0.00418128,0.00614121,0.0022403,-0.0100544,0.763084,0.00756113,0.0425464,692,1030,-37.0764,-1.05582
-525,-6,0,0,0,0,0,0,0,0,0,-1,699,1030,0,0
-518,-6,0,0,0,0,0,0,0,0,0,-1,706,1030,0,0
-511,-6,0,0,0,0,0,0,0,0,0,-1,713,1030,0,0
-504,-6,0,0,0,0,0,0,0,0,0,-1,720,1030,0,0
-497,-6,0,0,0,0,0,0,0,0,0,-1,727,1030,0,0
-490,-6,0,0,0,0,0,0,0,0,0,-1,734,1030,0,0
-483,-6,0,0,0,0,0,0,0,0,0,-1,741,1030,0,0
-476,-6,0,0,0,0,0,0,0,0,0,-1,748,1030,0,0
-469,-6,0,0,0,0,0,0,0,0,0,-1,755,1030,0,0
-462,-6,0,0,0,0,0,0,0,0,0,-1,762,1030,0,0
-455,-6,0,0,0,0,0,0,0,0,0,-1,769,1030,0,0
-448,-6,0,0,0,0,0,0,0,0,0,-1,776,1030,0,0
-441,-6,0,0,0,0,0,0,0,0,0,-1,783,1030,0,0
-434,-6,0,0,0,0,0,0,0,0,0,-1,790,1030,0,0
-427,-6,0,0,0,0,0,0,0,0,0,-1,797,1030,0,0
-420,-6,0,0,0,0,0,0,0,0,0,-1,804,1030,0,0
-413,-6,0,0,0,0,0,0,0,0,0,-1,811,1030,0,0
-406,-6,0,0,0,0,0,0,0,0,0,-1,818,1030,0,0
-399,-6,0,0,0,0,0,0,0,0,0,-1,825,1030,0,0
-392,-6,0,0,0,0,0,0,0,0,0,-1,832,1030,0,0
-385,-6,0,0,0,0,0,0,0,0,0,-1,839,1030,0,0
-378,-6,0,0,0,0,0,0,0,0,0,-1,846,1030,0,0
-371,-6,0,0,0,0,0,0,0,0,0,-1,853,1030,0,0
-364,-6,0,0,0,0,0,0,0,0,0,-1,860,1030,0,0
-357,-6,0,0,0,0,0,0,0,0,0,-1,867,1030,0,0
-350,-6,0,0,0,0,0,0,0,0,0,-1,874,1030,0,0
-343,-6,0,0,0,0,0,0,0,0,0,-1,881,1030,0,0
-336,-6,0,0,0,0,0,0,0,0,0,-1,888,1030,0,0
-329,-6,0,0,0,0,0,0,0,0,0,-1,895,1030,0,0
-322,-6,0,0,0,0,0,0,0,0,0,-1,902,1030,0,0
-315,-6,0,0,0,0,0,0,0,0,0,-1,909,1030,0,0
-308,-6,0,0,0,0,0,0,0,0,0,-1,916,1030,0,0
-301,-6,0,0,0,0,0,0,0,0,0,-1,923,1030,0,0
-294,-6,0,0,0,0,0,0,0,0,0,-1,930,1030,0,0
-287,-6,0,0,0,0,0,0,0,0,0,-1,937,1030,0,0
-280,-6,0,0,0,0,0,0,0,0,0,-1,944,1030,0,0
-273,-6,0,0,0,0,0,0,0,0,0,-1,951,1030,0,0
-266,-6,0,0,0,0,0,0,0,0,0,-1,958,1030,0,0
-259,-6,0,0,0,0,0,0,0,0,0,-1,965,1030,0,0
-252,-6,0,0,0,0,0,0,0,0,0,-1,972,1030,0,0
-245,-6,0,0,0,0,0,0,0,0,0,-1,979,1030,0,0
-238,-6,0,0,0,0,0,0,0,0,0,-1,986,1030,0,0
-231,-6,0,0,0,0,0,0,0,0,0,-1,993,1030,0,0
-224,-6,0,0,0,0,0,0,0,0,0,-1,1000,1030,0,0
-217,-6,0,0,0,0,0,0,0,0,0,-1,1007,1030,0,0
-210,-6,0,0,0,0,0,0,0,0,0,-1,1014,1030,0,0
-203,-6,0,0,0,0,0,0,0,0,0,-1,1021,1030,0,0
-196,-6,0,0,0,0,0,0,0,0,0,-1,1028,1030,0,0
-189,-6,0,0,0,0,0,0,0,0,0,-1,1035,1030,0,0
-182,-6,0,0,0,0,0,0,0,0,0,-1,1042,1030,0,0
-175,-6,0,0,0,0,0,0,0,0,0,-1,1049,1030,0,0
-168,-6,0,0,0,0,0,0,0,0,0,-1,1056,1030,0,0
-161,-6,0,0,0,0,0,0,0,0,0,-1,1063,1030,0,0
-154,-6,0,0,0,0,0,0,0,0,0,-1,1070,1030,0,0
-147,-6,0,0,0,0,0,0,0,0,0,-1,1077,1030,0,0
-140,-6,0,0,0,0,0,0,0,0,0,-1,1084,1030,0,0
-133,-6,0,0,0,0,0,0,0,0,0,-1,1091,1030,0,0
-126,-6,0,0,0,0,0,0,0,0,0,-1,1098,1030,0,0
-119,-6,0,0,0,0,0,0,0,0,0,-1,1105,1030,0,0
-112,-6,0,0,0,0,0,0,0,0,0,-1,1112,1030,0,0
-105,-6,0,0,0,0,0,0,0,0,0,-1,1119,1030,0,0
-98,-6,0,0,0,0,0,0,0,0,0,-1,1126,1030,0,0
-91,-6,0,0,0,0,0,0,0,0,0,-1,1133,1030,0,0
-84,-6,0,0,0,0,0,0,0,0,0,-1,1140,1030,0,0
-77,-6,0,0,0,0,0,0,0,0,0,-1,1147,1030,0,0
-70,-6,0,0,0,0,0,0,0,0,0,-1,1154,1030,0,0
-63,-6,0,0,0,0,0,0,0,0,0,-1,1161,1030,0,0
-56,-6,0,0,0,0,0,0,0,0,0,-1,1168,1030,0,0
-49,-6,0,0,0,0,0,0,0,0,0,-1,1175,1030,0,0
-42,-6,0,0,0,0,0,0,0,0,0,-1,1182,1030,0,0
-35,-6,0,0,0,0,0,0,0,0,0,-1,1189,1030,0,0
-28,-6,0,0,0,0,0,0,0,0,0,-1,1196,1030,0,0
-21,-6,0,0,0,0,0,0,0,0,0,-1,1203,1030,0,0
-14,-6,0,0,0,0,0,0,0,0,0,-1,1210,1030,0,0
-7,-6,0,0,0,0,0,0,0,0,0,-1,1217,1030,0,0
0,-6,0,0,0,0,0,0,0,0,0,-1,1224,1030,0,0
7,-6,0,0,0,0,0,0,0,0,0,-1,1231,1030,0,0
14,-6,0,0,0,0,0,0,0,0,0,-1,1238,1030,0,0
21,-6,0,0,0,0,0,0,0,0,0,-1,1245,1030,0,0
28,-6,0,0,0,0,0,0,0,0,0,-1,1252,1030,0,0
35,-6,0,0,0,0,0,0,0,0,0,-1,1259,1030,0,0
42,-6,0,0,0,0,0,0,0,0,0,-1,1266,1030,0,0
49,-6,0,0,0,0,0,0,0,0,0,-1,1273,1030,0,0
56,-6,0,0,0,0,0,0,0,0,0,-1,1280,1030,0,0
63,-6,0,0,0,0,0,0,0,0,0,-1,1287,1030,0,0
70,-6,0,0,0,0,0,0,0,0,0,-1,1294,1030,0,0
77,-6,0,0,0,0,0,0,0,0,0,-1,1301,1030,0,0
84,-6,0,0,0,0,0,0,0,0,0,-1,1308,1030,0,0
91,-6,0,0,0,0,0,0,0,0,0,-1,1315,1030,0,0
98,-6,0,0,0,0,0,0,0,0,0,-1,1322,1030,0,0
105,-6,0,0,0,0,0,0,0,0,0,-1,1329,1030,0,0
112,-6,0,0,0,0,0,0,0,0,0,-1,1336,1030,0,0
119,-6,0,0,0,0,0,0,0,0,0,-1,1343,1030,0,0
126,-6,0,0,0,0,0,0,0,0,0,-1,1350,1030,0,0
133,-6,0,0,0,0,0,0,0,0,0,-1,1357,1030,0,0
140,-6,0,0,0,0,0,0,0,0,0,-1,1364,1030,0,0
147,-6,0,0,0,0,0,0,0,0,0,-1,1371,1030,0,0
154,-6,0,0,0,0,0,0,0,0,0,-1,1378,1030,0,0
161,-6,0,0,0,0,0,0,0,0,0,-1,1385,1030,0,0
168,-6,0,0,0,0,0,0,0,0,0,-1,1392,1030,0,0
175,-6,0,0,0,0,0,0,0,0,0,-1,1399,1030,0,0
182,-6,0,0,0,0,0,0,0,0,0,-1,1406,1030,0,0
189,-6,0,0,0,0,0,0,0,0,0,-1,1413,1030,0,0
196,-6,0,0,0,0,0,0,0,0,0,-1,1420,1030,0,0
203,-6,0,0,0,0,0,0,0,0,0,-1,1427,1030,0,0
210,-6,0,0,0,0,0,0,0,0,0,-1,1434,1030,0,0
217,-6,0,0,0,0,0,0,0,0,0,-1,1441,1030,0,0
224,-6,0,0,0,0,0,0,0,0,0,-1,1448,1030,0,0
231,-6,0,0,0,0,0,0,0,0,0,-1,1455,1030,0,0
238,-6,0,0,0,0,0,0,0,0,0,-1,1462,1030,0,0
245,-6,0,0,0,0,0,0,0,0,0,-1,1469,1030,0,0
252,-6,0,0,0,0,0,0,0,0,0,-1,1476,1030,0,0
259,-6,0,0,0,0,0,0,0,0,0,-1,1483,1030,0,0
266,-6,0,0,0,0,0,0,0,0,0,-1,1490,1030,0,0
273,-6,0,0,0,0,0,0,0,0,0,-1,1497,1030,0,0
280,-6,0,0,0,0,0,0,0,0,0,-1,1504,1030,0,0
287,-6,0,0,0,0,0,0,0,0,0,-1,1511,1030,0,0
294,-6,0,0,0,0,0,0,0,0,0,-1,1518,1030,0,0
301,-6,0,0,0,0,0,0,0,0,0,-1,1525,1030,0,0
308,-6,0,0,0,0,0,0,0,0,0,-1,1532,1030,0,0
315,-6,0,0,0,0,0,0,0,0,0,-1,1539,1030,0,0
322,-6,0,0,0,0,0,0,0,0,0,-1,1546,1030,0,0
329,-6,0,0,0,0,0,0,0,0,0,-1,1553,1030,0,0
336,-6,0,0,0,0,0,0,0,0,0,-1,1560,1030,0,0
343,-6,0,0,0,0,0,0,0,0,0,-1,1567,1030,0,0
350,-6,0,0,0,0,0,0,0,0,0,-1,1574,1030,0,0
357,-6,0,0,0,0,0,0,0,0,0,-1,1581,1030,0,0
364,-6,0,0,0,0,0,0,0,0,0,-1,1588,1030,0,0
371,-6,0,0,0,0,0,0,0,0,0,-1,1595,1030,0,0
378,-6,0,0,0,0,0,0,0,0,0,-1,1602,1030,0,0
385,-6,0,0,0,0,0,0,0,0,0,-1,1609,1030,0,0
392,-6,0,0,0,0,0,0,0,0,0,-1,1616,1030,0,0
399,-6,0,0,0,0,0,0,0,0,0,-1,1623,1030,0,0
406,-6,0,0,0,0,0,0,0,0,0,-1,1630,1030,0,0
413,-6,0,0,0,0,0,0,0,0,0,-1,1637,1030,0,0
420,-6,0,0,0,0,0,0,0,0,0,-1,1644,1030,0,0
427,-6,0,0,0,0,0,0,0,0,0,-1,1651,1030,0,0
434,-6,0,0,0,0,0,0,0,0,0,-1,1658,1030,0,0
441,-6,0,0,0,0,0,0,0,0,0,-1,1665,1030,0,0
448,-6,0,0,0,0,0,0,0,0,0,-1,1672,1030,0,0
455,-6,0,0,0,0,0,0,0,0,0,-1,1679,1030,0,0
462,-6,0,0,0,0,0,0,0,0,0,-1,1686,1030,0,0
469,-6,0,0,0,0,0,0,0,0,0,-1,1693,1030,0,0
476,-6,0,0,0,0,0,0,0,0,0,-1,1700,1030,0,0
483,-6,0,0,0,0,0,0,0,0,0,-1,1707,1030,0,0
490,-6,0,0,0,0,0,0,0,0,0,-1,1714,1030,0,0
497,-6,0,0,0,0,0,0,0,0,0,-1,1721,1030,0,0
504,-6,0,0,0,0,0,0,0,0,0,-1,1728,1030,0,0
511,-6,0,0,0,0,0,0,0,0,0,-1,1735,1030,0,0
518,-6,0,0,0,0,0,0,0,0,0,-1,1742,1030,0,0
525,-6,0,0,0,0,0,0,0,0,0,-1,1749,1030,0,0
532,-6,0,0,0,0,0,0,0,0,0,-1,1756,1030,0,0
539,-6,0,0,0,0,0,0,0,0,0,-1,1763,1030,0,0
546,-6,0,0,0,0,0,0,0,0,0,-1,1770,1030,0,0
553,-6,0,0,0,0,0,0,0,0,0,-1,1777,1030,0,0
560,-6,0,0,0,0,0,0,0,0,0,-1,1784,1030,0,0
567,-6,0,0,0,0,0,0,0,0,0,-1,1791,1030,0,0
574,-6,0,0,0,0,0,0,0,0,0,-1,1798,1030,0,0
581,-6,0,0,0,0,0,0,0,0,0,-1,1805,1030,0,0
588,-6,0,0,0,0,0,0,0,0,0,-1,1812,1030,0,0
595,-6,0,0,0,0,0,0,0,0,0,-1,1819,1030,0,0
602,-6,0,0,0,0,0,0,0,0,0,-1,1826,1030,0,0
609,-6,0,0,0,0,0,0,0,0,0,-1,1833,1030,0,0
616,-6,0,0,0,0,0,0,0,0,0,-1,1840,1030,0,0
623,-6,0,0,0,0,0,0,0,0,0,-1,1847,1030,0,0
630,-6,0,0,0,0,0,0,0,0,0,-1,1854,1030,0,0
637,-6,0,0,0,0,0,0,0,0,0,-1,1861,1030,0,0
644,-6,0,0,0,0,0,0,0,0,0,-1,1868,1030,0,0
651,-6,49.6216,2.97803,0,0,0,0,0,0,0,-1,1875,1030,49.6216,-2.97803
658,-6,49.6678,2.79822,-0.0012896,0.00346735,0.00175325,0.0040437,-0.00186596,1.25319,0.00348831,0.0390078,1882,1030,49.6679,-2.79823
665,-6,49.7848,2.66052,-0.00120198,0.00263059,0.00119619,0.00297329,-0.00154468,1.29178,0.00265156,0.0426729,1889,1030,49.7848,-2.66056
672,-6,49.8978,2.66785,-0.00108404,0.00205784,0.00102981,0.00236529,-0.0013915,1.28067,0.00219314,0.0413536,1896,1030,49.8979,-2.66782
679,-6,49.762,2.64282,-0.000914918,0.00162958,0.00127015,0.00215508,-0.00144041,1.17851,0.00208948,0.0410985,1903,1030,49.762,-2.64284
686,-6,49.5408,2.79333,-0.000800492,0.00107594,0.00182516,0.00218991,-0.00191446,1.02281,0.00237144,0.0389044,1910,1030,49.5408,-2.79338
693,-6,49.5294,2.7406,-0.000617605,0.000495273,0.00243463,0.00243625,-0.00255858,0.897744,0.00288405,0.0354338,1917,1030,49.5294,-2.7406
700,-6,49.5198,2.68896,-0.000471225,7.01367e-05,0.00288487,0.002697,-0.00309809,0.832175,0.00334847,0.030518,1924,1030,49.5197,-2.68893
707,-6,49.507,2.73511,-0.00053876,2.78687e-06,0.00311193,0.0028557,-0.00339167,0.828795,0.00361134,0.0286266,1931,1030,49.507,-2.73508
714,-6,49.556,2.56494,-0.000950469,0.00026804,0.00329726,0.00301186,-0.00369429,0.876756,0.00387847,0.0419351,1938,1030,49.556,-2.56492
721,-6,49.6754,2.26062,0,0,0,0,0,0,0,-1,1945,1030,49.6754,-2.26061
728,-6,49.1237,6.00671,0,0,0,0,0,0,0,-1,1952,1030,49.1236,-6.00671
735,-6,49.2468,5.88831,-0.00319167,0.0027027,0.00329672,0.00417753,-0.0046665,1.15014,0.00510871,0.0423019,1959,1030,49.2468,-5.88835
742,-6,49.4227,5.87988,-0.00367951,0.00428757,0.00300922,0.00529643,-0.00468836,1.24732,0.00576828,0.0433071,1966,1030,49.4227,-5.87989
749,-6,49.3757,5.84998,0,0,0,0,0,0,0,-1,1973,1030,49.3758,-5.84995
756,-6,49.4288,5.87,-0.00513292,0.00835907,0.0019195,0.00862684,-0.00540069,1.43219,0.00816988,0.0218894,1980,1030,49.4289,-5.87005
763,-6,49.3281,5.76575,-0.00533253,0.0111878,0.000727796,0.0112198,-0.00536453,1.52686,0.00977187,0.0194818,1987,1030,49.3282,-5.76576
770,-6,49.2537,5.72559,-0.00512711,0.014758,-0.000559643,0.0147738,-0.00514285,-1.54268,0.0119386,0.0173527,1994,1030,49.2537,-5.72561
777,-6,49.1445,5.71265,-0.00374732,0.0186973,-0.0020499,0.018883,-0.00393301,-1.48046,0.0140839,0.0186262,2001,1030,49.1445,-5.71261
784,-6,49.0911,5.64758,-0.00131568,0.0223107,-0.00364857,0.0228613,-0.00186629,-1.42102,0.0158995,0.0425001,2008,1030,49.0911,-5.64759
791,-6,49.6296,5.78809,0.00261842,0.0253248,-0.00558478,0.0266241,0.00131916,-1.34222,0.0173264,0.0463778,2015,1030,49.6297,-5.78805
798,-6,49.7666,6.03723,0,0,0,0,0,0,0,-1,2022,1030,49.7667,-6.03725
805,-6,49.3,4.98315,0,0,0,0,0,0,0,-1,2029,1030,49.2999,-4.98318
812,-6,48.9133,4.41016,0,0,0,0,0,0,0,-1,2036,1030,48.9133,-4.41016
-700,-13,0,0,0,0,0,0,0,0,0,-1,524,1037,0,0
-693,-13,-35.8701,2.71643,-0.0283263,0.0299925,-0.0197516,0.0360524,-0.0343861,-1.27311,0.0406715,0.0463589,531,1037,-35.8701,-2.71643
-686,-13,-36.3024,2.8158,-0.0299692,0.026903,-0.0192399,0.0328003,-0.0358665,-1.27337,0.039658,0.0447296,538,1037,-36.3024,-2.81578
-679,-13,-36.7653,2.60559,-0.0289521,0.0241591,-0.0168359,0.0290463,-0.0338392,-1.28828,0.0363421,0.0467371,545,1037,-36.7653,-2.60565
-672,-13,-37.0547,2.36853,-0.0264414,0.0215815,-0.0138003,0.0252648,-0.0301247,-1.30998,0.0320202,0.0477766,552,1037,-37.0547,-2.36854
-665,-13,-37.1821,2.25244,-0.023196,0.0190883,-0.0107766,0.0216764,-0.0257841,-1.3351,0.0274355,0.0463115,559,1037,-37.1821,-2.25246
-658,-13,-37.1419,2.31287,-0.0196997,0.0166398,-0.00807313,0.0183525,-0.0214125,-1.36174,0.022981,0.0438465,566,1037,-37.1419,-2.31285
-651,-13,-37.0983,2.51062,-0.0162126,0.0141894,-0.00589608,0.0152928,-0.0173161,-1.38579,0.0188388,0.0398306,573,1037,-37.0983,-2.51065
-644,-13,-37.0421,2.77698,-0.0130444,0.0117793,-0.00465891,0.0126249,-0.0138899,-1.39125,0.0153141,0.0316373,580,1037,-37.0421,-2.77703
-637,-13,-37.1343,2.92407,-0.0103518,0.00985702,-0.00419027,0.0106914,-0.0111862,-1.37424,0.0126321,0.0241257,587,1037,-37.1343,-2.92412
-630,-13,-37.2596,2.9751,-0.0066527,0.00764019,-0.00317903,0.00831538,-0.00732789,-1.36152,0.00903764,0.0150587,594,1037,-37.2596,-2.97504
-623,-13,-37.2979,3.10608,-0.00307111,0.00582243,-0.00321103,0.00686059,-0.00410927,-1.25809,0.00639951,0.0147103,601,1037,-37.2979,-3.10604
-616,-13,-37.2781,3.2384,-0.000974043,0.00426821,-0.00420959,0.00660601,-0.00331185,-1.06385,0.00583041,0.0137938,608,1037,-37.2781,-3.23846
-609,-13,-37.254,3.36011,0.000321097,0.00319068,-0.00526753,0.00721533,-0.00370355,-0.918365,0.00641178,0.0178118,615,1037,-37.254,-3.36011
-602,-13,-37.2231,3.44482,0.00101549,0.00263833,-0.00597178,0.00785356,-0.00419974,-0.852922,0.00706475,0.0132462,622,1037,-37.2231,-3.44481
-595,-13,-37.236,3.52319,0,0,0,0,0,0,0,-1,629,1037,-37.2359,-3.52324
-588,-13,-36.9338,0.904419,0,0,0,0,0,0,0,-1,636,1037,-36.9338,-0.9044
-581,-13,-36.9553,0.885742,0.0020006,0.000380694,-0.00548946,0.00673954,-0.00435824,-0.712153,0.00645629,0.0163296,643,1037,-36.9553,-0.885709
-574,-13,-36.994,0.888794,0.00179798,7.34641e-05,-0.00481202,0.00582438,-0.00395294,-0.696745,0.0056793,0.0308974,650,1037,-36.9939,-0.888792
-567,-13,-37.0881,0.874146,0.00114691,-6.08206e-05,-0.00365644,0.00424902,-0.00316293,-0.703561,0.00429457,0.0371987,657,1037,-37.0881,-0.874144
-560,-13,-36.9474,0.648438,0.000190843,-0.000187872,-0.00199081,0.00200128,-0.00199831,-0.737983,0.00230916,0.0415505,664,1037,-36.9474,-0.648425
-553,-13,-36.8429,0.641724,-0.00103145,-0.000563445,0.000172201,-0.000506912,-0.00108798,1.25359,0.000628632,0.0426352,671,1037,-36.8429,-0.641764
-546,-13,-37.05,0.925903,-0.0023518,-0.00156301,0.00278971,0.000860046,-0.00477485,0.85562,0.00350526,0.0411294,678,1037,-37.05,-0.925863
-539,-13,-37.0864,0.955688,-0.00339305,-0.00295691,0.00500406,0.00183382,-0.00818379,0.807173,0.00615882,0.0423621,685,1037,-37.0864,-0.955667
-532,-13,-37.0964,0.795898,-0.00320316,-0.0044095,0.00562903,0.00185492,-0.00946759,0.732025,0.00701229,0.0426924,692,1037,-37.0964,-0.795847
-525,-13,0,0,0,0,0,0,0,0,0,-1,699,1037,0,0
-518,-13,0,0,0,0,0,0,0,0,0,-1,706,1037,0,0
-511,-13,0,0,0,0,0,0,0,0,0,-1,713,1037,0,0
-504,-13,0,0,0,0,0,0,0,0,0,-1,720,1037,0,0
-497,-13,0,0,0,0,0,0,0,0,0,-1,727,1037,0,0
-490,-13,0,0,0,0,0,0,0,0,0,-1,734,1037,0,0
-483,-13,0,0,0,0,0,0,0,0,0,-1,741,1037,0,0
-476,-13,0,0,0,0,0,0,0,0,0,-1,748,1037,0,0
-469,-13,0,0,0,0,0,0,0,0,0,-1,755,1037,0,0
-462,-13,0,0,0,0,0,0,0,0,0,-1,762,1037,0,0
-455,-13,0,0,0,0,0,0,0,0,0,-1,769,1037,0,0
-448,-13,0,0,0,0,0,0,0,0,0,-1,776,1037,0,0
-441,-13,0,0,0,0,0,0,0,0,0,-1,783,1037,0,0
-434,-13,0,0,0,0,0,0,0,0,0,-1,790,1037,0,0
-427,-13,0,0,0,0,0,0,0,0,0,-1,797,1037,0,0
-420,-13,0,0,0,0,0,0,0,0,0,-1,804,1037,0,0
-413,-13,0,0,0,0,0,0,0,0,0,-1,811,1037,0,0
-406,-13,0,0,0,0,0,0,0,0,0,-1,818,1037,0,0
-399,-13,0,0,0,0,0,0,0,0,0,-1,825,1037,0,0
-392,-13,0,0,0,0,0,0,0,0,0,-1,832,1037,0,0
-385,-13,0,0,0,0,0,0,0,0,0,-1,839,1037,0,0
-378,-13,0,0,0,0,0,0,0,0,0,-1,846,1037,0,0
-371,-13,0,0,0,0,0,0,0,0,0,-1,853,1037,0,0
-364,-13,0,0,0,0,0,0,0,0,0,-1,860,1037,0,0
-357,-13,0,0,0,0,0,0,0,0,0,-1,867,1037,0,0
-350,-13,0,0,0,0,0,0,0,0,0,-1,874,1037,0,0
-343,-13,0,0,0,0,0,0,0,0,0,-1,881,1037,0,0
-336,-13,0,0,0,0,0,0,0,0,0,-1,888,1037,0,0
-329,-13,0,0,0,0,0,0,0,0,0,-1,895,1037,0,0
-322,-13,0,0,0,0,0,0,0,0,0,-1,902,1037,0,0
-315,-13,0,0,0,0,0,0,0,0,0,-1,909,1037,0,0
-308,-13,0,0,0,0,0,0,0,0,0,-1,916,1037,0,0
-301,-13,0,0,0,0,0,0,0,0,0,-1,923,1037,0,0
-294,-13,0,0,0,0,0,0,0,0,0,-1,930,1037,0,0
-287,-13,0,0,0,0,0,0,0,0,0,-1,937,1037,0,0
-280,-13,0,0,0,0,0,0,0,0,0,-1,944,1037,0,0
-273,-13,0,0,0,0,0,0,0,0,0,-1,951,1037,0,0
-266,-13,0,0,0,0,0,0,0,0,0,-1,958,1037,0,0
-259,-13,0,0,0,0,0,0,0,0,0,-1,965,1037,0,0
-252,-13,0,0,0,0,0,0,0,0,0,-1,972,1037,0,0
-245,-13,0,0,0,0,0,0,0,0,0,-1,979,1037,0,0
-238,-13,0,0,0,0,0,0,0,0,0,-1,986,1037,0,0
-231,-13,0,0,0,0,0,0,0,0,0,-1,993,1037,0,0
-224,-13,0,0,0,0,0,0,0,0,0,-1,1000,1037,0,0
-217,-13,0,0,0,0,0,0,0,0,0,-1,1007,1037,0,0
-210,-13,0,0,0,0,0,0,0,0,0,-1,1014,1037,0,0
-203,-13,0,0,0,0,0,0,0,0,0,-1,1021,1037,0,0
-196,-13,0,0,0,0,0,0,0,0,0,-1,1028,1037,0,0
-189,-13,0,0,0,0,0,0,0,0,0,-1,1035,1037,0,0
-182,-13,0,0,0,0,0,0,0,0,0,-1,1042,1037,0,0
-175,-13,0,0,0,0,0,0,0,0,0,-1,1049,1037,0,0
-168,-13,0,0,0,0,0,0,0,0,0,-1,1056,1037,0,0
-161,-13,0,0,0,0,0,0,0,0,0,-1,1063,1037,0,0
-154,-13,0,0,0,0,0,0,0,0,0,-1,1070,1037,0,0
-147,-13,0,0,0,0,0,0,0,0,0,-1,1077,1037,0,0
-140,-13,0,0,0,0,0,0,0,0,0,-1,1084,1037,0,0
-133,-13,0,0,0,0,0,0,0,0,0,-1,1091,1037,0,0
-126,-13,0,0,0,0,0,0,0,0,0,-1,1098,1037,0,0
-119,-13,0,0,0,0,0,0,0,0,0,-1,1105,1037,0,0
-112,-13,0,0,0,0,0,0,0,0,0,-1,1112,1037,0,0
-105,-13,0,0,0,0,0,0,0,0,0,-1,1119,1037,0,0
-98,-13,0,0,0,0,0,0,0,0,0,-1,1126,1037,0,0
-91,-13,0,0,0,0,0,0,0,0,0,-1,1133,1037,0,0
-84,-13,0,0,0,0,0,0,0,0,0,-1,1140,1037,0,0
-77,-13,0,0,0,0,0,0,0,0,0,-1,1147,1037,0,0
-70,-13,0,0,0,0,0,0,0,0,0,-1,1154,1037,0,0
-63,-13,0,0,0,0,0,0,0,0,0,-1,1161,1037,0,0
-56,-13,0,0,0,0,0,0,0,0,0,-1,1168,1037,0,0
-49,-13,0,0,0,0,0,0,0,0,0,-1,1175,1037,0,0
-42,-13,0,0,0,0,0,0,0,0,0,-1,1182,1037,0,0
-35,-13,0,0,0,0,0,0,0,0,0,-1,1189,1037,0,0
-28,-13,0,0,0,0,0,0,0,0,0,-1,1196,1037,0,0
-21,-13,0,0,0,0,0,0,0,0,0,-1,1203,1037,0,0
-14,-13,0,0,0,0,0,0,0,0,0,-1,1210,1037,0,0
-7,-13,0,0,0,0,0,0,0,0,0,-1,1217,1037,0,0
0,-13,0,0,0,0,0,0,0,0,0,-1,1224,1037,0,0
7,-13,0,0,0,0,0,0,0,0,0,-1,1231,1037,0,0
14,-13,0,0,0,0,0,0,0,0,0,-1,1238,1037,0,0
21,-13,0,0,0,0,0,0,0,0,0,-1,1245,1037,0,0
28,-13,0,0,0,0,0,0,0,0,0,-1,1252,1037,0,0
35,-13,0,0,0,0,0,0,0,0,0,-1,1259,1037,0,0
42,-13,0,0,0,0,0,0,0,0,0,-1,1266,1037,0,0
49,-13,0,0,0,0,0,0,0,0,0,-1,1273,1037,0,0
56,-13,0,0,0,0,0,0,0,0,0,-1,1280,1037,0,0
63,-13,0,0,0,0,0,0,0,0,0,-1,1287,1037,0,0
70,-13,0,0,0,0,0,0,0,0,0,-1,1294,1037,0,0
77,-13,0,0,0,0,0,0,0,0,0,-1,1301,1037,0,0
84,-13,0,0,0,0,0,0,0,0,0,-1,1308,1037,0,0
91,-13,0,0,0,0,0,0,0,0,0,-1,1315,1037,0,0
98,-13,0,0,0,0,0,0,0,0,0,-1,1322,1037,0,0
105,-13,0,0,0,0,0,0,0,0,0,-1,1329,1037,0,0
112,-13,0,0,0,0,0,0,0,0,0,-1,1336,1037,0,0
119,-13,0,0,0,0,0,0,0,0,0,-1,1343,1037,0,0
126,-13,0,0,0,0,0,0,0,0,0,-1,1350,1037,0,0
133,-13,0,0,0,0,0,0,0,0,0,-1,1357,1037,0,0
140,-13,0,0,0,0,0,0,0,0,0,-1,1364,1037,0,0
147,-13,0,0,0,0,0,0,0,0,0,-1,1371,1037,0,0
154,-13,0,0,0,0,0,0,0,0,0,-1,1378,1037,0,0
161,-13,0,0,0,0,0,0,0,0,0,-1,1385,1037,0,0
168,-13,0,0,0,0,0,0,0,0,0,-1,1392,1037,0,0
175,-13,0,0,0,0,0,0,0,0,0,-1,1399,1037,0,0
182,-13,0,0,0,0,0,0,0,0,0,-1,1406,1037,0,0
189,-13,0,0,0,0,0,0,0,0,0,-1,1413,1037,0,0
196,-13,0,0,0,0,0,0,0,0,0,-1,1420,1037,0,0
203,-13,0,0,0,0,0,0,0,0,0,-1,1427,1037,0,0
210,-13,0,0,0,0,0,0,0,0,0,-1,1434,1037,0,0
217,-13,0,0,0,0,0,0,0,0,0,-1,1441,1037,0,0
224,-13,0,0,0,0,0,0,0,0,0,-1,1448,1037,0,0
231,-13,0,0,0,0,0,0,0,0,0,-1,1455,1037,0,0
238,-13,0,0,0,0,0,0,0,0,0,-1,1462,1037,0,0
245,-13,0,0,0,0,0,0,0,0,0,-1,1469,1037,0,0
252,-13,0,0,0,0,0,0,0,0,0,-1,1476,1037,0,0
259,-13,0,0,0,0,0,0,0,0,0,-1,1483,1037,0,0
266,-13,0,0,0,0,0,0,0,0,0,-1,1490,1037,0,0
273,-13,0,0,0,0,0,0,0,0,0,-1,1497,1037,0,0
280,-13,0,0,0,0,0,0,0,0,0,-1,1504,1037,0,0
287,-13,0,0,0,0,0,0,0,0,0,-1,1511,1037,0,0
294,-13,0,0,0,0,0,0,0,0,0,-1,1518,1037,0,0
301,-13,0,0,0,0,0,0,0,0,0,-1,1525,1037,0,0
308,-13,0,0,0,0,0,0,0,0,0,-1,1532,1037,0,0
315,-13,0,0,0,0,0,0,0,0,0,-1,1539,1037,0,0
322,-13,0,0,0,0,0,0,0,0,0,-1,1546,1037,0,0
329,-13,0,0,0,0,0,0,0,0,0,-1,1553,1037,0,0
336,-13,0,0,0,0,0,0,0,0,0,-1,1560,1037,0,0
343,-13,0,0,0,0,0,0,0,0,0,-1,1567,1037,0,0
350,-13,0,0,0,0,0,0,0,0,0,-1,1574,1037,0,0
357,-13,0,0,0,0,0,0,0,0,0,-1,1581,1037,0,0
364,-13,0,0,0,0,0,0,0,0,0,-1,1588,1037,0,0
371,-13,0,0,0,0,0,0,0,0,0,-1,1595,1037,0,0
378,-13,0,0,0,0,0,0,0,0,0,-1,1602,1037,0,0
385,-13,0,0,0,0,0,0,0,0,0,-1,1609,1037,0,0
392,-13,0,0,0,0,0,0,0,0,0,-1,1616,1037,0,0
399,-13,0,0,0,0,0,0,0,0,0,-1,1623,1037,0,0
406,-13,0,0,0,0,0,0,0,0,0,-1,1630,1037,0,0
413,-13,0,0,0,0,0,0,0,0,0,-1,1637,1037,0,0
420,-13,0,0,0,0,0,0,0,0,0,-1,1644,1037,0,0
427,-13,0,0,0,0,0,0,0,0,0,-1,1651,1037,0,0
434,-13,0,0,0,0,0,0,0,0,0,-1,1658,1037,0,0
441,-13,0,0,0,0,0,0,0,0,0,-1,1665,1037,0,0
448,-13,0,0,0,0,0,0,0,0,0,-1,1672,1037,0,0
455,-13,0,0,0,0,0,0,0,0,0,-1,1679,1037,0,0
462,-13,0,0,0,0,0,0,0,0,0,-1,1686,1037,0,0
469,-13,0,0,0,0,0,0,0,0,0,-1,1693,1037,0,0
476,-13,0,0,0,0,0,0,0,0,0,-1,1700,1037,0,0
483,-13,0,0,0,0,0,0,0,0,0,-1,1707,1037,0,0
490,-13,0,0,0,0,0,0,0,0,0,-1,1714,1037,0,0
497,-13,0,0,0,0,0,0,0,0,0,-1,1721,1037,0,0
504,-13,0,0,0,0,0,0,0,0,0,-1,1728,1037,0,0
511,-13,0,0,0,0,0,0,0,0,0,-1,1735,1037,0,0
518,-13,0,0,0,0,0,0,0,0,0,-1,1742,1037,0,0
525,-13,0,0,0,0,0,0,0,0,0,-1,1749,1037,0,0
532,-13,0,0,0,0,0,0,0,0,0,-1,1756,1037,0,0
539,-13,0,0,0,0,0,0,0,0,0,-1,1763,1037,0,0
546,-13,0,0,0,0,0,0,0,0,0,-1,1770,1037,0,0
553,-13,0,0,0,0,0,0,0,0,0,-1,1777,1037,0,0
560,-13,0,0,0,0,0,0,0,0,0,-1,1784,1037,0,0
567,-13,0,0,0,0,0,0,0,0,0,-1,1791,1037,0,0
574,-13,0,0,0,0,0,0,0,0,0,-1,1798,1037,0,0
581,-13,0,0,0,0,0,0,0,0,0,-1,1805,1037,0,0
588,-13,0,0,0,0,0,0,0,0,0,-1,1812,1037,0,0
595,-13,0,0,0,0,0,0,0,0,0,-1,1819,1037,0,0
602,-13,0,0,0,0,0,0,0,0,0,-1,1826,1037,0,0
609,-13,0,0,0,0,0,0,0,0,0,-1,1833,1037,0,0
616,-13,0,0,0,0,0,0,0,0,0,-1,1840,1037,0,0
623,-13,0,0,0,0,0,0,0,0,0,-1,1847,1037,0,0
630,-13,0,0,0,0,0,0,0,0,0,-1,1854,1037,0,0
637,-13,0,0,0,0,0,0,0,0,0,-1,1861,1037,0,0
644,-13,0,0,0,0,0,0,0,0,0,-1,1868,1037,0,0
651,-13,49.8372,2.62061,-0.00196933,0.00391847,0.00309468,0.00524582,-0.00329669,1.16562,0.00497463,0.039266,1875,1037,49.8371,-2.62061
658,-13,49.6855,2.59827,-0.00153761,0.00298678,0.00190468,0.00368183,-0.00223267,1.22089,0.00344874,0.0417559,1882,1037,49.6856,-2.59828
665,-13,49.6918,2.55774,-0.00133975,0.00232067,0.00131878,0.0027463,-0.00176539,1.2586,0.00262527,0.0420677,1889,1037,49.6917,-2.55774
672,-13,49.6852,2.53882,-0.0011519,0.00187778,0.00112906,0.00225226,-0.00152638,1.25054,0.00219497,0.03629,1896,1037,49.6852,-2.53881
679,-13,49.5911,2.73059,-0.000956413,0.00155225,0.00130783,0.00211003,-0.0015142,1.16766,0.00210185,0.0378012,1903,1037,49.591,-2.73063
686,-13,49.4969,2.84302,-0.000893272,0.00106382,0.00179243,0.00212742,-0.00195687,1.03526,0.00235875,0.03967,1910,1037,49.497,-2.84302
693,-13,49.5653,2.73242,-0.000781103,0.000513897,0.00235358,0.00230742,-0.00257462,0.919634,0.00282006,0.0383705,1917,1037,49.5653,-2.73248
700,-13,49.5779,2.646,-0.000690885,9.83179e-05,0.00279752,0.00252893,-0.0031215,0.855463,0.00326825,0.0374624,1924,1037,49.5779,-2.64596
707,-13,49.5973,2.65125,-0.000784134,8.87854e-06,0.00301858,0.00265688,-0.00343214,0.850702,0.00352499,0.0339781,1931,1037,49.5973,-2.65127
714,-13,49.5811,2.8573,-0.0011886,0.000228398,0.00321951,0.00281645,-0.00377665,0.893704,0.00381996,0.0372605,1938,1037,49.5811,-2.85728
721,-13,49.429,3.1106,0,0,0,0,0,0,0,-1,1945,1037,49.429,-3.11054
728,-13,49.339,6.04895,0,0,0,0,0,0,0,-1,1952,1037,49.3389,-6.04898
735,-13,49.288,6.03247,-0.0034704,0.00251769,0.0033055,0.00398354,-0.00493624,1.1534,0.00515962,0.0289463,1959,1037,49.288,-6.03245
742,-13,49.2988,5.99353,-0.00395151,0.00403237,0.00312997,0.00511314,-0.00503227,1.23832,0.00585752,0.0186442,1966,1037,49.2989,-5.99347
749,-13,49.3402,5.91809,-0.00472312,0.00562769,0.00277915,0.00632668,-0.00542211,1.3244,0.00678987,0.0250463,1973,1037,49.3402,-5.91808
756,-13,49.324,5.83582,-0.00530788,0.00795498,0.00220802,0.00831292,-0.00566581,1.41009,0.00811872,0.0173514,1980,1037,49.3239,-5.83576
763,-13,49.2864,5.7207,-0.00544857,0.0107388,0.00112274,0.0108163,-0.00552607,1.50188,0.00959862,0.0248588,1987,1037,49.2864,-5.72068
770,-13,49.2191,5.65796,-0.00525623,0.0142726,-3.18392e-05,0.0142727,-0.00525628,-1.56917,0.0116687,0.0219294,1994,1037,49.2192,-5.658
777,-13,49.0632,5.56433,-0.00387805,0.0182671,-0.00142144,0.018358,-0.00396891,-1.50696,0.0137538,0.0170453,2001,1037,49.0632,-5.56432
784,-13,49.0422,5.45056,-0.00150882,0.0219689,-0.00298215,0.0223418,-0.0018817,-1.44641,0.0155597,0.0345158,2008,1037,49.0423,-5.45055
791,-13,49.2454,5.41418,0.00228965,0.0251933,-0.00488392,0.0261912,0.00129169,-1.36924,0.0170466,0.0447295,2015,1037,49.2453,-5.41415
798,-13,49.3577,5.17419,0.00808897,0.02761,-0.0074172,0.0301085,0.00559051,-1.24589,0.0184927,0.0452613,2022,1037,49.3576,-5.17418
805,-13,49.3545,4.79456,0.0161073,0.0291954,-0.0109283,0.0353892,0.00991348,-1.05517,0.0210802,0.0406982,2029,1037,49.3544,-4.79452
812,-13,49.1885,4.50415,0.0264226,0.0291837,-0.0158329,0.0436961,0.0119102,-0.828886,0.0260834,0.0403201,2036,1037,49.1884,-4.50419
-700,-20,-34.8805,1.96191,-0.021964,0.0365152,-0.0191795,0.0422442,-0.027693,-1.28053,0.0406686,0.0497515,524,1044,-34.8804,-1.96193
-693,-20,-34.8828,2.19873,-0.0291701,0.0330696,-0.0220359,0.0400815,-0.036182,-1.26273,0.0440499,0.0449085,531,1044,-34.8828,-2.19878
-686,-20,-35.2811,2.34619,-0.0308025,0.0295255,-0.0211861,0.0362223,-0.0374993,-1.26464,0.0425653,0.0427848,538,1044,-35.2811,-2.34621
-679,-20,-35.6824,2.39722,-0.0296803,0.0262427,-0.0187396,0.0319415,-0.0353791,-1.27558,0.0388845,0.0448704,545,1044,-35.6824,-2.39723
-672,-20,-36.7095,2.07117,-0.0270673,0.0231401,-0.0157032,0.027647,-0.0315741,-1.2913,0.0342164,0.0496786,552,1044,-36.7095,-2.0712
-665,-20,-36.808,2.13611,0,0,0,0,0,0,0,-1,559,1044,-36.808,-2.13611
-658,-20,-36.8444,2.25525,-0.0200423,0.0173457,-0.00974827,0.0197348,-0.0224314,-1.33046,0.0243612,0.0477218,566,1044,-36.8444,-2.25526
-651,-20,-36.8992,2.42139,-0.0164032,0.0145957,-0.00733344,0.016243,-0.0180505,-1.34983,0.0198085,0.0404662,573,1044,-36.8992,-2.42142
-644,-20,-36.9084,2.55554,-0.0131272,0.0118561,-0.00585174,0.0131588,-0.0144299,-1.35175,0.015934,0.0281987,580,1044,-36.9084,-2.55553
-637,-20,-36.9783,2.69836,-0.0104307,0.00967834,-0.0049829,0.0108453,-0.0115977,-1.34074,0.0129599,0.0184264,587,1044,-36.9783,-2.6984
-630,-20,-37.0637,2.87463,-0.00663609,0.0073197,-0.0035354,0.00816421,-0.0074806,-1.33632,0.00903541,0.0151686,594,1044,-37.0636,-2.87457
-623,-20,-37.1113,3.07166,-0.00301444,0.00543776,-0.00328444,0.006564,-0.00414067,-1.24046,0.00623291,0.0152039,601,1044,-37.1113,-3.07167
-616,-20,-37.1011,3.2323,-0.00102419,0.00385741,-0.00409519,0.00618401,-0.00335079,-1.05414,0.00558534,0.0148871,608,1044,-37.1011,-3.23235
-609,-20,-37.1241,3.3562,0.000186694,0.0027726,-0.00497872,0.00662352,-0.00366422,-0.91244,0.00602098,0.0159463,615,1044,-37.1241,-3.35625
-602,-20,-37.0923,3.47632,0.000825188,0.0022272,-0.00548793,0.00705872,-0.00400633,-0.848922,0.00646893,0.0135371,622,1044,-37.0923,-3.47627
-595,-20,-37.114,3.63647,0,0,0,0,0,0,0,-1,629,1044,-37.114,-3.63643
-588,-20,-36.9502,0.882446,0,0,0,0,0,0,0,-1,636,1044,-36.9502,-0.882431
-581,-20,-36.9238,0.838989,0.00173632,0.000174258,-0.00476247,0.00578138,-0.0038708,-0.704123,0.00560896,0.0229641,643,1044,-36.9238,-0.838994
-574,-20,-36.9358,0.891968,0.00159149,-7.88455e-05,-0.00408065,0.00492156,-0.00340892,-0.68446,0.00483596,0.0376095,650,1044,-36.9358,-0.892015
-567,-20,-36.925,1.00122,0.0010501,-0.000165324,-0.00297866,0.00348241,-0.00259763,-0.684768,0.00352268,0.0422894,657,1044,-36.925,-1.00124
-560,-20,-36.8215,0.829102,0.000242232,-0.000227027,-0.00143113,0.00145784,-0.00144264,-0.704148,0.0016746,0.0404909,664,1044,-36.8215,-0.829085
-553,-20,-36.7205,0.587524,-0.000786885,-0.000513352,0.000542812,-9.03419e-05,-0.0012099,0.908809,0.000778233,0.0406472,671,1044,-36.7205,-0.587582
-546,-20,-36.9351,1.12817,-0.00190305,-0.00139698,0.00289006,0.00125111,-0.00455113,0.829064,0.00352591,0.0407682,678,1044,-36.9351,-1.12812
-539,-20,-36.9995,1.22107,-0.00284106,-0.0027405,0.0047956,0.00200508,-0.00758664,0.79064,0.00584196,0.0427484,685,1044,-36.9995,-1.2211
-532,-20,-37.0147,1.07007,-0.00273507,-0.0040421,0.00534987,0.00200105,-0.00877823,0.724622,0.00662075,0.0426669,692,1044,-37.0147,-1.07013
-525,-20,0,0,0,0,0,0,0,0,0,-1,699,1044,0,0
-518,-20,0,0,0,0,0,0,0,0,0,-1,706,1044,0,0
-511,-20,0,0,0,0,0,0,0,0,0,-1,713,1044,0,0
-504,-20,0,0,0,0,0,0,0,0,0,-1,720,1044,0,0
-497,-20,0,0,0,0,0,0,0,0,0,-1,727,1044,0,0
-490,-20,0,0,0,0,0,0,0,0,0,-1,734,1044,0,0
-483,-20,0,0,0,0,0,0,0,0,0,-1,741,1044,0,0
-476,-20,0,0,0,0,0,0,0,0,0,-1,748,1044,0,0
-469,-20,0,0,0,0,0,0,0,0,0,-1,755,1044,0,0
-462,-20,0,0,0,0,0,0,0,0,0,-1,762,1044,0,0
-455,-20,0,0,0,0,0,0,0,0,0,-1,769,1044,0,0
-448,-20,0,0,0,0,0,0,0,0,0,-1,776,1044,0,0
-441,-20,0,0,0,0,0,0,0,0,0,-1,783,1044,0,0
-434,-20,0,0,0,0,0,0,0,0,0,-1,790,1044,0,0
-427,-20,0,0,0,0,0,0,0,0,0,-1,797,1044,0,0
-420,-20,0,0,0,0,0,0,0,0,0,-1,804,1044,0,0
-413,-20,0,0,0,0,0,0,0,0,0,-1,811,1044,0,0
-406,-20,0,0,0,0,0,0,0,0,0,-1,818,1044,0,0
-399,-20,0,0,0,0,0,0,0,0,0,-1,825,1044,0,0
-392,-20,0,0,0,0,0,0,0,0,0,-1,832,1044,0,0
-385,-20,0,0,0,0,0,0,0,0,0,-1,839,1044,0,0
-378,-20,0,0,0,0,0,0,0,0,0,-1,846,1044,0,0
-371,-20,0,0,0,0,0,0,0,0,0,-1,853,1044,0,0
-364,-20,0,0,0,0,0,0,0,0,0,-1,860,1044,0,0
-357,-20,0,0,0,0,0,0,0,0,0,-1,867,1044,0,0
-350,-20,0,0,0,0,0,0,0,0,0,-1,874,1044,0,0
-343,-20,0,0,0,0,0,0,0,0,0,-1,881,1044,0,0
-336,-20,0,0,0,0,0,0,0,0,0,-1,888,1044,0,0
-329,-20,0,0,0,0,0,0,0,0,0,-1,895,1044,0,0
-322,-20,0,0,0,0,0,0,0,0,0,-1,902,1044,0,0
-315,-20,0,0,0,0,0,0,0,0,0,-1,909,1044,0,0
-308,-20,0,0,0,0,0,0,0,0,0,-1,916,1044,0,0
-301,-20,0,0,0,0,0,0,0,0,0,-1,923,1044,0,0
-294,-20,0,0,0,0,0,0,0,0,0,-1,930,1044,0,0
-287,-20,0,0,0,0,0,0,0,0,0,-1,937,1044,0,0
-280,-20,0,0,0,0,0,0,0,0,0,-1,944,1044,0,0
-273,-20,0,0,0,0,0,0,0,0,0,-1,951,1044,0,0
-266,-20,0,0,0,0,0,0,0,0,0,-1,958,1044,0,0
-259,-20,0,0,0,0,0,0,0,0,0,-1,965,1044,0,0
-252,-20,0,0,0,0,0,0,0,0,0,-1,972,1044,0,0
-245,-20,0,0,0,0,0,0,0,0,0,-1,979,1044,0,0
-238,-20,0,0,0,0,0,0,0,0,0,-1,986,1044,0,0
-231,-20,0,0,0,0,0,0,0,0,0,-1,993,1044,0,0
-224,-20,0,0,0,0,0,0,0,0,0,-1,1000,1044,0,0
-217,-20,0,0,0,0,0,0,0,0,0,-1,1007,1044,0,0
-210,-20,0,0,0,0,0,0,0,0,0,-1,1014,1044,0,0
-203,-20,0,0,0,0,0,0,0,0,0,-1,1021,1044,0,0
-196,-20,0,0,0,0,0,0,0,0,0,-1,1028,1044,0,0
-189,-20,0,0,0,0,0,0,0,0,0,-1,1035,1044,0,0
-182,-20,0,0,0,0,0,0,0,0,0,-1,1042,1044,0,0
-175,-20,0,0,0,0,0,0,0,0,0,-1,1049,1044,0,0
-168,-20,0,0,0,0,0,0,0,0,0,-1,1056,1044,0,0
-161,-20,0,0,0,0,0,0,0,0,0,-1,1063,1044,0,0
-154,-20,0,0,0,0,0,0,0,0,0,-1,1070,1044,0,0
-147,-20,0,0,0,0,0,0,0,0,0,-1,1077,1044,0,0
-140,-20,0,0,0,0,0,0,0,0,0,-1,1084,1044,0,0
-133,-20,0,0,0,0,0,0,0,0,0,-1,1091,1044,0,0
-126,-20,0,0,0,0,0,0,0,0,0,-1,1098,1044,0,0
-119,-20,0,0,0,0,0,0,0,0,0,-1,1105,1044,0,0
-112,-20,0,0,0,0,0,0,0,0,0,-1,1112,1044,0,0
-105,-20,0,0,0,0,0,0,0,0,0,-1,1119,1044,0,0
-98,-20,0,0,0,0,0,0,0,0,0,-1,1126,1044,0,0
-91,-20,0,0,0,0,0,0,0,0,0,-1,1133,1044,0,0
-84,-20,0,0,0,0,0,0,0,0,0,-1,1140,1044,0,0
-77,-20,0,0,0,0,0,0,0,0,0,-1,1147,1044,0,0
-70,-20,0,0,0,0,0,0,0,0,0,-1,1154,1044,0,0
-63,-20,0,0,0,0,0,0,0,0,0,-1,1161,1044,0,0
-56,-20,0,0,0,0,0,0,0,0,0,-1,1168,1044,0,0
-49,-20,0,0,0,0,0,0,0,0,0,-1,1175,1044,0,0
-42,-20,0,0,0,0,0,0,0,0,0,-1,1182,1044,0,0
-35,-20,0,0,0,0,0,0,0,0,0,-1,1189,1044,0,0
-28,-20,0,0,0,0,0,0,0,0,0,-1,1196,1044,0,0
-21,-20,0,0,0,0,0,0,0,0,0,-1,1203,1044,0,0
-14,-20,0,0,0,0,0,0,0,0,0,-1,1210,1044,0,0
-7,-20,0,0,0,0,0,0,0,0,0,-1,1217,1044,0,0
0,-20,0,0,0,0,0,0,0,0,0,-1,1224,1044,0,0
7,-20,0,0,0,0,0,0,0,0,0,-1,1231,1044,0,0
14,-20,0,0,0,0,0,0,0,0,0,-1,1238,1044,0,0
21,-20,0,0,0,0,0,0,0,0,0,-1,1245,1044,0,0
28,-20,0,0,0,0,0,0,0,0,0,-1,1252,1044,0,0
35,-20,0,0,0,0,0,0,0,0,0,-1,1259,1044,0,0
42,-20,0,0,0,0,0,0,0,0,0,-1,1266,1044,0,0
49,-20,0,0,0,0,0,0,0,0,0,-1,1273,1044,0,0
56,-20,0,0,0,0,0,0,0,0,0,-1,1280,1044,0,0
63,-20,0,0,0,0,0,0,0,0,0,-1,1287,1044,0,0
70,-20,0,0,0,0,0,0,0,0,0,-1,1294,1044,0,0
77,-20,0,0,0,0,0,0,0,0,0,-1,1301,1044,0,0
84,-20,0,0,0,0,0,0,0,0,0,-1,1308,1044,0,0
91,-20,0,0,0,0,0,0,0,0,0,-1,1315,1044,0,0
98,-20,0,0,0,0,0,0,0,0,0,-1,1322,1044,0,0
105,-20,0,0,0,0,0,0,0,0,0,-1,1329,1044,0,0
112,-20,0,0,0,0,0,0,0,0,0,-1,1336,1044,0,0
119,-20,0,0,0,0,0,0,0,0,0,-1,1343,1044,0,0
126,-20,0,0,0,0,0,0,0,0,0,-1,1350,1044,0,0
133,-20,0,0,0,0,0,0,0,0,0,-1,1357,1044,0,0
140,-20,0,0,0,0,0,0,0,0,0,-1,1364,1044,0,0
147,-20,0,0,0,0,0,0,0,0,0,-1,1371,1044,0,0
154,-20,0,0,0,0,0,0,0,0,0,-1,1378,1044,0,0
161,-20,0,0,0,0,0,0,0,0,0,-1,1385,1044,0,0
168,-20,0,0,0,0,0,0,0,0,0,-1,1392,1044,0,0
175,-20,0,0,0,0,0,0,0,0,0,-1,1399,1044,0,0
182,-20,0,0,0,0,0,0,0,0,0,-1,1406,1044,0,0
189,-20,0,0,0,0,0,0,0,0,0,-1,1413,1044,0,0
196,-20,0,0,0,0,0,0,0,0,0,-1,1420,1044,0,0
203,-20,0,0,0,0,0,0,0,0,0,-1,1427,1044,0,0
210,-20,0,0,0,0,0,0,0,0,0,-1,1434,1044,0,0
217,-20,0,0,0,0,0,0,0,0,0,-1,1441,1044,0,0
224,-20,0,0,0,0,0,0,0,0,0,-1,1448,1044,0,0
231,-20,0,0,0,0,0,0,0,0,0,-1,1455,1044,0,0
238,-20,0,0,0,0,0,0,0,0,0,-1,1462,1044,0,0
245,-20,0,0,0,0,0,0,0,0,0,-1,1469,1044,0,0
252,-20,0,0,0,0,0,0,0,0,0,-1,1476,1044,0,0
259,-20,0,0,0,0,0,0,0,0,0,-1,1483,1044,0,0
266,-20,0,0,0,0,0,0,0,0,0,-1,1490,1044,0,0
273,-20,0,0,0,0,0,0,0,0,0,-1,1497,1044,0,0
280,-20,0,0,0,0,0,0,0,0,0,-1,1504,1044,0,0
287,-20,0,0,0,0,0,0,0,0,0,-1,1511,1044,0,0
294,-20,0,0,0,0,0,0,0,0,0,-1,1518,1044,0,0
301,-20,0,0,0,0,0,0,0,0,0,-1,1525,1044,0,0
308,-20,0,0,0,0,0,0,0,0,0,-1,1532,1044,0,0
315,-20,0,0,0,0,0,0,0,0,0,-1,1539,1044,0,0
322,-20,0,0,0,0,0,0,0,0,0,-1,1546,1044,0,0
329,-20,0,0,0,0,0,0,0,0,0,-1,1553,1044,0,0
336,-20,0,0,0,0,0,0,0,0,0,-1,1560,1044,0,0
343,-20,0,0,0,0,0,0,0,0,0,-1,1567,1044,0,0
350,-20,0,0,0,0,0,0,0,0,0,-1,1574,1044,0,0
357,-20,0,0,0,0,0,0,0,0,0,-1,1581,1044,0,0
364,-20,0,0,0,0,0,0,0,0,0,-1,1588,1044,0,0
371,-20,0,0,0,0,0,0,0,0,0,-1,1595,1044,0,0
378,-20,0,0,0,0,0,0,0,0,0,-1,1602,1044,0,0
385,-20,0,0,0,0,0,0,0,0,0,-1,1609,1044,0,0
392,-20,0,0,0,0,0,0,0,0,0,-1,1616,1044,0,0
399,-20,0,0,0,0,0,0,0,0,0,-1,1623,1044,0,0
406,-20,0,0,0,0,0,0,0,0,0,-1,1630,1044,0,0
413,-20,0,0,0,0,0,0,0,0,0,-1,1637,1044,0,0
420,-20,0,0,0,0,0,0,0,0,0,-1,1644,1044,0,0
427,-20,0,0,0,0,0,0,0,0,0,-1,1651,1044,0,0
434,-20,0,0,0,0,0,0,0,0,0,-1,1658,1044,0,0
441,-20,0,0,0,0,0,0,0,0,0,-1,1665,1044,0,0
448,-20,0,0,0,0,0,0,0,0,0,-1,1672,1044,0,0
455,-20,0,0,0,0,0,0,0,0,0,-1,1679,1044,0,0
462,-20,0,0,0,0,0,0,0,0,0,-1,1686,1044,0,0
469,-20,0,0,0,0,0,0,0,0,0,-1,1693,1044,0,0
476,-20,0,0,0,0,0,0,0,0,0,-1,1700,1044,0,0
483,-20,0,0,0,0,0,0,0,0,0,-1,1707,1044,0,0
490,-20,0,0,0,0,0,0,0,0,0,-1,1714,1044,0,0
497,-20,0,0,0,0,0,0,0,0,0,-1,1721,1044,0,0
504,-20,0,0,0,0,0,0,0,0,0,-1,1728,1044,0,0
511,-20,0,0,0,0,0,0,0,0,0,-1,1735,1044,0,0
518,-20,0,0,0,0,0,0,0,0,0,-1,1742,1044,0,0
525,-20,0,0,0,0,0,0,0,0,0,-1,1749,1044,0,0
532,-20,0,0,0,0,0,0,0,0,0,-1,1756,1044,0,0
539,-20,0,0,0,0,0,0,0,0,0,-1,1763,1044,0,0
546,-20,0,0,0,0,0,0,0,0,0,-1,1770,1044,0,0
553,-20,0,0,0,0,0,0,0,0,0,-1,1777,1044,0,0
560,-20,0,0,0,0,0,0,0,0,0,-1,1784,1044,0,0
567,-20,0,0,0,0,0,0,0,0,0,-1,1791,1044,0,0
574,-20,0,0,0,0,0,0,0,0,0,-1,1798,1044,0,0
581,-20,0,0,0,0,0,0,0,0,0,-1,1805,1044,0,0
588,-20,0,0,0,0,0,0,0,0,0,-1,1812,1044,0,0
595,-20,0,0,0,0,0,0,0,0,0,-1,1819,1044,0,0
602,-20,0,0,0,0,0,0,0,0,0,-1,1826,1044,0,0
609,-20,0,0,0,0,0,0,0,0,0,-1,1833,1044,0,0
616,-20,0,0,0,0,0,0,0,0,0,-1,1840,1044,0,0
623,-20,0,0,0,0,0,0,0,0,0,-1,1847,1044,0,0
630,-20,0,0,0,0,0,0,0,0,0,-1,1854,1044,0,0
637,-20,0,0,0,0,0,0,0,0,0,-1,1861,1044,0,0
644,-20,0,0,0,0,0,0,0,0,0,-1,1868,1044,0,0
651,-20,49.8224,2.67493,-0.00239513,0.00366522,0.00326107,0.00508663,-0.00381654,1.15975,0.00515765,0.0422569,1875,1044,49.8224,-2.67494
658,-20,49.6769,2.60596,-0.00172545,0.00286419,0.0020331,0.00363527,-0.00249652,1.2083,0.00356048,0.0421115,1882,1044,49.6769,-2.60593
665,-20,49.6307,2.62109,-0.00139198,0.00228818,0.00142135,0.0027732,-0.001877,1.24194,0.00270137,0.0386573,1889,1044,49.6307,-2.62106
672,-20,49.6194,2.61768,-0.00112574,0.00190654,0.00119442,0.00232051,-0.00153971,1.23717,0.00224385,0.0256482,1896,1044,49.6193,-2.61762
679,-20,49.5443,2.69739,-0.00090204,0.00162181,0.00129546,0.00216839,-0.00144862,1.17154,0.00210202,0.0296586,1903,1044,49.5443,-2.69736
686,-20,49.5417,2.72705,-0.000894871,0.00115029,0.00170399,0.00211499,-0.00185956,1.05565,0.00229629,0.0386325,1910,1044,49.5418,-2.7271
693,-20,49.6095,2.62671,-0.00087716,0.000606547,0.00220664,0.0021927,-0.00246331,0.947559,0.00268966,0.041656,1917,1044,49.6095,-2.62669
700,-20,49.609,2.46143,-0.000863119,0.000189575,0.00263267,0.002348,-0.00302154,0.884062,0.00310822,0.0383512,1924,1044,49.609,-2.46137
707,-20,49.582,2.60022,-0.000982841,7.53181e-05,0.00285006,0.00244499,-0.00335251,0.877173,0.00336083,0.0323582,1931,1044,49.582,-2.60017
714,-20,49.5988,2.81738,-0.00139014,0.000245552,0.00307539,0.00260998,-0.00375457,0.915356,0.00369433,0.0332432,1938,1044,49.5988,-2.81737
721,-20,49.4806,2.91492,0,0,0,0,0,0,0,-1,1945,1044,49.4806,-2.91495
728,-20,49.6323,6.0741,0,0,0,0,0,0,0,-1,1952,1044,49.6323,-6.0741
735,-20,49.377,6.06323,-0.00373541,0.0022901,0.00325301,0.00371117,-0.00515647,1.15894,0.00514235,0.0295321,1959,1044,49.377,-6.06322
742,-20,49.1863,5.94788,-0.00423321,0.00367703,0.00318534,0.00480023,-0.00535642,1.23179,0.00586687,0.0235969,1966,1044,49.1863,-5.94788
749,-20,49.2476,5.89233,-0.0049786,0.00515191,0.00290068,0.00592367,-0.00575036,1.31076,0.00674025,0.025377,1973,1044,49.2475,-5.89238
756,-20,49.2235,5.80676,-0.00553008,0.00731892,0.00240592,0.00775464,-0.00596581,1.39163,0.00794391,0.0171776,1980,1044,49.2235,-5.8068
763,-20,49.1653,5.7229,-0.00567733,0.00992864,0.00143563,0.0100596,-0.00580829,1.47982,0.00927029,0.0257744,1987,1044,49.1653,-5.72289
770,-20,49.0984,5.6637,-0.0055644,0.0132589,0.000410378,0.0132678,-0.00557335,1.54901,0.0111762,0.0225972,1994,1044,49.0984,-5.66367
777,-20,48.978,5.47351,-0.00432178,0.0171038,-0.000874432,0.0171394,-0.00435741,-1.53007,0.0131222,0.0154665,2001,1044,48.978,-5.47349
784,-20,48.9368,5.36816,-0.00216584,0.0206944,-0.0023391,0.0209313,-0.00240273,-1.46987,0.0148202,0.0193046,2008,1044,48.9368,-5.3682
791,-20,48.9741,5.24512,0.00128919,0.0238805,-0.0041024,0.0246024,0.000567294,-1.39661,0.0162158,0.036351,2015,1044,48.9741,-5.24515
798,-20,48.9856,5.09509,0.00661133,0.0263832,-0.00645306,0.0283029,0.0046916,-1.28164,0.0175154,0.0462653,2022,1044,48.9856,-5.09513
805,-20,49.1328,4.72839,0.0141541,0.0281837,-0.00967302,0.0331177,0.00922007,-1.09911,0.0197366,0.0423175,2029,1044,49.1329,-4.72836
812,-20,49.4785,4.68103,0.0240566,0.028627,-0.014139,0.0406643,0.0120194,-0.865517,0.0241227,0.0418192,2036,1044,49.4784,-4.68105
-700,-27,-34.8789,1.6637,-0.0233247,0.0394157,-0.0169862,0.0437193,-0.0276283,-1.32266,0.0415403,0.0489061,524,1051,-34.8789,-1.66369
-693,-27,-34.8293,1.94556,-0.0289244,0.0355069,-0.019102,0.0407444,-0.0341618,-1.30319,0.0433028,0.044988,531,1051,-34.8293,-1.9455
-686,-27,-33.8586,2.40088,-0.0299394,0.0315894,-0.0185881,0.036769,-0.0351189,-1.29904,0.0415081,0.0432369,538,1051,-33.8586,-2.40083
-679,-27,-34.6289,2.17688,-0.0286847,0.0279821,-0.0167986,0.0325876,-0.0332903,-1.30321,0.0380354,0.0466286,545,1051,-34.6289,-2.17693
-672,-27,-36.1419,2.02515,0,0,0,0,0,0,0,-1,552,1051,-36.1419,-2.02516
-665,-27,-36.3005,2.17126,0,0,0,0,0,0,0,-1,559,1051,-36.3006,-2.17122
-658,-27,-36.4763,2.3606,-0.0195578,0.0182563,-0.00960985,0.0205583,-0.0218599,-1.33568,0.024494,0.0456099,566,1051,-36.4763,-2.36056
-651,-27,-36.6442,2.40112,-0.0160418,0.0152575,-0.00749594,0.0169601,-0.0177444,-1.34745,0.0200384,0.0365798,573,1051,-36.6442,-2.40109
-644,-27,-36.7454,2.44141,-0.0128365,0.0122192,-0.00618348,0.0136621,-0.0142795,-1.34155,0.0161334,0.0181393,580,1051,-36.7454,-2.44137
-637,-27,-36.8064,2.57324,-0.0102451,0.00977743,-0.00533503,0.0111102,-0.0115779,-1.32599,0.0130999,0.0147588,587,1051,-36.8064,-2.57325
-630,-27,-36.8965,2.8573,-0.00647179,0.00717233,-0.00372323,0.0081222,-0.00742166,-1.321,0.00897729,0.0185611,594,1051,-36.8965,-2.85734
-623,-27,-36.9076,3.0769,-0.00293617,0.00509544,-0.00330268,0.0062791,-0.00411982,-1.22666,0.00604681,0.0171906,601,1051,-36.9076,-3.07688
-616,-27,-36.8749,3.25085,-0.00110428,0.00342913,-0.00393869,0.00570679,-0.00338194,-1.0465,0.0053043,0.01522,608,1051,-36.8749,-3.25087
-609,-27,-36.8927,3.39355,3.30608e-05,0.00232873,-0.00461873,0.00594012,-0.00357833,-0.907189,0.00555158,0.014718,615,1051,-36.8927,-3.39358
-602,-27,-36.868,3.57837,0.000612564,0.0017447,-0.00492468,0.00613574,-0.00377848,-0.84262,0.00577766,0.0132476,622,1051,-36.868,-3.57839
-595,-27,-36.8871,3.72559,0.000896224,0.000917226,-0.004797,0.00570374,-0.00389029,-0.786493,0.005572,0.0162795,629,1051,-36.8871,-3.72559
-588,-27,-37.1093,3.78528,0,0,0,0,0,0,0,-1,636,1051,-37.1092,-3.78534
-581,-27,-36.9009,0.873169,0.00144555,-9.29988e-05,-0.003963,0.00471325,-0.0033607,-0.689534,0.00468325,0.0209122,643,1051,-36.9009,-0.873224
-574,-27,-36.9169,0.953491,0.00135744,-0.000270942,-0.00327641,0.00391931,-0.00283281,-0.663615,0.00391512,0.0349614,650,1051,-36.9168,-0.953528
-567,-27,-36.7277,0.875732,0.000929494,-0.000282134,-0.00223053,0.00263502,-0.00198766,-0.652797,0.00267761,0.0461287,657,1051,-36.7277,-0.875777
-560,-27,-36.6046,0.888672,0.000273019,-0.000240348,-0.000806797,0.00086298,-0.00083031,-0.631386,0.000977682,0.0456946,664,1051,-36.6046,-0.888669
-553,-27,-36.6812,0.924683,-0.000555337,-0.000380295,0.000971757,0.000507874,-0.00144351,0.83031,0.001169,0.0418336,671,1051,-36.6811,-0.924647
-546,-27,-36.9315,0.866211,-0.00145525,-0.00106477,0.00303289,0.00177916,-0.00429918,0.817541,0.00360846,0.043098,678,1051,-36.9314,-0.866256
-539,-27,-36.9485,1.00012,-0.00229076,-0.00227559,0.00460395,0.00232079,-0.00688713,0.786222,0.00552981,0.046871,685,1051,-36.9486,-1.0001
-532,-27,-36.9213,1.24768,0,0,0,0,0,0,0,-1,692,1051,-36.9213,-1.24764
-525,-27,0,0,0,0,0,0,0,0,0,-1,699,1051,0,0
-518,-27,0,0,0,0,0,0,0,0,0,-1,706,1051,0,0
-511,-27,0,0,0,0,0,0,0,0,0,-1,713,1051,0,0
-504,-27,0,0,0,0,0,0,0,0,0,-1,720,1051,0,0
-497,-27,0,0,0,0,0,0,0,0,0,-1,727,1051,0,0
-490,-27,0,0,0,0,0,0,0,0,0,-1,734,1051,0,0
-483,-27,0,0,0,0,0,0,0,0,0,-1,741,1051,0,0
-476,-27,0,0,0,0,0,0,0,0,0,-1,748,1051,0,0
-469,-27,0,0,0,0,0,0,0,0,0,-1,755,1051,0,0
-462,-27,0,0,0,0,0,0,0,0,0,-1,762,1051,0,0
-455,-27,0,0,0,0,0,0,0,0,0,-1,769,1051,0,0
-448,-27,0,0,0,0,0,0,0,0,0,-1,776,1051,0,0
-441,-27,0,0,0,0,0,0,0,0,0,-1,783,1051,0,0
-434,-27,0,0,0,0,0,0,0,0,0,-1,790,1051,0,0
-427,-27,0,0,0,0,0,0,0,0,0,-1,797,1051,0,0
-420,-27,0,0,0,0,0,0,0,0,0,-1,804,1051,0,0
-413,-27,0,0,0,0,0,0,0,0,0,-1,811,1051,0,0
-406,-27,0,0,0,0,0,0,0,0,0,-1,818,1051,0,0
-399,-27,0,0,0,0,0,0,0,0,0,-1,825,1051,0,0
-392,-27,0,0,0,0,0,0,0,0,0,-1,832,1051,0,0
-385,-27,0,0,0,0,0,0,0,0,0,-1,839,1051,0,0
-378,-27,0,0,0,0,0,0,0,0,0,-1,846,1051,0,0
-371,-27,0,0,0,0,0,0,0,0,0,-1,853,1051,0,0
-364,-27,0,0,0,0,0,0,0,0,0,-1,860,1051,0,0
-357,-27,0,0,0,0,0,0,0,0,0,-1,867,1051,0,0
-350,-27,0,0,0,0,0,0,0,0,0,-1,874,1051,0,0
-343,-27,0,0,0,0,0,0,0,0,0,-1,881,1051,0,0
-336,-27,0,0,0,0,0,0,0,0,0,-1,888,1051,0,0
-329,-27,0,0,0,0,0,0,0,0,0,-1,895,1051,0,0
-322,-27,0,0,0,0,0,0,0,0,0,-1,902,1051,0,0
-315,-27,0,0,0,0,0,0,0,0,0,-1,909,1051,0,0
-308,-27,0,0,0,0,0,0,0,0,0,-1,916,1051,0,0
-301,-27,0,0,0,0,0,0,0,0,0,-1,923,1051,0,0
-294,-27,0,0,0,0,0,0,0,0,0,-1,930,1051,0,0
-287,-27,0,0,0,0,0,0,0,0,0,-1,937,1051,0,0
-280,-27,0,0,0,0,0,0,0,0,0,-1,944,1051,0,0
-273,-27,0,0,0,0,0,0,0,0,0,-1,951,1051,0,0
-266,-27,0,0,0,0,0,0,0,0,0,-1,958,1051,0,0
-259,-27,0,0,0,0,0,0,0,0,0,-1,965,1051,0,0
-252,-27,0,0,0,0,0,0,0,0,0,-1,972,1051,0,0
-245,-27,0,0,0,0,0,0,0,0,0,-1,979,1051,0,0
-238,-27,0,0,0,0,0,0,0,0,0,-1,986,1051,0,0
-231,-27,0,0,0,0,0,0,0,0,0,-1,993,1051,0,0
-224,-27,0,0,0,0,0,0,0,0,0,-1,1000,1051,0,0
-217,-27,0,0,0,0,0,0,0,0,0,-1,1007,1051,0,0
-210,-27,0,0,0,0,0,0,0,0,0,-1,1014,1051,0,0
-203,-27,0,0,0,0,0,0,0,0,0,-1,1021,1051,0,0
-196,-27,0,0,0,0,0,0,0,0,0,-1,1028,1051,0,0
-189,-27,0,0,0,0,0,0,0,0,0,-1,1035,1051,0,0
-182,-27,0,0,0,0,0,0,0,0,0,-1,1042,1051,0,0
-175,-27,0,0,0,0,0,0,0,0,0,-1,1049,1051,0,0
-168,-27,0,0,0,0,0,0,0,0,0,-1,1056,1051,0,0
-161,-27,0,0,0,0,0,0,0,0,0,-1,1063,1051,0,0
-154,-27,0,0,0,0,0,0,0,0,0,-1,1070,1051,0,0
-147,-27,0,0,0,0,0,0,0,0,0,-1,1077,1051,0,0
-140,-27,0,0,0,0,0,0,0,0,0,-1,1084,1051,0,0
-133,-27,0,0,0,0,0,0,0,0,0,-1,1091,1051,0,0
-126,-27,0,0,0,0,0,0,0,0,0,-1,1098,1051,0,0
-119,-27,0,0,0,0,0,0,0,0,0,-1,1105,1051,0,0
-112,-27,0,0,0,0,0,0,0,0,0,-1,1112,1051,0,0
-105,-27,0,0,0,0,0,0,0,0,0,-1,1119,1051,0,0
-98,-27,0,0,0,0,0,0,0,0,0,-1,1126,1051,0,0
-91,-27,0,0,0,0,0,0,0,0,0,-1,1133,1051,0,0
-84,-27,0,0,0,0,0,0,0,0,0,-1,1140,1051,0,0
-77,-27,0,0,0,0,0,0,0,0,0,-1,1147,1051,0,0
-70,-27,0,0,0,0,0,0,0,0,0,-1,1154,1051,0,0
-63,-27,0,0,0,0,0,0,0,0,0,-1,1161,1051,0,0
-56,-27,0,0,0,0,0,0,0,0,0,-1,1168,1051,0,0
-49,-27,0,0,0,0,0,0,0,0,0,-1,1175,1051,0,0
-42,-27,0,0,0,0,0,0,0,0,0,-1,1182,1051,0,0
-35,-27,0,0,0,0,0,0,0,0,0,-1,1189,1051,0,0
-28,-27,0,0,0,0,0,0,0,0,0,-1,1196,1051,0,0
-21,-27,0,0,0,0,0,0,0,0,0,-1,1203,1051,0,0
-14,-27,0,0,0,0,0,0,0,0,0,-1,1210,1051,0,0
-7,-27,0,0,0,0,0,0,0,0,0,-1,1217,1051,0,0
0,-27,0,0,0,0,0,0,0,0,0,-1,1224,1051,0,0
7,-27,0,0,0,0,0,0,0,0,0,-1,1231,1051,0,0
14,-27,0,0,0,0,0,0,0,0,0,-1,1238,1051,0,0
21,-27,0,0,0,0,0,0,0,0,0,-1,1245,1051,0,0
28,-27,0,0,0,0,0,0,0,0,0,-1,1252,1051,0,0
35,-27,0,0,0,0,0,0,0,0,0,-1,1259,1051,0,0
42,-27,0,0,0,0,0,0,0,0,0,-1,1266,1051,0,0
49,-27,0,0,0,0,0,0,0,0,0,-1,1273,1051,0,0
56,-27,0,0,0,0,0,0,0,0,0,-1,1280,1051,0,0
63,-27,0,0,0,0,0,0,0,0,0,-1,1287,1051,0,0
70,-27,0,0,0,0,0,0,0,0,0,-1,1294,1051,0,0
77,-27,0,0,0,0,0,0,0,0,0,-1,1301,1051,0,0
84,-27,0,0,0,0,0,0,0,0,0,-1,1308,1051,0,0
91,-27,0,0,0,0,0,0,0,0,0,-1,1315,1051,0,0
98,-27,0,0,0,0,0,0,0,0,0,-1,1322,1051,0,0
105,-27,0,0,0,0,0,0,0,0,0,-1,1329,1051,0,0
112,-27,0,0,0,0,0,0,0,0,0,-1,1336,1051,0,0
119,-27,0,0,0,0,0,0,0,0,0,-1,1343,1051,0,0
126,-27,0,0,0,0,0,0,0,0,0,-1,1350,1051,0,0
133,-27,0,0,0,0,0,0,0,0,0,-1,1357,1051,0,0
140,-27,0,0,0,0,0,0,0,0,0,-1,1364,1051,0,0
147,-27,0,0,0,0,0,0,0,0,0,-1,1371,1051,0,0
154,-27,0,0,0,0,0,0,0,0,0,-1,1378,1051,0,0
161,-27,0,0,0,0,0,0,0,0,0,-1,1385,1051,0,0
168,-27,0,0,0,0,0,0,0,0,0,-1,1392,1051,0,0
175,-27,0,0,0,0,0,0,0,0,0,-1,1399,1051,0,0
182,-27,0,0,0,0,0,0,0,0,0,-1,1406,1051,0,0
189,-27,0,0,0,0,0,0,0,0,0,-1,1413,1051,0,0
196,-27,0,0,0,0,0,0,0,0,0,-1,1420,1051,0,0
203,-27,0,0,0,0,0,0,0,0,0,-1,1427,1051,0,0
210,-27,0,0,0,0,0,0,0,0,0,-1,1434,1051,0,0
217,-27,0,0,0,0,0,0,0,0,0,-1,1441,1051,0,0
224,-27,0,0,0,0,0,0,0,0,0,-1,1448,1051,0,0
231,-27,0,0,0,0,0,0,0,0,0,-1,1455,1051,0,0
238,-27,0,0,0,0,0,0,0,0,0,-1,1462,1051,0,0
245,-27,0,0,0,0,0,0,0,0,0,-1,1469,1051,0,0
252,-27,0,0,0,0,0,0,0,0,0,-1,1476,1051,0,0
259,-27,0,0,0,0,0,0,0,0,0,-1,1483,1051,0,0
266,-27,0,0,0,0,0,0,0,0,0,-1,1490,1051,0,0
273,-27,0,0,0,0,0,0,0,0,0,-1,1497,1051,0,0
280,-27,0,0,0,0,0,0,0,0,0,-1,1504,1051,0,0
287,-27,0,0,0,0,0,0,0,0,0,-1,1511,1051,0,0
294,-27,0,0,0,0,0,0,0,0,0,-1,1518,1051,0,0
301,-27,0,0,0,0,0,0,0,0,0,-1,1525,1051,0,0
308,-27,0,0,0,0,0,0,0,0,0,-1,1532,1051,0,0
315,-27,0,0,0,0,0,0,0,0,0,-1,1539,1051,0,0
322,-27,0,0,0,0,0,0,0,0,0,-1,1546,1051,0,0
329,-27,0,0,0,0,0,0,0,0,0,-1,1553,1051,0,0
336,-27,0,0,0,0,0,0,0,0,0,-1,1560,1051,0,0
343,-27,0,0,0,0,0,0,0,0,0,-1,1567,1051,0,0
350,-27,0,0,0,0,0,0,0,0,0,-1,1574,1051,0,0
357,-27,0,0,0,0,0,0,0,0,0,-1,1581,1051,0,0
364,-27,0,0,0,0,0,0,0,0,0,-1,1588,1051,0,0
371,-27,0,0,0,0,0,0,0,0,0,-1,1595,1051,0,0
378,-27,0,0,0,0,0,0,0,0,0,-1,1602,1051,0,0
385,-27,0,0,0,0,0,0,0,0,0,-1,1609,1051,0,0
392,-27,0,0,0,0,0,0,0,0,0,-1,1616,1051,0,0
399,-27,0,0,0,0,0,0,0,0,0,-1,1623,1051,0,0
406,-27,0,0,0,0,0,0,0,0,0,-1,1630,1051,0,0
413,-27,0,0,0,0,0,0,0,0,0,-1,1637,1051,0,0
420,-27,0,0,0,0,0,0,0,0,0,-1,1644,1051,0,0
427,-27,0,0,0,0,0,0,0,0,0,-1,1651,1051,0,0
434,-27,0,0,0,0,0,0,0,0,0,-1,1658,1051,0,0
441,-27,0,0,0,0,0,0,0,0,0,-1,1665,1051,0,0
448,-27,0,0,0,0,0,0,0,0,0,-1,1672,1051,0,0
455,-27,0,0,0,0,0,0,0,0,0,-1,1679,1051,0,0
462,-27,0,0,0,0,0,0,0,0,0,-1,1686,1051,0,0
469,-27,0,0,0,0,0,0,0,0,0,-1,1693,1051,0,0
476,-27,0,0,0,0,0,0,0,0,0,-1,1700,1051,0,0
483,-27,0,0,0,0,0,0,0,0,0,-1,1707,1051,0,0
490,-27,0,0,0,0,0,0,0,0,0,-1,1714,1051,0,0
497,-27,0,0,0,0,0,0,0,0,0,-1,1721,1051,0,0
504,-27,0,0,0,0,0,0,0,0,0,-1,1728,1051,0,0
511,-27,0,0,0,0,0,0,0,0,0,-1,1735,1051,0,0
518,-27,0,0,0,0,0,0,0,0,0,-1,1742,1051,0,0
525,-27,0,0,0,0,0,0,0,0,0,-1,1749,1051,0,0
532,-27,0,0,0,0,0,0,0,0,0,-1,1756,1051,0,0
539,-27,0,0,0,0,0,0,0,0,0,-1,1763,1051,0,0
546,-27,0,0,0,0,0,0,0,0,0,-1,1770,1051,0,0
553,-27,0,0,0,0,0,0,0,0,0,-1,1777,1051,0,0
560,-27,0,0,0,0,0,0,0,0,0,-1,1784,1051,0,0
567,-27,0,0,0,0,0,0,0,0,0,-1,1791,1051,0,0
574,-27,0,0,0,0,0,0,0,0,0,-1,1798,1051,0,0
581,-27,0,0,0,0,0,0,0,0,0,-1,1805,1051,0,0
588,-27,0,0,0,0,0,0,0,0,0,-1,1812,1051,0,0
595,-27,0,0,0,0,0,0,0,0,0,-1,1819,1051,0,0
602,-27,0,0,0,0,0,0,0,0,0,-1,1826,1051,0,0
609,-27,0,0,0,0,0,0,0,0,0,-1,1833,1051,0,0
616,-27,0,0,0,0,0,0,0,0,0,-1,1840,1051,0,0
623,-27,0,0,0,0,0,0,0,0,0,-1,1847,1051,0,0
630,-27,0,0,0,0,0,0,0,0,0,-1,1854,1051,0,0
637,-27,0,0,0,0,0,0,0,0,0,-1,1861,1051,0,0
644,-27,0,0,0,0,0,0,0,0,0,-1,1868,1051,0,0
651,-27,49.5991,2.74548,-0.00273159,0.00343905,0.00319119,0.00479252,-0.00408506,1.16966,0.0051309,0.0426465,1875,1051,49.5991,-2.7455
658,-27,49.4783,2.76001,-0.00178061,0.00257341,0.00201771,0.00336465,-0.00257186,1.19708,0.00343762,0.0417639,1882,1051,49.4783,-2.76001
665,-27,49.5032,2.72803,-0.0013038,0.00197235,0.00144125,0.00251613,-0.00184758,1.21001,0.00252923,0.0383054,1889,1051,49.5031,-2.72803
672,-27,49.5126,2.66553,-0.000976881,0.00156801,0.00121767,0.00205676,-0.00146564,1.18909,0.00204318,0.0297304,1896,1051,49.5125,-2.66552
679,-27,49.5166,2.65234,-0.000756832,0.00126135,0.00127143,0.00187546,-0.00137095,1.12083,0.00188184,0.0290313,1903,1051,49.5166,-2.65232
686,-27,49.5471,2.62061,-0.000807779,0.000788676,0.00162263,0.00179879,-0.00181789,1.01399,0.0020881,0.0419821,1910,1051,49.5471,-2.62056
693,-27,49.5906,2.54138,-0.000878153,0.000269799,0.0020733,0.0018471,-0.00245546,0.920437,0.00249235,0.0450823,1917,1051,49.5905,-2.54134
700,-27,49.6102,2.50342,-0.000935267,-0.000111168,0.00247325,0.00198412,-0.00303055,0.867941,0.00291616,0.0377021,1924,1051,49.6102,-2.50342
707,-27,49.5316,2.62463,-0.00107267,-0.000214013,0.00268444,0.00207521,-0.00336189,0.864693,0.00316828,0.024314,1931,1051,49.5316,-2.62459
714,-27,49.578,2.74377,-0.00147198,-5.13601e-05,0.00293353,0.00225663,-0.00377997,0.904179,0.00352203,0.0259088,1938,1051,49.578,-2.74375
721,-27,49.5443,2.9126,0,0,0,0,0,0,0,-1,1945,1051,49.5443,-2.91256
728,-27,49.6729,6.15186,0,0,0,0,0,0,0,-1,1952,1051,49.6729,-6.15181
735,-27,49.2466,6.13086,-0.00379669,0.00188,0.00319593,0.00331602,-0.00523271,1.1485,0.00497679,0.031243,1959,1051,49.2466,-6.13088
742,-27,49.0734,6.04736,-0.00432192,0.00314703,0.00326117,0.00437053,-0.00554543,1.21187,0.00573836,0.0190736,1966,1051,49.0734,-6.04731
749,-27,49.1172,5.89307,-0.00502748,0.00451062,0.00307472,0.00541587,-0.00593274,1.28447,0.00655439,0.0146763,1973,1051,49.1172,-5.89306
756,-27,49.0782,5.76111,-0.00555624,0.00651351,0.00268708,0.0070847,-0.00612743,1.36134,0.0076347,0.0140247,1980,1051,49.0782,-5.76117
763,-27,49.0205,5.61877,-0.0057565,0.00892479,0.00187785,0.00916118,-0.00599288,1.44557,0.00881271,0.0153372,1987,1051,49.0205,-5.61883
770,-27,48.9662,5.46973,-0.00579142,0.0120187,0.00103823,0.012079,-0.00585174,1.51276,0.0105584,0.0170515,1994,1051,48.9662,-5.46978
777,-27,48.8911,5.40149,-0.00484319,0.0156035,-4.46719e-05,0.0156036,-0.00484328,-1.56861,0.0123379,0.0181386,2001,1051,48.8912,-5.4015
784,-27,48.8225,5.32373,-0.00307817,0.0189737,-0.00129306,0.0190493,-0.00315373,-1.51243,0.0138708,0.0254294,2008,1051,48.8225,-5.32374
791,-27,48.7908,4.99097,-0.000160306,0.0219903,-0.00281457,0.0223423,-0.000512346,-1.44637,0.0150686,0.0425311,2015,1051,48.7908,-4.99099
798,-27,48.9194,4.74231,0.00445366,0.0244491,-0.00489546,0.0255833,0.00331944,-1.34313,0.0160638,0.0468441,2022,1051,48.9195,-4.74235
805,-27,49.1348,4.40271,0.0111998,0.026364,-0.00781915,0.0296735,0.00789028,-1.1704,0.0177469,0.0453042,2029,1051,49.1349,-4.40269
812,-27,49.8049,4.38867,0.0202615,0.0271594,-0.011937,0.0361357,0.0112851,-0.926032,0.0213474,0.0431895,2036,1051,49.805,-4.38864
-700,-34,-34.773,1.38025,0,0,0,0,0,0,0,-1,524,1058,-34.773,-1.3803
-693,-34,-31.8478,2.59814,0,0,0,0,0,0,0,-1,531,1058,-31.8478,-2.59816
-686,-34,-32.6186,2.28784,-0.0275237,0.0302602,-0.014177,0.0335511,-0.0308145,-1.34271,0.0371727,0.0474172,538,1058,-32.6186,-2.28782
-679,-34,-33.5876,2.00305,-0.026186,0.0271257,-0.0131884,0.0302099,-0.0292702,-1.34107,0.0343423,0.045559,545,1058,-33.5876,-2.00301
-672,-34,-34.4315,1.71704,0,0,0,0,0,0,0,-1,552,1058,-34.4315,-1.71705
-665,-34,-36.1326,2.31311,0,0,0,0,0,0,0,-1,559,1058,-36.1325,-2.31313
-658,-34,-36.3206,2.53406,0,0,0,0,0,0,0,-1,566,1058,-36.3206,-2.53408
-651,-34,-36.4347,2.28198,-0.0146593,0.0152432,-0.00667718,0.0166665,-0.0160826,-1.36079,0.0189087,0.0315896,573,1058,-36.4347,-2.28204
-644,-34,-36.5954,2.31763,-0.0116706,0.0121475,-0.00571857,0.0134493,-0.0129724,-1.34696,0.0152554,0.0169917,580,1058,-36.5954,-2.31766
-637,-34,-36.6478,2.49207,-0.00933451,0.00978402,-0.00513709,0.0110769,-0.0106274,-1.32424,0.0125319,0.0180143,587,1058,-36.6478,-2.49204
-630,-34,-36.6765,2.80579,-0.00579468,0.00695073,-0.00356302,0.00787915,-0.00672311,-1.31589,0.00843942,0.0174714,594,1058,-36.6765,-2.80581
-623,-34,-36.6408,3.04419,-0.00255725,0.00465654,-0.00311577,0.00581596,-0.00371666,-1.21456,0.00554797,0.013643,601,1058,-36.6408,-3.0442
-616,-34,-36.5864,3.28528,-0.0009977,0.00290606,-0.00362577,0.00507195,-0.00316359,-1.03232,0.00479716,0.0215118,608,1058,-36.5864,-3.28525
-609,-34,-36.5939,3.4718,-1.23856e-05,0.0017997,-0.00411407,0.00510631,-0.003319,-0.893783,0.0049007,0.0216918,615,1058,-36.594,-3.47179
-602,-34,-36.6237,3.62549,0.000479729,0.0011659,-0.00423174,0.00506844,-0.00342281,-0.825847,0.00493302,0.0161665,622,1058,-36.6236,-3.62555
-595,-34,-36.7205,3.79395,0.000716445,0.000389278,-0.00400592,0.00456212,-0.0034564,-0.764992,0.00464414,0.0168885,629,1058,-36.7205,-3.794
-588,-34,-36.9849,3.88757,0,0,0,0,0,0,0,-1,636,1058,-36.9849,-3.88753
-581,-34,-36.9013,0.862671,0.00118926,-0.000485252,-0.00309667,0.00355986,-0.00285586,-0.653369,0.00371154,0.0222813,643,1058,-36.9013,-0.862709
-574,-34,-37.0073,0.871948,0.00115078,-0.000601198,-0.00241433,0.00284313,-0.00229354,-0.611369,0.00297131,0.0350425,650,1058,-37.0073,-0.871968
-567,-34,-36.8325,0.796875,0.000828732,-0.000537621,-0.00143924,0.00173871,-0.0014476,-0.563805,0.00184217,0.0437971,657,1058,-36.8325,-0.796886
-560,-34,-36.7925,0.796631,0.000315201,-0.000390884,-0.000163652,0.000351287,-0.00042697,-0.217031,0.000450035,0.0432538,664,1058,-36.7925,-0.796676
-553,-34,-36.8004,0.737549,-0.00031052,-0.000373587,0.00138233,0.00104063,-0.00172474,0.773994,0.00161279,0.0435611,671,1058,-36.8004,-0.737539
-546,-34,-36.9173,0.647217,-0.000964412,-0.000830698,0.00310964,0.00221281,-0.00400792,0.796146,0.00364104,0.0453942,678,1058,-36.9173,-0.647231
-539,-34,-36.9772,0.879028,-0.00160506,-0.00190654,0.00430761,0.00255444,-0.00606604,0.767908,0.00511283,0.0444976,685,1058,-36.9772,-0.879059
-532,-34,-37.0552,1.03052,-0.00172076,-0.00279189,0.00468399,0.00245819,-0.00697084,0.728476,0.00564785,0.0423049,692,1058,-37.0553,-1.03055
-525,-34,0,0,0,0,0,0,0,0,0,-1,699,1058,0,0
-518,-34,0,0,0,0,0,0,0,0,0,-1,706,1058,0,0
-511,-34,0,0,0,0,0,0,0,0,0,-1,713,1058,0,0
-504,-34,0,0,0,0,0,0,0,0,0,-1,720,1058,0,0
-497,-34,0,0,0,0,0,0,0,0,0,-1,727,1058,0,0
-490,-34,0,0,0,0,0,0,0,0,0,-1,734,1058,0,0
-483,-34,0,0,0,0,0,0,0,0,0,-1,741,1058,0,0
-476,-34,0,0,0,0,0,0,0,0,0,-1,748,1058,0,0
-469,-34,0,0,0,0,0,0,0,0,0,-1,755,1058,0,0
-462,-34,0,0,0,0,0,0,0,0,0,-1,762,1058,0,0
-455,-34,0,0,0,0,0,0,0,0,0,-1,769,1058,0,0
-448,-34,0,0,0,0,0,0,0,0,0,-1,776,1058,0,0
-441,-34,0,0,0,0,0,0,0,0,0,-1,783,1058,0,0
-434,-34,0,0,0,0,0,0,0,0,0,-1,790,1058,0,0
-427,-34,0,0,0,0,0,0,0,0,0,-1,797,1058,0,0
-420,-34,0,0,0,0,0,0,0,0,0,-1,804,1058,0,0
-413,-34,0,0,0,0,0,0,0,0,0,-1,811,1058,0,0
-406,-34,0,0,0,0,0,0,0,0,0,-1,818,1058,0,0
-399,-34,0,0,0,0,0,0,0,0,0,-1,825,1058,0,0
-392,-34,0,0,0,0,0,0,0,0,0,-1,832,1058,0,0
-385,-34,0,0,0,0,0,0,0,0,0,-1,839,1058,0,0
-378,-34,0,0,0,0,0,0,0,0,0,-1,846,1058,0,0
-371,-34,0,0,0,0,0,0,0,0,0,-1,853,1058,0,0
-364,-34,0,0,0,0,0,0,0,0,0,-1,860,1058,0,0
-357,-34,0,0,0,0,0,0,0,0,0,-1,867,1058,0,0
-350,-34,0,0,0,0,0,0,0,0,0,-1,874,1058,0,0
-343,-34,0,0,0,0,0,0,0,0,0,-1,881,1058,0,0
-336,-34,0,0,0,0,0,0,0,0,0,-1,888,1058,0,0
-329,-34,0,0,0,0,0,0,0,0,0,-1,895,1058,0,0
-322,-34,0,0,0,0,0,0,0,0,0,-1,902,1058,0,0
-315,-34,0,0,0,0,0,0,0,0,0,-1,909,1058,0,0
-308,-34,0,0,0,0,0,0,0,0,0,-1,916,1058,0,0
-301,-34,0,0,0,0,0,0,0,0,0,-1,923,1058,0,0
-294,-34,0,0,0,0,0,0,0,0,0,-1,930,1058,0,0
-287,-34,0,0,0,0,0,0,0,0,0,-1,937,1058,0,0
-280,-34,0,0,0,0,0,0,0,0,0,-1,944,1058,0,0
-273,-34,0,0,0,0,0,0,0,0,0,-1,951,1058,0,0
-266,-34,0,0,0,0,0,0,0,0,0,-1,958,1058,0,0
-259,-34,0,0,0,0,0,0,0,0,0,-1,965,1058,0,0
-252,-34,0,0,0,0,0,0,0,0,0,-1,972,1058,0,0
-245,-34,0,0,0,0,0,0,0,0,0,-1,979,1058,0,0
-238,-34,0,0,0,0,0,0,0,0,0,-1,986,1058,0,0
-231,-34,0,0,0,0,0,0,0,0,0,-1,993,1058,0,0
-224,-34,0,0,0,0,0,0,0,0,0,-1,1000,1058,0,0
-217,-34,0,0,0,0,0,0,0,0,0,-1,1007,1058,0,0
-210,-34,0,0,0,0,0,0,0,0,0,-1,1014,1058,0,0
-203,-34,0,0,0,0,0,0,0,0,0,-1,1021,1058,0,0
-196,-34,0,0,0,0,0,0,0,0,0,-1,1028,1058,0,0
-189,-34,0,0,0,0,0,0,0,0,0,-1,1035,1058,0,0
-182,-34,0,0,0,0,0,0,0,0,0,-1,1042,1058,0,0
-175,-34,0,0,0,0,0,0,0,0,0,-1,1049,1058,0,0
-168,-34,0,0,0,0,0,0,0,0,0,-1,1056,1058,0,0
-161,-34,0,0,0,0,0,0,0,0,0,-1,1063,1058,0,0
-154,-34,0,0,0,0,0,0,0,0,0,-1,1070,1058,0,0
-147,-34,0,0,0,0,0,0,0,0,0,-1,1077,1058,0,0
-140,-34,0,0,0,0,0,0,0,0,0,-1,1084,1058,0,0
-133,-34,0,0,0,0,0,0,0,0,0,-1,1091,1058,0,0
-126,-34,0,0,0,0,0,0,0,0,0,-1,1098,1058,0,0
-119,-34,0,0,0,0,0,0,0,0,0,-1,1105,1058,0,0
-112,-34,0,0,0,0,0,0,0,0,0,-1,1112,1058,0,0
-105,-34,0,0,0,0,0,0,0,0,0,-1,1119,1058,0,0
-98,-34,0,0,0,0,0,0,0,0,0,-1,1126,1058,0,0
-91,-34,0,0,0,0,0,0,0,0,0,-1,1133,1058,0,0
-84,-34,0,0,0,0,0,0,0,0,0,-1,1140,1058,0,0
-77,-34,0,0,0,0,0,0,0,0,0,-1,1147,1058,0,0
-70,-34,0,0,0,0,0,0,0,0,0,-1,1154,1058,0,0
-63,-34,0,0,0,0,0,0,0,0,0,-1,1161,1058,0,0
-56,-34,0,0,0,0,0,0,0,0,0,-1,1168,1058,0,0
-49,-34,0,0,0,0,0,0,0,0,0,-1,1175,1058,0,0
-42,-34,0,0,0,0,0,0,0,0,0,-1,1182,1058,0,0
-35,-34,0,0,0,0,0,0,0,0,0,-1,1189,1058,0,0
-28,-34,0,0,0,0,0,0,0,0,0,-1,1196,1058,0,0
-21,-34,0,0,0,0,0,0,0,0,0,-1,1203,1058,0,0
-14,-34,0,0,0,0,0,0,0,0,0,-1,1210,1058,0,0
-7,-34,0,0,0,0,0,0,0,0,0,-1,1217,1058,0,0
0,-34,0,0,0,0,0,0,0,0,0,-1,1224,1058,0,0
7,-34,0,0,0,0,0,0,0,0,0,-1,1231,1058,0,0
14,-34,0,0,0,0,0,0,0,0,0,-1,1238,1058,0,0
21,-34,0,0,0,0,0,0,0,0,0,-1,1245,1058,0,0
28,-34,0,0,0,0,0,0,0,0,0,-1,1252,1058,0,0
35,-34,0,0,0,0,0,0,0,0,0,-1,1259,1058,0,0
42,-34,0,0,0,0,0,0,0,0,0,-1,1266,1058,0,0
49,-34,0,0,0,0,0,0,0,0,0,-1,1273,1058,0,0
56,-34,0,0,0,0,0,0,0,0,0,-1,1280,1058,0,0
63,-34,0,0,0,0,0,0,0,0,0,-1,1287,1058,0,0
70,-34,0,0,0,0,0,0,0,0,0,-1,1294,1058,0,0
77,-34,0,0,0,0,0,0,0,0,0,-1,1301,1058,0,0
84,-34,0,0,0,0,0,0,0,0,0,-1,1308,1058,0,0
91,-34,0,0,0,0,0,0,0,0,0,-1,1315,1058,0,0
98,-34,0,0,0,0,0,0,0,0,0,-1,1322,1058,0,0
105,-34,0,0,0,0,0,0,0,0,0,-1,1329,1058,0,0
112,-34,0,0,0,0,0,0,0,0,0,-1,1336,1058,0,0
119,-34,0,0,0,0,0,0,0,0,0,-1,1343,1058,0,0
126,-34,0,0,0,0,0,0,0,0,0,-1,1350,1058,0,0
133,-34,0,0,0,0,0,0,0,0,0,-1,1357,1058,0,0
140,-34,0,0,0,0,0,0,0,0,0,-1,1364,1058,0,0
147,-34,0,0,0,0,0,0,0,0,0,-1,1371,1058,0,0
154,-34,0,0,0,0,0,0,0,0,0,-1,1378,1058,0,0
161,-34,0,0,0,0,0,0,0,0,0,-1,1385,1058,0,0
168,-34,0,0,0,0,0,0,0,0,0,-1,1392,1058,0,0
175,-34,0,0,0,0,0,0,0,0,0,-1,1399,1058,0,0
182,-34,0,0,0,0,0,0,0,0,0,-1,1406,1058,0,0
189,-34,0,0,0,0,0,0,0,0,0,-1,1413,1058,0,0
196,-34,0,0,0,0,0,0,0,0,0,-1,1420,1058,0,0
203,-34,0,0,0,0,0,0,0,0,0,-1,1427,1058,0,0
210,-34,0,0,0,0,0,0,0,0,0,-1,1434,1058,0,0
217,-34,0,0,0,0,0,0,0,0,0,-1,1441,1058,0,0
224,-34,0,0,0,0,0,0,0,0,0,-1,1448,1058,0,0
231,-34,0,0,0,0,0,0,0,0,0,-1,1455,1058,0,0
238,-34,0,0,0,0,0,0,0,0,0,-1,1462,1058,0,0
245,-34,0,0,0,0,0,0,0,0,0,-1,1469,1058,0,0
252,-34,0,0,0,0,0,0,0,0,0,-1,1476,1058,0,0
259,-34,0,0,0,0,0,0,0,0,0,-1,1483,1058,0,0
266,-34,0,0,0,0,0,0,0,0,0,-1,1490,1058,0,0
273,-34,0,0,0,0,0,0,0,0,0,-1,1497,1058,0,0
280,-34,0,0,0,0,0,0,0,0,0,-1,1504,1058,0,0
287,-34,0,0,0,0,0,0,0,0,0,-1,1511,1058,0,0
294,-34,0,0,0,0,0,0,0,0,0,-1,1518,1058,0,0
301,-34,0,0,0,0,0,0,0,0,0,-1,1525,1058,0,0
308,-34,0,0,0,0,0,0,0,0,0,-1,1532,1058,0,0
315,-34,0,0,0,0,0,0,0,0,0,-1,1539,1058,0,0
322,-34,0,0,0,0,0,0,0,0,0,-1,1546,1058,0,0
329,-34,0,0,0,0,0,0,0,0,0,-1,1553,1058,0,0
336,-34,0,0,0,0,0,0,0,0,0,-1,1560,1058,0,0
343,-34,0,0,0,0,0,0,0,0,0,-1,1567,1058,0,0
350,-34,0,0,0,0,0,0,0,0,0,-1,1574,1058,0,0
357,-34,0,0,0,0,0,0,0,0,0,-1,1581,1058,0,0
364,-34,0,0,0,0,0,0,0,0,0,-1,1588,1058,0,0
371,-34,0,0,0,0,0,0,0,0,0,-1,1595,1058,0,0
378,-34,0,0,0,0,0,0,0,0,0,-1,1602,1058,0,0
385,-34,0,0,0,0,0,0,0,0,0,-1,1609,1058,0,0
392,-34,0,0,0,0,0,0,0,0,0,-1,1616,1058,0,0
399,-34,0,0,0,0,0,0,0,0,0,-1,1623,1058,0,0
406,-34,0,0,0,0,0,0,0,0,0,-1,1630,1058,0,0
413,-34,0,0,0,0,0,0,0,0,0,-1,1637,1058,0,0
420,-34,0,0,0,0,0,0,0,0,0,-1,1644,1058,0,0
427,-34,0,0,0,0,0,0,0,0,0,-1,1651,1058,0,0
434,-34,0,0,0,0,0,0,0,0,0,-1,1658,1058,0,0
441,-34,0,0,0,0,0,0,0,0,0,-1,1665,1058,0,0
448,-34,0,0,0,0,0,0,0,0,0,-1,1672,1058,0,0
455,-34,0,0,0,0,0,0,0,0,0,-1,1679,1058,0,0
462,-34,0,0,0,0,0,0,0,0,0,-1,1686,1058,0,0
469,-34,0,0,0,0,0,0,0,0,0,-1,1693,1058,0,0
476,-34,0,0,0,0,0,0,0,0,0,-1,1700,1058,0,0
483,-34,0,0,0,0,0,0,0,0,0,-1,1707,1058,0,0
490,-34,0,0,0,0,0,0,0,0,0,-1,1714,1058,0,0
497,-34,0,0,0,0,0,0,0,0,0,-1,1721,1058,0,0
504,-34,0,0,0,0,0,0,0,0,0,-1,1728,1058,0,0
511,-34,0,0,0,0,0,0,0,0,0,-1,1735,1058,0,0
518,-34,0,0,0,0,0,0,0,0,0,-1,1742,1058,0,0
525,-34,0,0,0,0,0,0,0,0,0,-1,1749,1058,0,0
532,-34,0,0,0,0,0,0,0,0,0,-1,1756,1058,0,0
539,-34,0,0,0,0,0,0,0,0,0,-1,1763,1058,0,0
546,-34,0,0,0,0,0,0,0,0,0,-1,1770,1058,0,0
553,-34,0,0,0,0,0,0,0,0,0,-1,1777,1058,0,0
560,-34,0,0,0,0,0,0,0,0,0,-1,1784,1058,0,0
567,-34,0,0,0,0,0,0,0,0,0,-1,1791,1058,0,0
574,-34,0,0,0,0,0,0,0,0,0,-1,1798,1058,0,0
581,-34,0,0,0,0,0,0,0,0,0,-1,1805,1058,0,0
588,-34,0,0,0,0,0,0,0,0,0,-1,1812,1058,0,0
595,-34,0,0,0,0,0,0,0,0,0,-1,1819,1058,0,0
602,-34,0,0,0,0,0,0,0,0,0,-1,1826,1058,0,0
609,-34,0,0,0,0,0,0,0,0,0,-1,1833,1058,0,0
616,-34,0,0,0,0,0,0,0,0,0,-1,1840,1058,0,0
623,-34,0,0,0,0,0,0,0,0,0,-1,1847,1058,0,0
630,-34,0,0,0,0,0,0,0,0,0,-1,1854,1058,0,0
637,-34,0,0,0,0,0,0,0,0,0,-1,1861,1058,0,0
644,-34,0,0,0,0,0,0,0,0,0,-1,1868,1058,0,0
651,-34,49.5056,2.73621,-0.0028189,0.00205803,0.00275348,0.00329757,-0.00405845,1.1478,0.00425457,0.0398957,1875,1058,49.5056,-2.73618
658,-34,49.3948,2.83899,-0.00167011,0.00133075,0.00175413,0.00213862,-0.00247798,1.1392,0.00266779,0.0427736,1882,1058,49.3948,-2.83901
665,-34,49.6331,2.64307,-0.00109844,0.000877053,0.00128576,0.00151067,-0.00173206,1.11293,0.00187365,0.0419427,1889,1058,49.633,-2.64302
672,-34,49.615,2.51636,-0.00074442,0.00059989,0.00112971,0.00124229,-0.00138682,1.05376,0.00151868,0.0380086,1896,1058,49.6149,-2.51637
679,-34,49.6157,2.5282,-0.000586795,0.000404732,0.00119187,0.00119984,-0.0013819,0.982489,0.0014918,0.0366439,1903,1058,49.6157,-2.52824
686,-34,49.615,2.53979,-0.000771199,3.89197e-05,0.00151092,0.00119814,-0.00193042,0.916362,0.00182269,0.0442536,1910,1058,49.615,-2.53984
693,-34,49.6252,2.53516,-0.000976197,-0.00036603,0.00192338,0.00127631,-0.00261854,0.864052,0.00229277,0.0464296,1917,1058,49.6252,-2.53515
700,-34,49.5734,2.6333,-0.00114395,-0.000630985,0.00229521,0.00142203,-0.00319697,0.841041,0.00273162,0.0407009,1924,1058,49.5734,-2.63334
707,-34,49.5175,2.7572,-0.00133444,-0.000674292,0.00249455,0.00151192,-0.00352066,0.851175,0.00298172,0.0273188,1931,1058,49.5174,-2.75722
714,-34,49.5181,2.76953,-0.00174215,-0.000479516,0.00275306,0.00171369,-0.00393535,0.898107,0.00334449,0.0242231,1938,1058,49.5181,-2.76954
721,-34,49.5117,2.88403,0,0,0,0,0,0,0,-1,1945,1058,49.5118,-2.88397
728,-34,49.0675,6.28125,0,0,0,0,0,0,0,-1,1952,1058,49.0675,-6.2812
735,-34,48.9307,6.18628,-0.0040469,0.0014731,0.00307943,0.00284837,-0.00542217,1.15077,0.00485146,0.0205742,1959,1058,48.9306,-6.18627
742,-34,48.8635,6.05115,-0.00460335,0.00265392,0.00325367,0.00389903,-0.00584846,1.20531,0.00566511,0.0162302,1966,1058,48.8636,-6.05117
749,-34,48.8855,5.9071,-0.00525023,0.00395736,0.00315293,0.00493352,-0.0062264,1.27055,0.00645758,0.0140791,1973,1058,48.8855,-5.90707
756,-34,48.9067,5.72217,-0.00574504,0.00584475,0.00287705,0.00651965,-0.00641994,1.34038,0.00747075,0.0112355,1980,1058,48.9067,-5.72214
763,-34,48.8499,5.55493,-0.00600436,0.00810714,0.00223832,0.00845366,-0.00635089,1.4172,0.0085761,0.0128517,1987,1058,48.8499,-5.55497
770,-34,48.7645,5.39355,-0.00620939,0.0110215,0.00158869,0.0111668,-0.00635465,1.47962,0.0102424,0.0187263,1994,1058,48.7646,-5.39358
777,-34,48.6621,5.29944,-0.00565577,0.014367,0.000745743,0.0143948,-0.00568351,1.53362,0.0119504,0.0200483,2001,1058,48.6621,-5.29943
784,-34,48.5417,5.21716,-0.00444672,0.0175251,-0.000255616,0.017528,-0.0044497,-1.55916,0.0134168,0.0360332,2008,1058,48.5418,-5.21718
791,-34,48.6648,5.0498,-0.00232399,0.0203618,-0.0015328,0.0204649,-0.00242708,-1.50364,0.0145201,0.0439489,2015,1058,48.6648,-5.04977
798,-34,48.8254,4.71545,0.00131867,0.0227413,-0.00333221,0.0232476,0.000812324,-1.42,0.0152349,0.045522,2022,1058,48.8253,-4.71545
805,-34,48.3389,4.13782,0.00699269,0.024722,-0.00596477,0.0265419,0.00517274,-1.27465,0.0162472,0.0459198,2029,1058,48.3389,-4.13776
812,-34,47.6289,3.51318,0,0,0,0,0,0,0,-1,2036,1058,47.629,-3.51315
-700,-41,-34.6256,1.07556,0,0,0,0,0,0,0,-1,524,1065,-34.6256,-1.07551
-693,-41,-30.8406,2.54285,0,0,0,0,0,0,0,-1,531,1065,-30.8406,-2.5428
-686,-41,-31.3756,2.13953,-0.0178211,0.0280908,-0.0129644,0.0314987,-0.0212289,-1.31375,0.0306342,0.046882,538,1065,-31.3756,-2.13955
-679,-41,-32.3804,1.68628,-0.0176721,0.0255014,-0.0117674,0.0285004,-0.0206711,-1.32125,0.0285088,0.0461721,545,1065,-32.3804,-1.68624
-672,-41,-33.2592,1.44434,0,0,0,0,0,0,0,-1,552,1065,-33.2592,-1.44431
-665,-41,-36.5613,0.583252,0,0,0,0,0,0,0,-1,559,1065,-36.5613,-0.583242
-658,-41,-36.3055,1.22766,0,0,0,0,0,0,0,-1,566,1065,-36.3055,-1.22769
-651,-41,-36.079,1.95691,-0.0109875,0.0146538,-0.00553518,0.0157977,-0.0121314,-1.36701,0.0161711,0.0332378,573,1065,-36.0791,-1.95687
-644,-41,-36.3641,2.2334,-0.00879863,0.0115928,-0.00472428,0.0126341,-0.00983997,-1.35384,0.0130088,0.0185066,580,1065,-36.364,-2.2334
-637,-41,-36.415,2.46082,-0.00751533,0.00946688,-0.0042239,0.0104595,-0.00850791,-1.33999,0.0109701,0.0193154,587,1065,-36.415,-2.46084
-630,-41,-36.4117,2.73608,-0.00466364,0.00645137,-0.00277052,0.00710367,-0.00531594,-1.33957,0.00719518,0.014493,594,1065,-36.4118,-2.73612
-623,-41,-36.377,2.9989,-0.00191855,0.00404832,-0.00250884,0.00496298,-0.00283321,-1.2212,0.00455678,0.0114015,601,1065,-36.377,-2.9989
-616,-41,-36.343,3.27405,-0.000738417,0.0023162,-0.00303194,0.00418379,-0.002606,-1.01872,0.00395521,0.0163815,608,1065,-36.343,-3.27408
-609,-41,-36.3104,3.48315,5.17741e-05,0.00126644,-0.00345339,0.00416549,-0.00284728,-0.872441,0.0040726,0.0245104,615,1065,-36.3104,-3.4831
-602,-41,-36.3661,3.68994,0.000463434,0.000630427,-0.00348114,0.00402907,-0.00293521,-0.797389,0.00403732,0.0146826,622,1065,-36.3661,-3.68988
-595,-41,-36.5107,3.83887,0.000681862,-5.58957e-05,-0.0032155,0.00354957,-0.00292361,-0.728288,0.00374311,0.0228303,629,1065,-36.5107,-3.83884
-588,-41,-36.7904,2.21948,0,0,0,0,0,0,0,-1,636,1065,-36.7904,-2.21943
-581,-41,-36.9454,0.692993,0,0,0,0,0,0,0,-1,643,1065,-36.9454,-0.693039
-574,-41,-37.059,0.621826,0.00111804,-0.000774966,-0.00173342,0.00214654,-0.00180346,-0.535502,0.0022834,0.0364162,650,1065,-37.059,-0.621815
-567,-41,-37.0367,0.750488,0.000882272,-0.00060524,-0.000864927,0.00127925,-0.00100222,-0.43029,0.00132044,0.0429844,657,1065,-37.0367,-0.750528
-560,-41,-36.9576,0.900635,0.000485067,-0.000307269,0.000232106,0.000548053,-0.000370255,0.264985,0.000533488,0.0437726,664,1065,-36.9576,-0.900591
-553,-41,-36.9646,0.658325,2.6576e-05,-6.373e-05,0.00152101,0.00150311,-0.00154026,0.770559,0.00175713,0.0442306,671,1065,-36.9646,-0.658319
-546,-41,-36.9194,0.795044,-0.000423317,-0.000190333,0.00290552,0.00260103,-0.00321468,0.805434,0.00336393,0.0409612,678,1065,-36.9194,-0.795014
-539,-41,-36.9081,1.12329,-0.000833545,-0.000984457,0.00374798,0.00283974,-0.00465774,0.775333,0.00437089,0.03865,685,1065,-36.9081,-1.1233
-532,-41,-37.0161,1.12683,-0.00088276,-0.00155109,0.00390923,0.00270656,-0.00514041,0.742761,0.00460252,0.0375972,692,1065,-37.016,-1.12683
-525,-41,0,0,0,0,0,0,0,0,0,-1,699,1065,0,0
-518,-41,0,0,0,0,0,0,0,0,0,-1,706,1065,0,0
-511,-41,0,0,0,0,0,0,0,0,0,-1,713,1065,0,0
-504,-41,0,0,0,0,0,0,0,0,0,-1,720,1065,0,0
-497,-41,0,0,0,0,0,0,0,0,0,-1,727,1065,0,0
-490,-41,0,0,0,0,0,0,0,0,0,-1,734,1065,0,0
-483,-41,0,0,0,0,0,0,0,0,0,-1,741,1065,0,0
-476,-41,0,0,0,0,0,0,0,0,0,-1,748,1065,0,0
-469,-41,0,0,0,0,0,0,0,0,0,-1,755,1065,0,0
-462,-41,0,0,0,0,0,0,0,0,0,-1,762,1065,0,0
-455,-41,0,0,0,0,0,0,0,0,0,-1,769,1065,0,0
-448,-41,0,0,0,0,0,0,0,0,0,-1,776,1065,0,0
-441,-41,0,0,0,0,0,0,0,0,0,-1,783,1065,0,0
-434,-41,0,0,0,0,0,0,0,0,0,-1,790,1065,0,0
-427,-41,0,0,0,0,0,0,0,0,0,-1,797,1065,0,0
-420,-41,0,0,0,0,0,0,0,0,0,-1,804,1065,0,0
-413,-41,0,0,0,0,0,0,0,0,0,-1,811,1065,0,0
-406,-41,0,0,0,0,0,0,0,0,0,-1,818,1065,0,0
-399,-41,0,0,0,0,0,0,0,0,0,-1,825,1065,0,0
-392,-41,0,0,0,0,0,0,0,0,0,-1,832,1065,0,0
-385,-41,0,0,0,0,0,0,0,0,0,-1,839,1065,0,0
-378,-41,0,0,0,0,0,0,0,0,0,-1,846,1065,0,0
-371,-41,0,0,0,0,0,0,0,0,0,-1,853,1065,0,0
-364,-41,0,0,0,0,0,0,0,0,0,-1,860,1065,0,0
-357,-41,0,0,0,0,0,0,0,0,0,-1,867,1065,0,0
-350,-41,0,0,0,0,0,0,0,0,0,-1,874,1065,0,0
-343,-41,0,0,0,0,0,0,0,0,0,-1,881,1065,0,0
-336,-41,0,0,0,0,0,0,0,0,0,-1,888,1065,0,0
-329,-41,0,0,0,0,0,0,0,0,0,-1,895,1065,0,0
-322,-41,0,0,0,0,0,0,0,0,0,-1,902,1065,0,0
-315,-41,0,0,0,0,0,0,0,0,0,-1,909,1065,0,0
-308,-41,0,0,0,0,0,0,0,0,0,-1,916,1065,0,0
-301,-41,0,0,0,0,0,0,0,0,0,-1,923,1065,0,0
-294,-41,0,0,0,0,0,0,0,0,0,-1,930,1065,0,0
-287,-41,0,0,0,0,0,0,0,0,0,-1,937,1065,0,0
-280,-41,0,0,0,0,0,0,0,0,0,-1,944,1065,0,0
-273,-41,0,0,0,0,0,0,0,0,0,-1,951,1065,0,0
-266,-41,0,0,0,0,0,0,0,0,0,-1,958,1065,0,0
-259,-41,0,0,0,0,0,0,0,0,0,-1,965,1065,0,0
-252,-41,0,0,0,0,0,0,0,0,0,-1,972,1065,0,0
-245,-41,0,0,0,0,0,0,0,0,0,-1,979,1065,0,0
-238,-41,0,0,0,0,0,0,0,0,0,-1,986,1065,0,0
-231,-41,0,0,0,0,0,0,0,0,0,-1,993,1065,0,0
-224,-41,0,0,0,0,0,0,0,0,0,-1,1000,1065,0,0
-217,-41,0,0,0,0,0,0,0,0,0,-1,1007,1065,0,0
-210,-41,0,0,0,0,0,0,0,0,0,-1,1014,1065,0,0
-203,-41,0,0,0,0,0,0,0,0,0,-1,1021,1065,0,0
-196,-41,0,0,0,0,0,0,0,0,0,-1,1028,1065,0,0
-189,-41,0,0,0,0,0,0,0,0,0,-1,1035,1065,0,0
-182,-41,0,0,0,0,0,0,0,0,0,-1,1042,1065,0,0
-175,-41,0,0,0,0,0,0,0,0,0,-1,1049,1065,0,0
-168,-41,0,0,0,0,0,0,0,0,0,-1,1056,1065,0,0
-161,-41,0,0,0,0,0,0,0,0,0,-1,1063,1065,0,0
-154,-41,0,0,0,0,0,0,0,0,0,-1,1070,1065,0,0
-147,-41,0,0,0,0,0,0,0,0,0,-1,1077,1065,0,0
-140,-41,0,0,0,0,0,0,0,0,0,-1,1084,1065,0,0
-133,-41,0,0,0,0,0,0,0,0,0,-1,1091,1065,0,0
-126,-41,0,0,0,0,0,0,0,0,0,-1,1098,1065,0,0
-119,-41,0,0,0,0,0,0,0,0,0,-1,1105,1065,0,0
-112,-41,0,0,0,0,0,0,0,0,0,-1,1112,1065,0,0
-105,-41,0,0,0,0,0,0,0,0,0,-1,1119,1065,0,0
-98,-41,0,0,0,0,0,0,0,0,0,-1,1126,1065,0,0
-91,-41,0,0,0,0,0,0,0,0,0,-1,1133,1065,0,0
-84,-41,0,0,0,0,0,0,0,0,0,-1,1140,1065,0,0
-77,-41,0,0,0,0,0,0,0,0,0,-1,1147,1065,0,0
-70,-41,0,0,0,0,0,0,0,0,0,-1,1154,1065,0,0
-63,-41,0,0,0,0,0,0,0,0,0,-1,1161,1065,0,0
-56,-41,0,0,0,0,0,0,0,0,0,-1,1168,1065,0,0
-49,-41,0,0,0,0,0,0,0,0,0,-1,1175,1065,0,0
-42,-41,0,0,0,0,0,0,0,0,0,-1,1182,1065,0,0
-35,-41,0,0,0,0,0,0,0,0,0,-1,1189,1065,0,0
-28,-41,0,0,0,0,0,0,0,0,0,-1,1196,1065,0,0
-21,-41,0,0,0,0,0,0,0,0,0,-1,1203,1065,0,0
-14,-41,0,0,0,0,0,0,0,0,0,-1,1210,1065,0,0
-7,-41,0,0,0,0,0,0,0,0,0,-1,1217,1065,0,0
0,-41,0,0,0,0,0,0,0,0,0,-1,1224,1065,0,0
7,-41,0,0,0,0,0,0,0,0,0,-1,1231,1065,0,0
14,-41,0,0,0,0,0,0,0,0,0,-1,1238,1065,0,0
21,-41,0,0,0,0,0,0,0,0,0,-1,1245,1065,0,0
28,-41,0,0,0,0,0,0,0,0,0,-1,1252,1065,0,0
35,-41,0,0,0,0,0,0,0,0,0,-1,1259,1065,0,0
42,-41,0,0,0,0,0,0,0,0,0,-1,1266,1065,0,0
49,-41,0,0,0,0,0,0,0,0,0,-1,1273,1065,0,0
56,-41,0,0,0,0,0,0,0,0,0,-1,1280,1065,0,0
63,-41,0,0,0,0,0,0,0,0,0,-1,1287,1065,0,0
70,-41,0,0,0,0,0,0,0,0,0,-1,1294,1065,0,0
77,-41,0,0,0,0,0,0,0,0,0,-1,1301,1065,0,0
84,-41,0,0,0,0,0,0,0,0,0,-1,1308,1065,0,0
91,-41,0,0,0,0,0,0,0,0,0,-1,1315,1065,0,0
98,-41,0,0,0,0,0,0,0,0,0,-1,1322,1065,0,0
105,-41,0,0,0,0,0,0,0,0,0,-1,1329,1065,0,0
112,-41,0,0,0,0,0,0,0,0,0,-1,1336,1065,0,0
119,-41,0,0,0,0,0,0,0,0,0,-1,1343,1065,0,0
126,-41,0,0,0,0,0,0,0,0,0,-1,1350,1065,0,0
133,-41,0,0,0,0,0,0,0,0,0,-1,1357,1065,0,0
140,-41,0,0,0,0,0,0,0,0,0,-1,1364,1065,0,0
147,-41,0,0,0,0,0,0,0,0,0,-1,1371,1065,0,0
154,-41,0,0,0,0,0,0,0,0,0,-1,1378,1065,0,0
161,-41,0,0,0,0,0,0,0,0,0,-1,1385,1065,0,0
168,-41,0,0,0,0,0,0,0,0,0,-1,1392,1065,0,0
175,-41,0,0,0,0,0,0,0,0,0,-1,1399,1065,0,0
182,-41,0,0,0,0,0,0,0,0,0,-1,1406,1065,0,0
189,-41,0,0,0,0,0,0,0,0,0,-1,1413,1065,0,0
196,-41,0,0,0,0,0,0,0,0,0,-1,1420,1065,0,0
203,-41,0,0,0,0,0,0,0,0,0,-1,1427,1065,0,0
210,-41,0,0,0,0,0,0,0,0,0,-1,1434,1065,0,0
217,-41,0,0,0,0,0,0,0,0,0,-1,1441,1065,0,0
224,-41,0,0,0,0,0,0,0,0,0,-1,1448,1065,0,0
231,-41,0,0,0,0,0,0,0,0,0,-1,1455,1065,0,0
238,-41,0,0,0,0,0,0,0,0,0,-1,1462,1065,0,0
245,-41,0,0,0,0,0,0,0,0,0,-1,1469,1065,0,0
252,-41,0,0,0,0,0,0,0,0,0,-1,1476,1065,0,0
259,-41,0,0,0,0,0,0,0,0,0,-1,1483,1065,0,0
266,-41,0,0,0,0,0,0,0,0,0,-1,1490,1065,0,0
273,-41,0,0,0,0,0,0,0,0,0,-1,1497,1065,0,0
280,-41,0,0,0,0,0,0,0,0,0,-1,1504,1065,0,0
287,-41,0,0,0,0,0,0,0,0,0,-1,1511,1065,0,0
294,-41,0,0,0,0,0,0,0,0,0,-1,1518,1065,0,0
301,-41,0,0,0,0,0,0,0,0,0,-1,1525,1065,0,0
308,-41,0,0,0,0,0,0,0,0,0,-1,1532,1065,0,0
315,-41,0,0,0,0,0,0,0,0,0,-1,1539,1065,0,0
322,-41,0,0,0,0,0,0,0,0,0,-1,1546,1065,0,0
329,-41,0,0,0,0,0,0,0,0,0,-1,1553,1065,0,0
336,-41,0,0,0,0,0,0,0,0,0,-1,1560,1065,0,0
343,-41,0,0,0,0,0,0,0,0,0,-1,1567,1065,0,0
350,-41,0,0,0,0,0,0,0,0,0,-1,1574,1065,0,0
357,-41,0,0,0,0,0,0,0,0,0,-1,1581,1065,0,0
364,-41,0,0,0,0,0,0,0,0,0,-1,1588,1065,0,0
371,-41,0,0,0,0,0,0,0,0,0,-1,1595,1065,0,0
378,-41,0,0,0,0,0,0,0,0,0,-1,1602,1065,0,0
385,-41,0,0,0,0,0,0,0,0,0,-1,1609,1065,0,0
392,-41,0,0,0,0,0,0,0,0,0,-1,1616,1065,0,0
399,-41,0,0,0,0,0,0,0,0,0,-1,1623,1065,0,0
406,-41,0,0,0,0,0,0,0,0,0,-1,1630,1065,0,0
413,-41,0,0,0,0,0,0,0,0,0,-1,1637,1065,0,0
420,-41,0,0,0,0,0,0,0,0,0,-1,1644,1065,0,0
427,-41,0,0,0,0,0,0,0,0,0,-1,1651,1065,0,0
434,-41,0,0,0,0,0,0,0,0,0,-1,1658,1065,0,0
441,-41,0,0,0,0,0,0,0,0,0,-1,1665,1065,0,0
448,-41,0,0,0,0,0,0,0,0,0,-1,1672,1065,0,0
455,-41,0,0,0,0,0,0,0,0,0,-1,1679,1065,0,0
462,-41,0,0,0,0,0,0,0,0,0,-1,1686,1065,0,0
469,-41,0,0,0,0,0,0,0,0,0,-1,1693,1065,0,0
476,-41,0,0,0,0,0,0,0,0,0,-1,1700,1065,0,0
483,-41,0,0,0,0,0,0,0,0,0,-1,1707,1065,0,0
490,-41,0,0,0,0,0,0,0,0,0,-1,1714,1065,0,0
497,-41,0,0,0,0,0,0,0,0,0,-1,1721,1065,0,0
504,-41,0,0,0,0,0,0,0,0,0,-1,1728,1065,0,0
511,-41,0,0,0,0,0,0,0,0,0,-1,1735,1065,0,0
518,-41,0,0,0,0,0,0,0,0,0,-1,1742,1065,0,0
525,-41,0,0,0,0,0,0,0,0,0,-1,1749,1065,0,0
532,-41,0,0,0,0,0,0,0,0,0,-1,1756,1065,0,0
539,-41,0,0,0,0,0,0,0,0,0,-1,1763,1065,0,0
546,-41,0,0,0,0,0,0,0,0,0,-1,1770,1065,0,0
553,-41,0,0,0,0,0,0,0,0,0,-1,1777,1065,0,0
560,-41,0,0,0,0,0,0,0,0,0,-1,1784,1065,0,0
567,-41,0,0,0,0,0,0,0,0,0,-1,1791,1065,0,0
574,-41,0,0,0,0,0,0,0,0,0,-1,1798,1065,0,0
581,-41,0,0,0,0,0,0,0,0,0,-1,1805,1065,0,0
588,-41,0,0,0,0,0,0,0,0,0,-1,1812,1065,0,0
595,-41,0,0,0,0,0,0,0,0,0,-1,1819,1065,0,0
602,-41,0,0,0,0,0,0,0,0,0,-1,1826,1065,0,0
609,-41,0,0,0,0,0,0,0,0,0,-1,1833,1065,0,0
616,-41,0,0,0,0,0,0,0,0,0,-1,1840,1065,0,0
623,-41,0,0,0,0,0,0,0,0,0,-1,1847,1065,0,0
630,-41,0,0,0,0,0,0,0,0,0,-1,1854,1065,0,0
637,-41,0,0,0,0,0,0,0,0,0,-1,1861,1065,0,0
644,-41,0,0,0,0,0,0,0,0,0,-1,1868,1065,0,0
651,-41,49.4452,2.60352,-0.00264816,0.000523101,0.00206152,0.00153825,-0.00366331,1.11322,0.00308554,0.0335893,1875,1065,49.4452,-2.60354
658,-41,49.406,2.69385,-0.00143182,0.000175027,0.00131943,0.0009164,-0.00217319,1.05887,0.00183231,0.0388057,1882,1065,49.406,-2.69384
665,-41,49.5414,2.62305,-0.000849805,-1.48984e-05,0.00100413,0.000655096,-0.0015198,0.982397,0.00128833,0.0407829,1889,1065,49.5414,-2.62306
672,-41,49.7422,2.47266,-0.000519113,-9.55116e-05,0.000943214,0.000659389,-0.00127401,0.895842,0.0011349,0.0404396,1896,1065,49.7422,-2.47265
679,-41,49.733,2.48804,-0.000461541,-0.000132558,0.00103931,0.000755196,-0.0013493,0.863882,0.00123106,0.0414964,1903,1065,49.733,-2.48801
686,-41,49.7062,2.40161,-0.000783787,-0.000381111,0.00133876,0.000771365,-0.00193626,0.860035,0.00161075,0.0447595,1910,1065,49.7062,-2.40162
693,-41,49.6946,2.44324,-0.00109545,-0.000679213,0.00171154,0.000836818,-0.00261148,0.8459,0.0020769,0.0458546,1917,1065,49.6945,-2.4432
700,-41,49.5552,2.61169,-0.00134472,-0.000847646,0.00206445,0.000983178,-0.00317554,0.845304,0.00250979,0.0406478,1924,1065,49.5551,-2.61173
707,-41,49.5228,2.77917,-0.00157895,-0.000845536,0.00225821,0.00107555,-0.00350003,0.865889,0.00276257,0.0315267,1931,1065,49.5228,-2.77923
714,-41,49.5116,2.74573,-0.00198346,-0.000652462,0.0025227,0.00129104,-0.00392696,0.914362,0.00313813,0.0241122,1938,1065,49.5115,-2.74567
721,-41,49.5181,2.82568,0,0,0,0,0,0,0,-1,1945,1065,49.518,-2.8257
728,-41,48.8844,6.30774,0,0,0,0,0,0,0,-1,1952,1065,48.8844,-6.30775
735,-41,48.7317,6.17908,-0.00424166,0.00121621,0.00294347,0.00250114,-0.00552659,1.1592,0.00474326,0.0200993,1959,1065,48.7317,-6.17908
742,-41,48.6287,6.04675,-0.00484028,0.00235035,0.0032376,0.00359325,-0.00608318,1.20425,0.005648,0.0165829,1966,1065,48.6287,-6.04681
749,-41,48.6466,5.90601,-0.00545064,0.00359144,0.00323641,0.00463045,-0.00648965,1.26015,0.00645004,0.0152077,1973,1065,48.6466,-5.90595
756,-41,48.6921,5.72791,-0.00595517,0.00538554,0.00309963,0.00617744,-0.00674706,1.32067,0.00746438,0.0148098,1980,1065,48.6922,-5.72786
763,-41,48.6266,5.49866,-0.0063447,0.00757847,0.00266691,0.00807182,-0.00683805,1.38787,0.00861804,0.012534,1987,1065,48.6266,-5.49861
770,-41,48.5316,5.31995,-0.00682193,0.0104362,0.00225247,0.0107254,-0.00711107,1.44313,0.0103681,0.013814,1994,1065,48.5316,-5.3199
777,-41,48.4197,5.16028,-0.00680333,0.0137301,0.00171366,0.0138721,-0.00694536,1.4881,0.0122388,0.0160818,2001,1065,48.4197,-5.16032
784,-41,48.2942,5.0177,-0.00630824,0.0168981,0.00101469,0.0169424,-0.00635252,1.52718,0.0139049,0.0281539,2008,1065,48.2943,-5.01772
791,-41,48.3069,5.02881,-0.00516014,0.0198217,4.24664e-05,0.0198217,-0.00516022,1.5691,0.0152288,0.0464957,2015,1065,48.3069,-5.02883
798,-41,48.4617,4.9342,0,0,0,0,0,0,0,-1,2022,1065,48.4616,-4.93416
805,-41,47.9143,3.68835,0,0,0,0,0,0,0,-1,2029,1065,47.9143,-3.68834
812,-41,47.199,3.73999,0,0,0,0,0,0,0,-1,2036,1065,47.199,-3.74002
-700,-48,-34.5798,0.7323,0.00266135,0.0293261,-0.0149659,0.036037,-0.00404951,-1.14927,0.025482,0.047832,524,1072,-34.5798,-0.732323
-693,-48,-34.7884,0.86792,-0.00239857,0.0275442,-0.0151207,0.0338514,-0.00870574,-1.17562,0.0259607,0.0444802,531,1072,-34.7884,-0.867945
-686,-48,-30.2287,1.99414,0,0,0,0,0,0,0,-1,538,1072,-30.2287,-1.99408
-679,-48,-35.3723,2.14551,0,0,0,0,0,0,0,-1,545,1072,-35.3723,-2.14547
-672,-48,-35.1294,2.63818,0,0,0,0,0,0,0,-1,552,1072,-35.1294,-2.63816
-665,-48,-35.287,-0.0783691,0,0,0,0,0,0,0,-1,559,1072,-35.287,0.0783383
-658,-48,-35.7059,0.435059,0,0,0,0,0,0,0,-1,566,1072,-35.7059,-0.435037
-651,-48,-35.8882,1.51367,-0.00637594,0.0137115,-0.004873,0.0148312,-0.00749566,-1.34494,0.0131203,0.0380759,573,1072,-35.8882,-1.51362
-644,-48,-36.0157,2.1842,-0.0051821,0.0107894,-0.00407493,0.011769,-0.00616169,-1.33488,0.0105196,0.0209878,580,1072,-36.0157,-2.18419
-637,-48,-36.037,2.38599,-0.00525681,0.00885788,-0.00336716,0.00961999,-0.00601892,-1.34821,0.00910857,0.0214777,587,1072,-36.037,-2.38595
-630,-48,-36.0347,2.68066,-0.00327683,0.00596814,-0.00216052,0.00644813,-0.00375682,-1.35218,0.00595973,0.0233156,594,1072,-36.0347,-2.68067
-623,-48,-36.1329,2.95886,-0.00108235,0.00352943,-0.00213257,0.0043644,-0.00191731,-1.19761,0.00371734,0.0123365,601,1072,-36.1329,-2.95888
-616,-48,-36.1284,3.22949,-0.000296072,0.0018416,-0.00265916,0.0036387,-0.00209317,-0.976489,0.00334915,0.0111912,608,1072,-36.1284,-3.22954
-609,-48,-36.0747,3.51648,0.000381772,0.000836077,-0.00301304,0.00363051,-0.00241267,-0.823022,0.00351257,0.0133446,615,1072,-36.0747,-3.51653
-602,-48,-36.1039,3.73865,0.000756969,0.000205102,-0.00298746,0.00348121,-0.00251914,-0.739347,0.00347911,0.0138574,622,1072,-36.1039,-3.7387
-595,-48,-36.1614,3.89172,0.000951603,-0.000380396,-0.00271104,0.00307725,-0.00250605,-0.664952,0.00322914,0.0305082,629,1072,-36.1614,-3.89176
-588,-48,-36.3823,3.93359,0,0,0,0,0,0,0,-1,636,1072,-36.3822,-3.93357
-581,-48,-36.884,0.781006,0,0,0,0,0,0,0,-1,643,1072,-36.8839,-0.780984
-574,-48,-37.0159,0.572998,0.00137624,-0.000919765,-0.00133209,0.00198676,-0.00153028,-0.429745,0.00203626,0.0390862,650,1072,-37.0158,-0.572948
-567,-48,-36.9622,0.727417,0.00120966,-0.000699874,-0.000563567,0.00136358,-0.000853794,-0.266615,0.00129143,0.0424375,657,1072,-36.9621,-0.72747
-560,-48,-36.9759,0.617432,0.000889886,-0.000318416,0.000379365,0.000999119,-0.000427649,0.280352,0.000845483,0.0441164,664,1072,-36.9759,-0.617472
-553,-48,-37.0779,0.592285,0.000527633,6.22725e-05,0.00147561,0.00178879,-0.00119889,0.7072,0.00173611,0.0437833,671,1072,-37.0779,-0.592241
-546,-48,-37.0266,0.936523,0.000193703,0.000171147,0.00262864,0.00281109,-0.00244624,0.783253,0.00303776,0.0408078,678,1072,-37.0266,-0.936483
-539,-48,-36.9382,1.24622,9.56738e-06,-0.000366379,0.0032167,0.00304378,-0.0034006,0.756213,0.00372257,0.0396904,685,1072,-36.9382,-1.24616
-532,-48,-36.8821,1.26636,7.67745e-06,-0.000659057,0.0032964,0.00298752,-0.0036389,0.735004,0.00383192,0.0381882,692,1072,-36.8821,-1.26633
-525,-48,0,0,0,0,0,0,0,0,0,-1,699,1072,0,0
-518,-48,0,0,0,0,0,0,0,0,0,-1,706,1072,0,0
-511,-48,0,0,0,0,0,0,0,0,0,-1,713,1072,0,0
-504,-48,0,0,0,0,0,0,0,0,0,-1,720,1072,0,0
-497,-48,0,0,0,0,0,0,0,0,0,-1,727,1072,0,0
-490,-48,0,0,0,0,0,0,0,0,0,-1,734,1072,0,0
-483,-48,0,0,0,0,0,0,0,0,0,-1,741,1072,0,0
-476,-48,0,0,0,0,0,0,0,0,0,-1,748,1072,0,0
-469,-48,0,0,0,0,0,0,0,0,0,-1,755,1072,0,0
-462,-48,0,0,0,0,0,0,0,0,0,-1,762,1072,0,0
-455,-48,0,0,0,0,0,0,0,0,0,-1,769,1072,0,0
-448,-48,0,0,0,0,0,0,0,0,0,-1,776,1072,0,0
-441,-48,0,0,0,0,0,0,0,0,0,-1,783,1072,0,0
-434,-48,0,0,0,0,0,0,0,0,0,-1,790,1072,0,0
-427,-48,0,0,0,0,0,0,0,0,0,-1,797,1072,0,0
-420,-48,0,0,0,0,0,0,0,0,0,-1,804,1072,0,0
-413,-48,0,0,0,0,0,0,0,0,0,-1,811,1072,0,0
-406,-48,0,0,0,0,0,0,0,0,0,-1,818,1072,0,0
-399,-48,0,0,0,0,0,0,0,0,0,-1,825,1072,0,0
-392,-48,0,0,0,0,0,0,0,0,0,-1,832,1072,0,0
-385,-48,0,0,0,0,0,0,0,0,0,-1,839,1072,0,0
-378,-48,0,0,0,0,0,0,0,0,0,-1,846,1072,0,0
-371,-48,0,0,0,0,0,0,0,0,0,-1,853,1072,0,0
-364,-48,0,0,0,0,0,0,0,0,0,-1,860,1072,0,0
-357,-48,0,0,0,0,0,0,0,0,0,-1,867,1072,0,0
-350,-48,0,0,0,0,0,0,0,0,0,-1,874,1072,0,0
-343,-48,0,0,0,0,0,0,0,0,0,-1,881,1072,0,0
-336,-48,0,0,0,0,0,0,0,0,0,-1,888,1072,0,0
-329,-48,0,0,0,0,0,0,0,0,0,-1,895,1072,0,0
-322,-48,0,0,0,0,0,0,0,0,0,-1,902,1072,0,0
-315,-48,0,0,0,0,0,0,0,0,0,-1,909,1072,0,0
-308,-48,0,0,0,0,0,0,0,0,0,-1,916,1072,0,0
-301,-48,0,0,0,0,0,0,0,0,0,-1,923,1072,0,0
-294,-48,0,0,0,0,0,0,0,0,0,-1,930,1072,0,0
-287,-48,0,0,0,0,0,0,0,0,0,-1,937,1072,0,0
-280,-48,0,0,0,0,0,0,0,0,0,-1,944,1072,0,0
-273,-48,0,0,0,0,0,0,0,0,0,-1,951,1072,0,0
-266,-48,0,0,0,0,0,0,0,0,0,-1,958,1072,0,0
-259,-48,0,0,0,0,0,0,0,0,0,-1,965,1072,0,0
-252,-48,0,0,0,0,0,0,0,0,0,-1,972,1072,0,0
-245,-48,0,0,0,0,0,0,0,0,0,-1,979,1072,0,0
-238,-48,0,0,0,0,0,0,0,0,0,-1,986,1072,0,0
-231,-48,0,0,0,0,0,0,0,0,0,-1,993,1072,0,0
-224,-48,0,0,0,0,0,0,0,0,0,-1,1000,1072,0,0
-217,-48,0,0,0,0,0,0,0,0,0,-1,1007,1072,0,0
-210,-48,0,0,0,0,0,0,0,0,0,-1,1014,1072,0,0
-203,-48,0,0,0,0,0,0,0,0,0,-1,1021,1072,0,0
-196,-48,0,0,0,0,0,0,0,0,0,-1,1028,1072,0,0
-189,-48,0,0,0,0,0,0,0,0,0,-1,1035,1072,0,0
-182,-48,0,0,0,0,0,0,0,0,0,-1,1042,1072,0,0
-175,-48,0,0,0,0,0,0,0,0,0,-1,1049,1072,0,0
-168,-48,0,0,0,0,0,0,0,0,0,-1,1056,1072,0,0
-161,-48,0,0,0,0,0,0,0,0,0,-1,1063,1072,0,0
-154,-48,0,0,0,0,0,0,0,0,0,-1,1070,1072,0,0
-147,-48,0,0,0,0,0,0,0,0,0,-1,1077,1072,0,0
-140,-48,0,0,0,0,0,0,0,0,0,-1,1084,1072,0,0
-133,-48,0,0,0,0,0,0,0,0,0,-1,1091,1072,0,0
-126,-48,0,0,0,0,0,0,0,0,0,-1,1098,1072,0,0
-119,-48,0,0,0,0,0,0,0,0,0,-1,1105,1072,0,0
-112,-48,0,0,0,0,0,0,0,0,0,-1,1112,1072,0,0
-105,-48,0,0,0,0,0,0,0,0,0,-1,1119,1072,0,0
-98,-48,0,0,0,0,0,0,0,0,0,-1,1126,1072,0,0
-91,-48,0,0,0,0,0,0,0,0,0,-1,1133,1072,0,0
-84,-48,0,0,0,0,0,0,0,0,0,-1,1140,1072,0,0
-77,-48,0,0,0,0,0,0,0,0,0,-1,1147,1072,0,0
-70,-48,0,0,0,0,0,0,0,0,0,-1,1154,1072,0,0
-63,-48,0,0,0,0,0,0,0,0,0,-1,1161,1072,0,0
-56,-48,0,0,0,0,0,0,0,0,0,-1,1168,1072,0,0
-49,-48,0,0,0,0,0,0,0,0,0,-1,1175,1072,0,0
-42,-48,0,0,0,0,0,0,0,0,0,-1,1182,1072,0,0
-35,-48,0,0,0,0,0,0,0,0,0,-1,1189,1072,0,0
-28,-48,0,0,0,0,0,0,0,0,0,-1,1196,1072,0,0
-21,-48,0,0,0,0,0,0,0,0,0,-1,1203,1072,0,0
-14,-48,0,0,0,0,0,0,0,0,0,-1,1210,1072,0,0
-7,-48,0,0,0,0,0,0,0,0,0,-1,1217,1072,0,0
0,-48,0,0,0,0,0,0,0,0,0,-1,1224,1072,0,0
7,-48,0,0,0,0,0,0,0,0,0,-1,1231,1072,0,0
14,-48,0,0,0,0,0,0,0,0,0,-1,1238,1072,0,0
21,-48,0,0,0,0,0,0,0,0,0,-1,1245,1072,0,0
28,-48,0,0,0,0,0,0,0,0,0,-1,1252,1072,0,0
35,-48,0,0,0,0,0,0,0,0,0,-1,1259,1072,0,0
42,-48,0,0,0,0,0,0,0,0,0,-1,1266,1072,0,0
49,-48,0,0,0,0,0,0,0,0,0,-1,1273,1072,0,0
56,-48,0,0,0,0,0,0,0,0,0,-1,1280,1072,0,0
63,-48,0,0,0,0,0,0,0,0,0,-1,1287,1072,0,0
70,-48,0,0,0,0,0,0,0,0,0,-1,1294,1072,0,0
77,-48,0,0,0,0,0,0,0,0,0,-1,1301,1072,0,0
84,-48,0,0,0,0,0,0,0,0,0,-1,1308,1072,0,0
91,-48,0,0,0,0,0,0,0,0,0,-1,1315,1072,0,0
98,-48,0,0,0,0,0,0,0,0,0,-1,1322,1072,0,0
105,-48,0,0,0,0,0,0,0,0,0,-1,1329,1072,0,0
112,-48,0,0,0,0,0,0,0,0,0,-1,1336,1072,0,0
119,-48,0,0,0,0,0,0,0,0,0,-1,1343,1072,0,0
126,-48,0,0,0,0,0,0,0,0,0,-1,1350,1072,0,0
133,-48,0,0,0,0,0,0,0,0,0,-1,1357,1072,0,0
140,-48,0,0,0,0,0,0,0,0,0,-1,1364,1072,0,0
147,-48,0,0,0,0,0,0,0,0,0,-1,1371,1072,0,0
154,-48,0,0,0,0,0,0,0,0,0,-1,1378,1072,0,0
161,-48,0,0,0,0,0,0,0,0,0,-1,1385,1072,0,0
168,-48,0,0,0,0,0,0,0,0,0,-1,1392,1072,0,0
175,-48,0,0,0,0,0,0,0,0,0,-1,1399,1072,0,0
182,-48,0,0,0,0,0,0,0,0,0,-1,1406,1072,0,0
189,-48,0,0,0,0,0,0,0,0,0,-1,1413,1072,0,0
196,-48,0,0,0,0,0,0,0,0,0,-1,1420,1072,0,0
203,-48,0,0,0,0,0,0,0,0,0,-1,1427,1072,0,0
210,-48,0,0,0,0,0,0,0,0,0,-1,1434,1072,0,0
217,-48,0,0,0,0,0,0,0,0,0,-1,1441,1072,0,0
224,-48,0,0,0,0,0,0,0,0,0,-1,1448,1072,0,0
231,-48,0,0,0,0,0,0,0,0,0,-1,1455,1072,0,0
238,-48,0,0,0,0,0,0,0,0,0,-1,1462,1072,0,0
245,-48,0,0,0,0,0,0,0,0,0,-1,1469,1072,0,0
252,-48,0,0,0,0,0,0,0,0,0,-1,1476,1072,0,0
259,-48,0,0,0,0,0,0,0,0,0,-1,1483,1072,0,0
266,-48,0,0,0,0,0,0,0,0,0,-1,1490,1072,0,0
273,-48,0,0,0,0,0,0,0,0,0,-1,1497,1072,0,0
280,-48,0,0,0,0,0,0,0,0,0,-1,1504,1072,0,0
287,-48,0,0,0,0,0,0,0,0,0,-1,1511,1072,0,0
294,-48,0,0,0,0,0,0,0,0,0,-1,1518,1072,0,0
301,-48,0,0,0,0,0,0,0,0,0,-1,1525,1072,0,0
308,-48,0,0,0,0,0,0,0,0,0,-1,1532,1072,0,0
315,-48,0,0,0,0,0,0,0,0,0,-1,1539,1072,0,0
322,-48,0,0,0,0,0,0,0,0,0,-1,1546,1072,0,0
329,-48,0,0,0,0,0,0,0,0,0,-1,1553,1072,0,0
336,-48,0,0,0,0,0,0,0,0,0,-1,1560,1072,0,0
343,-48,0,0,0,0,0,0,0,0,0,-1,1567,1072,0,0
350,-48,0,0,0,0,0,0,0,0,0,-1,1574,1072,0,0
357,-48,0,0,0,0,0,0,0,0,0,-1,1581,1072,0,0
364,-48,0,0,0,0,0,0,0,0,0,-1,1588,1072,0,0
371,-48,0,0,0,0,0,0,0,0,0,-1,1595,1072,0,0
378,-48,0,0,0,0,0,0,0,0,0,-1,1602,1072,0,0
385,-48,0,0,0,0,0,0,0,0,0,-1,1609,1072,0,0
392,-48,0,0,0,0,0,0,0,0,0,-1,1616,1072,0,0
399,-48,0,0,0,0,0,0,0,0,0,-1,1623,1072,0,0
406,-48,0,0,0,0,0,0,0,0,0,-1,1630,1072,0,0
413,-48,0,0,0,0,0,0,0,0,0,-1,1637,1072,0,0
420,-48,0,0,0,0,0,0,0,0,0,-1,1644,1072,0,0
427,-48,0,0,0,0,0,0,0,0,0,-1,1651,1072,0,0
434,-48,0,0,0,0,0,0,0,0,0,-1,1658,1072,0,0
441,-48,0,0,0,0,0,0,0,0,0,-1,1665,1072,0,0
448,-48,0,0,0,0,0,0,0,0,0,-1,1672,1072,0,0
455,-48,0,0,0,0,0,0,0,0,0,-1,1679,1072,0,0
462,-48,0,0,0,0,0,0,0,0,0,-1,1686,1072,0,0
469,-48,0,0,0,0,0,0,0,0,0,-1,1693,1072,0,0
476,-48,0,0,0,0,0,0,0,0,0,-1,1700,1072,0,0
483,-48,0,0,0,0,0,0,0,0,0,-1,1707,1072,0,0
490,-48,0,0,0,0,0,0,0,0,0,-1,1714,1072,0,0
497,-48,0,0,0,0,0,0,0,0,0,-1,1721,1072,0,0
504,-48,0,0,0,0,0,0,0,0,0,-1,1728,1072,0,0
511,-48,0,0,0,0,0,0,0,0,0,-1,1735,1072,0,0
518,-48,0,0,0,0,0,0,0,0,0,-1,1742,1072,0,0
525,-48,0,0,0,0,0,0,0,0,0,-1,1749,1072,0,0
532,-48,0,0,0,0,0,0,0,0,0,-1,1756,1072,0,0
539,-48,0,0,0,0,0,0,0,0,0,-1,1763,1072,0,0
546,-48,0,0,0,0,0,0,0,0,0,-1,1770,1072,0,0
553,-48,0,0,0,0,0,0,0,0,0,-1,1777,1072,0,0
560,-48,0,0,0,0,0,0,0,0,0,-1,1784,1072,0,0
567,-48,0,0,0,0,0,0,0,0,0,-1,1791,1072,0,0
574,-48,0,0,0,0,0,0,0,0,0,-1,1798,1072,0,0
581,-48,0,0,0,0,0,0,0,0,0,-1,1805,1072,0,0
588,-48,0,0,0,0,0,0,0,0,0,-1,1812,1072,0,0
595,-48,0,0,0,0,0,0,0,0,0,-1,1819,1072,0,0
602,-48,0,0,0,0,0,0,0,0,0,-1,1826,1072,0,0
609,-48,0,0,0,0,0,0,0,0,0,-1,1833,1072,0,0
616,-48,0,0,0,0,0,0,0,0,0,-1,1840,1072,0,0
623,-48,0,0,0,0,0,0,0,0,0,-1,1847,1072,0,0
630,-48,0,0,0,0,0,0,0,0,0,-1,1854,1072,0,0
637,-48,0,0,0,0,0,0,0,0,0,-1,1861,1072,0,0
644,-48,0,0,0,0,0,0,0,0,0,-1,1868,1072,0,0
651,-48,49.4669,2.64417,-0.00254539,-0.000193943,0.00152074,0.000552563,-0.00329189,1.11447,0.00240008,0.0336422,1875,1072,49.4669,-2.64416
658,-48,49.3842,2.70984,-0.0012764,-0.000208784,0.00103729,0.00042399,-0.00190917,1.02304,0.00143514,0.0391029,1882,1072,49.3841,-2.7098
665,-48,49.3801,2.60193,-0.00068042,-0.000212223,0.000870198,0.000454815,-0.00134746,0.916796,0.00108225,0.0426249,1889,1072,49.3802,-2.60198
672,-48,49.4071,2.45496,-0.00036212,-0.000180373,0.000888957,0.000622344,-0.00116484,0.836333,0.00104755,0.0403683,1896,1072,49.4071,-2.455
679,-48,49.5298,2.64368,-0.000370115,-0.00014559,0.00100494,0.000753336,-0.00126904,0.841023,0.00118021,0.040378,1903,1072,49.5298,-2.64372
686,-48,49.5634,2.64624,-0.000758527,-0.000345057,0.00126114,0.000726176,-0.00182976,0.866639,0.00152083,0.0427711,1910,1072,49.5633,-2.64623
693,-48,49.6534,2.58862,-0.00110821,-0.000608489,0.00156966,0.000731073,-0.00244777,0.864326,0.00192245,0.0417477,1917,1072,49.6535,-2.5886
700,-48,49.6074,2.59766,-0.00137287,-0.000750648,0.00188461,0.000848358,-0.00297188,0.867201,0.00231641,0.0349911,1924,1072,49.6075,-2.5977
707,-48,49.556,2.68115,-0.00161212,-0.000738657,0.00206209,0.000932446,-0.00328322,0.889751,0.00255694,0.0301602,1931,1072,49.556,-2.68119
714,-48,49.5264,2.76636,-0.0019916,-0.000596668,0.00232615,0.00113432,-0.00372259,0.931052,0.00293387,0.0383853,1938,1072,49.5264,-2.76639
721,-48,49.5094,3.00574,0,0,0,0,0,0,0,-1,1945,1072,49.5094,-3.00576
728,-48,48.6686,6.46265,0,0,0,0,0,0,0,-1,1952,1072,48.6686,-6.46267
735,-48,48.5194,6.28247,-0.00415489,0.00106606,0.00277456,0.00226514,-0.00535398,1.16287,0.00451779,0.0215572,1959,1072,48.5195,-6.28249
742,-48,48.3793,6.07373,-0.00479029,0.00215619,0.00314975,0.0033717,-0.0060058,1.2025,0.00548483,0.0172878,1966,1072,48.3793,-6.07368
749,-48,48.4219,5.87659,-0.00538652,0.00333103,0.00323172,0.0043984,-0.00645388,1.2518,0.00630292,0.0144432,1973,1072,48.4218,-5.87653
756,-48,48.4315,5.68567,-0.00594773,0.00505507,0.0031978,0.00591695,-0.00680961,1.30753,0.00735371,0.0132273,1980,1072,48.4315,-5.68573
763,-48,48.3668,5.4679,-0.00652809,0.0072352,0.00293069,0.00783325,-0.00712615,1.36949,0.00864003,0.0127093,1987,1072,48.3668,-5.46788
770,-48,48.3459,5.2489,-0.00734054,0.0101201,0.00270065,0.0105283,-0.00774871,1.42079,0.0105928,0.0136638,1994,1072,48.346,-5.24884
777,-48,48.2039,5.05054,-0.0078985,0.0134775,0.00238672,0.0137408,-0.00816174,1.46094,0.0127814,0.0129972,2001,1072,48.2038,-5.05053
784,-48,48.0706,4.86072,-0.0081291,0.0168009,0.00190551,0.0169457,-0.00827391,1.49495,0.0148447,0.025661,2008,1072,48.0707,-4.86066
791,-48,47.9744,4.65198,-0.00794235,0.0200256,0.00114678,0.0200726,-0.00798929,1.52988,0.0166947,0.0435319,2015,1072,47.9743,-4.65198
798,-48,47.8821,4.45789,0,0,0,0,0,0,0,-1,2022,1072,47.8822,-4.45786
805,-48,47.0964,4.10852,0,0,0,0,0,0,0,-1,2029,1072,47.0965,-4.10849
812,-48,46.8772,3.92871,0,0,0,0,0,0,0,-1,2036,1072,46.8771,-3.92867
-700,-55,-34.2411,0.307495,0.00907007,0.0202316,-0.0112675,0.0272247,0.00207701,-1.01534,0.0174986,0.0471261,524,1079,-34.2412,-0.307541
-693,-55,-34.8245,0.676025,0.00307544,0.0210424,-0.0111398,0.0263697,-0.00225186,-1.12472,0.0183765,0.0465801,531,1079,-34.8245,-0.675993
-686,-55,-35.1141,1.06201,0,0,0,0,0,0,0,-1,538,1079,-35.1141,-1.062
-679,-55,-34.911,1.83606,0,0,0,0,0,0,0,-1,545,1079,-34.911,-1.836
-672,-55,-34.2709,2.00024,0,0,0,0,0,0,0,-1,552,1079,-34.2709,-2.0003
-665,-55,-34.4043,2.41577,0,0,0,0,0,0,0,-1,559,1079,-34.4043,-2.41578
-658,-55,-35.8574,0.225952,0,0,0,0,0,0,0,-1,566,1079,-35.8573,-0.225933
-651,-55,-35.762,1.1803,0,0,0,0,0,0,0,-1,573,1079,-35.762,-1.18025
-644,-55,-35.6666,2.13452,0,0,0,0,0,0,0,-1,580,1079,-35.6666,-2.13456
-637,-55,-35.7545,2.32324,-0.0035499,0.00816334,-0.00230809,0.00860174,-0.0039883,-1.38309,0.00742975,0.0191184,587,1079,-35.7545,-2.32323
-630,-55,-35.7575,2.63928,-0.00216947,0.00556289,-0.00149361,0.00584137,-0.00244795,-1.38646,0.0049177,0.0223007,594,1079,-35.7575,-2.63925
-623,-55,-35.8937,2.98181,-0.000467759,0.00305018,-0.00164536,0.00369978,-0.00111736,-1.19478,0.00291134,0.0193353,601,1079,-35.8937,-2.9818
-616,-55,-35.9004,3.23181,6.79844e-05,0.00136706,-0.00211033,0.00292555,-0.00149051,-0.934693,0.0025941,0.0170504,608,1079,-35.9004,-3.23182
-609,-55,-35.8585,3.55908,0.000693489,0.00036401,-0.00235416,0.00288867,-0.00183117,-0.750466,0.0027477,0.0175215,615,1079,-35.8585,-3.5591
-602,-55,-35.8227,3.81726,0.00106024,-0.00029254,-0.00226386,0.00274659,-0.00197889,-0.640231,0.00274024,0.0151591,622,1079,-35.8227,-3.81728
-595,-55,-35.7201,4.05957,0.001243,-0.000834556,-0.00196194,0.00242419,-0.00201574,-0.541927,0.00256701,0.0321035,629,1079,-35.7201,-4.05961
-588,-55,-35.7457,4.31958,0,0,0,0,0,0,0,-1,636,1079,-35.7457,-4.31964
-581,-55,-36.8723,0.721924,0,0,0,0,0,0,0,-1,643,1079,-36.8723,-0.7219
-574,-55,-36.9131,0.690552,0.00165718,-0.00135207,-0.000800199,0.00185673,-0.00155162,-0.244391,0.00197044,0.0393226,650,1079,-36.9132,-0.6905
-567,-55,-37.0103,0.73584,0.00153962,-0.00113335,-0.0001947,0.00155373,-0.00114746,-0.0723314,0.0015654,0.041926,657,1079,-37.0103,-0.735844
-560,-55,-37.1349,0.661011,0.00125324,-0.000719369,0.000517757,0.00138088,-0.000847007,0.241702,0.00129852,0.0440821,664,1079,-37.1349,-0.661011
-553,-55,-37.0624,0.620239,0.000894002,-0.000240609,0.00132899,0.0017717,-0.00111831,0.583672,0.00168271,0.0427094,671,1079,-37.0624,-0.620256
-546,-55,-36.9904,0.894165,0.000559688,9.17726e-05,0.00215304,0.00249144,-0.00183998,0.731278,0.00251016,0.0407053,678,1079,-36.9904,-0.894198
-539,-55,-36.8886,1.13818,0.00049928,-0.000141344,0.00242262,0.00262268,-0.00226474,0.719671,0.00282427,0.0410371,685,1079,-36.8886,-1.1382
-532,-55,-36.799,1.18103,0.000372032,-0.000218741,0.00251329,0.00260723,-0.00245394,0.726901,0.00292251,0.0393875,692,1079,-36.799,-1.18106
-525,-55,0,0,0,0,0,0,0,0,0,-1,699,1079,0,0
-518,-55,0,0,0,0,0,0,0,0,0,-1,706,1079,0,0
-511,-55,0,0,0,0,0,0,0,0,0,-1,713,1079,0,0
-504,-55,0,0,0,0,0,0,0,0,0,-1,720,1079,0,0
-497,-55,0,0,0,0,0,0,0,0,0,-1,727,1079,0,0
-490,-55,0,0,0,0,0,0,0,0,0,-1,734,1079,0,0
-483,-55,0,0,0,0,0,0,0,0,0,-1,741,1079,0,0
-476,-55,0,0,0,0,0,0,0,0,0,-1,748,1079,0,0
-469,-55,0,0,0,0,0,0,0,0,0,-1,755,1079,0,0
-462,-55,0,0,0,0,0,0,0,0,0,-1,762,1079,0,0
-455,-55,0,0,0,0,0,0,0,0,0,-1,769,1079,0,0
-448,-55,0,0,0,0,0,0,0,0,0,-1,776,1079,0,0
-441,-55,0,0,0,0,0,0,0,0,0,-1,783,1079,0,0
-434,-55,0,0,0,0,0,0,0,0,0,-1,790,1079,0,0
-427,-55,0,0,0,0,0,0,0,0,0,-1,797,1079,0,0
-420,-55,0,0,0,0,0,0,0,0,0,-1,804,1079,0,0
-413,-55,0,0,0,0,0,0,0,0,0,-1,811,1079,0,0
-406,-55,0,0,0,0,0,0,0,0,0,-1,818,1079,0,0
-399,-55,0,0,0,0,0,0,0,0,0,-1,825,1079,0,0
-392,-55,0,0,0,0,0,0,0,0,0,-1,832,1079,0,0
-385,-55,0,0,0,0,0,0,0,0,0,-1,839,1079,0,0
-378,-55,0,0,0,0,0,0,0,0,0,-1,846,1079,0,0
-371,-55,0,0,0,0,0,0,0,0,0,-1,853,1079,0,0
-364,-55,0,0,0,0,0,0,0,0,0,-1,860,1079,0,0
-357,-55,0,0,0,0,0,0,0,0,0,-1,867,1079,0,0
-350,-55,0,0,0,0,0,0,0,0,0,-1,874,1079,0,0
-343,-55,0,0,0,0,0,0,0,0,0,-1,881,1079,0,0
-336,-55,0,0,0,0,0,0,0,0,0,-1,888,1079,0,0
-329,-55,0,0,0,0,0,0,0,0,0,-1,895,1079,0,0
-322,-55,0,0,0,0,0,0,0,0,0,-1,902,1079,0,0
-315,-55,0,0,0,0,0,0,0,0,0,-1,909,1079,0,0
-308,-55,0,0,0,0,0,0,0,0,0,-1,916,1079,0,0
-301,-55,0,0,0,0,0,0,0,0,0,-1,923,1079,0,0
-294,-55,0,0,0,0,0,0,0,0,0,-1,930,1079,0,0
-287,-55,0,0,0,0,0,0,0,0,0,-1,937,1079,0,0
-280,-55,0,0,0,0,0,0,0,0,0,-1,944,1079,0,0
-273,-55,0,0,0,0,0,0,0,0,0,-1,951,1079,0,0
-266,-55,0,0,0,0,0,0,0,0,0,-1,958,1079,0,0
-259,-55,0,0,0,0,0,0,0,0,0,-1,965,1079,0,0
-252,-55,0,0,0,0,0,0,0,0,0,-1,972,1079,0,0
-245,-55,0,0,0,0,0,0,0,0,0,-1,979,1079,0,0
-238,-55,0,0,0,0,0,0,0,0,0,-1,986,1079,0,0
-231,-55,0,0,0,0,0,0,0,0,0,-1,993,1079,0,0
-224,-55,0,0,0,0,0,0,0,0,0,-1,1000,1079,0,0
-217,-55,0,0,0,0,0,0,0,0,0,-1,1007,1079,0,0
-210,-55,0,0,0,0,0,0,0,0,0,-1,1014,1079,0,0
-203,-55,0,0,0,0,0,0,0,0,0,-1,1021,1079,0,0
-196,-55,0,0,0,0,0,0,0,0,0,-1,1028,1079,0,0
-189,-55,0,0,0,0,0,0,0,0,0,-1,1035,1079,0,0
-182,-55,0,0,0,0,0,0,0,0,0,-1,1042,1079,0,0
-175,-55,0,0,0,0,0,0,0,0,0,-1,1049,1079,0,0
-168,-55,0,0,0,0,0,0,0,0,0,-1,1056,1079,0,0
-161,-55,0,0,0,0,0,0,0,0,0,-1,1063,1079,0,0
-154,-55,0,0,0,0,0,0,0,0,0,-1,1070,1079,0,0
-147,-55,0,0,0,0,0,0,0,0,0,-1,1077,1079,0,0
-140,-55,0,0,0,0,0,0,0,0,0,-1,1084,1079,0,0
-133,-55,0,0,0,0,0,0,0,0,0,-1,1091,1079,0,0
-126,-55,0,0,0,0,0,0,0,0,0,-1,1098,1079,0,0
-119,-55,0,0,0,0,0,0,0,0,0,-1,1105,1079,0,0
-112,-55,0,0,0,0,0,0,0,0,0,-1,1112,1079,0,0
-105,-55,0,0,0,0,0,0,0,0,0,-1,1119,1079,0,0
-98,-55,0,0,0,0,0,0,0,0,0,-1,1126,1079,0,0
-91,-55,0,0,0,0,0,0,0,0,0,-1,1133,1079,0,0
-84,-55,0,0,0,0,0,0,0,0,0,-1,1140,1079,0,0
-77,-55,0,0,0,0,0,0,0,0,0,-1,1147,1079,0,0
-70,-55,0,0,0,0,0,0,0,0,0,-1,1154,1079,0,0
-63,-55,0,0,0,0,0,0,0,0,0,-1,1161,1079,0,0
-56,-55,0,0,0,0,0,0,0,0,0,-1,1168,1079,0,0
-49,-55,0,0,0,0,0,0,0,0,0,-1,1175,1079,0,0
-42,-55,0,0,0,0,0,0,0,0,0,-1,1182,1079,0,0
-35,-55,0,0,0,0,0,0,0,0,0,-1,1189,1079,0,0
-28,-55,0,0,0,0,0,0,0,0,0,-1,1196,1079,0,0
-21,-55,0,0,0,0,0,0,0,0,0,-1,1203,1079,0,0
-14,-55,0,0,0,0,0,0,0,0,0,-1,1210,1079,0,0
-7,-55,0,0,0,0,0,0,0,0,0,-1,1217,1079,0,0
0,-55,0,0,0,0,0,0,0,0,0,-1,1224,1079,0,0
7,-55,0,0,0,0,0,0,0,0,0,-1,1231,1079,0,0
14,-55,0,0,0,0,0,0,0,0,0,-1,1238,1079,0,0
21,-55,0,0,0,0,0,0,0,0,0,-1,1245,1079,0,0
28,-55,0,0,0,0,0,0,0,0,0,-1,1252,1079,0,0
35,-55,0,0,0,0,0,0,0,0,0,-1,1259,1079,0,0
42,-55,0,0,0,0,0,0,0,0,0,-1,1266,1079,0,0
49,-55,0,0,0,0,0,0,0,0,0,-1,1273,1079,0,0
56,-55,0,0,0,0,0,0,0,0,0,-1,1280,1079,0,0
63,-55,0,0,0,0,0,0,0,0,0,-1,1287,1079,0,0
70,-55,0,0,0,0,0,0,0,0,0,-1,1294,1079,0,0
77,-55,0,0,0,0,0,0,0,0,0,-1,1301,1079,0,0
84,-55,0,0,0,0,0,0,0,0,0,-1,1308,1079,0,0
91,-55,0,0,0,0,0,0,0,0,0,-1,1315,1079,0,0
98,-55,0,0,0,0,0,0,0,0,0,-1,1322,1079,0,0
105,-55,0,0,0,0,0,0,0,0,0,-1,1329,1079,0,0
112,-55,0,0,0,0,0,0,0,0,0,-1,1336,1079,0,0
119,-55,0,0,0,0,0,0,0,0,0,-1,1343,1079,0,0
126,-55,0,0,0,0,0,0,0,0,0,-1,1350,1079,0,0
133,-55,0,0,0,0,0,0,0,0,0,-1,1357,1079,0,0
140,-55,0,0,0,0,0,0,0,0,0,-1,1364,1079,0,0
147,-55,0,0,0,0,0,0,0,0,0,-1,1371,1079,0,0
154,-55,0,0,0,0,0,0,0,0,0,-1,1378,1079,0,0
161,-55,0,0,0,0,0,0,0,0,0,-1,1385,1079,0,0
168,-55,0,0,0,0,0,0,0,0,0,-1,1392,1079,0,0
175,-55,0,0,0,0,0,0,0,0,0,-1,1399,1079,0,0
182,-55,0,0,0,0,0,0,0,0,0,-1,1406,1079,0,0
189,-55,0,0,0,0,0,0,0,0,0,-1,1413,1079,0,0
196,-55,0,0,0,0,0,0,0,0,0,-1,1420,1079,0,0
203,-55,0,0,0,0,0,0,0,0,0,-1,1427,1079,0,0
210,-55,0,0,0,0,0,0,0,0,0,-1,1434,1079,0,0
217,-55,0,0,0,0,0,0,0,0,0,-1,1441,1079,0,0
224,-55,0,0,0,0,0,0,0,0,0,-1,1448,1079,0,0
231,-55,0,0,0,0,0,0,0,0,0,-1,1455,1079,0,0
238,-55,0,0,0,0,0,0,0,0,0,-1,1462,1079,0,0
245,-55,0,0,0,0,0,0,0,0,0,-1,1469,1079,0,0
252,-55,0,0,0,0,0,0,0,0,0,-1,1476,1079,0,0
259,-55,0,0,0,0,0,0,0,0,0,-1,1483,1079,0,0
266,-55,0,0,0,0,0,0,0,0,0,-1,1490,1079,0,0
273,-55,0,0,0,0,0,0,0,0,0,-1,1497,1079,0,0
280,-55,0,0,0,0,0,0,0,0,0,-1,1504,1079,0,0
287,-55,0,0,0,0,0,0,0,0,0,-1,1511,1079,0,0
294,-55,0,0,0,0,0,0,0,0,0,-1,1518,1079,0,0
301,-55,0,0,0,0,0,0,0,0,0,-1,1525,1079,0,0
308,-55,0,0,0,0,0,0,0,0,0,-1,1532,1079,0,0
315,-55,0,0,0,0,0,0,0,0,0,-1,1539,1079,0,0
322,-55,0,0,0,0,0,0,0,0,0,-1,1546,1079,0,0
329,-55,0,0,0,0,0,0,0,0,0,-1,1553,1079,0,0
336,-55,0,0,0,0,0,0,0,0,0,-1,1560,1079,0,0
343,-55,0,0,0,0,0,0,0,0,0,-1,1567,1079,0,0
350,-55,0,0,0,0,0,0,0,0,0,-1,1574,1079,0,0
357,-55,0,0,0,0,0,0,0,0,0,-1,1581,1079,0,0
364,-55,0,0,0,0,0,0,0,0,0,-1,1588,1079,0,0
371,-55,0,0,0,0,0,0,0,0,0,-1,1595,1079,0,0
378,-55,0,0,0,0,0,0,0,0,0,-1,1602,1079,0,0
385,-55,0,0,0,0,0,0,0,0,0,-1,1609,1079,0,0
392,-55,0,0,0,0,0,0,0,0,0,-1,1616,1079,0,0
399,-55,0,0,0,0,0,0,0,0,0,-1,1623,1079,0,0
406,-55,0,0,0,0,0,0,0,0,0,-1,1630,1079,0,0
413,-55,0,0,0,0,0,0,0,0,0,-1,1637,1079,0,0
420,-55,0,0,0,0,0,0,0,0,0,-1,1644,1079,0,0
427,-55,0,0,0,0,0,0,0,0,0,-1,1651,1079,0,0
434,-55,0,0,0,0,0,0,0,0,0,-1,1658,1079,0,0
441,-55,0,0,0,0,0,0,0,0,0,-1,1665,1079,0,0
448,-55,0,0,0,0,0,0,0,0,0,-1,1672,1079,0,0
455,-55,0,0,0,0,0,0,0,0,0,-1,1679,1079,0,0
462,-55,0,0,0,0,0,0,0,0,0,-1,1686,1079,0,0
469,-55,0,0,0,0,0,0,0,0,0,-1,1693,1079,0,0
476,-55,0,0,0,0,0,0,0,0,0,-1,1700,1079,0,0
483,-55,0,0,0,0,0,0,0,0,0,-1,1707,1079,0,0
490,-55,0,0,0,0,0,0,0,0,0,-1,1714,1079,0,0
497,-55,0,0,0,0,0,0,0,0,0,-1,1721,1079,0,0
504,-55,0,0,0,0,0,0,0,0,0,-1,1728,1079,0,0
511,-55,0,0,0,0,0,0,0,0,0,-1,1735,1079,0,0
518,-55,0,0,0,0,0,0,0,0,0,-1,1742,1079,0,0
525,-55,0,0,0,0,0,0,0,0,0,-1,1749,1079,0,0
532,-55,0,0,0,0,0,0,0,0,0,-1,1756,1079,0,0
539,-55,0,0,0,0,0,0,0,0,0,-1,1763,1079,0,0
546,-55,0,0,0,0,0,0,0,0,0,-1,1770,1079,0,0
553,-55,0,0,0,0,0,0,0,0,0,-1,1777,1079,0,0
560,-55,0,0,0,0,0,0,0,0,0,-1,1784,1079,0,0
567,-55,0,0,0,0,0,0,0,0,0,-1,1791,1079,0,0
574,-55,0,0,0,0,0,0,0,0,0,-1,1798,1079,0,0
581,-55,0,0,0,0,0,0,0,0,0,-1,1805,1079,0,0
588,-55,0,0,0,0,0,0,0,0,0,-1,1812,1079,0,0
595,-55,0,0,0,0,0,0,0,0,0,-1,1819,1079,0,0
602,-55,0,0,0,0,0,0,0,0,0,-1,1826,1079,0,0
609,-55,0,0,0,0,0,0,0,0,0,-1,1833,1079,0,0
616,-55,0,0,0,0,0,0,0,0,0,-1,1840,1079,0,0
623,-55,0,0,0,0,0,0,0,0,0,-1,1847,1079,0,0
630,-55,0,0,0,0,0,0,0,0,0,-1,1854,1079,0,0
637,-55,0,0,0,0,0,0,0,0,0,-1,1861,1079,0,0
644,-55,0,0,0,0,0,0,0,0,0,-1,1868,1079,0,0
651,-55,49.6039,2.56506,-0.00184593,-0.000377508,0.00106199,0.000179365,-0.0024028,1.08785,0.00166488,0.0363435,1875,1079,49.6039,-2.56506
658,-55,49.5679,2.76257,-0.000761403,-0.00036196,0.000785364,0.000248679,-0.00137204,0.909911,0.00100787,0.0353141,1882,1079,49.5679,-2.76263
665,-55,49.4359,2.62634,-0.000279418,-0.000355097,0.000736175,0.00041989,-0.0010544,0.759721,0.000877068,0.0396039,1889,1079,49.4359,-2.62633
672,-55,49.4014,2.53711,-4.70971e-05,-0.0003221,0.000816015,0.00064292,-0.00101212,0.701931,0.000963429,0.0392534,1896,1079,49.4014,-2.53706
679,-55,49.4961,2.74561,-0.000159473,-0.000291656,0.000961037,0.000737742,-0.00118887,0.751067,0.00112245,0.0380823,1903,1079,49.4961,-2.74557
686,-55,49.6366,2.67419,-0.000607018,-0.00048274,0.00122204,0.000678736,-0.00176849,0.810801,0.00145886,0.0419731,1910,1079,49.6366,-2.67424
693,-55,49.6542,2.65649,-0.000983894,-0.000719893,0.00150787,0.000661745,-0.00236553,0.829057,0.00183776,0.0407094,1917,1079,49.6542,-2.65644
700,-55,49.6243,2.68079,-0.00127472,-0.00082418,0.00179336,0.000758005,-0.00285691,0.847878,0.00220122,0.0335418,1924,1079,49.6243,-2.68081
707,-55,49.5667,2.64075,-0.0015278,-0.000785497,0.00198751,0.000865213,-0.00317851,0.877707,0.00245869,0.0300176,1931,1079,49.5667,-2.64069
714,-55,49.5243,2.75781,-0.00188044,-0.000677555,0.00227525,0.00107441,-0.0036324,0.914613,0.00284811,0.0492149,1938,1079,49.5243,-2.75776
721,-55,49.5968,2.94678,0,0,0,0,0,0,0,-1,1945,1079,49.5968,-2.94683
728,-55,48.325,6.56238,0,0,0,0,0,0,0,-1,1952,1079,48.3249,-6.56237
735,-55,48.2112,6.32983,-0.00397947,0.000853278,0.00274286,0.00209233,-0.00521852,1.1465,0.00434765,0.0215711,1959,1079,48.2112,-6.32983
742,-55,48.1931,6.1051,-0.00465998,0.00186631,0.00319697,0.00317139,-0.00596507,1.18322,0.00535651,0.0207433,1966,1079,48.1931,-6.10509
749,-55,48.2244,5.86877,-0.00527087,0.00300003,0.00334797,0.00418538,-0.00645622,1.23052,0.00619038,0.0133983,1973,1079,48.2244,-5.86874
756,-55,48.1503,5.66162,-0.00592737,0.00465679,0.00339546,0.00565242,-0.006923,1.28557,0.00727276,0.0108315,1980,1079,48.1503,-5.6616
763,-55,48.116,5.44153,-0.00671425,0.00680785,0.00326505,0.00755496,-0.00746135,1.34585,0.00866973,0.0141572,1987,1079,48.116,-5.44151
770,-55,48.11,5.19458,-0.00784761,0.00966935,0.00319374,0.0102335,-0.00841174,1.39597,0.0107819,0.0161702,1994,1079,48.11,-5.19461
777,-55,47.9983,5.00012,-0.00890485,0.0129981,0.00307627,0.013422,-0.00932871,1.43388,0.0132058,0.0136899,2001,1079,47.9982,-5.00014
784,-55,47.8401,4.79016,-0.00978076,0.0163853,0.00281786,0.0166853,-0.0100808,1.46473,0.0156094,0.0286845,2008,1079,47.84,-4.79016
791,-55,47.4658,4.66382,-0.0104762,0.0198299,0.00234099,0.0200097,-0.0106559,1.49416,0.0179773,0.0405193,2015,1079,47.4659,-4.66377
798,-55,47.1587,4.45618,-0.0102361,0.0233484,0.00144387,0.0234104,-0.0102981,1.52791,0.0199463,0.0472417,2022,1079,47.1587,-4.45621
805,-55,46.8435,4.24854,0,0,0,0,0,0,0,-1,2029,1079,46.8436,-4.24851
812,-55,46.5417,4.08521,0,0,0,0,0,0,0,-1,2036,1079,46.5418,-4.08525
-700,-62,-33.9554,0.00683594,0,0,0,0,0,0,0,-1,524,1086,-33.9554,-0.00681202
-693,-62,-34.5568,-0.295898,0,0,0,0,0,0,0,-1,531,1086,-34.5568,0.295935
-686,-62,-34.1714,0.743042,0,0,0,0,0,0,0,-1,538,1086,-34.1715,-0.742984
-679,-62,-34.4839,1.52942,0,0,0,0,0,0,0,-1,545,1086,-34.4839,-1.52939
-672,-62,-34.4356,1.57092,0.00466473,0.0135415,-0.00504061,0.0158193,0.00238694,-1.14637,0.00984745,0.0469171,552,1086,-34.4356,-1.57096
-665,-62,-34.5225,1.86523,0,0,0,0,0,0,0,-1,559,1086,-34.5225,-1.86524
-658,-62,-35.61,0.495117,0,0,0,0,0,0,0,-1,566,1086,-35.61,-0.495159
-651,-62,-35.498,1.23767,0.000593942,0.00983575,-0.00197,0.0102382,0.000191535,-1.3693,0.0067625,0.0428131,573,1086,-35.498,-1.23766
-644,-62,-35.4305,1.97168,0.000396776,0.00779169,-0.00170307,0.00816506,2.34065e-05,-1.35498,0.00543559,0.0161014,580,1086,-35.4305,-1.97173
-637,-62,-35.4697,2.31506,-0.00140353,0.00699191,-0.00134122,0.00720097,-0.0016126,-1.41617,0.00541876,0.0138304,587,1086,-35.4697,-2.31503
-630,-62,-35.5207,2.63855,-0.000940397,0.00488712,-0.000864164,0.00501256,-0.00106584,-1.42664,0.00374785,0.0161046,594,1086,-35.5207,-2.63858
-623,-62,-35.5843,2.97961,0.000208424,0.00253157,-0.00119659,0.00303765,-0.000297657,-1.17067,0.00213126,0.0182289,601,1086,-35.5843,-2.97956
-616,-62,-35.5837,3.30286,0.000525007,0.000959485,-0.0015956,0.00235257,-0.000868078,-0.853056,0.00192416,0.0174612,608,1086,-35.5837,-3.3028
-609,-62,-35.5504,3.6073,0.00114126,-3.6241e-05,-0.00173305,0.00238283,-0.00127782,-0.621655,0.00214533,0.0172743,615,1086,-35.5503,-3.60732
-602,-62,-35.4661,3.87708,0.00152405,-0.000709115,-0.00162596,0.0023799,-0.00156497,-0.484519,0.00229372,0.016007,622,1086,-35.4661,-3.87708
-595,-62,-35.3113,4.18726,0.00169785,-0.00120568,-0.00135064,0.00222898,-0.0017368,-0.374665,0.00229551,0.0357453,629,1086,-35.3114,-4.18724
-588,-62,-35.2312,4.51965,0,0,0,0,0,0,0,-1,636,1086,-35.2312,-4.51965
-581,-62,-36.8291,0.859863,0,0,0,0,0,0,0,-1,643,1086,-36.8291,-0.859813
-574,-62,-36.8536,0.874634,0.00204885,-0.00169703,-0.000435364,0.00209879,-0.00174697,-0.114197,0.00222344,0.0353214,650,1086,-36.8536,-0.874614
-567,-62,-37.1033,0.810059,0.00191358,-0.00149512,1.00555e-05,0.00191361,-0.00149515,0.0029499,0.00197299,0.0403554,657,1086,-37.1033,-0.810028
-560,-62,-37.2502,0.699951,0.00156693,-0.00107864,0.000500731,0.00165854,-0.00117024,0.180937,0.00164128,0.0422152,664,1086,-37.2502,-0.699973
-553,-62,-36.9019,0.770996,0.00104521,-0.000530631,0.00103019,0.00155425,-0.00103967,0.458936,0.00150739,0.0373624,671,1086,-36.9019,-0.771012
-546,-62,-36.9054,0.896851,0.000484823,-3.24643e-06,0.00152556,0.00178574,-0.00130417,0.706088,0.00179117,0.0320676,678,1086,-36.9054,-0.896876
-539,-62,-36.9171,1.16589,0.000290079,9.05918e-05,0.00149898,0.00169263,-0.00131196,0.752177,0.00173933,0.0385381,685,1086,-36.917,-1.16585
-532,-62,-36.8004,1.17932,-0.000110916,0.000214913,0.00154094,0.00160152,-0.00149753,0.838065,0.00178957,0.0391383,692,1086,-36.8004,-1.17938
-525,-62,0,0,0,0,0,0,0,0,0,-1,699,1086,0,0
-518,-62,0,0,0,0,0,0,0,0,0,-1,706,1086,0,0
-511,-62,0,0,0,0,0,0,0,0,0,-1,713,1086,0,0
-504,-62,0,0,0,0,0,0,0,0,0,-1,720,1086,0,0
-497,-62,0,0,0,0,0,0,0,0,0,-1,727,1086,0,0
-490,-62,0,0,0,0,0,0,0,0,0,-1,734,1086,0,0
-483,-62,0,0,0,0,0,0,0,0,0,-1,741,1086,0,0
-476,-62,0,0,0,0,0,0,0,0,0,-1,748,1086,0,0
-469,-62,0,0,0,0,0,0,0,0,0,-1,755,1086,0,0
-462,-62,0,0,0,0,0,0,0,0,0,-1,762,1086,0,0
-455,-62,0,0,0,0,0,0,0,0,0,-1,769,1086,0,0
-448,-62,0,0,0,0,0,0,0,0,0,-1,776,1086,0,0
-441,-62,0,0,0,0,0,0,0,0,0,-1,783,1086,0,0
-434,-62,0,0,0,0,0,0,0,0,0,-1,790,1086,0,0
-427,-62,0,0,0,0,0,0,0,0,0,-1,797,1086,0,0
-420,-62,0,0,0,0,0,0,0,0,0,-1,804,1086,0,0
-413,-62,0,0,0,0,0,0,0,0,0,-1,811,1086,0,0
-406,-62,0,0,0,0,0,0,0,0,0,-1,818,1086,0,0
-399,-62,0,0,0,0,0,0,0,0,0,-1,825,1086,0,0
-392,-62,0,0,0,0,0,0,0,0,0,-1,832,1086,0,0
-385,-62,0,0,0,0,0,0,0,0,0,-1,839,1086,0,0
-378,-62,0,0,0,0,0,0,0,0,0,-1,846,1086,0,0
-371,-62,0,0,0,0,0,0,0,0,0,-1,853,1086,0,0
-364,-62,0,0,0,0,0,0,0,0,0,-1,860,1086,0,0
-357,-62,0,0,0,0,0,0,0,0,0,-1,867,1086,0,0
-350,-62,0,0,0,0,0,0,0,0,0,-1,874,1086,0,0
-343,-62,0,0,0,0,0,0,0,0,0,-1,881,1086,0,0
-336,-62,0,0,0,0,0,0,0,0,0,-1,888,1086,0,0
-329,-62,0,0,0,0,0,0,0,0,0,-1,895,1086,0,0
-322,-62,0,0,0,0,0,0,0,0,0,-1,902,1086,0,0
-315,-62,0,0,0,0,0,0,0,0,0,-1,909,1086,0,0
-308,-62,0,0,0,0,0,0,0,0,0,-1,916,1086,0,0
-301,-62,0,0,0,0,0,0,0,0,0,-1,923,1086,0,0
-294,-62,0,0,0,0,0,0,0,0,0,-1,930,1086,0,0
-287,-62,0,0,0,0,0,0,0,0,0,-1,937,1086,0,0
-280,-62,0,0,0,0,0,0,0,0,0,-1,944,1086,0,0
-273,-62,0,0,0,0,0,0,0,0,0,-1,951,1086,0,0
-266,-62,0,0,0,0,0,0,0,0,0,-1,958,1086,0,0
-259,-62,0,0,0,0,0,0,0,0,0,-1,965,1086,0,0
-252,-62,0,0,0,0,0,0,0,0,0,-1,972,1086,0,0
-245,-62,0,0,0,0,0,0,0,0,0,-1,979,1086,0,0
-238,-62,0,0,0,0,0,0,0,0,0,-1,986,1086,0,0
-231,-62,0,0,0,0,0,0,0,0,0,-1,993,1086,0,0
-224,-62,0,0,0,0,0,0,0,0,0,-1,1000,1086,0,0
-217,-62,0,0,0,0,0,0,0,0,0,-1,1007,1086,0,0
-210,-62,0,0,0,0,0,0,0,0,0,-1,1014,1086,0,0
-203,-62,0,0,0,0,0,0,0,0,0,-1,1021,1086,0,0
-196,-62,0,0,0,0,0,0,0,0,0,-1,1028,1086,0,0
-189,-62,0,0,0,0,0,0,0,0,0,-1,1035,1086,0,0
-182,-62,0,0,0,0,0,0,0,0,0,-1,1042,1086,0,0
-175,-62,0,0,0,0,0,0,0,0,0,-1,1049,1086,0,0
-168,-62,0,0,0,0,0,0,0,0,0,-1,1056,1086,0,0
-161,-62,0,0,0,0,0,0,0,0,0,-1,1063,1086,0,0
-154,-62,0,0,0,0,0,0,0,0,0,-1,1070,1086,0,0
-147,-62,0,0,0,0,0,0,0,0,0,-1,1077,1086,0,0
-140,-62,0,0,0,0,0,0,0,0,0,-1,1084,1086,0,0
-133,-62,0,0,0,0,0,0,0,0,0,-1,1091,1086,0,0
-126,-62,0,0,0,0,0,0,0,0,0,-1,1098,1086,0,0
-119,-62,0,0,0,0,0,0,0,0,0,-1,1105,1086,0,0
-112,-62,0,0,0,0,0,0,0,0,0,-1,1112,1086,0,0
-105,-62,0,0,0,0,0,0,0,0,0,-1,1119,1086,0,0
-98,-62,0,0,0,0,0,0,0,0,0,-1,1126,1086,0,0
-91,-62,0,0,0,0,0,0,0,0,0,-1,1133,1086,0,0
-84,-62,0,0,0,0,0,0,0,0,0,-1,1140,1086,0,0
-77,-62,0,0,0,0,0,0,0,0,0,-1,1147,1086,0,0
-70,-62,0,0,0,0,0,0,0,0,0,-1,1154,1086,0,0
-63,-62,0,0,0,0,0,0,0,0,0,-1,1161,1086,0,0
-56,-62,0,0,0,0,0,0,0,0,0,-1,1168,1086,0,0
-49,-62,0,0,0,0,0,0,0,0,0,-1,1175,1086,0,0
-42,-62,0,0,0,0,0,0,0,0,0,-1,1182,1086,0,0
-35,-62,0,0,0,0,0,0,0,0,0,-1,1189,1086,0,0
-28,-62,0,0,0,0,0,0,0,0,0,-1,1196,1086,0,0
-21,-62,0,0,0,0,0,0,0,0,0,-1,1203,1086,0,0
-14,-62,0,0,0,0,0,0,0,0,0,-1,1210,1086,0,0
-7,-62,0,0,0,0,0,0,0,0,0,-1,1217,1086,0,0
0,-62,0,0,0,0,0,0,0,0,0,-1,1224,1086,0,0
7,-62,0,0,0,0,0,0,0,0,0,-1,1231,1086,0,0
14,-62,0,0,0,0,0,0,0,0,0,-1,1238,1086,0,0
21,-62,0,0,0,0,0,0,0,0,0,-1,1245,1086,0,0
28,-62,0,0,0,0,0,0,0,0,0,-1,1252,1086,0,0
35,-62,0,0,0,0,0,0,0,0,0,-1,1259,1086,0,0
42,-62,0,0,0,0,0,0,0,0,0,-1,1266,1086,0,0
49,-62,0,0,0,0,0,0,0,0,0,-1,1273,1086,0,0
56,-62,0,0,0,0,0,0,0,0,0,-1,1280,1086,0,0
63,-62,0,0,0,0,0,0,0,0,0,-1,1287,1086,0,0
70,-62,0,0,0,0,0,0,0,0,0,-1,1294,1086,0,0
77,-62,0,0,0,0,0,0,0,0,0,-1,1301,1086,0,0
84,-62,0,0,0,0,0,0,0,0,0,-1,1308,1086,0,0
91,-62,0,0,0,0,0,0,0,0,0,-1,1315,1086,0,0
98,-62,0,0,0,0,0,0,0,0,0,-1,1322,1086,0,0
105,-62,0,0,0,0,0,0,0,0,0,-1,1329,1086,0,0
112,-62,0,0,0,0,0,0,0,0,0,-1,1336,1086,0,0
119,-62,0,0,0,0,0,0,0,0,0,-1,1343,1086,0,0
126,-62,0,0,0,0,0,0,0,0,0,-1,1350,1086,0,0
133,-62,0,0,0,0,0,0,0,0,0,-1,1357,1086,0,0
140,-62,0,0,0,0,0,0,0,0,0,-1,1364,1086,0,0
147,-62,0,0,0,0,0,0,0,0,0,-1,1371,1086,0,0
154,-62,0,0,0,0,0,0,0,0,0,-1,1378,1086,0,0
161,-62,0,0,0,0,0,0,0,0,0,-1,1385,1086,0,0
168,-62,0,0,0,0,0,0,0,0,0,-1,1392,1086,0,0
175,-62,0,0,0,0,0,0,0,0,0,-1,1399,1086,0,0
182,-62,0,0,0,0,0,0,0,0,0,-1,1406,1086,0,0
189,-62,0,0,0,0,0,0,0,0,0,-1,1413,1086,0,0
196,-62,0,0,0,0,0,0,0,0,0,-1,1420,1086,0,0
203,-62,0,0,0,0,0,0,0,0,0,-1,1427,1086,0,0
210,-62,0,0,0,0,0,0,0,0,0,-1,1434,1086,0,0
217,-62,0,0,0,0,0,0,0,0,0,-1,1441,1086,0,0
224,-62,0,0,0,0,0,0,0,0,0,-1,1448,1086,0,0
231,-62,0,0,0,0,0,0,0,0,0,-1,1455,1086,0,0
238,-62,0,0,0,0,0,0,0,0,0,-1,1462,1086,0,0
245,-62,0,0,0,0,0,0,0,0,0,-1,1469,1086,0,0
252,-62,0,0,0,0,0,0,0,0,0,-1,1476,1086,0,0
259,-62,0,0,0,0,0,0,0,0,0,-1,1483,1086,0,0
266,-62,0,0,0,0,0,0,0,0,0,-1,1490,1086,0,0
273,-62,0,0,0,0,0,0,0,0,0,-1,1497,1086,0,0
280,-62,0,0,0,0,0,0,0,0,0,-1,1504,1086,0,0
287,-62,0,0,0,0,0,0,0,0,0,-1,1511,1086,0,0
294,-62,0,0,0,0,0,0,0,0,0,-1,1518,1086,0,0
301,-62,0,0,0,0,0,0,0,0,0,-1,1525,1086,0,0
308,-62,0,0,0,0,0,0,0,0,0,-1,1532,1086,0,0
315,-62,0,0,0,0,0,0,0,0,0,-1,1539,1086,0,0
322,-62,0,0,0,0,0,0,0,0,0,-1,1546,1086,0,0
329,-62,0,0,0,0,0,0,0,0,0,-1,1553,1086,0,0
336,-62,0,0,0,0,0,0,0,0,0,-1,1560,1086,0,0
343,-62,0,0,0,0,0,0,0,0,0,-1,1567,1086,0,0
350,-62,0,0,0,0,0,0,0,0,0,-1,1574,1086,0,0
357,-62,0,0,0,0,0,0,0,0,0,-1,1581,1086,0,0
364,-62,0,0,0,0,0,0,0,0,0,-1,1588,1086,0,0
371,-62,0,0,0,0,0,0,0,0,0,-1,1595,1086,0,0
378,-62,0,0,0,0,0,0,0,0,0,-1,1602,1086,0,0
385,-62,0,0,0,0,0,0,0,0,0,-1,1609,1086,0,0
392,-62,0,0,0,0,0,0,0,0,0,-1,1616,1086,0,0
399,-62,0,0,0,0,0,0,0,0,0,-1,1623,1086,0,0
406,-62,0,0,0,0,0,0,0,0,0,-1,1630,1086,0,0
413,-62,0,0,0,0,0,0,0,0,0,-1,1637,1086,0,0
420,-62,0,0,0,0,0,0,0,0,0,-1,1644,1086,0,0
427,-62,0,0,0,0,0,0,0,0,0,-1,1651,1086,0,0
434,-62,0,0,0,0,0,0,0,0,0,-1,1658,1086,0,0
441,-62,0,0,0,0,0,0,0,0,0,-1,1665,1086,0,0
448,-62,0,0,0,0,0,0,0,0,0,-1,1672,1086,0,0
455,-62,0,0,0,0,0,0,0,0,0,-1,1679,1086,0,0
462,-62,0,0,0,0,0,0,0,0,0,-1,1686,1086,0,0
469,-62,0,0,0,0,0,0,0,0,0,-1,1693,1086,0,0
476,-62,0,0,0,0,0,0,0,0,0,-1,1700,1086,0,0
483,-62,0,0,0,0,0,0,0,0,0,-1,1707,1086,0,0
490,-62,0,0,0,0,0,0,0,0,0,-1,1714,1086,0,0
497,-62,0,0,0,0,0,0,0,0,0,-1,1721,1086,0,0
504,-62,0,0,0,0,0,0,0,0,0,-1,1728,1086,0,0
511,-62,0,0,0,0,0,0,0,0,0,-1,1735,1086,0,0
518,-62,0,0,0,0,0,0,0,0,0,-1,1742,1086,0,0
525,-62,0,0,0,0,0,0,0,0,0,-1,1749,1086,0,0
532,-62,0,0,0,0,0,0,0,0,0,-1,1756,1086,0,0
539,-62,0,0,0,0,0,0,0,0,0,-1,1763,1086,0,0
546,-62,0,0,0,0,0,0,0,0,0,-1,1770,1086,0,0
553,-62,0,0,0,0,0,0,0,0,0,-1,1777,1086,0,0
560,-62,0,0,0,0,0,0,0,0,0,-1,1784,1086,0,0
567,-62,0,0,0,0,0,0,0,0,0,-1,1791,1086,0,0
574,-62,0,0,0,0,0,0,0,0,0,-1,1798,1086,0,0
581,-62,0,0,0,0,0,0,0,0,0,-1,1805,1086,0,0
588,-62,0,0,0,0,0,0,0,0,0,-1,1812,1086,0,0
595,-62,0,0,0,0,0,0,0,0,0,-1,1819,1086,0,0
602,-62,0,0,0,0,0,0,0,0,0,-1,1826,1086,0,0
609,-62,0,0,0,0,0,0,0,0,0,-1,1833,1086,0,0
616,-62,0,0,0,0,0,0,0,0,0,-1,1840,1086,0,0
623,-62,0,0,0,0,0,0,0,0,0,-1,1847,1086,0,0
630,-62,0,0,0,0,0,0,0,0,0,-1,1854,1086,0,0
637,-62,0,0,0,0,0,0,0,0,0,-1,1861,1086,0,0
644,-62,0,0,0,0,0,0,0,0,0,-1,1868,1086,0,0
651,-62,49.6381,2.52612,-0.000770634,-0.00110864,0.000335395,-0.000564068,-0.0013152,0.552022,0.000761889,0.0410379,1875,1086,49.638,-2.52613
658,-62,49.7136,2.70093,-2.30357e-05,-0.00100658,0.000317837,7.07349e-05,-0.00110035,0.286889,0.000758244,0.0405428,1882,1086,49.7137,-2.7009
665,-62,49.5042,2.68433,0.000251039,-0.000931218,0.000428012,0.000389723,-0.0010699,0.313346,0.000872682,0.0404107,1889,1086,49.5042,-2.68434
672,-62,49.4738,2.66772,0.00033811,-0.000825564,0.000607347,0.000597346,-0.0010848,0.403423,0.000984686,0.039211,1896,1086,49.4738,-2.66771
679,-62,49.5391,2.8446,8.59061e-05,-0.000732989,0.000817394,0.000590669,-0.00123775,0.553207,0.00107745,0.0408757,1903,1086,49.539,-2.84464
686,-62,49.6704,2.61597,-0.000438436,-0.000847115,0.00111422,0.00049003,-0.00177558,0.69471,0.00137645,0.0434343,1910,1086,49.6704,-2.61593
693,-62,49.593,2.53369,-0.000860766,-0.0010015,0.00139947,0.000470107,-0.00233238,0.760278,0.00173301,0.0408157,1917,1086,49.593,-2.53373
700,-62,49.5951,2.62256,-0.00117933,-0.00103256,0.00167083,0.000566493,-0.00277838,0.807344,0.00206713,0.0330128,1924,1086,49.5951,-2.62254
707,-62,49.4982,2.64697,-0.00147177,-0.000942648,0.00189627,0.000707425,-0.00312184,0.854709,0.00235276,0.0277921,1931,1086,49.4982,-2.64696
714,-62,49.5339,2.70178,-0.00180522,-0.000813929,0.00219757,0.0009432,-0.00356235,0.896313,0.00274388,0.0415653,1938,1086,49.534,-2.70176
721,-62,49.6615,2.92114,0,0,0,0,0,0,0,-1,1945,1086,49.6615,-2.92114
728,-62,48.0084,6.67224,0,0,0,0,0,0,0,-1,1952,1086,48.0084,-6.67218
735,-62,47.9728,6.3501,-0.00387294,0.000655775,0.00266871,0.00189132,-0.00510849,1.1372,0.0041812,0.0250069,1959,1086,47.9727,-6.35004
742,-62,47.9326,6.14661,-0.0046439,0.00164078,0.00315815,0.00295357,-0.00595669,1.17684,0.00524083,0.0250024,1966,1086,47.9326,-6.14664
749,-62,47.9211,5.86694,-0.00529688,0.00274504,0.00335412,0.00396032,-0.00651216,1.22318,0.00610583,0.0193282,1973,1086,47.9211,-5.86691
756,-62,47.8472,5.67871,-0.00608258,0.0043372,0.00346128,0.00538218,-0.00712756,1.27759,0.0072459,0.0138757,1980,1086,47.8472,-5.67866
763,-62,47.8363,5.42017,-0.0071113,0.00646097,0.00343569,0.00728112,-0.00793145,1.33647,0.00878566,0.0157513,1987,1086,47.8364,-5.42016
770,-62,47.8251,5.15271,-0.00860014,0.0093071,0.00348735,0.00996227,-0.00925531,1.38509,0.0110978,0.0130293,1994,1086,47.8251,-5.15276
777,-62,47.6968,4.87622,-0.0101348,0.0126298,0.00352804,0.013164,-0.010669,1.42051,0.0137851,0.0143691,2001,1086,47.6967,-4.87628
784,-62,47.5503,4.58411,-0.0116161,0.0161094,0.00345904,0.0165345,-0.0120411,1.44853,0.016566,0.0264634,2008,1086,47.5504,-4.58405
791,-62,47.3391,4.33459,-0.0130804,0.01983,0.0032498,0.0201478,-0.0133982,1.4733,0.0194981,0.0414058,2015,1086,47.339,-4.33464
798,-62,47.0015,4.48328,-0.0137121,0.023886,0.00264046,0.0240705,-0.0138967,1.50102,0.0221811,0.045474,2022,1086,47.0015,-4.48327
805,-62,46.8167,3.99219,0,0,0,0,0,0,0,-1,2029,1086,46.8166,-3.99222
812,-62,46.2412,4.24866,0,0,0,0,0,0,0,-1,2036,1086,46.2412,-4.2486
-700,-69,-35.1503,-0.883301,0,0,0,0,0,0,0,-1,524,1093,-35.1503,0.883268
-693,-69,-34.9353,-0.323486,0.0323084,0.000296251,-0.0102153,0.0352904,-0.00268572,-0.284022,0.0244713,0.0485785,531,1093,-34.9353,0.323526
-686,-69,-34.6389,0.415649,0.0236766,0.00457251,-0.00747874,0.0262561,0.00199306,-0.332128,0.016879,0.0433976,538,1093,-34.6389,-0.415603
-679,-69,-34.5775,0.848877,0,0,0,0,0,0,0,-1,545,1093,-34.5775,-0.848833
-672,-69,-34.582,1.08105,0,0,0,0,0,0,0,-1,552,1093,-34.5821,-1.081
-665,-69,-35.0008,1.16565,0,0,0,0,0,0,0,-1,559,1093,-35.0008,-1.16564
-658,-69,-35.0759,1.34875,0.00713814,0.00747937,-0.00211198,0.00942762,0.00518989,-0.825703,0.00545228,0.0491101,566,1093,-35.0759,-1.34876
-651,-69,-35.084,1.57813,0.00493677,0.0067701,-0.00155806,0.00766115,0.00404572,-1.0513,0.00442549,0.0364831,573,1093,-35.084,-1.57813
-644,-69,-35.0847,1.95667,0.00368056,0.00542434,-0.00139497,0.00619749,0.00290742,-1.06471,0.00358039,0.011557,580,1093,-35.0847,-1.95661
-637,-69,-35.1182,2.31299,0.000638572,0.00541339,-0.00105528,0.00563622,0.000415744,-1.3627,0.00362685,0.0132729,587,1093,-35.1182,-2.31295
-630,-69,-35.1389,2.61865,0.000131492,0.00401474,-0.000808513,0.00417635,-3.01187e-05,-1.37351,0.00279433,0.0158707,594,1093,-35.1389,-2.6187
-623,-69,-35.1516,2.92639,0.000751017,0.00196067,-0.00121604,0.002714,-2.30956e-06,-1.01617,0.0018101,0.0170374,601,1093,-35.1515,-2.92641
-616,-69,-35.1527,3.23669,0.000890819,0.00056981,-0.00145846,0.00219758,-0.00073695,-0.730593,0.00176282,0.0192653,608,1093,-35.1527,-3.23666
-609,-69,-35.1475,3.56055,0.00151928,-0.000311145,-0.00144875,0.00231768,-0.00110955,-0.503688,0.00201928,0.0177014,615,1093,-35.1475,-3.56051
-602,-69,-35.1179,3.90662,0.00195819,-0.000908706,-0.0013368,0.0024848,-0.00143531,-0.375263,0.00229015,0.0181687,622,1093,-35.1179,-3.90659
-595,-69,-34.9908,4.17981,0.00214005,-0.00127411,-0.00107755,0.00245169,-0.00158575,-0.281531,0.00234882,0.0351014,629,1093,-34.9908,-4.17977
-588,-69,-34.9163,4.49585,0,0,0,0,0,0,0,-1,636,1093,-34.9162,-4.49587
-581,-69,-36.8793,0.953857,0,0,0,0,0,0,0,-1,643,1093,-36.8793,-0.953917
-574,-69,-36.8856,0.891846,0.00244209,-0.00157975,-0.000286261,0.00246237,-0.00160003,-0.0707015,0.00236297,0.0327358,650,1093,-36.8856,-0.891853
-567,-69,-37.0542,0.89563,0.00228382,-0.00136354,6.84509e-05,0.00228511,-0.00136483,0.0187584,0.0021295,0.0397046,657,1093,-37.0542,-0.895585
-560,-69,-36.9017,0.85498,0.0018759,-0.000939188,0.000436095,0.00194191,-0.0010052,0.150224,0.00172992,0.0422475,664,1093,-36.9018,-0.854921
-553,-69,-36.8274,0.944824,0.0011697,-0.000364933,0.000798747,0.00150998,-0.000705214,0.402733,0.00130677,0.038448,671,1093,-36.8274,-0.944805
-546,-69,-36.8383,0.959473,0.000344853,0.000249175,0.00110914,0.00140718,-0.000813154,0.763846,0.00129711,0.0345898,678,1093,-36.8383,-0.959527
-539,-69,-36.8371,1.02148,-8.37427e-05,0.000506697,0.000978514,0.00123356,-0.000810602,0.931907,0.00118859,0.0385325,685,1093,-36.8371,-1.02148
-532,-69,-36.7575,1.1676,-0.000691476,0.000726276,0.000930468,0.00118713,-0.00115233,1.11092,0.00135074,0.0404497,692,1093,-36.7575,-1.16763
-525,-69,0,0,0,0,0,0,0,0,0,-1,699,1093,0,0
-518,-69,0,0,0,0,0,0,0,0,0,-1,706,1093,0,0
-511,-69,0,0,0,0,0,0,0,0,0,-1,713,1093,0,0
-504,-69,0,0,0,0,0,0,0,0,0,-1,720,1093,0,0
-497,-69,0,0,0,0,0,0,0,0,0,-1,727,1093,0,0
-490,-69,0,0,0,0,0,0,0,0,0,-1,734,1093,0,0
-483,-69,0,0,0,0,0,0,0,0,0,-1,741,1093,0,0
-476,-69,0,0,0,0,0,0,0,0,0,-1,748,1093,0,0
-469,-69,0,0,0,0,0,0,0,0,0,-1,755,1093,0,0
-462,-69,0,0,0,0,0,0,0,0,0,-1,762,1093,0,0
-455,-69,0,0,0,0,0,0,0,0,0,-1,769,1093,0,0
-448,-69,0,0,0,0,0,0,0,0,0,-1,776,1093,0,0
-441,-69,0,0,0,0,0,0,0,0,0,-1,783,1093,0,0
-434,-69,0,0,0,0,0,0,0,0,0,-1,790,1093,0,0
-427,-69,0,0,0,0,0,0,0,0,0,-1,797,1093,0,0
-420,-69,0,0,0,0,0,0,0,0,0,-1,804,1093,0,0
-413,-69,0,0,0,0,0,0,0,0,0,-1,811,1093,0,0
-406,-69,0,0,0,0,0,0,0,0,0,-1,818,1093,0,0
-399,-69,0,0,0,0,0,0,0,0,0,-1,825,1093,0,0
-392,-69,0,0,0,0,0,0,0,0,0,-1,832,1093,0,0
-385,-69,0,0,0,0,0,0,0,0,0,-1,839,1093,0,0
-378,-69,0,0,0,0,0,0,0,0,0,-1,846,1093,0,0
-371,-69,0,0,0,0,0,0,0,0,0,-1,853,1093,0,0
-364,-69,0,0,0,0,0,0,0,0,0,-1,860,1093,0,0
-357,-69,0,0,0,0,0,0,0,0,0,-1,867,1093,0,0
-350,-69,0,0,0,0,0,0,0,0,0,-1,874,1093,0,0
-343,-69,0,0,0,0,0,0,0,0,0,-1,881,1093,0,0
-336,-69,0,0,0,0,0,0,0,0,0,-1,888,1093,0,0
-329,-69,0,0,0,0,0,0,0,0,0,-1,895,1093,0,0
-322,-69,0,0,0,0,0,0,0,0,0,-1,902,1093,0,0
-315,-69,0,0,0,0,0,0,0,0,0,-1,909,1093,0,0
-308,-69,0,0,0,0,0,0,0,0,0,-1,916,1093,0,0
-301,-69,0,0,0,0,0,0,0,0,0,-1,923,1093,0,0
-294,-69,0,0,0,0,0,0,0,0,0,-1,930,1093,0,0
-287,-69,0,0,0,0,0,0,0,0,0,-1,937,1093,0,0
-280,-69,0,0,0,0,0,0,0,0,0,-1,944,1093,0,0
-273,-69,0,0,0,0,0,0,0,0,0,-1,951,1093,0,0
-266,-69,0,0,0,0,0,0,0,0,0,-1,958,1093,0,0
-259,-69,0,0,0,0,0,0,0,0,0,-1,965,1093,0,0
-252,-69,0,0,0,0,0,0,0,0,0,-1,972,1093,0,0
-245,-69,0,0,0,0,0,0,0,0,0,-1,979,1093,0,0
-238,-69,0,0,0,0,0,0,0,0,0,-1,986,1093,0,0
-231,-69,0,0,0,0,0,0,0,0,0,-1,993,1093,0,0
-224,-69,0,0,0,0,0,0,0,0,0,-1,1000,1093,0,0
-217,-69,0,0,0,0,0,0,0,0,0,-1,1007,1093,0,0
-210,-69,0,0,0,0,0,0,0,0,0,-1,1014,1093,0,0
-203,-69,0,0,0,0,0,0,0,0,0,-1,1021,1093,0,0
-196,-69,0,0,0,0,0,0,0,0,0,-1,1028,1093,0,0
-189,-69,0,0,0,0,0,0,0,0,0,-1,1035,1093,0,0
-182,-69,0,0,0,0,0,0,0,0,0,-1,1042,1093,0,0
-175,-69,0,0,0,0,0,0,0,0,0,-1,1049,1093,0,0
-168,-69,0,0,0,0,0,0,0,0,0,-1,1056,1093,0,0
-161,-69,0,0,0,0,0,0,0,0,0,-1,1063,1093,0,0
-154,-69,0,0,0,0,0,0,0,0,0,-1,1070,1093,0,0
-147,-69,0,0,0,0,0,0,0,0,0,-1,1077,1093,0,0
-140,-69,0,0,0,0,0,0,0,0,0,-1,1084,1093,0,0
-133,-69,0,0,0,0,0,0,0,0,0,-1,1091,1093,0,0
-126,-69,0,0,0,0,0,0,0,0,0,-1,1098,1093,0,0
-119,-69,0,0,0,0,0,0,0,0,0,-1,1105,1093,0,0
-112,-69,0,0,0,0,0,0,0,0,0,-1,1112,1093,0,0
-105,-69,0,0,0,0,0,0,0,0,0,-1,1119,1093,0,0
-98,-69,0,0,0,0,0,0,0,0,0,-1,1126,1093,0,0
-91,-69,0,0,0,0,0,0,0,0,0,-1,1133,1093,0,0
-84,-69,0,0,0,0,0,0,0,0,0,-1,1140,1093,0,0
-77,-69,0,0,0,0,0,0,0,0,0,-1,1147,1093,0,0
-70,-69,0,0,0,0,0,0,0,0,0,-1,1154,1093,0,0
-63,-69,0,0,0,0,0,0,0,0,0,-1,1161,1093,0,0
-56,-69,0,0,0,0,0,0,0,0,0,-1,1168,1093,0,0
-49,-69,0,0,0,0,0,0,0,0,0,-1,1175,1093,0,0
-42,-69,0,0,0,0,0,0,0,0,0,-1,1182,1093,0,0
-35,-69,0,0,0,0,0,0,0,0,0,-1,1189,1093,0,0
-28,-69,0,0,0,0,0,0,0,0,0,-1,1196,1093,0,0
-21,-69,0,0,0,0,0,0,0,0,0,-1,1203,1093,0,0
-14,-69,0,0,0,0,0,0,0,0,0,-1,1210,1093,0,0
-7,-69,0,0,0,0,0,0,0,0,0,-1,1217,1093,0,0
0,-69,0,0,0,0,0,0,0,0,0,-1,1224,1093,0,0
7,-69,0,0,0,0,0,0,0,0,0,-1,1231,1093,0,0
14,-69,0,0,0,0,0,0,0,0,0,-1,1238,1093,0,0
21,-69,0,0,0,0,0,0,0,0,0,-1,1245,1093,0,0
28,-69,0,0,0,0,0,0,0,0,0,-1,1252,1093,0,0
35,-69,0,0,0,0,0,0,0,0,0,-1,1259,1093,0,0
42,-69,0,0,0,0,0,0,0,0,0,-1,1266,1093,0,0
49,-69,0,0,0,0,0,0,0,0,0,-1,1273,1093,0,0
56,-69,0,0,0,0,0,0,0,0,0,-1,1280,1093,0,0
63,-69,0,0,0,0,0,0,0,0,0,-1,1287,1093,0,0
70,-69,0,0,0,0,0,0,0,0,0,-1,1294,1093,0,0
77,-69,0,0,0,0,0,0,0,0,0,-1,1301,1093,0,0
84,-69,0,0,0,0,0,0,0,0,0,-1,1308,1093,0,0
91,-69,0,0,0,0,0,0,0,0,0,-1,1315,1093,0,0
98,-69,0,0,0,0,0,0,0,0,0,-1,1322,1093,0,0
105,-69,0,0,0,0,0,0,0,0,0,-1,1329,1093,0,0
112,-69,0,0,0,0,0,0,0,0,0,-1,1336,1093,0,0
119,-69,0,0,0,0,0,0,0,0,0,-1,1343,1093,0,0
126,-69,0,0,0,0,0,0,0,0,0,-1,1350,1093,0,0
133,-69,0,0,0,0,0,0,0,0,0,-1,1357,1093,0,0
140,-69,0,0,0,0,0,0,0,0,0,-1,1364,1093,0,0
147,-69,0,0,0,0,0,0,0,0,0,-1,1371,1093,0,0
154,-69,0,0,0,0,0,0,0,0,0,-1,1378,1093,0,0
161,-69,0,0,0,0,0,0,0,0,0,-1,1385,1093,0,0
168,-69,0,0,0,0,0,0,0,0,0,-1,1392,1093,0,0
175,-69,0,0,0,0,0,0,0,0,0,-1,1399,1093,0,0
182,-69,0,0,0,0,0,0,0,0,0,-1,1406,1093,0,0
189,-69,0,0,0,0,0,0,0,0,0,-1,1413,1093,0,0
196,-69,0,0,0,0,0,0,0,0,0,-1,1420,1093,0,0
203,-69,0,0,0,0,0,0,0,0,0,-1,1427,1093,0,0
210,-69,0,0,0,0,0,0,0,0,0,-1,1434,1093,0,0
217,-69,0,0,0,0,0,0,0,0,0,-1,1441,1093,0,0
224,-69,0,0,0,0,0,0,0,0,0,-1,1448,1093,0,0
231,-69,0,0,0,0,0,0,0,0,0,-1,1455,1093,0,0
238,-69,0,0,0,0,0,0,0,0,0,-1,1462,1093,0,0
245,-69,0,0,0,0,0,0,0,0,0,-1,1469,1093,0,0
252,-69,0,0,0,0,0,0,0,0,0,-1,1476,1093,0,0
259,-69,0,0,0,0,0,0,0,0,0,-1,1483,1093,0,0
266,-69,0,0,0,0,0,0,0,0,0,-1,1490,1093,0,0
273,-69,0,0,0,0,0,0,0,0,0,-1,1497,1093,0,0
280,-69,0,0,0,0,0,0,0,0,0,-1,1504,1093,0,0
287,-69,0,0,0,0,0,0,0,0,0,-1,1511,1093,0,0
294,-69,0,0,0,0,0,0,0,0,0,-1,1518,1093,0,0
301,-69,0,0,0,0,0,0,0,0,0,-1,1525,1093,0,0
308,-69,0,0,0,0,0,0,0,0,0,-1,1532,1093,0,0
315,-69,0,0,0,0,0,0,0,0,0,-1,1539,1093,0,0
322,-69,0,0,0,0,0,0,0,0,0,-1,1546,1093,0,0
329,-69,0,0,0,0,0,0,0,0,0,-1,1553,1093,0,0
336,-69,0,0,0,0,0,0,0,0,0,-1,1560,1093,0,0
343,-69,0,0,0,0,0,0,0,0,0,-1,1567,1093,0,0
350,-69,0,0,0,0,0,0,0,0,0,-1,1574,1093,0,0
357,-69,0,0,0,0,0,0,0,0,0,-1,1581,1093,0,0
364,-69,0,0,0,0,0,0,0,0,0,-1,1588,1093,0,0
371,-69,0,0,0,0,0,0,0,0,0,-1,1595,1093,0,0
378,-69,0,0,0,0,0,0,0,0,0,-1,1602,1093,0,0
385,-69,0,0,0,0,0,0,0,0,0,-1,1609,1093,0,0
392,-69,0,0,0,0,0,0,0,0,0,-1,1616,1093,0,0
399,-69,0,0,0,0,0,0,0,0,0,-1,1623,1093,0,0
406,-69,0,0,0,0,0,0,0,0,0,-1,1630,1093,0,0
413,-69,0,0,0,0,0,0,0,0,0,-1,1637,1093,0,0
420,-69,0,0,0,0,0,0,0,0,0,-1,1644,1093,0,0
427,-69,0,0,0,0,0,0,0,0,0,-1,1651,1093,0,0
434,-69,0,0,0,0,0,0,0,0,0,-1,1658,1093,0,0
441,-69,0,0,0,0,0,0,0,0,0,-1,1665,1093,0,0
448,-69,0,0,0,0,0,0,0,0,0,-1,1672,1093,0,0
455,-69,0,0,0,0,0,0,0,0,0,-1,1679,1093,0,0
462,-69,0,0,0,0,0,0,0,0,0,-1,1686,1093,0,0
469,-69,0,0,0,0,0,0,0,0,0,-1,1693,1093,0,0
476,-69,0,0,0,0,0,0,0,0,0,-1,1700,1093,0,0
483,-69,0,0,0,0,0,0,0,0,0,-1,1707,1093,0,0
490,-69,0,0,0,0,0,0,0,0,0,-1,1714,1093,0,0
497,-69,0,0,0,0,0,0,0,0,0,-1,1721,1093,0,0
504,-69,0,0,0,0,0,0,0,0,0,-1,1728,1093,0,0
511,-69,0,0,0,0,0,0,0,0,0,-1,1735,1093,0,0
518,-69,0,0,0,0,0,0,0,0,0,-1,1742,1093,0,0
525,-69,0,0,0,0,0,0,0,0,0,-1,1749,1093,0,0
532,-69,0,0,0,0,0,0,0,0,0,-1,1756,1093,0,0
539,-69,0,0,0,0,0,0,0,0,0,-1,1763,1093,0,0
546,-69,0,0,0,0,0,0,0,0,0,-1,1770,1093,0,0
553,-69,0,0,0,0,0,0,0,0,0,-1,1777,1093,0,0
560,-69,0,0,0,0,0,0,0,0,0,-1,1784,1093,0,0
567,-69,0,0,0,0,0,0,0,0,0,-1,1791,1093,0,0
574,-69,0,0,0,0,0,0,0,0,0,-1,1798,1093,0,0
581,-69,0,0,0,0,0,0,0,0,0,-1,1805,1093,0,0
588,-69,0,0,0,0,0,0,0,0,0,-1,1812,1093,0,0
595,-69,0,0,0,0,0,0,0,0,0,-1,1819,1093,0,0
602,-69,0,0,0,0,0,0,0,0,0,-1,1826,1093,0,0
609,-69,0,0,0,0,0,0,0,0,0,-1,1833,1093,0,0
616,-69,0,0,0,0,0,0,0,0,0,-1,1840,1093,0,0
623,-69,0,0,0,0,0,0,0,0,0,-1,1847,1093,0,0
630,-69,0,0,0,0,0,0,0,0,0,-1,1854,1093,0,0
637,-69,0,0,0,0,0,0,0,0,0,-1,1861,1093,0,0
644,-69,0,0,0,0,0,0,0,0,0,-1,1868,1093,0,0
651,-69,49.5388,2.74268,0.000474737,-0.00156424,-0.000228107,0.000499945,-0.00158945,-0.110061,0.00125979,0.0434611,1875,1093,49.5389,-2.74262
658,-69,49.561,2.7782,0.000804233,-0.00140384,-4.06471e-05,0.000804981,-0.00140459,-0.0184001,0.00129126,0.0457603,1882,1093,49.561,-2.77819
665,-69,49.5215,2.4729,0.000810607,-0.0012817,0.000182888,0.000826473,-0.00129756,0.0865356,0.00123633,0.0436045,1889,1093,49.5214,-2.47286
672,-69,49.5042,2.73804,0.000706233,-0.00112221,0.000417627,0.000797105,-0.00121309,0.214251,0.00116884,0.0392187,1896,1093,49.5041,-2.73798
679,-69,49.5579,2.76514,0.000292254,-0.000996956,0.000647371,0.000561216,-0.00126592,0.39377,0.00108073,0.0399182,1903,1093,49.5579,-2.76513
686,-69,49.6671,2.60022,-0.000285813,-0.00107581,0.000941128,0.000339848,-0.00170147,0.586709,0.00126293,0.0404926,1910,1093,49.6671,-2.60025
693,-69,49.6027,2.52026,-0.000703462,-0.00119155,0.0012005,0.000277545,-0.00217255,0.685122,0.00154919,0.0378273,1917,1093,49.6027,-2.52032
700,-69,49.5481,2.4917,-0.00101412,-0.00120022,0.00144142,0.000337251,-0.00255159,0.753165,0.0018239,0.0290659,1924,1093,49.5482,-2.49171
707,-69,49.5045,2.61426,-0.00132186,-0.00108722,0.00167781,0.000477366,-0.00288644,0.820304,0.00210157,0.023963,1931,1093,49.5045,-2.61423
714,-69,49.5508,2.6488,-0.00163996,-0.000938452,0.00198168,0.000723274,-0.00330169,0.87299,0.00247766,0.0325624,1938,1093,49.5507,-2.64876
721,-69,49.6608,2.77966,0,0,0,0,0,0,0,-1,1945,1093,49.6608,-2.77972
728,-69,47.3798,6.81396,0,0,0,0,0,0,0,-1,1952,1093,47.3798,-6.81399
735,-69,47.652,6.47791,-0.00353527,0.000403851,0.00248916,0.00160842,-0.00473984,1.12009,0.0038109,0.0339427,1959,1093,47.652,-6.47796
742,-69,47.6217,6.26062,-0.00430305,0.00138988,0.00300036,0.00267917,-0.00559234,1.16494,0.00487329,0.0260479,1966,1093,47.6217,-6.26062
749,-69,47.47,5.93945,-0.00495677,0.00247679,0.00325687,0.00370184,-0.00618182,1.21102,0.0057659,0.0279211,1973,1093,47.4699,-5.93943
756,-69,47.5292,5.67651,-0.00580957,0.00404426,0.00344867,0.00513132,-0.00689662,1.26544,0.00696922,0.0162671,1980,1093,47.5291,-5.67646
763,-69,47.5159,5.39844,-0.00697763,0.00621795,0.00358496,0.007129,-0.00788869,1.32193,0.00867417,0.0167566,1987,1093,47.5159,-5.39841
770,-69,47.4608,5.1582,-0.0086566,0.00913267,0.00381589,0.00991665,-0.00944058,1.36816,0.011177,0.0174101,1994,1093,47.4608,-5.15817
777,-69,47.3484,4.88062,-0.0104411,0.0125416,0.00407469,0.0132427,-0.0111422,1.40042,0.014096,0.0228504,2001,1093,47.3485,-4.88064
784,-69,47.2732,4.56836,-0.0123131,0.0162388,0.00428042,0.0168667,-0.012941,1.42514,0.0172592,0.0343908,2008,1093,47.2732,-4.56835
791,-69,47.105,4.39795,-0.0142409,0.0204036,0.00448015,0.0209735,-0.0148109,1.44425,0.020762,0.0437421,2015,1093,47.1049,-4.398
798,-69,46.9709,4.17883,-0.0153404,0.0252373,0.00437622,0.0257039,-0.015807,1.46458,0.0241923,0.0460526,2022,1093,46.971,-4.17878
805,-69,46.8911,3.90723,0,0,0,0,0,0,0,-1,2029,1093,46.891,-3.90727
812,-69,48.4216,2.37268,0,0,0,0,0,0,0,-1,2036,1093,48.4216,-2.37266
-700,-76,0,0,0,0,0,0,0,0,0,-1,524,1100,0,0
-693,-76,-35.3706,-0.318604,0.048726,-0.0117549,-0.0140921,0.0518483,-0.0148771,-0.21804,0.0404471,0.0457906,531,1100,-35.3706,0.318599
-686,-76,-35.1351,0.141357,0.0378035,-0.00465281,-0.00951367,0.0398379,-0.00668717,-0.210662,0.0290454,0.0479926,538,1100,-35.1351,-0.14139
-679,-76,-34.819,0.576782,0.0297118,-0.00052452,-0.00666793,0.031117,-0.00192968,-0.207695,0.0214169,0.04946,545,1100,-34.819,-0.57673
-672,-76,-34.6266,0.896362,0.0232871,0.00195264,-0.00480298,0.0243185,0.000921224,-0.211533,0.0159142,0.0474226,552,1100,-34.6267,-0.896381
-665,-76,-34.7245,1.20337,0,0,0,0,0,0,0,-1,559,1100,-34.7245,-1.20342
-658,-76,-34.7129,1.46436,0.0133354,0.00410838,-0.00264868,0.0140417,0.00340212,-0.260584,0.0084583,0.048411,566,1100,-34.7129,-1.46438
-651,-76,-34.6373,1.67273,0.00953023,0.00427233,-0.00206065,0.0102416,0.00356097,-0.332402,0.00600373,0.0309981,573,1100,-34.6373,-1.67275
-644,-76,-34.6599,1.9491,0.0069937,0.00365868,-0.00178897,0.0077718,0.00288058,-0.410261,0.00453683,0.0113961,580,1100,-34.6599,-1.94912
-637,-76,-34.7335,2.26941,0.00262636,0.00437733,-0.00115922,0.00495452,0.00204917,-1.10882,0.00287469,0.0146693,587,1100,-34.7335,-2.26939
-630,-76,-34.7705,2.59119,0.00109001,0.00358021,-0.000950023,0.00390126,0.000768965,-1.24491,0.00238618,0.0159472,594,1100,-34.7705,-2.59121
-623,-76,-34.7846,2.91565,0.00116892,0.00169567,-0.00135262,0.00281032,5.42682e-05,-0.881551,0.00185572,0.0174955,601,1100,-34.7846,-2.91562
-616,-76,-34.822,3.27576,0.00114708,0.000393943,-0.00135564,0.00217747,-0.000636456,-0.649924,0.0017039,0.0171418,608,1100,-34.822,-3.27575
-609,-76,-34.8132,3.63,0.00181689,-0.000394225,-0.00114473,0.00230277,-0.000880104,-0.401403,0.00189783,0.018542,615,1100,-34.8132,-3.62998
-602,-76,-34.7552,3.94971,0.00230515,-0.000884761,-0.00100626,0.00259605,-0.00117566,-0.281415,0.00222847,0.0191636,622,1100,-34.7552,-3.94966
-595,-76,-34.704,4.20959,0.00249444,-0.00113196,-0.000764024,0.00264883,-0.00128636,-0.199395,0.00231693,0.0300552,629,1100,-34.704,-4.20955
-588,-76,-34.6785,4.48718,0,0,0,0,0,0,0,-1,636,1100,-34.6785,-4.48716
-581,-76,-36.8387,0.777222,0,0,0,0,0,0,0,-1,643,1100,-36.8388,-0.777171
-574,-76,-36.8387,0.716309,0.00277219,-0.00124611,-0.000108613,0.00277512,-0.00124904,-0.0270033,0.00237839,0.0356145,650,1100,-36.8387,-0.716307
-567,-76,-36.8145,0.954346,0.00261123,-0.00100509,0.000148101,0.00261729,-0.00101115,0.0408622,0.00216221,0.0403363,657,1100,-36.8144,-0.954306
-560,-76,-36.8588,1.05188,0.00218114,-0.000567032,0.000377294,0.002232,-0.00061789,0.133987,0.00173112,0.0410881,664,1100,-36.8587,-1.05184
-553,-76,-36.7002,0.960571,0.00134434,2.35941e-05,0.000536705,0.00153493,-0.000167,0.341228,0.00108325,0.0425467,671,1100,-36.7002,-0.960569
-546,-76,-36.816,0.937256,0.000313686,0.000685216,0.000579114,0.00110763,-0.000108728,0.940601,0.000777202,0.0401296,678,1100,-36.816,-0.937252
-539,-76,-36.9012,0.797607,-0.000260284,0.00104256,0.000189899,0.00106967,-0.000287399,1.42897,0.000825756,0.039541,685,1100,-36.9013,-0.797652
-532,-76,-36.8784,0.913574,-0.000932488,0.00133341,-0.000127462,0.00134056,-0.000939636,-1.51478,0.00132324,0.0413027,692,1100,-36.8783,-0.91359
-525,-76,0,0,0,0,0,0,0,0,0,-1,699,1100,0,0
-518,-76,0,0,0,0,0,0,0,0,0,-1,706,1100,0,0
-511,-76,0,0,0,0,0,0,0,0,0,-1,713,1100,0,0
-504,-76,0,0,0,0,0,0,0,0,0,-1,720,1100,0,0
-497,-76,0,0,0,0,0,0,0,0,0,-1,727,1100,0,0
-490,-76,0,0,0,0,0,0,0,0,0,-1,734,1100,0,0
-483,-76,0,0,0,0,0,0,0,0,0,-1,741,1100,0,0
-476,-76,0,0,0,0,0,0,0,0,0,-1,748,1100,0,0
-469,-76,0,0,0,0,0,0,0,0,0,-1,755,1100,0,0
-462,-76,0,0,0,0,0,0,0,0,0,-1,762,1100,0,0
-455,-76,0,0,0,0,0,0,0,0,0,-1,769,1100,0,0
-448,-76,0,0,0,0,0,0,0,0,0,-1,776,1100,0,0
-441,-76,0,0,0,0,0,0,0,0,0,-1,783,1100,0,0
-434,-76,0,0,0,0,0,0,0,0,0,-1,790,1100,0,0
-427,-76,0,0,0,0,0,0,0,0,0,-1,797,1100,0,0
-420,-76,0,0,0,0,0,0,0,0,0,-1,804,1100,0,0
-413,-76,0,0,0,0,0,0,0,0,0,-1,811,1100,0,0
-406,-76,0,0,0,0,0,0,0,0,0,-1,818,1100,0,0
-399,-76,0,0,0,0,0,0,0,0,0,-1,825,1100,0,0
-392,-76,0,0,0,0,0,0,0,0,0,-1,832,1100,0,0
-385,-76,0,0,0,0,0,0,0,0,0,-1,839,1100,0,0
-378,-76,0,0,0,0,0,0,0,0,0,-1,846,1100,0,0
-371,-76,0,0,0,0,0,0,0,0,0,-1,853,1100,0,0
-364,-76,0,0,0,0,0,0,0,0,0,-1,860,1100,0,0
-357,-76,0,0,0,0,0,0,0,0,0,-1,867,1100,0,0
-350,-76,0,0,0,0,0,0,0,0,0,-1,874,1100,0,0
-343,-76,0,0,0,0,0,0,0,0,0,-1,881,1100,0,0
-336,-76,0,0,0,0,0,0,0,0,0,-1,888,1100,0,0
-329,-76,0,0,0,0,0,0,0,0,0,-1,895,1100,0,0
-322,-76,0,0,0,0,0,0,0,0,0,-1,902,1100,0,0
-315,-76,0,0,0,0,0,0,0,0,0,-1,909,1100,0,0
-308,-76,0,0,0,0,0,0,0,0,0,-1,916,1100,0,0
-301,-76,0,0,0,0,0,0,0,0,0,-1,923,1100,0,0
-294,-76,0,0,0,0,0,0,0,0,0,-1,930,1100,0,0
-287,-76,0,0,0,0,0,0,0,0,0,-1,937,1100,0,0
-280,-76,0,0,0,0,0,0,0,0,0,-1,944,1100,0,0
-273,-76,0,0,0,0,0,0,0,0,0,-1,951,1100,0,0
-266,-76,0,0,0,0,0,0,0,0,0,-1,958,1100,0,0
-259,-76,0,0,0,0,0,0,0,0,0,-1,965,1100,0,0
-252,-76,0,0,0,0,0,0,0,0,0,-1,972,1100,0,0
-245,-76,0,0,0,0,0,0,0,0,0,-1,979,1100,0,0
-238,-76,0,0,0,0,0,0,0,0,0,-1,986,1100,0,0
-231,-76,0,0,0,0,0,0,0,0,0,-1,993,1100,0,0
-224,-76,0,0,0,0,0,0,0,0,0,-1,1000,1100,0,0
-217,-76,0,0,0,0,0,0,0,0,0,-1,1007,1100,0,0
-210,-76,0,0,0,0,0,0,0,0,0,-1,1014,1100,0,0
-203,-76,0,0,0,0,0,0,0,0,0,-1,1021,1100,0,0
-196,-76,0,0,0,0,0,0,0,0,0,-1,1028,1100,0,0
-189,-76,0,0,0,0,0,0,0,0,0,-1,1035,1100,0,0
-182,-76,0,0,0,0,0,0,0,0,0,-1,1042,1100,0,0
-175,-76,0,0,0,0,0,0,0,0,0,-1,1049,1100,0,0
-168,-76,0,0,0,0,0,0,0,0,0,-1,1056,1100,0,0
-161,-76,0,0,0,0,0,0,0,0,0,-1,1063,1100,0,0
-154,-76,0,0,0,0,0,0,0,0,0,-1,1070,1100,0,0
-147,-76,0,0,0,0,0,0,0,0,0,-1,1077,1100,0,0
-140,-76,0,0,0,0,0,0,0,0,0,-1,1084,1100,0,0
-133,-76,0,0,0,0,0,0,0,0,0,-1,1091,1100,0,0
-126,-76,0,0,0,0,0,0,0,0,0,-1,1098,1100,0,0
-119,-76,0,0,0,0,0,0,0,0,0,-1,1105,1100,0,0
-112,-76,0,0,0,0,0,0,0,0,0,-1,1112,1100,0,0
-105,-76,0,0,0,0,0,0,0,0,0,-1,1119,1100,0,0
-98,-76,0,0,0,0,0,0,0,0,0,-1,1126,1100,0,0
-91,-76,0,0,0,0,0,0,0,0,0,-1,1133,1100,0,0
-84,-76,0,0,0,0,0,0,0,0,0,-1,1140,1100,0,0
-77,-76,0,0,0,0,0,0,0,0,0,-1,1147,1100,0,0
-70,-76,0,0,0,0,0,0,0,0,0,-1,1154,1100,0,0
-63,-76,0,0,0,0,0,0,0,0,0,-1,1161,1100,0,0
-56,-76,0,0,0,0,0,0,0,0,0,-1,1168,1100,0,0
-49,-76,0,0,0,0,0,0,0,0,0,-1,1175,1100,0,0
-42,-76,0,0,0,0,0,0,0,0,0,-1,1182,1100,0,0
-35,-76,0,0,0,0,0,0,0,0,0,-1,1189,1100,0,0
-28,-76,0,0,0,0,0,0,0,0,0,-1,1196,1100,0,0
-21,-76,0,0,0,0,0,0,0,0,0,-1,1203,1100,0,0
-14,-76,0,0,0,0,0,0,0,0,0,-1,1210,1100,0,0
-7,-76,0,0,0,0,0,0,0,0,0,-1,1217,1100,0,0
0,-76,0,0,0,0,0,0,0,0,0,-1,1224,1100,0,0
7,-76,0,0,0,0,0,0,0,0,0,-1,1231,1100,0,0
14,-76,0,0,0,0,0,0,0,0,0,-1,1238,1100,0,0
21,-76,0,0,0,0,0,0,0,0,0,-1,1245,1100,0,0
28,-76,0,0,0,0,0,0,0,0,0,-1,1252,1100,0,0
35,-76,0,0,0,0,0,0,0,0,0,-1,1259,1100,0,0
42,-76,0,0,0,0,0,0,0,0,0,-1,1266,1100,0,0
49,-76,0,0,0,0,0,0,0,0,0,-1,1273,1100,0,0
56,-76,0,0,0,0,0,0,0,0,0,-1,1280,1100,0,0
63,-76,0,0,0,0,0,0,0,0,0,-1,1287,1100,0,0
70,-76,0,0,0,0,0,0,0,0,0,-1,1294,1100,0,0
77,-76,0,0,0,0,0,0,0,0,0,-1,1301,1100,0,0
84,-76,0,0,0,0,0,0,0,0,0,-1,1308,1100,0,0
91,-76,0,0,0,0,0,0,0,0,0,-1,1315,1100,0,0
98,-76,0,0,0,0,0,0,0,0,0,-1,1322,1100,0,0
105,-76,0,0,0,0,0,0,0,0,0,-1,1329,1100,0,0
112,-76,0,0,0,0,0,0,0,0,0,-1,1336,1100,0,0
119,-76,0,0,0,0,0,0,0,0,0,-1,1343,1100,0,0
126,-76,0,0,0,0,0,0,0,0,0,-1,1350,1100,0,0
133,-76,0,0,0,0,0,0,0,0,0,-1,1357,1100,0,0
140,-76,0,0,0,0,0,0,0,0,0,-1,1364,1100,0,0
147,-76,0,0,0,0,0,0,0,0,0,-1,1371,1100,0,0
154,-76,0,0,0,0,0,0,0,0,0,-1,1378,1100,0,0
161,-76,0,0,0,0,0,0,0,0,0,-1,1385,1100,0,0
168,-76,0,0,0,0,0,0,0,0,0,-1,1392,1100,0,0
175,-76,0,0,0,0,0,0,0,0,0,-1,1399,1100,0,0
182,-76,0,0,0,0,0,0,0,0,0,-1,1406,1100,0,0
189,-76,0,0,0,0,0,0,0,0,0,-1,1413,1100,0,0
196,-76,0,0,0,0,0,0,0,0,0,-1,1420,1100,0,0
203,-76,0,0,0,0,0,0,0,0,0,-1,1427,1100,0,0
210,-76,0,0,0,0,0,0,0,0,0,-1,1434,1100,0,0
217,-76,0,0,0,0,0,0,0,0,0,-1,1441,1100,0,0
224,-76,0,0,0,0,0,0,0,0,0,-1,1448,1100,0,0
231,-76,0,0,0,0,0,0,0,0,0,-1,1455,1100,0,0
238,-76,0,0,0,0,0,0,0,0,0,-1,1462,1100,0,0
245,-76,0,0,0,0,0,0,0,0,0,-1,1469,1100,0,0
252,-76,0,0,0,0,0,0,0,0,0,-1,1476,1100,0,0
259,-76,0,0,0,0,0,0,0,0,0,-1,1483,1100,0,0
266,-76,0,0,0,0,0,0,0,0,0,-1,1490,1100,0,0
273,-76,0,0,0,0,0,0,0,0,0,-1,1497,1100,0,0
280,-76,0,0,0,0,0,0,0,0,0,-1,1504,1100,0,0
287,-76,0,0,0,0,0,0,0,0,0,-1,1511,1100,0,0
294,-76,0,0,0,0,0,0,0,0,0,-1,1518,1100,0,0
301,-76,0,0,0,0,0,0,0,0,0,-1,1525,1100,0,0
308,-76,0,0,0,0,0,0,0,0,0,-1,1532,1100,0,0
315,-76,0,0,0,0,0,0,0,0,0,-1,1539,1100,0,0
322,-76,0,0,0,0,0,0,0,0,0,-1,1546,1100,0,0
329,-76,0,0,0,0,0,0,0,0,0,-1,1553,1100,0,0
336,-76,0,0,0,0,0,0,0,0,0,-1,1560,1100,0,0
343,-76,0,0,0,0,0,0,0,0,0,-1,1567,1100,0,0
350,-76,0,0,0,0,0,0,0,0,0,-1,1574,1100,0,0
357,-76,0,0,0,0,0,0,0,0,0,-1,1581,1100,0,0
364,-76,0,0,0,0,0,0,0,0,0,-1,1588,1100,0,0
371,-76,0,0,0,0,0,0,0,0,0,-1,1595,1100,0,0
378,-76,0,0,0,0,0,0,0,0,0,-1,1602,1100,0,0
385,-76,0,0,0,0,0,0,0,0,0,-1,1609,1100,0,0
392,-76,0,0,0,0,0,0,0,0,0,-1,1616,1100,0,0
399,-76,0,0,0,0,0,0,0,0,0,-1,1623,1100,0,0
406,-76,0,0,0,0,0,0,0,0,0,-1,1630,1100,0,0
413,-76,0,0,0,0,0,0,0,0,0,-1,1637,1100,0,0
420,-76,0,0,0,0,0,0,0,0,0,-1,1644,1100,0,0
427,-76,0,0,0,0,0,0,0,0,0,-1,1651,1100,0,0
434,-76,0,0,0,0,0,0,0,0,0,-1,1658,1100,0,0
441,-76,0,0,0,0,0,0,0,0,0,-1,1665,1100,0,0
448,-76,0,0,0,0,0,0,0,0,0,-1,1672,1100,0,0
455,-76,0,0,0,0,0,0,0,0,0,-1,1679,1100,0,0
462,-76,0,0,0,0,0,0,0,0,0,-1,1686,1100,0,0
469,-76,0,0,0,0,0,0,0,0,0,-1,1693,1100,0,0
476,-76,0,0,0,0,0,0,0,0,0,-1,1700,1100,0,0
483,-76,0,0,0,0,0,0,0,0,0,-1,1707,1100,0,0
490,-76,0,0,0,0,0,0,0,0,0,-1,1714,1100,0,0
497,-76,0,0,0,0,0,0,0,0,0,-1,1721,1100,0,0
504,-76,0,0,0,0,0,0,0,0,0,-1,1728,1100,0,0
511,-76,0,0,0,0,0,0,0,0,0,-1,1735,1100,0,0
518,-76,0,0,0,0,0,0,0,0,0,-1,1742,1100,0,0
525,-76,0,0,0,0,0,0,0,0,0,-1,1749,1100,0,0
532,-76,0,0,0,0,0,0,0,0,0,-1,1756,1100,0,0
539,-76,0,0,0,0,0,0,0,0,0,-1,1763,1100,0,0
546,-76,0,0,0,0,0,0,0,0,0,-1,1770,1100,0,0
553,-76,0,0,0,0,0,0,0,0,0,-1,1777,1100,0,0
560,-76,0,0,0,0,0,0,0,0,0,-1,1784,1100,0,0
567,-76,0,0,0,0,0,0,0,0,0,-1,1791,1100,0,0
574,-76,0,0,0,0,0,0,0,0,0,-1,1798,1100,0,0
581,-76,0,0,0,0,0,0,0,0,0,-1,1805,1100,0,0
588,-76,0,0,0,0,0,0,0,0,0,-1,1812,1100,0,0
595,-76,0,0,0,0,0,0,0,0,0,-1,1819,1100,0,0
602,-76,0,0,0,0,0,0,0,0,0,-1,1826,1100,0,0
609,-76,0,0,0,0,0,0,0,0,0,-1,1833,1100,0,0
616,-76,0,0,0,0,0,0,0,0,0,-1,1840,1100,0,0
623,-76,0,0,0,0,0,0,0,0,0,-1,1847,1100,0,0
630,-76,0,0,0,0,0,0,0,0,0,-1,1854,1100,0,0
637,-76,0,0,0,0,0,0,0,0,0,-1,1861,1100,0,0
644,-76,0,0,0,0,0,0,0,0,0,-1,1868,1100,0,0
651,-76,49.543,2.78076,0.00109613,-0.00159603,-0.000625847,0.00123451,-0.00173441,-0.217604,0.00172219,0.0404637,1875,1100,49.543,-2.7808
658,-76,49.4854,2.71362,0.00120088,-0.00142534,-0.000279514,0.0012303,-0.00145476,-0.104867,0.00155203,0.0453732,1882,1100,49.4853,-2.71358
665,-76,49.411,2.31848,0.00107771,-0.00129758,2.6778e-05,0.00107801,-0.00129789,0.0112717,0.00137368,0.0414788,1889,1100,49.411,-2.3185
672,-76,49.4408,2.6908,0.000884609,-0.00114109,0.000297246,0.000927325,-0.00118381,0.14273,0.00122186,0.0374188,1896,1100,49.4408,-2.69078
679,-76,49.5581,2.82336,0.0004013,-0.00103978,0.000528378,0.00057427,-0.00121275,0.316366,0.00105346,0.0371419,1903,1100,49.5581,-2.82339
686,-76,49.7194,2.7699,-0.000145488,-0.00112936,0.000794194,0.000296785,-0.00157163,0.508112,0.00115941,0.0350746,1910,1100,49.7193,-2.76991
693,-76,49.6166,2.70911,-0.000502892,-0.00123577,0.00101196,0.000206928,-0.00194559,0.611687,0.00137125,0.0367025,1917,1100,49.6166,-2.70906
700,-76,49.522,2.56262,-0.000765983,-0.0012419,0.00120597,0.000225278,-0.00223316,0.687991,0.00156926,0.0314933,1924,1100,49.5219,-2.56259
707,-76,49.4879,2.63672,-0.0010636,-0.00112505,0.00144063,0.000346631,-0.00253528,0.774736,0.00181679,0.0246589,1931,1100,49.4879,-2.6367
714,-76,49.5388,2.70569,0,0,0,0,0,0,0,-1,1938,1100,49.5388,-2.70567
721,-76,45.1713,3.04919,0,0,0,0,0,0,0,-1,1945,1100,45.1713,-3.04915
728,-76,47.5599,6.7334,0,0,0,0,0,0,0,-1,1952,1100,47.5599,-6.73343
735,-76,47.0161,6.6095,-0.00302609,0.000218605,0.00226889,0.0013855,-0.00419299,1.09577,0.00335394,0.0399027,1959,1100,47.0161,-6.60953
742,-76,47.2454,6.30469,-0.00374305,0.00121176,0.00279936,0.00247253,-0.00500382,1.14763,0.00439817,0.0267215,1966,1100,47.2453,-6.30463
749,-76,47.1444,5.95679,-0.00437689,0.00228448,0.00313615,0.00352861,-0.00562102,1.19313,0.00532839,0.0261824,1973,1100,47.1444,-5.95676
756,-76,47.1941,5.68384,-0.00527811,0.00383049,0.00344563,0.00498706,-0.00643468,1.24695,0.00661198,0.0161054,1980,1100,47.194,-5.68381
763,-76,47.1799,5.37036,-0.00657578,0.00603778,0.00378396,0.00708585,-0.00762385,1.30059,0.00849454,0.0161721,1987,1100,47.1799,-5.37036
770,-76,47.1044,5.10864,-0.00840233,0.00898731,0.00424851,0.00996977,-0.00938479,1.34354,0.0111761,0.0174949,1994,1100,47.1044,-5.10864
777,-76,47.0176,4.91772,-0.0104226,0.0124205,0.00478146,0.013381,-0.0113831,1.37256,0.0143131,0.0222959,2001,1100,47.0175,-4.91779
784,-76,47.0674,4.63745,-0.0127835,0.0162637,0.00532508,0.0172091,-0.013729,1.39508,0.0178998,0.0348684,2008,1100,47.0673,-4.6374
791,-76,46.8284,4.71362,-0.0153653,0.0207551,0.0059998,0.0217256,-0.0163358,1.41043,0.0220481,0.0427642,2015,1100,46.8283,-4.71359
798,-76,46.822,4.6051,0,0,0,0,0,0,0,-1,2022,1100,46.822,-4.60507
805,-76,46.9375,2.57568,0,0,0,0,0,0,0,-1,2029,1100,46.9374,-2.57563
812,-76,47.8767,2.69763,0,0,0,0,0,0,0,-1,2036,1100,47.8768,-2.69766
-700,-83,0,0,0,0,0,0,0,0,0,-1,524,1107,0,0
-693,-83,-35.1378,-0.36377,0.0632583,-0.0238695,-0.0200749,0.0676612,-0.0282724,-0.215906,0.0569222,0.0469787,531,1107,-35.1378,0.363746
-686,-83,-35.1243,0.0144043,0.0497009,-0.0136234,-0.0136833,0.0525311,-0.0164536,-0.203962,0.0416043,0.0488361,538,1107,-35.1243,-0.0144379
-679,-83,-35.0106,0.277954,0.0393021,-0.00719614,-0.00977757,0.0412744,-0.00916849,-0.199051,0.0310273,0.0473592,545,1107,-35.0106,-0.277979
-672,-83,-34.8037,0.716919,0.0308538,-0.00295504,-0.0072475,0.0323419,-0.00444316,-0.202515,0.0231847,0.0430393,552,1107,-34.8037,-0.716966
-665,-83,-34.6918,1.11462,0.0237029,-0.000148372,-0.00551489,0.0249163,-0.00136179,-0.216576,0.0170829,0.0429904,559,1107,-34.6919,-1.11465
-658,-83,-34.6481,1.39954,0.0175897,0.00163996,-0.0042829,0.018667,0.000562666,-0.246423,0.0122614,0.0427329,566,1107,-34.6481,-1.39957
-651,-83,-34.3638,1.55627,0.0125629,0.00260993,-0.00338643,0.0136059,0.00156701,-0.298754,0.00859598,0.0324374,573,1107,-34.3638,-1.55629
-644,-83,-34.2853,1.84839,0.00903878,0.00265508,-0.00278872,0.0100854,0.00160843,-0.359047,0.00625677,0.0161535,580,1107,-34.2853,-1.84836
-637,-83,-34.3328,2.24524,0.00387512,0.00384038,-0.00169578,0.00555362,0.00216188,-0.780276,0.00323249,0.0119882,587,1107,-34.3328,-2.24521
-630,-83,-34.3912,2.62854,0.00170372,0.00349709,-0.00135758,0.00422738,0.000973425,-1.07726,0.00255632,0.0168851,594,1107,-34.3912,-2.62849
-623,-83,-34.4276,2.93506,0.00137718,0.00172169,-0.00158467,0.00314344,-4.45661e-05,-0.839536,0.00211064,0.0171613,601,1107,-34.4276,-2.93503
-616,-83,-34.4653,3.27612,0.00131722,0.000426901,-0.00128884,0.00223561,-0.000491496,-0.619116,0.0016784,0.0163678,608,1107,-34.4653,-3.27618
-609,-83,-34.4422,3.6283,0.00201671,-0.000350822,-0.000885979,0.00231154,-0.000645657,-0.321251,0.00179537,0.018959,615,1107,-34.4422,-3.62835
-602,-83,-34.4309,4.01135,0.002551,-0.000786637,-0.000725572,0.00270191,-0.000937547,-0.205063,0.00218199,0.0190235,622,1107,-34.4309,-4.0113
-595,-83,-34.3538,4.32678,0.0027327,-0.00100648,-0.000485806,0.00279479,-0.00106857,-0.127112,0.00230353,0.0216428,629,1107,-34.3538,-4.32674
-588,-83,-34.3448,4.57471,0,0,0,0,0,0,0,-1,636,1107,-34.3448,-4.57472
-581,-83,-36.8436,0.787231,0,0,0,0,0,0,0,-1,643,1107,-36.8436,-0.787224
-574,-83,-36.8116,0.70166,0.0029938,-0.0012083,2.53874e-05,0.00299395,-0.00120845,0.00604131,0.00249819,0.0376918,650,1107,-36.8116,-0.701631
-567,-83,-36.7263,1.08154,0.00285456,-0.00104402,0.000187371,0.00286354,-0.001053,0.0479141,0.00234037,0.0418628,657,1107,-36.7263,-1.08156
-560,-83,-36.7502,1.12341,0.00243147,-0.000717436,0.000286622,0.00245734,-0.000743313,0.0900367,0.00193421,0.0395104,664,1107,-36.7502,-1.12336
-553,-83,-36.7008,1.01025,0.00146402,-0.00026818,0.000244489,0.00149786,-0.000302027,0.137564,0.001113,0.0414835,671,1107,-36.7008,-1.01027
-546,-83,-36.762,0.914063,0.000181114,0.000244931,8.8883e-06,0.000246146,0.000179899,1.43496,0.000147075,0.0404778,678,1107,-36.762,-0.914063
-539,-83,-36.8234,0.816406,-0.000710175,0.000453713,-0.000663682,0.000754454,-0.00101092,-1.14533,0.00102282,0.0392741,685,1107,-36.8234,-0.816404
-532,-83,-36.8861,0.880005,-0.0016328,0.000570219,-0.00129886,0.00117176,-0.00223434,-1.13708,0.00199815,0.0421564,692,1107,-36.8861,-0.879966
-525,-83,0,0,0,0,0,0,0,0,0,-1,699,1107,0,0
-518,-83,0,0,0,0,0,0,0,0,0,-1,706,1107,0,0
-511,-83,0,0,0,0,0,0,0,0,0,-1,713,1107,0,0
-504,-83,0,0,0,0,0,0,0,0,0,-1,720,1107,0,0
-497,-83,0,0,0,0,0,0,0,0,0,-1,727,1107,0,0
-490,-83,0,0,0,0,0,0,0,0,0,-1,734,1107,0,0
-483,-83,0,0,0,0,0,0,0,0,0,-1,741,1107,0,0
-476,-83,0,0,0,0,0,0,0,0,0,-1,748,1107,0,0
-469,-83,0,0,0,0,0,0,0,0,0,-1,755,1107,0,0
-462,-83,0,0,0,0,0,0,0,0,0,-1,762,1107,0,0
-455,-83,0,0,0,0,0,0,0,0,0,-1,769,1107,0,0
-448,-83,0,0,0,0,0,0,0,0,0,-1,776,1107,0,0
-441,-83,0,0,0,0,0,0,0,0,0,-1,783,1107,0,0
-434,-83,0,0,0,0,0,0,0,0,0,-1,790,1107,0,0
-427,-83,0,0,0,0,0,0,0,0,0,-1,797,1107,0,0
-420,-83,0,0,0,0,0,0,0,0,0,-1,804,1107,0,0
-413,-83,0,0,0,0,0,0,0,0,0,-1,811,1107,0,0
-406,-83,0,0,0,0,0,0,0,0,0,-1,818,1107,0,0
-399,-83,0,0,0,0,0,0,0,0,0,-1,825,1107,0,0
-392,-83,0,0,0,0,0,0,0,0,0,-1,832,1107,0,0
-385,-83,0,0,0,0,0,0,0,0,0,-1,839,1107,0,0
-378,-83,0,0,0,0,0,0,0,0,0,-1,846,1107,0,0
-371,-83,0,0,0,0,0,0,0,0,0,-1,853,1107,0,0
-364,-83,0,0,0,0,0,0,0,0,0,-1,860,1107,0,0
-357,-83,0,0,0,0,0,0,0,0,0,-1,867,1107,0,0
-350,-83,0,0,0,0,0,0,0,0,0,-1,874,1107,0,0
-343,-83,0,0,0,0,0,0,0,0,0,-1,881,1107,0,0
-336,-83,0,0,0,0,0,0,0,0,0,-1,888,1107,0,0
-329,-83,0,0,0,0,0,0,0,0,0,-1,895,1107,0,0
-322,-83,0,0,0,0,0,0,0,0,0,-1,902,1107,0,0
-315,-83,0,0,0,0,0,0,0,0,0,-1,909,1107,0,0
-308,-83,0,0,0,0,0,0,0,0,0,-1,916,1107,0,0
-301,-83,0,0,0,0,0,0,0,0,0,-1,923,1107,0,0
-294,-83,0,0,0,0,0,0,0,0,0,-1,930,1107,0,0
-287,-83,0,0,0,0,0,0,0,0,0,-1,937,1107,0,0
-280,-83,0,0,0,0,0,0,0,0,0,-1,944,1107,0,0
-273,-83,0,0,0,0,0,0,0,0,0,-1,951,1107,0,0
-266,-83,0,0,0,0,0,0,0,0,0,-1,958,1107,0,0
-259,-83,0,0,0,0,0,0,0,0,0,-1,965,1107,0,0
-252,-83,0,0,0,0,0,0,0,0,0,-1,972,1107,0,0
-245,-83,0,0,0,0,0,0,0,0,0,-1,979,1107,0,0
-238,-83,0,0,0,0,0,0,0,0,0,-1,986,1107,0,0
-231,-83,0,0,0,0,0,0,0,0,0,-1,993,1107,0,0
-224,-83,0,0,0,0,0,0,0,0,0,-1,1000,1107,0,0
-217,-83,0,0,0,0,0,0,0,0,0,-1,1007,1107,0,0
-210,-83,0,0,0,0,0,0,0,0,0,-1,1014,1107,0,0
-203,-83,0,0,0,0,0,0,0,0,0,-1,1021,1107,0,0
-196,-83,0,0,0,0,0,0,0,0,0,-1,1028,1107,0,0
-189,-83,0,0,0,0,0,0,0,0,0,-1,1035,1107,0,0
-182,-83,0,0,0,0,0,0,0,0,0,-1,1042,1107,0,0
-175,-83,0,0,0,0,0,0,0,0,0,-1,1049,1107,0,0
-168,-83,0,0,0,0,0,0,0,0,0,-1,1056,1107,0,0
-161,-83,0,0,0,0,0,0,0,0,0,-1,1063,1107,0,0
-154,-83,0,0,0,0,0,0,0,0,0,-1,1070,1107,0,0
-147,-83,0,0,0,0,0,0,0,0,0,-1,1077,1107,0,0
-140,-83,0,0,0,0,0,0,0,0,0,-1,1084,1107,0,0
-133,-83,0,0,0,0,0,0,0,0,0,-1,1091,1107,0,0
-126,-83,0,0,0,0,0,0,0,0,0,-1,1098,1107,0,0
-119,-83,0,0,0,0,0,0,0,0,0,-1,1105,1107,0,0
-112,-83,0,0,0,0,0,0,0,0,0,-1,1112,1107,0,0
-105,-83,0,0,0,0,0,0,0,0,0,-1,1119,1107,0,0
-98,-83,0,0,0,0,0,0,0,0,0,-1,1126,1107,0,0
-91,-83,0,0,0,0,0,0,0,0,0,-1,1133,1107,0,0
-84,-83,0,0,0,0,0,0,0,0,0,-1,1140,1107,0,0
-77,-83,0,0,0,0,0,0,0,0,0,-1,1147,1107,0,0
-70,-83,0,0,0,0,0,0,0,0,0,-1,1154,1107,0,0
-63,-83,0,0,0,0,0,0,0,0,0,-1,1161,1107,0,0
-56,-83,0,0,0,0,0,0,0,0,0,-1,1168,1107,0,0
-49,-83,0,0,0,0,0,0,0,0,0,-1,1175,1107,0,0
-42,-83,0,0,0,0,0,0,0,0,0,-1,1182,1107,0,0
-35,-83,0,0,0,0,0,0,0,0,0,-1,1189,1107,0,0
-28,-83,0,0,0,0,0,0,0,0,0,-1,1196,1107,0,0
-21,-83,0,0,0,0,0,0,0,0,0,-1,1203,1107,0,0
-14,-83,0,0,0,0,0,0,0,0,0,-1,1210,1107,0,0
-7,-83,0,0,0,0,0,0,0,0,0,-1,1217,1107,0,0
0,-83,0,0,0,0,0,0,0,0,0,-1,1224,1107,0,0
7,-83,0,0,0,0,0,0,0,0,0,-1,1231,1107,0,0
14,-83,0,0,0,0,0,0,0,0,0,-1,1238,1107,0,0
21,-83,0,0,0,0,0,0,0,0,0,-1,1245,1107,0,0
28,-83,0,0,0,0,0,0,0,0,0,-1,1252,1107,0,0
35,-83,0,0,0,0,0,0,0,0,0,-1,1259,1107,0,0
42,-83,0,0,0,0,0,0,0,0,0,-1,1266,1107,0,0
49,-83,0,0,0,0,0,0,0,0,0,-1,1273,1107,0,0
56,-83,0,0,0,0,0,0,0,0,0,-1,1280,1107,0,0
63,-83,0,0,0,0,0,0,0,0,0,-1,1287,1107,0,0
70,-83,0,0,0,0,0,0,0,0,0,-1,1294,1107,0,0
77,-83,0,0,0,0,0,0,0,0,0,-1,1301,1107,0,0
84,-83,0,0,0,0,0,0,0,0,0,-1,1308,1107,0,0
91,-83,0,0,0,0,0,0,0,0,0,-1,1315,1107,0,0
98,-83,0,0,0,0,0,0,0,0,0,-1,1322,1107,0,0
105,-83,0,0,0,0,0,0,0,0,0,-1,1329,1107,0,0
112,-83,0,0,0,0,0,0,0,0,0,-1,1336,1107,0,0
119,-83,0,0,0,0,0,0,0,0,0,-1,1343,1107,0,0
126,-83,0,0,0,0,0,0,0,0,0,-1,1350,1107,0,0
133,-83,0,0,0,0,0,0,0,0,0,-1,1357,1107,0,0
140,-83,0,0,0,0,0,0,0,0,0,-1,1364,1107,0,0
147,-83,0,0,0,0,0,0,0,0,0,-1,1371,1107,0,0
154,-83,0,0,0,0,0,0,0,0,0,-1,1378,1107,0,0
161,-83,0,0,0,0,0,0,0,0,0,-1,1385,1107,0,0
168,-83,0,0,0,0,0,0,0,0,0,-1,1392,1107,0,0
175,-83,0,0,0,0,0,0,0,0,0,-1,1399,1107,0,0
182,-83,0,0,0,0,0,0,0,0,0,-1,1406,1107,0,0
189,-83,0,0,0,0,0,0,0,0,0,-1,1413,1107,0,0
196,-83,0,0,0,0,0,0,0,0,0,-1,1420,1107,0,0
203,-83,0,0,0,0,0,0,0,0,0,-1,1427,1107,0,0
210,-83,0,0,0,0,0,0,0,0,0,-1,1434,1107,0,0
217,-83,0,0,0,0,0,0,0,0,0,-1,1441,1107,0,0
224,-83,0,0,0,0,0,0,0,0,0,-1,1448,1107,0,0
231,-83,0,0,0,0,0,0,0,0,0,-1,1455,1107,0,0
238,-83,0,0,0,0,0,0,0,0,0,-1,1462,1107,0,0
245,-83,0,0,0,0,0,0,0,0,0,-1,1469,1107,0,0
252,-83,0,0,0,0,0,0,0,0,0,-1,1476,1107,0,0
259,-83,0,0,0,0,0,0,0,0,0,-1,1483,1107,0,0
266,-83,0,0,0,0,0,0,0,0,0,-1,1490,1107,0,0
273,-83,0,0,0,0,0,0,0,0,0,-1,1497,1107,0,0
280,-83,0,0,0,0,0,0,0,0,0,-1,1504,1107,0,0
287,-83,0,0,0,0,0,0,0,0,0,-1,1511,1107,0,0
294,-83,0,0,0,0,0,0,0,0,0,-1,1518,1107,0,0
301,-83,0,0,0,0,0,0,0,0,0,-1,1525,1107,0,0
308,-83,0,0,0,0,0,0,0,0,0,-1,1532,1107,0,0
315,-83,0,0,0,0,0,0,0,0,0,-1,1539,1107,0,0
322,-83,0,0,0,0,0,0,0,0,0,-1,1546,1107,0,0
329,-83,0,0,0,0,0,0,0,0,0,-1,1553,1107,0,0
336,-83,0,0,0,0,0,0,0,0,0,-1,1560,1107,0,0
343,-83,0,0,0,0,0,0,0,0,0,-1,1567,1107,0,0
350,-83,0,0,0,0,0,0,0,0,0,-1,1574,1107,0,0
357,-83,0,0,0,0,0,0,0,0,0,-1,1581,1107,0,0
364,-83,0,0,0,0,0,0,0,0,0,-1,1588,1107,0,0
371,-83,0,0,0,0,0,0,0,0,0,-1,1595,1107,0,0
378,-83,0,0,0,0,0,0,0,0,0,-1,1602,1107,0,0
385,-83,0,0,0,0,0,0,0,0,0,-1,1609,1107,0,0
392,-83,0,0,0,0,0,0,0,0,0,-1,1616,1107,0,0
399,-83,0,0,0,0,0,0,0,0,0,-1,1623,1107,0,0
406,-83,0,0,0,0,0,0,0,0,0,-1,1630,1107,0,0
413,-83,0,0,0,0,0,0,0,0,0,-1,1637,1107,0,0
420,-83,0,0,0,0,0,0,0,0,0,-1,1644,1107,0,0
427,-83,0,0,0,0,0,0,0,0,0,-1,1651,1107,0,0
434,-83,0,0,0,0,0,0,0,0,0,-1,1658,1107,0,0
441,-83,0,0,0,0,0,0,0,0,0,-1,1665,1107,0,0
448,-83,0,0,0,0,0,0,0,0,0,-1,1672,1107,0,0
455,-83,0,0,0,0,0,0,0,0,0,-1,1679,1107,0,0
462,-83,0,0,0,0,0,0,0,0,0,-1,1686,1107,0,0
469,-83,0,0,0,0,0,0,0,0,0,-1,1693,1107,0,0
476,-83,0,0,0,0,0,0,0,0,0,-1,1700,1107,0,0
483,-83,0,0,0,0,0,0,0,0,0,-1,1707,1107,0,0
490,-83,0,0,0,0,0,0,0,0,0,-1,1714,1107,0,0
497,-83,0,0,0,0,0,0,0,0,0,-1,1721,1107,0,0
504,-83,0,0,0,0,0,0,0,0,0,-1,1728,1107,0,0
511,-83,0,0,0,0,0,0,0,0,0,-1,1735,1107,0,0
518,-83,0,0,0,0,0,0,0,0,0,-1,1742,1107,0,0
525,-83,0,0,0,0,0,0,0,0,0,-1,1749,1107,0,0
532,-83,0,0,0,0,0,0,0,0,0,-1,1756,1107,0,0
539,-83,0,0,0,0,0,0,0,0,0,-1,1763,1107,0,0
546,-83,0,0,0,0,0,0,0,0,0,-1,1770,1107,0,0
553,-83,0,0,0,0,0,0,0,0,0,-1,1777,1107,0,0
560,-83,0,0,0,0,0,0,0,0,0,-1,1784,1107,0,0
567,-83,0,0,0,0,0,0,0,0,0,-1,1791,1107,0,0
574,-83,0,0,0,0,0,0,0,0,0,-1,1798,1107,0,0
581,-83,0,0,0,0,0,0,0,0,0,-1,1805,1107,0,0
588,-83,0,0,0,0,0,0,0,0,0,-1,1812,1107,0,0
595,-83,0,0,0,0,0,0,0,0,0,-1,1819,1107,0,0
602,-83,0,0,0,0,0,0,0,0,0,-1,1826,1107,0,0
609,-83,0,0,0,0,0,0,0,0,0,-1,1833,1107,0,0
616,-83,0,0,0,0,0,0,0,0,0,-1,1840,1107,0,0
623,-83,0,0,0,0,0,0,0,0,0,-1,1847,1107,0,0
630,-83,0,0,0,0,0,0,0,0,0,-1,1854,1107,0,0
637,-83,0,0,0,0,0,0,0,0,0,-1,1861,1107,0,0
644,-83,49.5306,2.70288,0.000951554,-0.00187059,-0.00139984,0.00152811,-0.00244715,-0.390701,0.00231548,0.0346657,1868,1107,49.5307,-2.70289
651,-83,49.5156,2.63696,0.00108308,-0.00166291,-0.000812549,0.0013055,-0.00188533,-0.267187,0.00185234,0.040773,1875,1107,49.5156,-2.63695
658,-83,49.5602,2.55835,0.00112644,-0.00153157,-0.000398574,0.00118492,-0.00159005,-0.145684,0.00160781,0.0468513,1882,1107,49.5602,-2.55838
665,-83,49.4685,2.46838,0.000999551,-0.00140842,-6.27776e-05,0.00100119,-0.00141005,-0.0260472,0.00139878,0.0424939,1889,1107,49.4685,-2.46835
672,-83,49.4122,2.61536,0.000820869,-0.00124252,0.000209339,0.000841893,-0.00126355,0.100095,0.00122368,0.0380209,1896,1107,49.4123,-2.61538
679,-83,49.4685,2.76709,0.000349645,-0.0011385,0.000429704,0.00046481,-0.00125367,0.261856,0.00102642,0.036919,1903,1107,49.4685,-2.76707
686,-83,49.6932,2.82153,-0.00013035,-0.00120912,0.000654552,0.000178425,-0.00151789,0.44078,0.00107635,0.034948,1910,1107,49.6933,-2.82148
693,-83,49.6266,2.86426,-0.000415038,-0.0012796,0.000831214,8.95811e-05,-0.00178422,0.545614,0.00122044,0.0356489,1917,1107,49.6266,-2.8643
700,-83,49.516,2.72827,-0.000616383,-0.00126624,0.000980879,9.19843e-05,-0.00197461,0.625455,0.00134811,0.0314586,1924,1107,49.516,-2.72832
707,-83,49.4923,2.62292,-0.000896378,-0.00114205,0.00122232,0.000209265,-0.0022477,0.735318,0.00157287,0.024864,1931,1107,49.4923,-2.62293
714,-83,49.4983,2.58801,0,0,0,0,0,0,0,-1,1938,1107,49.4983,-2.58799
721,-83,47.0106,7.18091,0,0,0,0,0,0,0,-1,1945,1107,47.0106,-7.18096
728,-83,47.0293,6.89441,-0.00202395,-0.000325282,0.00178638,0.000803394,-0.00315263,1.00731,0.00241452,0.0448177,1952,1107,47.0293,-6.89445
735,-83,46.6906,6.57996,-0.00257884,0.000113652,0.00206937,0.00123614,-0.00370133,1.07378,0.00296673,0.0403215,1959,1107,46.6906,-6.57992
742,-83,46.8453,6.28503,-0.00319012,0.00108334,0.00262805,0.00233369,-0.00444047,1.12672,0.00397361,0.0243969,1966,1107,46.8453,-6.28504
749,-83,46.9097,5.97363,-0.00375822,0.002112,0.00306116,0.00341783,-0.00506405,1.16759,0.00492767,0.0167922,1973,1107,46.9097,-5.97362
756,-83,46.9122,5.66113,-0.00462192,0.00359852,0.00349709,0.00488493,-0.00590833,1.21831,0.00624082,0.0162847,1980,1107,46.9122,-5.66111
763,-83,46.9006,5.32703,-0.00592132,0.00578314,0.00405191,0.00704895,-0.00718714,1.268,0.00821934,0.0125689,1987,1107,46.9007,-5.327
770,-83,46.8271,5.05566,-0.00769744,0.00867849,0.00477685,0.00997003,-0.00898898,1.30673,0.0109509,0.0156418,1994,1107,46.8271,-5.05564
777,-83,46.7081,4.79712,-0.00976038,0.0120317,0.00561411,0.013393,-0.0111217,1.33291,0.0141738,0.0184463,2001,1107,46.7081,-4.79714
784,-83,46.7227,4.59705,0,0,0,0,0,0,0,-1,2008,1107,46.7226,-4.59701
791,-83,46.6167,4.76685,0,0,0,0,0,0,0,-1,2015,1107,46.6168,-4.76683
798,-83,46.511,4.93665,0,0,0,0,0,0,0,-1,2022,1107,46.511,-4.93665
805,-83,45.5271,2.76343,0,0,0,0,0,0,0,-1,2029,1107,45.5271,-2.76341
812,-83,45.3254,2.10547,0,0,0,0,0,0,0,-1,2036,1107,45.3253,-2.10544
-700,-90,0,0,0,0,0,0,0,0,0,-1,524,1114,0,0
-693,-90,-36.4829,3.03784,0.0778898,-0.035939,-0.0300805,0.0853499,-0.0433991,-0.243102,0.0756372,0.0470794,531,1114,-36.483,-3.03781
-686,-90,-34.812,-0.500732,0.0614352,-0.0224866,-0.0215318,0.0666372,-0.0276886,-0.237052,0.0559852,0.046643,538,1114,-34.812,0.500785
-679,-90,-35.1305,-0.171997,0.0484333,-0.0136339,-0.0160184,0.0523235,-0.0175242,-0.238247,0.0419618,0.043624,545,1114,-35.1305,0.172033
-672,-90,-35.298,0.552246,0.0377585,-0.00755392,-0.0122317,0.0408495,-0.0106449,-0.247522,0.0313888,0.0413232,552,1114,-35.298,-0.552289
-665,-90,-34.8118,1.07983,0.0287357,-0.00336018,-0.00948833,0.0313309,-0.00595533,-0.26698,0.0231294,0.0448412,559,1114,-34.8118,-1.07982
-658,-90,-34.4311,1.31824,0.0211304,-0.000537792,-0.00741984,0.0234277,-0.00283502,-0.300246,0.0166441,0.0423713,566,1114,-34.4311,-1.3182
-651,-90,-34.124,1.29407,0,0,0,0,0,0,0,-1,573,1114,-34.124,-1.29406
-644,-90,-33.9524,1.7207,0.0105803,0.00179365,-0.00457107,0.012527,-0.000153066,-0.402613,0.0084028,0.0154156,580,1114,-33.9524,-1.72076
-637,-90,-33.9603,2.2085,0.00477415,0.00330842,-0.00281623,0.00695131,0.00113126,-0.658107,0.00430693,0.0128896,587,1114,-33.9603,-2.20845
-630,-90,-33.9758,2.58997,0.00205134,0.00337807,-0.00208457,0.00490228,0.00052713,-0.939444,0.00310742,0.01217,594,1114,-33.9758,-2.58991
-623,-90,-33.9989,2.93347,0.00142936,0.00167882,-0.00195814,0.00351619,-0.000408016,-0.817203,0.0024913,0.0104534,601,1114,-33.9989,-2.93345
-616,-90,-34.0287,3.31555,0.00137806,0.00038026,-0.00131492,0.00228554,-0.000527228,-0.604082,0.00172648,0.0130917,608,1114,-34.0288,-3.31557
-609,-90,-34.0331,3.67944,0.00208819,-0.000385716,-0.00070174,0.00227338,-0.000570907,-0.258019,0.00173744,0.0188289,615,1114,-34.0331,-3.67945
-602,-90,-34.109,4.01709,0.00263257,-0.00077722,-0.000504012,0.00270551,-0.00085016,-0.14372,0.002144,0.0200674,622,1114,-34.109,-4.01704
-595,-90,-33.9647,4.4502,0.00276096,-0.000970025,-0.000260113,0.00277901,-0.000988072,-0.0692704,0.00225537,0.0154969,629,1114,-33.9647,-4.4502
-588,-90,-33.9457,4.74084,0,0,0,0,0,0,0,-1,636,1114,-33.9457,-4.74086
-581,-90,-36.8206,0.905029,0,0,0,0,0,0,0,-1,643,1114,-36.8206,-0.905016
-574,-90,-36.8029,0.872803,0.00305529,-0.00124197,0.000136802,0.00305964,-0.00124632,0.0317918,0.00255847,0.0359864,650,1114,-36.8029,-0.872835
-567,-90,-36.8634,0.799072,0.00297768,-0.00113433,0.000226121,0.00299008,-0.00114672,0.0547703,0.00246615,0.0363247,657,1114,-36.8634,-0.799012
-560,-90,-36.768,0.913696,0.0026271,-0.000891178,0.000224243,0.00264134,-0.000905413,0.0633946,0.0021279,0.0390462,664,1114,-36.768,-0.9137
-553,-90,-36.6561,1.0575,0.00164233,-0.000543407,3.19987e-06,0.00164234,-0.000543412,0.00146397,0.00131403,0.0400535,671,1114,-36.6561,-1.05754
-546,-90,-36.6913,1.04126,0.000249212,-0.000135247,-0.000506824,0.000599037,-0.000485072,-0.604138,0.000627062,0.0425551,678,1114,-36.6913,-1.04123
-539,-90,-36.774,0.944946,-0.000808404,-1.27903e-05,-0.00150382,0.00114495,-0.00196614,-0.914702,0.00181693,0.0408513,685,1114,-36.774,-0.944932
-532,-90,-36.7948,0.641968,-0.00179081,2.06581e-06,-0.00250409,0.00176534,-0.00355408,-0.957285,0.00312851,0.040855,692,1114,-36.7948,-0.641985
-525,-90,0,0,0,0,0,0,0,0,0,-1,699,1114,0,0
-518,-90,0,0,0,0,0,0,0,0,0,-1,706,1114,0,0
-511,-90,0,0,0,0,0,0,0,0,0,-1,713,1114,0,0
-504,-90,0,0,0,0,0,0,0,0,0,-1,720,1114,0,0
-497,-90,0,0,0,0,0,0,0,0,0,-1,727,1114,0,0
-490,-90,0,0,0,0,0,0,0,0,0,-1,734,1114,0,0
-483,-90,0,0,0,0,0,0,0,0,0,-1,741,1114,0,0
-476,-90,0,0,0,0,0,0,0,0,0,-1,748,1114,0,0
-469,-90,0,0,0,0,0,0,0,0,0,-1,755,1114,0,0
-462,-90,0,0,0,0,0,0,0,0,0,-1,762,1114,0,0
-455,-90,0,0,0,0,0,0,0,0,0,-1,769,1114,0,0
-448,-90,0,0,0,0,0,0,0,0,0,-1,776,1114,0,0
-441,-90,0,0,0,0,0,0,0,0,0,-1,783,1114,0,0
-434,-90,0,0,0,0,0,0,0,0,0,-1,790,1114,0,0
-427,-90,0,0,0,0,0,0,0,0,0,-1,797,1114,0,0
-420,-90,0,0,0,0,0,0,0,0,0,-1,804,1114,0,0
-413,-90,0,0,0,0,0,0,0,0,0,-1,811,1114,0,0
-406,-90,0,0,0,0,0,0,0,0,0,-1,818,1114,0,0
-399,-90,0,0,0,0,0,0,0,0,0,-1,825,1114,0,0
-392,-90,0,0,0,0,0,0,0,0,0,-1,832,1114,0,0
-385,-90,0,0,0,0,0,0,0,0,0,-1,839,1114,0,0
-378,-90,0,0,0,0,0,0,0,0,0,-1,846,1114,0,0
-371,-90,0,0,0,0,0,0,0,0,0,-1,853,1114,0,0
-364,-90,0,0,0,0,0,0,0,0,0,-1,860,1114,0,0
-357,-90,0,0,0,0,0,0,0,0,0,-1,867,1114,0,0
-350,-90,0,0,0,0,0,0,0,0,0,-1,874,1114,0,0
-343,-90,0,0,0,0,0,0,0,0,0,-1,881,1114,0,0
-336,-90,0,0,0,0,0,0,0,0,0,-1,888,1114,0,0
-329,-90,0,0,0,0,0,0,0,0,0,-1,895,1114,0,0
-322,-90,0,0,0,0,0,0,0,0,0,-1,902,1114,0,0
-315,-90,0,0,0,0,0,0,0,0,0,-1,909,1114,0,0
-308,-90,0,0,0,0,0,0,0,0,0,-1,916,1114,0,0
-301,-90,0,0,0,0,0,0,0,0,0,-1,923,1114,0,0
-294,-90,0,0,0,0,0,0,0,0,0,-1,930,1114,0,0
-287,-90,0,0,0,0,0,0,0,0,0,-1,937,1114,0,0
-280,-90,0,0,0,0,0,0,0,0,0,-1,944,1114,0,0
-273,-90,0,0,0,0,0,0,0,0,0,-1,951,1114,0,0
-266,-90,0,0,0,0,0,0,0,0,0,-1,958,1114,0,0
-259,-90,0,0,0,0,0,0,0,0,0,-1,965,1114,0,0
-252,-90,0,0,0,0,0,0,0,0,0,-1,972,1114,0,0
-245,-90,0,0,0,0,0,0,0,0,0,-1,979,1114,0,0
-238,-90,0,0,0,0,0,0,0,0,0,-1,986,1114,0,0
-231,-90,0,0,0,0,0,0,0,0,0,-1,993,1114,0,0
-224,-90,0,0,0,0,0,0,0,0,0,-1,1000,1114,0,0
-217,-90,0,0,0,0,0,0,0,0,0,-1,1007,1114,0,0
-210,-90,0,0,0,0,0,0,0,0,0,-1,1014,1114,0,0
-203,-90,0,0,0,0,0,0,0,0,0,-1,1021,1114,0,0
-196,-90,0,0,0,0,0,0,0,0,0,-1,1028,1114,0,0
-189,-90,0,0,0,0,0,0,0,0,0,-1,1035,1114,0,0
-182,-90,0,0,0,0,0,0,0,0,0,-1,1042,1114,0,0
-175,-90,0,0,0,0,0,0,0,0,0,-1,1049,1114,0,0
-168,-90,0,0,0,0,0,0,0,0,0,-1,1056,1114,0,0
-161,-90,0,0,0,0,0,0,0,0,0,-1,1063,1114,0,0
-154,-90,0,0,0,0,0,0,0,0,0,-1,1070,1114,0,0
-147,-90,0,0,0,0,0,0,0,0,0,-1,1077,1114,0,0
-140,-90,0,0,0,0,0,0,0,0,0,-1,1084,1114,0,0
-133,-90,0,0,0,0,0,0,0,0,0,-1,1091,1114,0,0
-126,-90,0,0,0,0,0,0,0,0,0,-1,1098,1114,0,0
-119,-90,0,0,0,0,0,0,0,0,0,-1,1105,1114,0,0
-112,-90,0,0,0,0,0,0,0,0,0,-1,1112,1114,0,0
-105,-90,0,0,0,0,0,0,0,0,0,-1,1119,1114,0,0
-98,-90,0,0,0,0,0,0,0,0,0,-1,1126,1114,0,0
-91,-90,0,0,0,0,0,0,0,0,0,-1,1133,1114,0,0
-84,-90,0,0,0,0,0,0,0,0,0,-1,1140,1114,0,0
-77,-90,0,0,0,0,0,0,0,0,0,-1,1147,1114,0,0
-70,-90,0,0,0,0,0,0,0,0,0,-1,1154,1114,0,0
-63,-90,0,0,0,0,0,0,0,0,0,-1,1161,1114,0,0
-56,-90,0,0,0,0,0,0,0,0,0,-1,1168,1114,0,0
-49,-90,0,0,0,0,0,0,0,0,0,-1,1175,1114,0,0
-42,-90,0,0,0,0,0,0,0,0,0,-1,1182,1114,0,0
-35,-90,0,0,0,0,0,0,0,0,0,-1,1189,1114,0,0
-28,-90,0,0,0,0,0,0,0,0,0,-1,1196,1114,0,0
-21,-90,0,0,0,0,0,0,0,0,0,-1,1203,1114,0,0
-14,-90,0,0,0,0,0,0,0,0,0,-1,1210,1114,0,0
-7,-90,0,0,0,0,0,0,0,0,0,-1,1217,1114,0,0
0,-90,0,0,0,0,0,0,0,0,0,-1,1224,1114,0,0
7,-90,0,0,0,0,0,0,0,0,0,-1,1231,1114,0,0
14,-90,0,0,0,0,0,0,0,0,0,-1,1238,1114,0,0
21,-90,0,0,0,0,0,0,0,0,0,-1,1245,1114,0,0
28,-90,0,0,0,0,0,0,0,0,0,-1,1252,1114,0,0
35,-90,0,0,0,0,0,0,0,0,0,-1,1259,1114,0,0
42,-90,0,0,0,0,0,0,0,0,0,-1,1266,1114,0,0
49,-90,0,0,0,0,0,0,0,0,0,-1,1273,1114,0,0
56,-90,0,0,0,0,0,0,0,0,0,-1,1280,1114,0,0
63,-90,0,0,0,0,0,0,0,0,0,-1,1287,1114,0,0
70,-90,0,0,0,0,0,0,0,0,0,-1,1294,1114,0,0
77,-90,0,0,0,0,0,0,0,0,0,-1,1301,1114,0,0
84,-90,0,0,0,0,0,0,0,0,0,-1,1308,1114,0,0
91,-90,0,0,0,0,0,0,0,0,0,-1,1315,1114,0,0
98,-90,0,0,0,0,0,0,0,0,0,-1,1322,1114,0,0
105,-90,0,0,0,0,0,0,0,0,0,-1,1329,1114,0,0
112,-90,0,0,0,0,0,0,0,0,0,-1,1336,1114,0,0
119,-90,0,0,0,0,0,0,0,0,0,-1,1343,1114,0,0
126,-90,0,0,0,0,0,0,0,0,0,-1,1350,1114,0,0
133,-90,0,0,0,0,0,0,0,0,0,-1,1357,1114,0,0
140,-90,0,0,0,0,0,0,0,0,0,-1,1364,1114,0,0
147,-90,0,0,0,0,0,0,0,0,0,-1,1371,1114,0,0
154,-90,0,0,0,0,0,0,0,0,0,-1,1378,1114,0,0
161,-90,0,0,0,0,0,0,0,0,0,-1,1385,1114,0,0
168,-90,0,0,0,0,0,0,0,0,0,-1,1392,1114,0,0
175,-90,0,0,0,0,0,0,0,0,0,-1,1399,1114,0,0
182,-90,0,0,0,0,0,0,0,0,0,-1,1406,1114,0,0
189,-90,0,0,0,0,0,0,0,0,0,-1,1413,1114,0,0
196,-90,0,0,0,0,0,0,0,0,0,-1,1420,1114,0,0
203,-90,0,0,0,0,0,0,0,0,0,-1,1427,1114,0,0
210,-90,0,0,0,0,0,0,0,0,0,-1,1434,1114,0,0
217,-90,0,0,0,0,0,0,0,0,0,-1,1441,1114,0,0
224,-90,0,0,0,0,0,0,0,0,0,-1,1448,1114,0,0
231,-90,0,0,0,0,0,0,0,0,0,-1,1455,1114,0,0
238,-90,0,0,0,0,0,0,0,0,0,-1,1462,1114,0,0
245,-90,0,0,0,0,0,0,0,0,0,-1,1469,1114,0,0
252,-90,0,0,0,0,0,0,0,0,0,-1,1476,1114,0,0
259,-90,0,0,0,0,0,0,0,0,0,-1,1483,1114,0,0
266,-90,0,0,0,0,0,0,0,0,0,-1,1490,1114,0,0
273,-90,0,0,0,0,0,0,0,0,0,-1,1497,1114,0,0
280,-90,0,0,0,0,0,0,0,0,0,-1,1504,1114,0,0
287,-90,0,0,0,0,0,0,0,0,0,-1,1511,1114,0,0
294,-90,0,0,0,0,0,0,0,0,0,-1,1518,1114,0,0
301,-90,0,0,0,0,0,0,0,0,0,-1,1525,1114,0,0
308,-90,0,0,0,0,0,0,0,0,0,-1,1532,1114,0,0
315,-90,0,0,0,0,0,0,0,0,0,-1,1539,1114,0,0
322,-90,0,0,0,0,0,0,0,0,0,-1,1546,1114,0,0
329,-90,0,0,0,0,0,0,0,0,0,-1,1553,1114,0,0
336,-90,0,0,0,0,0,0,0,0,0,-1,1560,1114,0,0
343,-90,0,0,0,0,0,0,0,0,0,-1,1567,1114,0,0
350,-90,0,0,0,0,0,0,0,0,0,-1,1574,1114,0,0
357,-90,0,0,0,0,0,0,0,0,0,-1,1581,1114,0,0
364,-90,0,0,0,0,0,0,0,0,0,-1,1588,1114,0,0
371,-90,0,0,0,0,0,0,0,0,0,-1,1595,1114,0,0
378,-90,0,0,0,0,0,0,0,0,0,-1,1602,1114,0,0
385,-90,0,0,0,0,0,0,0,0,0,-1,1609,1114,0,0
392,-90,0,0,0,0,0,0,0,0,0,-1,1616,1114,0,0
399,-90,0,0,0,0,0,0,0,0,0,-1,1623,1114,0,0
406,-90,0,0,0,0,0,0,0,0,0,-1,1630,1114,0,0
413,-90,0,0,0,0,0,0,0,0,0,-1,1637,1114,0,0
420,-90,0,0,0,0,0,0,0,0,0,-1,1644,1114,0,0
427,-90,0,0,0,0,0,0,0,0,0,-1,1651,1114,0,0
434,-90,0,0,0,0,0,0,0,0,0,-1,1658,1114,0,0
441,-90,0,0,0,0,0,0,0,0,0,-1,1665,1114,0,0
448,-90,0,0,0,0,0,0,0,0,0,-1,1672,1114,0,0
455,-90,0,0,0,0,0,0,0,0,0,-1,1679,1114,0,0
462,-90,0,0,0,0,0,0,0,0,0,-1,1686,1114,0,0
469,-90,0,0,0,0,0,0,0,0,0,-1,1693,1114,0,0
476,-90,0,0,0,0,0,0,0,0,0,-1,1700,1114,0,0
483,-90,0,0,0,0,0,0,0,0,0,-1,1707,1114,0,0
490,-90,0,0,0,0,0,0,0,0,0,-1,1714,1114,0,0
497,-90,0,0,0,0,0,0,0,0,0,-1,1721,1114,0,0
504,-90,0,0,0,0,0,0,0,0,0,-1,1728,1114,0,0
511,-90,0,0,0,0,0,0,0,0,0,-1,1735,1114,0,0
518,-90,0,0,0,0,0,0,0,0,0,-1,1742,1114,0,0
525,-90,0,0,0,0,0,0,0,0,0,-1,1749,1114,0,0
532,-90,0,0,0,0,0,0,0,0,0,-1,1756,1114,0,0
539,-90,0,0,0,0,0,0,0,0,0,-1,1763,1114,0,0
546,-90,0,0,0,0,0,0,0,0,0,-1,1770,1114,0,0
553,-90,0,0,0,0,0,0,0,0,0,-1,1777,1114,0,0
560,-90,0,0,0,0,0,0,0,0,0,-1,1784,1114,0,0
567,-90,0,0,0,0,0,0,0,0,0,-1,1791,1114,0,0
574,-90,0,0,0,0,0,0,0,0,0,-1,1798,1114,0,0
581,-90,0,0,0,0,0,0,0,0,0,-1,1805,1114,0,0
588,-90,0,0,0,0,0,0,0,0,0,-1,1812,1114,0,0
595,-90,0,0,0,0,0,0,0,0,0,-1,1819,1114,0,0
602,-90,0,0,0,0,0,0,0,0,0,-1,1826,1114,0,0
609,-90,0,0,0,0,0,0,0,0,0,-1,1833,1114,0,0
616,-90,0,0,0,0,0,0,0,0,0,-1,1840,1114,0,0
623,-90,0,0,0,0,0,0,0,0,0,-1,1847,1114,0,0
630,-90,0,0,0,0,0,0,0,0,0,-1,1854,1114,0,0
637,-90,0,0,0,0,0,0,0,0,0,-1,1861,1114,0,0
644,-90,49.4799,2.75098,0.000979241,-0.00226007,-0.00126207,0.0014129,-0.00269373,-0.330971,0.0024091,0.0358973,1868,1114,49.4799,-2.75101
651,-90,49.5491,2.63135,0.000920997,-0.00203089,-0.000699231,0.00107825,-0.00218814,-0.221215,0.0019218,0.041824,1875,1114,49.549,-2.63133
658,-90,49.5812,2.51135,0.000944239,-0.00184379,-0.000315869,0.000979577,-0.00187913,-0.111413,0.00167749,0.0432771,1882,1114,49.5812,-2.51135
665,-90,49.5229,2.6377,0.000845002,-0.00164257,-2.22947e-05,0.000845202,-0.00164277,-0.00896146,0.00146082,0.0431485,1889,1114,49.5229,-2.63764
672,-90,49.52,2.75854,0.000707459,-0.00139543,0.000199013,0.000726127,-0.0014141,0.0935317,0.00125676,0.0429922,1896,1114,49.5201,-2.75854
679,-90,49.5239,2.88513,0.000266133,-0.00125156,0.000386835,0.000359043,-0.00134447,0.235716,0.00103692,0.0390629,1903,1114,49.524,-2.88516
686,-90,49.5846,2.92297,-0.000154922,-0.0012852,0.000563396,7.79349e-05,-0.00151806,0.391927,0.00103899,0.0358022,1910,1114,49.5846,-2.92298
693,-90,49.5337,2.81787,-0.000384399,-0.00132407,0.00069608,-1.44301e-05,-0.00169404,0.488532,0.00112458,0.0353683,1917,1114,49.5337,-2.81789
700,-90,49.5247,2.65601,-0.000539568,-0.00130351,0.000806258,-2.93778e-05,-0.0018137,0.56418,0.00119946,0.0319764,1924,1114,49.5246,-2.65598
707,-90,49.4916,2.58008,-0.000815849,-0.0011766,0.00105588,7.49552e-05,-0.0020674,0.7008,0.00140392,0.0261003,1931,1114,49.4916,-2.58004
714,-90,49.4603,2.51563,0,0,0,0,0,0,0,-1,1938,1114,49.4604,-2.51567
721,-90,46.5286,7.2887,0,0,0,0,0,0,0,-1,1945,1114,46.5285,-7.28864
728,-90,46.5558,7.02661,-0.00179652,-0.000397086,0.00161068,0.000659302,-0.00285291,0.99031,0.00215558,0.0308107,1952,1114,46.5557,-7.02665
735,-90,46.3408,6.63184,-0.00218745,2.82032e-06,0.00193071,0.00112736,-0.00331199,1.04338,0.0026645,0.0341397,1959,1114,46.3409,-6.63184
742,-90,46.4412,6.26892,-0.00265583,0.000931233,0.002523,0.00223322,-0.00395782,1.09439,0.00362033,0.0297347,1966,1114,46.4412,-6.26896
749,-90,46.6899,5.87231,-0.00310016,0.00192897,0.00308557,0.00339483,-0.00456601,1.12729,0.00461274,0.0191071,1973,1114,46.6899,-5.87231
756,-90,46.6494,5.59375,-0.0037785,0.0033984,0.00372134,0.00497961,-0.00535971,1.16901,0.00597075,0.0176613,1980,1114,46.6494,-5.59379
763,-90,46.5942,5.28687,-0.00472164,0.00558116,0.00457388,0.00731868,-0.00645916,1.20775,0.0079598,0.0129402,1987,1114,46.5942,-5.28685
770,-90,46.5422,4.96338,-0.00599673,0.00839886,0.00572922,0.0104006,-0.00799851,1.23466,0.0106529,0.0156447,1994,1114,46.5423,-4.96333
777,-90,46.4272,4.73303,-0.00754072,0.0116407,0.00712583,0.0139982,-0.00989819,1.2513,0.0138641,0.0161326,2001,1114,46.4272,-4.73306
784,-90,46.3401,4.56567,-0.0098023,0.0153832,0.00882392,0.018167,-0.0125861,1.26519,0.0178525,0.0295208,2008,1114,46.34,-4.56571
791,-90,46.1895,4.93701,-0.0124667,0.0197948,0.0110441,0.0232133,-0.0158852,1.27062,0.0227053,0.0470772,2015,1114,46.1896,-4.93699
798,-90,46.064,5.18677,0,0,0,0,0,0,0,-1,2022,1114,46.0638,-5.1868
805,-90,45.5078,3.02869,0,0,0,0,0,0,0,-1,2029,1114,45.5078,-3.02872
812,-90,44.8286,2.7489,0,0,0,0,0,0,0,-1,2036,1114,44.8286,-2.74895
-700,-97,0,0,0,0,0,0,0,0,0,-1,524,1121,0,0
-693,-97,-36.1375,3.11023,0.0873085,-0.0467806,-0.0433903,0.100124,-0.0595965,-0.287197,0.0931992,0.0456698,531,1121,-36.1375,-3.11017
-686,-97,-34.6417,-0.618652,0.068863,-0.0302176,-0.0326272,0.078642,-0.0399966,-0.291198,0.0696968,0.0490379,538,1121,-34.6417,0.61866
-679,-97,-35.0809,-0.369873,0.0541127,-0.0190548,-0.0251051,0.0618982,-0.0268403,-0.300714,0.0525491,0.0479101,545,1121,-35.0809,0.369882
-672,-97,-34.2916,0.605591,0.0419974,-0.0112764,-0.0195515,0.0484026,-0.0176816,-0.316591,0.0395041,0.0464125,552,1121,-34.2916,-0.605617
-665,-97,-34.1942,0.961792,0,0,0,0,0,0,0,-1,559,1121,-34.1942,-0.961845
-658,-97,-34.0087,1.19299,0,0,0,0,0,0,0,-1,566,1121,-34.0086,-1.19302
-651,-97,-33.5256,1.45471,0.0164478,0.0001601,-0.00922109,0.0206064,-0.00399853,-0.423677,0.0152462,0.0315979,573,1121,-33.5256,-1.45471
-644,-97,-33.5668,1.75171,0.0114577,0.00124419,-0.00703703,0.0150457,-0.0023438,-0.471515,0.0108961,0.012361,580,1121,-33.5668,-1.7517
-637,-97,-33.5732,2.17151,0.005341,0.00295733,-0.00442731,0.00873409,-0.000435761,-0.653915,0.00597328,0.0127244,587,1121,-33.5732,-2.17147
-630,-97,-33.5851,2.5531,0.0023189,0.0033531,-0.00306584,0.00594514,-0.000273141,-0.868945,0.00405754,0.0104642,594,1121,-33.5852,-2.55305
-623,-97,-33.6081,2.93225,0.0015317,0.00171218,-0.00236402,0.00398768,-0.000743795,-0.804475,0.00293794,0.0120535,601,1121,-33.6081,-2.93221
-616,-97,-33.6578,3.33069,0.00155381,0.000429862,-0.0013368,0.00244196,-0.000458282,-0.586418,0.00180028,0.0187273,608,1121,-33.6578,-3.33072
-609,-97,-33.7427,3.75049,0.00226106,-0.000302461,-0.000452598,0.00233862,-0.000380022,-0.16972,0.00169997,0.0253925,615,1121,-33.7427,-3.75045
-602,-97,-33.7774,4.04614,0.00278435,-0.000608945,-0.000185401,0.00279445,-0.000619045,-0.0544215,0.00209995,0.0238366,622,1121,-33.7774,-4.04609
-595,-97,-33.6151,4.4447,0.00281219,-0.000739207,8.22812e-05,0.00281409,-0.000741113,0.0231522,0.00216579,0.0171723,629,1121,-33.615,-4.44471
-588,-97,-33.6082,4.79175,0,0,0,0,0,0,0,-1,636,1121,-33.6081,-4.79179
-581,-97,-35.5558,1.11877,0,0,0,0,0,0,0,-1,643,1121,-35.5559,-1.11872
-574,-97,-36.8218,0.896606,0,0,0,0,0,0,0,-1,650,1121,-36.8219,-0.896629
-567,-97,-36.9346,0.772095,0.0030001,-0.000974183,0.000446306,0.00304961,-0.00102369,0.110465,0.00244675,0.0378295,657,1121,-36.9347,-0.772112
-560,-97,-36.824,0.921509,0.0026992,-0.000797108,0.000376132,0.00273921,-0.000837115,0.105964,0.00215994,0.0443505,664,1121,-36.824,-0.92148
-553,-97,-36.6183,1.05188,0.00166988,-0.000544665,2.57856e-06,0.00166988,-0.000544668,0.00116437,0.00133245,0.0466173,671,1121,-36.6183,-1.0519
-546,-97,-36.8011,0.623901,0.000182331,-0.000256793,-0.000762337,0.000756095,-0.000830556,-0.645187,0.00091639,0.0444648,678,1121,-36.8011,-0.623847
-539,-97,-36.7839,0.705322,-0.00100899,-0.000290308,-0.00204132,0.00142306,-0.00272236,-0.872522,0.00243223,0.0407597,685,1121,-36.7839,-0.705335
-532,-97,-36.8038,0.622314,-0.00202324,-0.000471395,-0.00334167,0.00218325,-0.00467789,-0.899475,0.00404762,0.0373365,692,1121,-36.8037,-0.622341
-525,-97,0,0,0,0,0,0,0,0,0,-1,699,1121,0,0
-518,-97,0,0,0,0,0,0,0,0,0,-1,706,1121,0,0
-511,-97,0,0,0,0,0,0,0,0,0,-1,713,1121,0,0
-504,-97,0,0,0,0,0,0,0,0,0,-1,720,1121,0,0
-497,-97,0,0,0,0,0,0,0,0,0,-1,727,1121,0,0
-490,-97,0,0,0,0,0,0,0,0,0,-1,734,1121,0,0
-483,-97,0,0,0,0,0,0,0,0,0,-1,741,1121,0,0
-476,-97,0,0,0,0,0,0,0,0,0,-1,748,1121,0,0
-469,-97,0,0,0,0,0,0,0,0,0,-1,755,1121,0,0
-462,-97,0,0,0,0,0,0,0,0,0,-1,762,1121,0,0
-455,-97,0,0,0,0,0,0,0,0,0,-1,769,1121,0,0
-448,-97,0,0,0,0,0,0,0,0,0,-1,776,1121,0,0
-441,-97,0,0,0,0,0,0,0,0,0,-1,783,1121,0,0
-434,-97,0,0,0,0,0,0,0,0,0,-1,790,1121,0,0
-427,-97,0,0,0,0,0,0,0,0,0,-1,797,1121,0,0
-420,-97,0,0,0,0,0,0,0,0,0,-1,804,1121,0,0
-413,-97,0,0,0,0,0,0,0,0,0,-1,811,1121,0,0
-406,-97,0,0,0,0,0,0,0,0,0,-1,818,1121,0,0
-399,-97,0,0,0,0,0,0,0,0,0,-1,825,1121,0,0
-392,-97,0,0,0,0,0,0,0,0,0,-1,832,1121,0,0
-385,-97,0,0,0,0,0,0,0,0,0,-1,839,1121,0,0
-378,-97,0,0,0,0,0,0,0,0,0,-1,846,1121,0,0
-371,-97,0,0,0,0,0,0,0,0,0,-1,853,1121,0,0
-364,-97,0,0,0,0,0,0,0,0,0,-1,860,1121,0,0
-357,-97,0,0,0,0,0,0,0,0,0,-1,867,1121,0,0
-350,-97,0,0,0,0,0,0,0,0,0,-1,874,1121,0,0
-343,-97,0,0,0,0,0,0,0,0,0,-1,881,1121,0,0
-336,-97,0,0,0,0,0,0,0,0,0,-1,888,1121,0,0
-329,-97,0,0,0,0,0,0,0,0,0,-1,895,1121,0,0
-322,-97,0,0,0,0,0,0,0,0,0,-1,902,1121,0,0
-315,-97,0,0,0,0,0,0,0,0,0,-1,909,1121,0,0
-308,-97,0,0,0,0,0,0,0,0,0,-1,916,1121,0,0
-301,-97,0,0,0,0,0,0,0,0,0,-1,923,1121,0,0
-294,-97,0,0,0,0,0,0,0,0,0,-1,930,1121,0,0
-287,-97,0,0,0,0,0,0,0,0,0,-1,937,1121,0,0
-280,-97,0,0,0,0,0,0,0,0,0,-1,944,1121,0,0
-273,-97,0,0,0,0,0,0,0,0,0,-1,951,1121,0,0
-266,-97,0,0,0,0,0,0,0,0,0,-1,958,1121,0,0
-259,-97,0,0,0,0,0,0,0,0,0,-1,965,1121,0,0
-252,-97,0,0,0,0,0,0,0,0,0,-1,972,1121,0,0
-245,-97,0,0,0,0,0,0,0,0,0,-1,979,1121,0,0
-238,-97,0,0,0,0,0,0,0,0,0,-1,986,1121,0,0
-231,-97,0,0,0,0,0,0,0,0,0,-1,993,1121,0,0
-224,-97,0,0,0,0,0,0,0,0,0,-1,1000,1121,0,0
-217,-97,0,0,0,0,0,0,0,0,0,-1,1007,1121,0,0
-210,-97,0,0,0,0,0,0,0,0,0,-1,1014,1121,0,0
-203,-97,0,0,0,0,0,0,0,0,0,-1,1021,1121,0,0
-196,-97,0,0,0,0,0,0,0,0,0,-1,1028,1121,0,0
-189,-97,0,0,0,0,0,0,0,0,0,-1,1035,1121,0,0
-182,-97,0,0,0,0,0,0,0,0,0,-1,1042,1121,0,0
-175,-97,0,0,0,0,0,0,0,0,0,-1,1049,1121,0,0
-168,-97,0,0,0,0,0,0,0,0,0,-1,1056,1121,0,0
-161,-97,0,0,0,0,0,0,0,0,0,-1,1063,1121,0,0
-154,-97,0,0,0,0,0,0,0,0,0,-1,1070,1121,0,0
-147,-97,0,0,0,0,0,0,0,0,0,-1,1077,1121,0,0
-140,-97,0,0,0,0,0,0,0,0,0,-1,1084,1121,0,0
-133,-97,0,0,0,0,0,0,0,0,0,-1,1091,1121,0,0
-126,-97,0,0,0,0,0,0,0,0,0,-1,1098,1121,0,0
-119,-97,0,0,0,0,0,0,0,0,0,-1,1105,1121,0,0
-112,-97,0,0,0,0,0,0,0,0,0,-1,1112,1121,0,0
-105,-97,0,0,0,0,0,0,0,0,0,-1,1119,1121,0,0
-98,-97,0,0,0,0,0,0,0,0,0,-1,1126,1121,0,0
-91,-97,0,0,0,0,0,0,0,0,0,-1,1133,1121,0,0
-84,-97,0,0,0,0,0,0,0,0,0,-1,1140,1121,0,0
-77,-97,0,0,0,0,0,0,0,0,0,-1,1147,1121,0,0
-70,-97,0,0,0,0,0,0,0,0,0,-1,1154,1121,0,0
-63,-97,0,0,0,0,0,0,0,0,0,-1,1161,1121,0,0
-56,-97,0,0,0,0,0,0,0,0,0,-1,1168,1121,0,0
-49,-97,0,0,0,0,0,0,0,0,0,-1,1175,1121,0,0
-42,-97,0,0,0,0,0,0,0,0,0,-1,1182,1121,0,0
-35,-97,0,0,0,0,0,0,0,0,0,-1,1189,1121,0,0
-28,-97,0,0,0,0,0,0,0,0,0,-1,1196,1121,0,0
-21,-97,0,0,0,0,0,0,0,0,0,-1,1203,1121,0,0
-14,-97,0,0,0,0,0,0,0,0,0,-1,1210,1121,0,0
-7,-97,0,0,0,0,0,0,0,0,0,-1,1217,1121,0,0
0,-97,0,0,0,0,0,0,0,0,0,-1,1224,1121,0,0
7,-97,0,0,0,0,0,0,0,0,0,-1,1231,1121,0,0
14,-97,0,0,0,0,0,0,0,0,0,-1,1238,1121,0,0
21,-97,0,0,0,0,0,0,0,0,0,-1,1245,1121,0,0
28,-97,0,0,0,0,0,0,0,0,0,-1,1252,1121,0,0
35,-97,0,0,0,0,0,0,0,0,0,-1,1259,1121,0,0
42,-97,0,0,0,0,0,0,0,0,0,-1,1266,1121,0,0
49,-97,0,0,0,0,0,0,0,0,0,-1,1273,1121,0,0
56,-97,0,0,0,0,0,0,0,0,0,-1,1280,1121,0,0
63,-97,0,0,0,0,0,0,0,0,0,-1,1287,1121,0,0
70,-97,0,0,0,0,0,0,0,0,0,-1,1294,1121,0,0
77,-97,0,0,0,0,0,0,0,0,0,-1,1301,1121,0,0
84,-97,0,0,0,0,0,0,0,0,0,-1,1308,1121,0,0
91,-97,0,0,0,0,0,0,0,0,0,-1,1315,1121,0,0
98,-97,0,0,0,0,0,0,0,0,0,-1,1322,1121,0,0
105,-97,0,0,0,0,0,0,0,0,0,-1,1329,1121,0,0
112,-97,0,0,0,0,0,0,0,0,0,-1,1336,1121,0,0
119,-97,0,0,0,0,0,0,0,0,0,-1,1343,1121,0,0
126,-97,0,0,0,0,0,0,0,0,0,-1,1350,1121,0,0
133,-97,0,0,0,0,0,0,0,0,0,-1,1357,1121,0,0
140,-97,0,0,0,0,0,0,0,0,0,-1,1364,1121,0,0
147,-97,0,0,0,0,0,0,0,0,0,-1,1371,1121,0,0
154,-97,0,0,0,0,0,0,0,0,0,-1,1378,1121,0,0
161,-97,0,0,0,0,0,0,0,0,0,-1,1385,1121,0,0
168,-97,0,0,0,0,0,0,0,0,0,-1,1392,1121,0,0
175,-97,0,0,0,0,0,0,0,0,0,-1,1399,1121,0,0
182,-97,0,0,0,0,0,0,0,0,0,-1,1406,1121,0,0
189,-97,0,0,0,0,0,0,0,0,0,-1,1413,1121,0,0
196,-97,0,0,0,0,0,0,0,0,0,-1,1420,1121,0,0
203,-97,0,0,0,0,0,0,0,0,0,-1,1427,1121,0,0
210,-97,0,0,0,0,0,0,0,0,0,-1,1434,1121,0,0
217,-97,0,0,0,0,0,0,0,0,0,-1,1441,1121,0,0
224,-97,0,0,0,0,0,0,0,0,0,-1,1448,1121,0,0
231,-97,0,0,0,0,0,0,0,0,0,-1,1455,1121,0,0
238,-97,0,0,0,0,0,0,0,0,0,-1,1462,1121,0,0
245,-97,0,0,0,0,0,0,0,0,0,-1,1469,1121,0,0
252,-97,0,0,0,0,0,0,0,0,0,-1,1476,1121,0,0
259,-97,0,0,0,0,0,0,0,0,0,-1,1483,1121,0,0
266,-97,0,0,0,0,0,0,0,0,0,-1,1490,1121,0,0
273,-97,0,0,0,0,0,0,0,0,0,-1,1497,1121,0,0
280,-97,0,0,0,0,0,0,0,0,0,-1,1504,1121,0,0
287,-97,0,0,0,0,0,0,0,0,0,-1,1511,1121,0,0
294,-97,0,0,0,0,0,0,0,0,0,-1,1518,1121,0,0
301,-97,0,0,0,0,0,0,0,0,0,-1,1525,1121,0,0
308,-97,0,0,0,0,0,0,0,0,0,-1,1532,1121,0,0
315,-97,0,0,0,0,0,0,0,0,0,-1,1539,1121,0,0
322,-97,0,0,0,0,0,0,0,0,0,-1,1546,1121,0,0
329,-97,0,0,0,0,0,0,0,0,0,-1,1553,1121,0,0
336,-97,0,0,0,0,0,0,0,0,0,-1,1560,1121,0,0
343,-97,0,0,0,0,0,0,0,0,0,-1,1567,1121,0,0
350,-97,0,0,0,0,0,0,0,0,0,-1,1574,1121,0,0
357,-97,0,0,0,0,0,0,0,0,0,-1,1581,1121,0,0
364,-97,0,0,0,0,0,0,0,0,0,-1,1588,1121,0,0
371,-97,0,0,0,0,0,0,0,0,0,-1,1595,1121,0,0
378,-97,0,0,0,0,0,0,0,0,0,-1,1602,1121,0,0
385,-97,0,0,0,0,0,0,0,0,0,-1,1609,1121,0,0
392,-97,0,0,0,0,0,0,0,0,0,-1,1616,1121,0,0
399,-97,0,0,0,0,0,0,0,0,0,-1,1623,1121,0,0
406,-97,0,0,0,0,0,0,0,0,0,-1,1630,1121,0,0
413,-97,0,0,0,0,0,0,0,0,0,-1,1637,1121,0,0
420,-97,0,0,0,0,0,0,0,0,0,-1,1644,1121,0,0
427,-97,0,0,0,0,0,0,0,0,0,-1,1651,1121,0,0
434,-97,0,0,0,0,0,0,0,0,0,-1,1658,1121,0,0
441,-97,0,0,0,0,0,0,0,0,0,-1,1665,1121,0,0
448,-97,0,0,0,0,0,0,0,0,0,-1,1672,1121,0,0
455,-97,0,0,0,0,0,0,0,0,0,-1,1679,1121,0,0
462,-97,0,0,0,0,0,0,0,0,0,-1,1686,1121,0,0
469,-97,0,0,0,0,0,0,0,0,0,-1,1693,1121,0,0
476,-97,0,0,0,0,0,0,0,0,0,-1,1700,1121,0,0
483,-97,0,0,0,0,0,0,0,0,0,-1,1707,1121,0,0
490,-97,0,0,0,0,0,0,0,0,0,-1,1714,1121,0,0
497,-97,0,0,0,0,0,0,0,0,0,-1,1721,1121,0,0
504,-97,0,0,0,0,0,0,0,0,0,-1,1728,1121,0,0
511,-97,0,0,0,0,0,0,0,0,0,-1,1735,1121,0,0
518,-97,0,0,0,0,0,0,0,0,0,-1,1742,1121,0,0
525,-97,0,0,0,0,0,0,0,0,0,-1,1749,1121,0,0
532,-97,0,0,0,0,0,0,0,0,0,-1,1756,1121,0,0
539,-97,0,0,0,0,0,0,0,0,0,-1,1763,1121,0,0
546,-97,0,0,0,0,0,0,0,0,0,-1,1770,1121,0,0
553,-97,0,0,0,0,0,0,0,0,0,-1,1777,1121,0,0
560,-97,0,0,0,0,0,0,0,0,0,-1,1784,1121,0,0
567,-97,0,0,0,0,0,0,0,0,0,-1,1791,1121,0,0
574,-97,0,0,0,0,0,0,0,0,0,-1,1798,1121,0,0
581,-97,0,0,0,0,0,0,0,0,0,-1,1805,1121,0,0
588,-97,0,0,0,0,0,0,0,0,0,-1,1812,1121,0,0
595,-97,0,0,0,0,0,0,0,0,0,-1,1819,1121,0,0
602,-97,0,0,0,0,0,0,0,0,0,-1,1826,1121,0,0
609,-97,0,0,0,0,0,0,0,0,0,-1,1833,1121,0,0
616,-97,0,0,0,0,0,0,0,0,0,-1,1840,1121,0,0
623,-97,0,0,0,0,0,0,0,0,0,-1,1847,1121,0,0
630,-97,0,0,0,0,0,0,0,0,0,-1,1854,1121,0,0
637,-97,0,0,0,0,0,0,0,0,0,-1,1861,1121,0,0
644,-97,49.4952,2.89868,0.000865968,-0.00186597,-0.000939696,0.00115798,-0.00215798,-0.301291,0.00194327,0.0382812,1868,1121,49.4952,-2.89863
651,-97,49.5085,2.80005,0.000674286,-0.00169677,-0.000561856,0.000800687,-0.00182317,-0.221287,0.00155275,0.0404191,1875,1121,49.5085,-2.80007
658,-97,49.5409,2.43579,0,0,0,0,0,0,0,-1,1882,1121,49.5408,-2.43579
665,-97,49.5397,2.55042,0.000666089,-0.00131588,-8.78206e-05,0.000669973,-0.00131977,-0.0441942,0.00116902,0.0410808,1889,1121,49.5397,-2.55043
672,-97,49.5371,2.66711,0.000606243,-0.00105782,6.90323e-05,0.000609102,-0.00106067,0.0413895,0.000975726,0.0423255,1896,1121,49.5371,-2.66714
679,-97,49.5155,2.82861,0.000237751,-0.000946257,0.000229498,0.000280679,-0.000989185,0.184913,0.000770255,0.0396336,1903,1121,49.5155,-2.82861
686,-97,49.4601,2.87964,-8.70029e-05,-0.000994705,0.000375442,4.81603e-05,-0.00112987,0.345565,0.000769801,0.0357052,1910,1121,49.4601,-2.87964
693,-97,49.4585,2.61902,-0.000245914,-0.00106525,0.000483588,-2.17956e-05,-0.00128937,0.433982,0.000852406,0.0344216,1917,1121,49.4584,-2.61901
700,-97,49.4778,2.59375,-0.00034464,-0.00108463,0.0005712,-3.40729e-05,-0.0013952,0.498001,0.000918987,0.0292554,1924,1121,49.4777,-2.59375
707,-97,49.4821,2.63855,-0.000603726,-0.000991646,0.000831979,5.6603e-05,-0.00165198,0.670878,0.00112066,0.0271509,1931,1121,49.482,-2.6386
714,-97,49.4541,2.62915,0,0,0,0,0,0,0,-1,1938,1121,49.454,-2.62912
721,-97,46.3063,7.21802,0,0,0,0,0,0,0,-1,1945,1121,46.3063,-7.21802
728,-97,46.2552,7,-0.00144037,-0.000331967,0.00143012,0.000647576,-0.00241991,0.97025,0.00186695,0.0255828,1952,1121,46.2552,-6.99997
735,-97,46.202,6.62048,-0.00161267,1.49577e-05,0.00180045,0.00117697,-0.00277469,0.997659,0.00234283,0.0268465,1959,1121,46.202,-6.62046
742,-97,46.2107,6.27148,-0.00188068,0.000952397,0.00246263,0.00237683,-0.00330511,1.0464,0.00329503,0.0210793,1966,1121,46.2107,-6.27152
749,-97,46.2913,5.91565,-0.00217463,0.00198826,0.00314558,0.0036787,-0.00386507,1.07768,0.00435584,0.0217586,1973,1121,46.2913,-5.91563
756,-97,46.2809,5.58679,-0.0026187,0.00364972,0.0039747,0.00557729,-0.00454626,1.11926,0.00585493,0.0170418,1980,1121,46.2809,-5.58682
763,-97,46.2062,5.29907,-0.00308901,0.00613624,0.00512883,0.00842153,-0.0053743,1.15163,0.00802953,0.0128242,1987,1121,46.2062,-5.29912
770,-97,46.1583,5.00476,-0.00375941,0.00935764,0.0066827,0.0121625,-0.00656426,1.17341,0.0109717,0.0112431,1994,1121,46.1584,-5.00479
777,-97,46.124,4.69226,-0.00469882,0.0131544,0.00855913,0.0165948,-0.00813923,1.1886,0.0145557,0.0165965,2001,1121,46.124,-4.69227
784,-97,46.0969,4.3927,-0.00635685,0.0176782,0.0108724,0.0218665,-0.0105452,1.20309,0.0190896,0.0377184,2008,1121,46.097,-4.3927
791,-97,46.0693,4.13965,-0.00848947,0.023271,0.0138064,0.0284335,-0.013652,1.21297,0.0247926,0.0457015,2015,1121,46.0693,-4.1397
798,-97,45.9895,3.89917,0,0,0,0,0,0,0,-1,2022,1121,45.9895,-3.89912
805,-97,45.4021,2.55383,0,0,0,0,0,0,0,-1,2029,1121,45.4021,-2.5538
812,-97,45.478,2.03821,0,0,0,0,0,0,0,-1,2036,1121,45.478,-2.03824
-700,-104,0,0,0,0,0,0,0,0,0,-1,524,1128,0,0
-693,-104,-35.8752,3.21753,0.0928544,-0.056691,-0.0579167,0.112661,-0.076498,-0.329521,0.109874,0.0457174,531,1128,-35.8752,-3.21757
-686,-104,-36.0645,3.12207,0.0722724,-0.0367995,-0.0452383,0.0885932,-0.0531202,-0.34624,0.0826683,0.0479593,538,1128,-36.0645,-3.12212
-679,-104,-35.0433,-0.518555,0,0,0,0,0,0,0,-1,545,1128,-35.0433,0.518553
-672,-104,-33.2911,0.808838,0,0,0,0,0,0,0,-1,552,1128,-33.2912,-0.808892
-665,-104,-36.0408,2.93896,0,0,0,0,0,0,0,-1,559,1128,-36.0408,-2.93893
-658,-104,-33.2145,1.34326,0,0,0,0,0,0,0,-1,566,1128,-33.2145,-1.34329
-651,-104,-33.1802,1.51465,0.016338,-0.000210499,-0.0130387,0.0235063,-0.00737879,-0.502666,0.0186242,0.0398653,573,1128,-33.1802,-1.5147
-644,-104,-33.1608,1.7229,0.0110999,0.00122681,-0.00979304,0.0171303,-0.00480355,-0.551941,0.0133134,0.0158784,580,1128,-33.1607,-1.72294
-637,-104,-33.158,2.14648,0.00504727,0.00298165,-0.00629508,0.0103937,-0.00236478,-0.704089,0.00783723,0.0111974,587,1128,-33.158,-2.14652
-630,-104,-33.186,2.50134,0.00209645,0.00353188,-0.00420744,0.00708238,-0.00145405,-0.869876,0.00527352,0.0145792,594,1128,-33.186,-2.5014
-623,-104,-33.2275,2.93311,0.00132193,0.00190083,-0.00292652,0.00455219,-0.00132942,-0.834691,0.00356162,0.0168149,601,1128,-33.2276,-2.93314
-616,-104,-33.45,3.4071,0.0014565,0.000624319,-0.00153735,0.00263307,-0.000552251,-0.653237,0.0019655,0.0221832,608,1128,-33.4499,-3.40712
-609,-104,-33.618,3.68982,0.00218785,-6.90637e-05,-0.000438512,0.00227006,-0.000151271,-0.185318,0.00156623,0.028808,615,1128,-33.618,-3.68987
-602,-104,-33.4058,4.07556,0.00269725,-0.000303928,-7.90295e-05,0.00269933,-0.000306007,-0.0263085,0.00190975,0.0253716,622,1128,-33.4057,-4.07561
-595,-104,-33.1937,4.54395,0.00264771,-0.000421749,0.000255261,0.0026688,-0.000442832,0.0824071,0.0019437,0.0184921,629,1128,-33.1937,-4.54398
-588,-104,-33.0924,5.04541,0,0,0,0,0,0,0,-1,636,1128,-33.0924,-5.04546
-581,-104,-23.9373,2.85864,0,0,0,0,0,0,0,-1,643,1128,-23.9373,-2.85861
-574,-104,-36.709,0.664307,0,0,0,0,0,0,0,-1,650,1128,-36.709,-0.664305
-567,-104,-36.84,0.732422,0.00280048,-0.000867106,0.000664755,0.00291725,-0.000983876,0.173885,0.0023427,0.0389579,657,1128,-36.84,-0.732459
-560,-104,-36.655,0.773804,0.00259343,-0.000800391,0.000613337,0.00270088,-0.000907833,0.173416,0.00216752,0.0453467,664,1128,-36.6549,-0.773842
-553,-104,-36.5733,0.683838,0.00157276,-0.0007004,0.00017593,0.00158629,-0.000713935,0.0767852,0.0013595,0.0497547,671,1128,-36.5733,-0.683877
-546,-104,-36.6385,0.710693,1.05168e-05,-0.000623184,-0.000770318,0.000526603,-0.00113927,-0.590283,0.000983236,0.0456723,678,1128,-36.6385,-0.710656
-539,-104,-36.6756,0.836304,-0.00138854,-0.000962712,-0.0023364,0.00117046,-0.00352171,-0.830837,0.00282012,0.0397956,685,1128,-36.6756,-0.836271
-532,-104,-36.7881,0.745239,-0.0025492,-0.00149655,-0.00397053,0.00198239,-0.00602814,-0.851293,0.00481749,0.0384409,692,1128,-36.7881,-0.745274
-525,-104,-36.847,0.639404,-0.00351417,-0.00214521,-0.00556102,0.0027733,-0.00843268,-0.846632,0.00673919,0.0352838,699,1128,-36.847,-0.639387
-518,-104,0,0,0,0,0,0,0,0,0,-1,706,1128,0,0
-511,-104,0,0,0,0,0,0,0,0,0,-1,713,1128,0,0
-504,-104,0,0,0,0,0,0,0,0,0,-1,720,1128,0,0
-497,-104,0,0,0,0,0,0,0,0,0,-1,727,1128,0,0
-490,-104,0,0,0,0,0,0,0,0,0,-1,734,1128,0,0
-483,-104,0,0,0,0,0,0,0,0,0,-1,741,1128,0,0
-476,-104,0,0,0,0,0,0,0,0,0,-1,748,1128,0,0
-469,-104,0,0,0,0,0,0,0,0,0,-1,755,1128,0,0
-462,-104,0,0,0,0,0,0,0,0,0,-1,762,1128,0,0
-455,-104,0,0,0,0,0,0,0,0,0,-1,769,1128,0,0
-448,-104,0,0,0,0,0,0,0,0,0,-1,776,1128,0,0
-441,-104,0,0,0,0,0,0,0,0,0,-1,783,1128,0,0
-434,-104,0,0,0,0,0,0,0,0,0,-1,790,1128,0,0
-427,-104,0,0,0,0,0,0,0,0,0,-1,797,1128,0,0
-420,-104,0,0,0,0,0,0,0,0,0,-1,804,1128,0,0
-413,-104,0,0,0,0,0,0,0,0,0,-1,811,1128,0,0
-406,-104,0,0,0,0,0,0,0,0,0,-1,818,1128,0,0
-399,-104,0,0,0,0,0,0,0,0,0,-1,825,1128,0,0
-392,-104,0,0,0,0,0,0,0,0,0,-1,832,1128,0,0
-385,-104,0,0,0,0,0,0,0,0,0,-1,839,1128,0,0
-378,-104,0,0,0,0,0,0,0,0,0,-1,846,1128,0,0
-371,-104,0,0,0,0,0,0,0,0,0,-1,853,1128,0,0
-364,-104,0,0,0,0,0,0,0,0,0,-1,860,1128,0,0
-357,-104,0,0,0,0,0,0,0,0,0,-1,867,1128,0,0
-350,-104,0,0,0,0,0,0,0,0,0,-1,874,1128,0,0
-343,-104,0,0,0,0,0,0,0,0,0,-1,881,1128,0,0
-336,-104,0,0,0,0,0,0,0,0,0,-1,888,1128,0,0
-329,-104,0,0,0,0,0,0,0,0,0,-1,895,1128,0,0
-322,-104,0,0,0,0,0,0,0,0,0,-1,902,1128,0,0
-315,-104,0,0,0,0,0,0,0,0,0,-1,909,1128,0,0
-308,-104,0,0,0,0,0,0,0,0,0,-1,916,1128,0,0
-301,-104,0,0,0,0,0,0,0,0,0,-1,923,1128,0,0
-294,-104,0,0,0,0,0,0,0,0,0,-1,930,1128,0,0
-287,-104,0,0,0,0,0,0,0,0,0,-1,937,1128,0,0
-280,-104,0,0,0,0,0,0,0,0,0,-1,944,1128,0,0
-273,-104,0,0,0,0,0,0,0,0,0,-1,951,1128,0,0
-266,-104,0,0,0,0,0,0,0,0,0,-1,958,1128,0,0
-259,-104,0,0,0,0,0,0,0,0,0,-1,965,1128,0,0
-252,-104,0,0,0,0,0,0,0,0,0,-1,972,1128,0,0
-245,-104,0,0,0,0,0,0,0,0,0,-1,979,1128,0,0
-238,-104,0,0,0,0,0,0,0,0,0,-1,986,1128,0,0
-231,-104,0,0,0,0,0,0,0,0,0,-1,993,1128,0,0
-224,-104,0,0,0,0,0,0,0,0,0,-1,1000,1128,0,0
-217,-104,0,0,0,0,0,0,0,0,0,-1,1007,1128,0,0
-210,-104,0,0,0,0,0,0,0,0,0,-1,1014,1128,0,0
-203,-104,0,0,0,0,0,0,0,0,0,-1,1021,1128,0,0
-196,-104,0,0,0,0,0,0,0,0,0,-1,1028,1128,0,0
-189,-104,0,0,0,0,0,0,0,0,0,-1,1035,1128,0,0
-182,-104,0,0,0,0,0,0,0,0,0,-1,1042,1128,0,0
-175,-104,0,0,0,0,0,0,0,0,0,-1,1049,1128,0,0
-168,-104,0,0,0,0,0,0,0,0,0,-1,1056,1128,0,0
-161,-104,0,0,0,0,0,0,0,0,0,-1,1063,1128,0,0
-154,-104,0,0,0,0,0,0,0,0,0,-1,1070,1128,0,0
-147,-104,0,0,0,0,0,0,0,0,0,-1,1077,1128,0,0
-140,-104,0,0,0,0,0,0,0,0,0,-1,1084,1128,0,0
-133,-104,0,0,0,0,0,0,0,0,0,-1,1091,1128,0,0
-126,-104,0,0,0,0,0,0,0,0,0,-1,1098,1128,0,0
-119,-104,0,0,0,0,0,0,0,0,0,-1,1105,1128,0,0
-112,-104,0,0,0,0,0,0,0,0,0,-1,1112,1128,0,0
-105,-104,0,0,0,0,0,0,0,0,0,-1,1119,1128,0,0
-98,-104,0,0,0,0,0,0,0,0,0,-1,1126,1128,0,0
-91,-104,0,0,0,0,0,0,0,0,0,-1,1133,1128,0,0
-84,-104,0,0,0,0,0,0,0,0,0,-1,1140,1128,0,0
-77,-104,0,0,0,0,0,0,0,0,0,-1,1147,1128,0,0
-70,-104,0,0,0,0,0,0,0,0,0,-1,1154,1128,0,0
-63,-104,0,0,0,0,0,0,0,0,0,-1,1161,1128,0,0
-56,-104,0,0,0,0,0,0,0,0,0,-1,1168,1128,0,0
-49,-104,0,0,0,0,0,0,0,0,0,-1,1175,1128,0,0
-42,-104,0,0,0,0,0,0,0,0,0,-1,1182,1128,0,0
-35,-104,0,0,0,0,0,0,0,0,0,-1,1189,1128,0,0
-28,-104,0,0,0,0,0,0,0,0,0,-1,1196,1128,0,0
-21,-104,0,0,0,0,0,0,0,0,0,-1,1203,1128,0,0
-14,-104,0,0,0,0,0,0,0,0,0,-1,1210,1128,0,0
-7,-104,0,0,0,0,0,0,0,0,0,-1,1217,1128,0,0
0,-104,0,0,0,0,0,0,0,0,0,-1,1224,1128,0,0
7,-104,0,0,0,0,0,0,0,0,0,-1,1231,1128,0,0
14,-104,0,0,0,0,0,0,0,0,0,-1,1238,1128,0,0
21,-104,0,0,0,0,0,0,0,0,0,-1,1245,1128,0,0
28,-104,0,0,0,0,0,0,0,0,0,-1,1252,1128,0,0
35,-104,0,0,0,0,0,0,0,0,0,-1,1259,1128,0,0
42,-104,0,0,0,0,0,0,0,0,0,-1,1266,1128,0,0
49,-104,0,0,0,0,0,0,0,0,0,-1,1273,1128,0,0
56,-104,0,0,0,0,0,0,0,0,0,-1,1280,1128,0,0
63,-104,0,0,0,0,0,0,0,0,0,-1,1287,1128,0,0
70,-104,0,0,0,0,0,0,0,0,0,-1,1294,1128,0,0
77,-104,0,0,0,0,0,0,0,0,0,-1,1301,1128,0,0
84,-104,0,0,0,0,0,0,0,0,0,-1,1308,1128,0,0
91,-104,0,0,0,0,0,0,0,0,0,-1,1315,1128,0,0
98,-104,0,0,0,0,0,0,0,0,0,-1,1322,1128,0,0
105,-104,0,0,0,0,0,0,0,0,0,-1,1329,1128,0,0
112,-104,0,0,0,0,0,0,0,0,0,-1,1336,1128,0,0
119,-104,0,0,0,0,0,0,0,0,0,-1,1343,1128,0,0
126,-104,0,0,0,0,0,0,0,0,0,-1,1350,1128,0,0
133,-104,0,0,0,0,0,0,0,0,0,-1,1357,1128,0,0
140,-104,0,0,0,0,0,0,0,0,0,-1,1364,1128,0,0
147,-104,0,0,0,0,0,0,0,0,0,-1,1371,1128,0,0
154,-104,0,0,0,0,0,0,0,0,0,-1,1378,1128,0,0
161,-104,0,0,0,0,0,0,0,0,0,-1,1385,1128,0,0
168,-104,0,0,0,0,0,0,0,0,0,-1,1392,1128,0,0
175,-104,0,0,0,0,0,0,0,0,0,-1,1399,1128,0,0
182,-104,0,0,0,0,0,0,0,0,0,-1,1406,1128,0,0
189,-104,0,0,0,0,0,0,0,0,0,-1,1413,1128,0,0
196,-104,0,0,0,0,0,0,0,0,0,-1,1420,1128,0,0
203,-104,0,0,0,0,0,0,0,0,0,-1,1427,1128,0,0
210,-104,0,0,0,0,0,0,0,0,0,-1,1434,1128,0,0
217,-104,0,0,0,0,0,0,0,0,0,-1,1441,1128,0,0
224,-104,0,0,0,0,0,0,0,0,0,-1,1448,1128,0,0
231,-104,0,0,0,0,0,0,0,0,0,-1,1455,1128,0,0
238,-104,0,0,0,0,0,0,0,0,0,-1,1462,1128,0,0
245,-104,0,0,0,0,0,0,0,0,0,-1,1469,1128,0,0
252,-104,0,0,0,0,0,0,0,0,0,-1,1476,1128,0,0
259,-104,0,0,0,0,0,0,0,0,0,-1,1483,1128,0,0
266,-104,0,0,0,0,0,0,0,0,0,-1,1490,1128,0,0
273,-104,0,0,0,0,0,0,0,0,0,-1,1497,1128,0,0
280,-104,0,0,0,0,0,0,0,0,0,-1,1504,1128,0,0
287,-104,0,0,0,0,0,0,0,0,0,-1,1511,1128,0,0
294,-104,0,0,0,0,0,0,0,0,0,-1,1518,1128,0,0
301,-104,0,0,0,0,0,0,0,0,0,-1,1525,1128,0,0
308,-104,0,0,0,0,0,0,0,0,0,-1,1532,1128,0,0
315,-104,0,0,0,0,0,0,0,0,0,-1,1539,1128,0,0
322,-104,0,0,0,0,0,0,0,0,0,-1,1546,1128,0,0
329,-104,0,0,0,0,0,0,0,0,0,-1,1553,1128,0,0
336,-104,0,0,0,0,0,0,0,0,0,-1,1560,1128,0,0
343,-104,0,0,0,0,0,0,0,0,0,-1,1567,1128,0,0
350,-104,0,0,0,0,0,0,0,0,0,-1,1574,1128,0,0
357,-104,0,0,0,0,0,0,0,0,0,-1,1581,1128,0,0
364,-104,0,0,0,0,0,0,0,0,0,-1,1588,1128,0,0
371,-104,0,0,0,0,0,0,0,0,0,-1,1595,1128,0,0
378,-104,0,0,0,0,0,0,0,0,0,-1,1602,1128,0,0
385,-104,0,0,0,0,0,0,0,0,0,-1,1609,1128,0,0
392,-104,0,0,0,0,0,0,0,0,0,-1,1616,1128,0,0
399,-104,0,0,0,0,0,0,0,0,0,-1,1623,1128,0,0
406,-104,0,0,0,0,0,0,0,0,0,-1,1630,1128,0,0
413,-104,0,0,0,0,0,0,0,0,0,-1,1637,1128,0,0
420,-104,0,0,0,0,0,0,0,0,0,-1,1644,1128,0,0
427,-104,0,0,0,0,0,0,0,0,0,-1,1651,1128,0,0
434,-104,0,0,0,0,0,0,0,0,0,-1,1658,1128,0,0
441,-104,0,0,0,0,0,0,0,0,0,-1,1665,1128,0,0
448,-104,0,0,0,0,0,0,0,0,0,-1,1672,1128,0,0
455,-104,0,0,0,0,0,0,0,0,0,-1,1679,1128,0,0
462,-104,0,0,0,0,0,0,0,0,0,-1,1686,1128,0,0
469,-104,0,0,0,0,0,0,0,0,0,-1,1693,1128,0,0
476,-104,0,0,0,0,0,0,0,0,0,-1,1700,1128,0,0
483,-104,0,0,0,0,0,0,0,0,0,-1,1707,1128,0,0
490,-104,0,0,0,0,0,0,0,0,0,-1,1714,1128,0,0
497,-104,0,0,0,0,0,0,0,0,0,-1,1721,1128,0,0
504,-104,0,0,0,0,0,0,0,0,0,-1,1728,1128,0,0
511,-104,0,0,0,0,0,0,0,0,0,-1,1735,1128,0,0
518,-104,0,0,0,0,0,0,0,0,0,-1,1742,1128,0,0
525,-104,0,0,0,0,0,0,0,0,0,-1,1749,1128,0,0
532,-104,0,0,0,0,0,0,0,0,0,-1,1756,1128,0,0
539,-104,0,0,0,0,0,0,0,0,0,-1,1763,1128,0,0
546,-104,0,0,0,0,0,0,0,0,0,-1,1770,1128,0,0
553,-104,0,0,0,0,0,0,0,0,0,-1,1777,1128,0,0
560,-104,0,0,0,0,0,0,0,0,0,-1,1784,1128,0,0
567,-104,0,0,0,0,0,0,0,0,0,-1,1791,1128,0,0
574,-104,0,0,0,0,0,0,0,0,0,-1,1798,1128,0,0
581,-104,0,0,0,0,0,0,0,0,0,-1,1805,1128,0,0
588,-104,0,0,0,0,0,0,0,0,0,-1,1812,1128,0,0
595,-104,0,0,0,0,0,0,0,0,0,-1,1819,1128,0,0
602,-104,0,0,0,0,0,0,0,0,0,-1,1826,1128,0,0
609,-104,0,0,0,0,0,0,0,0,0,-1,1833,1128,0,0
616,-104,0,0,0,0,0,0,0,0,0,-1,1840,1128,0,0
623,-104,0,0,0,0,0,0,0,0,0,-1,1847,1128,0,0
630,-104,0,0,0,0,0,0,0,0,0,-1,1854,1128,0,0
637,-104,0,0,0,0,0,0,0,0,0,-1,1861,1128,0,0
644,-104,49.3169,2.93726,0.000859095,-0.000656759,-0.000245697,0.000897924,-0.000695589,-0.156741,0.000922484,0.0374748,1868,1128,49.317,-2.93724
651,-104,49.4045,2.93579,0.000567841,-0.000803998,-0.000175367,0.000589904,-0.000826061,-0.125152,0.000821289,0.0385112,1875,1128,49.4045,-2.93579
658,-104,49.5813,2.51343,0.000586524,-0.00081685,-0.000104311,0.000594235,-0.000824561,-0.0737887,0.000822732,0.0397401,1882,1128,49.5813,-2.51347
665,-104,49.5291,2.56909,0.000581997,-0.000730314,-4.57163e-05,0.000583588,-0.000731904,-0.0347803,0.000761107,0.0427468,1889,1128,49.5291,-2.56912
672,-104,49.5299,2.67957,0.000569567,-0.000567462,-3.16422e-06,0.000569576,-0.000567471,-0.00278285,0.000656475,0.0431348,1896,1128,49.5298,-2.67956
679,-104,49.4608,2.73608,0.000253202,-0.000550585,0.000107328,0.000267287,-0.000564669,0.130482,0.000490452,0.038929,1903,1128,49.4608,-2.73611
686,-104,49.3735,2.69934,1.03027e-05,-0.000651032,0.000222861,7.83934e-05,-0.000719123,0.296522,0.000507568,0.0379679,1910,1128,49.3735,-2.69937
693,-104,49.4193,2.59033,-9.79078e-05,-0.000779569,0.000320945,2.94191e-05,-0.000906896,0.377679,0.000614638,0.0364117,1917,1128,49.4193,-2.59039
700,-104,49.4996,2.61804,-0.000150281,-0.000852715,0.000400242,3.0994e-05,-0.00103399,0.425273,0.000699886,0.0287958,1924,1128,49.4996,-2.61801
707,-104,49.4883,2.6554,0,0,0,0,0,0,0,-1,1931,1128,49.4882,-2.65533
714,-104,45.5221,2.32166,0,0,0,0,0,0,0,-1,1938,1128,45.5221,-2.3216
721,-104,45.9006,7.32129,0,0,0,0,0,0,0,-1,1945,1128,45.9007,-7.3213
728,-104,45.9951,6.91187,-0.00110205,-0.000231847,0.00133513,0.000737286,-0.00207118,0.942915,0.00168133,0.0246331,1952,1128,45.9951,-6.91189
735,-104,46.0326,6.58887,-0.00104082,7.25101e-05,0.00173156,0.00133468,-0.002303,0.940922,0.00212487,0.0292025,1959,1128,46.0325,-6.58888
742,-104,45.931,6.2627,-0.00102721,0.00105515,0.00249059,0.00271343,-0.00268549,0.983381,0.00311708,0.0198922,1966,1128,45.9311,-6.26272
749,-104,45.8796,5.91602,-0.00105334,0.00218018,0.00329568,0.00423431,-0.00310747,1.01344,0.00425539,0.0200747,1973,1128,45.8797,-5.91606
756,-104,45.8723,5.58289,-0.00114956,0.0041671,0.00429212,0.00655744,-0.0035399,1.06266,0.00591584,0.0173577,1980,1128,45.8724,-5.58285
763,-104,45.8363,5.28333,-0.000929965,0.00715998,0.00574493,0.0101411,-0.00391108,1.09213,0.0083746,0.016813,1987,1128,45.8363,-5.28336
770,-104,45.7793,4.97937,-0.000744876,0.0110585,0.00766324,0.0148292,-0.00451559,1.11353,0.0116858,0.0145481,1994,1128,45.7793,-4.97937
777,-104,45.7111,4.63684,-0.000794296,0.0157505,0.00996622,0.0204302,-0.00547405,1.13179,0.0157649,0.0230551,2001,1128,45.7111,-4.63678
784,-104,45.6873,4.29443,-0.00147265,0.0214943,0.0128169,0.0272196,-0.00719795,1.15069,0.0209618,0.0416414,2008,1128,45.6872,-4.29437
791,-104,45.72,3.95874,0,0,0,0,0,0,0,-1,2015,1128,45.72,-3.95873
798,-104,45.8496,3.34009,0,0,0,0,0,0,0,-1,2022,1128,45.8496,-3.34009
805,-104,45.5413,2.14075,0,0,0,0,0,0,0,-1,2029,1128,45.5413,-2.14073
812,-104,46.2515,3.22192,0,0,0,0,0,0,0,-1,2036,1128,46.2514,-3.22198
-700,-111,0,0,0,0,0,0,0,0,0,-1,524,1135,0,0
-693,-111,-35.5639,3.52429,0,0,0,0,0,0,0,-1,531,1135,-35.5639,-3.52435
-686,-111,-35.5375,3.41711,0.073419,-0.0411165,-0.0577284,0.0974665,-0.0651639,-0.394702,0.0945101,0.0463492,538,1135,-35.5375,-3.41712
-679,-111,-35.4187,3.3147,0.0563927,-0.0257781,-0.0460389,0.0770129,-0.0463983,-0.421096,0.0719786,0.0437278,545,1135,-35.4187,-3.31475
-672,-111,-35.4432,3.07813,0.0429007,-0.0151299,-0.0364396,0.0604658,-0.032695,-0.449171,0.0545772,0.0441434,552,1135,-35.4433,-3.07809
-665,-111,-35.5067,2.74731,0.0319127,-0.00781,-0.0285237,0.0468088,-0.0227061,-0.481276,0.0409307,0.0458315,559,1135,-35.5067,-2.74732
-658,-111,-32.5818,0.641968,0,0,0,0,0,0,0,-1,566,1135,-32.5819,-0.641962
-651,-111,-32.5474,1.13403,0.0157969,0.000107289,-0.016628,0.0263377,-0.0104336,-0.564989,0.0218818,0.0436018,573,1135,-32.5474,-1.13403
-644,-111,-32.6381,1.70593,0.010406,0.00172986,-0.01225,0.0190634,-0.0069275,-0.615224,0.0155415,0.026767,580,1135,-32.6381,-1.70593
-637,-111,-32.7515,2.14331,0.00456743,0.00340124,-0.00787978,0.0118857,-0.00391699,-0.748466,0.00950246,0.0104637,587,1135,-32.7515,-2.14329
-630,-111,-32.7791,2.474,0.00175109,0.00396895,-0.0050729,0.00805271,-0.00233267,-0.893005,0.00629186,0.0200523,594,1135,-32.7791,-2.47402
-623,-111,-32.793,2.92371,0.00104,0.00230125,-0.00318389,0.00491637,-0.00157512,-0.883167,0.00390985,0.0168303,601,1135,-32.793,-2.9237
-616,-111,-33.0272,3.34119,0.00131844,0.00101325,-0.00147255,0.00264628,-0.00031459,-0.733768,0.00187785,0.0178348,608,1135,-33.0272,-3.34116
-609,-111,-33.2738,3.68274,0.00206584,0.000393464,-0.000233346,0.00209779,0.000361516,-0.136068,0.00129495,0.0296664,615,1135,-33.2738,-3.68279
-602,-111,-33.126,4.09497,0.00253326,0.000238349,0.000203365,0.00255114,0.000220467,0.0877048,0.00163224,0.0352966,622,1135,-33.1261,-4.09492
-595,-111,-32.8697,4.57056,0.00240952,0.000104444,0.000574562,0.00254479,-3.08327e-05,0.231231,0.0017069,0.018232,629,1135,-32.8697,-4.57061
-588,-111,-32.5731,5.14941,0,0,0,0,0,0,0,-1,636,1135,-32.573,-5.14936
-581,-111,-21.0555,3.14551,0,0,0,0,0,0,0,-1,643,1135,-21.0555,-3.14548
-574,-111,-36.7016,0.652588,0,0,0,0,0,0,0,-1,650,1135,-36.7016,-0.652562
-567,-111,-36.6859,0.760986,0.00251714,-0.000492803,0.00100712,0.00282303,-0.000798693,0.294874,0.00219719,0.038911,657,1135,-36.6859,-0.761039
-560,-111,-36.5101,0.851196,0.0024179,-0.000500161,0.00099446,0.00272458,-0.000806837,0.299131,0.00213673,0.0394326,664,1135,-36.5101,-0.851176
-553,-111,-36.5117,0.828369,0.00146377,-0.000494308,0.000533108,0.00159951,-0.000630043,0.249313,0.00132718,0.0439264,671,1135,-36.5117,-0.828342
-546,-111,-36.5901,0.811768,-7.02876e-05,-0.000567137,-0.000542029,0.000277534,-0.000914959,-0.570521,0.000720527,0.0402501,678,1135,-36.5902,-0.811756
-539,-111,-36.6595,0.873901,-0.00160098,-0.00103854,-0.00233261,0.00102974,-0.00366926,-0.845389,0.00285207,0.0380054,685,1135,-36.6596,-0.873842
-532,-111,-36.803,0.859863,-0.00287608,-0.0016808,-0.00426364,0.00202689,-0.00658377,-0.85503,0.00519824,0.0382745,692,1135,-36.803,-0.859914
-525,-111,-36.9288,0.852905,-0.00393508,-0.00234181,-0.00615651,0.00306939,-0.00934628,-0.849739,0.0074673,0.0372449,699,1135,-36.9288,-0.852943
-518,-111,0,0,0,0,0,0,0,0,0,-1,706,1135,0,0
-511,-111,0,0,0,0,0,0,0,0,0,-1,713,1135,0,0
-504,-111,0,0,0,0,0,0,0,0,0,-1,720,1135,0,0
-497,-111,0,0,0,0,0,0,0,0,0,-1,727,1135,0,0
-490,-111,0,0,0,0,0,0,0,0,0,-1,734,1135,0,0
-483,-111,0,0,0,0,0,0,0,0,0,-1,741,1135,0,0
-476,-111,0,0,0,0,0,0,0,0,0,-1,748,1135,0,0
-469,-111,0,0,0,0,0,0,0,0,0,-1,755,1135,0,0
-462,-111,0,0,0,0,0,0,0,0,0,-1,762,1135,0,0
-455,-111,0,0,0,0,0,0,0,0,0,-1,769,1135,0,0
-448,-111,0,0,0,0,0,0,0,0,0,-1,776,1135,0,0
-441,-111,0,0,0,0,0,0,0,0,0,-1,783,1135,0,0
-434,-111,0,0,0,0,0,0,0,0,0,-1,790,1135,0,0
-427,-111,0,0,0,0,0,0,0,0,0,-1,797,1135,0,0
-420,-111,0,0,0,0,0,0,0,0,0,-1,804,1135,0,0
-413,-111,0,0,0,0,0,0,0,0,0,-1,811,1135,0,0
-406,-111,0,0,0,0,0,0,0,0,0,-1,818,1135,0,0
-399,-111,0,0,0,0,0,0,0,0,0,-1,825,1135,0,0
-392,-111,0,0,0,0,0,0,0,0,0,-1,832,1135,0,0
-385,-111,0,0,0,0,0,0,0,0,0,-1,839,1135,0,0
-378,-111,0,0,0,0,0,0,0,0,0,-1,846,1135,0,0
-371,-111,0,0,0,0,0,0,0,0,0,-1,853,1135,0,0
-364,-111,0,0,0,0,0,0,0,0,0,-1,860,1135,0,0
-357,-111,0,0,0,0,0,0,0,0,0,-1,867,1135,0,0
-350,-111,0,0,0,0,0,0,0,0,0,-1,874,1135,0,0
-343,-111,0,0,0,0,0,0,0,0,0,-1,881,1135,0,0
-336,-111,0,0,0,0,0,0,0,0,0,-1,888,1135,0,0
-329,-111,0,0,0,0,0,0,0,0,0,-1,895,1135,0,0
-322,-111,0,0,0,0,0,0,0,0,0,-1,902,1135,0,0
-315,-111,0,0,0,0,0,0,0,0,0,-1,909,1135,0,0
-308,-111,0,0,0,0,0,0,0,0,0,-1,916,1135,0,0
-301,-111,0,0,0,0,0,0,0,0,0,-1,923,1135,0,0
-294,-111,0,0,0,0,0,0,0,0,0,-1,930,1135,0,0
-287,-111,0,0,0,0,0,0,0,0,0,-1,937,1135,0,0
-280,-111,0,0,0,0,0,0,0,0,0,-1,944,1135,0,0
-273,-111,0,0,0,0,0,0,0,0,0,-1,951,1135,0,0
-266,-111,0,0,0,0,0,0,0,0,0,-1,958,1135,0,0
-259,-111,0,0,0,0,0,0,0,0,0,-1,965,1135,0,0
-252,-111,0,0,0,0,0,0,0,0,0,-1,972,1135,0,0
-245,-111,0,0,0,0,0,0,0,0,0,-1,979,1135,0,0
-238,-111,0,0,0,0,0,0,0,0,0,-1,986,1135,0,0
-231,-111,0,0,0,0,0,0,0,0,0,-1,993,1135,0,0
-224,-111,0,0,0,0,0,0,0,0,0,-1,1000,1135,0,0
-217,-111,0,0,0,0,0,0,0,0,0,-1,1007,1135,0,0
-210,-111,0,0,0,0,0,0,0,0,0,-1,1014,1135,0,0
-203,-111,0,0,0,0,0,0,0,0,0,-1,1021,1135,0,0
-196,-111,0,0,0,0,0,0,0,0,0,-1,1028,1135,0,0
-189,-111,0,0,0,0,0,0,0,0,0,-1,1035,1135,0,0
-182,-111,0,0,0,0,0,0,0,0,0,-1,1042,1135,0,0
-175,-111,0,0,0,0,0,0,0,0,0,-1,1049,1135,0,0
-168,-111,0,0,0,0,0,0,0,0,0,-1,1056,1135,0,0
-161,-111,0,0,0,0,0,0,0,0,0,-1,1063,1135,0,0
-154,-111,0,0,0,0,0,0,0,0,0,-1,1070,1135,0,0
-147,-111,0,0,0,0,0,0,0,0,0,-1,1077,1135,0,0
-140,-111,0,0,0,0,0,0,0,0,0,-1,1084,1135,0,0
-133,-111,0,0,0,0,0,0,0,0,0,-1,1091,1135,0,0
-126,-111,0,0,0,0,0,0,0,0,0,-1,1098,1135,0,0
-119,-111,0,0,0,0,0,0,0,0,0,-1,1105,1135,0,0
-112,-111,0,0,0,0,0,0,0,0,0,-1,1112,1135,0,0
-105,-111,0,0,0,0,0,0,0,0,0,-1,1119,1135,0,0
-98,-111,0,0,0,0,0,0,0,0,0,-1,1126,1135,0,0
-91,-111,0,0,0,0,0,0,0,0,0,-1,1133,1135,0,0
-84,-111,0,0,0,0,0,0,0,0,0,-1,1140,1135,0,0
-77,-111,0,0,0,0,0,0,0,0,0,-1,1147,1135,0,0
-70,-111,0,0,0,0,0,0,0,0,0,-1,1154,1135,0,0
-63,-111,0,0,0,0,0,0,0,0,0,-1,1161,1135,0,0
-56,-111,0,0,0,0,0,0,0,0,0,-1,1168,1135,0,0
-49,-111,0,0,0,0,0,0,0,0,0,-1,1175,1135,0,0
-42,-111,0,0,0,0,0,0,0,0,0,-1,1182,1135,0,0
-35,-111,0,0,0,0,0,0,0,0,0,-1,1189,1135,0,0
-28,-111,0,0,0,0,0,0,0,0,0,-1,1196,1135,0,0
-21,-111,0,0,0,0,0,0,0,0,0,-1,1203,1135,0,0
-14,-111,0,0,0,0,0,0,0,0,0,-1,1210,1135,0,0
-7,-111,0,0,0,0,0,0,0,0,0,-1,1217,1135,0,0
0,-111,0,0,0,0,0,0,0,0,0,-1,1224,1135,0,0
7,-111,0,0,0,0,0,0,0,0,0,-1,1231,1135,0,0
14,-111,0,0,0,0,0,0,0,0,0,-1,1238,1135,0,0
21,-111,0,0,0,0,0,0,0,0,0,-1,1245,1135,0,0
28,-111,0,0,0,0,0,0,0,0,0,-1,1252,1135,0,0
35,-111,0,0,0,0,0,0,0,0,0,-1,1259,1135,0,0
42,-111,0,0,0,0,0,0,0,0,0,-1,1266,1135,0,0
49,-111,0,0,0,0,0,0,0,0,0,-1,1273,1135,0,0
56,-111,0,0,0,0,0,0,0,0,0,-1,1280,1135,0,0
63,-111,0,0,0,0,0,0,0,0,0,-1,1287,1135,0,0
70,-111,0,0,0,0,0,0,0,0,0,-1,1294,1135,0,0
77,-111,0,0,0,0,0,0,0,0,0,-1,1301,1135,0,0
84,-111,0,0,0,0,0,0,0,0,0,-1,1308,1135,0,0
91,-111,0,0,0,0,0,0,0,0,0,-1,1315,1135,0,0
98,-111,0,0,0,0,0,0,0,0,0,-1,1322,1135,0,0
105,-111,0,0,0,0,0,0,0,0,0,-1,1329,1135,0,0
112,-111,0,0,0,0,0,0,0,0,0,-1,1336,1135,0,0
119,-111,0,0,0,0,0,0,0,0,0,-1,1343,1135,0,0
126,-111,0,0,0,0,0,0,0,0,0,-1,1350,1135,0,0
133,-111,0,0,0,0,0,0,0,0,0,-1,1357,1135,0,0
140,-111,0,0,0,0,0,0,0,0,0,-1,1364,1135,0,0
147,-111,0,0,0,0,0,0,0,0,0,-1,1371,1135,0,0
154,-111,0,0,0,0,0,0,0,0,0,-1,1378,1135,0,0
161,-111,0,0,0,0,0,0,0,0,0,-1,1385,1135,0,0
168,-111,0,0,0,0,0,0,0,0,0,-1,1392,1135,0,0
175,-111,0,0,0,0,0,0,0,0,0,-1,1399,1135,0,0
182,-111,0,0,0,0,0,0,0,0,0,-1,1406,1135,0,0
189,-111,0,0,0,0,0,0,0,0,0,-1,1413,1135,0,0
196,-111,0,0,0,0,0,0,0,0,0,-1,1420,1135,0,0
203,-111,0,0,0,0,0,0,0,0,0,-1,1427,1135,0,0
210,-111,0,0,0,0,0,0,0,0,0,-1,1434,1135,0,0
217,-111,0,0,0,0,0,0,0,0,0,-1,1441,1135,0,0
224,-111,0,0,0,0,0,0,0,0,0,-1,1448,1135,0,0
231,-111,0,0,0,0,0,0,0,0,0,-1,1455,1135,0,0
238,-111,0,0,0,0,0,0,0,0,0,-1,1462,1135,0,0
245,-111,0,0,0,0,0,0,0,0,0,-1,1469,1135,0,0
252,-111,0,0,0,0,0,0,0,0,0,-1,1476,1135,0,0
259,-111,0,0,0,0,0,0,0,0,0,-1,1483,1135,0,0
266,-111,0,0,0,0,0,0,0,0,0,-1,1490,1135,0,0
273,-111,0,0,0,0,0,0,0,0,0,-1,1497,1135,0,0
280,-111,0,0,0,0,0,0,0,0,0,-1,1504,1135,0,0
287,-111,0,0,0,0,0,0,0,0,0,-1,1511,1135,0,0
294,-111,0,0,0,0,0,0,0,0,0,-1,1518,1135,0,0
301,-111,0,0,0,0,0,0,0,0,0,-1,1525,1135,0,0
308,-111,0,0,0,0,0,0,0,0,0,-1,1532,1135,0,0
315,-111,0,0,0,0,0,0,0,0,0,-1,1539,1135,0,0
322,-111,0,0,0,0,0,0,0,0,0,-1,1546,1135,0,0
329,-111,0,0,0,0,0,0,0,0,0,-1,1553,1135,0,0
336,-111,0,0,0,0,0,0,0,0,0,-1,1560,1135,0,0
343,-111,0,0,0,0,0,0,0,0,0,-1,1567,1135,0,0
350,-111,0,0,0,0,0,0,0,0,0,-1,1574,1135,0,0
357,-111,0,0,0,0,0,0,0,0,0,-1,1581,1135,0,0
364,-111,0,0,0,0,0,0,0,0,0,-1,1588,1135,0,0
371,-111,0,0,0,0,0,0,0,0,0,-1,1595,1135,0,0
378,-111,0,0,0,0,0,0,0,0,0,-1,1602,1135,0,0
385,-111,0,0,0,0,0,0,0,0,0,-1,1609,1135,0,0
392,-111,0,0,0,0,0,0,0,0,0,-1,1616,1135,0,0
399,-111,0,0,0,0,0,0,0,0,0,-1,1623,1135,0,0
406,-111,0,0,0,0,0,0,0,0,0,-1,1630,1135,0,0
413,-111,0,0,0,0,0,0,0,0,0,-1,1637,1135,0,0
420,-111,0,0,0,0,0,0,0,0,0,-1,1644,1135,0,0
427,-111,0,0,0,0,0,0,0,0,0,-1,1651,1135,0,0
434,-111,0,0,0,0,0,0,0,0,0,-1,1658,1135,0,0
441,-111,0,0,0,0,0,0,0,0,0,-1,1665,1135,0,0
448,-111,0,0,0,0,0,0,0,0,0,-1,1672,1135,0,0
455,-111,0,0,0,0,0,0,0,0,0,-1,1679,1135,0,0
462,-111,0,0,0,0,0,0,0,0,0,-1,1686,1135,0,0
469,-111,0,0,0,0,0,0,0,0,0,-1,1693,1135,0,0
476,-111,0,0,0,0,0,0,0,0,0,-1,1700,1135,0,0
483,-111,0,0,0,0,0,0,0,0,0,-1,1707,1135,0,0
490,-111,0,0,0,0,0,0,0,0,0,-1,1714,1135,0,0
497,-111,0,0,0,0,0,0,0,0,0,-1,1721,1135,0,0
504,-111,0,0,0,0,0,0,0,0,0,-1,1728,1135,0,0
511,-111,0,0,0,0,0,0,0,0,0,-1,1735,1135,0,0
518,-111,0,0,0,0,0,0,0,0,0,-1,1742,1135,0,0
525,-111,0,0,0,0,0,0,0,0,0,-1,1749,1135,0,0
532,-111,0,0,0,0,0,0,0,0,0,-1,1756,1135,0,0
539,-111,0,0,0,0,0,0,0,0,0,-1,1763,1135,0,0
546,-111,0,0,0,0,0,0,0,0,0,-1,1770,1135,0,0
553,-111,0,0,0,0,0,0,0,0,0,-1,1777,1135,0,0
560,-111,0,0,0,0,0,0,0,0,0,-1,1784,1135,0,0
567,-111,0,0,0,0,0,0,0,0,0,-1,1791,1135,0,0
574,-111,0,0,0,0,0,0,0,0,0,-1,1798,1135,0,0
581,-111,0,0,0,0,0,0,0,0,0,-1,1805,1135,0,0
588,-111,0,0,0,0,0,0,0,0,0,-1,1812,1135,0,0
595,-111,0,0,0,0,0,0,0,0,0,-1,1819,1135,0,0
602,-111,0,0,0,0,0,0,0,0,0,-1,1826,1135,0,0
609,-111,0,0,0,0,0,0,0,0,0,-1,1833,1135,0,0
616,-111,0,0,0,0,0,0,0,0,0,-1,1840,1135,0,0
623,-111,0,0,0,0,0,0,0,0,0,-1,1847,1135,0,0
630,-111,0,0,0,0,0,0,0,0,0,-1,1854,1135,0,0
637,-111,0,0,0,0,0,0,0,0,0,-1,1861,1135,0,0
644,-111,49.089,3.33716,0,0,0,0,0,0,0,-1,1868,1135,49.089,-3.33721
651,-111,49.3566,2.99194,0.00042582,-0.000179915,0.000597073,0.000792449,-0.000546543,0.550681,0.000777401,0.0389223,1875,1135,49.3566,-2.99198
658,-111,49.6665,2.50806,0.000467641,-0.000386615,0.00038583,0.000616102,-0.000535076,0.367321,0.000665182,0.0415507,1882,1135,49.6665,-2.50805
665,-111,49.5913,2.62659,0.00051991,-0.000435326,0.000213013,0.000565258,-0.000480674,0.209758,0.000604527,0.046352,1889,1135,49.5913,-2.62659
672,-111,49.5391,2.73572,0.000556654,-0.000371673,7.45189e-05,0.000562598,-0.000377617,0.079593,0.000546324,0.0455555,1896,1135,49.539,-2.73574
679,-111,49.4001,2.82251,0.000287914,-0.000434007,9.60109e-05,0.000300464,-0.000446558,0.129984,0.000434034,0.0392847,1903,1135,49.4001,-2.82255
686,-111,49.3988,2.72681,7.27105e-05,-0.000581474,0.000159689,0.00010961,-0.000618373,0.227084,0.000453225,0.0382584,1910,1135,49.3988,-2.72678
693,-111,49.4308,2.64722,-4.22652e-05,-0.000743987,0.000229109,2.59134e-05,-0.000812166,0.289237,0.000550285,0.038392,1917,1135,49.4308,-2.64716
700,-111,49.5317,2.65332,-7.06314e-05,-0.000844338,0.000283909,2.23692e-05,-0.000937339,0.316556,0.000632481,0.0293528,1924,1135,49.5317,-2.65328
707,-111,49.5027,2.65369,0,0,0,0,0,0,0,-1,1931,1135,49.5027,-2.65371
714,-111,45.1654,7.39746,0,0,0,0,0,0,0,-1,1938,1135,45.1654,-7.39745
721,-111,45.4961,7.42163,0,0,0,0,0,0,0,-1,1945,1135,45.496,-7.42158
728,-111,45.5894,6.95166,-0.000964468,-0.000264992,0.00126712,0.000699767,-0.00192923,0.920051,0.0015722,0.0230204,1952,1135,45.5894,-6.9516
735,-111,45.6129,6.63098,-0.000690787,4.80707e-05,0.00165312,0.00137254,-0.00201525,0.895329,0.00196764,0.023898,1959,1135,45.6129,-6.63103
742,-111,45.5272,6.32715,-0.000447537,0.00103379,0.00243142,0.00283486,-0.00224861,0.933244,0.00294144,0.0156842,1966,1135,45.5273,-6.3271
749,-111,45.48,5.93677,-0.000234002,0.00223128,0.00328764,0.00450977,-0.00251249,0.964754,0.0041086,0.0173285,1973,1135,45.48,-5.93677
756,-111,45.4753,5.57861,5.81459e-05,0.00444155,0.00437119,0.00713972,-0.00264002,1.01778,0.00584216,0.0172285,1980,1135,45.4753,-5.5786
763,-111,45.4777,5.27124,0.00097034,0.00776339,0.0059861,0.0112494,-0.00251571,1.04345,0.00846375,0.0151203,1987,1135,45.4777,-5.27124
770,-111,45.4622,4.90601,0.00194392,0.0120252,0.00808463,0.0165118,-0.00254273,1.06415,0.011946,0.0126646,1994,1135,45.4622,-4.90603
777,-111,45.3005,4.59192,0.00270409,0.0171617,0.0106236,0.0227827,-0.00291689,1.08414,0.0162483,0.0256754,2001,1135,45.3005,-4.59197
784,-111,45.3425,4.23486,0.00293704,0.0234912,0.0138244,0.0304401,-0.00401181,1.10503,0.0217543,0.0429005,2008,1135,45.3426,-4.23481
791,-111,45.4382,3.85889,0,0,0,0,0,0,0,-1,2015,1135,45.4381,-3.85891
798,-111,45.5454,3.36316,0,0,0,0,0,0,0,-1,2022,1135,45.5454,-3.36318
805,-111,45.948,2.8114,0,0,0,0,0,0,0,-1,2029,1135,45.9481,-2.81134
812,-111,46.3918,2.97168,0,0,0,0,0,0,0,-1,2036,1135,46.3918,-2.97169
-700,-118,0,0,0,0,0,0,0,0,0,-1,524,1142,0,0
-693,-118,-35.8993,4.44666,0,0,0,0,0,0,0,-1,531,1142,-35.8993,-4.44669
-686,-118,-35.376,4.27661,0.070275,-0.0422565,-0.0692307,0.103221,-0.0752025,-0.444171,0.103435,0.049788,538,1142,-35.376,-4.27663
-679,-118,-35.0248,4.00134,0.0538103,-0.0259324,-0.0553973,0.0821928,-0.0543149,-0.473474,0.0793587,0.0452087,545,1142,-35.0248,-4.00138
-672,-118,-34.9975,3.30725,0.0408551,-0.0147213,-0.0438555,0.064985,-0.0388512,-0.503007,0.0605795,0.0447552,552,1142,-34.9975,-3.30727
-665,-118,-34.7443,2.56689,0.0303691,-0.00713302,-0.0342376,0.0506542,-0.0274181,-0.534871,0.0457356,0.0474062,559,1142,-34.7443,-2.56693
-658,-118,-32.0291,0.717407,0,0,0,0,0,0,0,-1,566,1142,-32.0291,-0.717428
-651,-118,-32.0126,1.23352,0.0148491,0.000867264,-0.0197014,0.0287631,-0.0130468,-0.614906,0.0247009,0.0462838,573,1142,-32.0125,-1.2335
-644,-118,-32.1161,1.74011,0.00957368,0.00243377,-0.0143467,0.0207879,-0.00878046,-0.663457,0.0175342,0.0323202,580,1142,-32.1161,-1.74009
-637,-118,-32.3019,2.17065,0.00405663,0.00391613,-0.00926048,0.0132471,-0.00527437,-0.781605,0.0110187,0.016516,587,1142,-32.3019,-2.17068
-630,-118,-32.3501,2.54663,0.00134567,0.00439092,-0.00580891,0.00887344,-0.00313686,-0.913574,0.00719298,0.0224885,594,1142,-32.3501,-2.54658
-623,-118,-32.3446,2.95874,0.000671514,0.00261277,-0.00334515,0.00512526,-0.00184098,-0.9266,0.0041683,0.0181114,601,1142,-32.3446,-2.95878
-616,-118,-32.4488,3.33655,0.00105086,0.00127714,-0.00135138,0.00252011,-0.0001921,-0.827161,0.00174763,0.0212521,608,1142,-32.4488,-3.33652
-609,-118,-32.6671,3.54907,0.00177509,0.000746209,-4.23163e-05,0.00177682,0.000744471,-0.0410362,0.00103033,0.0361467,615,1142,-32.6671,-3.54906
-602,-118,-32.5406,4.20374,0.00214348,0.000680989,0.000465652,0.00227916,0.000545314,0.283517,0.00137422,0.0352184,622,1142,-32.5407,-4.20378
-595,-118,-32.5793,4.51624,0.00193845,0.000544631,0.000877668,0.00236224,0.000120833,0.449849,0.00153614,0.0282386,629,1142,-32.5793,-4.5162
-588,-118,-32.0262,5.22986,0,0,0,0,0,0,0,-1,636,1142,-32.0262,-5.22991
-581,-118,-24.6116,3.89648,0,0,0,0,0,0,0,-1,643,1142,-24.6116,-3.89645
-574,-118,-36.6462,0.462036,0,0,0,0,0,0,0,-1,650,1142,-36.6462,-0.461984
-567,-118,-36.6667,0.706909,0.00205951,-6.55563e-05,0.00131044,0.00268405,-0.000690098,0.444745,0.00205833,0.0409846,657,1142,-36.6667,-0.706883
-560,-118,-36.6349,0.904785,0.00208169,-7.66657e-05,0.00137239,0.00274839,-0.000743366,0.452218,0.00212386,0.0359961,664,1142,-36.6349,-0.904774
-553,-118,-36.5802,0.862427,0.00127757,-8.16156e-05,0.000950594,0.00176651,-0.000570559,0.475066,0.00140697,0.0385075,671,1142,-36.5802,-0.862422
-546,-118,-36.5541,0.907227,-6.42501e-05,-0.000222668,-0.000188965,6.14357e-05,-0.000348354,-0.586936,0.000255191,0.0392394,678,1142,-36.5542,-0.907271
-539,-118,-36.7768,1.14221,-0.00152773,-0.000708444,-0.00218611,0.00110607,-0.00334224,-0.878016,0.00267422,0.0400321,685,1142,-36.7768,-1.14221
-532,-118,-36.8523,1.00757,-0.00274469,-0.00134624,-0.0044228,0.00243226,-0.0065232,-0.863797,0.00534724,0.0409808,692,1142,-36.8523,-1.00756
-525,-118,-36.8281,1.0553,-0.00374772,-0.00191438,-0.00662651,0.00385857,-0.00952067,-0.854129,0.00795174,0.0425148,699,1142,-36.8281,-1.05527
-518,-118,0,0,0,0,0,0,0,0,0,-1,706,1142,0,0
-511,-118,0,0,0,0,0,0,0,0,0,-1,713,1142,0,0
-504,-118,0,0,0,0,0,0,0,0,0,-1,720,1142,0,0
-497,-118,0,0,0,0,0,0,0,0,0,-1,727,1142,0,0
-490,-118,0,0,0,0,0,0,0,0,0,-1,734,1142,0,0
-483,-118,0,0,0,0,0,0,0,0,0,-1,741,1142,0,0
-476,-118,0,0,0,0,0,0,0,0,0,-1,748,1142,0,0
-469,-118,0,0,0,0,0,0,0,0,0,-1,755,1142,0,0
-462,-118,0,0,0,0,0,0,0,0,0,-1,762,1142,0,0
-455,-118,0,0,0,0,0,0,0,0,0,-1,769,1142,0,0
-448,-118,0,0,0,0,0,0,0,0,0,-1,776,1142,0,0
-441,-118,0,0,0,0,0,0,0,0,0,-1,783,1142,0,0
-434,-118,0,0,0,0,0,0,0,0,0,-1,790,1142,0,0
-427,-118,0,0,0,0,0,0,0,0,0,-1,797,1142,0,0
-420,-118,0,0,0,0,0,0,0,0,0,-1,804,1142,0,0
-413,-118,0,0,0,0,0,0,0,0,0,-1,811,1142,0,0
-406,-118,0,0,0,0,0,0,0,0,0,-1,818,1142,0,0
-399,-118,0,0,0,0,0,0,0,0,0,-1,825,1142,0,0
-392,-118,0,0,0,0,0,0,0,0,0,-1,832,1142,0,0
-385,-118,0,0,0,0,0,0,0,0,0,-1,839,1142,0,0
-378,-118,0,0,0,0,0,0,0,0,0,-1,846,1142,0,0
-371,-118,0,0,0,0,0,0,0,0,0,-1,853,1142,0,0
-364,-118,0,0,0,0,0,0,0,0,0,-1,860,1142,0,0
-357,-118,0,0,0,0,0,0,0,0,0,-1,867,1142,0,0
-350,-118,0,0,0,0,0,0,0,0,0,-1,874,1142,0,0
-343,-118,0,0,0,0,0,0,0,0,0,-1,881,1142,0,0
-336,-118,0,0,0,0,0,0,0,0,0,-1,888,1142,0,0
-329,-118,0,0,0,0,0,0,0,0,0,-1,895,1142,0,0
-322,-118,0,0,0,0,0,0,0,0,0,-1,902,1142,0,0
-315,-118,0,0,0,0,0,0,0,0,0,-1,909,1142,0,0
-308,-118,0,0,0,0,0,0,0,0,0,-1,916,1142,0,0
-301,-118,0,0,0,0,0,0,0,0,0,-1,923,1142,0,0
-294,-118,0,0,0,0,0,0,0,0,0,-1,930,1142,0,0
-287,-118,0,0,0,0,0,0,0,0,0,-1,937,1142,0,0
-280,-118,0,0,0,0,0,0,0,0,0,-1,944,1142,0,0
-273,-118,0,0,0,0,0,0,0,0,0,-1,951,1142,0,0
-266,-118,0,0,0,0,0,0,0,0,0,-1,958,1142,0,0
-259,-118,0,0,0,0,0,0,0,0,0,-1,965,1142,0,0
-252,-118,0,0,0,0,0,0,0,0,0,-1,972,1142,0,0
-245,-118,0,0,0,0,0,0,0,0,0,-1,979,1142,0,0
-238,-118,0,0,0,0,0,0,0,0,0,-1,986,1142,0,0
-231,-118,0,0,0,0,0,0,0,0,0,-1,993,1142,0,0
-224,-118,0,0,0,0,0,0,0,0,0,-1,1000,1142,0,0
-217,-118,0,0,0,0,0,0,0,0,0,-1,1007,1142,0,0
-210,-118,0,0,0,0,0,0,0,0,0,-1,1014,1142,0,0
-203,-118,0,0,0,0,0,0,0,0,0,-1,1021,1142,0,0
-196,-118,0,0,0,0,0,0,0,0,0,-1,1028,1142,0,0
-189,-118,0,0,0,0,0,0,0,0,0,-1,1035,1142,0,0
-182,-118,0,0,0,0,0,0,0,0,0,-1,1042,1142,0,0
-175,-118,0,0,0,0,0,0,0,0,0,-1,1049,1142,0,0
-168,-118,0,0,0,0,0,0,0,0,0,-1,1056,1142,0,0
-161,-118,0,0,0,0,0,0,0,0,0,-1,1063,1142,0,0
-154,-118,0,0,0,0,0,0,0,0,0,-1,1070,1142,0,0
-147,-118,0,0,0,0,0,0,0,0,0,-1,1077,1142,0,0
-140,-118,0,0,0,0,0,0,0,0,0,-1,1084,1142,0,0
-133,-118,0,0,0,0,0,0,0,0,0,-1,1091,1142,0,0
-126,-118,0,0,0,0,0,0,0,0,0,-1,1098,1142,0,0
-119,-118,0,0,0,0,0,0,0,0,0,-1,1105,1142,0,0
-112,-118,0,0,0,0,0,0,0,0,0,-1,1112,1142,0,0
-105,-118,0,0,0,0,0,0,0,0,0,-1,1119,1142,0,0
-98,-118,0,0,0,0,0,0,0,0,0,-1,1126,1142,0,0
-91,-118,0,0,0,0,0,0,0,0,0,-1,1133,1142,0,0
-84,-118,0,0,0,0,0,0,0,0,0,-1,1140,1142,0,0
-77,-118,0,0,0,0,0,0,0,0,0,-1,1147,1142,0,0
-70,-118,0,0,0,0,0,0,0,0,0,-1,1154,1142,0,0
-63,-118,0,0,0,0,0,0,0,0,0,-1,1161,1142,0,0
-56,-118,0,0,0,0,0,0,0,0,0,-1,1168,1142,0,0
-49,-118,0,0,0,0,0,0,0,0,0,-1,1175,1142,0,0
-42,-118,0,0,0,0,0,0,0,0,0,-1,1182,1142,0,0
-35,-118,0,0,0,0,0,0,0,0,0,-1,1189,1142,0,0
-28,-118,0,0,0,0,0,0,0,0,0,-1,1196,1142,0,0
-21,-118,0,0,0,0,0,0,0,0,0,-1,1203,1142,0,0
-14,-118,0,0,0,0,0,0,0,0,0,-1,1210,1142,0,0
-7,-118,0,0,0,0,0,0,0,0,0,-1,1217,1142,0,0
0,-118,0,0,0,0,0,0,0,0,0,-1,1224,1142,0,0
7,-118,0,0,0,0,0,0,0,0,0,-1,1231,1142,0,0
14,-118,0,0,0,0,0,0,0,0,0,-1,1238,1142,0,0
21,-118,0,0,0,0,0,0,0,0,0,-1,1245,1142,0,0
28,-118,0,0,0,0,0,0,0,0,0,-1,1252,1142,0,0
35,-118,0,0,0,0,0,0,0,0,0,-1,1259,1142,0,0
42,-118,0,0,0,0,0,0,0,0,0,-1,1266,1142,0,0
49,-118,0,0,0,0,0,0,0,0,0,-1,1273,1142,0,0
56,-118,0,0,0,0,0,0,0,0,0,-1,1280,1142,0,0
63,-118,0,0,0,0,0,0,0,0,0,-1,1287,1142,0,0
70,-118,0,0,0,0,0,0,0,0,0,-1,1294,1142,0,0
77,-118,0,0,0,0,0,0,0,0,0,-1,1301,1142,0,0
84,-118,0,0,0,0,0,0,0,0,0,-1,1308,1142,0,0
91,-118,0,0,0,0,0,0,0,0,0,-1,1315,1142,0,0
98,-118,0,0,0,0,0,0,0,0,0,-1,1322,1142,0,0
105,-118,0,0,0,0,0,0,0,0,0,-1,1329,1142,0,0
112,-118,0,0,0,0,0,0,0,0,0,-1,1336,1142,0,0
119,-118,0,0,0,0,0,0,0,0,0,-1,1343,1142,0,0
126,-118,0,0,0,0,0,0,0,0,0,-1,1350,1142,0,0
133,-118,0,0,0,0,0,0,0,0,0,-1,1357,1142,0,0
140,-118,0,0,0,0,0,0,0,0,0,-1,1364,1142,0,0
147,-118,0,0,0,0,0,0,0,0,0,-1,1371,1142,0,0
154,-118,0,0,0,0,0,0,0,0,0,-1,1378,1142,0,0
161,-118,0,0,0,0,0,0,0,0,0,-1,1385,1142,0,0
168,-118,0,0,0,0,0,0,0,0,0,-1,1392,1142,0,0
175,-118,0,0,0,0,0,0,0,0,0,-1,1399,1142,0,0
182,-118,0,0,0,0,0,0,0,0,0,-1,1406,1142,0,0
189,-118,0,0,0,0,0,0,0,0,0,-1,1413,1142,0,0
196,-118,0,0,0,0,0,0,0,0,0,-1,1420,1142,0,0
203,-118,0,0,0,0,0,0,0,0,0,-1,1427,1142,0,0
210,-118,0,0,0,0,0,0,0,0,0,-1,1434,1142,0,0
217,-118,0,0,0,0,0,0,0,0,0,-1,1441,1142,0,0
224,-118,0,0,0,0,0,0,0,0,0,-1,1448,1142,0,0
231,-118,0,0,0,0,0,0,0,0,0,-1,1455,1142,0,0
238,-118,0,0,0,0,0,0,0,0,0,-1,1462,1142,0,0
245,-118,0,0,0,0,0,0,0,0,0,-1,1469,1142,0,0
252,-118,0,0,0,0,0,0,0,0,0,-1,1476,1142,0,0
259,-118,0,0,0,0,0,0,0,0,0,-1,1483,1142,0,0
266,-118,0,0,0,0,0,0,0,0,0,-1,1490,1142,0,0
273,-118,0,0,0,0,0,0,0,0,0,-1,1497,1142,0,0
280,-118,0,0,0,0,0,0,0,0,0,-1,1504,1142,0,0
287,-118,0,0,0,0,0,0,0,0,0,-1,1511,1142,0,0
294,-118,0,0,0,0,0,0,0,0,0,-1,1518,1142,0,0
301,-118,0,0,0,0,0,0,0,0,0,-1,1525,1142,0,0
308,-118,0,0,0,0,0,0,0,0,0,-1,1532,1142,0,0
315,-118,0,0,0,0,0,0,0,0,0,-1,1539,1142,0,0
322,-118,0,0,0,0,0,0,0,0,0,-1,1546,1142,0,0
329,-118,0,0,0,0,0,0,0,0,0,-1,1553,1142,0,0
336,-118,0,0,0,0,0,0,0,0,0,-1,1560,1142,0,0
343,-118,0,0,0,0,0,0,0,0,0,-1,1567,1142,0,0
350,-118,0,0,0,0,0,0,0,0,0,-1,1574,1142,0,0
357,-118,0,0,0,0,0,0,0,0,0,-1,1581,1142,0,0
364,-118,0,0,0,0,0,0,0,0,0,-1,1588,1142,0,0
371,-118,0,0,0,0,0,0,0,0,0,-1,1595,1142,0,0
378,-118,0,0,0,0,0,0,0,0,0,-1,1602,1142,0,0
385,-118,0,0,0,0,0,0,0,0,0,-1,1609,1142,0,0
392,-118,0,0,0,0,0,0,0,0,0,-1,1616,1142,0,0
399,-118,0,0,0,0,0,0,0,0,0,-1,1623,1142,0,0
406,-118,0,0,0,0,0,0,0,0,0,-1,1630,1142,0,0
413,-118,0,0,0,0,0,0,0,0,0,-1,1637,1142,0,0
420,-118,0,0,0,0,0,0,0,0,0,-1,1644,1142,0,0
427,-118,0,0,0,0,0,0,0,0,0,-1,1651,1142,0,0
434,-118,0,0,0,0,0,0,0,0,0,-1,1658,1142,0,0
441,-118,0,0,0,0,0,0,0,0,0,-1,1665,1142,0,0
448,-118,0,0,0,0,0,0,0,0,0,-1,1672,1142,0,0
455,-118,0,0,0,0,0,0,0,0,0,-1,1679,1142,0,0
462,-118,0,0,0,0,0,0,0,0,0,-1,1686,1142,0,0
469,-118,0,0,0,0,0,0,0,0,0,-1,1693,1142,0,0
476,-118,0,0,0,0,0,0,0,0,0,-1,1700,1142,0,0
483,-118,0,0,0,0,0,0,0,0,0,-1,1707,1142,0,0
490,-118,0,0,0,0,0,0,0,0,0,-1,1714,1142,0,0
497,-118,0,0,0,0,0,0,0,0,0,-1,1721,1142,0,0
504,-118,0,0,0,0,0,0,0,0,0,-1,1728,1142,0,0
511,-118,0,0,0,0,0,0,0,0,0,-1,1735,1142,0,0
518,-118,0,0,0,0,0,0,0,0,0,-1,1742,1142,0,0
525,-118,0,0,0,0,0,0,0,0,0,-1,1749,1142,0,0
532,-118,0,0,0,0,0,0,0,0,0,-1,1756,1142,0,0
539,-118,0,0,0,0,0,0,0,0,0,-1,1763,1142,0,0
546,-118,0,0,0,0,0,0,0,0,0,-1,1770,1142,0,0
553,-118,0,0,0,0,0,0,0,0,0,-1,1777,1142,0,0
560,-118,0,0,0,0,0,0,0,0,0,-1,1784,1142,0,0
567,-118,0,0,0,0,0,0,0,0,0,-1,1791,1142,0,0
574,-118,0,0,0,0,0,0,0,0,0,-1,1798,1142,0,0
581,-118,0,0,0,0,0,0,0,0,0,-1,1805,1142,0,0
588,-118,0,0,0,0,0,0,0,0,0,-1,1812,1142,0,0
595,-118,0,0,0,0,0,0,0,0,0,-1,1819,1142,0,0
602,-118,0,0,0,0,0,0,0,0,0,-1,1826,1142,0,0
609,-118,0,0,0,0,0,0,0,0,0,-1,1833,1142,0,0
616,-118,0,0,0,0,0,0,0,0,0,-1,1840,1142,0,0
623,-118,0,0,0,0,0,0,0,0,0,-1,1847,1142,0,0
630,-118,0,0,0,0,0,0,0,0,0,-1,1854,1142,0,0
637,-118,0,0,0,0,0,0,0,0,0,-1,1861,1142,0,0
644,-118,49.4489,2.85193,0.000458515,0.000801821,0.00216027,0.00279724,-0.00153691,0.825044,0.00253734,0.0402158,1868,1142,49.4489,-2.85199
651,-118,49.4368,2.94055,0.000210802,0.000241238,0.00141624,0.00164234,-0.0011903,0.790771,0.00164236,0.0393288,1875,1142,49.4368,-2.94056
658,-118,49.538,2.8092,0.000313225,-5.32241e-05,0.000905203,0.00105356,-0.00079356,0.685541,0.00106995,0.0404038,1882,1142,49.5379,-2.8092
665,-118,49.6356,2.81726,0.000452687,-0.000184287,0.000480693,0.000710828,-0.000442428,0.492822,0.000671816,0.0451652,1889,1142,49.6356,-2.81724
672,-118,49.5272,2.75769,0.000549017,-0.000194755,0.000153623,0.000579498,-0.000225236,0.195871,0.000479385,0.0471768,1896,1142,49.5272,-2.75768
679,-118,49.392,2.75769,0.000328958,-0.000325691,9.12574e-05,0.000341441,-0.000338174,0.135947,0.000392377,0.0418591,1903,1142,49.392,-2.7577
686,-118,49.3817,2.73425,0.000141771,-0.000506262,0.000110288,0.000160027,-0.000524518,0.164039,0.000413476,0.0374142,1910,1142,49.3817,-2.73427
693,-118,49.3993,2.66418,1.65436e-05,-0.000672639,0.000141894,4.46143e-05,-0.00070071,0.195308,0.000482699,0.0359504,1917,1142,49.3993,-2.66422
700,-118,49.5059,2.68127,1.19386e-05,-0.000786088,0.000160283,4.29281e-05,-0.000817077,0.190985,0.000559577,0.0231317,1924,1142,49.5058,-2.68123
707,-118,49.5718,2.78491,0,0,0,0,0,0,0,-1,1931,1142,49.5717,-2.78494
714,-118,44.8718,7.72693,0,0,0,0,0,0,0,-1,1938,1142,44.8719,-7.72694
721,-118,45.184,7.46973,0,0,0,0,0,0,0,-1,1945,1142,45.1839,-7.46971
728,-118,45.2029,7.07202,-0.000857565,-0.000291842,0.00117841,0.000637176,-0.00178658,0.903188,0.00145086,0.019947,1952,1142,45.2028,-7.07202
735,-118,45.1741,6.72644,-0.000455026,7.33626e-05,0.00152142,0.00135336,-0.00173502,0.871366,0.00178761,0.0196093,1959,1142,45.1741,-6.72648
742,-118,45.1321,6.41138,-7.50497e-05,0.0010679,0.00229212,0.00285871,-0.00186586,0.907569,0.00274773,0.0271309,1966,1142,45.1321,-6.41141
749,-118,45.0913,5.98938,0.000281074,0.00238538,0.00316216,0.00466584,-0.00199939,0.946003,0.00394948,0.0226914,1973,1142,45.0912,-5.98941
756,-118,45.0994,5.57568,0.000816934,0.00491013,0.00428151,0.00760904,-0.00188198,1.00835,0.00580266,0.019393,1980,1142,45.0994,-5.57574
763,-118,45.1326,5.2572,0.00214565,0.00864417,0.00596888,0.0121909,-0.00140107,1.03465,0.00863226,0.0110792,1987,1142,45.1326,-5.25718
770,-118,45.0537,4.91077,0.00349678,0.0133519,0.00811186,0.0179155,-0.00106688,1.05834,0.0123147,0.0135253,1994,1142,45.0538,-4.91074
777,-118,44.9246,4.64575,0.00457486,0.018987,0.0106949,0.024677,-0.00111509,1.08186,0.0168353,0.0295807,2001,1142,44.9246,-4.64577
784,-118,45.2004,4.52844,0.00508881,0.0258735,0.0139222,0.0328543,-0.00189204,1.10601,0.02256,0.0459259,2008,1142,45.2005,-4.52847
791,-118,45.5142,4.48694,0,0,0,0,0,0,0,-1,2015,1142,45.5141,-4.48696
798,-118,44.9595,3.35559,0,0,0,0,0,0,0,-1,2022,1142,44.9595,-3.3556
805,-118,45.1399,2.11377,0,0,0,0,0,0,0,-1,2029,1142,45.1399,-2.11381
812,-118,46.5322,2.72144,0,0,0,0,0,0,0,-1,2036,1142,46.5322,-2.7214
-700,-125,0,0,0,0,0,0,0,0,0,-1,524,1149,0,0
-693,-125,-35.4011,5.6687,0.0874475,-0.0680673,-0.0989476,0.135535,-0.116154,-0.452373,0.145456,0.0461841,531,1149,-35.4011,-5.66865
-686,-125,-34.5952,5.06604,0.0672067,-0.0422323,-0.0802203,0.109593,-0.0846186,-0.486087,0.112437,0.0460315,538,1149,-34.5952,-5.06607
-679,-125,-33.6362,2.94763,0,0,0,0,0,0,0,-1,545,1149,-33.6362,-2.94766
-672,-125,-33.7712,2.69641,0.0390557,-0.0134308,-0.0506675,0.069873,-0.0442481,-0.546446,0.0664392,0.0468525,552,1149,-33.7712,-2.69647
-665,-125,-33.9014,2.40625,0.0291119,-0.00573313,-0.0392974,0.0546758,-0.031297,-0.576743,0.0502444,0.0444855,559,1149,-33.9014,-2.40626
-658,-125,-31.7891,1.00366,0,0,0,0,0,0,0,-1,566,1149,-31.7891,-1.00368
-651,-125,-31.703,1.43542,0.0142199,0.00201851,-0.0221289,0.0310736,-0.0148352,-0.650895,0.0270525,0.0444586,573,1149,-31.703,-1.43544
-644,-125,-31.7159,1.8103,0.00908356,0.00338274,-0.0158378,0.0223254,-0.00985909,-0.696364,0.0190407,0.0309829,580,1149,-31.7159,-1.81028
-637,-125,-31.8567,2.15649,0.00391796,0.00455772,-0.0100827,0.0143256,-0.0058499,-0.801256,0.011986,0.0142853,587,1149,-31.8567,-2.15655
-630,-125,-31.8907,2.56897,0.00131723,0.00479619,-0.00608502,0.00938548,-0.00327206,-0.924617,0.00758664,0.0148986,594,1149,-31.8907,-2.56892
-623,-125,-31.903,2.99084,0.000608595,0.00280966,-0.00322146,0.00511338,-0.00169513,-0.949996,0.0040927,0.0133404,601,1149,-31.903,-2.9908
-616,-125,-31.9122,3.36377,0.000954154,0.00137177,-0.001075,0.00225806,6.78708e-05,-0.881325,0.00148327,0.0223796,608,1149,-31.9122,-3.3638
-609,-125,-32.0455,3.65356,0.00157252,0.000947841,0.000182641,0.001622,0.00089836,0.264567,0.000938269,0.0425617,615,1149,-32.0455,-3.65354
-602,-125,-32.0764,4.224,0.00177969,0.000935083,0.000717026,0.00218954,0.000525242,0.519264,0.00131992,0.0345991,622,1149,-32.0763,-4.22396
-595,-125,-32.2962,4.78674,0,0,0,0,0,0,0,-1,629,1149,-32.2962,-4.78677
-588,-125,-31.9404,5.16138,0,0,0,0,0,0,0,-1,636,1149,-31.9404,-5.16142
-581,-125,-26.4055,4.83203,0,0,0,0,0,0,0,-1,643,1149,-26.4055,-4.83204
-574,-125,-36.7197,0.502319,0,0,0,0,0,0,0,-1,650,1149,-36.7197,-0.502338
-567,-125,-36.671,0.65271,0.00123944,0.000136692,0.0015298,0.0023142,-0.000938062,0.612433,0.00193291,0.0482233,657,1149,-36.671,-0.652664
-560,-125,-36.7311,0.806274,0.00127805,0.000127015,0.00169569,0.00249322,-0.00108816,0.621797,0.00212009,0.0371613,664,1149,-36.7312,-0.806269
-553,-125,-36.6758,0.899048,0.000566167,0.000122612,0.00138338,0.00174543,-0.00105665,0.705917,0.00163399,0.0387551,671,1149,-36.6758,-0.899082
-546,-125,-36.622,0.866821,-0.000549098,-9.16975e-05,0.000271283,3.44235e-05,-0.000675219,1.13562,0.000462048,0.0389807,678,1149,-36.622,-0.866875
-539,-125,-36.5854,0.889282,-0.00186267,-0.000591319,-0.00185333,0.00073232,-0.00318631,-0.950607,0.00240576,0.0417829,685,1149,-36.5854,-0.889336
-532,-125,-36.9249,1.12805,-0.00299707,-0.00122071,-0.00432038,0.00230184,-0.00651962,-0.886775,0.00528356,0.0413947,692,1149,-36.9249,-1.12806
-525,-125,-36.634,0.911011,-0.00397535,-0.00169933,-0.00676375,0.00402148,-0.00969615,-0.868743,0.00814263,0.0426268,699,1149,-36.634,-0.911004
-518,-125,0,0,0,0,0,0,0,0,0,-1,706,1149,0,0
-511,-125,0,0,0,0,0,0,0,0,0,-1,713,1149,0,0
-504,-125,0,0,0,0,0,0,0,0,0,-1,720,1149,0,0
-497,-125,0,0,0,0,0,0,0,0,0,-1,727,1149,0,0
-490,-125,0,0,0,0,0,0,0,0,0,-1,734,1149,0,0
-483,-125,0,0,0,0,0,0,0,0,0,-1,741,1149,0,0
-476,-125,0,0,0,0,0,0,0,0,0,-1,748,1149,0,0
-469,-125,0,0,0,0,0,0,0,0,0,-1,755,1149,0,0
-462,-125,0,0,0,0,0,0,0,0,0,-1,762,1149,0,0
-455,-125,0,0,0,0,0,0,0,0,0,-1,769,1149,0,0
-448,-125,0,0,0,0,0,0,0,0,0,-1,776,1149,0,0
-441,-125,0,0,0,0,0,0,0,0,0,-1,783,1149,0,0
-434,-125,0,0,0,0,0,0,0,0,0,-1,790,1149,0,0
-427,-125,0,0,0,0,0,0,0,0,0,-1,797,1149,0,0
-420,-125,0,0,0,0,0,0,0,0,0,-1,804,1149,0,0
-413,-125,0,0,0,0,0,0,0,0,0,-1,811,1149,0,0
-406,-125,0,0,0,0,0,0,0,0,0,-1,818,1149,0,0
-399,-125,0,0,0,0,0,0,0,0,0,-1,825,1149,0,0
-392,-125,0,0,0,0,0,0,0,0,0,-1,832,1149,0,0
-385,-125,0,0,0,0,0,0,0,0,0,-1,839,1149,0,0
-378,-125,0,0,0,0,0,0,0,0,0,-1,846,1149,0,0
-371,-125,0,0,0,0,0,0,0,0,0,-1,853,1149,0,0
-364,-125,0,0,0,0,0,0,0,0,0,-1,860,1149,0,0
-357,-125,0,0,0,0,0,0,0,0,0,-1,867,1149,0,0
-350,-125,0,0,0,0,0,0,0,0,0,-1,874,1149,0,0
-343,-125,0,0,0,0,0,0,0,0,0,-1,881,1149,0,0
-336,-125,0,0,0,0,0,0,0,0,0,-1,888,1149,0,0
-329,-125,0,0,0,0,0,0,0,0,0,-1,895,1149,0,0
-322,-125,0,0,0,0,0,0,0,0,0,-1,902,1149,0,0
-315,-125,0,0,0,0,0,0,0,0,0,-1,909,1149,0,0
-308,-125,0,0,0,0,0,0,0,0,0,-1,916,1149,0,0
-301,-125,0,0,0,0,0,0,0,0,0,-1,923,1149,0,0
-294,-125,0,0,0,0,0,0,0,0,0,-1,930,1149,0,0
-287,-125,0,0,0,0,0,0,0,0,0,-1,937,1149,0,0
-280,-125,0,0,0,0,0,0,0,0,0,-1,944,1149,0,0
-273,-125,0,0,0,0,0,0,0,0,0,-1,951,1149,0,0
-266,-125,0,0,0,0,0,0,0,0,0,-1,958,1149,0,0
-259,-125,0,0,0,0,0,0,0,0,0,-1,965,1149,0,0
-252,-125,0,0,0,0,0,0,0,0,0,-1,972,1149,0,0
-245,-125,0,0,0,0,0,0,0,0,0,-1,979,1149,0,0
-238,-125,0,0,0,0,0,0,0,0,0,-1,986,1149,0,0
-231,-125,0,0,0,0,0,0,0,0,0,-1,993,1149,0,0
-224,-125,0,0,0,0,0,0,0,0,0,-1,1000,1149,0,0
-217,-125,0,0,0,0,0,0,0,0,0,-1,1007,1149,0,0
-210,-125,0,0,0,0,0,0,0,0,0,-1,1014,1149,0,0
-203,-125,0,0,0,0,0,0,0,0,0,-1,1021,1149,0,0
-196,-125,0,0,0,0,0,0,0,0,0,-1,1028,1149,0,0
-189,-125,0,0,0,0,0,0,0,0,0,-1,1035,1149,0,0
-182,-125,0,0,0,0,0,0,0,0,0,-1,1042,1149,0,0
-175,-125,0,0,0,0,0,0,0,0,0,-1,1049,1149,0,0
-168,-125,0,0,0,0,0,0,0,0,0,-1,1056,1149,0,0
-161,-125,0,0,0,0,0,0,0,0,0,-1,1063,1149,0,0
-154,-125,0,0,0,0,0,0,0,0,0,-1,1070,1149,0,0
-147,-125,0,0,0,0,0,0,0,0,0,-1,1077,1149,0,0
-140,-125,0,0,0,0,0,0,0,0,0,-1,1084,1149,0,0
-133,-125,0,0,0,0,0,0,0,0,0,-1,1091,1149,0,0
-126,-125,0,0,0,0,0,0,0,0,0,-1,1098,1149,0,0
-119,-125,0,0,0,0,0,0,0,0,0,-1,1105,1149,0,0
-112,-125,0,0,0,0,0,0,0,0,0,-1,1112,1149,0,0
-105,-125,0,0,0,0,0,0,0,0,0,-1,1119,1149,0,0
-98,-125,0,0,0,0,0,0,0,0,0,-1,1126,1149,0,0
-91,-125,0,0,0,0,0,0,0,0,0,-1,1133,1149,0,0
-84,-125,0,0,0,0,0,0,0,0,0,-1,1140,1149,0,0
-77,-125,0,0,0,0,0,0,0,0,0,-1,1147,1149,0,0
-70,-125,0,0,0,0,0,0,0,0,0,-1,1154,1149,0,0
-63,-125,0,0,0,0,0,0,0,0,0,-1,1161,1149,0,0
-56,-125,0,0,0,0,0,0,0,0,0,-1,1168,1149,0,0
-49,-125,0,0,0,0,0,0,0,0,0,-1,1175,1149,0,0
-42,-125,0,0,0,0,0,0,0,0,0,-1,1182,1149,0,0
-35,-125,0,0,0,0,0,0,0,0,0,-1,1189,1149,0,0
-28,-125,0,0,0,0,0,0,0,0,0,-1,1196,1149,0,0
-21,-125,0,0,0,0,0,0,0,0,0,-1,1203,1149,0,0
-14,-125,0,0,0,0,0,0,0,0,0,-1,1210,1149,0,0
-7,-125,0,0,0,0,0,0,0,0,0,-1,1217,1149,0,0
0,-125,0,0,0,0,0,0,0,0,0,-1,1224,1149,0,0
7,-125,0,0,0,0,0,0,0,0,0,-1,1231,1149,0,0
14,-125,0,0,0,0,0,0,0,0,0,-1,1238,1149,0,0
21,-125,0,0,0,0,0,0,0,0,0,-1,1245,1149,0,0
28,-125,0,0,0,0,0,0,0,0,0,-1,1252,1149,0,0
35,-125,0,0,0,0,0,0,0,0,0,-1,1259,1149,0,0
42,-125,0,0,0,0,0,0,0,0,0,-1,1266,1149,0,0
49,-125,0,0,0,0,0,0,0,0,0,-1,1273,1149,0,0
56,-125,0,0,0,0,0,0,0,0,0,-1,1280,1149,0,0
63,-125,0,0,0,0,0,0,0,0,0,-1,1287,1149,0,0
70,-125,0,0,0,0,0,0,0,0,0,-1,1294,1149,0,0
77,-125,0,0,0,0,0,0,0,0,0,-1,1301,1149,0,0
84,-125,0,0,0,0,0,0,0,0,0,-1,1308,1149,0,0
91,-125,0,0,0,0,0,0,0,0,0,-1,1315,1149,0,0
98,-125,0,0,0,0,0,0,0,0,0,-1,1322,1149,0,0
105,-125,0,0,0,0,0,0,0,0,0,-1,1329,1149,0,0
112,-125,0,0,0,0,0,0,0,0,0,-1,1336,1149,0,0
119,-125,0,0,0,0,0,0,0,0,0,-1,1343,1149,0,0
126,-125,0,0,0,0,0,0,0,0,0,-1,1350,1149,0,0
133,-125,0,0,0,0,0,0,0,0,0,-1,1357,1149,0,0
140,-125,0,0,0,0,0,0,0,0,0,-1,1364,1149,0,0
147,-125,0,0,0,0,0,0,0,0,0,-1,1371,1149,0,0
154,-125,0,0,0,0,0,0,0,0,0,-1,1378,1149,0,0
161,-125,0,0,0,0,0,0,0,0,0,-1,1385,1149,0,0
168,-125,0,0,0,0,0,0,0,0,0,-1,1392,1149,0,0
175,-125,0,0,0,0,0,0,0,0,0,-1,1399,1149,0,0
182,-125,0,0,0,0,0,0,0,0,0,-1,1406,1149,0,0
189,-125,0,0,0,0,0,0,0,0,0,-1,1413,1149,0,0
196,-125,0,0,0,0,0,0,0,0,0,-1,1420,1149,0,0
203,-125,0,0,0,0,0,0,0,0,0,-1,1427,1149,0,0
210,-125,0,0,0,0,0,0,0,0,0,-1,1434,1149,0,0
217,-125,0,0,0,0,0,0,0,0,0,-1,1441,1149,0,0
224,-125,0,0,0,0,0,0,0,0,0,-1,1448,1149,0,0
231,-125,0,0,0,0,0,0,0,0,0,-1,1455,1149,0,0
238,-125,0,0,0,0,0,0,0,0,0,-1,1462,1149,0,0
245,-125,0,0,0,0,0,0,0,0,0,-1,1469,1149,0,0
252,-125,0,0,0,0,0,0,0,0,0,-1,1476,1149,0,0
259,-125,0,0,0,0,0,0,0,0,0,-1,1483,1149,0,0
266,-125,0,0,0,0,0,0,0,0,0,-1,1490,1149,0,0
273,-125,0,0,0,0,0,0,0,0,0,-1,1497,1149,0,0
280,-125,0,0,0,0,0,0,0,0,0,-1,1504,1149,0,0
287,-125,0,0,0,0,0,0,0,0,0,-1,1511,1149,0,0
294,-125,0,0,0,0,0,0,0,0,0,-1,1518,1149,0,0
301,-125,0,0,0,0,0,0,0,0,0,-1,1525,1149,0,0
308,-125,0,0,0,0,0,0,0,0,0,-1,1532,1149,0,0
315,-125,0,0,0,0,0,0,0,0,0,-1,1539,1149,0,0
322,-125,0,0,0,0,0,0,0,0,0,-1,1546,1149,0,0
329,-125,0,0,0,0,0,0,0,0,0,-1,1553,1149,0,0
336,-125,0,0,0,0,0,0,0,0,0,-1,1560,1149,0,0
343,-125,0,0,0,0,0,0,0,0,0,-1,1567,1149,0,0
350,-125,0,0,0,0,0,0,0,0,0,-1,1574,1149,0,0
357,-125,0,0,0,0,0,0,0,0,0,-1,1581,1149,0,0
364,-125,0,0,0,0,0,0,0,0,0,-1,1588,1149,0,0
371,-125,0,0,0,0,0,0,0,0,0,-1,1595,1149,0,0
378,-125,0,0,0,0,0,0,0,0,0,-1,1602,1149,0,0
385,-125,0,0,0,0,0,0,0,0,0,-1,1609,1149,0,0
392,-125,0,0,0,0,0,0,0,0,0,-1,1616,1149,0,0
399,-125,0,0,0,0,0,0,0,0,0,-1,1623,1149,0,0
406,-125,0,0,0,0,0,0,0,0,0,-1,1630,1149,0,0
413,-125,0,0,0,0,0,0,0,0,0,-1,1637,1149,0,0
420,-125,0,0,0,0,0,0,0,0,0,-1,1644,1149,0,0
427,-125,0,0,0,0,0,0,0,0,0,-1,1651,1149,0,0
434,-125,0,0,0,0,0,0,0,0,0,-1,1658,1149,0,0
441,-125,0,0,0,0,0,0,0,0,0,-1,1665,1149,0,0
448,-125,0,0,0,0,0,0,0,0,0,-1,1672,1149,0,0
455,-125,0,0,0,0,0,0,0,0,0,-1,1679,1149,0,0
462,-125,0,0,0,0,0,0,0,0,0,-1,1686,1149,0,0
469,-125,0,0,0,0,0,0,0,0,0,-1,1693,1149,0,0
476,-125,0,0,0,0,0,0,0,0,0,-1,1700,1149,0,0
483,-125,0,0,0,0,0,0,0,0,0,-1,1707,1149,0,0
490,-125,0,0,0,0,0,0,0,0,0,-1,1714,1149,0,0
497,-125,0,0,0,0,0,0,0,0,0,-1,1721,1149,0,0
504,-125,0,0,0,0,0,0,0,0,0,-1,1728,1149,0,0
511,-125,0,0,0,0,0,0,0,0,0,-1,1735,1149,0,0
518,-125,0,0,0,0,0,0,0,0,0,-1,1742,1149,0,0
525,-125,0,0,0,0,0,0,0,0,0,-1,1749,1149,0,0
532,-125,0,0,0,0,0,0,0,0,0,-1,1756,1149,0,0
539,-125,0,0,0,0,0,0,0,0,0,-1,1763,1149,0,0
546,-125,0,0,0,0,0,0,0,0,0,-1,1770,1149,0,0
553,-125,0,0,0,0,0,0,0,0,0,-1,1777,1149,0,0
560,-125,0,0,0,0,0,0,0,0,0,-1,1784,1149,0,0
567,-125,0,0,0,0,0,0,0,0,0,-1,1791,1149,0,0
574,-125,0,0,0,0,0,0,0,0,0,-1,1798,1149,0,0
581,-125,0,0,0,0,0,0,0,0,0,-1,1805,1149,0,0
588,-125,0,0,0,0,0,0,0,0,0,-1,1812,1149,0,0
595,-125,0,0,0,0,0,0,0,0,0,-1,1819,1149,0,0
602,-125,0,0,0,0,0,0,0,0,0,-1,1826,1149,0,0
609,-125,0,0,0,0,0,0,0,0,0,-1,1833,1149,0,0
616,-125,0,0,0,0,0,0,0,0,0,-1,1840,1149,0,0
623,-125,0,0,0,0,0,0,0,0,0,-1,1847,1149,0,0
630,-125,0,0,0,0,0,0,0,0,0,-1,1854,1149,0,0
637,-125,0,0,0,0,0,0,0,0,0,-1,1861,1149,0,0
644,-125,49.5758,2.69617,0.00022011,0.00110254,0.00311566,0.00380807,-0.00248542,0.855736,0.0036602,0.0421744,1868,1149,49.5758,-2.69613
651,-125,49.3721,2.95032,3.06885e-05,0.000546535,0.00208824,0.00239272,-0.0018155,0.846843,0.00243722,0.0418917,1875,1149,49.3721,-2.95037
658,-125,49.3243,3.0127,0.000192687,0.000239809,0.0013379,0.00155435,-0.00112186,0.794202,0.00155182,0.0416153,1882,1149,49.3243,-3.01267
665,-125,49.4036,2.80298,0.000420022,9.14578e-05,0.000690809,0.000965815,-0.000454335,0.668661,0.000837462,0.0444741,1889,1149,49.4035,-2.80302
672,-125,49.415,2.53235,0.000569675,6.55991e-05,0.000200672,0.000639805,-4.53115e-06,0.336209,0.000428055,0.0459067,1896,1149,49.4151,-2.53232
679,-125,49.4191,2.58215,0.000394717,-9.55725e-05,7.38406e-05,0.000405596,-0.000106452,0.146284,0.000311995,0.0399515,1903,1149,49.419,-2.5822
686,-125,49.391,2.6759,0.00022933,-0.00027621,5.32318e-05,0.000234874,-0.000281755,0.10378,0.000298685,0.0359663,1910,1149,49.391,-2.67591
693,-125,49.3875,2.66846,9.40093e-05,-0.000434731,6.18666e-05,0.000101152,-0.000441873,0.114939,0.000333453,0.0326497,1917,1149,49.3875,-2.66847
700,-125,49.4786,2.71033,9.94652e-05,-0.000561697,5.87259e-05,0.000104641,-0.000566872,0.0879053,0.000417193,0.0174654,1924,1149,49.4786,-2.71028
707,-125,49.6107,2.84204,0,0,0,0,0,0,0,-1,1931,1149,49.6108,-2.84207
714,-125,44.8516,7.85596,0,0,0,0,0,0,0,-1,1938,1149,44.8515,-7.85601
721,-125,44.7843,7.49451,-0.00073734,-0.000269808,0.000877107,0.00040415,-0.0014113,0.915631,0.0011006,0.0294784,1945,1149,44.7844,-7.49451
728,-125,44.7432,7.15955,-0.0006877,-0.000167829,0.00106114,0.000664749,-0.00152028,0.905512,0.00129336,0.0202127,1952,1149,44.7432,-7.15951
735,-125,44.7532,6.79187,-0.000197426,0.000216162,0.00134961,0.00137473,-0.00135599,0.861419,0.00157659,0.0212069,1959,1149,44.7532,-6.7919
742,-125,44.7681,6.35803,0.000293976,0.00118437,0.00210773,0.00289341,-0.00141506,0.889479,0.00253584,0.0272897,1966,1149,44.7681,-6.35798
749,-125,44.7181,5.99207,0.000812907,0.00263003,0.00298942,0.00484591,-0.00140297,0.932925,0.00378593,0.0272229,1973,1149,44.7181,-5.9921
756,-125,44.6996,5.60742,0.00164502,0.00553943,0.00416608,0.0081909,-0.00100645,1.00401,0.00582514,0.0218115,1980,1149,44.6996,-5.60745
763,-125,44.7246,5.26416,0.00339745,0.00978896,0.00597301,0.0133674,-0.000180993,1.03104,0.00897254,0.0121891,1987,1149,44.7246,-5.26417
770,-125,44.6666,4.88403,0.00513187,0.015057,0.00823641,0.0197104,0.000478543,1.05653,0.0129837,0.0158513,1994,1149,44.6666,-4.88402
777,-125,44.5819,4.64575,0.00654466,0.0213016,0.0109634,0.0271382,0.000708056,1.08159,0.0178608,0.0317438,2001,1149,44.5819,-4.64573
784,-125,44.8386,4.71021,0.00734325,0.0288268,0.0143367,0.0359995,0.000170568,1.10691,0.023943,0.0465733,2008,1149,44.8386,-4.71018
791,-125,45.1843,4.80115,0,0,0,0,0,0,0,-1,2015,1149,45.1843,-4.80113
798,-125,44.5408,3.14648,0,0,0,0,0,0,0,-1,2022,1149,44.5407,-3.14653
805,-125,45.0273,2.63037,0,0,0,0,0,0,0,-1,2029,1149,45.0274,-2.63042
812,-125,45.3445,2.14709,0,0,0,0,0,0,0,-1,2036,1149,45.3444,-2.14707
-700,-132,0,0,0,0,0,0,0,0,0,-1,524,1156,0,0
-693,-132,-34.6241,6.57263,0,0,0,0,0,0,0,-1,531,1156,-34.6241,-6.5726
-686,-132,-33.6374,5.88977,0,0,0,0,0,0,0,-1,538,1156,-33.6374,-5.8898
-679,-132,-33.0832,1.86475,0,0,0,0,0,0,0,-1,545,1156,-33.0831,-1.86477
-672,-132,-33.103,1.94897,0.0384343,-0.0120962,-0.0560475,0.0746479,-0.0483098,-0.573646,0.0715305,0.0467669,552,1156,-33.103,-1.94896
-665,-132,-33.1083,1.97095,0.0288418,-0.0046153,-0.0434445,0.0586672,-0.0344407,-0.60162,0.0543591,0.0441764,559,1156,-33.1083,-1.97098
-658,-132,-31.6854,1.26855,0,0,0,0,0,0,0,-1,566,1156,-31.6854,-1.26858
-651,-132,-31.5089,1.53357,0.0142397,0.00267785,-0.0242765,0.0334141,-0.0164966,-0.668511,0.0293625,0.0415713,573,1156,-31.5089,-1.53357
-644,-132,-31.3654,1.77441,0.00914365,0.00383686,-0.0172115,0.0239051,-0.0109246,-0.708918,0.0205692,0.0236241,580,1156,-31.3653,-1.77446
-637,-132,-31.4269,2.13928,0.00421641,0.00476395,-0.0109426,0.0154362,-0.0064558,-0.797905,0.012989,0.011785,587,1156,-31.4269,-2.13933
-630,-132,-31.4233,2.54321,0.00163008,0.00485609,-0.00650506,0.00994515,-0.00345897,-0.906928,0.00803521,0.0100787,594,1156,-31.4234,-2.54324
-623,-132,-31.4418,2.99146,0.000741383,0.00283843,-0.00331577,0.00526751,-0.0016877,-0.938535,0.00418914,0.01563,601,1156,-31.4418,-2.99144
-616,-132,-31.4803,3.36731,0.000833403,0.00135538,-0.00107699,0.00220256,-1.37708e-05,-0.904273,0.00147298,0.0290158,608,1156,-31.4803,-3.36734
-609,-132,-31.3466,3.87756,0,0,0,0,0,0,0,-1,615,1156,-31.3466,-3.87761
-602,-132,-31.5239,4.18457,0.00128843,0.00101973,0.000632566,0.00180075,0.000507401,0.680757,0.00107217,0.0310955,622,1156,-31.5239,-4.18459
-595,-132,-31.6276,4.63269,0.000920166,0.000914564,0.00111712,0.00203449,-0.000199756,0.784145,0.00142758,0.0435864,629,1156,-31.6276,-4.63268
-588,-132,-31.5861,5.13464,0,0,0,0,0,0,0,-1,636,1156,-31.5861,-5.13461
-581,-132,-31.441,5.66455,0,0,0,0,0,0,0,-1,643,1156,-31.441,-5.66451
-574,-132,-33.2071,2.86963,0,0,0,0,0,0,0,-1,650,1156,-33.2071,-2.86963
-567,-132,-36.6492,0.67395,0,0,0,0,0,0,0,-1,657,1156,-36.6492,-0.673988
-560,-132,-36.7359,0.814331,0.000562096,0.000417966,0.00151043,0.00200218,-0.00102212,0.761561,0.00177638,0.0353799,664,1156,-36.7359,-0.814363
-553,-132,-36.7974,0.917358,-2.31238e-05,0.000477498,0.0013142,0.00156502,-0.00111064,0.879504,0.0015522,0.0385786,671,1156,-36.7974,-0.917327
-546,-132,-36.7354,0.838501,-0.0007528,0.000269904,0.000362505,0.000385362,-0.000868258,1.26245,0.000741461,0.0396175,678,1156,-36.7354,-0.838554
-539,-132,-36.6671,0.861084,-0.00167262,-0.000112218,-0.0016492,0.000932018,-0.00271686,-1.00634,0.00218908,0.039358,685,1156,-36.6671,-0.861118
-532,-132,-36.5936,0.840454,-0.00256554,-0.000628611,-0.00420989,0.00272277,-0.00591693,-0.898454,0.0051005,0.0399644,692,1156,-36.5936,-0.840426
-525,-132,-36.6688,0.830322,-0.00330824,-0.000917621,-0.00684263,0.00483332,-0.00905918,-0.871868,0.00814359,0.0422981,699,1156,-36.6688,-0.830271
-518,-132,0,0,0,0,0,0,0,0,0,-1,706,1156,0,0
-511,-132,0,0,0,0,0,0,0,0,0,-1,713,1156,0,0
-504,-132,0,0,0,0,0,0,0,0,0,-1,720,1156,0,0
-497,-132,0,0,0,0,0,0,0,0,0,-1,727,1156,0,0
-490,-132,0,0,0,0,0,0,0,0,0,-1,734,1156,0,0
-483,-132,0,0,0,0,0,0,0,0,0,-1,741,1156,0,0
-476,-132,0,0,0,0,0,0,0,0,0,-1,748,1156,0,0
-469,-132,0,0,0,0,0,0,0,0,0,-1,755,1156,0,0
-462,-132,0,0,0,0,0,0,0,0,0,-1,762,1156,0,0
-455,-132,0,0,0,0,0,0,0,0,0,-1,769,1156,0,0
-448,-132,0,0,0,0,0,0,0,0,0,-1,776,1156,0,0
-441,-132,0,0,0,0,0,0,0,0,0,-1,783,1156,0,0
-434,-132,0,0,0,0,0,0,0,0,0,-1,790,1156,0,0
-427,-132,0,0,0,0,0,0,0,0,0,-1,797,1156,0,0
-420,-132,0,0,0,0,0,0,0,0,0,-1,804,1156,0,0
-413,-132,0,0,0,0,0,0,0,0,0,-1,811,1156,0,0
-406,-132,0,0,0,0,0,0,0,0,0,-1,818,1156,0,0
-399,-132,0,0,0,0,0,0,0,0,0,-1,825,1156,0,0
-392,-132,0,0,0,0,0,0,0,0,0,-1,832,1156,0,0
-385,-132,0,0,0,0,0,0,0,0,0,-1,839,1156,0,0
-378,-132,0,0,0,0,0,0,0,0,0,-1,846,1156,0,0
-371,-132,0,0,0,0,0,0,0,0,0,-1,853,1156,0,0
-364,-132,0,0,0,0,0,0,0,0,0,-1,860,1156,0,0
-357,-132,0,0,0,0,0,0,0,0,0,-1,867,1156,0,0
-350,-132,0,0,0,0,0,0,0,0,0,-1,874,1156,0,0
-343,-132,0,0,0,0,0,0,0,0,0,-1,881,1156,0,0
-336,-132,0,0,0,0,0,0,0,0,0,-1,888,1156,0,0
-329,-132,0,0,0,0,0,0,0,0,0,-1,895,1156,0,0
-322,-132,0,0,0,0,0,0,0,0,0,-1,902,1156,0,0
-315,-132,0,0,0,0,0,0,0,0,0,-1,909,1156,0,0
-308,-132,0,0,0,0,0,0,0,0,0,-1,916,1156,0,0
-301,-132,0,0,0,0,0,0,0,0,0,-1,923,1156,0,0
-294,-132,0,0,0,0,0,0,0,0,0,-1,930,1156,0,0
-287,-132,0,0,0,0,0,0,0,0,0,-1,937,1156,0,0
-280,-132,0,0,0,0,0,0,0,0,0,-1,944,1156,0,0
-273,-132,0,0,0,0,0,0,0,0,0,-1,951,1156,0,0
-266,-132,0,0,0,0,0,0,0,0,0,-1,958,1156,0,0
-259,-132,0,0,0,0,0,0,0,0,0,-1,965,1156,0,0
-252,-132,0,0,0,0,0,0,0,0,0,-1,972,1156,0,0
-245,-132,0,0,0,0,0,0,0,0,0,-1,979,1156,0,0
-238,-132,0,0,0,0,0,0,0,0,0,-1,986,1156,0,0
-231,-132,0,0,0,0,0,0,0,0,0,-1,993,1156,0,0
-224,-132,0,0,0,0,0,0,0,0,0,-1,1000,1156,0,0
-217,-132,0,0,0,0,0,0,0,0,0,-1,1007,1156,0,0
-210,-132,0,0,0,0,0,0,0,0,0,-1,1014,1156,0,0
-203,-132,0,0,0,0,0,0,0,0,0,-1,1021,1156,0,0
-196,-132,0,0,0,0,0,0,0,0,0,-1,1028,1156,0,0
-189,-132,0,0,0,0,0,0,0,0,0,-1,1035,1156,0,0
-182,-132,0,0,0,0,0,0,0,0,0,-1,1042,1156,0,0
-175,-132,0,0,0,0,0,0,0,0,0,-1,1049,1156,0,0
-168,-132,0,0,0,0,0,0,0,0,0,-1,1056,1156,0,0
-161,-132,0,0,0,0,0,0,0,0,0,-1,1063,1156,0,0
-154,-132,0,0,0,0,0,0,0,0,0,-1,1070,1156,0,0
-147,-132,0,0,0,0,0,0,0,0,0,-1,1077,1156,0,0
-140,-132,0,0,0,0,0,0,0,0,0,-1,1084,1156,0,0
-133,-132,0,0,0,0,0,0,0,0,0,-1,1091,1156,0,0
-126,-132,0,0,0,0,0,0,0,0,0,-1,1098,1156,0,0
-119,-132,0,0,0,0,0,0,0,0,0,-1,1105,1156,0,0
-112,-132,0,0,0,0,0,0,0,0,0,-1,1112,1156,0,0
-105,-132,0,0,0,0,0,0,0,0,0,-1,1119,1156,0,0
-98,-132,0,0,0,0,0,0,0,0,0,-1,1126,1156,0,0
-91,-132,0,0,0,0,0,0,0,0,0,-1,1133,1156,0,0
-84,-132,0,0,0,0,0,0,0,0,0,-1,1140,1156,0,0
-77,-132,0,0,0,0,0,0,0,0,0,-1,1147,1156,0,0
-70,-132,0,0,0,0,0,0,0,0,0,-1,1154,1156,0,0
-63,-132,0,0,0,0,0,0,0,0,0,-1,1161,1156,0,0
-56,-132,0,0,0,0,0,0,0,0,0,-1,1168,1156,0,0
-49,-132,0,0,0,0,0,0,0,0,0,-1,1175,1156,0,0
-42,-132,0,0,0,0,0,0,0,0,0,-1,1182,1156,0,0
-35,-132,0,0,0,0,0,0,0,0,0,-1,1189,1156,0,0
-28,-132,0,0,0,0,0,0,0,0,0,-1,1196,1156,0,0
-21,-132,0,0,0,0,0,0,0,0,0,-1,1203,1156,0,0
-14,-132,0,0,0,0,0,0,0,0,0,-1,1210,1156,0,0
-7,-132,0,0,0,0,0,0,0,0,0,-1,1217,1156,0,0
0,-132,0,0,0,0,0,0,0,0,0,-1,1224,1156,0,0
7,-132,0,0,0,0,0,0,0,0,0,-1,1231,1156,0,0
14,-132,0,0,0,0,0,0,0,0,0,-1,1238,1156,0,0
21,-132,0,0,0,0,0,0,0,0,0,-1,1245,1156,0,0
28,-132,0,0,0,0,0,0,0,0,0,-1,1252,1156,0,0
35,-132,0,0,0,0,0,0,0,0,0,-1,1259,1156,0,0
42,-132,0,0,0,0,0,0,0,0,0,-1,1266,1156,0,0
49,-132,0,0,0,0,0,0,0,0,0,-1,1273,1156,0,0
56,-132,0,0,0,0,0,0,0,0,0,-1,1280,1156,0,0
63,-132,0,0,0,0,0,0,0,0,0,-1,1287,1156,0,0
70,-132,0,0,0,0,0,0,0,0,0,-1,1294,1156,0,0
77,-132,0,0,0,0,0,0,0,0,0,-1,1301,1156,0,0
84,-132,0,0,0,0,0,0,0,0,0,-1,1308,1156,0,0
91,-132,0,0,0,0,0,0,0,0,0,-1,1315,1156,0,0
98,-132,0,0,0,0,0,0,0,0,0,-1,1322,1156,0,0
105,-132,0,0,0,0,0,0,0,0,0,-1,1329,1156,0,0
112,-132,0,0,0,0,0,0,0,0,0,-1,1336,1156,0,0
119,-132,0,0,0,0,0,0,0,0,0,-1,1343,1156,0,0
126,-132,0,0,0,0,0,0,0,0,0,-1,1350,1156,0,0
133,-132,0,0,0,0,0,0,0,0,0,-1,1357,1156,0,0
140,-132,0,0,0,0,0,0,0,0,0,-1,1364,1156,0,0
147,-132,0,0,0,0,0,0,0,0,0,-1,1371,1156,0,0
154,-132,0,0,0,0,0,0,0,0,0,-1,1378,1156,0,0
161,-132,0,0,0,0,0,0,0,0,0,-1,1385,1156,0,0
168,-132,0,0,0,0,0,0,0,0,0,-1,1392,1156,0,0
175,-132,0,0,0,0,0,0,0,0,0,-1,1399,1156,0,0
182,-132,0,0,0,0,0,0,0,0,0,-1,1406,1156,0,0
189,-132,0,0,0,0,0,0,0,0,0,-1,1413,1156,0,0
196,-132,0,0,0,0,0,0,0,0,0,-1,1420,1156,0,0
203,-132,0,0,0,0,0,0,0,0,0,-1,1427,1156,0,0
210,-132,0,0,0,0,0,0,0,0,0,-1,1434,1156,0,0
217,-132,0,0,0,0,0,0,0,0,0,-1,1441,1156,0,0
224,-132,0,0,0,0,0,0,0,0,0,-1,1448,1156,0,0
231,-132,0,0,0,0,0,0,0,0,0,-1,1455,1156,0,0
238,-132,0,0,0,0,0,0,0,0,0,-1,1462,1156,0,0
245,-132,0,0,0,0,0,0,0,0,0,-1,1469,1156,0,0
252,-132,0,0,0,0,0,0,0,0,0,-1,1476,1156,0,0
259,-132,0,0,0,0,0,0,0,0,0,-1,1483,1156,0,0
266,-132,0,0,0,0,0,0,0,0,0,-1,1490,1156,0,0
273,-132,0,0,0,0,0,0,0,0,0,-1,1497,1156,0,0
280,-132,0,0,0,0,0,0,0,0,0,-1,1504,1156,0,0
287,-132,0,0,0,0,0,0,0,0,0,-1,1511,1156,0,0
294,-132,0,0,0,0,0,0,0,0,0,-1,1518,1156,0,0
301,-132,0,0,0,0,0,0,0,0,0,-1,1525,1156,0,0
308,-132,0,0,0,0,0,0,0,0,0,-1,1532,1156,0,0
315,-132,0,0,0,0,0,0,0,0,0,-1,1539,1156,0,0
322,-132,0,0,0,0,0,0,0,0,0,-1,1546,1156,0,0
329,-132,0,0,0,0,0,0,0,0,0,-1,1553,1156,0,0
336,-132,0,0,0,0,0,0,0,0,0,-1,1560,1156,0,0
343,-132,0,0,0,0,0,0,0,0,0,-1,1567,1156,0,0
350,-132,0,0,0,0,0,0,0,0,0,-1,1574,1156,0,0
357,-132,0,0,0,0,0,0,0,0,0,-1,1581,1156,0,0
364,-132,0,0,0,0,0,0,0,0,0,-1,1588,1156,0,0
371,-132,0,0,0,0,0,0,0,0,0,-1,1595,1156,0,0
378,-132,0,0,0,0,0,0,0,0,0,-1,1602,1156,0,0
385,-132,0,0,0,0,0,0,0,0,0,-1,1609,1156,0,0
392,-132,0,0,0,0,0,0,0,0,0,-1,1616,1156,0,0
399,-132,0,0,0,0,0,0,0,0,0,-1,1623,1156,0,0
406,-132,0,0,0,0,0,0,0,0,0,-1,1630,1156,0,0
413,-132,0,0,0,0,0,0,0,0,0,-1,1637,1156,0,0
420,-132,0,0,0,0,0,0,0,0,0,-1,1644,1156,0,0
427,-132,0,0,0,0,0,0,0,0,0,-1,1651,1156,0,0
434,-132,0,0,0,0,0,0,0,0,0,-1,1658,1156,0,0
441,-132,0,0,0,0,0,0,0,0,0,-1,1665,1156,0,0
448,-132,0,0,0,0,0,0,0,0,0,-1,1672,1156,0,0
455,-132,0,0,0,0,0,0,0,0,0,-1,1679,1156,0,0
462,-132,0,0,0,0,0,0,0,0,0,-1,1686,1156,0,0
469,-132,0,0,0,0,0,0,0,0,0,-1,1693,1156,0,0
476,-132,0,0,0,0,0,0,0,0,0,-1,1700,1156,0,0
483,-132,0,0,0,0,0,0,0,0,0,-1,1707,1156,0,0
490,-132,0,0,0,0,0,0,0,0,0,-1,1714,1156,0,0
497,-132,0,0,0,0,0,0,0,0,0,-1,1721,1156,0,0
504,-132,0,0,0,0,0,0,0,0,0,-1,1728,1156,0,0
511,-132,0,0,0,0,0,0,0,0,0,-1,1735,1156,0,0
518,-132,0,0,0,0,0,0,0,0,0,-1,1742,1156,0,0
525,-132,0,0,0,0,0,0,0,0,0,-1,1749,1156,0,0
532,-132,0,0,0,0,0,0,0,0,0,-1,1756,1156,0,0
539,-132,0,0,0,0,0,0,0,0,0,-1,1763,1156,0,0
546,-132,0,0,0,0,0,0,0,0,0,-1,1770,1156,0,0
553,-132,0,0,0,0,0,0,0,0,0,-1,1777,1156,0,0
560,-132,0,0,0,0,0,0,0,0,0,-1,1784,1156,0,0
567,-132,0,0,0,0,0,0,0,0,0,-1,1791,1156,0,0
574,-132,0,0,0,0,0,0,0,0,0,-1,1798,1156,0,0
581,-132,0,0,0,0,0,0,0,0,0,-1,1805,1156,0,0
588,-132,0,0,0,0,0,0,0,0,0,-1,1812,1156,0,0
595,-132,0,0,0,0,0,0,0,0,0,-1,1819,1156,0,0
602,-132,0,0,0,0,0,0,0,0,0,-1,1826,1156,0,0
609,-132,0,0,0,0,0,0,0,0,0,-1,1833,1156,0,0
616,-132,0,0,0,0,0,0,0,0,0,-1,1840,1156,0,0
623,-132,0,0,0,0,0,0,0,0,0,-1,1847,1156,0,0
630,-132,0,0,0,0,0,0,0,0,0,-1,1854,1156,0,0
637,-132,0,0,0,0,0,0,0,0,0,-1,1861,1156,0,0
644,-132,49.7079,2.59644,-0.000136307,0.00111731,0.00378196,0.00432406,-0.00334305,0.86752,0.00443867,0.0445369,1868,1156,49.7079,-2.59638
651,-132,49.4779,2.84021,-0.000180445,0.000673765,0.00257475,0.0028566,-0.00236328,0.867591,0.00301818,0.0445697,1875,1156,49.4779,-2.84016
658,-132,49.2976,2.9541,8.57954e-05,0.000447467,0.00162591,0.00190256,-0.0013693,0.840781,0.00189736,0.0424425,1882,1156,49.2976,-2.95408
665,-132,49.2701,2.72217,0.000434488,0.000366435,0.000775437,0.00117664,-0.000375722,0.763472,0.000935177,0.0418565,1889,1156,49.2701,-2.72217
672,-132,49.3779,2.60608,0.00065975,0.00039469,0.000140925,0.000720673,0.000333767,0.408043,0.000416458,0.0400692,1896,1156,49.3779,-2.60609
679,-132,49.5,2.71619,0.000550578,0.000234084,-3.12408e-05,0.000553632,0.00023103,-0.0974557,0.000321094,0.0393158,1903,1156,49.5,-2.71613
686,-132,49.4675,2.69421,0.000368289,4.95037e-05,-4.57324e-05,0.00037472,4.30728e-05,-0.139706,0.000236765,0.0340192,1910,1156,49.4675,-2.69423
693,-132,49.4159,2.69653,0.000186797,-0.00012598,-2.13752e-05,0.000188251,-0.000127434,-0.0679194,0.000183384,0.0279964,1917,1156,49.4159,-2.69648
700,-132,49.4552,2.67603,0.000179231,-0.000275147,-1.78355e-05,0.00017993,-0.000275846,-0.0391722,0.000265077,0.0423805,1924,1156,49.4552,-2.67608
707,-132,49.4871,2.65247,0,0,0,0,0,0,0,-1,1931,1156,49.4871,-2.65244
714,-132,44.4169,7.71716,0,0,0,0,0,0,0,-1,1938,1156,44.4169,-7.71712
721,-132,44.4669,7.45337,-0.000606571,-8.98458e-05,0.000774293,0.000468052,-0.00116447,0.946427,0.000970702,0.0349772,1945,1156,44.4669,-7.45342
728,-132,44.364,7.17969,-0.000533908,-1.39425e-05,0.000978476,0.0007385,-0.00128635,0.915249,0.00118323,0.0263248,1952,1156,44.364,-7.17967
735,-132,44.3052,6.81738,-0.000117477,0.000269311,0.00112813,0.0012205,-0.00106867,0.870288,0.00132262,0.0268559,1959,1156,44.3052,-6.81742
742,-132,44.324,6.3468,0.000315835,0.00107591,0.00175637,0.00249289,-0.00110114,0.891943,0.00212624,0.0215246,1966,1156,44.324,-6.34675
749,-132,44.3361,5.95081,0.00093115,0.00255882,0.00253343,0.00440592,-0.000915954,0.940811,0.00328544,0.0257377,1973,1156,44.336,-5.9508
756,-132,44.3251,5.61194,0.00197568,0.00570529,0.00357807,0.00787534,-0.000194371,1.02562,0.0053162,0.0232801,1980,1156,44.3251,-5.61191
763,-132,44.3125,5.26318,0.00392849,0.010244,0.00517956,0.0131525,0.00102001,1.05914,0.00844888,0.0135688,1987,1156,44.3125,-5.26322
770,-132,44.3085,4.90125,0.00580396,0.0158073,0.00719778,0.0195706,0.00204065,1.08904,0.0124228,0.014354,1994,1156,44.3085,-4.90121
777,-132,44.2695,4.5575,0.0073381,0.0224087,0.00968619,0.0271454,0.00260135,1.11597,0.0172952,0.0251189,2001,1156,44.2696,-4.55745
784,-132,44.4236,4.59888,0.00823841,0.0303484,0.0128239,0.0362246,0.00236223,1.14113,0.0234021,0.0435513,2008,1156,44.4237,-4.59893
791,-132,44.6736,4.78076,0.00805964,0.040237,0.0168164,0.0474215,0.000875205,1.16704,0.0313267,0.0481964,2015,1156,44.6736,-4.78079
798,-132,44.627,4.90051,0,0,0,0,0,0,0,-1,2022,1156,44.627,-4.90055
805,-132,44.7173,5.93555,0,0,0,0,0,0,0,-1,2029,1156,44.7173,-5.93561
812,-132,43.3916,0.622437,0,0,0,0,0,0,0,-1,2036,1156,43.3916,-0.622461
-700,-139,0,0,0,0,0,0,0,0,0,-1,524,1163,0,0
-693,-139,-33.8965,7.44958,0,0,0,0,0,0,0,-1,531,1163,-33.8965,-7.44958
-686,-139,-33.3318,-7.1803,0,0,0,0,0,0,0,-1,538,1163,-33.3318,7.18026
-679,-139,-32.1762,1.59973,0,0,0,0,0,0,0,-1,545,1163,-32.1762,-1.5997
-672,-139,-32.1413,1.66199,0.0371225,-0.00986033,-0.0599273,0.0779982,-0.050736,-0.598603,0.0748782,0.0468929,552,1163,-32.1413,-1.66198
-665,-139,-32.1109,1.66394,0.0277669,-0.00294076,-0.0466552,0.0615298,-0.0367036,-0.626434,0.0573156,0.0424585,559,1163,-32.1109,-1.66394
-658,-139,-31.6133,1.02917,0,0,0,0,0,0,0,-1,566,1163,-31.6133,-1.02921
-651,-139,-31.2844,1.3667,0.013527,0.00344353,-0.0260938,0.0350616,-0.0180912,-0.689967,0.0312048,0.0430448,573,1163,-31.2844,-1.36665
-644,-139,-30.9521,1.71912,0.00863718,0.004264,-0.0184207,0.0250006,-0.0120994,-0.726323,0.0218472,0.0241877,580,1163,-30.9521,-1.71911
-637,-139,-30.9664,2.10339,0.00405192,0.00478615,-0.0117373,0.0161621,-0.00732401,-0.801032,0.013876,0.0130709,587,1163,-30.9664,-2.10334
-630,-139,-30.9885,2.53296,0.00160238,0.00476256,-0.00697946,0.0103386,-0.00397362,-0.896717,0.00853117,0.0108438,594,1163,-30.9885,-2.53301
-623,-139,-31.0116,2.98279,0.000665143,0.00282972,-0.00354857,0.00545738,-0.00196252,-0.933413,0.00443945,0.0174337,601,1163,-31.0116,-2.98273
-616,-139,-31.0117,3.37708,0.000539262,0.00134084,-0.00125174,0.00225439,-0.000374286,-0.940334,0.00164197,0.0187569,608,1163,-31.0116,-3.37708
-609,-139,-30.8985,3.81335,0.000709746,0.00100925,-0.000198548,0.00110819,0.000610807,-1.1085,0.000640929,0.041195,615,1163,-30.8985,-3.81337
-602,-139,-31.04,4.2655,0.000664967,0.00103365,0.00034088,0.00123684,0.000461776,1.03327,0.000721685,0.0354072,622,1163,-31.04,-4.26547
-595,-139,-31.2097,4.70789,0.000358049,0.0009656,0.000858898,0.00157286,-0.000249212,0.955373,0.00114075,0.042285,629,1163,-31.2097,-4.70792
-588,-139,-31.3995,5.08386,0,0,0,0,0,0,0,-1,636,1163,-31.3995,-5.0839
-581,-139,-33.4329,4.10962,0,0,0,0,0,0,0,-1,643,1163,-33.4329,-4.10965
-574,-139,-23.0725,2.4043,0,0,0,0,0,0,0,-1,650,1163,-23.0725,-2.40433
-567,-139,-36.6519,0.759888,0,0,0,0,0,0,0,-1,657,1163,-36.6519,-0.759935
-560,-139,-36.7555,0.907471,-0.000211698,0.000791263,0.00108157,0.00148195,-0.000902388,1.00248,0.00139009,0.035137,664,1163,-36.7555,-0.907416
-553,-139,-36.8576,1.00024,-0.000732875,0.000959266,0.000974821,0.00140397,-0.00117758,1.1428,0.00149237,0.0401563,671,1163,-36.8576,-1.00019
-546,-139,-36.9334,1.07678,-0.00110874,0.000830789,0.000262979,0.000865814,-0.00114377,1.43839,0.00116393,0.0417225,678,1163,-36.9334,-1.07673
-539,-139,-36.7921,1.07178,-0.00152373,0.000681129,-0.00137178,0.00133857,-0.00218117,-1.12388,0.00205144,0.037684,685,1163,-36.7921,-1.07181
-532,-139,-36.6364,0.942749,-0.0020162,0.00033437,-0.0036995,0.00304078,-0.00472262,-0.9392,0.00451713,0.0379999,692,1163,-36.6364,-0.942738
-525,-139,-36.5532,0.762085,-0.00234673,0.000196921,-0.00623861,0.00529203,-0.00744183,-0.885952,0.00738674,0.042305,699,1163,-36.5532,-0.762073
-518,-139,0,0,0,0,0,0,0,0,0,-1,706,1163,0,0
-511,-139,0,0,0,0,0,0,0,0,0,-1,713,1163,0,0
-504,-139,0,0,0,0,0,0,0,0,0,-1,720,1163,0,0
-497,-139,0,0,0,0,0,0,0,0,0,-1,727,1163,0,0
-490,-139,0,0,0,0,0,0,0,0,0,-1,734,1163,0,0
-483,-139,0,0,0,0,0,0,0,0,0,-1,741,1163,0,0
-476,-139,0,0,0,0,0,0,0,0,0,-1,748,1163,0,0
-469,-139,0,0,0,0,0,0,0,0,0,-1,755,1163,0,0
-462,-139,0,0,0,0,0,0,0,0,0,-1,762,1163,0,0
-455,-139,0,0,0,0,0,0,0,0,0,-1,769,1163,0,0
-448,-139,0,0,0,0,0,0,0,0,0,-1,776,1163,0,0
-441,-139,0,0,0,0,0,0,0,0,0,-1,783,1163,0,0
-434,-139,0,0,0,0,0,0,0,0,0,-1,790,1163,0,0
-427,-139,0,0,0,0,0,0,0,0,0,-1,797,1163,0,0
-420,-139,0,0,0,0,0,0,0,0,0,-1,804,1163,0,0
-413,-139,0,0,0,0,0,0,0,0,0,-1,811,1163,0,0
-406,-139,0,0,0,0,0,0,0,0,0,-1,818,1163,0,0
-399,-139,0,0,0,0,0,0,0,0,0,-1,825,1163,0,0
-392,-139,0,0,0,0,0,0,0,0,0,-1,832,1163,0,0
-385,-139,0,0,0,0,0,0,0,0,0,-1,839,1163,0,0
-378,-139,0,0,0,0,0,0,0,0,0,-1,846,1163,0,0
-371,-139,0,0,0,0,0,0,0,0,0,-1,853,1163,0,0
-364,-139,0,0,0,0,0,0,0,0,0,-1,860,1163,0,0
-357,-139,0,0,0,0,0,0,0,0,0,-1,867,1163,0,0
-350,-139,0,0,0,0,0,0,0,0,0,-1,874,1163,0,0
-343,-139,0,0,0,0,0,0,0,0,0,-1,881,1163,0,0
-336,-139,0,0,0,0,0,0,0,0,0,-1,888,1163,0,0
-329,-139,0,0,0,0,0,0,0,0,0,-1,895,1163,0,0
-322,-139,0,0,0,0,0,0,0,0,0,-1,902,1163,0,0
-315,-139,0,0,0,0,0,0,0,0,0,-1,909,1163,0,0
-308,-139,0,0,0,0,0,0,0,0,0,-1,916,1163,0,0
-301,-139,0,0,0,0,0,0,0,0,0,-1,923,1163,0,0
-294,-139,0,0,0,0,0,0,0,0,0,-1,930,1163,0,0
-287,-139,0,0,0,0,0,0,0,0,0,-1,937,1163,0,0
-280,-139,0,0,0,0,0,0,0,0,0,-1,944,1163,0,0
-273,-139,0,0,0,0,0,0,0,0,0,-1,951,1163,0,0
-266,-139,0,0,0,0,0,0,0,0,0,-1,958,1163,0,0
-259,-139,0,0,0,0,0,0,0,0,0,-1,965,1163,0,0
-252,-139,0,0,0,0,0,0,0,0,0,-1,972,1163,0,0
-245,-139,0,0,0,0,0,0,0,0,0,-1,979,1163,0,0
-238,-139,0,0,0,0,0,0,0,0,0,-1,986,1163,0,0
-231,-139,0,0,0,0,0,0,0,0,0,-1,993,1163,0,0
-224,-139,0,0,0,0,0,0,0,0,0,-1,1000,1163,0,0
-217,-139,0,0,0,0,0,0,0,0,0,-1,1007,1163,0,0
-210,-139,0,0,0,0,0,0,0,0,0,-1,1014,1163,0,0
-203,-139,0,0,0,0,0,0,0,0,0,-1,1021,1163,0,0
-196,-139,0,0,0,0,0,0,0,0,0,-1,1028,1163,0,0
-189,-139,0,0,0,0,0,0,0,0,0,-1,1035,1163,0,0
-182,-139,0,0,0,0,0,0,0,0,0,-1,1042,1163,0,0
-175,-139,0,0,0,0,0,0,0,0,0,-1,1049,1163,0,0
-168,-139,0,0,0,0,0,0,0,0,0,-1,1056,1163,0,0
-161,-139,0,0,0,0,0,0,0,0,0,-1,1063,1163,0,0
-154,-139,0,0,0,0,0,0,0,0,0,-1,1070,1163,0,0
-147,-139,0,0,0,0,0,0,0,0,0,-1,1077,1163,0,0
-140,-139,0,0,0,0,0,0,0,0,0,-1,1084,1163,0,0
-133,-139,0,0,0,0,0,0,0,0,0,-1,1091,1163,0,0
-126,-139,0,0,0,0,0,0,0,0,0,-1,1098,1163,0,0
-119,-139,0,0,0,0,0,0,0,0,0,-1,1105,1163,0,0
-112,-139,0,0,0,0,0,0,0,0,0,-1,1112,1163,0,0
-105,-139,0,0,0,0,0,0,0,0,0,-1,1119,1163,0,0
-98,-139,0,0,0,0,0,0,0,0,0,-1,1126,1163,0,0
-91,-139,0,0,0,0,0,0,0,0,0,-1,1133,1163,0,0
-84,-139,0,0,0,0,0,0,0,0,0,-1,1140,1163,0,0
-77,-139,0,0,0,0,0,0,0,0,0,-1,1147,1163,0,0
-70,-139,0,0,0,0,0,0,0,0,0,-1,1154,1163,0,0
-63,-139,0,0,0,0,0,0,0,0,0,-1,1161,1163,0,0
-56,-139,0,0,0,0,0,0,0,0,0,-1,1168,1163,0,0
-49,-139,0,0,0,0,0,0,0,0,0,-1,1175,1163,0,0
-42,-139,0,0,0,0,0,0,0,0,0,-1,1182,1163,0,0
-35,-139,0,0,0,0,0,0,0,0,0,-1,1189,1163,0,0
-28,-139,0,0,0,0,0,0,0,0,0,-1,1196,1163,0,0
-21,-139,0,0,0,0,0,0,0,0,0,-1,1203,1163,0,0
-14,-139,0,0,0,0,0,0,0,0,0,-1,1210,1163,0,0
-7,-139,0,0,0,0,0,0,0,0,0,-1,1217,1163,0,0
0,-139,0,0,0,0,0,0,0,0,0,-1,1224,1163,0,0
7,-139,0,0,0,0,0,0,0,0,0,-1,1231,1163,0,0
14,-139,0,0,0,0,0,0,0,0,0,-1,1238,1163,0,0
21,-139,0,0,0,0,0,0,0,0,0,-1,1245,1163,0,0
28,-139,0,0,0,0,0,0,0,0,0,-1,1252,1163,0,0
35,-139,0,0,0,0,0,0,0,0,0,-1,1259,1163,0,0
42,-139,0,0,0,0,0,0,0,0,0,-1,1266,1163,0,0
49,-139,0,0,0,0,0,0,0,0,0,-1,1273,1163,0,0
56,-139,0,0,0,0,0,0,0,0,0,-1,1280,1163,0,0
63,-139,0,0,0,0,0,0,0,0,0,-1,1287,1163,0,0
70,-139,0,0,0,0,0,0,0,0,0,-1,1294,1163,0,0
77,-139,0,0,0,0,0,0,0,0,0,-1,1301,1163,0,0
84,-139,0,0,0,0,0,0,0,0,0,-1,1308,1163,0,0
91,-139,0,0,0,0,0,0,0,0,0,-1,1315,1163,0,0
98,-139,0,0,0,0,0,0,0,0,0,-1,1322,1163,0,0
105,-139,0,0,0,0,0,0,0,0,0,-1,1329,1163,0,0
112,-139,0,0,0,0,0,0,0,0,0,-1,1336,1163,0,0
119,-139,0,0,0,0,0,0,0,0,0,-1,1343,1163,0,0
126,-139,0,0,0,0,0,0,0,0,0,-1,1350,1163,0,0
133,-139,0,0,0,0,0,0,0,0,0,-1,1357,1163,0,0
140,-139,0,0,0,0,0,0,0,0,0,-1,1364,1163,0,0
147,-139,0,0,0,0,0,0,0,0,0,-1,1371,1163,0,0
154,-139,0,0,0,0,0,0,0,0,0,-1,1378,1163,0,0
161,-139,0,0,0,0,0,0,0,0,0,-1,1385,1163,0,0
168,-139,0,0,0,0,0,0,0,0,0,-1,1392,1163,0,0
175,-139,0,0,0,0,0,0,0,0,0,-1,1399,1163,0,0
182,-139,0,0,0,0,0,0,0,0,0,-1,1406,1163,0,0
189,-139,0,0,0,0,0,0,0,0,0,-1,1413,1163,0,0
196,-139,0,0,0,0,0,0,0,0,0,-1,1420,1163,0,0
203,-139,0,0,0,0,0,0,0,0,0,-1,1427,1163,0,0
210,-139,0,0,0,0,0,0,0,0,0,-1,1434,1163,0,0
217,-139,0,0,0,0,0,0,0,0,0,-1,1441,1163,0,0
224,-139,0,0,0,0,0,0,0,0,0,-1,1448,1163,0,0
231,-139,0,0,0,0,0,0,0,0,0,-1,1455,1163,0,0
238,-139,0,0,0,0,0,0,0,0,0,-1,1462,1163,0,0
245,-139,0,0,0,0,0,0,0,0,0,-1,1469,1163,0,0
252,-139,0,0,0,0,0,0,0,0,0,-1,1476,1163,0,0
259,-139,0,0,0,0,0,0,0,0,0,-1,1483,1163,0,0
266,-139,0,0,0,0,0,0,0,0,0,-1,1490,1163,0,0
273,-139,0,0,0,0,0,0,0,0,0,-1,1497,1163,0,0
280,-139,0,0,0,0,0,0,0,0,0,-1,1504,1163,0,0
287,-139,0,0,0,0,0,0,0,0,0,-1,1511,1163,0,0
294,-139,0,0,0,0,0,0,0,0,0,-1,1518,1163,0,0
301,-139,0,0,0,0,0,0,0,0,0,-1,1525,1163,0,0
308,-139,0,0,0,0,0,0,0,0,0,-1,1532,1163,0,0
315,-139,0,0,0,0,0,0,0,0,0,-1,1539,1163,0,0
322,-139,0,0,0,0,0,0,0,0,0,-1,1546,1163,0,0
329,-139,0,0,0,0,0,0,0,0,0,-1,1553,1163,0,0
336,-139,0,0,0,0,0,0,0,0,0,-1,1560,1163,0,0
343,-139,0,0,0,0,0,0,0,0,0,-1,1567,1163,0,0
350,-139,0,0,0,0,0,0,0,0,0,-1,1574,1163,0,0
357,-139,0,0,0,0,0,0,0,0,0,-1,1581,1163,0,0
364,-139,0,0,0,0,0,0,0,0,0,-1,1588,1163,0,0
371,-139,0,0,0,0,0,0,0,0,0,-1,1595,1163,0,0
378,-139,0,0,0,0,0,0,0,0,0,-1,1602,1163,0,0
385,-139,0,0,0,0,0,0,0,0,0,-1,1609,1163,0,0
392,-139,0,0,0,0,0,0,0,0,0,-1,1616,1163,0,0
399,-139,0,0,0,0,0,0,0,0,0,-1,1623,1163,0,0
406,-139,0,0,0,0,0,0,0,0,0,-1,1630,1163,0,0
413,-139,0,0,0,0,0,0,0,0,0,-1,1637,1163,0,0
420,-139,0,0,0,0,0,0,0,0,0,-1,1644,1163,0,0
427,-139,0,0,0,0,0,0,0,0,0,-1,1651,1163,0,0
434,-139,0,0,0,0,0,0,0,0,0,-1,1658,1163,0,0
441,-139,0,0,0,0,0,0,0,0,0,-1,1665,1163,0,0
448,-139,0,0,0,0,0,0,0,0,0,-1,1672,1163,0,0
455,-139,0,0,0,0,0,0,0,0,0,-1,1679,1163,0,0
462,-139,0,0,0,0,0,0,0,0,0,-1,1686,1163,0,0
469,-139,0,0,0,0,0,0,0,0,0,-1,1693,1163,0,0
476,-139,0,0,0,0,0,0,0,0,0,-1,1700,1163,0,0
483,-139,0,0,0,0,0,0,0,0,0,-1,1707,1163,0,0
490,-139,0,0,0,0,0,0,0,0,0,-1,1714,1163,0,0
497,-139,0,0,0,0,0,0,0,0,0,-1,1721,1163,0,0
504,-139,0,0,0,0,0,0,0,0,0,-1,1728,1163,0,0
511,-139,0,0,0,0,0,0,0,0,0,-1,1735,1163,0,0
518,-139,0,0,0,0,0,0,0,0,0,-1,1742,1163,0,0
525,-139,0,0,0,0,0,0,0,0,0,-1,1749,1163,0,0
532,-139,0,0,0,0,0,0,0,0,0,-1,1756,1163,0,0
539,-139,0,0,0,0,0,0,0,0,0,-1,1763,1163,0,0
546,-139,0,0,0,0,0,0,0,0,0,-1,1770,1163,0,0
553,-139,0,0,0,0,0,0,0,0,0,-1,1777,1163,0,0
560,-139,0,0,0,0,0,0,0,0,0,-1,1784,1163,0,0
567,-139,0,0,0,0,0,0,0,0,0,-1,1791,1163,0,0
574,-139,0,0,0,0,0,0,0,0,0,-1,1798,1163,0,0
581,-139,0,0,0,0,0,0,0,0,0,-1,1805,1163,0,0
588,-139,0,0,0,0,0,0,0,0,0,-1,1812,1163,0,0
595,-139,0,0,0,0,0,0,0,0,0,-1,1819,1163,0,0
602,-139,0,0,0,0,0,0,0,0,0,-1,1826,1163,0,0
609,-139,0,0,0,0,0,0,0,0,0,-1,1833,1163,0,0
616,-139,0,0,0,0,0,0,0,0,0,-1,1840,1163,0,0
623,-139,0,0,0,0,0,0,0,0,0,-1,1847,1163,0,0
630,-139,0,0,0,0,0,0,0,0,0,-1,1854,1163,0,0
637,-139,0,0,0,0,0,0,0,0,0,-1,1861,1163,0,0
644,-139,49.5374,2.63892,-0.000384418,0.00122406,0.00410073,0.00459868,-0.00375903,0.88223,0.00483343,0.0430108,1868,1163,49.5374,-2.63886
651,-139,49.443,2.6897,-0.000324888,0.00092022,0.00279713,0.00316324,-0.00256791,0.894898,0.00331482,0.0435246,1875,1163,49.4431,-2.68967
658,-139,49.4215,2.81934,6.58307e-06,0.000778532,0.0017029,0.00213865,-0.00135354,0.896844,0.00203313,0.041864,1882,1163,49.4215,-2.81937
665,-139,49.3843,2.74805,0.000432099,0.000755652,0.0006993,0.00131164,-0.000123893,0.899069,0.000918517,0.0386016,1889,1163,49.3843,-2.74805
672,-139,49.4237,2.85107,0.000656715,0.000817768,-1.93732e-05,0.000820066,0.000654417,-1.45275,0.000500713,0.0376874,1896,1163,49.4237,-2.85109
679,-139,49.5248,2.90137,0.000568441,0.000648807,-0.000216527,0.000828848,0.000388399,-0.877144,0.00047885,0.0359619,1903,1163,49.5248,-2.90135
686,-139,49.4956,2.77148,0.000373094,0.000445944,-0.00017469,0.000587966,0.000231072,-0.888181,0.000342043,0.0343953,1910,1163,49.4956,-2.77146
693,-139,49.4338,2.69519,0.000140776,0.000264975,-0.000109433,0.0003287,7.70508e-05,-1.04348,0.000198499,0.0257847,1917,1163,49.4338,-2.69524
700,-139,49.5363,2.67224,0,0,0,0,0,0,0,-1,1924,1163,49.5363,-2.67223
707,-139,32.116,6.54346,0,0,0,0,0,0,0,-1,1931,1163,32.116,-6.54343
714,-139,43.9249,8.00525,0,0,0,0,0,0,0,-1,1938,1163,43.9249,-8.0053
721,-139,44.0576,7.51208,-0.000594378,0.000140652,0.000690284,0.00055516,-0.00100889,1.03002,0.00091558,0.032795,1945,1163,44.0576,-7.5121
728,-139,43.9142,7.25317,-0.000499118,0.000163967,0.000912786,0.000803557,-0.00113871,0.9596,0.00112692,0.0400176,1952,1163,43.9142,-7.25313
735,-139,43.8394,6.91589,-0.000217022,0.000249251,0.000908076,0.00095364,-0.000921411,0.911053,0.00108261,0.0297014,1959,1163,43.8394,-6.9159
742,-139,43.8939,6.36548,9.78519e-05,0.000835876,0.00137459,0.00189012,-0.000956392,0.916533,0.00167265,0.0224386,1966,1163,43.8939,-6.36552
749,-139,43.89,5.979,0.00078974,0.0022992,0.00199288,0.00367548,-0.000586536,0.96641,0.00266741,0.0196493,1973,1163,43.89,-5.97897
756,-139,43.8982,5.63159,0.00191753,0.00553428,0.0027642,0.00702909,0.00042272,1.07506,0.0045517,0.011598,1980,1163,43.8982,-5.63165
763,-139,43.863,5.26099,0.00376345,0.0101226,0.00393473,0.0120019,0.0018842,1.12522,0.007453,0.0114203,1987,1163,43.863,-5.26104
770,-139,43.8702,4.88306,0.00544457,0.0157223,0.00546068,0.0180819,0.00308496,1.16292,0.0111692,0.0131603,1994,1163,43.8703,-4.883
777,-139,43.8976,4.62964,0.00674873,0.0224005,0.00742106,0.0253596,0.0037896,1.19137,0.0157955,0.0248146,2001,1163,43.8976,-4.62968
784,-139,43.9863,4.53613,0.00738928,0.0304651,0.00998568,0.0341862,0.00366818,1.21409,0.0216718,0.0408028,2008,1163,43.9863,-4.53609
791,-139,44.7036,4.79382,0.00700642,0.0405478,0.0134158,0.0452536,0.0023006,1.23344,0.0294322,0.0455049,2015,1163,44.7035,-4.79385
798,-139,44.5583,5.4281,0.00487797,0.052966,0.0179437,0.0589235,-0.00107954,1.25024,0.0396471,0.045733,2022,1163,44.5584,-5.42806
805,-139,44.1982,6.07666,-0.000319788,0.0680783,0.0241157,0.0757259,-0.00796738,1.26371,0.0533385,0.0475412,2029,1163,44.1983,-6.07662
812,-139,0,0,0,0,0,0,0,0,0,-1,2036,1163,0,0
-700,-146,0,0,0,0,0,0,0,0,0,-1,524,1170,0,0
-693,-146,-34.0367,-9.60486,0,0,0,0,0,0,0,-1,531,1170,-34.0367,9.60488
-686,-146,-33.7554,-8.3042,0,0,0,0,0,0,0,-1,538,1170,-33.7554,8.30417
-679,-146,-30.9697,-0.735352,0,0,0,0,0,0,0,-1,545,1170,-30.9697,0.735388
-672,-146,-31.2299,1.50854,0,0,0,0,0,0,0,-1,552,1170,-31.2299,-1.50859
-665,-146,-31.1282,1.44861,0.0238594,-0.00103589,-0.0472355,0.0602598,-0.0374363,-0.656565,0.0569156,0.04425,559,1170,-31.1282,-1.44864
-658,-146,-31.0096,1.35339,0,0,0,0,0,0,0,-1,566,1170,-31.0096,-1.35338
-651,-146,-30.7706,1.35388,0.011269,0.00443066,-0.026417,0.0344872,-0.0187876,-0.721041,0.0312002,0.039446,573,1170,-30.7705,-1.35392
-644,-146,-30.4709,1.66577,0.00718264,0.00486694,-0.0186163,0.0246771,-0.0126275,-0.75434,0.0219091,0.0215809,580,1170,-30.471,-1.66576
-637,-146,-30.4885,2.09058,0.00358693,0.00493628,-0.0120202,0.0163007,-0.00777753,-0.813433,0.0141889,0.0108851,587,1170,-30.4885,-2.09062
-630,-146,-30.5373,2.53259,0.00147697,0.00472911,-0.00723471,0.0105182,-0.00431216,-0.895941,0.00880869,0.0106589,594,1170,-30.5373,-2.53263
-623,-146,-30.5742,2.97656,0.000540862,0.00289408,-0.00369414,0.00559446,-0.00215952,-0.939573,0.00462086,0.0136118,601,1170,-30.5742,-2.97655
-616,-146,-30.6304,3.42871,0.000261539,0.00140398,-0.0013523,0.00230075,-0.000635238,-0.985233,0.00178369,0.02008,608,1170,-30.6303,-3.42868
-609,-146,-30.3996,3.91541,0.000217406,0.00104933,-0.000356378,0.00118112,8.56179e-05,-1.21659,0.00076048,0.0277015,615,1170,-30.3996,-3.91542
-602,-146,-30.6235,4.39832,0,0,0,0,0,0,0,-1,622,1170,-30.6235,-4.39837
-595,-146,-30.8071,4.76099,0,0,0,0,0,0,0,-1,629,1170,-30.8071,-4.76103
-588,-146,-30.9766,5.04614,0,0,0,0,0,0,0,-1,636,1170,-30.9765,-5.04613
-581,-146,-28.6086,5.78027,0,0,0,0,0,0,0,-1,643,1170,-28.6086,-5.78029
-574,-146,-17.9915,3.79114,0,0,0,0,0,0,0,-1,650,1170,-17.9915,-3.79118
-567,-146,-36.6523,0.683472,0,0,0,0,0,0,0,-1,657,1170,-36.6523,-0.683423
-560,-146,-36.7119,0.82312,-0.000946784,0.00116743,0.000627616,0.0013397,-0.00111906,1.30291,0.00142147,0.0391635,664,1170,-36.7119,-0.823178
-553,-146,-36.7748,0.963257,-0.00148504,0.00146043,0.000528388,0.00155235,-0.00157695,1.39856,0.00180672,0.0379527,671,1170,-36.7748,-0.963203
-546,-146,-36.7896,1.11438,-0.00166008,0.00145298,-1.86698e-05,0.00145309,-0.00166019,-1.5648,0.00179878,0.041323,678,1170,-36.7896,-1.11434
-539,-146,-36.7534,1.1261,-0.00172877,0.00164004,-0.00127009,0.00206522,-0.00215394,-1.24776,0.00243611,0.0408097,685,1170,-36.7534,-1.12611
-532,-146,-36.7769,0.914429,-0.00198103,0.00161714,-0.0032343,0.00351905,-0.00388295,-1.03921,0.00427527,0.0382171,692,1170,-36.7768,-0.914453
-525,-146,-36.7152,0.782104,-0.00206428,0.00181347,-0.0054489,0.00565817,-0.00590898,-0.956327,0.00667882,0.0412611,699,1170,-36.7152,-0.782152
-518,-146,0,0,0,0,0,0,0,0,0,-1,706,1170,0,0
-511,-146,0,0,0,0,0,0,0,0,0,-1,713,1170,0,0
-504,-146,0,0,0,0,0,0,0,0,0,-1,720,1170,0,0
-497,-146,0,0,0,0,0,0,0,0,0,-1,727,1170,0,0
-490,-146,0,0,0,0,0,0,0,0,0,-1,734,1170,0,0
-483,-146,0,0,0,0,0,0,0,0,0,-1,741,1170,0,0
-476,-146,0,0,0,0,0,0,0,0,0,-1,748,1170,0,0
-469,-146,0,0,0,0,0,0,0,0,0,-1,755,1170,0,0
-462,-146,0,0,0,0,0,0,0,0,0,-1,762,1170,0,0
-455,-146,0,0,0,0,0,0,0,0,0,-1,769,1170,0,0
-448,-146,0,0,0,0,0,0,0,0,0,-1,776,1170,0,0
-441,-146,0,0,0,0,0,0,0,0,0,-1,783,1170,0,0
-434,-146,0,0,0,0,0,0,0,0,0,-1,790,1170,0,0
-427,-146,0,0,0,0,0,0,0,0,0,-1,797,1170,0,0
-420,-146,0,0,0,0,0,0,0,0,0,-1,804,1170,0,0
-413,-146,0,0,0,0,0,0,0,0,0,-1,811,1170,0,0
-406,-146,0,0,0,0,0,0,0,0,0,-1,818,1170,0,0
-399,-146,0,0,0,0,0,0,0,0,0,-1,825,1170,0,0
-392,-146,0,0,0,0,0,0,0,0,0,-1,832,1170,0,0
-385,-146,0,0,0,0,0,0,0,0,0,-1,839,1170,0,0
-378,-146,0,0,0,0,0,0,0,0,0,-1,846,1170,0,0
-371,-146,0,0,0,0,0,0,0,0,0,-1,853,1170,0,0
-364,-146,0,0,0,0,0,0,0,0,0,-1,860,1170,0,0
-357,-146,0,0,0,0,0,0,0,0,0,-1,867,1170,0,0
-350,-146,0,0,0,0,0,0,0,0,0,-1,874,1170,0,0
-343,-146,0,0,0,0,0,0,0,0,0,-1,881,1170,0,0
-336,-146,0,0,0,0,0,0,0,0,0,-1,888,1170,0,0
-329,-146,0,0,0,0,0,0,0,0,0,-1,895,1170,0,0
-322,-146,0,0,0,0,0,0,0,0,0,-1,902,1170,0,0
-315,-146,0,0,0,0,0,0,0,0,0,-1,909,1170,0,0
-308,-146,0,0,0,0,0,0,0,0,0,-1,916,1170,0,0
-301,-146,0,0,0,0,0,0,0,0,0,-1,923,1170,0,0
-294,-146,0,0,0,0,0,0,0,0,0,-1,930,1170,0,0
-287,-146,0,0,0,0,0,0,0,0,0,-1,937,1170,0,0
-280,-146,0,0,0,0,0,0,0,0,0,-1,944,1170,0,0
-273,-146,0,0,0,0,0,0,0,0,0,-1,951,1170,0,0
-266,-146,0,0,0,0,0,0,0,0,0,-1,958,1170,0,0
-259,-146,0,0,0,0,0,0,0,0,0,-1,965,1170,0,0
-252,-146,0,0,0,0,0,0,0,0,0,-1,972,1170,0,0
-245,-146,0,0,0,0,0,0,0,0,0,-1,979,1170,0,0
-238,-146,0,0,0,0,0,0,0,0,0,-1,986,1170,0,0
-231,-146,0,0,0,0,0,0,0,0,0,-1,993,1170,0,0
-224,-146,0,0,0,0,0,0,0,0,0,-1,1000,1170,0,0
-217,-146,0,0,0,0,0,0,0,0,0,-1,1007,1170,0,0
-210,-146,0,0,0,0,0,0,0,0,0,-1,1014,1170,0,0
-203,-146,0,0,0,0,0,0,0,0,0,-1,1021,1170,0,0
-196,-146,0,0,0,0,0,0,0,0,0,-1,1028,1170,0,0
-189,-146,0,0,0,0,0,0,0,0,0,-1,1035,1170,0,0
-182,-146,0,0,0,0,0,0,0,0,0,-1,1042,1170,0,0
-175,-146,0,0,0,0,0,0,0,0,0,-1,1049,1170,0,0
-168,-146,0,0,0,0,0,0,0,0,0,-1,1056,1170,0,0
-161,-146,0,0,0,0,0,0,0,0,0,-1,1063,1170,0,0
-154,-146,0,0,0,0,0,0,0,0,0,-1,1070,1170,0,0
-147,-146,0,0,0,0,0,0,0,0,0,-1,1077,1170,0,0
-140,-146,0,0,0,0,0,0,0,0,0,-1,1084,1170,0,0
-133,-146,0,0,0,0,0,0,0,0,0,-1,1091,1170,0,0
-126,-146,0,0,0,0,0,0,0,0,0,-1,1098,1170,0,0
-119,-146,0,0,0,0,0,0,0,0,0,-1,1105,1170,0,0
-112,-146,0,0,0,0,0,0,0,0,0,-1,1112,1170,0,0
-105,-146,0,0,0,0,0,0,0,0,0,-1,1119,1170,0,0
-98,-146,0,0,0,0,0,0,0,0,0,-1,1126,1170,0,0
-91,-146,0,0,0,0,0,0,0,0,0,-1,1133,1170,0,0
-84,-146,0,0,0,0,0,0,0,0,0,-1,1140,1170,0,0
-77,-146,0,0,0,0,0,0,0,0,0,-1,1147,1170,0,0
-70,-146,0,0,0,0,0,0,0,0,0,-1,1154,1170,0,0
-63,-146,0,0,0,0,0,0,0,0,0,-1,1161,1170,0,0
-56,-146,0,0,0,0,0,0,0,0,0,-1,1168,1170,0,0
-49,-146,0,0,0,0,0,0,0,0,0,-1,1175,1170,0,0
-42,-146,0,0,0,0,0,0,0,0,0,-1,1182,1170,0,0
-35,-146,0,0,0,0,0,0,0,0,0,-1,1189,1170,0,0
-28,-146,0,0,0,0,0,0,0,0,0,-1,1196,1170,0,0
-21,-146,0,0,0,0,0,0,0,0,0,-1,1203,1170,0,0
-14,-146,0,0,0,0,0,0,0,0,0,-1,1210,1170,0,0
-7,-146,0,0,0,0,0,0,0,0,0,-1,1217,1170,0,0
0,-146,0,0,0,0,0,0,0,0,0,-1,1224,1170,0,0
7,-146,0,0,0,0,0,0,0,0,0,-1,1231,1170,0,0
14,-146,0,0,0,0,0,0,0,0,0,-1,1238,1170,0,0
21,-146,0,0,0,0,0,0,0,0,0,-1,1245,1170,0,0
28,-146,0,0,0,0,0,0,0,0,0,-1,1252,1170,0,0
35,-146,0,0,0,0,0,0,0,0,0,-1,1259,1170,0,0
42,-146,0,0,0,0,0,0,0,0,0,-1,1266,1170,0,0
49,-146,0,0,0,0,0,0,0,0,0,-1,1273,1170,0,0
56,-146,0,0,0,0,0,0,0,0,0,-1,1280,1170,0,0
63,-146,0,0,0,0,0,0,0,0,0,-1,1287,1170,0,0
70,-146,0,0,0,0,0,0,0,0,0,-1,1294,1170,0,0
77,-146,0,0,0,0,0,0,0,0,0,-1,1301,1170,0,0
84,-146,0,0,0,0,0,0,0,0,0,-1,1308,1170,0,0
91,-146,0,0,0,0,0,0,0,0,0,-1,1315,1170,0,0
98,-146,0,0,0,0,0,0,0,0,0,-1,1322,1170,0,0
105,-146,0,0,0,0,0,0,0,0,0,-1,1329,1170,0,0
112,-146,0,0,0,0,0,0,0,0,0,-1,1336,1170,0,0
119,-146,0,0,0,0,0,0,0,0,0,-1,1343,1170,0,0
126,-146,0,0,0,0,0,0,0,0,0,-1,1350,1170,0,0
133,-146,0,0,0,0,0,0,0,0,0,-1,1357,1170,0,0
140,-146,0,0,0,0,0,0,0,0,0,-1,1364,1170,0,0
147,-146,0,0,0,0,0,0,0,0,0,-1,1371,1170,0,0
154,-146,0,0,0,0,0,0,0,0,0,-1,1378,1170,0,0
161,-146,0,0,0,0,0,0,0,0,0,-1,1385,1170,0,0
168,-146,0,0,0,0,0,0,0,0,0,-1,1392,1170,0,0
175,-146,0,0,0,0,0,0,0,0,0,-1,1399,1170,0,0
182,-146,0,0,0,0,0,0,0,0,0,-1,1406,1170,0,0
189,-146,0,0,0,0,0,0,0,0,0,-1,1413,1170,0,0
196,-146,0,0,0,0,0,0,0,0,0,-1,1420,1170,0,0
203,-146,0,0,0,0,0,0,0,0,0,-1,1427,1170,0,0
210,-146,0,0,0,0,0,0,0,0,0,-1,1434,1170,0,0
217,-146,0,0,0,0,0,0,0,0,0,-1,1441,1170,0,0
224,-146,0,0,0,0,0,0,0,0,0,-1,1448,1170,0,0
231,-146,0,0,0,0,0,0,0,0,0,-1,1455,1170,0,0
238,-146,0,0,0,0,0,0,0,0,0,-1,1462,1170,0,0
245,-146,0,0,0,0,0,0,0,0,0,-1,1469,1170,0,0
252,-146,0,0,0,0,0,0,0,0,0,-1,1476,1170,0,0
259,-146,0,0,0,0,0,0,0,0,0,-1,1483,1170,0,0
266,-146,0,0,0,0,0,0,0,0,0,-1,1490,1170,0,0
273,-146,0,0,0,0,0,0,0,0,0,-1,1497,1170,0,0
280,-146,0,0,0,0,0,0,0,0,0,-1,1504,1170,0,0
287,-146,0,0,0,0,0,0,0,0,0,-1,1511,1170,0,0
294,-146,0,0,0,0,0,0,0,0,0,-1,1518,1170,0,0
301,-146,0,0,0,0,0,0,0,0,0,-1,1525,1170,0,0
308,-146,0,0,0,0,0,0,0,0,0,-1,1532,1170,0,0
315,-146,0,0,0,0,0,0,0,0,0,-1,1539,1170,0,0
322,-146,0,0,0,0,0,0,0,0,0,-1,1546,1170,0,0
329,-146,0,0,0,0,0,0,0,0,0,-1,1553,1170,0,0
336,-146,0,0,0,0,0,0,0,0,0,-1,1560,1170,0,0
343,-146,0,0,0,0,0,0,0,0,0,-1,1567,1170,0,0
350,-146,0,0,0,0,0,0,0,0,0,-1,1574,1170,0,0
357,-146,0,0,0,0,0,0,0,0,0,-1,1581,1170,0,0
364,-146,0,0,0,0,0,0,0,0,0,-1,1588,1170,0,0
371,-146,0,0,0,0,0,0,0,0,0,-1,1595,1170,0,0
378,-146,0,0,0,0,0,0,0,0,0,-1,1602,1170,0,0
385,-146,0,0,0,0,0,0,0,0,0,-1,1609,1170,0,0
392,-146,0,0,0,0,0,0,0,0,0,-1,1616,1170,0,0
399,-146,0,0,0,0,0,0,0,0,0,-1,1623,1170,0,0
406,-146,0,0,0,0,0,0,0,0,0,-1,1630,1170,0,0
413,-146,0,0,0,0,0,0,0,0,0,-1,1637,1170,0,0
420,-146,0,0,0,0,0,0,0,0,0,-1,1644,1170,0,0
427,-146,0,0,0,0,0,0,0,0,0,-1,1651,1170,0,0
434,-146,0,0,0,0,0,0,0,0,0,-1,1658,1170,0,0
441,-146,0,0,0,0,0,0,0,0,0,-1,1665,1170,0,0
448,-146,0,0,0,0,0,0,0,0,0,-1,1672,1170,0,0
455,-146,0,0,0,0,0,0,0,0,0,-1,1679,1170,0,0
462,-146,0,0,0,0,0,0,0,0,0,-1,1686,1170,0,0
469,-146,0,0,0,0,0,0,0,0,0,-1,1693,1170,0,0
476,-146,0,0,0,0,0,0,0,0,0,-1,1700,1170,0,0
483,-146,0,0,0,0,0,0,0,0,0,-1,1707,1170,0,0
490,-146,0,0,0,0,0,0,0,0,0,-1,1714,1170,0,0
497,-146,0,0,0,0,0,0,0,0,0,-1,1721,1170,0,0
504,-146,0,0,0,0,0,0,0,0,0,-1,1728,1170,0,0
511,-146,0,0,0,0,0,0,0,0,0,-1,1735,1170,0,0
518,-146,0,0,0,0,0,0,0,0,0,-1,1742,1170,0,0
525,-146,0,0,0,0,0,0,0,0,0,-1,1749,1170,0,0
532,-146,0,0,0,0,0,0,0,0,0,-1,1756,1170,0,0
539,-146,0,0,0,0,0,0,0,0,0,-1,1763,1170,0,0
546,-146,0,0,0,0,0,0,0,0,0,-1,1770,1170,0,0
553,-146,0,0,0,0,0,0,0,0,0,-1,1777,1170,0,0
560,-146,0,0,0,0,0,0,0,0,0,-1,1784,1170,0,0
567,-146,0,0,0,0,0,0,0,0,0,-1,1791,1170,0,0
574,-146,0,0,0,0,0,0,0,0,0,-1,1798,1170,0,0
581,-146,0,0,0,0,0,0,0,0,0,-1,1805,1170,0,0
588,-146,0,0,0,0,0,0,0,0,0,-1,1812,1170,0,0
595,-146,0,0,0,0,0,0,0,0,0,-1,1819,1170,0,0
602,-146,0,0,0,0,0,0,0,0,0,-1,1826,1170,0,0
609,-146,0,0,0,0,0,0,0,0,0,-1,1833,1170,0,0
616,-146,0,0,0,0,0,0,0,0,0,-1,1840,1170,0,0
623,-146,0,0,0,0,0,0,0,0,0,-1,1847,1170,0,0
630,-146,0,0,0,0,0,0,0,0,0,-1,1854,1170,0,0
637,-146,49.4177,2.67029,-0.000255892,0.00167006,0.00574681,0.00653401,-0.00511985,0.86841,0.00674485,0.041392,1861,1170,49.4178,-2.67027
644,-146,49.467,2.66479,-0.000462615,0.00128172,0.00428876,0.00478609,-0.00396699,0.885711,0.00506096,0.0386752,1868,1170,49.467,-2.66482
651,-146,49.4274,2.75891,-0.000400892,0.00106891,0.00286806,0.00329473,-0.00262671,0.910818,0.00342599,0.0365994,1875,1170,49.4273,-2.75887
658,-146,49.4395,2.84827,-0.000112754,0.000972121,0.0016164,0.00213468,-0.00127531,0.947285,0.00198949,0.0402402,1882,1170,49.4395,-2.84828
665,-146,49.4707,2.77649,0.000267834,0.00097759,0.000456734,0.00120111,4.43142e-05,1.11567,0.000786385,0.0411989,1889,1170,49.4707,-2.77643
672,-146,49.4672,2.72632,0.000395883,0.00105426,-0.000324287,0.00118716,0.000262981,-1.18185,0.000719972,0.0389947,1896,1170,49.4672,-2.72638
679,-146,49.5106,2.7655,0.000258269,0.000870826,-0.000513361,0.00116233,-3.32364e-05,-1.05436,0.0007862,0.0318581,1903,1170,49.5107,-2.76553
686,-146,49.4308,2.66174,4.90511e-05,0.000672469,-0.000380026,0.000852269,-0.00013075,-1.12888,0.000616403,0.0256013,1910,1170,49.4308,-2.6618
693,-146,49.4808,2.65857,-0.000197255,0.000521618,-0.000240139,0.000594456,-0.000270093,-1.2763,0.000510724,0.0196003,1917,1170,49.4809,-2.65855
700,-146,49.5939,2.60876,0,0,0,0,0,0,0,-1,1924,1170,49.5938,-2.60876
707,-146,29.9441,6.94653,0,0,0,0,0,0,0,-1,1931,1170,29.9441,-6.94652
714,-146,31.325,6.13245,0,0,0,0,0,0,0,-1,1938,1170,31.325,-6.1325
721,-146,43.5994,7.40027,0,0,0,0,0,0,0,-1,1945,1170,43.5993,-7.40025
728,-146,43.4775,7.37793,0,0,0,0,0,0,0,-1,1952,1170,43.4776,-7.37792
735,-146,43.4844,6.81628,-0.000356714,0.000177298,0.000838969,0.000790725,-0.00097014,0.939458,0.00101839,0.0281935,1959,1170,43.4844,-6.81627
742,-146,43.5249,6.36401,-0.000152712,0.000620549,0.00118971,0.00148488,-0.00101704,0.942504,0.00145288,0.0172925,1966,1170,43.5249,-6.36401
749,-146,43.5057,5.99512,0.00066249,0.00212198,0.00161416,0.00316368,-0.000379215,0.997693,0.00224622,0.0156433,1973,1170,43.5058,-5.99512
756,-146,43.4991,5.62646,0.00186865,0.00545952,0.0020339,0.00637708,0.000951088,1.147,0.00397249,0.0121385,1980,1170,43.4991,-5.62649
763,-146,43.4392,5.24451,0.00358133,0.0100622,0.00268708,0.0110314,0.00261216,1.22464,0.00665664,0.0115187,1987,1170,43.4392,-5.24455
770,-146,43.4136,4.86426,0.0050471,0.0156662,0.00361929,0.0167824,0.00393087,1.27164,0.0101353,0.0130873,1994,1170,43.4136,-4.86428
777,-146,43.4442,4.63721,0.00607395,0.0223674,0.00490608,0.0237306,0.00471074,1.29977,0.0145074,0.0242985,2001,1170,43.4442,-4.63722
784,-146,43.6125,3.74792,0.00637584,0.0304692,0.00670011,0.0322071,0.00463797,1.31701,0.0201045,0.0441791,2008,1170,43.6125,-3.74787
791,-146,44.689,4.97681,0.00562008,0.0405581,0.00923586,0.0428494,0.00332884,1.32763,0.0275238,0.0439249,2015,1170,44.6891,-4.97685
798,-146,44.4568,5.47327,0.00315016,0.0529814,0.0128004,0.0560772,5.44004e-05,1.3335,0.0373667,0.0433595,2022,1170,44.4567,-5.4733
805,-146,44.1389,5.95703,-0.00215056,0.0681411,0.0180056,0.0724849,-0.00649435,1.33407,0.0506271,0.0474782,2029,1170,44.139,-5.95702
812,-146,0,0,0,0,0,0,0,0,0,-1,2036,1170,0,0
-700,-153,0,0,0,0,0,0,0,0,0,-1,524,1177,0,0
-693,-153,0,0,0,0,0,0,0,0,0,-1,531,1177,0,0
-686,-153,-33.9533,-9.43079,0,0,0,0,0,0,0,-1,538,1177,-33.9533,9.43073
-679,-153,-33.6981,-8.10718,0,0,0,0,0,0,0,-1,545,1177,-33.6981,8.10723
-672,-153,-30.1872,1.31323,0,0,0,0,0,0,0,-1,552,1177,-30.1872,-1.31321
-665,-153,-30.1105,1.2511,0,0,0,0,0,0,0,-1,559,1177,-30.1105,-1.25109
-658,-153,-30.1019,1.21362,0,0,0,0,0,0,0,-1,566,1177,-30.1019,-1.21367
-651,-153,-29.9907,1.27161,0.00845345,0.00143105,-0.0238897,0.0290886,-0.0192041,-0.712433,0.0280758,0.0484469,573,1177,-29.9907,-1.27164
-644,-153,-30.0134,1.61853,0.00552724,0.0029446,-0.0169497,0.0212348,-0.0127629,-0.747379,0.0198307,0.0277104,580,1177,-30.0133,-1.61855
-637,-153,-30.0269,2.08557,0.00305937,0.00367986,-0.0112399,0.0146138,-0.00787461,-0.799196,0.0131766,0.0110677,587,1177,-30.0269,-2.08559
-630,-153,-30.069,2.51831,0.0013594,0.00381241,-0.00686238,0.00955703,-0.00438522,-0.873829,0.0082321,0.0103026,594,1177,-30.0689,-2.51828
-623,-153,-30.0991,2.9718,0.000485998,0.00265319,-0.00367852,0.00540439,-0.00226521,-0.928634,0.00455,0.011321,601,1177,-30.099,-2.97183
-616,-153,-30.1165,3.4248,4.88752e-05,0.00149791,-0.00155013,0.00248448,-0.000937698,-1.00401,0.00204196,0.0147114,608,1177,-30.1164,-3.42482
-609,-153,-30.054,3.86243,-0.000244722,0.00110983,-0.00060612,0.00134145,-0.000476337,-1.20579,0.00108839,0.0242649,615,1177,-30.054,-3.86245
-602,-153,-29.9725,4.27832,0,0,0,0,0,0,0,-1,622,1177,-29.9725,-4.27835
-595,-153,-30.4307,4.84436,0,0,0,0,0,0,0,-1,629,1177,-30.4307,-4.84441
-588,-153,-29.1819,5.06567,0,0,0,0,0,0,0,-1,636,1177,-29.1819,-5.06562
-581,-153,-28.2946,5.67114,0,0,0,0,0,0,0,-1,643,1177,-28.2946,-5.67111
-574,-153,-25.4814,5.16956,0,0,0,0,0,0,0,-1,650,1177,-25.4814,-5.16961
-567,-153,-35.3121,1.09485,0,0,0,0,0,0,0,-1,657,1177,-35.3121,-1.09482
-560,-153,-36.665,0.69873,0,0,0,0,0,0,0,-1,664,1177,-36.665,-0.698727
-553,-153,-36.7209,0.893921,-0.00204689,0.00179486,-0.000130874,0.00179931,-0.00205134,-1.53678,0.00222476,0.0365866,671,1177,-36.7209,-0.893943
-546,-153,-36.708,1.03088,-0.0020769,0.00189261,-0.000603956,0.00198247,-0.00216676,-1.4231,0.00239634,0.0401335,678,1177,-36.708,-1.03092
-539,-153,-36.7028,1.00061,-0.00185617,0.00244185,-0.00154262,0.0029382,-0.00235252,-1.2595,0.00306083,0.0429896,685,1177,-36.7028,-1.00056
-532,-153,-36.8478,0.994263,-0.00187766,0.00284884,-0.0031665,0.00443675,-0.00346557,-1.10597,0.00457388,0.0430528,692,1177,-36.8478,-0.994278
-525,-153,-36.877,0.932861,-0.00170932,0.00353312,-0.00511868,0.0066627,-0.0048389,-1.02203,0.00666822,0.0426564,699,1177,-36.877,-0.93283
-518,-153,0,0,0,0,0,0,0,0,0,-1,706,1177,0,0
-511,-153,0,0,0,0,0,0,0,0,0,-1,713,1177,0,0
-504,-153,0,0,0,0,0,0,0,0,0,-1,720,1177,0,0
-497,-153,0,0,0,0,0,0,0,0,0,-1,727,1177,0,0
-490,-153,0,0,0,0,0,0,0,0,0,-1,734,1177,0,0
-483,-153,0,0,0,0,0,0,0,0,0,-1,741,1177,0,0
-476,-153,0,0,0,0,0,0,0,0,0,-1,748,1177,0,0
-469,-153,0,0,0,0,0,0,0,0,0,-1,755,1177,0,0
-462,-153,0,0,0,0,0,0,0,0,0,-1,762,1177,0,0
-455,-153,0,0,0,0,0,0,0,0,0,-1,769,1177,0,0
-448,-153,0,0,0,0,0,0,0,0,0,-1,776,1177,0,0
-441,-153,0,0,0,0,0,0,0,0,0,-1,783,1177,0,0
-434,-153,0,0,0,0,0,0,0,0,0,-1,790,1177,0,0
-427,-153,0,0,0,0,0,0,0,0,0,-1,797,1177,0,0
-420,-153,0,0,0,0,0,0,0,0,0,-1,804,1177,0,0
-413,-153,0,0,0,0,0,0,0,0,0,-1,811,1177,0,0
-406,-153,0,0,0,0,0,0,0,0,0,-1,818,1177,0,0
-399,-153,0,0,0,0,0,0,0,0,0,-1,825,1177,0,0
-392,-153,0,0,0,0,0,0,0,0,0,-1,832,1177,0,0
-385,-153,0,0,0,0,0,0,0,0,0,-1,839,1177,0,0
-378,-153,0,0,0,0,0,0,0,0,0,-1,846,1177,0,0
-371,-153,0,0,0,0,0,0,0,0,0,-1,853,1177,0,0
-364,-153,0,0,0,0,0,0,0,0,0,-1,860,1177,0,0
-357,-153,0,0,0,0,0,0,0,0,0,-1,867,1177,0,0
-350,-153,0,0,0,0,0,0,0,0,0,-1,874,1177,0,0
-343,-153,0,0,0,0,0,0,0,0,0,-1,881,1177,0,0
-336,-153,0,0,0,0,0,0,0,0,0,-1,888,1177,0,0
-329,-153,0,0,0,0,0,0,0,0,0,-1,895,1177,0,0
-322,-153,0,0,0,0,0,0,0,0,0,-1,902,1177,0,0
-315,-153,0,0,0,0,0,0,0,0,0,-1,909,1177,0,0
-308,-153,0,0,0,0,0,0,0,0,0,-1,916,1177,0,0
-301,-153,0,0,0,0,0,0,0,0,0,-1,923,1177,0,0
-294,-153,0,0,0,0,0,0,0,0,0,-1,930,1177,0,0
-287,-153,0,0,0,0,0,0,0,0,0,-1,937,1177,0,0
-280,-153,0,0,0,0,0,0,0,0,0,-1,944,1177,0,0
-273,-153,0,0,0,0,0,0,0,0,0,-1,951,1177,0,0
-266,-153,0,0,0,0,0,0,0,0,0,-1,958,1177,0,0
-259,-153,0,0,0,0,0,0,0,0,0,-1,965,1177,0,0
-252,-153,0,0,0,0,0,0,0,0,0,-1,972,1177,0,0
-245,-153,0,0,0,0,0,0,0,0,0,-1,979,1177,0,0
-238,-153,0,0,0,0,0,0,0,0,0,-1,986,1177,0,0
-231,-153,0,0,0,0,0,0,0,0,0,-1,993,1177,0,0
-224,-153,0,0,0,0,0,0,0,0,0,-1,1000,1177,0,0
-217,-153,0,0,0,0,0,0,0,0,0,-1,1007,1177,0,0
-210,-153,0,0,0,0,0,0,0,0,0,-1,1014,1177,0,0
-203,-153,0,0,0,0,0,0,0,0,0,-1,1021,1177,0,0
-196,-153,0,0,0,0,0,0,0,0,0,-1,1028,1177,0,0
-189,-153,0,0,0,0,0,0,0,0,0,-1,1035,1177,0,0
-182,-153,0,0,0,0,0,0,0,0,0,-1,1042,1177,0,0
-175,-153,0,0,0,0,0,0,0,0,0,-1,1049,1177,0,0
-168,-153,0,0,0,0,0,0,0,0,0,-1,1056,1177,0,0
-161,-153,0,0,0,0,0,0,0,0,0,-1,1063,1177,0,0
-154,-153,0,0,0,0,0,0,0,0,0,-1,1070,1177,0,0
-147,-153,0,0,0,0,0,0,0,0,0,-1,1077,1177,0,0
-140,-153,0,0,0,0,0,0,0,0,0,-1,1084,1177,0,0
-133,-153,0,0,0,0,0,0,0,0,0,-1,1091,1177,0,0
-126,-153,0,0,0,0,0,0,0,0,0,-1,1098,1177,0,0
-119,-153,0,0,0,0,0,0,0,0,0,-1,1105,1177,0,0
-112,-153,0,0,0,0,0,0,0,0,0,-1,1112,1177,0,0
-105,-153,0,0,0,0,0,0,0,0,0,-1,1119,1177,0,0
-98,-153,0,0,0,0,0,0,0,0,0,-1,1126,1177,0,0
-91,-153,0,0,0,0,0,0,0,0,0,-1,1133,1177,0,0
-84,-153,0,0,0,0,0,0,0,0,0,-1,1140,1177,0,0
-77,-153,0,0,0,0,0,0,0,0,0,-1,1147,1177,0,0
-70,-153,0,0,0,0,0,0,0,0,0,-1,1154,1177,0,0
-63,-153,0,0,0,0,0,0,0,0,0,-1,1161,1177,0,0
-56,-153,0,0,0,0,0,0,0,0,0,-1,1168,1177,0,0
-49,-153,0,0,0,0,0,0,0,0,0,-1,1175,1177,0,0
-42,-153,0,0,0,0,0,0,0,0,0,-1,1182,1177,0,0
-35,-153,0,0,0,0,0,0,0,0,0,-1,1189,1177,0,0
-28,-153,0,0,0,0,0,0,0,0,0,-1,1196,1177,0,0
-21,-153,0,0,0,0,0,0,0,0,0,-1,1203,1177,0,0
-14,-153,0,0,0,0,0,0,0,0,0,-1,1210,1177,0,0
-7,-153,0,0,0,0,0,0,0,0,0,-1,1217,1177,0,0
0,-153,0,0,0,0,0,0,0,0,0,-1,1224,1177,0,0
7,-153,0,0,0,0,0,0,0,0,0,-1,1231,1177,0,0
14,-153,0,0,0,0,0,0,0,0,0,-1,1238,1177,0,0
21,-153,0,0,0,0,0,0,0,0,0,-1,1245,1177,0,0
28,-153,0,0,0,0,0,0,0,0,0,-1,1252,1177,0,0
35,-153,0,0,0,0,0,0,0,0,0,-1,1259,1177,0,0
42,-153,0,0,0,0,0,0,0,0,0,-1,1266,1177,0,0
49,-153,0,0,0,0,0,0,0,0,0,-1,1273,1177,0,0
56,-153,0,0,0,0,0,0,0,0,0,-1,1280,1177,0,0
63,-153,0,0,0,0,0,0,0,0,0,-1,1287,1177,0,0
70,-153,0,0,0,0,0,0,0,0,0,-1,1294,1177,0,0
77,-153,0,0,0,0,0,0,0,0,0,-1,1301,1177,0,0
84,-153,0,0,0,0,0,0,0,0,0,-1,1308,1177,0,0
91,-153,0,0,0,0,0,0,0,0,0,-1,1315,1177,0,0
98,-153,0,0,0,0,0,0,0,0,0,-1,1322,1177,0,0
105,-153,0,0,0,0,0,0,0,0,0,-1,1329,1177,0,0
112,-153,0,0,0,0,0,0,0,0,0,-1,1336,1177,0,0
119,-153,0,0,0,0,0,0,0,0,0,-1,1343,1177,0,0
126,-153,0,0,0,0,0,0,0,0,0,-1,1350,1177,0,0
133,-153,0,0,0,0,0,0,0,0,0,-1,1357,1177,0,0
140,-153,0,0,0,0,0,0,0,0,0,-1,1364,1177,0,0
147,-153,0,0,0,0,0,0,0,0,0,-1,1371,1177,0,0
154,-153,0,0,0,0,0,0,0,0,0,-1,1378,1177,0,0
161,-153,0,0,0,0,0,0,0,0,0,-1,1385,1177,0,0
168,-153,0,0,0,0,0,0,0,0,0,-1,1392,1177,0,0
175,-153,0,0,0,0,0,0,0,0,0,-1,1399,1177,0,0
182,-153,0,0,0,0,0,0,0,0,0,-1,1406,1177,0,0
189,-153,0,0,0,0,0,0,0,0,0,-1,1413,1177,0,0
196,-153,0,0,0,0,0,0,0,0,0,-1,1420,1177,0,0
203,-153,0,0,0,0,0,0,0,0,0,-1,1427,1177,0,0
210,-153,0,0,0,0,0,0,0,0,0,-1,1434,1177,0,0
217,-153,0,0,0,0,0,0,0,0,0,-1,1441,1177,0,0
224,-153,0,0,0,0,0,0,0,0,0,-1,1448,1177,0,0
231,-153,0,0,0,0,0,0,0,0,0,-1,1455,1177,0,0
238,-153,0,0,0,0,0,0,0,0,0,-1,1462,1177,0,0
245,-153,0,0,0,0,0,0,0,0,0,-1,1469,1177,0,0
252,-153,0,0,0,0,0,0,0,0,0,-1,1476,1177,0,0
259,-153,0,0,0,0,0,0,0,0,0,-1,1483,1177,0,0
266,-153,0,0,0,0,0,0,0,0,0,-1,1490,1177,0,0
273,-153,0,0,0,0,0,0,0,0,0,-1,1497,1177,0,0
280,-153,0,0,0,0,0,0,0,0,0,-1,1504,1177,0,0
287,-153,0,0,0,0,0,0,0,0,0,-1,1511,1177,0,0
294,-153,0,0,0,0,0,0,0,0,0,-1,1518,1177,0,0
301,-153,0,0,0,0,0,0,0,0,0,-1,1525,1177,0,0
308,-153,0,0,0,0,0,0,0,0,0,-1,1532,1177,0,0
315,-153,0,0,0,0,0,0,0,0,0,-1,1539,1177,0,0
322,-153,0,0,0,0,0,0,0,0,0,-1,1546,1177,0,0
329,-153,0,0,0,0,0,0,0,0,0,-1,1553,1177,0,0
336,-153,0,0,0,0,0,0,0,0,0,-1,1560,1177,0,0
343,-153,0,0,0,0,0,0,0,0,0,-1,1567,1177,0,0
350,-153,0,0,0,0,0,0,0,0,0,-1,1574,1177,0,0
357,-153,0,0,0,0,0,0,0,0,0,-1,1581,1177,0,0
364,-153,0,0,0,0,0,0,0,0,0,-1,1588,1177,0,0
371,-153,0,0,0,0,0,0,0,0,0,-1,1595,1177,0,0
378,-153,0,0,0,0,0,0,0,0,0,-1,1602,1177,0,0
385,-153,0,0,0,0,0,0,0,0,0,-1,1609,1177,0,0
392,-153,0,0,0,0,0,0,0,0,0,-1,1616,1177,0,0
399,-153,0,0,0,0,0,0,0,0,0,-1,1623,1177,0,0
406,-153,0,0,0,0,0,0,0,0,0,-1,1630,1177,0,0
413,-153,0,0,0,0,0,0,0,0,0,-1,1637,1177,0,0
420,-153,0,0,0,0,0,0,0,0,0,-1,1644,1177,0,0
427,-153,0,0,0,0,0,0,0,0,0,-1,1651,1177,0,0
434,-153,0,0,0,0,0,0,0,0,0,-1,1658,1177,0,0
441,-153,0,0,0,0,0,0,0,0,0,-1,1665,1177,0,0
448,-153,0,0,0,0,0,0,0,0,0,-1,1672,1177,0,0
455,-153,0,0,0,0,0,0,0,0,0,-1,1679,1177,0,0
462,-153,0,0,0,0,0,0,0,0,0,-1,1686,1177,0,0
469,-153,0,0,0,0,0,0,0,0,0,-1,1693,1177,0,0
476,-153,0,0,0,0,0,0,0,0,0,-1,1700,1177,0,0
483,-153,0,0,0,0,0,0,0,0,0,-1,1707,1177,0,0
490,-153,0,0,0,0,0,0,0,0,0,-1,1714,1177,0,0
497,-153,0,0,0,0,0,0,0,0,0,-1,1721,1177,0,0
504,-153,0,0,0,0,0,0,0,0,0,-1,1728,1177,0,0
511,-153,0,0,0,0,0,0,0,0,0,-1,1735,1177,0,0
518,-153,0,0,0,0,0,0,0,0,0,-1,1742,1177,0,0
525,-153,0,0,0,0,0,0,0,0,0,-1,1749,1177,0,0
532,-153,0,0,0,0,0,0,0,0,0,-1,1756,1177,0,0
539,-153,0,0,0,0,0,0,0,0,0,-1,1763,1177,0,0
546,-153,0,0,0,0,0,0,0,0,0,-1,1770,1177,0,0
553,-153,0,0,0,0,0,0,0,0,0,-1,1777,1177,0,0
560,-153,0,0,0,0,0,0,0,0,0,-1,1784,1177,0,0
567,-153,0,0,0,0,0,0,0,0,0,-1,1791,1177,0,0
574,-153,0,0,0,0,0,0,0,0,0,-1,1798,1177,0,0
581,-153,0,0,0,0,0,0,0,0,0,-1,1805,1177,0,0
588,-153,0,0,0,0,0,0,0,0,0,-1,1812,1177,0,0
595,-153,0,0,0,0,0,0,0,0,0,-1,1819,1177,0,0
602,-153,0,0,0,0,0,0,0,0,0,-1,1826,1177,0,0
609,-153,0,0,0,0,0,0,0,0,0,-1,1833,1177,0,0
616,-153,0,0,0,0,0,0,0,0,0,-1,1840,1177,0,0
623,-153,0,0,0,0,0,0,0,0,0,-1,1847,1177,0,0
630,-153,0,0,0,0,0,0,0,0,0,-1,1854,1177,0,0
637,-153,49.3894,2.51611,-6.14657e-05,0.00165434,0.00553158,0.00639415,-0.00480127,0.862331,0.00648545,0.0416469,1861,1177,49.3894,-2.51607
644,-153,49.4432,2.59094,-0.000255201,0.00134821,0.00407517,0.00469978,-0.00360678,0.882522,0.00480961,0.0384565,1868,1177,49.4432,-2.59097
651,-153,49.4713,2.63013,-0.0001911,0.00116106,0.00264431,0.00321435,-0.00224439,0.910554,0.00316815,0.0304176,1875,1177,49.4713,-2.63013
658,-153,49.4781,2.67749,9.58907e-05,0.00106512,0.00131537,0.00198231,-0.000821302,0.961894,0.00166429,0.0366121,1882,1177,49.4782,-2.67746
665,-153,49.5033,2.6925,0.000485801,0.00099798,8.70114e-05,0.00101236,0.000471423,1.40703,0.000584944,0.0421456,1889,1177,49.5033,-2.69253
672,-153,49.4764,2.6615,0.000585984,0.000972637,-0.000674618,0.00148108,7.75381e-05,-0.924944,0.000962584,0.039528,1896,1177,49.4764,-2.66145
679,-153,49.4139,2.66357,0.000439824,0.000675324,-0.000824729,0.00139067,-0.000275518,-0.856306,0.00103129,0.0287414,1903,1177,49.414,-2.66361
686,-153,49.4375,2.66602,0.000203361,0.000446232,-0.000615051,0.000951721,-0.000302128,-0.882864,0.0007556,0.0194805,1910,1177,49.4375,-2.66604
693,-153,49.5377,2.64209,-5.92292e-05,0.000303351,-0.000416808,0.000576588,-0.000332467,-0.990531,0.000531114,0.0360754,1917,1177,49.5377,-2.6421
700,-153,49.6478,2.59375,0,0,0,0,0,0,0,-1,1924,1177,49.6478,-2.59375
707,-153,29.6483,6.6842,0,0,0,0,0,0,0,-1,1931,1177,29.6483,-6.68415
714,-153,36.0046,6.78418,0,0,0,0,0,0,0,-1,1938,1177,36.0046,-6.78418
721,-153,36.4866,6.47595,0,0,0,0,0,0,0,-1,1945,1177,36.4866,-6.47593
728,-153,43.0634,6.95898,0,0,0,0,0,0,0,-1,1952,1177,43.0633,-6.95898
735,-153,43.0858,6.72327,-0.000378047,-0.000128449,0.000848903,0.000604779,-0.00111128,0.858382,0.00100505,0.0384837,1959,1177,43.0859,-6.72329
742,-153,43.1233,6.41162,-0.000216286,0.000350015,0.00112069,0.00122277,-0.00108904,0.909137,0.00133547,0.0148995,1966,1177,43.1233,-6.4116
749,-153,43.1062,6.01929,0.000633067,0.00192672,0.00131059,0.00274141,-0.000181626,1.01463,0.00189106,0.0157899,1973,1177,43.1062,-6.01934
756,-153,43.0916,5.61914,0.0016338,0.00527166,0.00130092,0.005689,0.00121647,1.26037,0.00345922,0.0110502,1980,1177,43.0916,-5.61915
763,-153,43.0466,5.24573,0.00292815,0.00974162,0.00131838,0.00998783,0.00268195,1.38617,0.00596891,0.0113083,1987,1177,43.0466,-5.24577
770,-153,43.0355,4.85681,0.00387974,0.0151944,0.00150231,0.0153905,0.00368367,1.44102,0.00927942,0.0119198,1994,1177,43.0355,-4.85686
777,-153,43.0098,4.4303,0.00428722,0.0217489,0.0019222,0.021958,0.00407812,1.46244,0.0134864,0.0247363,2001,1177,43.0098,-4.43034
784,-153,43.3518,3.49683,0.00385531,0.0297026,0.0026923,0.0299801,0.00357786,1.4681,0.0189073,0.0433028,2008,1177,43.3519,-3.49687
791,-153,43.781,2.62085,0.0022563,0.0396219,0.00398478,0.0400421,0.00183608,1.46573,0.0261043,0.0461864,2015,1177,43.781,-2.62087
798,-153,45.1274,4.91699,-0.00108965,0.0518979,0.0060927,0.0525894,-0.00178119,1.45778,0.0356682,0.0447619,2022,1177,45.1274,-4.91702
805,-153,44.5117,5.03931,-0.00710986,0.0670215,0.00964228,0.0682551,-0.0083435,1.44355,0.0485243,0.0441299,2029,1177,44.5118,-5.03937
812,-153,0,0,0,0,0,0,0,0,0,-1,2036,1177,0,0
-700,-160,0,0,0,0,0,0,0,0,0,-1,524,1184,0,0
-693,-160,0,0,0,0,0,0,0,0,0,-1,531,1184,0,0
-686,-160,-28.2181,-0.876221,0,0,0,0,0,0,0,-1,538,1184,-28.2181,0.876236
-679,-160,-30.019,0.710693,0,0,0,0,0,0,0,-1,545,1184,-30.019,-0.710641
-672,-160,-29.7811,1.12756,0,0,0,0,0,0,0,-1,552,1184,-29.7811,-1.12758
-665,-160,-29.1516,1.06226,0,0,0,0,0,0,0,-1,559,1184,-29.1516,-1.06223
-658,-160,-29.5677,1.96265,0,0,0,0,0,0,0,-1,566,1184,-29.5678,-1.96259
-651,-160,-29.5119,1.12634,0,0,0,0,0,0,0,-1,573,1184,-29.5119,-1.12631
-644,-160,-29.4376,1.56909,0.00568711,-0.00101518,-0.0146942,0.0174075,-0.0127355,-0.673286,0.0174726,0.0373814,580,1184,-29.4377,-1.5691
-637,-160,-29.5565,2.09924,0.00322877,0.00105629,-0.00981573,0.0120182,-0.00773312,-0.730291,0.0114925,0.0142108,587,1184,-29.5565,-2.09919
-630,-160,-29.6214,2.49951,0.00154195,0.00209929,-0.00612515,0.0079521,-0.00431086,-0.80813,0.00718331,0.00946275,594,1184,-29.6214,-2.49954
-623,-160,-29.6663,2.9353,0.000605524,0.00203352,-0.00353735,0.00492821,-0.00228917,-0.884983,0.0042588,0.0137838,601,1184,-29.6663,-2.93527
-616,-160,-29.6712,3.40234,-2.24683e-05,0.00152485,-0.00169377,0.00261329,-0.00111091,-0.999631,0.00220772,0.0119172,608,1184,-29.6712,-3.40239
-609,-160,-29.6671,3.90247,-0.000519258,0.0011549,-0.000707828,0.00141405,-0.00077841,-1.21983,0.00128343,0.0143566,615,1184,-29.6671,-3.90246
-602,-160,-29.5654,4.5658,-0.000876222,0.00110243,-0.000211927,0.00112488,-0.000898667,-1.46528,0.00117072,0.0498188,622,1184,-29.5654,-4.56575
-595,-160,-29.6506,5.44702,0,0,0,0,0,0,0,-1,629,1184,-29.6506,-5.44707
-588,-160,-28.2798,5.22412,0,0,0,0,0,0,0,-1,636,1184,-28.2798,-5.22415
-581,-160,-25.2925,4.6272,0,0,0,0,0,0,0,-1,643,1184,-25.2925,-4.62719
-574,-160,-28.1793,4.33484,0,0,0,0,0,0,0,-1,650,1184,-28.1792,-4.33488
-567,-160,-29.5828,0.643921,0,0,0,0,0,0,0,-1,657,1184,-29.5828,-0.643968
-560,-160,-36.6732,0.884277,0,0,0,0,0,0,0,-1,664,1184,-36.6732,-0.884227
-553,-160,-36.708,0.960571,-0.00183426,0.00195885,-0.000567026,0.0020418,-0.00191721,-1.42554,0.00228612,0.0399448,671,1184,-36.708,-0.96056
-546,-160,-36.6971,0.97583,-0.00168188,0.00203508,-0.00102509,0.00229904,-0.00194584,-1.31877,0.00245361,0.0386433,678,1184,-36.6971,-0.975771
-539,-160,-36.6848,0.941406,-0.00131469,0.00273645,-0.00177438,0.00340371,-0.00198196,-1.2111,0.00314533,0.0419398,685,1184,-36.6848,-0.941362
-532,-160,-36.8126,1.16284,-0.0013977,0.0034315,-0.00311232,0.00495604,-0.00292224,-1.11531,0.00459877,0.0464116,692,1184,-36.8125,-1.16288
-525,-160,-36.7327,1.02307,-0.00135616,0.0045826,-0.00475887,0.00722251,-0.00399607,-1.06433,0.00656573,0.0463603,699,1184,-36.7327,-1.02311
-518,-160,-36.8613,1.19958,-0.00155071,0.00613892,-0.00603677,0.00945129,-0.00486308,-1.06895,0.00840472,0.0433593,706,1184,-36.8613,-1.19957
-511,-160,0,0,0,0,0,0,0,0,0,-1,713,1184,0,0
-504,-160,0,0,0,0,0,0,0,0,0,-1,720,1184,0,0
-497,-160,0,0,0,0,0,0,0,0,0,-1,727,1184,0,0
-490,-160,0,0,0,0,0,0,0,0,0,-1,734,1184,0,0
-483,-160,0,0,0,0,0,0,0,0,0,-1,741,1184,0,0
-476,-160,0,0,0,0,0,0,0,0,0,-1,748,1184,0,0
-469,-160,0,0,0,0,0,0,0,0,0,-1,755,1184,0,0
-462,-160,0,0,0,0,0,0,0,0,0,-1,762,1184,0,0
-455,-160,0,0,0,0,0,0,0,0,0,-1,769,1184,0,0
-448,-160,0,0,0,0,0,0,0,0,0,-1,776,1184,0,0
-441,-160,0,0,0,0,0,0,0,0,0,-1,783,1184,0,0
-434,-160,0,0,0,0,0,0,0,0,0,-1,790,1184,0,0
-427,-160,0,0,0,0,0,0,0,0,0,-1,797,1184,0,0
-420,-160,0,0,0,0,0,0,0,0,0,-1,804,1184,0,0
-413,-160,0,0,0,0,0,0,0,0,0,-1,811,1184,0,0
-406,-160,0,0,0,0,0,0,0,0,0,-1,818,1184,0,0
-399,-160,0,0,0,0,0,0,0,0,0,-1,825,1184,0,0
-392,-160,0,0,0,0,0,0,0,0,0,-1,832,1184,0,0
-385,-160,0,0,0,0,0,0,0,0,0,-1,839,1184,0,0
-378,-160,0,0,0,0,0,0,0,0,0,-1,846,1184,0,0
-371,-160,0,0,0,0,0,0,0,0,0,-1,853,1184,0,0
-364,-160,0,0,0,0,0,0,0,0,0,-1,860,1184,0,0
-357,-160,0,0,0,0,0,0,0,0,0,-1,867,1184,0,0
-350,-160,0,0,0,0,0,0,0,0,0,-1,874,1184,0,0
-343,-160,0,0,0,0,0,0,0,0,0,-1,881,1184,0,0
-336,-160,0,0,0,0,0,0,0,0,0,-1,888,1184,0,0
-329,-160,0,0,0,0,0,0,0,0,0,-1,895,1184,0,0
-322,-160,0,0,0,0,0,0,0,0,0,-1,902,1184,0,0
-315,-160,0,0,0,0,0,0,0,0,0,-1,909,1184,0,0
-308,-160,0,0,0,0,0,0,0,0,0,-1,916,1184,0,0
-301,-160,0,0,0,0,0,0,0,0,0,-1,923,1184,0,0
-294,-160,0,0,0,0,0,0,0,0,0,-1,930,1184,0,0
-287,-160,0,0,0,0,0,0,0,0,0,-1,937,1184,0,0
-280,-160,0,0,0,0,0,0,0,0,0,-1,944,1184,0,0
-273,-160,0,0,0,0,0,0,0,0,0,-1,951,1184,0,0
-266,-160,0,0,0,0,0,0,0,0,0,-1,958,1184,0,0
-259,-160,0,0,0,0,0,0,0,0,0,-1,965,1184,0,0
-252,-160,0,0,0,0,0,0,0,0,0,-1,972,1184,0,0
-245,-160,0,0,0,0,0,0,0,0,0,-1,979,1184,0,0
-238,-160,0,0,0,0,0,0,0,0,0,-1,986,1184,0,0
-231,-160,0,0,0,0,0,0,0,0,0,-1,993,1184,0,0
-224,-160,0,0,0,0,0,0,0,0,0,-1,1000,1184,0,0
-217,-160,0,0,0,0,0,0,0,0,0,-1,1007,1184,0,0
-210,-160,0,0,0,0,0,0,0,0,0,-1,1014,1184,0,0
-203,-160,0,0,0,0,0,0,0,0,0,-1,1021,1184,0,0
-196,-160,0,0,0,0,0,0,0,0,0,-1,1028,1184,0,0
-189,-160,0,0,0,0,0,0,0,0,0,-1,1035,1184,0,0
-182,-160,0,0,0,0,0,0,0,0,0,-1,1042,1184,0,0
-175,-160,0,0,0,0,0,0,0,0,0,-1,1049,1184,0,0
-168,-160,0,0,0,0,0,0,0,0,0,-1,1056,1184,0,0
-161,-160,0,0,0,0,0,0,0,0,0,-1,1063,1184,0,0
-154,-160,0,0,0,0,0,0,0,0,0,-1,1070,1184,0,0
-147,-160,0,0,0,0,0,0,0,0,0,-1,1077,1184,0,0
-140,-160,0,0,0,0,0,0,0,0,0,-1,1084,1184,0,0
-133,-160,0,0,0,0,0,0,0,0,0,-1,1091,1184,0,0
-126,-160,0,0,0,0,0,0,0,0,0,-1,1098,1184,0,0
-119,-160,0,0,0,0,0,0,0,0,0,-1,1105,1184,0,0
-112,-160,0,0,0,0,0,0,0,0,0,-1,1112,1184,0,0
-105,-160,0,0,0,0,0,0,0,0,0,-1,1119,1184,0,0
-98,-160,0,0,0,0,0,0,0,0,0,-1,1126,1184,0,0
-91,-160,0,0,0,0,0,0,0,0,0,-1,1133,1184,0,0
-84,-160,0,0,0,0,0,0,0,0,0,-1,1140,1184,0,0
-77,-160,0,0,0,0,0,0,0,0,0,-1,1147,1184,0,0
-70,-160,0,0,0,0,0,0,0,0,0,-1,1154,1184,0,0
-63,-160,0,0,0,0,0,0,0,0,0,-1,1161,1184,0,0
-56,-160,0,0,0,0,0,0,0,0,0,-1,1168,1184,0,0
-49,-160,0,0,0,0,0,0,0,0,0,-1,1175,1184,0,0
-42,-160,0,0,0,0,0,0,0,0,0,-1,1182,1184,0,0
-35,-160,0,0,0,0,0,0,0,0,0,-1,1189,1184,0,0
-28,-160,0,0,0,0,0,0,0,0,0,-1,1196,1184,0,0
-21,-160,0,0,0,0,0,0,0,0,0,-1,1203,1184,0,0
-14,-160,0,0,0,0,0,0,0,0,0,-1,1210,1184,0,0
-7,-160,0,0,0,0,0,0,0,0,0,-1,1217,1184,0,0
0,-160,0,0,0,0,0,0,0,0,0,-1,1224,1184,0,0
7,-160,0,0,0,0,0,0,0,0,0,-1,1231,1184,0,0
14,-160,0,0,0,0,0,0,0,0,0,-1,1238,1184,0,0
21,-160,0,0,0,0,0,0,0,0,0,-1,1245,1184,0,0
28,-160,0,0,0,0,0,0,0,0,0,-1,1252,1184,0,0
35,-160,0,0,0,0,0,0,0,0,0,-1,1259,1184,0,0
42,-160,0,0,0,0,0,0,0,0,0,-1,1266,1184,0,0
49,-160,0,0,0,0,0,0,0,0,0,-1,1273,1184,0,0
56,-160,0,0,0,0,0,0,0,0,0,-1,1280,1184,0,0
63,-160,0,0,0,0,0,0,0,0,0,-1,1287,1184,0,0
70,-160,0,0,0,0,0,0,0,0,0,-1,1294,1184,0,0
77,-160,0,0,0,0,0,0,0,0,0,-1,1301,1184,0,0
84,-160,0,0,0,0,0,0,0,0,0,-1,1308,1184,0,0
91,-160,0,0,0,0,0,0,0,0,0,-1,1315,1184,0,0
98,-160,0,0,0,0,0,0,0,0,0,-1,1322,1184,0,0
105,-160,0,0,0,0,0,0,0,0,0,-1,1329,1184,0,0
112,-160,0,0,0,0,0,0,0,0,0,-1,1336,1184,0,0
119,-160,0,0,0,0,0,0,0,0,0,-1,1343,1184,0,0
126,-160,0,0,0,0,0,0,0,0,0,-1,1350,1184,0,0
133,-160,0,0,0,0,0,0,0,0,0,-1,1357,1184,0,0
140,-160,0,0,0,0,0,0,0,0,0,-1,1364,1184,0,0
147,-160,0,0,0,0,0,0,0,0,0,-1,1371,1184,0,0
154,-160,0,0,0,0,0,0,0,0,0,-1,1378,1184,0,0
161,-160,0,0,0,0,0,0,0,0,0,-1,1385,1184,0,0
168,-160,0,0,0,0,0,0,0,0,0,-1,1392,1184,0,0
175,-160,0,0,0,0,0,0,0,0,0,-1,1399,1184,0,0
182,-160,0,0,0,0,0,0,0,0,0,-1,1406,1184,0,0
189,-160,0,0,0,0,0,0,0,0,0,-1,1413,1184,0,0
196,-160,0,0,0,0,0,0,0,0,0,-1,1420,1184,0,0
203,-160,0,0,0,0,0,0,0,0,0,-1,1427,1184,0,0
210,-160,0,0,0,0,0,0,0,0,0,-1,1434,1184,0,0
217,-160,0,0,0,0,0,0,0,0,0,-1,1441,1184,0,0
224,-160,0,0,0,0,0,0,0,0,0,-1,1448,1184,0,0
231,-160,0,0,0,0,0,0,0,0,0,-1,1455,1184,0,0
238,-160,0,0,0,0,0,0,0,0,0,-1,1462,1184,0,0
245,-160,0,0,0,0,0,0,0,0,0,-1,1469,1184,0,0
252,-160,0,0,0,0,0,0,0,0,0,-1,1476,1184,0,0
259,-160,0,0,0,0,0,0,0,0,0,-1,1483,1184,0,0
266,-160,0,0,0,0,0,0,0,0,0,-1,1490,1184,0,0
273,-160,0,0,0,0,0,0,0,0,0,-1,1497,1184,0,0
280,-160,0,0,0,0,0,0,0,0,0,-1,1504,1184,0,0
287,-160,0,0,0,0,0,0,0,0,0,-1,1511,1184,0,0
294,-160,0,0,0,0,0,0,0,0,0,-1,1518,1184,0,0
301,-160,0,0,0,0,0,0,0,0,0,-1,1525,1184,0,0
308,-160,0,0,0,0,0,0,0,0,0,-1,1532,1184,0,0
315,-160,0,0,0,0,0,0,0,0,0,-1,1539,1184,0,0
322,-160,0,0,0,0,0,0,0,0,0,-1,1546,1184,0,0
329,-160,0,0,0,0,0,0,0,0,0,-1,1553,1184,0,0
336,-160,0,0,0,0,0,0,0,0,0,-1,1560,1184,0,0
343,-160,0,0,0,0,0,0,0,0,0,-1,1567,1184,0,0
350,-160,0,0,0,0,0,0,0,0,0,-1,1574,1184,0,0
357,-160,0,0,0,0,0,0,0,0,0,-1,1581,1184,0,0
364,-160,0,0,0,0,0,0,0,0,0,-1,1588,1184,0,0
371,-160,0,0,0,0,0,0,0,0,0,-1,1595,1184,0,0
378,-160,0,0,0,0,0,0,0,0,0,-1,1602,1184,0,0
385,-160,0,0,0,0,0,0,0,0,0,-1,1609,1184,0,0
392,-160,0,0,0,0,0,0,0,0,0,-1,1616,1184,0,0
399,-160,0,0,0,0,0,0,0,0,0,-1,1623,1184,0,0
406,-160,0,0,0,0,0,0,0,0,0,-1,1630,1184,0,0
413,-160,0,0,0,0,0,0,0,0,0,-1,1637,1184,0,0
420,-160,0,0,0,0,0,0,0,0,0,-1,1644,1184,0,0
427,-160,0,0,0,0,0,0,0,0,0,-1,1651,1184,0,0
434,-160,0,0,0,0,0,0,0,0,0,-1,1658,1184,0,0
441,-160,0,0,0,0,0,0,0,0,0,-1,1665,1184,0,0
448,-160,0,0,0,0,0,0,0,0,0,-1,1672,1184,0,0
455,-160,0,0,0,0,0,0,0,0,0,-1,1679,1184,0,0
462,-160,0,0,0,0,0,0,0,0,0,-1,1686,1184,0,0
469,-160,0,0,0,0,0,0,0,0,0,-1,1693,1184,0,0
476,-160,0,0,0,0,0,0,0,0,0,-1,1700,1184,0,0
483,-160,0,0,0,0,0,0,0,0,0,-1,1707,1184,0,0
490,-160,0,0,0,0,0,0,0,0,0,-1,1714,1184,0,0
497,-160,0,0,0,0,0,0,0,0,0,-1,1721,1184,0,0
504,-160,0,0,0,0,0,0,0,0,0,-1,1728,1184,0,0
511,-160,0,0,0,0,0,0,0,0,0,-1,1735,1184,0,0
518,-160,0,0,0,0,0,0,0,0,0,-1,1742,1184,0,0
525,-160,0,0,0,0,0,0,0,0,0,-1,1749,1184,0,0
532,-160,0,0,0,0,0,0,0,0,0,-1,1756,1184,0,0
539,-160,0,0,0,0,0,0,0,0,0,-1,1763,1184,0,0
546,-160,0,0,0,0,0,0,0,0,0,-1,1770,1184,0,0
553,-160,0,0,0,0,0,0,0,0,0,-1,1777,1184,0,0
560,-160,0,0,0,0,0,0,0,0,0,-1,1784,1184,0,0
567,-160,0,0,0,0,0,0,0,0,0,-1,1791,1184,0,0
574,-160,0,0,0,0,0,0,0,0,0,-1,1798,1184,0,0
581,-160,0,0,0,0,0,0,0,0,0,-1,1805,1184,0,0
588,-160,0,0,0,0,0,0,0,0,0,-1,1812,1184,0,0
595,-160,0,0,0,0,0,0,0,0,0,-1,1819,1184,0,0
602,-160,0,0,0,0,0,0,0,0,0,-1,1826,1184,0,0
609,-160,0,0,0,0,0,0,0,0,0,-1,1833,1184,0,0
616,-160,0,0,0,0,0,0,0,0,0,-1,1840,1184,0,0
623,-160,0,0,0,0,0,0,0,0,0,-1,1847,1184,0,0
630,-160,0,0,0,0,0,0,0,0,0,-1,1854,1184,0,0
637,-160,49.4056,2.203,5.21714e-05,0.00107423,0.00513596,0.00572453,-0.00459812,0.834985,0.0059716,0.042863,1861,1184,49.4057,-2.20296
644,-160,49.4917,2.43201,-0.000128048,0.00105567,0.00374562,0.0042559,-0.00332829,0.863757,0.00438964,0.0430651,1868,1184,49.4917,-2.43206
651,-160,49.3989,2.8241,-6.70682e-05,0.00108278,0.00233643,0.00291398,-0.00189827,0.906036,0.0027989,0.0400354,1875,1184,49.399,-2.82412
658,-160,49.4663,2.8147,0.000220789,0.00113725,0.000968179,0.00175016,-0.000392123,1.00642,0.00131708,0.0409388,1882,1184,49.4664,-2.81473
665,-160,49.5341,2.78687,0.000619201,0.00110781,-0.000275046,0.00123138,0.000495626,-1.14854,0.000715432,0.0402175,1889,1184,49.534,-2.78686
672,-160,49.5131,2.79089,0.000710229,0.00105438,-0.000978168,0.00187549,-0.000110883,-0.872466,0.00128888,0.0354885,1896,1184,49.5131,-2.79091
679,-160,49.4161,2.68555,0.00057281,0.000691643,-0.00110098,0.00173481,-0.000470354,-0.812355,0.0013411,0.0270455,1903,1184,49.4161,-2.68559
686,-160,49.4739,2.66675,0.000335854,0.000419488,-0.00086596,0.00124464,-0.000489298,-0.809524,0.00103227,0.0186278,1910,1184,49.4739,-2.66679
693,-160,49.5874,2.62427,0,0,0,0,0,0,0,-1,1917,1184,49.5874,-2.62422
700,-160,42.8784,2.44617,0,0,0,0,0,0,0,-1,1924,1184,42.8785,-2.4462
707,-160,24.5115,6.27405,0,0,0,0,0,0,0,-1,1931,1184,24.5115,-6.27401
714,-160,35.6892,6.8905,0,0,0,0,0,0,0,-1,1938,1184,35.6892,-6.89048
721,-160,36.2388,6.37878,0,0,0,0,0,0,0,-1,1945,1184,36.2388,-6.37876
728,-160,42.7118,7.27319,0,0,0,0,0,0,0,-1,1952,1184,42.7118,-7.27325
735,-160,42.8335,6.79944,-0.000263011,-0.000327392,0.00078328,0.000488739,-0.00107914,0.764861,0.000926363,0.0309143,1959,1184,42.8335,-6.79948
742,-160,42.6958,6.42627,-7.74322e-05,0.000242171,0.000975406,0.00107078,-0.00090604,0.866592,0.00114264,0.0163409,1966,1184,42.6958,-6.42622
749,-160,42.6963,6.0116,0.000688899,0.00184272,0.000874637,0.00231358,0.000218042,1.07694,0.00147508,0.0173387,1973,1184,42.6963,-6.0116
756,-160,42.6851,5.59619,0.00125157,0.00507086,0.00035846,0.00510421,0.00121822,1.47802,0.00307817,0.0111035,1980,1184,42.6851,-5.59621
763,-160,42.6177,5.23816,0.00190103,0.00923159,-0.000369229,0.00925014,0.00188248,-1.5206,0.00564489,0.0125798,1987,1184,42.6177,-5.23812
770,-160,42.5627,4.80005,0.002082,0.0143356,-0.00112605,0.0144382,0.00197938,-1.47992,0.00903824,0.0249196,1994,1184,42.5627,-4.80005
777,-160,42.5381,4.40857,0.0015535,0.020505,-0.00186256,0.0206863,0.00137218,-1.47375,0.013357,0.0369631,2001,1184,42.5381,-4.40856
784,-160,42.7551,3.30188,1.40978e-05,0.0280073,-0.00250405,0.0282295,-0.00020813,-1.48228,0.0188894,0.0426693,2008,1184,42.7551,-3.3019
791,-160,42.8145,2.39929,-0.00288163,0.0374195,-0.00298582,0.0376395,-0.00310164,-1.49724,0.0261882,0.0466191,2015,1184,42.8146,-2.39924
798,-160,42.8335,1.56702,0,0,0,0,0,0,0,-1,2022,1184,42.8335,-1.56705
805,-160,42.3757,1.16602,0,0,0,0,0,0,0,-1,2029,1184,42.3758,-1.16605
812,-160,0,0,0,0,0,0,0,0,0,-1,2036,1184,0,0
-700,-167,0,0,0,0,0,0,0,0,0,-1,524,1191,0,0
-693,-167,0,0,0,0,0,0,0,0,0,-1,531,1191,0,0
-686,-167,-28.2231,0.381348,0,0,0,0,0,0,0,-1,538,1191,-28.2231,-0.381358
-679,-167,-29.3936,1.24109,0,0,0,0,0,0,0,-1,545,1191,-29.3935,-1.24107
-672,-167,-29.1761,1.68872,0,0,0,0,0,0,0,-1,552,1191,-29.1761,-1.68876
-665,-167,-29.0451,2.3623,0,0,0,0,0,0,0,-1,559,1191,-29.0451,-2.36236
-658,-167,-28.9743,2.94409,0,0,0,0,0,0,0,-1,566,1191,-28.9743,-2.94407
-651,-167,-28.739,0.952271,0,0,0,0,0,0,0,-1,573,1191,-28.739,-0.952235
-644,-167,-28.8905,1.53845,0.00564658,-0.00465292,-0.0121156,0.0136615,-0.0126678,-0.584441,0.0152048,0.0418369,580,1191,-28.8905,-1.53843
-637,-167,-29.0793,2.12622,0.00332587,-0.0013537,-0.00812919,0.0094453,-0.00747313,-0.645273,0.00978995,0.0182998,587,1191,-29.0793,-2.12618
-630,-167,-29.1606,2.50769,0.00172572,0.000574029,-0.00518614,0.00636789,-0.00406814,-0.730107,0.00607381,0.00966549,594,1191,-29.1606,-2.50768
-623,-167,-29.1853,2.93164,0.000771784,0.00132288,-0.00316784,0.00422714,-0.00213247,-0.828781,0.00373752,0.0127304,601,1191,-29.1853,-2.93163
-616,-167,-29.1968,3.39771,2.63296e-05,0.00142536,-0.0016642,0.00253108,-0.00107939,-0.984353,0.00213994,0.0160047,608,1191,-29.1969,-3.39773
-609,-167,-29.2064,3.89563,-0.000619395,0.00114243,-0.000725098,0.00140247,-0.000879436,-1.22646,0.00132895,0.0135906,615,1191,-29.2064,-3.89565
-602,-167,-29.2305,4.34998,-0.0010918,0.00114097,-0.000283186,0.00117632,-0.00112716,-1.44658,0.00133002,0.0167758,622,1191,-29.2304,-4.34999
-595,-167,-29.1305,4.75305,0,0,0,0,0,0,0,-1,629,1191,-29.1305,-4.7531
-588,-167,-29.4196,5.12512,0,0,0,0,0,0,0,-1,636,1191,-29.4196,-5.12513
-581,-167,-29.0225,5.26208,0,0,0,0,0,0,0,-1,643,1191,-29.0225,-5.26203
-574,-167,-24.1547,5.43677,0,0,0,0,0,0,0,-1,650,1191,-24.1547,-5.43682
-567,-167,-27.3643,2.55859,0,0,0,0,0,0,0,-1,657,1191,-27.3643,-2.55864
-560,-167,-36.5168,0.766968,0,0,0,0,0,0,0,-1,664,1191,-36.5169,-0.766918
-553,-167,-36.6069,0.788696,-0.00178695,0.00207718,-0.00112589,0.00238129,-0.00209107,-1.30698,0.00258393,0.039374,671,1191,-36.6069,-0.788707
-546,-167,-36.6816,0.907715,-0.00154736,0.00203639,-0.00157396,0.0026295,-0.00214047,-1.21043,0.00275877,0.0340762,678,1191,-36.6816,-0.907746
-539,-167,-36.7416,1.00476,-0.00106037,0.00263099,-0.0021256,0.0036004,-0.00202978,-1.14291,0.00329248,0.0377114,685,1191,-36.7416,-1.0048
-532,-167,-36.673,1.0365,-0.00112079,0.00326546,-0.00308913,0.00486081,-0.00271614,-1.09408,0.00443258,0.0438047,692,1191,-36.673,-1.03653
-525,-167,-36.5351,0.80542,-0.000997418,0.00457041,-0.00426923,0.00688321,-0.00331022,-1.07432,0.00600448,0.0452256,699,1191,-36.5351,-0.805452
-518,-167,-36.6672,0.879761,-0.00106149,0.00627731,-0.00500737,0.00881583,-0.00360001,-1.1016,0.00737612,0.0455137,706,1191,-36.6672,-0.879717
-511,-167,0,0,0,0,0,0,0,0,0,-1,713,1191,0,0
-504,-167,0,0,0,0,0,0,0,0,0,-1,720,1191,0,0
-497,-167,0,0,0,0,0,0,0,0,0,-1,727,1191,0,0
-490,-167,0,0,0,0,0,0,0,0,0,-1,734,1191,0,0
-483,-167,0,0,0,0,0,0,0,0,0,-1,741,1191,0,0
-476,-167,0,0,0,0,0,0,0,0,0,-1,748,1191,0,0
-469,-167,0,0,0,0,0,0,0,0,0,-1,755,1191,0,0
-462,-167,0,0,0,0,0,0,0,0,0,-1,762,1191,0,0
-455,-167,0,0,0,0,0,0,0,0,0,-1,769,1191,0,0
-448,-167,0,0,0,0,0,0,0,0,0,-1,776,1191,0,0
-441,-167,0,0,0,0,0,0,0,0,0,-1,783,1191,0,0
-434,-167,0,0,0,0,0,0,0,0,0,-1,790,1191,0,0
-427,-167,0,0,0,0,0,0,0,0,0,-1,797,1191,0,0
-420,-167,0,0,0,0,0,0,0,0,0,-1,804,1191,0,0
-413,-167,0,0,0,0,0,0,0,0,0,-1,811,1191,0,0
-406,-167,0,0,0,0,0,0,0,0,0,-1,818,1191,0,0
-399,-167,0,0,0,0,0,0,0,0,0,-1,825,1191,0,0
-392,-167,0,0,0,0,0,0,0,0,0,-1,832,1191,0,0
-385,-167,0,0,0,0,0,0,0,0,0,-1,839,1191,0,0
-378,-167,0,0,0,0,0,0,0,0,0,-1,846,1191,0,0
-371,-167,0,0,0,0,0,0,0,0,0,-1,853,1191,0,0
-364,-167,0,0,0,0,0,0,0,0,0,-1,860,1191,0,0
-357,-167,0,0,0,0,0,0,0,0,0,-1,867,1191,0,0
-350,-167,0,0,0,0,0,0,0,0,0,-1,874,1191,0,0
-343,-167,0,0,0,0,0,0,0,0,0,-1,881,1191,0,0
-336,-167,0,0,0,0,0,0,0,0,0,-1,888,1191,0,0
-329,-167,0,0,0,0,0,0,0,0,0,-1,895,1191,0,0
-322,-167,0,0,0,0,0,0,0,0,0,-1,902,1191,0,0
-315,-167,0,0,0,0,0,0,0,0,0,-1,909,1191,0,0
-308,-167,0,0,0,0,0,0,0,0,0,-1,916,1191,0,0
-301,-167,0,0,0,0,0,0,0,0,0,-1,923,1191,0,0
-294,-167,0,0,0,0,0,0,0,0,0,-1,930,1191,0,0
-287,-167,0,0,0,0,0,0,0,0,0,-1,937,1191,0,0
-280,-167,0,0,0,0,0,0,0,0,0,-1,944,1191,0,0
-273,-167,0,0,0,0,0,0,0,0,0,-1,951,1191,0,0
-266,-167,0,0,0,0,0,0,0,0,0,-1,958,1191,0,0
-259,-167,0,0,0,0,0,0,0,0,0,-1,965,1191,0,0
-252,-167,0,0,0,0,0,0,0,0,0,-1,972,1191,0,0
-245,-167,0,0,0,0,0,0,0,0,0,-1,979,1191,0,0
-238,-167,0,0,0,0,0,0,0,0,0,-1,986,1191,0,0
-231,-167,0,0,0,0,0,0,0,0,0,-1,993,1191,0,0
-224,-167,0,0,0,0,0,0,0,0,0,-1,1000,1191,0,0
-217,-167,0,0,0,0,0,0,0,0,0,-1,1007,1191,0,0
-210,-167,0,0,0,0,0,0,0,0,0,-1,1014,1191,0,0
-203,-167,0,0,0,0,0,0,0,0,0,-1,1021,1191,0,0
-196,-167,0,0,0,0,0,0,0,0,0,-1,1028,1191,0,0
-189,-167,0,0,0,0,0,0,0,0,0,-1,1035,1191,0,0
-182,-167,0,0,0,0,0,0,0,0,0,-1,1042,1191,0,0
-175,-167,0,0,0,0,0,0,0,0,0,-1,1049,1191,0,0
-168,-167,0,0,0,0,0,0,0,0,0,-1,1056,1191,0,0
-161,-167,0,0,0,0,0,0,0,0,0,-1,1063,1191,0,0
-154,-167,0,0,0,0,0,0,0,0,0,-1,1070,1191,0,0
-147,-167,0,0,0,0,0,0,0,0,0,-1,1077,1191,0,0
-140,-167,0,0,0,0,0,0,0,0,0,-1,1084,1191,0,0
-133,-167,0,0,0,0,0,0,0,0,0,-1,1091,1191,0,0
-126,-167,0,0,0,0,0,0,0,0,0,-1,1098,1191,0,0
-119,-167,0,0,0,0,0,0,0,0,0,-1,1105,1191,0,0
-112,-167,0,0,0,0,0,0,0,0,0,-1,1112,1191,0,0
-105,-167,0,0,0,0,0,0,0,0,0,-1,1119,1191,0,0
-98,-167,0,0,0,0,0,0,0,0,0,-1,1126,1191,0,0
-91,-167,0,0,0,0,0,0,0,0,0,-1,1133,1191,0,0
-84,-167,0,0,0,0,0,0,0,0,0,-1,1140,1191,0,0
-77,-167,0,0,0,0,0,0,0,0,0,-1,1147,1191,0,0
-70,-167,0,0,0,0,0,0,0,0,0,-1,1154,1191,0,0
-63,-167,0,0,0,0,0,0,0,0,0,-1,1161,1191,0,0
-56,-167,0,0,0,0,0,0,0,0,0,-1,1168,1191,0,0
-49,-167,0,0,0,0,0,0,0,0,0,-1,1175,1191,0,0
-42,-167,0,0,0,0,0,0,0,0,0,-1,1182,1191,0,0
-35,-167,0,0,0,0,0,0,0,0,0,-1,1189,1191,0,0
-28,-167,0,0,0,0,0,0,0,0,0,-1,1196,1191,0,0
-21,-167,0,0,0,0,0,0,0,0,0,-1,1203,1191,0,0
-14,-167,0,0,0,0,0,0,0,0,0,-1,1210,1191,0,0
-7,-167,0,0,0,0,0,0,0,0,0,-1,1217,1191,0,0
0,-167,0,0,0,0,0,0,0,0,0,-1,1224,1191,0,0
7,-167,0,0,0,0,0,0,0,0,0,-1,1231,1191,0,0
14,-167,0,0,0,0,0,0,0,0,0,-1,1238,1191,0,0
21,-167,0,0,0,0,0,0,0,0,0,-1,1245,1191,0,0
28,-167,0,0,0,0,0,0,0,0,0,-1,1252,1191,0,0
35,-167,0,0,0,0,0,0,0,0,0,-1,1259,1191,0,0
42,-167,0,0,0,0,0,0,0,0,0,-1,1266,1191,0,0
49,-167,0,0,0,0,0,0,0,0,0,-1,1273,1191,0,0
56,-167,0,0,0,0,0,0,0,0,0,-1,1280,1191,0,0
63,-167,0,0,0,0,0,0,0,0,0,-1,1287,1191,0,0
70,-167,0,0,0,0,0,0,0,0,0,-1,1294,1191,0,0
77,-167,0,0,0,0,0,0,0,0,0,-1,1301,1191,0,0
84,-167,0,0,0,0,0,0,0,0,0,-1,1308,1191,0,0
91,-167,0,0,0,0,0,0,0,0,0,-1,1315,1191,0,0
98,-167,0,0,0,0,0,0,0,0,0,-1,1322,1191,0,0
105,-167,0,0,0,0,0,0,0,0,0,-1,1329,1191,0,0
112,-167,0,0,0,0,0,0,0,0,0,-1,1336,1191,0,0
119,-167,0,0,0,0,0,0,0,0,0,-1,1343,1191,0,0
126,-167,0,0,0,0,0,0,0,0,0,-1,1350,1191,0,0
133,-167,0,0,0,0,0,0,0,0,0,-1,1357,1191,0,0
140,-167,0,0,0,0,0,0,0,0,0,-1,1364,1191,0,0
147,-167,0,0,0,0,0,0,0,0,0,-1,1371,1191,0,0
154,-167,0,0,0,0,0,0,0,0,0,-1,1378,1191,0,0
161,-167,0,0,0,0,0,0,0,0,0,-1,1385,1191,0,0
168,-167,0,0,0,0,0,0,0,0,0,-1,1392,1191,0,0
175,-167,0,0,0,0,0,0,0,0,0,-1,1399,1191,0,0
182,-167,0,0,0,0,0,0,0,0,0,-1,1406,1191,0,0
189,-167,0,0,0,0,0,0,0,0,0,-1,1413,1191,0,0
196,-167,0,0,0,0,0,0,0,0,0,-1,1420,1191,0,0
203,-167,0,0,0,0,0,0,0,0,0,-1,1427,1191,0,0
210,-167,0,0,0,0,0,0,0,0,0,-1,1434,1191,0,0
217,-167,0,0,0,0,0,0,0,0,0,-1,1441,1191,0,0
224,-167,0,0,0,0,0,0,0,0,0,-1,1448,1191,0,0
231,-167,0,0,0,0,0,0,0,0,0,-1,1455,1191,0,0
238,-167,0,0,0,0,0,0,0,0,0,-1,1462,1191,0,0
245,-167,0,0,0,0,0,0,0,0,0,-1,1469,1191,0,0
252,-167,0,0,0,0,0,0,0,0,0,-1,1476,1191,0,0
259,-167,0,0,0,0,0,0,0,0,0,-1,1483,1191,0,0
266,-167,0,0,0,0,0,0,0,0,0,-1,1490,1191,0,0
273,-167,0,0,0,0,0,0,0,0,0,-1,1497,1191,0,0
280,-167,0,0,0,0,0,0,0,0,0,-1,1504,1191,0,0
287,-167,0,0,0,0,0,0,0,0,0,-1,1511,1191,0,0
294,-167,0,0,0,0,0,0,0,0,0,-1,1518,1191,0,0
301,-167,0,0,0,0,0,0,0,0,0,-1,1525,1191,0,0
308,-167,0,0,0,0,0,0,0,0,0,-1,1532,1191,0,0
315,-167,0,0,0,0,0,0,0,0,0,-1,1539,1191,0,0
322,-167,0,0,0,0,0,0,0,0,0,-1,1546,1191,0,0
329,-167,0,0,0,0,0,0,0,0,0,-1,1553,1191,0,0
336,-167,0,0,0,0,0,0,0,0,0,-1,1560,1191,0,0
343,-167,0,0,0,0,0,0,0,0,0,-1,1567,1191,0,0
350,-167,0,0,0,0,0,0,0,0,0,-1,1574,1191,0,0
357,-167,0,0,0,0,0,0,0,0,0,-1,1581,1191,0,0
364,-167,0,0,0,0,0,0,0,0,0,-1,1588,1191,0,0
371,-167,0,0,0,0,0,0,0,0,0,-1,1595,1191,0,0
378,-167,0,0,0,0,0,0,0,0,0,-1,1602,1191,0,0
385,-167,0,0,0,0,0,0,0,0,0,-1,1609,1191,0,0
392,-167,0,0,0,0,0,0,0,0,0,-1,1616,1191,0,0
399,-167,0,0,0,0,0,0,0,0,0,-1,1623,1191,0,0
406,-167,0,0,0,0,0,0,0,0,0,-1,1630,1191,0,0
413,-167,0,0,0,0,0,0,0,0,0,-1,1637,1191,0,0
420,-167,0,0,0,0,0,0,0,0,0,-1,1644,1191,0,0
427,-167,0,0,0,0,0,0,0,0,0,-1,1651,1191,0,0
434,-167,0,0,0,0,0,0,0,0,0,-1,1658,1191,0,0
441,-167,0,0,0,0,0,0,0,0,0,-1,1665,1191,0,0
448,-167,0,0,0,0,0,0,0,0,0,-1,1672,1191,0,0
455,-167,0,0,0,0,0,0,0,0,0,-1,1679,1191,0,0
462,-167,0,0,0,0,0,0,0,0,0,-1,1686,1191,0,0
469,-167,0,0,0,0,0,0,0,0,0,-1,1693,1191,0,0
476,-167,0,0,0,0,0,0,0,0,0,-1,1700,1191,0,0
483,-167,0,0,0,0,0,0,0,0,0,-1,1707,1191,0,0
490,-167,0,0,0,0,0,0,0,0,0,-1,1714,1191,0,0
497,-167,0,0,0,0,0,0,0,0,0,-1,1721,1191,0,0
504,-167,0,0,0,0,0,0,0,0,0,-1,1728,1191,0,0
511,-167,0,0,0,0,0,0,0,0,0,-1,1735,1191,0,0
518,-167,0,0,0,0,0,0,0,0,0,-1,1742,1191,0,0
525,-167,0,0,0,0,0,0,0,0,0,-1,1749,1191,0,0
532,-167,0,0,0,0,0,0,0,0,0,-1,1756,1191,0,0
539,-167,0,0,0,0,0,0,0,0,0,-1,1763,1191,0,0
546,-167,0,0,0,0,0,0,0,0,0,-1,1770,1191,0,0
553,-167,0,0,0,0,0,0,0,0,0,-1,1777,1191,0,0
560,-167,0,0,0,0,0,0,0,0,0,-1,1784,1191,0,0
567,-167,0,0,0,0,0,0,0,0,0,-1,1791,1191,0,0
574,-167,0,0,0,0,0,0,0,0,0,-1,1798,1191,0,0
581,-167,0,0,0,0,0,0,0,0,0,-1,1805,1191,0,0
588,-167,0,0,0,0,0,0,0,0,0,-1,1812,1191,0,0
595,-167,0,0,0,0,0,0,0,0,0,-1,1819,1191,0,0
602,-167,0,0,0,0,0,0,0,0,0,-1,1826,1191,0,0
609,-167,0,0,0,0,0,0,0,0,0,-1,1833,1191,0,0
616,-167,0,0,0,0,0,0,0,0,0,-1,1840,1191,0,0
623,-167,0,0,0,0,0,0,0,0,0,-1,1847,1191,0,0
630,-167,0,0,0,0,0,0,0,0,0,-1,1854,1191,0,0
637,-167,49.3938,2.32898,0.000227233,0.000191473,0.00449111,0.0047005,-0.00428179,0.783408,0.0051878,0.0421618,1861,1191,49.3938,-2.329
644,-167,49.5248,2.53088,9.66157e-05,0.000552407,0.00318756,0.0035202,-0.00287118,0.821085,0.00369641,0.0457309,1868,1191,49.5248,-2.53089
651,-167,49.3843,2.85388,0.000196114,0.000878036,0.00180925,0.00237817,-0.00130402,0.878533,0.00215586,0.046566,1875,1191,49.3843,-2.85386
658,-167,49.4474,3.0177,0.000481575,0.00115749,0.000435887,0.00137109,0.000267978,1.11516,0.00083912,0.0466987,1882,1191,49.4474,-3.01765
665,-167,49.5396,2.84802,0.000845843,0.00124416,-0.000766256,0.00183671,0.000253285,-0.912539,0.00114939,0.0396199,1889,1191,49.5396,-2.84804
672,-167,49.4894,2.7356,0.00087826,0.00123808,-0.00135817,0.00242821,-0.00031187,-0.851247,0.00173215,0.0289603,1896,1191,49.4894,-2.73562
679,-167,49.441,2.71484,0.000709551,0.000905931,-0.00142899,0.0022401,-0.000624617,-0.819701,0.0017394,0.0233033,1903,1191,49.4411,-2.71481
686,-167,49.467,2.6759,0.000449569,0.000624527,-0.00118151,0.00172179,-0.000647695,-0.822351,0.0014141,0.0342003,1910,1191,49.4671,-2.67591
693,-167,49.4694,2.67566,0,0,0,0,0,0,0,-1,1917,1191,49.4694,-2.6757
700,-167,28.0459,2.70508,0,0,0,0,0,0,0,-1,1924,1191,28.0459,-2.70513
707,-167,29.4708,7.10168,0,0,0,0,0,0,0,-1,1931,1191,29.4708,-7.10172
714,-167,35.9202,6.84668,0,0,0,0,0,0,0,-1,1938,1191,35.9202,-6.84664
721,-167,36.2072,6.38892,0,0,0,0,0,0,0,-1,1945,1191,36.2072,-6.38891
728,-167,42.2793,7.35901,0,0,0,0,0,0,0,-1,1952,1191,42.2793,-7.35902
735,-167,42.3221,6.94678,-0.000136937,-0.000209493,0.000668363,0.000496132,-0.000842562,0.758285,0.000781474,0.019174,1959,1191,42.3221,-6.94673
742,-167,42.276,6.45959,0.000119122,0.000439087,0.000796651,0.00109166,-0.000533452,0.884489,0.000956531,0.0160983,1966,1191,42.276,-6.45957
749,-167,42.2928,6.00476,0.000717526,0.00194104,0.000422185,0.00207258,0.000585988,1.26876,0.00123368,0.0147277,1973,1191,42.2929,-6.00474
756,-167,42.2836,5.61548,0.000784767,0.00485082,-0.000535613,0.0049202,0.000715396,-1.442,0.00306958,0.0110462,1980,1191,42.2836,-5.61546
763,-167,42.192,5.21936,0.000745938,0.0084766,-0.0019499,0.00894057,0.000281961,-1.33719,0.00586865,0.013097,1987,1191,42.1921,-5.21939
770,-167,42.0586,4.87061,7.8144e-05,0.0129579,-0.00363641,0.0139137,-0.000877617,-1.31378,0.00958174,0.032477,1994,1191,42.0586,-4.87055
777,-167,42.2983,4.60889,0,0,0,0,0,0,0,-1,2001,1191,42.2983,-4.60889
784,-167,42.7598,2.92749,-0.00432632,0.0250492,-0.00772957,0.0269589,-0.00623605,-1.32858,0.020372,0.0483523,2008,1191,42.7597,-2.92744
791,-167,42.5212,2.32043,-0.00881303,0.0334572,-0.0102227,0.0357997,-0.0111555,-1.34554,0.0283269,0.0465584,2015,1191,42.5212,-2.32039
798,-167,42.0938,1.42627,-0.0154407,0.0439737,-0.0128162,0.0466203,-0.0180874,-1.36715,0.0385507,0.0452724,2022,1191,42.0938,-1.42633
805,-167,41.6821,0.697021,-0.0249512,0.0572,-0.0149563,0.0598382,-0.0275894,-1.3962,0.0516083,0.0478763,2029,1191,41.6821,-0.696976
812,-167,0,0,0,0,0,0,0,0,0,-1,2036,1191,0,0
-700,-174,0,0,0,0,0,0,0,0,0,-1,524,1198,0,0
-693,-174,0,0,0,0,0,0,0,0,0,-1,531,1198,0,0
-686,-174,-28.2475,1.71008,0,0,0,0,0,0,0,-1,538,1198,-28.2475,-1.71013
-679,-174,-28.2946,2.39075,0,0,0,0,0,0,0,-1,545,1198,-28.2946,-2.39073
-672,-174,-28.4764,2.71753,0,0,0,0,0,0,0,-1,552,1198,-28.4764,-2.71755
-665,-174,-28.6125,0.738159,0,0,0,0,0,0,0,-1,559,1198,-28.6125,-0.73812
-658,-174,-29.3319,0.755981,0,0,0,0,0,0,0,-1,566,1198,-29.3319,-0.756007
-651,-174,-29.001,0.774658,0,0,0,0,0,0,0,-1,573,1198,-29.0011,-0.774623
-644,-174,-28.7938,1.40857,0.00542237,-0.00961971,-0.00836545,0.00915063,-0.013348,-0.41925,0.0130647,0.045607,580,1198,-28.7938,-1.40856
-637,-174,-28.5721,2.10205,0.00348049,-0.00457048,-0.00569995,0.00643311,-0.0075231,-0.47795,0.00806581,0.0250342,587,1198,-28.5721,-2.10207
-630,-174,-28.6672,2.52393,0.00213671,-0.00142358,-0.00379284,0.00454638,-0.00383325,-0.565986,0.00484382,0.0127738,594,1198,-28.6672,-2.5239
-623,-174,-28.6825,2.97021,0.0012694,0.000348424,-0.00248941,0.00334056,-0.00172273,-0.693942,0.00297261,0.0137246,601,1198,-28.6825,-2.97023
-616,-174,-28.7002,3.44849,0.000520685,0.00127436,-0.00148349,0.00242813,-0.000633082,-0.909778,0.00186593,0.0190312,608,1198,-28.7002,-3.44855
-609,-174,-28.7427,3.89868,-0.000154988,0.00113922,-0.000718802,0.00145928,-0.000475055,-1.15187,0.00116398,0.0199699,615,1198,-28.7427,-3.89871
-602,-174,-28.7723,4.32861,-0.000728024,0.00111915,-0.00038254,0.00119524,-0.000804111,-1.37446,0.00116167,0.014994,622,1198,-28.7723,-4.32864
-595,-174,-28.6046,4.72473,0,0,0,0,0,0,0,-1,629,1198,-28.6046,-4.72477
-588,-174,-29.1671,5.12939,0,0,0,0,0,0,0,-1,636,1198,-29.1671,-5.12938
-581,-174,-29.2255,5.64319,0,0,0,0,0,0,0,-1,643,1198,-29.2255,-5.64315
-574,-174,-28.3304,6.16052,0,0,0,0,0,0,0,-1,650,1198,-28.3304,-6.16052
-567,-174,-26.6597,3.04041,0,0,0,0,0,0,0,-1,657,1198,-26.6597,-3.04039
-560,-174,-36.3622,0.78125,0,0,0,0,0,0,0,-1,664,1198,-36.3623,-0.781251
-553,-174,-36.5032,0.806152,-0.00129534,0.00206667,-0.0017685,0.00282562,-0.00205429,-1.16542,0.00282912,0.040241,671,1198,-36.5032,-0.806134
-546,-174,-36.5958,0.886597,-0.00101234,0.00198837,-0.00220986,0.00315907,-0.00218304,-1.08362,0.00310139,0.0296574,678,1198,-36.5958,-0.886588
-539,-174,-36.722,0.987671,-0.000526655,0.00248051,-0.00261088,0.00398981,-0.00203595,-1.04665,0.00353941,0.0341452,685,1198,-36.7221,-0.987724
-532,-174,-36.5252,0.950439,0,0,0,0,0,0,0,-1,692,1198,-36.5252,-0.950463
-525,-174,-36.3806,0.868652,-0.000862516,0.00427027,-0.00385037,0.00633116,-0.00292341,-1.07935,0.00546253,0.0435777,699,1198,-36.3806,-0.8686
-518,-174,-36.6506,0.812988,-0.00108068,0.006194,-0.00396602,0.00793807,-0.00282474,-1.1565,0.00644344,0.0436262,706,1198,-36.6506,-0.812931
-511,-174,0,0,0,0,0,0,0,0,0,-1,713,1198,0,0
-504,-174,0,0,0,0,0,0,0,0,0,-1,720,1198,0,0
-497,-174,0,0,0,0,0,0,0,0,0,-1,727,1198,0,0
-490,-174,0,0,0,0,0,0,0,0,0,-1,734,1198,0,0
-483,-174,0,0,0,0,0,0,0,0,0,-1,741,1198,0,0
-476,-174,0,0,0,0,0,0,0,0,0,-1,748,1198,0,0
-469,-174,0,0,0,0,0,0,0,0,0,-1,755,1198,0,0
-462,-174,0,0,0,0,0,0,0,0,0,-1,762,1198,0,0
-455,-174,0,0,0,0,0,0,0,0,0,-1,769,1198,0,0
-448,-174,0,0,0,0,0,0,0,0,0,-1,776,1198,0,0
-441,-174,0,0,0,0,0,0,0,0,0,-1,783,1198,0,0
-434,-174,0,0,0,0,0,0,0,0,0,-1,790,1198,0,0
-427,-174,0,0,0,0,0,0,0,0,0,-1,797,1198,0,0
-420,-174,0,0,0,0,0,0,0,0,0,-1,804,1198,0,0
-413,-174,0,0,0,0,0,0,0,0,0,-1,811,1198,0,0
-406,-174,0,0,0,0,0,0,0,0,0,-1,818,1198,0,0
-399,-174,0,0,0,0,0,0,0,0,0,-1,825,1198,0,0
-392,-174,0,0,0,0,0,0,0,0,0,-1,832,1198,0,0
-385,-174,0,0,0,0,0,0,0,0,0,-1,839,1198,0,0
-378,-174,0,0,0,0,0,0,0,0,0,-1,846,1198,0,0
-371,-174,0,0,0,0,0,0,0,0,0,-1,853,1198,0,0
-364,-174,0,0,0,0,0,0,0,0,0,-1,860,1198,0,0
-357,-174,0,0,0,0,0,0,0,0,0,-1,867,1198,0,0
-350,-174,0,0,0,0,0,0,0,0,0,-1,874,1198,0,0
-343,-174,0,0,0,0,0,0,0,0,0,-1,881,1198,0,0
-336,-174,0,0,0,0,0,0,0,0,0,-1,888,1198,0,0
-329,-174,0,0,0,0,0,0,0,0,0,-1,895,1198,0,0
-322,-174,0,0,0,0,0,0,0,0,0,-1,902,1198,0,0
-315,-174,0,0,0,0,0,0,0,0,0,-1,909,1198,0,0
-308,-174,0,0,0,0,0,0,0,0,0,-1,916,1198,0,0
-301,-174,0,0,0,0,0,0,0,0,0,-1,923,1198,0,0
-294,-174,0,0,0,0,0,0,0,0,0,-1,930,1198,0,0
-287,-174,0,0,0,0,0,0,0,0,0,-1,937,1198,0,0
-280,-174,0,0,0,0,0,0,0,0,0,-1,944,1198,0,0
-273,-174,0,0,0,0,0,0,0,0,0,-1,951,1198,0,0
-266,-174,0,0,0,0,0,0,0,0,0,-1,958,1198,0,0
-259,-174,0,0,0,0,0,0,0,0,0,-1,965,1198,0,0
-252,-174,0,0,0,0,0,0,0,0,0,-1,972,1198,0,0
-245,-174,0,0,0,0,0,0,0,0,0,-1,979,1198,0,0
-238,-174,0,0,0,0,0,0,0,0,0,-1,986,1198,0,0
-231,-174,0,0,0,0,0,0,0,0,0,-1,993,1198,0,0
-224,-174,0,0,0,0,0,0,0,0,0,-1,1000,1198,0,0
-217,-174,0,0,0,0,0,0,0,0,0,-1,1007,1198,0,0
-210,-174,0,0,0,0,0,0,0,0,0,-1,1014,1198,0,0
-203,-174,0,0,0,0,0,0,0,0,0,-1,1021,1198,0,0
-196,-174,0,0,0,0,0,0,0,0,0,-1,1028,1198,0,0
-189,-174,0,0,0,0,0,0,0,0,0,-1,1035,1198,0,0
-182,-174,0,0,0,0,0,0,0,0,0,-1,1042,1198,0,0
-175,-174,0,0,0,0,0,0,0,0,0,-1,1049,1198,0,0
-168,-174,0,0,0,0,0,0,0,0,0,-1,1056,1198,0,0
-161,-174,0,0,0,0,0,0,0,0,0,-1,1063,1198,0,0
-154,-174,0,0,0,0,0,0,0,0,0,-1,1070,1198,0,0
-147,-174,0,0,0,0,0,0,0,0,0,-1,1077,1198,0,0
-140,-174,0,0,0,0,0,0,0,0,0,-1,1084,1198,0,0
-133,-174,0,0,0,0,0,0,0,0,0,-1,1091,1198,0,0
-126,-174,0,0,0,0,0,0,0,0,0,-1,1098,1198,0,0
-119,-174,0,0,0,0,0,0,0,0,0,-1,1105,1198,0,0
-112,-174,0,0,0,0,0,0,0,0,0,-1,1112,1198,0,0
-105,-174,0,0,0,0,0,0,0,0,0,-1,1119,1198,0,0
-98,-174,0,0,0,0,0,0,0,0,0,-1,1126,1198,0,0
-91,-174,0,0,0,0,0,0,0,0,0,-1,1133,1198,0,0
-84,-174,0,0,0,0,0,0,0,0,0,-1,1140,1198,0,0
-77,-174,0,0,0,0,0,0,0,0,0,-1,1147,1198,0,0
-70,-174,0,0,0,0,0,0,0,0,0,-1,1154,1198,0,0
-63,-174,0,0,0,0,0,0,0,0,0,-1,1161,1198,0,0
-56,-174,0,0,0,0,0,0,0,0,0,-1,1168,1198,0,0
-49,-174,0,0,0,0,0,0,0,0,0,-1,1175,1198,0,0
-42,-174,0,0,0,0,0,0,0,0,0,-1,1182,1198,0,0
-35,-174,0,0,0,0,0,0,0,0,0,-1,1189,1198,0,0
-28,-174,0,0,0,0,0,0,0,0,0,-1,1196,1198,0,0
-21,-174,0,0,0,0,0,0,0,0,0,-1,1203,1198,0,0
-14,-174,0,0,0,0,0,0,0,0,0,-1,1210,1198,0,0
-7,-174,0,0,0,0,0,0,0,0,0,-1,1217,1198,0,0
0,-174,0,0,0,0,0,0,0,0,0,-1,1224,1198,0,0
7,-174,0,0,0,0,0,0,0,0,0,-1,1231,1198,0,0
14,-174,0,0,0,0,0,0,0,0,0,-1,1238,1198,0,0
21,-174,0,0,0,0,0,0,0,0,0,-1,1245,1198,0,0
28,-174,0,0,0,0,0,0,0,0,0,-1,1252,1198,0,0
35,-174,0,0,0,0,0,0,0,0,0,-1,1259,1198,0,0
42,-174,0,0,0,0,0,0,0,0,0,-1,1266,1198,0,0
49,-174,0,0,0,0,0,0,0,0,0,-1,1273,1198,0,0
56,-174,0,0,0,0,0,0,0,0,0,-1,1280,1198,0,0
63,-174,0,0,0,0,0,0,0,0,0,-1,1287,1198,0,0
70,-174,0,0,0,0,0,0,0,0,0,-1,1294,1198,0,0
77,-174,0,0,0,0,0,0,0,0,0,-1,1301,1198,0,0
84,-174,0,0,0,0,0,0,0,0,0,-1,1308,1198,0,0
91,-174,0,0,0,0,0,0,0,0,0,-1,1315,1198,0,0
98,-174,0,0,0,0,0,0,0,0,0,-1,1322,1198,0,0
105,-174,0,0,0,0,0,0,0,0,0,-1,1329,1198,0,0
112,-174,0,0,0,0,0,0,0,0,0,-1,1336,1198,0,0
119,-174,0,0,0,0,0,0,0,0,0,-1,1343,1198,0,0
126,-174,0,0,0,0,0,0,0,0,0,-1,1350,1198,0,0
133,-174,0,0,0,0,0,0,0,0,0,-1,1357,1198,0,0
140,-174,0,0,0,0,0,0,0,0,0,-1,1364,1198,0,0
147,-174,0,0,0,0,0,0,0,0,0,-1,1371,1198,0,0
154,-174,0,0,0,0,0,0,0,0,0,-1,1378,1198,0,0
161,-174,0,0,0,0,0,0,0,0,0,-1,1385,1198,0,0
168,-174,0,0,0,0,0,0,0,0,0,-1,1392,1198,0,0
175,-174,0,0,0,0,0,0,0,0,0,-1,1399,1198,0,0
182,-174,0,0,0,0,0,0,0,0,0,-1,1406,1198,0,0
189,-174,0,0,0,0,0,0,0,0,0,-1,1413,1198,0,0
196,-174,0,0,0,0,0,0,0,0,0,-1,1420,1198,0,0
203,-174,0,0,0,0,0,0,0,0,0,-1,1427,1198,0,0
210,-174,0,0,0,0,0,0,0,0,0,-1,1434,1198,0,0
217,-174,0,0,0,0,0,0,0,0,0,-1,1441,1198,0,0
224,-174,0,0,0,0,0,0,0,0,0,-1,1448,1198,0,0
231,-174,0,0,0,0,0,0,0,0,0,-1,1455,1198,0,0
238,-174,0,0,0,0,0,0,0,0,0,-1,1462,1198,0,0
245,-174,0,0,0,0,0,0,0,0,0,-1,1469,1198,0,0
252,-174,0,0,0,0,0,0,0,0,0,-1,1476,1198,0,0
259,-174,0,0,0,0,0,0,0,0,0,-1,1483,1198,0,0
266,-174,0,0,0,0,0,0,0,0,0,-1,1490,1198,0,0
273,-174,0,0,0,0,0,0,0,0,0,-1,1497,1198,0,0
280,-174,0,0,0,0,0,0,0,0,0,-1,1504,1198,0,0
287,-174,0,0,0,0,0,0,0,0,0,-1,1511,1198,0,0
294,-174,0,0,0,0,0,0,0,0,0,-1,1518,1198,0,0
301,-174,0,0,0,0,0,0,0,0,0,-1,1525,1198,0,0
308,-174,0,0,0,0,0,0,0,0,0,-1,1532,1198,0,0
315,-174,0,0,0,0,0,0,0,0,0,-1,1539,1198,0,0
322,-174,0,0,0,0,0,0,0,0,0,-1,1546,1198,0,0
329,-174,0,0,0,0,0,0,0,0,0,-1,1553,1198,0,0
336,-174,0,0,0,0,0,0,0,0,0,-1,1560,1198,0,0
343,-174,0,0,0,0,0,0,0,0,0,-1,1567,1198,0,0
350,-174,0,0,0,0,0,0,0,0,0,-1,1574,1198,0,0
357,-174,0,0,0,0,0,0,0,0,0,-1,1581,1198,0,0
364,-174,0,0,0,0,0,0,0,0,0,-1,1588,1198,0,0
371,-174,0,0,0,0,0,0,0,0,0,-1,1595,1198,0,0
378,-174,0,0,0,0,0,0,0,0,0,-1,1602,1198,0,0
385,-174,0,0,0,0,0,0,0,0,0,-1,1609,1198,0,0
392,-174,0,0,0,0,0,0,0,0,0,-1,1616,1198,0,0
399,-174,0,0,0,0,0,0,0,0,0,-1,1623,1198,0,0
406,-174,0,0,0,0,0,0,0,0,0,-1,1630,1198,0,0
413,-174,0,0,0,0,0,0,0,0,0,-1,1637,1198,0,0
420,-174,0,0,0,0,0,0,0,0,0,-1,1644,1198,0,0
427,-174,0,0,0,0,0,0,0,0,0,-1,1651,1198,0,0
434,-174,0,0,0,0,0,0,0,0,0,-1,1658,1198,0,0
441,-174,0,0,0,0,0,0,0,0,0,-1,1665,1198,0,0
448,-174,0,0,0,0,0,0,0,0,0,-1,1672,1198,0,0
455,-174,0,0,0,0,0,0,0,0,0,-1,1679,1198,0,0
462,-174,0,0,0,0,0,0,0,0,0,-1,1686,1198,0,0
469,-174,0,0,0,0,0,0,0,0,0,-1,1693,1198,0,0
476,-174,0,0,0,0,0,0,0,0,0,-1,1700,1198,0,0
483,-174,0,0,0,0,0,0,0,0,0,-1,1707,1198,0,0
490,-174,0,0,0,0,0,0,0,0,0,-1,1714,1198,0,0
497,-174,0,0,0,0,0,0,0,0,0,-1,1721,1198,0,0
504,-174,0,0,0,0,0,0,0,0,0,-1,1728,1198,0,0
511,-174,0,0,0,0,0,0,0,0,0,-1,1735,1198,0,0
518,-174,0,0,0,0,0,0,0,0,0,-1,1742,1198,0,0
525,-174,0,0,0,0,0,0,0,0,0,-1,1749,1198,0,0
532,-174,0,0,0,0,0,0,0,0,0,-1,1756,1198,0,0
539,-174,0,0,0,0,0,0,0,0,0,-1,1763,1198,0,0
546,-174,0,0,0,0,0,0,0,0,0,-1,1770,1198,0,0
553,-174,0,0,0,0,0,0,0,0,0,-1,1777,1198,0,0
560,-174,0,0,0,0,0,0,0,0,0,-1,1784,1198,0,0
567,-174,0,0,0,0,0,0,0,0,0,-1,1791,1198,0,0
574,-174,0,0,0,0,0,0,0,0,0,-1,1798,1198,0,0
581,-174,0,0,0,0,0,0,0,0,0,-1,1805,1198,0,0
588,-174,0,0,0,0,0,0,0,0,0,-1,1812,1198,0,0
595,-174,0,0,0,0,0,0,0,0,0,-1,1819,1198,0,0
602,-174,0,0,0,0,0,0,0,0,0,-1,1826,1198,0,0
609,-174,0,0,0,0,0,0,0,0,0,-1,1833,1198,0,0
616,-174,0,0,0,0,0,0,0,0,0,-1,1840,1198,0,0
623,-174,0,0,0,0,0,0,0,0,0,-1,1847,1198,0,0
630,-174,0,0,0,0,0,0,0,0,0,-1,1854,1198,0,0
637,-174,49.3188,2.76404,0.000857527,-0.000441524,0.00329569,0.00356708,-0.00315108,0.688103,0.00388121,0.0396815,1861,1198,49.3188,-2.7641
644,-174,49.4301,2.68408,0.000711017,0.000188282,0.00210179,0.00256763,-0.00166833,0.723538,0.00246394,0.0409287,1868,1198,49.4301,-2.68412
651,-174,49.3835,2.62891,0.000668308,0.00074073,0.000912355,0.00161759,-0.000208554,0.805232,0.00115421,0.0437565,1875,1198,49.3836,-2.62885
658,-174,49.2607,2.97363,0.000730091,0.00114917,-0.000241525,0.00125938,0.000619878,-1.1427,0.000727132,0.0426795,1882,1198,49.2607,-2.97365
665,-174,49.3964,2.73877,0.000833408,0.00125157,-0.00115271,0.002214,-0.000129028,-0.875114,0.00152084,0.0361444,1889,1198,49.3963,-2.73872
672,-174,49.436,2.64111,0.000668554,0.00123259,-0.00147244,0.00244978,-0.000548635,-0.880017,0.00184348,0.0267839,1896,1198,49.4361,-2.64115
679,-174,49.4338,2.64661,0.000418656,0.000914214,-0.00141991,0.00210781,-0.000774935,-0.87178,0.00172263,0.0233419,1903,1198,49.4338,-2.64658
686,-174,49.4598,2.6886,0,0,0,0,0,0,0,-1,1910,1198,49.4599,-2.68866
693,-174,48.8064,2.52661,0,0,0,0,0,0,0,-1,1917,1198,48.8064,-2.52656
700,-174,25.4004,6.11792,0,0,0,0,0,0,0,-1,1924,1198,25.4004,-6.11797
707,-174,34.7908,7.34473,0,0,0,0,0,0,0,-1,1931,1198,34.7908,-7.34475
714,-174,40.1135,7.79871,0,0,0,0,0,0,0,-1,1938,1198,40.1135,-7.79875
721,-174,40.8693,7.59863,0,0,0,0,0,0,0,-1,1945,1198,40.8693,-7.59859
728,-174,41.7999,7.43372,0,0,0,0,0,0,0,-1,1952,1198,41.7999,-7.43375
735,-174,41.8669,6.90308,-0.00018684,-0.000104474,0.000652458,0.000508099,-0.000799413,0.816916,0.000761112,0.013929,1959,1198,41.867,-6.9031
742,-174,41.8774,6.45435,0.000163611,0.00061955,0.000630933,0.00106244,-0.000279275,0.95876,0.000817442,0.0216605,1966,1198,41.8774,-6.45429
749,-174,41.8872,6.03137,0.000593778,0.00194315,-7.99458e-05,0.00194787,0.000589058,-1.51182,0.00115351,0.0198437,1973,1198,41.8872,-6.03137
756,-174,41.851,5.62927,0.000211005,0.00445243,-0.00144932,0.00490037,-0.000236931,-1.27104,0.00334868,0.0114417,1980,1198,41.8509,-5.62928
763,-174,41.8003,5.22119,-0.000455105,0.00743074,-0.00349271,0.00875523,-0.0017796,-1.20833,0.00651159,0.014702,1987,1198,41.8003,-5.22124
770,-174,41.9338,4.84619,-0.00191779,0.0111275,-0.00604313,0.0134967,-0.00428696,-1.19717,0.0107165,0.036062,1994,1198,41.9338,-4.84617
777,-174,42.2684,4.43958,0,0,0,0,0,0,0,-1,2001,1198,42.2684,-4.43957
784,-174,42.6475,2.8833,0,0,0,0,0,0,0,-1,2008,1198,42.6474,-2.88325
791,-174,42.335,2.26367,0,0,0,0,0,0,0,-1,2015,1198,42.3349,-2.26369
798,-174,41.2908,1.02136,-0.023294,0.0369629,-0.0222952,0.0443151,-0.0306462,-1.25226,0.0435182,0.0460062,2022,1198,41.2907,-1.02142
805,-174,41.1812,0.205566,-0.035192,0.0480483,-0.0276443,0.0563926,-0.0435363,-1.27765,0.0578529,0.0468855,2029,1198,41.1811,-0.205525
812,-174,0,0,0,0,0,0,0,0,0,-1,2036,1198,0,0
-700,-181,0,0,0,0,0,0,0,0,0,-1,524,1205,0,0
-693,-181,0,0,0,0,0,0,0,0,0,-1,531,1205,0,0
-686,-181,-28.0947,2.96069,0,0,0,0,0,0,0,-1,538,1205,-28.0947,-2.96072
-679,-181,-28.1442,3.66846,0,0,0,0,0,0,0,-1,545,1205,-28.1442,-3.66841
-672,-181,-27.4802,0.713745,0,0,0,0,0,0,0,-1,552,1205,-27.4802,-0.713732
-665,-181,-27.8121,0.890869,0,0,0,0,0,0,0,-1,559,1205,-27.8121,-0.890886
-658,-181,-29.3787,0.100342,0,0,0,0,0,0,0,-1,566,1205,-29.3787,-0.100303
-651,-181,-28.9822,0.724731,0.00626019,-0.0268674,-0.00570267,0.00721438,-0.0278215,-0.165788,0.0213625,0.0457436,573,1205,-28.9822,-0.724772
-644,-181,-28.6052,1.32739,0.00485505,-0.0163919,-0.00459405,0.00580583,-0.0173427,-0.204079,0.0139071,0.0407464,580,1205,-28.6053,-1.32741
-637,-181,-28.2,1.95227,0,0,0,0,0,0,0,-1,587,1205,-28.2,-1.95231
-630,-181,-28.1959,2.52185,0.00240337,-0.0041846,-0.00265587,0.00334069,-0.00512193,-0.33928,0.00492184,0.0132708,594,1205,-28.1959,-2.52182
-623,-181,-28.216,2.98511,0.00155505,-0.00109694,-0.0019279,0.00256894,-0.00211083,-0.484155,0.00270618,0.0147864,601,1205,-28.216,-2.98512
-616,-181,-28.2165,3.46289,0.000818752,0.000909502,-0.00139167,0.00225654,-0.000528284,-0.801695,0.00170791,0.0143162,608,1205,-28.2165,-3.46287
-609,-181,-28.2316,3.93799,0.000212215,0.00112406,-0.000823026,0.00160901,-0.000272734,-1.03834,0.00117419,0.013487,615,1205,-28.2316,-3.93794
-602,-181,-28.2453,4.39612,-0.000355918,0.00107269,-0.000569836,0.00127214,-0.000555366,-1.23411,0.00108182,0.0130489,622,1205,-28.2453,-4.39612
-595,-181,-28.4515,4.7655,-0.000811097,0.00107741,-0.000410925,0.00116295,-0.000896637,-1.36556,0.00119241,0.0366887,629,1205,-28.4515,-4.76552
-588,-181,-28.7259,5.27576,-0.000721425,0.00095855,-0.000181005,0.000977831,-0.000740705,-1.46468,0.000995341,0.034036,636,1205,-28.7259,-5.27571
-581,-181,-28.6136,5.81982,-0.000337447,0.00126426,-0.000852379,0.00163298,-0.000706174,-1.16252,0.0013854,0.0299197,643,1205,-28.6136,-5.81979
-574,-181,-28.2305,6.27869,0,0,0,0,0,0,0,-1,650,1205,-28.2305,-6.2787
-567,-181,-25.8839,3.34485,0,0,0,0,0,0,0,-1,657,1205,-25.8839,-3.3449
-560,-181,-31.7396,1.63306,0,0,0,0,0,0,0,-1,664,1205,-31.7396,-1.63303
-553,-181,-36.5634,0.735474,0,0,0,0,0,0,0,-1,671,1205,-36.5633,-0.735465
-546,-181,-36.6007,0.913086,0,0,0,0,0,0,0,-1,678,1205,-36.6007,-0.913077
-539,-181,-36.927,1.45081,0,0,0,0,0,0,0,-1,685,1205,-36.927,-1.45082
-532,-181,-36.6781,1.3595,-0.000399371,0.00221122,-0.0032171,0.00437774,-0.00256589,-0.978119,0.00405415,0.0437848,692,1205,-36.6781,-1.35954
-525,-181,-36.5876,0.962036,-0.00109962,0.00319444,-0.00340514,0.00507292,-0.0029781,-1.06668,0.00470041,0.0417235,699,1205,-36.5876,-0.962032
-518,-181,-36.7205,0.508545,0,0,0,0,0,0,0,-1,706,1205,-36.7204,-0.508509
-511,-181,0,0,0,0,0,0,0,0,0,-1,713,1205,0,0
-504,-181,0,0,0,0,0,0,0,0,0,-1,720,1205,0,0
-497,-181,0,0,0,0,0,0,0,0,0,-1,727,1205,0,0
-490,-181,0,0,0,0,0,0,0,0,0,-1,734,1205,0,0
-483,-181,0,0,0,0,0,0,0,0,0,-1,741,1205,0,0
-476,-181,0,0,0,0,0,0,0,0,0,-1,748,1205,0,0
-469,-181,0,0,0,0,0,0,0,0,0,-1,755,1205,0,0
-462,-181,0,0,0,0,0,0,0,0,0,-1,762,1205,0,0
-455,-181,0,0,0,0,0,0,0,0,0,-1,769,1205,0,0
-448,-181,0,0,0,0,0,0,0,0,0,-1,776,1205,0,0
-441,-181,0,0,0,0,0,0,0,0,0,-1,783,1205,0,0
-434,-181,0,0,0,0,0,0,0,0,0,-1,790,1205,0,0
-427,-181,0,0,0,0,0,0,0,0,0,-1,797,1205,0,0
-420,-181,0,0,0,0,0,0,0,0,0,-1,804,1205,0,0
-413,-181,0,0,0,0,0,0,0,0,0,-1,811,1205,0,0
-406,-181,0,0,0,0,0,0,0,0,0,-1,818,1205,0,0
-399,-181,0,0,0,0,0,0,0,0,0,-1,825,1205,0,0
-392,-181,0,0,0,0,0,0,0,0,0,-1,832,1205,0,0
-385,-181,0,0,0,0,0,0,0,0,0,-1,839,1205,0,0
-378,-181,0,0,0,0,0,0,0,0,0,-1,846,1205,0,0
-371,-181,0,0,0,0,0,0,0,0,0,-1,853,1205,0,0
-364,-181,0,0,0,0,0,0,0,0,0,-1,860,1205,0,0
-357,-181,0,0,0,0,0,0,0,0,0,-1,867,1205,0,0
-350,-181,0,0,0,0,0,0,0,0,0,-1,874,1205,0,0
-343,-181,0,0,0,0,0,0,0,0,0,-1,881,1205,0,0
-336,-181,0,0,0,0,0,0,0,0,0,-1,888,1205,0,0
-329,-181,0,0,0,0,0,0,0,0,0,-1,895,1205,0,0
-322,-181,0,0,0,0,0,0,0,0,0,-1,902,1205,0,0
-315,-181,0,0,0,0,0,0,0,0,0,-1,909,1205,0,0
-308,-181,0,0,0,0,0,0,0,0,0,-1,916,1205,0,0
-301,-181,0,0,0,0,0,0,0,0,0,-1,923,1205,0,0
-294,-181,0,0,0,0,0,0,0,0,0,-1,930,1205,0,0
-287,-181,0,0,0,0,0,0,0,0,0,-1,937,1205,0,0
-280,-181,0,0,0,0,0,0,0,0,0,-1,944,1205,0,0
-273,-181,0,0,0,0,0,0,0,0,0,-1,951,1205,0,0
-266,-181,0,0,0,0,0,0,0,0,0,-1,958,1205,0,0
-259,-181,0,0,0,0,0,0,0,0,0,-1,965,1205,0,0
-252,-181,0,0,0,0,0,0,0,0,0,-1,972,1205,0,0
-245,-181,0,0,0,0,0,0,0,0,0,-1,979,1205,0,0
-238,-181,0,0,0,0,0,0,0,0,0,-1,986,1205,0,0
-231,-181,0,0,0,0,0,0,0,0,0,-1,993,1205,0,0
-224,-181,0,0,0,0,0,0,0,0,0,-1,1000,1205,0,0
-217,-181,0,0,0,0,0,0,0,0,0,-1,1007,1205,0,0
-210,-181,0,0,0,0,0,0,0,0,0,-1,1014,1205,0,0
-203,-181,0,0,0,0,0,0,0,0,0,-1,1021,1205,0,0
-196,-181,0,0,0,0,0,0,0,0,0,-1,1028,1205,0,0
-189,-181,0,0,0,0,0,0,0,0,0,-1,1035,1205,0,0
-182,-181,0,0,0,0,0,0,0,0,0,-1,1042,1205,0,0
-175,-181,0,0,0,0,0,0,0,0,0,-1,1049,1205,0,0
-168,-181,0,0,0,0,0,0,0,0,0,-1,1056,1205,0,0
-161,-181,0,0,0,0,0,0,0,0,0,-1,1063,1205,0,0
-154,-181,0,0,0,0,0,0,0,0,0,-1,1070,1205,0,0
-147,-181,0,0,0,0,0,0,0,0,0,-1,1077,1205,0,0
-140,-181,0,0,0,0,0,0,0,0,0,-1,1084,1205,0,0
-133,-181,0,0,0,0,0,0,0,0,0,-1,1091,1205,0,0
-126,-181,0,0,0,0,0,0,0,0,0,-1,1098,1205,0,0
-119,-181,0,0,0,0,0,0,0,0,0,-1,1105,1205,0,0
-112,-181,0,0,0,0,0,0,0,0,0,-1,1112,1205,0,0
-105,-181,0,0,0,0,0,0,0,0,0,-1,1119,1205,0,0
-98,-181,0,0,0,0,0,0,0,0,0,-1,1126,1205,0,0
-91,-181,0,0,0,0,0,0,0,0,0,-1,1133,1205,0,0
-84,-181,0,0,0,0,0,0,0,0,0,-1,1140,1205,0,0
-77,-181,0,0,0,0,0,0,0,0,0,-1,1147,1205,0,0
-70,-181,0,0,0,0,0,0,0,0,0,-1,1154,1205,0,0
-63,-181,0,0,0,0,0,0,0,0,0,-1,1161,1205,0,0
-56,-181,0,0,0,0,0,0,0,0,0,-1,1168,1205,0,0
-49,-181,0,0,0,0,0,0,0,0,0,-1,1175,1205,0,0
-42,-181,0,0,0,0,0,0,0,0,0,-1,1182,1205,0,0
-35,-181,0,0,0,0,0,0,0,0,0,-1,1189,1205,0,0
-28,-181,0,0,0,0,0,0,0,0,0,-1,1196,1205,0,0
-21,-181,0,0,0,0,0,0,0,0,0,-1,1203,1205,0,0
-14,-181,0,0,0,0,0,0,0,0,0,-1,1210,1205,0,0
-7,-181,0,0,0,0,0,0,0,0,0,-1,1217,1205,0,0
0,-181,0,0,0,0,0,0,0,0,0,-1,1224,1205,0,0
7,-181,0,0,0,0,0,0,0,0,0,-1,1231,1205,0,0
14,-181,0,0,0,0,0,0,0,0,0,-1,1238,1205,0,0
21,-181,0,0,0,0,0,0,0,0,0,-1,1245,1205,0,0
28,-181,0,0,0,0,0,0,0,0,0,-1,1252,1205,0,0
35,-181,0,0,0,0,0,0,0,0,0,-1,1259,1205,0,0
42,-181,0,0,0,0,0,0,0,0,0,-1,1266,1205,0,0
49,-181,0,0,0,0,0,0,0,0,0,-1,1273,1205,0,0
56,-181,0,0,0,0,0,0,0,0,0,-1,1280,1205,0,0
63,-181,0,0,0,0,0,0,0,0,0,-1,1287,1205,0,0
70,-181,0,0,0,0,0,0,0,0,0,-1,1294,1205,0,0
77,-181,0,0,0,0,0,0,0,0,0,-1,1301,1205,0,0
84,-181,0,0,0,0,0,0,0,0,0,-1,1308,1205,0,0
91,-181,0,0,0,0,0,0,0,0,0,-1,1315,1205,0,0
98,-181,0,0,0,0,0,0,0,0,0,-1,1322,1205,0,0
105,-181,0,0,0,0,0,0,0,0,0,-1,1329,1205,0,0
112,-181,0,0,0,0,0,0,0,0,0,-1,1336,1205,0,0
119,-181,0,0,0,0,0,0,0,0,0,-1,1343,1205,0,0
126,-181,0,0,0,0,0,0,0,0,0,-1,1350,1205,0,0
133,-181,0,0,0,0,0,0,0,0,0,-1,1357,1205,0,0
140,-181,0,0,0,0,0,0,0,0,0,-1,1364,1205,0,0
147,-181,0,0,0,0,0,0,0,0,0,-1,1371,1205,0,0
154,-181,0,0,0,0,0,0,0,0,0,-1,1378,1205,0,0
161,-181,0,0,0,0,0,0,0,0,0,-1,1385,1205,0,0
168,-181,0,0,0,0,0,0,0,0,0,-1,1392,1205,0,0
175,-181,0,0,0,0,0,0,0,0,0,-1,1399,1205,0,0
182,-181,0,0,0,0,0,0,0,0,0,-1,1406,1205,0,0
189,-181,0,0,0,0,0,0,0,0,0,-1,1413,1205,0,0
196,-181,0,0,0,0,0,0,0,0,0,-1,1420,1205,0,0
203,-181,0,0,0,0,0,0,0,0,0,-1,1427,1205,0,0
210,-181,0,0,0,0,0,0,0,0,0,-1,1434,1205,0,0
217,-181,0,0,0,0,0,0,0,0,0,-1,1441,1205,0,0
224,-181,0,0,0,0,0,0,0,0,0,-1,1448,1205,0,0
231,-181,0,0,0,0,0,0,0,0,0,-1,1455,1205,0,0
238,-181,0,0,0,0,0,0,0,0,0,-1,1462,1205,0,0
245,-181,0,0,0,0,0,0,0,0,0,-1,1469,1205,0,0
252,-181,0,0,0,0,0,0,0,0,0,-1,1476,1205,0,0
259,-181,0,0,0,0,0,0,0,0,0,-1,1483,1205,0,0
266,-181,0,0,0,0,0,0,0,0,0,-1,1490,1205,0,0
273,-181,0,0,0,0,0,0,0,0,0,-1,1497,1205,0,0
280,-181,0,0,0,0,0,0,0,0,0,-1,1504,1205,0,0
287,-181,0,0,0,0,0,0,0,0,0,-1,1511,1205,0,0
294,-181,0,0,0,0,0,0,0,0,0,-1,1518,1205,0,0
301,-181,0,0,0,0,0,0,0,0,0,-1,1525,1205,0,0
308,-181,0,0,0,0,0,0,0,0,0,-1,1532,1205,0,0
315,-181,0,0,0,0,0,0,0,0,0,-1,1539,1205,0,0
322,-181,0,0,0,0,0,0,0,0,0,-1,1546,1205,0,0
329,-181,0,0,0,0,0,0,0,0,0,-1,1553,1205,0,0
336,-181,0,0,0,0,0,0,0,0,0,-1,1560,1205,0,0
343,-181,0,0,0,0,0,0,0,0,0,-1,1567,1205,0,0
350,-181,0,0,0,0,0,0,0,0,0,-1,1574,1205,0,0
357,-181,0,0,0,0,0,0,0,0,0,-1,1581,1205,0,0
364,-181,0,0,0,0,0,0,0,0,0,-1,1588,1205,0,0
371,-181,0,0,0,0,0,0,0,0,0,-1,1595,1205,0,0
378,-181,0,0,0,0,0,0,0,0,0,-1,1602,1205,0,0
385,-181,0,0,0,0,0,0,0,0,0,-1,1609,1205,0,0
392,-181,0,0,0,0,0,0,0,0,0,-1,1616,1205,0,0
399,-181,0,0,0,0,0,0,0,0,0,-1,1623,1205,0,0
406,-181,0,0,0,0,0,0,0,0,0,-1,1630,1205,0,0
413,-181,0,0,0,0,0,0,0,0,0,-1,1637,1205,0,0
420,-181,0,0,0,0,0,0,0,0,0,-1,1644,1205,0,0
427,-181,0,0,0,0,0,0,0,0,0,-1,1651,1205,0,0
434,-181,0,0,0,0,0,0,0,0,0,-1,1658,1205,0,0
441,-181,0,0,0,0,0,0,0,0,0,-1,1665,1205,0,0
448,-181,0,0,0,0,0,0,0,0,0,-1,1672,1205,0,0
455,-181,0,0,0,0,0,0,0,0,0,-1,1679,1205,0,0
462,-181,0,0,0,0,0,0,0,0,0,-1,1686,1205,0,0
469,-181,0,0,0,0,0,0,0,0,0,-1,1693,1205,0,0
476,-181,0,0,0,0,0,0,0,0,0,-1,1700,1205,0,0
483,-181,0,0,0,0,0,0,0,0,0,-1,1707,1205,0,0
490,-181,0,0,0,0,0,0,0,0,0,-1,1714,1205,0,0
497,-181,0,0,0,0,0,0,0,0,0,-1,1721,1205,0,0
504,-181,0,0,0,0,0,0,0,0,0,-1,1728,1205,0,0
511,-181,0,0,0,0,0,0,0,0,0,-1,1735,1205,0,0
518,-181,0,0,0,0,0,0,0,0,0,-1,1742,1205,0,0
525,-181,0,0,0,0,0,0,0,0,0,-1,1749,1205,0,0
532,-181,0,0,0,0,0,0,0,0,0,-1,1756,1205,0,0
539,-181,0,0,0,0,0,0,0,0,0,-1,1763,1205,0,0
546,-181,0,0,0,0,0,0,0,0,0,-1,1770,1205,0,0
553,-181,0,0,0,0,0,0,0,0,0,-1,1777,1205,0,0
560,-181,0,0,0,0,0,0,0,0,0,-1,1784,1205,0,0
567,-181,0,0,0,0,0,0,0,0,0,-1,1791,1205,0,0
574,-181,0,0,0,0,0,0,0,0,0,-1,1798,1205,0,0
581,-181,0,0,0,0,0,0,0,0,0,-1,1805,1205,0,0
588,-181,0,0,0,0,0,0,0,0,0,-1,1812,1205,0,0
595,-181,0,0,0,0,0,0,0,0,0,-1,1819,1205,0,0
602,-181,0,0,0,0,0,0,0,0,0,-1,1826,1205,0,0
609,-181,0,0,0,0,0,0,0,0,0,-1,1833,1205,0,0
616,-181,0,0,0,0,0,0,0,0,0,-1,1840,1205,0,0
623,-181,0,0,0,0,0,0,0,0,0,-1,1847,1205,0,0
630,-181,49.4791,2.89331,0.00234325,-0.0017249,0.00283311,0.00379687,-0.00317852,0.474058,0.00403251,0.0377933,1854,1205,49.4792,-2.89327
637,-181,49.4417,2.87769,0.00163198,-0.000697911,0.00203927,0.00281559,-0.00188152,0.525889,0.00272969,0.0373315,1861,1205,49.4416,-2.87765
644,-181,49.439,2.69116,0.00129545,0.000190854,0.000967541,0.00185723,-0.000370925,0.526052,0.00137853,0.0379642,1868,1205,49.439,-2.69122
651,-181,49.3235,2.74072,0.00104273,0.00093251,3.44015e-05,0.00105259,0.000922654,0.279023,0.000662673,0.0393476,1875,1205,49.3235,-2.74075
658,-181,49.2083,2.84131,0.000911385,0.00134641,-0.00081071,0.00196828,0.000289517,-0.916462,0.00122712,0.0362627,1882,1205,49.2083,-2.8413
665,-181,49.3275,2.77063,0.000855837,0.00133061,-0.00137106,0.00248468,-0.00029824,-0.871118,0.00176429,0.0315279,1889,1205,49.3276,-2.77059
672,-181,49.4368,2.6958,0.000625124,0.00119112,-0.00142871,0.00236459,-0.000548342,-0.883173,0.00178743,0.0229236,1896,1205,49.4368,-2.69578
679,-181,49.4677,2.63293,0.000374874,0.000808432,-0.00128137,0.00189123,-0.000707925,-0.869194,0.0015516,0.0300981,1903,1205,49.4677,-2.63289
686,-181,49.5203,2.58813,0,0,0,0,0,0,0,-1,1910,1205,49.5202,-2.58811
693,-181,36.1301,2.91016,0,0,0,0,0,0,0,-1,1917,1205,36.1302,-2.9102
700,-181,29.5845,6.58398,0,0,0,0,0,0,0,-1,1924,1205,29.5844,-6.58395
707,-181,39.8232,8.03186,0,0,0,0,0,0,0,-1,1931,1205,39.8233,-8.0319
714,-181,40.174,7.73877,0,0,0,0,0,0,0,-1,1938,1205,40.174,-7.73878
721,-181,41.226,7.81897,0,0,0,0,0,0,0,-1,1945,1205,41.226,-7.81899
728,-181,41.4507,7.28149,-0.000674202,-0.000150382,0.00055206,0.000198745,-0.00102333,1.00689,0.000757213,0.029951,1952,1205,41.4507,-7.28149
735,-181,41.4637,6.89087,-0.000139302,-0.000247873,0.000622306,0.000431081,-0.000818257,0.741892,0.000732761,0.0129954,1959,1205,41.4638,-6.89087
742,-181,41.4321,6.50024,0.00015393,0.000473723,0.0003962,0.000741075,-0.000113422,0.97719,0.000535873,0.0186655,1966,1205,41.4321,-6.50021
749,-181,41.4104,6.04834,0.000294211,0.00157072,-0.00061764,0.00182063,4.42935e-05,-1.1863,0.00119926,0.0180086,1973,1205,41.4104,-6.04831
756,-181,41.3967,5.61243,-0.00052802,0.00365124,-0.00232363,0.00468664,-0.00156342,-1.15161,0.00375565,0.0126795,1980,1205,41.3967,-5.61245
763,-181,41.4193,5.21533,-0.00177679,0.00592532,-0.00489927,0.00830591,-0.00415738,-1.11849,0.00732736,0.0140974,1987,1205,41.4193,-5.21534
770,-181,41.6323,4.73108,-0.00398426,0.00874382,-0.00820468,0.0127633,-0.00800375,-1.11526,0.0120944,0.0387825,1994,1205,41.6323,-4.73105
777,-181,41.9375,4.14075,0,0,0,0,0,0,0,-1,2001,1205,41.9375,-4.14069
784,-181,51.3345,4.87598,-0.0127122,0.0165058,-0.0171286,0.0244093,-0.0206156,-1.13849,0.0260259,0.0473492,2008,1205,51.3344,-4.87593
791,-181,50.5632,3.35205,-0.0204667,0.0219566,-0.0234495,0.0323648,-0.0308749,-1.15306,0.0365148,0.0466043,2015,1205,50.5633,-3.35208
798,-181,40.3318,0.584106,0,0,0,0,0,0,0,-1,2022,1205,40.3317,-0.584149
805,-181,0,0,0,0,0,0,0,0,0,-1,2029,1205,0,0
812,-181,0,0,0,0,0,0,0,0,0,-1,2036,1205,0,0
-700,-188,0,0,0,0,0,0,0,0,0,-1,524,1212,0,0
-693,-188,0,0,0,0,0,0,0,0,0,-1,531,1212,0,0
-686,-188,0,0,0,0,0,0,0,0,0,-1,538,1212,0,0
-679,-188,-27.9156,4.93237,0,0,0,0,0,0,0,-1,545,1212,-27.9156,-4.93242
-672,-188,-26.6053,0.924316,0,0,0,0,0,0,0,-1,552,1212,-26.6053,-0.924264
-665,-188,-27.0014,1.04065,0,0,0,0,0,0,0,-1,559,1212,-27.0014,-1.04068
-658,-188,-27.4878,1.1366,0,0,0,0,0,0,0,-1,566,1212,-27.4878,-1.13665
-651,-188,-27.6384,1.1908,0.0062734,-0.038616,-0.00117624,0.0063042,-0.0386468,-0.0261791,0.0281026,0.0466057,573,1212,-27.6384,-1.19081
-644,-188,-28.1891,1.49255,0.0048687,-0.0243103,-0.00152686,0.00494837,-0.02439,-0.0521375,0.0181359,0.0395583,580,1212,-28.1891,-1.49256
-637,-188,-27.7051,2.04883,0.0035374,-0.0140591,-0.00153611,0.00367049,-0.0141922,-0.0864252,0.0108931,0.0226973,587,1212,-27.7051,-2.0488
-630,-188,-27.7407,2.53198,0.00248016,-0.00721963,-0.00143532,0.0026881,-0.00742756,-0.143868,0.00605018,0.0108403,594,1212,-27.7407,-2.53194
-623,-188,-27.748,2.99866,0.00169778,-0.00284635,-0.00123971,0.00201399,-0.00316256,-0.249742,0.0030131,0.0108786,601,1212,-27.748,-2.99866
-616,-188,-27.7341,3.46558,0.00100811,0.000286149,-0.00116416,0.00186597,-0.000571712,-0.635059,0.00147204,0.0105761,608,1212,-27.7341,-3.46556
-609,-188,-27.7263,3.9613,0.000508206,0.00103736,-0.000840282,0.00165373,-0.000108167,-0.937918,0.00114026,0.0130493,615,1212,-27.7263,-3.9613
-602,-188,-27.7394,4.46497,4.52439e-05,0.000983577,-0.00064037,0.00130826,-0.000279435,-1.10155,0.000978704,0.0162758,622,1212,-27.7394,-4.46497
-595,-188,-27.8505,4.8822,-0.000409528,0.0010253,-0.000540449,0.00120609,-0.000590317,-1.24798,0.00105727,0.0228082,629,1212,-27.8505,-4.88217
-588,-188,-28.0347,5.34167,-0.000252505,0.000926824,-0.000323584,0.00100977,-0.000335455,-1.31985,0.00080854,0.0254874,636,1212,-28.0347,-5.3417
-581,-188,-28.0285,5.78308,0.000174939,0.00122891,-0.0010327,0.00186131,-0.000457469,-1.02132,0.00141818,0.0250408,643,1212,-28.0285,-5.7831
-574,-188,-28.333,6.15686,0,0,0,0,0,0,0,-1,650,1212,-28.333,-6.15689
-567,-188,-19.5786,4.10388,0,0,0,0,0,0,0,-1,657,1212,-19.5785,-4.10383
-560,-188,-23.9507,0.416626,0,0,0,0,0,0,0,-1,664,1212,-23.9508,-0.416602
-553,-188,-36.5985,0.741943,0,0,0,0,0,0,0,-1,671,1212,-36.5985,-0.741936
-546,-188,-36.6191,0.928101,0,0,0,0,0,0,0,-1,678,1212,-36.6191,-0.928157
-539,-188,-36.7548,1.13135,0.000481631,0.00127909,-0.00303564,0.00394207,-0.00218135,-0.850699,0.00358374,0.0363872,685,1212,-36.7548,-1.13136
-532,-188,-36.7189,1.24109,0.000195413,0.00140073,-0.00319768,0.00405205,-0.00245591,-0.87854,0.00379486,0.0400603,692,1212,-36.719,-1.24108
-525,-188,-36.8218,0.947998,-0.000595734,0.00202686,-0.003262,0.00423126,-0.00280014,-0.976509,0.00408751,0.0416247,699,1212,-36.8218,-0.948001
-518,-188,-36.7941,0.903198,-0.00159414,0.00407443,-0.00227636,0.00487539,-0.0023951,-1.23247,0.00427826,0.0419687,706,1212,-36.7941,-0.903241
-511,-188,-36.6383,1.09766,-0.00263751,0.00665199,-0.000515905,0.00668055,-0.00266607,-1.51549,0.00555972,0.0415969,713,1212,-36.6383,-1.09768
-504,-188,0,0,0,0,0,0,0,0,0,-1,720,1212,0,0
-497,-188,0,0,0,0,0,0,0,0,0,-1,727,1212,0,0
-490,-188,0,0,0,0,0,0,0,0,0,-1,734,1212,0,0
-483,-188,0,0,0,0,0,0,0,0,0,-1,741,1212,0,0
-476,-188,0,0,0,0,0,0,0,0,0,-1,748,1212,0,0
-469,-188,0,0,0,0,0,0,0,0,0,-1,755,1212,0,0
-462,-188,0,0,0,0,0,0,0,0,0,-1,762,1212,0,0
-455,-188,0,0,0,0,0,0,0,0,0,-1,769,1212,0,0
-448,-188,0,0,0,0,0,0,0,0,0,-1,776,1212,0,0
-441,-188,0,0,0,0,0,0,0,0,0,-1,783,1212,0,0
-434,-188,0,0,0,0,0,0,0,0,0,-1,790,1212,0,0
-427,-188,0,0,0,0,0,0,0,0,0,-1,797,1212,0,0
-420,-188,0,0,0,0,0,0,0,0,0,-1,804,1212,0,0
-413,-188,0,0,0,0,0,0,0,0,0,-1,811,1212,0,0
-406,-188,0,0,0,0,0,0,0,0,0,-1,818,1212,0,0
-399,-188,0,0,0,0,0,0,0,0,0,-1,825,1212,0,0
-392,-188,0,0,0,0,0,0,0,0,0,-1,832,1212,0,0
-385,-188,0,0,0,0,0,0,0,0,0,-1,839,1212,0,0
-378,-188,0,0,0,0,0,0,0,0,0,-1,846,1212,0,0
-371,-188,0,0,0,0,0,0,0,0,0,-1,853,1212,0,0
-364,-188,0,0,0,0,0,0,0,0,0,-1,860,1212,0,0
-357,-188,0,0,0,0,0,0,0,0,0,-1,867,1212,0,0
-350,-188,0,0,0,0,0,0,0,0,0,-1,874,1212,0,0
-343,-188,0,0,0,0,0,0,0,0,0,-1,881,1212,0,0
-336,-188,0,0,0,0,0,0,0,0,0,-1,888,1212,0,0
-329,-188,0,0,0,0,0,0,0,0,0,-1,895,1212,0,0
-322,-188,0,0,0,0,0,0,0,0,0,-1,902,1212,0,0
-315,-188,0,0,0,0,0,0,0,0,0,-1,909,1212,0,0
-308,-188,0,0,0,0,0,0,0,0,0,-1,916,1212,0,0
-301,-188,0,0,0,0,0,0,0,0,0,-1,923,1212,0,0
-294,-188,0,0,0,0,0,0,0,0,0,-1,930,1212,0,0
-287,-188,0,0,0,0,0,0,0,0,0,-1,937,1212,0,0
-280,-188,0,0,0,0,0,0,0,0,0,-1,944,1212,0,0
-273,-188,0,0,0,0,0,0,0,0,0,-1,951,1212,0,0
-266,-188,0,0,0,0,0,0,0,0,0,-1,958,1212,0,0
-259,-188,0,0,0,0,0,0,0,0,0,-1,965,1212,0,0
-252,-188,0,0,0,0,0,0,0,0,0,-1,972,1212,0,0
-245,-188,0,0,0,0,0,0,0,0,0,-1,979,1212,0,0
-238,-188,0,0,0,0,0,0,0,0,0,-1,986,1212,0,0
-231,-188,0,0,0,0,0,0,0,0,0,-1,993,1212,0,0
-224,-188,0,0,0,0,0,0,0,0,0,-1,1000,1212,0,0
-217,-188,0,0,0,0,0,0,0,0,0,-1,1007,1212,0,0
-210,-188,0,0,0,0,0,0,0,0,0,-1,1014,1212,0,0
-203,-188,0,0,0,0,0,0,0,0,0,-1,1021,1212,0,0
-196,-188,0,0,0,0,0,0,0,0,0,-1,1028,1212,0,0
-189,-188,0,0,0,0,0,0,0,0,0,-1,1035,1212,0,0
-182,-188,0,0,0,0,0,0,0,0,0,-1,1042,1212,0,0
-175,-188,0,0,0,0,0,0,0,0,0,-1,1049,1212,0,0
-168,-188,0,0,0,0,0,0,0,0,0,-1,1056,1212,0,0
-161,-188,0,0,0,0,0,0,0,0,0,-1,1063,1212,0,0
-154,-188,0,0,0,0,0,0,0,0,0,-1,1070,1212,0,0
-147,-188,0,0,0,0,0,0,0,0,0,-1,1077,1212,0,0
-140,-188,0,0,0,0,0,0,0,0,0,-1,1084,1212,0,0
-133,-188,0,0,0,0,0,0,0,0,0,-1,1091,1212,0,0
-126,-188,0,0,0,0,0,0,0,0,0,-1,1098,1212,0,0
-119,-188,0,0,0,0,0,0,0,0,0,-1,1105,1212,0,0
-112,-188,0,0,0,0,0,0,0,0,0,-1,1112,1212,0,0
-105,-188,0,0,0,0,0,0,0,0,0,-1,1119,1212,0,0
-98,-188,0,0,0,0,0,0,0,0,0,-1,1126,1212,0,0
-91,-188,0,0,0,0,0,0,0,0,0,-1,1133,1212,0,0
-84,-188,0,0,0,0,0,0,0,0,0,-1,1140,1212,0,0
-77,-188,0,0,0,0,0,0,0,0,0,-1,1147,1212,0,0
-70,-188,0,0,0,0,0,0,0,0,0,-1,1154,1212,0,0
-63,-188,0,0,0,0,0,0,0,0,0,-1,1161,1212,0,0
-56,-188,0,0,0,0,0,0,0,0,0,-1,1168,1212,0,0
-49,-188,0,0,0,0,0,0,0,0,0,-1,1175,1212,0,0
-42,-188,0,0,0,0,0,0,0,0,0,-1,1182,1212,0,0
-35,-188,0,0,0,0,0,0,0,0,0,-1,1189,1212,0,0
-28,-188,0,0,0,0,0,0,0,0,0,-1,1196,1212,0,0
-21,-188,0,0,0,0,0,0,0,0,0,-1,1203,1212,0,0
-14,-188,0,0,0,0,0,0,0,0,0,-1,1210,1212,0,0
-7,-188,0,0,0,0,0,0,0,0,0,-1,1217,1212,0,0
0,-188,0,0,0,0,0,0,0,0,0,-1,1224,1212,0,0
7,-188,0,0,0,0,0,0,0,0,0,-1,1231,1212,0,0
14,-188,0,0,0,0,0,0,0,0,0,-1,1238,1212,0,0
21,-188,0,0,0,0,0,0,0,0,0,-1,1245,1212,0,0
28,-188,0,0,0,0,0,0,0,0,0,-1,1252,1212,0,0
35,-188,0,0,0,0,0,0,0,0,0,-1,1259,1212,0,0
42,-188,0,0,0,0,0,0,0,0,0,-1,1266,1212,0,0
49,-188,0,0,0,0,0,0,0,0,0,-1,1273,1212,0,0
56,-188,0,0,0,0,0,0,0,0,0,-1,1280,1212,0,0
63,-188,0,0,0,0,0,0,0,0,0,-1,1287,1212,0,0
70,-188,0,0,0,0,0,0,0,0,0,-1,1294,1212,0,0
77,-188,0,0,0,0,0,0,0,0,0,-1,1301,1212,0,0
84,-188,0,0,0,0,0,0,0,0,0,-1,1308,1212,0,0
91,-188,0,0,0,0,0,0,0,0,0,-1,1315,1212,0,0
98,-188,0,0,0,0,0,0,0,0,0,-1,1322,1212,0,0
105,-188,0,0,0,0,0,0,0,0,0,-1,1329,1212,0,0
112,-188,0,0,0,0,0,0,0,0,0,-1,1336,1212,0,0
119,-188,0,0,0,0,0,0,0,0,0,-1,1343,1212,0,0
126,-188,0,0,0,0,0,0,0,0,0,-1,1350,1212,0,0
133,-188,0,0,0,0,0,0,0,0,0,-1,1357,1212,0,0
140,-188,0,0,0,0,0,0,0,0,0,-1,1364,1212,0,0
147,-188,0,0,0,0,0,0,0,0,0,-1,1371,1212,0,0
154,-188,0,0,0,0,0,0,0,0,0,-1,1378,1212,0,0
161,-188,0,0,0,0,0,0,0,0,0,-1,1385,1212,0,0
168,-188,0,0,0,0,0,0,0,0,0,-1,1392,1212,0,0
175,-188,0,0,0,0,0,0,0,0,0,-1,1399,1212,0,0
182,-188,0,0,0,0,0,0,0,0,0,-1,1406,1212,0,0
189,-188,0,0,0,0,0,0,0,0,0,-1,1413,1212,0,0
196,-188,0,0,0,0,0,0,0,0,0,-1,1420,1212,0,0
203,-188,0,0,0,0,0,0,0,0,0,-1,1427,1212,0,0
210,-188,0,0,0,0,0,0,0,0,0,-1,1434,1212,0,0
217,-188,0,0,0,0,0,0,0,0,0,-1,1441,1212,0,0
224,-188,0,0,0,0,0,0,0,0,0,-1,1448,1212,0,0
231,-188,0,0,0,0,0,0,0,0,0,-1,1455,1212,0,0
238,-188,0,0,0,0,0,0,0,0,0,-1,1462,1212,0,0
245,-188,0,0,0,0,0,0,0,0,0,-1,1469,1212,0,0
252,-188,0,0,0,0,0,0,0,0,0,-1,1476,1212,0,0
259,-188,0,0,0,0,0,0,0,0,0,-1,1483,1212,0,0
266,-188,0,0,0,0,0,0,0,0,0,-1,1490,1212,0,0
273,-188,0,0,0,0,0,0,0,0,0,-1,1497,1212,0,0
280,-188,0,0,0,0,0,0,0,0,0,-1,1504,1212,0,0
287,-188,0,0,0,0,0,0,0,0,0,-1,1511,1212,0,0
294,-188,0,0,0,0,0,0,0,0,0,-1,1518,1212,0,0
301,-188,0,0,0,0,0,0,0,0,0,-1,1525,1212,0,0
308,-188,0,0,0,0,0,0,0,0,0,-1,1532,1212,0,0
315,-188,0,0,0,0,0,0,0,0,0,-1,1539,1212,0,0
322,-188,0,0,0,0,0,0,0,0,0,-1,1546,1212,0,0
329,-188,0,0,0,0,0,0,0,0,0,-1,1553,1212,0,0
336,-188,0,0,0,0,0,0,0,0,0,-1,1560,1212,0,0
343,-188,0,0,0,0,0,0,0,0,0,-1,1567,1212,0,0
350,-188,0,0,0,0,0,0,0,0,0,-1,1574,1212,0,0
357,-188,0,0,0,0,0,0,0,0,0,-1,1581,1212,0,0
364,-188,0,0,0,0,0,0,0,0,0,-1,1588,1212,0,0
371,-188,0,0,0,0,0,0,0,0,0,-1,1595,1212,0,0
378,-188,0,0,0,0,0,0,0,0,0,-1,1602,1212,0,0
385,-188,0,0,0,0,0,0,0,0,0,-1,1609,1212,0,0
392,-188,0,0,0,0,0,0,0,0,0,-1,1616,1212,0,0
399,-188,0,0,0,0,0,0,0,0,0,-1,1623,1212,0,0
406,-188,0,0,0,0,0,0,0,0,0,-1,1630,1212,0,0
413,-188,0,0,0,0,0,0,0,0,0,-1,1637,1212,0,0
420,-188,0,0,0,0,0,0,0,0,0,-1,1644,1212,0,0
427,-188,0,0,0,0,0,0,0,0,0,-1,1651,1212,0,0
434,-188,0,0,0,0,0,0,0,0,0,-1,1658,1212,0,0
441,-188,0,0,0,0,0,0,0,0,0,-1,1665,1212,0,0
448,-188,0,0,0,0,0,0,0,0,0,-1,1672,1212,0,0
455,-188,0,0,0,0,0,0,0,0,0,-1,1679,1212,0,0
462,-188,0,0,0,0,0,0,0,0,0,-1,1686,1212,0,0
469,-188,0,0,0,0,0,0,0,0,0,-1,1693,1212,0,0
476,-188,0,0,0,0,0,0,0,0,0,-1,1700,1212,0,0
483,-188,0,0,0,0,0,0,0,0,0,-1,1707,1212,0,0
490,-188,0,0,0,0,0,0,0,0,0,-1,1714,1212,0,0
497,-188,0,0,0,0,0,0,0,0,0,-1,1721,1212,0,0
504,-188,0,0,0,0,0,0,0,0,0,-1,1728,1212,0,0
511,-188,0,0,0,0,0,0,0,0,0,-1,1735,1212,0,0
518,-188,0,0,0,0,0,0,0,0,0,-1,1742,1212,0,0
525,-188,0,0,0,0,0,0,0,0,0,-1,1749,1212,0,0
532,-188,0,0,0,0,0,0,0,0,0,-1,1756,1212,0,0
539,-188,0,0,0,0,0,0,0,0,0,-1,1763,1212,0,0
546,-188,0,0,0,0,0,0,0,0,0,-1,1770,1212,0,0
553,-188,0,0,0,0,0,0,0,0,0,-1,1777,1212,0,0
560,-188,0,0,0,0,0,0,0,0,0,-1,1784,1212,0,0
567,-188,0,0,0,0,0,0,0,0,0,-1,1791,1212,0,0
574,-188,0,0,0,0,0,0,0,0,0,-1,1798,1212,0,0
581,-188,0,0,0,0,0,0,0,0,0,-1,1805,1212,0,0
588,-188,0,0,0,0,0,0,0,0,0,-1,1812,1212,0,0
595,-188,0,0,0,0,0,0,0,0,0,-1,1819,1212,0,0
602,-188,0,0,0,0,0,0,0,0,0,-1,1826,1212,0,0
609,-188,0,0,0,0,0,0,0,0,0,-1,1833,1212,0,0
616,-188,0,0,0,0,0,0,0,0,0,-1,1840,1212,0,0
623,-188,0,0,0,0,0,0,0,0,0,-1,1847,1212,0,0
630,-188,49.5314,2.94568,0.00293735,-0.00215703,0.00166337,0.00343236,-0.00265204,0.289247,0.00352244,0.0397554,1854,1212,49.5314,-2.94567
637,-188,49.5255,2.83569,0.0020908,-0.000741859,0.000903528,0.00235446,-0.00100551,0.283924,0.00199131,0.0403935,1861,1212,49.5256,-2.83571
644,-188,49.4894,2.7251,0.00159246,0.000539642,-0.00010334,0.00160251,0.000529594,-0.0969231,0.000942767,0.0350725,1868,1212,49.4893,-2.72514
651,-188,49.3387,2.67981,0.0011809,0.00153147,-0.000887225,0.00226056,0.000451812,-0.882924,0.00138129,0.0310584,1875,1212,49.3387,-2.67985
658,-188,49.2958,2.67358,0.000936181,0.00193055,-0.00149232,0.00300633,-0.000139595,-0.946197,0.00205233,0.0318362,1882,1212,49.2958,-2.67357
665,-188,49.369,2.67664,0.000810586,0.00176568,-0.00176203,0.00311373,-0.000537466,-0.917729,0.00227623,0.0287719,1889,1212,49.369,-2.67666
672,-188,49.4241,2.65051,0.000596358,0.00148133,-0.00160636,0.00270504,-0.000627347,-0.919795,0.00204481,0.0229248,1896,1212,49.424,-2.65048
679,-188,49.35,2.53479,0.000399858,0.00102351,-0.00136034,0.00210731,-0.00068394,-0.898065,0.00167992,0.046101,1903,1212,49.35,-2.53478
686,-188,49.3181,2.46362,0,0,0,0,0,0,0,-1,1910,1212,49.3181,-2.46365
693,-188,35.9054,2.18042,0,0,0,0,0,0,0,-1,1917,1212,35.9054,-2.18038
700,-188,39.0826,8.68848,0,0,0,0,0,0,0,-1,1924,1212,39.0826,-8.68852
707,-188,41.158,8.83752,0,0,0,0,0,0,0,-1,1931,1212,41.158,-8.83749
714,-188,41.4033,8.36707,0,0,0,0,0,0,0,-1,1938,1212,41.4034,-8.36709
721,-188,41.1791,7.80493,-0.000688162,-0.000299004,6.49194e-05,-0.00028846,-0.000698706,1.40978,0.000405436,0.0414485,1945,1212,41.1791,-7.80489
728,-188,41.0154,7.32776,-0.000582131,-0.000233694,0.000529045,0.00014908,-0.000964905,0.94446,0.000698288,0.0145483,1952,1212,41.0154,-7.32777
735,-188,40.9918,6.90186,-1.71183e-05,-0.000372799,0.000470145,0.000307698,-0.000697615,0.604582,0.000594792,0.0134661,1959,1212,40.9918,-6.90181
742,-188,40.9628,6.47119,7.81628e-05,0.000211132,4.47999e-05,0.000224817,6.44773e-05,1.27432,0.000133674,0.015273,1966,1212,40.9628,-6.47119
749,-188,40.9655,6.04797,-7.48142e-05,0.0010493,-0.00110511,0.00172707,-0.000752583,-1.02065,0.00146802,0.0152167,1973,1212,40.9654,-6.04801
756,-188,40.9614,5.61316,-0.00122991,0.00268858,-0.00298131,0.0042968,-0.00283813,-1.0761,0.00414795,0.0132834,1980,1212,40.9614,-5.6131
763,-188,40.9998,5.20215,-0.00292077,0.00427586,-0.00589292,0.00758221,-0.00622712,-1.05949,0.0079856,0.0156386,1987,1212,40.9997,-5.20217
770,-188,41.0487,4.78638,-0.00569269,0.00624586,-0.0097315,0.011693,-0.0111398,-1.0605,0.0131838,0.0317322,1994,1212,41.0487,-4.78633
777,-188,41.1675,4.38928,0,0,0,0,0,0,0,-1,2001,1212,41.1675,-4.38925
784,-188,51.5562,5.55627,-0.0160299,0.0119012,-0.0204233,0.0226772,-0.026806,-1.08529,0.0286023,0.0470795,2008,1212,51.5563,-5.55632
791,-188,50.595,3.95068,-0.0251536,0.0157871,-0.0282554,0.0302081,-0.0395745,-1.09888,0.0404098,0.0464198,2015,1212,50.595,-3.95068
798,-188,49.6606,2.34607,0,0,0,0,0,0,0,-1,2022,1212,49.6606,-2.34607
805,-188,0,0,0,0,0,0,0,0,0,-1,2029,1212,0,0
812,-188,0,0,0,0,0,0,0,0,0,-1,2036,1212,0,0
-700,-195,0,0,0,0,0,0,0,0,0,-1,524,1219,0,0
-693,-195,0,0,0,0,0,0,0,0,0,-1,531,1219,0,0
-686,-195,0,0,0,0,0,0,0,0,0,-1,538,1219,0,0
-679,-195,-27.6784,6.15491,0,0,0,0,0,0,0,-1,545,1219,-27.6784,-6.15495
-672,-195,-29.102,6.52136,0,0,0,0,0,0,0,-1,552,1219,-29.102,-6.52131
-665,-195,-26.2258,1.17224,0,0,0,0,0,0,0,-1,559,1219,-26.2257,-1.17225
-658,-195,-26.9353,0.866333,0,0,0,0,0,0,0,-1,566,1219,-26.9353,-0.866306
-651,-195,-26.9301,1.14673,0.00672553,-0.0489939,0.00395214,0.00700446,-0.0492728,0.0704591,0.035415,0.0465836,573,1219,-26.9301,-1.14672
-644,-195,-27.03,1.57117,0.00545194,-0.0311363,0.00220439,0.00558427,-0.0312686,0.0599595,0.0229349,0.0430543,580,1219,-27.03,-1.57116
-637,-195,-27.1342,2.06323,0.00417897,-0.0181994,0.00111371,0.00423426,-0.0182547,0.0496036,0.0137995,0.0243913,587,1219,-27.1342,-2.06329
-630,-195,-27.2372,2.54004,0.00310658,-0.00963417,0.000383674,0.00311812,-0.00964571,0.0300776,0.00768372,0.00867854,594,1219,-27.2373,-2.54004
-623,-195,-27.2586,3.00208,0.00228725,-0.00420268,-4.12282e-05,0.00228752,-0.00420294,-0.0063523,0.00380127,0.00831393,601,1219,-27.2586,-3.00205
-616,-195,-27.2502,3.47986,0.00152734,-0.000119886,-0.000544783,0.00169121,-0.000283758,-0.292192,0.00123299,0.0102375,608,1219,-27.2503,-3.47983
-609,-195,-27.259,3.99377,0.00100383,0.00108097,-0.000643946,0.0016875,0.000397301,-0.815313,0.00101873,0.0178643,615,1219,-27.259,-3.99375
-602,-195,-27.2869,4.46204,0.000618528,0.000921241,-0.000610072,0.00139845,0.000141317,-0.906991,0.000888948,0.0204501,622,1219,-27.2869,-4.46203
-595,-195,-27.3392,4.94153,0.000231446,0.000910733,-0.000599345,0.00125998,-0.000117803,-1.04318,0.000881882,0.0196285,629,1219,-27.3392,-4.94154
-588,-195,-27.371,5.47729,0.000471557,0.000785224,-0.000387354,0.00104629,0.000210492,-0.977753,0.000639025,0.0229849,636,1219,-27.371,-5.47724
-581,-195,-27.1346,6.01123,0,0,0,0,0,0,0,-1,643,1219,-27.1346,-6.01119
-574,-195,-27.0231,5.84705,0,0,0,0,0,0,0,-1,650,1219,-27.0231,-5.84702
-567,-195,-20.6388,3.78369,0,0,0,0,0,0,0,-1,657,1219,-20.6388,-3.78369
-560,-195,-20.878,2.10388,0,0,0,0,0,0,0,-1,664,1219,-20.878,-2.10385
-553,-195,-36.095,0.560547,0,0,0,0,0,0,0,-1,671,1219,-36.095,-0.560539
-546,-195,-36.531,1.05469,0,0,0,0,0,0,0,-1,678,1219,-36.531,-1.05473
-539,-195,-36.6428,1.05835,0.00112294,0.000347961,-0.0029855,0.00374599,-0.0022751,-0.720864,0.00351068,0.040584,685,1219,-36.6428,-1.05836
-532,-195,-36.7083,1.01782,0.000857389,0.000254515,-0.00308751,0.00365814,-0.00254623,-0.736737,0.00360122,0.0340974,692,1219,-36.7083,-1.01782
-525,-195,-36.6656,0.957886,4.04127e-05,0.000491412,-0.00312501,0.00339905,-0.00286722,-0.821416,0.00362218,0.0388879,699,1219,-36.6656,-0.957904
-518,-195,-36.6415,0.900513,-0.00125564,0.00240622,-0.00194111,0.00324367,-0.00209308,-1.1635,0.00310495,0.0435291,706,1219,-36.6415,-0.900456
-511,-195,-36.6626,1.16504,-0.00264739,0.00535726,0.000224321,0.00536354,-0.00265367,1.5428,0.00471605,0.0452373,713,1219,-36.6626,-1.16504
-504,-195,0,0,0,0,0,0,0,0,0,-1,720,1219,0,0
-497,-195,0,0,0,0,0,0,0,0,0,-1,727,1219,0,0
-490,-195,0,0,0,0,0,0,0,0,0,-1,734,1219,0,0
-483,-195,0,0,0,0,0,0,0,0,0,-1,741,1219,0,0
-476,-195,0,0,0,0,0,0,0,0,0,-1,748,1219,0,0
-469,-195,0,0,0,0,0,0,0,0,0,-1,755,1219,0,0
-462,-195,0,0,0,0,0,0,0,0,0,-1,762,1219,0,0
-455,-195,0,0,0,0,0,0,0,0,0,-1,769,1219,0,0
-448,-195,0,0,0,0,0,0,0,0,0,-1,776,1219,0,0
-441,-195,0,0,0,0,0,0,0,0,0,-1,783,1219,0,0
-434,-195,0,0,0,0,0,0,0,0,0,-1,790,1219,0,0
-427,-195,0,0,0,0,0,0,0,0,0,-1,797,1219,0,0
-420,-195,0,0,0,0,0,0,0,0,0,-1,804,1219,0,0
-413,-195,0,0,0,0,0,0,0,0,0,-1,811,1219,0,0
-406,-195,0,0,0,0,0,0,0,0,0,-1,818,1219,0,0
-399,-195,0,0,0,0,0,0,0,0,0,-1,825,1219,0,0
-392,-195,0,0,0,0,0,0,0,0,0,-1,832,1219,0,0
-385,-195,0,0,0,0,0,0,0,0,0,-1,839,1219,0,0
-378,-195,0,0,0,0,0,0,0,0,0,-1,846,1219,0,0
-371,-195,0,0,0,0,0,0,0,0,0,-1,853,1219,0,0
-364,-195,0,0,0,0,0,0,0,0,0,-1,860,1219,0,0
-357,-195,0,0,0,0,0,0,0,0,0,-1,867,1219,0,0
-350,-195,0,0,0,0,0,0,0,0,0,-1,874,1219,0,0
-343,-195,0,0,0,0,0,0,0,0,0,-1,881,1219,0,0
-336,-195,0,0,0,0,0,0,0,0,0,-1,888,1219,0,0
-329,-195,0,0,0,0,0,0,0,0,0,-1,895,1219,0,0
-322,-195,0,0,0,0,0,0,0,0,0,-1,902,1219,0,0
-315,-195,0,0,0,0,0,0,0,0,0,-1,909,1219,0,0
-308,-195,0,0,0,0,0,0,0,0,0,-1,916,1219,0,0
-301,-195,0,0,0,0,0,0,0,0,0,-1,923,1219,0,0
-294,-195,0,0,0,0,0,0,0,0,0,-1,930,1219,0,0
-287,-195,0,0,0,0,0,0,0,0,0,-1,937,1219,0,0
-280,-195,0,0,0,0,0,0,0,0,0,-1,944,1219,0,0
-273,-195,0,0,0,0,0,0,0,0,0,-1,951,1219,0,0
-266,-195,0,0,0,0,0,0,0,0,0,-1,958,1219,0,0
-259,-195,0,0,0,0,0,0,0,0,0,-1,965,1219,0,0
-252,-195,0,0,0,0,0,0,0,0,0,-1,972,1219,0,0
-245,-195,0,0,0,0,0,0,0,0,0,-1,979,1219,0,0
-238,-195,0,0,0,0,0,0,0,0,0,-1,986,1219,0,0
-231,-195,0,0,0,0,0,0,0,0,0,-1,993,1219,0,0
-224,-195,0,0,0,0,0,0,0,0,0,-1,1000,1219,0,0
-217,-195,0,0,0,0,0,0,0,0,0,-1,1007,1219,0,0
-210,-195,0,0,0,0,0,0,0,0,0,-1,1014,1219,0,0
-203,-195,0,0,0,0,0,0,0,0,0,-1,1021,1219,0,0
-196,-195,0,0,0,0,0,0,0,0,0,-1,1028,1219,0,0
-189,-195,0,0,0,0,0,0,0,0,0,-1,1035,1219,0,0
-182,-195,0,0,0,0,0,0,0,0,0,-1,1042,1219,0,0
-175,-195,0,0,0,0,0,0,0,0,0,-1,1049,1219,0,0
-168,-195,0,0,0,0,0,0,0,0,0,-1,1056,1219,0,0
-161,-195,0,0,0,0,0,0,0,0,0,-1,1063,1219,0,0
-154,-195,0,0,0,0,0,0,0,0,0,-1,1070,1219,0,0
-147,-195,0,0,0,0,0,0,0,0,0,-1,1077,1219,0,0
-140,-195,0,0,0,0,0,0,0,0,0,-1,1084,1219,0,0
-133,-195,0,0,0,0,0,0,0,0,0,-1,1091,1219,0,0
-126,-195,0,0,0,0,0,0,0,0,0,-1,1098,1219,0,0
-119,-195,0,0,0,0,0,0,0,0,0,-1,1105,1219,0,0
-112,-195,0,0,0,0,0,0,0,0,0,-1,1112,1219,0,0
-105,-195,0,0,0,0,0,0,0,0,0,-1,1119,1219,0,0
-98,-195,0,0,0,0,0,0,0,0,0,-1,1126,1219,0,0
-91,-195,0,0,0,0,0,0,0,0,0,-1,1133,1219,0,0
-84,-195,0,0,0,0,0,0,0,0,0,-1,1140,1219,0,0
-77,-195,0,0,0,0,0,0,0,0,0,-1,1147,1219,0,0
-70,-195,0,0,0,0,0,0,0,0,0,-1,1154,1219,0,0
-63,-195,0,0,0,0,0,0,0,0,0,-1,1161,1219,0,0
-56,-195,0,0,0,0,0,0,0,0,0,-1,1168,1219,0,0
-49,-195,0,0,0,0,0,0,0,0,0,-1,1175,1219,0,0
-42,-195,0,0,0,0,0,0,0,0,0,-1,1182,1219,0,0
-35,-195,0,0,0,0,0,0,0,0,0,-1,1189,1219,0,0
-28,-195,0,0,0,0,0,0,0,0,0,-1,1196,1219,0,0
-21,-195,0,0,0,0,0,0,0,0,0,-1,1203,1219,0,0
-14,-195,0,0,0,0,0,0,0,0,0,-1,1210,1219,0,0
-7,-195,0,0,0,0,0,0,0,0,0,-1,1217,1219,0,0
0,-195,0,0,0,0,0,0,0,0,0,-1,1224,1219,0,0
7,-195,0,0,0,0,0,0,0,0,0,-1,1231,1219,0,0
14,-195,0,0,0,0,0,0,0,0,0,-1,1238,1219,0,0
21,-195,0,0,0,0,0,0,0,0,0,-1,1245,1219,0,0
28,-195,0,0,0,0,0,0,0,0,0,-1,1252,1219,0,0
35,-195,0,0,0,0,0,0,0,0,0,-1,1259,1219,0,0
42,-195,0,0,0,0,0,0,0,0,0,-1,1266,1219,0,0
49,-195,0,0,0,0,0,0,0,0,0,-1,1273,1219,0,0
56,-195,0,0,0,0,0,0,0,0,0,-1,1280,1219,0,0
63,-195,0,0,0,0,0,0,0,0,0,-1,1287,1219,0,0
70,-195,0,0,0,0,0,0,0,0,0,-1,1294,1219,0,0
77,-195,0,0,0,0,0,0,0,0,0,-1,1301,1219,0,0
84,-195,0,0,0,0,0,0,0,0,0,-1,1308,1219,0,0
91,-195,0,0,0,0,0,0,0,0,0,-1,1315,1219,0,0
98,-195,0,0,0,0,0,0,0,0,0,-1,1322,1219,0,0
105,-195,0,0,0,0,0,0,0,0,0,-1,1329,1219,0,0
112,-195,0,0,0,0,0,0,0,0,0,-1,1336,1219,0,0
119,-195,0,0,0,0,0,0,0,0,0,-1,1343,1219,0,0
126,-195,0,0,0,0,0,0,0,0,0,-1,1350,1219,0,0
133,-195,0,0,0,0,0,0,0,0,0,-1,1357,1219,0,0
140,-195,0,0,0,0,0,0,0,0,0,-1,1364,1219,0,0
147,-195,0,0,0,0,0,0,0,0,0,-1,1371,1219,0,0
154,-195,0,0,0,0,0,0,0,0,0,-1,1378,1219,0,0
161,-195,0,0,0,0,0,0,0,0,0,-1,1385,1219,0,0
168,-195,0,0,0,0,0,0,0,0,0,-1,1392,1219,0,0
175,-195,0,0,0,0,0,0,0,0,0,-1,1399,1219,0,0
182,-195,0,0,0,0,0,0,0,0,0,-1,1406,1219,0,0
189,-195,0,0,0,0,0,0,0,0,0,-1,1413,1219,0,0
196,-195,0,0,0,0,0,0,0,0,0,-1,1420,1219,0,0
203,-195,0,0,0,0,0,0,0,0,0,-1,1427,1219,0,0
210,-195,0,0,0,0,0,0,0,0,0,-1,1434,1219,0,0
217,-195,0,0,0,0,0,0,0,0,0,-1,1441,1219,0,0
224,-195,0,0,0,0,0,0,0,0,0,-1,1448,1219,0,0
231,-195,0,0,0,0,0,0,0,0,0,-1,1455,1219,0,0
238,-195,0,0,0,0,0,0,0,0,0,-1,1462,1219,0,0
245,-195,0,0,0,0,0,0,0,0,0,-1,1469,1219,0,0
252,-195,0,0,0,0,0,0,0,0,0,-1,1476,1219,0,0
259,-195,0,0,0,0,0,0,0,0,0,-1,1483,1219,0,0
266,-195,0,0,0,0,0,0,0,0,0,-1,1490,1219,0,0
273,-195,0,0,0,0,0,0,0,0,0,-1,1497,1219,0,0
280,-195,0,0,0,0,0,0,0,0,0,-1,1504,1219,0,0
287,-195,0,0,0,0,0,0,0,0,0,-1,1511,1219,0,0
294,-195,0,0,0,0,0,0,0,0,0,-1,1518,1219,0,0
301,-195,0,0,0,0,0,0,0,0,0,-1,1525,1219,0,0
308,-195,0,0,0,0,0,0,0,0,0,-1,1532,1219,0,0
315,-195,0,0,0,0,0,0,0,0,0,-1,1539,1219,0,0
322,-195,0,0,0,0,0,0,0,0,0,-1,1546,1219,0,0
329,-195,0,0,0,0,0,0,0,0,0,-1,1553,1219,0,0
336,-195,0,0,0,0,0,0,0,0,0,-1,1560,1219,0,0
343,-195,0,0,0,0,0,0,0,0,0,-1,1567,1219,0,0
350,-195,0,0,0,0,0,0,0,0,0,-1,1574,1219,0,0
357,-195,0,0,0,0,0,0,0,0,0,-1,1581,1219,0,0
364,-195,0,0,0,0,0,0,0,0,0,-1,1588,1219,0,0
371,-195,0,0,0,0,0,0,0,0,0,-1,1595,1219,0,0
378,-195,0,0,0,0,0,0,0,0,0,-1,1602,1219,0,0
385,-195,0,0,0,0,0,0,0,0,0,-1,1609,1219,0,0
392,-195,0,0,0,0,0,0,0,0,0,-1,1616,1219,0,0
399,-195,0,0,0,0,0,0,0,0,0,-1,1623,1219,0,0
406,-195,0,0,0,0,0,0,0,0,0,-1,1630,1219,0,0
413,-195,0,0,0,0,0,0,0,0,0,-1,1637,1219,0,0
420,-195,0,0,0,0,0,0,0,0,0,-1,1644,1219,0,0
427,-195,0,0,0,0,0,0,0,0,0,-1,1651,1219,0,0
434,-195,0,0,0,0,0,0,0,0,0,-1,1658,1219,0,0
441,-195,0,0,0,0,0,0,0,0,0,-1,1665,1219,0,0
448,-195,0,0,0,0,0,0,0,0,0,-1,1672,1219,0,0
455,-195,0,0,0,0,0,0,0,0,0,-1,1679,1219,0,0
462,-195,0,0,0,0,0,0,0,0,0,-1,1686,1219,0,0
469,-195,0,0,0,0,0,0,0,0,0,-1,1693,1219,0,0
476,-195,0,0,0,0,0,0,0,0,0,-1,1700,1219,0,0
483,-195,0,0,0,0,0,0,0,0,0,-1,1707,1219,0,0
490,-195,0,0,0,0,0,0,0,0,0,-1,1714,1219,0,0
497,-195,0,0,0,0,0,0,0,0,0,-1,1721,1219,0,0
504,-195,0,0,0,0,0,0,0,0,0,-1,1728,1219,0,0
511,-195,0,0,0,0,0,0,0,0,0,-1,1735,1219,0,0
518,-195,0,0,0,0,0,0,0,0,0,-1,1742,1219,0,0
525,-195,0,0,0,0,0,0,0,0,0,-1,1749,1219,0,0
532,-195,0,0,0,0,0,0,0,0,0,-1,1756,1219,0,0
539,-195,0,0,0,0,0,0,0,0,0,-1,1763,1219,0,0
546,-195,0,0,0,0,0,0,0,0,0,-1,1770,1219,0,0
553,-195,0,0,0,0,0,0,0,0,0,-1,1777,1219,0,0
560,-195,0,0,0,0,0,0,0,0,0,-1,1784,1219,0,0
567,-195,0,0,0,0,0,0,0,0,0,-1,1791,1219,0,0
574,-195,0,0,0,0,0,0,0,0,0,-1,1798,1219,0,0
581,-195,0,0,0,0,0,0,0,0,0,-1,1805,1219,0,0
588,-195,0,0,0,0,0,0,0,0,0,-1,1812,1219,0,0
595,-195,0,0,0,0,0,0,0,0,0,-1,1819,1219,0,0
602,-195,0,0,0,0,0,0,0,0,0,-1,1826,1219,0,0
609,-195,0,0,0,0,0,0,0,0,0,-1,1833,1219,0,0
616,-195,0,0,0,0,0,0,0,0,0,-1,1840,1219,0,0
623,-195,0,0,0,0,0,0,0,0,0,-1,1847,1219,0,0
630,-195,49.5157,2.84021,0.0029318,-0.00192114,0.000913152,0.00309794,-0.00208727,0.179968,0.00301258,0.0373723,1854,1219,49.5157,-2.84019
637,-195,49.5118,2.87683,0.00203999,-0.000232451,-1.50192e-05,0.00204008,-0.000232551,-0.0066089,0.00144383,0.0378565,1861,1219,49.5118,-2.87683
644,-195,49.5166,2.76929,0.00147925,0.00131372,-0.00109073,0.00249035,0.000302614,-0.747532,0.00156912,0.033426,1868,1219,49.5166,-2.76928
651,-195,49.4406,2.66479,0.00106432,0.00236187,-0.00180892,0.00363484,-0.000208648,-0.957579,0.00249569,0.0262426,1875,1219,49.4406,-2.66483
658,-195,49.3929,2.68262,0.000849955,0.00259133,-0.00221803,0.00410345,-0.000662157,-0.972433,0.00298097,0.0245281,1882,1219,49.3929,-2.68262
665,-195,49.432,2.66748,0.000766569,0.00220699,-0.00224405,0.00384356,-0.000870008,-0.940677,0.00289627,0.0230317,1889,1219,49.432,-2.6675
672,-195,49.4962,2.61169,0.000620185,0.00176316,-0.00192596,0.00320063,-0.000817286,-0.929625,0.00245201,0.0341527,1896,1219,49.4962,-2.6117
679,-195,49.139,2.41101,0.000481555,0.00123103,-0.00158885,0.00248874,-0.000776151,-0.901209,0.00196953,0.0461767,1903,1219,49.139,-2.41099
686,-195,48.9181,2.26453,0,0,0,0,0,0,0,-1,1910,1219,48.918,-2.26458
693,-195,24.4368,5.68298,0,0,0,0,0,0,0,-1,1917,1219,24.4368,-5.68293
700,-195,40.8854,9.23352,0,0,0,0,0,0,0,-1,1924,1219,40.8853,-9.23351
707,-195,40.6393,8.7113,0,0,0,0,0,0,0,-1,1931,1219,40.6393,-8.71129
714,-195,40.677,8.20227,0,0,0,0,0,0,0,-1,1938,1219,40.677,-8.20232
721,-195,40.5963,7.77551,-0.000530947,-0.000483873,0.000100557,-0.000404135,-0.000610685,0.900363,0.000358678,0.0229322,1945,1219,40.5963,-7.77547
728,-195,40.5864,7.3606,-0.00036674,-0.000373531,0.000581282,0.000211156,-0.000951428,0.782478,0.000715139,0.0111018,1952,1219,40.5864,-7.36054
735,-195,40.5559,6.89111,8.6328e-05,-0.000559463,0.000387297,0.000267675,-0.00074081,0.437917,0.000603231,0.0123556,1959,1219,40.5559,-6.89111
742,-195,40.53,6.46216,-8.93035e-05,-0.00020274,-0.000211704,7.31479e-05,-0.000365192,-0.654515,0.000271153,0.0146565,1966,1219,40.53,-6.46215
749,-195,40.5197,6.052,-0.000444007,0.000369897,-0.00141497,0.00143528,-0.00150939,-0.925421,0.00170028,0.0150588,1973,1219,40.5197,-6.05205
756,-195,40.531,5.63733,-0.00170991,0.00159406,-0.0034567,0.00377325,-0.0038891,-1.00831,0.00442402,0.0142333,1980,1219,40.5311,-5.63729
763,-195,40.5485,5.2041,-0.00360051,0.00258656,-0.00669131,0.00686484,-0.00787878,-1.00192,0.00851894,0.0180355,1987,1219,40.5485,-5.20411
770,-195,40.5345,4.87439,-0.00663717,0.00384948,-0.0110786,0.0108629,-0.0136506,-1.00642,0.0141834,0.0349456,1994,1219,40.5345,-4.87438
777,-195,40.5741,4.63586,0,0,0,0,0,0,0,-1,2001,1219,40.5741,-4.63587
784,-195,51.8523,5.99036,0,0,0,0,0,0,0,-1,2008,1219,51.8524,-5.99038
791,-195,50.9114,4.33533,0,0,0,0,0,0,0,-1,2015,1219,50.9113,-4.33532
798,-195,49.7559,1.57739,0,0,0,0,0,0,0,-1,2022,1219,49.756,-1.57745
805,-195,0,0,0,0,0,0,0,0,0,-1,2029,1219,0,0
812,-195,0,0,0,0,0,0,0,0,0,-1,2036,1219,0,0
-700,-202,0,0,0,0,0,0,0,0,0,-1,524,1226,0,0
-693,-202,0,0,0,0,0,0,0,0,0,-1,531,1226,0,0
-686,-202,0,0,0,0,0,0,0,0,0,-1,538,1226,0,0
-679,-202,-28.9105,7.02112,0,0,0,0,0,0,0,-1,545,1226,-28.9105,-7.02118
-672,-202,-28.9073,7.97266,0.0151456,-0.158558,0.0257681,0.0188875,-0.1623,0.144209,0.115014,0.0495936,552,1226,-28.9073,-7.97271
-665,-202,-28.8225,8.90601,0.0131797,-0.117161,0.0189025,0.0158656,-0.119847,0.14115,0.0856778,0.0476084,559,1226,-28.8225,-8.90595
-658,-202,-28.7698,9.82532,0,0,0,0,0,0,0,-1,566,1226,-28.7698,-9.82526
-651,-202,-26.2643,1.10376,0,0,0,0,0,0,0,-1,573,1226,-26.2644,-1.1037
-644,-202,-26.4083,1.53906,0.0084542,-0.03529,0.00634485,0.0093559,-0.0361917,0.14117,0.0277767,0.0481487,580,1226,-26.4083,-1.53912
-637,-202,-26.6147,2.04077,0.00690971,-0.0205949,0.00432365,0.00757336,-0.0212585,0.152305,0.0172598,0.0391339,587,1226,-26.6147,-2.04075
-630,-202,-26.7252,2.51892,0.00541203,-0.0109904,0.00278284,0.00587131,-0.0114497,0.163565,0.0101717,0.0160886,594,1226,-26.7252,-2.51887
-623,-202,-26.7583,2.9978,0.00409979,-0.00499882,0.00169709,0.00440603,-0.00530505,0.178528,0.0056147,0.0088015,601,1226,-26.7583,-2.99785
-616,-202,-26.774,3.48987,0.00282968,-0.000362757,0.000600136,0.00293877,-0.000471847,0.179812,0.00213392,0.00941243,608,1226,-26.774,-3.48981
-609,-202,-26.7878,4.00208,0.00178815,0.00116031,-5.40081e-05,0.00179276,0.0011557,-0.0851886,0.00104939,0.0228501,615,1226,-26.7878,-4.00202
-602,-202,-26.8096,4.46301,0.00104503,0.000786066,-0.000328935,0.00126905,0.000562046,-0.597891,0.000734279,0.0207618,622,1226,-26.8095,-4.46303
-595,-202,-26.8546,4.95825,0.000503167,0.00056923,-0.000494542,0.00103184,4.05544e-05,-0.818745,0.000674783,0.0159151,629,1226,-26.8546,-4.95829
-588,-202,-26.7963,5.43701,0.000893065,0.000311663,-0.000305789,0.00102428,0.000180447,-0.405344,0.00063136,0.0154451,636,1226,-26.7963,-5.43703
-581,-202,-26.6828,5.8844,0,0,0,0,0,0,0,-1,643,1226,-26.6828,-5.8844
-574,-202,-26.922,5.99512,0,0,0,0,0,0,0,-1,650,1226,-26.922,-5.99512
-567,-202,-22.1768,4.56995,0,0,0,0,0,0,0,-1,657,1226,-22.1768,-4.56991
-560,-202,-10.929,2.73096,0,0,0,0,0,0,0,-1,664,1226,-10.929,-2.73092
-553,-202,-30.2701,1.474,0,0,0,0,0,0,0,-1,671,1226,-30.2701,-1.47395
-546,-202,-36.6564,1.22339,0,0,0,0,0,0,0,-1,678,1226,-36.6564,-1.22336
-539,-202,-36.6097,1.12793,0.00177159,-0.000775411,-0.00260942,0.00340169,-0.00240551,-0.558382,0.00336919,0.0450801,685,1226,-36.6098,-1.12799
-532,-202,-36.6239,0.962524,0.00150562,-0.00108295,-0.00266642,0.00317528,-0.00275261,-0.559448,0.00342537,0.0287525,692,1226,-36.6239,-0.962496
-525,-202,-36.5505,0.779297,0.000770054,-0.00127296,-0.00274248,0.00267509,-0.003178,-0.60712,0.00338344,0.0345046,699,1226,-36.5505,-0.779278
-518,-202,-36.4999,0.668335,-0.000561703,0.000123333,-0.00168589,0.00150115,-0.00193952,-0.885618,0.00199183,0.0418649,706,1226,-36.4999,-0.668341
-511,-202,-36.4551,0.693359,-0.00213605,0.00319388,0.000502406,0.00324083,-0.00218299,1.47763,0.00315123,0.044302,713,1226,-36.4551,-0.69332
-504,-202,0,0,0,0,0,0,0,0,0,-1,720,1226,0,0
-497,-202,0,0,0,0,0,0,0,0,0,-1,727,1226,0,0
-490,-202,0,0,0,0,0,0,0,0,0,-1,734,1226,0,0
-483,-202,0,0,0,0,0,0,0,0,0,-1,741,1226,0,0
-476,-202,0,0,0,0,0,0,0,0,0,-1,748,1226,0,0
-469,-202,0,0,0,0,0,0,0,0,0,-1,755,1226,0,0
-462,-202,0,0,0,0,0,0,0,0,0,-1,762,1226,0,0
-455,-202,0,0,0,0,0,0,0,0,0,-1,769,1226,0,0
-448,-202,0,0,0,0,0,0,0,0,0,-1,776,1226,0,0
-441,-202,0,0,0,0,0,0,0,0,0,-1,783,1226,0,0
-434,-202,0,0,0,0,0,0,0,0,0,-1,790,1226,0,0
-427,-202,0,0,0,0,0,0,0,0,0,-1,797,1226,0,0
-420,-202,0,0,0,0,0,0,0,0,0,-1,804,1226,0,0
-413,-202,0,0,0,0,0,0,0,0,0,-1,811,1226,0,0
-406,-202,0,0,0,0,0,0,0,0,0,-1,818,1226,0,0
-399,-202,0,0,0,0,0,0,0,0,0,-1,825,1226,0,0
-392,-202,0,0,0,0,0,0,0,0,0,-1,832,1226,0,0
-385,-202,0,0,0,0,0,0,0,0,0,-1,839,1226,0,0
-378,-202,0,0,0,0,0,0,0,0,0,-1,846,1226,0,0
-371,-202,0,0,0,0,0,0,0,0,0,-1,853,1226,0,0
-364,-202,0,0,0,0,0,0,0,0,0,-1,860,1226,0,0
-357,-202,0,0,0,0,0,0,0,0,0,-1,867,1226,0,0
-350,-202,0,0,0,0,0,0,0,0,0,-1,874,1226,0,0
-343,-202,0,0,0,0,0,0,0,0,0,-1,881,1226,0,0
-336,-202,0,0,0,0,0,0,0,0,0,-1,888,1226,0,0
-329,-202,0,0,0,0,0,0,0,0,0,-1,895,1226,0,0
-322,-202,0,0,0,0,0,0,0,0,0,-1,902,1226,0,0
-315,-202,0,0,0,0,0,0,0,0,0,-1,909,1226,0,0
-308,-202,0,0,0,0,0,0,0,0,0,-1,916,1226,0,0
-301,-202,0,0,0,0,0,0,0,0,0,-1,923,1226,0,0
-294,-202,0,0,0,0,0,0,0,0,0,-1,930,1226,0,0
-287,-202,0,0,0,0,0,0,0,0,0,-1,937,1226,0,0
-280,-202,0,0,0,0,0,0,0,0,0,-1,944,1226,0,0
-273,-202,0,0,0,0,0,0,0,0,0,-1,951,1226,0,0
-266,-202,0,0,0,0,0,0,0,0,0,-1,958,1226,0,0
-259,-202,0,0,0,0,0,0,0,0,0,-1,965,1226,0,0
-252,-202,0,0,0,0,0,0,0,0,0,-1,972,1226,0,0
-245,-202,0,0,0,0,0,0,0,0,0,-1,979,1226,0,0
-238,-202,0,0,0,0,0,0,0,0,0,-1,986,1226,0,0
-231,-202,0,0,0,0,0,0,0,0,0,-1,993,1226,0,0
-224,-202,0,0,0,0,0,0,0,0,0,-1,1000,1226,0,0
-217,-202,0,0,0,0,0,0,0,0,0,-1,1007,1226,0,0
-210,-202,0,0,0,0,0,0,0,0,0,-1,1014,1226,0,0
-203,-202,0,0,0,0,0,0,0,0,0,-1,1021,1226,0,0
-196,-202,0,0,0,0,0,0,0,0,0,-1,1028,1226,0,0
-189,-202,0,0,0,0,0,0,0,0,0,-1,1035,1226,0,0
-182,-202,0,0,0,0,0,0,0,0,0,-1,1042,1226,0,0
-175,-202,0,0,0,0,0,0,0,0,0,-1,1049,1226,0,0
-168,-202,0,0,0,0,0,0,0,0,0,-1,1056,1226,0,0
-161,-202,0,0,0,0,0,0,0,0,0,-1,1063,1226,0,0
-154,-202,0,0,0,0,0,0,0,0,0,-1,1070,1226,0,0
-147,-202,0,0,0,0,0,0,0,0,0,-1,1077,1226,0,0
-140,-202,0,0,0,0,0,0,0,0,0,-1,1084,1226,0,0
-133,-202,0,0,0,0,0,0,0,0,0,-1,1091,1226,0,0
-126,-202,0,0,0,0,0,0,0,0,0,-1,1098,1226,0,0
-119,-202,0,0,0,0,0,0,0,0,0,-1,1105,1226,0,0
-112,-202,0,0,0,0,0,0,0,0,0,-1,1112,1226,0,0
-105,-202,0,0,0,0,0,0,0,0,0,-1,1119,1226,0,0
-98,-202,0,0,0,0,0,0,0,0,0,-1,1126,1226,0,0
-91,-202,0,0,0,0,0,0,0,0,0,-1,1133,1226,0,0
-84,-202,0,0,0,0,0,0,0,0,0,-1,1140,1226,0,0
-77,-202,0,0,0,0,0,0,0,0,0,-1,1147,1226,0,0
-70,-202,0,0,0,0,0,0,0,0,0,-1,1154,1226,0,0
-63,-202,0,0,0,0,0,0,0,0,0,-1,1161,1226,0,0
-56,-202,0,0,0,0,0,0,0,0,0,-1,1168,1226,0,0
-49,-202,0,0,0,0,0,0,0,0,0,-1,1175,1226,0,0
-42,-202,0,0,0,0,0,0,0,0,0,-1,1182,1226,0,0
-35,-202,0,0,0,0,0,0,0,0,0,-1,1189,1226,0,0
-28,-202,0,0,0,0,0,0,0,0,0,-1,1196,1226,0,0
-21,-202,0,0,0,0,0,0,0,0,0,-1,1203,1226,0,0
-14,-202,0,0,0,0,0,0,0,0,0,-1,1210,1226,0,0
-7,-202,0,0,0,0,0,0,0,0,0,-1,1217,1226,0,0
0,-202,0,0,0,0,0,0,0,0,0,-1,1224,1226,0,0
7,-202,0,0,0,0,0,0,0,0,0,-1,1231,1226,0,0
14,-202,0,0,0,0,0,0,0,0,0,-1,1238,1226,0,0
21,-202,0,0,0,0,0,0,0,0,0,-1,1245,1226,0,0
28,-202,0,0,0,0,0,0,0,0,0,-1,1252,1226,0,0
35,-202,0,0,0,0,0,0,0,0,0,-1,1259,1226,0,0
42,-202,0,0,0,0,0,0,0,0,0,-1,1266,1226,0,0
49,-202,0,0,0,0,0,0,0,0,0,-1,1273,1226,0,0
56,-202,0,0,0,0,0,0,0,0,0,-1,1280,1226,0,0
63,-202,0,0,0,0,0,0,0,0,0,-1,1287,1226,0,0
70,-202,0,0,0,0,0,0,0,0,0,-1,1294,1226,0,0
77,-202,0,0,0,0,0,0,0,0,0,-1,1301,1226,0,0
84,-202,0,0,0,0,0,0,0,0,0,-1,1308,1226,0,0
91,-202,0,0,0,0,0,0,0,0,0,-1,1315,1226,0,0
98,-202,0,0,0,0,0,0,0,0,0,-1,1322,1226,0,0
105,-202,0,0,0,0,0,0,0,0,0,-1,1329,1226,0,0
112,-202,0,0,0,0,0,0,0,0,0,-1,1336,1226,0,0
119,-202,0,0,0,0,0,0,0,0,0,-1,1343,1226,0,0
126,-202,0,0,0,0,0,0,0,0,0,-1,1350,1226,0,0
133,-202,0,0,0,0,0,0,0,0,0,-1,1357,1226,0,0
140,-202,0,0,0,0,0,0,0,0,0,-1,1364,1226,0,0
147,-202,0,0,0,0,0,0,0,0,0,-1,1371,1226,0,0
154,-202,0,0,0,0,0,0,0,0,0,-1,1378,1226,0,0
161,-202,0,0,0,0,0,0,0,0,0,-1,1385,1226,0,0
168,-202,0,0,0,0,0,0,0,0,0,-1,1392,1226,0,0
175,-202,0,0,0,0,0,0,0,0,0,-1,1399,1226,0,0
182,-202,0,0,0,0,0,0,0,0,0,-1,1406,1226,0,0
189,-202,0,0,0,0,0,0,0,0,0,-1,1413,1226,0,0
196,-202,0,0,0,0,0,0,0,0,0,-1,1420,1226,0,0
203,-202,0,0,0,0,0,0,0,0,0,-1,1427,1226,0,0
210,-202,0,0,0,0,0,0,0,0,0,-1,1434,1226,0,0
217,-202,0,0,0,0,0,0,0,0,0,-1,1441,1226,0,0
224,-202,0,0,0,0,0,0,0,0,0,-1,1448,1226,0,0
231,-202,0,0,0,0,0,0,0,0,0,-1,1455,1226,0,0
238,-202,0,0,0,0,0,0,0,0,0,-1,1462,1226,0,0
245,-202,0,0,0,0,0,0,0,0,0,-1,1469,1226,0,0
252,-202,0,0,0,0,0,0,0,0,0,-1,1476,1226,0,0
259,-202,0,0,0,0,0,0,0,0,0,-1,1483,1226,0,0
266,-202,0,0,0,0,0,0,0,0,0,-1,1490,1226,0,0
273,-202,0,0,0,0,0,0,0,0,0,-1,1497,1226,0,0
280,-202,0,0,0,0,0,0,0,0,0,-1,1504,1226,0,0
287,-202,0,0,0,0,0,0,0,0,0,-1,1511,1226,0,0
294,-202,0,0,0,0,0,0,0,0,0,-1,1518,1226,0,0
301,-202,0,0,0,0,0,0,0,0,0,-1,1525,1226,0,0
308,-202,0,0,0,0,0,0,0,0,0,-1,1532,1226,0,0
315,-202,0,0,0,0,0,0,0,0,0,-1,1539,1226,0,0
322,-202,0,0,0,0,0,0,0,0,0,-1,1546,1226,0,0
329,-202,0,0,0,0,0,0,0,0,0,-1,1553,1226,0,0
336,-202,0,0,0,0,0,0,0,0,0,-1,1560,1226,0,0
343,-202,0,0,0,0,0,0,0,0,0,-1,1567,1226,0,0
350,-202,0,0,0,0,0,0,0,0,0,-1,1574,1226,0,0
357,-202,0,0,0,0,0,0,0,0,0,-1,1581,1226,0,0
364,-202,0,0,0,0,0,0,0,0,0,-1,1588,1226,0,0
371,-202,0,0,0,0,0,0,0,0,0,-1,1595,1226,0,0
378,-202,0,0,0,0,0,0,0,0,0,-1,1602,1226,0,0
385,-202,0,0,0,0,0,0,0,0,0,-1,1609,1226,0,0
392,-202,0,0,0,0,0,0,0,0,0,-1,1616,1226,0,0
399,-202,0,0,0,0,0,0,0,0,0,-1,1623,1226,0,0
406,-202,0,0,0,0,0,0,0,0,0,-1,1630,1226,0,0
413,-202,0,0,0,0,0,0,0,0,0,-1,1637,1226,0,0
420,-202,0,0,0,0,0,0,0,0,0,-1,1644,1226,0,0
427,-202,0,0,0,0,0,0,0,0,0,-1,1651,1226,0,0
434,-202,0,0,0,0,0,0,0,0,0,-1,1658,1226,0,0
441,-202,0,0,0,0,0,0,0,0,0,-1,1665,1226,0,0
448,-202,0,0,0,0,0,0,0,0,0,-1,1672,1226,0,0
455,-202,0,0,0,0,0,0,0,0,0,-1,1679,1226,0,0
462,-202,0,0,0,0,0,0,0,0,0,-1,1686,1226,0,0
469,-202,0,0,0,0,0,0,0,0,0,-1,1693,1226,0,0
476,-202,0,0,0,0,0,0,0,0,0,-1,1700,1226,0,0
483,-202,0,0,0,0,0,0,0,0,0,-1,1707,1226,0,0
490,-202,0,0,0,0,0,0,0,0,0,-1,1714,1226,0,0
497,-202,0,0,0,0,0,0,0,0,0,-1,1721,1226,0,0
504,-202,0,0,0,0,0,0,0,0,0,-1,1728,1226,0,0
511,-202,0,0,0,0,0,0,0,0,0,-1,1735,1226,0,0
518,-202,0,0,0,0,0,0,0,0,0,-1,1742,1226,0,0
525,-202,0,0,0,0,0,0,0,0,0,-1,1749,1226,0,0
532,-202,0,0,0,0,0,0,0,0,0,-1,1756,1226,0,0
539,-202,0,0,0,0,0,0,0,0,0,-1,1763,1226,0,0
546,-202,0,0,0,0,0,0,0,0,0,-1,1770,1226,0,0
553,-202,0,0,0,0,0,0,0,0,0,-1,1777,1226,0,0
560,-202,0,0,0,0,0,0,0,0,0,-1,1784,1226,0,0
567,-202,0,0,0,0,0,0,0,0,0,-1,1791,1226,0,0
574,-202,0,0,0,0,0,0,0,0,0,-1,1798,1226,0,0
581,-202,0,0,0,0,0,0,0,0,0,-1,1805,1226,0,0
588,-202,0,0,0,0,0,0,0,0,0,-1,1812,1226,0,0
595,-202,0,0,0,0,0,0,0,0,0,-1,1819,1226,0,0
602,-202,0,0,0,0,0,0,0,0,0,-1,1826,1226,0,0
609,-202,0,0,0,0,0,0,0,0,0,-1,1833,1226,0,0
616,-202,0,0,0,0,0,0,0,0,0,-1,1840,1226,0,0
623,-202,0,0,0,0,0,0,0,0,0,-1,1847,1226,0,0
630,-202,49.439,2.82642,0.0026754,-0.00163423,0.000396692,0.00271161,-0.00167044,0.0910286,0.00255367,0.0350952,1854,1226,49.439,-2.82647
637,-202,49.5227,2.90979,0.00159552,0.000404159,-0.000625845,0.00186385,0.000135826,-0.405044,0.00119986,0.0349573,1861,1226,49.5227,-2.90984
644,-202,49.5597,2.81006,0.000871343,0.00221435,-0.00168735,0.00335891,-0.000273214,-0.974773,0.00233568,0.0316251,1868,1226,49.5597,-2.81001
651,-202,49.4987,2.63196,0.000449959,0.00319235,-0.00230837,0.00450607,-0.000863758,-1.0534,0.00332952,0.0244248,1875,1226,49.4987,-2.63192
658,-202,49.4423,2.66467,0.000318048,0.0031542,-0.00255755,0.0046605,-0.00118826,-1.03853,0.00356963,0.0210915,1882,1226,49.4423,-2.66461
665,-202,49.4818,2.6731,0.000342268,0.00252938,-0.00244055,0.00411018,-0.00123853,-0.996025,0.00323303,0.0213505,1889,1226,49.4818,-2.67315
672,-202,49.6626,2.76672,0.000281714,0.00193362,-0.00205911,0.00332625,-0.00111092,-0.976135,0.00266611,0.0437777,1896,1226,49.6626,-2.76668
679,-202,49.8896,2.84448,0,0,0,0,0,0,0,-1,1903,1226,49.8897,-2.84452
686,-202,47.8248,1.91772,0,0,0,0,0,0,0,-1,1910,1226,47.8248,-1.91773
693,-202,40.0181,9.98242,0,0,0,0,0,0,0,-1,1917,1226,40.018,-9.9824
700,-202,40.1039,9.26465,-1.65299e-05,0.000298292,-0.000930326,0.00108443,-0.000802668,-0.869204,0.00109356,0.0463258,1924,1226,40.1039,-9.26469
707,-202,40.1736,8.51099,9.79367e-05,-0.000243151,-0.000692611,0.000640692,-0.000785907,-0.664683,0.000825068,0.0337793,1931,1226,40.1735,-8.51099
714,-202,40.1437,8.08435,-0.00012573,-0.000666698,-0.000246541,-3.02304e-05,-0.000762198,-0.369561,0.000498361,0.0253985,1938,1226,40.1436,-8.08437
721,-202,40.1683,7.79138,-0.000648155,-0.000891145,0.000315783,-0.000431302,-0.001108,0.601756,0.000644912,0.0142247,1945,1226,40.1683,-7.79137
728,-202,40.1511,7.35925,-0.000431961,-0.000687811,0.000849488,0.00029918,-0.00141895,0.710665,0.00105986,0.0116615,1952,1226,40.1511,-7.35924
735,-202,40.1304,6.90991,-0.000136424,-0.00086418,0.000617652,0.000216567,-0.00121717,0.519203,0.000892439,0.0114712,1959,1226,40.1304,-6.90988
742,-202,40.103,6.47363,-0.000524819,-0.000853488,-0.000136651,-0.000475426,-0.000902881,-0.346839,0.000521524,0.0119059,1966,1226,40.103,-6.47362
749,-202,40.0795,6.0415,-0.000987157,-0.000612813,-0.00132167,0.000534875,-0.00213484,-0.855739,0.00163102,0.0120024,1973,1226,40.0795,-6.04152
756,-202,40.0911,5.62097,-0.00228699,2.49224e-05,-0.00346764,0.00252421,-0.00478628,-0.946283,0.00428753,0.0118625,1980,1226,40.0911,-5.621
763,-202,40.1344,5.24219,-0.00430034,0.000201727,-0.00693318,0.00524015,-0.00933876,-0.942367,0.00852729,0.0202002,1987,1226,40.1343,-5.24219
770,-202,40.0881,4.93164,-0.00751515,0.000413785,-0.0117905,0.00888847,-0.0159898,-0.947582,0.0145572,0.0496705,1994,1226,40.0881,-4.93168
777,-202,40.0732,4.58777,0,0,0,0,0,0,0,-1,2001,1226,40.0732,-4.58775
784,-202,47.5757,-1.52417,0,0,0,0,0,0,0,-1,2008,1226,47.5757,1.52422
791,-202,47.2439,1.04968,0,0,0,0,0,0,0,-1,2015,1226,47.2438,-1.04967
798,-202,47.0044,3.40833,0,0,0,0,0,0,0,-1,2022,1226,47.0044,-3.40829
805,-202,0,0,0,0,0,0,0,0,0,-1,2029,1226,0,0
812,-202,0,0,0,0,0,0,0,0,0,-1,2036,1226,0,0
-700,-209,0,0,0,0,0,0,0,0,0,-1,524,1233,0,0
-693,-209,0,0,0,0,0,0,0,0,0,-1,531,1233,0,0
-686,-209,0,0,0,0,0,0,0,0,0,-1,538,1233,0,0
-679,-209,-28.7339,8.33398,0,0,0,0,0,0,0,-1,545,1233,-28.7339,-8.33398
-672,-209,-28.6991,9.35046,0.0194505,-0.16828,0.0327033,0.0249844,-0.173814,0.167628,0.125039,0.0486767,552,1233,-28.6991,-9.35047
-665,-209,-28.6222,10.3571,0.0174402,-0.12593,0.0249903,0.0216713,-0.130161,0.167719,0.0948271,0.0459191,559,1233,-28.6222,-10.357
-658,-209,-28.5737,11.3453,0,0,0,0,0,0,0,-1,566,1233,-28.5737,-11.3453
-651,-209,-25.5203,0.894531,0,0,0,0,0,0,0,-1,573,1233,-25.5203,-0.894549
-644,-209,-25.9125,1.41919,0,0,0,0,0,0,0,-1,580,1233,-25.9126,-1.4192
-637,-209,-26.1967,1.98254,0,0,0,0,0,0,0,-1,587,1233,-26.1967,-1.98257
-630,-209,-26.1887,2.48242,0.0076261,-0.0120008,0.00476028,0.00871971,-0.0130944,0.225819,0.0126785,0.0264983,594,1233,-26.1887,-2.48244
-623,-209,-26.241,2.99219,0.00587967,-0.00556001,0.0031825,0.00670543,-0.00638577,0.253871,0.00755896,0.0133282,601,1233,-26.241,-2.99216
-616,-209,-26.2701,3.52271,0.00422581,-0.000461384,0.00165537,0.00475148,-0.000987056,0.307484,0.00354281,0.0130819,608,1233,-26.2701,-3.52265
-609,-209,-26.2863,4.02002,0.00283632,0.00133792,0.000660605,0.00308597,0.00108827,0.36132,0.00180729,0.0151782,615,1233,-26.2863,-4.02003
-602,-209,-26.3054,4.47595,0.00178959,0.000786925,0.000144495,0.00181,0.000766517,0.140307,0.00104908,0.0163202,622,1233,-26.3054,-4.47599
-595,-209,-26.3093,4.94531,0.0010282,0.000368727,-0.000194081,0.00108108,0.000315849,-0.265996,0.000641883,0.011658,629,1233,-26.3093,-4.94536
-588,-209,-26.2747,5.46411,0.0013571,-6.63537e-05,-0.000136685,0.00137011,-7.93599e-05,-0.0948684,0.000940973,0.0179008,636,1233,-26.2747,-5.46409
-581,-209,-26.0193,6.08179,0.00204393,5.12826e-05,-0.000788681,0.0023183,-0.000223094,-0.334797,0.00162501,0.0493756,643,1233,-26.0193,-6.08181
-574,-209,-26.2147,6.6123,0,0,0,0,0,0,0,-1,650,1233,-26.2147,-6.61234
-567,-209,-26.2951,6.92981,0,0,0,0,0,0,0,-1,657,1233,-26.2951,-6.92986
-560,-209,-13.9294,4.16626,0,0,0,0,0,0,0,-1,664,1233,-13.9294,-4.16621
-553,-209,-22.7542,0.748779,0,0,0,0,0,0,0,-1,671,1233,-22.7541,-0.748796
-546,-209,-37.4211,1.51404,0,0,0,0,0,0,0,-1,678,1233,-37.4211,-1.51405
-539,-209,-36.9455,1.25391,0.0021467,-0.00184379,-0.00208841,0.00303978,-0.00273688,-0.404104,0.00333668,0.0408502,685,1233,-36.9455,-1.25391
-532,-209,-36.5262,1.04089,0.00181078,-0.00232407,-0.00205369,0.00265744,-0.00317073,-0.391033,0.00336924,0.0343185,692,1233,-36.5262,-1.04092
-525,-209,-36.5615,0.907471,0.00112036,-0.00282955,-0.00204039,0.00198506,-0.00369425,-0.400847,0.00332808,0.035358,699,1233,-36.5616,-0.907528
-518,-209,-36.5208,0.723999,-9.80764e-05,-0.00214097,-0.00111321,0.000391298,-0.00263035,-0.414178,0.00189749,0.0434832,706,1233,-36.5208,-0.724048
-511,-209,-36.5465,0.703125,-0.00159303,0.000476012,0.000845752,0.000777728,-0.00189475,1.22813,0.00158724,0.0451163,713,1233,-36.5465,-0.703124
-504,-209,0,0,0,0,0,0,0,0,0,-1,720,1233,0,0
-497,-209,0,0,0,0,0,0,0,0,0,-1,727,1233,0,0
-490,-209,0,0,0,0,0,0,0,0,0,-1,734,1233,0,0
-483,-209,0,0,0,0,0,0,0,0,0,-1,741,1233,0,0
-476,-209,0,0,0,0,0,0,0,0,0,-1,748,1233,0,0
-469,-209,0,0,0,0,0,0,0,0,0,-1,755,1233,0,0
-462,-209,0,0,0,0,0,0,0,0,0,-1,762,1233,0,0
-455,-209,0,0,0,0,0,0,0,0,0,-1,769,1233,0,0
-448,-209,0,0,0,0,0,0,0,0,0,-1,776,1233,0,0
-441,-209,0,0,0,0,0,0,0,0,0,-1,783,1233,0,0
-434,-209,0,0,0,0,0,0,0,0,0,-1,790,1233,0,0
-427,-209,0,0,0,0,0,0,0,0,0,-1,797,1233,0,0
-420,-209,0,0,0,0,0,0,0,0,0,-1,804,1233,0,0
-413,-209,0,0,0,0,0,0,0,0,0,-1,811,1233,0,0
-406,-209,0,0,0,0,0,0,0,0,0,-1,818,1233,0,0
-399,-209,0,0,0,0,0,0,0,0,0,-1,825,1233,0,0
-392,-209,0,0,0,0,0,0,0,0,0,-1,832,1233,0,0
-385,-209,0,0,0,0,0,0,0,0,0,-1,839,1233,0,0
-378,-209,0,0,0,0,0,0,0,0,0,-1,846,1233,0,0
-371,-209,0,0,0,0,0,0,0,0,0,-1,853,1233,0,0
-364,-209,0,0,0,0,0,0,0,0,0,-1,860,1233,0,0
-357,-209,0,0,0,0,0,0,0,0,0,-1,867,1233,0,0
-350,-209,0,0,0,0,0,0,0,0,0,-1,874,1233,0,0
-343,-209,0,0,0,0,0,0,0,0,0,-1,881,1233,0,0
-336,-209,0,0,0,0,0,0,0,0,0,-1,888,1233,0,0
-329,-209,0,0,0,0,0,0,0,0,0,-1,895,1233,0,0
-322,-209,0,0,0,0,0,0,0,0,0,-1,902,1233,0,0
-315,-209,0,0,0,0,0,0,0,0,0,-1,909,1233,0,0
-308,-209,0,0,0,0,0,0,0,0,0,-1,916,1233,0,0
-301,-209,0,0,0,0,0,0,0,0,0,-1,923,1233,0,0
-294,-209,0,0,0,0,0,0,0,0,0,-1,930,1233,0,0
-287,-209,0,0,0,0,0,0,0,0,0,-1,937,1233,0,0
-280,-209,0,0,0,0,0,0,0,0,0,-1,944,1233,0,0
-273,-209,0,0,0,0,0,0,0,0,0,-1,951,1233,0,0
-266,-209,0,0,0,0,0,0,0,0,0,-1,958,1233,0,0
-259,-209,0,0,0,0,0,0,0,0,0,-1,965,1233,0,0
-252,-209,0,0,0,0,0,0,0,0,0,-1,972,1233,0,0
-245,-209,0,0,0,0,0,0,0,0,0,-1,979,1233,0,0
-238,-209,0,0,0,0,0,0,0,0,0,-1,986,1233,0,0
-231,-209,0,0,0,0,0,0,0,0,0,-1,993,1233,0,0
-224,-209,0,0,0,0,0,0,0,0,0,-1,1000,1233,0,0
-217,-209,0,0,0,0,0,0,0,0,0,-1,1007,1233,0,0
-210,-209,0,0,0,0,0,0,0,0,0,-1,1014,1233,0,0
-203,-209,0,0,0,0,0,0,0,0,0,-1,1021,1233,0,0
-196,-209,0,0,0,0,0,0,0,0,0,-1,1028,1233,0,0
-189,-209,0,0,0,0,0,0,0,0,0,-1,1035,1233,0,0
-182,-209,0,0,0,0,0,0,0,0,0,-1,1042,1233,0,0
-175,-209,0,0,0,0,0,0,0,0,0,-1,1049,1233,0,0
-168,-209,0,0,0,0,0,0,0,0,0,-1,1056,1233,0,0
-161,-209,0,0,0,0,0,0,0,0,0,-1,1063,1233,0,0
-154,-209,0,0,0,0,0,0,0,0,0,-1,1070,1233,0,0
-147,-209,0,0,0,0,0,0,0,0,0,-1,1077,1233,0,0
-140,-209,0,0,0,0,0,0,0,0,0,-1,1084,1233,0,0
-133,-209,0,0,0,0,0,0,0,0,0,-1,1091,1233,0,0
-126,-209,0,0,0,0,0,0,0,0,0,-1,1098,1233,0,0
-119,-209,0,0,0,0,0,0,0,0,0,-1,1105,1233,0,0
-112,-209,0,0,0,0,0,0,0,0,0,-1,1112,1233,0,0
-105,-209,0,0,0,0,0,0,0,0,0,-1,1119,1233,0,0
-98,-209,0,0,0,0,0,0,0,0,0,-1,1126,1233,0,0
-91,-209,0,0,0,0,0,0,0,0,0,-1,1133,1233,0,0
-84,-209,0,0,0,0,0,0,0,0,0,-1,1140,1233,0,0
-77,-209,0,0,0,0,0,0,0,0,0,-1,1147,1233,0,0
-70,-209,0,0,0,0,0,0,0,0,0,-1,1154,1233,0,0
-63,-209,0,0,0,0,0,0,0,0,0,-1,1161,1233,0,0
-56,-209,0,0,0,0,0,0,0,0,0,-1,1168,1233,0,0
-49,-209,0,0,0,0,0,0,0,0,0,-1,1175,1233,0,0
-42,-209,0,0,0,0,0,0,0,0,0,-1,1182,1233,0,0
-35,-209,0,0,0,0,0,0,0,0,0,-1,1189,1233,0,0
-28,-209,0,0,0,0,0,0,0,0,0,-1,1196,1233,0,0
-21,-209,0,0,0,0,0,0,0,0,0,-1,1203,1233,0,0
-14,-209,0,0,0,0,0,0,0,0,0,-1,1210,1233,0,0
-7,-209,0,0,0,0,0,0,0,0,0,-1,1217,1233,0,0
0,-209,0,0,0,0,0,0,0,0,0,-1,1224,1233,0,0
7,-209,0,0,0,0,0,0,0,0,0,-1,1231,1233,0,0
14,-209,0,0,0,0,0,0,0,0,0,-1,1238,1233,0,0
21,-209,0,0,0,0,0,0,0,0,0,-1,1245,1233,0,0
28,-209,0,0,0,0,0,0,0,0,0,-1,1252,1233,0,0
35,-209,0,0,0,0,0,0,0,0,0,-1,1259,1233,0,0
42,-209,0,0,0,0,0,0,0,0,0,-1,1266,1233,0,0
49,-209,0,0,0,0,0,0,0,0,0,-1,1273,1233,0,0
56,-209,0,0,0,0,0,0,0,0,0,-1,1280,1233,0,0
63,-209,0,0,0,0,0,0,0,0,0,-1,1287,1233,0,0
70,-209,0,0,0,0,0,0,0,0,0,-1,1294,1233,0,0
77,-209,0,0,0,0,0,0,0,0,0,-1,1301,1233,0,0
84,-209,0,0,0,0,0,0,0,0,0,-1,1308,1233,0,0
91,-209,0,0,0,0,0,0,0,0,0,-1,1315,1233,0,0
98,-209,0,0,0,0,0,0,0,0,0,-1,1322,1233,0,0
105,-209,0,0,0,0,0,0,0,0,0,-1,1329,1233,0,0
112,-209,0,0,0,0,0,0,0,0,0,-1,1336,1233,0,0
119,-209,0,0,0,0,0,0,0,0,0,-1,1343,1233,0,0
126,-209,0,0,0,0,0,0,0,0,0,-1,1350,1233,0,0
133,-209,0,0,0,0,0,0,0,0,0,-1,1357,1233,0,0
140,-209,0,0,0,0,0,0,0,0,0,-1,1364,1233,0,0
147,-209,0,0,0,0,0,0,0,0,0,-1,1371,1233,0,0
154,-209,0,0,0,0,0,0,0,0,0,-1,1378,1233,0,0
161,-209,0,0,0,0,0,0,0,0,0,-1,1385,1233,0,0
168,-209,0,0,0,0,0,0,0,0,0,-1,1392,1233,0,0
175,-209,0,0,0,0,0,0,0,0,0,-1,1399,1233,0,0
182,-209,0,0,0,0,0,0,0,0,0,-1,1406,1233,0,0
189,-209,0,0,0,0,0,0,0,0,0,-1,1413,1233,0,0
196,-209,0,0,0,0,0,0,0,0,0,-1,1420,1233,0,0
203,-209,0,0,0,0,0,0,0,0,0,-1,1427,1233,0,0
210,-209,0,0,0,0,0,0,0,0,0,-1,1434,1233,0,0
217,-209,0,0,0,0,0,0,0,0,0,-1,1441,1233,0,0
224,-209,0,0,0,0,0,0,0,0,0,-1,1448,1233,0,0
231,-209,0,0,0,0,0,0,0,0,0,-1,1455,1233,0,0
238,-209,0,0,0,0,0,0,0,0,0,-1,1462,1233,0,0
245,-209,0,0,0,0,0,0,0,0,0,-1,1469,1233,0,0
252,-209,0,0,0,0,0,0,0,0,0,-1,1476,1233,0,0
259,-209,0,0,0,0,0,0,0,0,0,-1,1483,1233,0,0
266,-209,0,0,0,0,0,0,0,0,0,-1,1490,1233,0,0
273,-209,0,0,0,0,0,0,0,0,0,-1,1497,1233,0,0
280,-209,0,0,0,0,0,0,0,0,0,-1,1504,1233,0,0
287,-209,0,0,0,0,0,0,0,0,0,-1,1511,1233,0,0
294,-209,0,0,0,0,0,0,0,0,0,-1,1518,1233,0,0
301,-209,0,0,0,0,0,0,0,0,0,-1,1525,1233,0,0
308,-209,0,0,0,0,0,0,0,0,0,-1,1532,1233,0,0
315,-209,0,0,0,0,0,0,0,0,0,-1,1539,1233,0,0
322,-209,0,0,0,0,0,0,0,0,0,-1,1546,1233,0,0
329,-209,0,0,0,0,0,0,0,0,0,-1,1553,1233,0,0
336,-209,0,0,0,0,0,0,0,0,0,-1,1560,1233,0,0
343,-209,0,0,0,0,0,0,0,0,0,-1,1567,1233,0,0
350,-209,0,0,0,0,0,0,0,0,0,-1,1574,1233,0,0
357,-209,0,0,0,0,0,0,0,0,0,-1,1581,1233,0,0
364,-209,0,0,0,0,0,0,0,0,0,-1,1588,1233,0,0
371,-209,0,0,0,0,0,0,0,0,0,-1,1595,1233,0,0
378,-209,0,0,0,0,0,0,0,0,0,-1,1602,1233,0,0
385,-209,0,0,0,0,0,0,0,0,0,-1,1609,1233,0,0
392,-209,0,0,0,0,0,0,0,0,0,-1,1616,1233,0,0
399,-209,0,0,0,0,0,0,0,0,0,-1,1623,1233,0,0
406,-209,0,0,0,0,0,0,0,0,0,-1,1630,1233,0,0
413,-209,0,0,0,0,0,0,0,0,0,-1,1637,1233,0,0
420,-209,0,0,0,0,0,0,0,0,0,-1,1644,1233,0,0
427,-209,0,0,0,0,0,0,0,0,0,-1,1651,1233,0,0
434,-209,0,0,0,0,0,0,0,0,0,-1,1658,1233,0,0
441,-209,0,0,0,0,0,0,0,0,0,-1,1665,1233,0,0
448,-209,0,0,0,0,0,0,0,0,0,-1,1672,1233,0,0
455,-209,0,0,0,0,0,0,0,0,0,-1,1679,1233,0,0
462,-209,0,0,0,0,0,0,0,0,0,-1,1686,1233,0,0
469,-209,0,0,0,0,0,0,0,0,0,-1,1693,1233,0,0
476,-209,0,0,0,0,0,0,0,0,0,-1,1700,1233,0,0
483,-209,0,0,0,0,0,0,0,0,0,-1,1707,1233,0,0
490,-209,0,0,0,0,0,0,0,0,0,-1,1714,1233,0,0
497,-209,0,0,0,0,0,0,0,0,0,-1,1721,1233,0,0
504,-209,0,0,0,0,0,0,0,0,0,-1,1728,1233,0,0
511,-209,0,0,0,0,0,0,0,0,0,-1,1735,1233,0,0
518,-209,0,0,0,0,0,0,0,0,0,-1,1742,1233,0,0
525,-209,0,0,0,0,0,0,0,0,0,-1,1749,1233,0,0
532,-209,0,0,0,0,0,0,0,0,0,-1,1756,1233,0,0
539,-209,0,0,0,0,0,0,0,0,0,-1,1763,1233,0,0
546,-209,0,0,0,0,0,0,0,0,0,-1,1770,1233,0,0
553,-209,0,0,0,0,0,0,0,0,0,-1,1777,1233,0,0
560,-209,0,0,0,0,0,0,0,0,0,-1,1784,1233,0,0
567,-209,0,0,0,0,0,0,0,0,0,-1,1791,1233,0,0
574,-209,0,0,0,0,0,0,0,0,0,-1,1798,1233,0,0
581,-209,0,0,0,0,0,0,0,0,0,-1,1805,1233,0,0
588,-209,0,0,0,0,0,0,0,0,0,-1,1812,1233,0,0
595,-209,0,0,0,0,0,0,0,0,0,-1,1819,1233,0,0
602,-209,0,0,0,0,0,0,0,0,0,-1,1826,1233,0,0
609,-209,0,0,0,0,0,0,0,0,0,-1,1833,1233,0,0
616,-209,0,0,0,0,0,0,0,0,0,-1,1840,1233,0,0
623,-209,49.36,2.67664,0.00371757,-0.00355978,0.000831712,0.00381141,-0.00365363,0.112358,0.00431026,0.0330102,1847,1233,49.36,-2.67662
630,-209,49.4279,2.65698,0.00224023,-0.000910493,-0.000186916,0.00225128,-0.000921543,-0.0590488,0.0018847,0.035495,1854,1233,49.4279,-2.65697
637,-209,49.4736,2.698,0.000832139,0.00159645,-0.0011732,0.00244817,-1.95811e-05,-0.942847,0.00163868,0.0363662,1861,1233,49.4736,-2.69802
644,-209,49.4382,2.67786,-0.000146092,0.00367943,-0.00206091,0.00457844,-0.00104509,-1.15946,0.00345377,0.0303757,1868,1233,49.4382,-2.67792
651,-209,49.4523,2.67029,-0.000536184,0.00448587,-0.00253398,0.00554224,-0.00159255,-1.17582,0.00432456,0.0230354,1875,1233,49.4523,-2.67034
658,-209,49.432,2.67041,-0.000524037,0.00414093,-0.00264925,0.00533818,-0.00172128,-1.14635,0.00425036,0.0201437,1882,1233,49.432,-2.67045
665,-209,49.5179,2.62268,-0.000343007,0.00329409,-0.00246112,0.00453564,-0.00158456,-1.10358,0.00366787,0.0352988,1889,1233,49.5179,-2.6227
672,-209,49.6837,2.58044,0,0,0,0,0,0,0,-1,1896,1233,49.6837,-2.5805
679,-209,49.3512,2.46008,0,0,0,0,0,0,0,-1,1903,1233,49.3512,-2.46006
686,-209,33.3711,3.89856,0,0,0,0,0,0,0,-1,1910,1233,33.3711,-3.89855
693,-209,39.4747,9.98779,0,0,0,0,0,0,0,-1,1917,1233,39.4748,-9.98774
700,-209,39.5868,9.29517,-0.00014409,0.000477764,-0.00093438,0.00115159,-0.000817917,-0.946017,0.00114252,0.0427408,1924,1233,39.5868,-9.29516
707,-209,39.6753,8.67358,-7.94011e-05,-0.000295379,-0.000592408,0.000414779,-0.00078956,-0.695244,0.000706459,0.0340448,1931,1233,39.6752,-8.67353
714,-209,39.6772,8.26294,-0.000311579,-0.0008163,-4.63083e-05,-0.000307365,-0.000820513,-0.0907408,0.000478664,0.0183529,1938,1233,39.6772,-8.26289
721,-209,39.7002,7.7926,-0.000775402,-0.00101838,0.000544344,-0.000339155,-0.00145463,0.675605,0.000878793,0.0130544,1945,1233,39.7002,-7.79266
728,-209,39.718,7.36279,-0.000521117,-0.000779397,0.00111368,0.000470885,-0.0017714,0.727677,0.00136524,0.0135609,1952,1233,39.718,-7.36284
735,-209,39.7078,6.93213,-0.000315232,-0.000919555,0.000974002,0.000402401,-0.00163719,0.634992,0.00124742,0.0152013,1959,1233,39.7078,-6.93215
742,-209,39.6788,6.48596,-0.000855846,-0.00118703,0.000210112,-0.000753915,-0.00128896,0.451676,0.000747747,0.0143698,1966,1233,39.6788,-6.48596
749,-209,39.6427,6.04749,-0.0015003,-0.00126904,-0.000860549,-0.000516383,-0.00225295,-0.852182,0.00136285,0.0124175,1973,1233,39.6427,-6.04747
756,-209,39.6221,5.63867,-0.00281726,-0.00130693,-0.0029443,0.000977504,-0.00510169,-0.910934,0.00376945,0.0113227,1980,1233,39.6221,-5.63863
763,-209,39.5963,5.30542,-0.00501414,-0.00204774,-0.00647471,0.00311148,-0.0101734,-0.897993,0.0080231,0.0210455,1987,1233,39.5963,-5.30538
770,-209,39.6635,4.92664,0,0,0,0,0,0,0,-1,1994,1233,39.6635,-4.92664
777,-209,49.8105,-3.45435,0,0,0,0,0,0,0,-1,2001,1233,49.8106,3.45429
784,-209,49.6125,-0.942261,0,0,0,0,0,0,0,-1,2008,1233,49.6125,0.942256
791,-209,49.196,1.27917,0,0,0,0,0,0,0,-1,2015,1233,49.1961,-1.27913
798,-209,48.874,3.65027,0,0,0,0,0,0,0,-1,2022,1233,48.8741,-3.65028
805,-209,0,0,0,0,0,0,0,0,0,-1,2029,1233,0,0
812,-209,0,0,0,0,0,0,0,0,0,-1,2036,1233,0,0
-700,-216,0,0,0,0,0,0,0,0,0,-1,524,1240,0,0
-693,-216,0,0,0,0,0,0,0,0,0,-1,531,1240,0,0
-686,-216,0,0,0,0,0,0,0,0,0,-1,538,1240,0,0
-679,-216,-32.5613,-6.88184,0,0,0,0,0,0,0,-1,545,1240,-32.5613,6.88186
-672,-216,-28.5995,10.7825,0,0,0,0,0,0,0,-1,552,1240,-28.5995,-10.7825
-665,-216,-28.4751,11.8085,0,0,0,0,0,0,0,-1,559,1240,-28.4751,-11.8084
-658,-216,-27.371,12.2352,0,0,0,0,0,0,0,-1,566,1240,-27.371,-12.2353
-651,-216,-32.883,-0.281494,0,0,0,0,0,0,0,-1,573,1240,-32.883,0.28151
-644,-216,-25.5501,1.44641,0,0,0,0,0,0,0,-1,580,1240,-25.5501,-1.44641
-637,-216,-25.8044,1.90259,0,0,0,0,0,0,0,-1,587,1240,-25.8044,-1.90264
-630,-216,-25.7148,2.46973,0.0129267,-0.0116854,0.00783799,0.0152108,-0.0139695,0.283563,0.0168523,0.0325709,594,1240,-25.7148,-2.46972
-623,-216,-25.7138,3.03516,0.00970513,-0.00526567,0.00543679,0.0114712,-0.00703175,0.314086,0.0107847,0.0148654,601,1240,-25.7138,-3.03519
-616,-216,-25.7714,3.53809,0.00690208,-0.000152275,0.00324038,0.00816458,-0.00141478,0.371522,0.00597078,0.0134985,608,1240,-25.7714,-3.53805
-609,-216,-25.7892,4.02869,0.00453813,0.0016391,0.00167753,0.00530564,0.000871595,0.429092,0.00328533,0.0134141,615,1240,-25.7892,-4.02866
-602,-216,-25.796,4.47168,0.00272179,0.000834733,0.000731744,0.00297228,0.000584237,0.329824,0.00181834,0.0131319,622,1240,-25.7959,-4.47167
-595,-216,-25.7842,4.94226,0.00145687,0.000145214,0.000108481,0.00146578,0.000136303,0.0819635,0.000935072,0.0183147,629,1240,-25.7843,-4.94227
-588,-216,-25.7973,5.46716,0.00166233,-0.000487298,1.10239e-05,0.00166239,-0.000487354,0.00512809,0.00130149,0.0216953,636,1240,-25.7973,-5.46717
-581,-216,-25.7729,6.03284,0.00231316,-0.000571718,-0.000597683,0.00243209,-0.000690642,-0.19641,0.00189405,0.0359932,643,1240,-25.7729,-6.03279
-574,-216,-25.6057,6.505,0,0,0,0,0,0,0,-1,650,1240,-25.6057,-6.50501
-567,-216,-26.098,7.44641,0,0,0,0,0,0,0,-1,657,1240,-26.098,-7.4464
-560,-216,-16.5087,5.4574,0,0,0,0,0,0,0,-1,664,1240,-16.5087,-5.45746
-553,-216,-16.2355,1.22351,0,0,0,0,0,0,0,-1,671,1240,-16.2356,-1.22356
-546,-216,-36.3295,1.28784,0,0,0,0,0,0,0,-1,678,1240,-36.3295,-1.28788
-539,-216,-37,1.28174,0,0,0,0,0,0,0,-1,685,1240,-37,-1.28171
-532,-216,-36.4654,1.17493,0.00159526,-0.0035879,-0.00123891,0.00187617,-0.00386881,-0.222968,0.00338272,0.0492598,692,1240,-36.4654,-1.17496
-525,-216,-36.5428,1.10828,0.000831423,-0.00415545,-0.00101253,0.00102916,-0.00435319,-0.192867,0.00329913,0.0470415,699,1240,-36.5429,-1.10822
-518,-216,-36.5876,0.967041,-0.000358901,-0.00397062,-0.000147133,-0.000352917,-0.0039766,-0.0406478,0.00254161,0.0426414,706,1240,-36.5876,-0.967089
-511,-216,-36.6988,0.993652,-0.00171306,-0.00228776,0.00144581,-0.000526318,-0.0034745,0.687303,0.00216235,0.0426822,713,1240,-36.6988,-0.993667
-504,-216,-36.6166,1.04114,-0.00238436,0.00203428,0.00483065,0.00513686,-0.00548694,0.999875,0.00613477,0.0444602,720,1240,-36.6166,-1.04109
-497,-216,0,0,0,0,0,0,0,0,0,-1,727,1240,0,0
-490,-216,0,0,0,0,0,0,0,0,0,-1,734,1240,0,0
-483,-216,0,0,0,0,0,0,0,0,0,-1,741,1240,0,0
-476,-216,0,0,0,0,0,0,0,0,0,-1,748,1240,0,0
-469,-216,0,0,0,0,0,0,0,0,0,-1,755,1240,0,0
-462,-216,0,0,0,0,0,0,0,0,0,-1,762,1240,0,0
-455,-216,0,0,0,0,0,0,0,0,0,-1,769,1240,0,0
-448,-216,0,0,0,0,0,0,0,0,0,-1,776,1240,0,0
-441,-216,0,0,0,0,0,0,0,0,0,-1,783,1240,0,0
-434,-216,0,0,0,0,0,0,0,0,0,-1,790,1240,0,0
-427,-216,0,0,0,0,0,0,0,0,0,-1,797,1240,0,0
-420,-216,0,0,0,0,0,0,0,0,0,-1,804,1240,0,0
-413,-216,0,0,0,0,0,0,0,0,0,-1,811,1240,0,0
-406,-216,0,0,0,0,0,0,0,0,0,-1,818,1240,0,0
-399,-216,0,0,0,0,0,0,0,0,0,-1,825,1240,0,0
-392,-216,0,0,0,0,0,0,0,0,0,-1,832,1240,0,0
-385,-216,0,0,0,0,0,0,0,0,0,-1,839,1240,0,0
-378,-216,0,0,0,0,0,0,0,0,0,-1,846,1240,0,0
-371,-216,0,0,0,0,0,0,0,0,0,-1,853,1240,0,0
-364,-216,0,0,0,0,0,0,0,0,0,-1,860,1240,0,0
-357,-216,0,0,0,0,0,0,0,0,0,-1,867,1240,0,0
-350,-216,0,0,0,0,0,0,0,0,0,-1,874,1240,0,0
-343,-216,0,0,0,0,0,0,0,0,0,-1,881,1240,0,0
-336,-216,0,0,0,0,0,0,0,0,0,-1,888,1240,0,0
-329,-216,0,0,0,0,0,0,0,0,0,-1,895,1240,0,0
-322,-216,0,0,0,0,0,0,0,0,0,-1,902,1240,0,0
-315,-216,0,0,0,0,0,0,0,0,0,-1,909,1240,0,0
-308,-216,0,0,0,0,0,0,0,0,0,-1,916,1240,0,0
-301,-216,0,0,0,0,0,0,0,0,0,-1,923,1240,0,0
-294,-216,0,0,0,0,0,0,0,0,0,-1,930,1240,0,0
-287,-216,0,0,0,0,0,0,0,0,0,-1,937,1240,0,0
-280,-216,0,0,0,0,0,0,0,0,0,-1,944,1240,0,0
-273,-216,0,0,0,0,0,0,0,0,0,-1,951,1240,0,0
-266,-216,0,0,0,0,0,0,0,0,0,-1,958,1240,0,0
-259,-216,0,0,0,0,0,0,0,0,0,-1,965,1240,0,0
-252,-216,0,0,0,0,0,0,0,0,0,-1,972,1240,0,0
-245,-216,0,0,0,0,0,0,0,0,0,-1,979,1240,0,0
-238,-216,0,0,0,0,0,0,0,0,0,-1,986,1240,0,0
-231,-216,0,0,0,0,0,0,0,0,0,-1,993,1240,0,0
-224,-216,0,0,0,0,0,0,0,0,0,-1,1000,1240,0,0
-217,-216,0,0,0,0,0,0,0,0,0,-1,1007,1240,0,0
-210,-216,0,0,0,0,0,0,0,0,0,-1,1014,1240,0,0
-203,-216,0,0,0,0,0,0,0,0,0,-1,1021,1240,0,0
-196,-216,0,0,0,0,0,0,0,0,0,-1,1028,1240,0,0
-189,-216,0,0,0,0,0,0,0,0,0,-1,1035,1240,0,0
-182,-216,0,0,0,0,0,0,0,0,0,-1,1042,1240,0,0
-175,-216,0,0,0,0,0,0,0,0,0,-1,1049,1240,0,0
-168,-216,0,0,0,0,0,0,0,0,0,-1,1056,1240,0,0
-161,-216,0,0,0,0,0,0,0,0,0,-1,1063,1240,0,0
-154,-216,0,0,0,0,0,0,0,0,0,-1,1070,1240,0,0
-147,-216,0,0,0,0,0,0,0,0,0,-1,1077,1240,0,0
-140,-216,0,0,0,0,0,0,0,0,0,-1,1084,1240,0,0
-133,-216,0,0,0,0,0,0,0,0,0,-1,1091,1240,0,0
-126,-216,0,0,0,0,0,0,0,0,0,-1,1098,1240,0,0
-119,-216,0,0,0,0,0,0,0,0,0,-1,1105,1240,0,0
-112,-216,0,0,0,0,0,0,0,0,0,-1,1112,1240,0,0
-105,-216,0,0,0,0,0,0,0,0,0,-1,1119,1240,0,0
-98,-216,0,0,0,0,0,0,0,0,0,-1,1126,1240,0,0
-91,-216,0,0,0,0,0,0,0,0,0,-1,1133,1240,0,0
-84,-216,0,0,0,0,0,0,0,0,0,-1,1140,1240,0,0
-77,-216,0,0,0,0,0,0,0,0,0,-1,1147,1240,0,0
-70,-216,0,0,0,0,0,0,0,0,0,-1,1154,1240,0,0
-63,-216,0,0,0,0,0,0,0,0,0,-1,1161,1240,0,0
-56,-216,0,0,0,0,0,0,0,0,0,-1,1168,1240,0,0
-49,-216,0,0,0,0,0,0,0,0,0,-1,1175,1240,0,0
-42,-216,0,0,0,0,0,0,0,0,0,-1,1182,1240,0,0
-35,-216,0,0,0,0,0,0,0,0,0,-1,1189,1240,0,0
-28,-216,0,0,0,0,0,0,0,0,0,-1,1196,1240,0,0
-21,-216,0,0,0,0,0,0,0,0,0,-1,1203,1240,0,0
-14,-216,0,0,0,0,0,0,0,0,0,-1,1210,1240,0,0
-7,-216,0,0,0,0,0,0,0,0,0,-1,1217,1240,0,0
0,-216,0,0,0,0,0,0,0,0,0,-1,1224,1240,0,0
7,-216,0,0,0,0,0,0,0,0,0,-1,1231,1240,0,0
14,-216,0,0,0,0,0,0,0,0,0,-1,1238,1240,0,0
21,-216,0,0,0,0,0,0,0,0,0,-1,1245,1240,0,0
28,-216,0,0,0,0,0,0,0,0,0,-1,1252,1240,0,0
35,-216,0,0,0,0,0,0,0,0,0,-1,1259,1240,0,0
42,-216,0,0,0,0,0,0,0,0,0,-1,1266,1240,0,0
49,-216,0,0,0,0,0,0,0,0,0,-1,1273,1240,0,0
56,-216,0,0,0,0,0,0,0,0,0,-1,1280,1240,0,0
63,-216,0,0,0,0,0,0,0,0,0,-1,1287,1240,0,0
70,-216,0,0,0,0,0,0,0,0,0,-1,1294,1240,0,0
77,-216,0,0,0,0,0,0,0,0,0,-1,1301,1240,0,0
84,-216,0,0,0,0,0,0,0,0,0,-1,1308,1240,0,0
91,-216,0,0,0,0,0,0,0,0,0,-1,1315,1240,0,0
98,-216,0,0,0,0,0,0,0,0,0,-1,1322,1240,0,0
105,-216,0,0,0,0,0,0,0,0,0,-1,1329,1240,0,0
112,-216,0,0,0,0,0,0,0,0,0,-1,1336,1240,0,0
119,-216,0,0,0,0,0,0,0,0,0,-1,1343,1240,0,0
126,-216,0,0,0,0,0,0,0,0,0,-1,1350,1240,0,0
133,-216,0,0,0,0,0,0,0,0,0,-1,1357,1240,0,0
140,-216,0,0,0,0,0,0,0,0,0,-1,1364,1240,0,0
147,-216,0,0,0,0,0,0,0,0,0,-1,1371,1240,0,0
154,-216,0,0,0,0,0,0,0,0,0,-1,1378,1240,0,0
161,-216,0,0,0,0,0,0,0,0,0,-1,1385,1240,0,0
168,-216,0,0,0,0,0,0,0,0,0,-1,1392,1240,0,0
175,-216,0,0,0,0,0,0,0,0,0,-1,1399,1240,0,0
182,-216,0,0,0,0,0,0,0,0,0,-1,1406,1240,0,0
189,-216,0,0,0,0,0,0,0,0,0,-1,1413,1240,0,0
196,-216,0,0,0,0,0,0,0,0,0,-1,1420,1240,0,0
203,-216,0,0,0,0,0,0,0,0,0,-1,1427,1240,0,0
210,-216,0,0,0,0,0,0,0,0,0,-1,1434,1240,0,0
217,-216,0,0,0,0,0,0,0,0,0,-1,1441,1240,0,0
224,-216,0,0,0,0,0,0,0,0,0,-1,1448,1240,0,0
231,-216,0,0,0,0,0,0,0,0,0,-1,1455,1240,0,0
238,-216,0,0,0,0,0,0,0,0,0,-1,1462,1240,0,0
245,-216,0,0,0,0,0,0,0,0,0,-1,1469,1240,0,0
252,-216,0,0,0,0,0,0,0,0,0,-1,1476,1240,0,0
259,-216,0,0,0,0,0,0,0,0,0,-1,1483,1240,0,0
266,-216,0,0,0,0,0,0,0,0,0,-1,1490,1240,0,0
273,-216,0,0,0,0,0,0,0,0,0,-1,1497,1240,0,0
280,-216,0,0,0,0,0,0,0,0,0,-1,1504,1240,0,0
287,-216,0,0,0,0,0,0,0,0,0,-1,1511,1240,0,0
294,-216,0,0,0,0,0,0,0,0,0,-1,1518,1240,0,0
301,-216,0,0,0,0,0,0,0,0,0,-1,1525,1240,0,0
308,-216,0,0,0,0,0,0,0,0,0,-1,1532,1240,0,0
315,-216,0,0,0,0,0,0,0,0,0,-1,1539,1240,0,0
322,-216,0,0,0,0,0,0,0,0,0,-1,1546,1240,0,0
329,-216,0,0,0,0,0,0,0,0,0,-1,1553,1240,0,0
336,-216,0,0,0,0,0,0,0,0,0,-1,1560,1240,0,0
343,-216,0,0,0,0,0,0,0,0,0,-1,1567,1240,0,0
350,-216,0,0,0,0,0,0,0,0,0,-1,1574,1240,0,0
357,-216,0,0,0,0,0,0,0,0,0,-1,1581,1240,0,0
364,-216,0,0,0,0,0,0,0,0,0,-1,1588,1240,0,0
371,-216,0,0,0,0,0,0,0,0,0,-1,1595,1240,0,0
378,-216,0,0,0,0,0,0,0,0,0,-1,1602,1240,0,0
385,-216,0,0,0,0,0,0,0,0,0,-1,1609,1240,0,0
392,-216,0,0,0,0,0,0,0,0,0,-1,1616,1240,0,0
399,-216,0,0,0,0,0,0,0,0,0,-1,1623,1240,0,0
406,-216,0,0,0,0,0,0,0,0,0,-1,1630,1240,0,0
413,-216,0,0,0,0,0,0,0,0,0,-1,1637,1240,0,0
420,-216,0,0,0,0,0,0,0,0,0,-1,1644,1240,0,0
427,-216,0,0,0,0,0,0,0,0,0,-1,1651,1240,0,0
434,-216,0,0,0,0,0,0,0,0,0,-1,1658,1240,0,0
441,-216,0,0,0,0,0,0,0,0,0,-1,1665,1240,0,0
448,-216,0,0,0,0,0,0,0,0,0,-1,1672,1240,0,0
455,-216,0,0,0,0,0,0,0,0,0,-1,1679,1240,0,0
462,-216,0,0,0,0,0,0,0,0,0,-1,1686,1240,0,0
469,-216,0,0,0,0,0,0,0,0,0,-1,1693,1240,0,0
476,-216,0,0,0,0,0,0,0,0,0,-1,1700,1240,0,0
483,-216,0,0,0,0,0,0,0,0,0,-1,1707,1240,0,0
490,-216,0,0,0,0,0,0,0,0,0,-1,1714,1240,0,0
497,-216,0,0,0,0,0,0,0,0,0,-1,1721,1240,0,0
504,-216,0,0,0,0,0,0,0,0,0,-1,1728,1240,0,0
511,-216,0,0,0,0,0,0,0,0,0,-1,1735,1240,0,0
518,-216,0,0,0,0,0,0,0,0,0,-1,1742,1240,0,0
525,-216,0,0,0,0,0,0,0,0,0,-1,1749,1240,0,0
532,-216,0,0,0,0,0,0,0,0,0,-1,1756,1240,0,0
539,-216,0,0,0,0,0,0,0,0,0,-1,1763,1240,0,0
546,-216,0,0,0,0,0,0,0,0,0,-1,1770,1240,0,0
553,-216,0,0,0,0,0,0,0,0,0,-1,1777,1240,0,0
560,-216,0,0,0,0,0,0,0,0,0,-1,1784,1240,0,0
567,-216,0,0,0,0,0,0,0,0,0,-1,1791,1240,0,0
574,-216,0,0,0,0,0,0,0,0,0,-1,1798,1240,0,0
581,-216,0,0,0,0,0,0,0,0,0,-1,1805,1240,0,0
588,-216,0,0,0,0,0,0,0,0,0,-1,1812,1240,0,0
595,-216,0,0,0,0,0,0,0,0,0,-1,1819,1240,0,0
602,-216,0,0,0,0,0,0,0,0,0,-1,1826,1240,0,0
609,-216,0,0,0,0,0,0,0,0,0,-1,1833,1240,0,0
616,-216,0,0,0,0,0,0,0,0,0,-1,1840,1240,0,0
623,-216,49.2948,2.82434,0.00325186,-0.00228005,8.51924e-05,0.00325317,-0.00228136,0.0153953,0.00321174,0.0393516,1847,1240,49.2948,-2.8244
630,-216,49.3303,2.66003,0.00146934,0.000752349,-0.000918327,0.00209666,0.000125023,-0.599306,0.00135802,0.0386571,1854,1240,49.3303,-2.65998
637,-216,49.4282,2.64807,-0.000125173,0.0036021,-0.00192295,0.00441631,-0.000939389,-1.17026,0.00330218,0.0344146,1861,1240,49.4282,-2.6481
644,-216,49.408,2.71313,-0.00114349,0.00557043,-0.00256522,0.00643834,-0.0020114,-1.24455,0.00509676,0.0267072,1868,1240,49.4079,-2.71316
651,-216,49.4476,2.73523,-0.00137391,0.00595803,-0.00285675,0.00693968,-0.00235556,-1.23981,0.00557991,0.022411,1875,1240,49.4477,-2.73518
658,-216,49.4716,2.67017,-0.00119688,0.00528573,-0.00282495,0.00634401,-0.00225516,-1.21236,0.00514841,0.0330861,1882,1240,49.4716,-2.67017
665,-216,49.6548,2.58545,-0.000906442,0.00428156,-0.00256103,0.00533279,-0.00195767,-1.1813,0.00435691,0.0454367,1889,1240,49.6547,-2.58545
672,-216,49.8798,2.49072,0,0,0,0,0,0,0,-1,1896,1240,49.8798,-2.49069
679,-216,47.3159,3.82703,0,0,0,0,0,0,0,-1,1903,1240,47.316,-3.82708
686,-216,21.5172,6.19458,0,0,0,0,0,0,0,-1,1910,1240,21.5172,-6.19453
693,-216,39.606,9.63708,0,0,0,0,0,0,0,-1,1917,1240,39.6059,-9.63714
700,-216,39.2819,9.29053,-0.000145167,0.000875342,-0.000892914,0.00139351,-0.000663336,-1.04498,0.00121221,0.0393562,1924,1240,39.2818,-9.29057
707,-216,39.2261,8.76587,-0.000137636,-0.000159977,-0.000417075,0.000268418,-0.000566031,-0.77201,0.000491877,0.0322713,1931,1240,39.2261,-8.76583
714,-216,39.2488,8.27173,-0.000347008,-0.000801259,0.000225757,-0.000253896,-0.000894372,0.391188,0.000532202,0.0138346,1938,1240,39.2488,-8.27179
721,-216,39.2722,7.83655,-0.000704817,-0.000965962,0.00082294,-2.15537e-06,-0.00166862,0.706721,0.0011117,0.0138456,1945,1240,39.2722,-7.83654
728,-216,39.2954,7.39551,-0.000424096,-0.000701106,0.00139743,0.000841679,-0.00196688,0.736003,0.00166434,0.0130852,1952,1240,39.2954,-7.39552
735,-216,39.2963,6.96375,-0.000262678,-0.000799414,0.00138822,0.000882871,-0.00194496,0.689917,0.00167059,0.0135173,1959,1240,39.2963,-6.96369
742,-216,39.2317,6.53186,-0.00071719,-0.00108179,0.000852923,-2.73024e-05,-0.00177168,0.680115,0.00117212,0.014846,1966,1240,39.2317,-6.53188
749,-216,39.196,6.06799,-0.00122596,-0.00119306,0.000127154,-0.0010813,-0.00133773,0.849724,0.000819821,0.0118002,1973,1240,39.196,-6.06797
756,-216,39.1594,5.64673,-0.00230647,-0.00131808,-0.00156565,-0.000170487,-0.00345407,-0.938274,0.00224804,0.0106317,1980,1240,39.1594,-5.64674
763,-216,39.1372,5.30029,-0.00419184,-0.00221314,-0.00461085,0.00151331,-0.00791829,-0.891081,0.00584892,0.0190215,1987,1240,39.1372,-5.30024
770,-216,39.2925,5.10071,-0.0073923,-0.0036306,-0.00937481,0.00405018,-0.0150731,-0.884398,0.0116362,0.0419834,1994,1240,39.2925,-5.10073
777,-216,39.509,4.88281,0,0,0,0,0,0,0,-1,2001,1240,39.5091,-4.88279
784,-216,51.8208,-0.443726,0,0,0,0,0,0,0,-1,2008,1240,51.8208,0.443779
791,-216,51.0972,1.54187,0,0,0,0,0,0,0,-1,2015,1240,51.0971,-1.54183
798,-216,0,0,0,0,0,0,0,0,0,-1,2022,1240,0,0
805,-216,0,0,0,0,0,0,0,0,0,-1,2029,1240,0,0
812,-216,0,0,0,0,0,0,0,0,0,-1,2036,1240,0,0
-700,-223,0,0,0,0,0,0,0,0,0,-1,524,1247,0,0
-693,-223,0,0,0,0,0,0,0,0,0,-1,531,1247,0,0
-686,-223,0,0,0,0,0,0,0,0,0,-1,538,1247,0,0
-679,-223,0,0,0,0,0,0,0,0,0,-1,545,1247,0,0
-672,-223,-27.7153,11.1644,0,0,0,0,0,0,0,-1,552,1247,-27.7153,-11.1644
-665,-223,-27.6133,12.1124,0,0,0,0,0,0,0,-1,559,1247,-27.6133,-12.1124
-658,-223,-27.5158,13.0887,0,0,0,0,0,0,0,-1,566,1247,-27.5158,-13.0888
-651,-223,-34.1099,-1.07739,0,0,0,0,0,0,0,-1,573,1247,-34.1098,1.07735
-644,-223,-32.9842,-0.537476,0,0,0,0,0,0,0,-1,580,1247,-32.9842,0.537426
-637,-223,-26.3167,1.94934,0,0,0,0,0,0,0,-1,587,1247,-26.3167,-1.9493
-630,-223,-25.7626,2.50549,0.0228236,-0.0100665,0.0124315,0.0269937,-0.0142366,0.323647,0.0241811,0.0453655,594,1247,-25.7626,-2.50552
-623,-223,-25.3027,3.05542,0.0166222,-0.0041768,0.0087646,0.019823,-0.00737758,0.350147,0.016243,0.0232403,601,1247,-25.3027,-3.05541
-616,-223,-25.2982,3.51929,0.0116029,0.000550503,0.00560528,0.013948,-0.00179465,0.396252,0.00995097,0.0152268,608,1247,-25.2981,-3.51934
-609,-223,-25.2806,4.01733,0.00747174,0.00215094,0.00324826,0.00901002,0.000612659,0.442282,0.00581323,0.0114676,615,1247,-25.2807,-4.01739
-602,-223,-25.2828,4.48389,0.00433235,0.00113773,0.00168154,0.0050543,0.000415779,0.405541,0.00323985,0.014383,622,1247,-25.2828,-4.48388
-595,-223,-25.2726,5,0.00226817,0.000218997,0.000637302,0.0024502,3.69637e-05,0.278223,0.00162129,0.0205589,629,1247,-25.2726,-4.99996
-588,-223,-25.3132,5.52515,0.00214866,-0.000620174,0.000292209,0.00217916,-0.000650676,0.104008,0.00171141,0.02384,636,1247,-25.3132,-5.52511
-581,-223,-25.3909,5.99365,0.00264438,-0.00101929,-0.000306906,0.00266991,-0.00104483,-0.0829992,0.00221206,0.0225501,643,1247,-25.3909,-5.99361
-574,-223,-25.3559,6.48083,0.00308602,-0.00166919,-0.000891573,0.00324769,-0.00183085,-0.17938,0.00296989,0.0272719,650,1247,-25.3559,-6.48088
-567,-223,-25.2386,7.07092,0,0,0,0,0,0,0,-1,657,1247,-25.2386,-7.0709
-560,-223,-25.3372,7.66125,0,0,0,0,0,0,0,-1,664,1247,-25.3371,-7.66122
-553,-223,-11.4025,4.14722,0,0,0,0,0,0,0,-1,671,1247,-11.4025,-4.14719
-546,-223,-26.9034,-0.148682,0,0,0,0,0,0,0,-1,678,1247,-26.9034,0.14867
-539,-223,-35.7917,1.22339,0,0,0,0,0,0,0,-1,685,1247,-35.7917,-1.22342
-532,-223,-36.3799,1.21448,0,0,0,0,0,0,0,-1,692,1247,-36.3799,-1.21443
-525,-223,-36.5459,1.09912,0,0,0,0,0,0,0,-1,699,1247,-36.5459,-1.09914
-518,-223,-36.6916,1.15576,0,0,0,0,0,0,0,-1,706,1247,-36.6916,-1.15582
-511,-223,-36.6888,1.13928,-0.00269883,-0.00354379,0.00242519,-0.000659596,-0.00558303,0.699161,0.0035228,0.039246,713,1247,-36.6888,-1.13926
-504,-223,-36.667,1.21313,-0.00347507,-0.000469772,0.00512463,0.00336797,-0.00731282,0.928011,0.0063052,0.0431855,720,1247,-36.667,-1.2131
-497,-223,0,0,0,0,0,0,0,0,0,-1,727,1247,0,0
-490,-223,0,0,0,0,0,0,0,0,0,-1,734,1247,0,0
-483,-223,0,0,0,0,0,0,0,0,0,-1,741,1247,0,0
-476,-223,0,0,0,0,0,0,0,0,0,-1,748,1247,0,0
-469,-223,0,0,0,0,0,0,0,0,0,-1,755,1247,0,0
-462,-223,0,0,0,0,0,0,0,0,0,-1,762,1247,0,0
-455,-223,0,0,0,0,0,0,0,0,0,-1,769,1247,0,0
-448,-223,0,0,0,0,0,0,0,0,0,-1,776,1247,0,0
-441,-223,0,0,0,0,0,0,0,0,0,-1,783,1247,0,0
-434,-223,0,0,0,0,0,0,0,0,0,-1,790,1247,0,0
-427,-223,0,0,0,0,0,0,0,0,0,-1,797,1247,0,0
-420,-223,0,0,0,0,0,0,0,0,0,-1,804,1247,0,0
-413,-223,0,0,0,0,0,0,0,0,0,-1,811,1247,0,0
-406,-223,0,0,0,0,0,0,0,0,0,-1,818,1247,0,0
-399,-223,0,0,0,0,0,0,0,0,0,-1,825,1247,0,0
-392,-223,0,0,0,0,0,0,0,0,0,-1,832,1247,0,0
-385,-223,0,0,0,0,0,0,0,0,0,-1,839,1247,0,0
-378,-223,0,0,0,0,0,0,0,0,0,-1,846,1247,0,0
-371,-223,0,0,0,0,0,0,0,0,0,-1,853,1247,0,0
-364,-223,0,0,0,0,0,0,0,0,0,-1,860,1247,0,0
-357,-223,0,0,0,0,0,0,0,0,0,-1,867,1247,0,0
-350,-223,0,0,0,0,0,0,0,0,0,-1,874,1247,0,0
-343,-223,0,0,0,0,0,0,0,0,0,-1,881,1247,0,0
-336,-223,0,0,0,0,0,0,0,0,0,-1,888,1247,0,0
-329,-223,0,0,0,0,0,0,0,0,0,-1,895,1247,0,0
-322,-223,0,0,0,0,0,0,0,0,0,-1,902,1247,0,0
-315,-223,0,0,0,0,0,0,0,0,0,-1,909,1247,0,0
-308,-223,0,0,0,0,0,0,0,0,0,-1,916,1247,0,0
-301,-223,0,0,0,0,0,0,0,0,0,-1,923,1247,0,0
-294,-223,0,0,0,0,0,0,0,0,0,-1,930,1247,0,0
-287,-223,0,0,0,0,0,0,0,0,0,-1,937,1247,0,0
-280,-223,0,0,0,0,0,0,0,0,0,-1,944,1247,0,0
-273,-223,0,0,0,0,0,0,0,0,0,-1,951,1247,0,0
-266,-223,0,0,0,0,0,0,0,0,0,-1,958,1247,0,0
-259,-223,0,0,0,0,0,0,0,0,0,-1,965,1247,0,0
-252,-223,0,0,0,0,0,0,0,0,0,-1,972,1247,0,0
-245,-223,0,0,0,0,0,0,0,0,0,-1,979,1247,0,0
-238,-223,0,0,0,0,0,0,0,0,0,-1,986,1247,0,0
-231,-223,0,0,0,0,0,0,0,0,0,-1,993,1247,0,0
-224,-223,0,0,0,0,0,0,0,0,0,-1,1000,1247,0,0
-217,-223,0,0,0,0,0,0,0,0,0,-1,1007,1247,0,0
-210,-223,0,0,0,0,0,0,0,0,0,-1,1014,1247,0,0
-203,-223,0,0,0,0,0,0,0,0,0,-1,1021,1247,0,0
-196,-223,0,0,0,0,0,0,0,0,0,-1,1028,1247,0,0
-189,-223,0,0,0,0,0,0,0,0,0,-1,1035,1247,0,0
-182,-223,0,0,0,0,0,0,0,0,0,-1,1042,1247,0,0
-175,-223,0,0,0,0,0,0,0,0,0,-1,1049,1247,0,0
-168,-223,0,0,0,0,0,0,0,0,0,-1,1056,1247,0,0
-161,-223,0,0,0,0,0,0,0,0,0,-1,1063,1247,0,0
-154,-223,0,0,0,0,0,0,0,0,0,-1,1070,1247,0,0
-147,-223,0,0,0,0,0,0,0,0,0,-1,1077,1247,0,0
-140,-223,0,0,0,0,0,0,0,0,0,-1,1084,1247,0,0
-133,-223,0,0,0,0,0,0,0,0,0,-1,1091,1247,0,0
-126,-223,0,0,0,0,0,0,0,0,0,-1,1098,1247,0,0
-119,-223,0,0,0,0,0,0,0,0,0,-1,1105,1247,0,0
-112,-223,0,0,0,0,0,0,0,0,0,-1,1112,1247,0,0
-105,-223,0,0,0,0,0,0,0,0,0,-1,1119,1247,0,0
-98,-223,0,0,0,0,0,0,0,0,0,-1,1126,1247,0,0
-91,-223,0,0,0,0,0,0,0,0,0,-1,1133,1247,0,0
-84,-223,0,0,0,0,0,0,0,0,0,-1,1140,1247,0,0
-77,-223,0,0,0,0,0,0,0,0,0,-1,1147,1247,0,0
-70,-223,0,0,0,0,0,0,0,0,0,-1,1154,1247,0,0
-63,-223,0,0,0,0,0,0,0,0,0,-1,1161,1247,0,0
-56,-223,0,0,0,0,0,0,0,0,0,-1,1168,1247,0,0
-49,-223,0,0,0,0,0,0,0,0,0,-1,1175,1247,0,0
-42,-223,0,0,0,0,0,0,0,0,0,-1,1182,1247,0,0
-35,-223,0,0,0,0,0,0,0,0,0,-1,1189,1247,0,0
-28,-223,0,0,0,0,0,0,0,0,0,-1,1196,1247,0,0
-21,-223,0,0,0,0,0,0,0,0,0,-1,1203,1247,0,0
-14,-223,0,0,0,0,0,0,0,0,0,-1,1210,1247,0,0
-7,-223,0,0,0,0,0,0,0,0,0,-1,1217,1247,0,0
0,-223,0,0,0,0,0,0,0,0,0,-1,1224,1247,0,0
7,-223,0,0,0,0,0,0,0,0,0,-1,1231,1247,0,0
14,-223,0,0,0,0,0,0,0,0,0,-1,1238,1247,0,0
21,-223,0,0,0,0,0,0,0,0,0,-1,1245,1247,0,0
28,-223,0,0,0,0,0,0,0,0,0,-1,1252,1247,0,0
35,-223,0,0,0,0,0,0,0,0,0,-1,1259,1247,0,0
42,-223,0,0,0,0,0,0,0,0,0,-1,1266,1247,0,0
49,-223,0,0,0,0,0,0,0,0,0,-1,1273,1247,0,0
56,-223,0,0,0,0,0,0,0,0,0,-1,1280,1247,0,0
63,-223,0,0,0,0,0,0,0,0,0,-1,1287,1247,0,0
70,-223,0,0,0,0,0,0,0,0,0,-1,1294,1247,0,0
77,-223,0,0,0,0,0,0,0,0,0,-1,1301,1247,0,0
84,-223,0,0,0,0,0,0,0,0,0,-1,1308,1247,0,0
91,-223,0,0,0,0,0,0,0,0,0,-1,1315,1247,0,0
98,-223,0,0,0,0,0,0,0,0,0,-1,1322,1247,0,0
105,-223,0,0,0,0,0,0,0,0,0,-1,1329,1247,0,0
112,-223,0,0,0,0,0,0,0,0,0,-1,1336,1247,0,0
119,-223,0,0,0,0,0,0,0,0,0,-1,1343,1247,0,0
126,-223,0,0,0,0,0,0,0,0,0,-1,1350,1247,0,0
133,-223,0,0,0,0,0,0,0,0,0,-1,1357,1247,0,0
140,-223,0,0,0,0,0,0,0,0,0,-1,1364,1247,0,0
147,-223,0,0,0,0,0,0,0,0,0,-1,1371,1247,0,0
154,-223,0,0,0,0,0,0,0,0,0,-1,1378,1247,0,0
161,-223,0,0,0,0,0,0,0,0,0,-1,1385,1247,0,0
168,-223,0,0,0,0,0,0,0,0,0,-1,1392,1247,0,0
175,-223,0,0,0,0,0,0,0,0,0,-1,1399,1247,0,0
182,-223,0,0,0,0,0,0,0,0,0,-1,1406,1247,0,0
189,-223,0,0,0,0,0,0,0,0,0,-1,1413,1247,0,0
196,-223,0,0,0,0,0,0,0,0,0,-1,1420,1247,0,0
203,-223,0,0,0,0,0,0,0,0,0,-1,1427,1247,0,0
210,-223,0,0,0,0,0,0,0,0,0,-1,1434,1247,0,0
217,-223,0,0,0,0,0,0,0,0,0,-1,1441,1247,0,0
224,-223,0,0,0,0,0,0,0,0,0,-1,1448,1247,0,0
231,-223,0,0,0,0,0,0,0,0,0,-1,1455,1247,0,0
238,-223,0,0,0,0,0,0,0,0,0,-1,1462,1247,0,0
245,-223,0,0,0,0,0,0,0,0,0,-1,1469,1247,0,0
252,-223,0,0,0,0,0,0,0,0,0,-1,1476,1247,0,0
259,-223,0,0,0,0,0,0,0,0,0,-1,1483,1247,0,0
266,-223,0,0,0,0,0,0,0,0,0,-1,1490,1247,0,0
273,-223,0,0,0,0,0,0,0,0,0,-1,1497,1247,0,0
280,-223,0,0,0,0,0,0,0,0,0,-1,1504,1247,0,0
287,-223,0,0,0,0,0,0,0,0,0,-1,1511,1247,0,0
294,-223,0,0,0,0,0,0,0,0,0,-1,1518,1247,0,0
301,-223,0,0,0,0,0,0,0,0,0,-1,1525,1247,0,0
308,-223,0,0,0,0,0,0,0,0,0,-1,1532,1247,0,0
315,-223,0,0,0,0,0,0,0,0,0,-1,1539,1247,0,0
322,-223,0,0,0,0,0,0,0,0,0,-1,1546,1247,0,0
329,-223,0,0,0,0,0,0,0,0,0,-1,1553,1247,0,0
336,-223,0,0,0,0,0,0,0,0,0,-1,1560,1247,0,0
343,-223,0,0,0,0,0,0,0,0,0,-1,1567,1247,0,0
350,-223,0,0,0,0,0,0,0,0,0,-1,1574,1247,0,0
357,-223,0,0,0,0,0,0,0,0,0,-1,1581,1247,0,0
364,-223,0,0,0,0,0,0,0,0,0,-1,1588,1247,0,0
371,-223,0,0,0,0,0,0,0,0,0,-1,1595,1247,0,0
378,-223,0,0,0,0,0,0,0,0,0,-1,1602,1247,0,0
385,-223,0,0,0,0,0,0,0,0,0,-1,1609,1247,0,0
392,-223,0,0,0,0,0,0,0,0,0,-1,1616,1247,0,0
399,-223,0,0,0,0,0,0,0,0,0,-1,1623,1247,0,0
406,-223,0,0,0,0,0,0,0,0,0,-1,1630,1247,0,0
413,-223,0,0,0,0,0,0,0,0,0,-1,1637,1247,0,0
420,-223,0,0,0,0,0,0,0,0,0,-1,1644,1247,0,0
427,-223,0,0,0,0,0,0,0,0,0,-1,1651,1247,0,0
434,-223,0,0,0,0,0,0,0,0,0,-1,1658,1247,0,0
441,-223,0,0,0,0,0,0,0,0,0,-1,1665,1247,0,0
448,-223,0,0,0,0,0,0,0,0,0,-1,1672,1247,0,0
455,-223,0,0,0,0,0,0,0,0,0,-1,1679,1247,0,0
462,-223,0,0,0,0,0,0,0,0,0,-1,1686,1247,0,0
469,-223,0,0,0,0,0,0,0,0,0,-1,1693,1247,0,0
476,-223,0,0,0,0,0,0,0,0,0,-1,1700,1247,0,0
483,-223,0,0,0,0,0,0,0,0,0,-1,1707,1247,0,0
490,-223,0,0,0,0,0,0,0,0,0,-1,1714,1247,0,0
497,-223,0,0,0,0,0,0,0,0,0,-1,1721,1247,0,0
504,-223,0,0,0,0,0,0,0,0,0,-1,1728,1247,0,0
511,-223,0,0,0,0,0,0,0,0,0,-1,1735,1247,0,0
518,-223,0,0,0,0,0,0,0,0,0,-1,1742,1247,0,0
525,-223,0,0,0,0,0,0,0,0,0,-1,1749,1247,0,0
532,-223,0,0,0,0,0,0,0,0,0,-1,1756,1247,0,0
539,-223,0,0,0,0,0,0,0,0,0,-1,1763,1247,0,0
546,-223,0,0,0,0,0,0,0,0,0,-1,1770,1247,0,0
553,-223,0,0,0,0,0,0,0,0,0,-1,1777,1247,0,0
560,-223,0,0,0,0,0,0,0,0,0,-1,1784,1247,0,0
567,-223,0,0,0,0,0,0,0,0,0,-1,1791,1247,0,0
574,-223,0,0,0,0,0,0,0,0,0,-1,1798,1247,0,0
581,-223,0,0,0,0,0,0,0,0,0,-1,1805,1247,0,0
588,-223,0,0,0,0,0,0,0,0,0,-1,1812,1247,0,0
595,-223,0,0,0,0,0,0,0,0,0,-1,1819,1247,0,0
602,-223,0,0,0,0,0,0,0,0,0,-1,1826,1247,0,0
609,-223,0,0,0,0,0,0,0,0,0,-1,1833,1247,0,0
616,-223,0,0,0,0,0,0,0,0,0,-1,1840,1247,0,0
623,-223,49.2928,2.8916,0.00227219,-6.9378e-05,-0.000712772,0.00247209,-0.00026928,-0.273432,0.00174476,0.039707,1847,1247,49.2928,-2.89162
630,-223,49.4042,2.7821,0.000129022,0.00318977,-0.00169609,0.00394385,-0.000625063,-1.15244,0.00286044,0.0372283,1854,1247,49.4041,-2.78213
637,-223,49.397,2.7157,-0.00167781,0.00615185,-0.00269138,0.00698775,-0.0025137,-1.26966,0.00568477,0.0310138,1861,1247,49.397,-2.71571
644,-223,49.3973,2.7041,-0.00257528,0.00760908,-0.00301918,0.00843685,-0.00340305,-1.3032,0.00703869,0.0231522,1868,1247,49.3973,-2.70412
651,-223,49.4502,2.71045,-0.00252677,0.00740972,-0.00311754,0.00830685,-0.00342389,-1.2906,0.00696558,0.0292775,1875,1247,49.4502,-2.71045
658,-223,49.5228,2.77966,0,0,0,0,0,0,0,-1,1882,1247,49.5228,-2.77969
665,-223,49.7433,2.54712,0,0,0,0,0,0,0,-1,1889,1247,49.7432,-2.5471
672,-223,50.069,2.56421,0,0,0,0,0,0,0,-1,1896,1247,50.069,-2.56419
679,-223,43.2783,2.46973,0,0,0,0,0,0,0,-1,1903,1247,43.2784,-2.46978
686,-223,39.428,9.91504,0,0,0,0,0,0,0,-1,1910,1247,39.428,-9.91505
693,-223,39.23,9.52625,-0.000752054,0.00184485,-0.00115801,0.00228621,-0.00119342,-1.20665,0.00204173,0.0477179,1917,1247,39.2299,-9.52621
700,-223,38.9554,9.12756,-0.000185237,0.00108704,-0.000848959,0.00151175,-0.000609949,-1.10693,0.00126131,0.0254513,1924,1247,38.9555,-9.12757
707,-223,38.8334,8.71301,-0.000260465,-0.000145377,-0.000236657,4.06314e-05,-0.000446473,-0.904661,0.000312075,0.0197505,1931,1247,38.8333,-8.71298
714,-223,38.8241,8.29639,-0.000471644,-0.000839825,0.000502336,-0.000120729,-0.00119074,0.609763,0.000756801,0.0109231,1938,1247,38.8241,-8.29637
721,-223,38.8361,7.84717,-0.000748084,-0.000920089,0.00109112,0.000260422,-0.0019286,0.746069,0.00138075,0.0149654,1945,1247,38.836,-7.8472
728,-223,38.8373,7.3988,-0.000474648,-0.000625208,0.00165081,0.0011026,-0.00220246,0.762613,0.00194308,0.0180869,1952,1247,38.8373,-7.39886
735,-223,38.802,7.005,-0.000293796,-0.000666374,0.00178335,0.00131297,-0.00227314,0.733357,0.00209504,0.0167922,1959,1247,38.802,-7.00504
742,-223,38.7249,6.58105,-0.000517829,-0.000898185,0.00151333,0.000817225,-0.00223324,0.722892,0.00182334,0.0147785,1966,1247,38.7249,-6.58108
749,-223,38.7163,6.0752,-0.000668491,-0.00108665,0.00114739,0.000288718,-0.00204385,0.695277,0.0014683,0.0122548,1973,1247,38.7164,-6.0752
756,-223,38.6869,5.64185,-0.00110078,-0.00147987,-8.8972e-05,-0.00108094,-0.00149971,-0.219435,0.000893549,0.0144615,1980,1247,38.6869,-5.64189
763,-223,38.6801,5.28711,-0.00206639,-0.00278099,-0.00257733,0.00017829,-0.00502567,-0.716522,0.00341143,0.0205587,1987,1247,38.6801,-5.28717
770,-223,38.91,4.94568,-0.00405747,-0.00506191,-0.00685506,0.00231374,-0.0114331,-0.748832,0.00849896,0.0447479,1994,1247,38.91,-4.94563
777,-223,39.1349,4.58899,0,0,0,0,0,0,0,-1,2001,1247,39.1349,-4.589
784,-223,54.1208,-0.293457,0,0,0,0,0,0,0,-1,2008,1247,54.1208,0.293477
791,-223,34.7136,2.92554,0,0,0,0,0,0,0,-1,2015,1247,34.7137,-2.92555
798,-223,0,0,0,0,0,0,0,0,0,-1,2022,1247,0,0
805,-223,0,0,0,0,0,0,0,0,0,-1,2029,1247,0,0
812,-223,0,0,0,0,0,0,0,0,0,-1,2036,1247,0,0
-700,-230,0,0,0,0,0,0,0,0,0,-1,524,1254,0,0
-693,-230,0,0,0,0,0,0,0,0,0,-1,531,1254,0,0
-686,-230,0,0,0,0,0,0,0,0,0,-1,538,1254,0,0
-679,-230,0,0,0,0,0,0,0,0,0,-1,545,1254,0,0
-672,-230,-28.1055,12.2495,0,0,0,0,0,0,0,-1,552,1254,-28.1055,-12.2496
-665,-230,-27.9181,13.1168,0,0,0,0,0,0,0,-1,559,1254,-27.9181,-13.1169
-658,-230,-27.7896,14.157,0,0,0,0,0,0,0,-1,566,1254,-27.7896,-14.157
-651,-230,-33.9964,-1.89709,0,0,0,0,0,0,0,-1,573,1254,-33.9964,1.89713
-644,-230,-34.0387,-1.38,0,0,0,0,0,0,0,-1,580,1254,-34.0387,1.38002
-637,-230,-32.9183,1.94067,0,0,0,0,0,0,0,-1,587,1254,-32.9183,-1.94071
-630,-230,-24.8602,2.45728,0,0,0,0,0,0,0,-1,594,1254,-24.8602,-2.45732
-623,-230,-24.8253,3.01038,0.0271064,-0.00209491,0.0127406,0.0318836,-0.0068721,0.358735,0.0238784,0.0285997,601,1254,-24.8252,-3.01039
-616,-230,-24.7886,3.52258,0.0187463,0.00183618,0.00852671,0.0222993,-0.00171678,0.394808,0.0154702,0.0158896,608,1254,-24.7886,-3.52262
-609,-230,-24.7682,4.03308,0.0119811,0.00299216,0.00527791,0.0144189,0.000554338,0.432698,0.00943325,0.0123208,615,1254,-24.7682,-4.03309
-602,-230,-24.7708,4.51746,0.00685773,0.00174737,0.00298301,0.00823031,0.000374789,0.431248,0.00536631,0.0118177,622,1254,-24.7708,-4.51744
-595,-230,-24.7892,5.03223,0.00339535,0.000604352,0.00137091,0.00395608,4.36257e-05,0.388255,0.00262297,0.0180291,629,1254,-24.7892,-5.0322
-588,-230,-24.8018,5.51086,0.00266479,-0.000439324,0.000682352,0.00280817,-0.000582697,0.207104,0.00209355,0.0256551,636,1254,-24.8018,-5.5109
-581,-230,-24.8541,6.00842,0.00298142,-0.00109592,2.46152e-05,0.00298156,-0.00109607,0.00603678,0.00243667,0.0244237,643,1254,-24.854,-6.0084
-574,-230,-24.838,6.47363,0.00358788,-0.0018451,-0.000547458,0.0036425,-0.00189971,-0.0994339,0.0032521,0.0223627,650,1254,-24.838,-6.47362
-567,-230,-24.3792,6.69543,0,0,0,0,0,0,0,-1,657,1254,-24.3792,-6.69541
-560,-230,-24.3307,7.32629,0,0,0,0,0,0,0,-1,664,1254,-24.3308,-7.32631
-553,-230,-13.1939,4.9718,0,0,0,0,0,0,0,-1,671,1254,-13.1939,-4.97175
-546,-230,-15.23,0.453979,0,0,0,0,0,0,0,-1,678,1254,-15.23,-0.453996
-539,-230,-25.8232,0.512817,0,0,0,0,0,0,0,-1,685,1254,-25.8232,-0.512878
-532,-230,-21.1644,1.52966,0,0,0,0,0,0,0,-1,692,1254,-21.1644,-1.52969
-525,-230,-29.4775,0.731445,0,0,0,0,0,0,0,-1,699,1254,-29.4775,-0.731432
-518,-230,-36.334,0.705078,0,0,0,0,0,0,0,-1,706,1254,-36.334,-0.705064
-511,-230,-36.5629,0.919312,-0.00472492,-0.00322439,0.0037489,-0.000151415,-0.00779789,0.884158,0.00514886,0.0414329,713,1254,-36.5629,-0.919308
-504,-230,-36.7371,1.07068,-0.00602089,-0.00139435,0.00569903,0.002443,-0.00985824,0.978192,0.00751996,0.04062,720,1254,-36.7371,-1.07069
-497,-230,0,0,0,0,0,0,0,0,0,-1,727,1254,0,0
-490,-230,0,0,0,0,0,0,0,0,0,-1,734,1254,0,0
-483,-230,0,0,0,0,0,0,0,0,0,-1,741,1254,0,0
-476,-230,0,0,0,0,0,0,0,0,0,-1,748,1254,0,0
-469,-230,0,0,0,0,0,0,0,0,0,-1,755,1254,0,0
-462,-230,0,0,0,0,0,0,0,0,0,-1,762,1254,0,0
-455,-230,0,0,0,0,0,0,0,0,0,-1,769,1254,0,0
-448,-230,0,0,0,0,0,0,0,0,0,-1,776,1254,0,0
-441,-230,0,0,0,0,0,0,0,0,0,-1,783,1254,0,0
-434,-230,0,0,0,0,0,0,0,0,0,-1,790,1254,0,0
-427,-230,0,0,0,0,0,0,0,0,0,-1,797,1254,0,0
-420,-230,0,0,0,0,0,0,0,0,0,-1,804,1254,0,0
-413,-230,0,0,0,0,0,0,0,0,0,-1,811,1254,0,0
-406,-230,0,0,0,0,0,0,0,0,0,-1,818,1254,0,0
-399,-230,0,0,0,0,0,0,0,0,0,-1,825,1254,0,0
-392,-230,0,0,0,0,0,0,0,0,0,-1,832,1254,0,0
-385,-230,0,0,0,0,0,0,0,0,0,-1,839,1254,0,0
-378,-230,0,0,0,0,0,0,0,0,0,-1,846,1254,0,0
-371,-230,0,0,0,0,0,0,0,0,0,-1,853,1254,0,0
-364,-230,0,0,0,0,0,0,0,0,0,-1,860,1254,0,0
-357,-230,0,0,0,0,0,0,0,0,0,-1,867,1254,0,0
-350,-230,0,0,0,0,0,0,0,0,0,-1,874,1254,0,0
-343,-230,0,0,0,0,0,0,0,0,0,-1,881,1254,0,0
-336,-230,0,0,0,0,0,0,0,0,0,-1,888,1254,0,0
-329,-230,0,0,0,0,0,0,0,0,0,-1,895,1254,0,0
-322,-230,0,0,0,0,0,0,0,0,0,-1,902,1254,0,0
-315,-230,0,0,0,0,0,0,0,0,0,-1,909,1254,0,0
-308,-230,0,0,0,0,0,0,0,0,0,-1,916,1254,0,0
-301,-230,0,0,0,0,0,0,0,0,0,-1,923,1254,0,0
-294,-230,0,0,0,0,0,0,0,0,0,-1,930,1254,0,0
-287,-230,0,0,0,0,0,0,0,0,0,-1,937,1254,0,0
-280,-230,0,0,0,0,0,0,0,0,0,-1,944,1254,0,0
-273,-230,0,0,0,0,0,0,0,0,0,-1,951,1254,0,0
-266,-230,0,0,0,0,0,0,0,0,0,-1,958,1254,0,0
-259,-230,0,0,0,0,0,0,0,0,0,-1,965,1254,0,0
-252,-230,0,0,0,0,0,0,0,0,0,-1,972,1254,0,0
-245,-230,0,0,0,0,0,0,0,0,0,-1,979,1254,0,0
-238,-230,0,0,0,0,0,0,0,0,0,-1,986,1254,0,0
-231,-230,0,0,0,0,0,0,0,0,0,-1,993,1254,0,0
-224,-230,0,0,0,0,0,0,0,0,0,-1,1000,1254,0,0
-217,-230,0,0,0,0,0,0,0,0,0,-1,1007,1254,0,0
-210,-230,0,0,0,0,0,0,0,0,0,-1,1014,1254,0,0
-203,-230,0,0,0,0,0,0,0,0,0,-1,1021,1254,0,0
-196,-230,0,0,0,0,0,0,0,0,0,-1,1028,1254,0,0
-189,-230,0,0,0,0,0,0,0,0,0,-1,1035,1254,0,0
-182,-230,0,0,0,0,0,0,0,0,0,-1,1042,1254,0,0
-175,-230,0,0,0,0,0,0,0,0,0,-1,1049,1254,0,0
-168,-230,0,0,0,0,0,0,0,0,0,-1,1056,1254,0,0
-161,-230,0,0,0,0,0,0,0,0,0,-1,1063,1254,0,0
-154,-230,0,0,0,0,0,0,0,0,0,-1,1070,1254,0,0
-147,-230,0,0,0,0,0,0,0,0,0,-1,1077,1254,0,0
-140,-230,0,0,0,0,0,0,0,0,0,-1,1084,1254,0,0
-133,-230,0,0,0,0,0,0,0,0,0,-1,1091,1254,0,0
-126,-230,0,0,0,0,0,0,0,0,0,-1,1098,1254,0,0
-119,-230,0,0,0,0,0,0,0,0,0,-1,1105,1254,0,0
-112,-230,0,0,0,0,0,0,0,0,0,-1,1112,1254,0,0
-105,-230,0,0,0,0,0,0,0,0,0,-1,1119,1254,0,0
-98,-230,0,0,0,0,0,0,0,0,0,-1,1126,1254,0,0
-91,-230,0,0,0,0,0,0,0,0,0,-1,1133,1254,0,0
-84,-230,0,0,0,0,0,0,0,0,0,-1,1140,1254,0,0
-77,-230,0,0,0,0,0,0,0,0,0,-1,1147,1254,0,0
-70,-230,0,0,0,0,0,0,0,0,0,-1,1154,1254,0,0
-63,-230,0,0,0,0,0,0,0,0,0,-1,1161,1254,0,0
-56,-230,0,0,0,0,0,0,0,0,0,-1,1168,1254,0,0
-49,-230,0,0,0,0,0,0,0,0,0,-1,1175,1254,0,0
-42,-230,0,0,0,0,0,0,0,0,0,-1,1182,1254,0,0
-35,-230,0,0,0,0,0,0,0,0,0,-1,1189,1254,0,0
-28,-230,0,0,0,0,0,0,0,0,0,-1,1196,1254,0,0
-21,-230,0,0,0,0,0,0,0,0,0,-1,1203,1254,0,0
-14,-230,0,0,0,0,0,0,0,0,0,-1,1210,1254,0,0
-7,-230,0,0,0,0,0,0,0,0,0,-1,1217,1254,0,0
0,-230,0,0,0,0,0,0,0,0,0,-1,1224,1254,0,0
7,-230,0,0,0,0,0,0,0,0,0,-1,1231,1254,0,0
14,-230,0,0,0,0,0,0,0,0,0,-1,1238,1254,0,0
21,-230,0,0,0,0,0,0,0,0,0,-1,1245,1254,0,0
28,-230,0,0,0,0,0,0,0,0,0,-1,1252,1254,0,0
35,-230,0,0,0,0,0,0,0,0,0,-1,1259,1254,0,0
42,-230,0,0,0,0,0,0,0,0,0,-1,1266,1254,0,0
49,-230,0,0,0,0,0,0,0,0,0,-1,1273,1254,0,0
56,-230,0,0,0,0,0,0,0,0,0,-1,1280,1254,0,0
63,-230,0,0,0,0,0,0,0,0,0,-1,1287,1254,0,0
70,-230,0,0,0,0,0,0,0,0,0,-1,1294,1254,0,0
77,-230,0,0,0,0,0,0,0,0,0,-1,1301,1254,0,0
84,-230,0,0,0,0,0,0,0,0,0,-1,1308,1254,0,0
91,-230,0,0,0,0,0,0,0,0,0,-1,1315,1254,0,0
98,-230,0,0,0,0,0,0,0,0,0,-1,1322,1254,0,0
105,-230,0,0,0,0,0,0,0,0,0,-1,1329,1254,0,0
112,-230,0,0,0,0,0,0,0,0,0,-1,1336,1254,0,0
119,-230,0,0,0,0,0,0,0,0,0,-1,1343,1254,0,0
126,-230,0,0,0,0,0,0,0,0,0,-1,1350,1254,0,0
133,-230,0,0,0,0,0,0,0,0,0,-1,1357,1254,0,0
140,-230,0,0,0,0,0,0,0,0,0,-1,1364,1254,0,0
147,-230,0,0,0,0,0,0,0,0,0,-1,1371,1254,0,0
154,-230,0,0,0,0,0,0,0,0,0,-1,1378,1254,0,0
161,-230,0,0,0,0,0,0,0,0,0,-1,1385,1254,0,0
168,-230,0,0,0,0,0,0,0,0,0,-1,1392,1254,0,0
175,-230,0,0,0,0,0,0,0,0,0,-1,1399,1254,0,0
182,-230,0,0,0,0,0,0,0,0,0,-1,1406,1254,0,0
189,-230,0,0,0,0,0,0,0,0,0,-1,1413,1254,0,0
196,-230,0,0,0,0,0,0,0,0,0,-1,1420,1254,0,0
203,-230,0,0,0,0,0,0,0,0,0,-1,1427,1254,0,0
210,-230,0,0,0,0,0,0,0,0,0,-1,1434,1254,0,0
217,-230,0,0,0,0,0,0,0,0,0,-1,1441,1254,0,0
224,-230,0,0,0,0,0,0,0,0,0,-1,1448,1254,0,0
231,-230,0,0,0,0,0,0,0,0,0,-1,1455,1254,0,0
238,-230,0,0,0,0,0,0,0,0,0,-1,1462,1254,0,0
245,-230,0,0,0,0,0,0,0,0,0,-1,1469,1254,0,0
252,-230,0,0,0,0,0,0,0,0,0,-1,1476,1254,0,0
259,-230,0,0,0,0,0,0,0,0,0,-1,1483,1254,0,0
266,-230,0,0,0,0,0,0,0,0,0,-1,1490,1254,0,0
273,-230,0,0,0,0,0,0,0,0,0,-1,1497,1254,0,0
280,-230,0,0,0,0,0,0,0,0,0,-1,1504,1254,0,0
287,-230,0,0,0,0,0,0,0,0,0,-1,1511,1254,0,0
294,-230,0,0,0,0,0,0,0,0,0,-1,1518,1254,0,0
301,-230,0,0,0,0,0,0,0,0,0,-1,1525,1254,0,0
308,-230,0,0,0,0,0,0,0,0,0,-1,1532,1254,0,0
315,-230,0,0,0,0,0,0,0,0,0,-1,1539,1254,0,0
322,-230,0,0,0,0,0,0,0,0,0,-1,1546,1254,0,0
329,-230,0,0,0,0,0,0,0,0,0,-1,1553,1254,0,0
336,-230,0,0,0,0,0,0,0,0,0,-1,1560,1254,0,0
343,-230,0,0,0,0,0,0,0,0,0,-1,1567,1254,0,0
350,-230,0,0,0,0,0,0,0,0,0,-1,1574,1254,0,0
357,-230,0,0,0,0,0,0,0,0,0,-1,1581,1254,0,0
364,-230,0,0,0,0,0,0,0,0,0,-1,1588,1254,0,0
371,-230,0,0,0,0,0,0,0,0,0,-1,1595,1254,0,0
378,-230,0,0,0,0,0,0,0,0,0,-1,1602,1254,0,0
385,-230,0,0,0,0,0,0,0,0,0,-1,1609,1254,0,0
392,-230,0,0,0,0,0,0,0,0,0,-1,1616,1254,0,0
399,-230,0,0,0,0,0,0,0,0,0,-1,1623,1254,0,0
406,-230,0,0,0,0,0,0,0,0,0,-1,1630,1254,0,0
413,-230,0,0,0,0,0,0,0,0,0,-1,1637,1254,0,0
420,-230,0,0,0,0,0,0,0,0,0,-1,1644,1254,0,0
427,-230,0,0,0,0,0,0,0,0,0,-1,1651,1254,0,0
434,-230,0,0,0,0,0,0,0,0,0,-1,1658,1254,0,0
441,-230,0,0,0,0,0,0,0,0,0,-1,1665,1254,0,0
448,-230,0,0,0,0,0,0,0,0,0,-1,1672,1254,0,0
455,-230,0,0,0,0,0,0,0,0,0,-1,1679,1254,0,0
462,-230,0,0,0,0,0,0,0,0,0,-1,1686,1254,0,0
469,-230,0,0,0,0,0,0,0,0,0,-1,1693,1254,0,0
476,-230,0,0,0,0,0,0,0,0,0,-1,1700,1254,0,0
483,-230,0,0,0,0,0,0,0,0,0,-1,1707,1254,0,0
490,-230,0,0,0,0,0,0,0,0,0,-1,1714,1254,0,0
497,-230,0,0,0,0,0,0,0,0,0,-1,1721,1254,0,0
504,-230,0,0,0,0,0,0,0,0,0,-1,1728,1254,0,0
511,-230,0,0,0,0,0,0,0,0,0,-1,1735,1254,0,0
518,-230,0,0,0,0,0,0,0,0,0,-1,1742,1254,0,0
525,-230,0,0,0,0,0,0,0,0,0,-1,1749,1254,0,0
532,-230,0,0,0,0,0,0,0,0,0,-1,1756,1254,0,0
539,-230,0,0,0,0,0,0,0,0,0,-1,1763,1254,0,0
546,-230,0,0,0,0,0,0,0,0,0,-1,1770,1254,0,0
553,-230,0,0,0,0,0,0,0,0,0,-1,1777,1254,0,0
560,-230,0,0,0,0,0,0,0,0,0,-1,1784,1254,0,0
567,-230,0,0,0,0,0,0,0,0,0,-1,1791,1254,0,0
574,-230,0,0,0,0,0,0,0,0,0,-1,1798,1254,0,0
581,-230,0,0,0,0,0,0,0,0,0,-1,1805,1254,0,0
588,-230,0,0,0,0,0,0,0,0,0,-1,1812,1254,0,0
595,-230,0,0,0,0,0,0,0,0,0,-1,1819,1254,0,0
602,-230,0,0,0,0,0,0,0,0,0,-1,1826,1254,0,0
609,-230,0,0,0,0,0,0,0,0,0,-1,1833,1254,0,0
616,-230,49.3521,2.71667,0.00414395,-0.00192449,1.18026e-05,0.00414397,-0.00192451,0.00194491,0.00358089,0.0383167,1840,1254,49.352,-2.71662
623,-230,49.4486,2.72998,0.001029,0.00239067,-0.00103401,0.00294786,0.000471806,-1.07654,0.00182838,0.0362684,1847,1254,49.4486,-2.72997
630,-230,49.4912,2.74756,-0.00145979,0.00599382,-0.00217613,0.00658263,-0.00204861,-1.30654,0.00520739,0.0317493,1854,1254,49.4912,-2.74761
637,-230,49.4042,2.70569,-0.00340472,0.00896876,-0.00324903,0.00977001,-0.00420596,-1.32901,0.00827944,0.0264034,1861,1254,49.4041,-2.70565
644,-230,49.3373,2.65674,-0.00399434,0.00968028,-0.003301,0.0104354,-0.00474949,-1.3459,0.00896955,0.0209187,1868,1254,49.3373,-2.65668
651,-230,49.2865,2.55322,-0.00363861,0.0088682,-0.00322608,0.00965132,-0.00442173,-1.33266,0.00830998,0.0454807,1875,1254,49.2865,-2.5532
658,-230,49.2595,2.47839,0,0,0,0,0,0,0,-1,1882,1254,49.2595,-2.47836
665,-230,49.7531,2.41833,0,0,0,0,0,0,0,-1,1889,1254,49.753,-2.41831
672,-230,43.0962,2.78699,0,0,0,0,0,0,0,-1,1896,1254,43.0962,-2.78698
679,-230,27.9967,2.37708,0,0,0,0,0,0,0,-1,1903,1254,27.9967,-2.3771
686,-230,38.4119,9.87354,0,0,0,0,0,0,0,-1,1910,1254,38.4119,-9.87356
693,-230,38.422,9.58923,-0.000981756,0.00216677,-0.00109505,0.00251017,-0.00132516,-1.26691,0.00224928,0.0469994,1917,1254,38.422,-9.58927
700,-230,38.4501,9.229,-0.000184525,0.0012595,-0.00080056,0.00161554,-0.000540565,-1.15233,0.00129538,0.0212426,1924,1254,38.45,-9.22898
707,-230,38.3829,8.776,-0.000362026,-0.000139976,-6.95891e-05,-0.000119969,-0.000382032,-1.29085,0.000225595,0.0111259,1931,1254,38.3829,-8.77598
714,-230,38.3624,8.33557,-0.000609872,-0.000822084,0.000737789,2.94023e-05,-0.00146136,0.71398,0.000984186,0.0124431,1938,1254,38.3624,-8.33552
721,-230,38.3655,7.87598,-0.000851364,-0.000833503,0.00129622,0.000453816,-0.00213868,0.788843,0.00159868,0.013106,1945,1254,38.3655,-7.87594
728,-230,38.3335,7.44958,-0.000663578,-0.000553029,0.00182414,0.00121668,-0.00243328,0.800544,0.00214597,0.0151326,1952,1254,38.3335,-7.44955
735,-230,38.3131,7.04004,-0.000559653,-0.000509158,0.00204406,0.00150982,-0.00257863,0.791574,0.0023872,0.0156815,1959,1254,38.3132,-7.04001
742,-230,38.2726,6.56372,-0.000699591,-0.000626245,0.00196053,0.00129796,-0.00262379,0.79475,0.00230695,0.0115269,1966,1254,38.2726,-6.56371
749,-230,38.2681,6.07068,-0.000712351,-0.000785977,0.00186961,0.00112081,-0.00261914,0.775554,0.00221627,0.011021,1973,1254,38.2681,-6.07065
756,-230,38.2468,5.6582,-0.000807103,-0.00126556,0.00104527,3.37842e-05,-0.00210644,0.677458,0.00141569,0.0160561,1980,1254,38.2468,-5.65821
763,-230,38.2491,5.25647,-0.00116086,-0.00268449,-0.000880647,-0.000758244,-0.00308711,-0.428811,0.00185764,0.0351882,1987,1254,38.2491,-5.25642
770,-230,38.616,4.84729,0,0,0,0,0,0,0,-1,1994,1254,38.616,-4.84723
777,-230,38.1431,4.53394,0,0,0,0,0,0,0,-1,2001,1254,38.143,-4.53391
784,-230,35.8896,1.80334,0,0,0,0,0,0,0,-1,2008,1254,35.8897,-1.80338
791,-230,35.6028,2.20642,0,0,0,0,0,0,0,-1,2015,1254,35.6027,-2.2064
798,-230,0,0,0,0,0,0,0,0,0,-1,2022,1254,0,0
805,-230,0,0,0,0,0,0,0,0,0,-1,2029,1254,0,0
812,-230,0,0,0,0,0,0,0,0,0,-1,2036,1254,0,0
-700,-237,0,0,0,0,0,0,0,0,0,-1,524,1261,0,0
-693,-237,0,0,0,0,0,0,0,0,0,-1,531,1261,0,0
-686,-237,0,0,0,0,0,0,0,0,0,-1,538,1261,0,0
-679,-237,0,0,0,0,0,0,0,0,0,-1,545,1261,0,0
-672,-237,-35.2999,-6.50769,0,0,0,0,0,0,0,-1,552,1261,-35.2998,6.50774
-665,-237,-28.1877,13.9741,0,0,0,0,0,0,0,-1,559,1261,-28.1878,-13.9742
-658,-237,-35.4324,-4.62085,0,0,0,0,0,0,0,-1,566,1261,-35.4324,4.62081
-651,-237,-34.6639,-3.00244,0,0,0,0,0,0,0,-1,573,1261,-34.664,3.0024
-644,-237,-34.0914,-0.665649,0,0,0,0,0,0,0,-1,580,1261,-34.0914,0.665635
-637,-237,-24.1819,1.41772,0,0,0,0,0,0,0,-1,587,1261,-24.1819,-1.41767
-630,-237,-24.2794,2.24646,0,0,0,0,0,0,0,-1,594,1261,-24.2794,-2.24641
-623,-237,-24.2396,2.9303,0.0420436,0.000970052,0.0191089,0.0495587,-0.00654508,0.374699,0.035423,0.0313808,601,1261,-24.2396,-2.93031
-616,-237,-24.2134,3.53442,0.0291217,0.0036399,0.0131314,0.0346774,-0.00191578,0.400245,0.0237826,0.0136922,608,1261,-24.2134,-3.53443
-609,-237,-24.2511,4.04114,0.0186346,0.00405254,0.00838524,0.0224553,0.000231796,0.427543,0.0148936,0.0165398,615,1261,-24.2511,-4.04111
-602,-237,-24.2733,4.53308,0.0106616,0.00249974,0.00489297,0.0129521,0.000209229,0.437821,0.00856583,0.0124984,622,1261,-24.2733,-4.53308
-595,-237,-24.3212,5.04028,0.00501254,0.00107543,0.00234712,0.00610734,-1.9378e-05,0.436447,0.00407804,0.0155925,629,1261,-24.3212,-5.04026
-588,-237,-24.3303,5.55505,0.00305979,-0.000109916,0.00118506,0.00345386,-0.000503986,0.321028,0.00248764,0.0259528,636,1261,-24.3303,-5.55507
-581,-237,-24.354,6.06372,0.00306922,-0.00103452,0.000545554,0.00314051,-0.0011058,0.129935,0.0025437,0.0241909,643,1261,-24.354,-6.06377
-574,-237,-24.3516,6.55737,0.00349167,-0.00193995,3.15922e-05,0.00349186,-0.00194013,0.00581608,0.00317853,0.0167497,650,1261,-24.3516,-6.55734
-567,-237,-24.3178,7.07727,0.003926,-0.00280596,-0.000357796,0.00394496,-0.00282492,-0.05295,0.00392638,0.0267626,657,1261,-24.3178,-7.07726
-560,-237,-24.1992,7.49036,0,0,0,0,0,0,0,-1,664,1261,-24.1991,-7.49032
-553,-237,-20.6102,6.92139,0,0,0,0,0,0,0,-1,671,1261,-20.6102,-6.92138
-546,-237,-11.192,1.14014,0,0,0,0,0,0,0,-1,678,1261,-11.192,-1.14011
-539,-237,-16.512,1.53455,0,0,0,0,0,0,0,-1,685,1261,-16.512,-1.53457
-532,-237,-29.7025,1.23621,0,0,0,0,0,0,0,-1,692,1261,-29.7025,-1.23618
-525,-237,-33.0974,1.11963,0,0,0,0,0,0,0,-1,699,1261,-33.0974,-1.11964
-518,-237,-36.1718,0.723022,0,0,0,0,0,0,0,-1,706,1261,-36.1717,-0.723004
-511,-237,-36.4455,0.936646,-0.00532309,-0.00162649,0.00427115,0.00117913,-0.0081287,0.989603,0.00585191,0.0471386,713,1261,-36.4455,-0.936613
-504,-237,-36.684,1.11133,-0.00687092,-0.000107647,0.0059962,0.00339475,-0.0103733,1.04215,0.00828237,0.04212,720,1261,-36.684,-1.1113
-497,-237,-36.5313,1.13501,-0.00730448,0.00270025,0.00840829,0.0074817,-0.0120859,1.05374,0.0114011,0.0435988,727,1261,-36.5313,-1.13499
-490,-237,0,0,0,0,0,0,0,0,0,-1,734,1261,0,0
-483,-237,0,0,0,0,0,0,0,0,0,-1,741,1261,0,0
-476,-237,0,0,0,0,0,0,0,0,0,-1,748,1261,0,0
-469,-237,0,0,0,0,0,0,0,0,0,-1,755,1261,0,0
-462,-237,0,0,0,0,0,0,0,0,0,-1,762,1261,0,0
-455,-237,0,0,0,0,0,0,0,0,0,-1,769,1261,0,0
-448,-237,0,0,0,0,0,0,0,0,0,-1,776,1261,0,0
-441,-237,0,0,0,0,0,0,0,0,0,-1,783,1261,0,0
-434,-237,0,0,0,0,0,0,0,0,0,-1,790,1261,0,0
-427,-237,0,0,0,0,0,0,0,0,0,-1,797,1261,0,0
-420,-237,0,0,0,0,0,0,0,0,0,-1,804,1261,0,0
-413,-237,0,0,0,0,0,0,0,0,0,-1,811,1261,0,0
-406,-237,0,0,0,0,0,0,0,0,0,-1,818,1261,0,0
-399,-237,0,0,0,0,0,0,0,0,0,-1,825,1261,0,0
-392,-237,0,0,0,0,0,0,0,0,0,-1,832,1261,0,0
-385,-237,0,0,0,0,0,0,0,0,0,-1,839,1261,0,0
-378,-237,0,0,0,0,0,0,0,0,0,-1,846,1261,0,0
-371,-237,0,0,0,0,0,0,0,0,0,-1,853,1261,0,0
-364,-237,0,0,0,0,0,0,0,0,0,-1,860,1261,0,0
-357,-237,0,0,0,0,0,0,0,0,0,-1,867,1261,0,0
-350,-237,0,0,0,0,0,0,0,0,0,-1,874,1261,0,0
-343,-237,0,0,0,0,0,0,0,0,0,-1,881,1261,0,0
-336,-237,0,0,0,0,0,0,0,0,0,-1,888,1261,0,0
-329,-237,0,0,0,0,0,0,0,0,0,-1,895,1261,0,0
-322,-237,0,0,0,0,0,0,0,0,0,-1,902,1261,0,0
-315,-237,0,0,0,0,0,0,0,0,0,-1,909,1261,0,0
-308,-237,0,0,0,0,0,0,0,0,0,-1,916,1261,0,0
-301,-237,0,0,0,0,0,0,0,0,0,-1,923,1261,0,0
-294,-237,0,0,0,0,0,0,0,0,0,-1,930,1261,0,0
-287,-237,0,0,0,0,0,0,0,0,0,-1,937,1261,0,0
-280,-237,0,0,0,0,0,0,0,0,0,-1,944,1261,0,0
-273,-237,0,0,0,0,0,0,0,0,0,-1,951,1261,0,0
-266,-237,0,0,0,0,0,0,0,0,0,-1,958,1261,0,0
-259,-237,0,0,0,0,0,0,0,0,0,-1,965,1261,0,0
-252,-237,0,0,0,0,0,0,0,0,0,-1,972,1261,0,0
-245,-237,0,0,0,0,0,0,0,0,0,-1,979,1261,0,0
-238,-237,0,0,0,0,0,0,0,0,0,-1,986,1261,0,0
-231,-237,0,0,0,0,0,0,0,0,0,-1,993,1261,0,0
-224,-237,0,0,0,0,0,0,0,0,0,-1,1000,1261,0,0
-217,-237,0,0,0,0,0,0,0,0,0,-1,1007,1261,0,0
-210,-237,0,0,0,0,0,0,0,0,0,-1,1014,1261,0,0
-203,-237,0,0,0,0,0,0,0,0,0,-1,1021,1261,0,0
-196,-237,0,0,0,0,0,0,0,0,0,-1,1028,1261,0,0
-189,-237,0,0,0,0,0,0,0,0,0,-1,1035,1261,0,0
-182,-237,0,0,0,0,0,0,0,0,0,-1,1042,1261,0,0
-175,-237,0,0,0,0,0,0,0,0,0,-1,1049,1261,0,0
-168,-237,0,0,0,0,0,0,0,0,0,-1,1056,1261,0,0
-161,-237,0,0,0,0,0,0,0,0,0,-1,1063,1261,0,0
-154,-237,0,0,0,0,0,0,0,0,0,-1,1070,1261,0,0
-147,-237,0,0,0,0,0,0,0,0,0,-1,1077,1261,0,0
-140,-237,0,0,0,0,0,0,0,0,0,-1,1084,1261,0,0
-133,-237,0,0,0,0,0,0,0,0,0,-1,1091,1261,0,0
-126,-237,0,0,0,0,0,0,0,0,0,-1,1098,1261,0,0
-119,-237,0,0,0,0,0,0,0,0,0,-1,1105,1261,0,0
-112,-237,0,0,0,0,0,0,0,0,0,-1,1112,1261,0,0
-105,-237,0,0,0,0,0,0,0,0,0,-1,1119,1261,0,0
-98,-237,0,0,0,0,0,0,0,0,0,-1,1126,1261,0,0
-91,-237,0,0,0,0,0,0,0,0,0,-1,1133,1261,0,0
-84,-237,0,0,0,0,0,0,0,0,0,-1,1140,1261,0,0
-77,-237,0,0,0,0,0,0,0,0,0,-1,1147,1261,0,0
-70,-237,0,0,0,0,0,0,0,0,0,-1,1154,1261,0,0
-63,-237,0,0,0,0,0,0,0,0,0,-1,1161,1261,0,0
-56,-237,0,0,0,0,0,0,0,0,0,-1,1168,1261,0,0
-49,-237,0,0,0,0,0,0,0,0,0,-1,1175,1261,0,0
-42,-237,0,0,0,0,0,0,0,0,0,-1,1182,1261,0,0
-35,-237,0,0,0,0,0,0,0,0,0,-1,1189,1261,0,0
-28,-237,0,0,0,0,0,0,0,0,0,-1,1196,1261,0,0
-21,-237,0,0,0,0,0,0,0,0,0,-1,1203,1261,0,0
-14,-237,0,0,0,0,0,0,0,0,0,-1,1210,1261,0,0
-7,-237,0,0,0,0,0,0,0,0,0,-1,1217,1261,0,0
0,-237,0,0,0,0,0,0,0,0,0,-1,1224,1261,0,0
7,-237,0,0,0,0,0,0,0,0,0,-1,1231,1261,0,0
14,-237,0,0,0,0,0,0,0,0,0,-1,1238,1261,0,0
21,-237,0,0,0,0,0,0,0,0,0,-1,1245,1261,0,0
28,-237,0,0,0,0,0,0,0,0,0,-1,1252,1261,0,0
35,-237,0,0,0,0,0,0,0,0,0,-1,1259,1261,0,0
42,-237,0,0,0,0,0,0,0,0,0,-1,1266,1261,0,0
49,-237,0,0,0,0,0,0,0,0,0,-1,1273,1261,0,0
56,-237,0,0,0,0,0,0,0,0,0,-1,1280,1261,0,0
63,-237,0,0,0,0,0,0,0,0,0,-1,1287,1261,0,0
70,-237,0,0,0,0,0,0,0,0,0,-1,1294,1261,0,0
77,-237,0,0,0,0,0,0,0,0,0,-1,1301,1261,0,0
84,-237,0,0,0,0,0,0,0,0,0,-1,1308,1261,0,0
91,-237,0,0,0,0,0,0,0,0,0,-1,1315,1261,0,0
98,-237,0,0,0,0,0,0,0,0,0,-1,1322,1261,0,0
105,-237,0,0,0,0,0,0,0,0,0,-1,1329,1261,0,0
112,-237,0,0,0,0,0,0,0,0,0,-1,1336,1261,0,0
119,-237,0,0,0,0,0,0,0,0,0,-1,1343,1261,0,0
126,-237,0,0,0,0,0,0,0,0,0,-1,1350,1261,0,0
133,-237,0,0,0,0,0,0,0,0,0,-1,1357,1261,0,0
140,-237,0,0,0,0,0,0,0,0,0,-1,1364,1261,0,0
147,-237,0,0,0,0,0,0,0,0,0,-1,1371,1261,0,0
154,-237,0,0,0,0,0,0,0,0,0,-1,1378,1261,0,0
161,-237,0,0,0,0,0,0,0,0,0,-1,1385,1261,0,0
168,-237,0,0,0,0,0,0,0,0,0,-1,1392,1261,0,0
175,-237,0,0,0,0,0,0,0,0,0,-1,1399,1261,0,0
182,-237,0,0,0,0,0,0,0,0,0,-1,1406,1261,0,0
189,-237,0,0,0,0,0,0,0,0,0,-1,1413,1261,0,0
196,-237,0,0,0,0,0,0,0,0,0,-1,1420,1261,0,0
203,-237,0,0,0,0,0,0,0,0,0,-1,1427,1261,0,0
210,-237,0,0,0,0,0,0,0,0,0,-1,1434,1261,0,0
217,-237,0,0,0,0,0,0,0,0,0,-1,1441,1261,0,0
224,-237,0,0,0,0,0,0,0,0,0,-1,1448,1261,0,0
231,-237,0,0,0,0,0,0,0,0,0,-1,1455,1261,0,0
238,-237,0,0,0,0,0,0,0,0,0,-1,1462,1261,0,0
245,-237,0,0,0,0,0,0,0,0,0,-1,1469,1261,0,0
252,-237,0,0,0,0,0,0,0,0,0,-1,1476,1261,0,0
259,-237,0,0,0,0,0,0,0,0,0,-1,1483,1261,0,0
266,-237,0,0,0,0,0,0,0,0,0,-1,1490,1261,0,0
273,-237,0,0,0,0,0,0,0,0,0,-1,1497,1261,0,0
280,-237,0,0,0,0,0,0,0,0,0,-1,1504,1261,0,0
287,-237,0,0,0,0,0,0,0,0,0,-1,1511,1261,0,0
294,-237,0,0,0,0,0,0,0,0,0,-1,1518,1261,0,0
301,-237,0,0,0,0,0,0,0,0,0,-1,1525,1261,0,0
308,-237,0,0,0,0,0,0,0,0,0,-1,1532,1261,0,0
315,-237,0,0,0,0,0,0,0,0,0,-1,1539,1261,0,0
322,-237,0,0,0,0,0,0,0,0,0,-1,1546,1261,0,0
329,-237,0,0,0,0,0,0,0,0,0,-1,1553,1261,0,0
336,-237,0,0,0,0,0,0,0,0,0,-1,1560,1261,0,0
343,-237,0,0,0,0,0,0,0,0,0,-1,1567,1261,0,0
350,-237,0,0,0,0,0,0,0,0,0,-1,1574,1261,0,0
357,-237,0,0,0,0,0,0,0,0,0,-1,1581,1261,0,0
364,-237,0,0,0,0,0,0,0,0,0,-1,1588,1261,0,0
371,-237,0,0,0,0,0,0,0,0,0,-1,1595,1261,0,0
378,-237,0,0,0,0,0,0,0,0,0,-1,1602,1261,0,0
385,-237,0,0,0,0,0,0,0,0,0,-1,1609,1261,0,0
392,-237,0,0,0,0,0,0,0,0,0,-1,1616,1261,0,0
399,-237,0,0,0,0,0,0,0,0,0,-1,1623,1261,0,0
406,-237,0,0,0,0,0,0,0,0,0,-1,1630,1261,0,0
413,-237,0,0,0,0,0,0,0,0,0,-1,1637,1261,0,0
420,-237,0,0,0,0,0,0,0,0,0,-1,1644,1261,0,0
427,-237,0,0,0,0,0,0,0,0,0,-1,1651,1261,0,0
434,-237,0,0,0,0,0,0,0,0,0,-1,1658,1261,0,0
441,-237,0,0,0,0,0,0,0,0,0,-1,1665,1261,0,0
448,-237,0,0,0,0,0,0,0,0,0,-1,1672,1261,0,0
455,-237,0,0,0,0,0,0,0,0,0,-1,1679,1261,0,0
462,-237,0,0,0,0,0,0,0,0,0,-1,1686,1261,0,0
469,-237,0,0,0,0,0,0,0,0,0,-1,1693,1261,0,0
476,-237,0,0,0,0,0,0,0,0,0,-1,1700,1261,0,0
483,-237,0,0,0,0,0,0,0,0,0,-1,1707,1261,0,0
490,-237,0,0,0,0,0,0,0,0,0,-1,1714,1261,0,0
497,-237,0,0,0,0,0,0,0,0,0,-1,1721,1261,0,0
504,-237,0,0,0,0,0,0,0,0,0,-1,1728,1261,0,0
511,-237,0,0,0,0,0,0,0,0,0,-1,1735,1261,0,0
518,-237,0,0,0,0,0,0,0,0,0,-1,1742,1261,0,0
525,-237,0,0,0,0,0,0,0,0,0,-1,1749,1261,0,0
532,-237,0,0,0,0,0,0,0,0,0,-1,1756,1261,0,0
539,-237,0,0,0,0,0,0,0,0,0,-1,1763,1261,0,0
546,-237,0,0,0,0,0,0,0,0,0,-1,1770,1261,0,0
553,-237,0,0,0,0,0,0,0,0,0,-1,1777,1261,0,0
560,-237,0,0,0,0,0,0,0,0,0,-1,1784,1261,0,0
567,-237,0,0,0,0,0,0,0,0,0,-1,1791,1261,0,0
574,-237,0,0,0,0,0,0,0,0,0,-1,1798,1261,0,0
581,-237,0,0,0,0,0,0,0,0,0,-1,1805,1261,0,0
588,-237,0,0,0,0,0,0,0,0,0,-1,1812,1261,0,0
595,-237,0,0,0,0,0,0,0,0,0,-1,1819,1261,0,0
602,-237,0,0,0,0,0,0,0,0,0,-1,1826,1261,0,0
609,-237,0,0,0,0,0,0,0,0,0,-1,1833,1261,0,0
616,-237,49.4274,2.71423,0.00285681,0.000333482,-0.000147418,0.00286539,0.000324898,-0.0581585,0.0018117,0.03804,1840,1261,49.4274,-2.71418
623,-237,49.4697,2.73877,-0.00057986,0.00498216,-0.00135806,0.00529604,-0.000893741,-1.34366,0.00386323,0.0346571,1847,1261,49.4697,-2.7388
630,-237,49.4635,2.75488,-0.00357408,0.00902517,-0.00262844,0.00955152,-0.00410043,-1.37316,0.00808869,0.0268515,1854,1261,49.4635,-2.75491
637,-237,49.3302,2.66296,-0.00554151,0.0117127,-0.00363528,0.0124474,-0.00627615,-1.3714,0.011004,0.0212342,1861,1261,49.3302,-2.66299
644,-237,49.1149,2.43835,-0.00560473,0.0114641,-0.00338352,0.0121104,-0.00625097,-1.38207,0.0107794,0.0409082,1868,1261,49.1149,-2.43841
651,-237,49.2061,2.16809,-0.00487719,0.0100865,-0.00315714,0.0107254,-0.00551603,-1.37114,0.0095364,0.0491033,1875,1261,49.2061,-2.16811
658,-237,49.1578,1.8446,-0.00401617,0.00853873,-0.00282481,0.00914503,-0.00462247,-1.35937,0.00809036,0.0461631,1882,1261,49.1578,-1.84465
665,-237,49.1127,1.56213,0,0,0,0,0,0,0,-1,1889,1261,49.1127,-1.56215
672,-237,45.3922,1.95618,0,0,0,0,0,0,0,-1,1896,1261,45.3922,-1.95623
679,-237,23.1501,7.37488,0,0,0,0,0,0,0,-1,1903,1261,23.1502,-7.37493
686,-237,36.8348,9.99426,0,0,0,0,0,0,0,-1,1910,1261,36.8349,-9.99424
693,-237,37.71,9.68005,0,0,0,0,0,0,0,-1,1917,1261,37.71,-9.68002
700,-237,37.931,9.27917,-0.000187514,0.00141805,-0.000743952,0.00170976,-0.000479229,-1.19711,0.00132871,0.0138227,1924,1261,37.931,-9.27913
707,-237,37.9143,8.81543,-0.00044942,-9.36106e-05,7.08146e-05,-8.00348e-05,-0.000462996,1.38139,0.000285747,0.0105854,1931,1261,37.9143,-8.81546
714,-237,37.8982,8.35254,-0.000710119,-0.000720926,0.000884043,0.000168537,-0.00159958,0.782342,0.00112678,0.0148935,1938,1261,37.8982,-8.35249
721,-237,37.8605,7.91187,-0.000921005,-0.000669539,0.00138968,0.000600082,-0.00219063,0.830514,0.0016962,0.0166202,1945,1261,37.8605,-7.91189
728,-237,37.8672,7.4657,-0.000819723,-0.000408906,0.00187025,0.00126718,-0.00249581,0.840094,0.00221082,0.0149468,1952,1261,37.8672,-7.46575
735,-237,37.8529,6.9989,-0.000722116,-0.000230109,0.00224034,0.0017777,-0.00272992,0.840082,0.00262176,0.0197198,1959,1261,37.8529,-6.99889
742,-237,37.835,6.56396,-0.000660526,-9.34533e-05,0.00249969,0.00213873,-0.00289271,0.841871,0.00291576,0.0149452,1966,1261,37.8349,-6.56403
749,-237,37.8035,6.12268,-0.00042078,8.46537e-05,0.00286662,0.00270967,-0.0030458,0.829364,0.00332481,0.0102924,1973,1261,37.8035,-6.12266
756,-237,37.7393,5.70325,4.87348e-05,0.000222803,0.00276908,0.00290622,-0.00263468,0.801108,0.00320032,0.0172883,1980,1261,37.7393,-5.70326
763,-237,37.6533,5.28711,0.000809824,-0.000154035,0.0020823,0.00246523,-0.00180944,0.67168,0.00247765,0.0351806,1987,1261,37.6534,-5.28707
770,-237,37.9132,4.77014,0,0,0,0,0,0,0,-1,1994,1261,37.9132,-4.77009
777,-237,38.2533,4.21558,0,0,0,0,0,0,0,-1,2001,1261,38.2533,-4.21562
784,-237,36.3441,1.68591,0,0,0,0,0,0,0,-1,2008,1261,36.3441,-1.68592
791,-237,32.3025,6.03235,0,0,0,0,0,0,0,-1,2015,1261,32.3025,-6.03229
798,-237,0,0,0,0,0,0,0,0,0,-1,2022,1261,0,0
805,-237,0,0,0,0,0,0,0,0,0,-1,2029,1261,0,0
812,-237,0,0,0,0,0,0,0,0,0,-1,2036,1261,0,0
-700,-244,0,0,0,0,0,0,0,0,0,-1,524,1268,0,0
-693,-244,0,0,0,0,0,0,0,0,0,-1,531,1268,0,0
-686,-244,0,0,0,0,0,0,0,0,0,-1,538,1268,0,0
-679,-244,0,0,0,0,0,0,0,0,0,-1,545,1268,0,0
-672,-244,-36.1747,-6.93701,0,0,0,0,0,0,0,-1,552,1268,-36.1747,6.93706
-665,-244,-36.2567,-5.21753,0,0,0,0,0,0,0,-1,559,1268,-36.2567,5.21755
-658,-244,-36.2474,-3.48572,0,0,0,0,0,0,0,-1,566,1268,-36.2474,3.48571
-651,-244,-35.7643,-3.32861,0,0,0,0,0,0,0,-1,573,1268,-35.7643,3.32865
-644,-244,-35.4961,-1.87769,0,0,0,0,0,0,0,-1,580,1268,-35.4961,1.87774
-637,-244,-24.3182,1.25684,0,0,0,0,0,0,0,-1,587,1268,-24.3182,-1.25678
-630,-244,-24.1719,1.98535,0.0816374,0.00145337,0.0353016,0.0949643,-0.0118734,0.360972,0.0676157,0.0437973,594,1268,-24.1719,-1.98535
-623,-244,-23.9138,2.87244,0.0596254,0.00364196,0.0260386,0.0698638,-0.00659649,0.374633,0.0489232,0.0323605,601,1268,-23.9138,-2.8725
-616,-244,-23.7104,3.56116,0.0416448,0.00520655,0.0182713,0.0492284,-0.00237698,0.393414,0.0336392,0.0161079,608,1268,-23.7105,-3.56113
-609,-244,-23.7488,4.05518,0.0269497,0.00498811,0.0119797,0.0322197,-0.000281967,0.414438,0.0215744,0.0141717,615,1268,-23.7488,-4.05512
-602,-244,-23.7787,4.53345,0.0157045,0.00323663,0.00722487,0.0190131,-7.20117e-05,0.429447,0.0126995,0.0157528,622,1268,-23.7787,-4.53346
-595,-244,-23.8088,5.06848,0.00733861,0.00160058,0.00361847,0.00908745,-0.000148261,0.450206,0.00610832,0.0167031,629,1268,-23.8088,-5.06842
-588,-244,-23.7938,5.63953,0.00349136,0.000264403,0.00171213,0.00423047,-0.00047471,0.407526,0.00299113,0.0201142,636,1268,-23.7938,-5.63957
-581,-244,-23.8335,6.12769,0.00313954,-0.000908727,0.000947857,0.00335048,-0.00111967,0.218975,0.00268583,0.0173776,643,1268,-23.8335,-6.12769
-574,-244,-23.8555,6.61206,0.00350114,-0.00201386,0.000450045,0.00353763,-0.00205034,0.0808906,0.00326408,0.0129395,650,1268,-23.8556,-6.6121
-567,-244,-23.8438,7.12378,0.00402957,-0.00306218,0.000114724,0.00403142,-0.00306403,0.0161715,0.00410924,0.0154436,657,1268,-23.8438,-7.12373
-560,-244,-23.7608,7.60181,0.00321673,-0.00320551,9.06468e-05,0.00321801,-0.00320678,0.0141108,0.00370936,0.0382507,664,1268,-23.7608,-7.60182
-553,-244,-23.6354,8.0802,0,0,0,0,0,0,0,-1,671,1268,-23.6354,-8.08018
-546,-244,-11.2686,4.41772,0,0,0,0,0,0,0,-1,678,1268,-11.2686,-4.41767
-539,-244,-12.8706,0.3302,0,0,0,0,0,0,0,-1,685,1268,-12.8706,-0.330156
-532,-244,-18.1502,0.816528,0,0,0,0,0,0,0,-1,692,1268,-18.1502,-0.816514
-525,-244,-33.0835,0.693604,0,0,0,0,0,0,0,-1,699,1268,-33.0835,-0.69365
-518,-244,-33.1169,0.668091,0,0,0,0,0,0,0,-1,706,1268,-33.1169,-0.668103
-511,-244,-36.3937,0.966797,0,0,0,0,0,0,0,-1,713,1268,-36.3937,-0.966848
-504,-244,-36.6557,1.09363,0,0,0,0,0,0,0,-1,720,1268,-36.6557,-1.09364
-497,-244,-36.4978,0.994751,0,0,0,0,0,0,0,-1,727,1268,-36.4978,-0.994759
-490,-244,0,0,0,0,0,0,0,0,0,-1,734,1268,0,0
-483,-244,0,0,0,0,0,0,0,0,0,-1,741,1268,0,0
-476,-244,0,0,0,0,0,0,0,0,0,-1,748,1268,0,0
-469,-244,0,0,0,0,0,0,0,0,0,-1,755,1268,0,0
-462,-244,0,0,0,0,0,0,0,0,0,-1,762,1268,0,0
-455,-244,0,0,0,0,0,0,0,0,0,-1,769,1268,0,0
-448,-244,0,0,0,0,0,0,0,0,0,-1,776,1268,0,0
-441,-244,0,0,0,0,0,0,0,0,0,-1,783,1268,0,0
-434,-244,0,0,0,0,0,0,0,0,0,-1,790,1268,0,0
-427,-244,0,0,0,0,0,0,0,0,0,-1,797,1268,0,0
-420,-244,0,0,0,0,0,0,0,0,0,-1,804,1268,0,0
-413,-244,0,0,0,0,0,0,0,0,0,-1,811,1268,0,0
-406,-244,0,0,0,0,0,0,0,0,0,-1,818,1268,0,0
-399,-244,0,0,0,0,0,0,0,0,0,-1,825,1268,0,0
-392,-244,0,0,0,0,0,0,0,0,0,-1,832,1268,0,0
-385,-244,0,0,0,0,0,0,0,0,0,-1,839,1268,0,0
-378,-244,0,0,0,0,0,0,0,0,0,-1,846,1268,0,0
-371,-244,0,0,0,0,0,0,0,0,0,-1,853,1268,0,0
-364,-244,0,0,0,0,0,0,0,0,0,-1,860,1268,0,0
-357,-244,0,0,0,0,0,0,0,0,0,-1,867,1268,0,0
-350,-244,0,0,0,0,0,0,0,0,0,-1,874,1268,0,0
-343,-244,0,0,0,0,0,0,0,0,0,-1,881,1268,0,0
-336,-244,0,0,0,0,0,0,0,0,0,-1,888,1268,0,0
-329,-244,0,0,0,0,0,0,0,0,0,-1,895,1268,0,0
-322,-244,0,0,0,0,0,0,0,0,0,-1,902,1268,0,0
-315,-244,0,0,0,0,0,0,0,0,0,-1,909,1268,0,0
-308,-244,0,0,0,0,0,0,0,0,0,-1,916,1268,0,0
-301,-244,0,0,0,0,0,0,0,0,0,-1,923,1268,0,0
-294,-244,0,0,0,0,0,0,0,0,0,-1,930,1268,0,0
-287,-244,0,0,0,0,0,0,0,0,0,-1,937,1268,0,0
-280,-244,0,0,0,0,0,0,0,0,0,-1,944,1268,0,0
-273,-244,0,0,0,0,0,0,0,0,0,-1,951,1268,0,0
-266,-244,0,0,0,0,0,0,0,0,0,-1,958,1268,0,0
-259,-244,0,0,0,0,0,0,0,0,0,-1,965,1268,0,0
-252,-244,0,0,0,0,0,0,0,0,0,-1,972,1268,0,0
-245,-244,0,0,0,0,0,0,0,0,0,-1,979,1268,0,0
-238,-244,0,0,0,0,0,0,0,0,0,-1,986,1268,0,0
-231,-244,0,0,0,0,0,0,0,0,0,-1,993,1268,0,0
-224,-244,0,0,0,0,0,0,0,0,0,-1,1000,1268,0,0
-217,-244,0,0,0,0,0,0,0,0,0,-1,1007,1268,0,0
-210,-244,0,0,0,0,0,0,0,0,0,-1,1014,1268,0,0
-203,-244,0,0,0,0,0,0,0,0,0,-1,1021,1268,0,0
-196,-244,0,0,0,0,0,0,0,0,0,-1,1028,1268,0,0
-189,-244,0,0,0,0,0,0,0,0,0,-1,1035,1268,0,0
-182,-244,0,0,0,0,0,0,0,0,0,-1,1042,1268,0,0
-175,-244,0,0,0,0,0,0,0,0,0,-1,1049,1268,0,0
-168,-244,0,0,0,0,0,0,0,0,0,-1,1056,1268,0,0
-161,-244,0,0,0,0,0,0,0,0,0,-1,1063,1268,0,0
-154,-244,0,0,0,0,0,0,0,0,0,-1,1070,1268,0,0
-147,-244,0,0,0,0,0,0,0,0,0,-1,1077,1268,0,0
-140,-244,0,0,0,0,0,0,0,0,0,-1,1084,1268,0,0
-133,-244,0,0,0,0,0,0,0,0,0,-1,1091,1268,0,0
-126,-244,0,0,0,0,0,0,0,0,0,-1,1098,1268,0,0
-119,-244,0,0,0,0,0,0,0,0,0,-1,1105,1268,0,0
-112,-244,0,0,0,0,0,0,0,0,0,-1,1112,1268,0,0
-105,-244,0,0,0,0,0,0,0,0,0,-1,1119,1268,0,0
-98,-244,0,0,0,0,0,0,0,0,0,-1,1126,1268,0,0
-91,-244,0,0,0,0,0,0,0,0,0,-1,1133,1268,0,0
-84,-244,0,0,0,0,0,0,0,0,0,-1,1140,1268,0,0
-77,-244,0,0,0,0,0,0,0,0,0,-1,1147,1268,0,0
-70,-244,0,0,0,0,0,0,0,0,0,-1,1154,1268,0,0
-63,-244,0,0,0,0,0,0,0,0,0,-1,1161,1268,0,0
-56,-244,0,0,0,0,0,0,0,0,0,-1,1168,1268,0,0
-49,-244,0,0,0,0,0,0,0,0,0,-1,1175,1268,0,0
-42,-244,0,0,0,0,0,0,0,0,0,-1,1182,1268,0,0
-35,-244,0,0,0,0,0,0,0,0,0,-1,1189,1268,0,0
-28,-244,0,0,0,0,0,0,0,0,0,-1,1196,1268,0,0
-21,-244,0,0,0,0,0,0,0,0,0,-1,1203,1268,0,0
-14,-244,0,0,0,0,0,0,0,0,0,-1,1210,1268,0,0
-7,-244,0,0,0,0,0,0,0,0,0,-1,1217,1268,0,0
0,-244,0,0,0,0,0,0,0,0,0,-1,1224,1268,0,0
7,-244,0,0,0,0,0,0,0,0,0,-1,1231,1268,0,0
14,-244,0,0,0,0,0,0,0,0,0,-1,1238,1268,0,0
21,-244,0,0,0,0,0,0,0,0,0,-1,1245,1268,0,0
28,-244,0,0,0,0,0,0,0,0,0,-1,1252,1268,0,0
35,-244,0,0,0,0,0,0,0,0,0,-1,1259,1268,0,0
42,-244,0,0,0,0,0,0,0,0,0,-1,1266,1268,0,0
49,-244,0,0,0,0,0,0,0,0,0,-1,1273,1268,0,0
56,-244,0,0,0,0,0,0,0,0,0,-1,1280,1268,0,0
63,-244,0,0,0,0,0,0,0,0,0,-1,1287,1268,0,0
70,-244,0,0,0,0,0,0,0,0,0,-1,1294,1268,0,0
77,-244,0,0,0,0,0,0,0,0,0,-1,1301,1268,0,0
84,-244,0,0,0,0,0,0,0,0,0,-1,1308,1268,0,0
91,-244,0,0,0,0,0,0,0,0,0,-1,1315,1268,0,0
98,-244,0,0,0,0,0,0,0,0,0,-1,1322,1268,0,0
105,-244,0,0,0,0,0,0,0,0,0,-1,1329,1268,0,0
112,-244,0,0,0,0,0,0,0,0,0,-1,1336,1268,0,0
119,-244,0,0,0,0,0,0,0,0,0,-1,1343,1268,0,0
126,-244,0,0,0,0,0,0,0,0,0,-1,1350,1268,0,0
133,-244,0,0,0,0,0,0,0,0,0,-1,1357,1268,0,0
140,-244,0,0,0,0,0,0,0,0,0,-1,1364,1268,0,0
147,-244,0,0,0,0,0,0,0,0,0,-1,1371,1268,0,0
154,-244,0,0,0,0,0,0,0,0,0,-1,1378,1268,0,0
161,-244,0,0,0,0,0,0,0,0,0,-1,1385,1268,0,0
168,-244,0,0,0,0,0,0,0,0,0,-1,1392,1268,0,0
175,-244,0,0,0,0,0,0,0,0,0,-1,1399,1268,0,0
182,-244,0,0,0,0,0,0,0,0,0,-1,1406,1268,0,0
189,-244,0,0,0,0,0,0,0,0,0,-1,1413,1268,0,0
196,-244,0,0,0,0,0,0,0,0,0,-1,1420,1268,0,0
203,-244,0,0,0,0,0,0,0,0,0,-1,1427,1268,0,0
210,-244,0,0,0,0,0,0,0,0,0,-1,1434,1268,0,0
217,-244,0,0,0,0,0,0,0,0,0,-1,1441,1268,0,0
224,-244,0,0,0,0,0,0,0,0,0,-1,1448,1268,0,0
231,-244,0,0,0,0,0,0,0,0,0,-1,1455,1268,0,0
238,-244,0,0,0,0,0,0,0,0,0,-1,1462,1268,0,0
245,-244,0,0,0,0,0,0,0,0,0,-1,1469,1268,0,0
252,-244,0,0,0,0,0,0,0,0,0,-1,1476,1268,0,0
259,-244,0,0,0,0,0,0,0,0,0,-1,1483,1268,0,0
266,-244,0,0,0,0,0,0,0,0,0,-1,1490,1268,0,0
273,-244,0,0,0,0,0,0,0,0,0,-1,1497,1268,0,0
280,-244,0,0,0,0,0,0,0,0,0,-1,1504,1268,0,0
287,-244,0,0,0,0,0,0,0,0,0,-1,1511,1268,0,0
294,-244,0,0,0,0,0,0,0,0,0,-1,1518,1268,0,0
301,-244,0,0,0,0,0,0,0,0,0,-1,1525,1268,0,0
308,-244,0,0,0,0,0,0,0,0,0,-1,1532,1268,0,0
315,-244,0,0,0,0,0,0,0,0,0,-1,1539,1268,0,0
322,-244,0,0,0,0,0,0,0,0,0,-1,1546,1268,0,0
329,-244,0,0,0,0,0,0,0,0,0,-1,1553,1268,0,0
336,-244,0,0,0,0,0,0,0,0,0,-1,1560,1268,0,0
343,-244,0,0,0,0,0,0,0,0,0,-1,1567,1268,0,0
350,-244,0,0,0,0,0,0,0,0,0,-1,1574,1268,0,0
357,-244,0,0,0,0,0,0,0,0,0,-1,1581,1268,0,0
364,-244,0,0,0,0,0,0,0,0,0,-1,1588,1268,0,0
371,-244,0,0,0,0,0,0,0,0,0,-1,1595,1268,0,0
378,-244,0,0,0,0,0,0,0,0,0,-1,1602,1268,0,0
385,-244,0,0,0,0,0,0,0,0,0,-1,1609,1268,0,0
392,-244,0,0,0,0,0,0,0,0,0,-1,1616,1268,0,0
399,-244,0,0,0,0,0,0,0,0,0,-1,1623,1268,0,0
406,-244,0,0,0,0,0,0,0,0,0,-1,1630,1268,0,0
413,-244,0,0,0,0,0,0,0,0,0,-1,1637,1268,0,0
420,-244,0,0,0,0,0,0,0,0,0,-1,1644,1268,0,0
427,-244,0,0,0,0,0,0,0,0,0,-1,1651,1268,0,0
434,-244,0,0,0,0,0,0,0,0,0,-1,1658,1268,0,0
441,-244,0,0,0,0,0,0,0,0,0,-1,1665,1268,0,0
448,-244,0,0,0,0,0,0,0,0,0,-1,1672,1268,0,0
455,-244,0,0,0,0,0,0,0,0,0,-1,1679,1268,0,0
462,-244,0,0,0,0,0,0,0,0,0,-1,1686,1268,0,0
469,-244,0,0,0,0,0,0,0,0,0,-1,1693,1268,0,0
476,-244,0,0,0,0,0,0,0,0,0,-1,1700,1268,0,0
483,-244,0,0,0,0,0,0,0,0,0,-1,1707,1268,0,0
490,-244,0,0,0,0,0,0,0,0,0,-1,1714,1268,0,0
497,-244,0,0,0,0,0,0,0,0,0,-1,1721,1268,0,0
504,-244,0,0,0,0,0,0,0,0,0,-1,1728,1268,0,0
511,-244,0,0,0,0,0,0,0,0,0,-1,1735,1268,0,0
518,-244,0,0,0,0,0,0,0,0,0,-1,1742,1268,0,0
525,-244,0,0,0,0,0,0,0,0,0,-1,1749,1268,0,0
532,-244,0,0,0,0,0,0,0,0,0,-1,1756,1268,0,0
539,-244,0,0,0,0,0,0,0,0,0,-1,1763,1268,0,0
546,-244,0,0,0,0,0,0,0,0,0,-1,1770,1268,0,0
553,-244,0,0,0,0,0,0,0,0,0,-1,1777,1268,0,0
560,-244,0,0,0,0,0,0,0,0,0,-1,1784,1268,0,0
567,-244,0,0,0,0,0,0,0,0,0,-1,1791,1268,0,0
574,-244,0,0,0,0,0,0,0,0,0,-1,1798,1268,0,0
581,-244,0,0,0,0,0,0,0,0,0,-1,1805,1268,0,0
588,-244,0,0,0,0,0,0,0,0,0,-1,1812,1268,0,0
595,-244,0,0,0,0,0,0,0,0,0,-1,1819,1268,0,0
602,-244,0,0,0,0,0,0,0,0,0,-1,1826,1268,0,0
609,-244,0,0,0,0,0,0,0,0,0,-1,1833,1268,0,0
616,-244,49.4167,2.66443,0.000625142,0.00330137,-0.000678337,0.00346349,0.000463026,-1.33621,0.00217117,0.0358818,1840,1268,49.4167,-2.66448
623,-244,49.4348,2.77112,-0.00314876,0.00846046,-0.00205284,0.00881277,-0.00350107,-1.40083,0.00732656,0.0297995,1847,1268,49.4349,-2.7711
630,-244,49.4473,2.80981,-0.00630486,0.0124947,-0.00326935,0.013047,-0.00685719,-1.40343,0.0116754,0.0259977,1854,1268,49.4472,-2.8098
637,-244,49.3757,2.68481,-0.00754675,0.0138798,-0.00384905,0.0145503,-0.00821721,-1.39834,0.0133132,0.0397163,1861,1268,49.3758,-2.68478
644,-244,49.077,2.37842,-0.00692819,0.0125841,-0.00331589,0.0131322,-0.0074763,-1.40698,0.0120467,0.0471692,1868,1268,49.077,-2.3784
651,-244,49.1854,1.93762,-0.00589605,0.0107899,-0.00296809,0.0113022,-0.00640828,-1.3999,0.0103544,0.0481058,1875,1268,49.1854,-1.93767
658,-244,49.175,1.62769,-0.00485653,0.00912672,-0.0026013,0.00959496,-0.00532477,-1.3927,0.00873072,0.0482583,1882,1268,49.175,-1.62768
665,-244,49.1709,1.32227,0,0,0,0,0,0,0,-1,1889,1268,49.1709,-1.32224
672,-244,32.224,3.6123,0,0,0,0,0,0,0,-1,1896,1268,32.224,-3.6123
679,-244,27.2593,7.90649,0,0,0,0,0,0,0,-1,1903,1268,27.2592,-7.9065
686,-244,37.438,10.4045,0,0,0,0,0,0,0,-1,1910,1268,37.4379,-10.4045
693,-244,37.4241,9.86621,-0.00135484,0.00242368,-0.000843041,0.00260324,-0.0015344,-1.36094,0.00241529,0.026821,1917,1268,37.4241,-9.86619
700,-244,37.4453,9.323,-9.76254e-05,0.00135203,-0.00062267,0.00158276,-0.000328357,-1.21593,0.00117995,0.0101139,1924,1268,37.4453,-9.32303
707,-244,37.4415,8.85486,-0.000392754,-0.000128074,0.000207169,-1.45836e-05,-0.000506245,1.06963,0.000332742,0.0108082,1931,1268,37.4416,-8.85491
714,-244,37.4875,8.37634,-0.00064828,-0.000646686,0.000969304,0.000321821,-0.00161679,0.785809,0.00119961,0.0135682,1938,1268,37.4875,-8.37636
721,-244,37.4298,7.9436,-0.000857331,-0.000501319,0.00140809,0.000739973,-0.00209862,0.848273,0.00170029,0.0179425,1945,1268,37.4298,-7.94355
728,-244,37.39,7.46155,-0.000863705,-0.000223788,0.00183024,0.00131425,-0.00240174,0.871933,0.00217584,0.0226111,1952,1268,37.39,-7.46151
735,-244,37.3768,6.96326,-0.00078115,8.14088e-05,0.00231182,0.00200184,-0.00270158,0.877615,0.00272552,0.0251923,1959,1268,37.3768,-6.9632
742,-244,37.3336,6.5918,-0.000535775,0.000461314,0.00285963,0.00286553,-0.00293999,0.8717,0.00335191,0.0168216,1966,1268,37.3336,-6.59181
749,-244,37.2472,6.23254,-4.37264e-05,0.00098073,0.00363193,0.00413638,-0.00319937,0.855453,0.0042468,0.0242124,1973,1268,37.2471,-6.23257
756,-244,37.1377,5.84717,0.0010395,0.00175174,0.00423324,0.00564382,-0.00285257,0.827362,0.00499285,0.034739,1980,1268,37.1377,-5.84723
763,-244,37.2666,5.25769,0.0031436,0.00252493,0.00485461,0.00769872,-0.00203019,0.753581,0.00592628,0.0460531,1987,1268,37.2666,-5.25766
770,-244,37.59,4.64209,0,0,0,0,0,0,0,-1,1994,1268,37.59,-4.64208
777,-244,37.2579,3.52527,0,0,0,0,0,0,0,-1,2001,1268,37.2579,-3.52532
784,-244,31.7908,5.20081,0,0,0,0,0,0,0,-1,2008,1268,31.7907,-5.20083
791,-244,0,0,0,0,0,0,0,0,0,-1,2015,1268,0,0
798,-244,0,0,0,0,0,0,0,0,0,-1,2022,1268,0,0
805,-244,0,0,0,0,0,0,0,0,0,-1,2029,1268,0,0
812,-244,0,0,0,0,0,0,0,0,0,-1,2036,1268,0,0
-700,-251,0,0,0,0,0,0,0,0,0,-1,524,1275,0,0
-693,-251,0,0,0,0,0,0,0,0,0,-1,531,1275,0,0
-686,-251,0,0,0,0,0,0,0,0,0,-1,538,1275,0,0
-679,-251,0,0,0,0,0,0,0,0,0,-1,545,1275,0,0
-672,-251,0,0,0,0,0,0,0,0,0,-1,552,1275,0,0
-665,-251,-37.6044,-6.22937,0,0,0,0,0,0,0,-1,559,1275,-37.6043,6.22937
-658,-251,-37.3909,-4.9679,0,0,0,0,0,0,0,-1,566,1275,-37.3909,4.96794
-651,-251,-36.9274,-3.65503,0,0,0,0,0,0,0,-1,573,1275,-36.9273,3.65498
-644,-251,-25.0435,0.0229492,0,0,0,0,0,0,0,-1,580,1275,-25.0435,-0.0229365
-637,-251,-24.4689,0.995605,0.133896,0.0018591,0.0558833,0.154372,-0.0186174,0.351224,0.109649,0.0487722,587,1275,-24.4689,-0.995626
-630,-251,-23.9401,1.76599,0.103836,0.00513586,0.043496,0.120269,-0.0112965,0.361215,0.0841975,0.0476784,594,1275,-23.9401,-1.76605
-623,-251,-23.4526,2.79407,0.0766256,0.00612955,0.0324321,0.0892761,-0.00652091,0.371908,0.0618058,0.0390712,601,1275,-23.4526,-2.79407
-616,-251,-23.1827,3.53613,0.0540181,0.00662643,0.0230747,0.063397,-0.00275241,0.386059,0.0432113,0.0201034,608,1275,-23.1827,-3.53615
-609,-251,-23.2314,4.02686,0.0354868,0.00582067,0.0154132,0.042045,-0.00073752,0.402288,0.028279,0.0192519,615,1275,-23.2314,-4.02685
-602,-251,-23.261,4.54883,0.0212775,0.00391843,0.00954294,0.0254977,-0.000301725,0.416372,0.0170999,0.0139649,622,1275,-23.261,-4.54878
-595,-251,-23.2817,5.07397,0.0102173,0.00211063,0.00491342,0.0125335,-0.000205579,0.440512,0.00842506,0.0130155,629,1275,-23.2817,-5.07393
-588,-251,-23.2927,5.58594,0.00413912,0.000714669,0.00217148,0.00519222,-0.000338436,0.451552,0.00357963,0.015222,636,1275,-23.2927,-5.58594
-581,-251,-23.3197,6.11206,0.0030955,-0.000585007,0.00117735,0.0034399,-0.000929403,0.284578,0.0026578,0.0143239,643,1275,-23.3197,-6.11201
-574,-251,-23.3229,6.63879,0.0033357,-0.00183694,0.000709212,0.00343118,-0.00193241,0.133819,0.00313671,0.0128172,650,1275,-23.3229,-6.63874
-567,-251,-23.335,7.1615,0.00400323,-0.0030864,0.000488088,0.00403667,-0.00311985,0.0684153,0.0041431,0.0136796,657,1275,-23.335,-7.16145
-560,-251,-23.264,7.81677,0.00340981,-0.00350267,0.000455429,0.00343968,-0.00353255,0.0655077,0.00402554,0.0354827,664,1275,-23.264,-7.81681
-553,-251,-23.087,8.40625,0,0,0,0,0,0,0,-1,671,1275,-23.087,-8.4062
-546,-251,-12.995,4.5675,0,0,0,0,0,0,0,-1,678,1275,-12.995,-4.56745
-539,-251,-10.7916,0.366333,0,0,0,0,0,0,0,-1,685,1275,-10.7916,-0.366282
-532,-251,-10.7391,-0.00769043,0,0,0,0,0,0,0,-1,692,1275,-10.7391,0.00773227
-525,-251,-29.4286,-0.250244,0,0,0,0,0,0,0,-1,699,1275,-29.4286,0.250266
-518,-251,-32.6981,0.678833,0,0,0,0,0,0,0,-1,706,1275,-32.6981,-0.678787
-511,-251,-29.4731,0.637085,0,0,0,0,0,0,0,-1,713,1275,-29.4731,-0.637025
-504,-251,-30.6428,0.792358,0,0,0,0,0,0,0,-1,720,1275,-30.6427,-0.792335
-497,-251,-36.4736,0.963745,0,0,0,0,0,0,0,-1,727,1275,-36.4736,-0.96377
-490,-251,0,0,0,0,0,0,0,0,0,-1,734,1275,0,0
-483,-251,0,0,0,0,0,0,0,0,0,-1,741,1275,0,0
-476,-251,0,0,0,0,0,0,0,0,0,-1,748,1275,0,0
-469,-251,0,0,0,0,0,0,0,0,0,-1,755,1275,0,0
-462,-251,0,0,0,0,0,0,0,0,0,-1,762,1275,0,0
-455,-251,0,0,0,0,0,0,0,0,0,-1,769,1275,0,0
-448,-251,0,0,0,0,0,0,0,0,0,-1,776,1275,0,0
-441,-251,0,0,0,0,0,0,0,0,0,-1,783,1275,0,0
-434,-251,0,0,0,0,0,0,0,0,0,-1,790,1275,0,0
-427,-251,0,0,0,0,0,0,0,0,0,-1,797,1275,0,0
-420,-251,0,0,0,0,0,0,0,0,0,-1,804,1275,0,0
-413,-251,0,0,0,0,0,0,0,0,0,-1,811,1275,0,0
-406,-251,0,0,0,0,0,0,0,0,0,-1,818,1275,0,0
-399,-251,0,0,0,0,0,0,0,0,0,-1,825,1275,0,0
-392,-251,0,0,0,0,0,0,0,0,0,-1,832,1275,0,0
-385,-251,0,0,0,0,0,0,0,0,0,-1,839,1275,0,0
-378,-251,0,0,0,0,0,0,0,0,0,-1,846,1275,0,0
-371,-251,0,0,0,0,0,0,0,0,0,-1,853,1275,0,0
-364,-251,0,0,0,0,0,0,0,0,0,-1,860,1275,0,0
-357,-251,0,0,0,0,0,0,0,0,0,-1,867,1275,0,0
-350,-251,0,0,0,0,0,0,0,0,0,-1,874,1275,0,0
-343,-251,0,0,0,0,0,0,0,0,0,-1,881,1275,0,0
-336,-251,0,0,0,0,0,0,0,0,0,-1,888,1275,0,0
-329,-251,0,0,0,0,0,0,0,0,0,-1,895,1275,0,0
-322,-251,0,0,0,0,0,0,0,0,0,-1,902,1275,0,0
-315,-251,0,0,0,0,0,0,0,0,0,-1,909,1275,0,0
-308,-251,0,0,0,0,0,0,0,0,0,-1,916,1275,0,0
-301,-251,0,0,0,0,0,0,0,0,0,-1,923,1275,0,0
-294,-251,0,0,0,0,0,0,0,0,0,-1,930,1275,0,0
-287,-251,0,0,0,0,0,0,0,0,0,-1,937,1275,0,0
-280,-251,0,0,0,0,0,0,0,0,0,-1,944,1275,0,0
-273,-251,0,0,0,0,0,0,0,0,0,-1,951,1275,0,0
-266,-251,0,0,0,0,0,0,0,0,0,-1,958,1275,0,0
-259,-251,0,0,0,0,0,0,0,0,0,-1,965,1275,0,0
-252,-251,0,0,0,0,0,0,0,0,0,-1,972,1275,0,0
-245,-251,0,0,0,0,0,0,0,0,0,-1,979,1275,0,0
-238,-251,0,0,0,0,0,0,0,0,0,-1,986,1275,0,0
-231,-251,0,0,0,0,0,0,0,0,0,-1,993,1275,0,0
-224,-251,0,0,0,0,0,0,0,0,0,-1,1000,1275,0,0
-217,-251,0,0,0,0,0,0,0,0,0,-1,1007,1275,0,0
-210,-251,0,0,0,0,0,0,0,0,0,-1,1014,1275,0,0
-203,-251,0,0,0,0,0,0,0,0,0,-1,1021,1275,0,0
-196,-251,0,0,0,0,0,0,0,0,0,-1,1028,1275,0,0
-189,-251,0,0,0,0,0,0,0,0,0,-1,1035,1275,0,0
-182,-251,0,0,0,0,0,0,0,0,0,-1,1042,1275,0,0
-175,-251,0,0,0,0,0,0,0,0,0,-1,1049,1275,0,0
-168,-251,0,0,0,0,0,0,0,0,0,-1,1056,1275,0,0
-161,-251,0,0,0,0,0,0,0,0,0,-1,1063,1275,0,0
-154,-251,0,0,0,0,0,0,0,0,0,-1,1070,1275,0,0
-147,-251,0,0,0,0,0,0,0,0,0,-1,1077,1275,0,0
-140,-251,0,0,0,0,0,0,0,0,0,-1,1084,1275,0,0
-133,-251,0,0,0,0,0,0,0,0,0,-1,1091,1275,0,0
-126,-251,0,0,0,0,0,0,0,0,0,-1,1098,1275,0,0
-119,-251,0,0,0,0,0,0,0,0,0,-1,1105,1275,0,0
-112,-251,0,0,0,0,0,0,0,0,0,-1,1112,1275,0,0
-105,-251,0,0,0,0,0,0,0,0,0,-1,1119,1275,0,0
-98,-251,0,0,0,0,0,0,0,0,0,-1,1126,1275,0,0
-91,-251,0,0,0,0,0,0,0,0,0,-1,1133,1275,0,0
-84,-251,0,0,0,0,0,0,0,0,0,-1,1140,1275,0,0
-77,-251,0,0,0,0,0,0,0,0,0,-1,1147,1275,0,0
-70,-251,0,0,0,0,0,0,0,0,0,-1,1154,1275,0,0
-63,-251,0,0,0,0,0,0,0,0,0,-1,1161,1275,0,0
-56,-251,0,0,0,0,0,0,0,0,0,-1,1168,1275,0,0
-49,-251,0,0,0,0,0,0,0,0,0,-1,1175,1275,0,0
-42,-251,0,0,0,0,0,0,0,0,0,-1,1182,1275,0,0
-35,-251,0,0,0,0,0,0,0,0,0,-1,1189,1275,0,0
-28,-251,0,0,0,0,0,0,0,0,0,-1,1196,1275,0,0
-21,-251,0,0,0,0,0,0,0,0,0,-1,1203,1275,0,0
-14,-251,0,0,0,0,0,0,0,0,0,-1,1210,1275,0,0
-7,-251,0,0,0,0,0,0,0,0,0,-1,1217,1275,0,0
0,-251,0,0,0,0,0,0,0,0,0,-1,1224,1275,0,0
7,-251,0,0,0,0,0,0,0,0,0,-1,1231,1275,0,0
14,-251,0,0,0,0,0,0,0,0,0,-1,1238,1275,0,0
21,-251,0,0,0,0,0,0,0,0,0,-1,1245,1275,0,0
28,-251,0,0,0,0,0,0,0,0,0,-1,1252,1275,0,0
35,-251,0,0,0,0,0,0,0,0,0,-1,1259,1275,0,0
42,-251,0,0,0,0,0,0,0,0,0,-1,1266,1275,0,0
49,-251,0,0,0,0,0,0,0,0,0,-1,1273,1275,0,0
56,-251,0,0,0,0,0,0,0,0,0,-1,1280,1275,0,0
63,-251,0,0,0,0,0,0,0,0,0,-1,1287,1275,0,0
70,-251,0,0,0,0,0,0,0,0,0,-1,1294,1275,0,0
77,-251,0,0,0,0,0,0,0,0,0,-1,1301,1275,0,0
84,-251,0,0,0,0,0,0,0,0,0,-1,1308,1275,0,0
91,-251,0,0,0,0,0,0,0,0,0,-1,1315,1275,0,0
98,-251,0,0,0,0,0,0,0,0,0,-1,1322,1275,0,0
105,-251,0,0,0,0,0,0,0,0,0,-1,1329,1275,0,0
112,-251,0,0,0,0,0,0,0,0,0,-1,1336,1275,0,0
119,-251,0,0,0,0,0,0,0,0,0,-1,1343,1275,0,0
126,-251,0,0,0,0,0,0,0,0,0,-1,1350,1275,0,0
133,-251,0,0,0,0,0,0,0,0,0,-1,1357,1275,0,0
140,-251,0,0,0,0,0,0,0,0,0,-1,1364,1275,0,0
147,-251,0,0,0,0,0,0,0,0,0,-1,1371,1275,0,0
154,-251,0,0,0,0,0,0,0,0,0,-1,1378,1275,0,0
161,-251,0,0,0,0,0,0,0,0,0,-1,1385,1275,0,0
168,-251,0,0,0,0,0,0,0,0,0,-1,1392,1275,0,0
175,-251,0,0,0,0,0,0,0,0,0,-1,1399,1275,0,0
182,-251,0,0,0,0,0,0,0,0,0,-1,1406,1275,0,0
189,-251,0,0,0,0,0,0,0,0,0,-1,1413,1275,0,0
196,-251,0,0,0,0,0,0,0,0,0,-1,1420,1275,0,0
203,-251,0,0,0,0,0,0,0,0,0,-1,1427,1275,0,0
210,-251,0,0,0,0,0,0,0,0,0,-1,1434,1275,0,0
217,-251,0,0,0,0,0,0,0,0,0,-1,1441,1275,0,0
224,-251,0,0,0,0,0,0,0,0,0,-1,1448,1275,0,0
231,-251,0,0,0,0,0,0,0,0,0,-1,1455,1275,0,0
238,-251,0,0,0,0,0,0,0,0,0,-1,1462,1275,0,0
245,-251,0,0,0,0,0,0,0,0,0,-1,1469,1275,0,0
252,-251,0,0,0,0,0,0,0,0,0,-1,1476,1275,0,0
259,-251,0,0,0,0,0,0,0,0,0,-1,1483,1275,0,0
266,-251,0,0,0,0,0,0,0,0,0,-1,1490,1275,0,0
273,-251,0,0,0,0,0,0,0,0,0,-1,1497,1275,0,0
280,-251,0,0,0,0,0,0,0,0,0,-1,1504,1275,0,0
287,-251,0,0,0,0,0,0,0,0,0,-1,1511,1275,0,0
294,-251,0,0,0,0,0,0,0,0,0,-1,1518,1275,0,0
301,-251,0,0,0,0,0,0,0,0,0,-1,1525,1275,0,0
308,-251,0,0,0,0,0,0,0,0,0,-1,1532,1275,0,0
315,-251,0,0,0,0,0,0,0,0,0,-1,1539,1275,0,0
322,-251,0,0,0,0,0,0,0,0,0,-1,1546,1275,0,0
329,-251,0,0,0,0,0,0,0,0,0,-1,1553,1275,0,0
336,-251,0,0,0,0,0,0,0,0,0,-1,1560,1275,0,0
343,-251,0,0,0,0,0,0,0,0,0,-1,1567,1275,0,0
350,-251,0,0,0,0,0,0,0,0,0,-1,1574,1275,0,0
357,-251,0,0,0,0,0,0,0,0,0,-1,1581,1275,0,0
364,-251,0,0,0,0,0,0,0,0,0,-1,1588,1275,0,0
371,-251,0,0,0,0,0,0,0,0,0,-1,1595,1275,0,0
378,-251,0,0,0,0,0,0,0,0,0,-1,1602,1275,0,0
385,-251,0,0,0,0,0,0,0,0,0,-1,1609,1275,0,0
392,-251,0,0,0,0,0,0,0,0,0,-1,1616,1275,0,0
399,-251,0,0,0,0,0,0,0,0,0,-1,1623,1275,0,0
406,-251,0,0,0,0,0,0,0,0,0,-1,1630,1275,0,0
413,-251,0,0,0,0,0,0,0,0,0,-1,1637,1275,0,0
420,-251,0,0,0,0,0,0,0,0,0,-1,1644,1275,0,0
427,-251,0,0,0,0,0,0,0,0,0,-1,1651,1275,0,0
434,-251,0,0,0,0,0,0,0,0,0,-1,1658,1275,0,0
441,-251,0,0,0,0,0,0,0,0,0,-1,1665,1275,0,0
448,-251,0,0,0,0,0,0,0,0,0,-1,1672,1275,0,0
455,-251,0,0,0,0,0,0,0,0,0,-1,1679,1275,0,0
462,-251,0,0,0,0,0,0,0,0,0,-1,1686,1275,0,0
469,-251,0,0,0,0,0,0,0,0,0,-1,1693,1275,0,0
476,-251,0,0,0,0,0,0,0,0,0,-1,1700,1275,0,0
483,-251,0,0,0,0,0,0,0,0,0,-1,1707,1275,0,0
490,-251,0,0,0,0,0,0,0,0,0,-1,1714,1275,0,0
497,-251,0,0,0,0,0,0,0,0,0,-1,1721,1275,0,0
504,-251,0,0,0,0,0,0,0,0,0,-1,1728,1275,0,0
511,-251,0,0,0,0,0,0,0,0,0,-1,1735,1275,0,0
518,-251,0,0,0,0,0,0,0,0,0,-1,1742,1275,0,0
525,-251,0,0,0,0,0,0,0,0,0,-1,1749,1275,0,0
532,-251,0,0,0,0,0,0,0,0,0,-1,1756,1275,0,0
539,-251,0,0,0,0,0,0,0,0,0,-1,1763,1275,0,0
546,-251,0,0,0,0,0,0,0,0,0,-1,1770,1275,0,0
553,-251,0,0,0,0,0,0,0,0,0,-1,1777,1275,0,0
560,-251,0,0,0,0,0,0,0,0,0,-1,1784,1275,0,0
567,-251,0,0,0,0,0,0,0,0,0,-1,1791,1275,0,0
574,-251,0,0,0,0,0,0,0,0,0,-1,1798,1275,0,0
581,-251,0,0,0,0,0,0,0,0,0,-1,1805,1275,0,0
588,-251,0,0,0,0,0,0,0,0,0,-1,1812,1275,0,0
595,-251,0,0,0,0,0,0,0,0,0,-1,1819,1275,0,0
602,-251,0,0,0,0,0,0,0,0,0,-1,1826,1275,0,0
609,-251,49.3646,2.64209,0.00195956,0.00118221,-0.000402319,0.00213028,0.00101149,-0.401325,0.00123044,0.0307294,1833,1275,49.3646,-2.64208
616,-251,49.3383,2.66394,-0.00236232,0.00729554,-0.00184333,0.0076354,-0.00270218,-1.38847,0.00619079,0.0278255,1840,1275,49.3383,-2.66394
623,-251,49.3691,2.70837,-0.00623175,0.0125909,-0.00317135,0.0131109,-0.00675171,-1.40829,0.0116619,0.0253898,1847,1275,49.3691,-2.70837
630,-251,49.3866,2.66846,-0.00888165,0.0158437,-0.00403197,0.0164846,-0.00952253,-1.41317,0.0151935,0.0370972,1854,1275,49.3866,-2.66849
637,-251,49.4177,2.54578,-0.00890781,0.0154547,-0.00398603,0.0160903,-0.00954339,-1.41267,0.0149597,0.0410396,1861,1275,49.4177,-2.54575
644,-251,48.9165,2.5426,-0.00773827,0.0133841,-0.00327261,0.0138795,-0.00823369,-1.42055,0.012905,0.0435227,1868,1275,48.9165,-2.54266
651,-251,49.1819,1.72021,0,0,0,0,0,0,0,-1,1875,1275,49.1818,-1.72027
658,-251,49.2881,1.34009,0,0,0,0,0,0,0,-1,1882,1275,49.2881,-1.3401
665,-251,32.9579,2.60229,0,0,0,0,0,0,0,-1,1889,1275,32.9579,-2.60231
672,-251,26.0721,4.53064,0,0,0,0,0,0,0,-1,1896,1275,26.0721,-4.53063
679,-251,29.1344,8.63782,0,0,0,0,0,0,0,-1,1903,1275,29.1344,-8.63778
686,-251,37.0616,10.2753,0,0,0,0,0,0,0,-1,1910,1275,37.0616,-10.2752
693,-251,37.0195,9.82874,-0.00118224,0.00239005,-0.000616744,0.00249353,-0.00128572,-1.40456,0.00221878,0.014676,1917,1275,37.0195,-9.82871
700,-251,36.99,9.3584,0.00021703,0.00129113,-0.000441784,0.00144949,5.86698e-05,-1.22661,0.000947376,0.00973761,1924,1275,36.99,-9.35837
707,-251,36.9846,8.87354,-0.000182836,-9.68617e-05,0.000354993,0.000217738,-0.000497435,0.845651,0.0004233,0.0114504,1931,1275,36.9846,-8.87355
714,-251,37.011,8.39758,-0.000525611,-0.000521785,0.0010203,0.0004966,-0.001544,0.786336,0.00122878,0.0134595,1938,1275,37.0109,-8.39759
721,-251,36.9418,7.95361,-0.000806474,-0.000333707,0.00137664,0.000826693,-0.00196687,0.870424,0.00165704,0.0186226,1945,1275,36.9418,-7.9536
728,-251,36.9021,7.52368,-0.000943094,-7.09535e-05,0.00173627,0.00128317,-0.00229722,0.90843,0.00209459,0.0215852,1952,1275,36.9021,-7.52373
735,-251,36.9083,6.9989,-0.000968047,0.000220271,0.00216498,0.00187114,-0.00261892,0.919321,0.00260429,0.0182386,1959,1275,36.9083,-6.99894
742,-251,36.8507,6.6217,-0.000815528,0.00057895,0.00264766,0.00261964,-0.00285622,0.914146,0.00316247,0.0180245,1966,1275,36.8507,-6.62167
749,-251,36.6835,6.29736,-0.000432736,0.00110388,0.00335744,0.0037798,-0.00310866,0.89788,0.00398334,0.0362811,1973,1275,36.6834,-6.29736
756,-251,36.6237,5.83862,0,0,0,0,0,0,0,-1,1980,1275,36.6237,-5.83868
763,-251,36.9664,5.21143,0,0,0,0,0,0,0,-1,1987,1275,36.9664,-5.21141
770,-251,37.6879,3.92712,0,0,0,0,0,0,0,-1,1994,1275,37.6878,-3.92713
777,-251,31.5731,4.33252,0,0,0,0,0,0,0,-1,2001,1275,31.5731,-4.33251
784,-251,32.0776,5.78247,0,0,0,0,0,0,0,-1,2008,1275,32.0776,-5.78247
791,-251,0,0,0,0,0,0,0,0,0,-1,2015,1275,0,0
798,-251,0,0,0,0,0,0,0,0,0,-1,2022,1275,0,0
805,-251,0,0,0,0,0,0,0,0,0,-1,2029,1275,0,0
812,-251,0,0,0,0,0,0,0,0,0,-1,2036,1275,0,0
-700,-258,0,0,0,0,0,0,0,0,0,-1,524,1282,0,0
-693,-258,0,0,0,0,0,0,0,0,0,-1,531,1282,0,0
-686,-258,0,0,0,0,0,0,0,0,0,-1,538,1282,0,0
-679,-258,0,0,0,0,0,0,0,0,0,-1,545,1282,0,0
-672,-258,0,0,0,0,0,0,0,0,0,-1,552,1282,0,0
-665,-258,-38.6733,-7.33057,0,0,0,0,0,0,0,-1,559,1282,-38.6733,7.33057
-658,-258,-38.2619,-5.3175,0,0,0,0,0,0,0,-1,566,1282,-38.2619,5.31746
-651,-258,-38.0291,-3.97766,0,0,0,0,0,0,0,-1,573,1282,-38.0291,3.97769
-644,-258,-24.8925,-0.302856,0,0,0,0,0,0,0,-1,580,1282,-24.8925,0.302852
-637,-258,-24.3112,0.993774,0,0,0,0,0,0,0,-1,587,1282,-24.3111,-0.993749
-630,-258,-23.8062,1.78882,0,0,0,0,0,0,0,-1,594,1282,-23.8061,-1.78884
-623,-258,-22.5352,3.0708,0,0,0,0,0,0,0,-1,601,1282,-22.5352,-3.07077
-616,-258,-22.6441,3.57471,0.0674421,0.0083396,0.0279028,0.0785337,-0.00275199,0.378357,0.0532968,0.0347633,608,1282,-22.6441,-3.57476
-609,-258,-22.6779,4.06433,0.0448535,0.00664885,0.0189401,0.0526515,-0.00114916,0.390568,0.0354902,0.0162601,615,1282,-22.6779,-4.06434
-602,-258,-22.7242,4.58264,0.0275773,0.00461745,0.0120014,0.0327053,-0.000510531,0.403801,0.0219757,0.0128214,622,1282,-22.7243,-4.58267
-595,-258,-22.7524,5.09802,0.0136274,0.00263261,0.00635077,0.0165296,-0.000269615,0.42865,0.0111107,0.0113681,629,1282,-22.7525,-5.098
-588,-258,-22.7785,5.61377,0.0049394,0.00121493,0.00268768,0.00634696,-0.000192626,0.482433,0.00429695,0.0132993,636,1282,-22.7785,-5.61375
-581,-258,-22.7952,6.11365,0.00295237,-0.000117839,0.00138103,0.00348216,-0.000647629,0.366306,0.00256472,0.0155733,643,1282,-22.7952,-6.11369
-574,-258,-22.7792,6.62952,0.00299198,-0.00139035,0.000911287,0.00317392,-0.0015723,0.197065,0.00279175,0.0148144,650,1282,-22.7792,-6.62957
-567,-258,-22.8268,7.16687,0.00363873,-0.00267198,0.000802914,0.00373928,-0.00277253,0.124586,0.00377338,0.0140749,657,1282,-22.8268,-7.16685
-560,-258,-22.837,7.70837,0.00328805,-0.00333858,0.000874045,0.00340139,-0.00345193,0.128961,0.0039568,0.0391115,664,1282,-22.837,-7.70834
-553,-258,-22.7502,8.28625,0,0,0,0,0,0,0,-1,671,1282,-22.7503,-8.28627
-546,-258,-14.2231,5.92029,0,0,0,0,0,0,0,-1,678,1282,-14.2231,-5.92028
-539,-258,-10.2228,4.05823,0,0,0,0,0,0,0,-1,685,1282,-10.2228,-4.05823
-532,-258,-10.2173,-0.353882,0,0,0,0,0,0,0,-1,692,1282,-10.2173,0.353836
-525,-258,-21.8661,-1.5929,0,0,0,0,0,0,0,-1,699,1282,-21.8661,1.59285
-518,-258,-29.2484,0.123169,0,0,0,0,0,0,0,-1,706,1282,-29.2484,-0.123186
-511,-258,-23.5061,1.16833,0,0,0,0,0,0,0,-1,713,1282,-23.5061,-1.16833
-504,-258,-22.9178,0.484131,0,0,0,0,0,0,0,-1,720,1282,-22.9178,-0.484106
-497,-258,-17.8047,0.730469,0,0,0,0,0,0,0,-1,727,1282,-17.8048,-0.730489
-490,-258,-15.4346,0.632935,0,0,0,0,0,0,0,-1,734,1282,-15.4346,-0.632917
-483,-258,0,0,0,0,0,0,0,0,0,-1,741,1282,0,0
-476,-258,0,0,0,0,0,0,0,0,0,-1,748,1282,0,0
-469,-258,0,0,0,0,0,0,0,0,0,-1,755,1282,0,0
-462,-258,0,0,0,0,0,0,0,0,0,-1,762,1282,0,0
-455,-258,0,0,0,0,0,0,0,0,0,-1,769,1282,0,0
-448,-258,0,0,0,0,0,0,0,0,0,-1,776,1282,0,0
-441,-258,0,0,0,0,0,0,0,0,0,-1,783,1282,0,0
-434,-258,0,0,0,0,0,0,0,0,0,-1,790,1282,0,0
-427,-258,0,0,0,0,0,0,0,0,0,-1,797,1282,0,0
-420,-258,0,0,0,0,0,0,0,0,0,-1,804,1282,0,0
-413,-258,0,0,0,0,0,0,0,0,0,-1,811,1282,0,0
-406,-258,0,0,0,0,0,0,0,0,0,-1,818,1282,0,0
-399,-258,0,0,0,0,0,0,0,0,0,-1,825,1282,0,0
-392,-258,0,0,0,0,0,0,0,0,0,-1,832,1282,0,0
-385,-258,0,0,0,0,0,0,0,0,0,-1,839,1282,0,0
-378,-258,0,0,0,0,0,0,0,0,0,-1,846,1282,0,0
-371,-258,0,0,0,0,0,0,0,0,0,-1,853,1282,0,0
-364,-258,0,0,0,0,0,0,0,0,0,-1,860,1282,0,0
-357,-258,0,0,0,0,0,0,0,0,0,-1,867,1282,0,0
-350,-258,0,0,0,0,0,0,0,0,0,-1,874,1282,0,0
-343,-258,0,0,0,0,0,0,0,0,0,-1,881,1282,0,0
-336,-258,0,0,0,0,0,0,0,0,0,-1,888,1282,0,0
-329,-258,0,0,0,0,0,0,0,0,0,-1,895,1282,0,0
-322,-258,0,0,0,0,0,0,0,0,0,-1,902,1282,0,0
-315,-258,0,0,0,0,0,0,0,0,0,-1,909,1282,0,0
-308,-258,0,0,0,0,0,0,0,0,0,-1,916,1282,0,0
-301,-258,0,0,0,0,0,0,0,0,0,-1,923,1282,0,0
-294,-258,0,0,0,0,0,0,0,0,0,-1,930,1282,0,0
-287,-258,0,0,0,0,0,0,0,0,0,-1,937,1282,0,0
-280,-258,0,0,0,0,0,0,0,0,0,-1,944,1282,0,0
-273,-258,0,0,0,0,0,0,0,0,0,-1,951,1282,0,0
-266,-258,0,0,0,0,0,0,0,0,0,-1,958,1282,0,0
-259,-258,0,0,0,0,0,0,0,0,0,-1,965,1282,0,0
-252,-258,0,0,0,0,0,0,0,0,0,-1,972,1282,0,0
-245,-258,0,0,0,0,0,0,0,0,0,-1,979,1282,0,0
-238,-258,0,0,0,0,0,0,0,0,0,-1,986,1282,0,0
-231,-258,0,0,0,0,0,0,0,0,0,-1,993,1282,0,0
-224,-258,0,0,0,0,0,0,0,0,0,-1,1000,1282,0,0
-217,-258,0,0,0,0,0,0,0,0,0,-1,1007,1282,0,0
-210,-258,0,0,0,0,0,0,0,0,0,-1,1014,1282,0,0
-203,-258,0,0,0,0,0,0,0,0,0,-1,1021,1282,0,0
-196,-258,0,0,0,0,0,0,0,0,0,-1,1028,1282,0,0
-189,-258,0,0,0,0,0,0,0,0,0,-1,1035,1282,0,0
-182,-258,0,0,0,0,0,0,0,0,0,-1,1042,1282,0,0
-175,-258,0,0,0,0,0,0,0,0,0,-1,1049,1282,0,0
-168,-258,0,0,0,0,0,0,0,0,0,-1,1056,1282,0,0
-161,-258,0,0,0,0,0,0,0,0,0,-1,1063,1282,0,0
-154,-258,0,0,0,0,0,0,0,0,0,-1,1070,1282,0,0
-147,-258,0,0,0,0,0,0,0,0,0,-1,1077,1282,0,0
-140,-258,0,0,0,0,0,0,0,0,0,-1,1084,1282,0,0
-133,-258,0,0,0,0,0,0,0,0,0,-1,1091,1282,0,0
-126,-258,0,0,0,0,0,0,0,0,0,-1,1098,1282,0,0
-119,-258,0,0,0,0,0,0,0,0,0,-1,1105,1282,0,0
-112,-258,0,0,0,0,0,0,0,0,0,-1,1112,1282,0,0
-105,-258,0,0,0,0,0,0,0,0,0,-1,1119,1282,0,0
-98,-258,0,0,0,0,0,0,0,0,0,-1,1126,1282,0,0
-91,-258,0,0,0,0,0,0,0,0,0,-1,1133,1282,0,0
-84,-258,0,0,0,0,0,0,0,0,0,-1,1140,1282,0,0
-77,-258,0,0,0,0,0,0,0,0,0,-1,1147,1282,0,0
-70,-258,0,0,0,0,0,0,0,0,0,-1,1154,1282,0,0
-63,-258,0,0,0,0,0,0,0,0,0,-1,1161,1282,0,0
-56,-258,0,0,0,0,0,0,0,0,0,-1,1168,1282,0,0
-49,-258,0,0,0,0,0,0,0,0,0,-1,1175,1282,0,0
-42,-258,0,0,0,0,0,0,0,0,0,-1,1182,1282,0,0
-35,-258,0,0,0,0,0,0,0,0,0,-1,1189,1282,0,0
-28,-258,0,0,0,0,0,0,0,0,0,-1,1196,1282,0,0
-21,-258,0,0,0,0,0,0,0,0,0,-1,1203,1282,0,0
-14,-258,0,0,0,0,0,0,0,0,0,-1,1210,1282,0,0
-7,-258,0,0,0,0,0,0,0,0,0,-1,1217,1282,0,0
0,-258,0,0,0,0,0,0,0,0,0,-1,1224,1282,0,0
7,-258,0,0,0,0,0,0,0,0,0,-1,1231,1282,0,0
14,-258,0,0,0,0,0,0,0,0,0,-1,1238,1282,0,0
21,-258,0,0,0,0,0,0,0,0,0,-1,1245,1282,0,0
28,-258,0,0,0,0,0,0,0,0,0,-1,1252,1282,0,0
35,-258,0,0,0,0,0,0,0,0,0,-1,1259,1282,0,0
42,-258,0,0,0,0,0,0,0,0,0,-1,1266,1282,0,0
49,-258,0,0,0,0,0,0,0,0,0,-1,1273,1282,0,0
56,-258,0,0,0,0,0,0,0,0,0,-1,1280,1282,0,0
63,-258,0,0,0,0,0,0,0,0,0,-1,1287,1282,0,0
70,-258,0,0,0,0,0,0,0,0,0,-1,1294,1282,0,0
77,-258,0,0,0,0,0,0,0,0,0,-1,1301,1282,0,0
84,-258,0,0,0,0,0,0,0,0,0,-1,1308,1282,0,0
91,-258,0,0,0,0,0,0,0,0,0,-1,1315,1282,0,0
98,-258,0,0,0,0,0,0,0,0,0,-1,1322,1282,0,0
105,-258,0,0,0,0,0,0,0,0,0,-1,1329,1282,0,0
112,-258,0,0,0,0,0,0,0,0,0,-1,1336,1282,0,0
119,-258,0,0,0,0,0,0,0,0,0,-1,1343,1282,0,0
126,-258,0,0,0,0,0,0,0,0,0,-1,1350,1282,0,0
133,-258,0,0,0,0,0,0,0,0,0,-1,1357,1282,0,0
140,-258,0,0,0,0,0,0,0,0,0,-1,1364,1282,0,0
147,-258,0,0,0,0,0,0,0,0,0,-1,1371,1282,0,0
154,-258,0,0,0,0,0,0,0,0,0,-1,1378,1282,0,0
161,-258,0,0,0,0,0,0,0,0,0,-1,1385,1282,0,0
168,-258,0,0,0,0,0,0,0,0,0,-1,1392,1282,0,0
175,-258,0,0,0,0,0,0,0,0,0,-1,1399,1282,0,0
182,-258,0,0,0,0,0,0,0,0,0,-1,1406,1282,0,0
189,-258,0,0,0,0,0,0,0,0,0,-1,1413,1282,0,0
196,-258,0,0,0,0,0,0,0,0,0,-1,1420,1282,0,0
203,-258,0,0,0,0,0,0,0,0,0,-1,1427,1282,0,0
210,-258,0,0,0,0,0,0,0,0,0,-1,1434,1282,0,0
217,-258,0,0,0,0,0,0,0,0,0,-1,1441,1282,0,0
224,-258,0,0,0,0,0,0,0,0,0,-1,1448,1282,0,0
231,-258,0,0,0,0,0,0,0,0,0,-1,1455,1282,0,0
238,-258,0,0,0,0,0,0,0,0,0,-1,1462,1282,0,0
245,-258,0,0,0,0,0,0,0,0,0,-1,1469,1282,0,0
252,-258,0,0,0,0,0,0,0,0,0,-1,1476,1282,0,0
259,-258,0,0,0,0,0,0,0,0,0,-1,1483,1282,0,0
266,-258,0,0,0,0,0,0,0,0,0,-1,1490,1282,0,0
273,-258,0,0,0,0,0,0,0,0,0,-1,1497,1282,0,0
280,-258,0,0,0,0,0,0,0,0,0,-1,1504,1282,0,0
287,-258,0,0,0,0,0,0,0,0,0,-1,1511,1282,0,0
294,-258,0,0,0,0,0,0,0,0,0,-1,1518,1282,0,0
301,-258,0,0,0,0,0,0,0,0,0,-1,1525,1282,0,0
308,-258,0,0,0,0,0,0,0,0,0,-1,1532,1282,0,0
315,-258,0,0,0,0,0,0,0,0,0,-1,1539,1282,0,0
322,-258,0,0,0,0,0,0,0,0,0,-1,1546,1282,0,0
329,-258,0,0,0,0,0,0,0,0,0,-1,1553,1282,0,0
336,-258,0,0,0,0,0,0,0,0,0,-1,1560,1282,0,0
343,-258,0,0,0,0,0,0,0,0,0,-1,1567,1282,0,0
350,-258,0,0,0,0,0,0,0,0,0,-1,1574,1282,0,0
357,-258,0,0,0,0,0,0,0,0,0,-1,1581,1282,0,0
364,-258,0,0,0,0,0,0,0,0,0,-1,1588,1282,0,0
371,-258,0,0,0,0,0,0,0,0,0,-1,1595,1282,0,0
378,-258,0,0,0,0,0,0,0,0,0,-1,1602,1282,0,0
385,-258,0,0,0,0,0,0,0,0,0,-1,1609,1282,0,0
392,-258,0,0,0,0,0,0,0,0,0,-1,1616,1282,0,0
399,-258,0,0,0,0,0,0,0,0,0,-1,1623,1282,0,0
406,-258,0,0,0,0,0,0,0,0,0,-1,1630,1282,0,0
413,-258,0,0,0,0,0,0,0,0,0,-1,1637,1282,0,0
420,-258,0,0,0,0,0,0,0,0,0,-1,1644,1282,0,0
427,-258,0,0,0,0,0,0,0,0,0,-1,1651,1282,0,0
434,-258,0,0,0,0,0,0,0,0,0,-1,1658,1282,0,0
441,-258,0,0,0,0,0,0,0,0,0,-1,1665,1282,0,0
448,-258,0,0,0,0,0,0,0,0,0,-1,1672,1282,0,0
455,-258,0,0,0,0,0,0,0,0,0,-1,1679,1282,0,0
462,-258,0,0,0,0,0,0,0,0,0,-1,1686,1282,0,0
469,-258,0,0,0,0,0,0,0,0,0,-1,1693,1282,0,0
476,-258,0,0,0,0,0,0,0,0,0,-1,1700,1282,0,0
483,-258,0,0,0,0,0,0,0,0,0,-1,1707,1282,0,0
490,-258,0,0,0,0,0,0,0,0,0,-1,1714,1282,0,0
497,-258,0,0,0,0,0,0,0,0,0,-1,1721,1282,0,0
504,-258,0,0,0,0,0,0,0,0,0,-1,1728,1282,0,0
511,-258,0,0,0,0,0,0,0,0,0,-1,1735,1282,0,0
518,-258,0,0,0,0,0,0,0,0,0,-1,1742,1282,0,0
525,-258,0,0,0,0,0,0,0,0,0,-1,1749,1282,0,0
532,-258,0,0,0,0,0,0,0,0,0,-1,1756,1282,0,0
539,-258,0,0,0,0,0,0,0,0,0,-1,1763,1282,0,0
546,-258,0,0,0,0,0,0,0,0,0,-1,1770,1282,0,0
553,-258,0,0,0,0,0,0,0,0,0,-1,1777,1282,0,0
560,-258,0,0,0,0,0,0,0,0,0,-1,1784,1282,0,0
567,-258,0,0,0,0,0,0,0,0,0,-1,1791,1282,0,0
574,-258,0,0,0,0,0,0,0,0,0,-1,1798,1282,0,0
581,-258,0,0,0,0,0,0,0,0,0,-1,1805,1282,0,0
588,-258,0,0,0,0,0,0,0,0,0,-1,1812,1282,0,0
595,-258,0,0,0,0,0,0,0,0,0,-1,1819,1282,0,0
602,-258,0,0,0,0,0,0,0,0,0,-1,1826,1282,0,0
609,-258,49.3252,2.7019,-0.00150538,0.00588246,-0.002012,0.00639487,-0.00201779,-1.32142,0.00507146,0.02732,1833,1282,49.3252,-2.7019
616,-258,49.3164,2.73926,-0.00574953,0.0124288,-0.00352143,0.0130871,-0.00640785,-1.38598,0.0114735,0.0259065,1840,1282,49.3164,-2.73926
623,-258,49.2589,2.63831,-0.00884421,0.0164616,-0.00431624,0.0171776,-0.00956015,-1.40642,0.0156444,0.0358934,1847,1282,49.2589,-2.63834
630,-258,49.2438,2.35278,-0.0103713,0.0177375,-0.00443075,0.0184194,-0.0110532,-1.4181,0.0171923,0.0443547,1854,1282,49.2438,-2.35274
637,-258,49.1719,2.19373,-0.00958415,0.0158247,-0.00382822,0.016389,-0.0101484,-1.42446,0.0154619,0.0460929,1861,1282,49.1718,-2.19378
644,-258,48.6827,2.46741,-0.00830768,0.0134501,-0.00309023,0.0138804,-0.00873807,-1.43241,0.0131708,0.0481091,1868,1282,48.6827,-2.46736
651,-258,48.3198,2.39673,0,0,0,0,0,0,0,-1,1875,1282,48.3199,-2.39676
658,-258,45.4424,3.1405,0,0,0,0,0,0,0,-1,1882,1282,45.4423,-3.14046
665,-258,35.4747,1.1864,0,0,0,0,0,0,0,-1,1889,1282,35.4747,-1.18637
672,-258,22.703,2.80957,0,0,0,0,0,0,0,-1,1896,1282,22.703,-2.80962
679,-258,26.8693,8.19543,0,0,0,0,0,0,0,-1,1903,1282,26.8692,-8.19548
686,-258,36.6136,10.2938,0,0,0,0,0,0,0,-1,1910,1282,36.6137,-10.2938
693,-258,36.5643,9.83093,-0.00162881,0.00233259,-0.000298473,0.00235495,-0.00165117,-1.49601,0.0023248,0.0142673,1917,1282,36.5643,-9.83091
700,-258,36.5256,9.35583,-0.000140721,0.00131621,-0.000160615,0.0013337,-0.000158218,-1.46229,0.000946294,0.00957743,1924,1282,36.5256,-9.3558
707,-258,36.5238,8.8772,-0.000467645,7.81186e-05,0.000569964,0.000437157,-0.000826683,1.00866,0.000741141,0.0109225,1931,1282,36.5238,-8.87716
714,-258,36.5162,8.41821,-0.000694063,-0.000292243,0.00112413,0.00064879,-0.0016351,0.873827,0.00135897,0.0115216,1938,1282,36.5162,-8.41823
721,-258,36.4789,7.94556,-0.000881635,-0.000149281,0.00139896,0.000930627,-0.00196154,0.913402,0.00170479,0.0170854,1945,1282,36.4789,-7.94557
728,-258,36.4335,7.52051,-0.001037,2.21341e-05,0.00170291,0.00127591,-0.00229078,0.936148,0.00208684,0.0165985,1952,1282,36.4335,-7.52051
735,-258,36.4584,7.05835,-0.00113228,0.000235606,0.00206726,0.00172912,-0.0026258,0.945153,0.00253202,0.0156964,1959,1282,36.4584,-7.05837
742,-258,36.4185,6.62158,-0.00106848,0.000519615,0.00247249,0.00232243,-0.0028713,0.940773,0.00300418,0.0183745,1966,1282,36.4184,-6.62158
749,-258,36.3051,6.26355,-0.00079453,0.000994088,0.00308665,0.00331337,-0.00311381,0.926405,0.00371133,0.04068,1973,1282,36.305,-6.26352
756,-258,36.2614,5.7561,0,0,0,0,0,0,0,-1,1980,1282,36.2614,-5.75606
763,-258,34.3058,5.43958,0,0,0,0,0,0,0,-1,1987,1282,34.3058,-5.43955
770,-258,35.0776,4.69446,0,0,0,0,0,0,0,-1,1994,1282,35.0776,-4.6944
777,-258,31.912,4.83093,0,0,0,0,0,0,0,-1,2001,1282,31.912,-4.8309
784,-258,32.6525,6.43091,0,0,0,0,0,0,0,-1,2008,1282,32.6525,-6.43091
791,-258,0,0,0,0,0,0,0,0,0,-1,2015,1282,0,0
798,-258,0,0,0,0,0,0,0,0,0,-1,2022,1282,0,0
805,-258,0,0,0,0,0,0,0,0,0,-1,2029,1282,0,0
812,-258,0,0,0,0,0,0,0,0,0,-1,2036,1282,0,0
-700,-265,0,0,0,0,0,0,0,0,0,-1,524,1289,0,0
-693,-265,0,0,0,0,0,0,0,0,0,-1,531,1289,0,0
-686,-265,0,0,0,0,0,0,0,0,0,-1,538,1289,0,0
-679,-265,0,0,0,0,0,0,0,0,0,-1,545,1289,0,0
-672,-265,0,0,0,0,0,0,0,0,0,-1,552,1289,0,0
-665,-265,-22.1805,0.142822,0,0,0,0,0,0,0,-1,559,1289,-22.1805,-0.142782
-658,-265,-21.2094,0.122192,0,0,0,0,0,0,0,-1,566,1289,-21.2094,-0.122208
-651,-265,-27.0214,-3.03528,0,0,0,0,0,0,0,-1,573,1289,-27.0214,3.03525
-644,-265,-25.6805,-1.14551,0.236125,0.0208317,0.0904424,0.269076,-0.0121191,0.349382,0.183557,0.0452228,580,1289,-25.6806,1.14546
-637,-265,-24.2462,0.605835,0,0,0,0,0,0,0,-1,587,1289,-24.2462,-0.605871
-630,-265,-22.9382,2.09973,0,0,0,0,0,0,0,-1,594,1289,-22.9382,-2.09972
-623,-265,-21.9721,2.78882,0,0,0,0,0,0,0,-1,601,1289,-21.9721,-2.78879
-616,-265,-22.0699,3.38806,0.0810471,0.00992872,0.0327805,0.0938513,-0.00287548,0.37238,0.0635477,0.0467204,608,1289,-22.0699,-3.38807
-609,-265,-22.1759,4.06104,0.0546474,0.00756118,0.0225891,0.0637317,-0.00152308,0.38236,0.0430045,0.0189243,615,1289,-22.1759,-4.061
-602,-265,-22.2125,4.59863,0.0343494,0.00540878,0.0145946,0.0404313,-0.00067311,0.394838,0.0271814,0.0140879,622,1289,-22.2125,-4.59869
-595,-265,-22.2281,5.13525,0.0174138,0.00323083,0.00788342,0.020926,-0.000281343,0.419117,0.0140454,0.0124356,629,1289,-22.2282,-5.13523
-588,-265,-22.2413,5.6488,0.00589007,0.00178509,0.00320553,0.00764391,3.12559e-05,0.500636,0.00508556,0.0115697,636,1289,-22.2413,-5.64881
-581,-265,-22.2679,6.14038,0.00269161,0.000423057,0.00145367,0.00340117,-0.000286503,0.454096,0.00236873,0.0136362,643,1289,-22.2679,-6.14036
-574,-265,-22.3002,6.69861,0.00240941,-0.000804187,0.000901381,0.00264497,-0.00103975,0.255617,0.00219363,0.0143453,650,1289,-22.3002,-6.69857
-567,-265,-22.3329,7.229,0.00275651,-0.00191015,0.000785777,0.00288527,-0.00203891,0.162417,0.00285694,0.0202959,657,1289,-22.3329,-7.22904
-560,-265,-22.3834,7.76465,0.00249566,-0.00244599,0.00089803,0.0026538,-0.00260412,0.174305,0.00303571,0.0243297,664,1289,-22.3834,-7.7647
-553,-265,-22.3906,8.29773,0,0,0,0,0,0,0,-1,671,1289,-22.3906,-8.29774
-546,-265,-21.1743,8.77881,0,0,0,0,0,0,0,-1,678,1289,-21.1743,-8.77881
-539,-265,-13.7668,6.39917,0,0,0,0,0,0,0,-1,685,1289,-13.7668,-6.39915
-532,-265,-8.53998,3.41467,0,0,0,0,0,0,0,-1,692,1289,-8.53996,-3.41473
-525,-265,-12.1317,0.514648,0,0,0,0,0,0,0,-1,699,1289,-12.1317,-0.514634
-518,-265,-24.1604,0.712402,0,0,0,0,0,0,0,-1,706,1289,-24.1604,-0.712425
-511,-265,-23.233,0.791626,0,0,0,0,0,0,0,-1,713,1289,-23.233,-0.791617
-504,-265,-22.3056,0.87085,0,0,0,0,0,0,0,-1,720,1289,-22.3056,-0.87081
-497,-265,-18.689,-0.278442,0,0,0,0,0,0,0,-1,727,1289,-18.689,0.278423
-490,-265,-15.1696,0.492676,0,0,0,0,0,0,0,-1,734,1289,-15.1696,-0.492688
-483,-265,0,0,0,0,0,0,0,0,0,-1,741,1289,0,0
-476,-265,0,0,0,0,0,0,0,0,0,-1,748,1289,0,0
-469,-265,0,0,0,0,0,0,0,0,0,-1,755,1289,0,0
-462,-265,0,0,0,0,0,0,0,0,0,-1,762,1289,0,0
-455,-265,0,0,0,0,0,0,0,0,0,-1,769,1289,0,0
-448,-265,0,0,0,0,0,0,0,0,0,-1,776,1289,0,0
-441,-265,0,0,0,0,0,0,0,0,0,-1,783,1289,0,0
-434,-265,0,0,0,0,0,0,0,0,0,-1,790,1289,0,0
-427,-265,0,0,0,0,0,0,0,0,0,-1,797,1289,0,0
-420,-265,0,0,0,0,0,0,0,0,0,-1,804,1289,0,0
-413,-265,0,0,0,0,0,0,0,0,0,-1,811,1289,0,0
-406,-265,0,0,0,0,0,0,0,0,0,-1,818,1289,0,0
-399,-265,0,0,0,0,0,0,0,0,0,-1,825,1289,0,0
-392,-265,0,0,0,0,0,0,0,0,0,-1,832,1289,0,0
-385,-265,0,0,0,0,0,0,0,0,0,-1,839,1289,0,0
-378,-265,0,0,0,0,0,0,0,0,0,-1,846,1289,0,0
-371,-265,0,0,0,0,0,0,0,0,0,-1,853,1289,0,0
-364,-265,0,0,0,0,0,0,0,0,0,-1,860,1289,0,0
-357,-265,0,0,0,0,0,0,0,0,0,-1,867,1289,0,0
-350,-265,0,0,0,0,0,0,0,0,0,-1,874,1289,0,0
-343,-265,0,0,0,0,0,0,0,0,0,-1,881,1289,0,0
-336,-265,0,0,0,0,0,0,0,0,0,-1,888,1289,0,0
-329,-265,0,0,0,0,0,0,0,0,0,-1,895,1289,0,0
-322,-265,0,0,0,0,0,0,0,0,0,-1,902,1289,0,0
-315,-265,0,0,0,0,0,0,0,0,0,-1,909,1289,0,0
-308,-265,0,0,0,0,0,0,0,0,0,-1,916,1289,0,0
-301,-265,0,0,0,0,0,0,0,0,0,-1,923,1289,0,0
-294,-265,0,0,0,0,0,0,0,0,0,-1,930,1289,0,0
-287,-265,0,0,0,0,0,0,0,0,0,-1,937,1289,0,0
-280,-265,0,0,0,0,0,0,0,0,0,-1,944,1289,0,0
-273,-265,0,0,0,0,0,0,0,0,0,-1,951,1289,0,0
-266,-265,0,0,0,0,0,0,0,0,0,-1,958,1289,0,0
-259,-265,0,0,0,0,0,0,0,0,0,-1,965,1289,0,0
-252,-265,0,0,0,0,0,0,0,0,0,-1,972,1289,0,0
-245,-265,0,0,0,0,0,0,0,0,0,-1,979,1289,0,0
-238,-265,0,0,0,0,0,0,0,0,0,-1,986,1289,0,0
-231,-265,0,0,0,0,0,0,0,0,0,-1,993,1289,0,0
-224,-265,0,0,0,0,0,0,0,0,0,-1,1000,1289,0,0
-217,-265,0,0,0,0,0,0,0,0,0,-1,1007,1289,0,0
-210,-265,0,0,0,0,0,0,0,0,0,-1,1014,1289,0,0
-203,-265,0,0,0,0,0,0,0,0,0,-1,1021,1289,0,0
-196,-265,0,0,0,0,0,0,0,0,0,-1,1028,1289,0,0
-189,-265,0,0,0,0,0,0,0,0,0,-1,1035,1289,0,0
-182,-265,0,0,0,0,0,0,0,0,0,-1,1042,1289,0,0
-175,-265,0,0,0,0,0,0,0,0,0,-1,1049,1289,0,0
-168,-265,0,0,0,0,0,0,0,0,0,-1,1056,1289,0,0
-161,-265,0,0,0,0,0,0,0,0,0,-1,1063,1289,0,0
-154,-265,0,0,0,0,0,0,0,0,0,-1,1070,1289,0,0
-147,-265,0,0,0,0,0,0,0,0,0,-1,1077,1289,0,0
-140,-265,0,0,0,0,0,0,0,0,0,-1,1084,1289,0,0
-133,-265,0,0,0,0,0,0,0,0,0,-1,1091,1289,0,0
-126,-265,0,0,0,0,0,0,0,0,0,-1,1098,1289,0,0
-119,-265,0,0,0,0,0,0,0,0,0,-1,1105,1289,0,0
-112,-265,0,0,0,0,0,0,0,0,0,-1,1112,1289,0,0
-105,-265,0,0,0,0,0,0,0,0,0,-1,1119,1289,0,0
-98,-265,0,0,0,0,0,0,0,0,0,-1,1126,1289,0,0
-91,-265,0,0,0,0,0,0,0,0,0,-1,1133,1289,0,0
-84,-265,0,0,0,0,0,0,0,0,0,-1,1140,1289,0,0
-77,-265,0,0,0,0,0,0,0,0,0,-1,1147,1289,0,0
-70,-265,0,0,0,0,0,0,0,0,0,-1,1154,1289,0,0
-63,-265,0,0,0,0,0,0,0,0,0,-1,1161,1289,0,0
-56,-265,0,0,0,0,0,0,0,0,0,-1,1168,1289,0,0
-49,-265,0,0,0,0,0,0,0,0,0,-1,1175,1289,0,0
-42,-265,0,0,0,0,0,0,0,0,0,-1,1182,1289,0,0
-35,-265,0,0,0,0,0,0,0,0,0,-1,1189,1289,0,0
-28,-265,0,0,0,0,0,0,0,0,0,-1,1196,1289,0,0
-21,-265,0,0,0,0,0,0,0,0,0,-1,1203,1289,0,0
-14,-265,0,0,0,0,0,0,0,0,0,-1,1210,1289,0,0
-7,-265,0,0,0,0,0,0,0,0,0,-1,1217,1289,0,0
0,-265,0,0,0,0,0,0,0,0,0,-1,1224,1289,0,0
7,-265,0,0,0,0,0,0,0,0,0,-1,1231,1289,0,0
14,-265,0,0,0,0,0,0,0,0,0,-1,1238,1289,0,0
21,-265,0,0,0,0,0,0,0,0,0,-1,1245,1289,0,0
28,-265,0,0,0,0,0,0,0,0,0,-1,1252,1289,0,0
35,-265,0,0,0,0,0,0,0,0,0,-1,1259,1289,0,0
42,-265,0,0,0,0,0,0,0,0,0,-1,1266,1289,0,0
49,-265,0,0,0,0,0,0,0,0,0,-1,1273,1289,0,0
56,-265,0,0,0,0,0,0,0,0,0,-1,1280,1289,0,0
63,-265,0,0,0,0,0,0,0,0,0,-1,1287,1289,0,0
70,-265,0,0,0,0,0,0,0,0,0,-1,1294,1289,0,0
77,-265,0,0,0,0,0,0,0,0,0,-1,1301,1289,0,0
84,-265,0,0,0,0,0,0,0,0,0,-1,1308,1289,0,0
91,-265,0,0,0,0,0,0,0,0,0,-1,1315,1289,0,0
98,-265,0,0,0,0,0,0,0,0,0,-1,1322,1289,0,0
105,-265,0,0,0,0,0,0,0,0,0,-1,1329,1289,0,0
112,-265,0,0,0,0,0,0,0,0,0,-1,1336,1289,0,0
119,-265,0,0,0,0,0,0,0,0,0,-1,1343,1289,0,0
126,-265,0,0,0,0,0,0,0,0,0,-1,1350,1289,0,0
133,-265,0,0,0,0,0,0,0,0,0,-1,1357,1289,0,0
140,-265,0,0,0,0,0,0,0,0,0,-1,1364,1289,0,0
147,-265,0,0,0,0,0,0,0,0,0,-1,1371,1289,0,0
154,-265,0,0,0,0,0,0,0,0,0,-1,1378,1289,0,0
161,-265,0,0,0,0,0,0,0,0,0,-1,1385,1289,0,0
168,-265,0,0,0,0,0,0,0,0,0,-1,1392,1289,0,0
175,-265,0,0,0,0,0,0,0,0,0,-1,1399,1289,0,0
182,-265,0,0,0,0,0,0,0,0,0,-1,1406,1289,0,0
189,-265,0,0,0,0,0,0,0,0,0,-1,1413,1289,0,0
196,-265,0,0,0,0,0,0,0,0,0,-1,1420,1289,0,0
203,-265,0,0,0,0,0,0,0,0,0,-1,1427,1289,0,0
210,-265,0,0,0,0,0,0,0,0,0,-1,1434,1289,0,0
217,-265,0,0,0,0,0,0,0,0,0,-1,1441,1289,0,0
224,-265,0,0,0,0,0,0,0,0,0,-1,1448,1289,0,0
231,-265,0,0,0,0,0,0,0,0,0,-1,1455,1289,0,0
238,-265,0,0,0,0,0,0,0,0,0,-1,1462,1289,0,0
245,-265,0,0,0,0,0,0,0,0,0,-1,1469,1289,0,0
252,-265,0,0,0,0,0,0,0,0,0,-1,1476,1289,0,0
259,-265,0,0,0,0,0,0,0,0,0,-1,1483,1289,0,0
266,-265,0,0,0,0,0,0,0,0,0,-1,1490,1289,0,0
273,-265,0,0,0,0,0,0,0,0,0,-1,1497,1289,0,0
280,-265,0,0,0,0,0,0,0,0,0,-1,1504,1289,0,0
287,-265,0,0,0,0,0,0,0,0,0,-1,1511,1289,0,0
294,-265,0,0,0,0,0,0,0,0,0,-1,1518,1289,0,0
301,-265,0,0,0,0,0,0,0,0,0,-1,1525,1289,0,0
308,-265,0,0,0,0,0,0,0,0,0,-1,1532,1289,0,0
315,-265,0,0,0,0,0,0,0,0,0,-1,1539,1289,0,0
322,-265,0,0,0,0,0,0,0,0,0,-1,1546,1289,0,0
329,-265,0,0,0,0,0,0,0,0,0,-1,1553,1289,0,0
336,-265,0,0,0,0,0,0,0,0,0,-1,1560,1289,0,0
343,-265,0,0,0,0,0,0,0,0,0,-1,1567,1289,0,0
350,-265,0,0,0,0,0,0,0,0,0,-1,1574,1289,0,0
357,-265,0,0,0,0,0,0,0,0,0,-1,1581,1289,0,0
364,-265,0,0,0,0,0,0,0,0,0,-1,1588,1289,0,0
371,-265,0,0,0,0,0,0,0,0,0,-1,1595,1289,0,0
378,-265,0,0,0,0,0,0,0,0,0,-1,1602,1289,0,0
385,-265,0,0,0,0,0,0,0,0,0,-1,1609,1289,0,0
392,-265,0,0,0,0,0,0,0,0,0,-1,1616,1289,0,0
399,-265,0,0,0,0,0,0,0,0,0,-1,1623,1289,0,0
406,-265,0,0,0,0,0,0,0,0,0,-1,1630,1289,0,0
413,-265,0,0,0,0,0,0,0,0,0,-1,1637,1289,0,0
420,-265,0,0,0,0,0,0,0,0,0,-1,1644,1289,0,0
427,-265,0,0,0,0,0,0,0,0,0,-1,1651,1289,0,0
434,-265,0,0,0,0,0,0,0,0,0,-1,1658,1289,0,0
441,-265,0,0,0,0,0,0,0,0,0,-1,1665,1289,0,0
448,-265,0,0,0,0,0,0,0,0,0,-1,1672,1289,0,0
455,-265,0,0,0,0,0,0,0,0,0,-1,1679,1289,0,0
462,-265,0,0,0,0,0,0,0,0,0,-1,1686,1289,0,0
469,-265,0,0,0,0,0,0,0,0,0,-1,1693,1289,0,0
476,-265,0,0,0,0,0,0,0,0,0,-1,1700,1289,0,0
483,-265,0,0,0,0,0,0,0,0,0,-1,1707,1289,0,0
490,-265,0,0,0,0,0,0,0,0,0,-1,1714,1289,0,0
497,-265,0,0,0,0,0,0,0,0,0,-1,1721,1289,0,0
504,-265,0,0,0,0,0,0,0,0,0,-1,1728,1289,0,0
511,-265,0,0,0,0,0,0,0,0,0,-1,1735,1289,0,0
518,-265,0,0,0,0,0,0,0,0,0,-1,1742,1289,0,0
525,-265,0,0,0,0,0,0,0,0,0,-1,1749,1289,0,0
532,-265,0,0,0,0,0,0,0,0,0,-1,1756,1289,0,0
539,-265,0,0,0,0,0,0,0,0,0,-1,1763,1289,0,0
546,-265,0,0,0,0,0,0,0,0,0,-1,1770,1289,0,0
553,-265,0,0,0,0,0,0,0,0,0,-1,1777,1289,0,0
560,-265,0,0,0,0,0,0,0,0,0,-1,1784,1289,0,0
567,-265,0,0,0,0,0,0,0,0,0,-1,1791,1289,0,0
574,-265,0,0,0,0,0,0,0,0,0,-1,1798,1289,0,0
581,-265,0,0,0,0,0,0,0,0,0,-1,1805,1289,0,0
588,-265,0,0,0,0,0,0,0,0,0,-1,1812,1289,0,0
595,-265,0,0,0,0,0,0,0,0,0,-1,1819,1289,0,0
602,-265,49.3506,2.69739,-0.000378308,0.00405985,-0.00285479,0.00545659,-0.00177505,-1.11578,0.0043518,0.0279353,1826,1289,49.3505,-2.69739
609,-265,49.2625,2.67004,-0.00482749,0.0119933,-0.00428955,0.013024,-0.00585823,-1.33498,0.0111603,0.0312232,1833,1289,49.2625,-2.67007
616,-265,49.2579,2.6571,-0.00845568,0.017794,-0.00546723,0.0188872,-0.00954885,-1.37345,0.01671,0.0376593,1840,1289,49.258,-2.65715
623,-265,49.1532,2.43115,-0.0099959,0.0191055,-0.00529461,0.0200389,-0.0109292,-1.39631,0.0181355,0.0482643,1847,1289,49.1531,-2.43109
630,-265,49.1931,2.23071,-0.0102759,0.0181628,-0.00464843,0.0189033,-0.0110165,-1.41282,0.0174731,0.0470964,1854,1289,49.1931,-2.23075
637,-265,49.1826,2.03455,0,0,0,0,0,0,0,-1,1861,1289,49.1826,-2.03449
644,-265,48.5497,2.30701,0,0,0,0,0,0,0,-1,1868,1289,48.5496,-2.30697
651,-265,45.0878,3.73743,0,0,0,0,0,0,0,-1,1875,1289,45.0877,-3.73741
658,-265,41.7163,3.71619,0,0,0,0,0,0,0,-1,1882,1289,41.7163,-3.71624
665,-265,34.7902,1.43164,0,0,0,0,0,0,0,-1,1889,1289,34.7901,-1.43162
672,-265,20.0045,6.62671,0,0,0,0,0,0,0,-1,1896,1289,20.0045,-6.62668
679,-265,36.1166,10.8102,0,0,0,0,0,0,0,-1,1903,1289,36.1166,-10.8102
686,-265,36.0922,10.3157,-0.00353096,0.00360786,-0.000215603,0.00361436,-0.00353747,-1.54063,0.00412919,0.037306,1910,1289,36.0922,-10.3156
693,-265,36.064,9.83679,-0.00175607,0.00192959,8.52024e-06,0.00192961,-0.00175609,1.56848,0.00212872,0.0104518,1917,1289,36.0639,-9.83673
700,-265,36.0448,9.35571,-0.000302416,0.00104418,0.000131834,0.00105697,-0.000315201,1.47412,0.000829911,0.0107583,1924,1289,36.0448,-9.35569
707,-265,36.0551,8.86707,-0.000563639,5.65072e-05,0.000759049,0.000566374,-0.00107351,0.979305,0.000961758,0.010188,1931,1289,36.0551,-8.86704
714,-265,36.0209,8.41858,-0.000718503,-0.000174729,0.00117415,0.000758603,-0.00165184,0.899173,0.00142316,0.0120664,1938,1289,36.0209,-8.41861
721,-265,35.9657,7.96021,-0.000873167,-1.52346e-05,0.00137294,0.000994193,-0.00188259,0.936815,0.00168711,0.013731,1945,1289,35.9657,-7.96026
728,-265,35.9431,7.51892,-0.00105765,0.000132772,0.00162096,0.00126434,-0.00218923,0.961355,0.00201761,0.0146375,1952,1289,35.9431,-7.5189
735,-265,35.9912,7.05811,-0.00120842,0.000310874,0.0019098,0.00160656,-0.0025041,0.974686,0.00239208,0.0159669,1959,1289,35.9912,-7.05808
742,-265,35.9668,6.60583,-0.00122963,0.000548252,0.00222068,0.0020513,-0.00273268,0.975781,0.00277135,0.0197638,1966,1289,35.9668,-6.60589
749,-265,35.9884,6.23254,-0.00107315,0.00098015,0.00269371,0.00283622,-0.00292922,0.967465,0.00332882,0.0477804,1973,1289,35.9883,-6.23254
756,-265,36.1108,5.83032,0,0,0,0,0,0,0,-1,1980,1289,36.1109,-5.83028
763,-265,34.2904,5.52454,0,0,0,0,0,0,0,-1,1987,1289,34.2905,-5.52454
770,-265,35.1674,5.07715,0,0,0,0,0,0,0,-1,1994,1289,35.1673,-5.07718
777,-265,32.1664,5.3457,0,0,0,0,0,0,0,-1,2001,1289,32.1664,-5.34568
784,-265,0,0,0,0,0,0,0,0,0,-1,2008,1289,0,0
791,-265,0,0,0,0,0,0,0,0,0,-1,2015,1289,0,0
798,-265,0,0,0,0,0,0,0,0,0,-1,2022,1289,0,0
805,-265,0,0,0,0,0,0,0,0,0,-1,2029,1289,0,0
812,-265,0,0,0,0,0,0,0,0,0,-1,2036,1289,0,0
-700,-272,0,0,0,0,0,0,0,0,0,-1,524,1296,0,0
-693,-272,0,0,0,0,0,0,0,0,0,-1,531,1296,0,0
-686,-272,0,0,0,0,0,0,0,0,0,-1,538,1296,0,0
-679,-272,0,0,0,0,0,0,0,0,0,-1,545,1296,0,0
-672,-272,0,0,0,0,0,0,0,0,0,-1,552,1296,0,0
-665,-272,0,0,0,0,0,0,0,0,0,-1,559,1296,0,0
-658,-272,-28.1334,-4.6333,0,0,0,0,0,0,0,-1,566,1296,-28.1334,4.63328
-651,-272,-26.7703,-2.948,0.304637,0.0249211,0.114095,0.345273,-0.0157142,0.342147,0.235595,0.0470455,573,1296,-26.7703,2.94801
-644,-272,-25.35,-1.15283,0.25883,0.0223189,0.0977842,0.294022,-0.0128729,0.345461,0.200444,0.0432131,580,1296,-25.35,1.15282
-637,-272,-24.1431,0.0113525,0,0,0,0,0,0,0,-1,587,1296,-24.1431,-0.0113922
-630,-272,-24.3105,0.124756,0,0,0,0,0,0,0,-1,594,1296,-24.3106,-0.124796
-623,-272,-21.3972,1.64807,0,0,0,0,0,0,0,-1,601,1296,-21.3971,-1.64808
-616,-272,-21.4461,3.36646,0,0,0,0,0,0,0,-1,608,1296,-21.4461,-3.36648
-609,-272,-21.6108,4.20154,0.0649823,0.0084983,0.0263495,0.0753655,-0.0018849,0.375373,0.0508836,0.0270769,615,1296,-21.6109,-4.20154
-602,-272,-21.6685,4.60583,0.0416515,0.00623414,0.0173159,0.0487105,-0.000824831,0.387091,0.0327521,0.0148225,622,1296,-21.6684,-4.60581
-595,-272,-21.7065,5.15747,0.0216895,0.00385804,0.00955111,0.0258396,-0.000291978,0.409895,0.0173245,0.0114254,629,1296,-21.7065,-5.15753
-588,-272,-21.7284,5.67761,0.00725522,0.00238816,0.00383877,0.00936682,0.000276553,0.502899,0.00615444,0.0104155,636,1296,-21.7284,-5.67765
-581,-272,-21.7586,6.17029,0.0028143,0.000984963,0.00159507,0.00373834,6.09236e-05,0.525069,0.00247217,0.00986414,643,1296,-21.7586,-6.17025
-574,-272,-21.7994,6.71362,0.00244427,-0.000229107,0.000968763,0.00275841,-0.000543248,0.313571,0.00204423,0.0146465,650,1296,-21.7994,-6.71357
-567,-272,-21.8149,7.24658,0.00276177,-0.00118565,0.000775995,0.00290883,-0.00133272,0.187301,0.00250458,0.0213464,657,1296,-21.815,-7.24664
-560,-272,-21.8556,7.78564,0.00284627,-0.00159426,0.000843924,0.00300124,-0.00174924,0.181618,0.00277426,0.0216246,664,1296,-21.8556,-7.78562
-553,-272,-21.7771,8.29932,0.0028058,-0.00167054,0.00126877,0.00314041,-0.00200515,0.257855,0.00299479,0.0242799,671,1296,-21.7771,-8.29934
-546,-272,-21.6992,8.81177,0,0,0,0,0,0,0,-1,678,1296,-21.6992,-8.81177
-539,-272,-21.0858,9.44312,0,0,0,0,0,0,0,-1,685,1296,-21.0858,-9.44317
-532,-272,-10.5572,4.53943,0,0,0,0,0,0,0,-1,692,1296,-10.5572,-4.53943
-525,-272,-11.9599,0.0393066,0,0,0,0,0,0,0,-1,699,1296,-11.9599,-0.0393577
-518,-272,-21.1357,-1.41382,0,0,0,0,0,0,0,-1,706,1296,-21.1357,1.41379
-511,-272,-23.2565,0.226318,0,0,0,0,0,0,0,-1,713,1296,-23.2565,-0.22626
-504,-272,-19.7397,0.114746,0,0,0,0,0,0,0,-1,720,1296,-19.7397,-0.114701
-497,-272,-19.2225,1.71301,0,0,0,0,0,0,0,-1,727,1296,-19.2225,-1.71302
-490,-272,-20.1948,2.4032,0,0,0,0,0,0,0,-1,734,1296,-20.1948,-2.40322
-483,-272,-15.3736,0.792603,0,0,0,0,0,0,0,-1,741,1296,-15.3736,-0.79263
-476,-272,0,0,0,0,0,0,0,0,0,-1,748,1296,0,0
-469,-272,0,0,0,0,0,0,0,0,0,-1,755,1296,0,0
-462,-272,0,0,0,0,0,0,0,0,0,-1,762,1296,0,0
-455,-272,0,0,0,0,0,0,0,0,0,-1,769,1296,0,0
-448,-272,0,0,0,0,0,0,0,0,0,-1,776,1296,0,0
-441,-272,0,0,0,0,0,0,0,0,0,-1,783,1296,0,0
-434,-272,0,0,0,0,0,0,0,0,0,-1,790,1296,0,0
-427,-272,0,0,0,0,0,0,0,0,0,-1,797,1296,0,0
-420,-272,0,0,0,0,0,0,0,0,0,-1,804,1296,0,0
-413,-272,0,0,0,0,0,0,0,0,0,-1,811,1296,0,0
-406,-272,0,0,0,0,0,0,0,0,0,-1,818,1296,0,0
-399,-272,0,0,0,0,0,0,0,0,0,-1,825,1296,0,0
-392,-272,0,0,0,0,0,0,0,0,0,-1,832,1296,0,0
-385,-272,0,0,0,0,0,0,0,0,0,-1,839,1296,0,0
-378,-272,0,0,0,0,0,0,0,0,0,-1,846,1296,0,0
-371,-272,0,0,0,0,0,0,0,0,0,-1,853,1296,0,0
-364,-272,0,0,0,0,0,0,0,0,0,-1,860,1296,0,0
-357,-272,0,0,0,0,0,0,0,0,0,-1,867,1296,0,0
-350,-272,0,0,0,0,0,0,0,0,0,-1,874,1296,0,0
-343,-272,0,0,0,0,0,0,0,0,0,-1,881,1296,0,0
-336,-272,0,0,0,0,0,0,0,0,0,-1,888,1296,0,0
-329,-272,0,0,0,0,0,0,0,0,0,-1,895,1296,0,0
-322,-272,0,0,0,0,0,0,0,0,0,-1,902,1296,0,0
-315,-272,0,0,0,0,0,0,0,0,0,-1,909,1296,0,0
-308,-272,0,0,0,0,0,0,0,0,0,-1,916,1296,0,0
-301,-272,0,0,0,0,0,0,0,0,0,-1,923,1296,0,0
-294,-272,0,0,0,0,0,0,0,0,0,-1,930,1296,0,0
-287,-272,0,0,0,0,0,0,0,0,0,-1,937,1296,0,0
-280,-272,0,0,0,0,0,0,0,0,0,-1,944,1296,0,0
-273,-272,0,0,0,0,0,0,0,0,0,-1,951,1296,0,0
-266,-272,0,0,0,0,0,0,0,0,0,-1,958,1296,0,0
-259,-272,0,0,0,0,0,0,0,0,0,-1,965,1296,0,0
-252,-272,0,0,0,0,0,0,0,0,0,-1,972,1296,0,0
-245,-272,0,0,0,0,0,0,0,0,0,-1,979,1296,0,0
-238,-272,0,0,0,0,0,0,0,0,0,-1,986,1296,0,0
-231,-272,0,0,0,0,0,0,0,0,0,-1,993,1296,0,0
-224,-272,0,0,0,0,0,0,0,0,0,-1,1000,1296,0,0
-217,-272,0,0,0,0,0,0,0,0,0,-1,1007,1296,0,0
-210,-272,0,0,0,0,0,0,0,0,0,-1,1014,1296,0,0
-203,-272,0,0,0,0,0,0,0,0,0,-1,1021,1296,0,0
-196,-272,0,0,0,0,0,0,0,0,0,-1,1028,1296,0,0
-189,-272,0,0,0,0,0,0,0,0,0,-1,1035,1296,0,0
-182,-272,0,0,0,0,0,0,0,0,0,-1,1042,1296,0,0
-175,-272,0,0,0,0,0,0,0,0,0,-1,1049,1296,0,0
-168,-272,0,0,0,0,0,0,0,0,0,-1,1056,1296,0,0
-161,-272,0,0,0,0,0,0,0,0,0,-1,1063,1296,0,0
-154,-272,0,0,0,0,0,0,0,0,0,-1,1070,1296,0,0
-147,-272,0,0,0,0,0,0,0,0,0,-1,1077,1296,0,0
-140,-272,0,0,0,0,0,0,0,0,0,-1,1084,1296,0,0
-133,-272,0,0,0,0,0,0,0,0,0,-1,1091,1296,0,0
-126,-272,0,0,0,0,0,0,0,0,0,-1,1098,1296,0,0
-119,-272,0,0,0,0,0,0,0,0,0,-1,1105,1296,0,0
-112,-272,0,0,0,0,0,0,0,0,0,-1,1112,1296,0,0
-105,-272,0,0,0,0,0,0,0,0,0,-1,1119,1296,0,0
-98,-272,0,0,0,0,0,0,0,0,0,-1,1126,1296,0,0
-91,-272,0,0,0,0,0,0,0,0,0,-1,1133,1296,0,0
-84,-272,0,0,0,0,0,0,0,0,0,-1,1140,1296,0,0
-77,-272,0,0,0,0,0,0,0,0,0,-1,1147,1296,0,0
-70,-272,0,0,0,0,0,0,0,0,0,-1,1154,1296,0,0
-63,-272,0,0,0,0,0,0,0,0,0,-1,1161,1296,0,0
-56,-272,0,0,0,0,0,0,0,0,0,-1,1168,1296,0,0
-49,-272,0,0,0,0,0,0,0,0,0,-1,1175,1296,0,0
-42,-272,0,0,0,0,0,0,0,0,0,-1,1182,1296,0,0
-35,-272,0,0,0,0,0,0,0,0,0,-1,1189,1296,0,0
-28,-272,0,0,0,0,0,0,0,0,0,-1,1196,1296,0,0
-21,-272,0,0,0,0,0,0,0,0,0,-1,1203,1296,0,0
-14,-272,0,0,0,0,0,0,0,0,0,-1,1210,1296,0,0
-7,-272,0,0,0,0,0,0,0,0,0,-1,1217,1296,0,0
0,-272,0,0,0,0,0,0,0,0,0,-1,1224,1296,0,0
7,-272,0,0,0,0,0,0,0,0,0,-1,1231,1296,0,0
14,-272,0,0,0,0,0,0,0,0,0,-1,1238,1296,0,0
21,-272,0,0,0,0,0,0,0,0,0,-1,1245,1296,0,0
28,-272,0,0,0,0,0,0,0,0,0,-1,1252,1296,0,0
35,-272,0,0,0,0,0,0,0,0,0,-1,1259,1296,0,0
42,-272,0,0,0,0,0,0,0,0,0,-1,1266,1296,0,0
49,-272,0,0,0,0,0,0,0,0,0,-1,1273,1296,0,0
56,-272,0,0,0,0,0,0,0,0,0,-1,1280,1296,0,0
63,-272,0,0,0,0,0,0,0,0,0,-1,1287,1296,0,0
70,-272,0,0,0,0,0,0,0,0,0,-1,1294,1296,0,0
77,-272,0,0,0,0,0,0,0,0,0,-1,1301,1296,0,0
84,-272,0,0,0,0,0,0,0,0,0,-1,1308,1296,0,0
91,-272,0,0,0,0,0,0,0,0,0,-1,1315,1296,0,0
98,-272,0,0,0,0,0,0,0,0,0,-1,1322,1296,0,0
105,-272,0,0,0,0,0,0,0,0,0,-1,1329,1296,0,0
112,-272,0,0,0,0,0,0,0,0,0,-1,1336,1296,0,0
119,-272,0,0,0,0,0,0,0,0,0,-1,1343,1296,0,0
126,-272,0,0,0,0,0,0,0,0,0,-1,1350,1296,0,0
133,-272,0,0,0,0,0,0,0,0,0,-1,1357,1296,0,0
140,-272,0,0,0,0,0,0,0,0,0,-1,1364,1296,0,0
147,-272,0,0,0,0,0,0,0,0,0,-1,1371,1296,0,0
154,-272,0,0,0,0,0,0,0,0,0,-1,1378,1296,0,0
161,-272,0,0,0,0,0,0,0,0,0,-1,1385,1296,0,0
168,-272,0,0,0,0,0,0,0,0,0,-1,1392,1296,0,0
175,-272,0,0,0,0,0,0,0,0,0,-1,1399,1296,0,0
182,-272,0,0,0,0,0,0,0,0,0,-1,1406,1296,0,0
189,-272,0,0,0,0,0,0,0,0,0,-1,1413,1296,0,0
196,-272,0,0,0,0,0,0,0,0,0,-1,1420,1296,0,0
203,-272,0,0,0,0,0,0,0,0,0,-1,1427,1296,0,0
210,-272,0,0,0,0,0,0,0,0,0,-1,1434,1296,0,0
217,-272,0,0,0,0,0,0,0,0,0,-1,1441,1296,0,0
224,-272,0,0,0,0,0,0,0,0,0,-1,1448,1296,0,0
231,-272,0,0,0,0,0,0,0,0,0,-1,1455,1296,0,0
238,-272,0,0,0,0,0,0,0,0,0,-1,1462,1296,0,0
245,-272,0,0,0,0,0,0,0,0,0,-1,1469,1296,0,0
252,-272,0,0,0,0,0,0,0,0,0,-1,1476,1296,0,0
259,-272,0,0,0,0,0,0,0,0,0,-1,1483,1296,0,0
266,-272,0,0,0,0,0,0,0,0,0,-1,1490,1296,0,0
273,-272,0,0,0,0,0,0,0,0,0,-1,1497,1296,0,0
280,-272,0,0,0,0,0,0,0,0,0,-1,1504,1296,0,0
287,-272,0,0,0,0,0,0,0,0,0,-1,1511,1296,0,0
294,-272,0,0,0,0,0,0,0,0,0,-1,1518,1296,0,0
301,-272,0,0,0,0,0,0,0,0,0,-1,1525,1296,0,0
308,-272,0,0,0,0,0,0,0,0,0,-1,1532,1296,0,0
315,-272,0,0,0,0,0,0,0,0,0,-1,1539,1296,0,0
322,-272,0,0,0,0,0,0,0,0,0,-1,1546,1296,0,0
329,-272,0,0,0,0,0,0,0,0,0,-1,1553,1296,0,0
336,-272,0,0,0,0,0,0,0,0,0,-1,1560,1296,0,0
343,-272,0,0,0,0,0,0,0,0,0,-1,1567,1296,0,0
350,-272,0,0,0,0,0,0,0,0,0,-1,1574,1296,0,0
357,-272,0,0,0,0,0,0,0,0,0,-1,1581,1296,0,0
364,-272,0,0,0,0,0,0,0,0,0,-1,1588,1296,0,0
371,-272,0,0,0,0,0,0,0,0,0,-1,1595,1296,0,0
378,-272,0,0,0,0,0,0,0,0,0,-1,1602,1296,0,0
385,-272,0,0,0,0,0,0,0,0,0,-1,1609,1296,0,0
392,-272,0,0,0,0,0,0,0,0,0,-1,1616,1296,0,0
399,-272,0,0,0,0,0,0,0,0,0,-1,1623,1296,0,0
406,-272,0,0,0,0,0,0,0,0,0,-1,1630,1296,0,0
413,-272,0,0,0,0,0,0,0,0,0,-1,1637,1296,0,0
420,-272,0,0,0,0,0,0,0,0,0,-1,1644,1296,0,0
427,-272,0,0,0,0,0,0,0,0,0,-1,1651,1296,0,0
434,-272,0,0,0,0,0,0,0,0,0,-1,1658,1296,0,0
441,-272,0,0,0,0,0,0,0,0,0,-1,1665,1296,0,0
448,-272,0,0,0,0,0,0,0,0,0,-1,1672,1296,0,0
455,-272,0,0,0,0,0,0,0,0,0,-1,1679,1296,0,0
462,-272,0,0,0,0,0,0,0,0,0,-1,1686,1296,0,0
469,-272,0,0,0,0,0,0,0,0,0,-1,1693,1296,0,0
476,-272,0,0,0,0,0,0,0,0,0,-1,1700,1296,0,0
483,-272,0,0,0,0,0,0,0,0,0,-1,1707,1296,0,0
490,-272,0,0,0,0,0,0,0,0,0,-1,1714,1296,0,0
497,-272,0,0,0,0,0,0,0,0,0,-1,1721,1296,0,0
504,-272,0,0,0,0,0,0,0,0,0,-1,1728,1296,0,0
511,-272,0,0,0,0,0,0,0,0,0,-1,1735,1296,0,0
518,-272,0,0,0,0,0,0,0,0,0,-1,1742,1296,0,0
525,-272,0,0,0,0,0,0,0,0,0,-1,1749,1296,0,0
532,-272,0,0,0,0,0,0,0,0,0,-1,1756,1296,0,0
539,-272,0,0,0,0,0,0,0,0,0,-1,1763,1296,0,0
546,-272,0,0,0,0,0,0,0,0,0,-1,1770,1296,0,0
553,-272,0,0,0,0,0,0,0,0,0,-1,1777,1296,0,0
560,-272,0,0,0,0,0,0,0,0,0,-1,1784,1296,0,0
567,-272,0,0,0,0,0,0,0,0,0,-1,1791,1296,0,0
574,-272,0,0,0,0,0,0,0,0,0,-1,1798,1296,0,0
581,-272,0,0,0,0,0,0,0,0,0,-1,1805,1296,0,0
588,-272,0,0,0,0,0,0,0,0,0,-1,1812,1296,0,0
595,-272,0,0,0,0,0,0,0,0,0,-1,1819,1296,0,0
602,-272,49.3357,2.68774,-0.00353339,0.0109756,-0.00613156,0.0132197,-0.00577751,-1.21994,0.0112451,0.0329891,1826,1296,49.3357,-2.68769
609,-272,49.2516,2.60229,-0.00759387,0.0193742,-0.0079441,0.0215403,-0.00976,-1.3046,0.018493,0.0420355,1833,1296,49.2516,-2.60229
616,-272,49.2407,2.51013,-0.00923915,0.0216227,-0.00779225,0.0234785,-0.011095,-1.33699,0.0203834,0.0481505,1840,1296,49.2407,-2.51012
623,-272,48.9971,2.17151,-0.00907248,0.0196965,-0.00636142,0.0210403,-0.0104163,-1.3626,0.0185036,0.0448709,1847,1296,48.9971,-2.17152
630,-272,49.1613,2.11646,0,0,0,0,0,0,0,-1,1854,1296,49.1613,-2.11643
637,-272,49.585,2.91833,0,0,0,0,0,0,0,-1,1861,1296,49.5849,-2.91836
644,-272,48.5034,3.21082,0,0,0,0,0,0,0,-1,1868,1296,48.5034,-3.21077
651,-272,41.9225,4.27161,0,0,0,0,0,0,0,-1,1875,1296,41.9225,-4.27157
658,-272,35.1527,2.10571,0,0,0,0,0,0,0,-1,1882,1296,35.1527,-2.10573
665,-272,22.0238,4.14417,0,0,0,0,0,0,0,-1,1889,1296,22.0238,-4.14421
672,-272,22.661,7.21765,0,0,0,0,0,0,0,-1,1896,1296,22.661,-7.21761
679,-272,35.6112,10.8337,0,0,0,0,0,0,0,-1,1903,1296,35.6111,-10.8337
686,-272,35.6083,10.3325,-0.00359938,0.00300104,0.000151029,0.0030045,-0.00360283,1.54793,0.00381995,0.0243006,1910,1296,35.6083,-10.3326
693,-272,35.5822,9.86841,-0.00173092,0.00134051,0.000332651,0.00137612,-0.00176653,1.46414,0.00181907,0.0124848,1917,1296,35.5822,-9.86842
700,-272,35.5684,9.37866,-0.000343395,0.000596818,0.00041376,0.000752969,-0.000499545,1.20993,0.000728056,0.0123544,1924,1296,35.5683,-9.37861
707,-272,35.568,8.87671,-0.000515411,-9.21081e-05,0.000887497,0.000608625,-0.00121614,0.902453,0.00107282,0.0112222,1931,1296,35.568,-8.87674
714,-272,35.5397,8.41846,-0.000641004,-0.000158059,0.00115201,0.000777516,-0.00157658,0.888707,0.00138499,0.0131069,1938,1296,35.5397,-8.41843
721,-272,35.5015,8.00098,-0.000851893,3.07292e-05,0.00127646,0.00094001,-0.00176117,0.951832,0.00158337,0.0170871,1945,1296,35.5014,-8.00101
728,-272,35.5077,7.50647,-0.00113956,0.000187437,0.00145816,0.00112595,-0.00207807,0.99891,0.00187687,0.0193848,1952,1296,35.5077,-7.50646
735,-272,35.4998,7.04785,-0.00142945,0.000352037,0.00165477,0.00134057,-0.00241799,1.0323,0.00219952,0.017146,1959,1296,35.4998,-7.04785
742,-272,35.4337,6.63,-0.00164792,0.000544287,0.00184587,0.00159496,-0.0026986,1.05333,0.00250604,0.0259431,1966,1296,35.4337,-6.63002
749,-272,35.4709,6.08899,0,0,0,0,0,0,0,-1,1973,1296,35.471,-6.08894
756,-272,32.9099,5.30151,0,0,0,0,0,0,0,-1,1980,1296,32.9099,-5.30156
763,-272,34.3995,5.88416,0,0,0,0,0,0,0,-1,1987,1296,34.3996,-5.88419
770,-272,25.9485,3.67749,0,0,0,0,0,0,0,-1,1994,1296,25.9485,-3.67744
777,-272,32.3619,6.13257,0,0,0,0,0,0,0,-1,2001,1296,32.362,-6.1326
784,-272,0,0,0,0,0,0,0,0,0,-1,2008,1296,0,0
791,-272,0,0,0,0,0,0,0,0,0,-1,2015,1296,0,0
798,-272,0,0,0,0,0,0,0,0,0,-1,2022,1296,0,0
805,-272,0,0,0,0,0,0,0,0,0,-1,2029,1296,0,0
812,-272,0,0,0,0,0,0,0,0,0,-1,2036,1296,0,0
-700,-279,0,0,0,0,0,0,0,0,0,-1,524,1303,0,0
-693,-279,0,0,0,0,0,0,0,0,0,-1,531,1303,0,0
-686,-279,0,0,0,0,0,0,0,0,0,-1,538,1303,0,0
-679,-279,0,0,0,0,0,0,0,0,0,-1,545,1303,0,0
-672,-279,0,0,0,0,0,0,0,0,0,-1,552,1303,0,0
-665,-279,0,0,0,0,0,0,0,0,0,-1,559,1303,0,0
-658,-279,-27.9384,-4.67908,0,0,0,0,0,0,0,-1,566,1303,-27.9384,4.67911
-651,-279,-26.6188,-3.02917,0.329107,0.0265809,0.122216,0.372311,-0.0166225,0.33979,0.253929,0.0450274,573,1303,-26.6188,3.02916
-644,-279,-24.7408,-1.33301,0.282252,0.0236182,0.10578,0.320005,-0.0141347,0.342808,0.218201,0.0440034,580,1303,-24.7408,1.33295
-637,-279,-23.1089,0.687988,0,0,0,0,0,0,0,-1,587,1303,-23.1089,-0.687977
-630,-279,-19.8475,-0.60144,0,0,0,0,0,0,0,-1,594,1303,-19.8475,0.60148
-623,-279,-22.2665,2.68457,0,0,0,0,0,0,0,-1,601,1303,-22.2665,-2.68451
-616,-279,-21.801,3.35339,0,0,0,0,0,0,0,-1,608,1303,-21.801,-3.35343
-609,-279,-21.4288,3.99341,0.0755319,0.00935349,0.0302161,0.0872523,-0.002367,0.370022,0.0589731,0.0470675,615,1303,-21.4288,-3.99341
-602,-279,-21.1351,4.60815,0.0491105,0.00698165,0.0201163,0.0571729,-0.0010808,0.381189,0.0384806,0.0149524,622,1303,-21.135,-4.60812
-595,-279,-21.1928,5.1626,0.0260696,0.00439893,0.011279,0.0308746,-0.00040607,0.402728,0.0207198,0.0103706,629,1303,-21.1928,-5.16265
-588,-279,-21.2139,5.6936,0.00863223,0.00291034,0.00449788,0.0111019,0.000440629,0.502139,0.00725888,0.0108458,636,1303,-21.2139,-5.69366
-581,-279,-21.2357,6.17688,0.00284086,0.00146755,0.00174524,0.00402966,0.000278747,0.597977,0.00259851,0.012243,643,1303,-21.2357,-6.17683
-574,-279,-21.2733,6.6936,0.00243189,0.00024223,0.00108652,0.00287951,-0.000205396,0.390794,0.00199167,0.01305,650,1303,-21.2733,-6.69361
-567,-279,-21.2813,7.23071,0.00258615,-0.000707654,0.000806447,0.002773,-0.000894503,0.227677,0.00220808,0.0178866,657,1303,-21.2813,-7.23067
-560,-279,-21.2799,7.79248,0.00274992,-0.00130919,0.000780189,0.00289471,-0.00145398,0.183499,0.00255624,0.0179177,664,1303,-21.2799,-7.79252
-553,-279,-21.2701,8.33582,0.00292936,-0.00161342,0.00104249,0.00315716,-0.00184123,0.215141,0.00291897,0.0146487,671,1303,-21.2701,-8.33585
-546,-279,-21.2438,8.85083,0.00307115,-0.00137042,0.00130808,0.00342776,-0.00172703,0.266153,0.00302963,0.0269181,678,1303,-21.2437,-8.85084
-539,-279,-21.1743,9.3335,0,0,0,0,0,0,0,-1,685,1303,-21.1743,-9.33345
-532,-279,-14.9813,7.89917,0,0,0,0,0,0,0,-1,692,1303,-14.9813,-7.89918
-525,-279,-11.7063,-0.539185,0,0,0,0,0,0,0,-1,699,1303,-11.7063,0.539166
-518,-279,-16.8138,1.11963,0,0,0,0,0,0,0,-1,706,1303,-16.8138,-1.11968
-511,-279,-20.1063,-1.37915,0,0,0,0,0,0,0,-1,713,1303,-20.1062,1.37918
-504,-279,-18.3766,1.04578,0,0,0,0,0,0,0,-1,720,1303,-18.3767,-1.04577
-497,-279,-19.0046,2.08911,0,0,0,0,0,0,0,-1,727,1303,-19.0046,-2.08905
-490,-279,-20.0176,2.55188,0,0,0,0,0,0,0,-1,734,1303,-20.0176,-2.55183
-483,-279,-20.8064,2.99792,0,0,0,0,0,0,0,-1,741,1303,-20.8064,-2.99797
-476,-279,0,0,0,0,0,0,0,0,0,-1,748,1303,0,0
-469,-279,0,0,0,0,0,0,0,0,0,-1,755,1303,0,0
-462,-279,0,0,0,0,0,0,0,0,0,-1,762,1303,0,0
-455,-279,0,0,0,0,0,0,0,0,0,-1,769,1303,0,0
-448,-279,0,0,0,0,0,0,0,0,0,-1,776,1303,0,0
-441,-279,0,0,0,0,0,0,0,0,0,-1,783,1303,0,0
-434,-279,0,0,0,0,0,0,0,0,0,-1,790,1303,0,0
-427,-279,0,0,0,0,0,0,0,0,0,-1,797,1303,0,0
-420,-279,0,0,0,0,0,0,0,0,0,-1,804,1303,0,0
-413,-279,0,0,0,0,0,0,0,0,0,-1,811,1303,0,0
-406,-279,0,0,0,0,0,0,0,0,0,-1,818,1303,0,0
-399,-279,0,0,0,0,0,0,0,0,0,-1,825,1303,0,0
-392,-279,0,0,0,0,0,0,0,0,0,-1,832,1303,0,0
-385,-279,0,0,0,0,0,0,0,0,0,-1,839,1303,0,0
-378,-279,0,0,0,0,0,0,0,0,0,-1,846,1303,0,0
-371,-279,0,0,0,0,0,0,0,0,0,-1,853,1303,0,0
-364,-279,0,0,0,0,0,0,0,0,0,-1,860,1303,0,0
-357,-279,0,0,0,0,0,0,0,0,0,-1,867,1303,0,0
-350,-279,0,0,0,0,0,0,0,0,0,-1,874,1303,0,0
-343,-279,0,0,0,0,0,0,0,0,0,-1,881,1303,0,0
-336,-279,0,0,0,0,0,0,0,0,0,-1,888,1303,0,0
-329,-279,0,0,0,0,0,0,0,0,0,-1,895,1303,0,0
-322,-279,0,0,0,0,0,0,0,0,0,-1,902,1303,0,0
-315,-279,0,0,0,0,0,0,0,0,0,-1,909,1303,0,0
-308,-279,0,0,0,0,0,0,0,0,0,-1,916,1303,0,0
-301,-279,0,0,0,0,0,0,0,0,0,-1,923,1303,0,0
-294,-279,0,0,0,0,0,0,0,0,0,-1,930,1303,0,0
-287,-279,0,0,0,0,0,0,0,0,0,-1,937,1303,0,0
-280,-279,0,0,0,0,0,0,0,0,0,-1,944,1303,0,0
-273,-279,0,0,0,0,0,0,0,0,0,-1,951,1303,0,0
-266,-279,0,0,0,0,0,0,0,0,0,-1,958,1303,0,0
-259,-279,0,0,0,0,0,0,0,0,0,-1,965,1303,0,0
-252,-279,0,0,0,0,0,0,0,0,0,-1,972,1303,0,0
-245,-279,0,0,0,0,0,0,0,0,0,-1,979,1303,0,0
-238,-279,0,0,0,0,0,0,0,0,0,-1,986,1303,0,0
-231,-279,0,0,0,0,0,0,0,0,0,-1,993,1303,0,0
-224,-279,0,0,0,0,0,0,0,0,0,-1,1000,1303,0,0
-217,-279,0,0,0,0,0,0,0,0,0,-1,1007,1303,0,0
-210,-279,0,0,0,0,0,0,0,0,0,-1,1014,1303,0,0
-203,-279,0,0,0,0,0,0,0,0,0,-1,1021,1303,0,0
-196,-279,0,0,0,0,0,0,0,0,0,-1,1028,1303,0,0
-189,-279,0,0,0,0,0,0,0,0,0,-1,1035,1303,0,0
-182,-279,0,0,0,0,0,0,0,0,0,-1,1042,1303,0,0
-175,-279,0,0,0,0,0,0,0,0,0,-1,1049,1303,0,0
-168,-279,0,0,0,0,0,0,0,0,0,-1,1056,1303,0,0
-161,-279,0,0,0,0,0,0,0,0,0,-1,1063,1303,0,0
-154,-279,0,0,0,0,0,0,0,0,0,-1,1070,1303,0,0
-147,-279,0,0,0,0,0,0,0,0,0,-1,1077,1303,0,0
-140,-279,0,0,0,0,0,0,0,0,0,-1,1084,1303,0,0
-133,-279,0,0,0,0,0,0,0,0,0,-1,1091,1303,0,0
-126,-279,0,0,0,0,0,0,0,0,0,-1,1098,1303,0,0
-119,-279,0,0,0,0,0,0,0,0,0,-1,1105,1303,0,0
-112,-279,0,0,0,0,0,0,0,0,0,-1,1112,1303,0,0
-105,-279,0,0,0,0,0,0,0,0,0,-1,1119,1303,0,0
-98,-279,0,0,0,0,0,0,0,0,0,-1,1126,1303,0,0
-91,-279,0,0,0,0,0,0,0,0,0,-1,1133,1303,0,0
-84,-279,0,0,0,0,0,0,0,0,0,-1,1140,1303,0,0
-77,-279,0,0,0,0,0,0,0,0,0,-1,1147,1303,0,0
-70,-279,0,0,0,0,0,0,0,0,0,-1,1154,1303,0,0
-63,-279,0,0,0,0,0,0,0,0,0,-1,1161,1303,0,0
-56,-279,0,0,0,0,0,0,0,0,0,-1,1168,1303,0,0
-49,-279,0,0,0,0,0,0,0,0,0,-1,1175,1303,0,0
-42,-279,0,0,0,0,0,0,0,0,0,-1,1182,1303,0,0
-35,-279,0,0,0,0,0,0,0,0,0,-1,1189,1303,0,0
-28,-279,0,0,0,0,0,0,0,0,0,-1,1196,1303,0,0
-21,-279,0,0,0,0,0,0,0,0,0,-1,1203,1303,0,0
-14,-279,0,0,0,0,0,0,0,0,0,-1,1210,1303,0,0
-7,-279,0,0,0,0,0,0,0,0,0,-1,1217,1303,0,0
0,-279,0,0,0,0,0,0,0,0,0,-1,1224,1303,0,0
7,-279,0,0,0,0,0,0,0,0,0,-1,1231,1303,0,0
14,-279,0,0,0,0,0,0,0,0,0,-1,1238,1303,0,0
21,-279,0,0,0,0,0,0,0,0,0,-1,1245,1303,0,0
28,-279,0,0,0,0,0,0,0,0,0,-1,1252,1303,0,0
35,-279,0,0,0,0,0,0,0,0,0,-1,1259,1303,0,0
42,-279,0,0,0,0,0,0,0,0,0,-1,1266,1303,0,0
49,-279,0,0,0,0,0,0,0,0,0,-1,1273,1303,0,0
56,-279,0,0,0,0,0,0,0,0,0,-1,1280,1303,0,0
63,-279,0,0,0,0,0,0,0,0,0,-1,1287,1303,0,0
70,-279,0,0,0,0,0,0,0,0,0,-1,1294,1303,0,0
77,-279,0,0,0,0,0,0,0,0,0,-1,1301,1303,0,0
84,-279,0,0,0,0,0,0,0,0,0,-1,1308,1303,0,0
91,-279,0,0,0,0,0,0,0,0,0,-1,1315,1303,0,0
98,-279,0,0,0,0,0,0,0,0,0,-1,1322,1303,0,0
105,-279,0,0,0,0,0,0,0,0,0,-1,1329,1303,0,0
112,-279,0,0,0,0,0,0,0,0,0,-1,1336,1303,0,0
119,-279,0,0,0,0,0,0,0,0,0,-1,1343,1303,0,0
126,-279,0,0,0,0,0,0,0,0,0,-1,1350,1303,0,0
133,-279,0,0,0,0,0,0,0,0,0,-1,1357,1303,0,0
140,-279,0,0,0,0,0,0,0,0,0,-1,1364,1303,0,0
147,-279,0,0,0,0,0,0,0,0,0,-1,1371,1303,0,0
154,-279,0,0,0,0,0,0,0,0,0,-1,1378,1303,0,0
161,-279,0,0,0,0,0,0,0,0,0,-1,1385,1303,0,0
168,-279,0,0,0,0,0,0,0,0,0,-1,1392,1303,0,0
175,-279,0,0,0,0,0,0,0,0,0,-1,1399,1303,0,0
182,-279,0,0,0,0,0,0,0,0,0,-1,1406,1303,0,0
189,-279,0,0,0,0,0,0,0,0,0,-1,1413,1303,0,0
196,-279,0,0,0,0,0,0,0,0,0,-1,1420,1303,0,0
203,-279,0,0,0,0,0,0,0,0,0,-1,1427,1303,0,0
210,-279,0,0,0,0,0,0,0,0,0,-1,1434,1303,0,0
217,-279,0,0,0,0,0,0,0,0,0,-1,1441,1303,0,0
224,-279,0,0,0,0,0,0,0,0,0,-1,1448,1303,0,0
231,-279,0,0,0,0,0,0,0,0,0,-1,1455,1303,0,0
238,-279,0,0,0,0,0,0,0,0,0,-1,1462,1303,0,0
245,-279,0,0,0,0,0,0,0,0,0,-1,1469,1303,0,0
252,-279,0,0,0,0,0,0,0,0,0,-1,1476,1303,0,0
259,-279,0,0,0,0,0,0,0,0,0,-1,1483,1303,0,0
266,-279,0,0,0,0,0,0,0,0,0,-1,1490,1303,0,0
273,-279,0,0,0,0,0,0,0,0,0,-1,1497,1303,0,0
280,-279,0,0,0,0,0,0,0,0,0,-1,1504,1303,0,0
287,-279,0,0,0,0,0,0,0,0,0,-1,1511,1303,0,0
294,-279,0,0,0,0,0,0,0,0,0,-1,1518,1303,0,0
301,-279,0,0,0,0,0,0,0,0,0,-1,1525,1303,0,0
308,-279,0,0,0,0,0,0,0,0,0,-1,1532,1303,0,0
315,-279,0,0,0,0,0,0,0,0,0,-1,1539,1303,0,0
322,-279,0,0,0,0,0,0,0,0,0,-1,1546,1303,0,0
329,-279,0,0,0,0,0,0,0,0,0,-1,1553,1303,0,0
336,-279,0,0,0,0,0,0,0,0,0,-1,1560,1303,0,0
343,-279,0,0,0,0,0,0,0,0,0,-1,1567,1303,0,0
350,-279,0,0,0,0,0,0,0,0,0,-1,1574,1303,0,0
357,-279,0,0,0,0,0,0,0,0,0,-1,1581,1303,0,0
364,-279,0,0,0,0,0,0,0,0,0,-1,1588,1303,0,0
371,-279,0,0,0,0,0,0,0,0,0,-1,1595,1303,0,0
378,-279,0,0,0,0,0,0,0,0,0,-1,1602,1303,0,0
385,-279,0,0,0,0,0,0,0,0,0,-1,1609,1303,0,0
392,-279,0,0,0,0,0,0,0,0,0,-1,1616,1303,0,0
399,-279,0,0,0,0,0,0,0,0,0,-1,1623,1303,0,0
406,-279,0,0,0,0,0,0,0,0,0,-1,1630,1303,0,0
413,-279,0,0,0,0,0,0,0,0,0,-1,1637,1303,0,0
420,-279,0,0,0,0,0,0,0,0,0,-1,1644,1303,0,0
427,-279,0,0,0,0,0,0,0,0,0,-1,1651,1303,0,0
434,-279,0,0,0,0,0,0,0,0,0,-1,1658,1303,0,0
441,-279,0,0,0,0,0,0,0,0,0,-1,1665,1303,0,0
448,-279,0,0,0,0,0,0,0,0,0,-1,1672,1303,0,0
455,-279,0,0,0,0,0,0,0,0,0,-1,1679,1303,0,0
462,-279,0,0,0,0,0,0,0,0,0,-1,1686,1303,0,0
469,-279,0,0,0,0,0,0,0,0,0,-1,1693,1303,0,0
476,-279,0,0,0,0,0,0,0,0,0,-1,1700,1303,0,0
483,-279,0,0,0,0,0,0,0,0,0,-1,1707,1303,0,0
490,-279,0,0,0,0,0,0,0,0,0,-1,1714,1303,0,0
497,-279,0,0,0,0,0,0,0,0,0,-1,1721,1303,0,0
504,-279,0,0,0,0,0,0,0,0,0,-1,1728,1303,0,0
511,-279,0,0,0,0,0,0,0,0,0,-1,1735,1303,0,0
518,-279,0,0,0,0,0,0,0,0,0,-1,1742,1303,0,0
525,-279,0,0,0,0,0,0,0,0,0,-1,1749,1303,0,0
532,-279,0,0,0,0,0,0,0,0,0,-1,1756,1303,0,0
539,-279,0,0,0,0,0,0,0,0,0,-1,1763,1303,0,0
546,-279,0,0,0,0,0,0,0,0,0,-1,1770,1303,0,0
553,-279,0,0,0,0,0,0,0,0,0,-1,1777,1303,0,0
560,-279,0,0,0,0,0,0,0,0,0,-1,1784,1303,0,0
567,-279,0,0,0,0,0,0,0,0,0,-1,1791,1303,0,0
574,-279,0,0,0,0,0,0,0,0,0,-1,1798,1303,0,0
581,-279,0,0,0,0,0,0,0,0,0,-1,1805,1303,0,0
588,-279,0,0,0,0,0,0,0,0,0,-1,1812,1303,0,0
595,-279,0,0,0,0,0,0,0,0,0,-1,1819,1303,0,0
602,-279,49.308,2.61206,0,0,0,0,0,0,0,-1,1826,1303,49.308,-2.6121
609,-279,49.1611,2.52588,0,0,0,0,0,0,0,-1,1833,1303,49.1612,-2.52583
616,-279,49.1987,2.3634,0,0,0,0,0,0,0,-1,1840,1303,49.1988,-2.36342
623,-279,49.4667,1.66919,-0.00651255,0.0183037,-0.0072033,0.020243,-0.00845187,-1.30781,0.0170268,0.0480895,1847,1303,49.4666,-1.66921
630,-279,49.5962,1.51001,0,0,0,0,0,0,0,-1,1854,1303,49.5962,-1.51001
637,-279,49.6919,1.00964,0,0,0,0,0,0,0,-1,1861,1303,49.6919,-1.00967
644,-279,33.5021,3.40234,0,0,0,0,0,0,0,-1,1868,1303,33.5021,-3.40237
651,-279,29.8456,2.3562,0,0,0,0,0,0,0,-1,1875,1303,29.8455,-2.35615
658,-279,21.5076,7.65649,0,0,0,0,0,0,0,-1,1882,1303,21.5076,-7.65648
665,-279,18.9794,6.09607,0,0,0,0,0,0,0,-1,1889,1303,18.9793,-6.09601
672,-279,23.5206,8.32507,0,0,0,0,0,0,0,-1,1896,1303,23.5206,-8.32512
679,-279,34.9734,10.7986,0,0,0,0,0,0,0,-1,1903,1303,34.9734,-10.7986
686,-279,35.0649,10.3384,-0.00286005,0.00214591,0.000171988,0.00215181,-0.00286595,1.53649,0.00290677,0.0269604,1910,1303,35.065,-10.3384
693,-279,35.0829,9.88135,-0.001085,0.000705418,0.000282172,0.000748835,-0.00112841,1.41812,0.00109119,0.0165032,1917,1303,35.0829,-9.88133
700,-279,35.0907,9.41504,4.29238e-05,0.000199591,0.000364478,0.000494058,-0.000251543,0.891248,0.000437997,0.0124162,1924,1303,35.0907,-9.41506
707,-279,35.0713,8.92053,-0.000170942,-0.000183376,0.000777703,0.000600569,-0.000954887,0.781401,0.000905776,0.00979016,1931,1303,35.0714,-8.9205
714,-279,35.0507,8.44739,-0.000411227,-0.000134377,0.00101399,0.000750591,-0.0012962,0.853236,0.00119563,0.0105378,1938,1303,35.0506,-8.44742
721,-279,35.0713,7.98694,-0.000789736,3.87714e-05,0.00117833,0.000873542,-0.00162451,0.954431,0.00146381,0.0152791,1945,1303,35.0713,-7.98697
728,-279,35.0699,7.52515,-0.00126851,0.000174945,0.00138838,0.00101798,-0.00211155,1.02509,0.00184324,0.0180516,1952,1303,35.0699,-7.52512
735,-279,35.0331,7.08459,-0.001802,0.000303227,0.00158614,0.00115426,-0.00265303,1.07835,0.00225419,0.0172437,1959,1303,35.0331,-7.08454
742,-279,34.9191,6.6499,-0.00237747,0.000427263,0.00176114,0.00127617,-0.00322638,1.12163,0.0026796,0.0326179,1966,1303,34.919,-6.64988
749,-279,34.9347,6.16125,0,0,0,0,0,0,0,-1,1973,1303,34.9347,-6.1612
756,-279,23.2091,4.43433,0,0,0,0,0,0,0,-1,1980,1303,23.2092,-4.43432
763,-279,27.1613,3.46265,0,0,0,0,0,0,0,-1,1987,1303,27.1613,-3.4627
770,-279,21.5828,3.54199,0,0,0,0,0,0,0,-1,1994,1303,21.5827,-3.54198
777,-279,32.5369,6.99609,0,0,0,0,0,0,0,-1,2001,1303,32.5369,-6.99608
784,-279,0,0,0,0,0,0,0,0,0,-1,2008,1303,0,0
791,-279,0,0,0,0,0,0,0,0,0,-1,2015,1303,0,0
798,-279,0,0,0,0,0,0,0,0,0,-1,2022,1303,0,0
805,-279,0,0,0,0,0,0,0,0,0,-1,2029,1303,0,0
812,-279,0,0,0,0,0,0,0,0,0,-1,2036,1303,0,0
-700,-286,0,0,0,0,0,0,0,0,0,-1,524,1310,0,0
-693,-286,0,0,0,0,0,0,0,0,0,-1,531,1310,0,0
-686,-286,0,0,0,0,0,0,0,0,0,-1,538,1310,0,0
-679,-286,0,0,0,0,0,0,0,0,0,-1,545,1310,0,0
-672,-286,0,0,0,0,0,0,0,0,0,-1,552,1310,0,0
-665,-286,0,0,0,0,0,0,0,0,0,-1,559,1310,0,0
-658,-286,-27.611,-5.3645,0,0,0,0,0,0,0,-1,566,1310,-27.611,5.36448
-651,-286,-26.1535,-3.51721,0.357688,0.0279717,0.132063,0.404062,-0.0184017,0.337696,0.275713,0.0454976,573,1310,-26.1535,3.51719
-644,-286,-24.4858,-1.4176,0.307844,0.0247098,0.114664,0.348456,-0.0159017,0.340392,0.237782,0.0445265,580,1310,-24.4858,1.41762
-637,-286,-22.757,0.650269,0.258237,0.0216102,0.0970069,0.292922,-0.0130744,0.343383,0.199782,0.0497067,587,1310,-22.757,-0.650249
-630,-286,-21.015,2.68701,0,0,0,0,0,0,0,-1,594,1310,-21.015,-2.68696
-623,-286,-20.1415,-1.72998,0,0,0,0,0,0,0,-1,601,1310,-20.1415,1.72995
-616,-286,-22.0634,2.37744,0,0,0,0,0,0,0,-1,608,1310,-22.0633,-2.37746
-609,-286,-21.0782,3.6582,0,0,0,0,0,0,0,-1,615,1310,-21.0783,-3.65821
-602,-286,-20.6695,4.56946,0.0565339,0.0075502,0.0228271,0.0655222,-0.00143819,0.375115,0.0441687,0.0209029,622,1310,-20.6695,-4.56951
-595,-286,-20.7001,5.17566,0.0304974,0.00479277,0.0129495,0.0358899,-0.000599708,0.394583,0.024129,0.0115817,629,1310,-20.7001,-5.17565
-588,-286,-20.6978,5.69604,0.0101853,0.00331624,0.00514232,0.0129346,0.000566958,0.490972,0.00844041,0.0123836,636,1310,-20.6978,-5.69609
-581,-286,-20.6628,6.19592,0.0029923,0.00188739,0.00188735,0.00440639,0.000473296,0.643019,0.00279323,0.0145616,643,1310,-20.6628,-6.19586
-574,-286,-20.7083,6.71899,0.00250989,0.000720493,0.00120893,0.00311918,0.000111198,0.466839,0.0020434,0.0150637,650,1310,-20.7083,-6.71894
-567,-286,-20.7405,7.26367,0.00253272,-0.000189007,0.000873273,0.00278882,-0.000445102,0.285261,0.00202396,0.014551,657,1310,-20.7405,-7.26362
-560,-286,-20.738,7.79761,0.00277576,-0.000907126,0.000765323,0.00292847,-0.00105983,0.196945,0.0023854,0.0144574,664,1310,-20.738,-7.79764
-553,-286,-20.7384,8.33679,0.00324315,-0.00144068,0.000857066,0.00339505,-0.00159259,0.175414,0.00294163,0.0113887,671,1310,-20.7384,-8.3368
-546,-286,-20.738,8.89734,0.00380285,-0.00159237,0.00101313,0.00398683,-0.00177635,0.179634,0.00340798,0.0200273,678,1310,-20.738,-8.89738
-539,-286,-20.6935,9.39929,0.00446746,-0.0018148,0.00134557,0.00474353,-0.00209087,0.202361,0.0040437,0.0478261,685,1310,-20.6935,-9.39934
-532,-286,-20.4824,9.89209,0,0,0,0,0,0,0,-1,692,1310,-20.4823,-9.89204
-525,-286,-11.4528,-1.11768,0,0,0,0,0,0,0,-1,699,1310,-11.4528,1.11769
-518,-286,-11.0701,1.37329,0,0,0,0,0,0,0,-1,706,1310,-11.0701,-1.37332
-511,-286,-17.7545,-0.0791016,0,0,0,0,0,0,0,-1,713,1310,-17.7544,0.0791606
-504,-286,-18.0455,1.29602,0,0,0,0,0,0,0,-1,720,1310,-18.0455,-1.29601
-497,-286,-18.3367,2.67114,0,0,0,0,0,0,0,-1,727,1310,-18.3366,-2.67118
-490,-286,-19.5795,2.47266,0,0,0,0,0,0,0,-1,734,1310,-19.5795,-2.4727
-483,-286,-19.7277,2.74744,0,0,0,0,0,0,0,-1,741,1310,-19.7277,-2.74747
-476,-286,-20.0391,3.06177,0,0,0,0,0,0,0,-1,748,1310,-20.0391,-3.06178
-469,-286,0,0,0,0,0,0,0,0,0,-1,755,1310,0,0
-462,-286,0,0,0,0,0,0,0,0,0,-1,762,1310,0,0
-455,-286,0,0,0,0,0,0,0,0,0,-1,769,1310,0,0
-448,-286,0,0,0,0,0,0,0,0,0,-1,776,1310,0,0
-441,-286,0,0,0,0,0,0,0,0,0,-1,783,1310,0,0
-434,-286,0,0,0,0,0,0,0,0,0,-1,790,1310,0,0
-427,-286,0,0,0,0,0,0,0,0,0,-1,797,1310,0,0
-420,-286,0,0,0,0,0,0,0,0,0,-1,804,1310,0,0
-413,-286,0,0,0,0,0,0,0,0,0,-1,811,1310,0,0
-406,-286,0,0,0,0,0,0,0,0,0,-1,818,1310,0,0
-399,-286,0,0,0,0,0,0,0,0,0,-1,825,1310,0,0
-392,-286,0,0,0,0,0,0,0,0,0,-1,832,1310,0,0
-385,-286,0,0,0,0,0,0,0,0,0,-1,839,1310,0,0
-378,-286,0,0,0,0,0,0,0,0,0,-1,846,1310,0,0
-371,-286,0,0,0,0,0,0,0,0,0,-1,853,1310,0,0
-364,-286,0,0,0,0,0,0,0,0,0,-1,860,1310,0,0
-357,-286,0,0,0,0,0,0,0,0,0,-1,867,1310,0,0
-350,-286,0,0,0,0,0,0,0,0,0,-1,874,1310,0,0
-343,-286,0,0,0,0,0,0,0,0,0,-1,881,1310,0,0
-336,-286,0,0,0,0,0,0,0,0,0,-1,888,1310,0,0
-329,-286,0,0,0,0,0,0,0,0,0,-1,895,1310,0,0
-322,-286,0,0,0,0,0,0,0,0,0,-1,902,1310,0,0
-315,-286,0,0,0,0,0,0,0,0,0,-1,909,1310,0,0
-308,-286,0,0,0,0,0,0,0,0,0,-1,916,1310,0,0
-301,-286,0,0,0,0,0,0,0,0,0,-1,923,1310,0,0
-294,-286,0,0,0,0,0,0,0,0,0,-1,930,1310,0,0
-287,-286,0,0,0,0,0,0,0,0,0,-1,937,1310,0,0
-280,-286,0,0,0,0,0,0,0,0,0,-1,944,1310,0,0
-273,-286,0,0,0,0,0,0,0,0,0,-1,951,1310,0,0
-266,-286,0,0,0,0,0,0,0,0,0,-1,958,1310,0,0
-259,-286,0,0,0,0,0,0,0,0,0,-1,965,1310,0,0
-252,-286,0,0,0,0,0,0,0,0,0,-1,972,1310,0,0
-245,-286,0,0,0,0,0,0,0,0,0,-1,979,1310,0,0
-238,-286,0,0,0,0,0,0,0,0,0,-1,986,1310,0,0
-231,-286,0,0,0,0,0,0,0,0,0,-1,993,1310,0,0
-224,-286,0,0,0,0,0,0,0,0,0,-1,1000,1310,0,0
-217,-286,0,0,0,0,0,0,0,0,0,-1,1007,1310,0,0
-210,-286,0,0,0,0,0,0,0,0,0,-1,1014,1310,0,0
-203,-286,0,0,0,0,0,0,0,0,0,-1,1021,1310,0,0
-196,-286,0,0,0,0,0,0,0,0,0,-1,1028,1310,0,0
-189,-286,0,0,0,0,0,0,0,0,0,-1,1035,1310,0,0
-182,-286,0,0,0,0,0,0,0,0,0,-1,1042,1310,0,0
-175,-286,0,0,0,0,0,0,0,0,0,-1,1049,1310,0,0
-168,-286,0,0,0,0,0,0,0,0,0,-1,1056,1310,0,0
-161,-286,0,0,0,0,0,0,0,0,0,-1,1063,1310,0,0
-154,-286,0,0,0,0,0,0,0,0,0,-1,1070,1310,0,0
-147,-286,0,0,0,0,0,0,0,0,0,-1,1077,1310,0,0
-140,-286,0,0,0,0,0,0,0,0,0,-1,1084,1310,0,0
-133,-286,0,0,0,0,0,0,0,0,0,-1,1091,1310,0,0
-126,-286,0,0,0,0,0,0,0,0,0,-1,1098,1310,0,0
-119,-286,0,0,0,0,0,0,0,0,0,-1,1105,1310,0,0
-112,-286,0,0,0,0,0,0,0,0,0,-1,1112,1310,0,0
-105,-286,0,0,0,0,0,0,0,0,0,-1,1119,1310,0,0
-98,-286,0,0,0,0,0,0,0,0,0,-1,1126,1310,0,0
-91,-286,0,0,0,0,0,0,0,0,0,-1,1133,1310,0,0
-84,-286,0,0,0,0,0,0,0,0,0,-1,1140,1310,0,0
-77,-286,0,0,0,0,0,0,0,0,0,-1,1147,1310,0,0
-70,-286,0,0,0,0,0,0,0,0,0,-1,1154,1310,0,0
-63,-286,0,0,0,0,0,0,0,0,0,-1,1161,1310,0,0
-56,-286,0,0,0,0,0,0,0,0,0,-1,1168,1310,0,0
-49,-286,0,0,0,0,0,0,0,0,0,-1,1175,1310,0,0
-42,-286,0,0,0,0,0,0,0,0,0,-1,1182,1310,0,0
-35,-286,0,0,0,0,0,0,0,0,0,-1,1189,1310,0,0
-28,-286,0,0,0,0,0,0,0,0,0,-1,1196,1310,0,0
-21,-286,0,0,0,0,0,0,0,0,0,-1,1203,1310,0,0
-14,-286,0,0,0,0,0,0,0,0,0,-1,1210,1310,0,0
-7,-286,0,0,0,0,0,0,0,0,0,-1,1217,1310,0,0
0,-286,0,0,0,0,0,0,0,0,0,-1,1224,1310,0,0
7,-286,0,0,0,0,0,0,0,0,0,-1,1231,1310,0,0
14,-286,0,0,0,0,0,0,0,0,0,-1,1238,1310,0,0
21,-286,0,0,0,0,0,0,0,0,0,-1,1245,1310,0,0
28,-286,0,0,0,0,0,0,0,0,0,-1,1252,1310,0,0
35,-286,0,0,0,0,0,0,0,0,0,-1,1259,1310,0,0
42,-286,0,0,0,0,0,0,0,0,0,-1,1266,1310,0,0
49,-286,0,0,0,0,0,0,0,0,0,-1,1273,1310,0,0
56,-286,0,0,0,0,0,0,0,0,0,-1,1280,1310,0,0
63,-286,0,0,0,0,0,0,0,0,0,-1,1287,1310,0,0
70,-286,0,0,0,0,0,0,0,0,0,-1,1294,1310,0,0
77,-286,0,0,0,0,0,0,0,0,0,-1,1301,1310,0,0
84,-286,0,0,0,0,0,0,0,0,0,-1,1308,1310,0,0
91,-286,0,0,0,0,0,0,0,0,0,-1,1315,1310,0,0
98,-286,0,0,0,0,0,0,0,0,0,-1,1322,1310,0,0
105,-286,0,0,0,0,0,0,0,0,0,-1,1329,1310,0,0
112,-286,0,0,0,0,0,0,0,0,0,-1,1336,1310,0,0
119,-286,0,0,0,0,0,0,0,0,0,-1,1343,1310,0,0
126,-286,0,0,0,0,0,0,0,0,0,-1,1350,1310,0,0
133,-286,0,0,0,0,0,0,0,0,0,-1,1357,1310,0,0
140,-286,0,0,0,0,0,0,0,0,0,-1,1364,1310,0,0
147,-286,0,0,0,0,0,0,0,0,0,-1,1371,1310,0,0
154,-286,0,0,0,0,0,0,0,0,0,-1,1378,1310,0,0
161,-286,0,0,0,0,0,0,0,0,0,-1,1385,1310,0,0
168,-286,0,0,0,0,0,0,0,0,0,-1,1392,1310,0,0
175,-286,0,0,0,0,0,0,0,0,0,-1,1399,1310,0,0
182,-286,0,0,0,0,0,0,0,0,0,-1,1406,1310,0,0
189,-286,0,0,0,0,0,0,0,0,0,-1,1413,1310,0,0
196,-286,0,0,0,0,0,0,0,0,0,-1,1420,1310,0,0
203,-286,0,0,0,0,0,0,0,0,0,-1,1427,1310,0,0
210,-286,0,0,0,0,0,0,0,0,0,-1,1434,1310,0,0
217,-286,0,0,0,0,0,0,0,0,0,-1,1441,1310,0,0
224,-286,0,0,0,0,0,0,0,0,0,-1,1448,1310,0,0
231,-286,0,0,0,0,0,0,0,0,0,-1,1455,1310,0,0
238,-286,0,0,0,0,0,0,0,0,0,-1,1462,1310,0,0
245,-286,0,0,0,0,0,0,0,0,0,-1,1469,1310,0,0
252,-286,0,0,0,0,0,0,0,0,0,-1,1476,1310,0,0
259,-286,0,0,0,0,0,0,0,0,0,-1,1483,1310,0,0
266,-286,0,0,0,0,0,0,0,0,0,-1,1490,1310,0,0
273,-286,0,0,0,0,0,0,0,0,0,-1,1497,1310,0,0
280,-286,0,0,0,0,0,0,0,0,0,-1,1504,1310,0,0
287,-286,0,0,0,0,0,0,0,0,0,-1,1511,1310,0,0
294,-286,0,0,0,0,0,0,0,0,0,-1,1518,1310,0,0
301,-286,0,0,0,0,0,0,0,0,0,-1,1525,1310,0,0
308,-286,0,0,0,0,0,0,0,0,0,-1,1532,1310,0,0
315,-286,0,0,0,0,0,0,0,0,0,-1,1539,1310,0,0
322,-286,0,0,0,0,0,0,0,0,0,-1,1546,1310,0,0
329,-286,0,0,0,0,0,0,0,0,0,-1,1553,1310,0,0
336,-286,0,0,0,0,0,0,0,0,0,-1,1560,1310,0,0
343,-286,0,0,0,0,0,0,0,0,0,-1,1567,1310,0,0
350,-286,0,0,0,0,0,0,0,0,0,-1,1574,1310,0,0
357,-286,0,0,0,0,0,0,0,0,0,-1,1581,1310,0,0
364,-286,0,0,0,0,0,0,0,0,0,-1,1588,1310,0,0
371,-286,0,0,0,0,0,0,0,0,0,-1,1595,1310,0,0
378,-286,0,0,0,0,0,0,0,0,0,-1,1602,1310,0,0
385,-286,0,0,0,0,0,0,0,0,0,-1,1609,1310,0,0
392,-286,0,0,0,0,0,0,0,0,0,-1,1616,1310,0,0
399,-286,0,0,0,0,0,0,0,0,0,-1,1623,1310,0,0
406,-286,0,0,0,0,0,0,0,0,0,-1,1630,1310,0,0
413,-286,0,0,0,0,0,0,0,0,0,-1,1637,1310,0,0
420,-286,0,0,0,0,0,0,0,0,0,-1,1644,1310,0,0
427,-286,0,0,0,0,0,0,0,0,0,-1,1651,1310,0,0
434,-286,0,0,0,0,0,0,0,0,0,-1,1658,1310,0,0
441,-286,0,0,0,0,0,0,0,0,0,-1,1665,1310,0,0
448,-286,0,0,0,0,0,0,0,0,0,-1,1672,1310,0,0
455,-286,0,0,0,0,0,0,0,0,0,-1,1679,1310,0,0
462,-286,0,0,0,0,0,0,0,0,0,-1,1686,1310,0,0
469,-286,0,0,0,0,0,0,0,0,0,-1,1693,1310,0,0
476,-286,0,0,0,0,0,0,0,0,0,-1,1700,1310,0,0
483,-286,0,0,0,0,0,0,0,0,0,-1,1707,1310,0,0
490,-286,0,0,0,0,0,0,0,0,0,-1,1714,1310,0,0
497,-286,0,0,0,0,0,0,0,0,0,-1,1721,1310,0,0
504,-286,0,0,0,0,0,0,0,0,0,-1,1728,1310,0,0
511,-286,0,0,0,0,0,0,0,0,0,-1,1735,1310,0,0
518,-286,0,0,0,0,0,0,0,0,0,-1,1742,1310,0,0
525,-286,0,0,0,0,0,0,0,0,0,-1,1749,1310,0,0
532,-286,0,0,0,0,0,0,0,0,0,-1,1756,1310,0,0
539,-286,0,0,0,0,0,0,0,0,0,-1,1763,1310,0,0
546,-286,0,0,0,0,0,0,0,0,0,-1,1770,1310,0,0
553,-286,0,0,0,0,0,0,0,0,0,-1,1777,1310,0,0
560,-286,0,0,0,0,0,0,0,0,0,-1,1784,1310,0,0
567,-286,0,0,0,0,0,0,0,0,0,-1,1791,1310,0,0
574,-286,0,0,0,0,0,0,0,0,0,-1,1798,1310,0,0
581,-286,0,0,0,0,0,0,0,0,0,-1,1805,1310,0,0
588,-286,0,0,0,0,0,0,0,0,0,-1,1812,1310,0,0
595,-286,48.8954,2.59705,0,0,0,0,0,0,0,-1,1819,1310,48.8954,-2.59705
602,-286,49.3085,2.46399,0,0,0,0,0,0,0,-1,1826,1310,49.3084,-2.46399
609,-286,48.8423,2.22144,0,0,0,0,0,0,0,-1,1833,1310,48.8423,-2.2214
616,-286,49.3894,1.83325,0,0,0,0,0,0,0,-1,1840,1310,49.3894,-1.83328
623,-286,49.6903,1.29321,0,0,0,0,0,0,0,-1,1847,1310,49.6903,-1.29324
630,-286,49.6078,1.11389,0,0,0,0,0,0,0,-1,1854,1310,49.6078,-1.11383
637,-286,47.8409,3.69824,0,0,0,0,0,0,0,-1,1861,1310,47.841,-3.69823
644,-286,25.6433,1.33862,0,0,0,0,0,0,0,-1,1868,1310,25.6433,-1.33858
651,-286,25.2507,1.88245,0,0,0,0,0,0,0,-1,1875,1310,25.2508,-1.88245
658,-286,25.9475,9.43689,0,0,0,0,0,0,0,-1,1882,1310,25.9475,-9.43693
665,-286,24.9838,8.03101,0,0,0,0,0,0,0,-1,1889,1310,24.9837,-8.03104
672,-286,34.924,11.1859,0,0,0,0,0,0,0,-1,1896,1310,34.924,-11.1859
679,-286,34.6288,10.8676,0,0,0,0,0,0,0,-1,1903,1310,34.6287,-10.8675
686,-286,34.6216,10.3945,-0.00217078,0.00113031,0.000138087,0.00113607,-0.00217655,1.52906,0.00194374,0.0211819,1910,1310,34.6216,-10.3946
693,-286,34.5994,9.9137,-0.000705653,0.000102274,0.000205764,0.000151659,-0.000755038,1.33524,0.00056079,0.0156727,1917,1310,34.5993,-9.91365
700,-286,34.595,9.41736,0.000105461,-0.000100215,0.00030998,0.000329217,-0.00032397,0.625233,0.000377122,0.0119227,1924,1310,34.595,-9.41741
707,-286,34.5872,8.96069,-8.52685e-05,-0.00020767,0.000671411,0.000527725,-0.000820664,0.739947,0.000784593,0.00945166,1931,1310,34.5871,-8.96075
714,-286,34.5728,8.48694,-0.000312859,-8.46656e-05,0.000905944,0.000714338,-0.00111186,0.848039,0.00106265,0.0094228,1938,1310,34.5727,-8.487
721,-286,34.5826,8.01782,-0.000680065,8.20599e-05,0.00112221,0.000886144,-0.00148415,0.949072,0.00138293,0.012696,1945,1310,34.5826,-8.01779
728,-286,34.5786,7.56177,-0.00118056,0.000208173,0.00137746,0.00105638,-0.00202877,1.01886,0.00181046,0.0159998,1952,1310,34.5786,-7.56178
735,-286,34.5856,7.07593,-0.00176661,0.000332046,0.00159019,0.00118792,-0.00262248,1.07704,0.00225131,0.0195206,1959,1310,34.5856,-7.07587
742,-286,34.5751,6.6344,-0.00246476,0.000452205,0.00176642,0.00128444,-0.003297,1.1305,0.00272885,0.0441589,1966,1310,34.5751,-6.63445
749,-286,34.7332,6.14233,0,0,0,0,0,0,0,-1,1973,1310,34.7331,-6.14234
756,-286,24.8226,4.43481,0,0,0,0,0,0,0,-1,1980,1310,24.8227,-4.43479
763,-286,20.6671,3.99683,0,0,0,0,0,0,0,-1,1987,1310,20.6671,-3.99683
770,-286,23.9147,4.45679,0,0,0,0,0,0,0,-1,1994,1310,23.9146,-4.45675
777,-286,0,0,0,0,0,0,0,0,0,-1,2001,1310,0,0
784,-286,0,0,0,0,0,0,0,0,0,-1,2008,1310,0,0
791,-286,0,0,0,0,0,0,0,0,0,-1,2015,1310,0,0
798,-286,0,0,0,0,0,0,0,0,0,-1,2022,1310,0,0
805,-286,0,0,0,0,0,0,0,0,0,-1,2029,1310,0,0
812,-286,0,0,0,0,0,0,0,0,0,-1,2036,1310,0,0
-700,-293,0,0,0,0,0,0,0,0,0,-1,524,1317,0,0
-693,-293,0,0,0,0,0,0,0,0,0,-1,531,1317,0,0
-686,-293,0,0,0,0,0,0,0,0,0,-1,538,1317,0,0
-679,-293,0,0,0,0,0,0,0,0,0,-1,545,1317,0,0
-672,-293,0,0,0,0,0,0,0,0,0,-1,552,1317,0,0
-665,-293,0,0,0,0,0,0,0,0,0,-1,559,1317,0,0
-658,-293,0,0,0,0,0,0,0,0,0,-1,566,1317,0,0
-651,-293,-26.3627,-3.43262,0,0,0,0,0,0,0,-1,573,1317,-26.3627,3.43265
-644,-293,-24.4512,-1.46021,0.334862,0.025696,0.124327,0.378655,-0.0180974,0.338671,0.25868,0.043923,580,1317,-24.4512,1.46021
-637,-293,-22.5413,0.531616,0.281838,0.0225861,0.105387,0.319273,-0.0148486,0.341311,0.217967,0.049445,587,1317,-22.5413,-0.531654
-630,-293,-20.7822,2.56091,0,0,0,0,0,0,0,-1,594,1317,-20.7822,-2.56093
-623,-293,-15.6058,0.229614,0,0,0,0,0,0,0,-1,601,1317,-15.6058,-0.229666
-616,-293,-15.5056,2.17737,0,0,0,0,0,0,0,-1,608,1317,-15.5055,-2.17742
-609,-293,-20.0456,3.71143,0,0,0,0,0,0,0,-1,615,1317,-20.0456,-3.71142
-602,-293,-20.0212,4.48096,0.0639906,0.00809414,0.0254594,0.0738482,-0.0017635,0.369416,0.0498304,0.0490828,622,1317,-20.0213,-4.481
-595,-293,-20.1964,5.18457,0.0349345,0.00517515,0.0145267,0.0408497,-0.000740124,0.386698,0.0274832,0.0188806,629,1317,-20.1964,-5.18454
-588,-293,-20.1819,5.69604,0.0118516,0.00371205,0.00572158,0.0148032,0.000760455,0.476262,0.00962533,0.0149086,636,1317,-20.1819,-5.69599
-581,-293,-20.1431,6.22021,0.00326702,0.00229838,0.00198946,0.00483026,0.000735136,0.666,0.00300525,0.0181468,643,1317,-20.1431,-6.22019
-574,-293,-20.1682,6.78394,0.00268403,0.00118995,0.00131223,0.00344696,0.000427021,0.526631,0.00216968,0.0172194,650,1317,-20.1681,-6.78396
-567,-293,-20.2204,7.31458,0.00256448,0.000314209,0.000954351,0.00291471,-3.60254e-05,0.351727,0.00195526,0.0162778,657,1317,-20.2204,-7.31463
-560,-293,-20.2174,7.84155,0.00278224,-0.000424722,0.000795299,0.00296863,-0.000611116,0.230214,0.00221113,0.0165179,664,1317,-20.2174,-7.84154
-553,-293,-20.2078,8.35242,0.00329692,-0.00101519,0.000802225,0.00344133,-0.0011596,0.178104,0.00276309,0.0117111,671,1317,-20.2078,-8.35244
-546,-293,-20.226,8.90393,0.00400741,-0.0014827,0.00092573,0.0041593,-0.00163459,0.162629,0.00344934,0.0127476,678,1317,-20.226,-8.90391
-539,-293,-20.1542,9.43909,0.00522678,-0.00206496,0.00123563,0.00543047,-0.00226866,0.163382,0.00456833,0.0370105,685,1317,-20.1542,-9.43913
-532,-293,-20.0353,9.9126,0,0,0,0,0,0,0,-1,692,1317,-20.0353,-9.91264
-525,-293,-8.20642,3.62256,0,0,0,0,0,0,0,-1,699,1317,-8.20639,-3.6226
-518,-293,-10.1053,0.314209,0,0,0,0,0,0,0,-1,706,1317,-10.1053,-0.314234
-511,-293,-11.6276,0.235352,0,0,0,0,0,0,0,-1,713,1317,-11.6276,-0.235372
-504,-293,-17.9086,1.25427,0,0,0,0,0,0,0,-1,720,1317,-17.9086,-1.25423
-497,-293,-18.8006,1.62122,0,0,0,0,0,0,0,-1,727,1317,-18.8006,-1.62119
-490,-293,-18.8961,1.99255,0,0,0,0,0,0,0,-1,734,1317,-18.8961,-1.99251
-483,-293,-19.0831,2.35498,0,0,0,0,0,0,0,-1,741,1317,-19.0831,-2.35497
-476,-293,-19.5228,2.61243,0,0,0,0,0,0,0,-1,748,1317,-19.5228,-2.61237
-469,-293,0,0,0,0,0,0,0,0,0,-1,755,1317,0,0
-462,-293,0,0,0,0,0,0,0,0,0,-1,762,1317,0,0
-455,-293,0,0,0,0,0,0,0,0,0,-1,769,1317,0,0
-448,-293,0,0,0,0,0,0,0,0,0,-1,776,1317,0,0
-441,-293,0,0,0,0,0,0,0,0,0,-1,783,1317,0,0
-434,-293,0,0,0,0,0,0,0,0,0,-1,790,1317,0,0
-427,-293,0,0,0,0,0,0,0,0,0,-1,797,1317,0,0
-420,-293,0,0,0,0,0,0,0,0,0,-1,804,1317,0,0
-413,-293,0,0,0,0,0,0,0,0,0,-1,811,1317,0,0
-406,-293,0,0,0,0,0,0,0,0,0,-1,818,1317,0,0
-399,-293,0,0,0,0,0,0,0,0,0,-1,825,1317,0,0
-392,-293,0,0,0,0,0,0,0,0,0,-1,832,1317,0,0
-385,-293,0,0,0,0,0,0,0,0,0,-1,839,1317,0,0
-378,-293,0,0,0,0,0,0,0,0,0,-1,846,1317,0,0
-371,-293,0,0,0,0,0,0,0,0,0,-1,853,1317,0,0
-364,-293,0,0,0,0,0,0,0,0,0,-1,860,1317,0,0
-357,-293,0,0,0,0,0,0,0,0,0,-1,867,1317,0,0
-350,-293,0,0,0,0,0,0,0,0,0,-1,874,1317,0,0
-343,-293,0,0,0,0,0,0,0,0,0,-1,881,1317,0,0
-336,-293,0,0,0,0,0,0,0,0,0,-1,888,1317,0,0
-329,-293,0,0,0,0,0,0,0,0,0,-1,895,1317,0,0
-322,-293,0,0,0,0,0,0,0,0,0,-1,902,1317,0,0
-315,-293,0,0,0,0,0,0,0,0,0,-1,909,1317,0,0
-308,-293,0,0,0,0,0,0,0,0,0,-1,916,1317,0,0
-301,-293,0,0,0,0,0,0,0,0,0,-1,923,1317,0,0
-294,-293,0,0,0,0,0,0,0,0,0,-1,930,1317,0,0
-287,-293,0,0,0,0,0,0,0,0,0,-1,937,1317,0,0
-280,-293,0,0,0,0,0,0,0,0,0,-1,944,1317,0,0
-273,-293,0,0,0,0,0,0,0,0,0,-1,951,1317,0,0
-266,-293,0,0,0,0,0,0,0,0,0,-1,958,1317,0,0
-259,-293,0,0,0,0,0,0,0,0,0,-1,965,1317,0,0
-252,-293,0,0,0,0,0,0,0,0,0,-1,972,1317,0,0
-245,-293,0,0,0,0,0,0,0,0,0,-1,979,1317,0,0
-238,-293,0,0,0,0,0,0,0,0,0,-1,986,1317,0,0
-231,-293,0,0,0,0,0,0,0,0,0,-1,993,1317,0,0
-224,-293,0,0,0,0,0,0,0,0,0,-1,1000,1317,0,0
-217,-293,0,0,0,0,0,0,0,0,0,-1,1007,1317,0,0
-210,-293,0,0,0,0,0,0,0,0,0,-1,1014,1317,0,0
-203,-293,0,0,0,0,0,0,0,0,0,-1,1021,1317,0,0
-196,-293,0,0,0,0,0,0,0,0,0,-1,1028,1317,0,0
-189,-293,0,0,0,0,0,0,0,0,0,-1,1035,1317,0,0
-182,-293,0,0,0,0,0,0,0,0,0,-1,1042,1317,0,0
-175,-293,0,0,0,0,0,0,0,0,0,-1,1049,1317,0,0
-168,-293,0,0,0,0,0,0,0,0,0,-1,1056,1317,0,0
-161,-293,0,0,0,0,0,0,0,0,0,-1,1063,1317,0,0
-154,-293,0,0,0,0,0,0,0,0,0,-1,1070,1317,0,0
-147,-293,0,0,0,0,0,0,0,0,0,-1,1077,1317,0,0
-140,-293,0,0,0,0,0,0,0,0,0,-1,1084,1317,0,0
-133,-293,0,0,0,0,0,0,0,0,0,-1,1091,1317,0,0
-126,-293,0,0,0,0,0,0,0,0,0,-1,1098,1317,0,0
-119,-293,0,0,0,0,0,0,0,0,0,-1,1105,1317,0,0
-112,-293,0,0,0,0,0,0,0,0,0,-1,1112,1317,0,0
-105,-293,0,0,0,0,0,0,0,0,0,-1,1119,1317,0,0
-98,-293,0,0,0,0,0,0,0,0,0,-1,1126,1317,0,0
-91,-293,0,0,0,0,0,0,0,0,0,-1,1133,1317,0,0
-84,-293,0,0,0,0,0,0,0,0,0,-1,1140,1317,0,0
-77,-293,0,0,0,0,0,0,0,0,0,-1,1147,1317,0,0
-70,-293,0,0,0,0,0,0,0,0,0,-1,1154,1317,0,0
-63,-293,0,0,0,0,0,0,0,0,0,-1,1161,1317,0,0
-56,-293,0,0,0,0,0,0,0,0,0,-1,1168,1317,0,0
-49,-293,0,0,0,0,0,0,0,0,0,-1,1175,1317,0,0
-42,-293,0,0,0,0,0,0,0,0,0,-1,1182,1317,0,0
-35,-293,0,0,0,0,0,0,0,0,0,-1,1189,1317,0,0
-28,-293,0,0,0,0,0,0,0,0,0,-1,1196,1317,0,0
-21,-293,0,0,0,0,0,0,0,0,0,-1,1203,1317,0,0
-14,-293,0,0,0,0,0,0,0,0,0,-1,1210,1317,0,0
-7,-293,0,0,0,0,0,0,0,0,0,-1,1217,1317,0,0
0,-293,0,0,0,0,0,0,0,0,0,-1,1224,1317,0,0
7,-293,0,0,0,0,0,0,0,0,0,-1,1231,1317,0,0
14,-293,0,0,0,0,0,0,0,0,0,-1,1238,1317,0,0
21,-293,0,0,0,0,0,0,0,0,0,-1,1245,1317,0,0
28,-293,0,0,0,0,0,0,0,0,0,-1,1252,1317,0,0
35,-293,0,0,0,0,0,0,0,0,0,-1,1259,1317,0,0
42,-293,0,0,0,0,0,0,0,0,0,-1,1266,1317,0,0
49,-293,0,0,0,0,0,0,0,0,0,-1,1273,1317,0,0
56,-293,0,0,0,0,0,0,0,0,0,-1,1280,1317,0,0
63,-293,0,0,0,0,0,0,0,0,0,-1,1287,1317,0,0
70,-293,0,0,0,0,0,0,0,0,0,-1,1294,1317,0,0
77,-293,0,0,0,0,0,0,0,0,0,-1,1301,1317,0,0
84,-293,0,0,0,0,0,0,0,0,0,-1,1308,1317,0,0
91,-293,0,0,0,0,0,0,0,0,0,-1,1315,1317,0,0
98,-293,0,0,0,0,0,0,0,0,0,-1,1322,1317,0,0
105,-293,0,0,0,0,0,0,0,0,0,-1,1329,1317,0,0
112,-293,0,0,0,0,0,0,0,0,0,-1,1336,1317,0,0
119,-293,0,0,0,0,0,0,0,0,0,-1,1343,1317,0,0
126,-293,0,0,0,0,0,0,0,0,0,-1,1350,1317,0,0
133,-293,0,0,0,0,0,0,0,0,0,-1,1357,1317,0,0
140,-293,0,0,0,0,0,0,0,0,0,-1,1364,1317,0,0
147,-293,0,0,0,0,0,0,0,0,0,-1,1371,1317,0,0
154,-293,0,0,0,0,0,0,0,0,0,-1,1378,1317,0,0
161,-293,0,0,0,0,0,0,0,0,0,-1,1385,1317,0,0
168,-293,0,0,0,0,0,0,0,0,0,-1,1392,1317,0,0
175,-293,0,0,0,0,0,0,0,0,0,-1,1399,1317,0,0
182,-293,0,0,0,0,0,0,0,0,0,-1,1406,1317,0,0
189,-293,0,0,0,0,0,0,0,0,0,-1,1413,1317,0,0
196,-293,0,0,0,0,0,0,0,0,0,-1,1420,1317,0,0
203,-293,0,0,0,0,0,0,0,0,0,-1,1427,1317,0,0
210,-293,0,0,0,0,0,0,0,0,0,-1,1434,1317,0,0
217,-293,0,0,0,0,0,0,0,0,0,-1,1441,1317,0,0
224,-293,0,0,0,0,0,0,0,0,0,-1,1448,1317,0,0
231,-293,0,0,0,0,0,0,0,0,0,-1,1455,1317,0,0
238,-293,0,0,0,0,0,0,0,0,0,-1,1462,1317,0,0
245,-293,0,0,0,0,0,0,0,0,0,-1,1469,1317,0,0
252,-293,0,0,0,0,0,0,0,0,0,-1,1476,1317,0,0
259,-293,0,0,0,0,0,0,0,0,0,-1,1483,1317,0,0
266,-293,0,0,0,0,0,0,0,0,0,-1,1490,1317,0,0
273,-293,0,0,0,0,0,0,0,0,0,-1,1497,1317,0,0
280,-293,0,0,0,0,0,0,0,0,0,-1,1504,1317,0,0
287,-293,0,0,0,0,0,0,0,0,0,-1,1511,1317,0,0
294,-293,0,0,0,0,0,0,0,0,0,-1,1518,1317,0,0
301,-293,0,0,0,0,0,0,0,0,0,-1,1525,1317,0,0
308,-293,0,0,0,0,0,0,0,0,0,-1,1532,1317,0,0
315,-293,0,0,0,0,0,0,0,0,0,-1,1539,1317,0,0
322,-293,0,0,0,0,0,0,0,0,0,-1,1546,1317,0,0
329,-293,0,0,0,0,0,0,0,0,0,-1,1553,1317,0,0
336,-293,0,0,0,0,0,0,0,0,0,-1,1560,1317,0,0
343,-293,0,0,0,0,0,0,0,0,0,-1,1567,1317,0,0
350,-293,0,0,0,0,0,0,0,0,0,-1,1574,1317,0,0
357,-293,0,0,0,0,0,0,0,0,0,-1,1581,1317,0,0
364,-293,0,0,0,0,0,0,0,0,0,-1,1588,1317,0,0
371,-293,0,0,0,0,0,0,0,0,0,-1,1595,1317,0,0
378,-293,0,0,0,0,0,0,0,0,0,-1,1602,1317,0,0
385,-293,0,0,0,0,0,0,0,0,0,-1,1609,1317,0,0
392,-293,0,0,0,0,0,0,0,0,0,-1,1616,1317,0,0
399,-293,0,0,0,0,0,0,0,0,0,-1,1623,1317,0,0
406,-293,0,0,0,0,0,0,0,0,0,-1,1630,1317,0,0
413,-293,0,0,0,0,0,0,0,0,0,-1,1637,1317,0,0
420,-293,0,0,0,0,0,0,0,0,0,-1,1644,1317,0,0
427,-293,0,0,0,0,0,0,0,0,0,-1,1651,1317,0,0
434,-293,0,0,0,0,0,0,0,0,0,-1,1658,1317,0,0
441,-293,0,0,0,0,0,0,0,0,0,-1,1665,1317,0,0
448,-293,0,0,0,0,0,0,0,0,0,-1,1672,1317,0,0
455,-293,0,0,0,0,0,0,0,0,0,-1,1679,1317,0,0
462,-293,0,0,0,0,0,0,0,0,0,-1,1686,1317,0,0
469,-293,0,0,0,0,0,0,0,0,0,-1,1693,1317,0,0
476,-293,0,0,0,0,0,0,0,0,0,-1,1700,1317,0,0
483,-293,0,0,0,0,0,0,0,0,0,-1,1707,1317,0,0
490,-293,0,0,0,0,0,0,0,0,0,-1,1714,1317,0,0
497,-293,0,0,0,0,0,0,0,0,0,-1,1721,1317,0,0
504,-293,0,0,0,0,0,0,0,0,0,-1,1728,1317,0,0
511,-293,0,0,0,0,0,0,0,0,0,-1,1735,1317,0,0
518,-293,0,0,0,0,0,0,0,0,0,-1,1742,1317,0,0
525,-293,0,0,0,0,0,0,0,0,0,-1,1749,1317,0,0
532,-293,0,0,0,0,0,0,0,0,0,-1,1756,1317,0,0
539,-293,0,0,0,0,0,0,0,0,0,-1,1763,1317,0,0
546,-293,0,0,0,0,0,0,0,0,0,-1,1770,1317,0,0
553,-293,0,0,0,0,0,0,0,0,0,-1,1777,1317,0,0
560,-293,0,0,0,0,0,0,0,0,0,-1,1784,1317,0,0
567,-293,0,0,0,0,0,0,0,0,0,-1,1791,1317,0,0
574,-293,0,0,0,0,0,0,0,0,0,-1,1798,1317,0,0
581,-293,0,0,0,0,0,0,0,0,0,-1,1805,1317,0,0
588,-293,0,0,0,0,0,0,0,0,0,-1,1812,1317,0,0
595,-293,49.123,2.5752,0,0,0,0,0,0,0,-1,1819,1317,49.123,-2.57518
602,-293,48.983,2.27148,0,0,0,0,0,0,0,-1,1826,1317,48.9831,-2.27145
609,-293,48.3654,1.72913,0,0,0,0,0,0,0,-1,1833,1317,48.3654,-1.72917
616,-293,48.8978,1.39929,0,0,0,0,0,0,0,-1,1840,1317,48.8978,-1.39926
623,-293,49.3131,1.11304,0,0,0,0,0,0,0,-1,1847,1317,49.3131,-1.11299
630,-293,46.6716,3.21558,0,0,0,0,0,0,0,-1,1854,1317,46.6716,-3.2156
637,-293,42.7729,4.95544,0,0,0,0,0,0,0,-1,1861,1317,42.773,-4.95546
644,-293,24.4565,0.520752,0,0,0,0,0,0,0,-1,1868,1317,24.4566,-0.520709
651,-293,25.8926,9.51245,0,0,0,0,0,0,0,-1,1875,1317,25.8926,-9.51246
658,-293,25.4904,9.10205,0,0,0,0,0,0,0,-1,1882,1317,25.4904,-9.10209
665,-293,34.5594,11.5955,0,0,0,0,0,0,0,-1,1889,1317,34.5595,-11.5954
672,-293,34.272,11.3824,-0.00337318,0.00435288,-0.000708051,0.00441723,-0.00343753,-1.48016,0.00454669,0.0407565,1896,1317,34.272,-11.3824
679,-293,34.1937,10.8999,-0.00248767,0.0012215,0.000473919,0.00128109,-0.00254726,1.4457,0.00225024,0.0144379,1903,1317,34.1938,-10.8999
686,-293,34.1829,10.4178,-0.00145352,7.20076e-05,0.00053749,0.000242359,-0.00162387,1.26387,0.00117175,0.0163593,1910,1317,34.1829,-10.4179
693,-293,34.1582,9.93933,-0.00035613,-0.000481985,0.000452996,3.82882e-05,-0.000876404,0.716383,0.000597441,0.0123107,1917,1317,34.1582,-9.93933
700,-293,34.1141,9.43909,0.000166297,-0.0003983,0.00046176,0.000425214,-0.000657217,0.511035,0.000629709,0.0109947,1924,1317,34.1141,-9.43906
707,-293,34.1068,8.97522,2.79906e-06,-0.000288686,0.000680649,0.000553134,-0.00083902,0.679929,0.00080939,0.0116894,1931,1317,34.1068,-8.9752
714,-293,34.1013,8.50684,-0.00023328,-9.51026e-05,0.00084712,0.000685741,-0.00101412,0.826087,0.000987503,0.00856943,1938,1317,34.1013,-8.5068
721,-293,34.1084,8.03516,-0.000606463,8.20432e-05,0.00105034,0.000843105,-0.00136753,0.943759,0.00128822,0.0105289,1945,1317,34.1084,-8.03514
728,-293,34.0973,7.54932,-0.00114432,0.000229347,0.0012935,0.00100705,-0.00192203,1.02946,0.00171839,0.0127075,1952,1317,34.0973,-7.54929
735,-293,34.0918,7.03308,-0.00179776,0.00039132,0.00146809,0.00112798,-0.00253443,1.10572,0.00216584,0.0236666,1959,1317,34.0918,-7.03308
742,-293,34.2671,6.56543,0,0,0,0,0,0,0,-1,1966,1317,34.2671,-6.56543
749,-293,29.439,5.35339,0,0,0,0,0,0,0,-1,1973,1317,29.4389,-5.35334
756,-293,24.978,3.9718,0,0,0,0,0,0,0,-1,1980,1317,24.978,-3.97186
763,-293,26.6713,4.74097,0,0,0,0,0,0,0,-1,1987,1317,26.6713,-4.74098
770,-293,24.1349,4.69153,0,0,0,0,0,0,0,-1,1994,1317,24.1348,-4.69159
777,-293,0,0,0,0,0,0,0,0,0,-1,2001,1317,0,0
784,-293,0,0,0,0,0,0,0,0,0,-1,2008,1317,0,0
791,-293,0,0,0,0,0,0,0,0,0,-1,2015,1317,0,0
798,-293,0,0,0,0,0,0,0,0,0,-1,2022,1317,0,0
805,-293,0,0,0,0,0,0,0,0,0,-1,2029,1317,0,0
812,-293,0,0,0,0,0,0,0,0,0,-1,2036,1317,0,0
-700,-300,0,0,0,0,0,0,0,0,0,-1,524,1324,0,0
-693,-300,0,0,0,0,0,0,0,0,0,-1,531,1324,0,0
-686,-300,0,0,0,0,0,0,0,0,0,-1,538,1324,0,0
-679,-300,0,0,0,0,0,0,0,0,0,-1,545,1324,0,0
-672,-300,0,0,0,0,0,0,0,0,0,-1,552,1324,0,0
-665,-300,0,0,0,0,0,0,0,0,0,-1,559,1324,0,0
-658,-300,0,0,0,0,0,0,0,0,0,-1,566,1324,0,0
-651,-300,-20.1143,0.203857,0,0,0,0,0,0,0,-1,573,1324,-20.1142,-0.203872
-644,-300,-24.1916,-1.29517,0,0,0,0,0,0,0,-1,580,1324,-24.1916,1.29522
-637,-300,-22.3372,0.400391,0,0,0,0,0,0,0,-1,587,1324,-22.3372,-0.400398
-630,-300,-21.1108,2.26306,0,0,0,0,0,0,0,-1,594,1324,-21.1109,-2.2631
-623,-300,-12.7067,1.48462,0,0,0,0,0,0,0,-1,601,1324,-12.7067,-1.48462
-616,-300,-14.9988,1.68628,0,0,0,0,0,0,0,-1,608,1324,-14.9988,-1.68627
-609,-300,-15.5027,3.29907,0,0,0,0,0,0,0,-1,615,1324,-15.5027,-3.29902
-602,-300,-19.5143,4.42151,0,0,0,0,0,0,0,-1,622,1324,-19.5143,-4.42151
-595,-300,-19.7079,5.17651,0.0387915,0.00538805,0.0158134,0.0450901,-0.000910481,0.379043,0.0303681,0.0338658,629,1324,-19.7079,-5.17653
-588,-300,-19.6388,5.72009,0.0131381,0.00393244,0.00609253,0.016171,0.000899494,0.461897,0.0104937,0.018555,636,1324,-19.6388,-5.72008
-581,-300,-19.6415,6.28589,0.00338089,0.00255748,0.0020033,0.00501435,0.000924018,0.684052,0.00308143,0.0192349,643,1324,-19.6415,-6.28586
-574,-300,-19.6368,6.83154,0.00278365,0.00155135,0.00141292,0.00370893,0.000626073,0.579788,0.0022926,0.0165174,650,1324,-19.6369,-6.83151
-567,-300,-19.676,7.3252,0.00257008,0.00073362,0.00106992,0.00306177,0.000241929,0.430775,0.0019655,0.0169919,657,1324,-19.676,-7.32514
-560,-300,-19.7018,7.85413,0.0026586,3.01964e-05,0.0008951,0.00293447,-0.000245674,0.298964,0.00204313,0.0155828,664,1324,-19.7018,-7.85411
-553,-300,-19.677,8.37756,0.0030177,-0.000545912,0.000860944,0.00321479,-0.000743009,0.225053,0.00242905,0.010752,671,1324,-19.677,-8.37758
-546,-300,-19.7014,8.91162,0.00362896,-0.00102056,0.000962101,0.00382017,-0.00121178,0.196194,0.00303252,0.00911554,678,1324,-19.7014,-8.91166
-539,-300,-19.6663,9.46838,0.00470831,-0.00156424,0.0012219,0.00493793,-0.00179386,0.185755,0.00402542,0.0212296,685,1324,-19.6663,-9.46834
-532,-300,-19.6013,9.99414,0,0,0,0,0,0,0,-1,692,1324,-19.6013,-9.99409
-525,-300,-13.5115,6.27783,0,0,0,0,0,0,0,-1,699,1324,-13.5115,-6.2778
-518,-300,-9.8349,-0.537109,0,0,0,0,0,0,0,-1,706,1324,-9.83487,0.537068
-511,-300,-12.8644,0.081665,0,0,0,0,0,0,0,-1,713,1324,-12.8644,-0.0817016
-504,-300,-13.4829,-0.165527,0,0,0,0,0,0,0,-1,720,1324,-13.4829,0.165544
-497,-300,-18.1063,0.956543,0,0,0,0,0,0,0,-1,727,1324,-18.1063,-0.9565
-490,-300,-18.2293,1.53625,0,0,0,0,0,0,0,-1,734,1324,-18.2293,-1.53626
-483,-300,-18.3522,1.61084,0,0,0,0,0,0,0,-1,741,1324,-18.3522,-1.6108
-476,-300,-18.7489,1.96387,0,0,0,0,0,0,0,-1,748,1324,-18.7489,-1.96387
-469,-300,0,0,0,0,0,0,0,0,0,-1,755,1324,0,0
-462,-300,0,0,0,0,0,0,0,0,0,-1,762,1324,0,0
-455,-300,0,0,0,0,0,0,0,0,0,-1,769,1324,0,0
-448,-300,0,0,0,0,0,0,0,0,0,-1,776,1324,0,0
-441,-300,0,0,0,0,0,0,0,0,0,-1,783,1324,0,0
-434,-300,0,0,0,0,0,0,0,0,0,-1,790,1324,0,0
-427,-300,0,0,0,0,0,0,0,0,0,-1,797,1324,0,0
-420,-300,0,0,0,0,0,0,0,0,0,-1,804,1324,0,0
-413,-300,0,0,0,0,0,0,0,0,0,-1,811,1324,0,0
-406,-300,0,0,0,0,0,0,0,0,0,-1,818,1324,0,0
-399,-300,0,0,0,0,0,0,0,0,0,-1,825,1324,0,0
-392,-300,0,0,0,0,0,0,0,0,0,-1,832,1324,0,0
-385,-300,0,0,0,0,0,0,0,0,0,-1,839,1324,0,0
-378,-300,0,0,0,0,0,0,0,0,0,-1,846,1324,0,0
-371,-300,0,0,0,0,0,0,0,0,0,-1,853,1324,0,0
-364,-300,0,0,0,0,0,0,0,0,0,-1,860,1324,0,0
-357,-300,0,0,0,0,0,0,0,0,0,-1,867,1324,0,0
-350,-300,0,0,0,0,0,0,0,0,0,-1,874,1324,0,0
-343,-300,0,0,0,0,0,0,0,0,0,-1,881,1324,0,0
-336,-300,0,0,0,0,0,0,0,0,0,-1,888,1324,0,0
-329,-300,0,0,0,0,0,0,0,0,0,-1,895,1324,0,0
-322,-300,0,0,0,0,0,0,0,0,0,-1,902,1324,0,0
-315,-300,0,0,0,0,0,0,0,0,0,-1,909,1324,0,0
-308,-300,0,0,0,0,0,0,0,0,0,-1,916,1324,0,0
-301,-300,0,0,0,0,0,0,0,0,0,-1,923,1324,0,0
-294,-300,0,0,0,0,0,0,0,0,0,-1,930,1324,0,0
-287,-300,0,0,0,0,0,0,0,0,0,-1,937,1324,0,0
-280,-300,0,0,0,0,0,0,0,0,0,-1,944,1324,0,0
-273,-300,0,0,0,0,0,0,0,0,0,-1,951,1324,0,0
-266,-300,0,0,0,0,0,0,0,0,0,-1,958,1324,0,0
-259,-300,0,0,0,0,0,0,0,0,0,-1,965,1324,0,0
-252,-300,0,0,0,0,0,0,0,0,0,-1,972,1324,0,0
-245,-300,0,0,0,0,0,0,0,0,0,-1,979,1324,0,0
-238,-300,0,0,0,0,0,0,0,0,0,-1,986,1324,0,0
-231,-300,0,0,0,0,0,0,0,0,0,-1,993,1324,0,0
-224,-300,0,0,0,0,0,0,0,0,0,-1,1000,1324,0,0
-217,-300,0,0,0,0,0,0,0,0,0,-1,1007,1324,0,0
-210,-300,0,0,0,0,0,0,0,0,0,-1,1014,1324,0,0
-203,-300,0,0,0,0,0,0,0,0,0,-1,1021,1324,0,0
-196,-300,0,0,0,0,0,0,0,0,0,-1,1028,1324,0,0
-189,-300,0,0,0,0,0,0,0,0,0,-1,1035,1324,0,0
-182,-300,0,0,0,0,0,0,0,0,0,-1,1042,1324,0,0
-175,-300,0,0,0,0,0,0,0,0,0,-1,1049,1324,0,0
-168,-300,0,0,0,0,0,0,0,0,0,-1,1056,1324,0,0
-161,-300,0,0,0,0,0,0,0,0,0,-1,1063,1324,0,0
-154,-300,0,0,0,0,0,0,0,0,0,-1,1070,1324,0,0
-147,-300,0,0,0,0,0,0,0,0,0,-1,1077,1324,0,0
-140,-300,0,0,0,0,0,0,0,0,0,-1,1084,1324,0,0
-133,-300,0,0,0,0,0,0,0,0,0,-1,1091,1324,0,0
-126,-300,0,0,0,0,0,0,0,0,0,-1,1098,1324,0,0
-119,-300,0,0,0,0,0,0,0,0,0,-1,1105,1324,0,0
-112,-300,0,0,0,0,0,0,0,0,0,-1,1112,1324,0,0
-105,-300,0,0,0,0,0,0,0,0,0,-1,1119,1324,0,0
-98,-300,0,0,0,0,0,0,0,0,0,-1,1126,1324,0,0
-91,-300,0,0,0,0,0,0,0,0,0,-1,1133,1324,0,0
-84,-300,0,0,0,0,0,0,0,0,0,-1,1140,1324,0,0
-77,-300,0,0,0,0,0,0,0,0,0,-1,1147,1324,0,0
-70,-300,0,0,0,0,0,0,0,0,0,-1,1154,1324,0,0
-63,-300,0,0,0,0,0,0,0,0,0,-1,1161,1324,0,0
-56,-300,0,0,0,0,0,0,0,0,0,-1,1168,1324,0,0
-49,-300,0,0,0,0,0,0,0,0,0,-1,1175,1324,0,0
-42,-300,0,0,0,0,0,0,0,0,0,-1,1182,1324,0,0
-35,-300,0,0,0,0,0,0,0,0,0,-1,1189,1324,0,0
-28,-300,0,0,0,0,0,0,0,0,0,-1,1196,1324,0,0
-21,-300,0,0,0,0,0,0,0,0,0,-1,1203,1324,0,0
-14,-300,0,0,0,0,0,0,0,0,0,-1,1210,1324,0,0
-7,-300,0,0,0,0,0,0,0,0,0,-1,1217,1324,0,0
0,-300,0,0,0,0,0,0,0,0,0,-1,1224,1324,0,0
7,-300,0,0,0,0,0,0,0,0,0,-1,1231,1324,0,0
14,-300,0,0,0,0,0,0,0,0,0,-1,1238,1324,0,0
21,-300,0,0,0,0,0,0,0,0,0,-1,1245,1324,0,0
28,-300,0,0,0,0,0,0,0,0,0,-1,1252,1324,0,0
35,-300,0,0,0,0,0,0,0,0,0,-1,1259,1324,0,0
42,-300,0,0,0,0,0,0,0,0,0,-1,1266,1324,0,0
49,-300,0,0,0,0,0,0,0,0,0,-1,1273,1324,0,0
56,-300,0,0,0,0,0,0,0,0,0,-1,1280,1324,0,0
63,-300,0,0,0,0,0,0,0,0,0,-1,1287,1324,0,0
70,-300,0,0,0,0,0,0,0,0,0,-1,1294,1324,0,0
77,-300,0,0,0,0,0,0,0,0,0,-1,1301,1324,0,0
84,-300,0,0,0,0,0,0,0,0,0,-1,1308,1324,0,0
91,-300,0,0,0,0,0,0,0,0,0,-1,1315,1324,0,0
98,-300,0,0,0,0,0,0,0,0,0,-1,1322,1324,0,0
105,-300,0,0,0,0,0,0,0,0,0,-1,1329,1324,0,0
112,-300,0,0,0,0,0,0,0,0,0,-1,1336,1324,0,0
119,-300,0,0,0,0,0,0,0,0,0,-1,1343,1324,0,0
126,-300,0,0,0,0,0,0,0,0,0,-1,1350,1324,0,0
133,-300,0,0,0,0,0,0,0,0,0,-1,1357,1324,0,0
140,-300,0,0,0,0,0,0,0,0,0,-1,1364,1324,0,0
147,-300,0,0,0,0,0,0,0,0,0,-1,1371,1324,0,0
154,-300,0,0,0,0,0,0,0,0,0,-1,1378,1324,0,0
161,-300,0,0,0,0,0,0,0,0,0,-1,1385,1324,0,0
168,-300,0,0,0,0,0,0,0,0,0,-1,1392,1324,0,0
175,-300,0,0,0,0,0,0,0,0,0,-1,1399,1324,0,0
182,-300,0,0,0,0,0,0,0,0,0,-1,1406,1324,0,0
189,-300,0,0,0,0,0,0,0,0,0,-1,1413,1324,0,0
196,-300,0,0,0,0,0,0,0,0,0,-1,1420,1324,0,0
203,-300,0,0,0,0,0,0,0,0,0,-1,1427,1324,0,0
210,-300,0,0,0,0,0,0,0,0,0,-1,1434,1324,0,0
217,-300,0,0,0,0,0,0,0,0,0,-1,1441,1324,0,0
224,-300,0,0,0,0,0,0,0,0,0,-1,1448,1324,0,0
231,-300,0,0,0,0,0,0,0,0,0,-1,1455,1324,0,0
238,-300,0,0,0,0,0,0,0,0,0,-1,1462,1324,0,0
245,-300,0,0,0,0,0,0,0,0,0,-1,1469,1324,0,0
252,-300,0,0,0,0,0,0,0,0,0,-1,1476,1324,0,0
259,-300,0,0,0,0,0,0,0,0,0,-1,1483,1324,0,0
266,-300,0,0,0,0,0,0,0,0,0,-1,1490,1324,0,0
273,-300,0,0,0,0,0,0,0,0,0,-1,1497,1324,0,0
280,-300,0,0,0,0,0,0,0,0,0,-1,1504,1324,0,0
287,-300,0,0,0,0,0,0,0,0,0,-1,1511,1324,0,0
294,-300,0,0,0,0,0,0,0,0,0,-1,1518,1324,0,0
301,-300,0,0,0,0,0,0,0,0,0,-1,1525,1324,0,0
308,-300,0,0,0,0,0,0,0,0,0,-1,1532,1324,0,0
315,-300,0,0,0,0,0,0,0,0,0,-1,1539,1324,0,0
322,-300,0,0,0,0,0,0,0,0,0,-1,1546,1324,0,0
329,-300,0,0,0,0,0,0,0,0,0,-1,1553,1324,0,0
336,-300,0,0,0,0,0,0,0,0,0,-1,1560,1324,0,0
343,-300,0,0,0,0,0,0,0,0,0,-1,1567,1324,0,0
350,-300,0,0,0,0,0,0,0,0,0,-1,1574,1324,0,0
357,-300,0,0,0,0,0,0,0,0,0,-1,1581,1324,0,0
364,-300,0,0,0,0,0,0,0,0,0,-1,1588,1324,0,0
371,-300,0,0,0,0,0,0,0,0,0,-1,1595,1324,0,0
378,-300,0,0,0,0,0,0,0,0,0,-1,1602,1324,0,0
385,-300,0,0,0,0,0,0,0,0,0,-1,1609,1324,0,0
392,-300,0,0,0,0,0,0,0,0,0,-1,1616,1324,0,0
399,-300,0,0,0,0,0,0,0,0,0,-1,1623,1324,0,0
406,-300,0,0,0,0,0,0,0,0,0,-1,1630,1324,0,0
413,-300,0,0,0,0,0,0,0,0,0,-1,1637,1324,0,0
420,-300,0,0,0,0,0,0,0,0,0,-1,1644,1324,0,0
427,-300,0,0,0,0,0,0,0,0,0,-1,1651,1324,0,0
434,-300,0,0,0,0,0,0,0,0,0,-1,1658,1324,0,0
441,-300,0,0,0,0,0,0,0,0,0,-1,1665,1324,0,0
448,-300,0,0,0,0,0,0,0,0,0,-1,1672,1324,0,0
455,-300,0,0,0,0,0,0,0,0,0,-1,1679,1324,0,0
462,-300,0,0,0,0,0,0,0,0,0,-1,1686,1324,0,0
469,-300,0,0,0,0,0,0,0,0,0,-1,1693,1324,0,0
476,-300,0,0,0,0,0,0,0,0,0,-1,1700,1324,0,0
483,-300,0,0,0,0,0,0,0,0,0,-1,1707,1324,0,0
490,-300,0,0,0,0,0,0,0,0,0,-1,1714,1324,0,0
497,-300,0,0,0,0,0,0,0,0,0,-1,1721,1324,0,0
504,-300,0,0,0,0,0,0,0,0,0,-1,1728,1324,0,0
511,-300,0,0,0,0,0,0,0,0,0,-1,1735,1324,0,0
518,-300,0,0,0,0,0,0,0,0,0,-1,1742,1324,0,0
525,-300,0,0,0,0,0,0,0,0,0,-1,1749,1324,0,0
532,-300,0,0,0,0,0,0,0,0,0,-1,1756,1324,0,0
539,-300,0,0,0,0,0,0,0,0,0,-1,1763,1324,0,0
546,-300,0,0,0,0,0,0,0,0,0,-1,1770,1324,0,0
553,-300,0,0,0,0,0,0,0,0,0,-1,1777,1324,0,0
560,-300,0,0,0,0,0,0,0,0,0,-1,1784,1324,0,0
567,-300,0,0,0,0,0,0,0,0,0,-1,1791,1324,0,0
574,-300,0,0,0,0,0,0,0,0,0,-1,1798,1324,0,0
581,-300,0,0,0,0,0,0,0,0,0,-1,1805,1324,0,0
588,-300,47.0767,3.70276,0,0,0,0,0,0,0,-1,1812,1324,47.0766,-3.70277
595,-300,48.5194,2.6947,0,0,0,0,0,0,0,-1,1819,1324,48.5193,-2.69471
602,-300,48.5337,2.71863,0,0,0,0,0,0,0,-1,1826,1324,48.5337,-2.71862
609,-300,48.3101,2.51758,0,0,0,0,0,0,0,-1,1833,1324,48.3101,-2.51757
616,-300,48.1339,1.14038,0,0,0,0,0,0,0,-1,1840,1324,48.1339,-1.14039
623,-300,47.4474,2.43188,0,0,0,0,0,0,0,-1,1847,1324,47.4474,-2.43194
630,-300,42.4099,3.9165,0,0,0,0,0,0,0,-1,1854,1324,42.4099,-3.91649
637,-300,31.1719,4.6366,0,0,0,0,0,0,0,-1,1861,1324,31.1718,-4.63665
644,-300,22.9836,3.44934,0,0,0,0,0,0,0,-1,1868,1324,22.9836,-3.4493
651,-300,25.5004,9.11853,0,0,0,0,0,0,0,-1,1875,1324,25.5004,-9.11851
658,-300,25.4012,9.20032,0,0,0,0,0,0,0,-1,1882,1324,25.4012,-9.20036
665,-300,33.818,11.8914,0,0,0,0,0,0,0,-1,1889,1324,33.818,-11.8914
672,-300,33.6882,11.4572,-0.00284467,0.00308667,9.19295e-05,0.00308809,-0.0028461,1.5553,0.00342705,0.0234479,1896,1324,33.6882,-11.4572
679,-300,33.7057,10.9297,-0.0018874,0.000131302,0.00114619,0.000649217,-0.00240532,1.1464,0.00185815,0.0125113,1903,1324,33.7057,-10.9297
686,-300,33.7096,10.438,-0.000948593,-0.000598392,0.000944334,0.000186937,-0.00173392,0.877068,0.00122303,0.0137379,1910,1324,33.7096,-10.438
693,-300,33.6655,9.96472,-0.000133168,-0.000766105,0.000651799,0.000274928,-0.0011742,0.559395,0.000888733,0.0117765,1917,1324,33.6655,-9.96478
700,-300,33.6368,9.46765,0.000232422,-0.00053564,0.000531926,0.000504459,-0.000807677,0.472741,0.000764275,0.0129351,1924,1324,33.6368,-9.46764
707,-300,33.6407,8.97681,0.000154418,-0.000305057,0.000611844,0.000578234,-0.000728873,0.605801,0.000756327,0.00943247,1931,1324,33.6408,-8.97681
714,-300,33.6521,8.51672,-5.33516e-05,-7.71384e-05,0.000722871,0.000657724,-0.000788214,0.777172,0.000835945,0.0113268,1938,1324,33.6521,-8.51668
721,-300,33.6425,8.05066,-0.000418033,0.000116501,0.000901695,0.000789705,-0.00109124,0.929476,0.0010906,0.0129256,1945,1324,33.6424,-8.05066
728,-300,33.6323,7.552,-0.00099912,0.000298947,0.00112941,0.000952529,-0.0016527,1.04619,0.00152213,0.0165647,1952,1324,33.6324,-7.552
735,-300,33.6965,7.03833,0,0,0,0,0,0,0,-1,1959,1324,33.6966,-7.03837
742,-300,32.3978,6.80261,0,0,0,0,0,0,0,-1,1966,1324,32.3979,-6.80257
749,-300,27.4065,5.9718,0,0,0,0,0,0,0,-1,1973,1324,27.4065,-5.97181
756,-300,22.1423,3.45642,0,0,0,0,0,0,0,-1,1980,1324,22.1423,-3.45638
763,-300,22.6136,5.1571,0,0,0,0,0,0,0,-1,1987,1324,22.6136,-5.15706
770,-300,24.859,4.77979,0,0,0,0,0,0,0,-1,1994,1324,24.859,-4.77972
777,-300,0,0,0,0,0,0,0,0,0,-1,2001,1324,0,0
784,-300,0,0,0,0,0,0,0,0,0,-1,2008,1324,0,0
791,-300,0,0,0,0,0,0,0,0,0,-1,2015,1324,0,0
798,-300,0,0,0,0,0,0,0,0,0,-1,2022,1324,0,0
805,-300,0,0,0,0,0,0,0,0,0,-1,2029,1324,0,0
812,-300,0,0,0,0,0,0,0,0,0,-1,2036,1324,0,0
-700,-307,0,0,0,0,0,0,0,0,0,-1,524,1331,0,0
-693,-307,0,0,0,0,0,0,0,0,0,-1,531,1331,0,0
-686,-307,0,0,0,0,0,0,0,0,0,-1,538,1331,0,0
-679,-307,0,0,0,0,0,0,0,0,0,-1,545,1331,0,0
-672,-307,0,0,0,0,0,0,0,0,0,-1,552,1331,0,0
-665,-307,0,0,0,0,0,0,0,0,0,-1,559,1331,0,0
-658,-307,0,0,0,0,0,0,0,0,0,-1,566,1331,0,0
-651,-307,-20.2972,-0.0720215,0,0,0,0,0,0,0,-1,573,1331,-20.2973,0.0720287
-644,-307,-20.7615,0.556152,0,0,0,0,0,0,0,-1,580,1331,-20.7615,-0.556159
-637,-307,-21.0822,1.21277,0,0,0,0,0,0,0,-1,587,1331,-21.0821,-1.21273
-630,-307,-12.0005,0.767212,0,0,0,0,0,0,0,-1,594,1331,-12.0005,-0.767266
-623,-307,-12.2128,2.93811,0,0,0,0,0,0,0,-1,601,1331,-12.2128,-2.93813
-616,-307,-12.6612,2.08289,0,0,0,0,0,0,0,-1,608,1331,-12.6612,-2.08293
-609,-307,-12.2767,1.83228,0,0,0,0,0,0,0,-1,615,1331,-12.2768,-1.83224
-602,-307,-19.0685,4.52148,0,0,0,0,0,0,0,-1,622,1331,-19.0686,-4.52143
-595,-307,-19.1865,5.17859,0.041994,0.00561404,0.0169305,0.0486539,-0.00104589,0.374776,0.0327901,0.0436342,629,1331,-19.1865,-5.17857
-588,-307,-19.0955,5.77332,0.0140343,0.00411755,0.00634406,0.0171278,0.00102405,0.453695,0.0110929,0.0212989,636,1331,-19.0955,-5.77333
-581,-307,-19.0915,6.32654,0.00351592,0.00272978,0.0020172,0.00517799,0.00106771,0.689174,0.00315686,0.01515,643,1331,-19.0915,-6.32654
-574,-307,-19.0991,6.82727,0.00296255,0.00178237,0.00147939,0.00396519,0.000779726,0.595632,0.00242569,0.0124919,650,1331,-19.0991,-6.82732
-567,-307,-19.1402,7.33203,0.002668,0.000990187,0.00111933,0.00322791,0.000430283,0.463817,0.00202381,0.0133959,657,1331,-19.1402,-7.33198
-560,-307,-19.1561,7.87219,0.00262142,0.000294465,0.000899062,0.00292832,-1.2429e-05,0.328947,0.00195637,0.0148272,664,1331,-19.1561,-7.87218
-553,-307,-19.1511,8.40723,0.00282748,-0.000289082,0.000803776,0.00302257,-0.000484168,0.238108,0.00219431,0.011224,671,1331,-19.1511,-8.40722
-546,-307,-19.1935,8.93408,0.00333171,-0.000784564,0.000855271,0.00350235,-0.000955197,0.196922,0.00271,0.0100122,678,1331,-19.1935,-8.93404
-539,-307,-19.1944,9.50586,0.00426094,-0.00130657,0.0010462,0.00445104,-0.00149667,0.179745,0.00357234,0.015772,685,1331,-19.1944,-9.50589
-532,-307,-19.164,10.0787,0,0,0,0,0,0,0,-1,692,1331,-19.164,-10.0787
-525,-307,-13.2009,6.91309,0,0,0,0,0,0,0,-1,699,1331,-13.2009,-6.9131
-518,-307,-9.77777,-1.56653,0,0,0,0,0,0,0,-1,706,1331,-9.77777,1.56651
-511,-307,-12.5226,0.26709,0,0,0,0,0,0,0,-1,713,1331,-12.5226,-0.267038
-504,-307,-12.5913,-0.308105,0,0,0,0,0,0,0,-1,720,1331,-12.5913,0.308124
-497,-307,-13.8586,-0.115845,0,0,0,0,0,0,0,-1,727,1331,-13.8587,0.115861
-490,-307,-17.9429,0.982178,0,0,0,0,0,0,0,-1,734,1331,-17.9429,-0.982198
-483,-307,-18.1066,0.927612,0,0,0,0,0,0,0,-1,741,1331,-18.1066,-0.927609
-476,-307,-18.1288,1.1228,0,0,0,0,0,0,0,-1,748,1331,-18.1289,-1.12286
-469,-307,-18.2028,0.798584,0,0,0,0,0,0,0,-1,755,1331,-18.2027,-0.798546
-462,-307,0,0,0,0,0,0,0,0,0,-1,762,1331,0,0
-455,-307,0,0,0,0,0,0,0,0,0,-1,769,1331,0,0
-448,-307,0,0,0,0,0,0,0,0,0,-1,776,1331,0,0
-441,-307,0,0,0,0,0,0,0,0,0,-1,783,1331,0,0
-434,-307,0,0,0,0,0,0,0,0,0,-1,790,1331,0,0
-427,-307,0,0,0,0,0,0,0,0,0,-1,797,1331,0,0
-420,-307,0,0,0,0,0,0,0,0,0,-1,804,1331,0,0
-413,-307,0,0,0,0,0,0,0,0,0,-1,811,1331,0,0
-406,-307,0,0,0,0,0,0,0,0,0,-1,818,1331,0,0
-399,-307,0,0,0,0,0,0,0,0,0,-1,825,1331,0,0
-392,-307,0,0,0,0,0,0,0,0,0,-1,832,1331,0,0
-385,-307,0,0,0,0,0,0,0,0,0,-1,839,1331,0,0
-378,-307,0,0,0,0,0,0,0,0,0,-1,846,1331,0,0
-371,-307,0,0,0,0,0,0,0,0,0,-1,853,1331,0,0
-364,-307,0,0,0,0,0,0,0,0,0,-1,860,1331,0,0
-357,-307,0,0,0,0,0,0,0,0,0,-1,867,1331,0,0
-350,-307,0,0,0,0,0,0,0,0,0,-1,874,1331,0,0
-343,-307,0,0,0,0,0,0,0,0,0,-1,881,1331,0,0
-336,-307,0,0,0,0,0,0,0,0,0,-1,888,1331,0,0
-329,-307,0,0,0,0,0,0,0,0,0,-1,895,1331,0,0
-322,-307,0,0,0,0,0,0,0,0,0,-1,902,1331,0,0
-315,-307,0,0,0,0,0,0,0,0,0,-1,909,1331,0,0
-308,-307,0,0,0,0,0,0,0,0,0,-1,916,1331,0,0
-301,-307,0,0,0,0,0,0,0,0,0,-1,923,1331,0,0
-294,-307,0,0,0,0,0,0,0,0,0,-1,930,1331,0,0
-287,-307,0,0,0,0,0,0,0,0,0,-1,937,1331,0,0
-280,-307,0,0,0,0,0,0,0,0,0,-1,944,1331,0,0
-273,-307,0,0,0,0,0,0,0,0,0,-1,951,1331,0,0
-266,-307,0,0,0,0,0,0,0,0,0,-1,958,1331,0,0
-259,-307,0,0,0,0,0,0,0,0,0,-1,965,1331,0,0
-252,-307,0,0,0,0,0,0,0,0,0,-1,972,1331,0,0
-245,-307,0,0,0,0,0,0,0,0,0,-1,979,1331,0,0
-238,-307,0,0,0,0,0,0,0,0,0,-1,986,1331,0,0
-231,-307,0,0,0,0,0,0,0,0,0,-1,993,1331,0,0
-224,-307,0,0,0,0,0,0,0,0,0,-1,1000,1331,0,0
-217,-307,0,0,0,0,0,0,0,0,0,-1,1007,1331,0,0
-210,-307,0,0,0,0,0,0,0,0,0,-1,1014,1331,0,0
-203,-307,0,0,0,0,0,0,0,0,0,-1,1021,1331,0,0
-196,-307,0,0,0,0,0,0,0,0,0,-1,1028,1331,0,0
-189,-307,0,0,0,0,0,0,0,0,0,-1,1035,1331,0,0
-182,-307,0,0,0,0,0,0,0,0,0,-1,1042,1331,0,0
-175,-307,0,0,0,0,0,0,0,0,0,-1,1049,1331,0,0
-168,-307,0,0,0,0,0,0,0,0,0,-1,1056,1331,0,0
-161,-307,0,0,0,0,0,0,0,0,0,-1,1063,1331,0,0
-154,-307,0,0,0,0,0,0,0,0,0,-1,1070,1331,0,0
-147,-307,0,0,0,0,0,0,0,0,0,-1,1077,1331,0,0
-140,-307,0,0,0,0,0,0,0,0,0,-1,1084,1331,0,0
-133,-307,0,0,0,0,0,0,0,0,0,-1,1091,1331,0,0
-126,-307,0,0,0,0,0,0,0,0,0,-1,1098,1331,0,0
-119,-307,0,0,0,0,0,0,0,0,0,-1,1105,1331,0,0
-112,-307,0,0,0,0,0,0,0,0,0,-1,1112,1331,0,0
-105,-307,0,0,0,0,0,0,0,0,0,-1,1119,1331,0,0
-98,-307,0,0,0,0,0,0,0,0,0,-1,1126,1331,0,0
-91,-307,0,0,0,0,0,0,0,0,0,-1,1133,1331,0,0
-84,-307,0,0,0,0,0,0,0,0,0,-1,1140,1331,0,0
-77,-307,0,0,0,0,0,0,0,0,0,-1,1147,1331,0,0
-70,-307,0,0,0,0,0,0,0,0,0,-1,1154,1331,0,0
-63,-307,0,0,0,0,0,0,0,0,0,-1,1161,1331,0,0
-56,-307,0,0,0,0,0,0,0,0,0,-1,1168,1331,0,0
-49,-307,0,0,0,0,0,0,0,0,0,-1,1175,1331,0,0
-42,-307,0,0,0,0,0,0,0,0,0,-1,1182,1331,0,0
-35,-307,0,0,0,0,0,0,0,0,0,-1,1189,1331,0,0
-28,-307,0,0,0,0,0,0,0,0,0,-1,1196,1331,0,0
-21,-307,0,0,0,0,0,0,0,0,0,-1,1203,1331,0,0
-14,-307,0,0,0,0,0,0,0,0,0,-1,1210,1331,0,0
-7,-307,0,0,0,0,0,0,0,0,0,-1,1217,1331,0,0
0,-307,0,0,0,0,0,0,0,0,0,-1,1224,1331,0,0
7,-307,0,0,0,0,0,0,0,0,0,-1,1231,1331,0,0
14,-307,0,0,0,0,0,0,0,0,0,-1,1238,1331,0,0
21,-307,0,0,0,0,0,0,0,0,0,-1,1245,1331,0,0
28,-307,0,0,0,0,0,0,0,0,0,-1,1252,1331,0,0
35,-307,0,0,0,0,0,0,0,0,0,-1,1259,1331,0,0
42,-307,0,0,0,0,0,0,0,0,0,-1,1266,1331,0,0
49,-307,0,0,0,0,0,0,0,0,0,-1,1273,1331,0,0
56,-307,0,0,0,0,0,0,0,0,0,-1,1280,1331,0,0
63,-307,0,0,0,0,0,0,0,0,0,-1,1287,1331,0,0
70,-307,0,0,0,0,0,0,0,0,0,-1,1294,1331,0,0
77,-307,0,0,0,0,0,0,0,0,0,-1,1301,1331,0,0
84,-307,0,0,0,0,0,0,0,0,0,-1,1308,1331,0,0
91,-307,0,0,0,0,0,0,0,0,0,-1,1315,1331,0,0
98,-307,0,0,0,0,0,0,0,0,0,-1,1322,1331,0,0
105,-307,0,0,0,0,0,0,0,0,0,-1,1329,1331,0,0
112,-307,0,0,0,0,0,0,0,0,0,-1,1336,1331,0,0
119,-307,0,0,0,0,0,0,0,0,0,-1,1343,1331,0,0
126,-307,0,0,0,0,0,0,0,0,0,-1,1350,1331,0,0
133,-307,0,0,0,0,0,0,0,0,0,-1,1357,1331,0,0
140,-307,0,0,0,0,0,0,0,0,0,-1,1364,1331,0,0
147,-307,0,0,0,0,0,0,0,0,0,-1,1371,1331,0,0
154,-307,0,0,0,0,0,0,0,0,0,-1,1378,1331,0,0
161,-307,0,0,0,0,0,0,0,0,0,-1,1385,1331,0,0
168,-307,0,0,0,0,0,0,0,0,0,-1,1392,1331,0,0
175,-307,0,0,0,0,0,0,0,0,0,-1,1399,1331,0,0
182,-307,0,0,0,0,0,0,0,0,0,-1,1406,1331,0,0
189,-307,0,0,0,0,0,0,0,0,0,-1,1413,1331,0,0
196,-307,0,0,0,0,0,0,0,0,0,-1,1420,1331,0,0
203,-307,0,0,0,0,0,0,0,0,0,-1,1427,1331,0,0
210,-307,0,0,0,0,0,0,0,0,0,-1,1434,1331,0,0
217,-307,0,0,0,0,0,0,0,0,0,-1,1441,1331,0,0
224,-307,0,0,0,0,0,0,0,0,0,-1,1448,1331,0,0
231,-307,0,0,0,0,0,0,0,0,0,-1,1455,1331,0,0
238,-307,0,0,0,0,0,0,0,0,0,-1,1462,1331,0,0
245,-307,0,0,0,0,0,0,0,0,0,-1,1469,1331,0,0
252,-307,0,0,0,0,0,0,0,0,0,-1,1476,1331,0,0
259,-307,0,0,0,0,0,0,0,0,0,-1,1483,1331,0,0
266,-307,0,0,0,0,0,0,0,0,0,-1,1490,1331,0,0
273,-307,0,0,0,0,0,0,0,0,0,-1,1497,1331,0,0
280,-307,0,0,0,0,0,0,0,0,0,-1,1504,1331,0,0
287,-307,0,0,0,0,0,0,0,0,0,-1,1511,1331,0,0
294,-307,0,0,0,0,0,0,0,0,0,-1,1518,1331,0,0
301,-307,0,0,0,0,0,0,0,0,0,-1,1525,1331,0,0
308,-307,0,0,0,0,0,0,0,0,0,-1,1532,1331,0,0
315,-307,0,0,0,0,0,0,0,0,0,-1,1539,1331,0,0
322,-307,0,0,0,0,0,0,0,0,0,-1,1546,1331,0,0
329,-307,0,0,0,0,0,0,0,0,0,-1,1553,1331,0,0
336,-307,0,0,0,0,0,0,0,0,0,-1,1560,1331,0,0
343,-307,0,0,0,0,0,0,0,0,0,-1,1567,1331,0,0
350,-307,0,0,0,0,0,0,0,0,0,-1,1574,1331,0,0
357,-307,0,0,0,0,0,0,0,0,0,-1,1581,1331,0,0
364,-307,0,0,0,0,0,0,0,0,0,-1,1588,1331,0,0
371,-307,0,0,0,0,0,0,0,0,0,-1,1595,1331,0,0
378,-307,0,0,0,0,0,0,0,0,0,-1,1602,1331,0,0
385,-307,0,0,0,0,0,0,0,0,0,-1,1609,1331,0,0
392,-307,0,0,0,0,0,0,0,0,0,-1,1616,1331,0,0
399,-307,0,0,0,0,0,0,0,0,0,-1,1623,1331,0,0
406,-307,0,0,0,0,0,0,0,0,0,-1,1630,1331,0,0
413,-307,0,0,0,0,0,0,0,0,0,-1,1637,1331,0,0
420,-307,0,0,0,0,0,0,0,0,0,-1,1644,1331,0,0
427,-307,0,0,0,0,0,0,0,0,0,-1,1651,1331,0,0
434,-307,0,0,0,0,0,0,0,0,0,-1,1658,1331,0,0
441,-307,0,0,0,0,0,0,0,0,0,-1,1665,1331,0,0
448,-307,0,0,0,0,0,0,0,0,0,-1,1672,1331,0,0
455,-307,0,0,0,0,0,0,0,0,0,-1,1679,1331,0,0
462,-307,0,0,0,0,0,0,0,0,0,-1,1686,1331,0,0
469,-307,0,0,0,0,0,0,0,0,0,-1,1693,1331,0,0
476,-307,0,0,0,0,0,0,0,0,0,-1,1700,1331,0,0
483,-307,0,0,0,0,0,0,0,0,0,-1,1707,1331,0,0
490,-307,0,0,0,0,0,0,0,0,0,-1,1714,1331,0,0
497,-307,0,0,0,0,0,0,0,0,0,-1,1721,1331,0,0
504,-307,0,0,0,0,0,0,0,0,0,-1,1728,1331,0,0
511,-307,0,0,0,0,0,0,0,0,0,-1,1735,1331,0,0
518,-307,0,0,0,0,0,0,0,0,0,-1,1742,1331,0,0
525,-307,0,0,0,0,0,0,0,0,0,-1,1749,1331,0,0
532,-307,0,0,0,0,0,0,0,0,0,-1,1756,1331,0,0
539,-307,0,0,0,0,0,0,0,0,0,-1,1763,1331,0,0
546,-307,0,0,0,0,0,0,0,0,0,-1,1770,1331,0,0
553,-307,0,0,0,0,0,0,0,0,0,-1,1777,1331,0,0
560,-307,0,0,0,0,0,0,0,0,0,-1,1784,1331,0,0
567,-307,0,0,0,0,0,0,0,0,0,-1,1791,1331,0,0
574,-307,0,0,0,0,0,0,0,0,0,-1,1798,1331,0,0
581,-307,0,0,0,0,0,0,0,0,0,-1,1805,1331,0,0
588,-307,48.9391,2.93726,0,0,0,0,0,0,0,-1,1812,1331,48.939,-2.93724
595,-307,48.7631,2.79016,0,0,0,0,0,0,0,-1,1819,1331,48.763,-2.79019
602,-307,48.5643,2.62012,0,0,0,0,0,0,0,-1,1826,1331,48.5643,-2.62014
609,-307,48.399,2.4873,0,0,0,0,0,0,0,-1,1833,1331,48.3991,-2.48725
616,-307,48.0499,2.52173,0,0,0,0,0,0,0,-1,1840,1331,48.05,-2.52169
623,-307,44.3966,2.84888,0,0,0,0,0,0,0,-1,1847,1331,44.3966,-2.84884
630,-307,29.8116,1.51184,0,0,0,0,0,0,0,-1,1854,1331,29.8116,-1.51188
637,-307,24.6407,4.09106,0,0,0,0,0,0,0,-1,1861,1331,24.6407,-4.09103
644,-307,22.6885,5.80408,0,0,0,0,0,0,0,-1,1868,1331,22.6884,-5.80408
651,-307,17.5013,5.80078,0,0,0,0,0,0,0,-1,1875,1331,17.5014,-5.80072
658,-307,33.6317,12.4083,0,0,0,0,0,0,0,-1,1882,1331,33.6317,-12.4083
665,-307,33.3308,11.8629,-0.00240024,0.00403091,-0.000887684,0.00415118,-0.00252051,-1.43612,0.00389007,0.0450286,1889,1331,33.3308,-11.863
672,-307,33.2253,11.4388,-0.00141389,0.00170819,-7.18814e-05,0.00170985,-0.00141554,-1.54779,0.00180711,0.0148832,1896,1331,33.2253,-11.4388
679,-307,33.2085,10.9597,-0.000692822,-0.000573184,0.000843303,0.000212419,-0.00147843,0.820806,0.00106352,0.0101581,1903,1331,33.2084,-10.9597
686,-307,33.2025,10.4651,-0.000141051,-0.000827962,0.000695856,0.000291495,-0.00126051,0.556152,0.000952489,0.0100467,1910,1331,33.2025,-10.4651
693,-307,33.1737,9.97473,0.000254811,-0.000748699,0.000510295,0.000468709,-0.000962597,0.396918,0.000842604,0.0119095,1917,1331,33.1737,-9.97468
700,-307,33.1689,9.46704,0.000406551,-0.000499399,0.000451253,0.000592963,-0.000685811,0.391747,0.000738949,0.0134062,1924,1331,33.169,-9.46702
707,-307,33.1556,8.96875,0.00036365,-0.000254836,0.000509508,0.000650418,-0.000541604,0.512643,0.00068917,0.0151915,1931,1331,33.1556,-8.96872
714,-307,33.16,8.53247,0.000198082,-8.78127e-06,0.000594413,0.000697995,-0.000508694,0.699257,0.000699534,0.0135566,1938,1331,33.1601,-8.53242
721,-307,33.1908,8.07251,-0.000127948,0.000181547,0.00077695,0.000819011,-0.000765411,0.883699,0.000914941,0.0171716,1945,1331,33.1907,-8.07247
728,-307,33.1287,7.74426,-0.000669005,0.000363441,0.00100496,0.000977013,-0.00128258,1.02266,0.00130854,0.0460218,1952,1331,33.1287,-7.74421
735,-307,33.1639,7.1228,0,0,0,0,0,0,0,-1,1959,1331,33.1639,-7.12285
742,-307,26.677,6.09192,0,0,0,0,0,0,0,-1,1966,1331,26.677,-6.0919
749,-307,26.7727,5.9032,0,0,0,0,0,0,0,-1,1973,1331,26.7727,-5.90323
756,-307,27.1556,5.74756,0,0,0,0,0,0,0,-1,1980,1331,27.1557,-5.7475
763,-307,18.7522,3.55298,0,0,0,0,0,0,0,-1,1987,1331,18.7522,-3.55301
770,-307,0,0,0,0,0,0,0,0,0,-1,1994,1331,0,0
777,-307,0,0,0,0,0,0,0,0,0,-1,2001,1331,0,0
784,-307,0,0,0,0,0,0,0,0,0,-1,2008,1331,0,0
791,-307,0,0,0,0,0,0,0,0,0,-1,2015,1331,0,0
798,-307,0,0,0,0,0,0,0,0,0,-1,2022,1331,0,0
805,-307,0,0,0,0,0,0,0,0,0,-1,2029,1331,0,0
812,-307,0,0,0,0,0,0,0,0,0,-1,2036,1331,0,0
-700,-314,0,0,0,0,0,0,0,0,0,-1,524,1338,0,0
-693,-314,0,0,0,0,0,0,0,0,0,-1,531,1338,0,0
-686,-314,0,0,0,0,0,0,0,0,0,-1,538,1338,0,0
-679,-314,0,0,0,0,0,0,0,0,0,-1,545,1338,0,0
-672,-314,0,0,0,0,0,0,0,0,0,-1,552,1338,0,0
-665,-314,0,0,0,0,0,0,0,0,0,-1,559,1338,0,0
-658,-314,0,0,0,0,0,0,0,0,0,-1,566,1338,0,0
-651,-314,0,0,0,0,0,0,0,0,0,-1,573,1338,0,0
-644,-314,-20.9896,-0.0299072,0,0,0,0,0,0,0,-1,580,1338,-20.9896,0.0299587
-637,-314,-18.8677,6.62646,0,0,0,0,0,0,0,-1,587,1338,-18.8677,-6.62651
-630,-314,-13.2771,2.98938,0,0,0,0,0,0,0,-1,594,1338,-13.2771,-2.98943
-623,-314,-13.3542,3.00903,0,0,0,0,0,0,0,-1,601,1338,-13.3542,-3.00907
-616,-314,-9.93311,1.15088,0,0,0,0,0,0,0,-1,608,1338,-9.93308,-1.15093
-609,-314,-9.4361,2.86292,0,0,0,0,0,0,0,-1,615,1338,-9.43612,-2.86286
-602,-314,-11.8027,2.42798,0,0,0,0,0,0,0,-1,622,1338,-11.8027,-2.42802
-595,-314,-18.6168,4.82202,0,0,0,0,0,0,0,-1,629,1338,-18.6168,-4.82198
-588,-314,-18.6041,5.72314,0.015111,0.00424053,0.00664665,0.0182618,0.00108974,0.442667,0.011828,0.0318522,636,1338,-18.6041,-5.72308
-581,-314,-18.5424,6.3031,0.00401573,0.00287354,0.00212459,0.00564464,0.00124462,0.654101,0.00342446,0.0124854,643,1338,-18.5424,-6.30305
-574,-314,-18.5872,6.81055,0.00327409,0.00195598,0.00154596,0.00429561,0.000934459,0.58391,0.00260865,0.0118255,650,1338,-18.5872,-6.81054
-567,-314,-18.5958,7.33911,0.00283892,0.00120653,0.00116613,0.00344611,0.000599339,0.480064,0.00212598,0.0136853,657,1338,-18.5958,-7.3391
-560,-314,-18.5881,7.901,0.0026853,0.000555335,0.00093895,0.00304011,0.000200524,0.361294,0.00196332,0.0149675,664,1338,-18.5881,-7.90105
-553,-314,-18.6083,8.43323,0.00278987,-9.01182e-06,0.000832741,0.00301889,-0.000238034,0.268387,0.00209645,0.017779,671,1338,-18.6083,-8.43319
-546,-314,-18.6826,8.97595,0.00322493,-0.00049301,0.000879264,0.00342239,-0.000690463,0.220901,0.00254318,0.0179411,678,1338,-18.6826,-8.97594
-539,-314,-18.696,9.52307,0.0040427,-0.000963746,0.00105533,0.00425607,-0.00117711,0.199489,0.00330048,0.0178477,685,1338,-18.6961,-9.52304
-532,-314,-18.6182,10.0305,0,0,0,0,0,0,0,-1,692,1338,-18.6182,-10.0305
-525,-314,-13.3017,7.50671,0,0,0,0,0,0,0,-1,699,1338,-13.3017,-7.50669
-518,-314,-8.52753,4.70032,0,0,0,0,0,0,0,-1,706,1338,-8.52755,-4.70034
-511,-314,-11.8597,0.384888,0,0,0,0,0,0,0,-1,713,1338,-11.8597,-0.384927
-504,-314,-11.4322,-0.187378,0,0,0,0,0,0,0,-1,720,1338,-11.4322,0.187381
-497,-314,-11.0047,-0.759644,0,0,0,0,0,0,0,-1,727,1338,-11.0047,0.759689
-490,-314,-18.5143,0.471069,0,0,0,0,0,0,0,-1,734,1338,-18.5143,-0.47103
-483,-314,-17.8528,0.577271,0,0,0,0,0,0,0,-1,741,1338,-17.8528,-0.577327
-476,-314,-17.714,0.665405,0,0,0,0,0,0,0,-1,748,1338,-17.714,-0.665388
-469,-314,-17.7246,0.794678,0,0,0,0,0,0,0,-1,755,1338,-17.7246,-0.794645
-462,-314,0,0,0,0,0,0,0,0,0,-1,762,1338,0,0
-455,-314,0,0,0,0,0,0,0,0,0,-1,769,1338,0,0
-448,-314,0,0,0,0,0,0,0,0,0,-1,776,1338,0,0
-441,-314,0,0,0,0,0,0,0,0,0,-1,783,1338,0,0
-434,-314,0,0,0,0,0,0,0,0,0,-1,790,1338,0,0
-427,-314,0,0,0,0,0,0,0,0,0,-1,797,1338,0,0
-420,-314,0,0,0,0,0,0,0,0,0,-1,804,1338,0,0
-413,-314,0,0,0,0,0,0,0,0,0,-1,811,1338,0,0
-406,-314,0,0,0,0,0,0,0,0,0,-1,818,1338,0,0
-399,-314,0,0,0,0,0,0,0,0,0,-1,825,1338,0,0
-392,-314,0,0,0,0,0,0,0,0,0,-1,832,1338,0,0
-385,-314,0,0,0,0,0,0,0,0,0,-1,839,1338,0,0
-378,-314,0,0,0,0,0,0,0,0,0,-1,846,1338,0,0
-371,-314,0,0,0,0,0,0,0,0,0,-1,853,1338,0,0
-364,-314,0,0,0,0,0,0,0,0,0,-1,860,1338,0,0
-357,-314,0,0,0,0,0,0,0,0,0,-1,867,1338,0,0
-350,-314,0,0,0,0,0,0,0,0,0,-1,874,1338,0,0
-343,-314,0,0,0,0,0,0,0,0,0,-1,881,1338,0,0
-336,-314,0,0,0,0,0,0,0,0,0,-1,888,1338,0,0
-329,-314,0,0,0,0,0,0,0,0,0,-1,895,1338,0,0
-322,-314,0,0,0,0,0,0,0,0,0,-1,902,1338,0,0
-315,-314,0,0,0,0,0,0,0,0,0,-1,909,1338,0,0
-308,-314,0,0,0,0,0,0,0,0,0,-1,916,1338,0,0
-301,-314,0,0,0,0,0,0,0,0,0,-1,923,1338,0,0
-294,-314,0,0,0,0,0,0,0,0,0,-1,930,1338,0,0
-287,-314,0,0,0,0,0,0,0,0,0,-1,937,1338,0,0
-280,-314,0,0,0,0,0,0,0,0,0,-1,944,1338,0,0
-273,-314,0,0,0,0,0,0,0,0,0,-1,951,1338,0,0
-266,-314,0,0,0,0,0,0,0,0,0,-1,958,1338,0,0
-259,-314,0,0,0,0,0,0,0,0,0,-1,965,1338,0,0
-252,-314,0,0,0,0,0,0,0,0,0,-1,972,1338,0,0
-245,-314,0,0,0,0,0,0,0,0,0,-1,979,1338,0,0
-238,-314,0,0,0,0,0,0,0,0,0,-1,986,1338,0,0
-231,-314,0,0,0,0,0,0,0,0,0,-1,993,1338,0,0
-224,-314,0,0,0,0,0,0,0,0,0,-1,1000,1338,0,0
-217,-314,0,0,0,0,0,0,0,0,0,-1,1007,1338,0,0
-210,-314,0,0,0,0,0,0,0,0,0,-1,1014,1338,0,0
-203,-314,0,0,0,0,0,0,0,0,0,-1,1021,1338,0,0
-196,-314,0,0,0,0,0,0,0,0,0,-1,1028,1338,0,0
-189,-314,0,0,0,0,0,0,0,0,0,-1,1035,1338,0,0
-182,-314,0,0,0,0,0,0,0,0,0,-1,1042,1338,0,0
-175,-314,0,0,0,0,0,0,0,0,0,-1,1049,1338,0,0
-168,-314,0,0,0,0,0,0,0,0,0,-1,1056,1338,0,0
-161,-314,0,0,0,0,0,0,0,0,0,-1,1063,1338,0,0
-154,-314,0,0,0,0,0,0,0,0,0,-1,1070,1338,0,0
-147,-314,0,0,0,0,0,0,0,0,0,-1,1077,1338,0,0
-140,-314,0,0,0,0,0,0,0,0,0,-1,1084,1338,0,0
-133,-314,0,0,0,0,0,0,0,0,0,-1,1091,1338,0,0
-126,-314,0,0,0,0,0,0,0,0,0,-1,1098,1338,0,0
-119,-314,0,0,0,0,0,0,0,0,0,-1,1105,1338,0,0
-112,-314,0,0,0,0,0,0,0,0,0,-1,1112,1338,0,0
-105,-314,0,0,0,0,0,0,0,0,0,-1,1119,1338,0,0
-98,-314,0,0,0,0,0,0,0,0,0,-1,1126,1338,0,0
-91,-314,0,0,0,0,0,0,0,0,0,-1,1133,1338,0,0
-84,-314,0,0,0,0,0,0,0,0,0,-1,1140,1338,0,0
-77,-314,0,0,0,0,0,0,0,0,0,-1,1147,1338,0,0
-70,-314,0,0,0,0,0,0,0,0,0,-1,1154,1338,0,0
-63,-314,0,0,0,0,0,0,0,0,0,-1,1161,1338,0,0
-56,-314,0,0,0,0,0,0,0,0,0,-1,1168,1338,0,0
-49,-314,0,0,0,0,0,0,0,0,0,-1,1175,1338,0,0
-42,-314,0,0,0,0,0,0,0,0,0,-1,1182,1338,0,0
-35,-314,0,0,0,0,0,0,0,0,0,-1,1189,1338,0,0
-28,-314,0,0,0,0,0,0,0,0,0,-1,1196,1338,0,0
-21,-314,0,0,0,0,0,0,0,0,0,-1,1203,1338,0,0
-14,-314,0,0,0,0,0,0,0,0,0,-1,1210,1338,0,0
-7,-314,0,0,0,0,0,0,0,0,0,-1,1217,1338,0,0
0,-314,0,0,0,0,0,0,0,0,0,-1,1224,1338,0,0
7,-314,0,0,0,0,0,0,0,0,0,-1,1231,1338,0,0
14,-314,0,0,0,0,0,0,0,0,0,-1,1238,1338,0,0
21,-314,0,0,0,0,0,0,0,0,0,-1,1245,1338,0,0
28,-314,0,0,0,0,0,0,0,0,0,-1,1252,1338,0,0
35,-314,0,0,0,0,0,0,0,0,0,-1,1259,1338,0,0
42,-314,0,0,0,0,0,0,0,0,0,-1,1266,1338,0,0
49,-314,0,0,0,0,0,0,0,0,0,-1,1273,1338,0,0
56,-314,0,0,0,0,0,0,0,0,0,-1,1280,1338,0,0
63,-314,0,0,0,0,0,0,0,0,0,-1,1287,1338,0,0
70,-314,0,0,0,0,0,0,0,0,0,-1,1294,1338,0,0
77,-314,0,0,0,0,0,0,0,0,0,-1,1301,1338,0,0
84,-314,0,0,0,0,0,0,0,0,0,-1,1308,1338,0,0
91,-314,0,0,0,0,0,0,0,0,0,-1,1315,1338,0,0
98,-314,0,0,0,0,0,0,0,0,0,-1,1322,1338,0,0
105,-314,0,0,0,0,0,0,0,0,0,-1,1329,1338,0,0
112,-314,0,0,0,0,0,0,0,0,0,-1,1336,1338,0,0
119,-314,0,0,0,0,0,0,0,0,0,-1,1343,1338,0,0
126,-314,0,0,0,0,0,0,0,0,0,-1,1350,1338,0,0
133,-314,0,0,0,0,0,0,0,0,0,-1,1357,1338,0,0
140,-314,0,0,0,0,0,0,0,0,0,-1,1364,1338,0,0
147,-314,0,0,0,0,0,0,0,0,0,-1,1371,1338,0,0
154,-314,0,0,0,0,0,0,0,0,0,-1,1378,1338,0,0
161,-314,0,0,0,0,0,0,0,0,0,-1,1385,1338,0,0
168,-314,0,0,0,0,0,0,0,0,0,-1,1392,1338,0,0
175,-314,0,0,0,0,0,0,0,0,0,-1,1399,1338,0,0
182,-314,0,0,0,0,0,0,0,0,0,-1,1406,1338,0,0
189,-314,0,0,0,0,0,0,0,0,0,-1,1413,1338,0,0
196,-314,0,0,0,0,0,0,0,0,0,-1,1420,1338,0,0
203,-314,0,0,0,0,0,0,0,0,0,-1,1427,1338,0,0
210,-314,0,0,0,0,0,0,0,0,0,-1,1434,1338,0,0
217,-314,0,0,0,0,0,0,0,0,0,-1,1441,1338,0,0
224,-314,0,0,0,0,0,0,0,0,0,-1,1448,1338,0,0
231,-314,0,0,0,0,0,0,0,0,0,-1,1455,1338,0,0
238,-314,0,0,0,0,0,0,0,0,0,-1,1462,1338,0,0
245,-314,0,0,0,0,0,0,0,0,0,-1,1469,1338,0,0
252,-314,0,0,0,0,0,0,0,0,0,-1,1476,1338,0,0
259,-314,0,0,0,0,0,0,0,0,0,-1,1483,1338,0,0
266,-314,0,0,0,0,0,0,0,0,0,-1,1490,1338,0,0
273,-314,0,0,0,0,0,0,0,0,0,-1,1497,1338,0,0
280,-314,0,0,0,0,0,0,0,0,0,-1,1504,1338,0,0
287,-314,0,0,0,0,0,0,0,0,0,-1,1511,1338,0,0
294,-314,0,0,0,0,0,0,0,0,0,-1,1518,1338,0,0
301,-314,0,0,0,0,0,0,0,0,0,-1,1525,1338,0,0
308,-314,0,0,0,0,0,0,0,0,0,-1,1532,1338,0,0
315,-314,0,0,0,0,0,0,0,0,0,-1,1539,1338,0,0
322,-314,0,0,0,0,0,0,0,0,0,-1,1546,1338,0,0
329,-314,0,0,0,0,0,0,0,0,0,-1,1553,1338,0,0
336,-314,0,0,0,0,0,0,0,0,0,-1,1560,1338,0,0
343,-314,0,0,0,0,0,0,0,0,0,-1,1567,1338,0,0
350,-314,0,0,0,0,0,0,0,0,0,-1,1574,1338,0,0
357,-314,0,0,0,0,0,0,0,0,0,-1,1581,1338,0,0
364,-314,0,0,0,0,0,0,0,0,0,-1,1588,1338,0,0
371,-314,0,0,0,0,0,0,0,0,0,-1,1595,1338,0,0
378,-314,0,0,0,0,0,0,0,0,0,-1,1602,1338,0,0
385,-314,0,0,0,0,0,0,0,0,0,-1,1609,1338,0,0
392,-314,0,0,0,0,0,0,0,0,0,-1,1616,1338,0,0
399,-314,0,0,0,0,0,0,0,0,0,-1,1623,1338,0,0
406,-314,0,0,0,0,0,0,0,0,0,-1,1630,1338,0,0
413,-314,0,0,0,0,0,0,0,0,0,-1,1637,1338,0,0
420,-314,0,0,0,0,0,0,0,0,0,-1,1644,1338,0,0
427,-314,0,0,0,0,0,0,0,0,0,-1,1651,1338,0,0
434,-314,0,0,0,0,0,0,0,0,0,-1,1658,1338,0,0
441,-314,0,0,0,0,0,0,0,0,0,-1,1665,1338,0,0
448,-314,0,0,0,0,0,0,0,0,0,-1,1672,1338,0,0
455,-314,0,0,0,0,0,0,0,0,0,-1,1679,1338,0,0
462,-314,0,0,0,0,0,0,0,0,0,-1,1686,1338,0,0
469,-314,0,0,0,0,0,0,0,0,0,-1,1693,1338,0,0
476,-314,0,0,0,0,0,0,0,0,0,-1,1700,1338,0,0
483,-314,0,0,0,0,0,0,0,0,0,-1,1707,1338,0,0
490,-314,0,0,0,0,0,0,0,0,0,-1,1714,1338,0,0
497,-314,0,0,0,0,0,0,0,0,0,-1,1721,1338,0,0
504,-314,0,0,0,0,0,0,0,0,0,-1,1728,1338,0,0
511,-314,0,0,0,0,0,0,0,0,0,-1,1735,1338,0,0
518,-314,0,0,0,0,0,0,0,0,0,-1,1742,1338,0,0
525,-314,0,0,0,0,0,0,0,0,0,-1,1749,1338,0,0
532,-314,0,0,0,0,0,0,0,0,0,-1,1756,1338,0,0
539,-314,0,0,0,0,0,0,0,0,0,-1,1763,1338,0,0
546,-314,0,0,0,0,0,0,0,0,0,-1,1770,1338,0,0
553,-314,0,0,0,0,0,0,0,0,0,-1,1777,1338,0,0
560,-314,0,0,0,0,0,0,0,0,0,-1,1784,1338,0,0
567,-314,0,0,0,0,0,0,0,0,0,-1,1791,1338,0,0
574,-314,0,0,0,0,0,0,0,0,0,-1,1798,1338,0,0
581,-314,49.7633,3.98621,0,0,0,0,0,0,0,-1,1805,1338,49.7633,-3.9862
588,-314,49.3467,3.4939,0,0,0,0,0,0,0,-1,1812,1338,49.3467,-3.49392
595,-314,48.8868,3.05884,0,0,0,0,0,0,0,-1,1819,1338,48.8869,-3.05886
602,-314,48.7299,3.02686,0,0,0,0,0,0,0,-1,1826,1338,48.7299,-3.02691
609,-314,48.4767,3.0321,0,0,0,0,0,0,0,-1,1833,1338,48.4766,-3.03211
616,-314,48.1149,3.005,0,0,0,0,0,0,0,-1,1840,1338,48.1149,-3.00505
623,-314,38.7728,2.71741,0,0,0,0,0,0,0,-1,1847,1338,38.7728,-2.71737
630,-314,29.4308,6.23206,0,0,0,0,0,0,0,-1,1854,1338,29.4308,-6.23202
637,-314,22.1349,5.16418,0,0,0,0,0,0,0,-1,1861,1338,22.1349,-5.16414
644,-314,18.7517,6.2605,0,0,0,0,0,0,0,-1,1868,1338,18.7517,-6.26053
651,-314,23.1317,8.005,0,0,0,0,0,0,0,-1,1875,1338,23.1317,-8.00506
658,-314,32.7782,12.4399,0,0,0,0,0,0,0,-1,1882,1338,32.7782,-12.4399
665,-314,32.7144,11.9646,-0.000717178,0.00200804,-0.0013255,0.00254639,-0.00125553,-1.185,0.00223681,0.027656,1889,1338,32.7144,-11.9645
672,-314,32.725,11.4937,-0.000135317,0.000250663,-0.000418638,0.000518653,-0.000403307,-1.00138,0.000533681,0.0127467,1896,1338,32.7249,-11.4936
679,-314,32.7081,10.9917,0.000202136,-0.00108722,0.00037099,0.000301261,-0.00118634,0.261092,0.000908128,0.0106375,1903,1338,32.7081,-10.9918
686,-314,32.6825,10.4727,0.000441468,-0.000927818,0.000345121,0.000523535,-0.00100989,0.233457,0.000900041,0.0123818,1910,1338,32.6825,-10.4727
693,-314,32.6766,9.97546,0.00061318,-0.000659189,0.000297631,0.00067936,-0.000725368,0.218794,0.000811165,0.0126986,1917,1338,32.6767,-9.97549
700,-314,32.6675,9.47815,0.00070974,-0.000391368,0.000291986,0.000782376,-0.000464004,0.243816,0.000727381,0.0141756,1924,1338,32.6674,-9.47813
707,-314,32.6655,8.99536,0.000714128,-0.000126343,0.00033128,0.000829004,-0.00024122,0.333789,0.000648213,0.0140994,1931,1338,32.6655,-8.99538
714,-314,32.6522,8.53687,0.000597573,0.000143364,0.000399272,0.00082981,-8.88734e-05,0.526819,0.000585086,0.0121424,1938,1338,32.6523,-8.53691
721,-314,32.6215,8.09412,0.000304384,0.000329403,0.000615607,0.000932627,-0.00029884,0.795557,0.000741712,0.0259506,1945,1338,32.6215,-8.0941
728,-314,32.6881,7.64551,0,0,0,0,0,0,0,-1,1952,1338,32.6881,-7.64545
735,-314,26.3665,6.21582,0,0,0,0,0,0,0,-1,1959,1338,26.3664,-6.21581
742,-314,26.2235,6.0166,0,0,0,0,0,0,0,-1,1966,1338,26.2235,-6.01662
749,-314,26.2223,5.47046,0,0,0,0,0,0,0,-1,1973,1338,26.2223,-5.47041
756,-314,24.2521,5.93408,0,0,0,0,0,0,0,-1,1980,1338,24.252,-5.93413
763,-314,19.2207,4.07239,0,0,0,0,0,0,0,-1,1987,1338,19.2206,-4.07239
770,-314,0,0,0,0,0,0,0,0,0,-1,1994,1338,0,0
777,-314,0,0,0,0,0,0,0,0,0,-1,2001,1338,0,0
784,-314,0,0,0,0,0,0,0,0,0,-1,2008,1338,0,0
791,-314,0,0,0,0,0,0,0,0,0,-1,2015,1338,0,0
798,-314,0,0,0,0,0,0,0,0,0,-1,2022,1338,0,0
805,-314,0,0,0,0,0,0,0,0,0,-1,2029,1338,0,0
812,-314,0,0,0,0,0,0,0,0,0,-1,2036,1338,0,0
-700,-321,0,0,0,0,0,0,0,0,0,-1,524,1345,0,0
-693,-321,0,0,0,0,0,0,0,0,0,-1,531,1345,0,0
-686,-321,0,0,0,0,0,0,0,0,0,-1,538,1345,0,0
-679,-321,0,0,0,0,0,0,0,0,0,-1,545,1345,0,0
-672,-321,0,0,0,0,0,0,0,0,0,-1,552,1345,0,0
-665,-321,0,0,0,0,0,0,0,0,0,-1,559,1345,0,0
-658,-321,0,0,0,0,0,0,0,0,0,-1,566,1345,0,0
-651,-321,0,0,0,0,0,0,0,0,0,-1,573,1345,0,0
-644,-321,-17.2769,5.65454,0,0,0,0,0,0,0,-1,580,1345,-17.2768,-5.65454
-637,-321,-13.3991,3.59241,0,0,0,0,0,0,0,-1,587,1345,-13.3991,-3.59236
-630,-321,-13.2958,3.65039,0,0,0,0,0,0,0,-1,594,1345,-13.2958,-3.65042
-623,-321,-13.2242,3.14148,0,0,0,0,0,0,0,-1,601,1345,-13.2243,-3.14146
-616,-321,-11.6754,3.13794,0,0,0,0,0,0,0,-1,608,1345,-11.6754,-3.13789
-609,-321,-7.95209,1.14758,0,0,0,0,0,0,0,-1,615,1345,-7.95208,-1.14757
-602,-321,-8.85791,2.50049,0,0,0,0,0,0,0,-1,622,1345,-8.85791,-2.50048
-595,-321,-18.6051,5.06531,0,0,0,0,0,0,0,-1,629,1345,-18.6051,-5.0653
-588,-321,-18.1425,5.64722,0.0159994,0.00420767,0.00673214,0.0190524,0.00115462,0.425763,0.0123348,0.0474533,636,1345,-18.1425,-5.64717
-581,-321,-18.0256,6.29187,0.00462862,0.00292482,0.00217617,0.0061137,0.00143974,0.598833,0.00369071,0.013782,643,1345,-18.0256,-6.29191
-574,-321,-18.0609,6.80237,0.0036704,0.00207587,0.00159597,0.00465716,0.0010891,0.553755,0.00281292,0.0157538,650,1345,-18.0609,-6.80233
-567,-321,-18.0601,7.33289,0.0030756,0.00140142,0.00121996,0.00371804,0.000758974,0.48471,0.00226843,0.0230916,657,1345,-18.0601,-7.33293
-560,-321,-18.0233,7.93042,0.00279421,0.000821251,0.00100182,0.00321372,0.000401746,0.396557,0.00202191,0.0260288,664,1345,-18.0233,-7.93043
-553,-321,-18.0671,8.45984,0.00278482,0.000287235,0.000888502,0.00306865,3.40899e-06,0.309198,0.00204463,0.0271957,671,1345,-18.0671,-8.45983
-546,-321,-18.1452,9.00488,0.00311784,-0.000172915,0.000917237,0.00335623,-0.000411308,0.254277,0.00238644,0.0272548,678,1345,-18.1452,-9.00483
-539,-321,-18.1694,9.52209,0.00378668,-0.000600226,0.00106067,0.00402967,-0.000843216,0.225205,0.00300719,0.0235189,685,1345,-18.1695,-9.52209
-532,-321,-18.0866,10.0521,0.00502091,-0.000948753,0.00139331,0.00533009,-0.00125794,0.218368,0.00403855,0.0329433,692,1345,-18.0866,-10.0521
-525,-321,-18.0493,10.5825,0,0,0,0,0,0,0,-1,699,1345,-18.0493,-10.5826
-518,-321,-10.3564,6.75696,0,0,0,0,0,0,0,-1,706,1345,-10.3564,-6.75694
-511,-321,-9.3302,5.29297,0,0,0,0,0,0,0,-1,713,1345,-9.33023,-5.29294
-504,-321,-10.4713,0.0145264,0,0,0,0,0,0,0,-1,720,1345,-10.4713,-0.0145296
-497,-321,-9.96771,0.313599,0,0,0,0,0,0,0,-1,727,1345,-9.96769,-0.313618
-490,-321,-10.7631,0.973511,0,0,0,0,0,0,0,-1,734,1345,-10.7631,-0.97353
-483,-321,-17.5908,0.2323,0,0,0,0,0,0,0,-1,741,1345,-17.5908,-0.232355
-476,-321,-17.2915,0.297363,0,0,0,0,0,0,0,-1,748,1345,-17.2915,-0.297342
-469,-321,-17.2441,0.478027,0,0,0,0,0,0,0,-1,755,1345,-17.2441,-0.477994
-462,-321,-17.1672,0.526489,0,0,0,0,0,0,0,-1,762,1345,-17.1672,-0.526533
-455,-321,0,0,0,0,0,0,0,0,0,-1,769,1345,0,0
-448,-321,0,0,0,0,0,0,0,0,0,-1,776,1345,0,0
-441,-321,0,0,0,0,0,0,0,0,0,-1,783,1345,0,0
-434,-321,0,0,0,0,0,0,0,0,0,-1,790,1345,0,0
-427,-321,0,0,0,0,0,0,0,0,0,-1,797,1345,0,0
-420,-321,0,0,0,0,0,0,0,0,0,-1,804,1345,0,0
-413,-321,0,0,0,0,0,0,0,0,0,-1,811,1345,0,0
-406,-321,0,0,0,0,0,0,0,0,0,-1,818,1345,0,0
-399,-321,0,0,0,0,0,0,0,0,0,-1,825,1345,0,0
-392,-321,0,0,0,0,0,0,0,0,0,-1,832,1345,0,0
-385,-321,0,0,0,0,0,0,0,0,0,-1,839,1345,0,0
-378,-321,0,0,0,0,0,0,0,0,0,-1,846,1345,0,0
-371,-321,0,0,0,0,0,0,0,0,0,-1,853,1345,0,0
-364,-321,0,0,0,0,0,0,0,0,0,-1,860,1345,0,0
-357,-321,0,0,0,0,0,0,0,0,0,-1,867,1345,0,0
-350,-321,0,0,0,0,0,0,0,0,0,-1,874,1345,0,0
-343,-321,0,0,0,0,0,0,0,0,0,-1,881,1345,0,0
-336,-321,0,0,0,0,0,0,0,0,0,-1,888,1345,0,0
-329,-321,0,0,0,0,0,0,0,0,0,-1,895,1345,0,0
-322,-321,0,0,0,0,0,0,0,0,0,-1,902,1345,0,0
-315,-321,0,0,0,0,0,0,0,0,0,-1,909,1345,0,0
-308,-321,0,0,0,0,0,0,0,0,0,-1,916,1345,0,0
-301,-321,0,0,0,0,0,0,0,0,0,-1,923,1345,0,0
-294,-321,0,0,0,0,0,0,0,0,0,-1,930,1345,0,0
-287,-321,0,0,0,0,0,0,0,0,0,-1,937,1345,0,0
-280,-321,0,0,0,0,0,0,0,0,0,-1,944,1345,0,0
-273,-321,0,0,0,0,0,0,0,0,0,-1,951,1345,0,0
-266,-321,0,0,0,0,0,0,0,0,0,-1,958,1345,0,0
-259,-321,0,0,0,0,0,0,0,0,0,-1,965,1345,0,0
-252,-321,0,0,0,0,0,0,0,0,0,-1,972,1345,0,0
-245,-321,0,0,0,0,0,0,0,0,0,-1,979,1345,0,0
-238,-321,0,0,0,0,0,0,0,0,0,-1,986,1345,0,0
-231,-321,0,0,0,0,0,0,0,0,0,-1,993,1345,0,0
-224,-321,0,0,0,0,0,0,0,0,0,-1,1000,1345,0,0
-217,-321,0,0,0,0,0,0,0,0,0,-1,1007,1345,0,0
-210,-321,0,0,0,0,0,0,0,0,0,-1,1014,1345,0,0
-203,-321,0,0,0,0,0,0,0,0,0,-1,1021,1345,0,0
-196,-321,0,0,0,0,0,0,0,0,0,-1,1028,1345,0,0
-189,-321,0,0,0,0,0,0,0,0,0,-1,1035,1345,0,0
-182,-321,0,0,0,0,0,0,0,0,0,-1,1042,1345,0,0
-175,-321,0,0,0,0,0,0,0,0,0,-1,1049,1345,0,0
-168,-321,0,0,0,0,0,0,0,0,0,-1,1056,1345,0,0
-161,-321,0,0,0,0,0,0,0,0,0,-1,1063,1345,0,0
-154,-321,0,0,0,0,0,0,0,0,0,-1,1070,1345,0,0
-147,-321,0,0,0,0,0,0,0,0,0,-1,1077,1345,0,0
-140,-321,0,0,0,0,0,0,0,0,0,-1,1084,1345,0,0
-133,-321,0,0,0,0,0,0,0,0,0,-1,1091,1345,0,0
-126,-321,0,0,0,0,0,0,0,0,0,-1,1098,1345,0,0
-119,-321,0,0,0,0,0,0,0,0,0,-1,1105,1345,0,0
-112,-321,0,0,0,0,0,0,0,0,0,-1,1112,1345,0,0
-105,-321,0,0,0,0,0,0,0,0,0,-1,1119,1345,0,0
-98,-321,0,0,0,0,0,0,0,0,0,-1,1126,1345,0,0
-91,-321,0,0,0,0,0,0,0,0,0,-1,1133,1345,0,0
-84,-321,0,0,0,0,0,0,0,0,0,-1,1140,1345,0,0
-77,-321,0,0,0,0,0,0,0,0,0,-1,1147,1345,0,0
-70,-321,0,0,0,0,0,0,0,0,0,-1,1154,1345,0,0
-63,-321,0,0,0,0,0,0,0,0,0,-1,1161,1345,0,0
-56,-321,0,0,0,0,0,0,0,0,0,-1,1168,1345,0,0
-49,-321,0,0,0,0,0,0,0,0,0,-1,1175,1345,0,0
-42,-321,0,0,0,0,0,0,0,0,0,-1,1182,1345,0,0
-35,-321,0,0,0,0,0,0,0,0,0,-1,1189,1345,0,0
-28,-321,0,0,0,0,0,0,0,0,0,-1,1196,1345,0,0
-21,-321,0,0,0,0,0,0,0,0,0,-1,1203,1345,0,0
-14,-321,0,0,0,0,0,0,0,0,0,-1,1210,1345,0,0
-7,-321,0,0,0,0,0,0,0,0,0,-1,1217,1345,0,0
0,-321,0,0,0,0,0,0,0,0,0,-1,1224,1345,0,0
7,-321,0,0,0,0,0,0,0,0,0,-1,1231,1345,0,0
14,-321,0,0,0,0,0,0,0,0,0,-1,1238,1345,0,0
21,-321,0,0,0,0,0,0,0,0,0,-1,1245,1345,0,0
28,-321,0,0,0,0,0,0,0,0,0,-1,1252,1345,0,0
35,-321,0,0,0,0,0,0,0,0,0,-1,1259,1345,0,0
42,-321,0,0,0,0,0,0,0,0,0,-1,1266,1345,0,0
49,-321,0,0,0,0,0,0,0,0,0,-1,1273,1345,0,0
56,-321,0,0,0,0,0,0,0,0,0,-1,1280,1345,0,0
63,-321,0,0,0,0,0,0,0,0,0,-1,1287,1345,0,0
70,-321,0,0,0,0,0,0,0,0,0,-1,1294,1345,0,0
77,-321,0,0,0,0,0,0,0,0,0,-1,1301,1345,0,0
84,-321,0,0,0,0,0,0,0,0,0,-1,1308,1345,0,0
91,-321,0,0,0,0,0,0,0,0,0,-1,1315,1345,0,0
98,-321,0,0,0,0,0,0,0,0,0,-1,1322,1345,0,0
105,-321,0,0,0,0,0,0,0,0,0,-1,1329,1345,0,0
112,-321,0,0,0,0,0,0,0,0,0,-1,1336,1345,0,0
119,-321,0,0,0,0,0,0,0,0,0,-1,1343,1345,0,0
126,-321,0,0,0,0,0,0,0,0,0,-1,1350,1345,0,0
133,-321,0,0,0,0,0,0,0,0,0,-1,1357,1345,0,0
140,-321,0,0,0,0,0,0,0,0,0,-1,1364,1345,0,0
147,-321,0,0,0,0,0,0,0,0,0,-1,1371,1345,0,0
154,-321,0,0,0,0,0,0,0,0,0,-1,1378,1345,0,0
161,-321,0,0,0,0,0,0,0,0,0,-1,1385,1345,0,0
168,-321,0,0,0,0,0,0,0,0,0,-1,1392,1345,0,0
175,-321,0,0,0,0,0,0,0,0,0,-1,1399,1345,0,0
182,-321,0,0,0,0,0,0,0,0,0,-1,1406,1345,0,0
189,-321,0,0,0,0,0,0,0,0,0,-1,1413,1345,0,0
196,-321,0,0,0,0,0,0,0,0,0,-1,1420,1345,0,0
203,-321,0,0,0,0,0,0,0,0,0,-1,1427,1345,0,0
210,-321,0,0,0,0,0,0,0,0,0,-1,1434,1345,0,0
217,-321,0,0,0,0,0,0,0,0,0,-1,1441,1345,0,0
224,-321,0,0,0,0,0,0,0,0,0,-1,1448,1345,0,0
231,-321,0,0,0,0,0,0,0,0,0,-1,1455,1345,0,0
238,-321,0,0,0,0,0,0,0,0,0,-1,1462,1345,0,0
245,-321,0,0,0,0,0,0,0,0,0,-1,1469,1345,0,0
252,-321,0,0,0,0,0,0,0,0,0,-1,1476,1345,0,0
259,-321,0,0,0,0,0,0,0,0,0,-1,1483,1345,0,0
266,-321,0,0,0,0,0,0,0,0,0,-1,1490,1345,0,0
273,-321,0,0,0,0,0,0,0,0,0,-1,1497,1345,0,0
280,-321,0,0,0,0,0,0,0,0,0,-1,1504,1345,0,0
287,-321,0,0,0,0,0,0,0,0,0,-1,1511,1345,0,0
294,-321,0,0,0,0,0,0,0,0,0,-1,1518,1345,0,0
301,-321,0,0,0,0,0,0,0,0,0,-1,1525,1345,0,0
308,-321,0,0,0,0,0,0,0,0,0,-1,1532,1345,0,0
315,-321,0,0,0,0,0,0,0,0,0,-1,1539,1345,0,0
322,-321,0,0,0,0,0,0,0,0,0,-1,1546,1345,0,0
329,-321,0,0,0,0,0,0,0,0,0,-1,1553,1345,0,0
336,-321,0,0,0,0,0,0,0,0,0,-1,1560,1345,0,0
343,-321,0,0,0,0,0,0,0,0,0,-1,1567,1345,0,0
350,-321,0,0,0,0,0,0,0,0,0,-1,1574,1345,0,0
357,-321,0,0,0,0,0,0,0,0,0,-1,1581,1345,0,0
364,-321,0,0,0,0,0,0,0,0,0,-1,1588,1345,0,0
371,-321,0,0,0,0,0,0,0,0,0,-1,1595,1345,0,0
378,-321,0,0,0,0,0,0,0,0,0,-1,1602,1345,0,0
385,-321,0,0,0,0,0,0,0,0,0,-1,1609,1345,0,0
392,-321,0,0,0,0,0,0,0,0,0,-1,1616,1345,0,0
399,-321,0,0,0,0,0,0,0,0,0,-1,1623,1345,0,0
406,-321,0,0,0,0,0,0,0,0,0,-1,1630,1345,0,0
413,-321,0,0,0,0,0,0,0,0,0,-1,1637,1345,0,0
420,-321,0,0,0,0,0,0,0,0,0,-1,1644,1345,0,0
427,-321,0,0,0,0,0,0,0,0,0,-1,1651,1345,0,0
434,-321,0,0,0,0,0,0,0,0,0,-1,1658,1345,0,0
441,-321,0,0,0,0,0,0,0,0,0,-1,1665,1345,0,0
448,-321,0,0,0,0,0,0,0,0,0,-1,1672,1345,0,0
455,-321,0,0,0,0,0,0,0,0,0,-1,1679,1345,0,0
462,-321,0,0,0,0,0,0,0,0,0,-1,1686,1345,0,0
469,-321,0,0,0,0,0,0,0,0,0,-1,1693,1345,0,0
476,-321,0,0,0,0,0,0,0,0,0,-1,1700,1345,0,0
483,-321,0,0,0,0,0,0,0,0,0,-1,1707,1345,0,0
490,-321,0,0,0,0,0,0,0,0,0,-1,1714,1345,0,0
497,-321,0,0,0,0,0,0,0,0,0,-1,1721,1345,0,0
504,-321,0,0,0,0,0,0,0,0,0,-1,1728,1345,0,0
511,-321,0,0,0,0,0,0,0,0,0,-1,1735,1345,0,0
518,-321,0,0,0,0,0,0,0,0,0,-1,1742,1345,0,0
525,-321,0,0,0,0,0,0,0,0,0,-1,1749,1345,0,0
532,-321,0,0,0,0,0,0,0,0,0,-1,1756,1345,0,0
539,-321,0,0,0,0,0,0,0,0,0,-1,1763,1345,0,0
546,-321,0,0,0,0,0,0,0,0,0,-1,1770,1345,0,0
553,-321,0,0,0,0,0,0,0,0,0,-1,1777,1345,0,0
560,-321,0,0,0,0,0,0,0,0,0,-1,1784,1345,0,0
567,-321,0,0,0,0,0,0,0,0,0,-1,1791,1345,0,0
574,-321,0,0,0,0,0,0,0,0,0,-1,1798,1345,0,0
581,-321,49.9773,4.13696,0,0,0,0,0,0,0,-1,1805,1345,49.9772,-4.13692
588,-321,49.5574,3.74097,0,0,0,0,0,0,0,-1,1812,1345,49.5574,-3.74092
595,-321,49.1759,3.42566,0,0,0,0,0,0,0,-1,1819,1345,49.1759,-3.42565
602,-321,48.7419,3.37378,0,0,0,0,0,0,0,-1,1826,1345,48.7419,-3.37383
609,-321,48.311,3.39575,0,0,0,0,0,0,0,-1,1833,1345,48.311,-3.39571
616,-321,37.8107,2.58704,0,0,0,0,0,0,0,-1,1840,1345,37.8106,-2.58705
623,-321,37.6854,3.68933,0,0,0,0,0,0,0,-1,1847,1345,37.6854,-3.68931
630,-321,23.6674,4.34106,0,0,0,0,0,0,0,-1,1854,1345,23.6674,-4.34112
637,-321,21.7925,6.79224,0,0,0,0,0,0,0,-1,1861,1345,21.7925,-6.7922
644,-321,16.8844,6.71973,0,0,0,0,0,0,0,-1,1868,1345,16.8844,-6.71971
651,-321,27.4924,10.0319,0,0,0,0,0,0,0,-1,1875,1345,27.4924,-10.0319
658,-321,32.1575,12.4871,0,0,0,0,0,0,0,-1,1882,1345,32.1575,-12.487
665,-321,32.2002,12.0179,-0.000721387,0.00077908,-0.000786777,0.00111598,-0.00105829,-1.16621,0.00125547,0.0215855,1889,1345,32.2001,-12.0179
672,-321,32.2284,11.5114,-8.0736e-05,-0.000256875,-0.000213879,6.24964e-05,-0.000400107,-0.590092,0.000289825,0.013397,1896,1345,32.2284,-11.5113
679,-321,32.2195,11.0133,0.000350065,-0.000919557,0.000232884,0.000391434,-0.000960926,0.175805,0.000803531,0.0118213,1903,1345,32.2195,-11.0133
686,-321,32.1799,10.5001,0.000717224,-0.000700849,0.000159928,0.000735037,-0.000718662,0.110922,0.000839311,0.0124283,1910,1345,32.18,-10.5001
693,-321,32.1705,10.0076,0.00098359,-0.00044889,9.42818e-05,0.000989769,-0.000455068,0.0654409,0.000853006,0.0131445,1917,1345,32.1705,-10.0075
700,-321,32.1764,9.51477,0.00117051,-0.000189774,6.44585e-05,0.00117356,-0.000192821,0.0472448,0.000853936,0.0133474,1924,1345,32.1764,-9.5148
707,-321,32.1866,9.03113,0.00124666,9.61526e-05,5.93892e-05,0.00124972,9.30951e-05,0.0514377,0.000803913,0.0149279,1931,1345,32.1866,-9.03111
714,-321,32.1661,8.53845,0.00118534,0.000389835,8.65959e-05,0.00119465,0.000380517,0.107184,0.000704716,0.0141937,1938,1345,32.1661,-8.53841
721,-321,32.0908,8.0321,0.000905085,0.000572705,0.000320346,0.00109978,0.000378007,0.546118,0.000645218,0.0415942,1945,1345,32.0908,-8.03215
728,-321,32.0844,7.57715,0,0,0,0,0,0,0,-1,1952,1345,32.0843,-7.57713
735,-321,22.0081,5.65479,0,0,0,0,0,0,0,-1,1959,1345,22.008,-5.65481
742,-321,24.5398,5.05725,0,0,0,0,0,0,0,-1,1966,1345,24.5398,-5.05729
749,-321,24.0675,5.4458,0,0,0,0,0,0,0,-1,1973,1345,24.0675,-5.44581
756,-321,19.6251,4.98315,0,0,0,0,0,0,0,-1,1980,1345,19.6251,-4.98311
763,-321,19.6747,4.61438,0,0,0,0,0,0,0,-1,1987,1345,19.6747,-4.61436
770,-321,0,0,0,0,0,0,0,0,0,-1,1994,1345,0,0
777,-321,0,0,0,0,0,0,0,0,0,-1,2001,1345,0,0
784,-321,0,0,0,0,0,0,0,0,0,-1,2008,1345,0,0
791,-321,0,0,0,0,0,0,0,0,0,-1,2015,1345,0,0
798,-321,0,0,0,0,0,0,0,0,0,-1,2022,1345,0,0
805,-321,0,0,0,0,0,0,0,0,0,-1,2029,1345,0,0
812,-321,0,0,0,0,0,0,0,0,0,-1,2036,1345,0,0
-700,-328,0,0,0,0,0,0,0,0,0,-1,524,1352,0,0
-693,-328,0,0,0,0,0,0,0,0,0,-1,531,1352,0,0
-686,-328,0,0,0,0,0,0,0,0,0,-1,538,1352,0,0
-679,-328,0,0,0,0,0,0,0,0,0,-1,545,1352,0,0
-672,-328,0,0,0,0,0,0,0,0,0,-1,552,1352,0,0
-665,-328,0,0,0,0,0,0,0,0,0,-1,559,1352,0,0
-658,-328,0,0,0,0,0,0,0,0,0,-1,566,1352,0,0
-651,-328,0,0,0,0,0,0,0,0,0,-1,573,1352,0,0
-644,-328,0,0,0,0,0,0,0,0,0,-1,580,1352,0,0
-637,-328,-12.0695,1.02014,0,0,0,0,0,0,0,-1,587,1352,-12.0694,-1.02017
-630,-328,-13.3971,4.54578,0,0,0,0,0,0,0,-1,594,1352,-13.3971,-4.54572
-623,-328,-10.7739,4.55042,0,0,0,0,0,0,0,-1,601,1352,-10.7739,-4.55041
-616,-328,-8.22198,-0.25708,0,0,0,0,0,0,0,-1,608,1352,-8.22201,0.257067
-609,-328,-7.87439,0.192871,0,0,0,0,0,0,0,-1,615,1352,-7.87441,-0.192822
-602,-328,-7.63062,1.31665,0,0,0,0,0,0,0,-1,622,1352,-7.63064,-1.3166
-595,-328,-9.42639,2.93494,0,0,0,0,0,0,0,-1,629,1352,-9.42638,-2.93499
-588,-328,-17.7532,5.276,0,0,0,0,0,0,0,-1,636,1352,-17.7532,-5.27594
-581,-328,-17.5319,6.25781,0.0052212,0.00292938,0.00224757,0.00659813,0.00155245,0.549652,0.00398342,0.0253587,643,1352,-17.5319,-6.25777
-574,-328,-17.5075,6.82263,0.00400775,0.00211135,0.00166813,0.00497834,0.00114076,0.52696,0.00301154,0.0161411,650,1352,-17.5075,-6.82267
-567,-328,-17.5329,7.36218,0.00322862,0.00149781,0.00129895,0.00392405,0.000802384,0.491546,0.00239382,0.0224115,657,1352,-17.5329,-7.36222
-560,-328,-17.4754,7.97229,0.00281995,0.00096323,0.00108705,0.0033211,0.000462072,0.431987,0.00207725,0.0292608,664,1352,-17.4754,-7.9723
-553,-328,-17.5149,8.54419,0.0026892,0.00047668,0.000972636,0.00305598,0.000109905,0.360604,0.00200169,0.0303662,671,1352,-17.5149,-8.54419
-546,-328,-17.5948,9.04688,0.00291116,4.93335e-05,0.000983036,0.0032163,-0.000255804,0.300974,0.00223435,0.0292077,678,1352,-17.5948,-9.04691
-539,-328,-17.6264,9.55029,0.00343576,-0.00033531,0.00109255,0.00372942,-0.000628975,0.262582,0.00272029,0.0231881,685,1352,-17.6264,-9.55032
-532,-328,-17.6048,10.0909,0.0044205,-0.000659215,0.00135669,0.00476014,-0.00099885,0.2453,0.00355348,0.018076,692,1352,-17.6048,-10.0909
-525,-328,-17.5839,10.6786,0.0058072,-0.00114538,0.00164431,0.00617647,-0.00151466,0.22091,0.00470452,0.0304332,699,1352,-17.5839,-10.6786
-518,-328,-17.6591,11.2786,0,0,0,0,0,0,0,-1,706,1352,-17.659,-11.2785
-511,-328,-9.39868,7.16113,0,0,0,0,0,0,0,-1,713,1352,-9.39869,-7.16113
-504,-328,-8.60626,-0.905762,0,0,0,0,0,0,0,-1,720,1352,-8.60623,0.905787
-497,-328,-9.29102,-0.0517578,0,0,0,0,0,0,0,-1,727,1352,-9.29104,0.0518175
-490,-328,-10.0663,0.882813,0,0,0,0,0,0,0,-1,734,1352,-10.0663,-0.882795
-483,-328,-10.8181,1.72375,0,0,0,0,0,0,0,-1,741,1352,-10.8181,-1.72374
-476,-328,-16.8951,-0.150757,0,0,0,0,0,0,0,-1,748,1352,-16.8951,0.150795
-469,-328,-16.8412,0.00158691,0,0,0,0,0,0,0,-1,755,1352,-16.8412,-0.00161515
-462,-328,-16.3546,-0.203491,0,0,0,0,0,0,0,-1,762,1352,-16.3545,0.203532
-455,-328,0,0,0,0,0,0,0,0,0,-1,769,1352,0,0
-448,-328,0,0,0,0,0,0,0,0,0,-1,776,1352,0,0
-441,-328,0,0,0,0,0,0,0,0,0,-1,783,1352,0,0
-434,-328,0,0,0,0,0,0,0,0,0,-1,790,1352,0,0
-427,-328,0,0,0,0,0,0,0,0,0,-1,797,1352,0,0
-420,-328,0,0,0,0,0,0,0,0,0,-1,804,1352,0,0
-413,-328,0,0,0,0,0,0,0,0,0,-1,811,1352,0,0
-406,-328,0,0,0,0,0,0,0,0,0,-1,818,1352,0,0
-399,-328,0,0,0,0,0,0,0,0,0,-1,825,1352,0,0
-392,-328,0,0,0,0,0,0,0,0,0,-1,832,1352,0,0
-385,-328,0,0,0,0,0,0,0,0,0,-1,839,1352,0,0
-378,-328,0,0,0,0,0,0,0,0,0,-1,846,1352,0,0
-371,-328,0,0,0,0,0,0,0,0,0,-1,853,1352,0,0
-364,-328,0,0,0,0,0,0,0,0,0,-1,860,1352,0,0
-357,-328,0,0,0,0,0,0,0,0,0,-1,867,1352,0,0
-350,-328,0,0,0,0,0,0,0,0,0,-1,874,1352,0,0
-343,-328,0,0,0,0,0,0,0,0,0,-1,881,1352,0,0
-336,-328,0,0,0,0,0,0,0,0,0,-1,888,1352,0,0
-329,-328,0,0,0,0,0,0,0,0,0,-1,895,1352,0,0
-322,-328,0,0,0,0,0,0,0,0,0,-1,902,1352,0,0
-315,-328,0,0,0,0,0,0,0,0,0,-1,909,1352,0,0
-308,-328,0,0,0,0,0,0,0,0,0,-1,916,1352,0,0
-301,-328,0,0,0,0,0,0,0,0,0,-1,923,1352,0,0
-294,-328,0,0,0,0,0,0,0,0,0,-1,930,1352,0,0
-287,-328,0,0,0,0,0,0,0,0,0,-1,937,1352,0,0
-280,-328,0,0,0,0,0,0,0,0,0,-1,944,1352,0,0
-273,-328,0,0,0,0,0,0,0,0,0,-1,951,1352,0,0
-266,-328,0,0,0,0,0,0,0,0,0,-1,958,1352,0,0
-259,-328,0,0,0,0,0,0,0,0,0,-1,965,1352,0,0
-252,-328,0,0,0,0,0,0,0,0,0,-1,972,1352,0,0
-245,-328,0,0,0,0,0,0,0,0,0,-1,979,1352,0,0
-238,-328,0,0,0,0,0,0,0,0,0,-1,986,1352,0,0
-231,-328,0,0,0,0,0,0,0,0,0,-1,993,1352,0,0
-224,-328,0,0,0,0,0,0,0,0,0,-1,1000,1352,0,0
-217,-328,0,0,0,0,0,0,0,0,0,-1,1007,1352,0,0
-210,-328,0,0,0,0,0,0,0,0,0,-1,1014,1352,0,0
-203,-328,0,0,0,0,0,0,0,0,0,-1,1021,1352,0,0
-196,-328,0,0,0,0,0,0,0,0,0,-1,1028,1352,0,0
-189,-328,0,0,0,0,0,0,0,0,0,-1,1035,1352,0,0
-182,-328,0,0,0,0,0,0,0,0,0,-1,1042,1352,0,0
-175,-328,0,0,0,0,0,0,0,0,0,-1,1049,1352,0,0
-168,-328,0,0,0,0,0,0,0,0,0,-1,1056,1352,0,0
-161,-328,0,0,0,0,0,0,0,0,0,-1,1063,1352,0,0
-154,-328,0,0,0,0,0,0,0,0,0,-1,1070,1352,0,0
-147,-328,0,0,0,0,0,0,0,0,0,-1,1077,1352,0,0
-140,-328,0,0,0,0,0,0,0,0,0,-1,1084,1352,0,0
-133,-328,0,0,0,0,0,0,0,0,0,-1,1091,1352,0,0
-126,-328,0,0,0,0,0,0,0,0,0,-1,1098,1352,0,0
-119,-328,0,0,0,0,0,0,0,0,0,-1,1105,1352,0,0
-112,-328,0,0,0,0,0,0,0,0,0,-1,1112,1352,0,0
-105,-328,0,0,0,0,0,0,0,0,0,-1,1119,1352,0,0
-98,-328,0,0,0,0,0,0,0,0,0,-1,1126,1352,0,0
-91,-328,0,0,0,0,0,0,0,0,0,-1,1133,1352,0,0
-84,-328,0,0,0,0,0,0,0,0,0,-1,1140,1352,0,0
-77,-328,0,0,0,0,0,0,0,0,0,-1,1147,1352,0,0
-70,-328,0,0,0,0,0,0,0,0,0,-1,1154,1352,0,0
-63,-328,0,0,0,0,0,0,0,0,0,-1,1161,1352,0,0
-56,-328,0,0,0,0,0,0,0,0,0,-1,1168,1352,0,0
-49,-328,0,0,0,0,0,0,0,0,0,-1,1175,1352,0,0
-42,-328,0,0,0,0,0,0,0,0,0,-1,1182,1352,0,0
-35,-328,0,0,0,0,0,0,0,0,0,-1,1189,1352,0,0
-28,-328,0,0,0,0,0,0,0,0,0,-1,1196,1352,0,0
-21,-328,0,0,0,0,0,0,0,0,0,-1,1203,1352,0,0
-14,-328,0,0,0,0,0,0,0,0,0,-1,1210,1352,0,0
-7,-328,0,0,0,0,0,0,0,0,0,-1,1217,1352,0,0
0,-328,0,0,0,0,0,0,0,0,0,-1,1224,1352,0,0
7,-328,0,0,0,0,0,0,0,0,0,-1,1231,1352,0,0
14,-328,0,0,0,0,0,0,0,0,0,-1,1238,1352,0,0
21,-328,0,0,0,0,0,0,0,0,0,-1,1245,1352,0,0
28,-328,0,0,0,0,0,0,0,0,0,-1,1252,1352,0,0
35,-328,0,0,0,0,0,0,0,0,0,-1,1259,1352,0,0
42,-328,0,0,0,0,0,0,0,0,0,-1,1266,1352,0,0
49,-328,0,0,0,0,0,0,0,0,0,-1,1273,1352,0,0
56,-328,0,0,0,0,0,0,0,0,0,-1,1280,1352,0,0
63,-328,0,0,0,0,0,0,0,0,0,-1,1287,1352,0,0
70,-328,0,0,0,0,0,0,0,0,0,-1,1294,1352,0,0
77,-328,0,0,0,0,0,0,0,0,0,-1,1301,1352,0,0
84,-328,0,0,0,0,0,0,0,0,0,-1,1308,1352,0,0
91,-328,0,0,0,0,0,0,0,0,0,-1,1315,1352,0,0
98,-328,0,0,0,0,0,0,0,0,0,-1,1322,1352,0,0
105,-328,0,0,0,0,0,0,0,0,0,-1,1329,1352,0,0
112,-328,0,0,0,0,0,0,0,0,0,-1,1336,1352,0,0
119,-328,0,0,0,0,0,0,0,0,0,-1,1343,1352,0,0
126,-328,0,0,0,0,0,0,0,0,0,-1,1350,1352,0,0
133,-328,0,0,0,0,0,0,0,0,0,-1,1357,1352,0,0
140,-328,0,0,0,0,0,0,0,0,0,-1,1364,1352,0,0
147,-328,0,0,0,0,0,0,0,0,0,-1,1371,1352,0,0
154,-328,0,0,0,0,0,0,0,0,0,-1,1378,1352,0,0
161,-328,0,0,0,0,0,0,0,0,0,-1,1385,1352,0,0
168,-328,0,0,0,0,0,0,0,0,0,-1,1392,1352,0,0
175,-328,0,0,0,0,0,0,0,0,0,-1,1399,1352,0,0
182,-328,0,0,0,0,0,0,0,0,0,-1,1406,1352,0,0
189,-328,0,0,0,0,0,0,0,0,0,-1,1413,1352,0,0
196,-328,0,0,0,0,0,0,0,0,0,-1,1420,1352,0,0
203,-328,0,0,0,0,0,0,0,0,0,-1,1427,1352,0,0
210,-328,0,0,0,0,0,0,0,0,0,-1,1434,1352,0,0
217,-328,0,0,0,0,0,0,0,0,0,-1,1441,1352,0,0
224,-328,0,0,0,0,0,0,0,0,0,-1,1448,1352,0,0
231,-328,0,0,0,0,0,0,0,0,0,-1,1455,1352,0,0
238,-328,0,0,0,0,0,0,0,0,0,-1,1462,1352,0,0
245,-328,0,0,0,0,0,0,0,0,0,-1,1469,1352,0,0
252,-328,0,0,0,0,0,0,0,0,0,-1,1476,1352,0,0
259,-328,0,0,0,0,0,0,0,0,0,-1,1483,1352,0,0
266,-328,0,0,0,0,0,0,0,0,0,-1,1490,1352,0,0
273,-328,0,0,0,0,0,0,0,0,0,-1,1497,1352,0,0
280,-328,0,0,0,0,0,0,0,0,0,-1,1504,1352,0,0
287,-328,0,0,0,0,0,0,0,0,0,-1,1511,1352,0,0
294,-328,0,0,0,0,0,0,0,0,0,-1,1518,1352,0,0
301,-328,0,0,0,0,0,0,0,0,0,-1,1525,1352,0,0
308,-328,0,0,0,0,0,0,0,0,0,-1,1532,1352,0,0
315,-328,0,0,0,0,0,0,0,0,0,-1,1539,1352,0,0
322,-328,0,0,0,0,0,0,0,0,0,-1,1546,1352,0,0
329,-328,0,0,0,0,0,0,0,0,0,-1,1553,1352,0,0
336,-328,0,0,0,0,0,0,0,0,0,-1,1560,1352,0,0
343,-328,0,0,0,0,0,0,0,0,0,-1,1567,1352,0,0
350,-328,0,0,0,0,0,0,0,0,0,-1,1574,1352,0,0
357,-328,0,0,0,0,0,0,0,0,0,-1,1581,1352,0,0
364,-328,0,0,0,0,0,0,0,0,0,-1,1588,1352,0,0
371,-328,0,0,0,0,0,0,0,0,0,-1,1595,1352,0,0
378,-328,0,0,0,0,0,0,0,0,0,-1,1602,1352,0,0
385,-328,0,0,0,0,0,0,0,0,0,-1,1609,1352,0,0
392,-328,0,0,0,0,0,0,0,0,0,-1,1616,1352,0,0
399,-328,0,0,0,0,0,0,0,0,0,-1,1623,1352,0,0
406,-328,0,0,0,0,0,0,0,0,0,-1,1630,1352,0,0
413,-328,0,0,0,0,0,0,0,0,0,-1,1637,1352,0,0
420,-328,0,0,0,0,0,0,0,0,0,-1,1644,1352,0,0
427,-328,0,0,0,0,0,0,0,0,0,-1,1651,1352,0,0
434,-328,0,0,0,0,0,0,0,0,0,-1,1658,1352,0,0
441,-328,0,0,0,0,0,0,0,0,0,-1,1665,1352,0,0
448,-328,0,0,0,0,0,0,0,0,0,-1,1672,1352,0,0
455,-328,0,0,0,0,0,0,0,0,0,-1,1679,1352,0,0
462,-328,0,0,0,0,0,0,0,0,0,-1,1686,1352,0,0
469,-328,0,0,0,0,0,0,0,0,0,-1,1693,1352,0,0
476,-328,0,0,0,0,0,0,0,0,0,-1,1700,1352,0,0
483,-328,0,0,0,0,0,0,0,0,0,-1,1707,1352,0,0
490,-328,0,0,0,0,0,0,0,0,0,-1,1714,1352,0,0
497,-328,0,0,0,0,0,0,0,0,0,-1,1721,1352,0,0
504,-328,0,0,0,0,0,0,0,0,0,-1,1728,1352,0,0
511,-328,0,0,0,0,0,0,0,0,0,-1,1735,1352,0,0
518,-328,0,0,0,0,0,0,0,0,0,-1,1742,1352,0,0
525,-328,0,0,0,0,0,0,0,0,0,-1,1749,1352,0,0
532,-328,0,0,0,0,0,0,0,0,0,-1,1756,1352,0,0
539,-328,0,0,0,0,0,0,0,0,0,-1,1763,1352,0,0
546,-328,0,0,0,0,0,0,0,0,0,-1,1770,1352,0,0
553,-328,0,0,0,0,0,0,0,0,0,-1,1777,1352,0,0
560,-328,0,0,0,0,0,0,0,0,0,-1,1784,1352,0,0
567,-328,0,0,0,0,0,0,0,0,0,-1,1791,1352,0,0
574,-328,44.8926,5.11475,0,0,0,0,0,0,0,-1,1798,1352,44.8926,-5.11469
581,-328,50.5533,4.3905,0,0,0,0,0,0,0,-1,1805,1352,50.5533,-4.39048
588,-328,50.1937,4.06274,0,0,0,0,0,0,0,-1,1812,1352,50.1937,-4.06278
595,-328,49.592,3.59802,0,0,0,0,0,0,0,-1,1819,1352,49.5921,-3.59798
602,-328,48.7734,3.66785,0,0,0,0,0,0,0,-1,1826,1352,48.7734,-3.66782
609,-328,37.0468,1.17407,0,0,0,0,0,0,0,-1,1833,1352,37.0468,-1.17407
616,-328,36.999,2.42859,0,0,0,0,0,0,0,-1,1840,1352,36.999,-2.42862
623,-328,34.345,5.14722,0,0,0,0,0,0,0,-1,1847,1352,34.3449,-5.14718
630,-328,22.0211,5.026,0,0,0,0,0,0,0,-1,1854,1352,22.0212,-5.02603
637,-328,21.15,5.53699,0,0,0,0,0,0,0,-1,1861,1352,21.15,-5.53704
644,-328,16.9579,6.3396,0,0,0,0,0,0,0,-1,1868,1352,16.9579,-6.33959
651,-328,31.9573,13.0029,0,0,0,0,0,0,0,-1,1875,1352,31.9573,-13.003
658,-328,31.7554,12.5311,-0.000463944,0.000850907,-0.000965247,0.00136135,-0.000974384,-1.08436,0.00135469,0.0436535,1882,1352,31.7553,-12.5311
665,-328,31.751,12.0132,-0.000134774,-6.29551e-05,-0.000376675,0.000279518,-0.000477247,-0.832921,0.000441862,0.0140141,1889,1352,31.751,-12.0131
672,-328,31.7231,11.5302,0.000292008,-0.000439727,-0.000148994,0.000321183,-0.000468902,-0.193364,0.000458806,0.0119507,1896,1352,31.7231,-11.5301
679,-328,31.7279,11.0182,0.000653237,-0.000638788,2.44975e-05,0.000653701,-0.000639252,0.0189515,0.000746502,0.0141785,1903,1352,31.7279,-11.0182
686,-328,31.7032,10.5106,0.0010658,-0.000454215,-2.7509e-05,0.0010663,-0.000454713,-0.01809,0.000901507,0.0143165,1910,1352,31.7033,-10.5106
693,-328,31.6887,10.0319,0.0014019,-0.000224917,-9.78449e-05,0.00140776,-0.000230781,-0.0598575,0.00102414,0.00994711,1917,1352,31.6887,-10.0318
700,-328,31.6902,9.5459,0.00168492,3.2499e-05,-0.000161202,0.0017005,1.69198e-05,-0.0963445,0.00112807,0.0139218,1924,1352,31.6902,-9.54596
707,-328,31.6958,9.05908,0.00185069,0.000348379,-0.000230265,0.00188519,0.000313878,-0.148726,0.00116633,0.0162591,1931,1352,31.6958,-9.05911
714,-328,31.6794,8.56592,0.00188889,0.000681457,-0.000274097,0.0019482,0.000622148,-0.213094,0.001149,0.017326,1938,1352,31.6794,-8.56588
721,-328,31.7216,8.0127,0,0,0,0,0,0,0,-1,1945,1352,31.7216,-8.01264
728,-328,29.2787,6.74695,0,0,0,0,0,0,0,-1,1952,1352,29.2787,-6.74693
735,-328,20.8927,5.23523,0,0,0,0,0,0,0,-1,1959,1352,20.8927,-5.23528
742,-328,20.3547,4.11316,0,0,0,0,0,0,0,-1,1966,1352,20.3547,-4.11321
749,-328,20.0669,5.66321,0,0,0,0,0,0,0,-1,1973,1352,20.0669,-5.66319
756,-328,19.9543,5.50464,0,0,0,0,0,0,0,-1,1980,1352,19.9543,-5.50463
763,-328,0,0,0,0,0,0,0,0,0,-1,1987,1352,0,0
770,-328,0,0,0,0,0,0,0,0,0,-1,1994,1352,0,0
777,-328,0,0,0,0,0,0,0,0,0,-1,2001,1352,0,0
784,-328,0,0,0,0,0,0,0,0,0,-1,2008,1352,0,0
791,-328,0,0,0,0,0,0,0,0,0,-1,2015,1352,0,0
798,-328,0,0,0,0,0,0,0,0,0,-1,2022,1352,0,0
805,-328,0,0,0,0,0,0,0,0,0,-1,2029,1352,0,0
812,-328,0,0,0,0,0,0,0,0,0,-1,2036,1352,0,0
-700,-335,0,0,0,0,0,0,0,0,0,-1,524,1359,0,0
-693,-335,0,0,0,0,0,0,0,0,0,-1,531,1359,0,0
-686,-335,0,0,0,0,0,0,0,0,0,-1,538,1359,0,0
-679,-335,0,0,0,0,0,0,0,0,0,-1,545,1359,0,0
-672,-335,0,0,0,0,0,0,0,0,0,-1,552,1359,0,0
-665,-335,0,0,0,0,0,0,0,0,0,-1,559,1359,0,0
-658,-335,0,0,0,0,0,0,0,0,0,-1,566,1359,0,0
-651,-335,0,0,0,0,0,0,0,0,0,-1,573,1359,0,0
-644,-335,0,0,0,0,0,0,0,0,0,-1,580,1359,0,0
-637,-335,-9.64746,3.53809,0,0,0,0,0,0,0,-1,587,1359,-9.64744,-3.53803
-630,-335,-6.07397,-2.99902,0,0,0,0,0,0,0,-1,594,1359,-6.07397,2.99902
-623,-335,-8.43304,1.09509,0,0,0,0,0,0,0,-1,601,1359,-8.43301,-1.09507
-616,-335,-7.80927,-0.485352,0,0,0,0,0,0,0,-1,608,1359,-7.80926,0.485291
-609,-335,-7.12256,-2.03601,0,0,0,0,0,0,0,-1,615,1359,-7.12253,2.03601
-602,-335,-9.39935,2.25146,0,0,0,0,0,0,0,-1,622,1359,-9.39935,-2.25145
-595,-335,-9.54767,3.01917,0,0,0,0,0,0,0,-1,629,1359,-9.54768,-3.01911
-588,-335,-17.1499,5.51318,0,0,0,0,0,0,0,-1,636,1359,-17.1499,-5.51315
-581,-335,-16.9766,6.3562,0.00537667,0.00265474,0.00206431,0.00648827,0.00154314,0.493961,0.00391389,0.0416415,643,1359,-16.9766,-6.3562
-574,-335,-16.9827,6.83691,0.00409163,0.00194739,0.00159326,0.00493991,0.00109911,0.489243,0.0029949,0.0139717,650,1359,-16.9827,-6.83687
-567,-335,-16.9788,7.40442,0.00324939,0.0014514,0.00128952,0.00392236,0.000778432,0.480992,0.00239792,0.0176926,657,1359,-16.9788,-7.4044
-560,-335,-16.9347,7.93335,0.00280341,0.000993798,0.00111481,0.00333439,0.000462817,0.444506,0.00208584,0.0255596,664,1359,-16.9347,-7.93331
-553,-335,-16.9651,8.52319,0.00264283,0.000592845,0.00103363,0.00307351,0.000162157,0.394798,0.00199715,0.0285825,671,1359,-16.9652,-8.52314
-546,-335,-17.0352,9.08838,0.00278523,0.000224404,0.00103557,0.0031516,-0.000141959,0.340036,0.00214995,0.0266881,678,1359,-17.0352,-9.08835
-539,-335,-17.0729,9.56934,0.00318566,-9.80675e-05,0.00112118,0.00353195,-0.000444358,0.299568,0.00251587,0.0214423,685,1359,-17.0729,-9.56932
-532,-335,-17.0891,10.1296,0.00396003,-0.000369124,0.00133317,0.00433764,-0.000746736,0.276015,0.00317013,0.016212,692,1359,-17.0891,-10.1296
-525,-335,-17.0358,10.6896,0.00508145,-0.000718229,0.00159634,0.0054918,-0.00112858,0.251611,0.00408964,0.0123432,699,1359,-17.0358,-10.6895
-518,-335,-16.9858,11.1718,0.00659794,-0.000909777,0.0019136,0.00705754,-0.00136939,0.235716,0.00522169,0.0484137,706,1359,-16.9858,-11.1718
-511,-335,-16.9028,11.6088,0,0,0,0,0,0,0,-1,713,1359,-16.9028,-11.6088
-504,-335,-9.35767,5.99695,0,0,0,0,0,0,0,-1,720,1359,-9.35767,-5.99694
-497,-335,-8.75024,-0.650513,0,0,0,0,0,0,0,-1,727,1359,-8.75024,0.650521
-490,-335,-9.51971,0.417603,0,0,0,0,0,0,0,-1,734,1359,-9.51974,-0.41765
-483,-335,-10.2883,1.29224,0,0,0,0,0,0,0,-1,741,1359,-10.2883,-1.2922
-476,-335,-11.9938,-0.173462,0,0,0,0,0,0,0,-1,748,1359,-11.9938,0.173429
-469,-335,-12.8704,-0.204102,0,0,0,0,0,0,0,-1,755,1359,-12.8704,0.204117
-462,-335,-13.486,0.0218506,0,0,0,0,0,0,0,-1,762,1359,-13.4859,-0.0217908
-455,-335,-14.1504,0.549561,0,0,0,0,0,0,0,-1,769,1359,-14.1504,-0.549583
-448,-335,0,0,0,0,0,0,0,0,0,-1,776,1359,0,0
-441,-335,0,0,0,0,0,0,0,0,0,-1,783,1359,0,0
-434,-335,0,0,0,0,0,0,0,0,0,-1,790,1359,0,0
-427,-335,0,0,0,0,0,0,0,0,0,-1,797,1359,0,0
-420,-335,0,0,0,0,0,0,0,0,0,-1,804,1359,0,0
-413,-335,0,0,0,0,0,0,0,0,0,-1,811,1359,0,0
-406,-335,0,0,0,0,0,0,0,0,0,-1,818,1359,0,0
-399,-335,0,0,0,0,0,0,0,0,0,-1,825,1359,0,0
-392,-335,0,0,0,0,0,0,0,0,0,-1,832,1359,0,0
-385,-335,0,0,0,0,0,0,0,0,0,-1,839,1359,0,0
-378,-335,0,0,0,0,0,0,0,0,0,-1,846,1359,0,0
-371,-335,0,0,0,0,0,0,0,0,0,-1,853,1359,0,0
-364,-335,0,0,0,0,0,0,0,0,0,-1,860,1359,0,0
-357,-335,0,0,0,0,0,0,0,0,0,-1,867,1359,0,0
-350,-335,0,0,0,0,0,0,0,0,0,-1,874,1359,0,0
-343,-335,0,0,0,0,0,0,0,0,0,-1,881,1359,0,0
-336,-335,0,0,0,0,0,0,0,0,0,-1,888,1359,0,0
-329,-335,0,0,0,0,0,0,0,0,0,-1,895,1359,0,0
-322,-335,0,0,0,0,0,0,0,0,0,-1,902,1359,0,0
-315,-335,0,0,0,0,0,0,0,0,0,-1,909,1359,0,0
-308,-335,0,0,0,0,0,0,0,0,0,-1,916,1359,0,0
-301,-335,0,0,0,0,0,0,0,0,0,-1,923,1359,0,0
-294,-335,0,0,0,0,0,0,0,0,0,-1,930,1359,0,0
-287,-335,0,0,0,0,0,0,0,0,0,-1,937,1359,0,0
-280,-335,0,0,0,0,0,0,0,0,0,-1,944,1359,0,0
-273,-335,0,0,0,0,0,0,0,0,0,-1,951,1359,0,0
-266,-335,0,0,0,0,0,0,0,0,0,-1,958,1359,0,0
-259,-335,0,0,0,0,0,0,0,0,0,-1,965,1359,0,0
-252,-335,0,0,0,0,0,0,0,0,0,-1,972,1359,0,0
-245,-335,0,0,0,0,0,0,0,0,0,-1,979,1359,0,0
-238,-335,0,0,0,0,0,0,0,0,0,-1,986,1359,0,0
-231,-335,0,0,0,0,0,0,0,0,0,-1,993,1359,0,0
-224,-335,0,0,0,0,0,0,0,0,0,-1,1000,1359,0,0
-217,-335,0,0,0,0,0,0,0,0,0,-1,1007,1359,0,0
-210,-335,0,0,0,0,0,0,0,0,0,-1,1014,1359,0,0
-203,-335,0,0,0,0,0,0,0,0,0,-1,1021,1359,0,0
-196,-335,0,0,0,0,0,0,0,0,0,-1,1028,1359,0,0
-189,-335,0,0,0,0,0,0,0,0,0,-1,1035,1359,0,0
-182,-335,0,0,0,0,0,0,0,0,0,-1,1042,1359,0,0
-175,-335,0,0,0,0,0,0,0,0,0,-1,1049,1359,0,0
-168,-335,0,0,0,0,0,0,0,0,0,-1,1056,1359,0,0
-161,-335,0,0,0,0,0,0,0,0,0,-1,1063,1359,0,0
-154,-335,0,0,0,0,0,0,0,0,0,-1,1070,1359,0,0
-147,-335,0,0,0,0,0,0,0,0,0,-1,1077,1359,0,0
-140,-335,0,0,0,0,0,0,0,0,0,-1,1084,1359,0,0
-133,-335,0,0,0,0,0,0,0,0,0,-1,1091,1359,0,0
-126,-335,0,0,0,0,0,0,0,0,0,-1,1098,1359,0,0
-119,-335,0,0,0,0,0,0,0,0,0,-1,1105,1359,0,0
-112,-335,0,0,0,0,0,0,0,0,0,-1,1112,1359,0,0
-105,-335,0,0,0,0,0,0,0,0,0,-1,1119,1359,0,0
-98,-335,0,0,0,0,0,0,0,0,0,-1,1126,1359,0,0
-91,-335,0,0,0,0,0,0,0,0,0,-1,1133,1359,0,0
-84,-335,0,0,0,0,0,0,0,0,0,-1,1140,1359,0,0
-77,-335,0,0,0,0,0,0,0,0,0,-1,1147,1359,0,0
-70,-335,0,0,0,0,0,0,0,0,0,-1,1154,1359,0,0
-63,-335,0,0,0,0,0,0,0,0,0,-1,1161,1359,0,0
-56,-335,0,0,0,0,0,0,0,0,0,-1,1168,1359,0,0
-49,-335,0,0,0,0,0,0,0,0,0,-1,1175,1359,0,0
-42,-335,0,0,0,0,0,0,0,0,0,-1,1182,1359,0,0
-35,-335,0,0,0,0,0,0,0,0,0,-1,1189,1359,0,0
-28,-335,0,0,0,0,0,0,0,0,0,-1,1196,1359,0,0
-21,-335,0,0,0,0,0,0,0,0,0,-1,1203,1359,0,0
-14,-335,0,0,0,0,0,0,0,0,0,-1,1210,1359,0,0
-7,-335,0,0,0,0,0,0,0,0,0,-1,1217,1359,0,0
0,-335,0,0,0,0,0,0,0,0,0,-1,1224,1359,0,0
7,-335,0,0,0,0,0,0,0,0,0,-1,1231,1359,0,0
14,-335,0,0,0,0,0,0,0,0,0,-1,1238,1359,0,0
21,-335,0,0,0,0,0,0,0,0,0,-1,1245,1359,0,0
28,-335,0,0,0,0,0,0,0,0,0,-1,1252,1359,0,0
35,-335,0,0,0,0,0,0,0,0,0,-1,1259,1359,0,0
42,-335,0,0,0,0,0,0,0,0,0,-1,1266,1359,0,0
49,-335,0,0,0,0,0,0,0,0,0,-1,1273,1359,0,0
56,-335,0,0,0,0,0,0,0,0,0,-1,1280,1359,0,0
63,-335,0,0,0,0,0,0,0,0,0,-1,1287,1359,0,0
70,-335,0,0,0,0,0,0,0,0,0,-1,1294,1359,0,0
77,-335,0,0,0,0,0,0,0,0,0,-1,1301,1359,0,0
84,-335,0,0,0,0,0,0,0,0,0,-1,1308,1359,0,0
91,-335,0,0,0,0,0,0,0,0,0,-1,1315,1359,0,0
98,-335,0,0,0,0,0,0,0,0,0,-1,1322,1359,0,0
105,-335,0,0,0,0,0,0,0,0,0,-1,1329,1359,0,0
112,-335,0,0,0,0,0,0,0,0,0,-1,1336,1359,0,0
119,-335,0,0,0,0,0,0,0,0,0,-1,1343,1359,0,0
126,-335,0,0,0,0,0,0,0,0,0,-1,1350,1359,0,0
133,-335,0,0,0,0,0,0,0,0,0,-1,1357,1359,0,0
140,-335,0,0,0,0,0,0,0,0,0,-1,1364,1359,0,0
147,-335,0,0,0,0,0,0,0,0,0,-1,1371,1359,0,0
154,-335,0,0,0,0,0,0,0,0,0,-1,1378,1359,0,0
161,-335,0,0,0,0,0,0,0,0,0,-1,1385,1359,0,0
168,-335,0,0,0,0,0,0,0,0,0,-1,1392,1359,0,0
175,-335,0,0,0,0,0,0,0,0,0,-1,1399,1359,0,0
182,-335,0,0,0,0,0,0,0,0,0,-1,1406,1359,0,0
189,-335,0,0,0,0,0,0,0,0,0,-1,1413,1359,0,0
196,-335,0,0,0,0,0,0,0,0,0,-1,1420,1359,0,0
203,-335,0,0,0,0,0,0,0,0,0,-1,1427,1359,0,0
210,-335,0,0,0,0,0,0,0,0,0,-1,1434,1359,0,0
217,-335,0,0,0,0,0,0,0,0,0,-1,1441,1359,0,0
224,-335,0,0,0,0,0,0,0,0,0,-1,1448,1359,0,0
231,-335,0,0,0,0,0,0,0,0,0,-1,1455,1359,0,0
238,-335,0,0,0,0,0,0,0,0,0,-1,1462,1359,0,0
245,-335,0,0,0,0,0,0,0,0,0,-1,1469,1359,0,0
252,-335,0,0,0,0,0,0,0,0,0,-1,1476,1359,0,0
259,-335,0,0,0,0,0,0,0,0,0,-1,1483,1359,0,0
266,-335,0,0,0,0,0,0,0,0,0,-1,1490,1359,0,0
273,-335,0,0,0,0,0,0,0,0,0,-1,1497,1359,0,0
280,-335,0,0,0,0,0,0,0,0,0,-1,1504,1359,0,0
287,-335,0,0,0,0,0,0,0,0,0,-1,1511,1359,0,0
294,-335,0,0,0,0,0,0,0,0,0,-1,1518,1359,0,0
301,-335,0,0,0,0,0,0,0,0,0,-1,1525,1359,0,0
308,-335,0,0,0,0,0,0,0,0,0,-1,1532,1359,0,0
315,-335,0,0,0,0,0,0,0,0,0,-1,1539,1359,0,0
322,-335,0,0,0,0,0,0,0,0,0,-1,1546,1359,0,0
329,-335,0,0,0,0,0,0,0,0,0,-1,1553,1359,0,0
336,-335,0,0,0,0,0,0,0,0,0,-1,1560,1359,0,0
343,-335,0,0,0,0,0,0,0,0,0,-1,1567,1359,0,0
350,-335,0,0,0,0,0,0,0,0,0,-1,1574,1359,0,0
357,-335,0,0,0,0,0,0,0,0,0,-1,1581,1359,0,0
364,-335,0,0,0,0,0,0,0,0,0,-1,1588,1359,0,0
371,-335,0,0,0,0,0,0,0,0,0,-1,1595,1359,0,0
378,-335,0,0,0,0,0,0,0,0,0,-1,1602,1359,0,0
385,-335,0,0,0,0,0,0,0,0,0,-1,1609,1359,0,0
392,-335,0,0,0,0,0,0,0,0,0,-1,1616,1359,0,0
399,-335,0,0,0,0,0,0,0,0,0,-1,1623,1359,0,0
406,-335,0,0,0,0,0,0,0,0,0,-1,1630,1359,0,0
413,-335,0,0,0,0,0,0,0,0,0,-1,1637,1359,0,0
420,-335,0,0,0,0,0,0,0,0,0,-1,1644,1359,0,0
427,-335,0,0,0,0,0,0,0,0,0,-1,1651,1359,0,0
434,-335,0,0,0,0,0,0,0,0,0,-1,1658,1359,0,0
441,-335,0,0,0,0,0,0,0,0,0,-1,1665,1359,0,0
448,-335,0,0,0,0,0,0,0,0,0,-1,1672,1359,0,0
455,-335,0,0,0,0,0,0,0,0,0,-1,1679,1359,0,0
462,-335,0,0,0,0,0,0,0,0,0,-1,1686,1359,0,0
469,-335,0,0,0,0,0,0,0,0,0,-1,1693,1359,0,0
476,-335,0,0,0,0,0,0,0,0,0,-1,1700,1359,0,0
483,-335,0,0,0,0,0,0,0,0,0,-1,1707,1359,0,0
490,-335,0,0,0,0,0,0,0,0,0,-1,1714,1359,0,0
497,-335,0,0,0,0,0,0,0,0,0,-1,1721,1359,0,0
504,-335,0,0,0,0,0,0,0,0,0,-1,1728,1359,0,0
511,-335,0,0,0,0,0,0,0,0,0,-1,1735,1359,0,0
518,-335,0,0,0,0,0,0,0,0,0,-1,1742,1359,0,0
525,-335,0,0,0,0,0,0,0,0,0,-1,1749,1359,0,0
532,-335,0,0,0,0,0,0,0,0,0,-1,1756,1359,0,0
539,-335,0,0,0,0,0,0,0,0,0,-1,1763,1359,0,0
546,-335,0,0,0,0,0,0,0,0,0,-1,1770,1359,0,0
553,-335,0,0,0,0,0,0,0,0,0,-1,1777,1359,0,0
560,-335,0,0,0,0,0,0,0,0,0,-1,1784,1359,0,0
567,-335,0,0,0,0,0,0,0,0,0,-1,1791,1359,0,0
574,-335,44.5405,5.74219,0,0,0,0,0,0,0,-1,1798,1359,44.5406,-5.74224
581,-335,44.1571,6.41992,0,0,0,0,0,0,0,-1,1805,1359,44.1571,-6.41989
588,-335,50.7247,4.16223,0,0,0,0,0,0,0,-1,1812,1359,50.7247,-4.16227
595,-335,49.984,3.76465,0,0,0,0,0,0,0,-1,1819,1359,49.984,-3.76467
602,-335,36.5643,0.0861816,0,0,0,0,0,0,0,-1,1826,1359,36.5643,-0.0862283
609,-335,36.2933,0.993896,0,0,0,0,0,0,0,-1,1833,1359,36.2934,-0.993911
616,-335,34.6969,4.82666,0,0,0,0,0,0,0,-1,1840,1359,34.6969,-4.82667
623,-335,26.6051,6.54333,0,0,0,0,0,0,0,-1,1847,1359,26.6051,-6.54339
630,-335,19.1707,1.00952,0,0,0,0,0,0,0,-1,1854,1359,19.1707,-1.00953
637,-335,18.2009,6.65454,0,0,0,0,0,0,0,-1,1861,1359,18.2009,-6.6546
644,-335,28.1042,12.067,0,0,0,0,0,0,0,-1,1868,1359,28.1042,-12.067
651,-335,31.1501,13.2056,0,0,0,0,0,0,0,-1,1875,1359,31.1501,-13.2056
658,-335,31.2179,12.5947,-0.000748814,-0.00019093,-0.000447205,5.71957e-05,-0.00099694,-1.06425,0.000684489,0.0279223,1882,1359,31.2179,-12.5947
665,-335,31.2582,12.0332,-0.000178901,-0.000420267,-0.000217761,-5.06174e-05,-0.000548551,-0.532367,0.00035005,0.0142936,1889,1359,31.2582,-12.0332
672,-335,31.2524,11.5314,0.000396094,-0.000463044,-0.00014912,0.000421241,-0.000488191,-0.167062,0.000525535,0.0172651,1896,1359,31.2524,-11.5313
679,-335,31.2395,11.0471,0.000928205,-0.000402843,-0.000137926,0.000942347,-0.000416985,-0.102176,0.000804111,0.0154289,1903,1359,31.2395,-11.0471
686,-335,31.2424,10.5371,0.00144378,-0.000262804,-0.000182667,0.00146311,-0.000282137,-0.105445,0.00108179,0.0131795,1910,1359,31.2425,-10.5371
693,-335,31.2207,10.0393,0.00192129,-6.58777e-05,-0.000264464,0.00195588,-0.000100472,-0.13007,0.00133867,0.0107078,1917,1359,31.2206,-10.0393
700,-335,31.1827,9.56763,0.00236557,0.000185981,-0.000365836,0.00242533,0.000126215,-0.161936,0.0015765,0.0109521,1924,1359,31.1827,-9.56761
707,-335,31.1709,9.10083,0.00268785,0.000535121,-0.000506641,0.00280112,0.000421845,-0.219966,0.00174389,0.0143937,1931,1359,31.1709,-9.10088
714,-335,31.1871,8.53406,0.0029224,0.000912833,-0.000625667,0.00310128,0.000733957,-0.278467,0.00187147,0.0350306,1938,1359,31.1872,-8.53405
721,-335,31.1202,7.85461,0,0,0,0,0,0,0,-1,1945,1359,31.1202,-7.85461
728,-335,20.8126,5.21167,0,0,0,0,0,0,0,-1,1952,1359,20.8127,-5.21172
735,-335,20.2725,5.34729,0,0,0,0,0,0,0,-1,1959,1359,20.2724,-5.34734
742,-335,19.8624,4.72229,0,0,0,0,0,0,0,-1,1966,1359,19.8624,-4.72225
749,-335,20.5887,6.05322,0,0,0,0,0,0,0,-1,1973,1359,20.5887,-6.05322
756,-335,20.7832,6.00452,0,0,0,0,0,0,0,-1,1980,1359,20.7832,-6.00447
763,-335,0,0,0,0,0,0,0,0,0,-1,1987,1359,0,0
770,-335,0,0,0,0,0,0,0,0,0,-1,1994,1359,0,0
777,-335,0,0,0,0,0,0,0,0,0,-1,2001,1359,0,0
784,-335,0,0,0,0,0,0,0,0,0,-1,2008,1359,0,0
791,-335,0,0,0,0,0,0,0,0,0,-1,2015,1359,0,0
798,-335,0,0,0,0,0,0,0,0,0,-1,2022,1359,0,0
805,-335,0,0,0,0,0,0,0,0,0,-1,2029,1359,0,0
812,-335,0,0,0,0,0,0,0,0,0,-1,2036,1359,0,0
-700,-342,0,0,0,0,0,0,0,0,0,-1,524,1366,0,0
-693,-342,0,0,0,0,0,0,0,0,0,-1,531,1366,0,0
-686,-342,0,0,0,0,0,0,0,0,0,-1,538,1366,0,0
-679,-342,0,0,0,0,0,0,0,0,0,-1,545,1366,0,0
-672,-342,0,0,0,0,0,0,0,0,0,-1,552,1366,0,0
-665,-342,0,0,0,0,0,0,0,0,0,-1,559,1366,0,0
-658,-342,0,0,0,0,0,0,0,0,0,-1,566,1366,0,0
-651,-342,0,0,0,0,0,0,0,0,0,-1,573,1366,0,0
-644,-342,0,0,0,0,0,0,0,0,0,-1,580,1366,0,0
-637,-342,-8.67786,-4.58557,0,0,0,0,0,0,0,-1,587,1366,-8.67788,4.5856
-630,-342,-8.60132,2.71777,0,0,0,0,0,0,0,-1,594,1366,-8.60135,-2.71779
-623,-342,-8.41168,0.662476,0,0,0,0,0,0,0,-1,601,1366,-8.41168,-0.662442
-616,-342,-6.625,-1.28015,0,0,0,0,0,0,0,-1,608,1366,-6.62499,1.28011
-609,-342,-7.83154,0.674561,0,0,0,0,0,0,0,-1,615,1366,-7.83155,-0.674598
-602,-342,-9.65765,2.25195,0,0,0,0,0,0,0,-1,622,1366,-9.65767,-2.25192
-595,-342,-9.47687,3.00671,0,0,0,0,0,0,0,-1,629,1366,-9.47686,-3.00668
-588,-342,-9.78467,3.57727,0,0,0,0,0,0,0,-1,636,1366,-9.78468,-3.57723
-581,-342,-16.5162,6.2085,0,0,0,0,0,0,0,-1,643,1366,-16.5162,-6.20852
-574,-342,-16.4862,6.87134,0.00448971,0.00180874,0.00162541,0.00525609,0.00104236,0.440586,0.00321346,0.0156482,650,1366,-16.4862,-6.87135
-567,-342,-16.3986,7.41467,0.00344954,0.00140874,0.00132304,0.00409996,0.000758311,0.456916,0.00251888,0.0172567,657,1366,-16.3987,-7.41473
-560,-342,-16.4352,7.91443,0.00289343,0.00100919,0.00114628,0.00343507,0.000467556,0.441423,0.0021512,0.0249292,664,1366,-16.4352,-7.91446
-553,-342,-16.4929,8.4364,0.00263271,0.000671506,0.0010645,0.00309943,0.000204788,0.413199,0.00200152,0.0273943,671,1366,-16.4929,-8.43638
-546,-342,-16.5334,9.0011,0.00266386,0.000373458,0.00106081,0.00307969,-4.23666e-05,0.373581,0.00206739,0.0289891,678,1366,-16.5334,-9.00109
-539,-342,-16.5544,9.57031,0.00293308,0.000115508,0.00113133,0.00333111,-0.000282521,0.3383,0.00232065,0.0253776,685,1366,-16.5544,-9.57031
-532,-342,-16.5409,10.1577,0.00350645,-9.62852e-05,0.00130254,0.00392804,-0.000517875,0.313026,0.00280729,0.018952,692,1366,-16.5409,-10.1577
-525,-342,-16.5046,10.7172,0.00437648,-0.000321781,0.00154186,0.00483729,-0.000782589,0.290415,0.00351488,0.0127295,699,1366,-16.5046,-10.7172
-518,-342,-16.4413,11.2816,0.00556313,-0.000391874,0.00184254,0.00608713,-0.000915868,0.277072,0.0043953,0.0309182,706,1366,-16.4413,-11.2816
-511,-342,-16.4416,11.8214,0,0,0,0,0,0,0,-1,713,1366,-16.4416,-11.8214
-504,-342,-8.95709,6.5719,0,0,0,0,0,0,0,-1,720,1366,-8.95707,-6.57192
-497,-342,-8.26587,-0.943604,0,0,0,0,0,0,0,-1,727,1366,-8.26586,0.943543
-490,-342,-9.07153,-0.0227051,0,0,0,0,0,0,0,-1,734,1366,-9.07155,0.0227087
-483,-342,-9.87726,0.898071,0,0,0,0,0,0,0,-1,741,1366,-9.87724,-0.898125
-476,-342,-11.6371,-0.736328,0,0,0,0,0,0,0,-1,748,1366,-11.6371,0.736281
-469,-342,-12.6245,-0.987549,0,0,0,0,0,0,0,-1,755,1366,-12.6245,0.987553
-462,-342,-13.0912,-0.533203,0,0,0,0,0,0,0,-1,762,1366,-13.0912,0.533224
-455,-342,-13.7612,0.122925,0,0,0,0,0,0,0,-1,769,1366,-13.7612,-0.122896
-448,-342,-14.5278,0.826904,0,0,0,0,0,0,0,-1,776,1366,-14.5277,-0.826861
-441,-342,0,0,0,0,0,0,0,0,0,-1,783,1366,0,0
-434,-342,0,0,0,0,0,0,0,0,0,-1,790,1366,0,0
-427,-342,0,0,0,0,0,0,0,0,0,-1,797,1366,0,0
-420,-342,0,0,0,0,0,0,0,0,0,-1,804,1366,0,0
-413,-342,0,0,0,0,0,0,0,0,0,-1,811,1366,0,0
-406,-342,0,0,0,0,0,0,0,0,0,-1,818,1366,0,0
-399,-342,0,0,0,0,0,0,0,0,0,-1,825,1366,0,0
-392,-342,0,0,0,0,0,0,0,0,0,-1,832,1366,0,0
-385,-342,0,0,0,0,0,0,0,0,0,-1,839,1366,0,0
-378,-342,0,0,0,0,0,0,0,0,0,-1,846,1366,0,0
-371,-342,0,0,0,0,0,0,0,0,0,-1,853,1366,0,0
-364,-342,0,0,0,0,0,0,0,0,0,-1,860,1366,0,0
-357,-342,0,0,0,0,0,0,0,0,0,-1,867,1366,0,0
-350,-342,0,0,0,0,0,0,0,0,0,-1,874,1366,0,0
-343,-342,0,0,0,0,0,0,0,0,0,-1,881,1366,0,0
-336,-342,0,0,0,0,0,0,0,0,0,-1,888,1366,0,0
-329,-342,0,0,0,0,0,0,0,0,0,-1,895,1366,0,0
-322,-342,0,0,0,0,0,0,0,0,0,-1,902,1366,0,0
-315,-342,0,0,0,0,0,0,0,0,0,-1,909,1366,0,0
-308,-342,0,0,0,0,0,0,0,0,0,-1,916,1366,0,0
-301,-342,0,0,0,0,0,0,0,0,0,-1,923,1366,0,0
-294,-342,0,0,0,0,0,0,0,0,0,-1,930,1366,0,0
-287,-342,0,0,0,0,0,0,0,0,0,-1,937,1366,0,0
-280,-342,0,0,0,0,0,0,0,0,0,-1,944,1366,0,0
-273,-342,0,0,0,0,0,0,0,0,0,-1,951,1366,0,0
-266,-342,0,0,0,0,0,0,0,0,0,-1,958,1366,0,0
-259,-342,0,0,0,0,0,0,0,0,0,-1,965,1366,0,0
-252,-342,0,0,0,0,0,0,0,0,0,-1,972,1366,0,0
-245,-342,0,0,0,0,0,0,0,0,0,-1,979,1366,0,0
-238,-342,0,0,0,0,0,0,0,0,0,-1,986,1366,0,0
-231,-342,0,0,0,0,0,0,0,0,0,-1,993,1366,0,0
-224,-342,0,0,0,0,0,0,0,0,0,-1,1000,1366,0,0
-217,-342,0,0,0,0,0,0,0,0,0,-1,1007,1366,0,0
-210,-342,0,0,0,0,0,0,0,0,0,-1,1014,1366,0,0
-203,-342,0,0,0,0,0,0,0,0,0,-1,1021,1366,0,0
-196,-342,0,0,0,0,0,0,0,0,0,-1,1028,1366,0,0
-189,-342,0,0,0,0,0,0,0,0,0,-1,1035,1366,0,0
-182,-342,0,0,0,0,0,0,0,0,0,-1,1042,1366,0,0
-175,-342,0,0,0,0,0,0,0,0,0,-1,1049,1366,0,0
-168,-342,0,0,0,0,0,0,0,0,0,-1,1056,1366,0,0
-161,-342,0,0,0,0,0,0,0,0,0,-1,1063,1366,0,0
-154,-342,0,0,0,0,0,0,0,0,0,-1,1070,1366,0,0
-147,-342,0,0,0,0,0,0,0,0,0,-1,1077,1366,0,0
-140,-342,0,0,0,0,0,0,0,0,0,-1,1084,1366,0,0
-133,-342,0,0,0,0,0,0,0,0,0,-1,1091,1366,0,0
-126,-342,0,0,0,0,0,0,0,0,0,-1,1098,1366,0,0
-119,-342,0,0,0,0,0,0,0,0,0,-1,1105,1366,0,0
-112,-342,0,0,0,0,0,0,0,0,0,-1,1112,1366,0,0
-105,-342,0,0,0,0,0,0,0,0,0,-1,1119,1366,0,0
-98,-342,0,0,0,0,0,0,0,0,0,-1,1126,1366,0,0
-91,-342,0,0,0,0,0,0,0,0,0,-1,1133,1366,0,0
-84,-342,0,0,0,0,0,0,0,0,0,-1,1140,1366,0,0
-77,-342,0,0,0,0,0,0,0,0,0,-1,1147,1366,0,0
-70,-342,0,0,0,0,0,0,0,0,0,-1,1154,1366,0,0
-63,-342,0,0,0,0,0,0,0,0,0,-1,1161,1366,0,0
-56,-342,0,0,0,0,0,0,0,0,0,-1,1168,1366,0,0
-49,-342,0,0,0,0,0,0,0,0,0,-1,1175,1366,0,0
-42,-342,0,0,0,0,0,0,0,0,0,-1,1182,1366,0,0
-35,-342,0,0,0,0,0,0,0,0,0,-1,1189,1366,0,0
-28,-342,0,0,0,0,0,0,0,0,0,-1,1196,1366,0,0
-21,-342,0,0,0,0,0,0,0,0,0,-1,1203,1366,0,0
-14,-342,0,0,0,0,0,0,0,0,0,-1,1210,1366,0,0
-7,-342,0,0,0,0,0,0,0,0,0,-1,1217,1366,0,0
0,-342,0,0,0,0,0,0,0,0,0,-1,1224,1366,0,0
7,-342,0,0,0,0,0,0,0,0,0,-1,1231,1366,0,0
14,-342,0,0,0,0,0,0,0,0,0,-1,1238,1366,0,0
21,-342,0,0,0,0,0,0,0,0,0,-1,1245,1366,0,0
28,-342,0,0,0,0,0,0,0,0,0,-1,1252,1366,0,0
35,-342,0,0,0,0,0,0,0,0,0,-1,1259,1366,0,0
42,-342,0,0,0,0,0,0,0,0,0,-1,1266,1366,0,0
49,-342,0,0,0,0,0,0,0,0,0,-1,1273,1366,0,0
56,-342,0,0,0,0,0,0,0,0,0,-1,1280,1366,0,0
63,-342,0,0,0,0,0,0,0,0,0,-1,1287,1366,0,0
70,-342,0,0,0,0,0,0,0,0,0,-1,1294,1366,0,0
77,-342,0,0,0,0,0,0,0,0,0,-1,1301,1366,0,0
84,-342,0,0,0,0,0,0,0,0,0,-1,1308,1366,0,0
91,-342,0,0,0,0,0,0,0,0,0,-1,1315,1366,0,0
98,-342,0,0,0,0,0,0,0,0,0,-1,1322,1366,0,0
105,-342,0,0,0,0,0,0,0,0,0,-1,1329,1366,0,0
112,-342,0,0,0,0,0,0,0,0,0,-1,1336,1366,0,0
119,-342,0,0,0,0,0,0,0,0,0,-1,1343,1366,0,0
126,-342,0,0,0,0,0,0,0,0,0,-1,1350,1366,0,0
133,-342,0,0,0,0,0,0,0,0,0,-1,1357,1366,0,0
140,-342,0,0,0,0,0,0,0,0,0,-1,1364,1366,0,0
147,-342,0,0,0,0,0,0,0,0,0,-1,1371,1366,0,0
154,-342,0,0,0,0,0,0,0,0,0,-1,1378,1366,0,0
161,-342,0,0,0,0,0,0,0,0,0,-1,1385,1366,0,0
168,-342,0,0,0,0,0,0,0,0,0,-1,1392,1366,0,0
175,-342,0,0,0,0,0,0,0,0,0,-1,1399,1366,0,0
182,-342,0,0,0,0,0,0,0,0,0,-1,1406,1366,0,0
189,-342,0,0,0,0,0,0,0,0,0,-1,1413,1366,0,0
196,-342,0,0,0,0,0,0,0,0,0,-1,1420,1366,0,0
203,-342,0,0,0,0,0,0,0,0,0,-1,1427,1366,0,0
210,-342,0,0,0,0,0,0,0,0,0,-1,1434,1366,0,0
217,-342,0,0,0,0,0,0,0,0,0,-1,1441,1366,0,0
224,-342,0,0,0,0,0,0,0,0,0,-1,1448,1366,0,0
231,-342,0,0,0,0,0,0,0,0,0,-1,1455,1366,0,0
238,-342,0,0,0,0,0,0,0,0,0,-1,1462,1366,0,0
245,-342,0,0,0,0,0,0,0,0,0,-1,1469,1366,0,0
252,-342,0,0,0,0,0,0,0,0,0,-1,1476,1366,0,0
259,-342,0,0,0,0,0,0,0,0,0,-1,1483,1366,0,0
266,-342,0,0,0,0,0,0,0,0,0,-1,1490,1366,0,0
273,-342,0,0,0,0,0,0,0,0,0,-1,1497,1366,0,0
280,-342,0,0,0,0,0,0,0,0,0,-1,1504,1366,0,0
287,-342,0,0,0,0,0,0,0,0,0,-1,1511,1366,0,0
294,-342,0,0,0,0,0,0,0,0,0,-1,1518,1366,0,0
301,-342,0,0,0,0,0,0,0,0,0,-1,1525,1366,0,0
308,-342,0,0,0,0,0,0,0,0,0,-1,1532,1366,0,0
315,-342,0,0,0,0,0,0,0,0,0,-1,1539,1366,0,0
322,-342,0,0,0,0,0,0,0,0,0,-1,1546,1366,0,0
329,-342,0,0,0,0,0,0,0,0,0,-1,1553,1366,0,0
336,-342,0,0,0,0,0,0,0,0,0,-1,1560,1366,0,0
343,-342,0,0,0,0,0,0,0,0,0,-1,1567,1366,0,0
350,-342,0,0,0,0,0,0,0,0,0,-1,1574,1366,0,0
357,-342,0,0,0,0,0,0,0,0,0,-1,1581,1366,0,0
364,-342,0,0,0,0,0,0,0,0,0,-1,1588,1366,0,0
371,-342,0,0,0,0,0,0,0,0,0,-1,1595,1366,0,0
378,-342,0,0,0,0,0,0,0,0,0,-1,1602,1366,0,0
385,-342,0,0,0,0,0,0,0,0,0,-1,1609,1366,0,0
392,-342,0,0,0,0,0,0,0,0,0,-1,1616,1366,0,0
399,-342,0,0,0,0,0,0,0,0,0,-1,1623,1366,0,0
406,-342,0,0,0,0,0,0,0,0,0,-1,1630,1366,0,0
413,-342,0,0,0,0,0,0,0,0,0,-1,1637,1366,0,0
420,-342,0,0,0,0,0,0,0,0,0,-1,1644,1366,0,0
427,-342,0,0,0,0,0,0,0,0,0,-1,1651,1366,0,0
434,-342,0,0,0,0,0,0,0,0,0,-1,1658,1366,0,0
441,-342,0,0,0,0,0,0,0,0,0,-1,1665,1366,0,0
448,-342,0,0,0,0,0,0,0,0,0,-1,1672,1366,0,0
455,-342,0,0,0,0,0,0,0,0,0,-1,1679,1366,0,0
462,-342,0,0,0,0,0,0,0,0,0,-1,1686,1366,0,0
469,-342,0,0,0,0,0,0,0,0,0,-1,1693,1366,0,0
476,-342,0,0,0,0,0,0,0,0,0,-1,1700,1366,0,0
483,-342,0,0,0,0,0,0,0,0,0,-1,1707,1366,0,0
490,-342,0,0,0,0,0,0,0,0,0,-1,1714,1366,0,0
497,-342,0,0,0,0,0,0,0,0,0,-1,1721,1366,0,0
504,-342,0,0,0,0,0,0,0,0,0,-1,1728,1366,0,0
511,-342,0,0,0,0,0,0,0,0,0,-1,1735,1366,0,0
518,-342,0,0,0,0,0,0,0,0,0,-1,1742,1366,0,0
525,-342,0,0,0,0,0,0,0,0,0,-1,1749,1366,0,0
532,-342,0,0,0,0,0,0,0,0,0,-1,1756,1366,0,0
539,-342,0,0,0,0,0,0,0,0,0,-1,1763,1366,0,0
546,-342,0,0,0,0,0,0,0,0,0,-1,1770,1366,0,0
553,-342,0,0,0,0,0,0,0,0,0,-1,1777,1366,0,0
560,-342,0,0,0,0,0,0,0,0,0,-1,1784,1366,0,0
567,-342,42.6652,5.53748,0,0,0,0,0,0,0,-1,1791,1366,42.6652,-5.53752
574,-342,43.0466,5.95728,0,0,0,0,0,0,0,-1,1798,1366,43.0466,-5.9573
581,-342,43.4904,6.59937,0,0,0,0,0,0,0,-1,1805,1366,43.4903,-6.59938
588,-342,43.9108,7.22559,0,0,0,0,0,0,0,-1,1812,1366,43.9107,-7.22554
595,-342,35.7993,0.709961,0,0,0,0,0,0,0,-1,1819,1366,35.7993,-0.709913
602,-342,36.3618,3.28723,0,0,0,0,0,0,0,-1,1826,1366,36.3619,-3.28719
609,-342,35.3777,4.14978,0,0,0,0,0,0,0,-1,1833,1366,35.3777,-4.14976
616,-342,34.199,5.8158,0,0,0,0,0,0,0,-1,1840,1366,34.199,-5.81579
623,-342,26.0299,6.86865,0,0,0,0,0,0,0,-1,1847,1366,26.0299,-6.86863
630,-342,17.3431,0.773071,0,0,0,0,0,0,0,-1,1854,1366,17.3432,-0.773095
637,-342,16.196,6.76172,0,0,0,0,0,0,0,-1,1861,1366,16.1961,-6.76174
644,-342,30.7482,13.5775,0,0,0,0,0,0,0,-1,1868,1366,30.7481,-13.5775
651,-342,30.797,13.1061,-0.00111885,0.000406374,-0.00100209,0.000903035,-0.00161551,-1.11066,0.00147335,0.04734,1875,1366,30.7971,-13.106
658,-342,30.7821,12.5695,-0.000592128,9.1159e-05,-0.000522967,0.000374187,-0.000875156,-1.07474,0.000740386,0.0198892,1882,1366,30.7821,-12.5695
665,-342,30.7471,12.0629,1.1573e-05,-0.000164475,-0.000290687,0.000227272,-0.000380174,-0.63838,0.000354393,0.0165875,1889,1366,30.7471,-12.0629
672,-342,30.7532,11.5779,0.000622876,-0.000259289,-0.000187794,0.000661189,-0.000297602,-0.201256,0.00056667,0.0136128,1896,1366,30.7532,-11.5779
679,-342,30.7434,11.0973,0.00121811,-0.000278681,-0.000152262,0.00123344,-0.000294013,-0.100356,0.000935823,0.0144607,1903,1366,30.7434,-11.0972
686,-342,30.7626,10.6106,0.00181974,-0.000203574,-0.000193269,0.00183803,-0.000221869,-0.0943837,0.00130561,0.0127251,1910,1366,30.7625,-10.6105
693,-342,30.7367,10.0938,0.00239286,-7.4206e-05,-0.000269561,0.00242197,-0.000103316,-0.107573,0.00165016,0.0124735,1917,1366,30.7367,-10.0937
700,-342,30.6974,9.60608,0.00294882,0.000137088,-0.000392824,0.00300267,8.32384e-05,-0.136234,0.00197462,0.0138553,1924,1366,30.6974,-9.6061
707,-342,30.6744,9.0907,0.0033542,0.000481918,-0.000594757,0.00347249,0.000363635,-0.196316,0.0022038,0.0139537,1931,1366,30.6744,-9.09071
714,-342,30.6881,8.56677,0,0,0,0,0,0,0,-1,1938,1366,30.6881,-8.56682
721,-342,22.4666,6.08679,0,0,0,0,0,0,0,-1,1945,1366,22.4666,-6.08678
728,-342,19.8912,5.26636,0,0,0,0,0,0,0,-1,1952,1366,19.8913,-5.26636
735,-342,19.481,4.41968,0,0,0,0,0,0,0,-1,1959,1366,19.4809,-4.41962
742,-342,19.309,2.66943,0,0,0,0,0,0,0,-1,1966,1366,19.3089,-2.66948
749,-342,21.0934,6.47729,0,0,0,0,0,0,0,-1,1973,1366,21.0934,-6.4773
756,-342,0,0,0,0,0,0,0,0,0,-1,1980,1366,0,0
763,-342,0,0,0,0,0,0,0,0,0,-1,1987,1366,0,0
770,-342,0,0,0,0,0,0,0,0,0,-1,1994,1366,0,0
777,-342,0,0,0,0,0,0,0,0,0,-1,2001,1366,0,0
784,-342,0,0,0,0,0,0,0,0,0,-1,2008,1366,0,0
791,-342,0,0,0,0,0,0,0,0,0,-1,2015,1366,0,0
798,-342,0,0,0,0,0,0,0,0,0,-1,2022,1366,0,0
805,-342,0,0,0,0,0,0,0,0,0,-1,2029,1366,0,0
812,-342,0,0,0,0,0,0,0,0,0,-1,2036,1366,0,0
-700,-349,0,0,0,0,0,0,0,0,0,-1,524,1373,0,0
-693,-349,0,0,0,0,0,0,0,0,0,-1,531,1373,0,0
-686,-349,0,0,0,0,0,0,0,0,0,-1,538,1373,0,0
-679,-349,0,0,0,0,0,0,0,0,0,-1,545,1373,0,0
-672,-349,0,0,0,0,0,0,0,0,0,-1,552,1373,0,0
-665,-349,0,0,0,0,0,0,0,0,0,-1,559,1373,0,0
-658,-349,0,0,0,0,0,0,0,0,0,-1,566,1373,0,0
-651,-349,0,0,0,0,0,0,0,0,0,-1,573,1373,0,0
-644,-349,0,0,0,0,0,0,0,0,0,-1,580,1373,0,0
-637,-349,0,0,0,0,0,0,0,0,0,-1,587,1373,0,0
-630,-349,-7.64117,-5.06177,0,0,0,0,0,0,0,-1,594,1373,-7.64118,5.0618
-623,-349,-8.63507,0.51123,0,0,0,0,0,0,0,-1,601,1373,-8.63505,-0.511275
-616,-349,-5.2066,-0.188232,0,0,0,0,0,0,0,-1,608,1373,-5.20659,0.188211
-609,-349,-7.12073,1.37048,0,0,0,0,0,0,0,-1,615,1373,-7.12072,-1.37044
-602,-349,-9.00623,3.39587,0,0,0,0,0,0,0,-1,622,1373,-9.0062,-3.39591
-595,-349,-9.50568,2.96912,0,0,0,0,0,0,0,-1,629,1373,-9.50569,-2.96906
-588,-349,-8.60046,3.56042,0,0,0,0,0,0,0,-1,636,1373,-8.60046,-3.56047
-581,-349,-15.8458,6.33777,0,0,0,0,0,0,0,-1,643,1373,-15.8457,-6.33782
-574,-349,-15.8826,6.828,0.00519493,0.00162495,0.00168063,0.00586161,0.000958267,0.377647,0.00363072,0.0333381,650,1373,-15.8826,-6.82804
-567,-349,-15.9156,7.42847,0.00385863,0.00134615,0.00137497,0.00446482,0.00073995,0.415245,0.00276312,0.0182709,657,1373,-15.9156,-7.4285
-560,-349,-15.937,7.96594,0.00313615,0.00100678,0.00118342,0.00366333,0.000479601,0.419082,0.00229909,0.0203839,664,1373,-15.937,-7.96599
-553,-349,-15.9719,8.48743,0.00273582,0.000733903,0.00109107,0.00321552,0.000254205,0.414222,0.00206417,0.0254777,671,1373,-15.9719,-8.48749
-546,-349,-16.0171,9.02429,0.00261011,0.000500879,0.00106524,0.00305448,5.65118e-05,0.395205,0.00201775,0.0303985,678,1373,-16.0171,-9.02432
-539,-349,-16.0437,9.58521,0.00272183,0.000289578,0.00110081,0.00314605,-0.000134645,0.367834,0.00214366,0.0252932,685,1373,-16.0437,-9.58526
-532,-349,-16.0128,10.1506,0.00308827,0.000114058,0.00121153,0.00351931,-0.000316984,0.341817,0.00245869,0.0178417,692,1373,-16.0128,-10.1506
-525,-349,-15.9882,10.7228,0.00370436,-4.06722e-05,0.00139752,0.00416837,-0.000504686,0.320575,0.00296151,0.0130116,699,1373,-15.9881,-10.7227
-518,-349,-15.9798,11.3134,0.00456181,-7.76432e-05,0.00163849,0.00508211,-0.000597948,0.30748,0.00360397,0.0202212,706,1373,-15.9798,-11.3134
-511,-349,-15.93,11.9247,0,0,0,0,0,0,0,-1,713,1373,-15.93,-11.9247
-504,-349,-9.60516,7.88831,0,0,0,0,0,0,0,-1,720,1373,-9.60519,-7.88825
-497,-349,-7.9339,5.58789,0,0,0,0,0,0,0,-1,727,1373,-7.93388,-5.58785
-490,-349,-8.73969,-0.503784,0,0,0,0,0,0,0,-1,734,1373,-8.73966,0.503752
-483,-349,-5.66974,3.7395,0,0,0,0,0,0,0,-1,741,1373,-5.66975,-3.73949
-476,-349,-10.8496,1.15759,0,0,0,0,0,0,0,-1,748,1373,-10.8496,-1.15756
-469,-349,-12.3314,-1.74878,0,0,0,0,0,0,0,-1,755,1373,-12.3314,1.74882
-462,-349,-12.6559,-0.995361,0,0,0,0,0,0,0,-1,762,1373,-12.656,0.995351
-455,-349,-13.2897,-0.234253,0,0,0,0,0,0,0,-1,769,1373,-13.2897,0.234261
-448,-349,-14.045,0.712891,0,0,0,0,0,0,0,-1,776,1373,-14.045,-0.712838
-441,-349,0,0,0,0,0,0,0,0,0,-1,783,1373,0,0
-434,-349,0,0,0,0,0,0,0,0,0,-1,790,1373,0,0
-427,-349,0,0,0,0,0,0,0,0,0,-1,797,1373,0,0
-420,-349,0,0,0,0,0,0,0,0,0,-1,804,1373,0,0
-413,-349,0,0,0,0,0,0,0,0,0,-1,811,1373,0,0
-406,-349,0,0,0,0,0,0,0,0,0,-1,818,1373,0,0
-399,-349,0,0,0,0,0,0,0,0,0,-1,825,1373,0,0
-392,-349,0,0,0,0,0,0,0,0,0,-1,832,1373,0,0
-385,-349,0,0,0,0,0,0,0,0,0,-1,839,1373,0,0
-378,-349,0,0,0,0,0,0,0,0,0,-1,846,1373,0,0
-371,-349,0,0,0,0,0,0,0,0,0,-1,853,1373,0,0
-364,-349,0,0,0,0,0,0,0,0,0,-1,860,1373,0,0
-357,-349,0,0,0,0,0,0,0,0,0,-1,867,1373,0,0
-350,-349,0,0,0,0,0,0,0,0,0,-1,874,1373,0,0
-343,-349,0,0,0,0,0,0,0,0,0,-1,881,1373,0,0
-336,-349,0,0,0,0,0,0,0,0,0,-1,888,1373,0,0
-329,-349,0,0,0,0,0,0,0,0,0,-1,895,1373,0,0
-322,-349,0,0,0,0,0,0,0,0,0,-1,902,1373,0,0
-315,-349,0,0,0,0,0,0,0,0,0,-1,909,1373,0,0
-308,-349,0,0,0,0,0,0,0,0,0,-1,916,1373,0,0
-301,-349,0,0,0,0,0,0,0,0,0,-1,923,1373,0,0
-294,-349,0,0,0,0,0,0,0,0,0,-1,930,1373,0,0
-287,-349,0,0,0,0,0,0,0,0,0,-1,937,1373,0,0
-280,-349,0,0,0,0,0,0,0,0,0,-1,944,1373,0,0
-273,-349,0,0,0,0,0,0,0,0,0,-1,951,1373,0,0
-266,-349,0,0,0,0,0,0,0,0,0,-1,958,1373,0,0
-259,-349,0,0,0,0,0,0,0,0,0,-1,965,1373,0,0
-252,-349,0,0,0,0,0,0,0,0,0,-1,972,1373,0,0
-245,-349,0,0,0,0,0,0,0,0,0,-1,979,1373,0,0
-238,-349,0,0,0,0,0,0,0,0,0,-1,986,1373,0,0
-231,-349,0,0,0,0,0,0,0,0,0,-1,993,1373,0,0
-224,-349,0,0,0,0,0,0,0,0,0,-1,1000,1373,0,0
-217,-349,0,0,0,0,0,0,0,0,0,-1,1007,1373,0,0
-210,-349,0,0,0,0,0,0,0,0,0,-1,1014,1373,0,0
-203,-349,0,0,0,0,0,0,0,0,0,-1,1021,1373,0,0
-196,-349,0,0,0,0,0,0,0,0,0,-1,1028,1373,0,0
-189,-349,0,0,0,0,0,0,0,0,0,-1,1035,1373,0,0
-182,-349,0,0,0,0,0,0,0,0,0,-1,1042,1373,0,0
-175,-349,0,0,0,0,0,0,0,0,0,-1,1049,1373,0,0
-168,-349,0,0,0,0,0,0,0,0,0,-1,1056,1373,0,0
-161,-349,0,0,0,0,0,0,0,0,0,-1,1063,1373,0,0
-154,-349,0,0,0,0,0,0,0,0,0,-1,1070,1373,0,0
-147,-349,0,0,0,0,0,0,0,0,0,-1,1077,1373,0,0
-140,-349,0,0,0,0,0,0,0,0,0,-1,1084,1373,0,0
-133,-349,0,0,0,0,0,0,0,0,0,-1,1091,1373,0,0
-126,-349,0,0,0,0,0,0,0,0,0,-1,1098,1373,0,0
-119,-349,0,0,0,0,0,0,0,0,0,-1,1105,1373,0,0
-112,-349,0,0,0,0,0,0,0,0,0,-1,1112,1373,0,0
-105,-349,0,0,0,0,0,0,0,0,0,-1,1119,1373,0,0
-98,-349,0,0,0,0,0,0,0,0,0,-1,1126,1373,0,0
-91,-349,0,0,0,0,0,0,0,0,0,-1,1133,1373,0,0
-84,-349,0,0,0,0,0,0,0,0,0,-1,1140,1373,0,0
-77,-349,0,0,0,0,0,0,0,0,0,-1,1147,1373,0,0
-70,-349,0,0,0,0,0,0,0,0,0,-1,1154,1373,0,0
-63,-349,0,0,0,0,0,0,0,0,0,-1,1161,1373,0,0
-56,-349,0,0,0,0,0,0,0,0,0,-1,1168,1373,0,0
-49,-349,0,0,0,0,0,0,0,0,0,-1,1175,1373,0,0
-42,-349,0,0,0,0,0,0,0,0,0,-1,1182,1373,0,0
-35,-349,0,0,0,0,0,0,0,0,0,-1,1189,1373,0,0
-28,-349,0,0,0,0,0,0,0,0,0,-1,1196,1373,0,0
-21,-349,0,0,0,0,0,0,0,0,0,-1,1203,1373,0,0
-14,-349,0,0,0,0,0,0,0,0,0,-1,1210,1373,0,0
-7,-349,0,0,0,0,0,0,0,0,0,-1,1217,1373,0,0
0,-349,0,0,0,0,0,0,0,0,0,-1,1224,1373,0,0
7,-349,0,0,0,0,0,0,0,0,0,-1,1231,1373,0,0
14,-349,0,0,0,0,0,0,0,0,0,-1,1238,1373,0,0
21,-349,0,0,0,0,0,0,0,0,0,-1,1245,1373,0,0
28,-349,0,0,0,0,0,0,0,0,0,-1,1252,1373,0,0
35,-349,0,0,0,0,0,0,0,0,0,-1,1259,1373,0,0
42,-349,0,0,0,0,0,0,0,0,0,-1,1266,1373,0,0
49,-349,0,0,0,0,0,0,0,0,0,-1,1273,1373,0,0
56,-349,0,0,0,0,0,0,0,0,0,-1,1280,1373,0,0
63,-349,0,0,0,0,0,0,0,0,0,-1,1287,1373,0,0
70,-349,0,0,0,0,0,0,0,0,0,-1,1294,1373,0,0
77,-349,0,0,0,0,0,0,0,0,0,-1,1301,1373,0,0
84,-349,0,0,0,0,0,0,0,0,0,-1,1308,1373,0,0
91,-349,0,0,0,0,0,0,0,0,0,-1,1315,1373,0,0
98,-349,0,0,0,0,0,0,0,0,0,-1,1322,1373,0,0
105,-349,0,0,0,0,0,0,0,0,0,-1,1329,1373,0,0
112,-349,0,0,0,0,0,0,0,0,0,-1,1336,1373,0,0
119,-349,0,0,0,0,0,0,0,0,0,-1,1343,1373,0,0
126,-349,0,0,0,0,0,0,0,0,0,-1,1350,1373,0,0
133,-349,0,0,0,0,0,0,0,0,0,-1,1357,1373,0,0
140,-349,0,0,0,0,0,0,0,0,0,-1,1364,1373,0,0
147,-349,0,0,0,0,0,0,0,0,0,-1,1371,1373,0,0
154,-349,0,0,0,0,0,0,0,0,0,-1,1378,1373,0,0
161,-349,0,0,0,0,0,0,0,0,0,-1,1385,1373,0,0
168,-349,0,0,0,0,0,0,0,0,0,-1,1392,1373,0,0
175,-349,0,0,0,0,0,0,0,0,0,-1,1399,1373,0,0
182,-349,0,0,0,0,0,0,0,0,0,-1,1406,1373,0,0
189,-349,0,0,0,0,0,0,0,0,0,-1,1413,1373,0,0
196,-349,0,0,0,0,0,0,0,0,0,-1,1420,1373,0,0
203,-349,0,0,0,0,0,0,0,0,0,-1,1427,1373,0,0
210,-349,0,0,0,0,0,0,0,0,0,-1,1434,1373,0,0
217,-349,0,0,0,0,0,0,0,0,0,-1,1441,1373,0,0
224,-349,0,0,0,0,0,0,0,0,0,-1,1448,1373,0,0
231,-349,0,0,0,0,0,0,0,0,0,-1,1455,1373,0,0
238,-349,0,0,0,0,0,0,0,0,0,-1,1462,1373,0,0
245,-349,0,0,0,0,0,0,0,0,0,-1,1469,1373,0,0
252,-349,0,0,0,0,0,0,0,0,0,-1,1476,1373,0,0
259,-349,0,0,0,0,0,0,0,0,0,-1,1483,1373,0,0
266,-349,0,0,0,0,0,0,0,0,0,-1,1490,1373,0,0
273,-349,0,0,0,0,0,0,0,0,0,-1,1497,1373,0,0
280,-349,0,0,0,0,0,0,0,0,0,-1,1504,1373,0,0
287,-349,0,0,0,0,0,0,0,0,0,-1,1511,1373,0,0
294,-349,0,0,0,0,0,0,0,0,0,-1,1518,1373,0,0
301,-349,0,0,0,0,0,0,0,0,0,-1,1525,1373,0,0
308,-349,0,0,0,0,0,0,0,0,0,-1,1532,1373,0,0
315,-349,0,0,0,0,0,0,0,0,0,-1,1539,1373,0,0
322,-349,0,0,0,0,0,0,0,0,0,-1,1546,1373,0,0
329,-349,0,0,0,0,0,0,0,0,0,-1,1553,1373,0,0
336,-349,0,0,0,0,0,0,0,0,0,-1,1560,1373,0,0
343,-349,0,0,0,0,0,0,0,0,0,-1,1567,1373,0,0
350,-349,0,0,0,0,0,0,0,0,0,-1,1574,1373,0,0
357,-349,0,0,0,0,0,0,0,0,0,-1,1581,1373,0,0
364,-349,0,0,0,0,0,0,0,0,0,-1,1588,1373,0,0
371,-349,0,0,0,0,0,0,0,0,0,-1,1595,1373,0,0
378,-349,0,0,0,0,0,0,0,0,0,-1,1602,1373,0,0
385,-349,0,0,0,0,0,0,0,0,0,-1,1609,1373,0,0
392,-349,0,0,0,0,0,0,0,0,0,-1,1616,1373,0,0
399,-349,0,0,0,0,0,0,0,0,0,-1,1623,1373,0,0
406,-349,0,0,0,0,0,0,0,0,0,-1,1630,1373,0,0
413,-349,0,0,0,0,0,0,0,0,0,-1,1637,1373,0,0
420,-349,0,0,0,0,0,0,0,0,0,-1,1644,1373,0,0
427,-349,0,0,0,0,0,0,0,0,0,-1,1651,1373,0,0
434,-349,0,0,0,0,0,0,0,0,0,-1,1658,1373,0,0
441,-349,0,0,0,0,0,0,0,0,0,-1,1665,1373,0,0
448,-349,0,0,0,0,0,0,0,0,0,-1,1672,1373,0,0
455,-349,0,0,0,0,0,0,0,0,0,-1,1679,1373,0,0
462,-349,0,0,0,0,0,0,0,0,0,-1,1686,1373,0,0
469,-349,0,0,0,0,0,0,0,0,0,-1,1693,1373,0,0
476,-349,0,0,0,0,0,0,0,0,0,-1,1700,1373,0,0
483,-349,0,0,0,0,0,0,0,0,0,-1,1707,1373,0,0
490,-349,0,0,0,0,0,0,0,0,0,-1,1714,1373,0,0
497,-349,0,0,0,0,0,0,0,0,0,-1,1721,1373,0,0
504,-349,0,0,0,0,0,0,0,0,0,-1,1728,1373,0,0
511,-349,0,0,0,0,0,0,0,0,0,-1,1735,1373,0,0
518,-349,0,0,0,0,0,0,0,0,0,-1,1742,1373,0,0
525,-349,0,0,0,0,0,0,0,0,0,-1,1749,1373,0,0
532,-349,0,0,0,0,0,0,0,0,0,-1,1756,1373,0,0
539,-349,0,0,0,0,0,0,0,0,0,-1,1763,1373,0,0
546,-349,0,0,0,0,0,0,0,0,0,-1,1770,1373,0,0
553,-349,0,0,0,0,0,0,0,0,0,-1,1777,1373,0,0
560,-349,45.6893,3.53845,0,0,0,0,0,0,0,-1,1784,1373,45.6893,-3.5385
567,-349,41.9424,6.03833,0,0,0,0,0,0,0,-1,1791,1373,41.9423,-6.03834
574,-349,42.4165,6.17078,0,0,0,0,0,0,0,-1,1798,1373,42.4165,-6.17072
581,-349,42.8947,6.78381,0,0,0,0,0,0,0,-1,1805,1373,42.8946,-6.78376
588,-349,44.8121,5.06213,0,0,0,0,0,0,0,-1,1812,1373,44.8121,-5.06215
595,-349,44.4338,6.14099,0,0,0,0,0,0,0,-1,1819,1373,44.4338,-6.14095
602,-349,35.6641,3.26465,0,0,0,0,0,0,0,-1,1826,1373,35.6641,-3.26468
609,-349,34.7175,4.401,0,0,0,0,0,0,0,-1,1833,1373,34.7175,-4.40096
616,-349,27.1451,6.68274,0,0,0,0,0,0,0,-1,1840,1373,27.1451,-6.6828
623,-349,18.8478,2.75769,0,0,0,0,0,0,0,-1,1847,1373,18.8478,-2.75774
630,-349,15.4948,6.47644,0,0,0,0,0,0,0,-1,1854,1373,15.4947,-6.4765
637,-349,16.5161,6.92639,0,0,0,0,0,0,0,-1,1861,1373,16.5161,-6.92636
644,-349,30.3845,13.5948,0,0,0,0,0,0,0,-1,1868,1373,30.3845,-13.5949
651,-349,30.4397,13.0483,-0.000586434,0.000624644,-0.00107739,0.001255,-0.00121679,-1.04142,0.00142715,0.0366605,1875,1373,30.4397,-13.0483
658,-349,30.3041,12.5455,-0.000163045,0.000304603,-0.000605404,0.000719769,-0.000578211,-0.969687,0.000750873,0.0255258,1882,1373,30.304,-12.5455
665,-349,30.2399,12.0839,0.000340546,2.86812e-05,-0.000320696,0.00054121,-0.000171982,-0.559112,0.000429762,0.0198541,1889,1373,30.2399,-12.0838
672,-349,30.2434,11.6079,0.000866676,-0.00012829,-0.00013422,0.000884464,-0.000146078,-0.131762,0.000643883,0.014619,1896,1373,30.2434,-11.6079
679,-349,30.2418,11.1067,0.00140626,-0.000241445,-1.33042e-05,0.00140636,-0.000241552,-0.00807371,0.0010276,0.0153378,1903,1373,30.2419,-11.1067
686,-349,30.2944,10.6282,0.00197215,-0.000270951,2.8706e-05,0.00197252,-0.000271319,0.0127947,0.00141415,0.0157492,1910,1373,30.2945,-10.6282
693,-349,30.2604,10.136,0.00253621,-0.000249242,2.32441e-05,0.00253641,-0.000249436,0.00834403,0.00177992,0.017846,1917,1373,30.2604,-10.136
700,-349,30.2267,9.66199,0.00311337,-0.000128106,-5.1949e-05,0.0031142,-0.000128938,-0.0160208,0.00212042,0.0181371,1924,1373,30.2267,-9.66198
707,-349,30.2734,9.13013,0.00351551,0.000146593,-0.000247391,0.00353358,0.000128523,-0.0729122,0.00231407,0.0350968,1931,1373,30.2734,-9.13011
714,-349,30.3618,8.47766,0,0,0,0,0,0,0,-1,1938,1373,30.3618,-8.47762
721,-349,19.6688,5.93604,0,0,0,0,0,0,0,-1,1945,1373,19.6688,-5.93606
728,-349,18.6333,3.73218,0,0,0,0,0,0,0,-1,1952,1373,18.6333,-3.73214
735,-349,18.1918,3.39954,0,0,0,0,0,0,0,-1,1959,1373,18.1918,-3.3995
742,-349,20.7345,2.07483,0,0,0,0,0,0,0,-1,1966,1373,20.7345,-2.07485
749,-349,21.9037,1.45789,0,0,0,0,0,0,0,-1,1973,1373,21.9037,-1.45788
756,-349,0,0,0,0,0,0,0,0,0,-1,1980,1373,0,0
763,-349,0,0,0,0,0,0,0,0,0,-1,1987,1373,0,0
770,-349,0,0,0,0,0,0,0,0,0,-1,1994,1373,0,0
777,-349,0,0,0,0,0,0,0,0,0,-1,2001,1373,0,0
784,-349,0,0,0,0,0,0,0,0,0,-1,2008,1373,0,0
791,-349,0,0,0,0,0,0,0,0,0,-1,2015,1373,0,0
798,-349,0,0,0,0,0,0,0,0,0,-1,2022,1373,0,0
805,-349,0,0,0,0,0,0,0,0,0,-1,2029,1373,0,0
812,-349,0,0,0,0,0,0,0,0,0,-1,2036,1373,0,0
-700,-356,0,0,0,0,0,0,0,0,0,-1,524,1380,0,0
-693,-356,0,0,0,0,0,0,0,0,0,-1,531,1380,0,0
-686,-356,0,0,0,0,0,0,0,0,0,-1,538,1380,0,0
-679,-356,0,0,0,0,0,0,0,0,0,-1,545,1380,0,0
-672,-356,0,0,0,0,0,0,0,0,0,-1,552,1380,0,0
-665,-356,0,0,0,0,0,0,0,0,0,-1,559,1380,0,0
-658,-356,0,0,0,0,0,0,0,0,0,-1,566,1380,0,0
-651,-356,0,0,0,0,0,0,0,0,0,-1,573,1380,0,0
-644,-356,0,0,0,0,0,0,0,0,0,-1,580,1380,0,0
-637,-356,0,0,0,0,0,0,0,0,0,-1,587,1380,0,0
-630,-356,-8.23126,-5.01917,0,0,0,0,0,0,0,-1,594,1380,-8.23124,5.0192
-623,-356,-0.263855,-0.675781,0,0,0,0,0,0,0,-1,601,1380,-0.263835,0.675841
-616,-356,-8.26532,-3.43945,0,0,0,0,0,0,0,-1,608,1380,-8.2653,3.43948
-609,-356,-4.88483,0.734497,0,0,0,0,0,0,0,-1,615,1380,-4.88485,-0.734532
-602,-356,-9.06635,2.4021,0,0,0,0,0,0,0,-1,622,1380,-9.06634,-2.40206
-595,-356,-8.45703,3.61853,0,0,0,0,0,0,0,-1,629,1380,-8.45706,-3.61848
-588,-356,-9.31738,4.14258,0,0,0,0,0,0,0,-1,636,1380,-9.31736,-4.14255
-581,-356,-14.3957,6.35889,0,0,0,0,0,0,0,-1,643,1380,-14.3957,-6.35889
-574,-356,-15.4351,6.81555,0,0,0,0,0,0,0,-1,650,1380,-15.4351,-6.81557
-567,-356,-15.4159,7.39136,0.00403052,0.00139493,0.0015268,0.00472958,0.000695875,0.42937,0.00294859,0.0192868,657,1380,-15.4159,-7.39131
-560,-356,-15.3839,7.98206,0.0032515,0.00105857,0.00127875,0.00383951,0.000470566,0.430997,0.00241813,0.0165758,664,1380,-15.3839,-7.98205
-553,-356,-15.4167,8.54163,0.00279461,0.000812796,0.00115182,0.0033231,0.000284299,0.430178,0.00212698,0.0195161,671,1380,-15.4167,-8.54165
-546,-356,-15.4607,9.08167,0.0025822,0.000603675,0.00108256,0.00305942,0.000126456,0.415199,0.0019988,0.0223363,678,1380,-15.4607,-9.08169
-539,-356,-15.4596,9.6333,0.00258683,0.000420187,0.00107401,0.00302899,-2.19673e-05,0.39054,0.00202669,0.0159333,685,1380,-15.4596,-9.63326
-532,-356,-15.4644,10.189,0.0028059,0.000284554,0.0011422,0.00324638,-0.000155928,0.368068,0.00221806,0.0149485,692,1380,-15.4644,-10.1889
-525,-356,-15.4753,10.7356,0.00323641,0.00019172,0.00129349,0.00371172,-0.000283593,0.35215,0.00257422,0.013022,699,1380,-15.4754,-10.7355
-518,-356,-15.4595,11.3011,0.00386388,0.00019533,0.00151167,0.00440651,-0.000347307,0.344639,0.00306002,0.0131783,706,1380,-15.4595,-11.3012
-511,-356,-15.3496,11.9469,0,0,0,0,0,0,0,-1,713,1380,-15.3496,-11.9469
-504,-356,-14.3925,12.3971,0,0,0,0,0,0,0,-1,720,1380,-14.3925,-12.3971
-497,-356,-5.68604,4.96387,0,0,0,0,0,0,0,-1,727,1380,-5.68605,-4.96385
-490,-356,-7.95288,5.5625,0,0,0,0,0,0,0,-1,734,1380,-7.95285,-5.56246
-483,-356,-7.2627,4.07446,0,0,0,0,0,0,0,-1,741,1380,-7.2627,-4.07441
-476,-356,-5.1936,4.16016,0,0,0,0,0,0,0,-1,748,1380,-5.1936,-4.16012
-469,-356,-10.0883,0.536011,0,0,0,0,0,0,0,-1,755,1380,-10.0883,-0.535989
-462,-356,-12.3481,-0.215698,0,0,0,0,0,0,0,-1,762,1380,-12.3481,0.215641
-455,-356,-13.1367,-0.264648,0,0,0,0,0,0,0,-1,769,1380,-13.1367,0.264647
-448,-356,-13.9116,-0.310181,0,0,0,0,0,0,0,-1,776,1380,-13.9115,0.310207
-441,-356,-13.1602,3.05603,0,0,0,0,0,0,0,-1,783,1380,-13.1602,-3.05609
-434,-356,0,0,0,0,0,0,0,0,0,-1,790,1380,0,0
-427,-356,0,0,0,0,0,0,0,0,0,-1,797,1380,0,0
-420,-356,0,0,0,0,0,0,0,0,0,-1,804,1380,0,0
-413,-356,0,0,0,0,0,0,0,0,0,-1,811,1380,0,0
-406,-356,0,0,0,0,0,0,0,0,0,-1,818,1380,0,0
-399,-356,0,0,0,0,0,0,0,0,0,-1,825,1380,0,0
-392,-356,0,0,0,0,0,0,0,0,0,-1,832,1380,0,0
-385,-356,0,0,0,0,0,0,0,0,0,-1,839,1380,0,0
-378,-356,0,0,0,0,0,0,0,0,0,-1,846,1380,0,0
-371,-356,0,0,0,0,0,0,0,0,0,-1,853,1380,0,0
-364,-356,0,0,0,0,0,0,0,0,0,-1,860,1380,0,0
-357,-356,0,0,0,0,0,0,0,0,0,-1,867,1380,0,0
-350,-356,0,0,0,0,0,0,0,0,0,-1,874,1380,0,0
-343,-356,0,0,0,0,0,0,0,0,0,-1,881,1380,0,0
-336,-356,0,0,0,0,0,0,0,0,0,-1,888,1380,0,0
-329,-356,0,0,0,0,0,0,0,0,0,-1,895,1380,0,0
-322,-356,0,0,0,0,0,0,0,0,0,-1,902,1380,0,0
-315,-356,0,0,0,0,0,0,0,0,0,-1,909,1380,0,0
-308,-356,0,0,0,0,0,0,0,0,0,-1,916,1380,0,0
-301,-356,0,0,0,0,0,0,0,0,0,-1,923,1380,0,0
-294,-356,0,0,0,0,0,0,0,0,0,-1,930,1380,0,0
-287,-356,0,0,0,0,0,0,0,0,0,-1,937,1380,0,0
-280,-356,0,0,0,0,0,0,0,0,0,-1,944,1380,0,0
-273,-356,0,0,0,0,0,0,0,0,0,-1,951,1380,0,0
-266,-356,0,0,0,0,0,0,0,0,0,-1,958,1380,0,0
-259,-356,0,0,0,0,0,0,0,0,0,-1,965,1380,0,0
-252,-356,0,0,0,0,0,0,0,0,0,-1,972,1380,0,0
-245,-356,0,0,0,0,0,0,0,0,0,-1,979,1380,0,0
-238,-356,0,0,0,0,0,0,0,0,0,-1,986,1380,0,0
-231,-356,0,0,0,0,0,0,0,0,0,-1,993,1380,0,0
-224,-356,0,0,0,0,0,0,0,0,0,-1,1000,1380,0,0
-217,-356,0,0,0,0,0,0,0,0,0,-1,1007,1380,0,0
-210,-356,0,0,0,0,0,0,0,0,0,-1,1014,1380,0,0
-203,-356,0,0,0,0,0,0,0,0,0,-1,1021,1380,0,0
-196,-356,0,0,0,0,0,0,0,0,0,-1,1028,1380,0,0
-189,-356,0,0,0,0,0,0,0,0,0,-1,1035,1380,0,0
-182,-356,0,0,0,0,0,0,0,0,0,-1,1042,1380,0,0
-175,-356,0,0,0,0,0,0,0,0,0,-1,1049,1380,0,0
-168,-356,0,0,0,0,0,0,0,0,0,-1,1056,1380,0,0
-161,-356,0,0,0,0,0,0,0,0,0,-1,1063,1380,0,0
-154,-356,0,0,0,0,0,0,0,0,0,-1,1070,1380,0,0
-147,-356,0,0,0,0,0,0,0,0,0,-1,1077,1380,0,0
-140,-356,0,0,0,0,0,0,0,0,0,-1,1084,1380,0,0
-133,-356,0,0,0,0,0,0,0,0,0,-1,1091,1380,0,0
-126,-356,0,0,0,0,0,0,0,0,0,-1,1098,1380,0,0
-119,-356,0,0,0,0,0,0,0,0,0,-1,1105,1380,0,0
-112,-356,0,0,0,0,0,0,0,0,0,-1,1112,1380,0,0
-105,-356,0,0,0,0,0,0,0,0,0,-1,1119,1380,0,0
-98,-356,0,0,0,0,0,0,0,0,0,-1,1126,1380,0,0
-91,-356,0,0,0,0,0,0,0,0,0,-1,1133,1380,0,0
-84,-356,0,0,0,0,0,0,0,0,0,-1,1140,1380,0,0
-77,-356,0,0,0,0,0,0,0,0,0,-1,1147,1380,0,0
-70,-356,0,0,0,0,0,0,0,0,0,-1,1154,1380,0,0
-63,-356,0,0,0,0,0,0,0,0,0,-1,1161,1380,0,0
-56,-356,0,0,0,0,0,0,0,0,0,-1,1168,1380,0,0
-49,-356,0,0,0,0,0,0,0,0,0,-1,1175,1380,0,0
-42,-356,0,0,0,0,0,0,0,0,0,-1,1182,1380,0,0
-35,-356,0,0,0,0,0,0,0,0,0,-1,1189,1380,0,0
-28,-356,0,0,0,0,0,0,0,0,0,-1,1196,1380,0,0
-21,-356,0,0,0,0,0,0,0,0,0,-1,1203,1380,0,0
-14,-356,0,0,0,0,0,0,0,0,0,-1,1210,1380,0,0
-7,-356,0,0,0,0,0,0,0,0,0,-1,1217,1380,0,0
0,-356,0,0,0,0,0,0,0,0,0,-1,1224,1380,0,0
7,-356,0,0,0,0,0,0,0,0,0,-1,1231,1380,0,0
14,-356,0,0,0,0,0,0,0,0,0,-1,1238,1380,0,0
21,-356,0,0,0,0,0,0,0,0,0,-1,1245,1380,0,0
28,-356,0,0,0,0,0,0,0,0,0,-1,1252,1380,0,0
35,-356,0,0,0,0,0,0,0,0,0,-1,1259,1380,0,0
42,-356,0,0,0,0,0,0,0,0,0,-1,1266,1380,0,0
49,-356,0,0,0,0,0,0,0,0,0,-1,1273,1380,0,0
56,-356,0,0,0,0,0,0,0,0,0,-1,1280,1380,0,0
63,-356,0,0,0,0,0,0,0,0,0,-1,1287,1380,0,0
70,-356,0,0,0,0,0,0,0,0,0,-1,1294,1380,0,0
77,-356,0,0,0,0,0,0,0,0,0,-1,1301,1380,0,0
84,-356,0,0,0,0,0,0,0,0,0,-1,1308,1380,0,0
91,-356,0,0,0,0,0,0,0,0,0,-1,1315,1380,0,0
98,-356,0,0,0,0,0,0,0,0,0,-1,1322,1380,0,0
105,-356,0,0,0,0,0,0,0,0,0,-1,1329,1380,0,0
112,-356,0,0,0,0,0,0,0,0,0,-1,1336,1380,0,0
119,-356,0,0,0,0,0,0,0,0,0,-1,1343,1380,0,0
126,-356,0,0,0,0,0,0,0,0,0,-1,1350,1380,0,0
133,-356,0,0,0,0,0,0,0,0,0,-1,1357,1380,0,0
140,-356,0,0,0,0,0,0,0,0,0,-1,1364,1380,0,0
147,-356,0,0,0,0,0,0,0,0,0,-1,1371,1380,0,0
154,-356,0,0,0,0,0,0,0,0,0,-1,1378,1380,0,0
161,-356,0,0,0,0,0,0,0,0,0,-1,1385,1380,0,0
168,-356,0,0,0,0,0,0,0,0,0,-1,1392,1380,0,0
175,-356,0,0,0,0,0,0,0,0,0,-1,1399,1380,0,0
182,-356,0,0,0,0,0,0,0,0,0,-1,1406,1380,0,0
189,-356,0,0,0,0,0,0,0,0,0,-1,1413,1380,0,0
196,-356,0,0,0,0,0,0,0,0,0,-1,1420,1380,0,0
203,-356,0,0,0,0,0,0,0,0,0,-1,1427,1380,0,0
210,-356,0,0,0,0,0,0,0,0,0,-1,1434,1380,0,0
217,-356,0,0,0,0,0,0,0,0,0,-1,1441,1380,0,0
224,-356,0,0,0,0,0,0,0,0,0,-1,1448,1380,0,0
231,-356,0,0,0,0,0,0,0,0,0,-1,1455,1380,0,0
238,-356,0,0,0,0,0,0,0,0,0,-1,1462,1380,0,0
245,-356,0,0,0,0,0,0,0,0,0,-1,1469,1380,0,0
252,-356,0,0,0,0,0,0,0,0,0,-1,1476,1380,0,0
259,-356,0,0,0,0,0,0,0,0,0,-1,1483,1380,0,0
266,-356,0,0,0,0,0,0,0,0,0,-1,1490,1380,0,0
273,-356,0,0,0,0,0,0,0,0,0,-1,1497,1380,0,0
280,-356,0,0,0,0,0,0,0,0,0,-1,1504,1380,0,0
287,-356,0,0,0,0,0,0,0,0,0,-1,1511,1380,0,0
294,-356,0,0,0,0,0,0,0,0,0,-1,1518,1380,0,0
301,-356,0,0,0,0,0,0,0,0,0,-1,1525,1380,0,0
308,-356,0,0,0,0,0,0,0,0,0,-1,1532,1380,0,0
315,-356,0,0,0,0,0,0,0,0,0,-1,1539,1380,0,0
322,-356,0,0,0,0,0,0,0,0,0,-1,1546,1380,0,0
329,-356,0,0,0,0,0,0,0,0,0,-1,1553,1380,0,0
336,-356,0,0,0,0,0,0,0,0,0,-1,1560,1380,0,0
343,-356,0,0,0,0,0,0,0,0,0,-1,1567,1380,0,0
350,-356,0,0,0,0,0,0,0,0,0,-1,1574,1380,0,0
357,-356,0,0,0,0,0,0,0,0,0,-1,1581,1380,0,0
364,-356,0,0,0,0,0,0,0,0,0,-1,1588,1380,0,0
371,-356,0,0,0,0,0,0,0,0,0,-1,1595,1380,0,0
378,-356,0,0,0,0,0,0,0,0,0,-1,1602,1380,0,0
385,-356,0,0,0,0,0,0,0,0,0,-1,1609,1380,0,0
392,-356,0,0,0,0,0,0,0,0,0,-1,1616,1380,0,0
399,-356,0,0,0,0,0,0,0,0,0,-1,1623,1380,0,0
406,-356,0,0,0,0,0,0,0,0,0,-1,1630,1380,0,0
413,-356,0,0,0,0,0,0,0,0,0,-1,1637,1380,0,0
420,-356,0,0,0,0,0,0,0,0,0,-1,1644,1380,0,0
427,-356,0,0,0,0,0,0,0,0,0,-1,1651,1380,0,0
434,-356,0,0,0,0,0,0,0,0,0,-1,1658,1380,0,0
441,-356,0,0,0,0,0,0,0,0,0,-1,1665,1380,0,0
448,-356,0,0,0,0,0,0,0,0,0,-1,1672,1380,0,0
455,-356,0,0,0,0,0,0,0,0,0,-1,1679,1380,0,0
462,-356,0,0,0,0,0,0,0,0,0,-1,1686,1380,0,0
469,-356,0,0,0,0,0,0,0,0,0,-1,1693,1380,0,0
476,-356,0,0,0,0,0,0,0,0,0,-1,1700,1380,0,0
483,-356,0,0,0,0,0,0,0,0,0,-1,1707,1380,0,0
490,-356,0,0,0,0,0,0,0,0,0,-1,1714,1380,0,0
497,-356,0,0,0,0,0,0,0,0,0,-1,1721,1380,0,0
504,-356,0,0,0,0,0,0,0,0,0,-1,1728,1380,0,0
511,-356,0,0,0,0,0,0,0,0,0,-1,1735,1380,0,0
518,-356,0,0,0,0,0,0,0,0,0,-1,1742,1380,0,0
525,-356,0,0,0,0,0,0,0,0,0,-1,1749,1380,0,0
532,-356,0,0,0,0,0,0,0,0,0,-1,1756,1380,0,0
539,-356,0,0,0,0,0,0,0,0,0,-1,1763,1380,0,0
546,-356,0,0,0,0,0,0,0,0,0,-1,1770,1380,0,0
553,-356,0,0,0,0,0,0,0,0,0,-1,1777,1380,0,0
560,-356,45.7938,3.65295,0,0,0,0,0,0,0,-1,1784,1380,45.7938,-3.65294
567,-356,45.6788,3.51428,0,0,0,0,0,0,0,-1,1791,1380,45.6788,-3.51422
574,-356,45.5742,3.39575,0,0,0,0,0,0,0,-1,1798,1380,45.5742,-3.39574
581,-356,45.6708,3.64172,0,0,0,0,0,0,0,-1,1805,1380,45.6707,-3.64175
588,-356,44.4739,4.87085,0,0,0,0,0,0,0,-1,1812,1380,44.4739,-4.87086
595,-356,32.0834,5.86084,0,0,0,0,0,0,0,-1,1819,1380,32.0834,-5.86079
602,-356,30.1604,6.07104,0,0,0,0,0,0,0,-1,1826,1380,30.1604,-6.07104
609,-356,28.3435,6.48901,0,0,0,0,0,0,0,-1,1833,1380,28.3435,-6.48899
616,-356,26.9358,6.80872,0,0,0,0,0,0,0,-1,1840,1380,26.9358,-6.80877
623,-356,16.1803,1.07532,0,0,0,0,0,0,0,-1,1847,1380,16.1803,-1.07529
630,-356,16.4138,6.91553,0,0,0,0,0,0,0,-1,1854,1380,16.4138,-6.9155
637,-356,24.8021,12.0151,0,0,0,0,0,0,0,-1,1861,1380,24.8022,-12.0151
644,-356,29.7853,13.7222,0,0,0,0,0,0,0,-1,1868,1380,29.7853,-13.7222
651,-356,29.8564,13.0651,-0.000185349,0.00077928,-0.0011115,0.0015086,-0.000914673,-0.990103,0.00141302,0.0187125,1875,1380,29.8565,-13.0651
658,-356,29.8022,12.5282,0.000119441,0.000420894,-0.00060702,0.000895621,-0.000355286,-0.90709,0.000744332,0.0145353,1882,1380,29.8023,-12.5282
665,-356,29.7817,12.0917,0.000530988,0.000119863,-0.000265603,0.000661284,-1.04333e-05,-0.456073,0.000444375,0.0144537,1889,1380,29.7818,-12.0917
672,-356,29.7494,11.6453,0.000986997,-0.00010481,4.56087e-08,0.000986997,-0.00010481,4.17736e-05,0.000695572,0.0153892,1896,1380,29.7494,-11.6453
679,-356,29.7535,11.1367,0.00151061,-0.000263302,0.000172761,0.00152728,-0.00027997,0.0961851,0.0011232,0.0178279,1903,1380,29.7535,-11.1368
686,-356,29.7611,10.6074,0.00209066,-0.000350247,0.000263115,0.0021187,-0.000378288,0.106169,0.00155398,0.0176996,1910,1380,29.7611,-10.6074
693,-356,29.7562,10.158,0.00271097,-0.000384185,0.000288287,0.0027376,-0.000410807,0.0920858,0.00197628,0.0148058,1917,1380,29.7563,-10.1579
700,-356,29.7584,9.67419,0.00339103,-0.000289169,0.000222678,0.00340445,-0.000302594,0.0602144,0.00237693,0.0214695,1924,1380,29.7584,-9.67418
707,-356,29.8322,9.17993,0,0,0,0,0,0,0,-1,1931,1380,29.8322,-9.17998
714,-356,19.6907,5.82129,0,0,0,0,0,0,0,-1,1938,1380,19.6907,-5.82132
721,-356,17.2948,4.1958,0,0,0,0,0,0,0,-1,1945,1380,17.2948,-4.19584
728,-356,19.1846,2.31519,0,0,0,0,0,0,0,-1,1952,1380,19.1846,-2.31514
735,-356,20.0731,2.50842,0,0,0,0,0,0,0,-1,1959,1380,20.0731,-2.50844
742,-356,21.0111,2.43762,0,0,0,0,0,0,0,-1,1966,1380,21.0112,-2.43762
749,-356,22.1411,1.83276,0,0,0,0,0,0,0,-1,1973,1380,22.1411,-1.83275
756,-356,0,0,0,0,0,0,0,0,0,-1,1980,1380,0,0
763,-356,0,0,0,0,0,0,0,0,0,-1,1987,1380,0,0
770,-356,0,0,0,0,0,0,0,0,0,-1,1994,1380,0,0
777,-356,0,0,0,0,0,0,0,0,0,-1,2001,1380,0,0
784,-356,0,0,0,0,0,0,0,0,0,-1,2008,1380,0,0
791,-356,0,0,0,0,0,0,0,0,0,-1,2015,1380,0,0
798,-356,0,0,0,0,0,0,0,0,0,-1,2022,1380,0,0
805,-356,0,0,0,0,0,0,0,0,0,-1,2029,1380,0,0
812,-356,0,0,0,0,0,0,0,0,0,-1,2036,1380,0,0
-700,-363,0,0,0,0,0,0,0,0,0,-1,524,1387,0,0
-693,-363,0,0,0,0,0,0,0,0,0,-1,531,1387,0,0
-686,-363,0,0,0,0,0,0,0,0,0,-1,538,1387,0,0
-679,-363,0,0,0,0,0,0,0,0,0,-1,545,1387,0,0
-672,-363,0,0,0,0,0,0,0,0,0,-1,552,1387,0,0
-665,-363,0,0,0,0,0,0,0,0,0,-1,559,1387,0,0
-658,-363,0,0,0,0,0,0,0,0,0,-1,566,1387,0,0
-651,-363,0,0,0,0,0,0,0,0,0,-1,573,1387,0,0
-644,-363,0,0,0,0,0,0,0,0,0,-1,580,1387,0,0
-637,-363,0,0,0,0,0,0,0,0,0,-1,587,1387,0,0
-630,-363,0,0,0,0,0,0,0,0,0,-1,594,1387,0,0
-623,-363,-9.67566,-5.91846,0,0,0,0,0,0,0,-1,601,1387,-9.67563,5.91847
-616,-363,-9.02985,-2.98083,0,0,0,0,0,0,0,-1,608,1387,-9.02987,2.98079
-609,-363,-4.90265,0.195679,0,0,0,0,0,0,0,-1,615,1387,-4.90263,-0.195721
-602,-363,-9.65009,3.5321,0,0,0,0,0,0,0,-1,622,1387,-9.65007,-3.53211
-595,-363,-8.00256,3.48853,0,0,0,0,0,0,0,-1,629,1387,-8.00256,-3.48855
-588,-363,-10.8846,4.49768,0,0,0,0,0,0,0,-1,636,1387,-10.8846,-4.49773
-581,-363,-11.7469,5.15161,0,0,0,0,0,0,0,-1,643,1387,-11.747,-5.15167
-574,-363,-14.7745,6.76965,0,0,0,0,0,0,0,-1,650,1387,-14.7745,-6.7697
-567,-363,-14.8505,7.46436,0.00415783,0.00127362,0.00168903,0.00493664,0.000494805,0.432048,0.00313919,0.0411673,657,1387,-14.8505,-7.46434
-560,-363,-14.843,7.974,0.00334216,0.000950438,0.00136627,0.00396201,0.000330597,0.425905,0.00253832,0.0133265,664,1387,-14.843,-7.97402
-553,-363,-14.8559,8.55554,0.00284783,0.000749172,0.00120085,0.00339321,0.000203784,0.426317,0.00219737,0.0131656,671,1387,-14.8559,-8.55555
-546,-363,-14.8774,9.09338,0.00256513,0.000580448,0.00108493,0.0030431,0.000102479,0.41497,0.00199545,0.0134816,678,1387,-14.8774,-9.09337
-539,-363,-14.8585,9.6405,0.00248195,0.000448127,0.00103233,0.00291412,1.59635e-05,0.396461,0.00193745,0.0156608,685,1387,-14.8585,-9.6405
-532,-363,-14.9031,10.2052,0.00259142,0.000372384,0.00106909,0.00302267,-5.88677e-05,0.38342,0.00203502,0.013507,692,1387,-14.9032,-10.2053
-525,-363,-14.921,10.7466,0.00293488,0.00041207,0.00125351,0.0034518,-0.000104846,0.391129,0.00233693,0.0115699,699,1387,-14.921,-10.7466
-518,-363,-14.9139,11.2911,0.00345326,0.000531211,0.00152142,0.00410157,-0.000117101,0.402823,0.00277424,0.0101885,706,1387,-14.9139,-11.2911
-511,-363,-14.8694,11.8986,0.00422782,0.000735137,0.00194417,0.00509481,-0.000131857,0.419476,0.00344134,0.025874,713,1387,-14.8694,-11.8985
-504,-363,-14.7962,12.5424,0,0,0,0,0,0,0,-1,720,1387,-14.7962,-12.5423
-497,-363,-7.18842,7.29944,0,0,0,0,0,0,0,-1,727,1387,-7.18839,-7.29945
-490,-363,-5.42413,4.6958,0,0,0,0,0,0,0,-1,734,1387,-5.42412,-4.69583
-483,-363,-6.28375,4.1394,0,0,0,0,0,0,0,-1,741,1387,-6.28374,-4.13944
-476,-363,-5.83807,4.31018,0,0,0,0,0,0,0,-1,748,1387,-5.8381,-4.31013
-469,-363,-10.7125,0.697754,0,0,0,0,0,0,0,-1,755,1387,-10.7125,-0.697811
-462,-363,-9.55951,-0.0830078,0,0,0,0,0,0,0,-1,762,1387,-9.55949,0.0830163
-455,-363,-13.1008,-0.290894,0,0,0,0,0,0,0,-1,769,1387,-13.1008,0.290921
-448,-363,-11.7324,2.46606,0,0,0,0,0,0,0,-1,776,1387,-11.7324,-2.46605
-441,-363,-12.4464,2.5354,0,0,0,0,0,0,0,-1,783,1387,-12.4463,-2.53537
-434,-363,-13.6918,2.14661,0,0,0,0,0,0,0,-1,790,1387,-13.6918,-2.14662
-427,-363,0,0,0,0,0,0,0,0,0,-1,797,1387,0,0
-420,-363,0,0,0,0,0,0,0,0,0,-1,804,1387,0,0
-413,-363,0,0,0,0,0,0,0,0,0,-1,811,1387,0,0
-406,-363,0,0,0,0,0,0,0,0,0,-1,818,1387,0,0
-399,-363,0,0,0,0,0,0,0,0,0,-1,825,1387,0,0
-392,-363,0,0,0,0,0,0,0,0,0,-1,832,1387,0,0
-385,-363,0,0,0,0,0,0,0,0,0,-1,839,1387,0,0
-378,-363,0,0,0,0,0,0,0,0,0,-1,846,1387,0,0
-371,-363,0,0,0,0,0,0,0,0,0,-1,853,1387,0,0
-364,-363,0,0,0,0,0,0,0,0,0,-1,860,1387,0,0
-357,-363,0,0,0,0,0,0,0,0,0,-1,867,1387,0,0
-350,-363,0,0,0,0,0,0,0,0,0,-1,874,1387,0,0
-343,-363,0,0,0,0,0,0,0,0,0,-1,881,1387,0,0
-336,-363,0,0,0,0,0,0,0,0,0,-1,888,1387,0,0
-329,-363,0,0,0,0,0,0,0,0,0,-1,895,1387,0,0
-322,-363,0,0,0,0,0,0,0,0,0,-1,902,1387,0,0
-315,-363,0,0,0,0,0,0,0,0,0,-1,909,1387,0,0
-308,-363,0,0,0,0,0,0,0,0,0,-1,916,1387,0,0
-301,-363,0,0,0,0,0,0,0,0,0,-1,923,1387,0,0
-294,-363,0,0,0,0,0,0,0,0,0,-1,930,1387,0,0
-287,-363,0,0,0,0,0,0,0,0,0,-1,937,1387,0,0
-280,-363,0,0,0,0,0,0,0,0,0,-1,944,1387,0,0
-273,-363,0,0,0,0,0,0,0,0,0,-1,951,1387,0,0
-266,-363,0,0,0,0,0,0,0,0,0,-1,958,1387,0,0
-259,-363,0,0,0,0,0,0,0,0,0,-1,965,1387,0,0
-252,-363,0,0,0,0,0,0,0,0,0,-1,972,1387,0,0
-245,-363,0,0,0,0,0,0,0,0,0,-1,979,1387,0,0
-238,-363,0,0,0,0,0,0,0,0,0,-1,986,1387,0,0
-231,-363,0,0,0,0,0,0,0,0,0,-1,993,1387,0,0
-224,-363,0,0,0,0,0,0,0,0,0,-1,1000,1387,0,0
-217,-363,0,0,0,0,0,0,0,0,0,-1,1007,1387,0,0
-210,-363,0,0,0,0,0,0,0,0,0,-1,1014,1387,0,0
-203,-363,0,0,0,0,0,0,0,0,0,-1,1021,1387,0,0
-196,-363,0,0,0,0,0,0,0,0,0,-1,1028,1387,0,0
-189,-363,0,0,0,0,0,0,0,0,0,-1,1035,1387,0,0
-182,-363,0,0,0,0,0,0,0,0,0,-1,1042,1387,0,0
-175,-363,0,0,0,0,0,0,0,0,0,-1,1049,1387,0,0
-168,-363,0,0,0,0,0,0,0,0,0,-1,1056,1387,0,0
-161,-363,0,0,0,0,0,0,0,0,0,-1,1063,1387,0,0
-154,-363,0,0,0,0,0,0,0,0,0,-1,1070,1387,0,0
-147,-363,0,0,0,0,0,0,0,0,0,-1,1077,1387,0,0
-140,-363,0,0,0,0,0,0,0,0,0,-1,1084,1387,0,0
-133,-363,0,0,0,0,0,0,0,0,0,-1,1091,1387,0,0
-126,-363,0,0,0,0,0,0,0,0,0,-1,1098,1387,0,0
-119,-363,0,0,0,0,0,0,0,0,0,-1,1105,1387,0,0
-112,-363,0,0,0,0,0,0,0,0,0,-1,1112,1387,0,0
-105,-363,0,0,0,0,0,0,0,0,0,-1,1119,1387,0,0
-98,-363,0,0,0,0,0,0,0,0,0,-1,1126,1387,0,0
-91,-363,0,0,0,0,0,0,0,0,0,-1,1133,1387,0,0
-84,-363,0,0,0,0,0,0,0,0,0,-1,1140,1387,0,0
-77,-363,0,0,0,0,0,0,0,0,0,-1,1147,1387,0,0
-70,-363,0,0,0,0,0,0,0,0,0,-1,1154,1387,0,0
-63,-363,0,0,0,0,0,0,0,0,0,-1,1161,1387,0,0
-56,-363,0,0,0,0,0,0,0,0,0,-1,1168,1387,0,0
-49,-363,0,0,0,0,0,0,0,0,0,-1,1175,1387,0,0
-42,-363,0,0,0,0,0,0,0,0,0,-1,1182,1387,0,0
-35,-363,0,0,0,0,0,0,0,0,0,-1,1189,1387,0,0
-28,-363,0,0,0,0,0,0,0,0,0,-1,1196,1387,0,0
-21,-363,0,0,0,0,0,0,0,0,0,-1,1203,1387,0,0
-14,-363,0,0,0,0,0,0,0,0,0,-1,1210,1387,0,0
-7,-363,0,0,0,0,0,0,0,0,0,-1,1217,1387,0,0
0,-363,0,0,0,0,0,0,0,0,0,-1,1224,1387,0,0
7,-363,0,0,0,0,0,0,0,0,0,-1,1231,1387,0,0
14,-363,0,0,0,0,0,0,0,0,0,-1,1238,1387,0,0
21,-363,0,0,0,0,0,0,0,0,0,-1,1245,1387,0,0
28,-363,0,0,0,0,0,0,0,0,0,-1,1252,1387,0,0
35,-363,0,0,0,0,0,0,0,0,0,-1,1259,1387,0,0
42,-363,0,0,0,0,0,0,0,0,0,-1,1266,1387,0,0
49,-363,0,0,0,0,0,0,0,0,0,-1,1273,1387,0,0
56,-363,0,0,0,0,0,0,0,0,0,-1,1280,1387,0,0
63,-363,0,0,0,0,0,0,0,0,0,-1,1287,1387,0,0
70,-363,0,0,0,0,0,0,0,0,0,-1,1294,1387,0,0
77,-363,0,0,0,0,0,0,0,0,0,-1,1301,1387,0,0
84,-363,0,0,0,0,0,0,0,0,0,-1,1308,1387,0,0
91,-363,0,0,0,0,0,0,0,0,0,-1,1315,1387,0,0
98,-363,0,0,0,0,0,0,0,0,0,-1,1322,1387,0,0
105,-363,0,0,0,0,0,0,0,0,0,-1,1329,1387,0,0
112,-363,0,0,0,0,0,0,0,0,0,-1,1336,1387,0,0
119,-363,0,0,0,0,0,0,0,0,0,-1,1343,1387,0,0
126,-363,0,0,0,0,0,0,0,0,0,-1,1350,1387,0,0
133,-363,0,0,0,0,0,0,0,0,0,-1,1357,1387,0,0
140,-363,0,0,0,0,0,0,0,0,0,-1,1364,1387,0,0
147,-363,0,0,0,0,0,0,0,0,0,-1,1371,1387,0,0
154,-363,0,0,0,0,0,0,0,0,0,-1,1378,1387,0,0
161,-363,0,0,0,0,0,0,0,0,0,-1,1385,1387,0,0
168,-363,0,0,0,0,0,0,0,0,0,-1,1392,1387,0,0
175,-363,0,0,0,0,0,0,0,0,0,-1,1399,1387,0,0
182,-363,0,0,0,0,0,0,0,0,0,-1,1406,1387,0,0
189,-363,0,0,0,0,0,0,0,0,0,-1,1413,1387,0,0
196,-363,0,0,0,0,0,0,0,0,0,-1,1420,1387,0,0
203,-363,0,0,0,0,0,0,0,0,0,-1,1427,1387,0,0
210,-363,0,0,0,0,0,0,0,0,0,-1,1434,1387,0,0
217,-363,0,0,0,0,0,0,0,0,0,-1,1441,1387,0,0
224,-363,0,0,0,0,0,0,0,0,0,-1,1448,1387,0,0
231,-363,0,0,0,0,0,0,0,0,0,-1,1455,1387,0,0
238,-363,0,0,0,0,0,0,0,0,0,-1,1462,1387,0,0
245,-363,0,0,0,0,0,0,0,0,0,-1,1469,1387,0,0
252,-363,0,0,0,0,0,0,0,0,0,-1,1476,1387,0,0
259,-363,0,0,0,0,0,0,0,0,0,-1,1483,1387,0,0
266,-363,0,0,0,0,0,0,0,0,0,-1,1490,1387,0,0
273,-363,0,0,0,0,0,0,0,0,0,-1,1497,1387,0,0
280,-363,0,0,0,0,0,0,0,0,0,-1,1504,1387,0,0
287,-363,0,0,0,0,0,0,0,0,0,-1,1511,1387,0,0
294,-363,0,0,0,0,0,0,0,0,0,-1,1518,1387,0,0
301,-363,0,0,0,0,0,0,0,0,0,-1,1525,1387,0,0
308,-363,0,0,0,0,0,0,0,0,0,-1,1532,1387,0,0
315,-363,0,0,0,0,0,0,0,0,0,-1,1539,1387,0,0
322,-363,0,0,0,0,0,0,0,0,0,-1,1546,1387,0,0
329,-363,0,0,0,0,0,0,0,0,0,-1,1553,1387,0,0
336,-363,0,0,0,0,0,0,0,0,0,-1,1560,1387,0,0
343,-363,0,0,0,0,0,0,0,0,0,-1,1567,1387,0,0
350,-363,0,0,0,0,0,0,0,0,0,-1,1574,1387,0,0
357,-363,0,0,0,0,0,0,0,0,0,-1,1581,1387,0,0
364,-363,0,0,0,0,0,0,0,0,0,-1,1588,1387,0,0
371,-363,0,0,0,0,0,0,0,0,0,-1,1595,1387,0,0
378,-363,0,0,0,0,0,0,0,0,0,-1,1602,1387,0,0
385,-363,0,0,0,0,0,0,0,0,0,-1,1609,1387,0,0
392,-363,0,0,0,0,0,0,0,0,0,-1,1616,1387,0,0
399,-363,0,0,0,0,0,0,0,0,0,-1,1623,1387,0,0
406,-363,0,0,0,0,0,0,0,0,0,-1,1630,1387,0,0
413,-363,0,0,0,0,0,0,0,0,0,-1,1637,1387,0,0
420,-363,0,0,0,0,0,0,0,0,0,-1,1644,1387,0,0
427,-363,0,0,0,0,0,0,0,0,0,-1,1651,1387,0,0
434,-363,0,0,0,0,0,0,0,0,0,-1,1658,1387,0,0
441,-363,0,0,0,0,0,0,0,0,0,-1,1665,1387,0,0
448,-363,0,0,0,0,0,0,0,0,0,-1,1672,1387,0,0
455,-363,0,0,0,0,0,0,0,0,0,-1,1679,1387,0,0
462,-363,0,0,0,0,0,0,0,0,0,-1,1686,1387,0,0
469,-363,0,0,0,0,0,0,0,0,0,-1,1693,1387,0,0
476,-363,0,0,0,0,0,0,0,0,0,-1,1700,1387,0,0
483,-363,0,0,0,0,0,0,0,0,0,-1,1707,1387,0,0
490,-363,0,0,0,0,0,0,0,0,0,-1,1714,1387,0,0
497,-363,0,0,0,0,0,0,0,0,0,-1,1721,1387,0,0
504,-363,0,0,0,0,0,0,0,0,0,-1,1728,1387,0,0
511,-363,0,0,0,0,0,0,0,0,0,-1,1735,1387,0,0
518,-363,0,0,0,0,0,0,0,0,0,-1,1742,1387,0,0
525,-363,0,0,0,0,0,0,0,0,0,-1,1749,1387,0,0
532,-363,0,0,0,0,0,0,0,0,0,-1,1756,1387,0,0
539,-363,0,0,0,0,0,0,0,0,0,-1,1763,1387,0,0
546,-363,0,0,0,0,0,0,0,0,0,-1,1770,1387,0,0
553,-363,45.9076,3.64331,0,0,0,0,0,0,0,-1,1777,1387,45.9076,-3.64336
560,-363,45.9459,3.6875,0,0,0,0,0,0,0,-1,1784,1387,45.9459,-3.68756
567,-363,45.9266,3.32825,0,0,0,0,0,0,0,-1,1791,1387,45.9266,-3.32824
574,-363,45.7261,2.8075,0,0,0,0,0,0,0,-1,1798,1387,45.7261,-2.80754
581,-363,39.2413,1.97632,0,0,0,0,0,0,0,-1,1805,1387,39.2413,-1.97636
588,-363,32.5608,6.72131,0,0,0,0,0,0,0,-1,1812,1387,32.5608,-6.72131
595,-363,31.4688,6.95435,0,0,0,0,0,0,0,-1,1819,1387,31.4688,-6.95431
602,-363,25.7437,5.33667,0,0,0,0,0,0,0,-1,1826,1387,25.7437,-5.33667
609,-363,27.7048,7.06885,0,0,0,0,0,0,0,-1,1833,1387,27.7048,-7.06882
616,-363,16.229,1.08704,0,0,0,0,0,0,0,-1,1840,1387,16.229,-1.08706
623,-363,15.7283,7.16663,0,0,0,0,0,0,0,-1,1847,1387,15.7282,-7.16665
630,-363,18.3192,9.27844,0,0,0,0,0,0,0,-1,1854,1387,18.3192,-9.27843
637,-363,29.2742,14.29,0,0,0,0,0,0,0,-1,1861,1387,29.2741,-14.2901
644,-363,29.3047,13.6676,0.000404169,0.00149003,-0.0018574,0.00288222,-0.000988025,-0.92759,0.00232198,0.0164157,1868,1387,29.3047,-13.6677
651,-363,29.3108,13.0991,0.000230087,0.000851144,-0.00110181,0.00168534,-0.000604114,-0.922753,0.00137007,0.0112977,1875,1387,29.3108,-13.0991
658,-363,29.2994,12.5861,0.000474138,0.000443318,-0.000594434,0.00105336,-0.000135906,-0.772439,0.000751649,0.0115205,1882,1387,29.2995,-12.5861
665,-363,29.2725,12.1323,0.000813684,9.46208e-05,-0.000198807,0.00086499,4.33151e-05,-0.252557,0.000562778,0.0120759,1889,1387,29.2724,-12.1323
672,-363,29.2505,11.6682,0.0012334,-0.000199043,0.000129254,0.00124496,-0.000210612,0.0892726,0.000908356,0.0144538,1896,1387,29.2505,-11.6682
679,-363,29.2423,11.1671,0.00175631,-0.000401961,0.000353856,0.00181284,-0.000458496,0.158429,0.00138689,0.0162103,1903,1387,29.2423,-11.1671
686,-363,29.2422,10.6477,0.00234476,-0.000557675,0.000507946,0.00243109,-0.000644002,0.168343,0.00187268,0.0150688,1910,1387,29.2421,-10.6477
693,-363,29.2264,10.1409,0.00301982,-0.000649193,0.00056631,0.00310524,-0.000734614,0.149709,0.00235356,0.0128137,1917,1387,29.2264,-10.1409
700,-363,29.3495,9.60425,0.00381433,-0.000572626,0.000497025,0.00386994,-0.000628232,0.111415,0.00281285,0.0244965,1924,1387,29.3495,-9.6043
707,-363,29.6073,9.0968,0,0,0,0,0,0,0,-1,1931,1387,29.6073,-9.09675
714,-363,16.5782,5.3147,0,0,0,0,0,0,0,-1,1938,1387,16.5783,-5.31472
721,-363,14.4045,4.51685,0,0,0,0,0,0,0,-1,1945,1387,14.4045,-4.51685
728,-363,19.9756,0.853027,0,0,0,0,0,0,0,-1,1952,1387,19.9756,-0.853059
735,-363,21.4297,1.2981,0,0,0,0,0,0,0,-1,1959,1387,21.4297,-1.29811
742,-363,21.3621,2.79663,0,0,0,0,0,0,0,-1,1966,1387,21.362,-2.7966
749,-363,0,0,0,0,0,0,0,0,0,-1,1973,1387,0,0
756,-363,0,0,0,0,0,0,0,0,0,-1,1980,1387,0,0
763,-363,0,0,0,0,0,0,0,0,0,-1,1987,1387,0,0
770,-363,0,0,0,0,0,0,0,0,0,-1,1994,1387,0,0
777,-363,0,0,0,0,0,0,0,0,0,-1,2001,1387,0,0
784,-363,0,0,0,0,0,0,0,0,0,-1,2008,1387,0,0
791,-363,0,0,0,0,0,0,0,0,0,-1,2015,1387,0,0
798,-363,0,0,0,0,0,0,0,0,0,-1,2022,1387,0,0
805,-363,0,0,0,0,0,0,0,0,0,-1,2029,1387,0,0
812,-363,0,0,0,0,0,0,0,0,0,-1,2036,1387,0,0
-700,-370,0,0,0,0,0,0,0,0,0,-1,524,1394,0,0
-693,-370,0,0,0,0,0,0,0,0,0,-1,531,1394,0,0
-686,-370,0,0,0,0,0,0,0,0,0,-1,538,1394,0,0
-679,-370,0,0,0,0,0,0,0,0,0,-1,545,1394,0,0
-672,-370,0,0,0,0,0,0,0,0,0,-1,552,1394,0,0
-665,-370,0,0,0,0,0,0,0,0,0,-1,559,1394,0,0
-658,-370,0,0,0,0,0,0,0,0,0,-1,566,1394,0,0
-651,-370,0,0,0,0,0,0,0,0,0,-1,573,1394,0,0
-644,-370,0,0,0,0,0,0,0,0,0,-1,580,1394,0,0
-637,-370,0,0,0,0,0,0,0,0,0,-1,587,1394,0,0
-630,-370,0,0,0,0,0,0,0,0,0,-1,594,1394,0,0
-623,-370,-10.1758,-7.10486,0,0,0,0,0,0,0,-1,601,1394,-10.1758,7.10483
-616,-370,-8.85925,-1.61475,0,0,0,0,0,0,0,-1,608,1394,-8.85925,1.61476
-609,-370,-5.39325,0.0421143,0,0,0,0,0,0,0,-1,615,1394,-5.39328,-0.0421372
-602,-370,-12.3151,3.44592,0,0,0,0,0,0,0,-1,622,1394,-12.3151,-3.44595
-595,-370,-7.53284,5.44214,0,0,0,0,0,0,0,-1,629,1394,-7.53284,-5.44216
-588,-370,-11.2422,4.50598,0,0,0,0,0,0,0,-1,636,1394,-11.2422,-4.50596
-581,-370,-13.1575,5.84888,0,0,0,0,0,0,0,-1,643,1394,-13.1575,-5.84887
-574,-370,-13.0107,6.69861,0,0,0,0,0,0,0,-1,650,1394,-13.0108,-6.69866
-567,-370,-14.2744,7.28369,0,0,0,0,0,0,0,-1,657,1394,-14.2744,-7.28369
-560,-370,-14.3567,7.98315,0.00301605,0.000741724,0.00125845,0.00357501,0.000182765,0.417992,0.00232481,0.025917,664,1394,-14.3567,-7.98321
-553,-370,-14.299,8.57715,0.00252124,0.000600284,0.00108149,0.00300719,0.000114337,0.422296,0.00196779,0.0114199,671,1394,-14.299,-8.57713
-546,-370,-14.2772,9.11707,0.00223064,0.000474855,0.000949043,0.00264557,5.99292e-05,0.412162,0.00174408,0.0149287,678,1394,-14.2772,-9.11709
-539,-370,-14.2788,9.6842,0.00213711,0.00039231,0.000888047,0.00250958,1.98365e-05,0.397143,0.00166648,0.0188824,685,1394,-14.2788,-9.68419
-532,-370,-14.3417,10.2102,0.00223866,0.000366958,0.000928628,0.00262121,-1.55864e-05,0.390762,0.00175269,0.0209264,692,1394,-14.3418,-10.2102
-525,-370,-14.3787,10.7534,0.00258648,0.0004944,0.00115572,0.00309925,-1.83722e-05,0.417586,0.00207232,0.0160507,699,1394,-14.3787,-10.7534
-518,-370,-14.3796,11.2787,0.00313132,0.00077523,0.00153495,0.00388818,1.83714e-05,0.4581,0.00258602,0.0113888,706,1394,-14.3796,-11.2787
-511,-370,-14.3864,11.8588,0.00391657,0.0011844,0.00208538,0.00504347,5.74877e-05,0.495431,0.00334332,0.0148509,713,1394,-14.3863,-11.8588
-504,-370,-14.3934,12.4574,0,0,0,0,0,0,0,-1,720,1394,-14.3934,-12.4574
-497,-370,-12.3546,11.7982,0,0,0,0,0,0,0,-1,727,1394,-12.3546,-11.7983
-490,-370,-5.30695,4.5271,0,0,0,0,0,0,0,-1,734,1394,-5.30698,-4.52704
-483,-370,-6.02997,4.59253,0,0,0,0,0,0,0,-1,741,1394,-6.02994,-4.5925
-476,-370,-6.75293,4.65796,0,0,0,0,0,0,0,-1,748,1394,-6.7529,-4.65795
-469,-370,-10.584,1.14294,0,0,0,0,0,0,0,-1,755,1394,-10.584,-1.14293
-462,-370,-9.54462,0.387207,0,0,0,0,0,0,0,-1,762,1394,-9.5446,-0.387176
-455,-370,-8.50525,-0.36853,0,0,0,0,0,0,0,-1,769,1394,-8.50523,0.368582
-448,-370,-10.9543,2.28833,0,0,0,0,0,0,0,-1,776,1394,-10.9543,-2.28835
-441,-370,-11.8699,1.8313,0,0,0,0,0,0,0,-1,783,1394,-11.8699,-1.83127
-434,-370,-12.7855,1.37415,0,0,0,0,0,0,0,-1,790,1394,-12.7855,-1.37419
-427,-370,0,0,0,0,0,0,0,0,0,-1,797,1394,0,0
-420,-370,0,0,0,0,0,0,0,0,0,-1,804,1394,0,0
-413,-370,0,0,0,0,0,0,0,0,0,-1,811,1394,0,0
-406,-370,0,0,0,0,0,0,0,0,0,-1,818,1394,0,0
-399,-370,0,0,0,0,0,0,0,0,0,-1,825,1394,0,0
-392,-370,0,0,0,0,0,0,0,0,0,-1,832,1394,0,0
-385,-370,0,0,0,0,0,0,0,0,0,-1,839,1394,0,0
-378,-370,0,0,0,0,0,0,0,0,0,-1,846,1394,0,0
-371,-370,0,0,0,0,0,0,0,0,0,-1,853,1394,0,0
-364,-370,0,0,0,0,0,0,0,0,0,-1,860,1394,0,0
-357,-370,0,0,0,0,0,0,0,0,0,-1,867,1394,0,0
-350,-370,0,0,0,0,0,0,0,0,0,-1,874,1394,0,0
-343,-370,0,0,0,0,0,0,0,0,0,-1,881,1394,0,0
-336,-370,0,0,0,0,0,0,0,0,0,-1,888,1394,0,0
-329,-370,0,0,0,0,0,0,0,0,0,-1,895,1394,0,0
-322,-370,0,0,0,0,0,0,0,0,0,-1,902,1394,0,0
-315,-370,0,0,0,0,0,0,0,0,0,-1,909,1394,0,0
-308,-370,0,0,0,0,0,0,0,0,0,-1,916,1394,0,0
-301,-370,0,0,0,0,0,0,0,0,0,-1,923,1394,0,0
-294,-370,0,0,0,0,0,0,0,0,0,-1,930,1394,0,0
-287,-370,0,0,0,0,0,0,0,0,0,-1,937,1394,0,0
-280,-370,0,0,0,0,0,0,0,0,0,-1,944,1394,0,0
-273,-370,0,0,0,0,0,0,0,0,0,-1,951,1394,0,0
-266,-370,0,0,0,0,0,0,0,0,0,-1,958,1394,0,0
-259,-370,0,0,0,0,0,0,0,0,0,-1,965,1394,0,0
-252,-370,0,0,0,0,0,0,0,0,0,-1,972,1394,0,0
-245,-370,0,0,0,0,0,0,0,0,0,-1,979,1394,0,0
-238,-370,0,0,0,0,0,0,0,0,0,-1,986,1394,0,0
-231,-370,0,0,0,0,0,0,0,0,0,-1,993,1394,0,0
-224,-370,0,0,0,0,0,0,0,0,0,-1,1000,1394,0,0
-217,-370,0,0,0,0,0,0,0,0,0,-1,1007,1394,0,0
-210,-370,0,0,0,0,0,0,0,0,0,-1,1014,1394,0,0
-203,-370,0,0,0,0,0,0,0,0,0,-1,1021,1394,0,0
-196,-370,0,0,0,0,0,0,0,0,0,-1,1028,1394,0,0
-189,-370,0,0,0,0,0,0,0,0,0,-1,1035,1394,0,0
-182,-370,0,0,0,0,0,0,0,0,0,-1,1042,1394,0,0
-175,-370,0,0,0,0,0,0,0,0,0,-1,1049,1394,0,0
-168,-370,0,0,0,0,0,0,0,0,0,-1,1056,1394,0,0
-161,-370,0,0,0,0,0,0,0,0,0,-1,1063,1394,0,0
-154,-370,0,0,0,0,0,0,0,0,0,-1,1070,1394,0,0
-147,-370,0,0,0,0,0,0,0,0,0,-1,1077,1394,0,0
-140,-370,0,0,0,0,0,0,0,0,0,-1,1084,1394,0,0
-133,-370,0,0,0,0,0,0,0,0,0,-1,1091,1394,0,0
-126,-370,0,0,0,0,0,0,0,0,0,-1,1098,1394,0,0
-119,-370,0,0,0,0,0,0,0,0,0,-1,1105,1394,0,0
-112,-370,0,0,0,0,0,0,0,0,0,-1,1112,1394,0,0
-105,-370,0,0,0,0,0,0,0,0,0,-1,1119,1394,0,0
-98,-370,0,0,0,0,0,0,0,0,0,-1,1126,1394,0,0
-91,-370,0,0,0,0,0,0,0,0,0,-1,1133,1394,0,0
-84,-370,0,0,0,0,0,0,0,0,0,-1,1140,1394,0,0
-77,-370,0,0,0,0,0,0,0,0,0,-1,1147,1394,0,0
-70,-370,0,0,0,0,0,0,0,0,0,-1,1154,1394,0,0
-63,-370,0,0,0,0,0,0,0,0,0,-1,1161,1394,0,0
-56,-370,0,0,0,0,0,0,0,0,0,-1,1168,1394,0,0
-49,-370,0,0,0,0,0,0,0,0,0,-1,1175,1394,0,0
-42,-370,0,0,0,0,0,0,0,0,0,-1,1182,1394,0,0
-35,-370,0,0,0,0,0,0,0,0,0,-1,1189,1394,0,0
-28,-370,0,0,0,0,0,0,0,0,0,-1,1196,1394,0,0
-21,-370,0,0,0,0,0,0,0,0,0,-1,1203,1394,0,0
-14,-370,0,0,0,0,0,0,0,0,0,-1,1210,1394,0,0
-7,-370,0,0,0,0,0,0,0,0,0,-1,1217,1394,0,0
0,-370,0,0,0,0,0,0,0,0,0,-1,1224,1394,0,0
7,-370,0,0,0,0,0,0,0,0,0,-1,1231,1394,0,0
14,-370,0,0,0,0,0,0,0,0,0,-1,1238,1394,0,0
21,-370,0,0,0,0,0,0,0,0,0,-1,1245,1394,0,0
28,-370,0,0,0,0,0,0,0,0,0,-1,1252,1394,0,0
35,-370,0,0,0,0,0,0,0,0,0,-1,1259,1394,0,0
42,-370,0,0,0,0,0,0,0,0,0,-1,1266,1394,0,0
49,-370,0,0,0,0,0,0,0,0,0,-1,1273,1394,0,0
56,-370,0,0,0,0,0,0,0,0,0,-1,1280,1394,0,0
63,-370,0,0,0,0,0,0,0,0,0,-1,1287,1394,0,0
70,-370,0,0,0,0,0,0,0,0,0,-1,1294,1394,0,0
77,-370,0,0,0,0,0,0,0,0,0,-1,1301,1394,0,0
84,-370,0,0,0,0,0,0,0,0,0,-1,1308,1394,0,0
91,-370,0,0,0,0,0,0,0,0,0,-1,1315,1394,0,0
98,-370,0,0,0,0,0,0,0,0,0,-1,1322,1394,0,0
105,-370,0,0,0,0,0,0,0,0,0,-1,1329,1394,0,0
112,-370,0,0,0,0,0,0,0,0,0,-1,1336,1394,0,0
119,-370,0,0,0,0,0,0,0,0,0,-1,1343,1394,0,0
126,-370,0,0,0,0,0,0,0,0,0,-1,1350,1394,0,0
133,-370,0,0,0,0,0,0,0,0,0,-1,1357,1394,0,0
140,-370,0,0,0,0,0,0,0,0,0,-1,1364,1394,0,0
147,-370,0,0,0,0,0,0,0,0,0,-1,1371,1394,0,0
154,-370,0,0,0,0,0,0,0,0,0,-1,1378,1394,0,0
161,-370,0,0,0,0,0,0,0,0,0,-1,1385,1394,0,0
168,-370,0,0,0,0,0,0,0,0,0,-1,1392,1394,0,0
175,-370,0,0,0,0,0,0,0,0,0,-1,1399,1394,0,0
182,-370,0,0,0,0,0,0,0,0,0,-1,1406,1394,0,0
189,-370,0,0,0,0,0,0,0,0,0,-1,1413,1394,0,0
196,-370,0,0,0,0,0,0,0,0,0,-1,1420,1394,0,0
203,-370,0,0,0,0,0,0,0,0,0,-1,1427,1394,0,0
210,-370,0,0,0,0,0,0,0,0,0,-1,1434,1394,0,0
217,-370,0,0,0,0,0,0,0,0,0,-1,1441,1394,0,0
224,-370,0,0,0,0,0,0,0,0,0,-1,1448,1394,0,0
231,-370,0,0,0,0,0,0,0,0,0,-1,1455,1394,0,0
238,-370,0,0,0,0,0,0,0,0,0,-1,1462,1394,0,0
245,-370,0,0,0,0,0,0,0,0,0,-1,1469,1394,0,0
252,-370,0,0,0,0,0,0,0,0,0,-1,1476,1394,0,0
259,-370,0,0,0,0,0,0,0,0,0,-1,1483,1394,0,0
266,-370,0,0,0,0,0,0,0,0,0,-1,1490,1394,0,0
273,-370,0,0,0,0,0,0,0,0,0,-1,1497,1394,0,0
280,-370,0,0,0,0,0,0,0,0,0,-1,1504,1394,0,0
287,-370,0,0,0,0,0,0,0,0,0,-1,1511,1394,0,0
294,-370,0,0,0,0,0,0,0,0,0,-1,1518,1394,0,0
301,-370,0,0,0,0,0,0,0,0,0,-1,1525,1394,0,0
308,-370,0,0,0,0,0,0,0,0,0,-1,1532,1394,0,0
315,-370,0,0,0,0,0,0,0,0,0,-1,1539,1394,0,0
322,-370,0,0,0,0,0,0,0,0,0,-1,1546,1394,0,0
329,-370,0,0,0,0,0,0,0,0,0,-1,1553,1394,0,0
336,-370,0,0,0,0,0,0,0,0,0,-1,1560,1394,0,0
343,-370,0,0,0,0,0,0,0,0,0,-1,1567,1394,0,0
350,-370,0,0,0,0,0,0,0,0,0,-1,1574,1394,0,0
357,-370,0,0,0,0,0,0,0,0,0,-1,1581,1394,0,0
364,-370,0,0,0,0,0,0,0,0,0,-1,1588,1394,0,0
371,-370,0,0,0,0,0,0,0,0,0,-1,1595,1394,0,0
378,-370,0,0,0,0,0,0,0,0,0,-1,1602,1394,0,0
385,-370,0,0,0,0,0,0,0,0,0,-1,1609,1394,0,0
392,-370,0,0,0,0,0,0,0,0,0,-1,1616,1394,0,0
399,-370,0,0,0,0,0,0,0,0,0,-1,1623,1394,0,0
406,-370,0,0,0,0,0,0,0,0,0,-1,1630,1394,0,0
413,-370,0,0,0,0,0,0,0,0,0,-1,1637,1394,0,0
420,-370,0,0,0,0,0,0,0,0,0,-1,1644,1394,0,0
427,-370,0,0,0,0,0,0,0,0,0,-1,1651,1394,0,0
434,-370,0,0,0,0,0,0,0,0,0,-1,1658,1394,0,0
441,-370,0,0,0,0,0,0,0,0,0,-1,1665,1394,0,0
448,-370,0,0,0,0,0,0,0,0,0,-1,1672,1394,0,0
455,-370,0,0,0,0,0,0,0,0,0,-1,1679,1394,0,0
462,-370,0,0,0,0,0,0,0,0,0,-1,1686,1394,0,0
469,-370,0,0,0,0,0,0,0,0,0,-1,1693,1394,0,0
476,-370,0,0,0,0,0,0,0,0,0,-1,1700,1394,0,0
483,-370,0,0,0,0,0,0,0,0,0,-1,1707,1394,0,0
490,-370,0,0,0,0,0,0,0,0,0,-1,1714,1394,0,0
497,-370,0,0,0,0,0,0,0,0,0,-1,1721,1394,0,0
504,-370,0,0,0,0,0,0,0,0,0,-1,1728,1394,0,0
511,-370,0,0,0,0,0,0,0,0,0,-1,1735,1394,0,0
518,-370,0,0,0,0,0,0,0,0,0,-1,1742,1394,0,0
525,-370,0,0,0,0,0,0,0,0,0,-1,1749,1394,0,0
532,-370,0,0,0,0,0,0,0,0,0,-1,1756,1394,0,0
539,-370,0,0,0,0,0,0,0,0,0,-1,1763,1394,0,0
546,-370,27.4949,2.81201,0,0,0,0,0,0,0,-1,1770,1394,27.4948,-2.81198
553,-370,26.5985,1.99329,0,0,0,0,0,0,0,-1,1777,1394,26.5985,-1.99327
560,-370,46.0132,3.65686,0,0,0,0,0,0,0,-1,1784,1394,46.0132,-3.65689
567,-370,46.1089,3.11719,0,0,0,0,0,0,0,-1,1791,1394,46.1089,-3.1172
574,-370,38.8953,1.49353,0,0,0,0,0,0,0,-1,1798,1394,38.8952,-1.49348
581,-370,39.178,2.86145,0,0,0,0,0,0,0,-1,1805,1394,39.1779,-2.86145
588,-370,39.2102,4.27661,0,0,0,0,0,0,0,-1,1812,1394,39.2102,-4.27657
595,-370,25.793,4.5271,0,0,0,0,0,0,0,-1,1819,1394,25.793,-4.52711
602,-370,25.1077,5.34937,0,0,0,0,0,0,0,-1,1826,1394,25.1077,-5.34932
609,-370,16.712,0.993286,0,0,0,0,0,0,0,-1,1833,1394,16.7121,-0.99323
616,-370,16.7764,7.23315,0,0,0,0,0,0,0,-1,1840,1394,16.7764,-7.23313
623,-370,17.6625,8.94263,0,0,0,0,0,0,0,-1,1847,1394,17.6624,-8.94258
630,-370,20.9681,11.1785,0,0,0,0,0,0,0,-1,1854,1394,20.9681,-11.1784
637,-370,28.8013,14.1167,0,0,0,0,0,0,0,-1,1861,1394,28.8013,-14.1167
644,-370,28.8295,13.6227,0.00048615,0.00132866,-0.00150546,0.00247069,-0.000655879,-0.921818,0.00190379,0.01362,1868,1394,28.8295,-13.6227
651,-370,28.8201,13.1182,0.000395217,0.000751074,-0.000868709,0.00145989,-0.000313598,-0.886411,0.00109289,0.0122933,1875,1394,28.8201,-13.1182
658,-370,28.8029,12.6285,0.000616148,0.000339203,-0.000400354,0.000901301,5.40501e-05,-0.618901,0.000583685,0.0120025,1882,1394,28.8028,-12.6286
665,-370,28.7739,12.141,0.000919889,-2.87447e-05,5.15811e-06,0.000919917,-2.87727e-05,0.00543719,0.00062309,0.0133842,1889,1394,28.774,-12.1409
672,-370,28.7489,11.6379,0.00131141,-0.000369046,0.000366966,0.00138805,-0.000445686,0.205888,0.00110433,0.0158578,1896,1394,28.7489,-11.6379
679,-370,28.7607,11.139,0.00181411,-0.000639509,0.000650592,0.00197594,-0.000801344,0.243802,0.00165058,0.0149647,1903,1394,28.7607,-11.139
686,-370,28.7368,10.6521,0.00238773,-0.000909462,0.000895905,0.00261544,-0.00113717,0.248894,0.0022219,0.0140327,1910,1394,28.7368,-10.6521
693,-370,28.713,10.1288,0.00309024,-0.00114071,0.00103903,0.00333163,-0.0013821,0.228274,0.00279798,0.0124527,1917,1394,28.713,-10.1288
700,-370,28.9026,9.56787,0.00396848,-0.00123554,0.00106389,0.00417758,-0.00144463,0.194065,0.00337139,0.0343466,1924,1394,28.9026,-9.56791
707,-370,29.2626,8.92981,0,0,0,0,0,0,0,-1,1931,1394,29.2626,-8.92986
714,-370,16.9116,5.93018,0,0,0,0,0,0,0,-1,1938,1394,16.9116,-5.93014
721,-370,17.2007,4.69153,0,0,0,0,0,0,0,-1,1945,1394,17.2007,-4.69158
728,-370,20.5315,-0.313354,0,0,0,0,0,0,0,-1,1952,1394,20.5315,0.313332
735,-370,22.3652,0.233398,0,0,0,0,0,0,0,-1,1959,1394,22.3652,-0.233355
742,-370,24.1989,0.780029,0,0,0,0,0,0,0,-1,1966,1394,24.1989,-0.780041
749,-370,0,0,0,0,0,0,0,0,0,-1,1973,1394,0,0
756,-370,0,0,0,0,0,0,0,0,0,-1,1980,1394,0,0
763,-370,0,0,0,0,0,0,0,0,0,-1,1987,1394,0,0
770,-370,0,0,0,0,0,0,0,0,0,-1,1994,1394,0,0
777,-370,0,0,0,0,0,0,0,0,0,-1,2001,1394,0,0
784,-370,0,0,0,0,0,0,0,0,0,-1,2008,1394,0,0
791,-370,0,0,0,0,0,0,0,0,0,-1,2015,1394,0,0
798,-370,0,0,0,0,0,0,0,0,0,-1,2022,1394,0,0
805,-370,0,0,0,0,0,0,0,0,0,-1,2029,1394,0,0
812,-370,0,0,0,0,0,0,0,0,0,-1,2036,1394,0,0
-700,-377,0,0,0,0,0,0,0,0,0,-1,524,1401,0,0
-693,-377,0,0,0,0,0,0,0,0,0,-1,531,1401,0,0
-686,-377,0,0,0,0,0,0,0,0,0,-1,538,1401,0,0
-679,-377,0,0,0,0,0,0,0,0,0,-1,545,1401,0,0
-672,-377,0,0,0,0,0,0,0,0,0,-1,552,1401,0,0
-665,-377,0,0,0,0,0,0,0,0,0,-1,559,1401,0,0
-658,-377,0,0,0,0,0,0,0,0,0,-1,566,1401,0,0
-651,-377,0,0,0,0,0,0,0,0,0,-1,573,1401,0,0
-644,-377,0,0,0,0,0,0,0,0,0,-1,580,1401,0,0
-637,-377,0,0,0,0,0,0,0,0,0,-1,587,1401,0,0
-630,-377,0,0,0,0,0,0,0,0,0,-1,594,1401,0,0
-623,-377,0,0,0,0,0,0,0,0,0,-1,601,1401,0,0
-616,-377,-9.43915,-2.4906,0,0,0,0,0,0,0,-1,608,1401,-9.43915,2.49062
-609,-377,-7.2821,-1.35278,0,0,0,0,0,0,0,-1,615,1401,-7.28208,1.35279
-602,-377,-14.9736,3.98279,0,0,0,0,0,0,0,-1,622,1401,-14.9737,-3.98276
-595,-377,-6.9082,1.18201,0,0,0,0,0,0,0,-1,629,1401,-6.90822,-1.18204
-588,-377,-12.8003,3.44751,0,0,0,0,0,0,0,-1,636,1401,-12.8003,-3.44754
-581,-377,-11.8243,6.21521,0,0,0,0,0,0,0,-1,643,1401,-11.8244,-6.21519
-574,-377,-12.2761,6.60547,0,0,0,0,0,0,0,-1,650,1401,-12.2761,-6.60552
-567,-377,-13.4844,7.41931,0,0,0,0,0,0,0,-1,657,1401,-13.4845,-7.41926
-560,-377,-13.8925,7.93884,0,0,0,0,0,0,0,-1,664,1401,-13.8924,-7.9389
-553,-377,-13.7692,8.56592,0.00216086,0.000488094,0.000901255,0.00255403,9.49251e-05,0.411357,0.00167194,0.0147574,671,1401,-13.7692,-8.56591
-546,-377,-13.7761,9.18274,0.00183462,0.000391412,0.000765485,0.002165,6.10278e-05,0.407449,0.00142343,0.0156328,678,1401,-13.7761,-9.18277
-539,-377,-13.7668,9.70032,0.00170747,0.000341302,0.000706221,0.00200691,4.18619e-05,0.401026,0.0013242,0.0205004,685,1401,-13.7668,-9.70032
-532,-377,-13.8241,10.2054,0.00178401,0.000342617,0.00075372,0.00210614,2.04813e-05,0.403897,0.00139732,0.0207339,692,1401,-13.8241,-10.2055
-525,-377,-13.7859,10.7719,0.00210942,0.000503215,0.000996387,0.00258606,2.65669e-05,0.4462,0.00171526,0.020557,699,1401,-13.7859,-10.7719
-518,-377,-13.8355,11.3109,0.00267037,0.00085401,0.00142759,0.00345417,7.02088e-05,0.502105,0.00227974,0.0134191,706,1401,-13.8355,-11.3109
-511,-377,-13.858,11.877,0.00345561,0.00134727,0.00202487,0.00468428,0.000118602,0.545398,0.00308408,0.0117955,713,1401,-13.858,-11.8769
-504,-377,-13.899,12.4323,0.00456631,0.00213432,0.00293536,0.00652757,0.000173056,0.58903,0.00429519,0.0148929,720,1401,-13.899,-12.4323
-497,-377,-13.9183,12.9614,0,0,0,0,0,0,0,-1,727,1401,-13.9183,-12.9614
-490,-377,-8.88409,10.1245,0,0,0,0,0,0,0,-1,734,1401,-8.8841,-10.1245
-483,-377,-5.6524,5.07324,0,0,0,0,0,0,0,-1,741,1401,-5.6524,-5.07325
-476,-377,-6.11682,5.10535,0,0,0,0,0,0,0,-1,748,1401,-6.11681,-5.10537
-469,-377,-10.3211,1.9281,0,0,0,0,0,0,0,-1,755,1401,-10.3211,-1.92808
-462,-377,-9.2204,1.0022,0,0,0,0,0,0,0,-1,762,1401,-9.22039,-1.00218
-455,-377,-8.11969,0.0762939,0,0,0,0,0,0,0,-1,769,1401,-8.11968,-0.0762759
-448,-377,-9.05334,0.877319,0,0,0,0,0,0,0,-1,776,1401,-9.05332,-0.877324
-441,-377,-11.212,0.763428,0,0,0,0,0,0,0,-1,783,1401,-11.212,-0.763415
-434,-377,-11.0984,0.996216,0,0,0,0,0,0,0,-1,790,1401,-11.0984,-0.996265
-427,-377,-11.1733,1.25732,0,0,0,0,0,0,0,-1,797,1401,-11.1733,-1.25732
-420,-377,0,0,0,0,0,0,0,0,0,-1,804,1401,0,0
-413,-377,0,0,0,0,0,0,0,0,0,-1,811,1401,0,0
-406,-377,0,0,0,0,0,0,0,0,0,-1,818,1401,0,0
-399,-377,0,0,0,0,0,0,0,0,0,-1,825,1401,0,0
-392,-377,0,0,0,0,0,0,0,0,0,-1,832,1401,0,0
-385,-377,0,0,0,0,0,0,0,0,0,-1,839,1401,0,0
-378,-377,0,0,0,0,0,0,0,0,0,-1,846,1401,0,0
-371,-377,0,0,0,0,0,0,0,0,0,-1,853,1401,0,0
-364,-377,0,0,0,0,0,0,0,0,0,-1,860,1401,0,0
-357,-377,0,0,0,0,0,0,0,0,0,-1,867,1401,0,0
-350,-377,0,0,0,0,0,0,0,0,0,-1,874,1401,0,0
-343,-377,0,0,0,0,0,0,0,0,0,-1,881,1401,0,0
-336,-377,0,0,0,0,0,0,0,0,0,-1,888,1401,0,0
-329,-377,0,0,0,0,0,0,0,0,0,-1,895,1401,0,0
-322,-377,0,0,0,0,0,0,0,0,0,-1,902,1401,0,0
-315,-377,0,0,0,0,0,0,0,0,0,-1,909,1401,0,0
-308,-377,0,0,0,0,0,0,0,0,0,-1,916,1401,0,0
-301,-377,0,0,0,0,0,0,0,0,0,-1,923,1401,0,0
-294,-377,0,0,0,0,0,0,0,0,0,-1,930,1401,0,0
-287,-377,0,0,0,0,0,0,0,0,0,-1,937,1401,0,0
-280,-377,0,0,0,0,0,0,0,0,0,-1,944,1401,0,0
-273,-377,0,0,0,0,0,0,0,0,0,-1,951,1401,0,0
-266,-377,0,0,0,0,0,0,0,0,0,-1,958,1401,0,0
-259,-377,0,0,0,0,0,0,0,0,0,-1,965,1401,0,0
-252,-377,0,0,0,0,0,0,0,0,0,-1,972,1401,0,0
-245,-377,0,0,0,0,0,0,0,0,0,-1,979,1401,0,0
-238,-377,0,0,0,0,0,0,0,0,0,-1,986,1401,0,0
-231,-377,0,0,0,0,0,0,0,0,0,-1,993,1401,0,0
-224,-377,0,0,0,0,0,0,0,0,0,-1,1000,1401,0,0
-217,-377,0,0,0,0,0,0,0,0,0,-1,1007,1401,0,0
-210,-377,0,0,0,0,0,0,0,0,0,-1,1014,1401,0,0
-203,-377,0,0,0,0,0,0,0,0,0,-1,1021,1401,0,0
-196,-377,0,0,0,0,0,0,0,0,0,-1,1028,1401,0,0
-189,-377,0,0,0,0,0,0,0,0,0,-1,1035,1401,0,0
-182,-377,0,0,0,0,0,0,0,0,0,-1,1042,1401,0,0
-175,-377,0,0,0,0,0,0,0,0,0,-1,1049,1401,0,0
-168,-377,0,0,0,0,0,0,0,0,0,-1,1056,1401,0,0
-161,-377,0,0,0,0,0,0,0,0,0,-1,1063,1401,0,0
-154,-377,0,0,0,0,0,0,0,0,0,-1,1070,1401,0,0
-147,-377,0,0,0,0,0,0,0,0,0,-1,1077,1401,0,0
-140,-377,0,0,0,0,0,0,0,0,0,-1,1084,1401,0,0
-133,-377,0,0,0,0,0,0,0,0,0,-1,1091,1401,0,0
-126,-377,0,0,0,0,0,0,0,0,0,-1,1098,1401,0,0
-119,-377,0,0,0,0,0,0,0,0,0,-1,1105,1401,0,0
-112,-377,0,0,0,0,0,0,0,0,0,-1,1112,1401,0,0
-105,-377,0,0,0,0,0,0,0,0,0,-1,1119,1401,0,0
-98,-377,0,0,0,0,0,0,0,0,0,-1,1126,1401,0,0
-91,-377,0,0,0,0,0,0,0,0,0,-1,1133,1401,0,0
-84,-377,0,0,0,0,0,0,0,0,0,-1,1140,1401,0,0
-77,-377,0,0,0,0,0,0,0,0,0,-1,1147,1401,0,0
-70,-377,0,0,0,0,0,0,0,0,0,-1,1154,1401,0,0
-63,-377,0,0,0,0,0,0,0,0,0,-1,1161,1401,0,0
-56,-377,0,0,0,0,0,0,0,0,0,-1,1168,1401,0,0
-49,-377,0,0,0,0,0,0,0,0,0,-1,1175,1401,0,0
-42,-377,0,0,0,0,0,0,0,0,0,-1,1182,1401,0,0
-35,-377,0,0,0,0,0,0,0,0,0,-1,1189,1401,0,0
-28,-377,0,0,0,0,0,0,0,0,0,-1,1196,1401,0,0
-21,-377,0,0,0,0,0,0,0,0,0,-1,1203,1401,0,0
-14,-377,0,0,0,0,0,0,0,0,0,-1,1210,1401,0,0
-7,-377,0,0,0,0,0,0,0,0,0,-1,1217,1401,0,0
0,-377,0,0,0,0,0,0,0,0,0,-1,1224,1401,0,0
7,-377,0,0,0,0,0,0,0,0,0,-1,1231,1401,0,0
14,-377,0,0,0,0,0,0,0,0,0,-1,1238,1401,0,0
21,-377,0,0,0,0,0,0,0,0,0,-1,1245,1401,0,0
28,-377,0,0,0,0,0,0,0,0,0,-1,1252,1401,0,0
35,-377,0,0,0,0,0,0,0,0,0,-1,1259,1401,0,0
42,-377,0,0,0,0,0,0,0,0,0,-1,1266,1401,0,0
49,-377,0,0,0,0,0,0,0,0,0,-1,1273,1401,0,0
56,-377,0,0,0,0,0,0,0,0,0,-1,1280,1401,0,0
63,-377,0,0,0,0,0,0,0,0,0,-1,1287,1401,0,0
70,-377,0,0,0,0,0,0,0,0,0,-1,1294,1401,0,0
77,-377,0,0,0,0,0,0,0,0,0,-1,1301,1401,0,0
84,-377,0,0,0,0,0,0,0,0,0,-1,1308,1401,0,0
91,-377,0,0,0,0,0,0,0,0,0,-1,1315,1401,0,0
98,-377,0,0,0,0,0,0,0,0,0,-1,1322,1401,0,0
105,-377,0,0,0,0,0,0,0,0,0,-1,1329,1401,0,0
112,-377,0,0,0,0,0,0,0,0,0,-1,1336,1401,0,0
119,-377,0,0,0,0,0,0,0,0,0,-1,1343,1401,0,0
126,-377,0,0,0,0,0,0,0,0,0,-1,1350,1401,0,0
133,-377,0,0,0,0,0,0,0,0,0,-1,1357,1401,0,0
140,-377,0,0,0,0,0,0,0,0,0,-1,1364,1401,0,0
147,-377,0,0,0,0,0,0,0,0,0,-1,1371,1401,0,0
154,-377,0,0,0,0,0,0,0,0,0,-1,1378,1401,0,0
161,-377,0,0,0,0,0,0,0,0,0,-1,1385,1401,0,0
168,-377,0,0,0,0,0,0,0,0,0,-1,1392,1401,0,0
175,-377,0,0,0,0,0,0,0,0,0,-1,1399,1401,0,0
182,-377,0,0,0,0,0,0,0,0,0,-1,1406,1401,0,0
189,-377,0,0,0,0,0,0,0,0,0,-1,1413,1401,0,0
196,-377,0,0,0,0,0,0,0,0,0,-1,1420,1401,0,0
203,-377,0,0,0,0,0,0,0,0,0,-1,1427,1401,0,0
210,-377,0,0,0,0,0,0,0,0,0,-1,1434,1401,0,0
217,-377,0,0,0,0,0,0,0,0,0,-1,1441,1401,0,0
224,-377,0,0,0,0,0,0,0,0,0,-1,1448,1401,0,0
231,-377,0,0,0,0,0,0,0,0,0,-1,1455,1401,0,0
238,-377,0,0,0,0,0,0,0,0,0,-1,1462,1401,0,0
245,-377,0,0,0,0,0,0,0,0,0,-1,1469,1401,0,0
252,-377,0,0,0,0,0,0,0,0,0,-1,1476,1401,0,0
259,-377,0,0,0,0,0,0,0,0,0,-1,1483,1401,0,0
266,-377,0,0,0,0,0,0,0,0,0,-1,1490,1401,0,0
273,-377,0,0,0,0,0,0,0,0,0,-1,1497,1401,0,0
280,-377,0,0,0,0,0,0,0,0,0,-1,1504,1401,0,0
287,-377,0,0,0,0,0,0,0,0,0,-1,1511,1401,0,0
294,-377,0,0,0,0,0,0,0,0,0,-1,1518,1401,0,0
301,-377,0,0,0,0,0,0,0,0,0,-1,1525,1401,0,0
308,-377,0,0,0,0,0,0,0,0,0,-1,1532,1401,0,0
315,-377,0,0,0,0,0,0,0,0,0,-1,1539,1401,0,0
322,-377,0,0,0,0,0,0,0,0,0,-1,1546,1401,0,0
329,-377,0,0,0,0,0,0,0,0,0,-1,1553,1401,0,0
336,-377,0,0,0,0,0,0,0,0,0,-1,1560,1401,0,0
343,-377,0,0,0,0,0,0,0,0,0,-1,1567,1401,0,0
350,-377,0,0,0,0,0,0,0,0,0,-1,1574,1401,0,0
357,-377,0,0,0,0,0,0,0,0,0,-1,1581,1401,0,0
364,-377,0,0,0,0,0,0,0,0,0,-1,1588,1401,0,0
371,-377,0,0,0,0,0,0,0,0,0,-1,1595,1401,0,0
378,-377,0,0,0,0,0,0,0,0,0,-1,1602,1401,0,0
385,-377,0,0,0,0,0,0,0,0,0,-1,1609,1401,0,0
392,-377,0,0,0,0,0,0,0,0,0,-1,1616,1401,0,0
399,-377,0,0,0,0,0,0,0,0,0,-1,1623,1401,0,0
406,-377,0,0,0,0,0,0,0,0,0,-1,1630,1401,0,0
413,-377,0,0,0,0,0,0,0,0,0,-1,1637,1401,0,0
420,-377,0,0,0,0,0,0,0,0,0,-1,1644,1401,0,0
427,-377,0,0,0,0,0,0,0,0,0,-1,1651,1401,0,0
434,-377,0,0,0,0,0,0,0,0,0,-1,1658,1401,0,0
441,-377,0,0,0,0,0,0,0,0,0,-1,1665,1401,0,0
448,-377,0,0,0,0,0,0,0,0,0,-1,1672,1401,0,0
455,-377,0,0,0,0,0,0,0,0,0,-1,1679,1401,0,0
462,-377,0,0,0,0,0,0,0,0,0,-1,1686,1401,0,0
469,-377,0,0,0,0,0,0,0,0,0,-1,1693,1401,0,0
476,-377,0,0,0,0,0,0,0,0,0,-1,1700,1401,0,0
483,-377,0,0,0,0,0,0,0,0,0,-1,1707,1401,0,0
490,-377,0,0,0,0,0,0,0,0,0,-1,1714,1401,0,0
497,-377,0,0,0,0,0,0,0,0,0,-1,1721,1401,0,0
504,-377,0,0,0,0,0,0,0,0,0,-1,1728,1401,0,0
511,-377,0,0,0,0,0,0,0,0,0,-1,1735,1401,0,0
518,-377,0,0,0,0,0,0,0,0,0,-1,1742,1401,0,0
525,-377,0,0,0,0,0,0,0,0,0,-1,1749,1401,0,0
532,-377,0,0,0,0,0,0,0,0,0,-1,1756,1401,0,0
539,-377,0,0,0,0,0,0,0,0,0,-1,1763,1401,0,0
546,-377,27.8485,2.34094,0,0,0,0,0,0,0,-1,1770,1401,27.8486,-2.34091
553,-377,27.2189,2.42493,0,0,0,0,0,0,0,-1,1777,1401,27.2188,-2.42498
560,-377,38.3577,-2.15015,0,0,0,0,0,0,0,-1,1784,1401,38.3576,2.1501
567,-377,38.4889,-0.285645,0,0,0,0,0,0,0,-1,1791,1401,38.4889,0.2857
574,-377,38.6221,1.61694,0,0,0,0,0,0,0,-1,1798,1401,38.6221,-1.61689
581,-377,39.1818,3.76367,0,0,0,0,0,0,0,-1,1805,1401,39.1818,-3.76366
588,-377,25.882,4.35217,0,0,0,0,0,0,0,-1,1812,1401,25.8819,-4.3522
595,-377,25.5392,5.11804,0,0,0,0,0,0,0,-1,1819,1401,25.5392,-5.11808
602,-377,24.816,5.79126,0,0,0,0,0,0,0,-1,1826,1401,24.816,-5.79124
609,-377,15.0223,4.76135,0,0,0,0,0,0,0,-1,1833,1401,15.0224,-4.76129
616,-377,14.1842,5.78992,0,0,0,0,0,0,0,-1,1840,1401,14.1842,-5.78987
623,-377,15.8248,8.76721,0,0,0,0,0,0,0,-1,1847,1401,15.8248,-8.76725
630,-377,27.9,14.9509,0,0,0,0,0,0,0,-1,1854,1401,27.9,-14.9509
637,-377,28.2096,14.1859,0.000713968,0.00137534,-0.00151362,0.00259397,-0.000504666,-0.892945,0.00191978,0.0328218,1861,1401,28.2096,-14.1859
644,-377,28.3213,13.6375,0.000635132,0.00103817,-0.00113548,0.00198987,-0.000316576,-0.87322,0.00144372,0.0130203,1868,1401,28.3212,-13.6375
651,-377,28.3087,13.1284,0.000576916,0.000549282,-0.000593889,0.00115715,-3.09511e-05,-0.773768,0.000781954,0.0140918,1875,1401,28.3087,-13.1285
658,-377,28.2963,12.6456,0.000733378,0.000161754,-0.000149008,0.000769888,0.000125243,-0.240291,0.000477024,0.0153255,1882,1401,28.2963,-12.6456
665,-377,28.2864,12.1104,0.000983266,-0.00020366,0.000262994,0.00103893,-0.000259323,0.208572,0.000793316,0.0171579,1889,1401,28.2863,-12.1103
672,-377,28.2677,11.5961,0.0013305,-0.00057678,0.00066496,0.00153945,-0.000785723,0.304451,0.00136575,0.0181502,1896,1401,28.2678,-11.596
679,-377,28.2102,11.1511,0.0017817,-0.000911077,0.00102732,0.00212887,-0.00125825,0.325889,0.00197697,0.0178677,1903,1401,28.2101,-11.1511
686,-377,28.214,10.6853,0.0022959,-0.00131327,0.00141088,0.00278198,-0.00179934,0.331782,0.00266523,0.0154921,1910,1401,28.214,-10.6853
693,-377,28.2592,10.1465,0.00297571,-0.00171889,0.00171032,0.00353272,-0.0022759,0.314842,0.00337968,0.0153202,1917,1401,28.2592,-10.1465
700,-377,28.5625,9.66907,0,0,0,0,0,0,0,-1,1924,1401,28.5625,-9.66909
707,-377,27.5404,9.08911,0,0,0,0,0,0,0,-1,1931,1401,27.5405,-9.08908
714,-377,16.5369,5.45959,0,0,0,0,0,0,0,-1,1938,1401,16.5369,-5.4596
721,-377,17.0913,5.42529,0,0,0,0,0,0,0,-1,1945,1401,17.0914,-5.42529
728,-377,14.5396,2.79724,0,0,0,0,0,0,0,-1,1952,1401,14.5396,-2.7972
735,-377,23.2977,-0.991089,0,0,0,0,0,0,0,-1,1959,1401,23.2978,0.991076
742,-377,0,0,0,0,0,0,0,0,0,-1,1966,1401,0,0
749,-377,0,0,0,0,0,0,0,0,0,-1,1973,1401,0,0
756,-377,0,0,0,0,0,0,0,0,0,-1,1980,1401,0,0
763,-377,0,0,0,0,0,0,0,0,0,-1,1987,1401,0,0
770,-377,0,0,0,0,0,0,0,0,0,-1,1994,1401,0,0
777,-377,0,0,0,0,0,0,0,0,0,-1,2001,1401,0,0
784,-377,0,0,0,0,0,0,0,0,0,-1,2008,1401,0,0
791,-377,0,0,0,0,0,0,0,0,0,-1,2015,1401,0,0
798,-377,0,0,0,0,0,0,0,0,0,-1,2022,1401,0,0
805,-377,0,0,0,0,0,0,0,0,0,-1,2029,1401,0,0
812,-377,0,0,0,0,0,0,0,0,0,-1,2036,1401,0,0
-700,-384,0,0,0,0,0,0,0,0,0,-1,524,1408,0,0
-693,-384,0,0,0,0,0,0,0,0,0,-1,531,1408,0,0
-686,-384,0,0,0,0,0,0,0,0,0,-1,538,1408,0,0
-679,-384,0,0,0,0,0,0,0,0,0,-1,545,1408,0,0
-672,-384,0,0,0,0,0,0,0,0,0,-1,552,1408,0,0
-665,-384,0,0,0,0,0,0,0,0,0,-1,559,1408,0,0
-658,-384,0,0,0,0,0,0,0,0,0,-1,566,1408,0,0
-651,-384,0,0,0,0,0,0,0,0,0,-1,573,1408,0,0
-644,-384,0,0,0,0,0,0,0,0,0,-1,580,1408,0,0
-637,-384,0,0,0,0,0,0,0,0,0,-1,587,1408,0,0
-630,-384,0,0,0,0,0,0,0,0,0,-1,594,1408,0,0
-623,-384,0,0,0,0,0,0,0,0,0,-1,601,1408,0,0
-616,-384,-10.019,-3.36646,0,0,0,0,0,0,0,-1,608,1408,-10.019,3.36648
-609,-384,-7.72357,-2.3418,0,0,0,0,0,0,0,-1,615,1408,-7.72358,2.34182
-602,-384,-11.7632,-2.85156,0,0,0,0,0,0,0,-1,622,1408,-11.7632,2.85157
-595,-384,-10.2217,2.8855,0,0,0,0,0,0,0,-1,629,1408,-10.2218,-2.88548
-588,-384,-12.1653,2.29041,0,0,0,0,0,0,0,-1,636,1408,-12.1654,-2.29038
-581,-384,-11.9297,3.60376,0,0,0,0,0,0,0,-1,643,1408,-11.9298,-3.6038
-574,-384,-11.8677,6.02722,0,0,0,0,0,0,0,-1,650,1408,-11.8677,-6.02722
-567,-384,-12.0743,7.04639,0,0,0,0,0,0,0,-1,657,1408,-12.0743,-7.04641
-560,-384,-13.4014,7.94849,0,0,0,0,0,0,0,-1,664,1408,-13.4014,-7.94844
-553,-384,-13.272,8.60205,0.0017906,0.000454574,0.000736282,0.00211674,0.000128428,0.416987,0.00137036,0.0361976,671,1408,-13.272,-8.60206
-546,-384,-13.2516,9.20483,0.00141953,0.000323061,0.000563427,0.00165743,8.5159e-05,0.399532,0.00107769,0.0135561,678,1408,-13.2516,-9.20486
-539,-384,-13.2858,9.7218,0.00126821,0.000272663,0.000487375,0.00146708,7.37929e-05,0.387421,0.00095441,0.015688,685,1408,-13.2857,-9.7218
-532,-384,-13.2482,10.2184,0.00132371,0.000273294,0.000519459,0.0015372,5.97999e-05,0.389948,0.00100546,0.0225705,692,1408,-13.2483,-10.2184
-525,-384,-13.2262,10.8215,0.00164822,0.000452508,0.000766023,0.00202207,7.86518e-05,0.454041,0.00132261,0.0223109,699,1408,-13.2262,-10.8215
-518,-384,-13.3108,11.3513,0.00221891,0.000848979,0.00122342,0.00293607,0.000131822,0.530202,0.00191495,0.0136188,706,1408,-13.3108,-11.3513
-511,-384,-13.3422,11.9167,0.00299765,0.00140179,0.0018477,0.00421235,0.000187092,0.581569,0.00274799,0.0110129,713,1408,-13.3422,-11.9167
-504,-384,-13.3434,12.4645,0.00407101,0.00222837,0.00275319,0.00605295,0.000246432,0.623936,0.00395572,0.0121017,720,1408,-13.3434,-12.4644
-497,-384,-13.3167,13.0323,0.00551486,0.00342015,0.00407226,0.0086723,0.000262719,0.65953,0.00569598,0.0388232,727,1408,-13.3167,-13.0323
-490,-384,-13.1598,13.694,0,0,0,0,0,0,0,-1,734,1408,-13.1598,-13.6939
-483,-384,-6.26471,7.61194,0,0,0,0,0,0,0,-1,741,1408,-6.26469,-7.61191
-476,-384,-6.02734,5.67761,0,0,0,0,0,0,0,-1,748,1408,-6.02736,-5.6776
-469,-384,-10.206,2.63721,0,0,0,0,0,0,0,-1,755,1408,-10.206,-2.6372
-462,-384,-9.04291,1.43542,0,0,0,0,0,0,0,-1,762,1408,-9.04293,-1.43545
-455,-384,-7.87988,0.233765,0,0,0,0,0,0,0,-1,769,1408,-7.87986,-0.233709
-448,-384,-9.35529,7.19226,0,0,0,0,0,0,0,-1,776,1408,-9.35531,-7.19226
-441,-384,-10.4697,1.79004,0,0,0,0,0,0,0,-1,783,1408,-10.4697,-1.79003
-434,-384,-10.6449,0.552246,0,0,0,0,0,0,0,-1,790,1408,-10.6449,-0.552216
-427,-384,-10.968,1.10583,0,0,0,0,0,0,0,-1,797,1408,-10.968,-1.10588
-420,-384,-12.5607,4.54858,0,0,0,0,0,0,0,-1,804,1408,-12.5607,-4.54859
-413,-384,0,0,0,0,0,0,0,0,0,-1,811,1408,0,0
-406,-384,0,0,0,0,0,0,0,0,0,-1,818,1408,0,0
-399,-384,0,0,0,0,0,0,0,0,0,-1,825,1408,0,0
-392,-384,0,0,0,0,0,0,0,0,0,-1,832,1408,0,0
-385,-384,0,0,0,0,0,0,0,0,0,-1,839,1408,0,0
-378,-384,0,0,0,0,0,0,0,0,0,-1,846,1408,0,0
-371,-384,0,0,0,0,0,0,0,0,0,-1,853,1408,0,0
-364,-384,0,0,0,0,0,0,0,0,0,-1,860,1408,0,0
-357,-384,0,0,0,0,0,0,0,0,0,-1,867,1408,0,0
-350,-384,0,0,0,0,0,0,0,0,0,-1,874,1408,0,0
-343,-384,0,0,0,0,0,0,0,0,0,-1,881,1408,0,0
-336,-384,0,0,0,0,0,0,0,0,0,-1,888,1408,0,0
-329,-384,0,0,0,0,0,0,0,0,0,-1,895,1408,0,0
-322,-384,0,0,0,0,0,0,0,0,0,-1,902,1408,0,0
-315,-384,0,0,0,0,0,0,0,0,0,-1,909,1408,0,0
-308,-384,0,0,0,0,0,0,0,0,0,-1,916,1408,0,0
-301,-384,0,0,0,0,0,0,0,0,0,-1,923,1408,0,0
-294,-384,0,0,0,0,0,0,0,0,0,-1,930,1408,0,0
-287,-384,0,0,0,0,0,0,0,0,0,-1,937,1408,0,0
-280,-384,0,0,0,0,0,0,0,0,0,-1,944,1408,0,0
-273,-384,0,0,0,0,0,0,0,0,0,-1,951,1408,0,0
-266,-384,0,0,0,0,0,0,0,0,0,-1,958,1408,0,0
-259,-384,0,0,0,0,0,0,0,0,0,-1,965,1408,0,0
-252,-384,0,0,0,0,0,0,0,0,0,-1,972,1408,0,0
-245,-384,0,0,0,0,0,0,0,0,0,-1,979,1408,0,0
-238,-384,0,0,0,0,0,0,0,0,0,-1,986,1408,0,0
-231,-384,0,0,0,0,0,0,0,0,0,-1,993,1408,0,0
-224,-384,0,0,0,0,0,0,0,0,0,-1,1000,1408,0,0
-217,-384,0,0,0,0,0,0,0,0,0,-1,1007,1408,0,0
-210,-384,0,0,0,0,0,0,0,0,0,-1,1014,1408,0,0
-203,-384,0,0,0,0,0,0,0,0,0,-1,1021,1408,0,0
-196,-384,0,0,0,0,0,0,0,0,0,-1,1028,1408,0,0
-189,-384,0,0,0,0,0,0,0,0,0,-1,1035,1408,0,0
-182,-384,0,0,0,0,0,0,0,0,0,-1,1042,1408,0,0
-175,-384,0,0,0,0,0,0,0,0,0,-1,1049,1408,0,0
-168,-384,0,0,0,0,0,0,0,0,0,-1,1056,1408,0,0
-161,-384,0,0,0,0,0,0,0,0,0,-1,1063,1408,0,0
-154,-384,0,0,0,0,0,0,0,0,0,-1,1070,1408,0,0
-147,-384,0,0,0,0,0,0,0,0,0,-1,1077,1408,0,0
-140,-384,0,0,0,0,0,0,0,0,0,-1,1084,1408,0,0
-133,-384,0,0,0,0,0,0,0,0,0,-1,1091,1408,0,0
-126,-384,0,0,0,0,0,0,0,0,0,-1,1098,1408,0,0
-119,-384,0,0,0,0,0,0,0,0,0,-1,1105,1408,0,0
-112,-384,0,0,0,0,0,0,0,0,0,-1,1112,1408,0,0
-105,-384,0,0,0,0,0,0,0,0,0,-1,1119,1408,0,0
-98,-384,0,0,0,0,0,0,0,0,0,-1,1126,1408,0,0
-91,-384,0,0,0,0,0,0,0,0,0,-1,1133,1408,0,0
-84,-384,0,0,0,0,0,0,0,0,0,-1,1140,1408,0,0
-77,-384,0,0,0,0,0,0,0,0,0,-1,1147,1408,0,0
-70,-384,0,0,0,0,0,0,0,0,0,-1,1154,1408,0,0
-63,-384,0,0,0,0,0,0,0,0,0,-1,1161,1408,0,0
-56,-384,0,0,0,0,0,0,0,0,0,-1,1168,1408,0,0
-49,-384,0,0,0,0,0,0,0,0,0,-1,1175,1408,0,0
-42,-384,0,0,0,0,0,0,0,0,0,-1,1182,1408,0,0
-35,-384,0,0,0,0,0,0,0,0,0,-1,1189,1408,0,0
-28,-384,0,0,0,0,0,0,0,0,0,-1,1196,1408,0,0
-21,-384,0,0,0,0,0,0,0,0,0,-1,1203,1408,0,0
-14,-384,0,0,0,0,0,0,0,0,0,-1,1210,1408,0,0
-7,-384,0,0,0,0,0,0,0,0,0,-1,1217,1408,0,0
0,-384,0,0,0,0,0,0,0,0,0,-1,1224,1408,0,0
7,-384,0,0,0,0,0,0,0,0,0,-1,1231,1408,0,0
14,-384,0,0,0,0,0,0,0,0,0,-1,1238,1408,0,0
21,-384,0,0,0,0,0,0,0,0,0,-1,1245,1408,0,0
28,-384,0,0,0,0,0,0,0,0,0,-1,1252,1408,0,0
35,-384,0,0,0,0,0,0,0,0,0,-1,1259,1408,0,0
42,-384,0,0,0,0,0,0,0,0,0,-1,1266,1408,0,0
49,-384,0,0,0,0,0,0,0,0,0,-1,1273,1408,0,0
56,-384,0,0,0,0,0,0,0,0,0,-1,1280,1408,0,0
63,-384,0,0,0,0,0,0,0,0,0,-1,1287,1408,0,0
70,-384,0,0,0,0,0,0,0,0,0,-1,1294,1408,0,0
77,-384,0,0,0,0,0,0,0,0,0,-1,1301,1408,0,0
84,-384,0,0,0,0,0,0,0,0,0,-1,1308,1408,0,0
91,-384,0,0,0,0,0,0,0,0,0,-1,1315,1408,0,0
98,-384,0,0,0,0,0,0,0,0,0,-1,1322,1408,0,0
105,-384,0,0,0,0,0,0,0,0,0,-1,1329,1408,0,0
112,-384,0,0,0,0,0,0,0,0,0,-1,1336,1408,0,0
119,-384,0,0,0,0,0,0,0,0,0,-1,1343,1408,0,0
126,-384,0,0,0,0,0,0,0,0,0,-1,1350,1408,0,0
133,-384,0,0,0,0,0,0,0,0,0,-1,1357,1408,0,0
140,-384,0,0,0,0,0,0,0,0,0,-1,1364,1408,0,0
147,-384,0,0,0,0,0,0,0,0,0,-1,1371,1408,0,0
154,-384,0,0,0,0,0,0,0,0,0,-1,1378,1408,0,0
161,-384,0,0,0,0,0,0,0,0,0,-1,1385,1408,0,0
168,-384,0,0,0,0,0,0,0,0,0,-1,1392,1408,0,0
175,-384,0,0,0,0,0,0,0,0,0,-1,1399,1408,0,0
182,-384,0,0,0,0,0,0,0,0,0,-1,1406,1408,0,0
189,-384,0,0,0,0,0,0,0,0,0,-1,1413,1408,0,0
196,-384,0,0,0,0,0,0,0,0,0,-1,1420,1408,0,0
203,-384,0,0,0,0,0,0,0,0,0,-1,1427,1408,0,0
210,-384,0,0,0,0,0,0,0,0,0,-1,1434,1408,0,0
217,-384,0,0,0,0,0,0,0,0,0,-1,1441,1408,0,0
224,-384,0,0,0,0,0,0,0,0,0,-1,1448,1408,0,0
231,-384,0,0,0,0,0,0,0,0,0,-1,1455,1408,0,0
238,-384,0,0,0,0,0,0,0,0,0,-1,1462,1408,0,0
245,-384,0,0,0,0,0,0,0,0,0,-1,1469,1408,0,0
252,-384,0,0,0,0,0,0,0,0,0,-1,1476,1408,0,0
259,-384,0,0,0,0,0,0,0,0,0,-1,1483,1408,0,0
266,-384,0,0,0,0,0,0,0,0,0,-1,1490,1408,0,0
273,-384,0,0,0,0,0,0,0,0,0,-1,1497,1408,0,0
280,-384,0,0,0,0,0,0,0,0,0,-1,1504,1408,0,0
287,-384,0,0,0,0,0,0,0,0,0,-1,1511,1408,0,0
294,-384,0,0,0,0,0,0,0,0,0,-1,1518,1408,0,0
301,-384,0,0,0,0,0,0,0,0,0,-1,1525,1408,0,0
308,-384,0,0,0,0,0,0,0,0,0,-1,1532,1408,0,0
315,-384,0,0,0,0,0,0,0,0,0,-1,1539,1408,0,0
322,-384,0,0,0,0,0,0,0,0,0,-1,1546,1408,0,0
329,-384,0,0,0,0,0,0,0,0,0,-1,1553,1408,0,0
336,-384,0,0,0,0,0,0,0,0,0,-1,1560,1408,0,0
343,-384,0,0,0,0,0,0,0,0,0,-1,1567,1408,0,0
350,-384,0,0,0,0,0,0,0,0,0,-1,1574,1408,0,0
357,-384,0,0,0,0,0,0,0,0,0,-1,1581,1408,0,0
364,-384,0,0,0,0,0,0,0,0,0,-1,1588,1408,0,0
371,-384,0,0,0,0,0,0,0,0,0,-1,1595,1408,0,0
378,-384,0,0,0,0,0,0,0,0,0,-1,1602,1408,0,0
385,-384,0,0,0,0,0,0,0,0,0,-1,1609,1408,0,0
392,-384,0,0,0,0,0,0,0,0,0,-1,1616,1408,0,0
399,-384,0,0,0,0,0,0,0,0,0,-1,1623,1408,0,0
406,-384,0,0,0,0,0,0,0,0,0,-1,1630,1408,0,0
413,-384,0,0,0,0,0,0,0,0,0,-1,1637,1408,0,0
420,-384,0,0,0,0,0,0,0,0,0,-1,1644,1408,0,0
427,-384,0,0,0,0,0,0,0,0,0,-1,1651,1408,0,0
434,-384,0,0,0,0,0,0,0,0,0,-1,1658,1408,0,0
441,-384,0,0,0,0,0,0,0,0,0,-1,1665,1408,0,0
448,-384,0,0,0,0,0,0,0,0,0,-1,1672,1408,0,0
455,-384,0,0,0,0,0,0,0,0,0,-1,1679,1408,0,0
462,-384,0,0,0,0,0,0,0,0,0,-1,1686,1408,0,0
469,-384,0,0,0,0,0,0,0,0,0,-1,1693,1408,0,0
476,-384,0,0,0,0,0,0,0,0,0,-1,1700,1408,0,0
483,-384,0,0,0,0,0,0,0,0,0,-1,1707,1408,0,0
490,-384,0,0,0,0,0,0,0,0,0,-1,1714,1408,0,0
497,-384,0,0,0,0,0,0,0,0,0,-1,1721,1408,0,0
504,-384,0,0,0,0,0,0,0,0,0,-1,1728,1408,0,0
511,-384,0,0,0,0,0,0,0,0,0,-1,1735,1408,0,0
518,-384,0,0,0,0,0,0,0,0,0,-1,1742,1408,0,0
525,-384,0,0,0,0,0,0,0,0,0,-1,1749,1408,0,0
532,-384,0,0,0,0,0,0,0,0,0,-1,1756,1408,0,0
539,-384,27.6886,2.85803,0,0,0,0,0,0,0,-1,1763,1408,27.6886,-2.85807
546,-384,27.5044,2.9425,0,0,0,0,0,0,0,-1,1770,1408,27.5044,-2.94255
553,-384,27.3052,2.78394,0,0,0,0,0,0,0,-1,1777,1408,27.3051,-2.78394
560,-384,26.833,3.19812,0,0,0,0,0,0,0,-1,1784,1408,26.833,-3.19816
567,-384,38.2566,0.109985,0,0,0,0,0,0,0,-1,1791,1408,38.2566,-0.110044
574,-384,38.4003,2.05945,0,0,0,0,0,0,0,-1,1798,1408,38.4003,-2.05949
581,-384,25.819,3.91846,0,0,0,0,0,0,0,-1,1805,1408,25.8189,-3.91848
588,-384,23.3721,4.25439,0,0,0,0,0,0,0,-1,1812,1408,23.3721,-4.25442
595,-384,24.981,5.59595,0,0,0,0,0,0,0,-1,1819,1408,24.981,-5.59598
602,-384,20.6605,4.17261,0,0,0,0,0,0,0,-1,1826,1408,20.6606,-4.17265
609,-384,14.158,5.49475,0,0,0,0,0,0,0,-1,1833,1408,14.158,-5.49474
616,-384,14.7997,7.6908,0,0,0,0,0,0,0,-1,1840,1408,14.7996,-7.69079
623,-384,16.4293,9.58899,0,0,0,0,0,0,0,-1,1847,1408,16.4294,-9.58901
630,-384,27.8413,14.6064,0,0,0,0,0,0,0,-1,1854,1408,27.8412,-14.6065
637,-384,27.8257,14.1842,0.000866408,0.00121066,-0.00118202,0.00223303,-0.000155954,-0.857701,0.0015433,0.0208841,1861,1408,27.8257,-14.1842
644,-384,27.7976,13.7045,0.000758655,0.000835058,-0.000827728,0.00162547,-3.17526e-05,-0.808458,0.00109438,0.0167341,1868,1408,27.7976,-13.7045
651,-384,27.775,13.1685,0.000707182,0.000372792,-0.000360881,0.000937718,0.000142257,-0.56847,0.000583535,0.0169289,1875,1408,27.775,-13.1685
658,-384,27.7645,12.6514,0.000796102,-2.31772e-05,7.57443e-05,0.000803046,-3.01211e-05,0.0914198,0.000545682,0.0167848,1882,1408,27.7645,-12.6514
665,-384,27.7797,12.149,0.000969087,-0.000415088,0.000507827,0.00113541,-0.000581414,0.316514,0.00100827,0.0169621,1889,1408,27.7796,-12.149
672,-384,27.7582,11.6383,0.00122558,-0.000831888,0.000964849,0.00160724,-0.00121355,0.376682,0.00163387,0.0148174,1896,1408,27.7581,-11.6383
679,-384,27.7086,11.1675,0.00156176,-0.00125032,0.00143352,0.00216369,-0.00185224,0.397538,0.00232092,0.0156647,1903,1408,27.7087,-11.1675
686,-384,27.7052,10.7004,0.001916,-0.00181316,0.00200749,0.00279126,-0.00268841,0.411145,0.00316387,0.0130978,1910,1408,27.7052,-10.7004
693,-384,27.7534,10.1787,0.00242121,-0.00241932,0.00254177,0.00351068,-0.0035088,0.40494,0.0040527,0.0235519,1917,1408,27.7534,-10.1788
700,-384,27.8196,9.65967,0,0,0,0,0,0,0,-1,1924,1408,27.8196,-9.65966
707,-384,17.0566,6.62842,0,0,0,0,0,0,0,-1,1931,1408,17.0567,-6.62848
714,-384,16.038,5.0282,0,0,0,0,0,0,0,-1,1938,1408,16.038,-5.02819
721,-384,13.8843,2.8717,0,0,0,0,0,0,0,-1,1945,1408,13.8843,-2.87171
728,-384,15.4409,6.25745,0,0,0,0,0,0,0,-1,1952,1408,15.4409,-6.2574
735,-384,16.7598,6.71289,0,0,0,0,0,0,0,-1,1959,1408,16.7598,-6.71287
742,-384,0,0,0,0,0,0,0,0,0,-1,1966,1408,0,0
749,-384,0,0,0,0,0,0,0,0,0,-1,1973,1408,0,0
756,-384,0,0,0,0,0,0,0,0,0,-1,1980,1408,0,0
763,-384,0,0,0,0,0,0,0,0,0,-1,1987,1408,0,0
770,-384,0,0,0,0,0,0,0,0,0,-1,1994,1408,0,0
777,-384,0,0,0,0,0,0,0,0,0,-1,2001,1408,0,0
784,-384,0,0,0,0,0,0,0,0,0,-1,2008,1408,0,0
791,-384,0,0,0,0,0,0,0,0,0,-1,2015,1408,0,0
798,-384,0,0,0,0,0,0,0,0,0,-1,2022,1408,0,0
805,-384,0,0,0,0,0,0,0,0,0,-1,2029,1408,0,0
812,-384,0,0,0,0,0,0,0,0,0,-1,2036,1408,0,0
-700,-391,0,0,0,0,0,0,0,0,0,-1,524,1415,0,0
-693,-391,0,0,0,0,0,0,0,0,0,-1,531,1415,0,0
-686,-391,0,0,0,0,0,0,0,0,0,-1,538,1415,0,0
-679,-391,0,0,0,0,0,0,0,0,0,-1,545,1415,0,0
-672,-391,0,0,0,0,0,0,0,0,0,-1,552,1415,0,0
-665,-391,0,0,0,0,0,0,0,0,0,-1,559,1415,0,0
-658,-391,0,0,0,0,0,0,0,0,0,-1,566,1415,0,0
-651,-391,0,0,0,0,0,0,0,0,0,-1,573,1415,0,0
-644,-391,0,0,0,0,0,0,0,0,0,-1,580,1415,0,0
-637,-391,0,0,0,0,0,0,0,0,0,-1,587,1415,0,0
-630,-391,0,0,0,0,0,0,0,0,0,-1,594,1415,0,0
-623,-391,0,0,0,0,0,0,0,0,0,-1,601,1415,0,0
-616,-391,0,0,0,0,0,0,0,0,0,-1,608,1415,0,0
-609,-391,-7.71753,-3.69763,0,0,0,0,0,0,0,-1,615,1415,-7.71751,3.69759
-602,-391,-13.9493,-4.12805,0,0,0,0,0,0,0,-1,622,1415,-13.9493,4.12803
-595,-391,-10.8315,1.76172,0,0,0,0,0,0,0,-1,629,1415,-10.8315,-1.76171
-588,-391,-10.265,2.16431,0,0,0,0,0,0,0,-1,636,1415,-10.265,-2.16431
-581,-391,-11.3325,2.44836,0,0,0,0,0,0,0,-1,643,1415,-11.3325,-2.44842
-574,-391,-11.1471,6.19983,0,0,0,0,0,0,0,-1,650,1415,-11.1471,-6.19981
-567,-391,-11.5172,6.82458,0,0,0,0,0,0,0,-1,657,1415,-11.5171,-6.82454
-560,-391,-11.2459,7.37195,0,0,0,0,0,0,0,-1,664,1415,-11.2459,-7.37191
-553,-391,-12.7792,8.51624,0,0,0,0,0,0,0,-1,671,1415,-12.7792,-8.51622
-546,-391,-12.7233,9.18958,0.000938417,0.000298739,0.000336691,0.00108297,0.000154188,0.405531,0.000676465,0.0151075,678,1415,-12.7233,-9.18957
-539,-391,-12.6872,9.75317,0.000779975,0.000231484,0.000254302,0.000879735,0.000131725,0.373841,0.000547886,0.014475,685,1415,-12.6872,-9.75315
-532,-391,-12.666,10.3059,0.000821931,0.000218183,0.00027656,0.000929463,0.000110651,0.370831,0.00058625,0.0254183,692,1415,-12.666,-10.3059
-525,-391,-12.6988,10.8719,0.00113991,0.000394483,0.000521682,0.00140834,0.00012605,0.475222,0.000899823,0.02413,699,1415,-12.6988,-10.872
-518,-391,-12.8192,11.3849,0.00171138,0.000827486,0.00100714,0.00236927,0.000169598,0.578641,0.00152613,0.0150963,706,1415,-12.8192,-11.3849
-511,-391,-12.8018,11.9305,0.00248431,0.00142356,0.00165134,0.00368835,0.000219518,0.630012,0.00238909,0.0137439,713,1415,-12.8018,-11.9305
-504,-391,-12.7833,12.4797,0.00355564,0.00228882,0.00257355,0.00557259,0.000271876,0.664735,0.00362783,0.0121257,720,1415,-12.7833,-12.4797
-497,-391,-12.8026,13.0182,0.00492624,0.00348167,0.00383431,0.00810571,0.000302204,0.692302,0.00530594,0.0129946,727,1415,-12.8025,-13.0182
-490,-391,-12.8066,13.571,0,0,0,0,0,0,0,-1,734,1415,-12.8066,-13.571
-483,-391,-11.1018,12.9382,0,0,0,0,0,0,0,-1,741,1415,-11.1018,-12.9382
-476,-391,-6.05731,6.85303,0,0,0,0,0,0,0,-1,748,1415,-6.05728,-6.85304
-469,-391,-3.88953,5.0979,0,0,0,0,0,0,0,-1,755,1415,-3.88955,-5.09794
-462,-391,-8.67688,2.03125,0,0,0,0,0,0,0,-1,762,1415,-8.67685,-2.03121
-455,-391,-8.65576,6.46997,0,0,0,0,0,0,0,-1,769,1415,-8.65579,-6.46999
-448,-391,-8.39618,4.38403,0,0,0,0,0,0,0,-1,776,1415,-8.39617,-4.38405
-441,-391,-9.77704,2.5946,0,0,0,0,0,0,0,-1,783,1415,-9.77702,-2.5946
-434,-391,-11.5403,2.12878,0,0,0,0,0,0,0,-1,790,1415,-11.5403,-2.12881
-427,-391,-10.5311,2.50403,0,0,0,0,0,0,0,-1,797,1415,-10.5311,-2.504
-420,-391,-14.7087,1.24365,0,0,0,0,0,0,0,-1,804,1415,-14.7088,-1.24365
-413,-391,0,0,0,0,0,0,0,0,0,-1,811,1415,0,0
-406,-391,0,0,0,0,0,0,0,0,0,-1,818,1415,0,0
-399,-391,0,0,0,0,0,0,0,0,0,-1,825,1415,0,0
-392,-391,0,0,0,0,0,0,0,0,0,-1,832,1415,0,0
-385,-391,0,0,0,0,0,0,0,0,0,-1,839,1415,0,0
-378,-391,0,0,0,0,0,0,0,0,0,-1,846,1415,0,0
-371,-391,0,0,0,0,0,0,0,0,0,-1,853,1415,0,0
-364,-391,0,0,0,0,0,0,0,0,0,-1,860,1415,0,0
-357,-391,0,0,0,0,0,0,0,0,0,-1,867,1415,0,0
-350,-391,0,0,0,0,0,0,0,0,0,-1,874,1415,0,0
-343,-391,0,0,0,0,0,0,0,0,0,-1,881,1415,0,0
-336,-391,0,0,0,0,0,0,0,0,0,-1,888,1415,0,0
-329,-391,0,0,0,0,0,0,0,0,0,-1,895,1415,0,0
-322,-391,0,0,0,0,0,0,0,0,0,-1,902,1415,0,0
-315,-391,0,0,0,0,0,0,0,0,0,-1,909,1415,0,0
-308,-391,0,0,0,0,0,0,0,0,0,-1,916,1415,0,0
-301,-391,0,0,0,0,0,0,0,0,0,-1,923,1415,0,0
-294,-391,0,0,0,0,0,0,0,0,0,-1,930,1415,0,0
-287,-391,0,0,0,0,0,0,0,0,0,-1,937,1415,0,0
-280,-391,0,0,0,0,0,0,0,0,0,-1,944,1415,0,0
-273,-391,0,0,0,0,0,0,0,0,0,-1,951,1415,0,0
-266,-391,0,0,0,0,0,0,0,0,0,-1,958,1415,0,0
-259,-391,0,0,0,0,0,0,0,0,0,-1,965,1415,0,0
-252,-391,0,0,0,0,0,0,0,0,0,-1,972,1415,0,0
-245,-391,0,0,0,0,0,0,0,0,0,-1,979,1415,0,0
-238,-391,0,0,0,0,0,0,0,0,0,-1,986,1415,0,0
-231,-391,0,0,0,0,0,0,0,0,0,-1,993,1415,0,0
-224,-391,0,0,0,0,0,0,0,0,0,-1,1000,1415,0,0
-217,-391,0,0,0,0,0,0,0,0,0,-1,1007,1415,0,0
-210,-391,0,0,0,0,0,0,0,0,0,-1,1014,1415,0,0
-203,-391,0,0,0,0,0,0,0,0,0,-1,1021,1415,0,0
-196,-391,0,0,0,0,0,0,0,0,0,-1,1028,1415,0,0
-189,-391,0,0,0,0,0,0,0,0,0,-1,1035,1415,0,0
-182,-391,0,0,0,0,0,0,0,0,0,-1,1042,1415,0,0
-175,-391,0,0,0,0,0,0,0,0,0,-1,1049,1415,0,0
-168,-391,0,0,0,0,0,0,0,0,0,-1,1056,1415,0,0
-161,-391,0,0,0,0,0,0,0,0,0,-1,1063,1415,0,0
-154,-391,0,0,0,0,0,0,0,0,0,-1,1070,1415,0,0
-147,-391,0,0,0,0,0,0,0,0,0,-1,1077,1415,0,0
-140,-391,0,0,0,0,0,0,0,0,0,-1,1084,1415,0,0
-133,-391,0,0,0,0,0,0,0,0,0,-1,1091,1415,0,0
-126,-391,0,0,0,0,0,0,0,0,0,-1,1098,1415,0,0
-119,-391,0,0,0,0,0,0,0,0,0,-1,1105,1415,0,0
-112,-391,0,0,0,0,0,0,0,0,0,-1,1112,1415,0,0
-105,-391,0,0,0,0,0,0,0,0,0,-1,1119,1415,0,0
-98,-391,0,0,0,0,0,0,0,0,0,-1,1126,1415,0,0
-91,-391,0,0,0,0,0,0,0,0,0,-1,1133,1415,0,0
-84,-391,0,0,0,0,0,0,0,0,0,-1,1140,1415,0,0
-77,-391,0,0,0,0,0,0,0,0,0,-1,1147,1415,0,0
-70,-391,0,0,0,0,0,0,0,0,0,-1,1154,1415,0,0
-63,-391,0,0,0,0,0,0,0,0,0,-1,1161,1415,0,0
-56,-391,0,0,0,0,0,0,0,0,0,-1,1168,1415,0,0
-49,-391,0,0,0,0,0,0,0,0,0,-1,1175,1415,0,0
-42,-391,0,0,0,0,0,0,0,0,0,-1,1182,1415,0,0
-35,-391,0,0,0,0,0,0,0,0,0,-1,1189,1415,0,0
-28,-391,0,0,0,0,0,0,0,0,0,-1,1196,1415,0,0
-21,-391,0,0,0,0,0,0,0,0,0,-1,1203,1415,0,0
-14,-391,0,0,0,0,0,0,0,0,0,-1,1210,1415,0,0
-7,-391,0,0,0,0,0,0,0,0,0,-1,1217,1415,0,0
0,-391,0,0,0,0,0,0,0,0,0,-1,1224,1415,0,0
7,-391,0,0,0,0,0,0,0,0,0,-1,1231,1415,0,0
14,-391,0,0,0,0,0,0,0,0,0,-1,1238,1415,0,0
21,-391,0,0,0,0,0,0,0,0,0,-1,1245,1415,0,0
28,-391,0,0,0,0,0,0,0,0,0,-1,1252,1415,0,0
35,-391,0,0,0,0,0,0,0,0,0,-1,1259,1415,0,0
42,-391,0,0,0,0,0,0,0,0,0,-1,1266,1415,0,0
49,-391,0,0,0,0,0,0,0,0,0,-1,1273,1415,0,0
56,-391,0,0,0,0,0,0,0,0,0,-1,1280,1415,0,0
63,-391,0,0,0,0,0,0,0,0,0,-1,1287,1415,0,0
70,-391,0,0,0,0,0,0,0,0,0,-1,1294,1415,0,0
77,-391,0,0,0,0,0,0,0,0,0,-1,1301,1415,0,0
84,-391,0,0,0,0,0,0,0,0,0,-1,1308,1415,0,0
91,-391,0,0,0,0,0,0,0,0,0,-1,1315,1415,0,0
98,-391,0,0,0,0,0,0,0,0,0,-1,1322,1415,0,0
105,-391,0,0,0,0,0,0,0,0,0,-1,1329,1415,0,0
112,-391,0,0,0,0,0,0,0,0,0,-1,1336,1415,0,0
119,-391,0,0,0,0,0,0,0,0,0,-1,1343,1415,0,0
126,-391,0,0,0,0,0,0,0,0,0,-1,1350,1415,0,0
133,-391,0,0,0,0,0,0,0,0,0,-1,1357,1415,0,0
140,-391,0,0,0,0,0,0,0,0,0,-1,1364,1415,0,0
147,-391,0,0,0,0,0,0,0,0,0,-1,1371,1415,0,0
154,-391,0,0,0,0,0,0,0,0,0,-1,1378,1415,0,0
161,-391,0,0,0,0,0,0,0,0,0,-1,1385,1415,0,0
168,-391,0,0,0,0,0,0,0,0,0,-1,1392,1415,0,0
175,-391,0,0,0,0,0,0,0,0,0,-1,1399,1415,0,0
182,-391,0,0,0,0,0,0,0,0,0,-1,1406,1415,0,0
189,-391,0,0,0,0,0,0,0,0,0,-1,1413,1415,0,0
196,-391,0,0,0,0,0,0,0,0,0,-1,1420,1415,0,0
203,-391,0,0,0,0,0,0,0,0,0,-1,1427,1415,0,0
210,-391,0,0,0,0,0,0,0,0,0,-1,1434,1415,0,0
217,-391,0,0,0,0,0,0,0,0,0,-1,1441,1415,0,0
224,-391,0,0,0,0,0,0,0,0,0,-1,1448,1415,0,0
231,-391,0,0,0,0,0,0,0,0,0,-1,1455,1415,0,0
238,-391,0,0,0,0,0,0,0,0,0,-1,1462,1415,0,0
245,-391,0,0,0,0,0,0,0,0,0,-1,1469,1415,0,0
252,-391,0,0,0,0,0,0,0,0,0,-1,1476,1415,0,0
259,-391,0,0,0,0,0,0,0,0,0,-1,1483,1415,0,0
266,-391,0,0,0,0,0,0,0,0,0,-1,1490,1415,0,0
273,-391,0,0,0,0,0,0,0,0,0,-1,1497,1415,0,0
280,-391,0,0,0,0,0,0,0,0,0,-1,1504,1415,0,0
287,-391,0,0,0,0,0,0,0,0,0,-1,1511,1415,0,0
294,-391,0,0,0,0,0,0,0,0,0,-1,1518,1415,0,0
301,-391,0,0,0,0,0,0,0,0,0,-1,1525,1415,0,0
308,-391,0,0,0,0,0,0,0,0,0,-1,1532,1415,0,0
315,-391,0,0,0,0,0,0,0,0,0,-1,1539,1415,0,0
322,-391,0,0,0,0,0,0,0,0,0,-1,1546,1415,0,0
329,-391,0,0,0,0,0,0,0,0,0,-1,1553,1415,0,0
336,-391,0,0,0,0,0,0,0,0,0,-1,1560,1415,0,0
343,-391,0,0,0,0,0,0,0,0,0,-1,1567,1415,0,0
350,-391,0,0,0,0,0,0,0,0,0,-1,1574,1415,0,0
357,-391,0,0,0,0,0,0,0,0,0,-1,1581,1415,0,0
364,-391,0,0,0,0,0,0,0,0,0,-1,1588,1415,0,0
371,-391,0,0,0,0,0,0,0,0,0,-1,1595,1415,0,0
378,-391,0,0,0,0,0,0,0,0,0,-1,1602,1415,0,0
385,-391,0,0,0,0,0,0,0,0,0,-1,1609,1415,0,0
392,-391,0,0,0,0,0,0,0,0,0,-1,1616,1415,0,0
399,-391,0,0,0,0,0,0,0,0,0,-1,1623,1415,0,0
406,-391,0,0,0,0,0,0,0,0,0,-1,1630,1415,0,0
413,-391,0,0,0,0,0,0,0,0,0,-1,1637,1415,0,0
420,-391,0,0,0,0,0,0,0,0,0,-1,1644,1415,0,0
427,-391,0,0,0,0,0,0,0,0,0,-1,1651,1415,0,0
434,-391,0,0,0,0,0,0,0,0,0,-1,1658,1415,0,0
441,-391,0,0,0,0,0,0,0,0,0,-1,1665,1415,0,0
448,-391,0,0,0,0,0,0,0,0,0,-1,1672,1415,0,0
455,-391,0,0,0,0,0,0,0,0,0,-1,1679,1415,0,0
462,-391,0,0,0,0,0,0,0,0,0,-1,1686,1415,0,0
469,-391,0,0,0,0,0,0,0,0,0,-1,1693,1415,0,0
476,-391,0,0,0,0,0,0,0,0,0,-1,1700,1415,0,0
483,-391,0,0,0,0,0,0,0,0,0,-1,1707,1415,0,0
490,-391,0,0,0,0,0,0,0,0,0,-1,1714,1415,0,0
497,-391,0,0,0,0,0,0,0,0,0,-1,1721,1415,0,0
504,-391,0,0,0,0,0,0,0,0,0,-1,1728,1415,0,0
511,-391,0,0,0,0,0,0,0,0,0,-1,1735,1415,0,0
518,-391,0,0,0,0,0,0,0,0,0,-1,1742,1415,0,0
525,-391,0,0,0,0,0,0,0,0,0,-1,1749,1415,0,0
532,-391,28.5959,3.02356,0,0,0,0,0,0,0,-1,1756,1415,28.596,-3.02358
539,-391,27.5881,3.25012,0,0,0,0,0,0,0,-1,1763,1415,27.5882,-3.25016
546,-391,27.2837,3.28064,0,0,0,0,0,0,0,-1,1770,1415,27.2837,-3.28064
553,-391,32.5952,5.04553,0,0,0,0,0,0,0,-1,1777,1415,32.5952,-5.04551
560,-391,31.2947,5.67017,0,0,0,0,0,0,0,-1,1784,1415,31.2947,-5.67011
567,-391,30.1473,6.17603,0,0,0,0,0,0,0,-1,1791,1415,30.1473,-6.17602
574,-391,27.5656,5.6842,0,0,0,0,0,0,0,-1,1798,1415,27.5655,-5.68422
581,-391,25.8883,5.76123,0,0,0,0,0,0,0,-1,1805,1415,25.8883,-5.76124
588,-391,24.2717,5.47986,0,0,0,0,0,0,0,-1,1812,1415,24.2717,-5.47982
595,-391,22.8827,6.1991,0,0,0,0,0,0,0,-1,1819,1415,22.8827,-6.19909
602,-391,15.1635,5.69849,0,0,0,0,0,0,0,-1,1826,1415,15.1635,-5.69847
609,-391,14.8285,7.50476,0,0,0,0,0,0,0,-1,1833,1415,14.8285,-7.50479
616,-391,20.7952,12.0503,0,0,0,0,0,0,0,-1,1840,1415,20.7952,-12.0503
623,-391,27.292,15.0919,0,0,0,0,0,0,0,-1,1847,1415,27.292,-15.0919
630,-391,27.4357,14.5625,0.00117084,0.00162258,-0.00129638,0.00271262,8.07995e-05,-0.871647,0.00178209,0.0408449,1854,1415,27.4357,-14.5625
637,-391,27.3293,14.174,0.000953617,0.00102673,-0.000894966,0.00188589,9.44631e-05,-0.805812,0.00122698,0.0165278,1861,1415,27.3293,-14.1739
644,-391,27.3092,13.6937,0.000818695,0.000623446,-0.000551528,0.00128117,0.000160969,-0.697802,0.000805836,0.0174497,1868,1415,27.3092,-13.6937
651,-391,27.2806,13.2085,0.00076934,0.000193461,-0.000150849,0.000806461,0.000156339,-0.241288,0.000493847,0.0187719,1875,1415,27.2806,-13.2085
658,-391,27.2528,12.7097,0.000817102,-0.000201556,0.000264389,0.000881635,-0.000266089,0.239403,0.000693678,0.017798,1882,1415,27.2528,-12.7097
665,-391,27.2759,12.192,0.000935228,-0.000616657,0.000709447,0.00121067,-0.000892095,0.370331,0.00121866,0.0136621,1889,1415,27.2758,-12.192
672,-391,27.251,11.6985,0.00110932,-0.00107367,0.00121665,0.00165233,-0.00161667,0.419784,0.00188739,0.0116094,1896,1415,27.251,-11.6985
679,-391,27.2169,11.2062,0.00131652,-0.00159303,0.00180384,0.00217912,-0.00245562,0.446055,0.00267746,0.0114427,1903,1415,27.2169,-11.2062
686,-391,27.2312,10.7039,0.00146087,-0.00236645,0.00261372,0.0027866,-0.00369218,0.469406,0.00375269,0.0126214,1910,1415,27.2312,-10.7039
693,-391,27.1768,10.3191,0.00169123,-0.00325451,0.00346765,0.00347743,-0.00504071,0.475658,0.00494548,0.03383,1917,1415,27.1768,-10.3191
700,-391,27.1718,9.89758,0,0,0,0,0,0,0,-1,1924,1415,27.1718,-9.8976
707,-391,12.9524,5.96851,0,0,0,0,0,0,0,-1,1931,1415,12.9524,-5.96849
714,-391,15.6875,7.67896,0,0,0,0,0,0,0,-1,1938,1415,15.6875,-7.67893
721,-391,14.1808,8.08435,0,0,0,0,0,0,0,-1,1945,1415,14.1808,-8.08439
728,-391,13.8102,7.28174,0,0,0,0,0,0,0,-1,1952,1415,13.8102,-7.28174
735,-391,0,0,0,0,0,0,0,0,0,-1,1959,1415,0,0
742,-391,0,0,0,0,0,0,0,0,0,-1,1966,1415,0,0
749,-391,0,0,0,0,0,0,0,0,0,-1,1973,1415,0,0
756,-391,0,0,0,0,0,0,0,0,0,-1,1980,1415,0,0
763,-391,0,0,0,0,0,0,0,0,0,-1,1987,1415,0,0
770,-391,0,0,0,0,0,0,0,0,0,-1,1994,1415,0,0
777,-391,0,0,0,0,0,0,0,0,0,-1,2001,1415,0,0
784,-391,0,0,0,0,0,0,0,0,0,-1,2008,1415,0,0
791,-391,0,0,0,0,0,0,0,0,0,-1,2015,1415,0,0
798,-391,0,0,0,0,0,0,0,0,0,-1,2022,1415,0,0
805,-391,0,0,0,0,0,0,0,0,0,-1,2029,1415,0,0
812,-391,0,0,0,0,0,0,0,0,0,-1,2036,1415,0,0
-700,-398,0,0,0,0,0,0,0,0,0,-1,524,1422,0,0
-693,-398,0,0,0,0,0,0,0,0,0,-1,531,1422,0,0
-686,-398,0,0,0,0,0,0,0,0,0,-1,538,1422,0,0
-679,-398,0,0,0,0,0,0,0,0,0,-1,545,1422,0,0
-672,-398,0,0,0,0,0,0,0,0,0,-1,552,1422,0,0
-665,-398,0,0,0,0,0,0,0,0,0,-1,559,1422,0,0
-658,-398,0,0,0,0,0,0,0,0,0,-1,566,1422,0,0
-651,-398,0,0,0,0,0,0,0,0,0,-1,573,1422,0,0
-644,-398,0,0,0,0,0,0,0,0,0,-1,580,1422,0,0
-637,-398,0,0,0,0,0,0,0,0,0,-1,587,1422,0,0
-630,-398,0,0,0,0,0,0,0,0,0,-1,594,1422,0,0
-623,-398,0,0,0,0,0,0,0,0,0,-1,601,1422,0,0
-616,-398,0,0,0,0,0,0,0,0,0,-1,608,1422,0,0
-609,-398,-7.47125,-4.05322,0,0,0,0,0,0,0,-1,615,1422,-7.47128,4.05317
-602,-398,-4.58868,-2.77026,0,0,0,0,0,0,0,-1,622,1422,-4.58869,2.77023
-595,-398,-12.2224,-1.82007,0,0,0,0,0,0,0,-1,629,1422,-12.2224,1.82006
-588,-398,-10.6939,1.32336,0,0,0,0,0,0,0,-1,636,1422,-10.6939,-1.32337
-581,-398,-10.433,3.1123,0,0,0,0,0,0,0,-1,643,1422,-10.433,-3.11233
-574,-398,-10.4475,5.89807,0,0,0,0,0,0,0,-1,650,1422,-10.4475,-5.89802
-567,-398,-10.4904,6.80115,0,0,0,0,0,0,0,-1,657,1422,-10.4904,-6.80115
-560,-398,-10.5333,7.70435,0,0,0,0,0,0,0,-1,664,1422,-10.5333,-7.70429
-553,-398,-12.2435,8.51123,0,0,0,0,0,0,0,-1,671,1422,-12.2435,-8.51129
-546,-398,-12.2068,9.19067,0.000168971,0.000261193,6.97567e-05,0.000298702,0.000131463,1.07744,0.000172867,0.0259895,678,1422,-12.2068,-9.1907
-539,-398,-12.1307,9.80347,8.54487e-05,0.000188205,-1.34446e-05,0.000189935,8.37188e-05,-1.44283,0.000109915,0.0130609,685,1422,-12.1308,-9.80344
-532,-398,-12.1456,10.3491,0.000168977,0.000144149,-1.45374e-05,0.00017568,0.000137447,-0.432014,0.000106684,0.0209652,692,1422,-12.1456,-10.3492
-525,-398,-12.2246,10.8738,0.000517636,0.000281892,0.000202923,0.000634437,0.000165091,0.52228,0.000380074,0.0205181,699,1422,-12.2246,-10.8738
-518,-398,-12.2429,11.4053,0.00112834,0.000702006,0.000678528,0.0016264,0.000203949,0.633199,0.00102308,0.017972,706,1422,-12.2429,-11.4052
-511,-398,-12.2388,11.926,0.00191207,0.00129726,0.0013099,0.00295015,0.00025918,0.670146,0.00188632,0.0140189,713,1422,-12.2388,-11.926
-504,-398,-12.2342,12.4897,0.0029735,0.00215304,0.00220616,0.00480725,0.000319288,0.693474,0.00310388,0.0139636,720,1422,-12.2342,-12.4897
-497,-398,-12.2507,13.0302,0.0043335,0.00335766,0.00342662,0.00730677,0.000384389,0.714678,0.00474824,0.00989315,727,1422,-12.2506,-13.0301
-490,-398,-12.2616,13.5697,0.00616518,0.0050689,0.0050753,0.0107219,0.00051223,0.731606,0.00698342,0.0178511,734,1422,-12.2616,-13.5697
-483,-398,-12.2601,14.1171,0,0,0,0,0,0,0,-1,741,1422,-12.2601,-14.117
-476,-398,-8.64392,11.9448,0,0,0,0,0,0,0,-1,748,1422,-8.6439,-11.9448
-469,-398,-8.91699,10.6276,0,0,0,0,0,0,0,-1,755,1422,-8.91697,-10.6275
-462,-398,-9.59753,9.32532,0,0,0,0,0,0,0,-1,762,1422,-9.59753,-9.32531
-455,-398,-8.08331,6.75024,0,0,0,0,0,0,0,-1,769,1422,-8.08333,-6.75022
-448,-398,-7.4505,5.25293,0,0,0,0,0,0,0,-1,776,1422,-7.4505,-5.25291
-441,-398,-7.61639,3.32141,0,0,0,0,0,0,0,-1,783,1422,-7.61637,-3.32145
-434,-398,-10.7618,3.297,0,0,0,0,0,0,0,-1,790,1422,-10.7618,-3.29704
-427,-398,-11.9061,2.24939,0,0,0,0,0,0,0,-1,797,1422,-11.9061,-2.24941
-420,-398,-13.467,2.32788,0,0,0,0,0,0,0,-1,804,1422,-13.467,-2.32787
-413,-398,-14.7983,2.15515,0,0,0,0,0,0,0,-1,811,1422,-14.7983,-2.15516
-406,-398,0,0,0,0,0,0,0,0,0,-1,818,1422,0,0
-399,-398,0,0,0,0,0,0,0,0,0,-1,825,1422,0,0
-392,-398,0,0,0,0,0,0,0,0,0,-1,832,1422,0,0
-385,-398,0,0,0,0,0,0,0,0,0,-1,839,1422,0,0
-378,-398,0,0,0,0,0,0,0,0,0,-1,846,1422,0,0
-371,-398,0,0,0,0,0,0,0,0,0,-1,853,1422,0,0
-364,-398,0,0,0,0,0,0,0,0,0,-1,860,1422,0,0
-357,-398,0,0,0,0,0,0,0,0,0,-1,867,1422,0,0
-350,-398,0,0,0,0,0,0,0,0,0,-1,874,1422,0,0
-343,-398,0,0,0,0,0,0,0,0,0,-1,881,1422,0,0
-336,-398,0,0,0,0,0,0,0,0,0,-1,888,1422,0,0
-329,-398,0,0,0,0,0,0,0,0,0,-1,895,1422,0,0
-322,-398,0,0,0,0,0,0,0,0,0,-1,902,1422,0,0
-315,-398,0,0,0,0,0,0,0,0,0,-1,909,1422,0,0
-308,-398,0,0,0,0,0,0,0,0,0,-1,916,1422,0,0
-301,-398,0,0,0,0,0,0,0,0,0,-1,923,1422,0,0
-294,-398,0,0,0,0,0,0,0,0,0,-1,930,1422,0,0
-287,-398,0,0,0,0,0,0,0,0,0,-1,937,1422,0,0
-280,-398,0,0,0,0,0,0,0,0,0,-1,944,1422,0,0
-273,-398,0,0,0,0,0,0,0,0,0,-1,951,1422,0,0
-266,-398,0,0,0,0,0,0,0,0,0,-1,958,1422,0,0
-259,-398,0,0,0,0,0,0,0,0,0,-1,965,1422,0,0
-252,-398,0,0,0,0,0,0,0,0,0,-1,972,1422,0,0
-245,-398,0,0,0,0,0,0,0,0,0,-1,979,1422,0,0
-238,-398,0,0,0,0,0,0,0,0,0,-1,986,1422,0,0
-231,-398,0,0,0,0,0,0,0,0,0,-1,993,1422,0,0
-224,-398,0,0,0,0,0,0,0,0,0,-1,1000,1422,0,0
-217,-398,0,0,0,0,0,0,0,0,0,-1,1007,1422,0,0
-210,-398,0,0,0,0,0,0,0,0,0,-1,1014,1422,0,0
-203,-398,0,0,0,0,0,0,0,0,0,-1,1021,1422,0,0
-196,-398,0,0,0,0,0,0,0,0,0,-1,1028,1422,0,0
-189,-398,0,0,0,0,0,0,0,0,0,-1,1035,1422,0,0
-182,-398,0,0,0,0,0,0,0,0,0,-1,1042,1422,0,0
-175,-398,0,0,0,0,0,0,0,0,0,-1,1049,1422,0,0
-168,-398,0,0,0,0,0,0,0,0,0,-1,1056,1422,0,0
-161,-398,0,0,0,0,0,0,0,0,0,-1,1063,1422,0,0
-154,-398,0,0,0,0,0,0,0,0,0,-1,1070,1422,0,0
-147,-398,0,0,0,0,0,0,0,0,0,-1,1077,1422,0,0
-140,-398,0,0,0,0,0,0,0,0,0,-1,1084,1422,0,0
-133,-398,0,0,0,0,0,0,0,0,0,-1,1091,1422,0,0
-126,-398,0,0,0,0,0,0,0,0,0,-1,1098,1422,0,0
-119,-398,0,0,0,0,0,0,0,0,0,-1,1105,1422,0,0
-112,-398,0,0,0,0,0,0,0,0,0,-1,1112,1422,0,0
-105,-398,0,0,0,0,0,0,0,0,0,-1,1119,1422,0,0
-98,-398,0,0,0,0,0,0,0,0,0,-1,1126,1422,0,0
-91,-398,0,0,0,0,0,0,0,0,0,-1,1133,1422,0,0
-84,-398,0,0,0,0,0,0,0,0,0,-1,1140,1422,0,0
-77,-398,0,0,0,0,0,0,0,0,0,-1,1147,1422,0,0
-70,-398,0,0,0,0,0,0,0,0,0,-1,1154,1422,0,0
-63,-398,0,0,0,0,0,0,0,0,0,-1,1161,1422,0,0
-56,-398,0,0,0,0,0,0,0,0,0,-1,1168,1422,0,0
-49,-398,0,0,0,0,0,0,0,0,0,-1,1175,1422,0,0
-42,-398,0,0,0,0,0,0,0,0,0,-1,1182,1422,0,0
-35,-398,0,0,0,0,0,0,0,0,0,-1,1189,1422,0,0
-28,-398,0,0,0,0,0,0,0,0,0,-1,1196,1422,0,0
-21,-398,0,0,0,0,0,0,0,0,0,-1,1203,1422,0,0
-14,-398,0,0,0,0,0,0,0,0,0,-1,1210,1422,0,0
-7,-398,0,0,0,0,0,0,0,0,0,-1,1217,1422,0,0
0,-398,0,0,0,0,0,0,0,0,0,-1,1224,1422,0,0
7,-398,0,0,0,0,0,0,0,0,0,-1,1231,1422,0,0
14,-398,0,0,0,0,0,0,0,0,0,-1,1238,1422,0,0
21,-398,0,0,0,0,0,0,0,0,0,-1,1245,1422,0,0
28,-398,0,0,0,0,0,0,0,0,0,-1,1252,1422,0,0
35,-398,0,0,0,0,0,0,0,0,0,-1,1259,1422,0,0
42,-398,0,0,0,0,0,0,0,0,0,-1,1266,1422,0,0
49,-398,0,0,0,0,0,0,0,0,0,-1,1273,1422,0,0
56,-398,0,0,0,0,0,0,0,0,0,-1,1280,1422,0,0
63,-398,0,0,0,0,0,0,0,0,0,-1,1287,1422,0,0
70,-398,0,0,0,0,0,0,0,0,0,-1,1294,1422,0,0
77,-398,0,0,0,0,0,0,0,0,0,-1,1301,1422,0,0
84,-398,0,0,0,0,0,0,0,0,0,-1,1308,1422,0,0
91,-398,0,0,0,0,0,0,0,0,0,-1,1315,1422,0,0
98,-398,0,0,0,0,0,0,0,0,0,-1,1322,1422,0,0
105,-398,0,0,0,0,0,0,0,0,0,-1,1329,1422,0,0
112,-398,0,0,0,0,0,0,0,0,0,-1,1336,1422,0,0
119,-398,0,0,0,0,0,0,0,0,0,-1,1343,1422,0,0
126,-398,0,0,0,0,0,0,0,0,0,-1,1350,1422,0,0
133,-398,0,0,0,0,0,0,0,0,0,-1,1357,1422,0,0
140,-398,0,0,0,0,0,0,0,0,0,-1,1364,1422,0,0
147,-398,0,0,0,0,0,0,0,0,0,-1,1371,1422,0,0
154,-398,0,0,0,0,0,0,0,0,0,-1,1378,1422,0,0
161,-398,0,0,0,0,0,0,0,0,0,-1,1385,1422,0,0
168,-398,0,0,0,0,0,0,0,0,0,-1,1392,1422,0,0
175,-398,0,0,0,0,0,0,0,0,0,-1,1399,1422,0,0
182,-398,0,0,0,0,0,0,0,0,0,-1,1406,1422,0,0
189,-398,0,0,0,0,0,0,0,0,0,-1,1413,1422,0,0
196,-398,0,0,0,0,0,0,0,0,0,-1,1420,1422,0,0
203,-398,0,0,0,0,0,0,0,0,0,-1,1427,1422,0,0
210,-398,0,0,0,0,0,0,0,0,0,-1,1434,1422,0,0
217,-398,0,0,0,0,0,0,0,0,0,-1,1441,1422,0,0
224,-398,0,0,0,0,0,0,0,0,0,-1,1448,1422,0,0
231,-398,0,0,0,0,0,0,0,0,0,-1,1455,1422,0,0
238,-398,0,0,0,0,0,0,0,0,0,-1,1462,1422,0,0
245,-398,0,0,0,0,0,0,0,0,0,-1,1469,1422,0,0
252,-398,0,0,0,0,0,0,0,0,0,-1,1476,1422,0,0
259,-398,0,0,0,0,0,0,0,0,0,-1,1483,1422,0,0
266,-398,0,0,0,0,0,0,0,0,0,-1,1490,1422,0,0
273,-398,0,0,0,0,0,0,0,0,0,-1,1497,1422,0,0
280,-398,0,0,0,0,0,0,0,0,0,-1,1504,1422,0,0
287,-398,0,0,0,0,0,0,0,0,0,-1,1511,1422,0,0
294,-398,0,0,0,0,0,0,0,0,0,-1,1518,1422,0,0
301,-398,0,0,0,0,0,0,0,0,0,-1,1525,1422,0,0
308,-398,0,0,0,0,0,0,0,0,0,-1,1532,1422,0,0
315,-398,0,0,0,0,0,0,0,0,0,-1,1539,1422,0,0
322,-398,0,0,0,0,0,0,0,0,0,-1,1546,1422,0,0
329,-398,0,0,0,0,0,0,0,0,0,-1,1553,1422,0,0
336,-398,0,0,0,0,0,0,0,0,0,-1,1560,1422,0,0
343,-398,0,0,0,0,0,0,0,0,0,-1,1567,1422,0,0
350,-398,0,0,0,0,0,0,0,0,0,-1,1574,1422,0,0
357,-398,0,0,0,0,0,0,0,0,0,-1,1581,1422,0,0
364,-398,0,0,0,0,0,0,0,0,0,-1,1588,1422,0,0
371,-398,0,0,0,0,0,0,0,0,0,-1,1595,1422,0,0
378,-398,0,0,0,0,0,0,0,0,0,-1,1602,1422,0,0
385,-398,0,0,0,0,0,0,0,0,0,-1,1609,1422,0,0
392,-398,0,0,0,0,0,0,0,0,0,-1,1616,1422,0,0
399,-398,0,0,0,0,0,0,0,0,0,-1,1623,1422,0,0
406,-398,0,0,0,0,0,0,0,0,0,-1,1630,1422,0,0
413,-398,0,0,0,0,0,0,0,0,0,-1,1637,1422,0,0
420,-398,0,0,0,0,0,0,0,0,0,-1,1644,1422,0,0
427,-398,0,0,0,0,0,0,0,0,0,-1,1651,1422,0,0
434,-398,0,0,0,0,0,0,0,0,0,-1,1658,1422,0,0
441,-398,0,0,0,0,0,0,0,0,0,-1,1665,1422,0,0
448,-398,0,0,0,0,0,0,0,0,0,-1,1672,1422,0,0
455,-398,0,0,0,0,0,0,0,0,0,-1,1679,1422,0,0
462,-398,0,0,0,0,0,0,0,0,0,-1,1686,1422,0,0
469,-398,0,0,0,0,0,0,0,0,0,-1,1693,1422,0,0
476,-398,0,0,0,0,0,0,0,0,0,-1,1700,1422,0,0
483,-398,0,0,0,0,0,0,0,0,0,-1,1707,1422,0,0
490,-398,0,0,0,0,0,0,0,0,0,-1,1714,1422,0,0
497,-398,0,0,0,0,0,0,0,0,0,-1,1721,1422,0,0
504,-398,0,0,0,0,0,0,0,0,0,-1,1728,1422,0,0
511,-398,0,0,0,0,0,0,0,0,0,-1,1735,1422,0,0
518,-398,0,0,0,0,0,0,0,0,0,-1,1742,1422,0,0
525,-398,0,0,0,0,0,0,0,0,0,-1,1749,1422,0,0
532,-398,28.4558,3.84094,0,0,0,0,0,0,0,-1,1756,1422,28.4558,-3.8409
539,-398,27.0594,3.33887,0,0,0,0,0,0,0,-1,1763,1422,27.0595,-3.3389
546,-398,31.6873,5.58582,0,0,0,0,0,0,0,-1,1770,1422,31.6872,-5.58585
553,-398,30.4392,5.92383,0,0,0,0,0,0,0,-1,1777,1422,30.4392,-5.92386
560,-398,29.1621,6.30469,0,0,0,0,0,0,0,-1,1784,1422,29.1621,-6.30469
567,-398,27.8411,6.55029,0,0,0,0,0,0,0,-1,1791,1422,27.8411,-6.55033
574,-398,26.411,6.8916,0,0,0,0,0,0,0,-1,1798,1422,26.411,-6.8916
581,-398,24.75,7.11145,0,0,0,0,0,0,0,-1,1805,1422,24.7499,-7.11142
588,-398,23.1649,7.67969,0,0,0,0,0,0,0,-1,1812,1422,23.1649,-7.67975
595,-398,21.4253,7.86023,0,0,0,0,0,0,0,-1,1819,1422,21.4253,-7.86029
602,-398,19.6857,8.04077,0,0,0,0,0,0,0,-1,1826,1422,19.6856,-8.04083
609,-398,21.1835,13.2628,0,0,0,0,0,0,0,-1,1833,1422,21.1835,-13.2628
616,-398,26.4785,16.1802,0,0,0,0,0,0,0,-1,1840,1422,26.4785,-16.1802
623,-398,26.8672,15.1771,0,0,0,0,0,0,0,-1,1847,1422,26.8672,-15.1771
630,-398,26.8536,14.6599,0.00137289,0.00142105,-0.00112091,0.00251814,0.000275796,-0.796137,0.0015948,0.013603,1854,1422,26.8537,-14.6599
637,-398,26.8354,14.1725,0.00108566,0.000787527,-0.000693756,0.00164618,0.000227003,-0.679573,0.00103016,0.0145602,1861,1422,26.8355,-14.1725
644,-398,26.7576,13.6844,0.000928229,0.000365721,-0.000350329,0.00109623,0.000197715,-0.447167,0.000674645,0.0211926,1868,1422,26.7576,-13.6844
651,-398,26.7891,13.2382,0.00089241,-1.29749e-05,-1.87831e-05,0.000892799,-1.33644e-05,-0.0207341,0.000599704,0.0287482,1875,1422,26.789,-13.2382
658,-398,26.7646,12.7931,0.000911087,-0.000375863,0.000358521,0.00100422,-0.000469,0.254163,0.000869076,0.0238456,1882,1422,26.7646,-12.793
665,-398,26.7659,12.2363,0.000978112,-0.000775023,0.000790954,0.00128221,-0.00107912,0.367051,0.001365,0.0152431,1889,1422,26.7659,-12.2363
672,-398,26.7544,11.7281,0.00106192,-0.0012263,0.0013247,0.00166818,-0.00183257,0.429208,0.0020219,0.01239,1896,1422,26.7544,-11.7281
679,-398,26.7333,11.2285,0.00111321,-0.00181356,0.00202007,0.00214425,-0.0028446,0.471933,0.00288976,0.011686,1903,1422,26.7333,-11.2285
686,-398,26.7317,10.7402,0.00098168,-0.0027844,0.00308927,0.00271658,-0.00451929,0.511696,0.00422063,0.0176888,1910,1422,26.7317,-10.7402
693,-398,26.4849,10.5079,0.000808956,-0.00394741,0.00431826,0.00336059,-0.00649905,0.533698,0.0057878,0.04573,1917,1422,26.4848,-10.5079
700,-398,26.2415,10.3473,0,0,0,0,0,0,0,-1,1924,1422,26.2415,-10.3473
707,-398,10.9731,5.479,0,0,0,0,0,0,0,-1,1931,1422,10.9732,-5.47896
714,-398,11.7313,6.17346,0,0,0,0,0,0,0,-1,1938,1422,11.7313,-6.17348
721,-398,13.9371,8.05103,0,0,0,0,0,0,0,-1,1945,1422,13.9372,-8.05102
728,-398,14.786,7.0282,0,0,0,0,0,0,0,-1,1952,1422,14.786,-7.0282
735,-398,0,0,0,0,0,0,0,0,0,-1,1959,1422,0,0
742,-398,0,0,0,0,0,0,0,0,0,-1,1966,1422,0,0
749,-398,0,0,0,0,0,0,0,0,0,-1,1973,1422,0,0
756,-398,0,0,0,0,0,0,0,0,0,-1,1980,1422,0,0
763,-398,0,0,0,0,0,0,0,0,0,-1,1987,1422,0,0
770,-398,0,0,0,0,0,0,0,0,0,-1,1994,1422,0,0
777,-398,0,0,0,0,0,0,0,0,0,-1,2001,1422,0,0
784,-398,0,0,0,0,0,0,0,0,0,-1,2008,1422,0,0
791,-398,0,0,0,0,0,0,0,0,0,-1,2015,1422,0,0
798,-398,0,0,0,0,0,0,0,0,0,-1,2022,1422,0,0
805,-398,0,0,0,0,0,0,0,0,0,-1,2029,1422,0,0
812,-398,0,0,0,0,0,0,0,0,0,-1,2036,1422,0,0
-700,-405,0,0,0,0,0,0,0,0,0,-1,524,1429,0,0
-693,-405,0,0,0,0,0,0,0,0,0,-1,531,1429,0,0
-686,-405,0,0,0,0,0,0,0,0,0,-1,538,1429,0,0
-679,-405,0,0,0,0,0,0,0,0,0,-1,545,1429,0,0
-672,-405,0,0,0,0,0,0,0,0,0,-1,552,1429,0,0
-665,-405,0,0,0,0,0,0,0,0,0,-1,559,1429,0,0
-658,-405,0,0,0,0,0,0,0,0,0,-1,566,1429,0,0
-651,-405,0,0,0,0,0,0,0,0,0,-1,573,1429,0,0
-644,-405,0,0,0,0,0,0,0,0,0,-1,580,1429,0,0
-637,-405,0,0,0,0,0,0,0,0,0,-1,587,1429,0,0
-630,-405,0,0,0,0,0,0,0,0,0,-1,594,1429,0,0
-623,-405,0,0,0,0,0,0,0,0,0,-1,601,1429,0,0
-616,-405,0,0,0,0,0,0,0,0,0,-1,608,1429,0,0
-609,-405,0,0,0,0,0,0,0,0,0,-1,615,1429,0,0
-602,-405,-5.80988,-3.46594,0,0,0,0,0,0,0,-1,622,1429,-5.80987,3.46592
-595,-405,-9.35413,2.01477,0,0,0,0,0,0,0,-1,629,1429,-9.35411,-2.01476
-588,-405,-7.35693,0.507202,0,0,0,0,0,0,0,-1,636,1429,-7.35696,-0.507187
-581,-405,-10.1284,1.62927,0,0,0,0,0,0,0,-1,643,1429,-10.1284,-1.62922
-574,-405,-9.32074,3.05896,0,0,0,0,0,0,0,-1,650,1429,-9.32077,-3.0589
-567,-405,-9.68781,6.92163,0,0,0,0,0,0,0,-1,657,1429,-9.68782,-6.92166
-560,-405,-9.28674,7.20886,0,0,0,0,0,0,0,-1,664,1429,-9.28675,-7.20885
-553,-405,-11.6102,8.53369,0,0,0,0,0,0,0,-1,671,1429,-11.6102,-8.53367
-546,-405,-11.6204,9.1626,-0.000700156,0.000329415,-0.000193334,0.000364522,-0.000735264,-1.39116,0.000646876,0.0388312,678,1429,-11.6204,-9.16257
-539,-405,-11.6237,9.76843,-0.000652065,0.000272953,-0.000210246,0.000318497,-0.000697609,-1.35747,0.000600106,0.0128782,685,1429,-11.6236,-9.76838
-532,-405,-11.6287,10.3137,-0.000481154,0.000188556,-0.000208769,0.000248305,-0.000540903,-1.29205,0.000465971,0.0157591,692,1429,-11.6287,-10.3137
-525,-405,-11.6495,10.8767,-7.21314e-05,0.00024463,-2.68193e-05,0.000246885,-7.43861e-05,-1.48692,0.000194194,0.0149785,699,1429,-11.6495,-10.8768
-518,-405,-11.6703,11.4319,0.000586433,0.000598343,0.000417609,0.00101004,0.000174736,0.792528,0.000623332,0.0154537,706,1429,-11.6703,-11.4319
-511,-405,-11.7029,11.949,0.00139195,0.00113904,0.00101173,0.0022851,0.000245891,0.723225,0.00144841,0.0160518,713,1429,-11.7029,-11.949
-504,-405,-11.6771,12.5027,0.00242858,0.00191579,0.00183088,0.00402093,0.000323447,0.715831,0.00257957,0.0172196,720,1429,-11.6771,-12.5027
-497,-405,-11.688,13.0701,0.00375166,0.00303258,0.00295069,0.00636464,0.0004196,0.724772,0.00411037,0.0138448,727,1429,-11.688,-13.0701
-490,-405,-11.7198,13.6151,0.00551596,0.00463225,0.0045011,0.00959685,0.000551364,0.736472,0.00622226,0.01193,734,1429,-11.7198,-13.6152
-483,-405,-11.6735,14.2135,0.00750346,0.0066944,0.00639061,0.0135023,0.000695528,0.75379,0.0087789,0.0236596,741,1429,-11.6735,-14.2135
-476,-405,-11.5186,14.9824,0,0,0,0,0,0,0,-1,748,1429,-11.5185,-14.9825
-469,-405,-9.65692,12.8171,0,0,0,0,0,0,0,-1,755,1429,-9.65691,-12.8172
-462,-405,-9.14862,11.3597,0,0,0,0,0,0,0,-1,762,1429,-9.14865,-11.3597
-455,-405,-9.021,9.51111,0,0,0,0,0,0,0,-1,769,1429,-9.021,-9.51109
-448,-405,-8.4649,6.82813,0,0,0,0,0,0,0,-1,776,1429,-8.46492,-6.82817
-441,-405,-6.6712,4.23767,0,0,0,0,0,0,0,-1,783,1429,-6.67121,-4.23764
-434,-405,-9.62549,3.94189,0,0,0,0,0,0,0,-1,790,1429,-9.62546,-3.94191
-427,-405,-10.9764,3.73926,0,0,0,0,0,0,0,-1,797,1429,-10.9764,-3.73923
-420,-405,-12.1187,3.68506,0,0,0,0,0,0,0,-1,804,1429,-12.1187,-3.68512
-413,-405,-13.5353,3.75659,0,0,0,0,0,0,0,-1,811,1429,-13.5353,-3.75655
-406,-405,-14.7374,3.99817,0,0,0,0,0,0,0,-1,818,1429,-14.7374,-3.99814
-399,-405,0,0,0,0,0,0,0,0,0,-1,825,1429,0,0
-392,-405,0,0,0,0,0,0,0,0,0,-1,832,1429,0,0
-385,-405,0,0,0,0,0,0,0,0,0,-1,839,1429,0,0
-378,-405,0,0,0,0,0,0,0,0,0,-1,846,1429,0,0
-371,-405,0,0,0,0,0,0,0,0,0,-1,853,1429,0,0
-364,-405,0,0,0,0,0,0,0,0,0,-1,860,1429,0,0
-357,-405,0,0,0,0,0,0,0,0,0,-1,867,1429,0,0
-350,-405,0,0,0,0,0,0,0,0,0,-1,874,1429,0,0
-343,-405,0,0,0,0,0,0,0,0,0,-1,881,1429,0,0
-336,-405,0,0,0,0,0,0,0,0,0,-1,888,1429,0,0
-329,-405,0,0,0,0,0,0,0,0,0,-1,895,1429,0,0
-322,-405,0,0,0,0,0,0,0,0,0,-1,902,1429,0,0
-315,-405,0,0,0,0,0,0,0,0,0,-1,909,1429,0,0
-308,-405,0,0,0,0,0,0,0,0,0,-1,916,1429,0,0
-301,-405,0,0,0,0,0,0,0,0,0,-1,923,1429,0,0
-294,-405,0,0,0,0,0,0,0,0,0,-1,930,1429,0,0
-287,-405,0,0,0,0,0,0,0,0,0,-1,937,1429,0,0
-280,-405,0,0,0,0,0,0,0,0,0,-1,944,1429,0,0
-273,-405,0,0,0,0,0,0,0,0,0,-1,951,1429,0,0
-266,-405,0,0,0,0,0,0,0,0,0,-1,958,1429,0,0
-259,-405,0,0,0,0,0,0,0,0,0,-1,965,1429,0,0
-252,-405,0,0,0,0,0,0,0,0,0,-1,972,1429,0,0
-245,-405,0,0,0,0,0,0,0,0,0,-1,979,1429,0,0
-238,-405,0,0,0,0,0,0,0,0,0,-1,986,1429,0,0
-231,-405,0,0,0,0,0,0,0,0,0,-1,993,1429,0,0
-224,-405,0,0,0,0,0,0,0,0,0,-1,1000,1429,0,0
-217,-405,0,0,0,0,0,0,0,0,0,-1,1007,1429,0,0
-210,-405,0,0,0,0,0,0,0,0,0,-1,1014,1429,0,0
-203,-405,0,0,0,0,0,0,0,0,0,-1,1021,1429,0,0
-196,-405,0,0,0,0,0,0,0,0,0,-1,1028,1429,0,0
-189,-405,0,0,0,0,0,0,0,0,0,-1,1035,1429,0,0
-182,-405,0,0,0,0,0,0,0,0,0,-1,1042,1429,0,0
-175,-405,0,0,0,0,0,0,0,0,0,-1,1049,1429,0,0
-168,-405,0,0,0,0,0,0,0,0,0,-1,1056,1429,0,0
-161,-405,0,0,0,0,0,0,0,0,0,-1,1063,1429,0,0
-154,-405,0,0,0,0,0,0,0,0,0,-1,1070,1429,0,0
-147,-405,0,0,0,0,0,0,0,0,0,-1,1077,1429,0,0
-140,-405,0,0,0,0,0,0,0,0,0,-1,1084,1429,0,0
-133,-405,0,0,0,0,0,0,0,0,0,-1,1091,1429,0,0
-126,-405,0,0,0,0,0,0,0,0,0,-1,1098,1429,0,0
-119,-405,0,0,0,0,0,0,0,0,0,-1,1105,1429,0,0
-112,-405,0,0,0,0,0,0,0,0,0,-1,1112,1429,0,0
-105,-405,0,0,0,0,0,0,0,0,0,-1,1119,1429,0,0
-98,-405,0,0,0,0,0,0,0,0,0,-1,1126,1429,0,0
-91,-405,0,0,0,0,0,0,0,0,0,-1,1133,1429,0,0
-84,-405,0,0,0,0,0,0,0,0,0,-1,1140,1429,0,0
-77,-405,0,0,0,0,0,0,0,0,0,-1,1147,1429,0,0
-70,-405,0,0,0,0,0,0,0,0,0,-1,1154,1429,0,0
-63,-405,0,0,0,0,0,0,0,0,0,-1,1161,1429,0,0
-56,-405,0,0,0,0,0,0,0,0,0,-1,1168,1429,0,0
-49,-405,0,0,0,0,0,0,0,0,0,-1,1175,1429,0,0
-42,-405,0,0,0,0,0,0,0,0,0,-1,1182,1429,0,0
-35,-405,0,0,0,0,0,0,0,0,0,-1,1189,1429,0,0
-28,-405,0,0,0,0,0,0,0,0,0,-1,1196,1429,0,0
-21,-405,0,0,0,0,0,0,0,0,0,-1,1203,1429,0,0
-14,-405,0,0,0,0,0,0,0,0,0,-1,1210,1429,0,0
-7,-405,0,0,0,0,0,0,0,0,0,-1,1217,1429,0,0
0,-405,0,0,0,0,0,0,0,0,0,-1,1224,1429,0,0
7,-405,0,0,0,0,0,0,0,0,0,-1,1231,1429,0,0
14,-405,0,0,0,0,0,0,0,0,0,-1,1238,1429,0,0
21,-405,0,0,0,0,0,0,0,0,0,-1,1245,1429,0,0
28,-405,0,0,0,0,0,0,0,0,0,-1,1252,1429,0,0
35,-405,0,0,0,0,0,0,0,0,0,-1,1259,1429,0,0
42,-405,0,0,0,0,0,0,0,0,0,-1,1266,1429,0,0
49,-405,0,0,0,0,0,0,0,0,0,-1,1273,1429,0,0
56,-405,0,0,0,0,0,0,0,0,0,-1,1280,1429,0,0
63,-405,0,0,0,0,0,0,0,0,0,-1,1287,1429,0,0
70,-405,0,0,0,0,0,0,0,0,0,-1,1294,1429,0,0
77,-405,0,0,0,0,0,0,0,0,0,-1,1301,1429,0,0
84,-405,0,0,0,0,0,0,0,0,0,-1,1308,1429,0,0
91,-405,0,0,0,0,0,0,0,0,0,-1,1315,1429,0,0
98,-405,0,0,0,0,0,0,0,0,0,-1,1322,1429,0,0
105,-405,0,0,0,0,0,0,0,0,0,-1,1329,1429,0,0
112,-405,0,0,0,0,0,0,0,0,0,-1,1336,1429,0,0
119,-405,0,0,0,0,0,0,0,0,0,-1,1343,1429,0,0
126,-405,0,0,0,0,0,0,0,0,0,-1,1350,1429,0,0
133,-405,0,0,0,0,0,0,0,0,0,-1,1357,1429,0,0
140,-405,0,0,0,0,0,0,0,0,0,-1,1364,1429,0,0
147,-405,0,0,0,0,0,0,0,0,0,-1,1371,1429,0,0
154,-405,0,0,0,0,0,0,0,0,0,-1,1378,1429,0,0
161,-405,0,0,0,0,0,0,0,0,0,-1,1385,1429,0,0
168,-405,0,0,0,0,0,0,0,0,0,-1,1392,1429,0,0
175,-405,0,0,0,0,0,0,0,0,0,-1,1399,1429,0,0
182,-405,0,0,0,0,0,0,0,0,0,-1,1406,1429,0,0
189,-405,0,0,0,0,0,0,0,0,0,-1,1413,1429,0,0
196,-405,0,0,0,0,0,0,0,0,0,-1,1420,1429,0,0
203,-405,0,0,0,0,0,0,0,0,0,-1,1427,1429,0,0
210,-405,0,0,0,0,0,0,0,0,0,-1,1434,1429,0,0
217,-405,0,0,0,0,0,0,0,0,0,-1,1441,1429,0,0
224,-405,0,0,0,0,0,0,0,0,0,-1,1448,1429,0,0
231,-405,0,0,0,0,0,0,0,0,0,-1,1455,1429,0,0
238,-405,0,0,0,0,0,0,0,0,0,-1,1462,1429,0,0
245,-405,0,0,0,0,0,0,0,0,0,-1,1469,1429,0,0
252,-405,0,0,0,0,0,0,0,0,0,-1,1476,1429,0,0
259,-405,0,0,0,0,0,0,0,0,0,-1,1483,1429,0,0
266,-405,0,0,0,0,0,0,0,0,0,-1,1490,1429,0,0
273,-405,0,0,0,0,0,0,0,0,0,-1,1497,1429,0,0
280,-405,0,0,0,0,0,0,0,0,0,-1,1504,1429,0,0
287,-405,0,0,0,0,0,0,0,0,0,-1,1511,1429,0,0
294,-405,0,0,0,0,0,0,0,0,0,-1,1518,1429,0,0
301,-405,0,0,0,0,0,0,0,0,0,-1,1525,1429,0,0
308,-405,0,0,0,0,0,0,0,0,0,-1,1532,1429,0,0
315,-405,0,0,0,0,0,0,0,0,0,-1,1539,1429,0,0
322,-405,0,0,0,0,0,0,0,0,0,-1,1546,1429,0,0
329,-405,0,0,0,0,0,0,0,0,0,-1,1553,1429,0,0
336,-405,0,0,0,0,0,0,0,0,0,-1,1560,1429,0,0
343,-405,0,0,0,0,0,0,0,0,0,-1,1567,1429,0,0
350,-405,0,0,0,0,0,0,0,0,0,-1,1574,1429,0,0
357,-405,0,0,0,0,0,0,0,0,0,-1,1581,1429,0,0
364,-405,0,0,0,0,0,0,0,0,0,-1,1588,1429,0,0
371,-405,0,0,0,0,0,0,0,0,0,-1,1595,1429,0,0
378,-405,0,0,0,0,0,0,0,0,0,-1,1602,1429,0,0
385,-405,0,0,0,0,0,0,0,0,0,-1,1609,1429,0,0
392,-405,0,0,0,0,0,0,0,0,0,-1,1616,1429,0,0
399,-405,0,0,0,0,0,0,0,0,0,-1,1623,1429,0,0
406,-405,0,0,0,0,0,0,0,0,0,-1,1630,1429,0,0
413,-405,0,0,0,0,0,0,0,0,0,-1,1637,1429,0,0
420,-405,0,0,0,0,0,0,0,0,0,-1,1644,1429,0,0
427,-405,0,0,0,0,0,0,0,0,0,-1,1651,1429,0,0
434,-405,0,0,0,0,0,0,0,0,0,-1,1658,1429,0,0
441,-405,0,0,0,0,0,0,0,0,0,-1,1665,1429,0,0
448,-405,0,0,0,0,0,0,0,0,0,-1,1672,1429,0,0
455,-405,0,0,0,0,0,0,0,0,0,-1,1679,1429,0,0
462,-405,0,0,0,0,0,0,0,0,0,-1,1686,1429,0,0
469,-405,0,0,0,0,0,0,0,0,0,-1,1693,1429,0,0
476,-405,0,0,0,0,0,0,0,0,0,-1,1700,1429,0,0
483,-405,0,0,0,0,0,0,0,0,0,-1,1707,1429,0,0
490,-405,0,0,0,0,0,0,0,0,0,-1,1714,1429,0,0
497,-405,0,0,0,0,0,0,0,0,0,-1,1721,1429,0,0
504,-405,0,0,0,0,0,0,0,0,0,-1,1728,1429,0,0
511,-405,0,0,0,0,0,0,0,0,0,-1,1735,1429,0,0
518,-405,0,0,0,0,0,0,0,0,0,-1,1742,1429,0,0
525,-405,31.1563,-1.40942,0,0,0,0,0,0,0,-1,1749,1429,31.1563,1.40937
532,-405,28.156,4.8783,0,0,0,0,0,0,0,-1,1756,1429,28.1561,-4.87833
539,-405,26.5133,3.02454,0,0,0,0,0,0,0,-1,1763,1429,26.5133,-3.0246
546,-405,29.5735,6.53052,0,0,0,0,0,0,0,-1,1770,1429,29.5735,-6.53049
553,-405,28.2911,6.70654,0,0,0,0,0,0,0,-1,1777,1429,28.2912,-6.70656
560,-405,26.9299,7.08472,0,0,0,0,0,0,0,-1,1784,1429,26.9299,-7.08469
567,-405,25.804,7.14661,0,0,0,0,0,0,0,-1,1791,1429,25.8039,-7.14665
574,-405,25.1151,8.07971,0,0,0,0,0,0,0,-1,1798,1429,25.1151,-8.07965
581,-405,23.5055,8.505,0,0,0,0,0,0,0,-1,1805,1429,23.5054,-8.50501
588,-405,21.7491,8.98254,0,0,0,0,0,0,0,-1,1812,1429,21.7491,-8.98254
595,-405,21.6327,10.7795,0,0,0,0,0,0,0,-1,1819,1429,21.6327,-10.7796
602,-405,21.6461,13.9199,0,0,0,0,0,0,0,-1,1826,1429,21.6461,-13.92
609,-405,25.988,16.5789,0,0,0,0,0,0,0,-1,1833,1429,25.9881,-16.5789
616,-405,26.2784,15.9159,0.00325183,0.00344973,-0.00262915,0.00598179,0.000719768,-0.804208,0.00377091,0.0400595,1840,1429,26.2784,-15.9159
623,-405,26.3306,15.2754,0.00223707,0.00217168,-0.00171829,0.00392297,0.000485775,-0.775886,0.00246937,0.0135201,1847,1429,26.3306,-15.2754
630,-405,26.3418,14.7173,0.00164134,0.00129453,-0.00110098,0.00258248,0.000353385,-0.707291,0.00161679,0.0107612,1854,1429,26.3418,-14.7172
637,-405,26.3151,14.2163,0.00132738,0.000624541,-0.000680871,0.00174218,0.00020975,-0.547162,0.00109823,0.011299,1861,1429,26.3151,-14.2163
644,-405,26.2197,13.6953,0.00113809,0.000166862,-0.000336808,0.00124346,6.14934e-05,-0.303198,0.000809255,0.0300127,1868,1429,26.2197,-13.6953
651,-405,26.2083,13.2379,0.00108053,-0.000191227,-5.10361e-05,0.00108257,-0.000193272,-0.0400446,0.000794018,0.0335643,1875,1429,26.2083,-13.2379
658,-405,26.2455,12.7662,0.00103983,-0.000533737,0.000303624,0.00109638,-0.00059029,0.184149,0.000988302,0.0254384,1882,1429,26.2455,-12.7663
665,-405,26.2365,12.2341,0.00102442,-0.000917282,0.000733052,0.00127008,-0.00116295,0.323367,0.00140517,0.0200493,1889,1429,26.2365,-12.2342
672,-405,26.2367,11.7087,0.000977615,-0.00134194,0.00129728,0.00155796,-0.00192228,0.420651,0.00201298,0.0231093,1896,1429,26.2367,-11.7088
679,-405,26.296,11.2252,0.000813361,-0.00198263,0.00211193,0.00194808,-0.00311735,0.493033,0.00295039,0.0220388,1903,1429,26.296,-11.2252
686,-405,26.155,10.8114,0.000300919,-0.00315108,0.00348331,0.00246241,-0.00531257,0.555376,0.00458832,0.037804,1910,1429,26.1551,-10.8114
693,-405,25.9158,10.6809,0,0,0,0,0,0,0,-1,1917,1429,25.9157,-10.6809
700,-405,9.1958,4.02026,0,0,0,0,0,0,0,-1,1924,1429,9.19579,-4.02025
707,-405,7.40308,3.83191,0,0,0,0,0,0,0,-1,1931,1429,7.40311,-3.83194
714,-405,7.33252,3.47388,0,0,0,0,0,0,0,-1,1938,1429,7.33255,-3.47383
721,-405,9.23523,0.993896,0,0,0,0,0,0,0,-1,1945,1429,9.23523,-0.993884
728,-405,0,0,0,0,0,0,0,0,0,-1,1952,1429,0,0
735,-405,0,0,0,0,0,0,0,0,0,-1,1959,1429,0,0
742,-405,0,0,0,0,0,0,0,0,0,-1,1966,1429,0,0
749,-405,0,0,0,0,0,0,0,0,0,-1,1973,1429,0,0
756,-405,0,0,0,0,0,0,0,0,0,-1,1980,1429,0,0
763,-405,0,0,0,0,0,0,0,0,0,-1,1987,1429,0,0
770,-405,0,0,0,0,0,0,0,0,0,-1,1994,1429,0,0
777,-405,0,0,0,0,0,0,0,0,0,-1,2001,1429,0,0
784,-405,0,0,0,0,0,0,0,0,0,-1,2008,1429,0,0
791,-405,0,0,0,0,0,0,0,0,0,-1,2015,1429,0,0
798,-405,0,0,0,0,0,0,0,0,0,-1,2022,1429,0,0
805,-405,0,0,0,0,0,0,0,0,0,-1,2029,1429,0,0
812,-405,0,0,0,0,0,0,0,0,0,-1,2036,1429,0,0
-700,-412,0,0,0,0,0,0,0,0,0,-1,524,1436,0,0
-693,-412,0,0,0,0,0,0,0,0,0,-1,531,1436,0,0
-686,-412,0,0,0,0,0,0,0,0,0,-1,538,1436,0,0
-679,-412,0,0,0,0,0,0,0,0,0,-1,545,1436,0,0
-672,-412,0,0,0,0,0,0,0,0,0,-1,552,1436,0,0
-665,-412,0,0,0,0,0,0,0,0,0,-1,559,1436,0,0
-658,-412,0,0,0,0,0,0,0,0,0,-1,566,1436,0,0
-651,-412,0,0,0,0,0,0,0,0,0,-1,573,1436,0,0
-644,-412,0,0,0,0,0,0,0,0,0,-1,580,1436,0,0
-637,-412,0,0,0,0,0,0,0,0,0,-1,587,1436,0,0
-630,-412,0,0,0,0,0,0,0,0,0,-1,594,1436,0,0
-623,-412,0,0,0,0,0,0,0,0,0,-1,601,1436,0,0
-616,-412,0,0,0,0,0,0,0,0,0,-1,608,1436,0,0
-609,-412,0,0,0,0,0,0,0,0,0,-1,615,1436,0,0
-602,-412,-3.72766,-3.50012,0,0,0,0,0,0,0,-1,622,1436,-3.72764,3.50017
-595,-412,-10.3706,0.65564,0,0,0,0,0,0,0,-1,629,1436,-10.3706,-0.655672
-588,-412,-8.17957,1.94934,0,0,0,0,0,0,0,-1,636,1436,-8.17956,-1.94939
-581,-412,-6.60065,-0.0554199,0,0,0,0,0,0,0,-1,643,1436,-6.60063,0.0554733
-574,-412,-8.34131,5.25012,0,0,0,0,0,0,0,-1,650,1436,-8.34129,-5.25012
-567,-412,-7.50354,3.65454,0,0,0,0,0,0,0,-1,657,1436,-7.50356,-3.65452
-560,-412,-8.52448,7.39014,0,0,0,0,0,0,0,-1,664,1436,-8.52447,-7.39019
-553,-412,-7.36761,6.54651,0,0,0,0,0,0,0,-1,671,1436,-7.36763,-6.54654
-546,-412,-11.023,9.17505,0,0,0,0,0,0,0,-1,678,1436,-11.023,-9.17506
-539,-412,-11.047,9.73755,-0.00160615,0.000409785,-0.000497479,0.000525866,-0.00172223,-1.34156,0.00135782,0.0242038,685,1436,-11.047,-9.73756
-532,-412,-11.09,10.3632,-0.00122185,0.000268984,-0.000436811,0.00038754,-0.00134041,-1.30577,0.00104697,0.0143759,692,1436,-11.09,-10.3632
-525,-412,-11.1077,10.9218,-0.000686349,0.000220252,-0.000262496,0.00029077,-0.000756866,-1.30835,0.000624489,0.0152976,699,1436,-11.1077,-10.9217
-518,-412,-11.1299,11.4618,5.11484e-05,0.000474725,0.000169022,0.000533903,-8.02937e-06,1.23402,0.000358642,0.0157418,706,1436,-11.1299,-11.4618
-511,-412,-11.1511,11.9717,0.000894152,0.00095538,0.000748393,0.00167378,0.000175747,0.80584,0.00106213,0.0192273,713,1436,-11.1511,-11.9717
-504,-412,-11.1491,12.5142,0.00190013,0.00165233,0.00151071,0.00329201,0.000260443,0.744483,0.00211322,0.0184621,720,1436,-11.1491,-12.5142
-497,-412,-11.1721,13.0845,0.00315298,0.00266679,0.00253378,0.0054553,0.000364475,0.737573,0.00352167,0.0141104,727,1436,-11.172,-13.0845
-490,-412,-11.188,13.6246,0.00479675,0.00412936,0.00394687,0.00842401,0.000502104,0.743225,0.00545635,0.0119729,734,1436,-11.1881,-13.6247
-483,-412,-11.202,14.1458,0.0067639,0.00598014,0.00571054,0.012096,0.000648051,0.75114,0.00785689,0.00937955,741,1436,-11.202,-14.1458
-476,-412,-11.0523,14.9575,0.00914963,0.00840915,0.00796635,0.0167543,0.000804433,0.762177,0.0109113,0.0354875,748,1436,-11.0523,-14.9575
-469,-412,-10.9678,15.7885,0,0,0,0,0,0,0,-1,755,1436,-10.9678,-15.7885
-462,-412,-8.94659,13.3385,0,0,0,0,0,0,0,-1,762,1436,-8.94657,-13.3385
-455,-412,-8.25006,11.2572,0,0,0,0,0,0,0,-1,769,1436,-8.25007,-11.2572
-448,-412,-7.38086,8.78186,0,0,0,0,0,0,0,-1,776,1436,-7.38088,-8.78183
-441,-412,-8.79523,9.05286,0,0,0,0,0,0,0,-1,783,1436,-8.79521,-9.0529
-434,-412,-10.6305,8.03577,0,0,0,0,0,0,0,-1,790,1436,-10.6305,-8.0358
-427,-412,-10.0004,5.15271,0,0,0,0,0,0,0,-1,797,1436,-10.0004,-5.15266
-420,-412,-10.4468,4.9043,0,0,0,0,0,0,0,-1,804,1436,-10.4468,-4.90429
-413,-412,-11.5704,4.97766,0,0,0,0,0,0,0,-1,811,1436,-11.5704,-4.97771
-406,-412,-13.1968,5.70093,0,0,0,0,0,0,0,-1,818,1436,-13.1968,-5.70096
-399,-412,-10.5506,0.771973,0,0,0,0,0,0,0,-1,825,1436,-10.5506,-0.771954
-392,-412,0,0,0,0,0,0,0,0,0,-1,832,1436,0,0
-385,-412,0,0,0,0,0,0,0,0,0,-1,839,1436,0,0
-378,-412,0,0,0,0,0,0,0,0,0,-1,846,1436,0,0
-371,-412,0,0,0,0,0,0,0,0,0,-1,853,1436,0,0
-364,-412,0,0,0,0,0,0,0,0,0,-1,860,1436,0,0
-357,-412,0,0,0,0,0,0,0,0,0,-1,867,1436,0,0
-350,-412,0,0,0,0,0,0,0,0,0,-1,874,1436,0,0
-343,-412,0,0,0,0,0,0,0,0,0,-1,881,1436,0,0
-336,-412,0,0,0,0,0,0,0,0,0,-1,888,1436,0,0
-329,-412,0,0,0,0,0,0,0,0,0,-1,895,1436,0,0
-322,-412,0,0,0,0,0,0,0,0,0,-1,902,1436,0,0
-315,-412,0,0,0,0,0,0,0,0,0,-1,909,1436,0,0
-308,-412,0,0,0,0,0,0,0,0,0,-1,916,1436,0,0
-301,-412,0,0,0,0,0,0,0,0,0,-1,923,1436,0,0
-294,-412,0,0,0,0,0,0,0,0,0,-1,930,1436,0,0
-287,-412,0,0,0,0,0,0,0,0,0,-1,937,1436,0,0
-280,-412,0,0,0,0,0,0,0,0,0,-1,944,1436,0,0
-273,-412,0,0,0,0,0,0,0,0,0,-1,951,1436,0,0
-266,-412,0,0,0,0,0,0,0,0,0,-1,958,1436,0,0
-259,-412,0,0,0,0,0,0,0,0,0,-1,965,1436,0,0
-252,-412,0,0,0,0,0,0,0,0,0,-1,972,1436,0,0
-245,-412,0,0,0,0,0,0,0,0,0,-1,979,1436,0,0
-238,-412,0,0,0,0,0,0,0,0,0,-1,986,1436,0,0
-231,-412,0,0,0,0,0,0,0,0,0,-1,993,1436,0,0
-224,-412,0,0,0,0,0,0,0,0,0,-1,1000,1436,0,0
-217,-412,0,0,0,0,0,0,0,0,0,-1,1007,1436,0,0
-210,-412,0,0,0,0,0,0,0,0,0,-1,1014,1436,0,0
-203,-412,0,0,0,0,0,0,0,0,0,-1,1021,1436,0,0
-196,-412,0,0,0,0,0,0,0,0,0,-1,1028,1436,0,0
-189,-412,0,0,0,0,0,0,0,0,0,-1,1035,1436,0,0
-182,-412,0,0,0,0,0,0,0,0,0,-1,1042,1436,0,0
-175,-412,0,0,0,0,0,0,0,0,0,-1,1049,1436,0,0
-168,-412,0,0,0,0,0,0,0,0,0,-1,1056,1436,0,0
-161,-412,0,0,0,0,0,0,0,0,0,-1,1063,1436,0,0
-154,-412,0,0,0,0,0,0,0,0,0,-1,1070,1436,0,0
-147,-412,0,0,0,0,0,0,0,0,0,-1,1077,1436,0,0
-140,-412,0,0,0,0,0,0,0,0,0,-1,1084,1436,0,0
-133,-412,0,0,0,0,0,0,0,0,0,-1,1091,1436,0,0
-126,-412,0,0,0,0,0,0,0,0,0,-1,1098,1436,0,0
-119,-412,0,0,0,0,0,0,0,0,0,-1,1105,1436,0,0
-112,-412,0,0,0,0,0,0,0,0,0,-1,1112,1436,0,0
-105,-412,0,0,0,0,0,0,0,0,0,-1,1119,1436,0,0
-98,-412,0,0,0,0,0,0,0,0,0,-1,1126,1436,0,0
-91,-412,0,0,0,0,0,0,0,0,0,-1,1133,1436,0,0
-84,-412,0,0,0,0,0,0,0,0,0,-1,1140,1436,0,0
-77,-412,0,0,0,0,0,0,0,0,0,-1,1147,1436,0,0
-70,-412,0,0,0,0,0,0,0,0,0,-1,1154,1436,0,0
-63,-412,0,0,0,0,0,0,0,0,0,-1,1161,1436,0,0
-56,-412,0,0,0,0,0,0,0,0,0,-1,1168,1436,0,0
-49,-412,0,0,0,0,0,0,0,0,0,-1,1175,1436,0,0
-42,-412,0,0,0,0,0,0,0,0,0,-1,1182,1436,0,0
-35,-412,0,0,0,0,0,0,0,0,0,-1,1189,1436,0,0
-28,-412,0,0,0,0,0,0,0,0,0,-1,1196,1436,0,0
-21,-412,0,0,0,0,0,0,0,0,0,-1,1203,1436,0,0
-14,-412,0,0,0,0,0,0,0,0,0,-1,1210,1436,0,0
-7,-412,0,0,0,0,0,0,0,0,0,-1,1217,1436,0,0
0,-412,0,0,0,0,0,0,0,0,0,-1,1224,1436,0,0
7,-412,0,0,0,0,0,0,0,0,0,-1,1231,1436,0,0
14,-412,0,0,0,0,0,0,0,0,0,-1,1238,1436,0,0
21,-412,0,0,0,0,0,0,0,0,0,-1,1245,1436,0,0
28,-412,0,0,0,0,0,0,0,0,0,-1,1252,1436,0,0
35,-412,0,0,0,0,0,0,0,0,0,-1,1259,1436,0,0
42,-412,0,0,0,0,0,0,0,0,0,-1,1266,1436,0,0
49,-412,0,0,0,0,0,0,0,0,0,-1,1273,1436,0,0
56,-412,0,0,0,0,0,0,0,0,0,-1,1280,1436,0,0
63,-412,0,0,0,0,0,0,0,0,0,-1,1287,1436,0,0
70,-412,0,0,0,0,0,0,0,0,0,-1,1294,1436,0,0
77,-412,0,0,0,0,0,0,0,0,0,-1,1301,1436,0,0
84,-412,0,0,0,0,0,0,0,0,0,-1,1308,1436,0,0
91,-412,0,0,0,0,0,0,0,0,0,-1,1315,1436,0,0
98,-412,0,0,0,0,0,0,0,0,0,-1,1322,1436,0,0
105,-412,0,0,0,0,0,0,0,0,0,-1,1329,1436,0,0
112,-412,0,0,0,0,0,0,0,0,0,-1,1336,1436,0,0
119,-412,0,0,0,0,0,0,0,0,0,-1,1343,1436,0,0
126,-412,0,0,0,0,0,0,0,0,0,-1,1350,1436,0,0
133,-412,0,0,0,0,0,0,0,0,0,-1,1357,1436,0,0
140,-412,0,0,0,0,0,0,0,0,0,-1,1364,1436,0,0
147,-412,0,0,0,0,0,0,0,0,0,-1,1371,1436,0,0
154,-412,0,0,0,0,0,0,0,0,0,-1,1378,1436,0,0
161,-412,0,0,0,0,0,0,0,0,0,-1,1385,1436,0,0
168,-412,0,0,0,0,0,0,0,0,0,-1,1392,1436,0,0
175,-412,0,0,0,0,0,0,0,0,0,-1,1399,1436,0,0
182,-412,0,0,0,0,0,0,0,0,0,-1,1406,1436,0,0
189,-412,0,0,0,0,0,0,0,0,0,-1,1413,1436,0,0
196,-412,0,0,0,0,0,0,0,0,0,-1,1420,1436,0,0
203,-412,0,0,0,0,0,0,0,0,0,-1,1427,1436,0,0
210,-412,0,0,0,0,0,0,0,0,0,-1,1434,1436,0,0
217,-412,0,0,0,0,0,0,0,0,0,-1,1441,1436,0,0
224,-412,0,0,0,0,0,0,0,0,0,-1,1448,1436,0,0
231,-412,0,0,0,0,0,0,0,0,0,-1,1455,1436,0,0
238,-412,0,0,0,0,0,0,0,0,0,-1,1462,1436,0,0
245,-412,0,0,0,0,0,0,0,0,0,-1,1469,1436,0,0
252,-412,0,0,0,0,0,0,0,0,0,-1,1476,1436,0,0
259,-412,0,0,0,0,0,0,0,0,0,-1,1483,1436,0,0
266,-412,0,0,0,0,0,0,0,0,0,-1,1490,1436,0,0
273,-412,0,0,0,0,0,0,0,0,0,-1,1497,1436,0,0
280,-412,0,0,0,0,0,0,0,0,0,-1,1504,1436,0,0
287,-412,0,0,0,0,0,0,0,0,0,-1,1511,1436,0,0
294,-412,0,0,0,0,0,0,0,0,0,-1,1518,1436,0,0
301,-412,0,0,0,0,0,0,0,0,0,-1,1525,1436,0,0
308,-412,0,0,0,0,0,0,0,0,0,-1,1532,1436,0,0
315,-412,0,0,0,0,0,0,0,0,0,-1,1539,1436,0,0
322,-412,0,0,0,0,0,0,0,0,0,-1,1546,1436,0,0
329,-412,0,0,0,0,0,0,0,0,0,-1,1553,1436,0,0
336,-412,0,0,0,0,0,0,0,0,0,-1,1560,1436,0,0
343,-412,0,0,0,0,0,0,0,0,0,-1,1567,1436,0,0
350,-412,0,0,0,0,0,0,0,0,0,-1,1574,1436,0,0
357,-412,0,0,0,0,0,0,0,0,0,-1,1581,1436,0,0
364,-412,0,0,0,0,0,0,0,0,0,-1,1588,1436,0,0
371,-412,0,0,0,0,0,0,0,0,0,-1,1595,1436,0,0
378,-412,0,0,0,0,0,0,0,0,0,-1,1602,1436,0,0
385,-412,0,0,0,0,0,0,0,0,0,-1,1609,1436,0,0
392,-412,0,0,0,0,0,0,0,0,0,-1,1616,1436,0,0
399,-412,0,0,0,0,0,0,0,0,0,-1,1623,1436,0,0
406,-412,0,0,0,0,0,0,0,0,0,-1,1630,1436,0,0
413,-412,0,0,0,0,0,0,0,0,0,-1,1637,1436,0,0
420,-412,0,0,0,0,0,0,0,0,0,-1,1644,1436,0,0
427,-412,0,0,0,0,0,0,0,0,0,-1,1651,1436,0,0
434,-412,0,0,0,0,0,0,0,0,0,-1,1658,1436,0,0
441,-412,0,0,0,0,0,0,0,0,0,-1,1665,1436,0,0
448,-412,0,0,0,0,0,0,0,0,0,-1,1672,1436,0,0
455,-412,0,0,0,0,0,0,0,0,0,-1,1679,1436,0,0
462,-412,0,0,0,0,0,0,0,0,0,-1,1686,1436,0,0
469,-412,0,0,0,0,0,0,0,0,0,-1,1693,1436,0,0
476,-412,0,0,0,0,0,0,0,0,0,-1,1700,1436,0,0
483,-412,0,0,0,0,0,0,0,0,0,-1,1707,1436,0,0
490,-412,0,0,0,0,0,0,0,0,0,-1,1714,1436,0,0
497,-412,0,0,0,0,0,0,0,0,0,-1,1721,1436,0,0
504,-412,0,0,0,0,0,0,0,0,0,-1,1728,1436,0,0
511,-412,0,0,0,0,0,0,0,0,0,-1,1735,1436,0,0
518,-412,30.1038,-2.43384,0,0,0,0,0,0,0,-1,1742,1436,30.1038,2.43383
525,-412,29.5283,-1.42493,0,0,0,0,0,0,0,-1,1749,1436,29.5283,1.42495
532,-412,28.8533,-0.386597,0,0,0,0,0,0,0,-1,1756,1436,28.8533,0.386632
539,-412,25.8654,2.74683,0,0,0,0,0,0,0,-1,1763,1436,25.8654,-2.74685
546,-412,25.4265,2.4342,0,0,0,0,0,0,0,-1,1770,1436,25.4265,-2.4342
553,-412,26.3595,7.49255,0,0,0,0,0,0,0,-1,1777,1436,26.3595,-7.4925
560,-412,24.9116,7.94324,0,0,0,0,0,0,0,-1,1784,1436,24.9116,-7.94327
567,-412,23.668,7.94531,0,0,0,0,0,0,0,-1,1791,1436,23.6679,-7.94534
574,-412,23.0142,9.17236,0,0,0,0,0,0,0,-1,1798,1436,23.0141,-9.17235
581,-412,22.2615,10.0349,0,0,0,0,0,0,0,-1,1805,1436,22.2615,-10.0349
588,-412,21.6893,10.8069,0,0,0,0,0,0,0,-1,1812,1436,21.6893,-10.8069
595,-412,21.5137,14.3157,0,0,0,0,0,0,0,-1,1819,1436,21.5137,-14.3157
602,-412,25.6331,17.0972,0,0,0,0,0,0,0,-1,1826,1436,25.633,-17.0972
609,-412,25.8051,16.321,0.00392978,0.00474927,-0.00359893,0.0079617,0.00071735,-0.84208,0.00508558,0.0324913,1833,1436,25.805,-16.321
616,-412,25.8644,15.7698,0.00292075,0.00313742,-0.00246343,0.0054949,0.000563283,-0.807373,0.00349069,0.0118665,1840,1436,25.8643,-15.7697
623,-412,25.8256,15.2699,0.00216247,0.00203561,-0.00169583,0.00379606,0.000402021,-0.766706,0.00240791,0.0093166,1847,1436,25.8256,-15.2699
630,-412,25.8215,14.7506,0.00172593,0.0011897,-0.00114395,0.00263276,0.000282862,-0.670288,0.0016689,0.0114063,1854,1436,25.8216,-14.7506
637,-412,25.8127,14.248,0.00145605,0.000522635,-0.000724355,0.00185103,0.000127655,-0.499216,0.00119375,0.0141368,1861,1436,25.8127,-14.2481
644,-412,25.8087,13.7537,0.00129928,4.10229e-05,-0.000375552,0.00140285,-6.25431e-05,-0.269082,0.000956762,0.0157936,1868,1436,25.8087,-13.7536
651,-412,25.7904,13.2451,0.0012808,-0.000314198,-0.000117787,0.00128946,-0.000322849,-0.0733174,0.00098505,0.0260804,1875,1436,25.7904,-13.2451
658,-412,25.7656,12.7386,0.00126663,-0.00065249,0.000199613,0.00128717,-0.000673032,0.10255,0.00115009,0.0180238,1882,1436,25.7657,-12.7387
665,-412,25.7257,12.2379,0.00125396,-0.00103385,0.00060415,0.0014037,-0.00118359,0.242955,0.00149557,0.0231805,1889,1436,25.7257,-12.2379
672,-412,25.7535,11.7214,0.00116745,-0.00143446,0.00115457,0.00160589,-0.00187291,0.362927,0.00201046,0.0274583,1896,1436,25.7535,-11.7214
679,-412,25.8782,11.278,0.000876782,-0.00214524,0.00203035,0.00189667,-0.00316513,0.465505,0.00295286,0.0406718,1903,1436,25.8782,-11.278
686,-412,25.8816,10.7782,0,0,0,0,0,0,0,-1,1910,1436,25.8816,-10.7782
693,-412,11.9346,6.02344,0,0,0,0,0,0,0,-1,1917,1436,11.9346,-6.02343
700,-412,8.82764,5.8844,0,0,0,0,0,0,0,-1,1924,1436,8.82761,-5.88444
707,-412,6.59998,1.68994,0,0,0,0,0,0,0,-1,1931,1436,6.60002,-1.68995
714,-412,4.77283,-2.39832,0,0,0,0,0,0,0,-1,1938,1436,4.77288,2.39835
721,-412,0,0,0,0,0,0,0,0,0,-1,1945,1436,0,0
728,-412,0,0,0,0,0,0,0,0,0,-1,1952,1436,0,0
735,-412,0,0,0,0,0,0,0,0,0,-1,1959,1436,0,0
742,-412,0,0,0,0,0,0,0,0,0,-1,1966,1436,0,0
749,-412,0,0,0,0,0,0,0,0,0,-1,1973,1436,0,0
756,-412,0,0,0,0,0,0,0,0,0,-1,1980,1436,0,0
763,-412,0,0,0,0,0,0,0,0,0,-1,1987,1436,0,0
770,-412,0,0,0,0,0,0,0,0,0,-1,1994,1436,0,0
777,-412,0,0,0,0,0,0,0,0,0,-1,2001,1436,0,0
784,-412,0,0,0,0,0,0,0,0,0,-1,2008,1436,0,0
791,-412,0,0,0,0,0,0,0,0,0,-1,2015,1436,0,0
798,-412,0,0,0,0,0,0,0,0,0,-1,2022,1436,0,0
805,-412,0,0,0,0,0,0,0,0,0,-1,2029,1436,0,0
812,-412,0,0,0,0,0,0,0,0,0,-1,2036,1436,0,0
-700,-419,0,0,0,0,0,0,0,0,0,-1,524,1443,0,0
-693,-419,0,0,0,0,0,0,0,0,0,-1,531,1443,0,0
-686,-419,0,0,0,0,0,0,0,0,0,-1,538,1443,0,0
-679,-419,0,0,0,0,0,0,0,0,0,-1,545,1443,0,0
-672,-419,0,0,0,0,0,0,0,0,0,-1,552,1443,0,0
-665,-419,0,0,0,0,0,0,0,0,0,-1,559,1443,0,0
-658,-419,0,0,0,0,0,0,0,0,0,-1,566,1443,0,0
-651,-419,0,0,0,0,0,0,0,0,0,-1,573,1443,0,0
-644,-419,0,0,0,0,0,0,0,0,0,-1,580,1443,0,0
-637,-419,0,0,0,0,0,0,0,0,0,-1,587,1443,0,0
-630,-419,0,0,0,0,0,0,0,0,0,-1,594,1443,0,0
-623,-419,0,0,0,0,0,0,0,0,0,-1,601,1443,0,0
-616,-419,0,0,0,0,0,0,0,0,0,-1,608,1443,0,0
-609,-419,0,0,0,0,0,0,0,0,0,-1,615,1443,0,0
-602,-419,0,0,0,0,0,0,0,0,0,-1,622,1443,0,0
-595,-419,-11.4904,-0.622681,0,0,0,0,0,0,0,-1,629,1443,-11.4903,0.622714
-588,-419,-9.09369,0.742432,0,0,0,0,0,0,0,-1,636,1443,-9.09366,-0.742482
-581,-419,-6.39172,2.14673,0,0,0,0,0,0,0,-1,643,1443,-6.39175,-2.14668
-574,-419,-4.09772,3.54773,0,0,0,0,0,0,0,-1,650,1443,-4.09772,-3.54767
-567,-419,-6.14038,3.22498,0,0,0,0,0,0,0,-1,657,1443,-6.14037,-3.22497
-560,-419,-4.52814,5.22253,0,0,0,0,0,0,0,-1,664,1443,-4.52816,-5.22251
-553,-419,-5.08331,6.11829,0,0,0,0,0,0,0,-1,671,1443,-5.08331,-6.1183
-546,-419,-10.1121,9.25708,0,0,0,0,0,0,0,-1,678,1443,-10.1121,-9.25705
-539,-419,-10.2723,9.8429,-0.00271541,0.000561731,-0.000648988,0.000685573,-0.00283925,-1.38224,0.00215797,0.0497763,685,1443,-10.2723,-9.84292
-532,-419,-10.5524,10.3761,-0.00208041,0.000312601,-0.00054819,0.000432203,-0.00220001,-1.35599,0.00162996,0.0216021,692,1443,-10.5524,-10.376
-525,-419,-10.5428,10.9646,-0.00140749,0.000111478,-0.000415225,0.000217574,-0.00151359,-1.32064,0.00108885,0.0137255,699,1443,-10.5428,-10.9646
-518,-419,-10.546,11.4736,-0.000583052,0.00023564,-2.82837e-05,0.000236616,-0.000584028,-1.5363,0.000487746,0.0172879,706,1443,-10.546,-11.4737
-511,-419,-10.5674,12.0128,0.000312579,0.000656989,0.000510214,0.00102327,-5.37069e-05,0.948153,0.000700772,0.0196333,713,1443,-10.5674,-12.0128
-504,-419,-10.6102,12.5536,0.00130844,0.00129067,0.00118843,0.00248802,0.000111097,0.781661,0.00162291,0.0185964,720,1443,-10.6101,-12.5536
-497,-419,-10.6364,13.0878,0.00252122,0.00222799,0.00209369,0.00447342,0.000275793,0.750441,0.00289473,0.0130882,727,1443,-10.6364,-13.0878
-490,-419,-10.6439,13.6135,0.0040708,0.00357644,0.00334883,0.00718156,0.000465683,0.748559,0.00464027,0.0108534,734,1443,-10.6439,-13.6135
-483,-419,-10.6696,14.1725,0.0059566,0.00526783,0.00495029,0.0105745,0.000649961,0.75067,0.00684329,0.00910794,741,1443,-10.6696,-14.1725
-476,-419,-10.6498,14.7754,0.00821268,0.00744537,0.00694242,0.014782,0.000876011,0.757795,0.00957606,0.0139173,748,1443,-10.6499,-14.7754
-469,-419,-10.5738,15.532,0.0112641,0.0101254,0.00954226,0.020254,0.00113552,0.755599,0.0131405,0.0378166,755,1443,-10.5738,-15.532
-462,-419,-10.3903,16.2927,0,0,0,0,0,0,0,-1,762,1443,-10.3903,-16.2927
-455,-419,-7.35645,11.9451,0,0,0,0,0,0,0,-1,769,1443,-7.35646,-11.9451
-448,-419,-7.49109,9.92444,0,0,0,0,0,0,0,-1,776,1443,-7.49109,-9.92442
-441,-419,-7.65527,8.75574,0,0,0,0,0,0,0,-1,783,1443,-7.65525,-8.75568
-434,-419,-11.3724,12.3643,0,0,0,0,0,0,0,-1,790,1443,-11.3724,-12.3643
-427,-419,-8.23193,7.89404,0,0,0,0,0,0,0,-1,797,1443,-8.23193,-7.89404
-420,-419,-8.74091,6.36597,0,0,0,0,0,0,0,-1,804,1443,-8.74089,-6.366
-413,-419,-9.88391,6.53955,0,0,0,0,0,0,0,-1,811,1443,-9.8839,-6.53955
-406,-419,-10.3372,2.75195,0,0,0,0,0,0,0,-1,818,1443,-10.3372,-2.75201
-399,-419,-11.5999,1.40002,0,0,0,0,0,0,0,-1,825,1443,-11.5999,-1.39998
-392,-419,0,0,0,0,0,0,0,0,0,-1,832,1443,0,0
-385,-419,0,0,0,0,0,0,0,0,0,-1,839,1443,0,0
-378,-419,0,0,0,0,0,0,0,0,0,-1,846,1443,0,0
-371,-419,0,0,0,0,0,0,0,0,0,-1,853,1443,0,0
-364,-419,0,0,0,0,0,0,0,0,0,-1,860,1443,0,0
-357,-419,0,0,0,0,0,0,0,0,0,-1,867,1443,0,0
-350,-419,0,0,0,0,0,0,0,0,0,-1,874,1443,0,0
-343,-419,0,0,0,0,0,0,0,0,0,-1,881,1443,0,0
-336,-419,0,0,0,0,0,0,0,0,0,-1,888,1443,0,0
-329,-419,0,0,0,0,0,0,0,0,0,-1,895,1443,0,0
-322,-419,0,0,0,0,0,0,0,0,0,-1,902,1443,0,0
-315,-419,0,0,0,0,0,0,0,0,0,-1,909,1443,0,0
-308,-419,0,0,0,0,0,0,0,0,0,-1,916,1443,0,0
-301,-419,0,0,0,0,0,0,0,0,0,-1,923,1443,0,0
-294,-419,0,0,0,0,0,0,0,0,0,-1,930,1443,0,0
-287,-419,0,0,0,0,0,0,0,0,0,-1,937,1443,0,0
-280,-419,0,0,0,0,0,0,0,0,0,-1,944,1443,0,0
-273,-419,0,0,0,0,0,0,0,0,0,-1,951,1443,0,0
-266,-419,0,0,0,0,0,0,0,0,0,-1,958,1443,0,0
-259,-419,0,0,0,0,0,0,0,0,0,-1,965,1443,0,0
-252,-419,0,0,0,0,0,0,0,0,0,-1,972,1443,0,0
-245,-419,0,0,0,0,0,0,0,0,0,-1,979,1443,0,0
-238,-419,0,0,0,0,0,0,0,0,0,-1,986,1443,0,0
-231,-419,0,0,0,0,0,0,0,0,0,-1,993,1443,0,0
-224,-419,0,0,0,0,0,0,0,0,0,-1,1000,1443,0,0
-217,-419,0,0,0,0,0,0,0,0,0,-1,1007,1443,0,0
-210,-419,0,0,0,0,0,0,0,0,0,-1,1014,1443,0,0
-203,-419,0,0,0,0,0,0,0,0,0,-1,1021,1443,0,0
-196,-419,0,0,0,0,0,0,0,0,0,-1,1028,1443,0,0
-189,-419,0,0,0,0,0,0,0,0,0,-1,1035,1443,0,0
-182,-419,0,0,0,0,0,0,0,0,0,-1,1042,1443,0,0
-175,-419,0,0,0,0,0,0,0,0,0,-1,1049,1443,0,0
-168,-419,0,0,0,0,0,0,0,0,0,-1,1056,1443,0,0
-161,-419,0,0,0,0,0,0,0,0,0,-1,1063,1443,0,0
-154,-419,0,0,0,0,0,0,0,0,0,-1,1070,1443,0,0
-147,-419,0,0,0,0,0,0,0,0,0,-1,1077,1443,0,0
-140,-419,0,0,0,0,0,0,0,0,0,-1,1084,1443,0,0
-133,-419,0,0,0,0,0,0,0,0,0,-1,1091,1443,0,0
-126,-419,0,0,0,0,0,0,0,0,0,-1,1098,1443,0,0
-119,-419,0,0,0,0,0,0,0,0,0,-1,1105,1443,0,0
-112,-419,0,0,0,0,0,0,0,0,0,-1,1112,1443,0,0
-105,-419,0,0,0,0,0,0,0,0,0,-1,1119,1443,0,0
-98,-419,0,0,0,0,0,0,0,0,0,-1,1126,1443,0,0
-91,-419,0,0,0,0,0,0,0,0,0,-1,1133,1443,0,0
-84,-419,0,0,0,0,0,0,0,0,0,-1,1140,1443,0,0
-77,-419,0,0,0,0,0,0,0,0,0,-1,1147,1443,0,0
-70,-419,0,0,0,0,0,0,0,0,0,-1,1154,1443,0,0
-63,-419,0,0,0,0,0,0,0,0,0,-1,1161,1443,0,0
-56,-419,0,0,0,0,0,0,0,0,0,-1,1168,1443,0,0
-49,-419,0,0,0,0,0,0,0,0,0,-1,1175,1443,0,0
-42,-419,0,0,0,0,0,0,0,0,0,-1,1182,1443,0,0
-35,-419,0,0,0,0,0,0,0,0,0,-1,1189,1443,0,0
-28,-419,0,0,0,0,0,0,0,0,0,-1,1196,1443,0,0
-21,-419,0,0,0,0,0,0,0,0,0,-1,1203,1443,0,0
-14,-419,0,0,0,0,0,0,0,0,0,-1,1210,1443,0,0
-7,-419,0,0,0,0,0,0,0,0,0,-1,1217,1443,0,0
0,-419,0,0,0,0,0,0,0,0,0,-1,1224,1443,0,0
7,-419,0,0,0,0,0,0,0,0,0,-1,1231,1443,0,0
14,-419,0,0,0,0,0,0,0,0,0,-1,1238,1443,0,0
21,-419,0,0,0,0,0,0,0,0,0,-1,1245,1443,0,0
28,-419,0,0,0,0,0,0,0,0,0,-1,1252,1443,0,0
35,-419,0,0,0,0,0,0,0,0,0,-1,1259,1443,0,0
42,-419,0,0,0,0,0,0,0,0,0,-1,1266,1443,0,0
49,-419,0,0,0,0,0,0,0,0,0,-1,1273,1443,0,0
56,-419,0,0,0,0,0,0,0,0,0,-1,1280,1443,0,0
63,-419,0,0,0,0,0,0,0,0,0,-1,1287,1443,0,0
70,-419,0,0,0,0,0,0,0,0,0,-1,1294,1443,0,0
77,-419,0,0,0,0,0,0,0,0,0,-1,1301,1443,0,0
84,-419,0,0,0,0,0,0,0,0,0,-1,1308,1443,0,0
91,-419,0,0,0,0,0,0,0,0,0,-1,1315,1443,0,0
98,-419,0,0,0,0,0,0,0,0,0,-1,1322,1443,0,0
105,-419,0,0,0,0,0,0,0,0,0,-1,1329,1443,0,0
112,-419,0,0,0,0,0,0,0,0,0,-1,1336,1443,0,0
119,-419,0,0,0,0,0,0,0,0,0,-1,1343,1443,0,0
126,-419,0,0,0,0,0,0,0,0,0,-1,1350,1443,0,0
133,-419,0,0,0,0,0,0,0,0,0,-1,1357,1443,0,0
140,-419,0,0,0,0,0,0,0,0,0,-1,1364,1443,0,0
147,-419,0,0,0,0,0,0,0,0,0,-1,1371,1443,0,0
154,-419,0,0,0,0,0,0,0,0,0,-1,1378,1443,0,0
161,-419,0,0,0,0,0,0,0,0,0,-1,1385,1443,0,0
168,-419,0,0,0,0,0,0,0,0,0,-1,1392,1443,0,0
175,-419,0,0,0,0,0,0,0,0,0,-1,1399,1443,0,0
182,-419,0,0,0,0,0,0,0,0,0,-1,1406,1443,0,0
189,-419,0,0,0,0,0,0,0,0,0,-1,1413,1443,0,0
196,-419,0,0,0,0,0,0,0,0,0,-1,1420,1443,0,0
203,-419,0,0,0,0,0,0,0,0,0,-1,1427,1443,0,0
210,-419,0,0,0,0,0,0,0,0,0,-1,1434,1443,0,0
217,-419,0,0,0,0,0,0,0,0,0,-1,1441,1443,0,0
224,-419,0,0,0,0,0,0,0,0,0,-1,1448,1443,0,0
231,-419,0,0,0,0,0,0,0,0,0,-1,1455,1443,0,0
238,-419,0,0,0,0,0,0,0,0,0,-1,1462,1443,0,0
245,-419,0,0,0,0,0,0,0,0,0,-1,1469,1443,0,0
252,-419,0,0,0,0,0,0,0,0,0,-1,1476,1443,0,0
259,-419,0,0,0,0,0,0,0,0,0,-1,1483,1443,0,0
266,-419,0,0,0,0,0,0,0,0,0,-1,1490,1443,0,0
273,-419,0,0,0,0,0,0,0,0,0,-1,1497,1443,0,0
280,-419,0,0,0,0,0,0,0,0,0,-1,1504,1443,0,0
287,-419,0,0,0,0,0,0,0,0,0,-1,1511,1443,0,0
294,-419,0,0,0,0,0,0,0,0,0,-1,1518,1443,0,0
301,-419,0,0,0,0,0,0,0,0,0,-1,1525,1443,0,0
308,-419,0,0,0,0,0,0,0,0,0,-1,1532,1443,0,0
315,-419,0,0,0,0,0,0,0,0,0,-1,1539,1443,0,0
322,-419,0,0,0,0,0,0,0,0,0,-1,1546,1443,0,0
329,-419,0,0,0,0,0,0,0,0,0,-1,1553,1443,0,0
336,-419,0,0,0,0,0,0,0,0,0,-1,1560,1443,0,0
343,-419,0,0,0,0,0,0,0,0,0,-1,1567,1443,0,0
350,-419,0,0,0,0,0,0,0,0,0,-1,1574,1443,0,0
357,-419,0,0,0,0,0,0,0,0,0,-1,1581,1443,0,0
364,-419,0,0,0,0,0,0,0,0,0,-1,1588,1443,0,0
371,-419,0,0,0,0,0,0,0,0,0,-1,1595,1443,0,0
378,-419,0,0,0,0,0,0,0,0,0,-1,1602,1443,0,0
385,-419,0,0,0,0,0,0,0,0,0,-1,1609,1443,0,0
392,-419,0,0,0,0,0,0,0,0,0,-1,1616,1443,0,0
399,-419,0,0,0,0,0,0,0,0,0,-1,1623,1443,0,0
406,-419,0,0,0,0,0,0,0,0,0,-1,1630,1443,0,0
413,-419,0,0,0,0,0,0,0,0,0,-1,1637,1443,0,0
420,-419,0,0,0,0,0,0,0,0,0,-1,1644,1443,0,0
427,-419,0,0,0,0,0,0,0,0,0,-1,1651,1443,0,0
434,-419,0,0,0,0,0,0,0,0,0,-1,1658,1443,0,0
441,-419,0,0,0,0,0,0,0,0,0,-1,1665,1443,0,0
448,-419,0,0,0,0,0,0,0,0,0,-1,1672,1443,0,0
455,-419,0,0,0,0,0,0,0,0,0,-1,1679,1443,0,0
462,-419,0,0,0,0,0,0,0,0,0,-1,1686,1443,0,0
469,-419,0,0,0,0,0,0,0,0,0,-1,1693,1443,0,0
476,-419,0,0,0,0,0,0,0,0,0,-1,1700,1443,0,0
483,-419,0,0,0,0,0,0,0,0,0,-1,1707,1443,0,0
490,-419,0,0,0,0,0,0,0,0,0,-1,1714,1443,0,0
497,-419,0,0,0,0,0,0,0,0,0,-1,1721,1443,0,0
504,-419,0,0,0,0,0,0,0,0,0,-1,1728,1443,0,0
511,-419,20.3005,3.7959,0,0,0,0,0,0,0,-1,1735,1443,20.3005,-3.79584
518,-419,21.3154,2.03027,0,0,0,0,0,0,0,-1,1742,1443,21.3155,-2.03029
525,-419,28.3439,-1.24475,0,0,0,0,0,0,0,-1,1749,1443,28.3438,1.24471
532,-419,27.5902,-0.272583,0,0,0,0,0,0,0,-1,1756,1443,27.5902,0.272526
539,-419,26.5278,1.60583,0,0,0,0,0,0,0,-1,1763,1443,26.5279,-1.60579
546,-419,24.9509,2.77539,0,0,0,0,0,0,0,-1,1770,1443,24.9509,-2.77537
553,-419,24.118,3.75525,0,0,0,0,0,0,0,-1,1777,1443,24.1181,-3.75526
560,-419,11.8199,8.26343,0,0,0,0,0,0,0,-1,1784,1443,11.82,-8.26341
567,-419,21.5143,8.74719,0,0,0,0,0,0,0,-1,1791,1443,21.5143,-8.74722
574,-419,19.5886,6.46155,0,0,0,0,0,0,0,-1,1798,1443,19.5886,-6.46157
581,-419,20.7926,11.4265,0,0,0,0,0,0,0,-1,1805,1443,20.7926,-11.4265
588,-419,19.4242,12.5363,0,0,0,0,0,0,0,-1,1812,1443,19.4242,-12.5362
595,-419,22.9375,16.0151,0,0,0,0,0,0,0,-1,1819,1443,22.9375,-16.0152
602,-419,25.3937,16.8302,0,0,0,0,0,0,0,-1,1826,1443,25.3936,-16.8302
609,-419,25.3723,16.287,0.003398,0.00404479,-0.00319316,0.00693089,0.000511895,-0.835865,0.00445977,0.0192434,1833,1443,25.3724,-16.287
616,-419,25.3445,15.7986,0.0026322,0.00276372,-0.00228749,0.00498639,0.000409526,-0.799768,0.00319651,0.0125153,1840,1443,25.3444,-15.7986
623,-419,25.3395,15.2832,0.00208295,0.00180271,-0.00160622,0.00355515,0.000330511,-0.741891,0.00226797,0.0100763,1847,1443,25.3394,-15.2832
630,-419,25.3311,14.7684,0.00180156,0.00100878,-0.00109797,0.00257251,0.000237839,-0.612169,0.00164148,0.0123845,1854,1443,25.331,-14.7685
637,-419,25.3105,14.2883,0.00161363,0.000375275,-0.000680483,0.00191447,7.44326e-05,-0.416266,0.00125224,0.0138848,1861,1443,25.3105,-14.2883
644,-419,25.3087,13.8054,0.0015299,-9.46082e-05,-0.000332987,0.0015955,-0.000160213,-0.194529,0.0011209,0.0126686,1868,1443,25.3088,-13.8054
651,-419,25.2915,13.3197,0.00158333,-0.00042529,-9.74383e-05,0.00158805,-0.000430005,-0.0483586,0.0012274,0.012072,1875,1443,25.2915,-13.3198
658,-419,25.2531,12.7943,0.00165272,-0.000734746,0.00016935,0.00166467,-0.000746698,0.070463,0.00142543,0.0133713,1882,1443,25.2531,-12.7943
665,-419,25.2347,12.2853,0.00170325,-0.00108118,0.00052735,0.00179978,-0.00117771,0.181042,0.00173151,0.0193869,1889,1443,25.2347,-12.2853
672,-419,25.2777,11.7372,0.00164334,-0.00140494,0.00102372,0.00195523,-0.00171683,0.295729,0.00212156,0.0274976,1896,1443,25.2777,-11.7372
679,-419,25.3738,11.2053,0,0,0,0,0,0,0,-1,1903,1443,25.3738,-11.2053
686,-419,17.4127,8.03076,0,0,0,0,0,0,0,-1,1910,1443,17.4127,-8.03071
693,-419,8.76086,5.60535,0,0,0,0,0,0,0,-1,1917,1443,8.76091,-5.6054
700,-419,11.0498,4.85156,0,0,0,0,0,0,0,-1,1924,1443,11.0498,-4.85153
707,-419,9.5752,1.80042,0,0,0,0,0,0,0,-1,1931,1443,9.57523,-1.80037
714,-419,5.77576,-1.25061,0,0,0,0,0,0,0,-1,1938,1443,5.7757,1.25056
721,-419,0,0,0,0,0,0,0,0,0,-1,1945,1443,0,0
728,-419,0,0,0,0,0,0,0,0,0,-1,1952,1443,0,0
735,-419,0,0,0,0,0,0,0,0,0,-1,1959,1443,0,0
742,-419,0,0,0,0,0,0,0,0,0,-1,1966,1443,0,0
749,-419,0,0,0,0,0,0,0,0,0,-1,1973,1443,0,0
756,-419,0,0,0,0,0,0,0,0,0,-1,1980,1443,0,0
763,-419,0,0,0,0,0,0,0,0,0,-1,1987,1443,0,0
770,-419,0,0,0,0,0,0,0,0,0,-1,1994,1443,0,0
777,-419,0,0,0,0,0,0,0,0,0,-1,2001,1443,0,0
784,-419,0,0,0,0,0,0,0,0,0,-1,2008,1443,0,0
791,-419,0,0,0,0,0,0,0,0,0,-1,2015,1443,0,0
798,-419,0,0,0,0,0,0,0,0,0,-1,2022,1443,0,0
805,-419,0,0,0,0,0,0,0,0,0,-1,2029,1443,0,0
812,-419,0,0,0,0,0,0,0,0,0,-1,2036,1443,0,0
-700,-426,0,0,0,0,0,0,0,0,0,-1,524,1450,0,0
-693,-426,0,0,0,0,0,0,0,0,0,-1,531,1450,0,0
-686,-426,0,0,0,0,0,0,0,0,0,-1,538,1450,0,0
-679,-426,0,0,0,0,0,0,0,0,0,-1,545,1450,0,0
-672,-426,0,0,0,0,0,0,0,0,0,-1,552,1450,0,0
-665,-426,0,0,0,0,0,0,0,0,0,-1,559,1450,0,0
-658,-426,0,0,0,0,0,0,0,0,0,-1,566,1450,0,0
-651,-426,0,0,0,0,0,0,0,0,0,-1,573,1450,0,0
-644,-426,0,0,0,0,0,0,0,0,0,-1,580,1450,0,0
-637,-426,0,0,0,0,0,0,0,0,0,-1,587,1450,0,0
-630,-426,0,0,0,0,0,0,0,0,0,-1,594,1450,0,0
-623,-426,0,0,0,0,0,0,0,0,0,-1,601,1450,0,0
-616,-426,0,0,0,0,0,0,0,0,0,-1,608,1450,0,0
-609,-426,0,0,0,0,0,0,0,0,0,-1,615,1450,0,0
-602,-426,0,0,0,0,0,0,0,0,0,-1,622,1450,0,0
-595,-426,0,0,0,0,0,0,0,0,0,-1,629,1450,0,0
-588,-426,-10.184,-0.554321,0,0,0,0,0,0,0,-1,636,1450,-10.184,0.554321
-581,-426,-7.3349,1.48157,0,0,0,0,0,0,0,-1,643,1450,-7.33491,-1.48152
-574,-426,-5.02856,2.89319,0,0,0,0,0,0,0,-1,650,1450,-5.02858,-2.89319
-567,-426,-3.04797,1.72644,0,0,0,0,0,0,0,-1,657,1450,-3.04797,-1.72639
-560,-426,-5.55682,3.44397,0,0,0,0,0,0,0,-1,664,1450,-5.55684,-3.44399
-553,-426,-4.67017,6.66614,0,0,0,0,0,0,0,-1,671,1450,-4.67015,-6.66619
-546,-426,-7.58752,8.28882,0,0,0,0,0,0,0,-1,678,1450,-7.58752,-8.28878
-539,-426,-9.67883,9.96936,0,0,0,0,0,0,0,-1,685,1450,-9.67881,-9.96942
-532,-426,-9.86096,10.418,-0.0029838,0.000663029,-0.000454735,0.000718876,-0.00303965,-1.4486,0.00230375,0.0457344,692,1450,-9.86098,-10.418
-525,-426,-10.0236,10.9147,-0.00209398,0.000298848,-0.00035285,0.000349795,-0.00214493,-1.4274,0.00155968,0.0194746,699,1450,-10.0235,-10.9147
-518,-426,-10.0026,11.5044,-0.00114752,0.000252867,-2.68311e-05,0.000253381,-0.00114803,-1.55165,0.000862316,0.0174318,706,1450,-10.0026,-11.5044
-511,-426,-10.0363,12.0486,-0.000189138,0.000575687,0.00045419,0.000787015,-0.000400466,1.1353,0.000697595,0.0166409,713,1450,-10.0363,-12.0486
-504,-426,-10.0655,12.5953,0.000793038,0.00107375,0.00101488,0.00195793,-9.1141e-05,0.854112,0.0013367,0.0158043,720,1450,-10.0655,-12.5954
-497,-426,-10.074,13.1263,0.0019429,0.0018424,0.00176182,0.00365519,0.000130111,0.771141,0.0023946,0.0125585,727,1450,-10.074,-13.1263
-490,-426,-10.0933,13.6573,0.00338147,0.00298244,0.00282347,0.00601247,0.00035144,0.750126,0.00389645,0.0121619,734,1450,-10.0933,-13.6574
-483,-426,-10.1254,14.202,0.00516056,0.00442111,0.00421572,0.00902273,0.000558939,0.74166,0.00583777,0.0119616,741,1450,-10.1253,-14.2021
-476,-426,-10.1393,14.7454,0.00726788,0.00625045,0.00592087,0.0127018,0.000816479,0.742544,0.00820928,0.00943534,748,1450,-10.1393,-14.7454
-469,-426,-10.1585,15.2786,0.0100311,0.00838374,0.00810614,0.0173553,0.00105952,0.734767,0.0112337,0.0101455,755,1450,-10.1585,-15.2785
-462,-426,-9.93982,16.0673,0,0,0,0,0,0,0,-1,762,1450,-9.93983,-16.0672
-455,-426,-9.66827,16.9667,0,0,0,0,0,0,0,-1,769,1450,-9.66829,-16.9667
-448,-426,-6.46545,10.1322,0,0,0,0,0,0,0,-1,776,1450,-6.46543,-10.1322
-441,-426,-10.9547,11.4747,0,0,0,0,0,0,0,-1,783,1450,-10.9546,-11.4748
-434,-426,-10.4998,13.6189,0,0,0,0,0,0,0,-1,790,1450,-10.4997,-13.6189
-427,-426,-9.36627,13.7396,0,0,0,0,0,0,0,-1,797,1450,-9.36628,-13.7396
-420,-426,-5.33765,7.95044,0,0,0,0,0,0,0,-1,804,1450,-5.33766,-7.95041
-413,-426,-10.1148,5.0415,0,0,0,0,0,0,0,-1,811,1450,-10.1148,-5.04152
-406,-426,-11.4199,3.6438,0,0,0,0,0,0,0,-1,818,1450,-11.4198,-3.64382
-399,-426,-12.7595,2.29004,0,0,0,0,0,0,0,-1,825,1450,-12.7595,-2.29003
-392,-426,-12.4147,0.537354,0,0,0,0,0,0,0,-1,832,1450,-12.4147,-0.53731
-385,-426,0,0,0,0,0,0,0,0,0,-1,839,1450,0,0
-378,-426,0,0,0,0,0,0,0,0,0,-1,846,1450,0,0
-371,-426,0,0,0,0,0,0,0,0,0,-1,853,1450,0,0
-364,-426,0,0,0,0,0,0,0,0,0,-1,860,1450,0,0
-357,-426,0,0,0,0,0,0,0,0,0,-1,867,1450,0,0
-350,-426,0,0,0,0,0,0,0,0,0,-1,874,1450,0,0
-343,-426,0,0,0,0,0,0,0,0,0,-1,881,1450,0,0
-336,-426,0,0,0,0,0,0,0,0,0,-1,888,1450,0,0
-329,-426,0,0,0,0,0,0,0,0,0,-1,895,1450,0,0
-322,-426,0,0,0,0,0,0,0,0,0,-1,902,1450,0,0
-315,-426,0,0,0,0,0,0,0,0,0,-1,909,1450,0,0
-308,-426,0,0,0,0,0,0,0,0,0,-1,916,1450,0,0
-301,-426,0,0,0,0,0,0,0,0,0,-1,923,1450,0,0
-294,-426,0,0,0,0,0,0,0,0,0,-1,930,1450,0,0
-287,-426,0,0,0,0,0,0,0,0,0,-1,937,1450,0,0
-280,-426,0,0,0,0,0,0,0,0,0,-1,944,1450,0,0
-273,-426,0,0,0,0,0,0,0,0,0,-1,951,1450,0,0
-266,-426,0,0,0,0,0,0,0,0,0,-1,958,1450,0,0
-259,-426,0,0,0,0,0,0,0,0,0,-1,965,1450,0,0
-252,-426,0,0,0,0,0,0,0,0,0,-1,972,1450,0,0
-245,-426,0,0,0,0,0,0,0,0,0,-1,979,1450,0,0
-238,-426,0,0,0,0,0,0,0,0,0,-1,986,1450,0,0
-231,-426,0,0,0,0,0,0,0,0,0,-1,993,1450,0,0
-224,-426,0,0,0,0,0,0,0,0,0,-1,1000,1450,0,0
-217,-426,0,0,0,0,0,0,0,0,0,-1,1007,1450,0,0
-210,-426,0,0,0,0,0,0,0,0,0,-1,1014,1450,0,0
-203,-426,0,0,0,0,0,0,0,0,0,-1,1021,1450,0,0
-196,-426,0,0,0,0,0,0,0,0,0,-1,1028,1450,0,0
-189,-426,0,0,0,0,0,0,0,0,0,-1,1035,1450,0,0
-182,-426,0,0,0,0,0,0,0,0,0,-1,1042,1450,0,0
-175,-426,0,0,0,0,0,0,0,0,0,-1,1049,1450,0,0
-168,-426,0,0,0,0,0,0,0,0,0,-1,1056,1450,0,0
-161,-426,0,0,0,0,0,0,0,0,0,-1,1063,1450,0,0
-154,-426,0,0,0,0,0,0,0,0,0,-1,1070,1450,0,0
-147,-426,0,0,0,0,0,0,0,0,0,-1,1077,1450,0,0
-140,-426,0,0,0,0,0,0,0,0,0,-1,1084,1450,0,0
-133,-426,0,0,0,0,0,0,0,0,0,-1,1091,1450,0,0
-126,-426,0,0,0,0,0,0,0,0,0,-1,1098,1450,0,0
-119,-426,0,0,0,0,0,0,0,0,0,-1,1105,1450,0,0
-112,-426,0,0,0,0,0,0,0,0,0,-1,1112,1450,0,0
-105,-426,0,0,0,0,0,0,0,0,0,-1,1119,1450,0,0
-98,-426,0,0,0,0,0,0,0,0,0,-1,1126,1450,0,0
-91,-426,0,0,0,0,0,0,0,0,0,-1,1133,1450,0,0
-84,-426,0,0,0,0,0,0,0,0,0,-1,1140,1450,0,0
-77,-426,0,0,0,0,0,0,0,0,0,-1,1147,1450,0,0
-70,-426,0,0,0,0,0,0,0,0,0,-1,1154,1450,0,0
-63,-426,0,0,0,0,0,0,0,0,0,-1,1161,1450,0,0
-56,-426,0,0,0,0,0,0,0,0,0,-1,1168,1450,0,0
-49,-426,0,0,0,0,0,0,0,0,0,-1,1175,1450,0,0
-42,-426,0,0,0,0,0,0,0,0,0,-1,1182,1450,0,0
-35,-426,0,0,0,0,0,0,0,0,0,-1,1189,1450,0,0
-28,-426,0,0,0,0,0,0,0,0,0,-1,1196,1450,0,0
-21,-426,0,0,0,0,0,0,0,0,0,-1,1203,1450,0,0
-14,-426,0,0,0,0,0,0,0,0,0,-1,1210,1450,0,0
-7,-426,0,0,0,0,0,0,0,0,0,-1,1217,1450,0,0
0,-426,0,0,0,0,0,0,0,0,0,-1,1224,1450,0,0
7,-426,0,0,0,0,0,0,0,0,0,-1,1231,1450,0,0
14,-426,0,0,0,0,0,0,0,0,0,-1,1238,1450,0,0
21,-426,0,0,0,0,0,0,0,0,0,-1,1245,1450,0,0
28,-426,0,0,0,0,0,0,0,0,0,-1,1252,1450,0,0
35,-426,0,0,0,0,0,0,0,0,0,-1,1259,1450,0,0
42,-426,0,0,0,0,0,0,0,0,0,-1,1266,1450,0,0
49,-426,0,0,0,0,0,0,0,0,0,-1,1273,1450,0,0
56,-426,0,0,0,0,0,0,0,0,0,-1,1280,1450,0,0
63,-426,0,0,0,0,0,0,0,0,0,-1,1287,1450,0,0
70,-426,0,0,0,0,0,0,0,0,0,-1,1294,1450,0,0
77,-426,0,0,0,0,0,0,0,0,0,-1,1301,1450,0,0
84,-426,0,0,0,0,0,0,0,0,0,-1,1308,1450,0,0
91,-426,0,0,0,0,0,0,0,0,0,-1,1315,1450,0,0
98,-426,0,0,0,0,0,0,0,0,0,-1,1322,1450,0,0
105,-426,0,0,0,0,0,0,0,0,0,-1,1329,1450,0,0
112,-426,0,0,0,0,0,0,0,0,0,-1,1336,1450,0,0
119,-426,0,0,0,0,0,0,0,0,0,-1,1343,1450,0,0
126,-426,0,0,0,0,0,0,0,0,0,-1,1350,1450,0,0
133,-426,0,0,0,0,0,0,0,0,0,-1,1357,1450,0,0
140,-426,0,0,0,0,0,0,0,0,0,-1,1364,1450,0,0
147,-426,0,0,0,0,0,0,0,0,0,-1,1371,1450,0,0
154,-426,0,0,0,0,0,0,0,0,0,-1,1378,1450,0,0
161,-426,0,0,0,0,0,0,0,0,0,-1,1385,1450,0,0
168,-426,0,0,0,0,0,0,0,0,0,-1,1392,1450,0,0
175,-426,0,0,0,0,0,0,0,0,0,-1,1399,1450,0,0
182,-426,0,0,0,0,0,0,0,0,0,-1,1406,1450,0,0
189,-426,0,0,0,0,0,0,0,0,0,-1,1413,1450,0,0
196,-426,0,0,0,0,0,0,0,0,0,-1,1420,1450,0,0
203,-426,0,0,0,0,0,0,0,0,0,-1,1427,1450,0,0
210,-426,0,0,0,0,0,0,0,0,0,-1,1434,1450,0,0
217,-426,0,0,0,0,0,0,0,0,0,-1,1441,1450,0,0
224,-426,0,0,0,0,0,0,0,0,0,-1,1448,1450,0,0
231,-426,0,0,0,0,0,0,0,0,0,-1,1455,1450,0,0
238,-426,0,0,0,0,0,0,0,0,0,-1,1462,1450,0,0
245,-426,0,0,0,0,0,0,0,0,0,-1,1469,1450,0,0
252,-426,0,0,0,0,0,0,0,0,0,-1,1476,1450,0,0
259,-426,0,0,0,0,0,0,0,0,0,-1,1483,1450,0,0
266,-426,0,0,0,0,0,0,0,0,0,-1,1490,1450,0,0
273,-426,0,0,0,0,0,0,0,0,0,-1,1497,1450,0,0
280,-426,0,0,0,0,0,0,0,0,0,-1,1504,1450,0,0
287,-426,0,0,0,0,0,0,0,0,0,-1,1511,1450,0,0
294,-426,0,0,0,0,0,0,0,0,0,-1,1518,1450,0,0
301,-426,0,0,0,0,0,0,0,0,0,-1,1525,1450,0,0
308,-426,0,0,0,0,0,0,0,0,0,-1,1532,1450,0,0
315,-426,0,0,0,0,0,0,0,0,0,-1,1539,1450,0,0
322,-426,0,0,0,0,0,0,0,0,0,-1,1546,1450,0,0
329,-426,0,0,0,0,0,0,0,0,0,-1,1553,1450,0,0
336,-426,0,0,0,0,0,0,0,0,0,-1,1560,1450,0,0
343,-426,0,0,0,0,0,0,0,0,0,-1,1567,1450,0,0
350,-426,0,0,0,0,0,0,0,0,0,-1,1574,1450,0,0
357,-426,0,0,0,0,0,0,0,0,0,-1,1581,1450,0,0
364,-426,0,0,0,0,0,0,0,0,0,-1,1588,1450,0,0
371,-426,0,0,0,0,0,0,0,0,0,-1,1595,1450,0,0
378,-426,0,0,0,0,0,0,0,0,0,-1,1602,1450,0,0
385,-426,0,0,0,0,0,0,0,0,0,-1,1609,1450,0,0
392,-426,0,0,0,0,0,0,0,0,0,-1,1616,1450,0,0
399,-426,0,0,0,0,0,0,0,0,0,-1,1623,1450,0,0
406,-426,0,0,0,0,0,0,0,0,0,-1,1630,1450,0,0
413,-426,0,0,0,0,0,0,0,0,0,-1,1637,1450,0,0
420,-426,0,0,0,0,0,0,0,0,0,-1,1644,1450,0,0
427,-426,0,0,0,0,0,0,0,0,0,-1,1651,1450,0,0
434,-426,0,0,0,0,0,0,0,0,0,-1,1658,1450,0,0
441,-426,0,0,0,0,0,0,0,0,0,-1,1665,1450,0,0
448,-426,0,0,0,0,0,0,0,0,0,-1,1672,1450,0,0
455,-426,0,0,0,0,0,0,0,0,0,-1,1679,1450,0,0
462,-426,0,0,0,0,0,0,0,0,0,-1,1686,1450,0,0
469,-426,0,0,0,0,0,0,0,0,0,-1,1693,1450,0,0
476,-426,0,0,0,0,0,0,0,0,0,-1,1700,1450,0,0
483,-426,0,0,0,0,0,0,0,0,0,-1,1707,1450,0,0
490,-426,0,0,0,0,0,0,0,0,0,-1,1714,1450,0,0
497,-426,0,0,0,0,0,0,0,0,0,-1,1721,1450,0,0
504,-426,20.6873,3.38367,0,0,0,0,0,0,0,-1,1728,1450,20.6873,-3.38361
511,-426,19.6676,3.53748,0,0,0,0,0,0,0,-1,1735,1450,19.6676,-3.53749
518,-426,18.6853,3.32288,0,0,0,0,0,0,0,-1,1742,1450,18.6853,-3.3229
525,-426,18.9552,2.71033,0,0,0,0,0,0,0,-1,1749,1450,18.9552,-2.71034
532,-426,19.4333,2.70764,0,0,0,0,0,0,0,-1,1756,1450,19.4334,-2.70764
539,-426,25.1482,2.56287,0,0,0,0,0,0,0,-1,1763,1450,25.1482,-2.56286
546,-426,24.1136,3.75659,0,0,0,0,0,0,0,-1,1770,1450,24.1136,-3.7566
553,-426,23.0791,4.95032,0,0,0,0,0,0,0,-1,1777,1450,23.0791,-4.95034
560,-426,12.9688,11.8289,0,0,0,0,0,0,0,-1,1784,1450,12.9688,-11.8288
567,-426,13.6388,11.5623,0,0,0,0,0,0,0,-1,1791,1450,13.6388,-11.5623
574,-426,14.3943,11.0286,0,0,0,0,0,0,0,-1,1798,1450,14.3942,-11.0285
581,-426,16.3879,11.4653,0,0,0,0,0,0,0,-1,1805,1450,16.3879,-11.4653
588,-426,18.1212,12.5547,0,0,0,0,0,0,0,-1,1812,1450,18.1212,-12.5547
595,-426,24.9889,17.49,0,0,0,0,0,0,0,-1,1819,1450,24.9889,-17.49
602,-426,24.8002,16.8521,0.00400561,0.00483571,-0.00372986,0.00817354,0.000667779,-0.840809,0.00524064,0.0356636,1826,1450,24.8002,-16.852
609,-426,24.8655,16.2976,0.00321247,0.00348447,-0.00278514,0.00613693,0.000560005,-0.809794,0.00391798,0.013367,1833,1450,24.8654,-16.2977
616,-426,24.8508,15.8042,0.00253223,0.00239405,-0.0020359,0.00450022,0.000426065,-0.768437,0.00286869,0.014169,1840,1450,24.8508,-15.8042
623,-426,24.8558,15.2915,0.00210654,0.00152125,-0.00145293,0.003296,0.000331788,-0.68602,0.00209551,0.0115924,1847,1450,24.8559,-15.2916
630,-426,24.8555,14.7898,0.00193187,0.000768753,-0.00101899,0.00252357,0.000177049,-0.526092,0.00162658,0.0122729,1854,1450,24.8555,-14.7898
637,-426,24.8231,14.308,0.00180691,0.000174607,-0.000650533,0.00203445,-5.2935e-05,-0.336478,0.00137428,0.0130573,1861,1450,24.8232,-14.308
644,-426,24.7972,13.8245,0.00177661,-0.000266002,-0.000344365,0.00183311,-0.000322496,-0.162605,0.00134254,0.0133136,1868,1450,24.7973,-13.8245
651,-426,24.7751,13.3307,0.0018773,-0.00055667,-0.000153044,0.00188688,-0.000566255,-0.0625499,0.00148315,0.0130109,1875,1450,24.7751,-13.3307
658,-426,24.757,12.78,0.00202667,-0.00081385,4.03358e-05,0.00202724,-0.000814422,0.0141963,0.00168971,0.012431,1882,1450,24.757,-12.7801
665,-426,24.7816,12.2175,0.00214533,-0.00108397,0.000337358,0.0021802,-0.00111884,0.102986,0.00193728,0.0225749,1889,1450,24.7816,-12.2175
672,-426,24.8811,11.6672,0,0,0,0,0,0,0,-1,1896,1450,24.8811,-11.6673
679,-426,17.1522,8.15784,0,0,0,0,0,0,0,-1,1903,1450,17.1522,-8.15784
686,-426,13.5326,8.03711,0,0,0,0,0,0,0,-1,1910,1450,13.5326,-8.03717
693,-426,11.8607,6.45215,0,0,0,0,0,0,0,-1,1917,1450,11.8607,-6.45215
700,-426,9.24304,2.95447,0,0,0,0,0,0,0,-1,1924,1450,9.24305,-2.95442
707,-426,8.44519,-1.21448,0,0,0,0,0,0,0,-1,1931,1450,8.44514,1.21454
714,-426,0,0,0,0,0,0,0,0,0,-1,1938,1450,0,0
721,-426,0,0,0,0,0,0,0,0,0,-1,1945,1450,0,0
728,-426,0,0,0,0,0,0,0,0,0,-1,1952,1450,0,0
735,-426,0,0,0,0,0,0,0,0,0,-1,1959,1450,0,0
742,-426,0,0,0,0,0,0,0,0,0,-1,1966,1450,0,0
749,-426,0,0,0,0,0,0,0,0,0,-1,1973,1450,0,0
756,-426,0,0,0,0,0,0,0,0,0,-1,1980,1450,0,0
763,-426,0,0,0,0,0,0,0,0,0,-1,1987,1450,0,0
770,-426,0,0,0,0,0,0,0,0,0,-1,1994,1450,0,0
777,-426,0,0,0,0,0,0,0,0,0,-1,2001,1450,0,0
784,-426,0,0,0,0,0,0,0,0,0,-1,2008,1450,0,0
791,-426,0,0,0,0,0,0,0,0,0,-1,2015,1450,0,0
798,-426,0,0,0,0,0,0,0,0,0,-1,2022,1450,0,0
805,-426,0,0,0,0,0,0,0,0,0,-1,2029,1450,0,0
812,-426,0,0,0,0,0,0,0,0,0,-1,2036,1450,0,0
-700,-433,0,0,0,0,0,0,0,0,0,-1,524,1457,0,0
-693,-433,0,0,0,0,0,0,0,0,0,-1,531,1457,0,0
-686,-433,0,0,0,0,0,0,0,0,0,-1,538,1457,0,0
-679,-433,0,0,0,0,0,0,0,0,0,-1,545,1457,0,0
-672,-433,0,0,0,0,0,0,0,0,0,-1,552,1457,0,0
-665,-433,0,0,0,0,0,0,0,0,0,-1,559,1457,0,0
-658,-433,0,0,0,0,0,0,0,0,0,-1,566,1457,0,0
-651,-433,0,0,0,0,0,0,0,0,0,-1,573,1457,0,0
-644,-433,0,0,0,0,0,0,0,0,0,-1,580,1457,0,0
-637,-433,0,0,0,0,0,0,0,0,0,-1,587,1457,0,0
-630,-433,0,0,0,0,0,0,0,0,0,-1,594,1457,0,0
-623,-433,0,0,0,0,0,0,0,0,0,-1,601,1457,0,0
-616,-433,0,0,0,0,0,0,0,0,0,-1,608,1457,0,0
-609,-433,0,0,0,0,0,0,0,0,0,-1,615,1457,0,0
-602,-433,0,0,0,0,0,0,0,0,0,-1,622,1457,0,0
-595,-433,0,0,0,0,0,0,0,0,0,-1,629,1457,0,0
-588,-433,-10.3756,-0.467041,0,0,0,0,0,0,0,-1,636,1457,-10.3756,0.467081
-581,-433,-8.12201,0.884033,0,0,0,0,0,0,0,-1,643,1457,-8.12204,-0.884056
-574,-433,-5.86847,2.23523,0,0,0,0,0,0,0,-1,650,1457,-5.86844,-2.23519
-567,-433,-5.42255,1.16833,0,0,0,0,0,0,0,-1,657,1457,-5.42254,-1.1683
-560,-433,-6.84027,1.86414,0,0,0,0,0,0,0,-1,664,1457,-6.84026,-1.86412
-553,-433,-5.74017,1.79163,0,0,0,0,0,0,0,-1,671,1457,-5.74015,-1.79166
-546,-433,-6.9668,8.25073,0,0,0,0,0,0,0,-1,678,1457,-6.96679,-8.25074
-539,-433,-7.3136,8.75659,0,0,0,0,0,0,0,-1,685,1457,-7.31362,-8.75659
-532,-433,-9.39728,10.2708,0,0,0,0,0,0,0,-1,692,1457,-9.39728,-10.2707
-525,-433,-9.42694,11.0253,-0.00123118,0.00140393,0.000929748,0.00169894,-0.00152619,1.26354,0.00186292,0.0371184,699,1457,-9.42696,-11.0253
-518,-433,-9.47437,11.532,-0.000374283,0.00106415,0.00101637,0.00159004,-0.000900167,1.09331,0.00145599,0.0185727,706,1457,-9.47437,-11.532
-511,-433,-9.52808,12.0538,0.000413914,0.00116322,0.00126255,0.00210553,-0.000528403,0.92963,0.00160901,0.0168794,713,1457,-9.5281,-12.0538
-504,-433,-9.5119,12.6053,0.00110808,0.00137555,0.00150177,0.00274953,-0.000265903,0.829806,0.00192778,0.0138086,720,1457,-9.51189,-12.6054
-497,-433,-9.5199,13.1631,0.00191385,0.00181906,0.00189472,0.00376177,-2.88545e-05,0.772895,0.00251752,0.0144618,727,1457,-9.51991,-13.1631
-490,-433,-9.56421,13.67,0.00297284,0.0026058,0.00257586,0.00537171,0.000206934,0.749835,0.00351419,0.0159701,734,1457,-9.56421,-13.67
-483,-433,-9.57959,14.2378,0.00437675,0.00366922,0.00358878,0.00762915,0.000416812,0.736269,0.00495301,0.0171793,741,1457,-9.57961,-14.2378
-476,-433,-9.58276,14.8025,0.00608599,0.00506055,0.00488409,0.0104842,0.00066234,0.7331,0.00677948,0.0115947,748,1457,-9.58279,-14.8025
-469,-433,-9.60815,15.3295,0.00836671,0.00667336,0.00663474,0.0142086,0.000831492,0.721935,0.00920774,0.0103957,755,1457,-9.60816,-15.3294
-462,-433,-9.64612,15.8612,0,0,0,0,0,0,0,-1,762,1457,-9.64612,-15.8612
-455,-433,-9.22284,16.6816,0,0,0,0,0,0,0,-1,769,1457,-9.22283,-16.6817
-448,-433,-6.94812,14.5563,0,0,0,0,0,0,0,-1,776,1457,-6.94809,-14.5562
-441,-433,-9.97485,14.0258,0,0,0,0,0,0,0,-1,783,1457,-9.97488,-14.0257
-434,-433,-9.41205,14.2297,0,0,0,0,0,0,0,-1,790,1457,-9.41205,-14.2297
-427,-433,-8.67419,13.6827,0,0,0,0,0,0,0,-1,797,1457,-8.67422,-13.6827
-420,-433,-5.74658,9.49121,0,0,0,0,0,0,0,-1,804,1457,-5.7466,-9.49119
-413,-433,-3.63074,5.5813,0,0,0,0,0,0,0,-1,811,1457,-3.63072,-5.58129
-406,-433,-12.3472,4.69373,0,0,0,0,0,0,0,-1,818,1457,-12.3472,-4.69374
-399,-433,-12.055,2.83594,0,0,0,0,0,0,0,-1,825,1457,-12.055,-2.83594
-392,-433,-12.9772,1.6228,0,0,0,0,0,0,0,-1,832,1457,-12.9772,-1.62282
-385,-433,-13.7999,0.514771,0,0,0,0,0,0,0,-1,839,1457,-13.7999,-0.514788
-378,-433,0,0,0,0,0,0,0,0,0,-1,846,1457,0,0
-371,-433,0,0,0,0,0,0,0,0,0,-1,853,1457,0,0
-364,-433,0,0,0,0,0,0,0,0,0,-1,860,1457,0,0
-357,-433,0,0,0,0,0,0,0,0,0,-1,867,1457,0,0
-350,-433,0,0,0,0,0,0,0,0,0,-1,874,1457,0,0
-343,-433,0,0,0,0,0,0,0,0,0,-1,881,1457,0,0
-336,-433,0,0,0,0,0,0,0,0,0,-1,888,1457,0,0
-329,-433,0,0,0,0,0,0,0,0,0,-1,895,1457,0,0
-322,-433,0,0,0,0,0,0,0,0,0,-1,902,1457,0,0
-315,-433,0,0,0,0,0,0,0,0,0,-1,909,1457,0,0
-308,-433,0,0,0,0,0,0,0,0,0,-1,916,1457,0,0
-301,-433,0,0,0,0,0,0,0,0,0,-1,923,1457,0,0
-294,-433,0,0,0,0,0,0,0,0,0,-1,930,1457,0,0
-287,-433,0,0,0,0,0,0,0,0,0,-1,937,1457,0,0
-280,-433,0,0,0,0,0,0,0,0,0,-1,944,1457,0,0
-273,-433,0,0,0,0,0,0,0,0,0,-1,951,1457,0,0
-266,-433,0,0,0,0,0,0,0,0,0,-1,958,1457,0,0
-259,-433,0,0,0,0,0,0,0,0,0,-1,965,1457,0,0
-252,-433,0,0,0,0,0,0,0,0,0,-1,972,1457,0,0
-245,-433,0,0,0,0,0,0,0,0,0,-1,979,1457,0,0
-238,-433,0,0,0,0,0,0,0,0,0,-1,986,1457,0,0
-231,-433,0,0,0,0,0,0,0,0,0,-1,993,1457,0,0
-224,-433,0,0,0,0,0,0,0,0,0,-1,1000,1457,0,0
-217,-433,0,0,0,0,0,0,0,0,0,-1,1007,1457,0,0
-210,-433,0,0,0,0,0,0,0,0,0,-1,1014,1457,0,0
-203,-433,0,0,0,0,0,0,0,0,0,-1,1021,1457,0,0
-196,-433,0,0,0,0,0,0,0,0,0,-1,1028,1457,0,0
-189,-433,0,0,0,0,0,0,0,0,0,-1,1035,1457,0,0
-182,-433,0,0,0,0,0,0,0,0,0,-1,1042,1457,0,0
-175,-433,0,0,0,0,0,0,0,0,0,-1,1049,1457,0,0
-168,-433,0,0,0,0,0,0,0,0,0,-1,1056,1457,0,0
-161,-433,0,0,0,0,0,0,0,0,0,-1,1063,1457,0,0
-154,-433,0,0,0,0,0,0,0,0,0,-1,1070,1457,0,0
-147,-433,0,0,0,0,0,0,0,0,0,-1,1077,1457,0,0
-140,-433,0,0,0,0,0,0,0,0,0,-1,1084,1457,0,0
-133,-433,0,0,0,0,0,0,0,0,0,-1,1091,1457,0,0
-126,-433,0,0,0,0,0,0,0,0,0,-1,1098,1457,0,0
-119,-433,0,0,0,0,0,0,0,0,0,-1,1105,1457,0,0
-112,-433,0,0,0,0,0,0,0,0,0,-1,1112,1457,0,0
-105,-433,0,0,0,0,0,0,0,0,0,-1,1119,1457,0,0
-98,-433,0,0,0,0,0,0,0,0,0,-1,1126,1457,0,0
-91,-433,0,0,0,0,0,0,0,0,0,-1,1133,1457,0,0
-84,-433,0,0,0,0,0,0,0,0,0,-1,1140,1457,0,0
-77,-433,0,0,0,0,0,0,0,0,0,-1,1147,1457,0,0
-70,-433,0,0,0,0,0,0,0,0,0,-1,1154,1457,0,0
-63,-433,0,0,0,0,0,0,0,0,0,-1,1161,1457,0,0
-56,-433,0,0,0,0,0,0,0,0,0,-1,1168,1457,0,0
-49,-433,0,0,0,0,0,0,0,0,0,-1,1175,1457,0,0
-42,-433,0,0,0,0,0,0,0,0,0,-1,1182,1457,0,0
-35,-433,0,0,0,0,0,0,0,0,0,-1,1189,1457,0,0
-28,-433,0,0,0,0,0,0,0,0,0,-1,1196,1457,0,0
-21,-433,0,0,0,0,0,0,0,0,0,-1,1203,1457,0,0
-14,-433,0,0,0,0,0,0,0,0,0,-1,1210,1457,0,0
-7,-433,0,0,0,0,0,0,0,0,0,-1,1217,1457,0,0
0,-433,0,0,0,0,0,0,0,0,0,-1,1224,1457,0,0
7,-433,0,0,0,0,0,0,0,0,0,-1,1231,1457,0,0
14,-433,0,0,0,0,0,0,0,0,0,-1,1238,1457,0,0
21,-433,0,0,0,0,0,0,0,0,0,-1,1245,1457,0,0
28,-433,0,0,0,0,0,0,0,0,0,-1,1252,1457,0,0
35,-433,0,0,0,0,0,0,0,0,0,-1,1259,1457,0,0
42,-433,0,0,0,0,0,0,0,0,0,-1,1266,1457,0,0
49,-433,0,0,0,0,0,0,0,0,0,-1,1273,1457,0,0
56,-433,0,0,0,0,0,0,0,0,0,-1,1280,1457,0,0
63,-433,0,0,0,0,0,0,0,0,0,-1,1287,1457,0,0
70,-433,0,0,0,0,0,0,0,0,0,-1,1294,1457,0,0
77,-433,0,0,0,0,0,0,0,0,0,-1,1301,1457,0,0
84,-433,0,0,0,0,0,0,0,0,0,-1,1308,1457,0,0
91,-433,0,0,0,0,0,0,0,0,0,-1,1315,1457,0,0
98,-433,0,0,0,0,0,0,0,0,0,-1,1322,1457,0,0
105,-433,0,0,0,0,0,0,0,0,0,-1,1329,1457,0,0
112,-433,0,0,0,0,0,0,0,0,0,-1,1336,1457,0,0
119,-433,0,0,0,0,0,0,0,0,0,-1,1343,1457,0,0
126,-433,0,0,0,0,0,0,0,0,0,-1,1350,1457,0,0
133,-433,0,0,0,0,0,0,0,0,0,-1,1357,1457,0,0
140,-433,0,0,0,0,0,0,0,0,0,-1,1364,1457,0,0
147,-433,0,0,0,0,0,0,0,0,0,-1,1371,1457,0,0
154,-433,0,0,0,0,0,0,0,0,0,-1,1378,1457,0,0
161,-433,0,0,0,0,0,0,0,0,0,-1,1385,1457,0,0
168,-433,0,0,0,0,0,0,0,0,0,-1,1392,1457,0,0
175,-433,0,0,0,0,0,0,0,0,0,-1,1399,1457,0,0
182,-433,0,0,0,0,0,0,0,0,0,-1,1406,1457,0,0
189,-433,0,0,0,0,0,0,0,0,0,-1,1413,1457,0,0
196,-433,0,0,0,0,0,0,0,0,0,-1,1420,1457,0,0
203,-433,0,0,0,0,0,0,0,0,0,-1,1427,1457,0,0
210,-433,0,0,0,0,0,0,0,0,0,-1,1434,1457,0,0
217,-433,0,0,0,0,0,0,0,0,0,-1,1441,1457,0,0
224,-433,0,0,0,0,0,0,0,0,0,-1,1448,1457,0,0
231,-433,0,0,0,0,0,0,0,0,0,-1,1455,1457,0,0
238,-433,0,0,0,0,0,0,0,0,0,-1,1462,1457,0,0
245,-433,0,0,0,0,0,0,0,0,0,-1,1469,1457,0,0
252,-433,0,0,0,0,0,0,0,0,0,-1,1476,1457,0,0
259,-433,0,0,0,0,0,0,0,0,0,-1,1483,1457,0,0
266,-433,0,0,0,0,0,0,0,0,0,-1,1490,1457,0,0
273,-433,0,0,0,0,0,0,0,0,0,-1,1497,1457,0,0
280,-433,0,0,0,0,0,0,0,0,0,-1,1504,1457,0,0
287,-433,0,0,0,0,0,0,0,0,0,-1,1511,1457,0,0
294,-433,0,0,0,0,0,0,0,0,0,-1,1518,1457,0,0
301,-433,0,0,0,0,0,0,0,0,0,-1,1525,1457,0,0
308,-433,0,0,0,0,0,0,0,0,0,-1,1532,1457,0,0
315,-433,0,0,0,0,0,0,0,0,0,-1,1539,1457,0,0
322,-433,0,0,0,0,0,0,0,0,0,-1,1546,1457,0,0
329,-433,0,0,0,0,0,0,0,0,0,-1,1553,1457,0,0
336,-433,0,0,0,0,0,0,0,0,0,-1,1560,1457,0,0
343,-433,0,0,0,0,0,0,0,0,0,-1,1567,1457,0,0
350,-433,0,0,0,0,0,0,0,0,0,-1,1574,1457,0,0
357,-433,0,0,0,0,0,0,0,0,0,-1,1581,1457,0,0
364,-433,0,0,0,0,0,0,0,0,0,-1,1588,1457,0,0
371,-433,0,0,0,0,0,0,0,0,0,-1,1595,1457,0,0
378,-433,0,0,0,0,0,0,0,0,0,-1,1602,1457,0,0
385,-433,0,0,0,0,0,0,0,0,0,-1,1609,1457,0,0
392,-433,0,0,0,0,0,0,0,0,0,-1,1616,1457,0,0
399,-433,0,0,0,0,0,0,0,0,0,-1,1623,1457,0,0
406,-433,0,0,0,0,0,0,0,0,0,-1,1630,1457,0,0
413,-433,0,0,0,0,0,0,0,0,0,-1,1637,1457,0,0
420,-433,0,0,0,0,0,0,0,0,0,-1,1644,1457,0,0
427,-433,0,0,0,0,0,0,0,0,0,-1,1651,1457,0,0
434,-433,0,0,0,0,0,0,0,0,0,-1,1658,1457,0,0
441,-433,0,0,0,0,0,0,0,0,0,-1,1665,1457,0,0
448,-433,0,0,0,0,0,0,0,0,0,-1,1672,1457,0,0
455,-433,0,0,0,0,0,0,0,0,0,-1,1679,1457,0,0
462,-433,0,0,0,0,0,0,0,0,0,-1,1686,1457,0,0
469,-433,0,0,0,0,0,0,0,0,0,-1,1693,1457,0,0
476,-433,0,0,0,0,0,0,0,0,0,-1,1700,1457,0,0
483,-433,0,0,0,0,0,0,0,0,0,-1,1707,1457,0,0
490,-433,0,0,0,0,0,0,0,0,0,-1,1714,1457,0,0
497,-433,0,0,0,0,0,0,0,0,0,-1,1721,1457,0,0
504,-433,19.9058,3.03662,0,0,0,0,0,0,0,-1,1728,1457,19.9058,-3.03656
511,-433,19.0145,3.07837,0,0,0,0,0,0,0,-1,1735,1457,19.0146,-3.07834
518,-433,18.071,3.06433,0,0,0,0,0,0,0,-1,1742,1457,18.071,-3.06432
525,-433,17.2048,3.37085,0,0,0,0,0,0,0,-1,1749,1457,17.2049,-3.37083
532,-433,16.5637,3.36646,0,0,0,0,0,0,0,-1,1756,1457,16.5637,-3.36643
539,-433,15.9193,3.30396,0,0,0,0,0,0,0,-1,1763,1457,15.9193,-3.30394
546,-433,23.1903,4.81775,0,0,0,0,0,0,0,-1,1770,1457,23.1903,-4.81775
553,-433,13.9674,11.5781,0,0,0,0,0,0,0,-1,1777,1457,13.9674,-11.5781
560,-433,13.9855,11.7341,0,0,0,0,0,0,0,-1,1784,1457,13.9855,-11.7341
567,-433,13.9264,11.3364,0,0,0,0,0,0,0,-1,1791,1457,13.9263,-11.3364
574,-433,15.5305,12.3673,0,0,0,0,0,0,0,-1,1798,1457,15.5305,-12.3673
581,-433,16.6405,12.1898,0,0,0,0,0,0,0,-1,1805,1457,16.6405,-12.1898
588,-433,24.4833,18.2048,0,0,0,0,0,0,0,-1,1812,1457,24.4833,-18.2048
595,-433,24.3776,17.4078,0.00458049,0.00551146,-0.00418179,0.0092536,0.000838363,-0.840826,0.00590947,0.0439634,1819,1457,24.3775,-17.4079
602,-433,24.3793,16.8518,0.00361599,0.00413408,-0.00318079,0.00706636,0.000683714,-0.826029,0.00450035,0.0238247,1826,1457,24.3792,-16.8518
609,-433,24.377,16.2927,0.00291495,0.00293804,-0.00236923,0.00529575,0.000557238,-0.787835,0.00336019,0.0153399,1833,1457,24.377,-16.2927
616,-433,24.3789,15.8175,0.00233939,0.00196887,-0.00172029,0.00388436,0.000423893,-0.731759,0.00246048,0.0126486,1840,1457,24.3789,-15.8175
623,-433,24.3663,15.3097,0.00204358,0.00116108,-0.00120546,0.00288601,0.000318653,-0.609952,0.00182707,0.00994379,1847,1457,24.3663,-15.3097
630,-433,24.3473,14.8214,0.00199574,0.000439621,-0.000823422,0.00235056,8.48086e-05,-0.406857,0.00153955,0.0133382,1854,1457,24.3473,-14.8215
637,-433,24.3225,14.3293,0.00199022,-0.000116449,-0.000507517,0.00210611,-0.00023234,-0.224499,0.00148758,0.0149051,1861,1457,24.3225,-14.3293
644,-433,24.2988,13.8468,0.00208953,-0.000531782,-0.000255701,0.00211424,-0.000556492,-0.0963368,0.00162703,0.0164214,1868,1457,24.2988,-13.8467
651,-433,24.2936,13.3411,0.00236364,-0.000779969,-0.00013415,0.00236935,-0.000785684,-0.0425708,0.00189651,0.0132091,1875,1457,24.2936,-13.3411
658,-433,24.2278,12.7855,0.00273541,-0.00098699,-5.44349e-05,0.0027362,-0.000987785,-0.0146194,0.00222764,0.0267238,1882,1457,24.2278,-12.7855
665,-433,24.4211,12.1519,0,0,0,0,0,0,0,-1,1889,1457,24.4211,-12.1519
672,-433,18.115,8.7207,0,0,0,0,0,0,0,-1,1896,1457,18.115,-8.72074
679,-433,17.2969,9.6355,0,0,0,0,0,0,0,-1,1903,1457,17.2968,-9.63548
686,-433,13.6356,8.61694,0,0,0,0,0,0,0,-1,1910,1457,13.6356,-8.61694
693,-433,13.4081,8.39624,0,0,0,0,0,0,0,-1,1917,1457,13.4081,-8.39624
700,-433,7.16809,-1.5166,0,0,0,0,0,0,0,-1,1924,1457,7.16806,1.51656
707,-433,8.68359,-2.82202,0,0,0,0,0,0,0,-1,1931,1457,8.68359,2.82197
714,-433,0,0,0,0,0,0,0,0,0,-1,1938,1457,0,0
721,-433,0,0,0,0,0,0,0,0,0,-1,1945,1457,0,0
728,-433,0,0,0,0,0,0,0,0,0,-1,1952,1457,0,0
735,-433,0,0,0,0,0,0,0,0,0,-1,1959,1457,0,0
742,-433,0,0,0,0,0,0,0,0,0,-1,1966,1457,0,0
749,-433,0,0,0,0,0,0,0,0,0,-1,1973,1457,0,0
756,-433,0,0,0,0,0,0,0,0,0,-1,1980,1457,0,0
763,-433,0,0,0,0,0,0,0,0,0,-1,1987,1457,0,0
770,-433,0,0,0,0,0,0,0,0,0,-1,1994,1457,0,0
777,-433,0,0,0,0,0,0,0,0,0,-1,2001,1457,0,0
784,-433,0,0,0,0,0,0,0,0,0,-1,2008,1457,0,0
791,-433,0,0,0,0,0,0,0,0,0,-1,2015,1457,0,0
798,-433,0,0,0,0,0,0,0,0,0,-1,2022,1457,0,0
805,-433,0,0,0,0,0,0,0,0,0,-1,2029,1457,0,0
812,-433,0,0,0,0,0,0,0,0,0,-1,2036,1457,0,0
-700,-440,0,0,0,0,0,0,0,0,0,-1,524,1464,0,0
-693,-440,0,0,0,0,0,0,0,0,0,-1,531,1464,0,0
-686,-440,0,0,0,0,0,0,0,0,0,-1,538,1464,0,0
-679,-440,0,0,0,0,0,0,0,0,0,-1,545,1464,0,0
-672,-440,0,0,0,0,0,0,0,0,0,-1,552,1464,0,0
-665,-440,0,0,0,0,0,0,0,0,0,-1,559,1464,0,0
-658,-440,0,0,0,0,0,0,0,0,0,-1,566,1464,0,0
-651,-440,0,0,0,0,0,0,0,0,0,-1,573,1464,0,0
-644,-440,0,0,0,0,0,0,0,0,0,-1,580,1464,0,0
-637,-440,0,0,0,0,0,0,0,0,0,-1,587,1464,0,0
-630,-440,0,0,0,0,0,0,0,0,0,-1,594,1464,0,0
-623,-440,0,0,0,0,0,0,0,0,0,-1,601,1464,0,0
-616,-440,0,0,0,0,0,0,0,0,0,-1,608,1464,0,0
-609,-440,0,0,0,0,0,0,0,0,0,-1,615,1464,0,0
-602,-440,0,0,0,0,0,0,0,0,0,-1,622,1464,0,0
-595,-440,0,0,0,0,0,0,0,0,0,-1,629,1464,0,0
-588,-440,0,0,0,0,0,0,0,0,0,-1,636,1464,0,0
-581,-440,-8.97278,0.254517,0,0,0,0,0,0,0,-1,643,1464,-8.97276,-0.254526
-574,-440,-7.00818,-0.918579,0,0,0,0,0,0,0,-1,650,1464,-7.00817,0.918538
-567,-440,-6.12152,-0.0766602,0,0,0,0,0,0,0,-1,657,1464,-6.12151,0.0767097
-560,-440,-5.46747,0.82251,0,0,0,0,0,0,0,-1,664,1464,-5.46748,-0.822551
-553,-440,-6.84729,0.0831299,0,0,0,0,0,0,0,-1,671,1464,-6.84732,-0.083136
-546,-440,-5.63446,-0.153198,0,0,0,0,0,0,0,-1,678,1464,-5.63447,0.153147
-539,-440,-6.80017,8.58252,0,0,0,0,0,0,0,-1,685,1464,-6.80015,-8.58257
-532,-440,-8.50018,10.0616,0,0,0,0,0,0,0,-1,692,1464,-8.5002,-10.0616
-525,-440,-9.01862,10.8751,0,0,0,0,0,0,0,-1,699,1464,-9.01863,-10.8752
-518,-440,-8.97327,11.4768,-5.5253e-05,0.00154526,0.00190346,0.00280985,-0.00131984,0.984391,0.00243546,0.0224588,706,1464,-8.97329,-11.4768
-511,-440,-8.94336,12.0732,0.000613096,0.00145413,0.00194365,0.00302223,-0.000955014,0.891932,0.00239743,0.016301,713,1464,-8.94334,-12.0733
-504,-440,-8.93146,12.6229,0.0011017,0.00143957,0.00191243,0.00319052,-0.000649244,0.829451,0.00237322,0.0190346,720,1464,-8.93148,-12.6229
-497,-440,-8.97528,13.1711,0.00168526,0.00164434,0.00202921,0.00369411,-0.000364508,0.780356,0.0025928,0.0224451,727,1464,-8.9753,-13.1711
-490,-440,-8.99475,13.6548,0.00252713,0.00220299,0.00243504,0.00480548,-7.53661e-05,0.752168,0.00322907,0.0224665,734,1464,-8.99476,-13.6548
-483,-440,-9.02509,14.2145,0.00374815,0.00305704,0.00319704,0.00661826,0.000186932,0.731564,0.0043512,0.0205701,741,1464,-9.02509,-14.2144
-476,-440,-9.0434,14.7687,0.00527027,0.00420839,0.00423822,0.00901068,0.000467979,0.723086,0.00585736,0.0137778,748,1464,-9.04339,-14.7686
-469,-440,-9.07446,15.3199,0.00728619,0.00557832,0.00572446,0.0122201,0.000644448,0.711358,0.00794061,0.0116937,755,1464,-9.07444,-15.3199
-462,-440,-9.1225,15.8606,0.00989293,0.00737812,0.00771084,0.0164482,0.000822828,0.704575,0.0107017,0.0155835,762,1464,-9.12247,-15.8606
-455,-440,-8.96655,16.4945,0.0133488,0.00963637,0.010425,0.0220816,0.000903589,0.697294,0.0144293,0.0373572,769,1464,-8.96655,-16.4945
-448,-440,-8.44855,17.2568,0,0,0,0,0,0,0,-1,776,1464,-8.44857,-17.2568
-441,-440,-7.28583,14.7465,0,0,0,0,0,0,0,-1,783,1464,-7.28584,-14.7464
-434,-440,-8.33636,14.5024,0,0,0,0,0,0,0,-1,790,1464,-8.33638,-14.5025
-427,-440,-8.28094,14.2512,0,0,0,0,0,0,0,-1,797,1464,-8.28094,-14.2512
-420,-440,-6.86603,8.09216,0,0,0,0,0,0,0,-1,804,1464,-6.86602,-8.09222
-413,-440,-3.46796,5.72278,0,0,0,0,0,0,0,-1,811,1464,-3.46797,-5.72276
-406,-440,-5.2887,5.20264,0,0,0,0,0,0,0,-1,818,1464,-5.2887,-5.20261
-399,-440,-12.7318,3.94421,0,0,0,0,0,0,0,-1,825,1464,-12.7318,-3.94419
-392,-440,-13.5565,2.51855,0,0,0,0,0,0,0,-1,832,1464,-13.5565,-2.51861
-385,-440,-14.6741,1.39795,0,0,0,0,0,0,0,-1,839,1464,-14.6741,-1.39801
-378,-440,-15.8063,0.293457,0,0,0,0,0,0,0,-1,846,1464,-15.8063,-0.293412
-371,-440,0,0,0,0,0,0,0,0,0,-1,853,1464,0,0
-364,-440,0,0,0,0,0,0,0,0,0,-1,860,1464,0,0
-357,-440,0,0,0,0,0,0,0,0,0,-1,867,1464,0,0
-350,-440,0,0,0,0,0,0,0,0,0,-1,874,1464,0,0
-343,-440,0,0,0,0,0,0,0,0,0,-1,881,1464,0,0
-336,-440,0,0,0,0,0,0,0,0,0,-1,888,1464,0,0
-329,-440,0,0,0,0,0,0,0,0,0,-1,895,1464,0,0
-322,-440,0,0,0,0,0,0,0,0,0,-1,902,1464,0,0
-315,-440,0,0,0,0,0,0,0,0,0,-1,909,1464,0,0
-308,-440,0,0,0,0,0,0,0,0,0,-1,916,1464,0,0
-301,-440,0,0,0,0,0,0,0,0,0,-1,923,1464,0,0
-294,-440,0,0,0,0,0,0,0,0,0,-1,930,1464,0,0
-287,-440,0,0,0,0,0,0,0,0,0,-1,937,1464,0,0
-280,-440,0,0,0,0,0,0,0,0,0,-1,944,1464,0,0
-273,-440,0,0,0,0,0,0,0,0,0,-1,951,1464,0,0
-266,-440,0,0,0,0,0,0,0,0,0,-1,958,1464,0,0
-259,-440,0,0,0,0,0,0,0,0,0,-1,965,1464,0,0
-252,-440,0,0,0,0,0,0,0,0,0,-1,972,1464,0,0
-245,-440,0,0,0,0,0,0,0,0,0,-1,979,1464,0,0
-238,-440,0,0,0,0,0,0,0,0,0,-1,986,1464,0,0
-231,-440,0,0,0,0,0,0,0,0,0,-1,993,1464,0,0
-224,-440,0,0,0,0,0,0,0,0,0,-1,1000,1464,0,0
-217,-440,0,0,0,0,0,0,0,0,0,-1,1007,1464,0,0
-210,-440,0,0,0,0,0,0,0,0,0,-1,1014,1464,0,0
-203,-440,0,0,0,0,0,0,0,0,0,-1,1021,1464,0,0
-196,-440,0,0,0,0,0,0,0,0,0,-1,1028,1464,0,0
-189,-440,0,0,0,0,0,0,0,0,0,-1,1035,1464,0,0
-182,-440,0,0,0,0,0,0,0,0,0,-1,1042,1464,0,0
-175,-440,0,0,0,0,0,0,0,0,0,-1,1049,1464,0,0
-168,-440,0,0,0,0,0,0,0,0,0,-1,1056,1464,0,0
-161,-440,0,0,0,0,0,0,0,0,0,-1,1063,1464,0,0
-154,-440,0,0,0,0,0,0,0,0,0,-1,1070,1464,0,0
-147,-440,0,0,0,0,0,0,0,0,0,-1,1077,1464,0,0
-140,-440,0,0,0,0,0,0,0,0,0,-1,1084,1464,0,0
-133,-440,0,0,0,0,0,0,0,0,0,-1,1091,1464,0,0
-126,-440,0,0,0,0,0,0,0,0,0,-1,1098,1464,0,0
-119,-440,0,0,0,0,0,0,0,0,0,-1,1105,1464,0,0
-112,-440,0,0,0,0,0,0,0,0,0,-1,1112,1464,0,0
-105,-440,0,0,0,0,0,0,0,0,0,-1,1119,1464,0,0
-98,-440,0,0,0,0,0,0,0,0,0,-1,1126,1464,0,0
-91,-440,0,0,0,0,0,0,0,0,0,-1,1133,1464,0,0
-84,-440,0,0,0,0,0,0,0,0,0,-1,1140,1464,0,0
-77,-440,0,0,0,0,0,0,0,0,0,-1,1147,1464,0,0
-70,-440,0,0,0,0,0,0,0,0,0,-1,1154,1464,0,0
-63,-440,0,0,0,0,0,0,0,0,0,-1,1161,1464,0,0
-56,-440,0,0,0,0,0,0,0,0,0,-1,1168,1464,0,0
-49,-440,0,0,0,0,0,0,0,0,0,-1,1175,1464,0,0
-42,-440,0,0,0,0,0,0,0,0,0,-1,1182,1464,0,0
-35,-440,0,0,0,0,0,0,0,0,0,-1,1189,1464,0,0
-28,-440,0,0,0,0,0,0,0,0,0,-1,1196,1464,0,0
-21,-440,0,0,0,0,0,0,0,0,0,-1,1203,1464,0,0
-14,-440,0,0,0,0,0,0,0,0,0,-1,1210,1464,0,0
-7,-440,0,0,0,0,0,0,0,0,0,-1,1217,1464,0,0
0,-440,0,0,0,0,0,0,0,0,0,-1,1224,1464,0,0
7,-440,0,0,0,0,0,0,0,0,0,-1,1231,1464,0,0
14,-440,0,0,0,0,0,0,0,0,0,-1,1238,1464,0,0
21,-440,0,0,0,0,0,0,0,0,0,-1,1245,1464,0,0
28,-440,0,0,0,0,0,0,0,0,0,-1,1252,1464,0,0
35,-440,0,0,0,0,0,0,0,0,0,-1,1259,1464,0,0
42,-440,0,0,0,0,0,0,0,0,0,-1,1266,1464,0,0
49,-440,0,0,0,0,0,0,0,0,0,-1,1273,1464,0,0
56,-440,0,0,0,0,0,0,0,0,0,-1,1280,1464,0,0
63,-440,0,0,0,0,0,0,0,0,0,-1,1287,1464,0,0
70,-440,0,0,0,0,0,0,0,0,0,-1,1294,1464,0,0
77,-440,0,0,0,0,0,0,0,0,0,-1,1301,1464,0,0
84,-440,0,0,0,0,0,0,0,0,0,-1,1308,1464,0,0
91,-440,0,0,0,0,0,0,0,0,0,-1,1315,1464,0,0
98,-440,0,0,0,0,0,0,0,0,0,-1,1322,1464,0,0
105,-440,0,0,0,0,0,0,0,0,0,-1,1329,1464,0,0
112,-440,0,0,0,0,0,0,0,0,0,-1,1336,1464,0,0
119,-440,0,0,0,0,0,0,0,0,0,-1,1343,1464,0,0
126,-440,0,0,0,0,0,0,0,0,0,-1,1350,1464,0,0
133,-440,0,0,0,0,0,0,0,0,0,-1,1357,1464,0,0
140,-440,0,0,0,0,0,0,0,0,0,-1,1364,1464,0,0
147,-440,0,0,0,0,0,0,0,0,0,-1,1371,1464,0,0
154,-440,0,0,0,0,0,0,0,0,0,-1,1378,1464,0,0
161,-440,0,0,0,0,0,0,0,0,0,-1,1385,1464,0,0
168,-440,0,0,0,0,0,0,0,0,0,-1,1392,1464,0,0
175,-440,0,0,0,0,0,0,0,0,0,-1,1399,1464,0,0
182,-440,0,0,0,0,0,0,0,0,0,-1,1406,1464,0,0
189,-440,0,0,0,0,0,0,0,0,0,-1,1413,1464,0,0
196,-440,0,0,0,0,0,0,0,0,0,-1,1420,1464,0,0
203,-440,0,0,0,0,0,0,0,0,0,-1,1427,1464,0,0
210,-440,0,0,0,0,0,0,0,0,0,-1,1434,1464,0,0
217,-440,0,0,0,0,0,0,0,0,0,-1,1441,1464,0,0
224,-440,0,0,0,0,0,0,0,0,0,-1,1448,1464,0,0
231,-440,0,0,0,0,0,0,0,0,0,-1,1455,1464,0,0
238,-440,0,0,0,0,0,0,0,0,0,-1,1462,1464,0,0
245,-440,0,0,0,0,0,0,0,0,0,-1,1469,1464,0,0
252,-440,0,0,0,0,0,0,0,0,0,-1,1476,1464,0,0
259,-440,0,0,0,0,0,0,0,0,0,-1,1483,1464,0,0
266,-440,0,0,0,0,0,0,0,0,0,-1,1490,1464,0,0
273,-440,0,0,0,0,0,0,0,0,0,-1,1497,1464,0,0
280,-440,0,0,0,0,0,0,0,0,0,-1,1504,1464,0,0
287,-440,0,0,0,0,0,0,0,0,0,-1,1511,1464,0,0
294,-440,0,0,0,0,0,0,0,0,0,-1,1518,1464,0,0
301,-440,0,0,0,0,0,0,0,0,0,-1,1525,1464,0,0
308,-440,0,0,0,0,0,0,0,0,0,-1,1532,1464,0,0
315,-440,0,0,0,0,0,0,0,0,0,-1,1539,1464,0,0
322,-440,0,0,0,0,0,0,0,0,0,-1,1546,1464,0,0
329,-440,0,0,0,0,0,0,0,0,0,-1,1553,1464,0,0
336,-440,0,0,0,0,0,0,0,0,0,-1,1560,1464,0,0
343,-440,0,0,0,0,0,0,0,0,0,-1,1567,1464,0,0
350,-440,0,0,0,0,0,0,0,0,0,-1,1574,1464,0,0
357,-440,0,0,0,0,0,0,0,0,0,-1,1581,1464,0,0
364,-440,0,0,0,0,0,0,0,0,0,-1,1588,1464,0,0
371,-440,0,0,0,0,0,0,0,0,0,-1,1595,1464,0,0
378,-440,0,0,0,0,0,0,0,0,0,-1,1602,1464,0,0
385,-440,0,0,0,0,0,0,0,0,0,-1,1609,1464,0,0
392,-440,0,0,0,0,0,0,0,0,0,-1,1616,1464,0,0
399,-440,0,0,0,0,0,0,0,0,0,-1,1623,1464,0,0
406,-440,0,0,0,0,0,0,0,0,0,-1,1630,1464,0,0
413,-440,0,0,0,0,0,0,0,0,0,-1,1637,1464,0,0
420,-440,0,0,0,0,0,0,0,0,0,-1,1644,1464,0,0
427,-440,0,0,0,0,0,0,0,0,0,-1,1651,1464,0,0
434,-440,0,0,0,0,0,0,0,0,0,-1,1658,1464,0,0
441,-440,0,0,0,0,0,0,0,0,0,-1,1665,1464,0,0
448,-440,0,0,0,0,0,0,0,0,0,-1,1672,1464,0,0
455,-440,0,0,0,0,0,0,0,0,0,-1,1679,1464,0,0
462,-440,0,0,0,0,0,0,0,0,0,-1,1686,1464,0,0
469,-440,0,0,0,0,0,0,0,0,0,-1,1693,1464,0,0
476,-440,0,0,0,0,0,0,0,0,0,-1,1700,1464,0,0
483,-440,0,0,0,0,0,0,0,0,0,-1,1707,1464,0,0
490,-440,0,0,0,0,0,0,0,0,0,-1,1714,1464,0,0
497,-440,16.965,-0.528442,0,0,0,0,0,0,0,-1,1721,1464,16.965,0.528492
504,-440,15.8052,0.670166,0,0,0,0,0,0,0,-1,1728,1464,15.8052,-0.670145
511,-440,17.5754,2.77832,0,0,0,0,0,0,0,-1,1735,1464,17.5754,-2.77826
518,-440,16.9017,3.07861,0,0,0,0,0,0,0,-1,1742,1464,16.9018,-3.07859
525,-440,18.4495,12.0867,0,0,0,0,0,0,0,-1,1749,1464,18.4495,-12.0867
532,-440,15.4319,3.64392,0,0,0,0,0,0,0,-1,1756,1464,15.4318,-3.64391
539,-440,14.8214,3.41321,0,0,0,0,0,0,0,-1,1763,1464,14.8214,-3.4132
546,-440,14.8651,10.7683,0,0,0,0,0,0,0,-1,1770,1464,14.8651,-10.7683
553,-440,15.1213,11.4121,0,0,0,0,0,0,0,-1,1777,1464,15.1213,-11.4121
560,-440,17.4325,12.5394,0,0,0,0,0,0,0,-1,1784,1464,17.4325,-12.5394
567,-440,16.9025,12.4249,0,0,0,0,0,0,0,-1,1791,1464,16.9025,-12.425
574,-440,19.2841,14.8679,0,0,0,0,0,0,0,-1,1798,1464,19.2841,-14.868
581,-440,23.6521,18.948,0,0,0,0,0,0,0,-1,1805,1464,23.6521,-18.948
588,-440,23.7745,17.9723,0,0,0,0,0,0,0,-1,1812,1464,23.7746,-17.9723
595,-440,23.8153,17.3726,0.00415713,0.00452464,-0.00343235,0.00777814,0.00090362,-0.812141,0.00491201,0.0244891,1819,1464,23.8153,-17.3726
602,-440,23.8955,16.8097,0.00335226,0.00333349,-0.00262486,0.00596775,0.000717998,-0.783611,0.00376208,0.0179979,1826,1464,23.8955,-16.8096
609,-440,23.8746,16.3138,0.00275549,0.00229989,-0.00194106,0.00448208,0.000573303,-0.726986,0.00281647,0.015199,1833,1464,23.8747,-16.3138
616,-440,23.8605,15.8331,0.00228403,0.00147056,-0.00139847,0.00333371,0.000420883,-0.643881,0.00209631,0.0159331,1840,1464,23.8604,-15.8332
623,-440,23.8645,15.3274,0.00210147,0.000751005,-0.000957765,0.0025981,0.00025438,-0.478357,0.00165381,0.0133319,1847,1464,23.8645,-15.3274
630,-440,23.8375,14.8077,0.00215551,9.24718e-05,-0.000626452,0.00233084,-8.28533e-05,-0.272888,0.00158223,0.0122086,1854,1464,23.8376,-14.8077
637,-440,23.8242,14.3521,0.00225731,-0.000385853,-0.000371135,0.00230843,-0.000436977,-0.136887,0.0017034,0.0166702,1861,1464,23.8242,-14.352
644,-440,23.8212,13.8722,0.00246154,-0.000742237,-0.00017931,0.00247155,-0.000752242,-0.0557363,0.00194749,0.0155371,1868,1464,23.8212,-13.8722
651,-440,23.828,13.3282,0.00287595,-0.000929829,-0.000117178,0.00287956,-0.000933433,-0.0307507,0.00229502,0.0190055,1875,1464,23.828,-13.3282
658,-440,23.8923,12.7518,0,0,0,0,0,0,0,-1,1882,1464,23.8924,-12.7518
665,-440,23.0613,12.0668,0,0,0,0,0,0,0,-1,1889,1464,23.0613,-12.0668
672,-440,18.9385,9.6394,0,0,0,0,0,0,0,-1,1896,1464,18.9384,-9.63939
679,-440,16.9508,10.2336,0,0,0,0,0,0,0,-1,1903,1464,16.9508,-10.2337
686,-440,15.2556,8.44177,0,0,0,0,0,0,0,-1,1910,1464,15.2556,-8.44177
693,-440,9.88635,2.89795,0,0,0,0,0,0,0,-1,1917,1464,9.88638,-2.89798
700,-440,7.07825,-2.62061,0,0,0,0,0,0,0,-1,1924,1464,7.07829,2.62057
707,-440,0,0,0,0,0,0,0,0,0,-1,1931,1464,0,0
714,-440,0,0,0,0,0,0,0,0,0,-1,1938,1464,0,0
721,-440,0,0,0,0,0,0,0,0,0,-1,1945,1464,0,0
728,-440,0,0,0,0,0,0,0,0,0,-1,1952,1464,0,0
735,-440,0,0,0,0,0,0,0,0,0,-1,1959,1464,0,0
742,-440,0,0,0,0,0,0,0,0,0,-1,1966,1464,0,0
749,-440,0,0,0,0,0,0,0,0,0,-1,1973,1464,0,0
756,-440,0,0,0,0,0,0,0,0,0,-1,1980,1464,0,0
763,-440,0,0,0,0,0,0,0,0,0,-1,1987,1464,0,0
770,-440,0,0,0,0,0,0,0,0,0,-1,1994,1464,0,0
777,-440,0,0,0,0,0,0,0,0,0,-1,2001,1464,0,0
784,-440,0,0,0,0,0,0,0,0,0,-1,2008,1464,0,0
791,-440,0,0,0,0,0,0,0,0,0,-1,2015,1464,0,0
798,-440,0,0,0,0,0,0,0,0,0,-1,2022,1464,0,0
805,-440,0,0,0,0,0,0,0,0,0,-1,2029,1464,0,0
812,-440,0,0,0,0,0,0,0,0,0,-1,2036,1464,0,0
-700,-447,0,0,0,0,0,0,0,0,0,-1,524,1471,0,0
-693,-447,0,0,0,0,0,0,0,0,0,-1,531,1471,0,0
-686,-447,0,0,0,0,0,0,0,0,0,-1,538,1471,0,0
-679,-447,0,0,0,0,0,0,0,0,0,-1,545,1471,0,0
-672,-447,0,0,0,0,0,0,0,0,0,-1,552,1471,0,0
-665,-447,0,0,0,0,0,0,0,0,0,-1,559,1471,0,0
-658,-447,0,0,0,0,0,0,0,0,0,-1,566,1471,0,0
-651,-447,0,0,0,0,0,0,0,0,0,-1,573,1471,0,0
-644,-447,0,0,0,0,0,0,0,0,0,-1,580,1471,0,0
-637,-447,0,0,0,0,0,0,0,0,0,-1,587,1471,0,0
-630,-447,0,0,0,0,0,0,0,0,0,-1,594,1471,0,0
-623,-447,0,0,0,0,0,0,0,0,0,-1,601,1471,0,0
-616,-447,0,0,0,0,0,0,0,0,0,-1,608,1471,0,0
-609,-447,0,0,0,0,0,0,0,0,0,-1,615,1471,0,0
-602,-447,0,0,0,0,0,0,0,0,0,-1,622,1471,0,0
-595,-447,0,0,0,0,0,0,0,0,0,-1,629,1471,0,0
-588,-447,0,0,0,0,0,0,0,0,0,-1,636,1471,0,0
-581,-447,-7.06482,-1.50476,0,0,0,0,0,0,0,-1,643,1471,-7.0648,1.50474
-574,-447,-6.88092,-0.00585938,0,0,0,0,0,0,0,-1,650,1471,-6.88095,0.00589852
-567,-447,-6.8205,-1.32178,0,0,0,0,0,0,0,-1,657,1471,-6.82047,1.32172
-560,-447,-8.85748,2.80774,0,0,0,0,0,0,0,-1,664,1471,-8.85748,-2.80775
-553,-447,-7.60486,3.26794,0,0,0,0,0,0,0,-1,671,1471,-7.60487,-3.26799
-546,-447,-3.94501,1.8656,0,0,0,0,0,0,0,-1,678,1471,-3.945,-1.86554
-539,-447,-5.35492,4.50024,0,0,0,0,0,0,0,-1,685,1471,-5.35492,-4.50018
-532,-447,-6.12781,8.81091,0,0,0,0,0,0,0,-1,692,1471,-6.12781,-8.81094
-525,-447,-8.2735,10.7793,0,0,0,0,0,0,0,-1,699,1471,-8.27352,-10.7793
-518,-447,-8.45935,11.3507,0,0,0,0,0,0,0,-1,706,1471,-8.45932,-11.3507
-511,-447,-8.41644,12.0427,0.00144899,0.00170117,0.00283482,0.0044127,-0.00126255,0.807623,0.00344075,0.0211931,713,1471,-8.41644,-12.0428
-504,-447,-8.39276,12.6776,0.00163301,0.00141145,0.00246544,0.00399016,-0.000945696,0.762946,0.00302502,0.0204108,720,1471,-8.39279,-12.6776
-497,-447,-8.45276,13.2113,0.00187641,0.00135388,0.00225144,0.00388169,-0.000651406,0.727635,0.00283003,0.0244551,727,1471,-8.45274,-13.2113
-490,-447,-8.43201,13.6946,0.00239478,0.00168025,0.00235697,0.00442141,-0.000346383,0.710182,0.00306959,0.0235666,734,1471,-8.432,-13.6946
-483,-447,-8.48016,14.2135,0.00331995,0.00235597,0.00286502,0.00574324,-6.73246e-05,0.702062,0.00385147,0.0213776,741,1471,-8.48014,-14.2134
-476,-447,-8.51575,14.7401,0.00454171,0.00332591,0.00367357,0.00765734,0.000210286,0.703402,0.00503626,0.0140454,748,1471,-8.51574,-14.7402
-469,-447,-8.53094,15.3113,0.00621176,0.00452902,0.00491741,0.0103593,0.000381513,0.700669,0.00678258,0.0125306,755,1471,-8.53097,-15.3113
-462,-447,-8.53601,15.881,0.00838486,0.00608233,0.00658601,0.0139195,0.000547714,0.69887,0.00910257,0.0123895,762,1471,-8.536,-15.8809
-455,-447,-8.56927,16.4237,0.0112412,0.00799588,0.00884263,0.0186088,0.000628284,0.694654,0.0122019,0.0202402,769,1471,-8.5693,-16.4237
-448,-447,-8.39417,17.1364,0.0154398,0.0109307,0.0124491,0.0258369,0.000533689,0.695818,0.0170495,0.0473534,776,1471,-8.39417,-17.1363
-441,-447,-8.04102,18.0596,0,0,0,0,0,0,0,-1,783,1471,-8.04103,-18.0596
-434,-447,-7.43402,15.6273,0,0,0,0,0,0,0,-1,790,1471,-7.43404,-15.6274
-427,-447,-7.21832,14.691,0,0,0,0,0,0,0,-1,797,1471,-7.21834,-14.6911
-420,-447,-8.0545,12.8055,0,0,0,0,0,0,0,-1,804,1471,-8.05452,-12.8055
-413,-447,-4.27393,6.59705,0,0,0,0,0,0,0,-1,811,1471,-4.27392,-6.59707
-406,-447,-1.04279,6.18591,0,0,0,0,0,0,0,-1,818,1471,-1.04276,-6.18586
-399,-447,0.0134888,0.687622,0,0,0,0,0,0,0,-1,825,1471,0.0134841,-0.68767
-392,-447,-14.0646,3.76147,0,0,0,0,0,0,0,-1,832,1471,-14.0646,-3.7615
-385,-447,-15.1695,2.61865,0,0,0,0,0,0,0,-1,839,1471,-15.1695,-2.61871
-378,-447,-15.9424,1.49316,0,0,0,0,0,0,0,-1,846,1471,-15.9424,-1.49313
-371,-447,-17.3655,0.73291,0,0,0,0,0,0,0,-1,853,1471,-17.3655,-0.732946
-364,-447,0,0,0,0,0,0,0,0,0,-1,860,1471,0,0
-357,-447,0,0,0,0,0,0,0,0,0,-1,867,1471,0,0
-350,-447,0,0,0,0,0,0,0,0,0,-1,874,1471,0,0
-343,-447,0,0,0,0,0,0,0,0,0,-1,881,1471,0,0
-336,-447,0,0,0,0,0,0,0,0,0,-1,888,1471,0,0
-329,-447,0,0,0,0,0,0,0,0,0,-1,895,1471,0,0
-322,-447,0,0,0,0,0,0,0,0,0,-1,902,1471,0,0
-315,-447,0,0,0,0,0,0,0,0,0,-1,909,1471,0,0
-308,-447,0,0,0,0,0,0,0,0,0,-1,916,1471,0,0
-301,-447,0,0,0,0,0,0,0,0,0,-1,923,1471,0,0
-294,-447,0,0,0,0,0,0,0,0,0,-1,930,1471,0,0
-287,-447,0,0,0,0,0,0,0,0,0,-1,937,1471,0,0
-280,-447,0,0,0,0,0,0,0,0,0,-1,944,1471,0,0
-273,-447,0,0,0,0,0,0,0,0,0,-1,951,1471,0,0
-266,-447,0,0,0,0,0,0,0,0,0,-1,958,1471,0,0
-259,-447,0,0,0,0,0,0,0,0,0,-1,965,1471,0,0
-252,-447,0,0,0,0,0,0,0,0,0,-1,972,1471,0,0
-245,-447,0,0,0,0,0,0,0,0,0,-1,979,1471,0,0
-238,-447,0,0,0,0,0,0,0,0,0,-1,986,1471,0,0
-231,-447,0,0,0,0,0,0,0,0,0,-1,993,1471,0,0
-224,-447,0,0,0,0,0,0,0,0,0,-1,1000,1471,0,0
-217,-447,0,0,0,0,0,0,0,0,0,-1,1007,1471,0,0
-210,-447,0,0,0,0,0,0,0,0,0,-1,1014,1471,0,0
-203,-447,0,0,0,0,0,0,0,0,0,-1,1021,1471,0,0
-196,-447,0,0,0,0,0,0,0,0,0,-1,1028,1471,0,0
-189,-447,0,0,0,0,0,0,0,0,0,-1,1035,1471,0,0
-182,-447,0,0,0,0,0,0,0,0,0,-1,1042,1471,0,0
-175,-447,0,0,0,0,0,0,0,0,0,-1,1049,1471,0,0
-168,-447,0,0,0,0,0,0,0,0,0,-1,1056,1471,0,0
-161,-447,0,0,0,0,0,0,0,0,0,-1,1063,1471,0,0
-154,-447,0,0,0,0,0,0,0,0,0,-1,1070,1471,0,0
-147,-447,0,0,0,0,0,0,0,0,0,-1,1077,1471,0,0
-140,-447,0,0,0,0,0,0,0,0,0,-1,1084,1471,0,0
-133,-447,0,0,0,0,0,0,0,0,0,-1,1091,1471,0,0
-126,-447,0,0,0,0,0,0,0,0,0,-1,1098,1471,0,0
-119,-447,0,0,0,0,0,0,0,0,0,-1,1105,1471,0,0
-112,-447,0,0,0,0,0,0,0,0,0,-1,1112,1471,0,0
-105,-447,0,0,0,0,0,0,0,0,0,-1,1119,1471,0,0
-98,-447,0,0,0,0,0,0,0,0,0,-1,1126,1471,0,0
-91,-447,0,0,0,0,0,0,0,0,0,-1,1133,1471,0,0
-84,-447,0,0,0,0,0,0,0,0,0,-1,1140,1471,0,0
-77,-447,0,0,0,0,0,0,0,0,0,-1,1147,1471,0,0
-70,-447,0,0,0,0,0,0,0,0,0,-1,1154,1471,0,0
-63,-447,0,0,0,0,0,0,0,0,0,-1,1161,1471,0,0
-56,-447,0,0,0,0,0,0,0,0,0,-1,1168,1471,0,0
-49,-447,0,0,0,0,0,0,0,0,0,-1,1175,1471,0,0
-42,-447,0,0,0,0,0,0,0,0,0,-1,1182,1471,0,0
-35,-447,0,0,0,0,0,0,0,0,0,-1,1189,1471,0,0
-28,-447,0,0,0,0,0,0,0,0,0,-1,1196,1471,0,0
-21,-447,0,0,0,0,0,0,0,0,0,-1,1203,1471,0,0
-14,-447,0,0,0,0,0,0,0,0,0,-1,1210,1471,0,0
-7,-447,0,0,0,0,0,0,0,0,0,-1,1217,1471,0,0
0,-447,0,0,0,0,0,0,0,0,0,-1,1224,1471,0,0
7,-447,0,0,0,0,0,0,0,0,0,-1,1231,1471,0,0
14,-447,0,0,0,0,0,0,0,0,0,-1,1238,1471,0,0
21,-447,0,0,0,0,0,0,0,0,0,-1,1245,1471,0,0
28,-447,0,0,0,0,0,0,0,0,0,-1,1252,1471,0,0
35,-447,0,0,0,0,0,0,0,0,0,-1,1259,1471,0,0
42,-447,0,0,0,0,0,0,0,0,0,-1,1266,1471,0,0
49,-447,0,0,0,0,0,0,0,0,0,-1,1273,1471,0,0
56,-447,0,0,0,0,0,0,0,0,0,-1,1280,1471,0,0
63,-447,0,0,0,0,0,0,0,0,0,-1,1287,1471,0,0
70,-447,0,0,0,0,0,0,0,0,0,-1,1294,1471,0,0
77,-447,0,0,0,0,0,0,0,0,0,-1,1301,1471,0,0
84,-447,0,0,0,0,0,0,0,0,0,-1,1308,1471,0,0
91,-447,0,0,0,0,0,0,0,0,0,-1,1315,1471,0,0
98,-447,0,0,0,0,0,0,0,0,0,-1,1322,1471,0,0
105,-447,0,0,0,0,0,0,0,0,0,-1,1329,1471,0,0
112,-447,0,0,0,0,0,0,0,0,0,-1,1336,1471,0,0
119,-447,0,0,0,0,0,0,0,0,0,-1,1343,1471,0,0
126,-447,0,0,0,0,0,0,0,0,0,-1,1350,1471,0,0
133,-447,0,0,0,0,0,0,0,0,0,-1,1357,1471,0,0
140,-447,0,0,0,0,0,0,0,0,0,-1,1364,1471,0,0
147,-447,0,0,0,0,0,0,0,0,0,-1,1371,1471,0,0
154,-447,0,0,0,0,0,0,0,0,0,-1,1378,1471,0,0
161,-447,0,0,0,0,0,0,0,0,0,-1,1385,1471,0,0
168,-447,0,0,0,0,0,0,0,0,0,-1,1392,1471,0,0
175,-447,0,0,0,0,0,0,0,0,0,-1,1399,1471,0,0
182,-447,0,0,0,0,0,0,0,0,0,-1,1406,1471,0,0
189,-447,0,0,0,0,0,0,0,0,0,-1,1413,1471,0,0
196,-447,0,0,0,0,0,0,0,0,0,-1,1420,1471,0,0
203,-447,0,0,0,0,0,0,0,0,0,-1,1427,1471,0,0
210,-447,0,0,0,0,0,0,0,0,0,-1,1434,1471,0,0
217,-447,0,0,0,0,0,0,0,0,0,-1,1441,1471,0,0
224,-447,0,0,0,0,0,0,0,0,0,-1,1448,1471,0,0
231,-447,0,0,0,0,0,0,0,0,0,-1,1455,1471,0,0
238,-447,0,0,0,0,0,0,0,0,0,-1,1462,1471,0,0
245,-447,0,0,0,0,0,0,0,0,0,-1,1469,1471,0,0
252,-447,0,0,0,0,0,0,0,0,0,-1,1476,1471,0,0
259,-447,0,0,0,0,0,0,0,0,0,-1,1483,1471,0,0
266,-447,0,0,0,0,0,0,0,0,0,-1,1490,1471,0,0
273,-447,0,0,0,0,0,0,0,0,0,-1,1497,1471,0,0
280,-447,0,0,0,0,0,0,0,0,0,-1,1504,1471,0,0
287,-447,0,0,0,0,0,0,0,0,0,-1,1511,1471,0,0
294,-447,0,0,0,0,0,0,0,0,0,-1,1518,1471,0,0
301,-447,0,0,0,0,0,0,0,0,0,-1,1525,1471,0,0
308,-447,0,0,0,0,0,0,0,0,0,-1,1532,1471,0,0
315,-447,0,0,0,0,0,0,0,0,0,-1,1539,1471,0,0
322,-447,0,0,0,0,0,0,0,0,0,-1,1546,1471,0,0
329,-447,0,0,0,0,0,0,0,0,0,-1,1553,1471,0,0
336,-447,0,0,0,0,0,0,0,0,0,-1,1560,1471,0,0
343,-447,0,0,0,0,0,0,0,0,0,-1,1567,1471,0,0
350,-447,0,0,0,0,0,0,0,0,0,-1,1574,1471,0,0
357,-447,0,0,0,0,0,0,0,0,0,-1,1581,1471,0,0
364,-447,0,0,0,0,0,0,0,0,0,-1,1588,1471,0,0
371,-447,0,0,0,0,0,0,0,0,0,-1,1595,1471,0,0
378,-447,0,0,0,0,0,0,0,0,0,-1,1602,1471,0,0
385,-447,0,0,0,0,0,0,0,0,0,-1,1609,1471,0,0
392,-447,0,0,0,0,0,0,0,0,0,-1,1616,1471,0,0
399,-447,0,0,0,0,0,0,0,0,0,-1,1623,1471,0,0
406,-447,0,0,0,0,0,0,0,0,0,-1,1630,1471,0,0
413,-447,0,0,0,0,0,0,0,0,0,-1,1637,1471,0,0
420,-447,0,0,0,0,0,0,0,0,0,-1,1644,1471,0,0
427,-447,0,0,0,0,0,0,0,0,0,-1,1651,1471,0,0
434,-447,0,0,0,0,0,0,0,0,0,-1,1658,1471,0,0
441,-447,0,0,0,0,0,0,0,0,0,-1,1665,1471,0,0
448,-447,0,0,0,0,0,0,0,0,0,-1,1672,1471,0,0
455,-447,0,0,0,0,0,0,0,0,0,-1,1679,1471,0,0
462,-447,0,0,0,0,0,0,0,0,0,-1,1686,1471,0,0
469,-447,0,0,0,0,0,0,0,0,0,-1,1693,1471,0,0
476,-447,0,0,0,0,0,0,0,0,0,-1,1700,1471,0,0
483,-447,0,0,0,0,0,0,0,0,0,-1,1707,1471,0,0
490,-447,18.2214,-0.810303,0,0,0,0,0,0,0,-1,1714,1471,18.2215,0.810307
497,-447,17.0237,0.352417,0,0,0,0,0,0,0,-1,1721,1471,17.0237,-0.352442
504,-447,15.8998,1.53479,0,0,0,0,0,0,0,-1,1728,1471,15.8997,-1.53478
511,-447,14.7201,2.76111,0,0,0,0,0,0,0,-1,1735,1471,14.7201,-2.76107
518,-447,17.7618,13.2864,0,0,0,0,0,0,0,-1,1742,1471,17.7619,-13.2863
525,-447,17.1191,11.9014,0,0,0,0,0,0,0,-1,1749,1471,17.1191,-11.9013
532,-447,16.3959,10.0455,0,0,0,0,0,0,0,-1,1756,1471,16.3959,-10.0456
539,-447,14.1699,10.0204,0,0,0,0,0,0,0,-1,1763,1471,14.1699,-10.0204
546,-447,16.3715,11.8046,0,0,0,0,0,0,0,-1,1770,1471,16.3714,-11.8046
553,-447,17.5106,13.4012,0,0,0,0,0,0,0,-1,1777,1471,17.5107,-13.4012
560,-447,17.0187,13.168,0,0,0,0,0,0,0,-1,1784,1471,17.0187,-13.168
567,-447,18.9286,15.1703,0,0,0,0,0,0,0,-1,1791,1471,18.9286,-15.1703
574,-447,22.9453,19.2277,0,0,0,0,0,0,0,-1,1798,1471,22.9453,-19.2277
581,-447,23.2881,18.6038,0.00589152,0.00579906,-0.00405148,0.00989704,0.00179355,-0.779693,0.00608887,0.0411405,1805,1471,23.2881,-18.6038
588,-447,23.3823,17.8967,0.00471956,0.00458858,-0.00339169,0.00804639,0.00126175,-0.775745,0.00499706,0.0232665,1812,1471,23.3823,-17.8967
595,-447,23.3811,17.3589,0.00374129,0.00359796,-0.00277015,0.0064407,0.000898543,-0.772466,0.00402783,0.0133175,1819,1471,23.3811,-17.3589
602,-447,23.3815,16.8246,0.00311064,0.00260104,-0.00215024,0.00502113,0.000690557,-0.726424,0.00314263,0.0111775,1826,1471,23.3814,-16.8246
609,-447,23.3667,16.3247,0.00264357,0.00173501,-0.00160171,0.00385418,0.000524401,-0.647215,0.00241372,0.012084,1833,1471,23.3668,-16.3247
616,-447,23.3508,15.8398,0.0023023,0.00103053,-0.00116138,0.00299048,0.000342345,-0.534929,0.0018899,0.013756,1840,1471,23.3509,-15.8399
623,-447,23.3696,15.3654,0.00224531,0.000381641,-0.000781981,0.00252995,9.70011e-05,-0.349091,0.00165525,0.0162695,1847,1471,23.3696,-15.3654
630,-447,23.3461,14.8481,0.00240318,-0.000224843,-0.000478123,0.00248747,-0.000309126,-0.174486,0.00177037,0.0103644,1854,1471,23.346,-14.8481
637,-447,23.3417,14.356,0.00262961,-0.000629185,-0.000263493,0.00265078,-0.000650352,-0.0801618,0.00201919,0.0108727,1861,1471,23.3417,-14.356
644,-447,23.3303,13.8597,0.00296921,-0.000928595,-0.000120178,0.00297291,-0.000932297,-0.0307932,0.00235504,0.0116916,1868,1471,23.3303,-13.8597
651,-447,23.3806,13.3395,0.00354769,-0.00106554,-8.57198e-05,0.00354928,-0.00106714,-0.0185727,0.00279076,0.0466391,1875,1471,23.3806,-13.3395
658,-447,23.5752,12.7246,0,0,0,0,0,0,0,-1,1882,1471,23.5752,-12.7246
665,-447,18.4946,9.79919,0,0,0,0,0,0,0,-1,1889,1471,18.4946,-9.79922
672,-447,18.9784,9.66077,0,0,0,0,0,0,0,-1,1896,1471,18.9784,-9.66081
679,-447,14.844,7.4248,0,0,0,0,0,0,0,-1,1903,1471,14.844,-7.42477
686,-447,9.81079,4.30859,0,0,0,0,0,0,0,-1,1910,1471,9.8108,-4.30864
693,-447,10.48,2.08643,0,0,0,0,0,0,0,-1,1917,1471,10.48,-2.08642
700,-447,0,0,0,0,0,0,0,0,0,-1,1924,1471,0,0
707,-447,0,0,0,0,0,0,0,0,0,-1,1931,1471,0,0
714,-447,0,0,0,0,0,0,0,0,0,-1,1938,1471,0,0
721,-447,0,0,0,0,0,0,0,0,0,-1,1945,1471,0,0
728,-447,0,0,0,0,0,0,0,0,0,-1,1952,1471,0,0
735,-447,0,0,0,0,0,0,0,0,0,-1,1959,1471,0,0
742,-447,0,0,0,0,0,0,0,0,0,-1,1966,1471,0,0
749,-447,0,0,0,0,0,0,0,0,0,-1,1973,1471,0,0
756,-447,0,0,0,0,0,0,0,0,0,-1,1980,1471,0,0
763,-447,0,0,0,0,0,0,0,0,0,-1,1987,1471,0,0
770,-447,0,0,0,0,0,0,0,0,0,-1,1994,1471,0,0
777,-447,0,0,0,0,0,0,0,0,0,-1,2001,1471,0,0
784,-447,0,0,0,0,0,0,0,0,0,-1,2008,1471,0,0
791,-447,0,0,0,0,0,0,0,0,0,-1,2015,1471,0,0
798,-447,0,0,0,0,0,0,0,0,0,-1,2022,1471,0,0
805,-447,0,0,0,0,0,0,0,0,0,-1,2029,1471,0,0
812,-447,0,0,0,0,0,0,0,0,0,-1,2036,1471,0,0
-700,-454,0,0,0,0,0,0,0,0,0,-1,524,1478,0,0
-693,-454,0,0,0,0,0,0,0,0,0,-1,531,1478,0,0
-686,-454,0,0,0,0,0,0,0,0,0,-1,538,1478,0,0
-679,-454,0,0,0,0,0,0,0,0,0,-1,545,1478,0,0
-672,-454,0,0,0,0,0,0,0,0,0,-1,552,1478,0,0
-665,-454,0,0,0,0,0,0,0,0,0,-1,559,1478,0,0
-658,-454,0,0,0,0,0,0,0,0,0,-1,566,1478,0,0
-651,-454,0,0,0,0,0,0,0,0,0,-1,573,1478,0,0
-644,-454,0,0,0,0,0,0,0,0,0,-1,580,1478,0,0
-637,-454,0,0,0,0,0,0,0,0,0,-1,587,1478,0,0
-630,-454,0,0,0,0,0,0,0,0,0,-1,594,1478,0,0
-623,-454,0,0,0,0,0,0,0,0,0,-1,601,1478,0,0
-616,-454,0,0,0,0,0,0,0,0,0,-1,608,1478,0,0
-609,-454,0,0,0,0,0,0,0,0,0,-1,615,1478,0,0
-602,-454,0,0,0,0,0,0,0,0,0,-1,622,1478,0,0
-595,-454,0,0,0,0,0,0,0,0,0,-1,629,1478,0,0
-588,-454,0,0,0,0,0,0,0,0,0,-1,636,1478,0,0
-581,-454,0,0,0,0,0,0,0,0,0,-1,643,1478,0,0
-574,-454,-8.4881,-0.465942,0,0,0,0,0,0,0,-1,650,1478,-8.4881,0.465885
-567,-454,-8.10046,0.922974,0,0,0,0,0,0,0,-1,657,1478,-8.10047,-0.923034
-560,-454,-10.656,3.51172,0,0,0,0,0,0,0,-1,664,1478,-10.656,-3.51176
-553,-454,-9.01129,3.95251,0,0,0,0,0,0,0,-1,671,1478,-9.0113,-3.95256
-546,-454,-9.61896,6.05237,0,0,0,0,0,0,0,-1,678,1478,-9.61897,-6.05239
-539,-454,-7.72589,4.96533,0,0,0,0,0,0,0,-1,685,1478,-7.72592,-4.96532
-532,-454,-7.03931,7.59985,0,0,0,0,0,0,0,-1,692,1478,-7.03929,-7.59981
-525,-454,-5.78723,9.677,0,0,0,0,0,0,0,-1,699,1478,-5.78722,-9.67703
-518,-454,-7.76978,11.4913,0,0,0,0,0,0,0,-1,706,1478,-7.76977,-11.4914
-511,-454,-7.96851,11.9915,0.00256498,0.00235457,0.00421017,0.00667126,-0.00175171,0.772907,0.00513205,0.041734,713,1478,-7.96851,-11.9915
-504,-454,-7.9317,12.6532,0.00234364,0.00169729,0.00337922,0.0054151,-0.00137417,0.737725,0.00414477,0.0184544,720,1478,-7.9317,-12.6532
-497,-454,-7.92987,13.235,0.00216879,0.00129881,0.00273136,0.00449958,-0.00103198,0.706433,0.00339639,0.0207851,727,1478,-7.92986,-13.235
-490,-454,-7.92615,13.7554,0.00231938,0.00131593,0.00245153,0.00432,-0.000684687,0.684463,0.00313326,0.018348,734,1478,-7.92616,-13.7553
-483,-454,-7.95959,14.2838,0.00292909,0.00175915,0.00264622,0.00505422,-0.000365983,0.676618,0.00349786,0.0162245,741,1478,-7.95957,-14.2838
-476,-454,-7.99622,14.7795,0.00386738,0.00251295,0.00318803,0.00644933,-6.90026e-05,0.680742,0.00432274,0.0138112,748,1478,-7.99623,-14.7796
-469,-454,-7.99097,15.3258,0.00524923,0.00351065,0.0041719,0.00864144,0.000118434,0.682684,0.00572189,0.0104466,755,1478,-7.99095,-15.3258
-462,-454,-8.01398,15.8848,0.00707524,0.00480416,0.00553492,0.0115899,0.000289497,0.684223,0.00763194,0.0105979,762,1478,-8.014,-15.8847
-455,-454,-8.04907,16.4182,0.00946935,0.00638068,0.0073953,0.0154798,0.000370182,0.682464,0.0101987,0.011796,769,1478,-8.04908,-16.4183
-448,-454,-8.02893,16.9702,0.012918,0.0087953,0.0103468,0.0214068,0.000306527,0.687073,0.0141701,0.0187569,776,1478,-8.02893,-16.9702
-441,-454,-7.72278,17.8445,0.0170211,0.0108977,0.0135704,0.0278709,4.79342e-05,0.674448,0.0185646,0.0488694,783,1478,-7.72279,-17.8445
-434,-454,-7.23077,18.7771,0,0,0,0,0,0,0,-1,790,1478,-7.23075,-18.7771
-427,-454,-6.00183,15.8636,0,0,0,0,0,0,0,-1,797,1478,-6.00184,-15.8637
-420,-454,-6.28088,15.2135,0,0,0,0,0,0,0,-1,804,1478,-6.28087,-15.2135
-413,-454,-5.4408,13.674,0,0,0,0,0,0,0,-1,811,1478,-5.44079,-13.6739
-406,-454,-2.38208,10.0308,0,0,0,0,0,0,0,-1,818,1478,-2.38209,-10.0308
-399,-454,-1.21033,6.95447,0,0,0,0,0,0,0,-1,825,1478,-1.21035,-6.95452
-392,-454,0.0967407,0.985474,0,0,0,0,0,0,0,-1,832,1478,0.0967364,-0.985529
-385,-454,2.38629,3.297,0,0,0,0,0,0,0,-1,839,1478,2.38629,-3.29702
-378,-454,-15.9756,2.83997,0,0,0,0,0,0,0,-1,846,1478,-15.9756,-2.83994
-371,-454,-17.2753,2.01453,0,0,0,0,0,0,0,-1,853,1478,-17.2753,-2.01455
-364,-454,1.08124,0.819458,0,0,0,0,0,0,0,-1,860,1478,1.08124,-0.819513
-357,-454,0,0,0,0,0,0,0,0,0,-1,867,1478,0,0
-350,-454,0,0,0,0,0,0,0,0,0,-1,874,1478,0,0
-343,-454,0,0,0,0,0,0,0,0,0,-1,881,1478,0,0
-336,-454,0,0,0,0,0,0,0,0,0,-1,888,1478,0,0
-329,-454,0,0,0,0,0,0,0,0,0,-1,895,1478,0,0
-322,-454,0,0,0,0,0,0,0,0,0,-1,902,1478,0,0
-315,-454,0,0,0,0,0,0,0,0,0,-1,909,1478,0,0
-308,-454,0,0,0,0,0,0,0,0,0,-1,916,1478,0,0
-301,-454,0,0,0,0,0,0,0,0,0,-1,923,1478,0,0
-294,-454,0,0,0,0,0,0,0,0,0,-1,930,1478,0,0
-287,-454,0,0,0,0,0,0,0,0,0,-1,937,1478,0,0
-280,-454,0,0,0,0,0,0,0,0,0,-1,944,1478,0,0
-273,-454,0,0,0,0,0,0,0,0,0,-1,951,1478,0,0
-266,-454,0,0,0,0,0,0,0,0,0,-1,958,1478,0,0
-259,-454,0,0,0,0,0,0,0,0,0,-1,965,1478,0,0
-252,-454,0,0,0,0,0,0,0,0,0,-1,972,1478,0,0
-245,-454,0,0,0,0,0,0,0,0,0,-1,979,1478,0,0
-238,-454,0,0,0,0,0,0,0,0,0,-1,986,1478,0,0
-231,-454,0,0,0,0,0,0,0,0,0,-1,993,1478,0,0
-224,-454,0,0,0,0,0,0,0,0,0,-1,1000,1478,0,0
-217,-454,0,0,0,0,0,0,0,0,0,-1,1007,1478,0,0
-210,-454,0,0,0,0,0,0,0,0,0,-1,1014,1478,0,0
-203,-454,0,0,0,0,0,0,0,0,0,-1,1021,1478,0,0
-196,-454,0,0,0,0,0,0,0,0,0,-1,1028,1478,0,0
-189,-454,0,0,0,0,0,0,0,0,0,-1,1035,1478,0,0
-182,-454,0,0,0,0,0,0,0,0,0,-1,1042,1478,0,0
-175,-454,0,0,0,0,0,0,0,0,0,-1,1049,1478,0,0
-168,-454,0,0,0,0,0,0,0,0,0,-1,1056,1478,0,0
-161,-454,0,0,0,0,0,0,0,0,0,-1,1063,1478,0,0
-154,-454,0,0,0,0,0,0,0,0,0,-1,1070,1478,0,0
-147,-454,0,0,0,0,0,0,0,0,0,-1,1077,1478,0,0
-140,-454,0,0,0,0,0,0,0,0,0,-1,1084,1478,0,0
-133,-454,0,0,0,0,0,0,0,0,0,-1,1091,1478,0,0
-126,-454,0,0,0,0,0,0,0,0,0,-1,1098,1478,0,0
-119,-454,0,0,0,0,0,0,0,0,0,-1,1105,1478,0,0
-112,-454,0,0,0,0,0,0,0,0,0,-1,1112,1478,0,0
-105,-454,0,0,0,0,0,0,0,0,0,-1,1119,1478,0,0
-98,-454,0,0,0,0,0,0,0,0,0,-1,1126,1478,0,0
-91,-454,0,0,0,0,0,0,0,0,0,-1,1133,1478,0,0
-84,-454,0,0,0,0,0,0,0,0,0,-1,1140,1478,0,0
-77,-454,0,0,0,0,0,0,0,0,0,-1,1147,1478,0,0
-70,-454,0,0,0,0,0,0,0,0,0,-1,1154,1478,0,0
-63,-454,0,0,0,0,0,0,0,0,0,-1,1161,1478,0,0
-56,-454,0,0,0,0,0,0,0,0,0,-1,1168,1478,0,0
-49,-454,0,0,0,0,0,0,0,0,0,-1,1175,1478,0,0
-42,-454,0,0,0,0,0,0,0,0,0,-1,1182,1478,0,0
-35,-454,0,0,0,0,0,0,0,0,0,-1,1189,1478,0,0
-28,-454,0,0,0,0,0,0,0,0,0,-1,1196,1478,0,0
-21,-454,0,0,0,0,0,0,0,0,0,-1,1203,1478,0,0
-14,-454,0,0,0,0,0,0,0,0,0,-1,1210,1478,0,0
-7,-454,0,0,0,0,0,0,0,0,0,-1,1217,1478,0,0
0,-454,0,0,0,0,0,0,0,0,0,-1,1224,1478,0,0
7,-454,0,0,0,0,0,0,0,0,0,-1,1231,1478,0,0
14,-454,0,0,0,0,0,0,0,0,0,-1,1238,1478,0,0
21,-454,0,0,0,0,0,0,0,0,0,-1,1245,1478,0,0
28,-454,0,0,0,0,0,0,0,0,0,-1,1252,1478,0,0
35,-454,0,0,0,0,0,0,0,0,0,-1,1259,1478,0,0
42,-454,0,0,0,0,0,0,0,0,0,-1,1266,1478,0,0
49,-454,0,0,0,0,0,0,0,0,0,-1,1273,1478,0,0
56,-454,0,0,0,0,0,0,0,0,0,-1,1280,1478,0,0
63,-454,0,0,0,0,0,0,0,0,0,-1,1287,1478,0,0
70,-454,0,0,0,0,0,0,0,0,0,-1,1294,1478,0,0
77,-454,0,0,0,0,0,0,0,0,0,-1,1301,1478,0,0
84,-454,0,0,0,0,0,0,0,0,0,-1,1308,1478,0,0
91,-454,0,0,0,0,0,0,0,0,0,-1,1315,1478,0,0
98,-454,0,0,0,0,0,0,0,0,0,-1,1322,1478,0,0
105,-454,0,0,0,0,0,0,0,0,0,-1,1329,1478,0,0
112,-454,0,0,0,0,0,0,0,0,0,-1,1336,1478,0,0
119,-454,0,0,0,0,0,0,0,0,0,-1,1343,1478,0,0
126,-454,0,0,0,0,0,0,0,0,0,-1,1350,1478,0,0
133,-454,0,0,0,0,0,0,0,0,0,-1,1357,1478,0,0
140,-454,0,0,0,0,0,0,0,0,0,-1,1364,1478,0,0
147,-454,0,0,0,0,0,0,0,0,0,-1,1371,1478,0,0
154,-454,0,0,0,0,0,0,0,0,0,-1,1378,1478,0,0
161,-454,0,0,0,0,0,0,0,0,0,-1,1385,1478,0,0
168,-454,0,0,0,0,0,0,0,0,0,-1,1392,1478,0,0
175,-454,0,0,0,0,0,0,0,0,0,-1,1399,1478,0,0
182,-454,0,0,0,0,0,0,0,0,0,-1,1406,1478,0,0
189,-454,0,0,0,0,0,0,0,0,0,-1,1413,1478,0,0
196,-454,0,0,0,0,0,0,0,0,0,-1,1420,1478,0,0
203,-454,0,0,0,0,0,0,0,0,0,-1,1427,1478,0,0
210,-454,0,0,0,0,0,0,0,0,0,-1,1434,1478,0,0
217,-454,0,0,0,0,0,0,0,0,0,-1,1441,1478,0,0
224,-454,0,0,0,0,0,0,0,0,0,-1,1448,1478,0,0
231,-454,0,0,0,0,0,0,0,0,0,-1,1455,1478,0,0
238,-454,0,0,0,0,0,0,0,0,0,-1,1462,1478,0,0
245,-454,0,0,0,0,0,0,0,0,0,-1,1469,1478,0,0
252,-454,0,0,0,0,0,0,0,0,0,-1,1476,1478,0,0
259,-454,0,0,0,0,0,0,0,0,0,-1,1483,1478,0,0
266,-454,0,0,0,0,0,0,0,0,0,-1,1490,1478,0,0
273,-454,0,0,0,0,0,0,0,0,0,-1,1497,1478,0,0
280,-454,0,0,0,0,0,0,0,0,0,-1,1504,1478,0,0
287,-454,0,0,0,0,0,0,0,0,0,-1,1511,1478,0,0
294,-454,0,0,0,0,0,0,0,0,0,-1,1518,1478,0,0
301,-454,0,0,0,0,0,0,0,0,0,-1,1525,1478,0,0
308,-454,0,0,0,0,0,0,0,0,0,-1,1532,1478,0,0
315,-454,0,0,0,0,0,0,0,0,0,-1,1539,1478,0,0
322,-454,0,0,0,0,0,0,0,0,0,-1,1546,1478,0,0
329,-454,0,0,0,0,0,0,0,0,0,-1,1553,1478,0,0
336,-454,0,0,0,0,0,0,0,0,0,-1,1560,1478,0,0
343,-454,0,0,0,0,0,0,0,0,0,-1,1567,1478,0,0
350,-454,0,0,0,0,0,0,0,0,0,-1,1574,1478,0,0
357,-454,0,0,0,0,0,0,0,0,0,-1,1581,1478,0,0
364,-454,0,0,0,0,0,0,0,0,0,-1,1588,1478,0,0
371,-454,0,0,0,0,0,0,0,0,0,-1,1595,1478,0,0
378,-454,0,0,0,0,0,0,0,0,0,-1,1602,1478,0,0
385,-454,0,0,0,0,0,0,0,0,0,-1,1609,1478,0,0
392,-454,0,0,0,0,0,0,0,0,0,-1,1616,1478,0,0
399,-454,0,0,0,0,0,0,0,0,0,-1,1623,1478,0,0
406,-454,0,0,0,0,0,0,0,0,0,-1,1630,1478,0,0
413,-454,0,0,0,0,0,0,0,0,0,-1,1637,1478,0,0
420,-454,0,0,0,0,0,0,0,0,0,-1,1644,1478,0,0
427,-454,0,0,0,0,0,0,0,0,0,-1,1651,1478,0,0
434,-454,0,0,0,0,0,0,0,0,0,-1,1658,1478,0,0
441,-454,0,0,0,0,0,0,0,0,0,-1,1665,1478,0,0
448,-454,0,0,0,0,0,0,0,0,0,-1,1672,1478,0,0
455,-454,0,0,0,0,0,0,0,0,0,-1,1679,1478,0,0
462,-454,0,0,0,0,0,0,0,0,0,-1,1686,1478,0,0
469,-454,0,0,0,0,0,0,0,0,0,-1,1693,1478,0,0
476,-454,0,0,0,0,0,0,0,0,0,-1,1700,1478,0,0
483,-454,14.2399,3.97498,0,0,0,0,0,0,0,-1,1707,1478,14.2399,-3.97502
490,-454,18.1821,-0.175781,0,0,0,0,0,0,0,-1,1714,1478,18.1821,0.175822
497,-454,16.8854,1.01208,0,0,0,0,0,0,0,-1,1721,1478,16.8854,-1.01209
504,-454,15.587,2.05994,0,0,0,0,0,0,0,-1,1728,1478,15.5871,-2.05998
511,-454,17.0273,14.5258,0,0,0,0,0,0,0,-1,1735,1478,17.0273,-14.5258
518,-454,16.4158,13.1039,0,0,0,0,0,0,0,-1,1742,1478,16.4157,-13.1038
525,-454,15.7842,11.6628,0,0,0,0,0,0,0,-1,1749,1478,15.7841,-11.6629
532,-454,15.1094,10.2476,0,0,0,0,0,0,0,-1,1756,1478,15.1094,-10.2475
539,-454,13.7905,10.9373,0,0,0,0,0,0,0,-1,1763,1478,13.7906,-10.9372
546,-454,16.2002,13.2458,0,0,0,0,0,0,0,-1,1770,1478,16.2002,-13.2459
553,-454,15.6747,12.1868,0,0,0,0,0,0,0,-1,1777,1478,15.6747,-12.1868
560,-454,16.3895,14.0527,0,0,0,0,0,0,0,-1,1784,1478,16.3895,-14.0528
567,-454,23.0361,19.5968,0,0,0,0,0,0,0,-1,1791,1478,23.0361,-19.5968
574,-454,22.9224,18.9246,0.00614954,0.00536991,-0.00368207,0.00946237,0.00205707,-0.732661,0.00574662,0.0353558,1798,1478,22.9223,-18.9245
581,-454,22.9003,18.3763,0.0050377,0.00455357,-0.00317842,0.00798326,0.00160801,-0.747392,0.00487538,0.0224073,1805,1478,22.9003,-18.3764
588,-454,22.9191,17.848,0.00407043,0.0036097,-0.00266728,0.00651727,0.00116286,-0.742322,0.00401378,0.0140966,1812,1478,22.9191,-17.848
595,-454,22.8781,17.3588,0.00332156,0.00277047,-0.00218267,0.00524601,0.000846025,-0.722609,0.00325222,0.0124393,1819,1478,22.878,-17.3587
602,-454,22.8737,16.8491,0.00282398,0.00193453,-0.00170111,0.00413754,0.000620974,-0.657543,0.00257643,0.00873073,1826,1478,22.8736,-16.8491
609,-454,22.8694,16.3579,0.00247659,0.00120183,-0.00125791,0.00324938,0.000429042,-0.550903,0.00203835,0.010329,1833,1478,22.8694,-16.3579
616,-454,22.8647,15.8759,0.0022618,0.000583668,-0.000890735,0.00264644,0.000199035,-0.407629,0.00170183,0.0131893,1840,1478,22.8647,-15.8759
623,-454,22.8732,15.3878,0.0023313,-2.60144e-05,-0.000553776,0.00245491,-0.000149625,-0.219614,0.00168869,0.0139116,1847,1478,22.8732,-15.3879
630,-454,22.8859,14.8839,0.00260879,-0.00060071,-0.000264862,0.0026305,-0.00062242,-0.0817871,0.00199379,0.0134546,1854,1478,22.8859,-14.8839
637,-454,22.8234,14.3942,0.00302566,-0.000941052,-0.000103303,0.00302835,-0.00094374,-0.0260189,0.00239625,0.0119617,1861,1478,22.8234,-14.3941
644,-454,22.8772,13.8678,0.00364996,-0.00119909,-5.54348e-05,0.00365059,-0.00119973,-0.0114301,0.00291707,0.0226707,1868,1478,22.8772,-13.8678
651,-454,23.0168,13.254,0,0,0,0,0,0,0,-1,1875,1478,23.0168,-13.254
658,-454,17.2583,10.0765,0,0,0,0,0,0,0,-1,1882,1478,17.2583,-10.0765
665,-454,17.683,9.67566,0,0,0,0,0,0,0,-1,1889,1478,17.683,-9.67572
672,-454,16.5476,6.41931,0,0,0,0,0,0,0,-1,1896,1478,16.5476,-6.41929
679,-454,14.2161,5.45007,0,0,0,0,0,0,0,-1,1903,1478,14.2161,-5.45013
686,-454,10.3767,2.12842,0,0,0,0,0,0,0,-1,1910,1478,10.3767,-2.12839
693,-454,11.1857,1.48486,0,0,0,0,0,0,0,-1,1917,1478,11.1857,-1.48487
700,-454,0,0,0,0,0,0,0,0,0,-1,1924,1478,0,0
707,-454,0,0,0,0,0,0,0,0,0,-1,1931,1478,0,0
714,-454,0,0,0,0,0,0,0,0,0,-1,1938,1478,0,0
721,-454,0,0,0,0,0,0,0,0,0,-1,1945,1478,0,0
728,-454,0,0,0,0,0,0,0,0,0,-1,1952,1478,0,0
735,-454,0,0,0,0,0,0,0,0,0,-1,1959,1478,0,0
742,-454,0,0,0,0,0,0,0,0,0,-1,1966,1478,0,0
749,-454,0,0,0,0,0,0,0,0,0,-1,1973,1478,0,0
756,-454,0,0,0,0,0,0,0,0,0,-1,1980,1478,0,0
763,-454,0,0,0,0,0,0,0,0,0,-1,1987,1478,0,0
770,-454,0,0,0,0,0,0,0,0,0,-1,1994,1478,0,0
777,-454,0,0,0,0,0,0,0,0,0,-1,2001,1478,0,0
784,-454,0,0,0,0,0,0,0,0,0,-1,2008,1478,0,0
791,-454,0,0,0,0,0,0,0,0,0,-1,2015,1478,0,0
798,-454,0,0,0,0,0,0,0,0,0,-1,2022,1478,0,0
805,-454,0,0,0,0,0,0,0,0,0,-1,2029,1478,0,0
812,-454,0,0,0,0,0,0,0,0,0,-1,2036,1478,0,0
-700,-461,0,0,0,0,0,0,0,0,0,-1,524,1485,0,0
-693,-461,0,0,0,0,0,0,0,0,0,-1,531,1485,0,0
-686,-461,0,0,0,0,0,0,0,0,0,-1,538,1485,0,0
-679,-461,0,0,0,0,0,0,0,0,0,-1,545,1485,0,0
-672,-461,0,0,0,0,0,0,0,0,0,-1,552,1485,0,0
-665,-461,0,0,0,0,0,0,0,0,0,-1,559,1485,0,0
-658,-461,0,0,0,0,0,0,0,0,0,-1,566,1485,0,0
-651,-461,0,0,0,0,0,0,0,0,0,-1,573,1485,0,0
-644,-461,0,0,0,0,0,0,0,0,0,-1,580,1485,0,0
-637,-461,0,0,0,0,0,0,0,0,0,-1,587,1485,0,0
-630,-461,0,0,0,0,0,0,0,0,0,-1,594,1485,0,0
-623,-461,0,0,0,0,0,0,0,0,0,-1,601,1485,0,0
-616,-461,0,0,0,0,0,0,0,0,0,-1,608,1485,0,0
-609,-461,0,0,0,0,0,0,0,0,0,-1,615,1485,0,0
-602,-461,0,0,0,0,0,0,0,0,0,-1,622,1485,0,0
-595,-461,0,0,0,0,0,0,0,0,0,-1,629,1485,0,0
-588,-461,0,0,0,0,0,0,0,0,0,-1,636,1485,0,0
-581,-461,0,0,0,0,0,0,0,0,0,-1,643,1485,0,0
-574,-461,0,0,0,0,0,0,0,0,0,-1,650,1485,0,0
-567,-461,-9.69031,0.513306,0,0,0,0,0,0,0,-1,657,1485,-9.69032,-0.513305
-560,-461,-7.28815,1.54004,0,0,0,0,0,0,0,-1,664,1485,-7.28817,-1.54005
-553,-461,-11.9607,5.27783,0,0,0,0,0,0,0,-1,671,1485,-11.9607,-5.27778
-546,-461,-11.4215,4.44666,0,0,0,0,0,0,0,-1,678,1485,-11.4215,-4.4467
-539,-461,-9.36493,5.23438,0,0,0,0,0,0,0,-1,685,1485,-9.3649,-5.23432
-532,-461,-7.82898,6.78357,0,0,0,0,0,0,0,-1,692,1485,-7.829,-6.78363
-525,-461,-6.37878,8.75659,0,0,0,0,0,0,0,-1,699,1485,-6.3788,-8.75659
-518,-461,-6.49695,10.886,0,0,0,0,0,0,0,-1,706,1485,-6.49696,-10.8859
-511,-461,-7.62103,11.9999,0,0,0,0,0,0,0,-1,713,1485,-7.62102,-11.9998
-504,-461,-7.45483,12.6061,0.00325697,0.00219226,0.00456143,0.00731701,-0.00186777,0.727307,0.0056053,0.0263607,720,1485,-7.45482,-12.606
-497,-461,-7.38342,13.2494,0.00251684,0.00137233,0.00334845,0.00534158,-0.00145241,0.700765,0.00413119,0.0118168,727,1485,-7.38344,-13.2494
-490,-461,-7.40247,13.7839,0.00219981,0.0010267,0.00259924,0.00427786,-0.00105135,0.674424,0.00325937,0.0128009,734,1485,-7.4025,-13.784
-483,-461,-7.43433,14.3038,0.00245418,0.0012177,0.00243615,0.00434931,-0.000677427,0.661133,0.00314973,0.0123663,741,1485,-7.4343,-14.3039
-476,-461,-7.47089,14.8303,0.00311421,0.00175186,0.00269992,0.00521756,-0.000351488,0.66183,0.00360126,0.0113976,748,1485,-7.47088,-14.8304
-469,-461,-7.48102,15.3733,0.00423755,0.00254648,0.00342898,0.0069237,-0.000139676,0.664517,0.00466306,0.0136797,755,1485,-7.48104,-15.3733
-462,-461,-7.49438,15.9279,0.00577092,0.00359837,0.00451479,0.00932828,4.10131e-05,0.66734,0.00620522,0.0199055,762,1485,-7.49438,-15.9279
-455,-461,-7.55951,16.4661,0.00778026,0.00487375,0.00602219,0.0125221,0.000131954,0.667004,0.0083044,0.0228522,769,1485,-7.55949,-16.4661
-448,-461,-7.53833,16.9868,0.0106056,0.00678003,0.00836933,0.0172779,0.000107675,0.673055,0.0114829,0.0189912,776,1485,-7.53832,-16.9868
-441,-461,-7.45288,17.5697,0.0140042,0.00856811,0.011052,0.0226675,-9.51467e-05,0.664825,0.0151435,0.0245668,783,1485,-7.4529,-17.5697
-434,-461,-7.15985,18.1881,0.0179262,0.0102029,0.0141204,0.0287035,-0.000574416,0.651921,0.01933,0.0436005,790,1485,-7.15984,-18.188
-427,-461,-6.93048,19.118,0,0,0,0,0,0,0,-1,797,1485,-6.93045,-19.118
-420,-461,-5.70355,16.6116,0,0,0,0,0,0,0,-1,804,1485,-5.70353,-16.6115
-413,-461,-5.98798,16.0605,0,0,0,0,0,0,0,-1,811,1485,-5.98796,-16.0605
-406,-461,-5.52667,14.839,0,0,0,0,0,0,0,-1,818,1485,-5.52666,-14.839
-399,-461,-1.93439,9.82849,0,0,0,0,0,0,0,-1,825,1485,-1.9344,-9.82846
-392,-461,-0.357544,5.55225,0,0,0,0,0,0,0,-1,832,1485,-0.357536,-5.55228
-385,-461,1.71509,3.35254,0,0,0,0,0,0,0,-1,839,1485,1.71511,-3.35255
-378,-461,1.95996,3.01111,0,0,0,0,0,0,0,-1,846,1485,1.95993,-3.01111
-371,-461,0.702881,2.33459,0,0,0,0,0,0,0,-1,853,1485,0.702859,-2.33459
-364,-461,-1.93097,2.56458,0,0,0,0,0,0,0,-1,860,1485,-1.93095,-2.56456
-357,-461,-2.41516,3.49487,0,0,0,0,0,0,0,-1,867,1485,-2.41517,-3.49487
-350,-461,0,0,0,0,0,0,0,0,0,-1,874,1485,0,0
-343,-461,0,0,0,0,0,0,0,0,0,-1,881,1485,0,0
-336,-461,0,0,0,0,0,0,0,0,0,-1,888,1485,0,0
-329,-461,0,0,0,0,0,0,0,0,0,-1,895,1485,0,0
-322,-461,0,0,0,0,0,0,0,0,0,-1,902,1485,0,0
-315,-461,0,0,0,0,0,0,0,0,0,-1,909,1485,0,0
-308,-461,0,0,0,0,0,0,0,0,0,-1,916,1485,0,0
-301,-461,0,0,0,0,0,0,0,0,0,-1,923,1485,0,0
-294,-461,0,0,0,0,0,0,0,0,0,-1,930,1485,0,0
-287,-461,0,0,0,0,0,0,0,0,0,-1,937,1485,0,0
-280,-461,0,0,0,0,0,0,0,0,0,-1,944,1485,0,0
-273,-461,0,0,0,0,0,0,0,0,0,-1,951,1485,0,0
-266,-461,0,0,0,0,0,0,0,0,0,-1,958,1485,0,0
-259,-461,0,0,0,0,0,0,0,0,0,-1,965,1485,0,0
-252,-461,0,0,0,0,0,0,0,0,0,-1,972,1485,0,0
-245,-461,0,0,0,0,0,0,0,0,0,-1,979,1485,0,0
-238,-461,0,0,0,0,0,0,0,0,0,-1,986,1485,0,0
-231,-461,0,0,0,0,0,0,0,0,0,-1,993,1485,0,0
-224,-461,0,0,0,0,0,0,0,0,0,-1,1000,1485,0,0
-217,-461,0,0,0,0,0,0,0,0,0,-1,1007,1485,0,0
-210,-461,0,0,0,0,0,0,0,0,0,-1,1014,1485,0,0
-203,-461,0,0,0,0,0,0,0,0,0,-1,1021,1485,0,0
-196,-461,0,0,0,0,0,0,0,0,0,-1,1028,1485,0,0
-189,-461,0,0,0,0,0,0,0,0,0,-1,1035,1485,0,0
-182,-461,0,0,0,0,0,0,0,0,0,-1,1042,1485,0,0
-175,-461,0,0,0,0,0,0,0,0,0,-1,1049,1485,0,0
-168,-461,0,0,0,0,0,0,0,0,0,-1,1056,1485,0,0
-161,-461,0,0,0,0,0,0,0,0,0,-1,1063,1485,0,0
-154,-461,0,0,0,0,0,0,0,0,0,-1,1070,1485,0,0
-147,-461,0,0,0,0,0,0,0,0,0,-1,1077,1485,0,0
-140,-461,0,0,0,0,0,0,0,0,0,-1,1084,1485,0,0
-133,-461,0,0,0,0,0,0,0,0,0,-1,1091,1485,0,0
-126,-461,0,0,0,0,0,0,0,0,0,-1,1098,1485,0,0
-119,-461,0,0,0,0,0,0,0,0,0,-1,1105,1485,0,0
-112,-461,0,0,0,0,0,0,0,0,0,-1,1112,1485,0,0
-105,-461,0,0,0,0,0,0,0,0,0,-1,1119,1485,0,0
-98,-461,0,0,0,0,0,0,0,0,0,-1,1126,1485,0,0
-91,-461,0,0,0,0,0,0,0,0,0,-1,1133,1485,0,0
-84,-461,0,0,0,0,0,0,0,0,0,-1,1140,1485,0,0
-77,-461,0,0,0,0,0,0,0,0,0,-1,1147,1485,0,0
-70,-461,0,0,0,0,0,0,0,0,0,-1,1154,1485,0,0
-63,-461,0,0,0,0,0,0,0,0,0,-1,1161,1485,0,0
-56,-461,0,0,0,0,0,0,0,0,0,-1,1168,1485,0,0
-49,-461,0,0,0,0,0,0,0,0,0,-1,1175,1485,0,0
-42,-461,0,0,0,0,0,0,0,0,0,-1,1182,1485,0,0
-35,-461,0,0,0,0,0,0,0,0,0,-1,1189,1485,0,0
-28,-461,0,0,0,0,0,0,0,0,0,-1,1196,1485,0,0
-21,-461,0,0,0,0,0,0,0,0,0,-1,1203,1485,0,0
-14,-461,0,0,0,0,0,0,0,0,0,-1,1210,1485,0,0
-7,-461,0,0,0,0,0,0,0,0,0,-1,1217,1485,0,0
0,-461,0,0,0,0,0,0,0,0,0,-1,1224,1485,0,0
7,-461,0,0,0,0,0,0,0,0,0,-1,1231,1485,0,0
14,-461,0,0,0,0,0,0,0,0,0,-1,1238,1485,0,0
21,-461,0,0,0,0,0,0,0,0,0,-1,1245,1485,0,0
28,-461,0,0,0,0,0,0,0,0,0,-1,1252,1485,0,0
35,-461,0,0,0,0,0,0,0,0,0,-1,1259,1485,0,0
42,-461,0,0,0,0,0,0,0,0,0,-1,1266,1485,0,0
49,-461,0,0,0,0,0,0,0,0,0,-1,1273,1485,0,0
56,-461,0,0,0,0,0,0,0,0,0,-1,1280,1485,0,0
63,-461,0,0,0,0,0,0,0,0,0,-1,1287,1485,0,0
70,-461,0,0,0,0,0,0,0,0,0,-1,1294,1485,0,0
77,-461,0,0,0,0,0,0,0,0,0,-1,1301,1485,0,0
84,-461,0,0,0,0,0,0,0,0,0,-1,1308,1485,0,0
91,-461,0,0,0,0,0,0,0,0,0,-1,1315,1485,0,0
98,-461,0,0,0,0,0,0,0,0,0,-1,1322,1485,0,0
105,-461,0,0,0,0,0,0,0,0,0,-1,1329,1485,0,0
112,-461,0,0,0,0,0,0,0,0,0,-1,1336,1485,0,0
119,-461,0,0,0,0,0,0,0,0,0,-1,1343,1485,0,0
126,-461,0,0,0,0,0,0,0,0,0,-1,1350,1485,0,0
133,-461,0,0,0,0,0,0,0,0,0,-1,1357,1485,0,0
140,-461,0,0,0,0,0,0,0,0,0,-1,1364,1485,0,0
147,-461,0,0,0,0,0,0,0,0,0,-1,1371,1485,0,0
154,-461,0,0,0,0,0,0,0,0,0,-1,1378,1485,0,0
161,-461,0,0,0,0,0,0,0,0,0,-1,1385,1485,0,0
168,-461,0,0,0,0,0,0,0,0,0,-1,1392,1485,0,0
175,-461,0,0,0,0,0,0,0,0,0,-1,1399,1485,0,0
182,-461,0,0,0,0,0,0,0,0,0,-1,1406,1485,0,0
189,-461,0,0,0,0,0,0,0,0,0,-1,1413,1485,0,0
196,-461,0,0,0,0,0,0,0,0,0,-1,1420,1485,0,0
203,-461,0,0,0,0,0,0,0,0,0,-1,1427,1485,0,0
210,-461,0,0,0,0,0,0,0,0,0,-1,1434,1485,0,0
217,-461,0,0,0,0,0,0,0,0,0,-1,1441,1485,0,0
224,-461,0,0,0,0,0,0,0,0,0,-1,1448,1485,0,0
231,-461,0,0,0,0,0,0,0,0,0,-1,1455,1485,0,0
238,-461,0,0,0,0,0,0,0,0,0,-1,1462,1485,0,0
245,-461,0,0,0,0,0,0,0,0,0,-1,1469,1485,0,0
252,-461,0,0,0,0,0,0,0,0,0,-1,1476,1485,0,0
259,-461,0,0,0,0,0,0,0,0,0,-1,1483,1485,0,0
266,-461,0,0,0,0,0,0,0,0,0,-1,1490,1485,0,0
273,-461,0,0,0,0,0,0,0,0,0,-1,1497,1485,0,0
280,-461,0,0,0,0,0,0,0,0,0,-1,1504,1485,0,0
287,-461,0,0,0,0,0,0,0,0,0,-1,1511,1485,0,0
294,-461,0,0,0,0,0,0,0,0,0,-1,1518,1485,0,0
301,-461,0,0,0,0,0,0,0,0,0,-1,1525,1485,0,0
308,-461,0,0,0,0,0,0,0,0,0,-1,1532,1485,0,0
315,-461,0,0,0,0,0,0,0,0,0,-1,1539,1485,0,0
322,-461,0,0,0,0,0,0,0,0,0,-1,1546,1485,0,0
329,-461,0,0,0,0,0,0,0,0,0,-1,1553,1485,0,0
336,-461,0,0,0,0,0,0,0,0,0,-1,1560,1485,0,0
343,-461,0,0,0,0,0,0,0,0,0,-1,1567,1485,0,0
350,-461,0,0,0,0,0,0,0,0,0,-1,1574,1485,0,0
357,-461,0,0,0,0,0,0,0,0,0,-1,1581,1485,0,0
364,-461,0,0,0,0,0,0,0,0,0,-1,1588,1485,0,0
371,-461,0,0,0,0,0,0,0,0,0,-1,1595,1485,0,0
378,-461,0,0,0,0,0,0,0,0,0,-1,1602,1485,0,0
385,-461,0,0,0,0,0,0,0,0,0,-1,1609,1485,0,0
392,-461,0,0,0,0,0,0,0,0,0,-1,1616,1485,0,0
399,-461,0,0,0,0,0,0,0,0,0,-1,1623,1485,0,0
406,-461,0,0,0,0,0,0,0,0,0,-1,1630,1485,0,0
413,-461,0,0,0,0,0,0,0,0,0,-1,1637,1485,0,0
420,-461,0,0,0,0,0,0,0,0,0,-1,1644,1485,0,0
427,-461,0,0,0,0,0,0,0,0,0,-1,1651,1485,0,0
434,-461,0,0,0,0,0,0,0,0,0,-1,1658,1485,0,0
441,-461,0,0,0,0,0,0,0,0,0,-1,1665,1485,0,0
448,-461,0,0,0,0,0,0,0,0,0,-1,1672,1485,0,0
455,-461,0,0,0,0,0,0,0,0,0,-1,1679,1485,0,0
462,-461,0,0,0,0,0,0,0,0,0,-1,1686,1485,0,0
469,-461,0,0,0,0,0,0,0,0,0,-1,1693,1485,0,0
476,-461,14.1906,0.690552,0,0,0,0,0,0,0,-1,1700,1485,14.1906,-0.690525
483,-461,10.6361,3.09106,0,0,0,0,0,0,0,-1,1707,1485,10.6361,-3.091
490,-461,17.9972,0.665894,0,0,0,0,0,0,0,-1,1714,1485,17.9972,-0.665876
497,-461,16.6829,1.87732,0,0,0,0,0,0,0,-1,1721,1485,16.6828,-1.87736
504,-461,15.3884,3.09216,0,0,0,0,0,0,0,-1,1728,1485,15.3885,-3.09212
511,-461,15.4292,14.3512,0,0,0,0,0,0,0,-1,1735,1485,15.4292,-14.3512
518,-461,14.8081,10.0085,0,0,0,0,0,0,0,-1,1742,1485,14.8081,-10.0086
525,-461,14.0022,10.8033,0,0,0,0,0,0,0,-1,1749,1485,14.0022,-10.8033
532,-461,17.1704,14.077,0,0,0,0,0,0,0,-1,1756,1485,17.1704,-14.077
539,-461,17.0229,14.7386,0,0,0,0,0,0,0,-1,1763,1485,17.0229,-14.7387
546,-461,16.2106,14.1372,0,0,0,0,0,0,0,-1,1770,1485,16.2106,-14.1372
553,-461,21.8225,20.3043,0,0,0,0,0,0,0,-1,1777,1485,21.8225,-20.3044
560,-461,22.2744,19.5979,0,0,0,0,0,0,0,-1,1784,1485,22.2744,-19.598
567,-461,22.4584,19.2665,0.00626974,0.0050179,-0.00324576,0.00894938,0.00233826,-0.690146,0.00535964,0.032319,1791,1485,22.4584,-19.2665
574,-461,22.4792,18.8589,0.00515284,0.00419411,-0.00283948,0.00755313,0.00179381,-0.701776,0.00455674,0.0279989,1798,1485,22.4793,-18.8588
581,-461,22.4702,18.3522,0.00423595,0.0034954,-0.00244541,0.00633896,0.00139239,-0.71026,0.00384678,0.0184913,1805,1485,22.4702,-18.3522
588,-461,22.4344,17.8807,0.00346683,0.00272452,-0.00204112,0.00517027,0.00102108,-0.695462,0.00316193,0.0120036,1812,1485,22.4344,-17.8807
595,-461,22.3934,17.3857,0.00294594,0.00200721,-0.0016653,0.00420676,0.000746397,-0.648037,0.00259178,0.00914303,1819,1485,22.3934,-17.3857
602,-461,22.3906,16.8729,0.00259344,0.00131209,-0.00130313,0.00340487,0.000500663,-0.556928,0.0021228,0.00912698,1826,1485,22.3906,-16.8729
609,-461,22.3831,16.3539,0.00237357,0.000698273,-0.00095706,0.00280778,0.000264066,-0.425917,0.00179034,0.0108285,1833,1485,22.3831,-16.3538
616,-461,22.384,15.8662,0.00229852,0.000158512,-0.00065787,0.00248458,-2.75504e-05,-0.275626,0.00166565,0.0132551,1840,1485,22.3841,-15.8662
623,-461,22.3827,15.4135,0.00249754,-0.000408066,-0.000364591,0.00254259,-0.000453116,-0.122939,0.00186454,0.0157747,1847,1485,22.3827,-15.4134
630,-461,22.3717,14.9333,0.00290516,-0.000933571,-9.87371e-05,0.0029077,-0.000936109,-0.0256986,0.00231449,0.0156634,1854,1485,22.3717,-14.9334
637,-461,22.337,14.4308,0.0035467,-0.00118476,-6.10789e-06,0.0035467,-0.00118477,-0.00129091,0.00284291,0.0150456,1861,1485,22.3371,-14.4308
644,-461,22.4414,14.001,0.00439497,-0.00145052,1.78252e-05,0.00439503,-0.00145058,0.00304935,0.00351478,0.0302954,1868,1485,22.4415,-14.0009
651,-461,22.6271,13.5326,0,0,0,0,0,0,0,-1,1875,1485,22.6271,-13.5326
658,-461,16.8987,10.1084,0,0,0,0,0,0,0,-1,1882,1485,16.8986,-10.1084
665,-461,17.2638,9.81384,0,0,0,0,0,0,0,-1,1889,1485,17.2638,-9.81385
672,-461,14.4877,6.89429,0,0,0,0,0,0,0,-1,1896,1485,14.4876,-6.89431
679,-461,10.0535,2.16321,0,0,0,0,0,0,0,-1,1903,1485,10.0535,-2.16317
686,-461,10.8195,1.84192,0,0,0,0,0,0,0,-1,1910,1485,10.8194,-1.84195
693,-461,0,0,0,0,0,0,0,0,0,-1,1917,1485,0,0
700,-461,0,0,0,0,0,0,0,0,0,-1,1924,1485,0,0
707,-461,0,0,0,0,0,0,0,0,0,-1,1931,1485,0,0
714,-461,0,0,0,0,0,0,0,0,0,-1,1938,1485,0,0
721,-461,0,0,0,0,0,0,0,0,0,-1,1945,1485,0,0
728,-461,0,0,0,0,0,0,0,0,0,-1,1952,1485,0,0
735,-461,0,0,0,0,0,0,0,0,0,-1,1959,1485,0,0
742,-461,0,0,0,0,0,0,0,0,0,-1,1966,1485,0,0
749,-461,0,0,0,0,0,0,0,0,0,-1,1973,1485,0,0
756,-461,0,0,0,0,0,0,0,0,0,-1,1980,1485,0,0
763,-461,0,0,0,0,0,0,0,0,0,-1,1987,1485,0,0
770,-461,0,0,0,0,0,0,0,0,0,-1,1994,1485,0,0
777,-461,0,0,0,0,0,0,0,0,0,-1,2001,1485,0,0
784,-461,0,0,0,0,0,0,0,0,0,-1,2008,1485,0,0
791,-461,0,0,0,0,0,0,0,0,0,-1,2015,1485,0,0
798,-461,0,0,0,0,0,0,0,0,0,-1,2022,1485,0,0
805,-461,0,0,0,0,0,0,0,0,0,-1,2029,1485,0,0
812,-461,0,0,0,0,0,0,0,0,0,-1,2036,1485,0,0
-700,-468,0,0,0,0,0,0,0,0,0,-1,524,1492,0,0
-693,-468,0,0,0,0,0,0,0,0,0,-1,531,1492,0,0
-686,-468,0,0,0,0,0,0,0,0,0,-1,538,1492,0,0
-679,-468,0,0,0,0,0,0,0,0,0,-1,545,1492,0,0
-672,-468,0,0,0,0,0,0,0,0,0,-1,552,1492,0,0
-665,-468,0,0,0,0,0,0,0,0,0,-1,559,1492,0,0
-658,-468,0,0,0,0,0,0,0,0,0,-1,566,1492,0,0
-651,-468,0,0,0,0,0,0,0,0,0,-1,573,1492,0,0
-644,-468,0,0,0,0,0,0,0,0,0,-1,580,1492,0,0
-637,-468,0,0,0,0,0,0,0,0,0,-1,587,1492,0,0
-630,-468,0,0,0,0,0,0,0,0,0,-1,594,1492,0,0
-623,-468,0,0,0,0,0,0,0,0,0,-1,601,1492,0,0
-616,-468,0,0,0,0,0,0,0,0,0,-1,608,1492,0,0
-609,-468,0,0,0,0,0,0,0,0,0,-1,615,1492,0,0
-602,-468,0,0,0,0,0,0,0,0,0,-1,622,1492,0,0
-595,-468,0,0,0,0,0,0,0,0,0,-1,629,1492,0,0
-588,-468,0,0,0,0,0,0,0,0,0,-1,636,1492,0,0
-581,-468,0,0,0,0,0,0,0,0,0,-1,643,1492,0,0
-574,-468,0,0,0,0,0,0,0,0,0,-1,650,1492,0,0
-567,-468,-11.2603,1.8042,0,0,0,0,0,0,0,-1,657,1492,-11.2603,-1.80424
-560,-468,-8.77441,2.23694,0,0,0,0,0,0,0,-1,664,1492,-8.77443,-2.23692
-553,-468,-5.94061,9.26318,0,0,0,0,0,0,0,-1,671,1492,-5.94062,-9.26322
-546,-468,-10.47,5.43237,0,0,0,0,0,0,0,-1,678,1492,-10.47,-5.4324
-539,-468,-10.2468,5.45203,0,0,0,0,0,0,0,-1,685,1492,-10.2468,-5.45197
-532,-468,-8.39795,6.02783,0,0,0,0,0,0,0,-1,692,1492,-8.39793,-6.02789
-525,-468,-6.59332,7.15405,0,0,0,0,0,0,0,-1,699,1492,-6.59331,-7.15411
-518,-468,-6.33588,8.65393,0,0,0,0,0,0,0,-1,706,1492,-6.33588,-8.65397
-511,-468,-6.80548,12.0894,0,0,0,0,0,0,0,-1,713,1492,-6.80549,-12.0893
-504,-468,-6.75702,12.6436,0.00471647,0.00285901,0.0062001,0.010057,-0.00248153,0.711055,0.00766691,0.0400337,720,1492,-6.757,-12.6436
-497,-468,-6.86487,13.2197,0.00319587,0.00144235,0.00423356,0.00664251,-0.00200429,0.683293,0.00522616,0.018365,727,1492,-6.86487,-13.2197
-490,-468,-6.87256,13.8086,0.00226434,0.000632775,0.00289811,0.0044593,-0.00156218,0.648204,0.00360814,0.00798701,734,1492,-6.87259,-13.8085
-483,-468,-6.9043,14.3191,0.0020639,0.000534208,0.00229441,0.00371759,-0.00111948,0.624515,0.00292388,0.00846684,741,1492,-6.9043,-14.3191
-476,-468,-6.92242,14.8535,0.00238104,0.000861959,0.00224207,0.00398873,-0.000745733,0.622082,0.00293943,0.00934827,748,1492,-6.92244,-14.8535
-469,-468,-6.92834,15.4167,0.00319756,0.00150131,0.00269017,0.00517013,-0.000471259,0.632695,0.00361409,0.0140944,755,1492,-6.92834,-15.4168
-462,-468,-6.90112,15.9766,0.00442132,0.00239289,0.00349843,0.00704958,-0.000235372,0.644313,0.00478011,0.0253885,762,1492,-6.9011,-15.9766
-455,-468,-6.96832,16.4517,0.00606491,0.00347785,0.00468155,0.00962834,-8.5589e-05,0.650609,0.00644761,0.024598,769,1492,-6.96835,-16.4516
-448,-468,-6.98071,16.9513,0.00832047,0.005013,0.00648437,0.0133587,-2.51941e-05,0.660543,0.00891419,0.0146109,776,1492,-6.9807,-16.9513
-441,-468,-6.9964,17.5023,0.0111024,0.00662946,0.00870536,0.017854,-0.000122132,0.659664,0.0119436,0.0141554,783,1492,-6.99643,-17.5024
-434,-468,-6.97394,18.1046,0.0142856,0.00820429,0.0112644,0.0229125,-0.000422671,0.653573,0.0154178,0.0218427,790,1492,-6.97396,-18.1046
-427,-468,-6.97424,18.7233,0,0,0,0,0,0,0,-1,797,1492,-6.97423,-18.7232
-420,-468,-6.57819,19.2024,0,0,0,0,0,0,0,-1,804,1492,-6.57821,-19.2024
-413,-468,-5.30328,17.3519,0,0,0,0,0,0,0,-1,811,1492,-5.30329,-17.352
-406,-468,-2.2356,9.396,0,0,0,0,0,0,0,-1,818,1492,-2.2356,-9.396
-399,-468,-0.940369,8.1936,0,0,0,0,0,0,0,-1,825,1492,-0.940365,-8.19357
-392,-468,-0.35144,8.14673,0,0,0,0,0,0,0,-1,832,1492,-0.351449,-8.14674
-385,-468,0.465759,5.35864,0,0,0,0,0,0,0,-1,839,1492,0.465732,-5.35864
-378,-468,1.99835,3.25391,0,0,0,0,0,0,0,-1,846,1492,1.99837,-3.2539
-371,-468,-0.31842,3.1532,0,0,0,0,0,0,0,-1,853,1492,-0.318441,-3.15324
-364,-468,-0.966736,2.14563,0,0,0,0,0,0,0,-1,860,1492,-0.966735,-2.14557
-357,-468,-3.06787,3.22742,0,0,0,0,0,0,0,-1,867,1492,-3.06784,-3.2274
-350,-468,-3.18658,4.12659,0,0,0,0,0,0,0,-1,874,1492,-3.18659,-4.12658
-343,-468,0,0,0,0,0,0,0,0,0,-1,881,1492,0,0
-336,-468,0,0,0,0,0,0,0,0,0,-1,888,1492,0,0
-329,-468,0,0,0,0,0,0,0,0,0,-1,895,1492,0,0
-322,-468,0,0,0,0,0,0,0,0,0,-1,902,1492,0,0
-315,-468,0,0,0,0,0,0,0,0,0,-1,909,1492,0,0
-308,-468,0,0,0,0,0,0,0,0,0,-1,916,1492,0,0
-301,-468,0,0,0,0,0,0,0,0,0,-1,923,1492,0,0
-294,-468,0,0,0,0,0,0,0,0,0,-1,930,1492,0,0
-287,-468,0,0,0,0,0,0,0,0,0,-1,937,1492,0,0
-280,-468,0,0,0,0,0,0,0,0,0,-1,944,1492,0,0
-273,-468,0,0,0,0,0,0,0,0,0,-1,951,1492,0,0
-266,-468,0,0,0,0,0,0,0,0,0,-1,958,1492,0,0
-259,-468,0,0,0,0,0,0,0,0,0,-1,965,1492,0,0
-252,-468,0,0,0,0,0,0,0,0,0,-1,972,1492,0,0
-245,-468,0,0,0,0,0,0,0,0,0,-1,979,1492,0,0
-238,-468,0,0,0,0,0,0,0,0,0,-1,986,1492,0,0
-231,-468,0,0,0,0,0,0,0,0,0,-1,993,1492,0,0
-224,-468,0,0,0,0,0,0,0,0,0,-1,1000,1492,0,0
-217,-468,0,0,0,0,0,0,0,0,0,-1,1007,1492,0,0
-210,-468,0,0,0,0,0,0,0,0,0,-1,1014,1492,0,0
-203,-468,0,0,0,0,0,0,0,0,0,-1,1021,1492,0,0
-196,-468,0,0,0,0,0,0,0,0,0,-1,1028,1492,0,0
-189,-468,0,0,0,0,0,0,0,0,0,-1,1035,1492,0,0
-182,-468,0,0,0,0,0,0,0,0,0,-1,1042,1492,0,0
-175,-468,0,0,0,0,0,0,0,0,0,-1,1049,1492,0,0
-168,-468,0,0,0,0,0,0,0,0,0,-1,1056,1492,0,0
-161,-468,0,0,0,0,0,0,0,0,0,-1,1063,1492,0,0
-154,-468,0,0,0,0,0,0,0,0,0,-1,1070,1492,0,0
-147,-468,0,0,0,0,0,0,0,0,0,-1,1077,1492,0,0
-140,-468,0,0,0,0,0,0,0,0,0,-1,1084,1492,0,0
-133,-468,0,0,0,0,0,0,0,0,0,-1,1091,1492,0,0
-126,-468,0,0,0,0,0,0,0,0,0,-1,1098,1492,0,0
-119,-468,0,0,0,0,0,0,0,0,0,-1,1105,1492,0,0
-112,-468,0,0,0,0,0,0,0,0,0,-1,1112,1492,0,0
-105,-468,0,0,0,0,0,0,0,0,0,-1,1119,1492,0,0
-98,-468,0,0,0,0,0,0,0,0,0,-1,1126,1492,0,0
-91,-468,0,0,0,0,0,0,0,0,0,-1,1133,1492,0,0
-84,-468,0,0,0,0,0,0,0,0,0,-1,1140,1492,0,0
-77,-468,0,0,0,0,0,0,0,0,0,-1,1147,1492,0,0
-70,-468,0,0,0,0,0,0,0,0,0,-1,1154,1492,0,0
-63,-468,0,0,0,0,0,0,0,0,0,-1,1161,1492,0,0
-56,-468,0,0,0,0,0,0,0,0,0,-1,1168,1492,0,0
-49,-468,0,0,0,0,0,0,0,0,0,-1,1175,1492,0,0
-42,-468,0,0,0,0,0,0,0,0,0,-1,1182,1492,0,0
-35,-468,0,0,0,0,0,0,0,0,0,-1,1189,1492,0,0
-28,-468,0,0,0,0,0,0,0,0,0,-1,1196,1492,0,0
-21,-468,0,0,0,0,0,0,0,0,0,-1,1203,1492,0,0
-14,-468,0,0,0,0,0,0,0,0,0,-1,1210,1492,0,0
-7,-468,0,0,0,0,0,0,0,0,0,-1,1217,1492,0,0
0,-468,0,0,0,0,0,0,0,0,0,-1,1224,1492,0,0
7,-468,0,0,0,0,0,0,0,0,0,-1,1231,1492,0,0
14,-468,0,0,0,0,0,0,0,0,0,-1,1238,1492,0,0
21,-468,0,0,0,0,0,0,0,0,0,-1,1245,1492,0,0
28,-468,0,0,0,0,0,0,0,0,0,-1,1252,1492,0,0
35,-468,0,0,0,0,0,0,0,0,0,-1,1259,1492,0,0
42,-468,0,0,0,0,0,0,0,0,0,-1,1266,1492,0,0
49,-468,0,0,0,0,0,0,0,0,0,-1,1273,1492,0,0
56,-468,0,0,0,0,0,0,0,0,0,-1,1280,1492,0,0
63,-468,0,0,0,0,0,0,0,0,0,-1,1287,1492,0,0
70,-468,0,0,0,0,0,0,0,0,0,-1,1294,1492,0,0
77,-468,0,0,0,0,0,0,0,0,0,-1,1301,1492,0,0
84,-468,0,0,0,0,0,0,0,0,0,-1,1308,1492,0,0
91,-468,0,0,0,0,0,0,0,0,0,-1,1315,1492,0,0
98,-468,0,0,0,0,0,0,0,0,0,-1,1322,1492,0,0
105,-468,0,0,0,0,0,0,0,0,0,-1,1329,1492,0,0
112,-468,0,0,0,0,0,0,0,0,0,-1,1336,1492,0,0
119,-468,0,0,0,0,0,0,0,0,0,-1,1343,1492,0,0
126,-468,0,0,0,0,0,0,0,0,0,-1,1350,1492,0,0
133,-468,0,0,0,0,0,0,0,0,0,-1,1357,1492,0,0
140,-468,0,0,0,0,0,0,0,0,0,-1,1364,1492,0,0
147,-468,0,0,0,0,0,0,0,0,0,-1,1371,1492,0,0
154,-468,0,0,0,0,0,0,0,0,0,-1,1378,1492,0,0
161,-468,0,0,0,0,0,0,0,0,0,-1,1385,1492,0,0
168,-468,0,0,0,0,0,0,0,0,0,-1,1392,1492,0,0
175,-468,0,0,0,0,0,0,0,0,0,-1,1399,1492,0,0
182,-468,0,0,0,0,0,0,0,0,0,-1,1406,1492,0,0
189,-468,0,0,0,0,0,0,0,0,0,-1,1413,1492,0,0
196,-468,0,0,0,0,0,0,0,0,0,-1,1420,1492,0,0
203,-468,0,0,0,0,0,0,0,0,0,-1,1427,1492,0,0
210,-468,0,0,0,0,0,0,0,0,0,-1,1434,1492,0,0
217,-468,0,0,0,0,0,0,0,0,0,-1,1441,1492,0,0
224,-468,0,0,0,0,0,0,0,0,0,-1,1448,1492,0,0
231,-468,0,0,0,0,0,0,0,0,0,-1,1455,1492,0,0
238,-468,0,0,0,0,0,0,0,0,0,-1,1462,1492,0,0
245,-468,0,0,0,0,0,0,0,0,0,-1,1469,1492,0,0
252,-468,0,0,0,0,0,0,0,0,0,-1,1476,1492,0,0
259,-468,0,0,0,0,0,0,0,0,0,-1,1483,1492,0,0
266,-468,0,0,0,0,0,0,0,0,0,-1,1490,1492,0,0
273,-468,0,0,0,0,0,0,0,0,0,-1,1497,1492,0,0
280,-468,0,0,0,0,0,0,0,0,0,-1,1504,1492,0,0
287,-468,0,0,0,0,0,0,0,0,0,-1,1511,1492,0,0
294,-468,0,0,0,0,0,0,0,0,0,-1,1518,1492,0,0
301,-468,0,0,0,0,0,0,0,0,0,-1,1525,1492,0,0
308,-468,0,0,0,0,0,0,0,0,0,-1,1532,1492,0,0
315,-468,0,0,0,0,0,0,0,0,0,-1,1539,1492,0,0
322,-468,0,0,0,0,0,0,0,0,0,-1,1546,1492,0,0
329,-468,0,0,0,0,0,0,0,0,0,-1,1553,1492,0,0
336,-468,0,0,0,0,0,0,0,0,0,-1,1560,1492,0,0
343,-468,0,0,0,0,0,0,0,0,0,-1,1567,1492,0,0
350,-468,0,0,0,0,0,0,0,0,0,-1,1574,1492,0,0
357,-468,0,0,0,0,0,0,0,0,0,-1,1581,1492,0,0
364,-468,0,0,0,0,0,0,0,0,0,-1,1588,1492,0,0
371,-468,0,0,0,0,0,0,0,0,0,-1,1595,1492,0,0
378,-468,0,0,0,0,0,0,0,0,0,-1,1602,1492,0,0
385,-468,0,0,0,0,0,0,0,0,0,-1,1609,1492,0,0
392,-468,0,0,0,0,0,0,0,0,0,-1,1616,1492,0,0
399,-468,0,0,0,0,0,0,0,0,0,-1,1623,1492,0,0
406,-468,0,0,0,0,0,0,0,0,0,-1,1630,1492,0,0
413,-468,0,0,0,0,0,0,0,0,0,-1,1637,1492,0,0
420,-468,0,0,0,0,0,0,0,0,0,-1,1644,1492,0,0
427,-468,0,0,0,0,0,0,0,0,0,-1,1651,1492,0,0
434,-468,0,0,0,0,0,0,0,0,0,-1,1658,1492,0,0
441,-468,0,0,0,0,0,0,0,0,0,-1,1665,1492,0,0
448,-468,0,0,0,0,0,0,0,0,0,-1,1672,1492,0,0
455,-468,0,0,0,0,0,0,0,0,0,-1,1679,1492,0,0
462,-468,0,0,0,0,0,0,0,0,0,-1,1686,1492,0,0
469,-468,15.6879,1.2677,0,0,0,0,0,0,0,-1,1693,1492,15.6879,-1.26772
476,-468,14.9318,1.61865,0,0,0,0,0,0,0,-1,1700,1492,14.9318,-1.61869
483,-468,11.265,4.64795,0,0,0,0,0,0,0,-1,1707,1492,11.265,-4.64798
490,-468,12.1316,3.51624,0,0,0,0,0,0,0,-1,1714,1492,12.1316,-3.51628
497,-468,16.5355,3.14587,0,0,0,0,0,0,0,-1,1721,1492,16.5356,-3.14583
504,-468,15.0642,4.10437,0,0,0,0,0,0,0,-1,1728,1492,15.0643,-4.10431
511,-468,15.6877,9.4801,0,0,0,0,0,0,0,-1,1735,1492,15.6878,-9.48007
518,-468,13.759,11.0887,0,0,0,0,0,0,0,-1,1742,1492,13.759,-11.0887
525,-468,16.6531,14.2238,0,0,0,0,0,0,0,-1,1749,1492,16.653,-14.2237
532,-468,16.9696,15.9641,0,0,0,0,0,0,0,-1,1756,1492,16.9696,-15.9641
539,-468,21.5308,20.7551,0,0,0,0,0,0,0,-1,1763,1492,21.5308,-20.7551
546,-468,21.5588,20.8766,0,0,0,0,0,0,0,-1,1770,1492,21.5588,-20.8766
553,-468,21.8625,20.2762,0,0,0,0,0,0,0,-1,1777,1492,21.8625,-20.2763
560,-468,21.9323,19.8257,0.00683364,0.00518471,-0.00340498,0.00951255,0.0025058,-0.666616,0.00569331,0.0387892,1784,1492,21.9322,-19.8257
567,-468,21.9622,19.3662,0.00551573,0.00410248,-0.00272104,0.00762039,0.00199781,-0.658359,0.00456253,0.0213376,1791,1492,21.9622,-19.3662
574,-468,21.9893,18.8441,0.00450363,0.00333163,-0.00232523,0.00631557,0.0015197,-0.66196,0.00380632,0.0160613,1798,1492,21.9892,-18.8441
581,-468,21.9736,18.3724,0.00365482,0.00268659,-0.00197003,0.00519934,0.00114206,-0.664916,0.00315521,0.0167415,1805,1492,21.9736,-18.3725
588,-468,21.949,17.8892,0.00299795,0.00204439,-0.00164674,0.00423554,0.000806798,-0.644486,0.00259688,0.0131273,1812,1492,21.949,-17.8891
595,-468,21.9312,17.3926,0.00263221,0.0014202,-0.00134999,0.00350597,0.00054644,-0.574429,0.00217814,0.0105731,1819,1492,21.9311,-17.3926
602,-468,21.9139,16.8861,0.00239,0.000842364,-0.00107419,0.00294007,0.000292294,-0.473264,0.00187024,0.00925717,1826,1492,21.914,-16.8861
609,-468,21.8967,16.3718,0.00228214,0.000335272,-0.000803012,0.00257061,4.68025e-05,-0.344878,0.00169836,0.00998661,1833,1492,21.8968,-16.3718
616,-468,21.8877,15.875,0.00234864,-0.000139568,-0.000549091,0.00246443,-0.000255352,-0.20782,0.00173435,0.0101462,1840,1492,21.8877,-15.8751
623,-468,21.8827,15.4144,0.00267947,-0.000672832,-0.000273233,0.00270159,-0.000694957,-0.0807954,0.00207194,0.0106516,1847,1492,21.8827,-15.4145
630,-468,21.8687,14.9198,0.00318471,-0.00114743,4.87468e-06,0.00318471,-0.00114743,0.00112524,0.00259172,0.0113392,1854,1492,21.8687,-14.9198
637,-468,21.8396,14.403,0.00397497,-0.00132195,0.00010286,0.00397697,-0.00132395,0.019409,0.00318569,0.0145909,1861,1492,21.8396,-14.403
644,-468,21.9535,14.0753,0.00495322,-0.00162609,0.000200094,0.0049593,-0.00163217,0.0303752,0.0039639,0.0394875,1868,1492,21.9535,-14.0753
651,-468,22.2205,13.7284,0,0,0,0,0,0,0,-1,1875,1492,22.2204,-13.7284
658,-468,16.4969,10.0774,0,0,0,0,0,0,0,-1,1882,1492,16.497,-10.0774
665,-468,15.4673,8.59546,0,0,0,0,0,0,0,-1,1889,1492,15.4672,-8.59548
672,-468,9.96814,3.61133,0,0,0,0,0,0,0,-1,1896,1492,9.96817,-3.61139
679,-468,11.2191,1.91968,0,0,0,0,0,0,0,-1,1903,1492,11.2191,-1.91965
686,-468,11.9252,1.42285,0,0,0,0,0,0,0,-1,1910,1492,11.9252,-1.42291
693,-468,0,0,0,0,0,0,0,0,0,-1,1917,1492,0,0
700,-468,0,0,0,0,0,0,0,0,0,-1,1924,1492,0,0
707,-468,0,0,0,0,0,0,0,0,0,-1,1931,1492,0,0
714,-468,0,0,0,0,0,0,0,0,0,-1,1938,1492,0,0
721,-468,0,0,0,0,0,0,0,0,0,-1,1945,1492,0,0
728,-468,0,0,0,0,0,0,0,0,0,-1,1952,1492,0,0
735,-468,0,0,0,0,0,0,0,0,0,-1,1959,1492,0,0
742,-468,0,0,0,0,0,0,0,0,0,-1,1966,1492,0,0
749,-468,0,0,0,0,0,0,0,0,0,-1,1973,1492,0,0
756,-468,0,0,0,0,0,0,0,0,0,-1,1980,1492,0,0
763,-468,0,0,0,0,0,0,0,0,0,-1,1987,1492,0,0
770,-468,0,0,0,0,0,0,0,0,0,-1,1994,1492,0,0
777,-468,0,0,0,0,0,0,0,0,0,-1,2001,1492,0,0
784,-468,0,0,0,0,0,0,0,0,0,-1,2008,1492,0,0
791,-468,0,0,0,0,0,0,0,0,0,-1,2015,1492,0,0
798,-468,0,0,0,0,0,0,0,0,0,-1,2022,1492,0,0
805,-468,0,0,0,0,0,0,0,0,0,-1,2029,1492,0,0
812,-468,0,0,0,0,0,0,0,0,0,-1,2036,1492,0,0
-700,-475,0,0,0,0,0,0,0,0,0,-1,524,1499,0,0
-693,-475,0,0,0,0,0,0,0,0,0,-1,531,1499,0,0
-686,-475,0,0,0,0,0,0,0,0,0,-1,538,1499,0,0
-679,-475,0,0,0,0,0,0,0,0,0,-1,545,1499,0,0
-672,-475,0,0,0,0,0,0,0,0,0,-1,552,1499,0,0
-665,-475,0,0,0,0,0,0,0,0,0,-1,559,1499,0,0
-658,-475,0,0,0,0,0,0,0,0,0,-1,566,1499,0,0
-651,-475,0,0,0,0,0,0,0,0,0,-1,573,1499,0,0
-644,-475,0,0,0,0,0,0,0,0,0,-1,580,1499,0,0
-637,-475,0,0,0,0,0,0,0,0,0,-1,587,1499,0,0
-630,-475,0,0,0,0,0,0,0,0,0,-1,594,1499,0,0
-623,-475,0,0,0,0,0,0,0,0,0,-1,601,1499,0,0
-616,-475,0,0,0,0,0,0,0,0,0,-1,608,1499,0,0
-609,-475,0,0,0,0,0,0,0,0,0,-1,615,1499,0,0
-602,-475,0,0,0,0,0,0,0,0,0,-1,622,1499,0,0
-595,-475,0,0,0,0,0,0,0,0,0,-1,629,1499,0,0
-588,-475,0,0,0,0,0,0,0,0,0,-1,636,1499,0,0
-581,-475,0,0,0,0,0,0,0,0,0,-1,643,1499,0,0
-574,-475,0,0,0,0,0,0,0,0,0,-1,650,1499,0,0
-567,-475,0,0,0,0,0,0,0,0,0,-1,657,1499,0,0
-560,-475,-9.42731,9.29517,0,0,0,0,0,0,0,-1,664,1499,-9.42731,-9.29519
-553,-475,-8.15131,8.78369,0,0,0,0,0,0,0,-1,671,1499,-8.15131,-8.78367
-546,-475,-8.41254,8.20654,0,0,0,0,0,0,0,-1,678,1499,-8.41251,-8.20655
-539,-475,-4.7345,4.17419,0,0,0,0,0,0,0,-1,685,1499,-4.73449,-4.17418
-532,-475,-7.07379,4.25024,0,0,0,0,0,0,0,-1,692,1499,-7.07378,-4.2503
-525,-475,-6.13147,5.82166,0,0,0,0,0,0,0,-1,699,1499,-6.1315,-5.8216
-518,-475,-7.28784,9.31506,0,0,0,0,0,0,0,-1,706,1499,-7.28782,-9.315
-511,-475,-6.48346,11.9596,0,0,0,0,0,0,0,-1,713,1499,-6.48348,-11.9597
-504,-475,-6.27655,12.8203,0.0068881,0.00327206,0.00823042,0.0135067,-0.0033466,0.677278,0.0103028,0.047481,720,1499,-6.27658,-12.8203
-497,-475,-6.34137,13.3534,0.00433081,0.0010849,0.00531844,0.00826841,-0.0028527,0.637308,0.00666973,0.0342937,727,1499,-6.34137,-13.3534
-490,-475,-6.35974,13.8112,0.00266774,-0.000254293,0.00331582,0.00483015,-0.0024167,0.577885,0.00426061,0.0123931,734,1499,-6.35971,-13.8112
-483,-475,-6.3559,14.3734,0.00193465,-0.00064626,0.00223281,0.00322309,-0.00193471,0.523374,0.00300867,0.00876791,741,1499,-6.35592,-14.3735
-476,-475,-6.37225,14.8864,0.00189127,-0.000465122,0.00186908,0.00292251,-0.00149636,0.504175,0.00259515,0.0104573,748,1499,-6.37224,-14.8863
-469,-475,-6.39056,15.4304,0.00239112,0.000118242,0.00205055,0.00359909,-0.00108973,0.532363,0.00283337,0.0133897,755,1499,-6.39058,-15.4304
-462,-475,-6.36877,15.9724,0.00330142,0.000976297,0.00261182,0.00499773,-0.000720013,0.576006,0.00359593,0.0185893,762,1499,-6.3688,-15.9724
-455,-475,-6.41058,16.4656,0.00458102,0.00203058,0.00351614,0.00704605,-0.000434442,0.611437,0.00484867,0.0164861,769,1499,-6.41057,-16.4656
-448,-475,-6.45905,16.9774,0.00629941,0.00339529,0.00485505,0.00991489,-0.000220196,0.640091,0.00668454,0.0145356,776,1499,-6.45903,-16.9774
-441,-475,-6.48322,17.5055,0.00850678,0.00501863,0.00667334,0.0136602,-0.000134775,0.657582,0.00915205,0.0162606,783,1499,-6.4832,-17.5054
-434,-475,-6.47913,18.0371,0.0110267,0.00668932,0.00879683,0.0179182,-0.000202188,0.664542,0.0120135,0.0112423,790,1499,-6.47912,-18.0371
-427,-475,-6.42712,18.6604,0.0138654,0.0086508,0.0111934,0.0227512,-0.000234978,0.670973,0.0152464,0.0274473,797,1499,-6.42711,-18.6604
-420,-475,-6.27905,19.2291,0.0169257,0.010999,0.0140641,0.0283353,-0.0004106,0.681565,0.0190285,0.0478072,804,1499,-6.27903,-19.2292
-413,-475,-5.95837,19.8933,0,0,0,0,0,0,0,-1,811,1499,-5.95838,-19.8933
-406,-475,-2.56116,12.4956,0,0,0,0,0,0,0,-1,818,1499,-2.56116,-12.4956
-399,-475,-1.39667,6.1615,0,0,0,0,0,0,0,-1,825,1499,-1.39664,-6.16155
-392,-475,0.217163,8.61389,0,0,0,0,0,0,0,-1,832,1499,0.217167,-8.6139
-385,-475,1.18372,2.73999,0,0,0,0,0,0,0,-1,839,1499,1.18372,-2.73995
-378,-475,1.31409,2.90149,0,0,0,0,0,0,0,-1,846,1499,1.31411,-2.90151
-371,-475,2.3476,3.31116,0,0,0,0,0,0,0,-1,853,1499,2.34761,-3.31121
-364,-475,1.04462,9.05823,0,0,0,0,0,0,0,-1,860,1499,1.04461,-9.05825
-357,-475,-0.262756,7.97205,0,0,0,0,0,0,0,-1,867,1499,-0.262784,-7.97205
-350,-475,-2.77173,4.35486,0,0,0,0,0,0,0,-1,874,1499,-2.77175,-4.35491
-343,-475,-6.81641,-1.95203,0,0,0,0,0,0,0,-1,881,1499,-6.81643,1.95198
-336,-475,0,0,0,0,0,0,0,0,0,-1,888,1499,0,0
-329,-475,0,0,0,0,0,0,0,0,0,-1,895,1499,0,0
-322,-475,0,0,0,0,0,0,0,0,0,-1,902,1499,0,0
-315,-475,0,0,0,0,0,0,0,0,0,-1,909,1499,0,0
-308,-475,0,0,0,0,0,0,0,0,0,-1,916,1499,0,0
-301,-475,0,0,0,0,0,0,0,0,0,-1,923,1499,0,0
-294,-475,0,0,0,0,0,0,0,0,0,-1,930,1499,0,0
-287,-475,0,0,0,0,0,0,0,0,0,-1,937,1499,0,0
-280,-475,0,0,0,0,0,0,0,0,0,-1,944,1499,0,0
-273,-475,0,0,0,0,0,0,0,0,0,-1,951,1499,0,0
-266,-475,0,0,0,0,0,0,0,0,0,-1,958,1499,0,0
-259,-475,0,0,0,0,0,0,0,0,0,-1,965,1499,0,0
-252,-475,0,0,0,0,0,0,0,0,0,-1,972,1499,0,0
-245,-475,0,0,0,0,0,0,0,0,0,-1,979,1499,0,0
-238,-475,0,0,0,0,0,0,0,0,0,-1,986,1499,0,0
-231,-475,0,0,0,0,0,0,0,0,0,-1,993,1499,0,0
-224,-475,0,0,0,0,0,0,0,0,0,-1,1000,1499,0,0
-217,-475,0,0,0,0,0,0,0,0,0,-1,1007,1499,0,0
-210,-475,0,0,0,0,0,0,0,0,0,-1,1014,1499,0,0
-203,-475,0,0,0,0,0,0,0,0,0,-1,1021,1499,0,0
-196,-475,0,0,0,0,0,0,0,0,0,-1,1028,1499,0,0
-189,-475,0,0,0,0,0,0,0,0,0,-1,1035,1499,0,0
-182,-475,0,0,0,0,0,0,0,0,0,-1,1042,1499,0,0
-175,-475,0,0,0,0,0,0,0,0,0,-1,1049,1499,0,0
-168,-475,0,0,0,0,0,0,0,0,0,-1,1056,1499,0,0
-161,-475,0,0,0,0,0,0,0,0,0,-1,1063,1499,0,0
-154,-475,0,0,0,0,0,0,0,0,0,-1,1070,1499,0,0
-147,-475,0,0,0,0,0,0,0,0,0,-1,1077,1499,0,0
-140,-475,0,0,0,0,0,0,0,0,0,-1,1084,1499,0,0
-133,-475,0,0,0,0,0,0,0,0,0,-1,1091,1499,0,0
-126,-475,0,0,0,0,0,0,0,0,0,-1,1098,1499,0,0
-119,-475,0,0,0,0,0,0,0,0,0,-1,1105,1499,0,0
-112,-475,0,0,0,0,0,0,0,0,0,-1,1112,1499,0,0
-105,-475,0,0,0,0,0,0,0,0,0,-1,1119,1499,0,0
-98,-475,0,0,0,0,0,0,0,0,0,-1,1126,1499,0,0
-91,-475,0,0,0,0,0,0,0,0,0,-1,1133,1499,0,0
-84,-475,0,0,0,0,0,0,0,0,0,-1,1140,1499,0,0
-77,-475,0,0,0,0,0,0,0,0,0,-1,1147,1499,0,0
-70,-475,0,0,0,0,0,0,0,0,0,-1,1154,1499,0,0
-63,-475,0,0,0,0,0,0,0,0,0,-1,1161,1499,0,0
-56,-475,0,0,0,0,0,0,0,0,0,-1,1168,1499,0,0
-49,-475,0,0,0,0,0,0,0,0,0,-1,1175,1499,0,0
-42,-475,0,0,0,0,0,0,0,0,0,-1,1182,1499,0,0
-35,-475,0,0,0,0,0,0,0,0,0,-1,1189,1499,0,0
-28,-475,0,0,0,0,0,0,0,0,0,-1,1196,1499,0,0
-21,-475,0,0,0,0,0,0,0,0,0,-1,1203,1499,0,0
-14,-475,0,0,0,0,0,0,0,0,0,-1,1210,1499,0,0
-7,-475,0,0,0,0,0,0,0,0,0,-1,1217,1499,0,0
0,-475,0,0,0,0,0,0,0,0,0,-1,1224,1499,0,0
7,-475,0,0,0,0,0,0,0,0,0,-1,1231,1499,0,0
14,-475,0,0,0,0,0,0,0,0,0,-1,1238,1499,0,0
21,-475,0,0,0,0,0,0,0,0,0,-1,1245,1499,0,0
28,-475,0,0,0,0,0,0,0,0,0,-1,1252,1499,0,0
35,-475,0,0,0,0,0,0,0,0,0,-1,1259,1499,0,0
42,-475,0,0,0,0,0,0,0,0,0,-1,1266,1499,0,0
49,-475,0,0,0,0,0,0,0,0,0,-1,1273,1499,0,0
56,-475,0,0,0,0,0,0,0,0,0,-1,1280,1499,0,0
63,-475,0,0,0,0,0,0,0,0,0,-1,1287,1499,0,0
70,-475,0,0,0,0,0,0,0,0,0,-1,1294,1499,0,0
77,-475,0,0,0,0,0,0,0,0,0,-1,1301,1499,0,0
84,-475,0,0,0,0,0,0,0,0,0,-1,1308,1499,0,0
91,-475,0,0,0,0,0,0,0,0,0,-1,1315,1499,0,0
98,-475,0,0,0,0,0,0,0,0,0,-1,1322,1499,0,0
105,-475,0,0,0,0,0,0,0,0,0,-1,1329,1499,0,0
112,-475,0,0,0,0,0,0,0,0,0,-1,1336,1499,0,0
119,-475,0,0,0,0,0,0,0,0,0,-1,1343,1499,0,0
126,-475,0,0,0,0,0,0,0,0,0,-1,1350,1499,0,0
133,-475,0,0,0,0,0,0,0,0,0,-1,1357,1499,0,0
140,-475,0,0,0,0,0,0,0,0,0,-1,1364,1499,0,0
147,-475,0,0,0,0,0,0,0,0,0,-1,1371,1499,0,0
154,-475,0,0,0,0,0,0,0,0,0,-1,1378,1499,0,0
161,-475,0,0,0,0,0,0,0,0,0,-1,1385,1499,0,0
168,-475,0,0,0,0,0,0,0,0,0,-1,1392,1499,0,0
175,-475,0,0,0,0,0,0,0,0,0,-1,1399,1499,0,0
182,-475,0,0,0,0,0,0,0,0,0,-1,1406,1499,0,0
189,-475,0,0,0,0,0,0,0,0,0,-1,1413,1499,0,0
196,-475,0,0,0,0,0,0,0,0,0,-1,1420,1499,0,0
203,-475,0,0,0,0,0,0,0,0,0,-1,1427,1499,0,0
210,-475,0,0,0,0,0,0,0,0,0,-1,1434,1499,0,0
217,-475,0,0,0,0,0,0,0,0,0,-1,1441,1499,0,0
224,-475,0,0,0,0,0,0,0,0,0,-1,1448,1499,0,0
231,-475,0,0,0,0,0,0,0,0,0,-1,1455,1499,0,0
238,-475,0,0,0,0,0,0,0,0,0,-1,1462,1499,0,0
245,-475,0,0,0,0,0,0,0,0,0,-1,1469,1499,0,0
252,-475,0,0,0,0,0,0,0,0,0,-1,1476,1499,0,0
259,-475,0,0,0,0,0,0,0,0,0,-1,1483,1499,0,0
266,-475,0,0,0,0,0,0,0,0,0,-1,1490,1499,0,0
273,-475,0,0,0,0,0,0,0,0,0,-1,1497,1499,0,0
280,-475,0,0,0,0,0,0,0,0,0,-1,1504,1499,0,0
287,-475,0,0,0,0,0,0,0,0,0,-1,1511,1499,0,0
294,-475,0,0,0,0,0,0,0,0,0,-1,1518,1499,0,0
301,-475,0,0,0,0,0,0,0,0,0,-1,1525,1499,0,0
308,-475,0,0,0,0,0,0,0,0,0,-1,1532,1499,0,0
315,-475,0,0,0,0,0,0,0,0,0,-1,1539,1499,0,0
322,-475,0,0,0,0,0,0,0,0,0,-1,1546,1499,0,0
329,-475,0,0,0,0,0,0,0,0,0,-1,1553,1499,0,0
336,-475,0,0,0,0,0,0,0,0,0,-1,1560,1499,0,0
343,-475,0,0,0,0,0,0,0,0,0,-1,1567,1499,0,0
350,-475,0,0,0,0,0,0,0,0,0,-1,1574,1499,0,0
357,-475,0,0,0,0,0,0,0,0,0,-1,1581,1499,0,0
364,-475,0,0,0,0,0,0,0,0,0,-1,1588,1499,0,0
371,-475,0,0,0,0,0,0,0,0,0,-1,1595,1499,0,0
378,-475,0,0,0,0,0,0,0,0,0,-1,1602,1499,0,0
385,-475,0,0,0,0,0,0,0,0,0,-1,1609,1499,0,0
392,-475,0,0,0,0,0,0,0,0,0,-1,1616,1499,0,0
399,-475,0,0,0,0,0,0,0,0,0,-1,1623,1499,0,0
406,-475,0,0,0,0,0,0,0,0,0,-1,1630,1499,0,0
413,-475,0,0,0,0,0,0,0,0,0,-1,1637,1499,0,0
420,-475,0,0,0,0,0,0,0,0,0,-1,1644,1499,0,0
427,-475,0,0,0,0,0,0,0,0,0,-1,1651,1499,0,0
434,-475,0,0,0,0,0,0,0,0,0,-1,1658,1499,0,0
441,-475,0,0,0,0,0,0,0,0,0,-1,1665,1499,0,0
448,-475,0,0,0,0,0,0,0,0,0,-1,1672,1499,0,0
455,-475,0,0,0,0,0,0,0,0,0,-1,1679,1499,0,0
462,-475,12.6372,0.275391,0,0,0,0,0,0,0,-1,1686,1499,12.6372,-0.27536
469,-475,15.6437,2.28296,0,0,0,0,0,0,0,-1,1693,1499,15.6437,-2.28293
476,-475,15.3302,2.71436,0,0,0,0,0,0,0,-1,1700,1499,15.3303,-2.7143
483,-475,10.7461,5.91479,0,0,0,0,0,0,0,-1,1707,1499,10.7461,-5.91476
490,-475,11.9305,4.4364,0,0,0,0,0,0,0,-1,1714,1499,11.9305,-4.43644
497,-475,15.3451,4.3479,0,0,0,0,0,0,0,-1,1721,1499,15.3451,-4.34789
504,-475,16.9646,7.71265,0,0,0,0,0,0,0,-1,1728,1499,16.9646,-7.71265
511,-475,18.941,12.7572,0,0,0,0,0,0,0,-1,1735,1499,18.941,-12.7572
518,-475,17.0021,13.8564,0,0,0,0,0,0,0,-1,1742,1499,17.0021,-13.8564
525,-475,17.5637,15.2103,0,0,0,0,0,0,0,-1,1749,1499,17.5637,-15.2103
532,-475,20.8623,20.8413,0,0,0,0,0,0,0,-1,1756,1499,20.8623,-20.8413
539,-475,20.5494,20.8519,0,0,0,0,0,0,0,-1,1763,1499,20.5494,-20.852
546,-475,20.4524,19.8799,0,0,0,0,0,0,0,-1,1770,1499,20.4524,-19.8798
553,-475,21.2018,20.5172,0,0,0,0,0,0,0,-1,1777,1499,21.2018,-20.5172
560,-475,21.3292,19.9501,0.00572588,0.00431004,-0.00292348,0.00802592,0.00200999,-0.666609,0.00482233,0.0262776,1784,1499,21.3292,-19.95
567,-475,21.5148,19.3311,0.00468738,0.00333531,-0.0023119,0.00642006,0.00160263,-0.643156,0.00385842,0.0153654,1791,1499,21.5148,-19.3311
574,-475,21.475,18.8376,0.0038899,0.00265052,-0.00196301,0.00532871,0.00121171,-0.632508,0.00322535,0.0150456,1798,1499,21.475,-18.8377
581,-475,21.4451,18.3789,0.00320351,0.00207604,-0.00166624,0.0043988,0.000880754,-0.622279,0.00268749,0.0119425,1805,1499,21.445,-18.3789
588,-475,21.4392,17.8898,0.0026966,0.00156299,-0.00142925,0.00366733,0.000592262,-0.596623,0.00227333,0.010053,1812,1499,21.4392,-17.8898
595,-475,21.4401,17.3904,0.00248418,0.00103327,-0.00121492,0.00317376,0.000343694,-0.516248,0.00201109,0.0114139,1819,1499,21.4401,-17.3904
602,-475,21.4329,16.8838,0.00235356,0.000568601,-0.00102972,0.00282374,9.84223e-05,-0.428337,0.00185056,0.0127675,1826,1499,21.4328,-16.8838
609,-475,21.4159,16.4015,0.00234798,0.00016042,-0.000835019,0.00263028,-0.000121886,-0.326019,0.00179553,0.0122473,1833,1499,21.4158,-16.4015
616,-475,21.3893,15.9277,0.00254894,-0.000272852,-0.000620874,0.0026795,-0.00040342,-0.207277,0.00193488,0.01186,1840,1499,21.3893,-15.9278
623,-475,21.3833,15.4338,0.00298964,-0.000807324,-0.000342495,0.00302029,-0.000837971,-0.0892424,0.00234334,0.0105411,1847,1499,21.3833,-15.4338
630,-475,21.3734,14.9352,0.0035732,-0.00127213,-2.20813e-05,0.0035733,-0.00127223,-0.0045571,0.00290081,0.0119896,1854,1499,21.3734,-14.9352
637,-475,21.3429,14.3796,0.00447999,-0.00143484,0.000144988,0.00448354,-0.00143839,0.024493,0.00356652,0.0243567,1861,1499,21.3428,-14.3796
644,-475,21.4025,14.215,0,0,0,0,0,0,0,-1,1868,1499,21.4025,-14.215
651,-475,11.7965,7.57593,0,0,0,0,0,0,0,-1,1875,1499,11.7965,-7.5759
658,-475,14.6708,8.80322,0,0,0,0,0,0,0,-1,1882,1499,14.6708,-8.8032
665,-475,9.33435,5.43335,0,0,0,0,0,0,0,-1,1889,1499,9.33439,-5.43332
672,-475,9.38635,1.10474,0,0,0,0,0,0,0,-1,1896,1499,9.38629,-1.10475
679,-475,12.2594,1.31079,0,0,0,0,0,0,0,-1,1903,1499,12.2594,-1.31077
686,-475,0,0,0,0,0,0,0,0,0,-1,1910,1499,0,0
693,-475,0,0,0,0,0,0,0,0,0,-1,1917,1499,0,0
700,-475,0,0,0,0,0,0,0,0,0,-1,1924,1499,0,0
707,-475,0,0,0,0,0,0,0,0,0,-1,1931,1499,0,0
714,-475,0,0,0,0,0,0,0,0,0,-1,1938,1499,0,0
721,-475,0,0,0,0,0,0,0,0,0,-1,1945,1499,0,0
728,-475,0,0,0,0,0,0,0,0,0,-1,1952,1499,0,0
735,-475,0,0,0,0,0,0,0,0,0,-1,1959,1499,0,0
742,-475,0,0,0,0,0,0,0,0,0,-1,1966,1499,0,0
749,-475,0,0,0,0,0,0,0,0,0,-1,1973,1499,0,0
756,-475,0,0,0,0,0,0,0,0,0,-1,1980,1499,0,0
763,-475,0,0,0,0,0,0,0,0,0,-1,1987,1499,0,0
770,-475,0,0,0,0,0,0,0,0,0,-1,1994,1499,0,0
777,-475,0,0,0,0,0,0,0,0,0,-1,2001,1499,0,0
784,-475,0,0,0,0,0,0,0,0,0,-1,2008,1499,0,0
791,-475,0,0,0,0,0,0,0,0,0,-1,2015,1499,0,0
798,-475,0,0,0,0,0,0,0,0,0,-1,2022,1499,0,0
805,-475,0,0,0,0,0,0,0,0,0,-1,2029,1499,0,0
812,-475,0,0,0,0,0,0,0,0,0,-1,2036,1499,0,0
-700,-482,0,0,0,0,0,0,0,0,0,-1,524,1506,0,0
-693,-482,0,0,0,0,0,0,0,0,0,-1,531,1506,0,0
-686,-482,0,0,0,0,0,0,0,0,0,-1,538,1506,0,0
-679,-482,0,0,0,0,0,0,0,0,0,-1,545,1506,0,0
-672,-482,0,0,0,0,0,0,0,0,0,-1,552,1506,0,0
-665,-482,0,0,0,0,0,0,0,0,0,-1,559,1506,0,0
-658,-482,0,0,0,0,0,0,0,0,0,-1,566,1506,0,0
-651,-482,0,0,0,0,0,0,0,0,0,-1,573,1506,0,0
-644,-482,0,0,0,0,0,0,0,0,0,-1,580,1506,0,0
-637,-482,0,0,0,0,0,0,0,0,0,-1,587,1506,0,0
-630,-482,0,0,0,0,0,0,0,0,0,-1,594,1506,0,0
-623,-482,0,0,0,0,0,0,0,0,0,-1,601,1506,0,0
-616,-482,0,0,0,0,0,0,0,0,0,-1,608,1506,0,0
-609,-482,0,0,0,0,0,0,0,0,0,-1,615,1506,0,0
-602,-482,0,0,0,0,0,0,0,0,0,-1,622,1506,0,0
-595,-482,0,0,0,0,0,0,0,0,0,-1,629,1506,0,0
-588,-482,0,0,0,0,0,0,0,0,0,-1,636,1506,0,0
-581,-482,0,0,0,0,0,0,0,0,0,-1,643,1506,0,0
-574,-482,0,0,0,0,0,0,0,0,0,-1,650,1506,0,0
-567,-482,0,0,0,0,0,0,0,0,0,-1,657,1506,0,0
-560,-482,0,0,0,0,0,0,0,0,0,-1,664,1506,0,0
-553,-482,-9.06055,9.34314,0,0,0,0,0,0,0,-1,671,1506,-9.06056,-9.34312
-546,-482,-4.08624,8.34241,0,0,0,0,0,0,0,-1,678,1506,-4.08624,-8.3424
-539,-482,-4.29877,2.73499,0,0,0,0,0,0,0,-1,685,1506,-4.29879,-2.73494
-532,-482,-3.63611,4.23987,0,0,0,0,0,0,0,-1,692,1506,-3.63609,-4.23983
-525,-482,-6.19116,5.24927,0,0,0,0,0,0,0,-1,699,1506,-6.19117,-5.24927
-518,-482,-5.92957,6.39807,0,0,0,0,0,0,0,-1,706,1506,-5.92958,-6.39806
-511,-482,-6.56738,10.7617,0,0,0,0,0,0,0,-1,713,1506,-6.56738,-10.7617
-504,-482,-6.24158,12.2424,0.00928602,0.00269095,0.0101438,0.0166548,-0.00467781,0.628246,0.0129473,0.0498159,720,1506,-6.24157,-12.2424
-497,-482,-5.76477,13.4291,0.00573768,-0.000193647,0.00629991,0.00973506,-0.00419103,0.565412,0.00824988,0.0475997,727,1506,-5.7648,-13.4291
-490,-482,-5.87622,13.8085,0.00339896,-0.00193929,0.00368527,0.00528016,-0.00382049,0.471984,0.00527674,0.0311387,734,1506,-5.8762,-13.8085
-483,-482,-5.84326,14.3807,0.00221636,-0.00247835,0.00219616,0.00308354,-0.00334553,0.376066,0.00371285,0.00935936,741,1506,-5.84326,-14.3808
-476,-482,-5.84637,14.9034,0.00181024,-0.00231614,0.00155003,0.00232762,-0.00283352,0.32216,0.00298456,0.00988537,748,1506,-5.84638,-14.9034
-469,-482,-5.86707,15.4554,0.00197462,-0.00165861,0.00149871,0.00251305,-0.00219703,0.3449,0.0027214,0.0120546,755,1506,-5.86706,-15.4555
-462,-482,-5.89014,15.9833,0.00256049,-0.000698309,0.00186159,0.00340505,-0.00154287,0.425906,0.00292334,0.0129777,762,1506,-5.89015,-15.9833
-455,-482,-5.91669,16.4751,0.0034638,0.000464405,0.00254372,0.004917,-0.000988798,0.519041,0.00365249,0.0129502,769,1506,-5.91666,-16.4751
-448,-482,-5.93915,17.0201,0.00466803,0.00180809,0.00351648,0.00703417,-0.000558051,0.592286,0.0048861,0.0134171,776,1506,-5.93912,-17.0201
-441,-482,-5.95361,17.5499,0.00632748,0.00353915,0.00502062,0.0101439,-0.000277289,0.649966,0.00685691,0.012962,783,1506,-5.95359,-17.5499
-434,-482,-5.97272,18.076,0.00822881,0.005355,0.00679583,0.013738,-0.000154168,0.681213,0.00921047,0.0153142,790,1506,-5.97272,-18.076
-427,-482,-5.98132,18.63,0.0103736,0.0074348,0.00880922,0.0178351,-2.67299e-05,0.702758,0.011899,0.0178449,797,1506,-5.98132,-18.63
-420,-482,-5.86157,19.3729,0.0126674,0.00981566,0.0111824,0.0225144,-3.1421e-05,0.721986,0.0150201,0.0461783,804,1506,-5.86156,-19.373
-413,-482,-5.56769,20.0406,0,0,0,0,0,0,0,-1,811,1506,-5.56771,-20.0406
-406,-482,-2.51373,12.7556,0,0,0,0,0,0,0,-1,818,1506,-2.51376,-12.7556
-399,-482,-1.3822,9.22595,0,0,0,0,0,0,0,-1,825,1506,-1.38221,-9.22598
-392,-482,-1.06836,9.22729,0,0,0,0,0,0,0,-1,832,1506,-1.06835,-9.2273
-385,-482,0.0647583,8.90649,0,0,0,0,0,0,0,-1,839,1506,0.0647778,-8.90644
-378,-482,0.215698,5.96948,0,0,0,0,0,0,0,-1,846,1506,0.215681,-5.9695
-371,-482,-0.10907,8.10437,0,0,0,0,0,0,0,-1,853,1506,-0.109063,-8.10433
-364,-482,-0.154968,10.5032,0,0,0,0,0,0,0,-1,860,1506,-0.154976,-10.5032
-357,-482,2.14807,4.60144,0,0,0,0,0,0,0,-1,867,1506,2.14807,-4.60144
-350,-482,-7.5813,-1.45935,0,0,0,0,0,0,0,-1,874,1506,-7.58133,1.45937
-343,-482,-7.19983,-1.26416,0,0,0,0,0,0,0,-1,881,1506,-7.19981,1.26414
-336,-482,-6.78491,-1.18127,0,0,0,0,0,0,0,-1,888,1506,-6.78488,1.18125
-329,-482,0,0,0,0,0,0,0,0,0,-1,895,1506,0,0
-322,-482,0,0,0,0,0,0,0,0,0,-1,902,1506,0,0
-315,-482,0,0,0,0,0,0,0,0,0,-1,909,1506,0,0
-308,-482,0,0,0,0,0,0,0,0,0,-1,916,1506,0,0
-301,-482,0,0,0,0,0,0,0,0,0,-1,923,1506,0,0
-294,-482,0,0,0,0,0,0,0,0,0,-1,930,1506,0,0
-287,-482,0,0,0,0,0,0,0,0,0,-1,937,1506,0,0
-280,-482,0,0,0,0,0,0,0,0,0,-1,944,1506,0,0
-273,-482,0,0,0,0,0,0,0,0,0,-1,951,1506,0,0
-266,-482,0,0,0,0,0,0,0,0,0,-1,958,1506,0,0
-259,-482,0,0,0,0,0,0,0,0,0,-1,965,1506,0,0
-252,-482,0,0,0,0,0,0,0,0,0,-1,972,1506,0,0
-245,-482,0,0,0,0,0,0,0,0,0,-1,979,1506,0,0
-238,-482,0,0,0,0,0,0,0,0,0,-1,986,1506,0,0
-231,-482,0,0,0,0,0,0,0,0,0,-1,993,1506,0,0
-224,-482,0,0,0,0,0,0,0,0,0,-1,1000,1506,0,0
-217,-482,0,0,0,0,0,0,0,0,0,-1,1007,1506,0,0
-210,-482,0,0,0,0,0,0,0,0,0,-1,1014,1506,0,0
-203,-482,0,0,0,0,0,0,0,0,0,-1,1021,1506,0,0
-196,-482,0,0,0,0,0,0,0,0,0,-1,1028,1506,0,0
-189,-482,0,0,0,0,0,0,0,0,0,-1,1035,1506,0,0
-182,-482,0,0,0,0,0,0,0,0,0,-1,1042,1506,0,0
-175,-482,0,0,0,0,0,0,0,0,0,-1,1049,1506,0,0
-168,-482,0,0,0,0,0,0,0,0,0,-1,1056,1506,0,0
-161,-482,0,0,0,0,0,0,0,0,0,-1,1063,1506,0,0
-154,-482,0,0,0,0,0,0,0,0,0,-1,1070,1506,0,0
-147,-482,0,0,0,0,0,0,0,0,0,-1,1077,1506,0,0
-140,-482,0,0,0,0,0,0,0,0,0,-1,1084,1506,0,0
-133,-482,0,0,0,0,0,0,0,0,0,-1,1091,1506,0,0
-126,-482,0,0,0,0,0,0,0,0,0,-1,1098,1506,0,0
-119,-482,0,0,0,0,0,0,0,0,0,-1,1105,1506,0,0
-112,-482,0,0,0,0,0,0,0,0,0,-1,1112,1506,0,0
-105,-482,0,0,0,0,0,0,0,0,0,-1,1119,1506,0,0
-98,-482,0,0,0,0,0,0,0,0,0,-1,1126,1506,0,0
-91,-482,0,0,0,0,0,0,0,0,0,-1,1133,1506,0,0
-84,-482,0,0,0,0,0,0,0,0,0,-1,1140,1506,0,0
-77,-482,0,0,0,0,0,0,0,0,0,-1,1147,1506,0,0
-70,-482,0,0,0,0,0,0,0,0,0,-1,1154,1506,0,0
-63,-482,0,0,0,0,0,0,0,0,0,-1,1161,1506,0,0
-56,-482,0,0,0,0,0,0,0,0,0,-1,1168,1506,0,0
-49,-482,0,0,0,0,0,0,0,0,0,-1,1175,1506,0,0
-42,-482,0,0,0,0,0,0,0,0,0,-1,1182,1506,0,0
-35,-482,0,0,0,0,0,0,0,0,0,-1,1189,1506,0,0
-28,-482,0,0,0,0,0,0,0,0,0,-1,1196,1506,0,0
-21,-482,0,0,0,0,0,0,0,0,0,-1,1203,1506,0,0
-14,-482,0,0,0,0,0,0,0,0,0,-1,1210,1506,0,0
-7,-482,0,0,0,0,0,0,0,0,0,-1,1217,1506,0,0
0,-482,0,0,0,0,0,0,0,0,0,-1,1224,1506,0,0
7,-482,0,0,0,0,0,0,0,0,0,-1,1231,1506,0,0
14,-482,0,0,0,0,0,0,0,0,0,-1,1238,1506,0,0
21,-482,0,0,0,0,0,0,0,0,0,-1,1245,1506,0,0
28,-482,0,0,0,0,0,0,0,0,0,-1,1252,1506,0,0
35,-482,0,0,0,0,0,0,0,0,0,-1,1259,1506,0,0
42,-482,0,0,0,0,0,0,0,0,0,-1,1266,1506,0,0
49,-482,0,0,0,0,0,0,0,0,0,-1,1273,1506,0,0
56,-482,0,0,0,0,0,0,0,0,0,-1,1280,1506,0,0
63,-482,0,0,0,0,0,0,0,0,0,-1,1287,1506,0,0
70,-482,0,0,0,0,0,0,0,0,0,-1,1294,1506,0,0
77,-482,0,0,0,0,0,0,0,0,0,-1,1301,1506,0,0
84,-482,0,0,0,0,0,0,0,0,0,-1,1308,1506,0,0
91,-482,0,0,0,0,0,0,0,0,0,-1,1315,1506,0,0
98,-482,0,0,0,0,0,0,0,0,0,-1,1322,1506,0,0
105,-482,0,0,0,0,0,0,0,0,0,-1,1329,1506,0,0
112,-482,0,0,0,0,0,0,0,0,0,-1,1336,1506,0,0
119,-482,0,0,0,0,0,0,0,0,0,-1,1343,1506,0,0
126,-482,0,0,0,0,0,0,0,0,0,-1,1350,1506,0,0
133,-482,0,0,0,0,0,0,0,0,0,-1,1357,1506,0,0
140,-482,0,0,0,0,0,0,0,0,0,-1,1364,1506,0,0
147,-482,0,0,0,0,0,0,0,0,0,-1,1371,1506,0,0
154,-482,0,0,0,0,0,0,0,0,0,-1,1378,1506,0,0
161,-482,0,0,0,0,0,0,0,0,0,-1,1385,1506,0,0
168,-482,0,0,0,0,0,0,0,0,0,-1,1392,1506,0,0
175,-482,0,0,0,0,0,0,0,0,0,-1,1399,1506,0,0
182,-482,0,0,0,0,0,0,0,0,0,-1,1406,1506,0,0
189,-482,0,0,0,0,0,0,0,0,0,-1,1413,1506,0,0
196,-482,0,0,0,0,0,0,0,0,0,-1,1420,1506,0,0
203,-482,0,0,0,0,0,0,0,0,0,-1,1427,1506,0,0
210,-482,0,0,0,0,0,0,0,0,0,-1,1434,1506,0,0
217,-482,0,0,0,0,0,0,0,0,0,-1,1441,1506,0,0
224,-482,0,0,0,0,0,0,0,0,0,-1,1448,1506,0,0
231,-482,0,0,0,0,0,0,0,0,0,-1,1455,1506,0,0
238,-482,0,0,0,0,0,0,0,0,0,-1,1462,1506,0,0
245,-482,0,0,0,0,0,0,0,0,0,-1,1469,1506,0,0
252,-482,0,0,0,0,0,0,0,0,0,-1,1476,1506,0,0
259,-482,0,0,0,0,0,0,0,0,0,-1,1483,1506,0,0
266,-482,0,0,0,0,0,0,0,0,0,-1,1490,1506,0,0
273,-482,0,0,0,0,0,0,0,0,0,-1,1497,1506,0,0
280,-482,0,0,0,0,0,0,0,0,0,-1,1504,1506,0,0
287,-482,0,0,0,0,0,0,0,0,0,-1,1511,1506,0,0
294,-482,0,0,0,0,0,0,0,0,0,-1,1518,1506,0,0
301,-482,0,0,0,0,0,0,0,0,0,-1,1525,1506,0,0
308,-482,0,0,0,0,0,0,0,0,0,-1,1532,1506,0,0
315,-482,0,0,0,0,0,0,0,0,0,-1,1539,1506,0,0
322,-482,0,0,0,0,0,0,0,0,0,-1,1546,1506,0,0
329,-482,0,0,0,0,0,0,0,0,0,-1,1553,1506,0,0
336,-482,0,0,0,0,0,0,0,0,0,-1,1560,1506,0,0
343,-482,0,0,0,0,0,0,0,0,0,-1,1567,1506,0,0
350,-482,0,0,0,0,0,0,0,0,0,-1,1574,1506,0,0
357,-482,0,0,0,0,0,0,0,0,0,-1,1581,1506,0,0
364,-482,0,0,0,0,0,0,0,0,0,-1,1588,1506,0,0
371,-482,0,0,0,0,0,0,0,0,0,-1,1595,1506,0,0
378,-482,0,0,0,0,0,0,0,0,0,-1,1602,1506,0,0
385,-482,0,0,0,0,0,0,0,0,0,-1,1609,1506,0,0
392,-482,0,0,0,0,0,0,0,0,0,-1,1616,1506,0,0
399,-482,0,0,0,0,0,0,0,0,0,-1,1623,1506,0,0
406,-482,0,0,0,0,0,0,0,0,0,-1,1630,1506,0,0
413,-482,0,0,0,0,0,0,0,0,0,-1,1637,1506,0,0
420,-482,0,0,0,0,0,0,0,0,0,-1,1644,1506,0,0
427,-482,0,0,0,0,0,0,0,0,0,-1,1651,1506,0,0
434,-482,0,0,0,0,0,0,0,0,0,-1,1658,1506,0,0
441,-482,0,0,0,0,0,0,0,0,0,-1,1665,1506,0,0
448,-482,4.24146,1.55383,0,0,0,0,0,0,0,-1,1672,1506,4.24149,-1.55381
455,-482,12.4122,1.09729,0,0,0,0,0,0,0,-1,1679,1506,12.4122,-1.09734
462,-482,15.0673,3.13135,0,0,0,0,0,0,0,-1,1686,1506,15.0672,-3.13134
469,-482,15.3793,3.46301,0,0,0,0,0,0,0,-1,1693,1506,15.3793,-3.46307
476,-482,8.69751,9.18738,0,0,0,0,0,0,0,-1,1700,1506,8.69753,-9.18739
483,-482,10.0902,7.17432,0,0,0,0,0,0,0,-1,1707,1506,10.0902,-7.1743
490,-482,11.6289,5.4928,0,0,0,0,0,0,0,-1,1714,1506,11.6289,-5.49283
497,-482,15.9539,7.40222,0,0,0,0,0,0,0,-1,1721,1506,15.9538,-7.40219
504,-482,20.4233,12.006,0,0,0,0,0,0,0,-1,1728,1506,20.4233,-12.006
511,-482,18.4937,12.9175,0,0,0,0,0,0,0,-1,1735,1506,18.4936,-12.9174
518,-482,16.6002,13.9679,0,0,0,0,0,0,0,-1,1742,1506,16.6003,-13.9679
525,-482,18.495,15.9618,0,0,0,0,0,0,0,-1,1749,1506,18.495,-15.9618
532,-482,19.9375,21.0775,0,0,0,0,0,0,0,-1,1756,1506,19.9375,-21.0775
539,-482,20.2291,20.5577,0,0,0,0,0,0,0,-1,1763,1506,20.2291,-20.5578
546,-482,20.8635,21.1381,0,0,0,0,0,0,0,-1,1770,1506,20.8635,-21.1381
553,-482,20.8141,20.4128,0,0,0,0,0,0,0,-1,1777,1506,20.814,-20.4128
560,-482,20.9266,19.8615,0.00476649,0.00360593,-0.00250364,0.00675621,0.0016162,-0.671521,0.00407372,0.0148804,1784,1506,20.9267,-19.8615
567,-482,21.0087,19.3396,0.00395129,0.00276805,-0.00198264,0.0054287,0.00129064,-0.640403,0.00327482,0.0156484,1791,1506,21.0086,-19.3396
574,-482,20.9998,18.8682,0.00335177,0.00218397,-0.0016962,0.00456176,0.000973977,-0.619631,0.00277411,0.0151332,1798,1506,20.9998,-18.8682
581,-482,20.9683,18.4009,0.00283667,0.00168627,-0.00147168,0.00384157,0.000681374,-0.599105,0.00236684,0.010479,1805,1506,20.9682,-18.4009
588,-482,20.9438,17.9054,0.00249343,0.00129165,-0.00132927,0.00335132,0.000433767,-0.573122,0.00210458,0.0106407,1812,1506,20.9439,-17.9054
595,-482,20.937,17.3977,0.00244136,0.000862937,-0.00121052,0.00309722,0.000207084,-0.496521,0.00199936,0.0166893,1819,1506,20.937,-17.3977
602,-482,20.954,16.9071,0.00244725,0.000512626,-0.00113593,0.00297192,-1.20538e-05,-0.4327,0.00198531,0.0200805,1826,1506,20.954,-16.9071
609,-482,20.9286,16.4346,0.00257355,0.000193341,-0.00104336,0.00296615,-0.000199255,-0.359894,0.00204709,0.0156941,1833,1506,20.9286,-16.4345
616,-482,20.8834,15.9501,0.00296224,-0.000215515,-0.00089294,0.00319597,-0.000449238,-0.256002,0.00229509,0.0113734,1840,1506,20.8834,-15.9501
623,-482,20.8539,15.4785,0.00356194,-0.000762203,-0.0006459,0.00365636,-0.00085662,-0.145151,0.00276766,0.0150832,1847,1506,20.8539,-15.4785
630,-482,20.8676,15.0481,0.00424125,-0.00122963,-0.000314677,0.00425929,-0.00124767,-0.0572668,0.00333416,0.0315154,1854,1506,20.8675,-15.0481
637,-482,20.8588,14.3428,0,0,0,0,0,0,0,-1,1861,1506,20.8587,-14.3428
644,-482,17.5909,11.6163,0,0,0,0,0,0,0,-1,1868,1506,17.5909,-11.6163
651,-482,4.03845,7.05273,0,0,0,0,0,0,0,-1,1875,1506,4.03843,-7.05279
658,-482,10.0278,5.87903,0,0,0,0,0,0,0,-1,1882,1506,10.0279,-5.87902
665,-482,8.15198,3.22229,0,0,0,0,0,0,0,-1,1889,1506,8.15199,-3.22232
672,-482,9.87415,1.3147,0,0,0,0,0,0,0,-1,1896,1506,9.87416,-1.31473
679,-482,0,0,0,0,0,0,0,0,0,-1,1903,1506,0,0
686,-482,0,0,0,0,0,0,0,0,0,-1,1910,1506,0,0
693,-482,0,0,0,0,0,0,0,0,0,-1,1917,1506,0,0
700,-482,0,0,0,0,0,0,0,0,0,-1,1924,1506,0,0
707,-482,0,0,0,0,0,0,0,0,0,-1,1931,1506,0,0
714,-482,0,0,0,0,0,0,0,0,0,-1,1938,1506,0,0
721,-482,0,0,0,0,0,0,0,0,0,-1,1945,1506,0,0
728,-482,0,0,0,0,0,0,0,0,0,-1,1952,1506,0,0
735,-482,0,0,0,0,0,0,0,0,0,-1,1959,1506,0,0
742,-482,0,0,0,0,0,0,0,0,0,-1,1966,1506,0,0
749,-482,0,0,0,0,0,0,0,0,0,-1,1973,1506,0,0
756,-482,0,0,0,0,0,0,0,0,0,-1,1980,1506,0,0
763,-482,0,0,0,0,0,0,0,0,0,-1,1987,1506,0,0
770,-482,0,0,0,0,0,0,0,0,0,-1,1994,1506,0,0
777,-482,0,0,0,0,0,0,0,0,0,-1,2001,1506,0,0
784,-482,0,0,0,0,0,0,0,0,0,-1,2008,1506,0,0
791,-482,0,0,0,0,0,0,0,0,0,-1,2015,1506,0,0
798,-482,0,0,0,0,0,0,0,0,0,-1,2022,1506,0,0
805,-482,0,0,0,0,0,0,0,0,0,-1,2029,1506,0,0
812,-482,0,0,0,0,0,0,0,0,0,-1,2036,1506,0,0
-700,-489,0,0,0,0,0,0,0,0,0,-1,524,1513,0,0
-693,-489,0,0,0,0,0,0,0,0,0,-1,531,1513,0,0
-686,-489,0,0,0,0,0,0,0,0,0,-1,538,1513,0,0
-679,-489,0,0,0,0,0,0,0,0,0,-1,545,1513,0,0
-672,-489,0,0,0,0,0,0,0,0,0,-1,552,1513,0,0
-665,-489,0,0,0,0,0,0,0,0,0,-1,559,1513,0,0
-658,-489,0,0,0,0,0,0,0,0,0,-1,566,1513,0,0
-651,-489,0,0,0,0,0,0,0,0,0,-1,573,1513,0,0
-644,-489,0,0,0,0,0,0,0,0,0,-1,580,1513,0,0
-637,-489,0,0,0,0,0,0,0,0,0,-1,587,1513,0,0
-630,-489,0,0,0,0,0,0,0,0,0,-1,594,1513,0,0
-623,-489,0,0,0,0,0,0,0,0,0,-1,601,1513,0,0
-616,-489,0,0,0,0,0,0,0,0,0,-1,608,1513,0,0
-609,-489,0,0,0,0,0,0,0,0,0,-1,615,1513,0,0
-602,-489,0,0,0,0,0,0,0,0,0,-1,622,1513,0,0
-595,-489,0,0,0,0,0,0,0,0,0,-1,629,1513,0,0
-588,-489,0,0,0,0,0,0,0,0,0,-1,636,1513,0,0
-581,-489,0,0,0,0,0,0,0,0,0,-1,643,1513,0,0
-574,-489,0,0,0,0,0,0,0,0,0,-1,650,1513,0,0
-567,-489,0,0,0,0,0,0,0,0,0,-1,657,1513,0,0
-560,-489,0,0,0,0,0,0,0,0,0,-1,664,1513,0,0
-553,-489,-9.42206,8.5116,0,0,0,0,0,0,0,-1,671,1513,-9.42205,-8.51158
-546,-489,-7.80951,8.18506,0,0,0,0,0,0,0,-1,678,1513,-7.8095,-8.18503
-539,-489,-3.06879,2.82349,0,0,0,0,0,0,0,-1,685,1513,-3.06881,-2.82354
-532,-489,-3.14215,2.5835,0,0,0,0,0,0,0,-1,692,1513,-3.14213,-2.58353
-525,-489,-2.604,4.06274,0,0,0,0,0,0,0,-1,699,1513,-2.60399,-4.06274
-518,-489,-5.43774,7.48059,0,0,0,0,0,0,0,-1,706,1513,-5.43777,-7.48058
-511,-489,-7.52856,10.951,0,0,0,0,0,0,0,-1,713,1513,-7.52857,-10.951
-504,-489,-6.23163,11.9938,0,0,0,0,0,0,0,-1,720,1513,-6.23162,-11.9938
-497,-489,-4.90796,13.722,0,0,0,0,0,0,0,-1,727,1513,-4.90794,-13.722
-490,-489,-5.1723,13.8988,0.00438898,-0.00385477,0.00359372,0.00573562,-0.00520141,0.358526,0.00631701,0.0418695,734,1513,-5.17231,-13.8988
-483,-489,-5.35034,14.3319,0.0028366,-0.00444266,0.00176419,0.00324163,-0.00484769,0.225673,0.00470095,0.0172815,741,1513,-5.35035,-14.3319
-476,-489,-5.33685,14.9067,0.00214046,-0.00422911,0.000916756,0.00226979,-0.00435844,0.140139,0.00388962,0.00941651,748,1513,-5.33688,-14.9067
-469,-489,-5.34058,15.4525,0.00199007,-0.00346944,0.000690698,0.00207609,-0.00355547,0.123912,0.00328857,0.0106422,755,1513,-5.34056,-15.4525
-462,-489,-5.36584,15.9921,0.00227111,-0.00239187,0.000942569,0.00245443,-0.0025752,0.192094,0.00290413,0.0157564,762,1513,-5.36586,-15.9921
-455,-489,-5.40149,16.5123,0.00282777,-0.00112856,0.00150675,0.00333626,-0.00163705,0.32547,0.00292667,0.0194994,769,1513,-5.40149,-16.5123
-448,-489,-5.43835,17.0198,0.0035827,0.000193563,0.00226162,0.00471417,-0.000937907,0.463881,0.00349759,0.0170518,776,1513,-5.43838,-17.0198
-441,-489,-5.41986,17.5663,0.00476192,0.0019706,0.00358765,0.00721582,-0.000483302,0.599897,0.00497947,0.0148043,783,1513,-5.41987,-17.5662
-434,-489,-5.44763,18.0919,0.00614592,0.00384482,0.00516749,0.0102894,-0.000298659,0.675859,0.00696129,0.0170462,790,1513,-5.44765,-18.0919
-427,-489,-5.47656,18.6254,0.00772537,0.00590375,0.00695417,0.0138281,-0.000199001,0.720282,0.00928579,0.0185254,797,1513,-5.47659,-18.6253
-420,-489,-5.50201,19.2882,0.00943796,0.00814965,0.00900416,0.017821,-0.000233369,0.749689,0.0119592,0.0237528,804,1513,-5.50202,-19.2882
-413,-489,-5.46478,20.0287,0,0,0,0,0,0,0,-1,811,1513,-5.46477,-20.0287
-406,-489,-3.10559,15.8143,0,0,0,0,0,0,0,-1,818,1513,-3.10556,-15.8143
-399,-489,-1.41241,9.10718,0,0,0,0,0,0,0,-1,825,1513,-1.41244,-9.10722
-392,-489,-1.0368,9.30469,0,0,0,0,0,0,0,-1,832,1513,-1.03682,-9.30466
-385,-489,-1.75165,10.6559,0,0,0,0,0,0,0,-1,839,1513,-1.75165,-10.6559
-378,-489,-0.401428,9.87048,0,0,0,0,0,0,0,-1,846,1513,-0.401415,-9.87047
-371,-489,-1.11633,10.6606,0,0,0,0,0,0,0,-1,853,1513,-1.11633,-10.6606
-364,-489,-0.503113,8.98486,0,0,0,0,0,0,0,-1,860,1513,-0.503097,-8.98482
-357,-489,-0.609924,10.9606,0,0,0,0,0,0,0,-1,867,1513,-0.609947,-10.9605
-350,-489,-7.94659,-0.358887,0,0,0,0,0,0,0,-1,874,1513,-7.94657,0.358912
-343,-489,-7.49323,-0.437866,0,0,0,0,0,0,0,-1,881,1513,-7.49322,0.437823
-336,-489,-7.02332,-0.53125,0,0,0,0,0,0,0,-1,888,1513,-7.0233,0.531295
-329,-489,-11.9531,4.09314,0,0,0,0,0,0,0,-1,895,1513,-11.953,-4.09316
-322,-489,0,0,0,0,0,0,0,0,0,-1,902,1513,0,0
-315,-489,0,0,0,0,0,0,0,0,0,-1,909,1513,0,0
-308,-489,0,0,0,0,0,0,0,0,0,-1,916,1513,0,0
-301,-489,0,0,0,0,0,0,0,0,0,-1,923,1513,0,0
-294,-489,0,0,0,0,0,0,0,0,0,-1,930,1513,0,0
-287,-489,0,0,0,0,0,0,0,0,0,-1,937,1513,0,0
-280,-489,0,0,0,0,0,0,0,0,0,-1,944,1513,0,0
-273,-489,0,0,0,0,0,0,0,0,0,-1,951,1513,0,0
-266,-489,0,0,0,0,0,0,0,0,0,-1,958,1513,0,0
-259,-489,0,0,0,0,0,0,0,0,0,-1,965,1513,0,0
-252,-489,0,0,0,0,0,0,0,0,0,-1,972,1513,0,0
-245,-489,0,0,0,0,0,0,0,0,0,-1,979,1513,0,0
-238,-489,0,0,0,0,0,0,0,0,0,-1,986,1513,0,0
-231,-489,0,0,0,0,0,0,0,0,0,-1,993,1513,0,0
-224,-489,0,0,0,0,0,0,0,0,0,-1,1000,1513,0,0
-217,-489,0,0,0,0,0,0,0,0,0,-1,1007,1513,0,0
-210,-489,0,0,0,0,0,0,0,0,0,-1,1014,1513,0,0
-203,-489,0,0,0,0,0,0,0,0,0,-1,1021,1513,0,0
-196,-489,0,0,0,0,0,0,0,0,0,-1,1028,1513,0,0
-189,-489,0,0,0,0,0,0,0,0,0,-1,1035,1513,0,0
-182,-489,0,0,0,0,0,0,0,0,0,-1,1042,1513,0,0
-175,-489,0,0,0,0,0,0,0,0,0,-1,1049,1513,0,0
-168,-489,0,0,0,0,0,0,0,0,0,-1,1056,1513,0,0
-161,-489,0,0,0,0,0,0,0,0,0,-1,1063,1513,0,0
-154,-489,0,0,0,0,0,0,0,0,0,-1,1070,1513,0,0
-147,-489,0,0,0,0,0,0,0,0,0,-1,1077,1513,0,0
-140,-489,0,0,0,0,0,0,0,0,0,-1,1084,1513,0,0
-133,-489,0,0,0,0,0,0,0,0,0,-1,1091,1513,0,0
-126,-489,0,0,0,0,0,0,0,0,0,-1,1098,1513,0,0
-119,-489,0,0,0,0,0,0,0,0,0,-1,1105,1513,0,0
-112,-489,0,0,0,0,0,0,0,0,0,-1,1112,1513,0,0
-105,-489,0,0,0,0,0,0,0,0,0,-1,1119,1513,0,0
-98,-489,0,0,0,0,0,0,0,0,0,-1,1126,1513,0,0
-91,-489,0,0,0,0,0,0,0,0,0,-1,1133,1513,0,0
-84,-489,0,0,0,0,0,0,0,0,0,-1,1140,1513,0,0
-77,-489,0,0,0,0,0,0,0,0,0,-1,1147,1513,0,0
-70,-489,0,0,0,0,0,0,0,0,0,-1,1154,1513,0,0
-63,-489,0,0,0,0,0,0,0,0,0,-1,1161,1513,0,0
-56,-489,0,0,0,0,0,0,0,0,0,-1,1168,1513,0,0
-49,-489,0,0,0,0,0,0,0,0,0,-1,1175,1513,0,0
-42,-489,0,0,0,0,0,0,0,0,0,-1,1182,1513,0,0
-35,-489,0,0,0,0,0,0,0,0,0,-1,1189,1513,0,0
-28,-489,0,0,0,0,0,0,0,0,0,-1,1196,1513,0,0
-21,-489,0,0,0,0,0,0,0,0,0,-1,1203,1513,0,0
-14,-489,0,0,0,0,0,0,0,0,0,-1,1210,1513,0,0
-7,-489,0,0,0,0,0,0,0,0,0,-1,1217,1513,0,0
0,-489,0,0,0,0,0,0,0,0,0,-1,1224,1513,0,0
7,-489,0,0,0,0,0,0,0,0,0,-1,1231,1513,0,0
14,-489,0,0,0,0,0,0,0,0,0,-1,1238,1513,0,0
21,-489,0,0,0,0,0,0,0,0,0,-1,1245,1513,0,0
28,-489,0,0,0,0,0,0,0,0,0,-1,1252,1513,0,0
35,-489,0,0,0,0,0,0,0,0,0,-1,1259,1513,0,0
42,-489,0,0,0,0,0,0,0,0,0,-1,1266,1513,0,0
49,-489,0,0,0,0,0,0,0,0,0,-1,1273,1513,0,0
56,-489,0,0,0,0,0,0,0,0,0,-1,1280,1513,0,0
63,-489,0,0,0,0,0,0,0,0,0,-1,1287,1513,0,0
70,-489,0,0,0,0,0,0,0,0,0,-1,1294,1513,0,0
77,-489,0,0,0,0,0,0,0,0,0,-1,1301,1513,0,0
84,-489,0,0,0,0,0,0,0,0,0,-1,1308,1513,0,0
91,-489,0,0,0,0,0,0,0,0,0,-1,1315,1513,0,0
98,-489,0,0,0,0,0,0,0,0,0,-1,1322,1513,0,0
105,-489,0,0,0,0,0,0,0,0,0,-1,1329,1513,0,0
112,-489,0,0,0,0,0,0,0,0,0,-1,1336,1513,0,0
119,-489,0,0,0,0,0,0,0,0,0,-1,1343,1513,0,0
126,-489,0,0,0,0,0,0,0,0,0,-1,1350,1513,0,0
133,-489,0,0,0,0,0,0,0,0,0,-1,1357,1513,0,0
140,-489,0,0,0,0,0,0,0,0,0,-1,1364,1513,0,0
147,-489,0,0,0,0,0,0,0,0,0,-1,1371,1513,0,0
154,-489,0,0,0,0,0,0,0,0,0,-1,1378,1513,0,0
161,-489,0,0,0,0,0,0,0,0,0,-1,1385,1513,0,0
168,-489,0,0,0,0,0,0,0,0,0,-1,1392,1513,0,0
175,-489,0,0,0,0,0,0,0,0,0,-1,1399,1513,0,0
182,-489,0,0,0,0,0,0,0,0,0,-1,1406,1513,0,0
189,-489,0,0,0,0,0,0,0,0,0,-1,1413,1513,0,0
196,-489,0,0,0,0,0,0,0,0,0,-1,1420,1513,0,0
203,-489,0,0,0,0,0,0,0,0,0,-1,1427,1513,0,0
210,-489,0,0,0,0,0,0,0,0,0,-1,1434,1513,0,0
217,-489,0,0,0,0,0,0,0,0,0,-1,1441,1513,0,0
224,-489,0,0,0,0,0,0,0,0,0,-1,1448,1513,0,0
231,-489,0,0,0,0,0,0,0,0,0,-1,1455,1513,0,0
238,-489,0,0,0,0,0,0,0,0,0,-1,1462,1513,0,0
245,-489,0,0,0,0,0,0,0,0,0,-1,1469,1513,0,0
252,-489,0,0,0,0,0,0,0,0,0,-1,1476,1513,0,0
259,-489,0,0,0,0,0,0,0,0,0,-1,1483,1513,0,0
266,-489,0,0,0,0,0,0,0,0,0,-1,1490,1513,0,0
273,-489,0,0,0,0,0,0,0,0,0,-1,1497,1513,0,0
280,-489,0,0,0,0,0,0,0,0,0,-1,1504,1513,0,0
287,-489,0,0,0,0,0,0,0,0,0,-1,1511,1513,0,0
294,-489,0,0,0,0,0,0,0,0,0,-1,1518,1513,0,0
301,-489,0,0,0,0,0,0,0,0,0,-1,1525,1513,0,0
308,-489,0,0,0,0,0,0,0,0,0,-1,1532,1513,0,0
315,-489,0,0,0,0,0,0,0,0,0,-1,1539,1513,0,0
322,-489,0,0,0,0,0,0,0,0,0,-1,1546,1513,0,0
329,-489,0,0,0,0,0,0,0,0,0,-1,1553,1513,0,0
336,-489,0,0,0,0,0,0,0,0,0,-1,1560,1513,0,0
343,-489,0,0,0,0,0,0,0,0,0,-1,1567,1513,0,0
350,-489,0,0,0,0,0,0,0,0,0,-1,1574,1513,0,0
357,-489,0,0,0,0,0,0,0,0,0,-1,1581,1513,0,0
364,-489,0,0,0,0,0,0,0,0,0,-1,1588,1513,0,0
371,-489,0,0,0,0,0,0,0,0,0,-1,1595,1513,0,0
378,-489,0,0,0,0,0,0,0,0,0,-1,1602,1513,0,0
385,-489,0,0,0,0,0,0,0,0,0,-1,1609,1513,0,0
392,-489,0,0,0,0,0,0,0,0,0,-1,1616,1513,0,0
399,-489,0,0,0,0,0,0,0,0,0,-1,1623,1513,0,0
406,-489,0,0,0,0,0,0,0,0,0,-1,1630,1513,0,0
413,-489,0,0,0,0,0,0,0,0,0,-1,1637,1513,0,0
420,-489,0,0,0,0,0,0,0,0,0,-1,1644,1513,0,0
427,-489,0,0,0,0,0,0,0,0,0,-1,1651,1513,0,0
434,-489,0,0,0,0,0,0,0,0,0,-1,1658,1513,0,0
441,-489,11.4602,2.56787,0,0,0,0,0,0,0,-1,1665,1513,11.4602,-2.56786
448,-489,12.4425,1.72351,0,0,0,0,0,0,0,-1,1672,1513,12.4425,-1.72349
455,-489,12.5575,1.37463,0,0,0,0,0,0,0,-1,1679,1513,12.5575,-1.37469
462,-489,14.9784,3.84888,0,0,0,0,0,0,0,-1,1686,1513,14.9784,-3.84892
469,-489,15.1367,4.53101,0,0,0,0,0,0,0,-1,1693,1513,15.1368,-4.531
476,-489,15.5536,5.09338,0,0,0,0,0,0,0,-1,1700,1513,15.5536,-5.09339
483,-489,8.96912,8.37805,0,0,0,0,0,0,0,-1,1707,1513,8.96909,-8.37809
490,-489,10.5366,7.49561,0,0,0,0,0,0,0,-1,1714,1513,10.5367,-7.49558
497,-489,14.6051,11.8397,0,0,0,0,0,0,0,-1,1721,1513,14.6051,-11.8397
504,-489,16.7527,14.1735,0,0,0,0,0,0,0,-1,1728,1513,16.7527,-14.1735
511,-489,17.83,17.7993,0,0,0,0,0,0,0,-1,1735,1513,17.83,-17.7993
518,-489,16.4751,14.3682,0,0,0,0,0,0,0,-1,1742,1513,16.4751,-14.3682
525,-489,17.2606,17.4949,0,0,0,0,0,0,0,-1,1749,1513,17.2606,-17.4949
532,-489,19.397,21.0182,0,0,0,0,0,0,0,-1,1756,1513,19.397,-21.0182
539,-489,20.3778,21.6827,0,0,0,0,0,0,0,-1,1763,1513,20.3778,-21.6828
546,-489,20.4849,21.022,0.00592994,0.00527626,-0.00388145,0.00949829,0.00170791,-0.743394,0.00584664,0.0252093,1770,1513,20.4848,-21.022
553,-489,20.4803,20.3949,0.00486389,0.00403438,-0.00292071,0.00739914,0.00149912,-0.714867,0.00451676,0.0179303,1777,1513,20.4803,-20.3949
560,-489,20.4932,19.8577,0.00402507,0.00309191,-0.00221142,0.00581859,0.00129838,-0.681429,0.00352685,0.0135342,1784,1513,20.4931,-19.8576
567,-489,20.5267,19.382,0.0034239,0.00238931,-0.00177904,0.00475933,0.00105389,-0.643913,0.00288645,0.0157628,1791,1513,20.5268,-19.382
574,-489,20.4821,18.9329,0.00300935,0.00189661,-0.00154742,0.00409738,0.000808576,-0.612821,0.00250593,0.0165511,1798,1513,20.482,-18.9329
581,-489,20.4984,18.4382,0.00266532,0.00146682,-0.00138814,0.00357803,0.000554111,-0.581636,0.00222378,0.0116929,1805,1513,20.4984,-18.4382
588,-489,20.4806,17.9575,0.00248348,0.00117852,-0.0013378,0.00331944,0.000342561,-0.558508,0.00210807,0.0133173,1812,1513,20.4806,-17.9576
595,-489,20.4574,17.48,0.00257707,0.000861811,-0.00131662,0.00329075,0.000148127,-0.496724,0.00214616,0.019315,1819,1513,20.4574,-17.48
602,-489,20.4473,16.9924,0.00272165,0.000644504,-0.00135995,0.00339424,-2.80912e-05,-0.459297,0.00227225,0.0242072,1826,1513,20.4473,-16.9924
609,-489,20.4271,16.4832,0.00299371,0.000426959,-0.00138698,0.00359998,-0.000179311,-0.412088,0.00246193,0.0163832,1833,1513,20.4271,-16.4831
616,-489,20.4186,15.9587,0.00360976,8.01212e-05,-0.00134257,0.00406239,-0.000372509,-0.32517,0.00284058,0.0159395,1840,1513,20.4186,-15.9587
623,-489,20.3995,15.4886,0.00440055,-0.00041109,-0.00116906,0.00466955,-0.000680093,-0.226165,0.00336274,0.0345082,1847,1513,20.3995,-15.4886
630,-489,20.4017,14.9176,0,0,0,0,0,0,0,-1,1854,1513,20.4018,-14.9176
637,-489,17.2048,11.8091,0,0,0,0,0,0,0,-1,1861,1513,17.2048,-11.8091
644,-489,9.67578,8.45874,0,0,0,0,0,0,0,-1,1868,1513,9.67576,-8.45879
651,-489,6.13818,6.85095,0,0,0,0,0,0,0,-1,1875,1513,6.13823,-6.85097
658,-489,5.43848,7.75513,0,0,0,0,0,0,0,-1,1882,1513,5.43844,-7.75509
665,-489,5.48438,8.59912,0,0,0,0,0,0,0,-1,1889,1513,5.48434,-8.59907
672,-489,0,0,0,0,0,0,0,0,0,-1,1896,1513,0,0
679,-489,0,0,0,0,0,0,0,0,0,-1,1903,1513,0,0
686,-489,0,0,0,0,0,0,0,0,0,-1,1910,1513,0,0
693,-489,0,0,0,0,0,0,0,0,0,-1,1917,1513,0,0
700,-489,0,0,0,0,0,0,0,0,0,-1,1924,1513,0,0
707,-489,0,0,0,0,0,0,0,0,0,-1,1931,1513,0,0
714,-489,0,0,0,0,0,0,0,0,0,-1,1938,1513,0,0
721,-489,0,0,0,0,0,0,0,0,0,-1,1945,1513,0,0
728,-489,0,0,0,0,0,0,0,0,0,-1,1952,1513,0,0
735,-489,0,0,0,0,0,0,0,0,0,-1,1959,1513,0,0
742,-489,0,0,0,0,0,0,0,0,0,-1,1966,1513,0,0
749,-489,0,0,0,0,0,0,0,0,0,-1,1973,1513,0,0
756,-489,0,0,0,0,0,0,0,0,0,-1,1980,1513,0,0
763,-489,0,0,0,0,0,0,0,0,0,-1,1987,1513,0,0
770,-489,0,0,0,0,0,0,0,0,0,-1,1994,1513,0,0
777,-489,0,0,0,0,0,0,0,0,0,-1,2001,1513,0,0
784,-489,0,0,0,0,0,0,0,0,0,-1,2008,1513,0,0
791,-489,0,0,0,0,0,0,0,0,0,-1,2015,1513,0,0
798,-489,0,0,0,0,0,0,0,0,0,-1,2022,1513,0,0
805,-489,0,0,0,0,0,0,0,0,0,-1,2029,1513,0,0
812,-489,0,0,0,0,0,0,0,0,0,-1,2036,1513,0,0
-700,-496,0,0,0,0,0,0,0,0,0,-1,524,1520,0,0
-693,-496,0,0,0,0,0,0,0,0,0,-1,531,1520,0,0
-686,-496,0,0,0,0,0,0,0,0,0,-1,538,1520,0,0
-679,-496,0,0,0,0,0,0,0,0,0,-1,545,1520,0,0
-672,-496,0,0,0,0,0,0,0,0,0,-1,552,1520,0,0
-665,-496,0,0,0,0,0,0,0,0,0,-1,559,1520,0,0
-658,-496,0,0,0,0,0,0,0,0,0,-1,566,1520,0,0
-651,-496,0,0,0,0,0,0,0,0,0,-1,573,1520,0,0
-644,-496,0,0,0,0,0,0,0,0,0,-1,580,1520,0,0
-637,-496,0,0,0,0,0,0,0,0,0,-1,587,1520,0,0
-630,-496,0,0,0,0,0,0,0,0,0,-1,594,1520,0,0
-623,-496,0,0,0,0,0,0,0,0,0,-1,601,1520,0,0
-616,-496,0,0,0,0,0,0,0,0,0,-1,608,1520,0,0
-609,-496,0,0,0,0,0,0,0,0,0,-1,615,1520,0,0
-602,-496,0,0,0,0,0,0,0,0,0,-1,622,1520,0,0
-595,-496,0,0,0,0,0,0,0,0,0,-1,629,1520,0,0
-588,-496,0,0,0,0,0,0,0,0,0,-1,636,1520,0,0
-581,-496,0,0,0,0,0,0,0,0,0,-1,643,1520,0,0
-574,-496,0,0,0,0,0,0,0,0,0,-1,650,1520,0,0
-567,-496,0,0,0,0,0,0,0,0,0,-1,657,1520,0,0
-560,-496,0,0,0,0,0,0,0,0,0,-1,664,1520,0,0
-553,-496,0,0,0,0,0,0,0,0,0,-1,671,1520,0,0
-546,-496,-8.09711,7.94836,0,0,0,0,0,0,0,-1,678,1520,-8.09712,-7.94842
-539,-496,-3.20129,1.16052,0,0,0,0,0,0,0,-1,685,1520,-3.20131,-1.16054
-532,-496,-2.98279,2.62146,0,0,0,0,0,0,0,-1,692,1520,-2.98278,-2.62151
-525,-496,-2.75201,4.08032,0,0,0,0,0,0,0,-1,699,1520,-2.75201,-4.08031
-518,-496,-2.6333,5.36072,0,0,0,0,0,0,0,-1,706,1520,-2.63328,-5.36077
-511,-496,-7.92126,9.68604,0,0,0,0,0,0,0,-1,713,1520,-7.92127,-9.68598
-504,-496,-7.51044,11.6274,0,0,0,0,0,0,0,-1,720,1520,-7.51042,-11.6275
-497,-496,-5.15552,13.9457,0,0,0,0,0,0,0,-1,727,1520,-5.15549,-13.9457
-490,-496,-4.86627,14.2141,0.00618256,-0.00607087,0.00360308,0.0071635,-0.00705182,0.265809,0.00820731,0.0472385,734,1520,-4.86628,-14.2141
-483,-496,-4.72961,14.4821,0.00424459,-0.00650019,0.00147588,0.00444363,-0.00669923,0.134051,0.00647712,0.0311361,741,1520,-4.72963,-14.482
-476,-496,-4.81982,14.9125,0.00323907,-0.00607604,0.000453339,0.00326108,-0.00609805,0.0485143,0.00548562,0.0147156,748,1520,-4.8198,-14.9125
-469,-496,-4.83197,15.4725,0.00273735,-0.00510098,6.79474e-05,0.00273794,-0.00510156,0.00866774,0.0045942,0.0106372,755,1520,-4.83199,-15.4725
-462,-496,-4.85828,16.0182,0.00267623,-0.00385377,0.000205979,0.00268272,-0.00386026,0.0315017,0.00379793,0.0152455,762,1520,-4.85826,-16.0181
-455,-496,-4.87378,16.5383,0.00283999,-0.00247773,0.000639118,0.00291573,-0.00255346,0.117949,0.00315995,0.0209519,769,1520,-4.87376,-16.5384
-448,-496,-4.87354,17.0662,0.00311972,-0.00117948,0.00118626,0.00342532,-0.00148508,0.252131,0.00290785,0.0192581,776,1520,-4.87351,-17.0661
-441,-496,-4.87512,17.5875,0.00379832,0.000571908,0.00231716,0.00500853,-0.000638301,0.481313,0.00357085,0.0139895,783,1520,-4.87513,-17.5876
-434,-496,-4.89886,18.0972,0.00467122,0.00239983,0.00368752,0.00739397,-0.000322926,0.636016,0.00504041,0.0131078,790,1520,-4.89885,-18.0971
-427,-496,-4.93628,18.6298,0.00571916,0.00434041,0.00524887,0.0103237,-0.000264157,0.720103,0.00697221,0.0170498,797,1520,-4.93629,-18.6298
-420,-496,-4.95721,19.1322,0.0069337,0.00635429,0.00700457,0.0136546,-0.000366555,0.76473,0.00922765,0.0185796,804,1520,-4.9572,-19.1322
-413,-496,-4.88593,19.6997,0.00855555,0.00830984,0.00927096,0.0177045,-0.000839079,0.778773,0.0120924,0.0289952,811,1520,-4.88593,-19.6997
-406,-496,-4.73828,20.4586,0,0,0,0,0,0,0,-1,818,1520,-4.7383,-20.4587
-399,-496,-4.43341,21.249,0,0,0,0,0,0,0,-1,825,1520,-4.43343,-21.2491
-392,-496,-1.49786,12.387,0,0,0,0,0,0,0,-1,832,1520,-1.49788,-12.387
-385,-496,-1.72437,11.4985,0,0,0,0,0,0,0,-1,839,1520,-1.72436,-11.4985
-378,-496,-1.45532,14.0719,0,0,0,0,0,0,0,-1,846,1520,-1.45533,-14.0719
-371,-496,0.0877075,12.5299,0,0,0,0,0,0,0,-1,853,1520,0.0876896,-12.5299
-364,-496,0.0881348,10.6422,0,0,0,0,0,0,0,-1,860,1520,0.0881368,-10.6423
-357,-496,0.323792,7.56812,0,0,0,0,0,0,0,-1,867,1520,0.323782,-7.56806
-350,-496,2.1535,7.18945,0,0,0,0,0,0,0,-1,874,1520,2.15348,-7.1894
-343,-496,-7.56244,0.335327,0,0,0,0,0,0,0,-1,881,1520,-7.56242,-0.335322
-336,-496,-3.99249,6.02222,0,0,0,0,0,0,0,-1,888,1520,-3.99246,-6.0222
-329,-496,-6.93689,-0.100342,0,0,0,0,0,0,0,-1,895,1520,-6.93686,0.1003
-322,-496,-6.17505,0.494385,0,0,0,0,0,0,0,-1,902,1520,-6.17507,-0.49437
-315,-496,-7.539,5.78638,0,0,0,0,0,0,0,-1,909,1520,-7.53898,-5.78633
-308,-496,0,0,0,0,0,0,0,0,0,-1,916,1520,0,0
-301,-496,0,0,0,0,0,0,0,0,0,-1,923,1520,0,0
-294,-496,0,0,0,0,0,0,0,0,0,-1,930,1520,0,0
-287,-496,0,0,0,0,0,0,0,0,0,-1,937,1520,0,0
-280,-496,0,0,0,0,0,0,0,0,0,-1,944,1520,0,0
-273,-496,0,0,0,0,0,0,0,0,0,-1,951,1520,0,0
-266,-496,0,0,0,0,0,0,0,0,0,-1,958,1520,0,0
-259,-496,0,0,0,0,0,0,0,0,0,-1,965,1520,0,0
-252,-496,0,0,0,0,0,0,0,0,0,-1,972,1520,0,0
-245,-496,0,0,0,0,0,0,0,0,0,-1,979,1520,0,0
-238,-496,0,0,0,0,0,0,0,0,0,-1,986,1520,0,0
-231,-496,0,0,0,0,0,0,0,0,0,-1,993,1520,0,0
-224,-496,0,0,0,0,0,0,0,0,0,-1,1000,1520,0,0
-217,-496,0,0,0,0,0,0,0,0,0,-1,1007,1520,0,0
-210,-496,0,0,0,0,0,0,0,0,0,-1,1014,1520,0,0
-203,-496,0,0,0,0,0,0,0,0,0,-1,1021,1520,0,0
-196,-496,0,0,0,0,0,0,0,0,0,-1,1028,1520,0,0
-189,-496,0,0,0,0,0,0,0,0,0,-1,1035,1520,0,0
-182,-496,0,0,0,0,0,0,0,0,0,-1,1042,1520,0,0
-175,-496,0,0,0,0,0,0,0,0,0,-1,1049,1520,0,0
-168,-496,0,0,0,0,0,0,0,0,0,-1,1056,1520,0,0
-161,-496,0,0,0,0,0,0,0,0,0,-1,1063,1520,0,0
-154,-496,0,0,0,0,0,0,0,0,0,-1,1070,1520,0,0
-147,-496,0,0,0,0,0,0,0,0,0,-1,1077,1520,0,0
-140,-496,0,0,0,0,0,0,0,0,0,-1,1084,1520,0,0
-133,-496,0,0,0,0,0,0,0,0,0,-1,1091,1520,0,0
-126,-496,0,0,0,0,0,0,0,0,0,-1,1098,1520,0,0
-119,-496,0,0,0,0,0,0,0,0,0,-1,1105,1520,0,0
-112,-496,0,0,0,0,0,0,0,0,0,-1,1112,1520,0,0
-105,-496,0,0,0,0,0,0,0,0,0,-1,1119,1520,0,0
-98,-496,0,0,0,0,0,0,0,0,0,-1,1126,1520,0,0
-91,-496,0,0,0,0,0,0,0,0,0,-1,1133,1520,0,0
-84,-496,0,0,0,0,0,0,0,0,0,-1,1140,1520,0,0
-77,-496,0,0,0,0,0,0,0,0,0,-1,1147,1520,0,0
-70,-496,0,0,0,0,0,0,0,0,0,-1,1154,1520,0,0
-63,-496,0,0,0,0,0,0,0,0,0,-1,1161,1520,0,0
-56,-496,0,0,0,0,0,0,0,0,0,-1,1168,1520,0,0
-49,-496,0,0,0,0,0,0,0,0,0,-1,1175,1520,0,0
-42,-496,0,0,0,0,0,0,0,0,0,-1,1182,1520,0,0
-35,-496,0,0,0,0,0,0,0,0,0,-1,1189,1520,0,0
-28,-496,0,0,0,0,0,0,0,0,0,-1,1196,1520,0,0
-21,-496,0,0,0,0,0,0,0,0,0,-1,1203,1520,0,0
-14,-496,0,0,0,0,0,0,0,0,0,-1,1210,1520,0,0
-7,-496,0,0,0,0,0,0,0,0,0,-1,1217,1520,0,0
0,-496,0,0,0,0,0,0,0,0,0,-1,1224,1520,0,0
7,-496,0,0,0,0,0,0,0,0,0,-1,1231,1520,0,0
14,-496,0,0,0,0,0,0,0,0,0,-1,1238,1520,0,0
21,-496,0,0,0,0,0,0,0,0,0,-1,1245,1520,0,0
28,-496,0,0,0,0,0,0,0,0,0,-1,1252,1520,0,0
35,-496,0,0,0,0,0,0,0,0,0,-1,1259,1520,0,0
42,-496,0,0,0,0,0,0,0,0,0,-1,1266,1520,0,0
49,-496,0,0,0,0,0,0,0,0,0,-1,1273,1520,0,0
56,-496,0,0,0,0,0,0,0,0,0,-1,1280,1520,0,0
63,-496,0,0,0,0,0,0,0,0,0,-1,1287,1520,0,0
70,-496,0,0,0,0,0,0,0,0,0,-1,1294,1520,0,0
77,-496,0,0,0,0,0,0,0,0,0,-1,1301,1520,0,0
84,-496,0,0,0,0,0,0,0,0,0,-1,1308,1520,0,0
91,-496,0,0,0,0,0,0,0,0,0,-1,1315,1520,0,0
98,-496,0,0,0,0,0,0,0,0,0,-1,1322,1520,0,0
105,-496,0,0,0,0,0,0,0,0,0,-1,1329,1520,0,0
112,-496,0,0,0,0,0,0,0,0,0,-1,1336,1520,0,0
119,-496,0,0,0,0,0,0,0,0,0,-1,1343,1520,0,0
126,-496,0,0,0,0,0,0,0,0,0,-1,1350,1520,0,0
133,-496,0,0,0,0,0,0,0,0,0,-1,1357,1520,0,0
140,-496,0,0,0,0,0,0,0,0,0,-1,1364,1520,0,0
147,-496,0,0,0,0,0,0,0,0,0,-1,1371,1520,0,0
154,-496,0,0,0,0,0,0,0,0,0,-1,1378,1520,0,0
161,-496,0,0,0,0,0,0,0,0,0,-1,1385,1520,0,0
168,-496,0,0,0,0,0,0,0,0,0,-1,1392,1520,0,0
175,-496,0,0,0,0,0,0,0,0,0,-1,1399,1520,0,0
182,-496,0,0,0,0,0,0,0,0,0,-1,1406,1520,0,0
189,-496,0,0,0,0,0,0,0,0,0,-1,1413,1520,0,0
196,-496,0,0,0,0,0,0,0,0,0,-1,1420,1520,0,0
203,-496,0,0,0,0,0,0,0,0,0,-1,1427,1520,0,0
210,-496,0,0,0,0,0,0,0,0,0,-1,1434,1520,0,0
217,-496,0,0,0,0,0,0,0,0,0,-1,1441,1520,0,0
224,-496,0,0,0,0,0,0,0,0,0,-1,1448,1520,0,0
231,-496,0,0,0,0,0,0,0,0,0,-1,1455,1520,0,0
238,-496,0,0,0,0,0,0,0,0,0,-1,1462,1520,0,0
245,-496,0,0,0,0,0,0,0,0,0,-1,1469,1520,0,0
252,-496,0,0,0,0,0,0,0,0,0,-1,1476,1520,0,0
259,-496,0,0,0,0,0,0,0,0,0,-1,1483,1520,0,0
266,-496,0,0,0,0,0,0,0,0,0,-1,1490,1520,0,0
273,-496,0,0,0,0,0,0,0,0,0,-1,1497,1520,0,0
280,-496,0,0,0,0,0,0,0,0,0,-1,1504,1520,0,0
287,-496,0,0,0,0,0,0,0,0,0,-1,1511,1520,0,0
294,-496,0,0,0,0,0,0,0,0,0,-1,1518,1520,0,0
301,-496,0,0,0,0,0,0,0,0,0,-1,1525,1520,0,0
308,-496,0,0,0,0,0,0,0,0,0,-1,1532,1520,0,0
315,-496,0,0,0,0,0,0,0,0,0,-1,1539,1520,0,0
322,-496,0,0,0,0,0,0,0,0,0,-1,1546,1520,0,0
329,-496,0,0,0,0,0,0,0,0,0,-1,1553,1520,0,0
336,-496,0,0,0,0,0,0,0,0,0,-1,1560,1520,0,0
343,-496,0,0,0,0,0,0,0,0,0,-1,1567,1520,0,0
350,-496,0,0,0,0,0,0,0,0,0,-1,1574,1520,0,0
357,-496,0,0,0,0,0,0,0,0,0,-1,1581,1520,0,0
364,-496,0,0,0,0,0,0,0,0,0,-1,1588,1520,0,0
371,-496,0,0,0,0,0,0,0,0,0,-1,1595,1520,0,0
378,-496,0,0,0,0,0,0,0,0,0,-1,1602,1520,0,0
385,-496,0,0,0,0,0,0,0,0,0,-1,1609,1520,0,0
392,-496,0,0,0,0,0,0,0,0,0,-1,1616,1520,0,0
399,-496,0,0,0,0,0,0,0,0,0,-1,1623,1520,0,0
406,-496,0,0,0,0,0,0,0,0,0,-1,1630,1520,0,0
413,-496,0,0,0,0,0,0,0,0,0,-1,1637,1520,0,0
420,-496,0,0,0,0,0,0,0,0,0,-1,1644,1520,0,0
427,-496,0,0,0,0,0,0,0,0,0,-1,1651,1520,0,0
434,-496,11.0457,3.37732,0,0,0,0,0,0,0,-1,1658,1520,11.0456,-3.37736
441,-496,11.788,2.75488,0,0,0,0,0,0,0,-1,1665,1520,11.7879,-2.75485
448,-496,12.2146,2.18494,0,0,0,0,0,0,0,-1,1672,1520,12.2146,-2.18489
455,-496,12.3489,1.65173,0,0,0,0,0,0,0,-1,1679,1520,12.3489,-1.65178
462,-496,12.1912,1.32361,0,0,0,0,0,0,0,-1,1686,1520,12.1911,-1.32357
469,-496,14.8138,5.77954,0,0,0,0,0,0,0,-1,1693,1520,14.8138,-5.77958
476,-496,15.2449,6.27942,0,0,0,0,0,0,0,-1,1700,1520,15.2449,-6.27936
483,-496,9.19812,6.88367,0,0,0,0,0,0,0,-1,1707,1520,9.19812,-6.88361
490,-496,10.2123,7.97144,0,0,0,0,0,0,0,-1,1714,1520,10.2122,-7.97145
497,-496,13.9297,12.2981,0,0,0,0,0,0,0,-1,1721,1520,13.9297,-12.2982
504,-496,16.3271,16.6501,0,0,0,0,0,0,0,-1,1728,1520,16.3272,-16.6502
511,-496,17.6753,18.0685,0,0,0,0,0,0,0,-1,1735,1520,17.6753,-18.0685
518,-496,17.0537,17.3118,0,0,0,0,0,0,0,-1,1742,1520,17.0538,-17.3118
525,-496,18.2721,19.3259,0,0,0,0,0,0,0,-1,1749,1520,18.2721,-19.3259
532,-496,19.7343,22.278,0,0,0,0,0,0,0,-1,1756,1520,19.7343,-22.2779
539,-496,20.0387,21.467,0.00634952,0.0060123,-0.00459716,0.0107812,0.00158065,-0.767068,0.00672279,0.0349477,1763,1520,20.0387,-21.467
546,-496,19.9655,20.9155,0.00503705,0.00466056,-0.00341906,0.00827305,0.00142457,-0.757897,0.00510717,0.0155163,1770,1520,19.9655,-20.9155
553,-496,20.0435,20.3408,0.00411354,0.00353886,-0.00258083,0.00642298,0.00122942,-0.729959,0.0039367,0.0151108,1777,1520,20.0435,-20.3409
560,-496,20.0496,19.8834,0.00342652,0.0026935,-0.00196909,0.00506292,0.0010571,-0.693386,0.00308391,0.0154515,1784,1520,20.0496,-19.8834
567,-496,20.0375,19.3956,0.00300455,0.00210903,-0.00165031,0.00426676,0.000846819,-0.652928,0.00260846,0.0123867,1791,1520,20.0374,-19.3956
574,-496,20.012,18.9117,0.00275505,0.00170832,-0.00150017,0.00382053,0.000642844,-0.617565,0.00236208,0.0124061,1798,1520,20.0119,-18.9118
581,-496,20.0045,18.4515,0.00258578,0.0013661,-0.00143076,0.00353124,0.000420637,-0.58394,0.00222723,0.0140272,1805,1520,20.0045,-18.4515
588,-496,20.0063,17.978,0.00257893,0.00120002,-0.00149431,0.00353517,0.000243774,-0.569257,0.00227987,0.0171956,1812,1520,20.0063,-17.978
595,-496,19.969,17.5044,0.00283103,0.00102605,-0.00159296,0.00375939,9.76858e-05,-0.527668,0.00247434,0.018269,1819,1520,19.969,-17.5044
602,-496,19.9445,17.0129,0.0031453,0.000980821,-0.00177666,0.00414339,-1.72637e-05,-0.51184,0.00276803,0.0174684,1826,1520,19.9445,-17.013
609,-496,19.9584,16.4918,0.00359822,0.000901996,-0.00194505,0.00461667,-0.000116457,-0.482359,0.00311733,0.0153823,1833,1520,19.9584,-16.4919
616,-496,20.0221,15.8899,0.00451691,0.000672481,-0.0020369,0.00539538,-0.000205996,-0.407179,0.00366752,0.0338447,1840,1520,20.0221,-15.8899
623,-496,19.9456,15.1505,0,0,0,0,0,0,0,-1,1847,1520,19.9455,-15.1505
630,-496,18.5656,13.8966,0,0,0,0,0,0,0,-1,1854,1520,18.5655,-13.8967
637,-496,14.6411,10.1016,0,0,0,0,0,0,0,-1,1861,1520,14.6411,-10.1016
644,-496,12.4537,10.087,0,0,0,0,0,0,0,-1,1868,1520,12.4537,-10.0871
651,-496,8.18506,5.47803,0,0,0,0,0,0,0,-1,1875,1520,8.18505,-5.47806
658,-496,7.79993,4.02563,0,0,0,0,0,0,0,-1,1882,1520,7.79997,-4.02568
665,-496,5.47583,7.90625,0,0,0,0,0,0,0,-1,1889,1520,5.47581,-7.90628
672,-496,0,0,0,0,0,0,0,0,0,-1,1896,1520,0,0
679,-496,0,0,0,0,0,0,0,0,0,-1,1903,1520,0,0
686,-496,0,0,0,0,0,0,0,0,0,-1,1910,1520,0,0
693,-496,0,0,0,0,0,0,0,0,0,-1,1917,1520,0,0
700,-496,0,0,0,0,0,0,0,0,0,-1,1924,1520,0,0
707,-496,0,0,0,0,0,0,0,0,0,-1,1931,1520,0,0
714,-496,0,0,0,0,0,0,0,0,0,-1,1938,1520,0,0
721,-496,0,0,0,0,0,0,0,0,0,-1,1945,1520,0,0
728,-496,0,0,0,0,0,0,0,0,0,-1,1952,1520,0,0
735,-496,0,0,0,0,0,0,0,0,0,-1,1959,1520,0,0
742,-496,0,0,0,0,0,0,0,0,0,-1,1966,1520,0,0
749,-496,0,0,0,0,0,0,0,0,0,-1,1973,1520,0,0
756,-496,0,0,0,0,0,0,0,0,0,-1,1980,1520,0,0
763,-496,0,0,0,0,0,0,0,0,0,-1,1987,1520,0,0
770,-496,0,0,0,0,0,0,0,0,0,-1,1994,1520,0,0
777,-496,0,0,0,0,0,0,0,0,0,-1,2001,1520,0,0
784,-496,0,0,0,0,0,0,0,0,0,-1,2008,1520,0,0
791,-496,0,0,0,0,0,0,0,0,0,-1,2015,1520,0,0
798,-496,0,0,0,0,0,0,0,0,0,-1,2022,1520,0,0
805,-496,0,0,0,0,0,0,0,0,0,-1,2029,1520,0,0
812,-496,0,0,0,0,0,0,0,0,0,-1,2036,1520,0,0
-700,-503,0,0,0,0,0,0,0,0,0,-1,524,1527,0,0
-693,-503,0,0,0,0,0,0,0,0,0,-1,531,1527,0,0
-686,-503,0,0,0,0,0,0,0,0,0,-1,538,1527,0,0
-679,-503,0,0,0,0,0,0,0,0,0,-1,545,1527,0,0
-672,-503,0,0,0,0,0,0,0,0,0,-1,552,1527,0,0
-665,-503,0,0,0,0,0,0,0,0,0,-1,559,1527,0,0
-658,-503,0,0,0,0,0,0,0,0,0,-1,566,1527,0,0
-651,-503,0,0,0,0,0,0,0,0,0,-1,573,1527,0,0
-644,-503,0,0,0,0,0,0,0,0,0,-1,580,1527,0,0
-637,-503,0,0,0,0,0,0,0,0,0,-1,587,1527,0,0
-630,-503,0,0,0,0,0,0,0,0,0,-1,594,1527,0,0
-623,-503,0,0,0,0,0,0,0,0,0,-1,601,1527,0,0
-616,-503,0,0,0,0,0,0,0,0,0,-1,608,1527,0,0
-609,-503,0,0,0,0,0,0,0,0,0,-1,615,1527,0,0
-602,-503,0,0,0,0,0,0,0,0,0,-1,622,1527,0,0
-595,-503,0,0,0,0,0,0,0,0,0,-1,629,1527,0,0
-588,-503,0,0,0,0,0,0,0,0,0,-1,636,1527,0,0
-581,-503,0,0,0,0,0,0,0,0,0,-1,643,1527,0,0
-574,-503,0,0,0,0,0,0,0,0,0,-1,650,1527,0,0
-567,-503,0,0,0,0,0,0,0,0,0,-1,657,1527,0,0
-560,-503,0,0,0,0,0,0,0,0,0,-1,664,1527,0,0
-553,-503,0,0,0,0,0,0,0,0,0,-1,671,1527,0,0
-546,-503,0,0,0,0,0,0,0,0,0,-1,678,1527,0,0
-539,-503,3.50177,4.26428,0,0,0,0,0,0,0,-1,685,1527,3.50177,-4.26424
-532,-503,-3.13196,1.05298,0,0,0,0,0,0,0,-1,692,1527,-3.13194,-1.05299
-525,-503,-2.94293,2.59314,0,0,0,0,0,0,0,-1,699,1527,-2.94296,-2.59314
-518,-503,-2.7395,4.05872,0,0,0,0,0,0,0,-1,706,1527,-2.73948,-4.05871
-511,-503,-1.60022,7.23877,0,0,0,0,0,0,0,-1,713,1527,-1.60023,-7.23872
-504,-503,-8.1402,10.1541,0,0,0,0,0,0,0,-1,720,1527,-8.14017,-10.1541
-497,-503,-4.87439,14.17,0,0,0,0,0,0,0,-1,727,1527,-4.87437,-14.17
-490,-503,-4.50214,14.4243,0,0,0,0,0,0,0,-1,734,1527,-4.50215,-14.4243
-483,-503,-4.21716,14.4792,0,0,0,0,0,0,0,-1,741,1527,-4.21715,-14.4793
-476,-503,-4.20526,15.0168,0.00460421,-0.00798542,0.000399623,0.00461688,-0.00799809,0.0316997,0.00736995,0.0270146,748,1527,-4.20524,-15.0169
-469,-503,-4.31067,15.5015,0.00370562,-0.00666822,-0.000132414,0.0037073,-0.00666991,-0.0127614,0.00607213,0.0113944,755,1527,-4.31065,-15.5014
-462,-503,-4.33276,16.0531,0.00329656,-0.00517126,-0.00011231,0.00329805,-0.00517275,-0.0132601,0.00493038,0.0114244,762,1527,-4.33273,-16.0531
-455,-503,-4.33661,16.5934,0.00310167,-0.00361809,0.000177297,0.00310635,-0.00362277,0.0263599,0.00388887,0.0171922,769,1527,-4.33663,-16.5934
-448,-503,-4.34113,17.1276,0.00298142,-0.0022914,0.000506253,0.00302958,-0.00233956,0.0948573,0.0031084,0.0162827,776,1527,-4.34112,-17.1275
-441,-503,-4.34436,17.6221,0.00326189,-0.000571255,0.00139298,0.00371462,-0.00102399,0.314246,0.0028791,0.0124738,783,1527,-4.34436,-17.6221
-434,-503,-4.38202,18.1287,0.00375607,0.00118061,0.00249909,0.0052797,-0.000343011,0.5475,0.00363953,0.0106912,790,1527,-4.382,-18.1287
-427,-503,-4.43542,18.6481,0.00443263,0.00297703,0.0037771,0.00755141,-0.000141747,0.69022,0.00508218,0.0168649,797,1527,-4.43543,-18.6481
-420,-503,-4.4057,19.1232,0.00533776,0.00476314,0.00520897,0.0102673,-0.000166434,0.757848,0.00690104,0.0185684,804,1527,-4.4057,-19.1232
-413,-503,-4.41138,19.645,0.00655435,0.00653526,0.00697494,0.0135198,-0.000430145,0.784714,0.00915992,0.0167733,811,1527,-4.41135,-19.6451
-406,-503,-4.40778,20.173,0.00836115,0.00847109,0.00900996,0.0174263,-0.00059401,0.788449,0.0118205,0.0247661,818,1527,-4.40777,-20.1729
-399,-503,-4.2843,20.8746,0.0111176,0.0113489,0.0114506,0.0226845,-0.000217966,0.790448,0.0151962,0.0404114,825,1527,-4.28433,-20.8747
-392,-503,-3.98352,21.7572,0,0,0,0,0,0,0,-1,832,1527,-3.98349,-21.7573
-385,-503,-2.00403,14.1218,0,0,0,0,0,0,0,-1,839,1527,-2.00403,-14.1218
-378,-503,-2.07043,13.8632,0,0,0,0,0,0,0,-1,846,1527,-2.07043,-13.8631
-371,-503,-1.67285,13.8081,0,0,0,0,0,0,0,-1,853,1527,-1.67285,-13.8081
-364,-503,0.181396,12.3768,0,0,0,0,0,0,0,-1,860,1527,0.18138,-12.3768
-357,-503,0.558533,9.25452,0,0,0,0,0,0,0,-1,867,1527,0.558542,-9.25446
-350,-503,0.219971,6.84827,0,0,0,0,0,0,0,-1,874,1527,0.21996,-6.84831
-343,-503,-3.5802,4.43274,0,0,0,0,0,0,0,-1,881,1527,-3.58018,-4.43276
-336,-503,-3.2384,6.40637,0,0,0,0,0,0,0,-1,888,1527,-3.2384,-6.40643
-329,-503,-1.70691,11.886,0,0,0,0,0,0,0,-1,895,1527,-1.70689,-11.886
-322,-503,-3.31317,8.81519,0,0,0,0,0,0,0,-1,902,1527,-3.31315,-8.81524
-315,-503,-3.90265,7.73853,0,0,0,0,0,0,0,-1,909,1527,-3.90264,-7.73854
-308,-503,-1.70264,7.35413,0,0,0,0,0,0,0,-1,916,1527,-1.70262,-7.35416
-301,-503,0,0,0,0,0,0,0,0,0,-1,923,1527,0,0
-294,-503,0,0,0,0,0,0,0,0,0,-1,930,1527,0,0
-287,-503,0,0,0,0,0,0,0,0,0,-1,937,1527,0,0
-280,-503,0,0,0,0,0,0,0,0,0,-1,944,1527,0,0
-273,-503,0,0,0,0,0,0,0,0,0,-1,951,1527,0,0
-266,-503,0,0,0,0,0,0,0,0,0,-1,958,1527,0,0
-259,-503,0,0,0,0,0,0,0,0,0,-1,965,1527,0,0
-252,-503,0,0,0,0,0,0,0,0,0,-1,972,1527,0,0
-245,-503,0,0,0,0,0,0,0,0,0,-1,979,1527,0,0
-238,-503,0,0,0,0,0,0,0,0,0,-1,986,1527,0,0
-231,-503,0,0,0,0,0,0,0,0,0,-1,993,1527,0,0
-224,-503,0,0,0,0,0,0,0,0,0,-1,1000,1527,0,0
-217,-503,0,0,0,0,0,0,0,0,0,-1,1007,1527,0,0
-210,-503,0,0,0,0,0,0,0,0,0,-1,1014,1527,0,0
-203,-503,0,0,0,0,0,0,0,0,0,-1,1021,1527,0,0
-196,-503,0,0,0,0,0,0,0,0,0,-1,1028,1527,0,0
-189,-503,0,0,0,0,0,0,0,0,0,-1,1035,1527,0,0
-182,-503,0,0,0,0,0,0,0,0,0,-1,1042,1527,0,0
-175,-503,0,0,0,0,0,0,0,0,0,-1,1049,1527,0,0
-168,-503,0,0,0,0,0,0,0,0,0,-1,1056,1527,0,0
-161,-503,0,0,0,0,0,0,0,0,0,-1,1063,1527,0,0
-154,-503,0,0,0,0,0,0,0,0,0,-1,1070,1527,0,0
-147,-503,0,0,0,0,0,0,0,0,0,-1,1077,1527,0,0
-140,-503,0,0,0,0,0,0,0,0,0,-1,1084,1527,0,0
-133,-503,0,0,0,0,0,0,0,0,0,-1,1091,1527,0,0
-126,-503,0,0,0,0,0,0,0,0,0,-1,1098,1527,0,0
-119,-503,0,0,0,0,0,0,0,0,0,-1,1105,1527,0,0
-112,-503,0,0,0,0,0,0,0,0,0,-1,1112,1527,0,0
-105,-503,0,0,0,0,0,0,0,0,0,-1,1119,1527,0,0
-98,-503,0,0,0,0,0,0,0,0,0,-1,1126,1527,0,0
-91,-503,0,0,0,0,0,0,0,0,0,-1,1133,1527,0,0
-84,-503,0,0,0,0,0,0,0,0,0,-1,1140,1527,0,0
-77,-503,0,0,0,0,0,0,0,0,0,-1,1147,1527,0,0
-70,-503,0,0,0,0,0,0,0,0,0,-1,1154,1527,0,0
-63,-503,0,0,0,0,0,0,0,0,0,-1,1161,1527,0,0
-56,-503,0,0,0,0,0,0,0,0,0,-1,1168,1527,0,0
-49,-503,0,0,0,0,0,0,0,0,0,-1,1175,1527,0,0
-42,-503,0,0,0,0,0,0,0,0,0,-1,1182,1527,0,0
-35,-503,0,0,0,0,0,0,0,0,0,-1,1189,1527,0,0
-28,-503,0,0,0,0,0,0,0,0,0,-1,1196,1527,0,0
-21,-503,0,0,0,0,0,0,0,0,0,-1,1203,1527,0,0
-14,-503,0,0,0,0,0,0,0,0,0,-1,1210,1527,0,0
-7,-503,0,0,0,0,0,0,0,0,0,-1,1217,1527,0,0
0,-503,0,0,0,0,0,0,0,0,0,-1,1224,1527,0,0
7,-503,0,0,0,0,0,0,0,0,0,-1,1231,1527,0,0
14,-503,0,0,0,0,0,0,0,0,0,-1,1238,1527,0,0
21,-503,0,0,0,0,0,0,0,0,0,-1,1245,1527,0,0
28,-503,0,0,0,0,0,0,0,0,0,-1,1252,1527,0,0
35,-503,0,0,0,0,0,0,0,0,0,-1,1259,1527,0,0
42,-503,0,0,0,0,0,0,0,0,0,-1,1266,1527,0,0
49,-503,0,0,0,0,0,0,0,0,0,-1,1273,1527,0,0
56,-503,0,0,0,0,0,0,0,0,0,-1,1280,1527,0,0
63,-503,0,0,0,0,0,0,0,0,0,-1,1287,1527,0,0
70,-503,0,0,0,0,0,0,0,0,0,-1,1294,1527,0,0
77,-503,0,0,0,0,0,0,0,0,0,-1,1301,1527,0,0
84,-503,0,0,0,0,0,0,0,0,0,-1,1308,1527,0,0
91,-503,0,0,0,0,0,0,0,0,0,-1,1315,1527,0,0
98,-503,0,0,0,0,0,0,0,0,0,-1,1322,1527,0,0
105,-503,0,0,0,0,0,0,0,0,0,-1,1329,1527,0,0
112,-503,0,0,0,0,0,0,0,0,0,-1,1336,1527,0,0
119,-503,0,0,0,0,0,0,0,0,0,-1,1343,1527,0,0
126,-503,0,0,0,0,0,0,0,0,0,-1,1350,1527,0,0
133,-503,0,0,0,0,0,0,0,0,0,-1,1357,1527,0,0
140,-503,0,0,0,0,0,0,0,0,0,-1,1364,1527,0,0
147,-503,0,0,0,0,0,0,0,0,0,-1,1371,1527,0,0
154,-503,0,0,0,0,0,0,0,0,0,-1,1378,1527,0,0
161,-503,0,0,0,0,0,0,0,0,0,-1,1385,1527,0,0
168,-503,0,0,0,0,0,0,0,0,0,-1,1392,1527,0,0
175,-503,0,0,0,0,0,0,0,0,0,-1,1399,1527,0,0
182,-503,0,0,0,0,0,0,0,0,0,-1,1406,1527,0,0
189,-503,0,0,0,0,0,0,0,0,0,-1,1413,1527,0,0
196,-503,0,0,0,0,0,0,0,0,0,-1,1420,1527,0,0
203,-503,0,0,0,0,0,0,0,0,0,-1,1427,1527,0,0
210,-503,0,0,0,0,0,0,0,0,0,-1,1434,1527,0,0
217,-503,0,0,0,0,0,0,0,0,0,-1,1441,1527,0,0
224,-503,0,0,0,0,0,0,0,0,0,-1,1448,1527,0,0
231,-503,0,0,0,0,0,0,0,0,0,-1,1455,1527,0,0
238,-503,0,0,0,0,0,0,0,0,0,-1,1462,1527,0,0
245,-503,0,0,0,0,0,0,0,0,0,-1,1469,1527,0,0
252,-503,0,0,0,0,0,0,0,0,0,-1,1476,1527,0,0
259,-503,0,0,0,0,0,0,0,0,0,-1,1483,1527,0,0
266,-503,0,0,0,0,0,0,0,0,0,-1,1490,1527,0,0
273,-503,0,0,0,0,0,0,0,0,0,-1,1497,1527,0,0
280,-503,0,0,0,0,0,0,0,0,0,-1,1504,1527,0,0
287,-503,0,0,0,0,0,0,0,0,0,-1,1511,1527,0,0
294,-503,0,0,0,0,0,0,0,0,0,-1,1518,1527,0,0
301,-503,0,0,0,0,0,0,0,0,0,-1,1525,1527,0,0
308,-503,0,0,0,0,0,0,0,0,0,-1,1532,1527,0,0
315,-503,0,0,0,0,0,0,0,0,0,-1,1539,1527,0,0
322,-503,0,0,0,0,0,0,0,0,0,-1,1546,1527,0,0
329,-503,0,0,0,0,0,0,0,0,0,-1,1553,1527,0,0
336,-503,0,0,0,0,0,0,0,0,0,-1,1560,1527,0,0
343,-503,0,0,0,0,0,0,0,0,0,-1,1567,1527,0,0
350,-503,0,0,0,0,0,0,0,0,0,-1,1574,1527,0,0
357,-503,0,0,0,0,0,0,0,0,0,-1,1581,1527,0,0
364,-503,0,0,0,0,0,0,0,0,0,-1,1588,1527,0,0
371,-503,0,0,0,0,0,0,0,0,0,-1,1595,1527,0,0
378,-503,0,0,0,0,0,0,0,0,0,-1,1602,1527,0,0
385,-503,0,0,0,0,0,0,0,0,0,-1,1609,1527,0,0
392,-503,0,0,0,0,0,0,0,0,0,-1,1616,1527,0,0
399,-503,0,0,0,0,0,0,0,0,0,-1,1623,1527,0,0
406,-503,0,0,0,0,0,0,0,0,0,-1,1630,1527,0,0
413,-503,0,0,0,0,0,0,0,0,0,-1,1637,1527,0,0
420,-503,0,0,0,0,0,0,0,0,0,-1,1644,1527,0,0
427,-503,10.5968,4.9856,0,0,0,0,0,0,0,-1,1651,1527,10.5969,-4.98563
434,-503,11.4329,3.97217,0,0,0,0,0,0,0,-1,1658,1527,11.4328,-3.97222
441,-503,12.0957,2.96509,0,0,0,0,0,0,0,-1,1665,1527,12.0957,-2.96512
448,-503,12.3259,2.53894,0,0,0,0,0,0,0,-1,1672,1527,12.326,-2.53895
455,-503,12.1669,2.18762,0,0,0,0,0,0,0,-1,1679,1527,12.1668,-2.18767
462,-503,11.59,2.60791,0,0,0,0,0,0,0,-1,1686,1527,11.5899,-2.60794
469,-503,11.1625,1.61853,0,0,0,0,0,0,0,-1,1693,1527,11.1625,-1.61856
476,-503,9.07703,5.81042,0,0,0,0,0,0,0,-1,1700,1527,9.07699,-5.81047
483,-503,9.74414,6.92432,0,0,0,0,0,0,0,-1,1707,1527,9.74417,-6.9243
490,-503,10.5033,10.1071,0,0,0,0,0,0,0,-1,1714,1527,10.5032,-10.107
497,-503,15.0057,17.9476,0,0,0,0,0,0,0,-1,1721,1527,15.0058,-17.9476
504,-503,16.4764,18.4486,0,0,0,0,0,0,0,-1,1728,1527,16.4764,-18.4486
511,-503,16.8276,18.3271,0,0,0,0,0,0,0,-1,1735,1527,16.8276,-18.3272
518,-503,17.2533,18.2738,0,0,0,0,0,0,0,-1,1742,1527,17.2533,-18.2738
525,-503,19.8148,22.4634,0,0,0,0,0,0,0,-1,1749,1527,19.8148,-22.4634
532,-503,19.4836,21.95,0,0,0,0,0,0,0,-1,1756,1527,19.4837,-21.9499
539,-503,19.5153,21.4098,0.00532848,0.00524228,-0.00386418,0.0091498,0.00142097,-0.779821,0.00568571,0.0195304,1763,1527,19.5152,-21.4098
546,-503,19.545,20.8617,0.00421526,0.00400901,-0.00288824,0.00700221,0.00122205,-0.767553,0.00431881,0.0116022,1770,1527,19.5451,-20.8617
553,-503,19.5732,20.3796,0.00344085,0.00297303,-0.00217907,0.00539853,0.00101535,-0.73193,0.00331285,0.0138062,1777,1527,19.5733,-20.3796
560,-503,19.5513,19.9041,0.00291444,0.00220068,-0.0016706,0.00426586,0.000849264,-0.680168,0.00260734,0.014225,1784,1527,19.5513,-19.904
567,-503,19.557,19.4017,0.00267193,0.00172979,-0.00146951,0.00374403,0.000657688,-0.630291,0.00230824,0.0122398,1791,1527,19.557,-19.4017
574,-503,19.5441,18.924,0.00259996,0.00144357,-0.00142538,0.00355995,0.000483586,-0.592717,0.00222966,0.0117911,1798,1527,19.5441,-18.9239
581,-503,19.5046,18.4641,0.00263703,0.00124427,-0.0014889,0.00358436,0.000296939,-0.566656,0.002297,0.0146182,1805,1527,19.5046,-18.4642
588,-503,19.494,18.006,0.00284806,0.00127227,-0.00172184,0.00395371,0.000166626,-0.570825,0.00258206,0.0187135,1812,1527,19.494,-18.006
595,-503,19.4785,17.504,0.00330161,0.00134313,-0.00201755,0.00456501,7.97343e-05,-0.559464,0.00301711,0.0142163,1819,1527,19.4785,-17.504
602,-503,19.5281,16.9537,0.00384148,0.00159615,-0.00244424,0.00540855,2.9075e-05,-0.570114,0.00359605,0.0260711,1826,1527,19.5281,-16.9538
609,-503,19.5386,16.4701,0,0,0,0,0,0,0,-1,1833,1527,19.5386,-16.4701
616,-503,19.6243,15.954,0,0,0,0,0,0,0,-1,1840,1527,19.6242,-15.954
623,-503,18.7351,15.5999,0,0,0,0,0,0,0,-1,1847,1527,18.7351,-15.5999
630,-503,20.6721,13.9077,0,0,0,0,0,0,0,-1,1854,1527,20.6721,-13.9077
637,-503,14.5564,9.20496,0,0,0,0,0,0,0,-1,1861,1527,14.5564,-9.2049
644,-503,11.4802,7.57214,0,0,0,0,0,0,0,-1,1868,1527,11.4802,-7.57215
651,-503,11.5718,6.5448,0,0,0,0,0,0,0,-1,1875,1527,11.5718,-6.54476
658,-503,8.25635,3.10498,0,0,0,0,0,0,0,-1,1882,1527,8.2563,-3.10493
665,-503,0,0,0,0,0,0,0,0,0,-1,1889,1527,0,0
672,-503,0,0,0,0,0,0,0,0,0,-1,1896,1527,0,0
679,-503,0,0,0,0,0,0,0,0,0,-1,1903,1527,0,0
686,-503,0,0,0,0,0,0,0,0,0,-1,1910,1527,0,0
693,-503,0,0,0,0,0,0,0,0,0,-1,1917,1527,0,0
700,-503,0,0,0,0,0,0,0,0,0,-1,1924,1527,0,0
707,-503,0,0,0,0,0,0,0,0,0,-1,1931,1527,0,0
714,-503,0,0,0,0,0,0,0,0,0,-1,1938,1527,0,0
721,-503,0,0,0,0,0,0,0,0,0,-1,1945,1527,0,0
728,-503,0,0,0,0,0,0,0,0,0,-1,1952,1527,0,0
735,-503,0,0,0,0,0,0,0,0,0,-1,1959,1527,0,0
742,-503,0,0,0,0,0,0,0,0,0,-1,1966,1527,0,0
749,-503,0,0,0,0,0,0,0,0,0,-1,1973,1527,0,0
756,-503,0,0,0,0,0,0,0,0,0,-1,1980,1527,0,0
763,-503,0,0,0,0,0,0,0,0,0,-1,1987,1527,0,0
770,-503,0,0,0,0,0,0,0,0,0,-1,1994,1527,0,0
777,-503,0,0,0,0,0,0,0,0,0,-1,2001,1527,0,0
784,-503,0,0,0,0,0,0,0,0,0,-1,2008,1527,0,0
791,-503,0,0,0,0,0,0,0,0,0,-1,2015,1527,0,0
798,-503,0,0,0,0,0,0,0,0,0,-1,2022,1527,0,0
805,-503,0,0,0,0,0,0,0,0,0,-1,2029,1527,0,0
812,-503,0,0,0,0,0,0,0,0,0,-1,2036,1527,0,0
-700,-510,0,0,0,0,0,0,0,0,0,-1,524,1534,0,0
-693,-510,0,0,0,0,0,0,0,0,0,-1,531,1534,0,0
-686,-510,0,0,0,0,0,0,0,0,0,-1,538,1534,0,0
-679,-510,0,0,0,0,0,0,0,0,0,-1,545,1534,0,0
-672,-510,0,0,0,0,0,0,0,0,0,-1,552,1534,0,0
-665,-510,0,0,0,0,0,0,0,0,0,-1,559,1534,0,0
-658,-510,0,0,0,0,0,0,0,0,0,-1,566,1534,0,0
-651,-510,0,0,0,0,0,0,0,0,0,-1,573,1534,0,0
-644,-510,0,0,0,0,0,0,0,0,0,-1,580,1534,0,0
-637,-510,0,0,0,0,0,0,0,0,0,-1,587,1534,0,0
-630,-510,0,0,0,0,0,0,0,0,0,-1,594,1534,0,0
-623,-510,0,0,0,0,0,0,0,0,0,-1,601,1534,0,0
-616,-510,0,0,0,0,0,0,0,0,0,-1,608,1534,0,0
-609,-510,0,0,0,0,0,0,0,0,0,-1,615,1534,0,0
-602,-510,0,0,0,0,0,0,0,0,0,-1,622,1534,0,0
-595,-510,0,0,0,0,0,0,0,0,0,-1,629,1534,0,0
-588,-510,0,0,0,0,0,0,0,0,0,-1,636,1534,0,0
-581,-510,0,0,0,0,0,0,0,0,0,-1,643,1534,0,0
-574,-510,0,0,0,0,0,0,0,0,0,-1,650,1534,0,0
-567,-510,0,0,0,0,0,0,0,0,0,-1,657,1534,0,0
-560,-510,0,0,0,0,0,0,0,0,0,-1,664,1534,0,0
-553,-510,0,0,0,0,0,0,0,0,0,-1,671,1534,0,0
-546,-510,0,0,0,0,0,0,0,0,0,-1,678,1534,0,0
-539,-510,0,0,0,0,0,0,0,0,0,-1,685,1534,0,0
-532,-510,-3.95129,4.52014,0,0,0,0,0,0,0,-1,692,1534,-3.95131,-4.5202
-525,-510,-2.77411,0.316772,0,0,0,0,0,0,0,-1,699,1534,-2.77409,-0.3168
-518,-510,-2.86847,2.71423,0,0,0,0,0,0,0,-1,706,1534,-2.86849,-2.71424
-511,-510,-2.28571,4.48083,0,0,0,0,0,0,0,-1,713,1534,-2.28571,-4.48086
-504,-510,-4.86731,10.8224,0,0,0,0,0,0,0,-1,720,1534,-4.8673,-10.8224
-497,-510,-3.77045,14.0226,0,0,0,0,0,0,0,-1,727,1534,-3.77045,-14.0225
-490,-510,-2.81415,14.2625,0,0,0,0,0,0,0,-1,734,1534,-2.81416,-14.2624
-483,-510,-3.06531,14.656,0,0,0,0,0,0,0,-1,741,1534,-3.06529,-14.656
-476,-510,-3.54529,15.0359,0.00692104,-0.0105645,0.000249466,0.0069246,-0.0105681,0.0142631,0.0101722,0.04146,748,1534,-3.54528,-15.0358
-469,-510,-3.78326,15.5411,0.00548897,-0.00872013,-0.000435992,0.00550234,-0.00873349,-0.0306455,0.00828933,0.0156316,755,1534,-3.78328,-15.5411
-462,-510,-3.79749,16.0708,0.00462564,-0.00682561,-0.000517319,0.00464896,-0.00684894,-0.0450534,0.0066787,0.0112206,762,1534,-3.7975,-16.0708
-455,-510,-3.82294,16.6339,0.00397882,-0.00496597,-0.000334466,0.0039913,-0.00497846,-0.0373228,0.00518914,0.0132888,769,1534,-3.82293,-16.634
-448,-510,-3.82465,17.1526,0.00338625,-0.00347718,-0.000156577,0.00338982,-0.00348075,-0.0227974,0.00396684,0.0125911,776,1534,-3.82466,-17.1526
-441,-510,-3.84045,17.6381,0.00320334,-0.00170082,0.000544016,0.00326296,-0.00176045,0.109161,0.00294319,0.0127542,783,1534,-3.84044,-17.6381
-434,-510,-3.88947,18.1332,0.00327422,5.11092e-05,0.00145806,0.00383592,-0.000510591,0.367717,0.00274336,0.01443,790,1534,-3.88948,-18.1332
-427,-510,-3.92108,18.6213,0.00356391,0.00178698,0.00254059,0.0053669,-1.60197e-05,0.617191,0.00358329,0.0223887,797,1534,-3.92108,-18.6213
-420,-510,-3.90942,19.1318,0.00416176,0.00345076,0.00376318,0.0075862,2.63217e-05,0.738303,0.00504872,0.0212994,804,1534,-3.90945,-19.1319
-413,-510,-3.90356,19.6791,0.00502364,0.00516998,0.00520622,0.0103035,-0.000109925,0.792425,0.00690597,0.0108983,811,1534,-3.90354,-19.679
-406,-510,-3.94067,20.1702,0.00638358,0.00699287,0.00690155,0.0135965,-0.000220046,0.807454,0.00913856,0.0111166,818,1534,-3.9407,-20.1701
-399,-510,-3.94623,20.666,0.00853131,0.00951227,0.00890466,0.0179399,0.000103636,0.812911,0.0119256,0.0145137,825,1534,-3.94626,-20.666
-392,-510,-3.77045,21.3945,0.0108917,0.0134768,0.011417,0.0236742,0.000694381,0.841765,0.0155565,0.0417193,832,1534,-3.77047,-21.3946
-385,-510,-3.62665,22.2213,0,0,0,0,0,0,0,-1,839,1534,-3.62667,-22.2213
-378,-510,-1.78308,13.8044,0,0,0,0,0,0,0,-1,846,1534,-1.78309,-13.8044
-371,-510,-1.74982,13.8027,0,0,0,0,0,0,0,-1,853,1534,-1.74981,-13.8028
-364,-510,-1.3479,13.7771,0,0,0,0,0,0,0,-1,860,1534,-1.34791,-13.7771
-357,-510,-0.254395,8.89575,0,0,0,0,0,0,0,-1,867,1534,-0.254397,-8.89569
-350,-510,0.471191,6.06458,0,0,0,0,0,0,0,-1,874,1534,0.47118,-6.06453
-343,-510,-2.94617,5.00989,0,0,0,0,0,0,0,-1,881,1534,-2.94615,-5.00992
-336,-510,-3.45459,27.041,0,0,0,0,0,0,0,-1,888,1534,-3.45456,-27.041
-329,-510,-4.87781,20.6893,0,0,0,0,0,0,0,-1,895,1534,-4.87782,-20.6894
-322,-510,-0.251526,11.973,0,0,0,0,0,0,0,-1,902,1534,-0.251497,-11.9731
-315,-510,-1.73047,10.9796,0,0,0,0,0,0,0,-1,909,1534,-1.73049,-10.9796
-308,-510,-2.05328,9.72034,0,0,0,0,0,0,0,-1,916,1534,-2.05327,-9.72036
-301,-510,-1.85437,11.5869,0,0,0,0,0,0,0,-1,923,1534,-1.85437,-11.5869
-294,-510,0,0,0,0,0,0,0,0,0,-1,930,1534,0,0
-287,-510,0,0,0,0,0,0,0,0,0,-1,937,1534,0,0
-280,-510,0,0,0,0,0,0,0,0,0,-1,944,1534,0,0
-273,-510,0,0,0,0,0,0,0,0,0,-1,951,1534,0,0
-266,-510,0,0,0,0,0,0,0,0,0,-1,958,1534,0,0
-259,-510,0,0,0,0,0,0,0,0,0,-1,965,1534,0,0
-252,-510,0,0,0,0,0,0,0,0,0,-1,972,1534,0,0
-245,-510,0,0,0,0,0,0,0,0,0,-1,979,1534,0,0
-238,-510,0,0,0,0,0,0,0,0,0,-1,986,1534,0,0
-231,-510,0,0,0,0,0,0,0,0,0,-1,993,1534,0,0
-224,-510,0,0,0,0,0,0,0,0,0,-1,1000,1534,0,0
-217,-510,0,0,0,0,0,0,0,0,0,-1,1007,1534,0,0
-210,-510,0,0,0,0,0,0,0,0,0,-1,1014,1534,0,0
-203,-510,0,0,0,0,0,0,0,0,0,-1,1021,1534,0,0
-196,-510,0,0,0,0,0,0,0,0,0,-1,1028,1534,0,0
-189,-510,0,0,0,0,0,0,0,0,0,-1,1035,1534,0,0
-182,-510,0,0,0,0,0,0,0,0,0,-1,1042,1534,0,0
-175,-510,0,0,0,0,0,0,0,0,0,-1,1049,1534,0,0
-168,-510,0,0,0,0,0,0,0,0,0,-1,1056,1534,0,0
-161,-510,0,0,0,0,0,0,0,0,0,-1,1063,1534,0,0
-154,-510,0,0,0,0,0,0,0,0,0,-1,1070,1534,0,0
-147,-510,0,0,0,0,0,0,0,0,0,-1,1077,1534,0,0
-140,-510,0,0,0,0,0,0,0,0,0,-1,1084,1534,0,0
-133,-510,0,0,0,0,0,0,0,0,0,-1,1091,1534,0,0
-126,-510,0,0,0,0,0,0,0,0,0,-1,1098,1534,0,0
-119,-510,0,0,0,0,0,0,0,0,0,-1,1105,1534,0,0
-112,-510,0,0,0,0,0,0,0,0,0,-1,1112,1534,0,0
-105,-510,0,0,0,0,0,0,0,0,0,-1,1119,1534,0,0
-98,-510,0,0,0,0,0,0,0,0,0,-1,1126,1534,0,0
-91,-510,0,0,0,0,0,0,0,0,0,-1,1133,1534,0,0
-84,-510,0,0,0,0,0,0,0,0,0,-1,1140,1534,0,0
-77,-510,0,0,0,0,0,0,0,0,0,-1,1147,1534,0,0
-70,-510,0,0,0,0,0,0,0,0,0,-1,1154,1534,0,0
-63,-510,0,0,0,0,0,0,0,0,0,-1,1161,1534,0,0
-56,-510,0,0,0,0,0,0,0,0,0,-1,1168,1534,0,0
-49,-510,0,0,0,0,0,0,0,0,0,-1,1175,1534,0,0
-42,-510,0,0,0,0,0,0,0,0,0,-1,1182,1534,0,0
-35,-510,0,0,0,0,0,0,0,0,0,-1,1189,1534,0,0
-28,-510,0,0,0,0,0,0,0,0,0,-1,1196,1534,0,0
-21,-510,0,0,0,0,0,0,0,0,0,-1,1203,1534,0,0
-14,-510,0,0,0,0,0,0,0,0,0,-1,1210,1534,0,0
-7,-510,0,0,0,0,0,0,0,0,0,-1,1217,1534,0,0
0,-510,0,0,0,0,0,0,0,0,0,-1,1224,1534,0,0
7,-510,0,0,0,0,0,0,0,0,0,-1,1231,1534,0,0
14,-510,0,0,0,0,0,0,0,0,0,-1,1238,1534,0,0
21,-510,0,0,0,0,0,0,0,0,0,-1,1245,1534,0,0
28,-510,0,0,0,0,0,0,0,0,0,-1,1252,1534,0,0
35,-510,0,0,0,0,0,0,0,0,0,-1,1259,1534,0,0
42,-510,0,0,0,0,0,0,0,0,0,-1,1266,1534,0,0
49,-510,0,0,0,0,0,0,0,0,0,-1,1273,1534,0,0
56,-510,0,0,0,0,0,0,0,0,0,-1,1280,1534,0,0
63,-510,0,0,0,0,0,0,0,0,0,-1,1287,1534,0,0
70,-510,0,0,0,0,0,0,0,0,0,-1,1294,1534,0,0
77,-510,0,0,0,0,0,0,0,0,0,-1,1301,1534,0,0
84,-510,0,0,0,0,0,0,0,0,0,-1,1308,1534,0,0
91,-510,0,0,0,0,0,0,0,0,0,-1,1315,1534,0,0
98,-510,0,0,0,0,0,0,0,0,0,-1,1322,1534,0,0
105,-510,0,0,0,0,0,0,0,0,0,-1,1329,1534,0,0
112,-510,0,0,0,0,0,0,0,0,0,-1,1336,1534,0,0
119,-510,0,0,0,0,0,0,0,0,0,-1,1343,1534,0,0
126,-510,0,0,0,0,0,0,0,0,0,-1,1350,1534,0,0
133,-510,0,0,0,0,0,0,0,0,0,-1,1357,1534,0,0
140,-510,0,0,0,0,0,0,0,0,0,-1,1364,1534,0,0
147,-510,0,0,0,0,0,0,0,0,0,-1,1371,1534,0,0
154,-510,0,0,0,0,0,0,0,0,0,-1,1378,1534,0,0
161,-510,0,0,0,0,0,0,0,0,0,-1,1385,1534,0,0
168,-510,0,0,0,0,0,0,0,0,0,-1,1392,1534,0,0
175,-510,0,0,0,0,0,0,0,0,0,-1,1399,1534,0,0
182,-510,0,0,0,0,0,0,0,0,0,-1,1406,1534,0,0
189,-510,0,0,0,0,0,0,0,0,0,-1,1413,1534,0,0
196,-510,0,0,0,0,0,0,0,0,0,-1,1420,1534,0,0
203,-510,0,0,0,0,0,0,0,0,0,-1,1427,1534,0,0
210,-510,0,0,0,0,0,0,0,0,0,-1,1434,1534,0,0
217,-510,0,0,0,0,0,0,0,0,0,-1,1441,1534,0,0
224,-510,0,0,0,0,0,0,0,0,0,-1,1448,1534,0,0
231,-510,0,0,0,0,0,0,0,0,0,-1,1455,1534,0,0
238,-510,0,0,0,0,0,0,0,0,0,-1,1462,1534,0,0
245,-510,0,0,0,0,0,0,0,0,0,-1,1469,1534,0,0
252,-510,0,0,0,0,0,0,0,0,0,-1,1476,1534,0,0
259,-510,0,0,0,0,0,0,0,0,0,-1,1483,1534,0,0
266,-510,0,0,0,0,0,0,0,0,0,-1,1490,1534,0,0
273,-510,0,0,0,0,0,0,0,0,0,-1,1497,1534,0,0
280,-510,0,0,0,0,0,0,0,0,0,-1,1504,1534,0,0
287,-510,0,0,0,0,0,0,0,0,0,-1,1511,1534,0,0
294,-510,0,0,0,0,0,0,0,0,0,-1,1518,1534,0,0
301,-510,0,0,0,0,0,0,0,0,0,-1,1525,1534,0,0
308,-510,0,0,0,0,0,0,0,0,0,-1,1532,1534,0,0
315,-510,0,0,0,0,0,0,0,0,0,-1,1539,1534,0,0
322,-510,0,0,0,0,0,0,0,0,0,-1,1546,1534,0,0
329,-510,0,0,0,0,0,0,0,0,0,-1,1553,1534,0,0
336,-510,0,0,0,0,0,0,0,0,0,-1,1560,1534,0,0
343,-510,0,0,0,0,0,0,0,0,0,-1,1567,1534,0,0
350,-510,0,0,0,0,0,0,0,0,0,-1,1574,1534,0,0
357,-510,0,0,0,0,0,0,0,0,0,-1,1581,1534,0,0
364,-510,0,0,0,0,0,0,0,0,0,-1,1588,1534,0,0
371,-510,0,0,0,0,0,0,0,0,0,-1,1595,1534,0,0
378,-510,0,0,0,0,0,0,0,0,0,-1,1602,1534,0,0
385,-510,0,0,0,0,0,0,0,0,0,-1,1609,1534,0,0
392,-510,0,0,0,0,0,0,0,0,0,-1,1616,1534,0,0
399,-510,0,0,0,0,0,0,0,0,0,-1,1623,1534,0,0
406,-510,0,0,0,0,0,0,0,0,0,-1,1630,1534,0,0
413,-510,0,0,0,0,0,0,0,0,0,-1,1637,1534,0,0
420,-510,14.1888,6.71936,0,0,0,0,0,0,0,-1,1644,1534,14.1889,-6.71939
427,-510,10.2134,5.59485,0,0,0,0,0,0,0,-1,1651,1534,10.2134,-5.59485
434,-510,11.8219,4.07898,0,0,0,0,0,0,0,-1,1658,1534,11.8219,-4.07895
441,-510,12.6812,3.02991,0,0,0,0,0,0,0,-1,1665,1534,12.6811,-3.0299
448,-510,13.2379,2.2804,0,0,0,0,0,0,0,-1,1672,1534,13.2379,-2.28037
455,-510,9.76892,2.20642,0,0,0,0,0,0,0,-1,1679,1534,9.76894,-2.20647
462,-510,9.84692,2.49182,0,0,0,0,0,0,0,-1,1686,1534,9.84695,-2.49185
469,-510,16.6072,7.26941,0,0,0,0,0,0,0,-1,1693,1534,16.6072,-7.26945
476,-510,15.9199,7.8645,0,0,0,0,0,0,0,-1,1700,1534,15.9199,-7.86455
483,-510,13.0833,8.10938,0,0,0,0,0,0,0,-1,1707,1534,13.0833,-8.10932
490,-510,13.0841,15.3286,0,0,0,0,0,0,0,-1,1714,1534,13.0841,-15.3286
497,-510,15.5652,18.823,0,0,0,0,0,0,0,-1,1721,1534,15.5652,-18.823
504,-510,15.998,18.7478,0,0,0,0,0,0,0,-1,1728,1534,15.998,-18.7478
511,-510,15.9443,18.0476,0,0,0,0,0,0,0,-1,1735,1534,15.9443,-18.0476
518,-510,18.6038,22.6904,0,0,0,0,0,0,0,-1,1742,1534,18.6037,-22.6904
525,-510,18.743,22.5356,0,0,0,0,0,0,0,-1,1749,1534,18.743,-22.5356
532,-510,19.0518,21.8888,0.00567117,0.00592459,-0.00434105,0.0101408,0.00145497,-0.799988,0.0063315,0.0231574,1756,1534,19.0518,-21.8888
539,-510,19.1178,21.3253,0.00447009,0.00451438,-0.00329018,0.00778249,0.00120198,-0.788763,0.0048377,0.014219,1763,1534,19.1177,-21.3253
546,-510,19.0978,20.8777,0.00358316,0.00339414,-0.00247146,0.00596192,0.00101539,-0.766287,0.0036831,0.0117213,1770,1534,19.0977,-20.8777
553,-510,19.0946,20.389,0.00298322,0.0024287,-0.00186098,0.00458748,0.000824437,-0.711449,0.00282391,0.0124862,1777,1534,19.0946,-20.389
560,-510,19.0641,19.8815,0.00262984,0.00171256,-0.00142949,0.00367246,0.000669939,-0.630163,0.00225836,0.0132674,1784,1534,19.0641,-19.8815
567,-510,19.046,19.3989,0.00256229,0.00132749,-0.0013129,0.00339571,0.000494065,-0.565614,0.00211841,0.0124703,1791,1534,19.046,-19.3989
574,-510,19.0433,18.9359,0.00265717,0.00113482,-0.00134949,0.00344535,0.000346638,-0.528616,0.00219052,0.0129944,1798,1534,19.0433,-18.9359
581,-510,19.0145,18.4962,0.00289633,0.00106755,-0.00153339,0.00376726,0.000196613,-0.516543,0.0024486,0.0125414,1805,1534,19.0145,-18.4962
588,-510,18.9913,18.0364,0.00331822,0.00129013,-0.0019221,0.00447737,0.000130983,-0.542669,0.00294222,0.0136379,1812,1534,18.9914,-18.0364
595,-510,19.1229,17.4049,0.00395102,0.00164684,-0.00240534,0.00546594,0.000131914,-0.562056,0.00360079,0.0251525,1819,1534,19.123,-17.4049
602,-510,19.1755,16.7598,0,0,0,0,0,0,0,-1,1826,1534,19.1756,-16.7598
609,-510,17.2866,14.8556,0,0,0,0,0,0,0,-1,1833,1534,17.2866,-14.8556
616,-510,18.7024,16.2474,0,0,0,0,0,0,0,-1,1840,1534,18.7024,-16.2474
623,-510,19.6013,14.6211,0,0,0,0,0,0,0,-1,1847,1534,19.6013,-14.6211
630,-510,13.7461,9.30334,0,0,0,0,0,0,0,-1,1854,1534,13.7461,-9.30335
637,-510,11.0155,7.38464,0,0,0,0,0,0,0,-1,1861,1534,11.0155,-7.38463
644,-510,11.5809,7.17126,0,0,0,0,0,0,0,-1,1868,1534,11.5809,-7.17123
651,-510,8.70471,3.5061,0,0,0,0,0,0,0,-1,1875,1534,8.70475,-3.50611
658,-510,0,0,0,0,0,0,0,0,0,-1,1882,1534,0,0
665,-510,0,0,0,0,0,0,0,0,0,-1,1889,1534,0,0
672,-510,0,0,0,0,0,0,0,0,0,-1,1896,1534,0,0
679,-510,0,0,0,0,0,0,0,0,0,-1,1903,1534,0,0
686,-510,0,0,0,0,0,0,0,0,0,-1,1910,1534,0,0
693,-510,0,0,0,0,0,0,0,0,0,-1,1917,1534,0,0
700,-510,0,0,0,0,0,0,0,0,0,-1,1924,1534,0,0
707,-510,0,0,0,0,0,0,0,0,0,-1,1931,1534,0,0
714,-510,0,0,0,0,0,0,0,0,0,-1,1938,1534,0,0
721,-510,0,0,0,0,0,0,0,0,0,-1,1945,1534,0,0
728,-510,0,0,0,0,0,0,0,0,0,-1,1952,1534,0,0
735,-510,0,0,0,0,0,0,0,0,0,-1,1959,1534,0,0
742,-510,0,0,0,0,0,0,0,0,0,-1,1966,1534,0,0
749,-510,0,0,0,0,0,0,0,0,0,-1,1973,1534,0,0
756,-510,0,0,0,0,0,0,0,0,0,-1,1980,1534,0,0
763,-510,0,0,0,0,0,0,0,0,0,-1,1987,1534,0,0
770,-510,0,0,0,0,0,0,0,0,0,-1,1994,1534,0,0
777,-510,0,0,0,0,0,0,0,0,0,-1,2001,1534,0,0
784,-510,0,0,0,0,0,0,0,0,0,-1,2008,1534,0,0
791,-510,0,0,0,0,0,0,0,0,0,-1,2015,1534,0,0
798,-510,0,0,0,0,0,0,0,0,0,-1,2022,1534,0,0
805,-510,0,0,0,0,0,0,0,0,0,-1,2029,1534,0,0
812,-510,0,0,0,0,0,0,0,0,0,-1,2036,1534,0,0
-700,-517,0,0,0,0,0,0,0,0,0,-1,524,1541,0,0
-693,-517,0,0,0,0,0,0,0,0,0,-1,531,1541,0,0
-686,-517,0,0,0,0,0,0,0,0,0,-1,538,1541,0,0
-679,-517,0,0,0,0,0,0,0,0,0,-1,545,1541,0,0
-672,-517,0,0,0,0,0,0,0,0,0,-1,552,1541,0,0
-665,-517,0,0,0,0,0,0,0,0,0,-1,559,1541,0,0
-658,-517,0,0,0,0,0,0,0,0,0,-1,566,1541,0,0
-651,-517,0,0,0,0,0,0,0,0,0,-1,573,1541,0,0
-644,-517,0,0,0,0,0,0,0,0,0,-1,580,1541,0,0
-637,-517,0,0,0,0,0,0,0,0,0,-1,587,1541,0,0
-630,-517,0,0,0,0,0,0,0,0,0,-1,594,1541,0,0
-623,-517,0,0,0,0,0,0,0,0,0,-1,601,1541,0,0
-616,-517,0,0,0,0,0,0,0,0,0,-1,608,1541,0,0
-609,-517,0,0,0,0,0,0,0,0,0,-1,615,1541,0,0
-602,-517,0,0,0,0,0,0,0,0,0,-1,622,1541,0,0
-595,-517,0,0,0,0,0,0,0,0,0,-1,629,1541,0,0
-588,-517,0,0,0,0,0,0,0,0,0,-1,636,1541,0,0
-581,-517,0,0,0,0,0,0,0,0,0,-1,643,1541,0,0
-574,-517,0,0,0,0,0,0,0,0,0,-1,650,1541,0,0
-567,-517,0,0,0,0,0,0,0,0,0,-1,657,1541,0,0
-560,-517,0,0,0,0,0,0,0,0,0,-1,664,1541,0,0
-553,-517,0,0,0,0,0,0,0,0,0,-1,671,1541,0,0
-546,-517,0,0,0,0,0,0,0,0,0,-1,678,1541,0,0
-539,-517,0,0,0,0,0,0,0,0,0,-1,685,1541,0,0
-532,-517,0,0,0,0,0,0,0,0,0,-1,692,1541,0,0
-525,-517,-3.62903,4.3606,0,0,0,0,0,0,0,-1,699,1541,-3.62904,-4.36056
-518,-517,-1.664,2.27209,0,0,0,0,0,0,0,-1,706,1541,-1.66399,-2.27207
-511,-517,-0.999146,5.52063,0,0,0,0,0,0,0,-1,713,1541,-0.999126,-5.52059
-504,-517,-1.06946,8.67432,0,0,0,0,0,0,0,-1,720,1541,-1.06947,-8.6743
-497,-517,-3.77197,13.7031,0,0,0,0,0,0,0,-1,727,1541,-3.77197,-13.7031
-490,-517,-3.60895,14.4758,0,0,0,0,0,0,0,-1,734,1541,-3.60896,-14.4759
-483,-517,-2.39746,14.8229,0,0,0,0,0,0,0,-1,741,1541,-2.39745,-14.8229
-476,-517,-2.98749,15.0127,0,0,0,0,0,0,0,-1,748,1541,-2.98748,-15.0127
-469,-517,-3.19696,15.5708,0.0083005,-0.0107828,-0.00050895,0.00831407,-0.0107963,-0.0266447,0.0110644,0.0213335,755,1541,-3.19695,-15.5708
-462,-517,-3.29846,16.0739,0.00684523,-0.00834391,-0.000666694,0.00687444,-0.00837312,-0.0437806,0.00881734,0.0190277,762,1541,-3.29846,-16.0738
-455,-517,-3.29913,16.6339,0.0056212,-0.00609138,-0.000575369,0.0056494,-0.00611957,-0.0489669,0.00679663,0.0138489,769,1541,-3.29912,-16.6339
-448,-517,-3.3017,17.1664,0.00446662,-0.0043668,-0.00051221,0.00449623,-0.0043964,-0.0577276,0.00513427,0.013194,776,1541,-3.30167,-17.1664
-441,-517,-3.34851,17.6577,0.00374061,-0.00251841,1.62946e-05,0.00374066,-0.00251845,0.00260335,0.00363659,0.0117142,783,1541,-3.34852,-17.6577
-434,-517,-3.35101,18.1543,0.00332655,-0.000784348,0.000741879,0.00345634,-0.000914135,0.173191,0.00266179,0.0140375,790,1541,-3.35099,-18.1543
-427,-517,-3.37256,18.6506,0.00318681,0.000868889,0.00162997,0.00402785,2.78491e-05,0.476353,0.002676,0.0140012,797,1541,-3.37257,-18.6506
-420,-517,-3.41418,19.2002,0.00343757,0.00239826,0.00264799,0.00561642,0.000219415,0.688507,0.00367333,0.0204365,804,1541,-3.4142,-19.2002
-413,-517,-3.42358,19.6942,0.00393439,0.00404958,0.00379356,0.00778599,0.000197987,0.792989,0.00512594,0.0103511,811,1541,-3.42356,-19.6942
-406,-517,-3.43463,20.2013,0.00485654,0.00574503,0.00519093,0.0105107,9.08831e-05,0.828085,0.00697703,0.0104482,818,1541,-3.43465,-20.2013
-399,-517,-3.43372,20.7072,0.00641313,0.00786913,0.00680806,0.013988,0.000294257,0.838662,0.00922882,0.0105464,825,1541,-3.43369,-20.7071
-392,-517,-3.42023,21.2174,0.00822418,0.0111217,0.00879736,0.0185888,0.000757093,0.867007,0.012148,0.0157583,832,1541,-3.42025,-21.2174
-385,-517,-3.32953,22.0135,0.00990951,0.0140728,0.0109947,0.0231812,0.000801081,0.878956,0.0151942,0.0377105,839,1541,-3.32956,-22.0135
-378,-517,-3.20306,22.9534,0,0,0,0,0,0,0,-1,846,1541,-3.20307,-22.9533
-371,-517,-1.37585,13.2646,0,0,0,0,0,0,0,-1,853,1541,-1.37586,-13.2647
-364,-517,-1.26245,12.6289,0,0,0,0,0,0,0,-1,860,1541,-1.26243,-12.6289
-357,-517,-1.23889,12.979,0,0,0,0,0,0,0,-1,867,1541,-1.23891,-12.979
-350,-517,0.722412,10.0829,0,0,0,0,0,0,0,-1,874,1541,0.722399,-10.0828
-343,-517,-4.05316,26.201,0,0,0,0,0,0,0,-1,881,1541,-4.05319,-26.2011
-336,-517,-3.28888,26.9882,0,0,0,0,0,0,0,-1,888,1541,-3.28885,-26.9882
-329,-517,-2.52454,27.7753,0,0,0,0,0,0,0,-1,895,1541,-2.52452,-27.7753
-322,-517,-4.21246,19.5819,0,0,0,0,0,0,0,-1,902,1541,-4.21244,-19.5819
-315,-517,-0.987976,7.29749,0,0,0,0,0,0,0,-1,909,1541,-0.987993,-7.29743
-308,-517,3.27911,17.621,0,0,0,0,0,0,0,-1,916,1541,3.27913,-17.621
-301,-517,-1.69141,8.87488,0,0,0,0,0,0,0,-1,923,1541,-1.69141,-8.87485
-294,-517,-1.72583,9.92566,0,0,0,0,0,0,0,-1,930,1541,-1.72584,-9.92571
-287,-517,-3.09045,12.1472,0,0,0,0,0,0,0,-1,937,1541,-3.09043,-12.1472
-280,-517,0,0,0,0,0,0,0,0,0,-1,944,1541,0,0
-273,-517,0,0,0,0,0,0,0,0,0,-1,951,1541,0,0
-266,-517,0,0,0,0,0,0,0,0,0,-1,958,1541,0,0
-259,-517,0,0,0,0,0,0,0,0,0,-1,965,1541,0,0
-252,-517,0,0,0,0,0,0,0,0,0,-1,972,1541,0,0
-245,-517,0,0,0,0,0,0,0,0,0,-1,979,1541,0,0
-238,-517,0,0,0,0,0,0,0,0,0,-1,986,1541,0,0
-231,-517,0,0,0,0,0,0,0,0,0,-1,993,1541,0,0
-224,-517,0,0,0,0,0,0,0,0,0,-1,1000,1541,0,0
-217,-517,0,0,0,0,0,0,0,0,0,-1,1007,1541,0,0
-210,-517,0,0,0,0,0,0,0,0,0,-1,1014,1541,0,0
-203,-517,0,0,0,0,0,0,0,0,0,-1,1021,1541,0,0
-196,-517,0,0,0,0,0,0,0,0,0,-1,1028,1541,0,0
-189,-517,0,0,0,0,0,0,0,0,0,-1,1035,1541,0,0
-182,-517,0,0,0,0,0,0,0,0,0,-1,1042,1541,0,0
-175,-517,0,0,0,0,0,0,0,0,0,-1,1049,1541,0,0
-168,-517,0,0,0,0,0,0,0,0,0,-1,1056,1541,0,0
-161,-517,0,0,0,0,0,0,0,0,0,-1,1063,1541,0,0
-154,-517,0,0,0,0,0,0,0,0,0,-1,1070,1541,0,0
-147,-517,0,0,0,0,0,0,0,0,0,-1,1077,1541,0,0
-140,-517,0,0,0,0,0,0,0,0,0,-1,1084,1541,0,0
-133,-517,0,0,0,0,0,0,0,0,0,-1,1091,1541,0,0
-126,-517,0,0,0,0,0,0,0,0,0,-1,1098,1541,0,0
-119,-517,0,0,0,0,0,0,0,0,0,-1,1105,1541,0,0
-112,-517,0,0,0,0,0,0,0,0,0,-1,1112,1541,0,0
-105,-517,0,0,0,0,0,0,0,0,0,-1,1119,1541,0,0
-98,-517,0,0,0,0,0,0,0,0,0,-1,1126,1541,0,0
-91,-517,0,0,0,0,0,0,0,0,0,-1,1133,1541,0,0
-84,-517,0,0,0,0,0,0,0,0,0,-1,1140,1541,0,0
-77,-517,0,0,0,0,0,0,0,0,0,-1,1147,1541,0,0
-70,-517,0,0,0,0,0,0,0,0,0,-1,1154,1541,0,0
-63,-517,0,0,0,0,0,0,0,0,0,-1,1161,1541,0,0
-56,-517,0,0,0,0,0,0,0,0,0,-1,1168,1541,0,0
-49,-517,0,0,0,0,0,0,0,0,0,-1,1175,1541,0,0
-42,-517,0,0,0,0,0,0,0,0,0,-1,1182,1541,0,0
-35,-517,0,0,0,0,0,0,0,0,0,-1,1189,1541,0,0
-28,-517,0,0,0,0,0,0,0,0,0,-1,1196,1541,0,0
-21,-517,0,0,0,0,0,0,0,0,0,-1,1203,1541,0,0
-14,-517,0,0,0,0,0,0,0,0,0,-1,1210,1541,0,0
-7,-517,0,0,0,0,0,0,0,0,0,-1,1217,1541,0,0
0,-517,0,0,0,0,0,0,0,0,0,-1,1224,1541,0,0
7,-517,0,0,0,0,0,0,0,0,0,-1,1231,1541,0,0
14,-517,0,0,0,0,0,0,0,0,0,-1,1238,1541,0,0
21,-517,0,0,0,0,0,0,0,0,0,-1,1245,1541,0,0
28,-517,0,0,0,0,0,0,0,0,0,-1,1252,1541,0,0
35,-517,0,0,0,0,0,0,0,0,0,-1,1259,1541,0,0
42,-517,0,0,0,0,0,0,0,0,0,-1,1266,1541,0,0
49,-517,0,0,0,0,0,0,0,0,0,-1,1273,1541,0,0
56,-517,0,0,0,0,0,0,0,0,0,-1,1280,1541,0,0
63,-517,0,0,0,0,0,0,0,0,0,-1,1287,1541,0,0
70,-517,0,0,0,0,0,0,0,0,0,-1,1294,1541,0,0
77,-517,0,0,0,0,0,0,0,0,0,-1,1301,1541,0,0
84,-517,0,0,0,0,0,0,0,0,0,-1,1308,1541,0,0
91,-517,0,0,0,0,0,0,0,0,0,-1,1315,1541,0,0
98,-517,0,0,0,0,0,0,0,0,0,-1,1322,1541,0,0
105,-517,0,0,0,0,0,0,0,0,0,-1,1329,1541,0,0
112,-517,0,0,0,0,0,0,0,0,0,-1,1336,1541,0,0
119,-517,0,0,0,0,0,0,0,0,0,-1,1343,1541,0,0
126,-517,0,0,0,0,0,0,0,0,0,-1,1350,1541,0,0
133,-517,0,0,0,0,0,0,0,0,0,-1,1357,1541,0,0
140,-517,0,0,0,0,0,0,0,0,0,-1,1364,1541,0,0
147,-517,0,0,0,0,0,0,0,0,0,-1,1371,1541,0,0
154,-517,0,0,0,0,0,0,0,0,0,-1,1378,1541,0,0
161,-517,0,0,0,0,0,0,0,0,0,-1,1385,1541,0,0
168,-517,0,0,0,0,0,0,0,0,0,-1,1392,1541,0,0
175,-517,0,0,0,0,0,0,0,0,0,-1,1399,1541,0,0
182,-517,0,0,0,0,0,0,0,0,0,-1,1406,1541,0,0
189,-517,0,0,0,0,0,0,0,0,0,-1,1413,1541,0,0
196,-517,0,0,0,0,0,0,0,0,0,-1,1420,1541,0,0
203,-517,0,0,0,0,0,0,0,0,0,-1,1427,1541,0,0
210,-517,0,0,0,0,0,0,0,0,0,-1,1434,1541,0,0
217,-517,0,0,0,0,0,0,0,0,0,-1,1441,1541,0,0
224,-517,0,0,0,0,0,0,0,0,0,-1,1448,1541,0,0
231,-517,0,0,0,0,0,0,0,0,0,-1,1455,1541,0,0
238,-517,0,0,0,0,0,0,0,0,0,-1,1462,1541,0,0
245,-517,0,0,0,0,0,0,0,0,0,-1,1469,1541,0,0
252,-517,0,0,0,0,0,0,0,0,0,-1,1476,1541,0,0
259,-517,0,0,0,0,0,0,0,0,0,-1,1483,1541,0,0
266,-517,0,0,0,0,0,0,0,0,0,-1,1490,1541,0,0
273,-517,0,0,0,0,0,0,0,0,0,-1,1497,1541,0,0
280,-517,0,0,0,0,0,0,0,0,0,-1,1504,1541,0,0
287,-517,0,0,0,0,0,0,0,0,0,-1,1511,1541,0,0
294,-517,0,0,0,0,0,0,0,0,0,-1,1518,1541,0,0
301,-517,0,0,0,0,0,0,0,0,0,-1,1525,1541,0,0
308,-517,0,0,0,0,0,0,0,0,0,-1,1532,1541,0,0
315,-517,0,0,0,0,0,0,0,0,0,-1,1539,1541,0,0
322,-517,0,0,0,0,0,0,0,0,0,-1,1546,1541,0,0
329,-517,0,0,0,0,0,0,0,0,0,-1,1553,1541,0,0
336,-517,0,0,0,0,0,0,0,0,0,-1,1560,1541,0,0
343,-517,0,0,0,0,0,0,0,0,0,-1,1567,1541,0,0
350,-517,0,0,0,0,0,0,0,0,0,-1,1574,1541,0,0
357,-517,0,0,0,0,0,0,0,0,0,-1,1581,1541,0,0
364,-517,0,0,0,0,0,0,0,0,0,-1,1588,1541,0,0
371,-517,0,0,0,0,0,0,0,0,0,-1,1595,1541,0,0
378,-517,0,0,0,0,0,0,0,0,0,-1,1602,1541,0,0
385,-517,0,0,0,0,0,0,0,0,0,-1,1609,1541,0,0
392,-517,0,0,0,0,0,0,0,0,0,-1,1616,1541,0,0
399,-517,0,0,0,0,0,0,0,0,0,-1,1623,1541,0,0
406,-517,13.1395,7.01978,0,0,0,0,0,0,0,-1,1630,1541,13.1396,-7.01981
413,-517,12.8859,6.31592,0,0,0,0,0,0,0,-1,1637,1541,12.8858,-6.31588
420,-517,12.4789,6.20337,0,0,0,0,0,0,0,-1,1644,1541,12.4789,-6.20333
427,-517,11.647,4.66516,0,0,0,0,0,0,0,-1,1651,1541,11.647,-4.66519
434,-517,12.3719,3.92773,0,0,0,0,0,0,0,-1,1658,1541,12.3719,-3.92776
441,-517,13.146,3.14124,0,0,0,0,0,0,0,-1,1665,1541,13.146,-3.14121
448,-517,13.8861,2.36682,0,0,0,0,0,0,0,-1,1672,1541,13.8861,-2.36684
455,-517,13.6012,4.06335,0,0,0,0,0,0,0,-1,1679,1541,13.6012,-4.06335
462,-517,14.8956,7.0752,0,0,0,0,0,0,0,-1,1686,1541,14.8956,-7.07525
469,-517,13.6292,6.87744,0,0,0,0,0,0,0,-1,1693,1541,13.6292,-6.87739
476,-517,17.1632,14.1487,0,0,0,0,0,0,0,-1,1700,1541,17.1632,-14.1487
483,-517,16.5157,15.0776,0,0,0,0,0,0,0,-1,1707,1541,16.5157,-15.0777
490,-517,15.5439,18.0258,0,0,0,0,0,0,0,-1,1714,1541,15.5439,-18.0258
497,-517,16.0292,18.7786,0,0,0,0,0,0,0,-1,1721,1541,16.0291,-18.7786
504,-517,17.3815,22.3873,0,0,0,0,0,0,0,-1,1728,1541,17.3814,-22.3873
511,-517,16.9674,21.8491,0,0,0,0,0,0,0,-1,1735,1541,16.9674,-21.8491
518,-517,18.3353,22.868,0,0,0,0,0,0,0,-1,1742,1541,18.3354,-22.8681
525,-517,18.5138,22.3455,0.00634479,0.0063722,-0.00533242,0.0116909,0.00102606,-0.786683,0.00747545,0.0233516,1749,1541,18.5138,-22.3454
532,-517,18.6522,21.7828,0.0048461,0.00495327,-0.00404964,0.00894968,0.000849692,-0.792014,0.00570435,0.0122951,1756,1541,18.6523,-21.7829
539,-517,18.6602,21.3196,0.00381619,0.00375988,-0.00297481,0.00676298,0.000813087,-0.780666,0.00426354,0.01328,1763,1541,18.6602,-21.3196
546,-517,18.6465,20.8783,0.00302663,0.00277545,-0.00207328,0.00497813,0.000823963,-0.755147,0.00308104,0.0130828,1770,1541,18.6465,-20.8783
553,-517,18.613,20.3911,0.00248935,0.00189925,-0.0013328,0.00355937,0.000829231,-0.676467,0.00215047,0.0162953,1777,1541,18.6131,-20.3911
560,-517,18.6151,19.9054,0.00221704,0.00125102,-0.000775818,0.00264792,0.000820143,-0.506968,0.00156524,0.016707,1784,1541,18.6151,-19.9054
567,-517,18.5977,19.4574,0.00224775,0.000929039,-0.000558791,0.00245268,0.000724105,-0.351515,0.0014551,0.0136337,1791,1541,18.5977,-19.4573
574,-517,18.5784,18.9639,0.00246097,0.000795663,-0.000528687,0.00261463,0.000641999,-0.282859,0.00157337,0.0146889,1798,1541,18.5783,-18.9639
581,-517,18.5511,18.499,0.00289086,0.00081614,-0.000733034,0.00312372,0.000583281,-0.307583,0.00191785,0.0159803,1805,1541,18.5512,-18.499
588,-517,18.525,18.0282,0.00354165,0.00117527,-0.00121356,0.00405335,0.000663566,-0.399035,0.00251045,0.0167322,1812,1541,18.525,-18.0282
595,-517,18.7922,17.2875,0,0,0,0,0,0,0,-1,1819,1541,18.7923,-17.2875
602,-517,15.8027,13.5498,0,0,0,0,0,0,0,-1,1826,1541,15.8027,-13.5498
609,-517,12.6417,10.8751,0,0,0,0,0,0,0,-1,1833,1541,12.6417,-10.8751
616,-517,14.205,10.3193,0,0,0,0,0,0,0,-1,1840,1541,14.205,-10.3194
623,-517,12.578,10.0779,0,0,0,0,0,0,0,-1,1847,1541,12.578,-10.0779
630,-517,11.7035,7.47815,0,0,0,0,0,0,0,-1,1854,1541,11.7035,-7.47812
637,-517,11.5172,5.79822,0,0,0,0,0,0,0,-1,1861,1541,11.5173,-5.79825
644,-517,11.4232,3.30579,0,0,0,0,0,0,0,-1,1868,1541,11.4232,-3.30574
651,-517,0,0,0,0,0,0,0,0,0,-1,1875,1541,0,0
658,-517,0,0,0,0,0,0,0,0,0,-1,1882,1541,0,0
665,-517,0,0,0,0,0,0,0,0,0,-1,1889,1541,0,0
672,-517,0,0,0,0,0,0,0,0,0,-1,1896,1541,0,0
679,-517,0,0,0,0,0,0,0,0,0,-1,1903,1541,0,0
686,-517,0,0,0,0,0,0,0,0,0,-1,1910,1541,0,0
693,-517,0,0,0,0,0,0,0,0,0,-1,1917,1541,0,0
700,-517,0,0,0,0,0,0,0,0,0,-1,1924,1541,0,0
707,-517,0,0,0,0,0,0,0,0,0,-1,1931,1541,0,0
714,-517,0,0,0,0,0,0,0,0,0,-1,1938,1541,0,0
721,-517,0,0,0,0,0,0,0,0,0,-1,1945,1541,0,0
728,-517,0,0,0,0,0,0,0,0,0,-1,1952,1541,0,0
735,-517,0,0,0,0,0,0,0,0,0,-1,1959,1541,0,0
742,-517,0,0,0,0,0,0,0,0,0,-1,1966,1541,0,0
749,-517,0,0,0,0,0,0,0,0,0,-1,1973,1541,0,0
756,-517,0,0,0,0,0,0,0,0,0,-1,1980,1541,0,0
763,-517,0,0,0,0,0,0,0,0,0,-1,1987,1541,0,0
770,-517,0,0,0,0,0,0,0,0,0,-1,1994,1541,0,0
777,-517,0,0,0,0,0,0,0,0,0,-1,2001,1541,0,0
784,-517,0,0,0,0,0,0,0,0,0,-1,2008,1541,0,0
791,-517,0,0,0,0,0,0,0,0,0,-1,2015,1541,0,0
798,-517,0,0,0,0,0,0,0,0,0,-1,2022,1541,0,0
805,-517,0,0,0,0,0,0,0,0,0,-1,2029,1541,0,0
812,-517,0,0,0,0,0,0,0,0,0,-1,2036,1541,0,0
-700,-524,0,0,0,0,0,0,0,0,0,-1,524,1548,0,0
-693,-524,0,0,0,0,0,0,0,0,0,-1,531,1548,0,0
-686,-524,0,0,0,0,0,0,0,0,0,-1,538,1548,0,0
-679,-524,0,0,0,0,0,0,0,0,0,-1,545,1548,0,0
-672,-524,0,0,0,0,0,0,0,0,0,-1,552,1548,0,0
-665,-524,0,0,0,0,0,0,0,0,0,-1,559,1548,0,0
-658,-524,0,0,0,0,0,0,0,0,0,-1,566,1548,0,0
-651,-524,0,0,0,0,0,0,0,0,0,-1,573,1548,0,0
-644,-524,0,0,0,0,0,0,0,0,0,-1,580,1548,0,0
-637,-524,0,0,0,0,0,0,0,0,0,-1,587,1548,0,0
-630,-524,0,0,0,0,0,0,0,0,0,-1,594,1548,0,0
-623,-524,0,0,0,0,0,0,0,0,0,-1,601,1548,0,0
-616,-524,0,0,0,0,0,0,0,0,0,-1,608,1548,0,0
-609,-524,0,0,0,0,0,0,0,0,0,-1,615,1548,0,0
-602,-524,0,0,0,0,0,0,0,0,0,-1,622,1548,0,0
-595,-524,0,0,0,0,0,0,0,0,0,-1,629,1548,0,0
-588,-524,0,0,0,0,0,0,0,0,0,-1,636,1548,0,0
-581,-524,0,0,0,0,0,0,0,0,0,-1,643,1548,0,0
-574,-524,0,0,0,0,0,0,0,0,0,-1,650,1548,0,0
-567,-524,0,0,0,0,0,0,0,0,0,-1,657,1548,0,0
-560,-524,0,0,0,0,0,0,0,0,0,-1,664,1548,0,0
-553,-524,0,0,0,0,0,0,0,0,0,-1,671,1548,0,0
-546,-524,0,0,0,0,0,0,0,0,0,-1,678,1548,0,0
-539,-524,0,0,0,0,0,0,0,0,0,-1,685,1548,0,0
-532,-524,0,0,0,0,0,0,0,0,0,-1,692,1548,0,0
-525,-524,-0.215515,3.97131,0,0,0,0,0,0,0,-1,699,1548,-0.215501,-3.97136
-518,-524,-0.806274,4.35632,0,0,0,0,0,0,0,-1,706,1548,-0.806259,-4.35633
-511,-524,-1.08301,4.29004,0,0,0,0,0,0,0,-1,713,1548,-1.08301,-4.29006
-504,-524,-1.28821,3.98145,0,0,0,0,0,0,0,-1,720,1548,-1.28822,-3.98151
-497,-524,-0.328491,8.63416,0,0,0,0,0,0,0,-1,727,1548,-0.328487,-8.63411
-490,-524,-3.34631,14.4003,0,0,0,0,0,0,0,-1,734,1548,-3.34631,-14.4002
-483,-524,-2.35315,14.5936,0,0,0,0,0,0,0,-1,741,1548,-2.35318,-14.5937
-476,-524,-2.90045,15.5168,0,0,0,0,0,0,0,-1,748,1548,-2.90045,-15.5168
-469,-524,-2.87677,15.9442,0.0120996,-0.0125801,-0.000403797,0.0121062,-0.0125867,-0.0163557,0.0142573,0.0379563,755,1548,-2.8768,-15.9442
-462,-524,-2.73541,16.2675,0.00990763,-0.00950532,-0.000605828,0.00992652,-0.00952421,-0.031167,0.0112307,0.0300588,762,1548,-2.73541,-16.2675
-455,-524,-2.82977,16.6503,0.00799113,-0.00681399,-0.000570671,0.00801309,-0.00683595,-0.0384694,0.00858208,0.0224261,769,1548,-2.82976,-16.6503
-448,-524,-2.80811,17.1692,0.00618153,-0.00484979,-0.000588847,0.00621288,-0.00488113,-0.0531781,0.00642049,0.0127303,776,1548,-2.80809,-17.1692
-441,-524,-2.83344,17.6823,0.00486057,-0.00296267,-0.000220448,0.00486677,-0.00296888,-0.0281489,0.00456794,0.011408,783,1548,-2.83345,-17.6823
-434,-524,-2.82428,18.1787,0.00393554,-0.00129773,0.000320408,0.00395509,-0.00131728,0.0609218,0.00316845,0.013059,790,1548,-2.82425,-18.1787
-427,-524,-2.84253,18.6969,0.00335431,0.000219079,0.00101363,0.00365348,-8.00837e-05,0.286992,0.00246278,0.0136224,797,1548,-2.84252,-18.6969
-420,-524,-2.88849,19.2123,0.00323997,0.00158213,0.00183056,0.00442054,0.000401562,0.572798,0.00282271,0.0116739,804,1548,-2.88848,-19.2122
-413,-524,-2.90137,19.7278,0.00337686,0.00313235,0.00270248,0.00595985,0.00054936,0.762794,0.00380336,0.0107882,811,1548,-2.90139,-19.7278
-406,-524,-2.91107,20.2422,0.00388599,0.00467341,0.00383555,0.0081354,0.000424003,0.836543,0.00528794,0.011079,818,1548,-2.91108,-20.2422
-399,-524,-2.93109,20.7354,0.0048884,0.00638771,0.00510866,0.0108014,0.000474687,0.858249,0.00704806,0.00934318,825,1548,-2.93108,-20.7354
-392,-524,-2.94733,21.2137,0.00622549,0.00892567,0.00662137,0.0143332,0.000817964,0.885969,0.00929481,0.00995754,832,1548,-2.94734,-21.2137
-385,-524,-2.96161,21.7285,0.00757156,0.011274,0.00826462,0.0178922,0.000953374,0.895577,0.0116234,0.0151002,839,1548,-2.96161,-21.7285
-378,-524,-2.88135,22.5612,0.00903088,0.0140662,0.00986711,0.0217318,0.00136529,0.910311,0.0140549,0.0485627,846,1548,-2.88137,-22.5611
-371,-524,-2.77631,23.3545,0,0,0,0,0,0,0,-1,853,1548,-2.77629,-23.3545
-364,-524,-0.712097,14.9871,0,0,0,0,0,0,0,-1,860,1548,-0.712116,-14.9871
-357,-524,-1.34052,14.7448,0,0,0,0,0,0,0,-1,867,1548,-1.34054,-14.7447
-350,-524,-2.63245,12.7522,0,0,0,0,0,0,0,-1,874,1548,-2.63245,-12.7522
-343,-524,-3.22357,25.7833,0,0,0,0,0,0,0,-1,881,1548,-3.22355,-25.7834
-336,-524,-2.80261,26.7805,0,0,0,0,0,0,0,-1,888,1548,-2.80264,-26.7805
-329,-524,-2.38171,27.7777,0,0,0,0,0,0,0,-1,895,1548,-2.38172,-27.7777
-322,-524,-4.31378,25.6389,0,0,0,0,0,0,0,-1,902,1548,-4.31379,-25.639
-315,-524,-1.90839,19.4824,0,0,0,0,0,0,0,-1,909,1548,-1.90838,-19.4824
-308,-524,-2.36938,19.3059,0,0,0,0,0,0,0,-1,916,1548,-2.3694,-19.3058
-301,-524,2.72394,17.7618,0,0,0,0,0,0,0,-1,923,1548,2.72396,-17.7619
-294,-524,-1.52515,9.05408,0,0,0,0,0,0,0,-1,930,1548,-1.52512,-9.05411
-287,-524,-0.962219,10.3199,0,0,0,0,0,0,0,-1,937,1548,-0.962241,-10.32
-280,-524,-1.36255,10.3859,0,0,0,0,0,0,0,-1,944,1548,-1.36253,-10.3859
-273,-524,0,0,0,0,0,0,0,0,0,-1,951,1548,0,0
-266,-524,0,0,0,0,0,0,0,0,0,-1,958,1548,0,0
-259,-524,0,0,0,0,0,0,0,0,0,-1,965,1548,0,0
-252,-524,0,0,0,0,0,0,0,0,0,-1,972,1548,0,0
-245,-524,0,0,0,0,0,0,0,0,0,-1,979,1548,0,0
-238,-524,0,0,0,0,0,0,0,0,0,-1,986,1548,0,0
-231,-524,0,0,0,0,0,0,0,0,0,-1,993,1548,0,0
-224,-524,0,0,0,0,0,0,0,0,0,-1,1000,1548,0,0
-217,-524,0,0,0,0,0,0,0,0,0,-1,1007,1548,0,0
-210,-524,0,0,0,0,0,0,0,0,0,-1,1014,1548,0,0
-203,-524,0,0,0,0,0,0,0,0,0,-1,1021,1548,0,0
-196,-524,0,0,0,0,0,0,0,0,0,-1,1028,1548,0,0
-189,-524,0,0,0,0,0,0,0,0,0,-1,1035,1548,0,0
-182,-524,0,0,0,0,0,0,0,0,0,-1,1042,1548,0,0
-175,-524,0,0,0,0,0,0,0,0,0,-1,1049,1548,0,0
-168,-524,0,0,0,0,0,0,0,0,0,-1,1056,1548,0,0
-161,-524,0,0,0,0,0,0,0,0,0,-1,1063,1548,0,0
-154,-524,0,0,0,0,0,0,0,0,0,-1,1070,1548,0,0
-147,-524,0,0,0,0,0,0,0,0,0,-1,1077,1548,0,0
-140,-524,0,0,0,0,0,0,0,0,0,-1,1084,1548,0,0
-133,-524,0,0,0,0,0,0,0,0,0,-1,1091,1548,0,0
-126,-524,0,0,0,0,0,0,0,0,0,-1,1098,1548,0,0
-119,-524,0,0,0,0,0,0,0,0,0,-1,1105,1548,0,0
-112,-524,0,0,0,0,0,0,0,0,0,-1,1112,1548,0,0
-105,-524,0,0,0,0,0,0,0,0,0,-1,1119,1548,0,0
-98,-524,0,0,0,0,0,0,0,0,0,-1,1126,1548,0,0
-91,-524,0,0,0,0,0,0,0,0,0,-1,1133,1548,0,0
-84,-524,0,0,0,0,0,0,0,0,0,-1,1140,1548,0,0
-77,-524,0,0,0,0,0,0,0,0,0,-1,1147,1548,0,0
-70,-524,0,0,0,0,0,0,0,0,0,-1,1154,1548,0,0
-63,-524,0,0,0,0,0,0,0,0,0,-1,1161,1548,0,0
-56,-524,0,0,0,0,0,0,0,0,0,-1,1168,1548,0,0
-49,-524,0,0,0,0,0,0,0,0,0,-1,1175,1548,0,0
-42,-524,0,0,0,0,0,0,0,0,0,-1,1182,1548,0,0
-35,-524,0,0,0,0,0,0,0,0,0,-1,1189,1548,0,0
-28,-524,0,0,0,0,0,0,0,0,0,-1,1196,1548,0,0
-21,-524,0,0,0,0,0,0,0,0,0,-1,1203,1548,0,0
-14,-524,0,0,0,0,0,0,0,0,0,-1,1210,1548,0,0
-7,-524,0,0,0,0,0,0,0,0,0,-1,1217,1548,0,0
0,-524,0,0,0,0,0,0,0,0,0,-1,1224,1548,0,0
7,-524,0,0,0,0,0,0,0,0,0,-1,1231,1548,0,0
14,-524,0,0,0,0,0,0,0,0,0,-1,1238,1548,0,0
21,-524,0,0,0,0,0,0,0,0,0,-1,1245,1548,0,0
28,-524,0,0,0,0,0,0,0,0,0,-1,1252,1548,0,0
35,-524,0,0,0,0,0,0,0,0,0,-1,1259,1548,0,0
42,-524,0,0,0,0,0,0,0,0,0,-1,1266,1548,0,0
49,-524,0,0,0,0,0,0,0,0,0,-1,1273,1548,0,0
56,-524,0,0,0,0,0,0,0,0,0,-1,1280,1548,0,0
63,-524,0,0,0,0,0,0,0,0,0,-1,1287,1548,0,0
70,-524,0,0,0,0,0,0,0,0,0,-1,1294,1548,0,0
77,-524,0,0,0,0,0,0,0,0,0,-1,1301,1548,0,0
84,-524,0,0,0,0,0,0,0,0,0,-1,1308,1548,0,0
91,-524,0,0,0,0,0,0,0,0,0,-1,1315,1548,0,0
98,-524,0,0,0,0,0,0,0,0,0,-1,1322,1548,0,0
105,-524,0,0,0,0,0,0,0,0,0,-1,1329,1548,0,0
112,-524,0,0,0,0,0,0,0,0,0,-1,1336,1548,0,0
119,-524,0,0,0,0,0,0,0,0,0,-1,1343,1548,0,0
126,-524,0,0,0,0,0,0,0,0,0,-1,1350,1548,0,0
133,-524,0,0,0,0,0,0,0,0,0,-1,1357,1548,0,0
140,-524,0,0,0,0,0,0,0,0,0,-1,1364,1548,0,0
147,-524,0,0,0,0,0,0,0,0,0,-1,1371,1548,0,0
154,-524,0,0,0,0,0,0,0,0,0,-1,1378,1548,0,0
161,-524,0,0,0,0,0,0,0,0,0,-1,1385,1548,0,0
168,-524,0,0,0,0,0,0,0,0,0,-1,1392,1548,0,0
175,-524,0,0,0,0,0,0,0,0,0,-1,1399,1548,0,0
182,-524,0,0,0,0,0,0,0,0,0,-1,1406,1548,0,0
189,-524,0,0,0,0,0,0,0,0,0,-1,1413,1548,0,0
196,-524,0,0,0,0,0,0,0,0,0,-1,1420,1548,0,0
203,-524,0,0,0,0,0,0,0,0,0,-1,1427,1548,0,0
210,-524,0,0,0,0,0,0,0,0,0,-1,1434,1548,0,0
217,-524,0,0,0,0,0,0,0,0,0,-1,1441,1548,0,0
224,-524,0,0,0,0,0,0,0,0,0,-1,1448,1548,0,0
231,-524,0,0,0,0,0,0,0,0,0,-1,1455,1548,0,0
238,-524,0,0,0,0,0,0,0,0,0,-1,1462,1548,0,0
245,-524,0,0,0,0,0,0,0,0,0,-1,1469,1548,0,0
252,-524,0,0,0,0,0,0,0,0,0,-1,1476,1548,0,0
259,-524,0,0,0,0,0,0,0,0,0,-1,1483,1548,0,0
266,-524,0,0,0,0,0,0,0,0,0,-1,1490,1548,0,0
273,-524,0,0,0,0,0,0,0,0,0,-1,1497,1548,0,0
280,-524,0,0,0,0,0,0,0,0,0,-1,1504,1548,0,0
287,-524,0,0,0,0,0,0,0,0,0,-1,1511,1548,0,0
294,-524,0,0,0,0,0,0,0,0,0,-1,1518,1548,0,0
301,-524,0,0,0,0,0,0,0,0,0,-1,1525,1548,0,0
308,-524,0,0,0,0,0,0,0,0,0,-1,1532,1548,0,0
315,-524,0,0,0,0,0,0,0,0,0,-1,1539,1548,0,0
322,-524,0,0,0,0,0,0,0,0,0,-1,1546,1548,0,0
329,-524,0,0,0,0,0,0,0,0,0,-1,1553,1548,0,0
336,-524,0,0,0,0,0,0,0,0,0,-1,1560,1548,0,0
343,-524,0,0,0,0,0,0,0,0,0,-1,1567,1548,0,0
350,-524,0,0,0,0,0,0,0,0,0,-1,1574,1548,0,0
357,-524,0,0,0,0,0,0,0,0,0,-1,1581,1548,0,0
364,-524,0,0,0,0,0,0,0,0,0,-1,1588,1548,0,0
371,-524,0,0,0,0,0,0,0,0,0,-1,1595,1548,0,0
378,-524,0,0,0,0,0,0,0,0,0,-1,1602,1548,0,0
385,-524,0,0,0,0,0,0,0,0,0,-1,1609,1548,0,0
392,-524,0,0,0,0,0,0,0,0,0,-1,1616,1548,0,0
399,-524,8.81848,5.05774,0,0,0,0,0,0,0,-1,1623,1548,8.81843,-5.05769
406,-524,8.64294,6.06799,0,0,0,0,0,0,0,-1,1630,1548,8.6429,-6.06805
413,-524,11.677,6.41858,0,0,0,0,0,0,0,-1,1637,1548,11.677,-6.41864
420,-524,11.4913,6.36401,0,0,0,0,0,0,0,-1,1644,1548,11.4913,-6.36402
427,-524,7.68335,6.17249,0,0,0,0,0,0,0,-1,1651,1548,7.68341,-6.17245
434,-524,10.432,11.6801,0,0,0,0,0,0,0,-1,1658,1548,10.432,-11.68
441,-524,8.78552,4.12305,0,0,0,0,0,0,0,-1,1665,1548,8.78553,-4.12301
448,-524,14.1854,4.78674,0,0,0,0,0,0,0,-1,1672,1548,14.1854,-4.78674
455,-524,12.4784,3.65576,0,0,0,0,0,0,0,-1,1679,1548,12.4784,-3.65572
462,-524,14.7551,9.29395,0,0,0,0,0,0,0,-1,1686,1548,14.7552,-9.29397
469,-524,16.3314,14.3779,0,0,0,0,0,0,0,-1,1693,1548,16.3314,-14.3779
476,-524,15.9106,15.1875,0,0,0,0,0,0,0,-1,1700,1548,15.9107,-15.1876
483,-524,15.2776,16.2268,0,0,0,0,0,0,0,-1,1707,1548,15.2776,-16.2269
490,-524,15.2563,18.5848,0,0,0,0,0,0,0,-1,1714,1548,15.2564,-18.5848
497,-524,17.5173,22.6123,0,0,0,0,0,0,0,-1,1721,1548,17.5174,-22.6123
504,-524,17.8163,24.0577,0,0,0,0,0,0,0,-1,1728,1548,17.8163,-24.0577
511,-524,18.2118,23.2914,0,0,0,0,0,0,0,-1,1735,1548,18.2118,-23.2914
518,-524,18.2078,22.7744,0.00799382,0.00666281,-0.00625993,0.0136235,0.00103311,-0.732441,0.00875831,0.0251291,1742,1548,18.2077,-22.7744
525,-524,18.1943,22.3008,0.00606328,0.00509198,-0.00478916,0.0103913,0.000763907,-0.734868,0.00668749,0.013933,1749,1548,18.1944,-22.3008
532,-524,18.1821,21.8007,0.0043918,0.00388975,-0.0034681,0.00761795,0.000663601,-0.74927,0.00487252,0.0101566,1756,1548,18.1821,-21.8007
539,-524,18.1816,21.3228,0.00308881,0.00291274,-0.00228748,0.00528994,0.000711599,-0.766165,0.00331499,0.0111719,1763,1548,18.1816,-21.3228
546,-524,18.1676,20.8873,0.0019553,0.00208114,-0.00118792,0.00320781,0.000828635,-0.811855,0.00192279,0.0148256,1770,1548,18.1676,-20.8873
553,-524,18.1556,20.443,0.00105053,0.0013345,-0.000185462,0.00142608,0.000958938,-1.1121,0.000839511,0.0244522,1777,1548,18.1556,-20.443
560,-524,18.1505,19.9619,0.000469245,0.000801,0.000639869,0.00129614,-2.58979e-05,0.912224,0.000872856,0.0333173,1784,1548,18.1505,-19.962
567,-524,18.1105,19.4833,0.000265683,0.000572926,0.0011206,0.00155038,-0.000711774,0.853518,0.00133564,0.0196725,1791,1548,18.1105,-19.4833
574,-524,18.1007,18.9796,0.000344281,0.000525173,0.00137525,0.00181295,-0.000943492,0.818234,0.00161761,0.0145555,1798,1548,18.1007,-18.9796
581,-524,18.1122,18.4989,0.000808188,0.000660911,0.00128511,0.00202177,-0.000552672,0.756779,0.00156495,0.0155559,1805,1548,18.1122,-18.4989
588,-524,18.1743,17.9973,0.00163767,0.00117446,0.000816259,0.00225455,0.000557588,0.647162,0.00135594,0.0289425,1812,1548,18.1743,-17.9974
595,-524,18.2461,17.286,0,0,0,0,0,0,0,-1,1819,1548,18.2461,-17.286
602,-524,13.837,12.0682,0,0,0,0,0,0,0,-1,1826,1548,13.837,-12.0683
609,-524,13.0056,10.5138,0,0,0,0,0,0,0,-1,1833,1548,13.0056,-10.5138
616,-524,11.6941,8.65515,0,0,0,0,0,0,0,-1,1840,1548,11.6941,-8.65514
623,-524,9.38452,5.15356,0,0,0,0,0,0,0,-1,1847,1548,9.38456,-5.15359
630,-524,11.0541,3.57434,0,0,0,0,0,0,0,-1,1854,1548,11.0541,-3.57438
637,-524,11.6067,3.20728,0,0,0,0,0,0,0,-1,1861,1548,11.6067,-3.20724
644,-524,12.2134,0.727173,0,0,0,0,0,0,0,-1,1868,1548,12.2134,-0.727222
651,-524,0,0,0,0,0,0,0,0,0,-1,1875,1548,0,0
658,-524,0,0,0,0,0,0,0,0,0,-1,1882,1548,0,0
665,-524,0,0,0,0,0,0,0,0,0,-1,1889,1548,0,0
672,-524,0,0,0,0,0,0,0,0,0,-1,1896,1548,0,0
679,-524,0,0,0,0,0,0,0,0,0,-1,1903,1548,0,0
686,-524,0,0,0,0,0,0,0,0,0,-1,1910,1548,0,0
693,-524,0,0,0,0,0,0,0,0,0,-1,1917,1548,0,0
700,-524,0,0,0,0,0,0,0,0,0,-1,1924,1548,0,0
707,-524,0,0,0,0,0,0,0,0,0,-1,1931,1548,0,0
714,-524,0,0,0,0,0,0,0,0,0,-1,1938,1548,0,0
721,-524,0,0,0,0,0,0,0,0,0,-1,1945,1548,0,0
728,-524,0,0,0,0,0,0,0,0,0,-1,1952,1548,0,0
735,-524,0,0,0,0,0,0,0,0,0,-1,1959,1548,0,0
742,-524,0,0,0,0,0,0,0,0,0,-1,1966,1548,0,0
749,-524,0,0,0,0,0,0,0,0,0,-1,1973,1548,0,0
756,-524,0,0,0,0,0,0,0,0,0,-1,1980,1548,0,0
763,-524,0,0,0,0,0,0,0,0,0,-1,1987,1548,0,0
770,-524,0,0,0,0,0,0,0,0,0,-1,1994,1548,0,0
777,-524,0,0,0,0,0,0,0,0,0,-1,2001,1548,0,0
784,-524,0,0,0,0,0,0,0,0,0,-1,2008,1548,0,0
791,-524,0,0,0,0,0,0,0,0,0,-1,2015,1548,0,0
798,-524,0,0,0,0,0,0,0,0,0,-1,2022,1548,0,0
805,-524,0,0,0,0,0,0,0,0,0,-1,2029,1548,0,0
812,-524,0,0,0,0,0,0,0,0,0,-1,2036,1548,0,0
-700,-531,0,0,0,0,0,0,0,0,0,-1,524,1555,0,0
-693,-531,0,0,0,0,0,0,0,0,0,-1,531,1555,0,0
-686,-531,0,0,0,0,0,0,0,0,0,-1,538,1555,0,0
-679,-531,0,0,0,0,0,0,0,0,0,-1,545,1555,0,0
-672,-531,0,0,0,0,0,0,0,0,0,-1,552,1555,0,0
-665,-531,0,0,0,0,0,0,0,0,0,-1,559,1555,0,0
-658,-531,0,0,0,0,0,0,0,0,0,-1,566,1555,0,0
-651,-531,0,0,0,0,0,0,0,0,0,-1,573,1555,0,0
-644,-531,0,0,0,0,0,0,0,0,0,-1,580,1555,0,0
-637,-531,0,0,0,0,0,0,0,0,0,-1,587,1555,0,0
-630,-531,0,0,0,0,0,0,0,0,0,-1,594,1555,0,0
-623,-531,0,0,0,0,0,0,0,0,0,-1,601,1555,0,0
-616,-531,0,0,0,0,0,0,0,0,0,-1,608,1555,0,0
-609,-531,0,0,0,0,0,0,0,0,0,-1,615,1555,0,0
-602,-531,0,0,0,0,0,0,0,0,0,-1,622,1555,0,0
-595,-531,0,0,0,0,0,0,0,0,0,-1,629,1555,0,0
-588,-531,0,0,0,0,0,0,0,0,0,-1,636,1555,0,0
-581,-531,0,0,0,0,0,0,0,0,0,-1,643,1555,0,0
-574,-531,0,0,0,0,0,0,0,0,0,-1,650,1555,0,0
-567,-531,0,0,0,0,0,0,0,0,0,-1,657,1555,0,0
-560,-531,0,0,0,0,0,0,0,0,0,-1,664,1555,0,0
-553,-531,0,0,0,0,0,0,0,0,0,-1,671,1555,0,0
-546,-531,0,0,0,0,0,0,0,0,0,-1,678,1555,0,0
-539,-531,0,0,0,0,0,0,0,0,0,-1,685,1555,0,0
-532,-531,0,0,0,0,0,0,0,0,0,-1,692,1555,0,0
-525,-531,0,0,0,0,0,0,0,0,0,-1,699,1555,0,0
-518,-531,-1.63983,4.03821,0,0,0,0,0,0,0,-1,706,1555,-1.63982,-4.03821
-511,-531,-2.9682,8.07483,0,0,0,0,0,0,0,-1,713,1555,-2.9682,-8.07479
-504,-531,-2.95978,0.557861,0,0,0,0,0,0,0,-1,720,1555,-2.95978,-0.557917
-497,-531,-2.46039,8.07422,0,0,0,0,0,0,0,-1,727,1555,-2.46039,-8.07423
-490,-531,-0.423462,7.92065,0,0,0,0,0,0,0,-1,734,1555,-0.42344,-7.92066
-483,-531,-2.8222,14.467,0,0,0,0,0,0,0,-1,741,1555,-2.82218,-14.4671
-476,-531,-2.81964,16.1543,0,0,0,0,0,0,0,-1,748,1555,-2.81963,-16.1542
-469,-531,-2.76086,16.4022,0.0174935,-0.0143049,3.4455e-05,0.0174935,-0.0143049,0.00108355,0.0183896,0.0474031,755,1555,-2.76088,-16.4022
-462,-531,-2.60614,16.8439,0.0141813,-0.0103002,-0.000220842,0.0141833,-0.0103022,-0.0090198,0.0141958,0.0432258,762,1555,-2.60617,-16.8439
-455,-531,-2.38782,16.9009,0.011262,-0.00705953,-0.000264106,0.0112658,-0.00706334,-0.0144111,0.0106747,0.0359336,769,1555,-2.38781,-16.9009
-448,-531,-2.26129,17.1715,0.0085281,-0.00482856,-0.00037954,0.00853888,-0.00483933,-0.0283852,0.00782174,0.0175326,776,1555,-2.26131,-17.1715
-441,-531,-2.3335,17.667,0.00640716,-0.00296541,-0.00022899,0.00641275,-0.00297101,-0.0244125,0.00553785,0.0124602,783,1555,-2.33348,-17.667
-434,-531,-2.34869,18.203,0.00482776,-0.00144649,9.05597e-05,0.00482907,-0.0014478,0.0144295,0.00379518,0.0122425,790,1555,-2.34867,-18.2029
-427,-531,-2.36139,18.7245,0.00370851,-0.000138234,0.000565554,0.00378994,-0.000219659,0.142991,0.00260294,0.0144268,797,1555,-2.36138,-18.7245
-420,-531,-2.38025,19.2385,0.00315448,0.00102268,0.00117571,0.00367554,0.000501623,0.417174,0.00230145,0.0127898,804,1555,-2.38023,-19.2385
-413,-531,-2.39178,19.7502,0.00290694,0.00244162,0.00180208,0.00449132,0.000857239,0.7212,0.00275332,0.0104228,811,1555,-2.39181,-19.7502
-406,-531,-2.40808,20.2551,0.00302033,0.0038179,0.00272265,0.00617082,0.000667413,0.858116,0.00391044,0.0118895,818,1555,-2.40807,-20.2552
-399,-531,-2.42206,20.7572,0.0035201,0.00514918,0.00373057,0.0081531,0.000516182,0.892882,0.00527177,0.0133989,825,1555,-2.42204,-20.7572
-392,-531,-2.427,21.2385,0.00446444,0.00703453,0.00485856,0.0107751,0.000723857,0.914683,0.00695469,0.0163294,832,1555,-2.42699,-21.2385
-385,-531,-2.46893,21.725,0.0055713,0.0089121,0.00609158,0.0135582,0.000925247,0.919216,0.00874668,0.0143217,839,1555,-2.46892,-21.725
-378,-531,-2.48846,22.1597,0.00677801,0.0111638,0.00732459,0.0166167,0.00132511,0.930847,0.0106636,0.017244,846,1555,-2.48849,-22.1596
-371,-531,-2.38855,22.8423,0.00801769,0.013566,0.00858559,0.0198145,0.00176921,0.941663,0.0126612,0.0345744,853,1555,-2.38855,-22.8423
-364,-531,-2.30005,23.4315,0,0,0,0,0,0,0,-1,860,1555,-2.30008,-23.4315
-357,-531,-2.37457,24.0067,0,0,0,0,0,0,0,-1,867,1555,-2.37458,-24.0067
-350,-531,-2.88593,24.5157,0,0,0,0,0,0,0,-1,874,1555,-2.88591,-24.5157
-343,-531,-2.25226,25.4177,0,0,0,0,0,0,0,-1,881,1555,-2.25228,-25.4177
-336,-531,-2.32672,26.4233,0,0,0,0,0,0,0,-1,888,1555,-2.32672,-26.4233
-329,-531,-1.98499,27.1849,0,0,0,0,0,0,0,-1,895,1555,-1.985,-27.1849
-322,-531,-3.76758,26.3036,0,0,0,0,0,0,0,-1,902,1555,-3.76757,-26.3035
-315,-531,-4.0097,26.2571,0,0,0,0,0,0,0,-1,909,1555,-4.00969,-26.2571
-308,-531,-1.66455,19.0624,0,0,0,0,0,0,0,-1,916,1555,-1.66455,-19.0623
-301,-531,-2.02405,18.8912,0,0,0,0,0,0,0,-1,923,1555,-2.02407,-18.8913
-294,-531,-1.3244,8.1825,0,0,0,0,0,0,0,-1,930,1555,-1.3244,-8.18251
-287,-531,-1.78192,10.1661,0,0,0,0,0,0,0,-1,937,1555,-1.78192,-10.1661
-280,-531,-2.14508,10.3945,0,0,0,0,0,0,0,-1,944,1555,-2.14506,-10.3945
-273,-531,-2.50818,10.6229,0,0,0,0,0,0,0,-1,951,1555,-2.5082,-10.6229
-266,-531,-4.97742,17.9215,0,0,0,0,0,0,0,-1,958,1555,-4.97744,-17.9215
-259,-531,0,0,0,0,0,0,0,0,0,-1,965,1555,0,0
-252,-531,0,0,0,0,0,0,0,0,0,-1,972,1555,0,0
-245,-531,0,0,0,0,0,0,0,0,0,-1,979,1555,0,0
-238,-531,0,0,0,0,0,0,0,0,0,-1,986,1555,0,0
-231,-531,0,0,0,0,0,0,0,0,0,-1,993,1555,0,0
-224,-531,0,0,0,0,0,0,0,0,0,-1,1000,1555,0,0
-217,-531,0,0,0,0,0,0,0,0,0,-1,1007,1555,0,0
-210,-531,0,0,0,0,0,0,0,0,0,-1,1014,1555,0,0
-203,-531,0,0,0,0,0,0,0,0,0,-1,1021,1555,0,0
-196,-531,0,0,0,0,0,0,0,0,0,-1,1028,1555,0,0
-189,-531,0,0,0,0,0,0,0,0,0,-1,1035,1555,0,0
-182,-531,0,0,0,0,0,0,0,0,0,-1,1042,1555,0,0
-175,-531,0,0,0,0,0,0,0,0,0,-1,1049,1555,0,0
-168,-531,0,0,0,0,0,0,0,0,0,-1,1056,1555,0,0
-161,-531,0,0,0,0,0,0,0,0,0,-1,1063,1555,0,0
-154,-531,0,0,0,0,0,0,0,0,0,-1,1070,1555,0,0
-147,-531,0,0,0,0,0,0,0,0,0,-1,1077,1555,0,0
-140,-531,0,0,0,0,0,0,0,0,0,-1,1084,1555,0,0
-133,-531,0,0,0,0,0,0,0,0,0,-1,1091,1555,0,0
-126,-531,0,0,0,0,0,0,0,0,0,-1,1098,1555,0,0
-119,-531,0,0,0,0,0,0,0,0,0,-1,1105,1555,0,0
-112,-531,0,0,0,0,0,0,0,0,0,-1,1112,1555,0,0
-105,-531,0,0,0,0,0,0,0,0,0,-1,1119,1555,0,0
-98,-531,0,0,0,0,0,0,0,0,0,-1,1126,1555,0,0
-91,-531,0,0,0,0,0,0,0,0,0,-1,1133,1555,0,0
-84,-531,0,0,0,0,0,0,0,0,0,-1,1140,1555,0,0
-77,-531,0,0,0,0,0,0,0,0,0,-1,1147,1555,0,0
-70,-531,0,0,0,0,0,0,0,0,0,-1,1154,1555,0,0
-63,-531,0,0,0,0,0,0,0,0,0,-1,1161,1555,0,0
-56,-531,0,0,0,0,0,0,0,0,0,-1,1168,1555,0,0
-49,-531,0,0,0,0,0,0,0,0,0,-1,1175,1555,0,0
-42,-531,0,0,0,0,0,0,0,0,0,-1,1182,1555,0,0
-35,-531,0,0,0,0,0,0,0,0,0,-1,1189,1555,0,0
-28,-531,0,0,0,0,0,0,0,0,0,-1,1196,1555,0,0
-21,-531,0,0,0,0,0,0,0,0,0,-1,1203,1555,0,0
-14,-531,0,0,0,0,0,0,0,0,0,-1,1210,1555,0,0
-7,-531,0,0,0,0,0,0,0,0,0,-1,1217,1555,0,0
0,-531,0,0,0,0,0,0,0,0,0,-1,1224,1555,0,0
7,-531,0,0,0,0,0,0,0,0,0,-1,1231,1555,0,0
14,-531,0,0,0,0,0,0,0,0,0,-1,1238,1555,0,0
21,-531,0,0,0,0,0,0,0,0,0,-1,1245,1555,0,0
28,-531,0,0,0,0,0,0,0,0,0,-1,1252,1555,0,0
35,-531,0,0,0,0,0,0,0,0,0,-1,1259,1555,0,0
42,-531,0,0,0,0,0,0,0,0,0,-1,1266,1555,0,0
49,-531,0,0,0,0,0,0,0,0,0,-1,1273,1555,0,0
56,-531,0,0,0,0,0,0,0,0,0,-1,1280,1555,0,0
63,-531,0,0,0,0,0,0,0,0,0,-1,1287,1555,0,0
70,-531,0,0,0,0,0,0,0,0,0,-1,1294,1555,0,0
77,-531,0,0,0,0,0,0,0,0,0,-1,1301,1555,0,0
84,-531,0,0,0,0,0,0,0,0,0,-1,1308,1555,0,0
91,-531,0,0,0,0,0,0,0,0,0,-1,1315,1555,0,0
98,-531,0,0,0,0,0,0,0,0,0,-1,1322,1555,0,0
105,-531,0,0,0,0,0,0,0,0,0,-1,1329,1555,0,0
112,-531,0,0,0,0,0,0,0,0,0,-1,1336,1555,0,0
119,-531,0,0,0,0,0,0,0,0,0,-1,1343,1555,0,0
126,-531,0,0,0,0,0,0,0,0,0,-1,1350,1555,0,0
133,-531,0,0,0,0,0,0,0,0,0,-1,1357,1555,0,0
140,-531,0,0,0,0,0,0,0,0,0,-1,1364,1555,0,0
147,-531,0,0,0,0,0,0,0,0,0,-1,1371,1555,0,0
154,-531,0,0,0,0,0,0,0,0,0,-1,1378,1555,0,0
161,-531,0,0,0,0,0,0,0,0,0,-1,1385,1555,0,0
168,-531,0,0,0,0,0,0,0,0,0,-1,1392,1555,0,0
175,-531,0,0,0,0,0,0,0,0,0,-1,1399,1555,0,0
182,-531,0,0,0,0,0,0,0,0,0,-1,1406,1555,0,0
189,-531,0,0,0,0,0,0,0,0,0,-1,1413,1555,0,0
196,-531,0,0,0,0,0,0,0,0,0,-1,1420,1555,0,0
203,-531,0,0,0,0,0,0,0,0,0,-1,1427,1555,0,0
210,-531,0,0,0,0,0,0,0,0,0,-1,1434,1555,0,0
217,-531,0,0,0,0,0,0,0,0,0,-1,1441,1555,0,0
224,-531,0,0,0,0,0,0,0,0,0,-1,1448,1555,0,0
231,-531,0,0,0,0,0,0,0,0,0,-1,1455,1555,0,0
238,-531,0,0,0,0,0,0,0,0,0,-1,1462,1555,0,0
245,-531,0,0,0,0,0,0,0,0,0,-1,1469,1555,0,0
252,-531,0,0,0,0,0,0,0,0,0,-1,1476,1555,0,0
259,-531,0,0,0,0,0,0,0,0,0,-1,1483,1555,0,0
266,-531,0,0,0,0,0,0,0,0,0,-1,1490,1555,0,0
273,-531,0,0,0,0,0,0,0,0,0,-1,1497,1555,0,0
280,-531,0,0,0,0,0,0,0,0,0,-1,1504,1555,0,0
287,-531,0,0,0,0,0,0,0,0,0,-1,1511,1555,0,0
294,-531,0,0,0,0,0,0,0,0,0,-1,1518,1555,0,0
301,-531,0,0,0,0,0,0,0,0,0,-1,1525,1555,0,0
308,-531,0,0,0,0,0,0,0,0,0,-1,1532,1555,0,0
315,-531,0,0,0,0,0,0,0,0,0,-1,1539,1555,0,0
322,-531,0,0,0,0,0,0,0,0,0,-1,1546,1555,0,0
329,-531,0,0,0,0,0,0,0,0,0,-1,1553,1555,0,0
336,-531,0,0,0,0,0,0,0,0,0,-1,1560,1555,0,0
343,-531,0,0,0,0,0,0,0,0,0,-1,1567,1555,0,0
350,-531,0,0,0,0,0,0,0,0,0,-1,1574,1555,0,0
357,-531,0,0,0,0,0,0,0,0,0,-1,1581,1555,0,0
364,-531,0,0,0,0,0,0,0,0,0,-1,1588,1555,0,0
371,-531,0,0,0,0,0,0,0,0,0,-1,1595,1555,0,0
378,-531,0,0,0,0,0,0,0,0,0,-1,1602,1555,0,0
385,-531,3.48169,1.78625,0,0,0,0,0,0,0,-1,1609,1555,3.48165,-1.78624
392,-531,10.8781,9.09204,0,0,0,0,0,0,0,-1,1616,1555,10.8781,-9.09205
399,-531,8.26306,5.29602,0,0,0,0,0,0,0,-1,1623,1555,8.26302,-5.29607
406,-531,8.26147,5.42712,0,0,0,0,0,0,0,-1,1630,1555,8.26145,-5.42716
413,-531,8.20618,5.75012,0,0,0,0,0,0,0,-1,1637,1555,8.20619,-5.75017
420,-531,7.64868,7.09558,0,0,0,0,0,0,0,-1,1644,1555,7.64867,-7.09564
427,-531,9.93054,11.8412,0,0,0,0,0,0,0,-1,1651,1555,9.93059,-11.8412
434,-531,10.244,11.7072,0,0,0,0,0,0,0,-1,1658,1555,10.244,-11.7071
441,-531,11.4528,12.9397,0,0,0,0,0,0,0,-1,1665,1555,11.4528,-12.9397
448,-531,11.928,18.8029,0,0,0,0,0,0,0,-1,1672,1555,11.928,-18.8028
455,-531,14.4877,9.67065,0,0,0,0,0,0,0,-1,1679,1555,14.4876,-9.67066
462,-531,13.5253,12.2002,0,0,0,0,0,0,0,-1,1686,1555,13.5252,-12.2002
469,-531,15.5087,15.7894,0,0,0,0,0,0,0,-1,1693,1555,15.5086,-15.7895
476,-531,14.6582,16.2264,0,0,0,0,0,0,0,-1,1700,1555,14.6582,-16.2264
483,-531,14.755,18.5994,0,0,0,0,0,0,0,-1,1707,1555,14.7551,-18.5994
490,-531,16.9362,25.4943,0,0,0,0,0,0,0,-1,1714,1555,16.9362,-25.4942
497,-531,17.452,24.5337,0,0,0,0,0,0,0,-1,1721,1555,17.452,-24.5337
504,-531,17.5858,23.8196,0.00932312,0.00891193,-0.00707226,0.0161928,0.00204228,-0.770867,0.0101829,0.0355886,1728,1555,17.5858,-23.8196
511,-531,17.7117,23.2587,0.00796587,0.00697702,-0.00626798,0.0137589,0.001184,-0.746039,0.0088045,0.0164475,1735,1555,17.7117,-23.2587
518,-531,17.7255,22.7679,0.00620848,0.00530682,-0.00483768,0.0106163,0.000899001,-0.738937,0.0067977,0.0150194,1742,1555,17.7255,-22.768
525,-531,17.7151,22.3174,0.00445756,0.00387535,-0.00345814,0.00763683,0.000696084,-0.743407,0.00487578,0.0142508,1749,1555,17.7151,-22.3174
532,-531,17.7141,21.8239,0.00292572,0.0027961,-0.00220362,0.00506548,0.00065634,-0.770697,0.00318086,0.0109153,1756,1555,17.7141,-21.8238
539,-531,17.6996,21.3529,0.00167874,0.00194846,-0.00103907,0.00286138,0.000765812,-0.849933,0.00171045,0.0122206,1763,1555,17.6996,-21.3529
546,-531,17.6813,20.8978,0.000523056,0.0012056,0.000129234,0.00122925,0.000499406,1.3898,0.000713854,0.0155326,1770,1555,17.6813,-20.8978
553,-531,17.6935,20.4995,-0.000438749,0.000555592,0.00125587,0.00140912,-0.00129228,0.973871,0.00156014,0.0304332,1777,1555,17.6934,-20.4996
560,-531,17.6447,20.0245,-0.00106527,0.000123199,0.00222403,0.00183102,-0.00277309,0.915943,0.00267666,0.0353032,1784,1555,17.6447,-20.0245
567,-531,17.5897,19.4733,-0.00130213,-1.85235e-05,0.00288075,0.00229105,-0.00361171,0.895003,0.00343628,0.0208625,1791,1555,17.5898,-19.4733
574,-531,17.5947,18.9897,-0.00121017,3.21397e-05,0.00330306,0.00277194,-0.00394997,0.87834,0.00390071,0.0146366,1798,1555,17.5947,-18.9898
581,-531,17.647,18.4857,-0.000591831,0.000338451,0.00328838,0.00319442,-0.0034478,0.855657,0.00383582,0.0194742,1805,1555,17.6469,-18.4857
588,-531,17.7113,17.9463,0.000570111,0.00108009,0.00283499,0.00367154,-0.00202133,0.830249,0.00333249,0.0366099,1812,1555,17.7113,-17.9463
595,-531,17.7181,17.3494,0,0,0,0,0,0,0,-1,1819,1555,17.7181,-17.3493
602,-531,13.701,11.8346,0,0,0,0,0,0,0,-1,1826,1555,13.701,-11.8347
609,-531,10.9072,8.50903,0,0,0,0,0,0,0,-1,1833,1555,10.9073,-8.50902
616,-531,10.5723,7.17859,0,0,0,0,0,0,0,-1,1840,1555,10.5723,-7.17855
623,-531,10.0674,5.08984,0,0,0,0,0,0,0,-1,1847,1555,10.0674,-5.08981
630,-531,11.672,3.18909,0,0,0,0,0,0,0,-1,1854,1555,11.672,-3.18904
637,-531,13.2546,1.38965,0,0,0,0,0,0,0,-1,1861,1555,13.2547,-1.3896
644,-531,0,0,0,0,0,0,0,0,0,-1,1868,1555,0,0
651,-531,0,0,0,0,0,0,0,0,0,-1,1875,1555,0,0
658,-531,0,0,0,0,0,0,0,0,0,-1,1882,1555,0,0
665,-531,0,0,0,0,0,0,0,0,0,-1,1889,1555,0,0
672,-531,0,0,0,0,0,0,0,0,0,-1,1896,1555,0,0
679,-531,0,0,0,0,0,0,0,0,0,-1,1903,1555,0,0
686,-531,0,0,0,0,0,0,0,0,0,-1,1910,1555,0,0
693,-531,0,0,0,0,0,0,0,0,0,-1,1917,1555,0,0
700,-531,0,0,0,0,0,0,0,0,0,-1,1924,1555,0,0
707,-531,0,0,0,0,0,0,0,0,0,-1,1931,1555,0,0
714,-531,0,0,0,0,0,0,0,0,0,-1,1938,1555,0,0
721,-531,0,0,0,0,0,0,0,0,0,-1,1945,1555,0,0
728,-531,0,0,0,0,0,0,0,0,0,-1,1952,1555,0,0
735,-531,0,0,0,0,0,0,0,0,0,-1,1959,1555,0,0
742,-531,0,0,0,0,0,0,0,0,0,-1,1966,1555,0,0
749,-531,0,0,0,0,0,0,0,0,0,-1,1973,1555,0,0
756,-531,0,0,0,0,0,0,0,0,0,-1,1980,1555,0,0
763,-531,0,0,0,0,0,0,0,0,0,-1,1987,1555,0,0
770,-531,0,0,0,0,0,0,0,0,0,-1,1994,1555,0,0
777,-531,0,0,0,0,0,0,0,0,0,-1,2001,1555,0,0
784,-531,0,0,0,0,0,0,0,0,0,-1,2008,1555,0,0
791,-531,0,0,0,0,0,0,0,0,0,-1,2015,1555,0,0
798,-531,0,0,0,0,0,0,0,0,0,-1,2022,1555,0,0
805,-531,0,0,0,0,0,0,0,0,0,-1,2029,1555,0,0
812,-531,0,0,0,0,0,0,0,0,0,-1,2036,1555,0,0
-700,-538,0,0,0,0,0,0,0,0,0,-1,524,1562,0,0
-693,-538,0,0,0,0,0,0,0,0,0,-1,531,1562,0,0
-686,-538,0,0,0,0,0,0,0,0,0,-1,538,1562,0,0
-679,-538,0,0,0,0,0,0,0,0,0,-1,545,1562,0,0
-672,-538,0,0,0,0,0,0,0,0,0,-1,552,1562,0,0
-665,-538,0,0,0,0,0,0,0,0,0,-1,559,1562,0,0
-658,-538,0,0,0,0,0,0,0,0,0,-1,566,1562,0,0
-651,-538,0,0,0,0,0,0,0,0,0,-1,573,1562,0,0
-644,-538,0,0,0,0,0,0,0,0,0,-1,580,1562,0,0
-637,-538,0,0,0,0,0,0,0,0,0,-1,587,1562,0,0
-630,-538,0,0,0,0,0,0,0,0,0,-1,594,1562,0,0
-623,-538,0,0,0,0,0,0,0,0,0,-1,601,1562,0,0
-616,-538,0,0,0,0,0,0,0,0,0,-1,608,1562,0,0
-609,-538,0,0,0,0,0,0,0,0,0,-1,615,1562,0,0
-602,-538,0,0,0,0,0,0,0,0,0,-1,622,1562,0,0
-595,-538,0,0,0,0,0,0,0,0,0,-1,629,1562,0,0
-588,-538,0,0,0,0,0,0,0,0,0,-1,636,1562,0,0
-581,-538,0,0,0,0,0,0,0,0,0,-1,643,1562,0,0
-574,-538,0,0,0,0,0,0,0,0,0,-1,650,1562,0,0
-567,-538,0,0,0,0,0,0,0,0,0,-1,657,1562,0,0
-560,-538,0,0,0,0,0,0,0,0,0,-1,664,1562,0,0
-553,-538,0,0,0,0,0,0,0,0,0,-1,671,1562,0,0
-546,-538,0,0,0,0,0,0,0,0,0,-1,678,1562,0,0
-539,-538,0,0,0,0,0,0,0,0,0,-1,685,1562,0,0
-532,-538,0,0,0,0,0,0,0,0,0,-1,692,1562,0,0
-525,-538,0,0,0,0,0,0,0,0,0,-1,699,1562,0,0
-518,-538,0,0,0,0,0,0,0,0,0,-1,706,1562,0,0
-511,-538,-2.6582,-1.54321,0,0,0,0,0,0,0,-1,713,1562,-2.65821,1.54327
-504,-538,-2.66455,-0.71167,0,0,0,0,0,0,0,-1,720,1562,-2.66456,0.711667
-497,-538,-0.763855,6.77747,0,0,0,0,0,0,0,-1,727,1562,-0.76385,-6.77743
-490,-538,-2.70453,8.01465,0,0,0,0,0,0,0,-1,734,1562,-2.70451,-8.0147
-483,-538,-0.933533,7.84644,0,0,0,0,0,0,0,-1,741,1562,-0.933548,-7.84638
-476,-538,-2.33173,14.524,0,0,0,0,0,0,0,-1,748,1562,-2.33173,-14.5241
-469,-538,-2.65497,16.7561,0,0,0,0,0,0,0,-1,755,1562,-2.65495,-16.7561
-462,-538,-2.26141,17.0789,0.0192094,-0.0102192,0.000538815,0.0192192,-0.010229,0.0183011,0.017264,0.0466953,762,1562,-2.26143,-17.0788
-455,-538,-1.94916,17.0494,0.0151598,-0.00641927,0.000471072,0.0151701,-0.00642955,0.0218162,0.0128064,0.040917,769,1562,-1.94916,-17.0495
-448,-538,-1.70636,17.2827,0.0114183,-0.00402837,0.000275314,0.0114232,-0.00403328,0.017816,0.00925753,0.0202434,776,1562,-1.70636,-17.2827
-441,-538,-1.79102,17.7765,0.00828946,-0.00235708,0.000117179,0.00829075,-0.00235837,0.0110046,0.00645845,0.021544,783,1562,-1.79102,-17.7765
-434,-538,-1.8609,18.2268,0.005911,-0.00118176,0.000135791,0.0059136,-0.00118435,0.0191357,0.00439075,0.012779,790,1562,-1.86089,-18.2269
-427,-538,-1.89038,18.7594,0.00417947,-0.000229618,0.000339462,0.00420545,-0.000255601,0.0763914,0.0028926,0.0138786,797,1562,-1.8904,-18.7595
-420,-538,-1.89191,19.2421,0.00313626,0.000631441,0.000704283,0.00332071,0.000446999,0.256134,0.00208087,0.0172759,804,1562,-1.89188,-19.242
-413,-538,-1.90436,19.7605,0.00249938,0.0018351,0.00107758,0.00329485,0.00103964,0.635903,0.00194496,0.0165784,811,1562,-1.90438,-19.7605
-406,-538,-1.90869,20.2628,0.00224922,0.00298335,0.00179269,0.00444617,0.000786396,0.886381,0.00273986,0.0144342,818,1562,-1.90872,-20.2629
-399,-538,-1.909,20.7589,0.00232709,0.00392024,0.00256501,0.00580952,0.000437808,0.935953,0.00373564,0.0132178,825,1562,-1.90899,-20.7589
-392,-538,-1.90527,21.2421,0.00299427,0.005187,0.00335162,0.00761702,0.000564251,0.94347,0.00490077,0.0138438,832,1562,-1.9053,-21.242
-385,-538,-1.95508,21.7535,0.00398418,0.00668555,0.00426425,0.00980791,0.000861814,0.938773,0.00627111,0.012257,839,1562,-1.95508,-21.7535
-378,-538,-1.97363,22.2446,0.00507716,0.00851564,0.00523684,0.0123082,0.00128457,0.944004,0.00781258,0.0104668,846,1562,-1.97362,-22.2447
-371,-538,-1.99896,22.7186,0.00616184,0.0103651,0.0061615,0.0147735,0.00175341,0.949756,0.0093197,0.0135437,853,1562,-1.99893,-22.7187
-364,-538,-1.93488,23.274,0.00737776,0.0123648,0.0071649,0.0174577,0.00228488,0.952853,0.0109565,0.0177693,860,1562,-1.93488,-23.274
-357,-538,-1.91132,23.87,0.00868441,0.0146061,0.00820042,0.0203638,0.00292668,0.958645,0.0127131,0.0390578,867,1562,-1.91132,-23.87
-350,-538,-1.7533,24.5762,0,0,0,0,0,0,0,-1,874,1562,-1.75331,-24.5762
-343,-538,-1.84326,24.9736,0.0117102,0.0197301,0.0105097,0.0269688,0.00447148,0.967648,0.0166896,0.0461401,881,1562,-1.84325,-24.9736
-336,-538,-1.75952,25.6409,0,0,0,0,0,0,0,-1,888,1562,-1.75951,-25.6409
-329,-538,-1.59277,25.9701,0,0,0,0,0,0,0,-1,895,1562,-1.5928,-25.9701
-322,-538,-3.03198,25.4816,0,0,0,0,0,0,0,-1,902,1562,-3.03199,-25.4815
-315,-538,-3.24982,25.3689,0,0,0,0,0,0,0,-1,909,1562,-3.24984,-25.369
-308,-538,-3.6936,25.5172,0,0,0,0,0,0,0,-1,916,1562,-3.6936,-25.5172
-301,-538,-0.452393,18.5101,0,0,0,0,0,0,0,-1,923,1562,-0.452367,-18.5102
-294,-538,1.23138,14.0757,0,0,0,0,0,0,0,-1,930,1562,1.23137,-14.0757
-287,-538,-2.60419,10.2361,0,0,0,0,0,0,0,-1,937,1562,-2.6042,-10.2361
-280,-538,-2.93475,10.5106,0,0,0,0,0,0,0,-1,944,1562,-2.93475,-10.5106
-273,-538,-3.26532,10.785,0,0,0,0,0,0,0,-1,951,1562,-3.26531,-10.785
-266,-538,-5.03412,15.9951,0,0,0,0,0,0,0,-1,958,1562,-5.03409,-15.9951
-259,-538,-5.89642,16.5184,0,0,0,0,0,0,0,-1,965,1562,-5.89644,-16.5184
-252,-538,0,0,0,0,0,0,0,0,0,-1,972,1562,0,0
-245,-538,0,0,0,0,0,0,0,0,0,-1,979,1562,0,0
-238,-538,0,0,0,0,0,0,0,0,0,-1,986,1562,0,0
-231,-538,0,0,0,0,0,0,0,0,0,-1,993,1562,0,0
-224,-538,0,0,0,0,0,0,0,0,0,-1,1000,1562,0,0
-217,-538,0,0,0,0,0,0,0,0,0,-1,1007,1562,0,0
-210,-538,0,0,0,0,0,0,0,0,0,-1,1014,1562,0,0
-203,-538,0,0,0,0,0,0,0,0,0,-1,1021,1562,0,0
-196,-538,0,0,0,0,0,0,0,0,0,-1,1028,1562,0,0
-189,-538,0,0,0,0,0,0,0,0,0,-1,1035,1562,0,0
-182,-538,0,0,0,0,0,0,0,0,0,-1,1042,1562,0,0
-175,-538,0,0,0,0,0,0,0,0,0,-1,1049,1562,0,0
-168,-538,0,0,0,0,0,0,0,0,0,-1,1056,1562,0,0
-161,-538,0,0,0,0,0,0,0,0,0,-1,1063,1562,0,0
-154,-538,0,0,0,0,0,0,0,0,0,-1,1070,1562,0,0
-147,-538,0,0,0,0,0,0,0,0,0,-1,1077,1562,0,0
-140,-538,0,0,0,0,0,0,0,0,0,-1,1084,1562,0,0
-133,-538,0,0,0,0,0,0,0,0,0,-1,1091,1562,0,0
-126,-538,0,0,0,0,0,0,0,0,0,-1,1098,1562,0,0
-119,-538,0,0,0,0,0,0,0,0,0,-1,1105,1562,0,0
-112,-538,0,0,0,0,0,0,0,0,0,-1,1112,1562,0,0
-105,-538,0,0,0,0,0,0,0,0,0,-1,1119,1562,0,0
-98,-538,0,0,0,0,0,0,0,0,0,-1,1126,1562,0,0
-91,-538,0,0,0,0,0,0,0,0,0,-1,1133,1562,0,0
-84,-538,0,0,0,0,0,0,0,0,0,-1,1140,1562,0,0
-77,-538,0,0,0,0,0,0,0,0,0,-1,1147,1562,0,0
-70,-538,0,0,0,0,0,0,0,0,0,-1,1154,1562,0,0
-63,-538,0,0,0,0,0,0,0,0,0,-1,1161,1562,0,0
-56,-538,0,0,0,0,0,0,0,0,0,-1,1168,1562,0,0
-49,-538,0,0,0,0,0,0,0,0,0,-1,1175,1562,0,0
-42,-538,0,0,0,0,0,0,0,0,0,-1,1182,1562,0,0
-35,-538,0,0,0,0,0,0,0,0,0,-1,1189,1562,0,0
-28,-538,0,0,0,0,0,0,0,0,0,-1,1196,1562,0,0
-21,-538,0,0,0,0,0,0,0,0,0,-1,1203,1562,0,0
-14,-538,0,0,0,0,0,0,0,0,0,-1,1210,1562,0,0
-7,-538,0,0,0,0,0,0,0,0,0,-1,1217,1562,0,0
0,-538,0,0,0,0,0,0,0,0,0,-1,1224,1562,0,0
7,-538,0,0,0,0,0,0,0,0,0,-1,1231,1562,0,0
14,-538,0,0,0,0,0,0,0,0,0,-1,1238,1562,0,0
21,-538,0,0,0,0,0,0,0,0,0,-1,1245,1562,0,0
28,-538,0,0,0,0,0,0,0,0,0,-1,1252,1562,0,0
35,-538,0,0,0,0,0,0,0,0,0,-1,1259,1562,0,0
42,-538,0,0,0,0,0,0,0,0,0,-1,1266,1562,0,0
49,-538,0,0,0,0,0,0,0,0,0,-1,1273,1562,0,0
56,-538,0,0,0,0,0,0,0,0,0,-1,1280,1562,0,0
63,-538,0,0,0,0,0,0,0,0,0,-1,1287,1562,0,0
70,-538,0,0,0,0,0,0,0,0,0,-1,1294,1562,0,0
77,-538,0,0,0,0,0,0,0,0,0,-1,1301,1562,0,0
84,-538,0,0,0,0,0,0,0,0,0,-1,1308,1562,0,0
91,-538,0,0,0,0,0,0,0,0,0,-1,1315,1562,0,0
98,-538,0,0,0,0,0,0,0,0,0,-1,1322,1562,0,0
105,-538,0,0,0,0,0,0,0,0,0,-1,1329,1562,0,0
112,-538,0,0,0,0,0,0,0,0,0,-1,1336,1562,0,0
119,-538,0,0,0,0,0,0,0,0,0,-1,1343,1562,0,0
126,-538,0,0,0,0,0,0,0,0,0,-1,1350,1562,0,0
133,-538,0,0,0,0,0,0,0,0,0,-1,1357,1562,0,0
140,-538,0,0,0,0,0,0,0,0,0,-1,1364,1562,0,0
147,-538,0,0,0,0,0,0,0,0,0,-1,1371,1562,0,0
154,-538,0,0,0,0,0,0,0,0,0,-1,1378,1562,0,0
161,-538,0,0,0,0,0,0,0,0,0,-1,1385,1562,0,0
168,-538,0,0,0,0,0,0,0,0,0,-1,1392,1562,0,0
175,-538,0,0,0,0,0,0,0,0,0,-1,1399,1562,0,0
182,-538,0,0,0,0,0,0,0,0,0,-1,1406,1562,0,0
189,-538,0,0,0,0,0,0,0,0,0,-1,1413,1562,0,0
196,-538,0,0,0,0,0,0,0,0,0,-1,1420,1562,0,0
203,-538,0,0,0,0,0,0,0,0,0,-1,1427,1562,0,0
210,-538,0,0,0,0,0,0,0,0,0,-1,1434,1562,0,0
217,-538,0,0,0,0,0,0,0,0,0,-1,1441,1562,0,0
224,-538,0,0,0,0,0,0,0,0,0,-1,1448,1562,0,0
231,-538,0,0,0,0,0,0,0,0,0,-1,1455,1562,0,0
238,-538,0,0,0,0,0,0,0,0,0,-1,1462,1562,0,0
245,-538,0,0,0,0,0,0,0,0,0,-1,1469,1562,0,0
252,-538,0,0,0,0,0,0,0,0,0,-1,1476,1562,0,0
259,-538,0,0,0,0,0,0,0,0,0,-1,1483,1562,0,0
266,-538,0,0,0,0,0,0,0,0,0,-1,1490,1562,0,0
273,-538,0,0,0,0,0,0,0,0,0,-1,1497,1562,0,0
280,-538,0,0,0,0,0,0,0,0,0,-1,1504,1562,0,0
287,-538,0,0,0,0,0,0,0,0,0,-1,1511,1562,0,0
294,-538,0,0,0,0,0,0,0,0,0,-1,1518,1562,0,0
301,-538,0,0,0,0,0,0,0,0,0,-1,1525,1562,0,0
308,-538,0,0,0,0,0,0,0,0,0,-1,1532,1562,0,0
315,-538,0,0,0,0,0,0,0,0,0,-1,1539,1562,0,0
322,-538,0,0,0,0,0,0,0,0,0,-1,1546,1562,0,0
329,-538,0,0,0,0,0,0,0,0,0,-1,1553,1562,0,0
336,-538,0,0,0,0,0,0,0,0,0,-1,1560,1562,0,0
343,-538,0,0,0,0,0,0,0,0,0,-1,1567,1562,0,0
350,-538,0,0,0,0,0,0,0,0,0,-1,1574,1562,0,0
357,-538,0,0,0,0,0,0,0,0,0,-1,1581,1562,0,0
364,-538,0,0,0,0,0,0,0,0,0,-1,1588,1562,0,0
371,-538,0,0,0,0,0,0,0,0,0,-1,1595,1562,0,0
378,-538,9.65479,5.82434,0,0,0,0,0,0,0,-1,1602,1562,9.6548,-5.82439
385,-538,10.5449,7.9502,0,0,0,0,0,0,0,-1,1609,1562,10.5449,-7.95014
392,-538,8.20361,7.07214,0,0,0,0,0,0,0,-1,1616,1562,8.20362,-7.07211
399,-538,7.85425,4.70508,0,0,0,0,0,0,0,-1,1623,1562,7.85425,-4.70512
406,-538,7.77734,4.96094,0,0,0,0,0,0,0,-1,1630,1562,7.77729,-4.96097
413,-538,13.0446,13.1765,0,0,0,0,0,0,0,-1,1637,1562,13.0446,-13.1765
420,-538,9.96216,12.7653,0,0,0,0,0,0,0,-1,1644,1562,9.96221,-12.7653
427,-538,10.1732,14.5863,0,0,0,0,0,0,0,-1,1651,1562,10.1732,-14.5863
434,-538,9.64331,14.7745,0,0,0,0,0,0,0,-1,1658,1562,9.64326,-14.7746
441,-538,11.5039,20.5195,0,0,0,0,0,0,0,-1,1665,1562,11.5039,-20.5195
448,-538,12.8766,22.4932,0,0,0,0,0,0,0,-1,1672,1562,12.8766,-22.4932
455,-538,12.5693,17.4128,0,0,0,0,0,0,0,-1,1679,1562,12.5694,-17.4128
462,-538,12.1389,17.017,0,0,0,0,0,0,0,-1,1686,1562,12.1389,-17.017
469,-538,14.3802,16.6945,0,0,0,0,0,0,0,-1,1693,1562,14.3803,-16.6945
476,-538,13.724,19.0608,0,0,0,0,0,0,0,-1,1700,1562,13.724,-19.0608
483,-538,17.088,25.2936,0,0,0,0,0,0,0,-1,1707,1562,17.088,-25.2936
490,-538,17.054,24.6631,0.0107833,0.0123572,-0.00894863,0.0205534,0.0025871,-0.829256,0.0129265,0.0490715,1714,1562,17.0539,-24.6631
497,-538,17.1447,24.3037,0.00885935,0.00965107,-0.00689184,0.0161584,0.00235201,-0.814086,0.0100802,0.0352482,1721,1562,17.1447,-24.3037
504,-538,17.2621,23.6887,0.00749092,0.00727911,-0.0056766,0.0130626,0.00170743,-0.776071,0.00819874,0.0156013,1728,1562,17.2621,-23.6887
511,-538,17.2577,23.228,0.00619404,0.00551986,-0.00480712,0.0106759,0.00103803,-0.750394,0.00679771,0.0105414,1735,1562,17.2577,-23.2281
518,-538,17.2533,22.7842,0.00454504,0.00399733,-0.0034531,0.00773513,0.000807244,-0.745828,0.00490984,0.010999,1742,1562,17.2532,-22.7842
525,-538,17.2211,22.3058,0.00287967,0.00270912,-0.00210048,0.0048966,0.000692186,-0.76511,0.00305988,0.0121119,1749,1562,17.2211,-22.3058
532,-538,17.2112,21.8323,0.00138547,0.00174578,-0.000828186,0.00241318,0.000718069,-0.892495,0.00143081,0.0139304,1756,1562,17.2112,-21.8322
539,-538,17.2087,21.3835,8.1211e-05,0.00100685,0.000421936,0.00117031,-8.22546e-05,1.20118,0.000809021,0.0163793,1763,1562,17.2088,-21.3835
546,-538,17.2015,20.903,-0.00121583,0.000339874,0.00176831,0.00149385,-0.00236981,0.992604,0.00224971,0.0171946,1770,1562,17.2015,-20.9029
553,-538,17.207,20.4209,-0.00236419,-0.000213913,0.00313614,0.00202627,-0.00460437,0.950531,0.00392347,0.0278125,1777,1562,17.2071,-20.4209
560,-538,17.1654,19.9597,-0.00318772,-0.000544561,0.00438158,0.00271041,-0.0064427,0.93187,0.00542902,0.0296477,1784,1562,17.1654,-19.9597
567,-538,17.1128,19.4836,-0.00362613,-0.00061053,0.00537175,0.00346102,-0.00769768,0.922223,0.00659545,0.0222677,1791,1562,17.1128,-19.4836
574,-538,17.0713,18.9976,-0.00369712,-0.000468894,0.00612519,0.0042513,-0.0084173,0.914229,0.00744488,0.0255867,1798,1562,17.0712,-18.9976
581,-538,17.179,18.5229,-0.00309102,3.4154e-05,0.00631664,0.00497861,-0.00803548,0.906652,0.00758246,0.0346857,1805,1562,17.179,-18.5229
588,-538,17.4805,18.0406,0,0,0,0,0,0,0,-1,1812,1562,17.4804,-18.0406
595,-538,15.9808,16.0894,0,0,0,0,0,0,0,-1,1819,1562,15.9808,-16.0893
602,-538,10.314,8.94238,0,0,0,0,0,0,0,-1,1826,1562,10.314,-8.94238
609,-538,10.1046,7.05713,0,0,0,0,0,0,0,-1,1833,1562,10.1046,-7.05719
616,-538,9.92249,5.43506,0,0,0,0,0,0,0,-1,1840,1562,9.92254,-5.43507
623,-538,11.1711,4.31604,0,0,0,0,0,0,0,-1,1847,1562,11.1711,-4.316
630,-538,12.6112,2.61633,0,0,0,0,0,0,0,-1,1854,1562,12.6112,-2.61637
637,-538,0,0,0,0,0,0,0,0,0,-1,1861,1562,0,0
644,-538,0,0,0,0,0,0,0,0,0,-1,1868,1562,0,0
651,-538,0,0,0,0,0,0,0,0,0,-1,1875,1562,0,0
658,-538,0,0,0,0,0,0,0,0,0,-1,1882,1562,0,0
665,-538,0,0,0,0,0,0,0,0,0,-1,1889,1562,0,0
672,-538,0,0,0,0,0,0,0,0,0,-1,1896,1562,0,0
679,-538,0,0,0,0,0,0,0,0,0,-1,1903,1562,0,0
686,-538,0,0,0,0,0,0,0,0,0,-1,1910,1562,0,0
693,-538,0,0,0,0,0,0,0,0,0,-1,1917,1562,0,0
700,-538,0,0,0,0,0,0,0,0,0,-1,1924,1562,0,0
707,-538,0,0,0,0,0,0,0,0,0,-1,1931,1562,0,0
714,-538,0,0,0,0,0,0,0,0,0,-1,1938,1562,0,0
721,-538,0,0,0,0,0,0,0,0,0,-1,1945,1562,0,0
728,-538,0,0,0,0,0,0,0,0,0,-1,1952,1562,0,0
735,-538,0,0,0,0,0,0,0,0,0,-1,1959,1562,0,0
742,-538,0,0,0,0,0,0,0,0,0,-1,1966,1562,0,0
749,-538,0,0,0,0,0,0,0,0,0,-1,1973,1562,0,0
756,-538,0,0,0,0,0,0,0,0,0,-1,1980,1562,0,0
763,-538,0,0,0,0,0,0,0,0,0,-1,1987,1562,0,0
770,-538,0,0,0,0,0,0,0,0,0,-1,1994,1562,0,0
777,-538,0,0,0,0,0,0,0,0,0,-1,2001,1562,0,0
784,-538,0,0,0,0,0,0,0,0,0,-1,2008,1562,0,0
791,-538,0,0,0,0,0,0,0,0,0,-1,2015,1562,0,0
798,-538,0,0,0,0,0,0,0,0,0,-1,2022,1562,0,0
805,-538,0,0,0,0,0,0,0,0,0,-1,2029,1562,0,0
812,-538,0,0,0,0,0,0,0,0,0,-1,2036,1562,0,0
-700,-545,0,0,0,0,0,0,0,0,0,-1,524,1569,0,0
-693,-545,0,0,0,0,0,0,0,0,0,-1,531,1569,0,0
-686,-545,0,0,0,0,0,0,0,0,0,-1,538,1569,0,0
-679,-545,0,0,0,0,0,0,0,0,0,-1,545,1569,0,0
-672,-545,0,0,0,0,0,0,0,0,0,-1,552,1569,0,0
-665,-545,0,0,0,0,0,0,0,0,0,-1,559,1569,0,0
-658,-545,0,0,0,0,0,0,0,0,0,-1,566,1569,0,0
-651,-545,0,0,0,0,0,0,0,0,0,-1,573,1569,0,0
-644,-545,0,0,0,0,0,0,0,0,0,-1,580,1569,0,0
-637,-545,0,0,0,0,0,0,0,0,0,-1,587,1569,0,0
-630,-545,0,0,0,0,0,0,0,0,0,-1,594,1569,0,0
-623,-545,0,0,0,0,0,0,0,0,0,-1,601,1569,0,0
-616,-545,0,0,0,0,0,0,0,0,0,-1,608,1569,0,0
-609,-545,0,0,0,0,0,0,0,0,0,-1,615,1569,0,0
-602,-545,0,0,0,0,0,0,0,0,0,-1,622,1569,0,0
-595,-545,0,0,0,0,0,0,0,0,0,-1,629,1569,0,0
-588,-545,0,0,0,0,0,0,0,0,0,-1,636,1569,0,0
-581,-545,0,0,0,0,0,0,0,0,0,-1,643,1569,0,0
-574,-545,0,0,0,0,0,0,0,0,0,-1,650,1569,0,0
-567,-545,0,0,0,0,0,0,0,0,0,-1,657,1569,0,0
-560,-545,0,0,0,0,0,0,0,0,0,-1,664,1569,0,0
-553,-545,0,0,0,0,0,0,0,0,0,-1,671,1569,0,0
-546,-545,0,0,0,0,0,0,0,0,0,-1,678,1569,0,0
-539,-545,0,0,0,0,0,0,0,0,0,-1,685,1569,0,0
-532,-545,0,0,0,0,0,0,0,0,0,-1,692,1569,0,0
-525,-545,0,0,0,0,0,0,0,0,0,-1,699,1569,0,0
-518,-545,0,0,0,0,0,0,0,0,0,-1,706,1569,0,0
-511,-545,0,0,0,0,0,0,0,0,0,-1,713,1569,0,0
-504,-545,-3.55237,-2.5354,0,0,0,0,0,0,0,-1,720,1569,-3.55236,2.53545
-497,-545,2.26575,5.69214,0,0,0,0,0,0,0,-1,727,1569,2.26573,-5.6922
-490,-545,-2.17334,7.81396,0,0,0,0,0,0,0,-1,734,1569,-2.17334,-7.81399
-483,-545,-1.88336,5.8446,0,0,0,0,0,0,0,-1,741,1569,-1.88334,-5.84466
-476,-545,-1.13147,6.5741,0,0,0,0,0,0,0,-1,748,1569,-1.13149,-6.57405
-469,-545,-1.86725,14.3982,0,0,0,0,0,0,0,-1,755,1569,-1.86727,-14.3982
-462,-545,-1.87262,17.2384,0,0,0,0,0,0,0,-1,762,1569,-1.8726,-17.2384
-455,-545,-1.76459,16.8381,0.0199174,-0.00387623,0.00203747,0.0200906,-0.00404944,0.0848083,0.0149278,0.046126,769,1569,-1.76462,-16.8382
-448,-545,-1.08032,17.1475,0.014679,-0.00202413,0.0014319,0.0148008,-0.00214599,0.084901,0.0106548,0.0315099,776,1569,-1.08035,-17.1475
-441,-545,-1.1817,17.8944,0.010369,-0.000898951,0.000845765,0.0104321,-0.00096208,0.0745033,0.0072966,0.0257983,783,1569,-1.1817,-17.8944
-434,-545,-1.40692,18.3024,0.00709138,-0.000434178,0.000454276,0.0071187,-0.0004615,0.0600736,0.00490688,0.0233398,790,1569,-1.4069,-18.3024
-427,-545,-1.37634,18.7716,0.0047217,-7.4575e-05,0.000316961,0.00474256,-9.54308e-05,0.0657039,0.00319399,0.0187651,797,1569,-1.37636,-18.7716
-420,-545,-1.34662,19.2477,0.0032011,0.00035954,0.00040902,0.00325881,0.000301837,0.140152,0.00207924,0.022538,804,1569,-1.34659,-19.2477
-413,-545,-1.3772,19.765,0.00220637,0.00125594,0.000536584,0.00244792,0.00101439,0.422989,0.0014202,0.0227277,811,1569,-1.37718,-19.7651
-406,-545,-1.40405,20.271,0.00162952,0.00212372,0.00106304,0.002968,0.000785242,0.899594,0.00177577,0.0178056,818,1569,-1.40407,-20.2711
-399,-545,-1.39795,20.7572,0.00133515,0.00268819,0.00163547,0.00378154,0.000241806,0.98151,0.00244441,0.0116849,825,1569,-1.39794,-20.7572
-392,-545,-1.4303,21.244,0.00176301,0.00341461,0.00213807,0.00488082,0.000296804,0.96969,0.00315959,0.0116344,832,1569,-1.4303,-21.244
-385,-545,-1.4458,21.756,0.0026417,0.00465716,0.00282913,0.00665267,0.000646182,0.956491,0.00423618,0.0102868,839,1569,-1.44582,-21.756
-378,-545,-1.47754,22.2606,0.00362296,0.00620169,0.00364793,0.00878142,0.00104323,0.955271,0.00553938,0.0119066,846,1569,-1.47754,-22.2606
-371,-545,-1.49683,22.765,0.00455806,0.00768461,0.00436625,0.010759,0.00148366,0.957306,0.00673283,0.0140547,853,1569,-1.49682,-22.765
-364,-545,-1.49451,23.2167,0.00560682,0.0093601,0.00517314,0.0129865,0.00198044,0.9594,0.00807883,0.0101011,860,1569,-1.4945,-23.2166
-357,-545,-1.43042,23.7961,0.006745,0.0111915,0.00597561,0.015344,0.00259245,0.963489,0.00948405,0.0174461,867,1569,-1.43044,-23.7961
-350,-545,-1.39484,24.3081,0.00805566,0.0132155,0.00686764,0.0179718,0.00329933,0.965073,0.0110469,0.0266956,874,1569,-1.39484,-24.3081
-343,-545,-1.41766,24.7476,0.00946194,0.0153715,0.00784131,0.0207963,0.00403717,0.965582,0.0127336,0.0428848,881,1569,-1.41763,-24.7476
-336,-545,-1.35858,25.116,0,0,0,0,0,0,0,-1,888,1569,-1.35856,-25.1159
-329,-545,-1.83618,24.5995,0,0,0,0,0,0,0,-1,895,1569,-1.83619,-24.5995
-322,-545,-2.31085,25.0807,0,0,0,0,0,0,0,-1,902,1569,-2.31088,-25.0807
-315,-545,-2.6922,25.0237,0,0,0,0,0,0,0,-1,909,1569,-2.6922,-25.0237
-308,-545,-1.54358,21.4457,0,0,0,0,0,0,0,-1,916,1569,-1.54357,-21.4457
-301,-545,1.52191,17.5009,0,0,0,0,0,0,0,-1,923,1569,1.52192,-17.5008
-294,-545,-2.69287,8.42102,0,0,0,0,0,0,0,-1,930,1569,-2.69287,-8.42097
-287,-545,-3.47784,9.96021,0,0,0,0,0,0,0,-1,937,1569,-3.47785,-9.96021
-280,-545,-3.7879,10.5448,0,0,0,0,0,0,0,-1,944,1569,-3.78793,-10.5448
-273,-545,-5.10333,12.864,0,0,0,0,0,0,0,-1,951,1569,-5.10331,-12.864
-266,-545,-5.78955,13.3704,0,0,0,0,0,0,0,-1,958,1569,-5.78952,-13.3703
-259,-545,-6.32184,13.8101,0,0,0,0,0,0,0,-1,965,1569,-6.32182,-13.81
-252,-545,0.369263,7.54053,0,0,0,0,0,0,0,-1,972,1569,0.369276,-7.54056
-245,-545,-0.236633,6.65564,0,0,0,0,0,0,0,-1,979,1569,-0.236605,-6.65566
-238,-545,0,0,0,0,0,0,0,0,0,-1,986,1569,0,0
-231,-545,0,0,0,0,0,0,0,0,0,-1,993,1569,0,0
-224,-545,0,0,0,0,0,0,0,0,0,-1,1000,1569,0,0
-217,-545,0,0,0,0,0,0,0,0,0,-1,1007,1569,0,0
-210,-545,0,0,0,0,0,0,0,0,0,-1,1014,1569,0,0
-203,-545,0,0,0,0,0,0,0,0,0,-1,1021,1569,0,0
-196,-545,0,0,0,0,0,0,0,0,0,-1,1028,1569,0,0
-189,-545,0,0,0,0,0,0,0,0,0,-1,1035,1569,0,0
-182,-545,0,0,0,0,0,0,0,0,0,-1,1042,1569,0,0
-175,-545,0,0,0,0,0,0,0,0,0,-1,1049,1569,0,0
-168,-545,0,0,0,0,0,0,0,0,0,-1,1056,1569,0,0
-161,-545,0,0,0,0,0,0,0,0,0,-1,1063,1569,0,0
-154,-545,0,0,0,0,0,0,0,0,0,-1,1070,1569,0,0
-147,-545,0,0,0,0,0,0,0,0,0,-1,1077,1569,0,0
-140,-545,0,0,0,0,0,0,0,0,0,-1,1084,1569,0,0
-133,-545,0,0,0,0,0,0,0,0,0,-1,1091,1569,0,0
-126,-545,0,0,0,0,0,0,0,0,0,-1,1098,1569,0,0
-119,-545,0,0,0,0,0,0,0,0,0,-1,1105,1569,0,0
-112,-545,0,0,0,0,0,0,0,0,0,-1,1112,1569,0,0
-105,-545,0,0,0,0,0,0,0,0,0,-1,1119,1569,0,0
-98,-545,0,0,0,0,0,0,0,0,0,-1,1126,1569,0,0
-91,-545,0,0,0,0,0,0,0,0,0,-1,1133,1569,0,0
-84,-545,0,0,0,0,0,0,0,0,0,-1,1140,1569,0,0
-77,-545,0,0,0,0,0,0,0,0,0,-1,1147,1569,0,0
-70,-545,0,0,0,0,0,0,0,0,0,-1,1154,1569,0,0
-63,-545,0,0,0,0,0,0,0,0,0,-1,1161,1569,0,0
-56,-545,0,0,0,0,0,0,0,0,0,-1,1168,1569,0,0
-49,-545,0,0,0,0,0,0,0,0,0,-1,1175,1569,0,0
-42,-545,0,0,0,0,0,0,0,0,0,-1,1182,1569,0,0
-35,-545,0,0,0,0,0,0,0,0,0,-1,1189,1569,0,0
-28,-545,0,0,0,0,0,0,0,0,0,-1,1196,1569,0,0
-21,-545,0,0,0,0,0,0,0,0,0,-1,1203,1569,0,0
-14,-545,0,0,0,0,0,0,0,0,0,-1,1210,1569,0,0
-7,-545,0,0,0,0,0,0,0,0,0,-1,1217,1569,0,0
0,-545,0,0,0,0,0,0,0,0,0,-1,1224,1569,0,0
7,-545,0,0,0,0,0,0,0,0,0,-1,1231,1569,0,0
14,-545,0,0,0,0,0,0,0,0,0,-1,1238,1569,0,0
21,-545,0,0,0,0,0,0,0,0,0,-1,1245,1569,0,0
28,-545,0,0,0,0,0,0,0,0,0,-1,1252,1569,0,0
35,-545,0,0,0,0,0,0,0,0,0,-1,1259,1569,0,0
42,-545,0,0,0,0,0,0,0,0,0,-1,1266,1569,0,0
49,-545,0,0,0,0,0,0,0,0,0,-1,1273,1569,0,0
56,-545,0,0,0,0,0,0,0,0,0,-1,1280,1569,0,0
63,-545,0,0,0,0,0,0,0,0,0,-1,1287,1569,0,0
70,-545,0,0,0,0,0,0,0,0,0,-1,1294,1569,0,0
77,-545,0,0,0,0,0,0,0,0,0,-1,1301,1569,0,0
84,-545,0,0,0,0,0,0,0,0,0,-1,1308,1569,0,0
91,-545,0,0,0,0,0,0,0,0,0,-1,1315,1569,0,0
98,-545,0,0,0,0,0,0,0,0,0,-1,1322,1569,0,0
105,-545,0,0,0,0,0,0,0,0,0,-1,1329,1569,0,0
112,-545,0,0,0,0,0,0,0,0,0,-1,1336,1569,0,0
119,-545,0,0,0,0,0,0,0,0,0,-1,1343,1569,0,0
126,-545,0,0,0,0,0,0,0,0,0,-1,1350,1569,0,0
133,-545,0,0,0,0,0,0,0,0,0,-1,1357,1569,0,0
140,-545,0,0,0,0,0,0,0,0,0,-1,1364,1569,0,0
147,-545,0,0,0,0,0,0,0,0,0,-1,1371,1569,0,0
154,-545,0,0,0,0,0,0,0,0,0,-1,1378,1569,0,0
161,-545,0,0,0,0,0,0,0,0,0,-1,1385,1569,0,0
168,-545,0,0,0,0,0,0,0,0,0,-1,1392,1569,0,0
175,-545,0,0,0,0,0,0,0,0,0,-1,1399,1569,0,0
182,-545,0,0,0,0,0,0,0,0,0,-1,1406,1569,0,0
189,-545,0,0,0,0,0,0,0,0,0,-1,1413,1569,0,0
196,-545,0,0,0,0,0,0,0,0,0,-1,1420,1569,0,0
203,-545,0,0,0,0,0,0,0,0,0,-1,1427,1569,0,0
210,-545,0,0,0,0,0,0,0,0,0,-1,1434,1569,0,0
217,-545,0,0,0,0,0,0,0,0,0,-1,1441,1569,0,0
224,-545,0,0,0,0,0,0,0,0,0,-1,1448,1569,0,0
231,-545,0,0,0,0,0,0,0,0,0,-1,1455,1569,0,0
238,-545,0,0,0,0,0,0,0,0,0,-1,1462,1569,0,0
245,-545,0,0,0,0,0,0,0,0,0,-1,1469,1569,0,0
252,-545,0,0,0,0,0,0,0,0,0,-1,1476,1569,0,0
259,-545,0,0,0,0,0,0,0,0,0,-1,1483,1569,0,0
266,-545,0,0,0,0,0,0,0,0,0,-1,1490,1569,0,0
273,-545,0,0,0,0,0,0,0,0,0,-1,1497,1569,0,0
280,-545,0,0,0,0,0,0,0,0,0,-1,1504,1569,0,0
287,-545,0,0,0,0,0,0,0,0,0,-1,1511,1569,0,0
294,-545,0,0,0,0,0,0,0,0,0,-1,1518,1569,0,0
301,-545,0,0,0,0,0,0,0,0,0,-1,1525,1569,0,0
308,-545,0,0,0,0,0,0,0,0,0,-1,1532,1569,0,0
315,-545,0,0,0,0,0,0,0,0,0,-1,1539,1569,0,0
322,-545,0,0,0,0,0,0,0,0,0,-1,1546,1569,0,0
329,-545,0,0,0,0,0,0,0,0,0,-1,1553,1569,0,0
336,-545,0,0,0,0,0,0,0,0,0,-1,1560,1569,0,0
343,-545,0,0,0,0,0,0,0,0,0,-1,1567,1569,0,0
350,-545,0,0,0,0,0,0,0,0,0,-1,1574,1569,0,0
357,-545,0,0,0,0,0,0,0,0,0,-1,1581,1569,0,0
364,-545,7.19495,4.88098,0,0,0,0,0,0,0,-1,1588,1569,7.19497,-4.88095
371,-545,7.82324,3.84302,0,0,0,0,0,0,0,-1,1595,1569,7.82324,-3.84307
378,-545,7.65674,5.52673,0,0,0,0,0,0,0,-1,1602,1569,7.6567,-5.52667
385,-545,8.58447,1.16125,0,0,0,0,0,0,0,-1,1609,1569,8.5845,-1.1612
392,-545,12.5654,3.89526,0,0,0,0,0,0,0,-1,1616,1569,12.5655,-3.89532
399,-545,11.5869,5.6333,0,0,0,0,0,0,0,-1,1623,1569,11.5869,-5.63326
406,-545,11.234,6.36414,0,0,0,0,0,0,0,-1,1630,1569,11.234,-6.3641
413,-545,12.1521,13.4817,0,0,0,0,0,0,0,-1,1637,1569,12.1521,-13.4817
420,-545,11.1954,13.6047,0,0,0,0,0,0,0,-1,1644,1569,11.1954,-13.6047
427,-545,9.61072,14.9135,0,0,0,0,0,0,0,-1,1651,1569,9.61076,-14.9134
434,-545,13.1598,23.9921,0,0,0,0,0,0,0,-1,1658,1569,13.1598,-23.992
441,-545,12.2833,22.2238,0,0,0,0,0,0,0,-1,1665,1569,12.2833,-22.2237
448,-545,13.0082,21.941,0,0,0,0,0,0,0,-1,1672,1569,13.0082,-21.941
455,-545,13.733,21.6583,0,0,0,0,0,0,0,-1,1679,1569,13.733,-21.6583
462,-545,12.449,20.7413,0,0,0,0,0,0,0,-1,1686,1569,12.4489,-20.7413
469,-545,12.7837,17.7919,0,0,0,0,0,0,0,-1,1693,1569,12.7837,-17.7919
476,-545,15.7562,24.8708,0,0,0,0,0,0,0,-1,1700,1569,15.7563,-24.8709
483,-545,16.651,25.248,0,0,0,0,0,0,0,-1,1707,1569,16.651,-25.2481
490,-545,16.7502,24.6843,0.00871142,0.0103448,-0.00734525,0.0169186,0.00213761,-0.840764,0.0106384,0.026802,1714,1569,16.7502,-24.6844
497,-545,16.7771,24.203,0.00713324,0.00791675,-0.00560748,0.0131461,0.00190385,-0.820273,0.00820345,0.0206941,1721,1569,16.7771,-24.203
504,-545,16.8645,23.7144,0.00586248,0.00576021,-0.00444062,0.0102523,0.00137043,-0.779641,0.00642692,0.015839,1728,1569,16.8645,-23.7144
511,-545,16.8248,23.2355,0.0045412,0.00418148,-0.00343936,0.0078054,0.000917278,-0.759274,0.00492639,0.0124738,1735,1569,16.8248,-23.2354
518,-545,16.8105,22.786,0.00293052,0.00280045,-0.00209914,0.00496563,0.000765341,-0.769913,0.00308709,0.0134354,1742,1569,16.8105,-22.786
525,-545,16.7704,22.308,0.00126038,0.00164586,-0.000703869,0.0021829,0.00072334,-0.919037,0.00128397,0.0136391,1749,1569,16.7703,-22.3079
532,-545,16.7377,21.8438,-0.000306223,0.000783573,0.000676517,0.00110735,-0.000629995,1.12442,0.0010156,0.0146292,1756,1569,16.7377,-21.8438
539,-545,16.7369,21.3962,-0.00179553,0.000127432,0.00212452,0.00149791,-0.00316601,0.99789,0.00274953,0.0172798,1763,1569,16.7369,-21.3962
546,-545,16.7263,20.9275,-0.00337873,-0.000479726,0.0037812,0.00212028,-0.00597873,0.968432,0.00484962,0.0183629,1770,1569,16.7263,-20.9275
553,-545,16.7366,20.3932,-0.00488886,-0.000945207,0.00554976,0.00297261,-0.00880668,0.956092,0.00707336,0.0267973,1777,1569,16.7365,-20.3932
560,-545,16.714,19.845,-0.00614169,-0.00118146,0.00727736,0.00402679,-0.0113499,0.949625,0.00920724,0.0276024,1784,1569,16.714,-19.845
567,-545,16.619,19.335,0,0,0,0,0,0,0,-1,1791,1569,16.6191,-19.3349
574,-545,16.7604,18.8773,0,0,0,0,0,0,0,-1,1798,1569,16.7603,-18.8773
581,-545,16.8339,18.438,0,0,0,0,0,0,0,-1,1805,1569,16.8339,-18.438
588,-545,15.4786,16.7035,0,0,0,0,0,0,0,-1,1812,1569,15.4786,-16.7035
595,-545,10.2859,9.11218,0,0,0,0,0,0,0,-1,1819,1569,10.2858,-9.11215
602,-545,8.82117,6.32214,0,0,0,0,0,0,0,-1,1826,1569,8.82121,-6.32217
609,-545,10.2406,5.22351,0,0,0,0,0,0,0,-1,1833,1569,10.2406,-5.22353
616,-545,11.701,3.93188,0,0,0,0,0,0,0,-1,1840,1569,11.701,-3.93191
623,-545,13.2139,2.32043,0,0,0,0,0,0,0,-1,1847,1569,13.2139,-2.32042
630,-545,0,0,0,0,0,0,0,0,0,-1,1854,1569,0,0
637,-545,0,0,0,0,0,0,0,0,0,-1,1861,1569,0,0
644,-545,0,0,0,0,0,0,0,0,0,-1,1868,1569,0,0
651,-545,0,0,0,0,0,0,0,0,0,-1,1875,1569,0,0
658,-545,0,0,0,0,0,0,0,0,0,-1,1882,1569,0,0
665,-545,0,0,0,0,0,0,0,0,0,-1,1889,1569,0,0
672,-545,0,0,0,0,0,0,0,0,0,-1,1896,1569,0,0
679,-545,0,0,0,0,0,0,0,0,0,-1,1903,1569,0,0
686,-545,0,0,0,0,0,0,0,0,0,-1,1910,1569,0,0
693,-545,0,0,0,0,0,0,0,0,0,-1,1917,1569,0,0
700,-545,0,0,0,0,0,0,0,0,0,-1,1924,1569,0,0
707,-545,0,0,0,0,0,0,0,0,0,-1,1931,1569,0,0
714,-545,0,0,0,0,0,0,0,0,0,-1,1938,1569,0,0
721,-545,0,0,0,0,0,0,0,0,0,-1,1945,1569,0,0
728,-545,0,0,0,0,0,0,0,0,0,-1,1952,1569,0,0
735,-545,0,0,0,0,0,0,0,0,0,-1,1959,1569,0,0
742,-545,0,0,0,0,0,0,0,0,0,-1,1966,1569,0,0
749,-545,0,0,0,0,0,0,0,0,0,-1,1973,1569,0,0
756,-545,0,0,0,0,0,0,0,0,0,-1,1980,1569,0,0
763,-545,0,0,0,0,0,0,0,0,0,-1,1987,1569,0,0
770,-545,0,0,0,0,0,0,0,0,0,-1,1994,1569,0,0
777,-545,0,0,0,0,0,0,0,0,0,-1,2001,1569,0,0
784,-545,0,0,0,0,0,0,0,0,0,-1,2008,1569,0,0
791,-545,0,0,0,0,0,0,0,0,0,-1,2015,1569,0,0
798,-545,0,0,0,0,0,0,0,0,0,-1,2022,1569,0,0
805,-545,0,0,0,0,0,0,0,0,0,-1,2029,1569,0,0
812,-545,0,0,0,0,0,0,0,0,0,-1,2036,1569,0,0
-700,-552,0,0,0,0,0,0,0,0,0,-1,524,1576,0,0
-693,-552,0,0,0,0,0,0,0,0,0,-1,531,1576,0,0
-686,-552,0,0,0,0,0,0,0,0,0,-1,538,1576,0,0
-679,-552,0,0,0,0,0,0,0,0,0,-1,545,1576,0,0
-672,-552,0,0,0,0,0,0,0,0,0,-1,552,1576,0,0
-665,-552,0,0,0,0,0,0,0,0,0,-1,559,1576,0,0
-658,-552,0,0,0,0,0,0,0,0,0,-1,566,1576,0,0
-651,-552,0,0,0,0,0,0,0,0,0,-1,573,1576,0,0
-644,-552,0,0,0,0,0,0,0,0,0,-1,580,1576,0,0
-637,-552,0,0,0,0,0,0,0,0,0,-1,587,1576,0,0
-630,-552,0,0,0,0,0,0,0,0,0,-1,594,1576,0,0
-623,-552,0,0,0,0,0,0,0,0,0,-1,601,1576,0,0
-616,-552,0,0,0,0,0,0,0,0,0,-1,608,1576,0,0
-609,-552,0,0,0,0,0,0,0,0,0,-1,615,1576,0,0
-602,-552,0,0,0,0,0,0,0,0,0,-1,622,1576,0,0
-595,-552,0,0,0,0,0,0,0,0,0,-1,629,1576,0,0
-588,-552,0,0,0,0,0,0,0,0,0,-1,636,1576,0,0
-581,-552,0,0,0,0,0,0,0,0,0,-1,643,1576,0,0
-574,-552,0,0,0,0,0,0,0,0,0,-1,650,1576,0,0
-567,-552,0,0,0,0,0,0,0,0,0,-1,657,1576,0,0
-560,-552,0,0,0,0,0,0,0,0,0,-1,664,1576,0,0
-553,-552,0,0,0,0,0,0,0,0,0,-1,671,1576,0,0
-546,-552,0,0,0,0,0,0,0,0,0,-1,678,1576,0,0
-539,-552,0,0,0,0,0,0,0,0,0,-1,685,1576,0,0
-532,-552,0,0,0,0,0,0,0,0,0,-1,692,1576,0,0
-525,-552,0,0,0,0,0,0,0,0,0,-1,699,1576,0,0
-518,-552,0,0,0,0,0,0,0,0,0,-1,706,1576,0,0
-511,-552,0,0,0,0,0,0,0,0,0,-1,713,1576,0,0
-504,-552,0,0,0,0,0,0,0,0,0,-1,720,1576,0,0
-497,-552,1.51282,3.96924,0,0,0,0,0,0,0,-1,727,1576,1.5128,-3.96924
-490,-552,-3.82312,6.32104,0,0,0,0,0,0,0,-1,734,1576,-3.82314,-6.3211
-483,-552,-3.50586,6.47986,0,0,0,0,0,0,0,-1,741,1576,-3.50587,-6.47983
-476,-552,-1.95129,4.43054,0,0,0,0,0,0,0,-1,748,1576,-1.95128,-4.43054
-469,-552,-1.40491,7.9895,0,0,0,0,0,0,0,-1,755,1576,-1.40491,-7.98947
-462,-552,-1.99573,11.4446,0,0,0,0,0,0,0,-1,762,1576,-1.99571,-11.4445
-455,-552,-1.38031,16.7673,0,0,0,0,0,0,0,-1,769,1576,-1.38033,-16.7673
-448,-552,-0.666931,16.5927,0.0183836,0.00134259,0.00314584,0.0189458,0.000780399,0.176842,0.0123786,0.0471381,776,1576,-0.666915,-16.5927
-441,-552,-0.656616,17.8773,0.0126333,0.00150732,0.00194827,0.0129646,0.00117602,0.168435,0.00827894,0.0445354,783,1576,-0.656646,-17.8773
-434,-552,-0.693054,18.447,0.00836125,0.000951956,0.00105063,0.00850735,0.00080586,0.13817,0.00542294,0.0341718,790,1576,-0.693055,-18.447
-427,-552,-0.909241,18.7091,0.00526693,0.000460187,0.000464317,0.00531137,0.000415746,0.0954214,0.00341079,0.0294059,797,1576,-0.909239,-18.7092
-420,-552,-0.850037,19.2894,0.00321673,0.000375236,0.0002494,0.00323846,0.000353512,0.0868855,0.00205131,0.0214136,804,1576,-0.85005,-19.2894
-413,-552,-0.85675,19.7786,0.00185859,0.000915865,0.000144096,0.00188012,0.000894332,0.148339,0.00108592,0.0176155,811,1576,-0.856768,-19.7786
-406,-552,-0.882324,20.2877,0.000979996,0.00147372,0.0005022,0.00178645,0.000667263,1.01383,0.00104235,0.0137459,818,1576,-0.882306,-20.2877
-399,-552,-0.926453,20.7681,0.000373319,0.00168711,0.000906693,0.00214986,-8.94306e-05,1.09889,0.00146396,0.0133283,825,1576,-0.926448,-20.7681
-392,-552,-0.971497,21.2577,0.000615493,0.00192651,0.00116857,0.00261087,-6.88633e-05,1.041,0.00176398,0.0147248,832,1576,-0.97147,-21.2577
-385,-552,-0.967712,21.7783,0.00141606,0.00295888,0.00169222,0.00404722,0.000327718,0.999254,0.00259581,0.0147887,839,1576,-0.967696,-21.7784
-378,-552,-0.991882,22.2426,0.00232538,0.00423974,0.00240105,0.00586738,0.000697751,0.975069,0.00370099,0.0168387,846,1576,-0.991886,-22.2425
-371,-552,-1.00116,22.7489,0.00317278,0.00540644,0.00297298,0.00746545,0.00111378,0.965073,0.00465038,0.0189584,853,1576,-1.00114,-22.7489
-364,-552,-0.999207,23.2336,0.00412792,0.0067778,0.00363148,0.00931849,0.00158723,0.960319,0.00575666,0.0138631,860,1576,-0.999176,-23.2337
-357,-552,-0.998535,23.7029,0.00516606,0.00824552,0.0042821,0.0112563,0.00215528,0.957987,0.00689892,0.0100319,867,1576,-0.99851,-23.7028
-350,-552,-0.987488,24.214,0.00636544,0.00982711,0.00500926,0.0133961,0.00279642,0.95174,0.00815993,0.0126938,874,1576,-0.987462,-24.214
-343,-552,-1.00024,24.6748,0.00766143,0.0115733,0.00584265,0.0157787,0.003456,0.946918,0.00957729,0.0175984,881,1576,-1.00023,-24.6748
-336,-552,-0.930542,25.0256,0.00896556,0.0135542,0.0066717,0.0183151,0.00420472,0.951009,0.0110777,0.0328193,888,1576,-0.930549,-25.0256
-329,-552,-0.734375,25.5476,0,0,0,0,0,0,0,-1,895,1576,-0.734372,-25.5476
-322,-552,-1.32062,24.5261,0,0,0,0,0,0,0,-1,902,1576,-1.3206,-24.5261
-315,-552,0.154358,26.4829,0,0,0,0,0,0,0,-1,909,1576,0.154341,-26.4829
-308,-552,1.48743,24.9044,0,0,0,0,0,0,0,-1,916,1576,1.48745,-24.9045
-301,-552,1.39453,18.4995,0,0,0,0,0,0,0,-1,923,1576,1.3945,-18.4995
-294,-552,0.842163,13.7863,0,0,0,0,0,0,0,-1,930,1576,0.842149,-13.7863
-287,-552,-0.663757,13.3474,0,0,0,0,0,0,0,-1,937,1576,-0.663744,-13.3474
-280,-552,-5.47241,8.96765,0,0,0,0,0,0,0,-1,944,1576,-5.47239,-8.96766
-273,-552,1.64587,10.6685,0,0,0,0,0,0,0,-1,951,1576,1.6459,-10.6685
-266,-552,-1.32678,8.05688,0,0,0,0,0,0,0,-1,958,1576,-1.32677,-8.05683
-259,-552,-5.54321,8.31213,0,0,0,0,0,0,0,-1,965,1576,-5.54324,-8.31214
-252,-552,-1.93445,7.81543,0,0,0,0,0,0,0,-1,972,1576,-1.93445,-7.81546
-245,-552,-2.53613,6.92212,0,0,0,0,0,0,0,-1,979,1576,-2.53614,-6.92216
-238,-552,-6.5365,2.81885,0,0,0,0,0,0,0,-1,986,1576,-6.53649,-2.8188
-231,-552,-4.32239,4.34583,0,0,0,0,0,0,0,-1,993,1576,-4.32239,-4.34587
-224,-552,0,0,0,0,0,0,0,0,0,-1,1000,1576,0,0
-217,-552,0,0,0,0,0,0,0,0,0,-1,1007,1576,0,0
-210,-552,0,0,0,0,0,0,0,0,0,-1,1014,1576,0,0
-203,-552,0,0,0,0,0,0,0,0,0,-1,1021,1576,0,0
-196,-552,0,0,0,0,0,0,0,0,0,-1,1028,1576,0,0
-189,-552,0,0,0,0,0,0,0,0,0,-1,1035,1576,0,0
-182,-552,0,0,0,0,0,0,0,0,0,-1,1042,1576,0,0
-175,-552,0,0,0,0,0,0,0,0,0,-1,1049,1576,0,0
-168,-552,0,0,0,0,0,0,0,0,0,-1,1056,1576,0,0
-161,-552,0,0,0,0,0,0,0,0,0,-1,1063,1576,0,0
-154,-552,0,0,0,0,0,0,0,0,0,-1,1070,1576,0,0
-147,-552,0,0,0,0,0,0,0,0,0,-1,1077,1576,0,0
-140,-552,0,0,0,0,0,0,0,0,0,-1,1084,1576,0,0
-133,-552,0,0,0,0,0,0,0,0,0,-1,1091,1576,0,0
-126,-552,0,0,0,0,0,0,0,0,0,-1,1098,1576,0,0
-119,-552,0,0,0,0,0,0,0,0,0,-1,1105,1576,0,0
-112,-552,0,0,0,0,0,0,0,0,0,-1,1112,1576,0,0
-105,-552,0,0,0,0,0,0,0,0,0,-1,1119,1576,0,0
-98,-552,0,0,0,0,0,0,0,0,0,-1,1126,1576,0,0
-91,-552,0,0,0,0,0,0,0,0,0,-1,1133,1576,0,0
-84,-552,0,0,0,0,0,0,0,0,0,-1,1140,1576,0,0
-77,-552,0,0,0,0,0,0,0,0,0,-1,1147,1576,0,0
-70,-552,0,0,0,0,0,0,0,0,0,-1,1154,1576,0,0
-63,-552,0,0,0,0,0,0,0,0,0,-1,1161,1576,0,0
-56,-552,0,0,0,0,0,0,0,0,0,-1,1168,1576,0,0
-49,-552,0,0,0,0,0,0,0,0,0,-1,1175,1576,0,0
-42,-552,0,0,0,0,0,0,0,0,0,-1,1182,1576,0,0
-35,-552,0,0,0,0,0,0,0,0,0,-1,1189,1576,0,0
-28,-552,0,0,0,0,0,0,0,0,0,-1,1196,1576,0,0
-21,-552,0,0,0,0,0,0,0,0,0,-1,1203,1576,0,0
-14,-552,0,0,0,0,0,0,0,0,0,-1,1210,1576,0,0
-7,-552,0,0,0,0,0,0,0,0,0,-1,1217,1576,0,0
0,-552,0,0,0,0,0,0,0,0,0,-1,1224,1576,0,0
7,-552,0,0,0,0,0,0,0,0,0,-1,1231,1576,0,0
14,-552,0,0,0,0,0,0,0,0,0,-1,1238,1576,0,0
21,-552,0,0,0,0,0,0,0,0,0,-1,1245,1576,0,0
28,-552,0,0,0,0,0,0,0,0,0,-1,1252,1576,0,0
35,-552,0,0,0,0,0,0,0,0,0,-1,1259,1576,0,0
42,-552,0,0,0,0,0,0,0,0,0,-1,1266,1576,0,0
49,-552,0,0,0,0,0,0,0,0,0,-1,1273,1576,0,0
56,-552,0,0,0,0,0,0,0,0,0,-1,1280,1576,0,0
63,-552,0,0,0,0,0,0,0,0,0,-1,1287,1576,0,0
70,-552,0,0,0,0,0,0,0,0,0,-1,1294,1576,0,0
77,-552,0,0,0,0,0,0,0,0,0,-1,1301,1576,0,0
84,-552,0,0,0,0,0,0,0,0,0,-1,1308,1576,0,0
91,-552,0,0,0,0,0,0,0,0,0,-1,1315,1576,0,0
98,-552,0,0,0,0,0,0,0,0,0,-1,1322,1576,0,0
105,-552,0,0,0,0,0,0,0,0,0,-1,1329,1576,0,0
112,-552,0,0,0,0,0,0,0,0,0,-1,1336,1576,0,0
119,-552,0,0,0,0,0,0,0,0,0,-1,1343,1576,0,0
126,-552,0,0,0,0,0,0,0,0,0,-1,1350,1576,0,0
133,-552,0,0,0,0,0,0,0,0,0,-1,1357,1576,0,0
140,-552,0,0,0,0,0,0,0,0,0,-1,1364,1576,0,0
147,-552,0,0,0,0,0,0,0,0,0,-1,1371,1576,0,0
154,-552,0,0,0,0,0,0,0,0,0,-1,1378,1576,0,0
161,-552,0,0,0,0,0,0,0,0,0,-1,1385,1576,0,0
168,-552,0,0,0,0,0,0,0,0,0,-1,1392,1576,0,0
175,-552,0,0,0,0,0,0,0,0,0,-1,1399,1576,0,0
182,-552,0,0,0,0,0,0,0,0,0,-1,1406,1576,0,0
189,-552,0,0,0,0,0,0,0,0,0,-1,1413,1576,0,0
196,-552,0,0,0,0,0,0,0,0,0,-1,1420,1576,0,0
203,-552,0,0,0,0,0,0,0,0,0,-1,1427,1576,0,0
210,-552,0,0,0,0,0,0,0,0,0,-1,1434,1576,0,0
217,-552,0,0,0,0,0,0,0,0,0,-1,1441,1576,0,0
224,-552,0,0,0,0,0,0,0,0,0,-1,1448,1576,0,0
231,-552,0,0,0,0,0,0,0,0,0,-1,1455,1576,0,0
238,-552,0,0,0,0,0,0,0,0,0,-1,1462,1576,0,0
245,-552,0,0,0,0,0,0,0,0,0,-1,1469,1576,0,0
252,-552,0,0,0,0,0,0,0,0,0,-1,1476,1576,0,0
259,-552,0,0,0,0,0,0,0,0,0,-1,1483,1576,0,0
266,-552,0,0,0,0,0,0,0,0,0,-1,1490,1576,0,0
273,-552,0,0,0,0,0,0,0,0,0,-1,1497,1576,0,0
280,-552,0,0,0,0,0,0,0,0,0,-1,1504,1576,0,0
287,-552,0,0,0,0,0,0,0,0,0,-1,1511,1576,0,0
294,-552,0,0,0,0,0,0,0,0,0,-1,1518,1576,0,0
301,-552,0,0,0,0,0,0,0,0,0,-1,1525,1576,0,0
308,-552,0,0,0,0,0,0,0,0,0,-1,1532,1576,0,0
315,-552,0,0,0,0,0,0,0,0,0,-1,1539,1576,0,0
322,-552,0,0,0,0,0,0,0,0,0,-1,1546,1576,0,0
329,-552,0,0,0,0,0,0,0,0,0,-1,1553,1576,0,0
336,-552,0,0,0,0,0,0,0,0,0,-1,1560,1576,0,0
343,-552,0,0,0,0,0,0,0,0,0,-1,1567,1576,0,0
350,-552,4.97876,4.09888,0,0,0,0,0,0,0,-1,1574,1576,4.97875,-4.09883
357,-552,5.18469,4.10706,0,0,0,0,0,0,0,-1,1581,1576,5.1847,-4.10702
364,-552,5.80872,5.07031,0,0,0,0,0,0,0,-1,1588,1576,5.80874,-5.07037
371,-552,7.10657,5.64783,0,0,0,0,0,0,0,-1,1595,1576,7.10651,-5.64786
378,-552,6.44446,4.91492,0,0,0,0,0,0,0,-1,1602,1576,6.44448,-4.91496
385,-552,12.8276,3.16504,0,0,0,0,0,0,0,-1,1609,1576,12.8276,-3.16503
392,-552,12.1301,4.3363,0,0,0,0,0,0,0,-1,1616,1576,12.1302,-4.33631
399,-552,11.3486,5.6012,0,0,0,0,0,0,0,-1,1623,1576,11.3486,-5.60115
406,-552,10.7863,6.42542,0,0,0,0,0,0,0,-1,1630,1576,10.7863,-6.42536
413,-552,8.39307,10.365,0,0,0,0,0,0,0,-1,1637,1576,8.3931,-10.365
420,-552,10.2306,12.7225,0,0,0,0,0,0,0,-1,1644,1576,10.2305,-12.7226
427,-552,9.73267,14.783,0,0,0,0,0,0,0,-1,1651,1576,9.73269,-14.783
434,-552,12.0377,20.1364,0,0,0,0,0,0,0,-1,1658,1576,12.0377,-20.1364
441,-552,12.4963,21.5277,0,0,0,0,0,0,0,-1,1665,1576,12.4964,-21.5277
448,-552,12.9141,21.5482,0,0,0,0,0,0,0,-1,1672,1576,12.9141,-21.5482
455,-552,13.3318,21.5687,0,0,0,0,0,0,0,-1,1679,1576,13.3317,-21.5687
462,-552,12.745,20.5947,0,0,0,0,0,0,0,-1,1686,1576,12.745,-20.5947
469,-552,15.6996,26.5961,0,0,0,0,0,0,0,-1,1693,1576,15.6996,-26.5961
476,-552,16.2622,25.7003,0,0,0,0,0,0,0,-1,1700,1576,16.2622,-25.7003
483,-552,16.4236,25.0072,0.00847422,0.0114769,-0.00772128,0.0178415,0.00210967,-0.881421,0.0112572,0.0315913,1707,1576,16.4236,-25.0072
490,-552,16.3651,24.5808,0.00706375,0.00858545,-0.00592072,0.013794,0.00185519,-0.849301,0.00864423,0.0146769,1714,1576,16.3651,-24.5808
497,-552,16.4623,24.1399,0.00567805,0.00641896,-0.00445681,0.0105207,0.00157632,-0.826863,0.00655186,0.0239271,1721,1576,16.4623,-24.1399
504,-552,16.4342,23.7271,0.00438696,0.00445328,-0.00333097,0.00775126,0.00108899,-0.790376,0.00484547,0.0249629,1728,1576,16.4342,-23.7271
511,-552,16.3888,23.2267,0.00293911,0.0030276,-0.0021704,0.00515421,0.000812511,-0.795589,0.00319987,0.0178321,1735,1576,16.3887,-23.2267
518,-552,16.3698,22.7653,0.00127649,0.001764,-0.000807196,0.00236344,0.000677049,-0.932033,0.0014054,0.0163521,1742,1576,16.3698,-22.7652
525,-552,16.3243,22.334,-0.000503264,0.000720386,0.00067825,0.00102199,-0.000804868,1.15238,0.00105722,0.0159359,1749,1576,16.3243,-22.334
532,-552,16.2976,21.8676,-0.00226913,-6.87472e-05,0.00224567,0.00133175,-0.00366963,1.01317,0.00299086,0.0151935,1756,1576,16.2976,-21.8676
539,-552,16.303,21.4006,-0.00409909,-0.000680838,0.00401035,0.00196939,-0.00674932,0.986833,0.0052799,0.0181286,1763,1576,16.3029,-21.4006
546,-552,16.261,20.953,-0.00615477,-0.00125893,0.00614079,0.00290387,-0.0103176,0.975062,0.00802345,0.0220094,1770,1576,16.261,-20.953
553,-552,16.2815,20.4358,-0.00825866,-0.00166769,0.00853625,0.00418711,-0.0141135,0.969613,0.0110718,0.0255457,1777,1576,16.2815,-20.4358
560,-552,16.2565,20.0062,-0.010255,-0.00184106,0.0110557,0.00578101,-0.0178771,0.967202,0.0142417,0.0437371,1784,1576,16.2565,-20.0062
567,-552,16.2865,19.3059,0,0,0,0,0,0,0,-1,1791,1576,16.2865,-19.3059
574,-552,12.8835,14.8463,0,0,0,0,0,0,0,-1,1798,1576,12.8836,-14.8463
581,-552,9.74841,9.98645,0,0,0,0,0,0,0,-1,1805,1576,9.74847,-9.9864
588,-552,10.5619,9.34924,0,0,0,0,0,0,0,-1,1812,1576,10.5619,-9.34921
595,-552,5.36194,6.62744,0,0,0,0,0,0,0,-1,1819,1576,5.36193,-6.62742
602,-552,10.6863,4.31616,0,0,0,0,0,0,0,-1,1826,1576,10.6862,-4.31619
609,-552,12.146,3.18286,0,0,0,0,0,0,0,-1,1833,1576,12.1459,-3.18281
616,-552,13.8762,2.08167,0,0,0,0,0,0,0,-1,1840,1576,13.8763,-2.08167
623,-552,0,0,0,0,0,0,0,0,0,-1,1847,1576,0,0
630,-552,0,0,0,0,0,0,0,0,0,-1,1854,1576,0,0
637,-552,0,0,0,0,0,0,0,0,0,-1,1861,1576,0,0
644,-552,0,0,0,0,0,0,0,0,0,-1,1868,1576,0,0
651,-552,0,0,0,0,0,0,0,0,0,-1,1875,1576,0,0
658,-552,0,0,0,0,0,0,0,0,0,-1,1882,1576,0,0
665,-552,0,0,0,0,0,0,0,0,0,-1,1889,1576,0,0
672,-552,0,0,0,0,0,0,0,0,0,-1,1896,1576,0,0
679,-552,0,0,0,0,0,0,0,0,0,-1,1903,1576,0,0
686,-552,0,0,0,0,0,0,0,0,0,-1,1910,1576,0,0
693,-552,0,0,0,0,0,0,0,0,0,-1,1917,1576,0,0
700,-552,0,0,0,0,0,0,0,0,0,-1,1924,1576,0,0
707,-552,0,0,0,0,0,0,0,0,0,-1,1931,1576,0,0
714,-552,0,0,0,0,0,0,0,0,0,-1,1938,1576,0,0
721,-552,0,0,0,0,0,0,0,0,0,-1,1945,1576,0,0
728,-552,0,0,0,0,0,0,0,0,0,-1,1952,1576,0,0
735,-552,0,0,0,0,0,0,0,0,0,-1,1959,1576,0,0
742,-552,0,0,0,0,0,0,0,0,0,-1,1966,1576,0,0
749,-552,0,0,0,0,0,0,0,0,0,-1,1973,1576,0,0
756,-552,0,0,0,0,0,0,0,0,0,-1,1980,1576,0,0
763,-552,0,0,0,0,0,0,0,0,0,-1,1987,1576,0,0
770,-552,0,0,0,0,0,0,0,0,0,-1,1994,1576,0,0
777,-552,0,0,0,0,0,0,0,0,0,-1,2001,1576,0,0
784,-552,0,0,0,0,0,0,0,0,0,-1,2008,1576,0,0
791,-552,0,0,0,0,0,0,0,0,0,-1,2015,1576,0,0
798,-552,0,0,0,0,0,0,0,0,0,-1,2022,1576,0,0
805,-552,0,0,0,0,0,0,0,0,0,-1,2029,1576,0,0
812,-552,0,0,0,0,0,0,0,0,0,-1,2036,1576,0,0
-700,-559,0,0,0,0,0,0,0,0,0,-1,524,1583,0,0
-693,-559,0,0,0,0,0,0,0,0,0,-1,531,1583,0,0
-686,-559,0,0,0,0,0,0,0,0,0,-1,538,1583,0,0
-679,-559,0,0,0,0,0,0,0,0,0,-1,545,1583,0,0
-672,-559,0,0,0,0,0,0,0,0,0,-1,552,1583,0,0
-665,-559,0,0,0,0,0,0,0,0,0,-1,559,1583,0,0
-658,-559,0,0,0,0,0,0,0,0,0,-1,566,1583,0,0
-651,-559,0,0,0,0,0,0,0,0,0,-1,573,1583,0,0
-644,-559,0,0,0,0,0,0,0,0,0,-1,580,1583,0,0
-637,-559,0,0,0,0,0,0,0,0,0,-1,587,1583,0,0
-630,-559,0,0,0,0,0,0,0,0,0,-1,594,1583,0,0
-623,-559,0,0,0,0,0,0,0,0,0,-1,601,1583,0,0
-616,-559,0,0,0,0,0,0,0,0,0,-1,608,1583,0,0
-609,-559,0,0,0,0,0,0,0,0,0,-1,615,1583,0,0
-602,-559,0,0,0,0,0,0,0,0,0,-1,622,1583,0,0
-595,-559,0,0,0,0,0,0,0,0,0,-1,629,1583,0,0
-588,-559,0,0,0,0,0,0,0,0,0,-1,636,1583,0,0
-581,-559,0,0,0,0,0,0,0,0,0,-1,643,1583,0,0
-574,-559,0,0,0,0,0,0,0,0,0,-1,650,1583,0,0
-567,-559,0,0,0,0,0,0,0,0,0,-1,657,1583,0,0
-560,-559,0,0,0,0,0,0,0,0,0,-1,664,1583,0,0
-553,-559,0,0,0,0,0,0,0,0,0,-1,671,1583,0,0
-546,-559,0,0,0,0,0,0,0,0,0,-1,678,1583,0,0
-539,-559,0,0,0,0,0,0,0,0,0,-1,685,1583,0,0
-532,-559,0,0,0,0,0,0,0,0,0,-1,692,1583,0,0
-525,-559,0,0,0,0,0,0,0,0,0,-1,699,1583,0,0
-518,-559,0,0,0,0,0,0,0,0,0,-1,706,1583,0,0
-511,-559,0,0,0,0,0,0,0,0,0,-1,713,1583,0,0
-504,-559,0,0,0,0,0,0,0,0,0,-1,720,1583,0,0
-497,-559,0,0,0,0,0,0,0,0,0,-1,727,1583,0,0
-490,-559,-5.49835,4.47424,0,0,0,0,0,0,0,-1,734,1583,-5.49833,-4.4743
-483,-559,-5.24078,4.74561,0,0,0,0,0,0,0,-1,741,1583,-5.24079,-4.74563
-476,-559,-4.98022,4.99316,0,0,0,0,0,0,0,-1,748,1583,-4.98024,-4.99321
-469,-559,-4.6424,5.38062,0,0,0,0,0,0,0,-1,755,1583,-4.64237,-5.38058
-462,-559,-0.161865,6.49438,0,0,0,0,0,0,0,-1,762,1583,-0.161835,-6.49444
-455,-559,1.08826,7.02527,0,0,0,0,0,0,0,-1,769,1583,1.08823,-7.02529
-448,-559,-0.340027,16.323,0,0,0,0,0,0,0,-1,776,1583,-0.340018,-16.3231
-441,-559,0.727661,18.2238,0,0,0,0,0,0,0,-1,783,1583,0.727677,-18.2238
-434,-559,0.130127,18.5286,0,0,0,0,0,0,0,-1,790,1583,0.130123,-18.5285
-427,-559,-0.363098,18.5841,0,0,0,0,0,0,0,-1,797,1583,-0.363102,-18.5841
-420,-559,-0.354431,19.2039,0,0,0,0,0,0,0,-1,804,1583,-0.354432,-19.2038
-413,-559,-0.408569,19.7942,0.00151001,0.00076338,9.02286e-06,0.00151012,0.000763271,0.0120824,0.000871885,0.0166658,811,1583,-0.408543,-19.7942
-406,-559,-0.401306,20.3094,0.000334798,0.000958659,0.000173575,0.0010037,0.000289757,1.3169,0.000596488,0.00993594,818,1583,-0.401289,-20.3094
-399,-559,-0.425293,20.8105,-0.000540146,0.000821644,0.000403803,0.000932377,-0.000650879,1.30315,0.000918896,0.0125738,825,1583,-0.425286,-20.8105
-392,-559,-0.484009,21.2974,-0.000448304,0.000628033,0.000442055,0.000786311,-0.000606582,1.22697,0.000806416,0.0155048,832,1583,-0.483986,-21.2974
-385,-559,-0.483643,21.8033,0.000283989,0.00150042,0.000824506,0.00191677,-0.000132361,1.10318,0.00132418,0.0170535,839,1583,-0.483645,-21.8033
-378,-559,-0.487854,22.2721,0.00113065,0.00256504,0.00143757,0.00345438,0.000241306,1.01678,0.00222685,0.0162517,846,1583,-0.487866,-22.2721
-371,-559,-0.514709,22.7533,0.00192423,0.00350588,0.0018916,0.00476531,0.000664795,0.983393,0.0029801,0.0219692,853,1583,-0.514691,-22.7533
-364,-559,-0.506714,23.2246,0.00281806,0.00465097,0.00242551,0.00632739,0.00114164,0.966027,0.00389391,0.0193625,860,1583,-0.50672,-23.2246
-357,-559,-0.524902,23.71,0.00378437,0.00587232,0.00294941,0.00795706,0.00169962,0.955498,0.00483871,0.0123274,867,1583,-0.524924,-23.71
-350,-559,-0.53302,24.1592,0.00491571,0.00714626,0.00353222,0.00973509,0.00232688,0.938317,0.00587022,0.0102136,874,1583,-0.533015,-24.1592
-343,-559,-0.543579,24.6321,0.00613803,0.00862717,0.00423727,0.0117989,0.00296633,0.928241,0.00708717,0.010956,881,1583,-0.54359,-24.6321
-336,-559,-0.598145,25.0835,0.00732957,0.0102137,0.00491615,0.0138949,0.00364835,0.928062,0.00831828,0.0222182,888,1583,-0.598163,-25.0835
-329,-559,-0.473206,25.782,0.00872996,0.0117677,0.00571135,0.0161587,0.00433897,0.915359,0.00965673,0.0378625,895,1583,-0.473185,-25.782
-322,-559,-0.0477905,26.6047,0,0,0,0,0,0,0,-1,902,1583,-0.0478028,-26.6048
-315,-559,-0.0228271,25.894,0,0,0,0,0,0,0,-1,909,1583,-0.0228225,-25.894
-308,-559,-0.203369,26.7545,0,0,0,0,0,0,0,-1,916,1583,-0.203399,-26.7545
-301,-559,1.97064,24.717,0,0,0,0,0,0,0,-1,923,1583,1.97066,-24.717
-294,-559,0.945129,18.5165,0,0,0,0,0,0,0,-1,930,1583,0.945117,-18.5165
-287,-559,-0.11792,15.4912,0,0,0,0,0,0,0,-1,937,1583,-0.117939,-15.4912
-280,-559,0.191467,13.5093,0,0,0,0,0,0,0,-1,944,1583,0.191441,-13.5093
-273,-559,2.12836,10.3059,0,0,0,0,0,0,0,-1,951,1583,2.12839,-10.3059
-266,-559,-0.597046,6.68933,0,0,0,0,0,0,0,-1,958,1583,-0.597031,-6.68937
-259,-559,-7.00311,8.62756,0,0,0,0,0,0,0,-1,965,1583,-7.00312,-8.6275
-252,-559,-9.4483,2.87805,0,0,0,0,0,0,0,-1,972,1583,-9.44829,-2.87805
-245,-559,-4.80804,7.1803,0,0,0,0,0,0,0,-1,979,1583,-4.80804,-7.18027
-238,-559,-8.45764,2.54858,0,0,0,0,0,0,0,-1,986,1583,-8.45763,-2.54862
-231,-559,-5.86914,4.34021,0,0,0,0,0,0,0,-1,993,1583,-5.86914,-4.34019
-224,-559,-3.30505,6.22864,0,0,0,0,0,0,0,-1,1000,1583,-3.30505,-6.22859
-217,-559,0,0,0,0,0,0,0,0,0,-1,1007,1583,0,0
-210,-559,0,0,0,0,0,0,0,0,0,-1,1014,1583,0,0
-203,-559,0,0,0,0,0,0,0,0,0,-1,1021,1583,0,0
-196,-559,0,0,0,0,0,0,0,0,0,-1,1028,1583,0,0
-189,-559,0,0,0,0,0,0,0,0,0,-1,1035,1583,0,0
-182,-559,0,0,0,0,0,0,0,0,0,-1,1042,1583,0,0
-175,-559,0,0,0,0,0,0,0,0,0,-1,1049,1583,0,0
-168,-559,0,0,0,0,0,0,0,0,0,-1,1056,1583,0,0
-161,-559,0,0,0,0,0,0,0,0,0,-1,1063,1583,0,0
-154,-559,0,0,0,0,0,0,0,0,0,-1,1070,1583,0,0
-147,-559,0,0,0,0,0,0,0,0,0,-1,1077,1583,0,0
-140,-559,0,0,0,0,0,0,0,0,0,-1,1084,1583,0,0
-133,-559,0,0,0,0,0,0,0,0,0,-1,1091,1583,0,0
-126,-559,0,0,0,0,0,0,0,0,0,-1,1098,1583,0,0
-119,-559,0,0,0,0,0,0,0,0,0,-1,1105,1583,0,0
-112,-559,0,0,0,0,0,0,0,0,0,-1,1112,1583,0,0
-105,-559,0,0,0,0,0,0,0,0,0,-1,1119,1583,0,0
-98,-559,0,0,0,0,0,0,0,0,0,-1,1126,1583,0,0
-91,-559,0,0,0,0,0,0,0,0,0,-1,1133,1583,0,0
-84,-559,0,0,0,0,0,0,0,0,0,-1,1140,1583,0,0
-77,-559,0,0,0,0,0,0,0,0,0,-1,1147,1583,0,0
-70,-559,0,0,0,0,0,0,0,0,0,-1,1154,1583,0,0
-63,-559,0,0,0,0,0,0,0,0,0,-1,1161,1583,0,0
-56,-559,0,0,0,0,0,0,0,0,0,-1,1168,1583,0,0
-49,-559,0,0,0,0,0,0,0,0,0,-1,1175,1583,0,0
-42,-559,0,0,0,0,0,0,0,0,0,-1,1182,1583,0,0
-35,-559,0,0,0,0,0,0,0,0,0,-1,1189,1583,0,0
-28,-559,0,0,0,0,0,0,0,0,0,-1,1196,1583,0,0
-21,-559,0,0,0,0,0,0,0,0,0,-1,1203,1583,0,0
-14,-559,0,0,0,0,0,0,0,0,0,-1,1210,1583,0,0
-7,-559,0,0,0,0,0,0,0,0,0,-1,1217,1583,0,0
0,-559,0,0,0,0,0,0,0,0,0,-1,1224,1583,0,0
7,-559,0,0,0,0,0,0,0,0,0,-1,1231,1583,0,0
14,-559,0,0,0,0,0,0,0,0,0,-1,1238,1583,0,0
21,-559,0,0,0,0,0,0,0,0,0,-1,1245,1583,0,0
28,-559,0,0,0,0,0,0,0,0,0,-1,1252,1583,0,0
35,-559,0,0,0,0,0,0,0,0,0,-1,1259,1583,0,0
42,-559,0,0,0,0,0,0,0,0,0,-1,1266,1583,0,0
49,-559,0,0,0,0,0,0,0,0,0,-1,1273,1583,0,0
56,-559,0,0,0,0,0,0,0,0,0,-1,1280,1583,0,0
63,-559,0,0,0,0,0,0,0,0,0,-1,1287,1583,0,0
70,-559,0,0,0,0,0,0,0,0,0,-1,1294,1583,0,0
77,-559,0,0,0,0,0,0,0,0,0,-1,1301,1583,0,0
84,-559,0,0,0,0,0,0,0,0,0,-1,1308,1583,0,0
91,-559,0,0,0,0,0,0,0,0,0,-1,1315,1583,0,0
98,-559,0,0,0,0,0,0,0,0,0,-1,1322,1583,0,0
105,-559,0,0,0,0,0,0,0,0,0,-1,1329,1583,0,0
112,-559,0,0,0,0,0,0,0,0,0,-1,1336,1583,0,0
119,-559,0,0,0,0,0,0,0,0,0,-1,1343,1583,0,0
126,-559,0,0,0,0,0,0,0,0,0,-1,1350,1583,0,0
133,-559,0,0,0,0,0,0,0,0,0,-1,1357,1583,0,0
140,-559,0,0,0,0,0,0,0,0,0,-1,1364,1583,0,0
147,-559,0,0,0,0,0,0,0,0,0,-1,1371,1583,0,0
154,-559,0,0,0,0,0,0,0,0,0,-1,1378,1583,0,0
161,-559,0,0,0,0,0,0,0,0,0,-1,1385,1583,0,0
168,-559,0,0,0,0,0,0,0,0,0,-1,1392,1583,0,0
175,-559,0,0,0,0,0,0,0,0,0,-1,1399,1583,0,0
182,-559,0,0,0,0,0,0,0,0,0,-1,1406,1583,0,0
189,-559,0,0,0,0,0,0,0,0,0,-1,1413,1583,0,0
196,-559,0,0,0,0,0,0,0,0,0,-1,1420,1583,0,0
203,-559,0,0,0,0,0,0,0,0,0,-1,1427,1583,0,0
210,-559,0,0,0,0,0,0,0,0,0,-1,1434,1583,0,0
217,-559,0,0,0,0,0,0,0,0,0,-1,1441,1583,0,0
224,-559,0,0,0,0,0,0,0,0,0,-1,1448,1583,0,0
231,-559,0,0,0,0,0,0,0,0,0,-1,1455,1583,0,0
238,-559,0,0,0,0,0,0,0,0,0,-1,1462,1583,0,0
245,-559,0,0,0,0,0,0,0,0,0,-1,1469,1583,0,0
252,-559,0,0,0,0,0,0,0,0,0,-1,1476,1583,0,0
259,-559,0,0,0,0,0,0,0,0,0,-1,1483,1583,0,0
266,-559,0,0,0,0,0,0,0,0,0,-1,1490,1583,0,0
273,-559,0,0,0,0,0,0,0,0,0,-1,1497,1583,0,0
280,-559,0,0,0,0,0,0,0,0,0,-1,1504,1583,0,0
287,-559,0,0,0,0,0,0,0,0,0,-1,1511,1583,0,0
294,-559,0,0,0,0,0,0,0,0,0,-1,1518,1583,0,0
301,-559,0,0,0,0,0,0,0,0,0,-1,1525,1583,0,0
308,-559,0,0,0,0,0,0,0,0,0,-1,1532,1583,0,0
315,-559,0,0,0,0,0,0,0,0,0,-1,1539,1583,0,0
322,-559,0,0,0,0,0,0,0,0,0,-1,1546,1583,0,0
329,-559,0,0,0,0,0,0,0,0,0,-1,1553,1583,0,0
336,-559,5.97668,3.09827,0,0,0,0,0,0,0,-1,1560,1583,5.97667,-3.09824
343,-559,5.44824,2.88696,0,0,0,0,0,0,0,-1,1567,1583,5.44819,-2.88693
350,-559,4.69775,3.27051,0,0,0,0,0,0,0,-1,1574,1583,4.69771,-3.27048
357,-559,3.88025,3.60999,0,0,0,0,0,0,0,-1,1581,1583,3.88027,-3.60998
364,-559,5.00928,5.32605,0,0,0,0,0,0,0,-1,1588,1583,5.00928,-5.32607
371,-559,1.84436,2.52441,0,0,0,0,0,0,0,-1,1595,1583,1.84441,-2.52447
378,-559,6.34753,1.53137,0,0,0,0,0,0,0,-1,1602,1583,6.34752,-1.53139
385,-559,6.95911,1.48181,0,0,0,0,0,0,0,-1,1609,1583,6.95916,-1.48175
392,-559,11.6949,4.77734,0,0,0,0,0,0,0,-1,1616,1583,11.6949,-4.77731
399,-559,11.1104,5.56909,0,0,0,0,0,0,0,-1,1623,1583,11.1103,-5.56905
406,-559,10.3385,6.48657,0,0,0,0,0,0,0,-1,1630,1583,10.3385,-6.48661
413,-559,9.76147,6.97571,0,0,0,0,0,0,0,-1,1637,1583,9.76143,-6.97574
420,-559,7.77124,10.5851,0,0,0,0,0,0,0,-1,1644,1583,7.77128,-10.585
427,-559,10.1022,12.5565,0,0,0,0,0,0,0,-1,1651,1583,10.1021,-12.5565
434,-559,9.62769,14.6309,0,0,0,0,0,0,0,-1,1658,1583,9.62771,-14.6309
441,-559,12.6149,21.3678,0,0,0,0,0,0,0,-1,1665,1583,12.6149,-21.3678
448,-559,13.7046,22.6677,0,0,0,0,0,0,0,-1,1672,1583,13.7046,-22.6677
455,-559,13.9427,23.0509,0,0,0,0,0,0,0,-1,1679,1583,13.9427,-23.0509
462,-559,15.478,27.0222,0,0,0,0,0,0,0,-1,1686,1583,15.478,-27.0222
469,-559,15.6763,26.2646,0.00842264,0.0162359,-0.0092048,0.0223288,0.00232977,-0.986084,0.0141732,0.04483,1693,1583,15.6763,-26.2646
476,-559,15.8713,25.5956,0.0075811,0.0127131,-0.00763299,0.0181999,0.00209436,-0.947551,0.0114989,0.0204308,1700,1583,15.8714,-25.5956
483,-559,15.9541,25.0365,0.00669097,0.0094952,-0.00618762,0.0144376,0.0017486,-0.896817,0.00909837,0.013569,1707,1583,15.954,-25.0365
490,-559,15.9238,24.5776,0.0054994,0.0069586,-0.00468762,0.0109731,0.00148494,-0.862601,0.00687406,0.0161399,1714,1583,15.9239,-24.5776
497,-559,15.959,24.1563,0.0042186,0.00504926,-0.00343571,0.00809465,0.00117321,-0.84555,0.00505099,0.0204891,1721,1583,15.9589,-24.1563
504,-559,15.9263,23.7281,0.00286111,0.00326679,-0.00231817,0.00539098,0.000736922,-0.829036,0.00337527,0.0252469,1728,1583,15.9262,-23.7282
511,-559,15.9176,23.2455,0.00123591,0.0019853,-0.000962273,0.00264325,0.000577953,-0.971059,0.0016046,0.0218479,1735,1583,15.9176,-23.2455
518,-559,15.9331,22.7838,-0.000529945,0.000836151,0.000471023,0.000982812,-0.000676606,1.26894,0.000963487,0.0150637,1742,1583,15.9331,-22.7839
525,-559,15.8823,22.3606,-0.00248321,-9.93222e-05,0.0021024,0.00112551,-0.00370805,1.04328,0.00292042,0.0141579,1749,1583,15.8823,-22.3606
532,-559,15.8427,21.9149,-0.00453794,-0.000827622,0.00394197,0.00167391,-0.00703947,1.00533,0.00533915,0.0147606,1756,1583,15.8427,-21.915
539,-559,15.8326,21.4514,-0.00683503,-0.00142198,0.00614424,0.00258543,-0.0108424,0.99286,0.00822666,0.018063,1763,1583,15.8326,-21.4514
546,-559,15.7762,20.979,-0.00954281,-0.00199068,0.00891997,0.00391956,-0.0154531,0.985625,0.0118271,0.0166194,1770,1583,15.7762,-20.979
553,-559,15.8748,20.4698,-0.0124857,-0.00235482,0.0121831,0.00577394,-0.0206144,0.982413,0.0160183,0.0207341,1777,1583,15.8748,-20.4698
560,-559,15.8885,20.1615,-0.0155455,-0.00249055,0.0158138,0.00809001,-0.026126,0.981131,0.0206492,0.0409257,1784,1583,15.8886,-20.1615
567,-559,15.8215,19.7065,0,0,0,0,0,0,0,-1,1791,1583,15.8215,-19.7065
574,-559,10.5109,10.7317,0,0,0,0,0,0,0,-1,1798,1583,10.5108,-10.7317
581,-559,5.97095,5.96179,0,0,0,0,0,0,0,-1,1805,1583,5.97093,-5.96181
588,-559,5.79102,5.89954,0,0,0,0,0,0,0,-1,1812,1583,5.79098,-5.89949
595,-559,5.79089,6.24231,0,0,0,0,0,0,0,-1,1819,1583,5.7909,-6.24227
602,-559,12.478,2.35669,0,0,0,0,0,0,0,-1,1826,1583,12.4781,-2.35675
609,-559,14.0479,1.22681,0,0,0,0,0,0,0,-1,1833,1583,14.0479,-1.22681
616,-559,0,0,0,0,0,0,0,0,0,-1,1840,1583,0,0
623,-559,0,0,0,0,0,0,0,0,0,-1,1847,1583,0,0
630,-559,0,0,0,0,0,0,0,0,0,-1,1854,1583,0,0
637,-559,0,0,0,0,0,0,0,0,0,-1,1861,1583,0,0
644,-559,0,0,0,0,0,0,0,0,0,-1,1868,1583,0,0
651,-559,0,0,0,0,0,0,0,0,0,-1,1875,1583,0,0
658,-559,0,0,0,0,0,0,0,0,0,-1,1882,1583,0,0
665,-559,0,0,0,0,0,0,0,0,0,-1,1889,1583,0,0
672,-559,0,0,0,0,0,0,0,0,0,-1,1896,1583,0,0
679,-559,0,0,0,0,0,0,0,0,0,-1,1903,1583,0,0
686,-559,0,0,0,0,0,0,0,0,0,-1,1910,1583,0,0
693,-559,0,0,0,0,0,0,0,0,0,-1,1917,1583,0,0
700,-559,0,0,0,0,0,0,0,0,0,-1,1924,1583,0,0
707,-559,0,0,0,0,0,0,0,0,0,-1,1931,1583,0,0
714,-559,0,0,0,0,0,0,0,0,0,-1,1938,1583,0,0
721,-559,0,0,0,0,0,0,0,0,0,-1,1945,1583,0,0
728,-559,0,0,0,0,0,0,0,0,0,-1,1952,1583,0,0
735,-559,0,0,0,0,0,0,0,0,0,-1,1959,1583,0,0
742,-559,0,0,0,0,0,0,0,0,0,-1,1966,1583,0,0
749,-559,0,0,0,0,0,0,0,0,0,-1,1973,1583,0,0
756,-559,0,0,0,0,0,0,0,0,0,-1,1980,1583,0,0
763,-559,0,0,0,0,0,0,0,0,0,-1,1987,1583,0,0
770,-559,0,0,0,0,0,0,0,0,0,-1,1994,1583,0,0
777,-559,0,0,0,0,0,0,0,0,0,-1,2001,1583,0,0
784,-559,0,0,0,0,0,0,0,0,0,-1,2008,1583,0,0
791,-559,0,0,0,0,0,0,0,0,0,-1,2015,1583,0,0
798,-559,0,0,0,0,0,0,0,0,0,-1,2022,1583,0,0
805,-559,0,0,0,0,0,0,0,0,0,-1,2029,1583,0,0
812,-559,0,0,0,0,0,0,0,0,0,-1,2036,1583,0,0
-700,-566,0,0,0,0,0,0,0,0,0,-1,524,1590,0,0
-693,-566,0,0,0,0,0,0,0,0,0,-1,531,1590,0,0
-686,-566,0,0,0,0,0,0,0,0,0,-1,538,1590,0,0
-679,-566,0,0,0,0,0,0,0,0,0,-1,545,1590,0,0
-672,-566,0,0,0,0,0,0,0,0,0,-1,552,1590,0,0
-665,-566,0,0,0,0,0,0,0,0,0,-1,559,1590,0,0
-658,-566,0,0,0,0,0,0,0,0,0,-1,566,1590,0,0
-651,-566,0,0,0,0,0,0,0,0,0,-1,573,1590,0,0
-644,-566,0,0,0,0,0,0,0,0,0,-1,580,1590,0,0
-637,-566,0,0,0,0,0,0,0,0,0,-1,587,1590,0,0
-630,-566,0,0,0,0,0,0,0,0,0,-1,594,1590,0,0
-623,-566,0,0,0,0,0,0,0,0,0,-1,601,1590,0,0
-616,-566,0,0,0,0,0,0,0,0,0,-1,608,1590,0,0
-609,-566,0,0,0,0,0,0,0,0,0,-1,615,1590,0,0
-602,-566,0,0,0,0,0,0,0,0,0,-1,622,1590,0,0
-595,-566,0,0,0,0,0,0,0,0,0,-1,629,1590,0,0
-588,-566,0,0,0,0,0,0,0,0,0,-1,636,1590,0,0
-581,-566,0,0,0,0,0,0,0,0,0,-1,643,1590,0,0
-574,-566,0,0,0,0,0,0,0,0,0,-1,650,1590,0,0
-567,-566,0,0,0,0,0,0,0,0,0,-1,657,1590,0,0
-560,-566,0,0,0,0,0,0,0,0,0,-1,664,1590,0,0
-553,-566,0,0,0,0,0,0,0,0,0,-1,671,1590,0,0
-546,-566,0,0,0,0,0,0,0,0,0,-1,678,1590,0,0
-539,-566,0,0,0,0,0,0,0,0,0,-1,685,1590,0,0
-532,-566,0,0,0,0,0,0,0,0,0,-1,692,1590,0,0
-525,-566,0,0,0,0,0,0,0,0,0,-1,699,1590,0,0
-518,-566,0,0,0,0,0,0,0,0,0,-1,706,1590,0,0
-511,-566,0,0,0,0,0,0,0,0,0,-1,713,1590,0,0
-504,-566,0,0,0,0,0,0,0,0,0,-1,720,1590,0,0
-497,-566,0,0,0,0,0,0,0,0,0,-1,727,1590,0,0
-490,-566,0,0,0,0,0,0,0,0,0,-1,734,1590,0,0
-483,-566,-7.17084,2.78613,0,0,0,0,0,0,0,-1,741,1590,-7.17083,-2.78618
-476,-566,-7.13971,2.87183,0,0,0,0,0,0,0,-1,748,1590,-7.13971,-2.87184
-469,-566,-6.43829,3.2998,0,0,0,0,0,0,0,-1,755,1590,-6.43829,-3.2998
-462,-566,-0.459106,3.89343,0,0,0,0,0,0,0,-1,762,1590,-0.459095,-3.89341
-455,-566,0.280212,4.74023,0,0,0,0,0,0,0,-1,769,1590,0.280207,-4.74023
-448,-566,0.436951,5.51306,0,0,0,0,0,0,0,-1,776,1590,0.436971,-5.51301
-441,-566,-0.440735,12.4063,0,0,0,0,0,0,0,-1,783,1590,-0.440753,-12.4062
-434,-566,0.713989,18.6688,0,0,0,0,0,0,0,-1,790,1590,0.713975,-18.6689
-427,-566,-0.026123,18.4264,0,0,0,0,0,0,0,-1,797,1590,-0.0261205,-18.4264
-420,-566,-0.0283203,19.2806,0,0,0,0,0,0,0,-1,804,1590,-0.0283426,-19.2806
-413,-566,0.0783081,19.8232,0.00115379,0.000761868,7.30048e-05,0.00116694,0.000748711,0.178311,0.000682682,0.0271584,811,1590,0.0783113,-19.8232
-406,-566,0.0767212,20.3091,-0.000298743,0.000558643,1.59494e-05,0.00055894,-0.000299039,1.5522,0.000502873,0.0115283,818,1590,0.0767485,-20.3091
-399,-566,0.062439,20.8228,-0.00139262,8.96924e-05,6.05354e-05,9.21604e-05,-0.00139508,1.53005,0.000962248,0.0100283,825,1590,0.0624386,-20.8227
-392,-566,0.0422363,21.3138,-0.00141331,-0.000479226,-0.000106459,-0.000467246,-0.00142529,-1.45874,0.000838998,0.0125441,832,1590,0.0422339,-21.3138
-385,-566,0.0435181,21.8247,-0.000744592,0.000265803,0.000159838,0.000290485,-0.000769275,1.41759,0.000632325,0.0157093,839,1590,0.0435198,-21.8247
-378,-566,0.0303345,22.333,3.97053e-05,0.00113641,0.000691095,0.00147027,-0.000294156,1.12077,0.00109153,0.0160429,846,1590,0.0303195,-22.333
-371,-566,-0.034729,22.7968,0.000794202,0.00190383,0.00106657,0.00255126,0.000146769,1.02523,0.00165409,0.0214905,853,1590,-0.0347366,-22.7967
-364,-566,-0.0393677,23.2551,0.00163711,0.0028692,0.00152243,0.00389551,0.000610808,0.977651,0.00241924,0.0222238,860,1590,-0.0393837,-23.2551
-357,-566,-0.071167,23.7007,0.00254458,0.00391309,0.00197426,0.00531831,0.00113936,0.952214,0.00323337,0.0179441,867,1590,-0.0711873,-23.7007
-350,-566,-0.0786133,24.161,0.00360755,0.00498195,0.00246716,0.00685583,0.00173367,0.921225,0.00411622,0.0207692,874,1590,-0.0786167,-24.161
-343,-566,-0.0620117,24.5691,0.00474335,0.00626478,0.00308048,0.00867709,0.00233105,0.90645,0.0051854,0.0248456,881,1590,-0.0620031,-24.5691
-336,-566,-0.153137,25.0721,0.00585603,0.0075902,0.00369534,0.0105188,0.00292741,0.900635,0.00626888,0.0271005,888,1590,-0.153109,-25.0721
-329,-566,-0.0566406,25.5135,0.00706961,0.00892992,0.0043583,0.0124562,0.00354331,0.890532,0.00741098,0.0232293,895,1590,-0.056621,-25.5135
-322,-566,0.0821533,26.1327,0,0,0,0,0,0,0,-1,902,1590,0.0821301,-26.1328
-315,-566,0.360901,26.6884,0,0,0,0,0,0,0,-1,909,1590,0.360896,-26.6883
-308,-566,0.50708,26.2681,0,0,0,0,0,0,0,-1,916,1590,0.507082,-26.268
-301,-566,1.14246,27.0635,0,0,0,0,0,0,0,-1,923,1590,1.14247,-27.0634
-294,-566,0.741455,25.3229,0,0,0,0,0,0,0,-1,930,1590,0.741475,-25.3229
-287,-566,1.25391,23.4589,0,0,0,0,0,0,0,-1,937,1590,1.2539,-23.4589
-280,-566,1.59406,17.8762,0,0,0,0,0,0,0,-1,944,1590,1.59405,-17.8762
-273,-566,0.49762,11.2427,0,0,0,0,0,0,0,-1,951,1590,0.497591,-11.2426
-266,-566,0.392151,6.90295,0,0,0,0,0,0,0,-1,958,1590,0.392151,-6.90294
-259,-566,0.343628,6.47437,0,0,0,0,0,0,0,-1,965,1590,0.34363,-6.47438
-252,-566,-7.68311,1.01343,0,0,0,0,0,0,0,-1,972,1590,-7.68308,-1.01348
-245,-566,-11.1835,1.97522,0,0,0,0,0,0,0,-1,979,1590,-11.1835,-1.97527
-238,-566,-10.4883,2.40491,0,0,0,0,0,0,0,-1,986,1590,-10.4883,-2.40487
-231,-566,-7.41827,4.22803,0,0,0,0,0,0,0,-1,993,1590,-7.41827,-4.22803
-224,-566,-4.67188,6.30859,0,0,0,0,0,0,0,-1,1000,1590,-4.67185,-6.30853
-217,-566,-2.82867,7.52527,0,0,0,0,0,0,0,-1,1007,1590,-2.82869,-7.52531
-210,-566,-1.03436,8.67737,0,0,0,0,0,0,0,-1,1014,1590,-1.03439,-8.67733
-203,-566,0,0,0,0,0,0,0,0,0,-1,1021,1590,0,0
-196,-566,0,0,0,0,0,0,0,0,0,-1,1028,1590,0,0
-189,-566,0,0,0,0,0,0,0,0,0,-1,1035,1590,0,0
-182,-566,0,0,0,0,0,0,0,0,0,-1,1042,1590,0,0
-175,-566,0,0,0,0,0,0,0,0,0,-1,1049,1590,0,0
-168,-566,0,0,0,0,0,0,0,0,0,-1,1056,1590,0,0
-161,-566,0,0,0,0,0,0,0,0,0,-1,1063,1590,0,0
-154,-566,0,0,0,0,0,0,0,0,0,-1,1070,1590,0,0
-147,-566,0,0,0,0,0,0,0,0,0,-1,1077,1590,0,0
-140,-566,0,0,0,0,0,0,0,0,0,-1,1084,1590,0,0
-133,-566,0,0,0,0,0,0,0,0,0,-1,1091,1590,0,0
-126,-566,0,0,0,0,0,0,0,0,0,-1,1098,1590,0,0
-119,-566,0,0,0,0,0,0,0,0,0,-1,1105,1590,0,0
-112,-566,0,0,0,0,0,0,0,0,0,-1,1112,1590,0,0
-105,-566,0,0,0,0,0,0,0,0,0,-1,1119,1590,0,0
-98,-566,0,0,0,0,0,0,0,0,0,-1,1126,1590,0,0
-91,-566,0,0,0,0,0,0,0,0,0,-1,1133,1590,0,0
-84,-566,0,0,0,0,0,0,0,0,0,-1,1140,1590,0,0
-77,-566,0,0,0,0,0,0,0,0,0,-1,1147,1590,0,0
-70,-566,0,0,0,0,0,0,0,0,0,-1,1154,1590,0,0
-63,-566,0,0,0,0,0,0,0,0,0,-1,1161,1590,0,0
-56,-566,0,0,0,0,0,0,0,0,0,-1,1168,1590,0,0
-49,-566,0,0,0,0,0,0,0,0,0,-1,1175,1590,0,0
-42,-566,0,0,0,0,0,0,0,0,0,-1,1182,1590,0,0
-35,-566,0,0,0,0,0,0,0,0,0,-1,1189,1590,0,0
-28,-566,0,0,0,0,0,0,0,0,0,-1,1196,1590,0,0
-21,-566,0,0,0,0,0,0,0,0,0,-1,1203,1590,0,0
-14,-566,0,0,0,0,0,0,0,0,0,-1,1210,1590,0,0
-7,-566,0,0,0,0,0,0,0,0,0,-1,1217,1590,0,0
0,-566,0,0,0,0,0,0,0,0,0,-1,1224,1590,0,0
7,-566,0,0,0,0,0,0,0,0,0,-1,1231,1590,0,0
14,-566,0,0,0,0,0,0,0,0,0,-1,1238,1590,0,0
21,-566,0,0,0,0,0,0,0,0,0,-1,1245,1590,0,0
28,-566,0,0,0,0,0,0,0,0,0,-1,1252,1590,0,0
35,-566,0,0,0,0,0,0,0,0,0,-1,1259,1590,0,0
42,-566,0,0,0,0,0,0,0,0,0,-1,1266,1590,0,0
49,-566,0,0,0,0,0,0,0,0,0,-1,1273,1590,0,0
56,-566,0,0,0,0,0,0,0,0,0,-1,1280,1590,0,0
63,-566,0,0,0,0,0,0,0,0,0,-1,1287,1590,0,0
70,-566,0,0,0,0,0,0,0,0,0,-1,1294,1590,0,0
77,-566,0,0,0,0,0,0,0,0,0,-1,1301,1590,0,0
84,-566,0,0,0,0,0,0,0,0,0,-1,1308,1590,0,0
91,-566,0,0,0,0,0,0,0,0,0,-1,1315,1590,0,0
98,-566,0,0,0,0,0,0,0,0,0,-1,1322,1590,0,0
105,-566,0,0,0,0,0,0,0,0,0,-1,1329,1590,0,0
112,-566,0,0,0,0,0,0,0,0,0,-1,1336,1590,0,0
119,-566,0,0,0,0,0,0,0,0,0,-1,1343,1590,0,0
126,-566,0,0,0,0,0,0,0,0,0,-1,1350,1590,0,0
133,-566,0,0,0,0,0,0,0,0,0,-1,1357,1590,0,0
140,-566,0,0,0,0,0,0,0,0,0,-1,1364,1590,0,0
147,-566,0,0,0,0,0,0,0,0,0,-1,1371,1590,0,0
154,-566,0,0,0,0,0,0,0,0,0,-1,1378,1590,0,0
161,-566,0,0,0,0,0,0,0,0,0,-1,1385,1590,0,0
168,-566,0,0,0,0,0,0,0,0,0,-1,1392,1590,0,0
175,-566,0,0,0,0,0,0,0,0,0,-1,1399,1590,0,0
182,-566,0,0,0,0,0,0,0,0,0,-1,1406,1590,0,0
189,-566,0,0,0,0,0,0,0,0,0,-1,1413,1590,0,0
196,-566,0,0,0,0,0,0,0,0,0,-1,1420,1590,0,0
203,-566,0,0,0,0,0,0,0,0,0,-1,1427,1590,0,0
210,-566,0,0,0,0,0,0,0,0,0,-1,1434,1590,0,0
217,-566,0,0,0,0,0,0,0,0,0,-1,1441,1590,0,0
224,-566,0,0,0,0,0,0,0,0,0,-1,1448,1590,0,0
231,-566,0,0,0,0,0,0,0,0,0,-1,1455,1590,0,0
238,-566,0,0,0,0,0,0,0,0,0,-1,1462,1590,0,0
245,-566,0,0,0,0,0,0,0,0,0,-1,1469,1590,0,0
252,-566,0,0,0,0,0,0,0,0,0,-1,1476,1590,0,0
259,-566,0,0,0,0,0,0,0,0,0,-1,1483,1590,0,0
266,-566,0,0,0,0,0,0,0,0,0,-1,1490,1590,0,0
273,-566,0,0,0,0,0,0,0,0,0,-1,1497,1590,0,0
280,-566,0,0,0,0,0,0,0,0,0,-1,1504,1590,0,0
287,-566,0,0,0,0,0,0,0,0,0,-1,1511,1590,0,0
294,-566,0,0,0,0,0,0,0,0,0,-1,1518,1590,0,0
301,-566,0,0,0,0,0,0,0,0,0,-1,1525,1590,0,0
308,-566,0,0,0,0,0,0,0,0,0,-1,1532,1590,0,0
315,-566,0,0,0,0,0,0,0,0,0,-1,1539,1590,0,0
322,-566,6.07983,4.44873,0,0,0,0,0,0,0,-1,1546,1590,6.07983,-4.44873
329,-566,5.77026,3.47534,0,0,0,0,0,0,0,-1,1553,1590,5.77026,-3.47535
336,-566,5.41138,2.62915,0,0,0,0,0,0,0,-1,1560,1590,5.41138,-2.62909
343,-566,4.81873,1.79089,0,0,0,0,0,0,0,-1,1567,1590,4.81878,-1.79095
350,-566,4.41663,2.44214,0,0,0,0,0,0,0,-1,1574,1590,4.41666,-2.44214
357,-566,6.34058,5.18579,0,0,0,0,0,0,0,-1,1581,1590,6.34059,-5.1858
364,-566,6.06262,4.20251,0,0,0,0,0,0,0,-1,1588,1590,6.06259,-4.20246
371,-566,5.78455,3.21912,0,0,0,0,0,0,0,-1,1595,1590,5.7846,-3.21912
378,-566,5.7439,0.695557,0,0,0,0,0,0,0,-1,1602,1590,5.74392,-0.695531
385,-566,5.67615,-0.573975,0,0,0,0,0,0,0,-1,1609,1590,5.67612,0.573956
392,-566,5.78638,1.82434,0,0,0,0,0,0,0,-1,1616,1590,5.78637,-1.82439
399,-566,5.36621,1.7373,0,0,0,0,0,0,0,-1,1623,1590,5.36627,-1.7373
406,-566,4.30359,5.26868,0,0,0,0,0,0,0,-1,1630,1590,4.30364,-5.26867
413,-566,4.27124,5.79492,0,0,0,0,0,0,0,-1,1637,1590,4.27123,-5.7949
420,-566,7.19812,8.25146,0,0,0,0,0,0,0,-1,1644,1590,7.19817,-8.25149
427,-566,17.0106,28.6659,0,0,0,0,0,0,0,-1,1651,1590,17.0106,-28.6659
434,-566,16.0432,27.8361,0,0,0,0,0,0,0,-1,1658,1590,16.0432,-27.8361
441,-566,15.5841,27.5869,0,0,0,0,0,0,0,-1,1665,1590,15.5842,-27.587
448,-566,15.5682,28.2135,0,0,0,0,0,0,0,-1,1672,1590,15.5683,-28.2135
455,-566,15.2024,27.2579,0,0,0,0,0,0,0,-1,1679,1590,15.2023,-27.258
462,-566,15.3,26.6578,0.00679184,0.0163163,-0.00836871,0.0211829,0.00192527,-1.04408,0.0135259,0.0357815,1686,1590,15.3,-26.6579
469,-566,15.4294,25.9604,0.00642876,0.0132234,-0.00725032,0.0178329,0.00181929,-1.0045,0.011331,0.0166505,1693,1590,15.4295,-25.9605
476,-566,15.4763,25.4611,0.00574673,0.0103483,-0.00600423,0.0144774,0.00161754,-0.968365,0.00916018,0.0105064,1700,1590,15.4763,-25.4611
483,-566,15.4803,25.0338,0.0049907,0.00759241,-0.00481795,0.011282,0.00130108,-0.917254,0.00712736,0.0110753,1707,1590,15.4803,-25.0339
490,-566,15.4648,24.5908,0.0039703,0.00538191,-0.00355064,0.00829621,0.001056,-0.88351,0.00521457,0.0119842,1714,1590,15.4649,-24.5908
497,-566,15.4889,24.157,0.00278446,0.00370542,-0.00247141,0.00575888,0.000731004,-0.877504,0.00362027,0.0158578,1721,1590,15.4889,-24.1569
504,-566,15.4711,23.7375,0.00136795,0.0021074,-0.0013545,0.00314174,0.00033362,-0.918633,0.00199261,0.0208507,1728,1590,15.4711,-23.7375
511,-566,15.4628,23.2976,-0.000436645,0.0009793,0.00019499,0.00100566,-0.000463006,1.43642,0.000867015,0.0201598,1735,1590,15.4627,-23.2976
518,-566,15.4635,22.8446,-0.00232528,-3.44261e-05,0.00171727,0.000884371,-0.00324408,1.07952,0.00250999,0.0118189,1742,1590,15.4635,-22.8447
525,-566,15.4294,22.3682,-0.00450048,-0.000839658,0.00352672,0.00130336,-0.0066435,1.02477,0.00492133,0.0115563,1749,1590,15.4294,-22.3682
532,-566,15.3922,21.9199,-0.00693871,-0.00148968,0.00570702,0.00210981,-0.0105382,1.0081,0.00782414,0.0147043,1756,1590,15.3922,-21.9199
539,-566,15.3765,21.4506,-0.00987107,-0.00205653,0.0084636,0.00335818,-0.0152858,1.00165,0.0114749,0.0183655,1763,1590,15.3764,-21.4506
546,-566,15.406,20.9139,-0.0135003,-0.002605,0.0120779,0.00519696,-0.0213023,0.997259,0.0162139,0.0203388,1770,1590,15.406,-20.9139
553,-566,15.4249,20.6068,-0.0176351,-0.0028603,0.0164581,0.00779236,-0.0282877,0.996351,0.0219226,0.0325278,1777,1590,15.425,-20.6068
560,-566,15.1721,20.5201,-0.0223044,-0.00292675,0.0216227,0.0110786,-0.0363098,0.996029,0.0286232,0.0414957,1784,1590,15.1721,-20.5201
567,-566,14.9985,20.3256,0,0,0,0,0,0,0,-1,1791,1590,14.9985,-20.3256
574,-566,7.99548,3.14514,0,0,0,0,0,0,0,-1,1798,1590,7.99543,-3.14511
581,-566,2.54102,5.1311,0,0,0,0,0,0,0,-1,1805,1590,2.54099,-5.13111
588,-566,-1.91321,8.39197,0,0,0,0,0,0,0,-1,1812,1590,-1.91316,-8.39199
595,-566,9.0271,4.66467,0,0,0,0,0,0,0,-1,1819,1590,9.02705,-4.66468
602,-566,9.953,3.54895,0,0,0,0,0,0,0,-1,1826,1590,9.953,-3.54898
609,-566,0,0,0,0,0,0,0,0,0,-1,1833,1590,0,0
616,-566,0,0,0,0,0,0,0,0,0,-1,1840,1590,0,0
623,-566,0,0,0,0,0,0,0,0,0,-1,1847,1590,0,0
630,-566,0,0,0,0,0,0,0,0,0,-1,1854,1590,0,0
637,-566,0,0,0,0,0,0,0,0,0,-1,1861,1590,0,0
644,-566,0,0,0,0,0,0,0,0,0,-1,1868,1590,0,0
651,-566,0,0,0,0,0,0,0,0,0,-1,1875,1590,0,0
658,-566,0,0,0,0,0,0,0,0,0,-1,1882,1590,0,0
665,-566,0,0,0,0,0,0,0,0,0,-1,1889,1590,0,0
672,-566,0,0,0,0,0,0,0,0,0,-1,1896,1590,0,0
679,-566,0,0,0,0,0,0,0,0,0,-1,1903,1590,0,0
686,-566,0,0,0,0,0,0,0,0,0,-1,1910,1590,0,0
693,-566,0,0,0,0,0,0,0,0,0,-1,1917,1590,0,0
700,-566,0,0,0,0,0,0,0,0,0,-1,1924,1590,0,0
707,-566,0,0,0,0,0,0,0,0,0,-1,1931,1590,0,0
714,-566,0,0,0,0,0,0,0,0,0,-1,1938,1590,0,0
721,-566,0,0,0,0,0,0,0,0,0,-1,1945,1590,0,0
728,-566,0,0,0,0,0,0,0,0,0,-1,1952,1590,0,0
735,-566,0,0,0,0,0,0,0,0,0,-1,1959,1590,0,0
742,-566,0,0,0,0,0,0,0,0,0,-1,1966,1590,0,0
749,-566,0,0,0,0,0,0,0,0,0,-1,1973,1590,0,0
756,-566,0,0,0,0,0,0,0,0,0,-1,1980,1590,0,0
763,-566,0,0,0,0,0,0,0,0,0,-1,1987,1590,0,0
770,-566,0,0,0,0,0,0,0,0,0,-1,1994,1590,0,0
777,-566,0,0,0,0,0,0,0,0,0,-1,2001,1590,0,0
784,-566,0,0,0,0,0,0,0,0,0,-1,2008,1590,0,0
791,-566,0,0,0,0,0,0,0,0,0,-1,2015,1590,0,0
798,-566,0,0,0,0,0,0,0,0,0,-1,2022,1590,0,0
805,-566,0,0,0,0,0,0,0,0,0,-1,2029,1590,0,0
812,-566,0,0,0,0,0,0,0,0,0,-1,2036,1590,0,0
-700,-573,0,0,0,0,0,0,0,0,0,-1,524,1597,0,0
-693,-573,0,0,0,0,0,0,0,0,0,-1,531,1597,0,0
-686,-573,0,0,0,0,0,0,0,0,0,-1,538,1597,0,0
-679,-573,0,0,0,0,0,0,0,0,0,-1,545,1597,0,0
-672,-573,0,0,0,0,0,0,0,0,0,-1,552,1597,0,0
-665,-573,0,0,0,0,0,0,0,0,0,-1,559,1597,0,0
-658,-573,0,0,0,0,0,0,0,0,0,-1,566,1597,0,0
-651,-573,0,0,0,0,0,0,0,0,0,-1,573,1597,0,0
-644,-573,0,0,0,0,0,0,0,0,0,-1,580,1597,0,0
-637,-573,0,0,0,0,0,0,0,0,0,-1,587,1597,0,0
-630,-573,0,0,0,0,0,0,0,0,0,-1,594,1597,0,0
-623,-573,0,0,0,0,0,0,0,0,0,-1,601,1597,0,0
-616,-573,0,0,0,0,0,0,0,0,0,-1,608,1597,0,0
-609,-573,0,0,0,0,0,0,0,0,0,-1,615,1597,0,0
-602,-573,0,0,0,0,0,0,0,0,0,-1,622,1597,0,0
-595,-573,0,0,0,0,0,0,0,0,0,-1,629,1597,0,0
-588,-573,0,0,0,0,0,0,0,0,0,-1,636,1597,0,0
-581,-573,0,0,0,0,0,0,0,0,0,-1,643,1597,0,0
-574,-573,0,0,0,0,0,0,0,0,0,-1,650,1597,0,0
-567,-573,0,0,0,0,0,0,0,0,0,-1,657,1597,0,0
-560,-573,0,0,0,0,0,0,0,0,0,-1,664,1597,0,0
-553,-573,0,0,0,0,0,0,0,0,0,-1,671,1597,0,0
-546,-573,0,0,0,0,0,0,0,0,0,-1,678,1597,0,0
-539,-573,0,0,0,0,0,0,0,0,0,-1,685,1597,0,0
-532,-573,0,0,0,0,0,0,0,0,0,-1,692,1597,0,0
-525,-573,0,0,0,0,0,0,0,0,0,-1,699,1597,0,0
-518,-573,0,0,0,0,0,0,0,0,0,-1,706,1597,0,0
-511,-573,0,0,0,0,0,0,0,0,0,-1,713,1597,0,0
-504,-573,0,0,0,0,0,0,0,0,0,-1,720,1597,0,0
-497,-573,0,0,0,0,0,0,0,0,0,-1,727,1597,0,0
-490,-573,0,0,0,0,0,0,0,0,0,-1,734,1597,0,0
-483,-573,0,0,0,0,0,0,0,0,0,-1,741,1597,0,0
-476,-573,-9.3327,0.972778,0,0,0,0,0,0,0,-1,748,1597,-9.33268,-0.972776
-469,-573,-1.41681,1.13379,0,0,0,0,0,0,0,-1,755,1597,-1.41681,-1.13382
-462,-573,-0.748535,2.02588,0,0,0,0,0,0,0,-1,762,1597,-0.748533,-2.02584
-455,-573,-0.112976,2.70703,0,0,0,0,0,0,0,-1,769,1597,-0.112988,-2.70697
-448,-573,-1.26172,3.33252,0,0,0,0,0,0,0,-1,776,1597,-1.26173,-3.33248
-441,-573,0.108582,5.06726,0,0,0,0,0,0,0,-1,783,1597,0.108584,-5.06721
-434,-573,1.61768,7.05444,0,0,0,0,0,0,0,-1,790,1597,1.61767,-7.05446
-427,-573,-0.026123,18.3727,0,0,0,0,0,0,0,-1,797,1597,-0.0261126,-18.3727
-420,-573,1.06628,17.4988,0,0,0,0,0,0,0,-1,804,1597,1.06625,-17.4988
-413,-573,0.552063,19.6677,0,0,0,0,0,0,0,-1,811,1597,0.552066,-19.6678
-406,-573,0.562073,20.2737,-0.00107016,0.000291095,4.21479e-05,0.000292399,-0.00107147,1.53987,0.000829145,0.0301094,818,1597,0.562055,-20.2737
-399,-573,0.522583,20.8346,-0.00228368,-0.000494972,-9.71341e-05,-0.000489712,-0.00228894,-1.5167,0.00139174,0.0137071,825,1597,0.522572,-20.8346
-392,-573,0.539307,21.3358,-0.00232414,-0.00140279,-0.000438278,-0.00122761,-0.00249932,-1.19055,0.00144306,0.0121768,832,1597,0.539317,-21.3358
-385,-573,0.520996,21.8153,-0.0016756,-0.00077473,-0.000271741,-0.000699109,-0.00175122,-1.29938,0.00101789,0.0148703,839,1597,0.521011,-21.8154
-378,-573,0.509583,22.302,-0.000930054,-9.6935e-05,0.000174419,-6.18932e-05,-0.000965096,1.37253,0.00062379,0.0156416,846,1597,0.509612,-22.302
-371,-573,0.492615,22.802,-0.000191662,0.000527026,0.000485484,0.000771687,-0.000436324,1.10399,0.000706348,0.0167552,853,1597,0.492631,-22.802
-364,-573,0.44397,23.2562,0.000613504,0.00133956,0.000867545,0.00191697,3.60935e-05,0.983555,0.00126612,0.0198781,860,1597,0.443947,-23.2563
-357,-573,0.445435,23.7115,0.00147379,0.00224443,0.00125367,0.00317065,0.000547563,0.934493,0.00195695,0.0218347,867,1597,0.445444,-23.7115
-350,-573,0.415894,24.196,0.00246955,0.00316275,0.00166695,0.00451875,0.00111355,0.887899,0.00271843,0.0175129,874,1597,0.415902,-24.196
-343,-573,0.437744,24.6444,0.00349868,0.00428862,0.00218388,0.00611296,0.00167434,0.87486,0.00364762,0.020766,881,1597,0.437732,-24.6444
-336,-573,0.40271,25.1432,0.00449943,0.00541039,0.00271529,0.00770813,0.00220168,0.868498,0.00458461,0.0164168,888,1597,0.402731,-25.1432
-329,-573,0.394653,25.6124,0.00555316,0.00663763,0.00328027,0.00942018,0.00277061,0.867309,0.00559033,0.0172671,895,1597,0.394671,-25.6125
-322,-573,0.425171,26.0874,0.0066144,0.00790144,0.00384991,0.0111612,0.0033546,0.868209,0.00661262,0.0155153,902,1597,0.425193,-26.0874
-315,-573,0.577637,26.715,0.0077287,0.00946485,0.00447529,0.0131555,0.00403807,0.881194,0.00778174,0.0361707,909,1597,0.577647,-26.715
-308,-573,0.468445,27.501,0,0,0,0,0,0,0,-1,916,1597,0.468436,-27.501
-301,-573,0.677673,27.7535,0,0,0,0,0,0,0,-1,923,1597,0.677697,-27.7536
-294,-573,1.00702,24.802,0,0,0,0,0,0,0,-1,930,1597,1.00701,-24.802
-287,-573,1.38068,27.6692,0,0,0,0,0,0,0,-1,937,1597,1.38071,-27.6692
-280,-573,1.19684,26.4906,0,0,0,0,0,0,0,-1,944,1597,1.19685,-26.4906
-273,-573,2.24805,25.4375,0,0,0,0,0,0,0,-1,951,1597,2.24803,-25.4374
-266,-573,1.31116,7.1814,0,0,0,0,0,0,0,-1,958,1597,1.31118,-7.18142
-259,-573,1.2514,6.70959,0,0,0,0,0,0,0,-1,965,1597,1.25137,-6.70965
-252,-573,2.07874,5.27161,0,0,0,0,0,0,0,-1,972,1597,2.07875,-5.27157
-245,-573,-10.2592,1.09827,0,0,0,0,0,0,0,-1,979,1597,-10.2592,-1.09823
-238,-573,-11.5463,4.44141,0,0,0,0,0,0,0,-1,986,1597,-11.5463,-4.44146
-231,-573,-9.23431,4.14539,0,0,0,0,0,0,0,-1,993,1597,-9.23431,-4.14534
-224,-573,-6.70044,7.40857,0,0,0,0,0,0,0,-1,1000,1597,-6.70045,-7.40851
-217,-573,-4.25824,8.59119,0,0,0,0,0,0,0,-1,1007,1597,-4.25824,-8.59122
-210,-573,-2.39661,9.73914,0,0,0,0,0,0,0,-1,1014,1597,-2.39658,-9.73915
-203,-573,-0.557373,10.9005,0,0,0,0,0,0,0,-1,1021,1597,-0.557387,-10.9006
-196,-573,-1.65344,9.02246,0,0,0,0,0,0,0,-1,1028,1597,-1.65349,-9.02241
-189,-573,-6.12915,6.66882,0,0,0,0,0,0,0,-1,1035,1597,-6.12913,-6.66884
-182,-573,0,0,0,0,0,0,0,0,0,-1,1042,1597,0,0
-175,-573,0,0,0,0,0,0,0,0,0,-1,1049,1597,0,0
-168,-573,0,0,0,0,0,0,0,0,0,-1,1056,1597,0,0
-161,-573,0,0,0,0,0,0,0,0,0,-1,1063,1597,0,0
-154,-573,0,0,0,0,0,0,0,0,0,-1,1070,1597,0,0
-147,-573,0,0,0,0,0,0,0,0,0,-1,1077,1597,0,0
-140,-573,0,0,0,0,0,0,0,0,0,-1,1084,1597,0,0
-133,-573,0,0,0,0,0,0,0,0,0,-1,1091,1597,0,0
-126,-573,0,0,0,0,0,0,0,0,0,-1,1098,1597,0,0
-119,-573,0,0,0,0,0,0,0,0,0,-1,1105,1597,0,0
-112,-573,0,0,0,0,0,0,0,0,0,-1,1112,1597,0,0
-105,-573,0,0,0,0,0,0,0,0,0,-1,1119,1597,0,0
-98,-573,0,0,0,0,0,0,0,0,0,-1,1126,1597,0,0
-91,-573,0,0,0,0,0,0,0,0,0,-1,1133,1597,0,0
-84,-573,0,0,0,0,0,0,0,0,0,-1,1140,1597,0,0
-77,-573,0,0,0,0,0,0,0,0,0,-1,1147,1597,0,0
-70,-573,0,0,0,0,0,0,0,0,0,-1,1154,1597,0,0
-63,-573,0,0,0,0,0,0,0,0,0,-1,1161,1597,0,0
-56,-573,0,0,0,0,0,0,0,0,0,-1,1168,1597,0,0
-49,-573,0,0,0,0,0,0,0,0,0,-1,1175,1597,0,0
-42,-573,0,0,0,0,0,0,0,0,0,-1,1182,1597,0,0
-35,-573,0,0,0,0,0,0,0,0,0,-1,1189,1597,0,0
-28,-573,0,0,0,0,0,0,0,0,0,-1,1196,1597,0,0
-21,-573,0,0,0,0,0,0,0,0,0,-1,1203,1597,0,0
-14,-573,0,0,0,0,0,0,0,0,0,-1,1210,1597,0,0
-7,-573,0,0,0,0,0,0,0,0,0,-1,1217,1597,0,0
0,-573,0,0,0,0,0,0,0,0,0,-1,1224,1597,0,0
7,-573,0,0,0,0,0,0,0,0,0,-1,1231,1597,0,0
14,-573,0,0,0,0,0,0,0,0,0,-1,1238,1597,0,0
21,-573,0,0,0,0,0,0,0,0,0,-1,1245,1597,0,0
28,-573,0,0,0,0,0,0,0,0,0,-1,1252,1597,0,0
35,-573,0,0,0,0,0,0,0,0,0,-1,1259,1597,0,0
42,-573,0,0,0,0,0,0,0,0,0,-1,1266,1597,0,0
49,-573,0,0,0,0,0,0,0,0,0,-1,1273,1597,0,0
56,-573,0,0,0,0,0,0,0,0,0,-1,1280,1597,0,0
63,-573,0,0,0,0,0,0,0,0,0,-1,1287,1597,0,0
70,-573,0,0,0,0,0,0,0,0,0,-1,1294,1597,0,0
77,-573,0,0,0,0,0,0,0,0,0,-1,1301,1597,0,0
84,-573,0,0,0,0,0,0,0,0,0,-1,1308,1597,0,0
91,-573,0,0,0,0,0,0,0,0,0,-1,1315,1597,0,0
98,-573,0,0,0,0,0,0,0,0,0,-1,1322,1597,0,0
105,-573,0,0,0,0,0,0,0,0,0,-1,1329,1597,0,0
112,-573,0,0,0,0,0,0,0,0,0,-1,1336,1597,0,0
119,-573,0,0,0,0,0,0,0,0,0,-1,1343,1597,0,0
126,-573,0,0,0,0,0,0,0,0,0,-1,1350,1597,0,0
133,-573,0,0,0,0,0,0,0,0,0,-1,1357,1597,0,0
140,-573,0,0,0,0,0,0,0,0,0,-1,1364,1597,0,0
147,-573,0,0,0,0,0,0,0,0,0,-1,1371,1597,0,0
154,-573,0,0,0,0,0,0,0,0,0,-1,1378,1597,0,0
161,-573,0,0,0,0,0,0,0,0,0,-1,1385,1597,0,0
168,-573,0,0,0,0,0,0,0,0,0,-1,1392,1597,0,0
175,-573,0,0,0,0,0,0,0,0,0,-1,1399,1597,0,0
182,-573,0,0,0,0,0,0,0,0,0,-1,1406,1597,0,0
189,-573,0,0,0,0,0,0,0,0,0,-1,1413,1597,0,0
196,-573,0,0,0,0,0,0,0,0,0,-1,1420,1597,0,0
203,-573,0,0,0,0,0,0,0,0,0,-1,1427,1597,0,0
210,-573,0,0,0,0,0,0,0,0,0,-1,1434,1597,0,0
217,-573,0,0,0,0,0,0,0,0,0,-1,1441,1597,0,0
224,-573,0,0,0,0,0,0,0,0,0,-1,1448,1597,0,0
231,-573,0,0,0,0,0,0,0,0,0,-1,1455,1597,0,0
238,-573,0,0,0,0,0,0,0,0,0,-1,1462,1597,0,0
245,-573,0,0,0,0,0,0,0,0,0,-1,1469,1597,0,0
252,-573,0,0,0,0,0,0,0,0,0,-1,1476,1597,0,0
259,-573,0,0,0,0,0,0,0,0,0,-1,1483,1597,0,0
266,-573,0,0,0,0,0,0,0,0,0,-1,1490,1597,0,0
273,-573,0,0,0,0,0,0,0,0,0,-1,1497,1597,0,0
280,-573,0,0,0,0,0,0,0,0,0,-1,1504,1597,0,0
287,-573,0,0,0,0,0,0,0,0,0,-1,1511,1597,0,0
294,-573,0,0,0,0,0,0,0,0,0,-1,1518,1597,0,0
301,-573,0,0,0,0,0,0,0,0,0,-1,1525,1597,0,0
308,-573,5.93042,9.71143,0,0,0,0,0,0,0,-1,1532,1597,5.93046,-9.71144
315,-573,4.34204,11.719,0,0,0,0,0,0,0,-1,1539,1597,4.34205,-11.719
322,-573,10.3269,7.77563,0,0,0,0,0,0,0,-1,1546,1597,10.327,-7.77565
329,-573,4.99573,3.80273,0,0,0,0,0,0,0,-1,1553,1597,4.9957,-3.80273
336,-573,4.85693,2.53455,0,0,0,0,0,0,0,-1,1560,1597,4.8569,-2.53459
343,-573,5.5946,2.15894,0,0,0,0,0,0,0,-1,1567,1597,5.59456,-2.1589
350,-573,2.53748,1.56433,0,0,0,0,0,0,0,-1,1574,1597,2.53753,-1.5643
357,-573,7.40247,4.03613,0,0,0,0,0,0,0,-1,1581,1597,7.40244,-4.03614
364,-573,7.14551,3.02087,0,0,0,0,0,0,0,-1,1588,1597,7.14556,-3.02084
371,-573,6.88867,2.00549,0,0,0,0,0,0,0,-1,1595,1597,6.88868,-2.00553
378,-573,8.62012,6.09106,0,0,0,0,0,0,0,-1,1602,1597,8.62012,-6.09103
385,-573,6.54346,-0.951904,0,0,0,0,0,0,0,-1,1609,1597,6.54349,0.951901
392,-573,6.41833,-2.18225,0,0,0,0,0,0,0,-1,1616,1597,6.41831,2.18228
399,-573,4.26282,4.73657,0,0,0,0,0,0,0,-1,1623,1597,4.26285,-4.73652
406,-573,6.82715,10.823,0,0,0,0,0,0,0,-1,1630,1597,6.82719,-10.823
413,-573,8.90552,13.1737,0,0,0,0,0,0,0,-1,1637,1597,8.90553,-13.1737
420,-573,16.3031,28.969,0,0,0,0,0,0,0,-1,1644,1597,16.3031,-28.969
427,-573,16.0602,28.6503,0,0,0,0,0,0,0,-1,1651,1597,16.0602,-28.6503
434,-573,14.9839,28.7648,0,0,0,0,0,0,0,-1,1658,1597,14.9839,-28.7647
441,-573,15.1136,28.1233,0,0,0,0,0,0,0,-1,1665,1597,15.1136,-28.1233
448,-573,14.9597,27.5823,0.00479162,0.0172734,-0.00739517,0.0207091,0.00135588,-1.13587,0.0133771,0.0423064,1672,1597,14.9597,-27.5823
455,-573,14.9614,26.9449,0.00491164,0.0148497,-0.00688083,0.0183681,0.0013932,-1.09812,0.0118084,0.0315003,1679,1597,14.9614,-26.945
462,-573,15.0314,26.349,0.004921,0.0127958,-0.00630445,0.0162914,0.00142542,-1.06453,0.0104183,0.0228015,1686,1597,15.0313,-26.349
469,-573,15.0555,25.8979,0.00466263,0.0103833,-0.00550648,0.013728,0.0013179,-1.02494,0.00874588,0.015731,1693,1597,15.0556,-25.8979
476,-573,15.0747,25.4552,0.00409425,0.00806102,-0.0045288,0.0110217,0.00113356,-0.991792,0.00700061,0.0142876,1700,1597,15.0747,-25.4552
483,-573,15.0906,25.0468,0.0034379,0.00574788,-0.00357611,0.00835088,0.000834892,-0.941597,0.00531088,0.0129299,1707,1597,15.0905,-25.0467
490,-573,15.0669,24.6221,0.00255392,0.0038622,-0.00253006,0.00582131,0.000594808,-0.911902,0.00369858,0.0128914,1714,1597,15.0669,-24.622
497,-573,15.0598,24.1409,0.0014445,0.0024177,-0.00161635,0.00361911,0.000243092,-0.931607,0.00233593,0.0194087,1721,1597,15.0598,-24.1408
504,-573,15.0308,23.7209,-3.29362e-05,0.00102988,-0.000517268,0.00124007,-0.000243121,-1.18484,0.00091854,0.017982,1728,1597,15.0307,-23.721
511,-573,15.0138,23.2838,-0.00202552,7.59318e-05,0.00119687,0.000617856,-0.00256744,1.14563,0.00195048,0.0185526,1735,1597,15.0137,-23.2838
518,-573,14.9974,22.8584,-0.00406474,-0.00077499,0.00281024,0.000836366,-0.0056761,1.05017,0.00409145,0.0139491,1742,1597,14.9975,-22.8584
525,-573,14.988,22.3979,-0.00650956,-0.00142831,0.00481967,0.00147937,-0.00941723,1.02796,0.00682493,0.0158624,1749,1597,14.9881,-22.398
532,-573,14.9781,21.9363,-0.00941066,-0.00198375,0.00740617,0.00258779,-0.0139822,1.01778,0.0102931,0.0160304,1756,1597,14.9781,-21.9363
539,-573,14.9241,21.484,-0.0131145,-0.00252181,0.0108366,0.00424351,-0.0198798,1.0127,0.0148709,0.0227489,1763,1597,14.924,-21.484
546,-573,14.9673,21.0253,-0.0178776,-0.0030364,0.015456,0.00668809,-0.0276021,1.0092,0.020989,0.0393168,1770,1597,14.9673,-21.0252
553,-573,14.2213,20.7635,-0.0235111,-0.00316507,0.0212381,0.0102108,-0.0368869,1.00875,0.0286088,0.045601,1777,1597,14.2214,-20.7636
560,-573,13.2273,20.5333,-0.0302997,-0.00313495,0.0284198,0.0147813,-0.048216,1.00831,0.0380407,0.0452272,1784,1597,13.2273,-20.5333
567,-573,12.4127,20.3525,0,0,0,0,0,0,0,-1,1791,1597,12.4127,-20.3525
574,-573,0.83374,5.7041,0,0,0,0,0,0,0,-1,1798,1597,0.833718,-5.70405
581,-573,-0.224854,7.41602,0,0,0,0,0,0,0,-1,1805,1597,-0.224904,-7.41596
588,-573,-0.134033,7.67065,0,0,0,0,0,0,0,-1,1812,1597,-0.134037,-7.67063
595,-573,-0.0825195,8.35083,0,0,0,0,0,0,0,-1,1819,1597,-0.0824684,-8.35088
602,-573,0,0,0,0,0,0,0,0,0,-1,1826,1597,0,0
609,-573,0,0,0,0,0,0,0,0,0,-1,1833,1597,0,0
616,-573,0,0,0,0,0,0,0,0,0,-1,1840,1597,0,0
623,-573,0,0,0,0,0,0,0,0,0,-1,1847,1597,0,0
630,-573,0,0,0,0,0,0,0,0,0,-1,1854,1597,0,0
637,-573,0,0,0,0,0,0,0,0,0,-1,1861,1597,0,0
644,-573,0,0,0,0,0,0,0,0,0,-1,1868,1597,0,0
651,-573,0,0,0,0,0,0,0,0,0,-1,1875,1597,0,0
658,-573,0,0,0,0,0,0,0,0,0,-1,1882,1597,0,0
665,-573,0,0,0,0,0,0,0,0,0,-1,1889,1597,0,0
672,-573,0,0,0,0,0,0,0,0,0,-1,1896,1597,0,0
679,-573,0,0,0,0,0,0,0,0,0,-1,1903,1597,0,0
686,-573,0,0,0,0,0,0,0,0,0,-1,1910,1597,0,0
693,-573,0,0,0,0,0,0,0,0,0,-1,1917,1597,0,0
700,-573,0,0,0,0,0,0,0,0,0,-1,1924,1597,0,0
707,-573,0,0,0,0,0,0,0,0,0,-1,1931,1597,0,0
714,-573,0,0,0,0,0,0,0,0,0,-1,1938,1597,0,0
721,-573,0,0,0,0,0,0,0,0,0,-1,1945,1597,0,0
728,-573,0,0,0,0,0,0,0,0,0,-1,1952,1597,0,0
735,-573,0,0,0,0,0,0,0,0,0,-1,1959,1597,0,0
742,-573,0,0,0,0,0,0,0,0,0,-1,1966,1597,0,0
749,-573,0,0,0,0,0,0,0,0,0,-1,1973,1597,0,0
756,-573,0,0,0,0,0,0,0,0,0,-1,1980,1597,0,0
763,-573,0,0,0,0,0,0,0,0,0,-1,1987,1597,0,0
770,-573,0,0,0,0,0,0,0,0,0,-1,1994,1597,0,0
777,-573,0,0,0,0,0,0,0,0,0,-1,2001,1597,0,0
784,-573,0,0,0,0,0,0,0,0,0,-1,2008,1597,0,0
791,-573,0,0,0,0,0,0,0,0,0,-1,2015,1597,0,0
798,-573,0,0,0,0,0,0,0,0,0,-1,2022,1597,0,0
805,-573,0,0,0,0,0,0,0,0,0,-1,2029,1597,0,0
812,-573,0,0,0,0,0,0,0,0,0,-1,2036,1597,0,0
-700,-580,0,0,0,0,0,0,0,0,0,-1,524,1604,0,0
-693,-580,0,0,0,0,0,0,0,0,0,-1,531,1604,0,0
-686,-580,0,0,0,0,0,0,0,0,0,-1,538,1604,0,0
-679,-580,0,0,0,0,0,0,0,0,0,-1,545,1604,0,0
-672,-580,0,0,0,0,0,0,0,0,0,-1,552,1604,0,0
-665,-580,0,0,0,0,0,0,0,0,0,-1,559,1604,0,0
-658,-580,0,0,0,0,0,0,0,0,0,-1,566,1604,0,0
-651,-580,0,0,0,0,0,0,0,0,0,-1,573,1604,0,0
-644,-580,0,0,0,0,0,0,0,0,0,-1,580,1604,0,0
-637,-580,0,0,0,0,0,0,0,0,0,-1,587,1604,0,0
-630,-580,0,0,0,0,0,0,0,0,0,-1,594,1604,0,0
-623,-580,0,0,0,0,0,0,0,0,0,-1,601,1604,0,0
-616,-580,0,0,0,0,0,0,0,0,0,-1,608,1604,0,0
-609,-580,0,0,0,0,0,0,0,0,0,-1,615,1604,0,0
-602,-580,0,0,0,0,0,0,0,0,0,-1,622,1604,0,0
-595,-580,0,0,0,0,0,0,0,0,0,-1,629,1604,0,0
-588,-580,0,0,0,0,0,0,0,0,0,-1,636,1604,0,0
-581,-580,0,0,0,0,0,0,0,0,0,-1,643,1604,0,0
-574,-580,0,0,0,0,0,0,0,0,0,-1,650,1604,0,0
-567,-580,0,0,0,0,0,0,0,0,0,-1,657,1604,0,0
-560,-580,0,0,0,0,0,0,0,0,0,-1,664,1604,0,0
-553,-580,0,0,0,0,0,0,0,0,0,-1,671,1604,0,0
-546,-580,0,0,0,0,0,0,0,0,0,-1,678,1604,0,0
-539,-580,0,0,0,0,0,0,0,0,0,-1,685,1604,0,0
-532,-580,0,0,0,0,0,0,0,0,0,-1,692,1604,0,0
-525,-580,0,0,0,0,0,0,0,0,0,-1,699,1604,0,0
-518,-580,0,0,0,0,0,0,0,0,0,-1,706,1604,0,0
-511,-580,0,0,0,0,0,0,0,0,0,-1,713,1604,0,0
-504,-580,0,0,0,0,0,0,0,0,0,-1,720,1604,0,0
-497,-580,0,0,0,0,0,0,0,0,0,-1,727,1604,0,0
-490,-580,0,0,0,0,0,0,0,0,0,-1,734,1604,0,0
-483,-580,0,0,0,0,0,0,0,0,0,-1,741,1604,0,0
-476,-580,0,0,0,0,0,0,0,0,0,-1,748,1604,0,0
-469,-580,-1.69189,-0.38916,0,0,0,0,0,0,0,-1,755,1604,-1.69192,0.389188
-462,-580,-0.859863,0.675293,0,0,0,0,0,0,0,-1,762,1604,-0.859834,-0.675245
-455,-580,-0.730164,0.651978,0,0,0,0,0,0,0,-1,769,1604,-0.730153,-0.651957
-448,-580,-3.31891,2.07544,0,0,0,0,0,0,0,-1,776,1604,-3.3189,-2.07539
-441,-580,-1.63843,3.9469,0,0,0,0,0,0,0,-1,783,1604,-1.63842,-3.94695
-434,-580,0.23291,5.97876,0,0,0,0,0,0,0,-1,790,1604,0.232901,-5.97878
-427,-580,1.62756,8.05493,0,0,0,0,0,0,0,-1,797,1604,1.62758,-8.05488
-420,-580,0.986572,11.2383,0,0,0,0,0,0,0,-1,804,1604,0.986544,-11.2382
-413,-580,1.14362,19.0813,0,0,0,0,0,0,0,-1,811,1604,1.1436,-19.0812
-406,-580,0.965393,20.3754,0,0,0,0,0,0,0,-1,818,1604,0.965366,-20.3753
-399,-580,0.998962,20.8749,-0.00332377,-0.000829453,-0.000118393,-0.000823846,-0.00332937,-1.52347,0.00200228,0.0314584,825,1604,0.998957,-20.8749
-392,-580,0.992737,21.3555,-0.00323719,-0.00209253,-0.000599218,-0.00183623,-0.00349349,-1.16662,0.00201785,0.0155624,832,1604,0.992737,-21.3555
-385,-580,0.987183,21.834,-0.00252753,-0.0015902,-0.000513448,-0.00136369,-0.00275405,-1.15531,0.00159008,0.0119384,839,1604,0.987199,-21.8339
-378,-580,0.98053,22.3213,-0.0017787,-0.00111527,-0.000151712,-0.00108222,-0.00181175,-1.35632,0.0010526,0.0147628,846,1604,0.980544,-22.3212
-371,-580,0.956604,22.829,-0.00102456,-0.000617337,0.000103914,-0.000592353,-0.00104954,1.33485,0.000607626,0.0140382,853,1604,0.956579,-22.829
-364,-580,0.902649,23.288,-0.000236137,5.17959e-05,0.000410789,0.000343115,-0.000527456,0.953942,0.000506367,0.0203233,860,1604,0.90262,-23.288
-357,-580,0.929565,23.7289,0.000591877,0.00083049,0.000736227,0.00145701,-3.46482e-05,0.865725,0.000983096,0.0142932,867,1604,0.929586,-23.7289
-350,-580,0.924683,24.2308,0.00152047,0.00162773,0.00107987,0.00265531,0.000492894,0.81021,0.00163092,0.0113848,874,1604,0.924666,-24.2308
-343,-580,0.913208,24.6864,0.00243951,0.00262249,0.00151204,0.0040458,0.00101619,0.815615,0.00243035,0.0116048,881,1604,0.913222,-24.6865
-336,-580,0.874573,25.1033,0.00332105,0.00357259,0.00196034,0.00541119,0.00148245,0.817432,0.00322882,0.0184378,888,1604,0.874565,-25.1033
-329,-580,0.898499,25.6106,0.00420336,0.0046867,0.00242401,0.00688105,0.00200901,0.835084,0.0040858,0.0172524,895,1604,0.898523,-25.6107
-322,-580,0.891357,26.1046,0.00504751,0.00583525,0.00289729,0.00836532,0.00251745,0.852957,0.00495566,0.0199634,902,1604,0.891343,-26.1047
-315,-580,0.915894,26.5579,0.00590315,0.00710242,0.00335323,0.00990921,0.00309636,0.873875,0.00585368,0.0206863,909,1604,0.915881,-26.5579
-308,-580,0.962463,27.1261,0.00694918,0.00814795,0.00386985,0.0114646,0.00363257,0.862231,0.00676546,0.0303582,916,1604,0.962484,-27.1261
-301,-580,1.05493,27.4722,0.00829624,0.00917297,0.00486799,0.0136223,0.00384692,0.830303,0.0081093,0.0299442,923,1604,1.05495,-27.4722
-294,-580,0.996887,27.9684,0,0,0,0,0,0,0,-1,930,1604,0.996895,-27.9684
-287,-580,1.38251,27.1248,0,0,0,0,0,0,0,-1,937,1604,1.38251,-27.1248
-280,-580,1.79675,28.4565,0,0,0,0,0,0,0,-1,944,1604,1.79676,-28.4566
-273,-580,1.39575,28.6672,0,0,0,0,0,0,0,-1,951,1604,1.39577,-28.6672
-266,-580,1.71777,25.6515,0,0,0,0,0,0,0,-1,958,1604,1.71775,-25.6515
-259,-580,1.31091,9.11536,0,0,0,0,0,0,0,-1,965,1604,1.31092,-9.11539
-252,-580,1.07629,7.74097,0,0,0,0,0,0,0,-1,972,1604,1.07627,-7.74101
-245,-580,3.80304,9.16028,0,0,0,0,0,0,0,-1,979,1604,3.80306,-9.16034
-238,-580,-10.3588,1.57556,0,0,0,0,0,0,0,-1,986,1604,-10.3588,-1.5755
-231,-580,-10.576,6.43787,0,0,0,0,0,0,0,-1,993,1604,-10.576,-6.43783
-224,-580,-8.27435,7.58972,0,0,0,0,0,0,0,-1,1000,1604,-8.27435,-7.5897
-217,-580,-5.85632,9.51221,0,0,0,0,0,0,0,-1,1007,1604,-5.85632,-9.5122
-210,-580,-3.6684,11.1569,0,0,0,0,0,0,0,-1,1014,1604,-3.66839,-11.1569
-203,-580,-1.92474,12.7845,0,0,0,0,0,0,0,-1,1021,1604,-1.92477,-12.7845
-196,-580,-2.28552,10.3289,0,0,0,0,0,0,0,-1,1028,1604,-2.28552,-10.3288
-189,-580,-4.58252,7.59058,0,0,0,0,0,0,0,-1,1035,1604,-4.58256,-7.59057
-182,-580,-5.45874,7.65942,0,0,0,0,0,0,0,-1,1042,1604,-5.45876,-7.65939
-175,-580,-6.38977,7.55005,0,0,0,0,0,0,0,-1,1049,1604,-6.38981,-7.5501
-168,-580,0,0,0,0,0,0,0,0,0,-1,1056,1604,0,0
-161,-580,0,0,0,0,0,0,0,0,0,-1,1063,1604,0,0
-154,-580,0,0,0,0,0,0,0,0,0,-1,1070,1604,0,0
-147,-580,0,0,0,0,0,0,0,0,0,-1,1077,1604,0,0
-140,-580,0,0,0,0,0,0,0,0,0,-1,1084,1604,0,0
-133,-580,0,0,0,0,0,0,0,0,0,-1,1091,1604,0,0
-126,-580,0,0,0,0,0,0,0,0,0,-1,1098,1604,0,0
-119,-580,0,0,0,0,0,0,0,0,0,-1,1105,1604,0,0
-112,-580,0,0,0,0,0,0,0,0,0,-1,1112,1604,0,0
-105,-580,0,0,0,0,0,0,0,0,0,-1,1119,1604,0,0
-98,-580,0,0,0,0,0,0,0,0,0,-1,1126,1604,0,0
-91,-580,0,0,0,0,0,0,0,0,0,-1,1133,1604,0,0
-84,-580,0,0,0,0,0,0,0,0,0,-1,1140,1604,0,0
-77,-580,0,0,0,0,0,0,0,0,0,-1,1147,1604,0,0
-70,-580,0,0,0,0,0,0,0,0,0,-1,1154,1604,0,0
-63,-580,0,0,0,0,0,0,0,0,0,-1,1161,1604,0,0
-56,-580,0,0,0,0,0,0,0,0,0,-1,1168,1604,0,0
-49,-580,0,0,0,0,0,0,0,0,0,-1,1175,1604,0,0
-42,-580,0,0,0,0,0,0,0,0,0,-1,1182,1604,0,0
-35,-580,0,0,0,0,0,0,0,0,0,-1,1189,1604,0,0
-28,-580,0,0,0,0,0,0,0,0,0,-1,1196,1604,0,0
-21,-580,0,0,0,0,0,0,0,0,0,-1,1203,1604,0,0
-14,-580,0,0,0,0,0,0,0,0,0,-1,1210,1604,0,0
-7,-580,0,0,0,0,0,0,0,0,0,-1,1217,1604,0,0
0,-580,0,0,0,0,0,0,0,0,0,-1,1224,1604,0,0
7,-580,0,0,0,0,0,0,0,0,0,-1,1231,1604,0,0
14,-580,0,0,0,0,0,0,0,0,0,-1,1238,1604,0,0
21,-580,0,0,0,0,0,0,0,0,0,-1,1245,1604,0,0
28,-580,0,0,0,0,0,0,0,0,0,-1,1252,1604,0,0
35,-580,0,0,0,0,0,0,0,0,0,-1,1259,1604,0,0
42,-580,0,0,0,0,0,0,0,0,0,-1,1266,1604,0,0
49,-580,0,0,0,0,0,0,0,0,0,-1,1273,1604,0,0
56,-580,0,0,0,0,0,0,0,0,0,-1,1280,1604,0,0
63,-580,0,0,0,0,0,0,0,0,0,-1,1287,1604,0,0
70,-580,0,0,0,0,0,0,0,0,0,-1,1294,1604,0,0
77,-580,0,0,0,0,0,0,0,0,0,-1,1301,1604,0,0
84,-580,0,0,0,0,0,0,0,0,0,-1,1308,1604,0,0
91,-580,0,0,0,0,0,0,0,0,0,-1,1315,1604,0,0
98,-580,0,0,0,0,0,0,0,0,0,-1,1322,1604,0,0
105,-580,0,0,0,0,0,0,0,0,0,-1,1329,1604,0,0
112,-580,0,0,0,0,0,0,0,0,0,-1,1336,1604,0,0
119,-580,0,0,0,0,0,0,0,0,0,-1,1343,1604,0,0
126,-580,0,0,0,0,0,0,0,0,0,-1,1350,1604,0,0
133,-580,0,0,0,0,0,0,0,0,0,-1,1357,1604,0,0
140,-580,0,0,0,0,0,0,0,0,0,-1,1364,1604,0,0
147,-580,0,0,0,0,0,0,0,0,0,-1,1371,1604,0,0
154,-580,0,0,0,0,0,0,0,0,0,-1,1378,1604,0,0
161,-580,0,0,0,0,0,0,0,0,0,-1,1385,1604,0,0
168,-580,0,0,0,0,0,0,0,0,0,-1,1392,1604,0,0
175,-580,0,0,0,0,0,0,0,0,0,-1,1399,1604,0,0
182,-580,0,0,0,0,0,0,0,0,0,-1,1406,1604,0,0
189,-580,0,0,0,0,0,0,0,0,0,-1,1413,1604,0,0
196,-580,0,0,0,0,0,0,0,0,0,-1,1420,1604,0,0
203,-580,0,0,0,0,0,0,0,0,0,-1,1427,1604,0,0
210,-580,0,0,0,0,0,0,0,0,0,-1,1434,1604,0,0
217,-580,0,0,0,0,0,0,0,0,0,-1,1441,1604,0,0
224,-580,0,0,0,0,0,0,0,0,0,-1,1448,1604,0,0
231,-580,0,0,0,0,0,0,0,0,0,-1,1455,1604,0,0
238,-580,0,0,0,0,0,0,0,0,0,-1,1462,1604,0,0
245,-580,0,0,0,0,0,0,0,0,0,-1,1469,1604,0,0
252,-580,0,0,0,0,0,0,0,0,0,-1,1476,1604,0,0
259,-580,0,0,0,0,0,0,0,0,0,-1,1483,1604,0,0
266,-580,0,0,0,0,0,0,0,0,0,-1,1490,1604,0,0
273,-580,0,0,0,0,0,0,0,0,0,-1,1497,1604,0,0
280,-580,0,0,0,0,0,0,0,0,0,-1,1504,1604,0,0
287,-580,0,0,0,0,0,0,0,0,0,-1,1511,1604,0,0
294,-580,4.0437,0.177368,0,0,0,0,0,0,0,-1,1518,1604,4.04369,-0.177371
301,-580,7.55164,8.05798,0,0,0,0,0,0,0,-1,1525,1604,7.55158,-8.05802
308,-580,5.9126,9.99341,0,0,0,0,0,0,0,-1,1532,1604,5.91255,-9.99337
315,-580,4.27356,11.9287,0,0,0,0,0,0,0,-1,1539,1604,4.27352,-11.9287
322,-580,10.2366,7.50281,0,0,0,0,0,0,0,-1,1546,1604,10.2366,-7.50282
329,-580,10.5962,8.69641,0,0,0,0,0,0,0,-1,1553,1604,10.5962,-8.69642
336,-580,3.66431,1.58862,0,0,0,0,0,0,0,-1,1560,1604,3.6643,-1.58864
343,-580,3.32227,1.39636,0,0,0,0,0,0,0,-1,1567,1604,3.32222,-1.39633
350,-580,8.71277,4.0564,0,0,0,0,0,0,0,-1,1574,1604,8.71271,-4.05638
357,-580,8.52332,3.08154,0,0,0,0,0,0,0,-1,1581,1604,8.52332,-3.08157
364,-580,8.25818,2.07605,0,0,0,0,0,0,0,-1,1588,1604,8.25812,-2.07608
371,-580,7.42114,7.14282,0,0,0,0,0,0,0,-1,1595,1604,7.42119,-7.14281
378,-580,7.9718,6.6731,0,0,0,0,0,0,0,-1,1602,1604,7.9718,-6.67307
385,-580,8.52246,6.20337,0,0,0,0,0,0,0,-1,1609,1604,8.52241,-6.20334
392,-580,14.4536,30.236,0,0,0,0,0,0,0,-1,1616,1604,14.4537,-30.2359
399,-580,14.4644,29.4833,0,0,0,0,0,0,0,-1,1623,1604,14.4643,-29.4833
406,-580,14.7279,29.4697,0,0,0,0,0,0,0,-1,1630,1604,14.7278,-29.4697
413,-580,14.7369,29.1547,0,0,0,0,0,0,0,-1,1637,1604,14.7369,-29.1547
420,-580,14.9611,29.2714,0,0,0,0,0,0,0,-1,1644,1604,14.9611,-29.2713
427,-580,14.8123,28.8242,0.00303686,0.0184023,-0.00599313,0.0204634,0.000975772,-1.23956,0.0133289,0.0396398,1651,1604,14.8123,-28.8243
434,-580,14.6117,28.2947,0.00295477,0.0167524,-0.00582351,0.0188817,0.000825468,-1.22026,0.0123219,0.0309876,1658,1604,14.6117,-28.2947
441,-580,14.5161,27.6613,0.00324478,0.0148936,-0.00569032,0.0172119,0.000926484,-1.18392,0.0111785,0.0184707,1665,1604,14.5161,-27.6612
448,-580,14.5854,27.1725,0.00339924,0.0131754,-0.00540437,0.0155743,0.00100031,-1.15304,0.010066,0.0161902,1672,1604,14.5855,-27.1725
455,-580,14.6698,26.7859,0.0034608,0.0113035,-0.00508197,0.0138011,0.000963154,-1.114,0.00889709,0.0215337,1679,1604,14.6698,-26.7859
462,-580,14.6205,26.3403,0.0034524,0.00968616,-0.00468692,0.012198,0.00094059,-1.07883,0.00783728,0.0246549,1686,1604,14.6205,-26.3403
469,-580,14.5914,25.886,0.00325485,0.00778413,-0.0040996,0.010203,0.000835977,-1.03774,0.00654117,0.020716,1693,1604,14.5914,-25.8859
476,-580,14.6387,25.4502,0.00278144,0.00589375,-0.00331383,0.00799862,0.000676572,-1.00491,0.00512181,0.0149017,1700,1604,14.6387,-25.4502
483,-580,14.6287,25.0569,0.00218477,0.00397085,-0.00252173,0.005753,0.000402618,-0.955576,0.00370842,0.0137757,1707,1604,14.6286,-25.0569
490,-580,14.5953,24.6516,0.00137895,0.00238402,-0.00164149,0.00359818,0.000164791,-0.933941,0.00234579,0.0175311,1714,1604,14.5953,-24.6517
497,-580,14.5741,24.1934,0.000300847,0.00115426,-0.000854043,0.00168226,-0.000227155,-1.01707,0.00120439,0.0137513,1721,1604,14.5741,-24.1934
504,-580,14.5542,23.735,-0.001265,-1.1624e-05,0.000233138,3.03367e-05,-0.00130696,1.39272,0.000881593,0.0167204,1728,1604,14.5542,-23.7349
511,-580,14.5585,23.2909,-0.00347802,-0.000781293,0.00209057,0.000358025,-0.00461734,1.07182,0.00320424,0.017301,1735,1604,14.5585,-23.2909
518,-580,14.5455,22.855,-0.00573344,-0.00145283,0.00380224,0.000770116,-0.00795638,1.04175,0.00557871,0.0164234,1742,1604,14.5455,-22.855
525,-580,14.5367,22.4209,-0.0085526,-0.00194383,0.00603262,0.00163012,-0.0121266,1.03596,0.00867892,0.0179839,1749,1604,14.5367,-22.421
532,-580,14.5121,21.9781,-0.012099,-0.00238342,0.0090911,0.00306638,-0.0175488,1.03077,0.0128439,0.0203102,1756,1604,14.512,-21.9781
539,-580,14.5155,21.5717,-0.0168206,-0.002906,0.0133334,0.00517614,-0.0249027,1.02586,0.0185692,0.0303086,1763,1604,14.5154,-21.5716
546,-580,14.7905,21.0021,0,0,0,0,0,0,0,-1,1770,1604,14.7905,-21.0021
553,-580,12.9652,20.8347,0,0,0,0,0,0,0,-1,1777,1604,12.9652,-20.8347
560,-580,11.8794,20.5935,0,0,0,0,0,0,0,-1,1784,1604,11.8793,-20.5935
567,-580,3.87708,4.0647,0,0,0,0,0,0,0,-1,1791,1604,3.87711,-4.06471
574,-580,2.31653,5.62952,0,0,0,0,0,0,0,-1,1798,1604,2.31654,-5.62947
581,-580,1.60876,6.67664,0,0,0,0,0,0,0,-1,1805,1604,1.60873,-6.67667
588,-580,1.38684,7.14441,0,0,0,0,0,0,0,-1,1812,1604,1.38689,-7.14443
595,-580,0,0,0,0,0,0,0,0,0,-1,1819,1604,0,0
602,-580,0,0,0,0,0,0,0,0,0,-1,1826,1604,0,0
609,-580,0,0,0,0,0,0,0,0,0,-1,1833,1604,0,0
616,-580,0,0,0,0,0,0,0,0,0,-1,1840,1604,0,0
623,-580,0,0,0,0,0,0,0,0,0,-1,1847,1604,0,0
630,-580,0,0,0,0,0,0,0,0,0,-1,1854,1604,0,0
637,-580,0,0,0,0,0,0,0,0,0,-1,1861,1604,0,0
644,-580,0,0,0,0,0,0,0,0,0,-1,1868,1604,0,0
651,-580,0,0,0,0,0,0,0,0,0,-1,1875,1604,0,0
658,-580,0,0,0,0,0,0,0,0,0,-1,1882,1604,0,0
665,-580,0,0,0,0,0,0,0,0,0,-1,1889,1604,0,0
672,-580,0,0,0,0,0,0,0,0,0,-1,1896,1604,0,0
679,-580,0,0,0,0,0,0,0,0,0,-1,1903,1604,0,0
686,-580,0,0,0,0,0,0,0,0,0,-1,1910,1604,0,0
693,-580,0,0,0,0,0,0,0,0,0,-1,1917,1604,0,0
700,-580,0,0,0,0,0,0,0,0,0,-1,1924,1604,0,0
707,-580,0,0,0,0,0,0,0,0,0,-1,1931,1604,0,0
714,-580,0,0,0,0,0,0,0,0,0,-1,1938,1604,0,0
721,-580,0,0,0,0,0,0,0,0,0,-1,1945,1604,0,0
728,-580,0,0,0,0,0,0,0,0,0,-1,1952,1604,0,0
735,-580,0,0,0,0,0,0,0,0,0,-1,1959,1604,0,0
742,-580,0,0,0,0,0,0,0,0,0,-1,1966,1604,0,0
749,-580,0,0,0,0,0,0,0,0,0,-1,1973,1604,0,0
756,-580,0,0,0,0,0,0,0,0,0,-1,1980,1604,0,0
763,-580,0,0,0,0,0,0,0,0,0,-1,1987,1604,0,0
770,-580,0,0,0,0,0,0,0,0,0,-1,1994,1604,0,0
777,-580,0,0,0,0,0,0,0,0,0,-1,2001,1604,0,0
784,-580,0,0,0,0,0,0,0,0,0,-1,2008,1604,0,0
791,-580,0,0,0,0,0,0,0,0,0,-1,2015,1604,0,0
798,-580,0,0,0,0,0,0,0,0,0,-1,2022,1604,0,0
805,-580,0,0,0,0,0,0,0,0,0,-1,2029,1604,0,0
812,-580,0,0,0,0,0,0,0,0,0,-1,2036,1604,0,0
-700,-587,0,0,0,0,0,0,0,0,0,-1,524,1611,0,0
-693,-587,0,0,0,0,0,0,0,0,0,-1,531,1611,0,0
-686,-587,0,0,0,0,0,0,0,0,0,-1,538,1611,0,0
-679,-587,0,0,0,0,0,0,0,0,0,-1,545,1611,0,0
-672,-587,0,0,0,0,0,0,0,0,0,-1,552,1611,0,0
-665,-587,0,0,0,0,0,0,0,0,0,-1,559,1611,0,0
-658,-587,0,0,0,0,0,0,0,0,0,-1,566,1611,0,0
-651,-587,0,0,0,0,0,0,0,0,0,-1,573,1611,0,0
-644,-587,0,0,0,0,0,0,0,0,0,-1,580,1611,0,0
-637,-587,0,0,0,0,0,0,0,0,0,-1,587,1611,0,0
-630,-587,0,0,0,0,0,0,0,0,0,-1,594,1611,0,0
-623,-587,0,0,0,0,0,0,0,0,0,-1,601,1611,0,0
-616,-587,0,0,0,0,0,0,0,0,0,-1,608,1611,0,0
-609,-587,0,0,0,0,0,0,0,0,0,-1,615,1611,0,0
-602,-587,0,0,0,0,0,0,0,0,0,-1,622,1611,0,0
-595,-587,0,0,0,0,0,0,0,0,0,-1,629,1611,0,0
-588,-587,0,0,0,0,0,0,0,0,0,-1,636,1611,0,0
-581,-587,0,0,0,0,0,0,0,0,0,-1,643,1611,0,0
-574,-587,0,0,0,0,0,0,0,0,0,-1,650,1611,0,0
-567,-587,0,0,0,0,0,0,0,0,0,-1,657,1611,0,0
-560,-587,0,0,0,0,0,0,0,0,0,-1,664,1611,0,0
-553,-587,0,0,0,0,0,0,0,0,0,-1,671,1611,0,0
-546,-587,0,0,0,0,0,0,0,0,0,-1,678,1611,0,0
-539,-587,0,0,0,0,0,0,0,0,0,-1,685,1611,0,0
-532,-587,0,0,0,0,0,0,0,0,0,-1,692,1611,0,0
-525,-587,0,0,0,0,0,0,0,0,0,-1,699,1611,0,0
-518,-587,0,0,0,0,0,0,0,0,0,-1,706,1611,0,0
-511,-587,0,0,0,0,0,0,0,0,0,-1,713,1611,0,0
-504,-587,0,0,0,0,0,0,0,0,0,-1,720,1611,0,0
-497,-587,0,0,0,0,0,0,0,0,0,-1,727,1611,0,0
-490,-587,0,0,0,0,0,0,0,0,0,-1,734,1611,0,0
-483,-587,0,0,0,0,0,0,0,0,0,-1,741,1611,0,0
-476,-587,0,0,0,0,0,0,0,0,0,-1,748,1611,0,0
-469,-587,0,0,0,0,0,0,0,0,0,-1,755,1611,0,0
-462,-587,-0.714355,-0.418457,0,0,0,0,0,0,0,-1,762,1611,-0.714359,0.418483
-455,-587,-0.619812,-0.522461,0,0,0,0,0,0,0,-1,769,1611,-0.619802,0.522515
-448,-587,-0.461731,-0.686523,0,0,0,0,0,0,0,-1,776,1611,-0.461739,0.686559
-441,-587,-3.56555,2.72253,0,0,0,0,0,0,0,-1,783,1611,-3.56555,-2.72259
-434,-587,-1.77319,4.76318,0,0,0,0,0,0,0,-1,790,1611,-1.77318,-4.76323
-427,-587,0.0346069,6.92944,0,0,0,0,0,0,0,-1,797,1611,0.034587,-6.92941
-420,-587,-0.647156,10.1157,0,0,0,0,0,0,0,-1,804,1611,-0.647128,-10.1158
-413,-587,2.13971,10.3901,0,0,0,0,0,0,0,-1,811,1611,2.13971,-10.3902
-406,-587,2.2525,19.7814,0,0,0,0,0,0,0,-1,818,1611,2.25253,-19.7814
-399,-587,1.70721,20.8373,0,0,0,0,0,0,0,-1,825,1611,1.70719,-20.8372
-392,-587,1.6319,21.2753,-0.00425232,-0.00278343,-0.000790741,-0.00243868,-0.00459708,-1.15965,0.00265577,0.0410596,832,1611,1.6319,-21.2753
-385,-587,1.39703,21.8096,-0.00338017,-0.00228531,-0.000680343,-0.0019595,-0.00370598,-1.12418,0.00214083,0.0203788,839,1611,1.39703,-21.8096
-378,-587,1.41187,22.3503,-0.00257302,-0.00193184,-0.000321899,-0.00179812,-0.00270674,-1.17708,0.00159062,0.0130181,846,1611,1.41187,-22.3503
-371,-587,1.38666,22.8593,-0.00176735,-0.00147565,-6.55667e-05,-0.00146159,-0.00178141,-1.35956,0.00109666,0.0138807,853,1611,1.38669,-22.8592
-364,-587,1.38214,23.3156,-0.000969274,-0.000905014,0.000194579,-0.00073993,-0.00113436,0.867223,0.000664971,0.0171019,860,1611,1.38214,-23.3156
-357,-587,1.37769,23.7422,-0.000148229,-0.000223687,0.000477532,0.000293061,-0.000664978,0.745976,0.000566847,0.016155,867,1611,1.3777,-23.7422
-350,-587,1.362,24.2448,0.000729903,0.000479086,0.000760886,0.00137565,-0.000166658,0.703723,0.000977398,0.00983346,874,1611,1.36203,-24.2448
-343,-587,1.34357,24.696,0.00156408,0.00135371,0.00110676,0.00257064,0.000347153,0.738021,0.00161056,0.0124363,881,1611,1.34356,-24.6961
-336,-587,1.3175,25.1178,0.00236228,0.00215869,0.0014642,0.00372822,0.000792757,0.750693,0.00226789,0.0119726,888,1611,1.3175,-25.1178
-329,-587,1.31238,25.605,0.00311039,0.00315445,0.00180547,0.00493803,0.00132682,0.791499,0.00295091,0.0145339,895,1611,1.31237,-25.605
-322,-587,1.3288,26.0887,0.00378401,0.0041484,0.00214509,0.00611902,0.00181339,0.827764,0.00362918,0.0184788,902,1611,1.32878,-26.0887
-315,-587,1.32617,26.5275,0.00445382,0.00518086,0.00245304,0.00729717,0.00233751,0.858958,0.00430273,0.014582,909,1611,1.32618,-26.5274
-308,-587,1.31079,26.976,0.00527172,0.00599313,0.00277996,0.00843568,0.00282916,0.849914,0.00495755,0.0144789,916,1611,1.3108,-26.9759
-301,-587,1.37042,27.4259,0.00633519,0.00678585,0.0035095,0.0100773,0.00304379,0.817457,0.00596816,0.0160206,923,1611,1.37042,-27.4259
-294,-587,1.44415,27.9374,0.00749243,0.00768818,0.00474978,0.0123411,0.00283951,0.7957,0.00746318,0.029482,930,1611,1.44415,-27.9373
-287,-587,1.45294,28.4128,0,0,0,0,0,0,0,-1,937,1611,1.45293,-28.4129
-280,-587,1.82507,28.088,0,0,0,0,0,0,0,-1,944,1611,1.82509,-28.088
-273,-587,1.87579,28.6661,0,0,0,0,0,0,0,-1,951,1611,1.87577,-28.6662
-266,-587,1.49817,30.5366,0,0,0,0,0,0,0,-1,958,1611,1.49819,-30.5366
-259,-587,1.76306,28.5784,0,0,0,0,0,0,0,-1,965,1611,1.76307,-28.5784
-252,-587,1.30188,10.3103,0,0,0,0,0,0,0,-1,972,1611,1.30188,-10.3104
-245,-587,1.52075,27.4791,0,0,0,0,0,0,0,-1,979,1611,1.52076,-27.4791
-238,-587,2.87799,9.53821,0,0,0,0,0,0,0,-1,986,1611,2.87797,-9.53823
-231,-587,2.49548,9.14465,0,0,0,0,0,0,0,-1,993,1611,2.49551,-9.14468
-224,-587,-9.72528,9.21069,0,0,0,0,0,0,0,-1,1000,1611,-9.72529,-9.21072
-217,-587,-7.07495,10.7847,0,0,0,0,0,0,0,-1,1007,1611,-7.07495,-10.7847
-210,-587,-4.72308,12.5889,0,0,0,0,0,0,0,-1,1014,1611,-4.72307,-12.5888
-203,-587,-3.2583,13.7289,0,0,0,0,0,0,0,-1,1021,1611,-3.25828,-13.7289
-196,-587,-1.953,14.8145,0,0,0,0,0,0,0,-1,1028,1611,-1.95302,-14.8144
-189,-587,-3.04138,8.66638,0,0,0,0,0,0,0,-1,1035,1611,-3.04136,-8.66635
-182,-587,-3.97095,9.7146,0,0,0,0,0,0,0,-1,1042,1611,-3.97093,-9.71461
-175,-587,-4.80969,8.37878,0,0,0,0,0,0,0,-1,1049,1611,-4.80964,-8.37883
-168,-587,-5.91394,8.72546,0,0,0,0,0,0,0,-1,1056,1611,-5.91398,-8.72542
-161,-587,-7.06946,8.88501,0,0,0,0,0,0,0,-1,1063,1611,-7.06947,-8.885
-154,-587,-2.24731,6.56519,0,0,0,0,0,0,0,-1,1070,1611,-2.24728,-6.56517
-147,-587,0,0,0,0,0,0,0,0,0,-1,1077,1611,0,0
-140,-587,0,0,0,0,0,0,0,0,0,-1,1084,1611,0,0
-133,-587,0,0,0,0,0,0,0,0,0,-1,1091,1611,0,0
-126,-587,0,0,0,0,0,0,0,0,0,-1,1098,1611,0,0
-119,-587,0,0,0,0,0,0,0,0,0,-1,1105,1611,0,0
-112,-587,0,0,0,0,0,0,0,0,0,-1,1112,1611,0,0
-105,-587,0,0,0,0,0,0,0,0,0,-1,1119,1611,0,0
-98,-587,0,0,0,0,0,0,0,0,0,-1,1126,1611,0,0
-91,-587,0,0,0,0,0,0,0,0,0,-1,1133,1611,0,0
-84,-587,0,0,0,0,0,0,0,0,0,-1,1140,1611,0,0
-77,-587,0,0,0,0,0,0,0,0,0,-1,1147,1611,0,0
-70,-587,0,0,0,0,0,0,0,0,0,-1,1154,1611,0,0
-63,-587,0,0,0,0,0,0,0,0,0,-1,1161,1611,0,0
-56,-587,0,0,0,0,0,0,0,0,0,-1,1168,1611,0,0
-49,-587,0,0,0,0,0,0,0,0,0,-1,1175,1611,0,0
-42,-587,0,0,0,0,0,0,0,0,0,-1,1182,1611,0,0
-35,-587,0,0,0,0,0,0,0,0,0,-1,1189,1611,0,0
-28,-587,0,0,0,0,0,0,0,0,0,-1,1196,1611,0,0
-21,-587,0,0,0,0,0,0,0,0,0,-1,1203,1611,0,0
-14,-587,0,0,0,0,0,0,0,0,0,-1,1210,1611,0,0
-7,-587,0,0,0,0,0,0,0,0,0,-1,1217,1611,0,0
0,-587,0,0,0,0,0,0,0,0,0,-1,1224,1611,0,0
7,-587,0,0,0,0,0,0,0,0,0,-1,1231,1611,0,0
14,-587,0,0,0,0,0,0,0,0,0,-1,1238,1611,0,0
21,-587,0,0,0,0,0,0,0,0,0,-1,1245,1611,0,0
28,-587,0,0,0,0,0,0,0,0,0,-1,1252,1611,0,0
35,-587,0,0,0,0,0,0,0,0,0,-1,1259,1611,0,0
42,-587,0,0,0,0,0,0,0,0,0,-1,1266,1611,0,0
49,-587,0,0,0,0,0,0,0,0,0,-1,1273,1611,0,0
56,-587,0,0,0,0,0,0,0,0,0,-1,1280,1611,0,0
63,-587,0,0,0,0,0,0,0,0,0,-1,1287,1611,0,0
70,-587,0,0,0,0,0,0,0,0,0,-1,1294,1611,0,0
77,-587,0,0,0,0,0,0,0,0,0,-1,1301,1611,0,0
84,-587,0,0,0,0,0,0,0,0,0,-1,1308,1611,0,0
91,-587,0,0,0,0,0,0,0,0,0,-1,1315,1611,0,0
98,-587,0,0,0,0,0,0,0,0,0,-1,1322,1611,0,0
105,-587,0,0,0,0,0,0,0,0,0,-1,1329,1611,0,0
112,-587,0,0,0,0,0,0,0,0,0,-1,1336,1611,0,0
119,-587,0,0,0,0,0,0,0,0,0,-1,1343,1611,0,0
126,-587,0,0,0,0,0,0,0,0,0,-1,1350,1611,0,0
133,-587,0,0,0,0,0,0,0,0,0,-1,1357,1611,0,0
140,-587,0,0,0,0,0,0,0,0,0,-1,1364,1611,0,0
147,-587,0,0,0,0,0,0,0,0,0,-1,1371,1611,0,0
154,-587,0,0,0,0,0,0,0,0,0,-1,1378,1611,0,0
161,-587,0,0,0,0,0,0,0,0,0,-1,1385,1611,0,0
168,-587,0,0,0,0,0,0,0,0,0,-1,1392,1611,0,0
175,-587,0,0,0,0,0,0,0,0,0,-1,1399,1611,0,0
182,-587,0,0,0,0,0,0,0,0,0,-1,1406,1611,0,0
189,-587,0,0,0,0,0,0,0,0,0,-1,1413,1611,0,0
196,-587,0,0,0,0,0,0,0,0,0,-1,1420,1611,0,0
203,-587,0,0,0,0,0,0,0,0,0,-1,1427,1611,0,0
210,-587,0,0,0,0,0,0,0,0,0,-1,1434,1611,0,0
217,-587,0,0,0,0,0,0,0,0,0,-1,1441,1611,0,0
224,-587,0,0,0,0,0,0,0,0,0,-1,1448,1611,0,0
231,-587,0,0,0,0,0,0,0,0,0,-1,1455,1611,0,0
238,-587,0,0,0,0,0,0,0,0,0,-1,1462,1611,0,0
245,-587,0,0,0,0,0,0,0,0,0,-1,1469,1611,0,0
252,-587,0,0,0,0,0,0,0,0,0,-1,1476,1611,0,0
259,-587,0,0,0,0,0,0,0,0,0,-1,1483,1611,0,0
266,-587,0,0,0,0,0,0,0,0,0,-1,1490,1611,0,0
273,-587,10.2936,6.35083,0,0,0,0,0,0,0,-1,1497,1611,10.2936,-6.35087
280,-587,2.09204,1.1217,0,0,0,0,0,0,0,-1,1504,1611,2.092,-1.12176
287,-587,3.2865,0.671509,0,0,0,0,0,0,0,-1,1511,1611,3.28656,-0.671538
294,-587,4.24646,1.58765,0,0,0,0,0,0,0,-1,1518,1611,4.24648,-1.58761
301,-587,7.60474,8.37085,0,0,0,0,0,0,0,-1,1525,1611,7.60478,-8.37084
308,-587,5.99316,10.2291,0,0,0,0,0,0,0,-1,1532,1611,5.99315,-10.2291
315,-587,4.34558,12.3289,0,0,0,0,0,0,0,-1,1539,1611,4.34556,-12.3288
322,-587,10.4526,6.38245,0,0,0,0,0,0,0,-1,1546,1611,10.4526,-6.38245
329,-587,10.7738,8.42444,0,0,0,0,0,0,0,-1,1553,1611,10.7738,-8.42438
336,-587,7.5531,5.96619,0,0,0,0,0,0,0,-1,1560,1611,7.55311,-5.96617
343,-587,9.57495,4.38391,0,0,0,0,0,0,0,-1,1567,1611,9.57494,-4.38397
350,-587,9.50378,3.45093,0,0,0,0,0,0,0,-1,1574,1611,9.50376,-3.4509
357,-587,9.40027,2.50806,0,0,0,0,0,0,0,-1,1581,1611,9.40022,-2.50803
364,-587,9.26477,1.34131,0,0,0,0,0,0,0,-1,1588,1611,9.26479,-1.34126
371,-587,6.98926,7.87561,0,0,0,0,0,0,0,-1,1595,1611,6.98928,-7.87564
378,-587,9.25146,13.8358,0,0,0,0,0,0,0,-1,1602,1611,9.2515,-13.8359
385,-587,13.9305,30.3229,0,0,0,0,0,0,0,-1,1609,1611,13.9305,-30.3228
392,-587,13.7986,30.2626,0,0,0,0,0,0,0,-1,1616,1611,13.7985,-30.2626
399,-587,14.189,29.8616,0,0,0,0,0,0,0,-1,1623,1611,14.1889,-29.8615
406,-587,14.2559,29.5811,0.0071893,0.0201678,-0.00716303,0.0233439,0.00401319,-1.15344,0.0144124,0.0439148,1630,1611,14.2558,-29.5811
413,-587,14.3032,29.2656,0.00501631,0.017696,-0.00583839,0.0199748,0.00273754,-1.19867,0.0125043,0.036514,1637,1611,14.3032,-29.2656
420,-587,14.1884,28.9041,0.00359196,0.01546,-0.00485669,0.0171941,0.00185786,-1.22785,0.0108964,0.0308581,1644,1611,14.1883,-28.9041
427,-587,14.1831,28.5399,0.00260404,0.013685,-0.00419721,0.0150953,0.00119373,-1.24664,0.00969017,0.0232439,1651,1611,14.1831,-28.5399
434,-587,14.2068,27.9941,0.00235979,0.0123269,-0.00405488,0.0137681,0.000918559,-1.22929,0.00888839,0.017888,1658,1611,14.2068,-27.9942
441,-587,14.2031,27.5306,0.00249357,0.0109737,-0.00403994,0.0125902,0.000877078,-1.19018,0.00811689,0.0213256,1665,1611,14.2031,-27.5306
448,-587,14.2092,27.1887,0.0025137,0.00964164,-0.00386393,0.0113343,0.000821068,-1.15792,0.00729791,0.0158418,1672,1611,14.2093,-27.1887
455,-587,14.2434,26.7959,0.00246185,0.00819392,-0.0036506,0.00996911,0.000686657,-1.11819,0.00642942,0.014872,1679,1611,14.2434,-26.7958
462,-587,14.2203,26.3622,0.00235495,0.00691941,-0.00336301,0.00870146,0.000572896,-1.08352,0.00561975,0.0197199,1686,1611,14.2204,-26.3622
469,-587,14.1777,25.9368,0.00211346,0.0054245,-0.00290625,0.00711369,0.000424272,-1.0443,0.00460755,0.0173905,1693,1611,14.1777,-25.9368
476,-587,14.1779,25.5048,0.00164021,0.00389644,-0.00226135,0.00529545,0.000241203,-1.01677,0.00345271,0.0108972,1700,1611,14.1778,-25.5048
483,-587,14.1566,25.0679,0.00102189,0.00232307,-0.00158646,0.00338716,-4.22023e-05,-0.979984,0.00227231,0.0136614,1707,1611,14.1566,-25.0679
490,-587,14.1349,24.6367,0.000223544,0.00101062,-0.000840202,0.00154488,-0.000310719,-1.00442,0.0011476,0.0166257,1714,1611,14.1349,-24.6367
497,-587,14.1156,24.2024,-0.00086279,-2.76199e-05,-0.000157045,9.3432e-07,-0.000891344,-1.39094,0.000594541,0.0130165,1721,1611,14.1156,-24.2024
504,-587,14.1,23.7913,-0.00251094,-0.000973972,0.000901391,-0.000557942,-0.00292697,1.13838,0.00179448,0.0119592,1728,1611,14.1,-23.7913
511,-587,14.0966,23.3549,-0.00492077,-0.0015672,0.00285323,6.54736e-05,-0.00655344,1.05105,0.00439095,0.013801,1735,1611,14.0966,-23.3549
518,-587,14.1117,22.8923,-0.00739739,-0.00204658,0.00465286,0.000645222,-0.0100892,1.04632,0.00695119,0.0140876,1742,1611,14.1117,-22.8923
525,-587,14.099,22.4717,-0.0106075,-0.00233644,0.00711283,0.00175572,-0.0146997,1.04872,0.0104344,0.0179058,1749,1611,14.099,-22.4717
532,-587,14.0516,22.0145,-0.0148625,-0.00259855,0.0106992,0.00360135,-0.0210624,1.04561,0.0153832,0.03056,1756,1611,14.0517,-22.0145
539,-587,14.016,21.4897,0,0,0,0,0,0,0,-1,1763,1611,14.0159,-21.4898
546,-587,14.7806,20.8363,0,0,0,0,0,0,0,-1,1770,1611,14.7807,-20.8363
553,-587,7.5813,8.45068,0,0,0,0,0,0,0,-1,1777,1611,7.58125,-8.45068
560,-587,4.21179,5.23547,0,0,0,0,0,0,0,-1,1784,1611,4.21185,-5.23553
567,-587,4.03711,5.46387,0,0,0,0,0,0,0,-1,1791,1611,4.03715,-5.46382
574,-587,3.83142,5.68884,0,0,0,0,0,0,0,-1,1798,1611,3.83141,-5.68881
581,-587,3.47168,6.00977,0,0,0,0,0,0,0,-1,1805,1611,3.47167,-6.00983
588,-587,0,0,0,0,0,0,0,0,0,-1,1812,1611,0,0
595,-587,0,0,0,0,0,0,0,0,0,-1,1819,1611,0,0
602,-587,0,0,0,0,0,0,0,0,0,-1,1826,1611,0,0
609,-587,0,0,0,0,0,0,0,0,0,-1,1833,1611,0,0
616,-587,0,0,0,0,0,0,0,0,0,-1,1840,1611,0,0
623,-587,0,0,0,0,0,0,0,0,0,-1,1847,1611,0,0
630,-587,0,0,0,0,0,0,0,0,0,-1,1854,1611,0,0
637,-587,0,0,0,0,0,0,0,0,0,-1,1861,1611,0,0
644,-587,0,0,0,0,0,0,0,0,0,-1,1868,1611,0,0
651,-587,0,0,0,0,0,0,0,0,0,-1,1875,1611,0,0
658,-587,0,0,0,0,0,0,0,0,0,-1,1882,1611,0,0
665,-587,0,0,0,0,0,0,0,0,0,-1,1889,1611,0,0
672,-587,0,0,0,0,0,0,0,0,0,-1,1896,1611,0,0
679,-587,0,0,0,0,0,0,0,0,0,-1,1903,1611,0,0
686,-587,0,0,0,0,0,0,0,0,0,-1,1910,1611,0,0
693,-587,0,0,0,0,0,0,0,0,0,-1,1917,1611,0,0
700,-587,0,0,0,0,0,0,0,0,0,-1,1924,1611,0,0
707,-587,0,0,0,0,0,0,0,0,0,-1,1931,1611,0,0
714,-587,0,0,0,0,0,0,0,0,0,-1,1938,1611,0,0
721,-587,0,0,0,0,0,0,0,0,0,-1,1945,1611,0,0
728,-587,0,0,0,0,0,0,0,0,0,-1,1952,1611,0,0
735,-587,0,0,0,0,0,0,0,0,0,-1,1959,1611,0,0
742,-587,0,0,0,0,0,0,0,0,0,-1,1966,1611,0,0
749,-587,0,0,0,0,0,0,0,0,0,-1,1973,1611,0,0
756,-587,0,0,0,0,0,0,0,0,0,-1,1980,1611,0,0
763,-587,0,0,0,0,0,0,0,0,0,-1,1987,1611,0,0
770,-587,0,0,0,0,0,0,0,0,0,-1,1994,1611,0,0
777,-587,0,0,0,0,0,0,0,0,0,-1,2001,1611,0,0
784,-587,0,0,0,0,0,0,0,0,0,-1,2008,1611,0,0
791,-587,0,0,0,0,0,0,0,0,0,-1,2015,1611,0,0
798,-587,0,0,0,0,0,0,0,0,0,-1,2022,1611,0,0
805,-587,0,0,0,0,0,0,0,0,0,-1,2029,1611,0,0
812,-587,0,0,0,0,0,0,0,0,0,-1,2036,1611,0,0
-700,-594,0,0,0,0,0,0,0,0,0,-1,524,1618,0,0
-693,-594,0,0,0,0,0,0,0,0,0,-1,531,1618,0,0
-686,-594,0,0,0,0,0,0,0,0,0,-1,538,1618,0,0
-679,-594,0,0,0,0,0,0,0,0,0,-1,545,1618,0,0
-672,-594,0,0,0,0,0,0,0,0,0,-1,552,1618,0,0
-665,-594,0,0,0,0,0,0,0,0,0,-1,559,1618,0,0
-658,-594,0,0,0,0,0,0,0,0,0,-1,566,1618,0,0
-651,-594,0,0,0,0,0,0,0,0,0,-1,573,1618,0,0
-644,-594,0,0,0,0,0,0,0,0,0,-1,580,1618,0,0
-637,-594,0,0,0,0,0,0,0,0,0,-1,587,1618,0,0
-630,-594,0,0,0,0,0,0,0,0,0,-1,594,1618,0,0
-623,-594,0,0,0,0,0,0,0,0,0,-1,601,1618,0,0
-616,-594,0,0,0,0,0,0,0,0,0,-1,608,1618,0,0
-609,-594,0,0,0,0,0,0,0,0,0,-1,615,1618,0,0
-602,-594,0,0,0,0,0,0,0,0,0,-1,622,1618,0,0
-595,-594,0,0,0,0,0,0,0,0,0,-1,629,1618,0,0
-588,-594,0,0,0,0,0,0,0,0,0,-1,636,1618,0,0
-581,-594,0,0,0,0,0,0,0,0,0,-1,643,1618,0,0
-574,-594,0,0,0,0,0,0,0,0,0,-1,650,1618,0,0
-567,-594,0,0,0,0,0,0,0,0,0,-1,657,1618,0,0
-560,-594,0,0,0,0,0,0,0,0,0,-1,664,1618,0,0
-553,-594,0,0,0,0,0,0,0,0,0,-1,671,1618,0,0
-546,-594,0,0,0,0,0,0,0,0,0,-1,678,1618,0,0
-539,-594,0,0,0,0,0,0,0,0,0,-1,685,1618,0,0
-532,-594,0,0,0,0,0,0,0,0,0,-1,692,1618,0,0
-525,-594,0,0,0,0,0,0,0,0,0,-1,699,1618,0,0
-518,-594,0,0,0,0,0,0,0,0,0,-1,706,1618,0,0
-511,-594,0,0,0,0,0,0,0,0,0,-1,713,1618,0,0
-504,-594,0,0,0,0,0,0,0,0,0,-1,720,1618,0,0
-497,-594,0,0,0,0,0,0,0,0,0,-1,727,1618,0,0
-490,-594,0,0,0,0,0,0,0,0,0,-1,734,1618,0,0
-483,-594,0,0,0,0,0,0,0,0,0,-1,741,1618,0,0
-476,-594,0,0,0,0,0,0,0,0,0,-1,748,1618,0,0
-469,-594,0,0,0,0,0,0,0,0,0,-1,755,1618,0,0
-462,-594,0,0,0,0,0,0,0,0,0,-1,762,1618,0,0
-455,-594,-0.509216,-1.58411,0,0,0,0,0,0,0,-1,769,1618,-0.509245,1.58415
-448,-594,-7.71887,-0.0559082,0,0,0,0,0,0,0,-1,776,1618,-7.71885,0.055939
-441,-594,-5.78473,1.18298,0,0,0,0,0,0,0,-1,783,1618,-5.78474,-1.18295
-434,-594,-3.93628,3.06213,0,0,0,0,0,0,0,-1,790,1618,-3.93631,-3.06208
-427,-594,-3.97693,6.77759,0,0,0,0,0,0,0,-1,797,1618,-3.97695,-6.77764
-420,-594,-2.53046,7.71606,0,0,0,0,0,0,0,-1,804,1618,-2.53047,-7.71609
-413,-594,-0.860413,8.00391,0,0,0,0,0,0,0,-1,811,1618,-0.860423,-8.00389
-406,-594,2.45746,13.6218,0,0,0,0,0,0,0,-1,818,1618,2.45747,-13.6218
-399,-594,2.39081,20.4229,0,0,0,0,0,0,0,-1,825,1618,2.39082,-20.4228
-392,-594,2.01947,21.6958,0,0,0,0,0,0,0,-1,832,1618,2.01949,-21.6958
-385,-594,1.92371,22.0349,-0.00426778,-0.00290446,-0.000743717,-0.00257727,-0.00459497,-1.15634,0.00265946,0.034118,839,1618,1.92371,-22.0349
-378,-594,1.82074,22.3611,-0.0032395,-0.00264533,-0.000331451,-0.00249731,-0.00338752,-1.15079,0.00202783,0.0155458,846,1618,1.82075,-22.361
-371,-594,1.83899,22.8765,-0.00229384,-0.00217362,-5.39003e-05,-0.00215299,-0.00231447,-1.20532,0.00149207,0.0124906,853,1618,1.83897,-22.8764
-364,-594,1.85077,23.3431,-0.00144192,-0.00165738,0.000160886,-0.00135602,-0.00174327,0.490379,0.00105702,0.0102657,860,1618,1.85079,-23.3431
-357,-594,1.84595,23.8049,-0.000593265,-0.00105325,0.000398155,-0.000363448,-0.00128306,0.523489,0.000763623,0.0100801,867,1618,1.84594,-23.805
-350,-594,1.81238,24.2892,0.000244844,-0.000431111,0.000616227,0.000609692,-0.000795959,0.534567,0.000813925,0.0142913,874,1618,1.81235,-24.2891
-343,-594,1.78748,24.7515,0.00100114,0.000333618,0.000868959,0.00159823,-0.000263474,0.602039,0.0011633,0.0163287,881,1618,1.7875,-24.7515
-336,-594,1.75934,25.1566,0.00171779,0.00102758,0.00113697,0.00256087,0.000184491,0.638051,0.00164919,0.0136231,888,1618,1.75935,-25.1566
-329,-594,1.7605,25.618,0.00233076,0.00193002,0.00137261,0.00351755,0.000743229,0.712921,0.00214073,0.0137379,895,1618,1.7605,-25.6181
-322,-594,1.79694,26.0903,0.00282917,0.00278329,0.00159874,0.00440514,0.00120733,0.778223,0.00262843,0.0161387,902,1618,1.79691,-26.0903
-315,-594,1.79065,26.533,0.00329652,0.00362247,0.00177682,0.00524377,0.00167522,0.831131,0.00309257,0.0162181,909,1618,1.79067,-26.533
-308,-594,1.76825,26.978,0.00389583,0.00427144,0.0019704,0.00606296,0.00210431,0.832911,0.00355461,0.01471,916,1618,1.76824,-26.9781
-301,-594,1.75513,27.3834,0.00469765,0.00489585,0.00249743,0.00729614,0.00229735,0.805228,0.0043076,0.0116207,923,1618,1.75515,-27.3834
-294,-594,1.79016,27.7869,0.00559013,0.00564979,0.00344525,0.00906534,0.00217458,0.789727,0.00546487,0.014317,930,1618,1.79016,-27.7869
-287,-594,1.73059,28.2177,0.00669423,0.00648826,0.00438523,0.0109777,0.00220481,0.773658,0.00670545,0.0252038,937,1618,1.73061,-28.2176
-280,-594,1.72699,28.8073,0,0,0,0,0,0,0,-1,944,1618,1.72699,-28.8073
-273,-594,1.83984,29.3237,0,0,0,0,0,0,0,-1,951,1618,1.83982,-29.3237
-266,-594,1.81671,29.9292,0,0,0,0,0,0,0,-1,958,1618,1.81671,-29.9292
-259,-594,1.97595,29.9028,0,0,0,0,0,0,0,-1,965,1618,1.97596,-29.9028
-252,-594,2.37921,30.4253,0,0,0,0,0,0,0,-1,972,1618,2.3792,-30.4253
-245,-594,2.42383,31.01,0,0,0,0,0,0,0,-1,979,1618,2.42381,-31.01
-238,-594,2.09015,28.0121,0,0,0,0,0,0,0,-1,986,1618,2.09012,-28.0121
-231,-594,1.93774,9.35388,0,0,0,0,0,0,0,-1,993,1618,1.93776,-9.35393
-224,-594,1.81824,8.62744,0,0,0,0,0,0,0,-1,1000,1618,1.81822,-8.62745
-217,-594,-8.24066,12.0752,0,0,0,0,0,0,0,-1,1007,1618,-8.24068,-12.0751
-210,-594,-5.61438,14.2119,0,0,0,0,0,0,0,-1,1014,1618,-5.6144,-14.212
-203,-594,-3.94507,15.5768,0,0,0,0,0,0,0,-1,1021,1618,-3.94506,-15.5768
-196,-594,2.78613,10.5815,0,0,0,0,0,0,0,-1,1028,1618,2.78612,-10.5815
-189,-594,2.60913,9.48865,0,0,0,0,0,0,0,-1,1035,1618,2.6091,-9.48871
-182,-594,1.2395,9.38806,0,0,0,0,0,0,0,-1,1042,1618,1.23951,-9.38804
-175,-594,0.234863,8.73792,0,0,0,0,0,0,0,-1,1049,1618,0.234812,-8.73786
-168,-594,-0.495483,8.46289,0,0,0,0,0,0,0,-1,1056,1618,-0.495513,-8.46285
-161,-594,-1.39734,8.28699,0,0,0,0,0,0,0,-1,1063,1618,-1.39729,-8.28699
-154,-594,-0.000854492,7.68445,0,0,0,0,0,0,0,-1,1070,1618,-0.000805755,-7.6845
-147,-594,0.348267,9.3385,0,0,0,0,0,0,0,-1,1077,1618,0.348237,-9.33849
-140,-594,0.675171,11.5884,0,0,0,0,0,0,0,-1,1084,1618,0.675204,-11.5884
-133,-594,0,0,0,0,0,0,0,0,0,-1,1091,1618,0,0
-126,-594,0,0,0,0,0,0,0,0,0,-1,1098,1618,0,0
-119,-594,0,0,0,0,0,0,0,0,0,-1,1105,1618,0,0
-112,-594,0,0,0,0,0,0,0,0,0,-1,1112,1618,0,0
-105,-594,0,0,0,0,0,0,0,0,0,-1,1119,1618,0,0
-98,-594,0,0,0,0,0,0,0,0,0,-1,1126,1618,0,0
-91,-594,0,0,0,0,0,0,0,0,0,-1,1133,1618,0,0
-84,-594,0,0,0,0,0,0,0,0,0,-1,1140,1618,0,0
-77,-594,0,0,0,0,0,0,0,0,0,-1,1147,1618,0,0
-70,-594,0,0,0,0,0,0,0,0,0,-1,1154,1618,0,0
-63,-594,0,0,0,0,0,0,0,0,0,-1,1161,1618,0,0
-56,-594,0,0,0,0,0,0,0,0,0,-1,1168,1618,0,0
-49,-594,0,0,0,0,0,0,0,0,0,-1,1175,1618,0,0
-42,-594,0,0,0,0,0,0,0,0,0,-1,1182,1618,0,0
-35,-594,0,0,0,0,0,0,0,0,0,-1,1189,1618,0,0
-28,-594,0,0,0,0,0,0,0,0,0,-1,1196,1618,0,0
-21,-594,0,0,0,0,0,0,0,0,0,-1,1203,1618,0,0
-14,-594,0,0,0,0,0,0,0,0,0,-1,1210,1618,0,0
-7,-594,0,0,0,0,0,0,0,0,0,-1,1217,1618,0,0
0,-594,0,0,0,0,0,0,0,0,0,-1,1224,1618,0,0
7,-594,0,0,0,0,0,0,0,0,0,-1,1231,1618,0,0
14,-594,0,0,0,0,0,0,0,0,0,-1,1238,1618,0,0
21,-594,0,0,0,0,0,0,0,0,0,-1,1245,1618,0,0
28,-594,0,0,0,0,0,0,0,0,0,-1,1252,1618,0,0
35,-594,0,0,0,0,0,0,0,0,0,-1,1259,1618,0,0
42,-594,0,0,0,0,0,0,0,0,0,-1,1266,1618,0,0
49,-594,0,0,0,0,0,0,0,0,0,-1,1273,1618,0,0
56,-594,0,0,0,0,0,0,0,0,0,-1,1280,1618,0,0
63,-594,0,0,0,0,0,0,0,0,0,-1,1287,1618,0,0
70,-594,0,0,0,0,0,0,0,0,0,-1,1294,1618,0,0
77,-594,0,0,0,0,0,0,0,0,0,-1,1301,1618,0,0
84,-594,0,0,0,0,0,0,0,0,0,-1,1308,1618,0,0
91,-594,0,0,0,0,0,0,0,0,0,-1,1315,1618,0,0
98,-594,0,0,0,0,0,0,0,0,0,-1,1322,1618,0,0
105,-594,0,0,0,0,0,0,0,0,0,-1,1329,1618,0,0
112,-594,0,0,0,0,0,0,0,0,0,-1,1336,1618,0,0
119,-594,0,0,0,0,0,0,0,0,0,-1,1343,1618,0,0
126,-594,0,0,0,0,0,0,0,0,0,-1,1350,1618,0,0
133,-594,0,0,0,0,0,0,0,0,0,-1,1357,1618,0,0
140,-594,0,0,0,0,0,0,0,0,0,-1,1364,1618,0,0
147,-594,0,0,0,0,0,0,0,0,0,-1,1371,1618,0,0
154,-594,0,0,0,0,0,0,0,0,0,-1,1378,1618,0,0
161,-594,0,0,0,0,0,0,0,0,0,-1,1385,1618,0,0
168,-594,0,0,0,0,0,0,0,0,0,-1,1392,1618,0,0
175,-594,0,0,0,0,0,0,0,0,0,-1,1399,1618,0,0
182,-594,0,0,0,0,0,0,0,0,0,-1,1406,1618,0,0
189,-594,0,0,0,0,0,0,0,0,0,-1,1413,1618,0,0
196,-594,0,0,0,0,0,0,0,0,0,-1,1420,1618,0,0
203,-594,0,0,0,0,0,0,0,0,0,-1,1427,1618,0,0
210,-594,0,0,0,0,0,0,0,0,0,-1,1434,1618,0,0
217,-594,0,0,0,0,0,0,0,0,0,-1,1441,1618,0,0
224,-594,0,0,0,0,0,0,0,0,0,-1,1448,1618,0,0
231,-594,0,0,0,0,0,0,0,0,0,-1,1455,1618,0,0
238,-594,0,0,0,0,0,0,0,0,0,-1,1462,1618,0,0
245,-594,0,0,0,0,0,0,0,0,0,-1,1469,1618,0,0
252,-594,3.03674,1.20996,0,0,0,0,0,0,0,-1,1476,1618,3.0368,-1.20999
259,-594,4.79834,1.53113,0,0,0,0,0,0,0,-1,1483,1618,4.79837,-1.53118
266,-594,3.71606,2.68152,0,0,0,0,0,0,0,-1,1490,1618,3.71609,-2.68149
273,-594,9.7655,6.33557,0,0,0,0,0,0,0,-1,1497,1618,9.76555,-6.33554
280,-594,3.13281,0.911255,0,0,0,0,0,0,0,-1,1504,1618,3.13277,-0.911207
287,-594,4.42749,1.51563,0,0,0,0,0,0,0,-1,1511,1618,4.42747,-1.51564
294,-594,5.36475,3.34937,0,0,0,0,0,0,0,-1,1518,1618,5.36475,-3.3494
301,-594,7.97144,9.04333,0,0,0,0,0,0,0,-1,1525,1618,7.9714,-9.04328
308,-594,6.30347,10.4633,0,0,0,0,0,0,0,-1,1532,1618,6.30351,-10.4633
315,-594,4.62012,11.934,0,0,0,0,0,0,0,-1,1539,1618,4.62006,-11.934
322,-594,2.91528,13.3134,0,0,0,0,0,0,0,-1,1546,1618,2.91523,-13.3133
329,-594,4.19861,9.77258,0,0,0,0,0,0,0,-1,1553,1618,4.19865,-9.77264
336,-594,10.1353,4.66528,0,0,0,0,0,0,0,-1,1560,1618,10.1353,-4.66533
343,-594,10.5729,3.71228,0,0,0,0,0,0,0,-1,1567,1618,10.5729,-3.71232
350,-594,10.219,2.98792,0,0,0,0,0,0,0,-1,1574,1618,10.219,-2.98797
357,-594,9.83154,1.96326,0,0,0,0,0,0,0,-1,1581,1618,9.8315,-1.96321
364,-594,9.74939,0.700562,0,0,0,0,0,0,0,-1,1588,1618,9.74939,-0.700615
371,-594,8.54297,14.3988,0,0,0,0,0,0,0,-1,1595,1618,8.54296,-14.3989
378,-594,13.9241,32.0321,0,0,0,0,0,0,0,-1,1602,1618,13.924,-32.0321
385,-594,12.6144,30.1039,0,0,0,0,0,0,0,-1,1609,1618,12.6144,-30.1039
392,-594,13.5668,30.7684,0,0,0,0,0,0,0,-1,1616,1618,13.5668,-30.7684
399,-594,13.7906,30.2389,0.0100853,0.0208396,-0.00866202,0.0256578,0.00526717,-1.06318,0.0156478,0.0424302,1623,1618,13.7907,-30.2389
406,-594,13.8386,29.7816,0.00697508,0.0168503,-0.00625157,0.019879,0.00394637,-1.11965,0.0121527,0.0274486,1630,1618,13.8386,-29.7816
413,-594,13.818,29.3596,0.00487929,0.0141834,-0.00485242,0.0162535,0.00280918,-1.16756,0.0100313,0.0191859,1637,1618,13.8179,-29.3596
420,-594,13.8153,28.9323,0.00335039,0.0118015,-0.00369033,0.0131861,0.0019658,-1.21185,0.00821428,0.0157281,1644,1618,13.8154,-28.9323
427,-594,13.8359,28.4945,0.0022654,0.0100349,-0.00297662,0.0110442,0.00125612,-1.24389,0.00698185,0.0129641,1651,1618,13.8359,-28.4945
434,-594,13.8083,28.0657,0.00191716,0.00887749,-0.00282202,0.00987788,0.000916773,-1.23012,0.00630193,0.0176935,1658,1618,13.8084,-28.0657
441,-594,13.7727,27.6384,0.00192474,0.00788109,-0.00284462,0.00902134,0.000784498,-1.18956,0.00577053,0.016375,1665,1618,13.7727,-27.6385
448,-594,13.8038,27.2184,0.00183311,0.00683248,-0.0027109,0.00802027,0.000645327,-1.15784,0.00514524,0.0152271,1672,1618,13.8039,-27.2184
455,-594,13.7927,26.7822,0.00170179,0.00570897,-0.00255049,0.00694874,0.00046202,-1.11834,0.00448642,0.0120698,1679,1618,13.7928,-26.7822
462,-594,13.7803,26.3751,0.00150768,0.00468045,-0.0023073,0.00589411,0.000294021,-1.08656,0.00383516,0.0147072,1686,1618,13.7802,-26.3751
469,-594,13.7632,25.9701,0.00121454,0.00349555,-0.00191941,0.00458773,0.000122357,-1.05347,0.00301853,0.0130411,1693,1618,13.7631,-25.9701
476,-594,13.7524,25.5443,0.000728563,0.0022487,-0.00136302,0.00304924,-7.19829e-05,-1.03974,0.00205724,0.0129436,1700,1618,13.7525,-25.5443
483,-594,13.7559,25.0979,7.09906e-05,0.000962939,-0.000764683,0.0014022,-0.000368265,-1.04939,0.00107871,0.0157295,1707,1618,13.7559,-25.0979
490,-594,13.7363,24.642,-0.000749882,-0.000128839,-0.000120514,-0.000106273,-0.000772448,-1.38569,0.00048345,0.0140348,1714,1618,13.7364,-24.642
497,-594,13.7062,24.2109,-0.00186207,-0.00102499,0.000485537,-0.000802499,-0.00208457,1.14111,0.00121409,0.0103856,1721,1618,13.7062,-24.211
504,-594,13.6921,23.7888,-0.00358992,-0.00179212,0.00150475,-0.000938228,-0.00444382,1.05464,0.00270461,0.0100607,1728,1618,13.6922,-23.7889
511,-594,13.6857,23.3251,-0.0062203,-0.00227337,0.00350103,-0.00022791,-0.00826576,1.04204,0.00543613,0.0150316,1735,1618,13.6857,-23.3251
518,-594,13.627,22.8605,-0.00901331,-0.00259375,0.00538041,0.000461572,-0.0120686,1.05434,0.00820394,0.0209188,1742,1618,13.627,-22.8605
525,-594,13.5876,22.4467,-0.0127212,-0.00264516,0.00808174,0.00184028,-0.0172066,1.06412,0.0121311,0.0334354,1749,1618,13.5877,-22.4466
532,-594,13.5958,21.9779,0,0,0,0,0,0,0,-1,1756,1618,13.5959,-21.9779
539,-594,14.0901,21.1228,0,0,0,0,0,0,0,-1,1763,1618,14.0901,-21.1227
546,-594,7.48645,8.54785,0,0,0,0,0,0,0,-1,1770,1618,7.48639,-8.54789
553,-594,3.69714,5.68762,0,0,0,0,0,0,0,-1,1777,1618,3.69715,-5.68764
560,-594,6.06616,4.44482,0,0,0,0,0,0,0,-1,1784,1618,6.06621,-4.44477
567,-594,5.97266,4.73303,0,0,0,0,0,0,0,-1,1791,1618,5.97271,-4.73309
574,-594,5.9906,4.96326,0,0,0,0,0,0,0,-1,1798,1618,5.99065,-4.96326
581,-594,0,0,0,0,0,0,0,0,0,-1,1805,1618,0,0
588,-594,0,0,0,0,0,0,0,0,0,-1,1812,1618,0,0
595,-594,0,0,0,0,0,0,0,0,0,-1,1819,1618,0,0
602,-594,0,0,0,0,0,0,0,0,0,-1,1826,1618,0,0
609,-594,0,0,0,0,0,0,0,0,0,-1,1833,1618,0,0
616,-594,0,0,0,0,0,0,0,0,0,-1,1840,1618,0,0
623,-594,0,0,0,0,0,0,0,0,0,-1,1847,1618,0,0
630,-594,0,0,0,0,0,0,0,0,0,-1,1854,1618,0,0
637,-594,0,0,0,0,0,0,0,0,0,-1,1861,1618,0,0
644,-594,0,0,0,0,0,0,0,0,0,-1,1868,1618,0,0
651,-594,0,0,0,0,0,0,0,0,0,-1,1875,1618,0,0
658,-594,0,0,0,0,0,0,0,0,0,-1,1882,1618,0,0
665,-594,0,0,0,0,0,0,0,0,0,-1,1889,1618,0,0
672,-594,0,0,0,0,0,0,0,0,0,-1,1896,1618,0,0
679,-594,0,0,0,0,0,0,0,0,0,-1,1903,1618,0,0
686,-594,0,0,0,0,0,0,0,0,0,-1,1910,1618,0,0
693,-594,0,0,0,0,0,0,0,0,0,-1,1917,1618,0,0
700,-594,0,0,0,0,0,0,0,0,0,-1,1924,1618,0,0
707,-594,0,0,0,0,0,0,0,0,0,-1,1931,1618,0,0
714,-594,0,0,0,0,0,0,0,0,0,-1,1938,1618,0,0
721,-594,0,0,0,0,0,0,0,0,0,-1,1945,1618,0,0
728,-594,0,0,0,0,0,0,0,0,0,-1,1952,1618,0,0
735,-594,0,0,0,0,0,0,0,0,0,-1,1959,1618,0,0
742,-594,0,0,0,0,0,0,0,0,0,-1,1966,1618,0,0
749,-594,0,0,0,0,0,0,0,0,0,-1,1973,1618,0,0
756,-594,0,0,0,0,0,0,0,0,0,-1,1980,1618,0,0
763,-594,0,0,0,0,0,0,0,0,0,-1,1987,1618,0,0
770,-594,0,0,0,0,0,0,0,0,0,-1,1994,1618,0,0
777,-594,0,0,0,0,0,0,0,0,0,-1,2001,1618,0,0
784,-594,0,0,0,0,0,0,0,0,0,-1,2008,1618,0,0
791,-594,0,0,0,0,0,0,0,0,0,-1,2015,1618,0,0
798,-594,0,0,0,0,0,0,0,0,0,-1,2022,1618,0,0
805,-594,0,0,0,0,0,0,0,0,0,-1,2029,1618,0,0
812,-594,0,0,0,0,0,0,0,0,0,-1,2036,1618,0,0
-700,-601,0,0,0,0,0,0,0,0,0,-1,524,1625,0,0
-693,-601,0,0,0,0,0,0,0,0,0,-1,531,1625,0,0
-686,-601,0,0,0,0,0,0,0,0,0,-1,538,1625,0,0
-679,-601,0,0,0,0,0,0,0,0,0,-1,545,1625,0,0
-672,-601,0,0,0,0,0,0,0,0,0,-1,552,1625,0,0
-665,-601,0,0,0,0,0,0,0,0,0,-1,559,1625,0,0
-658,-601,0,0,0,0,0,0,0,0,0,-1,566,1625,0,0
-651,-601,0,0,0,0,0,0,0,0,0,-1,573,1625,0,0
-644,-601,0,0,0,0,0,0,0,0,0,-1,580,1625,0,0
-637,-601,0,0,0,0,0,0,0,0,0,-1,587,1625,0,0
-630,-601,0,0,0,0,0,0,0,0,0,-1,594,1625,0,0
-623,-601,0,0,0,0,0,0,0,0,0,-1,601,1625,0,0
-616,-601,0,0,0,0,0,0,0,0,0,-1,608,1625,0,0
-609,-601,0,0,0,0,0,0,0,0,0,-1,615,1625,0,0
-602,-601,0,0,0,0,0,0,0,0,0,-1,622,1625,0,0
-595,-601,0,0,0,0,0,0,0,0,0,-1,629,1625,0,0
-588,-601,0,0,0,0,0,0,0,0,0,-1,636,1625,0,0
-581,-601,0,0,0,0,0,0,0,0,0,-1,643,1625,0,0
-574,-601,0,0,0,0,0,0,0,0,0,-1,650,1625,0,0
-567,-601,0,0,0,0,0,0,0,0,0,-1,657,1625,0,0
-560,-601,0,0,0,0,0,0,0,0,0,-1,664,1625,0,0
-553,-601,0,0,0,0,0,0,0,0,0,-1,671,1625,0,0
-546,-601,0,0,0,0,0,0,0,0,0,-1,678,1625,0,0
-539,-601,0,0,0,0,0,0,0,0,0,-1,685,1625,0,0
-532,-601,0,0,0,0,0,0,0,0,0,-1,692,1625,0,0
-525,-601,0,0,0,0,0,0,0,0,0,-1,699,1625,0,0
-518,-601,0,0,0,0,0,0,0,0,0,-1,706,1625,0,0
-511,-601,0,0,0,0,0,0,0,0,0,-1,713,1625,0,0
-504,-601,0,0,0,0,0,0,0,0,0,-1,720,1625,0,0
-497,-601,0,0,0,0,0,0,0,0,0,-1,727,1625,0,0
-490,-601,0,0,0,0,0,0,0,0,0,-1,734,1625,0,0
-483,-601,0,0,0,0,0,0,0,0,0,-1,741,1625,0,0
-476,-601,0,0,0,0,0,0,0,0,0,-1,748,1625,0,0
-469,-601,0,0,0,0,0,0,0,0,0,-1,755,1625,0,0
-462,-601,0,0,0,0,0,0,0,0,0,-1,762,1625,0,0
-455,-601,0,0,0,0,0,0,0,0,0,-1,769,1625,0,0
-448,-601,-7.07623,2.7616,0,0,0,0,0,0,0,-1,776,1625,-7.07626,-2.76161
-441,-601,-6.06689,3.33447,0,0,0,0,0,0,0,-1,783,1625,-6.06691,-3.33448
-434,-601,-5.02655,3.8468,0,0,0,0,0,0,0,-1,790,1625,-5.02657,-3.84674
-427,-601,-5.78601,4.2406,0,0,0,0,0,0,0,-1,797,1625,-5.786,-4.24058
-420,-601,-5.5191,5.60364,0,0,0,0,0,0,0,-1,804,1625,-5.51907,-5.60368
-413,-601,-4.30756,5.86047,0,0,0,0,0,0,0,-1,811,1625,-4.30757,-5.86046
-406,-601,-1.67493,7.20422,0,0,0,0,0,0,0,-1,818,1625,-1.67493,-7.20428
-399,-601,1.40094,15.3108,0,0,0,0,0,0,0,-1,825,1625,1.40096,-15.3107
-392,-601,2.4613,21.1294,0,0,0,0,0,0,0,-1,832,1625,2.4613,-21.1294
-385,-601,2.77808,21.9556,0,0,0,0,0,0,0,-1,839,1625,2.77807,-21.9556
-378,-601,2.39655,22.4993,-0.00392298,-0.00324029,-0.000359664,-0.00308577,-0.00407749,-1.16503,0.00245544,0.0434352,846,1625,2.39656,-22.4993
-371,-601,2.30664,22.8401,-0.00279428,-0.00268822,-5.43212e-05,-0.00266534,-0.00281717,-1.17208,0.0018296,0.024195,853,1625,2.30663,-22.8401
-364,-601,2.30316,23.3278,-0.0018441,-0.00212605,0.000148285,-0.00178048,-0.00218968,0.405332,0.00134431,0.0128434,860,1625,2.30315,-23.3278
-357,-601,2.27386,23.8108,-0.000926263,-0.00154249,0.000388616,-0.000738436,-0.00173031,0.450217,0.00100256,0.00969904,867,1625,2.27388,-23.8108
-350,-601,2.29205,24.3391,-0.000104541,-0.000962469,0.000585877,0.000192623,-0.00125963,0.469401,0.000910778,0.019922,874,1625,2.29206,-24.3391
-343,-601,2.2406,24.824,0.000609357,-0.000284429,0.000780267,0.00106165,-0.000736719,0.52533,0.00104392,0.022985,881,1625,2.24059,-24.824
-336,-601,2.19177,25.2289,0.00128805,0.000334263,0.000996253,0.00191567,-0.000293356,0.562172,0.00138529,0.018869,888,1625,2.19177,-25.2289
-329,-601,2.21716,25.6664,0.00181734,0.00115703,0.00116965,0.00270254,0.000271836,0.647841,0.00171826,0.015346,895,1625,2.21716,-25.6664
-322,-601,2.23059,26.0956,0.0022044,0.0018873,0.00132686,0.00338215,0.000709545,0.725934,0.0020594,0.0124283,902,1625,2.23059,-26.0956
-315,-601,2.22095,26.5288,0.00253309,0.00254362,0.00141249,0.00395086,0.00112586,0.787263,0.00235029,0.0122697,909,1625,2.22097,-26.5288
-308,-601,2.18988,26.973,0.002977,0.00304882,0.00150194,0.00451528,0.00151054,0.797351,0.00265405,0.0114387,916,1625,2.18987,-26.9731
-301,-601,2.19794,27.3999,0.00358792,0.00353148,0.00185826,0.00541818,0.00170122,0.777806,0.00319953,0.00962882,923,1625,2.19791,-27.4
-294,-601,2.19373,27.8145,0.00427839,0.00416769,0.00256128,0.00678492,0.00166116,0.774595,0.00408378,0.00950862,930,1625,2.19371,-27.8144
-287,-601,2.1488,28.2628,0.0050893,0.00490883,0.00322262,0.00822295,0.00177518,0.771401,0.00499648,0.0103841,937,1625,2.14877,-28.2628
-280,-601,2.17249,28.7209,0.00607911,0.00571444,0.0040638,0.00996467,0.00182889,0.762979,0.00612518,0.0159099,944,1625,2.17249,-28.721
-273,-601,2.18774,29.1644,0.00712996,0.00612044,0.00504009,0.0116905,0.0015599,0.73549,0.00732924,0.0179532,951,1625,2.18777,-29.1644
-266,-601,2.23206,29.6063,0.00826239,0.00690396,0.00626622,0.0138861,0.00128025,0.731412,0.00886153,0.0208386,958,1625,2.23205,-29.6063
-259,-601,2.31738,29.8921,0.00948277,0.00770715,0.00766048,0.0163067,0.000883205,0.727708,0.010589,0.0287892,965,1625,2.31741,-29.8921
-252,-601,2.55066,30.3837,0.0109053,0.00855855,0.00943322,0.0192378,0.000226018,0.723522,0.0127506,0.039589,972,1625,2.55064,-30.3836
-245,-601,2.61652,31.0233,0.0119878,0.00946257,0.0113157,0.0221111,-0.000660687,0.729837,0.0149658,0.0442434,979,1625,2.61654,-31.0233
-238,-601,2.75641,31.6884,0,0,0,0,0,0,0,-1,986,1625,2.75639,-31.6883
-231,-601,2.66772,13.7051,0,0,0,0,0,0,0,-1,993,1625,2.6677,-13.7051
-224,-601,-0.0305176,9.13684,0,0,0,0,0,0,0,-1,1000,1625,-0.030498,-9.13681
-217,-601,3.39429,10.3898,0,0,0,0,0,0,0,-1,1007,1625,3.39431,-10.3898
-210,-601,-6.53699,15.7931,0,0,0,0,0,0,0,-1,1014,1625,-6.53697,-15.7931
-203,-601,2.69348,15.9099,0,0,0,0,0,0,0,-1,1021,1625,2.69351,-15.91
-196,-601,2.66992,16.1815,0,0,0,0,0,0,0,-1,1028,1625,2.66995,-16.1815
-189,-601,2.849,16.6105,0,0,0,0,0,0,0,-1,1035,1625,2.84902,-16.6104
-182,-601,1.82153,13.9752,0,0,0,0,0,0,0,-1,1042,1625,1.82155,-13.9752
-175,-601,0.544922,9.28687,0,0,0,0,0,0,0,-1,1049,1625,0.544879,-9.28685
-168,-601,-0.247559,8.97461,0,0,0,0,0,0,0,-1,1056,1625,-0.247598,-8.97466
-161,-601,-1.16833,8.80078,0,0,0,0,0,0,0,-1,1063,1625,-1.16837,-8.80081
-154,-601,1.12756,7.94861,0,0,0,0,0,0,0,-1,1070,1625,1.12762,-7.94855
-147,-601,1.35352,9.55432,0,0,0,0,0,0,0,-1,1077,1625,1.35351,-9.55429
-140,-601,1.72437,11.1498,0,0,0,0,0,0,0,-1,1084,1625,1.72432,-11.1498
-133,-601,2.13281,12.8347,0,0,0,0,0,0,0,-1,1091,1625,2.13287,-12.8348
-126,-601,3.09534,15.427,0,0,0,0,0,0,0,-1,1098,1625,3.0953,-15.4271
-119,-601,1.22485,9.43457,0,0,0,0,0,0,0,-1,1105,1625,1.22489,-9.43456
-112,-601,0,0,0,0,0,0,0,0,0,-1,1112,1625,0,0
-105,-601,0,0,0,0,0,0,0,0,0,-1,1119,1625,0,0
-98,-601,0,0,0,0,0,0,0,0,0,-1,1126,1625,0,0
-91,-601,0,0,0,0,0,0,0,0,0,-1,1133,1625,0,0
-84,-601,0,0,0,0,0,0,0,0,0,-1,1140,1625,0,0
-77,-601,0,0,0,0,0,0,0,0,0,-1,1147,1625,0,0
-70,-601,0,0,0,0,0,0,0,0,0,-1,1154,1625,0,0
-63,-601,0,0,0,0,0,0,0,0,0,-1,1161,1625,0,0
-56,-601,0,0,0,0,0,0,0,0,0,-1,1168,1625,0,0
-49,-601,0,0,0,0,0,0,0,0,0,-1,1175,1625,0,0
-42,-601,0,0,0,0,0,0,0,0,0,-1,1182,1625,0,0
-35,-601,0,0,0,0,0,0,0,0,0,-1,1189,1625,0,0
-28,-601,0,0,0,0,0,0,0,0,0,-1,1196,1625,0,0
-21,-601,0,0,0,0,0,0,0,0,0,-1,1203,1625,0,0
-14,-601,0,0,0,0,0,0,0,0,0,-1,1210,1625,0,0
-7,-601,0,0,0,0,0,0,0,0,0,-1,1217,1625,0,0
0,-601,0,0,0,0,0,0,0,0,0,-1,1224,1625,0,0
7,-601,0,0,0,0,0,0,0,0,0,-1,1231,1625,0,0
14,-601,0,0,0,0,0,0,0,0,0,-1,1238,1625,0,0
21,-601,0,0,0,0,0,0,0,0,0,-1,1245,1625,0,0
28,-601,0,0,0,0,0,0,0,0,0,-1,1252,1625,0,0
35,-601,0,0,0,0,0,0,0,0,0,-1,1259,1625,0,0
42,-601,0,0,0,0,0,0,0,0,0,-1,1266,1625,0,0
49,-601,0,0,0,0,0,0,0,0,0,-1,1273,1625,0,0
56,-601,0,0,0,0,0,0,0,0,0,-1,1280,1625,0,0
63,-601,0,0,0,0,0,0,0,0,0,-1,1287,1625,0,0
70,-601,0,0,0,0,0,0,0,0,0,-1,1294,1625,0,0
77,-601,0,0,0,0,0,0,0,0,0,-1,1301,1625,0,0
84,-601,0,0,0,0,0,0,0,0,0,-1,1308,1625,0,0
91,-601,0,0,0,0,0,0,0,0,0,-1,1315,1625,0,0
98,-601,0,0,0,0,0,0,0,0,0,-1,1322,1625,0,0
105,-601,0,0,0,0,0,0,0,0,0,-1,1329,1625,0,0
112,-601,0,0,0,0,0,0,0,0,0,-1,1336,1625,0,0
119,-601,0,0,0,0,0,0,0,0,0,-1,1343,1625,0,0
126,-601,0,0,0,0,0,0,0,0,0,-1,1350,1625,0,0
133,-601,0,0,0,0,0,0,0,0,0,-1,1357,1625,0,0
140,-601,0,0,0,0,0,0,0,0,0,-1,1364,1625,0,0
147,-601,0,0,0,0,0,0,0,0,0,-1,1371,1625,0,0
154,-601,0,0,0,0,0,0,0,0,0,-1,1378,1625,0,0
161,-601,0,0,0,0,0,0,0,0,0,-1,1385,1625,0,0
168,-601,0,0,0,0,0,0,0,0,0,-1,1392,1625,0,0
175,-601,0,0,0,0,0,0,0,0,0,-1,1399,1625,0,0
182,-601,0,0,0,0,0,0,0,0,0,-1,1406,1625,0,0
189,-601,0,0,0,0,0,0,0,0,0,-1,1413,1625,0,0
196,-601,0,0,0,0,0,0,0,0,0,-1,1420,1625,0,0
203,-601,0,0,0,0,0,0,0,0,0,-1,1427,1625,0,0
210,-601,0,0,0,0,0,0,0,0,0,-1,1434,1625,0,0
217,-601,0,0,0,0,0,0,0,0,0,-1,1441,1625,0,0
224,-601,0,0,0,0,0,0,0,0,0,-1,1448,1625,0,0
231,-601,-0.0371094,0.525879,0,0,0,0,0,0,0,-1,1455,1625,-0.0371518,-0.525824
238,-601,2.03369,-1.32861,0,0,0,0,0,0,0,-1,1462,1625,2.03364,1.32858
245,-601,2.71375,2.44983,0,0,0,0,0,0,0,-1,1469,1625,2.71371,-2.44979
252,-601,4.66943,2.28381,0,0,0,0,0,0,0,-1,1476,1625,4.66947,-2.28376
259,-601,6.42712,2.61987,0,0,0,0,0,0,0,-1,1483,1625,6.42711,-2.61985
266,-601,6.75317,1.68701,0,0,0,0,0,0,0,-1,1490,1625,6.75323,-1.687
273,-601,5.4314,2.92053,0,0,0,0,0,0,0,-1,1497,1625,5.43144,-2.92051
280,-601,4.64722,1.17786,0,0,0,0,0,0,0,-1,1504,1625,4.64722,-1.1779
287,-601,5.32532,2.6217,0,0,0,0,0,0,0,-1,1511,1625,5.32535,-2.62171
294,-601,5.97693,4.22693,0,0,0,0,0,0,0,-1,1518,1625,5.97697,-4.22694
301,-601,7.28162,9.50024,0,0,0,0,0,0,0,-1,1525,1625,7.28162,-9.50025
308,-601,6.53528,10.3927,0,0,0,0,0,0,0,-1,1532,1625,6.53529,-10.3927
315,-601,4.88013,11.7184,0,0,0,0,0,0,0,-1,1539,1625,4.88015,-11.7184
322,-601,3.38098,12.7864,0,0,0,0,0,0,0,-1,1546,1625,3.38104,-12.7864
329,-601,1.8772,13.8768,0,0,0,0,0,0,0,-1,1553,1625,1.87716,-13.8768
336,-601,4.67847,9.53308,0,0,0,0,0,0,0,-1,1560,1625,4.67848,-9.53309
343,-601,11.1404,3.14575,0,0,0,0,0,0,0,-1,1567,1625,11.1404,-3.1458
350,-601,10.9462,2.37769,0,0,0,0,0,0,0,-1,1574,1625,10.9461,-2.37764
357,-601,10.7518,1.6095,0,0,0,0,0,0,0,-1,1581,1625,10.7518,-1.60948
364,-601,5.33643,9.74426,0,0,0,0,0,0,0,-1,1588,1625,5.33637,-9.74429
371,-601,13.7252,32.3131,0,0,0,0,0,0,0,-1,1595,1625,13.7253,-32.3131
378,-601,13.4897,31.7546,0,0,0,0,0,0,0,-1,1602,1625,13.4897,-31.7546
385,-601,13.0887,30.9613,0,0,0,0,0,0,0,-1,1609,1625,13.0887,-30.9614
392,-601,13.196,30.5967,0.0123176,0.0216923,-0.0103243,0.0283435,0.00566647,-0.998493,0.0173186,0.0404831,1616,1625,13.196,-30.5967
399,-601,13.3879,30.1189,0.00906714,0.017266,-0.00735196,0.0215842,0.00474894,-1.03973,0.0130967,0.0204174,1623,1625,13.3879,-30.1189
406,-601,13.4246,29.6705,0.00646651,0.0136887,-0.00525318,0.0164522,0.00370298,-1.08651,0.00996585,0.0133105,1630,1625,13.4245,-29.6706
413,-601,13.3887,29.2511,0.00458382,0.0112387,-0.00394464,0.0130718,0.00275063,-1.13576,0.00795776,0.0118782,1637,1625,13.3886,-29.2511
420,-601,13.3975,28.8376,0.00307382,0.0089502,-0.00276146,0.0100442,0.00197982,-1.1936,0.00614347,0.0106925,1644,1625,13.3975,-28.8377
427,-601,13.3972,28.4612,0.0019677,0.00730557,-0.0020684,0.00801324,0.00126002,-1.24114,0.00497562,0.0150051,1651,1625,13.3972,-28.4611
434,-601,13.3849,28.0215,0.00152961,0.00633232,-0.00191777,0.00700413,0.000857799,-1.23385,0.00441138,0.0159615,1658,1625,13.3849,-28.0215
441,-601,13.384,27.6101,0.0014273,0.00556464,-0.00195091,0.00633946,0.000652484,-1.19274,0.00402647,0.0166632,1665,1625,13.3841,-27.6102
448,-601,13.3956,27.2264,0.00123946,0.00471517,-0.00184287,0.00551036,0.000444275,-1.16344,0.0035348,0.0139745,1672,1625,13.3956,-27.2264
455,-601,13.3949,26.7878,0.00102938,0.00382213,-0.00172267,0.00464329,0.000208222,-1.12598,0.00302851,0.012538,1679,1625,13.3949,-26.7879
462,-601,13.3695,26.3796,0.000742349,0.00294486,-0.00149974,0.00370424,-1.70361e-05,-1.10209,0.00247519,0.0116073,1686,1625,13.3695,-26.3797
469,-601,13.349,25.9901,0.000387056,0.00196659,-0.0011529,0.00257429,-0.000220647,-1.0857,0.00179427,0.0118157,1693,1625,13.349,-25.9901
476,-601,13.3285,25.5663,-0.000123671,0.000914113,-0.00065591,0.00123156,-0.00044112,-1.12004,0.00100102,0.0136561,1700,1625,13.3285,-25.5663
483,-601,13.3158,25.1241,-0.000831409,-0.000147954,-0.000106056,-0.000131875,-0.000847488,-1.42033,0.000526568,0.0164706,1707,1625,13.3158,-25.1242
490,-601,13.3008,24.6776,-0.00169377,-0.00106807,0.000459935,-0.000824666,-0.00193717,1.08406,0.00112253,0.0129227,1714,1625,13.3008,-24.6776
497,-601,13.2931,24.2402,-0.00282732,-0.00186953,0.00103048,-0.0012121,-0.00348475,1.00292,0.00204274,0.0106086,1721,1625,13.2931,-24.2402
504,-601,13.3204,23.7867,-0.00461308,-0.00248297,0.00199851,-0.00128344,-0.00581262,1.03022,0.003526,0.0200271,1728,1625,13.3204,-23.7867
511,-601,13.1931,23.4049,-0.0074683,-0.00291352,0.0039797,-0.000605654,-0.00977616,1.04528,0.00632523,0.0341633,1735,1625,13.1932,-23.4049
518,-601,13.0283,22.8237,-0.0106543,-0.00305638,0.00588955,0.000153135,-0.0138639,1.07184,0.00929404,0.0442891,1742,1625,13.0283,-22.8238
525,-601,13.0205,22.3141,0,0,0,0,0,0,0,-1,1749,1625,13.0205,-22.3141
532,-601,14.9351,19.4679,0,0,0,0,0,0,0,-1,1756,1625,14.9351,-19.4679
539,-601,7.77112,11.4299,0,0,0,0,0,0,0,-1,1763,1625,7.77116,-11.4299
546,-601,6.56873,3.62354,0,0,0,0,0,0,0,-1,1770,1625,6.56867,-3.62352
553,-601,7.03015,4.25049,0,0,0,0,0,0,0,-1,1777,1625,7.03011,-4.25048
560,-601,7.50745,4.83374,0,0,0,0,0,0,0,-1,1784,1625,7.50744,-4.83376
567,-601,7.82043,3.83301,0,0,0,0,0,0,0,-1,1791,1625,7.82041,-3.83303
574,-601,0,0,0,0,0,0,0,0,0,-1,1798,1625,0,0
581,-601,0,0,0,0,0,0,0,0,0,-1,1805,1625,0,0
588,-601,0,0,0,0,0,0,0,0,0,-1,1812,1625,0,0
595,-601,0,0,0,0,0,0,0,0,0,-1,1819,1625,0,0
602,-601,0,0,0,0,0,0,0,0,0,-1,1826,1625,0,0
609,-601,0,0,0,0,0,0,0,0,0,-1,1833,1625,0,0
616,-601,0,0,0,0,0,0,0,0,0,-1,1840,1625,0,0
623,-601,0,0,0,0,0,0,0,0,0,-1,1847,1625,0,0
630,-601,0,0,0,0,0,0,0,0,0,-1,1854,1625,0,0
637,-601,0,0,0,0,0,0,0,0,0,-1,1861,1625,0,0
644,-601,0,0,0,0,0,0,0,0,0,-1,1868,1625,0,0
651,-601,0,0,0,0,0,0,0,0,0,-1,1875,1625,0,0
658,-601,0,0,0,0,0,0,0,0,0,-1,1882,1625,0,0
665,-601,0,0,0,0,0,0,0,0,0,-1,1889,1625,0,0
672,-601,0,0,0,0,0,0,0,0,0,-1,1896,1625,0,0
679,-601,0,0,0,0,0,0,0,0,0,-1,1903,1625,0,0
686,-601,0,0,0,0,0,0,0,0,0,-1,1910,1625,0,0
693,-601,0,0,0,0,0,0,0,0,0,-1,1917,1625,0,0
700,-601,0,0,0,0,0,0,0,0,0,-1,1924,1625,0,0
707,-601,0,0,0,0,0,0,0,0,0,-1,1931,1625,0,0
714,-601,0,0,0,0,0,0,0,0,0,-1,1938,1625,0,0
721,-601,0,0,0,0,0,0,0,0,0,-1,1945,1625,0,0
728,-601,0,0,0,0,0,0,0,0,0,-1,1952,1625,0,0
735,-601,0,0,0,0,0,0,0,0,0,-1,1959,1625,0,0
742,-601,0,0,0,0,0,0,0,0,0,-1,1966,1625,0,0
749,-601,0,0,0,0,0,0,0,0,0,-1,1973,1625,0,0
756,-601,0,0,0,0,0,0,0,0,0,-1,1980,1625,0,0
763,-601,0,0,0,0,0,0,0,0,0,-1,1987,1625,0,0
770,-601,0,0,0,0,0,0,0,0,0,-1,1994,1625,0,0
777,-601,0,0,0,0,0,0,0,0,0,-1,2001,1625,0,0
784,-601,0,0,0,0,0,0,0,0,0,-1,2008,1625,0,0
791,-601,0,0,0,0,0,0,0,0,0,-1,2015,1625,0,0
798,-601,0,0,0,0,0,0,0,0,0,-1,2022,1625,0,0
805,-601,0,0,0,0,0,0,0,0,0,-1,2029,1625,0,0
812,-601,0,0,0,0,0,0,0,0,0,-1,2036,1625,0,0
-700,-608,0,0,0,0,0,0,0,0,0,-1,524,1632,0,0
-693,-608,0,0,0,0,0,0,0,0,0,-1,531,1632,0,0
-686,-608,0,0,0,0,0,0,0,0,0,-1,538,1632,0,0
-679,-608,0,0,0,0,0,0,0,0,0,-1,545,1632,0,0
-672,-608,0,0,0,0,0,0,0,0,0,-1,552,1632,0,0
-665,-608,0,0,0,0,0,0,0,0,0,-1,559,1632,0,0
-658,-608,0,0,0,0,0,0,0,0,0,-1,566,1632,0,0
-651,-608,0,0,0,0,0,0,0,0,0,-1,573,1632,0,0
-644,-608,0,0,0,0,0,0,0,0,0,-1,580,1632,0,0
-637,-608,0,0,0,0,0,0,0,0,0,-1,587,1632,0,0
-630,-608,0,0,0,0,0,0,0,0,0,-1,594,1632,0,0
-623,-608,0,0,0,0,0,0,0,0,0,-1,601,1632,0,0
-616,-608,0,0,0,0,0,0,0,0,0,-1,608,1632,0,0
-609,-608,0,0,0,0,0,0,0,0,0,-1,615,1632,0,0
-602,-608,0,0,0,0,0,0,0,0,0,-1,622,1632,0,0
-595,-608,0,0,0,0,0,0,0,0,0,-1,629,1632,0,0
-588,-608,0,0,0,0,0,0,0,0,0,-1,636,1632,0,0
-581,-608,0,0,0,0,0,0,0,0,0,-1,643,1632,0,0
-574,-608,0,0,0,0,0,0,0,0,0,-1,650,1632,0,0
-567,-608,0,0,0,0,0,0,0,0,0,-1,657,1632,0,0
-560,-608,0,0,0,0,0,0,0,0,0,-1,664,1632,0,0
-553,-608,0,0,0,0,0,0,0,0,0,-1,671,1632,0,0
-546,-608,0,0,0,0,0,0,0,0,0,-1,678,1632,0,0
-539,-608,0,0,0,0,0,0,0,0,0,-1,685,1632,0,0
-532,-608,0,0,0,0,0,0,0,0,0,-1,692,1632,0,0
-525,-608,0,0,0,0,0,0,0,0,0,-1,699,1632,0,0
-518,-608,0,0,0,0,0,0,0,0,0,-1,706,1632,0,0
-511,-608,0,0,0,0,0,0,0,0,0,-1,713,1632,0,0
-504,-608,0,0,0,0,0,0,0,0,0,-1,720,1632,0,0
-497,-608,0,0,0,0,0,0,0,0,0,-1,727,1632,0,0
-490,-608,0,0,0,0,0,0,0,0,0,-1,734,1632,0,0
-483,-608,0,0,0,0,0,0,0,0,0,-1,741,1632,0,0
-476,-608,0,0,0,0,0,0,0,0,0,-1,748,1632,0,0
-469,-608,0,0,0,0,0,0,0,0,0,-1,755,1632,0,0
-462,-608,0,0,0,0,0,0,0,0,0,-1,762,1632,0,0
-455,-608,0,0,0,0,0,0,0,0,0,-1,769,1632,0,0
-448,-608,0,0,0,0,0,0,0,0,0,-1,776,1632,0,0
-441,-608,-7.34601,2.78052,0,0,0,0,0,0,0,-1,783,1632,-7.346,-2.78056
-434,-608,-6.34558,3.27405,0,0,0,0,0,0,0,-1,790,1632,-6.34555,-3.27406
-427,-608,-7.74335,4.17688,0,0,0,0,0,0,0,-1,797,1632,-7.74334,-4.17693
-420,-608,-6.82794,4.34839,0,0,0,0,0,0,0,-1,804,1632,-6.82794,-4.34838
-413,-608,-5.41919,5.66138,0,0,0,0,0,0,0,-1,811,1632,-5.41917,-5.66133
-406,-608,-4.79681,4.98999,0,0,0,0,0,0,0,-1,818,1632,-4.79684,-4.98997
-399,-608,-2.60645,6.34167,0,0,0,0,0,0,0,-1,825,1632,-2.60643,-6.34169
-392,-608,2.08356,15.437,0,0,0,0,0,0,0,-1,832,1632,2.08354,-15.437
-385,-608,3.13501,21.6218,0,0,0,0,0,0,0,-1,839,1632,3.13502,-21.6219
-378,-608,3.04053,22.5548,0,0,0,0,0,0,0,-1,846,1632,3.04051,-22.5547
-371,-608,2.90839,22.7194,0,0,0,0,0,0,0,-1,853,1632,2.90836,-22.7194
-364,-608,2.80499,23.2333,-0.0018349,-0.00246534,0.000292395,-0.00172017,-0.00258007,0.373928,0.00151695,0.0305593,860,1632,2.80501,-23.2333
-357,-608,2.70258,23.7687,-0.000801929,-0.00179543,0.000624329,-0.00050084,-0.00209652,0.449355,0.00126425,0.0200112,867,1632,2.70259,-23.7687
-350,-608,2.72955,24.3158,-1.60237e-05,-0.00118581,0.000862002,0.000440787,-0.00164262,0.487313,0.00126782,0.0186835,874,1632,2.72952,-24.3158
-343,-608,2.70081,24.7809,0.000639526,-0.000575293,0.00103393,0.00123127,-0.00116703,0.519818,0.00138482,0.0248463,881,1632,2.70082,-24.7809
-336,-608,2.68115,25.2532,0.00125743,1.35784e-05,0.00120752,0.00199377,-0.000722767,0.547594,0.00162461,0.0169805,888,1632,2.68118,-25.2531
-329,-608,2.66016,25.7133,0.00167551,0.000776191,0.00132259,0.00262279,-0.000171093,0.621537,0.00180826,0.0149916,895,1632,2.66017,-25.7132
-322,-608,2.64667,26.1222,0.00192505,0.00140487,0.00140098,0.00308988,0.000240043,0.693619,0.00198475,0.0144014,902,1632,2.64665,-26.1222
-315,-608,2.66589,26.5359,0.00208413,0.00191094,0.00137784,0.00337809,0.000616981,0.754014,0.00207717,0.012783,909,1632,2.66589,-26.5359
-308,-608,2.63489,26.9825,0.0023385,0.00230432,0.00133643,0.00365795,0.000984875,0.779005,0.0021856,0.0136537,916,1632,2.6349,-26.9825
-301,-608,2.62506,27.4086,0.00273483,0.00266978,0.00150011,0.00420276,0.00120185,0.774558,0.00249947,0.0110877,923,1632,2.62506,-27.4086
-294,-608,2.62708,27.8168,0.00322998,0.00320089,0.00196253,0.00517802,0.00125285,0.781694,0.00311942,0.0105603,930,1632,2.62706,-27.8168
-287,-608,2.59283,28.2552,0.00380892,0.00384495,0.00238425,0.00621125,0.00144262,0.789177,0.00375354,0.00987349,937,1632,2.59284,-28.2553
-280,-608,2.59949,28.6594,0.00455293,0.00448673,0.00296054,0.00748055,0.0015591,0.779808,0.00455712,0.00844142,944,1632,2.59951,-28.6594
-273,-608,2.58942,29.0815,0.00537201,0.00489814,0.00363836,0.00878114,0.00148901,0.752883,0.00542629,0.0102606,951,1632,2.5894,-29.0816
-266,-608,2.62744,29.533,0.0062466,0.00557691,0.00449385,0.0104181,0.00140545,0.748211,0.00652752,0.010892,958,1632,2.62745,-29.5329
-259,-608,2.68665,29.9517,0.00729003,0.00640418,0.00553684,0.0124016,0.00129258,0.745485,0.00787235,0.0137048,965,1632,2.68662,-29.9516
-252,-608,2.80206,30.3485,0.00842213,0.00727308,0.00680624,0.014678,0.00101716,0.743292,0.00946455,0.0251403,972,1632,2.80208,-30.3485
-245,-608,2.81268,30.9877,0.00921386,0.00810048,0.00809753,0.0167738,0.000540532,0.751078,0.0110068,0.0378765,979,1632,2.81268,-30.9877
-238,-608,2.82416,31.6338,0,0,0,0,0,0,0,-1,986,1632,2.82416,-31.6337
-231,-608,3.26025,27.5262,0,0,0,0,0,0,0,-1,993,1632,3.26023,-27.5263
-224,-608,2.51642,15.3452,0,0,0,0,0,0,0,-1,1000,1632,2.5164,-15.3452
-217,-608,1.04419,12.8451,0,0,0,0,0,0,0,-1,1007,1632,1.04418,-12.8451
-210,-608,2.75903,15.9414,0,0,0,0,0,0,0,-1,1014,1632,2.75903,-15.9414
-203,-608,2.76776,16.217,0,0,0,0,0,0,0,-1,1021,1632,2.76773,-16.217
-196,-608,1.53955,18.6058,0,0,0,0,0,0,0,-1,1028,1632,1.53959,-18.6058
-189,-608,1.37634,19.119,0,0,0,0,0,0,0,-1,1035,1632,1.37634,-19.1191
-182,-608,2.89221,16.7092,0,0,0,0,0,0,0,-1,1042,1632,2.89224,-16.7093
-175,-608,0.219116,15.1643,0,0,0,0,0,0,0,-1,1049,1632,0.219173,-15.1644
-168,-608,0.000366211,9.48645,0,0,0,0,0,0,0,-1,1056,1632,0.000317105,-9.48648
-161,-608,2.27832,15.4423,0,0,0,0,0,0,0,-1,1063,1632,2.27826,-15.4423
-154,-608,1.3999,16.4037,0,0,0,0,0,0,0,-1,1070,1632,1.39987,-16.4037
-147,-608,2.4386,9.50317,0,0,0,0,0,0,0,-1,1077,1632,2.43858,-9.50313
-140,-608,2.60132,10.8401,0,0,0,0,0,0,0,-1,1084,1632,2.60134,-10.8401
-133,-608,3.2312,12.4738,0,0,0,0,0,0,0,-1,1091,1632,3.23116,-12.4738
-126,-608,3.76465,13.9644,0,0,0,0,0,0,0,-1,1098,1632,3.76466,-13.9644
-119,-608,4.28906,15.4196,0,0,0,0,0,0,0,-1,1105,1632,4.28911,-15.4195
-112,-608,0.745117,10.5587,0,0,0,0,0,0,0,-1,1112,1632,0.745145,-10.5587
-105,-608,-0.252319,1.42419,0,0,0,0,0,0,0,-1,1119,1632,-0.252331,-1.42418
-98,-608,-2.8595,3.0863,0,0,0,0,0,0,0,-1,1126,1632,-2.85948,-3.08625
-91,-608,-3.71948,1.73608,0,0,0,0,0,0,0,-1,1133,1632,-3.7195,-1.73607
-84,-608,0,0,0,0,0,0,0,0,0,-1,1140,1632,0,0
-77,-608,0,0,0,0,0,0,0,0,0,-1,1147,1632,0,0
-70,-608,0,0,0,0,0,0,0,0,0,-1,1154,1632,0,0
-63,-608,0,0,0,0,0,0,0,0,0,-1,1161,1632,0,0
-56,-608,0,0,0,0,0,0,0,0,0,-1,1168,1632,0,0
-49,-608,0,0,0,0,0,0,0,0,0,-1,1175,1632,0,0
-42,-608,0,0,0,0,0,0,0,0,0,-1,1182,1632,0,0
-35,-608,0,0,0,0,0,0,0,0,0,-1,1189,1632,0,0
-28,-608,0,0,0,0,0,0,0,0,0,-1,1196,1632,0,0
-21,-608,0,0,0,0,0,0,0,0,0,-1,1203,1632,0,0
-14,-608,0,0,0,0,0,0,0,0,0,-1,1210,1632,0,0
-7,-608,0,0,0,0,0,0,0,0,0,-1,1217,1632,0,0
0,-608,0,0,0,0,0,0,0,0,0,-1,1224,1632,0,0
7,-608,0,0,0,0,0,0,0,0,0,-1,1231,1632,0,0
14,-608,0,0,0,0,0,0,0,0,0,-1,1238,1632,0,0
21,-608,0,0,0,0,0,0,0,0,0,-1,1245,1632,0,0
28,-608,0,0,0,0,0,0,0,0,0,-1,1252,1632,0,0
35,-608,0,0,0,0,0,0,0,0,0,-1,1259,1632,0,0
42,-608,0,0,0,0,0,0,0,0,0,-1,1266,1632,0,0
49,-608,0,0,0,0,0,0,0,0,0,-1,1273,1632,0,0
56,-608,0,0,0,0,0,0,0,0,0,-1,1280,1632,0,0
63,-608,0,0,0,0,0,0,0,0,0,-1,1287,1632,0,0
70,-608,0,0,0,0,0,0,0,0,0,-1,1294,1632,0,0
77,-608,0,0,0,0,0,0,0,0,0,-1,1301,1632,0,0
84,-608,0,0,0,0,0,0,0,0,0,-1,1308,1632,0,0
91,-608,0,0,0,0,0,0,0,0,0,-1,1315,1632,0,0
98,-608,0,0,0,0,0,0,0,0,0,-1,1322,1632,0,0
105,-608,0,0,0,0,0,0,0,0,0,-1,1329,1632,0,0
112,-608,0,0,0,0,0,0,0,0,0,-1,1336,1632,0,0
119,-608,0,0,0,0,0,0,0,0,0,-1,1343,1632,0,0
126,-608,0,0,0,0,0,0,0,0,0,-1,1350,1632,0,0
133,-608,0,0,0,0,0,0,0,0,0,-1,1357,1632,0,0
140,-608,0,0,0,0,0,0,0,0,0,-1,1364,1632,0,0
147,-608,0,0,0,0,0,0,0,0,0,-1,1371,1632,0,0
154,-608,0,0,0,0,0,0,0,0,0,-1,1378,1632,0,0
161,-608,0,0,0,0,0,0,0,0,0,-1,1385,1632,0,0
168,-608,0,0,0,0,0,0,0,0,0,-1,1392,1632,0,0
175,-608,0,0,0,0,0,0,0,0,0,-1,1399,1632,0,0
182,-608,0,0,0,0,0,0,0,0,0,-1,1406,1632,0,0
189,-608,0,0,0,0,0,0,0,0,0,-1,1413,1632,0,0
196,-608,0,0,0,0,0,0,0,0,0,-1,1420,1632,0,0
203,-608,0,0,0,0,0,0,0,0,0,-1,1427,1632,0,0
210,-608,5.7157,-0.333008,0,0,0,0,0,0,0,-1,1434,1632,5.71566,0.333004
217,-608,4.49402,-0.831787,0,0,0,0,0,0,0,-1,1441,1632,4.49396,0.831738
224,-608,4.18018,-1.11792,0,0,0,0,0,0,0,-1,1448,1632,4.1802,1.11796
231,-608,0.361816,0.825195,0,0,0,0,0,0,0,-1,1455,1632,0.36185,-0.825226
238,-608,2.85388,-0.28833,0,0,0,0,0,0,0,-1,1462,1632,2.85391,0.288282
245,-608,3.87537,4.02173,0,0,0,0,0,0,0,-1,1469,1632,3.87538,-4.02168
252,-608,5.66956,3.5282,0,0,0,0,0,0,0,-1,1476,1632,5.6696,-3.52815
259,-608,7.47437,3.07178,0,0,0,0,0,0,0,-1,1483,1632,7.4744,-3.07172
266,-608,9.46936,2.34766,0,0,0,0,0,0,0,-1,1490,1632,9.46932,-2.34764
273,-608,6.03003,3.34241,0,0,0,0,0,0,0,-1,1497,1632,6.02997,-3.34245
280,-608,5.72461,2.0769,0,0,0,0,0,0,0,-1,1504,1632,5.72457,-2.07688
287,-608,6.20581,3.59338,0,0,0,0,0,0,0,-1,1511,1632,6.20585,-3.59341
294,-608,6.94922,5.17151,0,0,0,0,0,0,0,-1,1518,1632,6.94925,-5.17151
301,-608,7.60083,6.68018,0,0,0,0,0,0,0,-1,1525,1632,7.60086,-6.68013
308,-608,7.64746,9.93848,0,0,0,0,0,0,0,-1,1532,1632,7.64745,-9.93842
315,-608,5.30688,11.2054,0,0,0,0,0,0,0,-1,1539,1632,5.30694,-11.2054
322,-608,5.32617,13.7581,0,0,0,0,0,0,0,-1,1546,1632,5.32613,-13.758
329,-608,7.12231,13.9607,0,0,0,0,0,0,0,-1,1553,1632,7.12231,-13.9607
336,-608,5.48633,7.82446,0,0,0,0,0,0,0,-1,1560,1632,5.48634,-7.82446
343,-608,5.47192,5.61047,0,0,0,0,0,0,0,-1,1567,1632,5.47192,-5.61045
350,-608,11.6957,1.71387,0,0,0,0,0,0,0,-1,1574,1632,11.6957,-1.71388
357,-608,3.77002,5.10046,0,0,0,0,0,0,0,-1,1581,1632,3.77002,-5.10043
364,-608,11.7399,33.2545,0,0,0,0,0,0,0,-1,1588,1632,11.7398,-33.2545
371,-608,12.6481,32.5142,0.0216771,0.032594,-0.0190383,0.0469409,0.00733026,-0.925008,0.0291593,0.0486946,1595,1632,12.6481,-32.5141
378,-608,13.0366,31.4788,0.01723,0.0272574,-0.0148771,0.0379429,0.00654451,-0.947925,0.0234205,0.0393455,1602,1632,13.0366,-31.4787
385,-608,13.0037,30.9293,0.0133383,0.0222488,-0.0114247,0.0300562,0.00553092,-0.971311,0.0184719,0.0352233,1609,1632,13.0037,-30.9293
392,-608,12.9409,30.433,0.0100932,0.0176539,-0.00838472,0.0230711,0.00467607,-0.997183,0.0140833,0.0225932,1616,1632,12.941,-30.4329
399,-608,12.9706,30.0131,0.00754949,0.0139903,-0.00604189,0.0176165,0.00392333,-1.03025,0.0106795,0.0108499,1623,1632,12.9706,-30.0131
406,-608,12.9824,29.5923,0.00544387,0.0110072,-0.00431324,0.0133579,0.00309312,-1.07179,0.00807422,0.00955672,1630,1632,12.9824,-29.5922
413,-608,12.9884,29.1899,0.00386479,0.00888207,-0.00318352,0.0104266,0.00232027,-1.11909,0.00632122,0.0107749,1637,1632,12.9884,-29.19
420,-608,12.9916,28.8116,0.00253167,0.00680875,-0.00209554,0.00766431,0.00167611,-1.18318,0.00465259,0.0179583,1644,1632,12.9916,-28.8117
427,-608,12.9646,28.4375,0.00156192,0.0053471,-0.00148843,0.00586227,0.00104675,-1.23758,0.00361021,0.0194183,1651,1632,12.9646,-28.4375
434,-608,12.9448,28.0398,0.00117749,0.00455126,-0.00137288,0.00503933,0.00068943,-1.22923,0.00315495,0.0155227,1658,1632,12.9448,-28.0398
441,-608,12.9703,27.6348,0.00108807,0.0039524,-0.0014257,0.00454106,0.000499417,-1.17923,0.00287539,0.0133758,1665,1632,12.9703,-27.6348
448,-608,12.986,27.2437,0.000914225,0.00324899,-0.00134557,0.00386299,0.000300223,-1.1427,0.00248131,0.0153388,1672,1632,12.9859,-27.2437
455,-608,12.9954,26.8096,0.000710497,0.00251185,-0.00125035,0.00315215,7.02012e-05,-1.09752,0.00207843,0.0116375,1679,1632,12.9953,-26.8095
462,-608,12.968,26.3978,0.000382378,0.00171541,-0.0010251,0.00227163,-0.000173838,-1.07366,0.00157556,0.0104828,1686,1632,12.968,-26.3978
469,-608,12.9283,26.0048,-1.82551e-05,0.000860354,-0.00068572,0.00123542,-0.000393322,-1.07028,0.000981356,0.00826007,1693,1632,12.9284,-26.0047
476,-608,12.9078,25.576,-0.000570638,-7.65079e-05,-0.00020351,-3.48288e-06,-0.000643663,-1.22628,0.000427952,0.00859062,1700,1632,12.9078,-25.5761
483,-608,12.8907,25.1345,-0.00137135,-0.000991094,0.000346019,-0.000786408,-0.00157604,1.03662,0.000909926,0.00842854,1707,1632,12.8908,-25.1345
490,-608,12.8804,24.6987,-0.00237759,-0.00180544,0.000895638,-0.0011513,-0.00303173,0.939983,0.00176716,0.0094845,1714,1632,12.8804,-24.6988
497,-608,12.9076,24.2526,-0.00368592,-0.00259911,0.00154711,-0.00150275,-0.00478228,0.954288,0.00282386,0.0207631,1721,1632,12.9076,-24.2526
504,-608,12.8519,23.8409,-0.00558264,-0.00309468,0.00250436,-0.00154236,-0.00713496,1.01591,0.00433497,0.0483888,1728,1632,12.8519,-23.841
511,-608,12.6298,23.4596,-0.00873664,-0.00351658,0.00447327,-0.000947576,-0.0113056,1.04949,0.00724193,0.0493513,1735,1632,12.6297,-23.4596
518,-608,12.5471,22.7245,0,0,0,0,0,0,0,-1,1742,1632,12.5471,-22.7245
525,-608,11.2109,16.2579,0,0,0,0,0,0,0,-1,1749,1632,11.2109,-16.2579
532,-608,8.27917,11.6693,0,0,0,0,0,0,0,-1,1756,1632,8.27919,-11.6694
539,-608,9.40796,1.43457,0,0,0,0,0,0,0,-1,1763,1632,9.40801,-1.43463
546,-608,9.94031,2.1134,0,0,0,0,0,0,0,-1,1770,1632,9.94031,-2.11346
553,-608,10.363,2.81335,0,0,0,0,0,0,0,-1,1777,1632,10.3631,-2.81333
560,-608,9.23999,4.5636,0,0,0,0,0,0,0,-1,1784,1632,9.24,-4.56354
567,-608,0,0,0,0,0,0,0,0,0,-1,1791,1632,0,0
574,-608,0,0,0,0,0,0,0,0,0,-1,1798,1632,0,0
581,-608,0,0,0,0,0,0,0,0,0,-1,1805,1632,0,0
588,-608,0,0,0,0,0,0,0,0,0,-1,1812,1632,0,0
595,-608,0,0,0,0,0,0,0,0,0,-1,1819,1632,0,0
602,-608,0,0,0,0,0,0,0,0,0,-1,1826,1632,0,0
609,-608,0,0,0,0,0,0,0,0,0,-1,1833,1632,0,0
616,-608,0,0,0,0,0,0,0,0,0,-1,1840,1632,0,0
623,-608,0,0,0,0,0,0,0,0,0,-1,1847,1632,0,0
630,-608,0,0,0,0,0,0,0,0,0,-1,1854,1632,0,0
637,-608,0,0,0,0,0,0,0,0,0,-1,1861,1632,0,0
644,-608,0,0,0,0,0,0,0,0,0,-1,1868,1632,0,0
651,-608,0,0,0,0,0,0,0,0,0,-1,1875,1632,0,0
658,-608,0,0,0,0,0,0,0,0,0,-1,1882,1632,0,0
665,-608,0,0,0,0,0,0,0,0,0,-1,1889,1632,0,0
672,-608,0,0,0,0,0,0,0,0,0,-1,1896,1632,0,0
679,-608,0,0,0,0,0,0,0,0,0,-1,1903,1632,0,0
686,-608,0,0,0,0,0,0,0,0,0,-1,1910,1632,0,0
693,-608,0,0,0,0,0,0,0,0,0,-1,1917,1632,0,0
700,-608,0,0,0,0,0,0,0,0,0,-1,1924,1632,0,0
707,-608,0,0,0,0,0,0,0,0,0,-1,1931,1632,0,0
714,-608,0,0,0,0,0,0,0,0,0,-1,1938,1632,0,0
721,-608,0,0,0,0,0,0,0,0,0,-1,1945,1632,0,0
728,-608,0,0,0,0,0,0,0,0,0,-1,1952,1632,0,0
735,-608,0,0,0,0,0,0,0,0,0,-1,1959,1632,0,0
742,-608,0,0,0,0,0,0,0,0,0,-1,1966,1632,0,0
749,-608,0,0,0,0,0,0,0,0,0,-1,1973,1632,0,0
756,-608,0,0,0,0,0,0,0,0,0,-1,1980,1632,0,0
763,-608,0,0,0,0,0,0,0,0,0,-1,1987,1632,0,0
770,-608,0,0,0,0,0,0,0,0,0,-1,1994,1632,0,0
777,-608,0,0,0,0,0,0,0,0,0,-1,2001,1632,0,0
784,-608,0,0,0,0,0,0,0,0,0,-1,2008,1632,0,0
791,-608,0,0,0,0,0,0,0,0,0,-1,2015,1632,0,0
798,-608,0,0,0,0,0,0,0,0,0,-1,2022,1632,0,0
805,-608,0,0,0,0,0,0,0,0,0,-1,2029,1632,0,0
812,-608,0,0,0,0,0,0,0,0,0,-1,2036,1632,0,0
-700,-615,0,0,0,0,0,0,0,0,0,-1,524,1639,0,0
-693,-615,0,0,0,0,0,0,0,0,0,-1,531,1639,0,0
-686,-615,0,0,0,0,0,0,0,0,0,-1,538,1639,0,0
-679,-615,0,0,0,0,0,0,0,0,0,-1,545,1639,0,0
-672,-615,0,0,0,0,0,0,0,0,0,-1,552,1639,0,0
-665,-615,0,0,0,0,0,0,0,0,0,-1,559,1639,0,0
-658,-615,0,0,0,0,0,0,0,0,0,-1,566,1639,0,0
-651,-615,0,0,0,0,0,0,0,0,0,-1,573,1639,0,0
-644,-615,0,0,0,0,0,0,0,0,0,-1,580,1639,0,0
-637,-615,0,0,0,0,0,0,0,0,0,-1,587,1639,0,0
-630,-615,0,0,0,0,0,0,0,0,0,-1,594,1639,0,0
-623,-615,0,0,0,0,0,0,0,0,0,-1,601,1639,0,0
-616,-615,0,0,0,0,0,0,0,0,0,-1,608,1639,0,0
-609,-615,0,0,0,0,0,0,0,0,0,-1,615,1639,0,0
-602,-615,0,0,0,0,0,0,0,0,0,-1,622,1639,0,0
-595,-615,0,0,0,0,0,0,0,0,0,-1,629,1639,0,0
-588,-615,0,0,0,0,0,0,0,0,0,-1,636,1639,0,0
-581,-615,0,0,0,0,0,0,0,0,0,-1,643,1639,0,0
-574,-615,0,0,0,0,0,0,0,0,0,-1,650,1639,0,0
-567,-615,0,0,0,0,0,0,0,0,0,-1,657,1639,0,0
-560,-615,0,0,0,0,0,0,0,0,0,-1,664,1639,0,0
-553,-615,0,0,0,0,0,0,0,0,0,-1,671,1639,0,0
-546,-615,0,0,0,0,0,0,0,0,0,-1,678,1639,0,0
-539,-615,0,0,0,0,0,0,0,0,0,-1,685,1639,0,0
-532,-615,0,0,0,0,0,0,0,0,0,-1,692,1639,0,0
-525,-615,0,0,0,0,0,0,0,0,0,-1,699,1639,0,0
-518,-615,0,0,0,0,0,0,0,0,0,-1,706,1639,0,0
-511,-615,0,0,0,0,0,0,0,0,0,-1,713,1639,0,0
-504,-615,0,0,0,0,0,0,0,0,0,-1,720,1639,0,0
-497,-615,0,0,0,0,0,0,0,0,0,-1,727,1639,0,0
-490,-615,0,0,0,0,0,0,0,0,0,-1,734,1639,0,0
-483,-615,0,0,0,0,0,0,0,0,0,-1,741,1639,0,0
-476,-615,0,0,0,0,0,0,0,0,0,-1,748,1639,0,0
-469,-615,0,0,0,0,0,0,0,0,0,-1,755,1639,0,0
-462,-615,0,0,0,0,0,0,0,0,0,-1,762,1639,0,0
-455,-615,0,0,0,0,0,0,0,0,0,-1,769,1639,0,0
-448,-615,0,0,0,0,0,0,0,0,0,-1,776,1639,0,0
-441,-615,0,0,0,0,0,0,0,0,0,-1,783,1639,0,0
-434,-615,-7.64508,2.98596,0,0,0,0,0,0,0,-1,790,1639,-7.64505,-2.98594
-427,-615,-9.0011,2.89404,0,0,0,0,0,0,0,-1,797,1639,-9.00107,-2.89399
-420,-615,-8.07568,3.0752,0,0,0,0,0,0,0,-1,804,1639,-8.07569,-3.07514
-413,-615,-7.09149,3.396,0,0,0,0,0,0,0,-1,811,1639,-7.09147,-3.39599
-406,-615,-6.21368,3.7312,0,0,0,0,0,0,0,-1,818,1639,-6.21366,-3.73114
-399,-615,-4.84875,3.91907,0,0,0,0,0,0,0,-1,825,1639,-4.84877,-3.91901
-392,-615,1.7395,13.3127,0,0,0,0,0,0,0,-1,832,1639,1.73953,-13.3128
-385,-615,3.42297,14.9401,0,0,0,0,0,0,0,-1,839,1639,3.42296,-14.94
-378,-615,2.54102,17.2609,0,0,0,0,0,0,0,-1,846,1639,2.54099,-17.2608
-371,-615,3.20807,22.8676,0,0,0,0,0,0,0,-1,853,1639,3.20805,-22.8675
-364,-615,3.11334,23.5127,0,0,0,0,0,0,0,-1,860,1639,3.11336,-23.5127
-357,-615,3.07318,23.7772,0,0,0,0,0,0,0,-1,867,1639,3.0732,-23.7772
-350,-615,3.16895,24.3551,0.000420887,-0.00114737,0.00132868,0.00117956,-0.00190605,0.518822,0.00179786,0.0307302,874,1639,3.16895,-24.3551
-343,-615,3.1275,24.7554,0.00104387,-0.000725429,0.00139181,0.00180838,-0.00148994,0.5023,0.00190724,0.0193584,881,1639,3.12748,-24.7553
-336,-615,3.13348,25.233,0.00158136,-0.000219142,0.00143889,0.00237842,-0.0010162,0.505863,0.0020118,0.0109827,888,1639,3.13349,-25.2331
-329,-615,3.0993,25.6951,0.0018587,0.000430412,0.0014396,0.00275155,-0.000462441,0.555148,0.00200636,0.0106561,895,1639,3.0993,-25.6951
-322,-615,3.0965,26.1412,0.00196246,0.000931899,0.00141632,0.00295432,-5.99612e-05,0.610933,0.00198984,0.010993,902,1639,3.09651,-26.1412
-315,-615,3.1106,26.5841,0.00195327,0.0012962,0.00129586,0.00296159,0.000287878,0.661249,0.00188577,0.0130996,909,1639,3.11057,-26.5841
-308,-615,3.04584,27.0265,0.00202511,0.00161132,0.00116827,0.00300466,0.000631772,0.697759,0.00182925,0.0198947,916,1639,3.04583,-27.0265
-301,-615,3.05731,27.4219,0.00221504,0.00190197,0.00121069,0.00327927,0.00083774,0.721107,0.00196732,0.0129464,923,1639,3.05732,-27.4219
-294,-615,3.07135,27.8231,0.00252271,0.00236144,0.00152652,0.00397073,0.000913433,0.759011,0.0024013,0.0103683,930,1639,3.07138,-27.8231
-287,-615,3.02026,28.264,0.00289113,0.00295185,0.00183802,0.00475976,0.00108322,0.793655,0.00288081,0.0075062,937,1639,3.02029,-28.2641
-280,-615,3.0213,28.6761,0.0034127,0.00351118,0.00229718,0.00575965,0.00116423,0.796114,0.00351653,0.00894455,944,1639,3.02129,-28.6761
-273,-615,3.01733,29.1033,0.00402431,0.00395471,0.00283017,0.00681989,0.00115913,0.779251,0.0042137,0.0112671,951,1639,3.01732,-29.1033
-266,-615,3.01282,29.5145,0.00467097,0.0045459,0.00347118,0.00808018,0.00113669,0.776391,0.00505071,0.0110375,958,1639,3.0128,-29.5145
-259,-615,3.03381,29.8961,0.00546139,0.00526198,0.00423024,0.00959311,0.00113027,0.773616,0.00605392,0.0114011,965,1639,3.03383,-29.8961
-252,-615,3.05133,30.3385,0.0062995,0.00603713,0.00511553,0.0112855,0.0010511,0.772579,0.00719895,0.0147102,972,1639,3.05132,-30.3385
-245,-615,3.14929,30.8501,0.00687648,0.00675225,0.00596871,0.0127834,0.00084533,0.780195,0.00825493,0.0227429,979,1639,3.14927,-30.8501
-238,-615,3.15131,31.2871,0.00754808,0.00701691,0.00661307,0.0139009,0.000664094,0.765329,0.00905402,0.036258,986,1639,3.15131,-31.2871
-231,-615,3.37164,31.7147,0,0,0,0,0,0,0,-1,993,1639,3.37163,-31.7147
-224,-615,3.34802,31.8025,0,0,0,0,0,0,0,-1,1000,1639,3.34799,-31.8025
-217,-615,3.99097,27.3737,0,0,0,0,0,0,0,-1,1007,1639,3.99096,-27.3736
-210,-615,2.48901,18.9324,0,0,0,0,0,0,0,-1,1014,1639,2.48902,-18.9323
-203,-615,2.13684,18.6173,0,0,0,0,0,0,0,-1,1021,1639,2.13683,-18.6173
-196,-615,4.27161,21.3264,0,0,0,0,0,0,0,-1,1028,1639,4.27165,-21.3264
-189,-615,1.8269,19.6761,0,0,0,0,0,0,0,-1,1035,1639,1.82691,-19.6761
-182,-615,1.63489,20.2278,0,0,0,0,0,0,0,-1,1042,1639,1.63492,-20.2277
-175,-615,-0.609985,13.8434,0,0,0,0,0,0,0,-1,1049,1639,-0.610016,-13.8434
-168,-615,3.85754,15.472,0,0,0,0,0,0,0,-1,1056,1639,3.85757,-15.472
-161,-615,2.44141,28.2932,0,0,0,0,0,0,0,-1,1063,1639,2.44135,-28.2933
-154,-615,2.42737,24.3593,0,0,0,0,0,0,0,-1,1070,1639,2.42742,-24.3593
-147,-615,1.52502,17.3442,0,0,0,0,0,0,0,-1,1077,1639,1.52501,-17.3442
-140,-615,3.73401,10.2349,0,0,0,0,0,0,0,-1,1084,1639,3.73402,-10.2348
-133,-615,2.6178,17.45,0,0,0,0,0,0,0,-1,1091,1639,2.61776,-17.4499
-126,-615,4.43408,12.5017,0,0,0,0,0,0,0,-1,1098,1639,4.43403,-12.5018
-119,-615,4.82983,13.9279,0,0,0,0,0,0,0,-1,1105,1639,4.82986,-13.9278
-112,-615,3.65698,14.4874,0,0,0,0,0,0,0,-1,1112,1639,3.65695,-14.4875
-105,-615,0.958496,2.45398,0,0,0,0,0,0,0,-1,1119,1639,0.958452,-2.45398
-98,-615,-0.647705,2.12109,0,0,0,0,0,0,0,-1,1126,1639,-0.647756,-2.12105
-91,-615,-3.07983,2.97375,0,0,0,0,0,0,0,-1,1133,1639,-3.07989,-2.97376
-84,-615,-2.46509,0.703247,0,0,0,0,0,0,0,-1,1140,1639,-2.46505,-0.703273
-77,-615,-3.17859,1.23755,0,0,0,0,0,0,0,-1,1147,1639,-3.17865,-1.23752
-70,-615,-4.03943,1.43335,0,0,0,0,0,0,0,-1,1154,1639,-4.03942,-1.43339
-63,-615,-4.8877,1.45544,0,0,0,0,0,0,0,-1,1161,1639,-4.88766,-1.45549
-56,-615,0,0,0,0,0,0,0,0,0,-1,1168,1639,0,0
-49,-615,0,0,0,0,0,0,0,0,0,-1,1175,1639,0,0
-42,-615,0,0,0,0,0,0,0,0,0,-1,1182,1639,0,0
-35,-615,0,0,0,0,0,0,0,0,0,-1,1189,1639,0,0
-28,-615,0,0,0,0,0,0,0,0,0,-1,1196,1639,0,0
-21,-615,0,0,0,0,0,0,0,0,0,-1,1203,1639,0,0
-14,-615,0,0,0,0,0,0,0,0,0,-1,1210,1639,0,0
-7,-615,0,0,0,0,0,0,0,0,0,-1,1217,1639,0,0
0,-615,0,0,0,0,0,0,0,0,0,-1,1224,1639,0,0
7,-615,0,0,0,0,0,0,0,0,0,-1,1231,1639,0,0
14,-615,0,0,0,0,0,0,0,0,0,-1,1238,1639,0,0
21,-615,0,0,0,0,0,0,0,0,0,-1,1245,1639,0,0
28,-615,0,0,0,0,0,0,0,0,0,-1,1252,1639,0,0
35,-615,0,0,0,0,0,0,0,0,0,-1,1259,1639,0,0
42,-615,0,0,0,0,0,0,0,0,0,-1,1266,1639,0,0
49,-615,0,0,0,0,0,0,0,0,0,-1,1273,1639,0,0
56,-615,0,0,0,0,0,0,0,0,0,-1,1280,1639,0,0
63,-615,0,0,0,0,0,0,0,0,0,-1,1287,1639,0,0
70,-615,0,0,0,0,0,0,0,0,0,-1,1294,1639,0,0
77,-615,0,0,0,0,0,0,0,0,0,-1,1301,1639,0,0
84,-615,0,0,0,0,0,0,0,0,0,-1,1308,1639,0,0
91,-615,0,0,0,0,0,0,0,0,0,-1,1315,1639,0,0
98,-615,0,0,0,0,0,0,0,0,0,-1,1322,1639,0,0
105,-615,0,0,0,0,0,0,0,0,0,-1,1329,1639,0,0
112,-615,0,0,0,0,0,0,0,0,0,-1,1336,1639,0,0
119,-615,0,0,0,0,0,0,0,0,0,-1,1343,1639,0,0
126,-615,0,0,0,0,0,0,0,0,0,-1,1350,1639,0,0
133,-615,0,0,0,0,0,0,0,0,0,-1,1357,1639,0,0
140,-615,0,0,0,0,0,0,0,0,0,-1,1364,1639,0,0
147,-615,0,0,0,0,0,0,0,0,0,-1,1371,1639,0,0
154,-615,0,0,0,0,0,0,0,0,0,-1,1378,1639,0,0
161,-615,0,0,0,0,0,0,0,0,0,-1,1385,1639,0,0
168,-615,0,0,0,0,0,0,0,0,0,-1,1392,1639,0,0
175,-615,5.39648,-2.00879,0,0,0,0,0,0,0,-1,1399,1639,5.3965,2.00881
182,-615,5.65393,-1.51025,0,0,0,0,0,0,0,-1,1406,1639,5.65388,1.51028
189,-615,5.58972,-1.35608,0,0,0,0,0,0,0,-1,1413,1639,5.58967,1.35607
196,-615,5.49915,-0.693604,0,0,0,0,0,0,0,-1,1420,1639,5.4991,0.693602
203,-615,5.33411,-0.226685,0,0,0,0,0,0,0,-1,1427,1639,5.33414,0.226689
210,-615,5.60278,0.108276,0,0,0,0,0,0,0,-1,1434,1639,5.60284,-0.10831
217,-615,6.26331,-0.307373,0,0,0,0,0,0,0,-1,1441,1639,6.26331,0.307372
224,-615,5.45422,-0.333984,0,0,0,0,0,0,0,-1,1448,1639,5.45422,0.333992
231,-615,4.92542,1.80298,0,0,0,0,0,0,0,-1,1455,1639,4.92537,-1.80297
238,-615,4.76355,1.96729,0,0,0,0,0,0,0,-1,1462,1639,4.76357,-1.96734
245,-615,4.08643,3.15906,0,0,0,0,0,0,0,-1,1469,1639,4.08638,-3.159
252,-615,6.37805,3.73889,0,0,0,0,0,0,0,-1,1476,1639,6.37806,-3.73891
259,-615,8.35974,3.16443,0,0,0,0,0,0,0,-1,1483,1639,8.35975,-3.16444
266,-615,10.3414,2.58997,0,0,0,0,0,0,0,-1,1490,1639,10.3414,-2.58996
273,-615,6.57043,1.84766,0,0,0,0,0,0,0,-1,1497,1639,6.5704,-1.84771
280,-615,7.10449,3.23438,0,0,0,0,0,0,0,-1,1504,1639,7.10447,-3.23435
287,-615,7.35779,4.68542,0,0,0,0,0,0,0,-1,1511,1639,7.35776,-4.68546
294,-615,7.63733,6.29114,0,0,0,0,0,0,0,-1,1518,1639,7.63735,-6.29109
301,-615,8.47925,11.452,0,0,0,0,0,0,0,-1,1525,1639,8.47922,-11.452
308,-615,6.8114,10.9059,0,0,0,0,0,0,0,-1,1532,1639,6.81137,-10.9058
315,-615,5.1427,14.7251,0,0,0,0,0,0,0,-1,1539,1639,5.14269,-14.7251
322,-615,7.17981,17.6864,0,0,0,0,0,0,0,-1,1546,1639,7.17985,-17.6864
329,-615,7.62134,20.4354,0,0,0,0,0,0,0,-1,1553,1639,7.62139,-20.4354
336,-615,6.45007,14.1138,0,0,0,0,0,0,0,-1,1560,1639,6.45011,-14.1138
343,-615,2.40491,6.50134,0,0,0,0,0,0,0,-1,1567,1639,2.40489,-6.50137
350,-615,6.4458,15.4594,0,0,0,0,0,0,0,-1,1574,1639,6.44578,-15.4593
357,-615,11.6851,33.4615,0,0,0,0,0,0,0,-1,1581,1639,11.685,-33.4615
364,-615,11.8593,32.8269,0.0195454,0.0294857,-0.0171776,0.0423977,0.00663341,-0.926222,0.026334,0.0490267,1588,1639,11.8593,-32.8269
371,-615,12.3926,32.0437,0.016464,0.025346,-0.0142714,0.0358514,0.0059586,-0.936239,0.0221831,0.0439528,1595,1639,12.3926,-32.0437
378,-615,12.6185,31.1542,0.0133822,0.0215513,-0.0114342,0.0296086,0.00532494,-0.956945,0.0182252,0.0213797,1602,1639,12.6185,-31.1542
385,-615,12.5759,30.7271,0.0106017,0.0177807,-0.00897971,0.0238618,0.00452065,-0.975537,0.0146356,0.0126799,1609,1639,12.5759,-30.7271
392,-615,12.5858,30.3481,0.0081984,0.0142064,-0.0067588,0.0185987,0.0038061,-0.994517,0.0113453,0.0112319,1616,1639,12.5858,-30.3481
399,-615,12.5842,29.9926,0.00621013,0.0111936,-0.00494209,0.0142365,0.00316715,-1.01889,0.00863123,0.0124747,1623,1639,12.5843,-29.9925
406,-615,12.5807,29.6055,0.00451123,0.00873133,-0.00354323,0.0107452,0.00249734,-1.05396,0.00649313,0.0115619,1630,1639,12.5807,-29.6054
413,-615,12.5858,29.2256,0.00320397,0.00692604,-0.00260196,0.00826401,0.001866,-1.09584,0.00500467,0.0129625,1637,1639,12.5858,-29.2256
420,-615,12.5963,28.8456,0.00203501,0.00508588,-0.00163362,0.00579554,0.00132535,-1.16098,0.00350642,0.0141603,1644,1639,12.5963,-28.8456
427,-615,12.5742,28.4475,0.00119041,0.00381582,-0.00111523,0.00422559,0.000780639,-1.21868,0.00259627,0.0154836,1651,1639,12.5742,-28.4475
434,-615,12.5802,28.0513,0.000822858,0.00316042,-0.00100768,0.00353483,0.000448441,-1.21504,0.00222221,0.0141666,1658,1639,12.5801,-28.0512
441,-615,12.5953,27.6388,0.000715068,0.00270134,-0.00104781,0.00315189,0.000264517,-1.1647,0.00201887,0.0138487,1665,1639,12.5953,-27.6388
448,-615,12.5836,27.2396,0.000539022,0.00212818,-0.000969349,0.00258699,8.02076e-05,-1.12872,0.00169856,0.0152256,1672,1639,12.5837,-27.2396
455,-615,12.5698,26.8499,0.000336904,0.00154087,-0.000877343,0.0020029,-0.000125121,-1.08608,0.00137887,0.014307,1679,1639,12.5698,-26.8498
462,-615,12.5413,26.4409,-7.33656e-06,0.000844111,-0.000646104,0.00119214,-0.000355364,-1.0767,0.000935977,0.0137436,1686,1639,12.5413,-26.441
469,-615,12.5126,26.0221,-0.000403147,0.000143435,-0.000326147,0.000295655,-0.000555367,-1.13412,0.000498906,0.011533,1693,1639,12.5125,-26.0221
476,-615,12.5104,25.5763,-0.000926791,-0.000651329,0.000118466,-0.00060739,-0.00097073,1.21562,0.000566324,0.0107557,1700,1639,12.5103,-25.5763
483,-615,12.5062,25.0844,-0.00171588,-0.00138346,0.000628504,-0.000899556,-0.00219978,0.914666,0.00127704,0.0189326,1707,1639,12.5062,-25.0844
490,-615,12.504,24.703,-0.00275148,-0.00205271,0.00111952,-0.00122932,-0.00357486,0.936651,0.00209722,0.0280423,1714,1639,12.5041,-24.703
497,-615,12.424,24.4052,-0.00411006,-0.00281898,0.00182855,-0.00152537,-0.00540368,0.955085,0.00321689,0.0388735,1721,1639,12.4239,-24.4052
504,-615,12.145,23.8721,0,0,0,0,0,0,0,-1,1728,1639,12.1451,-23.8721
511,-615,12.1556,23.4681,0,0,0,0,0,0,0,-1,1735,1639,12.1556,-23.4681
518,-615,13.2416,9.81812,0,0,0,0,0,0,0,-1,1742,1639,13.2416,-9.81813
525,-615,4.37524,3.90491,0,0,0,0,0,0,0,-1,1749,1639,4.37518,-3.90495
532,-615,7.3645,0.848145,0,0,0,0,0,0,0,-1,1756,1639,7.36451,-0.848093
539,-615,12.8112,-0.0476074,0,0,0,0,0,0,0,-1,1763,1639,12.8111,0.0475553
546,-615,8.33813,2.94556,0,0,0,0,0,0,0,-1,1770,1639,8.33813,-2.9455
553,-615,5.82532,-2.04199,0,0,0,0,0,0,0,-1,1777,1639,5.82534,2.04195
560,-615,0,0,0,0,0,0,0,0,0,-1,1784,1639,0,0
567,-615,0,0,0,0,0,0,0,0,0,-1,1791,1639,0,0
574,-615,0,0,0,0,0,0,0,0,0,-1,1798,1639,0,0
581,-615,0,0,0,0,0,0,0,0,0,-1,1805,1639,0,0
588,-615,0,0,0,0,0,0,0,0,0,-1,1812,1639,0,0
595,-615,0,0,0,0,0,0,0,0,0,-1,1819,1639,0,0
602,-615,0,0,0,0,0,0,0,0,0,-1,1826,1639,0,0
609,-615,0,0,0,0,0,0,0,0,0,-1,1833,1639,0,0
616,-615,0,0,0,0,0,0,0,0,0,-1,1840,1639,0,0
623,-615,0,0,0,0,0,0,0,0,0,-1,1847,1639,0,0
630,-615,0,0,0,0,0,0,0,0,0,-1,1854,1639,0,0
637,-615,0,0,0,0,0,0,0,0,0,-1,1861,1639,0,0
644,-615,0,0,0,0,0,0,0,0,0,-1,1868,1639,0,0
651,-615,0,0,0,0,0,0,0,0,0,-1,1875,1639,0,0
658,-615,0,0,0,0,0,0,0,0,0,-1,1882,1639,0,0
665,-615,0,0,0,0,0,0,0,0,0,-1,1889,1639,0,0
672,-615,0,0,0,0,0,0,0,0,0,-1,1896,1639,0,0
679,-615,0,0,0,0,0,0,0,0,0,-1,1903,1639,0,0
686,-615,0,0,0,0,0,0,0,0,0,-1,1910,1639,0,0
693,-615,0,0,0,0,0,0,0,0,0,-1,1917,1639,0,0
700,-615,0,0,0,0,0,0,0,0,0,-1,1924,1639,0,0
707,-615,0,0,0,0,0,0,0,0,0,-1,1931,1639,0,0
714,-615,0,0,0,0,0,0,0,0,0,-1,1938,1639,0,0
721,-615,0,0,0,0,0,0,0,0,0,-1,1945,1639,0,0
728,-615,0,0,0,0,0,0,0,0,0,-1,1952,1639,0,0
735,-615,0,0,0,0,0,0,0,0,0,-1,1959,1639,0,0
742,-615,0,0,0,0,0,0,0,0,0,-1,1966,1639,0,0
749,-615,0,0,0,0,0,0,0,0,0,-1,1973,1639,0,0
756,-615,0,0,0,0,0,0,0,0,0,-1,1980,1639,0,0
763,-615,0,0,0,0,0,0,0,0,0,-1,1987,1639,0,0
770,-615,0,0,0,0,0,0,0,0,0,-1,1994,1639,0,0
777,-615,0,0,0,0,0,0,0,0,0,-1,2001,1639,0,0
784,-615,0,0,0,0,0,0,0,0,0,-1,2008,1639,0,0
791,-615,0,0,0,0,0,0,0,0,0,-1,2015,1639,0,0
798,-615,0,0,0,0,0,0,0,0,0,-1,2022,1639,0,0
805,-615,0,0,0,0,0,0,0,0,0,-1,2029,1639,0,0
812,-615,0,0,0,0,0,0,0,0,0,-1,2036,1639,0,0
-700,-622,0,0,0,0,0,0,0,0,0,-1,524,1646,0,0
-693,-622,0,0,0,0,0,0,0,0,0,-1,531,1646,0,0
-686,-622,0,0,0,0,0,0,0,0,0,-1,538,1646,0,0
-679,-622,0,0,0,0,0,0,0,0,0,-1,545,1646,0,0
-672,-622,0,0,0,0,0,0,0,0,0,-1,552,1646,0,0
-665,-622,0,0,0,0,0,0,0,0,0,-1,559,1646,0,0
-658,-622,0,0,0,0,0,0,0,0,0,-1,566,1646,0,0
-651,-622,0,0,0,0,0,0,0,0,0,-1,573,1646,0,0
-644,-622,0,0,0,0,0,0,0,0,0,-1,580,1646,0,0
-637,-622,0,0,0,0,0,0,0,0,0,-1,587,1646,0,0
-630,-622,0,0,0,0,0,0,0,0,0,-1,594,1646,0,0
-623,-622,0,0,0,0,0,0,0,0,0,-1,601,1646,0,0
-616,-622,0,0,0,0,0,0,0,0,0,-1,608,1646,0,0
-609,-622,0,0,0,0,0,0,0,0,0,-1,615,1646,0,0
-602,-622,0,0,0,0,0,0,0,0,0,-1,622,1646,0,0
-595,-622,0,0,0,0,0,0,0,0,0,-1,629,1646,0,0
-588,-622,0,0,0,0,0,0,0,0,0,-1,636,1646,0,0
-581,-622,0,0,0,0,0,0,0,0,0,-1,643,1646,0,0
-574,-622,0,0,0,0,0,0,0,0,0,-1,650,1646,0,0
-567,-622,0,0,0,0,0,0,0,0,0,-1,657,1646,0,0
-560,-622,0,0,0,0,0,0,0,0,0,-1,664,1646,0,0
-553,-622,0,0,0,0,0,0,0,0,0,-1,671,1646,0,0
-546,-622,0,0,0,0,0,0,0,0,0,-1,678,1646,0,0
-539,-622,0,0,0,0,0,0,0,0,0,-1,685,1646,0,0
-532,-622,0,0,0,0,0,0,0,0,0,-1,692,1646,0,0
-525,-622,0,0,0,0,0,0,0,0,0,-1,699,1646,0,0
-518,-622,0,0,0,0,0,0,0,0,0,-1,706,1646,0,0
-511,-622,0,0,0,0,0,0,0,0,0,-1,713,1646,0,0
-504,-622,0,0,0,0,0,0,0,0,0,-1,720,1646,0,0
-497,-622,0,0,0,0,0,0,0,0,0,-1,727,1646,0,0
-490,-622,0,0,0,0,0,0,0,0,0,-1,734,1646,0,0
-483,-622,0,0,0,0,0,0,0,0,0,-1,741,1646,0,0
-476,-622,0,0,0,0,0,0,0,0,0,-1,748,1646,0,0
-469,-622,0,0,0,0,0,0,0,0,0,-1,755,1646,0,0
-462,-622,0,0,0,0,0,0,0,0,0,-1,762,1646,0,0
-455,-622,0,0,0,0,0,0,0,0,0,-1,769,1646,0,0
-448,-622,0,0,0,0,0,0,0,0,0,-1,776,1646,0,0
-441,-622,0,0,0,0,0,0,0,0,0,-1,783,1646,0,0
-434,-622,0,0,0,0,0,0,0,0,0,-1,790,1646,0,0
-427,-622,-7.62891,3.48096,0,0,0,0,0,0,0,-1,797,1646,-7.62892,-3.48092
-420,-622,-9.35791,1.77185,0,0,0,0,0,0,0,-1,804,1646,-9.35789,-1.77183
-413,-622,-8.46075,1.96777,0,0,0,0,0,0,0,-1,811,1646,-8.46074,-1.96774
-406,-622,-4.44318,2.16858,0,0,0,0,0,0,0,-1,818,1646,-4.44315,-2.16859
-399,-622,-7.06976,1.51001,0,0,0,0,0,0,0,-1,825,1646,-7.06976,-1.51005
-392,-622,3.89551,5.85376,0,0,0,0,0,0,0,-1,832,1646,3.8955,-5.85379
-385,-622,2.00543,14.0448,0,0,0,0,0,0,0,-1,839,1646,2.00544,-14.0448
-378,-622,1.49036,15.3436,0,0,0,0,0,0,0,-1,846,1646,1.49033,-15.3436
-371,-622,3.23883,20.4496,0,0,0,0,0,0,0,-1,853,1646,3.23886,-20.4496
-364,-622,3.21271,23.4978,0,0,0,0,0,0,0,-1,860,1646,3.2127,-23.4978
-357,-622,3.5307,23.5956,0,0,0,0,0,0,0,-1,867,1646,3.53068,-23.5956
-350,-622,3.63208,24.3621,0,0,0,0,0,0,0,-1,874,1646,3.63206,-24.3621
-343,-622,3.53778,24.8156,0.00185223,-0.000615004,0.00189227,0.00287749,-0.00164026,0.496535,0.00264072,0.0249362,881,1646,3.53779,-24.8156
-336,-622,3.55768,25.2592,0.00229331,-0.000211297,0.001853,0.0032775,-0.00119548,0.488241,0.0026741,0.00979648,888,1646,3.5577,-25.2592
-329,-622,3.52887,25.6969,0.00237864,0.000341852,0.00173963,0.00337604,-0.000655552,0.520588,0.00249805,0.00847807,895,1646,3.52889,-25.6969
-322,-622,3.52234,26.1499,0.00227563,0.000718804,0.0016167,0.00329155,-0.000297115,0.561035,0.00229981,0.00986514,902,1646,3.52236,-26.1499
-315,-622,3.51947,26.5934,0.00205453,0.000912669,0.00138302,0.00297983,-1.26363e-05,0.589647,0.00199078,0.0137225,909,1646,3.51944,-26.5934
-308,-622,3.50171,27.0033,0.00190807,0.00110137,0.00114257,0.0027164,0.00029304,0.615716,0.00172159,0.0147036,916,1646,3.50169,-27.0033
-301,-622,3.49719,27.4149,0.00187407,0.00126332,0.00103414,0.00264698,0.000490414,0.641832,0.00162602,0.0142985,923,1646,3.49717,-27.4149
-294,-622,3.48285,27.8521,0.00199251,0.00158933,0.0011765,0.00298457,0.000597267,0.700548,0.00182352,0.0109087,930,1646,3.48285,-27.852
-287,-622,3.44922,28.2842,0.00218061,0.00207239,0.00136357,0.00349115,0.000761857,0.765567,0.00211962,0.00797061,937,1646,3.44921,-28.2842
-280,-622,3.4408,28.6968,0.0025192,0.00253222,0.00169087,0.0042166,0.00083483,0.787323,0.00257824,0.00898987,944,1646,3.4408,-28.6968
-273,-622,3.45953,29.1016,0.00296183,0.00295168,0.00207695,0.00503371,0.000879799,0.784176,0.00310438,0.0142132,951,1646,3.45954,-29.1015
-266,-622,3.43634,29.5068,0.00346517,0.00348446,0.00256713,0.00604196,0.000907671,0.787276,0.0037621,0.0132118,958,1646,3.43634,-29.5068
-259,-622,3.43323,29.9232,0.00409239,0.0041091,0.00312217,0.00722293,0.000978557,0.786736,0.00452451,0.0117169,965,1646,3.43321,-29.9233
-252,-622,3.43652,30.2957,0.00475691,0.0048337,0.00375306,0.00854856,0.00104205,0.790513,0.0053854,0.0123154,972,1646,3.43652,-30.2956
-245,-622,3.48853,30.6765,0.00524128,0.00551297,0.00433065,0.0097099,0.00104435,0.801077,0.00615476,0.0107189,979,1646,3.48854,-30.6765
-238,-622,3.4859,31.066,0.00580746,0.00584861,0.00473331,0.0105614,0.00109468,0.787572,0.00670589,0.0139335,986,1646,3.48588,-31.0661
-231,-622,3.55859,31.5389,0.00651703,0.00650485,0.00518473,0.0116957,0.00132621,0.784811,0.00739479,0.026592,993,1646,3.55859,-31.5389
-224,-622,3.60864,31.7869,0.00691397,0.00739795,0.00552855,0.0126898,0.00162212,0.80727,0.00797435,0.0416536,1000,1646,3.60862,-31.7869
-217,-622,3.76392,32.2915,0,0,0,0,0,0,0,-1,1007,1646,3.76394,-32.2915
-210,-622,3.87927,28.0903,0,0,0,0,0,0,0,-1,1014,1646,3.87925,-28.0903
-203,-622,4.21375,20.9574,0,0,0,0,0,0,0,-1,1021,1646,4.21375,-20.9574
-196,-622,4.18518,21.2491,0,0,0,0,0,0,0,-1,1028,1646,4.18521,-21.2491
-189,-622,4.98254,25.8979,0,0,0,0,0,0,0,-1,1035,1646,4.98255,-25.8979
-182,-622,2.21411,20.6752,0,0,0,0,0,0,0,-1,1042,1646,2.21416,-20.6751
-175,-622,2.56091,11.0195,0,0,0,0,0,0,0,-1,1049,1646,2.56095,-11.0195
-168,-622,3.31055,28.6663,0,0,0,0,0,0,0,-1,1056,1646,3.31055,-28.6663
-161,-622,2.78125,35.679,0,0,0,0,0,0,0,-1,1063,1646,2.78122,-35.679
-154,-622,2.03955,33.9767,0,0,0,0,0,0,0,-1,1070,1646,2.03955,-33.9767
-147,-622,3.7146,25.5477,0,0,0,0,0,0,0,-1,1077,1646,3.71464,-25.5478
-140,-622,3.27515,16.0353,0,0,0,0,0,0,0,-1,1084,1646,3.27519,-16.0353
-133,-622,3.09644,17.677,0,0,0,0,0,0,0,-1,1091,1646,3.09638,-17.677
-126,-622,3.5061,19.5251,0,0,0,0,0,0,0,-1,1098,1646,3.50616,-19.5252
-119,-622,4.06384,13.1715,0,0,0,0,0,0,0,-1,1105,1646,4.06379,-13.1716
-112,-622,4.33276,14.6605,0,0,0,0,0,0,0,-1,1112,1646,4.33281,-14.6605
-105,-622,0.306519,4.38159,0,0,0,0,0,0,0,-1,1119,1646,0.306536,-4.38159
-98,-622,-0.510376,3.5033,0,0,0,0,0,0,0,-1,1126,1646,-0.510393,-3.50324
-91,-622,-1.146,0.975952,0,0,0,0,0,0,0,-1,1133,1646,-1.14599,-0.97597
-84,-622,-2.04895,1.31787,0,0,0,0,0,0,0,-1,1140,1646,-2.0489,-1.31781
-77,-622,-1.80627,0.332275,0,0,0,0,0,0,0,-1,1147,1646,-1.80622,-0.33223
-70,-622,-3.65588,2.28149,0,0,0,0,0,0,0,-1,1154,1646,-3.65589,-2.28155
-63,-622,-2.49683,1.27087,0,0,0,0,0,0,0,-1,1161,1646,-2.49679,-1.27093
-56,-622,-2.44238,-0.575562,0,0,0,0,0,0,0,-1,1168,1646,-2.44242,0.575508
-49,-622,-2.41089,1.38818,0,0,0,0,0,0,0,-1,1175,1646,-2.41088,-1.38815
-42,-622,-2.71497,2.85242,0,0,0,0,0,0,0,-1,1182,1646,-2.71491,-2.85247
-35,-622,-3.0177,4.25842,0,0,0,0,0,0,0,-1,1189,1646,-3.01773,-4.25838
-28,-622,-0.896606,0.678833,0,0,0,0,0,0,0,-1,1196,1646,-0.89661,-0.678835
-21,-622,16.4141,36.2849,0,0,0,0,0,0,0,-1,1203,1646,16.4141,-36.285
-14,-622,4.07703,48.0946,0,0,0,0,0,0,0,-1,1210,1646,4.07706,-48.0946
-7,-622,5.14417,48.3679,0,0,0,0,0,0,0,-1,1217,1646,5.14412,-48.368
0,-622,0,0,0,0,0,0,0,0,0,-1,1224,1646,0,0
7,-622,0,0,0,0,0,0,0,0,0,-1,1231,1646,0,0
14,-622,0,0,0,0,0,0,0,0,0,-1,1238,1646,0,0
21,-622,0,0,0,0,0,0,0,0,0,-1,1245,1646,0,0
28,-622,0,0,0,0,0,0,0,0,0,-1,1252,1646,0,0
35,-622,0,0,0,0,0,0,0,0,0,-1,1259,1646,0,0
42,-622,0,0,0,0,0,0,0,0,0,-1,1266,1646,0,0
49,-622,0,0,0,0,0,0,0,0,0,-1,1273,1646,0,0
56,-622,0,0,0,0,0,0,0,0,0,-1,1280,1646,0,0
63,-622,0,0,0,0,0,0,0,0,0,-1,1287,1646,0,0
70,-622,0,0,0,0,0,0,0,0,0,-1,1294,1646,0,0
77,-622,0,0,0,0,0,0,0,0,0,-1,1301,1646,0,0
84,-622,0,0,0,0,0,0,0,0,0,-1,1308,1646,0,0
91,-622,0,0,0,0,0,0,0,0,0,-1,1315,1646,0,0
98,-622,0,0,0,0,0,0,0,0,0,-1,1322,1646,0,0
105,-622,0,0,0,0,0,0,0,0,0,-1,1329,1646,0,0
112,-622,0,0,0,0,0,0,0,0,0,-1,1336,1646,0,0
119,-622,0,0,0,0,0,0,0,0,0,-1,1343,1646,0,0
126,-622,18.5594,41.6754,0.178569,0.0782282,0.0950584,0.235884,0.0209129,0.542584,0.150769,0.0459197,1350,1646,18.5594,-41.6754
133,-622,20.032,41.7023,0,0,0,0,0,0,0,-1,1357,1646,20.032,-41.7022
140,-622,21.5211,42.0432,0.223961,0.0744509,0.126806,0.296407,0.00200497,0.519059,0.19694,0.0462792,1364,1646,21.5212,-42.0432
147,-622,22.936,42.2605,0.247529,0.0725828,0.142654,0.327393,-0.00728086,0.510369,0.220729,0.0479689,1371,1646,22.936,-42.2605
154,-622,24.4749,42.2793,0,0,0,0,0,0,0,-1,1378,1646,24.4748,-42.2793
161,-622,10.6884,6.46448,0,0,0,0,0,0,0,-1,1385,1646,10.6883,-6.46442
168,-622,12.2402,5.18091,0,0,0,0,0,0,0,-1,1392,1646,12.2403,-5.1809
175,-622,5.64355,-1.77075,0,0,0,0,0,0,0,-1,1399,1646,5.64351,1.77077
182,-622,5.88586,-1.32251,0,0,0,0,0,0,0,-1,1406,1646,5.88587,1.32256
189,-622,5.97986,-1.18005,0,0,0,0,0,0,0,-1,1413,1646,5.97986,1.18003
196,-622,5.85022,-0.244507,0,0,0,0,0,0,0,-1,1420,1646,5.85026,0.244478
203,-622,5.25159,0.138794,0,0,0,0,0,0,0,-1,1427,1646,5.25162,-0.138822
210,-622,6.66833,0.0397949,0,0,0,0,0,0,0,-1,1434,1646,6.6684,-0.0398278
217,-622,6.12061,0.0506592,0,0,0,0,0,0,0,-1,1441,1646,6.12058,-0.0507181
224,-622,5.57275,0.0616455,0,0,0,0,0,0,0,-1,1448,1646,5.57276,-0.0616084
231,-622,5.31348,1.3949,0,0,0,0,0,0,0,-1,1455,1646,5.31342,-1.39495
238,-622,3.76477,2.90686,0,0,0,0,0,0,0,-1,1462,1646,3.7648,-2.90686
245,-622,5.13794,2.67993,0,0,0,0,0,0,0,-1,1469,1646,5.13796,-2.67992
252,-622,6.66528,2.53992,0,0,0,0,0,0,0,-1,1476,1646,6.66522,-2.53991
259,-622,8.93787,3.31458,0,0,0,0,0,0,0,-1,1483,1646,8.93791,-3.31454
266,-622,5.72644,3.11926,0,0,0,0,0,0,0,-1,1490,1646,5.72647,-3.1192
273,-622,7.28076,3.61218,0,0,0,0,0,0,0,-1,1497,1646,7.28071,-3.61212
280,-622,8.43127,4.4447,0,0,0,0,0,0,0,-1,1504,1646,8.43123,-4.44467
287,-622,8.60315,5.94617,0,0,0,0,0,0,0,-1,1511,1646,8.60319,-5.94622
294,-622,7.62756,11.5143,0,0,0,0,0,0,0,-1,1518,1646,7.62762,-11.5143
301,-622,7.36548,11.6569,0,0,0,0,0,0,0,-1,1525,1646,7.36549,-11.6569
308,-622,7.10339,11.7994,0,0,0,0,0,0,0,-1,1532,1646,7.10335,-11.7995
315,-622,8.28687,16.5842,0,0,0,0,0,0,0,-1,1539,1646,8.28689,-16.5843
322,-622,7.43689,20.5786,0,0,0,0,0,0,0,-1,1546,1646,7.43685,-20.5786
329,-622,9.76477,26.4202,0,0,0,0,0,0,0,-1,1553,1646,9.7648,-26.4202
336,-622,10.4526,28.8552,0,0,0,0,0,0,0,-1,1560,1646,10.4526,-28.8552
343,-622,11.2021,31.8704,0,0,0,0,0,0,0,-1,1567,1646,11.2021,-31.8703
350,-622,12.1174,32.682,0,0,0,0,0,0,0,-1,1574,1646,12.1174,-32.682
357,-622,12.281,32.1414,0,0,0,0,0,0,0,-1,1581,1646,12.281,-32.1413
364,-622,12.139,32.1722,0.0144545,0.0222806,-0.0123883,0.0313591,0.00537595,-0.938373,0.0193645,0.039667,1588,1646,12.1391,-32.1722
371,-622,12.2103,31.4989,0.0123547,0.0194352,-0.0105095,0.0269848,0.00480521,-0.94786,0.0166213,0.0238308,1595,1646,12.2104,-31.4989
378,-622,12.1895,31.098,0.0102171,0.0167003,-0.00860431,0.0226533,0.00426399,-0.965547,0.0139006,0.0110723,1602,1646,12.1894,-31.098
385,-622,12.1823,30.7185,0.00824457,0.0138153,-0.00688665,0.0184585,0.00360131,-0.977569,0.0112982,0.0100112,1609,1646,12.1822,-30.7185
392,-622,12.1843,30.3674,0.00647967,0.0110029,-0.00531134,0.0145141,0.0029685,-0.986677,0.00885404,0.0115043,1616,1646,12.1843,-30.3675
399,-622,12.1869,30.0002,0.00492452,0.00852193,-0.00393203,0.0110471,0.00239931,-0.999914,0.00670954,0.0121325,1623,1646,12.1869,-30.0003
406,-622,12.1816,29.605,0.0035649,0.00651733,-0.00282661,0.00822999,0.00185223,-1.02604,0.0049853,0.0144843,1630,1646,12.1816,-29.605
413,-622,12.1918,29.2275,0.00249353,0.00501171,-0.00205768,0.00616495,0.00134028,-1.05996,0.00374404,0.015567,1637,1646,12.1918,-29.2275
420,-622,12.1913,28.8657,0.0015242,0.00348861,-0.00126608,0.00410881,0.000904007,-1.1153,0.00249311,0.0157758,1644,1646,12.1913,-28.8658
427,-622,12.1857,28.4453,0.000845592,0.0024837,-0.000874552,0.00286285,0.000466443,-1.16172,0.00177365,0.0135368,1651,1646,12.1857,-28.4453
434,-622,12.2004,28.0389,0.000522631,0.00202201,-0.000797349,0.00236676,0.00017788,-1.1627,0.00152201,0.0136335,1658,1646,12.2005,-28.0389
441,-622,12.1907,27.6476,0.000419823,0.00175901,-0.000841311,0.00216467,1.41683e-05,-1.12151,0.00143841,0.013642,1665,1646,12.1907,-27.6476
448,-622,12.1642,27.2679,0.000270162,0.00138678,-0.000780762,0.00178831,-0.000131372,-1.09579,0.00123832,0.0137722,1672,1646,12.1642,-27.268
455,-622,12.1431,26.8436,9.84463e-05,0.00102725,-0.000705783,0.00140772,-0.000282017,-1.07639,0.00104524,0.0163,1679,1646,12.1431,-26.8436
462,-622,12.1283,26.4288,-0.000221109,0.000530605,-0.000494723,0.000776053,-0.000466557,-1.11025,0.000724801,0.0172676,1686,1646,12.1283,-26.4288
469,-622,12.1031,26.0211,-0.00056849,6.10858e-05,-0.000228586,0.000135326,-0.00064273,-1.25676,0.000479997,0.0182267,1693,1646,12.1031,-26.0211
476,-622,12.1644,25.5966,-0.00103925,-0.000565923,0.000170178,-0.00051109,-0.00109408,1.25909,0.000632125,0.0247495,1700,1646,12.1645,-25.5965
483,-622,12.0557,25.172,-0.00179637,-0.00109425,0.000630234,-0.000723898,-0.00216672,1.03951,0.00127371,0.0382277,1707,1646,12.0557,-25.172
490,-622,12.1263,24.6837,-0.00287346,-0.0015951,0.00105883,-0.00099748,-0.00347107,1.05695,0.00206355,0.0430428,1714,1646,12.1263,-24.6837
497,-622,12.3843,24.2673,0,0,0,0,0,0,0,-1,1721,1646,12.3842,-24.2674
504,-622,10.8306,19.8021,0,0,0,0,0,0,0,-1,1728,1646,10.8306,-19.8022
511,-622,5.29004,4.14587,0,0,0,0,0,0,0,-1,1735,1646,5.29008,-4.14589
518,-622,5.6001,1.55359,0,0,0,0,0,0,0,-1,1742,1646,5.60015,-1.5536
525,-622,5.83093,2.01807,0,0,0,0,0,0,0,-1,1749,1646,5.83097,-2.01802
532,-622,5.44202,0.57373,0,0,0,0,0,0,0,-1,1756,1646,5.44196,-0.573705
539,-622,9.32129,1.06116,0,0,0,0,0,0,0,-1,1763,1646,9.32131,-1.0612
546,-622,6.50977,-3.45618,0,0,0,0,0,0,0,-1,1770,1646,6.50981,3.4562
553,-622,0,0,0,0,0,0,0,0,0,-1,1777,1646,0,0
560,-622,0,0,0,0,0,0,0,0,0,-1,1784,1646,0,0
567,-622,0,0,0,0,0,0,0,0,0,-1,1791,1646,0,0
574,-622,0,0,0,0,0,0,0,0,0,-1,1798,1646,0,0
581,-622,0,0,0,0,0,0,0,0,0,-1,1805,1646,0,0
588,-622,0,0,0,0,0,0,0,0,0,-1,1812,1646,0,0
595,-622,0,0,0,0,0,0,0,0,0,-1,1819,1646,0,0
602,-622,0,0,0,0,0,0,0,0,0,-1,1826,1646,0,0
609,-622,0,0,0,0,0,0,0,0,0,-1,1833,1646,0,0
616,-622,0,0,0,0,0,0,0,0,0,-1,1840,1646,0,0
623,-622,0,0,0,0,0,0,0,0,0,-1,1847,1646,0,0
630,-622,0,0,0,0,0,0,0,0,0,-1,1854,1646,0,0
637,-622,0,0,0,0,0,0,0,0,0,-1,1861,1646,0,0
644,-622,0,0,0,0,0,0,0,0,0,-1,1868,1646,0,0
651,-622,0,0,0,0,0,0,0,0,0,-1,1875,1646,0,0
658,-622,0,0,0,0,0,0,0,0,0,-1,1882,1646,0,0
665,-622,0,0,0,0,0,0,0,0,0,-1,1889,1646,0,0
672,-622,0,0,0,0,0,0,0,0,0,-1,1896,1646,0,0
679,-622,0,0,0,0,0,0,0,0,0,-1,1903,1646,0,0
686,-622,0,0,0,0,0,0,0,0,0,-1,1910,1646,0,0
693,-622,0,0,0,0,0,0,0,0,0,-1,1917,1646,0,0
700,-622,0,0,0,0,0,0,0,0,0,-1,1924,1646,0,0
707,-622,0,0,0,0,0,0,0,0,0,-1,1931,1646,0,0
714,-622,0,0,0,0,0,0,0,0,0,-1,1938,1646,0,0
721,-622,0,0,0,0,0,0,0,0,0,-1,1945,1646,0,0
728,-622,0,0,0,0,0,0,0,0,0,-1,1952,1646,0,0
735,-622,0,0,0,0,0,0,0,0,0,-1,1959,1646,0,0
742,-622,0,0,0,0,0,0,0,0,0,-1,1966,1646,0,0
749,-622,0,0,0,0,0,0,0,0,0,-1,1973,1646,0,0
756,-622,0,0,0,0,0,0,0,0,0,-1,1980,1646,0,0
763,-622,0,0,0,0,0,0,0,0,0,-1,1987,1646,0,0
770,-622,0,0,0,0,0,0,0,0,0,-1,1994,1646,0,0
777,-622,0,0,0,0,0,0,0,0,0,-1,2001,1646,0,0
784,-622,0,0,0,0,0,0,0,0,0,-1,2008,1646,0,0
791,-622,0,0,0,0,0,0,0,0,0,-1,2015,1646,0,0
798,-622,0,0,0,0,0,0,0,0,0,-1,2022,1646,0,0
805,-622,0,0,0,0,0,0,0,0,0,-1,2029,1646,0,0
812,-622,0,0,0,0,0,0,0,0,0,-1,2036,1646,0,0
-700,-629,0,0,0,0,0,0,0,0,0,-1,524,1653,0,0
-693,-629,0,0,0,0,0,0,0,0,0,-1,531,1653,0,0
-686,-629,0,0,0,0,0,0,0,0,0,-1,538,1653,0,0
-679,-629,0,0,0,0,0,0,0,0,0,-1,545,1653,0,0
-672,-629,0,0,0,0,0,0,0,0,0,-1,552,1653,0,0
-665,-629,0,0,0,0,0,0,0,0,0,-1,559,1653,0,0
-658,-629,0,0,0,0,0,0,0,0,0,-1,566,1653,0,0
-651,-629,0,0,0,0,0,0,0,0,0,-1,573,1653,0,0
-644,-629,0,0,0,0,0,0,0,0,0,-1,580,1653,0,0
-637,-629,0,0,0,0,0,0,0,0,0,-1,587,1653,0,0
-630,-629,0,0,0,0,0,0,0,0,0,-1,594,1653,0,0
-623,-629,0,0,0,0,0,0,0,0,0,-1,601,1653,0,0
-616,-629,0,0,0,0,0,0,0,0,0,-1,608,1653,0,0
-609,-629,0,0,0,0,0,0,0,0,0,-1,615,1653,0,0
-602,-629,0,0,0,0,0,0,0,0,0,-1,622,1653,0,0
-595,-629,0,0,0,0,0,0,0,0,0,-1,629,1653,0,0
-588,-629,0,0,0,0,0,0,0,0,0,-1,636,1653,0,0
-581,-629,0,0,0,0,0,0,0,0,0,-1,643,1653,0,0
-574,-629,0,0,0,0,0,0,0,0,0,-1,650,1653,0,0
-567,-629,0,0,0,0,0,0,0,0,0,-1,657,1653,0,0
-560,-629,0,0,0,0,0,0,0,0,0,-1,664,1653,0,0
-553,-629,0,0,0,0,0,0,0,0,0,-1,671,1653,0,0
-546,-629,0,0,0,0,0,0,0,0,0,-1,678,1653,0,0
-539,-629,0,0,0,0,0,0,0,0,0,-1,685,1653,0,0
-532,-629,0,0,0,0,0,0,0,0,0,-1,692,1653,0,0
-525,-629,0,0,0,0,0,0,0,0,0,-1,699,1653,0,0
-518,-629,0,0,0,0,0,0,0,0,0,-1,706,1653,0,0
-511,-629,0,0,0,0,0,0,0,0,0,-1,713,1653,0,0
-504,-629,0,0,0,0,0,0,0,0,0,-1,720,1653,0,0
-497,-629,0,0,0,0,0,0,0,0,0,-1,727,1653,0,0
-490,-629,0,0,0,0,0,0,0,0,0,-1,734,1653,0,0
-483,-629,0,0,0,0,0,0,0,0,0,-1,741,1653,0,0
-476,-629,0,0,0,0,0,0,0,0,0,-1,748,1653,0,0
-469,-629,0,0,0,0,0,0,0,0,0,-1,755,1653,0,0
-462,-629,0,0,0,0,0,0,0,0,0,-1,762,1653,0,0
-455,-629,0,0,0,0,0,0,0,0,0,-1,769,1653,0,0
-448,-629,0,0,0,0,0,0,0,0,0,-1,776,1653,0,0
-441,-629,0,0,0,0,0,0,0,0,0,-1,783,1653,0,0
-434,-629,0,0,0,0,0,0,0,0,0,-1,790,1653,0,0
-427,-629,0,0,0,0,0,0,0,0,0,-1,797,1653,0,0
-420,-629,-3.87103,3.37634,0,0,0,0,0,0,0,-1,804,1653,-3.87101,-3.37633
-413,-629,-5.69751,1.33582,0,0,0,0,0,0,0,-1,811,1653,-5.69754,-1.3358
-406,-629,2.85406,6.01501,0,0,0,0,0,0,0,-1,818,1653,2.85405,-6.01507
-399,-629,-0.455627,10.8687,0,0,0,0,0,0,0,-1,825,1653,-0.455625,-10.8687
-392,-629,1.15369,11.1295,0,0,0,0,0,0,0,-1,832,1653,1.1537,-11.1295
-385,-629,1.81976,11.6935,0,0,0,0,0,0,0,-1,839,1653,1.81975,-11.6935
-378,-629,2.19452,14.7941,0,0,0,0,0,0,0,-1,846,1653,2.19451,-14.7941
-371,-629,3.60114,14.7299,0,0,0,0,0,0,0,-1,853,1653,3.60113,-14.7299
-364,-629,3.26898,21.0801,0,0,0,0,0,0,0,-1,860,1653,3.26895,-21.08
-357,-629,4.38782,16.3444,0,0,0,0,0,0,0,-1,867,1653,4.38783,-16.3443
-350,-629,3.85437,24.528,0,0,0,0,0,0,0,-1,874,1653,3.85434,-24.528
-343,-629,3.87518,24.9462,0.00335913,-0.000224807,0.00273076,0.00483338,-0.00169906,0.495031,0.00391354,0.0402317,881,1653,3.87517,-24.9462
-336,-629,3.95099,25.2742,0.00357067,0.000120498,0.00255293,0.00492672,-0.00123555,0.488273,0.00376453,0.0204163,888,1653,3.95097,-25.2742
-329,-629,3.99225,25.7113,0.00334841,0.000562719,0.0022821,0.00462914,-0.000718011,0.511406,0.00335117,0.0124238,895,1653,3.99223,-25.7113
-322,-629,3.96893,26.1605,0.00293329,0.000788506,0.00203802,0.00416384,-0.000442047,0.543208,0.00293436,0.0125364,902,1653,3.96894,-26.1606
-315,-629,3.93671,26.6013,0.00241028,0.000757034,0.00166813,0.00344537,-0.000278053,0.555362,0.00239498,0.0159265,909,1653,3.93671,-26.6013
-308,-629,3.92908,27.0211,0.00197797,0.000760445,0.00128652,0.00279249,-5.40756e-05,0.564416,0.00187994,0.0129897,916,1653,3.92908,-27.0211
-301,-629,3.92926,27.4684,0.001677,0.00074443,0.00100055,0.00231458,0.00010685,0.567347,0.0015087,0.0122471,923,1653,3.92927,-27.4684
-294,-629,3.89899,27.8949,0.00157099,0.000887028,0.000946546,0.00223544,0.000222581,0.612047,0.00142192,0.0132765,930,1653,3.89899,-27.895
-287,-629,3.88428,28.3025,0.00156641,0.00121319,0.000988143,0.0023936,0.000385999,0.696969,0.0014839,0.010004,937,1653,3.88426,-28.3025
-280,-629,3.88751,28.7141,0.00171564,0.00154208,0.00116693,0.00279901,0.000458706,0.748282,0.00173346,0.0104207,944,1653,3.88752,-28.7141
-273,-629,3.87463,29.1039,0.00198391,0.00190053,0.00139995,0.00334279,0.000541648,0.770513,0.00207171,0.0143128,951,1653,3.87465,-29.1039
-266,-629,3.85303,29.5094,0.00237162,0.00235682,0.00175091,0.00411515,0.000613293,0.783285,0.00256357,0.0140379,958,1653,3.85303,-29.5094
-259,-629,3.83716,29.9395,0.00287104,0.00287967,0.00213602,0.00501138,0.00073933,0.786409,0.00312378,0.0152897,965,1653,3.83718,-29.9395
-252,-629,3.83771,30.3138,0.00340546,0.00354432,0.00257182,0.00604764,0.000902134,0.798893,0.00376723,0.0118738,972,1653,3.83768,-30.3138
-245,-629,3.86511,30.6874,0.00383716,0.00419787,0.0029689,0.00699189,0.00104315,0.815735,0.00435538,0.00882651,979,1653,3.86513,-30.6874
-238,-629,3.85999,31.0667,0.00433261,0.00460623,0.00324581,0.00771812,0.00122073,0.806461,0.00479063,0.0112894,986,1653,3.86001,-31.0666
-231,-629,3.82263,31.4325,0.00494216,0.00521271,0.00358509,0.00866508,0.00148979,0.804255,0.00534972,0.01633,993,1653,3.82264,-31.4325
-224,-629,3.92706,31.939,0.00532696,0.00600915,0.0038261,0.00950933,0.00182678,0.829855,0.00582687,0.0209118,1000,1653,3.92708,-31.9389
-217,-629,3.87415,32.2413,0.00296346,0.00752309,0.0052717,0.0109868,-0.000500275,0.989485,0.00749688,0.0355472,1007,1653,3.87417,-32.2414
-210,-629,3.72552,32.9719,0,0,0,0,0,0,0,-1,1014,1653,3.72553,-32.972
-203,-629,4.15796,33.1616,0,0,0,0,0,0,0,-1,1021,1653,4.15795,-33.1617
-196,-629,4.37524,33.5387,0,0,0,0,0,0,0,-1,1028,1653,4.37527,-33.5387
-189,-629,4.19263,33.6576,0,0,0,0,0,0,0,-1,1035,1653,4.19261,-33.6576
-182,-629,4.26208,34.3567,0,0,0,0,0,0,0,-1,1042,1653,4.26209,-34.3567
-175,-629,4.69446,33.0199,0,0,0,0,0,0,0,-1,1049,1653,4.69444,-33.0199
-168,-629,5.24719,36.3514,0,0,0,0,0,0,0,-1,1056,1653,5.24716,-36.3514
-161,-629,3.43225,35.5999,0,0,0,0,0,0,0,-1,1063,1653,3.43225,-35.5999
-154,-629,2.03271,35.3698,0,0,0,0,0,0,0,-1,1070,1653,2.03275,-35.3697
-147,-629,3.39771,34.4545,0,0,0,0,0,0,0,-1,1077,1653,3.39767,-34.4545
-140,-629,2.34851,19.2911,0,0,0,0,0,0,0,-1,1084,1653,2.34853,-19.2911
-133,-629,3.41248,17.6686,0,0,0,0,0,0,0,-1,1091,1653,3.41243,-17.6686
-126,-629,4.01025,19.5328,0,0,0,0,0,0,0,-1,1098,1653,4.01022,-19.5328
-119,-629,4.94177,13.5525,0,0,0,0,0,0,0,-1,1105,1653,4.94172,-13.5525
-112,-629,5.63123,15.9187,0,0,0,0,0,0,0,-1,1112,1653,5.63118,-15.9187
-105,-629,2.15881,4.38342,0,0,0,0,0,0,0,-1,1119,1653,2.15878,-4.38347
-98,-629,0.825806,4.19385,0,0,0,0,0,0,0,-1,1126,1653,0.825779,-4.1939
-91,-629,-0.452271,3.64465,0,0,0,0,0,0,0,-1,1133,1653,-0.452278,-3.6446
-84,-629,-2.6084,0.466797,0,0,0,0,0,0,0,-1,1140,1653,-2.6084,-0.466786
-77,-629,-3.50903,2.10706,0,0,0,0,0,0,0,-1,1147,1653,-3.509,-2.10707
-70,-629,-1.20886,2.52502,0,0,0,0,0,0,0,-1,1154,1653,-1.20886,-2.525
-63,-629,-0.960693,4.30212,0,0,0,0,0,0,0,-1,1161,1653,-0.960691,-4.30215
-56,-629,-1.31934,5.64343,0,0,0,0,0,0,0,-1,1168,1653,-1.31928,-5.6434
-49,-629,-2.15662,2.57458,0,0,0,0,0,0,0,-1,1175,1653,-2.15656,-2.57459
-42,-629,-2.46326,3.91467,0,0,0,0,0,0,0,-1,1182,1653,-2.4633,-3.91466
-35,-629,-2.67261,5.24292,0,0,0,0,0,0,0,-1,1189,1653,-2.67257,-5.24298
-28,-629,-0.402954,-0.866577,0,0,0,0,0,0,0,-1,1196,1653,-0.402943,0.866612
-21,-629,3.45508,27.0596,0,0,0,0,0,0,0,-1,1203,1653,3.45508,-27.0596
-14,-629,4.33289,47.7219,0,0,0,0,0,0,0,-1,1210,1653,4.33283,-47.7219
-7,-629,5.245,47.2828,0,0,0,0,0,0,0,-1,1217,1653,5.24505,-47.2828
0,-629,6.15723,46.8436,0,0,0,0,0,0,0,-1,1224,1653,6.15726,-46.8436
7,-629,0.887573,44.4568,0,0,0,0,0,0,0,-1,1231,1653,0.887551,-44.4568
14,-629,2.43616,45.7863,0.416625,0.151108,-0.0141635,0.417379,0.150354,-0.053142,0.244092,0.044215,1238,1653,2.43621,-45.7863
21,-629,4.16638,46.9608,0,0,0,0,0,0,0,-1,1245,1653,4.16642,-46.9608
28,-629,6.1875,47.8707,0,0,0,0,0,0,0,-1,1252,1653,6.18753,-47.8707
35,-629,4.96826,49.1757,0,0,0,0,0,0,0,-1,1259,1653,4.96827,-49.1756
42,-629,6.01025,50.4615,0.574664,0.151494,-0.139858,0.616709,0.109449,-0.292034,0.379948,0.0454552,1266,1653,6.01022,-50.4616
49,-629,7.09521,51.7272,0.565784,0.141236,-0.141651,0.608707,0.0983131,-0.294222,0.377327,0.0457944,1273,1653,7.09524,-51.7272
56,-629,10.4879,37.171,0.534536,0.129103,-0.130667,0.572999,0.0906392,-0.286278,0.355657,0.0463404,1280,1653,10.4879,-37.171
63,-629,10.5918,38.6633,0,0,0,0,0,0,0,-1,1287,1653,10.5919,-38.6633
70,-629,10.9404,40.2473,0.43344,0.112882,-0.0912722,0.457606,0.0887162,-0.25883,0.28022,0.044308,1294,1653,10.9405,-40.2473
77,-629,11.0741,41.1683,0,0,0,0,0,0,0,-1,1301,1653,11.0742,-41.1683
84,-629,10.9622,41.9928,0,0,0,0,0,0,0,-1,1308,1653,10.9622,-41.9928
91,-629,11.7834,41.7687,0.273544,0.0950469,-0.0111665,0.27424,0.0943511,-0.0622351,0.160879,0.045023,1315,1653,11.7834,-41.7687
98,-629,12.3088,41.9125,0.240232,0.0883155,0.010783,0.240993,0.087554,0.0705086,0.14086,0.0474276,1322,1653,12.3088,-41.9125
105,-629,12.9045,42.0668,0.184392,0.0815953,0.0467495,0.202473,0.0635149,0.369034,0.119572,0.0483274,1329,1653,12.9045,-42.0668
112,-629,13.3777,42.4431,0.13631,0.0852202,0.0774618,0.19233,0.0291999,0.626127,0.11968,0.0463361,1336,1653,13.3777,-42.4431
119,-629,13.8391,42.7645,0,0,0,0,0,0,0,-1,1343,1653,13.8391,-42.7645
126,-629,17.5284,41.5413,0,0,0,0,0,0,0,-1,1350,1653,17.5284,-41.5413
133,-629,18.6483,41.6185,0,0,0,0,0,0,0,-1,1357,1653,18.6484,-41.6186
140,-629,19.9105,41.8854,0.225118,0.0900573,0.113359,0.289537,0.0256384,0.516764,0.185072,0.0449104,1364,1653,19.9106,-41.8854
147,-629,21.567,41.8246,0.251563,0.0902834,0.126356,0.320819,0.0210277,0.501382,0.207226,0.0473464,1371,1653,21.567,-41.8246
154,-629,23.1279,41.8068,0,0,0,0,0,0,0,-1,1378,1653,23.1279,-41.8068
161,-629,10.5461,6.83752,0,0,0,0,0,0,0,-1,1385,1653,10.5461,-6.83758
168,-629,12.0059,5.56348,0,0,0,0,0,0,0,-1,1392,1653,12.0059,-5.56352
175,-629,5.84485,-1.78845,0,0,0,0,0,0,0,-1,1399,1653,5.84479,1.7884
182,-629,5.99036,-1.27783,0,0,0,0,0,0,0,-1,1406,1653,5.99041,1.27778
189,-629,5.97668,-0.748535,0,0,0,0,0,0,0,-1,1413,1653,5.97671,0.748544
196,-629,4.52869,9.24695,0,0,0,0,0,0,0,-1,1420,1653,4.52869,-9.2469
203,-629,3.75085,6.88037,0,0,0,0,0,0,0,-1,1427,1653,3.75087,-6.88032
210,-629,3.5907,6.52637,0,0,0,0,0,0,0,-1,1434,1653,3.59067,-6.52642
217,-629,2.4585,4.84448,0,0,0,0,0,0,0,-1,1441,1653,2.45855,-4.84448
224,-629,1.31982,3.68481,0,0,0,0,0,0,0,-1,1448,1653,1.31986,-3.68487
231,-629,3.63025,1.73499,0,0,0,0,0,0,0,-1,1455,1653,3.6303,-1.735
238,-629,4.26428,2.11255,0,0,0,0,0,0,0,-1,1462,1653,4.26429,-2.11253
245,-629,5.61816,1.95361,0,0,0,0,0,0,0,-1,1469,1653,5.61815,-1.95359
252,-629,7.27136,2.18982,0,0,0,0,0,0,0,-1,1476,1653,7.27131,-2.18985
259,-629,8.67334,2.18628,0,0,0,0,0,0,0,-1,1483,1653,8.6733,-2.18633
266,-629,6.86475,3.72058,0,0,0,0,0,0,0,-1,1490,1653,6.86479,-3.72063
273,-629,7.9021,3.8717,0,0,0,0,0,0,0,-1,1497,1653,7.90205,-3.87171
280,-629,9.70837,4.39087,0,0,0,0,0,0,0,-1,1504,1653,9.7084,-4.39082
287,-629,9.82947,7.19348,0,0,0,0,0,0,0,-1,1511,1653,9.8295,-7.19347
294,-629,6.56555,11.6359,0,0,0,0,0,0,0,-1,1518,1653,6.5656,-11.6358
301,-629,6.93835,15.6102,0,0,0,0,0,0,0,-1,1525,1653,6.93835,-15.6103
308,-629,6.08264,12.1423,0,0,0,0,0,0,0,-1,1532,1653,6.08263,-12.1423
315,-629,6.82043,18.2764,0,0,0,0,0,0,0,-1,1539,1653,6.82049,-18.2764
322,-629,10.3922,29.9829,0,0,0,0,0,0,0,-1,1546,1653,10.3922,-29.9829
329,-629,11.6624,33.7928,0,0,0,0,0,0,0,-1,1553,1653,11.6624,-33.7929
336,-629,11.7976,33.2528,0,0,0,0,0,0,0,-1,1560,1653,11.7976,-33.2528
343,-629,11.572,33.121,0,0,0,0,0,0,0,-1,1567,1653,11.5721,-33.1209
350,-629,11.7249,32.6108,0.01266,0.0206818,-0.0109413,0.0283241,0.00501758,-0.961084,0.0174523,0.02948,1574,1653,11.7248,-32.6108
357,-629,11.8414,32.146,0.0117173,0.0183641,-0.00990237,0.0254859,0.00459548,-0.947301,0.0156848,0.0163297,1581,1653,11.8415,-32.1459
364,-629,11.8262,31.7826,0.0104735,0.0164531,-0.00874234,0.0227027,0.00422386,-0.950159,0.0139421,0.0140286,1588,1653,11.8262,-31.7826
371,-629,11.8163,31.4369,0.00904658,0.0144248,-0.00754928,0.0197496,0.00372176,-0.956494,0.0121178,0.0109108,1595,1653,11.8163,-31.4369
378,-629,11.8101,31.0717,0.00758008,0.0123808,-0.00628402,0.0167073,0.00325359,-0.967836,0.0102277,0.00999933,1602,1653,11.8101,-31.0717
385,-629,11.8202,30.7184,0.00621466,0.0101023,-0.00509367,0.0136104,0.00270651,-0.967676,0.00831952,0.0125449,1609,1653,11.8202,-30.7184
392,-629,11.8085,30.37,0.00495748,0.00784061,-0.00401613,0.0106661,0.00213203,-0.957709,0.00651732,0.0116861,1616,1653,11.8084,-30.37
399,-629,11.8047,29.9976,0.00375952,0.00575587,-0.00298307,0.00790333,0.00161205,-0.946849,0.00482221,0.0119831,1623,1653,11.8047,-29.9975
406,-629,11.8196,29.6157,0.00269266,0.00414191,-0.0021216,0.00565922,0.00117535,-0.949961,0.00344846,0.0148852,1630,1653,11.8196,-29.6158
413,-629,11.8187,29.2754,0.00185657,0.00295897,-0.00153883,0.00404234,0.000773197,-0.957376,0.00247771,0.023705,1637,1653,11.8187,-29.2754
420,-629,11.7813,28.9177,0.00110329,0.00183069,-0.000968663,0.00250168,0.000432301,-0.964988,0.00154399,0.0216171,1644,1653,11.7812,-28.9177
427,-629,11.786,28.486,0.000605237,0.00117967,-0.000737755,0.00168414,0.00010076,-0.971026,0.00109073,0.0139363,1651,1653,11.786,-28.4859
434,-629,11.8019,28.071,0.000336749,0.00100672,-0.00072642,0.00147167,-0.000128204,-1.00144,0.00102652,0.0115047,1658,1653,11.8019,-28.0711
441,-629,11.7936,27.6857,0.000240588,0.00105129,-0.000812308,0.00155377,-0.00026189,-1.01683,0.00113327,0.0148322,1665,1653,11.7936,-27.6857
448,-629,11.7684,27.2572,0.000117513,0.00102724,-0.000808164,0.00149976,-0.000355001,-1.04172,0.0011368,0.0151335,1672,1653,11.7684,-27.2572
455,-629,11.7467,26.8317,-1.98278e-05,0.00106154,-0.000790167,0.0014783,-0.00043659,-1.08544,0.00115881,0.0153503,1679,1653,11.7467,-26.8316
462,-629,11.729,26.4502,-0.000303178,0.000987538,-0.000645526,0.00125497,-0.000570613,-1.17803,0.00107841,0.0173266,1686,1653,11.729,-26.4502
469,-629,11.7047,26.0269,-0.00058682,0.000840491,-0.000441201,0.00096586,-0.000712189,-1.29394,0.000972505,0.0212919,1693,1653,11.7048,-26.0268
476,-629,11.8496,25.7052,-0.000999755,0.000457502,-8.0571e-05,0.000461943,-0.0010042,-1.51573,0.000865559,0.0387006,1700,1653,11.8496,-25.7052
483,-629,11.624,25.2625,0,0,0,0,0,0,0,-1,1707,1653,11.624,-25.2624
490,-629,12.0134,24.4554,0,0,0,0,0,0,0,-1,1714,1653,12.0134,-24.4555
497,-629,10.3662,19.8605,0,0,0,0,0,0,0,-1,1721,1653,10.3662,-19.8605
504,-629,7.89453,15.5316,0,0,0,0,0,0,0,-1,1728,1653,7.89447,-15.5316
511,-629,6.29138,3.40295,0,0,0,0,0,0,0,-1,1735,1653,6.29137,-3.403
518,-629,5.84387,1.41858,0,0,0,0,0,0,0,-1,1742,1653,5.84391,-1.4186
525,-629,6.4729,1.02319,0,0,0,0,0,0,0,-1,1749,1653,6.47284,-1.02316
532,-629,6.86511,0.903687,0,0,0,0,0,0,0,-1,1756,1653,6.86514,-0.903691
539,-629,6.60803,0.746704,0,0,0,0,0,0,0,-1,1763,1653,6.60809,-0.746691
546,-629,0,0,0,0,0,0,0,0,0,-1,1770,1653,0,0
553,-629,0,0,0,0,0,0,0,0,0,-1,1777,1653,0,0
560,-629,0,0,0,0,0,0,0,0,0,-1,1784,1653,0,0
567,-629,0,0,0,0,0,0,0,0,0,-1,1791,1653,0,0
574,-629,0,0,0,0,0,0,0,0,0,-1,1798,1653,0,0
581,-629,0,0,0,0,0,0,0,0,0,-1,1805,1653,0,0
588,-629,0,0,0,0,0,0,0,0,0,-1,1812,1653,0,0
595,-629,0,0,0,0,0,0,0,0,0,-1,1819,1653,0,0
602,-629,0,0,0,0,0,0,0,0,0,-1,1826,1653,0,0
609,-629,0,0,0,0,0,0,0,0,0,-1,1833,1653,0,0
616,-629,0,0,0,0,0,0,0,0,0,-1,1840,1653,0,0
623,-629,0,0,0,0,0,0,0,0,0,-1,1847,1653,0,0
630,-629,0,0,0,0,0,0,0,0,0,-1,1854,1653,0,0
637,-629,0,0,0,0,0,0,0,0,0,-1,1861,1653,0,0
644,-629,0,0,0,0,0,0,0,0,0,-1,1868,1653,0,0
651,-629,0,0,0,0,0,0,0,0,0,-1,1875,1653,0,0
658,-629,0,0,0,0,0,0,0,0,0,-1,1882,1653,0,0
665,-629,0,0,0,0,0,0,0,0,0,-1,1889,1653,0,0
672,-629,0,0,0,0,0,0,0,0,0,-1,1896,1653,0,0
679,-629,0,0,0,0,0,0,0,0,0,-1,1903,1653,0,0
686,-629,0,0,0,0,0,0,0,0,0,-1,1910,1653,0,0
693,-629,0,0,0,0,0,0,0,0,0,-1,1917,1653,0,0
700,-629,0,0,0,0,0,0,0,0,0,-1,1924,1653,0,0
707,-629,0,0,0,0,0,0,0,0,0,-1,1931,1653,0,0
714,-629,0,0,0,0,0,0,0,0,0,-1,1938,1653,0,0
721,-629,0,0,0,0,0,0,0,0,0,-1,1945,1653,0,0
728,-629,0,0,0,0,0,0,0,0,0,-1,1952,1653,0,0
735,-629,0,0,0,0,0,0,0,0,0,-1,1959,1653,0,0
742,-629,0,0,0,0,0,0,0,0,0,-1,1966,1653,0,0
749,-629,0,0,0,0,0,0,0,0,0,-1,1973,1653,0,0
756,-629,0,0,0,0,0,0,0,0,0,-1,1980,1653,0,0
763,-629,0,0,0,0,0,0,0,0,0,-1,1987,1653,0,0
770,-629,0,0,0,0,0,0,0,0,0,-1,1994,1653,0,0
777,-629,0,0,0,0,0,0,0,0,0,-1,2001,1653,0,0
784,-629,0,0,0,0,0,0,0,0,0,-1,2008,1653,0,0
791,-629,0,0,0,0,0,0,0,0,0,-1,2015,1653,0,0
798,-629,0,0,0,0,0,0,0,0,0,-1,2022,1653,0,0
805,-629,0,0,0,0,0,0,0,0,0,-1,2029,1653,0,0
812,-629,0,0,0,0,0,0,0,0,0,-1,2036,1653,0,0
-700,-636,0,0,0,0,0,0,0,0,0,-1,524,1660,0,0
-693,-636,0,0,0,0,0,0,0,0,0,-1,531,1660,0,0
-686,-636,0,0,0,0,0,0,0,0,0,-1,538,1660,0,0
-679,-636,0,0,0,0,0,0,0,0,0,-1,545,1660,0,0
-672,-636,0,0,0,0,0,0,0,0,0,-1,552,1660,0,0
-665,-636,0,0,0,0,0,0,0,0,0,-1,559,1660,0,0
-658,-636,0,0,0,0,0,0,0,0,0,-1,566,1660,0,0
-651,-636,0,0,0,0,0,0,0,0,0,-1,573,1660,0,0
-644,-636,0,0,0,0,0,0,0,0,0,-1,580,1660,0,0
-637,-636,0,0,0,0,0,0,0,0,0,-1,587,1660,0,0
-630,-636,0,0,0,0,0,0,0,0,0,-1,594,1660,0,0
-623,-636,0,0,0,0,0,0,0,0,0,-1,601,1660,0,0
-616,-636,0,0,0,0,0,0,0,0,0,-1,608,1660,0,0
-609,-636,0,0,0,0,0,0,0,0,0,-1,615,1660,0,0
-602,-636,0,0,0,0,0,0,0,0,0,-1,622,1660,0,0
-595,-636,0,0,0,0,0,0,0,0,0,-1,629,1660,0,0
-588,-636,0,0,0,0,0,0,0,0,0,-1,636,1660,0,0
-581,-636,0,0,0,0,0,0,0,0,0,-1,643,1660,0,0
-574,-636,0,0,0,0,0,0,0,0,0,-1,650,1660,0,0
-567,-636,0,0,0,0,0,0,0,0,0,-1,657,1660,0,0
-560,-636,0,0,0,0,0,0,0,0,0,-1,664,1660,0,0
-553,-636,0,0,0,0,0,0,0,0,0,-1,671,1660,0,0
-546,-636,0,0,0,0,0,0,0,0,0,-1,678,1660,0,0
-539,-636,0,0,0,0,0,0,0,0,0,-1,685,1660,0,0
-532,-636,0,0,0,0,0,0,0,0,0,-1,692,1660,0,0
-525,-636,0,0,0,0,0,0,0,0,0,-1,699,1660,0,0
-518,-636,0,0,0,0,0,0,0,0,0,-1,706,1660,0,0
-511,-636,0,0,0,0,0,0,0,0,0,-1,713,1660,0,0
-504,-636,0,0,0,0,0,0,0,0,0,-1,720,1660,0,0
-497,-636,0,0,0,0,0,0,0,0,0,-1,727,1660,0,0
-490,-636,0,0,0,0,0,0,0,0,0,-1,734,1660,0,0
-483,-636,0,0,0,0,0,0,0,0,0,-1,741,1660,0,0
-476,-636,0,0,0,0,0,0,0,0,0,-1,748,1660,0,0
-469,-636,0,0,0,0,0,0,0,0,0,-1,755,1660,0,0
-462,-636,0,0,0,0,0,0,0,0,0,-1,762,1660,0,0
-455,-636,0,0,0,0,0,0,0,0,0,-1,769,1660,0,0
-448,-636,0,0,0,0,0,0,0,0,0,-1,776,1660,0,0
-441,-636,0,0,0,0,0,0,0,0,0,-1,783,1660,0,0
-434,-636,0,0,0,0,0,0,0,0,0,-1,790,1660,0,0
-427,-636,0,0,0,0,0,0,0,0,0,-1,797,1660,0,0
-420,-636,0,0,0,0,0,0,0,0,0,-1,804,1660,0,0
-413,-636,0,0,0,0,0,0,0,0,0,-1,811,1660,0,0
-406,-636,-0.591125,10.6943,0,0,0,0,0,0,0,-1,818,1660,-0.59115,-10.6943
-399,-636,0.0766602,11.2408,0,0,0,0,0,0,0,-1,825,1660,0.076685,-11.2409
-392,-636,0.75946,11.9233,0,0,0,0,0,0,0,-1,832,1660,0.759481,-11.9233
-385,-636,1.68878,12.517,0,0,0,0,0,0,0,-1,839,1660,1.6888,-12.5169
-378,-636,2.22107,13.0013,0,0,0,0,0,0,0,-1,846,1660,2.22107,-13.0014
-371,-636,2.52185,11.9684,0,0,0,0,0,0,0,-1,853,1660,2.52184,-11.9684
-364,-636,4.51947,14.8503,0,0,0,0,0,0,0,-1,860,1660,4.51949,-14.8504
-357,-636,4.55682,15.8809,0,0,0,0,0,0,0,-1,867,1660,4.55681,-15.8808
-350,-636,2.63104,14.4946,0,0,0,0,0,0,0,-1,874,1660,2.63102,-14.4946
-343,-636,4.28308,24.8713,0,0,0,0,0,0,0,-1,881,1660,4.28306,-24.8714
-336,-636,4.33972,25.2582,0.00547992,0.000941312,0.00353397,0.00741046,-0.000989225,0.499983,0.0053009,0.0341417,888,1660,4.33971,-25.2581
-329,-636,4.41284,25.6769,0.00484313,0.00113115,0.00303559,0.00654516,-0.000570876,0.511015,0.00456565,0.0200985,895,1660,4.41281,-25.6768
-322,-636,4.40375,26.1527,0.00402425,0.00107484,0.00260826,0.00554583,-0.000446744,0.528104,0.00385478,0.012964,902,1660,4.40377,-26.1527
-315,-636,4.34625,26.599,0.00312819,0.000720332,0.00205413,0.00430521,-0.000456684,0.520329,0.00303384,0.0130225,909,1660,4.34627,-26.599
-308,-636,4.34363,27.0309,0.00237854,0.000457937,0.00146645,0.00317113,-0.000334659,0.49551,0.00223401,0.0110773,916,1660,4.34366,-27.0309
-301,-636,4.34668,27.4872,0.00177814,0.000233405,0.000950592,0.00223059,-0.000219044,0.444236,0.00156519,0.0118283,923,1660,4.34669,-27.4871
-294,-636,4.29675,27.9197,0.00140197,0.000218009,0.000685119,0.00171543,-9.54549e-05,0.4291,0.00117673,0.0157516,930,1660,4.29677,-27.9197
-287,-636,4.28461,28.2997,0.00117118,0.000402741,0.000572286,0.00147626,9.76591e-05,0.489771,0.000953288,0.0135166,937,1660,4.2846,-28.2996
-280,-636,4.30286,28.6902,0.00110996,0.000625589,0.000611176,0.00152518,0.000210362,0.59676,0.000954427,0.0123774,944,1660,4.30288,-28.6902
-273,-636,4.28174,29.0961,0.00118726,0.000957821,0.000720381,0.001802,0.000343082,0.706437,0.00110487,0.0125187,951,1660,4.28176,-29.0961
-266,-636,4.26001,29.5054,0.00144077,0.00136481,0.000980264,0.00238379,0.000421792,0.766034,0.00146892,0.0135544,958,1660,4.25998,-29.5053
-259,-636,4.23883,29.9219,0.00179224,0.00178297,0.00125217,0.00303979,0.000535421,0.783547,0.00187373,0.0150976,965,1660,4.23885,-29.9219
-252,-636,4.22369,30.2964,0.00221096,0.0023939,0.00159127,0.00389632,0.000708534,0.814108,0.00239654,0.0118235,972,1660,4.22368,-30.2964
-245,-636,4.25275,30.712,0.00260274,0.00300413,0.00191268,0.00472662,0.000880254,0.83767,0.0029025,0.0110996,979,1660,4.25277,-30.712
-238,-636,4.25848,31.0894,0.00303686,0.00343731,0.00216465,0.00541097,0.0010632,0.831515,0.00331033,0.0118452,986,1660,4.25846,-31.0893
-231,-636,4.25281,31.4493,0.00357615,0.00395962,0.00248196,0.00625724,0.00127853,0.823948,0.00381737,0.0112734,993,1660,4.25281,-31.4494
-224,-636,4.26404,31.8158,0.00397927,0.00461187,0.00269788,0.00701192,0.00157922,0.843752,0.00424723,0.01026,1000,1660,4.26403,-31.8158
-217,-636,4.24225,32.2537,0.00232513,0.00581229,0.00378663,0.00823748,-0.000100059,1.00116,0.00552531,0.0182162,1007,1660,4.24227,-32.2537
-210,-636,4.23987,32.6078,-0.000584887,0.00735679,0.00402508,0.00904005,-0.00226815,1.17471,0.006908,0.0305209,1014,1660,4.23986,-32.6078
-203,-636,4.26111,33.0151,0,0,0,0,0,0,0,-1,1021,1660,4.26113,-33.0151
-196,-636,4.45007,33.3026,-0.0064026,0.0101089,0.00427491,0.0111501,-0.00744374,1.3319,0.010806,0.0362129,1028,1660,4.45011,-33.3027
-189,-636,4.40771,33.5698,-0.0109538,0.0119727,0.00444533,0.0128044,-0.0117856,1.38583,0.0142011,0.0329508,1035,1660,4.40776,-33.5698
-182,-636,4.51685,34.0984,-0.0162229,0.0137592,0.00499636,0.0145699,-0.0170336,1.40994,0.0182648,0.0455552,1042,1660,4.51679,-34.0984
-175,-636,6.97559,34.5269,0,0,0,0,0,0,0,-1,1049,1660,6.97553,-34.5268
-168,-636,5.65308,34.9575,-0.0287404,0.0181799,0.00553315,0.0188236,-0.0293841,1.45499,0.0280545,0.0462113,1056,1660,5.65304,-34.9575
-161,-636,4.23962,35.2198,-0.03478,0.0197922,0.00523677,0.0202902,-0.035278,1.47599,0.032469,0.0456218,1063,1660,4.23968,-35.2199
-154,-636,3.84082,34.6628,0,0,0,0,0,0,0,-1,1070,1660,3.84086,-34.6628
-147,-636,4.32129,31.4845,0,0,0,0,0,0,0,-1,1077,1660,4.32127,-31.4845
-140,-636,3.4729,27.1271,0,0,0,0,0,0,0,-1,1084,1660,3.47287,-27.1271
-133,-636,4.68311,18.0922,0,0,0,0,0,0,0,-1,1091,1660,4.68316,-18.0921
-126,-636,3.79028,18.2225,0,0,0,0,0,0,0,-1,1098,1660,3.79025,-18.2226
-119,-636,1.8667,13.8916,0,0,0,0,0,0,0,-1,1105,1660,1.86668,-13.8916
-112,-636,-1.24963,9.7998,0,0,0,0,0,0,0,-1,1112,1660,-1.24968,-9.79978
-105,-636,3.51624,4.72791,0,0,0,0,0,0,0,-1,1119,1660,3.51618,-4.7279
-98,-636,1.54504,5.11914,0,0,0,0,0,0,0,-1,1126,1660,1.54503,-5.11912
-91,-636,-1.87964,-2.25012,0,0,0,0,0,0,0,-1,1133,1660,-1.87966,2.25016
-84,-636,-2.84143,0.133667,0,0,0,0,0,0,0,-1,1140,1660,-2.84144,-0.133701
-77,-636,-3.57349,2.45935,0,0,0,0,0,0,0,-1,1147,1660,-3.57345,-2.45939
-70,-636,-4.23682,4.82312,0,0,0,0,0,0,0,-1,1154,1660,-4.23681,-4.82307
-63,-636,-2.21033,6.97168,0,0,0,0,0,0,0,-1,1161,1660,-2.21034,-6.97165
-56,-636,-2.51917,8.80359,0,0,0,0,0,0,0,-1,1168,1660,-2.51916,-8.80361
-49,-636,-3.13,10.4113,0,0,0,0,0,0,0,-1,1175,1660,-3.12996,-10.4112
-42,-636,-2.27771,4.90173,0,0,0,0,0,0,0,-1,1182,1660,-2.27775,-4.90173
-35,-636,-2.27698,5.89685,0,0,0,0,0,0,0,-1,1189,1660,-2.27695,-5.89686
-28,-636,-1.70654,4.83936,0,0,0,0,0,0,0,-1,1196,1660,-1.70656,-4.8393
-21,-636,4.24683,27.7834,0,0,0,0,0,0,0,-1,1203,1660,4.24687,-27.7835
-14,-636,4.13171,46.9071,0,0,0,0,0,0,0,-1,1210,1660,4.1317,-46.9071
-7,-636,5.05115,46.6147,0,0,0,0,0,0,0,-1,1217,1660,5.05114,-46.6147
0,-636,6.70007,47.113,0,0,0,0,0,0,0,-1,1224,1660,6.70005,-47.113
7,-636,1.48889,44.2294,0,0,0,0,0,0,0,-1,1231,1660,1.48885,-44.2294
14,-636,2.64246,45.0338,0,0,0,0,0,0,0,-1,1238,1660,2.64251,-45.0338
21,-636,3.53674,45.812,0,0,0,0,0,0,0,-1,1245,1660,3.53669,-45.812
28,-636,4.68359,46.9105,0,0,0,0,0,0,0,-1,1252,1660,4.68356,-46.9105
35,-636,5.66882,47.9348,0.435401,0.159126,-0.0733044,0.453646,0.140881,-0.243938,0.268106,0.0463727,1259,1660,5.66883,-47.9348
42,-636,6.65344,49.0488,0.443866,0.151642,-0.0880875,0.468365,0.127143,-0.271265,0.279668,0.0474258,1266,1660,6.6534,-49.0489
49,-636,8.2926,49.9236,0.4361,0.140349,-0.0905966,0.461645,0.114803,-0.274837,0.277527,0.0489467,1273,1660,8.29257,-49.9235
56,-636,10.2466,37.145,0.411673,0.126887,-0.0836108,0.434406,0.104154,-0.265471,0.261883,0.0446231,1280,1660,10.2466,-37.1451
63,-636,10.0947,38.2676,0.372866,0.117016,-0.0695627,0.390557,0.0993258,-0.249026,0.234386,0.0454027,1287,1660,10.0947,-38.2676
70,-636,9.98975,39.2682,0.329617,0.108173,-0.0521917,0.341301,0.0964882,-0.220244,0.203158,0.0452351,1294,1660,9.98973,-39.2682
77,-636,10.3871,40.686,0,0,0,0,0,0,0,-1,1301,1660,10.3871,-40.6861
84,-636,11.3256,41.168,0.237474,0.0956057,-0.00887026,0.238027,0.0950532,-0.0622016,0.13835,0.0467668,1308,1660,11.3256,-41.168
91,-636,11.7587,41.1351,0.206873,0.0920105,0.0104718,0.20782,0.0910636,0.0901777,0.12029,0.0428299,1315,1660,11.7586,-41.1351
98,-636,12.1471,41.0968,0.185377,0.0889044,0.0270495,0.192443,0.0818378,0.255538,0.11152,0.0472468,1322,1660,12.1471,-41.0968
105,-636,12.5475,41.2823,0.151266,0.0866529,0.0520358,0.180209,0.0577106,0.507592,0.106261,0.0495562,1329,1660,12.5475,-41.2824
112,-636,13.3816,41.5199,0.12835,0.0916756,0.0718632,0.184178,0.0358469,0.66048,0.112752,0.0497157,1336,1660,13.3816,-41.5199
119,-636,14.2561,41.4672,0,0,0,0,0,0,0,-1,1343,1660,14.2561,-41.4671
126,-636,16.2754,41.1886,0.170785,0.099521,0.0812916,0.223911,0.0463951,0.578847,0.136464,0.0473855,1350,1660,16.2754,-41.1885
133,-636,17.4839,41.1809,0,0,0,0,0,0,0,-1,1357,1660,17.4839,-41.1809
140,-636,18.5542,41.3505,0.22437,0.106691,0.0997587,0.281349,0.0497124,0.518949,0.173387,0.0450563,1364,1660,18.5542,-41.3505
147,-636,19.7842,41.3646,0.255149,0.110098,0.109414,0.313892,0.051355,0.49272,0.194417,0.044775,1371,1660,19.7842,-41.3647
154,-636,21.069,41.5184,0,0,0,0,0,0,0,-1,1378,1660,21.069,-41.5185
161,-636,10.2961,7.13025,0,0,0,0,0,0,0,-1,1385,1660,10.2961,-7.13021
168,-636,11.7659,5.83899,0,0,0,0,0,0,0,-1,1392,1660,11.7658,-5.83899
175,-636,5.94592,-1.72888,0,0,0,0,0,0,0,-1,1399,1660,5.94598,1.72886
182,-636,5.93994,-1.11938,0,0,0,0,0,0,0,-1,1406,1660,5.93998,1.11936
189,-636,5.32544,11.9595,0,0,0,0,0,0,0,-1,1413,1660,5.32542,-11.9595
196,-636,5.3623,9.38025,0,0,0,0,0,0,0,-1,1420,1660,5.36225,-9.38027
203,-636,5.18542,9.02429,0,0,0,0,0,0,0,-1,1427,1660,5.18547,-9.0243
210,-636,4.09167,7.17041,0,0,0,0,0,0,0,-1,1434,1660,4.09173,-7.17041
217,-636,2.94897,5.28992,0,0,0,0,0,0,0,-1,1441,1660,2.94899,-5.28991
224,-636,1.49194,3.63916,0,0,0,0,0,0,0,-1,1448,1660,1.49197,-3.63918
231,-636,0.17749,2.24854,0,0,0,0,0,0,0,-1,1455,1660,0.177501,-2.24855
238,-636,-0.764648,1.00598,0,0,0,0,0,0,0,-1,1462,1660,-0.764704,-1.00595
245,-636,6.21204,1.18005,0,0,0,0,0,0,0,-1,1469,1660,6.21206,-1.18001
252,-636,7.70251,0.865723,0,0,0,0,0,0,0,-1,1476,1660,7.7025,-0.865692
259,-636,9.03601,0.787231,0,0,0,0,0,0,0,-1,1483,1660,9.03598,-0.787243
266,-636,10.1071,3.24109,0,0,0,0,0,0,0,-1,1490,1660,10.1071,-3.24103
273,-636,8.48535,5.02466,0,0,0,0,0,0,0,-1,1497,1660,8.48533,-5.02472
280,-636,11.908,32.0698,0,0,0,0,0,0,0,-1,1504,1660,11.9079,-32.0698
287,-636,11.3475,36.5228,0,0,0,0,0,0,0,-1,1511,1660,11.3475,-36.5228
294,-636,11.2698,36.2024,0,0,0,0,0,0,0,-1,1518,1660,11.2698,-36.2024
301,-636,11.2433,35.6395,0,0,0,0,0,0,0,-1,1525,1660,11.2433,-35.6395
308,-636,11.0266,35.1484,0,0,0,0,0,0,0,-1,1532,1660,11.0267,-35.1485
315,-636,11.2394,34.5731,0,0,0,0,0,0,0,-1,1539,1660,11.2394,-34.5731
322,-636,11.1757,33.6362,0,0,0,0,0,0,0,-1,1546,1660,11.1756,-33.6363
329,-636,11.3668,33.4752,0.0106063,0.0229045,-0.00695664,0.0260401,0.00747065,-1.14733,0.0154828,0.0385479,1553,1660,11.3669,-33.4752
336,-636,11.4213,33.1411,0.00980945,0.0202528,-0.00711348,0.0238553,0.00620686,-1.10201,0.0142912,0.0291649,1560,1660,11.4213,-33.1411
343,-636,11.3712,32.9142,0.00931769,0.0168903,-0.00756143,0.0215604,0.00464757,-1.01752,0.0131021,0.0241131,1567,1660,11.3712,-32.9142
350,-636,11.3656,32.5347,0.00882677,0.0145718,-0.00725651,0.0195036,0.00389489,-0.97386,0.0119182,0.0126089,1574,1660,11.3656,-32.5347
357,-636,11.4225,32.147,0.00826859,0.0129378,-0.00669848,0.0176969,0.00350954,-0.95308,0.0108195,0.0105427,1581,1660,11.4225,-32.147
364,-636,11.4388,31.7883,0.00745505,0.0115533,-0.0059998,0.0158442,0.0031641,-0.949954,0.00968203,0.0111015,1588,1660,11.4389,-31.7883
371,-636,11.446,31.4464,0.00649081,0.0100367,-0.00526052,0.013815,0.0027125,-0.947934,0.00845219,0.00944648,1595,1660,11.446,-31.4465
378,-636,11.4604,31.0856,0.00552608,0.00843225,-0.00444236,0.0116531,0.00230519,-0.943462,0.00712575,0.0095929,1602,1660,11.4605,-31.0855
385,-636,11.4688,30.715,0.00462874,0.00656477,-0.00362227,0.00934614,0.00184737,-0.915967,0.00571537,0.0157845,1609,1660,11.4688,-30.715
392,-636,11.4518,30.3479,0.00377231,0.00471093,-0.00291537,0.00719452,0.00128872,-0.865202,0.00442971,0.0175356,1616,1660,11.4518,-30.3478
399,-636,11.4441,30.0022,0.00285489,0.00298445,-0.00216872,0.00508936,0.000749981,-0.800328,0.0031726,0.0133051,1623,1660,11.4441,-30.0022
406,-636,11.4578,29.636,0.00203165,0.00174815,-0.0015331,0.00342954,0.000350268,-0.739299,0.00217901,0.0152216,1630,1660,11.4578,-29.636
413,-636,11.4454,29.2853,0.00139836,0.000915864,-0.00113459,0.00231706,-2.83774e-06,-0.680643,0.00154565,0.0237818,1637,1660,11.4454,-29.2853
420,-636,11.3932,28.9161,0.000832014,0.000248531,-0.000803613,0.0013952,-0.000314659,-0.611277,0.00105084,0.0228712,1644,1660,11.3932,-28.9162
427,-636,11.3953,28.5129,0.000484646,4.71104e-05,-0.000751814,0.00104887,-0.000517119,-0.643815,0.000921338,0.0133114,1651,1660,11.3953,-28.513
434,-636,11.4003,28.113,0.000248182,0.000292144,-0.000832844,0.0011033,-0.000562971,-0.798591,0.000978735,0.0123765,1658,1660,11.4002,-28.113
441,-636,11.3994,27.6968,0.000116934,0.000775326,-0.000998183,0.0014972,-0.000604936,-0.94468,0.00124958,0.012478,1665,1660,11.3994,-27.6968
448,-636,11.3949,27.2874,-3.53713e-05,0.00126624,-0.00107956,0.00187599,-0.000645121,-1.05665,0.00151228,0.0147166,1672,1660,11.3948,-27.2874
455,-636,11.3412,26.9059,-0.000185853,0.00190542,-0.00112363,0.00239467,-0.000675109,-1.16013,0.00186272,0.0162069,1679,1660,11.3412,-26.9059
462,-636,11.3346,26.4957,-0.000459267,0.00240748,-0.00102935,0.0027388,-0.000790581,-1.2594,0.00213867,0.0205907,1686,1660,11.3346,-26.4957
469,-636,11.3025,26.0299,-0.000704716,0.00272026,-0.00084745,0.00291848,-0.000902931,-1.34103,0.00230632,0.0322004,1693,1660,11.3025,-26.0299
476,-636,11.4926,25.7904,0,0,0,0,0,0,0,-1,1700,1660,11.4925,-25.7903
483,-636,11.3833,24.3958,0,0,0,0,0,0,0,-1,1707,1660,11.3833,-24.3957
490,-636,10.8951,23.9569,0,0,0,0,0,0,0,-1,1714,1660,10.8951,-23.9569
497,-636,9.55579,18.0111,0,0,0,0,0,0,0,-1,1721,1660,9.55574,-18.0111
504,-636,6.26428,19.4268,0,0,0,0,0,0,0,-1,1728,1660,6.26433,-19.4268
511,-636,5.65466,9.23218,0,0,0,0,0,0,0,-1,1735,1660,5.65461,-9.23216
518,-636,6.72791,1.07605,0,0,0,0,0,0,0,-1,1742,1660,6.7279,-1.0761
525,-636,7.04309,0.93335,0,0,0,0,0,0,0,-1,1749,1660,7.04308,-0.933298
532,-636,0,0,0,0,0,0,0,0,0,-1,1756,1660,0,0
539,-636,0,0,0,0,0,0,0,0,0,-1,1763,1660,0,0
546,-636,0,0,0,0,0,0,0,0,0,-1,1770,1660,0,0
553,-636,0,0,0,0,0,0,0,0,0,-1,1777,1660,0,0
560,-636,0,0,0,0,0,0,0,0,0,-1,1784,1660,0,0
567,-636,0,0,0,0,0,0,0,0,0,-1,1791,1660,0,0
574,-636,0,0,0,0,0,0,0,0,0,-1,1798,1660,0,0
581,-636,0,0,0,0,0,0,0,0,0,-1,1805,1660,0,0
588,-636,0,0,0,0,0,0,0,0,0,-1,1812,1660,0,0
595,-636,0,0,0,0,0,0,0,0,0,-1,1819,1660,0,0
602,-636,0,0,0,0,0,0,0,0,0,-1,1826,1660,0,0
609,-636,0,0,0,0,0,0,0,0,0,-1,1833,1660,0,0
616,-636,0,0,0,0,0,0,0,0,0,-1,1840,1660,0,0
623,-636,0,0,0,0,0,0,0,0,0,-1,1847,1660,0,0
630,-636,0,0,0,0,0,0,0,0,0,-1,1854,1660,0,0
637,-636,0,0,0,0,0,0,0,0,0,-1,1861,1660,0,0
644,-636,0,0,0,0,0,0,0,0,0,-1,1868,1660,0,0
651,-636,0,0,0,0,0,0,0,0,0,-1,1875,1660,0,0
658,-636,0,0,0,0,0,0,0,0,0,-1,1882,1660,0,0
665,-636,0,0,0,0,0,0,0,0,0,-1,1889,1660,0,0
672,-636,0,0,0,0,0,0,0,0,0,-1,1896,1660,0,0
679,-636,0,0,0,0,0,0,0,0,0,-1,1903,1660,0,0
686,-636,0,0,0,0,0,0,0,0,0,-1,1910,1660,0,0
693,-636,0,0,0,0,0,0,0,0,0,-1,1917,1660,0,0
700,-636,0,0,0,0,0,0,0,0,0,-1,1924,1660,0,0
707,-636,0,0,0,0,0,0,0,0,0,-1,1931,1660,0,0
714,-636,0,0,0,0,0,0,0,0,0,-1,1938,1660,0,0
721,-636,0,0,0,0,0,0,0,0,0,-1,1945,1660,0,0
728,-636,0,0,0,0,0,0,0,0,0,-1,1952,1660,0,0
735,-636,0,0,0,0,0,0,0,0,0,-1,1959,1660,0,0
742,-636,0,0,0,0,0,0,0,0,0,-1,1966,1660,0,0
749,-636,0,0,0,0,0,0,0,0,0,-1,1973,1660,0,0
756,-636,0,0,0,0,0,0,0,0,0,-1,1980,1660,0,0
763,-636,0,0,0,0,0,0,0,0,0,-1,1987,1660,0,0
770,-636,0,0,0,0,0,0,0,0,0,-1,1994,1660,0,0
777,-636,0,0,0,0,0,0,0,0,0,-1,2001,1660,0,0
784,-636,0,0,0,0,0,0,0,0,0,-1,2008,1660,0,0
791,-636,0,0,0,0,0,0,0,0,0,-1,2015,1660,0,0
798,-636,0,0,0,0,0,0,0,0,0,-1,2022,1660,0,0
805,-636,0,0,0,0,0,0,0,0,0,-1,2029,1660,0,0
812,-636,0,0,0,0,0,0,0,0,0,-1,2036,1660,0,0
-700,-643,0,0,0,0,0,0,0,0,0,-1,524,1667,0,0
-693,-643,0,0,0,0,0,0,0,0,0,-1,531,1667,0,0
-686,-643,0,0,0,0,0,0,0,0,0,-1,538,1667,0,0
-679,-643,0,0,0,0,0,0,0,0,0,-1,545,1667,0,0
-672,-643,0,0,0,0,0,0,0,0,0,-1,552,1667,0,0
-665,-643,0,0,0,0,0,0,0,0,0,-1,559,1667,0,0
-658,-643,0,0,0,0,0,0,0,0,0,-1,566,1667,0,0
-651,-643,0,0,0,0,0,0,0,0,0,-1,573,1667,0,0
-644,-643,0,0,0,0,0,0,0,0,0,-1,580,1667,0,0
-637,-643,0,0,0,0,0,0,0,0,0,-1,587,1667,0,0
-630,-643,0,0,0,0,0,0,0,0,0,-1,594,1667,0,0
-623,-643,0,0,0,0,0,0,0,0,0,-1,601,1667,0,0
-616,-643,0,0,0,0,0,0,0,0,0,-1,608,1667,0,0
-609,-643,0,0,0,0,0,0,0,0,0,-1,615,1667,0,0
-602,-643,0,0,0,0,0,0,0,0,0,-1,622,1667,0,0
-595,-643,0,0,0,0,0,0,0,0,0,-1,629,1667,0,0
-588,-643,0,0,0,0,0,0,0,0,0,-1,636,1667,0,0
-581,-643,0,0,0,0,0,0,0,0,0,-1,643,1667,0,0
-574,-643,0,0,0,0,0,0,0,0,0,-1,650,1667,0,0
-567,-643,0,0,0,0,0,0,0,0,0,-1,657,1667,0,0
-560,-643,0,0,0,0,0,0,0,0,0,-1,664,1667,0,0
-553,-643,0,0,0,0,0,0,0,0,0,-1,671,1667,0,0
-546,-643,0,0,0,0,0,0,0,0,0,-1,678,1667,0,0
-539,-643,0,0,0,0,0,0,0,0,0,-1,685,1667,0,0
-532,-643,0,0,0,0,0,0,0,0,0,-1,692,1667,0,0
-525,-643,0,0,0,0,0,0,0,0,0,-1,699,1667,0,0
-518,-643,0,0,0,0,0,0,0,0,0,-1,706,1667,0,0
-511,-643,0,0,0,0,0,0,0,0,0,-1,713,1667,0,0
-504,-643,0,0,0,0,0,0,0,0,0,-1,720,1667,0,0
-497,-643,0,0,0,0,0,0,0,0,0,-1,727,1667,0,0
-490,-643,0,0,0,0,0,0,0,0,0,-1,734,1667,0,0
-483,-643,0,0,0,0,0,0,0,0,0,-1,741,1667,0,0
-476,-643,0,0,0,0,0,0,0,0,0,-1,748,1667,0,0
-469,-643,0,0,0,0,0,0,0,0,0,-1,755,1667,0,0
-462,-643,0,0,0,0,0,0,0,0,0,-1,762,1667,0,0
-455,-643,0,0,0,0,0,0,0,0,0,-1,769,1667,0,0
-448,-643,0,0,0,0,0,0,0,0,0,-1,776,1667,0,0
-441,-643,0,0,0,0,0,0,0,0,0,-1,783,1667,0,0
-434,-643,0,0,0,0,0,0,0,0,0,-1,790,1667,0,0
-427,-643,0,0,0,0,0,0,0,0,0,-1,797,1667,0,0
-420,-643,0,0,0,0,0,0,0,0,0,-1,804,1667,0,0
-413,-643,0,0,0,0,0,0,0,0,0,-1,811,1667,0,0
-406,-643,0,0,0,0,0,0,0,0,0,-1,818,1667,0,0
-399,-643,0.589417,11.6465,0,0,0,0,0,0,0,-1,825,1667,0.58939,-11.6465
-392,-643,0.865295,12.6523,0,0,0,0,0,0,0,-1,832,1667,0.865315,-12.6523
-385,-643,1.72968,13.2692,0,0,0,0,0,0,0,-1,839,1667,1.72967,-13.2692
-378,-643,2.66522,13.8193,0,0,0,0,0,0,0,-1,846,1667,2.66524,-13.8193
-371,-643,0.466125,3.35095,0,0,0,0,0,0,0,-1,853,1667,0.466148,-3.351
-364,-643,1.69513,9.922,0,0,0,0,0,0,0,-1,860,1667,1.69511,-9.92205
-357,-643,1.14227,10.8429,0,0,0,0,0,0,0,-1,867,1667,1.14228,-10.8429
-350,-643,2.50061,9.96948,0,0,0,0,0,0,0,-1,874,1667,2.50059,-9.96954
-343,-643,2.61505,6.17407,0,0,0,0,0,0,0,-1,881,1667,2.61504,-6.17412
-336,-643,4.50079,25.4166,0,0,0,0,0,0,0,-1,888,1667,4.50081,-25.4166
-329,-643,4.59076,25.7859,0.00692552,0.00202529,0.0040682,0.00922443,-0.00027363,0.514358,0.00624283,0.0398975,895,1667,4.59074,-25.7859
-322,-643,4.79645,26.1392,0.00556284,0.00158448,0.00338079,0.00749623,-0.00034892,0.519484,0.00511776,0.0275336,902,1667,4.79644,-26.1391
-315,-643,4.73737,26.5951,0.00418622,0.000797676,0.0025673,0.00556791,-0.000584019,0.493731,0.00392114,0.0164423,909,1667,4.7374,-26.5951
-308,-643,4.74921,27.0242,0.00302723,0.000183234,0.00171647,0.00383421,-0.000623744,0.439475,0.00278742,0.0119893,916,1667,4.74919,-27.0242
-301,-643,4.76672,27.4845,0.00205748,-0.000311778,0.000934941,0.00238198,-0.000636274,0.334068,0.00183718,0.0138758,923,1667,4.76672,-27.4845
-294,-643,4.71198,27.8949,0.00139268,-0.000416109,0.000517553,0.0015303,-0.000553728,0.259888,0.00124647,0.0129397,930,1667,4.71199,-27.8949
-287,-643,4.70154,28.2822,0.000920716,-0.000351702,0.000289038,0.000983295,-0.000414281,0.213217,0.000828884,0.0106922,937,1667,4.70156,-28.2823
-280,-643,4.69287,28.6801,0.000629596,-0.000202555,0.000229942,0.000688907,-0.000261866,0.252436,0.000567085,0.0141895,944,1667,4.69284,-28.6801
-273,-643,4.67993,29.0944,0.000515482,0.000150557,0.000260992,0.000651467,1.45712e-05,0.480333,0.000429537,0.0124259,951,1667,4.67992,-29.0944
-266,-643,4.65479,29.5028,0.000649566,0.000560876,0.000476966,0.00108424,0.000126198,0.739045,0.000684651,0.0122985,958,1667,4.65479,-29.5028
-259,-643,4.64258,29.9034,0.000869465,0.00091611,0.000667867,0.00156106,0.000224514,0.802851,0.000974529,0.0119354,965,1667,4.64258,-29.9034
-252,-643,4.63068,30.3157,0.00119416,0.00150635,0.000932474,0.0022957,0.000404805,0.868329,0.00141497,0.0128159,972,1667,4.63067,-30.3157
-245,-643,4.62872,30.7209,0.00155873,0.00210872,0.00118776,0.00305291,0.000614546,0.899155,0.00186449,0.0118418,979,1667,4.62872,-30.7209
-238,-643,4.6568,31.0847,0.00193915,0.00258832,0.00139416,0.00369518,0.000832292,0.899769,0.00223821,0.0144323,986,1667,4.65679,-31.0847
-231,-643,4.62939,31.4696,0.00241182,0.00304113,0.00165046,0.00440666,0.00104629,0.879592,0.00265855,0.0108619,993,1667,4.62939,-31.4696
-224,-643,4.62903,31.8187,0.00282349,0.00354422,0.00179903,0.00501862,0.00134909,0.884246,0.00299897,0.00979007,1000,1667,4.62901,-31.8188
-217,-643,4.62036,32.1451,0.00172291,0.00445857,0.00256675,0.0059992,0.000182281,1.03021,0.00394011,0.00882367,1007,1667,4.62035,-32.1451
-210,-643,4.62378,32.5352,-0.000247843,0.00566393,0.00270247,0.00671311,-0.00129703,1.20048,0.00496455,0.0119243,1014,1667,4.62378,-32.5352
-203,-643,4.63879,32.9702,-0.00175066,0.00640239,0.00269881,0.00721479,-0.00256307,1.2784,0.00585433,0.0167277,1021,1667,4.6388,-32.9702
-196,-643,4.65356,33.3031,-0.0039872,0.00767286,0.00289011,0.0083499,-0.00466424,1.34068,0.0076135,0.0157854,1028,1667,4.65353,-33.3032
-189,-643,4.73682,33.5834,-0.00687087,0.00913629,0.00312545,0.0097249,-0.00745948,1.38465,0.0099501,0.0149188,1035,1667,4.73686,-33.5834
-182,-643,4.79041,33.9614,-0.0102645,0.0104679,0.00349807,0.0110422,-0.0108388,1.40807,0.0126332,0.0215171,1042,1667,4.79045,-33.9614
-175,-643,4.90442,34.4325,-0.0141389,0.0118908,0.00373299,0.0124156,-0.0146636,1.43113,0.0156522,0.0337141,1049,1667,4.90445,-34.4325
-168,-643,4.93787,34.677,-0.0181302,0.0135159,0.0038843,0.0139857,-0.0186,1.45043,0.0188761,0.040716,1056,1667,4.9379,-34.6771
-161,-643,4.75513,34.8868,-0.0218108,0.0148067,0.0037458,0.0151859,-0.02219,1.46989,0.0217049,0.0441394,1063,1667,4.7551,-34.8868
-154,-643,4.65466,34.8834,-0.025105,0.0153836,0.00364461,0.0157091,-0.0254305,1.48173,0.023972,0.0489557,1070,1667,4.65464,-34.8834
-147,-643,4.84167,35.4048,0,0,0,0,0,0,0,-1,1077,1667,4.84171,-35.4048
-140,-643,4.30322,22.9166,0,0,0,0,0,0,0,-1,1084,1667,4.30327,-22.9167
-133,-643,3.66748,21.6034,0,0,0,0,0,0,0,-1,1091,1667,3.66743,-21.6034
-126,-643,3.13904,17.689,0,0,0,0,0,0,0,-1,1098,1667,3.13909,-17.689
-119,-643,3.76282,14.1458,0,0,0,0,0,0,0,-1,1105,1667,3.76283,-14.1458
-112,-643,3.81458,16.2069,0,0,0,0,0,0,0,-1,1112,1667,3.81463,-16.2069
-105,-643,-2.23413,10.0996,0,0,0,0,0,0,0,-1,1119,1667,-2.23415,-10.0996
-98,-643,3.11035,4.68066,0,0,0,0,0,0,0,-1,1126,1667,3.11041,-4.68071
-91,-643,-1.74146,-2.5885,0,0,0,0,0,0,0,-1,1133,1667,-1.74146,2.58856
-84,-643,-3.07446,-0.199341,0,0,0,0,0,0,0,-1,1140,1667,-3.07449,0.199383
-77,-643,-3.63794,2.81165,0,0,0,0,0,0,0,-1,1147,1667,-3.63791,-2.8117
-70,-643,-3.36938,4.45203,0,0,0,0,0,0,0,-1,1154,1667,-3.36941,-4.452
-63,-643,-3.67822,6.26855,0,0,0,0,0,0,0,-1,1161,1667,-3.67823,-6.26856
-56,-643,-3.95142,8.1073,0,0,0,0,0,0,0,-1,1168,1667,-3.95139,-8.10732
-49,-643,-4.23535,9.90552,0,0,0,0,0,0,0,-1,1175,1667,-4.23537,-9.90557
-42,-643,-4.25195,10.7059,0,0,0,0,0,0,0,-1,1182,1667,-4.25192,-10.706
-35,-643,-4.10986,11.6588,0,0,0,0,0,0,0,-1,1189,1667,-4.10982,-11.6589
-28,-643,-1.38513,5.604,0,0,0,0,0,0,0,-1,1196,1667,-1.3851,-5.60403
-21,-643,1.61011,23.1276,0,0,0,0,0,0,0,-1,1203,1667,1.61011,-23.1275
-14,-643,9.65405,39.0527,0,0,0,0,0,0,0,-1,1210,1667,9.65405,-39.0527
-7,-643,5.29456,46.0009,0.133702,0.138713,0.150312,0.28654,-0.014125,0.793732,0.195905,0.0497723,1217,1667,5.2946,-46.0009
0,-643,6.40308,46.1277,0.165283,0.154167,0.113395,0.273256,0.0461939,0.76091,0.168892,0.0490189,1224,1667,6.40304,-46.1277
7,-643,6.89038,46.8628,0,0,0,0,0,0,0,-1,1231,1667,6.89037,-46.8628
14,-643,2.97241,43.8208,0,0,0,0,0,0,0,-1,1238,1667,2.97241,-43.8208
21,-643,4.03333,44.6493,0.28684,0.169805,0.00553791,0.287101,0.169544,0.0471782,0.166661,0.044817,1245,1667,4.03331,-44.6493
28,-643,5.28003,45.6168,0.314577,0.167119,-0.0201992,0.317294,0.164402,-0.133702,0.18323,0.0453398,1252,1667,5.28004,-45.6168
35,-643,6.36255,46.6951,0.330987,0.16011,-0.0376303,0.338907,0.15219,-0.207437,0.196006,0.0434985,1259,1667,6.3626,-46.6951
42,-643,7.71814,47.7944,0.335291,0.151553,-0.0491822,0.347628,0.139216,-0.245763,0.202024,0.0450911,1266,1667,7.71818,-47.7944
49,-643,8.64771,48.7578,0.328296,0.140298,-0.0517693,0.341609,0.126984,-0.251706,0.19938,0.0429766,1273,1667,8.64775,-48.7578
56,-643,9.62073,49.7451,0,0,0,0,0,0,0,-1,1280,1667,9.62068,-49.7451
63,-643,9.58862,38.1824,0.282443,0.115446,-0.0397126,0.291406,0.106484,-0.221973,0.170263,0.0449037,1287,1667,9.58863,-38.1824
70,-643,9.8623,39.3363,0.249233,0.105343,-0.0262704,0.253879,0.100697,-0.175052,0.147618,0.0472537,1294,1667,9.86233,-39.3363
77,-643,9.99756,40.2405,0.215897,0.0974793,-0.00997385,0.216732,0.0966452,-0.0834424,0.125374,0.0491022,1301,1667,9.99761,-40.2405
84,-643,10.7416,40.6555,0.180321,0.0908095,0.00601438,0.180723,0.0904072,0.0667913,0.10434,0.0491851,1308,1667,10.7415,-40.6556
91,-643,11.2596,40.8124,0.158284,0.087353,0.0205892,0.163827,0.0818098,0.262994,0.0945858,0.0463375,1315,1667,11.2596,-40.8124
98,-643,11.9916,40.7362,0.144633,0.0858602,0.0331654,0.159558,0.0709351,0.42287,0.0923093,0.0471551,1322,1667,11.9916,-40.7362
105,-643,12.4249,40.947,0.124814,0.085862,0.0506653,0.159618,0.0510584,0.601902,0.0941275,0.049279,1329,1667,12.4249,-40.9471
112,-643,12.8457,41.1189,0,0,0,0,0,0,0,-1,1336,1667,12.8456,-41.1189
119,-643,13.7808,40.7869,0.13632,0.0954651,0.0669053,0.185846,0.0459381,0.637235,0.111777,0.0455515,1343,1667,13.7807,-40.7868
126,-643,14.9034,40.8414,0.158317,0.0991894,0.0713039,0.205943,0.0515634,0.588876,0.123742,0.0451385,1350,1667,14.9034,-40.8415
133,-643,15.9355,40.9441,0,0,0,0,0,0,0,-1,1357,1667,15.9355,-40.9441
140,-643,17.3137,40.7671,0.208913,0.105219,0.0854611,0.257024,0.0571076,0.512743,0.155842,0.0463459,1364,1667,17.3137,-40.7671
147,-643,18.3007,40.6195,0.232038,0.105568,0.0928228,0.281118,0.056488,0.486385,0.171709,0.0448166,1371,1667,18.3006,-40.6195
154,-643,19.5807,40.7314,0,0,0,0,0,0,0,-1,1378,1667,19.5807,-40.7315
161,-643,5.57935,26.2754,0,0,0,0,0,0,0,-1,1385,1667,5.57931,-26.2754
168,-643,10.5563,10.9818,0,0,0,0,0,0,0,-1,1392,1667,10.5562,-10.9819
175,-643,5.88525,-1.1698,0,0,0,0,0,0,0,-1,1399,1667,5.88526,1.16977
182,-643,5.80945,-0.418701,0,0,0,0,0,0,0,-1,1406,1667,5.80949,0.418712
189,-643,5.42297,12.9208,0,0,0,0,0,0,0,-1,1413,1667,5.42298,-12.9208
196,-643,5.51953,11.2415,0,0,0,0,0,0,0,-1,1420,1667,5.51948,-11.2414
203,-643,5.60828,9.82153,0,0,0,0,0,0,0,-1,1427,1667,5.60833,-9.82148
210,-643,4.73218,7.58728,0,0,0,0,0,0,0,-1,1434,1667,4.73222,-7.58728
217,-643,3.8031,5.28955,0,0,0,0,0,0,0,-1,1441,1667,3.80305,-5.28955
224,-643,2.96436,2.97095,0,0,0,0,0,0,0,-1,1448,1667,2.96432,-2.97095
231,-643,2.13403,1.08472,0,0,0,0,0,0,0,-1,1455,1667,2.13403,-1.08467
238,-643,1.18152,-0.261963,0,0,0,0,0,0,0,-1,1462,1667,1.18152,0.26192
245,-643,-0.157471,-1.79016,0,0,0,0,0,0,0,-1,1469,1667,-0.157517,1.7901
252,-643,8.08789,0.0202637,0,0,0,0,0,0,0,-1,1476,1667,8.08791,-0.0203056
259,-643,9.02979,-0.46936,0,0,0,0,0,0,0,-1,1483,1667,9.02974,0.46933
266,-643,4.55066,5.17554,0,0,0,0,0,0,0,-1,1490,1667,4.55063,-5.17556
273,-643,10.74,31.432,0,0,0,0,0,0,0,-1,1497,1667,10.7399,-31.4319
280,-643,10.4285,35.7067,0,0,0,0,0,0,0,-1,1504,1667,10.4285,-35.7067
287,-643,11.0822,36.0919,0.0133991,0.0425667,-0.000924678,0.042596,0.0133698,-1.53914,0.0251543,0.0475434,1511,1667,11.0822,-36.0919
294,-643,10.9996,35.7704,0.0113935,0.0373613,-0.0013794,0.0374344,0.0113204,-1.51788,0.0221682,0.0440681,1518,1667,10.9996,-35.7704
301,-643,10.9568,35.2178,0.00980846,0.0316624,-0.00173785,0.0317998,0.00967112,-1.49194,0.0188233,0.0466839,1525,1667,10.9568,-35.2178
308,-643,10.8607,34.671,0.00841089,0.0259423,-0.0017748,0.0261202,0.00823303,-1.47091,0.01542,0.0479392,1532,1667,10.8607,-34.671
315,-643,10.9615,34.2272,0.00798298,0.0222241,-0.00294033,0.0228073,0.00739979,-1.37499,0.0134356,0.0393215,1539,1667,10.9615,-34.2272
322,-643,11.0333,33.7061,0.00796743,0.0192039,-0.0038861,0.020417,0.00675439,-1.26823,0.0120106,0.0262977,1546,1667,11.0333,-33.7061
329,-643,11.0717,33.3988,0.00765213,0.0164284,-0.00432143,0.018199,0.00588149,-1.18193,0.010724,0.0178459,1553,1667,11.0716,-33.3988
336,-643,11.0045,33.1825,0.00692311,0.0143946,-0.00446201,0.0164782,0.00483946,-1.13391,0.00977994,0.01435,1560,1667,11.0045,-33.1824
343,-643,11.0358,32.8712,0.00646265,0.0117794,-0.00487157,0.0146707,0.00357132,-1.03516,0.00883402,0.013546,1567,1667,11.0358,-32.8713
350,-643,11.0858,32.4962,0.00611731,0.00994284,-0.00477017,0.0131695,0.0028907,-0.976076,0.00799226,0.0129011,1574,1667,11.0858,-32.4963
357,-643,11.068,32.1626,0.00579588,0.00869072,-0.00449561,0.0119662,0.00252043,-0.941139,0.00728414,0.0112691,1581,1667,11.068,-32.1625
364,-643,11.0812,31.8158,0.00527483,0.00759519,-0.00408165,0.0106783,0.00219167,-0.923867,0.00651245,0.00970773,1588,1667,11.0811,-31.8158
371,-643,11.0957,31.4832,0.00464171,0.00637318,-0.00362468,0.00923409,0.00178081,-0.902624,0.00565668,0.00799455,1595,1667,11.0957,-31.4832
378,-643,11.1096,31.1267,0.0039944,0.00503327,-0.00307663,0.007634,0.00139367,-0.869026,0.00469425,0.0100977,1602,1667,11.1096,-31.1267
385,-643,11.1171,30.7521,0.00340444,0.00345162,-0.00249876,0.0059269,0.000929157,-0.790119,0.00368085,0.0168305,1609,1667,11.1171,-30.7521
392,-643,11.0853,30.3823,0.00283103,0.00190206,-0.00206917,0.00448721,0.000245881,-0.674989,0.00291297,0.0179909,1616,1667,11.0854,-30.3823
399,-643,11.0748,30.0463,0.00211314,0.000473451,-0.00154172,0.00303945,-0.000452859,-0.541028,0.00219289,0.015403,1623,1667,11.0749,-30.0463
406,-643,11.0886,29.6636,0.00147274,-0.000439515,-0.00108857,0.00196546,-0.000932237,-0.425041,0.00170807,0.0139632,1630,1667,11.0886,-29.6636
413,-643,11.08,29.302,0.00100171,-0.000973956,-0.000839786,0.00131044,-0.00128268,-0.352284,0.00149716,0.019379,1637,1667,11.08,-29.302
420,-643,11.0396,28.9299,0.000597069,-0.0012128,-0.000738524,0.000860177,-0.00147591,-0.342243,0.00136427,0.0180019,1644,1667,11.0396,-28.9299
427,-643,11.0459,28.533,0.000390888,-0.00098407,-0.000861363,0.000805486,-0.00139867,-0.448599,0.00128784,0.0140001,1651,1667,11.046,-28.5329
434,-643,11.0424,28.1436,0.000200749,-0.000295725,-0.00103127,0.00101323,-0.00110821,-0.667289,0.00122522,0.0148806,1658,1667,11.0424,-28.1436
441,-643,11.0171,27.7207,6.04968e-05,0.00061922,-0.00125983,0.00163029,-0.000950575,-0.894505,0.00150719,0.0154303,1665,1667,11.0171,-27.7207
448,-643,10.9026,27.2865,-9.19608e-05,0.00164452,-0.00140664,0.0024293,-0.000876745,-1.0619,0.00197766,0.0215326,1672,1667,10.9026,-27.2866
455,-643,10.8003,26.7905,-0.000225366,0.00293821,-0.00148435,0.0035256,-0.000812757,-1.19398,0.00266299,0.0297825,1679,1667,10.8003,-26.7906
462,-643,10.8732,26.3569,-0.000478084,0.00420097,-0.00143135,0.00460409,-0.00088121,-1.29627,0.0034014,0.042406,1686,1667,10.8732,-26.357
469,-643,10.9686,25.8577,0,0,0,0,0,0,0,-1,1693,1667,10.9686,-25.8577
476,-643,10.5598,24.5066,0,0,0,0,0,0,0,-1,1700,1667,10.5598,-24.5065
483,-643,10.4502,24.3062,0,0,0,0,0,0,0,-1,1707,1667,10.4502,-24.3062
490,-643,10.6885,24.1522,0,0,0,0,0,0,0,-1,1714,1667,10.6884,-24.1522
497,-643,10.9073,23.9465,0,0,0,0,0,0,0,-1,1721,1667,10.9074,-23.9465
504,-643,8.05591,19.0656,0,0,0,0,0,0,0,-1,1728,1667,8.0559,-19.0655
511,-643,7.74719,18.1564,0,0,0,0,0,0,0,-1,1735,1667,7.74724,-18.1563
518,-643,7.40564,0.922607,0,0,0,0,0,0,0,-1,1742,1667,7.4057,-0.922598
525,-643,0,0,0,0,0,0,0,0,0,-1,1749,1667,0,0
532,-643,0,0,0,0,0,0,0,0,0,-1,1756,1667,0,0
539,-643,0,0,0,0,0,0,0,0,0,-1,1763,1667,0,0
546,-643,0,0,0,0,0,0,0,0,0,-1,1770,1667,0,0
553,-643,0,0,0,0,0,0,0,0,0,-1,1777,1667,0,0
560,-643,0,0,0,0,0,0,0,0,0,-1,1784,1667,0,0
567,-643,0,0,0,0,0,0,0,0,0,-1,1791,1667,0,0
574,-643,0,0,0,0,0,0,0,0,0,-1,1798,1667,0,0
581,-643,0,0,0,0,0,0,0,0,0,-1,1805,1667,0,0
588,-643,0,0,0,0,0,0,0,0,0,-1,1812,1667,0,0
595,-643,0,0,0,0,0,0,0,0,0,-1,1819,1667,0,0
602,-643,0,0,0,0,0,0,0,0,0,-1,1826,1667,0,0
609,-643,0,0,0,0,0,0,0,0,0,-1,1833,1667,0,0
616,-643,0,0,0,0,0,0,0,0,0,-1,1840,1667,0,0
623,-643,0,0,0,0,0,0,0,0,0,-1,1847,1667,0,0
630,-643,0,0,0,0,0,0,0,0,0,-1,1854,1667,0,0
637,-643,0,0,0,0,0,0,0,0,0,-1,1861,1667,0,0
644,-643,0,0,0,0,0,0,0,0,0,-1,1868,1667,0,0
651,-643,0,0,0,0,0,0,0,0,0,-1,1875,1667,0,0
658,-643,0,0,0,0,0,0,0,0,0,-1,1882,1667,0,0
665,-643,0,0,0,0,0,0,0,0,0,-1,1889,1667,0,0
672,-643,0,0,0,0,0,0,0,0,0,-1,1896,1667,0,0
679,-643,0,0,0,0,0,0,0,0,0,-1,1903,1667,0,0
686,-643,0,0,0,0,0,0,0,0,0,-1,1910,1667,0,0
693,-643,0,0,0,0,0,0,0,0,0,-1,1917,1667,0,0
700,-643,0,0,0,0,0,0,0,0,0,-1,1924,1667,0,0
707,-643,0,0,0,0,0,0,0,0,0,-1,1931,1667,0,0
714,-643,0,0,0,0,0,0,0,0,0,-1,1938,1667,0,0
721,-643,0,0,0,0,0,0,0,0,0,-1,1945,1667,0,0
728,-643,0,0,0,0,0,0,0,0,0,-1,1952,1667,0,0
735,-643,0,0,0,0,0,0,0,0,0,-1,1959,1667,0,0
742,-643,0,0,0,0,0,0,0,0,0,-1,1966,1667,0,0
749,-643,0,0,0,0,0,0,0,0,0,-1,1973,1667,0,0
756,-643,0,0,0,0,0,0,0,0,0,-1,1980,1667,0,0
763,-643,0,0,0,0,0,0,0,0,0,-1,1987,1667,0,0
770,-643,0,0,0,0,0,0,0,0,0,-1,1994,1667,0,0
777,-643,0,0,0,0,0,0,0,0,0,-1,2001,1667,0,0
784,-643,0,0,0,0,0,0,0,0,0,-1,2008,1667,0,0
791,-643,0,0,0,0,0,0,0,0,0,-1,2015,1667,0,0
798,-643,0,0,0,0,0,0,0,0,0,-1,2022,1667,0,0
805,-643,0,0,0,0,0,0,0,0,0,-1,2029,1667,0,0
812,-643,0,0,0,0,0,0,0,0,0,-1,2036,1667,0,0
-700,-650,0,0,0,0,0,0,0,0,0,-1,524,1674,0,0
-693,-650,0,0,0,0,0,0,0,0,0,-1,531,1674,0,0
-686,-650,0,0,0,0,0,0,0,0,0,-1,538,1674,0,0
-679,-650,0,0,0,0,0,0,0,0,0,-1,545,1674,0,0
-672,-650,0,0,0,0,0,0,0,0,0,-1,552,1674,0,0
-665,-650,0,0,0,0,0,0,0,0,0,-1,559,1674,0,0
-658,-650,0,0,0,0,0,0,0,0,0,-1,566,1674,0,0
-651,-650,0,0,0,0,0,0,0,0,0,-1,573,1674,0,0
-644,-650,0,0,0,0,0,0,0,0,0,-1,580,1674,0,0
-637,-650,0,0,0,0,0,0,0,0,0,-1,587,1674,0,0
-630,-650,0,0,0,0,0,0,0,0,0,-1,594,1674,0,0
-623,-650,0,0,0,0,0,0,0,0,0,-1,601,1674,0,0
-616,-650,0,0,0,0,0,0,0,0,0,-1,608,1674,0,0
-609,-650,0,0,0,0,0,0,0,0,0,-1,615,1674,0,0
-602,-650,0,0,0,0,0,0,0,0,0,-1,622,1674,0,0
-595,-650,0,0,0,0,0,0,0,0,0,-1,629,1674,0,0
-588,-650,0,0,0,0,0,0,0,0,0,-1,636,1674,0,0
-581,-650,0,0,0,0,0,0,0,0,0,-1,643,1674,0,0
-574,-650,0,0,0,0,0,0,0,0,0,-1,650,1674,0,0
-567,-650,0,0,0,0,0,0,0,0,0,-1,657,1674,0,0
-560,-650,0,0,0,0,0,0,0,0,0,-1,664,1674,0,0
-553,-650,0,0,0,0,0,0,0,0,0,-1,671,1674,0,0
-546,-650,0,0,0,0,0,0,0,0,0,-1,678,1674,0,0
-539,-650,0,0,0,0,0,0,0,0,0,-1,685,1674,0,0
-532,-650,0,0,0,0,0,0,0,0,0,-1,692,1674,0,0
-525,-650,0,0,0,0,0,0,0,0,0,-1,699,1674,0,0
-518,-650,0,0,0,0,0,0,0,0,0,-1,706,1674,0,0
-511,-650,0,0,0,0,0,0,0,0,0,-1,713,1674,0,0
-504,-650,0,0,0,0,0,0,0,0,0,-1,720,1674,0,0
-497,-650,0,0,0,0,0,0,0,0,0,-1,727,1674,0,0
-490,-650,0,0,0,0,0,0,0,0,0,-1,734,1674,0,0
-483,-650,0,0,0,0,0,0,0,0,0,-1,741,1674,0,0
-476,-650,0,0,0,0,0,0,0,0,0,-1,748,1674,0,0
-469,-650,0,0,0,0,0,0,0,0,0,-1,755,1674,0,0
-462,-650,0,0,0,0,0,0,0,0,0,-1,762,1674,0,0
-455,-650,0,0,0,0,0,0,0,0,0,-1,769,1674,0,0
-448,-650,0,0,0,0,0,0,0,0,0,-1,776,1674,0,0
-441,-650,0,0,0,0,0,0,0,0,0,-1,783,1674,0,0
-434,-650,0,0,0,0,0,0,0,0,0,-1,790,1674,0,0
-427,-650,0,0,0,0,0,0,0,0,0,-1,797,1674,0,0
-420,-650,0,0,0,0,0,0,0,0,0,-1,804,1674,0,0
-413,-650,0,0,0,0,0,0,0,0,0,-1,811,1674,0,0
-406,-650,0,0,0,0,0,0,0,0,0,-1,818,1674,0,0
-399,-650,0,0,0,0,0,0,0,0,0,-1,825,1674,0,0
-392,-650,5.44415,6.85669,0,0,0,0,0,0,0,-1,832,1674,5.44414,-6.85674
-385,-650,1.74451,14.0183,0,0,0,0,0,0,0,-1,839,1674,1.74453,-14.0183
-378,-650,0.997986,4.11108,0,0,0,0,0,0,0,-1,846,1674,0.998006,-4.11113
-371,-650,-1.80096,3.78625,0,0,0,0,0,0,0,-1,853,1674,-1.80094,-3.78625
-364,-650,-2.95679,2.57507,0,0,0,0,0,0,0,-1,860,1674,-2.95681,-2.57506
-357,-650,1.97833,10.8362,0,0,0,0,0,0,0,-1,867,1674,1.97835,-10.8362
-350,-650,-5.30243,0.159912,0,0,0,0,0,0,0,-1,874,1674,-5.30244,-0.159866
-343,-650,-6.21338,-1.4425,0,0,0,0,0,0,0,-1,881,1674,-6.21341,1.44248
-336,-650,4.59857,24.226,0,0,0,0,0,0,0,-1,888,1674,4.59858,-24.2259
-329,-650,5.16364,25.7021,0,0,0,0,0,0,0,-1,895,1674,5.16362,-25.7022
-322,-650,5.16058,26.1331,0.00740373,0.00198746,0.00415814,0.00965787,-0.000266677,0.496759,0.00652929,0.0443991,902,1674,5.16058,-26.133
-315,-650,5.13849,26.354,0.00544247,0.000696553,0.00304375,0.00692897,-0.000789939,0.454304,0.00490388,0.0382195,909,1674,5.13849,-26.354
-308,-650,5.18451,26.9063,0.00382538,-0.000302556,0.0018912,0.00456081,-0.00103798,0.370872,0.00343915,0.0243951,916,1674,5.18452,-26.9063
-301,-650,5.17828,27.507,0.00245738,-0.00105233,0.000823173,0.00264086,-0.00123581,0.219305,0.00228667,0.0140253,923,1674,5.17829,-27.5069
-294,-650,5.12451,27.9113,0.00147657,-0.00121216,0.000250704,0.00149975,-0.00123534,0.0921837,0.00158156,0.0109693,930,1674,5.12451,-27.9112
-287,-650,5.10095,28.2825,0.000754973,-0.00123438,-8.66886e-05,0.000758743,-0.00123815,-0.0434664,0.00116393,0.013088,937,1674,5.10096,-28.2825
-280,-650,5.08624,28.6897,0.000239911,-0.00111723,-0.000222412,0.000275431,-0.00115275,-0.158366,0.000874881,0.0147221,944,1674,5.08625,-28.6897
-273,-650,5.06287,29.1163,-5.0639e-05,-0.000700092,-0.00024215,2.9707e-05,-0.000780438,-0.320373,0.000530472,0.01386,951,1674,5.06288,-29.1163
-266,-650,5.0379,29.5331,-1.74017e-05,-0.000266298,-2.95094e-05,-1.39509e-05,-0.000269749,-0.116411,0.000175367,0.0115377,958,1674,5.03793,-29.5331
-259,-650,5.03394,29.9296,8.98568e-05,6.95662e-05,0.000118459,0.000198604,-3.91813e-05,0.74268,0.000147212,0.014435,965,1674,5.03392,-29.9296
-252,-650,5.01465,30.311,0.000339403,0.000680557,0.000363024,0.000911082,0.000108879,1.00503,0.000574544,0.0135881,972,1674,5.01463,-30.311
-245,-650,5.01093,30.6938,0.000685583,0.00132998,0.000619536,0.00170609,0.000309472,1.02518,0.00104956,0.0120106,979,1674,5.01094,-30.6939
-238,-650,5.00427,31.0945,0.00101481,0.00190795,0.000855127,0.00242609,0.000496672,1.02603,0.00147989,0.0129317,986,1674,5.0043,-31.0944
-231,-650,4.97498,31.5031,0.00142719,0.00236623,0.00113316,0.00312329,0.000670127,0.981804,0.00189865,0.0180552,993,1674,4.97498,-31.503
-224,-650,4.97211,31.8604,0.0018476,0.0027902,0.00129308,0.0036952,0.000942606,0.960156,0.00221709,0.0151521,1000,1674,4.97213,-31.8604
-217,-650,4.98376,32.1743,0.00118559,0.0034969,0.00183787,0.00451226,0.000170226,1.06606,0.00295307,0.00974185,1007,1674,4.98377,-32.1743
-210,-650,4.99243,32.5201,-9.3237e-05,0.00444385,0.00192569,0.00515097,-0.000800359,1.21888,0.0037295,0.01009,1014,1674,4.99242,-32.5201
-203,-650,5.02502,32.8822,-0.00103565,0.00498331,0.00191659,0.00554178,-0.00159412,1.28726,0.00432496,0.0155813,1021,1674,5.02502,-32.8822
-196,-650,5.03015,33.2008,-0.002451,0.0058943,0.00207174,0.00638031,-0.00293701,1.34037,0.00550044,0.0136852,1028,1674,5.03019,-33.2007
-189,-650,5.02209,33.5162,-0.0042421,0.00690698,0.00222062,0.00733299,-0.00466811,1.38125,0.00698555,0.0110893,1035,1674,5.02209,-33.5162
-182,-650,5.073,33.9069,-0.006338,0.00786504,0.00243559,0.0082711,-0.00674405,1.4056,0.00868393,0.010665,1042,1674,5.07305,-33.9069
-175,-650,5.10864,34.2098,-0.00869139,0.00885085,0.00259189,0.0092258,-0.00906633,1.42713,0.0105611,0.0161055,1049,1674,5.10863,-34.2098
-168,-650,5.10583,34.5364,-0.0110411,0.00997707,0.00272205,0.0103239,-0.0113879,1.44407,0.0125403,0.0204525,1056,1674,5.1058,-34.5363
-161,-650,5.0957,34.868,-0.0131559,0.0109792,0.0026874,0.0112748,-0.0134516,1.46124,0.0142942,0.0283236,1063,1674,5.09565,-34.868
-154,-650,5.23767,35.1345,-0.0149705,0.0114811,0.00275472,0.0117649,-0.0152543,1.46812,0.0156429,0.0341038,1070,1674,5.23765,-35.1345
-147,-650,5.1521,35.5953,0,0,0,0,0,0,0,-1,1077,1674,5.15213,-35.5954
-140,-650,4.9696,36.0964,0,0,0,0,0,0,0,-1,1084,1674,4.96957,-36.0964
-133,-650,4.73535,36.736,0,0,0,0,0,0,0,-1,1091,1674,4.73533,-36.736
-126,-650,4.63293,37.3207,0,0,0,0,0,0,0,-1,1098,1674,4.63294,-37.3206
-119,-650,5.16663,20.6232,0,0,0,0,0,0,0,-1,1105,1674,5.16665,-20.6232
-112,-650,3.86292,14.4513,0,0,0,0,0,0,0,-1,1112,1674,3.8629,-14.4513
-105,-650,4.9259,12.0626,0,0,0,0,0,0,0,-1,1119,1674,4.92591,-12.0626
-98,-650,3.3761,6.78003,0,0,0,0,0,0,0,-1,1126,1674,3.37611,-6.78009
-91,-650,3.66809,7.04443,0,0,0,0,0,0,0,-1,1133,1674,3.66806,-7.04439
-84,-650,-3.82666,-1.59521,0,0,0,0,0,0,0,-1,1140,1674,-3.82661,1.59517
-77,-650,-4.70557,1.90198,0,0,0,0,0,0,0,-1,1147,1674,-4.7056,-1.90194
-70,-650,-4.88171,3.81653,0,0,0,0,0,0,0,-1,1154,1674,-4.88176,-3.81651
-63,-650,-5.14612,5.56543,0,0,0,0,0,0,0,-1,1161,1674,-5.14612,-5.56547
-56,-650,-5.38367,7.41101,0,0,0,0,0,0,0,-1,1168,1674,-5.38361,-7.41102
-49,-650,-5.11316,8.23706,0,0,0,0,0,0,0,-1,1175,1674,-5.11317,-8.23708
-42,-650,-4.99487,9.6792,0,0,0,0,0,0,0,-1,1182,1674,-4.99484,-9.67921
-35,-650,-4.77771,11.3369,0,0,0,0,0,0,0,-1,1189,1674,-4.77769,-11.3369
-28,-650,-4.1936,13.1501,0,0,0,0,0,0,0,-1,1196,1674,-4.19358,-13.1501
-21,-650,8.85425,39.4446,0,0,0,0,0,0,0,-1,1203,1674,8.85426,-39.4446
-14,-650,8.93018,38.8936,0.102818,0.119414,0.148193,0.259541,-0.0373098,0.813366,0.186711,0.04817,1210,1674,8.93019,-38.8935
-7,-650,5.26111,45.0386,0.113233,0.13448,0.128045,0.252342,-0.00462867,0.826788,0.169792,0.0475807,1217,1674,5.26109,-45.0385
0,-650,5.96521,45.2284,0.136942,0.149311,0.100066,0.243383,0.04287,0.816261,0.150022,0.0435328,1224,1674,5.96516,-45.2283
7,-650,6.75916,45.6937,0.17641,0.159501,0.0658489,0.234345,0.101566,0.721551,0.135699,0.0437655,1231,1674,6.75919,-45.6937
14,-650,3.75562,43.2064,0,0,0,0,0,0,0,-1,1238,1674,3.75558,-43.2064
21,-650,4.85999,44.0228,0.225966,0.164968,0.0158285,0.229829,0.161105,0.239361,0.136218,0.0460219,1245,1674,4.85997,-44.0228
28,-650,6.01563,44.687,0.244814,0.161618,-0.00369721,0.244978,0.161454,-0.0443229,0.143804,0.0449382,1252,1674,6.01559,-44.687
35,-650,7.05481,45.509,0.254875,0.153916,-0.0166394,0.257547,0.151244,-0.159205,0.149447,0.0458943,1259,1674,7.05475,-45.5091
42,-650,8.0238,46.4396,0.25695,0.145296,-0.0257361,0.262597,0.139649,-0.21598,0.151712,0.0434718,1266,1674,8.02381,-46.4395
49,-650,9.11206,47.6638,0.250739,0.134786,-0.0281953,0.257231,0.128293,-0.226323,0.148513,0.0426072,1273,1674,9.11205,-47.6638
56,-650,10.2219,47.9551,0,0,0,0,0,0,0,-1,1280,1674,10.2219,-47.9551
63,-650,9.43286,38.1705,0.216647,0.110298,-0.021812,0.220947,0.105998,-0.194632,0.127599,0.0456786,1287,1674,9.43282,-38.1705
70,-650,9.54749,39.0317,0.19116,0.0997437,-0.0115659,0.192601,0.0983031,-0.123917,0.111206,0.0483954,1294,1674,9.54752,-39.0318
77,-650,9.61279,39.8257,0.166138,0.0912428,0.000583404,0.166142,0.0912383,0.007789,0.0960767,0.049507,1301,1674,9.61281,-39.8256
84,-650,10.1036,40.2683,0.139133,0.0840749,0.0126149,0.141886,0.0813222,0.214841,0.0822096,0.0495703,1308,1674,10.1036,-40.2684
91,-650,9.91528,40.0551,0,0,0,0,0,0,0,-1,1315,1674,9.9153,-40.0551
98,-650,11.4703,40.2684,0.114653,0.0795834,0.0331917,0.134657,0.0595795,0.542385,0.0779159,0.0463473,1322,1674,11.4703,-40.2684
105,-650,12.1051,40.182,0.103511,0.0803776,0.0456681,0.139055,0.0448344,0.661365,0.0819536,0.0498758,1329,1674,12.1051,-40.182
112,-650,12.4531,40.3025,0.102544,0.0846658,0.054536,0.148869,0.0383414,0.704162,0.0892541,0.0460382,1336,1674,12.4531,-40.3025
119,-650,13.0048,40.2523,0.120498,0.0887859,0.0572724,0.164069,0.0452151,0.650354,0.0978538,0.0436505,1343,1674,13.0047,-40.2524
126,-650,13.8755,40.1793,0.140335,0.0921296,0.0606548,0.1815,0.0509639,0.596278,0.108094,0.0489478,1350,1674,13.8754,-40.1793
133,-650,14.5656,40.012,0,0,0,0,0,0,0,-1,1357,1674,14.5655,-40.0119
140,-650,15.2183,39.8799,0,0,0,0,0,0,0,-1,1364,1674,15.2183,-39.8799
147,-650,16.8361,39.9308,0,0,0,0,0,0,0,-1,1371,1674,16.836,-39.9308
154,-650,18.1626,40.0005,0,0,0,0,0,0,0,-1,1378,1674,18.1626,-40.0005
161,-650,4.09106,30.3021,0,0,0,0,0,0,0,-1,1385,1674,4.09104,-30.3021
168,-650,11.2113,7.87231,0,0,0,0,0,0,0,-1,1392,1674,11.2113,-7.87236
175,-650,5.62537,-0.230713,0,0,0,0,0,0,0,-1,1399,1674,5.62538,0.230745
182,-650,5.56006,0.421631,0,0,0,0,0,0,0,-1,1406,1674,5.56,-0.421652
189,-650,4.81543,11.0654,0,0,0,0,0,0,0,-1,1413,1674,4.81542,-11.0654
196,-650,5.39575,11.9077,0,0,0,0,0,0,0,-1,1420,1674,5.39575,-11.9078
203,-650,3.93628,11.8215,0,0,0,0,0,0,0,-1,1427,1674,3.93624,-11.8216
210,-650,5.40955,8.08594,0,0,0,0,0,0,0,-1,1434,1674,5.40958,-8.086
217,-650,5.12451,4.69739,0,0,0,0,0,0,0,-1,1441,1674,5.12451,-4.69738
224,-650,4.79041,1.45813,0,0,0,0,0,0,0,-1,1448,1674,4.79046,-1.45816
231,-650,4.04102,-0.642212,0,0,0,0,0,0,0,-1,1455,1674,4.04101,0.642209
238,-650,3.23022,-1.43396,0,0,0,0,0,0,0,-1,1462,1674,3.23023,1.43394
245,-650,1.65894,-2.55042,0,0,0,0,0,0,0,-1,1469,1674,1.65889,2.55036
252,-650,8.75342,0.355103,0,0,0,0,0,0,0,-1,1476,1674,8.75337,-0.355147
259,-650,5.61255,3.17566,0,0,0,0,0,0,0,-1,1483,1674,5.61257,-3.17572
266,-650,4.00403,6.10229,0,0,0,0,0,0,0,-1,1490,1674,4.00401,-6.10225
273,-650,9.87012,35.5692,0,0,0,0,0,0,0,-1,1497,1674,9.8701,-35.5692
280,-650,10.071,35.5155,0.0128636,0.0330894,-0.000476835,0.0331006,0.0128523,-1.54724,0.019269,0.0490233,1504,1674,10.0711,-35.5154
287,-650,10.3733,35.3628,0.0112381,0.0300425,-0.000751827,0.0300725,0.0112081,-1.5309,0.017549,0.0412059,1511,1674,10.3733,-35.3628
294,-650,10.6322,35.1062,0.00963753,0.0266102,-0.0010225,0.0266716,0.00957615,-1.51084,0.0156015,0.0396292,1518,1674,10.6323,-35.1062
301,-650,10.6145,34.759,0.00829346,0.0227646,-0.00125343,0.0228723,0.00818569,-1.48503,0.013382,0.0325635,1525,1674,10.6145,-34.759
308,-650,10.6678,34.4113,0.00709752,0.0188472,-0.00127229,0.0189834,0.00696133,-1.46416,0.0110891,0.0199355,1532,1674,10.6679,-34.4112
315,-650,10.6903,34.1074,0.00646008,0.0160228,-0.00189948,0.0163863,0.0060966,-1.38172,0.00956333,0.0156262,1539,1674,10.6902,-34.1075
322,-650,10.7145,33.807,0.00609693,0.0136881,-0.00242855,0.0143986,0.00538649,-1.2862,0.00840041,0.0129415,1546,1674,10.7145,-33.807
329,-650,10.7319,33.439,0.00566324,0.0115446,-0.00272229,0.0126112,0.00459661,-1.19737,0.00736968,0.0159813,1553,1674,10.7319,-33.439
336,-650,10.7179,33.1572,0.00499005,0.00995724,-0.00281697,0.0112291,0.00371817,-1.14669,0.00660525,0.0146391,1560,1674,10.718,-33.1572
343,-650,10.7329,32.8563,0.0045378,0.00788837,-0.00314769,0.00977883,0.00264734,-1.02995,0.00584032,0.0140972,1567,1674,10.7329,-32.8563
350,-650,10.761,32.5012,0.00424572,0.00637421,-0.00314401,0.00862921,0.00199071,-0.948595,0.00521741,0.0159488,1574,1674,10.761,-32.5012
357,-650,10.7434,32.1539,0.00401268,0.00525647,-0.00299613,0.00769456,0.00157458,-0.887728,0.00469373,0.0137586,1581,1674,10.7434,-32.1539
364,-650,10.7316,31.8273,0.00362491,0.0042363,-0.00272085,0.00666857,0.00119264,-0.84134,0.00410631,0.00992409,1588,1674,10.7316,-31.8273
371,-650,10.7385,31.4862,0.00317443,0.0031048,-0.00241828,0.00555815,0.000721082,-0.7782,0.00348999,0.0119498,1595,1674,10.7386,-31.4862
378,-650,10.751,31.1102,0.00272861,0.00186215,-0.00202202,0.00436329,0.000227468,-0.679866,0.00283608,0.0130295,1602,1674,10.7509,-31.1102
385,-650,10.7368,30.7439,0.00235988,0.000415433,-0.00158902,0.00325051,-0.000475191,-0.510858,0.00234153,0.014453,1609,1674,10.7368,-30.7439
392,-650,10.7098,30.4088,0.00200917,-0.000972811,-0.00135012,0.00252961,-0.00149326,-0.367928,0.00234816,0.0181138,1616,1674,10.7098,-30.4088
399,-650,10.7018,30.0553,0.0014623,-0.00222021,-0.000977568,0.00170572,-0.00246363,-0.24404,0.00242039,0.0168083,1623,1674,10.7018,-30.0553
406,-650,10.7054,29.6893,0.0010011,-0.00289143,-0.000667774,0.00111248,-0.0030028,-0.16526,0.00245809,0.0151165,1630,1674,10.7054,-29.6893
413,-650,10.7015,29.311,0.000711505,-0.00317058,-0.000544246,0.000786361,-0.00324544,-0.136685,0.00246787,0.015663,1637,1674,10.7015,-29.311
420,-650,10.6786,28.9414,0.000514287,-0.00297999,-0.000679646,0.000641825,-0.00310753,-0.185496,0.00231547,0.0159106,1644,1674,10.6785,-28.9415
427,-650,10.681,28.5562,0.000467138,-0.00228889,-0.00100209,0.000792974,-0.00261473,-0.314373,0.00205902,0.0138016,1651,1674,10.6811,-28.5561
434,-650,10.653,28.1885,0.000344705,-0.00109564,-0.00129948,0.00111023,-0.00186116,-0.532366,0.0017337,0.0161702,1658,1674,10.653,-28.1885
441,-650,10.5834,27.8308,0.000194875,0.000353158,-0.00164237,0.00191829,-0.00137026,-0.809473,0.00190742,0.0270865,1665,1674,10.5834,-27.8308
448,-650,10.243,27.2615,2.83187e-05,0.00207755,-0.00190863,0.0032192,-0.00111334,-1.03174,0.00259802,0.0445825,1672,1674,10.243,-27.2615
455,-650,10.1119,26.632,-0.000123645,0.00421775,-0.00205689,0.00503749,-0.000943386,-1.19155,0.00371296,0.0476233,1679,1674,10.1119,-26.632
462,-650,10.2661,26.2554,0,0,0,0,0,0,0,-1,1686,1674,10.2662,-26.2554
469,-650,10.6432,26.1511,0,0,0,0,0,0,0,-1,1693,1674,10.6431,-26.1511
476,-650,10.0289,24.4348,0,0,0,0,0,0,0,-1,1700,1674,10.0289,-24.4349
483,-650,10.2426,24.5127,0,0,0,0,0,0,0,-1,1707,1674,10.2425,-24.5127
490,-650,10.4818,24.3475,0,0,0,0,0,0,0,-1,1714,1674,10.4818,-24.3475
497,-650,10.4985,20.1362,0,0,0,0,0,0,0,-1,1721,1674,10.4986,-20.1362
504,-650,9.69458,18.7721,0,0,0,0,0,0,0,-1,1728,1674,9.6946,-18.772
511,-650,9.37158,17.7506,0,0,0,0,0,0,0,-1,1735,1674,9.37159,-17.7506
518,-650,0,0,0,0,0,0,0,0,0,-1,1742,1674,0,0
525,-650,0,0,0,0,0,0,0,0,0,-1,1749,1674,0,0
532,-650,0,0,0,0,0,0,0,0,0,-1,1756,1674,0,0
539,-650,0,0,0,0,0,0,0,0,0,-1,1763,1674,0,0
546,-650,0,0,0,0,0,0,0,0,0,-1,1770,1674,0,0
553,-650,0,0,0,0,0,0,0,0,0,-1,1777,1674,0,0
560,-650,0,0,0,0,0,0,0,0,0,-1,1784,1674,0,0
567,-650,0,0,0,0,0,0,0,0,0,-1,1791,1674,0,0
574,-650,0,0,0,0,0,0,0,0,0,-1,1798,1674,0,0
581,-650,0,0,0,0,0,0,0,0,0,-1,1805,1674,0,0
588,-650,0,0,0,0,0,0,0,0,0,-1,1812,1674,0,0
595,-650,0,0,0,0,0,0,0,0,0,-1,1819,1674,0,0
602,-650,0,0,0,0,0,0,0,0,0,-1,1826,1674,0,0
609,-650,0,0,0,0,0,0,0,0,0,-1,1833,1674,0,0
616,-650,0,0,0,0,0,0,0,0,0,-1,1840,1674,0,0
623,-650,0,0,0,0,0,0,0,0,0,-1,1847,1674,0,0
630,-650,0,0,0,0,0,0,0,0,0,-1,1854,1674,0,0
637,-650,0,0,0,0,0,0,0,0,0,-1,1861,1674,0,0
644,-650,0,0,0,0,0,0,0,0,0,-1,1868,1674,0,0
651,-650,0,0,0,0,0,0,0,0,0,-1,1875,1674,0,0
658,-650,0,0,0,0,0,0,0,0,0,-1,1882,1674,0,0
665,-650,0,0,0,0,0,0,0,0,0,-1,1889,1674,0,0
672,-650,0,0,0,0,0,0,0,0,0,-1,1896,1674,0,0
679,-650,0,0,0,0,0,0,0,0,0,-1,1903,1674,0,0
686,-650,0,0,0,0,0,0,0,0,0,-1,1910,1674,0,0
693,-650,0,0,0,0,0,0,0,0,0,-1,1917,1674,0,0
700,-650,0,0,0,0,0,0,0,0,0,-1,1924,1674,0,0
707,-650,0,0,0,0,0,0,0,0,0,-1,1931,1674,0,0
714,-650,0,0,0,0,0,0,0,0,0,-1,1938,1674,0,0
721,-650,0,0,0,0,0,0,0,0,0,-1,1945,1674,0,0
728,-650,0,0,0,0,0,0,0,0,0,-1,1952,1674,0,0
735,-650,0,0,0,0,0,0,0,0,0,-1,1959,1674,0,0
742,-650,0,0,0,0,0,0,0,0,0,-1,1966,1674,0,0
749,-650,0,0,0,0,0,0,0,0,0,-1,1973,1674,0,0
756,-650,0,0,0,0,0,0,0,0,0,-1,1980,1674,0,0
763,-650,0,0,0,0,0,0,0,0,0,-1,1987,1674,0,0
770,-650,0,0,0,0,0,0,0,0,0,-1,1994,1674,0,0
777,-650,0,0,0,0,0,0,0,0,0,-1,2001,1674,0,0
784,-650,0,0,0,0,0,0,0,0,0,-1,2008,1674,0,0
791,-650,0,0,0,0,0,0,0,0,0,-1,2015,1674,0,0
798,-650,0,0,0,0,0,0,0,0,0,-1,2022,1674,0,0
805,-650,0,0,0,0,0,0,0,0,0,-1,2029,1674,0,0
812,-650,0,0,0,0,0,0,0,0,0,-1,2036,1674,0,0
-700,-657,0,0,0,0,0,0,0,0,0,-1,524,1681,0,0
-693,-657,0,0,0,0,0,0,0,0,0,-1,531,1681,0,0
-686,-657,0,0,0,0,0,0,0,0,0,-1,538,1681,0,0
-679,-657,0,0,0,0,0,0,0,0,0,-1,545,1681,0,0
-672,-657,0,0,0,0,0,0,0,0,0,-1,552,1681,0,0
-665,-657,0,0,0,0,0,0,0,0,0,-1,559,1681,0,0
-658,-657,0,0,0,0,0,0,0,0,0,-1,566,1681,0,0
-651,-657,0,0,0,0,0,0,0,0,0,-1,573,1681,0,0
-644,-657,0,0,0,0,0,0,0,0,0,-1,580,1681,0,0
-637,-657,0,0,0,0,0,0,0,0,0,-1,587,1681,0,0
-630,-657,0,0,0,0,0,0,0,0,0,-1,594,1681,0,0
-623,-657,0,0,0,0,0,0,0,0,0,-1,601,1681,0,0
-616,-657,0,0,0,0,0,0,0,0,0,-1,608,1681,0,0
-609,-657,0,0,0,0,0,0,0,0,0,-1,615,1681,0,0
-602,-657,0,0,0,0,0,0,0,0,0,-1,622,1681,0,0
-595,-657,0,0,0,0,0,0,0,0,0,-1,629,1681,0,0
-588,-657,0,0,0,0,0,0,0,0,0,-1,636,1681,0,0
-581,-657,0,0,0,0,0,0,0,0,0,-1,643,1681,0,0
-574,-657,0,0,0,0,0,0,0,0,0,-1,650,1681,0,0
-567,-657,0,0,0,0,0,0,0,0,0,-1,657,1681,0,0
-560,-657,0,0,0,0,0,0,0,0,0,-1,664,1681,0,0
-553,-657,0,0,0,0,0,0,0,0,0,-1,671,1681,0,0
-546,-657,0,0,0,0,0,0,0,0,0,-1,678,1681,0,0
-539,-657,0,0,0,0,0,0,0,0,0,-1,685,1681,0,0
-532,-657,0,0,0,0,0,0,0,0,0,-1,692,1681,0,0
-525,-657,0,0,0,0,0,0,0,0,0,-1,699,1681,0,0
-518,-657,0,0,0,0,0,0,0,0,0,-1,706,1681,0,0
-511,-657,0,0,0,0,0,0,0,0,0,-1,713,1681,0,0
-504,-657,0,0,0,0,0,0,0,0,0,-1,720,1681,0,0
-497,-657,0,0,0,0,0,0,0,0,0,-1,727,1681,0,0
-490,-657,0,0,0,0,0,0,0,0,0,-1,734,1681,0,0
-483,-657,0,0,0,0,0,0,0,0,0,-1,741,1681,0,0
-476,-657,0,0,0,0,0,0,0,0,0,-1,748,1681,0,0
-469,-657,0,0,0,0,0,0,0,0,0,-1,755,1681,0,0
-462,-657,0,0,0,0,0,0,0,0,0,-1,762,1681,0,0
-455,-657,0,0,0,0,0,0,0,0,0,-1,769,1681,0,0
-448,-657,0,0,0,0,0,0,0,0,0,-1,776,1681,0,0
-441,-657,0,0,0,0,0,0,0,0,0,-1,783,1681,0,0
-434,-657,0,0,0,0,0,0,0,0,0,-1,790,1681,0,0
-427,-657,0,0,0,0,0,0,0,0,0,-1,797,1681,0,0
-420,-657,0,0,0,0,0,0,0,0,0,-1,804,1681,0,0
-413,-657,0,0,0,0,0,0,0,0,0,-1,811,1681,0,0
-406,-657,0,0,0,0,0,0,0,0,0,-1,818,1681,0,0
-399,-657,0,0,0,0,0,0,0,0,0,-1,825,1681,0,0
-392,-657,0,0,0,0,0,0,0,0,0,-1,832,1681,0,0
-385,-657,1.09814,6.18896,0,0,0,0,0,0,0,-1,839,1681,1.09814,-6.18894
-378,-657,0.31488,4.46753,0,0,0,0,0,0,0,-1,846,1681,0.31487,-4.46755
-371,-657,-0.519043,2.69421,0,0,0,0,0,0,0,-1,853,1681,-0.519064,-2.69422
-364,-657,-3.42017,4.18323,0,0,0,0,0,0,0,-1,860,1681,-3.42019,-4.18319
-357,-657,-4.41913,2.97168,0,0,0,0,0,0,0,-1,867,1681,-4.41913,-2.97165
-350,-657,-5.42291,1.70276,0,0,0,0,0,0,0,-1,874,1681,-5.42291,-1.70277
-343,-657,-6.51294,0.397339,0,0,0,0,0,0,0,-1,881,1681,-6.51295,-0.397335
-336,-657,7.12177,22.8324,0,0,0,0,0,0,0,-1,888,1681,7.12179,-22.8324
-329,-657,4.90094,24.8551,0,0,0,0,0,0,0,-1,895,1681,4.90094,-24.855
-322,-657,5.56775,26.1138,0,0,0,0,0,0,0,-1,902,1681,5.56774,-26.1138
-315,-657,5.43115,26.1083,0.00724226,0.00040726,0.00350003,0.00871654,-0.00106702,0.398664,0.00619739,0.0461675,909,1681,5.43112,-26.1082
-308,-657,5.61743,26.7838,0.00509368,-0.00108546,0.00194622,0.00565558,-0.00164736,0.28107,0.00442298,0.0420506,916,1681,5.61744,-26.7838
-301,-657,5.57813,27.5117,0.00324186,-0.00209518,0.000567639,0.00330157,-0.00215488,0.104796,0.00317339,0.0342315,923,1681,5.57814,-27.5117
-294,-657,5.52185,27.9905,0.00185193,-0.00218682,-8.29514e-05,0.00185363,-0.00218853,-0.0205273,0.00233641,0.0215682,930,1681,5.52185,-27.9905
-287,-657,5.47955,28.3463,0.000782717,-0.00223273,-0.000510848,0.000866909,-0.00231692,-0.163341,0.00190067,0.0137655,937,1681,5.47953,-28.3463
-280,-657,5.44586,28.7109,-2.87399e-05,-0.00207503,-0.000695634,0.000185343,-0.00228911,-0.298553,0.00159146,0.0145414,944,1681,5.44585,-28.7109
-273,-657,5.44427,29.139,-0.000540302,-0.00152617,-0.000732613,-0.000150228,-0.00191625,-0.489264,0.00123048,0.0102061,951,1681,5.4443,-29.139
-266,-657,5.4082,29.5546,-0.000558276,-0.00106176,-0.000516068,-0.000235823,-0.00138421,-0.558474,0.000855111,0.0143126,958,1681,5.40823,-29.5545
-259,-657,5.37854,29.9373,-0.000542743,-0.000662069,-0.000418105,-0.000180066,-0.00102475,-0.714528,0.000631755,0.0188059,965,1681,5.37856,-29.9373
-252,-657,5.36768,30.3032,-0.00036749,2.69559e-05,-0.000186906,0.000101451,-0.000441984,-1.19152,0.000333655,0.0142251,972,1681,5.36769,-30.3033
-245,-657,5.35852,30.7098,-3.92499e-05,0.000747327,7.38585e-05,0.000754202,-4.6125e-05,1.47798,0.00051886,0.0158854,979,1681,5.3585,-30.7099
-238,-657,5.36603,31.1301,0.000241398,0.00143266,0.000338777,0.00152227,0.000151795,1.31223,0.000968221,0.0200987,986,1681,5.36606,-31.1302
-231,-657,5.37323,31.5033,0.000606612,0.00192077,0.000650667,0.00218842,0.000338963,1.18055,0.00136011,0.0219589,993,1681,5.37323,-31.5033
-224,-657,5.35724,31.8701,0.00103057,0.00227042,0.000838296,0.00269311,0.000607878,1.10377,0.00163099,0.0172158,1000,1681,5.35725,-31.8701
-217,-657,5.35443,32.212,0.000712796,0.00278761,0.00121588,0.0033485,0.000151901,1.13858,0.00218346,0.0104503,1007,1681,5.35441,-32.2121
-210,-657,5.36499,32.5436,-5.40079e-05,0.0035074,0.0012935,0.00392761,-0.000474224,1.25668,0.00278995,0.0112045,1014,1681,5.36497,-32.5436
-203,-657,5.36292,32.8907,-0.000617946,0.00387291,0.001318,0.00423115,-0.000976184,1.3054,0.00319624,0.0138291,1021,1681,5.36289,-32.8907
-196,-657,5.38281,33.2245,-0.00148528,0.0044846,0.00147451,0.00482893,-0.00182961,1.34139,0.00397219,0.0143663,1028,1681,5.38278,-33.2245
-189,-657,5.39172,33.5442,-0.0025667,0.00511735,0.00157056,0.00542596,-0.00287532,1.37677,0.00486758,0.0101808,1035,1681,5.39171,-33.5441
-182,-657,5.37817,33.8751,-0.00382303,0.00578328,0.00168654,0.00607077,-0.00411052,1.40196,0.00591438,0.00833236,1042,1681,5.37819,-33.8751
-175,-657,5.40161,34.2003,-0.00516934,0.00644762,0.00179217,0.00671781,-0.00543953,1.42116,0.00703197,0.0105602,1049,1681,5.40159,-34.2003
-168,-657,5.39001,34.5242,-0.00645604,0.00721601,0.00190964,0.00747772,-0.00671775,1.43459,0.00819968,0.0127727,1056,1681,5.39007,-34.5241
-161,-657,5.4054,34.8428,-0.00751693,0.00797699,0.00190262,0.00820721,-0.00774715,1.45038,0.00921253,0.0128639,1063,1681,5.40535,-34.8427
-154,-657,5.45984,35.1173,-0.00839376,0.00846232,0.00202053,0.00870114,-0.00863258,1.45315,0.0100077,0.0142891,1070,1681,5.45979,-35.1173
-147,-657,5.45166,35.4694,-0.00911429,0.00909152,0.00221521,0.00935718,-0.00937995,1.45144,0.0108179,0.0290831,1077,1681,5.45162,-35.4694
-140,-657,5.49133,36.1501,0,0,0,0,0,0,0,-1,1084,1681,5.49128,-36.1502
-133,-657,5.21326,36.1154,0,0,0,0,0,0,0,-1,1091,1681,5.21322,-36.1153
-126,-657,5.31726,36.6023,0,0,0,0,0,0,0,-1,1098,1681,5.31732,-36.6023
-119,-657,5.56592,37.4918,0,0,0,0,0,0,0,-1,1105,1681,5.56597,-37.4919
-112,-657,4.6051,21.3439,0,0,0,0,0,0,0,-1,1112,1681,4.60512,-21.3438
-105,-657,6.82349,36.3837,0,0,0,0,0,0,0,-1,1119,1681,6.82351,-36.3837
-98,-657,3.78662,8.16785,0,0,0,0,0,0,0,-1,1126,1681,3.78663,-8.16786
-91,-657,3.6521,16.6017,0,0,0,0,0,0,0,-1,1133,1681,3.65215,-16.6017
-84,-657,4.08008,10.4579,0,0,0,0,0,0,0,-1,1140,1681,4.08006,-10.4579
-77,-657,-5.29846,0.396606,0,0,0,0,0,0,0,-1,1147,1681,-5.29842,-0.396573
-70,-657,-4.14893,2.14575,0,0,0,0,0,0,0,-1,1154,1681,-4.14893,-2.1458
-63,-657,-4.1239,3.177,0,0,0,0,0,0,0,-1,1161,1681,-4.12391,-3.17698
-56,-657,-6.40576,5.73987,0,0,0,0,0,0,0,-1,1168,1681,-6.40577,-5.7399
-49,-657,-5.98462,7.54053,0,0,0,0,0,0,0,-1,1175,1681,-5.98466,-7.5405
-42,-657,-5.71948,9.28955,0,0,0,0,0,0,0,-1,1182,1681,-5.71951,-9.2895
-35,-657,-5.44556,11.015,0,0,0,0,0,0,0,-1,1189,1681,-5.44555,-11.015
-28,-657,-1.3446,8.92847,0,0,0,0,0,0,0,-1,1196,1681,-1.34459,-8.92848
-21,-657,8.15771,38.9286,0,0,0,0,0,0,0,-1,1203,1681,8.15769,-38.9286
-14,-657,8.32739,38.9907,0,0,0,0,0,0,0,-1,1210,1681,8.32745,-38.9907
-7,-657,8.49719,39.0529,0,0,0,0,0,0,0,-1,1217,1681,8.49721,-39.0528
0,-657,5.36292,44.045,0.112685,0.138208,0.0846685,0.211071,0.0398217,0.860198,0.129498,0.0417939,1224,1681,5.36292,-44.045
7,-657,6.50989,44.55,0.141844,0.148111,0.059061,0.204122,0.0858338,0.8119,0.118345,0.045119,1231,1681,6.50984,-44.55
14,-657,7.40576,44.8323,0,0,0,0,0,0,0,-1,1238,1681,7.40581,-44.8323
21,-657,5.91431,43.1592,0.17792,0.153811,0.0201392,0.189337,0.142395,0.515721,0.11385,0.047709,1245,1681,5.91428,-43.1592
28,-657,6.85876,43.8594,0.190992,0.150554,0.00533137,0.191683,0.149863,0.128907,0.116381,0.0469529,1252,1681,6.85872,-43.8594
35,-657,8.28442,46.1807,0,0,0,0,0,0,0,-1,1259,1681,8.28443,-46.1807
42,-657,8.81396,45.9388,0,0,0,0,0,0,0,-1,1266,1681,8.81395,-45.9388
49,-657,9.61719,46.3872,0.192757,0.125525,-0.0137632,0.195466,0.122817,-0.194302,0.114085,0.0484306,1273,1681,9.61718,-46.3872
56,-657,10.2291,46.7852,0.182538,0.113503,-0.0140451,0.185286,0.110754,-0.193217,0.107654,0.0489999,1280,1681,10.2291,-46.7851
63,-657,10.8115,47.1482,0,0,0,0,0,0,0,-1,1287,1681,10.8116,-47.1482
70,-657,8.74402,38.517,0,0,0,0,0,0,0,-1,1294,1681,8.74404,-38.517
77,-657,9.18726,39.3754,0.128556,0.083461,0.005806,0.129292,0.0827255,0.126012,0.0756136,0.0467057,1301,1681,9.18727,-39.3754
84,-657,9.21277,39.9243,0.108058,0.0761764,0.0148062,0.113873,0.070361,0.374259,0.066351,0.0488246,1308,1681,9.21282,-39.9243
91,-657,9.50525,40.2703,0.0963636,0.0724622,0.0231562,0.110471,0.0583547,0.54718,0.0638144,0.0453731,1315,1681,9.50519,-40.2703
98,-657,8.45581,43.6337,0,0,0,0,0,0,0,-1,1322,1681,8.45581,-43.6336
105,-657,8.14954,43.6807,0,0,0,0,0,0,0,-1,1329,1681,8.14951,-43.6807
112,-657,11.6722,39.6079,0.0876405,0.0761045,0.0457703,0.128005,0.0357402,0.722718,0.0762676,0.0464571,1336,1681,11.6723,-39.6079
119,-657,12.1569,39.7128,0.103539,0.0796556,0.0480276,0.141087,0.0421073,0.663549,0.0836336,0.0495672,1343,1681,12.1568,-39.7128
126,-657,13.2942,39.5746,0,0,0,0,0,0,0,-1,1350,1681,13.2941,-39.5746
133,-657,13.9242,39.4105,0,0,0,0,0,0,0,-1,1357,1681,13.9242,-39.4105
140,-657,14.1852,39.4723,0.1552,0.0865642,0.0583994,0.188618,0.0531457,0.519758,0.112303,0.0477362,1364,1681,14.1852,-39.4723
147,-657,16.1162,39.3541,0.166542,0.0866952,0.062594,0.20086,0.0523765,0.501518,0.12031,0.0480159,1371,1681,16.1162,-39.3541
154,-657,18.032,39.229,0,0,0,0,0,0,0,-1,1378,1681,18.032,-39.229
161,-657,4.2926,24.9226,0,0,0,0,0,0,0,-1,1385,1681,4.29264,-24.9226
168,-657,5.21643,0.70105,0,0,0,0,0,0,0,-1,1392,1681,5.21648,-0.7011
175,-657,5.52771,0.649048,0,0,0,0,0,0,0,-1,1399,1681,5.52774,-0.649019
182,-657,5.73999,1.02612,0,0,0,0,0,0,0,-1,1406,1681,5.73995,-1.02611
189,-657,5.92126,1.44116,0,0,0,0,0,0,0,-1,1413,1681,5.92126,-1.44115
196,-657,4.92834,9.59021,0,0,0,0,0,0,0,-1,1420,1681,4.9284,-9.59018
203,-657,6.26343,5.16492,0,0,0,0,0,0,0,-1,1427,1681,6.26345,-5.16488
210,-657,3.9856,5.28088,0,0,0,0,0,0,0,-1,1434,1681,3.98555,-5.28084
217,-657,3.95178,5.2843,0,0,0,0,0,0,0,-1,1441,1681,3.95174,-5.28431
224,-657,6.66736,-0.250244,0,0,0,0,0,0,0,-1,1448,1681,6.66737,0.250229
231,-657,6.85498,-1.70752,0,0,0,0,0,0,0,-1,1455,1681,6.855,1.70758
238,-657,5.34143,-2.89819,0,0,0,0,0,0,0,-1,1462,1681,5.34143,2.89813
245,-657,8.66003,-0.102783,0,0,0,0,0,0,0,-1,1469,1681,8.66,0.102824
252,-657,4.78955,0.623779,0,0,0,0,0,0,0,-1,1476,1681,4.7895,-0.623826
259,-657,2.61523,4.31909,0,0,0,0,0,0,0,-1,1483,1681,2.61523,-4.31908
266,-657,5.35437,11.4742,0,0,0,0,0,0,0,-1,1490,1681,5.35441,-11.4742
273,-657,9.89172,35.5955,0,0,0,0,0,0,0,-1,1497,1681,9.89174,-35.5954
280,-657,9.9165,35.4934,0.0103345,0.022575,-0.00041416,0.022589,0.0103205,-1.53701,0.0130579,0.0459947,1504,1681,9.91654,-35.4934
287,-657,10.0638,35.2944,0.00909272,0.0205843,-0.000527516,0.0206085,0.00906855,-1.52502,0.0119268,0.0386962,1511,1681,10.0638,-35.2944
294,-657,10.3024,34.9999,0.00784907,0.0183751,-0.000718522,0.0184239,0.00780025,-1.50295,0.0106786,0.0300623,1518,1681,10.3024,-34.9999
301,-657,10.3234,34.7295,0.00676128,0.0158823,-0.00091322,0.0159728,0.00667074,-1.47198,0.00926353,0.0196993,1525,1681,10.3234,-34.7295
308,-657,10.3466,34.4227,0.00577871,0.0133088,-0.000968322,0.0134313,0.00565618,-1.44493,0.00778666,0.0131922,1532,1681,10.3465,-34.4227
315,-657,10.3691,34.1073,0.00510338,0.0112961,-0.00132961,0.0115695,0.00482998,-1.368,0.00670991,0.0107009,1539,1681,10.3691,-34.1073
322,-657,10.4014,33.7723,0.00461769,0.00958073,-0.00163876,0.010073,0.00412541,-1.27898,0.00584729,0.0128942,1546,1681,10.4014,-33.7723
329,-657,10.423,33.386,0.00415802,0.00795934,-0.00184684,0.00870883,0.00340852,-1.18528,0.00506744,0.0186219,1553,1681,10.423,-33.386
336,-657,10.4243,33.1156,0.00356136,0.00673097,-0.00190026,0.00762056,0.00267178,-1.13296,0.00446472,0.0170206,1560,1681,10.4244,-33.1155
343,-657,10.4136,32.8519,0.00313149,0.00509128,-0.00213156,0.00645739,0.00176538,-1.00085,0.0038537,0.0135833,1567,1681,10.4135,-32.852
350,-657,10.417,32.5094,0.00287687,0.00379159,-0.00214178,0.0055243,0.00114416,-0.890589,0.00336692,0.0144184,1574,1681,10.4169,-32.5093
357,-657,10.4165,32.1537,0.00270258,0.00266966,-0.00202546,0.00471165,0.000660596,-0.781335,0.00294569,0.014405,1581,1681,10.4164,-32.1536
364,-657,10.4135,31.8243,0.00241223,0.00157661,-0.00179353,0.00383598,0.000152868,-0.670962,0.00250791,0.0113517,1588,1681,10.4135,-31.8243
371,-657,10.4006,31.4891,0.00210764,0.000371648,-0.00156006,0.00302491,-0.00054563,-0.531532,0.00222094,0.0156787,1595,1681,10.4007,-31.4891
378,-657,10.3778,31.1179,0.00181922,-0.000964783,-0.00123315,0.00228688,-0.00143244,-0.362481,0.00216615,0.0149826,1602,1681,10.3778,-31.1179
385,-657,10.3448,30.749,0.001631,-0.00244914,-0.00086761,0.00180782,-0.00262597,-0.201056,0.00257434,0.0131769,1609,1681,10.3449,-30.749
392,-657,10.339,30.422,0.00147849,-0.00385922,-0.000753441,0.0015828,-0.00396354,-0.137574,0.00329905,0.0131237,1616,1681,10.3389,-30.422
399,-657,10.3535,30.0532,0.00109322,-0.00508514,-0.000502566,0.00113383,-0.00512575,-0.0806366,0.00385115,0.0124472,1623,1681,10.3535,-30.0532
406,-657,10.3488,29.6816,0.000814988,-0.0056289,-0.000317799,0.000830624,-0.00564454,-0.0491589,0.00406826,0.0138642,1630,1681,10.3487,-29.6816
413,-657,10.3308,29.3073,0.000727607,-0.0057075,-0.000298728,0.000741444,-0.00572133,-0.0462889,0.00408387,0.0141707,1637,1681,10.3308,-29.3073
420,-657,10.3325,28.9038,0.00076482,-0.0050958,-0.000663844,0.000839074,-0.00517006,-0.111392,0.00375775,0.0161166,1644,1681,10.3325,-28.9038
427,-657,10.2947,28.4874,0.000911918,-0.00389199,-0.00118704,0.00118923,-0.0041693,-0.229497,0.00324931,0.0201558,1651,1681,10.2947,-28.4874
434,-657,10.2998,28.1427,0.000905758,-0.0020525,-0.0016266,0.00162519,-0.00277193,-0.416423,0.00256729,0.0284244,1658,1681,10.2999,-28.1427
441,-657,10.5878,27.7043,0.000772371,0.000113812,-0.00211553,0.0025841,-0.00169791,-0.708193,0.0024898,0.0494736,1665,1681,10.5878,-27.7043
448,-657,9.61633,27.2474,0,0,0,0,0,0,0,-1,1672,1681,9.61634,-27.2474
455,-657,9.42566,26.428,0,0,0,0,0,0,0,-1,1679,1681,9.42561,-26.428
462,-657,10.0336,26.5952,0,0,0,0,0,0,0,-1,1686,1681,10.0336,-26.5952
469,-657,9.70483,21.9269,0,0,0,0,0,0,0,-1,1693,1681,9.70488,-21.9269
476,-657,8.9519,20.5712,0,0,0,0,0,0,0,-1,1700,1681,8.95194,-20.5712
483,-657,10.0663,21.8628,0,0,0,0,0,0,0,-1,1707,1681,10.0663,-21.8628
490,-657,11.6039,21.2185,0,0,0,0,0,0,0,-1,1714,1681,11.6038,-21.2185
497,-657,9.20862,17.8127,0,0,0,0,0,0,0,-1,1721,1681,9.2086,-17.8127
504,-657,0,0,0,0,0,0,0,0,0,-1,1728,1681,0,0
511,-657,0,0,0,0,0,0,0,0,0,-1,1735,1681,0,0
518,-657,0,0,0,0,0,0,0,0,0,-1,1742,1681,0,0
525,-657,0,0,0,0,0,0,0,0,0,-1,1749,1681,0,0
532,-657,0,0,0,0,0,0,0,0,0,-1,1756,1681,0,0
539,-657,0,0,0,0,0,0,0,0,0,-1,1763,1681,0,0
546,-657,0,0,0,0,0,0,0,0,0,-1,1770,1681,0,0
553,-657,0,0,0,0,0,0,0,0,0,-1,1777,1681,0,0
560,-657,0,0,0,0,0,0,0,0,0,-1,1784,1681,0,0
567,-657,0,0,0,0,0,0,0,0,0,-1,1791,1681,0,0
574,-657,0,0,0,0,0,0,0,0,0,-1,1798,1681,0,0
581,-657,0,0,0,0,0,0,0,0,0,-1,1805,1681,0,0
588,-657,0,0,0,0,0,0,0,0,0,-1,1812,1681,0,0
595,-657,0,0,0,0,0,0,0,0,0,-1,1819,1681,0,0
602,-657,0,0,0,0,0,0,0,0,0,-1,1826,1681,0,0
609,-657,0,0,0,0,0,0,0,0,0,-1,1833,1681,0,0
616,-657,0,0,0,0,0,0,0,0,0,-1,1840,1681,0,0
623,-657,0,0,0,0,0,0,0,0,0,-1,1847,1681,0,0
630,-657,0,0,0,0,0,0,0,0,0,-1,1854,1681,0,0
637,-657,0,0,0,0,0,0,0,0,0,-1,1861,1681,0,0
644,-657,0,0,0,0,0,0,0,0,0,-1,1868,1681,0,0
651,-657,0,0,0,0,0,0,0,0,0,-1,1875,1681,0,0
658,-657,0,0,0,0,0,0,0,0,0,-1,1882,1681,0,0
665,-657,0,0,0,0,0,0,0,0,0,-1,1889,1681,0,0
672,-657,0,0,0,0,0,0,0,0,0,-1,1896,1681,0,0
679,-657,0,0,0,0,0,0,0,0,0,-1,1903,1681,0,0
686,-657,0,0,0,0,0,0,0,0,0,-1,1910,1681,0,0
693,-657,0,0,0,0,0,0,0,0,0,-1,1917,1681,0,0
700,-657,0,0,0,0,0,0,0,0,0,-1,1924,1681,0,0
707,-657,0,0,0,0,0,0,0,0,0,-1,1931,1681,0,0
714,-657,0,0,0,0,0,0,0,0,0,-1,1938,1681,0,0
721,-657,0,0,0,0,0,0,0,0,0,-1,1945,1681,0,0
728,-657,0,0,0,0,0,0,0,0,0,-1,1952,1681,0,0
735,-657,0,0,0,0,0,0,0,0,0,-1,1959,1681,0,0
742,-657,0,0,0,0,0,0,0,0,0,-1,1966,1681,0,0
749,-657,0,0,0,0,0,0,0,0,0,-1,1973,1681,0,0
756,-657,0,0,0,0,0,0,0,0,0,-1,1980,1681,0,0
763,-657,0,0,0,0,0,0,0,0,0,-1,1987,1681,0,0
770,-657,0,0,0,0,0,0,0,0,0,-1,1994,1681,0,0
777,-657,0,0,0,0,0,0,0,0,0,-1,2001,1681,0,0
784,-657,0,0,0,0,0,0,0,0,0,-1,2008,1681,0,0
791,-657,0,0,0,0,0,0,0,0,0,-1,2015,1681,0,0
798,-657,0,0,0,0,0,0,0,0,0,-1,2022,1681,0,0
805,-657,0,0,0,0,0,0,0,0,0,-1,2029,1681,0,0
812,-657,0,0,0,0,0,0,0,0,0,-1,2036,1681,0,0
-700,-664,0,0,0,0,0,0,0,0,0,-1,524,1688,0,0
-693,-664,0,0,0,0,0,0,0,0,0,-1,531,1688,0,0
-686,-664,0,0,0,0,0,0,0,0,0,-1,538,1688,0,0
-679,-664,0,0,0,0,0,0,0,0,0,-1,545,1688,0,0
-672,-664,0,0,0,0,0,0,0,0,0,-1,552,1688,0,0
-665,-664,0,0,0,0,0,0,0,0,0,-1,559,1688,0,0
-658,-664,0,0,0,0,0,0,0,0,0,-1,566,1688,0,0
-651,-664,0,0,0,0,0,0,0,0,0,-1,573,1688,0,0
-644,-664,0,0,0,0,0,0,0,0,0,-1,580,1688,0,0
-637,-664,0,0,0,0,0,0,0,0,0,-1,587,1688,0,0
-630,-664,0,0,0,0,0,0,0,0,0,-1,594,1688,0,0
-623,-664,0,0,0,0,0,0,0,0,0,-1,601,1688,0,0
-616,-664,0,0,0,0,0,0,0,0,0,-1,608,1688,0,0
-609,-664,0,0,0,0,0,0,0,0,0,-1,615,1688,0,0
-602,-664,0,0,0,0,0,0,0,0,0,-1,622,1688,0,0
-595,-664,0,0,0,0,0,0,0,0,0,-1,629,1688,0,0
-588,-664,0,0,0,0,0,0,0,0,0,-1,636,1688,0,0
-581,-664,0,0,0,0,0,0,0,0,0,-1,643,1688,0,0
-574,-664,0,0,0,0,0,0,0,0,0,-1,650,1688,0,0
-567,-664,0,0,0,0,0,0,0,0,0,-1,657,1688,0,0
-560,-664,0,0,0,0,0,0,0,0,0,-1,664,1688,0,0
-553,-664,0,0,0,0,0,0,0,0,0,-1,671,1688,0,0
-546,-664,0,0,0,0,0,0,0,0,0,-1,678,1688,0,0
-539,-664,0,0,0,0,0,0,0,0,0,-1,685,1688,0,0
-532,-664,0,0,0,0,0,0,0,0,0,-1,692,1688,0,0
-525,-664,0,0,0,0,0,0,0,0,0,-1,699,1688,0,0
-518,-664,0,0,0,0,0,0,0,0,0,-1,706,1688,0,0
-511,-664,0,0,0,0,0,0,0,0,0,-1,713,1688,0,0
-504,-664,0,0,0,0,0,0,0,0,0,-1,720,1688,0,0
-497,-664,0,0,0,0,0,0,0,0,0,-1,727,1688,0,0
-490,-664,0,0,0,0,0,0,0,0,0,-1,734,1688,0,0
-483,-664,0,0,0,0,0,0,0,0,0,-1,741,1688,0,0
-476,-664,0,0,0,0,0,0,0,0,0,-1,748,1688,0,0
-469,-664,0,0,0,0,0,0,0,0,0,-1,755,1688,0,0
-462,-664,0,0,0,0,0,0,0,0,0,-1,762,1688,0,0
-455,-664,0,0,0,0,0,0,0,0,0,-1,769,1688,0,0
-448,-664,0,0,0,0,0,0,0,0,0,-1,776,1688,0,0
-441,-664,0,0,0,0,0,0,0,0,0,-1,783,1688,0,0
-434,-664,0,0,0,0,0,0,0,0,0,-1,790,1688,0,0
-427,-664,0,0,0,0,0,0,0,0,0,-1,797,1688,0,0
-420,-664,0,0,0,0,0,0,0,0,0,-1,804,1688,0,0
-413,-664,0,0,0,0,0,0,0,0,0,-1,811,1688,0,0
-406,-664,0,0,0,0,0,0,0,0,0,-1,818,1688,0,0
-399,-664,0,0,0,0,0,0,0,0,0,-1,825,1688,0,0
-392,-664,0,0,0,0,0,0,0,0,0,-1,832,1688,0,0
-385,-664,0,0,0,0,0,0,0,0,0,-1,839,1688,0,0
-378,-664,0,0,0,0,0,0,0,0,0,-1,846,1688,0,0
-371,-664,-1.61676,5.92737,0,0,0,0,0,0,0,-1,853,1688,-1.61675,-5.92735
-364,-664,-3.901,5.87024,0,0,0,0,0,0,0,-1,860,1688,-3.90097,-5.87027
-357,-664,-4.81012,4.53479,0,0,0,0,0,0,0,-1,867,1688,-4.81012,-4.5348
-350,-664,-5.7193,3.19934,0,0,0,0,0,0,0,-1,874,1688,-5.71927,-3.19932
-343,-664,7.80219,22.6451,0,0,0,0,0,0,0,-1,881,1688,7.80219,-22.6451
-336,-664,4.43756,27.1467,0,0,0,0,0,0,0,-1,888,1688,4.43757,-27.1468
-329,-664,4.8681,27.2225,0,0,0,0,0,0,0,-1,895,1688,4.86813,-27.2225
-322,-664,5.35553,27.3022,0,0,0,0,0,0,0,-1,902,1688,5.35552,-27.3023
-315,-664,5.77405,25.9874,0,0,0,0,0,0,0,-1,909,1688,5.77402,-25.9874
-308,-664,5.93604,26.6915,0,0,0,0,0,0,0,-1,916,1688,5.93604,-26.6916
-301,-664,5.40393,28.2635,0,0,0,0,0,0,0,-1,923,1688,5.40393,-28.2636
-294,-664,5.72424,28.3656,0.0024167,-0.00339235,-0.000570876,0.00247227,-0.00344792,-0.0970366,0.00343346,0.0458597,930,1688,5.72422,-28.3656
-287,-664,5.97388,28.4268,0.00095052,-0.00333221,-0.00101872,0.00118049,-0.00356218,-0.222023,0.00285095,0.0327025,937,1688,5.97387,-28.4267
-280,-664,5.81433,28.78,-0.000181768,-0.00302228,-0.00117967,0.000244258,-0.00344831,-0.346563,0.00238447,0.0219455,944,1688,5.8143,-28.78
-273,-664,5.81238,29.1584,-0.000906838,-0.00224709,-0.0011659,-0.000232202,-0.00292172,-0.524566,0.00187521,0.0154637,951,1688,5.8124,-29.1584
-266,-664,5.77576,29.5536,-0.000968628,-0.00168798,-0.000882282,-0.000375525,-0.00228108,-0.59185,0.00141229,0.0213953,958,1688,5.77578,-29.5536
-259,-664,5.75323,29.9401,-0.00109247,-0.0010707,-0.000764939,-0.000316565,-0.0018466,-0.792512,0.00114029,0.0184515,965,1688,5.75321,-29.94
-252,-664,5.77374,30.3102,-0.00101642,-0.000200807,-0.000469212,1.30504e-05,-0.00123028,-1.14315,0.000824569,0.0167009,972,1688,5.77372,-30.3102
-245,-664,5.72949,30.7214,-0.000728629,0.00062884,-0.000143643,0.000643874,-0.000743663,-1.46652,0.000801785,0.0203717,979,1688,5.72949,-30.7215
-238,-664,5.75433,31.1234,-0.000520576,0.00143522,0.000175498,0.00145085,-0.000536199,1.48201,0.00118704,0.0235605,986,1688,5.75435,-31.1235
-231,-664,5.76691,31.4849,-0.000223119,0.0019377,0.000523241,0.00205773,-0.000343154,1.34529,0.00149935,0.0209712,993,1688,5.76693,-31.4848
-224,-664,5.74878,31.8589,0.00020055,0.00219343,0.000728755,0.00243148,-3.75046e-05,1.25506,0.00163363,0.0145014,1000,1688,5.74875,-31.8589
-217,-664,5.72455,32.2141,0.000168123,0.00251165,0.000940964,0.0028427,-0.000162925,1.2325,0.00195171,0.0108576,1007,1688,5.72457,-32.2141
-210,-664,5.71899,32.5435,-0.000204309,0.00300382,0.000996213,0.003288,-0.000488488,1.29292,0.00237166,0.0112631,1014,1688,5.71898,-32.5434
-203,-664,5.70789,32.8853,-0.000509418,0.00320674,0.00102943,0.00347285,-0.000775528,1.31783,0.0026124,0.0129692,1021,1688,5.70785,-32.8853
-196,-664,5.72778,33.218,-0.000997654,0.0035344,0.0011416,0.00380572,-0.00126897,1.33746,0.00304946,0.0141739,1028,1688,5.72778,-33.218
-189,-664,5.71899,33.5607,-0.00159433,0.00382098,0.00113716,0.00405008,-0.00182343,1.37199,0.00347135,0.0101403,1035,1688,5.71897,-33.5607
-182,-664,5.6991,33.8877,-0.00226294,0.00422707,0.00116445,0.00442967,-0.00246554,1.39853,0.00403443,0.00920901,1042,1688,5.69907,-33.8877
-175,-664,5.71545,34.1769,-0.00293075,0.00463722,0.00121507,0.00482752,-0.00312105,1.41544,0.00462423,0.0124023,1049,1688,5.71544,-34.1769
-168,-664,5.73376,34.4723,-0.00354017,0.00514949,0.00130325,0.00534073,-0.00373142,1.42509,0.00526521,0.0135504,1056,1688,5.73382,-34.4723
-161,-664,5.71948,34.7871,-0.00399385,0.00577759,0.00130361,0.00594852,-0.00416477,1.44042,0.0058691,0.0105707,1063,1688,5.71951,-34.7871
-154,-664,5.76782,35.0826,-0.0043532,0.0062592,0.00145071,0.00645394,-0.00454794,1.43736,0.00638363,0.0110638,1070,1688,5.76782,-35.0827
-147,-664,5.77698,35.3846,-0.00463493,0.00693786,0.00166674,0.00717313,-0.00487019,1.43057,0.00699546,0.0180454,1077,1688,5.77704,-35.3847
-140,-664,5.79041,35.7322,-0.00472821,0.0074435,0.00195462,0.00774969,-0.0050344,1.41541,0.00743618,0.0239096,1084,1688,5.79041,-35.7322
-133,-664,5.83948,35.9233,0,0,0,0,0,0,0,-1,1091,1688,5.83946,-35.9234
-126,-664,5.84265,36.2906,0,0,0,0,0,0,0,-1,1098,1688,5.84266,-36.2906
-119,-664,5.87085,36.927,0,0,0,0,0,0,0,-1,1105,1688,5.87089,-36.9271
-112,-664,6.48157,36.9996,0,0,0,0,0,0,0,-1,1112,1688,6.48154,-36.9996
-105,-664,6.71448,36.7859,0,0,0,0,0,0,0,-1,1119,1688,6.71453,-36.7859
-98,-664,6.54138,37.2653,0,0,0,0,0,0,0,-1,1126,1688,6.54135,-37.2652
-91,-664,5.41931,25.6302,0,0,0,0,0,0,0,-1,1133,1688,5.41932,-25.6302
-84,-664,3.48389,16.6913,0,0,0,0,0,0,0,-1,1140,1688,3.4839,-16.6913
-77,-664,4.52014,11.2122,0,0,0,0,0,0,0,-1,1147,1688,4.5202,-11.2122
-70,-664,4.20374,8.24524,0,0,0,0,0,0,0,-1,1154,1688,4.20379,-8.24519
-63,-664,-4.677,2.40503,0,0,0,0,0,0,0,-1,1161,1688,-4.67702,-2.40498
-56,-664,-4.66504,3.32727,0,0,0,0,0,0,0,-1,1168,1688,-4.6651,-3.32724
-49,-664,-2.54297,3.31848,0,0,0,0,0,0,0,-1,1175,1688,-2.54297,-3.31852
-42,-664,-0.359253,4.38684,0,0,0,0,0,0,0,-1,1182,1688,-0.359261,-4.38685
-35,-664,-0.705566,3.55017,0,0,0,0,0,0,0,-1,1189,1688,-0.705567,-3.55023
-28,-664,-1.54236,10.2538,0,0,0,0,0,0,0,-1,1196,1688,-1.54236,-10.2538
-21,-664,7.57617,38.6572,0,0,0,0,0,0,0,-1,1203,1688,7.57615,-38.6572
-14,-664,7.84204,38.8748,0,0,0,0,0,0,0,-1,1210,1688,7.84199,-38.8747
-7,-664,7.12732,39.1161,0,0,0,0,0,0,0,-1,1217,1688,7.12731,-39.1161
0,-664,6.73621,39.0875,0.0913475,0.123321,0.0692741,0.178429,0.0362392,0.898799,0.108902,0.0452112,1224,1688,6.73624,-39.0876
7,-664,6.09436,43.4214,0.112726,0.132532,0.0506362,0.174224,0.071033,0.881965,0.101158,0.0481077,1231,1688,6.09435,-43.4214
14,-664,6.40735,44.0325,0,0,0,0,0,0,0,-1,1238,1688,6.40733,-44.0325
21,-664,6.80103,44.6796,0,0,0,0,0,0,0,-1,1245,1688,6.80108,-44.6796
28,-664,7.44836,44.8632,0,0,0,0,0,0,0,-1,1252,1688,7.44834,-44.8631
35,-664,8.33044,44.8018,0.152266,0.129185,0.00254832,0.152544,0.128907,0.108664,0.0948042,0.0482572,1259,1688,8.33046,-44.8018
42,-664,8.85657,44.6863,0.15271,0.121983,-0.00309388,0.153019,0.121675,-0.099359,0.0933357,0.0480225,1266,1688,8.85659,-44.6863
49,-664,9.36072,45.4395,0,0,0,0,0,0,0,-1,1273,1688,9.36066,-45.4394
56,-664,10.2148,45.6433,0,0,0,0,0,0,0,-1,1280,1688,10.2149,-45.6433
63,-664,7.93225,38.2437,0,0,0,0,0,0,0,-1,1287,1688,7.93222,-38.2436
70,-664,8.25012,38.7147,0.11372,0.0831285,0.00115427,0.113763,0.083085,0.0376607,0.0679646,0.0480135,1294,1688,8.25009,-38.7147
77,-664,8.62207,39.1823,0.0993206,0.0747131,0.00790194,0.10164,0.0723941,0.285449,0.0604185,0.0423006,1301,1688,8.62207,-39.1822
84,-664,8.89758,39.8207,0.0837975,0.0676216,0.0145548,0.0923606,0.0590585,0.531798,0.0540112,0.0457243,1308,1688,8.89763,-39.8207
91,-664,9.14099,40.3395,0.0752458,0.0638328,0.0207959,0.0911039,0.0479746,0.651491,0.0526237,0.0437045,1315,1688,9.14099,-40.3395
98,-664,8.27905,42.6277,0.072376,0.0628943,0.0261716,0.0942326,0.0410377,0.695798,0.054556,0.0490962,1322,1688,8.27904,-42.6277
105,-664,8.05322,42.5792,0.0695309,0.0636607,0.0327169,0.099444,0.0337475,0.740662,0.0583934,0.0496376,1329,1688,8.05319,-42.5792
112,-664,8.0907,42.5154,0,0,0,0,0,0,0,-1,1336,1688,8.09074,-42.5154
119,-664,11.429,39.0908,0,0,0,0,0,0,0,-1,1343,1688,11.429,-39.0909
126,-664,7.29456,39.8761,0,0,0,0,0,0,0,-1,1350,1688,7.29456,-39.8761
133,-664,11.7394,38.3341,0,0,0,0,0,0,0,-1,1357,1688,11.7394,-38.3341
140,-664,13.8457,38.3126,0.129836,0.0763317,0.0470649,0.15722,0.0489471,0.526966,0.0929003,0.0466475,1364,1688,13.8457,-38.3126
147,-664,15.8949,38.2089,0.139176,0.0772863,0.0501402,0.167151,0.0493106,0.508926,0.0991716,0.0481483,1371,1688,15.8948,-38.2089
154,-664,17.8616,38.0765,0,0,0,0,0,0,0,-1,1378,1688,17.8616,-38.0766
161,-664,4.60132,1.56238,0,0,0,0,0,0,0,-1,1385,1688,4.60134,-1.56233
168,-664,5.172,1.25488,0,0,0,0,0,0,0,-1,1392,1688,5.17203,-1.25484
175,-664,5.58313,1.16467,0,0,0,0,0,0,0,-1,1399,1688,5.58317,-1.16466
182,-664,5.74268,1.41113,0,0,0,0,0,0,0,-1,1406,1688,5.74263,-1.41115
189,-664,5.87744,1.87061,0,0,0,0,0,0,0,-1,1413,1688,5.87745,-1.87065
196,-664,6.7594,5.97473,0,0,0,0,0,0,0,-1,1420,1688,6.75943,-5.97478
203,-664,5.38452,5.22034,0,0,0,0,0,0,0,-1,1427,1688,5.38453,-5.2203
210,-664,5.25549,6.45715,0,0,0,0,0,0,0,-1,1434,1688,5.25549,-6.45721
217,-664,5.72009,6.73975,0,0,0,0,0,0,0,-1,1441,1688,5.72014,-6.73972
224,-664,5.05725,7.42908,0,0,0,0,0,0,0,-1,1448,1688,5.05723,-7.42912
231,-664,5.13318,7.60864,0,0,0,0,0,0,0,-1,1455,1688,5.13313,-7.60862
238,-664,4.23193,6.45471,0,0,0,0,0,0,0,-1,1462,1688,4.23197,-6.45476
245,-664,4.42004,6.80896,0,0,0,0,0,0,0,-1,1469,1688,4.4201,-6.80901
252,-664,3.67346,6.85461,0,0,0,0,0,0,0,-1,1476,1688,3.6734,-6.85462
259,-664,4.55823,11.7435,0,0,0,0,0,0,0,-1,1483,1688,4.55826,-11.7435
266,-664,9.6676,35.6807,0,0,0,0,0,0,0,-1,1490,1688,9.66761,-35.6806
273,-664,9.9021,35.6908,0,0,0,0,0,0,0,-1,1497,1688,9.90211,-35.6907
280,-664,9.91345,35.5328,0.00808527,0.015011,-0.000434846,0.0150382,0.00805807,-1.50834,0.00868972,0.0284417,1504,1688,9.91347,-35.5329
287,-664,9.90503,35.2312,0.00715517,0.0138825,-0.000473045,0.0139156,0.00712207,-1.50094,0.00803494,0.0239212,1511,1688,9.90505,-35.2312
294,-664,9.97986,34.9736,0.0062213,0.0125952,-0.000608101,0.0126527,0.0061638,-1.47653,0.00730586,0.0170626,1518,1688,9.97984,-34.9736
301,-664,10.0342,34.689,0.00537319,0.0110498,-0.000771911,0.0111529,0.0052701,-1.43803,0.00644234,0.0116501,1525,1688,10.0341,-34.6889
308,-664,10.0626,34.3887,0.0045741,0.00936911,-0.000853324,0.00951644,0.00442677,-1.39983,0.00549876,0.0115638,1532,1688,10.0626,-34.3886
315,-664,10.074,34.0846,0.00394069,0.00794606,-0.00106985,0.00821391,0.00367284,-1.32548,0.00475112,0.0115731,1539,1688,10.074,-34.0846
322,-664,10.0925,33.7942,0.00339129,0.00663787,-0.00120456,0.00703598,0.00299319,-1.2516,0.00407726,0.0148103,1546,1688,10.0926,-33.7942
329,-664,10.0896,33.4744,0.00291471,0.00531789,-0.00131933,0.00590081,0.00233179,-1.15476,0.0034317,0.0173142,1553,1688,10.0896,-33.4744
336,-664,10.0846,33.1392,0.00238546,0.00426462,-0.0013137,0.00494016,0.00170992,-1.09583,0.00289688,0.0141233,1560,1688,10.0846,-33.1392
343,-664,10.0809,32.8408,0.00200083,0.00287117,-0.00143878,0.00393915,0.000932848,-0.932254,0.00237697,0.0110518,1567,1688,10.0809,-32.8408
350,-664,10.069,32.514,0.00178723,0.00162651,-0.00142752,0.00313665,0.000277085,-0.757281,0.00200513,0.0130601,1574,1688,10.0689,-32.514
357,-664,10.0762,32.1587,0.00166535,0.000380263,-0.00131188,0.00248359,-0.000437978,-0.557676,0.00181938,0.0136027,1581,1688,10.0761,-32.1587
364,-664,10.0798,31.8119,0.00147581,-0.000863561,-0.00111064,0.0019191,-0.00130685,-0.379755,0.00187365,0.0117712,1588,1688,10.0799,-31.8119
371,-664,10.0668,31.4764,0.00133213,-0.00219062,-0.000938205,0.00156642,-0.00242491,-0.244714,0.0023221,0.0143283,1595,1688,10.0668,-31.4765
378,-664,10.0323,31.1172,0.00122564,-0.00366302,-0.000681989,0.001319,-0.00375638,-0.136044,0.00304082,0.0133076,1602,1688,10.0323,-31.1171
385,-664,10.005,30.7769,0.00124137,-0.00523483,-0.0003887,0.00126461,-0.00525808,-0.059734,0.00399422,0.0139578,1609,1688,10.005,-30.7768
392,-664,9.97681,30.4313,0.00131247,-0.00672465,-0.000388863,0.00133124,-0.00674343,-0.0482332,0.00499881,0.0165252,1616,1688,9.97679,-30.4313
399,-664,9.98645,30.0646,0.0011238,-0.0080043,-0.000255426,0.00113094,-0.00801144,-0.0279532,0.0057551,0.0130446,1623,1688,9.98647,-30.0645
406,-664,9.99988,29.6898,0.0010551,-0.0085208,-0.000194456,0.00105904,-0.00852474,-0.0202957,0.00606707,0.0121245,1630,1688,9.99984,-29.6899
413,-664,10.0034,29.29,0.00119036,-0.00850099,-0.000265441,0.00119763,-0.00850826,-0.0273621,0.00611063,0.0136613,1637,1688,10.0035,-29.2901
420,-664,10.0466,28.9406,0.00149196,-0.00755584,-0.000859127,0.00157282,-0.00763669,-0.0938368,0.00568835,0.0330428,1644,1688,10.0466,-28.9406
427,-664,9.97729,28.3767,0,0,0,0,0,0,0,-1,1651,1688,9.97724,-28.3767
434,-664,9.93701,28.0022,0,0,0,0,0,0,0,-1,1658,1688,9.93697,-28.0022
441,-664,10.3843,27.3674,0,0,0,0,0,0,0,-1,1665,1688,10.3843,-27.3675
448,-664,7.27502,19.7417,0,0,0,0,0,0,0,-1,1672,1688,7.27505,-19.7417
455,-664,7.53198,11.3838,0,0,0,0,0,0,0,-1,1679,1688,7.53195,-11.3838
462,-664,4.3147,4.25439,0,0,0,0,0,0,0,-1,1686,1688,4.31467,-4.25435
469,-664,6.05469,7.49341,0,0,0,0,0,0,0,-1,1693,1688,6.05474,-7.49339
476,-664,10.2377,22.7128,0,0,0,0,0,0,0,-1,1700,1688,10.2377,-22.7128
483,-664,8.41895,10.9768,0,0,0,0,0,0,0,-1,1707,1688,8.41897,-10.9769
490,-664,3.90771,13.2842,0,0,0,0,0,0,0,-1,1714,1688,3.90776,-13.2841
497,-664,0,0,0,0,0,0,0,0,0,-1,1721,1688,0,0
504,-664,0,0,0,0,0,0,0,0,0,-1,1728,1688,0,0
511,-664,0,0,0,0,0,0,0,0,0,-1,1735,1688,0,0
518,-664,0,0,0,0,0,0,0,0,0,-1,1742,1688,0,0
525,-664,0,0,0,0,0,0,0,0,0,-1,1749,1688,0,0
532,-664,0,0,0,0,0,0,0,0,0,-1,1756,1688,0,0
539,-664,0,0,0,0,0,0,0,0,0,-1,1763,1688,0,0
546,-664,0,0,0,0,0,0,0,0,0,-1,1770,1688,0,0
553,-664,0,0,0,0,0,0,0,0,0,-1,1777,1688,0,0
560,-664,0,0,0,0,0,0,0,0,0,-1,1784,1688,0,0
567,-664,0,0,0,0,0,0,0,0,0,-1,1791,1688,0,0
574,-664,0,0,0,0,0,0,0,0,0,-1,1798,1688,0,0
581,-664,0,0,0,0,0,0,0,0,0,-1,1805,1688,0,0
588,-664,0,0,0,0,0,0,0,0,0,-1,1812,1688,0,0
595,-664,0,0,0,0,0,0,0,0,0,-1,1819,1688,0,0
602,-664,0,0,0,0,0,0,0,0,0,-1,1826,1688,0,0
609,-664,0,0,0,0,0,0,0,0,0,-1,1833,1688,0,0
616,-664,0,0,0,0,0,0,0,0,0,-1,1840,1688,0,0
623,-664,0,0,0,0,0,0,0,0,0,-1,1847,1688,0,0
630,-664,0,0,0,0,0,0,0,0,0,-1,1854,1688,0,0
637,-664,0,0,0,0,0,0,0,0,0,-1,1861,1688,0,0
644,-664,0,0,0,0,0,0,0,0,0,-1,1868,1688,0,0
651,-664,0,0,0,0,0,0,0,0,0,-1,1875,1688,0,0
658,-664,0,0,0,0,0,0,0,0,0,-1,1882,1688,0,0
665,-664,0,0,0,0,0,0,0,0,0,-1,1889,1688,0,0
672,-664,0,0,0,0,0,0,0,0,0,-1,1896,1688,0,0
679,-664,0,0,0,0,0,0,0,0,0,-1,1903,1688,0,0
686,-664,0,0,0,0,0,0,0,0,0,-1,1910,1688,0,0
693,-664,0,0,0,0,0,0,0,0,0,-1,1917,1688,0,0
700,-664,0,0,0,0,0,0,0,0,0,-1,1924,1688,0,0
707,-664,0,0,0,0,0,0,0,0,0,-1,1931,1688,0,0
714,-664,0,0,0,0,0,0,0,0,0,-1,1938,1688,0,0
721,-664,0,0,0,0,0,0,0,0,0,-1,1945,1688,0,0
728,-664,0,0,0,0,0,0,0,0,0,-1,1952,1688,0,0
735,-664,0,0,0,0,0,0,0,0,0,-1,1959,1688,0,0
742,-664,0,0,0,0,0,0,0,0,0,-1,1966,1688,0,0
749,-664,0,0,0,0,0,0,0,0,0,-1,1973,1688,0,0
756,-664,0,0,0,0,0,0,0,0,0,-1,1980,1688,0,0
763,-664,0,0,0,0,0,0,0,0,0,-1,1987,1688,0,0
770,-664,0,0,0,0,0,0,0,0,0,-1,1994,1688,0,0
777,-664,0,0,0,0,0,0,0,0,0,-1,2001,1688,0,0
784,-664,0,0,0,0,0,0,0,0,0,-1,2008,1688,0,0
791,-664,0,0,0,0,0,0,0,0,0,-1,2015,1688,0,0
798,-664,0,0,0,0,0,0,0,0,0,-1,2022,1688,0,0
805,-664,0,0,0,0,0,0,0,0,0,-1,2029,1688,0,0
812,-664,0,0,0,0,0,0,0,0,0,-1,2036,1688,0,0
-700,-671,0,0,0,0,0,0,0,0,0,-1,524,1695,0,0
-693,-671,0,0,0,0,0,0,0,0,0,-1,531,1695,0,0
-686,-671,0,0,0,0,0,0,0,0,0,-1,538,1695,0,0
-679,-671,0,0,0,0,0,0,0,0,0,-1,545,1695,0,0
-672,-671,0,0,0,0,0,0,0,0,0,-1,552,1695,0,0
-665,-671,0,0,0,0,0,0,0,0,0,-1,559,1695,0,0
-658,-671,0,0,0,0,0,0,0,0,0,-1,566,1695,0,0
-651,-671,0,0,0,0,0,0,0,0,0,-1,573,1695,0,0
-644,-671,0,0,0,0,0,0,0,0,0,-1,580,1695,0,0
-637,-671,0,0,0,0,0,0,0,0,0,-1,587,1695,0,0
-630,-671,0,0,0,0,0,0,0,0,0,-1,594,1695,0,0
-623,-671,0,0,0,0,0,0,0,0,0,-1,601,1695,0,0
-616,-671,0,0,0,0,0,0,0,0,0,-1,608,1695,0,0
-609,-671,0,0,0,0,0,0,0,0,0,-1,615,1695,0,0
-602,-671,0,0,0,0,0,0,0,0,0,-1,622,1695,0,0
-595,-671,0,0,0,0,0,0,0,0,0,-1,629,1695,0,0
-588,-671,0,0,0,0,0,0,0,0,0,-1,636,1695,0,0
-581,-671,0,0,0,0,0,0,0,0,0,-1,643,1695,0,0
-574,-671,0,0,0,0,0,0,0,0,0,-1,650,1695,0,0
-567,-671,0,0,0,0,0,0,0,0,0,-1,657,1695,0,0
-560,-671,0,0,0,0,0,0,0,0,0,-1,664,1695,0,0
-553,-671,0,0,0,0,0,0,0,0,0,-1,671,1695,0,0
-546,-671,0,0,0,0,0,0,0,0,0,-1,678,1695,0,0
-539,-671,0,0,0,0,0,0,0,0,0,-1,685,1695,0,0
-532,-671,0,0,0,0,0,0,0,0,0,-1,692,1695,0,0
-525,-671,0,0,0,0,0,0,0,0,0,-1,699,1695,0,0
-518,-671,0,0,0,0,0,0,0,0,0,-1,706,1695,0,0
-511,-671,0,0,0,0,0,0,0,0,0,-1,713,1695,0,0
-504,-671,0,0,0,0,0,0,0,0,0,-1,720,1695,0,0
-497,-671,0,0,0,0,0,0,0,0,0,-1,727,1695,0,0
-490,-671,0,0,0,0,0,0,0,0,0,-1,734,1695,0,0
-483,-671,0,0,0,0,0,0,0,0,0,-1,741,1695,0,0
-476,-671,0,0,0,0,0,0,0,0,0,-1,748,1695,0,0
-469,-671,0,0,0,0,0,0,0,0,0,-1,755,1695,0,0
-462,-671,0,0,0,0,0,0,0,0,0,-1,762,1695,0,0
-455,-671,0,0,0,0,0,0,0,0,0,-1,769,1695,0,0
-448,-671,0,0,0,0,0,0,0,0,0,-1,776,1695,0,0
-441,-671,0,0,0,0,0,0,0,0,0,-1,783,1695,0,0
-434,-671,0,0,0,0,0,0,0,0,0,-1,790,1695,0,0
-427,-671,0,0,0,0,0,0,0,0,0,-1,797,1695,0,0
-420,-671,0,0,0,0,0,0,0,0,0,-1,804,1695,0,0
-413,-671,0,0,0,0,0,0,0,0,0,-1,811,1695,0,0
-406,-671,0,0,0,0,0,0,0,0,0,-1,818,1695,0,0
-399,-671,0,0,0,0,0,0,0,0,0,-1,825,1695,0,0
-392,-671,0,0,0,0,0,0,0,0,0,-1,832,1695,0,0
-385,-671,0,0,0,0,0,0,0,0,0,-1,839,1695,0,0
-378,-671,0,0,0,0,0,0,0,0,0,-1,846,1695,0,0
-371,-671,0,0,0,0,0,0,0,0,0,-1,853,1695,0,0
-364,-671,-4.18738,7.51416,0,0,0,0,0,0,0,-1,860,1695,-4.18739,-7.51419
-357,-671,-5.02393,6.07129,0,0,0,0,0,0,0,-1,867,1695,-5.0239,-6.07135
-350,-671,-5.72333,4.58386,0,0,0,0,0,0,0,-1,874,1695,-5.72333,-4.58386
-343,-671,8.04773,23.1034,0,0,0,0,0,0,0,-1,881,1695,8.04774,-23.1034
-336,-671,7.64795,23.7375,0,0,0,0,0,0,0,-1,888,1695,7.64792,-23.7375
-329,-671,5.36792,27.3291,0,0,0,0,0,0,0,-1,895,1695,5.36795,-27.3292
-322,-671,5.70001,27.7072,0,0,0,0,0,0,0,-1,902,1695,5.70003,-27.7071
-315,-671,5.98346,27.9559,0,0,0,0,0,0,0,-1,909,1695,5.98343,-27.9559
-308,-671,6.25031,27.9792,0,0,0,0,0,0,0,-1,916,1695,6.25033,-27.9793
-301,-671,5.34387,28.0437,0,0,0,0,0,0,0,-1,923,1695,5.34389,-28.0437
-294,-671,6.68225,28.0406,0,0,0,0,0,0,0,-1,930,1695,6.68222,-28.0406
-287,-671,6.54028,28.5376,0.00125716,-0.0044011,-0.00173208,0.00174527,-0.0048892,-0.274682,0.00397119,0.0480338,937,1695,6.54031,-28.5376
-280,-671,6.63757,28.86,-0.000243177,-0.00378291,-0.00175736,0.000481095,-0.00450718,-0.390926,0.00317732,0.0373889,944,1695,6.63758,-28.86
-273,-671,6.30627,29.1721,-0.00118607,-0.00266534,-0.0015923,-0.000170012,-0.00368141,-0.567972,0.00239961,0.0323031,951,1695,6.30627,-29.1721
-266,-671,6.2345,29.592,-0.00123493,-0.00200005,-0.00116995,-0.000386583,-0.00284839,-0.627383,0.00178408,0.0259706,958,1695,6.23451,-29.592
-259,-671,6.12463,29.9362,-0.0014668,-0.00113002,-0.000993427,-0.000290813,-0.00230601,-0.869351,0.00145015,0.0230658,965,1695,6.12465,-29.9362
-252,-671,6.13318,30.3115,-0.00147332,-9.99489e-05,-0.000598817,0.000124474,-0.00169774,-1.21222,0.00117552,0.0172518,972,1695,6.13316,-30.3116
-245,-671,6.10205,30.7191,-0.00122381,0.000781855,-0.000195437,0.000800721,-0.00124268,-1.47456,0.00118892,0.0197012,979,1695,6.10206,-30.7192
-238,-671,6.13007,31.114,-0.00108762,0.00163718,0.000172929,0.00164811,-0.00109855,1.50767,0.00159633,0.0206203,986,1695,6.13008,-31.114
-231,-671,6.11981,31.5,-0.000851358,0.0020392,0.000534756,0.00213496,-0.000947116,1.39361,0.00182296,0.0162657,993,1695,6.11982,-31.5001
-224,-671,6.08075,31.8507,-0.000444902,0.00215882,0.000742897,0.00235587,-0.000641953,1.31152,0.00182264,0.0119814,1000,1695,6.08075,-31.8508
-217,-671,6.07019,32.1921,-0.000275407,0.00227308,0.000800958,0.00250391,-0.000506231,1.29021,0.00186111,0.0112847,1007,1695,6.07018,-32.1922
-210,-671,6.0625,32.5518,-0.000356951,0.00253352,0.000848438,0.00276415,-0.00058759,1.30537,0.00206667,0.0108157,1014,1695,6.06249,-32.5518
-203,-671,6.03271,32.8954,-0.000503718,0.00258883,0.000904631,0.00283401,-0.000748902,1.30612,0.00218224,0.0179418,1021,1695,6.03271,-32.8954
-196,-671,6.03223,33.2314,-0.000750718,0.00267013,0.000987959,0.00293496,-0.00101554,1.3089,0.00236886,0.0163254,1028,1695,6.03219,-33.2315
-189,-671,6.05518,33.604,-0.00104082,0.00267668,0.000900405,0.00288328,-0.00124742,1.34525,0.00244641,0.0127709,1035,1695,6.05512,-33.604
-182,-671,6.02332,33.8997,-0.00133657,0.00292022,0.000891106,0.00309923,-0.00151559,1.37255,0.00271616,0.00984222,1042,1695,6.02327,-33.8996
-175,-671,6.03357,34.1886,-0.00159928,0.00318233,0.000922604,0.00335417,-0.00177112,1.38665,0.00300577,0.0125853,1049,1695,6.03362,-34.1886
-168,-671,6.03369,34.4883,-0.00184538,0.00355494,0.000999434,0.00373397,-0.00202441,1.39355,0.00337308,0.0133652,1056,1695,6.03367,-34.4882
-161,-671,6.03333,34.8037,-0.00202211,0.00414119,0.00100483,0.00430087,-0.0021818,1.4132,0.00380884,0.00926307,1063,1695,6.03327,-34.8036
-154,-671,6.05237,35.0747,-0.00210799,0.00456912,0.0011364,0.00475722,-0.00229609,1.40675,0.00415405,0.00861755,1070,1695,6.05236,-35.0747
-147,-671,6.05493,35.3778,-0.00216791,0.00521746,0.00128801,0.00543564,-0.0023861,1.40299,0.00462888,0.00998134,1077,1695,6.05491,-35.3778
-140,-671,6.08936,35.6633,-0.00209248,0.00574657,0.0014876,0.00601938,-0.00236528,1.38943,0.00499177,0.0131561,1084,1695,6.0893,-35.6633
-133,-671,6.10596,35.9152,-0.00198599,0.00628199,0.00182925,0.00666862,-0.00237262,1.3625,0.00541282,0.0177307,1091,1695,6.10593,-35.9151
-126,-671,6.14368,36.2468,-0.00187804,0.00648986,0.00216645,0.00701748,-0.00240566,1.3319,0.00565348,0.0246415,1098,1695,6.1437,-36.2468
-119,-671,6.19849,36.7395,-0.00153448,0.00658597,0.00263336,0.00736516,-0.00231368,1.28311,0.00583626,0.0425427,1105,1695,6.19855,-36.7395
-112,-671,6.28467,37.4457,0,0,0,0,0,0,0,-1,1112,1695,6.28467,-37.4457
-105,-671,6.55725,37.0691,0.001655,0.00577274,0.00397005,0.00818603,-0.000758287,1.02461,0.00572687,0.0465716,1119,1695,6.55729,-37.0691
-98,-671,6.44202,37.3516,0.00112864,0.00658565,0.00546008,0.00996102,-0.00224672,1.01711,0.00750257,0.0467902,1126,1695,6.44208,-37.3516
-91,-671,6.44836,37.6227,0,0,0,0,0,0,0,-1,1133,1695,6.44835,-37.6227
-84,-671,5.4209,26.2415,0,0,0,0,0,0,0,-1,1140,1695,5.42096,-26.2414
-77,-671,4.31763,16.489,0,0,0,0,0,0,0,-1,1147,1695,4.31757,-16.489
-70,-671,3.06067,10.7737,0,0,0,0,0,0,0,-1,1154,1695,3.0607,-10.7737
-63,-671,2.94592,6.90198,0,0,0,0,0,0,0,-1,1161,1695,2.94594,-6.90198
-56,-671,-3.07678,2.87976,0,0,0,0,0,0,0,-1,1168,1695,-3.07675,-2.87979
-49,-671,-1.05957,4.76917,0,0,0,0,0,0,0,-1,1175,1695,-1.05958,-4.76921
-42,-671,0.539307,3.7865,0,0,0,0,0,0,0,-1,1182,1695,0.539266,-3.78648
-35,-671,-0.272461,0.347534,0,0,0,0,0,0,0,-1,1189,1695,-0.272434,-0.347569
-28,-671,-10.4878,17.2009,0,0,0,0,0,0,0,-1,1196,1695,-10.4878,-17.2009
-21,-671,7.24194,38.3204,0,0,0,0,0,0,0,-1,1203,1695,7.24195,-38.3204
-14,-671,7.38147,38.5951,0.0576254,0.0877859,0.0730191,0.147266,-0.00185443,0.887229,0.0988011,0.0464863,1210,1695,7.38144,-38.5951
-7,-671,7.34473,38.9653,0.0620015,0.0963642,0.0660674,0.147448,0.010918,0.912609,0.0948689,0.0472848,1217,1695,7.34467,-38.9653
0,-671,7.35779,39.3691,0.0724846,0.106315,0.0549452,0.14689,0.0319098,0.934723,0.089213,0.0443061,1224,1695,7.35778,-39.3692
7,-671,5.9928,42.0455,0.0879557,0.114648,0.041843,0.145222,0.0573818,0.939775,0.0844562,0.045766,1231,1695,5.99278,-42.0455
14,-671,6.41113,42.5526,0.0986717,0.120011,0.0302936,0.141459,0.0772237,0.954717,0.081786,0.0462509,1238,1695,6.41117,-42.5526
21,-671,6.81689,43.1682,0.107307,0.121354,0.0197488,0.135291,0.0933696,0.956242,0.0799706,0.0492359,1245,1695,6.81691,-43.1682
28,-671,7.46057,43.3629,0.114101,0.119399,0.0114535,0.128506,0.104994,0.899042,0.0790083,0.0490519,1252,1695,7.46062,-43.3629
35,-671,8.34631,43.3271,0.116668,0.113585,0.0060077,0.121329,0.108924,0.659803,0.0770843,0.0484091,1259,1695,8.34635,-43.3271
42,-671,8.87024,43.722,0.116936,0.107489,0.00160283,0.1172,0.107225,0.163572,0.0750298,0.0481101,1266,1695,8.87028,-43.722
49,-671,9.47607,44.1166,0,0,0,0,0,0,0,-1,1273,1695,9.47612,-44.1165
56,-671,10.1406,44.48,0.106931,0.0915352,-0.00147388,0.107071,0.0913954,-0.0945889,0.0667715,0.045326,1280,1695,10.1407,-44.48
63,-671,11.0803,44.8358,0.098134,0.0823573,-0.000867764,0.0981816,0.0823097,-0.0547825,0.0608576,0.0476391,1287,1695,11.0804,-44.8359
70,-671,7.60486,38.9277,0.0870268,0.0733031,0.00321674,0.0877434,0.0725865,0.219183,0.054155,0.0458092,1294,1695,7.60485,-38.9277
77,-671,8.12866,39.228,0.0761049,0.0654185,0.00816484,0.0805195,0.0610039,0.495661,0.0485014,0.0431247,1301,1695,8.12866,-39.228
84,-671,8.62207,39.7666,0.0644057,0.058757,0.0129929,0.0748776,0.048285,0.678375,0.0438312,0.0467555,1308,1695,8.62208,-39.7666
91,-671,8.21228,40.7021,0,0,0,0,0,0,0,-1,1315,1695,8.21226,-40.7021
98,-671,8.15173,41.6165,0.0565728,0.0538172,0.021491,0.0767301,0.0336599,0.753387,0.0444111,0.0433671,1322,1695,8.1517,-41.6165
105,-671,8.04456,41.6344,0.0553852,0.0542502,0.0262008,0.0810246,0.0286107,0.774569,0.0474477,0.0448959,1329,1695,8.04459,-41.6343
112,-671,7.96387,41.624,0,0,0,0,0,0,0,-1,1336,1695,7.96384,-41.6241
119,-671,7.88281,41.5927,0,0,0,0,0,0,0,-1,1343,1695,7.88276,-41.5926
126,-671,7.29126,39.5925,0,0,0,0,0,0,0,-1,1350,1695,7.29125,-39.5925
133,-671,7.2981,37.8523,0,0,0,0,0,0,0,-1,1357,1695,7.29808,-37.8523
140,-671,13.7292,37.3341,0,0,0,0,0,0,0,-1,1364,1695,13.7292,-37.3341
147,-671,15.8409,36.7755,0,0,0,0,0,0,0,-1,1371,1695,15.8409,-36.7755
154,-671,17.8539,36.5388,0,0,0,0,0,0,0,-1,1378,1695,17.8538,-36.5388
161,-671,4.49292,4.91272,0,0,0,0,0,0,0,-1,1385,1695,4.49297,-4.91273
168,-671,5.17639,6.1416,0,0,0,0,0,0,0,-1,1392,1695,5.1764,-6.14164
175,-671,5.6731,1.64685,0,0,0,0,0,0,0,-1,1399,1695,5.67313,-1.64691
182,-671,5.56812,1.71692,0,0,0,0,0,0,0,-1,1406,1695,5.56809,-1.71686
189,-671,6.98315,6.36169,0,0,0,0,0,0,0,-1,1413,1695,6.98312,-6.36175
196,-671,5.38123,5.69775,0,0,0,0,0,0,0,-1,1420,1695,5.38125,-5.69769
203,-671,5.95117,8.11658,0,0,0,0,0,0,0,-1,1427,1695,5.9512,-8.11662
210,-671,4.73596,8.39624,0,0,0,0,0,0,0,-1,1434,1695,4.736,-8.39618
217,-671,5.37097,11.863,0,0,0,0,0,0,0,-1,1441,1695,5.37094,-11.863
224,-671,5.08167,13.6694,0,0,0,0,0,0,0,-1,1448,1695,5.08165,-13.6695
231,-671,5.66663,15.3348,0,0,0,0,0,0,0,-1,1455,1695,5.66667,-15.3349
238,-671,6.32959,16.2036,0,0,0,0,0,0,0,-1,1462,1695,6.32961,-16.2037
245,-671,9.77417,35.2817,0,0,0,0,0,0,0,-1,1469,1695,9.77414,-35.2818
252,-671,9.61267,36.3126,0,0,0,0,0,0,0,-1,1476,1695,9.61262,-36.3126
259,-671,9.63269,36.3337,0,0,0,0,0,0,0,-1,1483,1695,9.63263,-36.3338
266,-671,9.61499,36.0057,0.00687222,0.00913566,2.10149e-05,0.00913586,0.00687203,1.56151,0.0054937,0.035006,1490,1695,9.61497,-36.0058
273,-671,9.69214,35.7885,0.00646479,0.00930811,-0.000149056,0.0093159,0.006457,-1.51856,0.00551064,0.011712,1497,1695,9.69214,-35.7884
280,-671,9.71155,35.5294,0.00592615,0.00927513,-0.000300806,0.00930194,0.00589935,-1.48192,0.00543458,0.0094046,1504,1695,9.71156,-35.5294
287,-671,9.70752,35.1926,0.00529256,0.00885368,-0.000375134,0.00889276,0.00525347,-1.46697,0.00516236,0.011101,1511,1695,9.70749,-35.1926
294,-671,9.70032,34.9099,0.00467428,0.00835069,-0.000549477,0.00843106,0.00459391,-1.42556,0.00487421,0.0115722,1518,1695,9.70028,-34.9099
301,-671,9.71985,34.6593,0.00409595,0.00760802,-0.000761349,0.00776597,0.00393801,-1.36625,0.00448383,0.0108332,1525,1695,9.71989,-34.6593
308,-671,9.7417,34.3961,0.00350947,0.00666821,-0.000922616,0.00691795,0.00325974,-1.30645,0.00399629,0.012202,1532,1695,9.74172,-34.3962
315,-671,9.76172,34.1058,0.0029425,0.00572654,-0.00105298,0.00607994,0.0025891,-1.24699,0.0035231,0.0129604,1539,1695,9.7617,-34.1059
322,-671,9.77307,33.8209,0.00245263,0.00480299,-0.00113859,0.0052641,0.00199153,-1.186,0.00306908,0.0151344,1546,1695,9.77312,-33.8209
329,-671,9.74207,33.5251,0.00203472,0.00374755,-0.00122506,0.00438587,0.0013964,-1.09045,0.00258726,0.0150556,1553,1695,9.74209,-33.5252
336,-671,9.72937,33.193,0.00159705,0.00283097,-0.0012014,0.00356457,0.000863457,-1.02261,0.00214723,0.01112,1560,1695,9.72943,-33.193
343,-671,9.75891,32.8435,0.00127756,0.00161308,-0.00126024,0.00271667,0.000173966,-0.85157,0.001756,0.0109144,1567,1695,9.75895,-32.8435
350,-671,9.76355,32.5192,0.00111705,0.000354291,-0.00123532,0.00202852,-0.000557181,-0.635675,0.00157135,0.0118342,1574,1695,9.76359,-32.5191
357,-671,9.74255,32.1538,0.00107459,-0.00108806,-0.00112534,0.00155392,-0.00156739,-0.40267,0.0018021,0.011482,1581,1695,9.74252,-32.1537
364,-671,9.72107,31.8242,0.000993067,-0.00255711,-0.000943856,0.0012284,-0.00279245,-0.244351,0.00237926,0.0133432,1588,1695,9.72106,-31.8242
371,-671,9.69385,31.5059,0.000987018,-0.00419412,-0.000779261,0.00110168,-0.00430879,-0.146098,0.0033016,0.0152073,1595,1695,9.69386,-31.5059
378,-671,9.69568,31.1423,0.001102,-0.00589165,-0.000589329,0.00115132,-0.00594097,-0.0834817,0.00439497,0.012943,1602,1695,9.69568,-31.1424
385,-671,9.66528,30.7783,0.00136376,-0.00767103,-0.000348979,0.00137722,-0.00768449,-0.0385496,0.00563841,0.0150619,1609,1695,9.66526,-30.7783
392,-671,9.62988,30.4447,0.00170497,-0.00941344,-0.000418899,0.00172073,-0.0094292,-0.0376051,0.00693128,0.0188122,1616,1695,9.62988,-30.4447
399,-671,9.61304,30.0811,0.00176855,-0.0109562,-0.000358108,0.00177862,-0.0109663,-0.0281129,0.00797017,0.0144618,1623,1695,9.61309,-30.081
406,-671,9.67542,29.7058,0.00196613,-0.0116866,-0.000372059,0.00197626,-0.0116968,-0.0272246,0.00853322,0.022521,1630,1695,9.67537,-29.7058
413,-671,9.6322,29.5239,0.00238331,-0.0118001,-0.000457815,0.00239807,-0.0118148,-0.0322335,0.00878569,0.0404879,1637,1695,9.63219,-29.524
420,-671,9.74829,29.1418,0,0,0,0,0,0,0,-1,1644,1695,9.74833,-29.1419
427,-671,9.31738,21.7188,0,0,0,0,0,0,0,-1,1651,1695,9.31735,-21.7187
434,-671,9.66528,26.177,0,0,0,0,0,0,0,-1,1658,1695,9.66528,-26.177
441,-671,8.34961,20.6522,0,0,0,0,0,0,0,-1,1665,1695,8.34964,-20.6522
448,-671,7.44873,20.2306,0,0,0,0,0,0,0,-1,1672,1695,7.44872,-20.2306
455,-671,6.62805,19.8612,0,0,0,0,0,0,0,-1,1679,1695,6.62811,-19.8612
462,-671,5.86255,4.47961,0,0,0,0,0,0,0,-1,1686,1695,5.8625,-4.4796
469,-671,3.71301,3.76978,0,0,0,0,0,0,0,-1,1693,1695,3.71297,-3.76974
476,-671,3.75574,3.18848,0,0,0,0,0,0,0,-1,1700,1695,3.7558,-3.18847
483,-671,7.81824,12.1041,0,0,0,0,0,0,0,-1,1707,1695,7.81826,-12.1041
490,-671,0,0,0,0,0,0,0,0,0,-1,1714,1695,0,0
497,-671,0,0,0,0,0,0,0,0,0,-1,1721,1695,0,0
504,-671,0,0,0,0,0,0,0,0,0,-1,1728,1695,0,0
511,-671,0,0,0,0,0,0,0,0,0,-1,1735,1695,0,0
518,-671,0,0,0,0,0,0,0,0,0,-1,1742,1695,0,0
525,-671,0,0,0,0,0,0,0,0,0,-1,1749,1695,0,0
532,-671,0,0,0,0,0,0,0,0,0,-1,1756,1695,0,0
539,-671,0,0,0,0,0,0,0,0,0,-1,1763,1695,0,0
546,-671,0,0,0,0,0,0,0,0,0,-1,1770,1695,0,0
553,-671,0,0,0,0,0,0,0,0,0,-1,1777,1695,0,0
560,-671,0,0,0,0,0,0,0,0,0,-1,1784,1695,0,0
567,-671,0,0,0,0,0,0,0,0,0,-1,1791,1695,0,0
574,-671,0,0,0,0,0,0,0,0,0,-1,1798,1695,0,0
581,-671,0,0,0,0,0,0,0,0,0,-1,1805,1695,0,0
588,-671,0,0,0,0,0,0,0,0,0,-1,1812,1695,0,0
595,-671,0,0,0,0,0,0,0,0,0,-1,1819,1695,0,0
602,-671,0,0,0,0,0,0,0,0,0,-1,1826,1695,0,0
609,-671,0,0,0,0,0,0,0,0,0,-1,1833,1695,0,0
616,-671,0,0,0,0,0,0,0,0,0,-1,1840,1695,0,0
623,-671,0,0,0,0,0,0,0,0,0,-1,1847,1695,0,0
630,-671,0,0,0,0,0,0,0,0,0,-1,1854,1695,0,0
637,-671,0,0,0,0,0,0,0,0,0,-1,1861,1695,0,0
644,-671,0,0,0,0,0,0,0,0,0,-1,1868,1695,0,0
651,-671,0,0,0,0,0,0,0,0,0,-1,1875,1695,0,0
658,-671,0,0,0,0,0,0,0,0,0,-1,1882,1695,0,0
665,-671,0,0,0,0,0,0,0,0,0,-1,1889,1695,0,0
672,-671,0,0,0,0,0,0,0,0,0,-1,1896,1695,0,0
679,-671,0,0,0,0,0,0,0,0,0,-1,1903,1695,0,0
686,-671,0,0,0,0,0,0,0,0,0,-1,1910,1695,0,0
693,-671,0,0,0,0,0,0,0,0,0,-1,1917,1695,0,0
700,-671,0,0,0,0,0,0,0,0,0,-1,1924,1695,0,0
707,-671,0,0,0,0,0,0,0,0,0,-1,1931,1695,0,0
714,-671,0,0,0,0,0,0,0,0,0,-1,1938,1695,0,0
721,-671,0,0,0,0,0,0,0,0,0,-1,1945,1695,0,0
728,-671,0,0,0,0,0,0,0,0,0,-1,1952,1695,0,0
735,-671,0,0,0,0,0,0,0,0,0,-1,1959,1695,0,0
742,-671,0,0,0,0,0,0,0,0,0,-1,1966,1695,0,0
749,-671,0,0,0,0,0,0,0,0,0,-1,1973,1695,0,0
756,-671,0,0,0,0,0,0,0,0,0,-1,1980,1695,0,0
763,-671,0,0,0,0,0,0,0,0,0,-1,1987,1695,0,0
770,-671,0,0,0,0,0,0,0,0,0,-1,1994,1695,0,0
777,-671,0,0,0,0,0,0,0,0,0,-1,2001,1695,0,0
784,-671,0,0,0,0,0,0,0,0,0,-1,2008,1695,0,0
791,-671,0,0,0,0,0,0,0,0,0,-1,2015,1695,0,0
798,-671,0,0,0,0,0,0,0,0,0,-1,2022,1695,0,0
805,-671,0,0,0,0,0,0,0,0,0,-1,2029,1695,0,0
812,-671,0,0,0,0,0,0,0,0,0,-1,2036,1695,0,0
-700,-678,0,0,0,0,0,0,0,0,0,-1,524,1702,0,0
-693,-678,0,0,0,0,0,0,0,0,0,-1,531,1702,0,0
-686,-678,0,0,0,0,0,0,0,0,0,-1,538,1702,0,0
-679,-678,0,0,0,0,0,0,0,0,0,-1,545,1702,0,0
-672,-678,0,0,0,0,0,0,0,0,0,-1,552,1702,0,0
-665,-678,0,0,0,0,0,0,0,0,0,-1,559,1702,0,0
-658,-678,0,0,0,0,0,0,0,0,0,-1,566,1702,0,0
-651,-678,0,0,0,0,0,0,0,0,0,-1,573,1702,0,0
-644,-678,0,0,0,0,0,0,0,0,0,-1,580,1702,0,0
-637,-678,0,0,0,0,0,0,0,0,0,-1,587,1702,0,0
-630,-678,0,0,0,0,0,0,0,0,0,-1,594,1702,0,0
-623,-678,0,0,0,0,0,0,0,0,0,-1,601,1702,0,0
-616,-678,0,0,0,0,0,0,0,0,0,-1,608,1702,0,0
-609,-678,0,0,0,0,0,0,0,0,0,-1,615,1702,0,0
-602,-678,0,0,0,0,0,0,0,0,0,-1,622,1702,0,0
-595,-678,0,0,0,0,0,0,0,0,0,-1,629,1702,0,0
-588,-678,0,0,0,0,0,0,0,0,0,-1,636,1702,0,0
-581,-678,0,0,0,0,0,0,0,0,0,-1,643,1702,0,0
-574,-678,0,0,0,0,0,0,0,0,0,-1,650,1702,0,0
-567,-678,0,0,0,0,0,0,0,0,0,-1,657,1702,0,0
-560,-678,0,0,0,0,0,0,0,0,0,-1,664,1702,0,0
-553,-678,0,0,0,0,0,0,0,0,0,-1,671,1702,0,0
-546,-678,0,0,0,0,0,0,0,0,0,-1,678,1702,0,0
-539,-678,0,0,0,0,0,0,0,0,0,-1,685,1702,0,0
-532,-678,0,0,0,0,0,0,0,0,0,-1,692,1702,0,0
-525,-678,0,0,0,0,0,0,0,0,0,-1,699,1702,0,0
-518,-678,0,0,0,0,0,0,0,0,0,-1,706,1702,0,0
-511,-678,0,0,0,0,0,0,0,0,0,-1,713,1702,0,0
-504,-678,0,0,0,0,0,0,0,0,0,-1,720,1702,0,0
-497,-678,0,0,0,0,0,0,0,0,0,-1,727,1702,0,0
-490,-678,0,0,0,0,0,0,0,0,0,-1,734,1702,0,0
-483,-678,0,0,0,0,0,0,0,0,0,-1,741,1702,0,0
-476,-678,0,0,0,0,0,0,0,0,0,-1,748,1702,0,0
-469,-678,0,0,0,0,0,0,0,0,0,-1,755,1702,0,0
-462,-678,0,0,0,0,0,0,0,0,0,-1,762,1702,0,0
-455,-678,0,0,0,0,0,0,0,0,0,-1,769,1702,0,0
-448,-678,0,0,0,0,0,0,0,0,0,-1,776,1702,0,0
-441,-678,0,0,0,0,0,0,0,0,0,-1,783,1702,0,0
-434,-678,0,0,0,0,0,0,0,0,0,-1,790,1702,0,0
-427,-678,0,0,0,0,0,0,0,0,0,-1,797,1702,0,0
-420,-678,0,0,0,0,0,0,0,0,0,-1,804,1702,0,0
-413,-678,0,0,0,0,0,0,0,0,0,-1,811,1702,0,0
-406,-678,0,0,0,0,0,0,0,0,0,-1,818,1702,0,0
-399,-678,0,0,0,0,0,0,0,0,0,-1,825,1702,0,0
-392,-678,0,0,0,0,0,0,0,0,0,-1,832,1702,0,0
-385,-678,0,0,0,0,0,0,0,0,0,-1,839,1702,0,0
-378,-678,0,0,0,0,0,0,0,0,0,-1,846,1702,0,0
-371,-678,0,0,0,0,0,0,0,0,0,-1,853,1702,0,0
-364,-678,0,0,0,0,0,0,0,0,0,-1,860,1702,0,0
-357,-678,0,0,0,0,0,0,0,0,0,-1,867,1702,0,0
-350,-678,-5.79944,6.11865,0,0,0,0,0,0,0,-1,874,1702,-5.79942,-6.11864
-343,-678,-6.44891,4.52759,0,0,0,0,0,0,0,-1,881,1702,-6.4489,-4.52758
-336,-678,7.92682,24.1683,0,0,0,0,0,0,0,-1,888,1702,7.92682,-24.1684
-329,-678,-7.14575,1.29761,0,0,0,0,0,0,0,-1,895,1702,-7.14577,-1.29755
-322,-678,3.78455,20.3917,0,0,0,0,0,0,0,-1,902,1702,3.78457,-20.3917
-315,-678,4.74176,22.3245,0,0,0,0,0,0,0,-1,909,1702,4.74178,-22.3244
-308,-678,4.72949,28.6111,0,0,0,0,0,0,0,-1,916,1702,4.72949,-28.6111
-301,-678,5.55396,28.8729,0,0,0,0,0,0,0,-1,923,1702,5.55396,-28.8729
-294,-678,6.32874,29.1149,0,0,0,0,0,0,0,-1,930,1702,6.32876,-29.1149
-287,-678,7.10962,29.3064,0,0,0,0,0,0,0,-1,937,1702,7.10962,-29.3064
-280,-678,6.85522,28.67,0,0,0,0,0,0,0,-1,944,1702,6.85521,-28.6701
-273,-678,6.71686,29.1481,-0.00129799,-0.00283085,-0.00210315,0.00017403,-0.00430287,-0.610666,0.00292831,0.0437785,951,1702,6.71689,-29.148
-266,-678,6.61414,29.7532,-0.00126166,-0.00205859,-0.00146004,-0.000146691,-0.00317357,-0.652186,0.00206855,0.0387648,958,1702,6.61416,-29.7532
-259,-678,6.48553,30.0734,-0.00163145,-0.000768616,-0.00117386,5.05991e-05,-0.00245066,-0.961495,0.0016509,0.0241195,965,1702,6.48555,-30.0733
-252,-678,6.49677,30.3904,-0.00175554,0.000502543,-0.000612976,0.000658209,-0.00191121,-1.3221,0.00154113,0.017888,972,1702,6.49677,-30.3904
-245,-678,6.49219,30.7703,-0.00157868,0.00143768,-9.29885e-05,0.00144054,-0.00158154,-1.54001,0.00174543,0.018345,979,1702,6.49221,-30.7703
-238,-678,6.47223,31.1411,-0.00154318,0.00231447,0.000329188,0.00234236,-0.00157107,1.48628,0.002274,0.0161814,986,1702,6.47224,-31.1411
-231,-678,6.41956,31.4995,-0.00139725,0.00259514,0.000696403,0.00271313,-0.00151524,1.40296,0.00247369,0.0138385,993,1702,6.41956,-31.4995
-224,-678,6.38586,31.8317,-0.00103829,0.00256469,0.000895065,0.00277479,-0.00124839,1.34023,0.00237786,0.0127146,1000,1702,6.38585,-31.8316
-217,-678,6.39746,32.1935,-0.000745482,0.00247137,0.000814822,0.00266598,-0.000940101,1.33634,0.00216,0.0128388,1007,1702,6.39748,-32.1935
-210,-678,6.3858,32.5812,-0.00064561,0.00249408,0.000849605,0.00270924,-0.00086077,1.32276,0.00215127,0.0134747,1014,1702,6.38582,-32.5811
-203,-678,6.38904,32.9197,-0.000709334,0.00237432,0.000920106,0.002628,-0.000963009,1.30178,0.00214627,0.0184421,1021,1702,6.38904,-32.9197
-196,-678,6.36157,33.2411,-0.000800751,0.00218943,0.000970587,0.00247685,-0.00108817,1.2829,0.00210967,0.0184175,1028,1702,6.36163,-33.2411
-189,-678,6.3573,33.5823,-0.000869761,0.00190048,0.00080852,0.00211919,-0.00108847,1.30662,0.00188354,0.0109601,1035,1702,6.35729,-33.5823
-182,-678,6.35779,33.9067,-0.000890093,0.00196126,0.000775417,0.00215849,-0.00108732,1.32172,0.00190768,0.0101192,1042,1702,6.35773,-33.9067
-175,-678,6.34558,34.2145,-0.000864396,0.00207842,0.000804585,0.00228403,-0.00107001,1.3206,0.00197829,0.0108224,1049,1702,6.34556,-34.2145
-168,-678,6.33496,34.5253,-0.000869182,0.00228862,0.000877049,0.00251586,-0.00109642,1.31728,0.00213855,0.00993404,1056,1702,6.33499,-34.5252
-161,-678,6.33118,34.8204,-0.00090254,0.0027962,0.000894118,0.003001,-0.00110734,1.34563,0.00245451,0.00822593,1063,1702,6.3312,-34.8205
-154,-678,6.33533,35.0947,-0.000822991,0.0030896,0.00101224,0.00333596,-0.00106936,1.33205,0.00265326,0.00796313,1070,1702,6.33529,-35.0947
-147,-678,6.33716,35.3845,-0.000754381,0.00364066,0.00109814,0.00389976,-0.00101349,1.33909,0.00299538,0.0099791,1077,1702,6.33715,-35.3846
-140,-678,6.3717,35.6639,-0.000623651,0.00414029,0.00121659,0.00443299,-0.000916354,1.33469,0.00330342,0.0114695,1084,1702,6.37167,-35.6639
-133,-678,6.39502,35.9186,-0.000485951,0.00464325,0.00144454,0.0050221,-0.000864795,1.31431,0.00367045,0.0124534,1091,1702,6.39496,-35.9186
-126,-678,6.39441,36.2225,-0.00035249,0.00491157,0.00166265,0.00539274,-0.000833656,1.2891,0.00390284,0.0115794,1098,1702,6.39445,-36.2225
-119,-678,6.45776,36.7129,-8.78656e-05,0.0050671,0.00195136,0.00572245,-0.000743216,1.24679,0.00408531,0.0318845,1105,1702,6.4577,-36.7129
-112,-678,6.46887,37.0269,0.000792356,0.00498557,0.00197144,0.00576686,1.10569e-05,1.19348,0.0038409,0.0490767,1112,1702,6.46889,-37.0268
-105,-678,6.53308,37.2673,0.00166655,0.00466155,0.00270525,0.00625611,7.19801e-05,1.03818,0.00414696,0.0482201,1119,1702,6.53308,-37.2673
-98,-678,6.47412,37.3466,0.00144359,0.00498609,0.0034271,0.0070726,-0.000642923,1.02391,0.00494333,0.0289348,1126,1702,6.47415,-37.3466
-91,-678,6.58521,37.3333,0,0,0,0,0,0,0,-1,1133,1702,6.58525,-37.3332
-84,-678,6.58545,36.5073,0,0,0,0,0,0,0,-1,1140,1702,6.58544,-36.5073
-77,-678,5.95154,29.1879,0,0,0,0,0,0,0,-1,1147,1702,5.95156,-29.1878
-70,-678,4.75891,19.6552,0,0,0,0,0,0,0,-1,1154,1702,4.75895,-19.6551
-63,-678,3.41687,11.0365,0,0,0,0,0,0,0,-1,1161,1702,3.41682,-11.0365
-56,-678,1.72388,6.13159,0,0,0,0,0,0,0,-1,1168,1702,1.72388,-6.13157
-49,-678,-0.241699,5.29895,0,0,0,0,0,0,0,-1,1175,1702,-0.241682,-5.29897
-42,-678,0.297119,3.90649,0,0,0,0,0,0,0,-1,1182,1702,0.297139,-3.90655
-35,-678,0.498413,3.64038,0,0,0,0,0,0,0,-1,1189,1702,0.498471,-3.64038
-28,-678,0.132446,3.55994,0,0,0,0,0,0,0,-1,1196,1702,0.132432,-3.55993
-21,-678,7.21045,38.8855,0,0,0,0,0,0,0,-1,1203,1702,7.2104,-38.8856
-14,-678,7.28894,39.097,0.0443947,0.0721912,0.0540845,0.114135,0.00245132,0.911164,0.075286,0.0413613,1210,1702,7.28892,-39.097
-7,-678,7.29236,39.1206,0.0481689,0.0798682,0.0496083,0.116097,0.0119398,0.940021,0.0737412,0.0432581,1217,1702,7.29234,-39.1206
0,-678,7.474,39.3954,0.0560173,0.0884215,0.0421808,0.117405,0.0270339,0.968765,0.0709956,0.0442007,1224,1702,7.47398,-39.3954
7,-678,5.4729,40.6353,0,0,0,0,0,0,0,-1,1231,1702,5.47292,-40.6352
14,-678,6.20911,41.0862,0.074808,0.100941,0.0251721,0.116236,0.0595131,1.0248,0.0671153,0.0459834,1238,1702,6.20907,-41.0862
21,-678,6.82092,41.6263,0.0812989,0.102823,0.0173796,0.112503,0.0716189,1.06262,0.0657565,0.043134,1245,1702,6.82088,-41.6263
28,-678,7.49036,41.7764,0.086376,0.101718,0.0113453,0.107743,0.0803518,1.08267,0.0646617,0.0445833,1252,1702,7.4903,-41.7764
35,-678,8.37195,41.74,0.08819,0.0970696,0.00729059,0.101166,0.0840937,1.05889,0.0625349,0.0454348,1259,1702,8.372,-41.74
42,-678,9.07007,41.9146,0.0884283,0.0921719,0.00389594,0.0946224,0.0859778,1.00934,0.0604066,0.047626,1266,1702,9.07013,-41.9146
49,-678,9.59155,42.7936,0,0,0,0,0,0,0,-1,1273,1702,9.59157,-42.7936
56,-678,10.5123,43.8119,0.0805431,0.0790127,0.000966887,0.0810109,0.0785449,0.450663,0.0532043,0.0448278,1280,1702,10.5124,-43.8119
63,-678,11.3174,43.9906,0.0739479,0.0710163,0.000983249,0.0742471,0.0707171,0.295433,0.0483644,0.0472716,1287,1702,11.3174,-43.9906
70,-678,12.4174,44.3676,0.0656955,0.0629837,0.00384761,0.0684192,0.0602601,0.615995,0.043151,0.0483844,1294,1702,12.4174,-44.3675
77,-678,8.61877,39.8362,0,0,0,0,0,0,0,-1,1301,1702,8.61876,-39.8362
84,-678,8.60596,39.9106,0.0485823,0.0498727,0.0107657,0.0600125,0.0384425,0.815329,0.0351017,0.0464092,1308,1702,8.60594,-39.9106
91,-678,8.19397,40.2694,0.0438505,0.0463532,0.0139167,0.0590747,0.0311289,0.830237,0.0341233,0.044079,1315,1702,8.19401,-40.2694
98,-678,7.96387,40.5573,0.0428554,0.0450975,0.0165976,0.0606118,0.027341,0.819119,0.03505,0.0417184,1322,1702,7.96383,-40.5573
105,-678,7.32837,40.136,0.0423388,0.0453318,0.0198056,0.0636974,0.0239732,0.823106,0.0371486,0.0405387,1329,1702,7.32842,-40.136
112,-678,7.83691,40.7327,0,0,0,0,0,0,0,-1,1336,1702,7.83694,-40.7327
119,-678,8.2821,39.197,0,0,0,0,0,0,0,-1,1343,1702,8.28208,-39.197
126,-678,8.72229,39.2787,0,0,0,0,0,0,0,-1,1350,1702,8.7223,-39.2787
133,-678,7.23584,38.2197,0,0,0,0,0,0,0,-1,1357,1702,7.23581,-38.2197
140,-678,6.74976,38.4589,0,0,0,0,0,0,0,-1,1364,1702,6.74979,-38.4589
147,-678,15.7659,35.4955,0,0,0,0,0,0,0,-1,1371,1702,15.7659,-35.4954
154,-678,10.09,38.9708,0,0,0,0,0,0,0,-1,1378,1702,10.0899,-38.9708
161,-678,8.81226,34.8624,0,0,0,0,0,0,0,-1,1385,1702,8.81229,-34.8624
168,-678,4.21863,5.25781,0,0,0,0,0,0,0,-1,1392,1702,4.21865,-5.25781
175,-678,5.21899,5.9635,0,0,0,0,0,0,0,-1,1399,1702,5.21894,-5.96346
182,-678,7.31262,6.75122,0,0,0,0,0,0,0,-1,1406,1702,7.3126,-6.75123
189,-678,5.96021,6.36853,0,0,0,0,0,0,0,-1,1413,1702,5.96018,-6.36851
196,-678,5.01599,8.15771,0,0,0,0,0,0,0,-1,1420,1702,5.01596,-8.15767
203,-678,4.64771,13.0559,0,0,0,0,0,0,0,-1,1427,1702,4.64766,-13.0559
210,-678,5.6532,18.5957,0,0,0,0,0,0,0,-1,1434,1702,5.65318,-18.5958
217,-678,6.88049,23.4835,0,0,0,0,0,0,0,-1,1441,1702,6.88047,-23.4835
224,-678,8.521,32.0977,0,0,0,0,0,0,0,-1,1448,1702,8.52098,-32.0977
231,-678,9.1438,37.4467,0,0,0,0,0,0,0,-1,1455,1702,9.14378,-37.4467
238,-678,9.31311,37.0559,0,0,0,0,0,0,0,-1,1462,1702,9.31313,-37.0559
245,-678,9.37415,36.751,0,0,0,0,0,0,0,-1,1469,1702,9.37415,-36.751
252,-678,9.38757,36.5295,0.0054975,0.00460359,0.000362007,0.00562572,0.00447538,0.340385,0.00343191,0.0284261,1476,1702,9.38758,-36.5295
259,-678,9.40356,36.3129,0.00522612,0.00519525,9.54252e-05,0.00530735,0.00511402,0.705227,0.00347558,0.0172382,1483,1702,9.40358,-36.3129
266,-678,9.4209,36.0697,0.00490805,0.00543104,-4.57988e-05,0.00543502,0.00490407,-1.4841,0.00345997,0.011923,1490,1702,9.42085,-36.0697
273,-678,9.44019,35.8176,0.00464235,0.00572218,-0.000234483,0.0057709,0.00459363,-1.36594,0.00352107,0.0117435,1497,1702,9.44014,-35.8176
280,-678,9.427,35.5555,0.00427668,0.00587198,-0.000418435,0.00597507,0.00417359,-1.32924,0.00353917,0.01243,1504,1702,9.42701,-35.5555
287,-678,9.45129,35.2548,0.00384951,0.00579409,-0.000532717,0.00593047,0.00371314,-1.32018,0.00346007,0.0117335,1511,1702,9.45127,-35.2548
294,-678,9.44385,34.9612,0.0034542,0.00572001,-0.000733737,0.00593687,0.00323735,-1.28343,0.00343234,0.0122657,1518,1702,9.44379,-34.9612
301,-678,9.42346,34.6826,0.00307295,0.00544906,-0.000969322,0.00579432,0.00272768,-1.22862,0.00334726,0.0122858,1525,1702,9.42349,-34.6827
308,-678,9.43726,34.3944,0.00264223,0.00497244,-0.00118243,0.00546734,0.00214733,-1.17441,0.00318068,0.0137723,1532,1702,9.43721,-34.3945
315,-678,9.43396,34.1123,0.00220381,0.00439506,-0.00130577,0.00500397,0.00159491,-1.13445,0.00295165,0.0144547,1539,1702,9.43399,-34.1123
322,-678,9.42505,33.8429,0.00184964,0.00380012,-0.00140661,0.0045365,0.00111326,-1.08851,0.00272999,0.0177034,1546,1702,9.42507,-33.8429
329,-678,9.41443,33.5243,0.00154056,0.00297307,-0.00151318,0.00393095,0.000582673,-1.00645,0.00244962,0.0170303,1553,1702,9.41438,-33.5243
336,-678,9.39856,33.1849,0.00123261,0.00218065,-0.0015154,0.00329444,0.000118822,-0.936977,0.00215778,0.0138551,1560,1702,9.39859,-33.1849
343,-678,9.41345,32.8615,0.00102071,0.0011184,-0.00155284,0.00262317,-0.000484057,-0.80112,0.00193047,0.012615,1567,1702,9.41351,-32.8614
350,-678,9.42554,32.5306,0.000931907,-0.000156179,-0.00153279,0.00201434,-0.00123861,-0.614865,0.00189581,0.0123501,1574,1702,9.42559,-32.5307
357,-678,9.41589,32.1799,0.00096004,-0.00183467,-0.00142539,0.00155876,-0.00243339,-0.397665,0.00232324,0.00970466,1581,1702,9.41587,-32.1799
364,-678,9.39331,31.8499,0.000961305,-0.00357663,-0.00124938,0.00128254,-0.00389786,-0.251666,0.00311537,0.011717,1588,1702,9.39333,-31.8499
371,-678,9.35181,31.528,0.00103911,-0.00562148,-0.00104981,0.00120066,-0.00578303,-0.152685,0.00431166,0.0127672,1595,1702,9.35178,-31.528
378,-678,9.33203,31.1644,0.00128802,-0.00773234,-0.000846926,0.00136685,-0.00781117,-0.0928097,0.00571779,0.0127772,1602,1702,9.33201,-31.1645
385,-678,9.32031,30.8148,0.00169599,-0.00995396,-0.000560479,0.00172289,-0.00998087,-0.0479623,0.00729633,0.0132305,1609,1702,9.32037,-30.8148
392,-678,9.33875,30.5326,0.00221716,-0.0122528,-0.000581208,0.00224047,-0.0122761,-0.0400806,0.00902406,0.0230859,1616,1702,9.33875,-30.5325
399,-678,9.37524,30.2919,0.00247424,-0.0144113,-0.000484533,0.00248813,-0.0144252,-0.0286638,0.0105445,0.0339057,1623,1702,9.37524,-30.2919
406,-678,9.42798,30.1942,0.0029235,-0.0157464,-0.000477125,0.00293568,-0.0157586,-0.0255337,0.0116087,0.0463535,1630,1702,9.42804,-30.1942
413,-678,9.44568,29.798,0,0,0,0,0,0,0,-1,1637,1702,9.44571,-29.7979
420,-678,9.6665,28.3398,0,0,0,0,0,0,0,-1,1644,1702,9.66649,-28.3398
427,-678,4.57483,10.1555,0,0,0,0,0,0,0,-1,1651,1702,4.57485,-10.1555
434,-678,9.48169,21.6665,0,0,0,0,0,0,0,-1,1658,1702,9.48169,-21.6665
441,-678,8.64539,21.1864,0,0,0,0,0,0,0,-1,1665,1702,8.64536,-21.1865
448,-678,7.62244,20.7195,0,0,0,0,0,0,0,-1,1672,1702,7.6224,-20.7195
455,-678,5.44678,5.54297,0,0,0,0,0,0,0,-1,1679,1702,5.44676,-5.54294
462,-678,3.86792,2.87402,0,0,0,0,0,0,0,-1,1686,1702,3.86796,-2.87406
469,-678,2.26587,1.98755,0,0,0,0,0,0,0,-1,1693,1702,2.26592,-1.98755
476,-678,0,0,0,0,0,0,0,0,0,-1,1700,1702,0,0
483,-678,0,0,0,0,0,0,0,0,0,-1,1707,1702,0,0
490,-678,0,0,0,0,0,0,0,0,0,-1,1714,1702,0,0
497,-678,0,0,0,0,0,0,0,0,0,-1,1721,1702,0,0
504,-678,0,0,0,0,0,0,0,0,0,-1,1728,1702,0,0
511,-678,0,0,0,0,0,0,0,0,0,-1,1735,1702,0,0
518,-678,0,0,0,0,0,0,0,0,0,-1,1742,1702,0,0
525,-678,0,0,0,0,0,0,0,0,0,-1,1749,1702,0,0
532,-678,0,0,0,0,0,0,0,0,0,-1,1756,1702,0,0
539,-678,0,0,0,0,0,0,0,0,0,-1,1763,1702,0,0
546,-678,0,0,0,0,0,0,0,0,0,-1,1770,1702,0,0
553,-678,0,0,0,0,0,0,0,0,0,-1,1777,1702,0,0
560,-678,0,0,0,0,0,0,0,0,0,-1,1784,1702,0,0
567,-678,0,0,0,0,0,0,0,0,0,-1,1791,1702,0,0
574,-678,0,0,0,0,0,0,0,0,0,-1,1798,1702,0,0
581,-678,0,0,0,0,0,0,0,0,0,-1,1805,1702,0,0
588,-678,0,0,0,0,0,0,0,0,0,-1,1812,1702,0,0
595,-678,0,0,0,0,0,0,0,0,0,-1,1819,1702,0,0
602,-678,0,0,0,0,0,0,0,0,0,-1,1826,1702,0,0
609,-678,0,0,0,0,0,0,0,0,0,-1,1833,1702,0,0
616,-678,0,0,0,0,0,0,0,0,0,-1,1840,1702,0,0
623,-678,0,0,0,0,0,0,0,0,0,-1,1847,1702,0,0
630,-678,0,0,0,0,0,0,0,0,0,-1,1854,1702,0,0
637,-678,0,0,0,0,0,0,0,0,0,-1,1861,1702,0,0
644,-678,0,0,0,0,0,0,0,0,0,-1,1868,1702,0,0
651,-678,0,0,0,0,0,0,0,0,0,-1,1875,1702,0,0
658,-678,0,0,0,0,0,0,0,0,0,-1,1882,1702,0,0
665,-678,0,0,0,0,0,0,0,0,0,-1,1889,1702,0,0
672,-678,0,0,0,0,0,0,0,0,0,-1,1896,1702,0,0
679,-678,0,0,0,0,0,0,0,0,0,-1,1903,1702,0,0
686,-678,0,0,0,0,0,0,0,0,0,-1,1910,1702,0,0
693,-678,0,0,0,0,0,0,0,0,0,-1,1917,1702,0,0
700,-678,0,0,0,0,0,0,0,0,0,-1,1924,1702,0,0
707,-678,0,0,0,0,0,0,0,0,0,-1,1931,1702,0,0
714,-678,0,0,0,0,0,0,0,0,0,-1,1938,1702,0,0
721,-678,0,0,0,0,0,0,0,0,0,-1,1945,1702,0,0
728,-678,0,0,0,0,0,0,0,0,0,-1,1952,1702,0,0
735,-678,0,0,0,0,0,0,0,0,0,-1,1959,1702,0,0
742,-678,0,0,0,0,0,0,0,0,0,-1,1966,1702,0,0
749,-678,0,0,0,0,0,0,0,0,0,-1,1973,1702,0,0
756,-678,0,0,0,0,0,0,0,0,0,-1,1980,1702,0,0
763,-678,0,0,0,0,0,0,0,0,0,-1,1987,1702,0,0
770,-678,0,0,0,0,0,0,0,0,0,-1,1994,1702,0,0
777,-678,0,0,0,0,0,0,0,0,0,-1,2001,1702,0,0
784,-678,0,0,0,0,0,0,0,0,0,-1,2008,1702,0,0
791,-678,0,0,0,0,0,0,0,0,0,-1,2015,1702,0,0
798,-678,0,0,0,0,0,0,0,0,0,-1,2022,1702,0,0
805,-678,0,0,0,0,0,0,0,0,0,-1,2029,1702,0,0
812,-678,0,0,0,0,0,0,0,0,0,-1,2036,1702,0,0
-700,-685,0,0,0,0,0,0,0,0,0,-1,524,1709,0,0
-693,-685,0,0,0,0,0,0,0,0,0,-1,531,1709,0,0
-686,-685,0,0,0,0,0,0,0,0,0,-1,538,1709,0,0
-679,-685,0,0,0,0,0,0,0,0,0,-1,545,1709,0,0
-672,-685,0,0,0,0,0,0,0,0,0,-1,552,1709,0,0
-665,-685,0,0,0,0,0,0,0,0,0,-1,559,1709,0,0
-658,-685,0,0,0,0,0,0,0,0,0,-1,566,1709,0,0
-651,-685,0,0,0,0,0,0,0,0,0,-1,573,1709,0,0
-644,-685,0,0,0,0,0,0,0,0,0,-1,580,1709,0,0
-637,-685,0,0,0,0,0,0,0,0,0,-1,587,1709,0,0
-630,-685,0,0,0,0,0,0,0,0,0,-1,594,1709,0,0
-623,-685,0,0,0,0,0,0,0,0,0,-1,601,1709,0,0
-616,-685,0,0,0,0,0,0,0,0,0,-1,608,1709,0,0
-609,-685,0,0,0,0,0,0,0,0,0,-1,615,1709,0,0
-602,-685,0,0,0,0,0,0,0,0,0,-1,622,1709,0,0
-595,-685,0,0,0,0,0,0,0,0,0,-1,629,1709,0,0
-588,-685,0,0,0,0,0,0,0,0,0,-1,636,1709,0,0
-581,-685,0,0,0,0,0,0,0,0,0,-1,643,1709,0,0
-574,-685,0,0,0,0,0,0,0,0,0,-1,650,1709,0,0
-567,-685,0,0,0,0,0,0,0,0,0,-1,657,1709,0,0
-560,-685,0,0,0,0,0,0,0,0,0,-1,664,1709,0,0
-553,-685,0,0,0,0,0,0,0,0,0,-1,671,1709,0,0
-546,-685,0,0,0,0,0,0,0,0,0,-1,678,1709,0,0
-539,-685,0,0,0,0,0,0,0,0,0,-1,685,1709,0,0
-532,-685,0,0,0,0,0,0,0,0,0,-1,692,1709,0,0
-525,-685,0,0,0,0,0,0,0,0,0,-1,699,1709,0,0
-518,-685,0,0,0,0,0,0,0,0,0,-1,706,1709,0,0
-511,-685,0,0,0,0,0,0,0,0,0,-1,713,1709,0,0
-504,-685,0,0,0,0,0,0,0,0,0,-1,720,1709,0,0
-497,-685,0,0,0,0,0,0,0,0,0,-1,727,1709,0,0
-490,-685,0,0,0,0,0,0,0,0,0,-1,734,1709,0,0
-483,-685,0,0,0,0,0,0,0,0,0,-1,741,1709,0,0
-476,-685,0,0,0,0,0,0,0,0,0,-1,748,1709,0,0
-469,-685,0,0,0,0,0,0,0,0,0,-1,755,1709,0,0
-462,-685,0,0,0,0,0,0,0,0,0,-1,762,1709,0,0
-455,-685,0,0,0,0,0,0,0,0,0,-1,769,1709,0,0
-448,-685,0,0,0,0,0,0,0,0,0,-1,776,1709,0,0
-441,-685,0,0,0,0,0,0,0,0,0,-1,783,1709,0,0
-434,-685,0,0,0,0,0,0,0,0,0,-1,790,1709,0,0
-427,-685,0,0,0,0,0,0,0,0,0,-1,797,1709,0,0
-420,-685,0,0,0,0,0,0,0,0,0,-1,804,1709,0,0
-413,-685,0,0,0,0,0,0,0,0,0,-1,811,1709,0,0
-406,-685,0,0,0,0,0,0,0,0,0,-1,818,1709,0,0
-399,-685,0,0,0,0,0,0,0,0,0,-1,825,1709,0,0
-392,-685,0,0,0,0,0,0,0,0,0,-1,832,1709,0,0
-385,-685,0,0,0,0,0,0,0,0,0,-1,839,1709,0,0
-378,-685,0,0,0,0,0,0,0,0,0,-1,846,1709,0,0
-371,-685,0,0,0,0,0,0,0,0,0,-1,853,1709,0,0
-364,-685,0,0,0,0,0,0,0,0,0,-1,860,1709,0,0
-357,-685,0,0,0,0,0,0,0,0,0,-1,867,1709,0,0
-350,-685,0,0,0,0,0,0,0,0,0,-1,874,1709,0,0
-343,-685,-5.98505,6.56335,0,0,0,0,0,0,0,-1,881,1709,-5.98505,-6.56329
-336,-685,-6.51312,5.10571,0,0,0,0,0,0,0,-1,888,1709,-6.51311,-5.10575
-329,-685,-6.81384,3.34106,0,0,0,0,0,0,0,-1,895,1709,-6.81385,-3.341
-322,-685,3.83191,16.7219,0,0,0,0,0,0,0,-1,902,1709,3.8319,-16.7219
-315,-685,5.15784,21.4388,0,0,0,0,0,0,0,-1,909,1709,5.15783,-21.4389
-308,-685,6.36969,21.0303,0,0,0,0,0,0,0,-1,916,1709,6.36968,-21.0302
-301,-685,5.76404,29.702,0,0,0,0,0,0,0,-1,923,1709,5.76403,-29.7021
-294,-685,6.59821,29.9598,0,0,0,0,0,0,0,-1,930,1709,6.59821,-29.9599
-287,-685,7.37549,30.176,0,0,0,0,0,0,0,-1,937,1709,7.37549,-30.176
-280,-685,7.1062,28.5963,0,0,0,0,0,0,0,-1,944,1709,7.10618,-28.5963
-273,-685,6.99042,29.1332,0,0,0,0,0,0,0,-1,951,1709,6.99045,-29.1331
-266,-685,6.87469,29.6699,0,0,0,0,0,0,0,-1,958,1709,6.87471,-29.67
-259,-685,6.96094,30.1189,-0.00163575,9.64987e-05,-0.00125907,0.000758583,-0.00229784,-1.08668,0.00183771,0.0401267,965,1709,6.96095,-30.1189
-252,-685,7.1109,30.3208,-0.00192526,0.00167909,-0.000485449,0.00174333,-0.0019895,-1.43923,0.00215671,0.0342188,972,1709,7.11089,-30.3208
-245,-685,7.02924,30.7302,-0.00184343,0.00263835,0.000165029,0.00264441,-0.0018495,1.53404,0.00260806,0.0338038,979,1709,7.02925,-30.7302
-238,-685,6.88037,31.1722,-0.00192105,0.00348531,0.000622609,0.00355608,-0.00199182,1.45761,0.00324525,0.0280262,986,1709,6.88039,-31.1722
-231,-685,6.77014,31.5404,-0.0018706,0.00354724,0.000966791,0.00371459,-0.00203795,1.3994,0.00336793,0.0180299,993,1709,6.77017,-31.5404
-224,-685,6.73505,31.856,-0.00157569,0.00332551,0.00113689,0.00357638,-0.00182656,1.35361,0.00317345,0.0149215,1000,1709,6.73505,-31.856
-217,-685,6.72906,32.22,-0.00121903,0.0029959,0.000930471,0.00319217,-0.0014153,1.36291,0.00272526,0.010796,1007,1709,6.72909,-32.2199
-210,-685,6.70782,32.608,-0.00100767,0.00274089,0.000962917,0.00297378,-0.00124056,1.3335,0.0025008,0.0143307,1014,1709,6.70782,-32.6081
-203,-685,6.72205,32.9487,-0.00103677,0.00240402,0.00105066,0.00269948,-0.00133222,1.29667,0.0023719,0.0144505,1021,1709,6.72203,-32.9487
-196,-685,6.69958,33.2452,-0.00103401,0.00192244,0.00107981,0.00227483,-0.0013864,1.25535,0.00213446,0.0130806,1028,1709,6.69957,-33.2453
-189,-685,6.68359,33.5599,-0.000935978,0.00132776,0.000860025,0.00161743,-0.00122565,1.24592,0.00164664,0.00925989,1035,1709,6.68361,-33.5599
-182,-685,6.66443,33.9004,-0.000770424,0.0011964,0.000809634,0.0014868,-0.00106083,1.2264,0.00147771,0.013179,1042,1709,6.66442,-33.9004
-175,-685,6.65295,34.2139,-0.00057618,0.00117829,0.000840411,0.0015159,-0.000913783,1.18882,0.00141706,0.0131088,1049,1709,6.653,-34.2139
-168,-685,6.64221,34.541,-0.000441933,0.00125919,0.000915372,0.00165817,-0.000840915,1.15976,0.00146834,0.0103006,1056,1709,6.64217,-34.5411
-161,-685,6.64502,34.8455,-0.000421926,0.00169169,0.00093775,0.00204776,-0.000777994,1.20791,0.00168546,0.0106252,1063,1709,6.64504,-34.8454
-154,-685,6.65161,35.1306,-0.000230443,0.00183181,0.00103049,0.00225847,-0.000657102,1.17825,0.00176591,0.00972457,1070,1709,6.65164,-35.1306
-147,-685,6.64612,35.3982,-5.81649e-05,0.00230225,0.00103381,0.00269101,-0.000446919,1.21111,0.00196004,0.00886633,1077,1709,6.64612,-35.3982
-140,-685,6.63916,35.6602,0.000101606,0.00281687,0.00107466,0.00319072,-0.000272251,1.23601,0.00222346,0.0112013,1084,1709,6.63913,-35.6601
-133,-685,6.6571,35.9342,0.000247424,0.00333789,0.00120996,0.00375524,-0.000169932,1.23864,0.00256202,0.0109947,1091,1709,6.65716,-35.9342
-126,-685,6.67139,36.2096,0.000368205,0.0037101,0.00133809,0.00417984,-0.000101536,1.23318,0.00282101,0.0091759,1098,1709,6.67133,-36.2096
-119,-685,6.70874,36.4648,0.000545622,0.00391937,0.00150116,0.0044906,-2.56076e-05,1.20719,0.00300231,0.0129299,1105,1709,6.70877,-36.4648
-112,-685,6.70068,36.7047,0.00102041,0.00396836,0.00153068,0.00461937,0.000369395,1.16866,0.00296413,0.0136847,1112,1709,6.70066,-36.7047
-105,-685,6.68188,36.9401,0.00144885,0.00377253,0.00190766,0.00484431,0.000377073,1.05892,0.00311147,0.0144735,1119,1709,6.68192,-36.9401
-98,-685,6.78748,37.1344,0.00133346,0.00384405,0.00225187,0.00516688,1.06397e-05,1.03967,0.00344104,0.0191034,1126,1709,6.78752,-37.1345
-91,-685,6.78821,37.2869,0.00130986,0.00342724,0.00217606,0.00478848,-5.13846e-05,1.0118,0.00320959,0.0289158,1133,1709,6.78817,-37.2868
-84,-685,6.8313,37.5168,0,0,0,0,0,0,0,-1,1140,1709,6.83135,-37.5168
-77,-685,6.82324,37.8586,0,0,0,0,0,0,0,-1,1147,1709,6.82325,-37.8586
-70,-685,6.92456,38.1045,0,0,0,0,0,0,0,-1,1154,1709,6.92457,-38.1045
-63,-685,6.03015,29.7728,0,0,0,0,0,0,0,-1,1161,1709,6.0302,-29.7728
-56,-685,3.93909,15.8704,0,0,0,0,0,0,0,-1,1168,1709,3.93905,-15.8704
-49,-685,3.07471,9.86011,0,0,0,0,0,0,0,-1,1175,1709,3.07467,-9.86009
-42,-685,2.70618,7.54504,0,0,0,0,0,0,0,-1,1182,1709,2.7062,-7.54504
-35,-685,2.95264,7.91516,0,0,0,0,0,0,0,-1,1189,1709,2.95262,-7.91517
-28,-685,7.10669,39.0537,0,0,0,0,0,0,0,-1,1196,1709,7.10663,-39.0537
-21,-685,7.27014,38.9198,0,0,0,0,0,0,0,-1,1203,1709,7.27016,-38.9198
-14,-685,7.35706,39.0972,0.0322438,0.0569358,0.0386386,0.0851529,0.00402664,0.940034,0.0554751,0.030267,1210,1709,7.35711,-39.0971
-7,-685,7.32642,39.293,0.0354834,0.0638966,0.0360233,0.0884134,0.0109665,0.973221,0.0556481,0.0394797,1217,1709,7.32642,-39.293
0,-685,7.44727,39.4102,0.0401907,0.0712105,0.0320488,0.0913052,0.0200961,1.01076,0.0554,0.0458043,1224,1709,7.44725,-39.4102
7,-685,7.56921,39.5781,0.0455152,0.0778357,0.027451,0.09353,0.0298209,1.05143,0.0551684,0.043345,1231,1709,7.56918,-39.5782
14,-685,7.61206,39.8993,0.0498052,0.0826504,0.0224417,0.0940367,0.038419,1.10127,0.0545939,0.0452134,1238,1709,7.612,-39.8993
21,-685,7.45166,40.4529,0.0534074,0.0849582,0.0173872,0.09266,0.0457056,1.15382,0.0534989,0.040234,1245,1709,7.45166,-40.4529
28,-685,7.63452,40.5028,0.0558726,0.0845658,0.0137145,0.0900664,0.050372,1.18936,0.0521215,0.0415336,1252,1709,7.63458,-40.5029
35,-685,7.7533,39.9847,0,0,0,0,0,0,0,-1,1259,1709,7.75334,-39.9847
42,-685,7.9353,40.2694,0,0,0,0,0,0,0,-1,1266,1709,7.93532,-40.2695
49,-685,8.07947,40.2216,0,0,0,0,0,0,0,-1,1273,1709,8.07946,-40.2216
56,-685,7.86926,40.0219,0,0,0,0,0,0,0,-1,1280,1709,7.86927,-40.0219
63,-685,11.4232,43.0253,0,0,0,0,0,0,0,-1,1287,1709,11.4233,-43.0252
70,-685,8.22168,40.1943,0,0,0,0,0,0,0,-1,1294,1709,8.22164,-40.1943
77,-685,8.33765,40.2159,0,0,0,0,0,0,0,-1,1301,1709,8.33761,-40.216
84,-685,8.2323,39.8668,0.0299336,0.0406969,0.0110448,0.0476014,0.0230291,1.0121,0.0274875,0.0487006,1308,1709,8.23227,-39.8668
91,-685,8.19995,39.8508,0.0278373,0.0373883,0.0125595,0.0460496,0.019176,0.967073,0.0267103,0.044535,1315,1709,8.19996,-39.8509
98,-685,7.87024,39.8146,0.0284275,0.0359867,0.0137823,0.0464982,0.017916,0.919226,0.0270802,0.0393834,1322,1709,7.8703,-39.8145
105,-685,7.71252,39.7755,0.0297552,0.0359232,0.0151451,0.0482951,0.0173834,0.88584,0.0282455,0.0413203,1329,1709,7.71252,-39.7755
112,-685,8.17688,39.2594,0.0333855,0.0367182,0.0162656,0.0514025,0.0187012,0.836444,0.030042,0.04482,1336,1709,8.17692,-39.2594
119,-685,8.26782,39.2356,0.0397255,0.0381414,0.0170978,0.0560496,0.0218174,0.762253,0.0326238,0.0431529,1343,1709,8.26782,-39.2355
126,-685,8.60583,39.2023,0.0469123,0.0399349,0.0177798,0.0615425,0.0253047,0.688521,0.035718,0.0462175,1350,1709,8.60589,-39.2023
133,-685,8.8147,39.0428,0,0,0,0,0,0,0,-1,1357,1709,8.81474,-39.0428
140,-685,8.56079,39.2168,0,0,0,0,0,0,0,-1,1364,1709,8.56073,-39.2168
147,-685,8.56055,39.3633,0,0,0,0,0,0,0,-1,1371,1709,8.56058,-39.3633
154,-685,8.60999,39.2489,0,0,0,0,0,0,0,-1,1378,1709,8.61003,-39.2489
161,-685,9.1355,39.2427,0,0,0,0,0,0,0,-1,1385,1709,9.1355,-39.2427
168,-685,4.37524,10.8778,0,0,0,0,0,0,0,-1,1392,1709,4.37525,-10.8778
175,-685,3.97522,8.94324,0,0,0,0,0,0,0,-1,1399,1709,3.97519,-8.94328
182,-685,3.98218,9.19739,0,0,0,0,0,0,0,-1,1406,1709,3.98221,-9.1974
189,-685,4.53479,15.2343,0,0,0,0,0,0,0,-1,1413,1709,4.53474,-15.2343
196,-685,8.92749,38.417,0,0,0,0,0,0,0,-1,1420,1709,8.92753,-38.417
203,-685,8.95874,38.1139,0,0,0,0,0,0,0,-1,1427,1709,8.95879,-38.1139
210,-685,9.13293,37.8818,0,0,0,0,0,0,0,-1,1434,1709,9.13298,-37.8819
217,-685,9.06213,37.5872,0,0,0,0,0,0,0,-1,1441,1709,9.06211,-37.5872
224,-685,9.01453,37.4288,0,0,0,0,0,0,0,-1,1448,1709,9.01452,-37.4288
231,-685,9.07629,37.328,0.00376306,-0.00117565,0.000766641,0.00387933,-0.00129192,0.150514,0.0031077,0.0402252,1455,1709,9.07629,-37.328
238,-685,9.12585,36.955,0.00393947,0.000427697,0.00065455,0.0040575,0.000309665,0.178409,0.00260792,0.0191887,1462,1709,9.1259,-36.9549
245,-685,9.11487,36.722,0.00387495,0.00166963,0.000434058,0.00395731,0.00158728,0.187509,0.0022996,0.0191972,1469,1709,9.11488,-36.7221
252,-685,9.12109,36.5496,0.00373232,0.00242813,0.000154701,0.00375042,0.00241003,0.116466,0.00219447,0.0146043,1476,1709,9.12115,-36.5495
259,-685,9.1355,36.3318,0.00359047,0.00295573,-9.40466e-05,0.00360411,0.00294209,-0.144044,0.00221529,0.0110569,1483,1709,9.13551,-36.3318
266,-685,9.16541,36.0764,0.00340851,0.00325032,-0.000260867,0.00360201,0.00305682,-0.638203,0.00224182,0.011886,1490,1709,9.16546,-36.0765
273,-685,9.16968,35.8096,0.00323374,0.00359515,-0.000452374,0.00390157,0.00292731,-0.975415,0.00234476,0.0148656,1497,1709,9.16967,-35.8096
280,-685,9.14673,35.5385,0.00297901,0.00382586,-0.000658056,0.00418494,0.00261992,-1.07128,0.00244163,0.0172886,1504,1709,9.14667,-35.5384
287,-685,9.14966,35.2747,0.00270453,0.00397626,-0.000817986,0.00437646,0.00230433,-1.11579,0.00252793,0.0126696,1511,1709,9.14964,-35.2747
294,-685,9.15735,34.99,0.00247981,0.00421163,-0.00105412,0.0047099,0.00198155,-1.12924,0.00273063,0.0110463,1518,1709,9.1574,-34.99
301,-685,9.1427,34.6964,0.00224812,0.0042805,-0.00131292,0.00492455,0.00160406,-1.11474,0.00290019,0.0139309,1525,1709,9.14268,-34.6964
308,-685,9.15479,34.3937,0.00193957,0.00415093,-0.00158304,0.00497619,0.0011143,-1.09024,0.00301545,0.0150288,1532,1709,9.15473,-34.3936
315,-685,9.15112,34.1069,0.00161647,0.00390079,-0.00175709,0.00485431,0.00066294,-1.0736,0.00303943,0.0133605,1539,1709,9.15117,-34.1069
322,-685,9.13293,33.8094,0.00139958,0.00362275,-0.00191648,0.00472668,0.000295644,-1.0482,0.00305734,0.0215199,1546,1709,9.13291,-33.8095
329,-685,9.11902,33.5034,0.00120349,0.00299097,-0.00206577,0.00434804,-0.000153583,-0.989561,0.00295122,0.0205477,1553,1709,9.119,-33.5034
336,-685,9.11511,33.1752,0.00102936,0.00230436,-0.00211752,0.00387826,-0.000544536,-0.931612,0.00278482,0.0140877,1560,1709,9.11511,-33.1751
343,-685,9.09802,32.8597,0.00093293,0.00134965,-0.00215174,0.00330309,-0.00102051,-0.833665,0.00260961,0.0116393,1567,1709,9.09801,-32.8597
350,-685,9.08618,32.5339,0.000922078,1.02554e-05,-0.00212812,0.00264257,-0.00171024,-0.679877,0.00253224,0.011402,1574,1709,9.08623,-32.534
357,-685,9.0769,32.2211,0.0010393,-0.00196749,-0.00199964,0.00203766,-0.00296585,-0.463062,0.0029053,0.00953902,1581,1709,9.07685,-32.2211
364,-685,9.05896,31.899,0.00113121,-0.00409836,-0.00178215,0.00168078,-0.00464793,-0.299123,0.00378537,0.0100878,1588,1709,9.05901,-31.899
371,-685,9.08325,31.5541,0.00127645,-0.00679237,-0.00145329,0.00153023,-0.00704614,-0.172876,0.00528192,0.0164968,1595,1709,9.08326,-31.554
378,-685,9.08862,31.1932,0.00168622,-0.00955568,-0.00115945,0.00180455,-0.00967401,-0.10171,0.00712742,0.0201831,1602,1709,9.08865,-31.1933
385,-685,9.01563,30.896,0.00226958,-0.0125249,-0.000723543,0.00230488,-0.0125602,-0.0487511,0.00923812,0.0323799,1609,1709,9.01566,-30.896
392,-685,9.1366,30.7445,0.00300866,-0.015783,-0.000570318,0.00302596,-0.0158003,-0.0303123,0.0116737,0.036838,1616,1709,9.13665,-30.7445
399,-685,9.17566,30.5333,0.00351686,-0.0190273,-0.000325692,0.00352156,-0.019032,-0.0144428,0.0140102,0.0426753,1623,1709,9.17564,-30.5333
406,-685,9.09326,30.2643,0,0,0,0,0,0,0,-1,1630,1709,9.0933,-30.2643
413,-685,9.14075,29.2178,0,0,0,0,0,0,0,-1,1637,1709,9.14078,-29.2178
420,-685,4.84631,10.3781,0,0,0,0,0,0,0,-1,1644,1709,4.84634,-10.378
427,-685,6.05151,9.21155,0,0,0,0,0,0,0,-1,1651,1709,6.05156,-9.21156
434,-685,4.87769,8.91418,0,0,0,0,0,0,0,-1,1658,1709,4.87768,-8.91413
441,-685,5.62,8.75549,0,0,0,0,0,0,0,-1,1665,1709,5.61996,-8.75545
448,-685,6.4043,8.58972,0,0,0,0,0,0,0,-1,1672,1709,6.40435,-8.58971
455,-685,2.31958,4.09802,0,0,0,0,0,0,0,-1,1679,1709,2.31957,-4.09803
462,-685,0,0,0,0,0,0,0,0,0,-1,1686,1709,0,0
469,-685,0,0,0,0,0,0,0,0,0,-1,1693,1709,0,0
476,-685,0,0,0,0,0,0,0,0,0,-1,1700,1709,0,0
483,-685,0,0,0,0,0,0,0,0,0,-1,1707,1709,0,0
490,-685,0,0,0,0,0,0,0,0,0,-1,1714,1709,0,0
497,-685,0,0,0,0,0,0,0,0,0,-1,1721,1709,0,0
504,-685,0,0,0,0,0,0,0,0,0,-1,1728,1709,0,0
511,-685,0,0,0,0,0,0,0,0,0,-1,1735,1709,0,0
518,-685,0,0,0,0,0,0,0,0,0,-1,1742,1709,0,0
525,-685,0,0,0,0,0,0,0,0,0,-1,1749,1709,0,0
532,-685,0,0,0,0,0,0,0,0,0,-1,1756,1709,0,0
539,-685,0,0,0,0,0,0,0,0,0,-1,1763,1709,0,0
546,-685,0,0,0,0,0,0,0,0,0,-1,1770,1709,0,0
553,-685,0,0,0,0,0,0,0,0,0,-1,1777,1709,0,0
560,-685,0,0,0,0,0,0,0,0,0,-1,1784,1709,0,0
567,-685,0,0,0,0,0,0,0,0,0,-1,1791,1709,0,0
574,-685,0,0,0,0,0,0,0,0,0,-1,1798,1709,0,0
581,-685,0,0,0,0,0,0,0,0,0,-1,1805,1709,0,0
588,-685,0,0,0,0,0,0,0,0,0,-1,1812,1709,0,0
595,-685,0,0,0,0,0,0,0,0,0,-1,1819,1709,0,0
602,-685,0,0,0,0,0,0,0,0,0,-1,1826,1709,0,0
609,-685,0,0,0,0,0,0,0,0,0,-1,1833,1709,0,0
616,-685,0,0,0,0,0,0,0,0,0,-1,1840,1709,0,0
623,-685,0,0,0,0,0,0,0,0,0,-1,1847,1709,0,0
630,-685,0,0,0,0,0,0,0,0,0,-1,1854,1709,0,0
637,-685,0,0,0,0,0,0,0,0,0,-1,1861,1709,0,0
644,-685,0,0,0,0,0,0,0,0,0,-1,1868,1709,0,0
651,-685,0,0,0,0,0,0,0,0,0,-1,1875,1709,0,0
658,-685,0,0,0,0,0,0,0,0,0,-1,1882,1709,0,0
665,-685,0,0,0,0,0,0,0,0,0,-1,1889,1709,0,0
672,-685,0,0,0,0,0,0,0,0,0,-1,1896,1709,0,0
679,-685,0,0,0,0,0,0,0,0,0,-1,1903,1709,0,0
686,-685,0,0,0,0,0,0,0,0,0,-1,1910,1709,0,0
693,-685,0,0,0,0,0,0,0,0,0,-1,1917,1709,0,0
700,-685,0,0,0,0,0,0,0,0,0,-1,1924,1709,0,0
707,-685,0,0,0,0,0,0,0,0,0,-1,1931,1709,0,0
714,-685,0,0,0,0,0,0,0,0,0,-1,1938,1709,0,0
721,-685,0,0,0,0,0,0,0,0,0,-1,1945,1709,0,0
728,-685,0,0,0,0,0,0,0,0,0,-1,1952,1709,0,0
735,-685,0,0,0,0,0,0,0,0,0,-1,1959,1709,0,0
742,-685,0,0,0,0,0,0,0,0,0,-1,1966,1709,0,0
749,-685,0,0,0,0,0,0,0,0,0,-1,1973,1709,0,0
756,-685,0,0,0,0,0,0,0,0,0,-1,1980,1709,0,0
763,-685,0,0,0,0,0,0,0,0,0,-1,1987,1709,0,0
770,-685,0,0,0,0,0,0,0,0,0,-1,1994,1709,0,0
777,-685,0,0,0,0,0,0,0,0,0,-1,2001,1709,0,0
784,-685,0,0,0,0,0,0,0,0,0,-1,2008,1709,0,0
791,-685,0,0,0,0,0,0,0,0,0,-1,2015,1709,0,0
798,-685,0,0,0,0,0,0,0,0,0,-1,2022,1709,0,0
805,-685,0,0,0,0,0,0,0,0,0,-1,2029,1709,0,0
812,-685,0,0,0,0,0,0,0,0,0,-1,2036,1709,0,0
-700,-692,0,0,0,0,0,0,0,0,0,-1,524,1716,0,0
-693,-692,0,0,0,0,0,0,0,0,0,-1,531,1716,0,0
-686,-692,0,0,0,0,0,0,0,0,0,-1,538,1716,0,0
-679,-692,0,0,0,0,0,0,0,0,0,-1,545,1716,0,0
-672,-692,0,0,0,0,0,0,0,0,0,-1,552,1716,0,0
-665,-692,0,0,0,0,0,0,0,0,0,-1,559,1716,0,0
-658,-692,0,0,0,0,0,0,0,0,0,-1,566,1716,0,0
-651,-692,0,0,0,0,0,0,0,0,0,-1,573,1716,0,0
-644,-692,0,0,0,0,0,0,0,0,0,-1,580,1716,0,0
-637,-692,0,0,0,0,0,0,0,0,0,-1,587,1716,0,0
-630,-692,0,0,0,0,0,0,0,0,0,-1,594,1716,0,0
-623,-692,0,0,0,0,0,0,0,0,0,-1,601,1716,0,0
-616,-692,0,0,0,0,0,0,0,0,0,-1,608,1716,0,0
-609,-692,0,0,0,0,0,0,0,0,0,-1,615,1716,0,0
-602,-692,0,0,0,0,0,0,0,0,0,-1,622,1716,0,0
-595,-692,0,0,0,0,0,0,0,0,0,-1,629,1716,0,0
-588,-692,0,0,0,0,0,0,0,0,0,-1,636,1716,0,0
-581,-692,0,0,0,0,0,0,0,0,0,-1,643,1716,0,0
-574,-692,0,0,0,0,0,0,0,0,0,-1,650,1716,0,0
-567,-692,0,0,0,0,0,0,0,0,0,-1,657,1716,0,0
-560,-692,0,0,0,0,0,0,0,0,0,-1,664,1716,0,0
-553,-692,0,0,0,0,0,0,0,0,0,-1,671,1716,0,0
-546,-692,0,0,0,0,0,0,0,0,0,-1,678,1716,0,0
-539,-692,0,0,0,0,0,0,0,0,0,-1,685,1716,0,0
-532,-692,0,0,0,0,0,0,0,0,0,-1,692,1716,0,0
-525,-692,0,0,0,0,0,0,0,0,0,-1,699,1716,0,0
-518,-692,0,0,0,0,0,0,0,0,0,-1,706,1716,0,0
-511,-692,0,0,0,0,0,0,0,0,0,-1,713,1716,0,0
-504,-692,0,0,0,0,0,0,0,0,0,-1,720,1716,0,0
-497,-692,0,0,0,0,0,0,0,0,0,-1,727,1716,0,0
-490,-692,0,0,0,0,0,0,0,0,0,-1,734,1716,0,0
-483,-692,0,0,0,0,0,0,0,0,0,-1,741,1716,0,0
-476,-692,0,0,0,0,0,0,0,0,0,-1,748,1716,0,0
-469,-692,0,0,0,0,0,0,0,0,0,-1,755,1716,0,0
-462,-692,0,0,0,0,0,0,0,0,0,-1,762,1716,0,0
-455,-692,0,0,0,0,0,0,0,0,0,-1,769,1716,0,0
-448,-692,0,0,0,0,0,0,0,0,0,-1,776,1716,0,0
-441,-692,0,0,0,0,0,0,0,0,0,-1,783,1716,0,0
-434,-692,0,0,0,0,0,0,0,0,0,-1,790,1716,0,0
-427,-692,0,0,0,0,0,0,0,0,0,-1,797,1716,0,0
-420,-692,0,0,0,0,0,0,0,0,0,-1,804,1716,0,0
-413,-692,0,0,0,0,0,0,0,0,0,-1,811,1716,0,0
-406,-692,0,0,0,0,0,0,0,0,0,-1,818,1716,0,0
-399,-692,0,0,0,0,0,0,0,0,0,-1,825,1716,0,0
-392,-692,0,0,0,0,0,0,0,0,0,-1,832,1716,0,0
-385,-692,0,0,0,0,0,0,0,0,0,-1,839,1716,0,0
-378,-692,0,0,0,0,0,0,0,0,0,-1,846,1716,0,0
-371,-692,0,0,0,0,0,0,0,0,0,-1,853,1716,0,0
-364,-692,0,0,0,0,0,0,0,0,0,-1,860,1716,0,0
-357,-692,0,0,0,0,0,0,0,0,0,-1,867,1716,0,0
-350,-692,0,0,0,0,0,0,0,0,0,-1,874,1716,0,0
-343,-692,0,0,0,0,0,0,0,0,0,-1,881,1716,0,0
-336,-692,0,0,0,0,0,0,0,0,0,-1,888,1716,0,0
-329,-692,3.03107,4.10266,0,0,0,0,0,0,0,-1,895,1716,3.03105,-4.10267
-322,-692,4.43713,18.5242,0,0,0,0,0,0,0,-1,902,1716,4.43711,-18.5241
-315,-692,5.38965,17.975,0,0,0,0,0,0,0,-1,909,1716,5.38963,-17.975
-308,-692,5.86938,17.4392,0,0,0,0,0,0,0,-1,916,1716,5.86937,-17.4392
-301,-692,8.65558,20.7662,0,0,0,0,0,0,0,-1,923,1716,8.65556,-20.7663
-294,-692,7.04529,27.412,0,0,0,0,0,0,0,-1,930,1716,7.04529,-27.412
-287,-692,6.51239,25.4999,0,0,0,0,0,0,0,-1,937,1716,6.51237,-25.4999
-280,-692,6.59369,26.2999,0,0,0,0,0,0,0,-1,944,1716,6.59366,-26.2999
-273,-692,7.27216,29.1088,0,0,0,0,0,0,0,-1,951,1716,7.27214,-29.1088
-266,-692,7.18018,29.3191,0,0,0,0,0,0,0,-1,958,1716,7.1802,-29.3191
-259,-692,7.51263,30.1271,0,0,0,0,0,0,0,-1,965,1716,7.51266,-30.1271
-252,-692,7.30371,29.5927,0,0,0,0,0,0,0,-1,972,1716,7.30373,-29.5926
-245,-692,7.2821,30.1987,-0.00198543,0.004744,0.000615784,0.00479988,-0.00204131,1.48029,0.00405539,0.0461674,979,1716,7.28211,-30.1987
-238,-692,7.36407,31.162,-0.00222556,0.00543619,0.00109177,0.00558873,-0.0023781,1.43198,0.00472251,0.0440387,986,1716,7.36406,-31.162
-231,-692,7.16229,31.6089,-0.0022839,0.00512427,0.00140968,0.00538344,-0.00254307,1.38897,0.00467329,0.0370162,993,1716,7.16229,-31.6088
-224,-692,7.05841,31.8799,-0.00209376,0.00460476,0.00152674,0.00493633,-0.00242533,1.35694,0.00433188,0.0181795,1000,1716,7.05842,-31.8799
-217,-692,7.04761,32.218,-0.0019016,0.00399667,0.00124609,0.00424912,-0.00215405,1.37091,0.00376225,0.0120804,1007,1716,7.04758,-32.218
-210,-692,7.04474,32.5813,-0.00173635,0.00339636,0.00127055,0.00369365,-0.00203365,1.34095,0.00335263,0.0127738,1014,1716,7.04475,-32.5813
-203,-692,7.05542,32.9092,-0.0017304,0.00274823,0.00136203,0.00312992,-0.00211209,1.29757,0.00304543,0.0142868,1021,1716,7.05542,-32.9092
-196,-692,7.03821,33.2474,-0.00161704,0.0018916,0.0013594,0.00235665,-0.00208209,1.24118,0.00256434,0.0177288,1028,1716,7.03825,-33.2474
-189,-692,6.98657,33.5637,-0.0013184,0.000957158,0.00107539,0.00138495,-0.00174619,1.19219,0.00181177,0.00964445,1035,1716,6.98662,-33.5638
-182,-692,6.96594,33.9006,-0.000914463,0.000596367,0.000989249,0.00108565,-0.00140374,1.11148,0.00144116,0.0135086,1042,1716,6.9659,-33.9006
-175,-692,6.94556,34.2285,-0.000493967,0.000405506,0.000993085,0.00104594,-0.00113441,0.998016,0.00125917,0.0145471,1049,1716,6.94555,-34.2285
-168,-692,6.94897,34.5404,-0.000139882,0.000319829,0.00103704,0.00115218,-0.000972236,0.894458,0.001228,0.0116018,1056,1716,6.94893,-34.5404
-161,-692,6.96631,34.8408,2.11627e-05,0.000647345,0.00104223,0.00142249,-0.000753983,0.931313,0.00127619,0.0132182,1063,1716,6.96631,-34.8409
-154,-692,6.94861,35.1517,0.000414821,0.000572937,0.00109015,0.00158689,-0.000599133,0.821595,0.00130434,0.0138635,1070,1716,6.94857,-35.1517
-147,-692,6.93274,35.4211,0.000751319,0.000931914,0.000998445,0.00184414,-0.000160904,0.830495,0.00128642,0.0127475,1077,1716,6.93277,-35.4212
-140,-692,6.92249,35.6713,0.000952721,0.00147727,0.000966567,0.00221652,0.000213479,0.917883,0.00141191,0.0101092,1084,1716,6.92247,-35.6712
-133,-692,6.92444,35.939,0.00107811,0.0020542,0.00103392,0.00270948,0.000422835,1.00591,0.00168317,0.00934838,1091,1716,6.92446,-35.939
-126,-692,6.94507,36.2095,0.00112069,0.00259362,0.00111196,0.00319089,0.000523424,1.07789,0.00197603,0.00721449,1098,1716,6.94502,-36.2094
-119,-692,6.95618,36.4698,0.00114264,0.00288978,0.00118879,0.00349145,0.000540961,1.10226,0.00216991,0.0111732,1105,1716,6.95614,-36.4699
-112,-692,6.9519,36.72,0.00116814,0.00311621,0.00125816,0.00373331,0.000551039,1.1148,0.00232705,0.0114508,1112,1716,6.95196,-36.7199
-105,-692,6.97852,36.9536,0.00116448,0.00311601,0.00140622,0.00385184,0.00042865,1.0887,0.00243761,0.0169083,1119,1716,6.97857,-36.9536
-98,-692,7.03223,37.1448,0.00113803,0.00313774,0.00156141,0.00399199,0.000283775,1.07018,0.00257196,0.0184905,1126,1716,7.03228,-37.1448
-91,-692,7.02356,37.3411,0.00118408,0.00286091,0.00147476,0.00371891,0.000326073,1.04387,0.00237805,0.0195917,1133,1716,7.02357,-37.341
-84,-692,7.04736,37.5494,0.00140558,0.00258501,0.00131884,0.00343998,0.000550608,0.995638,0.0021336,0.0220173,1140,1716,7.04737,-37.5494
-77,-692,7.03186,37.8153,0.00180941,0.0025013,0.000787939,0.0030159,0.00129482,0.992254,0.00174702,0.0176871,1147,1716,7.03184,-37.8153
-70,-692,7.0907,38.0071,0.00218959,0.00199616,0.000169827,0.00228831,0.00189744,0.526553,0.00141338,0.0334234,1154,1716,7.09073,-38.0071
-63,-692,7.11206,38.1506,0,0,0,0,0,0,0,-1,1161,1716,7.11212,-38.1507
-56,-692,7.07068,38.3131,0,0,0,0,0,0,0,-1,1168,1716,7.07068,-38.3132
-49,-692,7.08911,38.5797,0,0,0,0,0,0,0,-1,1175,1716,7.08909,-38.5797
-42,-692,7.10754,38.8274,0,0,0,0,0,0,0,-1,1182,1716,7.10755,-38.8274
-35,-692,7.26245,38.9329,0,0,0,0,0,0,0,-1,1189,1716,7.26247,-38.9328
-28,-692,7.24524,39.0448,0.0176118,0.0306806,0.026136,0.0510867,-0.00279427,0.907894,0.0350264,0.048448,1196,1716,7.24521,-39.0448
-21,-692,7.3446,38.9919,0.0204051,0.0360018,0.0263727,0.055705,0.000701938,0.92915,0.0369049,0.0339412,1203,1716,7.34457,-38.992
-14,-692,7.4126,39.1068,0.0229461,0.0418136,0.0260888,0.0601219,0.00463783,0.958884,0.0386282,0.0172879,1210,1716,7.41262,-39.1068
-7,-692,7.44189,39.2762,0.0255605,0.0479626,0.0249104,0.0640744,0.00944872,0.996681,0.039941,0.015132,1217,1716,7.44185,-39.2762
0,-692,7.44971,39.3879,0.0283192,0.0542068,0.0232549,0.0678775,0.0146484,1.03935,0.0412453,0.0184649,1224,1716,7.44975,-39.3879
7,-692,7.49121,39.4858,0.0313397,0.0600406,0.0210226,0.0711438,0.0202366,1.08488,0.0423281,0.0235209,1231,1716,7.49116,-39.4858
14,-692,7.58826,39.7025,0.0340876,0.0646423,0.0180075,0.0729799,0.02575,1.13718,0.042739,0.0255238,1238,1716,7.5882,-39.7025
21,-692,7.69128,39.7979,0.0363984,0.0673224,0.0147549,0.0732329,0.030488,1.1898,0.042478,0.0257611,1245,1716,7.69128,-39.7979
28,-692,7.71558,39.7184,0.0378255,0.0676906,0.0125196,0.0722446,0.0332716,1.22193,0.0417537,0.0286237,1252,1716,7.71561,-39.7184
35,-692,7.76038,39.8224,0.0378762,0.0653159,0.0108519,0.0690889,0.0341032,1.23619,0.0398896,0.0283933,1259,1716,7.76034,-39.8224
42,-692,7.87207,39.9761,0.0373348,0.0626871,0.00929284,0.0657285,0.0342934,1.2545,0.0379603,0.0256791,1266,1716,7.87201,-39.9761
49,-692,7.96362,39.991,0.0353433,0.0593876,0.00837449,0.0620169,0.032714,1.26658,0.0358235,0.0305652,1273,1716,7.96362,-39.991
56,-692,7.94592,39.917,0.0324174,0.0544598,0.00698679,0.0564878,0.0303894,1.28829,0.0326446,0.0372377,1280,1716,7.94598,-39.917
63,-692,7.90503,39.9547,0.0293387,0.0487425,0.006175,0.050541,0.0275403,1.28739,0.029219,0.0371356,1287,1716,7.90508,-39.9548
70,-692,8.05518,40.0374,0.0260772,0.0427511,0.00698263,0.045289,0.0235393,1.22219,0.0261544,0.032097,1294,1716,8.05516,-40.0373
77,-692,8.17383,39.9717,0.0226471,0.037278,0.00806132,0.0408483,0.0190767,1.15386,0.0236009,0.0383344,1301,1716,8.17384,-39.9717
84,-692,8.13855,39.8269,0.0191374,0.0325535,0.00896768,0.0370444,0.0146465,1.10652,0.0215431,0.0488459,1308,1716,8.13859,-39.8269
91,-692,8.13293,39.7273,0.0179366,0.0294999,0.00960368,0.034928,0.0125085,1.05635,0.0204345,0.0436059,1315,1716,8.13294,-39.7273
98,-692,8.14502,39.6857,0.0186496,0.0278874,0.0099924,0.0342768,0.0122602,1.00189,0.0200551,0.0332009,1322,1716,8.14498,-39.6856
105,-692,8.17798,39.6646,0.020213,0.0274229,0.0102449,0.0346786,0.0129573,0.954571,0.0202337,0.0388167,1329,1716,8.17801,-39.6646
112,-692,8.13635,39.6382,0.0230166,0.0274516,0.0106114,0.0360747,0.0143935,0.888402,0.0209689,0.0418308,1336,1716,8.13641,-39.6381
119,-692,8.24658,39.5085,0.0271583,0.0279864,0.0111303,0.0387103,0.0164344,0.803989,0.0224341,0.0359026,1343,1716,8.24657,-39.5086
126,-692,8.41638,39.3752,0.0319771,0.0288538,0.011407,0.0419289,0.0189021,0.717369,0.0242466,0.0346382,1350,1716,8.41641,-39.3752
133,-692,8.52588,39.283,0.0371882,0.0300516,0.0109152,0.0451035,0.0221363,0.627418,0.026042,0.0267542,1357,1716,8.52589,-39.283
140,-692,8.45801,39.2727,0.0421428,0.031384,0.0104675,0.0485324,0.0249945,0.548041,0.0280244,0.0315974,1364,1716,8.45806,-39.2727
147,-692,8.49524,39.2579,0.0457905,0.0317989,0.0100805,0.0510648,0.0265245,0.482056,0.0294897,0.0377744,1371,1716,8.49521,-39.258
154,-692,8.505,39.1359,0.0485078,0.0301969,0.00975922,0.0527338,0.0259709,0.408655,0.030447,0.0319851,1378,1716,8.50498,-39.1358
161,-692,8.78687,39.0959,0.0499842,0.0275941,0.00993541,0.0537571,0.0238212,0.362929,0.0311036,0.040974,1385,1716,8.78685,-39.0959
168,-692,8.66333,38.9015,0,0,0,0,0,0,0,-1,1392,1716,8.66328,-38.9015
175,-692,8.72974,38.7114,0,0,0,0,0,0,0,-1,1399,1716,8.72971,-38.7114
182,-692,8.72827,38.498,0,0,0,0,0,0,0,-1,1406,1716,8.72824,-38.4981
189,-692,8.85547,38.4202,0,0,0,0,0,0,0,-1,1413,1716,8.85552,-38.4201
196,-692,8.75916,38.204,0.016798,0.00858223,0.00307917,0.0178239,0.00755631,0.321615,0.0103302,0.0367796,1420,1716,8.75916,-38.204
203,-692,8.78284,38.0526,0.00448997,0.000298725,0.00197539,0.00527425,-0.000485546,0.377936,0.00368868,0.0238508,1427,1716,8.7829,-38.0526
210,-692,8.84583,37.8766,0.00365436,-0.000225222,0.00175854,0.00433282,-0.000903688,0.368215,0.00323217,0.0187229,1434,1716,8.84582,-37.8766
217,-692,8.83752,37.6362,0.00284563,-0.000802609,0.00114839,0.00317702,-0.00113399,0.280934,0.00258045,0.0174467,1441,1716,8.83751,-37.6362
224,-692,8.85376,37.4545,0.00257423,-0.00079231,0.000921233,0.00280983,-0.00102791,0.250379,0.00229396,0.0140302,1448,1716,8.85377,-37.4545
231,-692,8.8573,37.2538,0.00258598,-0.000655384,0.000466047,0.00265166,-0.000721061,0.140004,0.00205083,0.0120056,1455,1716,8.85735,-37.2538
238,-692,8.88013,36.9628,0.00262268,0.000224495,0.000298302,0.00265923,0.000187947,0.121912,0.00171361,0.016693,1462,1716,8.88013,-36.9628
245,-692,8.87036,36.7404,0.00255115,0.000930994,9.63068e-05,0.00255685,0.00092529,0.0591653,0.00149485,0.0186592,1469,1716,8.87041,-36.7403
252,-692,8.8728,36.5577,0.002432,0.00141328,-0.000144737,0.00245217,0.00139311,-0.138428,0.00142013,0.0176026,1476,1716,8.87284,-36.5578
259,-692,8.87561,36.3279,0.00232923,0.00176426,-0.000356754,0.00250179,0.0015917,-0.450535,0.00146217,0.00974087,1483,1716,8.87559,-36.3278
266,-692,8.89575,36.0896,0.00223406,0.00206893,-0.00055214,0.00270977,0.00159321,-0.711176,0.00157254,0.00967384,1490,1716,8.8958,-36.0896
273,-692,8.90344,35.8181,0.00211492,0.00243605,-0.000755377,0.00304774,0.00150323,-0.890121,0.00175967,0.0145861,1497,1716,8.90341,-35.8181
280,-692,8.89746,35.5192,0.00194605,0.00274141,-0.001,0.0034199,0.00126756,-0.974649,0.00199639,0.0142827,1504,1716,8.89742,-35.5191
287,-692,8.87805,35.2638,0.00180467,0.00312843,-0.00123071,0.00386395,0.00106916,-1.03211,0.00230382,0.0107649,1511,1716,8.8781,-35.2638
294,-692,8.8761,35.0115,0.00173901,0.0036644,-0.00152365,0.00450401,0.000899407,-1.06715,0.0027523,0.0107376,1518,1716,8.87612,-35.0114
301,-692,8.87402,34.7262,0.00165907,0.00404313,-0.00182715,0.00503271,0.000669496,-1.07443,0.00315574,0.0147509,1525,1716,8.87401,-34.7262
308,-692,8.85791,34.4584,0.00147343,0.00422107,-0.0021699,0.00541549,0.000279006,-1.06761,0.00352101,0.0179471,1532,1716,8.85789,-34.4584
315,-692,8.87695,34.1575,0.00126095,0.00426861,-0.00240915,0.00560476,-7.52027e-05,-1.06442,0.00376183,0.0164881,1539,1716,8.87694,-34.1574
322,-692,8.83337,33.8109,0.00118168,0.00427664,-0.00263619,0.00578599,-0.000327668,-1.05081,0.00397106,0.0205222,1546,1716,8.8334,-33.8109
329,-692,8.82312,33.4965,0.0010971,0.00381489,-0.00283004,0.00559538,-0.000683386,-1.00923,0.00397766,0.0180351,1553,1716,8.82314,-33.4964
336,-692,8.81226,33.175,0.00105453,0.00321112,-0.00293832,0.00526275,-0.000997104,-0.961257,0.00388377,0.0125557,1560,1716,8.81222,-33.1751
343,-692,8.79724,32.882,0.00107043,0.00231337,-0.00297401,0.00473015,-0.00134635,-0.8884,0.00368513,0.0127451,1567,1716,8.79727,-32.882
350,-692,8.78833,32.5828,0.00112904,0.000856282,-0.00293267,0.0039285,-0.00194318,-0.762163,0.00345401,0.0153078,1574,1716,8.7883,-32.5827
357,-692,8.76062,32.2156,0.00134647,-0.00153597,-0.00276217,0.0030208,-0.00321031,-0.544941,0.00359809,0.0214863,1581,1716,8.76066,-32.2155
364,-692,8.73035,31.8267,0.0015292,-0.00421599,-0.00246958,0.00244482,-0.00513162,-0.35505,0.004465,0.0272286,1588,1716,8.73038,-31.8267
371,-692,8.89258,31.5865,0.00170139,-0.00790831,-0.00192188,0.0020715,-0.00827842,-0.190248,0.00632357,0.0358991,1595,1716,8.8926,-31.5865
378,-692,8.9635,31.4658,0.00231168,-0.011627,-0.00150082,0.00247145,-0.0117868,-0.106053,0.00879815,0.0475567,1602,1716,8.96345,-31.4658
385,-692,8.70544,31.0127,0,0,0,0,0,0,0,-1,1609,1716,8.70547,-31.0127
392,-692,8.87134,30.7875,0,0,0,0,0,0,0,-1,1616,1716,8.8713,-30.7875
399,-692,8.96045,30.6378,0,0,0,0,0,0,0,-1,1623,1716,8.96042,-30.6378
406,-692,8.48706,30.1267,0,0,0,0,0,0,0,-1,1630,1716,8.48703,-30.1267
413,-692,4.25085,10.5685,0,0,0,0,0,0,0,-1,1637,1716,4.2508,-10.5685
420,-692,5.48901,10.4845,0,0,0,0,0,0,0,-1,1644,1716,5.48906,-10.4845
427,-692,3.79578,8.60339,0,0,0,0,0,0,0,-1,1651,1716,3.79577,-8.6034
434,-692,4.78516,8.64636,0,0,0,0,0,0,0,-1,1658,1716,4.78512,-8.64634
441,-692,5.8208,8.74036,0,0,0,0,0,0,0,-1,1665,1716,5.82084,-8.7404
448,-692,6.73792,8.51013,0,0,0,0,0,0,0,-1,1672,1716,6.73793,-8.5101
455,-692,0,0,0,0,0,0,0,0,0,-1,1679,1716,0,0
462,-692,0,0,0,0,0,0,0,0,0,-1,1686,1716,0,0
469,-692,0,0,0,0,0,0,0,0,0,-1,1693,1716,0,0
476,-692,0,0,0,0,0,0,0,0,0,-1,1700,1716,0,0
483,-692,0,0,0,0,0,0,0,0,0,-1,1707,1716,0,0
490,-692,0,0,0,0,0,0,0,0,0,-1,1714,1716,0,0
497,-692,0,0,0,0,0,0,0,0,0,-1,1721,1716,0,0
504,-692,0,0,0,0,0,0,0,0,0,-1,1728,1716,0,0
511,-692,0,0,0,0,0,0,0,0,0,-1,1735,1716,0,0
518,-692,0,0,0,0,0,0,0,0,0,-1,1742,1716,0,0
525,-692,0,0,0,0,0,0,0,0,0,-1,1749,1716,0,0
532,-692,0,0,0,0,0,0,0,0,0,-1,1756,1716,0,0
539,-692,0,0,0,0,0,0,0,0,0,-1,1763,1716,0,0
546,-692,0,0,0,0,0,0,0,0,0,-1,1770,1716,0,0
553,-692,0,0,0,0,0,0,0,0,0,-1,1777,1716,0,0
560,-692,0,0,0,0,0,0,0,0,0,-1,1784,1716,0,0
567,-692,0,0,0,0,0,0,0,0,0,-1,1791,1716,0,0
574,-692,0,0,0,0,0,0,0,0,0,-1,1798,1716,0,0
581,-692,0,0,0,0,0,0,0,0,0,-1,1805,1716,0,0
588,-692,0,0,0,0,0,0,0,0,0,-1,1812,1716,0,0
595,-692,0,0,0,0,0,0,0,0,0,-1,1819,1716,0,0
602,-692,0,0,0,0,0,0,0,0,0,-1,1826,1716,0,0
609,-692,0,0,0,0,0,0,0,0,0,-1,1833,1716,0,0
616,-692,0,0,0,0,0,0,0,0,0,-1,1840,1716,0,0
623,-692,0,0,0,0,0,0,0,0,0,-1,1847,1716,0,0
630,-692,0,0,0,0,0,0,0,0,0,-1,1854,1716,0,0
637,-692,0,0,0,0,0,0,0,0,0,-1,1861,1716,0,0
644,-692,0,0,0,0,0,0,0,0,0,-1,1868,1716,0,0
651,-692,0,0,0,0,0,0,0,0,0,-1,1875,1716,0,0
658,-692,0,0,0,0,0,0,0,0,0,-1,1882,1716,0,0
665,-692,0,0,0,0,0,0,0,0,0,-1,1889,1716,0,0
672,-692,0,0,0,0,0,0,0,0,0,-1,1896,1716,0,0
679,-692,0,0,0,0,0,0,0,0,0,-1,1903,1716,0,0
686,-692,0,0,0,0,0,0,0,0,0,-1,1910,1716,0,0
693,-692,0,0,0,0,0,0,0,0,0,-1,1917,1716,0,0
700,-692,0,0,0,0,0,0,0,0,0,-1,1924,1716,0,0
707,-692,0,0,0,0,0,0,0,0,0,-1,1931,1716,0,0
714,-692,0,0,0,0,0,0,0,0,0,-1,1938,1716,0,0
721,-692,0,0,0,0,0,0,0,0,0,-1,1945,1716,0,0
728,-692,0,0,0,0,0,0,0,0,0,-1,1952,1716,0,0
735,-692,0,0,0,0,0,0,0,0,0,-1,1959,1716,0,0
742,-692,0,0,0,0,0,0,0,0,0,-1,1966,1716,0,0
749,-692,0,0,0,0,0,0,0,0,0,-1,1973,1716,0,0
756,-692,0,0,0,0,0,0,0,0,0,-1,1980,1716,0,0
763,-692,0,0,0,0,0,0,0,0,0,-1,1987,1716,0,0
770,-692,0,0,0,0,0,0,0,0,0,-1,1994,1716,0,0
777,-692,0,0,0,0,0,0,0,0,0,-1,2001,1716,0,0
784,-692,0,0,0,0,0,0,0,0,0,-1,2008,1716,0,0
791,-692,0,0,0,0,0,0,0,0,0,-1,2015,1716,0,0
798,-692,0,0,0,0,0,0,0,0,0,-1,2022,1716,0,0
805,-692,0,0,0,0,0,0,0,0,0,-1,2029,1716,0,0
812,-692,0,0,0,0,0,0,0,0,0,-1,2036,1716,0,0
-700,-699,0,0,0,0,0,0,0,0,0,-1,524,1723,0,0
-693,-699,0,0,0,0,0,0,0,0,0,-1,531,1723,0,0
-686,-699,0,0,0,0,0,0,0,0,0,-1,538,1723,0,0
-679,-699,0,0,0,0,0,0,0,0,0,-1,545,1723,0,0
-672,-699,0,0,0,0,0,0,0,0,0,-1,552,1723,0,0
-665,-699,0,0,0,0,0,0,0,0,0,-1,559,1723,0,0
-658,-699,0,0,0,0,0,0,0,0,0,-1,566,1723,0,0
-651,-699,0,0,0,0,0,0,0,0,0,-1,573,1723,0,0
-644,-699,0,0,0,0,0,0,0,0,0,-1,580,1723,0,0
-637,-699,0,0,0,0,0,0,0,0,0,-1,587,1723,0,0
-630,-699,0,0,0,0,0,0,0,0,0,-1,594,1723,0,0
-623,-699,0,0,0,0,0,0,0,0,0,-1,601,1723,0,0
-616,-699,0,0,0,0,0,0,0,0,0,-1,608,1723,0,0
-609,-699,0,0,0,0,0,0,0,0,0,-1,615,1723,0,0
-602,-699,0,0,0,0,0,0,0,0,0,-1,622,1723,0,0
-595,-699,0,0,0,0,0,0,0,0,0,-1,629,1723,0,0
-588,-699,0,0,0,0,0,0,0,0,0,-1,636,1723,0,0
-581,-699,0,0,0,0,0,0,0,0,0,-1,643,1723,0,0
-574,-699,0,0,0,0,0,0,0,0,0,-1,650,1723,0,0
-567,-699,0,0,0,0,0,0,0,0,0,-1,657,1723,0,0
-560,-699,0,0,0,0,0,0,0,0,0,-1,664,1723,0,0
-553,-699,0,0,0,0,0,0,0,0,0,-1,671,1723,0,0
-546,-699,0,0,0,0,0,0,0,0,0,-1,678,1723,0,0
-539,-699,0,0,0,0,0,0,0,0,0,-1,685,1723,0,0
-532,-699,0,0,0,0,0,0,0,0,0,-1,692,1723,0,0
-525,-699,0,0,0,0,0,0,0,0,0,-1,699,1723,0,0
-518,-699,0,0,0,0,0,0,0,0,0,-1,706,1723,0,0
-511,-699,0,0,0,0,0,0,0,0,0,-1,713,1723,0,0
-504,-699,0,0,0,0,0,0,0,0,0,-1,720,1723,0,0
-497,-699,0,0,0,0,0,0,0,0,0,-1,727,1723,0,0
-490,-699,0,0,0,0,0,0,0,0,0,-1,734,1723,0,0
-483,-699,0,0,0,0,0,0,0,0,0,-1,741,1723,0,0
-476,-699,0,0,0,0,0,0,0,0,0,-1,748,1723,0,0
-469,-699,0,0,0,0,0,0,0,0,0,-1,755,1723,0,0
-462,-699,0,0,0,0,0,0,0,0,0,-1,762,1723,0,0
-455,-699,0,0,0,0,0,0,0,0,0,-1,769,1723,0,0
-448,-699,0,0,0,0,0,0,0,0,0,-1,776,1723,0,0
-441,-699,0,0,0,0,0,0,0,0,0,-1,783,1723,0,0
-434,-699,0,0,0,0,0,0,0,0,0,-1,790,1723,0,0
-427,-699,0,0,0,0,0,0,0,0,0,-1,797,1723,0,0
-420,-699,0,0,0,0,0,0,0,0,0,-1,804,1723,0,0
-413,-699,0,0,0,0,0,0,0,0,0,-1,811,1723,0,0
-406,-699,0,0,0,0,0,0,0,0,0,-1,818,1723,0,0
-399,-699,0,0,0,0,0,0,0,0,0,-1,825,1723,0,0
-392,-699,0,0,0,0,0,0,0,0,0,-1,832,1723,0,0
-385,-699,0,0,0,0,0,0,0,0,0,-1,839,1723,0,0
-378,-699,0,0,0,0,0,0,0,0,0,-1,846,1723,0,0
-371,-699,0,0,0,0,0,0,0,0,0,-1,853,1723,0,0
-364,-699,0,0,0,0,0,0,0,0,0,-1,860,1723,0,0
-357,-699,0,0,0,0,0,0,0,0,0,-1,867,1723,0,0
-350,-699,0,0,0,0,0,0,0,0,0,-1,874,1723,0,0
-343,-699,0,0,0,0,0,0,0,0,0,-1,881,1723,0,0
-336,-699,0,0,0,0,0,0,0,0,0,-1,888,1723,0,0
-329,-699,0,0,0,0,0,0,0,0,0,-1,895,1723,0,0
-322,-699,0,0,0,0,0,0,0,0,0,-1,902,1723,0,0
-315,-699,6.20001,19.5193,0,0,0,0,0,0,0,-1,909,1723,6.20001,-19.5193
-308,-699,6.98151,18.9218,0,0,0,0,0,0,0,-1,916,1723,6.98151,-18.9217
-301,-699,4.72729,12.8752,0,0,0,0,0,0,0,-1,923,1723,4.72732,-12.8752
-294,-699,6.90332,19.8601,0,0,0,0,0,0,0,-1,930,1723,6.90332,-19.8601
-287,-699,7.71405,27.0637,0,0,0,0,0,0,0,-1,937,1723,7.71407,-27.0637
-280,-699,7.63812,28.7865,0,0,0,0,0,0,0,-1,944,1723,7.63813,-28.7865
-273,-699,6.48779,28.6891,0,0,0,0,0,0,0,-1,951,1723,6.48782,-28.6891
-266,-699,6.81915,20.8951,0,0,0,0,0,0,0,-1,958,1723,6.81914,-20.8952
-259,-699,5.39758,14.5466,0,0,0,0,0,0,0,-1,965,1723,5.39759,-14.5466
-252,-699,7.9483,28.2317,0,0,0,0,0,0,0,-1,972,1723,7.94833,-28.2317
-245,-699,7.58514,29.8309,0,0,0,0,0,0,0,-1,979,1723,7.58515,-29.8309
-238,-699,7.46344,31.5144,0,0,0,0,0,0,0,-1,986,1723,7.46342,-31.5144
-231,-699,7.36713,31.6625,-0.00251999,0.00756552,0.00202645,0.00795746,-0.00291192,1.37974,0.0064969,0.0433859,993,1723,7.36713,-31.6625
-224,-699,7.34314,31.8793,-0.0024902,0.0067126,0.00208535,0.00716309,-0.00294068,1.35804,0.00600081,0.0391533,1000,1723,7.34316,-31.8793
-217,-699,7.367,32.2096,-0.00246966,0.0057529,0.00176102,0.00611418,-0.00283095,1.36845,0.00527916,0.0268646,1007,1723,7.367,-32.2096
-210,-699,7.38824,32.5752,-0.00241455,0.0046914,0.00178521,0.00511468,-0.00283783,1.33799,0.00465369,0.0167804,1014,1723,7.38824,-32.5752
-203,-699,7.39526,32.8927,-0.00249922,0.0035803,0.00186104,0.00410475,-0.00302367,1.29611,0.00413134,0.0192307,1021,1723,7.39527,-32.8926
-196,-699,7.35925,33.2507,-0.00240681,0.00223857,0.00184989,0.00288522,-0.00305346,1.23451,0.00342916,0.0172774,1028,1723,7.35926,-33.2507
-189,-699,7.30969,33.5917,-0.00202867,0.000926669,0.00153374,0.00157876,-0.00268076,1.16879,0.00248652,0.0096201,1035,1723,7.30975,-33.5917
-182,-699,7.28882,33.906,-0.00155916,0.000301849,0.00143116,0.00107841,-0.00233572,1.07365,0.00201521,0.0127393,1042,1723,7.28882,-33.9061
-175,-699,7.27356,34.2399,-0.00111089,-7.50177e-05,0.00142632,0.000924498,-0.0021104,0.959558,0.00179624,0.0146364,1049,1723,7.27352,-34.2399
-168,-699,7.28284,34.5239,-0.00072065,-0.000335522,0.0014507,0.000935342,-0.00199151,0.851382,0.00172611,0.0154783,1056,1723,7.28281,-34.5239
-161,-699,7.26294,34.8134,-0.000593629,-0.00010061,0.00145218,0.00112583,-0.00182007,0.869473,0.00171649,0.0131509,1063,1723,7.2629,-34.8134
-154,-699,7.23889,35.1412,-0.000103175,-0.000403916,0.00146295,0.00121711,-0.0017242,0.734185,0.00170656,0.0129315,1070,1723,7.23886,-35.1412
-147,-699,7.21643,35.4163,0.000349204,-0.0001343,0.00127072,0.00140097,-0.00118606,0.691397,0.00149534,0.0140983,1077,1723,7.21643,-35.4163
-140,-699,7.19116,35.6704,0.000590775,0.000480152,0.001161,0.00169778,-0.000626849,0.761596,0.00138879,0.00988367,1084,1723,7.19118,-35.6705
-133,-699,7.19824,35.9563,0.000746174,0.00113602,0.00115337,0.00211082,-0.000228626,0.869108,0.00148928,0.00874705,1091,1723,7.19825,-35.9563
-126,-699,7.22229,36.2228,0.000799735,0.00183559,0.00115789,0.0025861,4.9216e-05,0.995702,0.0017079,0.0105885,1098,1723,7.22226,-36.2227
-119,-699,7.21741,36.4758,0.000812262,0.0021906,0.00113694,0.00283093,0.000171928,1.05787,0.00183267,0.0163672,1105,1723,7.2174,-36.4759
-112,-699,7.20276,36.7231,0.000830233,0.00250788,0.00115091,0.00309322,0.000244899,1.10031,0.00198555,0.0116343,1112,1723,7.20278,-36.7232
-105,-699,7.20313,36.9581,0.000821886,0.00260857,0.00112718,0.0031535,0.000276965,1.12049,0.00201636,0.0129285,1119,1723,7.20313,-36.9581
-98,-699,7.24512,37.1691,0.000833893,0.00260964,0.00112925,0.00315826,0.000285269,1.11855,0.00201715,0.015333,1126,1723,7.24513,-37.1691
-91,-699,7.25146,37.3676,0.00092273,0.00246486,0.00104364,0.00299138,0.00039621,1.10355,0.00187618,0.021653,1133,1723,7.25144,-37.3675
-84,-699,7.25476,37.594,0.00111196,0.00226006,0.000915688,0.00276676,0.00060526,1.06538,0.00167951,0.0258184,1140,1723,7.25476,-37.594
-77,-699,7.24829,37.8013,0.00144184,0.00218204,0.000551275,0.00247592,0.00114795,1.08102,0.00143073,0.0175576,1147,1723,7.24825,-37.8012
-70,-699,7.26611,37.9879,0.0017615,0.00180523,0.000122037,0.00190735,0.00165939,0.874037,0.0011975,0.017499,1154,1723,7.26609,-37.9879
-63,-699,7.29395,38.178,0.00189952,0.000196164,0.00260642,0.00378988,-0.0016942,0.627486,0.00324238,0.0143355,1161,1723,7.29391,-38.178
-56,-699,7.28088,38.3331,0.00252738,-0.000371853,0.00485174,0.00614143,-0.0039859,0.640228,0.005891,0.0109622,1168,1723,7.28084,-38.3331
-49,-699,7.29565,38.5559,0.0046378,0.00572586,0.00872598,0.0139247,-0.00356109,0.816531,0.0106702,0.0246692,1175,1723,7.29569,-38.5559
-42,-699,7.30188,38.7363,0.00673082,0.0100949,0.0132856,0.0218045,-0.00497873,0.848367,0.016449,0.0290568,1182,1723,7.30185,-38.7364
-35,-699,7.34485,38.8473,0.00821345,0.0145434,0.0152861,0.0269888,-0.00423189,0.887481,0.0195564,0.0264495,1189,1723,7.34484,-38.8473
-28,-699,7.42688,38.9669,0.0101622,0.0191383,0.016249,0.0315077,-0.00220717,0.920142,0.0217782,0.0211561,1196,1723,7.42686,-38.9669
-21,-699,7.43518,39.0458,0.012192,0.0237675,0.0168876,0.0358316,0.00012793,0.950487,0.0238452,0.0142443,1203,1723,7.43521,-39.0458
-14,-699,7.45886,39.1626,0.0141811,0.0288071,0.0171927,0.0401774,0.00281071,0.986484,0.0258989,0.012367,1210,1723,7.45884,-39.1626
-7,-699,7.50024,39.2849,0.0162727,0.0341144,0.0168344,0.0442456,0.00614159,1.02905,0.0276779,0.00903835,1217,1723,7.50029,-39.2849
0,-699,7.54187,39.3738,0.018417,0.0394116,0.0161042,0.0481377,0.00969088,1.07423,0.0293988,0.0106174,1224,1723,7.54183,-39.3738
7,-699,7.56653,39.4735,0.0208203,0.0443088,0.0148228,0.051476,0.0136531,1.12042,0.0307923,0.0160471,1231,1723,7.56648,-39.4735
14,-699,7.61926,39.5787,0.0230649,0.0484102,0.0127614,0.0537223,0.0177529,1.17635,0.0316054,0.0175488,1238,1723,7.61921,-39.5787
21,-699,7.68225,39.608,0.0250861,0.0510992,0.0103807,0.0547338,0.0214515,1.234,0.0318457,0.0158495,1245,1723,7.68222,-39.6081
28,-699,7.71704,39.6246,0.0264662,0.0519493,0.0086901,0.0546306,0.0237849,1.27151,0.0316287,0.0158144,1252,1723,7.71703,-39.6247
35,-699,7.75964,39.7039,0.0268038,0.0505397,0.00731637,0.0526136,0.0247299,1.29457,0.0303947,0.0146817,1259,1723,7.75963,-39.7039
42,-699,7.81812,39.7714,0.0266246,0.0488639,0.00598209,0.0503708,0.0251176,1.32401,0.0290817,0.0137008,1266,1723,7.81807,-39.7713
49,-699,7.8905,39.8154,0.0253003,0.046526,0.00509859,0.0476872,0.0241391,1.34687,0.0275329,0.0153746,1273,1723,7.89047,-39.8155
56,-699,7.96106,39.8378,0.023174,0.0427916,0.00382763,0.0435119,0.0224536,1.38477,0.0251259,0.0155013,1280,1723,7.96101,-39.8378
63,-699,7.97107,39.83,0.0209059,0.0382817,0.00302133,0.0387921,0.0203956,1.40346,0.0224065,0.0128675,1287,1723,7.97103,-39.8299
70,-699,7.99841,39.8271,0.0183933,0.0334466,0.00352305,0.0342303,0.0176096,1.3519,0.0197656,0.0109239,1294,1723,7.99838,-39.8271
77,-699,8.02283,39.8037,0.0157176,0.0288875,0.00421478,0.0301208,0.0144842,1.28612,0.0173945,0.0120124,1301,1723,8.02283,-39.8037
84,-699,8.02441,39.7561,0.0129456,0.0249546,0.00482711,0.0266543,0.0112458,1.23224,0.0154513,0.0143985,1308,1723,8.02446,-39.7561
91,-699,8.07239,39.7462,0.0117675,0.0222891,0.00522318,0.0244416,0.00961498,1.17989,0.0142179,0.0132038,1315,1723,8.07237,-39.7462
98,-699,8.1427,39.739,0.0119003,0.0205813,0.00539765,0.0231672,0.00931443,1.12403,0.0134609,0.0113566,1322,1723,8.14273,-39.739
105,-699,8.19238,39.7242,0.0126384,0.0197655,0.00547342,0.0227332,0.00967072,1.07396,0.0131736,0.0162109,1329,1723,8.19241,-39.7242
112,-699,8.21191,39.6697,0.0141182,0.0191886,0.00562638,0.0228246,0.0104822,0.997072,0.0131924,0.0219482,1336,1723,8.21192,-39.6697
119,-699,8.22705,39.5751,0.0165498,0.0188628,0.0059386,0.0237565,0.0116562,0.881563,0.0137166,0.0154235,1343,1723,8.22699,-39.575
126,-699,8.30347,39.4788,0.0194455,0.018753,0.00598791,0.0250972,0.0131013,0.756514,0.0144945,0.0167557,1350,1723,8.30348,-39.4787
133,-699,8.37939,39.3774,0.0227048,0.0190396,0.00529714,0.0264774,0.015267,0.618866,0.0153464,0.0154722,1357,1723,8.37941,-39.3774
140,-699,8.4104,39.2841,0.0258394,0.01948,0.00464693,0.0282903,0.017029,0.485359,0.0164462,0.0172333,1364,1723,8.41042,-39.284
147,-699,8.42261,39.2065,0.0281173,0.0191826,0.00417215,0.0297626,0.0175374,0.375622,0.0172744,0.015204,1371,1723,8.42256,-39.2066
154,-699,8.41003,39.0955,0.0297215,0.0173011,0.0038526,0.0308195,0.0162032,0.277631,0.0178015,0.0146032,1378,1723,8.41002,-39.0955
161,-699,8.45911,38.9604,0.0302667,0.0149447,0.00407996,0.0312854,0.013926,0.244678,0.0180989,0.0104809,1385,1723,8.45915,-38.9605
168,-699,8.49255,38.8553,0.0281338,0.0141277,0.00357063,0.0289915,0.0132699,0.235755,0.0167582,0.0117165,1392,1723,8.49258,-38.8553
175,-699,8.53101,38.7388,0.0250114,0.0128652,0.00295795,0.0256934,0.0121831,0.22662,0.0148407,0.0141812,1399,1723,8.53095,-38.7387
182,-699,8.552,38.545,0.0207303,0.0111147,0.00225691,0.0212337,0.0106113,0.219445,0.0122593,0.0154652,1406,1723,8.55206,-38.545
189,-699,8.54248,38.3821,0.0163958,0.00872942,0.00186531,0.0168256,0.00829967,0.226443,0.00971455,0.0177041,1413,1723,8.54246,-38.3821
196,-699,8.56531,38.224,0.00916476,0.00442603,0.00143792,0.00956695,0.00402384,0.272731,0.00554665,0.0164518,1420,1723,8.56535,-38.2241
203,-699,8.57483,38.0527,0.00315305,0.000568375,0.00127683,0.00367743,4.40009e-05,0.389682,0.00243708,0.013163,1427,1723,8.57486,-38.0528
210,-699,8.58496,37.8624,0.00253335,0.000241172,0.00107522,0.00295876,-0.000184238,0.376751,0.0020367,0.0131827,1434,1723,8.585,-37.8624
217,-699,8.61328,37.6796,0.00192811,-0.000120918,0.000602575,0.00209217,-0.000284986,0.265833,0.00149884,0.0142344,1441,1723,8.61323,-37.6796
224,-699,8.64136,37.4764,0.00170086,-9.31989e-05,0.000375395,0.00177624,-0.00016858,0.19817,0.00124417,0.0160216,1448,1723,8.64135,-37.4765
231,-699,8.65674,37.2671,0.00159205,-8.9455e-06,3.65003e-05,0.00159289,-9.7772e-06,0.0227827,0.0010652,0.0119562,1455,1723,8.65668,-37.2671
238,-699,8.63672,37.0127,0.00157426,0.000252189,-0.000163377,0.00159415,0.000232299,-0.121149,0.000994422,0.0100009,1462,1723,8.6367,-37.0127
245,-699,8.6344,36.7767,0.00153932,0.000458558,-0.000335615,0.00163506,0.000362819,-0.277885,0.000991479,0.0118186,1469,1723,8.63436,-36.7767
252,-699,8.62805,36.5585,0.00145818,0.00067417,-0.000528856,0.00172447,0.000407876,-0.466466,0.00104068,0.0104515,1476,1723,8.6281,-36.5584
259,-699,8.61865,36.3245,0.00140233,0.000853629,-0.000694499,0.0018747,0.000381255,-0.59729,0.00114409,0.0104246,1483,1723,8.61864,-36.3245
266,-699,8.63098,36.0824,0.00140833,0.00122521,-0.000921537,0.00224285,0.000390699,-0.735882,0.00138351,0.0122538,1490,1723,8.63102,-36.0824
273,-699,8.64417,35.8259,0.00134368,0.00168985,-0.00113834,0.00266819,0.000365348,-0.860846,0.00167038,0.0115674,1497,1723,8.64417,-35.8259
280,-699,8.64014,35.5325,0.00124982,0.00217069,-0.0014338,0.00321617,0.000204339,-0.940762,0.00207935,0.0118708,1504,1723,8.64014,-35.5324
287,-699,8.62183,35.2592,0.00121981,0.00291463,-0.00175135,0.00401281,0.000121631,-1.01073,0.0026356,0.0100251,1511,1723,8.6218,-35.2591
294,-699,8.61743,35.0017,0.00128184,0.00390166,-0.00213023,0.0050925,9.10007e-05,-1.06106,0.00336508,0.0101035,1518,1723,8.61743,-35.0017
301,-699,8.61523,34.7496,0.00132869,0.00474508,-0.00251448,0.00607671,-2.93972e-06,-1.08376,0.00405212,0.0122517,1525,1723,8.61527,-34.7496
308,-699,8.60547,34.4844,0.00125311,0.00539828,-0.00297661,0.00695279,-0.000301405,-1.08951,0.00473886,0.0171208,1532,1723,8.60553,-34.4843
315,-699,8.60291,34.1603,0.0011435,0.00588886,-0.0033373,0.00761095,-0.000578587,-1.09442,0.00527741,0.020244,1539,1723,8.60291,-34.1602
322,-699,8.55408,33.8351,0.00121142,0.0063236,-0.00369364,0.00825935,-0.000724321,-1.08807,0.00576287,0.0207244,1546,1723,8.55404,-33.8351
329,-699,8.51086,33.5276,0.00125461,0.00610687,-0.00398026,0.00834213,-0.000980648,-1.0591,0.00591546,0.0175538,1553,1723,8.51083,-33.5276
336,-699,8.48804,33.2386,0.00136698,0.00561517,-0.00419917,0.0081969,-0.00121475,-1.01955,0.00591127,0.0205568,1560,1723,8.48798,-33.2387
343,-699,8.56604,32.9402,0.0015332,0.00460379,-0.00429177,0.00762661,-0.00148963,-0.957171,0.00564683,0.0278945,1567,1723,8.56604,-32.9402
350,-699,8.59436,32.5958,0.00168389,0.00282207,-0.00421462,0.00650585,-0.00199989,-0.852506,0.00513535,0.0392181,1574,1723,8.59435,-32.5959
357,-699,8.59729,32.3081,0.00204621,-0.000257543,-0.00394663,0.00500562,-0.00321695,-0.64341,0.0047846,0.0452524,1581,1723,8.59731,-32.3081
364,-699,8.42651,31.9406,0.00231133,-0.00373463,-0.00347453,0.00389387,-0.00531717,-0.427392,0.00533911,0.0468578,1588,1723,8.42656,-31.9406
371,-699,8.63696,31.7792,0,0,0,0,0,0,0,-1,1595,1723,8.63694,-31.7792
378,-699,8.82886,31.7972,0,0,0,0,0,0,0,-1,1602,1723,8.82891,-31.7973
385,-699,6.32727,24.7136,0,0,0,0,0,0,0,-1,1609,1723,6.32725,-24.7136
392,-699,8.41809,30.5724,0,0,0,0,0,0,0,-1,1616,1723,8.41813,-30.5724
399,-699,9.27136,30.5154,0,0,0,0,0,0,0,-1,1623,1723,9.27135,-30.5154
406,-699,5.50757,21.6672,0,0,0,0,0,0,0,-1,1630,1723,5.50755,-21.6672
413,-699,9.31396,23.2781,0,0,0,0,0,0,0,-1,1637,1723,9.31396,-23.278
420,-699,2.15076,7.65527,0,0,0,0,0,0,0,-1,1644,1723,2.15079,-7.65522
427,-699,3.36328,8.2428,0,0,0,0,0,0,0,-1,1651,1723,3.36332,-8.24283
434,-699,4.66455,8.90222,0,0,0,0,0,0,0,-1,1658,1723,4.66456,-8.90223
441,-699,0,0,0,0,0,0,0,0,0,-1,1665,1723,0,0
448,-699,0,0,0,0,0,0,0,0,0,-1,1672,1723,0,0
455,-699,0,0,0,0,0,0,0,0,0,-1,1679,1723,0,0
462,-699,0,0,0,0,0,0,0,0,0,-1,1686,1723,0,0
469,-699,0,0,0,0,0,0,0,0,0,-1,1693,1723,0,0
476,-699,0,0,0,0,0,0,0,0,0,-1,1700,1723,0,0
483,-699,0,0,0,0,0,0,0,0,0,-1,1707,1723,0,0
490,-699,0,0,0,0,0,0,0,0,0,-1,1714,1723,0,0
497,-699,0,0,0,0,0,0,0,0,0,-1,1721,1723,0,0
504,-699,0,0,0,0,0,0,0,0,0,-1,1728,1723,0,0
511,-699,0,0,0,0,0,0,0,0,0,-1,1735,1723,0,0
518,-699,0,0,0,0,0,0,0,0,0,-1,1742,1723,0,0
525,-699,0,0,0,0,0,0,0,0,0,-1,1749,1723,0,0
532,-699,0,0,0,0,0,0,0,0,0,-1,1756,1723,0,0
539,-699,0,0,0,0,0,0,0,0,0,-1,1763,1723,0,0
546,-699,0,0,0,0,0,0,0,0,0,-1,1770,1723,0,0
553,-699,0,0,0,0,0,0,0,0,0,-1,1777,1723,0,0
560,-699,0,0,0,0,0,0,0,0,0,-1,1784,1723,0,0
567,-699,0,0,0,0,0,0,0,0,0,-1,1791,1723,0,0
574,-699,0,0,0,0,0,0,0,0,0,-1,1798,1723,0,0
581,-699,0,0,0,0,0,0,0,0,0,-1,1805,1723,0,0
588,-699,0,0,0,0,0,0,0,0,0,-1,1812,1723,0,0
595,-699,0,0,0,0,0,0,0,0,0,-1,1819,1723,0,0
602,-699,0,0,0,0,0,0,0,0,0,-1,1826,1723,0,0
609,-699,0,0,0,0,0,0,0,0,0,-1,1833,1723,0,0
616,-699,0,0,0,0,0,0,0,0,0,-1,1840,1723,0,0
623,-699,0,0,0,0,0,0,0,0,0,-1,1847,1723,0,0
630,-699,0,0,0,0,0,0,0,0,0,-1,1854,1723,0,0
637,-699,0,0,0,0,0,0,0,0,0,-1,1861,1723,0,0
644,-699,0,0,0,0,0,0,0,0,0,-1,1868,1723,0,0
651,-699,0,0,0,0,0,0,0,0,0,-1,1875,1723,0,0
658,-699,0,0,0,0,0,0,0,0,0,-1,1882,1723,0,0
665,-699,0,0,0,0,0,0,0,0,0,-1,1889,1723,0,0
672,-699,0,0,0,0,0,0,0,0,0,-1,1896,1723,0,0
679,-699,0,0,0,0,0,0,0,0,0,-1,1903,1723,0,0
686,-699,0,0,0,0,0,0,0,0,0,-1,1910,1723,0,0
693,-699,0,0,0,0,0,0,0,0,0,-1,1917,1723,0,0
700,-699,0,0,0,0,0,0,0,0,0,-1,1924,1723,0,0
707,-699,0,0,0,0,0,0,0,0,0,-1,1931,1723,0,0
714,-699,0,0,0,0,0,0,0,0,0,-1,1938,1723,0,0
721,-699,0,0,0,0,0,0,0,0,0,-1,1945,1723,0,0
728,-699,0,0,0,0,0,0,0,0,0,-1,1952,1723,0,0
735,-699,0,0,0,0,0,0,0,0,0,-1,1959,1723,0,0
742,-699,0,0,0,0,0,0,0,0,0,-1,1966,1723,0,0
749,-699,0,0,0,0,0,0,0,0,0,-1,1973,1723,0,0
756,-699,0,0,0,0,0,0,0,0,0,-1,1980,1723,0,0
763,-699,0,0,0,0,0,0,0,0,0,-1,1987,1723,0,0
770,-699,0,0,0,0,0,0,0,0,0,-1,1994,1723,0,0
777,-699,0,0,0,0,0,0,0,0,0,-1,2001,1723,0,0
784,-699,0,0,0,0,0,0,0,0,0,-1,2008,1723,0,0
791,-699,0,0,0,0,0,0,0,0,0,-1,2015,1723,0,0
798,-699,0,0,0,0,0,0,0,0,0,-1,2022,1723,0,0
805,-699,0,0,0,0,0,0,0,0,0,-1,2029,1723,0,0
812,-699,0,0,0,0,0,0,0,0,0,-1,2036,1723,0,0
-700,-706,0,0,0,0,0,0,0,0,0,-1,524,1730,0,0
-693,-706,0,0,0,0,0,0,0,0,0,-1,531,1730,0,0
-686,-706,0,0,0,0,0,0,0,0,0,-1,538,1730,0,0
-679,-706,0,0,0,0,0,0,0,0,0,-1,545,1730,0,0
-672,-706,0,0,0,0,0,0,0,0,0,-1,552,1730,0,0
-665,-706,0,0,0,0,0,0,0,0,0,-1,559,1730,0,0
-658,-706,0,0,0,0,0,0,0,0,0,-1,566,1730,0,0
-651,-706,0,0,0,0,0,0,0,0,0,-1,573,1730,0,0
-644,-706,0,0,0,0,0,0,0,0,0,-1,580,1730,0,0
-637,-706,0,0,0,0,0,0,0,0,0,-1,587,1730,0,0
-630,-706,0,0,0,0,0,0,0,0,0,-1,594,1730,0,0
-623,-706,0,0,0,0,0,0,0,0,0,-1,601,1730,0,0
-616,-706,0,0,0,0,0,0,0,0,0,-1,608,1730,0,0
-609,-706,0,0,0,0,0,0,0,0,0,-1,615,1730,0,0
-602,-706,0,0,0,0,0,0,0,0,0,-1,622,1730,0,0
-595,-706,0,0,0,0,0,0,0,0,0,-1,629,1730,0,0
-588,-706,0,0,0,0,0,0,0,0,0,-1,636,1730,0,0
-581,-706,0,0,0,0,0,0,0,0,0,-1,643,1730,0,0
-574,-706,0,0,0,0,0,0,0,0,0,-1,650,1730,0,0
-567,-706,0,0,0,0,0,0,0,0,0,-1,657,1730,0,0
-560,-706,0,0,0,0,0,0,0,0,0,-1,664,1730,0,0
-553,-706,0,0,0,0,0,0,0,0,0,-1,671,1730,0,0
-546,-706,0,0,0,0,0,0,0,0,0,-1,678,1730,0,0
-539,-706,0,0,0,0,0,0,0,0,0,-1,685,1730,0,0
-532,-706,0,0,0,0,0,0,0,0,0,-1,692,1730,0,0
-525,-706,0,0,0,0,0,0,0,0,0,-1,699,1730,0,0
-518,-706,0,0,0,0,0,0,0,0,0,-1,706,1730,0,0
-511,-706,0,0,0,0,0,0,0,0,0,-1,713,1730,0,0
-504,-706,0,0,0,0,0,0,0,0,0,-1,720,1730,0,0
-497,-706,0,0,0,0,0,0,0,0,0,-1,727,1730,0,0
-490,-706,0,0,0,0,0,0,0,0,0,-1,734,1730,0,0
-483,-706,0,0,0,0,0,0,0,0,0,-1,741,1730,0,0
-476,-706,0,0,0,0,0,0,0,0,0,-1,748,1730,0,0
-469,-706,0,0,0,0,0,0,0,0,0,-1,755,1730,0,0
-462,-706,0,0,0,0,0,0,0,0,0,-1,762,1730,0,0
-455,-706,0,0,0,0,0,0,0,0,0,-1,769,1730,0,0
-448,-706,0,0,0,0,0,0,0,0,0,-1,776,1730,0,0
-441,-706,0,0,0,0,0,0,0,0,0,-1,783,1730,0,0
-434,-706,0,0,0,0,0,0,0,0,0,-1,790,1730,0,0
-427,-706,0,0,0,0,0,0,0,0,0,-1,797,1730,0,0
-420,-706,0,0,0,0,0,0,0,0,0,-1,804,1730,0,0
-413,-706,0,0,0,0,0,0,0,0,0,-1,811,1730,0,0
-406,-706,0,0,0,0,0,0,0,0,0,-1,818,1730,0,0
-399,-706,0,0,0,0,0,0,0,0,0,-1,825,1730,0,0
-392,-706,0,0,0,0,0,0,0,0,0,-1,832,1730,0,0
-385,-706,0,0,0,0,0,0,0,0,0,-1,839,1730,0,0
-378,-706,0,0,0,0,0,0,0,0,0,-1,846,1730,0,0
-371,-706,0,0,0,0,0,0,0,0,0,-1,853,1730,0,0
-364,-706,0,0,0,0,0,0,0,0,0,-1,860,1730,0,0
-357,-706,0,0,0,0,0,0,0,0,0,-1,867,1730,0,0
-350,-706,0,0,0,0,0,0,0,0,0,-1,874,1730,0,0
-343,-706,0,0,0,0,0,0,0,0,0,-1,881,1730,0,0
-336,-706,0,0,0,0,0,0,0,0,0,-1,888,1730,0,0
-329,-706,0,0,0,0,0,0,0,0,0,-1,895,1730,0,0
-322,-706,0,0,0,0,0,0,0,0,0,-1,902,1730,0,0
-315,-706,0,0,0,0,0,0,0,0,0,-1,909,1730,0,0
-308,-706,5.08191,14.6245,0,0,0,0,0,0,0,-1,916,1730,5.08188,-14.6245
-301,-706,7.45007,21.1975,0,0,0,0,0,0,0,-1,923,1730,7.45005,-21.1976
-294,-706,11.8603,21.026,0,0,0,0,0,0,0,-1,930,1730,11.8603,-21.026
-287,-706,10.3292,20.8425,0,0,0,0,0,0,0,-1,937,1730,10.3292,-20.8425
-280,-706,7.9162,21.8951,0,0,0,0,0,0,0,-1,944,1730,7.9162,-21.8952
-273,-706,7.38953,20.6355,0,0,0,0,0,0,0,-1,951,1730,7.38955,-20.6355
-266,-706,9.66724,22.8231,0,0,0,0,0,0,0,-1,958,1730,9.66722,-22.8231
-259,-706,3.47852,20.7363,0,0,0,0,0,0,0,-1,965,1730,3.47851,-20.7364
-252,-706,3.84259,20.1979,0,0,0,0,0,0,0,-1,972,1730,3.84256,-20.1979
-245,-706,4.698,19.2992,0,0,0,0,0,0,0,-1,979,1730,4.69799,-19.2991
-238,-706,7.70691,32.0442,0,0,0,0,0,0,0,-1,986,1730,7.70689,-32.0442
-231,-706,7.68713,31.7194,0,0,0,0,0,0,0,-1,993,1730,7.68715,-31.7193
-224,-706,7.04553,32.6152,0,0,0,0,0,0,0,-1,1000,1730,7.0455,-32.6152
-217,-706,7.58142,32.5288,-0.00311816,0.00812519,0.00234588,0.00859501,-0.00358798,1.37313,0.00722916,0.0458135,1007,1730,7.58144,-32.5289
-210,-706,7.96924,32.5065,-0.00313848,0.00644121,0.00242681,0.00702091,-0.00371819,1.33632,0.0062972,0.0369083,1014,1730,7.96923,-32.5065
-203,-706,7.75732,32.8425,-0.00324998,0.00472577,0.00251484,0.00545251,-0.00397671,1.28948,0.00546614,0.0296224,1021,1730,7.75731,-32.8425
-196,-706,7.68982,33.23,-0.00315147,0.00275836,0.00251337,0.00368269,-0.0040758,1.21838,0.00448128,0.0226319,1028,1730,7.68977,-33.23
-189,-706,7.59937,33.5923,-0.00261494,0.0010409,0.00219196,0.0020671,-0.00364113,1.13294,0.00333715,0.0182581,1035,1730,7.59939,-33.5923
-182,-706,7.57544,33.9269,-0.00205817,0.000110924,0.00206641,0.0013601,-0.00330735,1.02706,0.00277182,0.0153877,1042,1730,7.5754,-33.9269
-175,-706,7.5885,34.2393,-0.00160008,-0.000468906,0.00204555,0.0010878,-0.00315679,0.920277,0.00254581,0.0160752,1049,1730,7.5885,-34.2393
-168,-706,7.58679,34.5342,-0.00118503,-0.000910785,0.00203249,0.000989206,-0.00308502,0.81908,0.00245381,0.0159545,1056,1730,7.58682,-34.5342
-161,-706,7.54626,34.8369,-0.00111991,-0.000764251,0.00200632,0.0010721,-0.00295626,0.829601,0.00240908,0.0131402,1063,1730,7.54625,-34.8369
-154,-706,7.52283,35.1484,-0.000554657,-0.00131255,0.00194777,0.00105069,-0.0029179,0.689321,0.00237429,0.0126839,1070,1730,7.52284,-35.1485
-147,-706,7.49133,35.4136,-2.4052e-05,-0.00111248,0.00161911,0.00113986,-0.00227639,0.62327,0.00200843,0.0117325,1077,1730,7.49139,-35.4135
-140,-706,7.47437,35.6992,0.000211456,-0.000395701,0.00140899,0.0013492,-0.00153345,0.679291,0.00166543,0.0104952,1084,1730,7.47431,-35.6992
-133,-706,7.47937,35.9592,0.000357888,0.000364378,0.00131687,0.00167801,-0.000955744,0.78663,0.00153954,0.00829099,1091,1730,7.47939,-35.9592
-126,-706,7.48584,36.2155,0.000393181,0.00124024,0.00124565,0.00213239,-0.00049897,0.949271,0.00161384,0.0128832,1098,1730,7.48585,-36.2155
-119,-706,7.4696,36.4565,0.000379815,0.00162859,0.00112643,0.00229211,-0.000283705,1.03847,0.00163089,0.0175237,1105,1730,7.46957,-36.4566
-112,-706,7.45593,36.7355,0.000405274,0.00202804,0.00107702,0.0025651,-0.000131792,1.10822,0.00175565,0.0124651,1112,1730,7.45588,-36.7355
-105,-706,7.44055,36.9661,0.000411594,0.00222961,0.000960781,0.00264325,-2.04577e-06,1.16426,0.00176285,0.00979456,1119,1730,7.4405,-36.9661
-98,-706,7.45447,37.1707,0.000469209,0.00230326,0.000918228,0.00268396,8.85152e-05,1.17777,0.00176054,0.0115676,1126,1730,7.45452,-37.1707
-91,-706,7.45203,37.3943,0.000580935,0.00228626,0.000841197,0.00263136,0.000235831,1.18148,0.00168115,0.0148052,1133,1730,7.45205,-37.3943
-84,-706,7.43469,37.6132,0.000711376,0.00214508,0.000741938,0.0024599,0.000396555,1.1695,0.00152503,0.0177819,1140,1730,7.43465,-37.6131
-77,-706,7.43787,37.8191,0.000979111,0.00207146,0.000525783,0.00228341,0.00076716,1.18761,0.00134177,0.0172839,1147,1730,7.43784,-37.8191
-70,-706,7.43494,38.0117,0.00124913,0.00179156,0.000239499,0.00188217,0.00115852,1.20911,0.0010963,0.0185889,1154,1730,7.43496,-38.0117
-63,-706,7.44788,38.1823,0.00144055,0.000890846,0.000236541,0.00152832,0.000803075,0.35531,0.00088276,0.0132274,1161,1730,7.44785,-38.1823
-56,-706,7.4707,38.3463,0.00178676,8.64146e-05,0.000439608,0.00189369,-2.05173e-05,0.23861,0.00126935,0.013147,1168,1730,7.47076,-38.3463
-49,-706,7.46777,38.5201,0.00274588,0.00261657,0.00206711,0.00474934,0.000613104,0.769764,0.00298294,0.0137158,1175,1730,7.46774,-38.5201
-42,-706,7.48389,38.7024,0.00376787,0.0046504,0.00439863,0.00862985,-0.000211572,0.83539,0.00582504,0.01867,1182,1730,7.48393,-38.7024
-35,-706,7.48816,38.8221,0.00473937,0.00748648,0.00551503,0.0117964,0.000429417,0.907443,0.00772513,0.0177063,1189,1730,7.48822,-38.8222
-28,-706,7.52832,38.9458,0.0058572,0.0106826,0.00634932,0.0150622,0.00147763,0.966969,0.00958694,0.0103035,1196,1730,7.5283,-38.9458
-21,-706,7.55823,39.0698,0.00713222,0.0141707,0.00713218,0.0186046,0.00269828,1.01459,0.0116087,0.00981261,1203,1730,7.55823,-39.0698
-14,-706,7.58362,39.175,0.0084744,0.018045,0.00786158,0.0224632,0.00405626,1.05879,0.0138232,0.0101691,1210,1730,7.58362,-39.175
-7,-706,7.61694,39.2832,0.00990774,0.0221932,0.00824579,0.0263328,0.00576813,1.10553,0.0159833,0.0092791,1217,1730,7.61697,-39.2832
0,-706,7.6438,39.3802,0.0113263,0.0263627,0.00841976,0.0301324,0.00755665,1.14984,0.018103,0.0126805,1224,1730,7.64385,-39.3802
7,-706,7.66772,39.4802,0.0130394,0.0302823,0.00817839,0.0335443,0.00977746,1.19128,0.0199203,0.0142795,1231,1730,7.66768,-39.4802
14,-706,7.68884,39.5844,0.0146858,0.0337187,0.00723847,0.0361588,0.0122457,1.24566,0.0212355,0.0145759,1238,1730,7.68884,-39.5844
21,-706,7.73145,39.62,0.0162567,0.0361541,0.00591557,0.03778,0.0146308,1.30257,0.0219963,0.0114177,1245,1730,7.73147,-39.62
28,-706,7.75098,39.6626,0.0173944,0.0372052,0.00495102,0.0383737,0.016226,1.33904,0.0222428,0.0115365,1252,1730,7.75094,-39.6626
35,-706,7.78455,39.7388,0.0178146,0.036538,0.00405762,0.0373795,0.0169731,1.3663,0.0216114,0.014356,1259,1730,7.78451,-39.7388
42,-706,7.83704,39.7849,0.01779,0.0354593,0.00330524,0.0360574,0.0171919,1.3918,0.0208252,0.0130974,1266,1730,7.83701,-39.7849
49,-706,7.88538,39.7994,0.0169391,0.0339368,0.00266219,0.034344,0.0165319,1.41902,0.0198331,0.0143992,1273,1730,7.88533,-39.7994
56,-706,7.93958,39.819,0.0154998,0.0312822,0.00157969,0.0314388,0.0153432,1.47201,0.0181529,0.0131625,1280,1730,7.93956,-39.819
63,-706,7.94812,39.8276,0.0139574,0.0279221,0.000830528,0.0279714,0.0139082,1.5116,0.0161494,0.0106407,1287,1730,7.94809,-39.8277
70,-706,7.96094,39.8315,0.0121568,0.0242171,0.00105519,0.0243088,0.0120652,1.48418,0.0140348,0.010941,1294,1730,7.96094,-39.8316
77,-706,7.98364,39.8279,0.0102455,0.0206081,0.00141566,0.020798,0.0100556,1.43744,0.0120099,0.0111307,1301,1730,7.98365,-39.8279
84,-706,8.00012,39.8011,0.008226,0.0174724,0.00177415,0.0178012,0.00789727,1.38759,0.0102992,0.00924367,1308,1730,8.00012,-39.8011
91,-706,8.04016,39.7916,0.00729234,0.0152765,0.00202513,0.0157608,0.00680805,1.33607,0.00912752,0.0102634,1315,1730,8.04016,-39.7917
98,-706,8.07776,39.7635,0.00722963,0.0136792,0.00216647,0.0143393,0.00656946,1.27501,0.00828848,0.0142724,1322,1730,8.07775,-39.7635
105,-706,8.12244,39.7263,0.00758697,0.0127285,0.00223681,0.0135654,0.00675008,1.21277,0.00783202,0.0173605,1329,1730,8.12244,-39.7263
112,-706,8.13489,39.6682,0.00829892,0.0118274,0.00235274,0.0130039,0.00712244,1.10711,0.00751921,0.0162282,1336,1730,8.1349,-39.6682
119,-706,8.16626,39.6052,0.00964144,0.0110521,0.00264752,0.0130866,0.00760691,0.915581,0.00758877,0.0126,1343,1730,8.16628,-39.6053
126,-706,8.20178,39.5192,0.0112744,0.0104648,0.00275277,0.013652,0.00808723,0.712391,0.00792669,0.0134032,1350,1730,8.20182,-39.5192
133,-706,8.2406,39.3936,0.0131803,0.0103285,0.00230581,0.0144655,0.0090433,0.508476,0.00843842,0.0116344,1357,1730,8.24063,-39.3936
140,-706,8.28967,39.2885,0.0149801,0.0103671,0.00193866,0.0156867,0.00966055,0.349479,0.00913737,0.0118413,1364,1730,8.28965,-39.2885
147,-706,8.33215,39.1981,0.0161903,0.00996951,0.00171559,0.016632,0.00952775,0.252024,0.00963643,0.0211953,1371,1730,8.33218,-39.1982
154,-706,8.3429,39.1069,0.0168971,0.00862327,0.00166253,0.0172187,0.00830171,0.191061,0.00994334,0.0202198,1378,1730,8.34286,-39.1069
161,-706,8.3186,38.9735,0.0167845,0.00722844,0.00197207,0.0171755,0.00683747,0.195719,0.00998467,0.0105574,1385,1730,8.31857,-38.9735
168,-706,8.33386,38.8392,0.01511,0.00703654,0.00186792,0.0155212,0.00662531,0.216696,0.00899307,0.0105065,1392,1730,8.33387,-38.8393
175,-706,8.36572,38.7173,0.0130711,0.00655924,0.00166022,0.0134699,0.00616039,0.235771,0.00778629,0.0105469,1399,1730,8.36575,-38.7173
182,-706,8.37732,38.5472,0.010614,0.0058946,0.00134909,0.0109724,0.00553617,0.259685,0.00633501,0.0117298,1406,1730,8.37728,-38.5473
189,-706,8.38232,38.3677,0.00825755,0.004711,0.00105207,0.00854615,0.0044224,0.267736,0.00493513,0.0151632,1413,1730,8.38227,-38.3676
196,-706,8.39697,38.1979,0.00467053,0.00265552,0.000749935,0.004919,0.00240705,0.319937,0.0028402,0.0122927,1420,1730,8.39699,-38.1979
203,-706,8.39172,38.0345,0.00187383,0.000927964,0.000567376,0.00213953,0.000662262,0.437967,0.00126478,0.0127722,1427,1730,8.3917,-38.0345
210,-706,8.38684,37.8593,0.00147011,0.000830088,0.000356527,0.00162918,0.000671017,0.419661,0.000945465,0.0127574,1434,1730,8.38684,-37.8593
217,-706,8.38452,37.6879,0.00107009,0.000673545,-2.34157e-05,0.00107147,0.000672167,-0.0587766,0.000625265,0.0143804,1441,1730,8.38451,-37.6879
224,-706,8.39636,37.4932,0.000898699,0.000724361,-0.000251917,0.0010781,0.000544958,-0.618835,0.000622455,0.0197163,1448,1730,8.39635,-37.4932
231,-706,8.41638,37.2616,0.00070418,0.000763013,-0.000507646,0.00124209,0.000225099,-0.814339,0.000764162,0.0135946,1455,1730,8.41637,-37.2616
238,-706,8.41492,37.0186,0.000604676,0.000813823,-0.000676003,0.00139329,2.52065e-05,-0.862137,0.000920575,0.00862486,1462,1730,8.41491,-37.0186
245,-706,8.40894,36.7813,0.00058196,0.000835212,-0.00083009,0.00154828,-0.000131107,-0.861087,0.00107855,0.0111428,1469,1730,8.40898,-36.7813
252,-706,8.40076,36.5615,0.000509871,0.00100897,-0.00100298,0.00179298,-0.00027414,-0.907326,0.0012964,0.011,1476,1730,8.40071,-36.5615
259,-706,8.40088,36.326,0.000495944,0.00115925,-0.00115636,0.00203057,-0.00037538,-0.925053,0.00149464,0.0126651,1483,1730,8.40093,-36.326
266,-706,8.38843,36.0885,0.000646274,0.00172099,-0.00145419,0.00273393,-0.000366665,-0.962379,0.00195633,0.0128231,1490,1730,8.38844,-36.0885
273,-706,8.37708,35.8267,0.000688916,0.00233998,-0.00171053,0.00341377,-0.000384868,-1.01022,0.00241438,0.0119752,1497,1730,8.37712,-35.8267
280,-706,8.36865,35.5515,0.000734278,0.00303899,-0.00207542,0.00426051,-0.000487242,-1.03883,0.0030159,0.0101096,1504,1730,8.36861,-35.5516
287,-706,8.35059,35.2864,0.000898624,0.00417368,-0.00250834,0.00553169,-0.000459388,-1.07458,0.00385007,0.0102866,1511,1730,8.35055,-35.2864
294,-706,8.3584,35.0381,0.00118187,0.00563757,-0.0030032,0.00714904,-0.000329605,-1.10452,0.00487961,0.00992409,1518,1730,8.35836,-35.0381
301,-706,8.35681,34.7494,0.00144466,0.00695281,-0.00348444,0.00864016,-0.000242689,-1.11983,0.00584268,0.00935441,1525,1730,8.35682,-34.7494
308,-706,8.3418,34.4492,0.00156869,0.00810498,-0.0040815,0.0100655,-0.000391875,-1.12299,0.00684473,0.0113685,1532,1730,8.34178,-34.4492
315,-706,8.30396,34.1687,0.001629,0.00905882,-0.00458101,0.0112419,-0.000554072,-1.12609,0.00768595,0.0202547,1539,1730,8.30397,-34.1687
322,-706,8.25195,33.9307,0.00190479,0.00997378,-0.0050878,0.0124326,-0.000554011,-1.12062,0.00847909,0.0302152,1546,1730,8.25196,-33.9307
329,-706,8.30286,33.5093,0.00210245,0.0100279,-0.00547913,0.0128272,-0.000696772,-1.09848,0.0087929,0.0308334,1553,1730,8.30281,-33.5093
336,-706,8.19666,32.9988,0.00231008,0.00964232,-0.00582404,0.012858,-0.000905652,-1.06631,0.0088893,0.0444623,1560,1730,8.19661,-32.9988
343,-706,8.28918,32.7064,0.00252554,0.00843982,-0.00600959,0.0121804,-0.00121507,-1.01404,0.00855412,0.0422143,1567,1730,8.28919,-32.7064
350,-706,8.35437,32.5372,0.00269373,0.00630702,-0.00590838,0.0106788,-0.00167805,-0.933772,0.00773943,0.0463186,1574,1730,8.35433,-32.5373
357,-706,8.448,32.564,0,0,0,0,0,0,0,-1,1581,1730,8.44804,-32.5639
364,-706,8.07617,32.1149,0,0,0,0,0,0,0,-1,1588,1730,8.07614,-32.1149
371,-706,6.27881,24.0759,0,0,0,0,0,0,0,-1,1595,1730,6.27883,-24.0759
378,-706,4.80444,25.0989,0,0,0,0,0,0,0,-1,1602,1730,4.80445,-25.0989
385,-706,5.55212,24.9753,0,0,0,0,0,0,0,-1,1609,1730,5.55214,-24.9753
392,-706,6.2998,24.8518,0,0,0,0,0,0,0,-1,1616,1730,6.29983,-24.8518
399,-706,3.9502,25.5428,0,0,0,0,0,0,0,-1,1623,1730,3.95019,-25.5428
406,-706,6.04211,18.8085,0,0,0,0,0,0,0,-1,1630,1730,6.04216,-18.8085
413,-706,6.23413,20.7725,0,0,0,0,0,0,0,-1,1637,1730,6.23413,-20.7725
420,-706,6.51294,21.9171,0,0,0,0,0,0,0,-1,1644,1730,6.51292,-21.9171
427,-706,0,0,0,0,0,0,0,0,0,-1,1651,1730,0,0
434,-706,0,0,0,0,0,0,0,0,0,-1,1658,1730,0,0
441,-706,0,0,0,0,0,0,0,0,0,-1,1665,1730,0,0
448,-706,0,0,0,0,0,0,0,0,0,-1,1672,1730,0,0
455,-706,0,0,0,0,0,0,0,0,0,-1,1679,1730,0,0
462,-706,0,0,0,0,0,0,0,0,0,-1,1686,1730,0,0
469,-706,0,0,0,0,0,0,0,0,0,-1,1693,1730,0,0
476,-706,0,0,0,0,0,0,0,0,0,-1,1700,1730,0,0
483,-706,0,0,0,0,0,0,0,0,0,-1,1707,1730,0,0
490,-706,0,0,0,0,0,0,0,0,0,-1,1714,1730,0,0
497,-706,0,0,0,0,0,0,0,0,0,-1,1721,1730,0,0
504,-706,0,0,0,0,0,0,0,0,0,-1,1728,1730,0,0
511,-706,0,0,0,0,0,0,0,0,0,-1,1735,1730,0,0
518,-706,0,0,0,0,0,0,0,0,0,-1,1742,1730,0,0
525,-706,0,0,0,0,0,0,0,0,0,-1,1749,1730,0,0
532,-706,0,0,0,0,0,0,0,0,0,-1,1756,1730,0,0
539,-706,0,0,0,0,0,0,0,0,0,-1,1763,1730,0,0
546,-706,0,0,0,0,0,0,0,0,0,-1,1770,1730,0,0
553,-706,0,0,0,0,0,0,0,0,0,-1,1777,1730,0,0
560,-706,0,0,0,0,0,0,0,0,0,-1,1784,1730,0,0
567,-706,0,0,0,0,0,0,0,0,0,-1,1791,1730,0,0
574,-706,0,0,0,0,0,0,0,0,0,-1,1798,1730,0,0
581,-706,0,0,0,0,0,0,0,0,0,-1,1805,1730,0,0
588,-706,0,0,0,0,0,0,0,0,0,-1,1812,1730,0,0
595,-706,0,0,0,0,0,0,0,0,0,-1,1819,1730,0,0
602,-706,0,0,0,0,0,0,0,0,0,-1,1826,1730,0,0
609,-706,0,0,0,0,0,0,0,0,0,-1,1833,1730,0,0
616,-706,0,0,0,0,0,0,0,0,0,-1,1840,1730,0,0
623,-706,0,0,0,0,0,0,0,0,0,-1,1847,1730,0,0
630,-706,0,0,0,0,0,0,0,0,0,-1,1854,1730,0,0
637,-706,0,0,0,0,0,0,0,0,0,-1,1861,1730,0,0
644,-706,0,0,0,0,0,0,0,0,0,-1,1868,1730,0,0
651,-706,0,0,0,0,0,0,0,0,0,-1,1875,1730,0,0
658,-706,0,0,0,0,0,0,0,0,0,-1,1882,1730,0,0
665,-706,0,0,0,0,0,0,0,0,0,-1,1889,1730,0,0
672,-706,0,0,0,0,0,0,0,0,0,-1,1896,1730,0,0
679,-706,0,0,0,0,0,0,0,0,0,-1,1903,1730,0,0
686,-706,0,0,0,0,0,0,0,0,0,-1,1910,1730,0,0
693,-706,0,0,0,0,0,0,0,0,0,-1,1917,1730,0,0
700,-706,0,0,0,0,0,0,0,0,0,-1,1924,1730,0,0
707,-706,0,0,0,0,0,0,0,0,0,-1,1931,1730,0,0
714,-706,0,0,0,0,0,0,0,0,0,-1,1938,1730,0,0
721,-706,0,0,0,0,0,0,0,0,0,-1,1945,1730,0,0
728,-706,0,0,0,0,0,0,0,0,0,-1,1952,1730,0,0
735,-706,0,0,0,0,0,0,0,0,0,-1,1959,1730,0,0
742,-706,0,0,0,0,0,0,0,0,0,-1,1966,1730,0,0
749,-706,0,0,0,0,0,0,0,0,0,-1,1973,1730,0,0
756,-706,0,0,0,0,0,0,0,0,0,-1,1980,1730,0,0
763,-706,0,0,0,0,0,0,0,0,0,-1,1987,1730,0,0
770,-706,0,0,0,0,0,0,0,0,0,-1,1994,1730,0,0
777,-706,0,0,0,0,0,0,0,0,0,-1,2001,1730,0,0
784,-706,0,0,0,0,0,0,0,0,0,-1,2008,1730,0,0
791,-706,0,0,0,0,0,0,0,0,0,-1,2015,1730,0,0
798,-706,0,0,0,0,0,0,0,0,0,-1,2022,1730,0,0
805,-706,0,0,0,0,0,0,0,0,0,-1,2029,1730,0,0
812,-706,0,0,0,0,0,0,0,0,0,-1,2036,1730,0,0
-700,-713,0,0,0,0,0,0,0,0,0,-1,524,1737,0,0
-693,-713,0,0,0,0,0,0,0,0,0,-1,531,1737,0,0
-686,-713,0,0,0,0,0,0,0,0,0,-1,538,1737,0,0
-679,-713,0,0,0,0,0,0,0,0,0,-1,545,1737,0,0
-672,-713,0,0,0,0,0,0,0,0,0,-1,552,1737,0,0
-665,-713,0,0,0,0,0,0,0,0,0,-1,559,1737,0,0
-658,-713,0,0,0,0,0,0,0,0,0,-1,566,1737,0,0
-651,-713,0,0,0,0,0,0,0,0,0,-1,573,1737,0,0
-644,-713,0,0,0,0,0,0,0,0,0,-1,580,1737,0,0
-637,-713,0,0,0,0,0,0,0,0,0,-1,587,1737,0,0
-630,-713,0,0,0,0,0,0,0,0,0,-1,594,1737,0,0
-623,-713,0,0,0,0,0,0,0,0,0,-1,601,1737,0,0
-616,-713,0,0,0,0,0,0,0,0,0,-1,608,1737,0,0
-609,-713,0,0,0,0,0,0,0,0,0,-1,615,1737,0,0
-602,-713,0,0,0,0,0,0,0,0,0,-1,622,1737,0,0
-595,-713,0,0,0,0,0,0,0,0,0,-1,629,1737,0,0
-588,-713,0,0,0,0,0,0,0,0,0,-1,636,1737,0,0
-581,-713,0,0,0,0,0,0,0,0,0,-1,643,1737,0,0
-574,-713,0,0,0,0,0,0,0,0,0,-1,650,1737,0,0
-567,-713,0,0,0,0,0,0,0,0,0,-1,657,1737,0,0
-560,-713,0,0,0,0,0,0,0,0,0,-1,664,1737,0,0
-553,-713,0,0,0,0,0,0,0,0,0,-1,671,1737,0,0
-546,-713,0,0,0,0,0,0,0,0,0,-1,678,1737,0,0
-539,-713,0,0,0,0,0,0,0,0,0,-1,685,1737,0,0
-532,-713,0,0,0,0,0,0,0,0,0,-1,692,1737,0,0
-525,-713,0,0,0,0,0,0,0,0,0,-1,699,1737,0,0
-518,-713,0,0,0,0,0,0,0,0,0,-1,706,1737,0,0
-511,-713,0,0,0,0,0,0,0,0,0,-1,713,1737,0,0
-504,-713,0,0,0,0,0,0,0,0,0,-1,720,1737,0,0
-497,-713,0,0,0,0,0,0,0,0,0,-1,727,1737,0,0
-490,-713,0,0,0,0,0,0,0,0,0,-1,734,1737,0,0
-483,-713,0,0,0,0,0,0,0,0,0,-1,741,1737,0,0
-476,-713,0,0,0,0,0,0,0,0,0,-1,748,1737,0,0
-469,-713,0,0,0,0,0,0,0,0,0,-1,755,1737,0,0
-462,-713,0,0,0,0,0,0,0,0,0,-1,762,1737,0,0
-455,-713,0,0,0,0,0,0,0,0,0,-1,769,1737,0,0
-448,-713,0,0,0,0,0,0,0,0,0,-1,776,1737,0,0
-441,-713,0,0,0,0,0,0,0,0,0,-1,783,1737,0,0
-434,-713,0,0,0,0,0,0,0,0,0,-1,790,1737,0,0
-427,-713,0,0,0,0,0,0,0,0,0,-1,797,1737,0,0
-420,-713,0,0,0,0,0,0,0,0,0,-1,804,1737,0,0
-413,-713,0,0,0,0,0,0,0,0,0,-1,811,1737,0,0
-406,-713,0,0,0,0,0,0,0,0,0,-1,818,1737,0,0
-399,-713,0,0,0,0,0,0,0,0,0,-1,825,1737,0,0
-392,-713,0,0,0,0,0,0,0,0,0,-1,832,1737,0,0
-385,-713,0,0,0,0,0,0,0,0,0,-1,839,1737,0,0
-378,-713,0,0,0,0,0,0,0,0,0,-1,846,1737,0,0
-371,-713,0,0,0,0,0,0,0,0,0,-1,853,1737,0,0
-364,-713,0,0,0,0,0,0,0,0,0,-1,860,1737,0,0
-357,-713,0,0,0,0,0,0,0,0,0,-1,867,1737,0,0
-350,-713,0,0,0,0,0,0,0,0,0,-1,874,1737,0,0
-343,-713,0,0,0,0,0,0,0,0,0,-1,881,1737,0,0
-336,-713,0,0,0,0,0,0,0,0,0,-1,888,1737,0,0
-329,-713,0,0,0,0,0,0,0,0,0,-1,895,1737,0,0
-322,-713,0,0,0,0,0,0,0,0,0,-1,902,1737,0,0
-315,-713,0,0,0,0,0,0,0,0,0,-1,909,1737,0,0
-308,-713,0,0,0,0,0,0,0,0,0,-1,916,1737,0,0
-301,-713,0,0,0,0,0,0,0,0,0,-1,923,1737,0,0
-294,-713,7.17883,22.0453,0,0,0,0,0,0,0,-1,930,1737,7.17881,-22.0453
-287,-713,11.8916,21.5834,0,0,0,0,0,0,0,-1,937,1737,11.8916,-21.5833
-280,-713,10.2786,21.3551,0,0,0,0,0,0,0,-1,944,1737,10.2787,-21.3551
-273,-713,11.1981,23.8683,0,0,0,0,0,0,0,-1,951,1737,11.198,-23.8683
-266,-713,3.17981,19.8851,0,0,0,0,0,0,0,-1,958,1737,3.17983,-19.8851
-259,-713,3.5921,19.6868,0,0,0,0,0,0,0,-1,965,1737,3.59207,-19.6868
-252,-713,4.55469,20.5758,0,0,0,0,0,0,0,-1,972,1737,4.55466,-20.5758
-245,-713,3.89014,25.9825,0,0,0,0,0,0,0,-1,979,1737,3.89013,-25.9826
-238,-713,6.62506,30.5463,0,0,0,0,0,0,0,-1,986,1737,6.62509,-30.5462
-231,-713,8.23462,31.5148,0,0,0,0,0,0,0,-1,993,1737,8.23462,-31.5148
-224,-713,7.59491,25.9907,0,0,0,0,0,0,0,-1,1000,1737,7.59488,-25.9908
-217,-713,8.14014,32.5569,0,0,0,0,0,0,0,-1,1007,1737,8.14013,-32.5569
-210,-713,8.36407,32.0342,-0.00402626,0.00858459,0.00318619,0.00934388,-0.00478555,1.33685,0.00829793,0.0477768,1014,1737,8.36408,-32.0342
-203,-713,8.05249,32.5146,-0.00414012,0.00606737,0.00333281,0.00705918,-0.00513194,1.28155,0.0070678,0.0481583,1021,1737,8.05247,-32.5147
-196,-713,7.98364,33.2186,-0.00399512,0.00331274,0.00337445,0.00463255,-0.00531493,1.19797,0.00574768,0.0473999,1028,1737,7.98364,-33.2186
-189,-713,7.9176,33.6064,-0.00315961,0.00117107,0.00308013,0.00277081,-0.00475936,1.09177,0.00439779,0.0429712,1035,1737,7.91762,-33.6064
-182,-713,7.8147,33.8684,-0.00246436,-0.000105788,0.0029219,0.00186584,-0.00443598,0.977202,0.00373786,0.0303912,1042,1737,7.81464,-33.8684
-175,-713,7.90784,34.2885,0,0,0,0,0,0,0,-1,1049,1737,7.90782,-34.2885
-168,-713,7.88232,34.5736,0,0,0,0,0,0,0,-1,1056,1737,7.88238,-34.5736
-161,-713,7.8595,34.8217,-0.00148707,-0.00141809,0.00276162,0.00130925,-0.00421441,0.791642,0.00333288,0.0179144,1063,1737,7.85954,-34.8217
-154,-713,7.7749,35.15,-0.000823213,-0.00220392,0.00261502,0.00119104,-0.00421817,0.656344,0.00328198,0.0127864,1070,1737,7.77487,-35.1501
-147,-713,7.74036,35.4583,-0.000215543,-0.0020314,0.00212639,0.00118865,-0.00343559,0.583625,0.00277287,0.0183503,1077,1737,7.74039,-35.4582
-140,-713,7.74353,35.729,-3.00061e-06,-0.0011688,0.00180553,0.00131139,-0.00248319,0.629258,0.00222535,0.0169099,1084,1737,7.74355,-35.729
-133,-713,7.73828,35.9674,0.000108208,-0.000269398,0.00162151,0.00155187,-0.00171306,0.727441,0.00188578,0.0109231,1091,1737,7.73832,-35.9674
-126,-713,7.73181,36.1957,9.3607e-05,0.00081219,0.00147284,0.00196893,-0.00106313,0.905034,0.00177641,0.0168957,1098,1737,7.73181,-36.1957
-119,-713,7.7052,36.4199,2.58312e-05,0.00123848,0.00124905,0.00202059,-0.00075628,1.01136,0.0016577,0.0242167,1105,1737,7.70517,-36.4199
-112,-713,7.69214,36.7411,3.74239e-05,0.00174634,0.00114302,0.00231898,-0.000535213,1.10636,0.00175186,0.012755,1112,1737,7.69215,-36.7411
-105,-713,7.68677,36.9712,2.53644e-05,0.00207336,0.000956929,0.00245089,-0.000352167,1.19502,0.00176308,0.0107537,1119,1737,7.68675,-36.9712
-98,-713,7.66479,37.1715,8.72745e-05,0.00225418,0.000895225,0.00257618,-0.000234726,1.22552,0.0018008,0.0104708,1126,1737,7.66483,-37.1715
-91,-713,7.63171,37.3907,0.000207593,0.00236153,0.000832084,0.00264552,-7.64028e-05,1.24189,0.00178969,0.0101688,1133,1737,7.63174,-37.3908
-84,-713,7.61511,37.6116,0.000256902,0.00227786,0.00076076,0.00253222,2.53937e-06,1.24813,0.0016873,0.00944504,1140,1737,7.61509,-37.6116
-77,-713,7.62976,37.8208,0.000473944,0.00220278,0.000674913,0.00243505,0.000241674,1.23934,0.00154911,0.0128867,1147,1737,7.6298,-37.8208
-70,-713,7.62231,37.9996,0.00070663,0.00198996,0.000492303,0.00215706,0.000539533,1.24358,0.00129618,0.0147425,1154,1737,7.62237,-37.9997
-63,-713,7.62524,38.1824,0.000756946,0.00140312,0.000305034,0.00152437,0.000635701,1.19246,0.000884123,0.012887,1161,1737,7.6252,-38.1823
-56,-713,7.64648,38.3528,0.000934052,0.000905162,0.00030929,0.00122923,0.00060998,0.762064,0.000709705,0.0127117,1168,1737,7.64653,-38.3528
-49,-713,7.62476,38.5211,0.00121692,0.00107582,0.000849554,0.00199885,0.000293892,0.743971,0.00124621,0.0149796,1175,1737,7.62477,-38.5211
-42,-713,7.64978,38.6532,0.00155212,0.00140511,0.00182806,0.00330816,-0.000350927,0.765304,0.00233123,0.0179377,1182,1737,7.64981,-38.6531
-35,-713,7.67017,38.7891,0.00204606,0.00257357,0.00244312,0.00476713,-0.000147505,0.839169,0.00322838,0.0146293,1189,1737,7.67014,-38.7891
-28,-713,7.68481,38.9431,0.00253228,0.00411193,0.00302937,0.00645274,0.000191466,0.912921,0.00423945,0.0120402,1196,1737,7.68483,-38.9431
-21,-713,7.68689,39.0814,0.00315738,0.00610498,0.0036668,0.00858308,0.000679285,0.976483,0.0055096,0.00840046,1203,1737,7.6869,-39.0814
-14,-713,7.69556,39.1796,0.00396722,0.00860884,0.00432008,0.011192,0.00138403,1.03189,0.00704547,0.010164,1210,1737,7.69551,-39.1796
-7,-713,7.72632,39.2896,0.00490858,0.0115034,0.00476094,0.0139973,0.00241466,1.08827,0.00863986,0.0101105,1217,1737,7.72628,-39.2896
0,-713,7.7395,39.3854,0.00587094,0.0145625,0.00511709,0.0169302,0.00350328,1.13743,0.0103192,0.0148887,1224,1737,7.7395,-39.3853
7,-713,7.75891,39.483,0.00710515,0.0176349,0.00516375,0.0197445,0.00499552,1.18295,0.0118541,0.0175928,1231,1737,7.75893,-39.4831
14,-713,7.78406,39.5719,0.00835416,0.0204388,0.00471031,0.0220578,0.0067351,1.23972,0.0130528,0.0126722,1238,1737,7.784,-39.5718
21,-713,7.80066,39.6301,0.00959743,0.0226186,0.00393473,0.0237153,0.0085008,1.29899,0.0138737,0.0100068,1245,1737,7.80063,-39.6301
28,-713,7.78699,39.6902,0.010575,0.0238685,0.00329411,0.02464,0.00980348,1.34074,0.0143245,0.0100177,1252,1737,7.78699,-39.6902
35,-713,7.81555,39.7559,0.0110886,0.023916,0.00262626,0.0244329,0.0105717,1.37647,0.0141489,0.0111582,1259,1737,7.81557,-39.7558
42,-713,7.86755,39.8154,0.0112618,0.0236143,0.00200882,0.0239327,0.0109433,1.41357,0.0138344,0.0119565,1266,1737,7.86761,-39.8154
49,-713,7.89343,39.8088,0.0108228,0.0228439,0.00144666,0.0230155,0.0106512,1.4527,0.0133003,0.0112534,1273,1737,7.89339,-39.8088
56,-713,7.91125,39.8196,0.00998286,0.0214459,0.000564811,0.0214737,0.0099551,1.52168,0.0124088,0.0112379,1280,1737,7.91124,-39.8196
63,-713,7.91882,39.8555,0.009004,0.019229,-9.24505e-05,0.0192299,0.00900317,-1.56176,0.0111099,0.0117903,1287,1737,7.91877,-39.8555
70,-713,7.93994,39.8577,0.00777582,0.0166509,-0.000103624,0.0166521,0.00777461,-1.55912,0.00962114,0.0114842,1294,1737,7.93998,-39.8577
77,-713,7.96692,39.8468,0.00654216,0.0141028,9.92548e-06,0.0141028,0.00654215,1.56948,0.00814935,0.012308,1301,1737,7.96691,-39.8468
84,-713,7.99072,39.833,0.00518989,0.0118303,0.000161529,0.0118342,0.00518596,1.54649,0.00684986,0.0123389,1308,1737,7.99075,-39.833
91,-713,8.0105,39.8037,0.00429086,0.0100219,0.000272967,0.0100349,0.00427789,1.52331,0.00581456,0.0123319,1315,1737,8.01048,-39.8037
98,-713,8.02563,39.7576,0.00385523,0.008478,0.000354114,0.00850497,0.00382826,1.49479,0.00491848,0.01212,1322,1737,8.02559,-39.7575
105,-713,8.04822,39.7228,0.00381453,0.00748402,0.000421699,0.00753186,0.0037667,1.45784,0.00434852,0.0146315,1329,1737,8.04819,-39.7227
112,-713,8.07166,39.6779,0.00390865,0.00641274,0.000560089,0.0065323,0.00378908,1.36048,0.0037875,0.0147336,1336,1737,8.07172,-39.6778
119,-713,8.08972,39.6193,0.00428692,0.00533239,0.000794657,0.00576083,0.00385848,1.07632,0.00338933,0.0144475,1343,1737,8.08971,-39.6193
126,-713,8.09863,39.5446,0.00481223,0.00438219,0.000912607,0.00553481,0.00365961,0.669704,0.00325041,0.0130757,1350,1737,8.09867,-39.5446
133,-713,8.1178,39.4174,0.00551675,0.00388414,0.000712644,0.00578405,0.00361684,0.358853,0.0033742,0.0114564,1357,1737,8.11774,-39.4173
140,-713,8.15747,39.3103,0.00615161,0.0036056,0.000574558,0.00627526,0.00348194,0.211984,0.00363029,0.0125739,1364,1737,8.15745,-39.3103
147,-713,8.16968,39.2029,0.00651499,0.00316362,0.00055895,0.00660576,0.00307285,0.160979,0.00381692,0.0143282,1371,1737,8.16965,-39.2029
154,-713,8.15198,39.1229,0.00660205,0.00235129,0.000608224,0.00668736,0.00226597,0.139361,0.00392723,0.014492,1378,1737,8.15192,-39.1229
161,-713,8.17603,38.9762,0.00626169,0.00169424,0.000855322,0.00641661,0.00153932,0.179179,0.00386811,0.0104213,1385,1737,8.17597,-38.9762
168,-713,8.18445,38.829,0.00531505,0.00192262,0.000880639,0.00553003,0.00170763,0.239436,0.00326966,0.0102398,1392,1737,8.18447,-38.8289
175,-713,8.21362,38.6877,0.00433442,0.00205361,0.000774858,0.00457276,0.00181527,0.298403,0.0026587,0.0130517,1399,1737,8.21363,-38.6878
182,-713,8.2179,38.5422,0.00326925,0.00209361,0.000511789,0.00346082,0.00190203,0.358183,0.00200138,0.0120796,1406,1737,8.21794,-38.5422
189,-713,8.21716,38.3611,0.00238632,0.00187103,0.000270203,0.00250203,0.00175532,0.40459,0.00148315,0.0114046,1413,1737,8.21722,-38.3611
196,-713,8.23718,38.2063,0.00134692,0.00153655,3.76854e-05,0.00154376,0.00133971,1.38163,0.000968351,0.0117172,1420,1737,8.23721,-38.2063
203,-713,8.22607,38.0596,0.000648283,0.00135724,-0.000163843,0.00139327,0.00061225,-1.35432,0.000806372,0.0151511,1427,1737,8.22605,-38.0596
210,-713,8.20593,37.8745,0.000468356,0.0015418,-0.000407582,0.00167902,0.000331139,-1.24605,0.00102692,0.0130465,1434,1737,8.20593,-37.8746
217,-713,8.21143,37.6799,0.000269079,0.00158297,-0.000727806,0.00190647,-5.44244e-05,-1.15253,0.0012895,0.0114623,1441,1737,8.21142,-37.6799
224,-713,8.19373,37.4763,0.000165195,0.00166886,-0.000959351,0.00213588,-0.000301827,-1.11776,0.00153446,0.0124378,1448,1737,8.19367,-37.4763
231,-713,8.19861,37.2603,-3.06413e-06,0.00169572,-0.00116136,0.00228515,-0.000592501,-1.10114,0.0017546,0.011045,1455,1737,8.19855,-37.2603
238,-713,8.19763,37.0361,-7.46351e-05,0.00168402,-0.00127334,0.00235215,-0.000742764,-1.08758,0.00186564,0.00872629,1462,1737,8.19761,-37.0361
245,-713,8.18884,36.8153,-1.4113e-05,0.00164553,-0.00140488,0.00244736,-0.000815943,-1.05216,0.00196098,0.0114005,1469,1737,8.1888,-36.8153
252,-713,8.18652,36.5667,-3.25566e-05,0.00187556,-0.00155863,0.00274895,-0.000905944,-1.06004,0.00219776,0.0114529,1476,1737,8.18658,-36.5666
259,-713,8.18689,36.3191,3.21116e-05,0.002059,-0.00170495,0.00302897,-0.000937858,-1.05355,0.00239397,0.012254,1483,1737,8.1869,-36.3191
266,-713,8.14685,36.0978,0.000369621,0.00288192,-0.00209074,0.00406485,-0.000813308,-1.05591,0.00301776,0.010601,1490,1737,8.14685,-36.0977
273,-713,8.11292,35.8473,0.000548903,0.00369802,-0.00240738,0.00500004,-0.000753117,-1.07501,0.00361068,0.00846276,1497,1737,8.11289,-35.8473
280,-713,8.10583,35.5836,0.000754473,0.00465231,-0.00286905,0.00617178,-0.000765002,-1.08374,0.00439179,0.00971933,1504,1737,8.10589,-35.5836
287,-713,8.09351,35.3339,0.00113993,0.00622406,-0.00347043,0.00798385,-0.000619861,-1.1015,0.00554076,0.0106641,1511,1737,8.09357,-35.3339
294,-713,8.10803,35.0951,0.00166767,0.00822203,-0.00414563,0.0102294,-0.00033967,-1.11986,0.00693557,0.0170672,1518,1737,8.10803,-35.095
301,-713,8.10547,34.7966,0.00217103,0.0100692,-0.00477978,0.0123202,-8.00178e-05,-1.13066,0.00824027,0.0197735,1525,1737,8.10547,-34.7966
308,-713,8.07727,34.4618,0.00253759,0.0118208,-0.00557568,0.014434,-7.56504e-05,-1.13251,0.00964798,0.0226069,1532,1737,8.07731,-34.4618
315,-713,7.79395,33.8544,0,0,0,0,0,0,0,-1,1539,1737,7.79394,-33.8544
322,-713,8.12769,33.5516,0,0,0,0,0,0,0,-1,1546,1737,8.12768,-33.5516
329,-713,8.46143,33.2489,0,0,0,0,0,0,0,-1,1553,1737,8.46141,-33.2489
336,-713,8.16284,32.8832,0,0,0,0,0,0,0,-1,1560,1737,8.16284,-32.8832
343,-713,7.81372,32.6027,0,0,0,0,0,0,0,-1,1567,1737,7.81377,-32.6027
350,-713,7.91614,32.541,0,0,0,0,0,0,0,-1,1574,1737,7.91613,-32.5411
357,-713,7.04224,30.0194,0,0,0,0,0,0,0,-1,1581,1737,7.0422,-30.0194
364,-713,7.35474,20.9537,0,0,0,0,0,0,0,-1,1588,1737,7.35472,-20.9537
371,-713,3.07507,25.4108,0,0,0,0,0,0,0,-1,1595,1737,3.07502,-25.4107
378,-713,4.21838,25.306,0,0,0,0,0,0,0,-1,1602,1737,4.21837,-25.306
385,-713,5.078,25.3104,0,0,0,0,0,0,0,-1,1609,1737,5.07795,-25.3104
392,-713,5.92114,25.3118,0,0,0,0,0,0,0,-1,1616,1737,5.92112,-25.3118
399,-713,3.14368,25.2808,0,0,0,0,0,0,0,-1,1623,1737,3.14369,-25.2808
406,-713,1.82678,26.7354,0,0,0,0,0,0,0,-1,1630,1737,1.82679,-26.7354
413,-713,3.24731,18.2787,0,0,0,0,0,0,0,-1,1637,1737,3.24726,-18.2787
420,-713,0,0,0,0,0,0,0,0,0,-1,1644,1737,0,0
427,-713,0,0,0,0,0,0,0,0,0,-1,1651,1737,0,0
434,-713,0,0,0,0,0,0,0,0,0,-1,1658,1737,0,0
441,-713,0,0,0,0,0,0,0,0,0,-1,1665,1737,0,0
448,-713,0,0,0,0,0,0,0,0,0,-1,1672,1737,0,0
455,-713,0,0,0,0,0,0,0,0,0,-1,1679,1737,0,0
462,-713,0,0,0,0,0,0,0,0,0,-1,1686,1737,0,0
469,-713,0,0,0,0,0,0,0,0,0,-1,1693,1737,0,0
476,-713,0,0,0,0,0,0,0,0,0,-1,1700,1737,0,0
483,-713,0,0,0,0,0,0,0,0,0,-1,1707,1737,0,0
490,-713,0,0,0,0,0,0,0,0,0,-1,1714,1737,0,0
497,-713,0,0,0,0,0,0,0,0,0,-1,1721,1737,0,0
504,-713,0,0,0,0,0,0,0,0,0,-1,1728,1737,0,0
511,-713,0,0,0,0,0,0,0,0,0,-1,1735,1737,0,0
518,-713,0,0,0,0,0,0,0,0,0,-1,1742,1737,0,0
525,-713,0,0,0,0,0,0,0,0,0,-1,1749,1737,0,0
532,-713,0,0,0,0,0,0,0,0,0,-1,1756,1737,0,0
539,-713,0,0,0,0,0,0,0,0,0,-1,1763,1737,0,0
546,-713,0,0,0,0,0,0,0,0,0,-1,1770,1737,0,0
553,-713,0,0,0,0,0,0,0,0,0,-1,1777,1737,0,0
560,-713,0,0,0,0,0,0,0,0,0,-1,1784,1737,0,0
567,-713,0,0,0,0,0,0,0,0,0,-1,1791,1737,0,0
574,-713,0,0,0,0,0,0,0,0,0,-1,1798,1737,0,0
581,-713,0,0,0,0,0,0,0,0,0,-1,1805,1737,0,0
588,-713,0,0,0,0,0,0,0,0,0,-1,1812,1737,0,0
595,-713,0,0,0,0,0,0,0,0,0,-1,1819,1737,0,0
602,-713,0,0,0,0,0,0,0,0,0,-1,1826,1737,0,0
609,-713,0,0,0,0,0,0,0,0,0,-1,1833,1737,0,0
616,-713,0,0,0,0,0,0,0,0,0,-1,1840,1737,0,0
623,-713,0,0,0,0,0,0,0,0,0,-1,1847,1737,0,0
630,-713,0,0,0,0,0,0,0,0,0,-1,1854,1737,0,0
637,-713,0,0,0,0,0,0,0,0,0,-1,1861,1737,0,0
644,-713,0,0,0,0,0,0,0,0,0,-1,1868,1737,0,0
651,-713,0,0,0,0,0,0,0,0,0,-1,1875,1737,0,0
658,-713,0,0,0,0,0,0,0,0,0,-1,1882,1737,0,0
665,-713,0,0,0,0,0,0,0,0,0,-1,1889,1737,0,0
672,-713,0,0,0,0,0,0,0,0,0,-1,1896,1737,0,0
679,-713,0,0,0,0,0,0,0,0,0,-1,1903,1737,0,0
686,-713,0,0,0,0,0,0,0,0,0,-1,1910,1737,0,0
693,-713,0,0,0,0,0,0,0,0,0,-1,1917,1737,0,0
700,-713,0,0,0,0,0,0,0,0,0,-1,1924,1737,0,0
707,-713,0,0,0,0,0,0,0,0,0,-1,1931,1737,0,0
714,-713,0,0,0,0,0,0,0,0,0,-1,1938,1737,0,0
721,-713,0,0,0,0,0,0,0,0,0,-1,1945,1737,0,0
728,-713,0,0,0,0,0,0,0,0,0,-1,1952,1737,0,0
735,-713,0,0,0,0,0,0,0,0,0,-1,1959,1737,0,0
742,-713,0,0,0,0,0,0,0,0,0,-1,1966,1737,0,0
749,-713,0,0,0,0,0,0,0,0,0,-1,1973,1737,0,0
756,-713,0,0,0,0,0,0,0,0,0,-1,1980,1737,0,0
763,-713,0,0,0,0,0,0,0,0,0,-1,1987,1737,0,0
770,-713,0,0,0,0,0,0,0,0,0,-1,1994,1737,0,0
777,-713,0,0,0,0,0,0,0,0,0,-1,2001,1737,0,0
784,-713,0,0,0,0,0,0,0,0,0,-1,2008,1737,0,0
791,-713,0,0,0,0,0,0,0,0,0,-1,2015,1737,0,0
798,-713,0,0,0,0,0,0,0,0,0,-1,2022,1737,0,0
805,-713,0,0,0,0,0,0,0,0,0,-1,2029,1737,0,0
812,-713,0,0,0,0,0,0,0,0,0,-1,2036,1737,0,0
-700,-720,0,0,0,0,0,0,0,0,0,-1,524,1744,0,0
-693,-720,0,0,0,0,0,0,0,0,0,-1,531,1744,0,0
-686,-720,0,0,0,0,0,0,0,0,0,-1,538,1744,0,0
-679,-720,0,0,0,0,0,0,0,0,0,-1,545,1744,0,0
-672,-720,0,0,0,0,0,0,0,0,0,-1,552,1744,0,0
-665,-720,0,0,0,0,0,0,0,0,0,-1,559,1744,0,0
-658,-720,0,0,0,0,0,0,0,0,0,-1,566,1744,0,0
-651,-720,0,0,0,0,0,0,0,0,0,-1,573,1744,0,0
-644,-720,0,0,0,0,0,0,0,0,0,-1,580,1744,0,0
-637,-720,0,0,0,0,0,0,0,0,0,-1,587,1744,0,0
-630,-720,0,0,0,0,0,0,0,0,0,-1,594,1744,0,0
-623,-720,0,0,0,0,0,0,0,0,0,-1,601,1744,0,0
-616,-720,0,0,0,0,0,0,0,0,0,-1,608,1744,0,0
-609,-720,0,0,0,0,0,0,0,0,0,-1,615,1744,0,0
-602,-720,0,0,0,0,0,0,0,0,0,-1,622,1744,0,0
-595,-720,0,0,0,0,0,0,0,0,0,-1,629,1744,0,0
-588,-720,0,0,0,0,0,0,0,0,0,-1,636,1744,0,0
-581,-720,0,0,0,0,0,0,0,0,0,-1,643,1744,0,0
-574,-720,0,0,0,0,0,0,0,0,0,-1,650,1744,0,0
-567,-720,0,0,0,0,0,0,0,0,0,-1,657,1744,0,0
-560,-720,0,0,0,0,0,0,0,0,0,-1,664,1744,0,0
-553,-720,0,0,0,0,0,0,0,0,0,-1,671,1744,0,0
-546,-720,0,0,0,0,0,0,0,0,0,-1,678,1744,0,0
-539,-720,0,0,0,0,0,0,0,0,0,-1,685,1744,0,0
-532,-720,0,0,0,0,0,0,0,0,0,-1,692,1744,0,0
-525,-720,0,0,0,0,0,0,0,0,0,-1,699,1744,0,0
-518,-720,0,0,0,0,0,0,0,0,0,-1,706,1744,0,0
-511,-720,0,0,0,0,0,0,0,0,0,-1,713,1744,0,0
-504,-720,0,0,0,0,0,0,0,0,0,-1,720,1744,0,0
-497,-720,0,0,0,0,0,0,0,0,0,-1,727,1744,0,0
-490,-720,0,0,0,0,0,0,0,0,0,-1,734,1744,0,0
-483,-720,0,0,0,0,0,0,0,0,0,-1,741,1744,0,0
-476,-720,0,0,0,0,0,0,0,0,0,-1,748,1744,0,0
-469,-720,0,0,0,0,0,0,0,0,0,-1,755,1744,0,0
-462,-720,0,0,0,0,0,0,0,0,0,-1,762,1744,0,0
-455,-720,0,0,0,0,0,0,0,0,0,-1,769,1744,0,0
-448,-720,0,0,0,0,0,0,0,0,0,-1,776,1744,0,0
-441,-720,0,0,0,0,0,0,0,0,0,-1,783,1744,0,0
-434,-720,0,0,0,0,0,0,0,0,0,-1,790,1744,0,0
-427,-720,0,0,0,0,0,0,0,0,0,-1,797,1744,0,0
-420,-720,0,0,0,0,0,0,0,0,0,-1,804,1744,0,0
-413,-720,0,0,0,0,0,0,0,0,0,-1,811,1744,0,0
-406,-720,0,0,0,0,0,0,0,0,0,-1,818,1744,0,0
-399,-720,0,0,0,0,0,0,0,0,0,-1,825,1744,0,0
-392,-720,0,0,0,0,0,0,0,0,0,-1,832,1744,0,0
-385,-720,0,0,0,0,0,0,0,0,0,-1,839,1744,0,0
-378,-720,0,0,0,0,0,0,0,0,0,-1,846,1744,0,0
-371,-720,0,0,0,0,0,0,0,0,0,-1,853,1744,0,0
-364,-720,0,0,0,0,0,0,0,0,0,-1,860,1744,0,0
-357,-720,0,0,0,0,0,0,0,0,0,-1,867,1744,0,0
-350,-720,0,0,0,0,0,0,0,0,0,-1,874,1744,0,0
-343,-720,0,0,0,0,0,0,0,0,0,-1,881,1744,0,0
-336,-720,0,0,0,0,0,0,0,0,0,-1,888,1744,0,0
-329,-720,0,0,0,0,0,0,0,0,0,-1,895,1744,0,0
-322,-720,0,0,0,0,0,0,0,0,0,-1,902,1744,0,0
-315,-720,0,0,0,0,0,0,0,0,0,-1,909,1744,0,0
-308,-720,0,0,0,0,0,0,0,0,0,-1,916,1744,0,0
-301,-720,0,0,0,0,0,0,0,0,0,-1,923,1744,0,0
-294,-720,0,0,0,0,0,0,0,0,0,-1,930,1744,0,0
-287,-720,0,0,0,0,0,0,0,0,0,-1,937,1744,0,0
-280,-720,6.46796,22.6417,0,0,0,0,0,0,0,-1,944,1744,6.46793,-22.6417
-273,-720,8.54633,13.262,0,0,0,0,0,0,0,-1,951,1744,8.54636,-13.2619
-266,-720,7.28027,13.3165,0,0,0,0,0,0,0,-1,958,1744,7.28026,-13.3166
-259,-720,3.70563,18.6372,0,0,0,0,0,0,0,-1,965,1744,3.70564,-18.6372
-252,-720,4.00989,18.5059,0,0,0,0,0,0,0,-1,972,1744,4.00988,-18.5058
-245,-720,7.05634,33.8489,0,0,0,0,0,0,0,-1,979,1744,7.05634,-33.8489
-238,-720,5.02216,24.1455,0,0,0,0,0,0,0,-1,986,1744,5.02217,-24.1455
-231,-720,7.35455,28.3225,0,0,0,0,0,0,0,-1,993,1744,7.35453,-28.3225
-224,-720,7.65991,19.4061,0,0,0,0,0,0,0,-1,1000,1744,7.6599,-19.4061
-217,-720,4.77637,30.7196,0,0,0,0,0,0,0,-1,1007,1744,4.77636,-30.7197
-210,-720,7.79053,32.0433,0,0,0,0,0,0,0,-1,1014,1744,7.79051,-32.0433
-203,-720,8.2478,32.3656,0,0,0,0,0,0,0,-1,1021,1744,8.24785,-32.3656
-196,-720,8.28162,33.2596,0,0,0,0,0,0,0,-1,1028,1744,8.28164,-33.2597
-189,-720,8.27917,33.7992,0,0,0,0,0,0,0,-1,1035,1744,8.27917,-33.7993
-182,-720,8.19092,34.3076,-0.00266175,-0.000432162,0.00403896,0.00264303,-0.00573694,0.920051,0.00494687,0.0427796,1042,1744,8.19096,-34.3076
-175,-720,8.2301,34.6274,0,0,0,0,0,0,0,-1,1049,1744,8.23009,-34.6274
-168,-720,8.34131,34.7896,0,0,0,0,0,0,0,-1,1056,1744,8.34136,-34.7896
-161,-720,7.88306,34.826,-0.0016213,-0.00210319,0.0037236,0.00186915,-0.00559364,0.753089,0.00448394,0.0392273,1063,1744,7.88304,-34.8261
-154,-720,8.05518,35.2395,-0.000860757,-0.0030849,0.00347039,0.00167138,-0.00561704,0.630344,0.00440872,0.0309063,1070,1744,8.0552,-35.2395
-147,-720,8.00012,35.5868,-0.000206837,-0.0028562,0.00280131,0.00156721,-0.00463024,0.56454,0.00372092,0.0256764,1077,1744,8.00012,-35.5868
-140,-720,8.00562,35.8185,-5.81586e-05,-0.0017746,0.00236149,0.00159622,-0.00342898,0.611107,0.00296492,0.0185236,1084,1744,8.0056,-35.8185
-133,-720,7.974,35.9799,-2.04903e-05,-0.000684183,0.00207788,0.00175188,-0.00245655,0.706215,0.00244106,0.0130773,1091,1744,7.97396,-35.9799
-126,-720,7.96716,36.2189,-0.000117179,0.000632193,0.0018456,0.00214075,-0.00162574,0.885545,0.00218135,0.0131478,1098,1744,7.96713,-36.2189
-119,-720,7.93311,36.4568,-0.00026333,0.00110572,0.00150568,0.00207517,-0.00123278,0.998747,0.00193038,0.0140814,1105,1744,7.93314,-36.4568
-112,-720,7.90771,36.7251,-0.000278583,0.00174883,0.00134891,0.00242248,-0.000952232,1.10763,0.00200908,0.0127195,1112,1744,7.90769,-36.7251
-105,-720,7.89709,36.9753,-0.000323766,0.00221309,0.00110857,0.00262925,-0.000739926,1.21167,0.0020446,0.0129328,1119,1744,7.89714,-36.9753
-98,-720,7.8739,37.1571,-0.000272569,0.00250632,0.00103487,0.00284936,-0.000615612,1.25071,0.00213458,0.0107267,1126,1744,7.87387,-37.1571
-91,-720,7.84119,37.3872,-0.000153123,0.00272394,0.000988699,0.00303094,-0.000460128,1.26972,0.00219018,0.00982684,1133,1744,7.84115,-37.3873
-84,-720,7.82874,37.6018,-0.00020499,0.00268507,0.000941946,0.00296497,-0.000484888,1.28196,0.00215652,0.0102967,1140,1744,7.82875,-37.6019
-77,-720,7.83313,37.8036,-2.7807e-05,0.00258667,0.000966666,0.00290526,-0.000346396,1.25243,0.00206203,0.0131025,1147,1744,7.83315,-37.8036
-70,-720,7.82556,37.9901,0.00017713,0.00239603,0.000847434,0.00268265,-0.000109494,1.24465,0.00182603,0.0124254,1154,1744,7.82562,-37.9902
-63,-720,7.8009,38.1707,-4.37326e-05,0.00180313,0.000421096,0.00189461,-0.000135214,1.35687,0.00131047,0.0116296,1161,1744,7.80094,-38.1706
-56,-720,7.80957,38.3561,-0.000106648,0.00142813,0.00024417,0.00146604,-0.000144557,1.41677,0.00102893,0.0125292,1168,1744,7.80961,-38.3561
-49,-720,7.8031,38.5386,5.92072e-05,0.00105406,0.000239954,0.00110891,4.3558e-06,1.34607,0.000737829,0.0184342,1175,1744,7.80312,-38.5386
-42,-720,7.80457,38.6461,0.00019349,0.000463629,0.000312373,0.000668884,-1.17651e-05,0.989458,0.000449896,0.0207886,1182,1744,7.80455,-38.6461
-35,-720,7.81958,38.7666,0.000350683,0.000367485,0.000365495,0.000724676,-6.50767e-06,0.796889,0.000485301,0.0180324,1189,1744,7.81961,-38.7666
-28,-720,7.82703,38.9355,0.000456866,0.000624553,0.000527545,0.00107488,6.54318e-06,0.864205,0.000714413,0.0105992,1196,1744,7.82699,-38.9355
-21,-720,7.81079,39.0905,0.000737396,0.0013619,0.000776074,0.00188618,0.00021311,0.976661,0.00119278,0.00916912,1203,1744,7.81074,-39.0904
-14,-720,7.81641,39.198,0.00120599,0.00263835,0.00111349,0.0032461,0.000598246,1.07118,0.00199478,0.0113015,1210,1744,7.81638,-39.1981
-7,-720,7.82349,39.3058,0.00179748,0.00435935,0.00133181,0.00492625,0.00123057,1.16836,0.00296049,0.012083,1217,1744,7.82346,-39.3058
0,-720,7.82361,39.4132,0.00250623,0.00650355,0.00154303,0.00702988,0.0019799,1.24207,0.00418573,0.0125617,1224,1744,7.82363,-39.4132
7,-720,7.83203,39.5071,0.00346548,0.00888966,0.00158855,0.00932065,0.00303449,1.30587,0.00548935,0.0151081,1231,1744,7.83204,-39.5071
14,-720,7.86072,39.5726,0.00445186,0.0111568,0.0014112,0.0114417,0.00416694,1.37158,0.00668661,0.0144032,1238,1744,7.86077,-39.5726
21,-720,7.86829,39.6289,0.00547989,0.0132317,0.000946319,0.0133456,0.00536604,1.45106,0.00775416,0.0108326,1245,1744,7.8683,-39.6289
28,-720,7.85889,39.7006,0.00630648,0.0147411,0.000528162,0.0147741,0.00627353,1.5085,0.00856206,0.00996201,1252,1744,7.85884,-39.7006
35,-720,7.87097,39.7738,0.00684627,0.0154378,0.00010463,0.015439,0.006845,1.55862,0.00893278,0.0109743,1259,1744,7.87096,-39.7738
42,-720,7.87524,39.8113,0.00713568,0.0158482,-0.000372437,0.0158641,0.00711979,-1.52815,0.00917512,0.0119357,1266,1744,7.87522,-39.8113
49,-720,7.88818,39.8081,0.00697207,0.0157327,-0.000822839,0.0158093,0.00689546,-1.47795,0.00915229,0.0112206,1273,1744,7.88817,-39.8081
56,-720,7.91077,39.84,0.00651589,0.0152324,-0.00135403,0.0154379,0.0063104,-1.42018,0.0089624,0.00957795,1280,1744,7.91082,-39.84
63,-720,7.92554,39.8639,0.00589924,0.0139952,-0.00172617,0.0143479,0.00554657,-1.36926,0.00835449,0.0117624,1287,1744,7.92551,-39.8639
70,-720,7.93982,39.8656,0.00516101,0.0123034,-0.00175835,0.0127128,0.0047516,-1.34203,0.0074173,0.0128411,1294,1744,7.93979,-39.8656
77,-720,7.95215,39.8551,0.0044459,0.0104709,-0.00166689,0.0109013,0.00401548,-1.3181,0.0063662,0.014427,1301,1744,7.95219,-39.8551
84,-720,7.97339,39.827,0.0035247,0.00868296,-0.00146901,0.00907198,0.00313568,-1.31192,0.00532025,0.0139532,1308,1744,7.97334,-39.827
91,-720,7.9762,39.7847,0.00273524,0.00707592,-0.00124573,0.00740803,0.00240313,-1.31026,0.00436407,0.0129439,1315,1744,7.97622,-39.7847
98,-720,7.96082,39.7527,0.00216613,0.00544775,-0.000950191,0.00570302,0.00191086,-1.30834,0.00335182,0.0118405,1322,1744,7.96085,-39.7527
105,-720,7.98132,39.7292,0.00190382,0.00422787,-0.000626692,0.00438609,0.0017456,-1.3235,0.00254982,0.011529,1329,1744,7.98134,-39.7293
112,-720,8.00659,39.67,0.00167991,0.00296472,-0.000266242,0.0030177,0.00162692,-1.37435,0.00174405,0.011224,1336,1744,8.00663,-39.67
119,-720,8.00745,39.5991,0.00160453,0.00179009,4.65432e-05,0.00180111,0.00159351,1.33831,0.00113787,0.0115473,1343,1744,8.00747,-39.5991
126,-720,8.01965,39.5146,0.00159374,0.000708927,0.000315981,0.00169499,0.000607672,0.310109,0.000991578,0.0110279,1350,1744,8.01965,-39.5147
133,-720,8.03296,39.4266,0.00169908,8.90012e-05,0.000330145,0.00176415,2.39347e-05,0.19459,0.0011682,0.0120502,1357,1744,8.0329,-39.4267
140,-720,8.05774,39.3378,0.00175062,-0.00022753,0.000319828,0.00180104,-0.000277955,0.156375,0.00130326,0.0184481,1364,1744,8.05773,-39.3377
147,-720,8.05554,39.2186,0.00171598,-0.000493364,0.000414894,0.00179133,-0.000568707,0.17964,0.00142221,0.0187888,1371,1744,8.05559,-39.2186
154,-720,8.03772,39.1019,0.0015708,-0.00069074,0.000450447,0.00165722,-0.000777157,0.189543,0.00143578,0.0126491,1378,1744,8.03771,-39.1019
161,-720,8.05847,38.9718,0.00125475,-0.000656483,0.000492905,0.00137438,-0.000776115,0.238103,0.0012575,0.00971516,1385,1744,8.05843,-38.9718
168,-720,8.04199,38.8344,0.000884204,-0.000332926,0.000389696,0.000998283,-0.000447005,0.284782,0.000854431,0.0100906,1392,1744,8.04197,-38.8344
175,-720,8.04541,38.6797,0.000532522,8.1864e-05,8.81613e-05,0.000549155,6.5231e-05,0.186473,0.000346413,0.0159436,1399,1744,8.04544,-38.6797
182,-720,8.05725,38.5344,0.000134732,0.000544414,-0.000239612,0.000654809,2.43375e-05,-1.13906,0.000428657,0.0151969,1406,1744,8.05729,-38.5344
189,-720,8.06421,38.3656,-0.000145852,0.000853873,-0.000464134,0.00103613,-0.000328106,-1.19662,0.000822239,0.0126639,1413,1744,8.06425,-38.3656
196,-720,8.06824,38.2076,-0.00040635,0.00131619,-0.000696846,0.00156279,-0.000652953,-1.23067,0.00131472,0.0128873,1420,1744,8.06827,-38.2077
203,-720,8.03784,38.052,-0.000528473,0.00186104,-0.00091772,0.00217282,-0.000840253,-1.2433,0.00179541,0.0142718,1427,1744,8.0378,-38.052
210,-720,8.01257,37.8904,-0.000478643,0.00236922,-0.00121671,0.00281825,-0.000927669,-1.21725,0.00225265,0.0125147,1434,1744,8.01262,-37.8904
217,-720,8.00439,37.6718,-0.000476418,0.0026086,-0.00150964,0.00322441,-0.00109223,-1.18348,0.00259157,0.0123247,1441,1744,8.00434,-37.6718
224,-720,8.00439,37.4415,-0.000500949,0.00274779,-0.00174612,0.00350827,-0.00126143,-1.16004,0.00285381,0.0098013,1448,1744,8.00436,-37.4415
231,-720,8.00073,37.2327,-0.000613734,0.00278444,-0.00193167,0.00365794,-0.00148724,-1.14611,0.00305743,0.00997838,1455,1744,8.00076,-37.2326
238,-720,7.97815,37.0278,-0.000616817,0.0027384,-0.00201409,0.00368204,-0.00156046,-1.13265,0.00310828,0.00928004,1462,1744,7.97818,-37.0278
245,-720,7.95557,36.8267,-0.00043593,0.00265804,-0.00213631,0.00374867,-0.00152655,-1.09877,0.00313442,0.0119226,1469,1744,7.95554,-36.8267
252,-720,7.953,36.5741,-0.00037299,0.00296406,-0.00228466,0.00412461,-0.00153354,-1.10079,0.00337898,0.0114066,1476,1744,7.95306,-36.5741
259,-720,7.94275,36.3271,-0.000209845,0.00319375,-0.00243694,0.00446429,-0.00148039,-1.0902,0.00357338,0.0100193,1483,1744,7.9428,-36.3271
266,-720,7.90686,36.0984,0.000344061,0.00431456,-0.00293183,0.00587005,-0.00121143,-1.08301,0.00437347,0.00828649,1490,1744,7.90688,-36.0984
273,-720,7.87451,35.8492,0.000683258,0.00537772,-0.00333147,0.0071058,-0.00104483,-1.09229,0.00512113,0.014037,1497,1744,7.87451,-35.8492
280,-720,7.80164,35.5986,0.00106963,0.00665818,-0.00391291,0.00867211,-0.000944305,-1.09547,0.00612051,0.0208184,1504,1744,7.80159,-35.5987
287,-720,7.72803,35.2833,0.00170849,0.00877635,-0.00473137,0.0111479,-0.000663047,-1.10616,0.00766251,0.0360349,1511,1744,7.72808,-35.2834
294,-720,7.84863,34.906,0.00251256,0.0114722,-0.00565058,0.0142033,-0.000218583,-1.12057,0.00954256,0.0371118,1518,1744,7.84866,-34.906
301,-720,7.88635,34.5424,0.00329991,0.014049,-0.00649608,0.0171057,0.000243283,-1.131,0.0113236,0.0381056,1525,1744,7.88631,-34.5423
308,-720,7.65112,34.322,0.00398626,0.0166709,-0.00756316,0.0201991,0.000458093,-1.13431,0.013316,0.0381708,1532,1744,7.65107,-34.3221
315,-720,7.95703,33.2661,0.00456978,0.019114,-0.00855732,0.0230718,0.000611973,-1.13759,0.0151813,0.0446646,1539,1744,7.95705,-33.2661
322,-720,8.24524,32.7849,0,0,0,0,0,0,0,-1,1546,1744,8.24526,-32.7849
329,-720,8.44019,32.8944,0,0,0,0,0,0,0,-1,1553,1744,8.44017,-32.8944
336,-720,6.14148,26.5682,0,0,0,0,0,0,0,-1,1560,1744,6.14151,-26.5683
343,-720,6.78552,21.3625,0,0,0,0,0,0,0,-1,1567,1744,6.78551,-21.3625
350,-720,4.0741,11.1836,0,0,0,0,0,0,0,-1,1574,1744,4.07412,-11.1836
357,-720,6.90833,21.4504,0,0,0,0,0,0,0,-1,1581,1744,6.90827,-21.4505
364,-720,5.83777,24.1599,0,0,0,0,0,0,0,-1,1588,1744,5.83773,-24.1599
371,-720,5.46997,23.6176,0,0,0,0,0,0,0,-1,1595,1744,5.47001,-23.6176
378,-720,3.88257,25.5404,0,0,0,0,0,0,0,-1,1602,1744,3.88262,-25.5404
385,-720,4.63611,25.6746,0,0,0,0,0,0,0,-1,1609,1744,4.63612,-25.6746
392,-720,3.49377,23.5042,0,0,0,0,0,0,0,-1,1616,1744,3.4938,-23.5042
399,-720,2.37317,24.7166,0,0,0,0,0,0,0,-1,1623,1744,2.37317,-24.7166
406,-720,0,0,0,0,0,0,0,0,0,-1,1630,1744,0,0
413,-720,0,0,0,0,0,0,0,0,0,-1,1637,1744,0,0
420,-720,0,0,0,0,0,0,0,0,0,-1,1644,1744,0,0
427,-720,0,0,0,0,0,0,0,0,0,-1,1651,1744,0,0
434,-720,0,0,0,0,0,0,0,0,0,-1,1658,1744,0,0
441,-720,0,0,0,0,0,0,0,0,0,-1,1665,1744,0,0
448,-720,0,0,0,0,0,0,0,0,0,-1,1672,1744,0,0
455,-720,0,0,0,0,0,0,0,0,0,-1,1679,1744,0,0
462,-720,0,0,0,0,0,0,0,0,0,-1,1686,1744,0,0
469,-720,0,0,0,0,0,0,0,0,0,-1,1693,1744,0,0
476,-720,0,0,0,0,0,0,0,0,0,-1,1700,1744,0,0
483,-720,0,0,0,0,0,0,0,0,0,-1,1707,1744,0,0
490,-720,0,0,0,0,0,0,0,0,0,-1,1714,1744,0,0
497,-720,0,0,0,0,0,0,0,0,0,-1,1721,1744,0,0
504,-720,0,0,0,0,0,0,0,0,0,-1,1728,1744,0,0
511,-720,0,0,0,0,0,0,0,0,0,-1,1735,1744,0,0
518,-720,0,0,0,0,0,0,0,0,0,-1,1742,1744,0,0
525,-720,0,0,0,0,0,0,0,0,0,-1,1749,1744,0,0
532,-720,0,0,0,0,0,0,0,0,0,-1,1756,1744,0,0
539,-720,0,0,0,0,0,0,0,0,0,-1,1763,1744,0,0
546,-720,0,0,0,0,0,0,0,0,0,-1,1770,1744,0,0
553,-720,0,0,0,0,0,0,0,0,0,-1,1777,1744,0,0
560,-720,0,0,0,0,0,0,0,0,0,-1,1784,1744,0,0
567,-720,0,0,0,0,0,0,0,0,0,-1,1791,1744,0,0
574,-720,0,0,0,0,0,0,0,0,0,-1,1798,1744,0,0
581,-720,0,0,0,0,0,0,0,0,0,-1,1805,1744,0,0
588,-720,0,0,0,0,0,0,0,0,0,-1,1812,1744,0,0
595,-720,0,0,0,0,0,0,0,0,0,-1,1819,1744,0,0
602,-720,0,0,0,0,0,0,0,0,0,-1,1826,1744,0,0
609,-720,0,0,0,0,0,0,0,0,0,-1,1833,1744,0,0
616,-720,0,0,0,0,0,0,0,0,0,-1,1840,1744,0,0
623,-720,0,0,0,0,0,0,0,0,0,-1,1847,1744,0,0
630,-720,0,0,0,0,0,0,0,0,0,-1,1854,1744,0,0
637,-720,0,0,0,0,0,0,0,0,0,-1,1861,1744,0,0
644,-720,0,0,0,0,0,0,0,0,0,-1,1868,1744,0,0
651,-720,0,0,0,0,0,0,0,0,0,-1,1875,1744,0,0
658,-720,0,0,0,0,0,0,0,0,0,-1,1882,1744,0,0
665,-720,0,0,0,0,0,0,0,0,0,-1,1889,1744,0,0
672,-720,0,0,0,0,0,0,0,0,0,-1,1896,1744,0,0
679,-720,0,0,0,0,0,0,0,0,0,-1,1903,1744,0,0
686,-720,0,0,0,0,0,0,0,0,0,-1,1910,1744,0,0
693,-720,0,0,0,0,0,0,0,0,0,-1,1917,1744,0,0
700,-720,0,0,0,0,0,0,0,0,0,-1,1924,1744,0,0
707,-720,0,0,0,0,0,0,0,0,0,-1,1931,1744,0,0
714,-720,0,0,0,0,0,0,0,0,0,-1,1938,1744,0,0
721,-720,0,0,0,0,0,0,0,0,0,-1,1945,1744,0,0
728,-720,0,0,0,0,0,0,0,0,0,-1,1952,1744,0,0
735,-720,0,0,0,0,0,0,0,0,0,-1,1959,1744,0,0
742,-720,0,0,0,0,0,0,0,0,0,-1,1966,1744,0,0
749,-720,0,0,0,0,0,0,0,0,0,-1,1973,1744,0,0
756,-720,0,0,0,0,0,0,0,0,0,-1,1980,1744,0,0
763,-720,0,0,0,0,0,0,0,0,0,-1,1987,1744,0,0
770,-720,0,0,0,0,0,0,0,0,0,-1,1994,1744,0,0
777,-720,0,0,0,0,0,0,0,0,0,-1,2001,1744,0,0
784,-720,0,0,0,0,0,0,0,0,0,-1,2008,1744,0,0
791,-720,0,0,0,0,0,0,0,0,0,-1,2015,1744,0,0
798,-720,0,0,0,0,0,0,0,0,0,-1,2022,1744,0,0
805,-720,0,0,0,0,0,0,0,0,0,-1,2029,1744,0,0
812,-720,0,0,0,0,0,0,0,0,0,-1,2036,1744,0,0
-700,-727,0,0,0,0,0,0,0,0,0,-1,524,1751,0,0
-693,-727,0,0,0,0,0,0,0,0,0,-1,531,1751,0,0
-686,-727,0,0,0,0,0,0,0,0,0,-1,538,1751,0,0
-679,-727,0,0,0,0,0,0,0,0,0,-1,545,1751,0,0
-672,-727,0,0,0,0,0,0,0,0,0,-1,552,1751,0,0
-665,-727,0,0,0,0,0,0,0,0,0,-1,559,1751,0,0
-658,-727,0,0,0,0,0,0,0,0,0,-1,566,1751,0,0
-651,-727,0,0,0,0,0,0,0,0,0,-1,573,1751,0,0
-644,-727,0,0,0,0,0,0,0,0,0,-1,580,1751,0,0
-637,-727,0,0,0,0,0,0,0,0,0,-1,587,1751,0,0
-630,-727,0,0,0,0,0,0,0,0,0,-1,594,1751,0,0
-623,-727,0,0,0,0,0,0,0,0,0,-1,601,1751,0,0
-616,-727,0,0,0,0,0,0,0,0,0,-1,608,1751,0,0
-609,-727,0,0,0,0,0,0,0,0,0,-1,615,1751,0,0
-602,-727,0,0,0,0,0,0,0,0,0,-1,622,1751,0,0
-595,-727,0,0,0,0,0,0,0,0,0,-1,629,1751,0,0
-588,-727,0,0,0,0,0,0,0,0,0,-1,636,1751,0,0
-581,-727,0,0,0,0,0,0,0,0,0,-1,643,1751,0,0
-574,-727,0,0,0,0,0,0,0,0,0,-1,650,1751,0,0
-567,-727,0,0,0,0,0,0,0,0,0,-1,657,1751,0,0
-560,-727,0,0,0,0,0,0,0,0,0,-1,664,1751,0,0
-553,-727,0,0,0,0,0,0,0,0,0,-1,671,1751,0,0
-546,-727,0,0,0,0,0,0,0,0,0,-1,678,1751,0,0
-539,-727,0,0,0,0,0,0,0,0,0,-1,685,1751,0,0
-532,-727,0,0,0,0,0,0,0,0,0,-1,692,1751,0,0
-525,-727,0,0,0,0,0,0,0,0,0,-1,699,1751,0,0
-518,-727,0,0,0,0,0,0,0,0,0,-1,706,1751,0,0
-511,-727,0,0,0,0,0,0,0,0,0,-1,713,1751,0,0
-504,-727,0,0,0,0,0,0,0,0,0,-1,720,1751,0,0
-497,-727,0,0,0,0,0,0,0,0,0,-1,727,1751,0,0
-490,-727,0,0,0,0,0,0,0,0,0,-1,734,1751,0,0
-483,-727,0,0,0,0,0,0,0,0,0,-1,741,1751,0,0
-476,-727,0,0,0,0,0,0,0,0,0,-1,748,1751,0,0
-469,-727,0,0,0,0,0,0,0,0,0,-1,755,1751,0,0
-462,-727,0,0,0,0,0,0,0,0,0,-1,762,1751,0,0
-455,-727,0,0,0,0,0,0,0,0,0,-1,769,1751,0,0
-448,-727,0,0,0,0,0,0,0,0,0,-1,776,1751,0,0
-441,-727,0,0,0,0,0,0,0,0,0,-1,783,1751,0,0
-434,-727,0,0,0,0,0,0,0,0,0,-1,790,1751,0,0
-427,-727,0,0,0,0,0,0,0,0,0,-1,797,1751,0,0
-420,-727,0,0,0,0,0,0,0,0,0,-1,804,1751,0,0
-413,-727,0,0,0,0,0,0,0,0,0,-1,811,1751,0,0
-406,-727,0,0,0,0,0,0,0,0,0,-1,818,1751,0,0
-399,-727,0,0,0,0,0,0,0,0,0,-1,825,1751,0,0
-392,-727,0,0,0,0,0,0,0,0,0,-1,832,1751,0,0
-385,-727,0,0,0,0,0,0,0,0,0,-1,839,1751,0,0
-378,-727,0,0,0,0,0,0,0,0,0,-1,846,1751,0,0
-371,-727,0,0,0,0,0,0,0,0,0,-1,853,1751,0,0
-364,-727,0,0,0,0,0,0,0,0,0,-1,860,1751,0,0
-357,-727,0,0,0,0,0,0,0,0,0,-1,867,1751,0,0
-350,-727,0,0,0,0,0,0,0,0,0,-1,874,1751,0,0
-343,-727,0,0,0,0,0,0,0,0,0,-1,881,1751,0,0
-336,-727,0,0,0,0,0,0,0,0,0,-1,888,1751,0,0
-329,-727,0,0,0,0,0,0,0,0,0,-1,895,1751,0,0
-322,-727,0,0,0,0,0,0,0,0,0,-1,902,1751,0,0
-315,-727,0,0,0,0,0,0,0,0,0,-1,909,1751,0,0
-308,-727,0,0,0,0,0,0,0,0,0,-1,916,1751,0,0
-301,-727,0,0,0,0,0,0,0,0,0,-1,923,1751,0,0
-294,-727,0,0,0,0,0,0,0,0,0,-1,930,1751,0,0
-287,-727,0,0,0,0,0,0,0,0,0,-1,937,1751,0,0
-280,-727,0,0,0,0,0,0,0,0,0,-1,944,1751,0,0
-273,-727,0,0,0,0,0,0,0,0,0,-1,951,1751,0,0
-266,-727,4.24805,7.61145,0,0,0,0,0,0,0,-1,958,1751,4.24802,-7.6115
-259,-727,3.65228,5.4082,0,0,0,0,0,0,0,-1,965,1751,3.65229,-5.40818
-252,-727,5.8797,32.9292,0,0,0,0,0,0,0,-1,972,1751,5.87972,-32.9292
-245,-727,6.59198,32.2588,0,0,0,0,0,0,0,-1,979,1751,6.59195,-32.2587
-238,-727,6.6189,30.4597,0,0,0,0,0,0,0,-1,986,1751,6.61889,-30.4598
-231,-727,6.70105,28.9473,0,0,0,0,0,0,0,-1,993,1751,6.70103,-28.9472
-224,-727,7.0614,27.79,0,0,0,0,0,0,0,-1,1000,1751,7.06139,-27.79
-217,-727,4.72937,32.0111,0,0,0,0,0,0,0,-1,1007,1751,4.72935,-32.0111
-210,-727,5.0921,32.4524,0,0,0,0,0,0,0,-1,1014,1751,5.09209,-32.4523
-203,-727,7.72632,29.3203,0,0,0,0,0,0,0,-1,1021,1751,7.72626,-29.3203
-196,-727,8.28052,30.7444,0,0,0,0,0,0,0,-1,1028,1751,8.28049,-30.7444
-189,-727,8.21594,32.4889,0,0,0,0,0,0,0,-1,1035,1751,8.21595,-32.4889
-182,-727,8.62329,34.9381,0,0,0,0,0,0,0,-1,1042,1751,8.62335,-34.9381
-175,-727,8.6366,35.3279,0,0,0,0,0,0,0,-1,1049,1751,8.63659,-35.3279
-168,-727,7.75708,35.0636,0,0,0,0,0,0,0,-1,1056,1751,7.75713,-35.0636
-161,-727,8.00061,35.1952,0,0,0,0,0,0,0,-1,1063,1751,8.00063,-35.1951
-154,-727,8.26855,35.3607,0,0,0,0,0,0,0,-1,1070,1751,8.26859,-35.3607
-147,-727,7.91223,35.4263,0,0,0,0,0,0,0,-1,1077,1751,7.91223,-35.4263
-140,-727,8.11902,35.553,9.34841e-05,-0.00248881,0.00341723,0.00245535,-0.00485068,0.604771,0.00429304,0.0310476,1084,1751,8.11903,-35.553
-133,-727,8.21802,35.8713,-1.60627e-05,-0.00109756,0.00300594,0.00249738,-0.003611,0.696403,0.00354616,0.0220469,1091,1751,8.21796,-35.8713
-126,-727,8.14941,36.1945,-0.000257833,0.000523769,0.00266673,0.00282818,-0.00256224,0.858154,0.00311342,0.0149052,1098,1751,8.14945,-36.1944
-119,-727,8.14771,36.4955,-0.000527048,0.00107562,0.0021769,0.00259399,-0.00204542,0.961755,0.0026848,0.0123002,1105,1751,8.14766,-36.4955
-112,-727,8.13635,36.7052,-0.000595937,0.0019103,0.00197073,0.00299258,-0.00167821,1.06859,0.00273204,0.0132227,1112,1751,8.13631,-36.7052
-105,-727,8.08545,36.9392,-0.000700235,0.00253988,0.0016965,0.00326561,-0.00142596,1.16657,0.00277723,0.0134686,1119,1751,8.08547,-36.9391
-98,-727,8.08997,37.184,-0.000685493,0.00296156,0.00161751,0.00357557,-0.00129951,1.208,0.00291509,0.0114641,1126,1751,8.08992,-37.1839
-91,-727,8.07434,37.4016,-0.000588294,0.00328913,0.00158108,0.0038521,-0.00115127,1.22873,0.00302573,0.011094,1133,1751,8.07439,-37.4016
-84,-727,8.02722,37.5902,-0.000766548,0.00329144,0.00152755,0.00380217,-0.00127728,1.24813,0.003051,0.0112383,1140,1751,8.02726,-37.5902
-77,-727,8.01624,37.8024,-0.000604697,0.00314027,0.00158372,0.00372021,-0.00118463,1.21978,0.00295525,0.0123101,1147,1751,8.01629,-37.8024
-70,-727,8.00586,38.0088,-0.000398199,0.00293142,0.00141269,0.00345002,-0.000916801,1.21897,0.00265883,0.0140849,1154,1751,8.00581,-38.0087
-63,-727,7.99341,38.1855,-0.00137011,0.00188839,0.000629343,0.00200571,-0.00148744,1.38649,0.00202416,0.0115104,1161,1751,7.99346,-38.1855
-56,-727,7.97058,38.3601,-0.00201289,0.00155163,0.000279298,0.00157338,-0.00203464,1.49307,0.00208876,0.0108605,1168,1751,7.97054,-38.3601
-49,-727,7.95703,38.5278,-0.00193883,0.00111756,0.000259972,0.00113952,-0.00196079,1.48654,0.00181077,0.0134671,1175,1751,7.95697,-38.5278
-42,-727,7.94971,38.6705,-0.00181368,0.000158701,0.00013305,0.000167635,-0.00182261,1.50374,0.00127463,0.0168339,1182,1751,7.94973,-38.6706
-35,-727,7.92847,38.795,-0.00194955,-0.000617559,-0.000129723,-0.000605043,-0.00196207,-1.47461,0.0011602,0.0148817,1189,1751,7.92845,-38.795
-28,-727,7.92834,38.9286,-0.00212981,-0.00109105,-9.55744e-05,-0.00108233,-0.00213853,-1.47981,0.00123471,0.00909415,1196,1751,7.92832,-38.9286
-21,-727,7.91724,39.0673,-0.00201706,-0.00116741,-3.92114e-05,-0.0011656,-0.00201887,-1.52478,0.00117023,0.0109228,1203,1751,7.91718,-39.0672
-14,-727,7.92761,39.1919,-0.0013196,-0.000611402,9.76684e-05,-0.000598179,-0.00133283,1.43623,0.000770851,0.0121461,1210,1751,7.92756,-39.1919
-7,-727,7.93237,39.3057,-0.000617055,0.000227038,3.69941e-05,0.000228656,-0.000618673,1.52708,0.000506186,0.0150508,1217,1751,7.93238,-39.3056
0,-727,7.9198,39.4176,0.000151233,0.00161556,1.39233e-05,0.00161569,0.000151101,1.56129,0.00103046,0.0145968,1224,1751,7.91974,-39.4177
7,-727,7.90881,39.4949,0.00109712,0.00332505,-0.000137274,0.00333348,0.0010887,-1.50949,0.00196279,0.0140212,1231,1751,7.90883,-39.4949
14,-727,7.92676,39.5698,0.00205448,0.00503767,-0.000281556,0.00506401,0.00202814,-1.47751,0.00294294,0.0145313,1238,1751,7.92679,-39.5699
21,-727,7.91797,39.6409,0.00302609,0.00694964,-0.00062117,0.00704563,0.0029301,-1.41747,0.00408695,0.0125207,1245,1751,7.91798,-39.6408
28,-727,7.93408,39.6945,0.00374162,0.00861355,-0.00100496,0.00881271,0.00354246,-1.37516,0.00512051,0.0101855,1252,1751,7.93405,-39.6945
35,-727,7.9613,39.7659,0.00421909,0.00975728,-0.00133057,0.0100604,0.003916,-1.34683,0.00585566,0.0119194,1259,1751,7.96134,-39.7658
42,-727,7.93127,39.7844,0.00448462,0.0106866,-0.0016537,0.0111,0.00407122,-1.32584,0.00648395,0.0120921,1266,1751,7.93131,-39.7844
49,-727,7.90332,39.79,0.00434023,0.0111174,-0.00193849,0.0116327,0.00382494,-1.31098,0.00684611,0.0101246,1273,1751,7.90327,-39.79
56,-727,7.90771,39.849,0.00390362,0.011178,-0.00229036,0.0118391,0.00324256,-1.28981,0.00706442,0.00870346,1280,1751,7.90766,-39.849
63,-727,7.92749,39.855,0.00326543,0.010894,-0.00245456,0.0116155,0.0025439,-1.28489,0.00705041,0.0109849,1287,1751,7.92751,-39.8549
70,-727,7.93079,39.8438,0.00272792,0.0100726,-0.0022635,0.0107141,0.00208638,-1.29461,0.00655883,0.0137013,1294,1751,7.93076,-39.8437
77,-727,7.9447,39.8685,0.00230026,0.00888147,-0.00204131,0.00946321,0.00171852,-1.29317,0.00582115,0.0156223,1301,1751,7.94476,-39.8686
84,-727,7.95837,39.8119,0.00158024,0.00748995,-0.00170392,0.00794603,0.00112416,-1.30926,0.00496524,0.0151897,1308,1751,7.9584,-39.8118
91,-727,7.95227,39.7533,0.000801066,0.00600555,-0.00132432,0.00632315,0.000483464,-1.33542,0.00406387,0.0157843,1315,1751,7.95232,-39.7533
98,-727,7.92834,39.7416,0.000431952,0.00443027,-0.000796489,0.0045831,0.000279128,-1.38123,0.00296673,0.0134315,1322,1751,7.92839,-39.7416
105,-727,7.93335,39.7216,0.000395294,0.00305439,-0.000294455,0.00308661,0.000363078,-1.46182,0.00194803,0.0130347,1329,1751,7.93335,-39.7215
112,-727,7.9386,39.6599,0.000430774,0.00173996,0.000210946,0.00177311,0.000397624,1.41492,0.00107434,0.0112129,1336,1751,7.93855,-39.6599
119,-727,7.94189,39.5791,0.000540023,0.000633923,0.000476553,0.00106583,0.000108113,0.8345,0.0006774,0.00908978,1343,1751,7.94189,-39.5791
126,-727,7.95471,39.5,0.000638975,-0.00044608,0.000758408,0.00102893,-0.000836032,0.474921,0.00107865,0.0105748,1350,1751,7.95472,-39.5
133,-727,7.96082,39.4402,0.000778048,-0.0010688,0.000897979,0.00114268,-0.00143343,0.385715,0.00149047,0.01501,1357,1751,7.96087,-39.4401
140,-727,7.97412,39.3508,0.000765863,-0.00130251,0.000890198,0.00109623,-0.00163287,0.355357,0.00158577,0.021689,1364,1751,7.97415,-39.3508
147,-727,7.97046,39.2191,0.000635022,-0.0014377,0.000921516,0.000985468,-0.00178815,0.363403,0.00162355,0.0175475,1371,1751,7.97046,-39.2192
154,-727,7.95325,39.0878,0.00038431,-0.00138499,0.000798389,0.000691311,-0.00169199,0.367095,0.00141585,0.0107748,1378,1751,7.95323,-39.0878
161,-727,7.92957,38.9766,-6.07478e-05,-0.00113061,0.000632184,0.000232455,-0.00142382,0.434266,0.00103543,0.00914001,1385,1751,7.92955,-38.9766
168,-727,7.88818,38.8405,-0.000280311,-0.00101326,0.000341719,-0.000145711,-0.00114786,0.375229,0.00072159,0.0123921,1392,1751,7.88815,-38.8404
175,-727,7.88159,38.694,-0.000545017,-0.00067178,-0.000352564,-0.000250183,-0.000966615,-0.696462,0.000579312,0.0184726,1399,1751,7.88154,-38.694
182,-727,7.90857,38.5422,-0.00107661,-8.00753e-05,-0.000965683,0.00050831,-0.00166499,-1.02357,0.00131266,0.01901,1406,1751,7.90857,-38.5423
189,-727,7.89465,38.3685,-0.00133218,0.000482075,-0.0011995,0.00107884,-0.00192894,-1.10914,0.00175951,0.0118778,1413,1751,7.89465,-38.3685
196,-727,7.8772,38.2168,-0.00160499,0.00138079,-0.00146035,0.00197628,-0.00220048,-1.18361,0.00241261,0.0135753,1420,1751,7.87721,-38.2168
203,-727,7.85779,38.049,-0.0016735,0.00242207,-0.00168945,0.00302903,-0.00228046,-1.22589,0.00307557,0.0157612,1427,1751,7.85783,-38.0489
210,-727,7.83643,37.8767,-0.00137715,0.00330577,-0.0020698,0.00408945,-0.00216083,-1.20885,0.00366542,0.0146268,1434,1751,7.83643,-37.8767
217,-727,7.79858,37.6674,-0.00115822,0.00374493,-0.00237326,0.00470548,-0.00211877,-1.18621,0.00403323,0.0116968,1441,1751,7.7986,-37.6673
224,-727,7.79163,37.4259,-0.00108208,0.0039625,-0.00262,0.00507702,-0.00219659,-1.1686,0.00430779,0.0127077,1448,1751,7.79167,-37.4259
231,-727,7.80103,37.2268,-0.00112295,0.00403377,-0.00281334,0.00527154,-0.00236072,-1.15632,0.00451205,0.0102984,1455,1751,7.80102,-37.2268
238,-727,7.77661,37.0215,-0.00104067,0.00396723,-0.00289397,0.00529014,-0.00236358,-1.14203,0.00452527,0.0105599,1462,1751,7.77662,-37.0215
245,-727,7.76685,36.821,-0.00071726,0.00384552,-0.00302408,0.00535224,-0.00222398,-1.10856,0.00449671,0.0102378,1469,1751,7.76686,-36.821
252,-727,7.74878,36.574,-0.000539167,0.00422479,-0.00317879,0.00581503,-0.00212941,-1.10694,0.00474841,0.0108575,1476,1751,7.74884,-36.574
259,-727,7.73779,36.329,-0.000244138,0.00449103,-0.0033442,0.0062209,-0.00197401,-1.09343,0.00493857,0.0138011,1483,1751,7.73776,-36.329
266,-727,7.72498,36.1411,0.000576583,0.00591684,-0.00395883,0.00802185,-0.00152843,-1.08209,0.00592347,0.0195555,1490,1751,7.72495,-36.1411
273,-727,7.7561,35.918,0.0011333,0.00726187,-0.00445263,0.00960274,-0.00120757,-1.08678,0.00683998,0.0370364,1497,1751,7.7561,-35.918
280,-727,7.60083,35.7277,0,0,0,0,0,0,0,-1,1504,1751,7.60081,-35.7277
287,-727,7.32458,35.2323,0,0,0,0,0,0,0,-1,1511,1751,7.32456,-35.2323
294,-727,7.47205,34.8502,0.00394397,0.0153748,-0.00748481,0.0190769,0.000241943,-1.11147,0.012638,0.0482016,1518,1751,7.47203,-34.8502
301,-727,7.50024,34.3499,0.00512787,0.0189813,-0.00860924,0.0231044,0.00100478,-1.12416,0.0150792,0.0475874,1525,1751,7.50027,-34.3499
308,-727,7.56458,33.6781,0,0,0,0,0,0,0,-1,1532,1751,7.56452,-33.6781
315,-727,7.83875,32.5284,0,0,0,0,0,0,0,-1,1539,1751,7.83871,-32.5284
322,-727,8.30127,31.8179,0,0,0,0,0,0,0,-1,1546,1751,8.30126,-31.8179
329,-727,5.54419,31.0325,0,0,0,0,0,0,0,-1,1553,1751,5.54425,-31.0325
336,-727,5.55823,20.2439,0,0,0,0,0,0,0,-1,1560,1751,5.55829,-20.2438
343,-727,2.41699,8.72095,0,0,0,0,0,0,0,-1,1567,1751,2.41702,-8.72098
350,-727,3.89783,7.50195,0,0,0,0,0,0,0,-1,1574,1751,3.89782,-7.50193
357,-727,4.48462,10.2948,0,0,0,0,0,0,0,-1,1581,1751,4.48464,-10.2948
364,-727,6.96729,17.2365,0,0,0,0,0,0,0,-1,1588,1751,6.96732,-17.2365
371,-727,5.04565,23.2227,0,0,0,0,0,0,0,-1,1595,1751,5.04564,-23.2227
378,-727,4.56726,23.0574,0,0,0,0,0,0,0,-1,1602,1751,4.56727,-23.0574
385,-727,3.52307,22.6431,0,0,0,0,0,0,0,-1,1609,1751,3.52303,-22.643
392,-727,0,0,0,0,0,0,0,0,0,-1,1616,1751,0,0
399,-727,0,0,0,0,0,0,0,0,0,-1,1623,1751,0,0
406,-727,0,0,0,0,0,0,0,0,0,-1,1630,1751,0,0
413,-727,0,0,0,0,0,0,0,0,0,-1,1637,1751,0,0
420,-727,0,0,0,0,0,0,0,0,0,-1,1644,1751,0,0
427,-727,0,0,0,0,0,0,0,0,0,-1,1651,1751,0,0
434,-727,0,0,0,0,0,0,0,0,0,-1,1658,1751,0,0
441,-727,0,0,0,0,0,0,0,0,0,-1,1665,1751,0,0
448,-727,0,0,0,0,0,0,0,0,0,-1,1672,1751,0,0
455,-727,0,0,0,0,0,0,0,0,0,-1,1679,1751,0,0
462,-727,0,0,0,0,0,0,0,0,0,-1,1686,1751,0,0
469,-727,0,0,0,0,0,0,0,0,0,-1,1693,1751,0,0
476,-727,0,0,0,0,0,0,0,0,0,-1,1700,1751,0,0
483,-727,0,0,0,0,0,0,0,0,0,-1,1707,1751,0,0
490,-727,0,0,0,0,0,0,0,0,0,-1,1714,1751,0,0
497,-727,0,0,0,0,0,0,0,0,0,-1,1721,1751,0,0
504,-727,0,0,0,0,0,0,0,0,0,-1,1728,1751,0,0
511,-727,0,0,0,0,0,0,0,0,0,-1,1735,1751,0,0
518,-727,0,0,0,0,0,0,0,0,0,-1,1742,1751,0,0
525,-727,0,0,0,0,0,0,0,0,0,-1,1749,1751,0,0
532,-727,0,0,0,0,0,0,0,0,0,-1,1756,1751,0,0
539,-727,0,0,0,0,0,0,0,0,0,-1,1763,1751,0,0
546,-727,0,0,0,0,0,0,0,0,0,-1,1770,1751,0,0
553,-727,0,0,0,0,0,0,0,0,0,-1,1777,1751,0,0
560,-727,0,0,0,0,0,0,0,0,0,-1,1784,1751,0,0
567,-727,0,0,0,0,0,0,0,0,0,-1,1791,1751,0,0
574,-727,0,0,0,0,0,0,0,0,0,-1,1798,1751,0,0
581,-727,0,0,0,0,0,0,0,0,0,-1,1805,1751,0,0
588,-727,0,0,0,0,0,0,0,0,0,-1,1812,1751,0,0
595,-727,0,0,0,0,0,0,0,0,0,-1,1819,1751,0,0
602,-727,0,0,0,0,0,0,0,0,0,-1,1826,1751,0,0
609,-727,0,0,0,0,0,0,0,0,0,-1,1833,1751,0,0
616,-727,0,0,0,0,0,0,0,0,0,-1,1840,1751,0,0
623,-727,0,0,0,0,0,0,0,0,0,-1,1847,1751,0,0
630,-727,0,0,0,0,0,0,0,0,0,-1,1854,1751,0,0
637,-727,0,0,0,0,0,0,0,0,0,-1,1861,1751,0,0
644,-727,0,0,0,0,0,0,0,0,0,-1,1868,1751,0,0
651,-727,0,0,0,0,0,0,0,0,0,-1,1875,1751,0,0
658,-727,0,0,0,0,0,0,0,0,0,-1,1882,1751,0,0
665,-727,0,0,0,0,0,0,0,0,0,-1,1889,1751,0,0
672,-727,0,0,0,0,0,0,0,0,0,-1,1896,1751,0,0
679,-727,0,0,0,0,0,0,0,0,0,-1,1903,1751,0,0
686,-727,0,0,0,0,0,0,0,0,0,-1,1910,1751,0,0
693,-727,0,0,0,0,0,0,0,0,0,-1,1917,1751,0,0
700,-727,0,0,0,0,0,0,0,0,0,-1,1924,1751,0,0
707,-727,0,0,0,0,0,0,0,0,0,-1,1931,1751,0,0
714,-727,0,0,0,0,0,0,0,0,0,-1,1938,1751,0,0
721,-727,0,0,0,0,0,0,0,0,0,-1,1945,1751,0,0
728,-727,0,0,0,0,0,0,0,0,0,-1,1952,1751,0,0
735,-727,0,0,0,0,0,0,0,0,0,-1,1959,1751,0,0
742,-727,0,0,0,0,0,0,0,0,0,-1,1966,1751,0,0
749,-727,0,0,0,0,0,0,0,0,0,-1,1973,1751,0,0
756,-727,0,0,0,0,0,0,0,0,0,-1,1980,1751,0,0
763,-727,0,0,0,0,0,0,0,0,0,-1,1987,1751,0,0
770,-727,0,0,0,0,0,0,0,0,0,-1,1994,1751,0,0
777,-727,0,0,0,0,0,0,0,0,0,-1,2001,1751,0,0
784,-727,0,0,0,0,0,0,0,0,0,-1,2008,1751,0,0
791,-727,0,0,0,0,0,0,0,0,0,-1,2015,1751,0,0
798,-727,0,0,0,0,0,0,0,0,0,-1,2022,1751,0,0
805,-727,0,0,0,0,0,0,0,0,0,-1,2029,1751,0,0
812,-727,0,0,0,0,0,0,0,0,0,-1,2036,1751,0,0
-700,-734,0,0,0,0,0,0,0,0,0,-1,524,1758,0,0
-693,-734,0,0,0,0,0,0,0,0,0,-1,531,1758,0,0
-686,-734,0,0,0,0,0,0,0,0,0,-1,538,1758,0,0
-679,-734,0,0,0,0,0,0,0,0,0,-1,545,1758,0,0
-672,-734,0,0,0,0,0,0,0,0,0,-1,552,1758,0,0
-665,-734,0,0,0,0,0,0,0,0,0,-1,559,1758,0,0
-658,-734,0,0,0,0,0,0,0,0,0,-1,566,1758,0,0
-651,-734,0,0,0,0,0,0,0,0,0,-1,573,1758,0,0
-644,-734,0,0,0,0,0,0,0,0,0,-1,580,1758,0,0
-637,-734,0,0,0,0,0,0,0,0,0,-1,587,1758,0,0
-630,-734,0,0,0,0,0,0,0,0,0,-1,594,1758,0,0
-623,-734,0,0,0,0,0,0,0,0,0,-1,601,1758,0,0
-616,-734,0,0,0,0,0,0,0,0,0,-1,608,1758,0,0
-609,-734,0,0,0,0,0,0,0,0,0,-1,615,1758,0,0
-602,-734,0,0,0,0,0,0,0,0,0,-1,622,1758,0,0
-595,-734,0,0,0,0,0,0,0,0,0,-1,629,1758,0,0
-588,-734,0,0,0,0,0,0,0,0,0,-1,636,1758,0,0
-581,-734,0,0,0,0,0,0,0,0,0,-1,643,1758,0,0
-574,-734,0,0,0,0,0,0,0,0,0,-1,650,1758,0,0
-567,-734,0,0,0,0,0,0,0,0,0,-1,657,1758,0,0
-560,-734,0,0,0,0,0,0,0,0,0,-1,664,1758,0,0
-553,-734,0,0,0,0,0,0,0,0,0,-1,671,1758,0,0
-546,-734,0,0,0,0,0,0,0,0,0,-1,678,1758,0,0
-539,-734,0,0,0,0,0,0,0,0,0,-1,685,1758,0,0
-532,-734,0,0,0,0,0,0,0,0,0,-1,692,1758,0,0
-525,-734,0,0,0,0,0,0,0,0,0,-1,699,1758,0,0
-518,-734,0,0,0,0,0,0,0,0,0,-1,706,1758,0,0
-511,-734,0,0,0,0,0,0,0,0,0,-1,713,1758,0,0
-504,-734,0,0,0,0,0,0,0,0,0,-1,720,1758,0,0
-497,-734,0,0,0,0,0,0,0,0,0,-1,727,1758,0,0
-490,-734,0,0,0,0,0,0,0,0,0,-1,734,1758,0,0
-483,-734,0,0,0,0,0,0,0,0,0,-1,741,1758,0,0
-476,-734,0,0,0,0,0,0,0,0,0,-1,748,1758,0,0
-469,-734,0,0,0,0,0,0,0,0,0,-1,755,1758,0,0
-462,-734,0,0,0,0,0,0,0,0,0,-1,762,1758,0,0
-455,-734,0,0,0,0,0,0,0,0,0,-1,769,1758,0,0
-448,-734,0,0,0,0,0,0,0,0,0,-1,776,1758,0,0
-441,-734,0,0,0,0,0,0,0,0,0,-1,783,1758,0,0
-434,-734,0,0,0,0,0,0,0,0,0,-1,790,1758,0,0
-427,-734,0,0,0,0,0,0,0,0,0,-1,797,1758,0,0
-420,-734,0,0,0,0,0,0,0,0,0,-1,804,1758,0,0
-413,-734,0,0,0,0,0,0,0,0,0,-1,811,1758,0,0
-406,-734,0,0,0,0,0,0,0,0,0,-1,818,1758,0,0
-399,-734,0,0,0,0,0,0,0,0,0,-1,825,1758,0,0
-392,-734,0,0,0,0,0,0,0,0,0,-1,832,1758,0,0
-385,-734,0,0,0,0,0,0,0,0,0,-1,839,1758,0,0
-378,-734,0,0,0,0,0,0,0,0,0,-1,846,1758,0,0
-371,-734,0,0,0,0,0,0,0,0,0,-1,853,1758,0,0
-364,-734,0,0,0,0,0,0,0,0,0,-1,860,1758,0,0
-357,-734,0,0,0,0,0,0,0,0,0,-1,867,1758,0,0
-350,-734,0,0,0,0,0,0,0,0,0,-1,874,1758,0,0
-343,-734,0,0,0,0,0,0,0,0,0,-1,881,1758,0,0
-336,-734,0,0,0,0,0,0,0,0,0,-1,888,1758,0,0
-329,-734,0,0,0,0,0,0,0,0,0,-1,895,1758,0,0
-322,-734,0,0,0,0,0,0,0,0,0,-1,902,1758,0,0
-315,-734,0,0,0,0,0,0,0,0,0,-1,909,1758,0,0
-308,-734,0,0,0,0,0,0,0,0,0,-1,916,1758,0,0
-301,-734,0,0,0,0,0,0,0,0,0,-1,923,1758,0,0
-294,-734,0,0,0,0,0,0,0,0,0,-1,930,1758,0,0
-287,-734,0,0,0,0,0,0,0,0,0,-1,937,1758,0,0
-280,-734,0,0,0,0,0,0,0,0,0,-1,944,1758,0,0
-273,-734,0,0,0,0,0,0,0,0,0,-1,951,1758,0,0
-266,-734,0,0,0,0,0,0,0,0,0,-1,958,1758,0,0
-259,-734,0,0,0,0,0,0,0,0,0,-1,965,1758,0,0
-252,-734,5.73883,31.5245,0,0,0,0,0,0,0,-1,972,1758,5.73884,-31.5246
-245,-734,6.32513,30.9761,0,0,0,0,0,0,0,-1,979,1758,6.32511,-30.9761
-238,-734,6.82385,30.0449,0,0,0,0,0,0,0,-1,986,1758,6.82387,-30.0449
-231,-734,7.1958,29.1666,0,0,0,0,0,0,0,-1,993,1758,7.19578,-29.1666
-224,-734,7.36169,28.5652,0,0,0,0,0,0,0,-1,1000,1758,7.36172,-28.5651
-217,-734,7.45984,28.4386,0,0,0,0,0,0,0,-1,1007,1758,7.45986,-28.4386
-210,-734,7.45483,28.4388,0,0,0,0,0,0,0,-1,1014,1758,7.45482,-28.4388
-203,-734,7.93079,29.6151,0,0,0,0,0,0,0,-1,1021,1758,7.93076,-29.6151
-196,-734,8.34253,30.8267,0,0,0,0,0,0,0,-1,1028,1758,8.34258,-30.8266
-189,-734,8.72375,32.4082,0,0,0,0,0,0,0,-1,1035,1758,8.7237,-32.4082
-182,-734,9.13208,33.4539,0,0,0,0,0,0,0,-1,1042,1758,9.13203,-33.4539
-175,-734,9.48938,34.4182,0,0,0,0,0,0,0,-1,1049,1758,9.48936,-34.4182
-168,-734,8.07043,35.556,0,0,0,0,0,0,0,-1,1056,1758,8.07047,-35.556
-161,-734,8.31165,35.7222,0,0,0,0,0,0,0,-1,1063,1758,8.31165,-35.7221
-154,-734,8.28235,35.2164,0,0,0,0,0,0,0,-1,1070,1758,8.28234,-35.2165
-147,-734,8.45068,35.4974,0,0,0,0,0,0,0,-1,1077,1758,8.45065,-35.4974
-140,-734,8.44189,35.5487,0.000700598,-0.00227601,0.00470517,0.00414724,-0.00572265,0.632221,0.00572253,0.0496841,1084,1758,8.44185,-35.5487
-133,-734,8.5564,35.9331,0.000357075,-0.000455963,0.0041266,0.00409713,-0.00419602,0.736301,0.00478817,0.0453423,1091,1758,8.55642,-35.9332
-126,-734,8.33167,36.1898,-0.000100684,0.00153712,0.00364637,0.00445541,-0.00301897,0.895855,0.00434182,0.0372563,1098,1758,8.33172,-36.1898
-119,-734,8.26025,36.4557,-0.000542086,0.00219634,0.00297438,0.00410153,-0.00244727,1.00111,0.00382095,0.0378687,1105,1758,8.2603,-36.4557
-112,-734,8.34167,36.6694,-0.000685148,0.00331689,0.00272458,0.00469632,-0.00206457,1.10213,0.00400076,0.03567,1112,1758,8.34167,-36.6694
-105,-734,8.3009,36.911,-0.000859302,0.00415986,0.00243682,0.00514829,-0.00184773,1.18545,0.00418631,0.0276155,1119,1758,8.30094,-36.911
-98,-734,8.38269,37.0555,-0.000899917,0.00471618,0.00235197,0.00557104,-0.00175478,1.22218,0.00441672,0.0351895,1126,1758,8.38274,-37.0556
-91,-734,8.30774,37.4139,0,0,0,0,0,0,0,-1,1133,1758,8.30768,-37.414
-84,-734,8.21777,37.5819,0,0,0,0,0,0,0,-1,1140,1758,8.21773,-37.5819
-77,-734,8.18567,37.8159,0,0,0,0,0,0,0,-1,1147,1758,8.18562,-37.8159
-70,-734,8.03809,37.6667,0,0,0,0,0,0,0,-1,1154,1758,8.03805,-37.6667
-63,-734,8.06946,37.9338,-0.00326648,0.00196314,0.000628062,0.00203751,-0.00334085,1.45293,0.00313545,0.0334293,1161,1758,8.06948,-37.9338
-56,-734,8.11902,38.2941,-0.00489748,0.00151255,1.93777e-05,0.00151261,-0.00489754,1.56777,0.00386908,0.0170433,1168,1758,8.11901,-38.294
-49,-734,8.10095,38.5106,-0.00472231,0.000621363,0.000168776,0.000626689,-0.00472764,1.53925,0.00338007,0.0128731,1175,1758,8.10092,-38.5106
-42,-734,8.09241,38.6976,-0.00422765,-0.00089751,3.87667e-06,-0.000897505,-0.00422766,1.56963,0.00257201,0.0141139,1182,1758,8.09235,-38.6976
-35,-734,8.07617,38.8134,-0.00448804,-0.00194915,-0.000417684,-0.0018822,-0.00455499,-1.41186,0.00264299,0.014775,1189,1758,8.07619,-38.8134
-28,-734,8.06665,38.9395,-0.00480091,-0.00275157,-0.000344299,-0.00269528,-0.00485721,-1.40872,0.00280994,0.01084,1196,1758,8.0666,-38.9394
-21,-734,8.07935,39.0707,-0.00471,-0.00324748,-0.000292624,-0.0031911,-0.00476638,-1.38047,0.00280408,0.0167079,1203,1758,8.07934,-39.0707
-14,-734,8.03381,39.2043,-0.00377375,-0.00305062,-0.000143903,-0.00302303,-0.00380133,-1.38141,0.00231875,0.016886,1210,1758,8.0338,-39.2044
-7,-734,8.03674,39.3107,-0.00295878,-0.00270105,-0.000326438,-0.00247896,-0.00318087,-0.973391,0.00192964,0.0184086,1217,1758,8.03669,-39.3107
0,-734,8.02234,39.4094,-0.00214878,-0.001732,-0.000487847,-0.0014099,-0.00247088,-0.98725,0.0014313,0.0175316,1224,1758,8.02229,-39.4094
7,-734,7.99451,39.4868,-0.00119821,-0.000314535,-0.000840429,0.000193124,-0.00170586,-1.02741,0.00120678,0.0129042,1231,1758,7.9945,-39.4869
14,-734,7.98059,39.5831,-0.000302847,0.00120756,-0.00119581,0.00186667,-0.00096196,-1.06704,0.00166072,0.0135053,1238,1758,7.98055,-39.5832
21,-734,7.96216,39.6401,0.000540795,0.00301306,-0.00181922,0.00397638,-0.000422525,-1.08381,0.0028024,0.0119092,1245,1758,7.96211,-39.6402
28,-734,7.9696,39.7054,0.00116825,0.00485897,-0.00248249,0.00610685,-7.96304e-05,-1.10501,0.00409804,0.0107644,1252,1758,7.96961,-39.7055
35,-734,7.97876,39.7861,0.00172211,0.00631566,-0.00313832,0.00790787,0.000129893,-1.10129,0.00522915,0.0145704,1259,1758,7.97879,-39.7862
42,-734,7.98413,39.8019,0.00218197,0.00765404,-0.00379025,0.00959261,0.000243407,-1.09802,0.0063155,0.0120368,1266,1758,7.98416,-39.8018
49,-734,7.95496,39.8046,0.00227068,0.00845243,-0.00435137,0.010699,2.41483e-05,-1.09421,0.0071246,0.00952493,1273,1758,7.95499,-39.8046
56,-734,7.92847,39.8353,0.00206689,0.00889561,-0.00491906,0.0114692,-0.000506651,-1.08878,0.00782046,0.00911903,1280,1758,7.92851,-39.8353
63,-734,7.93091,39.8313,0.00160705,0.00919904,-0.00523206,0.0118671,-0.00106101,-1.09922,0.00828774,0.01171,1287,1758,7.93087,-39.8313
70,-734,7.90991,39.8376,0.00147809,0.00889981,-0.0049822,0.0114013,-0.00102336,-1.10549,0.00796391,0.0122628,1294,1758,7.90991,-39.8376
77,-734,7.92932,39.8733,0.00149198,0.00806102,-0.00466425,0.0104812,-0.000928178,-1.09216,0.00731649,0.0164153,1301,1758,7.92929,-39.8733
84,-734,7.92725,39.8068,0.00110332,0.00687877,-0.00412833,0.00902911,-0.00104702,-1.09059,0.00639703,0.015666,1308,1758,7.92724,-39.8068
91,-734,7.92432,39.7543,0.000502355,0.00546768,-0.00348937,0.00726746,-0.00129743,-1.0946,0.00533035,0.0173934,1315,1758,7.9243,-39.7543
98,-734,7.92236,39.7458,0.000355537,0.00395867,-0.00257296,0.00529809,-0.000983879,-1.09083,0.00390159,0.0133023,1322,1758,7.92236,-39.7459
105,-734,7.91089,39.713,0.000457835,0.00248844,-0.00166467,0.003423,-0.000476722,-1.05924,0.00245638,0.0149634,1329,1758,7.91087,-39.713
112,-734,7.89612,39.6484,0.000568775,0.00111465,-0.000758873,0.00164818,3.52499e-05,-0.958027,0.00108723,0.0127673,1336,1758,7.89606,-39.6485
119,-734,7.87988,39.5479,0.000684968,4.80757e-05,-0.000159453,0.000722659,1.03851e-05,-0.232113,0.000478348,0.0128885,1343,1758,7.87987,-39.5478
126,-734,7.86377,39.4591,0.00069909,-0.000964869,0.000453664,0.00081474,-0.00108052,0.249607,0.00109781,0.0160812,1350,1758,7.86374,-39.4591
133,-734,7.8595,39.4126,0.000645505,-0.00164834,0.000807263,0.000901118,-0.00190396,0.306653,0.00165365,0.0141995,1357,1758,7.85947,-39.4125
140,-734,7.87024,39.3273,0.000342744,-0.00184429,0.000975176,0.000714406,-0.00221595,0.364127,0.00176433,0.0183975,1364,1758,7.87019,-39.3273
147,-734,7.85876,39.1874,5.95287e-06,-0.00196661,0.00111578,0.000508869,-0.00246953,0.423462,0.00183959,0.0136093,1371,1758,7.85877,-39.1874
154,-734,7.83118,39.1094,-0.00037864,-0.00194267,0.0009858,9.76574e-05,-0.00241897,0.450083,0.00164616,0.00976702,1378,1758,7.83116,-39.1094
161,-734,7.81091,38.9865,-0.000953561,-0.00175638,0.000774831,-0.000482335,-0.00222761,0.546402,0.00135326,0.00855382,1385,1758,7.81089,-38.9864
168,-734,7.75293,38.834,-0.00111079,-0.00196766,0.000434997,-0.000928666,-0.00214978,0.396497,0.001245,0.0135778,1392,1758,7.75294,-38.834
175,-734,7.73047,38.7037,-0.00134487,-0.00165895,-0.000724288,-0.000760793,-0.00224302,-0.678643,0.00131715,0.017305,1399,1758,7.73044,-38.7037
182,-734,7.76953,38.5313,-0.00212807,-0.000879492,-0.00171334,0.000319747,-0.00332731,-0.960108,0.00233211,0.0152024,1406,1758,7.76955,-38.5313
189,-734,7.74084,38.3656,-0.00238333,-1.86964e-05,-0.00196713,0.00109408,-0.00349611,-1.05599,0.00276846,0.0114522,1413,1758,7.74083,-38.3656
196,-734,7.70361,38.2313,-0.00272862,0.00139267,-0.0022529,0.00238519,-0.00372114,-1.15583,0.00355351,0.0141471,1420,1758,7.70356,-38.2314
203,-734,7.71863,38.0343,-0.00280992,0.00301511,-0.00246902,0.00392082,-0.00371562,-1.21921,0.00440943,0.0194741,1427,1758,7.71868,-38.0344
210,-734,7.71899,37.8181,-0.00223978,0.00433963,-0.00295833,0.00547416,-0.00337431,-1.20459,0.0051564,0.0288337,1434,1758,7.71897,-37.8182
217,-734,7.6355,37.6443,-0.00179324,0.00500298,-0.00331268,0.0063505,-0.00314076,-1.18446,0.00558325,0.0329591,1441,1758,7.63547,-37.6443
224,-734,7.72424,37.2762,-0.00160834,0.00535236,-0.00357448,0.00686098,-0.00311695,-1.17143,0.00589439,0.0400875,1448,1758,7.72426,-37.2762
231,-734,7.69751,37.1178,-0.00156218,0.00550771,-0.003788,0.00715396,-0.00320843,-1.16083,0.00612558,0.0340551,1455,1758,7.69752,-37.1178
238,-734,7.55212,37.0261,-0.00137858,0.00544404,-0.00388342,0.00720167,-0.00313621,-1.14578,0.00612049,0.0267246,1462,1758,7.55207,-37.0262
245,-734,7.59192,36.7328,-0.000899197,0.00527869,-0.00403575,0.00727195,-0.00289246,-1.11204,0.00604728,0.0283581,1469,1758,7.59188,-36.7328
252,-734,7.58118,36.4781,-0.000576104,0.00571728,-0.00420722,0.00782438,-0.00268321,-1.10648,0.00630396,0.0299795,1476,1758,7.58122,-36.4782
259,-734,7.66003,36.2484,-0.000121097,0.00600228,-0.0043902,0.00829295,-0.00241177,-1.08988,0.00648384,0.0363904,1483,1758,7.66,-36.2484
266,-734,7.68811,36.1771,0.00101266,0.00773504,-0.00513531,0.0105114,-0.00176366,-1.07517,0.00766341,0.0484337,1490,1758,7.68808,-36.1771
273,-734,7.63416,36.0758,0,0,0,0,0,0,0,-1,1497,1758,7.63417,-36.0758
280,-734,5.95288,32.8356,0,0,0,0,0,0,0,-1,1504,1758,5.95285,-32.8356
287,-734,6.56274,36.1718,0,0,0,0,0,0,0,-1,1511,1758,6.56277,-36.1717
294,-734,7.03796,34.969,0,0,0,0,0,0,0,-1,1518,1758,7.03791,-34.969
301,-734,7.51306,33.7662,0,0,0,0,0,0,0,-1,1525,1758,7.51304,-33.7662
308,-734,5.22681,34.1436,0,0,0,0,0,0,0,-1,1532,1758,5.22678,-34.1436
315,-734,7.70288,32.0216,0,0,0,0,0,0,0,-1,1539,1758,7.70288,-32.0216
322,-734,5.74854,28.3324,0,0,0,0,0,0,0,-1,1546,1758,5.74854,-28.3324
329,-734,5.45972,12.4125,0,0,0,0,0,0,0,-1,1553,1758,5.45969,-12.4125
336,-734,5.92188,13.8751,0,0,0,0,0,0,0,-1,1560,1758,5.92183,-13.8751
343,-734,5.54968,5.14221,0,0,0,0,0,0,0,-1,1567,1758,5.54973,-5.14225
350,-734,5.07397,6.73242,0,0,0,0,0,0,0,-1,1574,1758,5.07402,-6.73243
357,-734,5.05542,7.19189,0,0,0,0,0,0,0,-1,1581,1758,5.05541,-7.19184
364,-734,4.43896,10.4904,0,0,0,0,0,0,0,-1,1588,1758,4.43893,-10.4904
371,-734,7.36975,17.4751,0,0,0,0,0,0,0,-1,1595,1758,7.36972,-17.4752
378,-734,0,0,0,0,0,0,0,0,0,-1,1602,1758,0,0
385,-734,0,0,0,0,0,0,0,0,0,-1,1609,1758,0,0
392,-734,0,0,0,0,0,0,0,0,0,-1,1616,1758,0,0
399,-734,0,0,0,0,0,0,0,0,0,-1,1623,1758,0,0
406,-734,0,0,0,0,0,0,0,0,0,-1,1630,1758,0,0
413,-734,0,0,0,0,0,0,0,0,0,-1,1637,1758,0,0
420,-734,0,0,0,0,0,0,0,0,0,-1,1644,1758,0,0
427,-734,0,0,0,0,0,0,0,0,0,-1,1651,1758,0,0
434,-734,0,0,0,0,0,0,0,0,0,-1,1658,1758,0,0
441,-734,0,0,0,0,0,0,0,0,0,-1,1665,1758,0,0
448,-734,0,0,0,0,0,0,0,0,0,-1,1672,1758,0,0
455,-734,0,0,0,0,0,0,0,0,0,-1,1679,1758,0,0
462,-734,0,0,0,0,0,0,0,0,0,-1,1686,1758,0,0
469,-734,0,0,0,0,0,0,0,0,0,-1,1693,1758,0,0
476,-734,0,0,0,0,0,0,0,0,0,-1,1700,1758,0,0
483,-734,0,0,0,0,0,0,0,0,0,-1,1707,1758,0,0
490,-734,0,0,0,0,0,0,0,0,0,-1,1714,1758,0,0
497,-734,0,0,0,0,0,0,0,0,0,-1,1721,1758,0,0
504,-734,0,0,0,0,0,0,0,0,0,-1,1728,1758,0,0
511,-734,0,0,0,0,0,0,0,0,0,-1,1735,1758,0,0
518,-734,0,0,0,0,0,0,0,0,0,-1,1742,1758,0,0
525,-734,0,0,0,0,0,0,0,0,0,-1,1749,1758,0,0
532,-734,0,0,0,0,0,0,0,0,0,-1,1756,1758,0,0
539,-734,0,0,0,0,0,0,0,0,0,-1,1763,1758,0,0
546,-734,0,0,0,0,0,0,0,0,0,-1,1770,1758,0,0
553,-734,0,0,0,0,0,0,0,0,0,-1,1777,1758,0,0
560,-734,0,0,0,0,0,0,0,0,0,-1,1784,1758,0,0
567,-734,0,0,0,0,0,0,0,0,0,-1,1791,1758,0,0
574,-734,0,0,0,0,0,0,0,0,0,-1,1798,1758,0,0
581,-734,0,0,0,0,0,0,0,0,0,-1,1805,1758,0,0
588,-734,0,0,0,0,0,0,0,0,0,-1,1812,1758,0,0
595,-734,0,0,0,0,0,0,0,0,0,-1,1819,1758,0,0
602,-734,0,0,0,0,0,0,0,0,0,-1,1826,1758,0,0
609,-734,0,0,0,0,0,0,0,0,0,-1,1833,1758,0,0
616,-734,0,0,0,0,0,0,0,0,0,-1,1840,1758,0,0
623,-734,0,0,0,0,0,0,0,0,0,-1,1847,1758,0,0
630,-734,0,0,0,0,0,0,0,0,0,-1,1854,1758,0,0
637,-734,0,0,0,0,0,0,0,0,0,-1,1861,1758,0,0
644,-734,0,0,0,0,0,0,0,0,0,-1,1868,1758,0,0
651,-734,0,0,0,0,0,0,0,0,0,-1,1875,1758,0,0
658,-734,0,0,0,0,0,0,0,0,0,-1,1882,1758,0,0
665,-734,0,0,0,0,0,0,0,0,0,-1,1889,1758,0,0
672,-734,0,0,0,0,0,0,0,0,0,-1,1896,1758,0,0
679,-734,0,0,0,0,0,0,0,0,0,-1,1903,1758,0,0
686,-734,0,0,0,0,0,0,0,0,0,-1,1910,1758,0,0
693,-734,0,0,0,0,0,0,0,0,0,-1,1917,1758,0,0
700,-734,0,0,0,0,0,0,0,0,0,-1,1924,1758,0,0
707,-734,0,0,0,0,0,0,0,0,0,-1,1931,1758,0,0
714,-734,0,0,0,0,0,0,0,0,0,-1,1938,1758,0,0
721,-734,0,0,0,0,0,0,0,0,0,-1,1945,1758,0,0
728,-734,0,0,0,0,0,0,0,0,0,-1,1952,1758,0,0
735,-734,0,0,0,0,0,0,0,0,0,-1,1959,1758,0,0
742,-734,0,0,0,0,0,0,0,0,0,-1,1966,1758,0,0
749,-734,0,0,0,0,0,0,0,0,0,-1,1973,1758,0,0
756,-734,0,0,0,0,0,0,0,0,0,-1,1980,1758,0,0
763,-734,0,0,0,0,0,0,0,0,0,-1,1987,1758,0,0
770,-734,0,0,0,0,0,0,0,0,0,-1,1994,1758,0,0
777,-734,0,0,0,0,0,0,0,0,0,-1,2001,1758,0,0
784,-734,0,0,0,0,0,0,0,0,0,-1,2008,1758,0,0
791,-734,0,0,0,0,0,0,0,0,0,-1,2015,1758,0,0
798,-734,0,0,0,0,0,0,0,0,0,-1,2022,1758,0,0
805,-734,0,0,0,0,0,0,0,0,0,-1,2029,1758,0,0
812,-734,0,0,0,0,0,0,0,0,0,-1,2036,1758,0,0
-700,-741,0,0,0,0,0,0,0,0,0,-1,524,1765,0,0
-693,-741,0,0,0,0,0,0,0,0,0,-1,531,1765,0,0
-686,-741,0,0,0,0,0,0,0,0,0,-1,538,1765,0,0
-679,-741,0,0,0,0,0,0,0,0,0,-1,545,1765,0,0
-672,-741,0,0,0,0,0,0,0,0,0,-1,552,1765,0,0
-665,-741,0,0,0,0,0,0,0,0,0,-1,559,1765,0,0
-658,-741,0,0,0,0,0,0,0,0,0,-1,566,1765,0,0
-651,-741,0,0,0,0,0,0,0,0,0,-1,573,1765,0,0
-644,-741,0,0,0,0,0,0,0,0,0,-1,580,1765,0,0
-637,-741,0,0,0,0,0,0,0,0,0,-1,587,1765,0,0
-630,-741,0,0,0,0,0,0,0,0,0,-1,594,1765,0,0
-623,-741,0,0,0,0,0,0,0,0,0,-1,601,1765,0,0
-616,-741,0,0,0,0,0,0,0,0,0,-1,608,1765,0,0
-609,-741,0,0,0,0,0,0,0,0,0,-1,615,1765,0,0
-602,-741,0,0,0,0,0,0,0,0,0,-1,622,1765,0,0
-595,-741,0,0,0,0,0,0,0,0,0,-1,629,1765,0,0
-588,-741,0,0,0,0,0,0,0,0,0,-1,636,1765,0,0
-581,-741,0,0,0,0,0,0,0,0,0,-1,643,1765,0,0
-574,-741,0,0,0,0,0,0,0,0,0,-1,650,1765,0,0
-567,-741,0,0,0,0,0,0,0,0,0,-1,657,1765,0,0
-560,-741,0,0,0,0,0,0,0,0,0,-1,664,1765,0,0
-553,-741,0,0,0,0,0,0,0,0,0,-1,671,1765,0,0
-546,-741,0,0,0,0,0,0,0,0,0,-1,678,1765,0,0
-539,-741,0,0,0,0,0,0,0,0,0,-1,685,1765,0,0
-532,-741,0,0,0,0,0,0,0,0,0,-1,692,1765,0,0
-525,-741,0,0,0,0,0,0,0,0,0,-1,699,1765,0,0
-518,-741,0,0,0,0,0,0,0,0,0,-1,706,1765,0,0
-511,-741,0,0,0,0,0,0,0,0,0,-1,713,1765,0,0
-504,-741,0,0,0,0,0,0,0,0,0,-1,720,1765,0,0
-497,-741,0,0,0,0,0,0,0,0,0,-1,727,1765,0,0
-490,-741,0,0,0,0,0,0,0,0,0,-1,734,1765,0,0
-483,-741,0,0,0,0,0,0,0,0,0,-1,741,1765,0,0
-476,-741,0,0,0,0,0,0,0,0,0,-1,748,1765,0,0
-469,-741,0,0,0,0,0,0,0,0,0,-1,755,1765,0,0
-462,-741,0,0,0,0,0,0,0,0,0,-1,762,1765,0,0
-455,-741,0,0,0,0,0,0,0,0,0,-1,769,1765,0,0
-448,-741,0,0,0,0,0,0,0,0,0,-1,776,1765,0,0
-441,-741,0,0,0,0,0,0,0,0,0,-1,783,1765,0,0
-434,-741,0,0,0,0,0,0,0,0,0,-1,790,1765,0,0
-427,-741,0,0,0,0,0,0,0,0,0,-1,797,1765,0,0
-420,-741,0,0,0,0,0,0,0,0,0,-1,804,1765,0,0
-413,-741,0,0,0,0,0,0,0,0,0,-1,811,1765,0,0
-406,-741,0,0,0,0,0,0,0,0,0,-1,818,1765,0,0
-399,-741,0,0,0,0,0,0,0,0,0,-1,825,1765,0,0
-392,-741,0,0,0,0,0,0,0,0,0,-1,832,1765,0,0
-385,-741,0,0,0,0,0,0,0,0,0,-1,839,1765,0,0
-378,-741,0,0,0,0,0,0,0,0,0,-1,846,1765,0,0
-371,-741,0,0,0,0,0,0,0,0,0,-1,853,1765,0,0
-364,-741,0,0,0,0,0,0,0,0,0,-1,860,1765,0,0
-357,-741,0,0,0,0,0,0,0,0,0,-1,867,1765,0,0
-350,-741,0,0,0,0,0,0,0,0,0,-1,874,1765,0,0
-343,-741,0,0,0,0,0,0,0,0,0,-1,881,1765,0,0
-336,-741,0,0,0,0,0,0,0,0,0,-1,888,1765,0,0
-329,-741,0,0,0,0,0,0,0,0,0,-1,895,1765,0,0
-322,-741,0,0,0,0,0,0,0,0,0,-1,902,1765,0,0
-315,-741,0,0,0,0,0,0,0,0,0,-1,909,1765,0,0
-308,-741,0,0,0,0,0,0,0,0,0,-1,916,1765,0,0
-301,-741,0,0,0,0,0,0,0,0,0,-1,923,1765,0,0
-294,-741,0,0,0,0,0,0,0,0,0,-1,930,1765,0,0
-287,-741,0,0,0,0,0,0,0,0,0,-1,937,1765,0,0
-280,-741,0,0,0,0,0,0,0,0,0,-1,944,1765,0,0
-273,-741,0,0,0,0,0,0,0,0,0,-1,951,1765,0,0
-266,-741,0,0,0,0,0,0,0,0,0,-1,958,1765,0,0
-259,-741,0,0,0,0,0,0,0,0,0,-1,965,1765,0,0
-252,-741,0,0,0,0,0,0,0,0,0,-1,972,1765,0,0
-245,-741,0,0,0,0,0,0,0,0,0,-1,979,1765,0,0
-238,-741,7.13855,29.8348,0,0,0,0,0,0,0,-1,986,1765,7.13856,-29.8348
-231,-741,7.74182,29.3066,0,0,0,0,0,0,0,-1,993,1765,7.74183,-29.3066
-224,-741,7.80078,29.0964,0,0,0,0,0,0,0,-1,1000,1765,7.80079,-29.0964
-217,-741,8.15863,29.113,0,0,0,0,0,0,0,-1,1007,1765,8.15863,-29.1131
-210,-741,8.37024,29.3896,0,0,0,0,0,0,0,-1,1014,1765,8.37022,-29.3896
-203,-741,8.33801,29.8871,0,0,0,0,0,0,0,-1,1021,1765,8.33805,-29.8871
-196,-741,8.75513,30.84,0,0,0,0,0,0,0,-1,1028,1765,8.75516,-30.8399
-189,-741,9.16321,31.9888,0,0,0,0,0,0,0,-1,1035,1765,9.16327,-31.9888
-182,-741,9.71594,33.2998,0,0,0,0,0,0,0,-1,1042,1765,9.71593,-33.2998
-175,-741,7.26477,24.616,0,0,0,0,0,0,0,-1,1049,1765,7.26471,-24.616
-168,-741,5.4801,16.3933,0,0,0,0,0,0,0,-1,1056,1765,5.4801,-16.3933
-161,-741,3.73047,14.4974,0,0,0,0,0,0,0,-1,1063,1765,3.73043,-14.4974
-154,-741,9.02466,35.0419,0,0,0,0,0,0,0,-1,1070,1765,9.02462,-35.0419
-147,-741,8.75903,35.9714,0,0,0,0,0,0,0,-1,1077,1765,8.75906,-35.9714
-140,-741,8.78088,35.6804,0,0,0,0,0,0,0,-1,1084,1765,8.7809,-35.6804
-133,-741,8.99854,36.1885,0,0,0,0,0,0,0,-1,1091,1765,8.99857,-36.1885
-126,-741,8.54578,36.3191,0,0,0,0,0,0,0,-1,1098,1765,8.54582,-36.3191
-119,-741,8.36597,36.4614,0,0,0,0,0,0,0,-1,1105,1765,8.36595,-36.4614
-112,-741,8.5354,36.6105,0,0,0,0,0,0,0,-1,1112,1765,8.53534,-36.6104
-105,-741,8.54968,36.839,0,0,0,0,0,0,0,-1,1119,1765,8.54968,-36.839
-98,-741,8.6687,36.9894,0,0,0,0,0,0,0,-1,1126,1765,8.66865,-36.9893
-91,-741,8.40002,36.3687,0,0,0,0,0,0,0,-1,1133,1765,8.40002,-36.3687
-84,-741,7.8877,35.0892,0,0,0,0,0,0,0,-1,1140,1765,7.88776,-35.0892
-77,-741,7.73303,34.1174,0,0,0,0,0,0,0,-1,1147,1765,7.73304,-34.1174
-70,-741,7.5437,32.0275,0,0,0,0,0,0,0,-1,1154,1765,7.5437,-32.0275
-63,-741,7.97131,37.5038,0,0,0,0,0,0,0,-1,1161,1765,7.97128,-37.5037
-56,-741,8.28796,38.1882,0,0,0,0,0,0,0,-1,1168,1765,8.28794,-38.1882
-49,-741,8.24988,38.5237,0,0,0,0,0,0,0,-1,1175,1765,8.24984,-38.5237
-42,-741,8.20764,38.5492,0,0,0,0,0,0,0,-1,1182,1765,8.20758,-38.5491
-35,-741,8.22241,38.8113,-0.0101529,-0.00301032,0.000547728,-0.00296856,-0.0101947,1.4947,0.00605457,0.024302,1189,1765,8.2224,-38.8113
-28,-741,8.20837,38.9623,-0.00980094,-0.0017754,-7.35664e-05,-0.00177473,-0.00980162,-1.56163,0.00603052,0.015098,1196,1765,8.20833,-38.9622
-21,-741,8.1969,39.0842,-0.00866523,-0.00170471,-0.000354068,-0.00168675,-0.0086832,-1.5201,0.0053165,0.0186203,1203,1765,8.19696,-39.0842
-14,-741,8.14697,39.1987,-0.00703762,-0.000949632,-0.000407776,-0.000922441,-0.00706481,-1.50421,0.00443449,0.0192327,1210,1765,8.14703,-39.1987
-7,-741,8.12341,39.3019,-0.00551076,-8.8728e-05,-0.000913786,6.11322e-05,-0.00566062,-1.40824,0.00379429,0.0165588,1217,1765,8.12341,-39.3019
0,-741,8.09985,39.3929,-0.00392254,0.00150005,-0.00144832,0.00186263,-0.00428512,-1.32549,0.0036401,0.0157348,1224,1765,8.09983,-39.3929
7,-741,8.05811,39.4642,-0.00215462,0.0036324,-0.00226678,0.00441458,-0.0029368,-1.23853,0.00427281,0.0169965,1231,1765,8.0581,-39.4643
14,-741,8.04541,39.5414,-0.000528164,0.00585995,-0.00307348,0.00709853,-0.00176675,-1.18772,0.00541815,0.0157714,1238,1765,8.04536,-39.5414
21,-741,8.02673,39.6221,0.00088001,0.00830579,-0.00415741,0.0101669,-0.000981113,-1.14989,0.00712752,0.0122213,1245,1765,8.02674,-39.622
28,-741,7.99915,39.7035,0.00191728,0.0106945,-0.00524097,0.0131417,-0.000529871,-1.13396,0.00894299,0.0128355,1252,1765,7.9991,-39.7035
35,-741,7.99487,39.7506,0.00281731,0.0124131,-0.00630569,0.0155387,-0.000308278,-1.11061,0.0104634,0.0150187,1259,1765,7.99485,-39.7506
42,-741,8.005,39.7828,0.00359308,0.013944,-0.00734989,0.0177578,-0.000220696,-1.09215,0.0119127,0.0155056,1266,1765,8.00494,-39.7829
49,-741,7.99719,39.8043,0.00385059,0.0146375,-0.00822641,0.0190808,-0.000592791,-1.07556,0.0129227,0.0106387,1273,1765,7.99722,-39.8043
56,-741,7.95862,39.8314,0.00364404,0.0147669,-0.00902738,0.0198084,-0.00139751,-1.06147,0.0136952,0.0103801,1280,1765,7.95859,-39.8315
63,-741,7.93884,39.8258,0.00299404,0.0147649,-0.00946526,0.0200253,-0.00226635,-1.06354,0.0141662,0.0138559,1287,1765,7.93884,-39.8258
70,-741,7.91687,39.8395,0.00298236,0.0139002,-0.00921645,0.0191531,-0.00227053,-1.05277,0.0135889,0.0156975,1294,1765,7.91684,-39.8395
77,-741,7.90576,39.8585,0.00267534,0.0118711,-0.00848937,0.0169278,-0.0023813,-1.03359,0.0121569,0.0134256,1301,1765,7.90572,-39.8586
84,-741,7.87781,39.8213,0.00189654,0.0101095,-0.00768005,0.014712,-0.00270595,-1.03091,0.0108234,0.0162511,1308,1765,7.87776,-39.8213
91,-741,7.85693,39.7858,0.00125831,0.00804478,-0.00682854,0.0122767,-0.00297361,-1.01599,0.0093349,0.0131935,1315,1765,7.85691,-39.7858
98,-741,7.85571,39.7505,0.00118579,0.00602781,-0.00559118,0.00969963,-0.00248603,-0.989714,0.00743496,0.0101315,1322,1765,7.85571,-39.7505
105,-741,7.86023,39.6891,0.00135337,0.00409072,-0.00433855,0.00727136,-0.00182728,-0.938191,0.00555771,0.0109547,1329,1765,7.8602,-39.6891
112,-741,7.85962,39.6339,0.00145532,0.0022533,-0.00305445,0.0049347,-0.00122609,-0.850343,0.00376563,0.011054,1336,1765,7.85958,-39.634
119,-741,7.83203,39.536,0.00156268,0.000834444,-0.00212639,0.00335591,-0.00095878,-0.700602,0.0026161,0.0135035,1343,1765,7.83208,-39.536
126,-741,7.78992,39.4384,0.0015446,-0.000543791,-0.00114473,0.00204985,-0.00104903,-0.415647,0.00181997,0.0190127,1350,1765,7.78997,-39.4383
133,-741,7.78162,39.3784,0.00141527,-0.00147787,-0.000477863,0.00149215,-0.00155475,-0.159528,0.00175926,0.0139613,1357,1765,7.78158,-39.3785
140,-741,7.76428,39.3025,0.000887594,-0.00181352,2.82503e-05,0.00088789,-0.00181381,0.0104572,0.00159007,0.0104766,1364,1765,7.76427,-39.3025
147,-741,7.74487,39.2087,0.0003646,-0.00213502,0.000487544,0.000456329,-0.00222675,0.185969,0.00165768,0.0105045,1371,1765,7.7449,-39.2088
154,-741,7.71899,39.119,-0.000172603,-0.00239187,0.00063423,-4.1388e-06,-0.00256033,0.259625,0.00170551,0.00909524,1378,1765,7.71901,-39.119
161,-741,7.6842,38.9885,-0.00105554,-0.00242014,0.000763517,-0.000713883,-0.0027618,0.420756,0.00165537,0.0104454,1385,1765,7.68416,-38.9885
168,-741,7.66821,38.8422,-0.00139046,-0.00330112,0.000831046,-0.00107958,-0.003612,0.357969,0.00214088,0.0244237,1392,1765,7.66819,-38.8421
175,-741,7.65198,38.7212,0,0,0,0,0,0,0,-1,1399,1765,7.65195,-38.7211
182,-741,7.62207,38.5439,0,0,0,0,0,0,0,-1,1406,1765,7.62211,-38.544
189,-741,7.5697,38.3911,0,0,0,0,0,0,0,-1,1413,1765,7.56965,-38.3911
196,-741,7.53809,38.2454,0,0,0,0,0,0,0,-1,1420,1765,7.53813,-38.2453
203,-741,7.55884,37.9719,0,0,0,0,0,0,0,-1,1427,1765,7.55887,-37.9719
210,-741,7.5188,37.5891,0,0,0,0,0,0,0,-1,1434,1765,7.51886,-37.5891
217,-741,7.62964,37.5126,0,0,0,0,0,0,0,-1,1441,1765,7.62961,-37.5126
224,-741,7.85352,36.8832,0,0,0,0,0,0,0,-1,1448,1765,7.85355,-36.8831
231,-741,7.58704,36.9446,0,0,0,0,0,0,0,-1,1455,1765,7.58707,-36.9445
238,-741,7.33008,37.0125,0,0,0,0,0,0,0,-1,1462,1765,7.33006,-37.0125
245,-741,7.41052,36.5448,0,0,0,0,0,0,0,-1,1469,1765,7.41046,-36.5448
252,-741,7.39941,36.3583,0,0,0,0,0,0,0,-1,1476,1765,7.39943,-36.3582
259,-741,7.56262,36.2047,0,0,0,0,0,0,0,-1,1483,1765,7.56263,-36.2047
266,-741,7.60059,36.3254,0,0,0,0,0,0,0,-1,1490,1765,7.60061,-36.3255
273,-741,7.03821,33.8081,0,0,0,0,0,0,0,-1,1497,1765,7.0382,-33.8081
280,-741,16.2363,9.84546,0,0,0,0,0,0,0,-1,1504,1765,16.2363,-9.84547
287,-741,6.86572,34.726,0,0,0,0,0,0,0,-1,1511,1765,6.86572,-34.726
294,-741,6.49622,35.1046,0,0,0,0,0,0,0,-1,1518,1765,6.49619,-35.1046
301,-741,6.42542,31.2136,0,0,0,0,0,0,0,-1,1525,1765,6.42541,-31.2136
308,-741,6.27148,29.2661,0,0,0,0,0,0,0,-1,1532,1765,6.27154,-29.2661
315,-741,4.604,30.1898,0,0,0,0,0,0,0,-1,1539,1765,4.604,-30.1898
322,-741,9.21252,8.54858,0,0,0,0,0,0,0,-1,1546,1765,9.21251,-8.54858
329,-741,8.5603,10.1146,0,0,0,0,0,0,0,-1,1553,1765,8.56033,-10.1146
336,-741,4.74475,14.6453,0,0,0,0,0,0,0,-1,1560,1765,4.7447,-14.6452
343,-741,5.42297,5.93701,0,0,0,0,0,0,0,-1,1567,1765,5.42296,-5.937
350,-741,4.90369,5.44666,0,0,0,0,0,0,0,-1,1574,1765,4.90368,-5.44664
357,-741,4.02063,5.16626,0,0,0,0,0,0,0,-1,1581,1765,4.02058,-5.1662
364,-741,0,0,0,0,0,0,0,0,0,-1,1588,1765,0,0
371,-741,0,0,0,0,0,0,0,0,0,-1,1595,1765,0,0
378,-741,0,0,0,0,0,0,0,0,0,-1,1602,1765,0,0
385,-741,0,0,0,0,0,0,0,0,0,-1,1609,1765,0,0
392,-741,0,0,0,0,0,0,0,0,0,-1,1616,1765,0,0
399,-741,0,0,0,0,0,0,0,0,0,-1,1623,1765,0,0
406,-741,0,0,0,0,0,0,0,0,0,-1,1630,1765,0,0
413,-741,0,0,0,0,0,0,0,0,0,-1,1637,1765,0,0
420,-741,0,0,0,0,0,0,0,0,0,-1,1644,1765,0,0
427,-741,0,0,0,0,0,0,0,0,0,-1,1651,1765,0,0
434,-741,0,0,0,0,0,0,0,0,0,-1,1658,1765,0,0
441,-741,0,0,0,0,0,0,0,0,0,-1,1665,1765,0,0
448,-741,0,0,0,0,0,0,0,0,0,-1,1672,1765,0,0
455,-741,0,0,0,0,0,0,0,0,0,-1,1679,1765,0,0
462,-741,0,0,0,0,0,0,0,0,0,-1,1686,1765,0,0
469,-741,0,0,0,0,0,0,0,0,0,-1,1693,1765,0,0
476,-741,0,0,0,0,0,0,0,0,0,-1,1700,1765,0,0
483,-741,0,0,0,0,0,0,0,0,0,-1,1707,1765,0,0
490,-741,0,0,0,0,0,0,0,0,0,-1,1714,1765,0,0
497,-741,0,0,0,0,0,0,0,0,0,-1,1721,1765,0,0
504,-741,0,0,0,0,0,0,0,0,0,-1,1728,1765,0,0
511,-741,0,0,0,0,0,0,0,0,0,-1,1735,1765,0,0
518,-741,0,0,0,0,0,0,0,0,0,-1,1742,1765,0,0
525,-741,0,0,0,0,0,0,0,0,0,-1,1749,1765,0,0
532,-741,0,0,0,0,0,0,0,0,0,-1,1756,1765,0,0
539,-741,0,0,0,0,0,0,0,0,0,-1,1763,1765,0,0
546,-741,0,0,0,0,0,0,0,0,0,-1,1770,1765,0,0
553,-741,0,0,0,0,0,0,0,0,0,-1,1777,1765,0,0
560,-741,0,0,0,0,0,0,0,0,0,-1,1784,1765,0,0
567,-741,0,0,0,0,0,0,0,0,0,-1,1791,1765,0,0
574,-741,0,0,0,0,0,0,0,0,0,-1,1798,1765,0,0
581,-741,0,0,0,0,0,0,0,0,0,-1,1805,1765,0,0
588,-741,0,0,0,0,0,0,0,0,0,-1,1812,1765,0,0
595,-741,0,0,0,0,0,0,0,0,0,-1,1819,1765,0,0
602,-741,0,0,0,0,0,0,0,0,0,-1,1826,1765,0,0
609,-741,0,0,0,0,0,0,0,0,0,-1,1833,1765,0,0
616,-741,0,0,0,0,0,0,0,0,0,-1,1840,1765,0,0
623,-741,0,0,0,0,0,0,0,0,0,-1,1847,1765,0,0
630,-741,0,0,0,0,0,0,0,0,0,-1,1854,1765,0,0
637,-741,0,0,0,0,0,0,0,0,0,-1,1861,1765,0,0
644,-741,0,0,0,0,0,0,0,0,0,-1,1868,1765,0,0
651,-741,0,0,0,0,0,0,0,0,0,-1,1875,1765,0,0
658,-741,0,0,0,0,0,0,0,0,0,-1,1882,1765,0,0
665,-741,0,0,0,0,0,0,0,0,0,-1,1889,1765,0,0
672,-741,0,0,0,0,0,0,0,0,0,-1,1896,1765,0,0
679,-741,0,0,0,0,0,0,0,0,0,-1,1903,1765,0,0
686,-741,0,0,0,0,0,0,0,0,0,-1,1910,1765,0,0
693,-741,0,0,0,0,0,0,0,0,0,-1,1917,1765,0,0
700,-741,0,0,0,0,0,0,0,0,0,-1,1924,1765,0,0
707,-741,0,0,0,0,0,0,0,0,0,-1,1931,1765,0,0
714,-741,0,0,0,0,0,0,0,0,0,-1,1938,1765,0,0
721,-741,0,0,0,0,0,0,0,0,0,-1,1945,1765,0,0
728,-741,0,0,0,0,0,0,0,0,0,-1,1952,1765,0,0
735,-741,0,0,0,0,0,0,0,0,0,-1,1959,1765,0,0
742,-741,0,0,0,0,0,0,0,0,0,-1,1966,1765,0,0
749,-741,0,0,0,0,0,0,0,0,0,-1,1973,1765,0,0
756,-741,0,0,0,0,0,0,0,0,0,-1,1980,1765,0,0
763,-741,0,0,0,0,0,0,0,0,0,-1,1987,1765,0,0
770,-741,0,0,0,0,0,0,0,0,0,-1,1994,1765,0,0
777,-741,0,0,0,0,0,0,0,0,0,-1,2001,1765,0,0
784,-741,0,0,0,0,0,0,0,0,0,-1,2008,1765,0,0
791,-741,0,0,0,0,0,0,0,0,0,-1,2015,1765,0,0
798,-741,0,0,0,0,0,0,0,0,0,-1,2022,1765,0,0
805,-741,0,0,0,0,0,0,0,0,0,-1,2029,1765,0,0
812,-741,0,0,0,0,0,0,0,0,0,-1,2036,1765,0,0
-700,-748,0,0,0,0,0,0,0,0,0,-1,524,1772,0,0
-693,-748,0,0,0,0,0,0,0,0,0,-1,531,1772,0,0
-686,-748,0,0,0,0,0,0,0,0,0,-1,538,1772,0,0
-679,-748,0,0,0,0,0,0,0,0,0,-1,545,1772,0,0
-672,-748,0,0,0,0,0,0,0,0,0,-1,552,1772,0,0
-665,-748,0,0,0,0,0,0,0,0,0,-1,559,1772,0,0
-658,-748,0,0,0,0,0,0,0,0,0,-1,566,1772,0,0
-651,-748,0,0,0,0,0,0,0,0,0,-1,573,1772,0,0
-644,-748,0,0,0,0,0,0,0,0,0,-1,580,1772,0,0
-637,-748,0,0,0,0,0,0,0,0,0,-1,587,1772,0,0
-630,-748,0,0,0,0,0,0,0,0,0,-1,594,1772,0,0
-623,-748,0,0,0,0,0,0,0,0,0,-1,601,1772,0,0
-616,-748,0,0,0,0,0,0,0,0,0,-1,608,1772,0,0
-609,-748,0,0,0,0,0,0,0,0,0,-1,615,1772,0,0
-602,-748,0,0,0,0,0,0,0,0,0,-1,622,1772,0,0
-595,-748,0,0,0,0,0,0,0,0,0,-1,629,1772,0,0
-588,-748,0,0,0,0,0,0,0,0,0,-1,636,1772,0,0
-581,-748,0,0,0,0,0,0,0,0,0,-1,643,1772,0,0
-574,-748,0,0,0,0,0,0,0,0,0,-1,650,1772,0,0
-567,-748,0,0,0,0,0,0,0,0,0,-1,657,1772,0,0
-560,-748,0,0,0,0,0,0,0,0,0,-1,664,1772,0,0
-553,-748,0,0,0,0,0,0,0,0,0,-1,671,1772,0,0
-546,-748,0,0,0,0,0,0,0,0,0,-1,678,1772,0,0
-539,-748,0,0,0,0,0,0,0,0,0,-1,685,1772,0,0
-532,-748,0,0,0,0,0,0,0,0,0,-1,692,1772,0,0
-525,-748,0,0,0,0,0,0,0,0,0,-1,699,1772,0,0
-518,-748,0,0,0,0,0,0,0,0,0,-1,706,1772,0,0
-511,-748,0,0,0,0,0,0,0,0,0,-1,713,1772,0,0
-504,-748,0,0,0,0,0,0,0,0,0,-1,720,1772,0,0
-497,-748,0,0,0,0,0,0,0,0,0,-1,727,1772,0,0
-490,-748,0,0,0,0,0,0,0,0,0,-1,734,1772,0,0
-483,-748,0,0,0,0,0,0,0,0,0,-1,741,1772,0,0
-476,-748,0,0,0,0,0,0,0,0,0,-1,748,1772,0,0
-469,-748,0,0,0,0,0,0,0,0,0,-1,755,1772,0,0
-462,-748,0,0,0,0,0,0,0,0,0,-1,762,1772,0,0
-455,-748,0,0,0,0,0,0,0,0,0,-1,769,1772,0,0
-448,-748,0,0,0,0,0,0,0,0,0,-1,776,1772,0,0
-441,-748,0,0,0,0,0,0,0,0,0,-1,783,1772,0,0
-434,-748,0,0,0,0,0,0,0,0,0,-1,790,1772,0,0
-427,-748,0,0,0,0,0,0,0,0,0,-1,797,1772,0,0
-420,-748,0,0,0,0,0,0,0,0,0,-1,804,1772,0,0
-413,-748,0,0,0,0,0,0,0,0,0,-1,811,1772,0,0
-406,-748,0,0,0,0,0,0,0,0,0,-1,818,1772,0,0
-399,-748,0,0,0,0,0,0,0,0,0,-1,825,1772,0,0
-392,-748,0,0,0,0,0,0,0,0,0,-1,832,1772,0,0
-385,-748,0,0,0,0,0,0,0,0,0,-1,839,1772,0,0
-378,-748,0,0,0,0,0,0,0,0,0,-1,846,1772,0,0
-371,-748,0,0,0,0,0,0,0,0,0,-1,853,1772,0,0
-364,-748,0,0,0,0,0,0,0,0,0,-1,860,1772,0,0
-357,-748,0,0,0,0,0,0,0,0,0,-1,867,1772,0,0
-350,-748,0,0,0,0,0,0,0,0,0,-1,874,1772,0,0
-343,-748,0,0,0,0,0,0,0,0,0,-1,881,1772,0,0
-336,-748,0,0,0,0,0,0,0,0,0,-1,888,1772,0,0
-329,-748,0,0,0,0,0,0,0,0,0,-1,895,1772,0,0
-322,-748,0,0,0,0,0,0,0,0,0,-1,902,1772,0,0
-315,-748,0,0,0,0,0,0,0,0,0,-1,909,1772,0,0
-308,-748,0,0,0,0,0,0,0,0,0,-1,916,1772,0,0
-301,-748,0,0,0,0,0,0,0,0,0,-1,923,1772,0,0
-294,-748,0,0,0,0,0,0,0,0,0,-1,930,1772,0,0
-287,-748,0,0,0,0,0,0,0,0,0,-1,937,1772,0,0
-280,-748,0,0,0,0,0,0,0,0,0,-1,944,1772,0,0
-273,-748,0,0,0,0,0,0,0,0,0,-1,951,1772,0,0
-266,-748,0,0,0,0,0,0,0,0,0,-1,958,1772,0,0
-259,-748,0,0,0,0,0,0,0,0,0,-1,965,1772,0,0
-252,-748,0,0,0,0,0,0,0,0,0,-1,972,1772,0,0
-245,-748,0,0,0,0,0,0,0,0,0,-1,979,1772,0,0
-238,-748,0,0,0,0,0,0,0,0,0,-1,986,1772,0,0
-231,-748,0,0,0,0,0,0,0,0,0,-1,993,1772,0,0
-224,-748,0,0,0,0,0,0,0,0,0,-1,1000,1772,0,0
-217,-748,8.97742,29.9884,0,0,0,0,0,0,0,-1,1007,1772,8.97744,-29.9884
-210,-748,8.8941,30.14,0,0,0,0,0,0,0,-1,1014,1772,8.8941,-30.14
-203,-748,8.57703,30.2961,0,0,0,0,0,0,0,-1,1021,1772,8.57706,-30.2962
-196,-748,8.01953,29.9611,0,0,0,0,0,0,0,-1,1028,1772,8.01957,-29.9611
-189,-748,9.63245,31.4406,0,0,0,0,0,0,0,-1,1035,1772,9.6325,-31.4406
-182,-748,3.94958,20.8662,0,0,0,0,0,0,0,-1,1042,1772,3.94959,-20.8662
-175,-748,3.56726,19.4518,0,0,0,0,0,0,0,-1,1049,1772,3.5673,-19.4518
-168,-748,3.04858,18.0109,0,0,0,0,0,0,0,-1,1056,1772,3.04853,-18.0108
-161,-748,3.50562,13.2729,0,0,0,0,0,0,0,-1,1063,1772,3.5056,-13.2729
-154,-748,-3.38562,10.6989,0,0,0,0,0,0,0,-1,1070,1772,-3.38564,-10.6989
-147,-748,8.79785,35.8357,0,0,0,0,0,0,0,-1,1077,1772,8.79785,-35.8357
-140,-748,7.42126,23.8113,0,0,0,0,0,0,0,-1,1084,1772,7.42133,-23.8113
-133,-748,7.44727,22.0308,0,0,0,0,0,0,0,-1,1091,1772,7.44728,-22.0308
-126,-748,5.98035,22.6067,0,0,0,0,0,0,0,-1,1098,1772,5.9803,-22.6067
-119,-748,6.63342,26.309,0,0,0,0,0,0,0,-1,1105,1772,6.6334,-26.3089
-112,-748,6.91333,24.923,0,0,0,0,0,0,0,-1,1112,1772,6.91339,-24.923
-105,-748,6.83313,25.0537,0,0,0,0,0,0,0,-1,1119,1772,6.83311,-25.0537
-98,-748,8.13623,30.8743,0,0,0,0,0,0,0,-1,1126,1772,8.13628,-30.8742
-91,-748,4.85352,15.3033,0,0,0,0,0,0,0,-1,1133,1772,4.85351,-15.3033
-84,-748,-0.192017,7.26196,0,0,0,0,0,0,0,-1,1140,1772,-0.192047,-7.26201
-77,-748,4.42615,13.5537,0,0,0,0,0,0,0,-1,1147,1772,4.4261,-13.5538
-70,-748,4.46191,13.7446,0,0,0,0,0,0,0,-1,1154,1772,4.4619,-13.7446
-63,-748,4.49768,13.9355,0,0,0,0,0,0,0,-1,1161,1772,4.49769,-13.9355
-56,-748,3.05762,7.87817,0,0,0,0,0,0,0,-1,1168,1772,3.05768,-7.87822
-49,-748,3.04102,7.82471,0,0,0,0,0,0,0,-1,1175,1772,3.04096,-7.82468
-42,-748,0.793457,14.9474,0,0,0,0,0,0,0,-1,1182,1772,0.793413,-14.9474
-35,-748,8.41321,38.7549,0,0,0,0,0,0,0,-1,1189,1772,8.4132,-38.7549
-28,-748,8.32581,39.0507,-0.0150778,0.00141323,-0.00104962,0.00147976,-0.0151444,-1.50749,0.0106239,0.0494688,1196,1772,8.32576,-39.0507
-21,-748,8.33276,39.1165,-0.0132486,0.00265757,-0.00172924,0.00284339,-0.0134344,-1.46375,0.0100392,0.0231041,1203,1772,8.33274,-39.1164
-14,-748,8.27185,39.1746,-0.0110572,0.00452382,-0.00204433,0.00478758,-0.0113209,-1.44248,0.00955184,0.0182701,1210,1772,8.27185,-39.1745
-7,-748,8.22583,39.2791,-0.00894755,0.00632435,-0.0028667,0.00684473,-0.00946793,-1.39123,0.00945862,0.0173749,1217,1772,8.22584,-39.2791
0,-748,8.17542,39.3677,-0.00667304,0.00890704,-0.00377833,0.00977498,-0.00754098,-1.345,0.0100251,0.0161354,1224,1772,8.17546,-39.3677
7,-748,8.14172,39.4431,-0.00419627,0.0120016,-0.00502967,0.0134363,-0.00563098,-1.29293,0.0113118,0.0152667,1231,1772,8.1417,-39.4431
14,-748,8.10376,39.5391,-0.00192479,0.0150514,-0.00624457,0.017101,-0.00397437,-1.25366,0.0129306,0.0161494,1238,1772,8.1038,-39.5391
21,-748,8.10059,39.6178,4.18074e-07,0.0180481,-0.00770036,0.020887,-0.00283851,-1.21758,0.0149609,0.011352,1245,1772,8.10056,-39.6178
28,-748,8.05737,39.676,0.0014412,0.0208087,-0.00911197,0.0244217,-0.00217177,-1.1933,0.0170512,0.0116872,1252,1772,8.05741,-39.676
35,-748,8.04675,39.7271,0.00276324,0.0223108,-0.0104645,0.026856,-0.00178194,-1.16104,0.0185266,0.0126627,1259,1772,8.04675,-39.727
42,-748,8.05237,39.7635,0.00398367,0.0234721,-0.0117864,0.0290206,-0.00156488,-1.13081,0.0198892,0.0132365,1266,1772,8.05242,-39.7636
49,-748,8.02332,39.795,0.00462053,0.0234547,-0.0129009,0.0300099,-0.00193468,-1.10067,0.0206817,0.0105254,1273,1772,8.02337,-39.795
56,-748,7.97498,39.8151,0.00469297,0.0226067,-0.0139182,0.0302011,-0.00290137,-1.07131,0.0211675,0.0101811,1280,1772,7.97494,-39.8151
63,-748,7.94031,39.8099,0.00417295,0.021702,-0.0144792,0.0298628,-0.00398779,-1.05756,0.0213622,0.0113865,1287,1772,7.9403,-39.8099
70,-748,7.92749,39.8215,0.00458878,0.0197645,-0.0142418,0.0283137,-0.00396043,-1.03016,0.020325,0.0134629,1294,1772,7.92752,-39.8215
77,-748,7.91101,39.8223,0.0044603,0.0158172,-0.0130725,0.0243913,-0.00411381,-0.990292,0.0177914,0.0132936,1301,1772,7.91099,-39.8223
84,-748,7.84949,39.8149,0.00369211,0.0132484,-0.0121707,0.0215453,-0.0046048,-0.97245,0.0161192,0.0152186,1308,1772,7.84952,-39.8149
91,-748,7.81775,39.7926,0.00316664,0.0104198,-0.0112222,0.0185869,-0.00500047,-0.941681,0.0143515,0.0122707,1315,1772,7.81773,-39.7926
98,-748,7.79321,39.7433,0.00333077,0.00783545,-0.00972789,0.0155683,-0.00440212,-0.899161,0.0121158,0.0107517,1322,1772,7.79327,-39.7433
105,-748,7.79724,39.6727,0.00365543,0.0053789,-0.00811691,0.0126797,-0.00364535,-0.838283,0.00989467,0.0120073,1329,1772,7.79725,-39.6727
112,-748,7.80115,39.6067,0.00380529,0.00304709,-0.00643338,0.00987073,-0.00301835,-0.755969,0.00778418,0.0152129,1336,1772,7.80109,-39.6067
119,-748,7.79016,39.5494,0.00391627,0.00125325,-0.00511565,0.00787085,-0.00270134,-0.658083,0.00634243,0.0139677,1343,1772,7.79013,-39.5494
126,-748,7.75232,39.4835,0.00383909,-0.000497997,-0.00369924,0.00595855,-0.00261746,-0.520288,0.00507506,0.0162311,1350,1772,7.75227,-39.4836
133,-748,7.68665,39.3949,0.00356665,-0.00168978,-0.00261677,0.00464721,-0.00277034,-0.391608,0.00432798,0.00958263,1357,1772,7.68668,-39.3949
140,-748,7.6709,39.3118,0.00270036,-0.00214068,-0.00158285,0.00317195,-0.00261228,-0.289566,0.00334473,0.0116025,1364,1772,7.67089,-39.3117
147,-748,7.66687,39.2024,0.00178069,-0.0025902,-0.000577672,0.00185575,-0.00266526,-0.129208,0.00262412,0.0140275,1371,1772,7.66682,-39.2024
154,-748,7.60181,39.0825,0.000847424,-0.00312257,0.000236755,0.000861494,-0.00313664,0.0593556,0.00242971,0.0120652,1378,1772,7.60175,-39.0825
161,-748,7.52698,38.9988,-0.000501157,-0.00329735,0.00116617,-7.86402e-05,-0.00371987,0.347599,0.00245412,0.017121,1385,1772,7.527,-38.9988
168,-748,7.47534,38.9294,0,0,0,0,0,0,0,-1,1392,1772,7.47532,-38.9294
175,-748,11.6235,16.8242,0,0,0,0,0,0,0,-1,1399,1772,11.6236,-16.8242
182,-748,7.62476,10.3058,0,0,0,0,0,0,0,-1,1406,1772,7.62476,-10.3058
189,-748,6.15857,6.95898,0,0,0,0,0,0,0,-1,1413,1772,6.15862,-6.95896
196,-748,3.9425,8.46021,0,0,0,0,0,0,0,-1,1420,1772,3.9425,-8.46026
203,-748,3.9668,12.9835,0,0,0,0,0,0,0,-1,1427,1772,3.96678,-12.9836
210,-748,4.71472,16.8318,0,0,0,0,0,0,0,-1,1434,1772,4.71471,-16.8317
217,-748,5.38452,21.5551,0,0,0,0,0,0,0,-1,1441,1772,5.38455,-21.555
224,-748,6.14258,25.2345,0,0,0,0,0,0,0,-1,1448,1772,6.14263,-25.2345
231,-748,6.46045,29.7867,0,0,0,0,0,0,0,-1,1455,1772,6.46049,-29.7867
238,-748,7.41565,32.8574,0,0,0,0,0,0,0,-1,1462,1772,7.41562,-32.8574
245,-748,7.84912,32.0914,0,0,0,0,0,0,0,-1,1469,1772,7.84914,-32.0914
252,-748,7.20972,35.7568,0,0,0,0,0,0,0,-1,1476,1772,7.20977,-35.7569
259,-748,7.41724,36.1121,0,0,0,0,0,0,0,-1,1483,1772,7.41728,-36.1121
266,-748,7.0072,32.5728,0,0,0,0,0,0,0,-1,1490,1772,7.00718,-32.5728
273,-748,16.4131,7.57129,0,0,0,0,0,0,0,-1,1497,1772,16.413,-7.57125
280,-748,15.2177,7.24829,0,0,0,0,0,0,0,-1,1504,1772,15.2176,-7.24833
287,-748,14.161,8.32813,0,0,0,0,0,0,0,-1,1511,1772,14.161,-8.32808
294,-748,6.38525,32.4724,0,0,0,0,0,0,0,-1,1518,1772,6.38521,-32.4725
301,-748,6.24658,30.7585,0,0,0,0,0,0,0,-1,1525,1772,6.24657,-30.7586
308,-748,9.92456,7.80225,0,0,0,0,0,0,0,-1,1532,1772,9.92453,-7.80224
315,-748,8.91541,8.29773,0,0,0,0,0,0,0,-1,1539,1772,8.91544,-8.29773
322,-748,7.83618,8.87122,0,0,0,0,0,0,0,-1,1546,1772,7.83613,-8.87124
329,-748,3.48315,14.6533,0,0,0,0,0,0,0,-1,1553,1772,3.48316,-14.6534
336,-748,3.76001,15.8163,0,0,0,0,0,0,0,-1,1560,1772,3.75995,-15.8163
343,-748,0,0,0,0,0,0,0,0,0,-1,1567,1772,0,0
350,-748,0,0,0,0,0,0,0,0,0,-1,1574,1772,0,0
357,-748,0,0,0,0,0,0,0,0,0,-1,1581,1772,0,0
364,-748,0,0,0,0,0,0,0,0,0,-1,1588,1772,0,0
371,-748,0,0,0,0,0,0,0,0,0,-1,1595,1772,0,0
378,-748,0,0,0,0,0,0,0,0,0,-1,1602,1772,0,0
385,-748,0,0,0,0,0,0,0,0,0,-1,1609,1772,0,0
392,-748,0,0,0,0,0,0,0,0,0,-1,1616,1772,0,0
399,-748,0,0,0,0,0,0,0,0,0,-1,1623,1772,0,0
406,-748,0,0,0,0,0,0,0,0,0,-1,1630,1772,0,0
413,-748,0,0,0,0,0,0,0,0,0,-1,1637,1772,0,0
420,-748,0,0,0,0,0,0,0,0,0,-1,1644,1772,0,0
427,-748,0,0,0,0,0,0,0,0,0,-1,1651,1772,0,0
434,-748,0,0,0,0,0,0,0,0,0,-1,1658,1772,0,0
441,-748,0,0,0,0,0,0,0,0,0,-1,1665,1772,0,0
448,-748,0,0,0,0,0,0,0,0,0,-1,1672,1772,0,0
455,-748,0,0,0,0,0,0,0,0,0,-1,1679,1772,0,0
462,-748,0,0,0,0,0,0,0,0,0,-1,1686,1772,0,0
469,-748,0,0,0,0,0,0,0,0,0,-1,1693,1772,0,0
476,-748,0,0,0,0,0,0,0,0,0,-1,1700,1772,0,0
483,-748,0,0,0,0,0,0,0,0,0,-1,1707,1772,0,0
490,-748,0,0,0,0,0,0,0,0,0,-1,1714,1772,0,0
497,-748,0,0,0,0,0,0,0,0,0,-1,1721,1772,0,0
504,-748,0,0,0,0,0,0,0,0,0,-1,1728,1772,0,0
511,-748,0,0,0,0,0,0,0,0,0,-1,1735,1772,0,0
518,-748,0,0,0,0,0,0,0,0,0,-1,1742,1772,0,0
525,-748,0,0,0,0,0,0,0,0,0,-1,1749,1772,0,0
532,-748,0,0,0,0,0,0,0,0,0,-1,1756,1772,0,0
539,-748,0,0,0,0,0,0,0,0,0,-1,1763,1772,0,0
546,-748,0,0,0,0,0,0,0,0,0,-1,1770,1772,0,0
553,-748,0,0,0,0,0,0,0,0,0,-1,1777,1772,0,0
560,-748,0,0,0,0,0,0,0,0,0,-1,1784,1772,0,0
567,-748,0,0,0,0,0,0,0,0,0,-1,1791,1772,0,0
574,-748,0,0,0,0,0,0,0,0,0,-1,1798,1772,0,0
581,-748,0,0,0,0,0,0,0,0,0,-1,1805,1772,0,0
588,-748,0,0,0,0,0,0,0,0,0,-1,1812,1772,0,0
595,-748,0,0,0,0,0,0,0,0,0,-1,1819,1772,0,0
602,-748,0,0,0,0,0,0,0,0,0,-1,1826,1772,0,0
609,-748,0,0,0,0,0,0,0,0,0,-1,1833,1772,0,0
616,-748,0,0,0,0,0,0,0,0,0,-1,1840,1772,0,0
623,-748,0,0,0,0,0,0,0,0,0,-1,1847,1772,0,0
630,-748,0,0,0,0,0,0,0,0,0,-1,1854,1772,0,0
637,-748,0,0,0,0,0,0,0,0,0,-1,1861,1772,0,0
644,-748,0,0,0,0,0,0,0,0,0,-1,1868,1772,0,0
651,-748,0,0,0,0,0,0,0,0,0,-1,1875,1772,0,0
658,-748,0,0,0,0,0,0,0,0,0,-1,1882,1772,0,0
665,-748,0,0,0,0,0,0,0,0,0,-1,1889,1772,0,0
672,-748,0,0,0,0,0,0,0,0,0,-1,1896,1772,0,0
679,-748,0,0,0,0,0,0,0,0,0,-1,1903,1772,0,0
686,-748,0,0,0,0,0,0,0,0,0,-1,1910,1772,0,0
693,-748,0,0,0,0,0,0,0,0,0,-1,1917,1772,0,0
700,-748,0,0,0,0,0,0,0,0,0,-1,1924,1772,0,0
707,-748,0,0,0,0,0,0,0,0,0,-1,1931,1772,0,0
714,-748,0,0,0,0,0,0,0,0,0,-1,1938,1772,0,0
721,-748,0,0,0,0,0,0,0,0,0,-1,1945,1772,0,0
728,-748,0,0,0,0,0,0,0,0,0,-1,1952,1772,0,0
735,-748,0,0,0,0,0,0,0,0,0,-1,1959,1772,0,0
742,-748,0,0,0,0,0,0,0,0,0,-1,1966,1772,0,0
749,-748,0,0,0,0,0,0,0,0,0,-1,1973,1772,0,0
756,-748,0,0,0,0,0,0,0,0,0,-1,1980,1772,0,0
763,-748,0,0,0,0,0,0,0,0,0,-1,1987,1772,0,0
770,-748,0,0,0,0,0,0,0,0,0,-1,1994,1772,0,0
777,-748,0,0,0,0,0,0,0,0,0,-1,2001,1772,0,0
784,-748,0,0,0,0,0,0,0,0,0,-1,2008,1772,0,0
791,-748,0,0,0,0,0,0,0,0,0,-1,2015,1772,0,0
798,-748,0,0,0,0,0,0,0,0,0,-1,2022,1772,0,0
805,-748,0,0,0,0,0,0,0,0,0,-1,2029,1772,0,0
812,-748,0,0,0,0,0,0,0,0,0,-1,2036,1772,0,0
-700,-755,0,0,0,0,0,0,0,0,0,-1,524,1779,0,0
-693,-755,0,0,0,0,0,0,0,0,0,-1,531,1779,0,0
-686,-755,0,0,0,0,0,0,0,0,0,-1,538,1779,0,0
-679,-755,0,0,0,0,0,0,0,0,0,-1,545,1779,0,0
-672,-755,0,0,0,0,0,0,0,0,0,-1,552,1779,0,0
-665,-755,0,0,0,0,0,0,0,0,0,-1,559,1779,0,0
-658,-755,0,0,0,0,0,0,0,0,0,-1,566,1779,0,0
-651,-755,0,0,0,0,0,0,0,0,0,-1,573,1779,0,0
-644,-755,0,0,0,0,0,0,0,0,0,-1,580,1779,0,0
-637,-755,0,0,0,0,0,0,0,0,0,-1,587,1779,0,0
-630,-755,0,0,0,0,0,0,0,0,0,-1,594,1779,0,0
-623,-755,0,0,0,0,0,0,0,0,0,-1,601,1779,0,0
-616,-755,0,0,0,0,0,0,0,0,0,-1,608,1779,0,0
-609,-755,0,0,0,0,0,0,0,0,0,-1,615,1779,0,0
-602,-755,0,0,0,0,0,0,0,0,0,-1,622,1779,0,0
-595,-755,0,0,0,0,0,0,0,0,0,-1,629,1779,0,0
-588,-755,0,0,0,0,0,0,0,0,0,-1,636,1779,0,0
-581,-755,0,0,0,0,0,0,0,0,0,-1,643,1779,0,0
-574,-755,0,0,0,0,0,0,0,0,0,-1,650,1779,0,0
-567,-755,0,0,0,0,0,0,0,0,0,-1,657,1779,0,0
-560,-755,0,0,0,0,0,0,0,0,0,-1,664,1779,0,0
-553,-755,0,0,0,0,0,0,0,0,0,-1,671,1779,0,0
-546,-755,0,0,0,0,0,0,0,0,0,-1,678,1779,0,0
-539,-755,0,0,0,0,0,0,0,0,0,-1,685,1779,0,0
-532,-755,0,0,0,0,0,0,0,0,0,-1,692,1779,0,0
-525,-755,0,0,0,0,0,0,0,0,0,-1,699,1779,0,0
-518,-755,0,0,0,0,0,0,0,0,0,-1,706,1779,0,0
-511,-755,0,0,0,0,0,0,0,0,0,-1,713,1779,0,0
-504,-755,0,0,0,0,0,0,0,0,0,-1,720,1779,0,0
-497,-755,0,0,0,0,0,0,0,0,0,-1,727,1779,0,0
-490,-755,0,0,0,0,0,0,0,0,0,-1,734,1779,0,0
-483,-755,0,0,0,0,0,0,0,0,0,-1,741,1779,0,0
-476,-755,0,0,0,0,0,0,0,0,0,-1,748,1779,0,0
-469,-755,0,0,0,0,0,0,0,0,0,-1,755,1779,0,0
-462,-755,0,0,0,0,0,0,0,0,0,-1,762,1779,0,0
-455,-755,0,0,0,0,0,0,0,0,0,-1,769,1779,0,0
-448,-755,0,0,0,0,0,0,0,0,0,-1,776,1779,0,0
-441,-755,0,0,0,0,0,0,0,0,0,-1,783,1779,0,0
-434,-755,0,0,0,0,0,0,0,0,0,-1,790,1779,0,0
-427,-755,0,0,0,0,0,0,0,0,0,-1,797,1779,0,0
-420,-755,0,0,0,0,0,0,0,0,0,-1,804,1779,0,0
-413,-755,0,0,0,0,0,0,0,0,0,-1,811,1779,0,0
-406,-755,0,0,0,0,0,0,0,0,0,-1,818,1779,0,0
-399,-755,0,0,0,0,0,0,0,0,0,-1,825,1779,0,0
-392,-755,0,0,0,0,0,0,0,0,0,-1,832,1779,0,0
-385,-755,0,0,0,0,0,0,0,0,0,-1,839,1779,0,0
-378,-755,0,0,0,0,0,0,0,0,0,-1,846,1779,0,0
-371,-755,0,0,0,0,0,0,0,0,0,-1,853,1779,0,0
-364,-755,0,0,0,0,0,0,0,0,0,-1,860,1779,0,0
-357,-755,0,0,0,0,0,0,0,0,0,-1,867,1779,0,0
-350,-755,0,0,0,0,0,0,0,0,0,-1,874,1779,0,0
-343,-755,0,0,0,0,0,0,0,0,0,-1,881,1779,0,0
-336,-755,0,0,0,0,0,0,0,0,0,-1,888,1779,0,0
-329,-755,0,0,0,0,0,0,0,0,0,-1,895,1779,0,0
-322,-755,0,0,0,0,0,0,0,0,0,-1,902,1779,0,0
-315,-755,0,0,0,0,0,0,0,0,0,-1,909,1779,0,0
-308,-755,0,0,0,0,0,0,0,0,0,-1,916,1779,0,0
-301,-755,0,0,0,0,0,0,0,0,0,-1,923,1779,0,0
-294,-755,0,0,0,0,0,0,0,0,0,-1,930,1779,0,0
-287,-755,0,0,0,0,0,0,0,0,0,-1,937,1779,0,0
-280,-755,0,0,0,0,0,0,0,0,0,-1,944,1779,0,0
-273,-755,0,0,0,0,0,0,0,0,0,-1,951,1779,0,0
-266,-755,0,0,0,0,0,0,0,0,0,-1,958,1779,0,0
-259,-755,0,0,0,0,0,0,0,0,0,-1,965,1779,0,0
-252,-755,0,0,0,0,0,0,0,0,0,-1,972,1779,0,0
-245,-755,0,0,0,0,0,0,0,0,0,-1,979,1779,0,0
-238,-755,0,0,0,0,0,0,0,0,0,-1,986,1779,0,0
-231,-755,0,0,0,0,0,0,0,0,0,-1,993,1779,0,0
-224,-755,0,0,0,0,0,0,0,0,0,-1,1000,1779,0,0
-217,-755,0,0,0,0,0,0,0,0,0,-1,1007,1779,0,0
-210,-755,0,0,0,0,0,0,0,0,0,-1,1014,1779,0,0
-203,-755,8.97363,30.5414,0,0,0,0,0,0,0,-1,1021,1779,8.97362,-30.5414
-196,-755,8.34436,29.0909,0,0,0,0,0,0,0,-1,1028,1779,8.3443,-29.091
-189,-755,4.8175,22.4788,0,0,0,0,0,0,0,-1,1035,1779,4.81745,-22.4788
-182,-755,4.021,20.8032,0,0,0,0,0,0,0,-1,1042,1779,4.02094,-20.8032
-175,-755,3.79993,18.8242,0,0,0,0,0,0,0,-1,1049,1779,3.79995,-18.8242
-168,-755,3.14294,16.9865,0,0,0,0,0,0,0,-1,1056,1779,3.14291,-16.9864
-161,-755,-2.85889,11.5868,0,0,0,0,0,0,0,-1,1063,1779,-2.85887,-11.5868
-154,-755,-5.39026,8.51416,0,0,0,0,0,0,0,-1,1070,1779,-5.3903,-8.51417
-147,-755,-6.45593,10.2422,0,0,0,0,0,0,0,-1,1077,1779,-6.45594,-10.2422
-140,-755,1.33521,21.3856,0,0,0,0,0,0,0,-1,1084,1779,1.33522,-21.3857
-133,-755,2.89417,21.0964,0,0,0,0,0,0,0,-1,1091,1779,2.89422,-21.0964
-126,-755,3.26404,20.9304,0,0,0,0,0,0,0,-1,1098,1779,3.26399,-20.9305
-119,-755,5.17761,21.9325,0,0,0,0,0,0,0,-1,1105,1779,5.17761,-21.9325
-112,-755,5.40247,24.5646,0,0,0,0,0,0,0,-1,1112,1779,5.40244,-24.5646
-105,-755,7.01294,20.1539,0,0,0,0,0,0,0,-1,1119,1779,7.01295,-20.154
-98,-755,5.50708,16.9628,0,0,0,0,0,0,0,-1,1126,1779,5.5071,-16.9628
-91,-755,5.51025,12.0438,0,0,0,0,0,0,0,-1,1133,1779,5.51022,-12.0439
-84,-755,0.169312,8.66443,0,0,0,0,0,0,0,-1,1140,1779,0.16932,-8.66446
-77,-755,-0.0491943,6.87439,0,0,0,0,0,0,0,-1,1147,1779,-0.0491385,-6.87443
-70,-755,4.5686,13.2169,0,0,0,0,0,0,0,-1,1154,1779,4.56865,-13.2169
-63,-755,-1.36316,7.3147,0,0,0,0,0,0,0,-1,1161,1779,-1.36312,-7.31473
-56,-755,0.0483398,5.06079,0,0,0,0,0,0,0,-1,1168,1779,0.0483138,-5.06084
-49,-755,-1.32263,5.33716,0,0,0,0,0,0,0,-1,1175,1779,-1.32264,-5.33718
-42,-755,-2.03613,4.01672,0,0,0,0,0,0,0,-1,1182,1779,-2.0361,-4.01671
-35,-755,-2.72498,2.37476,0,0,0,0,0,0,0,-1,1189,1779,-2.72502,-2.37473
-28,-755,8.2854,39.2148,0,0,0,0,0,0,0,-1,1196,1779,8.28537,-39.2149
-21,-755,8.53296,39.1549,0,0,0,0,0,0,0,-1,1203,1779,8.53299,-39.1549
-14,-755,8.46729,39.2075,-0.0160974,0.00898115,-0.00302572,0.00934104,-0.0164573,-1.45241,0.0150824,0.0363762,1210,1779,8.46729,-39.2076
-7,-755,8.31445,39.213,-0.0130994,0.011897,-0.00418117,0.0125779,-0.0137802,-1.40938,0.0152231,0.0252014,1217,1779,8.3144,-39.213
0,-755,8.25586,39.325,-0.00978087,0.0158261,-0.0054981,0.0169567,-0.0109115,-1.36799,0.0162154,0.0147537,1224,1779,8.25586,-39.3249
7,-755,8.22107,39.4415,-0.00626395,0.020303,-0.00727997,0.022167,-0.00812804,-1.32012,0.0181061,0.0135222,1231,1779,8.22112,-39.4415
14,-755,8.20789,39.5486,-0.00306722,0.0246159,-0.00906085,0.0273178,-0.00576918,-1.28099,0.0204086,0.0122083,1238,1779,8.20783,-39.5486
21,-755,8.1405,39.6163,-0.00042875,0.0285766,-0.0110571,0.032311,-0.00416306,-1.2451,0.023054,0.0161094,1245,1779,8.14055,-39.6163
28,-755,8.11243,39.6567,0.00152744,0.0320636,-0.0129635,0.0368247,-0.00323362,-1.21882,0.0256956,0.0189521,1252,1779,8.11239,-39.6567
35,-755,8.11719,39.7565,0.00330629,0.0336364,-0.014775,0.0396439,-0.00270128,-1.18461,0.0273742,0.019934,1259,1779,8.11725,-39.7565
42,-755,8.09412,39.7772,0.00496082,0.0346392,-0.0165343,0.0420168,-0.00241677,-1.15111,0.0288505,0.0141525,1266,1779,8.09407,-39.7772
49,-755,8.05103,39.7688,0.00592589,0.0340629,-0.0180304,0.042864,-0.00287517,-1.11669,0.029581,0.00945017,1273,1779,8.05099,-39.7688
56,-755,7.99658,39.7883,0.00619883,0.0323214,-0.0193986,0.0426461,-0.00412587,-1.08169,0.029901,0.00889706,1280,1779,7.99655,-39.7884
63,-755,7.96289,39.8026,0.00570404,0.0304915,-0.0202139,0.0418087,-0.00561316,-1.06041,0.0299195,0.00904165,1287,1779,7.96284,-39.8026
70,-755,7.95471,39.7961,0.00652965,0.0273752,-0.0200948,0.0395894,-0.00568456,-1.02464,0.0284776,0.011986,1294,1779,7.95473,-39.7961
77,-755,7.92432,39.7712,0.00649417,0.0213878,-0.018546,0.0339262,-0.00604424,-0.976311,0.0248782,0.0118538,1301,1779,7.92433,-39.7712
84,-755,7.88794,39.7694,0.00566793,0.0177247,-0.0175379,0.0302414,-0.00684875,-0.950939,0.0227895,0.0128708,1308,1779,7.888,-39.7694
91,-755,7.84277,39.7388,0.00537006,0.0138026,-0.0165846,0.0266985,-0.00752585,-0.909875,0.0207672,0.0132807,1315,1779,7.8428,-39.7388
98,-755,7.77368,39.7186,0.00585261,0.0104196,-0.0147547,0.0230664,-0.00679427,-0.86217,0.0180732,0.0139524,1322,1779,7.77365,-39.7186
105,-755,7.76367,39.6774,0.00646335,0.00722061,-0.0127201,0.0195677,-0.00588372,-0.800277,0.015386,0.0171218,1329,1779,7.76365,-39.6774
112,-755,7.70508,39.597,0.00680579,0.00422726,-0.010554,0.016149,-0.00511595,-0.72462,0.0128163,0.0224906,1336,1779,7.70508,-39.5971
119,-755,7.67065,39.5554,0.0070435,0.00192504,-0.00875788,0.0136084,-0.00463988,-0.643246,0.0109516,0.0229562,1343,1779,7.67065,-39.5555
126,-755,7.6853,39.5841,0.00701707,-0.00025689,-0.00682549,0.0111141,-0.00435392,-0.540606,0.00921037,0.0274834,1350,1779,7.68529,-39.5841
133,-755,7.55029,39.4432,0.00667592,-0.00166621,-0.00525203,0.00921169,-0.00420198,-0.449807,0.00792238,0.0278766,1357,1779,7.55032,-39.4433
140,-755,7.48145,39.3397,0.00553715,-0.00218071,-0.00363947,0.00698266,-0.00362623,-0.37807,0.00622639,0.0332208,1364,1779,7.48145,-39.3397
147,-755,7.63025,39.259,0.00423657,-0.00269252,-0.00205911,0.00480228,-0.00325824,-0.268123,0.00468212,0.0352756,1371,1779,7.63027,-39.2591
154,-755,7.51794,39.2048,0.00285761,-0.00347771,-0.000454868,0.00289011,-0.0035102,-0.0713113,0.003701,0.0344791,1378,1779,7.51793,-39.2048
161,-755,7.39319,39.0385,0,0,0,0,0,0,0,-1,1385,1779,7.3932,-39.0384
168,-755,3.98181,7.35901,0,0,0,0,0,0,0,-1,1392,1779,3.98184,-7.35904
175,-755,8.17065,1.34363,0,0,0,0,0,0,0,-1,1399,1779,8.1706,-1.34368
182,-755,8.09216,2.96924,0,0,0,0,0,0,0,-1,1406,1779,8.09213,-2.9693
189,-755,8.04419,4.68042,0,0,0,0,0,0,0,-1,1413,1779,8.04419,-4.68046
196,-755,7.74841,7.4541,0,0,0,0,0,0,0,-1,1420,1779,7.74842,-7.45405
203,-755,4.80554,6.88696,0,0,0,0,0,0,0,-1,1427,1779,4.80554,-6.88697
210,-755,25.1694,7.35693,0,0,0,0,0,0,0,-1,1434,1779,25.1694,-7.35688
217,-755,5.01648,16.411,0,0,0,0,0,0,0,-1,1441,1779,5.01646,-16.411
224,-755,5.18103,22.6283,0,0,0,0,0,0,0,-1,1448,1779,5.18101,-22.6283
231,-755,5.7489,30.15,0,0,0,0,0,0,0,-1,1455,1779,5.74885,-30.15
238,-755,6.56323,29.2726,0,0,0,0,0,0,0,-1,1462,1779,6.56327,-29.2726
245,-755,5.76453,29.2085,0,0,0,0,0,0,0,-1,1469,1779,5.76455,-29.2085
252,-755,5.57678,29.0841,0,0,0,0,0,0,0,-1,1476,1779,5.57682,-29.0841
259,-755,5.37292,29.1577,0,0,0,0,0,0,0,-1,1483,1779,5.37293,-29.1577
266,-755,17.255,7.86096,0,0,0,0,0,0,0,-1,1490,1779,17.255,-7.86092
273,-755,15.7932,7.59778,0,0,0,0,0,0,0,-1,1497,1779,15.7932,-7.59777
280,-755,14.6255,7.34802,0,0,0,0,0,0,0,-1,1504,1779,14.6254,-7.34806
287,-755,13.8279,7.83105,0,0,0,0,0,0,0,-1,1511,1779,13.8279,-7.83104
294,-755,12.5695,7.96814,0,0,0,0,0,0,0,-1,1518,1779,12.5694,-7.9682
301,-755,11.2659,8.27087,0,0,0,0,0,0,0,-1,1525,1779,11.2658,-8.27087
308,-755,9.94434,8.55811,0,0,0,0,0,0,0,-1,1532,1779,9.94428,-8.55806
315,-755,8.64502,9.04492,0,0,0,0,0,0,0,-1,1539,1779,8.64497,-9.04488
322,-755,0,0,0,0,0,0,0,0,0,-1,1546,1779,0,0
329,-755,0,0,0,0,0,0,0,0,0,-1,1553,1779,0,0
336,-755,0,0,0,0,0,0,0,0,0,-1,1560,1779,0,0
343,-755,0,0,0,0,0,0,0,0,0,-1,1567,1779,0,0
350,-755,0,0,0,0,0,0,0,0,0,-1,1574,1779,0,0
357,-755,0,0,0,0,0,0,0,0,0,-1,1581,1779,0,0
364,-755,0,0,0,0,0,0,0,0,0,-1,1588,1779,0,0
371,-755,0,0,0,0,0,0,0,0,0,-1,1595,1779,0,0
378,-755,0,0,0,0,0,0,0,0,0,-1,1602,1779,0,0
385,-755,0,0,0,0,0,0,0,0,0,-1,1609,1779,0,0
392,-755,0,0,0,0,0,0,0,0,0,-1,1616,1779,0,0
399,-755,0,0,0,0,0,0,0,0,0,-1,1623,1779,0,0
406,-755,0,0,0,0,0,0,0,0,0,-1,1630,1779,0,0
413,-755,0,0,0,0,0,0,0,0,0,-1,1637,1779,0,0
420,-755,0,0,0,0,0,0,0,0,0,-1,1644,1779,0,0
427,-755,0,0,0,0,0,0,0,0,0,-1,1651,1779,0,0
434,-755,0,0,0,0,0,0,0,0,0,-1,1658,1779,0,0
441,-755,0,0,0,0,0,0,0,0,0,-1,1665,1779,0,0
448,-755,0,0,0,0,0,0,0,0,0,-1,1672,1779,0,0
455,-755,0,0,0,0,0,0,0,0,0,-1,1679,1779,0,0
462,-755,0,0,0,0,0,0,0,0,0,-1,1686,1779,0,0
469,-755,0,0,0,0,0,0,0,0,0,-1,1693,1779,0,0
476,-755,0,0,0,0,0,0,0,0,0,-1,1700,1779,0,0
483,-755,0,0,0,0,0,0,0,0,0,-1,1707,1779,0,0
490,-755,0,0,0,0,0,0,0,0,0,-1,1714,1779,0,0
497,-755,0,0,0,0,0,0,0,0,0,-1,1721,1779,0,0
504,-755,0,0,0,0,0,0,0,0,0,-1,1728,1779,0,0
511,-755,0,0,0,0,0,0,0,0,0,-1,1735,1779,0,0
518,-755,0,0,0,0,0,0,0,0,0,-1,1742,1779,0,0
525,-755,0,0,0,0,0,0,0,0,0,-1,1749,1779,0,0
532,-755,0,0,0,0,0,0,0,0,0,-1,1756,1779,0,0
539,-755,0,0,0,0,0,0,0,0,0,-1,1763,1779,0,0
546,-755,0,0,0,0,0,0,0,0,0,-1,1770,1779,0,0
553,-755,0,0,0,0,0,0,0,0,0,-1,1777,1779,0,0
560,-755,0,0,0,0,0,0,0,0,0,-1,1784,1779,0,0
567,-755,0,0,0,0,0,0,0,0,0,-1,1791,1779,0,0
574,-755,0,0,0,0,0,0,0,0,0,-1,1798,1779,0,0
581,-755,0,0,0,0,0,0,0,0,0,-1,1805,1779,0,0
588,-755,0,0,0,0,0,0,0,0,0,-1,1812,1779,0,0
595,-755,0,0,0,0,0,0,0,0,0,-1,1819,1779,0,0
602,-755,0,0,0,0,0,0,0,0,0,-1,1826,1779,0,0
609,-755,0,0,0,0,0,0,0,0,0,-1,1833,1779,0,0
616,-755,0,0,0,0,0,0,0,0,0,-1,1840,1779,0,0
623,-755,0,0,0,0,0,0,0,0,0,-1,1847,1779,0,0
630,-755,0,0,0,0,0,0,0,0,0,-1,1854,1779,0,0
637,-755,0,0,0,0,0,0,0,0,0,-1,1861,1779,0,0
644,-755,0,0,0,0,0,0,0,0,0,-1,1868,1779,0,0
651,-755,0,0,0,0,0,0,0,0,0,-1,1875,1779,0,0
658,-755,0,0,0,0,0,0,0,0,0,-1,1882,1779,0,0
665,-755,0,0,0,0,0,0,0,0,0,-1,1889,1779,0,0
672,-755,0,0,0,0,0,0,0,0,0,-1,1896,1779,0,0
679,-755,0,0,0,0,0,0,0,0,0,-1,1903,1779,0,0
686,-755,0,0,0,0,0,0,0,0,0,-1,1910,1779,0,0
693,-755,0,0,0,0,0,0,0,0,0,-1,1917,1779,0,0
700,-755,0,0,0,0,0,0,0,0,0,-1,1924,1779,0,0
707,-755,0,0,0,0,0,0,0,0,0,-1,1931,1779,0,0
714,-755,0,0,0,0,0,0,0,0,0,-1,1938,1779,0,0
721,-755,0,0,0,0,0,0,0,0,0,-1,1945,1779,0,0
728,-755,0,0,0,0,0,0,0,0,0,-1,1952,1779,0,0
735,-755,0,0,0,0,0,0,0,0,0,-1,1959,1779,0,0
742,-755,0,0,0,0,0,0,0,0,0,-1,1966,1779,0,0
749,-755,0,0,0,0,0,0,0,0,0,-1,1973,1779,0,0
756,-755,0,0,0,0,0,0,0,0,0,-1,1980,1779,0,0
763,-755,0,0,0,0,0,0,0,0,0,-1,1987,1779,0,0
770,-755,0,0,0,0,0,0,0,0,0,-1,1994,1779,0,0
777,-755,0,0,0,0,0,0,0,0,0,-1,2001,1779,0,0
784,-755,0,0,0,0,0,0,0,0,0,-1,2008,1779,0,0
791,-755,0,0,0,0,0,0,0,0,0,-1,2015,1779,0,0
798,-755,0,0,0,0,0,0,0,0,0,-1,2022,1779,0,0
805,-755,0,0,0,0,0,0,0,0,0,-1,2029,1779,0,0
812,-755,0,0,0,0,0,0,0,0,0,-1,2036,1779,0,0
-700,-762,0,0,0,0,0,0,0,0,0,-1,524,1786,0,0
-693,-762,0,0,0,0,0,0,0,0,0,-1,531,1786,0,0
-686,-762,0,0,0,0,0,0,0,0,0,-1,538,1786,0,0
-679,-762,0,0,0,0,0,0,0,0,0,-1,545,1786,0,0
-672,-762,0,0,0,0,0,0,0,0,0,-1,552,1786,0,0
-665,-762,0,0,0,0,0,0,0,0,0,-1,559,1786,0,0
-658,-762,0,0,0,0,0,0,0,0,0,-1,566,1786,0,0
-651,-762,0,0,0,0,0,0,0,0,0,-1,573,1786,0,0
-644,-762,0,0,0,0,0,0,0,0,0,-1,580,1786,0,0
-637,-762,0,0,0,0,0,0,0,0,0,-1,587,1786,0,0
-630,-762,0,0,0,0,0,0,0,0,0,-1,594,1786,0,0
-623,-762,0,0,0,0,0,0,0,0,0,-1,601,1786,0,0
-616,-762,0,0,0,0,0,0,0,0,0,-1,608,1786,0,0
-609,-762,0,0,0,0,0,0,0,0,0,-1,615,1786,0,0
-602,-762,0,0,0,0,0,0,0,0,0,-1,622,1786,0,0
-595,-762,0,0,0,0,0,0,0,0,0,-1,629,1786,0,0
-588,-762,0,0,0,0,0,0,0,0,0,-1,636,1786,0,0
-581,-762,0,0,0,0,0,0,0,0,0,-1,643,1786,0,0
-574,-762,0,0,0,0,0,0,0,0,0,-1,650,1786,0,0
-567,-762,0,0,0,0,0,0,0,0,0,-1,657,1786,0,0
-560,-762,0,0,0,0,0,0,0,0,0,-1,664,1786,0,0
-553,-762,0,0,0,0,0,0,0,0,0,-1,671,1786,0,0
-546,-762,0,0,0,0,0,0,0,0,0,-1,678,1786,0,0
-539,-762,0,0,0,0,0,0,0,0,0,-1,685,1786,0,0
-532,-762,0,0,0,0,0,0,0,0,0,-1,692,1786,0,0
-525,-762,0,0,0,0,0,0,0,0,0,-1,699,1786,0,0
-518,-762,0,0,0,0,0,0,0,0,0,-1,706,1786,0,0
-511,-762,0,0,0,0,0,0,0,0,0,-1,713,1786,0,0
-504,-762,0,0,0,0,0,0,0,0,0,-1,720,1786,0,0
-497,-762,0,0,0,0,0,0,0,0,0,-1,727,1786,0,0
-490,-762,0,0,0,0,0,0,0,0,0,-1,734,1786,0,0
-483,-762,0,0,0,0,0,0,0,0,0,-1,741,1786,0,0
-476,-762,0,0,0,0,0,0,0,0,0,-1,748,1786,0,0
-469,-762,0,0,0,0,0,0,0,0,0,-1,755,1786,0,0
-462,-762,0,0,0,0,0,0,0,0,0,-1,762,1786,0,0
-455,-762,0,0,0,0,0,0,0,0,0,-1,769,1786,0,0
-448,-762,0,0,0,0,0,0,0,0,0,-1,776,1786,0,0
-441,-762,0,0,0,0,0,0,0,0,0,-1,783,1786,0,0
-434,-762,0,0,0,0,0,0,0,0,0,-1,790,1786,0,0
-427,-762,0,0,0,0,0,0,0,0,0,-1,797,1786,0,0
-420,-762,0,0,0,0,0,0,0,0,0,-1,804,1786,0,0
-413,-762,0,0,0,0,0,0,0,0,0,-1,811,1786,0,0
-406,-762,0,0,0,0,0,0,0,0,0,-1,818,1786,0,0
-399,-762,0,0,0,0,0,0,0,0,0,-1,825,1786,0,0
-392,-762,0,0,0,0,0,0,0,0,0,-1,832,1786,0,0
-385,-762,0,0,0,0,0,0,0,0,0,-1,839,1786,0,0
-378,-762,0,0,0,0,0,0,0,0,0,-1,846,1786,0,0
-371,-762,0,0,0,0,0,0,0,0,0,-1,853,1786,0,0
-364,-762,0,0,0,0,0,0,0,0,0,-1,860,1786,0,0
-357,-762,0,0,0,0,0,0,0,0,0,-1,867,1786,0,0
-350,-762,0,0,0,0,0,0,0,0,0,-1,874,1786,0,0
-343,-762,0,0,0,0,0,0,0,0,0,-1,881,1786,0,0
-336,-762,0,0,0,0,0,0,0,0,0,-1,888,1786,0,0
-329,-762,0,0,0,0,0,0,0,0,0,-1,895,1786,0,0
-322,-762,0,0,0,0,0,0,0,0,0,-1,902,1786,0,0
-315,-762,0,0,0,0,0,0,0,0,0,-1,909,1786,0,0
-308,-762,0,0,0,0,0,0,0,0,0,-1,916,1786,0,0
-301,-762,0,0,0,0,0,0,0,0,0,-1,923,1786,0,0
-294,-762,0,0,0,0,0,0,0,0,0,-1,930,1786,0,0
-287,-762,0,0,0,0,0,0,0,0,0,-1,937,1786,0,0
-280,-762,0,0,0,0,0,0,0,0,0,-1,944,1786,0,0
-273,-762,0,0,0,0,0,0,0,0,0,-1,951,1786,0,0
-266,-762,0,0,0,0,0,0,0,0,0,-1,958,1786,0,0
-259,-762,0,0,0,0,0,0,0,0,0,-1,965,1786,0,0
-252,-762,0,0,0,0,0,0,0,0,0,-1,972,1786,0,0
-245,-762,0,0,0,0,0,0,0,0,0,-1,979,1786,0,0
-238,-762,0,0,0,0,0,0,0,0,0,-1,986,1786,0,0
-231,-762,0,0,0,0,0,0,0,0,0,-1,993,1786,0,0
-224,-762,0,0,0,0,0,0,0,0,0,-1,1000,1786,0,0
-217,-762,0,0,0,0,0,0,0,0,0,-1,1007,1786,0,0
-210,-762,0,0,0,0,0,0,0,0,0,-1,1014,1786,0,0
-203,-762,0,0,0,0,0,0,0,0,0,-1,1021,1786,0,0
-196,-762,0,0,0,0,0,0,0,0,0,-1,1028,1786,0,0
-189,-762,0,0,0,0,0,0,0,0,0,-1,1035,1786,0,0
-182,-762,4.44226,13.2462,0,0,0,0,0,0,0,-1,1042,1786,4.44227,-13.2462
-175,-762,4.3219,18.3975,0,0,0,0,0,0,0,-1,1049,1786,4.32192,-18.3974
-168,-762,-2.08618,13.0768,0,0,0,0,0,0,0,-1,1056,1786,-2.08623,-13.0768
-161,-762,-3.29077,11.9508,0,0,0,0,0,0,0,-1,1063,1786,-3.29076,-11.9508
-154,-762,-4.55823,11.1176,0,0,0,0,0,0,0,-1,1070,1786,-4.55828,-11.1175
-147,-762,-6.52454,9.41418,0,0,0,0,0,0,0,-1,1077,1786,-6.52458,-9.41419
-140,-762,4.99792,5.28589,0,0,0,0,0,0,0,-1,1084,1786,4.99793,-5.28587
-133,-762,0.689819,19.2172,0,0,0,0,0,0,0,-1,1091,1786,0.689867,-19.2171
-126,-762,1.48743,19.9288,0,0,0,0,0,0,0,-1,1098,1786,1.48738,-19.9289
-119,-762,2.65637,20.208,0,0,0,0,0,0,0,-1,1105,1786,2.65632,-20.208
-112,-762,6.84705,25.5554,0,0,0,0,0,0,0,-1,1112,1786,6.84706,-25.5554
-105,-762,5.57947,21.618,0,0,0,0,0,0,0,-1,1119,1786,5.57948,-21.618
-98,-762,5.0636,17.9901,0,0,0,0,0,0,0,-1,1126,1786,5.06361,-17.9901
-91,-762,4.54773,14.3622,0,0,0,0,0,0,0,-1,1133,1786,4.54774,-14.3622
-84,-762,3.96375,10.4547,0,0,0,0,0,0,0,-1,1140,1786,3.96371,-10.4548
-77,-762,0.305054,8.49365,0,0,0,0,0,0,0,-1,1147,1786,0.305008,-8.49362
-70,-762,0.183716,6.74622,0,0,0,0,0,0,0,-1,1154,1786,0.183696,-6.74621
-63,-762,-0.883057,9.08813,0,0,0,0,0,0,0,-1,1161,1786,-0.88311,-9.08808
-56,-762,-0.578979,5.10254,0,0,0,0,0,0,0,-1,1168,1786,-0.578951,-5.10249
-49,-762,-2.04541,3.66321,0,0,0,0,0,0,0,-1,1175,1786,-2.0454,-3.66319
-42,-762,-2.23462,3.474,0,0,0,0,0,0,0,-1,1182,1786,-2.23459,-3.47399
-35,-762,-3.28992,1.68164,0,0,0,0,0,0,0,-1,1189,1786,-3.28998,-1.68164
-28,-762,-3.75378,1.37769,0,0,0,0,0,0,0,-1,1196,1786,-3.75373,-1.37767
-21,-762,9.04858,39.7706,0,0,0,0,0,0,0,-1,1203,1786,9.04863,-39.7706
-14,-762,8.69958,39.6967,-0.0225973,0.0150627,-0.00433477,0.0155552,-0.0230898,-1.45766,0.0224526,0.0481812,1210,1786,8.6996,-39.6966
-7,-762,8.23413,39.1317,-0.0184041,0.0197058,-0.00588564,0.0205941,-0.0192924,-1.42101,0.0230325,0.0477296,1217,1786,8.23416,-39.1317
0,-762,8.33911,39.2883,-0.0135998,0.0256961,-0.00780133,0.0271882,-0.0150919,-1.38181,0.0247412,0.0355927,1224,1786,8.33908,-39.2884
7,-762,8.39526,39.4933,-0.00866118,0.0321633,-0.0103153,0.0346216,-0.0111195,-1.33684,0.0275462,0.0215415,1231,1786,8.39526,-39.4933
14,-762,8.3053,39.7656,-0.00423171,0.0381984,-0.0128564,0.0417899,-0.00782322,-1.29839,0.0308006,0.0365222,1238,1786,8.30525,-39.7657
21,-762,8.00342,39.8003,-0.000669951,0.0433803,-0.0155227,0.0483006,-0.00559033,-1.26384,0.0342164,0.0449472,1245,1786,8.00346,-39.8003
28,-762,7.93103,39.851,0.00194739,0.0477102,-0.0180226,0.0539557,-0.00429803,-1.23721,0.0374853,0.0446273,1252,1786,7.93106,-39.851
35,-762,8.01978,39.8175,0.00429487,0.0491575,-0.0203593,0.0570192,-0.00356682,-1.20229,0.0392558,0.0465444,1259,1786,8.01983,-39.8175
42,-762,8.10596,39.8004,0.00649324,0.0496618,-0.0226075,0.0593342,-0.00317918,-1.16652,0.0406573,0.0466755,1266,1786,8.1059,-39.8004
49,-762,8.08057,39.7972,0.0079071,0.0480787,-0.0245292,0.0596966,-0.00371078,-1.12846,0.0410905,0.0377868,1273,1786,8.08056,-39.7972
56,-762,8.08179,39.8184,0.00849313,0.044919,-0.0262914,0.0586897,-0.0052775,-1.08831,0.040999,0.0270325,1280,1786,8.08184,-39.8183
63,-762,8.0304,39.8322,0.00809502,0.0416195,-0.0274137,0.0569896,-0.00727505,-1.0598,0.0406357,0.023733,1287,1786,8.03044,-39.8321
70,-762,7.97864,39.8314,0.00952711,0.036779,-0.0275394,0.0538791,-0.00757293,-1.01513,0.0386915,0.0235772,1294,1786,7.97858,-39.8315
77,-762,7.91455,39.7507,0.00963839,0.027886,-0.0255296,0.0458731,-0.00834872,-0.957016,0.0337114,0.0302711,1301,1786,7.91452,-39.7508
84,-762,7.93372,39.7813,0.00883469,0.0227845,-0.024529,0.041311,-0.00969181,-0.923918,0.0312759,0.0388738,1308,1786,7.93368,-39.7813
91,-762,7.89941,39.7982,0.00896973,0.0175408,-0.023683,0.0373229,-0.0108123,-0.874907,0.029162,0.0492252,1315,1786,7.89941,-39.7983
98,-762,7.82861,39.7629,0.00999415,0.0132197,-0.0216466,0.0333136,-0.0100997,-0.822582,0.0262319,0.0491005,1322,1786,7.82861,-39.7629
105,-762,7.80835,39.7355,0.0110339,0.00916295,-0.019234,0.0293551,-0.0091583,-0.7611,0.0232325,0.0446343,1329,1786,7.80831,-39.7355
112,-762,7.57251,39.5787,0.0116762,0.00548664,-0.0166012,0.0254686,-0.00830579,-0.693246,0.0203216,0.0448658,1336,1786,7.57249,-39.5788
119,-762,7.37573,39.7145,0.012104,0.00270543,-0.0142823,0.0224403,-0.00763081,-0.626462,0.0180497,0.0464114,1343,1786,7.37576,-39.7144
126,-762,7.49854,39.7966,0.0121679,0.000238481,-0.0117849,0.0194116,-0.00700525,-0.551129,0.0158025,0.048215,1350,1786,7.49853,-39.7966
133,-762,7.47119,39.576,0.0117403,-0.00117431,-0.00960822,0.0168594,-0.00629349,-0.489535,0.0138235,0.0469734,1357,1786,7.4712,-39.5761
140,-762,7.60828,39.5696,0.010333,-0.00159959,-0.00724765,0.0137542,-0.0050208,-0.441034,0.0112238,0.043151,1364,1786,7.6083,-39.5695
147,-762,7.71716,39.4387,0.00856531,-0.00202013,-0.0049284,0.0105046,-0.00395942,-0.374884,0.0086311,0.0423356,1371,1786,7.7172,-39.4387
154,-762,7.36133,39.4048,0,0,0,0,0,0,0,-1,1378,1786,7.36131,-39.4048
161,-762,8.65051,34.8102,0,0,0,0,0,0,0,-1,1385,1786,8.65054,-34.8101
168,-762,8.19287,0.880615,0,0,0,0,0,0,0,-1,1392,1786,8.19291,-0.880603
175,-762,8.33997,1.95947,0,0,0,0,0,0,0,-1,1399,1786,8.33997,-1.95942
182,-762,8.28418,3.56482,0,0,0,0,0,0,0,-1,1406,1786,8.28415,-3.56485
189,-762,8.21179,5.23389,0,0,0,0,0,0,0,-1,1413,1786,8.21183,-5.23383
196,-762,8.05969,6.95483,0,0,0,0,0,0,0,-1,1420,1786,8.05972,-6.9548
203,-762,24.0077,7.10425,0,0,0,0,0,0,0,-1,1427,1786,24.0077,-7.10426
210,-762,23.8073,7.6499,0,0,0,0,0,0,0,-1,1434,1786,23.8073,-7.64987
217,-762,23.3193,8.24426,0,0,0,0,0,0,0,-1,1441,1786,23.3194,-8.2442
224,-762,2.65149,20.6106,0,0,0,0,0,0,0,-1,1448,1786,2.65153,-20.6106
231,-762,5.46655,23.521,0,0,0,0,0,0,0,-1,1455,1786,5.46653,-23.521
238,-762,5.35632,29.7203,0,0,0,0,0,0,0,-1,1462,1786,5.35629,-29.7203
245,-762,5.84509,28.6954,0,0,0,0,0,0,0,-1,1469,1786,5.84509,-28.6954
252,-762,5.82837,27.7246,0,0,0,0,0,0,0,-1,1476,1786,5.82839,-27.7247
259,-762,10.7311,18.3031,0,0,0,0,0,0,0,-1,1483,1786,10.7311,-18.3031
266,-762,16.451,7.67773,0,0,0,0,0,0,0,-1,1490,1786,16.4511,-7.67773
273,-762,15.287,7.5304,0,0,0,0,0,0,0,-1,1497,1786,15.2869,-7.53044
280,-762,14.1501,7.38379,0,0,0,0,0,0,0,-1,1504,1786,14.1502,-7.38376
287,-762,12.6891,7.99133,0,0,0,0,0,0,0,-1,1511,1786,12.6891,-7.99135
294,-762,12.6959,8.30371,0,0,0,0,0,0,0,-1,1518,1786,12.6959,-8.30368
301,-762,11.4222,8.84143,0,0,0,0,0,0,0,-1,1525,1786,11.4223,-8.84149
308,-762,0,0,0,0,0,0,0,0,0,-1,1532,1786,0,0
315,-762,0,0,0,0,0,0,0,0,0,-1,1539,1786,0,0
322,-762,0,0,0,0,0,0,0,0,0,-1,1546,1786,0,0
329,-762,0,0,0,0,0,0,0,0,0,-1,1553,1786,0,0
336,-762,0,0,0,0,0,0,0,0,0,-1,1560,1786,0,0
343,-762,0,0,0,0,0,0,0,0,0,-1,1567,1786,0,0
350,-762,0,0,0,0,0,0,0,0,0,-1,1574,1786,0,0
357,-762,0,0,0,0,0,0,0,0,0,-1,1581,1786,0,0
364,-762,0,0,0,0,0,0,0,0,0,-1,1588,1786,0,0
371,-762,0,0,0,0,0,0,0,0,0,-1,1595,1786,0,0
378,-762,0,0,0,0,0,0,0,0,0,-1,1602,1786,0,0
385,-762,0,0,0,0,0,0,0,0,0,-1,1609,1786,0,0
392,-762,0,0,0,0,0,0,0,0,0,-1,1616,1786,0,0
399,-762,0,0,0,0,0,0,0,0,0,-1,1623,1786,0,0
406,-762,0,0,0,0,0,0,0,0,0,-1,1630,1786,0,0
413,-762,0,0,0,0,0,0,0,0,0,-1,1637,1786,0,0
420,-762,0,0,0,0,0,0,0,0,0,-1,1644,1786,0,0
427,-762,0,0,0,0,0,0,0,0,0,-1,1651,1786,0,0
434,-762,0,0,0,0,0,0,0,0,0,-1,1658,1786,0,0
441,-762,0,0,0,0,0,0,0,0,0,-1,1665,1786,0,0
448,-762,0,0,0,0,0,0,0,0,0,-1,1672,1786,0,0
455,-762,0,0,0,0,0,0,0,0,0,-1,1679,1786,0,0
462,-762,0,0,0,0,0,0,0,0,0,-1,1686,1786,0,0
469,-762,0,0,0,0,0,0,0,0,0,-1,1693,1786,0,0
476,-762,0,0,0,0,0,0,0,0,0,-1,1700,1786,0,0
483,-762,0,0,0,0,0,0,0,0,0,-1,1707,1786,0,0
490,-762,0,0,0,0,0,0,0,0,0,-1,1714,1786,0,0
497,-762,0,0,0,0,0,0,0,0,0,-1,1721,1786,0,0
504,-762,0,0,0,0,0,0,0,0,0,-1,1728,1786,0,0
511,-762,0,0,0,0,0,0,0,0,0,-1,1735,1786,0,0
518,-762,0,0,0,0,0,0,0,0,0,-1,1742,1786,0,0
525,-762,0,0,0,0,0,0,0,0,0,-1,1749,1786,0,0
532,-762,0,0,0,0,0,0,0,0,0,-1,1756,1786,0,0
539,-762,0,0,0,0,0,0,0,0,0,-1,1763,1786,0,0
546,-762,0,0,0,0,0,0,0,0,0,-1,1770,1786,0,0
553,-762,0,0,0,0,0,0,0,0,0,-1,1777,1786,0,0
560,-762,0,0,0,0,0,0,0,0,0,-1,1784,1786,0,0
567,-762,0,0,0,0,0,0,0,0,0,-1,1791,1786,0,0
574,-762,0,0,0,0,0,0,0,0,0,-1,1798,1786,0,0
581,-762,0,0,0,0,0,0,0,0,0,-1,1805,1786,0,0
588,-762,0,0,0,0,0,0,0,0,0,-1,1812,1786,0,0
595,-762,0,0,0,0,0,0,0,0,0,-1,1819,1786,0,0
602,-762,0,0,0,0,0,0,0,0,0,-1,1826,1786,0,0
609,-762,0,0,0,0,0,0,0,0,0,-1,1833,1786,0,0
616,-762,0,0,0,0,0,0,0,0,0,-1,1840,1786,0,0
623,-762,0,0,0,0,0,0,0,0,0,-1,1847,1786,0,0
630,-762,0,0,0,0,0,0,0,0,0,-1,1854,1786,0,0
637,-762,0,0,0,0,0,0,0,0,0,-1,1861,1786,0,0
644,-762,0,0,0,0,0,0,0,0,0,-1,1868,1786,0,0
651,-762,0,0,0,0,0,0,0,0,0,-1,1875,1786,0,0
658,-762,0,0,0,0,0,0,0,0,0,-1,1882,1786,0,0
665,-762,0,0,0,0,0,0,0,0,0,-1,1889,1786,0,0
672,-762,0,0,0,0,0,0,0,0,0,-1,1896,1786,0,0
679,-762,0,0,0,0,0,0,0,0,0,-1,1903,1786,0,0
686,-762,0,0,0,0,0,0,0,0,0,-1,1910,1786,0,0
693,-762,0,0,0,0,0,0,0,0,0,-1,1917,1786,0,0
700,-762,0,0,0,0,0,0,0,0,0,-1,1924,1786,0,0
707,-762,0,0,0,0,0,0,0,0,0,-1,1931,1786,0,0
714,-762,0,0,0,0,0,0,0,0,0,-1,1938,1786,0,0
721,-762,0,0,0,0,0,0,0,0,0,-1,1945,1786,0,0
728,-762,0,0,0,0,0,0,0,0,0,-1,1952,1786,0,0
735,-762,0,0,0,0,0,0,0,0,0,-1,1959,1786,0,0
742,-762,0,0,0,0,0,0,0,0,0,-1,1966,1786,0,0
749,-762,0,0,0,0,0,0,0,0,0,-1,1973,1786,0,0
756,-762,0,0,0,0,0,0,0,0,0,-1,1980,1786,0,0
763,-762,0,0,0,0,0,0,0,0,0,-1,1987,1786,0,0
770,-762,0,0,0,0,0,0,0,0,0,-1,1994,1786,0,0
777,-762,0,0,0,0,0,0,0,0,0,-1,2001,1786,0,0
784,-762,0,0,0,0,0,0,0,0,0,-1,2008,1786,0,0
791,-762,0,0,0,0,0,0,0,0,0,-1,2015,1786,0,0
798,-762,0,0,0,0,0,0,0,0,0,-1,2022,1786,0,0
805,-762,0,0,0,0,0,0,0,0,0,-1,2029,1786,0,0
812,-762,0,0,0,0,0,0,0,0,0,-1,2036,1786,0,0
-700,-769,0,0,0,0,0,0,0,0,0,-1,524,1793,0,0
-693,-769,0,0,0,0,0,0,0,0,0,-1,531,1793,0,0
-686,-769,0,0,0,0,0,0,0,0,0,-1,538,1793,0,0
-679,-769,0,0,0,0,0,0,0,0,0,-1,545,1793,0,0
-672,-769,0,0,0,0,0,0,0,0,0,-1,552,1793,0,0
-665,-769,0,0,0,0,0,0,0,0,0,-1,559,1793,0,0
-658,-769,0,0,0,0,0,0,0,0,0,-1,566,1793,0,0
-651,-769,0,0,0,0,0,0,0,0,0,-1,573,1793,0,0
-644,-769,0,0,0,0,0,0,0,0,0,-1,580,1793,0,0
-637,-769,0,0,0,0,0,0,0,0,0,-1,587,1793,0,0
-630,-769,0,0,0,0,0,0,0,0,0,-1,594,1793,0,0
-623,-769,0,0,0,0,0,0,0,0,0,-1,601,1793,0,0
-616,-769,0,0,0,0,0,0,0,0,0,-1,608,1793,0,0
-609,-769,0,0,0,0,0,0,0,0,0,-1,615,1793,0,0
-602,-769,0,0,0,0,0,0,0,0,0,-1,622,1793,0,0
-595,-769,0,0,0,0,0,0,0,0,0,-1,629,1793,0,0
-588,-769,0,0,0,0,0,0,0,0,0,-1,636,1793,0,0
-581,-769,0,0,0,0,0,0,0,0,0,-1,643,1793,0,0
-574,-769,0,0,0,0,0,0,0,0,0,-1,650,1793,0,0
-567,-769,0,0,0,0,0,0,0,0,0,-1,657,1793,0,0
-560,-769,0,0,0,0,0,0,0,0,0,-1,664,1793,0,0
-553,-769,0,0,0,0,0,0,0,0,0,-1,671,1793,0,0
-546,-769,0,0,0,0,0,0,0,0,0,-1,678,1793,0,0
-539,-769,0,0,0,0,0,0,0,0,0,-1,685,1793,0,0
-532,-769,0,0,0,0,0,0,0,0,0,-1,692,1793,0,0
-525,-769,0,0,0,0,0,0,0,0,0,-1,699,1793,0,0
-518,-769,0,0,0,0,0,0,0,0,0,-1,706,1793,0,0
-511,-769,0,0,0,0,0,0,0,0,0,-1,713,1793,0,0
-504,-769,0,0,0,0,0,0,0,0,0,-1,720,1793,0,0
-497,-769,0,0,0,0,0,0,0,0,0,-1,727,1793,0,0
-490,-769,0,0,0,0,0,0,0,0,0,-1,734,1793,0,0
-483,-769,0,0,0,0,0,0,0,0,0,-1,741,1793,0,0
-476,-769,0,0,0,0,0,0,0,0,0,-1,748,1793,0,0
-469,-769,0,0,0,0,0,0,0,0,0,-1,755,1793,0,0
-462,-769,0,0,0,0,0,0,0,0,0,-1,762,1793,0,0
-455,-769,0,0,0,0,0,0,0,0,0,-1,769,1793,0,0
-448,-769,0,0,0,0,0,0,0,0,0,-1,776,1793,0,0
-441,-769,0,0,0,0,0,0,0,0,0,-1,783,1793,0,0
-434,-769,0,0,0,0,0,0,0,0,0,-1,790,1793,0,0
-427,-769,0,0,0,0,0,0,0,0,0,-1,797,1793,0,0
-420,-769,0,0,0,0,0,0,0,0,0,-1,804,1793,0,0
-413,-769,0,0,0,0,0,0,0,0,0,-1,811,1793,0,0
-406,-769,0,0,0,0,0,0,0,0,0,-1,818,1793,0,0
-399,-769,0,0,0,0,0,0,0,0,0,-1,825,1793,0,0
-392,-769,0,0,0,0,0,0,0,0,0,-1,832,1793,0,0
-385,-769,0,0,0,0,0,0,0,0,0,-1,839,1793,0,0
-378,-769,0,0,0,0,0,0,0,0,0,-1,846,1793,0,0
-371,-769,0,0,0,0,0,0,0,0,0,-1,853,1793,0,0
-364,-769,0,0,0,0,0,0,0,0,0,-1,860,1793,0,0
-357,-769,0,0,0,0,0,0,0,0,0,-1,867,1793,0,0
-350,-769,0,0,0,0,0,0,0,0,0,-1,874,1793,0,0
-343,-769,0,0,0,0,0,0,0,0,0,-1,881,1793,0,0
-336,-769,0,0,0,0,0,0,0,0,0,-1,888,1793,0,0
-329,-769,0,0,0,0,0,0,0,0,0,-1,895,1793,0,0
-322,-769,0,0,0,0,0,0,0,0,0,-1,902,1793,0,0
-315,-769,0,0,0,0,0,0,0,0,0,-1,909,1793,0,0
-308,-769,0,0,0,0,0,0,0,0,0,-1,916,1793,0,0
-301,-769,0,0,0,0,0,0,0,0,0,-1,923,1793,0,0
-294,-769,0,0,0,0,0,0,0,0,0,-1,930,1793,0,0
-287,-769,0,0,0,0,0,0,0,0,0,-1,937,1793,0,0
-280,-769,0,0,0,0,0,0,0,0,0,-1,944,1793,0,0
-273,-769,0,0,0,0,0,0,0,0,0,-1,951,1793,0,0
-266,-769,0,0,0,0,0,0,0,0,0,-1,958,1793,0,0
-259,-769,0,0,0,0,0,0,0,0,0,-1,965,1793,0,0
-252,-769,0,0,0,0,0,0,0,0,0,-1,972,1793,0,0
-245,-769,0,0,0,0,0,0,0,0,0,-1,979,1793,0,0
-238,-769,0,0,0,0,0,0,0,0,0,-1,986,1793,0,0
-231,-769,0,0,0,0,0,0,0,0,0,-1,993,1793,0,0
-224,-769,0,0,0,0,0,0,0,0,0,-1,1000,1793,0,0
-217,-769,0,0,0,0,0,0,0,0,0,-1,1007,1793,0,0
-210,-769,0,0,0,0,0,0,0,0,0,-1,1014,1793,0,0
-203,-769,0,0,0,0,0,0,0,0,0,-1,1021,1793,0,0
-196,-769,0,0,0,0,0,0,0,0,0,-1,1028,1793,0,0
-189,-769,0,0,0,0,0,0,0,0,0,-1,1035,1793,0,0
-182,-769,0,0,0,0,0,0,0,0,0,-1,1042,1793,0,0
-175,-769,0,0,0,0,0,0,0,0,0,-1,1049,1793,0,0
-168,-769,0,0,0,0,0,0,0,0,0,-1,1056,1793,0,0
-161,-769,-3.61145,12.4761,0,0,0,0,0,0,0,-1,1063,1793,-3.6114,-12.476
-154,-769,-0.813232,5.32874,0,0,0,0,0,0,0,-1,1070,1793,-0.813269,-5.32872
-147,-769,4.26587,4.7002,0,0,0,0,0,0,0,-1,1077,1793,4.26593,-4.70022
-140,-769,4.10376,5.28589,0,0,0,0,0,0,0,-1,1084,1793,4.10371,-5.28584
-133,-769,6.422,8.21777,0,0,0,0,0,0,0,-1,1091,1793,6.42198,-8.21773
-126,-769,-0.352295,19.326,0,0,0,0,0,0,0,-1,1098,1793,-0.352235,-19.326
-119,-769,6.01685,16.2577,0,0,0,0,0,0,0,-1,1105,1793,6.01689,-16.2576
-112,-769,5.76416,27.2615,0,0,0,0,0,0,0,-1,1112,1793,5.7642,-27.2615
-105,-769,4.97009,22.8479,0,0,0,0,0,0,0,-1,1119,1793,4.97006,-22.8479
-98,-769,4.69373,18.9142,0,0,0,0,0,0,0,-1,1126,1793,4.69376,-18.9142
-91,-769,4.41748,14.9805,0,0,0,0,0,0,0,-1,1133,1793,4.41746,-14.9805
-84,-769,3.2207,12.4565,0,0,0,0,0,0,0,-1,1140,1793,3.22066,-12.4565
-77,-769,2.48816,8.98486,0,0,0,0,0,0,0,-1,1147,1793,2.48815,-8.98489
-70,-769,1.04944,11.9852,0,0,0,0,0,0,0,-1,1154,1793,1.04947,-11.9852
-63,-769,-2.39709,9.60339,0,0,0,0,0,0,0,-1,1161,1793,-2.39706,-9.6034
-56,-769,-5.84363,7.22156,0,0,0,0,0,0,0,-1,1168,1793,-5.84359,-7.22157
-49,-769,-2.41443,3.95471,0,0,0,0,0,0,0,-1,1175,1793,-2.41446,-3.95471
-42,-769,-3.1991,2.64941,0,0,0,0,0,0,0,-1,1182,1793,-3.19914,-2.64944
-35,-769,-3.50183,1.73389,0,0,0,0,0,0,0,-1,1189,1793,-3.50189,-1.7339
-28,-769,-3.96985,1.14075,0,0,0,0,0,0,0,-1,1196,1793,-3.96985,-1.14078
-21,-769,9.41785,40.1624,0,0,0,0,0,0,0,-1,1203,1793,9.41779,-40.1624
-14,-769,8.83923,40.1785,0,0,0,0,0,0,0,-1,1210,1793,8.83923,-40.1785
-7,-769,8.18774,39.0327,0,0,0,0,0,0,0,-1,1217,1793,8.18777,-39.0327
0,-769,8.32104,39.2393,-0.0184738,0.0394709,-0.0106805,0.0413769,-0.0203798,-1.3942,0.0363357,0.0479175,1224,1793,8.32101,-39.2393
7,-769,8.68799,40.0328,-0.0117434,0.048675,-0.0141539,0.0518263,-0.0148948,-1.35172,0.0404407,0.0458382,1231,1793,8.68797,-40.0328
14,-769,8.59094,40.1744,-0.00581104,0.0568875,-0.0176401,0.0615098,-0.0104333,-1.31453,0.0448902,0.0433667,1238,1793,8.59098,-40.1744
21,-769,7.53833,40.1394,-0.00115105,0.0634615,-0.0210673,0.0697237,-0.00741324,-1.28187,0.0491403,0.0435089,1245,1793,7.53834,-40.1394
28,-769,7.75696,39.9384,0,0,0,0,0,0,0,-1,1252,1793,7.75695,-39.9384
35,-769,7.7229,39.5726,0.00525264,0.0695722,-0.0271069,0.0794723,-0.00464752,-1.22062,0.0545967,0.0462911,1259,1793,7.72288,-39.5727
42,-769,8.12231,39.4827,0.00809994,0.0690323,-0.0298561,0.0812225,-0.00409032,-1.18315,0.055562,0.0458278,1266,1793,8.12237,-39.4827
49,-769,8.58313,39.9462,0.0101272,0.0658037,-0.0322336,0.0805562,-0.00462528,-1.14158,0.0553104,0.046746,1273,1793,8.58309,-39.9461
56,-769,9.14001,39.2736,0.0112364,0.0605317,-0.0344379,0.0782336,-0.00646544,-1.096,0.054439,0.0427117,1280,1793,9.14,-39.2735
63,-769,8.83679,39.191,0,0,0,0,0,0,0,-1,1287,1793,8.83683,-39.191
70,-769,8.22424,39.5922,0.0134805,0.0478257,-0.0365333,0.0710212,-0.00971496,-1.0051,0.0508958,0.0433353,1294,1793,8.22422,-39.5922
77,-769,8.36084,39.1016,0.0138935,0.0350245,-0.0340403,0.0601013,-0.0111833,-0.935875,0.0442687,0.0418905,1301,1793,8.36088,-39.1016
84,-769,7.95032,39.5511,0.0133295,0.0281283,-0.0332841,0.0548255,-0.0133678,-0.894775,0.0417262,0.0471654,1308,1793,7.95032,-39.5512
91,-769,8.42004,39.5247,0.0143169,0.0212974,-0.0328351,0.0508273,-0.015213,-0.838347,0.0399337,0.0473391,1315,1793,8.42002,-39.5246
98,-769,7.58582,39.6665,0.0162066,0.0159459,-0.0307997,0.0468763,-0.0147237,-0.783282,0.0371446,0.0456971,1322,1793,7.58582,-39.6665
105,-769,7.74976,39.757,0.0178516,0.0109865,-0.0281177,0.0427455,-0.0139075,-0.72466,0.0340919,0.0451462,1329,1793,7.74971,-39.757
112,-769,7.50427,39.4608,0,0,0,0,0,0,0,-1,1336,1793,7.5043,-39.4608
119,-769,6.69299,39.8256,0.0196038,0.00360143,-0.0222847,0.0352801,-0.0120749,-0.613043,0.0284136,0.0442543,1343,1793,6.69304,-39.8255
126,-769,7.0625,39.8501,0.0197914,0.00117346,-0.019247,0.0318624,-0.0108975,-0.560153,0.0256575,0.0462975,1350,1793,7.06252,-39.8501
133,-769,7.40894,39.6415,0,0,0,0,0,0,0,-1,1357,1793,7.40895,-39.6414
140,-769,7.78992,39.7415,0,0,0,0,0,0,0,-1,1364,1793,7.78991,-39.7415
147,-769,7.86108,39.521,0,0,0,0,0,0,0,-1,1371,1793,7.86113,-39.521
154,-769,7.76904,34.4832,0,0,0,0,0,0,0,-1,1378,1793,7.7691,-34.4832
161,-769,6.57019,1.53223,0,0,0,0,0,0,0,-1,1385,1793,6.57019,-1.53226
168,-769,8.27637,0.756958,0,0,0,0,0,0,0,-1,1392,1793,8.27639,-0.756944
175,-769,8.47144,2.41174,0,0,0,0,0,0,0,-1,1399,1793,8.47147,-2.4118
182,-769,8.41479,4.05994,0,0,0,0,0,0,0,-1,1406,1793,8.41479,-4.05997
189,-769,8.25049,5.68433,0,0,0,0,0,0,0,-1,1413,1793,8.25054,-5.68428
196,-769,7.97729,7.42847,0,0,0,0,0,0,0,-1,1420,1793,7.9773,-7.42848
203,-769,22.0977,6.73889,0,0,0,0,0,0,0,-1,1427,1793,22.0977,-6.7389
210,-769,22.1115,7.77246,0,0,0,0,0,0,0,-1,1434,1793,22.1115,-7.77248
217,-769,22.4723,8.79102,0,0,0,0,0,0,0,-1,1441,1793,22.4723,-8.79099
224,-769,22.1348,9.35278,0,0,0,0,0,0,0,-1,1448,1793,22.1348,-9.35283
231,-769,3.13318,19.7184,0,0,0,0,0,0,0,-1,1455,1793,3.13323,-19.7184
238,-769,5.74512,18.6597,0,0,0,0,0,0,0,-1,1462,1793,5.74512,-18.6596
245,-769,5.80798,22.87,0,0,0,0,0,0,0,-1,1469,1793,5.80796,-22.87
252,-769,8.39099,20.3199,0,0,0,0,0,0,0,-1,1476,1793,8.39098,-20.3199
259,-769,10.974,17.7698,0,0,0,0,0,0,0,-1,1483,1793,10.974,-17.7698
266,-769,15.8488,7.3905,0,0,0,0,0,0,0,-1,1490,1793,15.8488,-7.39046
273,-769,14.8075,7.56152,0,0,0,0,0,0,0,-1,1497,1793,14.8075,-7.56152
280,-769,13.6519,7.43054,0,0,0,0,0,0,0,-1,1504,1793,13.6518,-7.43058
287,-769,0,0,0,0,0,0,0,0,0,-1,1511,1793,0,0
294,-769,0,0,0,0,0,0,0,0,0,-1,1518,1793,0,0
301,-769,0,0,0,0,0,0,0,0,0,-1,1525,1793,0,0
308,-769,0,0,0,0,0,0,0,0,0,-1,1532,1793,0,0
315,-769,0,0,0,0,0,0,0,0,0,-1,1539,1793,0,0
322,-769,0,0,0,0,0,0,0,0,0,-1,1546,1793,0,0
329,-769,0,0,0,0,0,0,0,0,0,-1,1553,1793,0,0
336,-769,0,0,0,0,0,0,0,0,0,-1,1560,1793,0,0
343,-769,0,0,0,0,0,0,0,0,0,-1,1567,1793,0,0
350,-769,0,0,0,0,0,0,0,0,0,-1,1574,1793,0,0
357,-769,0,0,0,0,0,0,0,0,0,-1,1581,1793,0,0
364,-769,0,0,0,0,0,0,0,0,0,-1,1588,1793,0,0
371,-769,0,0,0,0,0,0,0,0,0,-1,1595,1793,0,0
378,-769,0,0,0,0,0,0,0,0,0,-1,1602,1793,0,0
385,-769,0,0,0,0,0,0,0,0,0,-1,1609,1793,0,0
392,-769,0,0,0,0,0,0,0,0,0,-1,1616,1793,0,0
399,-769,0,0,0,0,0,0,0,0,0,-1,1623,1793,0,0
406,-769,0,0,0,0,0,0,0,0,0,-1,1630,1793,0,0
413,-769,0,0,0,0,0,0,0,0,0,-1,1637,1793,0,0
420,-769,0,0,0,0,0,0,0,0,0,-1,1644,1793,0,0
427,-769,0,0,0,0,0,0,0,0,0,-1,1651,1793,0,0
434,-769,0,0,0,0,0,0,0,0,0,-1,1658,1793,0,0
441,-769,0,0,0,0,0,0,0,0,0,-1,1665,1793,0,0
448,-769,0,0,0,0,0,0,0,0,0,-1,1672,1793,0,0
455,-769,0,0,0,0,0,0,0,0,0,-1,1679,1793,0,0
462,-769,0,0,0,0,0,0,0,0,0,-1,1686,1793,0,0
469,-769,0,0,0,0,0,0,0,0,0,-1,1693,1793,0,0
476,-769,0,0,0,0,0,0,0,0,0,-1,1700,1793,0,0
483,-769,0,0,0,0,0,0,0,0,0,-1,1707,1793,0,0
490,-769,0,0,0,0,0,0,0,0,0,-1,1714,1793,0,0
497,-769,0,0,0,0,0,0,0,0,0,-1,1721,1793,0,0
504,-769,0,0,0,0,0,0,0,0,0,-1,1728,1793,0,0
511,-769,0,0,0,0,0,0,0,0,0,-1,1735,1793,0,0
518,-769,0,0,0,0,0,0,0,0,0,-1,1742,1793,0,0
525,-769,0,0,0,0,0,0,0,0,0,-1,1749,1793,0,0
532,-769,0,0,0,0,0,0,0,0,0,-1,1756,1793,0,0
539,-769,0,0,0,0,0,0,0,0,0,-1,1763,1793,0,0
546,-769,0,0,0,0,0,0,0,0,0,-1,1770,1793,0,0
553,-769,0,0,0,0,0,0,0,0,0,-1,1777,1793,0,0
560,-769,0,0,0,0,0,0,0,0,0,-1,1784,1793,0,0
567,-769,0,0,0,0,0,0,0,0,0,-1,1791,1793,0,0
574,-769,0,0,0,0,0,0,0,0,0,-1,1798,1793,0,0
581,-769,0,0,0,0,0,0,0,0,0,-1,1805,1793,0,0
588,-769,0,0,0,0,0,0,0,0,0,-1,1812,1793,0,0
595,-769,0,0,0,0,0,0,0,0,0,-1,1819,1793,0,0
602,-769,0,0,0,0,0,0,0,0,0,-1,1826,1793,0,0
609,-769,0,0,0,0,0,0,0,0,0,-1,1833,1793,0,0
616,-769,0,0,0,0,0,0,0,0,0,-1,1840,1793,0,0
623,-769,0,0,0,0,0,0,0,0,0,-1,1847,1793,0,0
630,-769,0,0,0,0,0,0,0,0,0,-1,1854,1793,0,0
637,-769,0,0,0,0,0,0,0,0,0,-1,1861,1793,0,0
644,-769,0,0,0,0,0,0,0,0,0,-1,1868,1793,0,0
651,-769,0,0,0,0,0,0,0,0,0,-1,1875,1793,0,0
658,-769,0,0,0,0,0,0,0,0,0,-1,1882,1793,0,0
665,-769,0,0,0,0,0,0,0,0,0,-1,1889,1793,0,0
672,-769,0,0,0,0,0,0,0,0,0,-1,1896,1793,0,0
679,-769,0,0,0,0,0,0,0,0,0,-1,1903,1793,0,0
686,-769,0,0,0,0,0,0,0,0,0,-1,1910,1793,0,0
693,-769,0,0,0,0,0,0,0,0,0,-1,1917,1793,0,0
700,-769,0,0,0,0,0,0,0,0,0,-1,1924,1793,0,0
707,-769,0,0,0,0,0,0,0,0,0,-1,1931,1793,0,0
714,-769,0,0,0,0,0,0,0,0,0,-1,1938,1793,0,0
721,-769,0,0,0,0,0,0,0,0,0,-1,1945,1793,0,0
728,-769,0,0,0,0,0,0,0,0,0,-1,1952,1793,0,0
735,-769,0,0,0,0,0,0,0,0,0,-1,1959,1793,0,0
742,-769,0,0,0,0,0,0,0,0,0,-1,1966,1793,0,0
749,-769,0,0,0,0,0,0,0,0,0,-1,1973,1793,0,0
756,-769,0,0,0,0,0,0,0,0,0,-1,1980,1793,0,0
763,-769,0,0,0,0,0,0,0,0,0,-1,1987,1793,0,0
770,-769,0,0,0,0,0,0,0,0,0,-1,1994,1793,0,0
777,-769,0,0,0,0,0,0,0,0,0,-1,2001,1793,0,0
784,-769,0,0,0,0,0,0,0,0,0,-1,2008,1793,0,0
791,-769,0,0,0,0,0,0,0,0,0,-1,2015,1793,0,0
798,-769,0,0,0,0,0,0,0,0,0,-1,2022,1793,0,0
805,-769,0,0,0,0,0,0,0,0,0,-1,2029,1793,0,0
812,-769,0,0,0,0,0,0,0,0,0,-1,2036,1793,0,0
-700,-776,0,0,0,0,0,0,0,0,0,-1,524,1800,0,0
-693,-776,0,0,0,0,0,0,0,0,0,-1,531,1800,0,0
-686,-776,0,0,0,0,0,0,0,0,0,-1,538,1800,0,0
-679,-776,0,0,0,0,0,0,0,0,0,-1,545,1800,0,0
-672,-776,0,0,0,0,0,0,0,0,0,-1,552,1800,0,0
-665,-776,0,0,0,0,0,0,0,0,0,-1,559,1800,0,0
-658,-776,0,0,0,0,0,0,0,0,0,-1,566,1800,0,0
-651,-776,0,0,0,0,0,0,0,0,0,-1,573,1800,0,0
-644,-776,0,0,0,0,0,0,0,0,0,-1,580,1800,0,0
-637,-776,0,0,0,0,0,0,0,0,0,-1,587,1800,0,0
-630,-776,0,0,0,0,0,0,0,0,0,-1,594,1800,0,0
-623,-776,0,0,0,0,0,0,0,0,0,-1,601,1800,0,0
-616,-776,0,0,0,0,0,0,0,0,0,-1,608,1800,0,0
-609,-776,0,0,0,0,0,0,0,0,0,-1,615,1800,0,0
-602,-776,0,0,0,0,0,0,0,0,0,-1,622,1800,0,0
-595,-776,0,0,0,0,0,0,0,0,0,-1,629,1800,0,0
-588,-776,0,0,0,0,0,0,0,0,0,-1,636,1800,0,0
-581,-776,0,0,0,0,0,0,0,0,0,-1,643,1800,0,0
-574,-776,0,0,0,0,0,0,0,0,0,-1,650,1800,0,0
-567,-776,0,0,0,0,0,0,0,0,0,-1,657,1800,0,0
-560,-776,0,0,0,0,0,0,0,0,0,-1,664,1800,0,0
-553,-776,0,0,0,0,0,0,0,0,0,-1,671,1800,0,0
-546,-776,0,0,0,0,0,0,0,0,0,-1,678,1800,0,0
-539,-776,0,0,0,0,0,0,0,0,0,-1,685,1800,0,0
-532,-776,0,0,0,0,0,0,0,0,0,-1,692,1800,0,0
-525,-776,0,0,0,0,0,0,0,0,0,-1,699,1800,0,0
-518,-776,0,0,0,0,0,0,0,0,0,-1,706,1800,0,0
-511,-776,0,0,0,0,0,0,0,0,0,-1,713,1800,0,0
-504,-776,0,0,0,0,0,0,0,0,0,-1,720,1800,0,0
-497,-776,0,0,0,0,0,0,0,0,0,-1,727,1800,0,0
-490,-776,0,0,0,0,0,0,0,0,0,-1,734,1800,0,0
-483,-776,0,0,0,0,0,0,0,0,0,-1,741,1800,0,0
-476,-776,0,0,0,0,0,0,0,0,0,-1,748,1800,0,0
-469,-776,0,0,0,0,0,0,0,0,0,-1,755,1800,0,0
-462,-776,0,0,0,0,0,0,0,0,0,-1,762,1800,0,0
-455,-776,0,0,0,0,0,0,0,0,0,-1,769,1800,0,0
-448,-776,0,0,0,0,0,0,0,0,0,-1,776,1800,0,0
-441,-776,0,0,0,0,0,0,0,0,0,-1,783,1800,0,0
-434,-776,0,0,0,0,0,0,0,0,0,-1,790,1800,0,0
-427,-776,0,0,0,0,0,0,0,0,0,-1,797,1800,0,0
-420,-776,0,0,0,0,0,0,0,0,0,-1,804,1800,0,0
-413,-776,0,0,0,0,0,0,0,0,0,-1,811,1800,0,0
-406,-776,0,0,0,0,0,0,0,0,0,-1,818,1800,0,0
-399,-776,0,0,0,0,0,0,0,0,0,-1,825,1800,0,0
-392,-776,0,0,0,0,0,0,0,0,0,-1,832,1800,0,0
-385,-776,0,0,0,0,0,0,0,0,0,-1,839,1800,0,0
-378,-776,0,0,0,0,0,0,0,0,0,-1,846,1800,0,0
-371,-776,0,0,0,0,0,0,0,0,0,-1,853,1800,0,0
-364,-776,0,0,0,0,0,0,0,0,0,-1,860,1800,0,0
-357,-776,0,0,0,0,0,0,0,0,0,-1,867,1800,0,0
-350,-776,0,0,0,0,0,0,0,0,0,-1,874,1800,0,0
-343,-776,0,0,0,0,0,0,0,0,0,-1,881,1800,0,0
-336,-776,0,0,0,0,0,0,0,0,0,-1,888,1800,0,0
-329,-776,0,0,0,0,0,0,0,0,0,-1,895,1800,0,0
-322,-776,0,0,0,0,0,0,0,0,0,-1,902,1800,0,0
-315,-776,0,0,0,0,0,0,0,0,0,-1,909,1800,0,0
-308,-776,0,0,0,0,0,0,0,0,0,-1,916,1800,0,0
-301,-776,0,0,0,0,0,0,0,0,0,-1,923,1800,0,0
-294,-776,0,0,0,0,0,0,0,0,0,-1,930,1800,0,0
-287,-776,0,0,0,0,0,0,0,0,0,-1,937,1800,0,0
-280,-776,0,0,0,0,0,0,0,0,0,-1,944,1800,0,0
-273,-776,0,0,0,0,0,0,0,0,0,-1,951,1800,0,0
-266,-776,0,0,0,0,0,0,0,0,0,-1,958,1800,0,0
-259,-776,0,0,0,0,0,0,0,0,0,-1,965,1800,0,0
-252,-776,0,0,0,0,0,0,0,0,0,-1,972,1800,0,0
-245,-776,0,0,0,0,0,0,0,0,0,-1,979,1800,0,0
-238,-776,0,0,0,0,0,0,0,0,0,-1,986,1800,0,0
-231,-776,0,0,0,0,0,0,0,0,0,-1,993,1800,0,0
-224,-776,0,0,0,0,0,0,0,0,0,-1,1000,1800,0,0
-217,-776,0,0,0,0,0,0,0,0,0,-1,1007,1800,0,0
-210,-776,0,0,0,0,0,0,0,0,0,-1,1014,1800,0,0
-203,-776,0,0,0,0,0,0,0,0,0,-1,1021,1800,0,0
-196,-776,0,0,0,0,0,0,0,0,0,-1,1028,1800,0,0
-189,-776,0,0,0,0,0,0,0,0,0,-1,1035,1800,0,0
-182,-776,0,0,0,0,0,0,0,0,0,-1,1042,1800,0,0
-175,-776,0,0,0,0,0,0,0,0,0,-1,1049,1800,0,0
-168,-776,0,0,0,0,0,0,0,0,0,-1,1056,1800,0,0
-161,-776,0,0,0,0,0,0,0,0,0,-1,1063,1800,0,0
-154,-776,0,0,0,0,0,0,0,0,0,-1,1070,1800,0,0
-147,-776,0,0,0,0,0,0,0,0,0,-1,1077,1800,0,0
-140,-776,2.98499,5.20911,0,0,0,0,0,0,0,-1,1084,1800,2.98493,-5.2091
-133,-776,6.72363,9.35828,0,0,0,0,0,0,0,-1,1091,1800,6.72358,-9.35824
-126,-776,6.55029,13.7832,0,0,0,0,0,0,0,-1,1098,1800,6.55029,-13.7832
-119,-776,5.72107,13.7787,0,0,0,0,0,0,0,-1,1105,1800,5.72106,-13.7787
-112,-776,6.84998,20.4421,0,0,0,0,0,0,0,-1,1112,1800,6.84993,-20.4421
-105,-776,4.46863,24.6742,0,0,0,0,0,0,0,-1,1119,1800,4.46868,-24.6742
-98,-776,4.31616,19.7659,0,0,0,0,0,0,0,-1,1126,1800,4.31619,-19.7659
-91,-776,3.30225,18.134,0,0,0,0,0,0,0,-1,1133,1800,3.30222,-18.134
-84,-776,2.67932,14.3162,0,0,0,0,0,0,0,-1,1140,1800,2.67926,-14.3161
-77,-776,0.580078,11.1272,0,0,0,0,0,0,0,-1,1147,1800,0.58002,-11.1272
-70,-776,-0.562866,12.3163,0,0,0,0,0,0,0,-1,1154,1800,-0.562897,-12.3163
-63,-776,-3.96106,9.97656,0,0,0,0,0,0,0,-1,1161,1800,-3.961,-9.97654
-56,-776,-7.35913,7.63672,0,0,0,0,0,0,0,-1,1168,1800,-7.3591,-7.63676
-49,-776,-7.62952,3.1908,0,0,0,0,0,0,0,-1,1175,1800,-7.62955,-3.19076
-42,-776,-3.41272,3.0249,0,0,0,0,0,0,0,-1,1182,1800,-3.41269,-3.02488
-35,-776,-3.71753,1.63635,0,0,0,0,0,0,0,-1,1189,1800,-3.71755,-1.63631
-28,-776,-4.03979,0.716064,0,0,0,0,0,0,0,-1,1196,1800,-4.03977,-0.716055
-21,-776,9.8905,39.9617,0,0,0,0,0,0,0,-1,1203,1800,9.89052,-39.9616
-14,-776,9.30322,40.2267,-0.0418908,0.0319618,-0.00709234,0.0326367,-0.0425657,-1.47592,0.0435441,0.0470029,1210,1800,9.30317,-40.2266
-7,-776,8.69482,40.5951,-0.033948,0.0444143,-0.010196,0.0457192,-0.0352529,-1.44351,0.0468793,0.0488709,1217,1800,8.69488,-40.595
0,-776,8.30969,39.2386,0,0,0,0,0,0,0,-1,1224,1800,8.3097,-39.2387
7,-776,8.96948,40.4778,-0.0157513,0.0709808,-0.018919,0.074928,-0.0196985,-1.36511,0.0576511,0.0446935,1231,1800,8.96947,-40.4777
14,-776,9.17114,40.55,-0.00808649,0.0818199,-0.0235178,0.0876001,-0.0138667,-1.32979,0.0635288,0.0452613,1238,1800,9.17116,-40.5501
21,-776,7.04907,40.327,-0.00218451,0.0898835,-0.0277565,0.0976041,-0.00990505,-1.2995,0.0686098,0.0434214,1245,1800,7.04908,-40.3271
28,-776,7.47522,41.047,0,0,0,0,0,0,0,-1,1252,1800,7.47521,-41.0469
35,-776,7.73877,38.9104,0.00582657,0.0956425,-0.0349822,0.10766,-0.00619067,-1.2399,0.0739232,0.043327,1259,1800,7.73883,-38.9104
42,-776,10.4988,38.6486,0.00942854,0.0932909,-0.0381963,0.10808,-0.00536045,-1.20139,0.0739049,0.0437846,1266,1800,10.4988,-38.6486
49,-776,10.2,38.8204,0.012275,0.0875656,-0.0410341,0.105607,-0.005766,-1.15658,0.072403,0.0443981,1273,1800,10.1999,-38.8204
56,-776,9.76685,38.644,0.0142047,0.0793032,-0.0437214,0.101261,-0.00775309,-1.10537,0.0702344,0.045053,1280,1800,9.76678,-38.6441
63,-776,9.45044,38.5278,0.0147104,0.0707324,-0.0457253,0.0963443,-0.0109015,-1.06021,0.0681546,0.0461297,1287,1800,9.4505,-38.5278
70,-776,9.22351,38.4877,0.0183845,0.0603571,-0.0470564,0.0908948,-0.0121533,-0.995152,0.0650273,0.0468871,1294,1800,9.22357,-38.4876
77,-776,8.96082,38.4204,0.0193451,0.042463,-0.0441054,0.076499,-0.0146909,-0.913554,0.0565362,0.0466615,1301,1800,8.96083,-38.4204
84,-776,8.27942,39.2976,0,0,0,0,0,0,0,-1,1308,1800,8.27937,-39.2976
91,-776,8.95264,39.3877,0,0,0,0,0,0,0,-1,1315,1800,8.9526,-39.3877
98,-776,7.24744,39.7629,0,0,0,0,0,0,0,-1,1322,1800,7.24743,-39.7629
105,-776,7.40027,39.9988,0.0274346,0.0124197,-0.0398853,0.0605129,-0.0206586,-0.692374,0.0487109,0.0437974,1329,1800,7.40027,-39.9988
112,-776,7.56824,39.4064,0.0290717,0.00773844,-0.0366857,0.05661,-0.0197999,-0.64392,0.0457898,0.0481402,1336,1800,7.56826,-39.4064
119,-776,5.97546,39.5593,0.030076,0.00460382,-0.0334379,0.0531212,-0.0184413,-0.603437,0.0429034,0.044688,1343,1800,5.97548,-39.5593
126,-776,6.39551,39.838,0.0304197,0.00278339,-0.0299769,0.0496099,-0.0164068,-0.569432,0.0396892,0.0478831,1350,1800,6.39546,-39.8381
133,-776,6.93848,40.1223,0,0,0,0,0,0,0,-1,1357,1800,6.93842,-40.1223
140,-776,9.20557,42.3809,0,0,0,0,0,0,0,-1,1364,1800,9.20562,-42.3809
147,-776,4.38184,33.3923,0,0,0,0,0,0,0,-1,1371,1800,4.38185,-33.3923
154,-776,38.4338,21.854,0,0,0,0,0,0,0,-1,1378,1800,38.4339,-21.854
161,-776,6.50293,1.1731,0,0,0,0,0,0,0,-1,1385,1800,6.5029,-1.17313
168,-776,8.44971,1.22913,0,0,0,0,0,0,0,-1,1392,1800,8.44974,-1.22915
175,-776,8.61523,2.87061,0,0,0,0,0,0,0,-1,1399,1800,8.6152,-2.87063
182,-776,8.54065,4.60645,0,0,0,0,0,0,0,-1,1406,1800,8.5407,-4.60643
189,-776,8.35303,6.28223,0,0,0,0,0,0,0,-1,1413,1800,8.35297,-6.28225
196,-776,8.0387,8.21704,0,0,0,0,0,0,0,-1,1420,1800,8.03865,-8.217
203,-776,7.91736,9.79919,0,0,0,0,0,0,0,-1,1427,1800,7.91735,-9.79922
210,-776,20.2479,7.85718,0,0,0,0,0,0,0,-1,1434,1800,20.248,-7.85719
217,-776,21.5171,9.3418,0,0,0,0,0,0,0,-1,1441,1800,21.5171,-9.34182
224,-776,3.09253,14.9313,0,0,0,0,0,0,0,-1,1448,1800,3.09254,-14.9313
231,-776,20.8671,9.21057,0,0,0,0,0,0,0,-1,1455,1800,20.867,-9.21054
238,-776,20.7511,9.05847,0,0,0,0,0,0,0,-1,1462,1800,20.7511,-9.05848
245,-776,3.80823,15.4108,0,0,0,0,0,0,0,-1,1469,1800,3.80826,-15.4108
252,-776,8.57837,20.2009,0,0,0,0,0,0,0,-1,1476,1800,8.57841,-20.2009
259,-776,14.1882,7.69055,0,0,0,0,0,0,0,-1,1483,1800,14.1882,-7.69061
266,-776,0,0,0,0,0,0,0,0,0,-1,1490,1800,0,0
273,-776,0,0,0,0,0,0,0,0,0,-1,1497,1800,0,0
280,-776,0,0,0,0,0,0,0,0,0,-1,1504,1800,0,0
287,-776,0,0,0,0,0,0,0,0,0,-1,1511,1800,0,0
294,-776,0,0,0,0,0,0,0,0,0,-1,1518,1800,0,0
301,-776,0,0,0,0,0,0,0,0,0,-1,1525,1800,0,0
308,-776,0,0,0,0,0,0,0,0,0,-1,1532,1800,0,0
315,-776,0,0,0,0,0,0,0,0,0,-1,1539,1800,0,0
322,-776,0,0,0,0,0,0,0,0,0,-1,1546,1800,0,0
329,-776,0,0,0,0,0,0,0,0,0,-1,1553,1800,0,0
336,-776,0,0,0,0,0,0,0,0,0,-1,1560,1800,0,0
343,-776,0,0,0,0,0,0,0,0,0,-1,1567,1800,0,0
350,-776,0,0,0,0,0,0,0,0,0,-1,1574,1800,0,0
357,-776,0,0,0,0,0,0,0,0,0,-1,1581,1800,0,0
364,-776,0,0,0,0,0,0,0,0,0,-1,1588,1800,0,0
371,-776,0,0,0,0,0,0,0,0,0,-1,1595,1800,0,0
378,-776,0,0,0,0,0,0,0,0,0,-1,1602,1800,0,0
385,-776,0,0,0,0,0,0,0,0,0,-1,1609,1800,0,0
392,-776,0,0,0,0,0,0,0,0,0,-1,1616,1800,0,0
399,-776,0,0,0,0,0,0,0,0,0,-1,1623,1800,0,0
406,-776,0,0,0,0,0,0,0,0,0,-1,1630,1800,0,0
413,-776,0,0,0,0,0,0,0,0,0,-1,1637,1800,0,0
420,-776,0,0,0,0,0,0,0,0,0,-1,1644,1800,0,0
427,-776,0,0,0,0,0,0,0,0,0,-1,1651,1800,0,0
434,-776,0,0,0,0,0,0,0,0,0,-1,1658,1800,0,0
441,-776,0,0,0,0,0,0,0,0,0,-1,1665,1800,0,0
448,-776,0,0,0,0,0,0,0,0,0,-1,1672,1800,0,0
455,-776,0,0,0,0,0,0,0,0,0,-1,1679,1800,0,0
462,-776,0,0,0,0,0,0,0,0,0,-1,1686,1800,0,0
469,-776,0,0,0,0,0,0,0,0,0,-1,1693,1800,0,0
476,-776,0,0,0,0,0,0,0,0,0,-1,1700,1800,0,0
483,-776,0,0,0,0,0,0,0,0,0,-1,1707,1800,0,0
490,-776,0,0,0,0,0,0,0,0,0,-1,1714,1800,0,0
497,-776,0,0,0,0,0,0,0,0,0,-1,1721,1800,0,0
504,-776,0,0,0,0,0,0,0,0,0,-1,1728,1800,0,0
511,-776,0,0,0,0,0,0,0,0,0,-1,1735,1800,0,0
518,-776,0,0,0,0,0,0,0,0,0,-1,1742,1800,0,0
525,-776,0,0,0,0,0,0,0,0,0,-1,1749,1800,0,0
532,-776,0,0,0,0,0,0,0,0,0,-1,1756,1800,0,0
539,-776,0,0,0,0,0,0,0,0,0,-1,1763,1800,0,0
546,-776,0,0,0,0,0,0,0,0,0,-1,1770,1800,0,0
553,-776,0,0,0,0,0,0,0,0,0,-1,1777,1800,0,0
560,-776,0,0,0,0,0,0,0,0,0,-1,1784,1800,0,0
567,-776,0,0,0,0,0,0,0,0,0,-1,1791,1800,0,0
574,-776,0,0,0,0,0,0,0,0,0,-1,1798,1800,0,0
581,-776,0,0,0,0,0,0,0,0,0,-1,1805,1800,0,0
588,-776,0,0,0,0,0,0,0,0,0,-1,1812,1800,0,0
595,-776,0,0,0,0,0,0,0,0,0,-1,1819,1800,0,0
602,-776,0,0,0,0,0,0,0,0,0,-1,1826,1800,0,0
609,-776,0,0,0,0,0,0,0,0,0,-1,1833,1800,0,0
616,-776,0,0,0,0,0,0,0,0,0,-1,1840,1800,0,0
623,-776,0,0,0,0,0,0,0,0,0,-1,1847,1800,0,0
630,-776,0,0,0,0,0,0,0,0,0,-1,1854,1800,0,0
637,-776,0,0,0,0,0,0,0,0,0,-1,1861,1800,0,0
644,-776,0,0,0,0,0,0,0,0,0,-1,1868,1800,0,0
651,-776,0,0,0,0,0,0,0,0,0,-1,1875,1800,0,0
658,-776,0,0,0,0,0,0,0,0,0,-1,1882,1800,0,0
665,-776,0,0,0,0,0,0,0,0,0,-1,1889,1800,0,0
672,-776,0,0,0,0,0,0,0,0,0,-1,1896,1800,0,0
679,-776,0,0,0,0,0,0,0,0,0,-1,1903,1800,0,0
686,-776,0,0,0,0,0,0,0,0,0,-1,1910,1800,0,0
693,-776,0,0,0,0,0,0,0,0,0,-1,1917,1800,0,0
700,-776,0,0,0,0,0,0,0,0,0,-1,1924,1800,0,0
707,-776,0,0,0,0,0,0,0,0,0,-1,1931,1800,0,0
714,-776,0,0,0,0,0,0,0,0,0,-1,1938,1800,0,0
721,-776,0,0,0,0,0,0,0,0,0,-1,1945,1800,0,0
728,-776,0,0,0,0,0,0,0,0,0,-1,1952,1800,0,0
735,-776,0,0,0,0,0,0,0,0,0,-1,1959,1800,0,0
742,-776,0,0,0,0,0,0,0,0,0,-1,1966,1800,0,0
749,-776,0,0,0,0,0,0,0,0,0,-1,1973,1800,0,0
756,-776,0,0,0,0,0,0,0,0,0,-1,1980,1800,0,0
763,-776,0,0,0,0,0,0,0,0,0,-1,1987,1800,0,0
770,-776,0,0,0,0,0,0,0,0,0,-1,1994,1800,0,0
777,-776,0,0,0,0,0,0,0,0,0,-1,2001,1800,0,0
784,-776,0,0,0,0,0,0,0,0,0,-1,2008,1800,0,0
791,-776,0,0,0,0,0,0,0,0,0,-1,2015,1800,0,0
798,-776,0,0,0,0,0,0,0,0,0,-1,2022,1800,0,0
805,-776,0,0,0,0,0,0,0,0,0,-1,2029,1800,0,0
812,-776,0,0,0,0,0,0,0,0,0,-1,2036,1800,0,0
-700,-783,0,0,0,0,0,0,0,0,0,-1,524,1807,0,0
-693,-783,0,0,0,0,0,0,0,0,0,-1,531,1807,0,0
-686,-783,0,0,0,0,0,0,0,0,0,-1,538,1807,0,0
-679,-783,0,0,0,0,0,0,0,0,0,-1,545,1807,0,0
-672,-783,0,0,0,0,0,0,0,0,0,-1,552,1807,0,0
-665,-783,0,0,0,0,0,0,0,0,0,-1,559,1807,0,0
-658,-783,0,0,0,0,0,0,0,0,0,-1,566,1807,0,0
-651,-783,0,0,0,0,0,0,0,0,0,-1,573,1807,0,0
-644,-783,0,0,0,0,0,0,0,0,0,-1,580,1807,0,0
-637,-783,0,0,0,0,0,0,0,0,0,-1,587,1807,0,0
-630,-783,0,0,0,0,0,0,0,0,0,-1,594,1807,0,0
-623,-783,0,0,0,0,0,0,0,0,0,-1,601,1807,0,0
-616,-783,0,0,0,0,0,0,0,0,0,-1,608,1807,0,0
-609,-783,0,0,0,0,0,0,0,0,0,-1,615,1807,0,0
-602,-783,0,0,0,0,0,0,0,0,0,-1,622,1807,0,0
-595,-783,0,0,0,0,0,0,0,0,0,-1,629,1807,0,0
-588,-783,0,0,0,0,0,0,0,0,0,-1,636,1807,0,0
-581,-783,0,0,0,0,0,0,0,0,0,-1,643,1807,0,0
-574,-783,0,0,0,0,0,0,0,0,0,-1,650,1807,0,0
-567,-783,0,0,0,0,0,0,0,0,0,-1,657,1807,0,0
-560,-783,0,0,0,0,0,0,0,0,0,-1,664,1807,0,0
-553,-783,0,0,0,0,0,0,0,0,0,-1,671,1807,0,0
-546,-783,0,0,0,0,0,0,0,0,0,-1,678,1807,0,0
-539,-783,0,0,0,0,0,0,0,0,0,-1,685,1807,0,0
-532,-783,0,0,0,0,0,0,0,0,0,-1,692,1807,0,0
-525,-783,0,0,0,0,0,0,0,0,0,-1,699,1807,0,0
-518,-783,0,0,0,0,0,0,0,0,0,-1,706,1807,0,0
-511,-783,0,0,0,0,0,0,0,0,0,-1,713,1807,0,0
-504,-783,0,0,0,0,0,0,0,0,0,-1,720,1807,0,0
-497,-783,0,0,0,0,0,0,0,0,0,-1,727,1807,0,0
-490,-783,0,0,0,0,0,0,0,0,0,-1,734,1807,0,0
-483,-783,0,0,0,0,0,0,0,0,0,-1,741,1807,0,0
-476,-783,0,0,0,0,0,0,0,0,0,-1,748,1807,0,0
-469,-783,0,0,0,0,0,0,0,0,0,-1,755,1807,0,0
-462,-783,0,0,0,0,0,0,0,0,0,-1,762,1807,0,0
-455,-783,0,0,0,0,0,0,0,0,0,-1,769,1807,0,0
-448,-783,0,0,0,0,0,0,0,0,0,-1,776,1807,0,0
-441,-783,0,0,0,0,0,0,0,0,0,-1,783,1807,0,0
-434,-783,0,0,0,0,0,0,0,0,0,-1,790,1807,0,0
-427,-783,0,0,0,0,0,0,0,0,0,-1,797,1807,0,0
-420,-783,0,0,0,0,0,0,0,0,0,-1,804,1807,0,0
-413,-783,0,0,0,0,0,0,0,0,0,-1,811,1807,0,0
-406,-783,0,0,0,0,0,0,0,0,0,-1,818,1807,0,0
-399,-783,0,0,0,0,0,0,0,0,0,-1,825,1807,0,0
-392,-783,0,0,0,0,0,0,0,0,0,-1,832,1807,0,0
-385,-783,0,0,0,0,0,0,0,0,0,-1,839,1807,0,0
-378,-783,0,0,0,0,0,0,0,0,0,-1,846,1807,0,0
-371,-783,0,0,0,0,0,0,0,0,0,-1,853,1807,0,0
-364,-783,0,0,0,0,0,0,0,0,0,-1,860,1807,0,0
-357,-783,0,0,0,0,0,0,0,0,0,-1,867,1807,0,0
-350,-783,0,0,0,0,0,0,0,0,0,-1,874,1807,0,0
-343,-783,0,0,0,0,0,0,0,0,0,-1,881,1807,0,0
-336,-783,0,0,0,0,0,0,0,0,0,-1,888,1807,0,0
-329,-783,0,0,0,0,0,0,0,0,0,-1,895,1807,0,0
-322,-783,0,0,0,0,0,0,0,0,0,-1,902,1807,0,0
-315,-783,0,0,0,0,0,0,0,0,0,-1,909,1807,0,0
-308,-783,0,0,0,0,0,0,0,0,0,-1,916,1807,0,0
-301,-783,0,0,0,0,0,0,0,0,0,-1,923,1807,0,0
-294,-783,0,0,0,0,0,0,0,0,0,-1,930,1807,0,0
-287,-783,0,0,0,0,0,0,0,0,0,-1,937,1807,0,0
-280,-783,0,0,0,0,0,0,0,0,0,-1,944,1807,0,0
-273,-783,0,0,0,0,0,0,0,0,0,-1,951,1807,0,0
-266,-783,0,0,0,0,0,0,0,0,0,-1,958,1807,0,0
-259,-783,0,0,0,0,0,0,0,0,0,-1,965,1807,0,0
-252,-783,0,0,0,0,0,0,0,0,0,-1,972,1807,0,0
-245,-783,0,0,0,0,0,0,0,0,0,-1,979,1807,0,0
-238,-783,0,0,0,0,0,0,0,0,0,-1,986,1807,0,0
-231,-783,0,0,0,0,0,0,0,0,0,-1,993,1807,0,0
-224,-783,0,0,0,0,0,0,0,0,0,-1,1000,1807,0,0
-217,-783,0,0,0,0,0,0,0,0,0,-1,1007,1807,0,0
-210,-783,0,0,0,0,0,0,0,0,0,-1,1014,1807,0,0
-203,-783,0,0,0,0,0,0,0,0,0,-1,1021,1807,0,0
-196,-783,0,0,0,0,0,0,0,0,0,-1,1028,1807,0,0
-189,-783,0,0,0,0,0,0,0,0,0,-1,1035,1807,0,0
-182,-783,0,0,0,0,0,0,0,0,0,-1,1042,1807,0,0
-175,-783,0,0,0,0,0,0,0,0,0,-1,1049,1807,0,0
-168,-783,0,0,0,0,0,0,0,0,0,-1,1056,1807,0,0
-161,-783,0,0,0,0,0,0,0,0,0,-1,1063,1807,0,0
-154,-783,0,0,0,0,0,0,0,0,0,-1,1070,1807,0,0
-147,-783,0,0,0,0,0,0,0,0,0,-1,1077,1807,0,0
-140,-783,0,0,0,0,0,0,0,0,0,-1,1084,1807,0,0
-133,-783,0,0,0,0,0,0,0,0,0,-1,1091,1807,0,0
-126,-783,0,0,0,0,0,0,0,0,0,-1,1098,1807,0,0
-119,-783,0,0,0,0,0,0,0,0,0,-1,1105,1807,0,0
-112,-783,5.33936,14.7699,0,0,0,0,0,0,0,-1,1112,1807,5.33931,-14.7699
-105,-783,6.44263,21.2224,0,0,0,0,0,0,0,-1,1119,1807,6.44263,-21.2224
-98,-783,5.54773,20.5695,0,0,0,0,0,0,0,-1,1126,1807,5.54772,-20.5695
-91,-783,2.6106,20.2491,0,0,0,0,0,0,0,-1,1133,1807,2.61056,-20.2492
-84,-783,-0.0491943,14.5743,0,0,0,0,0,0,0,-1,1140,1807,-0.0491562,-14.5743
-77,-783,0.332764,12.7788,0,0,0,0,0,0,0,-1,1147,1807,0.332743,-12.7788
-70,-783,-1.93176,5.12817,0,0,0,0,0,0,0,-1,1154,1807,-1.93171,-5.12813
-63,-783,-5.31702,10.54,0,0,0,0,0,0,0,-1,1161,1807,-5.31703,-10.54
-56,-783,-6.26135,6.9679,0,0,0,0,0,0,0,-1,1168,1807,-6.26136,-6.96785
-49,-783,-3.17688,4.59705,0,0,0,0,0,0,0,-1,1175,1807,-3.17685,-4.5971
-42,-783,-3.72876,3.1405,0,0,0,0,0,0,0,-1,1182,1807,-3.72874,-3.14055
-35,-783,-3.97046,1.59399,0,0,0,0,0,0,0,-1,1189,1807,-3.97041,-1.59401
-28,-783,-4.12195,0.270386,0,0,0,0,0,0,0,-1,1196,1807,-4.12197,-0.270408
-21,-783,10.1504,39.9801,0,0,0,0,0,0,0,-1,1203,1807,10.1504,-39.9801
-14,-783,9.64685,40.2809,-0.0556692,0.0417844,-0.00808418,0.0424504,-0.0563352,-1.48859,0.0572214,0.0459914,1210,1807,9.64684,-40.2809
-7,-783,9.21509,40.4977,-0.0447397,0.0627381,-0.01283,0.0642484,-0.04625,-1.45362,0.0640778,0.045537,1217,1807,9.21507,-40.4977
0,-783,8.49744,40.3785,-0.0323191,0.0830442,-0.0186148,0.0859734,-0.0352484,-1.41471,0.0720009,0.0425953,1224,1807,8.49741,-40.3785
7,-783,9.18408,40.824,-0.0209855,0.100527,-0.0247593,0.105378,-0.0258368,-1.37731,0.0802624,0.0438356,1231,1807,9.18404,-40.824
14,-783,9.63867,40.8958,0,0,0,0,0,0,0,-1,1238,1807,9.63863,-40.8957
21,-783,6.45691,40.3518,0,0,0,0,0,0,0,-1,1245,1807,6.45694,-40.3518
28,-783,7.10425,41.2711,0,0,0,0,0,0,0,-1,1252,1807,7.10426,-41.2711
35,-783,11.2369,40.1476,0,0,0,0,0,0,0,-1,1259,1807,11.237,-40.1476
42,-783,10.8899,39.2352,0.00998593,0.122886,-0.0474346,0.14017,-0.00729767,-1.22138,0.0959715,0.0456649,1266,1807,10.8899,-39.2353
49,-783,10.6309,38.5464,0.0139043,0.113556,-0.0507005,0.134815,-0.00735545,-1.17375,0.0924264,0.0461592,1273,1807,10.6308,-38.5464
56,-783,10.2657,37.9664,0.0170572,0.101217,-0.0538992,0.127517,-0.00924299,-1.11683,0.088254,0.0467865,1280,1807,10.2658,-37.9664
63,-783,10.016,37.7743,0.0186368,0.0884754,-0.0565215,0.119994,-0.0128821,-1.0621,0.0846177,0.0476285,1287,1807,10.0159,-37.7743
70,-783,9.87817,37.7883,0.0241702,0.0740474,-0.0589809,0.113145,-0.0149278,-0.985412,0.0808668,0.0466919,1294,1807,9.87821,-37.7884
77,-783,9.5354,37.7797,0,0,0,0,0,0,0,-1,1301,1807,9.53543,-37.7796
84,-783,6.28052,44.1963,0.0271424,0.0381011,-0.0566438,0.08953,-0.0242864,-0.833615,0.0692172,0.0475199,1308,1807,6.28052,-44.1962
91,-783,6.75769,42.6927,0.0318647,0.0272756,-0.0585225,0.0881376,-0.0289973,-0.765804,0.0704426,0.0474542,1315,1807,6.75771,-42.6928
98,-783,7.07031,41.3751,0.0368946,0.0197181,-0.0576479,0.0865904,-0.0299777,-0.711453,0.0698963,0.044746,1322,1807,7.07026,-41.3752
105,-783,7.31921,40.0801,0.0403818,0.0130524,-0.0550979,0.0834842,-0.0300499,-0.663847,0.0679258,0.04684,1329,1807,7.31923,-40.0801
112,-783,7.49915,39.2286,0.0427406,0.00829351,-0.0519898,0.0802856,-0.0292515,-0.625444,0.0654893,0.0493639,1336,1807,7.4992,-39.2286
119,-783,5.36707,39.3466,0,0,0,0,0,0,0,-1,1343,1807,5.36712,-39.3465
126,-783,5.92163,39.6942,0,0,0,0,0,0,0,-1,1350,1807,5.92166,-39.6942
133,-783,8.11963,50.5338,0,0,0,0,0,0,0,-1,1357,1807,8.11958,-50.5338
140,-783,18.3468,35.1345,0,0,0,0,0,0,0,-1,1364,1807,18.3468,-35.1345
147,-783,19.5115,35.8862,0,0,0,0,0,0,0,-1,1371,1807,19.5115,-35.8862
154,-783,38.2109,17.545,0,0,0,0,0,0,0,-1,1378,1807,38.2109,-17.545
161,-783,39.5087,17.5449,0,0,0,0,0,0,0,-1,1385,1807,39.5087,-17.545
168,-783,8.62561,1.79944,0,0,0,0,0,0,0,-1,1392,1807,8.62561,-1.79946
175,-783,8.78699,3.40857,0,0,0,0,0,0,0,-1,1399,1807,8.78697,-3.40854
182,-783,8.70984,5.14661,0,0,0,0,0,0,0,-1,1406,1807,8.70989,-5.14666
189,-783,8.55762,6.79871,0,0,0,0,0,0,0,-1,1413,1807,8.55766,-6.79872
196,-783,8.25488,8.66626,0,0,0,0,0,0,0,-1,1420,1807,8.25492,-8.66628
203,-783,7.86755,10.5735,0,0,0,0,0,0,0,-1,1427,1807,7.8676,-10.5734
210,-783,5.6969,8.99231,0,0,0,0,0,0,0,-1,1434,1807,5.69693,-8.99234
217,-783,5.28503,3.80872,0,0,0,0,0,0,0,-1,1441,1807,5.285,-3.80868
224,-783,3.22571,6.62903,0,0,0,0,0,0,0,-1,1448,1807,3.2257,-6.62907
231,-783,4.27942,4.56262,0,0,0,0,0,0,0,-1,1455,1807,4.27948,-4.56267
238,-783,0,0,0,0,0,0,0,0,0,-1,1462,1807,0,0
245,-783,0,0,0,0,0,0,0,0,0,-1,1469,1807,0,0
252,-783,0,0,0,0,0,0,0,0,0,-1,1476,1807,0,0
259,-783,0,0,0,0,0,0,0,0,0,-1,1483,1807,0,0
266,-783,0,0,0,0,0,0,0,0,0,-1,1490,1807,0,0
273,-783,0,0,0,0,0,0,0,0,0,-1,1497,1807,0,0
280,-783,0,0,0,0,0,0,0,0,0,-1,1504,1807,0,0
287,-783,0,0,0,0,0,0,0,0,0,-1,1511,1807,0,0
294,-783,0,0,0,0,0,0,0,0,0,-1,1518,1807,0,0
301,-783,0,0,0,0,0,0,0,0,0,-1,1525,1807,0,0
308,-783,0,0,0,0,0,0,0,0,0,-1,1532,1807,0,0
315,-783,0,0,0,0,0,0,0,0,0,-1,1539,1807,0,0
322,-783,0,0,0,0,0,0,0,0,0,-1,1546,1807,0,0
329,-783,0,0,0,0,0,0,0,0,0,-1,1553,1807,0,0
336,-783,0,0,0,0,0,0,0,0,0,-1,1560,1807,0,0
343,-783,0,0,0,0,0,0,0,0,0,-1,1567,1807,0,0
350,-783,0,0,0,0,0,0,0,0,0,-1,1574,1807,0,0
357,-783,0,0,0,0,0,0,0,0,0,-1,1581,1807,0,0
364,-783,0,0,0,0,0,0,0,0,0,-1,1588,1807,0,0
371,-783,0,0,0,0,0,0,0,0,0,-1,1595,1807,0,0
378,-783,0,0,0,0,0,0,0,0,0,-1,1602,1807,0,0
385,-783,0,0,0,0,0,0,0,0,0,-1,1609,1807,0,0
392,-783,0,0,0,0,0,0,0,0,0,-1,1616,1807,0,0
399,-783,0,0,0,0,0,0,0,0,0,-1,1623,1807,0,0
406,-783,0,0,0,0,0,0,0,0,0,-1,1630,1807,0,0
413,-783,0,0,0,0,0,0,0,0,0,-1,1637,1807,0,0
420,-783,0,0,0,0,0,0,0,0,0,-1,1644,1807,0,0
427,-783,0,0,0,0,0,0,0,0,0,-1,1651,1807,0,0
434,-783,0,0,0,0,0,0,0,0,0,-1,1658,1807,0,0
441,-783,0,0,0,0,0,0,0,0,0,-1,1665,1807,0,0
448,-783,0,0,0,0,0,0,0,0,0,-1,1672,1807,0,0
455,-783,0,0,0,0,0,0,0,0,0,-1,1679,1807,0,0
462,-783,0,0,0,0,0,0,0,0,0,-1,1686,1807,0,0
469,-783,0,0,0,0,0,0,0,0,0,-1,1693,1807,0,0
476,-783,0,0,0,0,0,0,0,0,0,-1,1700,1807,0,0
483,-783,0,0,0,0,0,0,0,0,0,-1,1707,1807,0,0
490,-783,0,0,0,0,0,0,0,0,0,-1,1714,1807,0,0
497,-783,0,0,0,0,0,0,0,0,0,-1,1721,1807,0,0
504,-783,0,0,0,0,0,0,0,0,0,-1,1728,1807,0,0
511,-783,0,0,0,0,0,0,0,0,0,-1,1735,1807,0,0
518,-783,0,0,0,0,0,0,0,0,0,-1,1742,1807,0,0
525,-783,0,0,0,0,0,0,0,0,0,-1,1749,1807,0,0
532,-783,0,0,0,0,0,0,0,0,0,-1,1756,1807,0,0
539,-783,0,0,0,0,0,0,0,0,0,-1,1763,1807,0,0
546,-783,0,0,0,0,0,0,0,0,0,-1,1770,1807,0,0
553,-783,0,0,0,0,0,0,0,0,0,-1,1777,1807,0,0
560,-783,0,0,0,0,0,0,0,0,0,-1,1784,1807,0,0
567,-783,0,0,0,0,0,0,0,0,0,-1,1791,1807,0,0
574,-783,0,0,0,0,0,0,0,0,0,-1,1798,1807,0,0
581,-783,0,0,0,0,0,0,0,0,0,-1,1805,1807,0,0
588,-783,0,0,0,0,0,0,0,0,0,-1,1812,1807,0,0
595,-783,0,0,0,0,0,0,0,0,0,-1,1819,1807,0,0
602,-783,0,0,0,0,0,0,0,0,0,-1,1826,1807,0,0
609,-783,0,0,0,0,0,0,0,0,0,-1,1833,1807,0,0
616,-783,0,0,0,0,0,0,0,0,0,-1,1840,1807,0,0
623,-783,0,0,0,0,0,0,0,0,0,-1,1847,1807,0,0
630,-783,0,0,0,0,0,0,0,0,0,-1,1854,1807,0,0
637,-783,0,0,0,0,0,0,0,0,0,-1,1861,1807,0,0
644,-783,0,0,0,0,0,0,0,0,0,-1,1868,1807,0,0
651,-783,0,0,0,0,0,0,0,0,0,-1,1875,1807,0,0
658,-783,0,0,0,0,0,0,0,0,0,-1,1882,1807,0,0
665,-783,0,0,0,0,0,0,0,0,0,-1,1889,1807,0,0
672,-783,0,0,0,0,0,0,0,0,0,-1,1896,1807,0,0
679,-783,0,0,0,0,0,0,0,0,0,-1,1903,1807,0,0
686,-783,0,0,0,0,0,0,0,0,0,-1,1910,1807,0,0
693,-783,0,0,0,0,0,0,0,0,0,-1,1917,1807,0,0
700,-783,0,0,0,0,0,0,0,0,0,-1,1924,1807,0,0
707,-783,0,0,0,0,0,0,0,0,0,-1,1931,1807,0,0
714,-783,0,0,0,0,0,0,0,0,0,-1,1938,1807,0,0
721,-783,0,0,0,0,0,0,0,0,0,-1,1945,1807,0,0
728,-783,0,0,0,0,0,0,0,0,0,-1,1952,1807,0,0
735,-783,0,0,0,0,0,0,0,0,0,-1,1959,1807,0,0
742,-783,0,0,0,0,0,0,0,0,0,-1,1966,1807,0,0
749,-783,0,0,0,0,0,0,0,0,0,-1,1973,1807,0,0
756,-783,0,0,0,0,0,0,0,0,0,-1,1980,1807,0,0
763,-783,0,0,0,0,0,0,0,0,0,-1,1987,1807,0,0
770,-783,0,0,0,0,0,0,0,0,0,-1,1994,1807,0,0
777,-783,0,0,0,0,0,0,0,0,0,-1,2001,1807,0,0
784,-783,0,0,0,0,0,0,0,0,0,-1,2008,1807,0,0
791,-783,0,0,0,0,0,0,0,0,0,-1,2015,1807,0,0
798,-783,0,0,0,0,0,0,0,0,0,-1,2022,1807,0,0
805,-783,0,0,0,0,0,0,0,0,0,-1,2029,1807,0,0
812,-783,0,0,0,0,0,0,0,0,0,-1,2036,1807,0,0
-700,-790,0,0,0,0,0,0,0,0,0,-1,524,1814,0,0
-693,-790,0,0,0,0,0,0,0,0,0,-1,531,1814,0,0
-686,-790,0,0,0,0,0,0,0,0,0,-1,538,1814,0,0
-679,-790,0,0,0,0,0,0,0,0,0,-1,545,1814,0,0
-672,-790,0,0,0,0,0,0,0,0,0,-1,552,1814,0,0
-665,-790,0,0,0,0,0,0,0,0,0,-1,559,1814,0,0
-658,-790,0,0,0,0,0,0,0,0,0,-1,566,1814,0,0
-651,-790,0,0,0,0,0,0,0,0,0,-1,573,1814,0,0
-644,-790,0,0,0,0,0,0,0,0,0,-1,580,1814,0,0
-637,-790,0,0,0,0,0,0,0,0,0,-1,587,1814,0,0
-630,-790,0,0,0,0,0,0,0,0,0,-1,594,1814,0,0
-623,-790,0,0,0,0,0,0,0,0,0,-1,601,1814,0,0
-616,-790,0,0,0,0,0,0,0,0,0,-1,608,1814,0,0
-609,-790,0,0,0,0,0,0,0,0,0,-1,615,1814,0,0
-602,-790,0,0,0,0,0,0,0,0,0,-1,622,1814,0,0
-595,-790,0,0,0,0,0,0,0,0,0,-1,629,1814,0,0
-588,-790,0,0,0,0,0,0,0,0,0,-1,636,1814,0,0
-581,-790,0,0,0,0,0,0,0,0,0,-1,643,1814,0,0
-574,-790,0,0,0,0,0,0,0,0,0,-1,650,1814,0,0
-567,-790,0,0,0,0,0,0,0,0,0,-1,657,1814,0,0
-560,-790,0,0,0,0,0,0,0,0,0,-1,664,1814,0,0
-553,-790,0,0,0,0,0,0,0,0,0,-1,671,1814,0,0
-546,-790,0,0,0,0,0,0,0,0,0,-1,678,1814,0,0
-539,-790,0,0,0,0,0,0,0,0,0,-1,685,1814,0,0
-532,-790,0,0,0,0,0,0,0,0,0,-1,692,1814,0,0
-525,-790,0,0,0,0,0,0,0,0,0,-1,699,1814,0,0
-518,-790,0,0,0,0,0,0,0,0,0,-1,706,1814,0,0
-511,-790,0,0,0,0,0,0,0,0,0,-1,713,1814,0,0
-504,-790,0,0,0,0,0,0,0,0,0,-1,720,1814,0,0
-497,-790,0,0,0,0,0,0,0,0,0,-1,727,1814,0,0
-490,-790,0,0,0,0,0,0,0,0,0,-1,734,1814,0,0
-483,-790,0,0,0,0,0,0,0,0,0,-1,741,1814,0,0
-476,-790,0,0,0,0,0,0,0,0,0,-1,748,1814,0,0
-469,-790,0,0,0,0,0,0,0,0,0,-1,755,1814,0,0
-462,-790,0,0,0,0,0,0,0,0,0,-1,762,1814,0,0
-455,-790,0,0,0,0,0,0,0,0,0,-1,769,1814,0,0
-448,-790,0,0,0,0,0,0,0,0,0,-1,776,1814,0,0
-441,-790,0,0,0,0,0,0,0,0,0,-1,783,1814,0,0
-434,-790,0,0,0,0,0,0,0,0,0,-1,790,1814,0,0
-427,-790,0,0,0,0,0,0,0,0,0,-1,797,1814,0,0
-420,-790,0,0,0,0,0,0,0,0,0,-1,804,1814,0,0
-413,-790,0,0,0,0,0,0,0,0,0,-1,811,1814,0,0
-406,-790,0,0,0,0,0,0,0,0,0,-1,818,1814,0,0
-399,-790,0,0,0,0,0,0,0,0,0,-1,825,1814,0,0
-392,-790,0,0,0,0,0,0,0,0,0,-1,832,1814,0,0
-385,-790,0,0,0,0,0,0,0,0,0,-1,839,1814,0,0
-378,-790,0,0,0,0,0,0,0,0,0,-1,846,1814,0,0
-371,-790,0,0,0,0,0,0,0,0,0,-1,853,1814,0,0
-364,-790,0,0,0,0,0,0,0,0,0,-1,860,1814,0,0
-357,-790,0,0,0,0,0,0,0,0,0,-1,867,1814,0,0
-350,-790,0,0,0,0,0,0,0,0,0,-1,874,1814,0,0
-343,-790,0,0,0,0,0,0,0,0,0,-1,881,1814,0,0
-336,-790,0,0,0,0,0,0,0,0,0,-1,888,1814,0,0
-329,-790,0,0,0,0,0,0,0,0,0,-1,895,1814,0,0
-322,-790,0,0,0,0,0,0,0,0,0,-1,902,1814,0,0
-315,-790,0,0,0,0,0,0,0,0,0,-1,909,1814,0,0
-308,-790,0,0,0,0,0,0,0,0,0,-1,916,1814,0,0
-301,-790,0,0,0,0,0,0,0,0,0,-1,923,1814,0,0
-294,-790,0,0,0,0,0,0,0,0,0,-1,930,1814,0,0
-287,-790,0,0,0,0,0,0,0,0,0,-1,937,1814,0,0
-280,-790,0,0,0,0,0,0,0,0,0,-1,944,1814,0,0
-273,-790,0,0,0,0,0,0,0,0,0,-1,951,1814,0,0
-266,-790,0,0,0,0,0,0,0,0,0,-1,958,1814,0,0
-259,-790,0,0,0,0,0,0,0,0,0,-1,965,1814,0,0
-252,-790,0,0,0,0,0,0,0,0,0,-1,972,1814,0,0
-245,-790,0,0,0,0,0,0,0,0,0,-1,979,1814,0,0
-238,-790,0,0,0,0,0,0,0,0,0,-1,986,1814,0,0
-231,-790,0,0,0,0,0,0,0,0,0,-1,993,1814,0,0
-224,-790,0,0,0,0,0,0,0,0,0,-1,1000,1814,0,0
-217,-790,0,0,0,0,0,0,0,0,0,-1,1007,1814,0,0
-210,-790,0,0,0,0,0,0,0,0,0,-1,1014,1814,0,0
-203,-790,0,0,0,0,0,0,0,0,0,-1,1021,1814,0,0
-196,-790,0,0,0,0,0,0,0,0,0,-1,1028,1814,0,0
-189,-790,0,0,0,0,0,0,0,0,0,-1,1035,1814,0,0
-182,-790,0,0,0,0,0,0,0,0,0,-1,1042,1814,0,0
-175,-790,0,0,0,0,0,0,0,0,0,-1,1049,1814,0,0
-168,-790,0,0,0,0,0,0,0,0,0,-1,1056,1814,0,0
-161,-790,0,0,0,0,0,0,0,0,0,-1,1063,1814,0,0
-154,-790,0,0,0,0,0,0,0,0,0,-1,1070,1814,0,0
-147,-790,0,0,0,0,0,0,0,0,0,-1,1077,1814,0,0
-140,-790,0,0,0,0,0,0,0,0,0,-1,1084,1814,0,0
-133,-790,0,0,0,0,0,0,0,0,0,-1,1091,1814,0,0
-126,-790,0,0,0,0,0,0,0,0,0,-1,1098,1814,0,0
-119,-790,0,0,0,0,0,0,0,0,0,-1,1105,1814,0,0
-112,-790,0,0,0,0,0,0,0,0,0,-1,1112,1814,0,0
-105,-790,0,0,0,0,0,0,0,0,0,-1,1119,1814,0,0
-98,-790,0,0,0,0,0,0,0,0,0,-1,1126,1814,0,0
-91,-790,0,0,0,0,0,0,0,0,0,-1,1133,1814,0,0
-84,-790,0,0,0,0,0,0,0,0,0,-1,1140,1814,0,0
-77,-790,-0.969238,5.30847,0,0,0,0,0,0,0,-1,1147,1814,-0.969277,-5.3085
-70,-790,-1.23169,4.98914,0,0,0,0,0,0,0,-1,1154,1814,-1.23163,-4.98916
-63,-790,-1.69128,4.32263,0,0,0,0,0,0,0,-1,1161,1814,-1.69128,-4.32258
-56,-790,-2.24756,3.75305,0,0,0,0,0,0,0,-1,1168,1814,-2.24758,-3.75302
-49,-790,-3.11011,3.35779,0,0,0,0,0,0,0,-1,1175,1814,-3.11006,-3.35781
-42,-790,0.593262,1.19165,0,0,0,0,0,0,0,-1,1182,1814,0.593225,-1.19165
-35,-790,0.307129,-0.20105,0,0,0,0,0,0,0,-1,1189,1814,0.307178,0.201006
-28,-790,-2.78467,0.785156,0,0,0,0,0,0,0,-1,1196,1814,-2.78471,-0.785183
-21,-790,10.2742,39.6292,0,0,0,0,0,0,0,-1,1203,1814,10.2741,-39.6291
-14,-790,9.92029,40.0938,-0.0733964,0.0517861,-0.00858186,0.0523717,-0.073982,-1.50267,0.0733051,0.0453298,1210,1814,9.92026,-40.0938
-7,-790,9.5675,40.5204,-0.0579666,0.0873572,-0.0160459,0.0891078,-0.0597172,-1.46213,0.0864809,0.0470745,1217,1814,9.56747,-40.5204
0,-790,8.47888,41.0598,-0.0418591,0.116547,-0.0241229,0.120139,-0.0454512,-1.42297,0.0987922,0.0433807,1224,1814,8.47889,-41.0598
7,-790,13.2703,37.3341,0,0,0,0,0,0,0,-1,1231,1814,13.2702,-37.3341
14,-790,12.8739,37.493,-0.0163919,0.156137,-0.0389341,0.164516,-0.0247711,-1.35882,0.118799,0.0450318,1238,1814,12.8739,-37.493
21,-790,6.02234,40.5022,-0.00778636,0.166635,-0.0446117,0.177383,-0.0185344,-1.33438,0.124893,0.0450006,1245,1814,6.02237,-40.5022
28,-790,11.7325,38.4646,-0.00166919,0.172603,-0.04943,0.185647,-0.014713,-1.31279,0.128949,0.04362,1252,1814,11.7325,-38.4647
35,-790,11.574,38.6442,0.00365404,0.167615,-0.053458,0.183505,-0.0122356,-1.28188,0.126612,0.0450426,1259,1814,11.574,-38.6442
42,-790,10.8992,38.4523,0.0090766,0.158102,-0.057194,0.177521,-0.0103432,-1.24347,0.121942,0.0442151,1266,1814,10.8992,-38.4522
49,-790,10.4733,37.8214,0.0143799,0.143724,-0.0608041,0.167819,-0.00971525,-1.1935,0.115254,0.048363,1273,1814,10.4733,-37.8214
56,-790,10.5337,36.8939,0.0192935,0.125966,-0.064522,0.156342,-0.0110831,-1.13078,0.108112,0.0481578,1280,1814,10.5337,-36.894
63,-790,10.5437,36.8981,0.0226177,0.107755,-0.0679234,0.145347,-0.0149741,-1.06531,0.102255,0.0448447,1287,1814,10.5436,-36.898
70,-790,10.3856,37.0627,0.0306889,0.0882543,-0.071996,0.137008,-0.0180646,-0.975558,0.0979171,0.041993,1294,1814,10.3856,-37.0628
77,-790,10.2474,36.922,0,0,0,0,0,0,0,-1,1301,1814,10.2475,-36.9219
84,-790,6.29761,44.675,0.0369082,0.0414269,-0.0713208,0.110524,-0.032189,-0.801232,0.086434,0.0466544,1308,1814,6.29755,-44.6751
91,-790,6.70886,43.1567,0.0450446,0.0281949,-0.0756253,0.112713,-0.0394733,-0.729926,0.0911933,0.0465947,1315,1814,6.70888,-43.1568
98,-790,7.10449,41.5647,0.0526335,0.0195671,-0.0762903,0.114162,-0.041961,-0.678691,0.093295,0.0432454,1322,1814,7.10451,-41.5647
105,-790,7.39587,39.9764,0.0573971,0.0122519,-0.0743574,0.112533,-0.0428836,-0.638034,0.0926844,0.0457984,1329,1814,7.39588,-39.9764
112,-790,7.76257,38.3011,0.0606296,0.0079139,-0.071736,0.110697,-0.0421533,-0.60934,0.0911578,0.0476948,1336,1814,7.76253,-38.3011
119,-790,8.10388,36.738,0,0,0,0,0,0,0,-1,1343,1814,8.10384,-36.738
126,-790,9.65552,49.488,0,0,0,0,0,0,0,-1,1350,1814,9.65554,-49.488
133,-790,15.274,33.887,0,0,0,0,0,0,0,-1,1357,1814,15.274,-33.8869
140,-790,16.0784,33.3459,0,0,0,0,0,0,0,-1,1364,1814,16.0784,-33.346
147,-790,9.01794,33.7303,0,0,0,0,0,0,0,-1,1371,1814,9.0179,-33.7304
154,-790,40.215,13.2396,0,0,0,0,0,0,0,-1,1378,1814,40.2149,-13.2396
161,-790,39.3429,13.0336,0,0,0,0,0,0,0,-1,1385,1814,39.3429,-13.0336
168,-790,7.04077,2.23279,0,0,0,0,0,0,0,-1,1392,1814,7.04082,-2.23275
175,-790,9.03918,3.98535,0,0,0,0,0,0,0,-1,1399,1814,9.0392,-3.98535
182,-790,8.96997,5.67896,0,0,0,0,0,0,0,-1,1406,1814,8.97001,-5.6789
189,-790,8.59729,6.86975,0,0,0,0,0,0,0,-1,1413,1814,8.59728,-6.86972
196,-790,8.21924,9.29053,0,0,0,0,0,0,0,-1,1420,1814,8.21924,-9.29048
203,-790,0,0,0,0,0,0,0,0,0,-1,1427,1814,0,0
210,-790,0,0,0,0,0,0,0,0,0,-1,1434,1814,0,0
217,-790,0,0,0,0,0,0,0,0,0,-1,1441,1814,0,0
224,-790,0,0,0,0,0,0,0,0,0,-1,1448,1814,0,0
231,-790,0,0,0,0,0,0,0,0,0,-1,1455,1814,0,0
238,-790,0,0,0,0,0,0,0,0,0,-1,1462,1814,0,0
245,-790,0,0,0,0,0,0,0,0,0,-1,1469,1814,0,0
252,-790,0,0,0,0,0,0,0,0,0,-1,1476,1814,0,0
259,-790,0,0,0,0,0,0,0,0,0,-1,1483,1814,0,0
266,-790,0,0,0,0,0,0,0,0,0,-1,1490,1814,0,0
273,-790,0,0,0,0,0,0,0,0,0,-1,1497,1814,0,0
280,-790,0,0,0,0,0,0,0,0,0,-1,1504,1814,0,0
287,-790,0,0,0,0,0,0,0,0,0,-1,1511,1814,0,0
294,-790,0,0,0,0,0,0,0,0,0,-1,1518,1814,0,0
301,-790,0,0,0,0,0,0,0,0,0,-1,1525,1814,0,0
308,-790,0,0,0,0,0,0,0,0,0,-1,1532,1814,0,0
315,-790,0,0,0,0,0,0,0,0,0,-1,1539,1814,0,0
322,-790,0,0,0,0,0,0,0,0,0,-1,1546,1814,0,0
329,-790,0,0,0,0,0,0,0,0,0,-1,1553,1814,0,0
336,-790,0,0,0,0,0,0,0,0,0,-1,1560,1814,0,0
343,-790,0,0,0,0,0,0,0,0,0,-1,1567,1814,0,0
350,-790,0,0,0,0,0,0,0,0,0,-1,1574,1814,0,0
357,-790,0,0,0,0,0,0,0,0,0,-1,1581,1814,0,0
364,-790,0,0,0,0,0,0,0,0,0,-1,1588,1814,0,0
371,-790,0,0,0,0,0,0,0,0,0,-1,1595,1814,0,0
378,-790,0,0,0,0,0,0,0,0,0,-1,1602,1814,0,0
385,-790,0,0,0,0,0,0,0,0,0,-1,1609,1814,0,0
392,-790,0,0,0,0,0,0,0,0,0,-1,1616,1814,0,0
399,-790,0,0,0,0,0,0,0,0,0,-1,1623,1814,0,0
406,-790,0,0,0,0,0,0,0,0,0,-1,1630,1814,0,0
413,-790,0,0,0,0,0,0,0,0,0,-1,1637,1814,0,0
420,-790,0,0,0,0,0,0,0,0,0,-1,1644,1814,0,0
427,-790,0,0,0,0,0,0,0,0,0,-1,1651,1814,0,0
434,-790,0,0,0,0,0,0,0,0,0,-1,1658,1814,0,0
441,-790,0,0,0,0,0,0,0,0,0,-1,1665,1814,0,0
448,-790,0,0,0,0,0,0,0,0,0,-1,1672,1814,0,0
455,-790,0,0,0,0,0,0,0,0,0,-1,1679,1814,0,0
462,-790,0,0,0,0,0,0,0,0,0,-1,1686,1814,0,0
469,-790,0,0,0,0,0,0,0,0,0,-1,1693,1814,0,0
476,-790,0,0,0,0,0,0,0,0,0,-1,1700,1814,0,0
483,-790,0,0,0,0,0,0,0,0,0,-1,1707,1814,0,0
490,-790,0,0,0,0,0,0,0,0,0,-1,1714,1814,0,0
497,-790,0,0,0,0,0,0,0,0,0,-1,1721,1814,0,0
504,-790,0,0,0,0,0,0,0,0,0,-1,1728,1814,0,0
511,-790,0,0,0,0,0,0,0,0,0,-1,1735,1814,0,0
518,-790,0,0,0,0,0,0,0,0,0,-1,1742,1814,0,0
525,-790,0,0,0,0,0,0,0,0,0,-1,1749,1814,0,0
532,-790,0,0,0,0,0,0,0,0,0,-1,1756,1814,0,0
539,-790,0,0,0,0,0,0,0,0,0,-1,1763,1814,0,0
546,-790,0,0,0,0,0,0,0,0,0,-1,1770,1814,0,0
553,-790,0,0,0,0,0,0,0,0,0,-1,1777,1814,0,0
560,-790,0,0,0,0,0,0,0,0,0,-1,1784,1814,0,0
567,-790,0,0,0,0,0,0,0,0,0,-1,1791,1814,0,0
574,-790,0,0,0,0,0,0,0,0,0,-1,1798,1814,0,0
581,-790,0,0,0,0,0,0,0,0,0,-1,1805,1814,0,0
588,-790,0,0,0,0,0,0,0,0,0,-1,1812,1814,0,0
595,-790,0,0,0,0,0,0,0,0,0,-1,1819,1814,0,0
602,-790,0,0,0,0,0,0,0,0,0,-1,1826,1814,0,0
609,-790,0,0,0,0,0,0,0,0,0,-1,1833,1814,0,0
616,-790,0,0,0,0,0,0,0,0,0,-1,1840,1814,0,0
623,-790,0,0,0,0,0,0,0,0,0,-1,1847,1814,0,0
630,-790,0,0,0,0,0,0,0,0,0,-1,1854,1814,0,0
637,-790,0,0,0,0,0,0,0,0,0,-1,1861,1814,0,0
644,-790,0,0,0,0,0,0,0,0,0,-1,1868,1814,0,0
651,-790,0,0,0,0,0,0,0,0,0,-1,1875,1814,0,0
658,-790,0,0,0,0,0,0,0,0,0,-1,1882,1814,0,0
665,-790,0,0,0,0,0,0,0,0,0,-1,1889,1814,0,0
672,-790,0,0,0,0,0,0,0,0,0,-1,1896,1814,0,0
679,-790,0,0,0,0,0,0,0,0,0,-1,1903,1814,0,0
686,-790,0,0,0,0,0,0,0,0,0,-1,1910,1814,0,0
693,-790,0,0,0,0,0,0,0,0,0,-1,1917,1814,0,0
700,-790,0,0,0,0,0,0,0,0,0,-1,1924,1814,0,0
707,-790,0,0,0,0,0,0,0,0,0,-1,1931,1814,0,0
714,-790,0,0,0,0,0,0,0,0,0,-1,1938,1814,0,0
721,-790,0,0,0,0,0,0,0,0,0,-1,1945,1814,0,0
728,-790,0,0,0,0,0,0,0,0,0,-1,1952,1814,0,0
735,-790,0,0,0,0,0,0,0,0,0,-1,1959,1814,0,0
742,-790,0,0,0,0,0,0,0,0,0,-1,1966,1814,0,0
749,-790,0,0,0,0,0,0,0,0,0,-1,1973,1814,0,0
756,-790,0,0,0,0,0,0,0,0,0,-1,1980,1814,0,0
763,-790,0,0,0,0,0,0,0,0,0,-1,1987,1814,0,0
770,-790,0,0,0,0,0,0,0,0,0,-1,1994,1814,0,0
777,-790,0,0,0,0,0,0,0,0,0,-1,2001,1814,0,0
784,-790,0,0,0,0,0,0,0,0,0,-1,2008,1814,0,0
791,-790,0,0,0,0,0,0,0,0,0,-1,2015,1814,0,0
798,-790,0,0,0,0,0,0,0,0,0,-1,2022,1814,0,0
805,-790,0,0,0,0,0,0,0,0,0,-1,2029,1814,0,0
812,-790,0,0,0,0,0,0,0,0,0,-1,2036,1814,0,0
-700,-797,0,0,0,0,0,0,0,0,0,-1,524,1821,0,0
-693,-797,0,0,0,0,0,0,0,0,0,-1,531,1821,0,0
-686,-797,0,0,0,0,0,0,0,0,0,-1,538,1821,0,0
-679,-797,0,0,0,0,0,0,0,0,0,-1,545,1821,0,0
-672,-797,0,0,0,0,0,0,0,0,0,-1,552,1821,0,0
-665,-797,0,0,0,0,0,0,0,0,0,-1,559,1821,0,0
-658,-797,0,0,0,0,0,0,0,0,0,-1,566,1821,0,0
-651,-797,0,0,0,0,0,0,0,0,0,-1,573,1821,0,0
-644,-797,0,0,0,0,0,0,0,0,0,-1,580,1821,0,0
-637,-797,0,0,0,0,0,0,0,0,0,-1,587,1821,0,0
-630,-797,0,0,0,0,0,0,0,0,0,-1,594,1821,0,0
-623,-797,0,0,0,0,0,0,0,0,0,-1,601,1821,0,0
-616,-797,0,0,0,0,0,0,0,0,0,-1,608,1821,0,0
-609,-797,0,0,0,0,0,0,0,0,0,-1,615,1821,0,0
-602,-797,0,0,0,0,0,0,0,0,0,-1,622,1821,0,0
-595,-797,0,0,0,0,0,0,0,0,0,-1,629,1821,0,0
-588,-797,0,0,0,0,0,0,0,0,0,-1,636,1821,0,0
-581,-797,0,0,0,0,0,0,0,0,0,-1,643,1821,0,0
-574,-797,0,0,0,0,0,0,0,0,0,-1,650,1821,0,0
-567,-797,0,0,0,0,0,0,0,0,0,-1,657,1821,0,0
-560,-797,0,0,0,0,0,0,0,0,0,-1,664,1821,0,0
-553,-797,0,0,0,0,0,0,0,0,0,-1,671,1821,0,0
-546,-797,0,0,0,0,0,0,0,0,0,-1,678,1821,0,0
-539,-797,0,0,0,0,0,0,0,0,0,-1,685,1821,0,0
-532,-797,0,0,0,0,0,0,0,0,0,-1,692,1821,0,0
-525,-797,0,0,0,0,0,0,0,0,0,-1,699,1821,0,0
-518,-797,0,0,0,0,0,0,0,0,0,-1,706,1821,0,0
-511,-797,0,0,0,0,0,0,0,0,0,-1,713,1821,0,0
-504,-797,0,0,0,0,0,0,0,0,0,-1,720,1821,0,0
-497,-797,0,0,0,0,0,0,0,0,0,-1,727,1821,0,0
-490,-797,0,0,0,0,0,0,0,0,0,-1,734,1821,0,0
-483,-797,0,0,0,0,0,0,0,0,0,-1,741,1821,0,0
-476,-797,0,0,0,0,0,0,0,0,0,-1,748,1821,0,0
-469,-797,0,0,0,0,0,0,0,0,0,-1,755,1821,0,0
-462,-797,0,0,0,0,0,0,0,0,0,-1,762,1821,0,0
-455,-797,0,0,0,0,0,0,0,0,0,-1,769,1821,0,0
-448,-797,0,0,0,0,0,0,0,0,0,-1,776,1821,0,0
-441,-797,0,0,0,0,0,0,0,0,0,-1,783,1821,0,0
-434,-797,0,0,0,0,0,0,0,0,0,-1,790,1821,0,0
-427,-797,0,0,0,0,0,0,0,0,0,-1,797,1821,0,0
-420,-797,0,0,0,0,0,0,0,0,0,-1,804,1821,0,0
-413,-797,0,0,0,0,0,0,0,0,0,-1,811,1821,0,0
-406,-797,0,0,0,0,0,0,0,0,0,-1,818,1821,0,0
-399,-797,0,0,0,0,0,0,0,0,0,-1,825,1821,0,0
-392,-797,0,0,0,0,0,0,0,0,0,-1,832,1821,0,0
-385,-797,0,0,0,0,0,0,0,0,0,-1,839,1821,0,0
-378,-797,0,0,0,0,0,0,0,0,0,-1,846,1821,0,0
-371,-797,0,0,0,0,0,0,0,0,0,-1,853,1821,0,0
-364,-797,0,0,0,0,0,0,0,0,0,-1,860,1821,0,0
-357,-797,0,0,0,0,0,0,0,0,0,-1,867,1821,0,0
-350,-797,0,0,0,0,0,0,0,0,0,-1,874,1821,0,0
-343,-797,0,0,0,0,0,0,0,0,0,-1,881,1821,0,0
-336,-797,0,0,0,0,0,0,0,0,0,-1,888,1821,0,0
-329,-797,0,0,0,0,0,0,0,0,0,-1,895,1821,0,0
-322,-797,0,0,0,0,0,0,0,0,0,-1,902,1821,0,0
-315,-797,0,0,0,0,0,0,0,0,0,-1,909,1821,0,0
-308,-797,0,0,0,0,0,0,0,0,0,-1,916,1821,0,0
-301,-797,0,0,0,0,0,0,0,0,0,-1,923,1821,0,0
-294,-797,0,0,0,0,0,0,0,0,0,-1,930,1821,0,0
-287,-797,0,0,0,0,0,0,0,0,0,-1,937,1821,0,0
-280,-797,0,0,0,0,0,0,0,0,0,-1,944,1821,0,0
-273,-797,0,0,0,0,0,0,0,0,0,-1,951,1821,0,0
-266,-797,0,0,0,0,0,0,0,0,0,-1,958,1821,0,0
-259,-797,0,0,0,0,0,0,0,0,0,-1,965,1821,0,0
-252,-797,0,0,0,0,0,0,0,0,0,-1,972,1821,0,0
-245,-797,0,0,0,0,0,0,0,0,0,-1,979,1821,0,0
-238,-797,0,0,0,0,0,0,0,0,0,-1,986,1821,0,0
-231,-797,0,0,0,0,0,0,0,0,0,-1,993,1821,0,0
-224,-797,0,0,0,0,0,0,0,0,0,-1,1000,1821,0,0
-217,-797,0,0,0,0,0,0,0,0,0,-1,1007,1821,0,0
-210,-797,0,0,0,0,0,0,0,0,0,-1,1014,1821,0,0
-203,-797,0,0,0,0,0,0,0,0,0,-1,1021,1821,0,0
-196,-797,0,0,0,0,0,0,0,0,0,-1,1028,1821,0,0
-189,-797,0,0,0,0,0,0,0,0,0,-1,1035,1821,0,0
-182,-797,0,0,0,0,0,0,0,0,0,-1,1042,1821,0,0
-175,-797,0,0,0,0,0,0,0,0,0,-1,1049,1821,0,0
-168,-797,0,0,0,0,0,0,0,0,0,-1,1056,1821,0,0
-161,-797,0,0,0,0,0,0,0,0,0,-1,1063,1821,0,0
-154,-797,0,0,0,0,0,0,0,0,0,-1,1070,1821,0,0
-147,-797,0,0,0,0,0,0,0,0,0,-1,1077,1821,0,0
-140,-797,0,0,0,0,0,0,0,0,0,-1,1084,1821,0,0
-133,-797,0,0,0,0,0,0,0,0,0,-1,1091,1821,0,0
-126,-797,0,0,0,0,0,0,0,0,0,-1,1098,1821,0,0
-119,-797,0,0,0,0,0,0,0,0,0,-1,1105,1821,0,0
-112,-797,0,0,0,0,0,0,0,0,0,-1,1112,1821,0,0
-105,-797,0,0,0,0,0,0,0,0,0,-1,1119,1821,0,0
-98,-797,0,0,0,0,0,0,0,0,0,-1,1126,1821,0,0
-91,-797,0,0,0,0,0,0,0,0,0,-1,1133,1821,0,0
-84,-797,0,0,0,0,0,0,0,0,0,-1,1140,1821,0,0
-77,-797,0,0,0,0,0,0,0,0,0,-1,1147,1821,0,0
-70,-797,0,0,0,0,0,0,0,0,0,-1,1154,1821,0,0
-63,-797,0,0,0,0,0,0,0,0,0,-1,1161,1821,0,0
-56,-797,0,0,0,0,0,0,0,0,0,-1,1168,1821,0,0
-49,-797,0,0,0,0,0,0,0,0,0,-1,1175,1821,0,0
-42,-797,0.579834,0.692871,0,0,0,0,0,0,0,-1,1182,1821,0.579856,-0.692816
-35,-797,-0.185425,5.55396,0,0,0,0,0,0,0,-1,1189,1821,-0.18542,-5.55396
-28,-797,-0.310181,4.71509,0,0,0,0,0,0,0,-1,1196,1821,-0.310228,-4.71503
-21,-797,9.96814,39.2853,0,0,0,0,0,0,0,-1,1203,1821,9.96809,-39.2852
-14,-797,9.97974,40.1101,0,0,0,0,0,0,0,-1,1210,1821,9.97974,-40.1101
-7,-797,9.99133,40.9349,0,0,0,0,0,0,0,-1,1217,1821,9.99139,-40.9349
0,-797,8.62097,41.5333,0,0,0,0,0,0,0,-1,1224,1821,8.62101,-41.5334
7,-797,13.5553,36.4817,0,0,0,0,0,0,0,-1,1231,1821,13.5554,-36.4817
14,-797,13.1641,36.6709,-0.0238723,0.209781,-0.0486539,0.219507,-0.0335987,-1.37349,0.158728,0.0462551,1238,1821,13.1641,-36.6709
21,-797,12.7928,36.8751,-0.0139398,0.220165,-0.0546081,0.232277,-0.0260513,-1.35254,0.164225,0.046763,1245,1821,12.7929,-36.8752
28,-797,12.4702,37.1537,-0.006956,0.224545,-0.0594333,0.238912,-0.0213227,-1.33362,0.166837,0.0424856,1252,1821,12.4703,-37.1537
35,-797,12.0966,37.4403,-0.000863369,0.214877,-0.0632702,0.232063,-0.0180495,-1.30556,0.161063,0.0452931,1259,1821,12.0966,-37.4403
42,-797,11.4646,38.0258,0.00562488,0.199047,-0.0668134,0.219882,-0.0152101,-1.26851,0.151912,0.0458337,1266,1821,11.4646,-38.0257
49,-797,10.3789,37.1271,0,0,0,0,0,0,0,-1,1273,1821,10.3789,-37.127
56,-797,11.1155,36.0083,0,0,0,0,0,0,0,-1,1280,1821,11.1155,-36.0083
63,-797,11.0884,36.09,0,0,0,0,0,0,0,-1,1287,1821,11.0884,-36.0899
70,-797,10.8885,36.356,0,0,0,0,0,0,0,-1,1294,1821,10.8886,-36.3559
77,-797,5.68555,46.3577,0,0,0,0,0,0,0,-1,1301,1821,5.68552,-46.3577
84,-797,5.92773,44.9659,0.0488867,0.0421932,-0.0877608,0.133365,-0.0422846,-0.76634,0.105858,0.0449602,1308,1821,5.92777,-44.966
91,-797,6.32874,43.4845,0.0620158,0.0262887,-0.0958664,0.141669,-0.0533643,-0.693285,0.116386,0.0448624,1315,1821,6.32877,-43.4845
98,-797,7.14893,41.4694,0.0731121,0.0167371,-0.0991403,0.147994,-0.058145,-0.646894,0.122725,0.0420718,1322,1821,7.14887,-41.4694
105,-797,7.54395,40.0219,0.0794018,0.0090756,-0.0984257,0.148757,-0.0602795,-0.613836,0.124239,0.0448196,1329,1821,7.54398,-40.0218
112,-797,7.96265,38.3619,0,0,0,0,0,0,0,-1,1336,1821,7.96269,-38.3619
119,-797,11.1322,46.5341,0,0,0,0,0,0,0,-1,1343,1821,11.1322,-46.5341
126,-797,11.9917,46.5272,0,0,0,0,0,0,0,-1,1350,1821,11.9917,-46.5272
133,-797,-8.12036,26.9442,0,0,0,0,0,0,0,-1,1357,1821,-8.12031,-26.9443
140,-797,15.7264,35.1793,0,0,0,0,0,0,0,-1,1364,1821,15.7265,-35.1793
147,-797,16.7083,34.7194,0,0,0,0,0,0,0,-1,1371,1821,16.7083,-34.7194
154,-797,40.2623,8.88733,0,0,0,0,0,0,0,-1,1378,1821,40.2623,-8.88731
161,-797,42.2798,8.17371,0,0,0,0,0,0,0,-1,1385,1821,42.2798,-8.17367
168,-797,0,0,0,0,0,0,0,0,0,-1,1392,1821,0,0
175,-797,0,0,0,0,0,0,0,0,0,-1,1399,1821,0,0
182,-797,0,0,0,0,0,0,0,0,0,-1,1406,1821,0,0
189,-797,0,0,0,0,0,0,0,0,0,-1,1413,1821,0,0
196,-797,0,0,0,0,0,0,0,0,0,-1,1420,1821,0,0
203,-797,0,0,0,0,0,0,0,0,0,-1,1427,1821,0,0
210,-797,0,0,0,0,0,0,0,0,0,-1,1434,1821,0,0
217,-797,0,0,0,0,0,0,0,0,0,-1,1441,1821,0,0
224,-797,0,0,0,0,0,0,0,0,0,-1,1448,1821,0,0
231,-797,0,0,0,0,0,0,0,0,0,-1,1455,1821,0,0
238,-797,0,0,0,0,0,0,0,0,0,-1,1462,1821,0,0
245,-797,0,0,0,0,0,0,0,0,0,-1,1469,1821,0,0
252,-797,0,0,0,0,0,0,0,0,0,-1,1476,1821,0,0
259,-797,0,0,0,0,0,0,0,0,0,-1,1483,1821,0,0
266,-797,0,0,0,0,0,0,0,0,0,-1,1490,1821,0,0
273,-797,0,0,0,0,0,0,0,0,0,-1,1497,1821,0,0
280,-797,0,0,0,0,0,0,0,0,0,-1,1504,1821,0,0
287,-797,0,0,0,0,0,0,0,0,0,-1,1511,1821,0,0
294,-797,0,0,0,0,0,0,0,0,0,-1,1518,1821,0,0
301,-797,0,0,0,0,0,0,0,0,0,-1,1525,1821,0,0
308,-797,0,0,0,0,0,0,0,0,0,-1,1532,1821,0,0
315,-797,0,0,0,0,0,0,0,0,0,-1,1539,1821,0,0
322,-797,0,0,0,0,0,0,0,0,0,-1,1546,1821,0,0
329,-797,0,0,0,0,0,0,0,0,0,-1,1553,1821,0,0
336,-797,0,0,0,0,0,0,0,0,0,-1,1560,1821,0,0
343,-797,0,0,0,0,0,0,0,0,0,-1,1567,1821,0,0
350,-797,0,0,0,0,0,0,0,0,0,-1,1574,1821,0,0
357,-797,0,0,0,0,0,0,0,0,0,-1,1581,1821,0,0
364,-797,0,0,0,0,0,0,0,0,0,-1,1588,1821,0,0
371,-797,0,0,0,0,0,0,0,0,0,-1,1595,1821,0,0
378,-797,0,0,0,0,0,0,0,0,0,-1,1602,1821,0,0
385,-797,0,0,0,0,0,0,0,0,0,-1,1609,1821,0,0
392,-797,0,0,0,0,0,0,0,0,0,-1,1616,1821,0,0
399,-797,0,0,0,0,0,0,0,0,0,-1,1623,1821,0,0
406,-797,0,0,0,0,0,0,0,0,0,-1,1630,1821,0,0
413,-797,0,0,0,0,0,0,0,0,0,-1,1637,1821,0,0
420,-797,0,0,0,0,0,0,0,0,0,-1,1644,1821,0,0
427,-797,0,0,0,0,0,0,0,0,0,-1,1651,1821,0,0
434,-797,0,0,0,0,0,0,0,0,0,-1,1658,1821,0,0
441,-797,0,0,0,0,0,0,0,0,0,-1,1665,1821,0,0
448,-797,0,0,0,0,0,0,0,0,0,-1,1672,1821,0,0
455,-797,0,0,0,0,0,0,0,0,0,-1,1679,1821,0,0
462,-797,0,0,0,0,0,0,0,0,0,-1,1686,1821,0,0
469,-797,0,0,0,0,0,0,0,0,0,-1,1693,1821,0,0
476,-797,0,0,0,0,0,0,0,0,0,-1,1700,1821,0,0
483,-797,0,0,0,0,0,0,0,0,0,-1,1707,1821,0,0
490,-797,0,0,0,0,0,0,0,0,0,-1,1714,1821,0,0
497,-797,0,0,0,0,0,0,0,0,0,-1,1721,1821,0,0
504,-797,0,0,0,0,0,0,0,0,0,-1,1728,1821,0,0
511,-797,0,0,0,0,0,0,0,0,0,-1,1735,1821,0,0
518,-797,0,0,0,0,0,0,0,0,0,-1,1742,1821,0,0
525,-797,0,0,0,0,0,0,0,0,0,-1,1749,1821,0,0
532,-797,0,0,0,0,0,0,0,0,0,-1,1756,1821,0,0
539,-797,0,0,0,0,0,0,0,0,0,-1,1763,1821,0,0
546,-797,0,0,0,0,0,0,0,0,0,-1,1770,1821,0,0
553,-797,0,0,0,0,0,0,0,0,0,-1,1777,1821,0,0
560,-797,0,0,0,0,0,0,0,0,0,-1,1784,1821,0,0
567,-797,0,0,0,0,0,0,0,0,0,-1,1791,1821,0,0
574,-797,0,0,0,0,0,0,0,0,0,-1,1798,1821,0,0
581,-797,0,0,0,0,0,0,0,0,0,-1,1805,1821,0,0
588,-797,0,0,0,0,0,0,0,0,0,-1,1812,1821,0,0
595,-797,0,0,0,0,0,0,0,0,0,-1,1819,1821,0,0
602,-797,0,0,0,0,0,0,0,0,0,-1,1826,1821,0,0
609,-797,0,0,0,0,0,0,0,0,0,-1,1833,1821,0,0
616,-797,0,0,0,0,0,0,0,0,0,-1,1840,1821,0,0
623,-797,0,0,0,0,0,0,0,0,0,-1,1847,1821,0,0
630,-797,0,0,0,0,0,0,0,0,0,-1,1854,1821,0,0
637,-797,0,0,0,0,0,0,0,0,0,-1,1861,1821,0,0
644,-797,0,0,0,0,0,0,0,0,0,-1,1868,1821,0,0
651,-797,0,0,0,0,0,0,0,0,0,-1,1875,1821,0,0
658,-797,0,0,0,0,0,0,0,0,0,-1,1882,1821,0,0
665,-797,0,0,0,0,0,0,0,0,0,-1,1889,1821,0,0
672,-797,0,0,0,0,0,0,0,0,0,-1,1896,1821,0,0
679,-797,0,0,0,0,0,0,0,0,0,-1,1903,1821,0,0
686,-797,0,0,0,0,0,0,0,0,0,-1,1910,1821,0,0
693,-797,0,0,0,0,0,0,0,0,0,-1,1917,1821,0,0
700,-797,0,0,0,0,0,0,0,0,0,-1,1924,1821,0,0
707,-797,0,0,0,0,0,0,0,0,0,-1,1931,1821,0,0
714,-797,0,0,0,0,0,0,0,0,0,-1,1938,1821,0,0
721,-797,0,0,0,0,0,0,0,0,0,-1,1945,1821,0,0
728,-797,0,0,0,0,0,0,0,0,0,-1,1952,1821,0,0
735,-797,0,0,0,0,0,0,0,0,0,-1,1959,1821,0,0
742,-797,0,0,0,0,0,0,0,0,0,-1,1966,1821,0,0
749,-797,0,0,0,0,0,0,0,0,0,-1,1973,1821,0,0
756,-797,0,0,0,0,0,0,0,0,0,-1,1980,1821,0,0
763,-797,0,0,0,0,0,0,0,0,0,-1,1987,1821,0,0
770,-797,0,0,0,0,0,0,0,0,0,-1,1994,1821,0,0
777,-797,0,0,0,0,0,0,0,0,0,-1,2001,1821,0,0
784,-797,0,0,0,0,0,0,0,0,0,-1,2008,1821,0,0
791,-797,0,0,0,0,0,0,0,0,0,-1,2015,1821,0,0
798,-797,0,0,0,0,0,0,0,0,0,-1,2022,1821,0,0
805,-797,0,0,0,0,0,0,0,0,0,-1,2029,1821,0,0
812,-797,0,0,0,0,0,0,0,0,0,-1,2036,1821,0,0
-700,-804,0,0,0,0,0,0,0,0,0,-1,524,1828,0,0
-693,-804,0,0,0,0,0,0,0,0,0,-1,531,1828,0,0
-686,-804,0,0,0,0,0,0,0,0,0,-1,538,1828,0,0
-679,-804,0,0,0,0,0,0,0,0,0,-1,545,1828,0,0
-672,-804,0,0,0,0,0,0,0,0,0,-1,552,1828,0,0
-665,-804,0,0,0,0,0,0,0,0,0,-1,559,1828,0,0
-658,-804,0,0,0,0,0,0,0,0,0,-1,566,1828,0,0
-651,-804,0,0,0,0,0,0,0,0,0,-1,573,1828,0,0
-644,-804,0,0,0,0,0,0,0,0,0,-1,580,1828,0,0
-637,-804,0,0,0,0,0,0,0,0,0,-1,587,1828,0,0
-630,-804,0,0,0,0,0,0,0,0,0,-1,594,1828,0,0
-623,-804,0,0,0,0,0,0,0,0,0,-1,601,1828,0,0
-616,-804,0,0,0,0,0,0,0,0,0,-1,608,1828,0,0
-609,-804,0,0,0,0,0,0,0,0,0,-1,615,1828,0,0
-602,-804,0,0,0,0,0,0,0,0,0,-1,622,1828,0,0
-595,-804,0,0,0,0,0,0,0,0,0,-1,629,1828,0,0
-588,-804,0,0,0,0,0,0,0,0,0,-1,636,1828,0,0
-581,-804,0,0,0,0,0,0,0,0,0,-1,643,1828,0,0
-574,-804,0,0,0,0,0,0,0,0,0,-1,650,1828,0,0
-567,-804,0,0,0,0,0,0,0,0,0,-1,657,1828,0,0
-560,-804,0,0,0,0,0,0,0,0,0,-1,664,1828,0,0
-553,-804,0,0,0,0,0,0,0,0,0,-1,671,1828,0,0
-546,-804,0,0,0,0,0,0,0,0,0,-1,678,1828,0,0
-539,-804,0,0,0,0,0,0,0,0,0,-1,685,1828,0,0
-532,-804,0,0,0,0,0,0,0,0,0,-1,692,1828,0,0
-525,-804,0,0,0,0,0,0,0,0,0,-1,699,1828,0,0
-518,-804,0,0,0,0,0,0,0,0,0,-1,706,1828,0,0
-511,-804,0,0,0,0,0,0,0,0,0,-1,713,1828,0,0
-504,-804,0,0,0,0,0,0,0,0,0,-1,720,1828,0,0
-497,-804,0,0,0,0,0,0,0,0,0,-1,727,1828,0,0
-490,-804,0,0,0,0,0,0,0,0,0,-1,734,1828,0,0
-483,-804,0,0,0,0,0,0,0,0,0,-1,741,1828,0,0
-476,-804,0,0,0,0,0,0,0,0,0,-1,748,1828,0,0
-469,-804,0,0,0,0,0,0,0,0,0,-1,755,1828,0,0
-462,-804,0,0,0,0,0,0,0,0,0,-1,762,1828,0,0
-455,-804,0,0,0,0,0,0,0,0,0,-1,769,1828,0,0
-448,-804,0,0,0,0,0,0,0,0,0,-1,776,1828,0,0
-441,-804,0,0,0,0,0,0,0,0,0,-1,783,1828,0,0
-434,-804,0,0,0,0,0,0,0,0,0,-1,790,1828,0,0
-427,-804,0,0,0,0,0,0,0,0,0,-1,797,1828,0,0
-420,-804,0,0,0,0,0,0,0,0,0,-1,804,1828,0,0
-413,-804,0,0,0,0,0,0,0,0,0,-1,811,1828,0,0
-406,-804,0,0,0,0,0,0,0,0,0,-1,818,1828,0,0
-399,-804,0,0,0,0,0,0,0,0,0,-1,825,1828,0,0
-392,-804,0,0,0,0,0,0,0,0,0,-1,832,1828,0,0
-385,-804,0,0,0,0,0,0,0,0,0,-1,839,1828,0,0
-378,-804,0,0,0,0,0,0,0,0,0,-1,846,1828,0,0
-371,-804,0,0,0,0,0,0,0,0,0,-1,853,1828,0,0
-364,-804,0,0,0,0,0,0,0,0,0,-1,860,1828,0,0
-357,-804,0,0,0,0,0,0,0,0,0,-1,867,1828,0,0
-350,-804,0,0,0,0,0,0,0,0,0,-1,874,1828,0,0
-343,-804,0,0,0,0,0,0,0,0,0,-1,881,1828,0,0
-336,-804,0,0,0,0,0,0,0,0,0,-1,888,1828,0,0
-329,-804,0,0,0,0,0,0,0,0,0,-1,895,1828,0,0
-322,-804,0,0,0,0,0,0,0,0,0,-1,902,1828,0,0
-315,-804,0,0,0,0,0,0,0,0,0,-1,909,1828,0,0
-308,-804,0,0,0,0,0,0,0,0,0,-1,916,1828,0,0
-301,-804,0,0,0,0,0,0,0,0,0,-1,923,1828,0,0
-294,-804,0,0,0,0,0,0,0,0,0,-1,930,1828,0,0
-287,-804,0,0,0,0,0,0,0,0,0,-1,937,1828,0,0
-280,-804,0,0,0,0,0,0,0,0,0,-1,944,1828,0,0
-273,-804,0,0,0,0,0,0,0,0,0,-1,951,1828,0,0
-266,-804,0,0,0,0,0,0,0,0,0,-1,958,1828,0,0
-259,-804,0,0,0,0,0,0,0,0,0,-1,965,1828,0,0
-252,-804,0,0,0,0,0,0,0,0,0,-1,972,1828,0,0
-245,-804,0,0,0,0,0,0,0,0,0,-1,979,1828,0,0
-238,-804,0,0,0,0,0,0,0,0,0,-1,986,1828,0,0
-231,-804,0,0,0,0,0,0,0,0,0,-1,993,1828,0,0
-224,-804,0,0,0,0,0,0,0,0,0,-1,1000,1828,0,0
-217,-804,0,0,0,0,0,0,0,0,0,-1,1007,1828,0,0
-210,-804,0,0,0,0,0,0,0,0,0,-1,1014,1828,0,0
-203,-804,0,0,0,0,0,0,0,0,0,-1,1021,1828,0,0
-196,-804,0,0,0,0,0,0,0,0,0,-1,1028,1828,0,0
-189,-804,0,0,0,0,0,0,0,0,0,-1,1035,1828,0,0
-182,-804,0,0,0,0,0,0,0,0,0,-1,1042,1828,0,0
-175,-804,0,0,0,0,0,0,0,0,0,-1,1049,1828,0,0
-168,-804,0,0,0,0,0,0,0,0,0,-1,1056,1828,0,0
-161,-804,0,0,0,0,0,0,0,0,0,-1,1063,1828,0,0
-154,-804,0,0,0,0,0,0,0,0,0,-1,1070,1828,0,0
-147,-804,0,0,0,0,0,0,0,0,0,-1,1077,1828,0,0
-140,-804,0,0,0,0,0,0,0,0,0,-1,1084,1828,0,0
-133,-804,0,0,0,0,0,0,0,0,0,-1,1091,1828,0,0
-126,-804,0,0,0,0,0,0,0,0,0,-1,1098,1828,0,0
-119,-804,0,0,0,0,0,0,0,0,0,-1,1105,1828,0,0
-112,-804,0,0,0,0,0,0,0,0,0,-1,1112,1828,0,0
-105,-804,0,0,0,0,0,0,0,0,0,-1,1119,1828,0,0
-98,-804,0,0,0,0,0,0,0,0,0,-1,1126,1828,0,0
-91,-804,0,0,0,0,0,0,0,0,0,-1,1133,1828,0,0
-84,-804,0,0,0,0,0,0,0,0,0,-1,1140,1828,0,0
-77,-804,0,0,0,0,0,0,0,0,0,-1,1147,1828,0,0
-70,-804,0,0,0,0,0,0,0,0,0,-1,1154,1828,0,0
-63,-804,0,0,0,0,0,0,0,0,0,-1,1161,1828,0,0
-56,-804,0,0,0,0,0,0,0,0,0,-1,1168,1828,0,0
-49,-804,0,0,0,0,0,0,0,0,0,-1,1175,1828,0,0
-42,-804,0,0,0,0,0,0,0,0,0,-1,1182,1828,0,0
-35,-804,0,0,0,0,0,0,0,0,0,-1,1189,1828,0,0
-28,-804,0,0,0,0,0,0,0,0,0,-1,1196,1828,0,0
-21,-804,0,0,0,0,0,0,0,0,0,-1,1203,1828,0,0
-14,-804,0,0,0,0,0,0,0,0,0,-1,1210,1828,0,0
-7,-804,0,0,0,0,0,0,0,0,0,-1,1217,1828,0,0
0,-804,0,0,0,0,0,0,0,0,0,-1,1224,1828,0,0
7,-804,0,0,0,0,0,0,0,0,0,-1,1231,1828,0,0
14,-804,0,0,0,0,0,0,0,0,0,-1,1238,1828,0,0
21,-804,0,0,0,0,0,0,0,0,0,-1,1245,1828,0,0
28,-804,0,0,0,0,0,0,0,0,0,-1,1252,1828,0,0
35,-804,12.5707,36.3076,-0.00990598,0.270122,-0.0722849,0.28768,-0.0274642,-1.33251,0.201566,0.0452031,1259,1828,12.5707,-36.3076
42,-804,11.8124,37.5264,-0.00226423,0.245055,-0.0750193,0.266031,-0.0232407,-1.29815,0.185587,0.0438693,1266,1828,11.8123,-37.5264
49,-804,11.9203,34.6891,0,0,0,0,0,0,0,-1,1273,1828,11.9203,-34.6891
56,-804,11.7344,35.0751,0,0,0,0,0,0,0,-1,1280,1828,11.7343,-35.075
63,-804,11.4937,35.1411,0,0,0,0,0,0,0,-1,1287,1828,11.4936,-35.1411
70,-804,11.3861,35.7136,0,0,0,0,0,0,0,-1,1294,1828,11.3861,-35.7136
77,-804,6.06665,46.6826,0,0,0,0,0,0,0,-1,1301,1828,6.06669,-46.6826
84,-804,6.06348,45.1427,0,0,0,0,0,0,0,-1,1308,1828,6.0635,-45.1428
91,-804,0,0,0,0,0,0,0,0,0,-1,1315,1828,0,0
98,-804,0,0,0,0,0,0,0,0,0,-1,1322,1828,0,0
105,-804,0,0,0,0,0,0,0,0,0,-1,1329,1828,0,0
112,-804,0,0,0,0,0,0,0,0,0,-1,1336,1828,0,0
119,-804,0,0,0,0,0,0,0,0,0,-1,1343,1828,0,0
126,-804,0,0,0,0,0,0,0,0,0,-1,1350,1828,0,0
133,-804,0,0,0,0,0,0,0,0,0,-1,1357,1828,0,0
140,-804,0,0,0,0,0,0,0,0,0,-1,1364,1828,0,0
147,-804,0,0,0,0,0,0,0,0,0,-1,1371,1828,0,0
154,-804,0,0,0,0,0,0,0,0,0,-1,1378,1828,0,0
161,-804,0,0,0,0,0,0,0,0,0,-1,1385,1828,0,0
168,-804,0,0,0,0,0,0,0,0,0,-1,1392,1828,0,0
175,-804,0,0,0,0,0,0,0,0,0,-1,1399,1828,0,0
182,-804,0,0,0,0,0,0,0,0,0,-1,1406,1828,0,0
189,-804,0,0,0,0,0,0,0,0,0,-1,1413,1828,0,0
196,-804,0,0,0,0,0,0,0,0,0,-1,1420,1828,0,0
203,-804,0,0,0,0,0,0,0,0,0,-1,1427,1828,0,0
210,-804,0,0,0,0,0,0,0,0,0,-1,1434,1828,0,0
217,-804,0,0,0,0,0,0,0,0,0,-1,1441,1828,0,0
224,-804,0,0,0,0,0,0,0,0,0,-1,1448,1828,0,0
231,-804,0,0,0,0,0,0,0,0,0,-1,1455,1828,0,0
238,-804,0,0,0,0,0,0,0,0,0,-1,1462,1828,0,0
245,-804,0,0,0,0,0,0,0,0,0,-1,1469,1828,0,0
252,-804,0,0,0,0,0,0,0,0,0,-1,1476,1828,0,0
259,-804,0,0,0,0,0,0,0,0,0,-1,1483,1828,0,0
266,-804,0,0,0,0,0,0,0,0,0,-1,1490,1828,0,0
273,-804,0,0,0,0,0,0,0,0,0,-1,1497,1828,0,0
280,-804,0,0,0,0,0,0,0,0,0,-1,1504,1828,0,0
287,-804,0,0,0,0,0,0,0,0,0,-1,1511,1828,0,0
294,-804,0,0,0,0,0,0,0,0,0,-1,1518,1828,0,0
301,-804,0,0,0,0,0,0,0,0,0,-1,1525,1828,0,0
308,-804,0,0,0,0,0,0,0,0,0,-1,1532,1828,0,0
315,-804,0,0,0,0,0,0,0,0,0,-1,1539,1828,0,0
322,-804,0,0,0,0,0,0,0,0,0,-1,1546,1828,0,0
329,-804,0,0,0,0,0,0,0,0,0,-1,1553,1828,0,0
336,-804,0,0,0,0,0,0,0,0,0,-1,1560,1828,0,0
343,-804,0,0,0,0,0,0,0,0,0,-1,1567,1828,0,0
350,-804,0,0,0,0,0,0,0,0,0,-1,1574,1828,0,0
357,-804,0,0,0,0,0,0,0,0,0,-1,1581,1828,0,0
364,-804,0,0,0,0,0,0,0,0,0,-1,1588,1828,0,0
371,-804,0,0,0,0,0,0,0,0,0,-1,1595,1828,0,0
378,-804,0,0,0,0,0,0,0,0,0,-1,1602,1828,0,0
385,-804,0,0,0,0,0,0,0,0,0,-1,1609,1828,0,0
392,-804,0,0,0,0,0,0,0,0,0,-1,1616,1828,0,0
399,-804,0,0,0,0,0,0,0,0,0,-1,1623,1828,0,0
406,-804,0,0,0,0,0,0,0,0,0,-1,1630,1828,0,0
413,-804,0,0,0,0,0,0,0,0,0,-1,1637,1828,0,0
420,-804,0,0,0,0,0,0,0,0,0,-1,1644,1828,0,0
427,-804,0,0,0,0,0,0,0,0,0,-1,1651,1828,0,0
434,-804,0,0,0,0,0,0,0,0,0,-1,1658,1828,0,0
441,-804,0,0,0,0,0,0,0,0,0,-1,1665,1828,0,0
448,-804,0,0,0,0,0,0,0,0,0,-1,1672,1828,0,0
455,-804,0,0,0,0,0,0,0,0,0,-1,1679,1828,0,0
462,-804,0,0,0,0,0,0,0,0,0,-1,1686,1828,0,0
469,-804,0,0,0,0,0,0,0,0,0,-1,1693,1828,0,0
476,-804,0,0,0,0,0,0,0,0,0,-1,1700,1828,0,0
483,-804,0,0,0,0,0,0,0,0,0,-1,1707,1828,0,0
490,-804,0,0,0,0,0,0,0,0,0,-1,1714,1828,0,0
497,-804,0,0,0,0,0,0,0,0,0,-1,1721,1828,0,0
504,-804,0,0,0,0,0,0,0,0,0,-1,1728,1828,0,0
511,-804,0,0,0,0,0,0,0,0,0,-1,1735,1828,0,0
518,-804,0,0,0,0,0,0,0,0,0,-1,1742,1828,0,0
525,-804,0,0,0,0,0,0,0,0,0,-1,1749,1828,0,0
532,-804,0,0,0,0,0,0,0,0,0,-1,1756,1828,0,0
539,-804,0,0,0,0,0,0,0,0,0,-1,1763,1828,0,0
546,-804,0,0,0,0,0,0,0,0,0,-1,1770,1828,0,0
553,-804,0,0,0,0,0,0,0,0,0,-1,1777,1828,0,0
560,-804,0,0,0,0,0,0,0,0,0,-1,1784,1828,0,0
567,-804,0,0,0,0,0,0,0,0,0,-1,1791,1828,0,0
574,-804,0,0,0,0,0,0,0,0,0,-1,1798,1828,0,0
581,-804,0,0,0,0,0,0,0,0,0,-1,1805,1828,0,0
588,-804,0,0,0,0,0,0,0,0,0,-1,1812,1828,0,0
595,-804,0,0,0,0,0,0,0,0,0,-1,1819,1828,0,0
602,-804,0,0,0,0,0,0,0,0,0,-1,1826,1828,0,0
609,-804,0,0,0,0,0,0,0,0,0,-1,1833,1828,0,0
616,-804,0,0,0,0,0,0,0,0,0,-1,1840,1828,0,0
623,-804,0,0,0,0,0,0,0,0,0,-1,1847,1828,0,0
630,-804,0,0,0,0,0,0,0,0,0,-1,1854,1828,0,0
637,-804,0,0,0,0,0,0,0,0,0,-1,1861,1828,0,0
644,-804,0,0,0,0,0,0,0,0,0,-1,1868,1828,0,0
651,-804,0,0,0,0,0,0,0,0,0,-1,1875,1828,0,0
658,-804,0,0,0,0,0,0,0,0,0,-1,1882,1828,0,0
665,-804,0,0,0,0,0,0,0,0,0,-1,1889,1828,0,0
672,-804,0,0,0,0,0,0,0,0,0,-1,1896,1828,0,0
679,-804,0,0,0,0,0,0,0,0,0,-1,1903,1828,0,0
686,-804,0,0,0,0,0,0,0,0,0,-1,1910,1828,0,0
693,-804,0,0,0,0,0,0,0,0,0,-1,1917,1828,0,0
700,-804,0,0,0,0,0,0,0,0,0,-1,1924,1828,0,0
707,-804,0,0,0,0,0,0,0,0,0,-1,1931,1828,0,0
714,-804,0,0,0,0,0,0,0,0,0,-1,1938,1828,0,0
721,-804,0,0,0,0,0,0,0,0,0,-1,1945,1828,0,0
728,-804,0,0,0,0,0,0,0,0,0,-1,1952,1828,0,0
735,-804,0,0,0,0,0,0,0,0,0,-1,1959,1828,0,0
742,-804,0,0,0,0,0,0,0,0,0,-1,1966,1828,0,0
749,-804,0,0,0,0,0,0,0,0,0,-1,1973,1828,0,0
756,-804,0,0,0,0,0,0,0,0,0,-1,1980,1828,0,0
763,-804,0,0,0,0,0,0,0,0,0,-1,1987,1828,0,0
770,-804,0,0,0,0,0,0,0,0,0,-1,1994,1828,0,0
777,-804,0,0,0,0,0,0,0,0,0,-1,2001,1828,0,0
784,-804,0,0,0,0,0,0,0,0,0,-1,2008,1828,0,0
791,-804,0,0,0,0,0,0,0,0,0,-1,2015,1828,0,0
798,-804,0,0,0,0,0,0,0,0,0,-1,2022,1828,0,0
805,-804,0,0,0,0,0,0,0,0,0,-1,2029,1828,0,0
812,-804,0,0,0,0,0,0,0,0,0,-1,2036,1828,0,0

