 "x_c",  "y_c",  "u_c",  "v_c",  "exx",  "eyy",  "exy",  "e1",  "e2",  "gamma",  "e_vonmises",  "sigma",  "x",  "y",  "u",  "v"
-700,715,0,0,0,0,0,0,0,0,0,-1,524,309,0,0
-693,715,0,0,0,0,0,0,0,0,0,-1,531,309,0,0
-686,715,0,0,0,0,0,0,0,0,0,-1,538,309,0,0
-679,715,0,0,0,0,0,0,0,0,0,-1,545,309,0,0
-672,715,0,0,0,0,0,0,0,0,0,-1,552,309,0,0
-665,715,0,0,0,0,0,0,0,0,0,-1,559,309,0,0
-658,715,0,0,0,0,0,0,0,0,0,-1,566,309,0,0
-651,715,0,0,0,0,0,0,0,0,0,-1,573,309,0,0
-644,715,0,0,0,0,0,0,0,0,0,-1,580,309,0,0
-637,715,0,0,0,0,0,0,0,0,0,-1,587,309,0,0
-630,715,0,0,0,0,0,0,0,0,0,-1,594,309,0,0
-623,715,0,0,0,0,0,0,0,0,0,-1,601,309,0,0
-616,715,0,0,0,0,0,0,0,0,0,-1,608,309,0,0
-609,715,0,0,0,0,0,0,0,0,0,-1,615,309,0,0
-602,715,0,0,0,0,0,0,0,0,0,-1,622,309,0,0
-595,715,0,0,0,0,0,0,0,0,0,-1,629,309,0,0
-588,715,0,0,0,0,0,0,0,0,0,-1,636,309,0,0
-581,715,0,0,0,0,0,0,0,0,0,-1,643,309,0,0
-574,715,0,0,0,0,0,0,0,0,0,-1,650,309,0,0
-567,715,0,0,0,0,0,0,0,0,0,-1,657,309,0,0
-560,715,0,0,0,0,0,0,0,0,0,-1,664,309,0,0
-553,715,0,0,0,0,0,0,0,0,0,-1,671,309,0,0
-546,715,0,0,0,0,0,0,0,0,0,-1,678,309,0,0
-539,715,0,0,0,0,0,0,0,0,0,-1,685,309,0,0
-532,715,0,0,0,0,0,0,0,0,0,-1,692,309,0,0
-525,715,0,0,0,0,0,0,0,0,0,-1,699,309,0,0
-518,715,0,0,0,0,0,0,0,0,0,-1,706,309,0,0
-511,715,0,0,0,0,0,0,0,0,0,-1,713,309,0,0
-504,715,0,0,0,0,0,0,0,0,0,-1,720,309,0,0
-497,715,0,0,0,0,0,0,0,0,0,-1,727,309,0,0
-490,715,0,0,0,0,0,0,0,0,0,-1,734,309,0,0
-483,715,0,0,0,0,0,0,0,0,0,-1,741,309,0,0
-476,715,0,0,0,0,0,0,0,0,0,-1,748,309,0,0
-469,715,0,0,0,0,0,0,0,0,0,-1,755,309,0,0
-462,715,0,0,0,0,0,0,0,0,0,-1,762,309,0,0
-455,715,0,0,0,0,0,0,0,0,0,-1,769,309,0,0
-448,715,0,0,0,0,0,0,0,0,0,-1,776,309,0,0
-441,715,0,0,0,0,0,0,0,0,0,-1,783,309,0,0
-434,715,0,0,0,0,0,0,0,0,0,-1,790,309,0,0
-427,715,0,0,0,0,0,0,0,0,0,-1,797,309,0,0
-420,715,0,0,0,0,0,0,0,0,0,-1,804,309,0,0
-413,715,0,0,0,0,0,0,0,0,0,-1,811,309,0,0
-406,715,0,0,0,0,0,0,0,0,0,-1,818,309,0,0
-399,715,0,0,0,0,0,0,0,0,0,-1,825,309,0,0
-392,715,0,0,0,0,0,0,0,0,0,-1,832,309,0,0
-385,715,0,0,0,0,0,0,0,0,0,-1,839,309,0,0
-378,715,0,0,0,0,0,0,0,0,0,-1,846,309,0,0
-371,715,0,0,0,0,0,0,0,0,0,-1,853,309,0,0
-364,715,0,0,0,0,0,0,0,0,0,-1,860,309,0,0
-357,715,0,0,0,0,0,0,0,0,0,-1,867,309,0,0
-350,715,0,0,0,0,0,0,0,0,0,-1,874,309,0,0
-343,715,0,0,0,0,0,0,0,0,0,-1,881,309,0,0
-336,715,0,0,0,0,0,0,0,0,0,-1,888,309,0,0
-329,715,0,0,0,0,0,0,0,0,0,-1,895,309,0,0
-322,715,0,0,0,0,0,0,0,0,0,-1,902,309,0,0
-315,715,0,0,0,0,0,0,0,0,0,-1,909,309,0,0
-308,715,0,0,0,0,0,0,0,0,0,-1,916,309,0,0
-301,715,0,0,0,0,0,0,0,0,0,-1,923,309,0,0
-294,715,0,0,0,0,0,0,0,0,0,-1,930,309,0,0
-287,715,0,0,0,0,0,0,0,0,0,-1,937,309,0,0
-280,715,0,0,0,0,0,0,0,0,0,-1,944,309,0,0
-273,715,0,0,0,0,0,0,0,0,0,-1,951,309,0,0
-266,715,0,0,0,0,0,0,0,0,0,-1,958,309,0,0
-259,715,0,0,0,0,0,0,0,0,0,-1,965,309,0,0
-252,715,0,0,0,0,0,0,0,0,0,-1,972,309,0,0
-245,715,0,0,0,0,0,0,0,0,0,-1,979,309,0,0
-238,715,0,0,0,0,0,0,0,0,0,-1,986,309,0,0
-231,715,0,0,0,0,0,0,0,0,0,-1,993,309,0,0
-224,715,0,0,0,0,0,0,0,0,0,-1,1000,309,0,0
-217,715,0,0,0,0,0,0,0,0,0,-1,1007,309,0,0
-210,715,0,0,0,0,0,0,0,0,0,-1,1014,309,0,0
-203,715,0,0,0,0,0,0,0,0,0,-1,1021,309,0,0
-196,715,0,0,0,0,0,0,0,0,0,-1,1028,309,0,0
-189,715,0,0,0,0,0,0,0,0,0,-1,1035,309,0,0
-182,715,0,0,0,0,0,0,0,0,0,-1,1042,309,0,0
-175,715,0,0,0,0,0,0,0,0,0,-1,1049,309,0,0
-168,715,0,0,0,0,0,0,0,0,0,-1,1056,309,0,0
-161,715,0,0,0,0,0,0,0,0,0,-1,1063,309,0,0
-154,715,0,0,0,0,0,0,0,0,0,-1,1070,309,0,0
-147,715,0,0,0,0,0,0,0,0,0,-1,1077,309,0,0
-140,715,0,0,0,0,0,0,0,0,0,-1,1084,309,0,0
-133,715,0,0,0,0,0,0,0,0,0,-1,1091,309,0,0
-126,715,0,0,0,0,0,0,0,0,0,-1,1098,309,0,0
-119,715,0,0,0,0,0,0,0,0,0,-1,1105,309,0,0
-112,715,0,0,0,0,0,0,0,0,0,-1,1112,309,0,0
-105,715,0,0,0,0,0,0,0,0,0,-1,1119,309,0,0
-98,715,0,0,0,0,0,0,0,0,0,-1,1126,309,0,0
-91,715,0,0,0,0,0,0,0,0,0,-1,1133,309,0,0
-84,715,0,0,0,0,0,0,0,0,0,-1,1140,309,0,0
-77,715,0,0,0,0,0,0,0,0,0,-1,1147,309,0,0
-70,715,0,0,0,0,0,0,0,0,0,-1,1154,309,0,0
-63,715,0,0,0,0,0,0,0,0,0,-1,1161,309,0,0
-56,715,0,0,0,0,0,0,0,0,0,-1,1168,309,0,0
-49,715,0,0,0,0,0,0,0,0,0,-1,1175,309,0,0
-42,715,0,0,0,0,0,0,0,0,0,-1,1182,309,0,0
-35,715,0,0,0,0,0,0,0,0,0,-1,1189,309,0,0
-28,715,0,0,0,0,0,0,0,0,0,-1,1196,309,0,0
-21,715,0,0,0,0,0,0,0,0,0,-1,1203,309,0,0
-14,715,0,0,0,0,0,0,0,0,0,-1,1210,309,0,0
-7,715,0,0,0,0,0,0,0,0,0,-1,1217,309,0,0
0,715,0,0,0,0,0,0,0,0,0,-1,1224,309,0,0
7,715,0,0,0,0,0,0,0,0,0,-1,1231,309,0,0
14,715,0,0,0,0,0,0,0,0,0,-1,1238,309,0,0
21,715,0,0,0,0,0,0,0,0,0,-1,1245,309,0,0
28,715,0,0,0,0,0,0,0,0,0,-1,1252,309,0,0
35,715,0,0,0,0,0,0,0,0,0,-1,1259,309,0,0
42,715,0,0,0,0,0,0,0,0,0,-1,1266,309,0,0
49,715,0,0,0,0,0,0,0,0,0,-1,1273,309,0,0
56,715,0,0,0,0,0,0,0,0,0,-1,1280,309,0,0
63,715,5.85242,-31.2737,-0.0940608,0.143412,0.00407521,0.143482,-0.0941308,1.55364,0.138169,0.0431825,1287,309,5.85239,31.2737
70,715,4.70496,-31.6948,-0.100733,0.143757,0.00575199,0.143892,-0.100868,1.54729,0.142038,0.047082,1294,309,4.70493,31.6947
77,715,0,0,0,0,0,0,0,0,0,-1,1301,309,0,0
84,715,0,0,0,0,0,0,0,0,0,-1,1308,309,0,0
91,715,0,0,0,0,0,0,0,0,0,-1,1315,309,0,0
98,715,0,0,0,0,0,0,0,0,0,-1,1322,309,0,0
105,715,0,0,0,0,0,0,0,0,0,-1,1329,309,0,0
112,715,0,0,0,0,0,0,0,0,0,-1,1336,309,0,0
119,715,0,0,0,0,0,0,0,0,0,-1,1343,309,0,0
126,715,0,0,0,0,0,0,0,0,0,-1,1350,309,0,0
133,715,0,0,0,0,0,0,0,0,0,-1,1357,309,0,0
140,715,0,0,0,0,0,0,0,0,0,-1,1364,309,0,0
147,715,0,0,0,0,0,0,0,0,0,-1,1371,309,0,0
154,715,0,0,0,0,0,0,0,0,0,-1,1378,309,0,0
161,715,0,0,0,0,0,0,0,0,0,-1,1385,309,0,0
168,715,0,0,0,0,0,0,0,0,0,-1,1392,309,0,0
175,715,0,0,0,0,0,0,0,0,0,-1,1399,309,0,0
182,715,0,0,0,0,0,0,0,0,0,-1,1406,309,0,0
189,715,0,0,0,0,0,0,0,0,0,-1,1413,309,0,0
196,715,0,0,0,0,0,0,0,0,0,-1,1420,309,0,0
203,715,0,0,0,0,0,0,0,0,0,-1,1427,309,0,0
210,715,0,0,0,0,0,0,0,0,0,-1,1434,309,0,0
217,715,0,0,0,0,0,0,0,0,0,-1,1441,309,0,0
224,715,0,0,0,0,0,0,0,0,0,-1,1448,309,0,0
231,715,0,0,0,0,0,0,0,0,0,-1,1455,309,0,0
238,715,0,0,0,0,0,0,0,0,0,-1,1462,309,0,0
245,715,0,0,0,0,0,0,0,0,0,-1,1469,309,0,0
252,715,0,0,0,0,0,0,0,0,0,-1,1476,309,0,0
259,715,0,0,0,0,0,0,0,0,0,-1,1483,309,0,0
266,715,0,0,0,0,0,0,0,0,0,-1,1490,309,0,0
273,715,0,0,0,0,0,0,0,0,0,-1,1497,309,0,0
280,715,0,0,0,0,0,0,0,0,0,-1,1504,309,0,0
287,715,0,0,0,0,0,0,0,0,0,-1,1511,309,0,0
294,715,0,0,0,0,0,0,0,0,0,-1,1518,309,0,0
301,715,0,0,0,0,0,0,0,0,0,-1,1525,309,0,0
308,715,0,0,0,0,0,0,0,0,0,-1,1532,309,0,0
315,715,0,0,0,0,0,0,0,0,0,-1,1539,309,0,0
322,715,0,0,0,0,0,0,0,0,0,-1,1546,309,0,0
329,715,0,0,0,0,0,0,0,0,0,-1,1553,309,0,0
336,715,0,0,0,0,0,0,0,0,0,-1,1560,309,0,0
343,715,0,0,0,0,0,0,0,0,0,-1,1567,309,0,0
350,715,0,0,0,0,0,0,0,0,0,-1,1574,309,0,0
357,715,0,0,0,0,0,0,0,0,0,-1,1581,309,0,0
364,715,0,0,0,0,0,0,0,0,0,-1,1588,309,0,0
371,715,0,0,0,0,0,0,0,0,0,-1,1595,309,0,0
378,715,0,0,0,0,0,0,0,0,0,-1,1602,309,0,0
385,715,0,0,0,0,0,0,0,0,0,-1,1609,309,0,0
392,715,0,0,0,0,0,0,0,0,0,-1,1616,309,0,0
399,715,0,0,0,0,0,0,0,0,0,-1,1623,309,0,0
406,715,0,0,0,0,0,0,0,0,0,-1,1630,309,0,0
413,715,0,0,0,0,0,0,0,0,0,-1,1637,309,0,0
420,715,0,0,0,0,0,0,0,0,0,-1,1644,309,0,0
427,715,0,0,0,0,0,0,0,0,0,-1,1651,309,0,0
434,715,0,0,0,0,0,0,0,0,0,-1,1658,309,0,0
441,715,0,0,0,0,0,0,0,0,0,-1,1665,309,0,0
448,715,0,0,0,0,0,0,0,0,0,-1,1672,309,0,0
455,715,0,0,0,0,0,0,0,0,0,-1,1679,309,0,0
462,715,0,0,0,0,0,0,0,0,0,-1,1686,309,0,0
469,715,0,0,0,0,0,0,0,0,0,-1,1693,309,0,0
476,715,0,0,0,0,0,0,0,0,0,-1,1700,309,0,0
483,715,0,0,0,0,0,0,0,0,0,-1,1707,309,0,0
490,715,0,0,0,0,0,0,0,0,0,-1,1714,309,0,0
497,715,0,0,0,0,0,0,0,0,0,-1,1721,309,0,0
504,715,0,0,0,0,0,0,0,0,0,-1,1728,309,0,0
511,715,0,0,0,0,0,0,0,0,0,-1,1735,309,0,0
518,715,0,0,0,0,0,0,0,0,0,-1,1742,309,0,0
525,715,0,0,0,0,0,0,0,0,0,-1,1749,309,0,0
532,715,0,0,0,0,0,0,0,0,0,-1,1756,309,0,0
539,715,0,0,0,0,0,0,0,0,0,-1,1763,309,0,0
546,715,0,0,0,0,0,0,0,0,0,-1,1770,309,0,0
553,715,0,0,0,0,0,0,0,0,0,-1,1777,309,0,0
560,715,0,0,0,0,0,0,0,0,0,-1,1784,309,0,0
567,715,0,0,0,0,0,0,0,0,0,-1,1791,309,0,0
574,715,0,0,0,0,0,0,0,0,0,-1,1798,309,0,0
581,715,0,0,0,0,0,0,0,0,0,-1,1805,309,0,0
588,715,0,0,0,0,0,0,0,0,0,-1,1812,309,0,0
595,715,0,0,0,0,0,0,0,0,0,-1,1819,309,0,0
602,715,0,0,0,0,0,0,0,0,0,-1,1826,309,0,0
609,715,0,0,0,0,0,0,0,0,0,-1,1833,309,0,0
616,715,0,0,0,0,0,0,0,0,0,-1,1840,309,0,0
623,715,0,0,0,0,0,0,0,0,0,-1,1847,309,0,0
630,715,0,0,0,0,0,0,0,0,0,-1,1854,309,0,0
637,715,0,0,0,0,0,0,0,0,0,-1,1861,309,0,0
644,715,0,0,0,0,0,0,0,0,0,-1,1868,309,0,0
651,715,0,0,0,0,0,0,0,0,0,-1,1875,309,0,0
658,715,0,0,0,0,0,0,0,0,0,-1,1882,309,0,0
665,715,0,0,0,0,0,0,0,0,0,-1,1889,309,0,0
672,715,0,0,0,0,0,0,0,0,0,-1,1896,309,0,0
679,715,0,0,0,0,0,0,0,0,0,-1,1903,309,0,0
686,715,0,0,0,0,0,0,0,0,0,-1,1910,309,0,0
693,715,0,0,0,0,0,0,0,0,0,-1,1917,309,0,0
700,715,0,0,0,0,0,0,0,0,0,-1,1924,309,0,0
707,715,0,0,0,0,0,0,0,0,0,-1,1931,309,0,0
714,715,0,0,0,0,0,0,0,0,0,-1,1938,309,0,0
721,715,0,0,0,0,0,0,0,0,0,-1,1945,309,0,0
728,715,0,0,0,0,0,0,0,0,0,-1,1952,309,0,0
735,715,0,0,0,0,0,0,0,0,0,-1,1959,309,0,0
742,715,0,0,0,0,0,0,0,0,0,-1,1966,309,0,0
749,715,0,0,0,0,0,0,0,0,0,-1,1973,309,0,0
756,715,0,0,0,0,0,0,0,0,0,-1,1980,309,0,0
763,715,0,0,0,0,0,0,0,0,0,-1,1987,309,0,0
770,715,0,0,0,0,0,0,0,0,0,-1,1994,309,0,0
777,715,0,0,0,0,0,0,0,0,0,-1,2001,309,0,0
784,715,0,0,0,0,0,0,0,0,0,-1,2008,309,0,0
791,715,0,0,0,0,0,0,0,0,0,-1,2015,309,0,0
798,715,0,0,0,0,0,0,0,0,0,-1,2022,309,0,0
805,715,0,0,0,0,0,0,0,0,0,-1,2029,309,0,0
812,715,0,0,0,0,0,0,0,0,0,-1,2036,309,0,0
-700,708,0,0,0,0,0,0,0,0,0,-1,524,316,0,0
-693,708,0,0,0,0,0,0,0,0,0,-1,531,316,0,0
-686,708,0,0,0,0,0,0,0,0,0,-1,538,316,0,0
-679,708,0,0,0,0,0,0,0,0,0,-1,545,316,0,0
-672,708,0,0,0,0,0,0,0,0,0,-1,552,316,0,0
-665,708,0,0,0,0,0,0,0,0,0,-1,559,316,0,0
-658,708,0,0,0,0,0,0,0,0,0,-1,566,316,0,0
-651,708,0,0,0,0,0,0,0,0,0,-1,573,316,0,0
-644,708,0,0,0,0,0,0,0,0,0,-1,580,316,0,0
-637,708,0,0,0,0,0,0,0,0,0,-1,587,316,0,0
-630,708,0,0,0,0,0,0,0,0,0,-1,594,316,0,0
-623,708,0,0,0,0,0,0,0,0,0,-1,601,316,0,0
-616,708,0,0,0,0,0,0,0,0,0,-1,608,316,0,0
-609,708,0,0,0,0,0,0,0,0,0,-1,615,316,0,0
-602,708,0,0,0,0,0,0,0,0,0,-1,622,316,0,0
-595,708,0,0,0,0,0,0,0,0,0,-1,629,316,0,0
-588,708,0,0,0,0,0,0,0,0,0,-1,636,316,0,0
-581,708,0,0,0,0,0,0,0,0,0,-1,643,316,0,0
-574,708,0,0,0,0,0,0,0,0,0,-1,650,316,0,0
-567,708,0,0,0,0,0,0,0,0,0,-1,657,316,0,0
-560,708,0,0,0,0,0,0,0,0,0,-1,664,316,0,0
-553,708,0,0,0,0,0,0,0,0,0,-1,671,316,0,0
-546,708,0,0,0,0,0,0,0,0,0,-1,678,316,0,0
-539,708,0,0,0,0,0,0,0,0,0,-1,685,316,0,0
-532,708,0,0,0,0,0,0,0,0,0,-1,692,316,0,0
-525,708,0,0,0,0,0,0,0,0,0,-1,699,316,0,0
-518,708,0,0,0,0,0,0,0,0,0,-1,706,316,0,0
-511,708,0,0,0,0,0,0,0,0,0,-1,713,316,0,0
-504,708,0,0,0,0,0,0,0,0,0,-1,720,316,0,0
-497,708,0,0,0,0,0,0,0,0,0,-1,727,316,0,0
-490,708,0,0,0,0,0,0,0,0,0,-1,734,316,0,0
-483,708,0,0,0,0,0,0,0,0,0,-1,741,316,0,0
-476,708,0,0,0,0,0,0,0,0,0,-1,748,316,0,0
-469,708,0,0,0,0,0,0,0,0,0,-1,755,316,0,0
-462,708,0,0,0,0,0,0,0,0,0,-1,762,316,0,0
-455,708,0,0,0,0,0,0,0,0,0,-1,769,316,0,0
-448,708,0,0,0,0,0,0,0,0,0,-1,776,316,0,0
-441,708,0,0,0,0,0,0,0,0,0,-1,783,316,0,0
-434,708,0,0,0,0,0,0,0,0,0,-1,790,316,0,0
-427,708,0,0,0,0,0,0,0,0,0,-1,797,316,0,0
-420,708,0,0,0,0,0,0,0,0,0,-1,804,316,0,0
-413,708,0,0,0,0,0,0,0,0,0,-1,811,316,0,0
-406,708,0,0,0,0,0,0,0,0,0,-1,818,316,0,0
-399,708,0,0,0,0,0,0,0,0,0,-1,825,316,0,0
-392,708,0,0,0,0,0,0,0,0,0,-1,832,316,0,0
-385,708,0,0,0,0,0,0,0,0,0,-1,839,316,0,0
-378,708,0,0,0,0,0,0,0,0,0,-1,846,316,0,0
-371,708,0,0,0,0,0,0,0,0,0,-1,853,316,0,0
-364,708,0,0,0,0,0,0,0,0,0,-1,860,316,0,0
-357,708,0,0,0,0,0,0,0,0,0,-1,867,316,0,0
-350,708,0,0,0,0,0,0,0,0,0,-1,874,316,0,0
-343,708,0,0,0,0,0,0,0,0,0,-1,881,316,0,0
-336,708,0,0,0,0,0,0,0,0,0,-1,888,316,0,0
-329,708,0,0,0,0,0,0,0,0,0,-1,895,316,0,0
-322,708,0,0,0,0,0,0,0,0,0,-1,902,316,0,0
-315,708,0,0,0,0,0,0,0,0,0,-1,909,316,0,0
-308,708,0,0,0,0,0,0,0,0,0,-1,916,316,0,0
-301,708,0,0,0,0,0,0,0,0,0,-1,923,316,0,0
-294,708,0,0,0,0,0,0,0,0,0,-1,930,316,0,0
-287,708,0,0,0,0,0,0,0,0,0,-1,937,316,0,0
-280,708,0,0,0,0,0,0,0,0,0,-1,944,316,0,0
-273,708,0,0,0,0,0,0,0,0,0,-1,951,316,0,0
-266,708,0,0,0,0,0,0,0,0,0,-1,958,316,0,0
-259,708,0,0,0,0,0,0,0,0,0,-1,965,316,0,0
-252,708,0,0,0,0,0,0,0,0,0,-1,972,316,0,0
-245,708,0,0,0,0,0,0,0,0,0,-1,979,316,0,0
-238,708,0,0,0,0,0,0,0,0,0,-1,986,316,0,0
-231,708,0,0,0,0,0,0,0,0,0,-1,993,316,0,0
-224,708,0,0,0,0,0,0,0,0,0,-1,1000,316,0,0
-217,708,0,0,0,0,0,0,0,0,0,-1,1007,316,0,0
-210,708,0,0,0,0,0,0,0,0,0,-1,1014,316,0,0
-203,708,0,0,0,0,0,0,0,0,0,-1,1021,316,0,0
-196,708,0,0,0,0,0,0,0,0,0,-1,1028,316,0,0
-189,708,0,0,0,0,0,0,0,0,0,-1,1035,316,0,0
-182,708,0,0,0,0,0,0,0,0,0,-1,1042,316,0,0
-175,708,0,0,0,0,0,0,0,0,0,-1,1049,316,0,0
-168,708,0,0,0,0,0,0,0,0,0,-1,1056,316,0,0
-161,708,0,0,0,0,0,0,0,0,0,-1,1063,316,0,0
-154,708,0,0,0,0,0,0,0,0,0,-1,1070,316,0,0
-147,708,0,0,0,0,0,0,0,0,0,-1,1077,316,0,0
-140,708,0,0,0,0,0,0,0,0,0,-1,1084,316,0,0
-133,708,0,0,0,0,0,0,0,0,0,-1,1091,316,0,0
-126,708,0,0,0,0,0,0,0,0,0,-1,1098,316,0,0
-119,708,0,0,0,0,0,0,0,0,0,-1,1105,316,0,0
-112,708,0,0,0,0,0,0,0,0,0,-1,1112,316,0,0
-105,708,0,0,0,0,0,0,0,0,0,-1,1119,316,0,0
-98,708,0,0,0,0,0,0,0,0,0,-1,1126,316,0,0
-91,708,0,0,0,0,0,0,0,0,0,-1,1133,316,0,0
-84,708,0,0,0,0,0,0,0,0,0,-1,1140,316,0,0
-77,708,0,0,0,0,0,0,0,0,0,-1,1147,316,0,0
-70,708,0,0,0,0,0,0,0,0,0,-1,1154,316,0,0
-63,708,0,0,0,0,0,0,0,0,0,-1,1161,316,0,0
-56,708,0,0,0,0,0,0,0,0,0,-1,1168,316,0,0
-49,708,0,0,0,0,0,0,0,0,0,-1,1175,316,0,0
-42,708,0,0,0,0,0,0,0,0,0,-1,1182,316,0,0
-35,708,-2.71204,-6.31558,0,0,0,0,0,0,0,-1,1189,316,-2.712,6.3156
-28,708,-2.92371,-5.53253,0,0,0,0,0,0,0,-1,1196,316,-2.92375,5.53254
-21,708,-0.417969,-24.5911,0,0,0,0,0,0,0,-1,1203,316,-0.418022,24.5911
-14,708,4.25549,-31.4833,0,0,0,0,0,0,0,-1,1210,316,4.25544,31.4833
-7,708,5.32544,-35.8807,0,0,0,0,0,0,0,-1,1217,316,5.32545,35.8807
0,708,4.02551,-33.4273,0,0,0,0,0,0,0,-1,1224,316,4.02546,33.4273
7,708,3.68762,-35.3486,0,0,0,0,0,0,0,-1,1231,316,3.68761,35.3486
14,708,3.42517,-35.3767,0,0,0,0,0,0,0,-1,1238,316,3.42512,35.3767
21,708,3.3739,-35.5524,0,0,0,0,0,0,0,-1,1245,316,3.37387,35.5524
28,708,3.11902,-36.945,0,0,0,0,0,0,0,-1,1252,316,3.11906,36.945
35,708,2.9707,-36.6277,0,0,0,0,0,0,0,-1,1259,316,2.97068,36.6276
42,708,2.71741,-36.1477,0,0,0,0,0,0,0,-1,1266,316,2.71741,36.1477
49,708,5.39673,-47.0446,0,0,0,0,0,0,0,-1,1273,316,5.39674,47.0446
56,708,3.41589,-35.0217,0,0,0,0,0,0,0,-1,1280,316,3.41586,35.0217
63,708,5.80786,-32.8105,-0.0678829,0.113947,0.00164781,0.113962,-0.0678978,1.56173,0.106114,0.0424087,1287,316,5.80788,32.8105
70,708,4.69849,-33.29,-0.0737626,0.115761,0.00289345,0.115805,-0.0738067,1.55553,0.110364,0.0431953,1294,316,4.69854,33.29
77,708,3.64026,-33.4593,-0.0796017,0.115054,0.0041645,0.115143,-0.0796908,1.54942,0.113107,0.0440011,1301,316,3.64031,33.4592
84,708,2.95068,-33.1896,-0.0859211,0.11089,0.00630645,0.111092,-0.086123,1.5388,0.114166,0.0434046,1308,316,2.95069,33.1896
91,708,2.73206,-32.7636,-0.0923243,0.104594,0.00751196,0.10488,-0.0926104,1.53272,0.114095,0.0454488,1315,316,2.73206,32.7636
98,708,1.06152,-32.9677,-0.0982672,0.0966376,0.00933257,0.0970834,-0.098713,1.52306,0.113044,0.0477459,1322,316,1.06157,32.9677
105,708,0.171265,-32.7581,0,0,0,0,0,0,0,-1,1329,316,0.171205,32.7581
112,708,-0.613159,-32.062,-0.107131,0.0794942,0.0185387,0.0813179,-0.108954,1.47274,0.110239,0.0454405,1336,316,-0.613124,32.0619
119,708,-1.19495,-31.4237,-0.109211,0.068653,0.0265268,0.072525,-0.113083,1.42586,0.10801,0.0412546,1343,316,-1.19498,31.4237
126,708,-1.72717,-30.8372,-0.109281,0.0607356,0.038049,0.0688623,-0.117408,1.36037,0.108754,0.0442247,1350,316,-1.72715,30.8372
133,708,-2.26611,-30.4835,0,0,0,0,0,0,0,-1,1357,316,-2.26611,30.4835
140,708,3.34326,-29.6664,0,0,0,0,0,0,0,-1,1364,316,3.34327,29.6664
147,708,3.2384,-30.1555,0,0,0,0,0,0,0,-1,1371,316,3.23836,30.1555
154,708,0,0,0,0,0,0,0,0,0,-1,1378,316,0,0
161,708,0,0,0,0,0,0,0,0,0,-1,1385,316,0,0
168,708,0,0,0,0,0,0,0,0,0,-1,1392,316,0,0
175,708,0,0,0,0,0,0,0,0,0,-1,1399,316,0,0
182,708,0,0,0,0,0,0,0,0,0,-1,1406,316,0,0
189,708,0,0,0,0,0,0,0,0,0,-1,1413,316,0,0
196,708,0,0,0,0,0,0,0,0,0,-1,1420,316,0,0
203,708,0,0,0,0,0,0,0,0,0,-1,1427,316,0,0
210,708,0,0,0,0,0,0,0,0,0,-1,1434,316,0,0
217,708,0,0,0,0,0,0,0,0,0,-1,1441,316,0,0
224,708,0,0,0,0,0,0,0,0,0,-1,1448,316,0,0
231,708,0,0,0,0,0,0,0,0,0,-1,1455,316,0,0
238,708,0,0,0,0,0,0,0,0,0,-1,1462,316,0,0
245,708,0,0,0,0,0,0,0,0,0,-1,1469,316,0,0
252,708,0,0,0,0,0,0,0,0,0,-1,1476,316,0,0
259,708,0,0,0,0,0,0,0,0,0,-1,1483,316,0,0
266,708,0,0,0,0,0,0,0,0,0,-1,1490,316,0,0
273,708,0,0,0,0,0,0,0,0,0,-1,1497,316,0,0
280,708,0,0,0,0,0,0,0,0,0,-1,1504,316,0,0
287,708,0,0,0,0,0,0,0,0,0,-1,1511,316,0,0
294,708,0,0,0,0,0,0,0,0,0,-1,1518,316,0,0
301,708,0,0,0,0,0,0,0,0,0,-1,1525,316,0,0
308,708,0,0,0,0,0,0,0,0,0,-1,1532,316,0,0
315,708,0,0,0,0,0,0,0,0,0,-1,1539,316,0,0
322,708,0,0,0,0,0,0,0,0,0,-1,1546,316,0,0
329,708,0,0,0,0,0,0,0,0,0,-1,1553,316,0,0
336,708,0,0,0,0,0,0,0,0,0,-1,1560,316,0,0
343,708,0,0,0,0,0,0,0,0,0,-1,1567,316,0,0
350,708,0,0,0,0,0,0,0,0,0,-1,1574,316,0,0
357,708,0,0,0,0,0,0,0,0,0,-1,1581,316,0,0
364,708,0,0,0,0,0,0,0,0,0,-1,1588,316,0,0
371,708,0,0,0,0,0,0,0,0,0,-1,1595,316,0,0
378,708,0,0,0,0,0,0,0,0,0,-1,1602,316,0,0
385,708,0,0,0,0,0,0,0,0,0,-1,1609,316,0,0
392,708,0,0,0,0,0,0,0,0,0,-1,1616,316,0,0
399,708,0,0,0,0,0,0,0,0,0,-1,1623,316,0,0
406,708,0,0,0,0,0,0,0,0,0,-1,1630,316,0,0
413,708,0,0,0,0,0,0,0,0,0,-1,1637,316,0,0
420,708,0,0,0,0,0,0,0,0,0,-1,1644,316,0,0
427,708,0,0,0,0,0,0,0,0,0,-1,1651,316,0,0
434,708,0,0,0,0,0,0,0,0,0,-1,1658,316,0,0
441,708,0,0,0,0,0,0,0,0,0,-1,1665,316,0,0
448,708,0,0,0,0,0,0,0,0,0,-1,1672,316,0,0
455,708,0,0,0,0,0,0,0,0,0,-1,1679,316,0,0
462,708,0,0,0,0,0,0,0,0,0,-1,1686,316,0,0
469,708,0,0,0,0,0,0,0,0,0,-1,1693,316,0,0
476,708,0,0,0,0,0,0,0,0,0,-1,1700,316,0,0
483,708,0,0,0,0,0,0,0,0,0,-1,1707,316,0,0
490,708,0,0,0,0,0,0,0,0,0,-1,1714,316,0,0
497,708,0,0,0,0,0,0,0,0,0,-1,1721,316,0,0
504,708,0,0,0,0,0,0,0,0,0,-1,1728,316,0,0
511,708,0,0,0,0,0,0,0,0,0,-1,1735,316,0,0
518,708,0,0,0,0,0,0,0,0,0,-1,1742,316,0,0
525,708,0,0,0,0,0,0,0,0,0,-1,1749,316,0,0
532,708,0,0,0,0,0,0,0,0,0,-1,1756,316,0,0
539,708,0,0,0,0,0,0,0,0,0,-1,1763,316,0,0
546,708,0,0,0,0,0,0,0,0,0,-1,1770,316,0,0
553,708,0,0,0,0,0,0,0,0,0,-1,1777,316,0,0
560,708,0,0,0,0,0,0,0,0,0,-1,1784,316,0,0
567,708,0,0,0,0,0,0,0,0,0,-1,1791,316,0,0
574,708,0,0,0,0,0,0,0,0,0,-1,1798,316,0,0
581,708,0,0,0,0,0,0,0,0,0,-1,1805,316,0,0
588,708,0,0,0,0,0,0,0,0,0,-1,1812,316,0,0
595,708,0,0,0,0,0,0,0,0,0,-1,1819,316,0,0
602,708,0,0,0,0,0,0,0,0,0,-1,1826,316,0,0
609,708,0,0,0,0,0,0,0,0,0,-1,1833,316,0,0
616,708,0,0,0,0,0,0,0,0,0,-1,1840,316,0,0
623,708,0,0,0,0,0,0,0,0,0,-1,1847,316,0,0
630,708,0,0,0,0,0,0,0,0,0,-1,1854,316,0,0
637,708,0,0,0,0,0,0,0,0,0,-1,1861,316,0,0
644,708,0,0,0,0,0,0,0,0,0,-1,1868,316,0,0
651,708,0,0,0,0,0,0,0,0,0,-1,1875,316,0,0
658,708,0,0,0,0,0,0,0,0,0,-1,1882,316,0,0
665,708,0,0,0,0,0,0,0,0,0,-1,1889,316,0,0
672,708,0,0,0,0,0,0,0,0,0,-1,1896,316,0,0
679,708,0,0,0,0,0,0,0,0,0,-1,1903,316,0,0
686,708,0,0,0,0,0,0,0,0,0,-1,1910,316,0,0
693,708,0,0,0,0,0,0,0,0,0,-1,1917,316,0,0
700,708,0,0,0,0,0,0,0,0,0,-1,1924,316,0,0
707,708,0,0,0,0,0,0,0,0,0,-1,1931,316,0,0
714,708,0,0,0,0,0,0,0,0,0,-1,1938,316,0,0
721,708,0,0,0,0,0,0,0,0,0,-1,1945,316,0,0
728,708,0,0,0,0,0,0,0,0,0,-1,1952,316,0,0
735,708,0,0,0,0,0,0,0,0,0,-1,1959,316,0,0
742,708,0,0,0,0,0,0,0,0,0,-1,1966,316,0,0
749,708,0,0,0,0,0,0,0,0,0,-1,1973,316,0,0
756,708,0,0,0,0,0,0,0,0,0,-1,1980,316,0,0
763,708,0,0,0,0,0,0,0,0,0,-1,1987,316,0,0
770,708,0,0,0,0,0,0,0,0,0,-1,1994,316,0,0
777,708,0,0,0,0,0,0,0,0,0,-1,2001,316,0,0
784,708,0,0,0,0,0,0,0,0,0,-1,2008,316,0,0
791,708,0,0,0,0,0,0,0,0,0,-1,2015,316,0,0
798,708,0,0,0,0,0,0,0,0,0,-1,2022,316,0,0
805,708,0,0,0,0,0,0,0,0,0,-1,2029,316,0,0
812,708,0,0,0,0,0,0,0,0,0,-1,2036,316,0,0
-700,701,0,0,0,0,0,0,0,0,0,-1,524,323,0,0
-693,701,0,0,0,0,0,0,0,0,0,-1,531,323,0,0
-686,701,0,0,0,0,0,0,0,0,0,-1,538,323,0,0
-679,701,0,0,0,0,0,0,0,0,0,-1,545,323,0,0
-672,701,0,0,0,0,0,0,0,0,0,-1,552,323,0,0
-665,701,0,0,0,0,0,0,0,0,0,-1,559,323,0,0
-658,701,0,0,0,0,0,0,0,0,0,-1,566,323,0,0
-651,701,0,0,0,0,0,0,0,0,0,-1,573,323,0,0
-644,701,0,0,0,0,0,0,0,0,0,-1,580,323,0,0
-637,701,0,0,0,0,0,0,0,0,0,-1,587,323,0,0
-630,701,0,0,0,0,0,0,0,0,0,-1,594,323,0,0
-623,701,0,0,0,0,0,0,0,0,0,-1,601,323,0,0
-616,701,0,0,0,0,0,0,0,0,0,-1,608,323,0,0
-609,701,0,0,0,0,0,0,0,0,0,-1,615,323,0,0
-602,701,0,0,0,0,0,0,0,0,0,-1,622,323,0,0
-595,701,0,0,0,0,0,0,0,0,0,-1,629,323,0,0
-588,701,0,0,0,0,0,0,0,0,0,-1,636,323,0,0
-581,701,0,0,0,0,0,0,0,0,0,-1,643,323,0,0
-574,701,0,0,0,0,0,0,0,0,0,-1,650,323,0,0
-567,701,0,0,0,0,0,0,0,0,0,-1,657,323,0,0
-560,701,0,0,0,0,0,0,0,0,0,-1,664,323,0,0
-553,701,0,0,0,0,0,0,0,0,0,-1,671,323,0,0
-546,701,0,0,0,0,0,0,0,0,0,-1,678,323,0,0
-539,701,0,0,0,0,0,0,0,0,0,-1,685,323,0,0
-532,701,0,0,0,0,0,0,0,0,0,-1,692,323,0,0
-525,701,0,0,0,0,0,0,0,0,0,-1,699,323,0,0
-518,701,0,0,0,0,0,0,0,0,0,-1,706,323,0,0
-511,701,0,0,0,0,0,0,0,0,0,-1,713,323,0,0
-504,701,0,0,0,0,0,0,0,0,0,-1,720,323,0,0
-497,701,0,0,0,0,0,0,0,0,0,-1,727,323,0,0
-490,701,0,0,0,0,0,0,0,0,0,-1,734,323,0,0
-483,701,0,0,0,0,0,0,0,0,0,-1,741,323,0,0
-476,701,0,0,0,0,0,0,0,0,0,-1,748,323,0,0
-469,701,0,0,0,0,0,0,0,0,0,-1,755,323,0,0
-462,701,0,0,0,0,0,0,0,0,0,-1,762,323,0,0
-455,701,0,0,0,0,0,0,0,0,0,-1,769,323,0,0
-448,701,0,0,0,0,0,0,0,0,0,-1,776,323,0,0
-441,701,0,0,0,0,0,0,0,0,0,-1,783,323,0,0
-434,701,0,0,0,0,0,0,0,0,0,-1,790,323,0,0
-427,701,0,0,0,0,0,0,0,0,0,-1,797,323,0,0
-420,701,0,0,0,0,0,0,0,0,0,-1,804,323,0,0
-413,701,0,0,0,0,0,0,0,0,0,-1,811,323,0,0
-406,701,0,0,0,0,0,0,0,0,0,-1,818,323,0,0
-399,701,0,0,0,0,0,0,0,0,0,-1,825,323,0,0
-392,701,0,0,0,0,0,0,0,0,0,-1,832,323,0,0
-385,701,0,0,0,0,0,0,0,0,0,-1,839,323,0,0
-378,701,0,0,0,0,0,0,0,0,0,-1,846,323,0,0
-371,701,0,0,0,0,0,0,0,0,0,-1,853,323,0,0
-364,701,0,0,0,0,0,0,0,0,0,-1,860,323,0,0
-357,701,0,0,0,0,0,0,0,0,0,-1,867,323,0,0
-350,701,0,0,0,0,0,0,0,0,0,-1,874,323,0,0
-343,701,0,0,0,0,0,0,0,0,0,-1,881,323,0,0
-336,701,0,0,0,0,0,0,0,0,0,-1,888,323,0,0
-329,701,0,0,0,0,0,0,0,0,0,-1,895,323,0,0
-322,701,0,0,0,0,0,0,0,0,0,-1,902,323,0,0
-315,701,0,0,0,0,0,0,0,0,0,-1,909,323,0,0
-308,701,0,0,0,0,0,0,0,0,0,-1,916,323,0,0
-301,701,0,0,0,0,0,0,0,0,0,-1,923,323,0,0
-294,701,0,0,0,0,0,0,0,0,0,-1,930,323,0,0
-287,701,0,0,0,0,0,0,0,0,0,-1,937,323,0,0
-280,701,0,0,0,0,0,0,0,0,0,-1,944,323,0,0
-273,701,0,0,0,0,0,0,0,0,0,-1,951,323,0,0
-266,701,0,0,0,0,0,0,0,0,0,-1,958,323,0,0
-259,701,0,0,0,0,0,0,0,0,0,-1,965,323,0,0
-252,701,0,0,0,0,0,0,0,0,0,-1,972,323,0,0
-245,701,0,0,0,0,0,0,0,0,0,-1,979,323,0,0
-238,701,0,0,0,0,0,0,0,0,0,-1,986,323,0,0
-231,701,0,0,0,0,0,0,0,0,0,-1,993,323,0,0
-224,701,0,0,0,0,0,0,0,0,0,-1,1000,323,0,0
-217,701,0,0,0,0,0,0,0,0,0,-1,1007,323,0,0
-210,701,0,0,0,0,0,0,0,0,0,-1,1014,323,0,0
-203,701,0,0,0,0,0,0,0,0,0,-1,1021,323,0,0
-196,701,0,0,0,0,0,0,0,0,0,-1,1028,323,0,0
-189,701,0,0,0,0,0,0,0,0,0,-1,1035,323,0,0
-182,701,0,0,0,0,0,0,0,0,0,-1,1042,323,0,0
-175,701,0,0,0,0,0,0,0,0,0,-1,1049,323,0,0
-168,701,0,0,0,0,0,0,0,0,0,-1,1056,323,0,0
-161,701,0,0,0,0,0,0,0,0,0,-1,1063,323,0,0
-154,701,0,0,0,0,0,0,0,0,0,-1,1070,323,0,0
-147,701,0,0,0,0,0,0,0,0,0,-1,1077,323,0,0
-140,701,0,0,0,0,0,0,0,0,0,-1,1084,323,0,0
-133,701,0,0,0,0,0,0,0,0,0,-1,1091,323,0,0
-126,701,0,0,0,0,0,0,0,0,0,-1,1098,323,0,0
-119,701,0,0,0,0,0,0,0,0,0,-1,1105,323,0,0
-112,701,0,0,0,0,0,0,0,0,0,-1,1112,323,0,0
-105,701,0,0,0,0,0,0,0,0,0,-1,1119,323,0,0
-98,701,0,0,0,0,0,0,0,0,0,-1,1126,323,0,0
-91,701,0,0,0,0,0,0,0,0,0,-1,1133,323,0,0
-84,701,0,0,0,0,0,0,0,0,0,-1,1140,323,0,0
-77,701,0,0,0,0,0,0,0,0,0,-1,1147,323,0,0
-70,701,-12.7566,-30.413,0,0,0,0,0,0,0,-1,1154,323,-12.7566,30.413
-63,701,-18.3169,-21.2322,0,0,0,0,0,0,0,-1,1161,323,-18.3169,21.2322
-56,701,-0.420166,-0.101776,0,0,0,0,0,0,0,-1,1168,323,-0.420119,0.101777
-49,701,-1.09021,-0.155762,0,0,0,0,0,0,0,-1,1175,323,-1.09024,0.155768
-42,701,-0.210327,-0.299133,0,0,0,0,0,0,0,-1,1182,323,-0.210379,0.29914
-35,701,-2.9635,-7.98676,0,0,0,0,0,0,0,-1,1189,323,-2.9635,7.98676
-28,701,-6.64417,-5.4917,0,0,0,0,0,0,0,-1,1196,323,-6.64411,5.4917
-21,701,5.22729,-32.2801,0,0,0,0,0,0,0,-1,1203,323,5.22728,32.2801
-14,701,5.72241,-35.6563,0,0,0,0,0,0,0,-1,1210,323,5.72241,35.6563
-7,701,5.28406,-35.7923,0,0,0,0,0,0,0,-1,1217,323,5.28406,35.7923
0,701,4.8457,-35.9283,0,0,0,0,0,0,0,-1,1224,323,4.84571,35.9283
7,701,4.00989,-35.4962,-0.00693902,0.00495207,-0.0289143,0.0285258,-0.0305127,-0.886798,0.0340923,0.0480639,1231,323,4.00987,35.4962
14,701,3.78186,-35.4392,0,0,0,0,0,0,0,-1,1238,323,3.78187,35.4392
21,701,3.69312,-35.6288,0,0,0,0,0,0,0,-1,1245,323,3.69309,35.6288
28,701,3.35425,-35.5338,0,0,0,0,0,0,0,-1,1252,323,3.35425,35.5338
35,701,3.49231,-36.8633,-0.0294847,0.0585166,-0.0140911,0.0607178,-0.031686,-1.41583,0.05422,0.0442138,1259,323,3.49235,36.8633
42,701,3.38794,-36.5021,-0.0348411,0.067191,-0.0100326,0.0681682,-0.0358182,-1.47371,0.0609973,0.046853,1266,323,3.38799,36.5021
49,701,3.70569,-36.0314,0,0,0,0,0,0,0,-1,1273,323,3.70565,36.0314
56,701,3.48792,-35.4576,-0.0444917,0.0863136,-0.00243266,0.0863589,-0.0445369,-1.55221,0.0768478,0.0425399,1280,323,3.48795,35.4576
63,701,3.29651,-34.7154,-0.0496008,0.0922661,8.91142e-05,0.0922662,-0.0496008,1.57017,0.0831325,0.0460169,1287,323,3.29646,34.7154
70,701,3.09595,-34.1135,-0.0547905,0.0949534,0.00107766,0.0949611,-0.0547982,1.5636,0.0874939,0.0497135,1294,323,3.09599,34.1135
77,701,3.70911,-33.9399,-0.0603072,0.0966242,0.00250145,0.096664,-0.0603471,1.55486,0.0914552,0.0482511,1301,323,3.70909,33.9399
84,701,3.23743,-33.7135,-0.0663272,0.0945904,0.00457507,0.0947204,-0.0664571,1.5424,0.0935316,0.0458434,1308,323,3.23737,33.7135
91,701,2.72961,-33.3723,-0.0724455,0.091297,0.0057123,0.091496,-0.0726445,1.53597,0.0949747,0.042791,1315,323,2.72965,33.3723
98,701,1.79834,-33.3199,-0.0782247,0.0863107,0.00717595,0.0866231,-0.078537,1.52729,0.0953933,0.0447151,1322,323,1.79834,33.3199
105,701,0.801025,-33.0599,-0.0832227,0.0809858,0.0098252,0.0815715,-0.0838085,1.51125,0.0954851,0.0483721,1329,323,0.801019,33.0599
112,701,-0.0806885,-32.4029,-0.0873158,0.0757492,0.0141256,0.0769638,-0.0885304,1.48502,0.0956258,0.0439883,1336,323,-0.0806307,32.4029
119,701,-0.627808,-31.825,-0.0897495,0.0681629,0.0199471,0.0706436,-0.0922302,1.44707,0.0943101,0.0413329,1343,323,-0.627768,31.825
126,701,-1.36755,-31.0832,-0.0908185,0.062567,0.0280994,0.0675526,-0.0958042,1.3952,0.0947831,0.0459448,1350,323,-1.36754,31.0832
133,701,-2.23779,-30.4374,-0.0890353,0.0592757,0.0383849,0.0686213,-0.0983809,1.33197,0.0969277,0.0487864,1357,323,-2.23776,30.4374
140,701,-3.17004,-29.8006,0,0,0,0,0,0,0,-1,1364,323,-3.16999,29.8006
147,701,3.36877,-31.2296,0,0,0,0,0,0,0,-1,1371,323,3.36877,31.2296
154,701,3.06628,-31.4759,0,0,0,0,0,0,0,-1,1378,323,3.06631,31.4759
161,701,2.62903,-31.4281,0,0,0,0,0,0,0,-1,1385,323,2.62906,31.4281
168,701,30.7272,1.76184,0,0,0,0,0,0,0,-1,1392,323,30.7272,-1.76184
175,701,31.5035,2.25711,0,0,0,0,0,0,0,-1,1399,323,31.5036,-2.25712
182,701,8.80652,5.42807,0,0,0,0,0,0,0,-1,1406,323,8.8065,-5.42808
189,701,8.58081,4.24493,0,0,0,0,0,0,0,-1,1413,323,8.58082,-4.24494
196,701,0,0,0,0,0,0,0,0,0,-1,1420,323,0,0
203,701,0,0,0,0,0,0,0,0,0,-1,1427,323,0,0
210,701,0,0,0,0,0,0,0,0,0,-1,1434,323,0,0
217,701,0,0,0,0,0,0,0,0,0,-1,1441,323,0,0
224,701,0,0,0,0,0,0,0,0,0,-1,1448,323,0,0
231,701,0,0,0,0,0,0,0,0,0,-1,1455,323,0,0
238,701,0,0,0,0,0,0,0,0,0,-1,1462,323,0,0
245,701,0,0,0,0,0,0,0,0,0,-1,1469,323,0,0
252,701,0,0,0,0,0,0,0,0,0,-1,1476,323,0,0
259,701,0,0,0,0,0,0,0,0,0,-1,1483,323,0,0
266,701,0,0,0,0,0,0,0,0,0,-1,1490,323,0,0
273,701,0,0,0,0,0,0,0,0,0,-1,1497,323,0,0
280,701,0,0,0,0,0,0,0,0,0,-1,1504,323,0,0
287,701,0,0,0,0,0,0,0,0,0,-1,1511,323,0,0
294,701,0,0,0,0,0,0,0,0,0,-1,1518,323,0,0
301,701,0,0,0,0,0,0,0,0,0,-1,1525,323,0,0
308,701,0,0,0,0,0,0,0,0,0,-1,1532,323,0,0
315,701,0,0,0,0,0,0,0,0,0,-1,1539,323,0,0
322,701,0,0,0,0,0,0,0,0,0,-1,1546,323,0,0
329,701,0,0,0,0,0,0,0,0,0,-1,1553,323,0,0
336,701,0,0,0,0,0,0,0,0,0,-1,1560,323,0,0
343,701,0,0,0,0,0,0,0,0,0,-1,1567,323,0,0
350,701,0,0,0,0,0,0,0,0,0,-1,1574,323,0,0
357,701,0,0,0,0,0,0,0,0,0,-1,1581,323,0,0
364,701,0,0,0,0,0,0,0,0,0,-1,1588,323,0,0
371,701,0,0,0,0,0,0,0,0,0,-1,1595,323,0,0
378,701,0,0,0,0,0,0,0,0,0,-1,1602,323,0,0
385,701,0,0,0,0,0,0,0,0,0,-1,1609,323,0,0
392,701,0,0,0,0,0,0,0,0,0,-1,1616,323,0,0
399,701,0,0,0,0,0,0,0,0,0,-1,1623,323,0,0
406,701,0,0,0,0,0,0,0,0,0,-1,1630,323,0,0
413,701,0,0,0,0,0,0,0,0,0,-1,1637,323,0,0
420,701,0,0,0,0,0,0,0,0,0,-1,1644,323,0,0
427,701,0,0,0,0,0,0,0,0,0,-1,1651,323,0,0
434,701,0,0,0,0,0,0,0,0,0,-1,1658,323,0,0
441,701,0,0,0,0,0,0,0,0,0,-1,1665,323,0,0
448,701,0,0,0,0,0,0,0,0,0,-1,1672,323,0,0
455,701,0,0,0,0,0,0,0,0,0,-1,1679,323,0,0
462,701,0,0,0,0,0,0,0,0,0,-1,1686,323,0,0
469,701,0,0,0,0,0,0,0,0,0,-1,1693,323,0,0
476,701,0,0,0,0,0,0,0,0,0,-1,1700,323,0,0
483,701,0,0,0,0,0,0,0,0,0,-1,1707,323,0,0
490,701,0,0,0,0,0,0,0,0,0,-1,1714,323,0,0
497,701,0,0,0,0,0,0,0,0,0,-1,1721,323,0,0
504,701,0,0,0,0,0,0,0,0,0,-1,1728,323,0,0
511,701,0,0,0,0,0,0,0,0,0,-1,1735,323,0,0
518,701,0,0,0,0,0,0,0,0,0,-1,1742,323,0,0
525,701,0,0,0,0,0,0,0,0,0,-1,1749,323,0,0
532,701,0,0,0,0,0,0,0,0,0,-1,1756,323,0,0
539,701,0,0,0,0,0,0,0,0,0,-1,1763,323,0,0
546,701,0,0,0,0,0,0,0,0,0,-1,1770,323,0,0
553,701,0,0,0,0,0,0,0,0,0,-1,1777,323,0,0
560,701,0,0,0,0,0,0,0,0,0,-1,1784,323,0,0
567,701,0,0,0,0,0,0,0,0,0,-1,1791,323,0,0
574,701,0,0,0,0,0,0,0,0,0,-1,1798,323,0,0
581,701,0,0,0,0,0,0,0,0,0,-1,1805,323,0,0
588,701,0,0,0,0,0,0,0,0,0,-1,1812,323,0,0
595,701,0,0,0,0,0,0,0,0,0,-1,1819,323,0,0
602,701,0,0,0,0,0,0,0,0,0,-1,1826,323,0,0
609,701,0,0,0,0,0,0,0,0,0,-1,1833,323,0,0
616,701,0,0,0,0,0,0,0,0,0,-1,1840,323,0,0
623,701,0,0,0,0,0,0,0,0,0,-1,1847,323,0,0
630,701,0,0,0,0,0,0,0,0,0,-1,1854,323,0,0
637,701,0,0,0,0,0,0,0,0,0,-1,1861,323,0,0
644,701,0,0,0,0,0,0,0,0,0,-1,1868,323,0,0
651,701,0,0,0,0,0,0,0,0,0,-1,1875,323,0,0
658,701,0,0,0,0,0,0,0,0,0,-1,1882,323,0,0
665,701,0,0,0,0,0,0,0,0,0,-1,1889,323,0,0
672,701,0,0,0,0,0,0,0,0,0,-1,1896,323,0,0
679,701,0,0,0,0,0,0,0,0,0,-1,1903,323,0,0
686,701,0,0,0,0,0,0,0,0,0,-1,1910,323,0,0
693,701,0,0,0,0,0,0,0,0,0,-1,1917,323,0,0
700,701,0,0,0,0,0,0,0,0,0,-1,1924,323,0,0
707,701,0,0,0,0,0,0,0,0,0,-1,1931,323,0,0
714,701,0,0,0,0,0,0,0,0,0,-1,1938,323,0,0
721,701,0,0,0,0,0,0,0,0,0,-1,1945,323,0,0
728,701,0,0,0,0,0,0,0,0,0,-1,1952,323,0,0
735,701,0,0,0,0,0,0,0,0,0,-1,1959,323,0,0
742,701,0,0,0,0,0,0,0,0,0,-1,1966,323,0,0
749,701,0,0,0,0,0,0,0,0,0,-1,1973,323,0,0
756,701,0,0,0,0,0,0,0,0,0,-1,1980,323,0,0
763,701,0,0,0,0,0,0,0,0,0,-1,1987,323,0,0
770,701,0,0,0,0,0,0,0,0,0,-1,1994,323,0,0
777,701,0,0,0,0,0,0,0,0,0,-1,2001,323,0,0
784,701,0,0,0,0,0,0,0,0,0,-1,2008,323,0,0
791,701,0,0,0,0,0,0,0,0,0,-1,2015,323,0,0
798,701,0,0,0,0,0,0,0,0,0,-1,2022,323,0,0
805,701,0,0,0,0,0,0,0,0,0,-1,2029,323,0,0
812,701,0,0,0,0,0,0,0,0,0,-1,2036,323,0,0
-700,694,0,0,0,0,0,0,0,0,0,-1,524,330,0,0
-693,694,0,0,0,0,0,0,0,0,0,-1,531,330,0,0
-686,694,0,0,0,0,0,0,0,0,0,-1,538,330,0,0
-679,694,0,0,0,0,0,0,0,0,0,-1,545,330,0,0
-672,694,0,0,0,0,0,0,0,0,0,-1,552,330,0,0
-665,694,0,0,0,0,0,0,0,0,0,-1,559,330,0,0
-658,694,0,0,0,0,0,0,0,0,0,-1,566,330,0,0
-651,694,0,0,0,0,0,0,0,0,0,-1,573,330,0,0
-644,694,0,0,0,0,0,0,0,0,0,-1,580,330,0,0
-637,694,0,0,0,0,0,0,0,0,0,-1,587,330,0,0
-630,694,0,0,0,0,0,0,0,0,0,-1,594,330,0,0
-623,694,0,0,0,0,0,0,0,0,0,-1,601,330,0,0
-616,694,0,0,0,0,0,0,0,0,0,-1,608,330,0,0
-609,694,0,0,0,0,0,0,0,0,0,-1,615,330,0,0
-602,694,0,0,0,0,0,0,0,0,0,-1,622,330,0,0
-595,694,0,0,0,0,0,0,0,0,0,-1,629,330,0,0
-588,694,0,0,0,0,0,0,0,0,0,-1,636,330,0,0
-581,694,0,0,0,0,0,0,0,0,0,-1,643,330,0,0
-574,694,0,0,0,0,0,0,0,0,0,-1,650,330,0,0
-567,694,0,0,0,0,0,0,0,0,0,-1,657,330,0,0
-560,694,0,0,0,0,0,0,0,0,0,-1,664,330,0,0
-553,694,0,0,0,0,0,0,0,0,0,-1,671,330,0,0
-546,694,0,0,0,0,0,0,0,0,0,-1,678,330,0,0
-539,694,0,0,0,0,0,0,0,0,0,-1,685,330,0,0
-532,694,0,0,0,0,0,0,0,0,0,-1,692,330,0,0
-525,694,0,0,0,0,0,0,0,0,0,-1,699,330,0,0
-518,694,0,0,0,0,0,0,0,0,0,-1,706,330,0,0
-511,694,0,0,0,0,0,0,0,0,0,-1,713,330,0,0
-504,694,0,0,0,0,0,0,0,0,0,-1,720,330,0,0
-497,694,0,0,0,0,0,0,0,0,0,-1,727,330,0,0
-490,694,0,0,0,0,0,0,0,0,0,-1,734,330,0,0
-483,694,0,0,0,0,0,0,0,0,0,-1,741,330,0,0
-476,694,0,0,0,0,0,0,0,0,0,-1,748,330,0,0
-469,694,0,0,0,0,0,0,0,0,0,-1,755,330,0,0
-462,694,0,0,0,0,0,0,0,0,0,-1,762,330,0,0
-455,694,0,0,0,0,0,0,0,0,0,-1,769,330,0,0
-448,694,0,0,0,0,0,0,0,0,0,-1,776,330,0,0
-441,694,0,0,0,0,0,0,0,0,0,-1,783,330,0,0
-434,694,0,0,0,0,0,0,0,0,0,-1,790,330,0,0
-427,694,0,0,0,0,0,0,0,0,0,-1,797,330,0,0
-420,694,0,0,0,0,0,0,0,0,0,-1,804,330,0,0
-413,694,0,0,0,0,0,0,0,0,0,-1,811,330,0,0
-406,694,0,0,0,0,0,0,0,0,0,-1,818,330,0,0
-399,694,0,0,0,0,0,0,0,0,0,-1,825,330,0,0
-392,694,0,0,0,0,0,0,0,0,0,-1,832,330,0,0
-385,694,0,0,0,0,0,0,0,0,0,-1,839,330,0,0
-378,694,0,0,0,0,0,0,0,0,0,-1,846,330,0,0
-371,694,0,0,0,0,0,0,0,0,0,-1,853,330,0,0
-364,694,0,0,0,0,0,0,0,0,0,-1,860,330,0,0
-357,694,0,0,0,0,0,0,0,0,0,-1,867,330,0,0
-350,694,0,0,0,0,0,0,0,0,0,-1,874,330,0,0
-343,694,0,0,0,0,0,0,0,0,0,-1,881,330,0,0
-336,694,0,0,0,0,0,0,0,0,0,-1,888,330,0,0
-329,694,0,0,0,0,0,0,0,0,0,-1,895,330,0,0
-322,694,0,0,0,0,0,0,0,0,0,-1,902,330,0,0
-315,694,0,0,0,0,0,0,0,0,0,-1,909,330,0,0
-308,694,0,0,0,0,0,0,0,0,0,-1,916,330,0,0
-301,694,0,0,0,0,0,0,0,0,0,-1,923,330,0,0
-294,694,0,0,0,0,0,0,0,0,0,-1,930,330,0,0
-287,694,0,0,0,0,0,0,0,0,0,-1,937,330,0,0
-280,694,0,0,0,0,0,0,0,0,0,-1,944,330,0,0
-273,694,0,0,0,0,0,0,0,0,0,-1,951,330,0,0
-266,694,0,0,0,0,0,0,0,0,0,-1,958,330,0,0
-259,694,0,0,0,0,0,0,0,0,0,-1,965,330,0,0
-252,694,0,0,0,0,0,0,0,0,0,-1,972,330,0,0
-245,694,0,0,0,0,0,0,0,0,0,-1,979,330,0,0
-238,694,0,0,0,0,0,0,0,0,0,-1,986,330,0,0
-231,694,0,0,0,0,0,0,0,0,0,-1,993,330,0,0
-224,694,0,0,0,0,0,0,0,0,0,-1,1000,330,0,0
-217,694,0,0,0,0,0,0,0,0,0,-1,1007,330,0,0
-210,694,0,0,0,0,0,0,0,0,0,-1,1014,330,0,0
-203,694,0,0,0,0,0,0,0,0,0,-1,1021,330,0,0
-196,694,0,0,0,0,0,0,0,0,0,-1,1028,330,0,0
-189,694,0,0,0,0,0,0,0,0,0,-1,1035,330,0,0
-182,694,0,0,0,0,0,0,0,0,0,-1,1042,330,0,0
-175,694,0,0,0,0,0,0,0,0,0,-1,1049,330,0,0
-168,694,0,0,0,0,0,0,0,0,0,-1,1056,330,0,0
-161,694,0,0,0,0,0,0,0,0,0,-1,1063,330,0,0
-154,694,0,0,0,0,0,0,0,0,0,-1,1070,330,0,0
-147,694,0,0,0,0,0,0,0,0,0,-1,1077,330,0,0
-140,694,0,0,0,0,0,0,0,0,0,-1,1084,330,0,0
-133,694,0,0,0,0,0,0,0,0,0,-1,1091,330,0,0
-126,694,0,0,0,0,0,0,0,0,0,-1,1098,330,0,0
-119,694,0,0,0,0,0,0,0,0,0,-1,1105,330,0,0
-112,694,0,0,0,0,0,0,0,0,0,-1,1112,330,0,0
-105,694,2.5188,-19.3963,0,0,0,0,0,0,0,-1,1119,330,2.51882,19.3963
-98,694,1.34875,-10.1051,0,0,0,0,0,0,0,-1,1126,330,1.34874,10.1051
-91,694,7.12927,-43.3935,0,0,0,0,0,0,0,-1,1133,330,7.12929,43.3935
-84,694,0.937744,-38.53,0,0,0,0,0,0,0,-1,1140,330,0.937727,38.53
-77,694,-5.51379,-31.2714,0,0,0,0,0,0,0,-1,1147,330,-5.51383,31.2714
-70,694,-11.9945,-25.5143,0,0,0,0,0,0,0,-1,1154,330,-11.9945,25.5143
-63,694,-18.4752,-19.7572,0,0,0,0,0,0,0,-1,1161,330,-18.4752,19.7572
-56,694,-6.50623,-0.649139,0,0,0,0,0,0,0,-1,1168,330,-6.5062,0.649126
-49,694,-1.11426,0.0341797,0,0,0,0,0,0,0,-1,1175,330,-1.11424,-0.0341846
-42,694,-0.346313,-0.709595,0,0,0,0,0,0,0,-1,1182,330,-0.346298,0.709581
-35,694,-0.459106,-1.24713,0,0,0,0,0,0,0,-1,1189,330,-0.459142,1.24714
-28,694,-6.48413,-3.95972,0,0,0,0,0,0,0,-1,1196,330,-6.48414,3.9597
-21,694,5.24939,-32.4167,0,0,0,0,0,0,0,-1,1203,330,5.24945,32.4167
-14,694,5.12732,-35.1634,0,0,0,0,0,0,0,-1,1210,330,5.12737,35.1634
-7,694,5.19678,-35.6786,-0.00389882,0.0106641,-0.0201023,0.0247631,-0.0179978,-0.959158,0.0247908,0.0464768,1217,330,5.19675,35.6786
0,694,4.70447,-35.7941,0,0,0,0,0,0,0,-1,1224,330,4.70451,35.7941
7,694,4.34509,-35.7105,0,0,0,0,0,0,0,-1,1231,330,4.34509,35.7105
14,694,4.05737,-35.6711,0,0,0,0,0,0,0,-1,1238,330,4.05736,35.671
21,694,4.1311,-35.8379,0,0,0,0,0,0,0,-1,1245,330,4.13106,35.8379
28,694,4.1488,-37.1704,-0.0175637,0.0386875,-0.0156485,0.0427476,-0.0216239,-1.31693,0.0378261,0.0492875,1252,330,4.14881,37.1704
35,694,4.21729,-37.0641,-0.0205762,0.0464006,-0.0121077,0.0485222,-0.0226977,-1.39733,0.0420102,0.0461421,1259,330,4.21725,37.0641
42,694,4.07739,-36.8782,-0.0243589,0.0537642,-0.00885236,0.0547548,-0.0253494,-1.45937,0.0472754,0.04566,1266,330,4.0774,36.8782
49,694,3.89954,-36.49,-0.0282499,0.0624254,-0.00586073,0.0628027,-0.0286271,-1.50652,0.0540022,0.0432194,1273,330,3.89949,36.49
56,694,3.71265,-35.7868,-0.0320544,0.0697255,-0.0028087,0.069803,-0.0321319,-1.54323,0.0601768,0.043604,1280,330,3.7127,35.7868
63,694,3.54382,-35.2255,-0.0364238,0.0751583,-0.000923061,0.0751659,-0.0364314,-1.56252,0.0657117,0.046134,1287,330,3.54384,35.2255
70,694,3.37122,-34.6559,-0.0408766,0.0782401,-0.00011115,0.0782402,-0.0408767,-1.56986,0.0698908,0.0478319,1294,330,3.37123,34.6559
77,694,3.61682,-34.3616,-0.0458598,0.0811464,0.00128188,0.0811593,-0.0458728,1.5607,0.0742792,0.04969,1301,330,3.61686,34.3616
84,694,3.5874,-33.9969,-0.0513229,0.0804628,0.00312587,0.0805369,-0.051397,1.54709,0.0767889,0.0470352,1308,330,3.58741,33.9969
91,694,3.54736,-33.6118,-0.0568326,0.0790448,0.00413624,0.0791705,-0.0569584,1.54039,0.0789421,0.047125,1315,330,3.54742,33.6118
98,694,3.46094,-33.2455,0,0,0,0,0,0,0,-1,1322,330,3.461,33.2455
105,694,1.69238,-33.2961,-0.0666967,0.0728688,0.00724424,0.0732438,-0.0670717,1.51908,0.0810373,0.0446718,1329,330,1.69239,33.2961
112,694,0.70752,-32.8076,-0.0704898,0.0696437,0.0104016,0.0704115,-0.0712577,1.49711,0.0817932,0.0437897,1336,330,0.707493,32.8076
119,694,-0.237183,-32.371,0,0,0,0,0,0,0,-1,1343,330,-0.23715,32.371
126,694,-1.0675,-33.286,-0.0742498,0.0601903,0.0202456,0.063173,-0.0772325,1.42453,0.0811985,0.0457373,1350,330,-1.06756,33.286
133,694,-2.13074,-29.8995,-0.0737883,0.0581041,0.0272052,0.0634954,-0.0791795,1.37516,0.0825391,0.0454469,1357,330,-2.13068,29.8995
140,694,-3.04688,-29.2897,0,0,0,0,0,0,0,-1,1364,330,-3.04682,29.2897
147,694,3.25159,-31.9178,0,0,0,0,0,0,0,-1,1371,330,3.25153,31.9178
154,694,2.94763,-32.0768,0,0,0,0,0,0,0,-1,1378,330,2.94761,32.0767
161,694,2.71069,-31.7711,0,0,0,0,0,0,0,-1,1385,330,2.71067,31.7711
168,694,30.451,0.196686,0,0,0,0,0,0,0,-1,1392,330,30.4511,-0.196674
175,694,31.0701,0.869873,0,0,0,0,0,0,0,-1,1399,330,31.07,-0.869874
182,694,8.29028,5.75238,0,0,0,0,0,0,0,-1,1406,330,8.29034,-5.75237
189,694,7.9801,4.46118,0,0,0,0,0,0,0,-1,1413,330,7.9801,-4.46118
196,694,7.39331,3.32632,0,0,0,0,0,0,0,-1,1420,330,7.39329,-3.32633
203,694,7.04492,2.20529,0,0,0,0,0,0,0,-1,1427,330,7.04496,-2.20529
210,694,6.44714,0.646912,0,0,0,0,0,0,0,-1,1434,330,6.44717,-0.646903
217,694,7.12061,-0.644958,0,0,0,0,0,0,0,-1,1441,330,7.12059,0.644961
224,694,6.74011,-1.70544,0,0,0,0,0,0,0,-1,1448,330,6.74013,1.70546
231,694,0,0,0,0,0,0,0,0,0,-1,1455,330,0,0
238,694,0,0,0,0,0,0,0,0,0,-1,1462,330,0,0
245,694,0,0,0,0,0,0,0,0,0,-1,1469,330,0,0
252,694,0,0,0,0,0,0,0,0,0,-1,1476,330,0,0
259,694,0,0,0,0,0,0,0,0,0,-1,1483,330,0,0
266,694,0,0,0,0,0,0,0,0,0,-1,1490,330,0,0
273,694,0,0,0,0,0,0,0,0,0,-1,1497,330,0,0
280,694,0,0,0,0,0,0,0,0,0,-1,1504,330,0,0
287,694,0,0,0,0,0,0,0,0,0,-1,1511,330,0,0
294,694,0,0,0,0,0,0,0,0,0,-1,1518,330,0,0
301,694,0,0,0,0,0,0,0,0,0,-1,1525,330,0,0
308,694,0,0,0,0,0,0,0,0,0,-1,1532,330,0,0
315,694,0,0,0,0,0,0,0,0,0,-1,1539,330,0,0
322,694,0,0,0,0,0,0,0,0,0,-1,1546,330,0,0
329,694,0,0,0,0,0,0,0,0,0,-1,1553,330,0,0
336,694,0,0,0,0,0,0,0,0,0,-1,1560,330,0,0
343,694,0,0,0,0,0,0,0,0,0,-1,1567,330,0,0
350,694,0,0,0,0,0,0,0,0,0,-1,1574,330,0,0
357,694,0,0,0,0,0,0,0,0,0,-1,1581,330,0,0
364,694,0,0,0,0,0,0,0,0,0,-1,1588,330,0,0
371,694,0,0,0,0,0,0,0,0,0,-1,1595,330,0,0
378,694,0,0,0,0,0,0,0,0,0,-1,1602,330,0,0
385,694,0,0,0,0,0,0,0,0,0,-1,1609,330,0,0
392,694,0,0,0,0,0,0,0,0,0,-1,1616,330,0,0
399,694,0,0,0,0,0,0,0,0,0,-1,1623,330,0,0
406,694,0,0,0,0,0,0,0,0,0,-1,1630,330,0,0
413,694,0,0,0,0,0,0,0,0,0,-1,1637,330,0,0
420,694,0,0,0,0,0,0,0,0,0,-1,1644,330,0,0
427,694,0,0,0,0,0,0,0,0,0,-1,1651,330,0,0
434,694,0,0,0,0,0,0,0,0,0,-1,1658,330,0,0
441,694,0,0,0,0,0,0,0,0,0,-1,1665,330,0,0
448,694,0,0,0,0,0,0,0,0,0,-1,1672,330,0,0
455,694,0,0,0,0,0,0,0,0,0,-1,1679,330,0,0
462,694,0,0,0,0,0,0,0,0,0,-1,1686,330,0,0
469,694,0,0,0,0,0,0,0,0,0,-1,1693,330,0,0
476,694,0,0,0,0,0,0,0,0,0,-1,1700,330,0,0
483,694,0,0,0,0,0,0,0,0,0,-1,1707,330,0,0
490,694,0,0,0,0,0,0,0,0,0,-1,1714,330,0,0
497,694,0,0,0,0,0,0,0,0,0,-1,1721,330,0,0
504,694,0,0,0,0,0,0,0,0,0,-1,1728,330,0,0
511,694,0,0,0,0,0,0,0,0,0,-1,1735,330,0,0
518,694,0,0,0,0,0,0,0,0,0,-1,1742,330,0,0
525,694,0,0,0,0,0,0,0,0,0,-1,1749,330,0,0
532,694,0,0,0,0,0,0,0,0,0,-1,1756,330,0,0
539,694,0,0,0,0,0,0,0,0,0,-1,1763,330,0,0
546,694,0,0,0,0,0,0,0,0,0,-1,1770,330,0,0
553,694,0,0,0,0,0,0,0,0,0,-1,1777,330,0,0
560,694,0,0,0,0,0,0,0,0,0,-1,1784,330,0,0
567,694,0,0,0,0,0,0,0,0,0,-1,1791,330,0,0
574,694,0,0,0,0,0,0,0,0,0,-1,1798,330,0,0
581,694,0,0,0,0,0,0,0,0,0,-1,1805,330,0,0
588,694,0,0,0,0,0,0,0,0,0,-1,1812,330,0,0
595,694,0,0,0,0,0,0,0,0,0,-1,1819,330,0,0
602,694,0,0,0,0,0,0,0,0,0,-1,1826,330,0,0
609,694,0,0,0,0,0,0,0,0,0,-1,1833,330,0,0
616,694,0,0,0,0,0,0,0,0,0,-1,1840,330,0,0
623,694,0,0,0,0,0,0,0,0,0,-1,1847,330,0,0
630,694,0,0,0,0,0,0,0,0,0,-1,1854,330,0,0
637,694,0,0,0,0,0,0,0,0,0,-1,1861,330,0,0
644,694,0,0,0,0,0,0,0,0,0,-1,1868,330,0,0
651,694,0,0,0,0,0,0,0,0,0,-1,1875,330,0,0
658,694,0,0,0,0,0,0,0,0,0,-1,1882,330,0,0
665,694,0,0,0,0,0,0,0,0,0,-1,1889,330,0,0
672,694,0,0,0,0,0,0,0,0,0,-1,1896,330,0,0
679,694,0,0,0,0,0,0,0,0,0,-1,1903,330,0,0
686,694,0,0,0,0,0,0,0,0,0,-1,1910,330,0,0
693,694,0,0,0,0,0,0,0,0,0,-1,1917,330,0,0
700,694,0,0,0,0,0,0,0,0,0,-1,1924,330,0,0
707,694,0,0,0,0,0,0,0,0,0,-1,1931,330,0,0
714,694,0,0,0,0,0,0,0,0,0,-1,1938,330,0,0
721,694,0,0,0,0,0,0,0,0,0,-1,1945,330,0,0
728,694,0,0,0,0,0,0,0,0,0,-1,1952,330,0,0
735,694,0,0,0,0,0,0,0,0,0,-1,1959,330,0,0
742,694,0,0,0,0,0,0,0,0,0,-1,1966,330,0,0
749,694,0,0,0,0,0,0,0,0,0,-1,1973,330,0,0
756,694,0,0,0,0,0,0,0,0,0,-1,1980,330,0,0
763,694,0,0,0,0,0,0,0,0,0,-1,1987,330,0,0
770,694,0,0,0,0,0,0,0,0,0,-1,1994,330,0,0
777,694,0,0,0,0,0,0,0,0,0,-1,2001,330,0,0
784,694,0,0,0,0,0,0,0,0,0,-1,2008,330,0,0
791,694,0,0,0,0,0,0,0,0,0,-1,2015,330,0,0
798,694,0,0,0,0,0,0,0,0,0,-1,2022,330,0,0
805,694,0,0,0,0,0,0,0,0,0,-1,2029,330,0,0
812,694,0,0,0,0,0,0,0,0,0,-1,2036,330,0,0
-700,687,0,0,0,0,0,0,0,0,0,-1,524,337,0,0
-693,687,0,0,0,0,0,0,0,0,0,-1,531,337,0,0
-686,687,0,0,0,0,0,0,0,0,0,-1,538,337,0,0
-679,687,0,0,0,0,0,0,0,0,0,-1,545,337,0,0
-672,687,0,0,0,0,0,0,0,0,0,-1,552,337,0,0
-665,687,0,0,0,0,0,0,0,0,0,-1,559,337,0,0
-658,687,0,0,0,0,0,0,0,0,0,-1,566,337,0,0
-651,687,0,0,0,0,0,0,0,0,0,-1,573,337,0,0
-644,687,0,0,0,0,0,0,0,0,0,-1,580,337,0,0
-637,687,0,0,0,0,0,0,0,0,0,-1,587,337,0,0
-630,687,0,0,0,0,0,0,0,0,0,-1,594,337,0,0
-623,687,0,0,0,0,0,0,0,0,0,-1,601,337,0,0
-616,687,0,0,0,0,0,0,0,0,0,-1,608,337,0,0
-609,687,0,0,0,0,0,0,0,0,0,-1,615,337,0,0
-602,687,0,0,0,0,0,0,0,0,0,-1,622,337,0,0
-595,687,0,0,0,0,0,0,0,0,0,-1,629,337,0,0
-588,687,0,0,0,0,0,0,0,0,0,-1,636,337,0,0
-581,687,0,0,0,0,0,0,0,0,0,-1,643,337,0,0
-574,687,0,0,0,0,0,0,0,0,0,-1,650,337,0,0
-567,687,0,0,0,0,0,0,0,0,0,-1,657,337,0,0
-560,687,0,0,0,0,0,0,0,0,0,-1,664,337,0,0
-553,687,0,0,0,0,0,0,0,0,0,-1,671,337,0,0
-546,687,0,0,0,0,0,0,0,0,0,-1,678,337,0,0
-539,687,0,0,0,0,0,0,0,0,0,-1,685,337,0,0
-532,687,0,0,0,0,0,0,0,0,0,-1,692,337,0,0
-525,687,0,0,0,0,0,0,0,0,0,-1,699,337,0,0
-518,687,0,0,0,0,0,0,0,0,0,-1,706,337,0,0
-511,687,0,0,0,0,0,0,0,0,0,-1,713,337,0,0
-504,687,0,0,0,0,0,0,0,0,0,-1,720,337,0,0
-497,687,0,0,0,0,0,0,0,0,0,-1,727,337,0,0
-490,687,0,0,0,0,0,0,0,0,0,-1,734,337,0,0
-483,687,0,0,0,0,0,0,0,0,0,-1,741,337,0,0
-476,687,0,0,0,0,0,0,0,0,0,-1,748,337,0,0
-469,687,0,0,0,0,0,0,0,0,0,-1,755,337,0,0
-462,687,0,0,0,0,0,0,0,0,0,-1,762,337,0,0
-455,687,0,0,0,0,0,0,0,0,0,-1,769,337,0,0
-448,687,0,0,0,0,0,0,0,0,0,-1,776,337,0,0
-441,687,0,0,0,0,0,0,0,0,0,-1,783,337,0,0
-434,687,0,0,0,0,0,0,0,0,0,-1,790,337,0,0
-427,687,0,0,0,0,0,0,0,0,0,-1,797,337,0,0
-420,687,0,0,0,0,0,0,0,0,0,-1,804,337,0,0
-413,687,0,0,0,0,0,0,0,0,0,-1,811,337,0,0
-406,687,0,0,0,0,0,0,0,0,0,-1,818,337,0,0
-399,687,0,0,0,0,0,0,0,0,0,-1,825,337,0,0
-392,687,0,0,0,0,0,0,0,0,0,-1,832,337,0,0
-385,687,0,0,0,0,0,0,0,0,0,-1,839,337,0,0
-378,687,0,0,0,0,0,0,0,0,0,-1,846,337,0,0
-371,687,0,0,0,0,0,0,0,0,0,-1,853,337,0,0
-364,687,0,0,0,0,0,0,0,0,0,-1,860,337,0,0
-357,687,0,0,0,0,0,0,0,0,0,-1,867,337,0,0
-350,687,0,0,0,0,0,0,0,0,0,-1,874,337,0,0
-343,687,0,0,0,0,0,0,0,0,0,-1,881,337,0,0
-336,687,0,0,0,0,0,0,0,0,0,-1,888,337,0,0
-329,687,0,0,0,0,0,0,0,0,0,-1,895,337,0,0
-322,687,0,0,0,0,0,0,0,0,0,-1,902,337,0,0
-315,687,0,0,0,0,0,0,0,0,0,-1,909,337,0,0
-308,687,0,0,0,0,0,0,0,0,0,-1,916,337,0,0
-301,687,0,0,0,0,0,0,0,0,0,-1,923,337,0,0
-294,687,0,0,0,0,0,0,0,0,0,-1,930,337,0,0
-287,687,0,0,0,0,0,0,0,0,0,-1,937,337,0,0
-280,687,0,0,0,0,0,0,0,0,0,-1,944,337,0,0
-273,687,0,0,0,0,0,0,0,0,0,-1,951,337,0,0
-266,687,0,0,0,0,0,0,0,0,0,-1,958,337,0,0
-259,687,0,0,0,0,0,0,0,0,0,-1,965,337,0,0
-252,687,0,0,0,0,0,0,0,0,0,-1,972,337,0,0
-245,687,0,0,0,0,0,0,0,0,0,-1,979,337,0,0
-238,687,0,0,0,0,0,0,0,0,0,-1,986,337,0,0
-231,687,0,0,0,0,0,0,0,0,0,-1,993,337,0,0
-224,687,0,0,0,0,0,0,0,0,0,-1,1000,337,0,0
-217,687,0,0,0,0,0,0,0,0,0,-1,1007,337,0,0
-210,687,0,0,0,0,0,0,0,0,0,-1,1014,337,0,0
-203,687,0,0,0,0,0,0,0,0,0,-1,1021,337,0,0
-196,687,0,0,0,0,0,0,0,0,0,-1,1028,337,0,0
-189,687,0,0,0,0,0,0,0,0,0,-1,1035,337,0,0
-182,687,0,0,0,0,0,0,0,0,0,-1,1042,337,0,0
-175,687,0,0,0,0,0,0,0,0,0,-1,1049,337,0,0
-168,687,0,0,0,0,0,0,0,0,0,-1,1056,337,0,0
-161,687,0,0,0,0,0,0,0,0,0,-1,1063,337,0,0
-154,687,0,0,0,0,0,0,0,0,0,-1,1070,337,0,0
-147,687,0,0,0,0,0,0,0,0,0,-1,1077,337,0,0
-140,687,0,0,0,0,0,0,0,0,0,-1,1084,337,0,0
-133,687,6.5094,-34.1634,0,0,0,0,0,0,0,-1,1091,337,6.50936,34.1634
-126,687,5.46191,-31.8163,0,0,0,0,0,0,0,-1,1098,337,5.46188,31.8163
-119,687,5.87366,-31.1191,0,0,0,0,0,0,0,-1,1105,337,5.87367,31.1191
-112,687,6.2616,-30.3766,0,0,0,0,0,0,0,-1,1112,337,6.26163,30.3766
-105,687,6.71155,-27.9981,0,0,0,0,0,0,0,-1,1119,337,6.7116,27.9981
-98,687,13.5825,-44.6227,0,0,0,0,0,0,0,-1,1126,337,13.5825,44.6227
-91,687,7.80652,-40.6695,0,0,0,0,0,0,0,-1,1133,337,7.80654,40.6695
-84,687,1.58215,-34.1306,0,0,0,0,0,0,0,-1,1140,337,1.58212,34.1306
-77,687,-4.80347,-26.8918,0,0,0,0,0,0,0,-1,1147,337,-4.80345,26.8918
-70,687,-11.2395,-20.8942,0,0,0,0,0,0,0,-1,1154,337,-11.2395,20.8942
-63,687,-17.6757,-14.8966,0,0,0,0,0,0,0,-1,1161,337,-17.6756,14.8966
-56,687,-18.104,7.81931,0,0,0,0,0,0,0,-1,1168,337,-18.104,-7.81931
-49,687,-15.6449,-9.94391,0,0,0,0,0,0,0,-1,1175,337,-15.6449,9.94392
-42,687,-4.2019,-0.405609,0,0,0,0,0,0,0,-1,1182,337,-4.20192,0.405614
-35,687,-4.42273,-0.688171,0,0,0,0,0,0,0,-1,1189,337,-4.42276,0.688178
-28,687,-1.14038,-1.39072,0,0,0,0,0,0,0,-1,1196,337,-1.14035,1.3907
-21,687,5.09631,-34.8929,0,0,0,0,0,0,0,-1,1203,337,5.09634,34.8929
-14,687,5.06213,-35.1739,-0.00179456,0.0132444,-0.0138996,0.0215282,-0.0100783,-1.03335,0.0186429,0.0497919,1210,337,5.06213,35.1739
-7,687,4.97498,-35.4414,-0.00263988,0.012803,-0.0167226,0.0235007,-0.0133376,-1.00168,0.0215367,0.0442923,1217,337,4.97499,35.4414
0,687,4.83337,-35.7187,0,0,0,0,0,0,0,-1,1224,337,4.83338,35.7187
7,687,4.50378,-35.7516,0,0,0,0,0,0,0,-1,1231,337,4.50374,35.7516
14,687,5.1748,-35.2029,0,0,0,0,0,0,0,-1,1238,337,5.17484,35.2028
21,687,5.18835,-35.4017,0,0,0,0,0,0,0,-1,1245,337,5.18835,35.4017
28,687,5.05066,-35.6163,-0.0126306,0.0315463,-0.0128531,0.0350137,-0.016098,-1.3073,0.0301754,0.0455232,1252,337,5.05067,35.6163
35,687,5.06787,-37.3517,-0.0146573,0.0373827,-0.0100885,0.03927,-0.0165446,-1.38586,0.0331029,0.0461644,1259,337,5.06792,37.3517
42,687,4.52942,-37.614,0,0,0,0,0,0,0,-1,1266,337,4.52941,37.614
49,687,4.46069,-37.0784,-0.0201408,0.0505059,-0.00514449,0.0508785,-0.0205135,-1.49848,0.0424428,0.0452594,1273,337,4.46074,37.0784
56,687,4.89685,-35.5672,-0.0231485,0.0564436,-0.00289237,0.0565486,-0.0232535,-1.53452,0.0473916,0.0458986,1280,337,4.89685,35.5672
63,687,3.81372,-35.7438,-0.0267332,0.0612237,-0.00149353,0.0612491,-0.0267586,-1.55382,0.0520957,0.043539,1287,337,3.81378,35.7438
70,687,3.64807,-35.1387,-0.0303995,0.0643234,-0.000815465,0.0643304,-0.0304065,-1.56219,0.0558531,0.0414615,1294,337,3.6481,35.1387
77,687,3.7113,-34.5634,-0.0347109,0.0677248,0.000445468,0.0677268,-0.0347128,1.56645,0.0601586,0.0459084,1301,337,3.71136,34.5634
84,687,4.03223,-34.2067,-0.0394657,0.0678887,0.00199326,0.0679257,-0.0395027,1.55224,0.0627433,0.0467512,1308,337,4.03224,34.2067
91,687,4.33704,-33.7449,-0.0441948,0.0676208,0.0028508,0.0676934,-0.0442674,1.54532,0.0651106,0.048134,1315,337,4.33702,33.7449
98,687,4.56555,-33.2791,0,0,0,0,0,0,0,-1,1322,337,4.5656,33.2791
105,687,2.88196,-33.4606,-0.0527447,0.0641219,0.00512362,0.0643461,-0.0529689,1.52707,0.067838,0.0456096,1329,337,2.88195,33.4606
112,687,1.89648,-33.147,-0.0560399,0.0621965,0.00737848,0.0626552,-0.0564986,1.50871,0.0688241,0.0455976,1336,337,1.89653,33.147
119,687,0.825684,-33.2158,0,0,0,0,0,0,0,-1,1343,337,0.825711,33.2158
126,687,0.057373,-33.7529,0,0,0,0,0,0,0,-1,1350,337,0.0573646,33.7529
133,687,3.54907,-34.5105,0,0,0,0,0,0,0,-1,1357,337,3.54901,34.5105
140,687,3.67456,-32.8504,0,0,0,0,0,0,0,-1,1364,337,3.67456,32.8504
147,687,3.3667,-32.9262,0,0,0,0,0,0,0,-1,1371,337,3.36664,32.9262
154,687,5.39526,-32.6595,0,0,0,0,0,0,0,-1,1378,337,5.39527,32.6595
161,687,29.3895,-1.90628,0,0,0,0,0,0,0,-1,1385,337,29.3895,1.90628
168,687,29.8564,-1.19434,0,0,0,0,0,0,0,-1,1392,337,29.8564,1.19434
175,687,30.3419,-0.453583,0,0,0,0,0,0,0,-1,1399,337,30.3419,0.45357
182,687,6.67249,0.289917,0,0,0,0,0,0,0,-1,1406,337,6.67247,-0.289916
189,687,7.76062,4.53635,0,0,0,0,0,0,0,-1,1413,337,7.76064,-4.53636
196,687,6.99048,3.2966,0,0,0,0,0,0,0,-1,1420,337,6.99046,-3.2966
203,687,6.36499,2.1445,0,0,0,0,0,0,0,-1,1427,337,6.36499,-2.14451
210,687,6.68066,0.674652,0,0,0,0,0,0,0,-1,1434,337,6.68062,-0.674655
217,687,5.99683,-0.630493,0,0,0,0,0,0,0,-1,1441,337,5.99684,0.630497
224,687,5.52917,0.524902,0,0,0,0,0,0,0,-1,1448,337,5.5292,-0.524915
231,687,5.85583,-1.73651,0,0,0,0,0,0,0,-1,1455,337,5.85577,1.73651
238,687,5.96582,-2.96774,0,0,0,0,0,0,0,-1,1462,337,5.96577,2.96773
245,687,1.28259,2.32211,0,0,0,0,0,0,0,-1,1469,337,1.28258,-2.32211
252,687,1.97278,3.88422,0,0,0,0,0,0,0,-1,1476,337,1.97281,-3.88421
259,687,0,0,0,0,0,0,0,0,0,-1,1483,337,0,0
266,687,0,0,0,0,0,0,0,0,0,-1,1490,337,0,0
273,687,0,0,0,0,0,0,0,0,0,-1,1497,337,0,0
280,687,0,0,0,0,0,0,0,0,0,-1,1504,337,0,0
287,687,0,0,0,0,0,0,0,0,0,-1,1511,337,0,0
294,687,0,0,0,0,0,0,0,0,0,-1,1518,337,0,0
301,687,0,0,0,0,0,0,0,0,0,-1,1525,337,0,0
308,687,0,0,0,0,0,0,0,0,0,-1,1532,337,0,0
315,687,0,0,0,0,0,0,0,0,0,-1,1539,337,0,0
322,687,0,0,0,0,0,0,0,0,0,-1,1546,337,0,0
329,687,0,0,0,0,0,0,0,0,0,-1,1553,337,0,0
336,687,0,0,0,0,0,0,0,0,0,-1,1560,337,0,0
343,687,0,0,0,0,0,0,0,0,0,-1,1567,337,0,0
350,687,0,0,0,0,0,0,0,0,0,-1,1574,337,0,0
357,687,0,0,0,0,0,0,0,0,0,-1,1581,337,0,0
364,687,0,0,0,0,0,0,0,0,0,-1,1588,337,0,0
371,687,0,0,0,0,0,0,0,0,0,-1,1595,337,0,0
378,687,0,0,0,0,0,0,0,0,0,-1,1602,337,0,0
385,687,0,0,0,0,0,0,0,0,0,-1,1609,337,0,0
392,687,0,0,0,0,0,0,0,0,0,-1,1616,337,0,0
399,687,0,0,0,0,0,0,0,0,0,-1,1623,337,0,0
406,687,0,0,0,0,0,0,0,0,0,-1,1630,337,0,0
413,687,0,0,0,0,0,0,0,0,0,-1,1637,337,0,0
420,687,0,0,0,0,0,0,0,0,0,-1,1644,337,0,0
427,687,0,0,0,0,0,0,0,0,0,-1,1651,337,0,0
434,687,0,0,0,0,0,0,0,0,0,-1,1658,337,0,0
441,687,0,0,0,0,0,0,0,0,0,-1,1665,337,0,0
448,687,0,0,0,0,0,0,0,0,0,-1,1672,337,0,0
455,687,0,0,0,0,0,0,0,0,0,-1,1679,337,0,0
462,687,0,0,0,0,0,0,0,0,0,-1,1686,337,0,0
469,687,0,0,0,0,0,0,0,0,0,-1,1693,337,0,0
476,687,0,0,0,0,0,0,0,0,0,-1,1700,337,0,0
483,687,0,0,0,0,0,0,0,0,0,-1,1707,337,0,0
490,687,0,0,0,0,0,0,0,0,0,-1,1714,337,0,0
497,687,0,0,0,0,0,0,0,0,0,-1,1721,337,0,0
504,687,0,0,0,0,0,0,0,0,0,-1,1728,337,0,0
511,687,0,0,0,0,0,0,0,0,0,-1,1735,337,0,0
518,687,0,0,0,0,0,0,0,0,0,-1,1742,337,0,0
525,687,0,0,0,0,0,0,0,0,0,-1,1749,337,0,0
532,687,0,0,0,0,0,0,0,0,0,-1,1756,337,0,0
539,687,0,0,0,0,0,0,0,0,0,-1,1763,337,0,0
546,687,0,0,0,0,0,0,0,0,0,-1,1770,337,0,0
553,687,0,0,0,0,0,0,0,0,0,-1,1777,337,0,0
560,687,0,0,0,0,0,0,0,0,0,-1,1784,337,0,0
567,687,0,0,0,0,0,0,0,0,0,-1,1791,337,0,0
574,687,0,0,0,0,0,0,0,0,0,-1,1798,337,0,0
581,687,0,0,0,0,0,0,0,0,0,-1,1805,337,0,0
588,687,0,0,0,0,0,0,0,0,0,-1,1812,337,0,0
595,687,0,0,0,0,0,0,0,0,0,-1,1819,337,0,0
602,687,0,0,0,0,0,0,0,0,0,-1,1826,337,0,0
609,687,0,0,0,0,0,0,0,0,0,-1,1833,337,0,0
616,687,0,0,0,0,0,0,0,0,0,-1,1840,337,0,0
623,687,0,0,0,0,0,0,0,0,0,-1,1847,337,0,0
630,687,0,0,0,0,0,0,0,0,0,-1,1854,337,0,0
637,687,0,0,0,0,0,0,0,0,0,-1,1861,337,0,0
644,687,0,0,0,0,0,0,0,0,0,-1,1868,337,0,0
651,687,0,0,0,0,0,0,0,0,0,-1,1875,337,0,0
658,687,0,0,0,0,0,0,0,0,0,-1,1882,337,0,0
665,687,0,0,0,0,0,0,0,0,0,-1,1889,337,0,0
672,687,0,0,0,0,0,0,0,0,0,-1,1896,337,0,0
679,687,0,0,0,0,0,0,0,0,0,-1,1903,337,0,0
686,687,0,0,0,0,0,0,0,0,0,-1,1910,337,0,0
693,687,0,0,0,0,0,0,0,0,0,-1,1917,337,0,0
700,687,0,0,0,0,0,0,0,0,0,-1,1924,337,0,0
707,687,0,0,0,0,0,0,0,0,0,-1,1931,337,0,0
714,687,0,0,0,0,0,0,0,0,0,-1,1938,337,0,0
721,687,0,0,0,0,0,0,0,0,0,-1,1945,337,0,0
728,687,0,0,0,0,0,0,0,0,0,-1,1952,337,0,0
735,687,0,0,0,0,0,0,0,0,0,-1,1959,337,0,0
742,687,0,0,0,0,0,0,0,0,0,-1,1966,337,0,0
749,687,0,0,0,0,0,0,0,0,0,-1,1973,337,0,0
756,687,0,0,0,0,0,0,0,0,0,-1,1980,337,0,0
763,687,0,0,0,0,0,0,0,0,0,-1,1987,337,0,0
770,687,0,0,0,0,0,0,0,0,0,-1,1994,337,0,0
777,687,0,0,0,0,0,0,0,0,0,-1,2001,337,0,0
784,687,0,0,0,0,0,0,0,0,0,-1,2008,337,0,0
791,687,0,0,0,0,0,0,0,0,0,-1,2015,337,0,0
798,687,0,0,0,0,0,0,0,0,0,-1,2022,337,0,0
805,687,0,0,0,0,0,0,0,0,0,-1,2029,337,0,0
812,687,0,0,0,0,0,0,0,0,0,-1,2036,337,0,0
-700,680,0,0,0,0,0,0,0,0,0,-1,524,344,0,0
-693,680,0,0,0,0,0,0,0,0,0,-1,531,344,0,0
-686,680,0,0,0,0,0,0,0,0,0,-1,538,344,0,0
-679,680,0,0,0,0,0,0,0,0,0,-1,545,344,0,0
-672,680,0,0,0,0,0,0,0,0,0,-1,552,344,0,0
-665,680,0,0,0,0,0,0,0,0,0,-1,559,344,0,0
-658,680,0,0,0,0,0,0,0,0,0,-1,566,344,0,0
-651,680,0,0,0,0,0,0,0,0,0,-1,573,344,0,0
-644,680,0,0,0,0,0,0,0,0,0,-1,580,344,0,0
-637,680,0,0,0,0,0,0,0,0,0,-1,587,344,0,0
-630,680,0,0,0,0,0,0,0,0,0,-1,594,344,0,0
-623,680,0,0,0,0,0,0,0,0,0,-1,601,344,0,0
-616,680,0,0,0,0,0,0,0,0,0,-1,608,344,0,0
-609,680,0,0,0,0,0,0,0,0,0,-1,615,344,0,0
-602,680,0,0,0,0,0,0,0,0,0,-1,622,344,0,0
-595,680,0,0,0,0,0,0,0,0,0,-1,629,344,0,0
-588,680,0,0,0,0,0,0,0,0,0,-1,636,344,0,0
-581,680,0,0,0,0,0,0,0,0,0,-1,643,344,0,0
-574,680,0,0,0,0,0,0,0,0,0,-1,650,344,0,0
-567,680,0,0,0,0,0,0,0,0,0,-1,657,344,0,0
-560,680,0,0,0,0,0,0,0,0,0,-1,664,344,0,0
-553,680,0,0,0,0,0,0,0,0,0,-1,671,344,0,0
-546,680,0,0,0,0,0,0,0,0,0,-1,678,344,0,0
-539,680,0,0,0,0,0,0,0,0,0,-1,685,344,0,0
-532,680,0,0,0,0,0,0,0,0,0,-1,692,344,0,0
-525,680,0,0,0,0,0,0,0,0,0,-1,699,344,0,0
-518,680,0,0,0,0,0,0,0,0,0,-1,706,344,0,0
-511,680,0,0,0,0,0,0,0,0,0,-1,713,344,0,0
-504,680,0,0,0,0,0,0,0,0,0,-1,720,344,0,0
-497,680,0,0,0,0,0,0,0,0,0,-1,727,344,0,0
-490,680,0,0,0,0,0,0,0,0,0,-1,734,344,0,0
-483,680,0,0,0,0,0,0,0,0,0,-1,741,344,0,0
-476,680,0,0,0,0,0,0,0,0,0,-1,748,344,0,0
-469,680,0,0,0,0,0,0,0,0,0,-1,755,344,0,0
-462,680,0,0,0,0,0,0,0,0,0,-1,762,344,0,0
-455,680,0,0,0,0,0,0,0,0,0,-1,769,344,0,0
-448,680,0,0,0,0,0,0,0,0,0,-1,776,344,0,0
-441,680,0,0,0,0,0,0,0,0,0,-1,783,344,0,0
-434,680,0,0,0,0,0,0,0,0,0,-1,790,344,0,0
-427,680,0,0,0,0,0,0,0,0,0,-1,797,344,0,0
-420,680,0,0,0,0,0,0,0,0,0,-1,804,344,0,0
-413,680,0,0,0,0,0,0,0,0,0,-1,811,344,0,0
-406,680,0,0,0,0,0,0,0,0,0,-1,818,344,0,0
-399,680,0,0,0,0,0,0,0,0,0,-1,825,344,0,0
-392,680,0,0,0,0,0,0,0,0,0,-1,832,344,0,0
-385,680,0,0,0,0,0,0,0,0,0,-1,839,344,0,0
-378,680,0,0,0,0,0,0,0,0,0,-1,846,344,0,0
-371,680,0,0,0,0,0,0,0,0,0,-1,853,344,0,0
-364,680,0,0,0,0,0,0,0,0,0,-1,860,344,0,0
-357,680,0,0,0,0,0,0,0,0,0,-1,867,344,0,0
-350,680,0,0,0,0,0,0,0,0,0,-1,874,344,0,0
-343,680,0,0,0,0,0,0,0,0,0,-1,881,344,0,0
-336,680,0,0,0,0,0,0,0,0,0,-1,888,344,0,0
-329,680,0,0,0,0,0,0,0,0,0,-1,895,344,0,0
-322,680,0,0,0,0,0,0,0,0,0,-1,902,344,0,0
-315,680,0,0,0,0,0,0,0,0,0,-1,909,344,0,0
-308,680,0,0,0,0,0,0,0,0,0,-1,916,344,0,0
-301,680,0,0,0,0,0,0,0,0,0,-1,923,344,0,0
-294,680,0,0,0,0,0,0,0,0,0,-1,930,344,0,0
-287,680,0,0,0,0,0,0,0,0,0,-1,937,344,0,0
-280,680,0,0,0,0,0,0,0,0,0,-1,944,344,0,0
-273,680,0,0,0,0,0,0,0,0,0,-1,951,344,0,0
-266,680,0,0,0,0,0,0,0,0,0,-1,958,344,0,0
-259,680,0,0,0,0,0,0,0,0,0,-1,965,344,0,0
-252,680,0,0,0,0,0,0,0,0,0,-1,972,344,0,0
-245,680,0,0,0,0,0,0,0,0,0,-1,979,344,0,0
-238,680,0,0,0,0,0,0,0,0,0,-1,986,344,0,0
-231,680,0,0,0,0,0,0,0,0,0,-1,993,344,0,0
-224,680,0,0,0,0,0,0,0,0,0,-1,1000,344,0,0
-217,680,0,0,0,0,0,0,0,0,0,-1,1007,344,0,0
-210,680,0,0,0,0,0,0,0,0,0,-1,1014,344,0,0
-203,680,0,0,0,0,0,0,0,0,0,-1,1021,344,0,0
-196,680,0,0,0,0,0,0,0,0,0,-1,1028,344,0,0
-189,680,0,0,0,0,0,0,0,0,0,-1,1035,344,0,0
-182,680,0,0,0,0,0,0,0,0,0,-1,1042,344,0,0
-175,680,0,0,0,0,0,0,0,0,0,-1,1049,344,0,0
-168,680,0,0,0,0,0,0,0,0,0,-1,1056,344,0,0
-161,680,0,0,0,0,0,0,0,0,0,-1,1063,344,0,0
-154,680,2.25244,-29.1442,0,0,0,0,0,0,0,-1,1070,344,2.25241,29.1442
-147,680,5.75867,-30.2404,0,0,0,0,0,0,0,-1,1077,344,5.75868,30.2404
-140,680,6.40747,-33.378,0,0,0,0,0,0,0,-1,1084,344,6.40749,33.378
-133,680,6.34399,-33.3367,0,0,0,0,0,0,0,-1,1091,344,6.34398,33.3367
-126,680,5.90552,-33.2161,0,0,0,0,0,0,0,-1,1098,344,5.9055,33.2161
-119,680,5.91211,-30.6628,0,0,0,0,0,0,0,-1,1105,344,5.91217,30.6628
-112,680,6.33032,-29.9273,0,0,0,0,0,0,0,-1,1112,344,6.33028,29.9273
-105,680,8.12,-27.7806,0,0,0,0,0,0,0,-1,1119,344,8.12,27.7806
-98,680,14.1224,-39.1392,0,0,0,0,0,0,0,-1,1126,344,14.1225,39.1392
-91,680,8.3208,-33.7806,0,0,0,0,0,0,0,-1,1133,344,8.32075,33.7806
-84,680,2.17664,-29.6833,0,0,0,0,0,0,0,-1,1140,344,2.17662,29.6832
-77,680,-4.11353,-22.9374,-0.0683887,-0.400363,0.159669,-0.00405897,-0.464693,0.383,0.308451,0.0456835,1147,344,-4.11355,22.9374
-70,680,-10.4928,-16.4665,-0.0660009,-0.385119,0.153801,-0.00394358,-0.447176,0.383512,0.296812,0.042234,1154,344,-10.4928,16.4665
-63,680,-16.9019,-10.3609,0,0,0,0,0,0,0,-1,1161,344,-16.9018,10.3609
-56,680,-6.96912,-8.83356,0,0,0,0,0,0,0,-1,1168,344,-6.96907,8.83354
-49,680,-6.7677,-2.24063,0,0,0,0,0,0,0,-1,1175,344,-6.76772,2.24063
-42,680,-1.02368,0.618805,0,0,0,0,0,0,0,-1,1182,344,-1.0237,-0.618797
-35,680,-0.947876,-0.942719,0,0,0,0,0,0,0,-1,1189,344,-0.947842,0.942731
-28,680,-1.46118,-1.10574,0,0,0,0,0,0,0,-1,1196,344,-1.4612,1.10575
-21,680,4.20227,-35.89,0,0,0,0,0,0,0,-1,1203,344,4.20224,35.89
-14,680,4.58875,-35.6247,-0.0015442,0.0136885,-0.0114282,0.0198058,-0.00766144,-1.07933,0.0163667,0.0427579,1210,344,4.5888,35.6247
-7,680,5.17627,-35.5458,-0.00229891,0.0135983,-0.0133243,0.0211648,-0.00986538,-1.05434,0.0183069,0.0449947,1217,344,5.17632,35.5458
0,680,5.34875,-35.5555,0,0,0,0,0,0,0,-1,1224,344,5.34877,35.5555
7,680,5.33997,-35.3511,0,0,0,0,0,0,0,-1,1231,344,5.33993,35.3511
14,680,5.17261,-35.5215,-0.00579918,0.0172253,-0.0135447,0.0234891,-0.012063,-1.13763,0.0208764,0.0443818,1238,344,5.17259,35.5215
21,680,5.0675,-35.7482,-0.00790217,0.0220475,-0.0120583,0.0262989,-0.0121536,-1.23183,0.0226958,0.0466124,1245,344,5.06747,35.7482
28,680,5.23425,-35.8652,-0.00934969,0.0260905,-0.0102152,0.0288241,-0.0120832,-1.30932,0.0242681,0.0472435,1252,344,5.23421,35.8652
35,680,4.87976,-36.2536,-0.0106471,0.0304181,-0.00814325,0.031974,-0.012203,-1.38201,0.0263433,0.0433474,1259,344,4.8798,36.2536
42,680,4.73132,-35.7918,-0.0123295,0.0353224,-0.00623493,0.0361247,-0.0131318,-1.44282,0.0294529,0.0423961,1266,344,4.73132,35.7918
49,680,4.74744,-35.9318,-0.0144134,0.0408456,-0.00436153,0.0411877,-0.0147555,-1.49251,0.033479,0.0420654,1273,344,4.74739,35.9318
56,680,4.74683,-35.8971,-0.0166961,0.0455495,-0.0027407,0.04567,-0.0168165,-1.52688,0.0373366,0.0424842,1280,344,4.74681,35.8971
63,680,4.54175,-35.7252,-0.0195035,0.049595,-0.00171647,0.0496376,-0.0195461,-1.54598,0.0411834,0.0389912,1287,344,4.54176,35.7252
70,680,4.14478,-35.5549,-0.0223794,0.0524506,-0.00115002,0.0524682,-0.0223971,-1.55543,0.0443706,0.0358702,1294,344,4.14483,35.5549
77,680,4.29285,-35.3128,-0.025953,0.0558707,-7.23867e-05,0.0558708,-0.025953,-1.56991,0.0482821,0.04505,1301,344,4.29288,35.3128
84,680,4.20325,-34.8302,-0.02993,0.0565434,0.00116514,0.0565591,-0.0299456,1.55733,0.0507253,0.0491627,1308,344,4.20324,34.8302
91,680,4.99304,-35.7006,-0.0338184,0.056941,0.00186361,0.0569792,-0.0338567,1.55027,0.0530075,0.0464124,1315,344,4.993,35.7006
98,680,5.33008,-35.5572,0,0,0,0,0,0,0,-1,1322,344,5.33003,35.5572
105,680,4.01343,-33.74,0,0,0,0,0,0,0,-1,1329,344,4.01345,33.74
112,680,2.95288,-33.4727,0,0,0,0,0,0,0,-1,1336,344,2.9529,33.4727
119,680,1.93164,-33.1706,0,0,0,0,0,0,0,-1,1343,344,1.93168,33.1706
126,680,4.69434,-34.0282,-0.0465896,0.0490228,0.00963933,0.0499849,-0.0475517,1.47131,0.0563187,0.0438848,1350,344,4.69431,34.0282
133,680,3.83655,-34.9381,-0.0470628,0.047916,0.0127739,0.0496039,-0.0487508,1.43941,0.0567858,0.0475994,1357,344,3.83654,34.9381
140,680,4.12207,-34.8777,0,0,0,0,0,0,0,-1,1364,344,4.12202,34.8777
147,680,3.58362,-34.7415,0,0,0,0,0,0,0,-1,1371,344,3.58361,34.7415
154,680,3.63342,-34.2655,0,0,0,0,0,0,0,-1,1378,344,3.63343,34.2655
161,680,4.41431,-32.7739,0,0,0,0,0,0,0,-1,1385,344,4.41429,32.7739
168,680,29.4142,-2.51651,0,0,0,0,0,0,0,-1,1392,344,29.4142,2.51652
175,680,6.66541,0.942078,0,0,0,0,0,0,0,-1,1399,344,6.66538,-0.942088
182,680,6.52917,0.532379,0,0,0,0,0,0,0,-1,1406,344,6.52922,-0.532385
189,680,7.55884,4.77695,0,0,0,0,0,0,0,-1,1413,344,7.55886,-4.77694
196,680,6.55627,3.35254,0,0,0,0,0,0,0,-1,1420,344,6.55622,-3.35255
203,680,5.7334,1.90753,0,0,0,0,0,0,0,-1,1427,344,5.73341,-1.90754
210,680,5.27515,0.493622,0,0,0,0,0,0,0,-1,1434,344,5.27514,-0.493632
217,680,6.56384,-0.374176,0,0,0,0,0,0,0,-1,1441,344,6.56379,0.374176
224,680,3.9491,-0.640228,0,0,0,0,0,0,0,-1,1448,344,3.94908,0.64024
231,680,4.24866,-1.96881,0,0,0,0,0,0,0,-1,1455,344,4.2486,1.96882
238,680,4.29333,-3.23984,0,0,0,0,0,0,0,-1,1462,344,4.29332,3.23984
245,680,2.44397,0.985382,0,0,0,0,0,0,0,-1,1469,344,2.44402,-0.985394
252,680,3.07349,2.18951,0,0,0,0,0,0,0,-1,1476,344,3.0735,-2.18952
259,680,2.82971,1.30682,0,0,0,0,0,0,0,-1,1483,344,2.82972,-1.30684
266,680,2.67554,1.44067,0,0,0,0,0,0,0,-1,1490,344,2.67551,-1.44066
273,680,2.46411,1.54666,0,0,0,0,0,0,0,-1,1497,344,2.46407,-1.54666
280,680,0,0,0,0,0,0,0,0,0,-1,1504,344,0,0
287,680,0,0,0,0,0,0,0,0,0,-1,1511,344,0,0
294,680,0,0,0,0,0,0,0,0,0,-1,1518,344,0,0
301,680,0,0,0,0,0,0,0,0,0,-1,1525,344,0,0
308,680,0,0,0,0,0,0,0,0,0,-1,1532,344,0,0
315,680,0,0,0,0,0,0,0,0,0,-1,1539,344,0,0
322,680,0,0,0,0,0,0,0,0,0,-1,1546,344,0,0
329,680,0,0,0,0,0,0,0,0,0,-1,1553,344,0,0
336,680,0,0,0,0,0,0,0,0,0,-1,1560,344,0,0
343,680,0,0,0,0,0,0,0,0,0,-1,1567,344,0,0
350,680,0,0,0,0,0,0,0,0,0,-1,1574,344,0,0
357,680,0,0,0,0,0,0,0,0,0,-1,1581,344,0,0
364,680,0,0,0,0,0,0,0,0,0,-1,1588,344,0,0
371,680,0,0,0,0,0,0,0,0,0,-1,1595,344,0,0
378,680,0,0,0,0,0,0,0,0,0,-1,1602,344,0,0
385,680,0,0,0,0,0,0,0,0,0,-1,1609,344,0,0
392,680,0,0,0,0,0,0,0,0,0,-1,1616,344,0,0
399,680,0,0,0,0,0,0,0,0,0,-1,1623,344,0,0
406,680,0,0,0,0,0,0,0,0,0,-1,1630,344,0,0
413,680,0,0,0,0,0,0,0,0,0,-1,1637,344,0,0
420,680,0,0,0,0,0,0,0,0,0,-1,1644,344,0,0
427,680,0,0,0,0,0,0,0,0,0,-1,1651,344,0,0
434,680,0,0,0,0,0,0,0,0,0,-1,1658,344,0,0
441,680,0,0,0,0,0,0,0,0,0,-1,1665,344,0,0
448,680,0,0,0,0,0,0,0,0,0,-1,1672,344,0,0
455,680,0,0,0,0,0,0,0,0,0,-1,1679,344,0,0
462,680,0,0,0,0,0,0,0,0,0,-1,1686,344,0,0
469,680,0,0,0,0,0,0,0,0,0,-1,1693,344,0,0
476,680,0,0,0,0,0,0,0,0,0,-1,1700,344,0,0
483,680,0,0,0,0,0,0,0,0,0,-1,1707,344,0,0
490,680,0,0,0,0,0,0,0,0,0,-1,1714,344,0,0
497,680,0,0,0,0,0,0,0,0,0,-1,1721,344,0,0
504,680,0,0,0,0,0,0,0,0,0,-1,1728,344,0,0
511,680,0,0,0,0,0,0,0,0,0,-1,1735,344,0,0
518,680,0,0,0,0,0,0,0,0,0,-1,1742,344,0,0
525,680,0,0,0,0,0,0,0,0,0,-1,1749,344,0,0
532,680,0,0,0,0,0,0,0,0,0,-1,1756,344,0,0
539,680,0,0,0,0,0,0,0,0,0,-1,1763,344,0,0
546,680,0,0,0,0,0,0,0,0,0,-1,1770,344,0,0
553,680,0,0,0,0,0,0,0,0,0,-1,1777,344,0,0
560,680,0,0,0,0,0,0,0,0,0,-1,1784,344,0,0
567,680,0,0,0,0,0,0,0,0,0,-1,1791,344,0,0
574,680,0,0,0,0,0,0,0,0,0,-1,1798,344,0,0
581,680,0,0,0,0,0,0,0,0,0,-1,1805,344,0,0
588,680,0,0,0,0,0,0,0,0,0,-1,1812,344,0,0
595,680,0,0,0,0,0,0,0,0,0,-1,1819,344,0,0
602,680,0,0,0,0,0,0,0,0,0,-1,1826,344,0,0
609,680,0,0,0,0,0,0,0,0,0,-1,1833,344,0,0
616,680,0,0,0,0,0,0,0,0,0,-1,1840,344,0,0
623,680,0,0,0,0,0,0,0,0,0,-1,1847,344,0,0
630,680,0,0,0,0,0,0,0,0,0,-1,1854,344,0,0
637,680,0,0,0,0,0,0,0,0,0,-1,1861,344,0,0
644,680,0,0,0,0,0,0,0,0,0,-1,1868,344,0,0
651,680,0,0,0,0,0,0,0,0,0,-1,1875,344,0,0
658,680,0,0,0,0,0,0,0,0,0,-1,1882,344,0,0
665,680,0,0,0,0,0,0,0,0,0,-1,1889,344,0,0
672,680,0,0,0,0,0,0,0,0,0,-1,1896,344,0,0
679,680,0,0,0,0,0,0,0,0,0,-1,1903,344,0,0
686,680,0,0,0,0,0,0,0,0,0,-1,1910,344,0,0
693,680,0,0,0,0,0,0,0,0,0,-1,1917,344,0,0
700,680,0,0,0,0,0,0,0,0,0,-1,1924,344,0,0
707,680,0,0,0,0,0,0,0,0,0,-1,1931,344,0,0
714,680,0,0,0,0,0,0,0,0,0,-1,1938,344,0,0
721,680,0,0,0,0,0,0,0,0,0,-1,1945,344,0,0
728,680,0,0,0,0,0,0,0,0,0,-1,1952,344,0,0
735,680,0,0,0,0,0,0,0,0,0,-1,1959,344,0,0
742,680,0,0,0,0,0,0,0,0,0,-1,1966,344,0,0
749,680,0,0,0,0,0,0,0,0,0,-1,1973,344,0,0
756,680,0,0,0,0,0,0,0,0,0,-1,1980,344,0,0
763,680,0,0,0,0,0,0,0,0,0,-1,1987,344,0,0
770,680,0,0,0,0,0,0,0,0,0,-1,1994,344,0,0
777,680,0,0,0,0,0,0,0,0,0,-1,2001,344,0,0
784,680,0,0,0,0,0,0,0,0,0,-1,2008,344,0,0
791,680,0,0,0,0,0,0,0,0,0,-1,2015,344,0,0
798,680,0,0,0,0,0,0,0,0,0,-1,2022,344,0,0
805,680,0,0,0,0,0,0,0,0,0,-1,2029,344,0,0
812,680,0,0,0,0,0,0,0,0,0,-1,2036,344,0,0
-700,673,0,0,0,0,0,0,0,0,0,-1,524,351,0,0
-693,673,0,0,0,0,0,0,0,0,0,-1,531,351,0,0
-686,673,0,0,0,0,0,0,0,0,0,-1,538,351,0,0
-679,673,0,0,0,0,0,0,0,0,0,-1,545,351,0,0
-672,673,0,0,0,0,0,0,0,0,0,-1,552,351,0,0
-665,673,0,0,0,0,0,0,0,0,0,-1,559,351,0,0
-658,673,0,0,0,0,0,0,0,0,0,-1,566,351,0,0
-651,673,0,0,0,0,0,0,0,0,0,-1,573,351,0,0
-644,673,0,0,0,0,0,0,0,0,0,-1,580,351,0,0
-637,673,0,0,0,0,0,0,0,0,0,-1,587,351,0,0
-630,673,0,0,0,0,0,0,0,0,0,-1,594,351,0,0
-623,673,0,0,0,0,0,0,0,0,0,-1,601,351,0,0
-616,673,0,0,0,0,0,0,0,0,0,-1,608,351,0,0
-609,673,0,0,0,0,0,0,0,0,0,-1,615,351,0,0
-602,673,0,0,0,0,0,0,0,0,0,-1,622,351,0,0
-595,673,0,0,0,0,0,0,0,0,0,-1,629,351,0,0
-588,673,0,0,0,0,0,0,0,0,0,-1,636,351,0,0
-581,673,0,0,0,0,0,0,0,0,0,-1,643,351,0,0
-574,673,0,0,0,0,0,0,0,0,0,-1,650,351,0,0
-567,673,0,0,0,0,0,0,0,0,0,-1,657,351,0,0
-560,673,0,0,0,0,0,0,0,0,0,-1,664,351,0,0
-553,673,0,0,0,0,0,0,0,0,0,-1,671,351,0,0
-546,673,0,0,0,0,0,0,0,0,0,-1,678,351,0,0
-539,673,0,0,0,0,0,0,0,0,0,-1,685,351,0,0
-532,673,0,0,0,0,0,0,0,0,0,-1,692,351,0,0
-525,673,0,0,0,0,0,0,0,0,0,-1,699,351,0,0
-518,673,0,0,0,0,0,0,0,0,0,-1,706,351,0,0
-511,673,0,0,0,0,0,0,0,0,0,-1,713,351,0,0
-504,673,0,0,0,0,0,0,0,0,0,-1,720,351,0,0
-497,673,0,0,0,0,0,0,0,0,0,-1,727,351,0,0
-490,673,0,0,0,0,0,0,0,0,0,-1,734,351,0,0
-483,673,0,0,0,0,0,0,0,0,0,-1,741,351,0,0
-476,673,0,0,0,0,0,0,0,0,0,-1,748,351,0,0
-469,673,0,0,0,0,0,0,0,0,0,-1,755,351,0,0
-462,673,0,0,0,0,0,0,0,0,0,-1,762,351,0,0
-455,673,0,0,0,0,0,0,0,0,0,-1,769,351,0,0
-448,673,0,0,0,0,0,0,0,0,0,-1,776,351,0,0
-441,673,0,0,0,0,0,0,0,0,0,-1,783,351,0,0
-434,673,0,0,0,0,0,0,0,0,0,-1,790,351,0,0
-427,673,0,0,0,0,0,0,0,0,0,-1,797,351,0,0
-420,673,0,0,0,0,0,0,0,0,0,-1,804,351,0,0
-413,673,0,0,0,0,0,0,0,0,0,-1,811,351,0,0
-406,673,0,0,0,0,0,0,0,0,0,-1,818,351,0,0
-399,673,0,0,0,0,0,0,0,0,0,-1,825,351,0,0
-392,673,0,0,0,0,0,0,0,0,0,-1,832,351,0,0
-385,673,0,0,0,0,0,0,0,0,0,-1,839,351,0,0
-378,673,0,0,0,0,0,0,0,0,0,-1,846,351,0,0
-371,673,0,0,0,0,0,0,0,0,0,-1,853,351,0,0
-364,673,0,0,0,0,0,0,0,0,0,-1,860,351,0,0
-357,673,0,0,0,0,0,0,0,0,0,-1,867,351,0,0
-350,673,0,0,0,0,0,0,0,0,0,-1,874,351,0,0
-343,673,0,0,0,0,0,0,0,0,0,-1,881,351,0,0
-336,673,0,0,0,0,0,0,0,0,0,-1,888,351,0,0
-329,673,0,0,0,0,0,0,0,0,0,-1,895,351,0,0
-322,673,0,0,0,0,0,0,0,0,0,-1,902,351,0,0
-315,673,0,0,0,0,0,0,0,0,0,-1,909,351,0,0
-308,673,0,0,0,0,0,0,0,0,0,-1,916,351,0,0
-301,673,0,0,0,0,0,0,0,0,0,-1,923,351,0,0
-294,673,0,0,0,0,0,0,0,0,0,-1,930,351,0,0
-287,673,0,0,0,0,0,0,0,0,0,-1,937,351,0,0
-280,673,0,0,0,0,0,0,0,0,0,-1,944,351,0,0
-273,673,0,0,0,0,0,0,0,0,0,-1,951,351,0,0
-266,673,0,0,0,0,0,0,0,0,0,-1,958,351,0,0
-259,673,0,0,0,0,0,0,0,0,0,-1,965,351,0,0
-252,673,0,0,0,0,0,0,0,0,0,-1,972,351,0,0
-245,673,0,0,0,0,0,0,0,0,0,-1,979,351,0,0
-238,673,0,0,0,0,0,0,0,0,0,-1,986,351,0,0
-231,673,0,0,0,0,0,0,0,0,0,-1,993,351,0,0
-224,673,0,0,0,0,0,0,0,0,0,-1,1000,351,0,0
-217,673,0,0,0,0,0,0,0,0,0,-1,1007,351,0,0
-210,673,0,0,0,0,0,0,0,0,0,-1,1014,351,0,0
-203,673,0,0,0,0,0,0,0,0,0,-1,1021,351,0,0
-196,673,0,0,0,0,0,0,0,0,0,-1,1028,351,0,0
-189,673,0,0,0,0,0,0,0,0,0,-1,1035,351,0,0
-182,673,0,0,0,0,0,0,0,0,0,-1,1042,351,0,0
-175,673,9.33264,-32.7477,0,0,0,0,0,0,0,-1,1049,351,9.3327,32.7477
-168,673,9.9248,-33.8084,0,0,0,0,0,0,0,-1,1056,351,9.92476,33.8084
-161,673,3.99109,-32.6987,0,0,0,0,0,0,0,-1,1063,351,3.9911,32.6987
-154,673,6.04431,-32.6277,0,0,0,0,0,0,0,-1,1070,351,6.04435,32.6278
-147,673,5.61096,-30.1121,0,0,0,0,0,0,0,-1,1077,351,5.61101,30.1121
-140,673,6.13782,-32.3891,0,0,0,0,0,0,0,-1,1084,351,6.13779,32.3891
-133,673,6.06104,-32.4358,0,0,0,0,0,0,0,-1,1091,351,6.06103,32.4357
-126,673,5.82947,-32.5797,0,0,0,0,0,0,0,-1,1098,351,5.82949,32.5798
-119,673,5.48621,-32.6028,0,0,0,0,0,0,0,-1,1105,351,5.48622,32.6028
-112,673,6.6344,-29.6632,0,0,0,0,0,0,0,-1,1112,351,6.63446,29.6632
-105,673,6.17139,-28.5951,0,0,0,0,0,0,0,-1,1119,351,6.17133,28.5951
-98,673,14.6038,-34.1646,0,0,0,0,0,0,0,-1,1126,351,14.6038,34.1646
-91,673,8.87854,-29.3053,0,0,0,0,0,0,0,-1,1133,351,8.87848,29.3053
-84,673,2.99731,-24.8913,0,0,0,0,0,0,0,-1,1140,351,2.99728,24.8913
-77,673,-3.34326,-18.5472,-0.0524163,-0.296306,0.118941,-0.00401561,-0.344707,0.386465,0.228478,0.0471348,1147,351,-3.34325,18.5473
-70,673,-9.75171,-12.1088,-0.0504381,-0.284429,0.114302,-0.00387067,-0.330997,0.386876,0.219386,0.0449172,1154,351,-9.75165,12.1088
-63,673,-16.1678,-5.84409,0,0,0,0,0,0,0,-1,1161,351,-16.1678,5.84407
-56,673,-18.0282,2.79053,0,0,0,0,0,0,0,-1,1168,351,-18.0283,-2.79052
-49,673,-0.926758,-0.115448,0,0,0,0,0,0,0,-1,1175,351,-0.926732,0.115444
-42,673,-1.15015,0.289917,0,0,0,0,0,0,0,-1,1182,351,-1.15017,-0.289932
-35,673,-0.919556,-1.00711,0,0,0,0,0,0,0,-1,1189,351,-0.919514,1.00711
-28,673,3.19104,-25.0986,0,0,0,0,0,0,0,-1,1196,351,3.19099,25.0986
-21,673,5.47803,-35.2836,0,0,0,0,0,0,0,-1,1203,351,5.47802,35.2836
-14,673,5.35266,-35.4272,-0.00173563,0.0132174,-0.00889887,0.0173637,-0.00588185,-1.13478,0.0139559,0.0429114,1210,351,5.35267,35.4272
-7,673,5.1792,-35.736,-0.00229581,0.01333,-0.0101591,0.0183331,-0.00729886,-1.11319,0.0152488,0.0416699,1217,351,5.17919,35.736
0,673,5.24487,-35.7835,-0.00232572,0.0127215,-0.0108118,0.0183698,-0.00797403,-1.08937,0.0155994,0.0491726,1224,351,5.24489,35.7835
7,673,5.27148,-35.8199,0,0,0,0,0,0,0,-1,1231,351,5.27143,35.8199
14,673,5.20654,-35.7666,-0.00469721,0.0154797,-0.0102208,0.0197524,-0.00896989,-1.17484,0.0169679,0.0395009,1238,351,5.2065,35.7666
21,673,5.07019,-36.0175,-0.00609794,0.0187007,-0.00918613,0.0217328,-0.00913001,-1.25198,0.0183072,0.028913,1245,351,5.07015,36.0175
28,673,5.09131,-36.1032,-0.00704306,0.0216363,-0.00785333,0.0236459,-0.00905273,-1.32027,0.0194952,0.0213891,1252,351,5.09126,36.1032
35,673,5.05981,-36.0925,-0.00782451,0.0247774,-0.00636193,0.0259749,-0.00902199,-1.38475,0.0209808,0.0307119,1259,351,5.05986,36.0925
42,673,4.83179,-36.1213,-0.00886769,0.0286074,-0.00496423,0.0292539,-0.00951414,-1.4413,0.0233298,0.0308412,1266,351,4.8318,36.1214
49,673,4.77844,-36.1817,-0.0103002,0.0328084,-0.00356459,0.0331012,-0.0105929,-1.48885,0.0263189,0.0188556,1273,351,4.77845,36.1817
56,673,4.7655,-36.1708,-0.0119575,0.0364314,-0.00242864,0.036553,-0.0120791,-1.52077,0.0292389,0.0161364,1280,351,4.76552,36.1708
63,673,4.80505,-36.0259,-0.0140457,0.0397135,-0.00169141,0.0397667,-0.0140989,-1.53938,0.0322548,0.0199895,1287,351,4.80501,36.0259
70,673,4.72461,-35.9386,-0.0161834,0.0421586,-0.00122401,0.0421843,-0.0162091,-1.54983,0.0348075,0.0315537,1294,351,4.72463,35.9386
77,673,4.66907,-35.8496,-0.0190146,0.0452923,-0.000347031,0.0452942,-0.0190165,-1.5654,0.038149,0.040204,1301,351,4.66906,35.8496
84,673,4.69666,-35.6756,0,0,0,0,0,0,0,-1,1308,351,4.6966,35.6756
91,673,4.77539,-36.1783,0,0,0,0,0,0,0,-1,1315,351,4.77544,36.1783
98,673,4.78821,-36.1889,0,0,0,0,0,0,0,-1,1322,351,4.78818,36.1889
105,673,3.88086,-35.7649,0,0,0,0,0,0,0,-1,1329,351,3.8809,35.7649
112,673,4.01074,-33.7776,0,0,0,0,0,0,0,-1,1336,351,4.01074,33.7777
119,673,4.40161,-35.0425,0,0,0,0,0,0,0,-1,1343,351,4.40164,35.0425
126,673,4.28198,-34.9532,-0.0353987,0.0419743,0.00634879,0.0424918,-0.0359162,1.48947,0.0453219,0.0461551,1350,351,4.28201,34.9532
133,673,4.05457,-35.0786,-0.0358879,0.0410434,0.00840682,0.0419514,-0.0367958,1.46321,0.0454972,0.0481528,1357,351,4.05458,35.0785
140,673,4.1178,-35.172,-0.0352558,0.0399902,0.0106251,0.0414618,-0.0367274,1.43318,0.0451701,0.0461179,1364,351,4.11774,35.172
147,673,3.80774,-35.0397,-0.0335092,0.0380871,0.0129187,0.0403468,-0.0357689,1.39763,0.0439719,0.041867,1371,351,3.80779,35.0397
154,673,3.82507,-34.6379,-0.0297623,0.0368416,0.014848,0.0400017,-0.0329224,1.36109,0.0421689,0.0390286,1378,351,3.82511,34.6379
161,673,3.81714,-34.302,0,0,0,0,0,0,0,-1,1385,351,3.8171,34.302
168,673,6.87061,1.83954,0,0,0,0,0,0,0,-1,1392,351,6.87063,-1.83953
175,673,6.6228,1.1459,0,0,0,0,0,0,0,-1,1399,351,6.62276,-1.14591
182,673,6.37244,0.796112,0,0,0,0,0,0,0,-1,1406,351,6.3724,-0.796102
189,673,6.12097,0.265472,0,0,0,0,0,0,0,-1,1413,351,6.121,-0.265482
196,673,6.02173,3.12717,0,0,0,0,0,0,0,-1,1420,351,6.02176,-3.12717
203,673,5.04456,1.6351,0,0,0,0,0,0,0,-1,1427,351,5.04455,-1.63509
210,673,4.79224,0.447479,0,0,0,0,0,0,0,-1,1434,351,4.79229,-0.447469
217,673,2.01648,0.972687,0,0,0,0,0,0,0,-1,1441,351,2.01644,-0.972691
224,673,2.3689,-1.80539,0,0,0,0,0,0,0,-1,1448,351,2.36896,1.80539
231,673,2.65857,-2.18497,0,0,0,0,0,0,0,-1,1455,351,2.65852,2.18496
238,673,3.77844,-2.06088,0,0,0,0,0,0,0,-1,1462,351,3.77839,2.06088
245,673,3.5376,-0.190399,0,0,0,0,0,0,0,-1,1469,351,3.53759,0.1904
252,673,3.80518,0.55603,0,0,0,0,0,0,0,-1,1476,351,3.80519,-0.556022
259,673,3.88562,1.29617,0,0,0,0,0,0,0,-1,1483,351,3.88562,-1.29618
266,673,4.22424,2.04834,0,0,0,0,0,0,0,-1,1490,351,4.22429,-2.04834
273,673,6.07886,0.385895,0,0,0,0,0,0,0,-1,1497,351,6.0789,-0.385906
280,673,6.97534,-0.0820007,0,0,0,0,0,0,0,-1,1504,351,6.97536,0.0820122
287,673,7.66968,-0.348541,0,0,0,0,0,0,0,-1,1511,351,7.66969,0.348534
294,673,8.20996,0.28537,0,0,0,0,0,0,0,-1,1518,351,8.20993,-0.28536
301,673,0,0,0,0,0,0,0,0,0,-1,1525,351,0,0
308,673,0,0,0,0,0,0,0,0,0,-1,1532,351,0,0
315,673,0,0,0,0,0,0,0,0,0,-1,1539,351,0,0
322,673,0,0,0,0,0,0,0,0,0,-1,1546,351,0,0
329,673,0,0,0,0,0,0,0,0,0,-1,1553,351,0,0
336,673,0,0,0,0,0,0,0,0,0,-1,1560,351,0,0
343,673,0,0,0,0,0,0,0,0,0,-1,1567,351,0,0
350,673,0,0,0,0,0,0,0,0,0,-1,1574,351,0,0
357,673,0,0,0,0,0,0,0,0,0,-1,1581,351,0,0
364,673,0,0,0,0,0,0,0,0,0,-1,1588,351,0,0
371,673,0,0,0,0,0,0,0,0,0,-1,1595,351,0,0
378,673,0,0,0,0,0,0,0,0,0,-1,1602,351,0,0
385,673,0,0,0,0,0,0,0,0,0,-1,1609,351,0,0
392,673,0,0,0,0,0,0,0,0,0,-1,1616,351,0,0
399,673,0,0,0,0,0,0,0,0,0,-1,1623,351,0,0
406,673,0,0,0,0,0,0,0,0,0,-1,1630,351,0,0
413,673,0,0,0,0,0,0,0,0,0,-1,1637,351,0,0
420,673,0,0,0,0,0,0,0,0,0,-1,1644,351,0,0
427,673,0,0,0,0,0,0,0,0,0,-1,1651,351,0,0
434,673,0,0,0,0,0,0,0,0,0,-1,1658,351,0,0
441,673,0,0,0,0,0,0,0,0,0,-1,1665,351,0,0
448,673,0,0,0,0,0,0,0,0,0,-1,1672,351,0,0
455,673,0,0,0,0,0,0,0,0,0,-1,1679,351,0,0
462,673,0,0,0,0,0,0,0,0,0,-1,1686,351,0,0
469,673,0,0,0,0,0,0,0,0,0,-1,1693,351,0,0
476,673,0,0,0,0,0,0,0,0,0,-1,1700,351,0,0
483,673,0,0,0,0,0,0,0,0,0,-1,1707,351,0,0
490,673,0,0,0,0,0,0,0,0,0,-1,1714,351,0,0
497,673,0,0,0,0,0,0,0,0,0,-1,1721,351,0,0
504,673,0,0,0,0,0,0,0,0,0,-1,1728,351,0,0
511,673,0,0,0,0,0,0,0,0,0,-1,1735,351,0,0
518,673,0,0,0,0,0,0,0,0,0,-1,1742,351,0,0
525,673,0,0,0,0,0,0,0,0,0,-1,1749,351,0,0
532,673,0,0,0,0,0,0,0,0,0,-1,1756,351,0,0
539,673,0,0,0,0,0,0,0,0,0,-1,1763,351,0,0
546,673,0,0,0,0,0,0,0,0,0,-1,1770,351,0,0
553,673,0,0,0,0,0,0,0,0,0,-1,1777,351,0,0
560,673,0,0,0,0,0,0,0,0,0,-1,1784,351,0,0
567,673,0,0,0,0,0,0,0,0,0,-1,1791,351,0,0
574,673,0,0,0,0,0,0,0,0,0,-1,1798,351,0,0
581,673,0,0,0,0,0,0,0,0,0,-1,1805,351,0,0
588,673,0,0,0,0,0,0,0,0,0,-1,1812,351,0,0
595,673,0,0,0,0,0,0,0,0,0,-1,1819,351,0,0
602,673,0,0,0,0,0,0,0,0,0,-1,1826,351,0,0
609,673,0,0,0,0,0,0,0,0,0,-1,1833,351,0,0
616,673,0,0,0,0,0,0,0,0,0,-1,1840,351,0,0
623,673,0,0,0,0,0,0,0,0,0,-1,1847,351,0,0
630,673,0,0,0,0,0,0,0,0,0,-1,1854,351,0,0
637,673,0,0,0,0,0,0,0,0,0,-1,1861,351,0,0
644,673,0,0,0,0,0,0,0,0,0,-1,1868,351,0,0
651,673,0,0,0,0,0,0,0,0,0,-1,1875,351,0,0
658,673,0,0,0,0,0,0,0,0,0,-1,1882,351,0,0
665,673,0,0,0,0,0,0,0,0,0,-1,1889,351,0,0
672,673,0,0,0,0,0,0,0,0,0,-1,1896,351,0,0
679,673,0,0,0,0,0,0,0,0,0,-1,1903,351,0,0
686,673,0,0,0,0,0,0,0,0,0,-1,1910,351,0,0
693,673,0,0,0,0,0,0,0,0,0,-1,1917,351,0,0
700,673,0,0,0,0,0,0,0,0,0,-1,1924,351,0,0
707,673,0,0,0,0,0,0,0,0,0,-1,1931,351,0,0
714,673,0,0,0,0,0,0,0,0,0,-1,1938,351,0,0
721,673,0,0,0,0,0,0,0,0,0,-1,1945,351,0,0
728,673,0,0,0,0,0,0,0,0,0,-1,1952,351,0,0
735,673,0,0,0,0,0,0,0,0,0,-1,1959,351,0,0
742,673,0,0,0,0,0,0,0,0,0,-1,1966,351,0,0
749,673,0,0,0,0,0,0,0,0,0,-1,1973,351,0,0
756,673,0,0,0,0,0,0,0,0,0,-1,1980,351,0,0
763,673,0,0,0,0,0,0,0,0,0,-1,1987,351,0,0
770,673,0,0,0,0,0,0,0,0,0,-1,1994,351,0,0
777,673,0,0,0,0,0,0,0,0,0,-1,2001,351,0,0
784,673,0,0,0,0,0,0,0,0,0,-1,2008,351,0,0
791,673,0,0,0,0,0,0,0,0,0,-1,2015,351,0,0
798,673,0,0,0,0,0,0,0,0,0,-1,2022,351,0,0
805,673,0,0,0,0,0,0,0,0,0,-1,2029,351,0,0
812,673,0,0,0,0,0,0,0,0,0,-1,2036,351,0,0
-700,666,0,0,0,0,0,0,0,0,0,-1,524,358,0,0
-693,666,0,0,0,0,0,0,0,0,0,-1,531,358,0,0
-686,666,0,0,0,0,0,0,0,0,0,-1,538,358,0,0
-679,666,0,0,0,0,0,0,0,0,0,-1,545,358,0,0
-672,666,0,0,0,0,0,0,0,0,0,-1,552,358,0,0
-665,666,0,0,0,0,0,0,0,0,0,-1,559,358,0,0
-658,666,0,0,0,0,0,0,0,0,0,-1,566,358,0,0
-651,666,0,0,0,0,0,0,0,0,0,-1,573,358,0,0
-644,666,0,0,0,0,0,0,0,0,0,-1,580,358,0,0
-637,666,0,0,0,0,0,0,0,0,0,-1,587,358,0,0
-630,666,0,0,0,0,0,0,0,0,0,-1,594,358,0,0
-623,666,0,0,0,0,0,0,0,0,0,-1,601,358,0,0
-616,666,0,0,0,0,0,0,0,0,0,-1,608,358,0,0
-609,666,0,0,0,0,0,0,0,0,0,-1,615,358,0,0
-602,666,0,0,0,0,0,0,0,0,0,-1,622,358,0,0
-595,666,0,0,0,0,0,0,0,0,0,-1,629,358,0,0
-588,666,0,0,0,0,0,0,0,0,0,-1,636,358,0,0
-581,666,0,0,0,0,0,0,0,0,0,-1,643,358,0,0
-574,666,0,0,0,0,0,0,0,0,0,-1,650,358,0,0
-567,666,0,0,0,0,0,0,0,0,0,-1,657,358,0,0
-560,666,0,0,0,0,0,0,0,0,0,-1,664,358,0,0
-553,666,0,0,0,0,0,0,0,0,0,-1,671,358,0,0
-546,666,0,0,0,0,0,0,0,0,0,-1,678,358,0,0
-539,666,0,0,0,0,0,0,0,0,0,-1,685,358,0,0
-532,666,0,0,0,0,0,0,0,0,0,-1,692,358,0,0
-525,666,0,0,0,0,0,0,0,0,0,-1,699,358,0,0
-518,666,0,0,0,0,0,0,0,0,0,-1,706,358,0,0
-511,666,0,0,0,0,0,0,0,0,0,-1,713,358,0,0
-504,666,0,0,0,0,0,0,0,0,0,-1,720,358,0,0
-497,666,0,0,0,0,0,0,0,0,0,-1,727,358,0,0
-490,666,0,0,0,0,0,0,0,0,0,-1,734,358,0,0
-483,666,0,0,0,0,0,0,0,0,0,-1,741,358,0,0
-476,666,0,0,0,0,0,0,0,0,0,-1,748,358,0,0
-469,666,0,0,0,0,0,0,0,0,0,-1,755,358,0,0
-462,666,0,0,0,0,0,0,0,0,0,-1,762,358,0,0
-455,666,0,0,0,0,0,0,0,0,0,-1,769,358,0,0
-448,666,0,0,0,0,0,0,0,0,0,-1,776,358,0,0
-441,666,0,0,0,0,0,0,0,0,0,-1,783,358,0,0
-434,666,0,0,0,0,0,0,0,0,0,-1,790,358,0,0
-427,666,0,0,0,0,0,0,0,0,0,-1,797,358,0,0
-420,666,0,0,0,0,0,0,0,0,0,-1,804,358,0,0
-413,666,0,0,0,0,0,0,0,0,0,-1,811,358,0,0
-406,666,0,0,0,0,0,0,0,0,0,-1,818,358,0,0
-399,666,0,0,0,0,0,0,0,0,0,-1,825,358,0,0
-392,666,0,0,0,0,0,0,0,0,0,-1,832,358,0,0
-385,666,0,0,0,0,0,0,0,0,0,-1,839,358,0,0
-378,666,0,0,0,0,0,0,0,0,0,-1,846,358,0,0
-371,666,0,0,0,0,0,0,0,0,0,-1,853,358,0,0
-364,666,0,0,0,0,0,0,0,0,0,-1,860,358,0,0
-357,666,0,0,0,0,0,0,0,0,0,-1,867,358,0,0
-350,666,0,0,0,0,0,0,0,0,0,-1,874,358,0,0
-343,666,0,0,0,0,0,0,0,0,0,-1,881,358,0,0
-336,666,0,0,0,0,0,0,0,0,0,-1,888,358,0,0
-329,666,0,0,0,0,0,0,0,0,0,-1,895,358,0,0
-322,666,0,0,0,0,0,0,0,0,0,-1,902,358,0,0
-315,666,0,0,0,0,0,0,0,0,0,-1,909,358,0,0
-308,666,0,0,0,0,0,0,0,0,0,-1,916,358,0,0
-301,666,0,0,0,0,0,0,0,0,0,-1,923,358,0,0
-294,666,0,0,0,0,0,0,0,0,0,-1,930,358,0,0
-287,666,0,0,0,0,0,0,0,0,0,-1,937,358,0,0
-280,666,0,0,0,0,0,0,0,0,0,-1,944,358,0,0
-273,666,0,0,0,0,0,0,0,0,0,-1,951,358,0,0
-266,666,0,0,0,0,0,0,0,0,0,-1,958,358,0,0
-259,666,0,0,0,0,0,0,0,0,0,-1,965,358,0,0
-252,666,0,0,0,0,0,0,0,0,0,-1,972,358,0,0
-245,666,0,0,0,0,0,0,0,0,0,-1,979,358,0,0
-238,666,0,0,0,0,0,0,0,0,0,-1,986,358,0,0
-231,666,0,0,0,0,0,0,0,0,0,-1,993,358,0,0
-224,666,0,0,0,0,0,0,0,0,0,-1,1000,358,0,0
-217,666,0,0,0,0,0,0,0,0,0,-1,1007,358,0,0
-210,666,0,0,0,0,0,0,0,0,0,-1,1014,358,0,0
-203,666,0,0,0,0,0,0,0,0,0,-1,1021,358,0,0
-196,666,1.6853,-29.5602,0,0,0,0,0,0,0,-1,1028,358,1.68528,29.5602
-189,666,7.53992,-30.0075,0,0,0,0,0,0,0,-1,1035,358,7.53989,30.0075
-182,666,7.86316,-30.8814,0,0,0,0,0,0,0,-1,1042,358,7.8632,30.8814
-175,666,8.39709,-31.924,0.0922975,-0.0632507,0.0350267,0.099821,-0.0707742,0.211578,0.0989679,0.0425684,1049,358,8.39714,31.924
-168,666,8.87695,-32.9923,0.0837115,-0.075805,0.0291131,0.0888588,-0.0809523,0.174995,0.0980759,0.0437772,1056,358,8.87698,32.9923
-161,666,9.31543,-34.045,0,0,0,0,0,0,0,-1,1063,358,9.31549,34.045
-154,666,6.04309,-31.9114,0,0,0,0,0,0,0,-1,1070,358,6.04308,31.9114
-147,666,5.96008,-32.2537,0,0,0,0,0,0,0,-1,1077,358,5.96009,32.2537
-140,666,4.56018,-28.8821,0,0,0,0,0,0,0,-1,1084,358,4.56023,28.8821
-133,666,6.24475,-31.4522,0,0,0,0,0,0,0,-1,1091,358,6.24472,31.4522
-126,666,5.77075,-32.1345,0,0,0,0,0,0,0,-1,1098,358,5.77076,32.1345
-119,666,5.51636,-32.2393,0,0,0,0,0,0,0,-1,1105,358,5.51633,32.2393
-112,666,6.13318,-30.696,0,0,0,0,0,0,0,-1,1112,358,6.13319,30.696
-105,666,6.30908,-29.0855,0,0,0,0,0,0,0,-1,1119,358,6.30905,29.0855
-98,666,3.5968,-23.5447,0,0,0,0,0,0,0,-1,1126,358,3.59686,23.5447
-91,666,9.5127,-25.1347,0,0,0,0,0,0,0,-1,1133,358,9.51269,25.1347
-84,666,4.03943,-19.3453,0,0,0,0,0,0,0,-1,1140,358,4.03941,19.3453
-77,666,-2.59216,-14.5352,0,0,0,0,0,0,0,-1,1147,358,-2.59213,14.5352
-70,666,-9.01953,-7.94489,0,0,0,0,0,0,0,-1,1154,358,-9.01947,7.94489
-63,666,-11.7778,-0.975189,0,0,0,0,0,0,0,-1,1161,358,-11.7778,0.97519
-56,666,0.424683,-2.04132,0,0,0,0,0,0,0,-1,1168,358,0.424665,2.04132
-49,666,0.754395,-2.23169,0,0,0,0,0,0,0,-1,1175,358,0.754383,2.23169
-42,666,1.34473,-3.53897,0,0,0,0,0,0,0,-1,1182,358,1.34476,3.53896
-35,666,5.13831,-35.5615,0,0,0,0,0,0,0,-1,1189,358,5.13836,35.5615
-28,666,5.31958,-35.5579,0,0,0,0,0,0,0,-1,1196,358,5.31956,35.5579
-21,666,5.31543,-35.5358,-0.00404948,-0.00164821,0.000359904,-0.00159543,-0.00410226,1.42518,0.00238785,0.0340405,1203,358,5.31543,35.5358
-14,666,5.22595,-35.7119,-0.00192574,0.0119728,-0.0066057,0.0146114,-0.00456435,-1.19077,0.0115666,0.0291494,1210,358,5.22598,35.7119
-7,666,5.15015,-35.8487,-0.00227181,0.0122094,-0.00743229,0.015345,-0.0054074,-1.17156,0.0124309,0.0198793,1217,358,5.15009,35.8487
0,666,5.16003,-35.9844,-0.00223285,0.0118019,-0.00782232,0.0152932,-0.00572414,-1.151,0.0125466,0.0138725,1224,358,5.16001,35.9844
7,666,5.10571,-36.0529,-0.00257924,0.0117644,-0.00792251,0.0152791,-0.00609392,-1.15325,0.0127139,0.0187275,1231,358,5.10566,36.0528
14,666,5.02417,-36.0843,-0.00378077,0.0135367,-0.00745303,0.0163025,-0.00654663,-1.21544,0.0135869,0.0179784,1238,358,5.02416,36.0842
21,666,4.96582,-36.2296,-0.00468273,0.0156693,-0.00676659,0.0177137,-0.0067271,-1.27739,0.0145784,0.0140207,1245,358,4.96576,36.2296
28,666,4.93286,-36.3304,-0.00527103,0.0177632,-0.00584432,0.0191612,-0.00666901,-1.336,0.0154835,0.0151736,1252,358,4.93287,36.3304
35,666,4.93958,-36.3192,-0.00570508,0.0199832,-0.00481071,0.0208545,-0.00657644,-1.39161,0.016537,0.013908,1259,358,4.93956,36.3192
42,666,4.87244,-36.362,-0.00631251,0.0228674,-0.00381412,0.0233577,-0.00680282,-1.44295,0.0182666,0.0140787,1266,358,4.87245,36.362
49,666,4.79993,-36.3985,-0.00725434,0.0259415,-0.00280326,0.0261765,-0.0074894,-1.48714,0.0204108,0.0115508,1273,358,4.79998,36.3985
56,666,4.77539,-36.4212,-0.00840013,0.0286326,-0.00202604,0.0287431,-0.00851064,-1.5163,0.022541,0.0128993,1280,358,4.7754,36.4212
63,666,4.75037,-36.4729,-0.00986689,0.0311701,-0.00150146,0.0312249,-0.00992175,-1.53427,0.0247947,0.0157532,1287,358,4.75032,36.4729
70,666,4.71826,-36.4293,-0.0113647,0.0331268,-0.00111933,0.033155,-0.0113928,-1.54566,0.0267231,0.0162206,1294,358,4.71826,36.4293
77,666,4.65515,-36.3203,-0.0135054,0.0358027,-0.000435748,0.0358066,-0.0135092,-1.56196,0.0294266,0.020935,1301,358,4.6551,36.3203
84,666,4.64331,-36.3317,-0.0159583,0.0368125,0.00025278,0.0368137,-0.0159595,1.56601,0.0312515,0.0288056,1308,358,4.64337,36.3317
91,666,4.61841,-36.3659,-0.018276,0.0376551,0.000658489,0.0376629,-0.0182837,1.55903,0.0329404,0.0253545,1315,358,4.61845,36.3659
98,666,4.47546,-36.278,-0.0205166,0.0374662,0.000930983,0.0374812,-0.0205316,1.55475,0.0339669,0.0208442,1322,358,4.47551,36.278
105,666,4.36414,-36.1302,-0.0226134,0.0375371,0.00135411,0.0375676,-0.0226438,1.5483,0.0351172,0.0240328,1329,358,4.36417,36.1302
112,666,4.33398,-36.0102,0,0,0,0,0,0,0,-1,1336,358,4.33397,36.0102
119,666,4.36682,-35.8945,0,0,0,0,0,0,0,-1,1343,358,4.36687,35.8945
126,666,4.22388,-35.5658,-0.025925,0.0346312,0.00405094,0.034901,-0.0261948,1.5043,0.0353929,0.0314352,1350,358,4.22383,35.5658
133,666,4.15955,-35.4633,-0.026306,0.0338147,0.00537848,0.0342921,-0.0267834,1.48227,0.0353506,0.0286878,1357,358,4.15957,35.4633
140,666,4.0896,-35.4381,-0.0258465,0.0329399,0.00683006,0.033723,-0.0266296,1.45664,0.0349247,0.0252129,1364,358,4.08959,35.4381
147,666,4.02576,-35.3105,-0.0245721,0.0312432,0.00834554,0.0324643,-0.0257932,1.42551,0.0337084,0.0216533,1371,358,4.02576,35.3105
154,666,4.02112,-35.0052,-0.0216193,0.0302203,0.00945179,0.0318899,-0.0232889,1.39596,0.0319862,0.0198946,1378,358,4.02116,35.0052
161,666,4.04114,-34.7919,-0.0185084,0.0292116,0.0104841,0.0314133,-0.0207102,1.36379,0.0303043,0.0278665,1385,358,4.0411,34.7919
168,666,4.0332,-34.5717,0,0,0,0,0,0,0,-1,1392,358,4.03322,34.5717
175,666,4.13318,-34.7585,0,0,0,0,0,0,0,-1,1399,358,4.13316,34.7585
182,666,2.60876,-5.17068,0,0,0,0,0,0,0,-1,1406,358,2.6088,5.17068
189,666,2.46973,-5.49979,0,0,0,0,0,0,0,-1,1413,358,2.46975,5.49979
196,666,2.32458,-5.23651,0,0,0,0,0,0,0,-1,1420,358,2.32461,5.23653
203,666,2.28064,-3.88004,0,0,0,0,0,0,0,-1,1427,358,2.28059,3.88003
210,666,3.02576,-5.83548,0,0,0,0,0,0,0,-1,1434,358,3.02581,5.83547
217,666,2.30444,-5.36011,0,0,0,0,0,0,0,-1,1441,358,2.30447,5.3601
224,666,1.82324,-6.03101,0,0,0,0,0,0,0,-1,1448,358,1.82322,6.031
231,666,2.29797,-10.1093,0,0,0,0,0,0,0,-1,1455,358,2.29801,10.1093
238,666,2.52429,-6.10568,0,0,0,0,0,0,0,-1,1462,358,2.52423,6.10567
245,666,4.53345,-1.38205,0,0,0,0,0,0,0,-1,1469,358,4.53349,1.38204
252,666,4.77405,-0.246979,0,0,0,0,0,0,0,-1,1476,358,4.77405,0.246993
259,666,4.83655,1.14087,0,0,0,0,0,0,0,-1,1483,358,4.83652,-1.14087
266,666,6.14148,0.749512,0,0,0,0,0,0,0,-1,1490,358,6.14144,-0.749519
273,666,2.61304,-1.53772,0,0,0,0,0,0,0,-1,1497,358,2.613,1.53773
280,666,8.70898,-0.836975,0,0,0,0,0,0,0,-1,1504,358,8.70894,0.836988
287,666,-7.06934,-20.3464,0,0,0,0,0,0,0,-1,1511,358,-7.06933,20.3464
294,666,-7.85376,-22.0297,0,0,0,0,0,0,0,-1,1518,358,-7.85378,22.0297
301,666,-6.78711,-23.9803,0,0,0,0,0,0,0,-1,1525,358,-6.78706,23.9803
308,666,1.08496,-1.87576,0,0,0,0,0,0,0,-1,1532,358,1.08491,1.87575
315,666,1.76294,-0.284027,0,0,0,0,0,0,0,-1,1539,358,1.76291,0.284016
322,666,0,0,0,0,0,0,0,0,0,-1,1546,358,0,0
329,666,0,0,0,0,0,0,0,0,0,-1,1553,358,0,0
336,666,0,0,0,0,0,0,0,0,0,-1,1560,358,0,0
343,666,0,0,0,0,0,0,0,0,0,-1,1567,358,0,0
350,666,0,0,0,0,0,0,0,0,0,-1,1574,358,0,0
357,666,0,0,0,0,0,0,0,0,0,-1,1581,358,0,0
364,666,0,0,0,0,0,0,0,0,0,-1,1588,358,0,0
371,666,0,0,0,0,0,0,0,0,0,-1,1595,358,0,0
378,666,0,0,0,0,0,0,0,0,0,-1,1602,358,0,0
385,666,0,0,0,0,0,0,0,0,0,-1,1609,358,0,0
392,666,0,0,0,0,0,0,0,0,0,-1,1616,358,0,0
399,666,0,0,0,0,0,0,0,0,0,-1,1623,358,0,0
406,666,0,0,0,0,0,0,0,0,0,-1,1630,358,0,0
413,666,0,0,0,0,0,0,0,0,0,-1,1637,358,0,0
420,666,0,0,0,0,0,0,0,0,0,-1,1644,358,0,0
427,666,0,0,0,0,0,0,0,0,0,-1,1651,358,0,0
434,666,0,0,0,0,0,0,0,0,0,-1,1658,358,0,0
441,666,0,0,0,0,0,0,0,0,0,-1,1665,358,0,0
448,666,0,0,0,0,0,0,0,0,0,-1,1672,358,0,0
455,666,0,0,0,0,0,0,0,0,0,-1,1679,358,0,0
462,666,0,0,0,0,0,0,0,0,0,-1,1686,358,0,0
469,666,0,0,0,0,0,0,0,0,0,-1,1693,358,0,0
476,666,0,0,0,0,0,0,0,0,0,-1,1700,358,0,0
483,666,0,0,0,0,0,0,0,0,0,-1,1707,358,0,0
490,666,0,0,0,0,0,0,0,0,0,-1,1714,358,0,0
497,666,0,0,0,0,0,0,0,0,0,-1,1721,358,0,0
504,666,0,0,0,0,0,0,0,0,0,-1,1728,358,0,0
511,666,0,0,0,0,0,0,0,0,0,-1,1735,358,0,0
518,666,0,0,0,0,0,0,0,0,0,-1,1742,358,0,0
525,666,0,0,0,0,0,0,0,0,0,-1,1749,358,0,0
532,666,0,0,0,0,0,0,0,0,0,-1,1756,358,0,0
539,666,0,0,0,0,0,0,0,0,0,-1,1763,358,0,0
546,666,0,0,0,0,0,0,0,0,0,-1,1770,358,0,0
553,666,0,0,0,0,0,0,0,0,0,-1,1777,358,0,0
560,666,0,0,0,0,0,0,0,0,0,-1,1784,358,0,0
567,666,0,0,0,0,0,0,0,0,0,-1,1791,358,0,0
574,666,0,0,0,0,0,0,0,0,0,-1,1798,358,0,0
581,666,0,0,0,0,0,0,0,0,0,-1,1805,358,0,0
588,666,0,0,0,0,0,0,0,0,0,-1,1812,358,0,0
595,666,0,0,0,0,0,0,0,0,0,-1,1819,358,0,0
602,666,0,0,0,0,0,0,0,0,0,-1,1826,358,0,0
609,666,0,0,0,0,0,0,0,0,0,-1,1833,358,0,0
616,666,0,0,0,0,0,0,0,0,0,-1,1840,358,0,0
623,666,0,0,0,0,0,0,0,0,0,-1,1847,358,0,0
630,666,0,0,0,0,0,0,0,0,0,-1,1854,358,0,0
637,666,0,0,0,0,0,0,0,0,0,-1,1861,358,0,0
644,666,0,0,0,0,0,0,0,0,0,-1,1868,358,0,0
651,666,0,0,0,0,0,0,0,0,0,-1,1875,358,0,0
658,666,0,0,0,0,0,0,0,0,0,-1,1882,358,0,0
665,666,0,0,0,0,0,0,0,0,0,-1,1889,358,0,0
672,666,0,0,0,0,0,0,0,0,0,-1,1896,358,0,0
679,666,0,0,0,0,0,0,0,0,0,-1,1903,358,0,0
686,666,0,0,0,0,0,0,0,0,0,-1,1910,358,0,0
693,666,0,0,0,0,0,0,0,0,0,-1,1917,358,0,0
700,666,0,0,0,0,0,0,0,0,0,-1,1924,358,0,0
707,666,0,0,0,0,0,0,0,0,0,-1,1931,358,0,0
714,666,0,0,0,0,0,0,0,0,0,-1,1938,358,0,0
721,666,0,0,0,0,0,0,0,0,0,-1,1945,358,0,0
728,666,0,0,0,0,0,0,0,0,0,-1,1952,358,0,0
735,666,0,0,0,0,0,0,0,0,0,-1,1959,358,0,0
742,666,0,0,0,0,0,0,0,0,0,-1,1966,358,0,0
749,666,0,0,0,0,0,0,0,0,0,-1,1973,358,0,0
756,666,0,0,0,0,0,0,0,0,0,-1,1980,358,0,0
763,666,0,0,0,0,0,0,0,0,0,-1,1987,358,0,0
770,666,0,0,0,0,0,0,0,0,0,-1,1994,358,0,0
777,666,0,0,0,0,0,0,0,0,0,-1,2001,358,0,0
784,666,0,0,0,0,0,0,0,0,0,-1,2008,358,0,0
791,666,0,0,0,0,0,0,0,0,0,-1,2015,358,0,0
798,666,0,0,0,0,0,0,0,0,0,-1,2022,358,0,0
805,666,0,0,0,0,0,0,0,0,0,-1,2029,358,0,0
812,666,0,0,0,0,0,0,0,0,0,-1,2036,358,0,0
-700,659,0,0,0,0,0,0,0,0,0,-1,524,365,0,0
-693,659,0,0,0,0,0,0,0,0,0,-1,531,365,0,0
-686,659,0,0,0,0,0,0,0,0,0,-1,538,365,0,0
-679,659,0,0,0,0,0,0,0,0,0,-1,545,365,0,0
-672,659,0,0,0,0,0,0,0,0,0,-1,552,365,0,0
-665,659,0,0,0,0,0,0,0,0,0,-1,559,365,0,0
-658,659,0,0,0,0,0,0,0,0,0,-1,566,365,0,0
-651,659,0,0,0,0,0,0,0,0,0,-1,573,365,0,0
-644,659,0,0,0,0,0,0,0,0,0,-1,580,365,0,0
-637,659,0,0,0,0,0,0,0,0,0,-1,587,365,0,0
-630,659,0,0,0,0,0,0,0,0,0,-1,594,365,0,0
-623,659,0,0,0,0,0,0,0,0,0,-1,601,365,0,0
-616,659,0,0,0,0,0,0,0,0,0,-1,608,365,0,0
-609,659,0,0,0,0,0,0,0,0,0,-1,615,365,0,0
-602,659,0,0,0,0,0,0,0,0,0,-1,622,365,0,0
-595,659,0,0,0,0,0,0,0,0,0,-1,629,365,0,0
-588,659,0,0,0,0,0,0,0,0,0,-1,636,365,0,0
-581,659,0,0,0,0,0,0,0,0,0,-1,643,365,0,0
-574,659,0,0,0,0,0,0,0,0,0,-1,650,365,0,0
-567,659,0,0,0,0,0,0,0,0,0,-1,657,365,0,0
-560,659,0,0,0,0,0,0,0,0,0,-1,664,365,0,0
-553,659,0,0,0,0,0,0,0,0,0,-1,671,365,0,0
-546,659,0,0,0,0,0,0,0,0,0,-1,678,365,0,0
-539,659,0,0,0,0,0,0,0,0,0,-1,685,365,0,0
-532,659,0,0,0,0,0,0,0,0,0,-1,692,365,0,0
-525,659,0,0,0,0,0,0,0,0,0,-1,699,365,0,0
-518,659,0,0,0,0,0,0,0,0,0,-1,706,365,0,0
-511,659,0,0,0,0,0,0,0,0,0,-1,713,365,0,0
-504,659,0,0,0,0,0,0,0,0,0,-1,720,365,0,0
-497,659,0,0,0,0,0,0,0,0,0,-1,727,365,0,0
-490,659,0,0,0,0,0,0,0,0,0,-1,734,365,0,0
-483,659,0,0,0,0,0,0,0,0,0,-1,741,365,0,0
-476,659,0,0,0,0,0,0,0,0,0,-1,748,365,0,0
-469,659,0,0,0,0,0,0,0,0,0,-1,755,365,0,0
-462,659,0,0,0,0,0,0,0,0,0,-1,762,365,0,0
-455,659,0,0,0,0,0,0,0,0,0,-1,769,365,0,0
-448,659,0,0,0,0,0,0,0,0,0,-1,776,365,0,0
-441,659,0,0,0,0,0,0,0,0,0,-1,783,365,0,0
-434,659,0,0,0,0,0,0,0,0,0,-1,790,365,0,0
-427,659,0,0,0,0,0,0,0,0,0,-1,797,365,0,0
-420,659,0,0,0,0,0,0,0,0,0,-1,804,365,0,0
-413,659,0,0,0,0,0,0,0,0,0,-1,811,365,0,0
-406,659,0,0,0,0,0,0,0,0,0,-1,818,365,0,0
-399,659,0,0,0,0,0,0,0,0,0,-1,825,365,0,0
-392,659,0,0,0,0,0,0,0,0,0,-1,832,365,0,0
-385,659,0,0,0,0,0,0,0,0,0,-1,839,365,0,0
-378,659,0,0,0,0,0,0,0,0,0,-1,846,365,0,0
-371,659,0,0,0,0,0,0,0,0,0,-1,853,365,0,0
-364,659,0,0,0,0,0,0,0,0,0,-1,860,365,0,0
-357,659,0,0,0,0,0,0,0,0,0,-1,867,365,0,0
-350,659,0,0,0,0,0,0,0,0,0,-1,874,365,0,0
-343,659,0,0,0,0,0,0,0,0,0,-1,881,365,0,0
-336,659,0,0,0,0,0,0,0,0,0,-1,888,365,0,0
-329,659,0,0,0,0,0,0,0,0,0,-1,895,365,0,0
-322,659,0,0,0,0,0,0,0,0,0,-1,902,365,0,0
-315,659,0,0,0,0,0,0,0,0,0,-1,909,365,0,0
-308,659,0,0,0,0,0,0,0,0,0,-1,916,365,0,0
-301,659,0,0,0,0,0,0,0,0,0,-1,923,365,0,0
-294,659,0,0,0,0,0,0,0,0,0,-1,930,365,0,0
-287,659,0,0,0,0,0,0,0,0,0,-1,937,365,0,0
-280,659,0,0,0,0,0,0,0,0,0,-1,944,365,0,0
-273,659,0,0,0,0,0,0,0,0,0,-1,951,365,0,0
-266,659,0,0,0,0,0,0,0,0,0,-1,958,365,0,0
-259,659,0,0,0,0,0,0,0,0,0,-1,965,365,0,0
-252,659,0,0,0,0,0,0,0,0,0,-1,972,365,0,0
-245,659,0,0,0,0,0,0,0,0,0,-1,979,365,0,0
-238,659,0,0,0,0,0,0,0,0,0,-1,986,365,0,0
-231,659,0,0,0,0,0,0,0,0,0,-1,993,365,0,0
-224,659,0,0,0,0,0,0,0,0,0,-1,1000,365,0,0
-217,659,1.58905,-25.7653,0,0,0,0,0,0,0,-1,1007,365,1.58908,25.7652
-210,659,2.664,-25.0039,0,0,0,0,0,0,0,-1,1014,365,2.664,25.0039
-203,659,3.73035,-22.9587,0,0,0,0,0,0,0,-1,1021,365,3.7304,22.9587
-196,659,5.67261,-27.8178,0,0,0,0,0,0,0,-1,1028,365,5.6726,27.8178
-189,659,6.2627,-28.6762,0,0,0,0,0,0,0,-1,1035,365,6.26268,28.6762
-182,659,6.8916,-29.8975,0.0812062,-0.0158597,0.0363559,0.0933132,-0.0279667,0.321462,0.0733308,0.0442515,1042,365,6.89156,29.8975
-175,659,7.41772,-31.1898,0.0742175,-0.0377317,0.0306748,0.0820716,-0.0455858,0.250658,0.0746997,0.0410263,1049,365,7.41767,31.1898
-168,659,7.81958,-32.1324,0.0665006,-0.0492609,0.0255651,0.0718951,-0.0546554,0.207959,0.0732896,0.0405901,1056,365,7.81961,32.1323
-161,659,8.29919,-33.194,0,0,0,0,0,0,0,-1,1063,365,8.29923,33.194
-154,659,6.22522,-30.9985,0,0,0,0,0,0,0,-1,1070,365,6.22526,30.9985
-147,659,6.13574,-31.2281,0,0,0,0,0,0,0,-1,1077,365,6.13573,31.2281
-140,659,6.4021,-31.6709,0,0,0,0,0,0,0,-1,1084,365,6.40213,31.6709
-133,659,6.08923,-31.5665,0,0,0,0,0,0,0,-1,1091,365,6.08925,31.5665
-126,659,5.76367,-31.7606,0,0,0,0,0,0,0,-1,1098,365,5.76365,31.7606
-119,659,5.48938,-31.8636,0,0,0,0,0,0,0,-1,1105,365,5.4894,31.8637
-112,659,5.76721,-32.3366,0,0,0,0,0,0,0,-1,1112,365,5.76718,32.3366
-105,659,5.38696,-30.5854,0,0,0,0,0,0,0,-1,1119,365,5.387,30.5854
-98,659,4.68042,-26.2438,0,0,0,0,0,0,0,-1,1126,365,4.68041,26.2438
-91,659,4.20776,-20.8654,0,0,0,0,0,0,0,-1,1133,365,4.20777,20.8654
-84,659,2.8584,-17.8303,0,0,0,0,0,0,0,-1,1140,365,2.85836,17.8303
-77,659,2.80139,-15.3457,0,0,0,0,0,0,0,-1,1147,365,2.80139,15.3457
-70,659,2.9353,-12.7028,0,0,0,0,0,0,0,-1,1154,365,2.93533,12.7028
-63,659,2.11267,-9.7796,0,0,0,0,0,0,0,-1,1161,365,2.11266,9.7796
-56,659,2.11182,-9.91541,0,0,0,0,0,0,0,-1,1168,365,2.11178,9.91541
-49,659,5.30505,-35.0555,0,0,0,0,0,0,0,-1,1175,365,5.30503,35.0555
-42,659,5.03894,-35.5238,0,0,0,0,0,0,0,-1,1182,365,5.03897,35.5238
-35,659,5.21643,-35.4731,-0.00852464,-0.0292642,0.0127943,-0.00242547,-0.0353634,0.444843,0.0228101,0.0428528,1189,365,5.21647,35.4731
-28,659,5.22424,-35.5655,-0.00608554,-0.0138191,0.00693979,-0.00200797,-0.0178966,0.531226,0.0113213,0.0162327,1196,365,5.22421,35.5655
-21,659,5.17566,-35.7232,-0.00335667,0.00137925,-0.000142428,0.00138353,-0.00336095,-1.54076,0.00281741,0.0122282,1203,365,5.17571,35.7232
-14,659,5.1123,-35.8922,-0.00189277,0.0104015,-0.00471931,0.0120041,-0.00349542,-1.24342,0.00938737,0.0102575,1210,365,5.11231,35.8922
-7,659,5.05981,-36.0005,-0.00203919,0.0106014,-0.00523827,0.01249,-0.00392777,-1.22477,0.00989916,0.0103187,1217,365,5.05985,36.0005
0,659,5.04846,-36.1155,-0.00193289,0.0102677,-0.00546493,0.0123576,-0.00402278,-1.20554,0.00985686,0.00890075,1224,365,5.04841,36.1155
7,659,5.03235,-36.2125,-0.0021158,0.0102229,-0.00552852,0.0123376,-0.00423049,-1.20546,0.00994,0.0086456,1231,365,5.03234,36.2125
14,659,4.98267,-36.256,-0.0027374,0.0110345,-0.0052395,0.0128012,-0.00450412,-1.24558,0.010367,0.0115188,1238,365,4.98271,36.256
21,659,4.94165,-36.3363,-0.00315883,0.0121531,-0.00477504,0.0135201,-0.00452588,-1.29196,0.0108417,0.0124328,1245,365,4.94161,36.3363
28,659,4.89539,-36.4149,-0.00343617,0.0134711,-0.00414078,0.0144307,-0.00439582,-1.34306,0.0113726,0.0113813,1252,365,4.89544,36.4149
35,659,4.87744,-36.4698,-0.00358091,0.0148724,-0.0034238,0.0154872,-0.00419567,-1.39313,0.011971,0.0117736,1259,365,4.87742,36.4698
42,659,4.8479,-36.51,-0.0038406,0.0168768,-0.00270417,0.0172239,-0.00418775,-1.44312,0.0131035,0.0123715,1266,365,4.84788,36.5101
49,659,4.79443,-36.5305,-0.00437277,0.0189789,-0.00197259,0.0191444,-0.00453823,-1.48711,0.0145141,0.0117949,1273,365,4.7944,36.5305
56,659,4.74377,-36.5584,-0.00509788,0.0208816,-0.0014461,0.0209618,-0.00517812,-1.51536,0.0159827,0.0152093,1280,365,4.74376,36.5584
63,659,4.7489,-36.5793,-0.00606493,0.0227707,-0.00107895,0.022811,-0.00610524,-1.53345,0.017599,0.0163479,1287,365,4.74894,36.5793
70,659,4.70422,-36.564,-0.00705547,0.0242781,-0.000778696,0.0242974,-0.00707481,-1.54596,0.0190008,0.0168997,1294,365,4.70417,36.564
77,659,4.62366,-36.5197,-0.00863397,0.0265181,-0.000279842,0.0265204,-0.0086362,-1.56284,0.021155,0.0171563,1301,365,4.62363,36.5197
84,659,4.58386,-36.5196,-0.0104895,0.0275565,0.000176929,0.0275573,-0.0104903,1.56615,0.0226915,0.0129961,1308,365,4.58387,36.5196
91,659,4.54333,-36.4661,-0.0122295,0.028451,0.000433461,0.0284556,-0.0122342,1.56014,0.0241065,0.011641,1315,365,4.54333,36.4661
98,659,4.51526,-36.3767,-0.013944,0.0285053,0.000567579,0.0285129,-0.0139516,1.55743,0.0249927,0.00834479,1322,365,4.51527,36.3767
105,659,4.49194,-36.2698,-0.0155683,0.0288082,0.000805378,0.0288228,-0.0155829,1.55266,0.0260147,0.0100914,1329,365,4.492,36.2698
112,659,4.47925,-36.1591,-0.0167919,0.028785,0.00123054,0.0288182,-0.0168251,1.54382,0.0266536,0.0148012,1336,365,4.47926,36.1591
119,659,4.43286,-36.0365,-0.0175273,0.0280279,0.00175148,0.0280952,-0.0175946,1.53242,0.0266102,0.016221,1343,365,4.43285,36.0365
126,659,4.35779,-35.8826,-0.0181227,0.0272698,0.00246211,0.0274029,-0.0182559,1.51677,0.0265369,0.0139019,1350,365,4.35773,35.8826
133,659,4.29639,-35.7406,-0.018377,0.0266133,0.0033139,0.0268561,-0.0186198,1.49766,0.0263987,0.012611,1357,365,4.29644,35.7406
140,659,4.25623,-35.6521,-0.0180231,0.0259519,0.00426508,0.0263617,-0.0184329,1.475,0.0259969,0.00967358,1364,365,4.25624,35.6521
147,659,4.22388,-35.5042,-0.0170934,0.024636,0.0052621,0.0252893,-0.0177467,1.44727,0.0249737,0.00868114,1371,365,4.22384,35.5042
154,659,4.16858,-35.3044,-0.0149409,0.0239181,0.00591667,0.024799,-0.0158218,1.423,0.0236426,0.00990109,1378,365,4.16861,35.3043
161,659,4.14038,-35.1087,-0.0126337,0.0231387,0.00656166,0.0243043,-0.0137993,1.39499,0.0222761,0.0114851,1385,365,4.14039,35.1087
168,659,4.13379,-34.8965,-0.0103568,0.0219072,0.00701993,0.0233684,-0.011818,1.36558,0.0206765,0.0186748,1392,365,4.13373,34.8965
175,659,4.1311,-34.7064,-0.00908676,0.0206637,0.0068946,0.0221839,-0.0106069,1.35379,0.0193211,0.0417331,1399,365,4.13111,34.7064
182,659,4.0155,-34.5666,0,0,0,0,0,0,0,-1,1406,365,4.01554,34.5666
189,659,4.02112,-34.1704,0,0,0,0,0,0,0,-1,1413,365,4.0211,34.1704
196,659,2.41248,-13.4371,0,0,0,0,0,0,0,-1,1420,365,2.41243,13.4371
203,659,2.38623,-12.2163,0,0,0,0,0,0,0,-1,1427,365,2.38617,12.2163
210,659,2.20789,-13.9792,0,0,0,0,0,0,0,-1,1434,365,2.20794,13.9792
217,659,2.24121,-13.487,0,0,0,0,0,0,0,-1,1441,365,2.24116,13.487
224,659,2.3479,-15.2926,0,0,0,0,0,0,0,-1,1448,365,2.34793,15.2926
231,659,2.47974,-17.8629,0,0,0,0,0,0,0,-1,1455,365,2.47976,17.8628
238,659,3.57886,-21.1258,0,0,0,0,0,0,0,-1,1462,365,3.57889,21.1258
245,659,3.29883,-25.0283,0,0,0,0,0,0,0,-1,1469,365,3.29889,25.0283
252,659,2.81909,-24.1604,0,0,0,0,0,0,0,-1,1476,365,2.81905,24.1604
259,659,2.33069,-3.36703,0,0,0,0,0,0,0,-1,1483,365,2.33073,3.36702
266,659,1.72681,-17.183,0,0,0,0,0,0,0,-1,1490,365,1.72683,17.183
273,659,3.39673,-30.2004,0,0,0,0,0,0,0,-1,1497,365,3.39677,30.2004
280,659,-6.90784,-17.1906,0,0,0,0,0,0,0,-1,1504,365,-6.90789,17.1906
287,659,-6.03333,-19.2684,0,0,0,0,0,0,0,-1,1511,365,-6.03339,19.2684
294,659,-5.25952,-20.9666,0,0,0,0,0,0,0,-1,1518,365,-5.25957,20.9666
301,659,-5.29114,-21.9673,0,0,0,0,0,0,0,-1,1525,365,-5.29112,21.9673
308,659,-5.40784,-23.3611,0,0,0,0,0,0,0,-1,1532,365,-5.40784,23.3611
315,659,-5.05042,-23.7235,0,0,0,0,0,0,0,-1,1539,365,-5.05045,23.7235
322,659,0.382813,-2.2424,0,0,0,0,0,0,0,-1,1546,365,0.382801,2.2424
329,659,0.604004,-1.75998,0,0,0,0,0,0,0,-1,1553,365,0.603966,1.75998
336,659,4.55933,-25.2647,0,0,0,0,0,0,0,-1,1560,365,4.55935,25.2647
343,659,0,0,0,0,0,0,0,0,0,-1,1567,365,0,0
350,659,0,0,0,0,0,0,0,0,0,-1,1574,365,0,0
357,659,0,0,0,0,0,0,0,0,0,-1,1581,365,0,0
364,659,0,0,0,0,0,0,0,0,0,-1,1588,365,0,0
371,659,0,0,0,0,0,0,0,0,0,-1,1595,365,0,0
378,659,0,0,0,0,0,0,0,0,0,-1,1602,365,0,0
385,659,0,0,0,0,0,0,0,0,0,-1,1609,365,0,0
392,659,0,0,0,0,0,0,0,0,0,-1,1616,365,0,0
399,659,0,0,0,0,0,0,0,0,0,-1,1623,365,0,0
406,659,0,0,0,0,0,0,0,0,0,-1,1630,365,0,0
413,659,0,0,0,0,0,0,0,0,0,-1,1637,365,0,0
420,659,0,0,0,0,0,0,0,0,0,-1,1644,365,0,0
427,659,0,0,0,0,0,0,0,0,0,-1,1651,365,0,0
434,659,0,0,0,0,0,0,0,0,0,-1,1658,365,0,0
441,659,0,0,0,0,0,0,0,0,0,-1,1665,365,0,0
448,659,0,0,0,0,0,0,0,0,0,-1,1672,365,0,0
455,659,0,0,0,0,0,0,0,0,0,-1,1679,365,0,0
462,659,0,0,0,0,0,0,0,0,0,-1,1686,365,0,0
469,659,0,0,0,0,0,0,0,0,0,-1,1693,365,0,0
476,659,0,0,0,0,0,0,0,0,0,-1,1700,365,0,0
483,659,0,0,0,0,0,0,0,0,0,-1,1707,365,0,0
490,659,0,0,0,0,0,0,0,0,0,-1,1714,365,0,0
497,659,0,0,0,0,0,0,0,0,0,-1,1721,365,0,0
504,659,0,0,0,0,0,0,0,0,0,-1,1728,365,0,0
511,659,0,0,0,0,0,0,0,0,0,-1,1735,365,0,0
518,659,0,0,0,0,0,0,0,0,0,-1,1742,365,0,0
525,659,0,0,0,0,0,0,0,0,0,-1,1749,365,0,0
532,659,0,0,0,0,0,0,0,0,0,-1,1756,365,0,0
539,659,0,0,0,0,0,0,0,0,0,-1,1763,365,0,0
546,659,0,0,0,0,0,0,0,0,0,-1,1770,365,0,0
553,659,0,0,0,0,0,0,0,0,0,-1,1777,365,0,0
560,659,0,0,0,0,0,0,0,0,0,-1,1784,365,0,0
567,659,0,0,0,0,0,0,0,0,0,-1,1791,365,0,0
574,659,0,0,0,0,0,0,0,0,0,-1,1798,365,0,0
581,659,0,0,0,0,0,0,0,0,0,-1,1805,365,0,0
588,659,0,0,0,0,0,0,0,0,0,-1,1812,365,0,0
595,659,0,0,0,0,0,0,0,0,0,-1,1819,365,0,0
602,659,0,0,0,0,0,0,0,0,0,-1,1826,365,0,0
609,659,0,0,0,0,0,0,0,0,0,-1,1833,365,0,0
616,659,0,0,0,0,0,0,0,0,0,-1,1840,365,0,0
623,659,0,0,0,0,0,0,0,0,0,-1,1847,365,0,0
630,659,0,0,0,0,0,0,0,0,0,-1,1854,365,0,0
637,659,0,0,0,0,0,0,0,0,0,-1,1861,365,0,0
644,659,0,0,0,0,0,0,0,0,0,-1,1868,365,0,0
651,659,0,0,0,0,0,0,0,0,0,-1,1875,365,0,0
658,659,0,0,0,0,0,0,0,0,0,-1,1882,365,0,0
665,659,0,0,0,0,0,0,0,0,0,-1,1889,365,0,0
672,659,0,0,0,0,0,0,0,0,0,-1,1896,365,0,0
679,659,0,0,0,0,0,0,0,0,0,-1,1903,365,0,0
686,659,0,0,0,0,0,0,0,0,0,-1,1910,365,0,0
693,659,0,0,0,0,0,0,0,0,0,-1,1917,365,0,0
700,659,0,0,0,0,0,0,0,0,0,-1,1924,365,0,0
707,659,0,0,0,0,0,0,0,0,0,-1,1931,365,0,0
714,659,0,0,0,0,0,0,0,0,0,-1,1938,365,0,0
721,659,0,0,0,0,0,0,0,0,0,-1,1945,365,0,0
728,659,0,0,0,0,0,0,0,0,0,-1,1952,365,0,0
735,659,0,0,0,0,0,0,0,0,0,-1,1959,365,0,0
742,659,0,0,0,0,0,0,0,0,0,-1,1966,365,0,0
749,659,0,0,0,0,0,0,0,0,0,-1,1973,365,0,0
756,659,0,0,0,0,0,0,0,0,0,-1,1980,365,0,0
763,659,0,0,0,0,0,0,0,0,0,-1,1987,365,0,0
770,659,0,0,0,0,0,0,0,0,0,-1,1994,365,0,0
777,659,0,0,0,0,0,0,0,0,0,-1,2001,365,0,0
784,659,0,0,0,0,0,0,0,0,0,-1,2008,365,0,0
791,659,0,0,0,0,0,0,0,0,0,-1,2015,365,0,0
798,659,0,0,0,0,0,0,0,0,0,-1,2022,365,0,0
805,659,0,0,0,0,0,0,0,0,0,-1,2029,365,0,0
812,659,0,0,0,0,0,0,0,0,0,-1,2036,365,0,0
-700,652,0,0,0,0,0,0,0,0,0,-1,524,372,0,0
-693,652,0,0,0,0,0,0,0,0,0,-1,531,372,0,0
-686,652,0,0,0,0,0,0,0,0,0,-1,538,372,0,0
-679,652,0,0,0,0,0,0,0,0,0,-1,545,372,0,0
-672,652,0,0,0,0,0,0,0,0,0,-1,552,372,0,0
-665,652,0,0,0,0,0,0,0,0,0,-1,559,372,0,0
-658,652,0,0,0,0,0,0,0,0,0,-1,566,372,0,0
-651,652,0,0,0,0,0,0,0,0,0,-1,573,372,0,0
-644,652,0,0,0,0,0,0,0,0,0,-1,580,372,0,0
-637,652,0,0,0,0,0,0,0,0,0,-1,587,372,0,0
-630,652,0,0,0,0,0,0,0,0,0,-1,594,372,0,0
-623,652,0,0,0,0,0,0,0,0,0,-1,601,372,0,0
-616,652,0,0,0,0,0,0,0,0,0,-1,608,372,0,0
-609,652,0,0,0,0,0,0,0,0,0,-1,615,372,0,0
-602,652,0,0,0,0,0,0,0,0,0,-1,622,372,0,0
-595,652,0,0,0,0,0,0,0,0,0,-1,629,372,0,0
-588,652,0,0,0,0,0,0,0,0,0,-1,636,372,0,0
-581,652,0,0,0,0,0,0,0,0,0,-1,643,372,0,0
-574,652,0,0,0,0,0,0,0,0,0,-1,650,372,0,0
-567,652,0,0,0,0,0,0,0,0,0,-1,657,372,0,0
-560,652,0,0,0,0,0,0,0,0,0,-1,664,372,0,0
-553,652,0,0,0,0,0,0,0,0,0,-1,671,372,0,0
-546,652,0,0,0,0,0,0,0,0,0,-1,678,372,0,0
-539,652,0,0,0,0,0,0,0,0,0,-1,685,372,0,0
-532,652,0,0,0,0,0,0,0,0,0,-1,692,372,0,0
-525,652,0,0,0,0,0,0,0,0,0,-1,699,372,0,0
-518,652,0,0,0,0,0,0,0,0,0,-1,706,372,0,0
-511,652,0,0,0,0,0,0,0,0,0,-1,713,372,0,0
-504,652,0,0,0,0,0,0,0,0,0,-1,720,372,0,0
-497,652,0,0,0,0,0,0,0,0,0,-1,727,372,0,0
-490,652,0,0,0,0,0,0,0,0,0,-1,734,372,0,0
-483,652,0,0,0,0,0,0,0,0,0,-1,741,372,0,0
-476,652,0,0,0,0,0,0,0,0,0,-1,748,372,0,0
-469,652,0,0,0,0,0,0,0,0,0,-1,755,372,0,0
-462,652,0,0,0,0,0,0,0,0,0,-1,762,372,0,0
-455,652,0,0,0,0,0,0,0,0,0,-1,769,372,0,0
-448,652,0,0,0,0,0,0,0,0,0,-1,776,372,0,0
-441,652,0,0,0,0,0,0,0,0,0,-1,783,372,0,0
-434,652,0,0,0,0,0,0,0,0,0,-1,790,372,0,0
-427,652,0,0,0,0,0,0,0,0,0,-1,797,372,0,0
-420,652,0,0,0,0,0,0,0,0,0,-1,804,372,0,0
-413,652,0,0,0,0,0,0,0,0,0,-1,811,372,0,0
-406,652,0,0,0,0,0,0,0,0,0,-1,818,372,0,0
-399,652,0,0,0,0,0,0,0,0,0,-1,825,372,0,0
-392,652,0,0,0,0,0,0,0,0,0,-1,832,372,0,0
-385,652,0,0,0,0,0,0,0,0,0,-1,839,372,0,0
-378,652,0,0,0,0,0,0,0,0,0,-1,846,372,0,0
-371,652,0,0,0,0,0,0,0,0,0,-1,853,372,0,0
-364,652,0,0,0,0,0,0,0,0,0,-1,860,372,0,0
-357,652,0,0,0,0,0,0,0,0,0,-1,867,372,0,0
-350,652,0,0,0,0,0,0,0,0,0,-1,874,372,0,0
-343,652,0,0,0,0,0,0,0,0,0,-1,881,372,0,0
-336,652,0,0,0,0,0,0,0,0,0,-1,888,372,0,0
-329,652,0,0,0,0,0,0,0,0,0,-1,895,372,0,0
-322,652,0,0,0,0,0,0,0,0,0,-1,902,372,0,0
-315,652,0,0,0,0,0,0,0,0,0,-1,909,372,0,0
-308,652,0,0,0,0,0,0,0,0,0,-1,916,372,0,0
-301,652,0,0,0,0,0,0,0,0,0,-1,923,372,0,0
-294,652,0,0,0,0,0,0,0,0,0,-1,930,372,0,0
-287,652,0,0,0,0,0,0,0,0,0,-1,937,372,0,0
-280,652,0,0,0,0,0,0,0,0,0,-1,944,372,0,0
-273,652,0,0,0,0,0,0,0,0,0,-1,951,372,0,0
-266,652,0,0,0,0,0,0,0,0,0,-1,958,372,0,0
-259,652,0,0,0,0,0,0,0,0,0,-1,965,372,0,0
-252,652,0,0,0,0,0,0,0,0,0,-1,972,372,0,0
-245,652,0,0,0,0,0,0,0,0,0,-1,979,372,0,0
-238,652,0,0,0,0,0,0,0,0,0,-1,986,372,0,0
-231,652,8.68457,-21.315,0,0,0,0,0,0,0,-1,993,372,8.68455,21.315
-224,652,9.47449,-18.002,0,0,0,0,0,0,0,-1,1000,372,9.47449,18.002
-217,652,1.80139,-26.709,0,0,0,0,0,0,0,-1,1007,372,1.80137,26.709
-210,652,3.45135,-25.7451,0,0,0,0,0,0,0,-1,1014,372,3.45133,25.7451
-203,652,3.90735,-24.7894,0.07811,0.0824498,0.0480889,0.128418,0.0321421,0.807944,0.0771625,0.0443099,1021,372,3.90733,24.7894
-196,652,4.30688,-24.0716,0.0743947,0.049345,0.041065,0.104802,0.0189373,0.637379,0.0644894,0.047287,1028,372,4.30686,24.0716
-189,652,4.89392,-28.0488,0,0,0,0,0,0,0,-1,1035,372,4.89394,28.0488
-182,652,5.51892,-29.209,0.0642578,-0.00495209,0.0296761,0.0752398,-0.0159341,0.354435,0.0562289,0.0468872,1042,372,5.51888,29.209
-175,652,6.15466,-30.4038,0.0581057,-0.0219093,0.0250557,0.065304,-0.0291076,0.279758,0.055828,0.0420279,1049,372,6.15472,30.4038
-168,652,6.72522,-31.238,0.0513831,-0.0314156,0.0208987,0.056359,-0.0363915,0.233743,0.0539616,0.0385947,1056,372,6.72525,31.238
-161,652,7.10266,-32.2863,0.0443956,-0.0345317,0.0170244,0.0479111,-0.0380472,0.203637,0.0497369,0.0428215,1063,372,7.1026,32.2863
-154,652,7.302,-33.44,0,0,0,0,0,0,0,-1,1070,372,7.30196,33.44
-147,652,6.05054,-31.4293,0,0,0,0,0,0,0,-1,1077,372,6.05052,31.4293
-140,652,5.37341,-31.0604,0,0,0,0,0,0,0,-1,1084,372,5.37343,31.0604
-133,652,5.76013,-31.2809,0,0,0,0,0,0,0,-1,1091,372,5.76013,31.2809
-126,652,5.64246,-31.6842,0.00619071,-0.0232346,0.00775518,0.0081095,-0.0251534,0.24255,0.0200271,0.043151,1098,372,5.64242,31.6842
-119,652,5.49597,-32.1174,-0.00473831,-0.0354772,0.0147568,0.00119912,-0.0414147,0.382532,0.028018,0.0399289,1105,372,5.49601,32.1174
-112,652,5.49707,-32.5252,-0.0123997,-0.0411461,0.0186614,-0.00321794,-0.0503279,0.457242,0.0325323,0.0400591,1112,372,5.49712,32.5252
-105,652,5.47949,-32.7331,0,0,0,0,0,0,0,-1,1119,372,5.47943,32.7331
-98,652,5.56665,-32.7643,0,0,0,0,0,0,0,-1,1126,372,5.56668,32.7643
-91,652,5.66296,-32.9003,0,0,0,0,0,0,0,-1,1133,372,5.66297,32.9003
-84,652,5.24219,-32.708,0,0,0,0,0,0,0,-1,1140,372,5.24221,32.708
-77,652,5.32617,-34.0462,0,0,0,0,0,0,0,-1,1147,372,5.32612,34.0462
-70,652,5.28174,-34.3968,0,0,0,0,0,0,0,-1,1154,372,5.28173,34.3968
-63,652,5.27405,-34.6455,0,0,0,0,0,0,0,-1,1161,372,5.27405,34.6456
-56,652,5.19141,-34.8721,0,0,0,0,0,0,0,-1,1168,372,5.1914,34.8721
-49,652,5.20276,-35.0924,-0.0100963,-0.042379,0.0178594,-0.00216489,-0.0503104,0.417942,0.0328425,0.038115,1175,372,5.2028,35.0924
-42,652,5.14136,-35.2478,-0.00788713,-0.029016,0.0124847,-0.00209693,-0.0348062,0.434258,0.0225377,0.0119874,1182,372,5.14131,35.2478
-35,652,5.12061,-35.4202,-0.00609242,-0.0171028,0.00781458,-0.00203859,-0.0211566,0.478536,0.0134764,0.00990334,1189,372,5.12062,35.4202
-28,652,5.07605,-35.587,-0.00441785,-0.00722622,0.00414246,-0.00144805,-0.010196,0.621989,0.00636977,0.0080816,1196,372,5.07611,35.587
-21,652,5.02393,-35.7681,-0.00255329,0.00262936,-0.00033227,0.00265057,-0.0025745,-1.50703,0.00301681,0.0080578,1203,372,5.02398,35.7681
-14,652,5.00586,-35.9192,-0.00151578,0.00828877,-0.00318908,0.00923478,-0.00246179,-1.28242,0.00712042,0.0101693,1210,372,5.00588,35.9192
-7,652,4.97278,-36.032,-0.00149258,0.00829856,-0.00348496,0.00941228,-0.0026063,-1.26148,0.00730038,0.0128295,1217,372,4.97274,36.032
0,652,4.95618,-36.142,-0.00132581,0.00790272,-0.00361726,0.00915157,-0.00257465,-1.23836,0.00711624,0.0120654,1224,372,4.95612,36.142
7,652,4.92944,-36.2048,-0.00138052,0.00773575,-0.00366989,0.00902951,-0.00267428,-1.23187,0.00708147,0.0126446,1231,372,4.92945,36.2048
14,652,4.89819,-36.3001,-0.00166009,0.00788653,-0.00355096,0.00906249,-0.00283604,-1.251,0.0071763,0.0115018,1238,372,4.89816,36.3001
21,652,4.86316,-36.4065,-0.00181483,0.00835254,-0.00330439,0.00933209,-0.00279438,-1.28261,0.00733254,0.0114656,1245,372,4.86317,36.4065
28,652,4.84814,-36.4925,-0.00185948,0.00908711,-0.00292767,0.00982092,-0.00259329,-1.32521,0.00756143,0.0106843,1252,372,4.84816,36.4925
35,652,4.81238,-36.534,-0.00181384,0.00990424,-0.00248981,0.0104113,-0.00232093,-1.36988,0.00783003,0.0103869,1259,372,4.81237,36.534
42,652,4.77661,-36.5556,-0.00179006,0.0112451,-0.00202348,0.011552,-0.00209695,-1.42028,0.00848708,0.0109154,1266,372,4.77664,36.5556
49,652,4.77209,-36.5759,-0.00189131,0.0126599,-0.00152086,0.0128171,-0.00204857,-1.46776,0.0093031,0.0136713,1273,372,4.7721,36.5759
56,652,4.74402,-36.5858,-0.00223396,0.0139616,-0.00122015,0.014053,-0.00232537,-1.49602,0.0102322,0.0162846,1280,372,4.74406,36.5858
63,652,4.73352,-36.6116,-0.00270168,0.0153118,-0.00101215,0.0153685,-0.00275838,-1.51484,0.0112781,0.0199582,1287,372,4.73357,36.6116
70,652,4.69946,-36.5712,-0.00313633,0.0164117,-0.000805348,0.0164448,-0.00316945,-1.52969,0.0121582,0.0177078,1294,372,4.69948,36.5712
77,652,4.64307,-36.5585,-0.00409454,0.018238,-0.000454938,0.0182473,-0.0041038,-1.55044,0.0137386,0.0165682,1301,372,4.64305,36.5585
84,652,4.62964,-36.5339,-0.00531242,0.0192111,-0.000167452,0.0192123,-0.00531356,-1.56397,0.0148986,0.0138912,1308,372,4.62961,36.5339
91,652,4.60254,-36.5175,-0.00647639,0.0200673,-8.06936e-06,0.0200673,-0.00647639,-1.57049,0.0159806,0.0166902,1315,372,4.60253,36.5175
98,652,4.60132,-36.438,-0.00771941,0.0202786,6.24635e-05,0.0202787,-0.00771955,1.56857,0.0166981,0.0134399,1322,372,4.60126,36.438
105,652,4.57605,-36.3238,-0.00895201,0.0207371,0.000205089,0.0207385,-0.00895343,1.56389,0.017587,0.0114754,1329,372,4.57607,36.3238
112,652,4.55212,-36.2204,-0.00989344,0.0209228,0.000478239,0.0209303,-0.00990086,1.55528,0.0181761,0.0101418,1336,372,4.55207,36.2204
119,652,4.51477,-36.0952,-0.0105511,0.0206775,0.000845459,0.0207004,-0.010574,1.54375,0.0183691,0.0107077,1343,372,4.51478,36.0952
126,652,4.46155,-35.9659,-0.0111144,0.0202869,0.00132106,0.0203424,-0.0111698,1.52882,0.0184487,0.0124171,1350,372,4.46156,35.966
133,652,4.43201,-35.8381,-0.0114332,0.0198403,0.00187505,0.0199523,-0.0115452,1.51112,0.0183998,0.0127875,1357,372,4.43206,35.8381
140,652,4.41077,-35.7089,-0.0112825,0.0194293,0.00252376,0.0196353,-0.0114885,1.48935,0.0181734,0.00970387,1364,372,4.41074,35.7089
147,652,4.38672,-35.5496,-0.0107733,0.0185395,0.00321051,0.018887,-0.0111208,1.46297,0.0175174,0.00944454,1371,372,4.38668,35.5496
154,652,4.3446,-35.3621,-0.00949244,0.0181139,0.00359057,0.0185733,-0.0099518,1.44355,0.0167178,0.0092878,1378,372,4.34464,35.362
161,652,4.30725,-35.1619,-0.00795041,0.017616,0.00406963,0.0182482,-0.00858258,1.41669,0.0158222,0.0108728,1385,372,4.3072,35.1619
168,652,4.27942,-34.9559,-0.00659996,0.0167308,0.00443183,0.0175443,-0.00741345,1.38926,0.0147998,0.0125049,1392,372,4.27942,34.9559
175,652,4.25793,-34.7259,-0.00597951,0.0158976,0.00447177,0.0167763,-0.00685826,1.37676,0.0140402,0.0124053,1399,372,4.25789,34.7258
182,652,4.21558,-34.5288,-0.00482802,0.0130082,0.00385065,0.013804,-0.00562383,1.367,0.0115433,0.0178212,1406,372,4.21561,34.5289
189,652,4.20667,-34.2935,-0.00358038,0.0133953,0.003599,0.0141268,-0.00431188,1.37028,0.0111369,0.0302007,1413,372,4.20672,34.2935
196,652,4.16553,-34.0121,0,0,0,0,0,0,0,-1,1420,372,4.16548,34.0121
203,652,4.13245,-33.7257,0,0,0,0,0,0,0,-1,1427,372,4.13239,33.7257
210,652,4.15649,-33.3583,0,0,0,0,0,0,0,-1,1434,372,4.15651,33.3583
217,652,4.06311,-33.186,0,0,0,0,0,0,0,-1,1441,372,4.06314,33.186
224,652,3.63794,-31.2791,0,0,0,0,0,0,0,-1,1448,372,3.63799,31.2791
231,652,3.83936,-30.4812,0,0,0,0,0,0,0,-1,1455,372,3.8393,30.4812
238,652,4.02551,-31.9931,0,0,0,0,0,0,0,-1,1462,372,4.02546,31.9931
245,652,3.85095,-31.8131,0,0,0,0,0,0,0,-1,1469,372,3.85093,31.8132
252,652,3.9032,-31.4637,0,0,0,0,0,0,0,-1,1476,372,3.90321,31.4637
259,652,3.40588,-30.8454,0,0,0,0,0,0,0,-1,1483,372,3.40584,30.8454
266,652,3.59436,-30.4984,0,0,0,0,0,0,0,-1,1490,372,3.59442,30.4984
273,652,3.70422,-30.2856,0,0,0,0,0,0,0,-1,1497,372,3.70421,30.2856
280,652,3.66956,-30.2174,0,0,0,0,0,0,0,-1,1504,372,3.6695,30.2174
287,652,-4.71191,-19.5709,0,0,0,0,0,0,0,-1,1511,372,-4.71192,19.5709
294,652,-3.4198,-19.4977,0,0,0,0,0,0,0,-1,1518,372,-3.41981,19.4977
301,652,-2.55664,-20.599,0,0,0,0,0,0,0,-1,1525,372,-2.55659,20.599
308,652,-1.77222,-21.6098,0,0,0,0,0,0,0,-1,1532,372,-1.77219,21.6098
315,652,-1.26086,-21.9686,0,0,0,0,0,0,0,-1,1539,372,-1.26084,21.9686
322,652,-0.665649,-22.1747,0,0,0,0,0,0,0,-1,1546,372,-0.665604,22.1748
329,652,3.6593,-22.1693,0,0,0,0,0,0,0,-1,1553,372,3.65935,22.1693
336,652,3.52173,-24.2133,0,0,0,0,0,0,0,-1,1560,372,3.52174,24.2133
343,652,4.85767,-24.4762,0,0,0,0,0,0,0,-1,1567,372,4.85772,24.4762
350,652,5.28394,-25.6715,0,0,0,0,0,0,0,-1,1574,372,5.28393,25.6715
357,652,0,0,0,0,0,0,0,0,0,-1,1581,372,0,0
364,652,0,0,0,0,0,0,0,0,0,-1,1588,372,0,0
371,652,0,0,0,0,0,0,0,0,0,-1,1595,372,0,0
378,652,0,0,0,0,0,0,0,0,0,-1,1602,372,0,0
385,652,0,0,0,0,0,0,0,0,0,-1,1609,372,0,0
392,652,0,0,0,0,0,0,0,0,0,-1,1616,372,0,0
399,652,0,0,0,0,0,0,0,0,0,-1,1623,372,0,0
406,652,0,0,0,0,0,0,0,0,0,-1,1630,372,0,0
413,652,0,0,0,0,0,0,0,0,0,-1,1637,372,0,0
420,652,0,0,0,0,0,0,0,0,0,-1,1644,372,0,0
427,652,0,0,0,0,0,0,0,0,0,-1,1651,372,0,0
434,652,0,0,0,0,0,0,0,0,0,-1,1658,372,0,0
441,652,0,0,0,0,0,0,0,0,0,-1,1665,372,0,0
448,652,0,0,0,0,0,0,0,0,0,-1,1672,372,0,0
455,652,0,0,0,0,0,0,0,0,0,-1,1679,372,0,0
462,652,0,0,0,0,0,0,0,0,0,-1,1686,372,0,0
469,652,0,0,0,0,0,0,0,0,0,-1,1693,372,0,0
476,652,0,0,0,0,0,0,0,0,0,-1,1700,372,0,0
483,652,0,0,0,0,0,0,0,0,0,-1,1707,372,0,0
490,652,0,0,0,0,0,0,0,0,0,-1,1714,372,0,0
497,652,0,0,0,0,0,0,0,0,0,-1,1721,372,0,0
504,652,0,0,0,0,0,0,0,0,0,-1,1728,372,0,0
511,652,0,0,0,0,0,0,0,0,0,-1,1735,372,0,0
518,652,0,0,0,0,0,0,0,0,0,-1,1742,372,0,0
525,652,0,0,0,0,0,0,0,0,0,-1,1749,372,0,0
532,652,0,0,0,0,0,0,0,0,0,-1,1756,372,0,0
539,652,0,0,0,0,0,0,0,0,0,-1,1763,372,0,0
546,652,0,0,0,0,0,0,0,0,0,-1,1770,372,0,0
553,652,0,0,0,0,0,0,0,0,0,-1,1777,372,0,0
560,652,0,0,0,0,0,0,0,0,0,-1,1784,372,0,0
567,652,0,0,0,0,0,0,0,0,0,-1,1791,372,0,0
574,652,0,0,0,0,0,0,0,0,0,-1,1798,372,0,0
581,652,0,0,0,0,0,0,0,0,0,-1,1805,372,0,0
588,652,0,0,0,0,0,0,0,0,0,-1,1812,372,0,0
595,652,0,0,0,0,0,0,0,0,0,-1,1819,372,0,0
602,652,0,0,0,0,0,0,0,0,0,-1,1826,372,0,0
609,652,0,0,0,0,0,0,0,0,0,-1,1833,372,0,0
616,652,0,0,0,0,0,0,0,0,0,-1,1840,372,0,0
623,652,0,0,0,0,0,0,0,0,0,-1,1847,372,0,0
630,652,0,0,0,0,0,0,0,0,0,-1,1854,372,0,0
637,652,0,0,0,0,0,0,0,0,0,-1,1861,372,0,0
644,652,0,0,0,0,0,0,0,0,0,-1,1868,372,0,0
651,652,0,0,0,0,0,0,0,0,0,-1,1875,372,0,0
658,652,0,0,0,0,0,0,0,0,0,-1,1882,372,0,0
665,652,0,0,0,0,0,0,0,0,0,-1,1889,372,0,0
672,652,0,0,0,0,0,0,0,0,0,-1,1896,372,0,0
679,652,0,0,0,0,0,0,0,0,0,-1,1903,372,0,0
686,652,0,0,0,0,0,0,0,0,0,-1,1910,372,0,0
693,652,0,0,0,0,0,0,0,0,0,-1,1917,372,0,0
700,652,0,0,0,0,0,0,0,0,0,-1,1924,372,0,0
707,652,0,0,0,0,0,0,0,0,0,-1,1931,372,0,0
714,652,0,0,0,0,0,0,0,0,0,-1,1938,372,0,0
721,652,0,0,0,0,0,0,0,0,0,-1,1945,372,0,0
728,652,0,0,0,0,0,0,0,0,0,-1,1952,372,0,0
735,652,0,0,0,0,0,0,0,0,0,-1,1959,372,0,0
742,652,0,0,0,0,0,0,0,0,0,-1,1966,372,0,0
749,652,0,0,0,0,0,0,0,0,0,-1,1973,372,0,0
756,652,0,0,0,0,0,0,0,0,0,-1,1980,372,0,0
763,652,0,0,0,0,0,0,0,0,0,-1,1987,372,0,0
770,652,0,0,0,0,0,0,0,0,0,-1,1994,372,0,0
777,652,0,0,0,0,0,0,0,0,0,-1,2001,372,0,0
784,652,0,0,0,0,0,0,0,0,0,-1,2008,372,0,0
791,652,0,0,0,0,0,0,0,0,0,-1,2015,372,0,0
798,652,0,0,0,0,0,0,0,0,0,-1,2022,372,0,0
805,652,0,0,0,0,0,0,0,0,0,-1,2029,372,0,0
812,652,0,0,0,0,0,0,0,0,0,-1,2036,372,0,0
-700,645,0,0,0,0,0,0,0,0,0,-1,524,379,0,0
-693,645,0,0,0,0,0,0,0,0,0,-1,531,379,0,0
-686,645,0,0,0,0,0,0,0,0,0,-1,538,379,0,0
-679,645,0,0,0,0,0,0,0,0,0,-1,545,379,0,0
-672,645,0,0,0,0,0,0,0,0,0,-1,552,379,0,0
-665,645,0,0,0,0,0,0,0,0,0,-1,559,379,0,0
-658,645,0,0,0,0,0,0,0,0,0,-1,566,379,0,0
-651,645,0,0,0,0,0,0,0,0,0,-1,573,379,0,0
-644,645,0,0,0,0,0,0,0,0,0,-1,580,379,0,0
-637,645,0,0,0,0,0,0,0,0,0,-1,587,379,0,0
-630,645,0,0,0,0,0,0,0,0,0,-1,594,379,0,0
-623,645,0,0,0,0,0,0,0,0,0,-1,601,379,0,0
-616,645,0,0,0,0,0,0,0,0,0,-1,608,379,0,0
-609,645,0,0,0,0,0,0,0,0,0,-1,615,379,0,0
-602,645,0,0,0,0,0,0,0,0,0,-1,622,379,0,0
-595,645,0,0,0,0,0,0,0,0,0,-1,629,379,0,0
-588,645,0,0,0,0,0,0,0,0,0,-1,636,379,0,0
-581,645,0,0,0,0,0,0,0,0,0,-1,643,379,0,0
-574,645,0,0,0,0,0,0,0,0,0,-1,650,379,0,0
-567,645,0,0,0,0,0,0,0,0,0,-1,657,379,0,0
-560,645,0,0,0,0,0,0,0,0,0,-1,664,379,0,0
-553,645,0,0,0,0,0,0,0,0,0,-1,671,379,0,0
-546,645,0,0,0,0,0,0,0,0,0,-1,678,379,0,0
-539,645,0,0,0,0,0,0,0,0,0,-1,685,379,0,0
-532,645,0,0,0,0,0,0,0,0,0,-1,692,379,0,0
-525,645,0,0,0,0,0,0,0,0,0,-1,699,379,0,0
-518,645,0,0,0,0,0,0,0,0,0,-1,706,379,0,0
-511,645,0,0,0,0,0,0,0,0,0,-1,713,379,0,0
-504,645,0,0,0,0,0,0,0,0,0,-1,720,379,0,0
-497,645,0,0,0,0,0,0,0,0,0,-1,727,379,0,0
-490,645,0,0,0,0,0,0,0,0,0,-1,734,379,0,0
-483,645,0,0,0,0,0,0,0,0,0,-1,741,379,0,0
-476,645,0,0,0,0,0,0,0,0,0,-1,748,379,0,0
-469,645,0,0,0,0,0,0,0,0,0,-1,755,379,0,0
-462,645,0,0,0,0,0,0,0,0,0,-1,762,379,0,0
-455,645,0,0,0,0,0,0,0,0,0,-1,769,379,0,0
-448,645,0,0,0,0,0,0,0,0,0,-1,776,379,0,0
-441,645,0,0,0,0,0,0,0,0,0,-1,783,379,0,0
-434,645,0,0,0,0,0,0,0,0,0,-1,790,379,0,0
-427,645,0,0,0,0,0,0,0,0,0,-1,797,379,0,0
-420,645,0,0,0,0,0,0,0,0,0,-1,804,379,0,0
-413,645,0,0,0,0,0,0,0,0,0,-1,811,379,0,0
-406,645,0,0,0,0,0,0,0,0,0,-1,818,379,0,0
-399,645,0,0,0,0,0,0,0,0,0,-1,825,379,0,0
-392,645,0,0,0,0,0,0,0,0,0,-1,832,379,0,0
-385,645,0,0,0,0,0,0,0,0,0,-1,839,379,0,0
-378,645,0,0,0,0,0,0,0,0,0,-1,846,379,0,0
-371,645,0,0,0,0,0,0,0,0,0,-1,853,379,0,0
-364,645,0,0,0,0,0,0,0,0,0,-1,860,379,0,0
-357,645,0,0,0,0,0,0,0,0,0,-1,867,379,0,0
-350,645,0,0,0,0,0,0,0,0,0,-1,874,379,0,0
-343,645,0,0,0,0,0,0,0,0,0,-1,881,379,0,0
-336,645,0,0,0,0,0,0,0,0,0,-1,888,379,0,0
-329,645,0,0,0,0,0,0,0,0,0,-1,895,379,0,0
-322,645,0,0,0,0,0,0,0,0,0,-1,902,379,0,0
-315,645,0,0,0,0,0,0,0,0,0,-1,909,379,0,0
-308,645,0,0,0,0,0,0,0,0,0,-1,916,379,0,0
-301,645,0,0,0,0,0,0,0,0,0,-1,923,379,0,0
-294,645,0,0,0,0,0,0,0,0,0,-1,930,379,0,0
-287,645,0,0,0,0,0,0,0,0,0,-1,937,379,0,0
-280,645,0,0,0,0,0,0,0,0,0,-1,944,379,0,0
-273,645,0,0,0,0,0,0,0,0,0,-1,951,379,0,0
-266,645,0,0,0,0,0,0,0,0,0,-1,958,379,0,0
-259,645,0,0,0,0,0,0,0,0,0,-1,965,379,0,0
-252,645,2.95691,-26.9133,0,0,0,0,0,0,0,-1,972,379,2.9569,26.9133
-245,645,2.73169,-27.0215,0,0,0,0,0,0,0,-1,979,379,2.73172,27.0215
-238,645,2.6665,-26.9464,0,0,0,0,0,0,0,-1,986,379,2.66649,26.9464
-231,645,1.89801,-26.437,0,0,0,0,0,0,0,-1,993,379,1.89804,26.437
-224,645,9.92029,-21.3227,0,0,0,0,0,0,0,-1,1000,379,9.92026,21.3227
-217,645,3.46124,-28.7596,0,0,0,0,0,0,0,-1,1007,379,3.46125,28.7596
-210,645,3.5899,-27.8521,0,0,0,0,0,0,0,-1,1014,379,3.5899,27.8521
-203,645,3.92346,-26.573,0.0613458,0.0634334,0.0364299,0.0988345,0.0259447,0.799721,0.0591689,0.0444098,1021,379,3.92344,26.573
-196,645,4.36914,-25.2098,0.0579953,0.0407788,0.0315138,0.0820554,0.0167187,0.652071,0.0500699,0.0466688,1028,379,4.3692,25.2098
-189,645,4.43298,-24.3767,0,0,0,0,0,0,0,-1,1035,379,4.43301,24.3767
-182,645,4.68933,-28.5781,0,0,0,0,0,0,0,-1,1042,379,4.68934,28.5781
-175,645,5.28345,-29.6117,0.0441195,-0.0115573,0.0193699,0.0501952,-0.017633,0.30395,0.040637,0.0489966,1049,379,5.28341,29.6117
-168,645,5.81482,-30.5405,0.0384901,-0.0190747,0.0161276,0.0427005,-0.0232851,0.255369,0.0386426,0.0467552,1056,379,5.81482,30.5405
-161,645,5.74353,-30.7407,0.0327333,-0.0219735,0.0130026,0.0356664,-0.0249066,0.221869,0.0351553,0.0463541,1063,379,5.74355,30.7407
-154,645,5.73535,-30.978,0.0269467,-0.0214177,0.0101976,0.0290089,-0.02348,0.199536,0.0303605,0.0427511,1070,379,5.7354,30.978
-147,645,5.64404,-31.2027,0.0209893,-0.0214446,0.00676927,0.022043,-0.0224983,0.15442,0.0257164,0.0417804,1077,379,5.644,31.2027
-140,645,5.60181,-31.4742,0,0,0,0,0,0,0,-1,1084,379,5.60184,31.4742
-133,645,5.37073,-31.5313,0,0,0,0,0,0,0,-1,1091,379,5.37069,31.5313
-126,645,5.35657,-31.9088,0.00395432,-0.0114102,0.00391673,0.00489516,-0.0123511,0.235744,0.0102626,0.0387015,1098,379,5.35657,31.9089
-119,645,5.31067,-32.3495,-0.00313007,-0.0166838,0.0075391,0.000230322,-0.0200442,0.419296,0.0134402,0.0226425,1105,379,5.31069,32.3495
-112,645,5.26697,-32.7319,-0.00799426,-0.0189978,0.00956426,-0.00246224,-0.0245298,0.52439,0.0155974,0.0151939,1112,379,5.26695,32.7319
-105,645,5.24951,-32.9645,-0.00998024,-0.0247514,0.0120003,-0.00327493,-0.0314567,0.509546,0.0199692,0.0227501,1119,379,5.24948,32.9645
-98,645,5.20972,-33.1558,-0.0108294,-0.0335615,0.01526,-0.00316767,-0.0412232,0.465308,0.0264895,0.0366428,1126,379,5.20967,33.1558
-91,645,5.26099,-33.4695,-0.0114813,-0.0415431,0.0181577,-0.00294037,-0.0500841,0.439668,0.0324537,0.0498377,1133,379,5.26101,33.4694
-84,645,5.32849,-33.7889,0,0,0,0,0,0,0,-1,1140,379,5.32849,33.789
-77,645,5.14404,-34.2238,-0.0117654,-0.0487729,0.0206409,-0.00254851,-0.0579898,0.41997,0.037839,0.0319117,1147,379,5.144,34.2238
-70,645,5.0791,-34.4555,-0.0113559,-0.0480696,0.0202413,-0.00238721,-0.0570382,0.41709,0.0372552,0.0137155,1154,379,5.07909,34.4555
-63,645,5.05359,-34.6634,-0.0098933,-0.0417248,0.0176482,-0.00204418,-0.0495739,0.418484,0.0323894,0.0108086,1161,379,5.05355,34.6634
-56,645,5.02185,-34.8483,-0.0082526,-0.033594,0.014232,-0.00186819,-0.0399784,0.421685,0.0260518,0.0127355,1168,379,5.02185,34.8483
-49,645,5.01563,-35.0513,-0.00657866,-0.0248663,0.0107013,-0.00164671,-0.0297983,0.431859,0.01934,0.0110621,1175,379,5.01563,35.0513
-42,645,4.98254,-35.2498,-0.00510703,-0.0169197,0.00750787,-0.00146074,-0.020566,0.452113,0.0132506,0.0104458,1182,379,4.98256,35.2498
-35,645,4.95496,-35.4555,-0.00391579,-0.0097439,0.00469394,-0.00130492,-0.0123548,0.507607,0.00783784,0.0104918,1189,379,4.95497,35.4555
-28,645,4.90942,-35.647,-0.00275833,-0.00378193,0.00250451,-0.000713857,-0.0058264,0.68461,0.00366953,0.00848499,1196,379,4.90942,35.647
-21,645,4.86768,-35.7984,-0.00148475,0.00217751,-0.000175128,0.00218586,-0.0014931,-1.52312,0.00213657,0.00988587,1203,379,4.86772,35.7984
-14,645,4.87537,-35.9473,-0.000725333,0.0055442,-0.00189635,0.00607316,-0.00125429,-1.29877,0.00452519,0.00991819,1210,379,4.87538,35.9473
-7,645,4.88965,-36.0781,-0.000580603,0.00551303,-0.00212833,0.00618278,-0.00125036,-1.26592,0.00459569,0.0130139,1217,379,4.88969,36.0781
0,645,4.87695,-36.1667,-0.000378333,0.00526994,-0.00231163,0.00609538,-0.00120377,-1.22783,0.00451861,0.0240959,1224,379,4.87697,36.1667
7,645,4.82703,-36.2627,-0.000343059,0.00522514,-0.00249912,0.00618227,-0.00130019,-1.20504,0.00461636,0.0175914,1231,379,4.827,36.2627
14,645,4.81458,-36.3359,-0.00045549,0.0053083,-0.00264154,0.00633575,-0.00148295,-1.19984,0.00479521,0.0166737,1238,379,4.81454,36.3359
21,645,4.77722,-36.4359,-0.000504251,0.00571857,-0.00263878,0.00668687,-0.00147255,-1.2191,0.00502126,0.0113108,1245,379,4.77727,36.4359
28,645,4.79309,-36.5178,-0.000500157,0.00631425,-0.00253382,0.00715313,-0.00133904,-1.25108,0.00527209,0.00974604,1252,379,4.79312,36.5178
35,645,4.77246,-36.5645,-0.000401887,0.00695507,-0.00233137,0.00763164,-0.00107846,-1.28835,0.00548272,0.00920095,1259,379,4.77248,36.5645
42,645,4.75085,-36.6063,-0.000291132,0.00795623,-0.00203137,0.00842942,-0.000764321,-1.34194,0.00589094,0.0090341,1266,379,4.75084,36.6063
49,645,4.76318,-36.6224,-0.000246377,0.00895673,-0.00166124,0.00924741,-0.000537063,-1.39757,0.00635153,0.0125017,1273,379,4.76319,36.6224
56,645,4.75159,-36.6102,-0.000356429,0.00982443,-0.00142232,0.0100194,-0.000551402,-1.43457,0.00687078,0.0131824,1280,379,4.75157,36.6102
63,645,4.72791,-36.624,-0.000542979,0.0106484,-0.00121598,0.010779,-0.000673576,-1.46381,0.00742071,0.0129623,1287,379,4.7279,36.624
70,645,4.68762,-36.6196,-0.000672108,0.0112133,-0.000989024,0.011295,-0.000753846,-1.48834,0.00779347,0.0166581,1294,379,4.68759,36.6196
77,645,4.68188,-36.6076,-0.00116218,0.0122933,-0.00069144,0.0123288,-0.00119762,-1.51959,0.00864607,0.0196121,1301,379,4.68183,36.6076
84,645,4.70459,-36.5433,-0.00180534,0.0128087,-0.000474565,0.0128241,-0.00182074,-1.53837,0.00921649,0.0143201,1308,379,4.70461,36.5433
91,645,4.68164,-36.5024,-0.00244913,0.0132145,-0.000383096,0.0132239,-0.00245849,-1.54636,0.00973942,0.0153026,1315,379,4.68163,36.5024
98,645,4.66248,-36.4338,-0.0031828,0.0132475,-0.000374724,0.013256,-0.00319134,-1.54801,0.0100711,0.0132221,1322,379,4.66248,36.4338
105,645,4.64429,-36.3382,-0.00390211,0.0135307,-0.00030715,0.0135361,-0.00390752,-1.55318,0.0105701,0.0100063,1329,379,4.64427,36.3382
112,645,4.62427,-36.2372,-0.00442382,0.0136338,-0.000154339,0.0136351,-0.00442514,-1.56225,0.0108696,0.00866653,1336,379,4.62431,36.2371
119,645,4.61194,-36.1203,-0.00482049,0.01356,9.54937e-05,0.0135605,-0.00482099,1.5656,0.0110052,0.00893172,1343,379,4.61196,36.1203
126,645,4.58142,-35.9885,-0.00518783,0.0133208,0.000348397,0.0133273,-0.00519439,1.55198,0.0110318,0.0117463,1350,379,4.58136,35.9885
133,645,4.58337,-35.8568,-0.00545075,0.0130986,0.000670343,0.0131227,-0.00547494,1.53472,0.0110359,0.0131519,1357,379,4.58333,35.8568
140,645,4.57935,-35.7136,-0.00552214,0.0129308,0.00107363,0.0129931,-0.00558439,1.51287,0.0110063,0.0129753,1364,379,4.57929,35.7136
147,645,4.53625,-35.5737,-0.00539383,0.0124678,0.00151353,0.0125951,-0.00552118,1.48686,0.0107219,0.0140283,1371,379,4.53624,35.5737
154,645,4.51611,-35.4029,-0.00480297,0.0123463,0.00177244,0.0125276,-0.00498424,1.46888,0.0104185,0.0123432,1378,379,4.51613,35.4029
161,645,4.49805,-35.1997,-0.0040381,0.0121846,0.00213929,0.012462,-0.00431547,1.44186,0.0100599,0.0143825,1385,379,4.498,35.1997
168,645,4.47351,-34.9973,-0.00344976,0.0117622,0.00246356,0.0121512,-0.00383878,1.41418,0.00963868,0.0166372,1392,379,4.47352,34.9973
175,645,4.48389,-34.7848,-0.00334243,0.0114172,0.00264064,0.0118754,-0.00380064,1.39898,0.00944234,0.0145319,1399,379,4.48392,34.7848
182,645,4.44385,-34.5534,-0.00292224,0.00997762,0.00252463,0.0104541,-0.00339874,1.38425,0.00833655,0.011127,1406,379,4.4438,34.5534
189,645,4.40271,-34.2776,-0.00251485,0.00988652,0.0026422,0.010426,-0.00305433,1.36939,0.00816155,0.0120734,1413,379,4.40265,34.2776
196,645,4.36462,-34.0544,-0.00249357,0.00956353,0.00284401,0.0102007,-0.00313074,1.3504,0.00804961,0.0124415,1420,379,4.36466,34.0544
203,645,4.3252,-33.7771,-0.00265046,0.00959904,0.00311814,0.0103471,-0.00339851,1.33534,0.00826712,0.0114499,1427,379,4.32524,33.7771
210,645,4.34216,-33.4207,-0.00315845,0.00990116,0.00301777,0.0105648,-0.00382206,1.35434,0.00860495,0.0200921,1434,379,4.34216,33.4207
217,645,4.31494,-33.2143,-0.00337576,0.0108103,0.00281336,0.0113478,-0.00391333,1.38199,0.00915291,0.0396852,1441,379,4.31499,33.2143
224,645,4.23621,-32.9002,0,0,0,0,0,0,0,-1,1448,379,4.2362,32.9002
231,645,4.18518,-32.5712,0,0,0,0,0,0,0,-1,1455,379,4.18519,32.5712
238,645,4.15894,-32.2369,-0.00279572,0.0155679,0.00324761,0.0161253,-0.00335314,1.40081,0.0120248,0.0291605,1462,379,4.15895,32.2369
245,645,4.12378,-31.929,-0.00316876,0.0174647,0.00348717,0.0180381,-0.00374217,1.40782,0.0134475,0.0168077,1469,379,4.12382,31.929
252,645,4.12122,-31.4604,-0.00306335,0.0190383,0.00388872,0.0197026,-0.0037276,1.40162,0.0145378,0.0306435,1476,379,4.12124,31.4604
259,645,3.94568,-31.011,-0.0029117,0.0207085,0.00445241,0.0215199,-0.00372311,1.39053,0.0157352,0.0490339,1483,379,3.94567,31.0109
266,645,3.88452,-30.7202,-0.00278858,0.0222036,0.00513984,0.0232194,-0.00380435,1.37568,0.0168911,0.0343706,1490,379,3.88456,30.7202
273,645,3.96118,-30.4653,-0.00264557,0.0238492,0.00599304,0.0251418,-0.00393812,1.35838,0.0182163,0.021874,1497,379,3.96116,30.4653
280,645,4.0415,-30.1784,-0.00257063,0.0257436,0.00694961,0.0273574,-0.00418441,1.34263,0.0197811,0.0482951,1504,379,4.04152,30.1784
287,645,4.39075,-29.2795,0,0,0,0,0,0,0,-1,1511,379,4.39079,29.2795
294,645,3.78857,-29.2301,0,0,0,0,0,0,0,-1,1518,379,3.78853,29.2301
301,645,0.102173,-19.2112,0,0,0,0,0,0,0,-1,1525,379,0.102211,19.2112
308,645,0.388428,-19.7402,0,0,0,0,0,0,0,-1,1532,379,0.388487,19.7402
315,645,2.61792,-20.2319,0,0,0,0,0,0,0,-1,1539,379,2.61791,20.2319
322,645,2.71582,-20.4475,0,0,0,0,0,0,0,-1,1546,379,2.71588,20.4475
329,645,3.61487,-26.396,0,0,0,0,0,0,0,-1,1553,379,3.61483,26.396
336,645,5.78894,-25.6707,0,0,0,0,0,0,0,-1,1560,379,5.78891,25.6707
343,645,4.77185,-23.7191,0,0,0,0,0,0,0,-1,1567,379,4.77184,23.7191
350,645,4.76404,-22.1987,0,0,0,0,0,0,0,-1,1574,379,4.76399,22.1987
357,645,4.61316,-21.967,0,0,0,0,0,0,0,-1,1581,379,4.61316,21.967
364,645,-0.0794678,-3.22021,0,0,0,0,0,0,0,-1,1588,379,-0.0794987,3.22021
371,645,0,0,0,0,0,0,0,0,0,-1,1595,379,0,0
378,645,0,0,0,0,0,0,0,0,0,-1,1602,379,0,0
385,645,0,0,0,0,0,0,0,0,0,-1,1609,379,0,0
392,645,0,0,0,0,0,0,0,0,0,-1,1616,379,0,0
399,645,0,0,0,0,0,0,0,0,0,-1,1623,379,0,0
406,645,0,0,0,0,0,0,0,0,0,-1,1630,379,0,0
413,645,0,0,0,0,0,0,0,0,0,-1,1637,379,0,0
420,645,0,0,0,0,0,0,0,0,0,-1,1644,379,0,0
427,645,0,0,0,0,0,0,0,0,0,-1,1651,379,0,0
434,645,0,0,0,0,0,0,0,0,0,-1,1658,379,0,0
441,645,0,0,0,0,0,0,0,0,0,-1,1665,379,0,0
448,645,0,0,0,0,0,0,0,0,0,-1,1672,379,0,0
455,645,0,0,0,0,0,0,0,0,0,-1,1679,379,0,0
462,645,0,0,0,0,0,0,0,0,0,-1,1686,379,0,0
469,645,0,0,0,0,0,0,0,0,0,-1,1693,379,0,0
476,645,0,0,0,0,0,0,0,0,0,-1,1700,379,0,0
483,645,0,0,0,0,0,0,0,0,0,-1,1707,379,0,0
490,645,0,0,0,0,0,0,0,0,0,-1,1714,379,0,0
497,645,0,0,0,0,0,0,0,0,0,-1,1721,379,0,0
504,645,0,0,0,0,0,0,0,0,0,-1,1728,379,0,0
511,645,0,0,0,0,0,0,0,0,0,-1,1735,379,0,0
518,645,0,0,0,0,0,0,0,0,0,-1,1742,379,0,0
525,645,0,0,0,0,0,0,0,0,0,-1,1749,379,0,0
532,645,0,0,0,0,0,0,0,0,0,-1,1756,379,0,0
539,645,0,0,0,0,0,0,0,0,0,-1,1763,379,0,0
546,645,0,0,0,0,0,0,0,0,0,-1,1770,379,0,0
553,645,0,0,0,0,0,0,0,0,0,-1,1777,379,0,0
560,645,0,0,0,0,0,0,0,0,0,-1,1784,379,0,0
567,645,0,0,0,0,0,0,0,0,0,-1,1791,379,0,0
574,645,0,0,0,0,0,0,0,0,0,-1,1798,379,0,0
581,645,0,0,0,0,0,0,0,0,0,-1,1805,379,0,0
588,645,0,0,0,0,0,0,0,0,0,-1,1812,379,0,0
595,645,0,0,0,0,0,0,0,0,0,-1,1819,379,0,0
602,645,0,0,0,0,0,0,0,0,0,-1,1826,379,0,0
609,645,0,0,0,0,0,0,0,0,0,-1,1833,379,0,0
616,645,0,0,0,0,0,0,0,0,0,-1,1840,379,0,0
623,645,0,0,0,0,0,0,0,0,0,-1,1847,379,0,0
630,645,0,0,0,0,0,0,0,0,0,-1,1854,379,0,0
637,645,0,0,0,0,0,0,0,0,0,-1,1861,379,0,0
644,645,0,0,0,0,0,0,0,0,0,-1,1868,379,0,0
651,645,0,0,0,0,0,0,0,0,0,-1,1875,379,0,0
658,645,0,0,0,0,0,0,0,0,0,-1,1882,379,0,0
665,645,0,0,0,0,0,0,0,0,0,-1,1889,379,0,0
672,645,0,0,0,0,0,0,0,0,0,-1,1896,379,0,0
679,645,0,0,0,0,0,0,0,0,0,-1,1903,379,0,0
686,645,0,0,0,0,0,0,0,0,0,-1,1910,379,0,0
693,645,0,0,0,0,0,0,0,0,0,-1,1917,379,0,0
700,645,0,0,0,0,0,0,0,0,0,-1,1924,379,0,0
707,645,0,0,0,0,0,0,0,0,0,-1,1931,379,0,0
714,645,0,0,0,0,0,0,0,0,0,-1,1938,379,0,0
721,645,0,0,0,0,0,0,0,0,0,-1,1945,379,0,0
728,645,0,0,0,0,0,0,0,0,0,-1,1952,379,0,0
735,645,0,0,0,0,0,0,0,0,0,-1,1959,379,0,0
742,645,0,0,0,0,0,0,0,0,0,-1,1966,379,0,0
749,645,0,0,0,0,0,0,0,0,0,-1,1973,379,0,0
756,645,0,0,0,0,0,0,0,0,0,-1,1980,379,0,0
763,645,0,0,0,0,0,0,0,0,0,-1,1987,379,0,0
770,645,0,0,0,0,0,0,0,0,0,-1,1994,379,0,0
777,645,0,0,0,0,0,0,0,0,0,-1,2001,379,0,0
784,645,0,0,0,0,0,0,0,0,0,-1,2008,379,0,0
791,645,0,0,0,0,0,0,0,0,0,-1,2015,379,0,0
798,645,0,0,0,0,0,0,0,0,0,-1,2022,379,0,0
805,645,0,0,0,0,0,0,0,0,0,-1,2029,379,0,0
812,645,0,0,0,0,0,0,0,0,0,-1,2036,379,0,0
-700,638,0,0,0,0,0,0,0,0,0,-1,524,386,0,0
-693,638,0,0,0,0,0,0,0,0,0,-1,531,386,0,0
-686,638,0,0,0,0,0,0,0,0,0,-1,538,386,0,0
-679,638,0,0,0,0,0,0,0,0,0,-1,545,386,0,0
-672,638,0,0,0,0,0,0,0,0,0,-1,552,386,0,0
-665,638,0,0,0,0,0,0,0,0,0,-1,559,386,0,0
-658,638,0,0,0,0,0,0,0,0,0,-1,566,386,0,0
-651,638,0,0,0,0,0,0,0,0,0,-1,573,386,0,0
-644,638,0,0,0,0,0,0,0,0,0,-1,580,386,0,0
-637,638,0,0,0,0,0,0,0,0,0,-1,587,386,0,0
-630,638,0,0,0,0,0,0,0,0,0,-1,594,386,0,0
-623,638,0,0,0,0,0,0,0,0,0,-1,601,386,0,0
-616,638,0,0,0,0,0,0,0,0,0,-1,608,386,0,0
-609,638,0,0,0,0,0,0,0,0,0,-1,615,386,0,0
-602,638,0,0,0,0,0,0,0,0,0,-1,622,386,0,0
-595,638,0,0,0,0,0,0,0,0,0,-1,629,386,0,0
-588,638,0,0,0,0,0,0,0,0,0,-1,636,386,0,0
-581,638,0,0,0,0,0,0,0,0,0,-1,643,386,0,0
-574,638,0,0,0,0,0,0,0,0,0,-1,650,386,0,0
-567,638,0,0,0,0,0,0,0,0,0,-1,657,386,0,0
-560,638,0,0,0,0,0,0,0,0,0,-1,664,386,0,0
-553,638,0,0,0,0,0,0,0,0,0,-1,671,386,0,0
-546,638,0,0,0,0,0,0,0,0,0,-1,678,386,0,0
-539,638,0,0,0,0,0,0,0,0,0,-1,685,386,0,0
-532,638,0,0,0,0,0,0,0,0,0,-1,692,386,0,0
-525,638,0,0,0,0,0,0,0,0,0,-1,699,386,0,0
-518,638,0,0,0,0,0,0,0,0,0,-1,706,386,0,0
-511,638,0,0,0,0,0,0,0,0,0,-1,713,386,0,0
-504,638,0,0,0,0,0,0,0,0,0,-1,720,386,0,0
-497,638,0,0,0,0,0,0,0,0,0,-1,727,386,0,0
-490,638,0,0,0,0,0,0,0,0,0,-1,734,386,0,0
-483,638,0,0,0,0,0,0,0,0,0,-1,741,386,0,0
-476,638,0,0,0,0,0,0,0,0,0,-1,748,386,0,0
-469,638,0,0,0,0,0,0,0,0,0,-1,755,386,0,0
-462,638,0,0,0,0,0,0,0,0,0,-1,762,386,0,0
-455,638,0,0,0,0,0,0,0,0,0,-1,769,386,0,0
-448,638,0,0,0,0,0,0,0,0,0,-1,776,386,0,0
-441,638,0,0,0,0,0,0,0,0,0,-1,783,386,0,0
-434,638,0,0,0,0,0,0,0,0,0,-1,790,386,0,0
-427,638,0,0,0,0,0,0,0,0,0,-1,797,386,0,0
-420,638,0,0,0,0,0,0,0,0,0,-1,804,386,0,0
-413,638,0,0,0,0,0,0,0,0,0,-1,811,386,0,0
-406,638,0,0,0,0,0,0,0,0,0,-1,818,386,0,0
-399,638,0,0,0,0,0,0,0,0,0,-1,825,386,0,0
-392,638,0,0,0,0,0,0,0,0,0,-1,832,386,0,0
-385,638,0,0,0,0,0,0,0,0,0,-1,839,386,0,0
-378,638,0,0,0,0,0,0,0,0,0,-1,846,386,0,0
-371,638,0,0,0,0,0,0,0,0,0,-1,853,386,0,0
-364,638,0,0,0,0,0,0,0,0,0,-1,860,386,0,0
-357,638,0,0,0,0,0,0,0,0,0,-1,867,386,0,0
-350,638,0,0,0,0,0,0,0,0,0,-1,874,386,0,0
-343,638,0,0,0,0,0,0,0,0,0,-1,881,386,0,0
-336,638,0,0,0,0,0,0,0,0,0,-1,888,386,0,0
-329,638,0,0,0,0,0,0,0,0,0,-1,895,386,0,0
-322,638,0,0,0,0,0,0,0,0,0,-1,902,386,0,0
-315,638,0,0,0,0,0,0,0,0,0,-1,909,386,0,0
-308,638,0,0,0,0,0,0,0,0,0,-1,916,386,0,0
-301,638,0,0,0,0,0,0,0,0,0,-1,923,386,0,0
-294,638,0,0,0,0,0,0,0,0,0,-1,930,386,0,0
-287,638,0,0,0,0,0,0,0,0,0,-1,937,386,0,0
-280,638,0,0,0,0,0,0,0,0,0,-1,944,386,0,0
-273,638,0,0,0,0,0,0,0,0,0,-1,951,386,0,0
-266,638,5.34705,-26.6979,0,0,0,0,0,0,0,-1,958,386,5.34704,26.6979
-259,638,7.30426,-26.7659,0,0,0,0,0,0,0,-1,965,386,7.30423,26.7659
-252,638,9.31195,-27.1175,0,0,0,0,0,0,0,-1,972,386,9.31197,27.1175
-245,638,3.35309,-26.4681,0,0,0,0,0,0,0,-1,979,386,3.35311,26.4681
-238,638,2.93518,-26.3649,0,0,0,0,0,0,0,-1,986,386,2.93516,26.3649
-231,638,2.36829,-26.0088,0,0,0,0,0,0,0,-1,993,386,2.3683,26.0088
-224,638,1.80823,-25.8195,0,0,0,0,0,0,0,-1,1000,386,1.8082,25.8196
-217,638,3.34961,-27.6036,0,0,0,0,0,0,0,-1,1007,386,3.3496,27.6036
-210,638,3.39874,-29.5666,0,0,0,0,0,0,0,-1,1014,386,3.39875,29.5666
-203,638,3.94214,-28.0881,0,0,0,0,0,0,0,-1,1021,386,3.94213,28.0881
-196,638,4.39453,-26.214,0,0,0,0,0,0,0,-1,1028,386,4.39457,26.214
-189,638,4.22412,-24.8445,0,0,0,0,0,0,0,-1,1035,386,4.22413,24.8445
-182,638,4.84229,-28.485,0,0,0,0,0,0,0,-1,1042,386,4.8423,28.485
-175,638,5.1947,-29.5819,0,0,0,0,0,0,0,-1,1049,386,5.19473,29.5819
-168,638,5.20276,-30.2009,0.0278206,-0.010505,0.0117348,0.0311282,-0.0138126,0.274733,0.0265808,0.0418068,1056,386,5.20272,30.2009
-161,638,5.2793,-30.568,0.0233071,-0.0130229,0.00934463,0.0255698,-0.0152855,0.237562,0.0238356,0.0385185,1063,386,5.27924,30.568
-154,638,5.34302,-30.841,0.0188488,-0.012938,0.00720132,0.0204041,-0.0144933,0.212715,0.0202442,0.032974,1070,386,5.34303,30.841
-147,638,5.19629,-31.1036,0.0142531,-0.0134086,0.00452912,0.0149758,-0.0141313,0.15823,0.0168073,0.0273036,1077,386,5.19625,31.1036
-140,638,5.14331,-31.4135,0.010282,-0.0106382,0.00244699,0.0105644,-0.0109206,0.114902,0.0124049,0.024337,1084,386,5.14333,31.4135
-133,638,5.11157,-31.8665,0.00688679,-0.00511863,0.00113003,0.00699223,-0.00522407,0.0930379,0.00707767,0.0219159,1091,386,5.11153,31.8666
-126,638,5.08142,-32.1806,0.00243011,-0.00473186,0.00172307,0.00282309,-0.00512484,0.224236,0.00465244,0.0182012,1098,386,5.08143,32.1806
-119,638,5.0415,-32.4968,-0.00203615,-0.00635283,0.00345024,-0.000124767,-0.00826421,0.505897,0.00546836,0.0171598,1105,386,5.04147,32.4968
-112,638,5.03809,-32.8179,-0.00499145,-0.00682699,0.00436694,-0.00144688,-0.0103716,0.681824,0.0064861,0.0152948,1112,386,5.03809,32.8179
-105,638,5.00989,-33.1239,-0.0061333,-0.00970983,0.00558981,-0.00205268,-0.0137905,0.630585,0.00859154,0.0165602,1119,386,5.0099,33.1239
-98,638,4.9635,-33.4023,-0.00652747,-0.0150078,0.00749069,-0.00216012,-0.0193752,0.527853,0.0122603,0.0150112,1126,386,4.96355,33.4023
-91,638,4.91431,-33.6963,-0.00680655,-0.019913,0.00921908,-0.00204889,-0.0246707,0.476418,0.0158085,0.0128337,1133,386,4.91428,33.6963
-84,638,4.85864,-33.9594,-0.00691881,-0.0233563,0.0103846,-0.00189418,-0.0283809,0.450649,0.0183219,0.0153527,1140,386,4.85858,33.9594
-77,638,4.8396,-34.2137,-0.00684475,-0.0247985,0.0108431,-0.00174481,-0.0298984,0.43964,0.0193769,0.0118922,1147,386,4.83962,34.2137
-70,638,4.85303,-34.4631,-0.00652439,-0.0247165,0.0106952,-0.00158028,-0.0296607,0.433012,0.0192686,0.0115946,1154,386,4.85302,34.4631
-63,638,4.83398,-34.6943,-0.00565838,-0.0215824,0.00935903,-0.00133278,-0.025908,0.43294,0.0168453,0.0120649,1161,386,4.83403,34.6943
-56,638,4.82776,-34.8973,-0.0046021,-0.0174069,0.00758229,-0.00108069,-0.0209283,0.434785,0.0136063,0.0152105,1168,386,4.82779,34.8973
-49,638,4.82031,-35.0934,-0.0035533,-0.0127551,0.00567858,-0.000845674,-0.0154627,0.444928,0.0100385,0.0133035,1175,386,4.82037,35.0934
-42,638,4.81299,-35.282,-0.00263127,-0.00870064,0.00404682,-0.000607688,-0.0107242,0.463681,0.00695577,0.0120476,1182,386,4.81298,35.282
-35,638,4.78796,-35.4803,-0.00177038,-0.00479401,0.00243213,-0.000418478,-0.00614591,0.507323,0.00396515,0.0110244,1189,386,4.78792,35.4803
-28,638,4.76172,-35.6618,-0.00082876,-0.00123525,0.001006,-5.67932e-06,-0.00205833,0.685723,0.00137033,0.010349,1196,386,4.7617,35.6618
-21,638,4.73926,-35.791,0.000193122,0.00275668,-0.000773418,0.00297194,-2.2141e-05,-1.29934,0.00198871,0.0114152,1203,386,4.73924,35.791
-14,638,4.74207,-35.9435,0.000964518,0.00546403,-0.00212247,0.00630722,0.000121331,-1.19265,0.00416496,0.0119874,1210,386,4.74206,35.9434
-7,638,4.76453,-36.1237,0.00138791,0.00636195,-0.00265883,0.00751563,0.000234238,-1.16141,0.00493419,0.0180301,1217,386,4.76458,36.1238
0,638,4.79333,-36.1459,0.00174999,0.00700527,-0.0031291,0.00846368,0.000291585,-1.13465,0.00554781,0.0326415,1224,386,4.79333,36.1459
7,638,4.70728,-36.2869,0.00186911,0.00761937,-0.00345184,0.00923663,0.000251848,-1.13265,0.00607554,0.0262186,1231,386,4.70726,36.2869
14,638,4.69067,-36.3793,0.00182398,0.00809053,-0.0036024,0.00973163,0.000182875,-1.14333,0.00642766,0.0138819,1238,386,4.69066,36.3793
21,638,4.70288,-36.4681,0.00175013,0.0086147,-0.00346624,0.0100605,0.000304359,-1.17564,0.00660787,0.0112156,1245,386,4.7029,36.4681
28,638,4.7301,-36.5286,0.00160337,0.00900066,-0.00321167,0.0102005,0.00040357,-1.21327,0.00666986,0.0090639,1252,386,4.73008,36.5286
35,638,4.72937,-36.5836,0.00147926,0.00918993,-0.0027889,0.0100929,0.000576283,-1.25767,0.00654497,0.0110976,1259,386,4.72934,36.5836
42,638,4.75305,-36.6353,0.00136275,0.00947901,-0.00223503,0.0100538,0.000787982,-1.31909,0.00645591,0.0102835,1266,386,4.75308,36.6353
49,638,4.76221,-36.6324,0.00119281,0.00963954,-0.0016549,0.0099522,0.000880148,-1.38407,0.00636175,0.00896177,1273,386,4.76218,36.6324
56,638,4.74146,-36.6306,0.00100249,0.00961774,-0.00124956,0.00979532,0.000824918,-1.42963,0.00627334,0.0123604,1280,386,4.74144,36.6307
63,638,4.7135,-36.6442,0.000703929,0.00902093,-0.000645717,0.00907076,0.000654095,-1.49377,0.00584136,0.0143462,1287,386,4.7135,36.6442
70,638,4.68274,-36.6574,0.000583225,0.00878533,-0.000385315,0.00880339,0.000565164,-1.52396,0.0056899,0.0189303,1294,386,4.6828,36.6574
77,638,4.70093,-36.6393,0.000327475,0.00897212,-0.000328191,0.00898456,0.000315032,-1.5329,0.00588751,0.0192661,1301,386,4.70093,36.6393
84,638,4.75085,-36.5719,-0.000119152,0.00849017,-0.000430529,0.00851165,-0.000140627,-1.52095,0.00572188,0.0132424,1308,386,4.75083,36.5719
91,638,4.74426,-36.4932,-0.000597096,0.00815221,-0.000620566,0.00819601,-0.000640892,-1.50034,0.00568968,0.0135222,1315,386,4.74428,36.4932
98,638,4.73071,-36.4197,-0.0011021,0.0077013,-0.000871874,0.00778682,-0.00118761,-1.47302,0.005629,0.0123507,1322,386,4.73076,36.4197
105,638,4.71619,-36.3427,-0.0015746,0.00757692,-0.00104919,0.00769567,-0.00169334,-1.4581,0.0057782,0.00951106,1329,386,4.71618,36.3427
112,638,4.71082,-36.2453,-0.00187933,0.00732606,-0.00119705,0.00747917,-0.00203245,-1.44358,0.00578388,0.00937804,1336,386,4.71087,36.2453
119,638,4.71985,-36.1257,-0.00217199,0.007076,-0.0012817,0.00725035,-0.00234634,-1.4356,0.00577676,0.0114325,1343,386,4.7199,36.1257
126,638,4.71704,-35.9925,-0.00246168,0.00679581,-0.00138137,0.00699753,-0.00266341,-1.42579,0.00576181,0.0148853,1350,386,4.71702,35.9925
133,638,4.71472,-35.8757,-0.00264161,0.00674025,-0.0012686,0.00690876,-0.00281013,-1.43874,0.00577513,0.0157701,1357,386,4.71472,35.8757
140,638,4.71313,-35.7383,-0.00272119,0.00681134,-0.00102498,0.0069203,-0.00283015,-1.46489,0.00579217,0.0173351,1364,386,4.71311,35.7383
147,638,4.69067,-35.5812,-0.00263863,0.00675154,-0.00070522,0.00680421,-0.0026913,-1.49625,0.00565106,0.0189334,1371,386,4.69063,35.5812
154,638,4.68542,-35.431,-0.00226655,0.00691613,-0.000382981,0.00693207,-0.0022825,-1.52919,0.00554119,0.016008,1378,386,4.68537,35.431
161,638,4.6947,-35.2125,-0.00182466,0.00712154,3.74833e-05,0.00712169,-0.00182482,1.56661,0.0054587,0.0179926,1385,386,4.69472,35.2125
168,638,4.69263,-34.9875,-0.00155166,0.00716158,0.000442212,0.00718396,-0.00157404,1.52022,0.00539114,0.022095,1392,386,4.69264,34.9875
175,638,4.68994,-34.8231,-0.00151673,0.00727795,0.00081449,0.00735275,-0.00159153,1.47922,0.00550951,0.0192217,1399,386,4.68998,34.8231
182,638,4.64685,-34.5756,-0.0013515,0.0068549,0.00123308,0.00703617,-0.00153278,1.42483,0.00527645,0.0142613,1406,386,4.6468,34.5756
189,638,4.60913,-34.3077,-0.00132393,0.00683441,0.00173265,0.00718714,-0.00167666,1.36996,0.00543718,0.0129253,1413,386,4.60918,34.3077
196,638,4.58154,-34.0797,-0.00147756,0.00686878,0.00193458,0.00729538,-0.00190417,1.35375,0.00560714,0.0150487,1420,386,4.58157,34.0797
203,638,4.56274,-33.8366,-0.00166918,0.00712894,0.00221056,0.00765312,-0.00219337,1.33797,0.00596908,0.0193479,1427,386,4.56272,33.8366
210,638,4.58521,-33.5835,-0.00210549,0.00758545,0.00223552,0.00807628,-0.00259632,1.35467,0.00642689,0.0153385,1434,386,4.58523,33.5835
217,638,4.56921,-33.2928,-0.0023301,0.00839176,0.00216494,0.0088124,-0.00275074,1.37889,0.00697505,0.0122445,1441,386,4.56925,33.2928
224,638,4.51709,-32.952,-0.00231119,0.00952475,0.0021776,0.00991268,-0.00269912,1.3945,0.00766817,0.0115181,1448,386,4.51707,32.952
231,638,4.45239,-32.6286,-0.00205938,0.0104818,0.00231949,0.0108971,-0.00247462,1.39365,0.00821478,0.0118877,1455,386,4.45241,32.6286
238,638,4.43372,-32.3419,-0.0020384,0.0119693,0.00275645,0.0124922,-0.0025613,1.38332,0.00930023,0.0127746,1462,386,4.43369,32.3419
245,638,4.42053,-32.018,-0.00239463,0.0134009,0.00301683,0.0139575,-0.00295121,1.38836,0.0104289,0.0146343,1469,386,4.42056,32.018
252,638,4.4115,-31.6617,-0.0023735,0.0146579,0.0033933,0.0153091,-0.00302468,1.3812,0.0113494,0.0202794,1476,386,4.41145,31.6617
259,638,4.34949,-31.3364,-0.00232236,0.0160384,0.00391343,0.0168377,-0.00312168,1.36932,0.0123974,0.0201373,1483,386,4.34948,31.3364
266,638,4.27087,-30.9597,-0.00231616,0.0172705,0.00450889,0.0182586,-0.00330426,1.35506,0.0134102,0.0127557,1490,386,4.27088,30.9597
273,638,4.26953,-30.5972,-0.0022912,0.0185884,0.00520407,0.0198136,-0.00351638,1.33958,0.0145238,0.0109407,1497,386,4.26949,30.5972
280,638,4.32458,-30.1794,-0.00228722,0.020039,0.00597455,0.0215372,-0.00378548,1.32509,0.0157721,0.0205618,1504,386,4.32464,30.1794
287,638,4.52112,-29.5015,-0.00223075,0.0214617,0.00689041,0.0233198,-0.00408894,1.30739,0.0170735,0.0387957,1511,386,4.52117,29.5015
294,638,4.16406,-29.1778,-0.00218918,0.0229229,0.00773054,0.0251119,-0.00437815,1.29486,0.0183753,0.0499816,1518,386,4.16407,29.1778
301,638,3.95959,-28.7448,0,0,0,0,0,0,0,-1,1525,386,3.95954,28.7448
308,638,4.3147,-28.0952,0,0,0,0,0,0,0,-1,1532,386,4.31465,28.0952
315,638,4.36243,-27.9408,0,0,0,0,0,0,0,-1,1539,386,4.36243,27.9408
322,638,4.4845,-26.8775,0,0,0,0,0,0,0,-1,1546,386,4.48453,26.8775
329,638,3.82666,-27.1421,0,0,0,0,0,0,0,-1,1553,386,3.82661,27.1421
336,638,3.92969,-26.6136,0,0,0,0,0,0,0,-1,1560,386,3.92966,26.6136
343,638,5.62451,-25.231,0,0,0,0,0,0,0,-1,1567,386,5.62449,25.2311
350,638,5.91162,-19.0222,0,0,0,0,0,0,0,-1,1574,386,5.91165,19.0222
357,638,0.387329,-3.01077,0,0,0,0,0,0,0,-1,1581,386,0.387332,3.01077
364,638,3.78149,-6.45215,0,0,0,0,0,0,0,-1,1588,386,3.78155,6.45216
371,638,4.18604,-6.71164,0,0,0,0,0,0,0,-1,1595,386,4.18598,6.71164
378,638,4.59045,-6.97113,0,0,0,0,0,0,0,-1,1602,386,4.5904,6.97112
385,638,0,0,0,0,0,0,0,0,0,-1,1609,386,0,0
392,638,0,0,0,0,0,0,0,0,0,-1,1616,386,0,0
399,638,0,0,0,0,0,0,0,0,0,-1,1623,386,0,0
406,638,0,0,0,0,0,0,0,0,0,-1,1630,386,0,0
413,638,0,0,0,0,0,0,0,0,0,-1,1637,386,0,0
420,638,0,0,0,0,0,0,0,0,0,-1,1644,386,0,0
427,638,0,0,0,0,0,0,0,0,0,-1,1651,386,0,0
434,638,0,0,0,0,0,0,0,0,0,-1,1658,386,0,0
441,638,0,0,0,0,0,0,0,0,0,-1,1665,386,0,0
448,638,0,0,0,0,0,0,0,0,0,-1,1672,386,0,0
455,638,0,0,0,0,0,0,0,0,0,-1,1679,386,0,0
462,638,0,0,0,0,0,0,0,0,0,-1,1686,386,0,0
469,638,0,0,0,0,0,0,0,0,0,-1,1693,386,0,0
476,638,0,0,0,0,0,0,0,0,0,-1,1700,386,0,0
483,638,0,0,0,0,0,0,0,0,0,-1,1707,386,0,0
490,638,0,0,0,0,0,0,0,0,0,-1,1714,386,0,0
497,638,0,0,0,0,0,0,0,0,0,-1,1721,386,0,0
504,638,0,0,0,0,0,0,0,0,0,-1,1728,386,0,0
511,638,0,0,0,0,0,0,0,0,0,-1,1735,386,0,0
518,638,0,0,0,0,0,0,0,0,0,-1,1742,386,0,0
525,638,0,0,0,0,0,0,0,0,0,-1,1749,386,0,0
532,638,0,0,0,0,0,0,0,0,0,-1,1756,386,0,0
539,638,0,0,0,0,0,0,0,0,0,-1,1763,386,0,0
546,638,0,0,0,0,0,0,0,0,0,-1,1770,386,0,0
553,638,0,0,0,0,0,0,0,0,0,-1,1777,386,0,0
560,638,0,0,0,0,0,0,0,0,0,-1,1784,386,0,0
567,638,0,0,0,0,0,0,0,0,0,-1,1791,386,0,0
574,638,0,0,0,0,0,0,0,0,0,-1,1798,386,0,0
581,638,0,0,0,0,0,0,0,0,0,-1,1805,386,0,0
588,638,0,0,0,0,0,0,0,0,0,-1,1812,386,0,0
595,638,0,0,0,0,0,0,0,0,0,-1,1819,386,0,0
602,638,0,0,0,0,0,0,0,0,0,-1,1826,386,0,0
609,638,0,0,0,0,0,0,0,0,0,-1,1833,386,0,0
616,638,0,0,0,0,0,0,0,0,0,-1,1840,386,0,0
623,638,0,0,0,0,0,0,0,0,0,-1,1847,386,0,0
630,638,0,0,0,0,0,0,0,0,0,-1,1854,386,0,0
637,638,0,0,0,0,0,0,0,0,0,-1,1861,386,0,0
644,638,0,0,0,0,0,0,0,0,0,-1,1868,386,0,0
651,638,0,0,0,0,0,0,0,0,0,-1,1875,386,0,0
658,638,0,0,0,0,0,0,0,0,0,-1,1882,386,0,0
665,638,0,0,0,0,0,0,0,0,0,-1,1889,386,0,0
672,638,0,0,0,0,0,0,0,0,0,-1,1896,386,0,0
679,638,0,0,0,0,0,0,0,0,0,-1,1903,386,0,0
686,638,0,0,0,0,0,0,0,0,0,-1,1910,386,0,0
693,638,0,0,0,0,0,0,0,0,0,-1,1917,386,0,0
700,638,0,0,0,0,0,0,0,0,0,-1,1924,386,0,0
707,638,0,0,0,0,0,0,0,0,0,-1,1931,386,0,0
714,638,0,0,0,0,0,0,0,0,0,-1,1938,386,0,0
721,638,0,0,0,0,0,0,0,0,0,-1,1945,386,0,0
728,638,0,0,0,0,0,0,0,0,0,-1,1952,386,0,0
735,638,0,0,0,0,0,0,0,0,0,-1,1959,386,0,0
742,638,0,0,0,0,0,0,0,0,0,-1,1966,386,0,0
749,638,0,0,0,0,0,0,0,0,0,-1,1973,386,0,0
756,638,0,0,0,0,0,0,0,0,0,-1,1980,386,0,0
763,638,0,0,0,0,0,0,0,0,0,-1,1987,386,0,0
770,638,0,0,0,0,0,0,0,0,0,-1,1994,386,0,0
777,638,0,0,0,0,0,0,0,0,0,-1,2001,386,0,0
784,638,0,0,0,0,0,0,0,0,0,-1,2008,386,0,0
791,638,0,0,0,0,0,0,0,0,0,-1,2015,386,0,0
798,638,0,0,0,0,0,0,0,0,0,-1,2022,386,0,0
805,638,0,0,0,0,0,0,0,0,0,-1,2029,386,0,0
812,638,0,0,0,0,0,0,0,0,0,-1,2036,386,0,0
-700,631,0,0,0,0,0,0,0,0,0,-1,524,393,0,0
-693,631,0,0,0,0,0,0,0,0,0,-1,531,393,0,0
-686,631,0,0,0,0,0,0,0,0,0,-1,538,393,0,0
-679,631,0,0,0,0,0,0,0,0,0,-1,545,393,0,0
-672,631,0,0,0,0,0,0,0,0,0,-1,552,393,0,0
-665,631,0,0,0,0,0,0,0,0,0,-1,559,393,0,0
-658,631,0,0,0,0,0,0,0,0,0,-1,566,393,0,0
-651,631,0,0,0,0,0,0,0,0,0,-1,573,393,0,0
-644,631,0,0,0,0,0,0,0,0,0,-1,580,393,0,0
-637,631,0,0,0,0,0,0,0,0,0,-1,587,393,0,0
-630,631,0,0,0,0,0,0,0,0,0,-1,594,393,0,0
-623,631,0,0,0,0,0,0,0,0,0,-1,601,393,0,0
-616,631,0,0,0,0,0,0,0,0,0,-1,608,393,0,0
-609,631,0,0,0,0,0,0,0,0,0,-1,615,393,0,0
-602,631,0,0,0,0,0,0,0,0,0,-1,622,393,0,0
-595,631,0,0,0,0,0,0,0,0,0,-1,629,393,0,0
-588,631,0,0,0,0,0,0,0,0,0,-1,636,393,0,0
-581,631,0,0,0,0,0,0,0,0,0,-1,643,393,0,0
-574,631,0,0,0,0,0,0,0,0,0,-1,650,393,0,0
-567,631,0,0,0,0,0,0,0,0,0,-1,657,393,0,0
-560,631,0,0,0,0,0,0,0,0,0,-1,664,393,0,0
-553,631,0,0,0,0,0,0,0,0,0,-1,671,393,0,0
-546,631,0,0,0,0,0,0,0,0,0,-1,678,393,0,0
-539,631,0,0,0,0,0,0,0,0,0,-1,685,393,0,0
-532,631,0,0,0,0,0,0,0,0,0,-1,692,393,0,0
-525,631,0,0,0,0,0,0,0,0,0,-1,699,393,0,0
-518,631,0,0,0,0,0,0,0,0,0,-1,706,393,0,0
-511,631,0,0,0,0,0,0,0,0,0,-1,713,393,0,0
-504,631,0,0,0,0,0,0,0,0,0,-1,720,393,0,0
-497,631,0,0,0,0,0,0,0,0,0,-1,727,393,0,0
-490,631,0,0,0,0,0,0,0,0,0,-1,734,393,0,0
-483,631,0,0,0,0,0,0,0,0,0,-1,741,393,0,0
-476,631,0,0,0,0,0,0,0,0,0,-1,748,393,0,0
-469,631,0,0,0,0,0,0,0,0,0,-1,755,393,0,0
-462,631,0,0,0,0,0,0,0,0,0,-1,762,393,0,0
-455,631,0,0,0,0,0,0,0,0,0,-1,769,393,0,0
-448,631,0,0,0,0,0,0,0,0,0,-1,776,393,0,0
-441,631,0,0,0,0,0,0,0,0,0,-1,783,393,0,0
-434,631,0,0,0,0,0,0,0,0,0,-1,790,393,0,0
-427,631,0,0,0,0,0,0,0,0,0,-1,797,393,0,0
-420,631,0,0,0,0,0,0,0,0,0,-1,804,393,0,0
-413,631,0,0,0,0,0,0,0,0,0,-1,811,393,0,0
-406,631,0,0,0,0,0,0,0,0,0,-1,818,393,0,0
-399,631,0,0,0,0,0,0,0,0,0,-1,825,393,0,0
-392,631,0,0,0,0,0,0,0,0,0,-1,832,393,0,0
-385,631,0,0,0,0,0,0,0,0,0,-1,839,393,0,0
-378,631,0,0,0,0,0,0,0,0,0,-1,846,393,0,0
-371,631,0,0,0,0,0,0,0,0,0,-1,853,393,0,0
-364,631,0,0,0,0,0,0,0,0,0,-1,860,393,0,0
-357,631,0,0,0,0,0,0,0,0,0,-1,867,393,0,0
-350,631,0,0,0,0,0,0,0,0,0,-1,874,393,0,0
-343,631,0,0,0,0,0,0,0,0,0,-1,881,393,0,0
-336,631,0,0,0,0,0,0,0,0,0,-1,888,393,0,0
-329,631,0,0,0,0,0,0,0,0,0,-1,895,393,0,0
-322,631,0,0,0,0,0,0,0,0,0,-1,902,393,0,0
-315,631,0,0,0,0,0,0,0,0,0,-1,909,393,0,0
-308,631,0,0,0,0,0,0,0,0,0,-1,916,393,0,0
-301,631,0,0,0,0,0,0,0,0,0,-1,923,393,0,0
-294,631,0,0,0,0,0,0,0,0,0,-1,930,393,0,0
-287,631,0,0,0,0,0,0,0,0,0,-1,937,393,0,0
-280,631,1.02759,-14.3235,0,0,0,0,0,0,0,-1,944,393,1.02761,14.3235
-273,631,3.12531,-25.4045,0,0,0,0,0,0,0,-1,951,393,3.12531,25.4045
-266,631,4.95123,-25.876,0,0,0,0,0,0,0,-1,958,393,4.95123,25.876
-259,631,6.86334,-26.3179,0,0,0,0,0,0,0,-1,965,393,6.86332,26.3179
-252,631,8.73389,-26.7964,0,0,0,0,0,0,0,-1,972,393,8.7339,26.7964
-245,631,4.06909,-25.853,0,0,0,0,0,0,0,-1,979,393,4.06911,25.853
-238,631,3.05438,-25.4099,0,0,0,0,0,0,0,-1,986,393,3.0544,25.4099
-231,631,2.14966,-25.2306,0,0,0,0,0,0,0,-1,993,393,2.14968,25.2306
-224,631,6.83575,-19.7909,0,0,0,0,0,0,0,-1,1000,393,6.83575,19.7909
-217,631,5.05188,-18.3867,0,0,0,0,0,0,0,-1,1007,393,5.0519,18.3866
-210,631,3.37842,-26.3769,0,0,0,0,0,0,0,-1,1014,393,3.37839,26.3769
-203,631,5.05298,-26.4169,0,0,0,0,0,0,0,-1,1021,393,5.05302,26.4169
-196,631,5.10522,-28.0449,0,0,0,0,0,0,0,-1,1028,393,5.10518,28.0449
-189,631,4.94458,-28.1816,0,0,0,0,0,0,0,-1,1035,393,4.94458,28.1816
-182,631,4.92395,-29.121,0,0,0,0,0,0,0,-1,1042,393,4.9239,29.121
-175,631,4.97046,-29.6458,0.0227304,-0.000315127,0.00961731,0.0262165,-0.00380125,0.347753,0.0188728,0.0408179,1049,393,4.97046,29.6458
-168,631,4.9491,-30.1428,0.0193323,-0.00471736,0.00798944,0.0217445,-0.00712955,0.29322,0.0173677,0.0218442,1056,393,4.94915,30.1428
-161,631,4.93091,-30.5374,0.0159904,-0.0068719,0.00628747,0.0176054,-0.00848696,0.251433,0.015368,0.0114964,1063,393,4.9309,30.5374
-154,631,4.90393,-30.9262,0.0127504,-0.00713422,0.00476127,0.0138316,-0.00821549,0.223309,0.0128658,0.0114182,1070,393,4.90394,30.9262
-147,631,4.86914,-31.2702,0.00937428,-0.00778718,0.00279422,0.00981777,-0.00823067,0.157405,0.0104337,0.0119733,1077,393,4.8691,31.2702
-140,631,4.85046,-31.6055,0.00659475,-0.00604705,0.00131081,0.00672924,-0.00618153,0.102239,0.00745627,0.0109872,1084,393,4.85052,31.6055
-133,631,4.80811,-31.9288,0.00429819,-0.002361,0.000440781,0.00432724,-0.00239005,0.0658088,0.00393162,0.00864601,1091,393,4.80815,31.9288
-126,631,4.79126,-32.2335,0.00145983,-0.00122053,0.000517898,0.00155642,-0.00131711,0.184381,0.00166095,0.0124819,1098,393,4.79127,32.2335
-119,631,4.76404,-32.5246,-0.00123578,-0.00122253,0.00126405,3.49131e-05,-0.00249322,0.788018,0.00167391,0.0158505,1105,393,4.76398,32.5246
-112,631,4.75635,-32.8387,-0.00289702,-0.000909908,0.00159489,-2.44132e-05,-0.00378252,1.06396,0.00251358,0.015441,1112,393,4.75633,32.8387
-105,631,4.78784,-33.1361,-0.00344381,-0.0021455,0.0020993,-0.000597282,-0.00499203,0.935348,0.00314787,0.0211262,1119,393,4.7878,33.1362
-98,631,4.73108,-33.4177,-0.00351048,-0.00501176,0.00305665,-0.00111365,-0.00740858,0.664993,0.00461287,0.0166015,1126,393,4.73102,33.4177
-91,631,4.68152,-33.6942,-0.00350324,-0.00759212,0.00390243,-0.00114215,-0.00995321,0.544111,0.00628942,0.0176069,1133,393,4.68146,33.6942
-84,631,4.66504,-33.9555,-0.00342429,-0.00940359,0.00446292,-0.0010422,-0.0117857,0.490284,0.0075338,0.017092,1140,393,4.66501,33.9555
-77,631,4.63855,-34.2158,-0.0032349,-0.010038,0.00462455,-0.000895619,-0.0123772,0.468308,0.00796975,0.0113092,1147,393,4.63851,34.2157
-70,631,4.63403,-34.4607,-0.0029004,-0.00993167,0.00449298,-0.000711083,-0.012121,0.453417,0.00785437,0.0132533,1154,393,4.63402,34.4607
-63,631,4.62695,-34.703,-0.0023498,-0.00864774,0.00386991,-0.000509561,-0.010488,0.443877,0.00682847,0.0143376,1161,393,4.62695,34.703
-56,631,4.61133,-34.9374,-0.00173071,-0.00692342,0.003128,-0.000261918,-0.00839221,0.439004,0.00550958,0.0150913,1168,393,4.61137,34.9374
-49,631,4.6123,-35.117,-0.00113257,-0.00515975,0.00237903,-2.93832e-05,-0.00626294,0.4342,0.00416554,0.0118563,1175,393,4.61235,35.117
-42,631,4.61194,-35.2907,-0.000380479,-0.00244665,0.00125603,0.000212739,-0.00303987,0.441242,0.00210109,0.00951028,1182,393,4.61198,35.2907
-35,631,4.60645,-35.4753,0.000281738,-0.000260206,0.000295271,0.000411529,-0.000389997,0.414143,0.000462817,0.0103664,1189,393,4.60641,35.4753
-28,631,4.60974,-35.6369,0.000995375,0.00206994,-0.000670205,0.00239164,0.000673677,-1.12328,0.00142401,0.0135982,1196,393,4.60972,35.6369
-21,631,4.59106,-35.7841,0.00175456,0.00529658,-0.00188784,0.00611408,0.000937053,-1.16214,0.00380239,0.012009,1203,393,4.59112,35.7841
-14,631,4.57837,-35.9476,0.00239588,0.00809469,-0.00291381,0.00932075,0.00116982,-1.17251,0.00586293,0.0141577,1210,393,4.57842,35.9476
-7,631,4.60974,-36.1629,0.00281994,0.00997199,-0.00350307,0.0114019,0.00139003,-1.18325,0.0071829,0.0225509,1217,393,4.60973,36.1629
0,631,4.61938,-36.2567,0.00307964,0.0114841,-0.00402629,0.0131017,0.0014621,-1.18879,0.00829017,0.0250652,1224,393,4.61934,36.2566
7,631,4.57507,-36.3108,0.00309136,0.0126292,-0.00429784,0.0142801,0.00144047,-1.20405,0.00907807,0.0193578,1231,393,4.57502,36.3108
14,631,4.60193,-36.4002,0.0030036,0.0133983,-0.00431873,0.0149585,0.00144345,-1.22413,0.00952768,0.0105478,1238,393,4.60194,36.4002
21,631,4.66211,-36.4912,0.00288143,0.0139737,-0.00398845,0.0152589,0.00159621,-1.25907,0.00968449,0.0136282,1245,393,4.66217,36.4912
28,631,4.67041,-36.5559,0.00261382,0.0141176,-0.00355847,0.0151294,0.00160206,-1.29378,0.00959691,0.0157431,1252,393,4.67037,36.5559
35,631,4.68457,-36.5819,0.0023482,0.0138435,-0.00296941,0.0145652,0.00162647,-1.33236,0.00921597,0.0148791,1259,393,4.68457,36.5819
42,631,4.73376,-36.6241,0.00206656,0.0134513,-0.00224047,0.0138764,0.00164152,-1.38331,0.0087552,0.0128056,1266,393,4.7338,36.6241
49,631,4.72534,-36.6431,0.00177657,0.0128888,-0.00157025,0.0131065,0.00155894,-1.43308,0.00826713,0.0112317,1273,393,4.72539,36.6431
56,631,4.72522,-36.6768,0.0014948,0.0119965,-0.00108125,0.0121067,0.00138463,-1.46926,0.00765144,0.0134745,1280,393,4.72518,36.6768
63,631,4.71814,-36.6996,0.0011607,0.0100249,-0.000262424,0.0100327,0.00115294,-1.54123,0.0063392,0.0154344,1287,393,4.71814,36.6996
70,631,4.72546,-36.669,0.00091115,0.00883656,-4.77381e-06,0.00883657,0.000911147,-1.57019,0.00561204,0.015884,1294,393,4.72546,36.669
77,631,4.73853,-36.6233,0.000554334,0.00801324,1.31995e-06,0.00801324,0.000554334,1.57062,0.0051673,0.0163786,1301,393,4.73853,36.6233
84,631,4.77515,-36.5788,-5.15293e-05,0.00622593,-0.000191181,0.00623175,-5.73462e-05,-1.54038,0.00417375,0.0133505,1308,393,4.77509,36.5788
91,631,4.78748,-36.5074,-0.00075584,0.00461315,-0.000577104,0.00467448,-0.000817171,-1.46492,0.00342139,0.0153518,1315,393,4.78747,36.5074
98,631,4.80481,-36.4346,-0.00137302,0.00310603,-0.000924035,0.00328917,-0.00155616,-1.37513,0.00285648,0.0132229,1322,393,4.80477,36.4346
105,631,4.79065,-36.3579,-0.0018608,0.00199469,-0.00120095,0.00233817,-0.00220428,-1.29222,0.00262297,0.0110493,1329,393,4.7907,36.3579
112,631,4.81873,-36.263,-0.00220057,0.000915542,-0.00151286,0.00152919,-0.00281421,-1.18546,0.00254398,0.0114931,1336,393,4.81876,36.263
119,631,4.82385,-36.1582,-0.00254766,1.58395e-05,-0.00179047,0.000936055,-0.00346788,-1.09605,0.00267901,0.0119042,1343,393,4.82384,36.1582
126,631,4.82471,-36.0283,-0.00281656,-0.000695739,-0.00211773,0.000612238,-0.00412453,-1.01751,0.00297484,0.0158754,1350,393,4.82468,36.0283
133,631,4.83752,-35.8983,-0.00281236,-0.000802948,-0.00211961,0.000538018,-0.00415332,-1.00672,0.00296454,0.0178129,1357,393,4.83751,35.8983
140,631,4.84937,-35.7487,-0.00266508,-0.000455298,-0.00195356,0.000684175,-0.00380456,-1.04276,0.00279251,0.0202184,1364,393,4.84933,35.7487
147,631,4.82361,-35.5519,-0.00230464,-3.70597e-05,-0.00171397,0.000884185,-0.00322588,-1.07761,0.00249803,0.0227718,1371,393,4.82359,35.5519
154,631,4.81519,-35.3712,-0.00175065,0.000610476,-0.0013841,0.00124911,-0.00238929,-1.1385,0.00213473,0.0208342,1378,393,4.81519,35.3712
161,631,4.88245,-35.1823,-0.00116716,0.00149705,-0.000962479,0.00180838,-0.00147849,-1.25795,0.00190085,0.0228935,1385,393,4.88243,35.1823
168,631,4.91223,-34.9561,-0.000784974,0.00228047,-0.000563963,0.00238093,-0.000885436,-1.39451,0.00195061,0.0271612,1392,393,4.9122,34.9561
175,631,4.88757,-34.8133,-0.000548366,0.00318763,-0.000141527,0.00319299,-0.000553719,-1.53299,0.00233522,0.0209044,1399,393,4.88752,34.8133
182,631,4.8584,-34.6034,-0.000358866,0.00359305,0.000297602,0.00361534,-0.000381152,1.49605,0.0025468,0.0117839,1406,393,4.85841,34.6034
189,631,4.84521,-34.3252,-0.000299641,0.0040863,0.000733565,0.00420574,-0.00041908,1.40939,0.00295344,0.0112934,1413,393,4.84526,34.3252
196,631,4.80933,-34.084,-0.000408154,0.00446278,0.0010174,0.00466674,-0.000612117,1.37294,0.00333398,0.0118248,1420,393,4.80934,34.084
203,631,4.81494,-33.8442,-0.000641787,0.0049473,0.00131242,0.00524014,-0.000934624,1.35126,0.00384304,0.0133134,1427,393,4.81492,33.8442
210,631,4.83813,-33.5997,-0.00104983,0.00551187,0.00145062,0.00581826,-0.00135621,1.36264,0.00440112,0.0147481,1434,393,4.83818,33.5997
217,631,4.84131,-33.344,-0.00130382,0.00622478,0.00150617,0.00651492,-0.00159396,1.38049,0.00496071,0.0166642,1441,393,4.84133,33.344
224,631,4.79675,-33.0249,-0.00135439,0.00708864,0.00160845,0.00738468,-0.00165043,1.38878,0.00555559,0.0139033,1448,393,4.7967,33.0249
231,631,4.74133,-32.6921,-0.00123743,0.00782106,0.00181302,0.00817045,-0.00158682,1.38042,0.00604573,0.0115916,1455,393,4.74127,32.6921
238,631,4.72839,-32.3684,-0.00127546,0.00894193,0.00221616,0.00940191,-0.00173544,1.36615,0.00691935,0.0177283,1462,393,4.72839,32.3684
245,631,4.73962,-32.0665,-0.00158249,0.0100364,0.00246994,0.0105397,-0.00208575,1.36979,0.00781504,0.0186014,1469,393,4.73961,32.0665
252,631,4.73022,-31.7343,-0.00161943,0.0110491,0.00280347,0.0116418,-0.00221209,1.36246,0.00859398,0.0169579,1476,393,4.73021,31.7343
259,631,4.66626,-31.3814,-0.00164596,0.0121774,0.00325887,0.0129072,-0.00237572,1.3505,0.00949627,0.0121534,1483,393,4.66629,31.3814
266,631,4.6344,-31.0315,-0.00171578,0.0131788,0.00375602,0.0140724,-0.00260934,1.33724,0.0103615,0.0112891,1490,393,4.63438,31.0315
273,631,4.62646,-30.6416,-0.00176445,0.0142248,0.00430934,0.0153123,-0.00285192,1.32361,0.0112796,0.0144744,1497,393,4.62643,30.6416
280,631,4.62463,-30.2326,-0.00180408,0.0153073,0.00491611,0.0166192,-0.00311591,1.31003,0.0122509,0.0131823,1504,393,4.62462,30.2326
287,631,4.58887,-29.8443,-0.00179694,0.0164203,0.00563531,0.0180226,-0.00339924,1.29378,0.0132938,0.01413,1511,393,4.58881,29.8443
294,631,4.50146,-29.3801,-0.00182182,0.0175246,0.00628543,0.0193873,-0.00368453,1.28269,0.014312,0.01774,1518,393,4.50146,29.3801
301,631,4.40247,-28.9061,-0.00186675,0.0185008,0.00683901,0.0205841,-0.00395005,1.27511,0.0152114,0.0261499,1525,393,4.40248,28.9061
308,631,4.59314,-28.3459,-0.00180852,0.0195073,0.00742343,0.0218378,-0.004139,1.2666,0.0161163,0.0375204,1532,393,4.59312,28.3459
315,631,4.60535,-28.0452,-0.00164253,0.0203206,0.00815607,0.023018,-0.00434001,1.25139,0.016978,0.046643,1539,393,4.60533,28.0452
322,631,4.42725,-27.8457,0,0,0,0,0,0,0,-1,1546,393,4.42726,27.8457
329,631,4.38318,-26.9353,0,0,0,0,0,0,0,-1,1553,393,4.38314,26.9353
336,631,4.36377,-26.6713,0,0,0,0,0,0,0,-1,1560,393,4.36372,26.6713
343,631,4.34436,-26.4072,0,0,0,0,0,0,0,-1,1567,393,4.3443,26.4072
350,631,2.1344,-9.23401,0,0,0,0,0,0,0,-1,1574,393,2.13439,9.23401
357,631,2.6449,-9.60303,0,0,0,0,0,0,0,-1,1581,393,2.64491,9.60304
364,631,3.39136,-5.7594,0,0,0,0,0,0,0,-1,1588,393,3.39137,5.75939
371,631,3.72839,-6.0574,0,0,0,0,0,0,0,-1,1595,393,3.72845,6.05742
378,631,4.06555,-6.35544,0,0,0,0,0,0,0,-1,1602,393,4.06553,6.35544
385,631,3.90442,-3.58298,0,0,0,0,0,0,0,-1,1609,393,3.90437,3.58299
392,631,0.352295,-2.21301,0,0,0,0,0,0,0,-1,1616,393,0.352345,2.213
399,631,0,0,0,0,0,0,0,0,0,-1,1623,393,0,0
406,631,0,0,0,0,0,0,0,0,0,-1,1630,393,0,0
413,631,0,0,0,0,0,0,0,0,0,-1,1637,393,0,0
420,631,0,0,0,0,0,0,0,0,0,-1,1644,393,0,0
427,631,0,0,0,0,0,0,0,0,0,-1,1651,393,0,0
434,631,0,0,0,0,0,0,0,0,0,-1,1658,393,0,0
441,631,0,0,0,0,0,0,0,0,0,-1,1665,393,0,0
448,631,0,0,0,0,0,0,0,0,0,-1,1672,393,0,0
455,631,0,0,0,0,0,0,0,0,0,-1,1679,393,0,0
462,631,0,0,0,0,0,0,0,0,0,-1,1686,393,0,0
469,631,0,0,0,0,0,0,0,0,0,-1,1693,393,0,0
476,631,0,0,0,0,0,0,0,0,0,-1,1700,393,0,0
483,631,0,0,0,0,0,0,0,0,0,-1,1707,393,0,0
490,631,0,0,0,0,0,0,0,0,0,-1,1714,393,0,0
497,631,0,0,0,0,0,0,0,0,0,-1,1721,393,0,0
504,631,0,0,0,0,0,0,0,0,0,-1,1728,393,0,0
511,631,0,0,0,0,0,0,0,0,0,-1,1735,393,0,0
518,631,0,0,0,0,0,0,0,0,0,-1,1742,393,0,0
525,631,0,0,0,0,0,0,0,0,0,-1,1749,393,0,0
532,631,0,0,0,0,0,0,0,0,0,-1,1756,393,0,0
539,631,0,0,0,0,0,0,0,0,0,-1,1763,393,0,0
546,631,0,0,0,0,0,0,0,0,0,-1,1770,393,0,0
553,631,0,0,0,0,0,0,0,0,0,-1,1777,393,0,0
560,631,0,0,0,0,0,0,0,0,0,-1,1784,393,0,0
567,631,0,0,0,0,0,0,0,0,0,-1,1791,393,0,0
574,631,0,0,0,0,0,0,0,0,0,-1,1798,393,0,0
581,631,0,0,0,0,0,0,0,0,0,-1,1805,393,0,0
588,631,0,0,0,0,0,0,0,0,0,-1,1812,393,0,0
595,631,0,0,0,0,0,0,0,0,0,-1,1819,393,0,0
602,631,0,0,0,0,0,0,0,0,0,-1,1826,393,0,0
609,631,0,0,0,0,0,0,0,0,0,-1,1833,393,0,0
616,631,0,0,0,0,0,0,0,0,0,-1,1840,393,0,0
623,631,0,0,0,0,0,0,0,0,0,-1,1847,393,0,0
630,631,0,0,0,0,0,0,0,0,0,-1,1854,393,0,0
637,631,0,0,0,0,0,0,0,0,0,-1,1861,393,0,0
644,631,0,0,0,0,0,0,0,0,0,-1,1868,393,0,0
651,631,0,0,0,0,0,0,0,0,0,-1,1875,393,0,0
658,631,0,0,0,0,0,0,0,0,0,-1,1882,393,0,0
665,631,0,0,0,0,0,0,0,0,0,-1,1889,393,0,0
672,631,0,0,0,0,0,0,0,0,0,-1,1896,393,0,0
679,631,0,0,0,0,0,0,0,0,0,-1,1903,393,0,0
686,631,0,0,0,0,0,0,0,0,0,-1,1910,393,0,0
693,631,0,0,0,0,0,0,0,0,0,-1,1917,393,0,0
700,631,0,0,0,0,0,0,0,0,0,-1,1924,393,0,0
707,631,0,0,0,0,0,0,0,0,0,-1,1931,393,0,0
714,631,0,0,0,0,0,0,0,0,0,-1,1938,393,0,0
721,631,0,0,0,0,0,0,0,0,0,-1,1945,393,0,0
728,631,0,0,0,0,0,0,0,0,0,-1,1952,393,0,0
735,631,0,0,0,0,0,0,0,0,0,-1,1959,393,0,0
742,631,0,0,0,0,0,0,0,0,0,-1,1966,393,0,0
749,631,0,0,0,0,0,0,0,0,0,-1,1973,393,0,0
756,631,0,0,0,0,0,0,0,0,0,-1,1980,393,0,0
763,631,0,0,0,0,0,0,0,0,0,-1,1987,393,0,0
770,631,0,0,0,0,0,0,0,0,0,-1,1994,393,0,0
777,631,0,0,0,0,0,0,0,0,0,-1,2001,393,0,0
784,631,0,0,0,0,0,0,0,0,0,-1,2008,393,0,0
791,631,0,0,0,0,0,0,0,0,0,-1,2015,393,0,0
798,631,0,0,0,0,0,0,0,0,0,-1,2022,393,0,0
805,631,0,0,0,0,0,0,0,0,0,-1,2029,393,0,0
812,631,0,0,0,0,0,0,0,0,0,-1,2036,393,0,0
-700,624,0,0,0,0,0,0,0,0,0,-1,524,400,0,0
-693,624,0,0,0,0,0,0,0,0,0,-1,531,400,0,0
-686,624,0,0,0,0,0,0,0,0,0,-1,538,400,0,0
-679,624,0,0,0,0,0,0,0,0,0,-1,545,400,0,0
-672,624,0,0,0,0,0,0,0,0,0,-1,552,400,0,0
-665,624,0,0,0,0,0,0,0,0,0,-1,559,400,0,0
-658,624,0,0,0,0,0,0,0,0,0,-1,566,400,0,0
-651,624,0,0,0,0,0,0,0,0,0,-1,573,400,0,0
-644,624,0,0,0,0,0,0,0,0,0,-1,580,400,0,0
-637,624,0,0,0,0,0,0,0,0,0,-1,587,400,0,0
-630,624,0,0,0,0,0,0,0,0,0,-1,594,400,0,0
-623,624,0,0,0,0,0,0,0,0,0,-1,601,400,0,0
-616,624,0,0,0,0,0,0,0,0,0,-1,608,400,0,0
-609,624,0,0,0,0,0,0,0,0,0,-1,615,400,0,0
-602,624,0,0,0,0,0,0,0,0,0,-1,622,400,0,0
-595,624,0,0,0,0,0,0,0,0,0,-1,629,400,0,0
-588,624,0,0,0,0,0,0,0,0,0,-1,636,400,0,0
-581,624,0,0,0,0,0,0,0,0,0,-1,643,400,0,0
-574,624,0,0,0,0,0,0,0,0,0,-1,650,400,0,0
-567,624,0,0,0,0,0,0,0,0,0,-1,657,400,0,0
-560,624,0,0,0,0,0,0,0,0,0,-1,664,400,0,0
-553,624,0,0,0,0,0,0,0,0,0,-1,671,400,0,0
-546,624,0,0,0,0,0,0,0,0,0,-1,678,400,0,0
-539,624,0,0,0,0,0,0,0,0,0,-1,685,400,0,0
-532,624,0,0,0,0,0,0,0,0,0,-1,692,400,0,0
-525,624,0,0,0,0,0,0,0,0,0,-1,699,400,0,0
-518,624,0,0,0,0,0,0,0,0,0,-1,706,400,0,0
-511,624,0,0,0,0,0,0,0,0,0,-1,713,400,0,0
-504,624,0,0,0,0,0,0,0,0,0,-1,720,400,0,0
-497,624,0,0,0,0,0,0,0,0,0,-1,727,400,0,0
-490,624,0,0,0,0,0,0,0,0,0,-1,734,400,0,0
-483,624,0,0,0,0,0,0,0,0,0,-1,741,400,0,0
-476,624,0,0,0,0,0,0,0,0,0,-1,748,400,0,0
-469,624,0,0,0,0,0,0,0,0,0,-1,755,400,0,0
-462,624,0,0,0,0,0,0,0,0,0,-1,762,400,0,0
-455,624,0,0,0,0,0,0,0,0,0,-1,769,400,0,0
-448,624,0,0,0,0,0,0,0,0,0,-1,776,400,0,0
-441,624,0,0,0,0,0,0,0,0,0,-1,783,400,0,0
-434,624,0,0,0,0,0,0,0,0,0,-1,790,400,0,0
-427,624,0,0,0,0,0,0,0,0,0,-1,797,400,0,0
-420,624,0,0,0,0,0,0,0,0,0,-1,804,400,0,0
-413,624,0,0,0,0,0,0,0,0,0,-1,811,400,0,0
-406,624,0,0,0,0,0,0,0,0,0,-1,818,400,0,0
-399,624,0,0,0,0,0,0,0,0,0,-1,825,400,0,0
-392,624,0,0,0,0,0,0,0,0,0,-1,832,400,0,0
-385,624,0,0,0,0,0,0,0,0,0,-1,839,400,0,0
-378,624,0,0,0,0,0,0,0,0,0,-1,846,400,0,0
-371,624,0,0,0,0,0,0,0,0,0,-1,853,400,0,0
-364,624,0,0,0,0,0,0,0,0,0,-1,860,400,0,0
-357,624,0,0,0,0,0,0,0,0,0,-1,867,400,0,0
-350,624,0,0,0,0,0,0,0,0,0,-1,874,400,0,0
-343,624,0,0,0,0,0,0,0,0,0,-1,881,400,0,0
-336,624,0,0,0,0,0,0,0,0,0,-1,888,400,0,0
-329,624,0,0,0,0,0,0,0,0,0,-1,895,400,0,0
-322,624,0,0,0,0,0,0,0,0,0,-1,902,400,0,0
-315,624,0,0,0,0,0,0,0,0,0,-1,909,400,0,0
-308,624,0,0,0,0,0,0,0,0,0,-1,916,400,0,0
-301,624,0,0,0,0,0,0,0,0,0,-1,923,400,0,0
-294,624,10.6271,-28.4093,0,0,0,0,0,0,0,-1,930,400,10.6271,28.4093
-287,624,0.12146,-15.0862,0,0,0,0,0,0,0,-1,937,400,0.121451,15.0862
-280,624,1.61359,-14.553,0,0,0,0,0,0,0,-1,944,400,1.6136,14.553
-273,624,2.92303,-24.3356,0,0,0,0,0,0,0,-1,951,400,2.92306,24.3356
-266,624,4.62988,-24.8541,0,0,0,0,0,0,0,-1,958,400,4.62991,24.8541
-259,624,6.30719,-25.3577,0,0,0,0,0,0,0,-1,965,400,6.30719,25.3577
-252,624,7.96606,-26.0403,0,0,0,0,0,0,0,-1,972,400,7.96608,26.0403
-245,624,4.72278,-25.3516,0,0,0,0,0,0,0,-1,979,400,4.72279,25.3516
-238,624,4.08038,-25.0565,0,0,0,0,0,0,0,-1,986,400,4.0804,25.0565
-231,624,4.95148,-20.7456,0,0,0,0,0,0,0,-1,993,400,4.95146,20.7456
-224,624,4.4541,-26.6944,0,0,0,0,0,0,0,-1,1000,400,4.45411,26.6944
-217,624,5.03467,-27.2205,0,0,0,0,0,0,0,-1,1007,400,5.03465,27.2205
-210,624,4.91302,-27.724,0,0,0,0,0,0,0,-1,1014,400,4.91301,27.724
-203,624,4.84961,-28.1095,0,0,0,0,0,0,0,-1,1021,400,4.84964,28.1095
-196,624,4.76379,-28.3044,0.0212943,0.0210858,0.00968527,0.0308759,0.0115042,0.780016,0.0180181,0.0440373,1028,400,4.76376,28.3044
-189,624,4.63318,-28.6246,0.019528,0.0137839,0.00841178,0.0255445,0.00776735,0.620887,0.0151208,0.0411579,1035,400,4.63314,28.6246
-182,624,4.70862,-29.134,0.0175886,0.00712699,0.0072382,0.0212883,0.00342735,0.472509,0.0131989,0.0349091,1042,400,4.70867,29.134
-175,624,4.76758,-29.7557,0.015317,0.00216968,0.00603572,0.0176677,-0.000180944,0.37138,0.0118392,0.0235149,1049,400,4.76757,29.7557
-168,624,4.65161,-30.1778,0.0128993,-0.00124,0.00506313,0.0145254,-0.00286605,0.310751,0.0107668,0.014083,1056,400,4.65162,30.1778
-161,624,4.60364,-30.5734,0.0105713,-0.00318581,0.00397841,0.0116389,-0.00425347,0.262186,0.00949999,0.0108333,1063,400,4.60367,30.5734
-154,624,4.5824,-30.9152,0.00834342,-0.00378092,0.00300185,0.00904594,-0.00448344,0.229891,0.00795787,0.00952522,1070,400,4.58239,30.9152
-147,624,4.5575,-31.2826,0.0059851,-0.00459224,0.00167196,0.00624309,-0.00485024,0.153099,0.00642154,0.0108496,1077,400,4.55754,31.2826
-140,624,4.53271,-31.6147,0.00413487,-0.00368943,0.000700421,0.00419708,-0.00375164,0.0885801,0.0045916,0.0101083,1084,400,4.53271,31.6147
-133,624,4.50464,-31.9388,0.0026489,-0.00147395,0.000183371,0.00265704,-0.00148209,0.0443599,0.00242161,0.0106775,1091,400,4.50461,31.9388
-126,624,4.48193,-32.2504,0.000981189,6.59138e-05,-8.48001e-05,0.000988979,5.81234e-05,-0.0916108,0.000640824,0.0126711,1098,400,4.48188,32.2504
-119,624,4.46289,-32.5369,-0.000448357,0.00120615,-6.11684e-05,0.0012084,-0.000450616,-1.53389,0.000990583,0.0149247,1105,400,4.4629,32.5369
-112,624,4.44824,-32.8322,-0.00121016,0.00209272,-0.000162242,0.00210067,-0.00121811,-1.52183,0.00193855,0.0182128,1112,400,4.44821,32.8322
-105,624,4.47449,-33.1362,-0.00131173,0.00205062,-0.000182474,0.0020605,-0.00132161,-1.51674,0.00196813,0.0145545,1119,400,4.47448,33.1362
-98,624,4.43982,-33.4269,-0.0011326,0.000962158,9.17629e-05,0.00096617,-0.00113662,1.5271,0.00121537,0.0138093,1126,400,4.43987,33.4269
-91,624,4.45679,-33.7062,-0.000921265,2.8116e-05,0.000325318,0.000128893,-0.00102204,1.27039,0.000728138,0.0178771,1133,400,4.45683,33.7062
-84,624,4.48828,-33.9655,-0.000705046,-0.000658221,0.000486736,-0.000194335,-0.00116893,0.80943,0.000723265,0.0168293,1140,400,4.48832,33.9655
-77,624,4.43994,-34.2165,-0.000432883,-0.000823152,0.000494357,-9.65423e-05,-0.00115949,0.597423,0.000742909,0.0127228,1147,400,4.4399,34.2165
-70,624,4.41821,-34.4323,-6.78013e-05,-0.000679741,0.000403445,0.000132574,-0.000880116,0.460973,0.000635561,0.0148799,1154,400,4.41819,34.4322
-63,624,4.41602,-34.6806,0.00031548,-0.000321929,0.000234367,0.000392376,-0.000398826,0.317037,0.000456806,0.0167881,1161,400,4.41596,34.6806
-56,624,4.39441,-34.9304,0.000700261,-8.33481e-05,0.000160308,0.000731788,-0.000114875,0.194186,0.000530314,0.0140462,1168,400,4.39439,34.9304
-49,624,4.41833,-35.1304,0.00102102,-0.000394248,0.000249919,0.00106386,-0.000437084,0.16975,0.0008914,0.0114778,1175,400,4.41836,35.1304
-42,624,4.42688,-35.2983,0.0017138,0.00335141,-0.00112183,0.00392147,0.00114374,-1.10065,0.00232865,0.0100481,1182,400,4.42683,35.2983
-35,624,4.40808,-35.4718,0.00209838,0.00523604,-0.00186656,0.0061055,0.00122892,-1.13487,0.00372882,0.0145661,1189,400,4.4081,35.4718
-28,624,4.39294,-35.6674,0.00251375,0.0067672,-0.00265441,0.00804177,0.00123918,-1.12314,0.00499958,0.0205308,1196,400,4.39293,35.6674
-21,624,4.41943,-35.8062,0.00302439,0.0100657,-0.00367763,0.0116362,0.00145388,-1.1672,0.00732112,0.0153541,1203,400,4.41949,35.8061
-14,624,4.45105,-35.948,0.00348527,0.0130628,-0.00456732,0.0148917,0.00165643,-1.18993,0.00942429,0.0156531,1210,400,4.45107,35.948
-7,624,4.44922,-36.0774,0.00383019,0.015574,-0.00523536,0.017569,0.00183519,-1.20672,0.0111514,0.0202638,1217,400,4.44923,36.0774
0,624,4.50305,-36.2015,0.00395298,0.0174769,-0.00575585,0.0195949,0.00183498,-1.2182,0.0124966,0.0207497,1224,400,4.50303,36.2015
7,624,4.50781,-36.2871,0.00383693,0.0186845,-0.00592452,0.0207587,0.00176268,-1.23402,0.0132906,0.0150621,1231,400,4.50782,36.2871
14,624,4.57214,-36.4115,0.00369566,0.0193106,-0.00578043,0.0212175,0.00178871,-1.25214,0.0135881,0.0124293,1238,400,4.57217,36.4115
21,624,4.59521,-36.4901,0.00356458,0.0196268,-0.00521267,0.0211702,0.00202122,-1.28294,0.0134903,0.0140274,1245,400,4.59526,36.4901
28,624,4.59778,-36.5498,0.00325679,0.0193528,-0.00455582,0.0205528,0.00205678,-1.31324,0.0130704,0.0129655,1252,400,4.59784,36.5498
35,624,4.61792,-36.5718,0.00292567,0.0185706,-0.00370828,0.0194051,0.00209121,-1.34946,0.012299,0.0164508,1259,400,4.61788,36.5718
42,624,4.67603,-36.6148,0.00257486,0.0177067,-0.00268343,0.0181685,0.00211309,-1.40038,0.011473,0.0176929,1266,400,4.67603,36.6148
49,624,4.68506,-36.6364,0.00219507,0.016891,-0.00173376,0.0170928,0.00199331,-1.45494,0.0107923,0.0184724,1273,400,4.68507,36.6364
56,624,4.71545,-36.6838,0.00169789,0.0155616,-0.0010436,0.0156397,0.00161977,-1.49608,0.0099307,0.019332,1280,400,4.7155,36.6838
63,624,4.75842,-36.6889,0.00118634,0.0128877,6.04136e-05,0.012888,0.00118602,1.56563,0.0082252,0.0151297,1287,400,4.75841,36.6889
70,624,4.76855,-36.6826,0.00074241,0.0112498,0.000388271,0.0112641,0.000728081,1.53391,0.00727885,0.0131022,1294,400,4.76858,36.6827
77,624,4.79016,-36.6257,0.000233124,0.00994644,0.000409059,0.00996363,0.000215927,1.52878,0.00657163,0.014773,1301,400,4.79017,36.6257
84,624,4.8114,-36.5883,-0.000619138,0.00683904,0.00019087,0.00684392,-0.00062402,1.54523,0.00478421,0.0131772,1308,400,4.81143,36.5883
91,624,4.83716,-36.5117,-0.00162011,0.00375444,-0.000449626,0.00379179,-0.00165747,-1.48791,0.00322557,0.0131377,1315,400,4.83719,36.5117
98,624,4.85681,-36.4419,-0.0024196,0.00100007,-0.000985029,0.00126351,-0.00268304,-1.30947,0.00232716,0.0124489,1322,400,4.85684,36.4419
105,624,4.88281,-36.3955,-0.00300953,-0.00157566,-0.00150893,-0.000622006,-0.00396318,-1.00717,0.00246113,0.0128989,1329,400,4.88286,36.3955
112,624,4.93652,-36.2934,-0.00344211,-0.00414596,-0.00211266,-0.00165226,-0.0059358,-0.702867,0.00353749,0.0135135,1336,400,4.93658,36.2934
119,624,4.94348,-36.1849,-0.0038827,-0.00649136,-0.00269816,-0.00219014,-0.00818392,-0.560253,0.00489214,0.013976,1343,400,4.94349,36.1849
126,624,4.95972,-36.0495,-0.0041965,-0.00847441,-0.00337833,-0.00233692,-0.010334,-0.503183,0.00625754,0.0175901,1350,400,4.95967,36.0495
133,624,4.99121,-35.8865,-0.00408693,-0.00941197,-0.00360779,-0.00226557,-0.0112333,-0.467513,0.00685956,0.0189397,1357,400,4.99125,35.8865
140,624,5.00989,-35.7257,-0.00373433,-0.00923844,-0.00362004,-0.00193903,-0.0110337,-0.460391,0.00680224,0.0189562,1364,400,5.00992,35.7257
147,624,5.00134,-35.5381,-0.00315912,-0.00891759,-0.00355256,-0.00146553,-0.0106112,-0.444853,0.00663974,0.0224569,1371,400,5.00137,35.5381
154,624,5.02332,-35.3957,-0.00236595,-0.00805608,-0.00328869,-0.000862464,-0.00955956,-0.428799,0.00610589,0.0247381,1378,400,5.02329,35.3957
161,624,5.07214,-35.2183,-0.00146851,-0.00635122,-0.00281409,-0.000184368,-0.00763536,-0.428102,0.00502991,0.0238757,1385,400,5.07218,35.2183
168,624,5.08887,-34.9877,-0.000833376,-0.0045399,-0.00228431,0.0002549,-0.00562818,-0.444601,0.00383991,0.0235446,1392,400,5.08886,34.9877
175,624,5.10303,-34.819,-0.000283982,-0.00237798,-0.00172937,0.000690635,-0.0033526,-0.5132,0.00249732,0.0178601,1399,400,5.103,34.819
182,624,5.10217,-34.6092,0.000126101,-0.000602317,-0.00112751,0.000946769,-0.00142298,-0.629178,0.00137736,0.0109119,1406,400,5.10221,34.6092
189,624,5.08301,-34.359,0.000494787,0.00103612,-0.000534504,0.00136458,0.000166326,-1.01977,0.000859661,0.0102547,1413,400,5.08305,34.359
196,624,5.05994,-34.0987,0.000692326,0.00228206,7.92418e-05,0.002286,0.000688385,1.52111,0.00135418,0.0111024,1420,400,5.05999,34.0987
203,624,5.08313,-33.8444,0.00039777,0.00301229,0.000413142,0.00307602,0.000334039,1.41774,0.0019489,0.0135523,1427,400,5.08315,33.8444
210,624,5.08386,-33.5986,-3.90659e-05,0.00369474,0.000665128,0.00380968,-0.000154011,1.39967,0.00259265,0.0171039,1434,400,5.08385,33.5986
217,624,5.05835,-33.2961,-0.0003623,0.00438264,0.000852085,0.00453102,-0.000510676,1.39839,0.00320449,0.0207953,1441,400,5.05837,33.2962
224,624,5.03857,-32.9657,-0.000503244,0.00510538,0.00105112,0.0052959,-0.000693764,1.39149,0.00378312,0.0168276,1448,400,5.03862,32.9657
231,624,5.05798,-32.694,-0.000526572,0.00573995,0.00132364,0.00600806,-0.000794688,1.37094,0.00429485,0.012438,1455,400,5.05796,32.694
238,624,5.03906,-32.39,-0.000607387,0.00661743,0.0016975,0.00699639,-0.000986345,1.35115,0.00502541,0.0183208,1462,400,5.03909,32.39
245,624,5.03528,-32.0952,-0.000846713,0.00749388,0.00194015,0.0079231,-0.00127593,1.35307,0.00575472,0.0188289,1469,400,5.03532,32.0951
252,624,5.02625,-31.752,-0.000920945,0.00833499,0.00223176,0.008845,-0.00143096,1.34613,0.00642698,0.0132788,1476,400,5.02622,31.752
259,624,5.00085,-31.393,-0.00100397,0.00926238,0.00261993,0.00989232,-0.00163392,1.33483,0.00720157,0.00925381,1483,400,5.00088,31.393
266,624,4.96729,-31.0231,-0.00111861,0.0100845,0.00303002,0.0108515,-0.0018856,1.32287,0.0079379,0.0131582,1490,400,4.96723,31.0231
273,624,4.97192,-30.6487,-0.00121068,0.0109403,0.00347283,0.0118628,-0.0021332,1.31115,0.00870714,0.0167534,1497,400,4.97192,30.6487
280,624,4.93896,-30.2944,-0.00127936,0.0117715,0.00395573,0.0128769,-0.00238472,1.29831,0.00948002,0.0152255,1504,400,4.93898,30.2944
287,624,4.90479,-29.938,-0.00131496,0.0126916,0.00452735,0.0140275,-0.00265092,1.28385,0.0103491,0.0114003,1511,400,4.9048,29.938
294,624,4.85559,-29.5366,-0.00139455,0.0135735,0.00503987,0.0151122,-0.00293333,1.27446,0.0111816,0.00992905,1518,400,4.85565,29.5366
301,624,4.8335,-29.0979,-0.00149156,0.0143194,0.00546283,0.0160232,-0.00319541,1.26846,0.0118913,0.0107903,1525,400,4.83347,29.0979
308,624,4.85107,-28.6284,-0.00150122,0.0150739,0.005909,0.0169648,-0.00339206,1.2611,0.0125938,0.0145059,1532,400,4.85105,28.6284
315,624,4.8269,-28.2175,-0.00144019,0.0156951,0.00644885,0.0178509,-0.00359599,1.24818,0.0132627,0.0198788,1539,400,4.82686,28.2175
322,624,4.78687,-27.8317,-0.0014619,0.0162649,0.00695329,0.0186669,-0.00386384,1.23819,0.0139125,0.0354807,1546,400,4.78688,27.8317
329,624,4.75623,-27.4138,0,0,0,0,0,0,0,-1,1553,400,4.75618,27.4138
336,624,4.8009,-26.7611,0,0,0,0,0,0,0,-1,1560,400,4.80091,26.7611
343,624,4.93274,-26.2897,0,0,0,0,0,0,0,-1,1567,400,4.93276,26.2897
350,624,1.99194,-7.29742,0,0,0,0,0,0,0,-1,1574,400,1.99198,7.29741
357,624,2.64075,-3.13092,0,0,0,0,0,0,0,-1,1581,400,2.64076,3.13091
364,624,3.16565,-4.9458,0,0,0,0,0,0,0,-1,1588,400,3.16564,4.94579
371,624,3.37561,-5.23529,0,0,0,0,0,0,0,-1,1595,400,3.37563,5.23529
378,624,1.50439,-5.22165,0,0,0,0,0,0,0,-1,1602,400,1.50438,5.22164
385,624,1.2301,-10.5866,0,0,0,0,0,0,0,-1,1609,400,1.2301,10.5866
392,624,4.26819,-5.14236,0,0,0,0,0,0,0,-1,1616,400,4.26818,5.14236
399,624,2.22168,-9.19293,0,0,0,0,0,0,0,-1,1623,400,2.22173,9.19294
406,624,2.68213,-9.91171,0,0,0,0,0,0,0,-1,1630,400,2.68213,9.91171
413,624,0,0,0,0,0,0,0,0,0,-1,1637,400,0,0
420,624,0,0,0,0,0,0,0,0,0,-1,1644,400,0,0
427,624,0,0,0,0,0,0,0,0,0,-1,1651,400,0,0
434,624,0,0,0,0,0,0,0,0,0,-1,1658,400,0,0
441,624,0,0,0,0,0,0,0,0,0,-1,1665,400,0,0
448,624,0,0,0,0,0,0,0,0,0,-1,1672,400,0,0
455,624,0,0,0,0,0,0,0,0,0,-1,1679,400,0,0
462,624,0,0,0,0,0,0,0,0,0,-1,1686,400,0,0
469,624,0,0,0,0,0,0,0,0,0,-1,1693,400,0,0
476,624,0,0,0,0,0,0,0,0,0,-1,1700,400,0,0
483,624,0,0,0,0,0,0,0,0,0,-1,1707,400,0,0
490,624,0,0,0,0,0,0,0,0,0,-1,1714,400,0,0
497,624,0,0,0,0,0,0,0,0,0,-1,1721,400,0,0
504,624,0,0,0,0,0,0,0,0,0,-1,1728,400,0,0
511,624,0,0,0,0,0,0,0,0,0,-1,1735,400,0,0
518,624,0,0,0,0,0,0,0,0,0,-1,1742,400,0,0
525,624,0,0,0,0,0,0,0,0,0,-1,1749,400,0,0
532,624,0,0,0,0,0,0,0,0,0,-1,1756,400,0,0
539,624,0,0,0,0,0,0,0,0,0,-1,1763,400,0,0
546,624,0,0,0,0,0,0,0,0,0,-1,1770,400,0,0
553,624,0,0,0,0,0,0,0,0,0,-1,1777,400,0,0
560,624,0,0,0,0,0,0,0,0,0,-1,1784,400,0,0
567,624,0,0,0,0,0,0,0,0,0,-1,1791,400,0,0
574,624,0,0,0,0,0,0,0,0,0,-1,1798,400,0,0
581,624,0,0,0,0,0,0,0,0,0,-1,1805,400,0,0
588,624,0,0,0,0,0,0,0,0,0,-1,1812,400,0,0
595,624,0,0,0,0,0,0,0,0,0,-1,1819,400,0,0
602,624,0,0,0,0,0,0,0,0,0,-1,1826,400,0,0
609,624,0,0,0,0,0,0,0,0,0,-1,1833,400,0,0
616,624,0,0,0,0,0,0,0,0,0,-1,1840,400,0,0
623,624,0,0,0,0,0,0,0,0,0,-1,1847,400,0,0
630,624,0,0,0,0,0,0,0,0,0,-1,1854,400,0,0
637,624,0,0,0,0,0,0,0,0,0,-1,1861,400,0,0
644,624,0,0,0,0,0,0,0,0,0,-1,1868,400,0,0
651,624,0,0,0,0,0,0,0,0,0,-1,1875,400,0,0
658,624,0,0,0,0,0,0,0,0,0,-1,1882,400,0,0
665,624,0,0,0,0,0,0,0,0,0,-1,1889,400,0,0
672,624,0,0,0,0,0,0,0,0,0,-1,1896,400,0,0
679,624,0,0,0,0,0,0,0,0,0,-1,1903,400,0,0
686,624,0,0,0,0,0,0,0,0,0,-1,1910,400,0,0
693,624,0,0,0,0,0,0,0,0,0,-1,1917,400,0,0
700,624,0,0,0,0,0,0,0,0,0,-1,1924,400,0,0
707,624,0,0,0,0,0,0,0,0,0,-1,1931,400,0,0
714,624,0,0,0,0,0,0,0,0,0,-1,1938,400,0,0
721,624,0,0,0,0,0,0,0,0,0,-1,1945,400,0,0
728,624,0,0,0,0,0,0,0,0,0,-1,1952,400,0,0
735,624,0,0,0,0,0,0,0,0,0,-1,1959,400,0,0
742,624,0,0,0,0,0,0,0,0,0,-1,1966,400,0,0
749,624,0,0,0,0,0,0,0,0,0,-1,1973,400,0,0
756,624,0,0,0,0,0,0,0,0,0,-1,1980,400,0,0
763,624,0,0,0,0,0,0,0,0,0,-1,1987,400,0,0
770,624,0,0,0,0,0,0,0,0,0,-1,1994,400,0,0
777,624,0,0,0,0,0,0,0,0,0,-1,2001,400,0,0
784,624,0,0,0,0,0,0,0,0,0,-1,2008,400,0,0
791,624,0,0,0,0,0,0,0,0,0,-1,2015,400,0,0
798,624,0,0,0,0,0,0,0,0,0,-1,2022,400,0,0
805,624,0,0,0,0,0,0,0,0,0,-1,2029,400,0,0
812,624,0,0,0,0,0,0,0,0,0,-1,2036,400,0,0
-700,617,0,0,0,0,0,0,0,0,0,-1,524,407,0,0
-693,617,0,0,0,0,0,0,0,0,0,-1,531,407,0,0
-686,617,0,0,0,0,0,0,0,0,0,-1,538,407,0,0
-679,617,0,0,0,0,0,0,0,0,0,-1,545,407,0,0
-672,617,0,0,0,0,0,0,0,0,0,-1,552,407,0,0
-665,617,0,0,0,0,0,0,0,0,0,-1,559,407,0,0
-658,617,0,0,0,0,0,0,0,0,0,-1,566,407,0,0
-651,617,0,0,0,0,0,0,0,0,0,-1,573,407,0,0
-644,617,0,0,0,0,0,0,0,0,0,-1,580,407,0,0
-637,617,0,0,0,0,0,0,0,0,0,-1,587,407,0,0
-630,617,0,0,0,0,0,0,0,0,0,-1,594,407,0,0
-623,617,0,0,0,0,0,0,0,0,0,-1,601,407,0,0
-616,617,0,0,0,0,0,0,0,0,0,-1,608,407,0,0
-609,617,0,0,0,0,0,0,0,0,0,-1,615,407,0,0
-602,617,0,0,0,0,0,0,0,0,0,-1,622,407,0,0
-595,617,0,0,0,0,0,0,0,0,0,-1,629,407,0,0
-588,617,0,0,0,0,0,0,0,0,0,-1,636,407,0,0
-581,617,0,0,0,0,0,0,0,0,0,-1,643,407,0,0
-574,617,0,0,0,0,0,0,0,0,0,-1,650,407,0,0
-567,617,0,0,0,0,0,0,0,0,0,-1,657,407,0,0
-560,617,0,0,0,0,0,0,0,0,0,-1,664,407,0,0
-553,617,0,0,0,0,0,0,0,0,0,-1,671,407,0,0
-546,617,0,0,0,0,0,0,0,0,0,-1,678,407,0,0
-539,617,0,0,0,0,0,0,0,0,0,-1,685,407,0,0
-532,617,0,0,0,0,0,0,0,0,0,-1,692,407,0,0
-525,617,0,0,0,0,0,0,0,0,0,-1,699,407,0,0
-518,617,0,0,0,0,0,0,0,0,0,-1,706,407,0,0
-511,617,0,0,0,0,0,0,0,0,0,-1,713,407,0,0
-504,617,0,0,0,0,0,0,0,0,0,-1,720,407,0,0
-497,617,0,0,0,0,0,0,0,0,0,-1,727,407,0,0
-490,617,0,0,0,0,0,0,0,0,0,-1,734,407,0,0
-483,617,0,0,0,0,0,0,0,0,0,-1,741,407,0,0
-476,617,0,0,0,0,0,0,0,0,0,-1,748,407,0,0
-469,617,0,0,0,0,0,0,0,0,0,-1,755,407,0,0
-462,617,0,0,0,0,0,0,0,0,0,-1,762,407,0,0
-455,617,0,0,0,0,0,0,0,0,0,-1,769,407,0,0
-448,617,0,0,0,0,0,0,0,0,0,-1,776,407,0,0
-441,617,0,0,0,0,0,0,0,0,0,-1,783,407,0,0
-434,617,0,0,0,0,0,0,0,0,0,-1,790,407,0,0
-427,617,0,0,0,0,0,0,0,0,0,-1,797,407,0,0
-420,617,0,0,0,0,0,0,0,0,0,-1,804,407,0,0
-413,617,0,0,0,0,0,0,0,0,0,-1,811,407,0,0
-406,617,0,0,0,0,0,0,0,0,0,-1,818,407,0,0
-399,617,0,0,0,0,0,0,0,0,0,-1,825,407,0,0
-392,617,0,0,0,0,0,0,0,0,0,-1,832,407,0,0
-385,617,0,0,0,0,0,0,0,0,0,-1,839,407,0,0
-378,617,0,0,0,0,0,0,0,0,0,-1,846,407,0,0
-371,617,0,0,0,0,0,0,0,0,0,-1,853,407,0,0
-364,617,0,0,0,0,0,0,0,0,0,-1,860,407,0,0
-357,617,0,0,0,0,0,0,0,0,0,-1,867,407,0,0
-350,617,0,0,0,0,0,0,0,0,0,-1,874,407,0,0
-343,617,0,0,0,0,0,0,0,0,0,-1,881,407,0,0
-336,617,0,0,0,0,0,0,0,0,0,-1,888,407,0,0
-329,617,0,0,0,0,0,0,0,0,0,-1,895,407,0,0
-322,617,0,0,0,0,0,0,0,0,0,-1,902,407,0,0
-315,617,0,0,0,0,0,0,0,0,0,-1,909,407,0,0
-308,617,0,0,0,0,0,0,0,0,0,-1,916,407,0,0
-301,617,6.8504,-26.4473,0,0,0,0,0,0,0,-1,923,407,6.85041,26.4473
-294,617,8.41962,-26.4389,0,0,0,0,0,0,0,-1,930,407,8.41964,26.4389
-287,617,9.90497,-26.4554,0,0,0,0,0,0,0,-1,937,407,9.90498,26.4554
-280,617,4.3504,-25.0479,0,0,0,0,0,0,0,-1,944,407,4.35041,25.0479
-273,617,3.83069,-23.1539,0,0,0,0,0,0,0,-1,951,407,3.83071,23.1539
-266,617,4.50061,-23.7659,0,0,0,0,0,0,0,-1,958,407,4.50058,23.7659
-259,617,5.4046,-24.5516,0,0,0,0,0,0,0,-1,965,407,5.40458,24.5516
-252,617,4.73065,-26.8411,0,0,0,0,0,0,0,-1,972,407,4.73064,26.8411
-245,617,4.81409,-25.6815,0,0,0,0,0,0,0,-1,979,407,4.81408,25.6815
-238,617,4.13452,-26.7187,0,0,0,0,0,0,0,-1,986,407,4.13455,26.7187
-231,617,4.31989,-26.192,0,0,0,0,0,0,0,-1,993,407,4.31988,26.192
-224,617,4.27393,-26.7116,0.00974914,0.0350705,0.00940083,0.038179,0.0066406,1.25145,0.0235533,0.0493708,1000,407,4.27391,26.7116
-217,617,4.55396,-27.2619,0.0122863,0.0299231,0.00813342,0.0331012,0.00910814,1.19829,0.0197446,0.0465459,1007,407,4.55398,27.2619
-210,617,4.49408,-27.8046,0.0141705,0.0250951,0.00657471,0.0281806,0.0110851,1.13202,0.0163929,0.0312985,1014,407,4.4941,27.8046
-203,617,4.45044,-28.2338,0.0145023,0.021065,0.00582115,0.0244659,0.0111013,1.04205,0.0141455,0.0219618,1021,407,4.45045,28.2338
-196,617,4.39868,-28.5953,0.0137577,0.016371,0.0053352,0.0205572,0.00957147,0.905491,0.0118781,0.0166166,1028,407,4.39862,28.5953
-189,617,4.33557,-28.9892,0.0126471,0.0114105,0.00468685,0.0167562,0.00730133,0.719818,0.00970081,0.0154079,1035,407,4.33554,28.9892
-182,617,4.35681,-29.4002,0.0114092,0.00671715,0.00408674,0.0137754,0.00435092,0.524837,0.00813105,0.0178646,1042,407,4.35685,29.4002
-175,617,4.33997,-29.7795,0.00994155,0.00305246,0.00345279,0.0113742,0.00161986,0.393297,0.00710464,0.0154812,1049,407,4.33995,29.7795
-168,617,4.29321,-30.2097,0.00832751,0.000267696,0.00301063,0.00932791,-0.000732706,0.320812,0.00647667,0.0112578,1056,407,4.29321,30.2096
-161,617,4.25452,-30.5983,0.00679275,-0.00162256,0.00244107,0.00744958,-0.00227939,0.262847,0.00587546,0.0107834,1063,407,4.25452,30.5983
-154,617,4.23523,-30.9334,0.00533141,-0.002545,0.00192882,0.00577838,-0.00299198,0.227716,0.00514805,0.011055,1070,407,4.23522,30.9334
-147,617,4.23779,-31.271,0.00375114,-0.00355839,0.00115473,0.00392922,-0.00373647,0.153013,0.00442626,0.0154577,1077,407,4.23783,31.271
-140,617,4.21753,-31.6483,0.00256796,-0.00336918,0.000623309,0.0026327,-0.00343391,0.103481,0.00351272,0.0119449,1084,407,4.21758,31.6484
-133,617,4.20044,-31.9567,0.00163406,-0.00233,0.000404417,0.0016749,-0.00237084,0.100639,0.0023473,0.014093,1091,407,4.20049,31.9567
-126,617,4.18506,-32.2468,0.000698675,-0.00116064,0.000133177,0.000708166,-0.00117013,0.0711429,0.00109531,0.0139305,1098,407,4.18507,32.2468
-119,617,4.17224,-32.554,3.89191e-05,-3.80589e-05,-5.23892e-05,6.5438e-05,-6.45778e-05,-0.468588,7.50652e-05,0.0139667,1105,407,4.17227,32.554
-112,617,4.16089,-32.8416,-0.000189165,0.000650459,-0.000234114,0.000711325,-0.000250031,-1.31644,0.000575944,0.0158332,1112,407,4.16093,32.8415
-105,617,4.15051,-33.1329,-5.9183e-05,0.000772358,-0.000362452,0.000908164,-0.000194989,-1.2123,0.000679825,0.0164977,1119,407,4.15056,33.1329
-98,617,4.15515,-33.4221,0.000203172,0.000280906,-0.000302649,0.000547174,-6.30953e-05,-0.84926,0.00038753,0.0128187,1126,407,4.15512,33.4221
-91,617,4.18652,-33.6969,0.000474328,-0.000200067,-0.000222583,0.000541167,-0.000266906,-0.29172,0.000475414,0.0172246,1133,407,4.18651,33.6969
-84,617,4.21643,-33.9656,0.000725515,-0.000618641,-0.00012002,0.000736148,-0.000629273,-0.0883587,0.000789131,0.0171309,1140,407,4.21641,33.9656
-77,617,4.19678,-34.2045,0.00103125,-0.000865326,-7.10958e-05,0.00103391,-0.000867987,-0.0374164,0.00109945,0.0139167,1147,407,4.19677,34.2045
-70,617,4.20581,-34.4415,0.00146561,-0.000667115,-0.000124753,0.00147288,-0.000674388,-0.05823,0.00126798,0.0154909,1154,407,4.20581,34.4415
-63,617,4.21802,-34.6785,0.00195211,-0.000373577,-0.000153106,0.00196215,-0.000383614,-0.065456,0.00145295,0.0176506,1161,407,4.21803,34.6785
-56,617,4.198,-34.9178,0.00241544,-0.000369693,-3.92104e-05,0.00241599,-0.000370245,-0.0140747,0.0017472,0.0131751,1168,407,4.19801,34.9178
-49,617,4.21411,-35.1423,0.00272722,-0.00120367,0.000263475,0.0027448,-0.00122125,0.0666296,0.00234544,0.0103037,1175,407,4.21415,35.1423
-42,617,4.25366,-35.3356,0.00362056,0.00789501,-0.00265917,0.00916937,0.0023462,-1.1239,0.00550026,0.0119009,1182,407,4.25371,35.3356
-35,617,4.26672,-35.497,0.00374233,0.0119402,-0.00351219,0.0132391,0.00244341,-1.21657,0.00813484,0.0164973,1189,407,4.2667,35.497
-28,617,4.22913,-35.6655,0.00385741,0.013892,-0.00384373,0.0151952,0.0025543,-1.24394,0.00939513,0.0201713,1196,407,4.2291,35.6655
-21,617,4.29199,-35.7986,0.00426505,0.0186659,-0.00479516,0.0201164,0.00281447,-1.27704,0.0125782,0.0149449,1203,407,4.29194,35.7986
-14,617,4.32727,-35.9379,0.00464931,0.0223032,-0.00545237,0.0238514,0.00310112,-1.29413,0.0149746,0.0155171,1210,407,4.32723,35.9379
-7,617,4.32397,-36.0275,0.00493766,0.0254953,-0.00592127,0.0270788,0.00335412,-1.30948,0.0170449,0.0183942,1217,407,4.32393,36.0275
0,617,4.39087,-36.1232,0.00494454,0.0275132,-0.00622898,0.0291182,0.00333948,-1.31861,0.0184003,0.0162574,1224,407,4.39089,36.1232
7,617,4.45654,-36.2965,0.00472621,0.028447,-0.00618989,0.0299651,0.00320813,-1.33029,0.0189978,0.0124653,1231,407,4.4565,36.2965
14,617,4.49121,-36.3928,0.00451165,0.0284967,-0.00588348,0.0298622,0.00314618,-1.34275,0.0189466,0.0144656,1238,407,4.49126,36.3928
21,617,4.52539,-36.4706,0.00430899,0.0281532,-0.00519798,0.0292371,0.00322511,-1.36522,0.0185102,0.0129741,1245,407,4.52536,36.4706
28,617,4.5542,-36.562,0.00387028,0.0270667,-0.00447096,0.0278986,0.00303837,-1.38683,0.0176736,0.0110009,1252,407,4.55421,36.562
35,617,4.5614,-36.6021,0.00334236,0.0255167,-0.00359756,0.0260857,0.0027733,-1.41392,0.0165437,0.0141762,1259,407,4.5614,36.6021
42,617,4.62561,-36.5999,0.00272601,0.024147,-0.00261205,0.0244609,0.0024121,-1.45119,0.0155656,0.0211322,1266,407,4.62566,36.5999
49,617,4.6571,-36.6206,0.00218356,0.0231656,-0.00157047,0.0232825,0.00206667,-1.4965,0.0148807,0.0208892,1273,407,4.65716,36.6206
56,617,4.68677,-36.6384,0.00153706,0.0215294,-0.000797308,0.0215612,0.00150531,-1.531,0.0138995,0.0155055,1280,407,4.6868,36.6384
63,617,4.74377,-36.6604,0.000816989,0.0184324,0.000455252,0.0184441,0.000805232,1.54498,0.0120367,0.0111008,1287,407,4.74382,36.6604
70,617,4.78589,-36.6623,0.000139186,0.016643,0.000712816,0.0166738,0.000108456,1.52771,0.0110799,0.0147925,1294,407,4.78588,36.6623
77,617,4.84253,-36.6138,-0.000611998,0.0163065,0.000659029,0.0163321,-0.00063763,1.53192,0.0111067,0.0136845,1301,407,4.84258,36.6138
84,617,4.88464,-36.5793,-0.00177607,0.0128227,0.000530617,0.012842,-0.00179533,1.53451,0.00921824,0.0106605,1308,407,4.88465,36.5793
91,617,4.89319,-36.5225,-0.00311143,0.00927803,-0.000158015,0.00928004,-0.00311345,-1.55805,0.00744478,0.0105436,1315,407,4.89321,36.5225
98,617,4.95447,-36.4441,-0.00401897,0.00607036,-0.000824948,0.00613737,-0.00408597,-1.48975,0.00594192,0.011295,1322,407,4.95449,36.4441
105,617,4.9989,-36.3758,-0.00459338,0.00296597,-0.00159451,0.00328854,-0.00491595,-1.37119,0.00476782,0.0125048,1329,407,4.99896,36.3758
112,617,5.03601,-36.2773,-0.00507383,-0.00036856,-0.00245761,0.00068097,-0.00612336,-1.16719,0.00432713,0.0159512,1336,407,5.03602,36.2774
119,617,5.05603,-36.148,-0.00554166,-0.00372634,-0.00339467,-0.00112008,-0.00814792,-0.916031,0.00509975,0.0190105,1343,407,5.05601,36.148
126,617,5.09583,-36.0207,-0.00581353,-0.00692761,-0.00453412,-0.00180236,-0.0109388,-0.724277,0.00677215,0.0220151,1350,407,5.09579,36.0207
133,617,5.09961,-35.8721,-0.0055242,-0.00907917,-0.00524332,-0.00176527,-0.0128381,-0.621977,0.00803521,0.0196435,1357,407,5.09963,35.8721
140,617,5.13611,-35.7548,-0.00488095,-0.00998607,-0.00571256,-0.0011766,-0.0136904,-0.57529,0.00876112,0.016506,1364,407,5.13616,35.7548
147,617,5.19043,-35.5985,-0.00399666,-0.0108654,-0.00606855,-0.000458071,-0.014404,-0.527903,0.00945366,0.018884,1371,407,5.19042,35.5985
154,617,5.21558,-35.4649,-0.00303979,-0.0110806,-0.00629551,0.000409555,-0.0145299,-0.501234,0.00982598,0.0218244,1378,407,5.21556,35.4649
161,617,5.24719,-35.3129,-0.00190117,-0.00963396,-0.00606801,0.00142756,-0.0129627,-0.501744,0.00915482,0.0238947,1385,407,5.24719,35.3129
168,617,5.27771,-35.0938,-0.000916879,-0.00790597,-0.00538811,0.00201069,-0.0108335,-0.497715,0.00797751,0.0221066,1392,407,5.2777,35.0938
175,617,5.27625,-34.8377,7.62366e-05,-0.00550487,-0.00466566,0.00272219,-0.00815082,-0.515886,0.00653314,0.0181755,1399,407,5.27621,34.8377
182,617,5.32336,-34.6183,0.00088351,-0.00458169,-0.00380351,0.00283426,-0.00653244,-0.4739,0.00554659,0.0122036,1406,407,5.32332,34.6183
189,617,5.32214,-34.3784,0.00169692,-0.00173084,-0.00272099,0.0031988,-0.00323273,-0.50435,0.00371327,0.0119306,1413,407,5.32218,34.3783
196,617,5.32104,-34.1292,0.00225049,0.000594157,-0.00143933,0.0030829,-0.000238257,-0.524337,0.00213911,0.0156196,1420,407,5.321,34.1292
203,617,5.33264,-33.8749,0.00160658,0.00140627,-0.00072057,0.00223392,0.00077893,-0.716346,0.0013093,0.0150102,1427,407,5.33265,33.8749
210,617,5.35376,-33.5978,0.000920669,0.00211119,-0.000124192,0.00212401,0.000907851,-1.46795,0.0012306,0.0146363,1434,407,5.35371,33.5979
217,617,5.32129,-33.2865,0.000505392,0.00282588,0.000198635,0.00284276,0.000488512,1.48602,0.00175514,0.0207335,1441,407,5.32126,33.2865
224,617,5.32129,-32.9942,0.000269438,0.00348271,0.000499081,0.00355845,0.000193706,1.4202,0.00231044,0.0202647,1448,407,5.3213,32.9942
231,617,5.36804,-32.7124,0.000117786,0.00407147,0.000844239,0.0042442,-5.49399e-05,1.36899,0.00284795,0.0147575,1455,407,5.36801,32.7124
238,617,5.36829,-32.4174,2.29302e-05,0.00475791,0.00119694,0.00504329,-0.000262443,1.33675,0.003453,0.0161111,1462,407,5.36827,32.4174
245,617,5.36536,-32.1248,-0.000127178,0.00544208,0.00142106,0.00578372,-0.000468819,1.33486,0.00402121,0.0139698,1469,407,5.36536,32.1248
252,617,5.34436,-31.7564,-0.000216949,0.00611592,0.00167284,0.00653065,-0.000631674,1.32778,0.00457887,0.0144016,1476,407,5.34435,31.7564
259,617,5.31348,-31.3839,-0.00033689,0.00683696,0.00199192,0.00735293,-0.000852862,1.31733,0.00520956,0.0117908,1483,407,5.31342,31.3839
266,617,5.31152,-31.0159,-0.000472697,0.00747506,0.00231976,0.0081026,-0.00110023,1.3066,0.00580334,0.0146329,1490,407,5.31149,31.0159
273,617,5.32739,-30.6457,-0.000582428,0.00815878,0.00267009,0.00890985,-0.0013335,1.29659,0.00643065,0.0156835,1497,407,5.32741,30.6457
280,617,5.29041,-30.3025,-0.000658701,0.00877331,0.00305321,0.00967538,-0.00156077,1.28352,0.00702852,0.0133763,1504,407,5.29036,30.3025
287,617,5.24976,-29.9258,-0.000718982,0.00955051,0.00350927,0.0106351,-0.00180361,1.27103,0.00776146,0.0121817,1511,407,5.24976,29.9258
294,617,5.21875,-29.5366,-0.000828592,0.0102897,0.00392723,0.011537,-0.00207586,1.26328,0.00846851,0.00990774,1518,407,5.2187,29.5366
301,617,5.19482,-29.1477,-0.000951506,0.0109151,0.00426873,0.0122911,-0.00232752,1.25897,0.00907003,0.00752193,1525,407,5.19479,29.1477
308,617,5.18103,-28.7346,-0.00099539,0.0115452,0.00463167,0.0130703,-0.00252054,1.25269,0.00966392,0.00801056,1532,407,5.18104,28.7346
315,617,5.1604,-28.3246,-0.00100163,0.012102,0.00505015,0.0138224,-0.00272208,1.24246,0.0102436,0.0098373,1539,407,5.16044,28.3246
322,617,5.12268,-27.8889,-0.00110045,0.0125906,0.00542856,0.0144818,-0.00299166,1.23556,0.0107909,0.0147186,1546,407,5.12272,27.889
329,617,5.0968,-27.4524,-0.00135359,0.012956,0.00572948,0.0149673,-0.00336493,1.23319,0.0112686,0.0170124,1553,407,5.09675,27.4524
336,617,5.14197,-26.9156,-0.00180639,0.0134775,0.00593651,0.0155124,-0.0038413,1.24057,0.0118317,0.0292803,1560,407,5.14199,26.9156
343,617,5.21143,-26.411,0,0,0,0,0,0,0,-1,1567,407,5.21143,26.411
350,617,5.01257,-26.0252,0,0,0,0,0,0,0,-1,1574,407,5.01257,26.0252
357,617,2.1748,-7.16504,0,0,0,0,0,0,0,-1,1581,407,2.1748,7.16505
364,617,2.30127,-7.60257,0,0,0,0,0,0,0,-1,1588,407,2.30125,7.60258
371,617,2.60266,-6.20667,0,0,0,0,0,0,0,-1,1595,407,2.60261,6.20668
378,617,1.56921,-10.3601,0,0,0,0,0,0,0,-1,1602,407,1.56918,10.3601
385,617,1.74146,-10.3561,0,0,0,0,0,0,0,-1,1609,407,1.7414,10.3561
392,617,1.96936,-5.10449,0,0,0,0,0,0,0,-1,1616,407,1.96931,5.10451
399,617,2.48889,-5.81256,0,0,0,0,0,0,0,-1,1623,407,2.48888,5.81255
406,617,3.01465,-6.51642,0,0,0,0,0,0,0,-1,1630,407,3.01461,6.51643
413,617,3.6427,-7.2074,0,0,0,0,0,0,0,-1,1637,407,3.64274,7.20739
420,617,3.42737,-4.47391,0,0,0,0,0,0,0,-1,1644,407,3.42737,4.47391
427,617,0,0,0,0,0,0,0,0,0,-1,1651,407,0,0
434,617,0,0,0,0,0,0,0,0,0,-1,1658,407,0,0
441,617,0,0,0,0,0,0,0,0,0,-1,1665,407,0,0
448,617,0,0,0,0,0,0,0,0,0,-1,1672,407,0,0
455,617,0,0,0,0,0,0,0,0,0,-1,1679,407,0,0
462,617,0,0,0,0,0,0,0,0,0,-1,1686,407,0,0
469,617,0,0,0,0,0,0,0,0,0,-1,1693,407,0,0
476,617,0,0,0,0,0,0,0,0,0,-1,1700,407,0,0
483,617,0,0,0,0,0,0,0,0,0,-1,1707,407,0,0
490,617,0,0,0,0,0,0,0,0,0,-1,1714,407,0,0
497,617,0,0,0,0,0,0,0,0,0,-1,1721,407,0,0
504,617,0,0,0,0,0,0,0,0,0,-1,1728,407,0,0
511,617,0,0,0,0,0,0,0,0,0,-1,1735,407,0,0
518,617,0,0,0,0,0,0,0,0,0,-1,1742,407,0,0
525,617,0,0,0,0,0,0,0,0,0,-1,1749,407,0,0
532,617,0,0,0,0,0,0,0,0,0,-1,1756,407,0,0
539,617,0,0,0,0,0,0,0,0,0,-1,1763,407,0,0
546,617,0,0,0,0,0,0,0,0,0,-1,1770,407,0,0
553,617,0,0,0,0,0,0,0,0,0,-1,1777,407,0,0
560,617,0,0,0,0,0,0,0,0,0,-1,1784,407,0,0
567,617,0,0,0,0,0,0,0,0,0,-1,1791,407,0,0
574,617,0,0,0,0,0,0,0,0,0,-1,1798,407,0,0
581,617,0,0,0,0,0,0,0,0,0,-1,1805,407,0,0
588,617,0,0,0,0,0,0,0,0,0,-1,1812,407,0,0
595,617,0,0,0,0,0,0,0,0,0,-1,1819,407,0,0
602,617,0,0,0,0,0,0,0,0,0,-1,1826,407,0,0
609,617,0,0,0,0,0,0,0,0,0,-1,1833,407,0,0
616,617,0,0,0,0,0,0,0,0,0,-1,1840,407,0,0
623,617,0,0,0,0,0,0,0,0,0,-1,1847,407,0,0
630,617,0,0,0,0,0,0,0,0,0,-1,1854,407,0,0
637,617,0,0,0,0,0,0,0,0,0,-1,1861,407,0,0
644,617,0,0,0,0,0,0,0,0,0,-1,1868,407,0,0
651,617,0,0,0,0,0,0,0,0,0,-1,1875,407,0,0
658,617,0,0,0,0,0,0,0,0,0,-1,1882,407,0,0
665,617,0,0,0,0,0,0,0,0,0,-1,1889,407,0,0
672,617,0,0,0,0,0,0,0,0,0,-1,1896,407,0,0
679,617,0,0,0,0,0,0,0,0,0,-1,1903,407,0,0
686,617,0,0,0,0,0,0,0,0,0,-1,1910,407,0,0
693,617,0,0,0,0,0,0,0,0,0,-1,1917,407,0,0
700,617,0,0,0,0,0,0,0,0,0,-1,1924,407,0,0
707,617,0,0,0,0,0,0,0,0,0,-1,1931,407,0,0
714,617,0,0,0,0,0,0,0,0,0,-1,1938,407,0,0
721,617,0,0,0,0,0,0,0,0,0,-1,1945,407,0,0
728,617,0,0,0,0,0,0,0,0,0,-1,1952,407,0,0
735,617,0,0,0,0,0,0,0,0,0,-1,1959,407,0,0
742,617,0,0,0,0,0,0,0,0,0,-1,1966,407,0,0
749,617,0,0,0,0,0,0,0,0,0,-1,1973,407,0,0
756,617,0,0,0,0,0,0,0,0,0,-1,1980,407,0,0
763,617,0,0,0,0,0,0,0,0,0,-1,1987,407,0,0
770,617,0,0,0,0,0,0,0,0,0,-1,1994,407,0,0
777,617,0,0,0,0,0,0,0,0,0,-1,2001,407,0,0
784,617,0,0,0,0,0,0,0,0,0,-1,2008,407,0,0
791,617,0,0,0,0,0,0,0,0,0,-1,2015,407,0,0
798,617,0,0,0,0,0,0,0,0,0,-1,2022,407,0,0
805,617,0,0,0,0,0,0,0,0,0,-1,2029,407,0,0
812,617,0,0,0,0,0,0,0,0,0,-1,2036,407,0,0
-700,610,0,0,0,0,0,0,0,0,0,-1,524,414,0,0
-693,610,0,0,0,0,0,0,0,0,0,-1,531,414,0,0
-686,610,0,0,0,0,0,0,0,0,0,-1,538,414,0,0
-679,610,0,0,0,0,0,0,0,0,0,-1,545,414,0,0
-672,610,0,0,0,0,0,0,0,0,0,-1,552,414,0,0
-665,610,0,0,0,0,0,0,0,0,0,-1,559,414,0,0
-658,610,0,0,0,0,0,0,0,0,0,-1,566,414,0,0
-651,610,0,0,0,0,0,0,0,0,0,-1,573,414,0,0
-644,610,0,0,0,0,0,0,0,0,0,-1,580,414,0,0
-637,610,0,0,0,0,0,0,0,0,0,-1,587,414,0,0
-630,610,0,0,0,0,0,0,0,0,0,-1,594,414,0,0
-623,610,0,0,0,0,0,0,0,0,0,-1,601,414,0,0
-616,610,0,0,0,0,0,0,0,0,0,-1,608,414,0,0
-609,610,0,0,0,0,0,0,0,0,0,-1,615,414,0,0
-602,610,0,0,0,0,0,0,0,0,0,-1,622,414,0,0
-595,610,0,0,0,0,0,0,0,0,0,-1,629,414,0,0
-588,610,0,0,0,0,0,0,0,0,0,-1,636,414,0,0
-581,610,0,0,0,0,0,0,0,0,0,-1,643,414,0,0
-574,610,0,0,0,0,0,0,0,0,0,-1,650,414,0,0
-567,610,0,0,0,0,0,0,0,0,0,-1,657,414,0,0
-560,610,0,0,0,0,0,0,0,0,0,-1,664,414,0,0
-553,610,0,0,0,0,0,0,0,0,0,-1,671,414,0,0
-546,610,0,0,0,0,0,0,0,0,0,-1,678,414,0,0
-539,610,0,0,0,0,0,0,0,0,0,-1,685,414,0,0
-532,610,0,0,0,0,0,0,0,0,0,-1,692,414,0,0
-525,610,0,0,0,0,0,0,0,0,0,-1,699,414,0,0
-518,610,0,0,0,0,0,0,0,0,0,-1,706,414,0,0
-511,610,0,0,0,0,0,0,0,0,0,-1,713,414,0,0
-504,610,0,0,0,0,0,0,0,0,0,-1,720,414,0,0
-497,610,0,0,0,0,0,0,0,0,0,-1,727,414,0,0
-490,610,0,0,0,0,0,0,0,0,0,-1,734,414,0,0
-483,610,0,0,0,0,0,0,0,0,0,-1,741,414,0,0
-476,610,0,0,0,0,0,0,0,0,0,-1,748,414,0,0
-469,610,0,0,0,0,0,0,0,0,0,-1,755,414,0,0
-462,610,0,0,0,0,0,0,0,0,0,-1,762,414,0,0
-455,610,0,0,0,0,0,0,0,0,0,-1,769,414,0,0
-448,610,0,0,0,0,0,0,0,0,0,-1,776,414,0,0
-441,610,0,0,0,0,0,0,0,0,0,-1,783,414,0,0
-434,610,0,0,0,0,0,0,0,0,0,-1,790,414,0,0
-427,610,0,0,0,0,0,0,0,0,0,-1,797,414,0,0
-420,610,0,0,0,0,0,0,0,0,0,-1,804,414,0,0
-413,610,0,0,0,0,0,0,0,0,0,-1,811,414,0,0
-406,610,0,0,0,0,0,0,0,0,0,-1,818,414,0,0
-399,610,0,0,0,0,0,0,0,0,0,-1,825,414,0,0
-392,610,0,0,0,0,0,0,0,0,0,-1,832,414,0,0
-385,610,0,0,0,0,0,0,0,0,0,-1,839,414,0,0
-378,610,0,0,0,0,0,0,0,0,0,-1,846,414,0,0
-371,610,0,0,0,0,0,0,0,0,0,-1,853,414,0,0
-364,610,0,0,0,0,0,0,0,0,0,-1,860,414,0,0
-357,610,0,0,0,0,0,0,0,0,0,-1,867,414,0,0
-350,610,0,0,0,0,0,0,0,0,0,-1,874,414,0,0
-343,610,0,0,0,0,0,0,0,0,0,-1,881,414,0,0
-336,610,0,0,0,0,0,0,0,0,0,-1,888,414,0,0
-329,610,0,0,0,0,0,0,0,0,0,-1,895,414,0,0
-322,610,0,0,0,0,0,0,0,0,0,-1,902,414,0,0
-315,610,8.08594,-20.6403,0,0,0,0,0,0,0,-1,909,414,8.08595,20.6403
-308,610,3.97559,-24.1635,0,0,0,0,0,0,0,-1,916,414,3.97556,24.1635
-301,610,4.95953,-24.3575,0,0,0,0,0,0,0,-1,923,414,4.95952,24.3575
-294,610,6.20813,-24.3114,0,0,0,0,0,0,0,-1,930,414,6.20815,24.3114
-287,610,2.427,-24.4821,0,0,0,0,0,0,0,-1,937,414,2.42702,24.4821
-280,610,2.78668,-21.9856,0,0,0,0,0,0,0,-1,944,414,2.78671,21.9856
-273,610,3.55499,-22.5514,0,0,0,0,0,0,0,-1,951,414,3.55497,22.5514
-266,610,5.69781,-25.1039,0,0,0,0,0,0,0,-1,958,414,5.69781,25.1039
-259,610,4.70105,-25.9043,0,0,0,0,0,0,0,-1,965,414,4.70104,25.9043
-252,610,4.28741,-26.1479,0,0,0,0,0,0,0,-1,972,414,4.28743,26.1479
-245,610,3.87384,-26.3914,0,0,0,0,0,0,0,-1,979,414,3.87382,26.3914
-238,610,4.0907,-26.4189,0,0,0,0,0,0,0,-1,986,414,4.09072,26.4189
-231,610,3.71906,-26.8034,0,0,0,0,0,0,0,-1,993,414,3.71903,26.8034
-224,610,4.08405,-26.8088,0.00425489,0.0238748,0.00448764,0.0248525,0.00327716,1.35628,0.0155912,0.026895,1000,414,4.08405,26.8088
-217,610,4.11053,-27.3856,0.0063125,0.0215831,0.00384022,0.0224944,0.00540116,1.33779,0.0135594,0.0189959,1007,414,4.11051,27.3856
-210,610,4.09357,-27.8649,0.00802117,0.0186212,0.00283495,0.0193317,0.0073106,1.32521,0.0112711,0.0130948,1014,414,4.09358,27.8649
-203,610,4.06775,-28.2857,0.00851453,0.0161397,0.00253922,0.0169079,0.00774635,1.27702,0.00977317,0.0146176,1021,414,4.06776,28.2857
-196,610,4.03271,-28.6803,0.00816607,0.0130756,0.00246608,0.0141004,0.00714126,1.17695,0.0081411,0.0139391,1028,414,4.03274,28.6803
-189,610,4.01147,-29.0752,0.00750832,0.00963631,0.00222015,0.0110343,0.00611037,1.00885,0.0063829,0.0115535,1035,414,4.01153,29.0752
-182,610,4.00183,-29.4656,0.00677271,0.00623133,0.00200018,0.00852043,0.00448361,0.718139,0.00492153,0.0122144,1042,414,4.00184,29.4656
-175,610,3.96875,-29.8334,0.00590096,0.00335815,0.00176273,0.00680296,0.00245615,0.472969,0.00397793,0.0131883,1049,414,3.96875,29.8334
-168,610,3.92224,-30.2101,0.00489475,0.000925997,0.00167573,0.00550764,0.000313099,0.350636,0.00357197,0.0120334,1056,414,3.92218,30.21
-161,610,3.89844,-30.6239,0.00396789,-0.00101066,0.00146699,0.004368,-0.00141077,0.266266,0.00347895,0.0108044,1063,414,3.89849,30.6239
-154,610,3.88599,-30.9556,0.00311258,-0.00227006,0.0012973,0.00340893,-0.00256641,0.224584,0.00346128,0.0136862,1070,414,3.88602,30.9556
-147,610,3.90906,-31.2573,0.00216952,-0.00357358,0.000968893,0.00232857,-0.00373263,0.162708,0.00353059,0.0155883,1077,414,3.90902,31.2573
-140,610,3.91003,-31.6241,0.00151976,-0.00406844,0.000801305,0.00163239,-0.00418108,0.139644,0.00346226,0.0119496,1084,414,3.91002,31.6242
-133,610,3.90247,-31.9377,0.00102093,-0.00406382,0.000842128,0.00115677,-0.00419966,0.159931,0.00325462,0.0136593,1091,414,3.90245,31.9377
-126,610,3.89111,-32.2354,0.000560095,-0.00389781,0.000817081,0.000705137,-0.00404286,0.175682,0.00295843,0.0123062,1098,414,3.89107,32.2355
-119,610,3.87439,-32.5515,0.000360445,-0.00376374,0.000814512,0.00051548,-0.00391878,0.188091,0.00280021,0.0110559,1105,414,3.87433,32.5515
-112,610,3.88904,-32.8339,0.000416553,-0.00383189,0.000794186,0.00056016,-0.0039755,0.17889,0.00285543,0.0185411,1112,414,3.88907,32.8339
-105,610,3.87561,-33.1322,0.000605535,-0.00416634,0.000811627,0.000739803,-0.00430061,0.163946,0.00314283,0.0172341,1119,414,3.87565,33.1322
-98,610,3.89063,-33.4039,0.000850596,-0.00461436,0.000871856,0.000986318,-0.00475009,0.15443,0.00354158,0.0123839,1126,414,3.89063,33.4039
-91,610,3.88904,-33.684,0.00116024,-0.00488134,0.000884462,0.00128706,-0.00500816,0.142415,0.00384037,0.0132485,1133,414,3.88905,33.684
-84,610,3.90991,-33.9564,0.00148952,-0.00482978,0.000851818,0.00160233,-0.00494259,0.131666,0.00393934,0.0143521,1140,414,3.90989,33.9564
-77,610,3.91858,-34.2309,0.00192283,-0.0046062,0.000728673,0.00200317,-0.00468654,0.109805,0.00396452,0.0126928,1147,414,3.91857,34.2309
-70,610,3.96606,-34.4731,0.00256276,-0.0035193,0.00040465,0.00258957,-0.00354611,0.0661432,0.00355675,0.0149612,1154,414,3.96609,34.4731
-63,610,3.99695,-34.6964,0.00329116,-0.00228786,0.000155019,0.00329547,-0.00229216,0.0277574,0.00324331,0.0129459,1161,414,3.99689,34.6964
-56,610,4.00928,-34.9033,0.00396592,-0.00159388,0.000174316,0.00397138,-0.00159934,0.031312,0.00331202,0.0103703,1168,414,4.00927,34.9033
-49,610,4.01575,-35.1114,0.00432912,-0.00255057,0.00055613,0.00437379,-0.00259523,0.0801431,0.00406701,0.0111402,1175,414,4.01576,35.1114
-42,610,4.04163,-35.3189,0.00540387,0.0150446,-0.00479115,0.0170206,0.00342782,-1.17962,0.0103946,0.0157672,1182,414,4.04162,35.3189
-35,610,4.08032,-35.4982,0.00502959,0.0222127,-0.00587258,0.0240279,0.00321431,-1.271,0.015062,0.0154484,1189,414,4.08034,35.4982
-28,610,4.11841,-35.6532,0.00491605,0.0249055,-0.0057824,0.0264576,0.00336388,-1.30855,0.0166309,0.0133242,1196,414,4.11838,35.6532
-21,610,4.1676,-35.7696,0.00541916,0.0316349,-0.00688507,0.0333332,0.00372094,-1.32897,0.0210915,0.0117185,1203,414,4.16766,35.7696
-14,610,4.19373,-35.9139,0.00586735,0.0359304,-0.00753426,0.0377129,0.00408484,-1.33848,0.023897,0.0129094,1210,414,4.19378,35.9139
-7,610,4.23828,-36.0291,0.00616462,0.0395758,-0.00801217,0.0413978,0.00434262,-1.3472,0.0262709,0.0147424,1217,414,4.23829,36.0291
0,610,4.28271,-36.1443,0.0061561,0.0414723,-0.00824707,0.0433033,0.00432516,-1.35233,0.0275406,0.012003,1224,414,4.28269,36.1443
7,610,4.3313,-36.2732,0.00592591,0.0418737,-0.00809377,0.0436119,0.00418763,-1.35924,0.0277841,0.0135324,1231,414,4.33134,36.2732
14,610,4.44495,-36.3236,0.00565161,0.0410103,-0.00771482,0.0426203,0.00404164,-1.36506,0.0271667,0.0173884,1238,414,4.4449,36.3236
21,610,4.50586,-36.388,0.00532951,0.0397537,-0.00694583,0.0411023,0.00398087,-1.37902,0.0261757,0.01596,1245,414,4.50589,36.388
28,610,4.48022,-36.4917,0.00467008,0.0376275,-0.00610029,0.0387204,0.00357718,-1.39352,0.0247077,0.0152213,1252,414,4.48028,36.4917
35,610,4.60059,-36.5283,0.00381764,0.0350705,-0.00512134,0.0358883,0.00299981,-1.41244,0.0229909,0.0184449,1259,414,4.60053,36.5283
42,610,4.62927,-36.5269,0.0027959,0.0329182,-0.00406584,0.0334573,0.00225676,-1.43896,0.021592,0.017497,1266,414,4.62924,36.527
49,610,4.64905,-36.5994,0.00183258,0.0314835,-0.00294168,0.0317725,0.00154355,-1.47286,0.0206864,0.0171121,1273,414,4.64901,36.5994
56,610,4.71216,-36.5992,0.000789375,0.0293445,-0.00208336,0.0294957,0.000638175,-1.49835,0.0194546,0.016199,1280,414,4.71212,36.5992
63,610,4.69336,-36.5506,-0.000368997,0.0258007,-0.000725056,0.0258208,-0.00038907,-1.54312,0.017345,0.0216269,1287,414,4.6933,36.5506
70,610,4.71887,-36.4977,-0.00146109,0.0237619,-0.00051604,0.0237724,-0.00147165,-1.55035,0.0163609,0.0291244,1294,414,4.71888,36.4976
77,610,4.81946,-36.5005,-0.0026721,0.0235938,-0.000618378,0.0236084,-0.00268665,-1.54727,0.0167066,0.0349407,1301,414,4.81945,36.5005
84,610,4.89014,-36.53,-0.00431075,0.019395,-0.000719526,0.0194168,-0.00433257,-1.54048,0.0146045,0.0323454,1308,414,4.89012,36.53
91,610,4.96423,-36.4706,-0.00607573,0.0149881,-0.00147774,0.0150913,-0.00617889,-1.5011,0.0126346,0.0276031,1315,414,4.96427,36.4706
98,610,5.12317,-36.4444,-0.00703238,0.0109027,-0.00230473,0.0111941,-0.00732381,-1.44501,0.0107689,0.0251782,1322,414,5.12319,36.4444
105,610,5.13989,-36.3508,-0.00743047,0.00685773,-0.00336832,0.00761197,-0.00818471,-1.35051,0.00912221,0.020243,1329,414,5.13985,36.3508
112,610,5.14063,-36.2541,-0.00762677,0.00245767,-0.00457005,0.00422055,-0.00938965,-1.20264,0.00804454,0.0140954,1336,414,5.14061,36.2541
119,610,5.16455,-36.1385,-0.00782799,-0.00218015,-0.00581523,0.00146056,-0.0114687,-1.01143,0.00817625,0.0204543,1343,414,5.1645,36.1385
126,610,5.27319,-36.004,-0.0076682,-0.00682801,-0.00742114,0.000184915,-0.0146811,-0.813672,0.00984963,0.0291215,1350,414,5.2732,36.004
133,610,5.28833,-35.8635,-0.0067377,-0.0102408,-0.00866925,0.000355162,-0.0173337,-0.685718,0.011676,0.022227,1357,414,5.28832,35.8635
140,610,5.31958,-35.7574,-0.00532608,-0.0120292,-0.00964991,0.00153771,-0.018893,-0.618257,0.013138,0.017236,1364,414,5.31952,35.7574
147,610,5.33008,-35.5815,-0.00366604,-0.0137255,-0.0104979,0.00294489,-0.0203364,-0.561998,0.0146383,0.0174901,1371,414,5.33008,35.5815
154,610,5.32422,-35.4082,-0.00204108,-0.0145707,-0.0112118,0.00453746,-0.0211492,-0.530622,0.0158302,0.0216043,1378,414,5.32427,35.4082
161,610,5.42993,-35.2532,-0.000356754,-0.012781,-0.0112759,0.006305,-0.0194427,-0.533624,0.0154971,0.0271427,1385,414,5.42993,35.2532
168,610,5.47412,-35.0442,0.00105343,-0.0106758,-0.0104472,0.00716956,-0.0167919,-0.529638,0.0142011,0.0274248,1392,414,5.47413,35.0442
175,610,5.4834,-34.8269,0.00247524,-0.00767583,-0.00953547,0.00820184,-0.0134024,-0.54083,0.0125931,0.0217699,1399,414,5.4834,34.8269
182,610,5.54456,-34.615,0.00357215,-0.00731105,-0.00830957,0.00806332,-0.0118022,-0.495506,0.0115369,0.0152538,1406,414,5.54456,34.615
189,610,5.55518,-34.3575,0.00470492,-0.00328857,-0.00654848,0.00837998,-0.00696363,-0.511407,0.00887121,0.0143262,1413,414,5.55519,34.3574
196,610,5.57825,-34.1273,0.00546872,0.000160048,-0.00427855,0.00784941,-0.00222064,-0.507762,0.0061092,0.0144423,1420,414,5.57825,34.1273
203,610,5.59106,-33.8829,0.00378622,0.000633658,-0.00257156,0.00522615,-0.000806279,-0.510448,0.00378162,0.0140211,1427,414,5.59106,33.8829
210,610,5.60474,-33.6122,0.00220851,0.00100864,-0.00115194,0.00290738,0.000309772,-0.545323,0.00184369,0.0107913,1434,414,5.60471,33.6122
217,610,5.64001,-33.3054,0.00127604,0.00158376,-0.00045251,0.00190785,0.000951951,-0.949272,0.0011015,0.0173937,1441,414,5.64001,33.3054
224,610,5.64978,-33.0255,0.000942536,0.00224648,-4.58532e-05,0.00224809,0.000940926,-1.53569,0.00130366,0.0206697,1448,414,5.64979,33.0255
231,610,5.65051,-32.7282,0.000678381,0.00283454,0.000378239,0.00289897,0.000613954,1.40208,0.00176397,0.0159836,1455,414,5.65051,32.7282
238,610,5.66541,-32.404,0.000598251,0.00337258,0.00071918,0.00354793,0.000422902,1.33165,0.00223768,0.012143,1462,414,5.66537,32.404
245,610,5.67847,-32.0863,0.000555375,0.00388001,0.000920554,0.00411788,0.000317503,1.31793,0.00264578,0.013418,1469,414,5.67843,32.0863
252,610,5.6792,-31.741,0.000498724,0.00434762,0.00113778,0.0046588,0.000187543,1.30383,0.00304528,0.014672,1476,414,5.67921,31.741
259,610,5.65759,-31.3727,0.000379856,0.00482887,0.00138172,0.00522306,-1.43347e-05,1.29289,0.00348683,0.0123342,1483,414,5.65756,31.3727
266,610,5.6582,-31.0139,0.000249842,0.00525555,0.00162582,0.00573725,-0.000231857,1.28275,0.00390442,0.0121936,1490,414,5.65823,31.0139
273,610,5.66077,-30.6705,0.000144444,0.00575775,0.00189418,0.00633713,-0.000434934,1.27396,0.00437694,0.0104128,1497,414,5.66074,30.6705
280,610,5.63635,-30.2961,7.44498e-05,0.00614247,0.00219258,0.0068518,-0.000634882,1.25791,0.00479353,0.00984603,1504,414,5.63641,30.2961
287,610,5.60266,-29.9125,-1.31208e-05,0.00677567,0.00255253,0.00762831,-0.000865762,1.24841,0.00539732,0.012251,1511,414,5.60268,29.9125
294,610,5.59277,-29.5251,-0.000165867,0.00739122,0.0029032,0.00837775,-0.0011524,1.24323,0.00600626,0.0104031,1518,414,5.59277,29.5252
301,610,5.57629,-29.1575,-0.00033781,0.00793277,0.00319393,0.0090226,-0.00142764,1.24197,0.00654307,0.00950931,1525,414,5.57633,29.1575
308,610,5.56824,-28.7584,-0.000443241,0.00848209,0.00350626,0.00969475,-0.00165589,1.23782,0.00707997,0.0118515,1532,414,5.56826,28.7583
315,610,5.53247,-28.3593,-0.000545002,0.00902529,0.00384935,0.0103814,-0.00190112,1.23208,0.00763396,0.0132105,1539,414,5.53251,28.3593
322,610,5.49878,-27.913,-0.000748378,0.00951462,0.00415872,0.0109882,-0.00222197,1.23026,0.00816751,0.0125519,1546,414,5.49881,27.913
329,610,5.47253,-27.4716,-0.00106526,0.00988343,0.00441914,0.0114445,-0.00262634,1.23122,0.00863923,0.0116992,1553,414,5.47259,27.4716
336,610,5.47583,-27.0332,-0.00149088,0.0103512,0.0046191,0.0119398,-0.00307949,1.23955,0.00916054,0.0105075,1560,414,5.47585,27.0332
343,610,5.44751,-26.5711,-0.00168793,0.0106293,0.00476132,0.0122552,-0.00331383,1.24173,0.00947003,0.0190105,1567,414,5.4475,26.5711
350,610,5.37854,-26.1685,-0.00169214,0.0114808,0.00522501,0.0133016,-0.00351294,1.23548,0.0102416,0.0425543,1574,414,5.37852,26.1685
357,610,5.36523,-25.3923,0,0,0,0,0,0,0,-1,1581,414,5.36528,25.3923
364,610,5.71497,-25.0733,0,0,0,0,0,0,0,-1,1588,414,5.71493,25.0733
371,610,3.54138,-13.3788,0,0,0,0,0,0,0,-1,1595,414,3.54137,13.3788
378,610,3.5752,-12.1958,0,0,0,0,0,0,0,-1,1602,414,3.57517,12.1958
385,610,2.57104,-10.3878,0,0,0,0,0,0,0,-1,1609,414,2.57109,10.3878
392,610,1.99744,-1.83582,0,0,0,0,0,0,0,-1,1616,414,1.99741,1.8358
399,610,2.77136,-2.60333,0,0,0,0,0,0,0,-1,1623,414,2.77133,2.60332
406,610,3.54529,-3.37085,0,0,0,0,0,0,0,-1,1630,414,3.54525,3.37084
413,610,3.01929,-3.20306,0,0,0,0,0,0,0,-1,1637,414,3.01929,3.20306
420,610,4.78149,-3.64041,0,0,0,0,0,0,0,-1,1644,414,4.78152,3.64042
427,610,5.20764,-4.67545,0,0,0,0,0,0,0,-1,1651,414,5.20759,4.67545
434,610,5.39233,-5.45441,0,0,0,0,0,0,0,-1,1658,414,5.39228,5.4544
441,610,0,0,0,0,0,0,0,0,0,-1,1665,414,0,0
448,610,0,0,0,0,0,0,0,0,0,-1,1672,414,0,0
455,610,0,0,0,0,0,0,0,0,0,-1,1679,414,0,0
462,610,0,0,0,0,0,0,0,0,0,-1,1686,414,0,0
469,610,0,0,0,0,0,0,0,0,0,-1,1693,414,0,0
476,610,0,0,0,0,0,0,0,0,0,-1,1700,414,0,0
483,610,0,0,0,0,0,0,0,0,0,-1,1707,414,0,0
490,610,0,0,0,0,0,0,0,0,0,-1,1714,414,0,0
497,610,0,0,0,0,0,0,0,0,0,-1,1721,414,0,0
504,610,0,0,0,0,0,0,0,0,0,-1,1728,414,0,0
511,610,0,0,0,0,0,0,0,0,0,-1,1735,414,0,0
518,610,0,0,0,0,0,0,0,0,0,-1,1742,414,0,0
525,610,0,0,0,0,0,0,0,0,0,-1,1749,414,0,0
532,610,0,0,0,0,0,0,0,0,0,-1,1756,414,0,0
539,610,0,0,0,0,0,0,0,0,0,-1,1763,414,0,0
546,610,0,0,0,0,0,0,0,0,0,-1,1770,414,0,0
553,610,0,0,0,0,0,0,0,0,0,-1,1777,414,0,0
560,610,0,0,0,0,0,0,0,0,0,-1,1784,414,0,0
567,610,0,0,0,0,0,0,0,0,0,-1,1791,414,0,0
574,610,0,0,0,0,0,0,0,0,0,-1,1798,414,0,0
581,610,0,0,0,0,0,0,0,0,0,-1,1805,414,0,0
588,610,0,0,0,0,0,0,0,0,0,-1,1812,414,0,0
595,610,0,0,0,0,0,0,0,0,0,-1,1819,414,0,0
602,610,0,0,0,0,0,0,0,0,0,-1,1826,414,0,0
609,610,0,0,0,0,0,0,0,0,0,-1,1833,414,0,0
616,610,0,0,0,0,0,0,0,0,0,-1,1840,414,0,0
623,610,0,0,0,0,0,0,0,0,0,-1,1847,414,0,0
630,610,0,0,0,0,0,0,0,0,0,-1,1854,414,0,0
637,610,0,0,0,0,0,0,0,0,0,-1,1861,414,0,0
644,610,0,0,0,0,0,0,0,0,0,-1,1868,414,0,0
651,610,0,0,0,0,0,0,0,0,0,-1,1875,414,0,0
658,610,0,0,0,0,0,0,0,0,0,-1,1882,414,0,0
665,610,0,0,0,0,0,0,0,0,0,-1,1889,414,0,0
672,610,0,0,0,0,0,0,0,0,0,-1,1896,414,0,0
679,610,0,0,0,0,0,0,0,0,0,-1,1903,414,0,0
686,610,0,0,0,0,0,0,0,0,0,-1,1910,414,0,0
693,610,0,0,0,0,0,0,0,0,0,-1,1917,414,0,0
700,610,0,0,0,0,0,0,0,0,0,-1,1924,414,0,0
707,610,0,0,0,0,0,0,0,0,0,-1,1931,414,0,0
714,610,0,0,0,0,0,0,0,0,0,-1,1938,414,0,0
721,610,0,0,0,0,0,0,0,0,0,-1,1945,414,0,0
728,610,0,0,0,0,0,0,0,0,0,-1,1952,414,0,0
735,610,0,0,0,0,0,0,0,0,0,-1,1959,414,0,0
742,610,0,0,0,0,0,0,0,0,0,-1,1966,414,0,0
749,610,0,0,0,0,0,0,0,0,0,-1,1973,414,0,0
756,610,0,0,0,0,0,0,0,0,0,-1,1980,414,0,0
763,610,0,0,0,0,0,0,0,0,0,-1,1987,414,0,0
770,610,0,0,0,0,0,0,0,0,0,-1,1994,414,0,0
777,610,0,0,0,0,0,0,0,0,0,-1,2001,414,0,0
784,610,0,0,0,0,0,0,0,0,0,-1,2008,414,0,0
791,610,0,0,0,0,0,0,0,0,0,-1,2015,414,0,0
798,610,0,0,0,0,0,0,0,0,0,-1,2022,414,0,0
805,610,0,0,0,0,0,0,0,0,0,-1,2029,414,0,0
812,610,0,0,0,0,0,0,0,0,0,-1,2036,414,0,0
-700,603,0,0,0,0,0,0,0,0,0,-1,524,421,0,0
-693,603,0,0,0,0,0,0,0,0,0,-1,531,421,0,0
-686,603,0,0,0,0,0,0,0,0,0,-1,538,421,0,0
-679,603,0,0,0,0,0,0,0,0,0,-1,545,421,0,0
-672,603,0,0,0,0,0,0,0,0,0,-1,552,421,0,0
-665,603,0,0,0,0,0,0,0,0,0,-1,559,421,0,0
-658,603,0,0,0,0,0,0,0,0,0,-1,566,421,0,0
-651,603,0,0,0,0,0,0,0,0,0,-1,573,421,0,0
-644,603,0,0,0,0,0,0,0,0,0,-1,580,421,0,0
-637,603,0,0,0,0,0,0,0,0,0,-1,587,421,0,0
-630,603,0,0,0,0,0,0,0,0,0,-1,594,421,0,0
-623,603,0,0,0,0,0,0,0,0,0,-1,601,421,0,0
-616,603,0,0,0,0,0,0,0,0,0,-1,608,421,0,0
-609,603,0,0,0,0,0,0,0,0,0,-1,615,421,0,0
-602,603,0,0,0,0,0,0,0,0,0,-1,622,421,0,0
-595,603,0,0,0,0,0,0,0,0,0,-1,629,421,0,0
-588,603,0,0,0,0,0,0,0,0,0,-1,636,421,0,0
-581,603,0,0,0,0,0,0,0,0,0,-1,643,421,0,0
-574,603,0,0,0,0,0,0,0,0,0,-1,650,421,0,0
-567,603,0,0,0,0,0,0,0,0,0,-1,657,421,0,0
-560,603,0,0,0,0,0,0,0,0,0,-1,664,421,0,0
-553,603,0,0,0,0,0,0,0,0,0,-1,671,421,0,0
-546,603,0,0,0,0,0,0,0,0,0,-1,678,421,0,0
-539,603,0,0,0,0,0,0,0,0,0,-1,685,421,0,0
-532,603,0,0,0,0,0,0,0,0,0,-1,692,421,0,0
-525,603,0,0,0,0,0,0,0,0,0,-1,699,421,0,0
-518,603,0,0,0,0,0,0,0,0,0,-1,706,421,0,0
-511,603,0,0,0,0,0,0,0,0,0,-1,713,421,0,0
-504,603,0,0,0,0,0,0,0,0,0,-1,720,421,0,0
-497,603,0,0,0,0,0,0,0,0,0,-1,727,421,0,0
-490,603,0,0,0,0,0,0,0,0,0,-1,734,421,0,0
-483,603,0,0,0,0,0,0,0,0,0,-1,741,421,0,0
-476,603,0,0,0,0,0,0,0,0,0,-1,748,421,0,0
-469,603,0,0,0,0,0,0,0,0,0,-1,755,421,0,0
-462,603,0,0,0,0,0,0,0,0,0,-1,762,421,0,0
-455,603,0,0,0,0,0,0,0,0,0,-1,769,421,0,0
-448,603,0,0,0,0,0,0,0,0,0,-1,776,421,0,0
-441,603,0,0,0,0,0,0,0,0,0,-1,783,421,0,0
-434,603,0,0,0,0,0,0,0,0,0,-1,790,421,0,0
-427,603,0,0,0,0,0,0,0,0,0,-1,797,421,0,0
-420,603,0,0,0,0,0,0,0,0,0,-1,804,421,0,0
-413,603,0,0,0,0,0,0,0,0,0,-1,811,421,0,0
-406,603,0,0,0,0,0,0,0,0,0,-1,818,421,0,0
-399,603,0,0,0,0,0,0,0,0,0,-1,825,421,0,0
-392,603,0,0,0,0,0,0,0,0,0,-1,832,421,0,0
-385,603,0,0,0,0,0,0,0,0,0,-1,839,421,0,0
-378,603,0,0,0,0,0,0,0,0,0,-1,846,421,0,0
-371,603,0,0,0,0,0,0,0,0,0,-1,853,421,0,0
-364,603,0,0,0,0,0,0,0,0,0,-1,860,421,0,0
-357,603,0,0,0,0,0,0,0,0,0,-1,867,421,0,0
-350,603,0,0,0,0,0,0,0,0,0,-1,874,421,0,0
-343,603,0,0,0,0,0,0,0,0,0,-1,881,421,0,0
-336,603,0,0,0,0,0,0,0,0,0,-1,888,421,0,0
-329,603,4.09686,-17.9702,0,0,0,0,0,0,0,-1,895,421,4.09687,17.9702
-322,603,5.98431,-20.9071,0,0,0,0,0,0,0,-1,902,421,5.98431,20.9071
-315,603,5.99744,-20.4501,0,0,0,0,0,0,0,-1,909,421,5.99745,20.4501
-308,603,5.92249,-20.778,0,0,0,0,0,0,0,-1,916,421,5.92248,20.778
-301,603,2.87506,-22.5246,0,0,0,0,0,0,0,-1,923,421,2.87504,22.5246
-294,603,3.17743,-23.8659,0,0,0,0,0,0,0,-1,930,421,3.17742,23.8659
-287,603,3.67932,-24.1376,0,0,0,0,0,0,0,-1,937,421,3.67935,24.1376
-280,603,3.81903,-24.4882,0,0,0,0,0,0,0,-1,944,421,3.81903,24.4882
-273,603,5.91351,-23.7114,0,0,0,0,0,0,0,-1,951,421,5.91353,23.7114
-266,603,5.30225,-24.3558,-0.0168715,0.0103539,0.00439185,0.0110448,-0.0175624,1.41475,0.0166587,0.0474556,958,421,5.30227,24.3558
-259,603,4.46484,-24.9778,-0.0142893,0.00877129,0.00347363,0.00928316,-0.0148012,1.42449,0.0140262,0.0439154,965,421,4.46482,24.9777
-252,603,3.87708,-25.4948,-0.0101992,0.0122996,0.0035567,0.0128485,-0.0107481,1.41769,0.0136415,0.0404448,972,421,3.87705,25.4948
-245,603,3.84564,-25.7021,-0.00666116,0.0144865,0.00331967,0.0149954,-0.00717003,1.41869,0.0130603,0.0311479,979,421,3.84567,25.7021
-238,603,3.82373,-26.0486,-0.00397004,0.015914,0.00256845,0.0162404,-0.00429645,1.44439,0.0125075,0.0209704,986,421,3.8237,26.0486
-231,603,3.78198,-26.5463,-0.00136724,0.0163828,0.00217597,0.0166456,-0.0016301,1.45058,0.0116784,0.01343,993,421,3.782,26.5463
-224,603,3.73621,-27.0193,0.000884455,0.0162319,0.00160953,0.0163989,0.000717476,1.46742,0.0107015,0.0135398,1000,421,3.73618,27.0193
-217,603,3.72314,-27.4505,0.00243293,0.0153412,0.00123636,0.0154585,0.00231558,1.47616,0.00962709,0.012955,1007,421,3.72315,27.4505
-210,603,3.72504,-27.8767,0.00391077,0.0135291,0.000573859,0.0135633,0.00387665,1.51141,0.00806668,0.0110909,1014,421,3.72503,27.8767
-203,603,3.70093,-28.315,0.00449642,0.011938,0.000519044,0.011974,0.00446039,1.50149,0.00698772,0.0168866,1021,421,3.70088,28.315
-196,603,3.7085,-28.7444,0.0044223,0.00987796,0.000634633,0.00995081,0.00434945,1.4565,0.00576024,0.0191138,1028,421,3.70848,28.7444
-189,603,3.66345,-29.088,0.00410382,0.00741085,0.000590333,0.00751307,0.0040016,1.39934,0.00434075,0.0159254,1035,421,3.6634,29.088
-182,603,3.64087,-29.4792,0.00375395,0.00487329,0.000572045,0.00511391,0.00351333,1.17263,0.00302058,0.0111106,1042,421,3.64085,29.4792
-175,603,3.62073,-29.8428,0.00333894,0.00250401,0.00058124,0.0036371,0.00220585,0.473971,0.00211569,0.0113692,1049,421,3.62077,29.8428
-168,603,3.5824,-30.1921,0.00279619,0.000270034,0.000718828,0.00298641,7.98114e-05,0.258698,0.00196488,0.0136783,1056,421,3.58242,30.1921
-161,603,3.56543,-30.598,0.00231357,-0.00176457,0.000768805,0.00245369,-0.00190469,0.180278,0.00252295,0.0134467,1063,421,3.56549,30.598
-154,603,3.55396,-30.9637,0.0018932,-0.00333376,0.000866768,0.00203319,-0.00347374,0.160119,0.00321548,0.0137238,1070,421,3.55398,30.9637
-147,603,3.56677,-31.2765,0.00141234,-0.0049425,0.000914276,0.00154127,-0.00507142,0.140086,0.00399506,0.0142085,1077,421,3.56673,31.2765
-140,603,3.599,-31.5936,0.00110523,-0.00606205,0.00107121,0.0012619,-0.00621872,0.145231,0.0046242,0.0117524,1084,421,3.59898,31.5936
-133,603,3.5835,-31.9031,0.000848522,-0.00693413,0.00137864,0.00108552,-0.00717113,0.170243,0.00518064,0.0121051,1091,421,3.58351,31.9032
-126,603,3.57178,-32.2115,0.000688797,-0.00765631,0.00161079,0.000988921,-0.00795643,0.184209,0.00566278,0.0114108,1098,421,3.57184,32.2115
-119,603,3.59766,-32.5361,0.000716986,-0.00833031,0.00180037,0.00106209,-0.00867541,0.189387,0.00616819,0.0117453,1105,421,3.59767,32.5361
-112,603,3.60901,-32.8458,0.000874958,-0.00897699,0.00193446,0.00124118,-0.00934321,0.187101,0.00668108,0.0163416,1112,421,3.60906,32.8458
-105,603,3.61902,-33.1525,0.00107662,-0.00974655,0.00215096,0.00148843,-0.0101584,0.189163,0.00731901,0.0150821,1119,421,3.61907,33.1525
-98,603,3.6084,-33.4041,0.00129514,-0.0103032,0.00229143,0.00173143,-0.0107395,0.188151,0.00780113,0.0127449,1126,421,3.60835,33.4041
-91,603,3.62683,-33.6621,0.00165507,-0.0103813,0.00223478,0.00205661,-0.0107828,0.177778,0.00796312,0.00931919,1133,421,3.62678,33.6621
-84,603,3.65857,-33.9553,0.00206977,-0.00988572,0.00207496,0.00241965,-0.0102356,0.16705,0.00775711,0.0105192,1140,421,3.6586,33.9553
-77,603,3.7041,-34.2711,0.00264496,-0.00923622,0.00177364,0.00290408,-0.00949534,0.145069,0.00748837,0.017679,1147,421,3.70411,34.2711
-70,603,3.73816,-34.5787,0,0,0,0,0,0,0,-1,1154,421,3.73815,34.5787
-63,603,3.75574,-34.6837,0,0,0,0,0,0,0,-1,1161,421,3.75572,34.6837
-56,603,3.77783,-34.8815,0,0,0,0,0,0,0,-1,1168,421,3.77788,34.8815
-49,603,3.81482,-35.0748,0,0,0,0,0,0,0,-1,1175,421,3.81478,35.0748
-42,603,3.83826,-35.2576,0,0,0,0,0,0,0,-1,1182,421,3.8383,35.2576
-35,603,3.84192,-35.4068,0.00562443,0.0386392,-0.00899324,0.0409301,0.00333362,-1.32138,0.0262462,0.0420789,1189,421,3.84194,35.4068
-28,603,3.88416,-35.5407,0.00501104,0.0415263,-0.00789432,0.0431599,0.00337743,-1.36674,0.0277161,0.0272341,1196,421,3.88415,35.5407
-21,603,3.95386,-35.6883,0.00571891,0.0497911,-0.00913984,0.0516114,0.00389864,-1.37421,0.0331845,0.0230381,1203,421,3.95388,35.6883
-14,603,4.0614,-35.8056,0.00637223,0.0539536,-0.00976106,0.0558782,0.00444764,-1.37612,0.0358616,0.0227911,1210,421,4.06141,35.8056
-7,603,4.09741,-35.9051,0.00684733,0.0574341,-0.0103494,0.0594696,0.00481186,-1.3766,0.0381437,0.0255539,1217,421,4.09747,35.9051
0,603,4.10144,-36.0699,0.00694818,0.0588084,-0.0105446,0.0608704,0.00488615,-1.37768,0.0390536,0.0322058,1224,421,4.10149,36.0699
7,603,4.1416,-36.0648,0.00686145,0.0583716,-0.0103371,0.0603686,0.00486442,-1.37996,0.0387263,0.0408291,1231,421,4.14155,36.0649
14,603,4.43262,-35.9525,0.00665717,0.0563151,-0.00990126,0.0582165,0.00475577,-1.38107,0.0373269,0.0395333,1238,421,4.43264,35.9525
21,603,4.4845,-36.0237,0.00622747,0.0538726,-0.00906476,0.055539,0.00456113,-1.389,0.0356031,0.0317714,1245,421,4.48455,36.0237
28,603,4.49939,-36.0385,0.00535848,0.0504776,-0.00807621,0.0518796,0.00395643,-1.39891,0.0333459,0.0350298,1252,421,4.49945,36.0384
35,603,4.52515,-35.9695,0.00415154,0.0466761,-0.00697701,0.0477916,0.00303609,-1.41226,0.0308988,0.0417226,1259,421,4.52517,35.9696
42,603,4.59509,-36.2971,0.00262946,0.0435993,-0.0058486,0.0444179,0.00181091,-1.43174,0.0290271,0.0398575,1266,421,4.5951,36.2971
49,603,4.66028,-36.489,0.00114559,0.0416881,-0.00462657,0.0422094,0.000624323,-1.4586,0.0279338,0.0212786,1273,421,4.6603,36.489
56,603,4.59338,-36.392,-0.000388899,0.0391105,-0.00365941,0.0394466,-0.000725063,-1.47919,0.0265427,0.0413999,1280,421,4.59334,36.392
63,603,4.55322,-36.2756,0,0,0,0,0,0,0,-1,1287,421,4.55319,36.2756
70,603,4.57715,-36.3025,0,0,0,0,0,0,0,-1,1294,421,4.57717,36.3025
77,603,4.78625,-36.3967,0,0,0,0,0,0,0,-1,1301,421,4.78621,36.3967
84,603,4.89319,-36.4885,0,0,0,0,0,0,0,-1,1308,421,4.89321,36.4885
91,603,5.02991,-36.3602,0,0,0,0,0,0,0,-1,1315,421,5.02988,36.3602
98,603,5.30212,-36.4257,0,0,0,0,0,0,0,-1,1322,421,5.30216,36.4257
105,603,5.60486,-36.006,-0.0103647,0.0154887,-0.00549305,0.0166074,-0.0114834,-1.36989,0.0163079,0.0473184,1329,421,5.60491,36.0059
112,603,5.3728,-36.0159,-0.0100337,0.0105016,-0.00706722,0.0126987,-0.0122308,-1.26938,0.0143939,0.0405095,1336,421,5.37274,36.0159
119,603,5.45825,-35.889,-0.00974075,0.005103,-0.00870179,0.00911814,-0.0137559,-1.13849,0.0132965,0.0434156,1343,421,5.45821,35.889
126,603,5.51355,-35.8826,0,0,0,0,0,0,0,-1,1350,421,5.51356,35.8826
133,603,5.50793,-35.5681,-0.00707467,-0.00506747,-0.0126579,0.00662654,-0.0187687,-0.824959,0.0152103,0.0446351,1357,421,5.50788,35.5682
140,603,5.64453,-35.4634,-0.00467012,-0.00795269,-0.0142753,0.00805797,-0.0206808,-0.728163,0.0171175,0.0314447,1364,421,5.64447,35.4634
147,603,5.54138,-35.3508,-0.0019734,-0.0105787,-0.0157414,0.0100428,-0.0225949,-0.65199,0.0193024,0.0241628,1371,421,5.54141,35.3508
154,603,5.47424,-35.2846,0.000556958,-0.0123192,-0.0170907,0.012382,-0.0241443,-0.605267,0.0214498,0.0294446,1378,421,5.47419,35.2846
161,603,5.62878,-35.1499,0.00295131,-0.0109315,-0.017699,0.0150215,-0.0230016,-0.59852,0.0221132,0.0323387,1385,421,5.62884,35.1499
168,603,5.74866,-34.9613,0.00493783,-0.00965674,-0.01705,0.0161865,-0.0209054,-0.583197,0.0214727,0.0347609,1392,421,5.74869,34.9613
175,603,5.92969,-34.7821,0.00680228,-0.00643512,-0.0160828,0.017575,-0.0172079,-0.590191,0.0200823,0.0378442,1399,421,5.92967,34.7821
182,603,6.00537,-34.5805,0.00829207,-0.00741708,-0.0146761,0.0170832,-0.0162083,-0.539695,0.0192231,0.0430486,1406,421,6.00534,34.5805
189,603,5.91772,-34.2883,0.00979945,-0.00290673,-0.01235,0.0173346,-0.0104419,-0.547839,0.0162005,0.0370639,1413,421,5.91776,34.2883
196,603,5.85071,-34.0208,0.0106582,0.00155791,-0.00893834,0.0161379,-0.00392179,-0.549964,0.0122765,0.0279559,1420,421,5.85075,34.0208
203,603,5.85559,-33.8141,0.00736294,0.00104253,-0.00556002,0.0105981,-0.00219264,-0.526976,0.00789839,0.0167501,1427,421,5.85558,33.8141
210,603,5.87952,-33.641,0.00408557,0.000565108,-0.002586,0.00545357,-0.000802892,-0.486579,0.00393077,0.0127781,1434,421,5.87947,33.641
217,603,5.90784,-33.3158,0.00192962,0.000688308,-0.00109399,0.00256675,5.11721e-05,-0.527373,0.00169437,0.013339,1441,421,5.90778,33.3158
224,603,5.94312,-32.9987,0.00149506,0.00142187,-0.000580383,0.00204,0.000876933,-0.753912,0.00118165,0.0167418,1448,421,5.94305,32.9986
231,603,5.94116,-32.6955,0.00113579,0.00204913,-7.1084e-05,0.00205463,0.00113029,-1.49359,0.00118822,0.0144795,1455,421,5.9412,32.6955
238,603,5.96716,-32.3796,0.00110379,0.00247505,0.000271536,0.00252686,0.00105198,1.38225,0.00146568,0.0109453,1462,421,5.96713,32.3796
245,603,5.99988,-32.075,0.00118653,0.00280648,0.000447048,0.00292166,0.00107135,1.31864,0.00170669,0.0119351,1469,421,5.99991,32.075
252,603,6.01514,-31.7307,0.00118802,0.00304478,0.000635219,0.0032413,0.0009915,1.27077,0.00191779,0.0107138,1476,421,6.01513,31.7307
259,603,5.99646,-31.3799,0.00109369,0.00326018,0.000806276,0.00352731,0.000826565,1.25087,0.00213016,0.010236,1483,421,5.99646,31.3799
266,603,5.9801,-31.0311,0.000991213,0.00344718,0.000971468,0.00378499,0.000653409,1.23615,0.00233618,0.0112506,1490,421,5.98015,31.0311
273,603,5.99487,-30.6748,0.000909426,0.00374686,0.00116851,0.00416613,0.000490164,1.2263,0.0026293,0.0102329,1497,421,5.99482,30.6748
280,603,6.00635,-30.296,0.000860598,0.00384617,0.00138004,0.00438634,0.000320424,1.19771,0.00282349,0.0112603,1504,421,6.00632,30.296
287,603,5.995,-29.9081,0.000756741,0.00430159,0.00164564,0.00494776,0.000110567,1.19664,0.00326228,0.0111012,1511,421,5.99501,29.9081
294,603,5.96802,-29.5308,0.000579853,0.00478198,0.00193484,0.00553715,-0.00017532,1.19868,0.00375124,0.00962903,1518,421,5.96796,29.5308
301,603,5.96497,-29.1558,0.000384753,0.00523443,0.00218514,0.00607374,-0.000454559,1.20407,0.00420887,0.0109404,1525,421,5.96493,29.1558
308,603,5.97693,-28.7494,0.000252106,0.00570014,0.00245943,0.00664614,-0.000693897,1.2036,0.00467924,0.0159977,1532,421,5.97698,28.7494
315,603,5.9314,-28.3511,9.3957e-05,0.00622905,0.00275429,0.00728412,-0.000961113,1.20497,0.00520611,0.0151657,1539,421,5.93144,28.3511
322,603,5.89856,-27.9279,-0.00017228,0.00673995,0.00303846,0.00788568,-0.00131801,1.21021,0.00574706,0.0141981,1546,421,5.89856,27.928
329,603,5.88135,-27.4816,-0.000521191,0.0071584,0.00330882,0.00838737,-0.00175016,1.21517,0.00625709,0.0107306,1553,421,5.88131,27.4816
336,603,5.87988,-27.0756,-0.000926544,0.00764768,0.00355221,0.00892811,-0.00220698,1.22483,0.00680804,0.00917569,1560,421,5.87993,27.0756
343,603,5.87854,-26.6378,-0.00119294,0.00807612,0.00378227,0.0094236,-0.00254042,1.22855,0.00727852,0.0110715,1567,421,5.87854,26.6378
350,603,5.85071,-26.1694,-0.0013654,0.0089807,0.00424655,0.0105005,-0.00288516,1.22712,0.0081344,0.0204614,1574,421,5.85072,26.1694
357,603,5.85376,-25.6265,-0.00183306,0.00980255,0.00481692,0.0115379,-0.00356837,1.22502,0.00911719,0.0314256,1581,421,5.85377,25.6265
364,603,5.82813,-25.1319,-0.00242278,0.0106649,0.00525525,0.0125139,-0.00427176,1.23249,0.0100731,0.0486143,1588,421,5.82816,25.1319
371,603,5.67651,-24.4134,0,0,0,0,0,0,0,-1,1595,421,5.67652,24.4134
378,603,5.60669,-24.3667,0,0,0,0,0,0,0,-1,1602,421,5.60673,24.3667
385,603,5.36548,-23.594,0,0,0,0,0,0,0,-1,1609,421,5.36543,23.594
392,603,4.90527,-19.605,0,0,0,0,0,0,0,-1,1616,421,4.90526,19.605
399,603,2.94299,0.638214,0,0,0,0,0,0,0,-1,1623,421,2.94293,-0.638215
406,603,3.01917,-2.37219,0,0,0,0,0,0,0,-1,1630,421,3.01915,2.37219
413,603,2.38928,-2.41275,0,0,0,0,0,0,0,-1,1637,421,2.38926,2.41274
420,603,2.74866,-2.30066,0,0,0,0,0,0,0,-1,1644,421,2.74867,2.30065
427,603,7.11548,-3.35352,0,0,0,0,0,0,0,-1,1651,421,7.11549,3.35351
434,603,7.32153,-4.50525,0,0,0,0,0,0,0,-1,1658,421,7.32149,4.50525
441,603,3.18213,-0.250946,0,0,0,0,0,0,0,-1,1665,421,3.18212,0.250944
448,603,2.95667,-0.066925,0,0,0,0,0,0,0,-1,1672,421,2.95662,0.0669226
455,603,0,0,0,0,0,0,0,0,0,-1,1679,421,0,0
462,603,0,0,0,0,0,0,0,0,0,-1,1686,421,0,0
469,603,0,0,0,0,0,0,0,0,0,-1,1693,421,0,0
476,603,0,0,0,0,0,0,0,0,0,-1,1700,421,0,0
483,603,0,0,0,0,0,0,0,0,0,-1,1707,421,0,0
490,603,0,0,0,0,0,0,0,0,0,-1,1714,421,0,0
497,603,0,0,0,0,0,0,0,0,0,-1,1721,421,0,0
504,603,0,0,0,0,0,0,0,0,0,-1,1728,421,0,0
511,603,0,0,0,0,0,0,0,0,0,-1,1735,421,0,0
518,603,0,0,0,0,0,0,0,0,0,-1,1742,421,0,0
525,603,0,0,0,0,0,0,0,0,0,-1,1749,421,0,0
532,603,0,0,0,0,0,0,0,0,0,-1,1756,421,0,0
539,603,0,0,0,0,0,0,0,0,0,-1,1763,421,0,0
546,603,0,0,0,0,0,0,0,0,0,-1,1770,421,0,0
553,603,0,0,0,0,0,0,0,0,0,-1,1777,421,0,0
560,603,0,0,0,0,0,0,0,0,0,-1,1784,421,0,0
567,603,0,0,0,0,0,0,0,0,0,-1,1791,421,0,0
574,603,0,0,0,0,0,0,0,0,0,-1,1798,421,0,0
581,603,0,0,0,0,0,0,0,0,0,-1,1805,421,0,0
588,603,0,0,0,0,0,0,0,0,0,-1,1812,421,0,0
595,603,0,0,0,0,0,0,0,0,0,-1,1819,421,0,0
602,603,0,0,0,0,0,0,0,0,0,-1,1826,421,0,0
609,603,0,0,0,0,0,0,0,0,0,-1,1833,421,0,0
616,603,0,0,0,0,0,0,0,0,0,-1,1840,421,0,0
623,603,0,0,0,0,0,0,0,0,0,-1,1847,421,0,0
630,603,0,0,0,0,0,0,0,0,0,-1,1854,421,0,0
637,603,0,0,0,0,0,0,0,0,0,-1,1861,421,0,0
644,603,0,0,0,0,0,0,0,0,0,-1,1868,421,0,0
651,603,0,0,0,0,0,0,0,0,0,-1,1875,421,0,0
658,603,0,0,0,0,0,0,0,0,0,-1,1882,421,0,0
665,603,0,0,0,0,0,0,0,0,0,-1,1889,421,0,0
672,603,0,0,0,0,0,0,0,0,0,-1,1896,421,0,0
679,603,0,0,0,0,0,0,0,0,0,-1,1903,421,0,0
686,603,0,0,0,0,0,0,0,0,0,-1,1910,421,0,0
693,603,0,0,0,0,0,0,0,0,0,-1,1917,421,0,0
700,603,0,0,0,0,0,0,0,0,0,-1,1924,421,0,0
707,603,0,0,0,0,0,0,0,0,0,-1,1931,421,0,0
714,603,0,0,0,0,0,0,0,0,0,-1,1938,421,0,0
721,603,0,0,0,0,0,0,0,0,0,-1,1945,421,0,0
728,603,0,0,0,0,0,0,0,0,0,-1,1952,421,0,0
735,603,0,0,0,0,0,0,0,0,0,-1,1959,421,0,0
742,603,0,0,0,0,0,0,0,0,0,-1,1966,421,0,0
749,603,0,0,0,0,0,0,0,0,0,-1,1973,421,0,0
756,603,0,0,0,0,0,0,0,0,0,-1,1980,421,0,0
763,603,0,0,0,0,0,0,0,0,0,-1,1987,421,0,0
770,603,0,0,0,0,0,0,0,0,0,-1,1994,421,0,0
777,603,0,0,0,0,0,0,0,0,0,-1,2001,421,0,0
784,603,0,0,0,0,0,0,0,0,0,-1,2008,421,0,0
791,603,0,0,0,0,0,0,0,0,0,-1,2015,421,0,0
798,603,0,0,0,0,0,0,0,0,0,-1,2022,421,0,0
805,603,0,0,0,0,0,0,0,0,0,-1,2029,421,0,0
812,603,0,0,0,0,0,0,0,0,0,-1,2036,421,0,0
-700,596,0,0,0,0,0,0,0,0,0,-1,524,428,0,0
-693,596,0,0,0,0,0,0,0,0,0,-1,531,428,0,0
-686,596,0,0,0,0,0,0,0,0,0,-1,538,428,0,0
-679,596,0,0,0,0,0,0,0,0,0,-1,545,428,0,0
-672,596,0,0,0,0,0,0,0,0,0,-1,552,428,0,0
-665,596,0,0,0,0,0,0,0,0,0,-1,559,428,0,0
-658,596,0,0,0,0,0,0,0,0,0,-1,566,428,0,0
-651,596,0,0,0,0,0,0,0,0,0,-1,573,428,0,0
-644,596,0,0,0,0,0,0,0,0,0,-1,580,428,0,0
-637,596,0,0,0,0,0,0,0,0,0,-1,587,428,0,0
-630,596,0,0,0,0,0,0,0,0,0,-1,594,428,0,0
-623,596,0,0,0,0,0,0,0,0,0,-1,601,428,0,0
-616,596,0,0,0,0,0,0,0,0,0,-1,608,428,0,0
-609,596,0,0,0,0,0,0,0,0,0,-1,615,428,0,0
-602,596,0,0,0,0,0,0,0,0,0,-1,622,428,0,0
-595,596,0,0,0,0,0,0,0,0,0,-1,629,428,0,0
-588,596,0,0,0,0,0,0,0,0,0,-1,636,428,0,0
-581,596,0,0,0,0,0,0,0,0,0,-1,643,428,0,0
-574,596,0,0,0,0,0,0,0,0,0,-1,650,428,0,0
-567,596,0,0,0,0,0,0,0,0,0,-1,657,428,0,0
-560,596,0,0,0,0,0,0,0,0,0,-1,664,428,0,0
-553,596,0,0,0,0,0,0,0,0,0,-1,671,428,0,0
-546,596,0,0,0,0,0,0,0,0,0,-1,678,428,0,0
-539,596,0,0,0,0,0,0,0,0,0,-1,685,428,0,0
-532,596,0,0,0,0,0,0,0,0,0,-1,692,428,0,0
-525,596,0,0,0,0,0,0,0,0,0,-1,699,428,0,0
-518,596,0,0,0,0,0,0,0,0,0,-1,706,428,0,0
-511,596,0,0,0,0,0,0,0,0,0,-1,713,428,0,0
-504,596,0,0,0,0,0,0,0,0,0,-1,720,428,0,0
-497,596,0,0,0,0,0,0,0,0,0,-1,727,428,0,0
-490,596,0,0,0,0,0,0,0,0,0,-1,734,428,0,0
-483,596,0,0,0,0,0,0,0,0,0,-1,741,428,0,0
-476,596,0,0,0,0,0,0,0,0,0,-1,748,428,0,0
-469,596,0,0,0,0,0,0,0,0,0,-1,755,428,0,0
-462,596,0,0,0,0,0,0,0,0,0,-1,762,428,0,0
-455,596,0,0,0,0,0,0,0,0,0,-1,769,428,0,0
-448,596,0,0,0,0,0,0,0,0,0,-1,776,428,0,0
-441,596,0,0,0,0,0,0,0,0,0,-1,783,428,0,0
-434,596,0,0,0,0,0,0,0,0,0,-1,790,428,0,0
-427,596,0,0,0,0,0,0,0,0,0,-1,797,428,0,0
-420,596,0,0,0,0,0,0,0,0,0,-1,804,428,0,0
-413,596,0,0,0,0,0,0,0,0,0,-1,811,428,0,0
-406,596,0,0,0,0,0,0,0,0,0,-1,818,428,0,0
-399,596,0,0,0,0,0,0,0,0,0,-1,825,428,0,0
-392,596,0,0,0,0,0,0,0,0,0,-1,832,428,0,0
-385,596,0,0,0,0,0,0,0,0,0,-1,839,428,0,0
-378,596,0,0,0,0,0,0,0,0,0,-1,846,428,0,0
-371,596,0,0,0,0,0,0,0,0,0,-1,853,428,0,0
-364,596,0,0,0,0,0,0,0,0,0,-1,860,428,0,0
-357,596,0,0,0,0,0,0,0,0,0,-1,867,428,0,0
-350,596,0,0,0,0,0,0,0,0,0,-1,874,428,0,0
-343,596,0,0,0,0,0,0,0,0,0,-1,881,428,0,0
-336,596,-0.98291,-20.0836,0,0,0,0,0,0,0,-1,888,428,-0.982933,20.0836
-329,596,4.43048,-20.1666,0,0,0,0,0,0,0,-1,895,428,4.43045,20.1666
-322,596,4.29657,-19.996,0,0,0,0,0,0,0,-1,902,428,4.29655,19.996
-315,596,4.20044,-19.8317,0,0,0,0,0,0,0,-1,909,428,4.20045,19.8317
-308,596,0.254761,-20.841,0,0,0,0,0,0,0,-1,916,428,0.254731,20.841
-301,596,3.96875,-21.405,0,0,0,0,0,0,0,-1,923,428,3.96874,21.405
-294,596,2.44946,-23.3419,0,0,0,0,0,0,0,-1,930,428,2.44946,23.3419
-287,596,3.86694,-22.1682,0,0,0,0,0,0,0,-1,937,428,3.86691,22.1682
-280,596,3.49652,-23.325,0,0,0,0,0,0,0,-1,944,428,3.49649,23.325
-273,596,3.4447,-23.854,-0.012679,0.0116694,0.00128632,0.0117371,-0.0127467,1.51816,0.0141398,0.0480797,951,428,3.44471,23.854
-266,596,3.38947,-24.2059,-0.0115419,0.00955663,0.00145338,0.00965627,-0.0116415,1.50234,0.0123141,0.042178,958,428,3.38949,24.2059
-259,596,3.31604,-24.5129,-0.0100561,0.00797802,0.0012301,0.00806154,-0.0101396,1.50301,0.0105313,0.0350389,965,428,3.31605,24.5129
-252,596,3.38544,-25.2062,-0.00796025,0.00840587,0.00110317,0.0084799,-0.00803428,1.50379,0.00953562,0.0174228,972,428,3.38543,25.2062
-245,596,3.40863,-25.7172,-0.00589881,0.00847424,0.000824918,0.00852143,-0.005946,1.51365,0.00839677,0.0129579,979,428,3.40866,25.7172
-238,596,3.42078,-26.1723,-0.00405106,0.00874723,0.000350688,0.00875683,-0.00406067,1.54342,0.00756394,0.0119655,986,428,3.42078,26.1723
-231,596,3.37048,-26.6369,-0.00245231,0.00877299,6.81399e-05,0.0087734,-0.00245272,1.56473,0.00681525,0.0127114,993,428,3.37048,26.6369
-224,596,3.32239,-27.0816,-0.00102683,0.00878624,-0.000291149,0.00879487,-0.00103546,-1.54116,0.00623712,0.0139159,1000,428,3.32237,27.0816
-217,596,3.31207,-27.5026,3.01753e-05,0.00836267,-0.000498784,0.00839242,4.23752e-07,-1.51122,0.0055948,0.0146351,1007,428,3.31207,27.5026
-210,596,3.33362,-27.9097,0.00115568,0.00739407,-0.000990771,0.00754764,0.00100211,-1.41702,0.00473322,0.0119416,1014,428,3.33364,27.9097
-203,596,3.32788,-28.3178,0.00172249,0.00647268,-0.000916259,0.00664329,0.00155188,-1.3867,0.00401287,0.0154316,1021,428,3.3279,28.3178
-196,596,3.33337,-28.7161,0.00180393,0.00524192,-0.000670979,0.00536823,0.00167762,-1.38472,0.00317115,0.0163672,1028,428,3.33342,28.7161
-189,596,3.29285,-29.0963,0.00173706,0.00364714,-0.000550223,0.00379431,0.0015899,-1.30946,0.0022002,0.0136821,1035,428,3.29282,29.0963
-182,596,3.26477,-29.4659,0.00170304,0.00195423,-0.000387848,0.00223631,0.00142096,-0.941983,0.00130682,0.0117581,1042,428,3.2648,29.4659
-175,596,3.25903,-29.8387,0.00167368,0.000109568,-0.000135554,0.00168534,9.79072e-05,-0.0858125,0.00109239,0.013489,1049,428,3.25906,29.8387
-168,596,3.25354,-30.205,0.00152193,-0.0018863,0.000218554,0.00153589,-0.00190026,0.063777,0.00198758,0.0157784,1056,428,3.25354,30.205
-161,596,3.25293,-30.5847,0.00139986,-0.00395226,0.000517458,0.00144944,-0.00400183,0.0955042,0.00326026,0.0154852,1063,428,3.25294,30.5847
-154,596,3.24121,-30.9534,0.00133238,-0.00574758,0.000870366,0.00143781,-0.00585301,0.120543,0.00445922,0.0146704,1070,428,3.24117,30.9534
-147,596,3.25928,-31.2517,0.00122611,-0.0076232,0.00126969,0.00140468,-0.00780178,0.139725,0.00572712,0.0139721,1077,428,3.25924,31.2517
-140,596,3.26501,-31.5771,0.00115194,-0.00940204,0.00175169,0.00143508,-0.00968518,0.160252,0.00698446,0.0134473,1084,428,3.26499,31.5772
-133,596,3.24963,-31.9154,0.001027,-0.0111474,0.00233274,0.00145867,-0.011579,0.182979,0.00824868,0.0141923,1091,428,3.24964,31.9154
-126,596,3.26257,-32.2107,0.000992576,-0.0127163,0.00280882,0.00154576,-0.0132695,0.194455,0.00940401,0.0118063,1098,428,3.26258,32.2107
-119,596,3.30469,-32.5367,0.00107881,-0.014157,0.00317922,0.0017156,-0.0147938,0.19768,0.0104813,0.0144874,1105,428,3.30463,32.5367
-112,596,3.2843,-32.8464,0.00119545,-0.0153263,0.00343942,0.00188286,-0.0160137,0.197261,0.0113556,0.0154725,1112,428,3.28428,32.8464
-105,596,3.30139,-33.1664,0.0012789,-0.0163524,0.00377277,0.00205228,-0.0171258,0.202188,0.0121592,0.0162683,1119,428,3.30143,33.1665
-98,596,3.34692,-33.4124,0.00143432,-0.0170548,0.00397351,0.0022521,-0.0178726,0.202973,0.0127323,0.013625,1126,428,3.34689,33.4125
-91,596,3.36157,-33.7863,0.00185023,-0.0169528,0.00381826,0.00259601,-0.0176985,0.192891,0.0127528,0.0315156,1133,428,3.36155,33.7864
-84,596,3.42139,-33.9445,0,0,0,0,0,0,0,-1,1140,428,3.42133,33.9445
-77,596,3.52136,-34.3429,0,0,0,0,0,0,0,-1,1147,428,3.52131,34.3429
-70,596,3.50696,-32.137,0,0,0,0,0,0,0,-1,1154,428,3.50696,32.137
-63,596,1.95569,-12.2758,0,0,0,0,0,0,0,-1,1161,428,1.95563,12.2759
-56,596,1.60107,-10.5827,0,0,0,0,0,0,0,-1,1168,428,1.60108,10.5827
-49,596,1.59473,-10.0393,0,0,0,0,0,0,0,-1,1175,428,1.59472,10.0393
-42,596,1.99585,-6.6246,0,0,0,0,0,0,0,-1,1182,428,1.99586,6.62459
-35,596,3.46228,-35.1688,0,0,0,0,0,0,0,-1,1189,428,3.46228,35.1688
-28,596,3.64392,-35.3918,0,0,0,0,0,0,0,-1,1196,428,3.64395,35.3918
-21,596,3.71777,-35.5637,0,0,0,0,0,0,0,-1,1203,428,3.71783,35.5637
-14,596,3.92383,-35.638,0,0,0,0,0,0,0,-1,1210,428,3.92378,35.638
-7,596,3.93396,-35.6263,0,0,0,0,0,0,0,-1,1217,428,3.93401,35.6263
0,596,3.89624,-35.9506,0,0,0,0,0,0,0,-1,1224,428,3.89619,35.9506
7,596,3.85071,-35.7951,0,0,0,0,0,0,0,-1,1231,428,3.8507,35.7951
14,596,3.8446,-35.5356,0,0,0,0,0,0,0,-1,1238,428,3.84466,35.5356
21,596,4.53088,-35.444,0,0,0,0,0,0,0,-1,1245,428,4.53094,35.444
28,596,4.49451,-34.5986,0.0054539,0.0657316,-0.00948937,0.0671902,0.0039953,-1.41828,0.0435229,0.0481896,1252,428,4.49446,34.5986
35,596,4.47888,-35.8756,0.00393131,0.0603424,-0.00835691,0.0615544,0.00271933,-1.42677,0.0401605,0.0484907,1259,428,4.47892,35.8756
42,596,4.6167,-36.196,0.00193291,0.0560878,-0.00725689,0.0570434,0.000977324,-1.43987,0.0377074,0.0458877,1266,428,4.61669,36.1959
49,596,4.81494,-36.4776,-3.45678e-05,0.0535246,-0.00599426,0.0541873,-0.000697237,-1.46069,0.0363595,0.0467124,1273,428,4.81495,36.4776
56,596,4.71729,-36.5255,-0.0020028,0.0503681,-0.00504013,0.0508487,-0.00248345,-1.47572,0.0347565,0.0440471,1280,428,4.71725,36.5255
63,596,4.76685,-36.2393,-0.00409985,0.0465482,-0.0035875,0.046801,-0.0043527,-1.50043,0.0327481,0.0448593,1287,428,4.76689,36.2393
70,596,5.39502,-35.7873,-0.00606208,0.0443426,-0.00354132,0.0445902,-0.00630967,-1.501,0.0320378,0.0463048,1294,428,5.39497,35.7873
77,596,4.48059,-36.0863,0,0,0,0,0,0,0,-1,1301,428,4.48062,36.0863
84,596,3.53845,-34.3543,0,0,0,0,0,0,0,-1,1308,428,3.5385,34.3543
91,596,4.17468,-35.0345,0,0,0,0,0,0,0,-1,1315,428,4.17469,35.0345
98,596,3.6073,-34.4548,0,0,0,0,0,0,0,-1,1322,428,3.60729,34.4548
105,596,6.01343,-35.7334,0,0,0,0,0,0,0,-1,1329,428,6.01348,35.7334
112,596,5.69128,-35.5698,0,0,0,0,0,0,0,-1,1336,428,5.69125,35.5698
119,596,5.8208,-35.3949,0,0,0,0,0,0,0,-1,1343,428,5.82083,35.3949
126,596,2.38391,-34.4108,0,0,0,0,0,0,0,-1,1350,428,2.38388,34.4108
133,596,5.70642,-35.1289,0,0,0,0,0,0,0,-1,1357,428,5.70644,35.1289
140,596,5.9906,-34.9732,0,0,0,0,0,0,0,-1,1364,428,5.99057,34.9732
147,596,5.75085,-34.8364,0,0,0,0,0,0,0,-1,1371,428,5.7509,34.8364
154,596,5.51099,-34.9437,0,0,0,0,0,0,0,-1,1378,428,5.51101,34.9437
161,596,5.87915,-34.9303,0,0,0,0,0,0,0,-1,1385,428,5.87914,34.9303
168,596,6.08252,-34.6742,0,0,0,0,0,0,0,-1,1392,428,6.08252,34.6742
175,596,6.26001,-34.4528,0,0,0,0,0,0,0,-1,1399,428,6.26002,34.4528
182,596,6.38196,-34.4759,0,0,0,0,0,0,0,-1,1406,428,6.38192,34.4759
189,596,6.24744,-34.2151,0,0,0,0,0,0,0,-1,1413,428,6.24741,34.2152
196,596,6.17798,-33.75,0,0,0,0,0,0,0,-1,1420,428,6.17792,33.75
203,596,6.08655,-33.7514,0,0,0,0,0,0,0,-1,1427,428,6.08659,33.7514
210,596,6.1145,-33.6631,0,0,0,0,0,0,0,-1,1434,428,6.11452,33.6631
217,596,6.17017,-33.3143,0,0,0,0,0,0,0,-1,1441,428,6.17016,33.3143
224,596,6.38782,-33.2447,0.00189776,0.00102733,-0.00110373,0.00264898,0.000276113,-0.597601,0.00168152,0.0494287,1448,428,6.38782,33.2447
231,596,6.26917,-32.6797,0.00146839,0.00172845,-0.000500859,0.00211589,0.00108096,-0.912402,0.0012217,0.0191832,1455,428,6.26915,32.6797
238,596,6.31958,-32.3709,0.00152326,0.00207629,-0.000138343,0.00210896,0.00149059,-1.33885,0.00125184,0.0143618,1462,428,6.3196,32.3709
245,596,6.35046,-32.0595,0.00175023,0.00221914,7.90784e-06,0.00221927,0.0017501,1.55394,0.00135057,0.0130609,1469,428,6.35041,32.0595
252,596,6.35791,-31.7179,0.00185374,0.00217188,0.000175666,0.0022498,0.00177583,1.15333,0.00136949,0.00985461,1476,428,6.35793,31.7179
259,596,6.33716,-31.3701,0.00182015,0.00207918,0.000273761,0.00225252,0.00164681,1.00634,0.001346,0.00842388,1483,428,6.3372,31.3701
266,596,6.32568,-31.0327,0.00177107,0.00198973,0.000362212,0.00225875,0.00150205,0.931974,0.00132755,0.00996648,1490,428,6.32564,31.0327
273,596,6.35425,-30.6751,0.00173355,0.00206054,0.000496921,0.00242017,0.00137392,0.944326,0.00140155,0.0116074,1497,428,6.3542,30.6751
280,596,6.37866,-30.316,0.00172111,0.00185274,0.000632866,0.0024232,0.00115064,0.837208,0.00139963,0.0121487,1504,428,6.37868,30.3161
287,596,6.36877,-29.9386,0.00160849,0.00210921,0.000815681,0.00271209,0.00100561,0.934302,0.00158316,0.0113625,1511,428,6.3688,29.9386
294,596,6.34888,-29.5507,0.00139889,0.00247038,0.00105377,0.00311677,0.000752501,1.02058,0.00187796,0.00939468,1518,428,6.34885,29.5507
301,596,6.3606,-29.1554,0.00117034,0.00284406,0.00127221,0.00352997,0.000484422,1.07632,0.00220961,0.0105853,1525,428,6.3606,29.1554
308,596,6.36682,-28.7401,0.00100457,0.0032136,0.00150753,0.00397793,0.00024023,1.10155,0.00257562,0.015904,1532,428,6.36685,28.7401
315,596,6.31433,-28.313,0.000784258,0.00370956,0.0017548,0.00453134,-3.753e-05,1.13282,0.00303348,0.0159677,1539,428,6.31434,28.313
322,596,6.31555,-27.8957,0.00045318,0.0042248,0.00201113,0.00509597,-0.000417987,1.16202,0.00354486,0.0138809,1546,428,6.31557,27.8957
329,596,6.29749,-27.4897,7.30498e-05,0.004681,0.00227656,0.00561601,-0.000861962,1.18109,0.00406193,0.0105022,1553,428,6.29742,27.4897
336,596,6.27856,-27.0949,-0.000317485,0.00518659,0.00253362,0.00617526,-0.00130616,1.19875,0.00461427,0.0089974,1560,428,6.27852,27.0949
343,596,6.28796,-26.6663,-0.000620322,0.0056941,0.00279276,0.00675204,-0.00167826,1.20869,0.0051527,0.0115582,1567,428,6.2879,26.6663
350,596,6.28918,-26.1907,-0.00086674,0.00659903,0.00322648,0.00780017,-0.00206788,1.21442,0.0060092,0.0124017,1574,428,6.28914,26.1907
357,596,6.24182,-25.7267,-0.00127153,0.00743744,0.00374742,0.00882793,-0.00266201,1.21549,0.00694482,0.0100399,1581,428,6.24182,25.7267
364,596,6.19519,-25.2424,-0.0017306,0.00830756,0.00418596,0.00982403,-0.00324707,1.22323,0.00785859,0.0139132,1588,428,6.19525,25.2424
371,596,6.19653,-24.7978,-0.00213753,0.0095152,0.00468766,0.0111669,-0.00378918,1.23204,0.00897824,0.0207319,1595,428,6.19657,24.7978
378,596,6.10657,-24.4019,-0.00254705,0.0111303,0.00523372,0.0129032,-0.00431995,1.24418,0.0103472,0.0298624,1602,428,6.10659,24.4019
385,596,5.99609,-23.7889,-0.00306625,0.0125147,0.00552298,0.0142738,-0.00482537,1.26245,0.0114679,0.0467092,1609,428,5.99612,23.7889
392,596,5.89087,-23.235,0,0,0,0,0,0,0,-1,1616,428,5.89081,23.235
399,596,5.88232,-22.1512,0,0,0,0,0,0,0,-1,1623,428,5.88229,22.1512
406,596,3.60034,-10.1525,0,0,0,0,0,0,0,-1,1630,428,3.60028,10.1525
413,596,3.39124,-2.63528,0,0,0,0,0,0,0,-1,1637,428,3.39122,2.6353
420,596,2.6344,-3.06308,0,0,0,0,0,0,0,-1,1644,428,2.63439,3.06308
427,596,2.99329,-1.90512,0,0,0,0,0,0,0,-1,1651,428,2.99327,1.90512
434,596,3.80896,-0.253998,0,0,0,0,0,0,0,-1,1658,428,3.80902,0.254004
441,596,3.86401,-0.131622,0,0,0,0,0,0,0,-1,1665,428,3.86406,0.131613
448,596,1.0769,0.0083313,0,0,0,0,0,0,0,-1,1672,428,1.07684,-0.00832231
455,596,2.00769,-1.43329,0,0,0,0,0,0,0,-1,1679,428,2.00765,1.4333
462,596,0,0,0,0,0,0,0,0,0,-1,1686,428,0,0
469,596,0,0,0,0,0,0,0,0,0,-1,1693,428,0,0
476,596,0,0,0,0,0,0,0,0,0,-1,1700,428,0,0
483,596,0,0,0,0,0,0,0,0,0,-1,1707,428,0,0
490,596,0,0,0,0,0,0,0,0,0,-1,1714,428,0,0
497,596,0,0,0,0,0,0,0,0,0,-1,1721,428,0,0
504,596,0,0,0,0,0,0,0,0,0,-1,1728,428,0,0
511,596,0,0,0,0,0,0,0,0,0,-1,1735,428,0,0
518,596,0,0,0,0,0,0,0,0,0,-1,1742,428,0,0
525,596,0,0,0,0,0,0,0,0,0,-1,1749,428,0,0
532,596,0,0,0,0,0,0,0,0,0,-1,1756,428,0,0
539,596,0,0,0,0,0,0,0,0,0,-1,1763,428,0,0
546,596,0,0,0,0,0,0,0,0,0,-1,1770,428,0,0
553,596,0,0,0,0,0,0,0,0,0,-1,1777,428,0,0
560,596,0,0,0,0,0,0,0,0,0,-1,1784,428,0,0
567,596,0,0,0,0,0,0,0,0,0,-1,1791,428,0,0
574,596,0,0,0,0,0,0,0,0,0,-1,1798,428,0,0
581,596,0,0,0,0,0,0,0,0,0,-1,1805,428,0,0
588,596,0,0,0,0,0,0,0,0,0,-1,1812,428,0,0
595,596,0,0,0,0,0,0,0,0,0,-1,1819,428,0,0
602,596,0,0,0,0,0,0,0,0,0,-1,1826,428,0,0
609,596,0,0,0,0,0,0,0,0,0,-1,1833,428,0,0
616,596,0,0,0,0,0,0,0,0,0,-1,1840,428,0,0
623,596,0,0,0,0,0,0,0,0,0,-1,1847,428,0,0
630,596,0,0,0,0,0,0,0,0,0,-1,1854,428,0,0
637,596,0,0,0,0,0,0,0,0,0,-1,1861,428,0,0
644,596,0,0,0,0,0,0,0,0,0,-1,1868,428,0,0
651,596,0,0,0,0,0,0,0,0,0,-1,1875,428,0,0
658,596,0,0,0,0,0,0,0,0,0,-1,1882,428,0,0
665,596,0,0,0,0,0,0,0,0,0,-1,1889,428,0,0
672,596,0,0,0,0,0,0,0,0,0,-1,1896,428,0,0
679,596,0,0,0,0,0,0,0,0,0,-1,1903,428,0,0
686,596,0,0,0,0,0,0,0,0,0,-1,1910,428,0,0
693,596,0,0,0,0,0,0,0,0,0,-1,1917,428,0,0
700,596,0,0,0,0,0,0,0,0,0,-1,1924,428,0,0
707,596,0,0,0,0,0,0,0,0,0,-1,1931,428,0,0
714,596,0,0,0,0,0,0,0,0,0,-1,1938,428,0,0
721,596,0,0,0,0,0,0,0,0,0,-1,1945,428,0,0
728,596,0,0,0,0,0,0,0,0,0,-1,1952,428,0,0
735,596,0,0,0,0,0,0,0,0,0,-1,1959,428,0,0
742,596,0,0,0,0,0,0,0,0,0,-1,1966,428,0,0
749,596,0,0,0,0,0,0,0,0,0,-1,1973,428,0,0
756,596,0,0,0,0,0,0,0,0,0,-1,1980,428,0,0
763,596,0,0,0,0,0,0,0,0,0,-1,1987,428,0,0
770,596,0,0,0,0,0,0,0,0,0,-1,1994,428,0,0
777,596,0,0,0,0,0,0,0,0,0,-1,2001,428,0,0
784,596,0,0,0,0,0,0,0,0,0,-1,2008,428,0,0
791,596,0,0,0,0,0,0,0,0,0,-1,2015,428,0,0
798,596,0,0,0,0,0,0,0,0,0,-1,2022,428,0,0
805,596,0,0,0,0,0,0,0,0,0,-1,2029,428,0,0
812,596,0,0,0,0,0,0,0,0,0,-1,2036,428,0,0
-700,589,0,0,0,0,0,0,0,0,0,-1,524,435,0,0
-693,589,0,0,0,0,0,0,0,0,0,-1,531,435,0,0
-686,589,0,0,0,0,0,0,0,0,0,-1,538,435,0,0
-679,589,0,0,0,0,0,0,0,0,0,-1,545,435,0,0
-672,589,0,0,0,0,0,0,0,0,0,-1,552,435,0,0
-665,589,0,0,0,0,0,0,0,0,0,-1,559,435,0,0
-658,589,0,0,0,0,0,0,0,0,0,-1,566,435,0,0
-651,589,0,0,0,0,0,0,0,0,0,-1,573,435,0,0
-644,589,0,0,0,0,0,0,0,0,0,-1,580,435,0,0
-637,589,0,0,0,0,0,0,0,0,0,-1,587,435,0,0
-630,589,0,0,0,0,0,0,0,0,0,-1,594,435,0,0
-623,589,0,0,0,0,0,0,0,0,0,-1,601,435,0,0
-616,589,0,0,0,0,0,0,0,0,0,-1,608,435,0,0
-609,589,0,0,0,0,0,0,0,0,0,-1,615,435,0,0
-602,589,0,0,0,0,0,0,0,0,0,-1,622,435,0,0
-595,589,0,0,0,0,0,0,0,0,0,-1,629,435,0,0
-588,589,0,0,0,0,0,0,0,0,0,-1,636,435,0,0
-581,589,0,0,0,0,0,0,0,0,0,-1,643,435,0,0
-574,589,0,0,0,0,0,0,0,0,0,-1,650,435,0,0
-567,589,0,0,0,0,0,0,0,0,0,-1,657,435,0,0
-560,589,0,0,0,0,0,0,0,0,0,-1,664,435,0,0
-553,589,0,0,0,0,0,0,0,0,0,-1,671,435,0,0
-546,589,0,0,0,0,0,0,0,0,0,-1,678,435,0,0
-539,589,0,0,0,0,0,0,0,0,0,-1,685,435,0,0
-532,589,0,0,0,0,0,0,0,0,0,-1,692,435,0,0
-525,589,0,0,0,0,0,0,0,0,0,-1,699,435,0,0
-518,589,0,0,0,0,0,0,0,0,0,-1,706,435,0,0
-511,589,0,0,0,0,0,0,0,0,0,-1,713,435,0,0
-504,589,0,0,0,0,0,0,0,0,0,-1,720,435,0,0
-497,589,0,0,0,0,0,0,0,0,0,-1,727,435,0,0
-490,589,0,0,0,0,0,0,0,0,0,-1,734,435,0,0
-483,589,0,0,0,0,0,0,0,0,0,-1,741,435,0,0
-476,589,0,0,0,0,0,0,0,0,0,-1,748,435,0,0
-469,589,0,0,0,0,0,0,0,0,0,-1,755,435,0,0
-462,589,0,0,0,0,0,0,0,0,0,-1,762,435,0,0
-455,589,0,0,0,0,0,0,0,0,0,-1,769,435,0,0
-448,589,0,0,0,0,0,0,0,0,0,-1,776,435,0,0
-441,589,0,0,0,0,0,0,0,0,0,-1,783,435,0,0
-434,589,0,0,0,0,0,0,0,0,0,-1,790,435,0,0
-427,589,0,0,0,0,0,0,0,0,0,-1,797,435,0,0
-420,589,0,0,0,0,0,0,0,0,0,-1,804,435,0,0
-413,589,0,0,0,0,0,0,0,0,0,-1,811,435,0,0
-406,589,0,0,0,0,0,0,0,0,0,-1,818,435,0,0
-399,589,0,0,0,0,0,0,0,0,0,-1,825,435,0,0
-392,589,0,0,0,0,0,0,0,0,0,-1,832,435,0,0
-385,589,0,0,0,0,0,0,0,0,0,-1,839,435,0,0
-378,589,0,0,0,0,0,0,0,0,0,-1,846,435,0,0
-371,589,0,0,0,0,0,0,0,0,0,-1,853,435,0,0
-364,589,0,0,0,0,0,0,0,0,0,-1,860,435,0,0
-357,589,0,0,0,0,0,0,0,0,0,-1,867,435,0,0
-350,589,-0.799927,-20.664,0,0,0,0,0,0,0,-1,874,435,-0.799952,20.664
-343,589,-0.370911,-19.1543,0,0,0,0,0,0,0,-1,881,435,-0.370922,19.1543
-336,589,-0.836914,-18.9103,0,0,0,0,0,0,0,-1,888,435,-0.836925,18.9103
-329,589,2.58252,-16.902,0,0,0,0,0,0,0,-1,895,435,2.58251,16.902
-322,589,1.5899,-21.1559,0,0,0,0,0,0,0,-1,902,435,1.58993,21.156
-315,589,2.42456,-20.3127,0,0,0,0,0,0,0,-1,909,435,2.42453,20.3127
-308,589,2.91052,-21.0734,0,0,0,0,0,0,0,-1,916,435,2.91055,21.0734
-301,589,3.26019,-21.3953,0,0,0,0,0,0,0,-1,923,435,3.26018,21.3953
-294,589,3.12115,-21.3943,0,0,0,0,0,0,0,-1,930,435,3.12116,21.3944
-287,589,3.21667,-22.3083,-0.00760033,0.0151631,-0.00299947,0.0155517,-0.00798892,-1.44196,0.013823,0.0451853,937,435,3.21668,22.3083
-280,589,3.15979,-23.3144,-0.00844149,0.0124599,-0.00142845,0.0125571,-0.00853866,-1.50288,0.0122531,0.0349442,944,435,3.15981,23.3144
-273,589,3.13831,-23.8536,-0.00818581,0.010382,-0.000724242,0.0104102,-0.00821401,-1.53187,0.0107776,0.0201931,951,435,3.13831,23.8536
-266,589,3.06824,-24.3197,-0.00771353,0.00850322,-0.000286072,0.00850826,-0.00771857,-1.55316,0.00937227,0.0178059,958,435,3.06826,24.3197
-259,589,2.99628,-24.8053,-0.00692055,0.00697464,-9.79248e-05,0.00697534,-0.00692124,-1.56375,0.00802321,0.0158751,965,435,2.99626,24.8053
-252,589,3.01099,-25.3217,-0.00587739,0.00614188,-0.000190446,0.0061449,-0.00588041,-1.55496,0.00694337,0.0103083,972,435,3.01096,25.3217
-245,589,3.03198,-25.7701,-0.00461749,0.00514858,-0.000403788,0.00516524,-0.00463416,-1.52954,0.00566046,0.0100569,979,435,3.03196,25.77
-238,589,3.01172,-26.223,-0.00332041,0.00461723,-0.000653765,0.00467072,-0.00337389,-1.48917,0.00466463,0.0140348,986,435,3.01174,26.223
-231,589,2.96967,-26.6357,-0.00218764,0.0039981,-0.000779545,0.00409483,-0.00228437,-1.44734,0.00373214,0.0149788,993,435,2.96967,26.6357
-224,589,2.92029,-27.0662,-0.00124751,0.00372173,-0.000955223,0.00389903,-0.0014248,-1.38728,0.00318244,0.0155419,1000,435,2.92031,27.0662
-217,589,2.90735,-27.498,-0.000462878,0.0032096,-0.00103246,0.00347996,-0.000733234,-1.31469,0.00259909,0.0161888,1007,435,2.90733,27.4979
-210,589,2.90594,-27.9176,0.000473093,0.00240788,-0.00139484,0.00313797,-0.000256991,-1.08859,0.00218269,0.0147307,1014,435,2.90593,27.9176
-203,589,2.91907,-28.3193,0.00106591,0.00172899,-0.00129755,0.00273669,5.82149e-05,-0.910478,0.00180537,0.0112312,1021,435,2.91908,28.3193
-196,589,2.91699,-28.717,0.00130551,0.000898208,-0.00102922,0.00215103,5.26867e-05,-0.687725,0.00141678,0.0140852,1028,435,2.917,28.717
-189,589,2.90344,-29.1212,0.00145158,-0.000242968,-0.000837577,0.00179569,-0.000587083,-0.389822,0.00143347,0.018067,1035,435,2.9034,29.1212
-182,589,2.8855,-29.4516,0.00163291,-0.0014565,-0.000585383,0.00174011,-0.0015637,-0.181119,0.00190836,0.0125264,1042,435,2.88545,29.4516
-175,589,2.89612,-29.8166,0.00179572,-0.00307119,-0.000183508,0.00180263,-0.0030781,-0.0376341,0.00284978,0.0157984,1049,435,2.89609,29.8166
-168,589,2.90564,-30.2157,0.00182846,-0.00505025,0.000277484,0.00183964,-0.00506143,0.0402524,0.00412653,0.0135303,1056,435,2.90564,30.2157
-161,589,2.91565,-30.5646,0.00181385,-0.00725892,0.000713548,0.00186963,-0.0073147,0.078008,0.0056046,0.0126051,1063,435,2.91567,30.5646
-154,589,2.9032,-30.9113,0.00180696,-0.00932534,0.00124402,0.00194428,-0.00946267,0.109942,0.00704652,0.0131474,1070,435,2.9032,30.9113
-147,589,2.92505,-31.2395,0.00176818,-0.0116352,0.00190754,0.00203437,-0.0119014,0.138651,0.0086921,0.0131023,1077,435,2.92506,31.2395
-140,589,2.94519,-31.5724,0.00163839,-0.0141241,0.0026637,0.00207636,-0.0145621,0.162963,0.010469,0.0134591,1084,435,2.9452,31.5724
-133,589,2.94141,-31.9092,0.00140809,-0.0166974,0.00355404,0.00208074,-0.01737,0.187053,0.0123322,0.0130933,1091,435,2.94137,31.9092
-126,589,2.96533,-32.2232,0.00130502,-0.0191369,0.004331,0.00218476,-0.0200166,0.200401,0.0141291,0.0115332,1098,435,2.96533,32.2232
-119,589,2.98608,-32.5297,0.00125174,-0.0213511,0.00495401,0.00228987,-0.0223892,0.206563,0.0157451,0.0179052,1105,435,2.98604,32.5297
-112,589,2.96619,-32.807,0.00121463,-0.0230956,0.00540478,0.00236209,-0.0242431,0.209198,0.0170042,0.0178523,1112,435,2.96614,32.807
-105,589,2.98474,-33.1542,0.00116938,-0.0244518,0.0059201,0.00247116,-0.0257536,0.216446,0.0180492,0.0227338,1119,435,2.98473,33.1542
-98,589,3.06799,-33.4857,0,0,0,0,0,0,0,-1,1126,435,3.06803,33.4857
-91,589,3.15161,-34.1241,0,0,0,0,0,0,0,-1,1133,435,3.15158,34.1241
-84,589,2.76538,-22.6013,0,0,0,0,0,0,0,-1,1140,435,2.76539,22.6014
-77,589,2.18152,-14.8023,0,0,0,0,0,0,0,-1,1147,435,2.18155,14.8023
-70,589,1.48267,-9.90961,0,0,0,0,0,0,0,-1,1154,435,1.48264,9.9096
-63,589,0.880127,-5.50586,0,0,0,0,0,0,0,-1,1161,435,0.880186,5.50587
-56,589,-2.78052,-7.28082,0,0,0,0,0,0,0,-1,1168,435,-2.78053,7.28082
-49,589,-0.525757,-2.76703,0,0,0,0,0,0,0,-1,1175,435,-0.525771,2.76702
-42,589,-2.7738,-2.87921,0,0,0,0,0,0,0,-1,1182,435,-2.77383,2.87922
-35,589,-2.55225,-3.27551,0,0,0,0,0,0,0,-1,1189,435,-2.55223,3.27552
-28,589,-0.0632324,-3.42938,0,0,0,0,0,0,0,-1,1196,435,-0.063241,3.42938
-21,589,2.66016,-33.937,0,0,0,0,0,0,0,-1,1203,435,2.66012,33.937
-14,589,2.60461,-34.3313,0,0,0,0,0,0,0,-1,1210,435,2.60458,34.3313
-7,589,2.70032,-34.9034,0,0,0,0,0,0,0,-1,1217,435,2.70036,34.9034
0,589,3.84888,-35.7545,0,0,0,0,0,0,0,-1,1224,435,3.84886,35.7545
7,589,3.60632,-35.7646,0.00644284,0.0999426,-0.0124865,0.101581,0.00480406,-1.4403,0.0661777,0.0475552,1231,435,3.60638,35.7646
14,589,4.74609,-38.7914,0.00674453,0.0946188,-0.0122139,0.0962849,0.00507848,-1.43523,0.0625658,0.0470163,1238,435,4.74603,38.7914
21,589,4.47705,-38.0942,0,0,0,0,0,0,0,-1,1245,435,4.47703,38.0942
28,589,4.62231,-37.8779,0.00523742,0.081966,-0.0106314,0.0834118,0.00379159,-1.43563,0.0543881,0.0481808,1252,435,4.6223,37.8779
35,589,4.76245,-37.4408,0.00338,0.074874,-0.00965289,0.0761544,0.00209963,-1.43892,0.0500844,0.0491409,1259,435,4.76243,37.4408
42,589,4.52539,-36.4319,0.000828067,0.0694287,-0.00878861,0.0705367,-0.00027997,-1.44538,0.0471181,0.0483668,1266,435,4.52537,36.4319
49,589,4.94153,-36.5617,0,0,0,0,0,0,0,-1,1273,435,4.94153,36.5617
56,589,5.01672,-36.7299,-0.00416978,0.0626545,-0.00676985,0.0633335,-0.00484872,-1.47084,0.0439279,0.0429122,1280,435,5.01675,36.7299
63,589,4.85852,-36.6355,-0.00672818,0.0587102,-0.00535487,0.0591455,-0.00716348,-1.48968,0.0420222,0.0440041,1287,435,4.8585,36.6355
70,589,4.72656,-36.5523,-0.00914028,0.0564307,-0.00540246,0.0568729,-0.00958242,-1.48914,0.04148,0.0457384,1294,435,4.7265,36.5523
77,589,4.66833,-36.4865,-0.0116457,0.0579511,-0.00580283,0.0584317,-0.0121262,-1.48818,0.0435628,0.0463192,1301,435,4.66837,36.4865
84,589,4.521,-36.4333,0,0,0,0,0,0,0,-1,1308,435,4.52103,36.4333
91,589,4.16479,-35.5765,0,0,0,0,0,0,0,-1,1315,435,4.16485,35.5765
98,589,3.89575,-35.3399,0,0,0,0,0,0,0,-1,1322,435,3.89575,35.3399
105,589,3.45374,-35.8469,0,0,0,0,0,0,0,-1,1329,435,3.45374,35.8469
112,589,5.81677,-35.4344,0,0,0,0,0,0,0,-1,1336,435,5.81681,35.4344
119,589,2.27405,-35.7832,0,0,0,0,0,0,0,-1,1343,435,2.27403,35.7832
126,589,1.47742,-35.9435,0,0,0,0,0,0,0,-1,1350,435,1.47739,35.9435
133,589,0.729492,-35.9209,-0.00687374,0.00845479,-0.0223944,0.0244601,-0.0228791,-0.950271,0.0273364,0.0492499,1357,435,0.729517,35.9209
140,589,-0.12793,-35.6544,-0.00181866,0.00390008,-0.0255652,0.0267653,-0.0246839,-0.84109,0.0297123,0.0484392,1364,435,-0.127915,35.6544
147,589,-0.622559,-35.6374,0,0,0,0,0,0,0,-1,1371,435,-0.622525,35.6374
154,589,-1.16736,-35.6965,0,0,0,0,0,0,0,-1,1378,435,-1.16738,35.6965
161,589,-2.00732,-35.4926,0,0,0,0,0,0,0,-1,1385,435,-2.00734,35.4926
168,589,10.5848,-32.3172,0,0,0,0,0,0,0,-1,1392,435,10.5848,32.3172
175,589,8.66992,-7.65527,0,0,0,0,0,0,0,-1,1399,435,8.66994,7.65528
182,589,3.8136,-2.45389,0,0,0,0,0,0,0,-1,1406,435,3.81363,2.4539
189,589,3.69983,-3.68149,0,0,0,0,0,0,0,-1,1413,435,3.69987,3.68147
196,589,3.31055,-5.31677,0,0,0,0,0,0,0,-1,1420,435,3.31059,5.31678
203,589,2.72559,-8.84338,0,0,0,0,0,0,0,-1,1427,435,2.72558,8.84338
210,589,3.62378,-14.4032,0,0,0,0,0,0,0,-1,1434,435,3.62378,14.4032
217,589,4.65601,-22.3745,0,0,0,0,0,0,0,-1,1441,435,4.65607,22.3745
224,589,6.72961,-33.4159,0,0,0,0,0,0,0,-1,1448,435,6.7296,33.4159
231,589,6.59253,-32.686,0,0,0,0,0,0,0,-1,1455,435,6.59251,32.686
238,589,6.66284,-32.386,0,0,0,0,0,0,0,-1,1462,435,6.66288,32.386
245,589,6.68518,-32.0547,0,0,0,0,0,0,0,-1,1469,435,6.6852,32.0546
252,589,6.67969,-31.6914,0.00257333,0.00226348,-0.000318065,0.00277219,0.00206462,-0.558771,0.00166322,0.0149198,1476,435,6.67966,31.6914
259,589,6.6803,-31.3775,0.00265577,0.0015872,-0.000295388,0.00273199,0.00151098,-0.25252,0.00158028,0.00954801,1483,435,6.68032,31.3775
266,589,6.69238,-31.0175,0.00268256,0.00101741,-0.000269494,0.00272509,0.00097488,-0.156522,0.00159442,0.00947341,1490,435,6.6924,31.0175
273,589,6.72424,-30.6727,0.00269299,0.000721838,-0.000169383,0.00270744,0.000707389,-0.0850997,0.00162144,0.0116793,1497,435,6.72426,30.6727
280,589,6.7395,-30.315,0.00270785,8.85723e-05,-8.59181e-05,0.00271066,8.5757e-05,-0.0327553,0.00177921,0.0127494,1504,435,6.73956,30.315
287,589,6.73438,-29.9528,0.00256855,8.27315e-05,3.84491e-05,0.00256915,8.21368e-05,0.0154624,0.00168605,0.0113035,1511,435,6.73434,29.9528
294,589,6.73047,-29.5474,0.00231136,0.000297231,0.000243802,0.00234045,0.00026814,0.118761,0.00147905,0.00992273,1518,435,6.7305,29.5474
301,589,6.74121,-29.1337,0.00203819,0.00058098,0.000439313,0.00216038,0.000458784,0.271294,0.00131429,0.0102936,1525,435,6.74116,29.1337
308,589,6.73633,-28.7289,0.0018036,0.000831438,0.000623858,0.00210839,0.00052665,0.454448,0.00126707,0.0102622,1532,435,6.73633,28.7289
315,589,6.7345,-28.3255,0.00149027,0.00128894,0.00080951,0.00220535,0.000573863,0.72354,0.00132117,0.0100816,1539,435,6.73452,28.3255
322,589,6.75745,-27.9106,0.00107875,0.00182461,0.0010319,0.0025489,0.000354452,0.958794,0.00159431,0.0113963,1546,435,6.75744,27.9106
329,589,6.73303,-27.4947,0.000654677,0.00235219,0.00129216,0.00304942,-4.25475e-05,1.07599,0.00204727,0.0101144,1553,435,6.73309,27.4947
336,589,6.7168,-27.0896,0.000257849,0.00292282,0.00156548,0.00364611,-0.000465448,1.13798,0.00259982,0.00895387,1560,435,6.71676,27.0896
343,589,6.70801,-26.6899,-8.63788e-05,0.00354268,0.00185557,0.00432347,-0.000867166,1.17251,0.00321064,0.0106504,1567,435,6.70798,26.6899
350,589,6.67932,-26.2516,-0.00037446,0.00450338,0.00229134,0.00541088,-0.00128197,1.19369,0.00410191,0.0162517,1574,435,6.67931,26.2516
357,589,6.65405,-25.7451,-0.000735326,0.00543365,0.00280351,0.00651734,-0.00181902,1.20194,0.00506139,0.0130317,1581,435,6.65404,25.7451
364,589,6.64453,-25.2716,-0.00109287,0.00637558,0.00328182,0.00761275,-0.00233004,1.21029,0.00600448,0.0103404,1588,435,6.64458,25.2716
371,589,6.63098,-24.8091,-0.00140527,0.00753213,0.00379436,0.00892572,-0.00279885,1.21881,0.00707056,0.0112528,1595,435,6.63102,24.8092
378,589,6.60693,-24.3279,-0.00172806,0.00892638,0.00429738,0.0104436,-0.00324531,1.23139,0.00825952,0.0127079,1602,435,6.60693,24.3279
385,589,6.57764,-23.8046,-0.00211298,0.0101053,0.00455717,0.0116178,-0.00362548,1.25034,0.00919508,0.0149097,1609,435,6.57759,23.8046
392,589,6.54492,-23.2014,-0.00233492,0.0113249,0.00495525,0.0129331,-0.00394316,1.25697,0.0101939,0.0207881,1616,435,6.5449,23.2014
399,589,6.50122,-22.5433,-0.00209571,0.013282,0.00587176,0.0152676,-0.00408136,1.2447,0.011777,0.0352542,1623,435,6.50123,22.5433
406,589,6.48584,-22.0554,0,0,0,0,0,0,0,-1,1630,435,6.48582,22.0554
413,589,5.61377,-19.0606,0,0,0,0,0,0,0,-1,1637,435,5.61372,19.0606
420,589,2.79724,-5.79956,0,0,0,0,0,0,0,-1,1644,435,2.7973,5.79955
427,589,5.98242,-20.5213,0,0,0,0,0,0,0,-1,1651,435,5.98239,20.5213
434,589,2.52734,-2.73029,0,0,0,0,0,0,0,-1,1658,435,2.52736,2.73029
441,589,3.17639,-2.02435,0,0,0,0,0,0,0,-1,1665,435,3.17643,2.02435
448,589,0.453735,-3.2868,0,0,0,0,0,0,0,-1,1672,435,0.453701,3.28681
455,589,0.664307,-3.46848,0,0,0,0,0,0,0,-1,1679,435,0.66425,3.46846
462,589,3.46716,-4.41891,0,0,0,0,0,0,0,-1,1686,435,3.4672,4.41891
469,589,0.0238037,-3.81497,0,0,0,0,0,0,0,-1,1693,435,0.0237965,3.81498
476,589,0,0,0,0,0,0,0,0,0,-1,1700,435,0,0
483,589,0,0,0,0,0,0,0,0,0,-1,1707,435,0,0
490,589,0,0,0,0,0,0,0,0,0,-1,1714,435,0,0
497,589,0,0,0,0,0,0,0,0,0,-1,1721,435,0,0
504,589,0,0,0,0,0,0,0,0,0,-1,1728,435,0,0
511,589,0,0,0,0,0,0,0,0,0,-1,1735,435,0,0
518,589,0,0,0,0,0,0,0,0,0,-1,1742,435,0,0
525,589,0,0,0,0,0,0,0,0,0,-1,1749,435,0,0
532,589,0,0,0,0,0,0,0,0,0,-1,1756,435,0,0
539,589,0,0,0,0,0,0,0,0,0,-1,1763,435,0,0
546,589,0,0,0,0,0,0,0,0,0,-1,1770,435,0,0
553,589,0,0,0,0,0,0,0,0,0,-1,1777,435,0,0
560,589,0,0,0,0,0,0,0,0,0,-1,1784,435,0,0
567,589,0,0,0,0,0,0,0,0,0,-1,1791,435,0,0
574,589,0,0,0,0,0,0,0,0,0,-1,1798,435,0,0
581,589,0,0,0,0,0,0,0,0,0,-1,1805,435,0,0
588,589,0,0,0,0,0,0,0,0,0,-1,1812,435,0,0
595,589,0,0,0,0,0,0,0,0,0,-1,1819,435,0,0
602,589,0,0,0,0,0,0,0,0,0,-1,1826,435,0,0
609,589,0,0,0,0,0,0,0,0,0,-1,1833,435,0,0
616,589,0,0,0,0,0,0,0,0,0,-1,1840,435,0,0
623,589,0,0,0,0,0,0,0,0,0,-1,1847,435,0,0
630,589,0,0,0,0,0,0,0,0,0,-1,1854,435,0,0
637,589,0,0,0,0,0,0,0,0,0,-1,1861,435,0,0
644,589,0,0,0,0,0,0,0,0,0,-1,1868,435,0,0
651,589,0,0,0,0,0,0,0,0,0,-1,1875,435,0,0
658,589,0,0,0,0,0,0,0,0,0,-1,1882,435,0,0
665,589,0,0,0,0,0,0,0,0,0,-1,1889,435,0,0
672,589,0,0,0,0,0,0,0,0,0,-1,1896,435,0,0
679,589,0,0,0,0,0,0,0,0,0,-1,1903,435,0,0
686,589,0,0,0,0,0,0,0,0,0,-1,1910,435,0,0
693,589,0,0,0,0,0,0,0,0,0,-1,1917,435,0,0
700,589,0,0,0,0,0,0,0,0,0,-1,1924,435,0,0
707,589,0,0,0,0,0,0,0,0,0,-1,1931,435,0,0
714,589,0,0,0,0,0,0,0,0,0,-1,1938,435,0,0
721,589,0,0,0,0,0,0,0,0,0,-1,1945,435,0,0
728,589,0,0,0,0,0,0,0,0,0,-1,1952,435,0,0
735,589,0,0,0,0,0,0,0,0,0,-1,1959,435,0,0
742,589,0,0,0,0,0,0,0,0,0,-1,1966,435,0,0
749,589,0,0,0,0,0,0,0,0,0,-1,1973,435,0,0
756,589,0,0,0,0,0,0,0,0,0,-1,1980,435,0,0
763,589,0,0,0,0,0,0,0,0,0,-1,1987,435,0,0
770,589,0,0,0,0,0,0,0,0,0,-1,1994,435,0,0
777,589,0,0,0,0,0,0,0,0,0,-1,2001,435,0,0
784,589,0,0,0,0,0,0,0,0,0,-1,2008,435,0,0
791,589,0,0,0,0,0,0,0,0,0,-1,2015,435,0,0
798,589,0,0,0,0,0,0,0,0,0,-1,2022,435,0,0
805,589,0,0,0,0,0,0,0,0,0,-1,2029,435,0,0
812,589,0,0,0,0,0,0,0,0,0,-1,2036,435,0,0
-700,582,0,0,0,0,0,0,0,0,0,-1,524,442,0,0
-693,582,0,0,0,0,0,0,0,0,0,-1,531,442,0,0
-686,582,0,0,0,0,0,0,0,0,0,-1,538,442,0,0
-679,582,0,0,0,0,0,0,0,0,0,-1,545,442,0,0
-672,582,0,0,0,0,0,0,0,0,0,-1,552,442,0,0
-665,582,0,0,0,0,0,0,0,0,0,-1,559,442,0,0
-658,582,0,0,0,0,0,0,0,0,0,-1,566,442,0,0
-651,582,0,0,0,0,0,0,0,0,0,-1,573,442,0,0
-644,582,0,0,0,0,0,0,0,0,0,-1,580,442,0,0
-637,582,0,0,0,0,0,0,0,0,0,-1,587,442,0,0
-630,582,0,0,0,0,0,0,0,0,0,-1,594,442,0,0
-623,582,0,0,0,0,0,0,0,0,0,-1,601,442,0,0
-616,582,0,0,0,0,0,0,0,0,0,-1,608,442,0,0
-609,582,0,0,0,0,0,0,0,0,0,-1,615,442,0,0
-602,582,0,0,0,0,0,0,0,0,0,-1,622,442,0,0
-595,582,0,0,0,0,0,0,0,0,0,-1,629,442,0,0
-588,582,0,0,0,0,0,0,0,0,0,-1,636,442,0,0
-581,582,0,0,0,0,0,0,0,0,0,-1,643,442,0,0
-574,582,0,0,0,0,0,0,0,0,0,-1,650,442,0,0
-567,582,0,0,0,0,0,0,0,0,0,-1,657,442,0,0
-560,582,0,0,0,0,0,0,0,0,0,-1,664,442,0,0
-553,582,0,0,0,0,0,0,0,0,0,-1,671,442,0,0
-546,582,0,0,0,0,0,0,0,0,0,-1,678,442,0,0
-539,582,0,0,0,0,0,0,0,0,0,-1,685,442,0,0
-532,582,0,0,0,0,0,0,0,0,0,-1,692,442,0,0
-525,582,0,0,0,0,0,0,0,0,0,-1,699,442,0,0
-518,582,0,0,0,0,0,0,0,0,0,-1,706,442,0,0
-511,582,0,0,0,0,0,0,0,0,0,-1,713,442,0,0
-504,582,0,0,0,0,0,0,0,0,0,-1,720,442,0,0
-497,582,0,0,0,0,0,0,0,0,0,-1,727,442,0,0
-490,582,0,0,0,0,0,0,0,0,0,-1,734,442,0,0
-483,582,0,0,0,0,0,0,0,0,0,-1,741,442,0,0
-476,582,0,0,0,0,0,0,0,0,0,-1,748,442,0,0
-469,582,0,0,0,0,0,0,0,0,0,-1,755,442,0,0
-462,582,0,0,0,0,0,0,0,0,0,-1,762,442,0,0
-455,582,0,0,0,0,0,0,0,0,0,-1,769,442,0,0
-448,582,0,0,0,0,0,0,0,0,0,-1,776,442,0,0
-441,582,0,0,0,0,0,0,0,0,0,-1,783,442,0,0
-434,582,0,0,0,0,0,0,0,0,0,-1,790,442,0,0
-427,582,0,0,0,0,0,0,0,0,0,-1,797,442,0,0
-420,582,0,0,0,0,0,0,0,0,0,-1,804,442,0,0
-413,582,0,0,0,0,0,0,0,0,0,-1,811,442,0,0
-406,582,0,0,0,0,0,0,0,0,0,-1,818,442,0,0
-399,582,0,0,0,0,0,0,0,0,0,-1,825,442,0,0
-392,582,0,0,0,0,0,0,0,0,0,-1,832,442,0,0
-385,582,0,0,0,0,0,0,0,0,0,-1,839,442,0,0
-378,582,0,0,0,0,0,0,0,0,0,-1,846,442,0,0
-371,582,0,0,0,0,0,0,0,0,0,-1,853,442,0,0
-364,582,0,0,0,0,0,0,0,0,0,-1,860,442,0,0
-357,582,-1.4903,-21.5295,0,0,0,0,0,0,0,-1,867,442,-1.49031,21.5295
-350,582,-0.880859,-19.7966,0,0,0,0,0,0,0,-1,874,442,-0.880885,19.7966
-343,582,-0.208557,-18.0078,0,0,0,0,0,0,0,-1,881,442,-0.208576,18.0078
-336,582,-0.167114,-18.7637,0,0,0,0,0,0,0,-1,888,442,-0.167108,18.7637
-329,582,2.34509,-19.5596,0,0,0,0,0,0,0,-1,895,442,2.34508,19.5596
-322,582,1.7998,-20.2629,0,0,0,0,0,0,0,-1,902,442,1.79982,20.2629
-315,582,2.17188,-20.6339,0,0,0,0,0,0,0,-1,909,442,2.17189,20.6338
-308,582,2.65863,-20.9329,0,0,0,0,0,0,0,-1,916,442,2.65866,20.9329
-301,582,2.77039,-21.5272,-0.00200986,0.017184,-0.00714569,0.0195521,-0.00437796,-1.25078,0.0147128,0.0452406,923,442,2.7704,21.5272
-294,582,2.67053,-22.0885,-0.00338742,0.0148301,-0.00537882,0.0162997,-0.00485699,-1.30409,0.0127965,0.0453007,930,442,2.67053,22.0885
-287,582,2.66534,-22.7262,-0.00451824,0.0126556,-0.00381097,0.0134633,-0.00532593,-1.36195,0.0111819,0.0387646,937,442,2.66535,22.7262
-280,582,2.70343,-23.3271,-0.00519388,0.0105986,-0.00253746,0.0109963,-0.00559158,-1.41533,0.00974497,0.0183796,944,442,2.70341,23.327
-273,582,2.70233,-23.8551,-0.00519358,0.00888976,-0.00175884,0.00910609,-0.00540991,-1.44841,0.0084709,0.0110538,951,442,2.70236,23.8551
-266,582,2.66608,-24.3665,-0.00503679,0.00718004,-0.00116395,0.00728995,-0.0051467,-1.47665,0.00721575,0.0105785,958,442,2.66608,24.3665
-259,582,2.62762,-24.8514,-0.00459314,0.00566444,-0.000723606,0.00571524,-0.00464393,-1.50072,0.00599152,0.00935037,965,442,2.62763,24.8514
-252,582,2.60999,-25.3112,-0.00393027,0.00466237,-0.000497087,0.00469103,-0.00395893,-1.5132,0.00500002,0.00834167,972,442,2.60998,25.3112
-245,582,2.61359,-25.7366,-0.00299162,0.00343733,-0.000390332,0.00346094,-0.00301523,-1.51038,0.00374197,0.0119813,979,442,2.61356,25.7366
-238,582,2.5907,-26.1875,-0.00195835,0.00251963,-0.000337405,0.00254491,-0.00198363,-1.49601,0.00262124,0.0179,986,442,2.59072,26.1875
-231,582,2.56439,-26.6191,-0.00106447,0.00159409,-0.000212636,0.00161099,-0.00108137,-1.49149,0.00156443,0.014247,993,442,2.56442,26.6191
-224,582,2.55365,-27.0457,-0.000307888,0.000961661,-0.000124311,0.000973719,-0.000319946,-1.4741,0.000778041,0.0115142,1000,442,2.55367,27.0457
-217,582,2.51556,-27.4739,0.000351937,0.000180604,-7.28431e-06,0.000352247,0.000180295,-0.0424135,0.000203389,0.01364,1007,442,2.51556,27.4739
-210,582,2.50543,-27.8842,0.00113224,-0.000809688,-0.000204687,0.00115358,-0.000831028,-0.103883,0.00115085,0.013721,1014,442,2.50542,27.8842
-203,582,2.53357,-28.302,0.0017218,-0.00162204,-0.00017399,0.00173083,-0.00163107,-0.0518463,0.00194128,0.0106193,1021,442,2.53355,28.302
-196,582,2.52881,-28.7207,0.00203518,-0.00251741,-2.97083e-05,0.00203537,-0.00251761,-0.00652521,0.00263357,0.0164836,1028,442,2.52879,28.7207
-189,582,2.50562,-29.11,0.00227805,-0.00367898,3.358e-05,0.00227823,-0.00367917,0.00563681,0.00347106,0.0239996,1035,442,2.50562,29.11
-182,582,2.50635,-29.4675,0.00252208,-0.00483485,0.000162292,0.00252566,-0.00483843,0.0220454,0.00432099,0.0162317,1042,442,2.50635,29.4675
-175,582,2.51294,-29.7997,0.00270622,-0.00654469,0.000506403,0.00273385,-0.00657233,0.0545237,0.00552317,0.0137867,1049,442,2.51288,29.7996
-168,582,2.52942,-30.1882,0.00277325,-0.00875965,0.000902611,0.00284346,-0.00882986,0.0776341,0.0070288,0.0113815,1056,442,2.52938,30.1882
-161,582,2.54443,-30.5384,0.00272138,-0.0112733,0.00132309,0.00284537,-0.0113972,0.0934394,0.00870307,0.0120542,1063,442,2.54442,30.5384
-154,582,2.55164,-30.8853,0.00263194,-0.0136905,0.00189974,0.00285013,-0.0139087,0.114352,0.0103541,0.0113429,1070,442,2.55164,30.8853
-147,582,2.57813,-31.2378,0.00250339,-0.0164894,0.00269847,0.00287935,-0.0168654,0.13843,0.0123161,0.0119151,1077,442,2.5781,31.2378
-140,582,2.57483,-31.5559,0.00218526,-0.0197123,0.0037072,0.00279586,-0.0203229,0.163239,0.0145702,0.0134968,1084,442,2.57487,31.5559
-133,582,2.60425,-31.874,0.00171429,-0.0231528,0.00496092,0.00266744,-0.024106,0.18982,0.0170296,0.0157378,1091,442,2.60419,31.874
-126,582,2.63757,-32.1134,0.00142745,-0.0266379,0.00613319,0.00270922,-0.0279196,0.206023,0.0195787,0.0153064,1098,442,2.63763,32.1134
-119,582,2.63123,-32.2861,0.0011553,-0.0299758,0.00713487,0.00271263,-0.0315331,0.214899,0.0219821,0.0200856,1105,442,2.63127,32.2861
-112,582,2.58789,-32.5929,0.000850576,-0.0326471,0.00789901,0.00261978,-0.0344163,0.220342,0.0238654,0.0284606,1112,442,2.5879,32.5929
-105,582,2.56567,-32.9115,0,0,0,0,0,0,0,-1,1119,442,2.56565,32.9115
-98,582,2.61938,-32.8673,0,0,0,0,0,0,0,-1,1126,442,2.61944,32.8673
-91,582,2.16492,-24.1119,0,0,0,0,0,0,0,-1,1133,442,2.16496,24.1119
-84,582,2.10278,-16.7533,0,0,0,0,0,0,0,-1,1140,442,2.10279,16.7533
-77,582,2.30212,-11.4907,0,0,0,0,0,0,0,-1,1147,442,2.30207,11.4907
-70,582,1.49255,-6.36548,0,0,0,0,0,0,0,-1,1154,442,1.49251,6.36549
-63,582,-4.62915,-4.0347,0,0,0,0,0,0,0,-1,1161,442,-4.6292,4.03471
-56,582,-5.81714,-5.24149,0,0,0,0,0,0,0,-1,1168,442,-5.81718,5.24149
-49,582,-3.88672,-10.1064,0,0,0,0,0,0,0,-1,1175,442,-3.88678,10.1064
-42,582,-0.948975,1.13968,0,0,0,0,0,0,0,-1,1182,442,-0.949003,-1.13969
-35,582,-2.58435,-3.86911,0,0,0,0,0,0,0,-1,1189,442,-2.58437,3.86912
-28,582,-0.825317,-3.45941,0,0,0,0,0,0,0,-1,1196,442,-0.825377,3.45942
-21,582,1.91919,-33.6808,0,0,0,0,0,0,0,-1,1203,442,1.91918,33.6808
-14,582,2.02148,-33.8306,0,0,0,0,0,0,0,-1,1210,442,2.02144,33.8306
-7,582,2.14368,-33.9694,0,0,0,0,0,0,0,-1,1217,442,2.1437,33.9694
0,582,6.36243,-41.4839,0,0,0,0,0,0,0,-1,1224,442,6.36242,41.4839
7,582,5.89832,-40.6593,0.00533087,0.121786,-0.0120905,0.123028,0.00408888,-1.46843,0.0806903,0.0462415,1231,442,5.89834,40.6593
14,582,5.22815,-39.942,0.00620691,0.114566,-0.0122027,0.115923,0.00484971,-1.46003,0.0757175,0.0466647,1238,442,5.22818,39.942
21,582,4.88208,-39.2885,0,0,0,0,0,0,0,-1,1245,442,4.88205,39.2885
28,582,5.06836,-38.8626,0.0048312,0.0979462,-0.0113759,0.0993158,0.00346154,-1.45097,0.0650874,0.0484066,1252,442,5.06835,38.8626
35,582,5.19482,-38.3989,0.00261476,0.0892408,-0.0108216,0.0905722,0.00128336,-1.44838,0.0599583,0.0481509,1259,442,5.1948,38.3989
42,582,5.44287,-37.7913,-0.000581526,0.082785,-0.0104768,0.0840815,-0.00187799,-1.44768,0.0566907,0.046658,1266,442,5.44286,37.7913
49,582,5.29919,-37.2526,-0.0037953,0.0793316,-0.00971877,0.0804527,-0.00491645,-1.45594,0.0553468,0.0436433,1273,442,5.29921,37.2526
56,582,5.15283,-37.1379,-0.00681365,0.0755241,-0.00906771,0.0765109,-0.00780044,-1.4624,0.0537963,0.0445619,1280,442,5.15289,37.1379
63,582,5.02148,-37.0356,-0.00985873,0.0718528,-0.00784071,0.0725984,-0.0106043,-1.47599,0.0522933,0.0434209,1287,442,5.02154,37.0356
70,582,4.86401,-37.0375,-0.0127618,0.0698309,-0.00803324,0.070605,-0.0135359,-1.47473,0.0521706,0.0423025,1294,442,4.86396,37.0375
77,582,4.78894,-36.8301,-0.015699,0.0723534,-0.00849974,0.0731663,-0.0165119,-1.47544,0.0551123,0.0444987,1301,442,4.78899,36.8301
84,582,4.60437,-36.3821,0,0,0,0,0,0,0,-1,1308,442,4.60441,36.3821
91,582,4.20361,-36.1204,-0.0219455,0.0614845,-0.00940543,0.0625317,-0.0229927,-1.45992,0.0511062,0.0467153,1315,442,4.20361,36.1204
98,582,3.94507,-35.9374,-0.0217358,0.0557285,-0.0111758,0.0573086,-0.0233159,-1.43034,0.0479078,0.0449079,1322,442,3.94509,35.9374
105,582,3.65698,-35.8073,-0.0197102,0.0492054,-0.0138748,0.0518939,-0.0223987,-1.3794,0.0440052,0.0429723,1329,442,3.65703,35.8073
112,582,3.41309,-35.4982,0,0,0,0,0,0,0,-1,1336,442,3.41304,35.4982
119,582,2.84045,-35.4033,-0.0148443,0.0337358,-0.0198527,0.0408167,-0.0219251,-1.22819,0.0367673,0.0431736,1343,442,2.8404,35.4033
126,582,2.04431,-35.5186,-0.0109159,0.0249999,-0.0237688,0.036832,-0.022748,-1.10891,0.0347174,0.0449074,1350,442,2.04435,35.5186
133,582,1.33459,-35.5573,-0.00534944,0.0173567,-0.0280036,0.0362211,-0.0242139,-0.97798,0.0351209,0.0475767,1357,442,1.33458,35.5573
140,582,0.557495,-35.5895,0.00157644,0.0116815,-0.0322043,0.0392272,-0.0259692,-0.863209,0.0378997,0.0495132,1364,442,0.55745,35.5895
147,582,-0.197998,-35.6075,0,0,0,0,0,0,0,-1,1371,442,-0.197939,35.6075
154,582,-0.152222,-36.596,0,0,0,0,0,0,0,-1,1378,442,-0.152167,36.596
161,582,7.24695,-30.2498,0,0,0,0,0,0,0,-1,1385,442,7.247,30.2498
168,582,7.16553,-31.7727,0,0,0,0,0,0,0,-1,1392,442,7.1655,31.7727
175,582,6.50549,-2.00424,0,0,0,0,0,0,0,-1,1399,442,6.50546,2.00425
182,582,5.18958,-2.18652,0,0,0,0,0,0,0,-1,1406,442,5.1896,2.18652
189,582,6.19751,-0.880951,0,0,0,0,0,0,0,-1,1413,442,6.19754,0.88096
196,582,4.87354,-2.22327,0,0,0,0,0,0,0,-1,1420,442,4.87348,2.22325
203,582,3.11401,-4.48257,0,0,0,0,0,0,0,-1,1427,442,3.11404,4.48259
210,582,2.93115,-11.0731,0,0,0,0,0,0,0,-1,1434,442,2.93113,11.0731
217,582,4.94092,-16.5476,0,0,0,0,0,0,0,-1,1441,442,4.94087,16.5476
224,582,5.21008,-20.9908,0,0,0,0,0,0,0,-1,1448,442,5.21006,20.9908
231,582,5.70032,-25.622,0,0,0,0,0,0,0,-1,1455,442,5.70026,25.6221
238,582,6.44189,-30.7028,0,0,0,0,0,0,0,-1,1462,442,6.44195,30.7028
245,582,7.22937,-32.229,0,0,0,0,0,0,0,-1,1469,442,7.22943,32.229
252,582,7.10388,-31.8156,0.00306996,0.0035392,-0.000419945,0.00378562,0.00282354,-1.04015,0.002272,0.0354535,1476,442,7.10392,31.8156
259,582,7.01636,-31.4496,0.00335414,0.0020075,-0.000522395,0.00353303,0.00182861,-0.329919,0.00204022,0.0239928,1483,442,7.01641,31.4496
266,582,7.03467,-31.0847,0.00351336,0.000749318,-0.000618707,0.00364554,0.000617146,-0.210462,0.00225299,0.0171673,1490,442,7.03471,31.0848
273,582,7.10388,-30.6969,0.00362292,-7.00317e-05,-0.000605563,0.00371969,-0.000166795,-0.158452,0.00253722,0.0147547,1497,442,7.10392,30.6969
280,582,7.11218,-30.3345,0.00370795,-0.00130666,-0.000641006,0.00378859,-0.0013873,-0.125147,0.00309364,0.0131623,1504,442,7.11222,30.3345
287,582,7.12793,-29.9364,0.00357765,-0.00170153,-0.000632695,0.00365242,-0.00177629,-0.117628,0.00319605,0.0112113,1511,442,7.1279,29.9364
294,582,7.13403,-29.5275,0.00329994,-0.00169727,-0.000505442,0.00335055,-0.00174788,-0.0997981,0.00299166,0.00893077,1518,442,7.13408,29.5275
301,582,7.13904,-29.1091,0.0030022,-0.00155037,-0.000364016,0.00303112,-0.00157929,-0.0792871,0.00270546,0.00941268,1525,442,7.13906,29.1091
308,582,7.13977,-28.7108,0.00271804,-0.00145776,-0.000252714,0.00273328,-0.001473,-0.0602256,0.00246456,0.0120509,1532,442,7.13981,28.7108
315,582,7.14355,-28.3365,0.00227843,-0.00107059,-0.000153127,0.00228542,-0.00107757,-0.0455961,0.00198293,0.011989,1539,442,7.14352,28.3365
322,582,7.16248,-27.9218,0.00174546,-0.000522854,3.55479e-05,0.00174602,-0.000523411,0.0156663,0.00137217,0.00927768,1546,442,7.1625,27.9218
329,582,7.15295,-27.5099,0.00124241,8.57909e-05,0.00029582,0.00131368,1.45228e-05,0.236412,0.000870987,0.00933984,1553,442,7.15293,27.5099
336,582,7.14111,-27.0899,0.000802404,0.000741194,0.000584959,0.00135756,0.00018604,0.759262,0.00084984,0.00978249,1560,442,7.14111,27.0899
343,582,7.13464,-26.6496,0.000389943,0.0014644,0.000893434,0.00196968,-0.000115345,1.05609,0.00135321,0.0124109,1567,442,7.13459,26.6496
350,582,7.11804,-26.2263,3.24922e-05,0.00245022,0.0013189,0.00303045,-0.000547739,1.15634,0.00222546,0.0159957,1574,442,7.118,26.2263
357,582,7.10925,-25.7312,-0.000316078,0.0034242,0.00181291,0.00415869,-0.00105056,1.18587,0.003181,0.0132333,1581,442,7.10929,25.7312
364,582,7.09619,-25.2566,-0.000606072,0.00437367,0.00232069,0.00528748,-0.00151989,1.19567,0.00412601,0.0101957,1588,442,7.0962,25.2566
371,582,7.08008,-24.8156,-0.000838119,0.00544688,0.00284929,0.00654629,-0.00193753,1.20255,0.0051334,0.0152848,1595,442,7.08003,24.8156
378,582,7.05066,-24.3515,-0.00107918,0.00665433,0.00333914,0.00789656,-0.00232141,1.21464,0.00618513,0.0161722,1602,442,7.05067,24.3515
385,582,7.02161,-23.8639,-0.00135389,0.00769699,0.0036144,0.00896322,-0.00262012,1.23383,0.00701393,0.0107198,1609,442,7.02166,23.8639
392,582,6.98987,-23.3728,-0.00147572,0.00869329,0.00400268,0.0100798,-0.0028622,1.23734,0.00784982,0.00977883,1616,442,6.98982,23.3728
399,582,6.96228,-22.9063,-0.00124491,0.0102166,0.00479592,0.0119587,-0.00298693,1.22238,0.00913238,0.0186268,1623,442,6.96227,22.9063
406,582,6.95691,-22.2539,-0.0012584,0.0116345,0.00545829,0.0136349,-0.00325882,1.2195,0.0103487,0.0340207,1630,442,6.95697,22.2539
413,582,6.82092,-21.825,0,0,0,0,0,0,0,-1,1637,442,6.82092,21.825
420,582,6.77393,-21.2822,0,0,0,0,0,0,0,-1,1644,442,6.77387,21.2822
427,582,6.72986,-20.7422,0,0,0,0,0,0,0,-1,1651,442,6.72983,20.7422
434,582,6.44971,-20.4107,0,0,0,0,0,0,0,-1,1658,442,6.44971,20.4107
441,582,4.53979,-12.7726,0,0,0,0,0,0,0,-1,1665,442,4.53983,12.7726
448,582,7.57971,-18.6486,0,0,0,0,0,0,0,-1,1672,442,7.57966,18.6486
455,582,5.93567,-16.3171,0,0,0,0,0,0,0,-1,1679,442,5.93569,16.3171
462,582,6.7699,-17.5673,0,0,0,0,0,0,0,-1,1686,442,6.76989,17.5673
469,582,5.90674,-15.9182,0,0,0,0,0,0,0,-1,1693,442,5.90676,15.9182
476,582,1.93579,-8.53891,0,0,0,0,0,0,0,-1,1700,442,1.93579,8.53892
483,582,0,0,0,0,0,0,0,0,0,-1,1707,442,0,0
490,582,0,0,0,0,0,0,0,0,0,-1,1714,442,0,0
497,582,0,0,0,0,0,0,0,0,0,-1,1721,442,0,0
504,582,0,0,0,0,0,0,0,0,0,-1,1728,442,0,0
511,582,0,0,0,0,0,0,0,0,0,-1,1735,442,0,0
518,582,0,0,0,0,0,0,0,0,0,-1,1742,442,0,0
525,582,0,0,0,0,0,0,0,0,0,-1,1749,442,0,0
532,582,0,0,0,0,0,0,0,0,0,-1,1756,442,0,0
539,582,0,0,0,0,0,0,0,0,0,-1,1763,442,0,0
546,582,0,0,0,0,0,0,0,0,0,-1,1770,442,0,0
553,582,0,0,0,0,0,0,0,0,0,-1,1777,442,0,0
560,582,0,0,0,0,0,0,0,0,0,-1,1784,442,0,0
567,582,0,0,0,0,0,0,0,0,0,-1,1791,442,0,0
574,582,0,0,0,0,0,0,0,0,0,-1,1798,442,0,0
581,582,0,0,0,0,0,0,0,0,0,-1,1805,442,0,0
588,582,0,0,0,0,0,0,0,0,0,-1,1812,442,0,0
595,582,0,0,0,0,0,0,0,0,0,-1,1819,442,0,0
602,582,0,0,0,0,0,0,0,0,0,-1,1826,442,0,0
609,582,0,0,0,0,0,0,0,0,0,-1,1833,442,0,0
616,582,0,0,0,0,0,0,0,0,0,-1,1840,442,0,0
623,582,0,0,0,0,0,0,0,0,0,-1,1847,442,0,0
630,582,0,0,0,0,0,0,0,0,0,-1,1854,442,0,0
637,582,0,0,0,0,0,0,0,0,0,-1,1861,442,0,0
644,582,0,0,0,0,0,0,0,0,0,-1,1868,442,0,0
651,582,0,0,0,0,0,0,0,0,0,-1,1875,442,0,0
658,582,0,0,0,0,0,0,0,0,0,-1,1882,442,0,0
665,582,0,0,0,0,0,0,0,0,0,-1,1889,442,0,0
672,582,0,0,0,0,0,0,0,0,0,-1,1896,442,0,0
679,582,0,0,0,0,0,0,0,0,0,-1,1903,442,0,0
686,582,0,0,0,0,0,0,0,0,0,-1,1910,442,0,0
693,582,0,0,0,0,0,0,0,0,0,-1,1917,442,0,0
700,582,0,0,0,0,0,0,0,0,0,-1,1924,442,0,0
707,582,0,0,0,0,0,0,0,0,0,-1,1931,442,0,0
714,582,0,0,0,0,0,0,0,0,0,-1,1938,442,0,0
721,582,0,0,0,0,0,0,0,0,0,-1,1945,442,0,0
728,582,0,0,0,0,0,0,0,0,0,-1,1952,442,0,0
735,582,0,0,0,0,0,0,0,0,0,-1,1959,442,0,0
742,582,0,0,0,0,0,0,0,0,0,-1,1966,442,0,0
749,582,0,0,0,0,0,0,0,0,0,-1,1973,442,0,0
756,582,0,0,0,0,0,0,0,0,0,-1,1980,442,0,0
763,582,0,0,0,0,0,0,0,0,0,-1,1987,442,0,0
770,582,0,0,0,0,0,0,0,0,0,-1,1994,442,0,0
777,582,0,0,0,0,0,0,0,0,0,-1,2001,442,0,0
784,582,0,0,0,0,0,0,0,0,0,-1,2008,442,0,0
791,582,0,0,0,0,0,0,0,0,0,-1,2015,442,0,0
798,582,0,0,0,0,0,0,0,0,0,-1,2022,442,0,0
805,582,0,0,0,0,0,0,0,0,0,-1,2029,442,0,0
812,582,0,0,0,0,0,0,0,0,0,-1,2036,442,0,0
-700,575,0,0,0,0,0,0,0,0,0,-1,524,449,0,0
-693,575,0,0,0,0,0,0,0,0,0,-1,531,449,0,0
-686,575,0,0,0,0,0,0,0,0,0,-1,538,449,0,0
-679,575,0,0,0,0,0,0,0,0,0,-1,545,449,0,0
-672,575,0,0,0,0,0,0,0,0,0,-1,552,449,0,0
-665,575,0,0,0,0,0,0,0,0,0,-1,559,449,0,0
-658,575,0,0,0,0,0,0,0,0,0,-1,566,449,0,0
-651,575,0,0,0,0,0,0,0,0,0,-1,573,449,0,0
-644,575,0,0,0,0,0,0,0,0,0,-1,580,449,0,0
-637,575,0,0,0,0,0,0,0,0,0,-1,587,449,0,0
-630,575,0,0,0,0,0,0,0,0,0,-1,594,449,0,0
-623,575,0,0,0,0,0,0,0,0,0,-1,601,449,0,0
-616,575,0,0,0,0,0,0,0,0,0,-1,608,449,0,0
-609,575,0,0,0,0,0,0,0,0,0,-1,615,449,0,0
-602,575,0,0,0,0,0,0,0,0,0,-1,622,449,0,0
-595,575,0,0,0,0,0,0,0,0,0,-1,629,449,0,0
-588,575,0,0,0,0,0,0,0,0,0,-1,636,449,0,0
-581,575,0,0,0,0,0,0,0,0,0,-1,643,449,0,0
-574,575,0,0,0,0,0,0,0,0,0,-1,650,449,0,0
-567,575,0,0,0,0,0,0,0,0,0,-1,657,449,0,0
-560,575,0,0,0,0,0,0,0,0,0,-1,664,449,0,0
-553,575,0,0,0,0,0,0,0,0,0,-1,671,449,0,0
-546,575,0,0,0,0,0,0,0,0,0,-1,678,449,0,0
-539,575,0,0,0,0,0,0,0,0,0,-1,685,449,0,0
-532,575,0,0,0,0,0,0,0,0,0,-1,692,449,0,0
-525,575,0,0,0,0,0,0,0,0,0,-1,699,449,0,0
-518,575,0,0,0,0,0,0,0,0,0,-1,706,449,0,0
-511,575,0,0,0,0,0,0,0,0,0,-1,713,449,0,0
-504,575,0,0,0,0,0,0,0,0,0,-1,720,449,0,0
-497,575,0,0,0,0,0,0,0,0,0,-1,727,449,0,0
-490,575,0,0,0,0,0,0,0,0,0,-1,734,449,0,0
-483,575,0,0,0,0,0,0,0,0,0,-1,741,449,0,0
-476,575,0,0,0,0,0,0,0,0,0,-1,748,449,0,0
-469,575,0,0,0,0,0,0,0,0,0,-1,755,449,0,0
-462,575,0,0,0,0,0,0,0,0,0,-1,762,449,0,0
-455,575,0,0,0,0,0,0,0,0,0,-1,769,449,0,0
-448,575,0,0,0,0,0,0,0,0,0,-1,776,449,0,0
-441,575,0,0,0,0,0,0,0,0,0,-1,783,449,0,0
-434,575,0,0,0,0,0,0,0,0,0,-1,790,449,0,0
-427,575,0,0,0,0,0,0,0,0,0,-1,797,449,0,0
-420,575,0,0,0,0,0,0,0,0,0,-1,804,449,0,0
-413,575,0,0,0,0,0,0,0,0,0,-1,811,449,0,0
-406,575,0,0,0,0,0,0,0,0,0,-1,818,449,0,0
-399,575,0,0,0,0,0,0,0,0,0,-1,825,449,0,0
-392,575,0,0,0,0,0,0,0,0,0,-1,832,449,0,0
-385,575,0,0,0,0,0,0,0,0,0,-1,839,449,0,0
-378,575,0,0,0,0,0,0,0,0,0,-1,846,449,0,0
-371,575,0.56897,-3.52304,0,0,0,0,0,0,0,-1,853,449,0.568955,3.52306
-364,575,1.49805,-4.67191,0,0,0,0,0,0,0,-1,860,449,1.49803,4.6719
-357,575,3.15521,-8.29892,0,0,0,0,0,0,0,-1,867,449,3.15521,8.29891
-350,575,-0.825928,-18.5347,0,0,0,0,0,0,0,-1,874,449,-0.825948,18.5347
-343,575,0.465393,-16.3569,0,0,0,0,0,0,0,-1,881,449,0.465397,16.3569
-336,575,3.1994,-17.5725,0,0,0,0,0,0,0,-1,888,449,3.19941,17.5725
-329,575,1.9444,-19.9933,0,0,0,0,0,0,0,-1,895,449,1.94441,19.9933
-322,575,1.6814,-20.3396,0,0,0,0,0,0,0,-1,902,449,1.6814,20.3396
-315,575,1.4184,-20.686,0,0,0,0,0,0,0,-1,909,449,1.41839,20.686
-308,575,2.19116,-21.6449,0.000428597,0.0153804,-0.00777315,0.0186893,-0.00288026,-1.16835,0.0135222,0.0474128,916,449,2.19114,21.6449
-301,575,2.41602,-21.9015,-0.000776769,0.0136954,-0.00652824,0.016205,-0.0032864,-1.20379,0.0120491,0.0346837,923,449,2.41601,21.9015
-294,575,2.33759,-22.3602,-0.00171312,0.0118698,-0.00514225,0.0135969,-0.00344027,-1.24676,0.0104028,0.0255748,930,449,2.33759,22.3602
-287,575,2.2876,-22.9177,-0.00251655,0.0101823,-0.00387724,0.0112725,-0.00360677,-1.29669,0.00896252,0.0188591,937,449,2.28762,22.9177
-280,575,2.2851,-23.4155,-0.00300084,0.00852614,-0.00282476,0.00918115,-0.00365584,-1.34294,0.00763685,0.0145792,944,449,2.28512,23.4155
-273,575,2.2749,-23.9164,-0.00308323,0.00710673,-0.00205235,0.00750455,-0.00348105,-1.37933,0.00648279,0.0117186,951,449,2.27491,23.9164
-266,575,2.25037,-24.4113,-0.00306125,0.00555299,-0.00139174,0.00577226,-0.00328053,-1.41453,0.00529221,0.0127715,958,449,2.2504,24.4112
-259,575,2.21411,-24.8704,-0.00279227,0.00407083,-0.000816746,0.00416669,-0.00288813,-1.45396,0.00409534,0.0126079,965,449,2.21409,24.8704
-252,575,2.16211,-25.3025,-0.00234761,0.00292286,-0.000388121,0.00295129,-0.00237604,-1.49768,0.0030817,0.0111045,972,449,2.1621,25.3025
-245,575,2.14886,-25.7358,-0.00161222,0.00154783,-6.0015e-05,0.00154896,-0.00161335,-1.55181,0.00182589,0.0151536,979,449,2.14885,25.7358
-238,575,2.15369,-26.1878,-0.000743544,0.000323948,0.000208793,0.000363333,-0.00078293,1.38435,0.000676413,0.0167139,986,449,2.1537,26.1878
-231,575,2.15186,-26.6092,-5.45113e-06,-0.000861332,0.000523,0.000242376,-0.00110916,0.442516,0.000832083,0.0140258,993,449,2.15183,26.6092
-224,575,2.13739,-27.0378,0.0006222,-0.00184328,0.000838647,0.000880425,-0.00210151,0.298694,0.00176908,0.0128976,1000,449,2.13737,27.0377
-217,575,2.12549,-27.4582,0.00120641,-0.00296254,0.00115303,0.00150406,-0.00326019,0.252629,0.00281224,0.0109502,1007,449,2.12549,27.4582
-210,575,2.13123,-27.8742,0.00189046,-0.00420924,0.00109807,0.00208212,-0.00440089,0.172796,0.00382194,0.00928518,1014,449,2.1312,27.8742
-203,575,2.14508,-28.2812,0.00251291,-0.00519213,0.00105046,0.00265356,-0.00533278,0.133099,0.0046966,0.0125101,1021,449,2.14506,28.2812
-196,575,2.13293,-28.683,0.00292282,-0.00619428,0.00105523,0.00304336,-0.00631482,0.113738,0.0055119,0.016587,1028,449,2.13294,28.683
-189,575,2.12415,-29.0623,0.00326676,-0.00741263,0.000967314,0.00335367,-0.00749954,0.0896058,0.00641669,0.0176677,1035,449,2.1242,29.0623
-182,575,2.11609,-29.427,0.00357612,-0.00854144,0.000935454,0.00364791,-0.00861323,0.0765934,0.00726989,0.015739,1042,449,2.11605,29.427
-175,575,2.13086,-29.7935,0.00377566,-0.0103585,0.00117703,0.00387301,-0.0104558,0.0825179,0.00855881,0.0122932,1049,449,2.13089,29.7935
-168,575,2.13672,-30.153,0.00386868,-0.0128176,0.00144768,0.00399335,-0.0129422,0.0859035,0.0102227,0.010198,1056,449,2.13674,30.153
-161,575,2.15637,-30.5043,0.00376575,-0.01563,0.00177861,0.0039275,-0.0157917,0.0906934,0.0120522,0.0148178,1063,449,2.15633,30.5043
-154,575,2.16602,-30.8394,0.00355943,-0.0184194,0.00234633,0.00380712,-0.0186671,0.105175,0.0138888,0.0185046,1070,449,2.166,30.8393
-147,575,2.20605,-31.1385,0.00330553,-0.0217517,0.00326235,0.00372331,-0.0221695,0.127368,0.0161643,0.0177203,1077,449,2.20601,31.1386
-140,575,2.17261,-31.3918,0.00271129,-0.0259207,0.00458261,0.00342686,-0.0266363,0.154898,0.0190031,0.023493,1084,449,2.17262,31.3919
-133,575,2.23669,-31.5785,0.00187367,-0.0305356,0.00632618,0.00306475,-0.0317267,0.186099,0.0222432,0.0311609,1091,449,2.23668,31.5785
-126,575,2.23254,-31.5563,0.0012979,-0.0355444,0.00808207,0.00299288,-0.0372394,0.206725,0.0258816,0.0366037,1098,449,2.23259,31.5563
-119,575,2.21289,-31.5791,0.000695345,-0.0405491,0.00970726,0.00286582,-0.0427196,0.219974,0.0294815,0.0383897,1105,449,2.2129,31.5791
-112,575,2.17017,-31.778,1.84169e-05,-0.044821,0.0110584,0.00259735,-0.0473999,0.229115,0.0325003,0.0458456,1112,449,2.17019,31.778
-105,575,2.09631,-32.0191,0,0,0,0,0,0,0,-1,1119,449,2.09635,32.0191
-98,575,1.521,-25.6961,0,0,0,0,0,0,0,-1,1126,449,1.52105,25.6961
-91,575,1.60803,-16.4247,0,0,0,0,0,0,0,-1,1133,449,1.60802,16.4247
-84,575,1.16553,-11.9056,0,0,0,0,0,0,0,-1,1140,449,1.16558,11.9056
-77,575,0.205078,-11.2584,0,0,0,0,0,0,0,-1,1147,449,0.205117,11.2584
-70,575,-4.2467,-1.78738,0,0,0,0,0,0,0,-1,1154,449,-4.24674,1.78739
-63,575,-4.52209,-3.48798,0,0,0,0,0,0,0,-1,1161,449,-4.5221,3.48796
-56,575,-5.5968,-5.4928,0,0,0,0,0,0,0,-1,1168,449,-5.59683,5.49281
-49,575,-5.96863,-7.17612,0,0,0,0,0,0,0,-1,1175,449,-5.96868,7.1761
-42,575,-0.830322,0.773499,0,0,0,0,0,0,0,-1,1182,449,-0.83038,-0.77351
-35,575,-0.62085,0.205139,0,0,0,0,0,0,0,-1,1189,449,-0.620855,-0.205126
-28,575,0.49292,-3.87988,0,0,0,0,0,0,0,-1,1196,449,0.492941,3.87989
-21,575,1.34216,-33.2103,0,0,0,0,0,0,0,-1,1203,449,1.34215,33.2103
-14,575,1.41846,-33.3388,0,0,0,0,0,0,0,-1,1210,449,1.4184,33.3388
-7,575,7.79236,-42.9088,0,0,0,0,0,0,0,-1,1217,449,7.79237,42.9088
0,575,7.17041,-42.2236,0,0,0,0,0,0,0,-1,1224,449,7.17042,42.2236
7,575,6.57825,-41.4729,0.00375634,0.14201,-0.010313,0.142775,0.00299127,-1.49675,0.0942021,0.046391,1231,449,6.57828,41.4729
14,575,5.89917,-40.7979,0.00550548,0.132816,-0.0110867,0.133774,0.00454722,-1.48458,0.0877061,0.0461642,1238,449,5.89913,40.798
21,575,5.11829,-40.193,0.00557509,0.12265,-0.0116808,0.123804,0.00442105,-1.47232,0.0811023,0.043322,1245,449,5.11829,40.193
28,575,5.51025,-39.8925,0.00444843,0.112091,-0.0116529,0.113339,0.00320139,-1.46419,0.0745148,0.0464956,1252,449,5.51025,39.8925
35,575,5.6178,-39.3418,0.00183204,0.102102,-0.011885,0.103491,0.000442553,-1.45441,0.0688472,0.0444151,1259,449,5.61777,39.3418
42,575,5.92407,-38.1675,0,0,0,0,0,0,0,-1,1266,449,5.92404,38.1675
49,575,5.73743,-38.0098,-0.00613656,0.0917078,-0.0123446,0.0932413,-0.00767,-1.44721,0.0648688,0.0451466,1273,449,5.73741,38.0098
56,575,5.32959,-37.6143,-0.00980572,0.0882801,-0.012171,0.0897678,-0.0112934,-1.44917,0.063943,0.0460149,1280,449,5.32954,37.6143
63,575,5.31287,-37.2565,-0.0133637,0.0855564,-0.0113499,0.086842,-0.0146493,-1.45801,0.0633449,0.0437945,1287,449,5.31284,37.2565
70,575,5.01013,-37.341,-0.0168202,0.084351,-0.0117748,0.0857033,-0.0181725,-1.45645,0.0640581,0.042675,1294,449,5.01014,37.341
77,575,4.99475,-37.6123,-0.0202149,0.0883204,-0.0123481,0.0897075,-0.021602,-1.45893,0.0681565,0.0475439,1301,449,4.99474,37.6123
84,575,4.77441,-37.6794,0,0,0,0,0,0,0,-1,1308,449,4.77447,37.6794
91,575,4.18945,-36.6692,-0.0269308,0.0787624,-0.0127236,0.0802725,-0.0284409,-1.45266,0.0651002,0.0482815,1315,449,4.1895,36.6692
98,575,4.30115,-36.3183,-0.025964,0.0728715,-0.0145929,0.0749811,-0.0280736,-1.42723,0.0615189,0.0432314,1322,449,4.30113,36.3183
105,575,3.85669,-35.725,-0.0227538,0.0656872,-0.0176547,0.0690812,-0.0261478,-1.38087,0.0568126,0.0433188,1329,449,3.85673,35.725
112,575,3.59827,-35.3613,0,0,0,0,0,0,0,-1,1336,449,3.59825,35.3613
119,575,2.81567,-33.9704,-0.0153913,0.0482252,-0.0245109,0.0565735,-0.0237396,-1.24252,0.047643,0.0441806,1343,449,2.81568,33.9704
126,575,2.5863,-33.698,-0.0098401,0.0381938,-0.0290779,0.0518908,-0.0235371,-1.13058,0.0445621,0.0456884,1350,449,2.58633,33.698
133,575,2.48401,-33.1187,-0.00238545,0.0290124,-0.0342712,0.0510093,-0.0243823,-1.00017,0.0444231,0.0481026,1357,449,2.484,33.1187
140,575,2.33887,-32.5524,0.00673408,0.0218006,-0.0395848,0.0545626,-0.0260279,-0.879427,0.0474912,0.0486095,1364,449,2.33889,32.5524
147,575,2.20593,-32.0175,0,0,0,0,0,0,0,-1,1371,449,2.20588,32.0175
154,575,7.22656,-30.2465,0,0,0,0,0,0,0,-1,1378,449,7.22661,30.2465
161,575,8.12451,-30.6601,0,0,0,0,0,0,0,-1,1385,449,8.12449,30.6601
168,575,7.5509,-35.3165,0,0,0,0,0,0,0,-1,1392,449,7.5509,35.3165
175,575,4.32617,1.93634,0,0,0,0,0,0,0,-1,1399,449,4.32612,-1.93634
182,575,6.3147,-2.88345,0,0,0,0,0,0,0,-1,1406,449,6.31466,2.88346
189,575,6.10449,-1.30817,0,0,0,0,0,0,0,-1,1413,449,6.10455,1.30817
196,575,5.79895,0.818359,0,0,0,0,0,0,0,-1,1420,449,5.79895,-0.81837
203,575,3.29724,-1.46378,0,0,0,0,0,0,0,-1,1427,449,3.29722,1.46377
210,575,2.32739,-7.74503,0,0,0,0,0,0,0,-1,1434,449,2.32741,7.74502
217,575,3.33618,-11.5521,0,0,0,0,0,0,0,-1,1441,449,3.3362,11.5521
224,575,5.51709,-16.3903,0,0,0,0,0,0,0,-1,1448,449,5.51713,16.3903
231,575,5.48572,-20.4595,0,0,0,0,0,0,0,-1,1455,449,5.48571,20.4595
238,575,5.33484,-22.3575,0,0,0,0,0,0,0,-1,1462,449,5.33478,22.3575
245,575,5.59741,-23.513,0,0,0,0,0,0,0,-1,1469,449,5.5974,23.513
252,575,7.52856,-32.105,0,0,0,0,0,0,0,-1,1476,449,7.52853,32.105
259,575,7.40002,-31.6736,0,0,0,0,0,0,0,-1,1483,449,7.40004,31.6736
266,575,7.39905,-31.2617,0,0,0,0,0,0,0,-1,1490,449,7.399,31.2617
273,575,7.44861,-30.7566,0,0,0,0,0,0,0,-1,1497,449,7.44859,30.7566
280,575,7.46021,-30.3378,0,0,0,0,0,0,0,-1,1504,449,7.46023,30.3378
287,575,7.45325,-29.963,0.00493377,-0.00319155,-0.00114259,0.00509138,-0.00334917,-0.13708,0.00490764,0.0291979,1511,449,7.45321,29.963
294,575,7.53186,-29.5562,0.00455799,-0.00342403,-0.00111736,0.00471145,-0.00357749,-0.13649,0.00480053,0.012657,1518,449,7.53181,29.5562
301,575,7.5531,-29.1274,0.0041548,-0.00345428,-0.00105267,0.00429774,-0.00359723,-0.134967,0.00456414,0.00980157,1525,449,7.55305,29.1274
308,575,7.56848,-28.7167,0.00372905,-0.00358404,-0.00105159,0.00387726,-0.00373225,-0.140017,0.00439362,0.011058,1532,449,7.56853,28.7167
315,575,7.55737,-28.3295,0.00309027,-0.00332132,-0.00105993,0.00326095,-0.003492,-0.159658,0.00389958,0.0111001,1539,449,7.55738,28.3295
322,575,7.573,-27.9313,0.00239043,-0.00279454,-0.000918865,0.00254846,-0.00295256,-0.17031,0.00317887,0.0095297,1546,449,7.57298,27.9313
329,575,7.56519,-27.5246,0.00177243,-0.0021231,-0.000674329,0.00188585,-0.00223653,-0.166646,0.00238293,0.0101254,1553,449,7.56518,27.5246
336,575,7.55701,-27.0885,0.00124924,-0.00139077,-0.000391468,0.00130606,-0.00144759,-0.144152,0.00159052,0.0119038,1560,449,7.55706,27.0885
343,575,7.56506,-26.6111,0.000741768,-0.000586702,-9.67898e-05,0.000748783,-0.000593717,-0.0723488,0.000776815,0.0123552,1567,449,7.5651,26.6112
350,575,7.55115,-26.1674,0.000337574,0.000418008,0.000323216,0.000703499,5.20828e-05,0.847294,0.000452638,0.0116682,1574,449,7.55112,26.1674
357,575,7.54736,-25.7126,-3.49238e-05,0.00145026,0.000791788,0.00179319,-0.000377861,1.16207,0.0013393,0.010478,1581,449,7.54732,25.7126
364,575,7.53284,-25.2595,-0.000293367,0.00242303,0.00131711,0.00295679,-0.00082712,1.18578,0.00229708,0.0100013,1588,449,7.53283,25.2595
371,575,7.50684,-24.8038,-0.000473985,0.00343816,0.00185022,0.00417458,-0.00121041,1.192,0.00326225,0.0196739,1595,449,7.50681,24.8038
378,575,7.49023,-24.3536,-0.00065172,0.00451255,0.00232867,0.0054075,-0.00154667,1.20388,0.0042162,0.0179098,1602,449,7.49024,24.3536
385,575,7.46716,-23.8676,-0.00083537,0.00548546,0.00262855,0.0064357,-0.00178561,1.22391,0.00499326,0.0107087,1609,449,7.4671,23.8676
392,575,7.44617,-23.4109,-0.000872202,0.00633364,0.00301133,0.00742637,-0.00196493,1.2227,0.00571952,0.00972241,1616,449,7.44621,23.4109
399,575,7.42993,-22.9534,-0.000626471,0.00754915,0.00371351,0.00898405,-0.00206138,1.20207,0.00678174,0.0106594,1623,449,7.4299,22.9534
406,575,7.39063,-22.4044,-0.000617344,0.00867372,0.00428987,0.0103515,-0.0022951,1.19799,0.0077797,0.0120806,1630,449,7.39062,22.4044
413,575,7.36438,-21.8548,-0.000827121,0.00986893,0.00404091,0.0112239,-0.0021821,1.24726,0.00830608,0.0152416,1637,449,7.36435,21.8548
420,575,7.32043,-21.3369,-0.00043336,0.0105065,0.00388327,0.0117448,-0.00167162,1.26212,0.00844242,0.01505,1644,449,7.32047,21.3369
427,575,7.26099,-20.8013,0.00103471,0.0117599,0.00438961,0.0133274,-0.000532789,1.22782,0.00906772,0.0178056,1651,449,7.26103,20.8013
434,575,7.15417,-20.3724,0.00231491,0.0131541,0.00453169,0.0147991,0.000669939,1.22259,0.00965051,0.0299254,1658,449,7.15415,20.3724
441,575,7.25952,-19.9057,0,0,0,0,0,0,0,-1,1665,449,7.25947,19.9057
448,575,7.81348,-18.7162,0,0,0,0,0,0,0,-1,1672,449,7.81351,18.7162
455,575,7.89478,-17.8444,0,0,0,0,0,0,0,-1,1679,449,7.89477,17.8443
462,575,6.39746,-17.8187,0,0,0,0,0,0,0,-1,1686,449,6.39743,17.8187
469,575,6.69861,-17.7476,0,0,0,0,0,0,0,-1,1693,449,6.69865,17.7476
476,575,7.14331,-16.8213,0,0,0,0,0,0,0,-1,1700,449,7.14328,16.8213
483,575,6.16272,-18.33,0,0,0,0,0,0,0,-1,1707,449,6.16276,18.33
490,575,5.97229,-17.9191,0,0,0,0,0,0,0,-1,1714,449,5.97233,17.9191
497,575,0,0,0,0,0,0,0,0,0,-1,1721,449,0,0
504,575,0,0,0,0,0,0,0,0,0,-1,1728,449,0,0
511,575,0,0,0,0,0,0,0,0,0,-1,1735,449,0,0
518,575,0,0,0,0,0,0,0,0,0,-1,1742,449,0,0
525,575,0,0,0,0,0,0,0,0,0,-1,1749,449,0,0
532,575,0,0,0,0,0,0,0,0,0,-1,1756,449,0,0
539,575,0,0,0,0,0,0,0,0,0,-1,1763,449,0,0
546,575,0,0,0,0,0,0,0,0,0,-1,1770,449,0,0
553,575,0,0,0,0,0,0,0,0,0,-1,1777,449,0,0
560,575,0,0,0,0,0,0,0,0,0,-1,1784,449,0,0
567,575,0,0,0,0,0,0,0,0,0,-1,1791,449,0,0
574,575,0,0,0,0,0,0,0,0,0,-1,1798,449,0,0
581,575,0,0,0,0,0,0,0,0,0,-1,1805,449,0,0
588,575,0,0,0,0,0,0,0,0,0,-1,1812,449,0,0
595,575,0,0,0,0,0,0,0,0,0,-1,1819,449,0,0
602,575,0,0,0,0,0,0,0,0,0,-1,1826,449,0,0
609,575,0,0,0,0,0,0,0,0,0,-1,1833,449,0,0
616,575,0,0,0,0,0,0,0,0,0,-1,1840,449,0,0
623,575,0,0,0,0,0,0,0,0,0,-1,1847,449,0,0
630,575,0,0,0,0,0,0,0,0,0,-1,1854,449,0,0
637,575,0,0,0,0,0,0,0,0,0,-1,1861,449,0,0
644,575,0,0,0,0,0,0,0,0,0,-1,1868,449,0,0
651,575,0,0,0,0,0,0,0,0,0,-1,1875,449,0,0
658,575,0,0,0,0,0,0,0,0,0,-1,1882,449,0,0
665,575,0,0,0,0,0,0,0,0,0,-1,1889,449,0,0
672,575,0,0,0,0,0,0,0,0,0,-1,1896,449,0,0
679,575,0,0,0,0,0,0,0,0,0,-1,1903,449,0,0
686,575,0,0,0,0,0,0,0,0,0,-1,1910,449,0,0
693,575,0,0,0,0,0,0,0,0,0,-1,1917,449,0,0
700,575,0,0,0,0,0,0,0,0,0,-1,1924,449,0,0
707,575,0,0,0,0,0,0,0,0,0,-1,1931,449,0,0
714,575,0,0,0,0,0,0,0,0,0,-1,1938,449,0,0
721,575,0,0,0,0,0,0,0,0,0,-1,1945,449,0,0
728,575,0,0,0,0,0,0,0,0,0,-1,1952,449,0,0
735,575,0,0,0,0,0,0,0,0,0,-1,1959,449,0,0
742,575,0,0,0,0,0,0,0,0,0,-1,1966,449,0,0
749,575,0,0,0,0,0,0,0,0,0,-1,1973,449,0,0
756,575,0,0,0,0,0,0,0,0,0,-1,1980,449,0,0
763,575,0,0,0,0,0,0,0,0,0,-1,1987,449,0,0
770,575,0,0,0,0,0,0,0,0,0,-1,1994,449,0,0
777,575,0,0,0,0,0,0,0,0,0,-1,2001,449,0,0
784,575,0,0,0,0,0,0,0,0,0,-1,2008,449,0,0
791,575,0,0,0,0,0,0,0,0,0,-1,2015,449,0,0
798,575,0,0,0,0,0,0,0,0,0,-1,2022,449,0,0
805,575,0,0,0,0,0,0,0,0,0,-1,2029,449,0,0
812,575,0,0,0,0,0,0,0,0,0,-1,2036,449,0,0
-700,568,0,0,0,0,0,0,0,0,0,-1,524,456,0,0
-693,568,0,0,0,0,0,0,0,0,0,-1,531,456,0,0
-686,568,0,0,0,0,0,0,0,0,0,-1,538,456,0,0
-679,568,0,0,0,0,0,0,0,0,0,-1,545,456,0,0
-672,568,0,0,0,0,0,0,0,0,0,-1,552,456,0,0
-665,568,0,0,0,0,0,0,0,0,0,-1,559,456,0,0
-658,568,0,0,0,0,0,0,0,0,0,-1,566,456,0,0
-651,568,0,0,0,0,0,0,0,0,0,-1,573,456,0,0
-644,568,0,0,0,0,0,0,0,0,0,-1,580,456,0,0
-637,568,0,0,0,0,0,0,0,0,0,-1,587,456,0,0
-630,568,0,0,0,0,0,0,0,0,0,-1,594,456,0,0
-623,568,0,0,0,0,0,0,0,0,0,-1,601,456,0,0
-616,568,0,0,0,0,0,0,0,0,0,-1,608,456,0,0
-609,568,0,0,0,0,0,0,0,0,0,-1,615,456,0,0
-602,568,0,0,0,0,0,0,0,0,0,-1,622,456,0,0
-595,568,0,0,0,0,0,0,0,0,0,-1,629,456,0,0
-588,568,0,0,0,0,0,0,0,0,0,-1,636,456,0,0
-581,568,0,0,0,0,0,0,0,0,0,-1,643,456,0,0
-574,568,0,0,0,0,0,0,0,0,0,-1,650,456,0,0
-567,568,0,0,0,0,0,0,0,0,0,-1,657,456,0,0
-560,568,0,0,0,0,0,0,0,0,0,-1,664,456,0,0
-553,568,0,0,0,0,0,0,0,0,0,-1,671,456,0,0
-546,568,0,0,0,0,0,0,0,0,0,-1,678,456,0,0
-539,568,0,0,0,0,0,0,0,0,0,-1,685,456,0,0
-532,568,0,0,0,0,0,0,0,0,0,-1,692,456,0,0
-525,568,0,0,0,0,0,0,0,0,0,-1,699,456,0,0
-518,568,0,0,0,0,0,0,0,0,0,-1,706,456,0,0
-511,568,0,0,0,0,0,0,0,0,0,-1,713,456,0,0
-504,568,0,0,0,0,0,0,0,0,0,-1,720,456,0,0
-497,568,0,0,0,0,0,0,0,0,0,-1,727,456,0,0
-490,568,0,0,0,0,0,0,0,0,0,-1,734,456,0,0
-483,568,0,0,0,0,0,0,0,0,0,-1,741,456,0,0
-476,568,0,0,0,0,0,0,0,0,0,-1,748,456,0,0
-469,568,0,0,0,0,0,0,0,0,0,-1,755,456,0,0
-462,568,0,0,0,0,0,0,0,0,0,-1,762,456,0,0
-455,568,0,0,0,0,0,0,0,0,0,-1,769,456,0,0
-448,568,0,0,0,0,0,0,0,0,0,-1,776,456,0,0
-441,568,0,0,0,0,0,0,0,0,0,-1,783,456,0,0
-434,568,0,0,0,0,0,0,0,0,0,-1,790,456,0,0
-427,568,0,0,0,0,0,0,0,0,0,-1,797,456,0,0
-420,568,0,0,0,0,0,0,0,0,0,-1,804,456,0,0
-413,568,0,0,0,0,0,0,0,0,0,-1,811,456,0,0
-406,568,0,0,0,0,0,0,0,0,0,-1,818,456,0,0
-399,568,0,0,0,0,0,0,0,0,0,-1,825,456,0,0
-392,568,0,0,0,0,0,0,0,0,0,-1,832,456,0,0
-385,568,0,0,0,0,0,0,0,0,0,-1,839,456,0,0
-378,568,0.321777,-7.29929,0,0,0,0,0,0,0,-1,846,456,0.321806,7.29927
-371,568,1.09595,-7.46707,0,0,0,0,0,0,0,-1,853,456,1.09597,7.46707
-364,568,1.87787,-7.61115,0,0,0,0,0,0,0,-1,860,456,1.87784,7.61116
-357,568,2.14166,-7.67645,0,0,0,0,0,0,0,-1,867,456,2.14167,7.67646
-350,568,2.7467,-11.2507,0,0,0,0,0,0,0,-1,874,456,2.7467,11.2507
-343,568,2.16516,-11.3762,0,0,0,0,0,0,0,-1,881,456,2.16514,11.3762
-336,568,1.31116,-19.4061,0,0,0,0,0,0,0,-1,888,456,1.31114,19.4061
-329,568,1.66888,-19.9031,0,0,0,0,0,0,0,-1,895,456,1.6689,19.9031
-322,568,1.72198,-20.3039,0.00307193,0.0138516,-0.00945381,0.0193441,-0.00242056,-1.04448,0.013774,0.0437498,902,456,1.72201,20.3039
-315,568,1.78931,-20.6814,0.00180118,0.0129698,-0.00770972,0.0169052,-0.00213419,-1.09883,0.0120447,0.039023,909,456,1.78932,20.6814
-308,568,1.95709,-21.3922,0.000618147,0.0119536,-0.00651674,0.0149225,-0.00235073,-1.14331,0.0108174,0.0314281,916,456,1.9571,21.3922
-301,568,1.94531,-21.9659,-0.000166565,0.0106489,-0.00555022,0.0129903,-0.00250793,-1.1716,0.00960591,0.0186698,923,456,1.94529,21.9659
-294,568,1.89935,-22.4508,-0.000767514,0.00917557,-0.004446,0.0108736,-0.00246554,-1.20597,0.00819548,0.013312,930,456,1.89936,22.4508
-287,568,1.86603,-22.9715,-0.00129408,0.00782601,-0.00342237,0.00896742,-0.0024355,-1.24888,0.00693418,0.0110254,937,456,1.86602,22.9715
-280,568,1.84845,-23.4726,-0.00159141,0.00644771,-0.00256329,0.00719547,-0.00233917,-1.28695,0.0057379,0.0110857,944,456,1.84842,23.4726
-273,568,1.83014,-23.9498,-0.00165614,0.00524948,-0.00185237,0.00571498,-0.00212164,-1.32459,0.00468034,0.0123871,951,456,1.83016,23.9498
-266,568,1.80231,-24.4179,-0.00164367,0.00383134,-0.00118991,0.00407877,-0.0018911,-1.36578,0.003523,0.0120707,958,456,1.80228,24.4179
-259,568,1.77924,-24.8697,-0.00141622,0.00238383,-0.000561054,0.00246494,-0.00149733,-1.42723,0.00231024,0.0127578,965,456,1.77924,24.8697
-252,568,1.73639,-25.2978,-0.00106411,0.00108422,-7.69784e-06,0.00108425,-0.00106414,-1.56721,0.00124039,0.0126977,972,456,1.73638,25.2978
-245,568,1.71631,-25.7077,-0.000426577,-0.000429125,0.000477904,5.00546e-05,-0.000905756,0.784065,0.000621195,0.014371,979,456,1.71629,25.7077
-238,568,1.73334,-26.144,0.000368611,-0.00195914,0.000912551,0.000683706,-0.00227424,0.332473,0.00178817,0.0131912,986,456,1.73332,26.144
-231,568,1.71851,-26.5991,0.00102661,-0.00342456,0.00138913,0.00142456,-0.00382251,0.278998,0.00313307,0.0123616,993,456,1.71851,26.5991
-224,568,1.69769,-27.0336,0.00158382,-0.00478692,0.00190673,0.00211089,-0.00531398,0.26969,0.00441772,0.0137678,1000,456,1.69769,27.0336
-217,568,1.71521,-27.4433,0.00213462,-0.0063006,0.00241181,0.00277551,-0.00694149,0.259729,0.00577943,0.0116287,1007,456,1.71522,27.4433
-210,568,1.71838,-27.8401,0.00277046,-0.00784494,0.00246366,0.00331436,-0.00838885,0.217286,0.00696536,0.0114088,1014,456,1.71837,27.8401
-203,568,1.7226,-28.257,0.00344067,-0.00897276,0.00231185,0.00385724,-0.00938933,0.178278,0.00786708,0.0105803,1021,456,1.72261,28.257
-196,568,1.74902,-28.6225,0.0039496,-0.0100721,0.00215723,0.00427399,-0.0103965,0.149252,0.00871242,0.0142137,1028,456,1.74904,28.6225
-189,568,1.74622,-29.0011,0.00439943,-0.0113312,0.00187442,0.0046197,-0.0115514,0.116976,0.00961806,0.0148498,1035,456,1.74626,29.0011
-182,568,1.76233,-29.4234,0.00477495,-0.0124063,0.00162097,0.00492654,-0.0125579,0.0932485,0.0104102,0.0156868,1042,456,1.76235,29.4234
-175,568,1.77026,-29.7671,0.0049877,-0.0142824,0.00168613,0.00513412,-0.0144289,0.0866225,0.0117119,0.0155494,1049,456,1.77027,29.7671
-168,568,1.77466,-30.0099,0.00510994,-0.0169848,0.00174124,0.00524632,-0.0171212,0.0781649,0.0135069,0.0225444,1056,456,1.77461,30.0099
-161,568,1.7699,-30.3174,0.00494822,-0.0200936,0.00187752,0.0050882,-0.0202336,0.0744207,0.0154667,0.0362592,1063,456,1.76993,30.3174
-154,568,1.9823,-30.8548,0.00458768,-0.0233035,0.00236301,0.00478646,-0.0235023,0.0839253,0.0174834,0.0423622,1070,456,1.98225,30.8548
-147,568,2.05627,-31.0675,0.00417663,-0.0272594,0.00338473,0.00453694,-0.0276197,0.106051,0.0200969,0.0450197,1077,456,2.05623,31.0675
-140,568,1.92029,-31.0887,0.00322709,-0.0327079,0.00510342,0.00393781,-0.0334187,0.138374,0.023701,0.0434104,1084,456,1.92023,31.0887
-133,568,2.00378,-31.3889,0.00186535,-0.0389559,0.00753356,0.00321129,-0.0403019,0.176794,0.0279998,0.0475585,1091,456,2.00383,31.3889
-126,568,1.771,-30.8235,0.000828335,-0.0461328,0.0101666,0.00293481,-0.0482393,0.204305,0.0331811,0.0470567,1098,456,1.771,30.8236
-119,568,1.71387,-30.8739,-0.000255834,-0.05353,0.0127405,0.00263427,-0.0564201,0.223069,0.0385215,0.0479422,1105,456,1.71388,30.8739
-112,568,1.86572,-30.7266,0,0,0,0,0,0,0,-1,1112,456,1.86571,30.7266
-105,568,2.02454,-25.038,0,0,0,0,0,0,0,-1,1119,456,2.02459,25.038
-98,568,1.58618,-14.7874,0,0,0,0,0,0,0,-1,1126,456,1.58617,14.7874
-91,568,1.11621,-11.1853,0,0,0,0,0,0,0,-1,1133,456,1.11626,11.1853
-84,568,0.461792,-9.7959,0,0,0,0,0,0,0,-1,1140,456,0.461793,9.7959
-77,568,-1.13806,-8.57822,0,0,0,0,0,0,0,-1,1147,456,-1.13807,8.57821
-70,568,-4.09766,-1.42911,0,0,0,0,0,0,0,-1,1154,456,-4.09767,1.4291
-63,568,-5.92273,-3.70752,0,0,0,0,0,0,0,-1,1161,456,-5.92272,3.70751
-56,568,-5.24158,-6.01385,0,0,0,0,0,0,0,-1,1168,456,-5.24161,6.01386
-49,568,-5.24365,-8.33557,0,0,0,0,0,0,0,-1,1175,456,-5.24371,8.33557
-42,568,-0.664795,0.521973,0,0,0,0,0,0,0,-1,1182,456,-0.664829,-0.521984
-35,568,-0.153076,-1.67731,0,0,0,0,0,0,0,-1,1189,456,-0.153068,1.67731
-28,568,1.25439,-4.48798,0,0,0,0,0,0,0,-1,1196,456,1.2544,4.48797
-21,568,0.625122,-33.0291,0,0,0,0,0,0,0,-1,1203,456,0.625172,33.0292
-14,568,0.791016,-33.0554,0,0,0,0,0,0,0,-1,1210,456,0.790958,33.0554
-7,568,0.839722,-33.1601,0,0,0,0,0,0,0,-1,1217,456,0.839691,33.1601
0,568,7.89722,-43.0392,0,0,0,0,0,0,0,-1,1224,456,7.8972,43.0392
7,568,7.04504,-42.5426,0.00193879,0.158354,-0.00690609,0.158659,0.00163446,-1.52676,0.105232,0.045251,1231,456,7.04508,42.5426
14,568,6.82715,-41.8583,0.00497215,0.147005,-0.00869085,0.147535,0.00444235,-1.50991,0.0969098,0.0434054,1238,456,6.82712,41.8583
21,568,5.37048,-38.0444,0.00553411,0.134401,-0.0104729,0.135247,0.00468855,-1.49023,0.0886429,0.0389081,1245,456,5.37053,38.0444
28,568,5.349,-39.0474,0,0,0,0,0,0,0,-1,1252,456,5.34899,39.0474
35,568,5.55481,-38.9113,0.00136635,0.111542,-0.0130111,0.113058,-0.000149328,-1.45483,0.0754215,0.0444243,1259,456,5.55482,38.9113
42,568,5.78809,-38.7253,-0.00346985,0.104534,-0.0148551,0.10654,-0.00547579,-1.43657,0.0729206,0.0440031,1266,456,5.78804,38.7254
49,568,5.84875,-38.2263,-0.00845946,0.10198,-0.0158533,0.104211,-0.0106901,-1.43101,0.0732976,0.046747,1273,456,5.84877,38.2263
56,568,5.63647,-38.0799,-0.0129035,0.0997786,-0.0164896,0.102142,-0.015267,-1.42843,0.0737126,0.0461839,1280,456,5.63653,38.0799
63,568,5.78821,-37.5606,-0.0170105,0.0991004,-0.0164069,0.101374,-0.0192843,-1.43308,0.0748437,0.0459871,1287,456,5.78819,37.5606
70,568,5.50903,-37.8053,-0.0211269,0.0996139,-0.0172195,0.102022,-0.0235347,-1.43187,0.0770666,0.0460057,1294,456,5.50906,37.8053
77,568,5.2561,-38.1218,-0.025041,0.10564,-0.0180148,0.108078,-0.0274789,-1.43629,0.0827469,0.0483747,1301,456,5.25615,38.1218
84,568,4.7627,-38.3022,-0.0288549,0.103018,-0.0171461,0.105211,-0.0310478,-1.44359,0.0824618,0.0471511,1308,456,4.76268,38.3022
91,568,4.00037,-38.5869,-0.032082,0.0996893,-0.0174029,0.101949,-0.0343416,-1.44168,0.0818509,0.0407593,1315,456,4.00036,38.5869
98,568,3.29309,-38.8496,-0.0300849,0.0942062,-0.0191837,0.0970997,-0.0329785,-1.42109,0.0780829,0.0432794,1322,456,3.29311,38.8496
105,568,4.30627,-35.5776,-0.0253233,0.0865519,-0.0224672,0.0908953,-0.0296666,-1.37983,0.0725369,0.046568,1329,456,4.30629,35.5776
112,568,3.79932,-34.6888,0,0,0,0,0,0,0,-1,1336,456,3.79929,34.6888
119,568,3.48938,-33.9713,-0.0147734,0.0670981,-0.0299385,0.0768777,-0.0245531,-1.25507,0.0611033,0.0438404,1343,456,3.48932,33.9713
126,568,3.06226,-33.3402,-0.00730633,0.0555877,-0.0350391,0.071222,-0.0229406,-1.15111,0.056697,0.0490979,1350,456,3.06228,33.3402
133,568,2.69275,-32.4925,0,0,0,0,0,0,0,-1,1357,456,2.69279,32.4925
140,568,2.7749,-32.5523,0,0,0,0,0,0,0,-1,1364,456,2.77489,32.5523
147,568,7.30383,-29.5723,0.0262823,0.0289409,-0.0533971,0.0810252,-0.025802,-0.797843,0.0643651,0.0498652,1371,456,7.30382,29.5723
154,568,7.85583,-30.0557,0.0389342,0.0284716,-0.0576959,0.0916355,-0.0242297,-0.740187,0.0705673,0.0467925,1378,456,7.85579,30.0557
161,568,8.42847,-30.5151,0,0,0,0,0,0,0,-1,1385,456,8.42841,30.5151
168,568,11.2393,-28.6589,0,0,0,0,0,0,0,-1,1392,456,11.2393,28.6589
175,568,10.5151,0.747498,0,0,0,0,0,0,0,-1,1399,456,10.5152,-0.747501
182,568,6.35095,-3.63361,0,0,0,0,0,0,0,-1,1406,456,6.35093,3.63359
189,568,6.17493,-1.70911,0,0,0,0,0,0,0,-1,1413,456,6.17497,1.70911
196,568,6.04724,0.200836,0,0,0,0,0,0,0,-1,1420,456,6.04724,-0.200835
203,568,5.9281,2.08649,0,0,0,0,0,0,0,-1,1427,456,5.92812,-2.08648
210,568,1.46216,-2.50446,0,0,0,0,0,0,0,-1,1434,456,1.46219,2.50446
217,568,2.62366,-7.86703,0,0,0,0,0,0,0,-1,1441,456,2.62365,7.86704
224,568,3.43494,-12.1555,0,0,0,0,0,0,0,-1,1448,456,3.43492,12.1555
231,568,4.38245,-9.3205,0,0,0,0,0,0,0,-1,1455,456,4.38244,9.32048
238,568,5.88879,-20.7448,0,0,0,0,0,0,0,-1,1462,456,5.88876,20.7449
245,568,3.34387,-10.6774,0,0,0,0,0,0,0,-1,1469,456,3.34389,10.6774
252,568,3.56946,-9.28928,0,0,0,0,0,0,0,-1,1476,456,3.56948,9.28928
259,568,3.38843,-8.73068,0,0,0,0,0,0,0,-1,1483,456,3.38842,8.73068
266,568,3.104,-9.16876,0,0,0,0,0,0,0,-1,1490,456,3.10397,9.16876
273,568,3.77869,-13.1147,0,0,0,0,0,0,0,-1,1497,456,3.77869,13.1147
280,568,4.40002,-14.9322,0,0,0,0,0,0,0,-1,1504,456,4.4,14.9322
287,568,7.86755,-30.1215,0,0,0,0,0,0,0,-1,1511,456,7.86752,30.1215
294,568,7.94714,-29.4264,0.00593857,-0.00541173,-0.00172026,0.00619356,-0.00566673,-0.147159,0.0068498,0.0424879,1518,456,7.94715,29.4264
301,568,7.93774,-29.0901,0.0054119,-0.00549791,-0.00172173,0.00567716,-0.00576317,-0.152867,0.00660514,0.0209467,1525,456,7.93772,29.0901
308,568,7.974,-28.6953,0.00480006,-0.00578512,-0.00184912,0.00511378,-0.00609884,-0.168061,0.00648193,0.0144855,1532,456,7.97401,28.6953
315,568,7.96997,-28.3086,0.00390452,-0.00558534,-0.00198744,0.00430393,-0.00598475,-0.198327,0.00596654,0.00907461,1539,456,7.97001,28.3086
322,568,7.97668,-27.9127,0.00301132,-0.00502656,-0.00189755,0.00343677,-0.005452,-0.220561,0.00517571,0.0100591,1546,456,7.97664,27.9127
329,568,7.99341,-27.4919,0.00226638,-0.00425811,-0.00167041,0.00266918,-0.0046609,-0.236618,0.00428378,0.0108699,1553,456,7.9934,27.4919
336,568,8.00171,-27.0509,0.00164654,-0.00343622,-0.00139989,0.00200659,-0.00379627,-0.251743,0.00340298,0.0118292,1560,456,8.00165,27.0509
343,568,8.02075,-26.5918,0.00103794,-0.00256595,-0.0011274,0.00136156,-0.00288957,-0.279535,0.00250669,0.012135,1567,456,8.02069,26.5918
350,568,8.00134,-26.1703,0.000582856,-0.00155662,-0.000714138,0.000799326,-0.00177309,-0.294318,0.00152024,0.0104617,1574,456,8.00135,26.1703
357,568,7.98779,-25.717,0.000175906,-0.000467497,-0.000261053,0.0002685,-0.000560091,-0.340849,0.000488161,0.00920047,1581,456,7.98784,25.717
364,568,7.99243,-25.2558,-7.15022e-05,0.000528449,0.000286351,0.000643181,-0.000186234,1.18971,0.000502504,0.0111025,1588,456,7.99246,25.2558
371,568,7.96313,-24.7774,-0.000208997,0.00152175,0.00084023,0.00186256,-0.000549798,1.18547,0.0014599,0.0203999,1595,456,7.9631,24.7774
378,568,7.93713,-24.318,-0.000332939,0.0025365,0.00132938,0.00305772,-0.000854154,1.19714,0.00237496,0.0186314,1602,456,7.93708,24.318
385,568,7.91931,-23.8598,-0.000452964,0.00352579,0.00168295,0.00414216,-0.00106934,1.21972,0.00317843,0.00929512,1609,456,7.91932,23.8598
392,568,7.90649,-23.4013,-0.000452041,0.00431839,0.0020829,0.00509983,-0.00123348,1.21188,0.00387702,0.0109805,1616,456,7.90655,23.4013
399,568,7.86792,-22.9706,-0.000239516,0.00533082,0.00272094,0.00643932,-0.00134802,1.18393,0.00480566,0.0181292,1623,456,7.86792,22.9706
406,568,7.85876,-22.4674,-0.00024827,0.00628551,0.00325097,0.00762746,-0.00159021,1.17932,0.00568961,0.0156344,1630,456,7.85879,22.4674
413,568,7.84253,-21.9091,-0.000446682,0.00732549,0.0031561,0.00844567,-0.00156686,1.22974,0.00621888,0.0127565,1637,456,7.8425,21.9091
420,568,7.81873,-21.3727,-0.00014247,0.0078918,0.00314231,0.00897481,-0.00122548,1.23889,0.00643074,0.0110716,1644,456,7.81877,21.3727
427,568,7.78479,-20.8416,0.000998176,0.00891958,0.00364248,0.0103398,-0.000422094,1.19901,0.00703815,0.0126529,1651,456,7.78482,20.8416
434,568,7.79138,-20.3212,0.00192582,0.010022,0.00386312,0.0115695,0.000378308,1.18979,0.00759003,0.0194693,1658,456,7.79144,20.3212
441,568,7.80347,-19.8526,0.00287937,0.00784111,0.00313702,0.00935969,0.00136079,1.11996,0.00583929,0.0292051,1665,456,7.8035,19.8526
448,568,7.98059,-18.9919,0.00408416,0.0067071,0.00264559,0.00834845,0.00244282,1.01551,0.00495626,0.0411263,1672,456,7.98063,18.9919
455,568,8.00354,-18.1519,0,0,0,0,0,0,0,-1,1679,456,8.00351,18.1519
462,568,7.30994,-17.9621,0.00728032,0.000817112,0.000771238,0.00737107,0.000726356,0.117136,0.00469071,0.0489659,1686,456,7.30991,17.9621
469,568,7.31726,-17.7538,0.00889195,-0.00465358,-0.000735401,0.00893176,-0.00469339,-0.0540792,0.00799234,0.0431306,1693,456,7.31722,17.7538
476,568,7.59619,-16.9032,0.0104568,-0.012912,-0.00284779,0.0107988,-0.013254,-0.119533,0.013911,0.0496082,1700,456,7.59617,16.9032
483,568,7.71936,-16.0368,0,0,0,0,0,0,0,-1,1707,456,7.71931,16.0368
490,568,7.57776,-15.8477,0.0114794,-0.0408733,-0.0101011,0.0133607,-0.0427547,-0.18414,0.0338474,0.0457916,1714,456,7.57774,15.8478
497,568,7.37231,-14.514,0,0,0,0,0,0,0,-1,1721,456,7.3723,14.514
504,568,0,0,0,0,0,0,0,0,0,-1,1728,456,0,0
511,568,0,0,0,0,0,0,0,0,0,-1,1735,456,0,0
518,568,0,0,0,0,0,0,0,0,0,-1,1742,456,0,0
525,568,0,0,0,0,0,0,0,0,0,-1,1749,456,0,0
532,568,0,0,0,0,0,0,0,0,0,-1,1756,456,0,0
539,568,0,0,0,0,0,0,0,0,0,-1,1763,456,0,0
546,568,0,0,0,0,0,0,0,0,0,-1,1770,456,0,0
553,568,0,0,0,0,0,0,0,0,0,-1,1777,456,0,0
560,568,0,0,0,0,0,0,0,0,0,-1,1784,456,0,0
567,568,0,0,0,0,0,0,0,0,0,-1,1791,456,0,0
574,568,0,0,0,0,0,0,0,0,0,-1,1798,456,0,0
581,568,0,0,0,0,0,0,0,0,0,-1,1805,456,0,0
588,568,0,0,0,0,0,0,0,0,0,-1,1812,456,0,0
595,568,0,0,0,0,0,0,0,0,0,-1,1819,456,0,0
602,568,0,0,0,0,0,0,0,0,0,-1,1826,456,0,0
609,568,0,0,0,0,0,0,0,0,0,-1,1833,456,0,0
616,568,0,0,0,0,0,0,0,0,0,-1,1840,456,0,0
623,568,0,0,0,0,0,0,0,0,0,-1,1847,456,0,0
630,568,0,0,0,0,0,0,0,0,0,-1,1854,456,0,0
637,568,0,0,0,0,0,0,0,0,0,-1,1861,456,0,0
644,568,0,0,0,0,0,0,0,0,0,-1,1868,456,0,0
651,568,0,0,0,0,0,0,0,0,0,-1,1875,456,0,0
658,568,0,0,0,0,0,0,0,0,0,-1,1882,456,0,0
665,568,0,0,0,0,0,0,0,0,0,-1,1889,456,0,0
672,568,0,0,0,0,0,0,0,0,0,-1,1896,456,0,0
679,568,0,0,0,0,0,0,0,0,0,-1,1903,456,0,0
686,568,0,0,0,0,0,0,0,0,0,-1,1910,456,0,0
693,568,0,0,0,0,0,0,0,0,0,-1,1917,456,0,0
700,568,0,0,0,0,0,0,0,0,0,-1,1924,456,0,0
707,568,0,0,0,0,0,0,0,0,0,-1,1931,456,0,0
714,568,0,0,0,0,0,0,0,0,0,-1,1938,456,0,0
721,568,0,0,0,0,0,0,0,0,0,-1,1945,456,0,0
728,568,0,0,0,0,0,0,0,0,0,-1,1952,456,0,0
735,568,0,0,0,0,0,0,0,0,0,-1,1959,456,0,0
742,568,0,0,0,0,0,0,0,0,0,-1,1966,456,0,0
749,568,0,0,0,0,0,0,0,0,0,-1,1973,456,0,0
756,568,0,0,0,0,0,0,0,0,0,-1,1980,456,0,0
763,568,0,0,0,0,0,0,0,0,0,-1,1987,456,0,0
770,568,0,0,0,0,0,0,0,0,0,-1,1994,456,0,0
777,568,0,0,0,0,0,0,0,0,0,-1,2001,456,0,0
784,568,0,0,0,0,0,0,0,0,0,-1,2008,456,0,0
791,568,0,0,0,0,0,0,0,0,0,-1,2015,456,0,0
798,568,0,0,0,0,0,0,0,0,0,-1,2022,456,0,0
805,568,0,0,0,0,0,0,0,0,0,-1,2029,456,0,0
812,568,0,0,0,0,0,0,0,0,0,-1,2036,456,0,0
-700,561,0,0,0,0,0,0,0,0,0,-1,524,463,0,0
-693,561,0,0,0,0,0,0,0,0,0,-1,531,463,0,0
-686,561,0,0,0,0,0,0,0,0,0,-1,538,463,0,0
-679,561,0,0,0,0,0,0,0,0,0,-1,545,463,0,0
-672,561,0,0,0,0,0,0,0,0,0,-1,552,463,0,0
-665,561,0,0,0,0,0,0,0,0,0,-1,559,463,0,0
-658,561,0,0,0,0,0,0,0,0,0,-1,566,463,0,0
-651,561,0,0,0,0,0,0,0,0,0,-1,573,463,0,0
-644,561,0,0,0,0,0,0,0,0,0,-1,580,463,0,0
-637,561,0,0,0,0,0,0,0,0,0,-1,587,463,0,0
-630,561,0,0,0,0,0,0,0,0,0,-1,594,463,0,0
-623,561,0,0,0,0,0,0,0,0,0,-1,601,463,0,0
-616,561,0,0,0,0,0,0,0,0,0,-1,608,463,0,0
-609,561,0,0,0,0,0,0,0,0,0,-1,615,463,0,0
-602,561,0,0,0,0,0,0,0,0,0,-1,622,463,0,0
-595,561,0,0,0,0,0,0,0,0,0,-1,629,463,0,0
-588,561,0,0,0,0,0,0,0,0,0,-1,636,463,0,0
-581,561,0,0,0,0,0,0,0,0,0,-1,643,463,0,0
-574,561,0,0,0,0,0,0,0,0,0,-1,650,463,0,0
-567,561,0,0,0,0,0,0,0,0,0,-1,657,463,0,0
-560,561,0,0,0,0,0,0,0,0,0,-1,664,463,0,0
-553,561,0,0,0,0,0,0,0,0,0,-1,671,463,0,0
-546,561,0,0,0,0,0,0,0,0,0,-1,678,463,0,0
-539,561,0,0,0,0,0,0,0,0,0,-1,685,463,0,0
-532,561,0,0,0,0,0,0,0,0,0,-1,692,463,0,0
-525,561,0,0,0,0,0,0,0,0,0,-1,699,463,0,0
-518,561,0,0,0,0,0,0,0,0,0,-1,706,463,0,0
-511,561,0,0,0,0,0,0,0,0,0,-1,713,463,0,0
-504,561,0,0,0,0,0,0,0,0,0,-1,720,463,0,0
-497,561,0,0,0,0,0,0,0,0,0,-1,727,463,0,0
-490,561,0,0,0,0,0,0,0,0,0,-1,734,463,0,0
-483,561,0,0,0,0,0,0,0,0,0,-1,741,463,0,0
-476,561,0,0,0,0,0,0,0,0,0,-1,748,463,0,0
-469,561,0,0,0,0,0,0,0,0,0,-1,755,463,0,0
-462,561,0,0,0,0,0,0,0,0,0,-1,762,463,0,0
-455,561,0,0,0,0,0,0,0,0,0,-1,769,463,0,0
-448,561,0,0,0,0,0,0,0,0,0,-1,776,463,0,0
-441,561,0,0,0,0,0,0,0,0,0,-1,783,463,0,0
-434,561,0,0,0,0,0,0,0,0,0,-1,790,463,0,0
-427,561,0,0,0,0,0,0,0,0,0,-1,797,463,0,0
-420,561,0,0,0,0,0,0,0,0,0,-1,804,463,0,0
-413,561,0,0,0,0,0,0,0,0,0,-1,811,463,0,0
-406,561,0,0,0,0,0,0,0,0,0,-1,818,463,0,0
-399,561,0,0,0,0,0,0,0,0,0,-1,825,463,0,0
-392,561,4.92407,-2.54578,0,0,0,0,0,0,0,-1,832,463,4.92408,2.54576
-385,561,5.55634,-1.02338,0,0,0,0,0,0,0,-1,839,463,5.55634,1.02338
-378,561,0.160522,-4.51785,0,0,0,0,0,0,0,-1,846,463,0.160542,4.51785
-371,561,1.06299,-7.56818,0,0,0,0,0,0,0,-1,853,463,1.06297,7.56817
-364,561,1.45264,-7.57684,0,0,0,0,0,0,0,-1,860,463,1.45264,7.57684
-357,561,0.948242,-12.2803,0,0,0,0,0,0,0,-1,867,463,0.948262,12.2803
-350,561,1.33124,-11.9406,0,0,0,0,0,0,0,-1,874,463,1.33127,11.9406
-343,561,1.13214,-14.1837,0,0,0,0,0,0,0,-1,881,463,1.13217,14.1837
-336,561,1.85004,-19.1705,0,0,0,0,0,0,0,-1,888,463,1.85006,19.1705
-329,561,1.43073,-20.0955,0.00250467,0.0126142,-0.00868532,0.0176086,-0.00248972,-1.04893,0.0126509,0.0426687,895,463,1.43072,20.0955
-322,561,1.36743,-20.4142,0.0020923,0.0109459,-0.00758555,0.0153019,-0.00226368,-1.04953,0.0110335,0.035141,902,463,1.36743,20.4142
-315,561,1.52618,-20.7419,0.00133951,0.0100644,-0.00625277,0.0133262,-0.00192221,-1.08998,0.00958928,0.0230099,909,463,1.52618,20.7418
-308,561,1.53607,-21.3546,0.000571787,0.00924963,-0.00530031,0.0117605,-0.00193908,-1.12839,0.00856021,0.0193809,916,463,1.53607,21.3545
-301,561,1.47821,-21.9935,9.13154e-05,0.00813949,-0.00450974,0.0101595,-0.00192869,-1.14967,0.00749903,0.0139179,923,463,1.47823,21.9935
-294,561,1.42627,-22.492,-0.00024263,0.00686905,-0.00359732,0.00837134,-0.00174492,-1.1752,0.00624434,0.0112502,930,463,1.42626,22.492
-287,561,1.40521,-22.9649,-0.000526866,0.00571757,-0.00274652,0.00675367,-0.00156297,-1.21006,0.00510384,0.00932835,937,463,1.40521,22.9649
-280,561,1.38007,-23.4298,-0.000645882,0.00448767,-0.00203054,0.00519373,-0.00135194,-1.23615,0.00399022,0.0120197,944,463,1.38009,23.4298
-273,561,1.3476,-23.8871,-0.000673152,0.00340777,-0.00136573,0.00382265,-0.00108803,-1.27588,0.00297812,0.0150688,951,463,1.34759,23.8871
-266,561,1.33984,-24.3539,-0.000621689,0.00205475,-0.000700209,0.00222687,-0.000793809,-1.32976,0.00180823,0.0100103,958,463,1.33983,24.3539
-259,561,1.32867,-24.8243,-0.000368459,0.000596745,-3.40879e-05,0.000597947,-0.000369662,-1.53554,0.000563808,0.0108137,965,463,1.32865,24.8244
-252,561,1.31586,-25.2764,-4.3336e-05,-0.000897999,0.000618642,0.000281217,-0.00122255,0.48315,0.000923163,0.0149094,972,463,1.31586,25.2764
-245,561,1.2923,-25.7007,0.000543028,-0.00253627,0.00124183,0.000981421,-0.00297467,0.339365,0.00237872,0.0163061,979,463,1.2923,25.7007
-238,561,1.30017,-26.132,0.00132843,-0.00433844,0.00181374,0.00185921,-0.00486923,0.284699,0.00401215,0.0128955,986,463,1.30016,26.132
-231,561,1.28668,-26.5873,0.00198284,-0.00606482,0.00242712,0.00265817,-0.00674015,0.27138,0.00559412,0.0119585,993,463,1.28667,26.5873
-224,561,1.27869,-27.0253,0.00253737,-0.00782089,0.0031347,0.00341214,-0.00869566,0.272138,0.00720888,0.0122059,1000,463,1.27872,27.0253
-217,561,1.29779,-27.43,0.00313485,-0.00975511,0.00381826,0.004181,-0.0108013,0.267421,0.00892706,0.0121417,1007,463,1.29777,27.43
-210,561,1.29736,-27.8219,0.00380755,-0.0116353,0.00394193,0.00475557,-0.0125833,0.236014,0.0103451,0.012819,1014,463,1.29734,27.8219
-203,561,1.30481,-28.2198,0.00458801,-0.0129307,0.00365848,0.00532132,-0.013664,0.197821,0.0113084,0.0141389,1021,463,1.30482,28.2199
-196,561,1.29126,-28.5774,0.00525844,-0.0141781,0.00330959,0.00580653,-0.0147262,0.164117,0.0122217,0.0153002,1028,463,1.29127,28.5774
-189,561,1.32092,-28.9329,0.00584915,-0.0155322,0.00277935,0.00620453,-0.0158876,0.127174,0.0131569,0.0181755,1035,463,1.32098,28.9329
-182,561,1.38196,-29.3126,0.00629883,-0.0165798,0.00223214,0.00651457,-0.0167955,0.0963535,0.0138876,0.0210625,1042,463,1.382,29.3126
-175,561,1.26013,-29.6355,0.00650881,-0.0184973,0.00203955,0.00667407,-0.0186626,0.0808499,0.0151641,0.0350516,1049,463,1.26016,29.6355
-168,561,1.30164,-29.826,0,0,0,0,0,0,0,-1,1056,463,1.30161,29.826
-161,561,1.63367,-30.2491,0.00631663,-0.0248144,0.00159031,0.00639766,-0.0248954,0.0509079,0.0190902,0.0487856,1063,463,1.6337,30.2491
-154,561,1.82336,-30.4533,0.00576663,-0.028385,0.00185168,0.00586673,-0.0284851,0.0540082,0.0212178,0.0463623,1070,463,1.82335,30.4533
-147,561,1.98779,-30.703,0,0,0,0,0,0,0,-1,1077,463,1.9878,30.703
-140,561,1.67871,-30.7562,0,0,0,0,0,0,0,-1,1084,463,1.67876,30.7562
-133,561,1.88086,-31.1732,0,0,0,0,0,0,0,-1,1091,463,1.88085,31.1733
-126,561,1.32275,-30.1583,0,0,0,0,0,0,0,-1,1098,463,1.32281,30.1583
-119,561,1.49414,-30.3442,0,0,0,0,0,0,0,-1,1105,463,1.49412,30.3442
-112,561,1.24365,-29.1982,0,0,0,0,0,0,0,-1,1112,463,1.2437,29.1981
-105,561,0.530518,-13.5379,0,0,0,0,0,0,0,-1,1119,463,0.530477,13.5379
-98,561,1.5387,-7.54352,0,0,0,0,0,0,0,-1,1126,463,1.53871,7.54351
-91,561,1.29553,-6.57968,0,0,0,0,0,0,0,-1,1133,463,1.29549,6.5797
-84,561,1.23364,-5.84555,0,0,0,0,0,0,0,-1,1140,463,1.23363,5.84556
-77,561,-2.36023,1.00204,0,0,0,0,0,0,0,-1,1147,463,-2.3602,-1.00205
-70,561,-3.90015,-1.41541,0,0,0,0,0,0,0,-1,1154,463,-3.90009,1.4154
-63,561,-6.95691,-4.02756,0,0,0,0,0,0,0,-1,1161,463,-6.95696,4.02756
-56,561,-5.37988,-6.66855,0,0,0,0,0,0,0,-1,1168,463,-5.37988,6.66854
-49,561,-5.7439,-9.11029,0,0,0,0,0,0,0,-1,1175,463,-5.74387,9.1103
-42,561,-1.72644,-5.63065,0,0,0,0,0,0,0,-1,1182,463,-1.72648,5.63064
-35,561,-1.65674,-4.87994,0,0,0,0,0,0,0,-1,1189,463,-1.6567,4.87993
-28,561,-1.91418,-3.86896,0,0,0,0,0,0,0,-1,1196,463,-1.91414,3.86895
-21,561,-0.0712891,-32.9036,0,0,0,0,0,0,0,-1,1203,463,-0.0713127,32.9036
-14,561,0.133179,-32.9074,0,0,0,0,0,0,0,-1,1210,463,0.133234,32.9074
-7,561,0.408813,-33.2238,0,0,0,0,0,0,0,-1,1217,463,0.408871,33.2238
0,561,7.47693,-44.6675,0,0,0,0,0,0,0,-1,1224,463,7.47692,44.6675
7,561,7.74304,-43.806,0,0,0,0,0,0,0,-1,1231,463,7.74306,43.806
14,561,4.98633,-39.1341,0,0,0,0,0,0,0,-1,1238,463,4.98629,39.1341
21,561,5.25537,-38.9493,0.00647718,0.137952,-0.00854952,0.138505,0.00592355,-1.50613,0.090427,0.0439551,1245,463,5.25539,38.9493
28,561,5.61694,-38.9763,0.00541841,0.124603,-0.0113425,0.125673,0.00434857,-1.47675,0.0823706,0.0463018,1252,463,5.61691,38.9763
35,561,5.96301,-39.1759,0.00178119,0.114356,-0.0146117,0.116222,-8.44337e-05,-1.4438,0.0775094,0.0443286,1259,463,5.96301,39.1759
42,561,5.95935,-39.4869,-0.00409396,0.10842,-0.0182698,0.111312,-0.00698623,-1.41379,0.076643,0.0431448,1266,463,5.9594,39.4869
49,561,5.90112,-38.4618,0,0,0,0,0,0,0,-1,1273,463,5.90112,38.4618
56,561,5.78418,-38.4357,0,0,0,0,0,0,0,-1,1280,463,5.78418,38.4357
63,561,6.17871,-37.9714,-0.0203044,0.110887,-0.0239223,0.115113,-0.0245304,-1.39594,0.0860917,0.0449918,1287,463,6.17872,37.9714
70,561,6.02759,-38.5403,-0.0252416,0.114561,-0.0254124,0.119037,-0.0297176,-1.39645,0.0908977,0.048398,1294,463,6.02755,38.5403
77,561,5.55823,-38.6988,-0.0297824,0.123445,-0.0267102,0.127967,-0.0343049,-1.40307,0.0987531,0.0482847,1301,463,5.55827,38.6988
84,561,5.07544,-38.8997,-0.0339396,0.124835,-0.0251175,0.128713,-0.0378183,-1.41758,0.100808,0.0470282,1308,463,5.0754,38.8997
91,561,4.60632,-39.1851,-0.0369796,0.125214,-0.0244294,0.128813,-0.0405792,-1.4245,0.102126,0.0434665,1315,463,4.60632,39.1851
98,561,4.07666,-39.4722,-0.0336402,0.121259,-0.0257666,0.125432,-0.0378139,-1.41021,0.0986717,0.0469043,1322,463,4.07662,39.4722
105,561,3.60986,-39.7766,0,0,0,0,0,0,0,-1,1329,463,3.60989,39.7766
112,561,4.40015,-34.7477,0,0,0,0,0,0,0,-1,1336,463,4.40014,34.7477
119,561,4.09241,-34.0506,0,0,0,0,0,0,0,-1,1343,463,4.09242,34.0506
126,561,3.32874,-41.5553,0,0,0,0,0,0,0,-1,1350,463,3.32873,41.5553
133,561,3.2793,-41.5321,0,0,0,0,0,0,0,-1,1357,463,3.27924,41.5321
140,561,7.45325,-29.2892,0,0,0,0,0,0,0,-1,1364,463,7.45322,29.2892
147,561,8.08875,-29.7353,0.0385209,0.0441474,-0.0629754,0.104372,-0.0217041,-0.80772,0.0778316,0.0460287,1371,463,8.08879,29.7353
154,561,8.71411,-30.2147,0.0551549,0.0426378,-0.0681939,0.117377,-0.0195842,-0.739638,0.08553,0.0435335,1378,463,8.7141,30.2147
161,561,9.41711,-30.3617,0.0718915,0.0451317,-0.0703364,0.130109,-0.0130861,-0.691408,0.0914143,0.0480933,1385,463,9.41717,30.3617
168,561,10.4425,-30.6379,0,0,0,0,0,0,0,-1,1392,463,10.4425,30.6379
175,561,10.4185,0.276398,0,0,0,0,0,0,0,-1,1399,463,10.4185,-0.276394
182,561,6.45703,-4.02127,0,0,0,0,0,0,0,-1,1406,463,6.45704,4.02127
189,561,6.50854,-2.08685,0,0,0,0,0,0,0,-1,1413,463,6.50851,2.08686
196,561,6.44775,-0.27182,0,0,0,0,0,0,0,-1,1420,463,6.44773,0.271814
203,561,6.18591,1.1301,0,0,0,0,0,0,0,-1,1427,463,6.18592,-1.13009
210,561,5.68713,2.68427,0,0,0,0,0,0,0,-1,1434,463,5.6871,-2.68425
217,561,3.61743,-7.33582,0,0,0,0,0,0,0,-1,1441,463,3.61738,7.33581
224,561,4.27466,-8.59171,0,0,0,0,0,0,0,-1,1448,463,4.27466,8.59171
231,561,4.93188,-9.8476,0,0,0,0,0,0,0,-1,1455,463,4.93193,9.84761
238,561,2.18018,-5.18359,0,0,0,0,0,0,0,-1,1462,463,2.18023,5.18359
245,561,3.07568,-3.50238,0,0,0,0,0,0,0,-1,1469,463,3.0757,3.50238
252,561,3.47412,-3.71109,0,0,0,0,0,0,0,-1,1476,463,3.47413,3.71109
259,561,3.42212,-3.2334,0,0,0,0,0,0,0,-1,1483,463,3.42214,3.2334
266,561,4.44373,-5.90027,0,0,0,0,0,0,0,-1,1490,463,4.44372,5.90026
273,561,2.59485,-3.65268,0,0,0,0,0,0,0,-1,1497,463,2.5948,3.65268
280,561,3.10767,-6.38235,0,0,0,0,0,0,0,-1,1504,463,3.10766,6.38235
287,561,4.91809,-14.429,0,0,0,0,0,0,0,-1,1511,463,4.9181,14.429
294,561,8.2915,-29.2132,0,0,0,0,0,0,0,-1,1518,463,8.29145,29.2132
301,561,8.19202,-28.8661,0.00694305,-0.00819301,-0.00237523,0.00730703,-0.00855699,-0.152058,0.00916857,0.0469853,1525,463,8.19203,28.8661
308,561,8.37622,-28.5792,0.00603303,-0.00848308,-0.00266403,0.0065065,-0.00895655,-0.175889,0.00896487,0.0328472,1532,463,8.37618,28.5792
315,561,8.40784,-28.2641,0.00474296,-0.00819528,-0.00297194,0.00539297,-0.00884528,-0.215323,0.00830061,0.0196339,1539,463,8.40783,28.2641
322,561,8.39478,-27.8958,0.00357953,-0.00747458,-0.00293861,0.00431217,-0.00820722,-0.244334,0.00734375,0.0181177,1546,463,8.39481,27.8958
329,561,8.42139,-27.4709,0.00266598,-0.00651562,-0.00272835,0.00341553,-0.00726517,-0.268112,0.00629861,0.0144395,1553,463,8.42133,27.4709
336,561,8.44824,-27.0236,0.00191813,-0.00554939,-0.00247554,0.00266424,-0.0062955,-0.292736,0.00531264,0.0116529,1560,463,8.4483,27.0236
343,561,8.45032,-26.6041,0.00118028,-0.00456879,-0.00222925,0.0019434,-0.00533191,-0.329817,0.00434961,0.0109511,1567,463,8.4503,26.6041
350,561,8.43726,-26.16,0.0006625,-0.00353241,-0.00181967,0.00134183,-0.00421174,-0.3573,0.00334602,0.0102015,1574,463,8.43731,26.16
357,561,8.43384,-25.6884,0.000215488,-0.00237569,-0.0013766,0.000810294,-0.00297049,-0.407854,0.00229854,0.0101432,1581,463,8.43384,25.6884
364,561,8.44238,-25.2615,-1.79852e-05,-0.00134514,-0.000801873,0.00035927,-0.0017224,-0.439744,0.00128488,0.00964574,1588,463,8.44241,25.2615
371,561,8.41382,-24.7855,-9.67197e-05,-0.000325955,-0.000209684,2.76285e-05,-0.000450304,-0.535276,0.000309823,0.016487,1595,463,8.41377,24.7855
378,561,8.39331,-24.3214,-0.000149169,0.000703941,0.00032229,0.000812008,-0.000257236,1.24727,0.00064443,0.0122681,1602,463,8.39333,24.3214
385,561,8.38062,-23.837,-0.000192552,0.0017803,0.000762519,0.00204066,-0.000452911,1.24176,0.00153386,0.0103318,1609,463,8.38056,23.837
392,561,8.37415,-23.3412,-0.00014037,0.00259588,0.0012094,0.00305379,-0.00059828,1.20885,0.00226182,0.0137679,1616,463,8.3742,23.3412
399,561,8.36084,-22.8973,5.21593e-05,0.00348249,0.00180533,0.00425751,-0.000722859,1.16529,0.00310744,0.0197792,1623,463,8.36078,22.8973
406,561,8.35449,-22.4218,5.19199e-05,0.00435123,0.00231277,0.00535909,-0.000955941,1.15983,0.00393032,0.0183045,1630,463,8.35453,22.4218
413,561,8.32397,-21.9034,-0.000103778,0.00530531,0.00237192,0.00619806,-0.000996531,1.21081,0.00450114,0.0165184,1637,463,8.32397,21.9034
420,561,8.29102,-21.3552,0.000137457,0.00585964,0.00248262,0.00678659,-0.000789493,1.21345,0.00480921,0.012748,1644,463,8.29101,21.3552
427,561,8.28845,-20.8156,0.00100539,0.00673155,0.00296341,0.00798903,-0.000252089,1.16949,0.00541201,0.00995887,1651,463,8.28841,20.8156
434,561,8.29785,-20.3004,0.00167508,0.00762794,0.00323054,0.00904417,0.000258842,1.15764,0.00594505,0.0126913,1658,463,8.2979,20.3004
441,561,8.29968,-19.8145,0.00238794,0.00618843,0.00284608,0.00771034,0.000866036,1.07975,0.00487724,0.0169947,1665,463,8.29973,19.8145
448,561,8.28723,-19.2701,0.00330511,0.00551417,0.0026458,0.00727674,0.00154255,0.983134,0.00442748,0.0230654,1672,463,8.28724,19.2701
455,561,8.36572,-18.5905,0.00446106,0.00395545,0.00224138,0.00646385,0.00195266,0.72924,0.00382811,0.0410781,1679,463,8.36573,18.5905
462,561,8.04077,-18.2068,0.00573402,0.00154092,0.00161874,0.00628622,0.000988726,0.328747,0.00390321,0.0395667,1686,463,8.04073,18.2067
469,561,7.94409,-17.7386,0.00681115,-0.00237936,0.000592679,0.00684921,-0.00241743,0.0641341,0.0055503,0.0256482,1693,463,7.94404,17.7386
476,561,7.99207,-17.1977,0.00787599,-0.00825278,-0.000866453,0.00792241,-0.00829919,-0.0535157,0.00936638,0.0439039,1700,463,7.99205,17.1977
483,561,8.04309,-16.6506,0,0,0,0,0,0,0,-1,1707,463,8.04308,16.6506
490,561,9.38513,-13.8611,0,0,0,0,0,0,0,-1,1714,463,9.38514,13.8611
497,561,9.07434,-12.3982,0,0,0,0,0,0,0,-1,1721,463,9.07437,12.3982
504,561,10.0769,-0.811401,0,0,0,0,0,0,0,-1,1728,463,10.0769,0.8114
511,561,0,0,0,0,0,0,0,0,0,-1,1735,463,0,0
518,561,0,0,0,0,0,0,0,0,0,-1,1742,463,0,0
525,561,0,0,0,0,0,0,0,0,0,-1,1749,463,0,0
532,561,0,0,0,0,0,0,0,0,0,-1,1756,463,0,0
539,561,0,0,0,0,0,0,0,0,0,-1,1763,463,0,0
546,561,0,0,0,0,0,0,0,0,0,-1,1770,463,0,0
553,561,0,0,0,0,0,0,0,0,0,-1,1777,463,0,0
560,561,0,0,0,0,0,0,0,0,0,-1,1784,463,0,0
567,561,0,0,0,0,0,0,0,0,0,-1,1791,463,0,0
574,561,0,0,0,0,0,0,0,0,0,-1,1798,463,0,0
581,561,0,0,0,0,0,0,0,0,0,-1,1805,463,0,0
588,561,0,0,0,0,0,0,0,0,0,-1,1812,463,0,0
595,561,0,0,0,0,0,0,0,0,0,-1,1819,463,0,0
602,561,0,0,0,0,0,0,0,0,0,-1,1826,463,0,0
609,561,0,0,0,0,0,0,0,0,0,-1,1833,463,0,0
616,561,0,0,0,0,0,0,0,0,0,-1,1840,463,0,0
623,561,0,0,0,0,0,0,0,0,0,-1,1847,463,0,0
630,561,0,0,0,0,0,0,0,0,0,-1,1854,463,0,0
637,561,0,0,0,0,0,0,0,0,0,-1,1861,463,0,0
644,561,0,0,0,0,0,0,0,0,0,-1,1868,463,0,0
651,561,0,0,0,0,0,0,0,0,0,-1,1875,463,0,0
658,561,0,0,0,0,0,0,0,0,0,-1,1882,463,0,0
665,561,0,0,0,0,0,0,0,0,0,-1,1889,463,0,0
672,561,0,0,0,0,0,0,0,0,0,-1,1896,463,0,0
679,561,0,0,0,0,0,0,0,0,0,-1,1903,463,0,0
686,561,0,0,0,0,0,0,0,0,0,-1,1910,463,0,0
693,561,0,0,0,0,0,0,0,0,0,-1,1917,463,0,0
700,561,0,0,0,0,0,0,0,0,0,-1,1924,463,0,0
707,561,0,0,0,0,0,0,0,0,0,-1,1931,463,0,0
714,561,0,0,0,0,0,0,0,0,0,-1,1938,463,0,0
721,561,0,0,0,0,0,0,0,0,0,-1,1945,463,0,0
728,561,0,0,0,0,0,0,0,0,0,-1,1952,463,0,0
735,561,0,0,0,0,0,0,0,0,0,-1,1959,463,0,0
742,561,0,0,0,0,0,0,0,0,0,-1,1966,463,0,0
749,561,0,0,0,0,0,0,0,0,0,-1,1973,463,0,0
756,561,0,0,0,0,0,0,0,0,0,-1,1980,463,0,0
763,561,0,0,0,0,0,0,0,0,0,-1,1987,463,0,0
770,561,0,0,0,0,0,0,0,0,0,-1,1994,463,0,0
777,561,0,0,0,0,0,0,0,0,0,-1,2001,463,0,0
784,561,0,0,0,0,0,0,0,0,0,-1,2008,463,0,0
791,561,0,0,0,0,0,0,0,0,0,-1,2015,463,0,0
798,561,0,0,0,0,0,0,0,0,0,-1,2022,463,0,0
805,561,0,0,0,0,0,0,0,0,0,-1,2029,463,0,0
812,561,0,0,0,0,0,0,0,0,0,-1,2036,463,0,0
-700,554,0,0,0,0,0,0,0,0,0,-1,524,470,0,0
-693,554,0,0,0,0,0,0,0,0,0,-1,531,470,0,0
-686,554,0,0,0,0,0,0,0,0,0,-1,538,470,0,0
-679,554,0,0,0,0,0,0,0,0,0,-1,545,470,0,0
-672,554,0,0,0,0,0,0,0,0,0,-1,552,470,0,0
-665,554,0,0,0,0,0,0,0,0,0,-1,559,470,0,0
-658,554,0,0,0,0,0,0,0,0,0,-1,566,470,0,0
-651,554,0,0,0,0,0,0,0,0,0,-1,573,470,0,0
-644,554,0,0,0,0,0,0,0,0,0,-1,580,470,0,0
-637,554,0,0,0,0,0,0,0,0,0,-1,587,470,0,0
-630,554,0,0,0,0,0,0,0,0,0,-1,594,470,0,0
-623,554,0,0,0,0,0,0,0,0,0,-1,601,470,0,0
-616,554,0,0,0,0,0,0,0,0,0,-1,608,470,0,0
-609,554,0,0,0,0,0,0,0,0,0,-1,615,470,0,0
-602,554,0,0,0,0,0,0,0,0,0,-1,622,470,0,0
-595,554,0,0,0,0,0,0,0,0,0,-1,629,470,0,0
-588,554,0,0,0,0,0,0,0,0,0,-1,636,470,0,0
-581,554,0,0,0,0,0,0,0,0,0,-1,643,470,0,0
-574,554,0,0,0,0,0,0,0,0,0,-1,650,470,0,0
-567,554,0,0,0,0,0,0,0,0,0,-1,657,470,0,0
-560,554,0,0,0,0,0,0,0,0,0,-1,664,470,0,0
-553,554,0,0,0,0,0,0,0,0,0,-1,671,470,0,0
-546,554,0,0,0,0,0,0,0,0,0,-1,678,470,0,0
-539,554,0,0,0,0,0,0,0,0,0,-1,685,470,0,0
-532,554,0,0,0,0,0,0,0,0,0,-1,692,470,0,0
-525,554,0,0,0,0,0,0,0,0,0,-1,699,470,0,0
-518,554,0,0,0,0,0,0,0,0,0,-1,706,470,0,0
-511,554,0,0,0,0,0,0,0,0,0,-1,713,470,0,0
-504,554,0,0,0,0,0,0,0,0,0,-1,720,470,0,0
-497,554,0,0,0,0,0,0,0,0,0,-1,727,470,0,0
-490,554,0,0,0,0,0,0,0,0,0,-1,734,470,0,0
-483,554,0,0,0,0,0,0,0,0,0,-1,741,470,0,0
-476,554,0,0,0,0,0,0,0,0,0,-1,748,470,0,0
-469,554,0,0,0,0,0,0,0,0,0,-1,755,470,0,0
-462,554,0,0,0,0,0,0,0,0,0,-1,762,470,0,0
-455,554,0,0,0,0,0,0,0,0,0,-1,769,470,0,0
-448,554,0,0,0,0,0,0,0,0,0,-1,776,470,0,0
-441,554,0,0,0,0,0,0,0,0,0,-1,783,470,0,0
-434,554,0,0,0,0,0,0,0,0,0,-1,790,470,0,0
-427,554,0,0,0,0,0,0,0,0,0,-1,797,470,0,0
-420,554,0,0,0,0,0,0,0,0,0,-1,804,470,0,0
-413,554,0,0,0,0,0,0,0,0,0,-1,811,470,0,0
-406,554,0,0,0,0,0,0,0,0,0,-1,818,470,0,0
-399,554,-1.32275,-3.95142,0,0,0,0,0,0,0,-1,825,470,-1.32275,3.95141
-392,554,-1.35632,-3.7406,0,0,0,0,0,0,0,-1,832,470,-1.35632,3.7406
-385,554,-0.849243,-4.14447,0,0,0,0,0,0,0,-1,839,470,-0.849262,4.14446
-378,554,-0.982666,-4.55084,0,0,0,0,0,0,0,-1,846,470,-0.982671,4.55084
-371,554,-1.74542,-4.63467,0,0,0,0,0,0,0,-1,853,470,-1.74541,4.63468
-364,554,1.04883,-7.68756,0,0,0,0,0,0,0,-1,860,470,1.0488,7.68757
-357,554,1.06714,-11.5403,0,0,0,0,0,0,0,-1,867,470,1.06715,11.5403
-350,554,0.835327,-15.9311,0,0,0,0,0,0,0,-1,874,470,0.8353,15.9311
-343,554,1.42993,-18.9553,0,0,0,0,0,0,0,-1,881,470,1.42996,18.9553
-336,554,1.27814,-19.3321,0.00226372,0.0123011,-0.00853779,0.017186,-0.00262118,-1.05111,0.0124236,0.0412463,888,470,1.27813,19.3321
-329,554,1.0741,-19.9353,0.00178783,0.010256,-0.00715848,0.0143389,-0.00229501,-1.05246,0.0104089,0.0213816,895,470,1.07407,19.9353
-322,554,1.00781,-20.4684,0.00148676,0.00859301,-0.00608645,0.0120875,-0.00200778,-1.0496,0.00880427,0.0136232,902,470,1.00783,20.4684
-315,554,1.02661,-20.9704,0.00103164,0.00771212,-0.00498962,0.0103763,-0.00163258,-1.08036,0.00752104,0.0127894,909,470,1.02661,20.9704
-308,554,1.01086,-21.4767,0.000521083,0.00700496,-0.00417968,0.00905262,-0.00152658,-1.11525,0.00660303,0.0146009,916,470,1.01085,21.4767
-301,554,1.00806,-21.9798,0.000234258,0.00599229,-0.0034905,0.00763791,-0.00141136,-1.13024,0.00562176,0.0152186,923,470,1.00808,21.9798
-294,554,0.964355,-22.4764,8.8143e-05,0.0048494,-0.00270217,0.00607004,-0.00113249,-1.14651,0.00447225,0.0124357,930,470,0.964354,22.4764
-287,554,0.927979,-22.9429,-9.88476e-06,0.00381876,-0.00196626,0.00464867,-0.000839795,-1.17141,0.00341365,0.011536,937,470,0.927957,22.9429
-280,554,0.914551,-23.4093,1.16885e-05,0.00265444,-0.00134213,0.00321651,-0.000550375,-1.1742,0.00234938,0.0116616,944,470,0.914566,23.4093
-273,554,0.885559,-23.8736,6.69499e-05,0.00162002,-0.000714959,0.00189903,-0.000212059,-1.19873,0.0013423,0.0144707,951,470,0.885551,23.8736
-266,554,0.879211,-24.3357,0.000215588,0.00028682,-3.68383e-05,0.000302444,0.000199964,-1.16966,0.000177614,0.0119223,958,470,0.879211,24.3357
-259,554,0.850037,-24.7617,0.000555364,-0.00121859,0.000660349,0.000774184,-0.00143741,0.319984,0.00129586,0.0122997,965,470,0.850047,24.7617
-252,554,0.848267,-25.2046,0.000911645,-0.00294918,0.00140168,0.00136686,-0.00340439,0.314016,0.00283718,0.0148947,972,470,0.848279,25.2046
-245,554,0.827576,-25.6588,0.00149385,-0.0047388,0.00215601,0.00216697,-0.00541192,0.302616,0.00450738,0.0156051,979,470,0.827564,25.6588
-238,554,0.845337,-26.1291,0.00231285,-0.00681782,0.00285662,0.00313292,-0.00763788,0.279558,0.00639727,0.0113693,986,470,0.845325,26.129
-231,554,0.85907,-26.577,0.00300939,-0.00883249,0.00360887,0.00402253,-0.00984563,0.273692,0.0082387,0.0103272,993,470,0.859069,26.577
-224,554,0.853699,-26.9913,0.00359814,-0.011034,0.00451462,0.00487897,-0.0123148,0.276443,0.0102316,0.0106542,1000,470,0.853679,26.9913
-217,554,0.860107,-27.3978,0.00426218,-0.0134782,0.00540253,0.00577792,-0.014994,0.273529,0.0123799,0.0111047,1007,470,0.860101,27.3978
-210,554,0.892151,-27.7989,0.00499475,-0.0158011,0.00559206,0.00640309,-0.0172094,0.246717,0.0141005,0.0150321,1014,470,0.892138,27.7988
-203,554,0.87677,-28.1598,0.00590099,-0.0173298,0.00515704,0.00699435,-0.0184232,0.208919,0.0151613,0.0261227,1021,470,0.876797,28.1598
-196,554,0.807617,-28.3851,0.00676751,-0.0188178,0.00457221,0.00756004,-0.0196103,0.17163,0.0161929,0.0327521,1028,470,0.807645,28.3851
-189,554,1.12732,-28.5605,0.00752069,-0.020368,0.00371983,0.00800832,-0.0208556,0.130346,0.0172061,0.0368492,1035,470,1.12728,28.5605
-182,554,0.934326,-29.1769,0,0,0,0,0,0,0,-1,1042,470,0.934375,29.1769
-175,554,0.724854,-29.4878,0,0,0,0,0,0,0,-1,1049,470,0.724911,29.4878
-168,554,1.76233,-29.5417,0,0,0,0,0,0,0,-1,1056,470,1.76233,29.5417
-161,554,1.7251,-30.121,0.00799442,-0.030036,0.000626377,0.00800473,-0.0300463,0.0164644,0.0231648,0.045229,1063,470,1.72504,30.121
-154,554,1.74207,-30.6772,0.00721246,-0.0337232,0.000346127,0.00721539,-0.0337261,0.0084546,0.0252354,0.0484467,1070,470,1.74202,30.6772
-147,554,1.72546,-31.2171,0,0,0,0,0,0,0,-1,1077,470,1.72546,31.2171
-140,554,3.14563,-26.981,0,0,0,0,0,0,0,-1,1084,470,3.14569,26.981
-133,554,2.33813,-27.5244,0,0,0,0,0,0,0,-1,1091,470,2.3381,27.5244
-126,554,2.70093,-28.5442,0,0,0,0,0,0,0,-1,1098,470,2.70092,28.5441
-119,554,1.50964,-29.6382,0,0,0,0,0,0,0,-1,1105,470,1.5096,29.6383
-112,554,1.03162,-24.5784,0,0,0,0,0,0,0,-1,1112,470,1.03156,24.5784
-105,554,0.608765,-21.0475,0,0,0,0,0,0,0,-1,1119,470,0.608728,21.0475
-98,554,1.51929,-7.3624,0,0,0,0,0,0,0,-1,1126,470,1.51928,7.36241
-91,554,1.41089,-6.5864,0,0,0,0,0,0,0,-1,1133,470,1.41093,6.58638
-84,554,1.62305,-5.87186,0,0,0,0,0,0,0,-1,1140,470,1.62299,5.87186
-77,554,-2.56958,1.33258,0,0,0,0,0,0,0,-1,1147,470,-2.56959,-1.33257
-70,554,-3.68164,-1.18332,0,0,0,0,0,0,0,-1,1154,470,-3.68158,1.18331
-63,554,-4.86853,-3.88708,0,0,0,0,0,0,0,-1,1161,470,-4.86853,3.88708
-56,554,-5.69958,-6.45422,0,0,0,0,0,0,0,-1,1168,470,-5.69955,6.45422
-49,554,-6.23645,-8.8569,0,0,0,0,0,0,0,-1,1175,470,-6.23643,8.85689
-42,554,-6.62524,-11.5382,0,0,0,0,0,0,0,-1,1182,470,-6.62522,11.5382
-35,554,-2.40173,-4.59482,0,0,0,0,0,0,0,-1,1189,470,-2.40169,4.59481
-28,554,-0.760132,-1.65555,0,0,0,0,0,0,0,-1,1196,470,-0.760095,1.65556
-21,554,-6.11462,-31.9121,0,0,0,0,0,0,0,-1,1203,470,-6.11458,31.9122
-14,554,-0.55835,-32.7154,0,0,0,0,0,0,0,-1,1210,470,-0.558299,32.7154
-7,554,0.0767822,-33.0583,0,0,0,0,0,0,0,-1,1217,470,0.076815,33.0583
0,554,8.74231,-45.8736,0,0,0,0,0,0,0,-1,1224,470,8.74236,45.8736
7,554,8.40857,-45.3513,0,0,0,0,0,0,0,-1,1231,470,8.40857,45.3513
14,554,7.7334,-45.0406,0,0,0,0,0,0,0,-1,1238,470,7.73343,45.0407
21,554,5.46057,-39.6088,0,0,0,0,0,0,0,-1,1245,470,5.46054,39.6088
28,554,6.09253,-39.3629,0.00838168,0.110189,-0.0116286,0.1115,0.00707033,-1.4585,0.0720923,0.0430706,1252,470,6.09252,39.3629
35,554,6.43115,-39.8384,0.00406773,0.102577,-0.0173832,0.105555,0.00109026,-1.40116,0.0700092,0.0427775,1259,470,6.43117,39.8384
42,554,6.75916,-40.0916,-0.00295893,0.0995524,-0.0234663,0.104669,-0.00807535,-1.35612,0.0726208,0.0466022,1266,470,6.7592,40.0916
49,554,7.04834,-40.2464,0,0,0,0,0,0,0,-1,1273,470,7.04838,40.2464
56,554,3.5531,-35.3083,0,0,0,0,0,0,0,-1,1280,470,3.55316,35.3083
63,554,6.56165,-38.2608,0,0,0,0,0,0,0,-1,1287,470,6.56164,38.2608
70,554,6.21094,-39.3709,-0.0280145,0.125473,-0.0385231,0.134599,-0.0371406,-1.33818,0.10434,0.0450174,1294,470,6.21096,39.3709
77,554,5.7041,-39.3925,-0.0332525,0.138314,-0.0410862,0.147646,-0.0425841,-1.34746,0.115277,0.0454833,1301,470,5.70406,39.3925
84,554,5.32959,-39.6349,-0.0378198,0.14785,-0.0385947,0.155553,-0.0455228,-1.3738,0.121747,0.0454642,1308,470,5.32958,39.6349
91,554,4.84729,-40.0783,-0.0403516,0.156001,-0.0362144,0.162467,-0.0468179,-1.3941,0.126831,0.0426411,1315,470,4.84728,40.0783
98,554,4.21594,-40.7132,-0.0353301,0.156081,-0.0364126,0.162774,-0.042023,-1.38902,0.124903,0.0434046,1322,470,4.21591,40.7132
105,554,4.11426,-41.2767,-0.0259752,0.149707,-0.0387995,0.157894,-0.0341625,-1.36283,0.118306,0.0479026,1329,470,4.11431,41.2767
112,554,4.06543,-41.5276,-0.0161757,0.140205,-0.0415196,0.150545,-0.0265156,-1.32672,0.11027,0.0469779,1336,470,4.06538,41.5276
119,554,3.94739,-41.7707,0,0,0,0,0,0,0,-1,1343,470,3.94743,41.7707
126,554,3.66602,-41.6056,0.00571024,0.114389,-0.0496178,0.133634,-0.013535,-1.20079,0.0939267,0.0411578,1350,470,3.66607,41.6056
133,554,3.51245,-41.9352,0.0195975,0.0981043,-0.0562433,0.127438,-0.00973584,-1.09006,0.0883826,0.0441927,1357,470,3.51243,41.9352
140,554,3.51282,-42.5798,0,0,0,0,0,0,0,-1,1364,470,3.51278,42.5798
147,554,8.93298,-29.8857,0.0537261,0.0669796,-0.0721237,0.13278,-0.0120746,-0.83121,0.0928073,0.0466917,1371,470,8.93294,29.8857
154,554,9.43494,-30.4296,0.0751009,0.0611133,-0.0787233,0.14714,-0.0109262,-0.741094,0.101931,0.0436857,1378,470,9.43493,30.4296
161,554,10.1082,-30.5726,0.0993829,0.0596928,-0.0817908,0.163702,-0.00462602,-0.666382,0.110709,0.0474652,1385,470,10.1081,30.5726
168,554,10.8447,-30.7538,0,0,0,0,0,0,0,-1,1392,470,10.8448,30.7537
175,554,10.663,0.286957,0,0,0,0,0,0,0,-1,1399,470,10.663,-0.286966
182,554,6.71106,-4.50217,0,0,0,0,0,0,0,-1,1406,470,6.71107,4.50215
189,554,6.90479,-2.50348,0,0,0,0,0,0,0,-1,1413,470,6.90477,2.50348
196,554,6.96216,-0.740906,0,0,0,0,0,0,0,-1,1420,470,6.96214,0.740912
203,554,6.43518,0.414154,0,0,0,0,0,0,0,-1,1427,470,6.43523,-0.414141
210,554,6.21167,1.96707,0,0,0,0,0,0,0,-1,1434,470,6.21165,-1.96706
217,554,5.64551,3.4989,0,0,0,0,0,0,0,-1,1441,470,5.64555,-3.49891
224,554,4.85144,-8.85172,0,0,0,0,0,0,0,-1,1448,470,4.85146,8.85173
231,554,3.25073,-5.29642,0,0,0,0,0,0,0,-1,1455,470,3.25078,5.29642
238,554,4.28625,-3.25253,0,0,0,0,0,0,0,-1,1462,470,4.28622,3.25252
245,554,4.0752,-2.90033,0,0,0,0,0,0,0,-1,1469,470,4.07515,2.90032
252,554,3.52112,-0.934998,0,0,0,0,0,0,0,-1,1476,470,3.52113,0.934996
259,554,3.96448,-2.16425,0,0,0,0,0,0,0,-1,1483,470,3.96446,2.16424
266,554,3.0592,-2.71716,0,0,0,0,0,0,0,-1,1490,470,3.05923,2.71718
273,554,2.58521,-3.06876,0,0,0,0,0,0,0,-1,1497,470,2.58524,3.06874
280,554,2.83301,-0.991699,0,0,0,0,0,0,0,-1,1504,470,2.83303,0.991704
287,554,3.54126,-4.12277,0,0,0,0,0,0,0,-1,1511,470,3.54123,4.12277
294,554,3.62036,-8.50146,0,0,0,0,0,0,0,-1,1518,470,3.62031,8.50145
301,554,8.38025,-28.3974,0,0,0,0,0,0,0,-1,1525,470,8.3803,28.3974
308,554,8.78223,-28.4845,0,0,0,0,0,0,0,-1,1532,470,8.7822,28.4845
315,554,8.8678,-28.2282,0,0,0,0,0,0,0,-1,1539,470,8.86783,28.2282
322,554,8.81873,-27.8866,0,0,0,0,0,0,0,-1,1546,470,8.81868,27.8866
329,554,8.82996,-27.1334,0.00273134,-0.00910617,-0.00409888,0.00401206,-0.0103869,-0.302845,0.00858052,0.0424171,1553,470,8.82999,27.1334
336,554,8.85535,-26.9157,0.00188017,-0.0078979,-0.00380444,0.00318601,-0.00920374,-0.33064,0.00742915,0.0254038,1560,470,8.85537,26.9157
343,554,8.8479,-26.5804,0.00103446,-0.00671557,-0.00352917,0.0024007,-0.00808181,-0.369362,0.00634144,0.0144813,1567,470,8.84789,26.5804
350,554,8.89624,-26.1256,0.00049012,-0.00558911,-0.00306679,0.00176843,-0.00686742,-0.394924,0.00526765,0.0100962,1574,470,8.89628,26.1256
357,554,8.90637,-25.6802,5.10737e-05,-0.00431181,-0.00258206,0.00124983,-0.00551056,-0.434651,0.00415348,0.0113079,1581,470,8.90639,25.6802
364,554,8.89893,-25.2585,-0.000130831,-0.00319647,-0.00194289,0.000811096,-0.0041384,-0.451419,0.00306528,0.00938856,1588,470,8.89895,25.2586
371,554,8.87952,-24.7912,-0.000120219,-0.00210257,-0.00128122,0.000508468,-0.00273125,-0.456175,0.00201186,0.00891584,1595,470,8.87949,24.7912
378,554,8.86414,-24.2964,-7.63367e-05,-0.000963551,-0.000658089,0.000273699,-0.00131359,-0.488838,0.000979784,0.0105421,1602,470,8.86411,24.2964
385,554,8.8623,-23.8152,-3.19068e-05,0.000268132,-8.9475e-05,0.000292788,-5.65631e-05,-1.3019,0.000216523,0.00965487,1609,470,8.86229,23.8152
392,554,8.86816,-23.3219,7.08486e-05,0.00116636,0.000426235,0.00131266,-7.54515e-05,1.24016,0.000901308,0.0124955,1616,470,8.86818,23.3219
399,554,8.86609,-22.8347,0.000251013,0.00199191,0.000999463,0.00244683,-0.000203909,1.14365,0.00170327,0.0175064,1623,470,8.86603,22.8347
406,554,8.84216,-22.3591,0.000270862,0.00283028,0.00149562,0.00351895,-0.000417814,1.13928,0.00249692,0.0165791,1630,470,8.84217,22.3591
413,554,8.81995,-21.8486,0.000173011,0.00374492,0.00170285,0.00442662,-0.000508692,1.19001,0.00313443,0.0149682,1637,470,8.81994,21.8486
420,554,8.80444,-21.344,0.000359634,0.00432273,0.00191779,0.0050988,-0.000416433,1.18627,0.00354617,0.0149358,1644,470,8.80448,21.344
427,554,8.79846,-20.8359,0.000978646,0.00507853,0.00236054,0.00615499,-9.78142e-05,1.14294,0.00413632,0.0107623,1651,470,8.79842,20.8359
434,554,8.77808,-20.3435,0.00143876,0.00581615,0.00264193,0.00705823,0.000196686,1.13132,0.00464131,0.0103846,1658,470,8.77808,20.3435
441,554,8.77002,-19.8379,0.00196094,0.00492963,0.00249656,0.00634978,0.000540791,1.0536,0.00406493,0.0123208,1665,470,8.77008,19.8379
448,554,8.74036,-19.2663,0.00264869,0.00454408,0.0024795,0.00625082,0.000941945,0.967937,0.00389142,0.0168312,1672,470,8.74041,19.2663
455,554,8.70605,-18.7267,0.00352663,0.00354785,0.0023176,0.00585486,0.00121961,0.787687,0.0035669,0.0181519,1679,470,8.70611,18.7267
462,554,8.60181,-18.221,0.00444683,0.0018786,0.00200871,0.0055468,0.000778623,0.500999,0.00346759,0.0202288,1686,470,8.60184,18.221
469,554,8.51477,-17.6998,0.00509487,-0.000910146,0.00133011,0.0053763,-0.00119158,0.208509,0.00404039,0.0246309,1693,470,8.51478,17.6998
476,554,8.70667,-16.8351,0.00568809,-0.00496278,0.000399101,0.00570302,-0.00497771,0.0374013,0.00617126,0.043573,1700,470,8.70663,16.835
483,554,8.88965,-15.9849,0,0,0,0,0,0,0,-1,1707,470,8.88967,15.9849
490,554,11.1191,-11.7417,0,0,0,0,0,0,0,-1,1714,470,11.1192,11.7417
497,554,10.9613,1.60983,0,0,0,0,0,0,0,-1,1721,470,10.9613,-1.60982
504,554,2.13257,-3.81628,0,0,0,0,0,0,0,-1,1728,470,2.1326,3.8163
511,554,1.31396,-4.02713,0,0,0,0,0,0,0,-1,1735,470,1.31398,4.02712
518,554,5.04236,-5.9472,0,0,0,0,0,0,0,-1,1742,470,5.04231,5.94721
525,554,0,0,0,0,0,0,0,0,0,-1,1749,470,0,0
532,554,0,0,0,0,0,0,0,0,0,-1,1756,470,0,0
539,554,0,0,0,0,0,0,0,0,0,-1,1763,470,0,0
546,554,0,0,0,0,0,0,0,0,0,-1,1770,470,0,0
553,554,0,0,0,0,0,0,0,0,0,-1,1777,470,0,0
560,554,0,0,0,0,0,0,0,0,0,-1,1784,470,0,0
567,554,0,0,0,0,0,0,0,0,0,-1,1791,470,0,0
574,554,0,0,0,0,0,0,0,0,0,-1,1798,470,0,0
581,554,0,0,0,0,0,0,0,0,0,-1,1805,470,0,0
588,554,0,0,0,0,0,0,0,0,0,-1,1812,470,0,0
595,554,0,0,0,0,0,0,0,0,0,-1,1819,470,0,0
602,554,0,0,0,0,0,0,0,0,0,-1,1826,470,0,0
609,554,0,0,0,0,0,0,0,0,0,-1,1833,470,0,0
616,554,0,0,0,0,0,0,0,0,0,-1,1840,470,0,0
623,554,0,0,0,0,0,0,0,0,0,-1,1847,470,0,0
630,554,0,0,0,0,0,0,0,0,0,-1,1854,470,0,0
637,554,0,0,0,0,0,0,0,0,0,-1,1861,470,0,0
644,554,0,0,0,0,0,0,0,0,0,-1,1868,470,0,0
651,554,0,0,0,0,0,0,0,0,0,-1,1875,470,0,0
658,554,0,0,0,0,0,0,0,0,0,-1,1882,470,0,0
665,554,0,0,0,0,0,0,0,0,0,-1,1889,470,0,0
672,554,0,0,0,0,0,0,0,0,0,-1,1896,470,0,0
679,554,0,0,0,0,0,0,0,0,0,-1,1903,470,0,0
686,554,0,0,0,0,0,0,0,0,0,-1,1910,470,0,0
693,554,0,0,0,0,0,0,0,0,0,-1,1917,470,0,0
700,554,0,0,0,0,0,0,0,0,0,-1,1924,470,0,0
707,554,0,0,0,0,0,0,0,0,0,-1,1931,470,0,0
714,554,0,0,0,0,0,0,0,0,0,-1,1938,470,0,0
721,554,0,0,0,0,0,0,0,0,0,-1,1945,470,0,0
728,554,0,0,0,0,0,0,0,0,0,-1,1952,470,0,0
735,554,0,0,0,0,0,0,0,0,0,-1,1959,470,0,0
742,554,0,0,0,0,0,0,0,0,0,-1,1966,470,0,0
749,554,0,0,0,0,0,0,0,0,0,-1,1973,470,0,0
756,554,0,0,0,0,0,0,0,0,0,-1,1980,470,0,0
763,554,0,0,0,0,0,0,0,0,0,-1,1987,470,0,0
770,554,0,0,0,0,0,0,0,0,0,-1,1994,470,0,0
777,554,0,0,0,0,0,0,0,0,0,-1,2001,470,0,0
784,554,0,0,0,0,0,0,0,0,0,-1,2008,470,0,0
791,554,0,0,0,0,0,0,0,0,0,-1,2015,470,0,0
798,554,0,0,0,0,0,0,0,0,0,-1,2022,470,0,0
805,554,0,0,0,0,0,0,0,0,0,-1,2029,470,0,0
812,554,0,0,0,0,0,0,0,0,0,-1,2036,470,0,0
-700,547,0,0,0,0,0,0,0,0,0,-1,524,477,0,0
-693,547,0,0,0,0,0,0,0,0,0,-1,531,477,0,0
-686,547,0,0,0,0,0,0,0,0,0,-1,538,477,0,0
-679,547,0,0,0,0,0,0,0,0,0,-1,545,477,0,0
-672,547,0,0,0,0,0,0,0,0,0,-1,552,477,0,0
-665,547,0,0,0,0,0,0,0,0,0,-1,559,477,0,0
-658,547,0,0,0,0,0,0,0,0,0,-1,566,477,0,0
-651,547,0,0,0,0,0,0,0,0,0,-1,573,477,0,0
-644,547,0,0,0,0,0,0,0,0,0,-1,580,477,0,0
-637,547,0,0,0,0,0,0,0,0,0,-1,587,477,0,0
-630,547,0,0,0,0,0,0,0,0,0,-1,594,477,0,0
-623,547,0,0,0,0,0,0,0,0,0,-1,601,477,0,0
-616,547,0,0,0,0,0,0,0,0,0,-1,608,477,0,0
-609,547,0,0,0,0,0,0,0,0,0,-1,615,477,0,0
-602,547,0,0,0,0,0,0,0,0,0,-1,622,477,0,0
-595,547,0,0,0,0,0,0,0,0,0,-1,629,477,0,0
-588,547,0,0,0,0,0,0,0,0,0,-1,636,477,0,0
-581,547,0,0,0,0,0,0,0,0,0,-1,643,477,0,0
-574,547,0,0,0,0,0,0,0,0,0,-1,650,477,0,0
-567,547,0,0,0,0,0,0,0,0,0,-1,657,477,0,0
-560,547,0,0,0,0,0,0,0,0,0,-1,664,477,0,0
-553,547,0,0,0,0,0,0,0,0,0,-1,671,477,0,0
-546,547,0,0,0,0,0,0,0,0,0,-1,678,477,0,0
-539,547,0,0,0,0,0,0,0,0,0,-1,685,477,0,0
-532,547,0,0,0,0,0,0,0,0,0,-1,692,477,0,0
-525,547,0,0,0,0,0,0,0,0,0,-1,699,477,0,0
-518,547,0,0,0,0,0,0,0,0,0,-1,706,477,0,0
-511,547,0,0,0,0,0,0,0,0,0,-1,713,477,0,0
-504,547,0,0,0,0,0,0,0,0,0,-1,720,477,0,0
-497,547,0,0,0,0,0,0,0,0,0,-1,727,477,0,0
-490,547,0,0,0,0,0,0,0,0,0,-1,734,477,0,0
-483,547,0,0,0,0,0,0,0,0,0,-1,741,477,0,0
-476,547,0,0,0,0,0,0,0,0,0,-1,748,477,0,0
-469,547,0,0,0,0,0,0,0,0,0,-1,755,477,0,0
-462,547,0,0,0,0,0,0,0,0,0,-1,762,477,0,0
-455,547,0,0,0,0,0,0,0,0,0,-1,769,477,0,0
-448,547,0,0,0,0,0,0,0,0,0,-1,776,477,0,0
-441,547,0,0,0,0,0,0,0,0,0,-1,783,477,0,0
-434,547,0,0,0,0,0,0,0,0,0,-1,790,477,0,0
-427,547,0,0,0,0,0,0,0,0,0,-1,797,477,0,0
-420,547,0,0,0,0,0,0,0,0,0,-1,804,477,0,0
-413,547,0,0,0,0,0,0,0,0,0,-1,811,477,0,0
-406,547,0.144592,-11.0292,0,0,0,0,0,0,0,-1,818,477,0.144583,11.0292
-399,547,0.775513,-10.0294,0,0,0,0,0,0,0,-1,825,477,0.775482,10.0295
-392,547,-1.52271,-4.41675,0,0,0,0,0,0,0,-1,832,477,-1.52273,4.41674
-385,547,-1.73743,-4.6431,0,0,0,0,0,0,0,-1,839,477,-1.73743,4.64308
-378,547,-2.41339,-4.60071,0,0,0,0,0,0,0,-1,846,477,-2.41337,4.60071
-371,547,1.64569,-11.1445,0,0,0,0,0,0,0,-1,853,477,1.64569,11.1445
-364,547,0.271729,-4.58582,0,0,0,0,0,0,0,-1,860,477,0.271753,4.5858
-357,547,0.575989,-15.8035,0,0,0,0,0,0,0,-1,867,477,0.575992,15.8035
-350,547,0.734802,-18.058,0,0,0,0,0,0,0,-1,874,477,0.734774,18.058
-343,547,0.66803,-18.7144,0.00230233,0.011992,-0.00852019,0.0169485,-0.00265417,-1.04392,0.0122797,0.0470716,881,477,0.668058,18.7144
-336,547,0.674988,-19.4119,0.00169443,0.0102171,-0.00714714,0.0142769,-0.00236532,-1.05422,0.0103964,0.0190887,888,477,0.675016,19.4119
-329,547,0.583862,-19.9531,0.00129433,0.00822115,-0.00583166,0.0115403,-0.00202485,-1.05336,0.00844976,0.0113133,895,477,0.583842,19.9531
-322,547,0.558594,-20.4728,0.00107947,0.0066088,-0.00480793,0.00939026,-0.001702,-1.04632,0.00689786,0.0115885,902,477,0.558594,20.4728
-315,547,0.545776,-21.0078,0.000923255,0.00574971,-0.0039429,0.00795927,-0.0012863,-1.06001,0.00578283,0.0106746,909,477,0.545762,21.0078
-308,547,0.535645,-21.5045,0.000695103,0.00515745,-0.00328013,0.00689331,-0.00104076,-1.08406,0.00497885,0.01272,916,477,0.535618,21.5044
-301,547,0.537292,-21.9821,0.00061227,0.00424285,-0.00268838,0.00567142,-0.000816303,-1.08235,0.00408036,0.0126043,923,477,0.537277,21.9821
-294,547,0.497375,-22.4561,0.00063999,0.00321797,-0.00201551,0.00432142,-0.00046346,-1.06989,0.0030472,0.0102667,930,477,0.497358,22.4561
-287,547,0.446838,-22.9148,0.000698022,0.00226781,-0.0013654,0.00305783,-9.20035e-05,-1.04626,0.00206991,0.0114369,937,477,0.446836,22.9148
-280,547,0.437256,-23.3892,0.000808002,0.00110275,-0.00077933,0.00174852,0.000162234,-0.878847,0.00111554,0.0132859,944,477,0.437284,23.3892
-273,547,0.431396,-23.8667,0.000883924,3.99158e-05,-0.000142935,0.000907473,1.63666e-05,-0.163288,0.000599601,0.0122235,951,477,0.431398,23.8667
-266,547,0.403503,-24.3281,0.00105442,-0.00135066,0.000616388,0.00120319,-0.00149943,0.236827,0.00156348,0.0114971,958,477,0.403478,24.3281
-259,547,0.382324,-24.751,0.00139757,-0.00298507,0.00142361,0.0018194,-0.0034069,0.288067,0.00306346,0.0108266,965,477,0.382345,24.751
-252,547,0.408447,-25.2047,0.00168395,-0.00505282,0.00234229,0.00241829,-0.00578716,0.303807,0.00486869,0.0113959,972,477,0.408434,25.2047
-245,547,0.416199,-25.6664,0.00214948,-0.00711767,0.00333227,0.00322327,-0.00819146,0.311734,0.00679519,0.0118718,979,477,0.416215,25.6664
-238,547,0.413574,-26.1173,0.00292808,-0.00958192,0.00425274,0.00423686,-0.0108907,0.298552,0.00901112,0.00832423,986,477,0.413598,26.1173
-231,547,0.418823,-26.549,0.00362143,-0.0120231,0.00524496,0.00521709,-0.0136188,0.295331,0.0112297,0.00821588,993,477,0.418804,26.5489
-224,547,0.415833,-26.9449,0.00423142,-0.014848,0.00646068,0.00621328,-0.0168299,0.297644,0.0137666,0.0114103,1000,477,0.415857,26.9449
-217,547,0.451538,-27.3461,0.00498799,-0.0180227,0.00766298,0.00730633,-0.020341,0.293783,0.016543,0.0192272,1007,477,0.45153,27.3461
-210,547,0.490234,-27.5813,0.00601959,-0.020959,0.00780311,0.00811392,-0.0230534,0.262218,0.0186708,0.0332893,1014,477,0.490225,27.5813
-203,547,0.452087,-27.5643,0.00730022,-0.0226375,0.00708708,0.00889317,-0.0242304,0.221094,0.0197955,0.0462493,1021,477,0.452087,27.5643
-196,547,0.295044,-28.0928,0,0,0,0,0,0,0,-1,1028,477,0.295067,28.0928
-189,547,1.05981,-28.099,0,0,0,0,0,0,0,-1,1035,477,1.05984,28.099
-182,547,-0.0454102,-23.1846,0,0,0,0,0,0,0,-1,1042,477,-0.0454543,23.1846
-175,547,-0.350098,-12.3584,0,0,0,0,0,0,0,-1,1049,477,-0.350098,12.3584
-168,547,-0.498291,-29.7622,0,0,0,0,0,0,0,-1,1056,477,-0.498305,29.7622
-161,547,1.46021,-29.9665,0,0,0,0,0,0,0,-1,1063,477,1.46019,29.9665
-154,547,1.40674,-30.6192,0,0,0,0,0,0,0,-1,1070,477,1.40675,30.6192
-147,547,3.69434,-26.413,0,0,0,0,0,0,0,-1,1077,477,3.69437,26.413
-140,547,1.55676,-22.5229,0,0,0,0,0,0,0,-1,1084,477,1.5568,22.5229
-133,547,2.31665,-17.9421,0,0,0,0,0,0,0,-1,1091,477,2.31667,17.9421
-126,547,1.7063,-26.5276,0,0,0,0,0,0,0,-1,1098,477,1.70634,26.5276
-119,547,0.967651,-24.9351,0,0,0,0,0,0,0,-1,1105,477,0.967657,24.9351
-112,547,1.15674,-22.2276,0,0,0,0,0,0,0,-1,1112,477,1.15677,22.2276
-105,547,0.966797,-20.5777,0,0,0,0,0,0,0,-1,1119,477,0.966804,20.5777
-98,547,0.70166,-18.9755,0,0,0,0,0,0,0,-1,1126,477,0.701713,18.9755
-91,547,1.37805,-7.12024,0,0,0,0,0,0,0,-1,1133,477,1.37804,7.12025
-84,547,1.94202,-6.66241,0,0,0,0,0,0,0,-1,1140,477,1.94201,6.66241
-77,547,-2.28357,1.8588,0,0,0,0,0,0,0,-1,1147,477,-2.28356,-1.85879
-70,547,-3.70178,-0.874908,0,0,0,0,0,0,0,-1,1154,477,-3.70182,0.874918
-63,547,-5.12012,-3.60861,0,0,0,0,0,0,0,-1,1161,477,-5.12009,3.60862
-56,547,-6.01917,-6.2399,0,0,0,0,0,0,0,-1,1168,477,-6.01921,6.23991
-49,547,-6.729,-8.60349,0,0,0,0,0,0,0,-1,1175,477,-6.72899,8.60348
-42,547,-2.41736,-5.53012,0,0,0,0,0,0,0,-1,1182,477,-2.41734,5.53011
-35,547,-2.96838,-4.45734,0,0,0,0,0,0,0,-1,1189,477,-2.96839,4.45734
-28,547,-0.869141,-1.29901,0,0,0,0,0,0,0,-1,1196,477,-0.869135,1.29901
-21,547,-7.68262,-30.8089,0,0,0,0,0,0,0,-1,1203,477,-7.68256,30.8089
-14,547,-0.369873,-32.6582,0,0,0,0,0,0,0,-1,1210,477,-0.369835,32.6582
-7,547,-0.265503,-32.8521,0,0,0,0,0,0,0,-1,1217,477,-0.265543,32.8521
0,547,-0.160889,-33.0137,0,0,0,0,0,0,0,-1,1224,477,-0.160899,33.0137
7,547,9.23621,-46.5676,0,0,0,0,0,0,0,-1,1231,477,9.23617,46.5676
14,547,0,0,0,0,0,0,0,0,0,-1,1238,477,0,0
21,547,0,0,0,0,0,0,0,0,0,-1,1245,477,0,0
28,547,0,0,0,0,0,0,0,0,0,-1,1252,477,0,0
35,547,0,0,0,0,0,0,0,0,0,-1,1259,477,0,0
42,547,0,0,0,0,0,0,0,0,0,-1,1266,477,0,0
49,547,0,0,0,0,0,0,0,0,0,-1,1273,477,0,0
56,547,0,0,0,0,0,0,0,0,0,-1,1280,477,0,0
63,547,0,0,0,0,0,0,0,0,0,-1,1287,477,0,0
70,547,0,0,0,0,0,0,0,0,0,-1,1294,477,0,0
77,547,0,0,0,0,0,0,0,0,0,-1,1301,477,0,0
84,547,0,0,0,0,0,0,0,0,0,-1,1308,477,0,0
91,547,0,0,0,0,0,0,0,0,0,-1,1315,477,0,0
98,547,0,0,0,0,0,0,0,0,0,-1,1322,477,0,0
105,547,3.91467,-42.3568,-0.0250102,0.190831,-0.0527139,0.203017,-0.0371962,-1.34361,0.149296,0.0475717,1329,477,3.91471,42.3567
112,547,3.63855,-43.6404,-0.0121211,0.185002,-0.0540967,0.198872,-0.025991,-1.31981,0.14204,0.0443406,1336,477,3.63855,43.6405
119,547,3.80359,-43.1483,0,0,0,0,0,0,0,-1,1343,477,3.80356,43.1482
126,547,3.88684,-41.921,0.0166631,0.165184,-0.0587849,0.185635,-0.0037881,-1.236,0.125038,0.0441811,1350,477,3.88681,41.921
133,547,3.45789,-42.3817,0.033089,0.150009,-0.0636733,0.177989,0.00510903,-1.15677,0.116993,0.0449133,1357,477,3.45787,42.3817
140,547,3.10779,-43.0074,0,0,0,0,0,0,0,-1,1364,477,3.10782,43.0074
147,547,9.6217,-30.5605,0.0710072,0.112699,-0.077073,0.171695,0.0120107,-0.917472,0.110677,0.0443426,1371,477,9.62174,30.5605
154,547,10.1906,-30.7652,0.0974466,0.0971074,-0.0851514,0.182429,0.0121254,-0.784402,0.117785,0.0469718,1378,477,10.1906,30.7652
161,547,10.8639,-30.8779,0,0,0,0,0,0,0,-1,1385,477,10.8639,30.8779
168,547,13.4181,-26.3557,0,0,0,0,0,0,0,-1,1392,477,13.4181,26.3557
175,547,3.35034,-0.26532,0,0,0,0,0,0,0,-1,1399,477,3.3503,0.265306
182,547,4.26038,3.72672,0,0,0,0,0,0,0,-1,1406,477,4.26039,-3.7267
189,547,3.40454,1.28671,0,0,0,0,0,0,0,-1,1413,477,3.40457,-1.28673
196,547,3.53931,1.87793,0,0,0,0,0,0,0,-1,1420,477,3.53928,-1.87794
203,547,6.49414,-0.425842,0,0,0,0,0,0,0,-1,1427,477,6.4941,0.425844
210,547,4.82092,0.53595,0,0,0,0,0,0,0,-1,1434,477,4.82096,-0.535942
217,547,4.68579,0.480072,0,0,0,0,0,0,0,-1,1441,477,4.68577,-0.480069
224,547,4.55615,0.739807,0,0,0,0,0,0,0,-1,1448,477,4.55613,-0.73981
231,547,5.90869,-3.57721,0,0,0,0,0,0,0,-1,1455,477,5.90871,3.57722
238,547,5.50049,-3.15356,0,0,0,0,0,0,0,-1,1462,477,5.50045,3.15356
245,547,5.13708,-2.65213,0,0,0,0,0,0,0,-1,1469,477,5.13708,2.65212
252,547,3.73511,-0.645233,0,0,0,0,0,0,0,-1,1476,477,3.73515,0.645237
259,547,5.86816,-3.20816,0,0,0,0,0,0,0,-1,1483,477,5.86815,3.20816
266,547,5.40222,-2.45731,0,0,0,0,0,0,0,-1,1490,477,5.40221,2.45732
273,547,3.05737,0.495789,0,0,0,0,0,0,0,-1,1497,477,3.05742,-0.49578
280,547,2.0885,1.47797,0,0,0,0,0,0,0,-1,1504,477,2.08848,-1.47795
287,547,2.31177,-2.21716,0,0,0,0,0,0,0,-1,1511,477,2.31174,2.21717
294,547,2.4823,-3.03659,0,0,0,0,0,0,0,-1,1518,477,2.48229,3.0366
301,547,4.72119,-3.93454,0,0,0,0,0,0,0,-1,1525,477,4.72119,3.93453
308,547,4.07471,-5.42175,0,0,0,0,0,0,0,-1,1532,477,4.07468,5.42174
315,547,3.58496,-6.62112,0,0,0,0,0,0,0,-1,1539,477,3.58497,6.62113
322,547,5.73926,-14.1878,0,0,0,0,0,0,0,-1,1546,477,5.73926,14.1878
329,547,9.08728,-26.9291,0,0,0,0,0,0,0,-1,1553,477,9.08728,26.9291
336,547,9.26074,-26.9708,0,0,0,0,0,0,0,-1,1560,477,9.26075,26.9708
343,547,9.4281,-26.6692,0.000575157,-0.00899682,-0.0050038,0.0027133,-0.011135,-0.403821,0.0084738,0.0480495,1567,477,9.42812,26.6692
350,547,9.37244,-26.1378,1.26654e-05,-0.00771327,-0.00445324,0.00204494,-0.00974554,-0.428129,0.00727511,0.0284047,1574,477,9.37248,26.1377
357,547,9.36621,-25.6956,-0.000377296,-0.0062601,-0.00389107,0.00155903,-0.00819642,-0.461753,0.00605128,0.0151816,1581,477,9.36618,25.6957
364,547,9.34937,-25.2383,-0.000470467,-0.00500959,-0.00316359,0.00115345,-0.00663351,-0.474244,0.00485273,0.0103891,1588,477,9.34941,25.2383
371,547,9.34204,-24.763,-0.000334245,-0.00378495,-0.00240729,0.000902141,-0.00502134,-0.474468,0.00368526,0.00939697,1595,477,9.34206,24.763
378,547,9.34058,-24.2934,-0.000161214,-0.00248661,-0.00166785,0.000709213,-0.00335703,-0.481002,0.00250808,0.0107815,1602,477,9.3406,24.2934
385,547,9.33667,-23.8153,2.28169e-05,-0.00105268,-0.000925725,0.000555649,-0.00158551,-0.522273,0.00128298,0.0111247,1609,477,9.33671,23.8153
392,547,9.33484,-23.325,0.000214476,-2.45089e-05,-0.000310769,0.000427934,-0.000237967,-0.601859,0.000389638,0.0117715,1616,477,9.33484,23.325
399,547,9.31958,-22.832,0.000411969,0.00078965,0.000268577,0.00092913,0.000272489,1.0918,0.000551505,0.0136653,1623,477,9.31964,22.832
406,547,9.32837,-22.3416,0.000484973,0.00164264,0.000783404,0.00203785,8.97574e-05,1.10357,0.00132966,0.0135394,1630,477,9.32836,22.3416
413,547,9.32434,-21.8599,0.000469654,0.00255738,0.00114662,0.00306413,-3.70925e-05,1.15466,0.00205523,0.0133313,1637,477,9.3243,21.8599
420,547,9.32275,-21.385,0.000616563,0.00318702,0.00146705,0.0038522,-4.8607e-05,1.14511,0.00258448,0.0153039,1644,477,9.32274,21.385
427,547,9.30286,-20.8597,0.0010086,0.00385241,0.00187054,0.00478013,8.08868e-05,1.11038,0.00316013,0.0144807,1651,477,9.30283,20.8597
434,547,9.25256,-20.3557,0.00128849,0.00446553,0.0021557,0.00555478,0.000199241,1.10293,0.00363859,0.0102725,1658,477,9.25255,20.3558
441,547,9.22412,-19.8842,0.00164462,0.00399016,0.00217995,0.00529278,0.000342004,1.03218,0.00342022,0.0112245,1665,477,9.22415,19.8842
448,547,9.19812,-19.3226,0.00213559,0.00378499,0.00227821,0.00538318,0.000537403,0.959058,0.00342374,0.0119908,1672,477,9.19808,19.3226
455,547,9.18506,-18.7866,0.0027683,0.00315874,0.00226681,0.00523872,0.000688325,0.828354,0.00328715,0.0111699,1679,477,9.18511,18.7866
462,547,9.12634,-18.2449,0.00338546,0.00201642,0.00216185,0.00496857,0.000433309,0.632074,0.00317781,0.0116245,1686,477,9.12635,18.2449
469,547,9.06506,-17.6587,0.00369141,3.7377e-05,0.00172708,0.00437851,-0.000649723,0.378643,0.00315794,0.0192037,1693,477,9.06507,17.6587
476,547,9.18835,-16.9524,0.00390866,-0.00272343,0.00115677,0.00410463,-0.0029194,0.167821,0.00407452,0.0339456,1700,477,9.18831,16.9524
483,547,9.0304,-16.4937,0,0,0,0,0,0,0,-1,1707,477,9.03042,16.4937
490,547,3.65271,-3.71707,0,0,0,0,0,0,0,-1,1714,477,3.65277,3.71708
497,547,2.55481,-3.81421,0,0,0,0,0,0,0,-1,1721,477,2.55476,3.8142
504,547,4.01953,-2.22714,0,0,0,0,0,0,0,-1,1728,477,4.0195,2.22713
511,547,5.2146,-6.9552,0,0,0,0,0,0,0,-1,1735,477,5.21464,6.95521
518,547,5.24243,-6.56122,0,0,0,0,0,0,0,-1,1742,477,5.24241,6.56121
525,547,5.89368,-5.49866,0,0,0,0,0,0,0,-1,1749,477,5.89372,5.49866
532,547,0,0,0,0,0,0,0,0,0,-1,1756,477,0,0
539,547,0,0,0,0,0,0,0,0,0,-1,1763,477,0,0
546,547,0,0,0,0,0,0,0,0,0,-1,1770,477,0,0
553,547,0,0,0,0,0,0,0,0,0,-1,1777,477,0,0
560,547,0,0,0,0,0,0,0,0,0,-1,1784,477,0,0
567,547,0,0,0,0,0,0,0,0,0,-1,1791,477,0,0
574,547,0,0,0,0,0,0,0,0,0,-1,1798,477,0,0
581,547,0,0,0,0,0,0,0,0,0,-1,1805,477,0,0
588,547,0,0,0,0,0,0,0,0,0,-1,1812,477,0,0
595,547,0,0,0,0,0,0,0,0,0,-1,1819,477,0,0
602,547,0,0,0,0,0,0,0,0,0,-1,1826,477,0,0
609,547,0,0,0,0,0,0,0,0,0,-1,1833,477,0,0
616,547,0,0,0,0,0,0,0,0,0,-1,1840,477,0,0
623,547,0,0,0,0,0,0,0,0,0,-1,1847,477,0,0
630,547,0,0,0,0,0,0,0,0,0,-1,1854,477,0,0
637,547,0,0,0,0,0,0,0,0,0,-1,1861,477,0,0
644,547,0,0,0,0,0,0,0,0,0,-1,1868,477,0,0
651,547,0,0,0,0,0,0,0,0,0,-1,1875,477,0,0
658,547,0,0,0,0,0,0,0,0,0,-1,1882,477,0,0
665,547,0,0,0,0,0,0,0,0,0,-1,1889,477,0,0
672,547,0,0,0,0,0,0,0,0,0,-1,1896,477,0,0
679,547,0,0,0,0,0,0,0,0,0,-1,1903,477,0,0
686,547,0,0,0,0,0,0,0,0,0,-1,1910,477,0,0
693,547,0,0,0,0,0,0,0,0,0,-1,1917,477,0,0
700,547,0,0,0,0,0,0,0,0,0,-1,1924,477,0,0
707,547,0,0,0,0,0,0,0,0,0,-1,1931,477,0,0
714,547,0,0,0,0,0,0,0,0,0,-1,1938,477,0,0
721,547,0,0,0,0,0,0,0,0,0,-1,1945,477,0,0
728,547,0,0,0,0,0,0,0,0,0,-1,1952,477,0,0
735,547,0,0,0,0,0,0,0,0,0,-1,1959,477,0,0
742,547,0,0,0,0,0,0,0,0,0,-1,1966,477,0,0
749,547,0,0,0,0,0,0,0,0,0,-1,1973,477,0,0
756,547,0,0,0,0,0,0,0,0,0,-1,1980,477,0,0
763,547,0,0,0,0,0,0,0,0,0,-1,1987,477,0,0
770,547,0,0,0,0,0,0,0,0,0,-1,1994,477,0,0
777,547,0,0,0,0,0,0,0,0,0,-1,2001,477,0,0
784,547,0,0,0,0,0,0,0,0,0,-1,2008,477,0,0
791,547,0,0,0,0,0,0,0,0,0,-1,2015,477,0,0
798,547,0,0,0,0,0,0,0,0,0,-1,2022,477,0,0
805,547,0,0,0,0,0,0,0,0,0,-1,2029,477,0,0
812,547,0,0,0,0,0,0,0,0,0,-1,2036,477,0,0
-700,540,0,0,0,0,0,0,0,0,0,-1,524,484,0,0
-693,540,0,0,0,0,0,0,0,0,0,-1,531,484,0,0
-686,540,0,0,0,0,0,0,0,0,0,-1,538,484,0,0
-679,540,0,0,0,0,0,0,0,0,0,-1,545,484,0,0
-672,540,0,0,0,0,0,0,0,0,0,-1,552,484,0,0
-665,540,0,0,0,0,0,0,0,0,0,-1,559,484,0,0
-658,540,0,0,0,0,0,0,0,0,0,-1,566,484,0,0
-651,540,0,0,0,0,0,0,0,0,0,-1,573,484,0,0
-644,540,0,0,0,0,0,0,0,0,0,-1,580,484,0,0
-637,540,0,0,0,0,0,0,0,0,0,-1,587,484,0,0
-630,540,0,0,0,0,0,0,0,0,0,-1,594,484,0,0
-623,540,0,0,0,0,0,0,0,0,0,-1,601,484,0,0
-616,540,0,0,0,0,0,0,0,0,0,-1,608,484,0,0
-609,540,0,0,0,0,0,0,0,0,0,-1,615,484,0,0
-602,540,0,0,0,0,0,0,0,0,0,-1,622,484,0,0
-595,540,0,0,0,0,0,0,0,0,0,-1,629,484,0,0
-588,540,0,0,0,0,0,0,0,0,0,-1,636,484,0,0
-581,540,0,0,0,0,0,0,0,0,0,-1,643,484,0,0
-574,540,0,0,0,0,0,0,0,0,0,-1,650,484,0,0
-567,540,0,0,0,0,0,0,0,0,0,-1,657,484,0,0
-560,540,0,0,0,0,0,0,0,0,0,-1,664,484,0,0
-553,540,0,0,0,0,0,0,0,0,0,-1,671,484,0,0
-546,540,0,0,0,0,0,0,0,0,0,-1,678,484,0,0
-539,540,0,0,0,0,0,0,0,0,0,-1,685,484,0,0
-532,540,0,0,0,0,0,0,0,0,0,-1,692,484,0,0
-525,540,0,0,0,0,0,0,0,0,0,-1,699,484,0,0
-518,540,0,0,0,0,0,0,0,0,0,-1,706,484,0,0
-511,540,0,0,0,0,0,0,0,0,0,-1,713,484,0,0
-504,540,0,0,0,0,0,0,0,0,0,-1,720,484,0,0
-497,540,0,0,0,0,0,0,0,0,0,-1,727,484,0,0
-490,540,0,0,0,0,0,0,0,0,0,-1,734,484,0,0
-483,540,0,0,0,0,0,0,0,0,0,-1,741,484,0,0
-476,540,0,0,0,0,0,0,0,0,0,-1,748,484,0,0
-469,540,0,0,0,0,0,0,0,0,0,-1,755,484,0,0
-462,540,0,0,0,0,0,0,0,0,0,-1,762,484,0,0
-455,540,0,0,0,0,0,0,0,0,0,-1,769,484,0,0
-448,540,0,0,0,0,0,0,0,0,0,-1,776,484,0,0
-441,540,0,0,0,0,0,0,0,0,0,-1,783,484,0,0
-434,540,0,0,0,0,0,0,0,0,0,-1,790,484,0,0
-427,540,0,0,0,0,0,0,0,0,0,-1,797,484,0,0
-420,540,0.227051,-10.0402,0,0,0,0,0,0,0,-1,804,484,0.227063,10.0402
-413,540,-0.0393677,-10.3862,0,0,0,0,0,0,0,-1,811,484,-0.0393683,10.3862
-406,540,-0.518372,-11.5288,0,0,0,0,0,0,0,-1,818,484,-0.518402,11.5288
-399,540,0.0863037,-11.3801,0,0,0,0,0,0,0,-1,825,484,0.0863201,11.3801
-392,540,-0.517395,-10.6735,0,0,0,0,0,0,0,-1,832,484,-0.517377,10.6735
-385,540,-2.29407,-5.03418,0,0,0,0,0,0,0,-1,839,484,-2.29408,5.03418
-378,540,1.06445,-10.5824,0,0,0,0,0,0,0,-1,846,484,1.06446,10.5824
-371,540,1.14825,-10.7452,0,0,0,0,0,0,0,-1,853,484,1.14827,10.7452
-364,540,-0.125,-17.5527,0,0,0,0,0,0,0,-1,860,484,-0.124986,17.5527
-357,540,0.281372,-17.433,0,0,0,0,0,0,0,-1,867,484,0.281347,17.433
-350,540,0.201111,-18.0641,0.00322501,0.0129746,-0.00933945,0.0186349,-0.00243533,-1.02593,0.0133095,0.0361517,874,484,0.201087,18.0641
-343,540,0.174194,-18.8262,0.00200915,0.0101768,-0.0072626,0.014425,-0.00223909,-1.04152,0.0104433,0.0198134,881,484,0.174198,18.8262
-336,540,0.111694,-19.4935,0.00142337,0.0083875,-0.00593333,0.0117851,-0.00197419,-1.05075,0.00859071,0.0127582,888,484,0.11167,19.4935
-329,540,0.0890503,-19.9889,0.00106216,0.00646882,-0.00468666,0.00917592,-0.00164494,-1.047,0.00673291,0.0106554,895,484,0.0890572,19.9889
-322,540,0.0646973,-20.4933,0.000889981,0.0049328,-0.00371321,0.00713916,-0.00131638,-1.03466,0.0052535,0.014943,902,484,0.0647072,20.4933
-315,540,0.050415,-21.0023,0.000797453,0.00409608,-0.0029492,0.00582582,-0.000932284,-1.04035,0.00422903,0.0134807,909,484,0.0504354,21.0023
-308,540,0.0473633,-21.4825,0.000644986,0.00351794,-0.00234498,0.00483144,-0.000668518,-1.06021,0.00346536,0.0125308,916,484,0.0473589,21.4826
-301,540,0.0189819,-21.9312,0.000605023,0.00261404,-0.00177209,0.00364653,-0.000427459,-1.04324,0.00258531,0.0123862,923,484,0.0189558,21.9312
-294,540,0.0169678,-22.4092,0.000690335,0.00165412,-0.00114174,0.0024115,-6.7042e-05,-0.985091,0.00163047,0.0110378,930,484,0.0169458,22.4092
-287,540,0.00445557,-22.9078,0.00082212,0.000730265,-0.0005184,0.00129662,0.000255762,-0.741216,0.00079303,0.00842607,937,484,0.00445608,22.9078
-280,540,-0.0197754,-23.3907,0.000983585,-0.0004921,8.24598e-05,0.000988178,-0.000496694,0.0556481,0.000872805,0.00988685,944,484,-0.0197807,23.3907
-273,540,-0.0310669,-23.8554,0.00109386,-0.00162722,0.000764619,0.001294,-0.00182735,0.256003,0.00181086,0.0119265,951,484,-0.0310819,23.8554
-266,540,-0.0345459,-24.3359,0.00135655,-0.00311052,0.00162704,0.00188633,-0.00364031,0.314786,0.00324393,0.0124986,958,484,-0.0345484,24.3359
-259,540,-0.0421753,-24.8035,0.0018324,-0.00489284,0.00255107,0.00269058,-0.00575102,0.324509,0.00497938,0.011867,965,484,-0.0421975,24.8035
-252,540,-0.0289917,-25.2235,0.00221012,-0.00733177,0.00364376,0.00344242,-0.00856407,0.326118,0.00713908,0.0122905,972,484,-0.0289689,25.2235
-245,540,-0.0189209,-25.6642,0.00273218,-0.00972306,0.00487009,0.00441032,-0.0114012,0.331839,0.00942152,0.0121883,979,484,-0.018926,25.6642
-238,540,-0.0430298,-26.0735,0.00364222,-0.0126394,0.00601506,0.00562335,-0.0146205,0.318172,0.0120665,0.00984129,986,484,-0.0430434,26.0735
-231,540,-0.0256348,-26.4826,0.00451292,-0.0156168,0.00726731,0.00686237,-0.0179663,0.312685,0.014805,0.0150252,993,484,-0.0256122,26.4826
-224,540,-0.0582275,-26.8621,0.00529323,-0.0192519,0.0088597,0.00815705,-0.0221157,0.31264,0.0180867,0.0275697,1000,484,-0.0582543,26.8621
-217,540,-0.108704,-27.0892,0.00628897,-0.0233389,0.010431,0.00959295,-0.0266429,0.306748,0.021679,0.0397492,1007,484,-0.108705,27.0892
-210,540,0.0925903,-27.3289,0.00759416,-0.0271342,0.0104692,0.0105061,-0.0300461,0.271282,0.0243019,0.0462281,1014,484,0.0925721,27.3289
-203,540,-0.0344849,-27.1988,0,0,0,0,0,0,0,-1,1021,484,-0.034466,27.1988
-196,540,-0.143799,-26.0272,0,0,0,0,0,0,0,-1,1028,484,-0.143848,26.0272
-189,540,-0.726807,-22.826,0,0,0,0,0,0,0,-1,1035,484,-0.72684,22.8259
-182,540,0.109375,-15.2948,0,0,0,0,0,0,0,-1,1042,484,0.109331,15.2948
-175,540,1.73413,-10.728,0,0,0,0,0,0,0,-1,1049,484,1.73414,10.728
-168,540,1.18164,-7.65347,0,0,0,0,0,0,0,-1,1056,484,1.18163,7.65347
-161,540,-0.405884,-9.86481,0,0,0,0,0,0,0,-1,1063,484,-0.405886,9.8648
-154,540,1.96863,-22.0727,0,0,0,0,0,0,0,-1,1070,484,1.96859,22.0727
-147,540,1.32764,-21.9952,0,0,0,0,0,0,0,-1,1077,484,1.32762,21.9952
-140,540,1.40735,-15.6289,0,0,0,0,0,0,0,-1,1084,484,1.4073,15.6289
-133,540,2.28345,-17.6413,0,0,0,0,0,0,0,-1,1091,484,2.2835,17.6413
-126,540,1.25293,-23.9108,0,0,0,0,0,0,0,-1,1098,484,1.25288,23.9108
-119,540,1.55969,-23.0125,0,0,0,0,0,0,0,-1,1105,484,1.55968,23.0125
-112,540,1.4801,-21.6515,0,0,0,0,0,0,0,-1,1112,484,1.4801,21.6515
-105,540,1.30078,-19.8938,0,0,0,0,0,0,0,-1,1119,484,1.30077,19.8938
-98,540,1.08105,-18.1304,0,0,0,0,0,0,0,-1,1126,484,1.08101,18.1304
-91,540,1.56519,-7.48666,0,0,0,0,0,0,0,-1,1133,484,1.56514,7.48667
-84,540,-0.945923,4.43073,0,0,0,0,0,0,0,-1,1140,484,-0.945891,-4.43074
-77,540,-2.28894,2.14368,0,0,0,0,0,0,0,-1,1147,484,-2.28894,-2.14368
-70,540,-3.75244,-0.452576,0,0,0,0,0,0,0,-1,1154,484,-3.75244,0.452576
-63,540,-5.26257,-3.04767,0,0,0,0,0,0,0,-1,1161,484,-5.26262,3.04766
-56,540,-5.19055,-6.12595,0,0,0,0,0,0,0,-1,1168,484,-5.19057,6.12595
-49,540,-5.63867,-8.52298,0,0,0,0,0,0,0,-1,1175,484,-5.63871,8.52298
-42,540,0,0,0,0,0,0,0,0,0,-1,1182,484,0,0
-35,540,0,0,0,0,0,0,0,0,0,-1,1189,484,0,0
-28,540,0,0,0,0,0,0,0,0,0,-1,1196,484,0,0
-21,540,0,0,0,0,0,0,0,0,0,-1,1203,484,0,0
-14,540,0,0,0,0,0,0,0,0,0,-1,1210,484,0,0
-7,540,0,0,0,0,0,0,0,0,0,-1,1217,484,0,0
0,540,0,0,0,0,0,0,0,0,0,-1,1224,484,0,0
7,540,0,0,0,0,0,0,0,0,0,-1,1231,484,0,0
14,540,0,0,0,0,0,0,0,0,0,-1,1238,484,0,0
21,540,0,0,0,0,0,0,0,0,0,-1,1245,484,0,0
28,540,0,0,0,0,0,0,0,0,0,-1,1252,484,0,0
35,540,0,0,0,0,0,0,0,0,0,-1,1259,484,0,0
42,540,0,0,0,0,0,0,0,0,0,-1,1266,484,0,0
49,540,0,0,0,0,0,0,0,0,0,-1,1273,484,0,0
56,540,0,0,0,0,0,0,0,0,0,-1,1280,484,0,0
63,540,0,0,0,0,0,0,0,0,0,-1,1287,484,0,0
70,540,0,0,0,0,0,0,0,0,0,-1,1294,484,0,0
77,540,0,0,0,0,0,0,0,0,0,-1,1301,484,0,0
84,540,0,0,0,0,0,0,0,0,0,-1,1308,484,0,0
91,540,0,0,0,0,0,0,0,0,0,-1,1315,484,0,0
98,540,0,0,0,0,0,0,0,0,0,-1,1322,484,0,0
105,540,0,0,0,0,0,0,0,0,0,-1,1329,484,0,0
112,540,0,0,0,0,0,0,0,0,0,-1,1336,484,0,0
119,540,0,0,0,0,0,0,0,0,0,-1,1343,484,0,0
126,540,0,0,0,0,0,0,0,0,0,-1,1350,484,0,0
133,540,0,0,0,0,0,0,0,0,0,-1,1357,484,0,0
140,540,0,0,0,0,0,0,0,0,0,-1,1364,484,0,0
147,540,0,0,0,0,0,0,0,0,0,-1,1371,484,0,0
154,540,0,0,0,0,0,0,0,0,0,-1,1378,484,0,0
161,540,0,0,0,0,0,0,0,0,0,-1,1385,484,0,0
168,540,3.05078,-0.0010376,0,0,0,0,0,0,0,-1,1392,484,3.05084,0.00102554
175,540,3.37708,0.617035,0,0,0,0,0,0,0,-1,1399,484,3.37707,-0.617046
182,540,3.32678,1.23267,0,0,0,0,0,0,0,-1,1406,484,3.32678,-1.23266
189,540,3.5813,2.15619,0,0,0,0,0,0,0,-1,1413,484,3.58129,-2.1562
196,540,1.84448,-0.801483,0,0,0,0,0,0,0,-1,1420,484,1.84446,0.80148
203,540,4.14648,0.702087,0,0,0,0,0,0,0,-1,1427,484,4.14645,-0.702089
210,540,4.50671,-0.56076,0,0,0,0,0,0,0,-1,1434,484,4.50667,0.560771
217,540,5.00452,-0.278717,0,0,0,0,0,0,0,-1,1441,484,5.00452,0.278709
224,540,6.44458,-2.83527,0,0,0,0,0,0,0,-1,1448,484,6.44457,2.83525
231,540,6.9231,-3.10504,0,0,0,0,0,0,0,-1,1455,484,6.92307,3.10505
238,540,6.4823,-2.58365,0,0,0,0,0,0,0,-1,1462,484,6.48225,2.58363
245,540,6.02087,-1.97916,0,0,0,0,0,0,0,-1,1469,484,6.02088,1.97915
252,540,6.50647,-3.56006,0,0,0,0,0,0,0,-1,1476,484,6.50649,3.56006
259,540,6.01941,-2.798,0,0,0,0,0,0,0,-1,1483,484,6.01941,2.79801
266,540,5.5332,-2.02853,0,0,0,0,0,0,0,-1,1490,484,5.53323,2.02855
273,540,5.06787,-1.28137,0,0,0,0,0,0,0,-1,1497,484,5.06786,1.28136
280,540,1.62903,-2.14609,0,0,0,0,0,0,0,-1,1504,484,1.62906,2.1461
287,540,1.97156,-2.45053,0,0,0,0,0,0,0,-1,1511,484,1.97159,2.45053
294,540,2.44165,-2.6185,0,0,0,0,0,0,0,-1,1518,484,2.44167,2.6185
301,540,4.36169,-2.54272,0,0,0,0,0,0,0,-1,1525,484,4.36165,2.54272
308,540,4.2019,-4.30469,0,0,0,0,0,0,0,-1,1532,484,4.20193,4.3047
315,540,4.45923,-5.32101,0,0,0,0,0,0,0,-1,1539,484,4.45923,5.32103
322,540,4.71655,-6.33737,0,0,0,0,0,0,0,-1,1546,484,4.71653,6.33736
329,540,5.8949,-12.9383,0,0,0,0,0,0,0,-1,1553,484,5.89492,12.9383
336,540,7.16467,-17.7826,0,0,0,0,0,0,0,-1,1560,484,7.16469,17.7826
343,540,10.0343,-26.8839,0,0,0,0,0,0,0,-1,1567,484,10.0343,26.8839
350,540,9.76782,-26.205,0,0,0,0,0,0,0,-1,1574,484,9.76781,26.205
357,540,9.92188,-25.441,-0.00140099,-0.00847148,-0.00550875,0.00160932,-0.0114818,-0.500121,0.0082435,0.0390251,1581,484,9.92192,25.441
364,540,9.79285,-25.1333,-0.00128041,-0.00695762,-0.00459922,0.00128566,-0.00952369,-0.508915,0.0068182,0.0217025,1588,484,9.7928,25.1333
371,540,9.78577,-24.7227,-0.000897955,-0.00546737,-0.0036603,0.00113216,-0.00749748,-0.506392,0.0054153,0.0144759,1595,484,9.78576,24.7227
378,540,9.80811,-24.2795,-0.000492592,-0.00386661,-0.00271586,0.00101757,-0.00537677,-0.507478,0.00396744,0.0126819,1602,484,9.80811,24.2795
385,540,9.802,-23.8063,-9.31317e-05,-0.00215653,-0.00173906,0.000897232,-0.0031469,-0.517677,0.00245234,0.0145519,1609,484,9.80203,23.8063
392,540,9.79016,-23.3114,0.000241065,-0.000942632,-0.000991017,0.000803513,-0.00150508,-0.516214,0.00135323,0.0130546,1616,484,9.79014,23.3114
399,540,9.78564,-22.8444,0.000496622,-9.08869e-05,-0.000378445,0.000681942,-0.000276207,-0.455364,0.00056948,0.0169505,1623,484,9.78568,22.8444
406,540,9.80334,-22.3529,0.000657245,0.000797969,0.00016984,0.000911445,0.000543768,0.981778,0.000529487,0.0177915,1630,484,9.80338,22.3529
413,540,9.80029,-21.8531,0.000751993,0.00172075,0.000679277,0.00207066,0.000402082,1.09512,0.00126785,0.0140491,1637,484,9.80033,21.8531
420,540,9.82166,-21.3445,0.000887355,0.00239455,0.00109201,0.00296775,0.000314152,1.08742,0.00188254,0.0126953,1644,484,9.82162,21.3444
427,540,9.78552,-20.8337,0.00108518,0.00296808,0.00145031,0.00375572,0.000297547,1.07328,0.00241076,0.0131622,1651,484,9.7855,20.8337
434,540,9.75671,-20.3314,0.00121869,0.00345873,0.00172747,0.0043975,0.000279921,1.07301,0.00284295,0.0161498,1658,484,9.7567,20.3314
441,540,9.76733,-19.8167,0.00144068,0.00327619,0.00186694,0.00443875,0.000278115,1.01384,0.00287096,0.0197144,1665,484,9.76735,19.8167
448,540,9.72058,-19.314,0.00178812,0.00317308,0.00203584,0.00463099,0.00033021,0.949332,0.00298335,0.0122507,1672,484,9.72061,19.314
455,540,9.68616,-18.789,0.00223267,0.00278405,0.00211549,0.00464174,0.000374979,0.850193,0.00297738,0.0104057,1679,484,9.68618,18.789
462,540,9.63879,-18.2497,0.00262264,0.00200668,0.00213737,0.0044741,0.000155219,0.713844,0.00293237,0.0105667,1686,484,9.63878,18.2497
469,540,9.59302,-17.6736,0.00269672,0.00059616,0.00187175,0.00379272,-0.000499843,0.529727,0.0027105,0.0131324,1693,484,9.59305,17.6737
476,540,9.58105,-17.123,0.00266302,-0.00128421,0.00154723,0.00319721,-0.0018184,0.332441,0.00293201,0.0173572,1700,484,9.58107,17.123
483,540,9.60559,-16.5309,0.00231544,-0.00383861,0.000967273,0.00246389,-0.00398706,0.152286,0.00375891,0.032309,1707,484,9.60556,16.5308
490,540,9.80322,-16.1642,0,0,0,0,0,0,0,-1,1714,484,9.8032,16.1642
497,540,9.20886,-14.5695,0,0,0,0,0,0,0,-1,1721,484,9.2088,14.5695
504,540,5.96704,-6.98599,0,0,0,0,0,0,0,-1,1728,484,5.96708,6.98598
511,540,5.82471,-6.83521,0,0,0,0,0,0,0,-1,1735,484,5.82465,6.83522
518,540,9.98181,-12.4608,0,0,0,0,0,0,0,-1,1742,484,9.98187,12.4608
525,540,11.2628,-13.8818,0,0,0,0,0,0,0,-1,1749,484,11.2629,13.8818
532,540,2.84265,-1.07925,0,0,0,0,0,0,0,-1,1756,484,2.84269,1.07927
539,540,0,0,0,0,0,0,0,0,0,-1,1763,484,0,0
546,540,0,0,0,0,0,0,0,0,0,-1,1770,484,0,0
553,540,0,0,0,0,0,0,0,0,0,-1,1777,484,0,0
560,540,0,0,0,0,0,0,0,0,0,-1,1784,484,0,0
567,540,0,0,0,0,0,0,0,0,0,-1,1791,484,0,0
574,540,0,0,0,0,0,0,0,0,0,-1,1798,484,0,0
581,540,0,0,0,0,0,0,0,0,0,-1,1805,484,0,0
588,540,0,0,0,0,0,0,0,0,0,-1,1812,484,0,0
595,540,0,0,0,0,0,0,0,0,0,-1,1819,484,0,0
602,540,0,0,0,0,0,0,0,0,0,-1,1826,484,0,0
609,540,0,0,0,0,0,0,0,0,0,-1,1833,484,0,0
616,540,0,0,0,0,0,0,0,0,0,-1,1840,484,0,0
623,540,0,0,0,0,0,0,0,0,0,-1,1847,484,0,0
630,540,0,0,0,0,0,0,0,0,0,-1,1854,484,0,0
637,540,0,0,0,0,0,0,0,0,0,-1,1861,484,0,0
644,540,0,0,0,0,0,0,0,0,0,-1,1868,484,0,0
651,540,0,0,0,0,0,0,0,0,0,-1,1875,484,0,0
658,540,0,0,0,0,0,0,0,0,0,-1,1882,484,0,0
665,540,0,0,0,0,0,0,0,0,0,-1,1889,484,0,0
672,540,0,0,0,0,0,0,0,0,0,-1,1896,484,0,0
679,540,0,0,0,0,0,0,0,0,0,-1,1903,484,0,0
686,540,0,0,0,0,0,0,0,0,0,-1,1910,484,0,0
693,540,0,0,0,0,0,0,0,0,0,-1,1917,484,0,0
700,540,0,0,0,0,0,0,0,0,0,-1,1924,484,0,0
707,540,0,0,0,0,0,0,0,0,0,-1,1931,484,0,0
714,540,0,0,0,0,0,0,0,0,0,-1,1938,484,0,0
721,540,0,0,0,0,0,0,0,0,0,-1,1945,484,0,0
728,540,0,0,0,0,0,0,0,0,0,-1,1952,484,0,0
735,540,0,0,0,0,0,0,0,0,0,-1,1959,484,0,0
742,540,0,0,0,0,0,0,0,0,0,-1,1966,484,0,0
749,540,0,0,0,0,0,0,0,0,0,-1,1973,484,0,0
756,540,0,0,0,0,0,0,0,0,0,-1,1980,484,0,0
763,540,0,0,0,0,0,0,0,0,0,-1,1987,484,0,0
770,540,0,0,0,0,0,0,0,0,0,-1,1994,484,0,0
777,540,0,0,0,0,0,0,0,0,0,-1,2001,484,0,0
784,540,0,0,0,0,0,0,0,0,0,-1,2008,484,0,0
791,540,0,0,0,0,0,0,0,0,0,-1,2015,484,0,0
798,540,0,0,0,0,0,0,0,0,0,-1,2022,484,0,0
805,540,0,0,0,0,0,0,0,0,0,-1,2029,484,0,0
812,540,0,0,0,0,0,0,0,0,0,-1,2036,484,0,0
-700,533,0,0,0,0,0,0,0,0,0,-1,524,491,0,0
-693,533,0,0,0,0,0,0,0,0,0,-1,531,491,0,0
-686,533,0,0,0,0,0,0,0,0,0,-1,538,491,0,0
-679,533,0,0,0,0,0,0,0,0,0,-1,545,491,0,0
-672,533,0,0,0,0,0,0,0,0,0,-1,552,491,0,0
-665,533,0,0,0,0,0,0,0,0,0,-1,559,491,0,0
-658,533,0,0,0,0,0,0,0,0,0,-1,566,491,0,0
-651,533,0,0,0,0,0,0,0,0,0,-1,573,491,0,0
-644,533,0,0,0,0,0,0,0,0,0,-1,580,491,0,0
-637,533,0,0,0,0,0,0,0,0,0,-1,587,491,0,0
-630,533,0,0,0,0,0,0,0,0,0,-1,594,491,0,0
-623,533,0,0,0,0,0,0,0,0,0,-1,601,491,0,0
-616,533,0,0,0,0,0,0,0,0,0,-1,608,491,0,0
-609,533,0,0,0,0,0,0,0,0,0,-1,615,491,0,0
-602,533,0,0,0,0,0,0,0,0,0,-1,622,491,0,0
-595,533,0,0,0,0,0,0,0,0,0,-1,629,491,0,0
-588,533,0,0,0,0,0,0,0,0,0,-1,636,491,0,0
-581,533,0,0,0,0,0,0,0,0,0,-1,643,491,0,0
-574,533,0,0,0,0,0,0,0,0,0,-1,650,491,0,0
-567,533,0,0,0,0,0,0,0,0,0,-1,657,491,0,0
-560,533,0,0,0,0,0,0,0,0,0,-1,664,491,0,0
-553,533,0,0,0,0,0,0,0,0,0,-1,671,491,0,0
-546,533,0,0,0,0,0,0,0,0,0,-1,678,491,0,0
-539,533,0,0,0,0,0,0,0,0,0,-1,685,491,0,0
-532,533,0,0,0,0,0,0,0,0,0,-1,692,491,0,0
-525,533,0,0,0,0,0,0,0,0,0,-1,699,491,0,0
-518,533,0,0,0,0,0,0,0,0,0,-1,706,491,0,0
-511,533,0,0,0,0,0,0,0,0,0,-1,713,491,0,0
-504,533,0,0,0,0,0,0,0,0,0,-1,720,491,0,0
-497,533,0,0,0,0,0,0,0,0,0,-1,727,491,0,0
-490,533,0,0,0,0,0,0,0,0,0,-1,734,491,0,0
-483,533,0,0,0,0,0,0,0,0,0,-1,741,491,0,0
-476,533,0,0,0,0,0,0,0,0,0,-1,748,491,0,0
-469,533,0,0,0,0,0,0,0,0,0,-1,755,491,0,0
-462,533,0,0,0,0,0,0,0,0,0,-1,762,491,0,0
-455,533,0,0,0,0,0,0,0,0,0,-1,769,491,0,0
-448,533,0,0,0,0,0,0,0,0,0,-1,776,491,0,0
-441,533,0,0,0,0,0,0,0,0,0,-1,783,491,0,0
-434,533,0,0,0,0,0,0,0,0,0,-1,790,491,0,0
-427,533,0.559814,-4.40222,0,0,0,0,0,0,0,-1,797,491,0.559816,4.40222
-420,533,-1.11127,-10.9054,0,0,0,0,0,0,0,-1,804,491,-1.11124,10.9054
-413,533,-0.704773,-11.0942,0,0,0,0,0,0,0,-1,811,491,-0.704742,11.0942
-406,533,-0.670898,-12.0899,0,0,0,0,0,0,0,-1,818,491,-0.670908,12.0899
-399,533,-0.455017,-12.4423,0,0,0,0,0,0,0,-1,825,491,-0.455032,12.4423
-392,533,-1.89661,-10.3905,0,0,0,0,0,0,0,-1,832,491,-1.89661,10.3905
-385,533,-1.69116,-6.64645,0,0,0,0,0,0,0,-1,839,491,-1.69115,6.64645
-378,533,0.0183716,-15.3137,0,0,0,0,0,0,0,-1,846,491,0.0183529,15.3137
-371,533,-0.830688,-17.1256,0,0,0,0,0,0,0,-1,853,491,-0.830705,17.1257
-364,533,-0.535034,-17.4526,0.00561471,0.0187471,-0.0130676,0.0268055,-0.00244367,-1.01821,0.0187381,0.0426862,860,491,-0.535031,17.4526
-357,533,-0.27356,-17.7811,0.00419037,0.0143361,-0.0103249,0.0207671,-0.00224057,-1.01374,0.0146488,0.0246331,867,491,-0.273549,17.7811
-350,533,-0.2724,-18.3792,0.00288211,0.0109457,-0.00797068,0.0158463,-0.00201845,-1.01955,0.0112973,0.0147515,874,491,-0.272426,18.3792
-343,533,-0.321167,-18.9558,0.0017786,0.00834823,-0.00602075,0.0119219,-0.00179512,-1.03512,0.00860895,0.0125513,881,491,-0.321177,18.9558
-336,533,-0.365967,-19.4867,0.00124018,0.00658584,-0.00474112,0.00935565,-0.00152962,-1.04207,0.00680452,0.0148904,888,491,-0.365938,19.4867
-329,533,-0.38501,-19.9655,0.00094162,0.00479879,-0.00357591,0.00693304,-0.00119262,-1.0327,0.00506657,0.0143199,895,491,-0.385018,19.9655
-322,533,-0.417542,-20.4659,0.000814647,0.00337646,-0.0026638,0.00505132,-0.000860214,-1.00951,0.00368788,0.0123546,902,491,-0.417537,20.4659
-315,533,-0.441833,-20.9778,0.00077759,0.00258688,-0.00193754,0.00382056,-0.000456088,-1.00381,0.00271188,0.0132833,909,491,-0.441844,20.9778
-308,533,-0.464111,-21.4527,0.000704564,0.00200798,-0.00135417,0.0028591,-0.000146557,-1.00967,0.00195675,0.0123255,916,491,-0.464089,21.4527
-301,533,-0.496399,-21.91,0.000705272,0.00111019,-0.000782732,0.00171622,9.92396e-05,-0.911953,0.00111255,0.0129395,923,491,-0.496419,21.91
-294,533,-0.47345,-22.3817,0.000836687,0.000232892,-0.000193188,0.000893208,0.000176371,-0.284626,0.000546256,0.0117984,930,491,-0.473473,22.3817
-287,533,-0.461914,-22.8857,0.00102831,-0.000646766,0.000389188,0.00111432,-0.000732774,0.217498,0.00107398,0.00959297,937,491,-0.461892,22.8857
-280,533,-0.476563,-23.3767,0.00122657,-0.00191321,0.00097668,0.00150559,-0.00219223,0.278268,0.00214717,0.00914748,944,491,-0.476533,23.3767
-273,533,-0.497498,-23.8395,0.00136131,-0.00310836,0.00165147,0.00190529,-0.00365234,0.318201,0.00326112,0.0127799,951,491,-0.497521,23.8395
-266,533,-0.489258,-24.3119,0.00171059,-0.00467954,0.00255646,0.00260746,-0.00557641,0.33741,0.00482749,0.0120836,958,491,-0.489255,24.3119
-259,533,-0.480286,-24.775,0.00232812,-0.00661513,0.00353834,0.00355871,-0.00784573,0.334703,0.00673764,0.0124587,965,491,-0.480262,24.775
-252,533,-0.479004,-25.2002,0.00279921,-0.00947897,0.00476162,0.00442939,-0.0111091,0.32985,0.00924336,0.0154138,972,491,-0.479025,25.2002
-245,533,-0.538208,-25.596,0.00335813,-0.0123158,0.0062223,0.00552792,-0.0144856,0.335526,0.0119343,0.0252777,979,491,-0.538191,25.596
-238,533,-0.434204,-25.9596,0.00440158,-0.0158385,0.00762188,0.00695073,-0.0183876,0.322757,0.0151177,0.0323993,986,491,-0.434188,25.9596
-231,533,-0.338684,-26.1108,0.00545124,-0.0196577,0.00925857,0.00849599,-0.0227024,0.317718,0.0186245,0.0493596,993,491,-0.338674,26.1108
-224,533,-0.522522,-26.8619,0,0,0,0,0,0,0,-1,1000,491,-0.522503,26.8619
-217,533,-0.583801,-27.0491,0,0,0,0,0,0,0,-1,1007,491,-0.583773,27.0491
-210,533,-0.164307,-27.2274,0,0,0,0,0,0,0,-1,1014,491,-0.164294,27.2274
-203,533,-0.584229,-27.4276,0,0,0,0,0,0,0,-1,1021,491,-0.584252,27.4276
-196,533,0.688354,-19.5743,0,0,0,0,0,0,0,-1,1028,491,0.688406,19.5743
-189,533,-0.169189,-15.0303,0,0,0,0,0,0,0,-1,1035,491,-0.169241,15.0303
-182,533,1.26123,-11.4969,0,0,0,0,0,0,0,-1,1042,491,1.26128,11.4969
-175,533,0.937744,-7.36966,0,0,0,0,0,0,0,-1,1049,491,0.937769,7.36965
-168,533,2.64807,-2.7543,0,0,0,0,0,0,0,-1,1056,491,2.64812,2.7543
-161,533,1.91833,-1.76553,0,0,0,0,0,0,0,-1,1063,491,1.91836,1.76554
-154,533,0.376709,-11.0633,0,0,0,0,0,0,0,-1,1070,491,0.376715,11.0632
-147,533,0.383789,-12.1586,0,0,0,0,0,0,0,-1,1077,491,0.383829,12.1586
-140,533,1.14001,-15.4608,0,0,0,0,0,0,0,-1,1084,491,1.14005,15.4608
-133,533,0.189941,-16.0795,0,0,0,0,0,0,0,-1,1091,491,0.18994,16.0795
-126,533,2.89612,-2.59003,0,0,0,0,0,0,0,-1,1098,491,2.89608,2.59003
-119,533,1.78284,-22.5394,0,0,0,0,0,0,0,-1,1105,491,1.78279,22.5394
-112,533,1.83862,-21.2401,0,0,0,0,0,0,0,-1,1112,491,1.83859,21.24
-105,533,1.67554,-19.4018,0,0,0,0,0,0,0,-1,1119,491,1.6755,19.4018
-98,533,-1.39392,-5.16367,0,0,0,0,0,0,0,-1,1126,491,-1.39394,5.16367
-91,533,0.367432,4.49753,0,0,0,0,0,0,0,-1,1133,491,0.367468,-4.49754
-84,533,-0.88623,3.03604,0,0,0,0,0,0,0,-1,1140,491,-0.886288,-3.03605
-77,533,0,0,0,0,0,0,0,0,0,-1,1147,491,0,0
-70,533,0,0,0,0,0,0,0,0,0,-1,1154,491,0,0
-63,533,0,0,0,0,0,0,0,0,0,-1,1161,491,0,0
-56,533,0,0,0,0,0,0,0,0,0,-1,1168,491,0,0
-49,533,0,0,0,0,0,0,0,0,0,-1,1175,491,0,0
-42,533,0,0,0,0,0,0,0,0,0,-1,1182,491,0,0
-35,533,0,0,0,0,0,0,0,0,0,-1,1189,491,0,0
-28,533,0,0,0,0,0,0,0,0,0,-1,1196,491,0,0
-21,533,0,0,0,0,0,0,0,0,0,-1,1203,491,0,0
-14,533,0,0,0,0,0,0,0,0,0,-1,1210,491,0,0
-7,533,0,0,0,0,0,0,0,0,0,-1,1217,491,0,0
0,533,0,0,0,0,0,0,0,0,0,-1,1224,491,0,0
7,533,0,0,0,0,0,0,0,0,0,-1,1231,491,0,0
14,533,0,0,0,0,0,0,0,0,0,-1,1238,491,0,0
21,533,0,0,0,0,0,0,0,0,0,-1,1245,491,0,0
28,533,0,0,0,0,0,0,0,0,0,-1,1252,491,0,0
35,533,0,0,0,0,0,0,0,0,0,-1,1259,491,0,0
42,533,0,0,0,0,0,0,0,0,0,-1,1266,491,0,0
49,533,0,0,0,0,0,0,0,0,0,-1,1273,491,0,0
56,533,0,0,0,0,0,0,0,0,0,-1,1280,491,0,0
63,533,0,0,0,0,0,0,0,0,0,-1,1287,491,0,0
70,533,0,0,0,0,0,0,0,0,0,-1,1294,491,0,0
77,533,0,0,0,0,0,0,0,0,0,-1,1301,491,0,0
84,533,0,0,0,0,0,0,0,0,0,-1,1308,491,0,0
91,533,0,0,0,0,0,0,0,0,0,-1,1315,491,0,0
98,533,0,0,0,0,0,0,0,0,0,-1,1322,491,0,0
105,533,0,0,0,0,0,0,0,0,0,-1,1329,491,0,0
112,533,0,0,0,0,0,0,0,0,0,-1,1336,491,0,0
119,533,0,0,0,0,0,0,0,0,0,-1,1343,491,0,0
126,533,0,0,0,0,0,0,0,0,0,-1,1350,491,0,0
133,533,0,0,0,0,0,0,0,0,0,-1,1357,491,0,0
140,533,0,0,0,0,0,0,0,0,0,-1,1364,491,0,0
147,533,0,0,0,0,0,0,0,0,0,-1,1371,491,0,0
154,533,0,0,0,0,0,0,0,0,0,-1,1378,491,0,0
161,533,0,0,0,0,0,0,0,0,0,-1,1385,491,0,0
168,533,0,0,0,0,0,0,0,0,0,-1,1392,491,0,0
175,533,0,0,0,0,0,0,0,0,0,-1,1399,491,0,0
182,533,0,0,0,0,0,0,0,0,0,-1,1406,491,0,0
189,533,0,0,0,0,0,0,0,0,0,-1,1413,491,0,0
196,533,0,0,0,0,0,0,0,0,0,-1,1420,491,0,0
203,533,3.7887,1.16193,0,0,0,0,0,0,0,-1,1427,491,3.78872,-1.16193
210,533,5.09558,-0.216034,0,0,0,0,0,0,0,-1,1434,491,5.09559,0.216028
217,533,6.91614,-2.46814,0,0,0,0,0,0,0,-1,1441,491,6.91618,2.46814
224,533,7.23621,-2.1857,0,0,0,0,0,0,0,-1,1448,491,7.23621,2.1857
231,533,7.23474,-1.92282,0,0,0,0,0,0,0,-1,1455,491,7.2347,1.92282
238,533,7.23535,-1.67258,0,0,0,0,0,0,0,-1,1462,491,7.23539,1.67258
245,533,6.86682,-1.2301,0,0,0,0,0,0,0,-1,1469,491,6.86686,1.23011
252,533,6.63354,-3.07825,0,0,0,0,0,0,0,-1,1476,491,6.6335,3.07824
259,533,6.16431,-2.35037,0,0,0,0,0,0,0,-1,1483,491,6.1643,2.35037
266,533,5.68884,-1.6214,0,0,0,0,0,0,0,-1,1490,491,5.68885,1.6214
273,533,5.21399,-0.864227,0,0,0,0,0,0,0,-1,1497,491,5.21403,0.864227
280,533,1.41089,-1.97946,0,0,0,0,0,0,0,-1,1504,491,1.41087,1.97946
287,533,1.6814,-2.44443,0,0,0,0,0,0,0,-1,1511,491,1.6814,2.44444
294,533,2.2384,-2.57626,0,0,0,0,0,0,0,-1,1518,491,2.23839,2.57625
301,533,3.39941,-4.0817,0,0,0,0,0,0,0,-1,1525,491,3.3994,4.08171
308,533,4.13733,-4.14752,0,0,0,0,0,0,0,-1,1532,491,4.13727,4.14752
315,533,4.80762,-5.29349,0,0,0,0,0,0,0,-1,1539,491,4.80762,5.29347
322,533,5.47803,-6.43942,0,0,0,0,0,0,0,-1,1546,491,5.47798,6.43943
329,533,3.88477,-3.86301,0,0,0,0,0,0,0,-1,1553,491,3.88475,3.86299
336,533,6.70923,-13.2003,0,0,0,0,0,0,0,-1,1560,491,6.70926,13.2004
343,533,7.06677,-17.1133,0,0,0,0,0,0,0,-1,1567,491,7.06673,17.1133
350,533,10.0876,-23.7254,0,0,0,0,0,0,0,-1,1574,491,10.0877,23.7254
357,533,10.4336,-25.22,0,0,0,0,0,0,0,-1,1581,491,10.4336,25.22
364,533,10.4041,-24.8707,-0.00246028,-0.00854391,-0.00609997,0.00131423,-0.0123184,-0.55411,0.00868357,0.0408691,1588,491,10.404,24.8707
371,533,10.2303,-24.6118,-0.0017295,-0.00666087,-0.00489418,0.00128502,-0.00967538,-0.552057,0.00691849,0.0363829,1595,491,10.2303,24.6118
378,533,10.2007,-24.2005,-0.00101632,-0.00465228,-0.00366478,0.00125662,-0.00692522,-0.555149,0.00508768,0.0273944,1602,491,10.2007,24.2005
385,533,10.2921,-23.7573,-0.000332921,-0.00267884,-0.00239832,0.00116391,-0.00417567,-0.557963,0.00324215,0.0221097,1609,491,10.2921,23.7573
392,533,10.2877,-23.2985,0.000180231,-0.00132906,-0.0015151,0.00111822,-0.00226705,-0.554342,0.00199165,0.0136167,1616,491,10.2877,23.2985
399,533,10.2876,-22.8449,0.000517952,-0.000520851,-0.000889503,0.0010286,-0.00103149,-0.521141,0.00118939,0.012885,1623,491,10.2876,22.8449
406,533,10.299,-22.3582,0.000793172,0.000316693,-0.000328127,0.000960426,0.000149439,-0.471398,0.000596742,0.0160902,1630,491,10.2989,22.3582
413,533,10.2892,-21.8274,0.00102656,0.00117847,0.000293679,0.00140586,0.000799173,0.911939,0.000814204,0.0140371,1637,491,10.2891,21.8274
420,533,10.2814,-21.3281,0.00117284,0.00183797,0.000771119,0.00234518,0.000665628,0.988987,0.00139554,0.0124712,1644,491,10.2813,21.3281
427,533,10.2827,-20.8057,0.00120732,0.00229827,0.00107325,0.00295671,0.000548878,1.02051,0.00181604,0.0130369,1651,491,10.2827,20.8057
434,533,10.2637,-20.3214,0.00122535,0.00267681,0.00132735,0.00346387,0.000438291,1.03557,0.0021779,0.0131486,1658,491,10.2636,20.3214
441,533,10.2747,-19.8067,0.00133697,0.00270067,0.00153628,0.00369962,0.000338021,0.994255,0.00236181,0.0159606,1665,491,10.2747,19.8067
448,533,10.2463,-19.2961,0.00156432,0.00266098,0.0017492,0.00394579,0.000279517,0.937284,0.00254248,0.0172399,1672,491,10.2464,19.2961
455,533,10.1942,-18.787,0.00184802,0.00244681,0.00188354,0.00405461,0.000240227,0.864215,0.00262666,0.0164173,1679,491,10.1942,18.787
462,533,10.1522,-18.2172,0.00206068,0.00192436,0.00197605,0.00396975,1.52949e-05,0.768159,0.00264142,0.0146575,1686,491,10.1522,18.2172
469,533,10.1488,-17.6823,0.00198003,0.000919231,0.00182831,0.00335332,-0.000454057,0.644222,0.00240125,0.00961261,1693,491,10.1489,17.6823
476,533,10.1405,-17.1312,0.00177457,-0.00036443,0.00166708,0.00268572,-0.00127558,0.500194,0.00233486,0.01054,1700,491,10.1405,17.1312
483,533,10.1582,-16.5372,0.00130237,-0.00208481,0.00130723,0.0017482,-0.00253064,0.328676,0.00248412,0.0176604,1707,491,10.1582,16.5372
490,533,10.2429,-16.0568,0.000392299,-0.00443568,0.000789898,0.000518247,-0.00456163,0.158118,0.00322774,0.0436692,1714,491,10.243,16.0568
497,533,10.3929,-15.5405,0,0,0,0,0,0,0,-1,1721,491,10.393,15.5405
504,533,10.163,-14.7439,0,0,0,0,0,0,0,-1,1728,491,10.1629,14.7439
511,533,10.2836,-14.3507,0,0,0,0,0,0,0,-1,1735,491,10.2835,14.3507
518,533,9.56628,-14.3059,0,0,0,0,0,0,0,-1,1742,491,9.56627,14.3059
525,533,9.81628,-14.2172,0,0,0,0,0,0,0,-1,1749,491,9.81631,14.2172
532,533,11.3622,-12.9383,0,0,0,0,0,0,0,-1,1756,491,11.3622,12.9383
539,533,3.61609,1.62427,0,0,0,0,0,0,0,-1,1763,491,3.61606,-1.62426
546,533,3.59607,1.65799,0,0,0,0,0,0,0,-1,1770,491,3.59605,-1.658
553,533,0,0,0,0,0,0,0,0,0,-1,1777,491,0,0
560,533,0,0,0,0,0,0,0,0,0,-1,1784,491,0,0
567,533,0,0,0,0,0,0,0,0,0,-1,1791,491,0,0
574,533,0,0,0,0,0,0,0,0,0,-1,1798,491,0,0
581,533,0,0,0,0,0,0,0,0,0,-1,1805,491,0,0
588,533,0,0,0,0,0,0,0,0,0,-1,1812,491,0,0
595,533,0,0,0,0,0,0,0,0,0,-1,1819,491,0,0
602,533,0,0,0,0,0,0,0,0,0,-1,1826,491,0,0
609,533,0,0,0,0,0,0,0,0,0,-1,1833,491,0,0
616,533,0,0,0,0,0,0,0,0,0,-1,1840,491,0,0
623,533,0,0,0,0,0,0,0,0,0,-1,1847,491,0,0
630,533,0,0,0,0,0,0,0,0,0,-1,1854,491,0,0
637,533,0,0,0,0,0,0,0,0,0,-1,1861,491,0,0
644,533,0,0,0,0,0,0,0,0,0,-1,1868,491,0,0
651,533,0,0,0,0,0,0,0,0,0,-1,1875,491,0,0
658,533,0,0,0,0,0,0,0,0,0,-1,1882,491,0,0
665,533,0,0,0,0,0,0,0,0,0,-1,1889,491,0,0
672,533,0,0,0,0,0,0,0,0,0,-1,1896,491,0,0
679,533,0,0,0,0,0,0,0,0,0,-1,1903,491,0,0
686,533,0,0,0,0,0,0,0,0,0,-1,1910,491,0,0
693,533,0,0,0,0,0,0,0,0,0,-1,1917,491,0,0
700,533,0,0,0,0,0,0,0,0,0,-1,1924,491,0,0
707,533,0,0,0,0,0,0,0,0,0,-1,1931,491,0,0
714,533,0,0,0,0,0,0,0,0,0,-1,1938,491,0,0
721,533,0,0,0,0,0,0,0,0,0,-1,1945,491,0,0
728,533,0,0,0,0,0,0,0,0,0,-1,1952,491,0,0
735,533,0,0,0,0,0,0,0,0,0,-1,1959,491,0,0
742,533,0,0,0,0,0,0,0,0,0,-1,1966,491,0,0
749,533,0,0,0,0,0,0,0,0,0,-1,1973,491,0,0
756,533,0,0,0,0,0,0,0,0,0,-1,1980,491,0,0
763,533,0,0,0,0,0,0,0,0,0,-1,1987,491,0,0
770,533,0,0,0,0,0,0,0,0,0,-1,1994,491,0,0
777,533,0,0,0,0,0,0,0,0,0,-1,2001,491,0,0
784,533,0,0,0,0,0,0,0,0,0,-1,2008,491,0,0
791,533,0,0,0,0,0,0,0,0,0,-1,2015,491,0,0
798,533,0,0,0,0,0,0,0,0,0,-1,2022,491,0,0
805,533,0,0,0,0,0,0,0,0,0,-1,2029,491,0,0
812,533,0,0,0,0,0,0,0,0,0,-1,2036,491,0,0
-700,526,0,0,0,0,0,0,0,0,0,-1,524,498,0,0
-693,526,0,0,0,0,0,0,0,0,0,-1,531,498,0,0
-686,526,0,0,0,0,0,0,0,0,0,-1,538,498,0,0
-679,526,0,0,0,0,0,0,0,0,0,-1,545,498,0,0
-672,526,0,0,0,0,0,0,0,0,0,-1,552,498,0,0
-665,526,0,0,0,0,0,0,0,0,0,-1,559,498,0,0
-658,526,0,0,0,0,0,0,0,0,0,-1,566,498,0,0
-651,526,0,0,0,0,0,0,0,0,0,-1,573,498,0,0
-644,526,0,0,0,0,0,0,0,0,0,-1,580,498,0,0
-637,526,0,0,0,0,0,0,0,0,0,-1,587,498,0,0
-630,526,0,0,0,0,0,0,0,0,0,-1,594,498,0,0
-623,526,0,0,0,0,0,0,0,0,0,-1,601,498,0,0
-616,526,0,0,0,0,0,0,0,0,0,-1,608,498,0,0
-609,526,0,0,0,0,0,0,0,0,0,-1,615,498,0,0
-602,526,0,0,0,0,0,0,0,0,0,-1,622,498,0,0
-595,526,0,0,0,0,0,0,0,0,0,-1,629,498,0,0
-588,526,0,0,0,0,0,0,0,0,0,-1,636,498,0,0
-581,526,0,0,0,0,0,0,0,0,0,-1,643,498,0,0
-574,526,0,0,0,0,0,0,0,0,0,-1,650,498,0,0
-567,526,0,0,0,0,0,0,0,0,0,-1,657,498,0,0
-560,526,0,0,0,0,0,0,0,0,0,-1,664,498,0,0
-553,526,0,0,0,0,0,0,0,0,0,-1,671,498,0,0
-546,526,0,0,0,0,0,0,0,0,0,-1,678,498,0,0
-539,526,0,0,0,0,0,0,0,0,0,-1,685,498,0,0
-532,526,0,0,0,0,0,0,0,0,0,-1,692,498,0,0
-525,526,0,0,0,0,0,0,0,0,0,-1,699,498,0,0
-518,526,0,0,0,0,0,0,0,0,0,-1,706,498,0,0
-511,526,0,0,0,0,0,0,0,0,0,-1,713,498,0,0
-504,526,0,0,0,0,0,0,0,0,0,-1,720,498,0,0
-497,526,0,0,0,0,0,0,0,0,0,-1,727,498,0,0
-490,526,0,0,0,0,0,0,0,0,0,-1,734,498,0,0
-483,526,0,0,0,0,0,0,0,0,0,-1,741,498,0,0
-476,526,0,0,0,0,0,0,0,0,0,-1,748,498,0,0
-469,526,0,0,0,0,0,0,0,0,0,-1,755,498,0,0
-462,526,0,0,0,0,0,0,0,0,0,-1,762,498,0,0
-455,526,0,0,0,0,0,0,0,0,0,-1,769,498,0,0
-448,526,0,0,0,0,0,0,0,0,0,-1,776,498,0,0
-441,526,0,0,0,0,0,0,0,0,0,-1,783,498,0,0
-434,526,-0.153564,-5.96649,0,0,0,0,0,0,0,-1,790,498,-0.153589,5.9665
-427,526,1.23206,-4.59808,0,0,0,0,0,0,0,-1,797,498,1.23208,4.59809
-420,526,-1.76373,-11.6241,0,0,0,0,0,0,0,-1,804,498,-1.76373,11.6241
-413,526,-1.38965,-11.7916,0,0,0,0,0,0,0,-1,811,498,-1.38963,11.7916
-406,526,-1.35187,-12.5182,0,0,0,0,0,0,0,-1,818,498,-1.35185,12.5181
-399,526,-1.32715,-13.2116,0,0,0,0,0,0,0,-1,825,498,-1.32713,13.2116
-392,526,-2.27356,-11.5593,0,0,0,0,0,0,0,-1,832,498,-2.27357,11.5593
-385,526,-0.734924,-14.4575,0,0,0,0,0,0,0,-1,839,498,-0.7349,14.4575
-378,526,-0.618958,-15.4544,0.00863061,0.0255444,-0.0177041,0.0367078,-0.00253277,-1.00821,0.0253583,0.0490238,846,498,-0.618952,15.4544
-371,526,-0.756226,-16.5274,0.00649788,0.0200784,-0.0140409,0.0288848,-0.00230851,-1.01062,0.0200703,0.0373998,853,498,-0.756223,16.5274
-364,526,-0.825195,-17.2534,0.00487764,0.0156745,-0.0110684,0.0225908,-0.0020387,-1.01229,0.015784,0.0198244,860,498,-0.825181,17.2534
-357,526,-0.761719,-17.8367,0.00363161,0.0119453,-0.0086709,0.0174043,-0.00182736,-1.00891,0.0122575,0.0129924,867,498,-0.761694,17.8367
-350,526,-0.77417,-18.3872,0.00256812,0.00885186,-0.00657919,0.0130009,-0.00158089,-1.00816,0.00923941,0.011886,874,498,-0.774172,18.3872
-343,526,-0.827942,-18.9199,0.00162794,0.00645185,-0.00478856,0.00940159,-0.0013218,-1.0187,0.0067516,0.0156991,881,498,-0.827927,18.9199
-336,526,-0.861572,-19.4398,0.00117966,0.00480189,-0.00363061,0.00704805,-0.0010665,-1.01676,0.00509157,0.0152105,888,498,-0.8616,19.4397
-329,526,-0.875916,-19.9388,0.000971655,0.00318184,-0.00260086,0.00490265,-0.000749152,-0.986289,0.00354464,0.0154168,895,498,-0.875926,19.9388
-322,526,-0.883667,-20.4169,0.000903533,0.00191709,-0.00178581,0.00326664,-0.000446019,-0.923653,0.00234064,0.0106981,902,498,-0.883693,20.4169
-315,526,-0.910889,-20.941,0.000919203,0.0012135,-0.00113106,0.00220695,-7.424e-05,-0.850085,0.00149666,0.00961443,909,498,-0.910902,20.9411
-308,526,-0.937561,-21.4592,0.000924696,0.000682533,-0.000597912,0.00141366,0.000193566,-0.685496,0.000885004,0.0089355,916,498,-0.937556,21.4592
-301,526,-0.973328,-21.9176,0.000958152,-0.000139814,-4.52536e-05,0.000960014,-0.000141676,-0.0411228,0.000692086,0.0101167,923,498,-0.973351,21.9176
-294,526,-0.954773,-22.3718,0.00111213,-0.00085323,0.00048725,0.0012263,-0.000967397,0.230156,0.00126947,0.00961495,930,498,-0.954802,22.3718
-287,526,-0.95459,-22.8484,0.00133252,-0.00161488,0.00102544,0.00165419,-0.00193654,0.30396,0.00207524,0.00952579,937,498,-0.95457,22.8484
-280,526,-0.986816,-23.3201,0.0015384,-0.00288062,0.00162149,0.00206954,-0.00341176,0.316549,0.0031961,0.0128277,944,498,-0.98679,23.3201
-273,526,-0.978394,-23.8116,0.00169086,-0.00412549,0.00230893,0.00249599,-0.00493062,0.335519,0.00436388,0.0115436,951,498,-0.9784,23.8117
-266,526,-0.966492,-24.2856,0.00213463,-0.00581522,0.00329447,0.00332241,-0.007003,0.346032,0.00608631,0.0117918,958,498,-0.966519,24.2857
-259,526,-0.921753,-24.6998,0.00292526,-0.00797638,0.00439242,0.00447478,-0.0095259,0.339142,0.00825679,0.0259796,965,498,-0.921747,24.6998
-252,526,-1.02679,-24.9203,0.0035058,-0.011434,0.00583637,0.00551549,-0.0134437,0.331622,0.0112606,0.0430807,972,498,-1.02679,24.9204
-245,526,-0.993042,-25.5383,0,0,0,0,0,0,0,-1,979,498,-0.993055,25.5384
-238,526,-0.858582,-25.9279,0,0,0,0,0,0,0,-1,986,498,-0.858558,25.9279
-231,526,-0.547424,-25.8486,0,0,0,0,0,0,0,-1,993,498,-0.547419,25.8486
-224,526,-0.292603,-23.2656,0,0,0,0,0,0,0,-1,1000,498,-0.292617,23.2656
-217,526,-0.541504,-25.9099,0,0,0,0,0,0,0,-1,1007,498,-0.541484,25.9099
-210,526,-0.717834,-26.676,0,0,0,0,0,0,0,-1,1014,498,-0.717808,26.676
-203,526,-0.659302,-18.8818,0,0,0,0,0,0,0,-1,1021,498,-0.659273,18.8818
-196,526,-0.328247,-12.179,0,0,0,0,0,0,0,-1,1028,498,-0.328238,12.179
-189,526,0.401245,-5.96826,0,0,0,0,0,0,0,-1,1035,498,0.401197,5.96826
-182,526,1.7323,-2.99405,0,0,0,0,0,0,0,-1,1042,498,1.73226,2.99404
-175,526,2.27637,-2.07983,0,0,0,0,0,0,0,-1,1049,498,2.27639,2.07984
-168,526,2.12036,-1.66049,0,0,0,0,0,0,0,-1,1056,498,2.12035,1.66048
-161,526,2.09082,-1.20572,0,0,0,0,0,0,0,-1,1063,498,2.09086,1.2057
-154,526,-1.3446,-5.37799,0,0,0,0,0,0,0,-1,1070,498,-1.34457,5.37799
-147,526,-0.472656,-6.64996,0,0,0,0,0,0,0,-1,1077,498,-0.472659,6.64997
-140,526,0.422852,-8.03339,0,0,0,0,0,0,0,-1,1084,498,0.422844,8.0334
-133,526,1.09583,-9.2215,0,0,0,0,0,0,0,-1,1091,498,1.09581,9.2215
-126,526,3.42529,-2.36053,0,0,0,0,0,0,0,-1,1098,498,3.42523,2.36052
-119,526,2.7771,-0.764099,0,0,0,0,0,0,0,-1,1105,498,2.7771,0.764107
-112,526,2.57715,-1.1893,0,0,0,0,0,0,0,-1,1112,498,2.57718,1.1893
-105,526,0,0,0,0,0,0,0,0,0,-1,1119,498,0,0
-98,526,0,0,0,0,0,0,0,0,0,-1,1126,498,0,0
-91,526,0,0,0,0,0,0,0,0,0,-1,1133,498,0,0
-84,526,0,0,0,0,0,0,0,0,0,-1,1140,498,0,0
-77,526,0,0,0,0,0,0,0,0,0,-1,1147,498,0,0
-70,526,0,0,0,0,0,0,0,0,0,-1,1154,498,0,0
-63,526,0,0,0,0,0,0,0,0,0,-1,1161,498,0,0
-56,526,0,0,0,0,0,0,0,0,0,-1,1168,498,0,0
-49,526,0,0,0,0,0,0,0,0,0,-1,1175,498,0,0
-42,526,0,0,0,0,0,0,0,0,0,-1,1182,498,0,0
-35,526,0,0,0,0,0,0,0,0,0,-1,1189,498,0,0
-28,526,0,0,0,0,0,0,0,0,0,-1,1196,498,0,0
-21,526,0,0,0,0,0,0,0,0,0,-1,1203,498,0,0
-14,526,0,0,0,0,0,0,0,0,0,-1,1210,498,0,0
-7,526,0,0,0,0,0,0,0,0,0,-1,1217,498,0,0
0,526,0,0,0,0,0,0,0,0,0,-1,1224,498,0,0
7,526,0,0,0,0,0,0,0,0,0,-1,1231,498,0,0
14,526,0,0,0,0,0,0,0,0,0,-1,1238,498,0,0
21,526,0,0,0,0,0,0,0,0,0,-1,1245,498,0,0
28,526,0,0,0,0,0,0,0,0,0,-1,1252,498,0,0
35,526,0,0,0,0,0,0,0,0,0,-1,1259,498,0,0
42,526,0,0,0,0,0,0,0,0,0,-1,1266,498,0,0
49,526,0,0,0,0,0,0,0,0,0,-1,1273,498,0,0
56,526,0,0,0,0,0,0,0,0,0,-1,1280,498,0,0
63,526,0,0,0,0,0,0,0,0,0,-1,1287,498,0,0
70,526,0,0,0,0,0,0,0,0,0,-1,1294,498,0,0
77,526,0,0,0,0,0,0,0,0,0,-1,1301,498,0,0
84,526,0,0,0,0,0,0,0,0,0,-1,1308,498,0,0
91,526,0,0,0,0,0,0,0,0,0,-1,1315,498,0,0
98,526,0,0,0,0,0,0,0,0,0,-1,1322,498,0,0
105,526,0,0,0,0,0,0,0,0,0,-1,1329,498,0,0
112,526,0,0,0,0,0,0,0,0,0,-1,1336,498,0,0
119,526,0,0,0,0,0,0,0,0,0,-1,1343,498,0,0
126,526,0,0,0,0,0,0,0,0,0,-1,1350,498,0,0
133,526,0,0,0,0,0,0,0,0,0,-1,1357,498,0,0
140,526,0,0,0,0,0,0,0,0,0,-1,1364,498,0,0
147,526,0,0,0,0,0,0,0,0,0,-1,1371,498,0,0
154,526,0,0,0,0,0,0,0,0,0,-1,1378,498,0,0
161,526,0,0,0,0,0,0,0,0,0,-1,1385,498,0,0
168,526,0,0,0,0,0,0,0,0,0,-1,1392,498,0,0
175,526,0,0,0,0,0,0,0,0,0,-1,1399,498,0,0
182,526,0,0,0,0,0,0,0,0,0,-1,1406,498,0,0
189,526,0,0,0,0,0,0,0,0,0,-1,1413,498,0,0
196,526,0,0,0,0,0,0,0,0,0,-1,1420,498,0,0
203,526,0,0,0,0,0,0,0,0,0,-1,1427,498,0,0
210,526,0,0,0,0,0,0,0,0,0,-1,1434,498,0,0
217,526,0,0,0,0,0,0,0,0,0,-1,1441,498,0,0
224,526,0,0,0,0,0,0,0,0,0,-1,1448,498,0,0
231,526,7.93237,-1.30618,0,0,0,0,0,0,0,-1,1455,498,7.93238,1.30618
238,526,7.97717,-1.08197,0,0,0,0,0,0,0,-1,1462,498,7.97723,1.08196
245,526,7.2793,-0.792938,0,0,0,0,0,0,0,-1,1469,498,7.27931,0.792926
252,526,6.73523,-2.23608,0,0,0,0,0,0,0,-1,1476,498,6.73525,2.23608
259,526,6.22949,-1.84967,0,0,0,0,0,0,0,-1,1483,498,6.22953,1.84968
266,526,5.72375,-1.46329,0,0,0,0,0,0,0,-1,1490,498,5.72381,1.46328
273,526,4.33984,0.49173,0,0,0,0,0,0,0,-1,1497,498,4.33979,-0.491727
280,526,1.4585,-1.59897,0,0,0,0,0,0,0,-1,1504,498,1.45846,1.59895
287,526,1.46411,-2.40134,0,0,0,0,0,0,0,-1,1511,498,1.46406,2.40133
294,526,5.57471,-4.59085,0,0,0,0,0,0,0,-1,1518,498,5.57466,4.59084
301,526,4.42786,-3.99677,0,0,0,0,0,0,0,-1,1525,498,4.42788,3.99676
308,526,5.79529,-4.19366,0,0,0,0,0,0,0,-1,1532,498,5.79528,4.19368
315,526,5.09851,-5.20068,0,0,0,0,0,0,0,-1,1539,498,5.09851,5.20068
322,526,5.50708,-4.72348,0,0,0,0,0,0,0,-1,1546,498,5.50713,4.72347
329,526,3.88672,-4.345,0,0,0,0,0,0,0,-1,1553,498,3.88674,4.34501
336,526,4.97876,-2.23828,0,0,0,0,0,0,0,-1,1560,498,4.97877,2.23828
343,526,3.31665,-2.69696,0,0,0,0,0,0,0,-1,1567,498,3.31667,2.69696
350,526,6.06287,-6.12015,0,0,0,0,0,0,0,-1,1574,498,6.06286,6.12014
357,526,11.079,-25.3246,0,0,0,0,0,0,0,-1,1581,498,11.079,25.3247
364,526,10.9556,-24.8571,0,0,0,0,0,0,0,-1,1588,498,10.9555,24.8571
371,526,10.832,-24.3896,0,0,0,0,0,0,0,-1,1595,498,10.832,24.3896
378,526,10.6257,-24.4009,0,0,0,0,0,0,0,-1,1602,498,10.6257,24.4009
385,526,10.7822,-23.8165,0,0,0,0,0,0,0,-1,1609,498,10.7822,23.8164
392,526,10.8995,-23.3348,9.06602e-05,-0.0011393,-0.0018589,0.00143367,-0.00248231,-0.62565,0.00228775,0.0410372,1616,498,10.8995,23.3348
399,526,10.7625,-22.846,0.000550049,-0.000405381,-0.00120839,0.00137173,-0.00122706,-0.59716,0.00150118,0.0232927,1623,498,10.7625,22.846
406,526,10.8008,-22.3129,0.000968503,0.000330248,-0.000636398,0.00136131,-6.25552e-05,-0.552991,0.000929091,0.0133171,1630,498,10.8008,22.3129
413,526,10.7823,-21.8086,0.00134956,0.00107886,7.06506e-05,0.00136689,0.00106153,0.240541,0.000828448,0.0133675,1637,498,10.7824,21.8086
420,526,10.7616,-21.3154,0.00149674,0.00165941,0.000574943,0.00215874,0.000997407,0.855666,0.00124755,0.0133691,1644,498,10.7616,21.3153
427,526,10.7688,-20.7984,0.00137626,0.00196371,0.00079957,0.0025218,0.000818173,0.961424,0.00148558,0.0136957,1651,498,10.7688,20.7984
434,526,10.7596,-20.2898,0.00128419,0.00220435,0.00100525,0.00284981,0.000638735,1.00001,0.0017268,0.0126987,1658,498,10.7596,20.2898
441,526,10.7445,-19.7626,0.00128888,0.0023282,0.00123427,0.00314774,0.000469332,0.984648,0.00196086,0.0122622,1665,498,10.7445,19.7626
448,526,10.7335,-19.2623,0.00141656,0.002284,0.00145248,0.00336614,0.000334426,0.930487,0.00214134,0.0114144,1672,498,10.7335,19.2623
455,526,10.7037,-18.7709,0.00156818,0.00215056,0.00159882,0.00348449,0.000234251,0.875476,0.00224898,0.0138167,1679,498,10.7037,18.7709
462,526,10.6914,-18.2074,0.0016515,0.00180914,0.00172607,0.00345819,2.45019e-06,0.808214,0.00230465,0.0106819,1686,498,10.6914,18.2074
469,526,10.6938,-17.6967,0.00148927,0.00109945,0.00166243,0.00296818,-0.000379457,0.727043,0.00211664,0.00796358,1693,498,10.6939,17.6967
476,526,10.6744,-17.1621,0.00118817,0.000225058,0.00160466,0.00238198,-0.000968749,0.639625,0.00199107,0.00969275,1700,498,10.6744,17.1621
483,526,10.6591,-16.5584,0.000667055,-0.00093991,0.00138324,0.00146324,-0.0017361,0.522281,0.00184938,0.0128274,1707,498,10.659,16.5584
490,526,10.7073,-15.9106,-0.00022612,-0.00253614,0.00105268,0.000181622,-0.00294388,0.369541,0.00202584,0.024649,1714,498,10.7072,15.9106
497,526,10.6094,-15.4866,-0.00167666,-0.00449372,0.000457197,-0.00160432,-0.00456606,0.156931,0.00267477,0.0317103,1721,498,10.6094,15.4865
504,526,10.5585,-14.9428,-0.00384698,-0.00700467,-0.000488984,-0.00377299,-0.00707866,-0.150171,0.00408983,0.0339888,1728,498,10.5585,14.9428
511,526,10.6438,-14.4263,-0.00665211,-0.00984402,-0.00163521,-0.00596312,-0.010533,-0.398773,0.00609894,0.0437373,1735,498,10.6438,14.4263
518,526,10.1986,-14.04,-0.0102396,-0.0132837,-0.0028687,-0.00851417,-0.0150091,-0.541496,0.00869162,0.0459446,1742,498,10.1986,14.04
525,526,9.91809,-13.4645,0,0,0,0,0,0,0,-1,1749,498,9.91806,13.4645
532,526,9.57129,-12.6129,0,0,0,0,0,0,0,-1,1756,498,9.57134,12.613
539,526,3.29407,0.932312,0,0,0,0,0,0,0,-1,1763,498,3.2941,-0.93232
546,526,3.36731,1.07721,0,0,0,0,0,0,0,-1,1770,498,3.36735,-1.07719
553,526,3.40796,1.37137,0,0,0,0,0,0,0,-1,1777,498,3.40792,-1.37138
560,526,0,0,0,0,0,0,0,0,0,-1,1784,498,0,0
567,526,0,0,0,0,0,0,0,0,0,-1,1791,498,0,0
574,526,0,0,0,0,0,0,0,0,0,-1,1798,498,0,0
581,526,0,0,0,0,0,0,0,0,0,-1,1805,498,0,0
588,526,0,0,0,0,0,0,0,0,0,-1,1812,498,0,0
595,526,0,0,0,0,0,0,0,0,0,-1,1819,498,0,0
602,526,0,0,0,0,0,0,0,0,0,-1,1826,498,0,0
609,526,0,0,0,0,0,0,0,0,0,-1,1833,498,0,0
616,526,0,0,0,0,0,0,0,0,0,-1,1840,498,0,0
623,526,0,0,0,0,0,0,0,0,0,-1,1847,498,0,0
630,526,0,0,0,0,0,0,0,0,0,-1,1854,498,0,0
637,526,0,0,0,0,0,0,0,0,0,-1,1861,498,0,0
644,526,0,0,0,0,0,0,0,0,0,-1,1868,498,0,0
651,526,0,0,0,0,0,0,0,0,0,-1,1875,498,0,0
658,526,0,0,0,0,0,0,0,0,0,-1,1882,498,0,0
665,526,0,0,0,0,0,0,0,0,0,-1,1889,498,0,0
672,526,0,0,0,0,0,0,0,0,0,-1,1896,498,0,0
679,526,0,0,0,0,0,0,0,0,0,-1,1903,498,0,0
686,526,0,0,0,0,0,0,0,0,0,-1,1910,498,0,0
693,526,0,0,0,0,0,0,0,0,0,-1,1917,498,0,0
700,526,0,0,0,0,0,0,0,0,0,-1,1924,498,0,0
707,526,0,0,0,0,0,0,0,0,0,-1,1931,498,0,0
714,526,0,0,0,0,0,0,0,0,0,-1,1938,498,0,0
721,526,0,0,0,0,0,0,0,0,0,-1,1945,498,0,0
728,526,0,0,0,0,0,0,0,0,0,-1,1952,498,0,0
735,526,0,0,0,0,0,0,0,0,0,-1,1959,498,0,0
742,526,0,0,0,0,0,0,0,0,0,-1,1966,498,0,0
749,526,0,0,0,0,0,0,0,0,0,-1,1973,498,0,0
756,526,0,0,0,0,0,0,0,0,0,-1,1980,498,0,0
763,526,0,0,0,0,0,0,0,0,0,-1,1987,498,0,0
770,526,0,0,0,0,0,0,0,0,0,-1,1994,498,0,0
777,526,0,0,0,0,0,0,0,0,0,-1,2001,498,0,0
784,526,0,0,0,0,0,0,0,0,0,-1,2008,498,0,0
791,526,0,0,0,0,0,0,0,0,0,-1,2015,498,0,0
798,526,0,0,0,0,0,0,0,0,0,-1,2022,498,0,0
805,526,0,0,0,0,0,0,0,0,0,-1,2029,498,0,0
812,526,0,0,0,0,0,0,0,0,0,-1,2036,498,0,0
-700,519,0,0,0,0,0,0,0,0,0,-1,524,505,0,0
-693,519,0,0,0,0,0,0,0,0,0,-1,531,505,0,0
-686,519,0,0,0,0,0,0,0,0,0,-1,538,505,0,0
-679,519,0,0,0,0,0,0,0,0,0,-1,545,505,0,0
-672,519,0,0,0,0,0,0,0,0,0,-1,552,505,0,0
-665,519,0,0,0,0,0,0,0,0,0,-1,559,505,0,0
-658,519,0,0,0,0,0,0,0,0,0,-1,566,505,0,0
-651,519,0,0,0,0,0,0,0,0,0,-1,573,505,0,0
-644,519,0,0,0,0,0,0,0,0,0,-1,580,505,0,0
-637,519,0,0,0,0,0,0,0,0,0,-1,587,505,0,0
-630,519,0,0,0,0,0,0,0,0,0,-1,594,505,0,0
-623,519,0,0,0,0,0,0,0,0,0,-1,601,505,0,0
-616,519,0,0,0,0,0,0,0,0,0,-1,608,505,0,0
-609,519,0,0,0,0,0,0,0,0,0,-1,615,505,0,0
-602,519,0,0,0,0,0,0,0,0,0,-1,622,505,0,0
-595,519,0,0,0,0,0,0,0,0,0,-1,629,505,0,0
-588,519,0,0,0,0,0,0,0,0,0,-1,636,505,0,0
-581,519,0,0,0,0,0,0,0,0,0,-1,643,505,0,0
-574,519,0,0,0,0,0,0,0,0,0,-1,650,505,0,0
-567,519,0,0,0,0,0,0,0,0,0,-1,657,505,0,0
-560,519,0,0,0,0,0,0,0,0,0,-1,664,505,0,0
-553,519,0,0,0,0,0,0,0,0,0,-1,671,505,0,0
-546,519,0,0,0,0,0,0,0,0,0,-1,678,505,0,0
-539,519,0,0,0,0,0,0,0,0,0,-1,685,505,0,0
-532,519,0,0,0,0,0,0,0,0,0,-1,692,505,0,0
-525,519,0,0,0,0,0,0,0,0,0,-1,699,505,0,0
-518,519,0,0,0,0,0,0,0,0,0,-1,706,505,0,0
-511,519,0,0,0,0,0,0,0,0,0,-1,713,505,0,0
-504,519,0,0,0,0,0,0,0,0,0,-1,720,505,0,0
-497,519,0,0,0,0,0,0,0,0,0,-1,727,505,0,0
-490,519,0,0,0,0,0,0,0,0,0,-1,734,505,0,0
-483,519,0,0,0,0,0,0,0,0,0,-1,741,505,0,0
-476,519,0,0,0,0,0,0,0,0,0,-1,748,505,0,0
-469,519,0,0,0,0,0,0,0,0,0,-1,755,505,0,0
-462,519,0,0,0,0,0,0,0,0,0,-1,762,505,0,0
-455,519,0,0,0,0,0,0,0,0,0,-1,769,505,0,0
-448,519,0,0,0,0,0,0,0,0,0,-1,776,505,0,0
-441,519,1.34839,-5.29346,0,0,0,0,0,0,0,-1,783,505,1.3484,5.29347
-434,519,0.949585,-5.77313,0,0,0,0,0,0,0,-1,790,505,0.949598,5.77315
-427,519,-0.0523682,-9.31567,0,0,0,0,0,0,0,-1,797,505,-0.0523854,9.31568
-420,519,-2.38867,-12.1938,0,0,0,0,0,0,0,-1,804,505,-2.38867,12.1938
-413,519,-2.2298,-12.4998,0,0,0,0,0,0,0,-1,811,505,-2.22979,12.4998
-406,519,-1.44373,-12.3475,0,0,0,0,0,0,0,-1,818,505,-1.44376,12.3475
-399,519,-1.41022,-14.1157,0,0,0,0,0,0,0,-1,825,505,-1.41019,14.1157
-392,519,-1.01495,-15.0073,0,0,0,0,0,0,0,-1,832,505,-1.01493,15.0073
-385,519,-1.43713,-15.1247,0.00947828,0.0266491,-0.0182675,0.0382482,-0.00212075,-1.00507,0.0262343,0.0449972,839,505,-1.43711,15.1247
-378,519,-1.354,-15.8831,0.00725498,0.0211052,-0.0147176,0.0304455,-0.00208534,-1.0053,0.0210266,0.0319163,846,505,-1.35402,15.8831
-371,519,-1.28748,-16.6149,0.00557515,0.0165318,-0.0117245,0.0239947,-0.00188781,-1.00395,0.0166614,0.0183404,853,505,-1.2875,16.6149
-364,519,-1.27997,-17.2611,0.00422325,0.0127411,-0.00919031,0.0186114,-0.001647,-1.00238,0.0129914,0.0110724,860,505,-1.27998,17.2611
-357,519,-1.26367,-17.8413,0.0031405,0.00963705,-0.00711322,0.0142086,-0.00143102,-0.999585,0.00998363,0.0105579,867,505,-1.26365,17.8413
-350,519,-1.28442,-18.3774,0.0022707,0.00692556,-0.00529312,0.0103803,-0.00118409,-0.992529,0.0073468,0.0123635,874,505,-1.28445,18.3775
-343,519,-1.3457,-18.876,0.00148724,0.00478839,-0.0036907,0.0071808,-0.000905167,-0.99567,0.00511568,0.0155649,881,505,-1.34569,18.876
-336,519,-1.38855,-19.3954,0.00113363,0.00330953,-0.00265807,0.00509368,-0.000650518,-0.979648,0.00363209,0.0160542,888,505,-1.38853,19.3954
-329,519,-1.36877,-19.8941,0.00102398,0.00189231,-0.00177388,0.00328438,-0.000368095,-0.905415,0.00232203,0.0139289,895,505,-1.3688,19.8941
-322,519,-1.36523,-20.3962,0.00103121,0.000814589,-0.00106386,0.00199226,-0.000146462,-0.734669,0.00137959,0.0114011,902,505,-1.36521,20.3962
-315,519,-1.38123,-20.9313,0.00112677,0.00019121,-0.000487857,0.00133488,-1.68956e-05,-0.403201,0.000895605,0.0094236,909,505,-1.38121,20.9313
-308,519,-1.41327,-21.4645,0.00125892,-0.000328565,-3.86395e-06,0.00125893,-0.000328575,-0.00243399,0.000967588,0.00798995,916,505,-1.41329,21.4645
-301,519,-1.43835,-21.9373,0.00137576,-0.00110902,0.000547182,0.00149092,-0.00122418,0.207433,0.00157008,0.0122522,923,505,-1.43834,21.9373
-294,519,-1.42798,-22.3741,0.00158349,-0.00169561,0.0010441,0.00188771,-0.00199983,0.283527,0.00224479,0.0148042,930,505,-1.428,22.3741
-287,519,-1.44879,-22.8333,0.00184644,-0.00237594,0.00156195,0.00236142,-0.00289092,0.318485,0.00303758,0.0105678,937,505,-1.44879,22.8333
-280,519,-1.4884,-23.3105,0.00208773,-0.00369075,0.00219735,0.00282837,-0.0044314,0.325102,0.00422535,0.0175083,944,505,-1.48841,23.3106
-273,519,-1.45465,-23.8141,0.00227299,-0.00504281,0.00293052,0.00330211,-0.00607193,0.337721,0.0054903,0.0316532,951,505,-1.45465,23.8141
-266,519,-1.48077,-24.2801,0.00281007,-0.00690932,0.00403554,0.00426719,-0.00836644,0.346505,0.00742091,0.0482017,958,505,-1.48075,24.2801
-259,519,-1.34125,-24.7289,0,0,0,0,0,0,0,-1,965,505,-1.34128,24.7289
-252,519,-1.6037,-24.6493,0,0,0,0,0,0,0,-1,972,505,-1.60372,24.6493
-245,519,-1.23254,-23.2696,0,0,0,0,0,0,0,-1,979,505,-1.23256,23.2696
-238,519,-1.06903,-23.1753,0,0,0,0,0,0,0,-1,986,505,-1.06904,23.1753
-231,519,0.337585,-11.2798,0,0,0,0,0,0,0,-1,993,505,0.337568,11.2798
-224,519,-0.0494995,-7.97394,0,0,0,0,0,0,0,-1,1000,505,-0.0495123,7.97392
-217,519,-0.283691,-23.8409,0,0,0,0,0,0,0,-1,1007,505,-0.283683,23.8409
-210,519,-2.14398,-4.74774,0,0,0,0,0,0,0,-1,1014,505,-2.14397,4.74775
-203,519,-0.513611,-5.39017,0,0,0,0,0,0,0,-1,1021,505,-0.513585,5.39017
-196,519,-0.374023,-5.41635,0,0,0,0,0,0,0,-1,1028,505,-0.374047,5.41635
-189,519,-0.234497,-5.44254,0,0,0,0,0,0,0,-1,1035,505,-0.234508,5.44253
-182,519,2.76697,-1.19659,0,0,0,0,0,0,0,-1,1042,505,2.76696,1.19661
-175,519,2.31323,-0.960938,0,0,0,0,0,0,0,-1,1049,505,2.31319,0.960941
-168,519,2.01074,-0.721405,0,0,0,0,0,0,0,-1,1056,505,2.01072,0.721407
-161,519,2.32056,-0.522339,0,0,0,0,0,0,0,-1,1063,505,2.32057,0.522328
-154,519,2.55566,0.116669,0,0,0,0,0,0,0,-1,1070,505,2.55563,-0.116661
-147,519,-0.55127,-6.14001,0,0,0,0,0,0,0,-1,1077,505,-0.551252,6.14001
-140,519,0.240601,-7.53503,0,0,0,0,0,0,0,-1,1084,505,0.240653,7.53501
-133,519,2.70911,-4.4516,0,0,0,0,0,0,0,-1,1091,505,2.70915,4.45161
-126,519,0,0,0,0,0,0,0,0,0,-1,1098,505,0,0
-119,519,0,0,0,0,0,0,0,0,0,-1,1105,505,0,0
-112,519,0,0,0,0,0,0,0,0,0,-1,1112,505,0,0
-105,519,0,0,0,0,0,0,0,0,0,-1,1119,505,0,0
-98,519,0,0,0,0,0,0,0,0,0,-1,1126,505,0,0
-91,519,0,0,0,0,0,0,0,0,0,-1,1133,505,0,0
-84,519,0,0,0,0,0,0,0,0,0,-1,1140,505,0,0
-77,519,0,0,0,0,0,0,0,0,0,-1,1147,505,0,0
-70,519,0,0,0,0,0,0,0,0,0,-1,1154,505,0,0
-63,519,0,0,0,0,0,0,0,0,0,-1,1161,505,0,0
-56,519,0,0,0,0,0,0,0,0,0,-1,1168,505,0,0
-49,519,0,0,0,0,0,0,0,0,0,-1,1175,505,0,0
-42,519,0,0,0,0,0,0,0,0,0,-1,1182,505,0,0
-35,519,0,0,0,0,0,0,0,0,0,-1,1189,505,0,0
-28,519,0,0,0,0,0,0,0,0,0,-1,1196,505,0,0
-21,519,0,0,0,0,0,0,0,0,0,-1,1203,505,0,0
-14,519,0,0,0,0,0,0,0,0,0,-1,1210,505,0,0
-7,519,0,0,0,0,0,0,0,0,0,-1,1217,505,0,0
0,519,0,0,0,0,0,0,0,0,0,-1,1224,505,0,0
7,519,0,0,0,0,0,0,0,0,0,-1,1231,505,0,0
14,519,0,0,0,0,0,0,0,0,0,-1,1238,505,0,0
21,519,0,0,0,0,0,0,0,0,0,-1,1245,505,0,0
28,519,0,0,0,0,0,0,0,0,0,-1,1252,505,0,0
35,519,0,0,0,0,0,0,0,0,0,-1,1259,505,0,0
42,519,0,0,0,0,0,0,0,0,0,-1,1266,505,0,0
49,519,0,0,0,0,0,0,0,0,0,-1,1273,505,0,0
56,519,0,0,0,0,0,0,0,0,0,-1,1280,505,0,0
63,519,0,0,0,0,0,0,0,0,0,-1,1287,505,0,0
70,519,0,0,0,0,0,0,0,0,0,-1,1294,505,0,0
77,519,0,0,0,0,0,0,0,0,0,-1,1301,505,0,0
84,519,0,0,0,0,0,0,0,0,0,-1,1308,505,0,0
91,519,0,0,0,0,0,0,0,0,0,-1,1315,505,0,0
98,519,0,0,0,0,0,0,0,0,0,-1,1322,505,0,0
105,519,0,0,0,0,0,0,0,0,0,-1,1329,505,0,0
112,519,0,0,0,0,0,0,0,0,0,-1,1336,505,0,0
119,519,0,0,0,0,0,0,0,0,0,-1,1343,505,0,0
126,519,0,0,0,0,0,0,0,0,0,-1,1350,505,0,0
133,519,0,0,0,0,0,0,0,0,0,-1,1357,505,0,0
140,519,0,0,0,0,0,0,0,0,0,-1,1364,505,0,0
147,519,0,0,0,0,0,0,0,0,0,-1,1371,505,0,0
154,519,0,0,0,0,0,0,0,0,0,-1,1378,505,0,0
161,519,0,0,0,0,0,0,0,0,0,-1,1385,505,0,0
168,519,0,0,0,0,0,0,0,0,0,-1,1392,505,0,0
175,519,0,0,0,0,0,0,0,0,0,-1,1399,505,0,0
182,519,0,0,0,0,0,0,0,0,0,-1,1406,505,0,0
189,519,0,0,0,0,0,0,0,0,0,-1,1413,505,0,0
196,519,0,0,0,0,0,0,0,0,0,-1,1420,505,0,0
203,519,0,0,0,0,0,0,0,0,0,-1,1427,505,0,0
210,519,0,0,0,0,0,0,0,0,0,-1,1434,505,0,0
217,519,0,0,0,0,0,0,0,0,0,-1,1441,505,0,0
224,519,0,0,0,0,0,0,0,0,0,-1,1448,505,0,0
231,519,0,0,0,0,0,0,0,0,0,-1,1455,505,0,0
238,519,0,0,0,0,0,0,0,0,0,-1,1462,505,0,0
245,519,0,0,0,0,0,0,0,0,0,-1,1469,505,0,0
252,519,5.26208,0.0938416,0,0,0,0,0,0,0,-1,1476,505,5.26207,-0.0938493
259,519,6.14246,-1.36441,0,0,0,0,0,0,0,-1,1483,505,6.14241,1.36441
266,519,5.31909,-0.400787,0,0,0,0,0,0,0,-1,1490,505,5.31912,0.400773
273,519,4.02393,0.325531,0,0,0,0,0,0,0,-1,1497,505,4.0239,-0.325522
280,519,4.68848,0.53006,0,0,0,0,0,0,0,-1,1504,505,4.68842,-0.530073
287,519,7.9519,-3.80801,0,0,0,0,0,0,0,-1,1511,505,7.95193,3.808
294,519,6.92273,-3.38889,0,0,0,0,0,0,0,-1,1518,505,6.92268,3.38888
301,519,5.35669,-2.92661,0,0,0,0,0,0,0,-1,1525,505,5.35675,2.9266
308,519,7.37549,-5.64529,0,0,0,0,0,0,0,-1,1532,505,7.3755,5.64529
315,519,6.30029,-4.53754,0,0,0,0,0,0,0,-1,1539,505,6.30024,4.53753
322,519,5.84302,-5.45117,0,0,0,0,0,0,0,-1,1546,505,5.84303,5.45116
329,519,4.92407,0.62384,0,0,0,0,0,0,0,-1,1553,505,4.92403,-0.623832
336,519,3.10095,-0.329285,0,0,0,0,0,0,0,-1,1560,505,3.1009,0.329283
343,519,2.49146,-2.31119,0,0,0,0,0,0,0,-1,1567,505,2.49145,2.31119
350,519,3.47729,-2.22516,0,0,0,0,0,0,0,-1,1574,505,3.47726,2.22515
357,519,9.01709,-24.3693,0,0,0,0,0,0,0,-1,1581,505,9.01713,24.3693
364,519,11.4442,-24.8447,0,0,0,0,0,0,0,-1,1588,505,11.4442,24.8447
371,519,8.9231,-23.3576,0,0,0,0,0,0,0,-1,1595,505,8.92307,23.3576
378,519,6.36597,-10.0967,0,0,0,0,0,0,0,-1,1602,505,6.36597,10.0967
385,519,6.24756,-9.72186,0,0,0,0,0,0,0,-1,1609,505,6.24752,9.72183
392,519,11.2806,-23.582,0,0,0,0,0,0,0,-1,1616,505,11.2807,23.5821
399,519,11.1759,-22.8867,0,0,0,0,0,0,0,-1,1623,505,11.1759,22.8867
406,519,11.2623,-22.3214,0.00102048,0.000755153,-0.000907935,0.00180539,-2.97602e-05,-0.712854,0.00121364,0.0357959,1630,505,11.2623,22.3214
413,519,11.326,-21.8198,0.00163075,0.00136738,-9.1239e-05,0.00165927,0.00133886,-0.302965,0.00101635,0.0158597,1637,505,11.3261,21.8198
420,519,11.2924,-21.2748,0.00182976,0.00183162,0.000451291,0.00228199,0.0013794,0.786429,0.00132706,0.0154181,1644,505,11.2924,21.2749
427,519,11.3005,-20.7804,0.00164089,0.001936,0.000625094,0.00243072,0.00114617,0.901303,0.00140413,0.0141974,1651,505,11.3006,20.7804
434,519,11.2808,-20.2778,0.00149233,0.00201028,0.000787638,0.00258043,0.000922188,0.944231,0.00150988,0.0134378,1658,505,11.2807,20.2778
441,519,11.2458,-19.752,0.00142245,0.00214752,0.00101433,0.00286215,0.000707809,0.957029,0.00172138,0.0129962,1665,505,11.2459,19.752
448,519,11.2437,-19.2426,0.00148788,0.0020503,0.00122385,0.00302482,0.00051335,0.898325,0.00186908,0.0098959,1672,505,11.2437,19.2426
455,519,11.2313,-18.7467,0.00153451,0.00193198,0.00135537,0.00310311,0.000363378,0.858192,0.00195888,0.0107771,1679,505,11.2314,18.7467
462,519,11.2174,-18.22,0.00151777,0.00169648,0.00147534,0.00308517,0.000129075,0.815644,0.00201513,0.010482,1686,505,11.2175,18.22
469,519,11.2172,-17.6806,0.00131023,0.00119701,0.0014655,0.00272022,-0.000212972,0.766094,0.00188847,0.0104492,1693,505,11.2172,17.6806
476,519,11.203,-17.1128,0.000938138,0.000595933,0.00146212,0.00223913,-0.000705063,0.727151,0.00177508,0.0125379,1700,505,11.203,17.1128
483,519,11.196,-16.567,0.000370558,-0.000205133,0.00131097,0.00142491,-0.00125949,0.67733,0.00155082,0.0149072,1707,505,11.1961,16.567
490,519,11.1611,-15.956,-0.00052244,-0.00130068,0.00107234,0.0002292,-0.00205232,0.611351,0.00145066,0.0128803,1714,505,11.1611,15.956
497,519,11.1455,-15.4443,-0.0018363,-0.00261027,0.00066339,-0.00145527,-0.0029913,0.521357,0.00172724,0.0164183,1721,505,11.1455,15.4443
504,519,11.0942,-14.8995,-0.00368446,-0.00426624,1.73525e-05,-0.00368394,-0.00426675,0.0297915,0.00267151,0.0170203,1728,505,11.0942,14.8995
511,519,11.0696,-14.3143,-0.00599277,-0.00615948,-0.000785315,-0.0052864,-0.00686585,-0.732526,0.00415212,0.0228482,1735,505,11.0696,14.3144
518,519,10.9772,-13.7529,-0.00887779,-0.00838853,-0.00169452,-0.00692107,-0.0103453,-0.857086,0.00608551,0.0413104,1742,505,10.9772,13.7529
525,519,10.9587,-13.2767,0,0,0,0,0,0,0,-1,1749,505,10.9587,13.2767
532,519,10.4603,-12.7765,0,0,0,0,0,0,0,-1,1756,505,10.4603,12.7765
539,519,3.30005,0.0229797,0,0,0,0,0,0,0,-1,1763,505,3.30008,-0.0229869
546,519,4.62024,-2.89774,0,0,0,0,0,0,0,-1,1770,505,4.62023,2.89775
553,519,4.14136,0.0667419,0,0,0,0,0,0,0,-1,1777,505,4.14141,-0.0667503
560,519,3.77856,0.279724,0,0,0,0,0,0,0,-1,1784,505,3.77861,-0.279731
567,519,0,0,0,0,0,0,0,0,0,-1,1791,505,0,0
574,519,0,0,0,0,0,0,0,0,0,-1,1798,505,0,0
581,519,0,0,0,0,0,0,0,0,0,-1,1805,505,0,0
588,519,0,0,0,0,0,0,0,0,0,-1,1812,505,0,0
595,519,0,0,0,0,0,0,0,0,0,-1,1819,505,0,0
602,519,0,0,0,0,0,0,0,0,0,-1,1826,505,0,0
609,519,0,0,0,0,0,0,0,0,0,-1,1833,505,0,0
616,519,0,0,0,0,0,0,0,0,0,-1,1840,505,0,0
623,519,0,0,0,0,0,0,0,0,0,-1,1847,505,0,0
630,519,0,0,0,0,0,0,0,0,0,-1,1854,505,0,0
637,519,0,0,0,0,0,0,0,0,0,-1,1861,505,0,0
644,519,0,0,0,0,0,0,0,0,0,-1,1868,505,0,0
651,519,0,0,0,0,0,0,0,0,0,-1,1875,505,0,0
658,519,0,0,0,0,0,0,0,0,0,-1,1882,505,0,0
665,519,0,0,0,0,0,0,0,0,0,-1,1889,505,0,0
672,519,0,0,0,0,0,0,0,0,0,-1,1896,505,0,0
679,519,0,0,0,0,0,0,0,0,0,-1,1903,505,0,0
686,519,0,0,0,0,0,0,0,0,0,-1,1910,505,0,0
693,519,0,0,0,0,0,0,0,0,0,-1,1917,505,0,0
700,519,0,0,0,0,0,0,0,0,0,-1,1924,505,0,0
707,519,0,0,0,0,0,0,0,0,0,-1,1931,505,0,0
714,519,0,0,0,0,0,0,0,0,0,-1,1938,505,0,0
721,519,0,0,0,0,0,0,0,0,0,-1,1945,505,0,0
728,519,0,0,0,0,0,0,0,0,0,-1,1952,505,0,0
735,519,0,0,0,0,0,0,0,0,0,-1,1959,505,0,0
742,519,0,0,0,0,0,0,0,0,0,-1,1966,505,0,0
749,519,0,0,0,0,0,0,0,0,0,-1,1973,505,0,0
756,519,0,0,0,0,0,0,0,0,0,-1,1980,505,0,0
763,519,0,0,0,0,0,0,0,0,0,-1,1987,505,0,0
770,519,0,0,0,0,0,0,0,0,0,-1,1994,505,0,0
777,519,0,0,0,0,0,0,0,0,0,-1,2001,505,0,0
784,519,0,0,0,0,0,0,0,0,0,-1,2008,505,0,0
791,519,0,0,0,0,0,0,0,0,0,-1,2015,505,0,0
798,519,0,0,0,0,0,0,0,0,0,-1,2022,505,0,0
805,519,0,0,0,0,0,0,0,0,0,-1,2029,505,0,0
812,519,0,0,0,0,0,0,0,0,0,-1,2036,505,0,0
-700,512,0,0,0,0,0,0,0,0,0,-1,524,512,0,0
-693,512,0,0,0,0,0,0,0,0,0,-1,531,512,0,0
-686,512,0,0,0,0,0,0,0,0,0,-1,538,512,0,0
-679,512,0,0,0,0,0,0,0,0,0,-1,545,512,0,0
-672,512,0,0,0,0,0,0,0,0,0,-1,552,512,0,0
-665,512,0,0,0,0,0,0,0,0,0,-1,559,512,0,0
-658,512,0,0,0,0,0,0,0,0,0,-1,566,512,0,0
-651,512,0,0,0,0,0,0,0,0,0,-1,573,512,0,0
-644,512,0,0,0,0,0,0,0,0,0,-1,580,512,0,0
-637,512,0,0,0,0,0,0,0,0,0,-1,587,512,0,0
-630,512,0,0,0,0,0,0,0,0,0,-1,594,512,0,0
-623,512,0,0,0,0,0,0,0,0,0,-1,601,512,0,0
-616,512,0,0,0,0,0,0,0,0,0,-1,608,512,0,0
-609,512,0,0,0,0,0,0,0,0,0,-1,615,512,0,0
-602,512,0,0,0,0,0,0,0,0,0,-1,622,512,0,0
-595,512,0,0,0,0,0,0,0,0,0,-1,629,512,0,0
-588,512,0,0,0,0,0,0,0,0,0,-1,636,512,0,0
-581,512,0,0,0,0,0,0,0,0,0,-1,643,512,0,0
-574,512,0,0,0,0,0,0,0,0,0,-1,650,512,0,0
-567,512,0,0,0,0,0,0,0,0,0,-1,657,512,0,0
-560,512,0,0,0,0,0,0,0,0,0,-1,664,512,0,0
-553,512,0,0,0,0,0,0,0,0,0,-1,671,512,0,0
-546,512,0,0,0,0,0,0,0,0,0,-1,678,512,0,0
-539,512,0,0,0,0,0,0,0,0,0,-1,685,512,0,0
-532,512,0,0,0,0,0,0,0,0,0,-1,692,512,0,0
-525,512,0,0,0,0,0,0,0,0,0,-1,699,512,0,0
-518,512,0,0,0,0,0,0,0,0,0,-1,706,512,0,0
-511,512,0,0,0,0,0,0,0,0,0,-1,713,512,0,0
-504,512,0,0,0,0,0,0,0,0,0,-1,720,512,0,0
-497,512,0,0,0,0,0,0,0,0,0,-1,727,512,0,0
-490,512,0,0,0,0,0,0,0,0,0,-1,734,512,0,0
-483,512,0,0,0,0,0,0,0,0,0,-1,741,512,0,0
-476,512,0,0,0,0,0,0,0,0,0,-1,748,512,0,0
-469,512,0,0,0,0,0,0,0,0,0,-1,755,512,0,0
-462,512,0,0,0,0,0,0,0,0,0,-1,762,512,0,0
-455,512,0,0,0,0,0,0,0,0,0,-1,769,512,0,0
-448,512,1.96283,-4.15674,0,0,0,0,0,0,0,-1,776,512,1.96285,4.15677
-441,512,1.78198,-4.88824,0,0,0,0,0,0,0,-1,783,512,1.78201,4.88826
-434,512,0.0726929,-9.85822,0,0,0,0,0,0,0,-1,790,512,0.0727008,9.85819
-427,512,-0.384583,-9.94824,0,0,0,0,0,0,0,-1,797,512,-0.384552,9.94823
-420,512,-2.93219,-12.4855,0,0,0,0,0,0,0,-1,804,512,-2.93219,12.4855
-413,512,-2.22711,-11.4485,0,0,0,0,0,0,0,-1,811,512,-2.22712,11.4485
-406,512,-2.31512,-12.948,0,0,0,0,0,0,0,-1,818,512,-2.31514,12.948
-399,512,-1.77625,-14.4614,0,0,0,0,0,0,0,-1,825,512,-1.77626,14.4613
-392,512,-1.69354,-15.0361,0.00960289,0.0265044,-0.0181642,0.0380875,-0.00198018,-1.00313,0.0260768,0.0398885,832,512,-1.69356,15.0362
-385,512,-1.7218,-15.5853,0.00757813,0.0214179,-0.0148092,0.0308442,-0.00184816,-1.00396,0.0212057,0.0204082,839,512,-1.72183,15.5854
-378,512,-1.79004,-16.1418,0.00599586,0.0170094,-0.0119976,0.0247037,-0.00169837,-1.00055,0.0170634,0.015667,846,512,-1.79002,16.1418
-371,512,-1.79926,-16.7363,0.00470493,0.0132046,-0.0095613,0.019418,-0.00150849,-0.994526,0.0134763,0.0124063,853,512,-1.79927,16.7363
-364,512,-1.79224,-17.3219,0.00360249,0.00997041,-0.007404,0.014846,-0.00127313,-0.988461,0.0103479,0.00959518,860,512,-1.79224,17.3219
-357,512,-1.80023,-17.8328,0.00273453,0.00735288,-0.0055977,0.011099,-0.00101158,-0.981025,0.00775854,0.0104403,867,512,-1.80025,17.8328
-350,512,-1.82068,-18.3607,0.00207889,0.00502611,-0.00402,0.00783409,-0.00072908,-0.961078,0.00548194,0.0106701,874,512,-1.82069,18.3607
-343,512,-1.85126,-18.8824,0.00147285,0.00317013,-0.00261623,0.00507192,-0.000428933,-0.942231,0.00353295,0.0127027,881,512,-1.85128,18.8824
-336,512,-1.87939,-19.3957,0.00123317,0.00186696,-0.00170412,0.0032834,-0.000183268,-0.877327,0.00225251,0.0142517,888,512,-1.87942,19.3957
-329,512,-1.85327,-19.8951,0.00123944,0.000677606,-0.000970831,0.00196918,-5.21332e-05,-0.644566,0.00133051,0.0157929,895,512,-1.8533,19.8951
-322,512,-1.87097,-20.4121,0.00134578,-0.000181147,-0.000386405,0.00143799,-0.000273362,-0.234267,0.00106158,0.0129678,902,512,-1.871,20.4121
-315,512,-1.89063,-20.9474,0.00154536,-0.000713892,7.51891e-05,0.00154786,-0.000716391,0.0332315,0.00133632,0.0110555,909,512,-1.8906,20.9475
-308,512,-1.91888,-21.439,0.00183928,-0.00123748,0.000466498,0.00190846,-0.00130666,0.147213,0.00186705,0.0111514,916,512,-1.91888,21.439
-301,512,-1.91736,-21.8972,0.00206221,-0.00198765,0.000978129,0.00228607,-0.00221152,0.224995,0.0025968,0.0149831,923,512,-1.91739,21.8972
-294,512,-1.90698,-22.342,0.00230849,-0.0024727,0.00140985,0.00269325,-0.00285747,0.266424,0.00320518,0.0155109,930,512,-1.90696,22.3421
-287,512,-1.98615,-22.7453,0.00261059,-0.00311915,0.00186184,0.00316243,-0.00367099,0.288147,0.00394892,0.0246752,937,512,-1.98616,22.7453
-280,512,-1.89209,-23.2902,0.0028779,-0.00457912,0.00252545,0.00365268,-0.00535391,0.297676,0.00523078,0.0419458,944,512,-1.89211,23.2901
-273,512,-1.58594,-23.9131,0,0,0,0,0,0,0,-1,951,512,-1.58591,23.9131
-266,512,-1.92932,-24.3345,0,0,0,0,0,0,0,-1,958,512,-1.92932,24.3344
-259,512,-0.525452,-14.0815,0,0,0,0,0,0,0,-1,965,512,-0.525475,14.0815
-252,512,1.45941,-3.43475,0,0,0,0,0,0,0,-1,972,512,1.45938,3.43475
-245,512,-1.6731,-22.8959,0,0,0,0,0,0,0,-1,979,512,-1.67312,22.8959
-238,512,0.227051,-8.92969,0,0,0,0,0,0,0,-1,986,512,0.227073,8.92968
-231,512,-2.54437,-10.169,0,0,0,0,0,0,0,-1,993,512,-2.54439,10.169
-224,512,-4.84601,-7.52783,0,0,0,0,0,0,0,-1,1000,512,-4.84602,7.52786
-217,512,-7.37274,-3.89563,0,0,0,0,0,0,0,-1,1007,512,-7.37274,3.89561
-210,512,-3.76642,-1.94702,0,0,0,0,0,0,0,-1,1014,512,-3.76641,1.94702
-203,512,-2.48328,-5.19061,0,0,0,0,0,0,0,-1,1021,512,-2.48328,5.19059
-196,512,-1.14929,-4.63202,0,0,0,0,0,0,0,-1,1028,512,-1.14934,4.632
-189,512,0.197998,4.55505,0,0,0,0,0,0,0,-1,1035,512,0.197996,-4.55506
-182,512,2.73938,0.0778503,0,0,0,0,0,0,0,-1,1042,512,2.73944,-0.077852
-175,512,2.29565,0.209808,0,0,0,0,0,0,0,-1,1049,512,2.29565,-0.209813
-168,512,2.09399,-0.302856,0,0,0,0,0,0,0,-1,1056,512,2.09403,0.302826
-161,512,2.76636,0.0921021,0,0,0,0,0,0,0,-1,1063,512,2.76633,-0.0921104
-154,512,3.41382,0.466187,0,0,0,0,0,0,0,-1,1070,512,3.41382,-0.466178
-147,512,0,0,0,0,0,0,0,0,0,-1,1077,512,0,0
-140,512,0,0,0,0,0,0,0,0,0,-1,1084,512,0,0
-133,512,0,0,0,0,0,0,0,0,0,-1,1091,512,0,0
-126,512,0,0,0,0,0,0,0,0,0,-1,1098,512,0,0
-119,512,0,0,0,0,0,0,0,0,0,-1,1105,512,0,0
-112,512,0,0,0,0,0,0,0,0,0,-1,1112,512,0,0
-105,512,0,0,0,0,0,0,0,0,0,-1,1119,512,0,0
-98,512,0,0,0,0,0,0,0,0,0,-1,1126,512,0,0
-91,512,0,0,0,0,0,0,0,0,0,-1,1133,512,0,0
-84,512,0,0,0,0,0,0,0,0,0,-1,1140,512,0,0
-77,512,0,0,0,0,0,0,0,0,0,-1,1147,512,0,0
-70,512,0,0,0,0,0,0,0,0,0,-1,1154,512,0,0
-63,512,0,0,0,0,0,0,0,0,0,-1,1161,512,0,0
-56,512,0,0,0,0,0,0,0,0,0,-1,1168,512,0,0
-49,512,0,0,0,0,0,0,0,0,0,-1,1175,512,0,0
-42,512,0,0,0,0,0,0,0,0,0,-1,1182,512,0,0
-35,512,0,0,0,0,0,0,0,0,0,-1,1189,512,0,0
-28,512,0,0,0,0,0,0,0,0,0,-1,1196,512,0,0
-21,512,0,0,0,0,0,0,0,0,0,-1,1203,512,0,0
-14,512,0,0,0,0,0,0,0,0,0,-1,1210,512,0,0
-7,512,0,0,0,0,0,0,0,0,0,-1,1217,512,0,0
0,512,0,0,0,0,0,0,0,0,0,-1,1224,512,0,0
7,512,0,0,0,0,0,0,0,0,0,-1,1231,512,0,0
14,512,0,0,0,0,0,0,0,0,0,-1,1238,512,0,0
21,512,0,0,0,0,0,0,0,0,0,-1,1245,512,0,0
28,512,0,0,0,0,0,0,0,0,0,-1,1252,512,0,0
35,512,0,0,0,0,0,0,0,0,0,-1,1259,512,0,0
42,512,0,0,0,0,0,0,0,0,0,-1,1266,512,0,0
49,512,0,0,0,0,0,0,0,0,0,-1,1273,512,0,0
56,512,0,0,0,0,0,0,0,0,0,-1,1280,512,0,0
63,512,0,0,0,0,0,0,0,0,0,-1,1287,512,0,0
70,512,0,0,0,0,0,0,0,0,0,-1,1294,512,0,0
77,512,0,0,0,0,0,0,0,0,0,-1,1301,512,0,0
84,512,0,0,0,0,0,0,0,0,0,-1,1308,512,0,0
91,512,0,0,0,0,0,0,0,0,0,-1,1315,512,0,0
98,512,0,0,0,0,0,0,0,0,0,-1,1322,512,0,0
105,512,0,0,0,0,0,0,0,0,0,-1,1329,512,0,0
112,512,0,0,0,0,0,0,0,0,0,-1,1336,512,0,0
119,512,0,0,0,0,0,0,0,0,0,-1,1343,512,0,0
126,512,0,0,0,0,0,0,0,0,0,-1,1350,512,0,0
133,512,0,0,0,0,0,0,0,0,0,-1,1357,512,0,0
140,512,0,0,0,0,0,0,0,0,0,-1,1364,512,0,0
147,512,0,0,0,0,0,0,0,0,0,-1,1371,512,0,0
154,512,0,0,0,0,0,0,0,0,0,-1,1378,512,0,0
161,512,0,0,0,0,0,0,0,0,0,-1,1385,512,0,0
168,512,0,0,0,0,0,0,0,0,0,-1,1392,512,0,0
175,512,0,0,0,0,0,0,0,0,0,-1,1399,512,0,0
182,512,0,0,0,0,0,0,0,0,0,-1,1406,512,0,0
189,512,0,0,0,0,0,0,0,0,0,-1,1413,512,0,0
196,512,0,0,0,0,0,0,0,0,0,-1,1420,512,0,0
203,512,0,0,0,0,0,0,0,0,0,-1,1427,512,0,0
210,512,0,0,0,0,0,0,0,0,0,-1,1434,512,0,0
217,512,0,0,0,0,0,0,0,0,0,-1,1441,512,0,0
224,512,0,0,0,0,0,0,0,0,0,-1,1448,512,0,0
231,512,0,0,0,0,0,0,0,0,0,-1,1455,512,0,0
238,512,0,0,0,0,0,0,0,0,0,-1,1462,512,0,0
245,512,0,0,0,0,0,0,0,0,0,-1,1469,512,0,0
252,512,0,0,0,0,0,0,0,0,0,-1,1476,512,0,0
259,512,0,0,0,0,0,0,0,0,0,-1,1483,512,0,0
266,512,0,0,0,0,0,0,0,0,0,-1,1490,512,0,0
273,512,4.00745,0.618622,0,0,0,0,0,0,0,-1,1497,512,4.00747,-0.618611
280,512,4.49609,0.649841,0,0,0,0,0,0,0,-1,1504,512,4.49612,-0.649834
287,512,4.77234,0.458069,0,0,0,0,0,0,0,-1,1511,512,4.77233,-0.458083
294,512,8.54956,-2.36273,0,0,0,0,0,0,0,-1,1518,512,8.54952,2.36274
301,512,6.302,-1.69092,0,0,0,0,0,0,0,-1,1525,512,6.30196,1.69093
308,512,8.2439,-6.22754,0,0,0,0,0,0,0,-1,1532,512,8.24394,6.22757
315,512,7.53687,-6.04211,0,0,0,0,0,0,0,-1,1539,512,7.53691,6.04211
322,512,6.82983,-5.85663,0,0,0,0,0,0,0,-1,1546,512,6.82988,5.85666
329,512,4.38147,-0.329651,0,0,0,0,0,0,0,-1,1553,512,4.38144,0.329662
336,512,4.41467,-0.741455,0,0,0,0,0,0,0,-1,1560,512,4.41467,0.741442
343,512,4.44727,-1.21667,0,0,0,0,0,0,0,-1,1567,512,4.44732,1.21666
350,512,4.55469,-1.65082,0,0,0,0,0,0,0,-1,1574,512,4.5547,1.65083
357,512,5.79993,-2.67456,0,0,0,0,0,0,0,-1,1581,512,5.79991,2.67454
364,512,8.56641,-24.3753,0,0,0,0,0,0,0,-1,1588,512,8.56646,24.3753
371,512,5.28467,-7.69269,0,0,0,0,0,0,0,-1,1595,512,5.28464,7.69269
378,512,6.29407,-9.88055,0,0,0,0,0,0,0,-1,1602,512,6.29412,9.88057
385,512,6.45569,-9.32233,0,0,0,0,0,0,0,-1,1609,512,6.45565,9.3223
392,512,6.35522,-8.98425,0,0,0,0,0,0,0,-1,1616,512,6.35526,8.98422
399,512,7.5304,-12.1449,0,0,0,0,0,0,0,-1,1623,512,7.53042,12.1449
406,512,11.7894,-22.4261,0,0,0,0,0,0,0,-1,1630,512,11.7894,22.4262
413,512,11.8779,-21.8709,0,0,0,0,0,0,0,-1,1637,512,11.8779,21.8709
420,512,11.8479,-21.3201,0.00266571,0.002535,0.0005351,0.00313943,0.00206128,0.724628,0.00184194,0.0261034,1644,512,11.8479,21.3201
427,512,11.8385,-20.7755,0.00234551,0.00244307,0.000625128,0.00302132,0.00176726,0.824337,0.00175273,0.0154869,1651,512,11.8385,20.7754
434,512,11.8029,-20.2828,0.00200417,0.00226903,0.00066861,0.0028182,0.001455,0.883168,0.00162738,0.0119584,1658,512,11.8028,20.2828
441,512,11.776,-19.78,0.0017204,0.00210709,0.000765999,0.00270377,0.00112372,0.909021,0.00156842,0.0137564,1665,512,11.7761,19.78
448,512,11.7664,-19.2456,0.0016262,0.00189418,0.00092994,0.00269973,0.000820644,0.856949,0.00159812,0.00981659,1672,512,11.7663,19.2456
455,512,11.7559,-18.7212,0.00149657,0.0017518,0.00103799,0.00266999,0.000578383,0.846563,0.00162194,0.00883005,1679,512,11.7559,18.7212
462,512,11.741,-18.1935,0.00134553,0.00161353,0.00116152,0.00264875,0.000310312,0.842828,0.00167202,0.00939399,1686,512,11.7409,18.1935
469,512,11.7209,-17.6375,0.00108586,0.00135292,0.00123881,0.00246538,-2.6595e-05,0.839084,0.00165252,0.0103824,1693,512,11.721,17.6375
476,512,11.7019,-17.0837,0.000665672,0.00106437,0.00132719,0.0022071,-0.000477056,0.859944,0.00165352,0.0128349,1700,512,11.7019,17.0837
483,512,11.6874,-16.5176,9.54143e-05,0.000665685,0.00129102,0.00170269,-0.000941587,0.894083,0.00154761,0.0121754,1707,512,11.6874,16.5176
490,512,11.6805,-15.9692,-0.000742565,9.12594e-05,0.00118548,0.000931,-0.00158231,0.954485,0.00146721,0.01025,1714,512,11.6805,15.9692
497,512,11.6719,-15.4166,-0.00188985,-0.000606359,0.000971911,-8.34375e-05,-0.00241277,1.07719,0.00158144,0.0108672,1721,512,11.6719,15.4166
504,512,11.6307,-14.8405,-0.00340724,-0.00152221,0.000612327,-0.00134077,-0.00358868,1.28272,0.00209387,0.0117874,1728,512,11.6308,14.8405
511,512,11.588,-14.252,-0.00529518,-0.00268189,8.6705e-05,-0.00267901,-0.00529805,1.53767,0.0030589,0.0145186,1735,512,11.5881,14.252
518,512,11.5774,-13.6863,-0.00760827,-0.00400154,-0.0006092,-0.00390142,-0.00770839,-1.40791,0.00445055,0.0186814,1742,512,11.5774,13.6863
525,512,11.4475,-13.1705,-0.0105487,-0.00556855,-0.00158289,-0.00510803,-0.0110092,-1.28768,0.00636168,0.0423885,1749,512,11.4475,13.1706
532,512,11.4724,-12.4851,0,0,0,0,0,0,0,-1,1756,512,11.4725,12.4851
539,512,7.05908,-7.00647,0,0,0,0,0,0,0,-1,1763,512,7.05909,7.00647
546,512,2.77551,-0.66449,0,0,0,0,0,0,0,-1,1770,512,2.77548,0.664503
553,512,3.927,-0.448853,0,0,0,0,0,0,0,-1,1777,512,3.92704,0.448843
560,512,3.55762,-0.201233,0,0,0,0,0,0,0,-1,1784,512,3.55768,0.201259
567,512,3.09045,0.191193,0,0,0,0,0,0,0,-1,1791,512,3.09045,-0.191203
574,512,0,0,0,0,0,0,0,0,0,-1,1798,512,0,0
581,512,0,0,0,0,0,0,0,0,0,-1,1805,512,0,0
588,512,0,0,0,0,0,0,0,0,0,-1,1812,512,0,0
595,512,0,0,0,0,0,0,0,0,0,-1,1819,512,0,0
602,512,0,0,0,0,0,0,0,0,0,-1,1826,512,0,0
609,512,0,0,0,0,0,0,0,0,0,-1,1833,512,0,0
616,512,0,0,0,0,0,0,0,0,0,-1,1840,512,0,0
623,512,0,0,0,0,0,0,0,0,0,-1,1847,512,0,0
630,512,0,0,0,0,0,0,0,0,0,-1,1854,512,0,0
637,512,0,0,0,0,0,0,0,0,0,-1,1861,512,0,0
644,512,0,0,0,0,0,0,0,0,0,-1,1868,512,0,0
651,512,0,0,0,0,0,0,0,0,0,-1,1875,512,0,0
658,512,0,0,0,0,0,0,0,0,0,-1,1882,512,0,0
665,512,0,0,0,0,0,0,0,0,0,-1,1889,512,0,0
672,512,0,0,0,0,0,0,0,0,0,-1,1896,512,0,0
679,512,0,0,0,0,0,0,0,0,0,-1,1903,512,0,0
686,512,0,0,0,0,0,0,0,0,0,-1,1910,512,0,0
693,512,0,0,0,0,0,0,0,0,0,-1,1917,512,0,0
700,512,0,0,0,0,0,0,0,0,0,-1,1924,512,0,0
707,512,0,0,0,0,0,0,0,0,0,-1,1931,512,0,0
714,512,0,0,0,0,0,0,0,0,0,-1,1938,512,0,0
721,512,0,0,0,0,0,0,0,0,0,-1,1945,512,0,0
728,512,0,0,0,0,0,0,0,0,0,-1,1952,512,0,0
735,512,0,0,0,0,0,0,0,0,0,-1,1959,512,0,0
742,512,0,0,0,0,0,0,0,0,0,-1,1966,512,0,0
749,512,0,0,0,0,0,0,0,0,0,-1,1973,512,0,0
756,512,0,0,0,0,0,0,0,0,0,-1,1980,512,0,0
763,512,0,0,0,0,0,0,0,0,0,-1,1987,512,0,0
770,512,0,0,0,0,0,0,0,0,0,-1,1994,512,0,0
777,512,0,0,0,0,0,0,0,0,0,-1,2001,512,0,0
784,512,0,0,0,0,0,0,0,0,0,-1,2008,512,0,0
791,512,0,0,0,0,0,0,0,0,0,-1,2015,512,0,0
798,512,0,0,0,0,0,0,0,0,0,-1,2022,512,0,0
805,512,0,0,0,0,0,0,0,0,0,-1,2029,512,0,0
812,512,0,0,0,0,0,0,0,0,0,-1,2036,512,0,0
-700,505,0,0,0,0,0,0,0,0,0,-1,524,519,0,0
-693,505,0,0,0,0,0,0,0,0,0,-1,531,519,0,0
-686,505,0,0,0,0,0,0,0,0,0,-1,538,519,0,0
-679,505,0,0,0,0,0,0,0,0,0,-1,545,519,0,0
-672,505,0,0,0,0,0,0,0,0,0,-1,552,519,0,0
-665,505,0,0,0,0,0,0,0,0,0,-1,559,519,0,0
-658,505,0,0,0,0,0,0,0,0,0,-1,566,519,0,0
-651,505,0,0,0,0,0,0,0,0,0,-1,573,519,0,0
-644,505,0,0,0,0,0,0,0,0,0,-1,580,519,0,0
-637,505,0,0,0,0,0,0,0,0,0,-1,587,519,0,0
-630,505,0,0,0,0,0,0,0,0,0,-1,594,519,0,0
-623,505,0,0,0,0,0,0,0,0,0,-1,601,519,0,0
-616,505,0,0,0,0,0,0,0,0,0,-1,608,519,0,0
-609,505,0,0,0,0,0,0,0,0,0,-1,615,519,0,0
-602,505,0,0,0,0,0,0,0,0,0,-1,622,519,0,0
-595,505,0,0,0,0,0,0,0,0,0,-1,629,519,0,0
-588,505,0,0,0,0,0,0,0,0,0,-1,636,519,0,0
-581,505,0,0,0,0,0,0,0,0,0,-1,643,519,0,0
-574,505,0,0,0,0,0,0,0,0,0,-1,650,519,0,0
-567,505,0,0,0,0,0,0,0,0,0,-1,657,519,0,0
-560,505,0,0,0,0,0,0,0,0,0,-1,664,519,0,0
-553,505,0,0,0,0,0,0,0,0,0,-1,671,519,0,0
-546,505,0,0,0,0,0,0,0,0,0,-1,678,519,0,0
-539,505,0,0,0,0,0,0,0,0,0,-1,685,519,0,0
-532,505,0,0,0,0,0,0,0,0,0,-1,692,519,0,0
-525,505,0,0,0,0,0,0,0,0,0,-1,699,519,0,0
-518,505,0,0,0,0,0,0,0,0,0,-1,706,519,0,0
-511,505,0,0,0,0,0,0,0,0,0,-1,713,519,0,0
-504,505,0,0,0,0,0,0,0,0,0,-1,720,519,0,0
-497,505,0,0,0,0,0,0,0,0,0,-1,727,519,0,0
-490,505,0,0,0,0,0,0,0,0,0,-1,734,519,0,0
-483,505,0,0,0,0,0,0,0,0,0,-1,741,519,0,0
-476,505,0,0,0,0,0,0,0,0,0,-1,748,519,0,0
-469,505,0,0,0,0,0,0,0,0,0,-1,755,519,0,0
-462,505,0,0,0,0,0,0,0,0,0,-1,762,519,0,0
-455,505,2.72137,-3.26379,0,0,0,0,0,0,0,-1,769,519,2.72135,3.26377
-448,505,2.51111,-3.94989,0,0,0,0,0,0,0,-1,776,519,2.51112,3.94986
-441,505,2.80212,-6.8902,0,0,0,0,0,0,0,-1,783,519,2.80209,6.89019
-434,505,-0.155212,-10.6374,0,0,0,0,0,0,0,-1,790,519,-0.155194,10.6374
-427,505,-0.474426,-10.4702,0,0,0,0,0,0,0,-1,797,519,-0.474433,10.4702
-420,505,-0.922546,-10.1928,0,0,0,0,0,0,0,-1,804,519,-0.92257,10.1928
-413,505,-3.33948,-13.6183,0,0,0,0,0,0,0,-1,811,519,-3.33949,13.6184
-406,505,-3.12128,-13.1361,0,0,0,0,0,0,0,-1,818,519,-3.12125,13.1361
-399,505,-2.67377,-14.0112,0.00892885,0.0256424,-0.0172327,0.0364377,-0.00186645,-1.01116,0.0249373,0.0489853,825,519,-2.67376,14.0111
-392,505,-2.20026,-14.996,0.00738355,0.0210891,-0.0144452,0.0302246,-0.00175192,-1.00688,0.0207583,0.0230023,832,519,-2.20028,14.996
-385,505,-2.23792,-15.6339,0.00601082,0.0169689,-0.0118189,0.024517,-0.00153726,-1.00244,0.0168804,0.0097178,839,519,-2.23794,15.6339
-378,505,-2.28937,-16.1974,0.00493458,0.0134326,-0.00958201,0.0196655,-0.00129825,-0.99409,0.0135638,0.0115627,846,519,-2.28938,16.1975
-371,505,-2.29791,-16.777,0.00397631,0.0102386,-0.00758389,0.0153123,-0.00109738,-0.981174,0.010593,0.0145203,853,519,-2.29792,16.777
-364,505,-2.31976,-17.3188,0.00311567,0.00745164,-0.00575837,0.0114366,-0.000869314,-0.965438,0.00793009,0.0148555,860,519,-2.31974,17.3188
-357,505,-2.31,-17.8328,0.00246553,0.00520523,-0.00420592,0.00825875,-0.000587988,-0.942829,0.00571193,0.0118474,867,519,-2.31002,17.8328
-350,505,-2.33636,-18.3442,0.00201715,0.0032163,-0.0028569,0.00553586,-0.000302413,-0.888831,0.00379539,0.0105857,874,519,-2.33639,18.3442
-343,505,-2.35846,-18.8572,0.00160149,0.00161725,-0.00166104,0.00327042,-5.16834e-05,-0.787769,0.00219771,0.00911794,881,519,-2.35844,18.8572
-336,505,-2.37054,-19.3646,0.00148031,0.000453068,-0.000859027,0.00196756,-3.41772e-05,-0.515957,0.00132324,0.0122483,888,519,-2.37056,19.3646
-329,505,-2.34277,-19.876,0.00159977,-0.00051669,-0.000264014,0.00163221,-0.000549127,-0.122248,0.00131012,0.0176531,895,519,-2.34276,19.876
-322,505,-2.3512,-20.4177,0.0018032,-0.00115299,0.000207961,0.00181776,-0.00116754,0.0698889,0.00173714,0.020524,902,519,-2.35117,20.4177
-315,505,-2.39032,-20.9393,0.00209806,-0.00160458,0.000568209,0.00218329,-0.00168982,0.148897,0.00224218,0.0158248,909,519,-2.39034,20.9393
-308,505,-2.422,-21.3999,0.00255125,-0.00215199,0.000883952,0.0027119,-0.00231264,0.179775,0.00290397,0.0124715,916,519,-2.42197,21.3999
-301,505,-2.39844,-21.8653,0.00288131,-0.00286342,0.00138756,0.0031989,-0.00318101,0.225006,0.00368344,0.0165434,923,519,-2.39842,21.8653
-294,505,-2.38556,-22.2986,0,0,0,0,0,0,0,-1,930,519,-2.38557,22.2986
-287,505,-2.45056,-22.8108,0,0,0,0,0,0,0,-1,937,519,-2.45057,22.8108
-280,505,-2.28473,-23.4978,0,0,0,0,0,0,0,-1,944,519,-2.28471,23.4978
-273,505,-0.0680542,-9.44867,0,0,0,0,0,0,0,-1,951,519,-0.0680462,9.44866
-266,505,-0.036377,-9.07922,0,0,0,0,0,0,0,-1,958,519,-0.0364055,9.0792
-259,505,0.10321,-6.69824,0,0,0,0,0,0,0,-1,965,519,0.103235,6.69826
-252,505,6.82312,-15.6972,0,0,0,0,0,0,0,-1,972,519,6.82314,15.6972
-245,505,4.26727,-12.9861,0,0,0,0,0,0,0,-1,979,519,4.2673,12.9861
-238,505,1.67432,-11.2307,0,0,0,0,0,0,0,-1,986,519,1.67429,11.2307
-231,505,-0.958435,-8.3075,0,0,0,0,0,0,0,-1,993,519,-0.958421,8.30751
-224,505,-3.69653,-5.12732,0,0,0,0,0,0,0,-1,1000,519,-3.69653,5.12733
-217,505,-6.34302,-1.65533,0,0,0,0,0,0,0,-1,1007,519,-6.34299,1.65535
-210,505,-3.06128,-0.396301,0,0,0,0,0,0,0,-1,1014,519,-3.06129,0.396294
-203,505,-4.26465,2.03607,0,0,0,0,0,0,0,-1,1021,519,-4.26462,-2.03606
-196,505,-5.47595,4.27295,0,0,0,0,0,0,0,-1,1028,519,-5.47597,-4.27292
-189,505,1.51526,5.56207,0,0,0,0,0,0,0,-1,1035,519,1.51523,-5.56209
-182,505,2.97815,7.5097,0,0,0,0,0,0,0,-1,1042,519,2.97812,-7.5097
-175,505,-2.38416,-2.17548,0,0,0,0,0,0,0,-1,1049,519,-2.38411,2.1755
-168,505,0,0,0,0,0,0,0,0,0,-1,1056,519,0,0
-161,505,0,0,0,0,0,0,0,0,0,-1,1063,519,0,0
-154,505,0,0,0,0,0,0,0,0,0,-1,1070,519,0,0
-147,505,0,0,0,0,0,0,0,0,0,-1,1077,519,0,0
-140,505,0,0,0,0,0,0,0,0,0,-1,1084,519,0,0
-133,505,0,0,0,0,0,0,0,0,0,-1,1091,519,0,0
-126,505,0,0,0,0,0,0,0,0,0,-1,1098,519,0,0
-119,505,0,0,0,0,0,0,0,0,0,-1,1105,519,0,0
-112,505,0,0,0,0,0,0,0,0,0,-1,1112,519,0,0
-105,505,0,0,0,0,0,0,0,0,0,-1,1119,519,0,0
-98,505,0,0,0,0,0,0,0,0,0,-1,1126,519,0,0
-91,505,0,0,0,0,0,0,0,0,0,-1,1133,519,0,0
-84,505,0,0,0,0,0,0,0,0,0,-1,1140,519,0,0
-77,505,0,0,0,0,0,0,0,0,0,-1,1147,519,0,0
-70,505,0,0,0,0,0,0,0,0,0,-1,1154,519,0,0
-63,505,0,0,0,0,0,0,0,0,0,-1,1161,519,0,0
-56,505,0,0,0,0,0,0,0,0,0,-1,1168,519,0,0
-49,505,0,0,0,0,0,0,0,0,0,-1,1175,519,0,0
-42,505,0,0,0,0,0,0,0,0,0,-1,1182,519,0,0
-35,505,0,0,0,0,0,0,0,0,0,-1,1189,519,0,0
-28,505,0,0,0,0,0,0,0,0,0,-1,1196,519,0,0
-21,505,0,0,0,0,0,0,0,0,0,-1,1203,519,0,0
-14,505,0,0,0,0,0,0,0,0,0,-1,1210,519,0,0
-7,505,0,0,0,0,0,0,0,0,0,-1,1217,519,0,0
0,505,0,0,0,0,0,0,0,0,0,-1,1224,519,0,0
7,505,0,0,0,0,0,0,0,0,0,-1,1231,519,0,0
14,505,0,0,0,0,0,0,0,0,0,-1,1238,519,0,0
21,505,0,0,0,0,0,0,0,0,0,-1,1245,519,0,0
28,505,0,0,0,0,0,0,0,0,0,-1,1252,519,0,0
35,505,0,0,0,0,0,0,0,0,0,-1,1259,519,0,0
42,505,0,0,0,0,0,0,0,0,0,-1,1266,519,0,0
49,505,0,0,0,0,0,0,0,0,0,-1,1273,519,0,0
56,505,0,0,0,0,0,0,0,0,0,-1,1280,519,0,0
63,505,0,0,0,0,0,0,0,0,0,-1,1287,519,0,0
70,505,0,0,0,0,0,0,0,0,0,-1,1294,519,0,0
77,505,0,0,0,0,0,0,0,0,0,-1,1301,519,0,0
84,505,0,0,0,0,0,0,0,0,0,-1,1308,519,0,0
91,505,0,0,0,0,0,0,0,0,0,-1,1315,519,0,0
98,505,0,0,0,0,0,0,0,0,0,-1,1322,519,0,0
105,505,0,0,0,0,0,0,0,0,0,-1,1329,519,0,0
112,505,0,0,0,0,0,0,0,0,0,-1,1336,519,0,0
119,505,0,0,0,0,0,0,0,0,0,-1,1343,519,0,0
126,505,0,0,0,0,0,0,0,0,0,-1,1350,519,0,0
133,505,0,0,0,0,0,0,0,0,0,-1,1357,519,0,0
140,505,0,0,0,0,0,0,0,0,0,-1,1364,519,0,0
147,505,0,0,0,0,0,0,0,0,0,-1,1371,519,0,0
154,505,0,0,0,0,0,0,0,0,0,-1,1378,519,0,0
161,505,0,0,0,0,0,0,0,0,0,-1,1385,519,0,0
168,505,0,0,0,0,0,0,0,0,0,-1,1392,519,0,0
175,505,0,0,0,0,0,0,0,0,0,-1,1399,519,0,0
182,505,0,0,0,0,0,0,0,0,0,-1,1406,519,0,0
189,505,0,0,0,0,0,0,0,0,0,-1,1413,519,0,0
196,505,0,0,0,0,0,0,0,0,0,-1,1420,519,0,0
203,505,0,0,0,0,0,0,0,0,0,-1,1427,519,0,0
210,505,0,0,0,0,0,0,0,0,0,-1,1434,519,0,0
217,505,0,0,0,0,0,0,0,0,0,-1,1441,519,0,0
224,505,0,0,0,0,0,0,0,0,0,-1,1448,519,0,0
231,505,0,0,0,0,0,0,0,0,0,-1,1455,519,0,0
238,505,0,0,0,0,0,0,0,0,0,-1,1462,519,0,0
245,505,0,0,0,0,0,0,0,0,0,-1,1469,519,0,0
252,505,0,0,0,0,0,0,0,0,0,-1,1476,519,0,0
259,505,0,0,0,0,0,0,0,0,0,-1,1483,519,0,0
266,505,0,0,0,0,0,0,0,0,0,-1,1490,519,0,0
273,505,0,0,0,0,0,0,0,0,0,-1,1497,519,0,0
280,505,0,0,0,0,0,0,0,0,0,-1,1504,519,0,0
287,505,4.39478,0.499512,0,0,0,0,0,0,0,-1,1511,519,4.39476,-0.499506
294,505,4.88867,0.0822754,0,0,0,0,0,0,0,-1,1518,519,4.88871,-0.0822748
301,505,4.82153,-0.0704346,0,0,0,0,0,0,0,-1,1525,519,4.82156,0.0704312
308,505,4.67761,-0.29187,0,0,0,0,0,0,0,-1,1532,519,4.67762,0.291845
315,505,8.44055,-6.54352,0,0,0,0,0,0,0,-1,1539,519,8.44059,6.54349
322,505,4.78955,-0.594116,0,0,0,0,0,0,0,-1,1546,519,4.78957,0.594096
329,505,5.16321,0.434631,0,0,0,0,0,0,0,-1,1553,519,5.16316,-0.434614
336,505,4.94495,-0.920471,0,0,0,0,0,0,0,-1,1560,519,4.945,0.920495
343,505,5.01855,-1.4823,0,0,0,0,0,0,0,-1,1567,519,5.01851,1.48227
350,505,5.33154,-1.77838,0,0,0,0,0,0,0,-1,1574,519,5.33152,1.77838
357,505,5.56567,-1.9425,0,0,0,0,0,0,0,-1,1581,519,5.56562,1.94248
364,505,5.85205,-2.6579,0,0,0,0,0,0,0,-1,1588,519,5.85211,2.65788
371,505,5.88477,-7.00922,0,0,0,0,0,0,0,-1,1595,519,5.88473,7.00924
378,505,5.44104,-7.10162,0,0,0,0,0,0,0,-1,1602,519,5.44099,7.10162
385,505,6.64661,-8.65015,0,0,0,0,0,0,0,-1,1609,519,6.64662,8.65014
392,505,6.34558,-8.3429,0,0,0,0,0,0,0,-1,1616,519,6.34554,8.34288
399,505,7.45898,-9.70386,0,0,0,0,0,0,0,-1,1623,519,7.45899,9.70388
406,505,7.08679,-9.4928,0,0,0,0,0,0,0,-1,1630,519,7.08678,9.49278
413,505,8.4032,-14.0308,0,0,0,0,0,0,0,-1,1637,519,8.4032,14.0308
420,505,12.3173,-21.5077,0,0,0,0,0,0,0,-1,1644,519,12.3173,21.5077
427,505,12.3268,-20.923,0.00287315,0.00326259,0.00076992,0.00386203,0.0022737,0.909255,0.00224142,0.0307641,1651,519,12.3268,20.923
434,505,12.3046,-20.3013,0.00241039,0.00281084,0.000652888,0.00329352,0.00192772,0.934182,0.00191072,0.0126919,1658,519,12.3046,20.3013
441,505,12.3054,-19.7395,0.00201811,0.00242899,0.000617659,0.00287448,0.00157262,0.945949,0.00166203,0.0108413,1665,519,12.3055,19.7395
448,505,12.2992,-19.2015,0.00186386,0.00206125,0.000705109,0.00267454,0.00125057,0.85493,0.00154523,0.0111405,1672,519,12.2992,19.2015
455,505,12.2882,-18.6844,0.00167348,0.00178262,0.000750167,0.0024802,0.000975904,0.821705,0.00144274,0.0113324,1679,519,12.2882,18.6844
462,505,12.2697,-18.1624,0.00150392,0.00157932,0.000821419,0.0023639,0.000719336,0.808331,0.00139921,0.0112018,1686,519,12.2697,18.1624
469,505,12.2493,-17.6108,0.00129373,0.00134414,0.000928478,0.00224775,0.000390113,0.798968,0.00138688,0.0104167,1693,519,12.2493,17.6108
476,505,12.2318,-17.0741,0.00091346,0.00108489,0.00103099,0.00203372,-3.53697e-05,0.826871,0.00136775,0.0111269,1700,519,12.2318,17.0741
483,505,12.213,-16.5255,0.000399618,0.000739652,0.00102414,0.0016078,-0.000468525,0.867653,0.00125748,0.0128986,1707,519,12.213,16.5255
490,505,12.2024,-15.9717,-0.000357439,0.00029802,0.000954825,0.000979794,-0.00103921,0.950716,0.00116584,0.0122753,1714,519,12.2024,15.9717
497,505,12.1978,-15.4257,-0.00135582,-0.000220036,0.000816032,0.00020626,-0.00178211,1.08939,0.00126246,0.0113152,1721,519,12.1978,15.4257
504,505,12.1648,-14.8394,-0.00260768,-0.000881667,0.000581993,-0.000703763,-0.00278559,1.27414,0.00167257,0.0121456,1728,519,12.1648,14.8394
511,505,12.1405,-14.2599,-0.00414443,-0.00170547,0.000221586,-0.0016855,-0.00416439,1.48092,0.00241882,0.0148409,1735,519,12.1405,14.2599
518,505,12.1689,-13.7117,-0.00599654,-0.00261332,-0.000322305,-0.00258289,-0.00602697,-1.47666,0.0034915,0.0209717,1742,519,12.1689,13.7117
525,505,11.9585,-13.082,-0.00819128,-0.00377857,-0.00107683,-0.00352981,-0.00844003,-1.34377,0.00489453,0.0325287,1749,519,11.9585,13.0819
532,505,11.7214,-12.5733,0,0,0,0,0,0,0,-1,1756,519,11.7215,12.5733
539,505,7.90369,-7.11932,0,0,0,0,0,0,0,-1,1763,519,7.90373,7.11932
546,505,7.94946,-6.64539,0,0,0,0,0,0,0,-1,1770,519,7.94947,6.64539
553,505,2.82837,0.162659,0,0,0,0,0,0,0,-1,1777,519,2.82841,-0.162672
560,505,3.66223,-0.479797,0,0,0,0,0,0,0,-1,1784,519,3.66219,0.47982
567,505,4.65271,-0.950256,0,0,0,0,0,0,0,-1,1791,519,4.65274,0.95028
574,505,5.54443,-1.19977,0,0,0,0,0,0,0,-1,1798,519,5.54443,1.19974
581,505,0,0,0,0,0,0,0,0,0,-1,1805,519,0,0
588,505,0,0,0,0,0,0,0,0,0,-1,1812,519,0,0
595,505,0,0,0,0,0,0,0,0,0,-1,1819,519,0,0
602,505,0,0,0,0,0,0,0,0,0,-1,1826,519,0,0
609,505,0,0,0,0,0,0,0,0,0,-1,1833,519,0,0
616,505,0,0,0,0,0,0,0,0,0,-1,1840,519,0,0
623,505,0,0,0,0,0,0,0,0,0,-1,1847,519,0,0
630,505,0,0,0,0,0,0,0,0,0,-1,1854,519,0,0
637,505,0,0,0,0,0,0,0,0,0,-1,1861,519,0,0
644,505,0,0,0,0,0,0,0,0,0,-1,1868,519,0,0
651,505,0,0,0,0,0,0,0,0,0,-1,1875,519,0,0
658,505,0,0,0,0,0,0,0,0,0,-1,1882,519,0,0
665,505,0,0,0,0,0,0,0,0,0,-1,1889,519,0,0
672,505,0,0,0,0,0,0,0,0,0,-1,1896,519,0,0
679,505,0,0,0,0,0,0,0,0,0,-1,1903,519,0,0
686,505,0,0,0,0,0,0,0,0,0,-1,1910,519,0,0
693,505,0,0,0,0,0,0,0,0,0,-1,1917,519,0,0
700,505,0,0,0,0,0,0,0,0,0,-1,1924,519,0,0
707,505,0,0,0,0,0,0,0,0,0,-1,1931,519,0,0
714,505,0,0,0,0,0,0,0,0,0,-1,1938,519,0,0
721,505,0,0,0,0,0,0,0,0,0,-1,1945,519,0,0
728,505,0,0,0,0,0,0,0,0,0,-1,1952,519,0,0
735,505,0,0,0,0,0,0,0,0,0,-1,1959,519,0,0
742,505,0,0,0,0,0,0,0,0,0,-1,1966,519,0,0
749,505,0,0,0,0,0,0,0,0,0,-1,1973,519,0,0
756,505,0,0,0,0,0,0,0,0,0,-1,1980,519,0,0
763,505,0,0,0,0,0,0,0,0,0,-1,1987,519,0,0
770,505,0,0,0,0,0,0,0,0,0,-1,1994,519,0,0
777,505,0,0,0,0,0,0,0,0,0,-1,2001,519,0,0
784,505,0,0,0,0,0,0,0,0,0,-1,2008,519,0,0
791,505,0,0,0,0,0,0,0,0,0,-1,2015,519,0,0
798,505,0,0,0,0,0,0,0,0,0,-1,2022,519,0,0
805,505,0,0,0,0,0,0,0,0,0,-1,2029,519,0,0
812,505,0,0,0,0,0,0,0,0,0,-1,2036,519,0,0
-700,498,0,0,0,0,0,0,0,0,0,-1,524,526,0,0
-693,498,0,0,0,0,0,0,0,0,0,-1,531,526,0,0
-686,498,0,0,0,0,0,0,0,0,0,-1,538,526,0,0
-679,498,0,0,0,0,0,0,0,0,0,-1,545,526,0,0
-672,498,0,0,0,0,0,0,0,0,0,-1,552,526,0,0
-665,498,0,0,0,0,0,0,0,0,0,-1,559,526,0,0
-658,498,0,0,0,0,0,0,0,0,0,-1,566,526,0,0
-651,498,0,0,0,0,0,0,0,0,0,-1,573,526,0,0
-644,498,0,0,0,0,0,0,0,0,0,-1,580,526,0,0
-637,498,0,0,0,0,0,0,0,0,0,-1,587,526,0,0
-630,498,0,0,0,0,0,0,0,0,0,-1,594,526,0,0
-623,498,0,0,0,0,0,0,0,0,0,-1,601,526,0,0
-616,498,0,0,0,0,0,0,0,0,0,-1,608,526,0,0
-609,498,0,0,0,0,0,0,0,0,0,-1,615,526,0,0
-602,498,0,0,0,0,0,0,0,0,0,-1,622,526,0,0
-595,498,0,0,0,0,0,0,0,0,0,-1,629,526,0,0
-588,498,0,0,0,0,0,0,0,0,0,-1,636,526,0,0
-581,498,0,0,0,0,0,0,0,0,0,-1,643,526,0,0
-574,498,0,0,0,0,0,0,0,0,0,-1,650,526,0,0
-567,498,0,0,0,0,0,0,0,0,0,-1,657,526,0,0
-560,498,0,0,0,0,0,0,0,0,0,-1,664,526,0,0
-553,498,0,0,0,0,0,0,0,0,0,-1,671,526,0,0
-546,498,0,0,0,0,0,0,0,0,0,-1,678,526,0,0
-539,498,0,0,0,0,0,0,0,0,0,-1,685,526,0,0
-532,498,0,0,0,0,0,0,0,0,0,-1,692,526,0,0
-525,498,0,0,0,0,0,0,0,0,0,-1,699,526,0,0
-518,498,0,0,0,0,0,0,0,0,0,-1,706,526,0,0
-511,498,0,0,0,0,0,0,0,0,0,-1,713,526,0,0
-504,498,0,0,0,0,0,0,0,0,0,-1,720,526,0,0
-497,498,0,0,0,0,0,0,0,0,0,-1,727,526,0,0
-490,498,0,0,0,0,0,0,0,0,0,-1,734,526,0,0
-483,498,0,0,0,0,0,0,0,0,0,-1,741,526,0,0
-476,498,0,0,0,0,0,0,0,0,0,-1,748,526,0,0
-469,498,0,0,0,0,0,0,0,0,0,-1,755,526,0,0
-462,498,6.81024,1.15515,0,0,0,0,0,0,0,-1,762,526,6.81026,-1.15514
-455,498,3.25757,-3.0592,0,0,0,0,0,0,0,-1,769,526,3.25754,3.05921
-448,498,3.05939,-3.74298,0,0,0,0,0,0,0,-1,776,526,3.05939,3.74296
-441,498,2.77191,-6.08209,0,0,0,0,0,0,0,-1,783,526,2.77189,6.08207
-434,498,2.10681,-6.95929,0,0,0,0,0,0,0,-1,790,526,2.10682,6.9593
-427,498,-0.368042,-10.7726,0,0,0,0,0,0,0,-1,797,526,-0.36807,10.7726
-420,498,-1.05035,-10.5142,0,0,0,0,0,0,0,-1,804,526,-1.05034,10.5142
-413,498,-2.95044,-12.6651,0,0,0,0,0,0,0,-1,811,526,-2.95045,12.6651
-406,498,-2.82281,-13.4977,0.00751327,0.0239358,-0.0154391,0.0332114,-0.00176237,-1.0298,0.0227512,0.0499172,818,526,-2.82281,13.4977
-399,498,-2.69025,-14.3878,0.00653626,0.0199993,-0.0132813,0.0281576,-0.00162199,-1.01995,0.0193351,0.0263655,825,526,-2.69024,14.3878
-392,498,-2.74384,-15.0716,0.00554417,0.0163811,-0.0111629,0.0233711,-0.00144587,-1.01135,0.0160844,0.0129569,832,526,-2.74384,15.0716
-385,498,-2.76648,-15.6394,0.00469973,0.0130525,-0.00914022,0.0189253,-0.00117306,-0.999696,0.0130255,0.00866565,839,526,-2.76647,15.6394
-378,498,-2.76361,-16.1743,0.00403405,0.0101755,-0.00736169,0.0150812,-0.000871679,-0.982988,0.0103569,0.0104803,846,526,-2.76362,16.1742
-371,498,-2.76923,-16.7341,0.00338067,0.00749228,-0.0057218,0.0115164,-0.000643437,-0.957863,0.00790081,0.0172271,853,526,-2.7692,16.7342
-364,498,-2.78668,-17.2828,0.00276403,0.00509556,-0.00418873,0.00827772,-0.000418133,-0.921119,0.00566301,0.0171961,860,526,-2.78671,17.2829
-357,498,-2.81323,-17.8112,0.00232571,0.00316724,-0.00287319,0.00565031,-0.00015736,-0.858104,0.00382041,0.0114494,867,526,-2.81325,17.8112
-350,498,-2.84552,-18.3336,0.00207359,0.00149348,-0.00174971,0.00355713,9.94105e-06,-0.703259,0.00236811,0.0110391,874,526,-2.8455,18.3335
-343,498,-2.85413,-18.8422,0.00185115,0.000148672,-0.000779834,0.00215436,-0.000154537,-0.370824,0.00149042,0.0108308,881,526,-2.8541,18.8422
-336,498,-2.86548,-19.3536,0.00182999,-0.000890064,-9.07266e-05,0.00183301,-0.000893087,-0.0333054,0.00160479,0.0139945,888,526,-2.86549,19.3536
-329,498,-2.86206,-19.8523,0.00202341,-0.00162932,0.000361056,0.00205876,-0.00166467,0.0975871,0.00215373,0.0214479,895,526,-2.86207,19.8523
-322,498,-2.86884,-20.3833,0.00227763,-0.00201852,0.000711557,0.00239242,-0.00213331,0.159939,0.00261435,0.0241386,902,526,-2.86884,20.3833
-315,498,-2.90247,-20.9014,0.00261408,-0.00238756,0.000958006,0.0027913,-0.00256477,0.182916,0.00309325,0.0194399,909,526,-2.90246,20.9013
-308,498,-2.91992,-21.3696,0.00319047,-0.00295599,0.00118095,0.00340956,-0.00317508,0.183436,0.00380245,0.0201764,916,526,-2.91994,21.3696
-301,498,-2.84363,-21.892,0.00360212,-0.00360688,0.00168317,0.00397574,-0.00398051,0.218435,0.00459354,0.0397207,923,526,-2.84364,21.892
-294,498,-2.76508,-22.4183,0,0,0,0,0,0,0,-1,930,526,-2.76505,22.4184
-287,498,-0.91394,-13.4327,0,0,0,0,0,0,0,-1,937,526,-0.913935,13.4327
-280,498,-0.341614,-8.66608,0,0,0,0,0,0,0,-1,944,526,-0.341589,8.66606
-273,498,-0.988892,-8.62921,0,0,0,0,0,0,0,-1,951,526,-0.988906,8.62922
-266,498,0.362488,-6.33545,0,0,0,0,0,0,0,-1,958,526,0.362478,6.33547
-259,498,10.9454,-17.3615,0,0,0,0,0,0,0,-1,965,526,10.9454,17.3614
-252,498,8.56586,-14.6886,0,0,0,0,0,0,0,-1,972,526,8.56584,14.6886
-245,498,5.97382,-11.928,0,0,0,0,0,0,0,-1,979,526,5.97381,11.928
-238,498,2.24841,-13.8145,0,0,0,0,0,0,0,-1,986,526,2.24838,13.8145
-231,498,0.665894,-10.4898,0,0,0,0,0,0,0,-1,993,526,0.665863,10.4898
-224,498,-2.11243,-4.76312,0,0,0,0,0,0,0,-1,1000,526,-2.11245,4.76314
-217,498,-3.82239,-1.42841,0,0,0,0,0,0,0,-1,1007,526,-3.82241,1.42843
-210,498,-1.80591,-0.358215,0,0,0,0,0,0,0,-1,1014,526,-1.8059,0.3582
-203,498,-3.17316,1.06641,0,0,0,0,0,0,0,-1,1021,526,-3.17313,-1.0664
-196,498,-0.103271,5.40527,0,0,0,0,0,0,0,-1,1028,526,-0.103285,-5.40528
-189,498,3.00256,6.47137,0,0,0,0,0,0,0,-1,1035,526,3.00256,-6.47139
-182,498,0,0,0,0,0,0,0,0,0,-1,1042,526,0,0
-175,498,0,0,0,0,0,0,0,0,0,-1,1049,526,0,0
-168,498,0,0,0,0,0,0,0,0,0,-1,1056,526,0,0
-161,498,0,0,0,0,0,0,0,0,0,-1,1063,526,0,0
-154,498,0,0,0,0,0,0,0,0,0,-1,1070,526,0,0
-147,498,0,0,0,0,0,0,0,0,0,-1,1077,526,0,0
-140,498,0,0,0,0,0,0,0,0,0,-1,1084,526,0,0
-133,498,0,0,0,0,0,0,0,0,0,-1,1091,526,0,0
-126,498,0,0,0,0,0,0,0,0,0,-1,1098,526,0,0
-119,498,0,0,0,0,0,0,0,0,0,-1,1105,526,0,0
-112,498,0,0,0,0,0,0,0,0,0,-1,1112,526,0,0
-105,498,0,0,0,0,0,0,0,0,0,-1,1119,526,0,0
-98,498,0,0,0,0,0,0,0,0,0,-1,1126,526,0,0
-91,498,0,0,0,0,0,0,0,0,0,-1,1133,526,0,0
-84,498,0,0,0,0,0,0,0,0,0,-1,1140,526,0,0
-77,498,0,0,0,0,0,0,0,0,0,-1,1147,526,0,0
-70,498,0,0,0,0,0,0,0,0,0,-1,1154,526,0,0
-63,498,0,0,0,0,0,0,0,0,0,-1,1161,526,0,0
-56,498,0,0,0,0,0,0,0,0,0,-1,1168,526,0,0
-49,498,0,0,0,0,0,0,0,0,0,-1,1175,526,0,0
-42,498,0,0,0,0,0,0,0,0,0,-1,1182,526,0,0
-35,498,0,0,0,0,0,0,0,0,0,-1,1189,526,0,0
-28,498,0,0,0,0,0,0,0,0,0,-1,1196,526,0,0
-21,498,0,0,0,0,0,0,0,0,0,-1,1203,526,0,0
-14,498,0,0,0,0,0,0,0,0,0,-1,1210,526,0,0
-7,498,0,0,0,0,0,0,0,0,0,-1,1217,526,0,0
0,498,0,0,0,0,0,0,0,0,0,-1,1224,526,0,0
7,498,0,0,0,0,0,0,0,0,0,-1,1231,526,0,0
14,498,0,0,0,0,0,0,0,0,0,-1,1238,526,0,0
21,498,0,0,0,0,0,0,0,0,0,-1,1245,526,0,0
28,498,0,0,0,0,0,0,0,0,0,-1,1252,526,0,0
35,498,0,0,0,0,0,0,0,0,0,-1,1259,526,0,0
42,498,0,0,0,0,0,0,0,0,0,-1,1266,526,0,0
49,498,0,0,0,0,0,0,0,0,0,-1,1273,526,0,0
56,498,0,0,0,0,0,0,0,0,0,-1,1280,526,0,0
63,498,0,0,0,0,0,0,0,0,0,-1,1287,526,0,0
70,498,0,0,0,0,0,0,0,0,0,-1,1294,526,0,0
77,498,0,0,0,0,0,0,0,0,0,-1,1301,526,0,0
84,498,0,0,0,0,0,0,0,0,0,-1,1308,526,0,0
91,498,0,0,0,0,0,0,0,0,0,-1,1315,526,0,0
98,498,0,0,0,0,0,0,0,0,0,-1,1322,526,0,0
105,498,0,0,0,0,0,0,0,0,0,-1,1329,526,0,0
112,498,0,0,0,0,0,0,0,0,0,-1,1336,526,0,0
119,498,0,0,0,0,0,0,0,0,0,-1,1343,526,0,0
126,498,0,0,0,0,0,0,0,0,0,-1,1350,526,0,0
133,498,0,0,0,0,0,0,0,0,0,-1,1357,526,0,0
140,498,0,0,0,0,0,0,0,0,0,-1,1364,526,0,0
147,498,0,0,0,0,0,0,0,0,0,-1,1371,526,0,0
154,498,0,0,0,0,0,0,0,0,0,-1,1378,526,0,0
161,498,0,0,0,0,0,0,0,0,0,-1,1385,526,0,0
168,498,0,0,0,0,0,0,0,0,0,-1,1392,526,0,0
175,498,0,0,0,0,0,0,0,0,0,-1,1399,526,0,0
182,498,0,0,0,0,0,0,0,0,0,-1,1406,526,0,0
189,498,0,0,0,0,0,0,0,0,0,-1,1413,526,0,0
196,498,0,0,0,0,0,0,0,0,0,-1,1420,526,0,0
203,498,0,0,0,0,0,0,0,0,0,-1,1427,526,0,0
210,498,0,0,0,0,0,0,0,0,0,-1,1434,526,0,0
217,498,0,0,0,0,0,0,0,0,0,-1,1441,526,0,0
224,498,0,0,0,0,0,0,0,0,0,-1,1448,526,0,0
231,498,0,0,0,0,0,0,0,0,0,-1,1455,526,0,0
238,498,0,0,0,0,0,0,0,0,0,-1,1462,526,0,0
245,498,0,0,0,0,0,0,0,0,0,-1,1469,526,0,0
252,498,0,0,0,0,0,0,0,0,0,-1,1476,526,0,0
259,498,0,0,0,0,0,0,0,0,0,-1,1483,526,0,0
266,498,0,0,0,0,0,0,0,0,0,-1,1490,526,0,0
273,498,0,0,0,0,0,0,0,0,0,-1,1497,526,0,0
280,498,0,0,0,0,0,0,0,0,0,-1,1504,526,0,0
287,498,0,0,0,0,0,0,0,0,0,-1,1511,526,0,0
294,498,0,0,0,0,0,0,0,0,0,-1,1518,526,0,0
301,498,0,0,0,0,0,0,0,0,0,-1,1525,526,0,0
308,498,4.77942,-0.293884,0,0,0,0,0,0,0,-1,1532,526,4.77939,0.293899
315,498,4.56091,-0.564148,0,0,0,0,0,0,0,-1,1539,526,4.56097,0.564142
322,498,4.52344,-0.447266,0,0,0,0,0,0,0,-1,1546,526,4.52341,0.447295
329,498,4.63232,-0.156982,0,0,0,0,0,0,0,-1,1553,526,4.63238,0.156991
336,498,5.22644,0.0925903,0,0,0,0,0,0,0,-1,1560,526,5.22648,-0.0926188
343,498,6.22607,-1.67615,0,0,0,0,0,0,0,-1,1567,526,6.22605,1.67617
350,498,6.19373,-1.59906,0,0,0,0,0,0,0,-1,1574,526,6.19367,1.59906
357,498,6.21472,-1.58929,0,0,0,0,0,0,0,-1,1581,526,6.21476,1.58927
364,498,5.73547,-1.2019,0,0,0,0,0,0,0,-1,1588,526,5.73547,1.20192
371,498,3.27087,-4.55334,0,0,0,0,0,0,0,-1,1595,526,3.27089,4.55332
378,498,8.42944,-4.70624,0,0,0,0,0,0,0,-1,1602,526,8.42942,4.70624
385,498,4.7793,-5.15314,0,0,0,0,0,0,0,-1,1609,526,4.77935,5.15311
392,498,9.12439,-8.57953,0,0,0,0,0,0,0,-1,1616,526,9.12443,8.57955
399,498,7.98938,-9.46021,0,0,0,0,0,0,0,-1,1623,526,7.98936,9.4602
406,498,7.58081,-9.26819,0,0,0,0,0,0,0,-1,1630,526,7.58085,9.26817
413,498,7.17236,-9.07611,0,0,0,0,0,0,0,-1,1637,526,7.17234,9.07614
420,498,11.4314,-16.1147,0,0,0,0,0,0,0,-1,1644,526,11.4313,16.1147
427,498,12.6738,-21.0134,0,0,0,0,0,0,0,-1,1651,526,12.6739,21.0134
434,498,12.7357,-20.3173,0.00313922,0.00348224,0.000961125,0.00428704,0.00233442,0.873692,0.00247839,0.0383329,1658,526,12.7357,20.3173
441,498,12.8348,-19.7366,0.00258154,0.00283529,0.0007233,0.00344276,0.00197407,0.87222,0.0019948,0.0136913,1665,526,12.8348,19.7366
448,498,12.8412,-19.18,0.00231866,0.00231456,0.000670774,0.00298739,0.00164583,0.783873,0.00172775,0.0105962,1672,526,12.8412,19.18
455,498,12.8187,-18.658,0.00201423,0.00191667,0.000588114,0.00255558,0.00137531,0.744019,0.0014769,0.0141885,1679,526,12.8187,18.6579
462,498,12.808,-18.1365,0.00177919,0.00167254,0.000551526,0.00227996,0.00117177,0.737207,0.00131651,0.0159254,1686,526,12.808,18.1365
469,498,12.7972,-17.6088,0.00157673,0.00147854,0.000640072,0.00216959,0.000885685,0.747124,0.00125963,0.0135146,1693,526,12.7973,17.6088
476,498,12.7908,-17.0767,0.00120638,0.00125562,0.000716423,0.00194785,0.000514155,0.802574,0.00116561,0.0107543,1700,526,12.7908,17.0767
483,498,12.7655,-16.5341,0.000719697,0.000962812,0.000718471,0.00156994,0.000112573,0.869199,0.00101119,0.00969842,1707,526,12.7655,16.5341
490,498,12.735,-15.9762,2.01907e-05,0.000641734,0.000675678,0.00107468,-0.000412758,1.00094,0.000886665,0.0114479,1714,526,12.735,15.9762
497,498,12.729,-15.4111,-0.000850388,0.000270697,0.000605619,0.000535371,-0.00111506,1.15878,0.000972273,0.0118891,1721,526,12.729,15.4111
504,498,12.7169,-14.8326,-0.00187733,-0.000211089,0.000477794,-8.38055e-05,-0.00200462,1.31044,0.00130937,0.0142119,1728,526,12.7169,14.8326
511,498,12.6833,-14.2527,-0.00310963,-0.000802678,0.000261103,-0.000773495,-0.00313882,1.45949,0.00188828,0.0162647,1735,526,12.6834,14.2527
518,498,12.7067,-13.6978,-0.00457347,-0.00144559,-0.000113955,-0.00144144,-0.00457761,-1.53443,0.00270259,0.0165297,1742,526,12.7067,13.6978
525,498,12.6084,-13.1337,-0.00620572,-0.00232613,-0.000637746,-0.00222398,-0.00630786,-1.41198,0.00369424,0.0256288,1749,526,12.6084,13.1337
532,498,12.437,-12.5784,-0.00790705,-0.00328633,-0.00120515,-0.0029909,-0.00820249,-1.3304,0.00479321,0.0437078,1756,526,12.437,12.5784
539,498,12.4895,-12.0422,0,0,0,0,0,0,0,-1,1763,526,12.4895,12.0422
546,498,10.2014,-8.47589,0,0,0,0,0,0,0,-1,1770,526,10.2014,8.47589
553,498,5.93958,-1.71448,0,0,0,0,0,0,0,-1,1777,526,5.93956,1.71447
560,498,3.69385,-0.615112,0,0,0,0,0,0,0,-1,1784,526,3.69381,0.615118
567,498,5.12695,-0.581604,0,0,0,0,0,0,0,-1,1791,526,5.12699,0.58159
574,498,3.88,0.0286255,0,0,0,0,0,0,0,-1,1798,526,3.87999,-0.0286535
581,498,10.8722,2.58551,0,0,0,0,0,0,0,-1,1805,526,10.8723,-2.58551
588,498,0,0,0,0,0,0,0,0,0,-1,1812,526,0,0
595,498,0,0,0,0,0,0,0,0,0,-1,1819,526,0,0
602,498,0,0,0,0,0,0,0,0,0,-1,1826,526,0,0
609,498,0,0,0,0,0,0,0,0,0,-1,1833,526,0,0
616,498,0,0,0,0,0,0,0,0,0,-1,1840,526,0,0
623,498,0,0,0,0,0,0,0,0,0,-1,1847,526,0,0
630,498,0,0,0,0,0,0,0,0,0,-1,1854,526,0,0
637,498,0,0,0,0,0,0,0,0,0,-1,1861,526,0,0
644,498,0,0,0,0,0,0,0,0,0,-1,1868,526,0,0
651,498,0,0,0,0,0,0,0,0,0,-1,1875,526,0,0
658,498,0,0,0,0,0,0,0,0,0,-1,1882,526,0,0
665,498,0,0,0,0,0,0,0,0,0,-1,1889,526,0,0
672,498,0,0,0,0,0,0,0,0,0,-1,1896,526,0,0
679,498,0,0,0,0,0,0,0,0,0,-1,1903,526,0,0
686,498,0,0,0,0,0,0,0,0,0,-1,1910,526,0,0
693,498,0,0,0,0,0,0,0,0,0,-1,1917,526,0,0
700,498,0,0,0,0,0,0,0,0,0,-1,1924,526,0,0
707,498,0,0,0,0,0,0,0,0,0,-1,1931,526,0,0
714,498,0,0,0,0,0,0,0,0,0,-1,1938,526,0,0
721,498,0,0,0,0,0,0,0,0,0,-1,1945,526,0,0
728,498,0,0,0,0,0,0,0,0,0,-1,1952,526,0,0
735,498,0,0,0,0,0,0,0,0,0,-1,1959,526,0,0
742,498,0,0,0,0,0,0,0,0,0,-1,1966,526,0,0
749,498,0,0,0,0,0,0,0,0,0,-1,1973,526,0,0
756,498,0,0,0,0,0,0,0,0,0,-1,1980,526,0,0
763,498,0,0,0,0,0,0,0,0,0,-1,1987,526,0,0
770,498,0,0,0,0,0,0,0,0,0,-1,1994,526,0,0
777,498,0,0,0,0,0,0,0,0,0,-1,2001,526,0,0
784,498,0,0,0,0,0,0,0,0,0,-1,2008,526,0,0
791,498,0,0,0,0,0,0,0,0,0,-1,2015,526,0,0
798,498,0,0,0,0,0,0,0,0,0,-1,2022,526,0,0
805,498,0,0,0,0,0,0,0,0,0,-1,2029,526,0,0
812,498,0,0,0,0,0,0,0,0,0,-1,2036,526,0,0
-700,491,0,0,0,0,0,0,0,0,0,-1,524,533,0,0
-693,491,0,0,0,0,0,0,0,0,0,-1,531,533,0,0
-686,491,0,0,0,0,0,0,0,0,0,-1,538,533,0,0
-679,491,0,0,0,0,0,0,0,0,0,-1,545,533,0,0
-672,491,0,0,0,0,0,0,0,0,0,-1,552,533,0,0
-665,491,0,0,0,0,0,0,0,0,0,-1,559,533,0,0
-658,491,0,0,0,0,0,0,0,0,0,-1,566,533,0,0
-651,491,0,0,0,0,0,0,0,0,0,-1,573,533,0,0
-644,491,0,0,0,0,0,0,0,0,0,-1,580,533,0,0
-637,491,0,0,0,0,0,0,0,0,0,-1,587,533,0,0
-630,491,0,0,0,0,0,0,0,0,0,-1,594,533,0,0
-623,491,0,0,0,0,0,0,0,0,0,-1,601,533,0,0
-616,491,0,0,0,0,0,0,0,0,0,-1,608,533,0,0
-609,491,0,0,0,0,0,0,0,0,0,-1,615,533,0,0
-602,491,0,0,0,0,0,0,0,0,0,-1,622,533,0,0
-595,491,0,0,0,0,0,0,0,0,0,-1,629,533,0,0
-588,491,0,0,0,0,0,0,0,0,0,-1,636,533,0,0
-581,491,0,0,0,0,0,0,0,0,0,-1,643,533,0,0
-574,491,0,0,0,0,0,0,0,0,0,-1,650,533,0,0
-567,491,0,0,0,0,0,0,0,0,0,-1,657,533,0,0
-560,491,0,0,0,0,0,0,0,0,0,-1,664,533,0,0
-553,491,0,0,0,0,0,0,0,0,0,-1,671,533,0,0
-546,491,0,0,0,0,0,0,0,0,0,-1,678,533,0,0
-539,491,0,0,0,0,0,0,0,0,0,-1,685,533,0,0
-532,491,0,0,0,0,0,0,0,0,0,-1,692,533,0,0
-525,491,0,0,0,0,0,0,0,0,0,-1,699,533,0,0
-518,491,0,0,0,0,0,0,0,0,0,-1,706,533,0,0
-511,491,0,0,0,0,0,0,0,0,0,-1,713,533,0,0
-504,491,0,0,0,0,0,0,0,0,0,-1,720,533,0,0
-497,491,0,0,0,0,0,0,0,0,0,-1,727,533,0,0
-490,491,0,0,0,0,0,0,0,0,0,-1,734,533,0,0
-483,491,0,0,0,0,0,0,0,0,0,-1,741,533,0,0
-476,491,0,0,0,0,0,0,0,0,0,-1,748,533,0,0
-469,491,-5.85913,4.55011,0,0,0,0,0,0,0,-1,755,533,-5.8591,-4.55009
-462,491,-9.93713,4.90381,0,0,0,0,0,0,0,-1,762,533,-9.93716,-4.9038
-455,491,1.9494,-0.27887,0,0,0,0,0,0,0,-1,769,533,1.94941,0.27885
-448,491,2.68909,-1.8999,0,0,0,0,0,0,0,-1,776,533,2.6891,1.89988
-441,491,3.46069,-3.51855,0,0,0,0,0,0,0,-1,783,533,3.46071,3.51854
-434,491,2.67145,-7.44061,0,0,0,0,0,0,0,-1,790,533,2.67146,7.44061
-427,491,2.27136,-8.34546,0,0,0,0,0,0,0,-1,797,533,2.27136,8.34546
-420,491,-1.52142,-8.1123,0,0,0,0,0,0,0,-1,804,533,-1.52142,8.11228
-413,491,-3.21063,-13.2211,0,0,0,0,0,0,0,-1,811,533,-3.21065,13.2211
-406,491,-3.19672,-13.9496,0.00515342,0.0181658,-0.0114426,0.0248226,-0.00150334,-1.0439,0.0170716,0.0250432,818,533,-3.19671,13.9496
-399,491,-3.22894,-14.5683,0.00459902,0.0151923,-0.00989718,0.021121,-0.0013297,-1.03109,0.0145442,0.0116559,825,533,-3.22897,14.5683
-392,491,-3.28235,-15.1346,0.00404555,0.012336,-0.00832375,0.0174895,-0.00110803,-1.01642,0.012046,0.0102529,832,533,-3.28237,15.1346
-385,491,-3.30396,-15.6555,0.0035936,0.00966399,-0.00678444,0.0140612,-0.000803641,-0.995733,0.00965319,0.00934352,839,533,-3.30394,15.6555
-378,491,-3.28448,-16.1734,0.00324381,0.0073131,-0.00539088,0.0110405,-0.000483612,-0.965845,0.00752673,0.0136646,846,533,-3.28446,16.1734
-371,491,-3.29498,-16.7025,0.00284838,0.00506075,-0.00406172,0.00816423,-0.000255096,-0.918346,0.00552981,0.0154929,853,533,-3.29496,16.7025
-364,491,-3.31409,-17.2369,0.00245204,0.00301504,-0.00279075,0.00553845,-7.1367e-05,-0.835663,0.00371632,0.0146324,860,533,-3.31411,17.2369
-357,491,-3.33893,-17.7713,0.00221148,0.00136596,-0.00169314,0.00353384,4.35994e-05,-0.663054,0.0023415,0.0122491,867,533,-3.3389,17.7713
-350,491,-3.35889,-18.2916,0.00215412,-8.26338e-06,-0.000791274,0.00241273,-0.000266882,-0.315893,0.00170443,0.0144242,874,533,-3.35887,18.2915
-343,491,-3.35046,-18.8176,0.00215908,-0.0010965,-6.43972e-05,0.00216035,-0.00109777,-0.0197702,0.00191414,0.0226673,881,533,-3.35048,18.8175
-336,491,-3.36334,-19.3259,0.00228438,-0.00202216,0.000513169,0.00234469,-0.00208247,0.116978,0.00255751,0.0231012,888,533,-3.36335,19.3258
-329,491,-3.41986,-19.8116,0.00259992,-0.00253244,0.000829357,0.00273061,-0.00266313,0.156296,0.00311416,0.0241184,895,533,-3.41984,19.8117
-322,491,-3.43652,-20.3237,0.00296567,-0.00265608,0.00106619,0.00316109,-0.0028515,0.181272,0.0034729,0.0226258,902,533,-3.43655,20.3237
-315,491,-3.45544,-20.8035,0.00340132,-0.00299327,0.00121968,0.00362606,-0.00321801,0.182217,0.00395376,0.0216798,909,533,-3.45547,20.8034
-308,491,-3.40833,-21.4478,0,0,0,0,0,0,0,-1,916,533,-3.4083,21.4478
-301,491,-3.37946,-22.2787,0,0,0,0,0,0,0,-1,923,533,-3.37943,22.2787
-294,491,-0.777283,-8.60913,0,0,0,0,0,0,0,-1,930,533,-0.777288,8.6091
-287,491,-0.26123,-8.69055,0,0,0,0,0,0,0,-1,937,533,-0.261204,8.69053
-280,491,0.2948,-5.99219,0,0,0,0,0,0,0,-1,944,533,0.294811,5.99221
-273,491,0.369995,-5.33691,0,0,0,0,0,0,0,-1,951,533,0.369985,5.33693
-266,491,1.1167,-5.0321,0,0,0,0,0,0,0,-1,958,533,1.11668,5.0321
-259,491,12.0862,-16.9615,0,0,0,0,0,0,0,-1,965,533,12.0862,16.9615
-252,491,9.72443,-13.8417,0,0,0,0,0,0,0,-1,972,533,9.72444,13.8418
-245,491,5.27258,-14.3619,0,0,0,0,0,0,0,-1,979,533,5.27255,14.3619
-238,491,3.65381,-11.1472,0,0,0,0,0,0,0,-1,986,533,3.6538,11.1472
-231,491,2.17719,-7.86835,0,0,0,0,0,0,0,-1,993,533,2.17719,7.86832
-224,491,0.554626,-4.61725,0,0,0,0,0,0,0,-1,1000,533,0.554608,4.61727
-217,491,-2.92743,-1.0766,0,0,0,0,0,0,0,-1,1007,533,-2.92743,1.07659
-210,491,-0.92395,0.374512,0,0,0,0,0,0,0,-1,1014,533,-0.923959,-0.374531
-203,491,0.417419,4.77161,0,0,0,0,0,0,0,-1,1021,533,0.417446,-4.77162
-196,491,0,0,0,0,0,0,0,0,0,-1,1028,533,0,0
-189,491,0,0,0,0,0,0,0,0,0,-1,1035,533,0,0
-182,491,0,0,0,0,0,0,0,0,0,-1,1042,533,0,0
-175,491,0,0,0,0,0,0,0,0,0,-1,1049,533,0,0
-168,491,0,0,0,0,0,0,0,0,0,-1,1056,533,0,0
-161,491,0,0,0,0,0,0,0,0,0,-1,1063,533,0,0
-154,491,0,0,0,0,0,0,0,0,0,-1,1070,533,0,0
-147,491,0,0,0,0,0,0,0,0,0,-1,1077,533,0,0
-140,491,0,0,0,0,0,0,0,0,0,-1,1084,533,0,0
-133,491,0,0,0,0,0,0,0,0,0,-1,1091,533,0,0
-126,491,0,0,0,0,0,0,0,0,0,-1,1098,533,0,0
-119,491,0,0,0,0,0,0,0,0,0,-1,1105,533,0,0
-112,491,0,0,0,0,0,0,0,0,0,-1,1112,533,0,0
-105,491,0,0,0,0,0,0,0,0,0,-1,1119,533,0,0
-98,491,0,0,0,0,0,0,0,0,0,-1,1126,533,0,0
-91,491,0,0,0,0,0,0,0,0,0,-1,1133,533,0,0
-84,491,0,0,0,0,0,0,0,0,0,-1,1140,533,0,0
-77,491,0,0,0,0,0,0,0,0,0,-1,1147,533,0,0
-70,491,0,0,0,0,0,0,0,0,0,-1,1154,533,0,0
-63,491,0,0,0,0,0,0,0,0,0,-1,1161,533,0,0
-56,491,0,0,0,0,0,0,0,0,0,-1,1168,533,0,0
-49,491,0,0,0,0,0,0,0,0,0,-1,1175,533,0,0
-42,491,0,0,0,0,0,0,0,0,0,-1,1182,533,0,0
-35,491,0,0,0,0,0,0,0,0,0,-1,1189,533,0,0
-28,491,0,0,0,0,0,0,0,0,0,-1,1196,533,0,0
-21,491,0,0,0,0,0,0,0,0,0,-1,1203,533,0,0
-14,491,0,0,0,0,0,0,0,0,0,-1,1210,533,0,0
-7,491,0,0,0,0,0,0,0,0,0,-1,1217,533,0,0
0,491,0,0,0,0,0,0,0,0,0,-1,1224,533,0,0
7,491,0,0,0,0,0,0,0,0,0,-1,1231,533,0,0
14,491,0,0,0,0,0,0,0,0,0,-1,1238,533,0,0
21,491,0,0,0,0,0,0,0,0,0,-1,1245,533,0,0
28,491,0,0,0,0,0,0,0,0,0,-1,1252,533,0,0
35,491,0,0,0,0,0,0,0,0,0,-1,1259,533,0,0
42,491,0,0,0,0,0,0,0,0,0,-1,1266,533,0,0
49,491,0,0,0,0,0,0,0,0,0,-1,1273,533,0,0
56,491,0,0,0,0,0,0,0,0,0,-1,1280,533,0,0
63,491,0,0,0,0,0,0,0,0,0,-1,1287,533,0,0
70,491,0,0,0,0,0,0,0,0,0,-1,1294,533,0,0
77,491,0,0,0,0,0,0,0,0,0,-1,1301,533,0,0
84,491,0,0,0,0,0,0,0,0,0,-1,1308,533,0,0
91,491,0,0,0,0,0,0,0,0,0,-1,1315,533,0,0
98,491,0,0,0,0,0,0,0,0,0,-1,1322,533,0,0
105,491,0,0,0,0,0,0,0,0,0,-1,1329,533,0,0
112,491,0,0,0,0,0,0,0,0,0,-1,1336,533,0,0
119,491,0,0,0,0,0,0,0,0,0,-1,1343,533,0,0
126,491,0,0,0,0,0,0,0,0,0,-1,1350,533,0,0
133,491,0,0,0,0,0,0,0,0,0,-1,1357,533,0,0
140,491,0,0,0,0,0,0,0,0,0,-1,1364,533,0,0
147,491,0,0,0,0,0,0,0,0,0,-1,1371,533,0,0
154,491,0,0,0,0,0,0,0,0,0,-1,1378,533,0,0
161,491,0,0,0,0,0,0,0,0,0,-1,1385,533,0,0
168,491,0,0,0,0,0,0,0,0,0,-1,1392,533,0,0
175,491,0,0,0,0,0,0,0,0,0,-1,1399,533,0,0
182,491,0,0,0,0,0,0,0,0,0,-1,1406,533,0,0
189,491,0,0,0,0,0,0,0,0,0,-1,1413,533,0,0
196,491,0,0,0,0,0,0,0,0,0,-1,1420,533,0,0
203,491,0,0,0,0,0,0,0,0,0,-1,1427,533,0,0
210,491,0,0,0,0,0,0,0,0,0,-1,1434,533,0,0
217,491,0,0,0,0,0,0,0,0,0,-1,1441,533,0,0
224,491,0,0,0,0,0,0,0,0,0,-1,1448,533,0,0
231,491,0,0,0,0,0,0,0,0,0,-1,1455,533,0,0
238,491,0,0,0,0,0,0,0,0,0,-1,1462,533,0,0
245,491,0,0,0,0,0,0,0,0,0,-1,1469,533,0,0
252,491,0,0,0,0,0,0,0,0,0,-1,1476,533,0,0
259,491,0,0,0,0,0,0,0,0,0,-1,1483,533,0,0
266,491,0,0,0,0,0,0,0,0,0,-1,1490,533,0,0
273,491,0,0,0,0,0,0,0,0,0,-1,1497,533,0,0
280,491,0,0,0,0,0,0,0,0,0,-1,1504,533,0,0
287,491,0,0,0,0,0,0,0,0,0,-1,1511,533,0,0
294,491,0,0,0,0,0,0,0,0,0,-1,1518,533,0,0
301,491,0,0,0,0,0,0,0,0,0,-1,1525,533,0,0
308,491,0,0,0,0,0,0,0,0,0,-1,1532,533,0,0
315,491,0,0,0,0,0,0,0,0,0,-1,1539,533,0,0
322,491,4.26331,-0.734314,0,0,0,0,0,0,0,-1,1546,533,4.26326,0.734324
329,491,4.25354,-0.783752,0,0,0,0,0,0,0,-1,1553,533,4.25359,0.783734
336,491,4.81604,-0.722107,0,0,0,0,0,0,0,-1,1560,533,4.81605,0.722115
343,491,6.14478,-1.44281,0,0,0,0,0,0,0,-1,1567,533,6.14474,1.44281
350,491,6.36353,-1.30792,0,0,0,0,0,0,0,-1,1574,533,6.36352,1.3079
357,491,6.69482,-1.06018,0,0,0,0,0,0,0,-1,1581,533,6.69489,1.06018
364,491,8.01086,-1.69604,0,0,0,0,0,0,0,-1,1588,533,8.01087,1.69607
371,491,8.2135,-0.539307,0,0,0,0,0,0,0,-1,1595,533,8.21348,0.53929
378,491,13.3589,2.17267,0,0,0,0,0,0,0,-1,1602,533,13.3589,-2.17264
385,491,8.08228,-4.95471,0,0,0,0,0,0,0,-1,1609,533,8.08227,4.95474
392,491,2.88721,-4.30988,0,0,0,0,0,0,0,-1,1616,533,2.88716,4.30986
399,491,8.95862,-8.55518,0,0,0,0,0,0,0,-1,1623,533,8.95864,8.55516
406,491,8.16541,-9.00806,0,0,0,0,0,0,0,-1,1630,533,8.16535,9.00807
413,491,5.31848,-3.7124,0,0,0,0,0,0,0,-1,1637,533,5.31849,3.7124
420,491,4.86389,-3.95892,0,0,0,0,0,0,0,-1,1644,533,4.86387,3.95893
427,491,11.5096,-15.2742,0,0,0,0,0,0,0,-1,1651,533,11.5096,15.2742
434,491,13.2456,-20.3245,0,0,0,0,0,0,0,-1,1658,533,13.2456,20.3244
441,491,13.3258,-19.7982,0,0,0,0,0,0,0,-1,1665,533,13.3258,19.7982
448,491,13.3658,-19.2023,0.00290566,0.00285517,0.000804889,0.0036857,0.00207513,0.769722,0.00213357,0.034125,1672,533,13.3658,19.2023
455,491,13.3475,-18.6451,0.00248342,0.00229106,0.000574733,0.00296997,0.00180452,0.702494,0.00172789,0.0173015,1679,533,13.3475,18.6451
462,491,13.3436,-18.1243,0.00220681,0.00195559,0.000433267,0.00253231,0.00163009,0.644313,0.00148202,0.0150796,1686,533,13.3436,18.1243
469,491,13.3351,-17.5994,0.00202198,0.00173889,0.000494766,0.00239505,0.00136582,0.646075,0.00138733,0.0146259,1693,533,13.3351,17.5994
476,491,13.3424,-17.0546,0.0016776,0.00148714,0.000537363,0.00212811,0.00103664,0.697699,0.0012288,0.0111196,1700,533,13.3425,17.0546
483,491,13.3059,-16.4903,0.00122706,0.00118558,0.000548031,0.00175474,0.000657898,0.766483,0.00102361,0.012974,1707,533,13.306,16.4903
490,491,13.2877,-15.9726,0.000582506,0.000932509,0.000521306,0.0013074,0.000207611,0.947337,0.000811302,0.0110058,1714,533,13.2878,15.9726
497,491,13.2802,-15.4164,-0.000182237,0.000648568,0.000498083,0.000881737,-0.000415407,1.13296,0.000764868,0.0118306,1721,533,13.2802,15.4165
504,491,13.2799,-14.8224,-0.00103408,0.000286,0.000443185,0.000420986,-0.00116906,1.27514,0.000951278,0.0136479,1728,533,13.2799,14.8224
511,491,13.2375,-14.2581,-0.00203625,-0.000145621,0.00032744,-9.05171e-05,-0.00209136,1.40407,0.00136507,0.0130055,1735,533,13.2375,14.2581
518,491,13.2169,-13.7151,-0.00321711,-0.000599706,7.72243e-05,-0.000597429,-0.00321939,1.54133,0.00197743,0.00975785,1742,533,13.2169,13.7151
525,491,13.2177,-13.1314,-0.0044589,-0.00125508,-0.000279825,-0.00123082,-0.00448316,-1.48433,0.00267463,0.0095588,1749,533,13.2177,13.1314
532,491,13.1962,-12.5547,-0.00567122,-0.00188737,-0.000627291,-0.00178608,-0.0057725,-1.41072,0.00341251,0.021967,1756,533,13.1962,12.5548
539,491,13.0895,-12.1016,-0.00689589,-0.00253805,-0.00111294,-0.00227027,-0.00716367,-1.33468,0.00422736,0.0405816,1763,533,13.0894,12.1016
546,491,12.8777,-11.4225,0,0,0,0,0,0,0,-1,1770,533,12.8777,11.4225
553,491,10.5021,-7.77869,0,0,0,0,0,0,0,-1,1777,533,10.502,7.77871
560,491,6.28455,-1.43585,0,0,0,0,0,0,0,-1,1784,533,6.28458,1.43586
567,491,5.67651,-1.3562,0,0,0,0,0,0,0,-1,1791,533,5.67649,1.3562
574,491,8.0719,1.58325,0,0,0,0,0,0,0,-1,1798,533,8.07195,-1.58326
581,491,9.44812,1.60931,0,0,0,0,0,0,0,-1,1805,533,9.44808,-1.60933
588,491,11.0497,1.54962,0,0,0,0,0,0,0,-1,1812,533,11.0496,-1.54963
595,491,0,0,0,0,0,0,0,0,0,-1,1819,533,0,0
602,491,0,0,0,0,0,0,0,0,0,-1,1826,533,0,0
609,491,0,0,0,0,0,0,0,0,0,-1,1833,533,0,0
616,491,0,0,0,0,0,0,0,0,0,-1,1840,533,0,0
623,491,0,0,0,0,0,0,0,0,0,-1,1847,533,0,0
630,491,0,0,0,0,0,0,0,0,0,-1,1854,533,0,0
637,491,0,0,0,0,0,0,0,0,0,-1,1861,533,0,0
644,491,0,0,0,0,0,0,0,0,0,-1,1868,533,0,0
651,491,0,0,0,0,0,0,0,0,0,-1,1875,533,0,0
658,491,0,0,0,0,0,0,0,0,0,-1,1882,533,0,0
665,491,0,0,0,0,0,0,0,0,0,-1,1889,533,0,0
672,491,0,0,0,0,0,0,0,0,0,-1,1896,533,0,0
679,491,0,0,0,0,0,0,0,0,0,-1,1903,533,0,0
686,491,0,0,0,0,0,0,0,0,0,-1,1910,533,0,0
693,491,0,0,0,0,0,0,0,0,0,-1,1917,533,0,0
700,491,0,0,0,0,0,0,0,0,0,-1,1924,533,0,0
707,491,0,0,0,0,0,0,0,0,0,-1,1931,533,0,0
714,491,0,0,0,0,0,0,0,0,0,-1,1938,533,0,0
721,491,0,0,0,0,0,0,0,0,0,-1,1945,533,0,0
728,491,0,0,0,0,0,0,0,0,0,-1,1952,533,0,0
735,491,0,0,0,0,0,0,0,0,0,-1,1959,533,0,0
742,491,0,0,0,0,0,0,0,0,0,-1,1966,533,0,0
749,491,0,0,0,0,0,0,0,0,0,-1,1973,533,0,0
756,491,0,0,0,0,0,0,0,0,0,-1,1980,533,0,0
763,491,0,0,0,0,0,0,0,0,0,-1,1987,533,0,0
770,491,0,0,0,0,0,0,0,0,0,-1,1994,533,0,0
777,491,0,0,0,0,0,0,0,0,0,-1,2001,533,0,0
784,491,0,0,0,0,0,0,0,0,0,-1,2008,533,0,0
791,491,0,0,0,0,0,0,0,0,0,-1,2015,533,0,0
798,491,0,0,0,0,0,0,0,0,0,-1,2022,533,0,0
805,491,0,0,0,0,0,0,0,0,0,-1,2029,533,0,0
812,491,0,0,0,0,0,0,0,0,0,-1,2036,533,0,0
-700,484,0,0,0,0,0,0,0,0,0,-1,524,540,0,0
-693,484,0,0,0,0,0,0,0,0,0,-1,531,540,0,0
-686,484,0,0,0,0,0,0,0,0,0,-1,538,540,0,0
-679,484,0,0,0,0,0,0,0,0,0,-1,545,540,0,0
-672,484,0,0,0,0,0,0,0,0,0,-1,552,540,0,0
-665,484,0,0,0,0,0,0,0,0,0,-1,559,540,0,0
-658,484,0,0,0,0,0,0,0,0,0,-1,566,540,0,0
-651,484,0,0,0,0,0,0,0,0,0,-1,573,540,0,0
-644,484,0,0,0,0,0,0,0,0,0,-1,580,540,0,0
-637,484,0,0,0,0,0,0,0,0,0,-1,587,540,0,0
-630,484,0,0,0,0,0,0,0,0,0,-1,594,540,0,0
-623,484,0,0,0,0,0,0,0,0,0,-1,601,540,0,0
-616,484,0,0,0,0,0,0,0,0,0,-1,608,540,0,0
-609,484,0,0,0,0,0,0,0,0,0,-1,615,540,0,0
-602,484,0,0,0,0,0,0,0,0,0,-1,622,540,0,0
-595,484,0,0,0,0,0,0,0,0,0,-1,629,540,0,0
-588,484,0,0,0,0,0,0,0,0,0,-1,636,540,0,0
-581,484,0,0,0,0,0,0,0,0,0,-1,643,540,0,0
-574,484,0,0,0,0,0,0,0,0,0,-1,650,540,0,0
-567,484,0,0,0,0,0,0,0,0,0,-1,657,540,0,0
-560,484,0,0,0,0,0,0,0,0,0,-1,664,540,0,0
-553,484,0,0,0,0,0,0,0,0,0,-1,671,540,0,0
-546,484,0,0,0,0,0,0,0,0,0,-1,678,540,0,0
-539,484,0,0,0,0,0,0,0,0,0,-1,685,540,0,0
-532,484,0,0,0,0,0,0,0,0,0,-1,692,540,0,0
-525,484,0,0,0,0,0,0,0,0,0,-1,699,540,0,0
-518,484,0,0,0,0,0,0,0,0,0,-1,706,540,0,0
-511,484,0,0,0,0,0,0,0,0,0,-1,713,540,0,0
-504,484,0,0,0,0,0,0,0,0,0,-1,720,540,0,0
-497,484,0,0,0,0,0,0,0,0,0,-1,727,540,0,0
-490,484,0,0,0,0,0,0,0,0,0,-1,734,540,0,0
-483,484,0,0,0,0,0,0,0,0,0,-1,741,540,0,0
-476,484,-8.46552,1.44702,0,0,0,0,0,0,0,-1,748,540,-8.46554,-1.44702
-469,484,-7.82343,1.70355,0,0,0,0,0,0,0,-1,755,540,-7.82345,-1.70355
-462,484,-8.36987,3.08612,0,0,0,0,0,0,0,-1,762,540,-8.36988,-3.0861
-455,484,-6.77197,2.07092,0,0,0,0,0,0,0,-1,769,540,-6.77197,-2.07094
-448,484,3.54895,-1.40106,0,0,0,0,0,0,0,-1,776,540,3.54897,1.40106
-441,484,4.28906,-3.05884,0,0,0,0,0,0,0,-1,783,540,4.28905,3.05883
-434,484,-2.17548,-5.07245,0,0,0,0,0,0,0,-1,790,540,-2.17546,5.07243
-427,484,-3.67596,-11.6795,0,0,0,0,0,0,0,-1,797,540,-3.67595,11.6795
-420,484,-3.64203,-12.5988,0,0,0,0,0,0,0,-1,804,540,-3.642,12.5988
-413,484,-3.63037,-13.3047,0.00345202,0.0159594,-0.00929708,0.0209104,-0.00149894,-1.08147,0.0144658,0.0308814,811,540,-3.63038,13.3047
-406,484,-3.69794,-13.9707,0.00346038,0.0135866,-0.00834743,0.0182864,-0.00123944,-1.05801,0.0126244,0.0158085,818,540,-3.69795,13.9707
-399,484,-3.79608,-14.5627,0.00319533,0.0112602,-0.00718055,0.0154631,-0.00100756,-1.04124,0.0106605,0.0159108,825,540,-3.79607,14.5627
-392,484,-3.81659,-15.0961,0.00294048,0.00895049,-0.00596704,0.0126265,-0.000735504,-1.01866,0.00867322,0.0185063,832,540,-3.81658,15.0962
-385,484,-3.82056,-15.6403,0.00276121,0.00676586,-0.00476339,0.00993066,-0.000403594,-0.984363,0.00675899,0.014319,839,540,-3.82055,15.6403
-378,484,-3.84418,-16.174,0.00263445,0.00480948,-0.00364361,0.00752441,-8.04777e-05,-0.930426,0.00504331,0.0155259,846,540,-3.84418,16.1739
-371,484,-3.85181,-16.6867,0.00244158,0.00290376,-0.00254782,0.00523094,0.000114394,-0.830625,0.0034498,0.0163705,853,540,-3.85181,16.6867
-364,484,-3.87317,-17.1942,0.00223606,0.00116593,-0.00149567,0.00328949,0.000112501,-0.61362,0.00215647,0.012096,860,540,-3.87315,17.1942
-357,484,-3.89014,-17.7372,0.0021746,-0.000233103,-0.000596826,0.00231442,-0.000372925,-0.230126,0.0016811,0.0131158,867,540,-3.89015,17.7372
-350,484,-3.89752,-18.2668,0.00230175,-0.00129714,7.45657e-05,0.0023033,-0.00129869,0.0207072,0.0021064,0.0155368,874,540,-3.89754,18.2668
-343,484,-3.90106,-18.8085,0.00254748,-0.00209513,0.000519223,0.00260484,-0.00215249,0.110028,0.00275078,0.0235202,881,540,-3.90103,18.8085
-336,484,-3.88916,-19.3181,0.00284173,-0.0028805,0.000952994,0.00299627,-0.00303504,0.160763,0.0034822,0.0253156,888,540,-3.88915,19.3181
-329,484,-3.91168,-19.7422,0.00331074,-0.00312338,0.00109289,0.0034913,-0.00330395,0.163742,0.00392374,0.0361904,895,540,-3.91168,19.7422
-322,484,-3.92572,-20.2681,0,0,0,0,0,0,0,-1,902,540,-3.92575,20.2681
-315,484,-3.80707,-20.8309,0,0,0,0,0,0,0,-1,909,540,-3.80704,20.831
-308,484,-1.32623,-8.9317,0,0,0,0,0,0,0,-1,916,540,-1.32626,8.93173
-301,484,-1.33453,-6.52667,0,0,0,0,0,0,0,-1,923,540,-1.33454,6.5267
-294,484,-1.61224,-8.17059,0,0,0,0,0,0,0,-1,930,540,-1.61227,8.17058
-287,484,-0.715759,-5.62103,0,0,0,0,0,0,0,-1,937,540,-0.715772,5.62105
-280,484,2.66742,-1.6795,0,0,0,0,0,0,0,-1,944,540,2.6674,1.67949
-273,484,2.53125,-2.22296,0,0,0,0,0,0,0,-1,951,540,2.53128,2.22295
-266,484,2.6778,-2.72058,0,0,0,0,0,0,0,-1,958,540,2.6778,2.72061
-259,484,2.41718,-2.59894,0,0,0,0,0,0,0,-1,965,540,2.41717,2.59892
-252,484,10.6069,-11.696,0,0,0,0,0,0,0,-1,972,540,10.6069,11.696
-245,484,6.34106,-11.6107,0,0,0,0,0,0,0,-1,979,540,6.34104,11.6107
-238,484,4.89319,-8.54059,0,0,0,0,0,0,0,-1,986,540,4.89321,8.5406
-231,484,3.47675,-5.22064,0,0,0,0,0,0,0,-1,993,540,3.47676,5.22067
-224,484,1.71344,-2.03473,0,0,0,0,0,0,0,-1,1000,540,1.71342,2.03472
-217,484,-0.745056,1.17358,0,0,0,0,0,0,0,-1,1007,540,-0.745043,-1.17359
-210,484,0,0,0,0,0,0,0,0,0,-1,1014,540,0,0
-203,484,0,0,0,0,0,0,0,0,0,-1,1021,540,0,0
-196,484,0,0,0,0,0,0,0,0,0,-1,1028,540,0,0
-189,484,0,0,0,0,0,0,0,0,0,-1,1035,540,0,0
-182,484,0,0,0,0,0,0,0,0,0,-1,1042,540,0,0
-175,484,0,0,0,0,0,0,0,0,0,-1,1049,540,0,0
-168,484,0,0,0,0,0,0,0,0,0,-1,1056,540,0,0
-161,484,0,0,0,0,0,0,0,0,0,-1,1063,540,0,0
-154,484,0,0,0,0,0,0,0,0,0,-1,1070,540,0,0
-147,484,0,0,0,0,0,0,0,0,0,-1,1077,540,0,0
-140,484,0,0,0,0,0,0,0,0,0,-1,1084,540,0,0
-133,484,0,0,0,0,0,0,0,0,0,-1,1091,540,0,0
-126,484,0,0,0,0,0,0,0,0,0,-1,1098,540,0,0
-119,484,0,0,0,0,0,0,0,0,0,-1,1105,540,0,0
-112,484,0,0,0,0,0,0,0,0,0,-1,1112,540,0,0
-105,484,0,0,0,0,0,0,0,0,0,-1,1119,540,0,0
-98,484,0,0,0,0,0,0,0,0,0,-1,1126,540,0,0
-91,484,0,0,0,0,0,0,0,0,0,-1,1133,540,0,0
-84,484,0,0,0,0,0,0,0,0,0,-1,1140,540,0,0
-77,484,0,0,0,0,0,0,0,0,0,-1,1147,540,0,0
-70,484,0,0,0,0,0,0,0,0,0,-1,1154,540,0,0
-63,484,0,0,0,0,0,0,0,0,0,-1,1161,540,0,0
-56,484,0,0,0,0,0,0,0,0,0,-1,1168,540,0,0
-49,484,0,0,0,0,0,0,0,0,0,-1,1175,540,0,0
-42,484,0,0,0,0,0,0,0,0,0,-1,1182,540,0,0
-35,484,0,0,0,0,0,0,0,0,0,-1,1189,540,0,0
-28,484,0,0,0,0,0,0,0,0,0,-1,1196,540,0,0
-21,484,0,0,0,0,0,0,0,0,0,-1,1203,540,0,0
-14,484,0,0,0,0,0,0,0,0,0,-1,1210,540,0,0
-7,484,0,0,0,0,0,0,0,0,0,-1,1217,540,0,0
0,484,0,0,0,0,0,0,0,0,0,-1,1224,540,0,0
7,484,0,0,0,0,0,0,0,0,0,-1,1231,540,0,0
14,484,0,0,0,0,0,0,0,0,0,-1,1238,540,0,0
21,484,0,0,0,0,0,0,0,0,0,-1,1245,540,0,0
28,484,0,0,0,0,0,0,0,0,0,-1,1252,540,0,0
35,484,0,0,0,0,0,0,0,0,0,-1,1259,540,0,0
42,484,0,0,0,0,0,0,0,0,0,-1,1266,540,0,0
49,484,0,0,0,0,0,0,0,0,0,-1,1273,540,0,0
56,484,0,0,0,0,0,0,0,0,0,-1,1280,540,0,0
63,484,0,0,0,0,0,0,0,0,0,-1,1287,540,0,0
70,484,0,0,0,0,0,0,0,0,0,-1,1294,540,0,0
77,484,0,0,0,0,0,0,0,0,0,-1,1301,540,0,0
84,484,0,0,0,0,0,0,0,0,0,-1,1308,540,0,0
91,484,0,0,0,0,0,0,0,0,0,-1,1315,540,0,0
98,484,0,0,0,0,0,0,0,0,0,-1,1322,540,0,0
105,484,0,0,0,0,0,0,0,0,0,-1,1329,540,0,0
112,484,0,0,0,0,0,0,0,0,0,-1,1336,540,0,0
119,484,0,0,0,0,0,0,0,0,0,-1,1343,540,0,0
126,484,0,0,0,0,0,0,0,0,0,-1,1350,540,0,0
133,484,0,0,0,0,0,0,0,0,0,-1,1357,540,0,0
140,484,0,0,0,0,0,0,0,0,0,-1,1364,540,0,0
147,484,0,0,0,0,0,0,0,0,0,-1,1371,540,0,0
154,484,0,0,0,0,0,0,0,0,0,-1,1378,540,0,0
161,484,0,0,0,0,0,0,0,0,0,-1,1385,540,0,0
168,484,0,0,0,0,0,0,0,0,0,-1,1392,540,0,0
175,484,0,0,0,0,0,0,0,0,0,-1,1399,540,0,0
182,484,0,0,0,0,0,0,0,0,0,-1,1406,540,0,0
189,484,0,0,0,0,0,0,0,0,0,-1,1413,540,0,0
196,484,0,0,0,0,0,0,0,0,0,-1,1420,540,0,0
203,484,0,0,0,0,0,0,0,0,0,-1,1427,540,0,0
210,484,0,0,0,0,0,0,0,0,0,-1,1434,540,0,0
217,484,0,0,0,0,0,0,0,0,0,-1,1441,540,0,0
224,484,0,0,0,0,0,0,0,0,0,-1,1448,540,0,0
231,484,0,0,0,0,0,0,0,0,0,-1,1455,540,0,0
238,484,0,0,0,0,0,0,0,0,0,-1,1462,540,0,0
245,484,0,0,0,0,0,0,0,0,0,-1,1469,540,0,0
252,484,0,0,0,0,0,0,0,0,0,-1,1476,540,0,0
259,484,0,0,0,0,0,0,0,0,0,-1,1483,540,0,0
266,484,0,0,0,0,0,0,0,0,0,-1,1490,540,0,0
273,484,0,0,0,0,0,0,0,0,0,-1,1497,540,0,0
280,484,0,0,0,0,0,0,0,0,0,-1,1504,540,0,0
287,484,0,0,0,0,0,0,0,0,0,-1,1511,540,0,0
294,484,0,0,0,0,0,0,0,0,0,-1,1518,540,0,0
301,484,0,0,0,0,0,0,0,0,0,-1,1525,540,0,0
308,484,0,0,0,0,0,0,0,0,0,-1,1532,540,0,0
315,484,0,0,0,0,0,0,0,0,0,-1,1539,540,0,0
322,484,0,0,0,0,0,0,0,0,0,-1,1546,540,0,0
329,484,0,0,0,0,0,0,0,0,0,-1,1553,540,0,0
336,484,4.38708,-1.64136,0,0,0,0,0,0,0,-1,1560,540,4.38704,1.64138
343,484,7.57996,-1.05457,0,0,0,0,0,0,0,-1,1567,540,7.57995,1.05454
350,484,8.10425,-1.18878,0,0,0,0,0,0,0,-1,1574,540,8.1043,1.18877
357,484,7.74902,-3.80286,0,0,0,0,0,0,0,-1,1581,540,7.74901,3.80287
364,484,6.31262,-3.87213,0,0,0,0,0,0,0,-1,1588,540,6.31263,3.87215
371,484,7.21008,0.973511,0,0,0,0,0,0,0,-1,1595,540,7.21014,-0.973541
378,484,11.0563,1.5014,0,0,0,0,0,0,0,-1,1602,540,11.0563,-1.5014
385,484,14.3469,2.5545,0,0,0,0,0,0,0,-1,1609,540,14.3469,-2.55453
392,484,7.39453,-4.95026,0,0,0,0,0,0,0,-1,1616,540,7.39448,4.95023
399,484,7.14417,-2.5639,0,0,0,0,0,0,0,-1,1623,540,7.14417,2.56391
406,484,7.88953,-2.47321,0,0,0,0,0,0,0,-1,1630,540,7.88954,2.47323
413,484,4.4895,-1.08673,0,0,0,0,0,0,0,-1,1637,540,4.48952,1.08674
420,484,4.50012,-2.11255,0,0,0,0,0,0,0,-1,1644,540,4.50012,2.11256
427,484,5.28601,-3.54053,0,0,0,0,0,0,0,-1,1651,540,5.28599,3.54051
434,484,11.1488,-13.5359,0,0,0,0,0,0,0,-1,1658,540,11.1489,13.5359
441,484,13.205,-18.1697,0,0,0,0,0,0,0,-1,1665,540,13.205,18.1697
448,484,13.8561,-19.2902,0,0,0,0,0,0,0,-1,1672,540,13.8561,19.2902
455,484,13.8389,-18.7425,0,0,0,0,0,0,0,-1,1679,540,13.8388,18.7425
462,484,13.9022,-18.1213,0.00266055,0.00235159,0.000344136,0.00288329,0.00212885,0.574434,0.00172656,0.0237043,1686,540,13.9022,18.1214
469,484,13.9236,-17.58,0.00249274,0.00210197,0.000408564,0.00275024,0.00184448,0.562361,0.00161839,0.0164442,1693,540,13.9236,17.58
476,484,13.8915,-17.0081,0.00218881,0.00179784,0.00044015,0.00247493,0.00151171,0.576415,0.00144055,0.0164681,1700,540,13.8914,17.0081
483,484,13.8677,-16.4661,0.00178271,0.00145843,0.000480247,0.00212745,0.00111369,0.622598,0.00122874,0.0126992,1707,540,13.8676,16.4661
490,484,13.856,-15.9637,0.00118853,0.00124767,0.000475128,0.00169415,0.000742054,0.81648,0.00098062,0.0121084,1714,540,13.8559,15.9638
497,484,13.8326,-15.4026,0.000505067,0.00100673,0.000489826,0.00130621,0.000205584,1.02203,0.000811012,0.0132454,1721,540,13.8327,15.4026
504,484,13.8107,-14.8185,-0.000220128,0.00070741,0.000482891,0.000913167,-0.000425885,1.168,0.000789981,0.0155256,1728,540,13.8107,14.8185
511,484,13.8199,-14.2591,-0.00105136,0.00037239,0.000437388,0.000496023,-0.00117499,1.29532,0.00099095,0.0179404,1735,540,13.82,14.2591
518,484,13.7909,-13.7066,-0.00201645,3.54986e-05,0.000278559,7.26414e-05,-0.00205359,1.43824,0.00139391,0.0149874,1742,540,13.7909,13.7066
525,484,13.7599,-13.1353,-0.00297855,-0.00046592,3.66677e-05,-0.000465385,-0.00297908,1.55621,0.00185054,0.0131696,1749,540,13.7599,13.1353
532,484,13.755,-12.5428,-0.00387775,-0.00089275,-0.000188466,-0.000880898,-0.0038896,-1.50799,0.00235501,0.015493,1756,540,13.7551,12.5428
539,484,13.7042,-11.9174,-0.0047334,-0.00134377,-0.000510855,-0.00126845,-0.00480872,-1.42442,0.00287774,0.0364546,1763,540,13.7042,11.9173
546,484,13.6626,-11.1887,0,0,0,0,0,0,0,-1,1770,540,13.6626,11.1887
553,484,12.4246,-8.96423,0,0,0,0,0,0,0,-1,1777,540,12.4246,8.96422
560,484,10.0549,-5.47931,0,0,0,0,0,0,0,-1,1784,540,10.055,5.47928
567,484,7.78223,-1.38312,0,0,0,0,0,0,0,-1,1791,540,7.78224,1.38311
574,484,5.74463,1.50922,0,0,0,0,0,0,0,-1,1798,540,5.74463,-1.50924
581,484,10.34,2.9491,0,0,0,0,0,0,0,-1,1805,540,10.34,-2.94912
588,484,10.6669,2.88568,0,0,0,0,0,0,0,-1,1812,540,10.6669,-2.88567
595,484,10.7233,1.04767,0,0,0,0,0,0,0,-1,1819,540,10.7233,-1.04766
602,484,0,0,0,0,0,0,0,0,0,-1,1826,540,0,0
609,484,0,0,0,0,0,0,0,0,0,-1,1833,540,0,0
616,484,0,0,0,0,0,0,0,0,0,-1,1840,540,0,0
623,484,0,0,0,0,0,0,0,0,0,-1,1847,540,0,0
630,484,0,0,0,0,0,0,0,0,0,-1,1854,540,0,0
637,484,0,0,0,0,0,0,0,0,0,-1,1861,540,0,0
644,484,0,0,0,0,0,0,0,0,0,-1,1868,540,0,0
651,484,0,0,0,0,0,0,0,0,0,-1,1875,540,0,0
658,484,0,0,0,0,0,0,0,0,0,-1,1882,540,0,0
665,484,0,0,0,0,0,0,0,0,0,-1,1889,540,0,0
672,484,0,0,0,0,0,0,0,0,0,-1,1896,540,0,0
679,484,0,0,0,0,0,0,0,0,0,-1,1903,540,0,0
686,484,0,0,0,0,0,0,0,0,0,-1,1910,540,0,0
693,484,0,0,0,0,0,0,0,0,0,-1,1917,540,0,0
700,484,0,0,0,0,0,0,0,0,0,-1,1924,540,0,0
707,484,0,0,0,0,0,0,0,0,0,-1,1931,540,0,0
714,484,0,0,0,0,0,0,0,0,0,-1,1938,540,0,0
721,484,0,0,0,0,0,0,0,0,0,-1,1945,540,0,0
728,484,0,0,0,0,0,0,0,0,0,-1,1952,540,0,0
735,484,0,0,0,0,0,0,0,0,0,-1,1959,540,0,0
742,484,0,0,0,0,0,0,0,0,0,-1,1966,540,0,0
749,484,0,0,0,0,0,0,0,0,0,-1,1973,540,0,0
756,484,0,0,0,0,0,0,0,0,0,-1,1980,540,0,0
763,484,0,0,0,0,0,0,0,0,0,-1,1987,540,0,0
770,484,0,0,0,0,0,0,0,0,0,-1,1994,540,0,0
777,484,0,0,0,0,0,0,0,0,0,-1,2001,540,0,0
784,484,0,0,0,0,0,0,0,0,0,-1,2008,540,0,0
791,484,0,0,0,0,0,0,0,0,0,-1,2015,540,0,0
798,484,0,0,0,0,0,0,0,0,0,-1,2022,540,0,0
805,484,0,0,0,0,0,0,0,0,0,-1,2029,540,0,0
812,484,0,0,0,0,0,0,0,0,0,-1,2036,540,0,0
-700,477,0,0,0,0,0,0,0,0,0,-1,524,547,0,0
-693,477,0,0,0,0,0,0,0,0,0,-1,531,547,0,0
-686,477,0,0,0,0,0,0,0,0,0,-1,538,547,0,0
-679,477,0,0,0,0,0,0,0,0,0,-1,545,547,0,0
-672,477,0,0,0,0,0,0,0,0,0,-1,552,547,0,0
-665,477,0,0,0,0,0,0,0,0,0,-1,559,547,0,0
-658,477,0,0,0,0,0,0,0,0,0,-1,566,547,0,0
-651,477,0,0,0,0,0,0,0,0,0,-1,573,547,0,0
-644,477,0,0,0,0,0,0,0,0,0,-1,580,547,0,0
-637,477,0,0,0,0,0,0,0,0,0,-1,587,547,0,0
-630,477,0,0,0,0,0,0,0,0,0,-1,594,547,0,0
-623,477,0,0,0,0,0,0,0,0,0,-1,601,547,0,0
-616,477,0,0,0,0,0,0,0,0,0,-1,608,547,0,0
-609,477,0,0,0,0,0,0,0,0,0,-1,615,547,0,0
-602,477,0,0,0,0,0,0,0,0,0,-1,622,547,0,0
-595,477,0,0,0,0,0,0,0,0,0,-1,629,547,0,0
-588,477,0,0,0,0,0,0,0,0,0,-1,636,547,0,0
-581,477,0,0,0,0,0,0,0,0,0,-1,643,547,0,0
-574,477,0,0,0,0,0,0,0,0,0,-1,650,547,0,0
-567,477,0,0,0,0,0,0,0,0,0,-1,657,547,0,0
-560,477,0,0,0,0,0,0,0,0,0,-1,664,547,0,0
-553,477,0,0,0,0,0,0,0,0,0,-1,671,547,0,0
-546,477,0,0,0,0,0,0,0,0,0,-1,678,547,0,0
-539,477,0,0,0,0,0,0,0,0,0,-1,685,547,0,0
-532,477,0,0,0,0,0,0,0,0,0,-1,692,547,0,0
-525,477,0,0,0,0,0,0,0,0,0,-1,699,547,0,0
-518,477,0,0,0,0,0,0,0,0,0,-1,706,547,0,0
-511,477,0,0,0,0,0,0,0,0,0,-1,713,547,0,0
-504,477,0,0,0,0,0,0,0,0,0,-1,720,547,0,0
-497,477,0,0,0,0,0,0,0,0,0,-1,727,547,0,0
-490,477,0,0,0,0,0,0,0,0,0,-1,734,547,0,0
-483,477,-7.73151,-0.224182,0,0,0,0,0,0,0,-1,741,547,-7.73152,0.224176
-476,477,-6.25806,-0.310547,0,0,0,0,0,0,0,-1,748,547,-6.25804,0.310549
-469,477,-7.26617,0.525085,0,0,0,0,0,0,0,-1,755,547,-7.2662,-0.525111
-462,477,-6.65143,1.06042,0,0,0,0,0,0,0,-1,762,547,-6.65143,-1.06043
-455,477,-5.31757,0.429016,0,0,0,0,0,0,0,-1,769,547,-5.31756,-0.42902
-448,477,-4.0697,0.273376,0,0,0,0,0,0,0,-1,776,547,-4.06971,-0.273363
-441,477,-2.47504,-4.76971,0,0,0,0,0,0,0,-1,783,547,-2.47505,4.76973
-434,477,-4.02966,-11.7188,0,0,0,0,0,0,0,-1,790,547,-4.02964,11.7188
-427,477,-4.19446,-12.0566,0.00144,0.0155991,-0.00721196,0.0186256,-0.0015865,-1.17347,0.0129783,0.0416085,797,547,-4.19446,12.0566
-420,477,-4.25702,-12.5129,0.00180806,0.0137183,-0.00699778,0.0169519,-0.00142552,-1.13794,0.0118052,0.034375,804,547,-4.25704,12.5129
-413,477,-4.22894,-13.3048,0.0020971,0.0118895,-0.00659954,0.0152108,-0.00122416,-1.10455,0.0105722,0.0199979,811,547,-4.22893,13.3048
-406,477,-4.26953,-13.9443,0.00220673,0.0100141,-0.00591562,0.013198,-0.000977131,-1.07705,0.00914177,0.0112018,818,547,-4.26953,13.9443
-399,477,-4.3197,-14.5091,0.00212669,0.00818237,-0.00503873,0.011033,-0.00072396,-1.05594,0.00760816,0.0179844,825,547,-4.3197,14.5091
-392,477,-4.35541,-15.0647,0.00207605,0.00629973,-0.0041071,0.00880613,-0.000430348,-1.02287,0.00601933,0.0169117,832,547,-4.35538,15.0647
-385,477,-4.32983,-15.5903,0.00209715,0.00450567,-0.00316931,0.0066918,-8.89821e-05,-0.966961,0.00449115,0.0155401,839,547,-4.32986,15.5904
-378,477,-4.35907,-16.1436,0.00214803,0.00285672,-0.0022627,0.00479265,0.0002121,-0.863069,0.0031268,0.0141663,846,547,-4.35906,16.1436
-371,477,-4.39026,-16.6526,0.00214994,0.0012309,-0.00134962,0.00311612,0.000264718,-0.621314,0.00199504,0.0137271,853,547,-4.39026,16.6526
-364,477,-4.40631,-17.1525,0.00216436,-0.000262668,-0.000472225,0.002253,-0.000351311,-0.185554,0.00163176,0.0139219,860,547,-4.40629,17.1525
-357,477,-4.41724,-17.7027,0.00233343,-0.00150209,0.000276591,0.00235328,-0.00152194,0.0716191,0.00225445,0.0120345,867,547,-4.41723,17.7027
-350,477,-4.43176,-18.2424,0.00271612,-0.00234861,0.000766543,0.0028296,-0.00246208,0.146965,0.00305761,0.0113169,874,547,-4.43174,18.2424
-343,477,-4.38696,-18.7834,0.00330638,-0.00297077,0.000975336,0.00345444,-0.00311882,0.150648,0.00379672,0.0200114,881,547,-4.38695,18.7834
-336,477,-4.32281,-19.3047,0.00389454,-0.00376206,0.00133164,0.00411953,-0.00398705,0.167375,0.00468054,0.0396919,888,547,-4.32281,19.3048
-329,477,-4.2674,-19.8266,0,0,0,0,0,0,0,-1,895,547,-4.2674,19.8266
-322,477,-2.04822,-12.0026,0,0,0,0,0,0,0,-1,902,547,-2.04819,12.0026
-315,477,-1.67358,-9.15253,0,0,0,0,0,0,0,-1,909,547,-1.67356,9.15253
-308,477,-1.30127,-6.55188,0,0,0,0,0,0,0,-1,916,547,-1.30128,6.55185
-301,477,-1.21185,-6.28351,0,0,0,0,0,0,0,-1,923,547,-1.21184,6.28352
-294,477,-0.352905,3.27142,0,0,0,0,0,0,0,-1,930,547,-0.35292,-3.27144
-287,477,3.54364,2.15399,0,0,0,0,0,0,0,-1,937,547,3.54362,-2.15396
-280,477,1.97308,-0.954163,0,0,0,0,0,0,0,-1,944,547,1.9731,0.954178
-273,477,2.11621,-3.76709,0,0,0,0,0,0,0,-1,951,547,2.11619,3.76706
-266,477,2.04669,-3.42389,0,0,0,0,0,0,0,-1,958,547,2.04671,3.42391
-259,477,-1.33478,-3.41205,0,0,0,0,0,0,0,-1,965,547,-1.3348,3.41206
-252,477,0.597168,-5.32922,0,0,0,0,0,0,0,-1,972,547,0.597144,5.32924
-245,477,8.2309,-8.48492,0,0,0,0,0,0,0,-1,979,547,8.23091,8.48494
-238,477,6.60938,-5.64063,0,0,0,0,0,0,0,-1,986,547,6.60938,5.64063
-231,477,4.71716,-2.52484,0,0,0,0,0,0,0,-1,993,547,4.71716,2.52483
-224,477,0,0,0,0,0,0,0,0,0,-1,1000,547,0,0
-217,477,0,0,0,0,0,0,0,0,0,-1,1007,547,0,0
-210,477,0,0,0,0,0,0,0,0,0,-1,1014,547,0,0
-203,477,0,0,0,0,0,0,0,0,0,-1,1021,547,0,0
-196,477,0,0,0,0,0,0,0,0,0,-1,1028,547,0,0
-189,477,0,0,0,0,0,0,0,0,0,-1,1035,547,0,0
-182,477,0,0,0,0,0,0,0,0,0,-1,1042,547,0,0
-175,477,0,0,0,0,0,0,0,0,0,-1,1049,547,0,0
-168,477,0,0,0,0,0,0,0,0,0,-1,1056,547,0,0
-161,477,0,0,0,0,0,0,0,0,0,-1,1063,547,0,0
-154,477,0,0,0,0,0,0,0,0,0,-1,1070,547,0,0
-147,477,0,0,0,0,0,0,0,0,0,-1,1077,547,0,0
-140,477,0,0,0,0,0,0,0,0,0,-1,1084,547,0,0
-133,477,0,0,0,0,0,0,0,0,0,-1,1091,547,0,0
-126,477,0,0,0,0,0,0,0,0,0,-1,1098,547,0,0
-119,477,0,0,0,0,0,0,0,0,0,-1,1105,547,0,0
-112,477,0,0,0,0,0,0,0,0,0,-1,1112,547,0,0
-105,477,0,0,0,0,0,0,0,0,0,-1,1119,547,0,0
-98,477,0,0,0,0,0,0,0,0,0,-1,1126,547,0,0
-91,477,0,0,0,0,0,0,0,0,0,-1,1133,547,0,0
-84,477,0,0,0,0,0,0,0,0,0,-1,1140,547,0,0
-77,477,0,0,0,0,0,0,0,0,0,-1,1147,547,0,0
-70,477,0,0,0,0,0,0,0,0,0,-1,1154,547,0,0
-63,477,0,0,0,0,0,0,0,0,0,-1,1161,547,0,0
-56,477,0,0,0,0,0,0,0,0,0,-1,1168,547,0,0
-49,477,0,0,0,0,0,0,0,0,0,-1,1175,547,0,0
-42,477,0,0,0,0,0,0,0,0,0,-1,1182,547,0,0
-35,477,0,0,0,0,0,0,0,0,0,-1,1189,547,0,0
-28,477,0,0,0,0,0,0,0,0,0,-1,1196,547,0,0
-21,477,0,0,0,0,0,0,0,0,0,-1,1203,547,0,0
-14,477,0,0,0,0,0,0,0,0,0,-1,1210,547,0,0
-7,477,0,0,0,0,0,0,0,0,0,-1,1217,547,0,0
0,477,0,0,0,0,0,0,0,0,0,-1,1224,547,0,0
7,477,0,0,0,0,0,0,0,0,0,-1,1231,547,0,0
14,477,0,0,0,0,0,0,0,0,0,-1,1238,547,0,0
21,477,0,0,0,0,0,0,0,0,0,-1,1245,547,0,0
28,477,0,0,0,0,0,0,0,0,0,-1,1252,547,0,0
35,477,0,0,0,0,0,0,0,0,0,-1,1259,547,0,0
42,477,0,0,0,0,0,0,0,0,0,-1,1266,547,0,0
49,477,0,0,0,0,0,0,0,0,0,-1,1273,547,0,0
56,477,0,0,0,0,0,0,0,0,0,-1,1280,547,0,0
63,477,0,0,0,0,0,0,0,0,0,-1,1287,547,0,0
70,477,0,0,0,0,0,0,0,0,0,-1,1294,547,0,0
77,477,0,0,0,0,0,0,0,0,0,-1,1301,547,0,0
84,477,0,0,0,0,0,0,0,0,0,-1,1308,547,0,0
91,477,0,0,0,0,0,0,0,0,0,-1,1315,547,0,0
98,477,0,0,0,0,0,0,0,0,0,-1,1322,547,0,0
105,477,0,0,0,0,0,0,0,0,0,-1,1329,547,0,0
112,477,0,0,0,0,0,0,0,0,0,-1,1336,547,0,0
119,477,0,0,0,0,0,0,0,0,0,-1,1343,547,0,0
126,477,0,0,0,0,0,0,0,0,0,-1,1350,547,0,0
133,477,0,0,0,0,0,0,0,0,0,-1,1357,547,0,0
140,477,0,0,0,0,0,0,0,0,0,-1,1364,547,0,0
147,477,0,0,0,0,0,0,0,0,0,-1,1371,547,0,0
154,477,0,0,0,0,0,0,0,0,0,-1,1378,547,0,0
161,477,0,0,0,0,0,0,0,0,0,-1,1385,547,0,0
168,477,0,0,0,0,0,0,0,0,0,-1,1392,547,0,0
175,477,0,0,0,0,0,0,0,0,0,-1,1399,547,0,0
182,477,0,0,0,0,0,0,0,0,0,-1,1406,547,0,0
189,477,0,0,0,0,0,0,0,0,0,-1,1413,547,0,0
196,477,0,0,0,0,0,0,0,0,0,-1,1420,547,0,0
203,477,0,0,0,0,0,0,0,0,0,-1,1427,547,0,0
210,477,0,0,0,0,0,0,0,0,0,-1,1434,547,0,0
217,477,0,0,0,0,0,0,0,0,0,-1,1441,547,0,0
224,477,0,0,0,0,0,0,0,0,0,-1,1448,547,0,0
231,477,0,0,0,0,0,0,0,0,0,-1,1455,547,0,0
238,477,0,0,0,0,0,0,0,0,0,-1,1462,547,0,0
245,477,0,0,0,0,0,0,0,0,0,-1,1469,547,0,0
252,477,0,0,0,0,0,0,0,0,0,-1,1476,547,0,0
259,477,0,0,0,0,0,0,0,0,0,-1,1483,547,0,0
266,477,0,0,0,0,0,0,0,0,0,-1,1490,547,0,0
273,477,0,0,0,0,0,0,0,0,0,-1,1497,547,0,0
280,477,0,0,0,0,0,0,0,0,0,-1,1504,547,0,0
287,477,0,0,0,0,0,0,0,0,0,-1,1511,547,0,0
294,477,0,0,0,0,0,0,0,0,0,-1,1518,547,0,0
301,477,0,0,0,0,0,0,0,0,0,-1,1525,547,0,0
308,477,0,0,0,0,0,0,0,0,0,-1,1532,547,0,0
315,477,0,0,0,0,0,0,0,0,0,-1,1539,547,0,0
322,477,0,0,0,0,0,0,0,0,0,-1,1546,547,0,0
329,477,0,0,0,0,0,0,0,0,0,-1,1553,547,0,0
336,477,0,0,0,0,0,0,0,0,0,-1,1560,547,0,0
343,477,0,0,0,0,0,0,0,0,0,-1,1567,547,0,0
350,477,1.7699,-3.32275,0,0,0,0,0,0,0,-1,1574,547,1.7699,3.32272
357,477,3.073,-4.83313,0,0,0,0,0,0,0,-1,1581,547,3.07303,4.83316
364,477,4.30127,-4.22864,0,0,0,0,0,0,0,-1,1588,547,4.30125,4.22865
371,477,4.57703,0.283264,0,0,0,0,0,0,0,-1,1595,547,4.57706,-0.283262
378,477,8.57947,1.05969,0,0,0,0,0,0,0,-1,1602,547,8.5795,-1.05972
385,477,12.3726,2.02356,0,0,0,0,0,0,0,-1,1609,547,12.3725,-2.02355
392,477,16.4678,2.76843,0,0,0,0,0,0,0,-1,1616,547,16.4678,-2.76845
399,477,8.00037,-2.29523,0,0,0,0,0,0,0,-1,1623,547,8.00031,2.2952
406,477,4.82495,2.7475,0,0,0,0,0,0,0,-1,1630,547,4.825,-2.74752
413,477,4.88171,-0.336426,0,0,0,0,0,0,0,-1,1637,547,4.88169,0.336398
420,477,3.34875,0.102722,0,0,0,0,0,0,0,-1,1644,547,3.34871,-0.1027
427,477,1.66772,-0.373108,0,0,0,0,0,0,0,-1,1651,547,1.66768,0.373104
434,477,3.76978,-2.30798,0,0,0,0,0,0,0,-1,1658,547,3.76974,2.30801
441,477,4.05444,-2.80402,0,0,0,0,0,0,0,-1,1665,547,4.05444,2.804
448,477,10.4247,-11.7421,0,0,0,0,0,0,0,-1,1672,547,10.4247,11.7421
455,477,13.3054,-16.8109,0,0,0,0,0,0,0,-1,1679,547,13.3054,16.8109
462,477,14.4269,-18.2397,0,0,0,0,0,0,0,-1,1686,547,14.4268,18.2397
469,477,14.4896,-17.5332,0.00314882,0.00238098,0.000347891,0.003283,0.00224681,0.368101,0.00193792,0.0420736,1693,547,14.4897,17.5332
476,477,14.4344,-17.0345,0.00282882,0.00205269,0.000378252,0.00298267,0.00189884,0.386295,0.00174334,0.0216634,1700,547,14.4344,17.0345
483,477,14.4346,-16.4668,0.00243724,0.00170424,0.000472856,0.00266899,0.00147248,0.455719,0.00154369,0.0125692,1707,547,14.4345,16.4668
490,477,14.408,-15.9391,0.00185607,0.0015561,0.000494392,0.00222273,0.00118944,0.638124,0.00128435,0.0118645,1714,547,14.4079,15.9392
497,477,14.3854,-15.366,0.00120856,0.00135585,0.000543762,0.00183093,0.000733482,0.852706,0.00106403,0.0126398,1721,547,14.3854,15.3659
504,477,14.3685,-14.7989,0.000555821,0.00109641,0.000568279,0.0014554,0.000196832,1.00738,0.000911769,0.0173014,1728,547,14.3686,14.7989
511,477,14.389,-14.2787,-0.000164406,0.000818078,0.000566761,0.00107686,-0.000423188,1.14247,0.000893043,0.0221851,1735,547,14.389,14.2788
518,477,14.3654,-13.7114,-0.000981423,0.000544294,0.000470862,0.000677908,-0.00111504,1.2943,0.00104536,0.0201344,1742,547,14.3654,13.7113
525,477,14.3295,-13.1126,-0.00176049,0.000138397,0.000308645,0.000187305,-0.00180939,1.41364,0.0012733,0.0173618,1749,547,14.3295,13.1126
532,477,14.2877,-12.5568,-0.00248071,-0.000182536,0.000154886,-0.000172144,-0.0024911,1.50381,0.00160643,0.0186962,1756,547,14.2878,12.5568
539,477,14.2775,-11.8973,-0.00313475,-0.000518623,-5.29206e-05,-0.000517553,-0.00313582,-1.55058,0.00194116,0.016192,1763,547,14.2774,11.8974
546,477,14.1945,-11.3508,-0.00374262,-0.00077199,-0.00029997,-0.000742002,-0.00377261,-1.47116,0.00230785,0.0376104,1770,547,14.1944,11.3508
553,477,14.245,-10.6563,0,0,0,0,0,0,0,-1,1777,547,14.245,10.6563
560,477,14.2111,-9.5968,0,0,0,0,0,0,0,-1,1784,547,14.211,9.59678
567,477,13.9529,-8.70972,0,0,0,0,0,0,0,-1,1791,547,13.9529,8.7097
574,477,6.82593,-0.916992,0,0,0,0,0,0,0,-1,1798,547,6.82598,0.916977
581,477,9.29321,-0.557007,0,0,0,0,0,0,0,-1,1805,547,9.29324,0.55703
588,477,9.75195,0.422729,0,0,0,0,0,0,0,-1,1812,547,9.75198,-0.42273
595,477,9.89172,1.21326,0,0,0,0,0,0,0,-1,1819,547,9.89174,-1.21328
602,477,6.5271,-0.964417,0,0,0,0,0,0,0,-1,1826,547,6.52706,0.964427
609,477,0,0,0,0,0,0,0,0,0,-1,1833,547,0,0
616,477,0,0,0,0,0,0,0,0,0,-1,1840,547,0,0
623,477,0,0,0,0,0,0,0,0,0,-1,1847,547,0,0
630,477,0,0,0,0,0,0,0,0,0,-1,1854,547,0,0
637,477,0,0,0,0,0,0,0,0,0,-1,1861,547,0,0
644,477,0,0,0,0,0,0,0,0,0,-1,1868,547,0,0
651,477,0,0,0,0,0,0,0,0,0,-1,1875,547,0,0
658,477,0,0,0,0,0,0,0,0,0,-1,1882,547,0,0
665,477,0,0,0,0,0,0,0,0,0,-1,1889,547,0,0
672,477,0,0,0,0,0,0,0,0,0,-1,1896,547,0,0
679,477,0,0,0,0,0,0,0,0,0,-1,1903,547,0,0
686,477,0,0,0,0,0,0,0,0,0,-1,1910,547,0,0
693,477,0,0,0,0,0,0,0,0,0,-1,1917,547,0,0
700,477,0,0,0,0,0,0,0,0,0,-1,1924,547,0,0
707,477,0,0,0,0,0,0,0,0,0,-1,1931,547,0,0
714,477,0,0,0,0,0,0,0,0,0,-1,1938,547,0,0
721,477,0,0,0,0,0,0,0,0,0,-1,1945,547,0,0
728,477,0,0,0,0,0,0,0,0,0,-1,1952,547,0,0
735,477,0,0,0,0,0,0,0,0,0,-1,1959,547,0,0
742,477,0,0,0,0,0,0,0,0,0,-1,1966,547,0,0
749,477,0,0,0,0,0,0,0,0,0,-1,1973,547,0,0
756,477,0,0,0,0,0,0,0,0,0,-1,1980,547,0,0
763,477,0,0,0,0,0,0,0,0,0,-1,1987,547,0,0
770,477,0,0,0,0,0,0,0,0,0,-1,1994,547,0,0
777,477,0,0,0,0,0,0,0,0,0,-1,2001,547,0,0
784,477,0,0,0,0,0,0,0,0,0,-1,2008,547,0,0
791,477,0,0,0,0,0,0,0,0,0,-1,2015,547,0,0
798,477,0,0,0,0,0,0,0,0,0,-1,2022,547,0,0
805,477,0,0,0,0,0,0,0,0,0,-1,2029,547,0,0
812,477,0,0,0,0,0,0,0,0,0,-1,2036,547,0,0
-700,470,0,0,0,0,0,0,0,0,0,-1,524,554,0,0
-693,470,0,0,0,0,0,0,0,0,0,-1,531,554,0,0
-686,470,0,0,0,0,0,0,0,0,0,-1,538,554,0,0
-679,470,0,0,0,0,0,0,0,0,0,-1,545,554,0,0
-672,470,0,0,0,0,0,0,0,0,0,-1,552,554,0,0
-665,470,0,0,0,0,0,0,0,0,0,-1,559,554,0,0
-658,470,0,0,0,0,0,0,0,0,0,-1,566,554,0,0
-651,470,0,0,0,0,0,0,0,0,0,-1,573,554,0,0
-644,470,0,0,0,0,0,0,0,0,0,-1,580,554,0,0
-637,470,0,0,0,0,0,0,0,0,0,-1,587,554,0,0
-630,470,0,0,0,0,0,0,0,0,0,-1,594,554,0,0
-623,470,0,0,0,0,0,0,0,0,0,-1,601,554,0,0
-616,470,0,0,0,0,0,0,0,0,0,-1,608,554,0,0
-609,470,0,0,0,0,0,0,0,0,0,-1,615,554,0,0
-602,470,0,0,0,0,0,0,0,0,0,-1,622,554,0,0
-595,470,0,0,0,0,0,0,0,0,0,-1,629,554,0,0
-588,470,0,0,0,0,0,0,0,0,0,-1,636,554,0,0
-581,470,0,0,0,0,0,0,0,0,0,-1,643,554,0,0
-574,470,0,0,0,0,0,0,0,0,0,-1,650,554,0,0
-567,470,0,0,0,0,0,0,0,0,0,-1,657,554,0,0
-560,470,0,0,0,0,0,0,0,0,0,-1,664,554,0,0
-553,470,0,0,0,0,0,0,0,0,0,-1,671,554,0,0
-546,470,0,0,0,0,0,0,0,0,0,-1,678,554,0,0
-539,470,0,0,0,0,0,0,0,0,0,-1,685,554,0,0
-532,470,0,0,0,0,0,0,0,0,0,-1,692,554,0,0
-525,470,0,0,0,0,0,0,0,0,0,-1,699,554,0,0
-518,470,0,0,0,0,0,0,0,0,0,-1,706,554,0,0
-511,470,0,0,0,0,0,0,0,0,0,-1,713,554,0,0
-504,470,0,0,0,0,0,0,0,0,0,-1,720,554,0,0
-497,470,0,0,0,0,0,0,0,0,0,-1,727,554,0,0
-490,470,-9.13263,-1.03125,0,0,0,0,0,0,0,-1,734,554,-9.1326,1.03127
-483,470,-7.68677,-1.03955,0,0,0,0,0,0,0,-1,741,554,-7.68678,1.03958
-476,470,-6.17969,-1.03394,0,0,0,0,0,0,0,-1,748,554,-6.17971,1.03395
-469,470,-6.23016,-0.651855,0,0,0,0,0,0,0,-1,755,554,-6.23014,0.651829
-462,470,-4.87915,-1.03705,0,0,0,0,0,0,0,-1,762,554,-4.87914,1.03702
-455,470,-4.14777,-1.37079,0,0,0,0,0,0,0,-1,769,554,-4.14779,1.37078
-448,470,-2.9314,-5.74518,0,0,0,0,0,0,0,-1,776,554,-2.93137,5.74518
-441,470,-4.59241,-10.9685,0,0,0,0,0,0,0,-1,783,554,-4.59242,10.9685
-434,470,-4.59155,-11.7012,-5.63962e-06,0.012473,-0.0048796,0.0141545,-0.00168715,-1.23894,0.0100461,0.0479218,790,554,-4.59153,11.7012
-427,470,-4.8053,-12.1978,0.000603973,0.0113932,-0.00496255,0.0133286,-0.00133141,-1.19894,0.00936112,0.0214914,797,554,-4.80532,12.1978
-420,470,-4.78589,-12.7745,0.00101526,0.00997793,-0.00480162,0.0120645,-0.00107135,-1.16085,0.00842288,0.0155101,804,554,-4.78588,12.7745
-413,470,-4.79706,-13.3683,0.00134502,0.00854012,-0.00447485,0.0106842,-0.000799089,-1.12397,0.00740357,0.0133269,811,554,-4.79704,13.3683
-406,470,-4.80646,-13.9132,0.00153767,0.00700882,-0.00392201,0.00905504,-0.000508553,-1.08992,0.00621315,0.0107853,818,554,-4.80648,13.9132
-399,470,-4.83051,-14.4853,0.00160134,0.00554851,-0.00323156,0.00736148,-0.000211631,-1.05953,0.0049797,0.0135706,825,554,-4.83054,14.4853
-392,470,-4.85266,-15.0471,0.00170529,0.00400258,-0.00249692,0.00560239,0.000105475,-1.00098,0.00370027,0.0134594,832,554,-4.85266,15.0471
-385,470,-4.84229,-15.5554,0.00187125,0.00253971,-0.00176582,0.00400265,0.00040831,-0.878931,0.00254328,0.0114004,839,554,-4.84226,15.5554
-378,470,-4.86975,-16.1074,0.00203481,0.00117096,-0.00104179,0.00273066,0.00047511,-0.588885,0.00168456,0.0159314,846,554,-4.86975,16.1074
-371,470,-4.9101,-16.6338,0.00216379,-0.000160671,-0.000315724,0.00220591,-0.000202792,-0.132626,0.00154265,0.0141012,853,554,-4.91007,16.6338
-364,470,-4.93073,-17.1295,0.00233115,-0.0013661,0.000346046,0.00236326,-0.00139821,0.0925247,0.00219538,0.014792,860,554,-4.93071,17.1294
-357,470,-4.94824,-17.6625,0.00265519,-0.00241712,0.000879306,0.0028033,-0.00256522,0.16687,0.00310053,0.0147234,867,554,-4.94823,17.6625
-350,470,-4.93628,-18.2148,0.0032065,-0.00302042,0.00109915,0.00339482,-0.00320874,0.169687,0.00381307,0.0113678,874,554,-4.93629,18.2148
-343,470,-4.85913,-18.713,0.00406111,-0.00342508,0.000942781,0.00417801,-0.00354199,0.12337,0.00446218,0.0407152,881,554,-4.85915,18.713
-336,470,-4.66296,-19.2988,0,0,0,0,0,0,0,-1,888,554,-4.66296,19.2988
-329,470,-2.78516,-12.3594,0,0,0,0,0,0,0,-1,895,554,-2.78517,12.3594
-322,470,-2.30829,-11.4527,0,0,0,0,0,0,0,-1,902,554,-2.30827,11.4527
-315,470,-1.04797,-8.29529,0,0,0,0,0,0,0,-1,909,554,-1.04797,8.29526
-308,470,-1.39368,-6.68152,0,0,0,0,0,0,0,-1,916,554,-1.39369,6.68149
-301,470,-0.0340576,3.34888,0,0,0,0,0,0,0,-1,923,554,-0.0340496,-3.3489
-294,470,-1.18378,3.22266,0,0,0,0,0,0,0,-1,930,554,-1.18376,-3.22268
-287,470,-2.15454,3.2204,0,0,0,0,0,0,0,-1,937,554,-2.15452,-3.22037
-280,470,-3.00537,3.099,0,0,0,0,0,0,0,-1,944,554,-3.00536,-3.09898
-273,470,-12.3932,3.65009,0,0,0,0,0,0,0,-1,951,554,-12.3932,-3.65011
-266,470,-11.5706,1.16028,0,0,0,0,0,0,0,-1,958,554,-11.5706,-1.16031
-259,470,-7.50415,-2.77167,0,0,0,0,0,0,0,-1,965,554,-7.50413,2.7717
-252,470,-0.371155,-5.87823,0,0,0,0,0,0,0,-1,972,554,-0.37114,5.87821
-245,470,1.33221,-6.81122,0,0,0,0,0,0,0,-1,979,554,1.33223,6.8112
-238,470,0,0,0,0,0,0,0,0,0,-1,986,554,0,0
-231,470,0,0,0,0,0,0,0,0,0,-1,993,554,0,0
-224,470,0,0,0,0,0,0,0,0,0,-1,1000,554,0,0
-217,470,0,0,0,0,0,0,0,0,0,-1,1007,554,0,0
-210,470,0,0,0,0,0,0,0,0,0,-1,1014,554,0,0
-203,470,0,0,0,0,0,0,0,0,0,-1,1021,554,0,0
-196,470,0,0,0,0,0,0,0,0,0,-1,1028,554,0,0
-189,470,0,0,0,0,0,0,0,0,0,-1,1035,554,0,0
-182,470,0,0,0,0,0,0,0,0,0,-1,1042,554,0,0
-175,470,0,0,0,0,0,0,0,0,0,-1,1049,554,0,0
-168,470,0,0,0,0,0,0,0,0,0,-1,1056,554,0,0
-161,470,0,0,0,0,0,0,0,0,0,-1,1063,554,0,0
-154,470,0,0,0,0,0,0,0,0,0,-1,1070,554,0,0
-147,470,0,0,0,0,0,0,0,0,0,-1,1077,554,0,0
-140,470,0,0,0,0,0,0,0,0,0,-1,1084,554,0,0
-133,470,0,0,0,0,0,0,0,0,0,-1,1091,554,0,0
-126,470,0,0,0,0,0,0,0,0,0,-1,1098,554,0,0
-119,470,0,0,0,0,0,0,0,0,0,-1,1105,554,0,0
-112,470,0,0,0,0,0,0,0,0,0,-1,1112,554,0,0
-105,470,0,0,0,0,0,0,0,0,0,-1,1119,554,0,0
-98,470,0,0,0,0,0,0,0,0,0,-1,1126,554,0,0
-91,470,0,0,0,0,0,0,0,0,0,-1,1133,554,0,0
-84,470,0,0,0,0,0,0,0,0,0,-1,1140,554,0,0
-77,470,0,0,0,0,0,0,0,0,0,-1,1147,554,0,0
-70,470,0,0,0,0,0,0,0,0,0,-1,1154,554,0,0
-63,470,0,0,0,0,0,0,0,0,0,-1,1161,554,0,0
-56,470,0,0,0,0,0,0,0,0,0,-1,1168,554,0,0
-49,470,0,0,0,0,0,0,0,0,0,-1,1175,554,0,0
-42,470,0,0,0,0,0,0,0,0,0,-1,1182,554,0,0
-35,470,0,0,0,0,0,0,0,0,0,-1,1189,554,0,0
-28,470,0,0,0,0,0,0,0,0,0,-1,1196,554,0,0
-21,470,0,0,0,0,0,0,0,0,0,-1,1203,554,0,0
-14,470,0,0,0,0,0,0,0,0,0,-1,1210,554,0,0
-7,470,0,0,0,0,0,0,0,0,0,-1,1217,554,0,0
0,470,0,0,0,0,0,0,0,0,0,-1,1224,554,0,0
7,470,0,0,0,0,0,0,0,0,0,-1,1231,554,0,0
14,470,0,0,0,0,0,0,0,0,0,-1,1238,554,0,0
21,470,0,0,0,0,0,0,0,0,0,-1,1245,554,0,0
28,470,0,0,0,0,0,0,0,0,0,-1,1252,554,0,0
35,470,0,0,0,0,0,0,0,0,0,-1,1259,554,0,0
42,470,0,0,0,0,0,0,0,0,0,-1,1266,554,0,0
49,470,0,0,0,0,0,0,0,0,0,-1,1273,554,0,0
56,470,0,0,0,0,0,0,0,0,0,-1,1280,554,0,0
63,470,0,0,0,0,0,0,0,0,0,-1,1287,554,0,0
70,470,0,0,0,0,0,0,0,0,0,-1,1294,554,0,0
77,470,0,0,0,0,0,0,0,0,0,-1,1301,554,0,0
84,470,0,0,0,0,0,0,0,0,0,-1,1308,554,0,0
91,470,0,0,0,0,0,0,0,0,0,-1,1315,554,0,0
98,470,0,0,0,0,0,0,0,0,0,-1,1322,554,0,0
105,470,0,0,0,0,0,0,0,0,0,-1,1329,554,0,0
112,470,0,0,0,0,0,0,0,0,0,-1,1336,554,0,0
119,470,0,0,0,0,0,0,0,0,0,-1,1343,554,0,0
126,470,0,0,0,0,0,0,0,0,0,-1,1350,554,0,0
133,470,0,0,0,0,0,0,0,0,0,-1,1357,554,0,0
140,470,0,0,0,0,0,0,0,0,0,-1,1364,554,0,0
147,470,0,0,0,0,0,0,0,0,0,-1,1371,554,0,0
154,470,0,0,0,0,0,0,0,0,0,-1,1378,554,0,0
161,470,0,0,0,0,0,0,0,0,0,-1,1385,554,0,0
168,470,0,0,0,0,0,0,0,0,0,-1,1392,554,0,0
175,470,0,0,0,0,0,0,0,0,0,-1,1399,554,0,0
182,470,0,0,0,0,0,0,0,0,0,-1,1406,554,0,0
189,470,0,0,0,0,0,0,0,0,0,-1,1413,554,0,0
196,470,0,0,0,0,0,0,0,0,0,-1,1420,554,0,0
203,470,0,0,0,0,0,0,0,0,0,-1,1427,554,0,0
210,470,0,0,0,0,0,0,0,0,0,-1,1434,554,0,0
217,470,0,0,0,0,0,0,0,0,0,-1,1441,554,0,0
224,470,0,0,0,0,0,0,0,0,0,-1,1448,554,0,0
231,470,0,0,0,0,0,0,0,0,0,-1,1455,554,0,0
238,470,0,0,0,0,0,0,0,0,0,-1,1462,554,0,0
245,470,0,0,0,0,0,0,0,0,0,-1,1469,554,0,0
252,470,0,0,0,0,0,0,0,0,0,-1,1476,554,0,0
259,470,0,0,0,0,0,0,0,0,0,-1,1483,554,0,0
266,470,0,0,0,0,0,0,0,0,0,-1,1490,554,0,0
273,470,0,0,0,0,0,0,0,0,0,-1,1497,554,0,0
280,470,0,0,0,0,0,0,0,0,0,-1,1504,554,0,0
287,470,0,0,0,0,0,0,0,0,0,-1,1511,554,0,0
294,470,0,0,0,0,0,0,0,0,0,-1,1518,554,0,0
301,470,0,0,0,0,0,0,0,0,0,-1,1525,554,0,0
308,470,0,0,0,0,0,0,0,0,0,-1,1532,554,0,0
315,470,0,0,0,0,0,0,0,0,0,-1,1539,554,0,0
322,470,0,0,0,0,0,0,0,0,0,-1,1546,554,0,0
329,470,0,0,0,0,0,0,0,0,0,-1,1553,554,0,0
336,470,0,0,0,0,0,0,0,0,0,-1,1560,554,0,0
343,470,0,0,0,0,0,0,0,0,0,-1,1567,554,0,0
350,470,0,0,0,0,0,0,0,0,0,-1,1574,554,0,0
357,470,0,0,0,0,0,0,0,0,0,-1,1581,554,0,0
364,470,1.33423,0.293335,0,0,0,0,0,0,0,-1,1588,554,1.33422,-0.293348
371,470,2.22498,-0.0305176,0,0,0,0,0,0,0,-1,1595,554,2.22494,0.0305046
378,470,6.27051,0.710083,0,0,0,0,0,0,0,-1,1602,554,6.27054,-0.710093
385,470,10.3657,1.47296,0,0,0,0,0,0,0,-1,1609,554,10.3657,-1.47299
392,470,15.3881,3.01935,0,0,0,0,0,0,0,-1,1616,554,15.388,-3.01937
399,470,18.4479,2.93793,0,0,0,0,0,0,0,-1,1623,554,18.4479,-2.93792
406,470,15.1896,1.36676,0,0,0,0,0,0,0,-1,1630,554,15.1896,-1.36679
413,470,6.55383,1.99207,0,0,0,0,0,0,0,-1,1637,554,6.5538,-1.99208
420,470,4.47095,0.845703,0,0,0,0,0,0,0,-1,1644,554,4.47098,-0.845718
427,470,3.51038,1.19684,0,0,0,0,0,0,0,-1,1651,554,3.51039,-1.19684
434,470,3.31775,-1.37427,0,0,0,0,0,0,0,-1,1658,554,3.31781,1.37426
441,470,2.55457,-2.05902,0,0,0,0,0,0,0,-1,1665,554,2.55461,2.05904
448,470,3.27258,-2.64032,0,0,0,0,0,0,0,-1,1672,554,3.27257,2.64029
455,470,10.3658,-9.82233,0,0,0,0,0,0,0,-1,1679,554,10.3659,9.82233
462,470,11.0651,-11.9958,0,0,0,0,0,0,0,-1,1686,554,11.0651,11.9958
469,470,14.8248,-17.7187,0,0,0,0,0,0,0,-1,1693,554,14.8248,17.7187
476,470,14.8827,-17.0202,0.00314563,0.0020903,0.00034647,0.00324921,0.00198672,0.290505,0.0018914,0.0497223,1700,554,14.8827,17.0202
483,470,14.9961,-16.4417,0.00291285,0.00176928,0.000525422,0.0031176,0.00156453,0.371584,0.00179995,0.017,1707,554,14.9961,16.4417
490,470,14.9513,-15.9005,0.00244425,0.00175243,0.00057785,0.00277181,0.00142487,0.515696,0.00160052,0.0121198,1714,554,14.9513,15.9004
497,470,14.9393,-15.345,0.00189766,0.00162601,0.000662487,0.0024381,0.00108557,0.684286,0.00141045,0.0128052,1721,554,14.9394,15.3451
504,470,14.9415,-14.8031,0.00136081,0.00143686,0.000710171,0.00211003,0.000687649,0.812145,0.0012426,0.0189896,1728,554,14.9416,14.8031
511,470,14.9413,-14.2726,0.000780503,0.00123866,0.000742202,0.00178633,0.000232833,0.935084,0.00112136,0.0265413,1735,554,14.9412,14.2726
518,470,14.9434,-13.72,0.000121226,0.00103538,0.000700568,0.00141479,-0.000258187,1.07444,0.00104,0.026796,1742,554,14.9434,13.72
525,470,14.905,-13.097,-0.000503743,0.00072563,0.000601518,0.00097098,-0.000749093,1.18351,0.000995835,0.0163293,1749,554,14.905,13.097
532,470,14.8562,-12.4874,-0.00110842,0.000481089,0.000487185,0.000618527,-0.00124586,1.29583,0.00109653,0.0130693,1756,554,14.8562,12.4874
539,470,14.832,-11.8917,-0.0016494,0.000214054,0.000347051,0.00027659,-0.00171194,1.39252,0.00124378,0.0150909,1763,554,14.832,11.8917
546,470,14.8114,-11.2981,-0.00214667,1.44232e-05,0.000172218,2.80612e-05,-0.00216031,1.49177,0.00144965,0.0151723,1770,554,14.8115,11.2981
553,470,14.8444,-10.7049,-0.00261078,-1.65489e-05,-1.19372e-06,-1.65483e-05,-0.00261078,-1.57034,0.00173503,0.0225917,1777,554,14.8444,10.7049
560,470,14.8302,-10.0667,-0.00291843,-7.62824e-05,-0.000148217,-6.85737e-05,-0.00292613,-1.51883,0.0019283,0.0392373,1784,554,14.8303,10.0667
567,470,14.6941,-9.26166,0,0,0,0,0,0,0,-1,1791,554,14.694,9.26163
574,470,14.2793,-8.07147,0,0,0,0,0,0,0,-1,1798,554,14.2793,8.07147
581,470,8.24646,-4.06317,0,0,0,0,0,0,0,-1,1805,554,8.24648,4.06318
588,470,11.1803,1.74927,0,0,0,0,0,0,0,-1,1812,554,11.1803,-1.74926
595,470,4.72192,3.44116,0,0,0,0,0,0,0,-1,1819,554,4.72191,-3.44116
602,470,14.4307,2.76141,0,0,0,0,0,0,0,-1,1826,554,14.4306,-2.76139
609,470,20.9181,4.41058,0,0,0,0,0,0,0,-1,1833,554,20.9181,-4.4106
616,470,0,0,0,0,0,0,0,0,0,-1,1840,554,0,0
623,470,0,0,0,0,0,0,0,0,0,-1,1847,554,0,0
630,470,0,0,0,0,0,0,0,0,0,-1,1854,554,0,0
637,470,0,0,0,0,0,0,0,0,0,-1,1861,554,0,0
644,470,0,0,0,0,0,0,0,0,0,-1,1868,554,0,0
651,470,0,0,0,0,0,0,0,0,0,-1,1875,554,0,0
658,470,0,0,0,0,0,0,0,0,0,-1,1882,554,0,0
665,470,0,0,0,0,0,0,0,0,0,-1,1889,554,0,0
672,470,0,0,0,0,0,0,0,0,0,-1,1896,554,0,0
679,470,0,0,0,0,0,0,0,0,0,-1,1903,554,0,0
686,470,0,0,0,0,0,0,0,0,0,-1,1910,554,0,0
693,470,0,0,0,0,0,0,0,0,0,-1,1917,554,0,0
700,470,0,0,0,0,0,0,0,0,0,-1,1924,554,0,0
707,470,0,0,0,0,0,0,0,0,0,-1,1931,554,0,0
714,470,0,0,0,0,0,0,0,0,0,-1,1938,554,0,0
721,470,0,0,0,0,0,0,0,0,0,-1,1945,554,0,0
728,470,0,0,0,0,0,0,0,0,0,-1,1952,554,0,0
735,470,0,0,0,0,0,0,0,0,0,-1,1959,554,0,0
742,470,0,0,0,0,0,0,0,0,0,-1,1966,554,0,0
749,470,0,0,0,0,0,0,0,0,0,-1,1973,554,0,0
756,470,0,0,0,0,0,0,0,0,0,-1,1980,554,0,0
763,470,0,0,0,0,0,0,0,0,0,-1,1987,554,0,0
770,470,0,0,0,0,0,0,0,0,0,-1,1994,554,0,0
777,470,0,0,0,0,0,0,0,0,0,-1,2001,554,0,0
784,470,0,0,0,0,0,0,0,0,0,-1,2008,554,0,0
791,470,0,0,0,0,0,0,0,0,0,-1,2015,554,0,0
798,470,0,0,0,0,0,0,0,0,0,-1,2022,554,0,0
805,470,0,0,0,0,0,0,0,0,0,-1,2029,554,0,0
812,470,0,0,0,0,0,0,0,0,0,-1,2036,554,0,0
-700,463,0,0,0,0,0,0,0,0,0,-1,524,561,0,0
-693,463,0,0,0,0,0,0,0,0,0,-1,531,561,0,0
-686,463,0,0,0,0,0,0,0,0,0,-1,538,561,0,0
-679,463,0,0,0,0,0,0,0,0,0,-1,545,561,0,0
-672,463,0,0,0,0,0,0,0,0,0,-1,552,561,0,0
-665,463,0,0,0,0,0,0,0,0,0,-1,559,561,0,0
-658,463,0,0,0,0,0,0,0,0,0,-1,566,561,0,0
-651,463,0,0,0,0,0,0,0,0,0,-1,573,561,0,0
-644,463,0,0,0,0,0,0,0,0,0,-1,580,561,0,0
-637,463,0,0,0,0,0,0,0,0,0,-1,587,561,0,0
-630,463,0,0,0,0,0,0,0,0,0,-1,594,561,0,0
-623,463,0,0,0,0,0,0,0,0,0,-1,601,561,0,0
-616,463,0,0,0,0,0,0,0,0,0,-1,608,561,0,0
-609,463,0,0,0,0,0,0,0,0,0,-1,615,561,0,0
-602,463,0,0,0,0,0,0,0,0,0,-1,622,561,0,0
-595,463,0,0,0,0,0,0,0,0,0,-1,629,561,0,0
-588,463,0,0,0,0,0,0,0,0,0,-1,636,561,0,0
-581,463,0,0,0,0,0,0,0,0,0,-1,643,561,0,0
-574,463,0,0,0,0,0,0,0,0,0,-1,650,561,0,0
-567,463,0,0,0,0,0,0,0,0,0,-1,657,561,0,0
-560,463,0,0,0,0,0,0,0,0,0,-1,664,561,0,0
-553,463,0,0,0,0,0,0,0,0,0,-1,671,561,0,0
-546,463,0,0,0,0,0,0,0,0,0,-1,678,561,0,0
-539,463,0,0,0,0,0,0,0,0,0,-1,685,561,0,0
-532,463,0,0,0,0,0,0,0,0,0,-1,692,561,0,0
-525,463,0,0,0,0,0,0,0,0,0,-1,699,561,0,0
-518,463,0,0,0,0,0,0,0,0,0,-1,706,561,0,0
-511,463,0,0,0,0,0,0,0,0,0,-1,713,561,0,0
-504,463,0,0,0,0,0,0,0,0,0,-1,720,561,0,0
-497,463,-9.81451,-1.67126,0,0,0,0,0,0,0,-1,727,561,-9.81452,1.67127
-490,463,-8.57043,-1.58942,0,0,0,0,0,0,0,-1,734,561,-8.57045,1.58944
-483,463,-7.29224,-1.7226,0,0,0,0,0,0,0,-1,741,561,-7.29226,1.72261
-476,463,-5.77704,-1.7312,0,0,0,0,0,0,0,-1,748,561,-5.77703,1.73121
-469,463,-5.14545,-2.138,0,0,0,0,0,0,0,-1,755,561,-5.14546,2.13799
-462,463,-3.13672,-3.07977,0,0,0,0,0,0,0,-1,762,561,-3.13672,3.07974
-455,463,-2.91406,-5.61798,0,0,0,0,0,0,0,-1,769,561,-2.91406,5.61801
-448,463,-4.00177,-8.54681,0,0,0,0,0,0,0,-1,776,561,-4.00175,8.54683
-441,463,-5.39008,-10.8954,0,0,0,0,0,0,0,-1,783,561,-5.39008,10.8954
-434,463,-5.30103,-11.6501,-0.000110208,0.00915735,-0.00352283,0.0103444,-0.00129727,-1.24578,0.00736688,0.0265025,790,561,-5.30102,11.6501
-427,463,-5.31958,-12.2222,0.000281028,0.00818792,-0.0034673,0.00949298,-0.00102403,-1.21081,0.00669615,0.010701,797,561,-5.3196,12.2222
-420,463,-5.30707,-12.7722,0.0005869,0.0070304,-0.00325728,0.00839008,-0.000772787,-1.17536,0.00586797,0.0100999,804,561,-5.30709,12.7722
-413,463,-5.32806,-13.3459,0.000852048,0.00580196,-0.00291457,0.00715064,-0.000496626,-1.1374,0.00494096,0.00931937,811,561,-5.32807,13.3459
-406,463,-5.35162,-13.8998,0.00104082,0.00449592,-0.00240636,0.00573063,-0.000193894,-1.09672,0.00388667,0.00908449,818,561,-5.3516,13.8998
-399,463,-5.36761,-14.459,0.00117338,0.00329588,-0.00181986,0.00434131,0.000127938,-1.04937,0.00285252,0.0103303,825,561,-5.3676,14.459
-392,463,-5.38861,-15.0162,0.00138089,0.00201612,-0.00121515,0.00295448,0.000442531,-0.913229,0.00183997,0.0104211,832,561,-5.3886,15.0162
-385,463,-5.40302,-15.5681,0.00166828,0.000849281,-0.000636458,0.0020156,0.000501966,-0.499535,0.00121158,0.0113014,839,561,-5.40302,15.5681
-378,463,-5.43073,-16.1019,0.00194968,-0.000243303,-4.98077e-05,0.00195081,-0.000244434,-0.0226967,0.00138921,0.0119881,846,561,-5.43072,16.1019
-371,463,-5.45886,-16.6318,0.00224876,-0.00123718,0.000521085,0.00232499,-0.0013134,0.145253,0.00212752,0.0120212,853,561,-5.45885,16.6318
-364,463,-5.46155,-17.125,0.00264971,-0.00206622,0.000985749,0.00284747,-0.00226397,0.197985,0.00295749,0.0145398,860,561,-5.46154,17.125
-357,463,-5.48645,-17.6294,0.00322225,-0.00282978,0.00131907,0.00349725,-0.00310478,0.205538,0.00381393,0.0198665,867,561,-5.48647,17.6294
-350,463,-5.39709,-18.2138,0.00406867,-0.00301363,0.00124578,0.00428142,-0.00322637,0.169139,0.00434887,0.0381121,874,561,-5.39708,18.2138
-343,463,-5.20599,-18.5858,0,0,0,0,0,0,0,-1,881,561,-5.206,18.5858
-336,463,-2.94928,-12.2127,0,0,0,0,0,0,0,-1,888,561,-2.94925,12.2127
-329,463,-2.64307,-12.7037,0,0,0,0,0,0,0,-1,895,561,-2.64307,12.7038
-322,463,-1.82898,-9.11957,0,0,0,0,0,0,0,-1,902,561,-1.829,9.11957
-315,463,-0.944763,-5.96234,0,0,0,0,0,0,0,-1,909,561,-0.94479,5.96237
-308,463,-1.1535,-3.17889,0,0,0,0,0,0,0,-1,916,561,-1.15352,3.17889
-301,463,-1.50366,-3.15338,0,0,0,0,0,0,0,-1,923,561,-1.50364,3.15341
-294,463,-2.35889,-3.93463,0,0,0,0,0,0,0,-1,930,561,-2.35886,3.93465
-287,463,-2.80322,2.73999,0,0,0,0,0,0,0,-1,937,561,-2.80322,-2.74
-280,463,-12.864,5.25146,0,0,0,0,0,0,0,-1,944,561,-12.864,-5.25149
-273,463,-12.4598,3.39178,0,0,0,0,0,0,0,-1,951,561,-12.4598,-3.3918
-266,463,-8.78101,-3.7356,0,0,0,0,0,0,0,-1,958,561,-8.78098,3.73562
-259,463,-6.23285,-5.68842,0,0,0,0,0,0,0,-1,965,561,-6.23288,5.68843
-252,463,0,0,0,0,0,0,0,0,0,-1,972,561,0,0
-245,463,0,0,0,0,0,0,0,0,0,-1,979,561,0,0
-238,463,0,0,0,0,0,0,0,0,0,-1,986,561,0,0
-231,463,0,0,0,0,0,0,0,0,0,-1,993,561,0,0
-224,463,0,0,0,0,0,0,0,0,0,-1,1000,561,0,0
-217,463,0,0,0,0,0,0,0,0,0,-1,1007,561,0,0
-210,463,0,0,0,0,0,0,0,0,0,-1,1014,561,0,0
-203,463,0,0,0,0,0,0,0,0,0,-1,1021,561,0,0
-196,463,0,0,0,0,0,0,0,0,0,-1,1028,561,0,0
-189,463,0,0,0,0,0,0,0,0,0,-1,1035,561,0,0
-182,463,0,0,0,0,0,0,0,0,0,-1,1042,561,0,0
-175,463,0,0,0,0,0,0,0,0,0,-1,1049,561,0,0
-168,463,0,0,0,0,0,0,0,0,0,-1,1056,561,0,0
-161,463,0,0,0,0,0,0,0,0,0,-1,1063,561,0,0
-154,463,0,0,0,0,0,0,0,0,0,-1,1070,561,0,0
-147,463,0,0,0,0,0,0,0,0,0,-1,1077,561,0,0
-140,463,0,0,0,0,0,0,0,0,0,-1,1084,561,0,0
-133,463,0,0,0,0,0,0,0,0,0,-1,1091,561,0,0
-126,463,0,0,0,0,0,0,0,0,0,-1,1098,561,0,0
-119,463,0,0,0,0,0,0,0,0,0,-1,1105,561,0,0
-112,463,0,0,0,0,0,0,0,0,0,-1,1112,561,0,0
-105,463,0,0,0,0,0,0,0,0,0,-1,1119,561,0,0
-98,463,0,0,0,0,0,0,0,0,0,-1,1126,561,0,0
-91,463,0,0,0,0,0,0,0,0,0,-1,1133,561,0,0
-84,463,0,0,0,0,0,0,0,0,0,-1,1140,561,0,0
-77,463,0,0,0,0,0,0,0,0,0,-1,1147,561,0,0
-70,463,0,0,0,0,0,0,0,0,0,-1,1154,561,0,0
-63,463,0,0,0,0,0,0,0,0,0,-1,1161,561,0,0
-56,463,0,0,0,0,0,0,0,0,0,-1,1168,561,0,0
-49,463,0,0,0,0,0,0,0,0,0,-1,1175,561,0,0
-42,463,0,0,0,0,0,0,0,0,0,-1,1182,561,0,0
-35,463,0,0,0,0,0,0,0,0,0,-1,1189,561,0,0
-28,463,0,0,0,0,0,0,0,0,0,-1,1196,561,0,0
-21,463,0,0,0,0,0,0,0,0,0,-1,1203,561,0,0
-14,463,0,0,0,0,0,0,0,0,0,-1,1210,561,0,0
-7,463,0,0,0,0,0,0,0,0,0,-1,1217,561,0,0
0,463,0,0,0,0,0,0,0,0,0,-1,1224,561,0,0
7,463,0,0,0,0,0,0,0,0,0,-1,1231,561,0,0
14,463,0,0,0,0,0,0,0,0,0,-1,1238,561,0,0
21,463,0,0,0,0,0,0,0,0,0,-1,1245,561,0,0
28,463,0,0,0,0,0,0,0,0,0,-1,1252,561,0,0
35,463,0,0,0,0,0,0,0,0,0,-1,1259,561,0,0
42,463,0,0,0,0,0,0,0,0,0,-1,1266,561,0,0
49,463,0,0,0,0,0,0,0,0,0,-1,1273,561,0,0
56,463,0,0,0,0,0,0,0,0,0,-1,1280,561,0,0
63,463,0,0,0,0,0,0,0,0,0,-1,1287,561,0,0
70,463,0,0,0,0,0,0,0,0,0,-1,1294,561,0,0
77,463,0,0,0,0,0,0,0,0,0,-1,1301,561,0,0
84,463,0,0,0,0,0,0,0,0,0,-1,1308,561,0,0
91,463,0,0,0,0,0,0,0,0,0,-1,1315,561,0,0
98,463,0,0,0,0,0,0,0,0,0,-1,1322,561,0,0
105,463,0,0,0,0,0,0,0,0,0,-1,1329,561,0,0
112,463,0,0,0,0,0,0,0,0,0,-1,1336,561,0,0
119,463,0,0,0,0,0,0,0,0,0,-1,1343,561,0,0
126,463,0,0,0,0,0,0,0,0,0,-1,1350,561,0,0
133,463,0,0,0,0,0,0,0,0,0,-1,1357,561,0,0
140,463,0,0,0,0,0,0,0,0,0,-1,1364,561,0,0
147,463,0,0,0,0,0,0,0,0,0,-1,1371,561,0,0
154,463,0,0,0,0,0,0,0,0,0,-1,1378,561,0,0
161,463,0,0,0,0,0,0,0,0,0,-1,1385,561,0,0
168,463,0,0,0,0,0,0,0,0,0,-1,1392,561,0,0
175,463,0,0,0,0,0,0,0,0,0,-1,1399,561,0,0
182,463,0,0,0,0,0,0,0,0,0,-1,1406,561,0,0
189,463,0,0,0,0,0,0,0,0,0,-1,1413,561,0,0
196,463,0,0,0,0,0,0,0,0,0,-1,1420,561,0,0
203,463,0,0,0,0,0,0,0,0,0,-1,1427,561,0,0
210,463,0,0,0,0,0,0,0,0,0,-1,1434,561,0,0
217,463,0,0,0,0,0,0,0,0,0,-1,1441,561,0,0
224,463,0,0,0,0,0,0,0,0,0,-1,1448,561,0,0
231,463,0,0,0,0,0,0,0,0,0,-1,1455,561,0,0
238,463,0,0,0,0,0,0,0,0,0,-1,1462,561,0,0
245,463,0,0,0,0,0,0,0,0,0,-1,1469,561,0,0
252,463,0,0,0,0,0,0,0,0,0,-1,1476,561,0,0
259,463,0,0,0,0,0,0,0,0,0,-1,1483,561,0,0
266,463,0,0,0,0,0,0,0,0,0,-1,1490,561,0,0
273,463,0,0,0,0,0,0,0,0,0,-1,1497,561,0,0
280,463,0,0,0,0,0,0,0,0,0,-1,1504,561,0,0
287,463,0,0,0,0,0,0,0,0,0,-1,1511,561,0,0
294,463,0,0,0,0,0,0,0,0,0,-1,1518,561,0,0
301,463,0,0,0,0,0,0,0,0,0,-1,1525,561,0,0
308,463,0,0,0,0,0,0,0,0,0,-1,1532,561,0,0
315,463,0,0,0,0,0,0,0,0,0,-1,1539,561,0,0
322,463,0,0,0,0,0,0,0,0,0,-1,1546,561,0,0
329,463,0,0,0,0,0,0,0,0,0,-1,1553,561,0,0
336,463,0,0,0,0,0,0,0,0,0,-1,1560,561,0,0
343,463,0,0,0,0,0,0,0,0,0,-1,1567,561,0,0
350,463,0,0,0,0,0,0,0,0,0,-1,1574,561,0,0
357,463,0,0,0,0,0,0,0,0,0,-1,1581,561,0,0
364,463,0,0,0,0,0,0,0,0,0,-1,1588,561,0,0
371,463,1.75842,0.152588,0,0,0,0,0,0,0,-1,1595,561,1.75844,-0.152558
378,463,4.58813,-0.0444336,0,0,0,0,0,0,0,-1,1602,561,4.58809,0.0444505
385,463,8.88574,1.65057,0,0,0,0,0,0,0,-1,1609,561,8.88575,-1.65055
392,463,14.0912,2.50513,0,0,0,0,0,0,0,-1,1616,561,14.0912,-2.5051
399,463,21.4769,2.7002,0,0,0,0,0,0,0,-1,1623,561,21.477,-2.70017
406,463,26.2987,4.32318,0,0,0,0,0,0,0,-1,1630,561,26.2987,-4.3232
413,463,26.5011,2.65222,0,0,0,0,0,0,0,-1,1637,561,26.5011,-2.65224
420,463,8.849,2.26611,0,0,0,0,0,0,0,-1,1644,561,8.84899,-2.26613
427,463,5.12207,1.69183,0,0,0,0,0,0,0,-1,1651,561,5.12206,-1.69184
434,463,4.59814,1.81995,0,0,0,0,0,0,0,-1,1658,561,4.59812,-1.81994
441,463,1.76392,-5.99225,0,0,0,0,0,0,0,-1,1665,561,1.7639,5.99225
448,463,2.49939,-4.30536,0,0,0,0,0,0,0,-1,1672,561,2.49941,4.30536
455,463,4.40295,-3.02557,0,0,0,0,0,0,0,-1,1679,561,4.40299,3.02558
462,463,5.38293,-4.06445,0,0,0,0,0,0,0,-1,1686,561,5.38289,4.06444
469,463,5.94373,-4.50647,0,0,0,0,0,0,0,-1,1693,561,5.94368,4.50646
476,463,15.2559,-17.3189,0,0,0,0,0,0,0,-1,1700,561,15.2558,17.3189
483,463,15.532,-16.5324,0,0,0,0,0,0,0,-1,1707,561,15.532,16.5324
490,463,15.5283,-15.8879,0.00309998,0.0019922,0.000863949,0.00357234,0.00151983,0.500348,0.00207012,0.0236927,1714,561,15.5283,15.888
497,463,15.5035,-15.3273,0.00258244,0.00191691,0.000936266,0.00324332,0.00125603,0.61465,0.00188833,0.0136185,1721,561,15.5036,15.3274
504,463,15.5068,-14.7678,0.00206066,0.00175565,0.000944576,0.00286496,0.000951346,0.70536,0.0016849,0.0162906,1728,561,15.5068,14.7678
511,463,15.5135,-14.195,0.00151968,0.00157936,0.0009524,0.00250239,0.000596653,0.801056,0.00150921,0.022427,1735,561,15.5136,14.195
518,463,15.528,-13.6473,0.000931324,0.00138061,0.000923081,0.00210599,0.000205945,0.90476,0.00134063,0.023968,1742,561,15.528,13.6474
525,463,15.4491,-13.0873,0.000377126,0.00112081,0.000844637,0.00167183,-0.000173895,0.992753,0.00117681,0.019207,1749,561,15.4491,13.0873
532,463,15.46,-12.4883,-0.000179945,0.000895279,0.000724301,0.00125969,-0.000544353,1.10466,0.00106851,0.0157252,1756,561,15.46,12.4884
539,463,15.4285,-11.8849,-0.000660695,0.000641096,0.000603014,0.000877495,-0.000897094,1.19718,0.00102458,0.0163488,1763,561,15.4285,11.8849
546,463,15.4005,-11.314,-0.0010827,0.000455251,0.000453926,0.000579233,-0.00120668,1.30417,0.0010521,0.0130512,1770,561,15.4005,11.314
553,463,15.3943,-10.7128,-0.00147369,0.000356421,0.000290222,0.000401343,-0.00151861,1.41723,0.00116937,0.0119507,1777,561,15.3943,10.7128
560,463,15.4023,-9.99963,-0.00174831,0.000265763,0.000159074,0.00027825,-0.0017608,1.49246,0.00127676,0.0198325,1784,561,15.4023,9.99964
567,463,15.2731,-9.45178,-0.00182739,0.000221017,7.35722e-05,0.000223657,-0.00183002,1.53494,0.00130099,0.0274889,1791,561,15.2731,9.45178
574,463,15.0698,-9.05511,0,0,0,0,0,0,0,-1,1798,561,15.0698,9.05514
581,463,9.4939,-3.88245,0,0,0,0,0,0,0,-1,1805,561,9.49392,3.88245
588,463,1.97424,2.16016,0,0,0,0,0,0,0,-1,1812,561,1.97422,-2.16013
595,463,9.98657,2.99854,0,0,0,0,0,0,0,-1,1819,561,9.98662,-2.99856
602,463,17.2202,4.91302,0,0,0,0,0,0,0,-1,1826,561,17.2202,-4.91305
609,463,17.96,4.03131,0,0,0,0,0,0,0,-1,1833,561,17.96,-4.03132
616,463,20.8352,3.15131,0,0,0,0,0,0,0,-1,1840,561,20.8352,-3.1513
623,463,0,0,0,0,0,0,0,0,0,-1,1847,561,0,0
630,463,0,0,0,0,0,0,0,0,0,-1,1854,561,0,0
637,463,0,0,0,0,0,0,0,0,0,-1,1861,561,0,0
644,463,0,0,0,0,0,0,0,0,0,-1,1868,561,0,0
651,463,0,0,0,0,0,0,0,0,0,-1,1875,561,0,0
658,463,0,0,0,0,0,0,0,0,0,-1,1882,561,0,0
665,463,0,0,0,0,0,0,0,0,0,-1,1889,561,0,0
672,463,0,0,0,0,0,0,0,0,0,-1,1896,561,0,0
679,463,0,0,0,0,0,0,0,0,0,-1,1903,561,0,0
686,463,0,0,0,0,0,0,0,0,0,-1,1910,561,0,0
693,463,0,0,0,0,0,0,0,0,0,-1,1917,561,0,0
700,463,0,0,0,0,0,0,0,0,0,-1,1924,561,0,0
707,463,0,0,0,0,0,0,0,0,0,-1,1931,561,0,0
714,463,0,0,0,0,0,0,0,0,0,-1,1938,561,0,0
721,463,0,0,0,0,0,0,0,0,0,-1,1945,561,0,0
728,463,0,0,0,0,0,0,0,0,0,-1,1952,561,0,0
735,463,0,0,0,0,0,0,0,0,0,-1,1959,561,0,0
742,463,0,0,0,0,0,0,0,0,0,-1,1966,561,0,0
749,463,0,0,0,0,0,0,0,0,0,-1,1973,561,0,0
756,463,0,0,0,0,0,0,0,0,0,-1,1980,561,0,0
763,463,0,0,0,0,0,0,0,0,0,-1,1987,561,0,0
770,463,0,0,0,0,0,0,0,0,0,-1,1994,561,0,0
777,463,0,0,0,0,0,0,0,0,0,-1,2001,561,0,0
784,463,0,0,0,0,0,0,0,0,0,-1,2008,561,0,0
791,463,0,0,0,0,0,0,0,0,0,-1,2015,561,0,0
798,463,0,0,0,0,0,0,0,0,0,-1,2022,561,0,0
805,463,0,0,0,0,0,0,0,0,0,-1,2029,561,0,0
812,463,0,0,0,0,0,0,0,0,0,-1,2036,561,0,0
-700,456,0,0,0,0,0,0,0,0,0,-1,524,568,0,0
-693,456,0,0,0,0,0,0,0,0,0,-1,531,568,0,0
-686,456,0,0,0,0,0,0,0,0,0,-1,538,568,0,0
-679,456,0,0,0,0,0,0,0,0,0,-1,545,568,0,0
-672,456,0,0,0,0,0,0,0,0,0,-1,552,568,0,0
-665,456,0,0,0,0,0,0,0,0,0,-1,559,568,0,0
-658,456,0,0,0,0,0,0,0,0,0,-1,566,568,0,0
-651,456,0,0,0,0,0,0,0,0,0,-1,573,568,0,0
-644,456,0,0,0,0,0,0,0,0,0,-1,580,568,0,0
-637,456,0,0,0,0,0,0,0,0,0,-1,587,568,0,0
-630,456,0,0,0,0,0,0,0,0,0,-1,594,568,0,0
-623,456,0,0,0,0,0,0,0,0,0,-1,601,568,0,0
-616,456,0,0,0,0,0,0,0,0,0,-1,608,568,0,0
-609,456,0,0,0,0,0,0,0,0,0,-1,615,568,0,0
-602,456,0,0,0,0,0,0,0,0,0,-1,622,568,0,0
-595,456,0,0,0,0,0,0,0,0,0,-1,629,568,0,0
-588,456,0,0,0,0,0,0,0,0,0,-1,636,568,0,0
-581,456,0,0,0,0,0,0,0,0,0,-1,643,568,0,0
-574,456,0,0,0,0,0,0,0,0,0,-1,650,568,0,0
-567,456,0,0,0,0,0,0,0,0,0,-1,657,568,0,0
-560,456,0,0,0,0,0,0,0,0,0,-1,664,568,0,0
-553,456,0,0,0,0,0,0,0,0,0,-1,671,568,0,0
-546,456,0,0,0,0,0,0,0,0,0,-1,678,568,0,0
-539,456,0,0,0,0,0,0,0,0,0,-1,685,568,0,0
-532,456,0,0,0,0,0,0,0,0,0,-1,692,568,0,0
-525,456,0,0,0,0,0,0,0,0,0,-1,699,568,0,0
-518,456,0,0,0,0,0,0,0,0,0,-1,706,568,0,0
-511,456,0,0,0,0,0,0,0,0,0,-1,713,568,0,0
-504,456,-10.3994,-2.34839,0,0,0,0,0,0,0,-1,720,568,-10.3994,2.3484
-497,456,-9.21375,-2.38068,0,0,0,0,0,0,0,-1,727,568,-9.21372,2.38069
-490,456,-8.09058,-2.31824,0,0,0,0,0,0,0,-1,734,568,-8.09057,2.31821
-483,456,-6.66119,-2.24329,0,0,0,0,0,0,0,-1,741,568,-6.66121,2.24331
-476,456,-5.1499,-2.21185,0,0,0,0,0,0,0,-1,748,568,-5.14992,2.21184
-469,456,-2.81238,-3.51501,0,0,0,0,0,0,0,-1,755,568,-2.81237,3.51501
-462,456,-4.2431,-5.27478,0,0,0,0,0,0,0,-1,762,568,-4.24312,5.27476
-455,456,-5.98364,-8.72119,0,0,0,0,0,0,0,-1,769,568,-5.98364,8.72122
-448,456,-5.94574,-10.1583,0,0,0,0,0,0,0,-1,776,568,-5.94575,10.1583
-441,456,-5.75171,-10.9955,-0.000240563,0.00765803,-0.00272807,0.00850866,-0.0010912,-1.26854,0.00606896,0.0318228,783,568,-5.75173,10.9955
-434,456,-5.84949,-11.6349,4.58128e-05,0.00681418,-0.00265501,0.00773136,-0.00087137,-1.23818,0.00546789,0.0161497,790,568,-5.84951,11.6349
-427,456,-5.85419,-12.2004,0.000282964,0.00589522,-0.00246113,0.00682158,-0.000643401,-1.2108,0.00477665,0.00887853,797,568,-5.85416,12.2004
-420,456,-5.85864,-12.7552,0.000504647,0.00487655,-0.00217668,0.00577545,-0.000394256,-1.17916,0.00398822,0.00937979,804,568,-5.85864,12.7553
-413,456,-5.88385,-13.3209,0.000706982,0.00376134,-0.0017831,0.00458186,-0.000113545,-1.13952,0.00309312,0.00875239,811,568,-5.88386,13.3209
-406,456,-5.93024,-13.8802,0.000872021,0.00258535,-0.00126949,0.00326018,0.000197191,-1.08221,0.0021108,0.00911111,818,568,-5.93022,13.8802
-399,456,-5.93646,-14.4327,0.00103523,0.00153949,-0.00072801,0.00205779,0.000516923,-0.952098,0.00123612,0.0111839,825,568,-5.93649,14.4327
-392,456,-5.93896,-14.9829,0.00129937,0.00043156,-0.000194328,0.00134089,0.000390032,-0.210536,0.000796417,0.0107984,832,568,-5.93895,14.9829
-385,456,-5.95575,-15.5289,0.001649,-0.000533666,0.00029572,0.00168836,-0.000573022,0.132308,0.00135751,0.0103611,839,568,-5.95573,15.529
-378,456,-5.99554,-16.0771,0.00197914,-0.00144825,0.000814259,0.00216275,-0.00163186,0.221784,0.00219796,0.011139,846,568,-5.99556,16.0771
-371,456,-6.00897,-16.6002,0.00238059,-0.00218637,0.00129814,0.00272379,-0.00252957,0.258464,0.00303372,0.0115973,853,568,-6.00896,16.6001
-364,456,-5.99237,-17.0936,0.00295902,-0.00269597,0.00162458,0.00339251,-0.00312945,0.260754,0.00376647,0.0223704,860,568,-5.99239,17.0935
-357,456,-5.93359,-17.6959,0,0,0,0,0,0,0,-1,867,568,-5.93361,17.6959
-350,456,-5.78973,-18.4347,0,0,0,0,0,0,0,-1,874,568,-5.78972,18.4347
-343,456,-3.39081,-12.0217,0,0,0,0,0,0,0,-1,881,568,-3.39078,12.0217
-336,456,-3.04517,-12.4623,0,0,0,0,0,0,0,-1,888,568,-3.04519,12.4624
-329,456,-1.06183,-10.7184,0,0,0,0,0,0,0,-1,895,568,-1.06184,10.7184
-322,456,-0.662537,-7.66632,0,0,0,0,0,0,0,-1,902,568,-0.662564,7.66633
-315,456,-0.675476,-3.38397,0,0,0,0,0,0,0,-1,909,568,-0.675473,3.38399
-308,456,-1.1618,-3.15314,0,0,0,0,0,0,0,-1,916,568,-1.16178,3.15314
-301,456,-1.83551,-3.26447,0,0,0,0,0,0,0,-1,923,568,-1.8355,3.26449
-294,456,-2.93414,-3.35449,0,0,0,0,0,0,0,-1,930,568,-2.93413,3.35451
-287,456,-3.7569,-3.53101,0,0,0,0,0,0,0,-1,937,568,-3.75692,3.53101
-280,456,-13.072,4.52856,0,0,0,0,0,0,0,-1,944,568,-13.072,-4.52855
-273,456,-8.26538,-6.66748,0,0,0,0,0,0,0,-1,951,568,-8.26536,6.66745
-266,456,-5.33752,-9.16571,0,0,0,0,0,0,0,-1,958,568,-5.33753,9.16571
-259,456,0,0,0,0,0,0,0,0,0,-1,965,568,0,0
-252,456,0,0,0,0,0,0,0,0,0,-1,972,568,0,0
-245,456,0,0,0,0,0,0,0,0,0,-1,979,568,0,0
-238,456,0,0,0,0,0,0,0,0,0,-1,986,568,0,0
-231,456,0,0,0,0,0,0,0,0,0,-1,993,568,0,0
-224,456,0,0,0,0,0,0,0,0,0,-1,1000,568,0,0
-217,456,0,0,0,0,0,0,0,0,0,-1,1007,568,0,0
-210,456,0,0,0,0,0,0,0,0,0,-1,1014,568,0,0
-203,456,0,0,0,0,0,0,0,0,0,-1,1021,568,0,0
-196,456,0,0,0,0,0,0,0,0,0,-1,1028,568,0,0
-189,456,0,0,0,0,0,0,0,0,0,-1,1035,568,0,0
-182,456,0,0,0,0,0,0,0,0,0,-1,1042,568,0,0
-175,456,0,0,0,0,0,0,0,0,0,-1,1049,568,0,0
-168,456,0,0,0,0,0,0,0,0,0,-1,1056,568,0,0
-161,456,0,0,0,0,0,0,0,0,0,-1,1063,568,0,0
-154,456,0,0,0,0,0,0,0,0,0,-1,1070,568,0,0
-147,456,0,0,0,0,0,0,0,0,0,-1,1077,568,0,0
-140,456,0,0,0,0,0,0,0,0,0,-1,1084,568,0,0
-133,456,0,0,0,0,0,0,0,0,0,-1,1091,568,0,0
-126,456,0,0,0,0,0,0,0,0,0,-1,1098,568,0,0
-119,456,0,0,0,0,0,0,0,0,0,-1,1105,568,0,0
-112,456,0,0,0,0,0,0,0,0,0,-1,1112,568,0,0
-105,456,0,0,0,0,0,0,0,0,0,-1,1119,568,0,0
-98,456,0,0,0,0,0,0,0,0,0,-1,1126,568,0,0
-91,456,0,0,0,0,0,0,0,0,0,-1,1133,568,0,0
-84,456,0,0,0,0,0,0,0,0,0,-1,1140,568,0,0
-77,456,0,0,0,0,0,0,0,0,0,-1,1147,568,0,0
-70,456,0,0,0,0,0,0,0,0,0,-1,1154,568,0,0
-63,456,0,0,0,0,0,0,0,0,0,-1,1161,568,0,0
-56,456,0,0,0,0,0,0,0,0,0,-1,1168,568,0,0
-49,456,0,0,0,0,0,0,0,0,0,-1,1175,568,0,0
-42,456,0,0,0,0,0,0,0,0,0,-1,1182,568,0,0
-35,456,0,0,0,0,0,0,0,0,0,-1,1189,568,0,0
-28,456,0,0,0,0,0,0,0,0,0,-1,1196,568,0,0
-21,456,0,0,0,0,0,0,0,0,0,-1,1203,568,0,0
-14,456,0,0,0,0,0,0,0,0,0,-1,1210,568,0,0
-7,456,0,0,0,0,0,0,0,0,0,-1,1217,568,0,0
0,456,0,0,0,0,0,0,0,0,0,-1,1224,568,0,0
7,456,0,0,0,0,0,0,0,0,0,-1,1231,568,0,0
14,456,0,0,0,0,0,0,0,0,0,-1,1238,568,0,0
21,456,0,0,0,0,0,0,0,0,0,-1,1245,568,0,0
28,456,0,0,0,0,0,0,0,0,0,-1,1252,568,0,0
35,456,0,0,0,0,0,0,0,0,0,-1,1259,568,0,0
42,456,0,0,0,0,0,0,0,0,0,-1,1266,568,0,0
49,456,0,0,0,0,0,0,0,0,0,-1,1273,568,0,0
56,456,0,0,0,0,0,0,0,0,0,-1,1280,568,0,0
63,456,0,0,0,0,0,0,0,0,0,-1,1287,568,0,0
70,456,0,0,0,0,0,0,0,0,0,-1,1294,568,0,0
77,456,0,0,0,0,0,0,0,0,0,-1,1301,568,0,0
84,456,0,0,0,0,0,0,0,0,0,-1,1308,568,0,0
91,456,0,0,0,0,0,0,0,0,0,-1,1315,568,0,0
98,456,0,0,0,0,0,0,0,0,0,-1,1322,568,0,0
105,456,0,0,0,0,0,0,0,0,0,-1,1329,568,0,0
112,456,0,0,0,0,0,0,0,0,0,-1,1336,568,0,0
119,456,0,0,0,0,0,0,0,0,0,-1,1343,568,0,0
126,456,0,0,0,0,0,0,0,0,0,-1,1350,568,0,0
133,456,0,0,0,0,0,0,0,0,0,-1,1357,568,0,0
140,456,0,0,0,0,0,0,0,0,0,-1,1364,568,0,0
147,456,0,0,0,0,0,0,0,0,0,-1,1371,568,0,0
154,456,0,0,0,0,0,0,0,0,0,-1,1378,568,0,0
161,456,0,0,0,0,0,0,0,0,0,-1,1385,568,0,0
168,456,0,0,0,0,0,0,0,0,0,-1,1392,568,0,0
175,456,0,0,0,0,0,0,0,0,0,-1,1399,568,0,0
182,456,0,0,0,0,0,0,0,0,0,-1,1406,568,0,0
189,456,0,0,0,0,0,0,0,0,0,-1,1413,568,0,0
196,456,0,0,0,0,0,0,0,0,0,-1,1420,568,0,0
203,456,0,0,0,0,0,0,0,0,0,-1,1427,568,0,0
210,456,0,0,0,0,0,0,0,0,0,-1,1434,568,0,0
217,456,0,0,0,0,0,0,0,0,0,-1,1441,568,0,0
224,456,0,0,0,0,0,0,0,0,0,-1,1448,568,0,0
231,456,0,0,0,0,0,0,0,0,0,-1,1455,568,0,0
238,456,0,0,0,0,0,0,0,0,0,-1,1462,568,0,0
245,456,0,0,0,0,0,0,0,0,0,-1,1469,568,0,0
252,456,0,0,0,0,0,0,0,0,0,-1,1476,568,0,0
259,456,0,0,0,0,0,0,0,0,0,-1,1483,568,0,0
266,456,0,0,0,0,0,0,0,0,0,-1,1490,568,0,0
273,456,0,0,0,0,0,0,0,0,0,-1,1497,568,0,0
280,456,0,0,0,0,0,0,0,0,0,-1,1504,568,0,0
287,456,0,0,0,0,0,0,0,0,0,-1,1511,568,0,0
294,456,0,0,0,0,0,0,0,0,0,-1,1518,568,0,0
301,456,0,0,0,0,0,0,0,0,0,-1,1525,568,0,0
308,456,0,0,0,0,0,0,0,0,0,-1,1532,568,0,0
315,456,0,0,0,0,0,0,0,0,0,-1,1539,568,0,0
322,456,0,0,0,0,0,0,0,0,0,-1,1546,568,0,0
329,456,0,0,0,0,0,0,0,0,0,-1,1553,568,0,0
336,456,0,0,0,0,0,0,0,0,0,-1,1560,568,0,0
343,456,0,0,0,0,0,0,0,0,0,-1,1567,568,0,0
350,456,0,0,0,0,0,0,0,0,0,-1,1574,568,0,0
357,456,0,0,0,0,0,0,0,0,0,-1,1581,568,0,0
364,456,0,0,0,0,0,0,0,0,0,-1,1588,568,0,0
371,456,0,0,0,0,0,0,0,0,0,-1,1595,568,0,0
378,456,0,0,0,0,0,0,0,0,0,-1,1602,568,0,0
385,456,5.66284,0.660645,0,0,0,0,0,0,0,-1,1609,568,5.66285,-0.660615
392,456,17.5027,4.32971,0,0,0,0,0,0,0,-1,1616,568,17.5026,-4.32971
399,456,24.1917,5.99652,0,0,0,0,0,0,0,-1,1623,568,24.1916,-5.99651
406,456,24.446,4.53003,0,0,0,0,0,0,0,-1,1630,568,24.446,-4.53005
413,456,24.9418,2.90521,0,0,0,0,0,0,0,-1,1637,568,24.9418,-2.90524
420,456,25.3048,1.04712,0,0,0,0,0,0,0,-1,1644,568,25.3048,-1.04713
427,456,6.21375,2.02905,0,0,0,0,0,0,0,-1,1651,568,6.21372,-2.02904
434,456,3.0719,-4.86285,0,0,0,0,0,0,0,-1,1658,568,3.07184,4.86287
441,456,2.90344,-4.70459,0,0,0,0,0,0,0,-1,1665,568,2.90346,4.7046
448,456,3.06995,-4.93689,0,0,0,0,0,0,0,-1,1672,568,3.06991,4.93687
455,456,3.46582,-3.43701,0,0,0,0,0,0,0,-1,1679,568,3.46585,3.43698
462,456,4.68445,-4.45831,0,0,0,0,0,0,0,-1,1686,568,4.68439,4.45833
469,456,4.93201,-2.289,0,0,0,0,0,0,0,-1,1693,568,4.93197,2.28903
476,456,4.8363,-2.79364,0,0,0,0,0,0,0,-1,1700,568,4.83636,2.79363
483,456,12.8522,-13.692,0,0,0,0,0,0,0,-1,1707,568,12.8522,13.6919
490,456,16.0619,-15.9419,0,0,0,0,0,0,0,-1,1714,568,16.0619,15.9419
497,456,16.1442,-15.426,0.0032477,0.00234104,0.00133825,0.00420732,0.00138142,0.62209,0.00247636,0.0480405,1721,568,16.1442,15.426
504,456,16.0564,-14.7563,0.00270629,0.00212959,0.00126032,0.00371083,0.00112505,0.672939,0.00219708,0.0125042,1728,568,16.0564,14.7563
511,456,16.083,-14.1755,0.00218069,0.00189265,0.00119869,0.00324398,0.000829355,0.725611,0.00194603,0.0137201,1735,568,16.083,14.1755
518,456,16.0846,-13.624,0.00165364,0.00162838,0.0011519,0.00279297,0.000489043,0.779917,0.00172227,0.0163479,1742,568,16.0846,13.624
525,456,16.0253,-13.0557,0.00115161,0.00138928,0.00106925,0.00234628,0.000194606,0.840741,0.00150352,0.0162794,1749,568,16.0253,13.0557
532,456,16.0309,-12.4439,0.000623831,0.00115557,0.000925377,0.00185251,-7.31132e-05,0.925285,0.00126009,0.0161002,1756,568,16.0309,12.4439
539,456,16.0104,-11.8472,0.000189272,0.000905629,0.000807423,0.00143075,-0.000335852,0.99416,0.00108328,0.0194875,1763,568,16.0104,11.8472
546,456,15.9512,-11.2488,-0.000173028,0.000735656,0.000673196,0.00109348,-0.000530856,1.08224,0.000956381,0.0217907,1770,568,15.9511,11.2488
553,456,15.9176,-10.6615,-0.00050995,0.000607754,0.000531719,0.000820291,-0.000722486,1.19053,0.000891319,0.0148047,1777,568,15.9176,10.6615
560,456,15.9185,-10.1147,-0.000758506,0.000531796,0.000440497,0.000667835,-0.000894545,1.27126,0.000905201,0.0107906,1784,568,15.9185,10.1147
567,456,15.9213,-9.50195,-0.000806805,0.000548622,0.000460435,0.000690235,-0.000948418,1.27242,0.000949983,0.0174493,1791,568,15.9213,9.50197
574,456,15.8639,-9.0672,-0.000873162,0.000565662,0.000489585,0.000716449,-0.00102395,1.27203,0.00101003,0.0489793,1798,568,15.8639,9.06718
581,456,15.8811,-8.55841,0,0,0,0,0,0,0,-1,1805,568,15.8811,8.55839
588,456,5.23901,-0.0901489,0,0,0,0,0,0,0,-1,1812,568,5.23906,0.0901656
595,456,6.90063,3.14886,0,0,0,0,0,0,0,-1,1819,568,6.90066,-3.14887
602,456,16.894,4.10938,0,0,0,0,0,0,0,-1,1826,568,16.8941,-4.1094
609,456,14.9966,3.5708,0,0,0,0,0,0,0,-1,1833,568,14.9966,-3.57083
616,456,17.7407,2.6579,0,0,0,0,0,0,0,-1,1840,568,17.7408,-2.6579
623,456,20.6838,1.7121,0,0,0,0,0,0,0,-1,1847,568,20.6838,-1.71208
630,456,0,0,0,0,0,0,0,0,0,-1,1854,568,0,0
637,456,0,0,0,0,0,0,0,0,0,-1,1861,568,0,0
644,456,0,0,0,0,0,0,0,0,0,-1,1868,568,0,0
651,456,0,0,0,0,0,0,0,0,0,-1,1875,568,0,0
658,456,0,0,0,0,0,0,0,0,0,-1,1882,568,0,0
665,456,0,0,0,0,0,0,0,0,0,-1,1889,568,0,0
672,456,0,0,0,0,0,0,0,0,0,-1,1896,568,0,0
679,456,0,0,0,0,0,0,0,0,0,-1,1903,568,0,0
686,456,0,0,0,0,0,0,0,0,0,-1,1910,568,0,0
693,456,0,0,0,0,0,0,0,0,0,-1,1917,568,0,0
700,456,0,0,0,0,0,0,0,0,0,-1,1924,568,0,0
707,456,0,0,0,0,0,0,0,0,0,-1,1931,568,0,0
714,456,0,0,0,0,0,0,0,0,0,-1,1938,568,0,0
721,456,0,0,0,0,0,0,0,0,0,-1,1945,568,0,0
728,456,0,0,0,0,0,0,0,0,0,-1,1952,568,0,0
735,456,0,0,0,0,0,0,0,0,0,-1,1959,568,0,0
742,456,0,0,0,0,0,0,0,0,0,-1,1966,568,0,0
749,456,0,0,0,0,0,0,0,0,0,-1,1973,568,0,0
756,456,0,0,0,0,0,0,0,0,0,-1,1980,568,0,0
763,456,0,0,0,0,0,0,0,0,0,-1,1987,568,0,0
770,456,0,0,0,0,0,0,0,0,0,-1,1994,568,0,0
777,456,0,0,0,0,0,0,0,0,0,-1,2001,568,0,0
784,456,0,0,0,0,0,0,0,0,0,-1,2008,568,0,0
791,456,0,0,0,0,0,0,0,0,0,-1,2015,568,0,0
798,456,0,0,0,0,0,0,0,0,0,-1,2022,568,0,0
805,456,0,0,0,0,0,0,0,0,0,-1,2029,568,0,0
812,456,0,0,0,0,0,0,0,0,0,-1,2036,568,0,0
-700,449,0,0,0,0,0,0,0,0,0,-1,524,575,0,0
-693,449,0,0,0,0,0,0,0,0,0,-1,531,575,0,0
-686,449,0,0,0,0,0,0,0,0,0,-1,538,575,0,0
-679,449,0,0,0,0,0,0,0,0,0,-1,545,575,0,0
-672,449,0,0,0,0,0,0,0,0,0,-1,552,575,0,0
-665,449,0,0,0,0,0,0,0,0,0,-1,559,575,0,0
-658,449,0,0,0,0,0,0,0,0,0,-1,566,575,0,0
-651,449,0,0,0,0,0,0,0,0,0,-1,573,575,0,0
-644,449,0,0,0,0,0,0,0,0,0,-1,580,575,0,0
-637,449,0,0,0,0,0,0,0,0,0,-1,587,575,0,0
-630,449,0,0,0,0,0,0,0,0,0,-1,594,575,0,0
-623,449,0,0,0,0,0,0,0,0,0,-1,601,575,0,0
-616,449,0,0,0,0,0,0,0,0,0,-1,608,575,0,0
-609,449,0,0,0,0,0,0,0,0,0,-1,615,575,0,0
-602,449,0,0,0,0,0,0,0,0,0,-1,622,575,0,0
-595,449,0,0,0,0,0,0,0,0,0,-1,629,575,0,0
-588,449,0,0,0,0,0,0,0,0,0,-1,636,575,0,0
-581,449,0,0,0,0,0,0,0,0,0,-1,643,575,0,0
-574,449,0,0,0,0,0,0,0,0,0,-1,650,575,0,0
-567,449,0,0,0,0,0,0,0,0,0,-1,657,575,0,0
-560,449,0,0,0,0,0,0,0,0,0,-1,664,575,0,0
-553,449,0,0,0,0,0,0,0,0,0,-1,671,575,0,0
-546,449,0,0,0,0,0,0,0,0,0,-1,678,575,0,0
-539,449,0,0,0,0,0,0,0,0,0,-1,685,575,0,0
-532,449,0,0,0,0,0,0,0,0,0,-1,692,575,0,0
-525,449,0,0,0,0,0,0,0,0,0,-1,699,575,0,0
-518,449,0,0,0,0,0,0,0,0,0,-1,706,575,0,0
-511,449,-0.941345,-4.4519,0,0,0,0,0,0,0,-1,713,575,-0.941356,4.45191
-504,449,-14.1078,0.318237,0,0,0,0,0,0,0,-1,720,575,-14.1078,-0.318231
-497,449,-8.61292,-3.09009,0,0,0,0,0,0,0,-1,727,575,-8.61291,3.09011
-490,449,-7.50995,-2.96252,0,0,0,0,0,0,0,-1,734,575,-7.50995,2.96251
-483,449,-5.77789,-2.50061,0,0,0,0,0,0,0,-1,741,575,-5.77792,2.50059
-476,449,-4.1723,-2.07739,0,0,0,0,0,0,0,-1,748,575,-4.17228,2.0774
-469,449,-4.02954,-4.56329,0,0,0,0,0,0,0,-1,755,575,-4.02951,4.56329
-462,449,-6.33252,-8.65411,0,0,0,0,0,0,0,-1,762,575,-6.33249,8.6541
-455,449,-6.64612,-9.62061,0,0,0,0,0,0,0,-1,769,575,-6.64611,9.62058
-448,449,-6.35199,-10.3967,0.000210778,0.00638566,-0.00240262,0.00721036,-0.000613922,-1.24015,0.00502407,0.0401968,776,575,-6.35198,10.3967
-441,449,-6.32825,-11.1086,0.000172445,0.00565833,-0.0021805,0.00641943,-0.000588655,-1.23497,0.00448872,0.0197908,783,575,-6.32825,11.1087
-434,449,-6.40033,-11.6205,0.00014843,0.00481917,-0.00184818,0.00546201,-0.000494407,-1.23606,0.00381683,0.0130371,790,575,-6.40033,11.6205
-427,449,-6.42719,-12.1879,9.81373e-05,0.00391746,-0.00143703,0.00439774,-0.000382151,-1.24825,0.00306716,0.0127326,797,575,-6.42719,12.1878
-420,449,-6.42194,-12.7447,0.000113219,0.00298125,-0.00100584,0.00329884,-0.000204372,-1.26496,0.00227042,0.0126272,804,575,-6.42194,12.7447
-413,449,-6.42773,-13.292,0.000151572,0.00193029,-0.000493404,0.00205799,2.38736e-05,-1.31754,0.00136411,0.0102621,811,575,-6.42774,13.292
-406,449,-6.47302,-13.8682,0.000225687,0.000840433,7.55633e-05,0.000849585,0.000216535,1.45027,0.000509779,0.0100158,818,575,-6.47303,13.8682
-399,449,-6.50366,-14.4285,0.000408236,-0.000104351,0.000591111,0.000796224,-0.000492339,0.580841,0.000750817,0.0101421,825,575,-6.50366,14.4284
-392,449,-6.49292,-14.9623,0.000772693,-0.00107379,0.00103807,0.00123868,-0.00153978,0.421939,0.00160728,0.0107545,832,575,-6.49294,14.9623
-385,449,-6.50787,-15.4841,0.00127559,-0.00187359,0.00139441,0.00180426,-0.00240227,0.362393,0.00243681,0.0109409,839,575,-6.50786,15.484
-378,449,-6.55396,-16.0262,0.00179785,-0.0026508,0.00176992,0.0024161,-0.00326905,0.33606,0.00329462,0.0103813,846,575,-6.55393,16.0262
-371,449,-6.53131,-16.5728,0.00249714,-0.00317078,0.00206592,0.00317022,-0.00384387,0.314959,0.00405581,0.0152196,853,575,-6.53133,16.5728
-364,449,-6.42047,-17.1367,0,0,0,0,0,0,0,-1,860,575,-6.42045,17.1366
-357,449,-5.88049,-15.8704,0,0,0,0,0,0,0,-1,867,575,-5.88051,15.8704
-350,449,-2.8764,-9.90204,0,0,0,0,0,0,0,-1,874,575,-2.87638,9.90203
-343,449,-2.98492,-9.2254,0,0,0,0,0,0,0,-1,881,575,-2.98491,9.22541
-336,449,-1.29523,-9.54626,0,0,0,0,0,0,0,-1,888,575,-1.29525,9.54626
-329,449,-0.733398,-7.78937,0,0,0,0,0,0,0,-1,895,575,-0.733398,7.78937
-322,449,-0.628845,-3.16669,0,0,0,0,0,0,0,-1,902,575,-0.628861,3.16667
-315,449,-0.540344,-3.21918,0,0,0,0,0,0,0,-1,909,575,-0.540336,3.21917
-308,449,-1.04413,-2.99341,0,0,0,0,0,0,0,-1,916,575,-1.04415,2.99338
-301,449,-1.58691,-2.80725,0,0,0,0,0,0,0,-1,923,575,-1.58692,2.80728
-294,449,-3.71118,-2.76086,0,0,0,0,0,0,0,-1,930,575,-3.71119,2.76087
-287,449,-4.4082,-2.69525,0,0,0,0,0,0,0,-1,937,575,-4.40822,2.69526
-280,449,-2.12335,-11.5544,0,0,0,0,0,0,0,-1,944,575,-2.12334,11.5544
-273,449,0,0,0,0,0,0,0,0,0,-1,951,575,0,0
-266,449,0,0,0,0,0,0,0,0,0,-1,958,575,0,0
-259,449,0,0,0,0,0,0,0,0,0,-1,965,575,0,0
-252,449,0,0,0,0,0,0,0,0,0,-1,972,575,0,0
-245,449,0,0,0,0,0,0,0,0,0,-1,979,575,0,0
-238,449,0,0,0,0,0,0,0,0,0,-1,986,575,0,0
-231,449,0,0,0,0,0,0,0,0,0,-1,993,575,0,0
-224,449,0,0,0,0,0,0,0,0,0,-1,1000,575,0,0
-217,449,0,0,0,0,0,0,0,0,0,-1,1007,575,0,0
-210,449,0,0,0,0,0,0,0,0,0,-1,1014,575,0,0
-203,449,0,0,0,0,0,0,0,0,0,-1,1021,575,0,0
-196,449,0,0,0,0,0,0,0,0,0,-1,1028,575,0,0
-189,449,0,0,0,0,0,0,0,0,0,-1,1035,575,0,0
-182,449,0,0,0,0,0,0,0,0,0,-1,1042,575,0,0
-175,449,0,0,0,0,0,0,0,0,0,-1,1049,575,0,0
-168,449,0,0,0,0,0,0,0,0,0,-1,1056,575,0,0
-161,449,0,0,0,0,0,0,0,0,0,-1,1063,575,0,0
-154,449,0,0,0,0,0,0,0,0,0,-1,1070,575,0,0
-147,449,0,0,0,0,0,0,0,0,0,-1,1077,575,0,0
-140,449,0,0,0,0,0,0,0,0,0,-1,1084,575,0,0
-133,449,0,0,0,0,0,0,0,0,0,-1,1091,575,0,0
-126,449,0,0,0,0,0,0,0,0,0,-1,1098,575,0,0
-119,449,0,0,0,0,0,0,0,0,0,-1,1105,575,0,0
-112,449,0,0,0,0,0,0,0,0,0,-1,1112,575,0,0
-105,449,0,0,0,0,0,0,0,0,0,-1,1119,575,0,0
-98,449,0,0,0,0,0,0,0,0,0,-1,1126,575,0,0
-91,449,0,0,0,0,0,0,0,0,0,-1,1133,575,0,0
-84,449,0,0,0,0,0,0,0,0,0,-1,1140,575,0,0
-77,449,0,0,0,0,0,0,0,0,0,-1,1147,575,0,0
-70,449,0,0,0,0,0,0,0,0,0,-1,1154,575,0,0
-63,449,0,0,0,0,0,0,0,0,0,-1,1161,575,0,0
-56,449,0,0,0,0,0,0,0,0,0,-1,1168,575,0,0
-49,449,0,0,0,0,0,0,0,0,0,-1,1175,575,0,0
-42,449,0,0,0,0,0,0,0,0,0,-1,1182,575,0,0
-35,449,0,0,0,0,0,0,0,0,0,-1,1189,575,0,0
-28,449,0,0,0,0,0,0,0,0,0,-1,1196,575,0,0
-21,449,0,0,0,0,0,0,0,0,0,-1,1203,575,0,0
-14,449,0,0,0,0,0,0,0,0,0,-1,1210,575,0,0
-7,449,0,0,0,0,0,0,0,0,0,-1,1217,575,0,0
0,449,0,0,0,0,0,0,0,0,0,-1,1224,575,0,0
7,449,0,0,0,0,0,0,0,0,0,-1,1231,575,0,0
14,449,0,0,0,0,0,0,0,0,0,-1,1238,575,0,0
21,449,0,0,0,0,0,0,0,0,0,-1,1245,575,0,0
28,449,0,0,0,0,0,0,0,0,0,-1,1252,575,0,0
35,449,0,0,0,0,0,0,0,0,0,-1,1259,575,0,0
42,449,0,0,0,0,0,0,0,0,0,-1,1266,575,0,0
49,449,0,0,0,0,0,0,0,0,0,-1,1273,575,0,0
56,449,0,0,0,0,0,0,0,0,0,-1,1280,575,0,0
63,449,0,0,0,0,0,0,0,0,0,-1,1287,575,0,0
70,449,0,0,0,0,0,0,0,0,0,-1,1294,575,0,0
77,449,0,0,0,0,0,0,0,0,0,-1,1301,575,0,0
84,449,0,0,0,0,0,0,0,0,0,-1,1308,575,0,0
91,449,0,0,0,0,0,0,0,0,0,-1,1315,575,0,0
98,449,0,0,0,0,0,0,0,0,0,-1,1322,575,0,0
105,449,0,0,0,0,0,0,0,0,0,-1,1329,575,0,0
112,449,0,0,0,0,0,0,0,0,0,-1,1336,575,0,0
119,449,0,0,0,0,0,0,0,0,0,-1,1343,575,0,0
126,449,0,0,0,0,0,0,0,0,0,-1,1350,575,0,0
133,449,0,0,0,0,0,0,0,0,0,-1,1357,575,0,0
140,449,0,0,0,0,0,0,0,0,0,-1,1364,575,0,0
147,449,0,0,0,0,0,0,0,0,0,-1,1371,575,0,0
154,449,0,0,0,0,0,0,0,0,0,-1,1378,575,0,0
161,449,0,0,0,0,0,0,0,0,0,-1,1385,575,0,0
168,449,0,0,0,0,0,0,0,0,0,-1,1392,575,0,0
175,449,0,0,0,0,0,0,0,0,0,-1,1399,575,0,0
182,449,0,0,0,0,0,0,0,0,0,-1,1406,575,0,0
189,449,0,0,0,0,0,0,0,0,0,-1,1413,575,0,0
196,449,0,0,0,0,0,0,0,0,0,-1,1420,575,0,0
203,449,0,0,0,0,0,0,0,0,0,-1,1427,575,0,0
210,449,0,0,0,0,0,0,0,0,0,-1,1434,575,0,0
217,449,0,0,0,0,0,0,0,0,0,-1,1441,575,0,0
224,449,0,0,0,0,0,0,0,0,0,-1,1448,575,0,0
231,449,0,0,0,0,0,0,0,0,0,-1,1455,575,0,0
238,449,0,0,0,0,0,0,0,0,0,-1,1462,575,0,0
245,449,0,0,0,0,0,0,0,0,0,-1,1469,575,0,0
252,449,0,0,0,0,0,0,0,0,0,-1,1476,575,0,0
259,449,0,0,0,0,0,0,0,0,0,-1,1483,575,0,0
266,449,0,0,0,0,0,0,0,0,0,-1,1490,575,0,0
273,449,0,0,0,0,0,0,0,0,0,-1,1497,575,0,0
280,449,0,0,0,0,0,0,0,0,0,-1,1504,575,0,0
287,449,0,0,0,0,0,0,0,0,0,-1,1511,575,0,0
294,449,0,0,0,0,0,0,0,0,0,-1,1518,575,0,0
301,449,0,0,0,0,0,0,0,0,0,-1,1525,575,0,0
308,449,0,0,0,0,0,0,0,0,0,-1,1532,575,0,0
315,449,0,0,0,0,0,0,0,0,0,-1,1539,575,0,0
322,449,0,0,0,0,0,0,0,0,0,-1,1546,575,0,0
329,449,0,0,0,0,0,0,0,0,0,-1,1553,575,0,0
336,449,0,0,0,0,0,0,0,0,0,-1,1560,575,0,0
343,449,0,0,0,0,0,0,0,0,0,-1,1567,575,0,0
350,449,0,0,0,0,0,0,0,0,0,-1,1574,575,0,0
357,449,0,0,0,0,0,0,0,0,0,-1,1581,575,0,0
364,449,0,0,0,0,0,0,0,0,0,-1,1588,575,0,0
371,449,0,0,0,0,0,0,0,0,0,-1,1595,575,0,0
378,449,0,0,0,0,0,0,0,0,0,-1,1602,575,0,0
385,449,0,0,0,0,0,0,0,0,0,-1,1609,575,0,0
392,449,7.95471,3.66217,0,0,0,0,0,0,0,-1,1616,575,7.95471,-3.66218
399,449,19.9791,5.565,0,0,0,0,0,0,0,-1,1623,575,19.9791,-5.56499
406,449,24.9847,4.55969,0,0,0,0,0,0,0,-1,1630,575,24.9848,-4.55968
413,449,30.4159,3.15027,0,0,0,0,0,0,0,-1,1637,575,30.4159,-3.15028
420,449,23.9675,1.29718,0,0,0,0,0,0,0,-1,1644,575,23.9675,-1.29721
427,449,24.4276,-0.596558,0,0,0,0,0,0,0,-1,1651,575,24.4277,0.596569
434,449,25.61,-2.96594,0,0,0,0,0,0,0,-1,1658,575,25.61,2.96595
441,449,3.89856,-6.06458,0,0,0,0,0,0,0,-1,1665,575,3.89855,6.06459
448,449,4.03198,-5.18207,0,0,0,0,0,0,0,-1,1672,575,4.03197,5.18207
455,449,4.21948,-4.09467,0,0,0,0,0,0,0,-1,1679,575,4.21952,4.09465
462,449,4.23181,-2.96924,0,0,0,0,0,0,0,-1,1686,575,4.23185,2.96926
469,449,4.51672,-2.95135,0,0,0,0,0,0,0,-1,1693,575,4.51672,2.95135
476,449,4.71838,-1.86688,0,0,0,0,0,0,0,-1,1700,575,4.71842,1.86689
483,449,4.87878,-1.73126,0,0,0,0,0,0,0,-1,1707,575,4.87875,1.73128
490,449,5.73279,-2.74573,0,0,0,0,0,0,0,-1,1714,575,5.73282,2.74575
497,449,16.6833,-15.6552,0,0,0,0,0,0,0,-1,1721,575,16.6833,15.6552
504,449,16.6239,-14.7841,0,0,0,0,0,0,0,-1,1728,575,16.6239,14.7841
511,449,16.6426,-14.1776,0.00283044,0.00238793,0.00159746,0.00422189,0.000996473,0.716583,0.00254823,0.0116524,1735,575,16.6426,14.1776
518,449,16.6449,-13.5997,0.00237396,0.00197413,0.00149272,0.00368009,0.000667996,0.718832,0.00226382,0.0130105,1742,575,16.645,13.5997
525,449,16.5897,-13.0234,0.00191199,0.00170843,0.00136621,0.0031802,0.000440218,0.748219,0.00198969,0.0132756,1749,575,16.5897,13.0234
532,449,16.5455,-12.4388,0.00139289,0.00141419,0.00116022,0.0025638,0.000243274,0.789987,0.00163416,0.0113381,1756,575,16.5455,12.4388
539,449,16.5128,-11.8415,0.000974174,0.00113114,0.0010077,0.00206341,4.18997e-05,0.824261,0.00136186,0.0137885,1763,575,16.5128,11.8415
546,449,16.4889,-11.2242,0.00062569,0.000931592,0.000850322,0.00164261,-8.53275e-05,0.874384,0.0011246,0.0239794,1770,575,16.4889,11.2242
553,449,16.4703,-10.6676,0.000285858,0.000746653,0.000693698,0.00124721,-0.000214702,0.945731,0.000911511,0.0180248,1777,575,16.4703,10.6676
560,449,16.4989,-10.1154,-4.46464e-06,0.000650698,0.000593291,0.00100084,-0.000354603,1.03764,0.00081167,0.0142178,1784,575,16.4989,10.1154
567,449,16.4774,-9.53906,-0.000125758,0.000672872,0.000625282,0.00101547,-0.000468353,1.06956,0.00087588,0.00982227,1791,575,16.4774,9.53905
574,449,16.4669,-8.90344,-0.000231475,0.000714903,0.00068827,0.00107695,-0.000593525,1.08654,0.000977819,0.0226931,1798,575,16.4669,8.90345
581,449,16.4695,-8.18732,0,0,0,0,0,0,0,-1,1805,575,16.4695,8.18729
588,449,12.3274,-4.5672,0,0,0,0,0,0,0,-1,1812,575,12.3274,4.5672
595,449,15.9352,-5.65479,0,0,0,0,0,0,0,-1,1819,575,15.9352,5.65478
602,449,9.46167,4.17444,0,0,0,0,0,0,0,-1,1826,575,9.46164,-4.17442
609,449,12.2028,3.18652,0,0,0,0,0,0,0,-1,1833,575,12.2027,-3.18655
616,449,14.9438,2.19867,0,0,0,0,0,0,0,-1,1840,575,14.9438,-2.19867
623,449,9.83789,-0.0820313,0,0,0,0,0,0,0,-1,1847,575,9.83794,0.0820443
630,449,8.90686,4.99329,0,0,0,0,0,0,0,-1,1854,575,8.90685,-4.99327
637,449,0,0,0,0,0,0,0,0,0,-1,1861,575,0,0
644,449,0,0,0,0,0,0,0,0,0,-1,1868,575,0,0
651,449,0,0,0,0,0,0,0,0,0,-1,1875,575,0,0
658,449,0,0,0,0,0,0,0,0,0,-1,1882,575,0,0
665,449,0,0,0,0,0,0,0,0,0,-1,1889,575,0,0
672,449,0,0,0,0,0,0,0,0,0,-1,1896,575,0,0
679,449,0,0,0,0,0,0,0,0,0,-1,1903,575,0,0
686,449,0,0,0,0,0,0,0,0,0,-1,1910,575,0,0
693,449,0,0,0,0,0,0,0,0,0,-1,1917,575,0,0
700,449,0,0,0,0,0,0,0,0,0,-1,1924,575,0,0
707,449,0,0,0,0,0,0,0,0,0,-1,1931,575,0,0
714,449,0,0,0,0,0,0,0,0,0,-1,1938,575,0,0
721,449,0,0,0,0,0,0,0,0,0,-1,1945,575,0,0
728,449,0,0,0,0,0,0,0,0,0,-1,1952,575,0,0
735,449,0,0,0,0,0,0,0,0,0,-1,1959,575,0,0
742,449,0,0,0,0,0,0,0,0,0,-1,1966,575,0,0
749,449,0,0,0,0,0,0,0,0,0,-1,1973,575,0,0
756,449,0,0,0,0,0,0,0,0,0,-1,1980,575,0,0
763,449,0,0,0,0,0,0,0,0,0,-1,1987,575,0,0
770,449,0,0,0,0,0,0,0,0,0,-1,1994,575,0,0
777,449,0,0,0,0,0,0,0,0,0,-1,2001,575,0,0
784,449,0,0,0,0,0,0,0,0,0,-1,2008,575,0,0
791,449,0,0,0,0,0,0,0,0,0,-1,2015,575,0,0
798,449,0,0,0,0,0,0,0,0,0,-1,2022,575,0,0
805,449,0,0,0,0,0,0,0,0,0,-1,2029,575,0,0
812,449,0,0,0,0,0,0,0,0,0,-1,2036,575,0,0
-700,442,0,0,0,0,0,0,0,0,0,-1,524,582,0,0
-693,442,0,0,0,0,0,0,0,0,0,-1,531,582,0,0
-686,442,0,0,0,0,0,0,0,0,0,-1,538,582,0,0
-679,442,0,0,0,0,0,0,0,0,0,-1,545,582,0,0
-672,442,0,0,0,0,0,0,0,0,0,-1,552,582,0,0
-665,442,0,0,0,0,0,0,0,0,0,-1,559,582,0,0
-658,442,0,0,0,0,0,0,0,0,0,-1,566,582,0,0
-651,442,0,0,0,0,0,0,0,0,0,-1,573,582,0,0
-644,442,0,0,0,0,0,0,0,0,0,-1,580,582,0,0
-637,442,0,0,0,0,0,0,0,0,0,-1,587,582,0,0
-630,442,0,0,0,0,0,0,0,0,0,-1,594,582,0,0
-623,442,0,0,0,0,0,0,0,0,0,-1,601,582,0,0
-616,442,0,0,0,0,0,0,0,0,0,-1,608,582,0,0
-609,442,0,0,0,0,0,0,0,0,0,-1,615,582,0,0
-602,442,0,0,0,0,0,0,0,0,0,-1,622,582,0,0
-595,442,0,0,0,0,0,0,0,0,0,-1,629,582,0,0
-588,442,0,0,0,0,0,0,0,0,0,-1,636,582,0,0
-581,442,0,0,0,0,0,0,0,0,0,-1,643,582,0,0
-574,442,0,0,0,0,0,0,0,0,0,-1,650,582,0,0
-567,442,0,0,0,0,0,0,0,0,0,-1,657,582,0,0
-560,442,0,0,0,0,0,0,0,0,0,-1,664,582,0,0
-553,442,0,0,0,0,0,0,0,0,0,-1,671,582,0,0
-546,442,0,0,0,0,0,0,0,0,0,-1,678,582,0,0
-539,442,0,0,0,0,0,0,0,0,0,-1,685,582,0,0
-532,442,0,0,0,0,0,0,0,0,0,-1,692,582,0,0
-525,442,0,0,0,0,0,0,0,0,0,-1,699,582,0,0
-518,442,-0.493774,-5.72943,0,0,0,0,0,0,0,-1,706,582,-0.493791,5.72946
-511,442,-1.33008,-6.18512,0,0,0,0,0,0,0,-1,713,582,-1.33006,6.18511
-504,442,-3.20807,-6.34082,0,0,0,0,0,0,0,-1,720,582,-3.2081,6.34083
-497,442,-13.6886,-0.250122,0,0,0,0,0,0,0,-1,727,582,-13.6886,0.250143
-490,442,-9.09039,-3.64862,0,0,0,0,0,0,0,-1,734,582,-9.09037,3.64861
-483,442,-7.36499,-1.01892,0,0,0,0,0,0,0,-1,741,582,-7.365,1.01895
-476,442,-4.62225,-3.47467,0,0,0,0,0,0,0,-1,748,582,-4.62225,3.47465
-469,442,-6.93988,-8.20728,0,0,0,0,0,0,0,-1,755,582,-6.93987,8.2073
-462,442,-7.19519,-9.1864,0,0,0,0,0,0,0,-1,762,582,-7.1952,9.18641
-455,442,-7.02905,-9.91345,0.000457297,0.00503824,-0.00196029,0.00576257,-0.000267029,-1.21686,0.00393374,0.0462481,769,582,-7.02903,9.91344
-448,442,-6.88239,-10.4822,0.000384684,0.00456524,-0.00184912,0.00526575,-0.00031583,-1.20867,0.00362037,0.018717,776,582,-6.88237,10.4822
-441,442,-6.92108,-11.0463,0.000279227,0.00378293,-0.00146768,0.00431649,-0.000254327,-1.22212,0.00296607,0.0140616,783,582,-6.92106,11.0463
-434,442,-6.94482,-11.598,0.000170696,0.00298976,-0.00102741,0.00332446,-0.000164004,-1.25587,0.00227295,0.0133558,790,582,-6.94479,11.598
-427,442,-6.97955,-12.1786,4.31719e-05,0.00213377,-0.000536749,0.00226352,-8.6582e-05,-1.33361,0.00153869,0.0125556,797,582,-6.97953,12.1786
-420,442,-6.9812,-12.7316,4.01306e-06,0.00129173,-5.77357e-05,0.00129432,1.42964e-06,-1.52608,0.000862403,0.0127385,804,582,-6.98118,12.7316
-413,442,-6.98877,-13.2885,-2.23278e-05,0.000327781,0.00050691,0.000689012,-0.000383558,0.951655,0.000627563,0.0106542,811,582,-6.9888,13.2885
-406,442,-7.02399,-13.861,2.35741e-06,-0.000645762,0.00109466,0.000819918,-0.00146332,0.64149,0.00133556,0.00967377,818,582,-7.024,13.861
-399,442,-7.0451,-14.4108,0.000191624,-0.00147182,0.00157542,0.00114139,-0.00242159,0.542525,0.00210088,0.00902686,825,582,-7.04512,14.4108
-392,442,-7.05212,-14.9346,0.000592994,-0.00226599,0.00195111,0.00158223,-0.00325523,0.469244,0.00284805,0.0104905,832,582,-7.05213,14.9346
-385,442,-7.07245,-15.4502,0.0011378,-0.00286336,0.00220819,0.00211689,-0.00384244,0.417343,0.00348837,0.0124098,839,582,-7.07247,15.4502
-378,442,-7.08203,-16.016,0.00170835,-0.0034712,0.00248482,0.00270763,-0.00447047,0.382359,0.00418573,0.0153386,846,582,-7.08201,16.016
-371,442,-7.03302,-16.6234,0.00255877,-0.00372032,0.00263715,0.00351938,-0.00468093,0.349324,0.00475026,0.0495626,853,582,-7.033,16.6233
-364,442,-6.8609,-17.1963,0,0,0,0,0,0,0,-1,860,582,-6.86091,17.1963
-357,442,-4.9115,-11.2649,0,0,0,0,0,0,0,-1,867,582,-4.91147,11.2649
-350,442,-1.75372,-6.27618,0,0,0,0,0,0,0,-1,874,582,-1.75371,6.27618
-343,442,-1.4599,-4.63605,0,0,0,0,0,0,0,-1,881,582,-1.4599,4.63607
-336,442,-1.4054,-2.64313,0,0,0,0,0,0,0,-1,888,582,-1.40539,2.64315
-329,442,-0.952576,-2.76923,0,0,0,0,0,0,0,-1,895,582,-0.952571,2.7692
-322,442,-0.972534,-2.63208,0,0,0,0,0,0,0,-1,902,582,-0.972512,2.6321
-315,442,-0.445557,-2.89764,0,0,0,0,0,0,0,-1,909,582,-0.445582,2.89765
-308,442,-0.654175,-3.07831,0,0,0,0,0,0,0,-1,916,582,-0.654145,3.07832
-301,442,-1.37427,-2.41455,0,0,0,0,0,0,0,-1,923,582,-1.37425,2.41453
-294,442,-2.99963,-2.07855,0,0,0,0,0,0,0,-1,930,582,-2.99964,2.07857
-287,442,-2.26624,-4.73987,0,0,0,0,0,0,0,-1,937,582,-2.26626,4.73987
-280,442,0,0,0,0,0,0,0,0,0,-1,944,582,0,0
-273,442,0,0,0,0,0,0,0,0,0,-1,951,582,0,0
-266,442,0,0,0,0,0,0,0,0,0,-1,958,582,0,0
-259,442,0,0,0,0,0,0,0,0,0,-1,965,582,0,0
-252,442,0,0,0,0,0,0,0,0,0,-1,972,582,0,0
-245,442,0,0,0,0,0,0,0,0,0,-1,979,582,0,0
-238,442,0,0,0,0,0,0,0,0,0,-1,986,582,0,0
-231,442,0,0,0,0,0,0,0,0,0,-1,993,582,0,0
-224,442,0,0,0,0,0,0,0,0,0,-1,1000,582,0,0
-217,442,0,0,0,0,0,0,0,0,0,-1,1007,582,0,0
-210,442,0,0,0,0,0,0,0,0,0,-1,1014,582,0,0
-203,442,0,0,0,0,0,0,0,0,0,-1,1021,582,0,0
-196,442,0,0,0,0,0,0,0,0,0,-1,1028,582,0,0
-189,442,0,0,0,0,0,0,0,0,0,-1,1035,582,0,0
-182,442,0,0,0,0,0,0,0,0,0,-1,1042,582,0,0
-175,442,0,0,0,0,0,0,0,0,0,-1,1049,582,0,0
-168,442,0,0,0,0,0,0,0,0,0,-1,1056,582,0,0
-161,442,0,0,0,0,0,0,0,0,0,-1,1063,582,0,0
-154,442,0,0,0,0,0,0,0,0,0,-1,1070,582,0,0
-147,442,0,0,0,0,0,0,0,0,0,-1,1077,582,0,0
-140,442,0,0,0,0,0,0,0,0,0,-1,1084,582,0,0
-133,442,0,0,0,0,0,0,0,0,0,-1,1091,582,0,0
-126,442,0,0,0,0,0,0,0,0,0,-1,1098,582,0,0
-119,442,0,0,0,0,0,0,0,0,0,-1,1105,582,0,0
-112,442,0,0,0,0,0,0,0,0,0,-1,1112,582,0,0
-105,442,0,0,0,0,0,0,0,0,0,-1,1119,582,0,0
-98,442,0,0,0,0,0,0,0,0,0,-1,1126,582,0,0
-91,442,0,0,0,0,0,0,0,0,0,-1,1133,582,0,0
-84,442,0,0,0,0,0,0,0,0,0,-1,1140,582,0,0
-77,442,0,0,0,0,0,0,0,0,0,-1,1147,582,0,0
-70,442,0,0,0,0,0,0,0,0,0,-1,1154,582,0,0
-63,442,0,0,0,0,0,0,0,0,0,-1,1161,582,0,0
-56,442,0,0,0,0,0,0,0,0,0,-1,1168,582,0,0
-49,442,0,0,0,0,0,0,0,0,0,-1,1175,582,0,0
-42,442,0,0,0,0,0,0,0,0,0,-1,1182,582,0,0
-35,442,0,0,0,0,0,0,0,0,0,-1,1189,582,0,0
-28,442,0,0,0,0,0,0,0,0,0,-1,1196,582,0,0
-21,442,0,0,0,0,0,0,0,0,0,-1,1203,582,0,0
-14,442,0,0,0,0,0,0,0,0,0,-1,1210,582,0,0
-7,442,0,0,0,0,0,0,0,0,0,-1,1217,582,0,0
0,442,0,0,0,0,0,0,0,0,0,-1,1224,582,0,0
7,442,0,0,0,0,0,0,0,0,0,-1,1231,582,0,0
14,442,0,0,0,0,0,0,0,0,0,-1,1238,582,0,0
21,442,0,0,0,0,0,0,0,0,0,-1,1245,582,0,0
28,442,0,0,0,0,0,0,0,0,0,-1,1252,582,0,0
35,442,0,0,0,0,0,0,0,0,0,-1,1259,582,0,0
42,442,0,0,0,0,0,0,0,0,0,-1,1266,582,0,0
49,442,0,0,0,0,0,0,0,0,0,-1,1273,582,0,0
56,442,0,0,0,0,0,0,0,0,0,-1,1280,582,0,0
63,442,0,0,0,0,0,0,0,0,0,-1,1287,582,0,0
70,442,0,0,0,0,0,0,0,0,0,-1,1294,582,0,0
77,442,0,0,0,0,0,0,0,0,0,-1,1301,582,0,0
84,442,0,0,0,0,0,0,0,0,0,-1,1308,582,0,0
91,442,0,0,0,0,0,0,0,0,0,-1,1315,582,0,0
98,442,0,0,0,0,0,0,0,0,0,-1,1322,582,0,0
105,442,0,0,0,0,0,0,0,0,0,-1,1329,582,0,0
112,442,0,0,0,0,0,0,0,0,0,-1,1336,582,0,0
119,442,0,0,0,0,0,0,0,0,0,-1,1343,582,0,0
126,442,0,0,0,0,0,0,0,0,0,-1,1350,582,0,0
133,442,0,0,0,0,0,0,0,0,0,-1,1357,582,0,0
140,442,0,0,0,0,0,0,0,0,0,-1,1364,582,0,0
147,442,0,0,0,0,0,0,0,0,0,-1,1371,582,0,0
154,442,0,0,0,0,0,0,0,0,0,-1,1378,582,0,0
161,442,0,0,0,0,0,0,0,0,0,-1,1385,582,0,0
168,442,0,0,0,0,0,0,0,0,0,-1,1392,582,0,0
175,442,0,0,0,0,0,0,0,0,0,-1,1399,582,0,0
182,442,0,0,0,0,0,0,0,0,0,-1,1406,582,0,0
189,442,0,0,0,0,0,0,0,0,0,-1,1413,582,0,0
196,442,0,0,0,0,0,0,0,0,0,-1,1420,582,0,0
203,442,0,0,0,0,0,0,0,0,0,-1,1427,582,0,0
210,442,0,0,0,0,0,0,0,0,0,-1,1434,582,0,0
217,442,0,0,0,0,0,0,0,0,0,-1,1441,582,0,0
224,442,0,0,0,0,0,0,0,0,0,-1,1448,582,0,0
231,442,0,0,0,0,0,0,0,0,0,-1,1455,582,0,0
238,442,0,0,0,0,0,0,0,0,0,-1,1462,582,0,0
245,442,0,0,0,0,0,0,0,0,0,-1,1469,582,0,0
252,442,0,0,0,0,0,0,0,0,0,-1,1476,582,0,0
259,442,0,0,0,0,0,0,0,0,0,-1,1483,582,0,0
266,442,0,0,0,0,0,0,0,0,0,-1,1490,582,0,0
273,442,0,0,0,0,0,0,0,0,0,-1,1497,582,0,0
280,442,0,0,0,0,0,0,0,0,0,-1,1504,582,0,0
287,442,0,0,0,0,0,0,0,0,0,-1,1511,582,0,0
294,442,0,0,0,0,0,0,0,0,0,-1,1518,582,0,0
301,442,0,0,0,0,0,0,0,0,0,-1,1525,582,0,0
308,442,0,0,0,0,0,0,0,0,0,-1,1532,582,0,0
315,442,0,0,0,0,0,0,0,0,0,-1,1539,582,0,0
322,442,0,0,0,0,0,0,0,0,0,-1,1546,582,0,0
329,442,0,0,0,0,0,0,0,0,0,-1,1553,582,0,0
336,442,0,0,0,0,0,0,0,0,0,-1,1560,582,0,0
343,442,0,0,0,0,0,0,0,0,0,-1,1567,582,0,0
350,442,0,0,0,0,0,0,0,0,0,-1,1574,582,0,0
357,442,0,0,0,0,0,0,0,0,0,-1,1581,582,0,0
364,442,0,0,0,0,0,0,0,0,0,-1,1588,582,0,0
371,442,0,0,0,0,0,0,0,0,0,-1,1595,582,0,0
378,442,0,0,0,0,0,0,0,0,0,-1,1602,582,0,0
385,442,0,0,0,0,0,0,0,0,0,-1,1609,582,0,0
392,442,0,0,0,0,0,0,0,0,0,-1,1616,582,0,0
399,442,0,0,0,0,0,0,0,0,0,-1,1623,582,0,0
406,442,17.6321,4.08295,0,0,0,0,0,0,0,-1,1630,582,17.6321,-4.08293
413,442,25.4768,2.74445,0,0,0,0,0,0,0,-1,1637,582,25.4768,-2.74444
420,442,22.7478,1.55011,0,0,0,0,0,0,0,-1,1644,582,22.7478,-1.55009
427,442,23.2969,-0.456787,0,0,0,0,0,0,0,-1,1651,582,23.2968,0.456769
434,442,23.9512,-2.49365,0,0,0,0,0,0,0,-1,1658,582,23.9512,2.49366
441,442,24.8251,-4.43958,0,0,0,0,0,0,0,-1,1665,582,24.8251,4.43956
448,442,4.7749,-5.88562,0,0,0,0,0,0,0,-1,1672,582,4.7749,5.8856
455,442,4.87024,-4.60687,0,0,0,0,0,0,0,-1,1679,582,4.87019,4.60686
462,442,5.02307,-3.72821,0,0,0,0,0,0,0,-1,1686,582,5.02311,3.7282
469,442,5.12976,-2.98834,0,0,0,0,0,0,0,-1,1693,582,5.12971,2.98834
476,442,5.4624,1.76947,0,0,0,0,0,0,0,-1,1700,582,5.46234,-1.76944
483,442,5.98486,1.87042,0,0,0,0,0,0,0,-1,1707,582,5.98492,-1.87045
490,442,5.04407,-2.35834,0,0,0,0,0,0,0,-1,1714,582,5.04411,2.35837
497,442,6.20984,-3.07831,0,0,0,0,0,0,0,-1,1721,582,6.2098,3.07833
504,442,17.1169,-14.8574,0,0,0,0,0,0,0,-1,1728,582,17.117,14.8573
511,442,17.1719,-14.1929,0.00343117,0.00316438,0.00198946,0.00529171,0.00130385,0.751924,0.00318347,0.0335046,1735,582,17.1718,14.1928
518,442,17.2091,-13.5641,0.0030381,0.00252267,0.00186401,0.00466213,0.000898652,0.716704,0.00285606,0.0116321,1742,582,17.2091,13.5642
525,442,17.1547,-12.9966,0.00259674,0.00218581,0.00171318,0.00411674,0.000665819,0.725718,0.00255167,0.0108362,1749,582,17.1547,12.9966
532,442,17.126,-12.418,0.00206717,0.00178129,0.00145734,0.00338857,0.000459893,0.736512,0.00212242,0.0116028,1756,582,17.1259,12.418
539,442,17.1124,-11.8222,0.00164762,0.00143365,0.00127606,0.00282117,0.000260105,0.743575,0.00180035,0.0123629,1763,582,17.1124,11.8222
546,442,17.1083,-11.2454,0.00129745,0.00116939,0.00109383,0.00232912,0.000137712,0.756162,0.00150894,0.0160303,1770,582,17.1083,11.2453
553,442,17.0627,-10.6606,0.000949015,0.00090777,0.000913582,0.00184221,1.45776e-05,0.774113,0.00122331,0.0173222,1777,582,17.0628,10.6606
560,442,17.0712,-10.0815,0.000622982,0.000764525,0.000782346,0.00147929,-9.17877e-05,0.830506,0.00101817,0.0146492,1784,582,17.0712,10.0815
567,442,17.0472,-9.51215,0.000451131,0.000751615,0.000789928,0.00140546,-0.000202715,0.879374,0.00101134,0.0101456,1791,582,17.0473,9.51217
574,442,17.0331,-8.92151,0.000356119,0.000807623,0.000862966,0.00147388,-0.000310134,0.913331,0.00110062,0.0126668,1798,582,17.033,8.92148
581,442,17.0764,-8.23547,0.00033362,0.000927476,0.00104116,0.00171322,-0.000452128,0.924305,0.00131895,0.0259661,1805,582,17.0764,8.23548
588,442,17.2311,-7.62042,0,0,0,0,0,0,0,-1,1812,582,17.231,7.62044
595,442,16.27,-6.47083,0,0,0,0,0,0,0,-1,1819,582,16.27,6.47082
602,442,16.2213,-4.49225,0,0,0,0,0,0,0,-1,1826,582,16.2213,4.49223
609,442,12.761,2.97223,0,0,0,0,0,0,0,-1,1833,582,12.761,-2.97221
616,442,9.78345,-0.103394,0,0,0,0,0,0,0,-1,1840,582,9.78341,0.103424
623,442,9.23828,0.326721,0,0,0,0,0,0,0,-1,1847,582,9.23829,-0.326727
630,442,7.74304,2.3924,0,0,0,0,0,0,0,-1,1854,582,7.7431,-2.39238
637,442,5.87805,1.84027,0,0,0,0,0,0,0,-1,1861,582,5.87807,-1.84025
644,442,0,0,0,0,0,0,0,0,0,-1,1868,582,0,0
651,442,0,0,0,0,0,0,0,0,0,-1,1875,582,0,0
658,442,0,0,0,0,0,0,0,0,0,-1,1882,582,0,0
665,442,0,0,0,0,0,0,0,0,0,-1,1889,582,0,0
672,442,0,0,0,0,0,0,0,0,0,-1,1896,582,0,0
679,442,0,0,0,0,0,0,0,0,0,-1,1903,582,0,0
686,442,0,0,0,0,0,0,0,0,0,-1,1910,582,0,0
693,442,0,0,0,0,0,0,0,0,0,-1,1917,582,0,0
700,442,0,0,0,0,0,0,0,0,0,-1,1924,582,0,0
707,442,0,0,0,0,0,0,0,0,0,-1,1931,582,0,0
714,442,0,0,0,0,0,0,0,0,0,-1,1938,582,0,0
721,442,0,0,0,0,0,0,0,0,0,-1,1945,582,0,0
728,442,0,0,0,0,0,0,0,0,0,-1,1952,582,0,0
735,442,0,0,0,0,0,0,0,0,0,-1,1959,582,0,0
742,442,0,0,0,0,0,0,0,0,0,-1,1966,582,0,0
749,442,0,0,0,0,0,0,0,0,0,-1,1973,582,0,0
756,442,0,0,0,0,0,0,0,0,0,-1,1980,582,0,0
763,442,0,0,0,0,0,0,0,0,0,-1,1987,582,0,0
770,442,0,0,0,0,0,0,0,0,0,-1,1994,582,0,0
777,442,0,0,0,0,0,0,0,0,0,-1,2001,582,0,0
784,442,0,0,0,0,0,0,0,0,0,-1,2008,582,0,0
791,442,0,0,0,0,0,0,0,0,0,-1,2015,582,0,0
798,442,0,0,0,0,0,0,0,0,0,-1,2022,582,0,0
805,442,0,0,0,0,0,0,0,0,0,-1,2029,582,0,0
812,442,0,0,0,0,0,0,0,0,0,-1,2036,582,0,0
-700,435,0,0,0,0,0,0,0,0,0,-1,524,589,0,0
-693,435,0,0,0,0,0,0,0,0,0,-1,531,589,0,0
-686,435,0,0,0,0,0,0,0,0,0,-1,538,589,0,0
-679,435,0,0,0,0,0,0,0,0,0,-1,545,589,0,0
-672,435,0,0,0,0,0,0,0,0,0,-1,552,589,0,0
-665,435,0,0,0,0,0,0,0,0,0,-1,559,589,0,0
-658,435,0,0,0,0,0,0,0,0,0,-1,566,589,0,0
-651,435,0,0,0,0,0,0,0,0,0,-1,573,589,0,0
-644,435,0,0,0,0,0,0,0,0,0,-1,580,589,0,0
-637,435,0,0,0,0,0,0,0,0,0,-1,587,589,0,0
-630,435,0,0,0,0,0,0,0,0,0,-1,594,589,0,0
-623,435,0,0,0,0,0,0,0,0,0,-1,601,589,0,0
-616,435,0,0,0,0,0,0,0,0,0,-1,608,589,0,0
-609,435,0,0,0,0,0,0,0,0,0,-1,615,589,0,0
-602,435,0,0,0,0,0,0,0,0,0,-1,622,589,0,0
-595,435,0,0,0,0,0,0,0,0,0,-1,629,589,0,0
-588,435,0,0,0,0,0,0,0,0,0,-1,636,589,0,0
-581,435,0,0,0,0,0,0,0,0,0,-1,643,589,0,0
-574,435,0,0,0,0,0,0,0,0,0,-1,650,589,0,0
-567,435,0,0,0,0,0,0,0,0,0,-1,657,589,0,0
-560,435,0,0,0,0,0,0,0,0,0,-1,664,589,0,0
-553,435,0,0,0,0,0,0,0,0,0,-1,671,589,0,0
-546,435,0,0,0,0,0,0,0,0,0,-1,678,589,0,0
-539,435,0,0,0,0,0,0,0,0,0,-1,685,589,0,0
-532,435,0,0,0,0,0,0,0,0,0,-1,692,589,0,0
-525,435,-10.0776,10.0547,0,0,0,0,0,0,0,-1,699,589,-10.0776,-10.0547
-518,435,-1.83093,-5.82367,0,0,0,0,0,0,0,-1,706,589,-1.83093,5.8237
-511,435,-2.45154,-5.33118,0,0,0,0,0,0,0,-1,713,589,-2.45151,5.33115
-504,435,-3.07208,-4.83862,0,0,0,0,0,0,0,-1,720,589,-3.0721,4.8386
-497,435,-6.31012,-5.84698,0,0,0,0,0,0,0,-1,727,589,-6.31012,5.84697
-490,435,-5.81903,-0.458679,0,0,0,0,0,0,0,-1,734,589,-5.81902,0.458684
-483,435,-6.96503,-3.01624,0,0,0,0,0,0,0,-1,741,589,-6.96505,3.01623
-476,435,-7.5686,-7.80115,0,0,0,0,0,0,0,-1,748,589,-7.56859,7.80114
-469,435,-7.39612,-8.44446,0,0,0,0,0,0,0,-1,755,589,-7.39611,8.44448
-462,435,-7.44672,-9.01953,0,0,0,0,0,0,0,-1,762,589,-7.44673,9.01952
-455,435,-7.4657,-9.80743,0.00061462,0.00383082,-0.00157758,0.00447544,-3.00012e-05,-1.18289,0.00299367,0.0226525,769,589,-7.46568,9.80744
-448,435,-7.45459,-10.4575,0.000531578,0.00328409,-0.00139185,0.00386521,-4.95478e-05,-1.17528,0.00259348,0.0135395,776,589,-7.45457,10.4575
-441,435,-7.46655,-11.0264,0.000382339,0.00247029,-0.000953597,0.00284026,1.23731e-05,-1.2007,0.0018894,0.0113439,783,589,-7.46656,11.0263
-434,435,-7.48669,-11.5732,0.000205078,0.00168822,-0.000445551,0.00181177,8.15229e-05,-1.30028,0.00118161,0.0124457,790,589,-7.48669,11.5732
-427,435,-7.52405,-12.1665,1.54896e-06,0.000822378,0.000120487,0.000839698,-1.57715e-05,1.42802,0.000565129,0.00984008,797,589,-7.52402,12.1665
-420,435,-7.54297,-12.7133,-0.000117827,-1.32971e-05,0.000679496,0.000615941,-0.000747065,0.823781,0.000788145,0.00996848,804,589,-7.54299,12.7133
-413,435,-7.56696,-13.285,-0.00025612,-0.000986189,0.00135466,0.00078183,-0.00202414,0.653792,0.00167212,0.0110104,811,589,-7.56697,13.285
-406,435,-7.59143,-13.855,-0.000351268,-0.00195411,0.00204882,0.0010473,-0.00335268,0.598966,0.00265402,0.0116171,818,589,-7.59141,13.855
-399,435,-7.60828,-14.3756,-0.000240497,-0.00280462,0.00261,0.00138533,-0.00443044,0.557103,0.0035078,0.00977296,825,589,-7.60826,14.3756
-392,435,-7.6283,-14.9069,9.96865e-05,-0.00356767,0.003057,0.00183078,-0.00529876,0.515251,0.00427549,0.00969474,832,589,-7.62827,14.9069
-385,435,-7.62445,-15.4515,0.000570315,-0.00412387,0.00338863,0.00234531,-0.00589887,0.482514,0.00490496,0.0188441,839,589,-7.62446,15.4516
-378,435,-7.65997,-15.9158,0.00106241,-0.00474602,0.00377782,0.00292331,-0.00660692,0.4577,0.00563763,0.0416513,846,589,-7.65997,15.9157
-371,435,-7.90753,-16.4595,0,0,0,0,0,0,0,-1,853,589,-7.90755,16.4595
-364,435,-5.62848,-11.5937,0,0,0,0,0,0,0,-1,860,589,-5.62847,11.5937
-357,435,-5.57343,-10.9666,0,0,0,0,0,0,0,-1,867,589,-5.57342,10.9666
-350,435,-0.86676,-3.69836,0,0,0,0,0,0,0,-1,874,589,-0.866784,3.69834
-343,435,-1.60706,-2.36835,0,0,0,0,0,0,0,-1,881,589,-1.60706,2.36838
-336,435,-2.07263,-1.94012,0,0,0,0,0,0,0,-1,888,589,-2.07265,1.94014
-329,435,-2.55963,-1.5517,0,0,0,0,0,0,0,-1,895,589,-2.5596,1.55168
-322,435,-3.08545,-1.55255,0,0,0,0,0,0,0,-1,902,589,-3.08544,1.55254
-315,435,-0.404297,-2.63763,0,0,0,0,0,0,0,-1,909,589,-0.404276,2.63761
-308,435,-1.70056,-1.90369,0,0,0,0,0,0,0,-1,916,589,-1.70056,1.90367
-301,435,-1.25232,-2.05511,0,0,0,0,0,0,0,-1,923,589,-1.25234,2.05514
-294,435,-1.79974,-1.97321,0,0,0,0,0,0,0,-1,930,589,-1.79973,1.97322
-287,435,0,0,0,0,0,0,0,0,0,-1,937,589,0,0
-280,435,0,0,0,0,0,0,0,0,0,-1,944,589,0,0
-273,435,0,0,0,0,0,0,0,0,0,-1,951,589,0,0
-266,435,0,0,0,0,0,0,0,0,0,-1,958,589,0,0
-259,435,0,0,0,0,0,0,0,0,0,-1,965,589,0,0
-252,435,0,0,0,0,0,0,0,0,0,-1,972,589,0,0
-245,435,0,0,0,0,0,0,0,0,0,-1,979,589,0,0
-238,435,0,0,0,0,0,0,0,0,0,-1,986,589,0,0
-231,435,0,0,0,0,0,0,0,0,0,-1,993,589,0,0
-224,435,0,0,0,0,0,0,0,0,0,-1,1000,589,0,0
-217,435,0,0,0,0,0,0,0,0,0,-1,1007,589,0,0
-210,435,0,0,0,0,0,0,0,0,0,-1,1014,589,0,0
-203,435,0,0,0,0,0,0,0,0,0,-1,1021,589,0,0
-196,435,0,0,0,0,0,0,0,0,0,-1,1028,589,0,0
-189,435,0,0,0,0,0,0,0,0,0,-1,1035,589,0,0
-182,435,0,0,0,0,0,0,0,0,0,-1,1042,589,0,0
-175,435,0,0,0,0,0,0,0,0,0,-1,1049,589,0,0
-168,435,0,0,0,0,0,0,0,0,0,-1,1056,589,0,0
-161,435,0,0,0,0,0,0,0,0,0,-1,1063,589,0,0
-154,435,0,0,0,0,0,0,0,0,0,-1,1070,589,0,0
-147,435,0,0,0,0,0,0,0,0,0,-1,1077,589,0,0
-140,435,0,0,0,0,0,0,0,0,0,-1,1084,589,0,0
-133,435,0,0,0,0,0,0,0,0,0,-1,1091,589,0,0
-126,435,0,0,0,0,0,0,0,0,0,-1,1098,589,0,0
-119,435,0,0,0,0,0,0,0,0,0,-1,1105,589,0,0
-112,435,0,0,0,0,0,0,0,0,0,-1,1112,589,0,0
-105,435,0,0,0,0,0,0,0,0,0,-1,1119,589,0,0
-98,435,0,0,0,0,0,0,0,0,0,-1,1126,589,0,0
-91,435,0,0,0,0,0,0,0,0,0,-1,1133,589,0,0
-84,435,0,0,0,0,0,0,0,0,0,-1,1140,589,0,0
-77,435,0,0,0,0,0,0,0,0,0,-1,1147,589,0,0
-70,435,0,0,0,0,0,0,0,0,0,-1,1154,589,0,0
-63,435,0,0,0,0,0,0,0,0,0,-1,1161,589,0,0
-56,435,0,0,0,0,0,0,0,0,0,-1,1168,589,0,0
-49,435,0,0,0,0,0,0,0,0,0,-1,1175,589,0,0
-42,435,0,0,0,0,0,0,0,0,0,-1,1182,589,0,0
-35,435,0,0,0,0,0,0,0,0,0,-1,1189,589,0,0
-28,435,0,0,0,0,0,0,0,0,0,-1,1196,589,0,0
-21,435,0,0,0,0,0,0,0,0,0,-1,1203,589,0,0
-14,435,0,0,0,0,0,0,0,0,0,-1,1210,589,0,0
-7,435,0,0,0,0,0,0,0,0,0,-1,1217,589,0,0
0,435,0,0,0,0,0,0,0,0,0,-1,1224,589,0,0
7,435,0,0,0,0,0,0,0,0,0,-1,1231,589,0,0
14,435,0,0,0,0,0,0,0,0,0,-1,1238,589,0,0
21,435,0,0,0,0,0,0,0,0,0,-1,1245,589,0,0
28,435,0,0,0,0,0,0,0,0,0,-1,1252,589,0,0
35,435,0,0,0,0,0,0,0,0,0,-1,1259,589,0,0
42,435,0,0,0,0,0,0,0,0,0,-1,1266,589,0,0
49,435,0,0,0,0,0,0,0,0,0,-1,1273,589,0,0
56,435,0,0,0,0,0,0,0,0,0,-1,1280,589,0,0
63,435,0,0,0,0,0,0,0,0,0,-1,1287,589,0,0
70,435,0,0,0,0,0,0,0,0,0,-1,1294,589,0,0
77,435,0,0,0,0,0,0,0,0,0,-1,1301,589,0,0
84,435,0,0,0,0,0,0,0,0,0,-1,1308,589,0,0
91,435,0,0,0,0,0,0,0,0,0,-1,1315,589,0,0
98,435,0,0,0,0,0,0,0,0,0,-1,1322,589,0,0
105,435,0,0,0,0,0,0,0,0,0,-1,1329,589,0,0
112,435,0,0,0,0,0,0,0,0,0,-1,1336,589,0,0
119,435,0,0,0,0,0,0,0,0,0,-1,1343,589,0,0
126,435,0,0,0,0,0,0,0,0,0,-1,1350,589,0,0
133,435,0,0,0,0,0,0,0,0,0,-1,1357,589,0,0
140,435,0,0,0,0,0,0,0,0,0,-1,1364,589,0,0
147,435,0,0,0,0,0,0,0,0,0,-1,1371,589,0,0
154,435,0,0,0,0,0,0,0,0,0,-1,1378,589,0,0
161,435,0,0,0,0,0,0,0,0,0,-1,1385,589,0,0
168,435,0,0,0,0,0,0,0,0,0,-1,1392,589,0,0
175,435,0,0,0,0,0,0,0,0,0,-1,1399,589,0,0
182,435,0,0,0,0,0,0,0,0,0,-1,1406,589,0,0
189,435,0,0,0,0,0,0,0,0,0,-1,1413,589,0,0
196,435,0,0,0,0,0,0,0,0,0,-1,1420,589,0,0
203,435,0,0,0,0,0,0,0,0,0,-1,1427,589,0,0
210,435,0,0,0,0,0,0,0,0,0,-1,1434,589,0,0
217,435,0,0,0,0,0,0,0,0,0,-1,1441,589,0,0
224,435,0,0,0,0,0,0,0,0,0,-1,1448,589,0,0
231,435,0,0,0,0,0,0,0,0,0,-1,1455,589,0,0
238,435,0,0,0,0,0,0,0,0,0,-1,1462,589,0,0
245,435,0,0,0,0,0,0,0,0,0,-1,1469,589,0,0
252,435,0,0,0,0,0,0,0,0,0,-1,1476,589,0,0
259,435,0,0,0,0,0,0,0,0,0,-1,1483,589,0,0
266,435,0,0,0,0,0,0,0,0,0,-1,1490,589,0,0
273,435,0,0,0,0,0,0,0,0,0,-1,1497,589,0,0
280,435,0,0,0,0,0,0,0,0,0,-1,1504,589,0,0
287,435,0,0,0,0,0,0,0,0,0,-1,1511,589,0,0
294,435,0,0,0,0,0,0,0,0,0,-1,1518,589,0,0
301,435,0,0,0,0,0,0,0,0,0,-1,1525,589,0,0
308,435,0,0,0,0,0,0,0,0,0,-1,1532,589,0,0
315,435,0,0,0,0,0,0,0,0,0,-1,1539,589,0,0
322,435,0,0,0,0,0,0,0,0,0,-1,1546,589,0,0
329,435,0,0,0,0,0,0,0,0,0,-1,1553,589,0,0
336,435,0,0,0,0,0,0,0,0,0,-1,1560,589,0,0
343,435,0,0,0,0,0,0,0,0,0,-1,1567,589,0,0
350,435,0,0,0,0,0,0,0,0,0,-1,1574,589,0,0
357,435,0,0,0,0,0,0,0,0,0,-1,1581,589,0,0
364,435,0,0,0,0,0,0,0,0,0,-1,1588,589,0,0
371,435,0,0,0,0,0,0,0,0,0,-1,1595,589,0,0
378,435,0,0,0,0,0,0,0,0,0,-1,1602,589,0,0
385,435,0,0,0,0,0,0,0,0,0,-1,1609,589,0,0
392,435,0,0,0,0,0,0,0,0,0,-1,1616,589,0,0
399,435,0,0,0,0,0,0,0,0,0,-1,1623,589,0,0
406,435,0,0,0,0,0,0,0,0,0,-1,1630,589,0,0
413,435,20.4565,3.49835,0,0,0,0,0,0,0,-1,1637,589,20.4565,-3.49836
420,435,21.4015,1.49609,0,0,0,0,0,0,0,-1,1644,589,21.4015,-1.49609
427,435,22.0464,-0.373962,0,0,0,0,0,0,0,-1,1651,589,22.0464,0.373972
434,435,22.1863,-1.54407,0,0,0,0,0,0,0,-1,1658,589,22.1862,1.54405
441,435,22.3992,-2.38287,0,0,0,0,0,0,0,-1,1665,589,22.3992,2.38289
448,435,7.4585,-0.00292969,0,0,0,0,0,0,0,-1,1672,589,7.45848,0.00294131
455,435,5.49915,-5.047,0,0,0,0,0,0,0,-1,1679,589,5.49914,5.04703
462,435,5.60669,-4.71466,0,0,0,0,0,0,0,-1,1686,589,5.60675,4.71469
469,435,5.87708,1.22351,0,0,0,0,0,0,0,-1,1693,589,5.87703,-1.22351
476,435,6.14136,1.37714,0,0,0,0,0,0,0,-1,1700,589,6.14138,-1.37712
483,435,6.49243,1.36169,0,0,0,0,0,0,0,-1,1707,589,6.49242,-1.36171
490,435,4.38391,-1.36218,0,0,0,0,0,0,0,-1,1714,589,4.38389,1.3622
497,435,7.23499,-3.64551,0,0,0,0,0,0,0,-1,1721,589,7.23495,3.64551
504,435,7.31189,-3.75909,0,0,0,0,0,0,0,-1,1728,589,7.31184,3.75911
511,435,17.7102,-14.2395,0,0,0,0,0,0,0,-1,1735,589,17.7102,14.2395
518,435,17.7863,-13.5784,0.00388289,0.00305869,0.00228825,0.00579586,0.00114573,0.696307,0.00354427,0.0273983,1742,589,17.7862,13.5784
525,435,17.7275,-12.9761,0.00338198,0.00266076,0.00209685,0.005149,0.000893736,0.700244,0.00317694,0.0125881,1749,589,17.7275,12.9761
532,435,17.7177,-12.3704,0.00277378,0.00214926,0.00177337,0.00426218,0.000660869,0.69825,0.00264879,0.0146416,1756,589,17.7177,12.3704
539,435,17.7311,-11.7792,0.00229962,0.00176059,0.00155,0.00360337,0.000456845,0.699319,0.00226537,0.0160135,1763,589,17.7311,11.7792
546,435,17.7074,-11.2198,0.00190008,0.00144298,0.00133155,0.00302255,0.000320512,0.700405,0.00191715,0.0151206,1770,589,17.7074,11.2198
553,435,17.683,-10.666,0.00150932,0.00113233,0.00111984,0.00245642,0.000185225,0.702017,0.0015795,0.0109641,1777,589,17.683,10.666
560,435,17.6418,-10.0889,0.0011266,0.000961506,0.000952052,0.00199968,8.84316e-05,0.742153,0.00130464,0.00932605,1784,589,17.6418,10.0889
567,435,17.6318,-9.48169,0.000879293,0.000931938,0.000922595,0.00182859,-1.73554e-05,0.79966,0.00122488,0.00851918,1791,589,17.6319,9.48166
574,435,17.6049,-8.89459,0.000763529,0.00100483,0.000978325,0.00186992,-0.000101554,0.846751,0.00128181,0.00974558,1798,589,17.6048,8.89461
581,435,17.5862,-8.29401,0.000779881,0.00118327,0.00116139,0.00216035,-0.000197203,0.871373,0.00151027,0.0161684,1805,589,17.5861,8.29401
588,435,17.5837,-7.73999,0.00118293,0.001594,0.00160466,0.00300623,-0.000229303,0.849094,0.0020848,0.0411,1812,589,17.5837,7.74001
595,435,17.6412,-6.93097,0,0,0,0,0,0,0,-1,1819,589,17.6412,6.93098
602,435,16.8671,-6.39026,0,0,0,0,0,0,0,-1,1826,589,16.867,6.39024
609,435,15.2611,-3.42242,0,0,0,0,0,0,0,-1,1833,589,15.2611,3.42242
616,435,5.05151,-2.75269,0,0,0,0,0,0,0,-1,1840,589,5.05157,2.7527
623,435,11.7588,3.9704,0,0,0,0,0,0,0,-1,1847,589,11.7587,-3.97043
630,435,4.72742,-0.87561,0,0,0,0,0,0,0,-1,1854,589,4.7274,0.875636
637,435,5.05286,1.48792,0,0,0,0,0,0,0,-1,1861,589,5.05291,-1.48792
644,435,0,0,0,0,0,0,0,0,0,-1,1868,589,0,0
651,435,0,0,0,0,0,0,0,0,0,-1,1875,589,0,0
658,435,0,0,0,0,0,0,0,0,0,-1,1882,589,0,0
665,435,0,0,0,0,0,0,0,0,0,-1,1889,589,0,0
672,435,0,0,0,0,0,0,0,0,0,-1,1896,589,0,0
679,435,0,0,0,0,0,0,0,0,0,-1,1903,589,0,0
686,435,0,0,0,0,0,0,0,0,0,-1,1910,589,0,0
693,435,0,0,0,0,0,0,0,0,0,-1,1917,589,0,0
700,435,0,0,0,0,0,0,0,0,0,-1,1924,589,0,0
707,435,0,0,0,0,0,0,0,0,0,-1,1931,589,0,0
714,435,0,0,0,0,0,0,0,0,0,-1,1938,589,0,0
721,435,0,0,0,0,0,0,0,0,0,-1,1945,589,0,0
728,435,0,0,0,0,0,0,0,0,0,-1,1952,589,0,0
735,435,0,0,0,0,0,0,0,0,0,-1,1959,589,0,0
742,435,0,0,0,0,0,0,0,0,0,-1,1966,589,0,0
749,435,0,0,0,0,0,0,0,0,0,-1,1973,589,0,0
756,435,0,0,0,0,0,0,0,0,0,-1,1980,589,0,0
763,435,0,0,0,0,0,0,0,0,0,-1,1987,589,0,0
770,435,0,0,0,0,0,0,0,0,0,-1,1994,589,0,0
777,435,0,0,0,0,0,0,0,0,0,-1,2001,589,0,0
784,435,0,0,0,0,0,0,0,0,0,-1,2008,589,0,0
791,435,0,0,0,0,0,0,0,0,0,-1,2015,589,0,0
798,435,0,0,0,0,0,0,0,0,0,-1,2022,589,0,0
805,435,0,0,0,0,0,0,0,0,0,-1,2029,589,0,0
812,435,0,0,0,0,0,0,0,0,0,-1,2036,589,0,0
-700,428,0,0,0,0,0,0,0,0,0,-1,524,596,0,0
-693,428,0,0,0,0,0,0,0,0,0,-1,531,596,0,0
-686,428,0,0,0,0,0,0,0,0,0,-1,538,596,0,0
-679,428,0,0,0,0,0,0,0,0,0,-1,545,596,0,0
-672,428,0,0,0,0,0,0,0,0,0,-1,552,596,0,0
-665,428,0,0,0,0,0,0,0,0,0,-1,559,596,0,0
-658,428,0,0,0,0,0,0,0,0,0,-1,566,596,0,0
-651,428,0,0,0,0,0,0,0,0,0,-1,573,596,0,0
-644,428,0,0,0,0,0,0,0,0,0,-1,580,596,0,0
-637,428,0,0,0,0,0,0,0,0,0,-1,587,596,0,0
-630,428,0,0,0,0,0,0,0,0,0,-1,594,596,0,0
-623,428,0,0,0,0,0,0,0,0,0,-1,601,596,0,0
-616,428,0,0,0,0,0,0,0,0,0,-1,608,596,0,0
-609,428,0,0,0,0,0,0,0,0,0,-1,615,596,0,0
-602,428,0,0,0,0,0,0,0,0,0,-1,622,596,0,0
-595,428,0,0,0,0,0,0,0,0,0,-1,629,596,0,0
-588,428,0,0,0,0,0,0,0,0,0,-1,636,596,0,0
-581,428,0,0,0,0,0,0,0,0,0,-1,643,596,0,0
-574,428,0,0,0,0,0,0,0,0,0,-1,650,596,0,0
-567,428,0,0,0,0,0,0,0,0,0,-1,657,596,0,0
-560,428,0,0,0,0,0,0,0,0,0,-1,664,596,0,0
-553,428,0,0,0,0,0,0,0,0,0,-1,671,596,0,0
-546,428,0,0,0,0,0,0,0,0,0,-1,678,596,0,0
-539,428,0,0,0,0,0,0,0,0,0,-1,685,596,0,0
-532,428,0,0,0,0,0,0,0,0,0,-1,692,596,0,0
-525,428,-9.59918,7.58618,0,0,0,0,0,0,0,-1,699,596,-9.59918,-7.5862
-518,428,-2.92285,-4.81854,0,0,0,0,0,0,0,-1,706,596,-2.92285,4.81856
-511,428,-3.68811,-4.79474,0,0,0,0,0,0,0,-1,713,596,-3.68811,4.79474
-504,428,-4.45337,-4.77094,0,0,0,0,0,0,0,-1,720,596,-4.45337,4.77092
-497,428,-2.98108,-3.77502,0,0,0,0,0,0,0,-1,727,596,-2.98106,3.77505
-490,428,-6.39044,-2.80481,0,0,0,0,0,0,0,-1,734,596,-6.39047,2.80483
-483,428,-8.01685,-6.95386,0,0,0,0,0,0,0,-1,741,596,-8.01687,6.95387
-476,428,-7.87915,-8.25684,0,0,0,0,0,0,0,-1,748,596,-7.87917,8.25686
-469,428,-7.86456,-8.62646,-0.000251739,0.00338007,-0.000629895,0.00348622,-0.000357884,-1.40385,0.00245216,0.0255564,755,596,-7.86455,8.62647
-462,428,-7.9519,-9.16467,0.000270135,0.00300209,-0.00091141,0.00327823,-6.00959e-06,-1.2766,0.00218749,0.0262109,762,596,-7.95193,9.16466
-455,428,-8.0188,-9.81525,0.000632171,0.00287136,-0.00118815,0.00338431,0.000119223,-1.16325,0.00221753,0.015123,769,596,-8.01879,9.81525
-448,428,-8.03906,-10.409,0.000555575,0.00227739,-0.000936428,0.00268851,0.000144453,-1.1571,0.00174618,0.0114652,776,596,-8.03907,10.409
-441,428,-8.05109,-10.9935,0.000361721,0.00143489,-0.0004345,0.00158875,0.000207861,-1.23047,0.000997127,0.0137351,783,596,-8.05108,10.9935
-434,428,-8.06085,-11.5757,0.000104156,0.00063158,0.000158475,0.000675534,6.02023e-05,1.30024,0.00043169,0.0105155,790,596,-8.06086,11.5757
-427,428,-8.07623,-12.1512,-0.000198509,-0.000287168,0.000826131,0.000584481,-0.00107016,0.758594,0.000968927,0.0109603,797,596,-8.07625,12.1512
-420,428,-8.09039,-12.6757,-0.000443096,-0.00119497,0.00151161,0.000738626,-0.00237669,0.663521,0.00187968,0.0116639,804,596,-8.09039,12.6757
-413,428,-8.11566,-13.2324,-0.0007474,-0.0022696,0.00235349,0.000964992,-0.003982,0.629009,0.00302802,0.0148756,811,596,-8.11566,13.2323
-406,428,-8.14362,-13.7867,-0.00103048,-0.00334659,0.00321916,0.00123258,-0.00560966,0.612736,0.0042112,0.0177706,818,596,-8.14361,13.7867
-399,428,-8.15497,-14.3387,-0.00107732,-0.004385,0.00393752,0.00153958,-0.0070019,0.586575,0.00525682,0.0156526,825,596,-8.15495,14.3387
-392,428,-8.14819,-14.9252,-0.000890547,-0.0053069,0.00455074,0.00195947,-0.00815691,0.559516,0.00619527,0.0253396,832,596,-8.14821,14.9252
-385,428,-8.1947,-15.5869,0,0,0,0,0,0,0,-1,839,596,-8.1947,15.5869
-378,428,-8.34528,-15.8725,0,0,0,0,0,0,0,-1,846,596,-8.34525,15.8725
-371,428,-5.96155,-11.0703,0,0,0,0,0,0,0,-1,853,596,-5.96154,11.0702
-364,428,-6.33643,-10.7223,0,0,0,0,0,0,0,-1,860,596,-6.33645,10.7223
-357,428,-3.20996,-4.70966,0,0,0,0,0,0,0,-1,867,596,-3.20997,4.70965
-350,428,-1.62793,-3.94055,0,0,0,0,0,0,0,-1,874,596,-1.62794,3.94055
-343,428,-0.0567017,-4.80994,0,0,0,0,0,0,0,-1,881,596,-0.0567096,4.80996
-336,428,-3.29175,-1.39569,0,0,0,0,0,0,0,-1,888,596,-3.29172,1.39568
-329,428,-3.71564,-0.791321,0,0,0,0,0,0,0,-1,895,596,-3.71564,0.791299
-322,428,-5.52863,-3.59827,0,0,0,0,0,0,0,-1,902,596,-5.52865,3.59829
-315,428,-4.57172,-1.22052,0,0,0,0,0,0,0,-1,909,596,-4.57171,1.22052
-308,428,-5.94324,-0.810791,0,0,0,0,0,0,0,-1,916,596,-5.94321,0.810803
-301,428,0,0,0,0,0,0,0,0,0,-1,923,596,0,0
-294,428,0,0,0,0,0,0,0,0,0,-1,930,596,0,0
-287,428,0,0,0,0,0,0,0,0,0,-1,937,596,0,0
-280,428,0,0,0,0,0,0,0,0,0,-1,944,596,0,0
-273,428,0,0,0,0,0,0,0,0,0,-1,951,596,0,0
-266,428,0,0,0,0,0,0,0,0,0,-1,958,596,0,0
-259,428,0,0,0,0,0,0,0,0,0,-1,965,596,0,0
-252,428,0,0,0,0,0,0,0,0,0,-1,972,596,0,0
-245,428,0,0,0,0,0,0,0,0,0,-1,979,596,0,0
-238,428,0,0,0,0,0,0,0,0,0,-1,986,596,0,0
-231,428,0,0,0,0,0,0,0,0,0,-1,993,596,0,0
-224,428,0,0,0,0,0,0,0,0,0,-1,1000,596,0,0
-217,428,0,0,0,0,0,0,0,0,0,-1,1007,596,0,0
-210,428,0,0,0,0,0,0,0,0,0,-1,1014,596,0,0
-203,428,0,0,0,0,0,0,0,0,0,-1,1021,596,0,0
-196,428,0,0,0,0,0,0,0,0,0,-1,1028,596,0,0
-189,428,0,0,0,0,0,0,0,0,0,-1,1035,596,0,0
-182,428,0,0,0,0,0,0,0,0,0,-1,1042,596,0,0
-175,428,0,0,0,0,0,0,0,0,0,-1,1049,596,0,0
-168,428,0,0,0,0,0,0,0,0,0,-1,1056,596,0,0
-161,428,0,0,0,0,0,0,0,0,0,-1,1063,596,0,0
-154,428,0,0,0,0,0,0,0,0,0,-1,1070,596,0,0
-147,428,0,0,0,0,0,0,0,0,0,-1,1077,596,0,0
-140,428,0,0,0,0,0,0,0,0,0,-1,1084,596,0,0
-133,428,0,0,0,0,0,0,0,0,0,-1,1091,596,0,0
-126,428,0,0,0,0,0,0,0,0,0,-1,1098,596,0,0
-119,428,0,0,0,0,0,0,0,0,0,-1,1105,596,0,0
-112,428,0,0,0,0,0,0,0,0,0,-1,1112,596,0,0
-105,428,0,0,0,0,0,0,0,0,0,-1,1119,596,0,0
-98,428,0,0,0,0,0,0,0,0,0,-1,1126,596,0,0
-91,428,0,0,0,0,0,0,0,0,0,-1,1133,596,0,0
-84,428,0,0,0,0,0,0,0,0,0,-1,1140,596,0,0
-77,428,0,0,0,0,0,0,0,0,0,-1,1147,596,0,0
-70,428,0,0,0,0,0,0,0,0,0,-1,1154,596,0,0
-63,428,0,0,0,0,0,0,0,0,0,-1,1161,596,0,0
-56,428,0,0,0,0,0,0,0,0,0,-1,1168,596,0,0
-49,428,0,0,0,0,0,0,0,0,0,-1,1175,596,0,0
-42,428,0,0,0,0,0,0,0,0,0,-1,1182,596,0,0
-35,428,0,0,0,0,0,0,0,0,0,-1,1189,596,0,0
-28,428,0,0,0,0,0,0,0,0,0,-1,1196,596,0,0
-21,428,0,0,0,0,0,0,0,0,0,-1,1203,596,0,0
-14,428,0,0,0,0,0,0,0,0,0,-1,1210,596,0,0
-7,428,0,0,0,0,0,0,0,0,0,-1,1217,596,0,0
0,428,0,0,0,0,0,0,0,0,0,-1,1224,596,0,0
7,428,0,0,0,0,0,0,0,0,0,-1,1231,596,0,0
14,428,0,0,0,0,0,0,0,0,0,-1,1238,596,0,0
21,428,0,0,0,0,0,0,0,0,0,-1,1245,596,0,0
28,428,0,0,0,0,0,0,0,0,0,-1,1252,596,0,0
35,428,0,0,0,0,0,0,0,0,0,-1,1259,596,0,0
42,428,0,0,0,0,0,0,0,0,0,-1,1266,596,0,0
49,428,0,0,0,0,0,0,0,0,0,-1,1273,596,0,0
56,428,0,0,0,0,0,0,0,0,0,-1,1280,596,0,0
63,428,0,0,0,0,0,0,0,0,0,-1,1287,596,0,0
70,428,0,0,0,0,0,0,0,0,0,-1,1294,596,0,0
77,428,0,0,0,0,0,0,0,0,0,-1,1301,596,0,0
84,428,0,0,0,0,0,0,0,0,0,-1,1308,596,0,0
91,428,0,0,0,0,0,0,0,0,0,-1,1315,596,0,0
98,428,0,0,0,0,0,0,0,0,0,-1,1322,596,0,0
105,428,0,0,0,0,0,0,0,0,0,-1,1329,596,0,0
112,428,0,0,0,0,0,0,0,0,0,-1,1336,596,0,0
119,428,0,0,0,0,0,0,0,0,0,-1,1343,596,0,0
126,428,0,0,0,0,0,0,0,0,0,-1,1350,596,0,0
133,428,0,0,0,0,0,0,0,0,0,-1,1357,596,0,0
140,428,0,0,0,0,0,0,0,0,0,-1,1364,596,0,0
147,428,0,0,0,0,0,0,0,0,0,-1,1371,596,0,0
154,428,0,0,0,0,0,0,0,0,0,-1,1378,596,0,0
161,428,0,0,0,0,0,0,0,0,0,-1,1385,596,0,0
168,428,0,0,0,0,0,0,0,0,0,-1,1392,596,0,0
175,428,0,0,0,0,0,0,0,0,0,-1,1399,596,0,0
182,428,0,0,0,0,0,0,0,0,0,-1,1406,596,0,0
189,428,0,0,0,0,0,0,0,0,0,-1,1413,596,0,0
196,428,0,0,0,0,0,0,0,0,0,-1,1420,596,0,0
203,428,0,0,0,0,0,0,0,0,0,-1,1427,596,0,0
210,428,0,0,0,0,0,0,0,0,0,-1,1434,596,0,0
217,428,0,0,0,0,0,0,0,0,0,-1,1441,596,0,0
224,428,0,0,0,0,0,0,0,0,0,-1,1448,596,0,0
231,428,0,0,0,0,0,0,0,0,0,-1,1455,596,0,0
238,428,0,0,0,0,0,0,0,0,0,-1,1462,596,0,0
245,428,0,0,0,0,0,0,0,0,0,-1,1469,596,0,0
252,428,0,0,0,0,0,0,0,0,0,-1,1476,596,0,0
259,428,0,0,0,0,0,0,0,0,0,-1,1483,596,0,0
266,428,0,0,0,0,0,0,0,0,0,-1,1490,596,0,0
273,428,0,0,0,0,0,0,0,0,0,-1,1497,596,0,0
280,428,0,0,0,0,0,0,0,0,0,-1,1504,596,0,0
287,428,0,0,0,0,0,0,0,0,0,-1,1511,596,0,0
294,428,0,0,0,0,0,0,0,0,0,-1,1518,596,0,0
301,428,0,0,0,0,0,0,0,0,0,-1,1525,596,0,0
308,428,0,0,0,0,0,0,0,0,0,-1,1532,596,0,0
315,428,0,0,0,0,0,0,0,0,0,-1,1539,596,0,0
322,428,0,0,0,0,0,0,0,0,0,-1,1546,596,0,0
329,428,0,0,0,0,0,0,0,0,0,-1,1553,596,0,0
336,428,0,0,0,0,0,0,0,0,0,-1,1560,596,0,0
343,428,0,0,0,0,0,0,0,0,0,-1,1567,596,0,0
350,428,0,0,0,0,0,0,0,0,0,-1,1574,596,0,0
357,428,0,0,0,0,0,0,0,0,0,-1,1581,596,0,0
364,428,0,0,0,0,0,0,0,0,0,-1,1588,596,0,0
371,428,0,0,0,0,0,0,0,0,0,-1,1595,596,0,0
378,428,0,0,0,0,0,0,0,0,0,-1,1602,596,0,0
385,428,0,0,0,0,0,0,0,0,0,-1,1609,596,0,0
392,428,0,0,0,0,0,0,0,0,0,-1,1616,596,0,0
399,428,0,0,0,0,0,0,0,0,0,-1,1623,596,0,0
406,428,0,0,0,0,0,0,0,0,0,-1,1630,596,0,0
413,428,0,0,0,0,0,0,0,0,0,-1,1637,596,0,0
420,428,19.8469,1.3399,0,0,0,0,0,0,0,-1,1644,596,19.8469,-1.33992
427,428,20.7299,-0.225281,0,0,0,0,0,0,0,-1,1651,596,20.7299,0.225262
434,428,19.8915,-0.583069,0,0,0,0,0,0,0,-1,1658,596,19.8915,0.583075
441,428,8.17993,0.607483,0,0,0,0,0,0,0,-1,1665,596,8.17997,-0.607513
448,428,7.84338,-0.385986,0,0,0,0,0,0,0,-1,1672,596,7.84336,0.385978
455,428,6.64038,2.1123,0,0,0,0,0,0,0,-1,1679,596,6.64037,-2.11229
462,428,4.84106,4.12341,0,0,0,0,0,0,0,-1,1686,596,4.84107,-4.12339
469,428,7.83789,3.10083,0,0,0,0,0,0,0,-1,1693,596,7.83785,-3.10086
476,428,7.61255,1.73956,0,0,0,0,0,0,0,-1,1700,596,7.61252,-1.73958
483,428,7.22766,1.05121,0,0,0,0,0,0,0,-1,1707,596,7.2277,-1.05121
490,428,5.4071,-3.2793,0,0,0,0,0,0,0,-1,1714,596,5.40707,3.27929
497,428,7.84106,-3.65491,0,0,0,0,0,0,0,-1,1721,596,7.84107,3.65491
504,428,6.92139,-2.83356,0,0,0,0,0,0,0,-1,1728,596,6.92137,2.83353
511,428,7.88501,-3.78723,0,0,0,0,0,0,0,-1,1735,596,7.88502,3.78722
518,428,18.3073,-13.6211,0,0,0,0,0,0,0,-1,1742,596,18.3072,13.6211
525,428,18.2667,-12.9319,0,0,0,0,0,0,0,-1,1749,596,18.2668,12.9319
532,428,18.2604,-12.3136,0.00379903,0.00252873,0.00220972,0.00546307,0.000864688,0.645454,0.00339077,0.0223129,1756,596,18.2604,12.3136
539,428,18.3137,-11.7324,0.00321444,0.00206398,0.00186168,0.00458773,0.000690685,0.635558,0.00285623,0.021659,1763,596,18.3137,11.7324
546,428,18.2806,-11.1987,0.0027049,0.00165145,0.00154817,0.00381349,0.000542858,0.621429,0.00238208,0.0156135,1770,596,18.2807,11.1987
553,428,18.2512,-10.631,0.00221332,0.00127667,0.00126409,0.00309305,0.000396938,0.607995,0.00194328,0.0106711,1777,596,18.2512,10.631
560,428,18.2325,-10.0453,0.00171286,0.0010647,0.0010361,0.00247438,0.000303176,0.633825,0.00155839,0.0118736,1784,596,18.2325,10.0453
567,428,18.2152,-9.46698,0.00132399,0.00100704,0.00095864,0.00213716,0.000193863,0.703483,0.00136475,0.0108077,1791,596,18.2152,9.46699
574,428,18.1932,-8.88416,0.00108159,0.00108181,0.000993194,0.00207489,8.85056e-05,0.785454,0.00135472,0.0123881,1798,596,18.1933,8.88413
581,428,18.157,-8.27545,0.000974749,0.0012938,0.00118352,0.0023285,-5.99516e-05,0.852389,0.0015727,0.0107935,1805,596,18.157,8.27546
588,428,18.1456,-7.66272,0.00113594,0.00177123,0.0016093,0.00309394,-0.000186766,0.882836,0.00212762,0.0161499,1812,596,18.1456,7.6627
595,428,18.104,-7.03998,0.00155119,0.00267403,0.00230591,0.00448588,-0.000260663,0.90481,0.00308116,0.0248735,1819,596,18.104,7.03995
602,428,18.1941,-6.3739,0,0,0,0,0,0,0,-1,1826,596,18.1941,6.37392
609,428,17.2073,-4.82446,0,0,0,0,0,0,0,-1,1833,596,17.2073,4.82447
616,428,15.7817,-3.09558,0,0,0,0,0,0,0,-1,1840,596,15.7817,3.09556
623,428,9.53577,1.12518,0,0,0,0,0,0,0,-1,1847,596,9.5358,-1.1252
630,428,7.07996,6.88562,0,0,0,0,0,0,0,-1,1854,596,7.0799,-6.88565
637,428,3.95435,1.90857,0,0,0,0,0,0,0,-1,1861,596,3.95439,-1.90858
644,428,5.75476,0.888977,0,0,0,0,0,0,0,-1,1868,596,5.75472,-0.888955
651,428,0,0,0,0,0,0,0,0,0,-1,1875,596,0,0
658,428,0,0,0,0,0,0,0,0,0,-1,1882,596,0,0
665,428,0,0,0,0,0,0,0,0,0,-1,1889,596,0,0
672,428,0,0,0,0,0,0,0,0,0,-1,1896,596,0,0
679,428,0,0,0,0,0,0,0,0,0,-1,1903,596,0,0
686,428,0,0,0,0,0,0,0,0,0,-1,1910,596,0,0
693,428,0,0,0,0,0,0,0,0,0,-1,1917,596,0,0
700,428,0,0,0,0,0,0,0,0,0,-1,1924,596,0,0
707,428,0,0,0,0,0,0,0,0,0,-1,1931,596,0,0
714,428,0,0,0,0,0,0,0,0,0,-1,1938,596,0,0
721,428,0,0,0,0,0,0,0,0,0,-1,1945,596,0,0
728,428,0,0,0,0,0,0,0,0,0,-1,1952,596,0,0
735,428,0,0,0,0,0,0,0,0,0,-1,1959,596,0,0
742,428,0,0,0,0,0,0,0,0,0,-1,1966,596,0,0
749,428,0,0,0,0,0,0,0,0,0,-1,1973,596,0,0
756,428,0,0,0,0,0,0,0,0,0,-1,1980,596,0,0
763,428,0,0,0,0,0,0,0,0,0,-1,1987,596,0,0
770,428,0,0,0,0,0,0,0,0,0,-1,1994,596,0,0
777,428,0,0,0,0,0,0,0,0,0,-1,2001,596,0,0
784,428,0,0,0,0,0,0,0,0,0,-1,2008,596,0,0
791,428,0,0,0,0,0,0,0,0,0,-1,2015,596,0,0
798,428,0,0,0,0,0,0,0,0,0,-1,2022,596,0,0
805,428,0,0,0,0,0,0,0,0,0,-1,2029,596,0,0
812,428,0,0,0,0,0,0,0,0,0,-1,2036,596,0,0
-700,421,0,0,0,0,0,0,0,0,0,-1,524,603,0,0
-693,421,0,0,0,0,0,0,0,0,0,-1,531,603,0,0
-686,421,0,0,0,0,0,0,0,0,0,-1,538,603,0,0
-679,421,0,0,0,0,0,0,0,0,0,-1,545,603,0,0
-672,421,0,0,0,0,0,0,0,0,0,-1,552,603,0,0
-665,421,0,0,0,0,0,0,0,0,0,-1,559,603,0,0
-658,421,0,0,0,0,0,0,0,0,0,-1,566,603,0,0
-651,421,0,0,0,0,0,0,0,0,0,-1,573,603,0,0
-644,421,0,0,0,0,0,0,0,0,0,-1,580,603,0,0
-637,421,0,0,0,0,0,0,0,0,0,-1,587,603,0,0
-630,421,0,0,0,0,0,0,0,0,0,-1,594,603,0,0
-623,421,0,0,0,0,0,0,0,0,0,-1,601,603,0,0
-616,421,0,0,0,0,0,0,0,0,0,-1,608,603,0,0
-609,421,0,0,0,0,0,0,0,0,0,-1,615,603,0,0
-602,421,0,0,0,0,0,0,0,0,0,-1,622,603,0,0
-595,421,0,0,0,0,0,0,0,0,0,-1,629,603,0,0
-588,421,0,0,0,0,0,0,0,0,0,-1,636,603,0,0
-581,421,0,0,0,0,0,0,0,0,0,-1,643,603,0,0
-574,421,0,0,0,0,0,0,0,0,0,-1,650,603,0,0
-567,421,0,0,0,0,0,0,0,0,0,-1,657,603,0,0
-560,421,0,0,0,0,0,0,0,0,0,-1,664,603,0,0
-553,421,0,0,0,0,0,0,0,0,0,-1,671,603,0,0
-546,421,0,0,0,0,0,0,0,0,0,-1,678,603,0,0
-539,421,0,0,0,0,0,0,0,0,0,-1,685,603,0,0
-532,421,-8.97382,6.95636,0,0,0,0,0,0,0,-1,692,603,-8.97384,-6.95634
-525,421,-2.11481,-8.04272,0,0,0,0,0,0,0,-1,699,603,-2.11483,8.0427
-518,421,-3.05908,-5.07233,0,0,0,0,0,0,0,-1,706,603,-3.0591,5.07235
-511,421,-4.63525,-4.08447,0,0,0,0,0,0,0,-1,713,603,-4.63524,4.08449
-504,421,-5.17029,-4.94458,0,0,0,0,0,0,0,-1,720,603,-5.17029,4.9446
-497,421,-6.63141,-2.32501,0,0,0,0,0,0,0,-1,727,603,-6.6314,2.32498
-490,421,-6.7616,-4.14783,0,0,0,0,0,0,0,-1,734,603,-6.76159,4.1478
-483,421,-8.39185,-7.74542,0,0,0,0,0,0,0,-1,741,603,-8.39183,7.74543
-476,421,-8.44092,-8.20941,-0.000145745,0.00334387,-0.000562022,0.00343215,-0.000234029,-1.41499,0.00236996,0.0367533,748,603,-8.44094,8.20938
-469,421,-8.53888,-8.61011,2.31435e-05,0.00266411,-0.000659705,0.00281973,-0.000132479,-1.33914,0.0019255,0.0261268,755,603,-8.53888,8.61011
-462,421,-8.55823,-9.26306,0.000380366,0.00220301,-0.000789694,0.00249756,8.58168e-05,-1.21379,0.00163718,0.0203502,762,603,-8.5582,9.26304
-455,421,-8.60864,-9.82825,0.000587502,0.00190756,-0.00086551,0.00233599,0.000159071,-1.11115,0.00150711,0.0189197,769,603,-8.60862,9.82823
-448,421,-8.62372,-10.3915,0.000473206,0.00126101,-0.000518503,0.00151826,0.000215951,-1.11023,0.000948422,0.0189387,776,603,-8.6237,10.3915
-441,421,-8.6236,-10.9799,0.000209043,0.000388045,7.18029e-05,0.000413287,0.000183801,1.23274,0.000239097,0.0149326,783,603,-8.62358,10.9798
-434,421,-8.64673,-11.5629,-0.000151296,-0.000444284,0.000778245,0.000494123,-0.0010897,0.692369,0.000935725,0.0107197,790,603,-8.6467,11.5629
-427,421,-8.64099,-12.1281,-0.000585099,-0.00141974,0.00159147,0.000642859,-0.0026477,0.657173,0.00201392,0.0102086,797,603,-8.64101,12.1281
-420,421,-8.64532,-12.6609,-0.0010101,-0.00242563,0.00247481,0.000856156,-0.00429189,0.646122,0.00318523,0.0116823,804,603,-8.6453,12.6609
-413,421,-8.67291,-13.1888,-0.00155006,-0.00362439,0.00356918,0.00112959,-0.00630404,0.643998,0.00462543,0.0148647,811,603,-8.67293,13.1888
-406,421,-8.7218,-13.7607,-0.00210059,-0.00483115,0.00470243,0.00143074,-0.00836249,0.644115,0.00610802,0.0205937,818,603,-8.72177,13.7607
-399,421,-8.64844,-14.3925,-0.00239976,-0.00610644,0.00569508,0.00173596,-0.0102422,0.628089,0.00747426,0.0292479,825,603,-8.64843,14.3925
-392,421,-8.57123,-14.9896,0,0,0,0,0,0,0,-1,832,603,-8.57121,14.9896
-385,421,-8.80859,-15.2676,0,0,0,0,0,0,0,-1,839,603,-8.80859,15.2676
-378,421,-4.94733,-8.87909,0,0,0,0,0,0,0,-1,846,603,-4.94731,8.87906
-371,421,-5.65082,-7.01849,0,0,0,0,0,0,0,-1,853,603,-5.65082,7.0185
-364,421,-5.94189,-7.09875,0,0,0,0,0,0,0,-1,860,603,-5.94192,7.09878
-357,421,-7.62531,-8.26337,0,0,0,0,0,0,0,-1,867,603,-7.62532,8.26337
-350,421,-5.38019,-3.75024,0,0,0,0,0,0,0,-1,874,603,-5.38017,3.75026
-343,421,-6.22797,-2.57123,0,0,0,0,0,0,0,-1,881,603,-6.22798,2.57121
-336,421,-6.22882,-2.59369,0,0,0,0,0,0,0,-1,888,603,-6.22883,2.5937
-329,421,-4.50134,-1.49469,0,0,0,0,0,0,0,-1,895,603,-4.50137,1.49468
-322,421,-7.55817,1.13263,0,0,0,0,0,0,0,-1,902,603,-7.55818,-1.13263
-315,421,-4.47821,-1.26733,0,0,0,0,0,0,0,-1,909,603,-4.47824,1.26732
-308,421,0,0,0,0,0,0,0,0,0,-1,916,603,0,0
-301,421,0,0,0,0,0,0,0,0,0,-1,923,603,0,0
-294,421,0,0,0,0,0,0,0,0,0,-1,930,603,0,0
-287,421,0,0,0,0,0,0,0,0,0,-1,937,603,0,0
-280,421,0,0,0,0,0,0,0,0,0,-1,944,603,0,0
-273,421,0,0,0,0,0,0,0,0,0,-1,951,603,0,0
-266,421,0,0,0,0,0,0,0,0,0,-1,958,603,0,0
-259,421,0,0,0,0,0,0,0,0,0,-1,965,603,0,0
-252,421,0,0,0,0,0,0,0,0,0,-1,972,603,0,0
-245,421,0,0,0,0,0,0,0,0,0,-1,979,603,0,0
-238,421,0,0,0,0,0,0,0,0,0,-1,986,603,0,0
-231,421,0,0,0,0,0,0,0,0,0,-1,993,603,0,0
-224,421,0,0,0,0,0,0,0,0,0,-1,1000,603,0,0
-217,421,0,0,0,0,0,0,0,0,0,-1,1007,603,0,0
-210,421,0,0,0,0,0,0,0,0,0,-1,1014,603,0,0
-203,421,0,0,0,0,0,0,0,0,0,-1,1021,603,0,0
-196,421,0,0,0,0,0,0,0,0,0,-1,1028,603,0,0
-189,421,0,0,0,0,0,0,0,0,0,-1,1035,603,0,0
-182,421,0,0,0,0,0,0,0,0,0,-1,1042,603,0,0
-175,421,0,0,0,0,0,0,0,0,0,-1,1049,603,0,0
-168,421,0,0,0,0,0,0,0,0,0,-1,1056,603,0,0
-161,421,0,0,0,0,0,0,0,0,0,-1,1063,603,0,0
-154,421,0,0,0,0,0,0,0,0,0,-1,1070,603,0,0
-147,421,0,0,0,0,0,0,0,0,0,-1,1077,603,0,0
-140,421,0,0,0,0,0,0,0,0,0,-1,1084,603,0,0
-133,421,0,0,0,0,0,0,0,0,0,-1,1091,603,0,0
-126,421,0,0,0,0,0,0,0,0,0,-1,1098,603,0,0
-119,421,0,0,0,0,0,0,0,0,0,-1,1105,603,0,0
-112,421,0,0,0,0,0,0,0,0,0,-1,1112,603,0,0
-105,421,0,0,0,0,0,0,0,0,0,-1,1119,603,0,0
-98,421,0,0,0,0,0,0,0,0,0,-1,1126,603,0,0
-91,421,0,0,0,0,0,0,0,0,0,-1,1133,603,0,0
-84,421,0,0,0,0,0,0,0,0,0,-1,1140,603,0,0
-77,421,0,0,0,0,0,0,0,0,0,-1,1147,603,0,0
-70,421,0,0,0,0,0,0,0,0,0,-1,1154,603,0,0
-63,421,0,0,0,0,0,0,0,0,0,-1,1161,603,0,0
-56,421,0,0,0,0,0,0,0,0,0,-1,1168,603,0,0
-49,421,0,0,0,0,0,0,0,0,0,-1,1175,603,0,0
-42,421,0,0,0,0,0,0,0,0,0,-1,1182,603,0,0
-35,421,0,0,0,0,0,0,0,0,0,-1,1189,603,0,0
-28,421,0,0,0,0,0,0,0,0,0,-1,1196,603,0,0
-21,421,0,0,0,0,0,0,0,0,0,-1,1203,603,0,0
-14,421,0,0,0,0,0,0,0,0,0,-1,1210,603,0,0
-7,421,0,0,0,0,0,0,0,0,0,-1,1217,603,0,0
0,421,0,0,0,0,0,0,0,0,0,-1,1224,603,0,0
7,421,0,0,0,0,0,0,0,0,0,-1,1231,603,0,0
14,421,0,0,0,0,0,0,0,0,0,-1,1238,603,0,0
21,421,0,0,0,0,0,0,0,0,0,-1,1245,603,0,0
28,421,0,0,0,0,0,0,0,0,0,-1,1252,603,0,0
35,421,0,0,0,0,0,0,0,0,0,-1,1259,603,0,0
42,421,0,0,0,0,0,0,0,0,0,-1,1266,603,0,0
49,421,0,0,0,0,0,0,0,0,0,-1,1273,603,0,0
56,421,0,0,0,0,0,0,0,0,0,-1,1280,603,0,0
63,421,0,0,0,0,0,0,0,0,0,-1,1287,603,0,0
70,421,0,0,0,0,0,0,0,0,0,-1,1294,603,0,0
77,421,0,0,0,0,0,0,0,0,0,-1,1301,603,0,0
84,421,0,0,0,0,0,0,0,0,0,-1,1308,603,0,0
91,421,0,0,0,0,0,0,0,0,0,-1,1315,603,0,0
98,421,0,0,0,0,0,0,0,0,0,-1,1322,603,0,0
105,421,0,0,0,0,0,0,0,0,0,-1,1329,603,0,0
112,421,0,0,0,0,0,0,0,0,0,-1,1336,603,0,0
119,421,0,0,0,0,0,0,0,0,0,-1,1343,603,0,0
126,421,0,0,0,0,0,0,0,0,0,-1,1350,603,0,0
133,421,0,0,0,0,0,0,0,0,0,-1,1357,603,0,0
140,421,0,0,0,0,0,0,0,0,0,-1,1364,603,0,0
147,421,0,0,0,0,0,0,0,0,0,-1,1371,603,0,0
154,421,0,0,0,0,0,0,0,0,0,-1,1378,603,0,0
161,421,0,0,0,0,0,0,0,0,0,-1,1385,603,0,0
168,421,0,0,0,0,0,0,0,0,0,-1,1392,603,0,0
175,421,0,0,0,0,0,0,0,0,0,-1,1399,603,0,0
182,421,0,0,0,0,0,0,0,0,0,-1,1406,603,0,0
189,421,0,0,0,0,0,0,0,0,0,-1,1413,603,0,0
196,421,0,0,0,0,0,0,0,0,0,-1,1420,603,0,0
203,421,0,0,0,0,0,0,0,0,0,-1,1427,603,0,0
210,421,0,0,0,0,0,0,0,0,0,-1,1434,603,0,0
217,421,0,0,0,0,0,0,0,0,0,-1,1441,603,0,0
224,421,0,0,0,0,0,0,0,0,0,-1,1448,603,0,0
231,421,0,0,0,0,0,0,0,0,0,-1,1455,603,0,0
238,421,0,0,0,0,0,0,0,0,0,-1,1462,603,0,0
245,421,0,0,0,0,0,0,0,0,0,-1,1469,603,0,0
252,421,0,0,0,0,0,0,0,0,0,-1,1476,603,0,0
259,421,0,0,0,0,0,0,0,0,0,-1,1483,603,0,0
266,421,0,0,0,0,0,0,0,0,0,-1,1490,603,0,0
273,421,0,0,0,0,0,0,0,0,0,-1,1497,603,0,0
280,421,0,0,0,0,0,0,0,0,0,-1,1504,603,0,0
287,421,0,0,0,0,0,0,0,0,0,-1,1511,603,0,0
294,421,0,0,0,0,0,0,0,0,0,-1,1518,603,0,0
301,421,0,0,0,0,0,0,0,0,0,-1,1525,603,0,0
308,421,0,0,0,0,0,0,0,0,0,-1,1532,603,0,0
315,421,0,0,0,0,0,0,0,0,0,-1,1539,603,0,0
322,421,0,0,0,0,0,0,0,0,0,-1,1546,603,0,0
329,421,0,0,0,0,0,0,0,0,0,-1,1553,603,0,0
336,421,0,0,0,0,0,0,0,0,0,-1,1560,603,0,0
343,421,0,0,0,0,0,0,0,0,0,-1,1567,603,0,0
350,421,0,0,0,0,0,0,0,0,0,-1,1574,603,0,0
357,421,0,0,0,0,0,0,0,0,0,-1,1581,603,0,0
364,421,0,0,0,0,0,0,0,0,0,-1,1588,603,0,0
371,421,0,0,0,0,0,0,0,0,0,-1,1595,603,0,0
378,421,0,0,0,0,0,0,0,0,0,-1,1602,603,0,0
385,421,0,0,0,0,0,0,0,0,0,-1,1609,603,0,0
392,421,0,0,0,0,0,0,0,0,0,-1,1616,603,0,0
399,421,0,0,0,0,0,0,0,0,0,-1,1623,603,0,0
406,421,0,0,0,0,0,0,0,0,0,-1,1630,603,0,0
413,421,0,0,0,0,0,0,0,0,0,-1,1637,603,0,0
420,421,0,0,0,0,0,0,0,0,0,-1,1644,603,0,0
427,421,0,0,0,0,0,0,0,0,0,-1,1651,603,0,0
434,421,3.68176,-0.0327759,0,0,0,0,0,0,0,-1,1658,603,3.6818,0.0328037
441,421,8.06689,0.527832,0,0,0,0,0,0,0,-1,1665,603,8.06693,-0.527851
448,421,6.93921,0.802246,0,0,0,0,0,0,0,-1,1672,603,6.93923,-0.802251
455,421,7.29456,2.14825,0,0,0,0,0,0,0,-1,1679,603,7.29461,-2.14827
462,421,7.86902,3.53174,0,0,0,0,0,0,0,-1,1686,603,7.869,-3.53173
469,421,8.06604,2.81213,0,0,0,0,0,0,0,-1,1693,603,8.06606,-2.81212
476,421,8.26306,2.09253,0,0,0,0,0,0,0,-1,1700,603,8.26312,-2.09251
483,421,8.05322,0.798096,0,0,0,0,0,0,0,-1,1707,603,8.05323,-0.7981
490,421,7.51233,0.213074,0,0,0,0,0,0,0,-1,1714,603,7.51235,-0.213043
497,421,7.49634,-2.86688,0,0,0,0,0,0,0,-1,1721,603,7.4963,2.86688
504,421,6.90491,-2.18671,0,0,0,0,0,0,0,-1,1728,603,6.90491,2.18669
511,421,6.31348,-1.50653,0,0,0,0,0,0,0,-1,1735,603,6.31353,1.5065
518,421,6.27588,-2.49878,0,0,0,0,0,0,0,-1,1742,603,6.2759,2.4988
525,421,18.5822,-13.2206,0,0,0,0,0,0,0,-1,1749,603,18.5822,13.2206
532,421,18.7354,-12.373,0.00479371,0.00299106,0.00267057,0.00671096,0.00107381,0.622649,0.00416246,0.0450705,1756,603,18.7353,12.373
539,421,18.8883,-11.731,0.00407108,0.00242816,0.00217736,0.00557678,0.000922458,0.605016,0.0034517,0.0229078,1763,603,18.8883,11.731
546,421,18.8602,-11.1702,0.00343253,0.00188227,0.00175497,0.00457593,0.000738872,0.577443,0.00283659,0.0128231,1770,603,18.8602,11.1701
553,421,18.8352,-10.5884,0.00284765,0.00142452,0.00139334,0.0037006,0.000571567,0.549317,0.00230034,0.0114194,1777,603,18.8352,10.5884
560,421,18.8126,-9.99725,0.00225329,0.00114735,0.00110443,0.00293545,0.000465191,0.553301,0.00182181,0.0137028,1784,603,18.8126,9.99724
567,421,18.8021,-9.43573,0.00176597,0.00102835,0.000978629,0.00244298,0.000351346,0.605196,0.00152509,0.0159949,1791,603,18.8021,9.43571
574,421,18.7771,-8.85406,0.00145633,0.0010758,0.000997822,0.00228186,0.000250265,0.691189,0.00144506,0.0181502,1798,603,18.7771,8.85409
581,421,18.7454,-8.23572,0.00130204,0.00128115,0.00118978,0.00248142,0.000101765,0.781008,0.00162142,0.0150459,1805,603,18.7453,8.2357
588,421,18.7181,-7.67694,0.00135276,0.00175621,0.00158726,0.00315452,-4.55454e-05,0.848604,0.00211836,0.0109052,1812,603,18.7182,7.67692
595,421,18.7515,-7.06818,0.00166856,0.00257027,0.00224803,0.00441221,-0.000173385,0.884363,0.00300094,0.017795,1819,603,18.7515,7.0682
602,421,18.7811,-6.40643,0,0,0,0,0,0,0,-1,1826,603,18.7811,6.40644
609,421,17.6451,-5.54187,0,0,0,0,0,0,0,-1,1833,603,17.6451,5.54189
616,421,17.7633,-4.72491,0,0,0,0,0,0,0,-1,1840,603,17.7633,4.7249
623,421,6.19885,0.376648,0,0,0,0,0,0,0,-1,1847,603,6.19881,-0.376624
630,421,6.54993,0.778748,0,0,0,0,0,0,0,-1,1854,603,6.54991,-0.778744
637,421,3.74512,1.65405,0,0,0,0,0,0,0,-1,1861,603,3.74517,-1.65407
644,421,3.58081,0.354675,0,0,0,0,0,0,0,-1,1868,603,3.58082,-0.354704
651,421,3.28687,3.66351,0,0,0,0,0,0,0,-1,1875,603,3.28688,-3.66353
658,421,0,0,0,0,0,0,0,0,0,-1,1882,603,0,0
665,421,0,0,0,0,0,0,0,0,0,-1,1889,603,0,0
672,421,0,0,0,0,0,0,0,0,0,-1,1896,603,0,0
679,421,0,0,0,0,0,0,0,0,0,-1,1903,603,0,0
686,421,0,0,0,0,0,0,0,0,0,-1,1910,603,0,0
693,421,0,0,0,0,0,0,0,0,0,-1,1917,603,0,0
700,421,0,0,0,0,0,0,0,0,0,-1,1924,603,0,0
707,421,0,0,0,0,0,0,0,0,0,-1,1931,603,0,0
714,421,0,0,0,0,0,0,0,0,0,-1,1938,603,0,0
721,421,0,0,0,0,0,0,0,0,0,-1,1945,603,0,0
728,421,0,0,0,0,0,0,0,0,0,-1,1952,603,0,0
735,421,0,0,0,0,0,0,0,0,0,-1,1959,603,0,0
742,421,0,0,0,0,0,0,0,0,0,-1,1966,603,0,0
749,421,0,0,0,0,0,0,0,0,0,-1,1973,603,0,0
756,421,0,0,0,0,0,0,0,0,0,-1,1980,603,0,0
763,421,0,0,0,0,0,0,0,0,0,-1,1987,603,0,0
770,421,0,0,0,0,0,0,0,0,0,-1,1994,603,0,0
777,421,0,0,0,0,0,0,0,0,0,-1,2001,603,0,0
784,421,0,0,0,0,0,0,0,0,0,-1,2008,603,0,0
791,421,0,0,0,0,0,0,0,0,0,-1,2015,603,0,0
798,421,0,0,0,0,0,0,0,0,0,-1,2022,603,0,0
805,421,0,0,0,0,0,0,0,0,0,-1,2029,603,0,0
812,421,0,0,0,0,0,0,0,0,0,-1,2036,603,0,0
-700,414,0,0,0,0,0,0,0,0,0,-1,524,610,0,0
-693,414,0,0,0,0,0,0,0,0,0,-1,531,610,0,0
-686,414,0,0,0,0,0,0,0,0,0,-1,538,610,0,0
-679,414,0,0,0,0,0,0,0,0,0,-1,545,610,0,0
-672,414,0,0,0,0,0,0,0,0,0,-1,552,610,0,0
-665,414,0,0,0,0,0,0,0,0,0,-1,559,610,0,0
-658,414,0,0,0,0,0,0,0,0,0,-1,566,610,0,0
-651,414,0,0,0,0,0,0,0,0,0,-1,573,610,0,0
-644,414,0,0,0,0,0,0,0,0,0,-1,580,610,0,0
-637,414,0,0,0,0,0,0,0,0,0,-1,587,610,0,0
-630,414,0,0,0,0,0,0,0,0,0,-1,594,610,0,0
-623,414,0,0,0,0,0,0,0,0,0,-1,601,610,0,0
-616,414,0,0,0,0,0,0,0,0,0,-1,608,610,0,0
-609,414,0,0,0,0,0,0,0,0,0,-1,615,610,0,0
-602,414,0,0,0,0,0,0,0,0,0,-1,622,610,0,0
-595,414,0,0,0,0,0,0,0,0,0,-1,629,610,0,0
-588,414,0,0,0,0,0,0,0,0,0,-1,636,610,0,0
-581,414,0,0,0,0,0,0,0,0,0,-1,643,610,0,0
-574,414,0,0,0,0,0,0,0,0,0,-1,650,610,0,0
-567,414,0,0,0,0,0,0,0,0,0,-1,657,610,0,0
-560,414,0,0,0,0,0,0,0,0,0,-1,664,610,0,0
-553,414,0,0,0,0,0,0,0,0,0,-1,671,610,0,0
-546,414,0,0,0,0,0,0,0,0,0,-1,678,610,0,0
-539,414,-7.50146,5.65619,0,0,0,0,0,0,0,-1,685,610,-7.50149,-5.65617
-532,414,-8.15204,4.01605,0,0,0,0,0,0,0,-1,692,610,-8.15206,-4.01606
-525,414,-3.47137,-3.27924,0,0,0,0,0,0,0,-1,699,610,-3.47136,3.27922
-518,414,-4.12909,-4.36908,0,0,0,0,0,0,0,-1,706,610,-4.12909,4.36909
-511,414,-3.92542,-4.97021,0,0,0,0,0,0,0,-1,713,610,-3.92542,4.97023
-504,414,-9.35394,-5.49896,0,0,0,0,0,0,0,-1,720,610,-9.35394,5.49898
-497,414,-9.17554,-6.03741,0,0,0,0,0,0,0,-1,727,610,-9.17551,6.03743
-490,414,-9.17108,-6.40552,0,0,0,0,0,0,0,-1,734,610,-9.17111,6.40553
-483,414,-8.95282,-7.58313,0,0,0,0,0,0,0,-1,741,610,-8.95283,7.58312
-476,414,-9.08496,-8.11902,0.000210966,0.00288042,-0.000703557,0.00305449,3.68893e-05,-1.32824,0.00202414,0.0239881,748,610,-9.08497,8.11902
-469,414,-9.12958,-8.64447,0.000328965,0.00218656,-0.000701716,0.00242184,9.36879e-05,-1.24729,0.00158425,0.0142389,755,610,-9.12959,8.64446
-462,414,-9.13568,-9.24127,0.000566736,0.00169764,-0.000733055,0.00205799,0.000206388,-1.11392,0.00130863,0.0218229,762,610,-9.1357,9.2413
-455,414,-9.18262,-9.82574,0.000620065,0.00125614,-0.000627084,0.00164123,0.00023498,-1.02008,0.00102484,0.0243383,769,610,-9.18263,9.82572
-448,414,-9.18201,-10.3948,0.000460247,0.000568741,-0.000198846,0.000720607,0.000308381,-0.918563,0.00041748,0.024697,776,610,-9.18201,10.3948
-441,414,-9.17249,-10.9841,0.000113142,-0.000336122,0.000475917,0.000414777,-0.000637756,0.5649,0.000612209,0.0172291,783,610,-9.17251,10.9842
-434,414,-9.2113,-11.5431,-0.00038212,-0.00123335,0.0013094,0.000569099,-0.00218456,0.628262,0.00167855,0.00975069,790,610,-9.21129,11.5431
-427,414,-9.21381,-12.0972,-0.00101108,-0.00232776,0.00231,0.000732557,-0.0040714,0.646581,0.00298853,0.0107971,797,610,-9.21379,12.0972
-420,414,-9.22241,-12.6418,-0.00172421,-0.00354449,0.00348113,0.000963795,-0.0062325,0.657536,0.00451072,0.010182,804,610,-9.22239,12.6418
-413,414,-9.25256,-13.2002,-0.00263775,-0.00500801,0.00494826,0.00126532,-0.00891108,0.66786,0.0064043,0.0105955,811,610,-9.25257,13.2002
-406,414,-9.25024,-13.8475,-0.00362604,-0.00651395,0.00649695,0.00158548,-0.0117255,0.67605,0.00839552,0.02386,818,610,-9.25024,13.8475
-399,414,-9.32526,-14.1998,-0.00441799,-0.00826762,0.00798713,0.00187298,-0.0145586,0.667158,0.0103865,0.0498137,825,610,-9.32528,14.1998
-392,414,-9.43781,-14.5624,0,0,0,0,0,0,0,-1,832,610,-9.43779,14.5624
-385,414,-8.14691,-13.0653,0,0,0,0,0,0,0,-1,839,610,-8.14692,13.0653
-378,414,-8.04907,-11.3331,0,0,0,0,0,0,0,-1,846,610,-8.04905,11.3331
-371,414,-5.20886,-8.05151,0,0,0,0,0,0,0,-1,853,610,-5.20887,8.05153
-364,414,-6.76282,-6.58759,0,0,0,0,0,0,0,-1,860,610,-6.7628,6.58756
-357,414,-9.08685,-8.86188,0,0,0,0,0,0,0,-1,867,610,-9.08688,8.86187
-350,414,-6.4502,-2.41821,0,0,0,0,0,0,0,-1,874,610,-6.45021,2.41822
-343,414,-6.80249,-2.32117,0,0,0,0,0,0,0,-1,881,610,-6.80252,2.32116
-336,414,-7.11017,-2.52026,0,0,0,0,0,0,0,-1,888,610,-7.11016,2.52026
-329,414,-7.59747,-2.70313,0,0,0,0,0,0,0,-1,895,610,-7.59747,2.70315
-322,414,-4.42236,-1.29163,0,0,0,0,0,0,0,-1,902,610,-4.42238,1.2916
-315,414,0,0,0,0,0,0,0,0,0,-1,909,610,0,0
-308,414,0,0,0,0,0,0,0,0,0,-1,916,610,0,0
-301,414,0,0,0,0,0,0,0,0,0,-1,923,610,0,0
-294,414,0,0,0,0,0,0,0,0,0,-1,930,610,0,0
-287,414,0,0,0,0,0,0,0,0,0,-1,937,610,0,0
-280,414,0,0,0,0,0,0,0,0,0,-1,944,610,0,0
-273,414,0,0,0,0,0,0,0,0,0,-1,951,610,0,0
-266,414,0,0,0,0,0,0,0,0,0,-1,958,610,0,0
-259,414,0,0,0,0,0,0,0,0,0,-1,965,610,0,0
-252,414,0,0,0,0,0,0,0,0,0,-1,972,610,0,0
-245,414,0,0,0,0,0,0,0,0,0,-1,979,610,0,0
-238,414,0,0,0,0,0,0,0,0,0,-1,986,610,0,0
-231,414,0,0,0,0,0,0,0,0,0,-1,993,610,0,0
-224,414,0,0,0,0,0,0,0,0,0,-1,1000,610,0,0
-217,414,0,0,0,0,0,0,0,0,0,-1,1007,610,0,0
-210,414,0,0,0,0,0,0,0,0,0,-1,1014,610,0,0
-203,414,0,0,0,0,0,0,0,0,0,-1,1021,610,0,0
-196,414,0,0,0,0,0,0,0,0,0,-1,1028,610,0,0
-189,414,0,0,0,0,0,0,0,0,0,-1,1035,610,0,0
-182,414,0,0,0,0,0,0,0,0,0,-1,1042,610,0,0
-175,414,0,0,0,0,0,0,0,0,0,-1,1049,610,0,0
-168,414,0,0,0,0,0,0,0,0,0,-1,1056,610,0,0
-161,414,0,0,0,0,0,0,0,0,0,-1,1063,610,0,0
-154,414,0,0,0,0,0,0,0,0,0,-1,1070,610,0,0
-147,414,0,0,0,0,0,0,0,0,0,-1,1077,610,0,0
-140,414,0,0,0,0,0,0,0,0,0,-1,1084,610,0,0
-133,414,0,0,0,0,0,0,0,0,0,-1,1091,610,0,0
-126,414,0,0,0,0,0,0,0,0,0,-1,1098,610,0,0
-119,414,0,0,0,0,0,0,0,0,0,-1,1105,610,0,0
-112,414,0,0,0,0,0,0,0,0,0,-1,1112,610,0,0
-105,414,0,0,0,0,0,0,0,0,0,-1,1119,610,0,0
-98,414,0,0,0,0,0,0,0,0,0,-1,1126,610,0,0
-91,414,0,0,0,0,0,0,0,0,0,-1,1133,610,0,0
-84,414,0,0,0,0,0,0,0,0,0,-1,1140,610,0,0
-77,414,0,0,0,0,0,0,0,0,0,-1,1147,610,0,0
-70,414,0,0,0,0,0,0,0,0,0,-1,1154,610,0,0
-63,414,0,0,0,0,0,0,0,0,0,-1,1161,610,0,0
-56,414,0,0,0,0,0,0,0,0,0,-1,1168,610,0,0
-49,414,0,0,0,0,0,0,0,0,0,-1,1175,610,0,0
-42,414,0,0,0,0,0,0,0,0,0,-1,1182,610,0,0
-35,414,0,0,0,0,0,0,0,0,0,-1,1189,610,0,0
-28,414,0,0,0,0,0,0,0,0,0,-1,1196,610,0,0
-21,414,0,0,0,0,0,0,0,0,0,-1,1203,610,0,0
-14,414,0,0,0,0,0,0,0,0,0,-1,1210,610,0,0
-7,414,0,0,0,0,0,0,0,0,0,-1,1217,610,0,0
0,414,0,0,0,0,0,0,0,0,0,-1,1224,610,0,0
7,414,0,0,0,0,0,0,0,0,0,-1,1231,610,0,0
14,414,0,0,0,0,0,0,0,0,0,-1,1238,610,0,0
21,414,0,0,0,0,0,0,0,0,0,-1,1245,610,0,0
28,414,0,0,0,0,0,0,0,0,0,-1,1252,610,0,0
35,414,0,0,0,0,0,0,0,0,0,-1,1259,610,0,0
42,414,0,0,0,0,0,0,0,0,0,-1,1266,610,0,0
49,414,0,0,0,0,0,0,0,0,0,-1,1273,610,0,0
56,414,0,0,0,0,0,0,0,0,0,-1,1280,610,0,0
63,414,0,0,0,0,0,0,0,0,0,-1,1287,610,0,0
70,414,0,0,0,0,0,0,0,0,0,-1,1294,610,0,0
77,414,0,0,0,0,0,0,0,0,0,-1,1301,610,0,0
84,414,0,0,0,0,0,0,0,0,0,-1,1308,610,0,0
91,414,0,0,0,0,0,0,0,0,0,-1,1315,610,0,0
98,414,0,0,0,0,0,0,0,0,0,-1,1322,610,0,0
105,414,0,0,0,0,0,0,0,0,0,-1,1329,610,0,0
112,414,0,0,0,0,0,0,0,0,0,-1,1336,610,0,0
119,414,0,0,0,0,0,0,0,0,0,-1,1343,610,0,0
126,414,0,0,0,0,0,0,0,0,0,-1,1350,610,0,0
133,414,0,0,0,0,0,0,0,0,0,-1,1357,610,0,0
140,414,0,0,0,0,0,0,0,0,0,-1,1364,610,0,0
147,414,0,0,0,0,0,0,0,0,0,-1,1371,610,0,0
154,414,0,0,0,0,0,0,0,0,0,-1,1378,610,0,0
161,414,0,0,0,0,0,0,0,0,0,-1,1385,610,0,0
168,414,0,0,0,0,0,0,0,0,0,-1,1392,610,0,0
175,414,0,0,0,0,0,0,0,0,0,-1,1399,610,0,0
182,414,0,0,0,0,0,0,0,0,0,-1,1406,610,0,0
189,414,0,0,0,0,0,0,0,0,0,-1,1413,610,0,0
196,414,0,0,0,0,0,0,0,0,0,-1,1420,610,0,0
203,414,0,0,0,0,0,0,0,0,0,-1,1427,610,0,0
210,414,0,0,0,0,0,0,0,0,0,-1,1434,610,0,0
217,414,0,0,0,0,0,0,0,0,0,-1,1441,610,0,0
224,414,0,0,0,0,0,0,0,0,0,-1,1448,610,0,0
231,414,0,0,0,0,0,0,0,0,0,-1,1455,610,0,0
238,414,0,0,0,0,0,0,0,0,0,-1,1462,610,0,0
245,414,0,0,0,0,0,0,0,0,0,-1,1469,610,0,0
252,414,0,0,0,0,0,0,0,0,0,-1,1476,610,0,0
259,414,0,0,0,0,0,0,0,0,0,-1,1483,610,0,0
266,414,0,0,0,0,0,0,0,0,0,-1,1490,610,0,0
273,414,0,0,0,0,0,0,0,0,0,-1,1497,610,0,0
280,414,0,0,0,0,0,0,0,0,0,-1,1504,610,0,0
287,414,0,0,0,0,0,0,0,0,0,-1,1511,610,0,0
294,414,0,0,0,0,0,0,0,0,0,-1,1518,610,0,0
301,414,0,0,0,0,0,0,0,0,0,-1,1525,610,0,0
308,414,0,0,0,0,0,0,0,0,0,-1,1532,610,0,0
315,414,0,0,0,0,0,0,0,0,0,-1,1539,610,0,0
322,414,0,0,0,0,0,0,0,0,0,-1,1546,610,0,0
329,414,0,0,0,0,0,0,0,0,0,-1,1553,610,0,0
336,414,0,0,0,0,0,0,0,0,0,-1,1560,610,0,0
343,414,0,0,0,0,0,0,0,0,0,-1,1567,610,0,0
350,414,0,0,0,0,0,0,0,0,0,-1,1574,610,0,0
357,414,0,0,0,0,0,0,0,0,0,-1,1581,610,0,0
364,414,0,0,0,0,0,0,0,0,0,-1,1588,610,0,0
371,414,0,0,0,0,0,0,0,0,0,-1,1595,610,0,0
378,414,0,0,0,0,0,0,0,0,0,-1,1602,610,0,0
385,414,0,0,0,0,0,0,0,0,0,-1,1609,610,0,0
392,414,0,0,0,0,0,0,0,0,0,-1,1616,610,0,0
399,414,0,0,0,0,0,0,0,0,0,-1,1623,610,0,0
406,414,0,0,0,0,0,0,0,0,0,-1,1630,610,0,0
413,414,0,0,0,0,0,0,0,0,0,-1,1637,610,0,0
420,414,0,0,0,0,0,0,0,0,0,-1,1644,610,0,0
427,414,0,0,0,0,0,0,0,0,0,-1,1651,610,0,0
434,414,0,0,0,0,0,0,0,0,0,-1,1658,610,0,0
441,414,7.84375,0.584412,0,0,0,0,0,0,0,-1,1665,610,7.84379,-0.584394
448,414,7.40808,1.25446,0,0,0,0,0,0,0,-1,1672,610,7.40807,-1.25446
455,414,6.3512,1.73846,0,0,0,0,0,0,0,-1,1679,610,6.3512,-1.73847
462,414,8.18103,3.22113,0,0,0,0,0,0,0,-1,1686,610,8.18108,-3.22112
469,414,8.38513,2.49579,0,0,0,0,0,0,0,-1,1693,610,8.38516,-2.49576
476,414,8.64099,1.71161,0,0,0,0,0,0,0,-1,1700,610,8.64097,-1.71164
483,414,8.62744,0.687622,0,0,0,0,0,0,0,-1,1707,610,8.62749,-0.687615
490,414,8.38831,-0.0302734,0,0,0,0,0,0,0,-1,1714,610,8.38835,0.0302913
497,414,4.71094,-0.110046,0,0,0,0,0,0,0,-1,1721,610,4.71089,0.110024
504,414,7.19568,-1.43835,0,0,0,0,0,0,0,-1,1728,610,7.19563,1.43836
511,414,5.94153,-1.28772,0,0,0,0,0,0,0,-1,1735,610,5.94151,1.28769
518,414,4.53381,-0.0996704,0,0,0,0,0,0,0,-1,1742,610,4.53378,0.0996819
525,414,6.18811,-1.64056,0,0,0,0,0,0,0,-1,1749,610,6.18814,1.64055
532,414,19.3201,-12.5963,0,0,0,0,0,0,0,-1,1756,610,19.3201,12.5963
539,414,19.4225,-11.8642,0.00525643,0.00291869,0.00273199,0.0070591,0.00111602,0.583259,0.0043817,0.0493402,1763,610,19.4225,11.8642
546,414,19.439,-11.1464,0.00437595,0.00219019,0.00214639,0.00569167,0.00087447,0.549919,0.00353916,0.0147307,1770,610,19.439,11.1464
553,414,19.4365,-10.57,0.00362315,0.00162577,0.00166753,0.00456818,0.000680744,0.515591,0.00284581,0.0127027,1777,610,19.4365,10.57
560,414,19.415,-9.98871,0.00288125,0.0012625,0.00128342,0.0035892,0.000554557,0.504076,0.00223104,0.0147748,1784,610,19.415,9.9887
567,414,19.4014,-9.38977,0.00225093,0.00105524,0.00106549,0.00287484,0.000431328,0.529736,0.00179019,0.0236658,1791,610,19.4013,9.38974
574,414,19.3601,-8.81696,0.00183019,0.00105486,0.00102142,0.00253504,0.000350013,0.604026,0.00158628,0.0210873,1798,610,19.3601,8.81696
581,414,19.349,-8.22443,0.00157908,0.00123566,0.00115836,0.00257839,0.000236348,0.711816,0.00164581,0.0157856,1805,610,19.349,8.22445
588,414,19.3003,-7.66187,0.00148954,0.00167438,0.00146747,0.00305234,0.000111584,0.816848,0.00199873,0.0153405,1812,610,19.3003,7.66188
595,414,19.2909,-7.02576,0.00167317,0.00238717,0.00201452,0.00407608,-1.57431e-05,0.873094,0.00272265,0.0211574,1819,610,19.2909,7.02576
602,414,19.2694,-6.43549,0.00210034,0.00334083,0.00275747,0.00554695,-0.000105785,0.896023,0.00373373,0.0236267,1826,610,19.2694,6.43546
609,414,19.2721,-5.8504,0,0,0,0,0,0,0,-1,1833,610,19.2721,5.85037
616,414,19.5076,-5.00452,0,0,0,0,0,0,0,-1,1840,610,19.5076,5.00454
623,414,9.6969,0.0378418,0,0,0,0,0,0,0,-1,1847,610,9.69685,-0.0378644
630,414,5.47144,0.499329,0,0,0,0,0,0,0,-1,1854,610,5.47142,-0.499303
637,414,8.36707,4.16278,0,0,0,0,0,0,0,-1,1861,610,8.36709,-4.16278
644,414,5.87073,1.51422,0,0,0,0,0,0,0,-1,1868,610,5.87076,-1.51424
651,414,3.6377,0.820557,0,0,0,0,0,0,0,-1,1875,610,3.6377,-0.820543
658,414,2.29761,3.87323,0,0,0,0,0,0,0,-1,1882,610,2.29758,-3.87325
665,414,0,0,0,0,0,0,0,0,0,-1,1889,610,0,0
672,414,0,0,0,0,0,0,0,0,0,-1,1896,610,0,0
679,414,0,0,0,0,0,0,0,0,0,-1,1903,610,0,0
686,414,0,0,0,0,0,0,0,0,0,-1,1910,610,0,0
693,414,0,0,0,0,0,0,0,0,0,-1,1917,610,0,0
700,414,0,0,0,0,0,0,0,0,0,-1,1924,610,0,0
707,414,0,0,0,0,0,0,0,0,0,-1,1931,610,0,0
714,414,0,0,0,0,0,0,0,0,0,-1,1938,610,0,0
721,414,0,0,0,0,0,0,0,0,0,-1,1945,610,0,0
728,414,0,0,0,0,0,0,0,0,0,-1,1952,610,0,0
735,414,0,0,0,0,0,0,0,0,0,-1,1959,610,0,0
742,414,0,0,0,0,0,0,0,0,0,-1,1966,610,0,0
749,414,0,0,0,0,0,0,0,0,0,-1,1973,610,0,0
756,414,0,0,0,0,0,0,0,0,0,-1,1980,610,0,0
763,414,0,0,0,0,0,0,0,0,0,-1,1987,610,0,0
770,414,0,0,0,0,0,0,0,0,0,-1,1994,610,0,0
777,414,0,0,0,0,0,0,0,0,0,-1,2001,610,0,0
784,414,0,0,0,0,0,0,0,0,0,-1,2008,610,0,0
791,414,0,0,0,0,0,0,0,0,0,-1,2015,610,0,0
798,414,0,0,0,0,0,0,0,0,0,-1,2022,610,0,0
805,414,0,0,0,0,0,0,0,0,0,-1,2029,610,0,0
812,414,0,0,0,0,0,0,0,0,0,-1,2036,610,0,0
-700,407,0,0,0,0,0,0,0,0,0,-1,524,617,0,0
-693,407,0,0,0,0,0,0,0,0,0,-1,531,617,0,0
-686,407,0,0,0,0,0,0,0,0,0,-1,538,617,0,0
-679,407,0,0,0,0,0,0,0,0,0,-1,545,617,0,0
-672,407,0,0,0,0,0,0,0,0,0,-1,552,617,0,0
-665,407,0,0,0,0,0,0,0,0,0,-1,559,617,0,0
-658,407,0,0,0,0,0,0,0,0,0,-1,566,617,0,0
-651,407,0,0,0,0,0,0,0,0,0,-1,573,617,0,0
-644,407,0,0,0,0,0,0,0,0,0,-1,580,617,0,0
-637,407,0,0,0,0,0,0,0,0,0,-1,587,617,0,0
-630,407,0,0,0,0,0,0,0,0,0,-1,594,617,0,0
-623,407,0,0,0,0,0,0,0,0,0,-1,601,617,0,0
-616,407,0,0,0,0,0,0,0,0,0,-1,608,617,0,0
-609,407,0,0,0,0,0,0,0,0,0,-1,615,617,0,0
-602,407,0,0,0,0,0,0,0,0,0,-1,622,617,0,0
-595,407,0,0,0,0,0,0,0,0,0,-1,629,617,0,0
-588,407,0,0,0,0,0,0,0,0,0,-1,636,617,0,0
-581,407,0,0,0,0,0,0,0,0,0,-1,643,617,0,0
-574,407,0,0,0,0,0,0,0,0,0,-1,650,617,0,0
-567,407,0,0,0,0,0,0,0,0,0,-1,657,617,0,0
-560,407,0,0,0,0,0,0,0,0,0,-1,664,617,0,0
-553,407,0,0,0,0,0,0,0,0,0,-1,671,617,0,0
-546,407,-8.54517,-0.658142,0,0,0,0,0,0,0,-1,678,617,-8.54515,0.658112
-539,407,-6.09442,-1.01154,0,0,0,0,0,0,0,-1,685,617,-6.09441,1.01155
-532,407,-7.75665,1.62152,0,0,0,0,0,0,0,-1,692,617,-7.75667,-1.62154
-525,407,-3.78247,-2.67639,0,0,0,0,0,0,0,-1,699,617,-3.78246,2.67638
-518,407,-5.013,-5.87323,0,0,0,0,0,0,0,-1,706,617,-5.013,5.87324
-511,407,-9.42743,-4.94189,0,0,0,0,0,0,0,-1,713,617,-9.42745,4.94191
-504,407,-9.80591,-7.48315,0,0,0,0,0,0,0,-1,720,617,-9.80588,7.48317
-497,407,-9.84467,-6.81641,0,0,0,0,0,0,0,-1,727,617,-9.84468,6.8164
-490,407,-9.75964,-6.64948,0,0,0,0,0,0,0,-1,734,617,-9.75965,6.6495
-483,407,-9.60132,-7.4967,0.000571104,0.00341407,-0.0010141,0.00373873,0.000246444,-1.26096,0.00241454,0.031651,741,617,-9.60129,7.49671
-476,407,-9.62189,-8.04187,0.000450837,0.00250674,-0.000812592,0.00278913,0.000168449,-1.23634,0.00180589,0.0160879,748,617,-9.62189,8.04188
-469,407,-9.66272,-8.5918,0.000520827,0.00184463,-0.00073529,0.00217206,0.000193404,-1.15186,0.00138807,0.0130059,755,617,-9.66271,8.59181
-462,407,-9.7157,-9.19135,0.000645434,0.00135081,-0.000675827,0.00176044,0.000235802,-1.02589,0.00110346,0.0195529,762,617,-9.71567,9.19134
-455,407,-9.7135,-9.80243,0.000547063,0.000774784,-0.000394314,0.00107135,0.0002505,-0.925953,0.000647101,0.0218681,769,617,-9.71349,9.80244
-448,407,-9.69617,-10.3849,0.000335233,4.78882e-05,0.000111973,0.000373713,9.4077e-06,0.331015,0.000246066,0.0197239,776,617,-9.69619,10.3849
-441,407,-9.73224,-10.92,-8.5267e-05,-0.000888195,0.000866934,0.000468647,-0.00144211,0.568557,0.00114991,0.0147282,783,617,-9.73221,10.92
-434,407,-9.78058,-11.4717,-0.000697667,-0.00187555,0.00182857,0.000634464,-0.00320768,0.629605,0.00237832,0.0109706,790,617,-9.7806,11.4717
-427,407,-9.78473,-12.0386,-0.00151398,-0.00314048,0.00303489,0.000814733,-0.0054692,0.65449,0.00394585,0.011594,797,617,-9.78475,12.0386
-420,407,-9.78076,-12.5982,-0.00254188,-0.00466925,0.00454943,0.00106655,-0.00827769,0.670558,0.00590616,0.0107347,804,617,-9.78077,12.5982
-413,407,-9.79614,-13.1415,-0.00388135,-0.00653373,0.00647639,0.00140324,-0.0118183,0.684408,0.00838585,0.0127297,811,617,-9.79611,13.1415
-406,407,-9.89752,-13.545,-0.00542741,-0.00854248,0.00857858,0.00173388,-0.0157038,0.695596,0.0110924,0.0382431,818,617,-9.89752,13.545
-399,407,-10.1373,-14.131,0,0,0,0,0,0,0,-1,825,617,-10.1373,14.131
-392,407,-8.33612,-12.195,0,0,0,0,0,0,0,-1,832,617,-8.33611,12.195
-385,407,-7.65765,-10.7744,0,0,0,0,0,0,0,-1,839,617,-7.65767,10.7744
-378,407,-6.08655,-7.42291,0,0,0,0,0,0,0,-1,846,617,-6.08652,7.42292
-371,407,-7.4007,-5.79449,0,0,0,0,0,0,0,-1,853,617,-7.40072,5.79447
-364,407,-10.0638,-6.6228,0,0,0,0,0,0,0,-1,860,617,-10.0639,6.62279
-357,407,-6.64447,-1.83337,0,0,0,0,0,0,0,-1,867,617,-6.64446,1.8334
-350,407,-7.03351,-1.77551,0,0,0,0,0,0,0,-1,874,617,-7.03349,1.77551
-343,407,-7.40967,-1.95026,0,0,0,0,0,0,0,-1,881,617,-7.40969,1.95026
-336,407,-8.10229,-2.40662,0,0,0,0,0,0,0,-1,888,617,-8.10229,2.40664
-329,407,-8.81232,-2.76331,0,0,0,0,0,0,0,-1,895,617,-8.81235,2.76331
-322,407,0,0,0,0,0,0,0,0,0,-1,902,617,0,0
-315,407,0,0,0,0,0,0,0,0,0,-1,909,617,0,0
-308,407,0,0,0,0,0,0,0,0,0,-1,916,617,0,0
-301,407,0,0,0,0,0,0,0,0,0,-1,923,617,0,0
-294,407,0,0,0,0,0,0,0,0,0,-1,930,617,0,0
-287,407,0,0,0,0,0,0,0,0,0,-1,937,617,0,0
-280,407,0,0,0,0,0,0,0,0,0,-1,944,617,0,0
-273,407,0,0,0,0,0,0,0,0,0,-1,951,617,0,0
-266,407,0,0,0,0,0,0,0,0,0,-1,958,617,0,0
-259,407,0,0,0,0,0,0,0,0,0,-1,965,617,0,0
-252,407,0,0,0,0,0,0,0,0,0,-1,972,617,0,0
-245,407,0,0,0,0,0,0,0,0,0,-1,979,617,0,0
-238,407,0,0,0,0,0,0,0,0,0,-1,986,617,0,0
-231,407,0,0,0,0,0,0,0,0,0,-1,993,617,0,0
-224,407,0,0,0,0,0,0,0,0,0,-1,1000,617,0,0
-217,407,0,0,0,0,0,0,0,0,0,-1,1007,617,0,0
-210,407,0,0,0,0,0,0,0,0,0,-1,1014,617,0,0
-203,407,0,0,0,0,0,0,0,0,0,-1,1021,617,0,0
-196,407,0,0,0,0,0,0,0,0,0,-1,1028,617,0,0
-189,407,0,0,0,0,0,0,0,0,0,-1,1035,617,0,0
-182,407,0,0,0,0,0,0,0,0,0,-1,1042,617,0,0
-175,407,0,0,0,0,0,0,0,0,0,-1,1049,617,0,0
-168,407,0,0,0,0,0,0,0,0,0,-1,1056,617,0,0
-161,407,0,0,0,0,0,0,0,0,0,-1,1063,617,0,0
-154,407,0,0,0,0,0,0,0,0,0,-1,1070,617,0,0
-147,407,0,0,0,0,0,0,0,0,0,-1,1077,617,0,0
-140,407,0,0,0,0,0,0,0,0,0,-1,1084,617,0,0
-133,407,0,0,0,0,0,0,0,0,0,-1,1091,617,0,0
-126,407,0,0,0,0,0,0,0,0,0,-1,1098,617,0,0
-119,407,0,0,0,0,0,0,0,0,0,-1,1105,617,0,0
-112,407,0,0,0,0,0,0,0,0,0,-1,1112,617,0,0
-105,407,0,0,0,0,0,0,0,0,0,-1,1119,617,0,0
-98,407,0,0,0,0,0,0,0,0,0,-1,1126,617,0,0
-91,407,0,0,0,0,0,0,0,0,0,-1,1133,617,0,0
-84,407,0,0,0,0,0,0,0,0,0,-1,1140,617,0,0
-77,407,0,0,0,0,0,0,0,0,0,-1,1147,617,0,0
-70,407,0,0,0,0,0,0,0,0,0,-1,1154,617,0,0
-63,407,0,0,0,0,0,0,0,0,0,-1,1161,617,0,0
-56,407,0,0,0,0,0,0,0,0,0,-1,1168,617,0,0
-49,407,0,0,0,0,0,0,0,0,0,-1,1175,617,0,0
-42,407,0,0,0,0,0,0,0,0,0,-1,1182,617,0,0
-35,407,0,0,0,0,0,0,0,0,0,-1,1189,617,0,0
-28,407,0,0,0,0,0,0,0,0,0,-1,1196,617,0,0
-21,407,0,0,0,0,0,0,0,0,0,-1,1203,617,0,0
-14,407,0,0,0,0,0,0,0,0,0,-1,1210,617,0,0
-7,407,0,0,0,0,0,0,0,0,0,-1,1217,617,0,0
0,407,0,0,0,0,0,0,0,0,0,-1,1224,617,0,0
7,407,0,0,0,0,0,0,0,0,0,-1,1231,617,0,0
14,407,0,0,0,0,0,0,0,0,0,-1,1238,617,0,0
21,407,0,0,0,0,0,0,0,0,0,-1,1245,617,0,0
28,407,0,0,0,0,0,0,0,0,0,-1,1252,617,0,0
35,407,0,0,0,0,0,0,0,0,0,-1,1259,617,0,0
42,407,0,0,0,0,0,0,0,0,0,-1,1266,617,0,0
49,407,0,0,0,0,0,0,0,0,0,-1,1273,617,0,0
56,407,0,0,0,0,0,0,0,0,0,-1,1280,617,0,0
63,407,0,0,0,0,0,0,0,0,0,-1,1287,617,0,0
70,407,0,0,0,0,0,0,0,0,0,-1,1294,617,0,0
77,407,0,0,0,0,0,0,0,0,0,-1,1301,617,0,0
84,407,0,0,0,0,0,0,0,0,0,-1,1308,617,0,0
91,407,0,0,0,0,0,0,0,0,0,-1,1315,617,0,0
98,407,0,0,0,0,0,0,0,0,0,-1,1322,617,0,0
105,407,0,0,0,0,0,0,0,0,0,-1,1329,617,0,0
112,407,0,0,0,0,0,0,0,0,0,-1,1336,617,0,0
119,407,0,0,0,0,0,0,0,0,0,-1,1343,617,0,0
126,407,0,0,0,0,0,0,0,0,0,-1,1350,617,0,0
133,407,0,0,0,0,0,0,0,0,0,-1,1357,617,0,0
140,407,0,0,0,0,0,0,0,0,0,-1,1364,617,0,0
147,407,0,0,0,0,0,0,0,0,0,-1,1371,617,0,0
154,407,0,0,0,0,0,0,0,0,0,-1,1378,617,0,0
161,407,0,0,0,0,0,0,0,0,0,-1,1385,617,0,0
168,407,0,0,0,0,0,0,0,0,0,-1,1392,617,0,0
175,407,0,0,0,0,0,0,0,0,0,-1,1399,617,0,0
182,407,0,0,0,0,0,0,0,0,0,-1,1406,617,0,0
189,407,0,0,0,0,0,0,0,0,0,-1,1413,617,0,0
196,407,0,0,0,0,0,0,0,0,0,-1,1420,617,0,0
203,407,0,0,0,0,0,0,0,0,0,-1,1427,617,0,0
210,407,0,0,0,0,0,0,0,0,0,-1,1434,617,0,0
217,407,0,0,0,0,0,0,0,0,0,-1,1441,617,0,0
224,407,0,0,0,0,0,0,0,0,0,-1,1448,617,0,0
231,407,0,0,0,0,0,0,0,0,0,-1,1455,617,0,0
238,407,0,0,0,0,0,0,0,0,0,-1,1462,617,0,0
245,407,0,0,0,0,0,0,0,0,0,-1,1469,617,0,0
252,407,0,0,0,0,0,0,0,0,0,-1,1476,617,0,0
259,407,0,0,0,0,0,0,0,0,0,-1,1483,617,0,0
266,407,0,0,0,0,0,0,0,0,0,-1,1490,617,0,0
273,407,0,0,0,0,0,0,0,0,0,-1,1497,617,0,0
280,407,0,0,0,0,0,0,0,0,0,-1,1504,617,0,0
287,407,0,0,0,0,0,0,0,0,0,-1,1511,617,0,0
294,407,0,0,0,0,0,0,0,0,0,-1,1518,617,0,0
301,407,0,0,0,0,0,0,0,0,0,-1,1525,617,0,0
308,407,0,0,0,0,0,0,0,0,0,-1,1532,617,0,0
315,407,0,0,0,0,0,0,0,0,0,-1,1539,617,0,0
322,407,0,0,0,0,0,0,0,0,0,-1,1546,617,0,0
329,407,0,0,0,0,0,0,0,0,0,-1,1553,617,0,0
336,407,0,0,0,0,0,0,0,0,0,-1,1560,617,0,0
343,407,0,0,0,0,0,0,0,0,0,-1,1567,617,0,0
350,407,0,0,0,0,0,0,0,0,0,-1,1574,617,0,0
357,407,0,0,0,0,0,0,0,0,0,-1,1581,617,0,0
364,407,0,0,0,0,0,0,0,0,0,-1,1588,617,0,0
371,407,0,0,0,0,0,0,0,0,0,-1,1595,617,0,0
378,407,0,0,0,0,0,0,0,0,0,-1,1602,617,0,0
385,407,0,0,0,0,0,0,0,0,0,-1,1609,617,0,0
392,407,0,0,0,0,0,0,0,0,0,-1,1616,617,0,0
399,407,0,0,0,0,0,0,0,0,0,-1,1623,617,0,0
406,407,0,0,0,0,0,0,0,0,0,-1,1630,617,0,0
413,407,0,0,0,0,0,0,0,0,0,-1,1637,617,0,0
420,407,0,0,0,0,0,0,0,0,0,-1,1644,617,0,0
427,407,0,0,0,0,0,0,0,0,0,-1,1651,617,0,0
434,407,0,0,0,0,0,0,0,0,0,-1,1658,617,0,0
441,407,0,0,0,0,0,0,0,0,0,-1,1665,617,0,0
448,407,7.02893,2.13843,0,0,0,0,0,0,0,-1,1672,617,7.02899,-2.13844
455,407,7.55237,2.29242,0,0,0,0,0,0,0,-1,1679,617,7.55236,-2.29244
462,407,8.2926,2.46173,0,0,0,0,0,0,0,-1,1686,617,8.29261,-2.46174
469,407,8.71509,2.22681,0,0,0,0,0,0,0,-1,1693,617,8.71511,-2.22681
476,407,8.89917,1.47766,0,0,0,0,0,0,0,-1,1700,617,8.89914,-1.47768
483,407,9.02612,0.682983,0,0,0,0,0,0,0,-1,1707,617,9.02608,-0.683004
490,407,9.12659,0.000671387,0,0,0,0,0,0,0,-1,1714,617,9.12653,-0.000675931
497,407,7.76819,0.855835,0,0,0,0,0,0,0,-1,1721,617,7.7682,-0.855865
504,407,4.69336,0.160706,0,0,0,0,0,0,0,-1,1728,617,4.69337,-0.1607
511,407,4.07104,-0.00140381,0,0,0,0,0,0,0,-1,1735,617,4.07109,0.00141425
518,407,6.09534,1.9411,0,0,0,0,0,0,0,-1,1742,617,6.09532,-1.94113
525,407,5.72534,-1.35986,0,0,0,0,0,0,0,-1,1749,617,5.72529,1.35988
532,407,18.5767,-10.6388,0,0,0,0,0,0,0,-1,1756,617,18.5766,10.6388
539,407,19.9453,-11.7531,0,0,0,0,0,0,0,-1,1763,617,19.9453,11.753
546,407,20.0243,-11.1251,0.00536407,0.00258325,0.00260209,0.00692393,0.00102338,0.540026,0.00431547,0.0207903,1770,617,20.0243,11.1251
553,407,20.0072,-10.5471,0.00444566,0.00188136,0.00197075,0.00551463,0.000812397,0.497003,0.00343777,0.0156924,1777,617,20.0072,10.5471
560,407,20.0046,-9.94537,0.00356978,0.0013936,0.00146989,0.00431049,0.000652894,0.466781,0.00268265,0.0167963,1784,617,20.0046,9.94536
567,407,19.9703,-9.39301,0.00280387,0.00106265,0.00114012,0.00336777,0.000498742,0.459321,0.00209878,0.0295855,1791,617,19.9704,9.39299
574,407,19.9634,-8.84009,0.00227215,0.000992287,0.00102592,0.00284135,0.00042308,0.506543,0.00177014,0.0255418,1798,617,19.9633,8.84012
581,407,19.9316,-8.19995,0.0019212,0.00113646,0.00110834,0.00270457,0.000353085,0.615273,0.00169764,0.0179234,1805,617,19.9317,8.19993
588,407,19.8868,-7.6192,0.00171924,0.00152859,0.00135126,0.00297853,0.000269299,0.750184,0.00190229,0.0126519,1812,617,19.8868,7.61918
595,407,19.8973,-7.03882,0.00182266,0.00213527,0.0018217,0.00380736,0.000150571,0.828194,0.00248957,0.0238354,1819,617,19.8974,7.03883
602,407,19.8889,-6.41156,0.00224969,0.00300508,0.00252563,0.0051811,7.36748e-05,0.859621,0.00342977,0.0190312,1826,617,19.8889,6.41154
609,407,19.8158,-5.78162,0.00300265,0.00415878,0.00347818,0.00710661,5.48214e-05,0.867745,0.00471957,0.0168155,1833,617,19.8157,5.78161
616,407,19.8788,-5.06305,0.00413191,0.00574079,0.00469475,0.00969953,0.000173175,0.870249,0.0064094,0.0289846,1840,617,19.8787,5.06304
623,407,20.1571,-4.22955,0,0,0,0,0,0,0,-1,1847,617,20.1571,4.22954
630,407,7.06177,0.814575,0,0,0,0,0,0,0,-1,1854,617,7.06178,-0.814579
637,407,9.54077,0.151917,0,0,0,0,0,0,0,-1,1861,617,9.5408,-0.151923
644,407,5.09766,2.27747,0,0,0,0,0,0,0,-1,1868,617,5.09764,-2.27746
651,407,7.37524,0.0513916,0,0,0,0,0,0,0,-1,1875,617,7.3752,-0.0513923
658,407,3.76685,0.594177,0,0,0,0,0,0,0,-1,1882,617,3.76683,-0.594184
665,407,5.76123,0.375061,0,0,0,0,0,0,0,-1,1889,617,5.76118,-0.37509
672,407,0,0,0,0,0,0,0,0,0,-1,1896,617,0,0
679,407,0,0,0,0,0,0,0,0,0,-1,1903,617,0,0
686,407,0,0,0,0,0,0,0,0,0,-1,1910,617,0,0
693,407,0,0,0,0,0,0,0,0,0,-1,1917,617,0,0
700,407,0,0,0,0,0,0,0,0,0,-1,1924,617,0,0
707,407,0,0,0,0,0,0,0,0,0,-1,1931,617,0,0
714,407,0,0,0,0,0,0,0,0,0,-1,1938,617,0,0
721,407,0,0,0,0,0,0,0,0,0,-1,1945,617,0,0
728,407,0,0,0,0,0,0,0,0,0,-1,1952,617,0,0
735,407,0,0,0,0,0,0,0,0,0,-1,1959,617,0,0
742,407,0,0,0,0,0,0,0,0,0,-1,1966,617,0,0
749,407,0,0,0,0,0,0,0,0,0,-1,1973,617,0,0
756,407,0,0,0,0,0,0,0,0,0,-1,1980,617,0,0
763,407,0,0,0,0,0,0,0,0,0,-1,1987,617,0,0
770,407,0,0,0,0,0,0,0,0,0,-1,1994,617,0,0
777,407,0,0,0,0,0,0,0,0,0,-1,2001,617,0,0
784,407,0,0,0,0,0,0,0,0,0,-1,2008,617,0,0
791,407,0,0,0,0,0,0,0,0,0,-1,2015,617,0,0
798,407,0,0,0,0,0,0,0,0,0,-1,2022,617,0,0
805,407,0,0,0,0,0,0,0,0,0,-1,2029,617,0,0
812,407,0,0,0,0,0,0,0,0,0,-1,2036,617,0,0
-700,400,0,0,0,0,0,0,0,0,0,-1,524,624,0,0
-693,400,0,0,0,0,0,0,0,0,0,-1,531,624,0,0
-686,400,0,0,0,0,0,0,0,0,0,-1,538,624,0,0
-679,400,0,0,0,0,0,0,0,0,0,-1,545,624,0,0
-672,400,0,0,0,0,0,0,0,0,0,-1,552,624,0,0
-665,400,0,0,0,0,0,0,0,0,0,-1,559,624,0,0
-658,400,0,0,0,0,0,0,0,0,0,-1,566,624,0,0
-651,400,0,0,0,0,0,0,0,0,0,-1,573,624,0,0
-644,400,0,0,0,0,0,0,0,0,0,-1,580,624,0,0
-637,400,0,0,0,0,0,0,0,0,0,-1,587,624,0,0
-630,400,0,0,0,0,0,0,0,0,0,-1,594,624,0,0
-623,400,0,0,0,0,0,0,0,0,0,-1,601,624,0,0
-616,400,0,0,0,0,0,0,0,0,0,-1,608,624,0,0
-609,400,0,0,0,0,0,0,0,0,0,-1,615,624,0,0
-602,400,0,0,0,0,0,0,0,0,0,-1,622,624,0,0
-595,400,0,0,0,0,0,0,0,0,0,-1,629,624,0,0
-588,400,0,0,0,0,0,0,0,0,0,-1,636,624,0,0
-581,400,0,0,0,0,0,0,0,0,0,-1,643,624,0,0
-574,400,0,0,0,0,0,0,0,0,0,-1,650,624,0,0
-567,400,0,0,0,0,0,0,0,0,0,-1,657,624,0,0
-560,400,0,0,0,0,0,0,0,0,0,-1,664,624,0,0
-553,400,0,0,0,0,0,0,0,0,0,-1,671,624,0,0
-546,400,-8.41174,-1.4599,0,0,0,0,0,0,0,-1,678,624,-8.41173,1.45989
-539,400,-5.69104,-1.7337,0,0,0,0,0,0,0,-1,685,624,-5.69103,1.7337
-532,400,-3.03632,-2.03912,0,0,0,0,0,0,0,-1,692,624,-3.03632,2.03909
-525,400,-6.20813,-7.04071,0,0,0,0,0,0,0,-1,699,624,-6.20814,7.04071
-518,400,-5.26544,-1.58661,0,0,0,0,0,0,0,-1,706,624,-5.26544,1.58658
-511,400,-10.6307,-6.7121,0,0,0,0,0,0,0,-1,713,624,-10.6307,6.71209
-504,400,-10.2663,-6.55109,0,0,0,0,0,0,0,-1,720,624,-10.2663,6.55106
-497,400,-10.3387,-6.11713,0,0,0,0,0,0,0,-1,727,624,-10.3387,6.11713
-490,400,-10.1843,-6.79236,0.00117195,0.00407867,-0.00148143,0.00470061,0.000550009,-1.17332,0.00296744,0.0293844,734,624,-10.1843,6.79234
-483,400,-10.2054,-7.45459,0.000870298,0.00289849,-0.00109273,0.00337518,0.000393603,-1.15944,0.00213107,0.0164175,741,624,-10.2054,7.45458
-476,400,-10.1954,-7.99738,0.000751587,0.00208827,-0.000871947,0.00251855,0.000321305,-1.11238,0.00158284,0.0139514,748,624,-10.1954,7.99736
-469,400,-10.2377,-8.56726,0.000794897,0.00149283,-0.000761058,0.00198111,0.000306612,-1.00036,0.00123133,0.0153485,755,624,-10.2377,8.56727
-462,400,-10.2557,-9.19788,0.000827344,0.00102282,-0.000644598,0.00157705,0.000273118,-0.860639,0.000973186,0.0204229,762,624,-10.2557,9.19788
-455,400,-10.254,-9.7832,0.00059153,0.000355862,-0.000223305,0.000726184,0.000221209,-0.542625,0.0004298,0.0208218,769,624,-10.254,9.78322
-448,400,-10.2611,-10.366,0.000316928,-0.000383092,0.000340184,0.000455008,-0.000521173,0.385581,0.000564029,0.0158745,776,624,-10.2611,10.366
-441,400,-10.2991,-10.8669,-0.000191331,-0.00130789,0.00115025,0.000528966,-0.00202819,0.559467,0.00155866,0.0152647,783,624,-10.2991,10.8669
-434,400,-10.3362,-11.4041,-0.000951097,-0.00236173,0.00222627,0.000678911,-0.00399174,0.631992,0.00291395,0.0125821,790,624,-10.3362,11.4041
-427,400,-10.3596,-11.986,-0.00201141,-0.00379013,0.00365426,0.000860154,-0.0066617,0.666031,0.00475386,0.0106954,797,624,-10.3596,11.986
-420,400,-10.3207,-12.5856,-0.00347162,-0.00566599,0.00557537,0.00111349,-0.0102511,0.688244,0.00723386,0.0149853,804,624,-10.3207,12.5856
-413,400,-10.405,-13.0256,-0.00543947,-0.00800847,0.0080821,0.00145957,-0.0149075,0.706592,0.0104589,0.0350796,811,624,-10.405,13.0257
-406,400,-10.8752,-13.0801,-0.00780147,-0.0106537,0.0109299,0.00179499,-0.0202501,0.720526,0.0141365,0.049964,818,624,-10.8752,13.0802
-399,400,-11.0176,-13.2944,0,0,0,0,0,0,0,-1,825,624,-11.0176,13.2944
-392,400,-4.92285,-6.63354,0,0,0,0,0,0,0,-1,832,624,-4.92285,6.63354
-385,400,-3.68738,-5.04205,0,0,0,0,0,0,0,-1,839,624,-3.68736,5.04207
-378,400,-6.84064,-1.28662,0,0,0,0,0,0,0,-1,846,624,-6.84062,1.28662
-371,400,-6.98865,-1.2572,0,0,0,0,0,0,0,-1,853,624,-6.98865,1.25721
-364,400,-6.97247,-1.24133,0,0,0,0,0,0,0,-1,860,624,-6.97249,1.24135
-357,400,-7.18329,-1.23218,0,0,0,0,0,0,0,-1,867,624,-7.18327,1.2322
-350,400,-7.40186,-1.19409,0,0,0,0,0,0,0,-1,874,624,-7.40187,1.19407
-343,400,-8.09357,-1.51147,0,0,0,0,0,0,0,-1,881,624,-8.09355,1.51148
-336,400,0,0,0,0,0,0,0,0,0,-1,888,624,0,0
-329,400,0,0,0,0,0,0,0,0,0,-1,895,624,0,0
-322,400,0,0,0,0,0,0,0,0,0,-1,902,624,0,0
-315,400,0,0,0,0,0,0,0,0,0,-1,909,624,0,0
-308,400,0,0,0,0,0,0,0,0,0,-1,916,624,0,0
-301,400,0,0,0,0,0,0,0,0,0,-1,923,624,0,0
-294,400,0,0,0,0,0,0,0,0,0,-1,930,624,0,0
-287,400,0,0,0,0,0,0,0,0,0,-1,937,624,0,0
-280,400,0,0,0,0,0,0,0,0,0,-1,944,624,0,0
-273,400,0,0,0,0,0,0,0,0,0,-1,951,624,0,0
-266,400,0,0,0,0,0,0,0,0,0,-1,958,624,0,0
-259,400,0,0,0,0,0,0,0,0,0,-1,965,624,0,0
-252,400,0,0,0,0,0,0,0,0,0,-1,972,624,0,0
-245,400,0,0,0,0,0,0,0,0,0,-1,979,624,0,0
-238,400,0,0,0,0,0,0,0,0,0,-1,986,624,0,0
-231,400,0,0,0,0,0,0,0,0,0,-1,993,624,0,0
-224,400,0,0,0,0,0,0,0,0,0,-1,1000,624,0,0
-217,400,0,0,0,0,0,0,0,0,0,-1,1007,624,0,0
-210,400,0,0,0,0,0,0,0,0,0,-1,1014,624,0,0
-203,400,0,0,0,0,0,0,0,0,0,-1,1021,624,0,0
-196,400,0,0,0,0,0,0,0,0,0,-1,1028,624,0,0
-189,400,0,0,0,0,0,0,0,0,0,-1,1035,624,0,0
-182,400,0,0,0,0,0,0,0,0,0,-1,1042,624,0,0
-175,400,0,0,0,0,0,0,0,0,0,-1,1049,624,0,0
-168,400,0,0,0,0,0,0,0,0,0,-1,1056,624,0,0
-161,400,0,0,0,0,0,0,0,0,0,-1,1063,624,0,0
-154,400,0,0,0,0,0,0,0,0,0,-1,1070,624,0,0
-147,400,0,0,0,0,0,0,0,0,0,-1,1077,624,0,0
-140,400,0,0,0,0,0,0,0,0,0,-1,1084,624,0,0
-133,400,0,0,0,0,0,0,0,0,0,-1,1091,624,0,0
-126,400,0,0,0,0,0,0,0,0,0,-1,1098,624,0,0
-119,400,0,0,0,0,0,0,0,0,0,-1,1105,624,0,0
-112,400,0,0,0,0,0,0,0,0,0,-1,1112,624,0,0
-105,400,0,0,0,0,0,0,0,0,0,-1,1119,624,0,0
-98,400,0,0,0,0,0,0,0,0,0,-1,1126,624,0,0
-91,400,0,0,0,0,0,0,0,0,0,-1,1133,624,0,0
-84,400,0,0,0,0,0,0,0,0,0,-1,1140,624,0,0
-77,400,0,0,0,0,0,0,0,0,0,-1,1147,624,0,0
-70,400,0,0,0,0,0,0,0,0,0,-1,1154,624,0,0
-63,400,0,0,0,0,0,0,0,0,0,-1,1161,624,0,0
-56,400,0,0,0,0,0,0,0,0,0,-1,1168,624,0,0
-49,400,0,0,0,0,0,0,0,0,0,-1,1175,624,0,0
-42,400,0,0,0,0,0,0,0,0,0,-1,1182,624,0,0
-35,400,0,0,0,0,0,0,0,0,0,-1,1189,624,0,0
-28,400,0,0,0,0,0,0,0,0,0,-1,1196,624,0,0
-21,400,0,0,0,0,0,0,0,0,0,-1,1203,624,0,0
-14,400,0,0,0,0,0,0,0,0,0,-1,1210,624,0,0
-7,400,0,0,0,0,0,0,0,0,0,-1,1217,624,0,0
0,400,0,0,0,0,0,0,0,0,0,-1,1224,624,0,0
7,400,0,0,0,0,0,0,0,0,0,-1,1231,624,0,0
14,400,0,0,0,0,0,0,0,0,0,-1,1238,624,0,0
21,400,0,0,0,0,0,0,0,0,0,-1,1245,624,0,0
28,400,0,0,0,0,0,0,0,0,0,-1,1252,624,0,0
35,400,0,0,0,0,0,0,0,0,0,-1,1259,624,0,0
42,400,0,0,0,0,0,0,0,0,0,-1,1266,624,0,0
49,400,0,0,0,0,0,0,0,0,0,-1,1273,624,0,0
56,400,0,0,0,0,0,0,0,0,0,-1,1280,624,0,0
63,400,0,0,0,0,0,0,0,0,0,-1,1287,624,0,0
70,400,0,0,0,0,0,0,0,0,0,-1,1294,624,0,0
77,400,0,0,0,0,0,0,0,0,0,-1,1301,624,0,0
84,400,0,0,0,0,0,0,0,0,0,-1,1308,624,0,0
91,400,0,0,0,0,0,0,0,0,0,-1,1315,624,0,0
98,400,0,0,0,0,0,0,0,0,0,-1,1322,624,0,0
105,400,0,0,0,0,0,0,0,0,0,-1,1329,624,0,0
112,400,0,0,0,0,0,0,0,0,0,-1,1336,624,0,0
119,400,0,0,0,0,0,0,0,0,0,-1,1343,624,0,0
126,400,0,0,0,0,0,0,0,0,0,-1,1350,624,0,0
133,400,0,0,0,0,0,0,0,0,0,-1,1357,624,0,0
140,400,0,0,0,0,0,0,0,0,0,-1,1364,624,0,0
147,400,0,0,0,0,0,0,0,0,0,-1,1371,624,0,0
154,400,0,0,0,0,0,0,0,0,0,-1,1378,624,0,0
161,400,0,0,0,0,0,0,0,0,0,-1,1385,624,0,0
168,400,0,0,0,0,0,0,0,0,0,-1,1392,624,0,0
175,400,0,0,0,0,0,0,0,0,0,-1,1399,624,0,0
182,400,0,0,0,0,0,0,0,0,0,-1,1406,624,0,0
189,400,0,0,0,0,0,0,0,0,0,-1,1413,624,0,0
196,400,0,0,0,0,0,0,0,0,0,-1,1420,624,0,0
203,400,0,0,0,0,0,0,0,0,0,-1,1427,624,0,0
210,400,0,0,0,0,0,0,0,0,0,-1,1434,624,0,0
217,400,0,0,0,0,0,0,0,0,0,-1,1441,624,0,0
224,400,0,0,0,0,0,0,0,0,0,-1,1448,624,0,0
231,400,0,0,0,0,0,0,0,0,0,-1,1455,624,0,0
238,400,0,0,0,0,0,0,0,0,0,-1,1462,624,0,0
245,400,0,0,0,0,0,0,0,0,0,-1,1469,624,0,0
252,400,0,0,0,0,0,0,0,0,0,-1,1476,624,0,0
259,400,0,0,0,0,0,0,0,0,0,-1,1483,624,0,0
266,400,0,0,0,0,0,0,0,0,0,-1,1490,624,0,0
273,400,0,0,0,0,0,0,0,0,0,-1,1497,624,0,0
280,400,0,0,0,0,0,0,0,0,0,-1,1504,624,0,0
287,400,0,0,0,0,0,0,0,0,0,-1,1511,624,0,0
294,400,0,0,0,0,0,0,0,0,0,-1,1518,624,0,0
301,400,0,0,0,0,0,0,0,0,0,-1,1525,624,0,0
308,400,0,0,0,0,0,0,0,0,0,-1,1532,624,0,0
315,400,0,0,0,0,0,0,0,0,0,-1,1539,624,0,0
322,400,0,0,0,0,0,0,0,0,0,-1,1546,624,0,0
329,400,0,0,0,0,0,0,0,0,0,-1,1553,624,0,0
336,400,0,0,0,0,0,0,0,0,0,-1,1560,624,0,0
343,400,0,0,0,0,0,0,0,0,0,-1,1567,624,0,0
350,400,0,0,0,0,0,0,0,0,0,-1,1574,624,0,0
357,400,0,0,0,0,0,0,0,0,0,-1,1581,624,0,0
364,400,0,0,0,0,0,0,0,0,0,-1,1588,624,0,0
371,400,0,0,0,0,0,0,0,0,0,-1,1595,624,0,0
378,400,0,0,0,0,0,0,0,0,0,-1,1602,624,0,0
385,400,0,0,0,0,0,0,0,0,0,-1,1609,624,0,0
392,400,0,0,0,0,0,0,0,0,0,-1,1616,624,0,0
399,400,0,0,0,0,0,0,0,0,0,-1,1623,624,0,0
406,400,0,0,0,0,0,0,0,0,0,-1,1630,624,0,0
413,400,0,0,0,0,0,0,0,0,0,-1,1637,624,0,0
420,400,0,0,0,0,0,0,0,0,0,-1,1644,624,0,0
427,400,0,0,0,0,0,0,0,0,0,-1,1651,624,0,0
434,400,0,0,0,0,0,0,0,0,0,-1,1658,624,0,0
441,400,0,0,0,0,0,0,0,0,0,-1,1665,624,0,0
448,400,0,0,0,0,0,0,0,0,0,-1,1672,624,0,0
455,400,8.91309,2.75885,0,0,0,0,0,0,0,-1,1679,624,8.91312,-2.75885
462,400,8.90356,2.37878,0,0,0,0,0,0,0,-1,1686,624,8.90353,-2.37878
469,400,9.14429,1.76849,0,0,0,0,0,0,0,-1,1693,624,9.14432,-1.76847
476,400,9.23254,1.25995,0,0,0,0,0,0,0,-1,1700,624,9.23252,-1.25994
483,400,9.59766,0.562439,0,0,0,0,0,0,0,-1,1707,624,9.59771,-0.56242
490,400,9.92578,-0.213745,0,0,0,0,0,0,0,-1,1714,624,9.92579,0.21376
497,400,9.19141,0.175232,0,0,0,0,0,0,0,-1,1721,624,9.19138,-0.175209
504,400,9.23438,0.00823975,0,0,0,0,0,0,0,-1,1728,624,9.23436,-0.00823766
511,400,6.16687,3.3501,0,0,0,0,0,0,0,-1,1735,624,6.16682,-3.35007
518,400,6.55237,1.74994,0,0,0,0,0,0,0,-1,1742,624,6.55236,-1.74993
525,400,6.99731,1.08783,0,0,0,0,0,0,0,-1,1749,624,6.99736,-1.08785
532,400,6.96582,-1.74982,0,0,0,0,0,0,0,-1,1756,624,6.96585,1.74983
539,400,21.2305,-10.5841,0,0,0,0,0,0,0,-1,1763,624,21.2304,10.5841
546,400,20.6223,-11.1111,0,0,0,0,0,0,0,-1,1770,624,20.6223,11.1112
553,400,20.5363,-10.5508,0.00548621,0.0020532,0.00219092,0.00655296,0.000986445,0.45311,0.00407977,0.0371561,1777,624,20.5363,10.5508
560,400,20.5835,-9.91266,0.00440927,0.00149013,0.00160015,0.00511553,0.000783866,0.415655,0.00318142,0.0147471,1784,624,20.5835,9.91269
567,400,20.5784,-9.35107,0.00344093,0.00107151,0.00117107,0.00392203,0.000590408,0.389804,0.00244179,0.016991,1791,624,20.5783,9.35108
574,400,20.5623,-8.79785,0.00274013,0.000959872,0.00100361,0.00319148,0.000508523,0.422626,0.00198003,0.0205723,1798,624,20.5622,8.79787
581,400,20.5161,-8.17755,0.00223858,0.00108446,0.0010414,0.00285211,0.000470926,0.532399,0.00176549,0.0208911,1805,624,20.5161,8.17753
588,400,20.4807,-7.55957,0.0019034,0.00143468,0.00123541,0.00292648,0.000411602,0.691661,0.00182929,0.0161558,1812,624,20.4808,7.55959
595,400,20.4867,-6.99121,0.00189333,0.00194745,0.00163848,0.00355909,0.000281688,0.793655,0.00228463,0.0148513,1819,624,20.4867,6.9912
602,400,20.4794,-6.40076,0.00222561,0.00272635,0.00228321,0.00477288,0.000179082,0.840009,0.00312394,0.0139395,1826,624,20.4794,6.40078
609,400,20.3892,-5.77051,0.00275649,0.00370806,0.00308993,0.00635862,0.000105928,0.861787,0.00420421,0.0142109,1833,624,20.3892,5.7705
616,400,20.3726,-5.15948,0.00339628,0.00487901,0.00396523,0.00817159,0.000103708,0.877814,0.00541349,0.019222,1840,624,20.3726,5.15948
623,400,20.5264,-4.198,0,0,0,0,0,0,0,-1,1847,624,20.5263,4.19801
630,400,11.9432,0.09021,0,0,0,0,0,0,0,-1,1854,624,11.9432,-0.0902007
637,400,6.92896,1.01917,0,0,0,0,0,0,0,-1,1861,624,6.92899,-1.01918
644,400,8.65381,1.4599,0,0,0,0,0,0,0,-1,1868,624,8.65379,-1.45991
651,400,7.90601,0.424072,0,0,0,0,0,0,0,-1,1875,624,7.90598,-0.424097
658,400,8.69031,1.0484,0,0,0,0,0,0,0,-1,1882,624,8.6903,-1.0484
665,400,5.98438,0.522522,0,0,0,0,0,0,0,-1,1889,624,5.98442,-0.522552
672,400,0,0,0,0,0,0,0,0,0,-1,1896,624,0,0
679,400,0,0,0,0,0,0,0,0,0,-1,1903,624,0,0
686,400,0,0,0,0,0,0,0,0,0,-1,1910,624,0,0
693,400,0,0,0,0,0,0,0,0,0,-1,1917,624,0,0
700,400,0,0,0,0,0,0,0,0,0,-1,1924,624,0,0
707,400,0,0,0,0,0,0,0,0,0,-1,1931,624,0,0
714,400,0,0,0,0,0,0,0,0,0,-1,1938,624,0,0
721,400,0,0,0,0,0,0,0,0,0,-1,1945,624,0,0
728,400,0,0,0,0,0,0,0,0,0,-1,1952,624,0,0
735,400,0,0,0,0,0,0,0,0,0,-1,1959,624,0,0
742,400,0,0,0,0,0,0,0,0,0,-1,1966,624,0,0
749,400,0,0,0,0,0,0,0,0,0,-1,1973,624,0,0
756,400,0,0,0,0,0,0,0,0,0,-1,1980,624,0,0
763,400,0,0,0,0,0,0,0,0,0,-1,1987,624,0,0
770,400,0,0,0,0,0,0,0,0,0,-1,1994,624,0,0
777,400,0,0,0,0,0,0,0,0,0,-1,2001,624,0,0
784,400,0,0,0,0,0,0,0,0,0,-1,2008,624,0,0
791,400,0,0,0,0,0,0,0,0,0,-1,2015,624,0,0
798,400,0,0,0,0,0,0,0,0,0,-1,2022,624,0,0
805,400,0,0,0,0,0,0,0,0,0,-1,2029,624,0,0
812,400,0,0,0,0,0,0,0,0,0,-1,2036,624,0,0
-700,393,0,0,0,0,0,0,0,0,0,-1,524,631,0,0
-693,393,0,0,0,0,0,0,0,0,0,-1,531,631,0,0
-686,393,0,0,0,0,0,0,0,0,0,-1,538,631,0,0
-679,393,0,0,0,0,0,0,0,0,0,-1,545,631,0,0
-672,393,0,0,0,0,0,0,0,0,0,-1,552,631,0,0
-665,393,0,0,0,0,0,0,0,0,0,-1,559,631,0,0
-658,393,0,0,0,0,0,0,0,0,0,-1,566,631,0,0
-651,393,0,0,0,0,0,0,0,0,0,-1,573,631,0,0
-644,393,0,0,0,0,0,0,0,0,0,-1,580,631,0,0
-637,393,0,0,0,0,0,0,0,0,0,-1,587,631,0,0
-630,393,0,0,0,0,0,0,0,0,0,-1,594,631,0,0
-623,393,0,0,0,0,0,0,0,0,0,-1,601,631,0,0
-616,393,0,0,0,0,0,0,0,0,0,-1,608,631,0,0
-609,393,0,0,0,0,0,0,0,0,0,-1,615,631,0,0
-602,393,0,0,0,0,0,0,0,0,0,-1,622,631,0,0
-595,393,0,0,0,0,0,0,0,0,0,-1,629,631,0,0
-588,393,0,0,0,0,0,0,0,0,0,-1,636,631,0,0
-581,393,0,0,0,0,0,0,0,0,0,-1,643,631,0,0
-574,393,0,0,0,0,0,0,0,0,0,-1,650,631,0,0
-567,393,0,0,0,0,0,0,0,0,0,-1,657,631,0,0
-560,393,0,0,0,0,0,0,0,0,0,-1,664,631,0,0
-553,393,-2.35107,3.92633,0,0,0,0,0,0,0,-1,671,631,-2.35108,-3.92634
-546,393,-1.78778,2.4856,0,0,0,0,0,0,0,-1,678,631,-1.78778,-2.48557
-539,393,-5.2113,-2.20245,0,0,0,0,0,0,0,-1,685,631,-5.21128,2.20247
-532,393,-2.83643,-2.01624,0,0,0,0,0,0,0,-1,692,631,-2.83642,2.01626
-525,393,-5.9505,-0.952698,0,0,0,0,0,0,0,-1,699,631,-5.95053,0.95268
-518,393,-5.80219,-1.57739,0,0,0,0,0,0,0,-1,706,631,-5.80219,1.57738
-511,393,-6.15527,-2.09906,0,0,0,0,0,0,0,-1,713,631,-6.15526,2.09903
-504,393,-11.11,-5.01428,0,0,0,0,0,0,0,-1,720,631,-11.11,5.0143
-497,393,-10.7952,-5.94543,0.00179773,0.00455286,-0.00193869,0.00555357,0.000797017,-1.09429,0.00346737,0.0386225,727,631,-10.7952,5.94544
-490,393,-10.7599,-6.83356,0.00140269,0.00339469,-0.00146355,0.00416899,0.000628383,-1.08417,0.00259535,0.0198979,734,631,-10.7599,6.83357
-483,393,-10.7493,-7.43494,0.00110743,0.00242295,-0.0011097,0.00305518,0.000475196,-1.05293,0.00189832,0.0208713,741,631,-10.7493,7.43493
-476,393,-10.7563,-7.97559,0.000992755,0.00173416,-0.000907337,0.0023436,0.000383315,-0.979331,0.0014516,0.0177062,748,631,-10.7563,7.97558
-469,393,-10.7877,-8.55414,0.00101632,0.00121988,-0.000794424,0.00191902,0.000317181,-0.849111,0.00118782,0.0141247,755,631,-10.7877,8.55414
-462,393,-10.8252,-9.18243,0.000992226,0.000808155,-0.000662932,0.00156948,0.0002309,-0.716424,0.000978478,0.0169647,762,631,-10.8252,9.18245
-455,393,-10.8463,-9.77924,0.000663771,9.65809e-05,-0.000154275,0.000703018,5.73341e-05,-0.249111,0.000450784,0.0152837,769,631,-10.8463,9.77921
-448,393,-10.8752,-10.3593,0.000355205,-0.000628909,0.000436308,0.000520784,-0.000794487,0.36271,0.000764833,0.013983,776,631,-10.8752,10.3593
-441,393,-10.8987,-10.8773,-0.000198091,-0.00149572,0.00126399,0.000573875,-0.00226769,0.548279,0.00173501,0.0129001,783,631,-10.8987,10.8773
-434,393,-10.9229,-11.392,-0.00106946,-0.00259839,0.00242781,0.000711403,-0.00437925,0.632874,0.00318324,0.0124185,790,631,-10.9229,11.392
-427,393,-10.8917,-11.9988,-0.00236541,-0.0041964,0.00408932,0.000909637,-0.00747145,0.675276,0.00531021,0.0212064,797,631,-10.8917,11.9988
-420,393,-10.8983,-12.5499,-0.00431507,-0.00648133,0.00649829,0.00118974,-0.0119861,0.702818,0.00841542,0.0463144,804,631,-10.8983,12.5499
-413,393,-11.011,-13.0345,0,0,0,0,0,0,0,-1,811,631,-11.0111,13.0345
-406,393,-11.826,-12.7987,0,0,0,0,0,0,0,-1,818,631,-11.8261,12.7987
-399,393,-5.07343,-5.92365,0,0,0,0,0,0,0,-1,825,631,-5.07344,5.92364
-392,393,-2.08063,-3.02386,0,0,0,0,0,0,0,-1,832,631,-2.08063,3.02384
-385,393,-3.16931,-0.624756,0,0,0,0,0,0,0,-1,839,631,-3.16928,0.624764
-378,393,-7.33081,-0.872314,0,0,0,0,0,0,0,-1,846,631,-7.33081,0.872325
-371,393,-7.47858,-0.811096,0,0,0,0,0,0,0,-1,853,631,-7.47859,0.811075
-364,393,-7.64917,-0.662415,0,0,0,0,0,0,0,-1,860,631,-7.64917,0.662406
-357,393,-8.09686,-0.726013,0,0,0,0,0,0,0,-1,867,631,-8.09689,0.726029
-350,393,-8.38788,-0.511841,0,0,0,0,0,0,0,-1,874,631,-8.38785,0.511811
-343,393,0,0,0,0,0,0,0,0,0,-1,881,631,0,0
-336,393,0,0,0,0,0,0,0,0,0,-1,888,631,0,0
-329,393,0,0,0,0,0,0,0,0,0,-1,895,631,0,0
-322,393,0,0,0,0,0,0,0,0,0,-1,902,631,0,0
-315,393,0,0,0,0,0,0,0,0,0,-1,909,631,0,0
-308,393,0,0,0,0,0,0,0,0,0,-1,916,631,0,0
-301,393,0,0,0,0,0,0,0,0,0,-1,923,631,0,0
-294,393,0,0,0,0,0,0,0,0,0,-1,930,631,0,0
-287,393,0,0,0,0,0,0,0,0,0,-1,937,631,0,0
-280,393,0,0,0,0,0,0,0,0,0,-1,944,631,0,0
-273,393,0,0,0,0,0,0,0,0,0,-1,951,631,0,0
-266,393,0,0,0,0,0,0,0,0,0,-1,958,631,0,0
-259,393,0,0,0,0,0,0,0,0,0,-1,965,631,0,0
-252,393,0,0,0,0,0,0,0,0,0,-1,972,631,0,0
-245,393,0,0,0,0,0,0,0,0,0,-1,979,631,0,0
-238,393,0,0,0,0,0,0,0,0,0,-1,986,631,0,0
-231,393,0,0,0,0,0,0,0,0,0,-1,993,631,0,0
-224,393,0,0,0,0,0,0,0,0,0,-1,1000,631,0,0
-217,393,0,0,0,0,0,0,0,0,0,-1,1007,631,0,0
-210,393,0,0,0,0,0,0,0,0,0,-1,1014,631,0,0
-203,393,0,0,0,0,0,0,0,0,0,-1,1021,631,0,0
-196,393,0,0,0,0,0,0,0,0,0,-1,1028,631,0,0
-189,393,0,0,0,0,0,0,0,0,0,-1,1035,631,0,0
-182,393,0,0,0,0,0,0,0,0,0,-1,1042,631,0,0
-175,393,0,0,0,0,0,0,0,0,0,-1,1049,631,0,0
-168,393,0,0,0,0,0,0,0,0,0,-1,1056,631,0,0
-161,393,0,0,0,0,0,0,0,0,0,-1,1063,631,0,0
-154,393,0,0,0,0,0,0,0,0,0,-1,1070,631,0,0
-147,393,0,0,0,0,0,0,0,0,0,-1,1077,631,0,0
-140,393,0,0,0,0,0,0,0,0,0,-1,1084,631,0,0
-133,393,0,0,0,0,0,0,0,0,0,-1,1091,631,0,0
-126,393,0,0,0,0,0,0,0,0,0,-1,1098,631,0,0
-119,393,0,0,0,0,0,0,0,0,0,-1,1105,631,0,0
-112,393,0,0,0,0,0,0,0,0,0,-1,1112,631,0,0
-105,393,0,0,0,0,0,0,0,0,0,-1,1119,631,0,0
-98,393,0,0,0,0,0,0,0,0,0,-1,1126,631,0,0
-91,393,0,0,0,0,0,0,0,0,0,-1,1133,631,0,0
-84,393,0,0,0,0,0,0,0,0,0,-1,1140,631,0,0
-77,393,0,0,0,0,0,0,0,0,0,-1,1147,631,0,0
-70,393,0,0,0,0,0,0,0,0,0,-1,1154,631,0,0
-63,393,0,0,0,0,0,0,0,0,0,-1,1161,631,0,0
-56,393,0,0,0,0,0,0,0,0,0,-1,1168,631,0,0
-49,393,0,0,0,0,0,0,0,0,0,-1,1175,631,0,0
-42,393,0,0,0,0,0,0,0,0,0,-1,1182,631,0,0
-35,393,0,0,0,0,0,0,0,0,0,-1,1189,631,0,0
-28,393,0,0,0,0,0,0,0,0,0,-1,1196,631,0,0
-21,393,0,0,0,0,0,0,0,0,0,-1,1203,631,0,0
-14,393,0,0,0,0,0,0,0,0,0,-1,1210,631,0,0
-7,393,0,0,0,0,0,0,0,0,0,-1,1217,631,0,0
0,393,0,0,0,0,0,0,0,0,0,-1,1224,631,0,0
7,393,0,0,0,0,0,0,0,0,0,-1,1231,631,0,0
14,393,0,0,0,0,0,0,0,0,0,-1,1238,631,0,0
21,393,0,0,0,0,0,0,0,0,0,-1,1245,631,0,0
28,393,0,0,0,0,0,0,0,0,0,-1,1252,631,0,0
35,393,0,0,0,0,0,0,0,0,0,-1,1259,631,0,0
42,393,0,0,0,0,0,0,0,0,0,-1,1266,631,0,0
49,393,0,0,0,0,0,0,0,0,0,-1,1273,631,0,0
56,393,0,0,0,0,0,0,0,0,0,-1,1280,631,0,0
63,393,0,0,0,0,0,0,0,0,0,-1,1287,631,0,0
70,393,0,0,0,0,0,0,0,0,0,-1,1294,631,0,0
77,393,0,0,0,0,0,0,0,0,0,-1,1301,631,0,0
84,393,0,0,0,0,0,0,0,0,0,-1,1308,631,0,0
91,393,0,0,0,0,0,0,0,0,0,-1,1315,631,0,0
98,393,0,0,0,0,0,0,0,0,0,-1,1322,631,0,0
105,393,0,0,0,0,0,0,0,0,0,-1,1329,631,0,0
112,393,0,0,0,0,0,0,0,0,0,-1,1336,631,0,0
119,393,0,0,0,0,0,0,0,0,0,-1,1343,631,0,0
126,393,0,0,0,0,0,0,0,0,0,-1,1350,631,0,0
133,393,0,0,0,0,0,0,0,0,0,-1,1357,631,0,0
140,393,0,0,0,0,0,0,0,0,0,-1,1364,631,0,0
147,393,0,0,0,0,0,0,0,0,0,-1,1371,631,0,0
154,393,0,0,0,0,0,0,0,0,0,-1,1378,631,0,0
161,393,0,0,0,0,0,0,0,0,0,-1,1385,631,0,0
168,393,0,0,0,0,0,0,0,0,0,-1,1392,631,0,0
175,393,0,0,0,0,0,0,0,0,0,-1,1399,631,0,0
182,393,0,0,0,0,0,0,0,0,0,-1,1406,631,0,0
189,393,0,0,0,0,0,0,0,0,0,-1,1413,631,0,0
196,393,0,0,0,0,0,0,0,0,0,-1,1420,631,0,0
203,393,0,0,0,0,0,0,0,0,0,-1,1427,631,0,0
210,393,0,0,0,0,0,0,0,0,0,-1,1434,631,0,0
217,393,0,0,0,0,0,0,0,0,0,-1,1441,631,0,0
224,393,0,0,0,0,0,0,0,0,0,-1,1448,631,0,0
231,393,0,0,0,0,0,0,0,0,0,-1,1455,631,0,0
238,393,0,0,0,0,0,0,0,0,0,-1,1462,631,0,0
245,393,0,0,0,0,0,0,0,0,0,-1,1469,631,0,0
252,393,0,0,0,0,0,0,0,0,0,-1,1476,631,0,0
259,393,0,0,0,0,0,0,0,0,0,-1,1483,631,0,0
266,393,0,0,0,0,0,0,0,0,0,-1,1490,631,0,0
273,393,0,0,0,0,0,0,0,0,0,-1,1497,631,0,0
280,393,0,0,0,0,0,0,0,0,0,-1,1504,631,0,0
287,393,0,0,0,0,0,0,0,0,0,-1,1511,631,0,0
294,393,0,0,0,0,0,0,0,0,0,-1,1518,631,0,0
301,393,0,0,0,0,0,0,0,0,0,-1,1525,631,0,0
308,393,0,0,0,0,0,0,0,0,0,-1,1532,631,0,0
315,393,0,0,0,0,0,0,0,0,0,-1,1539,631,0,0
322,393,0,0,0,0,0,0,0,0,0,-1,1546,631,0,0
329,393,0,0,0,0,0,0,0,0,0,-1,1553,631,0,0
336,393,0,0,0,0,0,0,0,0,0,-1,1560,631,0,0
343,393,0,0,0,0,0,0,0,0,0,-1,1567,631,0,0
350,393,0,0,0,0,0,0,0,0,0,-1,1574,631,0,0
357,393,0,0,0,0,0,0,0,0,0,-1,1581,631,0,0
364,393,0,0,0,0,0,0,0,0,0,-1,1588,631,0,0
371,393,0,0,0,0,0,0,0,0,0,-1,1595,631,0,0
378,393,0,0,0,0,0,0,0,0,0,-1,1602,631,0,0
385,393,0,0,0,0,0,0,0,0,0,-1,1609,631,0,0
392,393,0,0,0,0,0,0,0,0,0,-1,1616,631,0,0
399,393,0,0,0,0,0,0,0,0,0,-1,1623,631,0,0
406,393,0,0,0,0,0,0,0,0,0,-1,1630,631,0,0
413,393,0,0,0,0,0,0,0,0,0,-1,1637,631,0,0
420,393,0,0,0,0,0,0,0,0,0,-1,1644,631,0,0
427,393,0,0,0,0,0,0,0,0,0,-1,1651,631,0,0
434,393,0,0,0,0,0,0,0,0,0,-1,1658,631,0,0
441,393,0,0,0,0,0,0,0,0,0,-1,1665,631,0,0
448,393,0,0,0,0,0,0,0,0,0,-1,1672,631,0,0
455,393,0,0,0,0,0,0,0,0,0,-1,1679,631,0,0
462,393,8.51099,1.89502,0,0,0,0,0,0,0,-1,1686,631,8.51103,-1.89504
469,393,9.39465,1.51703,0,0,0,0,0,0,0,-1,1693,631,9.39465,-1.51703
476,393,9.95569,1.185,0,0,0,0,0,0,0,-1,1700,631,9.95575,-1.18497
483,393,10.5267,0.887329,0,0,0,0,0,0,0,-1,1707,631,10.5267,-0.887321
490,393,10.9303,0.761414,0,0,0,0,0,0,0,-1,1714,631,10.9303,-0.761386
497,393,8.32153,1.88104,0,0,0,0,0,0,0,-1,1721,631,8.32148,-1.88103
504,393,9.46985,1.78711,0,0,0,0,0,0,0,-1,1728,631,9.46986,-1.78713
511,393,9.66565,-0.375977,0,0,0,0,0,0,0,-1,1735,631,9.66571,0.375949
518,393,7.01599,1.62482,0,0,0,0,0,0,0,-1,1742,631,7.01597,-1.62483
525,393,7.88245,-1.13422,0,0,0,0,0,0,0,-1,1749,631,7.88246,1.13423
532,393,7.06335,-1.18103,0,0,0,0,0,0,0,-1,1756,631,7.06332,1.18101
539,393,9.91626,-2.46301,0,0,0,0,0,0,0,-1,1763,631,9.91625,2.46302
546,393,16.4094,-8.04651,0,0,0,0,0,0,0,-1,1770,631,16.4094,8.04649
553,393,21.0062,-10.5944,0,0,0,0,0,0,0,-1,1777,631,21.0062,10.5944
560,393,21.1646,-9.98169,0.0053725,0.00147162,0.00173096,0.00602983,0.000814293,0.362924,0.00377782,0.0367631,1784,631,21.1646,9.98169
567,393,21.145,-9.32855,0.00409255,0.00095556,0.00114309,0.00446489,0.000583225,0.31489,0.00280249,0.0147456,1791,631,21.1451,9.32855
574,393,21.1456,-8.75269,0.00314479,0.000790208,0.000875251,0.0034345,0.000500502,0.319646,0.00214241,0.014805,1798,631,21.1456,8.7527
581,393,21.104,-8.15466,0.00244044,0.000885973,0.000829453,0.00279991,0.000526508,0.408944,0.0017182,0.015677,1805,631,21.104,8.15463
588,393,21.0785,-7.52557,0.00196576,0.00119215,0.000957343,0.00261149,0.000546422,0.593405,0.00159045,0.0176379,1812,631,21.0785,7.52559
595,393,21.0746,-6.96063,0.00185723,0.00164138,0.00129122,0.00304503,0.000453584,0.743704,0.00189699,0.0152273,1819,631,21.0745,6.96061
602,393,21.0656,-6.34998,0.0021231,0.00236184,0.00187834,0.0041246,0.000360344,0.817131,0.00263783,0.0164954,1826,631,21.0655,6.34995
609,393,21.0009,-5.73596,0.00254647,0.00324699,0.00258861,0.00550893,0.000284527,0.852643,0.00358155,0.0155866,1833,631,21.0009,5.73599
616,393,20.9539,-5.15582,0.00299968,0.00419063,0.0032736,0.00692247,0.000267842,0.875365,0.00452834,0.0162671,1840,631,20.9538,5.15579
623,393,20.9901,-4.44257,0.0040761,0.00524727,0.00430536,0.00900669,0.000316685,0.85299,0.00590173,0.0325058,1847,631,20.9901,4.44258
630,393,21.0718,-3.61804,0,0,0,0,0,0,0,-1,1854,631,21.0718,3.61801
637,393,11.4626,0.608887,0,0,0,0,0,0,0,-1,1861,631,11.4627,-0.608904
644,393,8.97583,1.30585,0,0,0,0,0,0,0,-1,1868,631,8.97586,-1.30584
651,393,11.348,0.53302,0,0,0,0,0,0,0,-1,1875,631,11.348,-0.53305
658,393,9.21338,1.50836,0,0,0,0,0,0,0,-1,1882,631,9.21338,-1.50834
665,393,6.1001,2.32129,0,0,0,0,0,0,0,-1,1889,631,6.10012,-2.3213
672,393,7.14575,2.43225,0,0,0,0,0,0,0,-1,1896,631,7.14572,-2.43222
679,393,0,0,0,0,0,0,0,0,0,-1,1903,631,0,0
686,393,0,0,0,0,0,0,0,0,0,-1,1910,631,0,0
693,393,0,0,0,0,0,0,0,0,0,-1,1917,631,0,0
700,393,0,0,0,0,0,0,0,0,0,-1,1924,631,0,0
707,393,0,0,0,0,0,0,0,0,0,-1,1931,631,0,0
714,393,0,0,0,0,0,0,0,0,0,-1,1938,631,0,0
721,393,0,0,0,0,0,0,0,0,0,-1,1945,631,0,0
728,393,0,0,0,0,0,0,0,0,0,-1,1952,631,0,0
735,393,0,0,0,0,0,0,0,0,0,-1,1959,631,0,0
742,393,0,0,0,0,0,0,0,0,0,-1,1966,631,0,0
749,393,0,0,0,0,0,0,0,0,0,-1,1973,631,0,0
756,393,0,0,0,0,0,0,0,0,0,-1,1980,631,0,0
763,393,0,0,0,0,0,0,0,0,0,-1,1987,631,0,0
770,393,0,0,0,0,0,0,0,0,0,-1,1994,631,0,0
777,393,0,0,0,0,0,0,0,0,0,-1,2001,631,0,0
784,393,0,0,0,0,0,0,0,0,0,-1,2008,631,0,0
791,393,0,0,0,0,0,0,0,0,0,-1,2015,631,0,0
798,393,0,0,0,0,0,0,0,0,0,-1,2022,631,0,0
805,393,0,0,0,0,0,0,0,0,0,-1,2029,631,0,0
812,393,0,0,0,0,0,0,0,0,0,-1,2036,631,0,0
-700,386,0,0,0,0,0,0,0,0,0,-1,524,638,0,0
-693,386,0,0,0,0,0,0,0,0,0,-1,531,638,0,0
-686,386,0,0,0,0,0,0,0,0,0,-1,538,638,0,0
-679,386,0,0,0,0,0,0,0,0,0,-1,545,638,0,0
-672,386,0,0,0,0,0,0,0,0,0,-1,552,638,0,0
-665,386,0,0,0,0,0,0,0,0,0,-1,559,638,0,0
-658,386,0,0,0,0,0,0,0,0,0,-1,566,638,0,0
-651,386,0,0,0,0,0,0,0,0,0,-1,573,638,0,0
-644,386,0,0,0,0,0,0,0,0,0,-1,580,638,0,0
-637,386,0,0,0,0,0,0,0,0,0,-1,587,638,0,0
-630,386,0,0,0,0,0,0,0,0,0,-1,594,638,0,0
-623,386,0,0,0,0,0,0,0,0,0,-1,601,638,0,0
-616,386,0,0,0,0,0,0,0,0,0,-1,608,638,0,0
-609,386,0,0,0,0,0,0,0,0,0,-1,615,638,0,0
-602,386,0,0,0,0,0,0,0,0,0,-1,622,638,0,0
-595,386,0,0,0,0,0,0,0,0,0,-1,629,638,0,0
-588,386,0,0,0,0,0,0,0,0,0,-1,636,638,0,0
-581,386,0,0,0,0,0,0,0,0,0,-1,643,638,0,0
-574,386,0,0,0,0,0,0,0,0,0,-1,650,638,0,0
-567,386,0,0,0,0,0,0,0,0,0,-1,657,638,0,0
-560,386,-3.97229,-5.13898,0,0,0,0,0,0,0,-1,664,638,-3.97232,5.13897
-553,386,-4.94244,-5.54309,0,0,0,0,0,0,0,-1,671,638,-4.94242,5.5431
-546,386,-1.78668,1.72827,0,0,0,0,0,0,0,-1,678,638,-1.78668,-1.72829
-539,386,-0.879456,-2.90009,0,0,0,0,0,0,0,-1,685,638,-0.879442,2.90008
-532,386,-5.4884,1.73328,0,0,0,0,0,0,0,-1,692,638,-5.4884,-1.73325
-525,386,-6.64148,-1.50604,0,0,0,0,0,0,0,-1,699,638,-6.64149,1.50603
-518,386,-7.68927,-2.40173,0,0,0,0,0,0,0,-1,706,638,-7.68929,2.4017
-511,386,-10.7792,-3.83508,0,0,0,0,0,0,0,-1,713,638,-10.7793,3.83507
-504,386,-11.4209,-5.27136,0,0,0,0,0,0,0,-1,720,638,-11.4209,5.27136
-497,386,-11.3692,-6.2124,0.00169142,0.00372669,-0.00169716,0.00468792,0.000730183,-1.05546,0.00291256,0.0197284,727,638,-11.3692,6.21242
-490,386,-11.3163,-6.85242,0.00139298,0.00280618,-0.00132747,0.0036034,0.000595762,-1.02997,0.00223036,0.0140673,734,638,-11.3163,6.85244
-483,386,-11.2946,-7.4505,0.00118084,0.00203459,-0.00106076,0.00275115,0.000464284,-0.976695,0.0017006,0.0179995,741,638,-11.2946,7.4505
-476,386,-11.3164,-8.01758,0.00114127,0.00147392,-0.000927327,0.00224972,0.000365473,-0.874134,0.00139405,0.0169081,748,638,-11.3164,8.01756
-469,386,-11.3664,-8.5484,0.00120312,0.00104177,-0.000850181,0.00197645,0.000268447,-0.738094,0.00123789,0.0127483,755,638,-11.3664,8.5484
-462,386,-11.3968,-9.1488,0.00118504,0.000690163,-0.000740472,0.00171832,0.00015688,-0.62415,0.001097,0.0119041,762,638,-11.3968,9.14881
-455,386,-11.4249,-9.74109,0.000837605,-5.09864e-05,-0.000192815,0.00087764,-9.10213e-05,-0.204725,0.000617673,0.0134031,769,638,-11.4249,9.74107
-448,386,-11.4426,-10.3124,0.000554614,-0.000773758,0.000398356,0.000664915,-0.000884059,0.270124,0.000897279,0.0132842,776,638,-11.4426,10.3124
-441,386,-11.482,-10.8502,3.79161e-05,-0.00156394,0.00120112,0.000680654,-0.00220668,0.491345,0.00174288,0.0136129,783,638,-11.482,10.8502
-434,386,-11.4546,-11.4747,-0.000871591,-0.00273649,0.00242548,0.000794499,-0.00440258,0.601888,0.0032326,0.0359847,790,638,-11.4546,11.4748
-427,386,-11.3987,-12.0518,0,0,0,0,0,0,0,-1,797,638,-11.3987,12.0518
-420,386,-11.4543,-12.5808,0,0,0,0,0,0,0,-1,804,638,-11.4543,12.5808
-413,386,-5.45691,-5.35785,0,0,0,0,0,0,0,-1,811,638,-5.45691,5.35783
-406,386,-4.51135,-4.10999,0,0,0,0,0,0,0,-1,818,638,-4.51135,4.10996
-399,386,-3.57117,-3.42126,0,0,0,0,0,0,0,-1,825,638,-3.57116,3.42129
-392,386,-4.00977,0.403625,0,0,0,0,0,0,0,-1,832,638,-4.0098,-0.403616
-385,386,-3.2406,-0.118469,0,0,0,0,0,0,0,-1,839,638,-3.24058,0.118485
-378,386,-2.55243,-1.22748,0,0,0,0,0,0,0,-1,846,638,-2.55243,1.22748
-371,386,-7.95807,-0.330261,0,0,0,0,0,0,0,-1,853,638,-7.95806,0.330284
-364,386,-8.90637,-0.665955,0,0,0,0,0,0,0,-1,860,638,-8.90635,0.665951
-357,386,-9.10364,-0.388733,0,0,0,0,0,0,0,-1,867,638,-9.10364,0.388744
-350,386,0,0,0,0,0,0,0,0,0,-1,874,638,0,0
-343,386,0,0,0,0,0,0,0,0,0,-1,881,638,0,0
-336,386,0,0,0,0,0,0,0,0,0,-1,888,638,0,0
-329,386,0,0,0,0,0,0,0,0,0,-1,895,638,0,0
-322,386,0,0,0,0,0,0,0,0,0,-1,902,638,0,0
-315,386,0,0,0,0,0,0,0,0,0,-1,909,638,0,0
-308,386,0,0,0,0,0,0,0,0,0,-1,916,638,0,0
-301,386,0,0,0,0,0,0,0,0,0,-1,923,638,0,0
-294,386,0,0,0,0,0,0,0,0,0,-1,930,638,0,0
-287,386,0,0,0,0,0,0,0,0,0,-1,937,638,0,0
-280,386,0,0,0,0,0,0,0,0,0,-1,944,638,0,0
-273,386,0,0,0,0,0,0,0,0,0,-1,951,638,0,0
-266,386,0,0,0,0,0,0,0,0,0,-1,958,638,0,0
-259,386,0,0,0,0,0,0,0,0,0,-1,965,638,0,0
-252,386,0,0,0,0,0,0,0,0,0,-1,972,638,0,0
-245,386,0,0,0,0,0,0,0,0,0,-1,979,638,0,0
-238,386,0,0,0,0,0,0,0,0,0,-1,986,638,0,0
-231,386,0,0,0,0,0,0,0,0,0,-1,993,638,0,0
-224,386,0,0,0,0,0,0,0,0,0,-1,1000,638,0,0
-217,386,0,0,0,0,0,0,0,0,0,-1,1007,638,0,0
-210,386,0,0,0,0,0,0,0,0,0,-1,1014,638,0,0
-203,386,0,0,0,0,0,0,0,0,0,-1,1021,638,0,0
-196,386,0,0,0,0,0,0,0,0,0,-1,1028,638,0,0
-189,386,0,0,0,0,0,0,0,0,0,-1,1035,638,0,0
-182,386,0,0,0,0,0,0,0,0,0,-1,1042,638,0,0
-175,386,0,0,0,0,0,0,0,0,0,-1,1049,638,0,0
-168,386,0,0,0,0,0,0,0,0,0,-1,1056,638,0,0
-161,386,0,0,0,0,0,0,0,0,0,-1,1063,638,0,0
-154,386,0,0,0,0,0,0,0,0,0,-1,1070,638,0,0
-147,386,0,0,0,0,0,0,0,0,0,-1,1077,638,0,0
-140,386,0,0,0,0,0,0,0,0,0,-1,1084,638,0,0
-133,386,0,0,0,0,0,0,0,0,0,-1,1091,638,0,0
-126,386,0,0,0,0,0,0,0,0,0,-1,1098,638,0,0
-119,386,0,0,0,0,0,0,0,0,0,-1,1105,638,0,0
-112,386,0,0,0,0,0,0,0,0,0,-1,1112,638,0,0
-105,386,0,0,0,0,0,0,0,0,0,-1,1119,638,0,0
-98,386,0,0,0,0,0,0,0,0,0,-1,1126,638,0,0
-91,386,0,0,0,0,0,0,0,0,0,-1,1133,638,0,0
-84,386,0,0,0,0,0,0,0,0,0,-1,1140,638,0,0
-77,386,0,0,0,0,0,0,0,0,0,-1,1147,638,0,0
-70,386,0,0,0,0,0,0,0,0,0,-1,1154,638,0,0
-63,386,0,0,0,0,0,0,0,0,0,-1,1161,638,0,0
-56,386,0,0,0,0,0,0,0,0,0,-1,1168,638,0,0
-49,386,0,0,0,0,0,0,0,0,0,-1,1175,638,0,0
-42,386,0,0,0,0,0,0,0,0,0,-1,1182,638,0,0
-35,386,0,0,0,0,0,0,0,0,0,-1,1189,638,0,0
-28,386,0,0,0,0,0,0,0,0,0,-1,1196,638,0,0
-21,386,0,0,0,0,0,0,0,0,0,-1,1203,638,0,0
-14,386,0,0,0,0,0,0,0,0,0,-1,1210,638,0,0
-7,386,0,0,0,0,0,0,0,0,0,-1,1217,638,0,0
0,386,0,0,0,0,0,0,0,0,0,-1,1224,638,0,0
7,386,0,0,0,0,0,0,0,0,0,-1,1231,638,0,0
14,386,0,0,0,0,0,0,0,0,0,-1,1238,638,0,0
21,386,0,0,0,0,0,0,0,0,0,-1,1245,638,0,0
28,386,0,0,0,0,0,0,0,0,0,-1,1252,638,0,0
35,386,0,0,0,0,0,0,0,0,0,-1,1259,638,0,0
42,386,0,0,0,0,0,0,0,0,0,-1,1266,638,0,0
49,386,0,0,0,0,0,0,0,0,0,-1,1273,638,0,0
56,386,0,0,0,0,0,0,0,0,0,-1,1280,638,0,0
63,386,0,0,0,0,0,0,0,0,0,-1,1287,638,0,0
70,386,0,0,0,0,0,0,0,0,0,-1,1294,638,0,0
77,386,0,0,0,0,0,0,0,0,0,-1,1301,638,0,0
84,386,0,0,0,0,0,0,0,0,0,-1,1308,638,0,0
91,386,0,0,0,0,0,0,0,0,0,-1,1315,638,0,0
98,386,0,0,0,0,0,0,0,0,0,-1,1322,638,0,0
105,386,0,0,0,0,0,0,0,0,0,-1,1329,638,0,0
112,386,0,0,0,0,0,0,0,0,0,-1,1336,638,0,0
119,386,0,0,0,0,0,0,0,0,0,-1,1343,638,0,0
126,386,0,0,0,0,0,0,0,0,0,-1,1350,638,0,0
133,386,0,0,0,0,0,0,0,0,0,-1,1357,638,0,0
140,386,0,0,0,0,0,0,0,0,0,-1,1364,638,0,0
147,386,0,0,0,0,0,0,0,0,0,-1,1371,638,0,0
154,386,0,0,0,0,0,0,0,0,0,-1,1378,638,0,0
161,386,0,0,0,0,0,0,0,0,0,-1,1385,638,0,0
168,386,0,0,0,0,0,0,0,0,0,-1,1392,638,0,0
175,386,0,0,0,0,0,0,0,0,0,-1,1399,638,0,0
182,386,0,0,0,0,0,0,0,0,0,-1,1406,638,0,0
189,386,0,0,0,0,0,0,0,0,0,-1,1413,638,0,0
196,386,0,0,0,0,0,0,0,0,0,-1,1420,638,0,0
203,386,0,0,0,0,0,0,0,0,0,-1,1427,638,0,0
210,386,0,0,0,0,0,0,0,0,0,-1,1434,638,0,0
217,386,0,0,0,0,0,0,0,0,0,-1,1441,638,0,0
224,386,0,0,0,0,0,0,0,0,0,-1,1448,638,0,0
231,386,0,0,0,0,0,0,0,0,0,-1,1455,638,0,0
238,386,0,0,0,0,0,0,0,0,0,-1,1462,638,0,0
245,386,0,0,0,0,0,0,0,0,0,-1,1469,638,0,0
252,386,0,0,0,0,0,0,0,0,0,-1,1476,638,0,0
259,386,0,0,0,0,0,0,0,0,0,-1,1483,638,0,0
266,386,0,0,0,0,0,0,0,0,0,-1,1490,638,0,0
273,386,0,0,0,0,0,0,0,0,0,-1,1497,638,0,0
280,386,0,0,0,0,0,0,0,0,0,-1,1504,638,0,0
287,386,0,0,0,0,0,0,0,0,0,-1,1511,638,0,0
294,386,0,0,0,0,0,0,0,0,0,-1,1518,638,0,0
301,386,0,0,0,0,0,0,0,0,0,-1,1525,638,0,0
308,386,0,0,0,0,0,0,0,0,0,-1,1532,638,0,0
315,386,0,0,0,0,0,0,0,0,0,-1,1539,638,0,0
322,386,0,0,0,0,0,0,0,0,0,-1,1546,638,0,0
329,386,0,0,0,0,0,0,0,0,0,-1,1553,638,0,0
336,386,0,0,0,0,0,0,0,0,0,-1,1560,638,0,0
343,386,0,0,0,0,0,0,0,0,0,-1,1567,638,0,0
350,386,0,0,0,0,0,0,0,0,0,-1,1574,638,0,0
357,386,0,0,0,0,0,0,0,0,0,-1,1581,638,0,0
364,386,0,0,0,0,0,0,0,0,0,-1,1588,638,0,0
371,386,0,0,0,0,0,0,0,0,0,-1,1595,638,0,0
378,386,0,0,0,0,0,0,0,0,0,-1,1602,638,0,0
385,386,0,0,0,0,0,0,0,0,0,-1,1609,638,0,0
392,386,0,0,0,0,0,0,0,0,0,-1,1616,638,0,0
399,386,0,0,0,0,0,0,0,0,0,-1,1623,638,0,0
406,386,0,0,0,0,0,0,0,0,0,-1,1630,638,0,0
413,386,0,0,0,0,0,0,0,0,0,-1,1637,638,0,0
420,386,0,0,0,0,0,0,0,0,0,-1,1644,638,0,0
427,386,0,0,0,0,0,0,0,0,0,-1,1651,638,0,0
434,386,0,0,0,0,0,0,0,0,0,-1,1658,638,0,0
441,386,0,0,0,0,0,0,0,0,0,-1,1665,638,0,0
448,386,0,0,0,0,0,0,0,0,0,-1,1672,638,0,0
455,386,0,0,0,0,0,0,0,0,0,-1,1679,638,0,0
462,386,0,0,0,0,0,0,0,0,0,-1,1686,638,0,0
469,386,9.84692,1.55804,0,0,0,0,0,0,0,-1,1693,638,9.84691,-1.55807
476,386,10.6145,0.986511,0,0,0,0,0,0,0,-1,1700,638,10.6145,-0.986529
483,386,11.4113,0.732971,0,0,0,0,0,0,0,-1,1707,638,11.4112,-0.732958
490,386,7.79785,1.79572,0,0,0,0,0,0,0,-1,1714,638,7.79788,-1.7957
497,386,8.96362,1.77081,0,0,0,0,0,0,0,-1,1721,638,8.96357,-1.77081
504,386,10.0555,1.69427,0,0,0,0,0,0,0,-1,1728,638,10.0555,-1.69426
511,386,11.2172,1.534,0,0,0,0,0,0,0,-1,1735,638,11.2172,-1.53398
518,386,7.41553,1.75238,0,0,0,0,0,0,0,-1,1742,638,7.41547,-1.75238
525,386,8.82422,-1.1449,0,0,0,0,0,0,0,-1,1749,638,8.82426,1.14492
532,386,10.6432,0.617371,0,0,0,0,0,0,0,-1,1756,638,10.6432,-0.617359
539,386,9.62061,-0.393616,0,0,0,0,0,0,0,-1,1763,638,9.62059,0.393634
546,386,10.7963,-2.854,0,0,0,0,0,0,0,-1,1770,638,10.7962,2.854
553,386,16.9939,-7.27942,0,0,0,0,0,0,0,-1,1777,638,16.9939,7.27944
560,386,21.5852,-9.95673,0,0,0,0,0,0,0,-1,1784,638,21.5851,9.95673
567,386,21.668,-9.3064,0.00491235,0.000912032,0.00120402,0.00524678,0.000577603,0.270931,0.0033221,0.0308783,1791,638,21.6679,9.30642
574,386,21.7126,-8.70508,0.00363678,0.000663119,0.000802674,0.00383961,0.00046029,0.24751,0.00242094,0.0136444,1798,638,21.7126,8.70511
581,386,21.6724,-8.14233,0.00267075,0.000700113,0.000638421,0.00285949,0.000511364,0.287461,0.0017608,0.0141152,1805,638,21.6723,8.14235
588,386,21.6691,-7.52942,0.00202534,0.000925305,0.000673422,0.00234482,0.000605831,0.442962,0.00140549,0.0131371,1812,638,21.6691,7.52942
595,386,21.6522,-6.93628,0.00178584,0.00129555,0.000915408,0.00248836,0.00059303,0.654568,0.00150081,0.0147221,1819,638,21.6522,6.93626
602,386,21.6328,-6.33197,0.00194183,0.00192625,0.00141313,0.00334719,0.000520891,0.782641,0.00207969,0.0158411,1826,638,21.6329,6.33195
609,386,21.6162,-5.74475,0.0022407,0.00269121,0.00200809,0.00448664,0.000445272,0.841251,0.00285427,0.0143603,1833,638,21.6162,5.74475
616,386,21.5786,-5.15839,0.00253265,0.00343579,0.00252255,0.00554687,0.000421573,0.873967,0.00356571,0.012517,1840,638,21.5786,5.15838
623,386,21.5421,-4.5332,0.0032861,0.00426789,0.00328404,0.00709752,0.000456466,0.859588,0.0045871,0.0111874,1847,638,21.5421,4.5332
630,386,21.6704,-3.8786,0.00401203,0.00505978,0.00387335,0.00844453,0.000627285,0.852616,0.00543267,0.0370465,1854,638,21.6704,3.87858
637,386,21.8792,-3.21094,0,0,0,0,0,0,0,-1,1861,638,21.8791,3.21091
644,386,11.6521,0.723328,0,0,0,0,0,0,0,-1,1868,638,11.6521,-0.723355
651,386,9.3866,1.31097,0,0,0,0,0,0,0,-1,1875,638,9.3866,-1.31095
658,386,12.0731,-0.00415039,0,0,0,0,0,0,0,-1,1882,638,12.0731,0.00412803
665,386,6.33167,1.78601,0,0,0,0,0,0,0,-1,1889,638,6.33171,-1.78601
672,386,7.23352,2.14435,0,0,0,0,0,0,0,-1,1896,638,7.23353,-2.14433
679,386,8.07764,2.57104,0,0,0,0,0,0,0,-1,1903,638,8.07758,-2.57103
686,386,0,0,0,0,0,0,0,0,0,-1,1910,638,0,0
693,386,0,0,0,0,0,0,0,0,0,-1,1917,638,0,0
700,386,0,0,0,0,0,0,0,0,0,-1,1924,638,0,0
707,386,0,0,0,0,0,0,0,0,0,-1,1931,638,0,0
714,386,0,0,0,0,0,0,0,0,0,-1,1938,638,0,0
721,386,0,0,0,0,0,0,0,0,0,-1,1945,638,0,0
728,386,0,0,0,0,0,0,0,0,0,-1,1952,638,0,0
735,386,0,0,0,0,0,0,0,0,0,-1,1959,638,0,0
742,386,0,0,0,0,0,0,0,0,0,-1,1966,638,0,0
749,386,0,0,0,0,0,0,0,0,0,-1,1973,638,0,0
756,386,0,0,0,0,0,0,0,0,0,-1,1980,638,0,0
763,386,0,0,0,0,0,0,0,0,0,-1,1987,638,0,0
770,386,0,0,0,0,0,0,0,0,0,-1,1994,638,0,0
777,386,0,0,0,0,0,0,0,0,0,-1,2001,638,0,0
784,386,0,0,0,0,0,0,0,0,0,-1,2008,638,0,0
791,386,0,0,0,0,0,0,0,0,0,-1,2015,638,0,0
798,386,0,0,0,0,0,0,0,0,0,-1,2022,638,0,0
805,386,0,0,0,0,0,0,0,0,0,-1,2029,638,0,0
812,386,0,0,0,0,0,0,0,0,0,-1,2036,638,0,0
-700,379,0,0,0,0,0,0,0,0,0,-1,524,645,0,0
-693,379,0,0,0,0,0,0,0,0,0,-1,531,645,0,0
-686,379,0,0,0,0,0,0,0,0,0,-1,538,645,0,0
-679,379,0,0,0,0,0,0,0,0,0,-1,545,645,0,0
-672,379,0,0,0,0,0,0,0,0,0,-1,552,645,0,0
-665,379,0,0,0,0,0,0,0,0,0,-1,559,645,0,0
-658,379,0,0,0,0,0,0,0,0,0,-1,566,645,0,0
-651,379,0,0,0,0,0,0,0,0,0,-1,573,645,0,0
-644,379,0,0,0,0,0,0,0,0,0,-1,580,645,0,0
-637,379,0,0,0,0,0,0,0,0,0,-1,587,645,0,0
-630,379,0,0,0,0,0,0,0,0,0,-1,594,645,0,0
-623,379,0,0,0,0,0,0,0,0,0,-1,601,645,0,0
-616,379,0,0,0,0,0,0,0,0,0,-1,608,645,0,0
-609,379,0,0,0,0,0,0,0,0,0,-1,615,645,0,0
-602,379,0,0,0,0,0,0,0,0,0,-1,622,645,0,0
-595,379,0,0,0,0,0,0,0,0,0,-1,629,645,0,0
-588,379,0,0,0,0,0,0,0,0,0,-1,636,645,0,0
-581,379,0,0,0,0,0,0,0,0,0,-1,643,645,0,0
-574,379,0,0,0,0,0,0,0,0,0,-1,650,645,0,0
-567,379,-8.78058,0.59668,0,0,0,0,0,0,0,-1,657,645,-8.7806,-0.596692
-560,379,-9.53485,-0.211304,0,0,0,0,0,0,0,-1,664,645,-9.53487,0.211282
-553,379,-5.17108,-4.53119,0,0,0,0,0,0,0,-1,671,645,-5.17106,4.53117
-546,379,-6.23053,-4.92102,0,0,0,0,0,0,0,-1,678,645,-6.23054,4.92105
-539,379,-0.71698,-2.19427,0,0,0,0,0,0,0,-1,685,645,-0.716959,2.19427
-532,379,-7.69611,0.217224,0,0,0,0,0,0,0,-1,692,645,-7.69614,-0.217204
-525,379,-7.09833,-1.13043,0,0,0,0,0,0,0,-1,699,645,-7.0983,1.13041
-518,379,-10.5613,-3.82849,0,0,0,0,0,0,0,-1,706,645,-10.5613,3.82849
-511,379,-11.8358,-5.04999,0,0,0,0,0,0,0,-1,713,645,-11.8358,5.04999
-504,379,-11.8147,-5.70984,0.0021744,0.00385133,-0.00190102,0.00509058,0.00093515,-0.993095,0.00312894,0.0281722,720,645,-11.8147,5.70982
-497,379,-11.8895,-6.24274,0.00174631,0.00292362,-0.00143,0.00388139,0.000788543,-0.980652,0.0023689,0.0144297,727,645,-11.8895,6.24273
-490,379,-11.8914,-6.84375,0.0015189,0.00218829,-0.00114953,0.00305085,0.000656332,-0.927062,0.00185426,0.0123054,734,645,-11.8914,6.84373
-483,379,-11.9046,-7.43842,0.0013832,0.00158786,-0.000968841,0.00245976,0.000511297,-0.838014,0.00149876,0.0139368,741,645,-11.9046,7.43844
-476,379,-11.9001,-7.98425,0.00140404,0.00114905,-0.000906827,0.00219229,0.000360802,-0.715558,0.00135734,0.01406,748,645,-11.9001,7.98425
-469,379,-11.9451,-8.51147,0.00151204,0.000813385,-0.000889775,0.0021186,0.00020682,-0.598342,0.00134876,0.0128344,755,645,-11.9452,8.5115
-462,379,-11.9702,-9.09521,0.00152285,0.000546855,-0.000836403,0.00200321,6.64968e-05,-0.521319,0.00131387,0.0097873,762,645,-11.9701,9.0952
-455,379,-11.9839,-9.69415,0.00117979,-0.000171699,-0.000305632,0.00124569,-0.000237602,-0.212378,0.000919947,0.0100255,769,645,-11.9839,9.69414
-448,379,-11.9921,-10.2477,0.000915823,-0.000852721,0.000244691,0.000949053,-0.000885951,0.13498,0.00105965,0.0124833,776,645,-11.9921,10.2477
-441,379,-12.0103,-10.8487,0.000437122,-0.00149079,0.000959349,0.000833152,-0.00188682,0.391501,0.00160917,0.0235489,783,645,-12.0103,10.8487
-434,379,-11.8816,-11.5929,0,0,0,0,0,0,0,-1,790,645,-11.8816,11.5929
-427,379,-4.16113,-4.13452,0,0,0,0,0,0,0,-1,797,645,-4.16116,4.1345
-420,379,-4.63953,-3.46869,0,0,0,0,0,0,0,-1,804,645,-4.63953,3.46872
-413,379,-4.62543,-3.7912,0,0,0,0,0,0,0,-1,811,645,-4.62541,3.79123
-406,379,-4.64063,-4.38489,0,0,0,0,0,0,0,-1,818,645,-4.64065,4.3849
-399,379,-2.93536,-1.40118,0,0,0,0,0,0,0,-1,825,645,-2.93534,1.40119
-392,379,-4.16711,-0.466003,0,0,0,0,0,0,0,-1,832,645,-4.16714,0.465992
-385,379,-3.51862,0.441101,0,0,0,0,0,0,0,-1,839,645,-3.51859,-0.441072
-378,379,-5.3504,0.212219,0,0,0,0,0,0,0,-1,846,645,-5.35038,-0.212241
-371,379,-4.32092,-0.186707,0,0,0,0,0,0,0,-1,853,645,-4.3209,0.186707
-364,379,-3.40887,-0.549805,0,0,0,0,0,0,0,-1,860,645,-3.4089,0.549802
-357,379,0,0,0,0,0,0,0,0,0,-1,867,645,0,0
-350,379,0,0,0,0,0,0,0,0,0,-1,874,645,0,0
-343,379,0,0,0,0,0,0,0,0,0,-1,881,645,0,0
-336,379,0,0,0,0,0,0,0,0,0,-1,888,645,0,0
-329,379,0,0,0,0,0,0,0,0,0,-1,895,645,0,0
-322,379,0,0,0,0,0,0,0,0,0,-1,902,645,0,0
-315,379,0,0,0,0,0,0,0,0,0,-1,909,645,0,0
-308,379,0,0,0,0,0,0,0,0,0,-1,916,645,0,0
-301,379,0,0,0,0,0,0,0,0,0,-1,923,645,0,0
-294,379,0,0,0,0,0,0,0,0,0,-1,930,645,0,0
-287,379,0,0,0,0,0,0,0,0,0,-1,937,645,0,0
-280,379,0,0,0,0,0,0,0,0,0,-1,944,645,0,0
-273,379,0,0,0,0,0,0,0,0,0,-1,951,645,0,0
-266,379,0,0,0,0,0,0,0,0,0,-1,958,645,0,0
-259,379,0,0,0,0,0,0,0,0,0,-1,965,645,0,0
-252,379,0,0,0,0,0,0,0,0,0,-1,972,645,0,0
-245,379,0,0,0,0,0,0,0,0,0,-1,979,645,0,0
-238,379,0,0,0,0,0,0,0,0,0,-1,986,645,0,0
-231,379,0,0,0,0,0,0,0,0,0,-1,993,645,0,0
-224,379,0,0,0,0,0,0,0,0,0,-1,1000,645,0,0
-217,379,0,0,0,0,0,0,0,0,0,-1,1007,645,0,0
-210,379,0,0,0,0,0,0,0,0,0,-1,1014,645,0,0
-203,379,0,0,0,0,0,0,0,0,0,-1,1021,645,0,0
-196,379,0,0,0,0,0,0,0,0,0,-1,1028,645,0,0
-189,379,0,0,0,0,0,0,0,0,0,-1,1035,645,0,0
-182,379,0,0,0,0,0,0,0,0,0,-1,1042,645,0,0
-175,379,0,0,0,0,0,0,0,0,0,-1,1049,645,0,0
-168,379,0,0,0,0,0,0,0,0,0,-1,1056,645,0,0
-161,379,0,0,0,0,0,0,0,0,0,-1,1063,645,0,0
-154,379,0,0,0,0,0,0,0,0,0,-1,1070,645,0,0
-147,379,0,0,0,0,0,0,0,0,0,-1,1077,645,0,0
-140,379,0,0,0,0,0,0,0,0,0,-1,1084,645,0,0
-133,379,0,0,0,0,0,0,0,0,0,-1,1091,645,0,0
-126,379,0,0,0,0,0,0,0,0,0,-1,1098,645,0,0
-119,379,0,0,0,0,0,0,0,0,0,-1,1105,645,0,0
-112,379,0,0,0,0,0,0,0,0,0,-1,1112,645,0,0
-105,379,0,0,0,0,0,0,0,0,0,-1,1119,645,0,0
-98,379,0,0,0,0,0,0,0,0,0,-1,1126,645,0,0
-91,379,0,0,0,0,0,0,0,0,0,-1,1133,645,0,0
-84,379,0,0,0,0,0,0,0,0,0,-1,1140,645,0,0
-77,379,0,0,0,0,0,0,0,0,0,-1,1147,645,0,0
-70,379,0,0,0,0,0,0,0,0,0,-1,1154,645,0,0
-63,379,0,0,0,0,0,0,0,0,0,-1,1161,645,0,0
-56,379,0,0,0,0,0,0,0,0,0,-1,1168,645,0,0
-49,379,0,0,0,0,0,0,0,0,0,-1,1175,645,0,0
-42,379,0,0,0,0,0,0,0,0,0,-1,1182,645,0,0
-35,379,0,0,0,0,0,0,0,0,0,-1,1189,645,0,0
-28,379,0,0,0,0,0,0,0,0,0,-1,1196,645,0,0
-21,379,0,0,0,0,0,0,0,0,0,-1,1203,645,0,0
-14,379,0,0,0,0,0,0,0,0,0,-1,1210,645,0,0
-7,379,0,0,0,0,0,0,0,0,0,-1,1217,645,0,0
0,379,0,0,0,0,0,0,0,0,0,-1,1224,645,0,0
7,379,0,0,0,0,0,0,0,0,0,-1,1231,645,0,0
14,379,0,0,0,0,0,0,0,0,0,-1,1238,645,0,0
21,379,0,0,0,0,0,0,0,0,0,-1,1245,645,0,0
28,379,0,0,0,0,0,0,0,0,0,-1,1252,645,0,0
35,379,0,0,0,0,0,0,0,0,0,-1,1259,645,0,0
42,379,0,0,0,0,0,0,0,0,0,-1,1266,645,0,0
49,379,0,0,0,0,0,0,0,0,0,-1,1273,645,0,0
56,379,0,0,0,0,0,0,0,0,0,-1,1280,645,0,0
63,379,0,0,0,0,0,0,0,0,0,-1,1287,645,0,0
70,379,0,0,0,0,0,0,0,0,0,-1,1294,645,0,0
77,379,0,0,0,0,0,0,0,0,0,-1,1301,645,0,0
84,379,0,0,0,0,0,0,0,0,0,-1,1308,645,0,0
91,379,0,0,0,0,0,0,0,0,0,-1,1315,645,0,0
98,379,0,0,0,0,0,0,0,0,0,-1,1322,645,0,0
105,379,0,0,0,0,0,0,0,0,0,-1,1329,645,0,0
112,379,0,0,0,0,0,0,0,0,0,-1,1336,645,0,0
119,379,0,0,0,0,0,0,0,0,0,-1,1343,645,0,0
126,379,0,0,0,0,0,0,0,0,0,-1,1350,645,0,0
133,379,0,0,0,0,0,0,0,0,0,-1,1357,645,0,0
140,379,0,0,0,0,0,0,0,0,0,-1,1364,645,0,0
147,379,0,0,0,0,0,0,0,0,0,-1,1371,645,0,0
154,379,0,0,0,0,0,0,0,0,0,-1,1378,645,0,0
161,379,0,0,0,0,0,0,0,0,0,-1,1385,645,0,0
168,379,0,0,0,0,0,0,0,0,0,-1,1392,645,0,0
175,379,0,0,0,0,0,0,0,0,0,-1,1399,645,0,0
182,379,0,0,0,0,0,0,0,0,0,-1,1406,645,0,0
189,379,0,0,0,0,0,0,0,0,0,-1,1413,645,0,0
196,379,0,0,0,0,0,0,0,0,0,-1,1420,645,0,0
203,379,0,0,0,0,0,0,0,0,0,-1,1427,645,0,0
210,379,0,0,0,0,0,0,0,0,0,-1,1434,645,0,0
217,379,0,0,0,0,0,0,0,0,0,-1,1441,645,0,0
224,379,0,0,0,0,0,0,0,0,0,-1,1448,645,0,0
231,379,0,0,0,0,0,0,0,0,0,-1,1455,645,0,0
238,379,0,0,0,0,0,0,0,0,0,-1,1462,645,0,0
245,379,0,0,0,0,0,0,0,0,0,-1,1469,645,0,0
252,379,0,0,0,0,0,0,0,0,0,-1,1476,645,0,0
259,379,0,0,0,0,0,0,0,0,0,-1,1483,645,0,0
266,379,0,0,0,0,0,0,0,0,0,-1,1490,645,0,0
273,379,0,0,0,0,0,0,0,0,0,-1,1497,645,0,0
280,379,0,0,0,0,0,0,0,0,0,-1,1504,645,0,0
287,379,0,0,0,0,0,0,0,0,0,-1,1511,645,0,0
294,379,0,0,0,0,0,0,0,0,0,-1,1518,645,0,0
301,379,0,0,0,0,0,0,0,0,0,-1,1525,645,0,0
308,379,0,0,0,0,0,0,0,0,0,-1,1532,645,0,0
315,379,0,0,0,0,0,0,0,0,0,-1,1539,645,0,0
322,379,0,0,0,0,0,0,0,0,0,-1,1546,645,0,0
329,379,0,0,0,0,0,0,0,0,0,-1,1553,645,0,0
336,379,0,0,0,0,0,0,0,0,0,-1,1560,645,0,0
343,379,0,0,0,0,0,0,0,0,0,-1,1567,645,0,0
350,379,0,0,0,0,0,0,0,0,0,-1,1574,645,0,0
357,379,0,0,0,0,0,0,0,0,0,-1,1581,645,0,0
364,379,0,0,0,0,0,0,0,0,0,-1,1588,645,0,0
371,379,0,0,0,0,0,0,0,0,0,-1,1595,645,0,0
378,379,0,0,0,0,0,0,0,0,0,-1,1602,645,0,0
385,379,0,0,0,0,0,0,0,0,0,-1,1609,645,0,0
392,379,0,0,0,0,0,0,0,0,0,-1,1616,645,0,0
399,379,0,0,0,0,0,0,0,0,0,-1,1623,645,0,0
406,379,0,0,0,0,0,0,0,0,0,-1,1630,645,0,0
413,379,0,0,0,0,0,0,0,0,0,-1,1637,645,0,0
420,379,0,0,0,0,0,0,0,0,0,-1,1644,645,0,0
427,379,0,0,0,0,0,0,0,0,0,-1,1651,645,0,0
434,379,0,0,0,0,0,0,0,0,0,-1,1658,645,0,0
441,379,0,0,0,0,0,0,0,0,0,-1,1665,645,0,0
448,379,0,0,0,0,0,0,0,0,0,-1,1672,645,0,0
455,379,0,0,0,0,0,0,0,0,0,-1,1679,645,0,0
462,379,0,0,0,0,0,0,0,0,0,-1,1686,645,0,0
469,379,0,0,0,0,0,0,0,0,0,-1,1693,645,0,0
476,379,11.1787,0.830383,0,0,0,0,0,0,0,-1,1700,645,11.1787,-0.830365
483,379,7.4231,1.54321,0,0,0,0,0,0,0,-1,1707,645,7.42314,-1.54324
490,379,8.52881,1.56677,0,0,0,0,0,0,0,-1,1714,645,8.52878,-1.56677
497,379,9.63599,1.49573,0,0,0,0,0,0,0,-1,1721,645,9.63604,-1.4957
504,379,10.0833,1.35229,0,0,0,0,0,0,0,-1,1728,645,10.0832,-1.35227
511,379,8.14343,1.59912,0,0,0,0,0,0,0,-1,1735,645,8.14347,-1.59912
518,379,12.7955,-0.324097,0,0,0,0,0,0,0,-1,1742,645,12.7955,0.324101
525,379,6.03711,1.10352,0,0,0,0,0,0,0,-1,1749,645,6.03711,-1.10351
532,379,8.70947,0.887817,0,0,0,0,0,0,0,-1,1756,645,8.70953,-0.887808
539,379,9.87097,0.111389,0,0,0,0,0,0,0,-1,1763,645,9.87095,-0.111395
546,379,8.42383,-0.730652,0,0,0,0,0,0,0,-1,1770,645,8.42378,0.730638
553,379,19.2905,-7.67834,0,0,0,0,0,0,0,-1,1777,645,19.2905,7.67837
560,379,21.9192,-9.80597,0,0,0,0,0,0,0,-1,1784,645,21.9192,9.80594
567,379,22.0902,-9.23145,0.00581685,0.000828162,0.00118836,0.00608546,0.000559547,0.222303,0.00388392,0.0431183,1791,645,22.0902,9.23147
574,379,22.306,-8.6795,0.00416582,0.000542619,0.000702725,0.00429734,0.000411098,0.185017,0.00273816,0.0144917,1798,645,22.306,8.67949
581,379,22.3025,-8.11884,0.00294414,0.000555028,0.000458143,0.00302898,0.000470186,0.183112,0.00188227,0.0159475,1805,645,22.3025,8.11882
588,379,22.2832,-7.52014,0.00214272,0.000711165,0.00043192,0.00226294,0.000590945,0.271467,0.0013553,0.0178442,1812,645,22.2832,7.52016
595,379,22.2501,-6.92181,0.00177253,0.00102827,0.000604543,0.0021103,0.0006905,0.509507,0.0012424,0.0150143,1819,645,22.2502,6.92184
602,379,22.2357,-6.34015,0.00180055,0.00157174,0.00101511,0.00270768,0.000664608,0.729284,0.00162941,0.0153146,1826,645,22.2357,6.34015
609,379,22.2009,-5.77045,0.00196383,0.00220999,0.00150288,0.00359482,0.000578996,0.826255,0.00222876,0.0159906,1833,645,22.2009,5.77047
616,379,22.1654,-5.16309,0.00208944,0.0027607,0.00187339,0.00432828,0.000521852,0.874036,0.00272826,0.0128682,1840,645,22.1653,5.16311
623,379,22.1608,-4.51471,0.002473,0.00337235,0.00240823,0.00537253,0.000472829,0.877697,0.00343494,0.0119804,1847,645,22.1608,4.51474
630,379,22.1454,-3.92322,0.00264344,0.00387315,0.00275746,0.00608347,0.000433114,0.895093,0.00391926,0.0142818,1854,645,22.1454,3.92321
637,379,22.1697,-3.21625,0.00246888,0.0043274,0.00293489,0.00647663,0.000319645,0.938717,0.00421525,0.042061,1861,645,22.1697,3.21627
644,379,22.3879,-2.38904,0,0,0,0,0,0,0,-1,1868,645,22.3879,2.38905
651,379,12.9515,0.220825,0,0,0,0,0,0,0,-1,1875,645,12.9515,-0.220814
658,379,13.7498,0.37439,0,0,0,0,0,0,0,-1,1882,645,13.7498,-0.374371
665,379,11.9719,0.353333,0,0,0,0,0,0,0,-1,1889,645,11.9719,-0.353321
672,379,7.57605,2.15326,0,0,0,0,0,0,0,-1,1896,645,7.57599,-2.15326
679,379,8.55078,2.50409,0,0,0,0,0,0,0,-1,1903,645,8.55073,-2.50406
686,379,0,0,0,0,0,0,0,0,0,-1,1910,645,0,0
693,379,0,0,0,0,0,0,0,0,0,-1,1917,645,0,0
700,379,0,0,0,0,0,0,0,0,0,-1,1924,645,0,0
707,379,0,0,0,0,0,0,0,0,0,-1,1931,645,0,0
714,379,0,0,0,0,0,0,0,0,0,-1,1938,645,0,0
721,379,0,0,0,0,0,0,0,0,0,-1,1945,645,0,0
728,379,0,0,0,0,0,0,0,0,0,-1,1952,645,0,0
735,379,0,0,0,0,0,0,0,0,0,-1,1959,645,0,0
742,379,0,0,0,0,0,0,0,0,0,-1,1966,645,0,0
749,379,0,0,0,0,0,0,0,0,0,-1,1973,645,0,0
756,379,0,0,0,0,0,0,0,0,0,-1,1980,645,0,0
763,379,0,0,0,0,0,0,0,0,0,-1,1987,645,0,0
770,379,0,0,0,0,0,0,0,0,0,-1,1994,645,0,0
777,379,0,0,0,0,0,0,0,0,0,-1,2001,645,0,0
784,379,0,0,0,0,0,0,0,0,0,-1,2008,645,0,0
791,379,0,0,0,0,0,0,0,0,0,-1,2015,645,0,0
798,379,0,0,0,0,0,0,0,0,0,-1,2022,645,0,0
805,379,0,0,0,0,0,0,0,0,0,-1,2029,645,0,0
812,379,0,0,0,0,0,0,0,0,0,-1,2036,645,0,0
-700,372,0,0,0,0,0,0,0,0,0,-1,524,652,0,0
-693,372,0,0,0,0,0,0,0,0,0,-1,531,652,0,0
-686,372,0,0,0,0,0,0,0,0,0,-1,538,652,0,0
-679,372,0,0,0,0,0,0,0,0,0,-1,545,652,0,0
-672,372,0,0,0,0,0,0,0,0,0,-1,552,652,0,0
-665,372,0,0,0,0,0,0,0,0,0,-1,559,652,0,0
-658,372,0,0,0,0,0,0,0,0,0,-1,566,652,0,0
-651,372,0,0,0,0,0,0,0,0,0,-1,573,652,0,0
-644,372,0,0,0,0,0,0,0,0,0,-1,580,652,0,0
-637,372,0,0,0,0,0,0,0,0,0,-1,587,652,0,0
-630,372,0,0,0,0,0,0,0,0,0,-1,594,652,0,0
-623,372,0,0,0,0,0,0,0,0,0,-1,601,652,0,0
-616,372,0,0,0,0,0,0,0,0,0,-1,608,652,0,0
-609,372,0,0,0,0,0,0,0,0,0,-1,615,652,0,0
-602,372,0,0,0,0,0,0,0,0,0,-1,622,652,0,0
-595,372,0,0,0,0,0,0,0,0,0,-1,629,652,0,0
-588,372,0,0,0,0,0,0,0,0,0,-1,636,652,0,0
-581,372,0,0,0,0,0,0,0,0,0,-1,643,652,0,0
-574,372,0,0,0,0,0,0,0,0,0,-1,650,652,0,0
-567,372,-7.93744,0.73407,0,0,0,0,0,0,0,-1,657,652,-7.93741,-0.734076
-560,372,-8.78552,-0.158203,0,0,0,0,0,0,0,-1,664,652,-8.78552,0.158216
-553,372,-7.95551,1.61694,0,0,0,0,0,0,0,-1,671,652,-7.95552,-1.61697
-546,372,-4.2403,-3.75372,0,0,0,0,0,0,0,-1,678,652,-4.24028,3.75369
-539,372,-7.92285,-0.0650024,0,0,0,0,0,0,0,-1,685,652,-7.92287,0.0649772
-532,372,-8.59589,-0.419556,0,0,0,0,0,0,0,-1,692,652,-8.59591,0.419539
-525,372,-8.03674,-1.36804,0,0,0,0,0,0,0,-1,699,652,-8.03676,1.36806
-518,372,-12.4469,-4.37476,0,0,0,0,0,0,0,-1,706,652,-12.4469,4.37473
-511,372,-12.4036,-5.10248,0.00248298,0.00377985,-0.00198311,0.00521785,0.00104498,-0.943409,0.00318785,0.033129,713,652,-12.4037,5.10248
-504,372,-12.4316,-5.64551,0.00205708,0.00295622,-0.00153874,0.00410972,0.000903586,-0.927526,0.00249379,0.0162831,720,652,-12.4316,5.64551
-497,372,-12.4279,-6.24542,0.0017903,0.00219569,-0.00120279,0.00321275,0.000773243,-0.868873,0.00193625,0.0120046,727,652,-12.4278,6.24542
-490,372,-12.4583,-6.81323,0.00165363,0.00160252,-0.00101747,0.00264587,0.000610286,-0.772843,0.00159977,0.0127165,734,652,-12.4582,6.81323
-483,372,-12.4802,-7.38409,0.00160441,0.00112455,-0.000907317,0.00230298,0.000425976,-0.656139,0.00141487,0.0132294,741,652,-12.4802,7.38411
-476,372,-12.4915,-7.92499,0.00168671,0.000799757,-0.000903671,0.00224986,0.000236609,-0.557288,0.00142759,0.0144451,748,652,-12.4915,7.92498
-469,372,-12.5226,-8.47223,0.00183484,0.000580069,-0.00094493,0.0023417,7.32135e-05,-0.492338,0.00153731,0.0116878,755,652,-12.5227,8.47223
-462,372,-12.535,-9.07007,0.00187718,0.000439658,-0.000952078,0.00235135,-3.45046e-05,-0.46207,0.00157919,0.0101382,762,652,-12.535,9.07008
-455,372,-12.5501,-9.646,0.0015537,-0.000179273,-0.000460795,0.00166861,-0.000294179,-0.24438,0.00122232,0.0104624,769,652,-12.5501,9.64597
-448,372,-12.5543,-10.2108,0.00129046,-0.000748458,5.36881e-05,0.00129187,-0.00074987,0.0263074,0.00119256,0.0125871,776,652,-12.5543,10.2108
-441,372,-12.525,-10.8423,0,0,0,0,0,0,0,-1,783,652,-12.525,10.8423
-434,372,-9.86865,-9.68494,0,0,0,0,0,0,0,-1,790,652,-9.86863,9.68492
-427,372,-4.54248,-3.56268,0,0,0,0,0,0,0,-1,797,652,-4.54247,3.56266
-420,372,-4.66168,-2.93597,0,0,0,0,0,0,0,-1,804,652,-4.66166,2.93599
-413,372,-4.74762,-3.29541,0,0,0,0,0,0,0,-1,811,652,-4.74763,3.29542
-406,372,-0.885437,-0.583923,0,0,0,0,0,0,0,-1,818,652,-0.885437,0.5839
-399,372,-3.97357,-0.825012,0,0,0,0,0,0,0,-1,825,652,-3.97359,0.825037
-392,372,-7.64337,0.173035,0,0,0,0,0,0,0,-1,832,652,-7.64337,-0.173019
-385,372,-6.48871,-0.0271606,0,0,0,0,0,0,0,-1,839,652,-6.48874,0.0271353
-378,372,-5.33044,-0.242432,0,0,0,0,0,0,0,-1,846,652,-5.33042,0.242457
-371,372,-4.40802,-0.495667,0,0,0,0,0,0,0,-1,853,652,-4.40802,0.495661
-364,372,0,0,0,0,0,0,0,0,0,-1,860,652,0,0
-357,372,0,0,0,0,0,0,0,0,0,-1,867,652,0,0
-350,372,0,0,0,0,0,0,0,0,0,-1,874,652,0,0
-343,372,0,0,0,0,0,0,0,0,0,-1,881,652,0,0
-336,372,0,0,0,0,0,0,0,0,0,-1,888,652,0,0
-329,372,0,0,0,0,0,0,0,0,0,-1,895,652,0,0
-322,372,0,0,0,0,0,0,0,0,0,-1,902,652,0,0
-315,372,0,0,0,0,0,0,0,0,0,-1,909,652,0,0
-308,372,0,0,0,0,0,0,0,0,0,-1,916,652,0,0
-301,372,0,0,0,0,0,0,0,0,0,-1,923,652,0,0
-294,372,0,0,0,0,0,0,0,0,0,-1,930,652,0,0
-287,372,0,0,0,0,0,0,0,0,0,-1,937,652,0,0
-280,372,0,0,0,0,0,0,0,0,0,-1,944,652,0,0
-273,372,0,0,0,0,0,0,0,0,0,-1,951,652,0,0
-266,372,0,0,0,0,0,0,0,0,0,-1,958,652,0,0
-259,372,0,0,0,0,0,0,0,0,0,-1,965,652,0,0
-252,372,0,0,0,0,0,0,0,0,0,-1,972,652,0,0
-245,372,0,0,0,0,0,0,0,0,0,-1,979,652,0,0
-238,372,0,0,0,0,0,0,0,0,0,-1,986,652,0,0
-231,372,0,0,0,0,0,0,0,0,0,-1,993,652,0,0
-224,372,0,0,0,0,0,0,0,0,0,-1,1000,652,0,0
-217,372,0,0,0,0,0,0,0,0,0,-1,1007,652,0,0
-210,372,0,0,0,0,0,0,0,0,0,-1,1014,652,0,0
-203,372,0,0,0,0,0,0,0,0,0,-1,1021,652,0,0
-196,372,0,0,0,0,0,0,0,0,0,-1,1028,652,0,0
-189,372,0,0,0,0,0,0,0,0,0,-1,1035,652,0,0
-182,372,0,0,0,0,0,0,0,0,0,-1,1042,652,0,0
-175,372,0,0,0,0,0,0,0,0,0,-1,1049,652,0,0
-168,372,0,0,0,0,0,0,0,0,0,-1,1056,652,0,0
-161,372,0,0,0,0,0,0,0,0,0,-1,1063,652,0,0
-154,372,0,0,0,0,0,0,0,0,0,-1,1070,652,0,0
-147,372,0,0,0,0,0,0,0,0,0,-1,1077,652,0,0
-140,372,0,0,0,0,0,0,0,0,0,-1,1084,652,0,0
-133,372,0,0,0,0,0,0,0,0,0,-1,1091,652,0,0
-126,372,0,0,0,0,0,0,0,0,0,-1,1098,652,0,0
-119,372,0,0,0,0,0,0,0,0,0,-1,1105,652,0,0
-112,372,0,0,0,0,0,0,0,0,0,-1,1112,652,0,0
-105,372,0,0,0,0,0,0,0,0,0,-1,1119,652,0,0
-98,372,0,0,0,0,0,0,0,0,0,-1,1126,652,0,0
-91,372,0,0,0,0,0,0,0,0,0,-1,1133,652,0,0
-84,372,0,0,0,0,0,0,0,0,0,-1,1140,652,0,0
-77,372,0,0,0,0,0,0,0,0,0,-1,1147,652,0,0
-70,372,0,0,0,0,0,0,0,0,0,-1,1154,652,0,0
-63,372,0,0,0,0,0,0,0,0,0,-1,1161,652,0,0
-56,372,0,0,0,0,0,0,0,0,0,-1,1168,652,0,0
-49,372,0,0,0,0,0,0,0,0,0,-1,1175,652,0,0
-42,372,0,0,0,0,0,0,0,0,0,-1,1182,652,0,0
-35,372,0,0,0,0,0,0,0,0,0,-1,1189,652,0,0
-28,372,0,0,0,0,0,0,0,0,0,-1,1196,652,0,0
-21,372,0,0,0,0,0,0,0,0,0,-1,1203,652,0,0
-14,372,0,0,0,0,0,0,0,0,0,-1,1210,652,0,0
-7,372,0,0,0,0,0,0,0,0,0,-1,1217,652,0,0
0,372,0,0,0,0,0,0,0,0,0,-1,1224,652,0,0
7,372,0,0,0,0,0,0,0,0,0,-1,1231,652,0,0
14,372,0,0,0,0,0,0,0,0,0,-1,1238,652,0,0
21,372,0,0,0,0,0,0,0,0,0,-1,1245,652,0,0
28,372,0,0,0,0,0,0,0,0,0,-1,1252,652,0,0
35,372,0,0,0,0,0,0,0,0,0,-1,1259,652,0,0
42,372,0,0,0,0,0,0,0,0,0,-1,1266,652,0,0
49,372,0,0,0,0,0,0,0,0,0,-1,1273,652,0,0
56,372,0,0,0,0,0,0,0,0,0,-1,1280,652,0,0
63,372,0,0,0,0,0,0,0,0,0,-1,1287,652,0,0
70,372,0,0,0,0,0,0,0,0,0,-1,1294,652,0,0
77,372,0,0,0,0,0,0,0,0,0,-1,1301,652,0,0
84,372,0,0,0,0,0,0,0,0,0,-1,1308,652,0,0
91,372,0,0,0,0,0,0,0,0,0,-1,1315,652,0,0
98,372,0,0,0,0,0,0,0,0,0,-1,1322,652,0,0
105,372,0,0,0,0,0,0,0,0,0,-1,1329,652,0,0
112,372,0,0,0,0,0,0,0,0,0,-1,1336,652,0,0
119,372,0,0,0,0,0,0,0,0,0,-1,1343,652,0,0
126,372,0,0,0,0,0,0,0,0,0,-1,1350,652,0,0
133,372,0,0,0,0,0,0,0,0,0,-1,1357,652,0,0
140,372,0,0,0,0,0,0,0,0,0,-1,1364,652,0,0
147,372,0,0,0,0,0,0,0,0,0,-1,1371,652,0,0
154,372,0,0,0,0,0,0,0,0,0,-1,1378,652,0,0
161,372,0,0,0,0,0,0,0,0,0,-1,1385,652,0,0
168,372,0,0,0,0,0,0,0,0,0,-1,1392,652,0,0
175,372,0,0,0,0,0,0,0,0,0,-1,1399,652,0,0
182,372,0,0,0,0,0,0,0,0,0,-1,1406,652,0,0
189,372,0,0,0,0,0,0,0,0,0,-1,1413,652,0,0
196,372,0,0,0,0,0,0,0,0,0,-1,1420,652,0,0
203,372,0,0,0,0,0,0,0,0,0,-1,1427,652,0,0
210,372,0,0,0,0,0,0,0,0,0,-1,1434,652,0,0
217,372,0,0,0,0,0,0,0,0,0,-1,1441,652,0,0
224,372,0,0,0,0,0,0,0,0,0,-1,1448,652,0,0
231,372,0,0,0,0,0,0,0,0,0,-1,1455,652,0,0
238,372,0,0,0,0,0,0,0,0,0,-1,1462,652,0,0
245,372,0,0,0,0,0,0,0,0,0,-1,1469,652,0,0
252,372,0,0,0,0,0,0,0,0,0,-1,1476,652,0,0
259,372,0,0,0,0,0,0,0,0,0,-1,1483,652,0,0
266,372,0,0,0,0,0,0,0,0,0,-1,1490,652,0,0
273,372,0,0,0,0,0,0,0,0,0,-1,1497,652,0,0
280,372,0,0,0,0,0,0,0,0,0,-1,1504,652,0,0
287,372,0,0,0,0,0,0,0,0,0,-1,1511,652,0,0
294,372,0,0,0,0,0,0,0,0,0,-1,1518,652,0,0
301,372,0,0,0,0,0,0,0,0,0,-1,1525,652,0,0
308,372,0,0,0,0,0,0,0,0,0,-1,1532,652,0,0
315,372,0,0,0,0,0,0,0,0,0,-1,1539,652,0,0
322,372,0,0,0,0,0,0,0,0,0,-1,1546,652,0,0
329,372,0,0,0,0,0,0,0,0,0,-1,1553,652,0,0
336,372,0,0,0,0,0,0,0,0,0,-1,1560,652,0,0
343,372,0,0,0,0,0,0,0,0,0,-1,1567,652,0,0
350,372,0,0,0,0,0,0,0,0,0,-1,1574,652,0,0
357,372,0,0,0,0,0,0,0,0,0,-1,1581,652,0,0
364,372,0,0,0,0,0,0,0,0,0,-1,1588,652,0,0
371,372,0,0,0,0,0,0,0,0,0,-1,1595,652,0,0
378,372,0,0,0,0,0,0,0,0,0,-1,1602,652,0,0
385,372,0,0,0,0,0,0,0,0,0,-1,1609,652,0,0
392,372,0,0,0,0,0,0,0,0,0,-1,1616,652,0,0
399,372,0,0,0,0,0,0,0,0,0,-1,1623,652,0,0
406,372,0,0,0,0,0,0,0,0,0,-1,1630,652,0,0
413,372,0,0,0,0,0,0,0,0,0,-1,1637,652,0,0
420,372,0,0,0,0,0,0,0,0,0,-1,1644,652,0,0
427,372,0,0,0,0,0,0,0,0,0,-1,1651,652,0,0
434,372,0,0,0,0,0,0,0,0,0,-1,1658,652,0,0
441,372,0,0,0,0,0,0,0,0,0,-1,1665,652,0,0
448,372,0,0,0,0,0,0,0,0,0,-1,1672,652,0,0
455,372,0,0,0,0,0,0,0,0,0,-1,1679,652,0,0
462,372,0,0,0,0,0,0,0,0,0,-1,1686,652,0,0
469,372,0,0,0,0,0,0,0,0,0,-1,1693,652,0,0
476,372,0,0,0,0,0,0,0,0,0,-1,1700,652,0,0
483,372,8.74182,1.53125,0,0,0,0,0,0,0,-1,1707,652,8.74186,-1.53126
490,372,9.78455,1.67096,0,0,0,0,0,0,0,-1,1714,652,9.7846,-1.67093
497,372,9.97644,1.46069,0,0,0,0,0,0,0,-1,1721,652,9.97647,-1.46071
504,372,10.1216,1.28375,0,0,0,0,0,0,0,-1,1728,652,10.1216,-1.28376
511,372,11.7367,-0.0272217,0,0,0,0,0,0,0,-1,1735,652,11.7367,0.0272326
518,372,12.0657,-0.0995483,0,0,0,0,0,0,0,-1,1742,652,12.0657,0.0995285
525,372,12.3947,-0.171814,0,0,0,0,0,0,0,-1,1749,652,12.3946,0.171824
532,372,9.36597,1.72034,0,0,0,0,0,0,0,-1,1756,652,9.36597,-1.72036
539,372,7.82886,-0.0865479,0,0,0,0,0,0,0,-1,1763,652,7.82882,0.0865771
546,372,10.953,-0.187195,0,0,0,0,0,0,0,-1,1770,652,10.953,0.187181
553,372,14.1201,-4.83234,0,0,0,0,0,0,0,-1,1777,652,14.1201,4.83235
560,372,20.1057,-8.06934,0,0,0,0,0,0,0,-1,1784,652,20.1058,8.06936
567,372,22.5302,-9.19757,0,0,0,0,0,0,0,-1,1791,652,22.5301,9.1976
574,372,22.9353,-8.59827,0.00453087,0.000389136,0.000534555,0.00459875,0.000321256,0.126308,0.00296456,0.0351178,1798,652,22.9352,8.5983
581,372,22.9177,-8.09924,0.00308281,0.000372688,0.000216557,0.00310001,0.000355493,0.0792368,0.00195896,0.0202775,1805,652,22.9177,8.09922
588,372,22.8958,-7.52356,0.00215274,0.000448908,0.000143054,0.00216466,0.00043698,0.0831843,0.00132175,0.016882,1812,652,22.8957,7.52358
595,372,22.8462,-6.91895,0.00167089,0.000717188,0.000259343,0.00173685,0.000651227,0.24906,0.00101317,0.0143658,1819,652,22.8462,6.91896
602,372,22.8478,-6.33704,0.00158801,0.00117391,0.000592698,0.00200878,0.000753137,0.617358,0.0011718,0.014802,1826,652,22.8478,6.33704
609,372,22.7878,-5.74121,0.00166838,0.00170239,0.00100818,0.00269371,0.000677065,0.793831,0.00161805,0.0156528,1833,652,22.7878,5.74121
616,372,22.7599,-5.11536,0.00170015,0.00211815,0.00129528,0.00322118,0.000597117,0.865386,0.00197868,0.0146323,1840,652,22.7599,5.11538
623,372,22.7623,-4.48883,0.0018391,0.00258586,0.00168067,0.00393412,0.000490835,0.894703,0.00247541,0.0124098,1847,652,22.7623,4.48886
630,372,22.7509,-3.90234,0.00171492,0.00290888,0.00189094,0.00429483,0.000328961,0.9383,0.00276011,0.0169925,1854,652,22.7509,3.90237
637,372,22.7653,-3.32709,0.00129689,0.00313176,0.00191736,0.00433988,8.87688e-05,1.00854,0.00286412,0.0275425,1861,652,22.7652,3.3271
644,372,22.7634,-2.62445,0,0,0,0,0,0,0,-1,1868,652,22.7634,2.62446
651,372,21.3998,-0.888,0,0,0,0,0,0,0,-1,1875,652,21.3998,0.887992
658,372,14.157,0.280273,0,0,0,0,0,0,0,-1,1882,652,14.157,-0.280264
665,372,15.2286,0.463867,0,0,0,0,0,0,0,-1,1889,652,15.2287,-0.463854
672,372,9.34106,1.48444,0,0,0,0,0,0,0,-1,1896,652,9.34109,-1.48444
679,372,10.7308,2.32391,0,0,0,0,0,0,0,-1,1903,652,10.7309,-2.3239
686,372,11.6295,2.52997,0,0,0,0,0,0,0,-1,1910,652,11.6296,-2.52996
693,372,0,0,0,0,0,0,0,0,0,-1,1917,652,0,0
700,372,0,0,0,0,0,0,0,0,0,-1,1924,652,0,0
707,372,0,0,0,0,0,0,0,0,0,-1,1931,652,0,0
714,372,0,0,0,0,0,0,0,0,0,-1,1938,652,0,0
721,372,0,0,0,0,0,0,0,0,0,-1,1945,652,0,0
728,372,0,0,0,0,0,0,0,0,0,-1,1952,652,0,0
735,372,0,0,0,0,0,0,0,0,0,-1,1959,652,0,0
742,372,0,0,0,0,0,0,0,0,0,-1,1966,652,0,0
749,372,0,0,0,0,0,0,0,0,0,-1,1973,652,0,0
756,372,0,0,0,0,0,0,0,0,0,-1,1980,652,0,0
763,372,0,0,0,0,0,0,0,0,0,-1,1987,652,0,0
770,372,0,0,0,0,0,0,0,0,0,-1,1994,652,0,0
777,372,0,0,0,0,0,0,0,0,0,-1,2001,652,0,0
784,372,0,0,0,0,0,0,0,0,0,-1,2008,652,0,0
791,372,0,0,0,0,0,0,0,0,0,-1,2015,652,0,0
798,372,0,0,0,0,0,0,0,0,0,-1,2022,652,0,0
805,372,0,0,0,0,0,0,0,0,0,-1,2029,652,0,0
812,372,0,0,0,0,0,0,0,0,0,-1,2036,652,0,0
-700,365,0,0,0,0,0,0,0,0,0,-1,524,659,0,0
-693,365,0,0,0,0,0,0,0,0,0,-1,531,659,0,0
-686,365,0,0,0,0,0,0,0,0,0,-1,538,659,0,0
-679,365,0,0,0,0,0,0,0,0,0,-1,545,659,0,0
-672,365,0,0,0,0,0,0,0,0,0,-1,552,659,0,0
-665,365,0,0,0,0,0,0,0,0,0,-1,559,659,0,0
-658,365,0,0,0,0,0,0,0,0,0,-1,566,659,0,0
-651,365,0,0,0,0,0,0,0,0,0,-1,573,659,0,0
-644,365,0,0,0,0,0,0,0,0,0,-1,580,659,0,0
-637,365,0,0,0,0,0,0,0,0,0,-1,587,659,0,0
-630,365,0,0,0,0,0,0,0,0,0,-1,594,659,0,0
-623,365,0,0,0,0,0,0,0,0,0,-1,601,659,0,0
-616,365,0,0,0,0,0,0,0,0,0,-1,608,659,0,0
-609,365,0,0,0,0,0,0,0,0,0,-1,615,659,0,0
-602,365,0,0,0,0,0,0,0,0,0,-1,622,659,0,0
-595,365,0,0,0,0,0,0,0,0,0,-1,629,659,0,0
-588,365,0,0,0,0,0,0,0,0,0,-1,636,659,0,0
-581,365,0,0,0,0,0,0,0,0,0,-1,643,659,0,0
-574,365,-7.69281,1.59015,0,0,0,0,0,0,0,-1,650,659,-7.69282,-1.59018
-567,365,-8.2583,1.72638,0,0,0,0,0,0,0,-1,657,659,-8.25827,-1.72637
-560,365,-7.17767,0.275757,0,0,0,0,0,0,0,-1,664,659,-7.17768,-0.27577
-553,365,-10.0349,-0.169617,0,0,0,0,0,0,0,-1,671,659,-10.0349,0.169593
-546,365,-10.6303,-1.51642,0,0,0,0,0,0,0,-1,678,659,-10.6303,1.5164
-539,365,-8.38599,1.52936,0,0,0,0,0,0,0,-1,685,659,-8.38598,-1.52935
-532,365,-8.52863,0.166504,0,0,0,0,0,0,0,-1,692,659,-8.52863,-0.166501
-525,365,-9.28229,-2.62726,0,0,0,0,0,0,0,-1,699,659,-9.28227,2.62724
-518,365,-13.0182,-4.33221,0,0,0,0,0,0,0,-1,706,659,-13.0183,4.33222
-511,365,-12.9946,-5.02252,0.00239152,0.00302441,-0.00160109,0.00434002,0.0010759,-0.882963,0.00260972,0.033134,713,659,-12.9946,5.02251
-504,365,-12.9672,-5.61829,0.00205777,0.00230409,-0.00128337,0.00347019,0.000891671,-0.833235,0.00208093,0.0130383,720,659,-12.9672,5.61829
-497,365,-12.981,-6.21387,0.00186476,0.00166528,-0.00104841,0.00281816,0.000711877,-0.737974,0.00169215,0.0131293,727,659,-12.9809,6.21389
-490,365,-13.0296,-6.78937,0.00175932,0.00117266,-0.000925474,0.00243684,0.000495142,-0.631933,0.00148724,0.0137357,734,659,-13.0296,6.78934
-483,365,-13.0552,-7.34778,0.0017669,0.000792248,-0.000871594,0.00227815,0.000280993,-0.53049,0.00143431,0.0132226,741,659,-13.0552,7.34776
-476,365,-13.03,-7.90234,0.00189613,0.00055967,-0.00091544,0.00236128,9.45143e-05,-0.470125,0.00154365,0.0161506,748,659,-13.03,7.90232
-469,365,-13.0561,-8.4751,0.00208597,0.000440719,-0.00100732,0.00256389,-3.72002e-05,-0.442994,0.00172179,0.016137,755,659,-13.0561,8.47511
-462,365,-13.1037,-9.04987,0.0021868,0.000412309,-0.00107119,0.00269047,-9.13666e-05,-0.439525,0.00182487,0.0148024,762,659,-13.1037,9.04987
-455,365,-13.1184,-9.61133,0.00192742,-0.000113961,-0.000625,0.00210357,-0.000290115,-0.274719,0.00150841,0.0165402,769,659,-13.1184,9.61132
-448,365,-13.0392,-10.2685,0.00166937,-0.000560332,-0.000137928,0.00167787,-0.000568832,-0.0615465,0.00134878,0.0367106,776,659,-13.0392,10.2685
-441,365,-12.8049,-11.0339,0,0,0,0,0,0,0,-1,783,659,-12.8049,11.0339
-434,365,-5.45056,-3.98041,0,0,0,0,0,0,0,-1,790,659,-5.45055,3.98042
-427,365,-5.05377,-4.74689,0,0,0,0,0,0,0,-1,797,659,-5.05376,4.7469
-420,365,-4.58813,-3.16376,0,0,0,0,0,0,0,-1,804,659,-4.58816,3.16374
-413,365,0.141357,0.672729,0,0,0,0,0,0,0,-1,811,659,0.141365,-0.672714
-406,365,-1.75067,-0.934448,0,0,0,0,0,0,0,-1,818,659,-1.7507,0.934424
-399,365,-4.10242,-1.25439,0,0,0,0,0,0,0,-1,825,659,-4.10244,1.25438
-392,365,-7.46545,-0.779724,0,0,0,0,0,0,0,-1,832,659,-7.46543,0.779744
-385,365,-6.27875,-0.887573,0,0,0,0,0,0,0,-1,839,659,-6.27874,0.887545
-378,365,-5.34503,-0.263306,0,0,0,0,0,0,0,-1,846,659,-5.34504,0.263275
-371,365,0,0,0,0,0,0,0,0,0,-1,853,659,0,0
-364,365,0,0,0,0,0,0,0,0,0,-1,860,659,0,0
-357,365,0,0,0,0,0,0,0,0,0,-1,867,659,0,0
-350,365,0,0,0,0,0,0,0,0,0,-1,874,659,0,0
-343,365,0,0,0,0,0,0,0,0,0,-1,881,659,0,0
-336,365,0,0,0,0,0,0,0,0,0,-1,888,659,0,0
-329,365,0,0,0,0,0,0,0,0,0,-1,895,659,0,0
-322,365,0,0,0,0,0,0,0,0,0,-1,902,659,0,0
-315,365,0,0,0,0,0,0,0,0,0,-1,909,659,0,0
-308,365,0,0,0,0,0,0,0,0,0,-1,916,659,0,0
-301,365,0,0,0,0,0,0,0,0,0,-1,923,659,0,0
-294,365,0,0,0,0,0,0,0,0,0,-1,930,659,0,0
-287,365,0,0,0,0,0,0,0,0,0,-1,937,659,0,0
-280,365,0,0,0,0,0,0,0,0,0,-1,944,659,0,0
-273,365,0,0,0,0,0,0,0,0,0,-1,951,659,0,0
-266,365,0,0,0,0,0,0,0,0,0,-1,958,659,0,0
-259,365,0,0,0,0,0,0,0,0,0,-1,965,659,0,0
-252,365,0,0,0,0,0,0,0,0,0,-1,972,659,0,0
-245,365,0,0,0,0,0,0,0,0,0,-1,979,659,0,0
-238,365,0,0,0,0,0,0,0,0,0,-1,986,659,0,0
-231,365,0,0,0,0,0,0,0,0,0,-1,993,659,0,0
-224,365,0,0,0,0,0,0,0,0,0,-1,1000,659,0,0
-217,365,0,0,0,0,0,0,0,0,0,-1,1007,659,0,0
-210,365,0,0,0,0,0,0,0,0,0,-1,1014,659,0,0
-203,365,0,0,0,0,0,0,0,0,0,-1,1021,659,0,0
-196,365,0,0,0,0,0,0,0,0,0,-1,1028,659,0,0
-189,365,0,0,0,0,0,0,0,0,0,-1,1035,659,0,0
-182,365,0,0,0,0,0,0,0,0,0,-1,1042,659,0,0
-175,365,0,0,0,0,0,0,0,0,0,-1,1049,659,0,0
-168,365,0,0,0,0,0,0,0,0,0,-1,1056,659,0,0
-161,365,0,0,0,0,0,0,0,0,0,-1,1063,659,0,0
-154,365,0,0,0,0,0,0,0,0,0,-1,1070,659,0,0
-147,365,0,0,0,0,0,0,0,0,0,-1,1077,659,0,0
-140,365,0,0,0,0,0,0,0,0,0,-1,1084,659,0,0
-133,365,0,0,0,0,0,0,0,0,0,-1,1091,659,0,0
-126,365,0,0,0,0,0,0,0,0,0,-1,1098,659,0,0
-119,365,0,0,0,0,0,0,0,0,0,-1,1105,659,0,0
-112,365,0,0,0,0,0,0,0,0,0,-1,1112,659,0,0
-105,365,0,0,0,0,0,0,0,0,0,-1,1119,659,0,0
-98,365,0,0,0,0,0,0,0,0,0,-1,1126,659,0,0
-91,365,0,0,0,0,0,0,0,0,0,-1,1133,659,0,0
-84,365,0,0,0,0,0,0,0,0,0,-1,1140,659,0,0
-77,365,0,0,0,0,0,0,0,0,0,-1,1147,659,0,0
-70,365,0,0,0,0,0,0,0,0,0,-1,1154,659,0,0
-63,365,0,0,0,0,0,0,0,0,0,-1,1161,659,0,0
-56,365,0,0,0,0,0,0,0,0,0,-1,1168,659,0,0
-49,365,0,0,0,0,0,0,0,0,0,-1,1175,659,0,0
-42,365,0,0,0,0,0,0,0,0,0,-1,1182,659,0,0
-35,365,0,0,0,0,0,0,0,0,0,-1,1189,659,0,0
-28,365,0,0,0,0,0,0,0,0,0,-1,1196,659,0,0
-21,365,0,0,0,0,0,0,0,0,0,-1,1203,659,0,0
-14,365,0,0,0,0,0,0,0,0,0,-1,1210,659,0,0
-7,365,0,0,0,0,0,0,0,0,0,-1,1217,659,0,0
0,365,0,0,0,0,0,0,0,0,0,-1,1224,659,0,0
7,365,0,0,0,0,0,0,0,0,0,-1,1231,659,0,0
14,365,0,0,0,0,0,0,0,0,0,-1,1238,659,0,0
21,365,0,0,0,0,0,0,0,0,0,-1,1245,659,0,0
28,365,0,0,0,0,0,0,0,0,0,-1,1252,659,0,0
35,365,0,0,0,0,0,0,0,0,0,-1,1259,659,0,0
42,365,0,0,0,0,0,0,0,0,0,-1,1266,659,0,0
49,365,0,0,0,0,0,0,0,0,0,-1,1273,659,0,0
56,365,0,0,0,0,0,0,0,0,0,-1,1280,659,0,0
63,365,0,0,0,0,0,0,0,0,0,-1,1287,659,0,0
70,365,0,0,0,0,0,0,0,0,0,-1,1294,659,0,0
77,365,0,0,0,0,0,0,0,0,0,-1,1301,659,0,0
84,365,0,0,0,0,0,0,0,0,0,-1,1308,659,0,0
91,365,0,0,0,0,0,0,0,0,0,-1,1315,659,0,0
98,365,0,0,0,0,0,0,0,0,0,-1,1322,659,0,0
105,365,0,0,0,0,0,0,0,0,0,-1,1329,659,0,0
112,365,0,0,0,0,0,0,0,0,0,-1,1336,659,0,0
119,365,0,0,0,0,0,0,0,0,0,-1,1343,659,0,0
126,365,0,0,0,0,0,0,0,0,0,-1,1350,659,0,0
133,365,0,0,0,0,0,0,0,0,0,-1,1357,659,0,0
140,365,0,0,0,0,0,0,0,0,0,-1,1364,659,0,0
147,365,0,0,0,0,0,0,0,0,0,-1,1371,659,0,0
154,365,0,0,0,0,0,0,0,0,0,-1,1378,659,0,0
161,365,0,0,0,0,0,0,0,0,0,-1,1385,659,0,0
168,365,0,0,0,0,0,0,0,0,0,-1,1392,659,0,0
175,365,0,0,0,0,0,0,0,0,0,-1,1399,659,0,0
182,365,0,0,0,0,0,0,0,0,0,-1,1406,659,0,0
189,365,0,0,0,0,0,0,0,0,0,-1,1413,659,0,0
196,365,0,0,0,0,0,0,0,0,0,-1,1420,659,0,0
203,365,0,0,0,0,0,0,0,0,0,-1,1427,659,0,0
210,365,0,0,0,0,0,0,0,0,0,-1,1434,659,0,0
217,365,0,0,0,0,0,0,0,0,0,-1,1441,659,0,0
224,365,0,0,0,0,0,0,0,0,0,-1,1448,659,0,0
231,365,0,0,0,0,0,0,0,0,0,-1,1455,659,0,0
238,365,0,0,0,0,0,0,0,0,0,-1,1462,659,0,0
245,365,0,0,0,0,0,0,0,0,0,-1,1469,659,0,0
252,365,0,0,0,0,0,0,0,0,0,-1,1476,659,0,0
259,365,0,0,0,0,0,0,0,0,0,-1,1483,659,0,0
266,365,0,0,0,0,0,0,0,0,0,-1,1490,659,0,0
273,365,0,0,0,0,0,0,0,0,0,-1,1497,659,0,0
280,365,0,0,0,0,0,0,0,0,0,-1,1504,659,0,0
287,365,0,0,0,0,0,0,0,0,0,-1,1511,659,0,0
294,365,0,0,0,0,0,0,0,0,0,-1,1518,659,0,0
301,365,0,0,0,0,0,0,0,0,0,-1,1525,659,0,0
308,365,0,0,0,0,0,0,0,0,0,-1,1532,659,0,0
315,365,0,0,0,0,0,0,0,0,0,-1,1539,659,0,0
322,365,0,0,0,0,0,0,0,0,0,-1,1546,659,0,0
329,365,0,0,0,0,0,0,0,0,0,-1,1553,659,0,0
336,365,0,0,0,0,0,0,0,0,0,-1,1560,659,0,0
343,365,0,0,0,0,0,0,0,0,0,-1,1567,659,0,0
350,365,0,0,0,0,0,0,0,0,0,-1,1574,659,0,0
357,365,0,0,0,0,0,0,0,0,0,-1,1581,659,0,0
364,365,0,0,0,0,0,0,0,0,0,-1,1588,659,0,0
371,365,0,0,0,0,0,0,0,0,0,-1,1595,659,0,0
378,365,0,0,0,0,0,0,0,0,0,-1,1602,659,0,0
385,365,0,0,0,0,0,0,0,0,0,-1,1609,659,0,0
392,365,0,0,0,0,0,0,0,0,0,-1,1616,659,0,0
399,365,0,0,0,0,0,0,0,0,0,-1,1623,659,0,0
406,365,0,0,0,0,0,0,0,0,0,-1,1630,659,0,0
413,365,0,0,0,0,0,0,0,0,0,-1,1637,659,0,0
420,365,0,0,0,0,0,0,0,0,0,-1,1644,659,0,0
427,365,0,0,0,0,0,0,0,0,0,-1,1651,659,0,0
434,365,0,0,0,0,0,0,0,0,0,-1,1658,659,0,0
441,365,0,0,0,0,0,0,0,0,0,-1,1665,659,0,0
448,365,0,0,0,0,0,0,0,0,0,-1,1672,659,0,0
455,365,0,0,0,0,0,0,0,0,0,-1,1679,659,0,0
462,365,0,0,0,0,0,0,0,0,0,-1,1686,659,0,0
469,365,0,0,0,0,0,0,0,0,0,-1,1693,659,0,0
476,365,0,0,0,0,0,0,0,0,0,-1,1700,659,0,0
483,365,0,0,0,0,0,0,0,0,0,-1,1707,659,0,0
490,365,8.39551,0.471252,0,0,0,0,0,0,0,-1,1714,659,8.39551,-0.471241
497,365,9.89233,1.35394,0,0,0,0,0,0,0,-1,1721,659,9.89237,-1.35396
504,365,10.1414,1.18005,0,0,0,0,0,0,0,-1,1728,659,10.1413,-1.18004
511,365,10.5151,0.993896,0,0,0,0,0,0,0,-1,1735,659,10.5152,-0.993894
518,365,11.2029,0.398132,0,0,0,0,0,0,0,-1,1742,659,11.2029,-0.398136
525,365,15.5748,3.85303,0,0,0,0,0,0,0,-1,1749,659,15.5748,-3.85303
532,365,11.2446,1.00629,0,0,0,0,0,0,0,-1,1756,659,11.2446,-1.00631
539,365,12.6301,1.03204,0,0,0,0,0,0,0,-1,1763,659,12.6302,-1.03204
546,365,11.647,0.84198,0,0,0,0,0,0,0,-1,1770,659,11.6469,-0.841955
553,365,12.028,-0.558899,0,0,0,0,0,0,0,-1,1777,659,12.028,0.558873
560,365,14.5372,-4.55548,0,0,0,0,0,0,0,-1,1784,659,14.5373,4.55547
567,365,20.5676,-7.53888,0,0,0,0,0,0,0,-1,1791,659,20.5676,7.53887
574,365,23.7335,-8.52155,0,0,0,0,0,0,0,-1,1798,659,23.7335,8.52153
581,365,23.5013,-8.00012,0,0,0,0,0,0,0,-1,1805,659,23.5014,8.0001
588,365,23.4441,-7.59753,0.00216092,0.000208913,-0.000137068,0.00217049,0.000199335,-0.0697629,0.00138534,0.0237861,1812,659,23.4441,7.59754
595,365,23.46,-6.87573,0.00155106,0.000462442,-5.87638e-05,0.00155423,0.000459279,-0.0537718,0.00092201,0.0142104,1819,659,23.4599,6.87571
602,365,23.421,-6.25891,0.00133383,0.000831568,0.000196257,0.00140142,0.000763976,0.331679,0.000810207,0.0153575,1826,659,23.421,6.25892
609,365,23.3497,-5.66412,0.00135193,0.00125416,0.000559108,0.00186429,0.000741805,0.741793,0.0010838,0.0162485,1833,659,23.3497,5.6641
616,365,23.3647,-5.05316,0.00133225,0.00156834,0.000805149,0.00226405,0.000636535,0.858185,0.00134824,0.0169738,1840,659,23.3648,5.05319
623,365,23.3905,-4.46997,0.00129425,0.00190881,0.00107886,0.00272329,0.000479761,0.924133,0.00167862,0.011432,1847,659,23.3905,4.46999
630,365,23.3451,-3.89264,0.000940037,0.00209667,0.001204,0.00285405,0.000182664,1.00929,0.00184483,0.0159303,1854,659,23.3451,3.89261
637,365,23.3196,-3.32837,0.000217369,0.0021561,0.00110749,0.00265854,-0.000285069,1.14489,0.00187462,0.0224599,1861,659,23.3195,3.32838
644,365,23.3019,-2.71027,-0.00104494,0.00209976,0.000789137,0.00228668,-0.00123186,1.33822,0.00206163,0.023262,1868,659,23.3019,2.71028
651,365,23.4375,-1.95319,0,0,0,0,0,0,0,-1,1875,659,23.4375,1.95317
658,365,21.6173,-1.22028,0,0,0,0,0,0,0,-1,1882,659,21.6173,1.22025
665,365,14.0961,0.769043,0,0,0,0,0,0,0,-1,1889,659,14.0961,-0.769063
672,365,10.0579,2.15088,0,0,0,0,0,0,0,-1,1896,659,10.0579,-2.15088
679,365,10.9718,2.19208,0,0,0,0,0,0,0,-1,1903,659,10.9718,-2.19211
686,365,12.2134,2.17108,0,0,0,0,0,0,0,-1,1910,659,12.2134,-2.17109
693,365,13.7141,1.98279,0,0,0,0,0,0,0,-1,1917,659,13.7141,-1.98278
700,365,0,0,0,0,0,0,0,0,0,-1,1924,659,0,0
707,365,0,0,0,0,0,0,0,0,0,-1,1931,659,0,0
714,365,0,0,0,0,0,0,0,0,0,-1,1938,659,0,0
721,365,0,0,0,0,0,0,0,0,0,-1,1945,659,0,0
728,365,0,0,0,0,0,0,0,0,0,-1,1952,659,0,0
735,365,0,0,0,0,0,0,0,0,0,-1,1959,659,0,0
742,365,0,0,0,0,0,0,0,0,0,-1,1966,659,0,0
749,365,0,0,0,0,0,0,0,0,0,-1,1973,659,0,0
756,365,0,0,0,0,0,0,0,0,0,-1,1980,659,0,0
763,365,0,0,0,0,0,0,0,0,0,-1,1987,659,0,0
770,365,0,0,0,0,0,0,0,0,0,-1,1994,659,0,0
777,365,0,0,0,0,0,0,0,0,0,-1,2001,659,0,0
784,365,0,0,0,0,0,0,0,0,0,-1,2008,659,0,0
791,365,0,0,0,0,0,0,0,0,0,-1,2015,659,0,0
798,365,0,0,0,0,0,0,0,0,0,-1,2022,659,0,0
805,365,0,0,0,0,0,0,0,0,0,-1,2029,659,0,0
812,365,0,0,0,0,0,0,0,0,0,-1,2036,659,0,0
-700,358,0,0,0,0,0,0,0,0,0,-1,524,666,0,0
-693,358,0,0,0,0,0,0,0,0,0,-1,531,666,0,0
-686,358,0,0,0,0,0,0,0,0,0,-1,538,666,0,0
-679,358,0,0,0,0,0,0,0,0,0,-1,545,666,0,0
-672,358,0,0,0,0,0,0,0,0,0,-1,552,666,0,0
-665,358,0,0,0,0,0,0,0,0,0,-1,559,666,0,0
-658,358,0,0,0,0,0,0,0,0,0,-1,566,666,0,0
-651,358,0,0,0,0,0,0,0,0,0,-1,573,666,0,0
-644,358,0,0,0,0,0,0,0,0,0,-1,580,666,0,0
-637,358,0,0,0,0,0,0,0,0,0,-1,587,666,0,0
-630,358,0,0,0,0,0,0,0,0,0,-1,594,666,0,0
-623,358,0,0,0,0,0,0,0,0,0,-1,601,666,0,0
-616,358,0,0,0,0,0,0,0,0,0,-1,608,666,0,0
-609,358,0,0,0,0,0,0,0,0,0,-1,615,666,0,0
-602,358,0,0,0,0,0,0,0,0,0,-1,622,666,0,0
-595,358,0,0,0,0,0,0,0,0,0,-1,629,666,0,0
-588,358,0,0,0,0,0,0,0,0,0,-1,636,666,0,0
-581,358,-8.31616,1.61993,0,0,0,0,0,0,0,-1,643,666,-8.31614,-1.61993
-574,358,-8.22406,1.75385,0,0,0,0,0,0,0,-1,650,666,-8.22408,-1.75383
-567,358,-8.14215,1.91577,0,0,0,0,0,0,0,-1,657,666,-8.14214,-1.91579
-560,358,-10.6086,2.18872,0,0,0,0,0,0,0,-1,664,666,-10.6086,-2.18873
-553,358,-13.4767,1.09552,0,0,0,0,0,0,0,-1,671,666,-13.4767,-1.09551
-546,358,-13.3743,-0.185059,0,0,0,0,0,0,0,-1,678,666,-13.3743,0.185037
-539,358,-9.43884,-2.04785,0,0,0,0,0,0,0,-1,685,666,-9.43884,2.04785
-532,358,-12.4141,-2.36572,0,0,0,0,0,0,0,-1,692,666,-12.4141,2.3657
-525,358,-12.731,-3.88031,0,0,0,0,0,0,0,-1,699,666,-12.731,3.88029
-518,358,-13.5482,-4.45264,0,0,0,0,0,0,0,-1,706,666,-13.5482,4.45263
-511,358,-13.5589,-5.01678,0.00219962,0.00240081,-0.00116695,0.00347149,0.00112894,-0.828395,0.00204469,0.0160301,713,666,-13.5589,5.01678
-504,358,-13.5673,-5.58173,0.00197301,0.00176538,-0.000946679,0.00282155,0.00091684,-0.730786,0.00166197,0.0120878,720,666,-13.5673,5.58173
-497,358,-13.565,-6.18225,0.00187237,0.00122721,-0.000801822,0.00241407,0.00068551,-0.59415,0.00143647,0.0116414,727,666,-13.565,6.18228
-490,358,-13.5896,-6.75348,0.00182953,0.000816618,-0.000746102,0.00222483,0.000421318,-0.487219,0.00136464,0.0109561,734,666,-13.5896,6.75348
-483,358,-13.6256,-7.29773,0.00191962,0.000527274,-0.000767041,0.00225931,0.000187586,-0.416897,0.00144773,0.0103827,741,666,-13.6256,7.29774
-476,358,-13.584,-7.84259,0.00212245,0.000378421,-0.000885951,0.00249354,7.32671e-06,-0.396664,0.00165992,0.0125762,748,666,-13.584,7.84259
-469,358,-13.6147,-8.43427,0.00239658,0.000359459,-0.00107546,0.00285926,-0.000103224,-0.406282,0.0019415,0.0163967,755,666,-13.6147,8.43424
-462,358,-13.6847,-9.02014,0.0026112,0.000435413,-0.00125126,0.00318137,-0.000134751,-0.427561,0.00216723,0.0180953,762,666,-13.6847,9.02011
-455,358,-13.6261,-9.62085,0.00251164,3.57867e-05,-0.000957078,0.00283847,-0.000291043,-0.329071,0.00199641,0.0414208,769,666,-13.6261,9.62087
-448,358,-13.4574,-10.4728,0,0,0,0,0,0,0,-1,776,666,-13.4574,10.4728
-441,358,-5.56293,-3.98041,0,0,0,0,0,0,0,-1,783,666,-5.56291,3.98043
-434,358,-5.21558,-4.43127,0,0,0,0,0,0,0,-1,790,666,-5.21559,4.43125
-427,358,-3.56189,-3.15729,0,0,0,0,0,0,0,-1,797,666,-3.56192,3.15729
-420,358,0.200195,1.08234,0,0,0,0,0,0,0,-1,804,666,0.200174,-1.08231
-413,358,0.0325317,0.161072,0,0,0,0,0,0,0,-1,811,666,0.0325501,-0.161098
-406,358,-3.85846,0.753113,0,0,0,0,0,0,0,-1,818,666,-3.85846,-0.753129
-399,358,-1.31213,0.190735,0,0,0,0,0,0,0,-1,825,666,-1.31215,-0.190763
-392,358,-3.73914,-0.832214,0,0,0,0,0,0,0,-1,832,666,-3.73915,0.832202
-385,358,-5.95178,-1.69141,0,0,0,0,0,0,0,-1,839,666,-5.9518,1.69143
-378,358,0,0,0,0,0,0,0,0,0,-1,846,666,0,0
-371,358,0,0,0,0,0,0,0,0,0,-1,853,666,0,0
-364,358,0,0,0,0,0,0,0,0,0,-1,860,666,0,0
-357,358,0,0,0,0,0,0,0,0,0,-1,867,666,0,0
-350,358,0,0,0,0,0,0,0,0,0,-1,874,666,0,0
-343,358,0,0,0,0,0,0,0,0,0,-1,881,666,0,0
-336,358,0,0,0,0,0,0,0,0,0,-1,888,666,0,0
-329,358,0,0,0,0,0,0,0,0,0,-1,895,666,0,0
-322,358,0,0,0,0,0,0,0,0,0,-1,902,666,0,0
-315,358,0,0,0,0,0,0,0,0,0,-1,909,666,0,0
-308,358,0,0,0,0,0,0,0,0,0,-1,916,666,0,0
-301,358,0,0,0,0,0,0,0,0,0,-1,923,666,0,0
-294,358,0,0,0,0,0,0,0,0,0,-1,930,666,0,0
-287,358,0,0,0,0,0,0,0,0,0,-1,937,666,0,0
-280,358,0,0,0,0,0,0,0,0,0,-1,944,666,0,0
-273,358,0,0,0,0,0,0,0,0,0,-1,951,666,0,0
-266,358,0,0,0,0,0,0,0,0,0,-1,958,666,0,0
-259,358,0,0,0,0,0,0,0,0,0,-1,965,666,0,0
-252,358,0,0,0,0,0,0,0,0,0,-1,972,666,0,0
-245,358,0,0,0,0,0,0,0,0,0,-1,979,666,0,0
-238,358,0,0,0,0,0,0,0,0,0,-1,986,666,0,0
-231,358,0,0,0,0,0,0,0,0,0,-1,993,666,0,0
-224,358,0,0,0,0,0,0,0,0,0,-1,1000,666,0,0
-217,358,0,0,0,0,0,0,0,0,0,-1,1007,666,0,0
-210,358,0,0,0,0,0,0,0,0,0,-1,1014,666,0,0
-203,358,0,0,0,0,0,0,0,0,0,-1,1021,666,0,0
-196,358,0,0,0,0,0,0,0,0,0,-1,1028,666,0,0
-189,358,0,0,0,0,0,0,0,0,0,-1,1035,666,0,0
-182,358,0,0,0,0,0,0,0,0,0,-1,1042,666,0,0
-175,358,0,0,0,0,0,0,0,0,0,-1,1049,666,0,0
-168,358,0,0,0,0,0,0,0,0,0,-1,1056,666,0,0
-161,358,0,0,0,0,0,0,0,0,0,-1,1063,666,0,0
-154,358,0,0,0,0,0,0,0,0,0,-1,1070,666,0,0
-147,358,0,0,0,0,0,0,0,0,0,-1,1077,666,0,0
-140,358,0,0,0,0,0,0,0,0,0,-1,1084,666,0,0
-133,358,0,0,0,0,0,0,0,0,0,-1,1091,666,0,0
-126,358,0,0,0,0,0,0,0,0,0,-1,1098,666,0,0
-119,358,0,0,0,0,0,0,0,0,0,-1,1105,666,0,0
-112,358,0,0,0,0,0,0,0,0,0,-1,1112,666,0,0
-105,358,0,0,0,0,0,0,0,0,0,-1,1119,666,0,0
-98,358,0,0,0,0,0,0,0,0,0,-1,1126,666,0,0
-91,358,0,0,0,0,0,0,0,0,0,-1,1133,666,0,0
-84,358,0,0,0,0,0,0,0,0,0,-1,1140,666,0,0
-77,358,0,0,0,0,0,0,0,0,0,-1,1147,666,0,0
-70,358,0,0,0,0,0,0,0,0,0,-1,1154,666,0,0
-63,358,0,0,0,0,0,0,0,0,0,-1,1161,666,0,0
-56,358,0,0,0,0,0,0,0,0,0,-1,1168,666,0,0
-49,358,0,0,0,0,0,0,0,0,0,-1,1175,666,0,0
-42,358,0,0,0,0,0,0,0,0,0,-1,1182,666,0,0
-35,358,0,0,0,0,0,0,0,0,0,-1,1189,666,0,0
-28,358,0,0,0,0,0,0,0,0,0,-1,1196,666,0,0
-21,358,0,0,0,0,0,0,0,0,0,-1,1203,666,0,0
-14,358,0,0,0,0,0,0,0,0,0,-1,1210,666,0,0
-7,358,0,0,0,0,0,0,0,0,0,-1,1217,666,0,0
0,358,0,0,0,0,0,0,0,0,0,-1,1224,666,0,0
7,358,0,0,0,0,0,0,0,0,0,-1,1231,666,0,0
14,358,0,0,0,0,0,0,0,0,0,-1,1238,666,0,0
21,358,0,0,0,0,0,0,0,0,0,-1,1245,666,0,0
28,358,0,0,0,0,0,0,0,0,0,-1,1252,666,0,0
35,358,0,0,0,0,0,0,0,0,0,-1,1259,666,0,0
42,358,0,0,0,0,0,0,0,0,0,-1,1266,666,0,0
49,358,0,0,0,0,0,0,0,0,0,-1,1273,666,0,0
56,358,0,0,0,0,0,0,0,0,0,-1,1280,666,0,0
63,358,0,0,0,0,0,0,0,0,0,-1,1287,666,0,0
70,358,0,0,0,0,0,0,0,0,0,-1,1294,666,0,0
77,358,0,0,0,0,0,0,0,0,0,-1,1301,666,0,0
84,358,0,0,0,0,0,0,0,0,0,-1,1308,666,0,0
91,358,0,0,0,0,0,0,0,0,0,-1,1315,666,0,0
98,358,0,0,0,0,0,0,0,0,0,-1,1322,666,0,0
105,358,0,0,0,0,0,0,0,0,0,-1,1329,666,0,0
112,358,0,0,0,0,0,0,0,0,0,-1,1336,666,0,0
119,358,0,0,0,0,0,0,0,0,0,-1,1343,666,0,0
126,358,0,0,0,0,0,0,0,0,0,-1,1350,666,0,0
133,358,0,0,0,0,0,0,0,0,0,-1,1357,666,0,0
140,358,0,0,0,0,0,0,0,0,0,-1,1364,666,0,0
147,358,0,0,0,0,0,0,0,0,0,-1,1371,666,0,0
154,358,0,0,0,0,0,0,0,0,0,-1,1378,666,0,0
161,358,0,0,0,0,0,0,0,0,0,-1,1385,666,0,0
168,358,0,0,0,0,0,0,0,0,0,-1,1392,666,0,0
175,358,0,0,0,0,0,0,0,0,0,-1,1399,666,0,0
182,358,0,0,0,0,0,0,0,0,0,-1,1406,666,0,0
189,358,0,0,0,0,0,0,0,0,0,-1,1413,666,0,0
196,358,0,0,0,0,0,0,0,0,0,-1,1420,666,0,0
203,358,0,0,0,0,0,0,0,0,0,-1,1427,666,0,0
210,358,0,0,0,0,0,0,0,0,0,-1,1434,666,0,0
217,358,0,0,0,0,0,0,0,0,0,-1,1441,666,0,0
224,358,0,0,0,0,0,0,0,0,0,-1,1448,666,0,0
231,358,0,0,0,0,0,0,0,0,0,-1,1455,666,0,0
238,358,0,0,0,0,0,0,0,0,0,-1,1462,666,0,0
245,358,0,0,0,0,0,0,0,0,0,-1,1469,666,0,0
252,358,0,0,0,0,0,0,0,0,0,-1,1476,666,0,0
259,358,0,0,0,0,0,0,0,0,0,-1,1483,666,0,0
266,358,0,0,0,0,0,0,0,0,0,-1,1490,666,0,0
273,358,0,0,0,0,0,0,0,0,0,-1,1497,666,0,0
280,358,0,0,0,0,0,0,0,0,0,-1,1504,666,0,0
287,358,0,0,0,0,0,0,0,0,0,-1,1511,666,0,0
294,358,0,0,0,0,0,0,0,0,0,-1,1518,666,0,0
301,358,0,0,0,0,0,0,0,0,0,-1,1525,666,0,0
308,358,0,0,0,0,0,0,0,0,0,-1,1532,666,0,0
315,358,0,0,0,0,0,0,0,0,0,-1,1539,666,0,0
322,358,0,0,0,0,0,0,0,0,0,-1,1546,666,0,0
329,358,0,0,0,0,0,0,0,0,0,-1,1553,666,0,0
336,358,0,0,0,0,0,0,0,0,0,-1,1560,666,0,0
343,358,0,0,0,0,0,0,0,0,0,-1,1567,666,0,0
350,358,0,0,0,0,0,0,0,0,0,-1,1574,666,0,0
357,358,0,0,0,0,0,0,0,0,0,-1,1581,666,0,0
364,358,0,0,0,0,0,0,0,0,0,-1,1588,666,0,0
371,358,0,0,0,0,0,0,0,0,0,-1,1595,666,0,0
378,358,0,0,0,0,0,0,0,0,0,-1,1602,666,0,0
385,358,0,0,0,0,0,0,0,0,0,-1,1609,666,0,0
392,358,0,0,0,0,0,0,0,0,0,-1,1616,666,0,0
399,358,0,0,0,0,0,0,0,0,0,-1,1623,666,0,0
406,358,0,0,0,0,0,0,0,0,0,-1,1630,666,0,0
413,358,0,0,0,0,0,0,0,0,0,-1,1637,666,0,0
420,358,0,0,0,0,0,0,0,0,0,-1,1644,666,0,0
427,358,0,0,0,0,0,0,0,0,0,-1,1651,666,0,0
434,358,0,0,0,0,0,0,0,0,0,-1,1658,666,0,0
441,358,0,0,0,0,0,0,0,0,0,-1,1665,666,0,0
448,358,0,0,0,0,0,0,0,0,0,-1,1672,666,0,0
455,358,0,0,0,0,0,0,0,0,0,-1,1679,666,0,0
462,358,0,0,0,0,0,0,0,0,0,-1,1686,666,0,0
469,358,0,0,0,0,0,0,0,0,0,-1,1693,666,0,0
476,358,0,0,0,0,0,0,0,0,0,-1,1700,666,0,0
483,358,0,0,0,0,0,0,0,0,0,-1,1707,666,0,0
490,358,0,0,0,0,0,0,0,0,0,-1,1714,666,0,0
497,358,8.57239,1.1322,0,0,0,0,0,0,0,-1,1721,666,8.57234,-1.13219
504,358,10.5972,0.832947,0,0,0,0,0,0,0,-1,1728,666,10.5972,-0.832968
511,358,10.6873,0.868469,0,0,0,0,0,0,0,-1,1735,666,10.6872,-0.868484
518,358,16.5884,2.34894,0,0,0,0,0,0,0,-1,1742,666,16.5884,-2.34894
525,358,15.7626,3.65344,0,0,0,0,0,0,0,-1,1749,666,15.7626,-3.65342
532,358,14.9368,4.95789,0,0,0,0,0,0,0,-1,1756,666,14.9367,-4.9579
539,358,15.1597,3.42694,0,0,0,0,0,0,0,-1,1763,666,15.1597,-3.42692
546,358,12.3792,1.53558,0,0,0,0,0,0,0,-1,1770,666,12.3792,-1.5356
553,358,11.6584,1.26172,0,0,0,0,0,0,0,-1,1777,666,11.6585,-1.26175
560,358,10.8234,1.43042,0,0,0,0,0,0,0,-1,1784,666,10.8233,-1.43041
567,358,10.1333,-0.955139,0,0,0,0,0,0,0,-1,1791,666,10.1333,0.955132
574,358,14.7886,-2.69293,0,0,0,0,0,0,0,-1,1798,666,14.7885,2.6929
581,358,20.1738,-6.76135,0,0,0,0,0,0,0,-1,1805,666,20.1738,6.76137
588,358,23.887,-7.67188,0,0,0,0,0,0,0,-1,1812,666,23.8869,7.67185
595,358,24.0494,-6.83374,0.00143419,0.000256968,-0.000261593,0.0014897,0.000201457,-0.209104,0.000933259,0.0172587,1819,666,24.0495,6.83372
602,358,23.9929,-6.21545,0.00111312,0.000547164,-8.79653e-05,0.00112648,0.000533807,-0.150692,0.00065067,0.0136623,1826,666,23.9929,6.21544
609,358,23.9164,-5.64996,0.00112686,0.000879486,0.000232746,0.00126675,0.000739604,0.54116,0.000734777,0.0171635,1833,666,23.9164,5.64996
616,358,23.9301,-5.05139,0.00111699,0.00113514,0.000471267,0.00159742,0.000654714,0.795026,0.000927256,0.0162782,1840,666,23.9301,5.05138
623,358,23.9841,-4.46814,0.00096418,0.00137823,0.000654649,0.00185781,0.000484601,0.938542,0.00111275,0.0145147,1847,666,23.9841,4.46814
630,358,23.9282,-3.90729,0.00047981,0.00147915,0.000716101,0.00185268,0.000106285,1.09001,0.00120126,0.0188529,1854,666,23.9282,3.90727
637,358,23.8551,-3.34271,-0.000388848,0.00145909,0.00054564,0.00160817,-0.000537931,1.30408,0.00128939,0.026561,1861,666,23.8551,3.34272
644,358,23.8638,-2.72772,-0.00174809,0.0012933,0.000146241,0.00130032,-0.00175511,1.52286,0.00177055,0.0206699,1868,666,23.8638,2.72773
651,358,24.0131,-1.98578,-0.0038856,0.000931247,-0.000577191,0.000999445,-0.00395379,-1.45319,0.00302456,0.0368926,1875,666,24.0131,1.98578
658,358,24.051,-1.12842,0,0,0,0,0,0,0,-1,1882,666,24.051,1.1284
665,358,23.0402,-0.788574,0,0,0,0,0,0,0,-1,1889,666,23.0402,0.788549
672,358,12.4299,1.47272,0,0,0,0,0,0,0,-1,1896,666,12.4299,-1.4727
679,358,12.1294,2.19702,0,0,0,0,0,0,0,-1,1903,666,12.1294,-2.19703
686,358,11.9557,2.2002,0,0,0,0,0,0,0,-1,1910,666,11.9557,-2.20021
693,358,13.188,2.52203,0,0,0,0,0,0,0,-1,1917,666,13.188,-2.52202
700,358,0,0,0,0,0,0,0,0,0,-1,1924,666,0,0
707,358,0,0,0,0,0,0,0,0,0,-1,1931,666,0,0
714,358,0,0,0,0,0,0,0,0,0,-1,1938,666,0,0
721,358,0,0,0,0,0,0,0,0,0,-1,1945,666,0,0
728,358,0,0,0,0,0,0,0,0,0,-1,1952,666,0,0
735,358,0,0,0,0,0,0,0,0,0,-1,1959,666,0,0
742,358,0,0,0,0,0,0,0,0,0,-1,1966,666,0,0
749,358,0,0,0,0,0,0,0,0,0,-1,1973,666,0,0
756,358,0,0,0,0,0,0,0,0,0,-1,1980,666,0,0
763,358,0,0,0,0,0,0,0,0,0,-1,1987,666,0,0
770,358,0,0,0,0,0,0,0,0,0,-1,1994,666,0,0
777,358,0,0,0,0,0,0,0,0,0,-1,2001,666,0,0
784,358,0,0,0,0,0,0,0,0,0,-1,2008,666,0,0
791,358,0,0,0,0,0,0,0,0,0,-1,2015,666,0,0
798,358,0,0,0,0,0,0,0,0,0,-1,2022,666,0,0
805,358,0,0,0,0,0,0,0,0,0,-1,2029,666,0,0
812,358,0,0,0,0,0,0,0,0,0,-1,2036,666,0,0
-700,351,0,0,0,0,0,0,0,0,0,-1,524,673,0,0
-693,351,0,0,0,0,0,0,0,0,0,-1,531,673,0,0
-686,351,0,0,0,0,0,0,0,0,0,-1,538,673,0,0
-679,351,0,0,0,0,0,0,0,0,0,-1,545,673,0,0
-672,351,0,0,0,0,0,0,0,0,0,-1,552,673,0,0
-665,351,0,0,0,0,0,0,0,0,0,-1,559,673,0,0
-658,351,0,0,0,0,0,0,0,0,0,-1,566,673,0,0
-651,351,0,0,0,0,0,0,0,0,0,-1,573,673,0,0
-644,351,0,0,0,0,0,0,0,0,0,-1,580,673,0,0
-637,351,0,0,0,0,0,0,0,0,0,-1,587,673,0,0
-630,351,0,0,0,0,0,0,0,0,0,-1,594,673,0,0
-623,351,0,0,0,0,0,0,0,0,0,-1,601,673,0,0
-616,351,0,0,0,0,0,0,0,0,0,-1,608,673,0,0
-609,351,0,0,0,0,0,0,0,0,0,-1,615,673,0,0
-602,351,0,0,0,0,0,0,0,0,0,-1,622,673,0,0
-595,351,0,0,0,0,0,0,0,0,0,-1,629,673,0,0
-588,351,0,0,0,0,0,0,0,0,0,-1,636,673,0,0
-581,351,-9.0647,1.71906,0,0,0,0,0,0,0,-1,643,673,-9.06472,-1.71908
-574,351,-8.23584,2.64764,0,0,0,0,0,0,0,-1,650,673,-8.23584,-2.64764
-567,351,-10.8027,4.56836,0,0,0,0,0,0,0,-1,657,673,-10.8027,-4.56839
-560,351,-14.2001,2.17084,0,0,0,0,0,0,0,-1,664,673,-14.2002,-2.17086
-553,351,-13.4979,0.779541,0,0,0,0,0,0,0,-1,671,673,-13.4978,-0.779519
-546,351,-14.0065,0.73645,0,0,0,0,0,0,0,-1,678,673,-14.0065,-0.736473
-539,351,-12.8123,-1.46393,0,0,0,0,0,0,0,-1,685,673,-12.8123,1.46395
-532,351,-13.8494,-3.08142,0,0,0,0,0,0,0,-1,692,673,-13.8494,3.08144
-525,351,-14.1891,-3.85254,0,0,0,0,0,0,0,-1,699,673,-14.1891,3.85252
-518,351,-14.1188,-4.38959,0.00232964,0.00258668,-0.00109822,0.00356387,0.00135245,-0.843646,0.00207743,0.0197469,706,673,-14.1188,4.38961
-511,351,-14.1076,-4.98315,0.00209375,0.00188892,-0.00086878,0.00286613,0.00111654,-0.726725,0.00166816,0.0125694,713,673,-14.1076,4.98314
-504,351,-14.1476,-5.56348,0.00192607,0.00129441,-0.000693761,0.0023725,0.00084797,-0.571796,0.00138821,0.0110721,720,673,-14.1476,5.56346
-497,351,-14.1714,-6.13837,0.0018804,0.000811532,-0.000593114,0.00214434,0.00054759,-0.418696,0.00128648,0.0106763,727,673,-14.1714,6.13838
-490,351,-14.183,-6.70624,0.0018872,0.000457217,-0.00058296,0.00209473,0.000249682,-0.342012,0.00132115,0.0105334,734,673,-14.1831,6.70623
-483,351,-14.1946,-7.26178,0.00204208,0.000240866,-0.00066136,0.00225883,2.41142e-05,-0.316705,0.00149791,0.0120702,741,673,-14.1946,7.26178
-476,351,-14.2156,-7.81854,0.00230035,0.000166357,-0.000844826,0.00259431,-0.000127607,-0.334854,0.00177361,0.010847,748,673,-14.2156,7.81857
-469,351,-14.2274,-8.38605,0.00266294,0.000262622,-0.00114418,0.00312095,-0.000195388,-0.380762,0.00214872,0.0134369,755,673,-14.2273,8.38605
-462,351,-14.2302,-9.01514,0.00304007,0.0004817,-0.00148149,0.00371821,-0.000196442,-0.429274,0.00254682,0.0302443,762,673,-14.2301,9.01512
-455,351,-14.1868,-9.65332,0,0,0,0,0,0,0,-1,769,673,-14.1868,9.65333
-448,351,-6.61456,-4.38654,0,0,0,0,0,0,0,-1,776,673,-6.61456,4.38654
-441,351,-4.31567,-2.3009,0,0,0,0,0,0,0,-1,783,673,-4.31565,2.30089
-434,351,-3.81708,-2.28003,0,0,0,0,0,0,0,-1,790,673,-3.81706,2.28006
-427,351,-2.05157,-2.7785,0,0,0,0,0,0,0,-1,797,673,-2.05157,2.77848
-420,351,-1.06989,-2.43665,0,0,0,0,0,0,0,-1,804,673,-1.06991,2.43663
-413,351,-0.392334,-2.06671,0,0,0,0,0,0,0,-1,811,673,-0.392363,2.06672
-406,351,-1.86316,-2.58105,0,0,0,0,0,0,0,-1,818,673,-1.86313,2.58106
-399,351,1.00952,-1.53455,0,0,0,0,0,0,0,-1,825,673,1.00954,1.53457
-392,351,-1.02197,0.877136,0,0,0,0,0,0,0,-1,832,673,-1.02195,-0.877143
-385,351,-1.47205,1.04437,0,0,0,0,0,0,0,-1,839,673,-1.47207,-1.04435
-378,351,0,0,0,0,0,0,0,0,0,-1,846,673,0,0
-371,351,0,0,0,0,0,0,0,0,0,-1,853,673,0,0
-364,351,0,0,0,0,0,0,0,0,0,-1,860,673,0,0
-357,351,0,0,0,0,0,0,0,0,0,-1,867,673,0,0
-350,351,0,0,0,0,0,0,0,0,0,-1,874,673,0,0
-343,351,0,0,0,0,0,0,0,0,0,-1,881,673,0,0
-336,351,0,0,0,0,0,0,0,0,0,-1,888,673,0,0
-329,351,0,0,0,0,0,0,0,0,0,-1,895,673,0,0
-322,351,0,0,0,0,0,0,0,0,0,-1,902,673,0,0
-315,351,0,0,0,0,0,0,0,0,0,-1,909,673,0,0
-308,351,0,0,0,0,0,0,0,0,0,-1,916,673,0,0
-301,351,0,0,0,0,0,0,0,0,0,-1,923,673,0,0
-294,351,0,0,0,0,0,0,0,0,0,-1,930,673,0,0
-287,351,0,0,0,0,0,0,0,0,0,-1,937,673,0,0
-280,351,0,0,0,0,0,0,0,0,0,-1,944,673,0,0
-273,351,0,0,0,0,0,0,0,0,0,-1,951,673,0,0
-266,351,0,0,0,0,0,0,0,0,0,-1,958,673,0,0
-259,351,0,0,0,0,0,0,0,0,0,-1,965,673,0,0
-252,351,0,0,0,0,0,0,0,0,0,-1,972,673,0,0
-245,351,0,0,0,0,0,0,0,0,0,-1,979,673,0,0
-238,351,0,0,0,0,0,0,0,0,0,-1,986,673,0,0
-231,351,0,0,0,0,0,0,0,0,0,-1,993,673,0,0
-224,351,0,0,0,0,0,0,0,0,0,-1,1000,673,0,0
-217,351,0,0,0,0,0,0,0,0,0,-1,1007,673,0,0
-210,351,0,0,0,0,0,0,0,0,0,-1,1014,673,0,0
-203,351,0,0,0,0,0,0,0,0,0,-1,1021,673,0,0
-196,351,0,0,0,0,0,0,0,0,0,-1,1028,673,0,0
-189,351,0,0,0,0,0,0,0,0,0,-1,1035,673,0,0
-182,351,0,0,0,0,0,0,0,0,0,-1,1042,673,0,0
-175,351,0,0,0,0,0,0,0,0,0,-1,1049,673,0,0
-168,351,0,0,0,0,0,0,0,0,0,-1,1056,673,0,0
-161,351,0,0,0,0,0,0,0,0,0,-1,1063,673,0,0
-154,351,0,0,0,0,0,0,0,0,0,-1,1070,673,0,0
-147,351,0,0,0,0,0,0,0,0,0,-1,1077,673,0,0
-140,351,0,0,0,0,0,0,0,0,0,-1,1084,673,0,0
-133,351,0,0,0,0,0,0,0,0,0,-1,1091,673,0,0
-126,351,0,0,0,0,0,0,0,0,0,-1,1098,673,0,0
-119,351,0,0,0,0,0,0,0,0,0,-1,1105,673,0,0
-112,351,0,0,0,0,0,0,0,0,0,-1,1112,673,0,0
-105,351,0,0,0,0,0,0,0,0,0,-1,1119,673,0,0
-98,351,0,0,0,0,0,0,0,0,0,-1,1126,673,0,0
-91,351,0,0,0,0,0,0,0,0,0,-1,1133,673,0,0
-84,351,0,0,0,0,0,0,0,0,0,-1,1140,673,0,0
-77,351,0,0,0,0,0,0,0,0,0,-1,1147,673,0,0
-70,351,0,0,0,0,0,0,0,0,0,-1,1154,673,0,0
-63,351,0,0,0,0,0,0,0,0,0,-1,1161,673,0,0
-56,351,0,0,0,0,0,0,0,0,0,-1,1168,673,0,0
-49,351,0,0,0,0,0,0,0,0,0,-1,1175,673,0,0
-42,351,0,0,0,0,0,0,0,0,0,-1,1182,673,0,0
-35,351,0,0,0,0,0,0,0,0,0,-1,1189,673,0,0
-28,351,0,0,0,0,0,0,0,0,0,-1,1196,673,0,0
-21,351,0,0,0,0,0,0,0,0,0,-1,1203,673,0,0
-14,351,0,0,0,0,0,0,0,0,0,-1,1210,673,0,0
-7,351,0,0,0,0,0,0,0,0,0,-1,1217,673,0,0
0,351,0,0,0,0,0,0,0,0,0,-1,1224,673,0,0
7,351,0,0,0,0,0,0,0,0,0,-1,1231,673,0,0
14,351,0,0,0,0,0,0,0,0,0,-1,1238,673,0,0
21,351,0,0,0,0,0,0,0,0,0,-1,1245,673,0,0
28,351,0,0,0,0,0,0,0,0,0,-1,1252,673,0,0
35,351,0,0,0,0,0,0,0,0,0,-1,1259,673,0,0
42,351,0,0,0,0,0,0,0,0,0,-1,1266,673,0,0
49,351,0,0,0,0,0,0,0,0,0,-1,1273,673,0,0
56,351,0,0,0,0,0,0,0,0,0,-1,1280,673,0,0
63,351,0,0,0,0,0,0,0,0,0,-1,1287,673,0,0
70,351,0,0,0,0,0,0,0,0,0,-1,1294,673,0,0
77,351,0,0,0,0,0,0,0,0,0,-1,1301,673,0,0
84,351,0,0,0,0,0,0,0,0,0,-1,1308,673,0,0
91,351,0,0,0,0,0,0,0,0,0,-1,1315,673,0,0
98,351,0,0,0,0,0,0,0,0,0,-1,1322,673,0,0
105,351,0,0,0,0,0,0,0,0,0,-1,1329,673,0,0
112,351,0,0,0,0,0,0,0,0,0,-1,1336,673,0,0
119,351,0,0,0,0,0,0,0,0,0,-1,1343,673,0,0
126,351,0,0,0,0,0,0,0,0,0,-1,1350,673,0,0
133,351,0,0,0,0,0,0,0,0,0,-1,1357,673,0,0
140,351,0,0,0,0,0,0,0,0,0,-1,1364,673,0,0
147,351,0,0,0,0,0,0,0,0,0,-1,1371,673,0,0
154,351,0,0,0,0,0,0,0,0,0,-1,1378,673,0,0
161,351,0,0,0,0,0,0,0,0,0,-1,1385,673,0,0
168,351,0,0,0,0,0,0,0,0,0,-1,1392,673,0,0
175,351,0,0,0,0,0,0,0,0,0,-1,1399,673,0,0
182,351,0,0,0,0,0,0,0,0,0,-1,1406,673,0,0
189,351,0,0,0,0,0,0,0,0,0,-1,1413,673,0,0
196,351,0,0,0,0,0,0,0,0,0,-1,1420,673,0,0
203,351,0,0,0,0,0,0,0,0,0,-1,1427,673,0,0
210,351,0,0,0,0,0,0,0,0,0,-1,1434,673,0,0
217,351,0,0,0,0,0,0,0,0,0,-1,1441,673,0,0
224,351,0,0,0,0,0,0,0,0,0,-1,1448,673,0,0
231,351,0,0,0,0,0,0,0,0,0,-1,1455,673,0,0
238,351,0,0,0,0,0,0,0,0,0,-1,1462,673,0,0
245,351,0,0,0,0,0,0,0,0,0,-1,1469,673,0,0
252,351,0,0,0,0,0,0,0,0,0,-1,1476,673,0,0
259,351,0,0,0,0,0,0,0,0,0,-1,1483,673,0,0
266,351,0,0,0,0,0,0,0,0,0,-1,1490,673,0,0
273,351,0,0,0,0,0,0,0,0,0,-1,1497,673,0,0
280,351,0,0,0,0,0,0,0,0,0,-1,1504,673,0,0
287,351,0,0,0,0,0,0,0,0,0,-1,1511,673,0,0
294,351,0,0,0,0,0,0,0,0,0,-1,1518,673,0,0
301,351,0,0,0,0,0,0,0,0,0,-1,1525,673,0,0
308,351,0,0,0,0,0,0,0,0,0,-1,1532,673,0,0
315,351,0,0,0,0,0,0,0,0,0,-1,1539,673,0,0
322,351,0,0,0,0,0,0,0,0,0,-1,1546,673,0,0
329,351,0,0,0,0,0,0,0,0,0,-1,1553,673,0,0
336,351,0,0,0,0,0,0,0,0,0,-1,1560,673,0,0
343,351,0,0,0,0,0,0,0,0,0,-1,1567,673,0,0
350,351,0,0,0,0,0,0,0,0,0,-1,1574,673,0,0
357,351,0,0,0,0,0,0,0,0,0,-1,1581,673,0,0
364,351,0,0,0,0,0,0,0,0,0,-1,1588,673,0,0
371,351,0,0,0,0,0,0,0,0,0,-1,1595,673,0,0
378,351,0,0,0,0,0,0,0,0,0,-1,1602,673,0,0
385,351,0,0,0,0,0,0,0,0,0,-1,1609,673,0,0
392,351,0,0,0,0,0,0,0,0,0,-1,1616,673,0,0
399,351,0,0,0,0,0,0,0,0,0,-1,1623,673,0,0
406,351,0,0,0,0,0,0,0,0,0,-1,1630,673,0,0
413,351,0,0,0,0,0,0,0,0,0,-1,1637,673,0,0
420,351,0,0,0,0,0,0,0,0,0,-1,1644,673,0,0
427,351,0,0,0,0,0,0,0,0,0,-1,1651,673,0,0
434,351,0,0,0,0,0,0,0,0,0,-1,1658,673,0,0
441,351,0,0,0,0,0,0,0,0,0,-1,1665,673,0,0
448,351,0,0,0,0,0,0,0,0,0,-1,1672,673,0,0
455,351,0,0,0,0,0,0,0,0,0,-1,1679,673,0,0
462,351,0,0,0,0,0,0,0,0,0,-1,1686,673,0,0
469,351,0,0,0,0,0,0,0,0,0,-1,1693,673,0,0
476,351,0,0,0,0,0,0,0,0,0,-1,1700,673,0,0
483,351,0,0,0,0,0,0,0,0,0,-1,1707,673,0,0
490,351,0,0,0,0,0,0,0,0,0,-1,1714,673,0,0
497,351,0,0,0,0,0,0,0,0,0,-1,1721,673,0,0
504,351,10.8842,1.61615,0,0,0,0,0,0,0,-1,1728,673,10.8842,-1.61618
511,351,15.4548,0.0236816,0,0,0,0,0,0,0,-1,1735,673,15.4549,-0.0236664
518,351,16.7448,2.49268,0,0,0,0,0,0,0,-1,1742,673,16.7448,-2.49269
525,351,16.0701,3.43225,0,0,0,0,0,0,0,-1,1749,673,16.07,-3.43227
532,351,32.3822,3.03021,0,0,0,0,0,0,0,-1,1756,673,32.3822,-3.03019
539,351,15.3387,3.54486,0,0,0,0,0,0,0,-1,1763,673,15.3387,-3.54485
546,351,13.9387,4.59357,0,0,0,0,0,0,0,-1,1770,673,13.9388,-4.59359
553,351,12.0682,2.02832,0,0,0,0,0,0,0,-1,1777,673,12.0683,-2.02831
560,351,12.0173,0.55304,0,0,0,0,0,0,0,-1,1784,673,12.0174,-0.553028
567,351,10.7827,0.130188,0,0,0,0,0,0,0,-1,1791,673,10.7827,-0.130183
574,351,13.405,-1.09204,0,0,0,0,0,0,0,-1,1798,673,13.405,1.09207
581,351,15.2351,-3.06049,0,0,0,0,0,0,0,-1,1805,673,15.2351,3.06046
588,351,24.5166,-7.54791,0,0,0,0,0,0,0,-1,1812,673,24.5167,7.54794
595,351,24.6072,-6.87408,0.00145518,0.000220067,-0.000218087,0.00149256,0.00018269,-0.169736,0.000940079,0.0413567,1819,673,24.6072,6.87411
602,351,24.5985,-6.24908,0.000983425,0.000396939,-0.000212469,0.00105231,0.000328057,-0.313506,0.000621738,0.0196393,1826,673,24.5985,6.24909
609,351,24.6035,-5.66022,0.00100024,0.000619695,3.15593e-05,0.00100284,0.000617095,0.0821842,0.000584101,0.0181451,1833,673,24.6035,5.66023
616,351,24.558,-5.05609,0.0010132,0.000820993,0.000257182,0.00119165,0.000642545,0.606594,0.000688702,0.0161389,1840,673,24.558,5.05612
623,351,24.5803,-4.46564,0.000775619,0.000971495,0.00034681,0.00123393,0.000513183,0.923013,0.000715762,0.0163435,1847,673,24.5804,4.46566
630,351,24.5132,-3.91431,0.000222149,0.000996396,0.000350426,0.00113144,8.71015e-05,1.20295,0.000727003,0.0259893,1854,673,24.5131,3.91432
637,351,24.4498,-3.29767,-0.00071257,0.000930766,0.00013603,0.00094195,-0.000723753,1.48876,0.000964441,0.0301459,1861,673,24.4498,3.29766
644,351,24.4546,-2.65167,-0.00208487,0.00071372,-0.000288906,0.000743233,-0.00211438,-1.46899,0.00171198,0.0217928,1868,673,24.4546,2.65167
651,351,24.4897,-1.99945,-0.00411123,0.000374702,-0.000970352,0.000575601,-0.00431213,-1.36664,0.00308458,0.0169862,1875,673,24.4897,1.99942
658,351,24.4323,-1.3811,-0.00702176,-0.000241435,-0.00211381,0.000363573,-0.00762677,-1.29203,0.00520994,0.0337475,1882,673,24.4322,1.38111
665,351,23.9851,-1.03668,-0.0110054,-0.00106177,-0.00366252,0.00014161,-0.0122087,-1.25334,0.00818677,0.0443206,1889,673,23.9851,1.03668
672,351,23.7168,-0.440063,0,0,0,0,0,0,0,-1,1896,673,23.7168,0.440088
679,351,14.1252,1.85681,0,0,0,0,0,0,0,-1,1903,673,14.1253,-1.85682
686,351,13.0294,2.1189,0,0,0,0,0,0,0,-1,1910,673,13.0294,-2.11892
693,351,13.5187,2.34595,0,0,0,0,0,0,0,-1,1917,673,13.5187,-2.34596
700,351,14.5629,-2.40173,0,0,0,0,0,0,0,-1,1924,673,14.5629,2.40172
707,351,0,0,0,0,0,0,0,0,0,-1,1931,673,0,0
714,351,0,0,0,0,0,0,0,0,0,-1,1938,673,0,0
721,351,0,0,0,0,0,0,0,0,0,-1,1945,673,0,0
728,351,0,0,0,0,0,0,0,0,0,-1,1952,673,0,0
735,351,0,0,0,0,0,0,0,0,0,-1,1959,673,0,0
742,351,0,0,0,0,0,0,0,0,0,-1,1966,673,0,0
749,351,0,0,0,0,0,0,0,0,0,-1,1973,673,0,0
756,351,0,0,0,0,0,0,0,0,0,-1,1980,673,0,0
763,351,0,0,0,0,0,0,0,0,0,-1,1987,673,0,0
770,351,0,0,0,0,0,0,0,0,0,-1,1994,673,0,0
777,351,0,0,0,0,0,0,0,0,0,-1,2001,673,0,0
784,351,0,0,0,0,0,0,0,0,0,-1,2008,673,0,0
791,351,0,0,0,0,0,0,0,0,0,-1,2015,673,0,0
798,351,0,0,0,0,0,0,0,0,0,-1,2022,673,0,0
805,351,0,0,0,0,0,0,0,0,0,-1,2029,673,0,0
812,351,0,0,0,0,0,0,0,0,0,-1,2036,673,0,0
-700,344,0,0,0,0,0,0,0,0,0,-1,524,680,0,0
-693,344,0,0,0,0,0,0,0,0,0,-1,531,680,0,0
-686,344,0,0,0,0,0,0,0,0,0,-1,538,680,0,0
-679,344,0,0,0,0,0,0,0,0,0,-1,545,680,0,0
-672,344,0,0,0,0,0,0,0,0,0,-1,552,680,0,0
-665,344,0,0,0,0,0,0,0,0,0,-1,559,680,0,0
-658,344,0,0,0,0,0,0,0,0,0,-1,566,680,0,0
-651,344,0,0,0,0,0,0,0,0,0,-1,573,680,0,0
-644,344,0,0,0,0,0,0,0,0,0,-1,580,680,0,0
-637,344,0,0,0,0,0,0,0,0,0,-1,587,680,0,0
-630,344,0,0,0,0,0,0,0,0,0,-1,594,680,0,0
-623,344,0,0,0,0,0,0,0,0,0,-1,601,680,0,0
-616,344,0,0,0,0,0,0,0,0,0,-1,608,680,0,0
-609,344,0,0,0,0,0,0,0,0,0,-1,615,680,0,0
-602,344,0,0,0,0,0,0,0,0,0,-1,622,680,0,0
-595,344,0,0,0,0,0,0,0,0,0,-1,629,680,0,0
-588,344,-9.27826,1.47302,0,0,0,0,0,0,0,-1,636,680,-9.27829,-1.473
-581,344,-10.0098,1.71753,0,0,0,0,0,0,0,-1,643,680,-10.0098,-1.7175
-574,344,-10.2208,3.04871,0,0,0,0,0,0,0,-1,650,680,-10.2208,-3.04869
-567,344,-14.3779,2.29016,0,0,0,0,0,0,0,-1,657,680,-14.3779,-2.29014
-560,344,-14.1238,1.8374,0,0,0,0,0,0,0,-1,664,680,-14.1238,-1.83743
-553,344,-14.7884,2.00116,0,0,0,0,0,0,0,-1,671,680,-14.7884,-2.00115
-546,344,-16.0009,-0.720398,0,0,0,0,0,0,0,-1,678,680,-16.0009,0.720401
-539,344,-14.6892,-2.26263,0,0,0,0,0,0,0,-1,685,680,-14.6892,2.26263
-532,344,-14.6301,-3.09216,0,0,0,0,0,0,0,-1,692,680,-14.63,3.09214
-525,344,-14.728,-3.73242,0.0024331,0.00297339,-0.00100658,0.00374544,0.00166105,-0.9165,0.00216703,0.0405602,699,680,-14.7279,3.73244
-518,344,-14.6906,-4.41089,0.00217803,0.00210585,-0.000782689,0.00292546,0.00135842,-0.762358,0.00169045,0.0213068,706,680,-14.6906,4.41087
-511,344,-14.6965,-4.98328,0.00196788,0.00139539,-0.000583067,0.00233117,0.0010321,-0.557219,0.00134884,0.0186925,713,680,-14.6966,4.98329
-504,344,-14.6993,-5.5509,0.00185264,0.000791009,-0.000442087,0.00201262,0.000631023,-0.347226,0.00118862,0.0187446,720,680,-14.6993,5.55087
-497,344,-14.7324,-6.12952,0.00184883,0.000326946,-0.000378279,0.00193767,0.000238107,-0.23067,0.00122018,0.0158738,727,680,-14.7324,6.12954
-490,344,-14.7618,-6.69836,0.00189977,-5.22314e-06,-0.000410441,0.00198444,-8.98916e-05,-0.203433,0.00135392,0.0147756,734,680,-14.7618,6.69834
-483,344,-14.7552,-7.2597,0.00211117,-0.000172282,-0.000550167,0.00223681,-0.000297924,-0.224521,0.00159979,0.0143997,741,680,-14.7553,7.2597
-476,344,-14.7742,-7.82306,0.00241659,-0.000185673,-0.000809376,0.00264779,-0.00041687,-0.278239,0.0019193,0.0140416,748,680,-14.7742,7.82304
-469,344,-14.7908,-8.42627,0.00289471,5.80127e-05,-0.00126794,0.00337883,-0.000426109,-0.364733,0.0024072,0.0183098,755,680,-14.7908,8.4263
-462,344,-14.7291,-9.04401,0,0,0,0,0,0,0,-1,762,680,-14.7291,9.04401
-455,344,-12.1653,-7.99176,0,0,0,0,0,0,0,-1,769,680,-12.1653,7.99174
-448,344,-5.67657,-2.72864,0,0,0,0,0,0,0,-1,776,680,-5.6766,2.72863
-441,344,-5.09229,-2.34167,0,0,0,0,0,0,0,-1,783,680,-5.09229,2.34168
-434,344,-4.28778,-2.08807,0,0,0,0,0,0,0,-1,790,680,-4.28778,2.08809
-427,344,-3.06506,-1.45404,0,0,0,0,0,0,0,-1,797,680,-3.06505,1.45402
-420,344,-1.96582,-1.57574,0,0,0,0,0,0,0,-1,804,680,-1.96579,1.57574
-413,344,-0.817993,-1.4751,0,0,0,0,0,0,0,-1,811,680,-0.818017,1.47511
-406,344,-0.00714111,-1.25189,0,0,0,0,0,0,0,-1,818,680,-0.00714956,1.25191
-399,344,0.240051,-1.75769,0,0,0,0,0,0,0,-1,825,680,0.240079,1.75767
-392,344,1.11353,-2.05615,0,0,0,0,0,0,0,-1,832,680,1.11351,2.05616
-385,344,0,0,0,0,0,0,0,0,0,-1,839,680,0,0
-378,344,0,0,0,0,0,0,0,0,0,-1,846,680,0,0
-371,344,0,0,0,0,0,0,0,0,0,-1,853,680,0,0
-364,344,0,0,0,0,0,0,0,0,0,-1,860,680,0,0
-357,344,0,0,0,0,0,0,0,0,0,-1,867,680,0,0
-350,344,0,0,0,0,0,0,0,0,0,-1,874,680,0,0
-343,344,0,0,0,0,0,0,0,0,0,-1,881,680,0,0
-336,344,0,0,0,0,0,0,0,0,0,-1,888,680,0,0
-329,344,0,0,0,0,0,0,0,0,0,-1,895,680,0,0
-322,344,0,0,0,0,0,0,0,0,0,-1,902,680,0,0
-315,344,0,0,0,0,0,0,0,0,0,-1,909,680,0,0
-308,344,0,0,0,0,0,0,0,0,0,-1,916,680,0,0
-301,344,0,0,0,0,0,0,0,0,0,-1,923,680,0,0
-294,344,0,0,0,0,0,0,0,0,0,-1,930,680,0,0
-287,344,0,0,0,0,0,0,0,0,0,-1,937,680,0,0
-280,344,0,0,0,0,0,0,0,0,0,-1,944,680,0,0
-273,344,0,0,0,0,0,0,0,0,0,-1,951,680,0,0
-266,344,0,0,0,0,0,0,0,0,0,-1,958,680,0,0
-259,344,0,0,0,0,0,0,0,0,0,-1,965,680,0,0
-252,344,0,0,0,0,0,0,0,0,0,-1,972,680,0,0
-245,344,0,0,0,0,0,0,0,0,0,-1,979,680,0,0
-238,344,0,0,0,0,0,0,0,0,0,-1,986,680,0,0
-231,344,0,0,0,0,0,0,0,0,0,-1,993,680,0,0
-224,344,0,0,0,0,0,0,0,0,0,-1,1000,680,0,0
-217,344,0,0,0,0,0,0,0,0,0,-1,1007,680,0,0
-210,344,0,0,0,0,0,0,0,0,0,-1,1014,680,0,0
-203,344,0,0,0,0,0,0,0,0,0,-1,1021,680,0,0
-196,344,0,0,0,0,0,0,0,0,0,-1,1028,680,0,0
-189,344,0,0,0,0,0,0,0,0,0,-1,1035,680,0,0
-182,344,0,0,0,0,0,0,0,0,0,-1,1042,680,0,0
-175,344,0,0,0,0,0,0,0,0,0,-1,1049,680,0,0
-168,344,0,0,0,0,0,0,0,0,0,-1,1056,680,0,0
-161,344,0,0,0,0,0,0,0,0,0,-1,1063,680,0,0
-154,344,0,0,0,0,0,0,0,0,0,-1,1070,680,0,0
-147,344,0,0,0,0,0,0,0,0,0,-1,1077,680,0,0
-140,344,0,0,0,0,0,0,0,0,0,-1,1084,680,0,0
-133,344,0,0,0,0,0,0,0,0,0,-1,1091,680,0,0
-126,344,0,0,0,0,0,0,0,0,0,-1,1098,680,0,0
-119,344,0,0,0,0,0,0,0,0,0,-1,1105,680,0,0
-112,344,0,0,0,0,0,0,0,0,0,-1,1112,680,0,0
-105,344,0,0,0,0,0,0,0,0,0,-1,1119,680,0,0
-98,344,0,0,0,0,0,0,0,0,0,-1,1126,680,0,0
-91,344,0,0,0,0,0,0,0,0,0,-1,1133,680,0,0
-84,344,0,0,0,0,0,0,0,0,0,-1,1140,680,0,0
-77,344,0,0,0,0,0,0,0,0,0,-1,1147,680,0,0
-70,344,0,0,0,0,0,0,0,0,0,-1,1154,680,0,0
-63,344,0,0,0,0,0,0,0,0,0,-1,1161,680,0,0
-56,344,0,0,0,0,0,0,0,0,0,-1,1168,680,0,0
-49,344,0,0,0,0,0,0,0,0,0,-1,1175,680,0,0
-42,344,0,0,0,0,0,0,0,0,0,-1,1182,680,0,0
-35,344,0,0,0,0,0,0,0,0,0,-1,1189,680,0,0
-28,344,0,0,0,0,0,0,0,0,0,-1,1196,680,0,0
-21,344,0,0,0,0,0,0,0,0,0,-1,1203,680,0,0
-14,344,0,0,0,0,0,0,0,0,0,-1,1210,680,0,0
-7,344,0,0,0,0,0,0,0,0,0,-1,1217,680,0,0
0,344,0,0,0,0,0,0,0,0,0,-1,1224,680,0,0
7,344,0,0,0,0,0,0,0,0,0,-1,1231,680,0,0
14,344,0,0,0,0,0,0,0,0,0,-1,1238,680,0,0
21,344,0,0,0,0,0,0,0,0,0,-1,1245,680,0,0
28,344,0,0,0,0,0,0,0,0,0,-1,1252,680,0,0
35,344,0,0,0,0,0,0,0,0,0,-1,1259,680,0,0
42,344,0,0,0,0,0,0,0,0,0,-1,1266,680,0,0
49,344,0,0,0,0,0,0,0,0,0,-1,1273,680,0,0
56,344,0,0,0,0,0,0,0,0,0,-1,1280,680,0,0
63,344,0,0,0,0,0,0,0,0,0,-1,1287,680,0,0
70,344,0,0,0,0,0,0,0,0,0,-1,1294,680,0,0
77,344,0,0,0,0,0,0,0,0,0,-1,1301,680,0,0
84,344,0,0,0,0,0,0,0,0,0,-1,1308,680,0,0
91,344,0,0,0,0,0,0,0,0,0,-1,1315,680,0,0
98,344,0,0,0,0,0,0,0,0,0,-1,1322,680,0,0
105,344,0,0,0,0,0,0,0,0,0,-1,1329,680,0,0
112,344,0,0,0,0,0,0,0,0,0,-1,1336,680,0,0
119,344,0,0,0,0,0,0,0,0,0,-1,1343,680,0,0
126,344,0,0,0,0,0,0,0,0,0,-1,1350,680,0,0
133,344,0,0,0,0,0,0,0,0,0,-1,1357,680,0,0
140,344,0,0,0,0,0,0,0,0,0,-1,1364,680,0,0
147,344,0,0,0,0,0,0,0,0,0,-1,1371,680,0,0
154,344,0,0,0,0,0,0,0,0,0,-1,1378,680,0,0
161,344,0,0,0,0,0,0,0,0,0,-1,1385,680,0,0
168,344,0,0,0,0,0,0,0,0,0,-1,1392,680,0,0
175,344,0,0,0,0,0,0,0,0,0,-1,1399,680,0,0
182,344,0,0,0,0,0,0,0,0,0,-1,1406,680,0,0
189,344,0,0,0,0,0,0,0,0,0,-1,1413,680,0,0
196,344,0,0,0,0,0,0,0,0,0,-1,1420,680,0,0
203,344,0,0,0,0,0,0,0,0,0,-1,1427,680,0,0
210,344,0,0,0,0,0,0,0,0,0,-1,1434,680,0,0
217,344,0,0,0,0,0,0,0,0,0,-1,1441,680,0,0
224,344,0,0,0,0,0,0,0,0,0,-1,1448,680,0,0
231,344,0,0,0,0,0,0,0,0,0,-1,1455,680,0,0
238,344,0,0,0,0,0,0,0,0,0,-1,1462,680,0,0
245,344,0,0,0,0,0,0,0,0,0,-1,1469,680,0,0
252,344,0,0,0,0,0,0,0,0,0,-1,1476,680,0,0
259,344,0,0,0,0,0,0,0,0,0,-1,1483,680,0,0
266,344,0,0,0,0,0,0,0,0,0,-1,1490,680,0,0
273,344,0,0,0,0,0,0,0,0,0,-1,1497,680,0,0
280,344,0,0,0,0,0,0,0,0,0,-1,1504,680,0,0
287,344,0,0,0,0,0,0,0,0,0,-1,1511,680,0,0
294,344,0,0,0,0,0,0,0,0,0,-1,1518,680,0,0
301,344,0,0,0,0,0,0,0,0,0,-1,1525,680,0,0
308,344,0,0,0,0,0,0,0,0,0,-1,1532,680,0,0
315,344,0,0,0,0,0,0,0,0,0,-1,1539,680,0,0
322,344,0,0,0,0,0,0,0,0,0,-1,1546,680,0,0
329,344,0,0,0,0,0,0,0,0,0,-1,1553,680,0,0
336,344,0,0,0,0,0,0,0,0,0,-1,1560,680,0,0
343,344,0,0,0,0,0,0,0,0,0,-1,1567,680,0,0
350,344,0,0,0,0,0,0,0,0,0,-1,1574,680,0,0
357,344,0,0,0,0,0,0,0,0,0,-1,1581,680,0,0
364,344,0,0,0,0,0,0,0,0,0,-1,1588,680,0,0
371,344,0,0,0,0,0,0,0,0,0,-1,1595,680,0,0
378,344,0,0,0,0,0,0,0,0,0,-1,1602,680,0,0
385,344,0,0,0,0,0,0,0,0,0,-1,1609,680,0,0
392,344,0,0,0,0,0,0,0,0,0,-1,1616,680,0,0
399,344,0,0,0,0,0,0,0,0,0,-1,1623,680,0,0
406,344,0,0,0,0,0,0,0,0,0,-1,1630,680,0,0
413,344,0,0,0,0,0,0,0,0,0,-1,1637,680,0,0
420,344,0,0,0,0,0,0,0,0,0,-1,1644,680,0,0
427,344,0,0,0,0,0,0,0,0,0,-1,1651,680,0,0
434,344,0,0,0,0,0,0,0,0,0,-1,1658,680,0,0
441,344,0,0,0,0,0,0,0,0,0,-1,1665,680,0,0
448,344,0,0,0,0,0,0,0,0,0,-1,1672,680,0,0
455,344,0,0,0,0,0,0,0,0,0,-1,1679,680,0,0
462,344,0,0,0,0,0,0,0,0,0,-1,1686,680,0,0
469,344,0,0,0,0,0,0,0,0,0,-1,1693,680,0,0
476,344,0,0,0,0,0,0,0,0,0,-1,1700,680,0,0
483,344,0,0,0,0,0,0,0,0,0,-1,1707,680,0,0
490,344,0,0,0,0,0,0,0,0,0,-1,1714,680,0,0
497,344,0,0,0,0,0,0,0,0,0,-1,1721,680,0,0
504,344,0,0,0,0,0,0,0,0,0,-1,1728,680,0,0
511,344,15.4819,0.452637,0,0,0,0,0,0,0,-1,1735,680,15.4819,-0.452656
518,344,17.1357,2.31207,0,0,0,0,0,0,0,-1,1742,680,17.1358,-2.31207
525,344,31.5201,2.6217,0,0,0,0,0,0,0,-1,1749,680,31.5201,-2.62168
532,344,31.9766,2.61047,0,0,0,0,0,0,0,-1,1756,680,31.9765,-2.6105
539,344,32.4379,2.65314,0,0,0,0,0,0,0,-1,1763,680,32.4378,-2.65316
546,344,14.6722,4.30243,0,0,0,0,0,0,0,-1,1770,680,14.6722,-4.30241
553,344,14.8136,4.35681,0,0,0,0,0,0,0,-1,1777,680,14.8136,-4.35679
560,344,11.9363,2.14185,0,0,0,0,0,0,0,-1,1784,680,11.9362,-2.14182
567,344,11.397,0.925842,0,0,0,0,0,0,0,-1,1791,680,11.397,-0.92583
574,344,10.0004,0.504639,0,0,0,0,0,0,0,-1,1798,680,10.0004,-0.504645
581,344,13.6709,-0.969604,0,0,0,0,0,0,0,-1,1805,680,13.6709,0.969629
588,344,16.1447,-3.15948,0,0,0,0,0,0,0,-1,1812,680,16.1447,3.15946
595,344,25.1141,-6.88507,0,0,0,0,0,0,0,-1,1819,680,25.1142,6.88509
602,344,25.3362,-6.16675,0.000761651,0.000416286,-0.000283794,0.00092117,0.000256767,-0.512083,0.000548921,0.045648,1826,680,25.3362,6.16672
609,344,25.2257,-5.61517,0.000894476,0.000531857,-5.83876e-05,0.000903645,0.000522687,-0.155773,0.000523854,0.0164488,1833,680,25.2258,5.61519
616,344,25.1875,-4.99951,0.00100706,0.000694031,0.000210613,0.00111295,0.000588144,0.465849,0.000642909,0.0235563,1840,680,25.1875,4.9995
623,344,25.1742,-4.42804,0.000758807,0.000754223,0.000246331,0.00100286,0.000510173,0.780746,0.000579029,0.0207335,1847,680,25.1742,4.42805
630,344,25.1295,-3.87146,0.000218876,0.000705736,0.000223701,0.000792911,0.0001317,1.1992,0.000490635,0.0260981,1854,680,25.1295,3.87143
637,344,25.1005,-3.25507,-0.000723018,0.000599946,-3.08828e-06,0.000599953,-0.000723026,-1.56846,0.000764923,0.0248589,1861,680,25.1005,3.25504
644,344,25.0936,-2.62183,-0.0020558,0.000358522,-0.000416416,0.000428326,-0.0021256,-1.40471,0.00157932,0.0170431,1868,680,25.0936,2.62182
651,344,25.0848,-2.01099,-0.00394219,5.18297e-05,-0.00103226,0.000302842,-0.0041932,-1.33226,0.00290169,0.0113333,1875,680,25.0849,2.01101
658,344,25.0599,-1.34235,-0.00655044,-0.000421761,-0.00196718,0.000155326,-0.00712753,-1.28544,0.0048043,0.0219428,1882,680,25.0599,1.34236
665,344,24.923,-0.765076,-0.010037,-0.00102471,-0.00321597,5.19073e-06,-0.0110669,-1.26087,0.00737967,0.0362887,1889,680,24.923,0.765076
672,344,24.9678,-0.23822,0,0,0,0,0,0,0,-1,1896,680,24.9678,0.23821
679,344,24.3424,-0.113159,0,0,0,0,0,0,0,-1,1903,680,24.3425,0.113166
686,344,15.024,1.82709,0,0,0,0,0,0,0,-1,1910,680,15.024,-1.82706
693,344,12.4362,-1.42346,0,0,0,0,0,0,0,-1,1917,680,12.4361,1.42348
700,344,17.5396,2.61206,0,0,0,0,0,0,0,-1,1924,680,17.5396,-2.61204
707,344,18.5829,3.29352,0,0,0,0,0,0,0,-1,1931,680,18.5828,-3.2935
714,344,0,0,0,0,0,0,0,0,0,-1,1938,680,0,0
721,344,0,0,0,0,0,0,0,0,0,-1,1945,680,0,0
728,344,0,0,0,0,0,0,0,0,0,-1,1952,680,0,0
735,344,0,0,0,0,0,0,0,0,0,-1,1959,680,0,0
742,344,0,0,0,0,0,0,0,0,0,-1,1966,680,0,0
749,344,0,0,0,0,0,0,0,0,0,-1,1973,680,0,0
756,344,0,0,0,0,0,0,0,0,0,-1,1980,680,0,0
763,344,0,0,0,0,0,0,0,0,0,-1,1987,680,0,0
770,344,0,0,0,0,0,0,0,0,0,-1,1994,680,0,0
777,344,0,0,0,0,0,0,0,0,0,-1,2001,680,0,0
784,344,0,0,0,0,0,0,0,0,0,-1,2008,680,0,0
791,344,0,0,0,0,0,0,0,0,0,-1,2015,680,0,0
798,344,0,0,0,0,0,0,0,0,0,-1,2022,680,0,0
805,344,0,0,0,0,0,0,0,0,0,-1,2029,680,0,0
812,344,0,0,0,0,0,0,0,0,0,-1,2036,680,0,0
-700,337,0,0,0,0,0,0,0,0,0,-1,524,687,0,0
-693,337,0,0,0,0,0,0,0,0,0,-1,531,687,0,0
-686,337,0,0,0,0,0,0,0,0,0,-1,538,687,0,0
-679,337,0,0,0,0,0,0,0,0,0,-1,545,687,0,0
-672,337,0,0,0,0,0,0,0,0,0,-1,552,687,0,0
-665,337,0,0,0,0,0,0,0,0,0,-1,559,687,0,0
-658,337,0,0,0,0,0,0,0,0,0,-1,566,687,0,0
-651,337,0,0,0,0,0,0,0,0,0,-1,573,687,0,0
-644,337,0,0,0,0,0,0,0,0,0,-1,580,687,0,0
-637,337,0,0,0,0,0,0,0,0,0,-1,587,687,0,0
-630,337,0,0,0,0,0,0,0,0,0,-1,594,687,0,0
-623,337,0,0,0,0,0,0,0,0,0,-1,601,687,0,0
-616,337,0,0,0,0,0,0,0,0,0,-1,608,687,0,0
-609,337,0,0,0,0,0,0,0,0,0,-1,615,687,0,0
-602,337,0,0,0,0,0,0,0,0,0,-1,622,687,0,0
-595,337,0,0,0,0,0,0,0,0,0,-1,629,687,0,0
-588,337,-10.8413,1.27863,0,0,0,0,0,0,0,-1,636,687,-10.8413,-1.27861
-581,337,-11.2157,1.31567,0,0,0,0,0,0,0,-1,643,687,-11.2157,-1.3157
-574,337,-6.03339,2.0321,0,0,0,0,0,0,0,-1,650,687,-6.03337,-2.03213
-567,337,-13.8102,1.56787,0,0,0,0,0,0,0,-1,657,687,-13.8102,-1.56789
-560,337,-15.5435,2.34247,0,0,0,0,0,0,0,-1,664,687,-15.5435,-2.34247
-553,337,-16.4658,0.348572,0,0,0,0,0,0,0,-1,671,687,-16.4658,-0.348598
-546,337,-15.3209,-1.64874,0,0,0,0,0,0,0,-1,678,687,-15.3209,1.64873
-539,337,-15.1501,-2.47961,0,0,0,0,0,0,0,-1,685,687,-15.1501,2.47964
-532,337,-15.1682,-3.22485,0.00222465,0.00309408,-0.000831133,0.00359732,0.00172141,-1.02635,0.00207755,0.0293112,692,687,-15.1681,3.22485
-525,337,-15.2754,-3.81555,0.00201654,0.00218476,-0.000611446,0.00271785,0.00148345,-0.853749,0.00157135,0.0171895,699,687,-15.2754,3.81556
-518,337,-15.2693,-4.40161,0.00186158,0.00139927,-0.000404589,0.0020964,0.00116446,-0.525859,0.00121283,0.0227638,706,687,-15.2694,4.40162
-511,337,-15.2708,-4.96234,0.00176961,0.000746299,-0.000235667,0.00182128,0.000694634,-0.215815,0.00106133,0.0246087,713,687,-15.2708,4.96233
-504,337,-15.2641,-5.56165,0.00172379,0.000211019,-0.000115569,0.00173257,0.000202241,-0.0758092,0.00109388,0.0256832,720,687,-15.2641,5.56164
-497,337,-15.2976,-6.12714,0.00177049,-0.000164981,-8.80716e-05,0.00177449,-0.00016898,-0.0453789,0.00124316,0.017704,727,687,-15.2976,6.12715
-490,337,-15.3357,-6.6864,0.00189925,-0.000403554,-0.000171135,0.0019119,-0.000416203,-0.0737758,0.00143361,0.0147984,734,687,-15.3357,6.68643
-483,337,-15.3154,-7.25696,0.00219528,-0.000449786,-0.000396942,0.00225357,-0.000508071,-0.145791,0.00169728,0.0151117,741,687,-15.3154,7.25695
-476,337,-15.3197,-7.84009,0.00257557,-0.000329521,-0.000782266,0.00277282,-0.000526772,-0.247004,0.00204686,0.0156545,748,687,-15.3197,7.84009
-469,337,-15.3535,-8.44061,0,0,0,0,0,0,0,-1,755,687,-15.3535,8.44061
-462,337,-14.186,-8.89264,0,0,0,0,0,0,0,-1,762,687,-14.186,8.89266
-455,337,-6.00574,-3.12933,0,0,0,0,0,0,0,-1,769,687,-6.00576,3.12934
-448,337,-5.30627,-2.07202,0,0,0,0,0,0,0,-1,776,687,-5.30628,2.07205
-441,337,-4.24762,-1.49597,0,0,0,0,0,0,0,-1,783,687,-4.24762,1.49598
-434,337,-6.86908,1.37531,0,0,0,0,0,0,0,-1,790,687,-6.86908,-1.3753
-427,337,-9.92004,2.487,0,0,0,0,0,0,0,-1,797,687,-9.92002,-2.48701
-420,337,-2.95996,-1.76697,0,0,0,0,0,0,0,-1,804,687,-2.95998,1.76696
-413,337,-1.29169,-1.99487,0,0,0,0,0,0,0,-1,811,687,-1.29171,1.9949
-406,337,-1.02356,-1.89563,0,0,0,0,0,0,0,-1,818,687,-1.02357,1.89564
-399,337,-0.472839,-2.21338,0,0,0,0,0,0,0,-1,825,687,-0.472837,2.2134
-392,337,0,0,0,0,0,0,0,0,0,-1,832,687,0,0
-385,337,0,0,0,0,0,0,0,0,0,-1,839,687,0,0
-378,337,0,0,0,0,0,0,0,0,0,-1,846,687,0,0
-371,337,0,0,0,0,0,0,0,0,0,-1,853,687,0,0
-364,337,0,0,0,0,0,0,0,0,0,-1,860,687,0,0
-357,337,0,0,0,0,0,0,0,0,0,-1,867,687,0,0
-350,337,0,0,0,0,0,0,0,0,0,-1,874,687,0,0
-343,337,0,0,0,0,0,0,0,0,0,-1,881,687,0,0
-336,337,0,0,0,0,0,0,0,0,0,-1,888,687,0,0
-329,337,0,0,0,0,0,0,0,0,0,-1,895,687,0,0
-322,337,0,0,0,0,0,0,0,0,0,-1,902,687,0,0
-315,337,0,0,0,0,0,0,0,0,0,-1,909,687,0,0
-308,337,0,0,0,0,0,0,0,0,0,-1,916,687,0,0
-301,337,0,0,0,0,0,0,0,0,0,-1,923,687,0,0
-294,337,0,0,0,0,0,0,0,0,0,-1,930,687,0,0
-287,337,0,0,0,0,0,0,0,0,0,-1,937,687,0,0
-280,337,0,0,0,0,0,0,0,0,0,-1,944,687,0,0
-273,337,0,0,0,0,0,0,0,0,0,-1,951,687,0,0
-266,337,0,0,0,0,0,0,0,0,0,-1,958,687,0,0
-259,337,0,0,0,0,0,0,0,0,0,-1,965,687,0,0
-252,337,0,0,0,0,0,0,0,0,0,-1,972,687,0,0
-245,337,0,0,0,0,0,0,0,0,0,-1,979,687,0,0
-238,337,0,0,0,0,0,0,0,0,0,-1,986,687,0,0
-231,337,0,0,0,0,0,0,0,0,0,-1,993,687,0,0
-224,337,0,0,0,0,0,0,0,0,0,-1,1000,687,0,0
-217,337,0,0,0,0,0,0,0,0,0,-1,1007,687,0,0
-210,337,0,0,0,0,0,0,0,0,0,-1,1014,687,0,0
-203,337,0,0,0,0,0,0,0,0,0,-1,1021,687,0,0
-196,337,0,0,0,0,0,0,0,0,0,-1,1028,687,0,0
-189,337,0,0,0,0,0,0,0,0,0,-1,1035,687,0,0
-182,337,0,0,0,0,0,0,0,0,0,-1,1042,687,0,0
-175,337,0,0,0,0,0,0,0,0,0,-1,1049,687,0,0
-168,337,0,0,0,0,0,0,0,0,0,-1,1056,687,0,0
-161,337,0,0,0,0,0,0,0,0,0,-1,1063,687,0,0
-154,337,0,0,0,0,0,0,0,0,0,-1,1070,687,0,0
-147,337,0,0,0,0,0,0,0,0,0,-1,1077,687,0,0
-140,337,0,0,0,0,0,0,0,0,0,-1,1084,687,0,0
-133,337,0,0,0,0,0,0,0,0,0,-1,1091,687,0,0
-126,337,0,0,0,0,0,0,0,0,0,-1,1098,687,0,0
-119,337,0,0,0,0,0,0,0,0,0,-1,1105,687,0,0
-112,337,0,0,0,0,0,0,0,0,0,-1,1112,687,0,0
-105,337,0,0,0,0,0,0,0,0,0,-1,1119,687,0,0
-98,337,0,0,0,0,0,0,0,0,0,-1,1126,687,0,0
-91,337,0,0,0,0,0,0,0,0,0,-1,1133,687,0,0
-84,337,0,0,0,0,0,0,0,0,0,-1,1140,687,0,0
-77,337,0,0,0,0,0,0,0,0,0,-1,1147,687,0,0
-70,337,0,0,0,0,0,0,0,0,0,-1,1154,687,0,0
-63,337,0,0,0,0,0,0,0,0,0,-1,1161,687,0,0
-56,337,0,0,0,0,0,0,0,0,0,-1,1168,687,0,0
-49,337,0,0,0,0,0,0,0,0,0,-1,1175,687,0,0
-42,337,0,0,0,0,0,0,0,0,0,-1,1182,687,0,0
-35,337,0,0,0,0,0,0,0,0,0,-1,1189,687,0,0
-28,337,0,0,0,0,0,0,0,0,0,-1,1196,687,0,0
-21,337,0,0,0,0,0,0,0,0,0,-1,1203,687,0,0
-14,337,0,0,0,0,0,0,0,0,0,-1,1210,687,0,0
-7,337,0,0,0,0,0,0,0,0,0,-1,1217,687,0,0
0,337,0,0,0,0,0,0,0,0,0,-1,1224,687,0,0
7,337,0,0,0,0,0,0,0,0,0,-1,1231,687,0,0
14,337,0,0,0,0,0,0,0,0,0,-1,1238,687,0,0
21,337,0,0,0,0,0,0,0,0,0,-1,1245,687,0,0
28,337,0,0,0,0,0,0,0,0,0,-1,1252,687,0,0
35,337,0,0,0,0,0,0,0,0,0,-1,1259,687,0,0
42,337,0,0,0,0,0,0,0,0,0,-1,1266,687,0,0
49,337,0,0,0,0,0,0,0,0,0,-1,1273,687,0,0
56,337,0,0,0,0,0,0,0,0,0,-1,1280,687,0,0
63,337,0,0,0,0,0,0,0,0,0,-1,1287,687,0,0
70,337,0,0,0,0,0,0,0,0,0,-1,1294,687,0,0
77,337,0,0,0,0,0,0,0,0,0,-1,1301,687,0,0
84,337,0,0,0,0,0,0,0,0,0,-1,1308,687,0,0
91,337,0,0,0,0,0,0,0,0,0,-1,1315,687,0,0
98,337,0,0,0,0,0,0,0,0,0,-1,1322,687,0,0
105,337,0,0,0,0,0,0,0,0,0,-1,1329,687,0,0
112,337,0,0,0,0,0,0,0,0,0,-1,1336,687,0,0
119,337,0,0,0,0,0,0,0,0,0,-1,1343,687,0,0
126,337,0,0,0,0,0,0,0,0,0,-1,1350,687,0,0
133,337,0,0,0,0,0,0,0,0,0,-1,1357,687,0,0
140,337,0,0,0,0,0,0,0,0,0,-1,1364,687,0,0
147,337,0,0,0,0,0,0,0,0,0,-1,1371,687,0,0
154,337,0,0,0,0,0,0,0,0,0,-1,1378,687,0,0
161,337,0,0,0,0,0,0,0,0,0,-1,1385,687,0,0
168,337,0,0,0,0,0,0,0,0,0,-1,1392,687,0,0
175,337,0,0,0,0,0,0,0,0,0,-1,1399,687,0,0
182,337,0,0,0,0,0,0,0,0,0,-1,1406,687,0,0
189,337,0,0,0,0,0,0,0,0,0,-1,1413,687,0,0
196,337,0,0,0,0,0,0,0,0,0,-1,1420,687,0,0
203,337,0,0,0,0,0,0,0,0,0,-1,1427,687,0,0
210,337,0,0,0,0,0,0,0,0,0,-1,1434,687,0,0
217,337,0,0,0,0,0,0,0,0,0,-1,1441,687,0,0
224,337,0,0,0,0,0,0,0,0,0,-1,1448,687,0,0
231,337,0,0,0,0,0,0,0,0,0,-1,1455,687,0,0
238,337,0,0,0,0,0,0,0,0,0,-1,1462,687,0,0
245,337,0,0,0,0,0,0,0,0,0,-1,1469,687,0,0
252,337,0,0,0,0,0,0,0,0,0,-1,1476,687,0,0
259,337,0,0,0,0,0,0,0,0,0,-1,1483,687,0,0
266,337,0,0,0,0,0,0,0,0,0,-1,1490,687,0,0
273,337,0,0,0,0,0,0,0,0,0,-1,1497,687,0,0
280,337,0,0,0,0,0,0,0,0,0,-1,1504,687,0,0
287,337,0,0,0,0,0,0,0,0,0,-1,1511,687,0,0
294,337,0,0,0,0,0,0,0,0,0,-1,1518,687,0,0
301,337,0,0,0,0,0,0,0,0,0,-1,1525,687,0,0
308,337,0,0,0,0,0,0,0,0,0,-1,1532,687,0,0
315,337,0,0,0,0,0,0,0,0,0,-1,1539,687,0,0
322,337,0,0,0,0,0,0,0,0,0,-1,1546,687,0,0
329,337,0,0,0,0,0,0,0,0,0,-1,1553,687,0,0
336,337,0,0,0,0,0,0,0,0,0,-1,1560,687,0,0
343,337,0,0,0,0,0,0,0,0,0,-1,1567,687,0,0
350,337,0,0,0,0,0,0,0,0,0,-1,1574,687,0,0
357,337,0,0,0,0,0,0,0,0,0,-1,1581,687,0,0
364,337,0,0,0,0,0,0,0,0,0,-1,1588,687,0,0
371,337,0,0,0,0,0,0,0,0,0,-1,1595,687,0,0
378,337,0,0,0,0,0,0,0,0,0,-1,1602,687,0,0
385,337,0,0,0,0,0,0,0,0,0,-1,1609,687,0,0
392,337,0,0,0,0,0,0,0,0,0,-1,1616,687,0,0
399,337,0,0,0,0,0,0,0,0,0,-1,1623,687,0,0
406,337,0,0,0,0,0,0,0,0,0,-1,1630,687,0,0
413,337,0,0,0,0,0,0,0,0,0,-1,1637,687,0,0
420,337,0,0,0,0,0,0,0,0,0,-1,1644,687,0,0
427,337,0,0,0,0,0,0,0,0,0,-1,1651,687,0,0
434,337,0,0,0,0,0,0,0,0,0,-1,1658,687,0,0
441,337,0,0,0,0,0,0,0,0,0,-1,1665,687,0,0
448,337,0,0,0,0,0,0,0,0,0,-1,1672,687,0,0
455,337,0,0,0,0,0,0,0,0,0,-1,1679,687,0,0
462,337,0,0,0,0,0,0,0,0,0,-1,1686,687,0,0
469,337,0,0,0,0,0,0,0,0,0,-1,1693,687,0,0
476,337,0,0,0,0,0,0,0,0,0,-1,1700,687,0,0
483,337,0,0,0,0,0,0,0,0,0,-1,1707,687,0,0
490,337,0,0,0,0,0,0,0,0,0,-1,1714,687,0,0
497,337,0,0,0,0,0,0,0,0,0,-1,1721,687,0,0
504,337,0,0,0,0,0,0,0,0,0,-1,1728,687,0,0
511,337,0,0,0,0,0,0,0,0,0,-1,1735,687,0,0
518,337,18.0369,1.64581,0,0,0,0,0,0,0,-1,1742,687,18.0368,-1.64581
525,337,31.0717,2.13745,0,0,0,0,0,0,0,-1,1749,687,31.0717,-2.13747
532,337,31.5126,2.13904,0,0,0,0,0,0,0,-1,1756,687,31.5125,-2.13905
539,337,31.9684,2.15594,0,0,0,0,0,0,0,-1,1763,687,31.9684,-2.15596
546,337,32.3584,1.43719,0,0,0,0,0,0,0,-1,1770,687,32.3585,-1.43722
553,337,32.1809,1.36395,0,0,0,0,0,0,0,-1,1777,687,32.181,-1.36396
560,337,18.4053,3.62793,0,0,0,0,0,0,0,-1,1784,687,18.4052,-3.6279
567,337,11.9288,1.38776,0,0,0,0,0,0,0,-1,1791,687,11.9288,-1.38777
574,337,10.704,1.19476,0,0,0,0,0,0,0,-1,1798,687,10.704,-1.19478
581,337,8.50427,0.561768,0,0,0,0,0,0,0,-1,1805,687,8.5043,-0.561754
588,337,8.5885,-0.0536499,0,0,0,0,0,0,0,-1,1812,687,8.58844,0.0536788
595,337,13.8816,-1.70703,0,0,0,0,0,0,0,-1,1819,687,13.8816,1.70702
602,337,25.8167,-6.23053,0,0,0,0,0,0,0,-1,1826,687,25.8166,6.23054
609,337,25.8101,-5.54791,0.000997601,0.000498877,-6.34242e-05,0.00100554,0.000490937,-0.124532,0.000580603,0.0266831,1833,687,25.8101,5.54793
616,337,25.7697,-4.97815,0.00115877,0.000623379,0.000268487,0.00127021,0.000511935,0.393439,0.000737939,0.0180233,1840,687,25.7697,4.97814
623,337,25.7601,-4.40607,0.000886364,0.000597483,0.00026069,0.00103995,0.000443892,0.532417,0.000602556,0.0161674,1847,687,25.7602,4.40607
630,337,25.7286,-3.79358,0.000369767,0.000494893,0.000217383,0.000658537,0.000206123,0.925512,0.000388969,0.0201436,1854,687,25.7287,3.7936
637,337,25.728,-3.21307,-0.000569864,0.000374228,-1.12746e-05,0.000374363,-0.000569999,-1.55886,0.000549113,0.017445,1861,687,25.728,3.2131
644,337,25.7076,-2.58459,-0.00186039,0.000159998,-0.000387003,0.000231591,-0.00193198,-1.38787,0.00137172,0.0114988,1868,687,25.7077,2.58457
651,337,25.6677,-1.99323,-0.00362014,-2.30722e-05,-0.000900712,0.000189862,-0.00383308,-1.33865,0.00262097,0.0101036,1875,687,25.6677,1.99322
658,337,25.662,-1.40253,-0.00595889,-0.000294244,-0.00162697,0.000139791,-0.00639292,-1.31009,0.0043093,0.0121014,1882,687,25.6619,1.40254
665,337,25.6652,-0.806152,-0.00900902,-0.00060059,-0.00257905,0.000127427,-0.00973704,-1.29567,0.00653425,0.0152703,1889,687,25.6651,0.806162
672,337,25.6504,-0.261353,-0.0130959,-0.001013,-0.0038979,0.000135316,-0.0142442,-1.2843,0.00954156,0.0329157,1896,687,25.6504,0.261363
679,337,25.9381,0.228699,0,0,0,0,0,0,0,-1,1903,687,25.9382,-0.228672
686,337,18.5614,1.68597,0,0,0,0,0,0,0,-1,1910,687,18.5614,-1.68598
693,337,16.5415,2.21411,0,0,0,0,0,0,0,-1,1917,687,16.5415,-2.2141
700,337,17.2661,2.44379,0,0,0,0,0,0,0,-1,1924,687,17.2661,-2.44378
707,337,17.3544,5.61853,0,0,0,0,0,0,0,-1,1931,687,17.3543,-5.61851
714,337,0,0,0,0,0,0,0,0,0,-1,1938,687,0,0
721,337,0,0,0,0,0,0,0,0,0,-1,1945,687,0,0
728,337,0,0,0,0,0,0,0,0,0,-1,1952,687,0,0
735,337,0,0,0,0,0,0,0,0,0,-1,1959,687,0,0
742,337,0,0,0,0,0,0,0,0,0,-1,1966,687,0,0
749,337,0,0,0,0,0,0,0,0,0,-1,1973,687,0,0
756,337,0,0,0,0,0,0,0,0,0,-1,1980,687,0,0
763,337,0,0,0,0,0,0,0,0,0,-1,1987,687,0,0
770,337,0,0,0,0,0,0,0,0,0,-1,1994,687,0,0
777,337,0,0,0,0,0,0,0,0,0,-1,2001,687,0,0
784,337,0,0,0,0,0,0,0,0,0,-1,2008,687,0,0
791,337,0,0,0,0,0,0,0,0,0,-1,2015,687,0,0
798,337,0,0,0,0,0,0,0,0,0,-1,2022,687,0,0
805,337,0,0,0,0,0,0,0,0,0,-1,2029,687,0,0
812,337,0,0,0,0,0,0,0,0,0,-1,2036,687,0,0
-700,330,0,0,0,0,0,0,0,0,0,-1,524,694,0,0
-693,330,0,0,0,0,0,0,0,0,0,-1,531,694,0,0
-686,330,0,0,0,0,0,0,0,0,0,-1,538,694,0,0
-679,330,0,0,0,0,0,0,0,0,0,-1,545,694,0,0
-672,330,0,0,0,0,0,0,0,0,0,-1,552,694,0,0
-665,330,0,0,0,0,0,0,0,0,0,-1,559,694,0,0
-658,330,0,0,0,0,0,0,0,0,0,-1,566,694,0,0
-651,330,0,0,0,0,0,0,0,0,0,-1,573,694,0,0
-644,330,0,0,0,0,0,0,0,0,0,-1,580,694,0,0
-637,330,0,0,0,0,0,0,0,0,0,-1,587,694,0,0
-630,330,0,0,0,0,0,0,0,0,0,-1,594,694,0,0
-623,330,0,0,0,0,0,0,0,0,0,-1,601,694,0,0
-616,330,0,0,0,0,0,0,0,0,0,-1,608,694,0,0
-609,330,0,0,0,0,0,0,0,0,0,-1,615,694,0,0
-602,330,0,0,0,0,0,0,0,0,0,-1,622,694,0,0
-595,330,-4.67883,1.65515,0,0,0,0,0,0,0,-1,629,694,-4.67881,-1.65515
-588,330,-8.5047,2.67346,0,0,0,0,0,0,0,-1,636,694,-8.50469,-2.67348
-581,330,-12.4227,0.947083,0,0,0,0,0,0,0,-1,643,694,-12.4227,-0.947109
-574,330,-9.02118,1.87952,0,0,0,0,0,0,0,-1,650,694,-9.02115,-1.87953
-567,330,-8.35577,0.909973,0,0,0,0,0,0,0,-1,657,694,-8.35575,-0.909945
-560,330,-13.1036,-0.584656,0,0,0,0,0,0,0,-1,664,694,-13.1035,0.584658
-553,330,-15.7537,-1.10309,0,0,0,0,0,0,0,-1,671,694,-15.7537,1.10307
-546,330,-15.6672,-1.86853,0,0,0,0,0,0,0,-1,678,694,-15.6673,1.86853
-539,330,-15.8844,-2.49091,0,0,0,0,0,0,0,-1,685,694,-15.8844,2.4909
-532,330,-15.8559,-3.1864,0.00158532,0.00236289,-0.000520953,0.00262414,0.00132407,-1.10596,0.00151507,0.015359,692,694,-15.8559,3.18638
-525,330,-15.8317,-3.83148,0.00160446,0.00157882,-0.000357566,0.00194944,0.00123385,-0.767474,0.00113869,0.0108601,699,694,-15.8317,3.83147
-518,330,-15.8294,-4.35126,0.00163394,0.000908986,-0.000195419,0.00168326,0.000859664,-0.247227,0.000971906,0.0141766,706,694,-15.8294,4.35126
-511,330,-15.8491,-4.90692,0.00168426,0.000343122,-6.40381e-05,0.00168732,0.000340071,-0.0476045,0.0010304,0.0204411,713,694,-15.8491,4.90689
-504,330,-15.8349,-5.52631,0.00175408,-0.000100232,4.14354e-05,0.001755,-0.000101157,0.0223306,0.00120514,0.0204614,720,694,-15.8349,5.52632
-497,330,-15.8928,-6.07782,0.00191196,-0.000381866,5.37866e-05,0.00191323,-0.000383126,0.0234312,0.00142052,0.0146985,727,694,-15.8928,6.07783
-490,330,-15.8943,-6.6524,0.00218905,-0.000530119,-3.60475e-05,0.00218953,-0.000530597,-0.0132537,0.00166498,0.013561,734,694,-15.8943,6.65243
-483,330,-15.8863,-7.22278,0.00262329,-0.000471947,-0.000273167,0.00264722,-0.00049587,-0.0873541,0.00195122,0.0142836,741,694,-15.8863,7.22278
-476,330,-15.8647,-7.80212,0.00312367,-0.000232961,-0.000701969,0.00326455,-0.00037385,-0.198073,0.00231109,0.0446722,748,694,-15.8647,7.80213
-469,330,-15.7817,-8.50653,0,0,0,0,0,0,0,-1,755,694,-15.7817,8.50655
-462,330,-7.26733,-3.84833,0,0,0,0,0,0,0,-1,762,694,-7.26731,3.84832
-455,330,-5.04254,-1.79303,0,0,0,0,0,0,0,-1,769,694,-5.04252,1.79305
-448,330,-4.89886,-1.66156,0,0,0,0,0,0,0,-1,776,694,-4.89886,1.66157
-441,330,-5.30676,-2.34045,0,0,0,0,0,0,0,-1,783,694,-5.30679,2.34048
-434,330,-7.20428,1.00024,0,0,0,0,0,0,0,-1,790,694,-7.20431,-1.00027
-427,330,-16.0428,2.89258,0,0,0,0,0,0,0,-1,797,694,-16.0428,-2.89259
-420,330,-29.0331,0.271606,0,0,0,0,0,0,0,-1,804,694,-29.0331,-0.27158
-413,330,-29.0896,0.56366,0,0,0,0,0,0,0,-1,811,694,-29.0896,-0.563671
-406,330,-1.65375,-1.74371,0,0,0,0,0,0,0,-1,818,694,-1.65375,1.74371
-399,330,0,0,0,0,0,0,0,0,0,-1,825,694,0,0
-392,330,0,0,0,0,0,0,0,0,0,-1,832,694,0,0
-385,330,0,0,0,0,0,0,0,0,0,-1,839,694,0,0
-378,330,0,0,0,0,0,0,0,0,0,-1,846,694,0,0
-371,330,0,0,0,0,0,0,0,0,0,-1,853,694,0,0
-364,330,0,0,0,0,0,0,0,0,0,-1,860,694,0,0
-357,330,0,0,0,0,0,0,0,0,0,-1,867,694,0,0
-350,330,0,0,0,0,0,0,0,0,0,-1,874,694,0,0
-343,330,0,0,0,0,0,0,0,0,0,-1,881,694,0,0
-336,330,0,0,0,0,0,0,0,0,0,-1,888,694,0,0
-329,330,0,0,0,0,0,0,0,0,0,-1,895,694,0,0
-322,330,0,0,0,0,0,0,0,0,0,-1,902,694,0,0
-315,330,0,0,0,0,0,0,0,0,0,-1,909,694,0,0
-308,330,0,0,0,0,0,0,0,0,0,-1,916,694,0,0
-301,330,0,0,0,0,0,0,0,0,0,-1,923,694,0,0
-294,330,0,0,0,0,0,0,0,0,0,-1,930,694,0,0
-287,330,0,0,0,0,0,0,0,0,0,-1,937,694,0,0
-280,330,0,0,0,0,0,0,0,0,0,-1,944,694,0,0
-273,330,0,0,0,0,0,0,0,0,0,-1,951,694,0,0
-266,330,0,0,0,0,0,0,0,0,0,-1,958,694,0,0
-259,330,0,0,0,0,0,0,0,0,0,-1,965,694,0,0
-252,330,0,0,0,0,0,0,0,0,0,-1,972,694,0,0
-245,330,0,0,0,0,0,0,0,0,0,-1,979,694,0,0
-238,330,0,0,0,0,0,0,0,0,0,-1,986,694,0,0
-231,330,0,0,0,0,0,0,0,0,0,-1,993,694,0,0
-224,330,0,0,0,0,0,0,0,0,0,-1,1000,694,0,0
-217,330,0,0,0,0,0,0,0,0,0,-1,1007,694,0,0
-210,330,0,0,0,0,0,0,0,0,0,-1,1014,694,0,0
-203,330,0,0,0,0,0,0,0,0,0,-1,1021,694,0,0
-196,330,0,0,0,0,0,0,0,0,0,-1,1028,694,0,0
-189,330,0,0,0,0,0,0,0,0,0,-1,1035,694,0,0
-182,330,0,0,0,0,0,0,0,0,0,-1,1042,694,0,0
-175,330,0,0,0,0,0,0,0,0,0,-1,1049,694,0,0
-168,330,0,0,0,0,0,0,0,0,0,-1,1056,694,0,0
-161,330,0,0,0,0,0,0,0,0,0,-1,1063,694,0,0
-154,330,0,0,0,0,0,0,0,0,0,-1,1070,694,0,0
-147,330,0,0,0,0,0,0,0,0,0,-1,1077,694,0,0
-140,330,0,0,0,0,0,0,0,0,0,-1,1084,694,0,0
-133,330,0,0,0,0,0,0,0,0,0,-1,1091,694,0,0
-126,330,0,0,0,0,0,0,0,0,0,-1,1098,694,0,0
-119,330,0,0,0,0,0,0,0,0,0,-1,1105,694,0,0
-112,330,0,0,0,0,0,0,0,0,0,-1,1112,694,0,0
-105,330,0,0,0,0,0,0,0,0,0,-1,1119,694,0,0
-98,330,0,0,0,0,0,0,0,0,0,-1,1126,694,0,0
-91,330,0,0,0,0,0,0,0,0,0,-1,1133,694,0,0
-84,330,0,0,0,0,0,0,0,0,0,-1,1140,694,0,0
-77,330,0,0,0,0,0,0,0,0,0,-1,1147,694,0,0
-70,330,0,0,0,0,0,0,0,0,0,-1,1154,694,0,0
-63,330,0,0,0,0,0,0,0,0,0,-1,1161,694,0,0
-56,330,0,0,0,0,0,0,0,0,0,-1,1168,694,0,0
-49,330,0,0,0,0,0,0,0,0,0,-1,1175,694,0,0
-42,330,0,0,0,0,0,0,0,0,0,-1,1182,694,0,0
-35,330,0,0,0,0,0,0,0,0,0,-1,1189,694,0,0
-28,330,0,0,0,0,0,0,0,0,0,-1,1196,694,0,0
-21,330,0,0,0,0,0,0,0,0,0,-1,1203,694,0,0
-14,330,0,0,0,0,0,0,0,0,0,-1,1210,694,0,0
-7,330,0,0,0,0,0,0,0,0,0,-1,1217,694,0,0
0,330,0,0,0,0,0,0,0,0,0,-1,1224,694,0,0
7,330,0,0,0,0,0,0,0,0,0,-1,1231,694,0,0
14,330,0,0,0,0,0,0,0,0,0,-1,1238,694,0,0
21,330,0,0,0,0,0,0,0,0,0,-1,1245,694,0,0
28,330,0,0,0,0,0,0,0,0,0,-1,1252,694,0,0
35,330,0,0,0,0,0,0,0,0,0,-1,1259,694,0,0
42,330,0,0,0,0,0,0,0,0,0,-1,1266,694,0,0
49,330,0,0,0,0,0,0,0,0,0,-1,1273,694,0,0
56,330,0,0,0,0,0,0,0,0,0,-1,1280,694,0,0
63,330,0,0,0,0,0,0,0,0,0,-1,1287,694,0,0
70,330,0,0,0,0,0,0,0,0,0,-1,1294,694,0,0
77,330,0,0,0,0,0,0,0,0,0,-1,1301,694,0,0
84,330,0,0,0,0,0,0,0,0,0,-1,1308,694,0,0
91,330,0,0,0,0,0,0,0,0,0,-1,1315,694,0,0
98,330,0,0,0,0,0,0,0,0,0,-1,1322,694,0,0
105,330,0,0,0,0,0,0,0,0,0,-1,1329,694,0,0
112,330,0,0,0,0,0,0,0,0,0,-1,1336,694,0,0
119,330,0,0,0,0,0,0,0,0,0,-1,1343,694,0,0
126,330,0,0,0,0,0,0,0,0,0,-1,1350,694,0,0
133,330,0,0,0,0,0,0,0,0,0,-1,1357,694,0,0
140,330,0,0,0,0,0,0,0,0,0,-1,1364,694,0,0
147,330,0,0,0,0,0,0,0,0,0,-1,1371,694,0,0
154,330,0,0,0,0,0,0,0,0,0,-1,1378,694,0,0
161,330,0,0,0,0,0,0,0,0,0,-1,1385,694,0,0
168,330,0,0,0,0,0,0,0,0,0,-1,1392,694,0,0
175,330,0,0,0,0,0,0,0,0,0,-1,1399,694,0,0
182,330,0,0,0,0,0,0,0,0,0,-1,1406,694,0,0
189,330,0,0,0,0,0,0,0,0,0,-1,1413,694,0,0
196,330,0,0,0,0,0,0,0,0,0,-1,1420,694,0,0
203,330,0,0,0,0,0,0,0,0,0,-1,1427,694,0,0
210,330,0,0,0,0,0,0,0,0,0,-1,1434,694,0,0
217,330,0,0,0,0,0,0,0,0,0,-1,1441,694,0,0
224,330,0,0,0,0,0,0,0,0,0,-1,1448,694,0,0
231,330,0,0,0,0,0,0,0,0,0,-1,1455,694,0,0
238,330,0,0,0,0,0,0,0,0,0,-1,1462,694,0,0
245,330,0,0,0,0,0,0,0,0,0,-1,1469,694,0,0
252,330,0,0,0,0,0,0,0,0,0,-1,1476,694,0,0
259,330,0,0,0,0,0,0,0,0,0,-1,1483,694,0,0
266,330,0,0,0,0,0,0,0,0,0,-1,1490,694,0,0
273,330,0,0,0,0,0,0,0,0,0,-1,1497,694,0,0
280,330,0,0,0,0,0,0,0,0,0,-1,1504,694,0,0
287,330,0,0,0,0,0,0,0,0,0,-1,1511,694,0,0
294,330,0,0,0,0,0,0,0,0,0,-1,1518,694,0,0
301,330,0,0,0,0,0,0,0,0,0,-1,1525,694,0,0
308,330,0,0,0,0,0,0,0,0,0,-1,1532,694,0,0
315,330,0,0,0,0,0,0,0,0,0,-1,1539,694,0,0
322,330,0,0,0,0,0,0,0,0,0,-1,1546,694,0,0
329,330,0,0,0,0,0,0,0,0,0,-1,1553,694,0,0
336,330,0,0,0,0,0,0,0,0,0,-1,1560,694,0,0
343,330,0,0,0,0,0,0,0,0,0,-1,1567,694,0,0
350,330,0,0,0,0,0,0,0,0,0,-1,1574,694,0,0
357,330,0,0,0,0,0,0,0,0,0,-1,1581,694,0,0
364,330,0,0,0,0,0,0,0,0,0,-1,1588,694,0,0
371,330,0,0,0,0,0,0,0,0,0,-1,1595,694,0,0
378,330,0,0,0,0,0,0,0,0,0,-1,1602,694,0,0
385,330,0,0,0,0,0,0,0,0,0,-1,1609,694,0,0
392,330,0,0,0,0,0,0,0,0,0,-1,1616,694,0,0
399,330,0,0,0,0,0,0,0,0,0,-1,1623,694,0,0
406,330,0,0,0,0,0,0,0,0,0,-1,1630,694,0,0
413,330,0,0,0,0,0,0,0,0,0,-1,1637,694,0,0
420,330,0,0,0,0,0,0,0,0,0,-1,1644,694,0,0
427,330,0,0,0,0,0,0,0,0,0,-1,1651,694,0,0
434,330,0,0,0,0,0,0,0,0,0,-1,1658,694,0,0
441,330,0,0,0,0,0,0,0,0,0,-1,1665,694,0,0
448,330,0,0,0,0,0,0,0,0,0,-1,1672,694,0,0
455,330,0,0,0,0,0,0,0,0,0,-1,1679,694,0,0
462,330,0,0,0,0,0,0,0,0,0,-1,1686,694,0,0
469,330,0,0,0,0,0,0,0,0,0,-1,1693,694,0,0
476,330,0,0,0,0,0,0,0,0,0,-1,1700,694,0,0
483,330,0,0,0,0,0,0,0,0,0,-1,1707,694,0,0
490,330,0,0,0,0,0,0,0,0,0,-1,1714,694,0,0
497,330,0,0,0,0,0,0,0,0,0,-1,1721,694,0,0
504,330,0,0,0,0,0,0,0,0,0,-1,1728,694,0,0
511,330,0,0,0,0,0,0,0,0,0,-1,1735,694,0,0
518,330,0,0,0,0,0,0,0,0,0,-1,1742,694,0,0
525,330,30.6694,0.69519,0,0,0,0,0,0,0,-1,1749,694,30.6694,-0.695206
532,330,30.9469,1.32501,0,0,0,0,0,0,0,-1,1756,694,30.9469,-1.32501
539,330,31.5155,1.62506,0,0,0,0,0,0,0,-1,1763,694,31.5155,-1.62507
546,330,31.4187,1.85651,0,0,0,0,0,0,0,-1,1770,694,31.4187,-1.85651
553,330,31.8452,1.81476,0,0,0,0,0,0,0,-1,1777,694,31.8452,-1.81475
560,330,32.2401,2.43225,0,0,0,0,0,0,0,-1,1784,694,32.2401,-2.43227
567,330,18.0321,3.98578,0,0,0,0,0,0,0,-1,1791,694,18.0321,-3.98576
574,330,12.0454,2.1662,0,0,0,0,0,0,0,-1,1798,694,12.0455,-2.16618
581,330,11.4215,4.50836,0,0,0,0,0,0,0,-1,1805,694,11.4215,-4.50837
588,330,6.45667,-0.0630493,0,0,0,0,0,0,0,-1,1812,694,6.45661,0.0630695
595,330,8.23193,-0.258484,0,0,0,0,0,0,0,-1,1819,694,8.23188,0.258459
602,330,26.2465,-6.33911,0,0,0,0,0,0,0,-1,1826,694,26.2465,6.33909
609,330,26.333,-5.60651,0.00260545,0.00228816,-0.000515605,0.00298626,0.00190735,-0.636154,0.00174609,0.0386416,1833,694,26.333,5.60651
616,330,26.374,-4.97992,0.00205613,0.00148323,9.06728e-05,0.00207013,0.00146922,0.153282,0.00122974,0.0116325,1840,694,26.374,4.9799
623,330,26.3452,-4.38293,0.00130971,0.000889929,0.000246592,0.00142364,0.000775996,0.432813,0.000823054,0.0134001,1847,694,26.3453,4.38296
630,330,26.3485,-3.76971,0.000674282,0.0004625,0.000275854,0.000863871,0.000272911,0.602138,0.000509899,0.0134392,1854,694,26.3485,3.7697
637,330,26.3546,-3.17511,-0.000281201,0.000256564,9.01485e-05,0.000271273,-0.000295911,1.40905,0.000327567,0.0121397,1861,694,26.3546,3.17513
644,330,26.3073,-2.56421,-0.00152597,9.4252e-05,-0.000251876,0.000132505,-0.00156422,-1.42008,0.00108967,0.00800066,1868,694,26.3073,2.56421
651,330,26.2666,-1.9696,-0.00314872,2.76329e-05,-0.000684657,0.000168925,-0.00329001,-1.36728,0.00225176,0.0115654,1875,694,26.2665,1.96963
658,330,26.236,-1.38141,-0.00522482,-6.64477e-05,-0.00124996,0.000220477,-0.00551175,-1.34516,0.00375015,0.0130079,1882,694,26.2359,1.38138
665,330,26.2208,-0.784546,-0.00785719,-0.000135051,-0.00197374,0.000340179,-0.00833242,-1.33452,0.00567174,0.0111575,1889,694,26.2208,0.784516
672,330,26.267,-0.168274,-0.0112593,-0.000170908,-0.0029035,0.000543362,-0.0119736,-1.32958,0.00816954,0.025007,1896,694,26.2669,0.168297
679,330,25.84,0.376709,-0.0156944,-0.000133446,-0.0040915,0.000876765,-0.0167046,-1.32873,0.0114399,0.0414858,1903,694,25.84,-0.376728
686,330,25.4694,1.08032,0,0,0,0,0,0,0,-1,1910,694,25.4694,-1.08032
693,330,17.3999,2.5976,0,0,0,0,0,0,0,-1,1917,694,17.4,-2.59759
700,330,17.1072,4.13,0,0,0,0,0,0,0,-1,1924,694,17.1071,-4.13002
707,330,16.663,4.88672,0,0,0,0,0,0,0,-1,1931,694,16.6629,-4.88673
714,330,16.5454,5.80896,0,0,0,0,0,0,0,-1,1938,694,16.5454,-5.80899
721,330,0,0,0,0,0,0,0,0,0,-1,1945,694,0,0
728,330,0,0,0,0,0,0,0,0,0,-1,1952,694,0,0
735,330,0,0,0,0,0,0,0,0,0,-1,1959,694,0,0
742,330,0,0,0,0,0,0,0,0,0,-1,1966,694,0,0
749,330,0,0,0,0,0,0,0,0,0,-1,1973,694,0,0
756,330,0,0,0,0,0,0,0,0,0,-1,1980,694,0,0
763,330,0,0,0,0,0,0,0,0,0,-1,1987,694,0,0
770,330,0,0,0,0,0,0,0,0,0,-1,1994,694,0,0
777,330,0,0,0,0,0,0,0,0,0,-1,2001,694,0,0
784,330,0,0,0,0,0,0,0,0,0,-1,2008,694,0,0
791,330,0,0,0,0,0,0,0,0,0,-1,2015,694,0,0
798,330,0,0,0,0,0,0,0,0,0,-1,2022,694,0,0
805,330,0,0,0,0,0,0,0,0,0,-1,2029,694,0,0
812,330,0,0,0,0,0,0,0,0,0,-1,2036,694,0,0
-700,323,0,0,0,0,0,0,0,0,0,-1,524,701,0,0
-693,323,0,0,0,0,0,0,0,0,0,-1,531,701,0,0
-686,323,0,0,0,0,0,0,0,0,0,-1,538,701,0,0
-679,323,0,0,0,0,0,0,0,0,0,-1,545,701,0,0
-672,323,0,0,0,0,0,0,0,0,0,-1,552,701,0,0
-665,323,0,0,0,0,0,0,0,0,0,-1,559,701,0,0
-658,323,0,0,0,0,0,0,0,0,0,-1,566,701,0,0
-651,323,0,0,0,0,0,0,0,0,0,-1,573,701,0,0
-644,323,0,0,0,0,0,0,0,0,0,-1,580,701,0,0
-637,323,0,0,0,0,0,0,0,0,0,-1,587,701,0,0
-630,323,0,0,0,0,0,0,0,0,0,-1,594,701,0,0
-623,323,0,0,0,0,0,0,0,0,0,-1,601,701,0,0
-616,323,0,0,0,0,0,0,0,0,0,-1,608,701,0,0
-609,323,0,0,0,0,0,0,0,0,0,-1,615,701,0,0
-602,323,-4.15833,2.12256,0,0,0,0,0,0,0,-1,622,701,-4.1583,-2.12257
-595,323,-4.052,1.79156,0,0,0,0,0,0,0,-1,629,701,-4.05198,-1.79158
-588,323,-4.07019,1.94543,0,0,0,0,0,0,0,-1,636,701,-4.07019,-1.94542
-581,323,-6.63727,0.562805,0,0,0,0,0,0,0,-1,643,701,-6.63728,-0.56279
-574,323,-6.15887,0.426697,0,0,0,0,0,0,0,-1,650,701,-6.15887,-0.426727
-567,323,-10.0015,0.0371094,0,0,0,0,0,0,0,-1,657,701,-10.0015,-0.037126
-560,323,-16.3503,-1.16956,0,0,0,0,0,0,0,-1,664,701,-16.3503,1.16957
-553,323,-16.3568,-1.55005,0,0,0,0,0,0,0,-1,671,701,-16.3568,1.55007
-546,323,-16.3259,-2.03973,0.000874267,0.00339557,-0.000539764,0.00350626,0.000763573,-1.36852,0.00212912,0.0230448,678,701,-16.3258,2.03976
-539,323,-16.3164,-2.55988,0.00118369,0.00262656,-0.000457736,0.00275952,0.00105073,-1.2881,0.00160824,0.0187415,685,701,-16.3164,2.5599
-532,323,-16.3715,-3.18408,0.00138,0.00190132,-0.000369145,0.00209255,0.00118876,-1.09281,0.00121187,0.0111676,692,701,-16.3715,3.18407
-525,323,-16.4103,-3.78235,0.00147407,0.00122384,-0.000209542,0.00159301,0.00110491,-0.516258,0.000942426,0.00825576,699,701,-16.4104,3.78232
-518,323,-16.4178,-4.33026,0.0015774,0.000600318,-6.5319e-05,0.00158174,0.00059597,-0.0664573,0.000922417,0.0101599,706,701,-16.4178,4.33027
-511,323,-16.4414,-4.89612,0.00167604,4.4263e-05,5.48099e-05,0.00167788,4.2424e-05,0.0335388,0.00110471,0.0142753,713,701,-16.4414,4.89613
-504,323,-16.4711,-5.46222,0.0017588,-0.000402449,0.000166658,0.00177158,-0.000415225,0.0765092,0.00134106,0.0165658,720,701,-16.4711,5.46219
-497,323,-16.4749,-6.03076,0.00192177,-0.000697616,0.000191739,0.00193573,-0.000711577,0.0726837,0.00158195,0.0130007,727,701,-16.4749,6.03075
-490,323,-16.4708,-6.60895,0.00225363,-0.000878618,0.000136446,0.00225956,-0.000884551,0.043452,0.00187222,0.0139154,734,701,-16.4708,6.60892
-483,323,-16.4676,-7.1676,0.00273969,-0.000803552,-7.23294e-05,0.00274117,-0.000805028,-0.020402,0.00214671,0.0271788,741,701,-16.4676,7.16762
-476,323,-16.3589,-7.83008,0,0,0,0,0,0,0,-1,748,701,-16.359,7.83008
-469,323,-8.33301,-3.64001,0,0,0,0,0,0,0,-1,755,701,-8.33298,3.64
-462,323,-5.29431,-1.45697,0,0,0,0,0,0,0,-1,762,701,-5.29431,1.45699
-455,323,-5.0658,-1.36639,0,0,0,0,0,0,0,-1,769,701,-5.06578,1.3664
-448,323,-4.91608,-1.59601,0,0,0,0,0,0,0,-1,776,701,-4.91606,1.59604
-441,323,-14.4006,0.535217,0,0,0,0,0,0,0,-1,783,701,-14.4006,-0.535203
-434,323,-15.3158,2.479,0,0,0,0,0,0,0,-1,790,701,-15.3158,-2.47898
-427,323,-28.3923,1.16797,0,0,0,0,0,0,0,-1,797,701,-28.3923,-1.16796
-420,323,-28.7292,1.09302,0,0,0,0,0,0,0,-1,804,701,-28.7292,-1.09304
-413,323,-28.7955,1.22418,0,0,0,0,0,0,0,-1,811,701,-28.7956,-1.22419
-406,323,0,0,0,0,0,0,0,0,0,-1,818,701,0,0
-399,323,0,0,0,0,0,0,0,0,0,-1,825,701,0,0
-392,323,0,0,0,0,0,0,0,0,0,-1,832,701,0,0
-385,323,0,0,0,0,0,0,0,0,0,-1,839,701,0,0
-378,323,0,0,0,0,0,0,0,0,0,-1,846,701,0,0
-371,323,0,0,0,0,0,0,0,0,0,-1,853,701,0,0
-364,323,0,0,0,0,0,0,0,0,0,-1,860,701,0,0
-357,323,0,0,0,0,0,0,0,0,0,-1,867,701,0,0
-350,323,0,0,0,0,0,0,0,0,0,-1,874,701,0,0
-343,323,0,0,0,0,0,0,0,0,0,-1,881,701,0,0
-336,323,0,0,0,0,0,0,0,0,0,-1,888,701,0,0
-329,323,0,0,0,0,0,0,0,0,0,-1,895,701,0,0
-322,323,0,0,0,0,0,0,0,0,0,-1,902,701,0,0
-315,323,0,0,0,0,0,0,0,0,0,-1,909,701,0,0
-308,323,0,0,0,0,0,0,0,0,0,-1,916,701,0,0
-301,323,0,0,0,0,0,0,0,0,0,-1,923,701,0,0
-294,323,0,0,0,0,0,0,0,0,0,-1,930,701,0,0
-287,323,0,0,0,0,0,0,0,0,0,-1,937,701,0,0
-280,323,0,0,0,0,0,0,0,0,0,-1,944,701,0,0
-273,323,0,0,0,0,0,0,0,0,0,-1,951,701,0,0
-266,323,0,0,0,0,0,0,0,0,0,-1,958,701,0,0
-259,323,0,0,0,0,0,0,0,0,0,-1,965,701,0,0
-252,323,0,0,0,0,0,0,0,0,0,-1,972,701,0,0
-245,323,0,0,0,0,0,0,0,0,0,-1,979,701,0,0
-238,323,0,0,0,0,0,0,0,0,0,-1,986,701,0,0
-231,323,0,0,0,0,0,0,0,0,0,-1,993,701,0,0
-224,323,0,0,0,0,0,0,0,0,0,-1,1000,701,0,0
-217,323,0,0,0,0,0,0,0,0,0,-1,1007,701,0,0
-210,323,0,0,0,0,0,0,0,0,0,-1,1014,701,0,0
-203,323,0,0,0,0,0,0,0,0,0,-1,1021,701,0,0
-196,323,0,0,0,0,0,0,0,0,0,-1,1028,701,0,0
-189,323,0,0,0,0,0,0,0,0,0,-1,1035,701,0,0
-182,323,0,0,0,0,0,0,0,0,0,-1,1042,701,0,0
-175,323,0,0,0,0,0,0,0,0,0,-1,1049,701,0,0
-168,323,0,0,0,0,0,0,0,0,0,-1,1056,701,0,0
-161,323,0,0,0,0,0,0,0,0,0,-1,1063,701,0,0
-154,323,0,0,0,0,0,0,0,0,0,-1,1070,701,0,0
-147,323,0,0,0,0,0,0,0,0,0,-1,1077,701,0,0
-140,323,0,0,0,0,0,0,0,0,0,-1,1084,701,0,0
-133,323,0,0,0,0,0,0,0,0,0,-1,1091,701,0,0
-126,323,0,0,0,0,0,0,0,0,0,-1,1098,701,0,0
-119,323,0,0,0,0,0,0,0,0,0,-1,1105,701,0,0
-112,323,0,0,0,0,0,0,0,0,0,-1,1112,701,0,0
-105,323,0,0,0,0,0,0,0,0,0,-1,1119,701,0,0
-98,323,0,0,0,0,0,0,0,0,0,-1,1126,701,0,0
-91,323,0,0,0,0,0,0,0,0,0,-1,1133,701,0,0
-84,323,0,0,0,0,0,0,0,0,0,-1,1140,701,0,0
-77,323,0,0,0,0,0,0,0,0,0,-1,1147,701,0,0
-70,323,0,0,0,0,0,0,0,0,0,-1,1154,701,0,0
-63,323,0,0,0,0,0,0,0,0,0,-1,1161,701,0,0
-56,323,0,0,0,0,0,0,0,0,0,-1,1168,701,0,0
-49,323,0,0,0,0,0,0,0,0,0,-1,1175,701,0,0
-42,323,0,0,0,0,0,0,0,0,0,-1,1182,701,0,0
-35,323,0,0,0,0,0,0,0,0,0,-1,1189,701,0,0
-28,323,0,0,0,0,0,0,0,0,0,-1,1196,701,0,0
-21,323,0,0,0,0,0,0,0,0,0,-1,1203,701,0,0
-14,323,0,0,0,0,0,0,0,0,0,-1,1210,701,0,0
-7,323,0,0,0,0,0,0,0,0,0,-1,1217,701,0,0
0,323,0,0,0,0,0,0,0,0,0,-1,1224,701,0,0
7,323,0,0,0,0,0,0,0,0,0,-1,1231,701,0,0
14,323,0,0,0,0,0,0,0,0,0,-1,1238,701,0,0
21,323,0,0,0,0,0,0,0,0,0,-1,1245,701,0,0
28,323,0,0,0,0,0,0,0,0,0,-1,1252,701,0,0
35,323,0,0,0,0,0,0,0,0,0,-1,1259,701,0,0
42,323,0,0,0,0,0,0,0,0,0,-1,1266,701,0,0
49,323,0,0,0,0,0,0,0,0,0,-1,1273,701,0,0
56,323,0,0,0,0,0,0,0,0,0,-1,1280,701,0,0
63,323,0,0,0,0,0,0,0,0,0,-1,1287,701,0,0
70,323,0,0,0,0,0,0,0,0,0,-1,1294,701,0,0
77,323,0,0,0,0,0,0,0,0,0,-1,1301,701,0,0
84,323,0,0,0,0,0,0,0,0,0,-1,1308,701,0,0
91,323,0,0,0,0,0,0,0,0,0,-1,1315,701,0,0
98,323,0,0,0,0,0,0,0,0,0,-1,1322,701,0,0
105,323,0,0,0,0,0,0,0,0,0,-1,1329,701,0,0
112,323,0,0,0,0,0,0,0,0,0,-1,1336,701,0,0
119,323,0,0,0,0,0,0,0,0,0,-1,1343,701,0,0
126,323,0,0,0,0,0,0,0,0,0,-1,1350,701,0,0
133,323,0,0,0,0,0,0,0,0,0,-1,1357,701,0,0
140,323,0,0,0,0,0,0,0,0,0,-1,1364,701,0,0
147,323,0,0,0,0,0,0,0,0,0,-1,1371,701,0,0
154,323,0,0,0,0,0,0,0,0,0,-1,1378,701,0,0
161,323,0,0,0,0,0,0,0,0,0,-1,1385,701,0,0
168,323,0,0,0,0,0,0,0,0,0,-1,1392,701,0,0
175,323,0,0,0,0,0,0,0,0,0,-1,1399,701,0,0
182,323,0,0,0,0,0,0,0,0,0,-1,1406,701,0,0
189,323,0,0,0,0,0,0,0,0,0,-1,1413,701,0,0
196,323,0,0,0,0,0,0,0,0,0,-1,1420,701,0,0
203,323,0,0,0,0,0,0,0,0,0,-1,1427,701,0,0
210,323,0,0,0,0,0,0,0,0,0,-1,1434,701,0,0
217,323,0,0,0,0,0,0,0,0,0,-1,1441,701,0,0
224,323,0,0,0,0,0,0,0,0,0,-1,1448,701,0,0
231,323,0,0,0,0,0,0,0,0,0,-1,1455,701,0,0
238,323,0,0,0,0,0,0,0,0,0,-1,1462,701,0,0
245,323,0,0,0,0,0,0,0,0,0,-1,1469,701,0,0
252,323,0,0,0,0,0,0,0,0,0,-1,1476,701,0,0
259,323,0,0,0,0,0,0,0,0,0,-1,1483,701,0,0
266,323,0,0,0,0,0,0,0,0,0,-1,1490,701,0,0
273,323,0,0,0,0,0,0,0,0,0,-1,1497,701,0,0
280,323,0,0,0,0,0,0,0,0,0,-1,1504,701,0,0
287,323,0,0,0,0,0,0,0,0,0,-1,1511,701,0,0
294,323,0,0,0,0,0,0,0,0,0,-1,1518,701,0,0
301,323,0,0,0,0,0,0,0,0,0,-1,1525,701,0,0
308,323,0,0,0,0,0,0,0,0,0,-1,1532,701,0,0
315,323,0,0,0,0,0,0,0,0,0,-1,1539,701,0,0
322,323,0,0,0,0,0,0,0,0,0,-1,1546,701,0,0
329,323,0,0,0,0,0,0,0,0,0,-1,1553,701,0,0
336,323,0,0,0,0,0,0,0,0,0,-1,1560,701,0,0
343,323,0,0,0,0,0,0,0,0,0,-1,1567,701,0,0
350,323,0,0,0,0,0,0,0,0,0,-1,1574,701,0,0
357,323,0,0,0,0,0,0,0,0,0,-1,1581,701,0,0
364,323,0,0,0,0,0,0,0,0,0,-1,1588,701,0,0
371,323,0,0,0,0,0,0,0,0,0,-1,1595,701,0,0
378,323,0,0,0,0,0,0,0,0,0,-1,1602,701,0,0
385,323,0,0,0,0,0,0,0,0,0,-1,1609,701,0,0
392,323,0,0,0,0,0,0,0,0,0,-1,1616,701,0,0
399,323,0,0,0,0,0,0,0,0,0,-1,1623,701,0,0
406,323,0,0,0,0,0,0,0,0,0,-1,1630,701,0,0
413,323,0,0,0,0,0,0,0,0,0,-1,1637,701,0,0
420,323,0,0,0,0,0,0,0,0,0,-1,1644,701,0,0
427,323,0,0,0,0,0,0,0,0,0,-1,1651,701,0,0
434,323,0,0,0,0,0,0,0,0,0,-1,1658,701,0,0
441,323,0,0,0,0,0,0,0,0,0,-1,1665,701,0,0
448,323,0,0,0,0,0,0,0,0,0,-1,1672,701,0,0
455,323,0,0,0,0,0,0,0,0,0,-1,1679,701,0,0
462,323,0,0,0,0,0,0,0,0,0,-1,1686,701,0,0
469,323,0,0,0,0,0,0,0,0,0,-1,1693,701,0,0
476,323,0,0,0,0,0,0,0,0,0,-1,1700,701,0,0
483,323,0,0,0,0,0,0,0,0,0,-1,1707,701,0,0
490,323,0,0,0,0,0,0,0,0,0,-1,1714,701,0,0
497,323,0,0,0,0,0,0,0,0,0,-1,1721,701,0,0
504,323,0,0,0,0,0,0,0,0,0,-1,1728,701,0,0
511,323,0,0,0,0,0,0,0,0,0,-1,1735,701,0,0
518,323,0,0,0,0,0,0,0,0,0,-1,1742,701,0,0
525,323,0,0,0,0,0,0,0,0,0,-1,1749,701,0,0
532,323,33.6193,1.69446,0,0,0,0,0,0,0,-1,1756,701,33.6193,-1.69444
539,323,32.2698,2.44037,0,0,0,0,0,0,0,-1,1763,701,32.2697,-2.44036
546,323,31.1644,3.9444,0,0,0,0,0,0,0,-1,1770,701,31.1644,-3.94438
553,323,30.2488,5.8775,0,0,0,0,0,0,0,-1,1777,701,30.2487,-5.87752
560,323,40.6711,1.25153,0,0,0,0,0,0,0,-1,1784,701,40.6711,-1.25154
567,323,42.1637,2.01208,0,0,0,0,0,0,0,-1,1791,701,42.1637,-2.01207
574,323,12.514,5.89685,0,0,0,0,0,0,0,-1,1798,701,12.5141,-5.89683
581,323,11.821,5.3476,0,0,0,0,0,0,0,-1,1805,701,11.821,-5.34762
588,323,11.7933,7.00818,0,0,0,0,0,0,0,-1,1812,701,11.7933,-7.00819
595,323,6.67847,0.06604,0,0,0,0,0,0,0,-1,1819,701,6.67841,-0.0660418
602,323,11.2856,-0.595459,0,0,0,0,0,0,0,-1,1826,701,11.2856,0.595433
609,323,26.8445,-5.68005,0,0,0,0,0,0,0,-1,1833,701,26.8444,5.68004
616,323,26.9589,-4.9314,0.00278189,0.00282154,-0.000279763,0.00308218,0.00252125,-0.82077,0.00189568,0.0138276,1840,701,26.9589,4.93139
623,323,26.9435,-4.34265,0.00174686,0.00143716,0.000239178,0.00187694,0.00130708,0.498113,0.00111117,0.0130034,1847,701,26.9435,4.34263
630,323,26.9503,-3.7392,0.00107675,0.000519481,0.000409906,0.00129375,0.000302473,0.486896,0.000781441,0.0142306,1854,701,26.9503,3.7392
637,323,26.958,-3.13904,0.000168887,0.000168022,0.000290212,0.000458666,-0.000121758,0.784653,0.000353425,0.010923,1861,701,26.958,3.13902
644,323,26.8959,-2.54987,-0.00100458,6.31962e-05,-3.20326e-05,6.41563e-05,-0.00100554,-1.54083,0.000692735,0.00771807,1868,701,26.8959,2.54984
651,323,26.8673,-1.94824,-0.00248217,9.86457e-05,-0.000404791,0.000160646,-0.00254417,-1.41881,0.00175212,0.0102833,1875,701,26.8673,1.94825
658,323,26.8167,-1.33765,-0.00430943,0.000169883,-0.000855431,0.000327688,-0.00446724,-1.38837,0.00309318,0.015007,1882,701,26.8167,1.33767
665,323,26.7863,-0.741882,-0.00656909,0.00030004,-0.0014101,0.000578239,-0.00684729,-1.37601,0.0047693,0.0128026,1889,701,26.7863,0.741901
672,323,26.8031,-0.109924,-0.00938094,0.000555884,-0.00206296,0.000967148,-0.00979221,-1.37402,0.00687324,0.0145328,1896,701,26.8031,0.109946
679,323,26.6626,0.500366,-0.012926,0.000994835,-0.00284548,0.001554,-0.0134852,-1.37676,0.00955037,0.0389019,1903,701,26.6626,-0.500389
686,323,25.9827,1.07526,0,0,0,0,0,0,0,-1,1910,701,25.9827,-1.07528
693,323,23.8806,1.08844,0,0,0,0,0,0,0,-1,1917,701,23.8806,-1.08845
700,323,10.7705,0.828613,0,0,0,0,0,0,0,-1,1924,701,10.7705,-0.828591
707,323,16.9005,4.79193,0,0,0,0,0,0,0,-1,1931,701,16.9005,-4.7919
714,323,16.2346,6.25958,0,0,0,0,0,0,0,-1,1938,701,16.2346,-6.25956
721,323,0,0,0,0,0,0,0,0,0,-1,1945,701,0,0
728,323,0,0,0,0,0,0,0,0,0,-1,1952,701,0,0
735,323,0,0,0,0,0,0,0,0,0,-1,1959,701,0,0
742,323,0,0,0,0,0,0,0,0,0,-1,1966,701,0,0
749,323,0,0,0,0,0,0,0,0,0,-1,1973,701,0,0
756,323,0,0,0,0,0,0,0,0,0,-1,1980,701,0,0
763,323,0,0,0,0,0,0,0,0,0,-1,1987,701,0,0
770,323,0,0,0,0,0,0,0,0,0,-1,1994,701,0,0
777,323,0,0,0,0,0,0,0,0,0,-1,2001,701,0,0
784,323,0,0,0,0,0,0,0,0,0,-1,2008,701,0,0
791,323,0,0,0,0,0,0,0,0,0,-1,2015,701,0,0
798,323,0,0,0,0,0,0,0,0,0,-1,2022,701,0,0
805,323,0,0,0,0,0,0,0,0,0,-1,2029,701,0,0
812,323,0,0,0,0,0,0,0,0,0,-1,2036,701,0,0
-700,316,0,0,0,0,0,0,0,0,0,-1,524,708,0,0
-693,316,0,0,0,0,0,0,0,0,0,-1,531,708,0,0
-686,316,0,0,0,0,0,0,0,0,0,-1,538,708,0,0
-679,316,0,0,0,0,0,0,0,0,0,-1,545,708,0,0
-672,316,0,0,0,0,0,0,0,0,0,-1,552,708,0,0
-665,316,0,0,0,0,0,0,0,0,0,-1,559,708,0,0
-658,316,0,0,0,0,0,0,0,0,0,-1,566,708,0,0
-651,316,0,0,0,0,0,0,0,0,0,-1,573,708,0,0
-644,316,0,0,0,0,0,0,0,0,0,-1,580,708,0,0
-637,316,0,0,0,0,0,0,0,0,0,-1,587,708,0,0
-630,316,0,0,0,0,0,0,0,0,0,-1,594,708,0,0
-623,316,0,0,0,0,0,0,0,0,0,-1,601,708,0,0
-616,316,0,0,0,0,0,0,0,0,0,-1,608,708,0,0
-609,316,0,0,0,0,0,0,0,0,0,-1,615,708,0,0
-602,316,-0.451782,-0.0494995,0,0,0,0,0,0,0,-1,622,708,-0.451768,0.0495022
-595,316,-3.3761,2.17188,0,0,0,0,0,0,0,-1,629,708,-3.37609,-2.17189
-588,316,-5.00177,2.60675,0,0,0,0,0,0,0,-1,636,708,-5.00175,-2.60676
-581,316,-3.94653,0.393433,0,0,0,0,0,0,0,-1,643,708,-3.94655,-0.39342
-574,316,-9.67395,1.06067,0,0,0,0,0,0,0,-1,650,708,-9.67396,-1.06065
-567,316,-10.1962,0.448425,0,0,0,0,0,0,0,-1,657,708,-10.1962,-0.448411
-560,316,-16.7126,-1.24084,0,0,0,0,0,0,0,-1,664,708,-16.7126,1.24085
-553,316,-16.7916,-1.60004,0,0,0,0,0,0,0,-1,671,708,-16.7916,1.60006
-546,316,-16.97,-1.97388,0.000699607,0.00300617,-0.000589679,0.00314818,0.000557597,-1.33447,0.00193982,0.0280969,678,708,-16.9701,1.97389
-539,316,-16.8911,-2.61902,0.000984897,0.00223839,-0.000435224,0.00237469,0.000848603,-1.26731,0.0013895,0.0140019,685,708,-16.891,2.61904
-532,316,-16.9373,-3.18646,0.0011453,0.00149167,-0.000269617,0.00163893,0.000998041,-1.07088,0.000953697,0.0114541,692,708,-16.9372,3.18645
-525,316,-16.9719,-3.73932,0.00128199,0.00083013,-6.62891e-05,0.00129151,0.000820606,-0.142698,0.000754712,0.0104423,699,708,-16.9719,3.73929
-518,316,-16.9681,-4.30792,0.00145255,0.000205043,9.85314e-05,0.00146028,0.000197309,0.0783354,0.000914873,0.0106801,706,708,-16.9681,4.30794
-511,316,-16.9938,-4.88544,0.00159088,-0.000380439,0.000251248,0.0016224,-0.000411957,0.124794,0.00124191,0.0115561,713,708,-16.9938,4.88541
-504,316,-17.0345,-5.45428,0.00168871,-0.000876271,0.000408985,0.00175234,-0.000939905,0.154352,0.00157779,0.0146717,720,708,-17.0345,5.4543
-497,316,-17.0228,-6.00183,0.00186749,-0.00124705,0.000482784,0.00194061,-0.00132017,0.150312,0.00189394,0.0131798,727,708,-17.0228,6.00182
-490,316,-17.0464,-6.57526,0.00227727,-0.00152433,0.000486638,0.00233858,-0.00158564,0.125317,0.00227951,0.0176689,734,708,-17.0464,6.57523
-483,316,-17.0182,-7.13062,0,0,0,0,0,0,0,-1,741,708,-17.0183,7.13061
-476,316,-8.90894,-3.31207,0,0,0,0,0,0,0,-1,748,708,-8.90896,3.31206
-469,316,-6.24194,-1.42725,0,0,0,0,0,0,0,-1,755,708,-6.24192,1.42725
-462,316,-5.74237,-1.40039,0,0,0,0,0,0,0,-1,762,708,-5.74238,1.40039
-455,316,-5.44745,-1.21899,0,0,0,0,0,0,0,-1,769,708,-5.44746,1.21898
-448,316,-14.8945,0.655396,0,0,0,0,0,0,0,-1,776,708,-14.8946,-0.655396
-441,316,-14.9626,0.576111,0,0,0,0,0,0,0,-1,783,708,-14.9626,-0.576115
-434,316,-27.7723,1.15576,0,0,0,0,0,0,0,-1,790,708,-27.7723,-1.15579
-427,316,-28.0504,1.31427,0,0,0,0,0,0,0,-1,797,708,-28.0504,-1.31427
-420,316,-28.198,1.62891,0,0,0,0,0,0,0,-1,804,708,-28.198,-1.62889
-413,316,0,0,0,0,0,0,0,0,0,-1,811,708,0,0
-406,316,0,0,0,0,0,0,0,0,0,-1,818,708,0,0
-399,316,0,0,0,0,0,0,0,0,0,-1,825,708,0,0
-392,316,0,0,0,0,0,0,0,0,0,-1,832,708,0,0
-385,316,0,0,0,0,0,0,0,0,0,-1,839,708,0,0
-378,316,0,0,0,0,0,0,0,0,0,-1,846,708,0,0
-371,316,0,0,0,0,0,0,0,0,0,-1,853,708,0,0
-364,316,0,0,0,0,0,0,0,0,0,-1,860,708,0,0
-357,316,0,0,0,0,0,0,0,0,0,-1,867,708,0,0
-350,316,0,0,0,0,0,0,0,0,0,-1,874,708,0,0
-343,316,0,0,0,0,0,0,0,0,0,-1,881,708,0,0
-336,316,0,0,0,0,0,0,0,0,0,-1,888,708,0,0
-329,316,0,0,0,0,0,0,0,0,0,-1,895,708,0,0
-322,316,0,0,0,0,0,0,0,0,0,-1,902,708,0,0
-315,316,0,0,0,0,0,0,0,0,0,-1,909,708,0,0
-308,316,0,0,0,0,0,0,0,0,0,-1,916,708,0,0
-301,316,0,0,0,0,0,0,0,0,0,-1,923,708,0,0
-294,316,0,0,0,0,0,0,0,0,0,-1,930,708,0,0
-287,316,0,0,0,0,0,0,0,0,0,-1,937,708,0,0
-280,316,0,0,0,0,0,0,0,0,0,-1,944,708,0,0
-273,316,0,0,0,0,0,0,0,0,0,-1,951,708,0,0
-266,316,0,0,0,0,0,0,0,0,0,-1,958,708,0,0
-259,316,0,0,0,0,0,0,0,0,0,-1,965,708,0,0
-252,316,0,0,0,0,0,0,0,0,0,-1,972,708,0,0
-245,316,0,0,0,0,0,0,0,0,0,-1,979,708,0,0
-238,316,0,0,0,0,0,0,0,0,0,-1,986,708,0,0
-231,316,0,0,0,0,0,0,0,0,0,-1,993,708,0,0
-224,316,0,0,0,0,0,0,0,0,0,-1,1000,708,0,0
-217,316,0,0,0,0,0,0,0,0,0,-1,1007,708,0,0
-210,316,0,0,0,0,0,0,0,0,0,-1,1014,708,0,0
-203,316,0,0,0,0,0,0,0,0,0,-1,1021,708,0,0
-196,316,0,0,0,0,0,0,0,0,0,-1,1028,708,0,0
-189,316,0,0,0,0,0,0,0,0,0,-1,1035,708,0,0
-182,316,0,0,0,0,0,0,0,0,0,-1,1042,708,0,0
-175,316,0,0,0,0,0,0,0,0,0,-1,1049,708,0,0
-168,316,0,0,0,0,0,0,0,0,0,-1,1056,708,0,0
-161,316,0,0,0,0,0,0,0,0,0,-1,1063,708,0,0
-154,316,0,0,0,0,0,0,0,0,0,-1,1070,708,0,0
-147,316,0,0,0,0,0,0,0,0,0,-1,1077,708,0,0
-140,316,0,0,0,0,0,0,0,0,0,-1,1084,708,0,0
-133,316,0,0,0,0,0,0,0,0,0,-1,1091,708,0,0
-126,316,0,0,0,0,0,0,0,0,0,-1,1098,708,0,0
-119,316,0,0,0,0,0,0,0,0,0,-1,1105,708,0,0
-112,316,0,0,0,0,0,0,0,0,0,-1,1112,708,0,0
-105,316,0,0,0,0,0,0,0,0,0,-1,1119,708,0,0
-98,316,0,0,0,0,0,0,0,0,0,-1,1126,708,0,0
-91,316,0,0,0,0,0,0,0,0,0,-1,1133,708,0,0
-84,316,0,0,0,0,0,0,0,0,0,-1,1140,708,0,0
-77,316,0,0,0,0,0,0,0,0,0,-1,1147,708,0,0
-70,316,0,0,0,0,0,0,0,0,0,-1,1154,708,0,0
-63,316,0,0,0,0,0,0,0,0,0,-1,1161,708,0,0
-56,316,0,0,0,0,0,0,0,0,0,-1,1168,708,0,0
-49,316,0,0,0,0,0,0,0,0,0,-1,1175,708,0,0
-42,316,0,0,0,0,0,0,0,0,0,-1,1182,708,0,0
-35,316,0,0,0,0,0,0,0,0,0,-1,1189,708,0,0
-28,316,0,0,0,0,0,0,0,0,0,-1,1196,708,0,0
-21,316,0,0,0,0,0,0,0,0,0,-1,1203,708,0,0
-14,316,0,0,0,0,0,0,0,0,0,-1,1210,708,0,0
-7,316,0,0,0,0,0,0,0,0,0,-1,1217,708,0,0
0,316,0,0,0,0,0,0,0,0,0,-1,1224,708,0,0
7,316,0,0,0,0,0,0,0,0,0,-1,1231,708,0,0
14,316,0,0,0,0,0,0,0,0,0,-1,1238,708,0,0
21,316,0,0,0,0,0,0,0,0,0,-1,1245,708,0,0
28,316,0,0,0,0,0,0,0,0,0,-1,1252,708,0,0
35,316,0,0,0,0,0,0,0,0,0,-1,1259,708,0,0
42,316,0,0,0,0,0,0,0,0,0,-1,1266,708,0,0
49,316,0,0,0,0,0,0,0,0,0,-1,1273,708,0,0
56,316,0,0,0,0,0,0,0,0,0,-1,1280,708,0,0
63,316,0,0,0,0,0,0,0,0,0,-1,1287,708,0,0
70,316,0,0,0,0,0,0,0,0,0,-1,1294,708,0,0
77,316,0,0,0,0,0,0,0,0,0,-1,1301,708,0,0
84,316,0,0,0,0,0,0,0,0,0,-1,1308,708,0,0
91,316,0,0,0,0,0,0,0,0,0,-1,1315,708,0,0
98,316,0,0,0,0,0,0,0,0,0,-1,1322,708,0,0
105,316,0,0,0,0,0,0,0,0,0,-1,1329,708,0,0
112,316,0,0,0,0,0,0,0,0,0,-1,1336,708,0,0
119,316,0,0,0,0,0,0,0,0,0,-1,1343,708,0,0
126,316,0,0,0,0,0,0,0,0,0,-1,1350,708,0,0
133,316,0,0,0,0,0,0,0,0,0,-1,1357,708,0,0
140,316,0,0,0,0,0,0,0,0,0,-1,1364,708,0,0
147,316,0,0,0,0,0,0,0,0,0,-1,1371,708,0,0
154,316,0,0,0,0,0,0,0,0,0,-1,1378,708,0,0
161,316,0,0,0,0,0,0,0,0,0,-1,1385,708,0,0
168,316,0,0,0,0,0,0,0,0,0,-1,1392,708,0,0
175,316,0,0,0,0,0,0,0,0,0,-1,1399,708,0,0
182,316,0,0,0,0,0,0,0,0,0,-1,1406,708,0,0
189,316,0,0,0,0,0,0,0,0,0,-1,1413,708,0,0
196,316,0,0,0,0,0,0,0,0,0,-1,1420,708,0,0
203,316,0,0,0,0,0,0,0,0,0,-1,1427,708,0,0
210,316,0,0,0,0,0,0,0,0,0,-1,1434,708,0,0
217,316,0,0,0,0,0,0,0,0,0,-1,1441,708,0,0
224,316,0,0,0,0,0,0,0,0,0,-1,1448,708,0,0
231,316,0,0,0,0,0,0,0,0,0,-1,1455,708,0,0
238,316,0,0,0,0,0,0,0,0,0,-1,1462,708,0,0
245,316,0,0,0,0,0,0,0,0,0,-1,1469,708,0,0
252,316,0,0,0,0,0,0,0,0,0,-1,1476,708,0,0
259,316,0,0,0,0,0,0,0,0,0,-1,1483,708,0,0
266,316,0,0,0,0,0,0,0,0,0,-1,1490,708,0,0
273,316,0,0,0,0,0,0,0,0,0,-1,1497,708,0,0
280,316,0,0,0,0,0,0,0,0,0,-1,1504,708,0,0
287,316,0,0,0,0,0,0,0,0,0,-1,1511,708,0,0
294,316,0,0,0,0,0,0,0,0,0,-1,1518,708,0,0
301,316,0,0,0,0,0,0,0,0,0,-1,1525,708,0,0
308,316,0,0,0,0,0,0,0,0,0,-1,1532,708,0,0
315,316,0,0,0,0,0,0,0,0,0,-1,1539,708,0,0
322,316,0,0,0,0,0,0,0,0,0,-1,1546,708,0,0
329,316,0,0,0,0,0,0,0,0,0,-1,1553,708,0,0
336,316,0,0,0,0,0,0,0,0,0,-1,1560,708,0,0
343,316,0,0,0,0,0,0,0,0,0,-1,1567,708,0,0
350,316,0,0,0,0,0,0,0,0,0,-1,1574,708,0,0
357,316,0,0,0,0,0,0,0,0,0,-1,1581,708,0,0
364,316,0,0,0,0,0,0,0,0,0,-1,1588,708,0,0
371,316,0,0,0,0,0,0,0,0,0,-1,1595,708,0,0
378,316,0,0,0,0,0,0,0,0,0,-1,1602,708,0,0
385,316,0,0,0,0,0,0,0,0,0,-1,1609,708,0,0
392,316,0,0,0,0,0,0,0,0,0,-1,1616,708,0,0
399,316,0,0,0,0,0,0,0,0,0,-1,1623,708,0,0
406,316,0,0,0,0,0,0,0,0,0,-1,1630,708,0,0
413,316,0,0,0,0,0,0,0,0,0,-1,1637,708,0,0
420,316,0,0,0,0,0,0,0,0,0,-1,1644,708,0,0
427,316,0,0,0,0,0,0,0,0,0,-1,1651,708,0,0
434,316,0,0,0,0,0,0,0,0,0,-1,1658,708,0,0
441,316,0,0,0,0,0,0,0,0,0,-1,1665,708,0,0
448,316,0,0,0,0,0,0,0,0,0,-1,1672,708,0,0
455,316,0,0,0,0,0,0,0,0,0,-1,1679,708,0,0
462,316,0,0,0,0,0,0,0,0,0,-1,1686,708,0,0
469,316,0,0,0,0,0,0,0,0,0,-1,1693,708,0,0
476,316,0,0,0,0,0,0,0,0,0,-1,1700,708,0,0
483,316,0,0,0,0,0,0,0,0,0,-1,1707,708,0,0
490,316,0,0,0,0,0,0,0,0,0,-1,1714,708,0,0
497,316,0,0,0,0,0,0,0,0,0,-1,1721,708,0,0
504,316,0,0,0,0,0,0,0,0,0,-1,1728,708,0,0
511,316,0,0,0,0,0,0,0,0,0,-1,1735,708,0,0
518,316,0,0,0,0,0,0,0,0,0,-1,1742,708,0,0
525,316,0,0,0,0,0,0,0,0,0,-1,1749,708,0,0
532,316,33.8604,0.531128,0,0,0,0,0,0,0,-1,1756,708,33.8604,-0.531151
539,316,44.4543,2.73468,0,0,0,0,0,0,0,-1,1763,708,44.4543,-2.7347
546,316,44.713,3.35498,0,0,0,0,0,0,0,-1,1770,708,44.7131,-3.35501
553,316,39.9031,6.57275,0,0,0,0,0,0,0,-1,1777,708,39.9031,-6.57274
560,316,39.1196,1.10046,0,0,0,0,0,0,0,-1,1784,708,39.1197,-1.10048
567,316,40.3279,1.98065,0,0,0,0,0,0,0,-1,1791,708,40.3279,-1.98067
574,316,40.1323,2.25415,0,0,0,0,0,0,0,-1,1798,708,40.1324,-2.25415
581,316,24.6815,7.77496,0,0,0,0,0,0,0,-1,1805,708,24.6815,-7.77499
588,316,19.7659,2.90198,0,0,0,0,0,0,0,-1,1812,708,19.7659,-2.902
595,316,12.5363,1.50702,0,0,0,0,0,0,0,-1,1819,708,12.5363,-1.50701
602,316,7.79919,0.0422363,0,0,0,0,0,0,0,-1,1826,708,7.79923,-0.0422066
609,316,27.5126,-5.49512,0,0,0,0,0,0,0,-1,1833,708,27.5126,5.4951
616,316,27.5381,-4.8847,0.00154985,0.00440886,0.000474649,0.0044856,0.00147311,1.4105,0.00264011,0.0165014,1840,708,27.5381,4.88469
623,316,27.5436,-4.30737,0.000865286,0.00221229,0.00100267,0.00274666,0.000330916,1.08114,0.00173138,0.0112623,1847,708,27.5436,4.30735
630,316,27.5327,-3.74384,0.000680601,0.000676843,0.00100444,0.00168316,-0.000325716,0.784463,0.00124496,0.0131203,1854,708,27.5328,3.74382
637,316,27.5221,-3.12054,0.000248714,9.45222e-05,0.000751657,0.000927219,-0.000583982,0.734293,0.000879962,0.0123163,1861,708,27.5221,3.12054
644,316,27.4901,-2.51849,-0.000592135,5.10173e-05,0.000323926,0.000185883,-0.000727001,1.17628,0.000557064,0.0117349,1868,708,27.4901,2.51852
651,316,27.451,-1.92993,-0.00174941,0.000190898,-7.02049e-05,0.000193435,-0.00175195,-1.53468,0.00123749,0.0138642,1875,708,27.451,1.92992
658,316,27.4181,-1.30945,-0.00329028,0.00041527,-0.000427078,0.000463855,-0.00333887,-1.45752,0.00239555,0.0244028,1882,708,27.4182,1.30945
665,316,27.365,-0.706604,-0.00515412,0.000734465,-0.000802699,0.000841924,-0.00526158,-1.43772,0.00381942,0.0187335,1889,708,27.365,0.706617
672,316,27.3832,-0.125549,-0.00739423,0.00122786,-0.00120865,0.00139409,-0.00756045,-1.43412,0.00556353,0.0140409,1896,708,27.3832,0.12556
679,316,27.3821,0.585815,-0.010086,0.00195792,-0.0016416,0.00217767,-0.0103057,-1.43773,0.00769971,0.0340406,1903,708,27.3821,-0.585822
686,316,26.9148,1.21729,-0.0132903,0.00294861,-0.00206224,0.00320641,-0.0135481,-1.44643,0.0102691,0.0479092,1910,708,26.9148,-1.21731
693,316,26.3479,1.96991,0,0,0,0,0,0,0,-1,1917,708,26.3479,-1.96993
700,316,12.8749,2.89136,0,0,0,0,0,0,0,-1,1924,708,12.8748,-2.89137
707,316,15.7089,5.41486,0,0,0,0,0,0,0,-1,1931,708,15.7088,-5.41487
714,316,16.1727,5.52045,0,0,0,0,0,0,0,-1,1938,708,16.1728,-5.52042
721,316,16.7094,6.53351,0,0,0,0,0,0,0,-1,1945,708,16.7094,-6.5335
728,316,0,0,0,0,0,0,0,0,0,-1,1952,708,0,0
735,316,0,0,0,0,0,0,0,0,0,-1,1959,708,0,0
742,316,0,0,0,0,0,0,0,0,0,-1,1966,708,0,0
749,316,0,0,0,0,0,0,0,0,0,-1,1973,708,0,0
756,316,0,0,0,0,0,0,0,0,0,-1,1980,708,0,0
763,316,0,0,0,0,0,0,0,0,0,-1,1987,708,0,0
770,316,0,0,0,0,0,0,0,0,0,-1,1994,708,0,0
777,316,0,0,0,0,0,0,0,0,0,-1,2001,708,0,0
784,316,0,0,0,0,0,0,0,0,0,-1,2008,708,0,0
791,316,0,0,0,0,0,0,0,0,0,-1,2015,708,0,0
798,316,0,0,0,0,0,0,0,0,0,-1,2022,708,0,0
805,316,0,0,0,0,0,0,0,0,0,-1,2029,708,0,0
812,316,0,0,0,0,0,0,0,0,0,-1,2036,708,0,0
-700,309,0,0,0,0,0,0,0,0,0,-1,524,715,0,0
-693,309,0,0,0,0,0,0,0,0,0,-1,531,715,0,0
-686,309,0,0,0,0,0,0,0,0,0,-1,538,715,0,0
-679,309,0,0,0,0,0,0,0,0,0,-1,545,715,0,0
-672,309,0,0,0,0,0,0,0,0,0,-1,552,715,0,0
-665,309,0,0,0,0,0,0,0,0,0,-1,559,715,0,0
-658,309,0,0,0,0,0,0,0,0,0,-1,566,715,0,0
-651,309,0,0,0,0,0,0,0,0,0,-1,573,715,0,0
-644,309,0,0,0,0,0,0,0,0,0,-1,580,715,0,0
-637,309,0,0,0,0,0,0,0,0,0,-1,587,715,0,0
-630,309,0,0,0,0,0,0,0,0,0,-1,594,715,0,0
-623,309,0,0,0,0,0,0,0,0,0,-1,601,715,0,0
-616,309,0,0,0,0,0,0,0,0,0,-1,608,715,0,0
-609,309,-5.95392,-3.93689,0,0,0,0,0,0,0,-1,615,715,-5.95392,3.93686
-602,309,-4.99786,-3.31287,0,0,0,0,0,0,0,-1,622,715,-4.99786,3.31284
-595,309,-6.80847,2.4046,0,0,0,0,0,0,0,-1,629,715,-6.80845,-2.40458
-588,309,-6.08795,2.19324,0,0,0,0,0,0,0,-1,636,715,-6.08793,-2.19325
-581,309,-5.97552,1.3277,0,0,0,0,0,0,0,-1,643,715,-5.97552,-1.32769
-574,309,-8.73602,0.208435,0,0,0,0,0,0,0,-1,650,715,-8.73604,-0.208437
-567,309,-10.3909,0.85968,0,0,0,0,0,0,0,-1,657,715,-10.3909,-0.859696
-560,309,-17.1491,-1.22375,0,0,0,0,0,0,0,-1,664,715,-17.1491,1.22376
-553,309,-17.611,-1.38916,0,0,0,0,0,0,0,-1,671,715,-17.611,1.38913
-546,309,-17.5428,-2.0014,0.00067129,0.00264335,-0.000579175,0.00280086,0.000513773,-1.30525,0.00172173,0.0231845,678,715,-17.5429,2.00143
-539,309,-17.4885,-2.60962,0.000862849,0.00182182,-0.000344263,0.00193261,0.000752061,-1.25945,0.0011249,0.0152712,685,715,-17.4885,2.6096
-532,309,-17.5043,-3.16925,0.000911024,0.00100343,-8.04814e-05,0.00105002,0.000864425,-1.04596,0.000647084,0.0120598,692,715,-17.5043,3.16926
-525,309,-17.5233,-3.75128,0.0010581,0.000362466,0.000148143,0.00108833,0.000332232,0.201326,0.000644039,0.0154699,699,715,-17.5232,3.75126
-518,309,-17.529,-4.30713,0.00128931,-0.000235117,0.000317787,0.0013529,-0.000298711,0.197506,0.00101625,0.0164706,706,715,-17.529,4.30713
-511,309,-17.5679,-4.84607,0.00146628,-0.00080505,0.000492744,0.00156857,-0.000907339,0.204684,0.00144636,0.0123349,713,715,-17.5679,4.84607
-504,309,-17.5871,-5.41388,0.00158704,-0.00129891,0.000690742,0.00174384,-0.00145572,0.223229,0.00184976,0.00959361,720,715,-17.5871,5.41388
-497,309,-17.5987,-5.9729,0.00178062,-0.00170282,0.000821821,0.00196477,-0.00188697,0.220436,0.00222395,0.0138481,727,715,-17.5987,5.97291
-490,309,-17.5516,-6.55048,0.00228209,-0.00204404,0.000899891,0.00246181,-0.00222376,0.197123,0.00270638,0.0491331,734,715,-17.5516,6.55046
-483,309,-17.2189,-7.37854,0,0,0,0,0,0,0,-1,741,715,-17.2189,7.37851
-476,309,-5.29486,-1.2262,0,0,0,0,0,0,0,-1,748,715,-5.29484,1.22622
-469,309,-4.22717,-0.592896,0,0,0,0,0,0,0,-1,755,715,-4.2272,0.592905
-462,309,-10.428,2.46948,0,0,0,0,0,0,0,-1,762,715,-10.428,-2.46947
-455,309,-15.8216,0.00915527,0,0,0,0,0,0,0,-1,769,715,-15.8216,-0.00913359
-448,309,-37.3543,-1.02441,0,0,0,0,0,0,0,-1,776,715,-37.3543,1.02444
-441,309,-19.8181,1.4425,0,0,0,0,0,0,0,-1,783,715,-19.8181,-1.44249
-434,309,-28.3196,0.95105,0,0,0,0,0,0,0,-1,790,715,-28.3196,-0.951068
-427,309,-27.8553,1.40332,0,0,0,0,0,0,0,-1,797,715,-27.8553,-1.40334
-420,309,-27.3148,1.90747,0,0,0,0,0,0,0,-1,804,715,-27.3148,-1.90745
-413,309,0,0,0,0,0,0,0,0,0,-1,811,715,0,0
-406,309,0,0,0,0,0,0,0,0,0,-1,818,715,0,0
-399,309,0,0,0,0,0,0,0,0,0,-1,825,715,0,0
-392,309,0,0,0,0,0,0,0,0,0,-1,832,715,0,0
-385,309,0,0,0,0,0,0,0,0,0,-1,839,715,0,0
-378,309,0,0,0,0,0,0,0,0,0,-1,846,715,0,0
-371,309,0,0,0,0,0,0,0,0,0,-1,853,715,0,0
-364,309,0,0,0,0,0,0,0,0,0,-1,860,715,0,0
-357,309,0,0,0,0,0,0,0,0,0,-1,867,715,0,0
-350,309,0,0,0,0,0,0,0,0,0,-1,874,715,0,0
-343,309,0,0,0,0,0,0,0,0,0,-1,881,715,0,0
-336,309,0,0,0,0,0,0,0,0,0,-1,888,715,0,0
-329,309,0,0,0,0,0,0,0,0,0,-1,895,715,0,0
-322,309,0,0,0,0,0,0,0,0,0,-1,902,715,0,0
-315,309,0,0,0,0,0,0,0,0,0,-1,909,715,0,0
-308,309,0,0,0,0,0,0,0,0,0,-1,916,715,0,0
-301,309,0,0,0,0,0,0,0,0,0,-1,923,715,0,0
-294,309,0,0,0,0,0,0,0,0,0,-1,930,715,0,0
-287,309,0,0,0,0,0,0,0,0,0,-1,937,715,0,0
-280,309,0,0,0,0,0,0,0,0,0,-1,944,715,0,0
-273,309,0,0,0,0,0,0,0,0,0,-1,951,715,0,0
-266,309,0,0,0,0,0,0,0,0,0,-1,958,715,0,0
-259,309,0,0,0,0,0,0,0,0,0,-1,965,715,0,0
-252,309,0,0,0,0,0,0,0,0,0,-1,972,715,0,0
-245,309,0,0,0,0,0,0,0,0,0,-1,979,715,0,0
-238,309,0,0,0,0,0,0,0,0,0,-1,986,715,0,0
-231,309,0,0,0,0,0,0,0,0,0,-1,993,715,0,0
-224,309,0,0,0,0,0,0,0,0,0,-1,1000,715,0,0
-217,309,0,0,0,0,0,0,0,0,0,-1,1007,715,0,0
-210,309,0,0,0,0,0,0,0,0,0,-1,1014,715,0,0
-203,309,0,0,0,0,0,0,0,0,0,-1,1021,715,0,0
-196,309,0,0,0,0,0,0,0,0,0,-1,1028,715,0,0
-189,309,0,0,0,0,0,0,0,0,0,-1,1035,715,0,0
-182,309,0,0,0,0,0,0,0,0,0,-1,1042,715,0,0
-175,309,0,0,0,0,0,0,0,0,0,-1,1049,715,0,0
-168,309,0,0,0,0,0,0,0,0,0,-1,1056,715,0,0
-161,309,0,0,0,0,0,0,0,0,0,-1,1063,715,0,0
-154,309,0,0,0,0,0,0,0,0,0,-1,1070,715,0,0
-147,309,0,0,0,0,0,0,0,0,0,-1,1077,715,0,0
-140,309,0,0,0,0,0,0,0,0,0,-1,1084,715,0,0
-133,309,0,0,0,0,0,0,0,0,0,-1,1091,715,0,0
-126,309,0,0,0,0,0,0,0,0,0,-1,1098,715,0,0
-119,309,0,0,0,0,0,0,0,0,0,-1,1105,715,0,0
-112,309,0,0,0,0,0,0,0,0,0,-1,1112,715,0,0
-105,309,0,0,0,0,0,0,0,0,0,-1,1119,715,0,0
-98,309,0,0,0,0,0,0,0,0,0,-1,1126,715,0,0
-91,309,0,0,0,0,0,0,0,0,0,-1,1133,715,0,0
-84,309,0,0,0,0,0,0,0,0,0,-1,1140,715,0,0
-77,309,0,0,0,0,0,0,0,0,0,-1,1147,715,0,0
-70,309,0,0,0,0,0,0,0,0,0,-1,1154,715,0,0
-63,309,0,0,0,0,0,0,0,0,0,-1,1161,715,0,0
-56,309,0,0,0,0,0,0,0,0,0,-1,1168,715,0,0
-49,309,0,0,0,0,0,0,0,0,0,-1,1175,715,0,0
-42,309,0,0,0,0,0,0,0,0,0,-1,1182,715,0,0
-35,309,0,0,0,0,0,0,0,0,0,-1,1189,715,0,0
-28,309,0,0,0,0,0,0,0,0,0,-1,1196,715,0,0
-21,309,0,0,0,0,0,0,0,0,0,-1,1203,715,0,0
-14,309,0,0,0,0,0,0,0,0,0,-1,1210,715,0,0
-7,309,0,0,0,0,0,0,0,0,0,-1,1217,715,0,0
0,309,0,0,0,0,0,0,0,0,0,-1,1224,715,0,0
7,309,0,0,0,0,0,0,0,0,0,-1,1231,715,0,0
14,309,0,0,0,0,0,0,0,0,0,-1,1238,715,0,0
21,309,0,0,0,0,0,0,0,0,0,-1,1245,715,0,0
28,309,0,0,0,0,0,0,0,0,0,-1,1252,715,0,0
35,309,0,0,0,0,0,0,0,0,0,-1,1259,715,0,0
42,309,0,0,0,0,0,0,0,0,0,-1,1266,715,0,0
49,309,0,0,0,0,0,0,0,0,0,-1,1273,715,0,0
56,309,0,0,0,0,0,0,0,0,0,-1,1280,715,0,0
63,309,0,0,0,0,0,0,0,0,0,-1,1287,715,0,0
70,309,0,0,0,0,0,0,0,0,0,-1,1294,715,0,0
77,309,0,0,0,0,0,0,0,0,0,-1,1301,715,0,0
84,309,0,0,0,0,0,0,0,0,0,-1,1308,715,0,0
91,309,0,0,0,0,0,0,0,0,0,-1,1315,715,0,0
98,309,0,0,0,0,0,0,0,0,0,-1,1322,715,0,0
105,309,0,0,0,0,0,0,0,0,0,-1,1329,715,0,0
112,309,0,0,0,0,0,0,0,0,0,-1,1336,715,0,0
119,309,0,0,0,0,0,0,0,0,0,-1,1343,715,0,0
126,309,0,0,0,0,0,0,0,0,0,-1,1350,715,0,0
133,309,0,0,0,0,0,0,0,0,0,-1,1357,715,0,0
140,309,0,0,0,0,0,0,0,0,0,-1,1364,715,0,0
147,309,0,0,0,0,0,0,0,0,0,-1,1371,715,0,0
154,309,0,0,0,0,0,0,0,0,0,-1,1378,715,0,0
161,309,0,0,0,0,0,0,0,0,0,-1,1385,715,0,0
168,309,0,0,0,0,0,0,0,0,0,-1,1392,715,0,0
175,309,0,0,0,0,0,0,0,0,0,-1,1399,715,0,0
182,309,0,0,0,0,0,0,0,0,0,-1,1406,715,0,0
189,309,0,0,0,0,0,0,0,0,0,-1,1413,715,0,0
196,309,0,0,0,0,0,0,0,0,0,-1,1420,715,0,0
203,309,0,0,0,0,0,0,0,0,0,-1,1427,715,0,0
210,309,0,0,0,0,0,0,0,0,0,-1,1434,715,0,0
217,309,0,0,0,0,0,0,0,0,0,-1,1441,715,0,0
224,309,0,0,0,0,0,0,0,0,0,-1,1448,715,0,0
231,309,0,0,0,0,0,0,0,0,0,-1,1455,715,0,0
238,309,0,0,0,0,0,0,0,0,0,-1,1462,715,0,0
245,309,0,0,0,0,0,0,0,0,0,-1,1469,715,0,0
252,309,0,0,0,0,0,0,0,0,0,-1,1476,715,0,0
259,309,0,0,0,0,0,0,0,0,0,-1,1483,715,0,0
266,309,0,0,0,0,0,0,0,0,0,-1,1490,715,0,0
273,309,0,0,0,0,0,0,0,0,0,-1,1497,715,0,0
280,309,0,0,0,0,0,0,0,0,0,-1,1504,715,0,0
287,309,0,0,0,0,0,0,0,0,0,-1,1511,715,0,0
294,309,0,0,0,0,0,0,0,0,0,-1,1518,715,0,0
301,309,0,0,0,0,0,0,0,0,0,-1,1525,715,0,0
308,309,0,0,0,0,0,0,0,0,0,-1,1532,715,0,0
315,309,0,0,0,0,0,0,0,0,0,-1,1539,715,0,0
322,309,0,0,0,0,0,0,0,0,0,-1,1546,715,0,0
329,309,0,0,0,0,0,0,0,0,0,-1,1553,715,0,0
336,309,0,0,0,0,0,0,0,0,0,-1,1560,715,0,0
343,309,0,0,0,0,0,0,0,0,0,-1,1567,715,0,0
350,309,0,0,0,0,0,0,0,0,0,-1,1574,715,0,0
357,309,0,0,0,0,0,0,0,0,0,-1,1581,715,0,0
364,309,0,0,0,0,0,0,0,0,0,-1,1588,715,0,0
371,309,0,0,0,0,0,0,0,0,0,-1,1595,715,0,0
378,309,0,0,0,0,0,0,0,0,0,-1,1602,715,0,0
385,309,0,0,0,0,0,0,0,0,0,-1,1609,715,0,0
392,309,0,0,0,0,0,0,0,0,0,-1,1616,715,0,0
399,309,0,0,0,0,0,0,0,0,0,-1,1623,715,0,0
406,309,0,0,0,0,0,0,0,0,0,-1,1630,715,0,0
413,309,0,0,0,0,0,0,0,0,0,-1,1637,715,0,0
420,309,0,0,0,0,0,0,0,0,0,-1,1644,715,0,0
427,309,0,0,0,0,0,0,0,0,0,-1,1651,715,0,0
434,309,0,0,0,0,0,0,0,0,0,-1,1658,715,0,0
441,309,0,0,0,0,0,0,0,0,0,-1,1665,715,0,0
448,309,0,0,0,0,0,0,0,0,0,-1,1672,715,0,0
455,309,0,0,0,0,0,0,0,0,0,-1,1679,715,0,0
462,309,0,0,0,0,0,0,0,0,0,-1,1686,715,0,0
469,309,0,0,0,0,0,0,0,0,0,-1,1693,715,0,0
476,309,0,0,0,0,0,0,0,0,0,-1,1700,715,0,0
483,309,0,0,0,0,0,0,0,0,0,-1,1707,715,0,0
490,309,0,0,0,0,0,0,0,0,0,-1,1714,715,0,0
497,309,0,0,0,0,0,0,0,0,0,-1,1721,715,0,0
504,309,0,0,0,0,0,0,0,0,0,-1,1728,715,0,0
511,309,0,0,0,0,0,0,0,0,0,-1,1735,715,0,0
518,309,0,0,0,0,0,0,0,0,0,-1,1742,715,0,0
525,309,0,0,0,0,0,0,0,0,0,-1,1749,715,0,0
532,309,0,0,0,0,0,0,0,0,0,-1,1756,715,0,0
539,309,44.2073,2.66235,0,0,0,0,0,0,0,-1,1763,715,44.2073,-2.66238
546,309,44.4976,3.25531,0,0,0,0,0,0,0,-1,1770,715,44.4976,-3.25533
553,309,44.7058,3.60016,0,0,0,0,0,0,0,-1,1777,715,44.7058,-3.60018
560,309,46.9683,4.81451,0,0,0,0,0,0,0,-1,1784,715,46.9682,-4.8145
567,309,38.2872,1.72437,0,0,0,0,0,0,0,-1,1791,715,38.2872,-1.72434
574,309,39.0372,2.01044,0,0,0,0,0,0,0,-1,1798,715,39.0372,-2.01045
581,309,39.9871,2.35028,0,0,0,0,0,0,0,-1,1805,715,39.9871,-2.3503
588,309,26.2064,7.76422,0,0,0,0,0,0,0,-1,1812,715,26.2064,-7.7642
595,309,19.585,3.71558,0,0,0,0,0,0,0,-1,1819,715,19.5849,-3.71555
602,309,11.0811,3.47772,0,0,0,0,0,0,0,-1,1826,715,11.0811,-3.47772
609,309,28.1023,-5.59442,0,0,0,0,0,0,0,-1,1833,715,28.1023,5.59445
616,309,28.1339,-4.9187,-0.000100181,0.00582225,0.00132975,0.00610712,-0.000385045,1.35976,0.00420564,0.0263231,1840,715,28.1339,4.91868
623,309,28.141,-4.27161,-0.00056727,0.00312054,0.00186257,0.00389754,-0.00134427,1.17558,0.00314376,0.0114538,1847,715,28.141,4.27161
630,309,28.1177,-3.68994,-0.000272218,0.000956652,0.00171928,0.00216799,-0.00148356,0.957015,0.00212053,0.011007,1854,715,28.1177,3.68991
637,309,28.0852,-3.09045,-9.96732e-05,6.03435e-06,0.00131729,0.00127153,-0.00136517,0.805449,0.00152262,0.0137678,1861,715,28.0852,3.09043
644,309,28.0334,-2.48975,-0.00044622,1.34943e-07,0.000725365,0.00053588,-0.000981965,0.93464,0.000888854,0.0145717,1868,715,28.0334,2.48975
651,309,28.0082,-1.89563,-0.00113678,0.000210453,0.000232731,0.000249524,-0.00117585,1.40447,0.000878959,0.0134887,1875,715,28.0082,1.89565
658,309,28.0024,-1.26038,-0.00233139,0.000520438,-9.56111e-05,0.00052364,-0.00233459,-1.53732,0.00175714,0.0193827,1882,715,28.0025,1.26039
665,309,28.0024,-0.681702,-0.0038601,0.000976947,-0.000333302,0.000999805,-0.00388296,-1.50232,0.00297838,0.018076,1889,715,28.0024,0.68169
672,309,27.9857,-0.110352,-0.00563863,0.00162371,-0.00056111,0.00166681,-0.00568172,-1.49414,0.00444875,0.0157569,1896,715,27.9857,0.110376
679,309,27.9775,0.5448,-0.00767847,0.00252098,-0.000752902,0.00257626,-0.00773375,-1.49751,0.00619578,0.0198314,1903,715,27.9776,-0.544808
686,309,27.8019,1.28058,-0.00997091,0.00370145,-0.000857936,0.00375507,-0.0100245,-1.50837,0.00822556,0.0353898,1910,715,27.8019,-1.28058
693,309,27.3678,1.92438,0,0,0,0,0,0,0,-1,1917,715,27.3678,-1.9244
700,309,23.0179,3.08337,0,0,0,0,0,0,0,-1,1924,715,23.018,-3.08336
707,309,15.6318,4.58655,0,0,0,0,0,0,0,-1,1931,715,15.6318,-4.58657
714,309,16.7573,6.68286,0,0,0,0,0,0,0,-1,1938,715,16.7574,-6.68284
721,309,16.8337,5.4458,0,0,0,0,0,0,0,-1,1945,715,16.8338,-5.44582
728,309,0,0,0,0,0,0,0,0,0,-1,1952,715,0,0
735,309,0,0,0,0,0,0,0,0,0,-1,1959,715,0,0
742,309,0,0,0,0,0,0,0,0,0,-1,1966,715,0,0
749,309,0,0,0,0,0,0,0,0,0,-1,1973,715,0,0
756,309,0,0,0,0,0,0,0,0,0,-1,1980,715,0,0
763,309,0,0,0,0,0,0,0,0,0,-1,1987,715,0,0
770,309,0,0,0,0,0,0,0,0,0,-1,1994,715,0,0
777,309,0,0,0,0,0,0,0,0,0,-1,2001,715,0,0
784,309,0,0,0,0,0,0,0,0,0,-1,2008,715,0,0
791,309,0,0,0,0,0,0,0,0,0,-1,2015,715,0,0
798,309,0,0,0,0,0,0,0,0,0,-1,2022,715,0,0
805,309,0,0,0,0,0,0,0,0,0,-1,2029,715,0,0
812,309,0,0,0,0,0,0,0,0,0,-1,2036,715,0,0
-700,302,0,0,0,0,0,0,0,0,0,-1,524,722,0,0
-693,302,0,0,0,0,0,0,0,0,0,-1,531,722,0,0
-686,302,0,0,0,0,0,0,0,0,0,-1,538,722,0,0
-679,302,0,0,0,0,0,0,0,0,0,-1,545,722,0,0
-672,302,0,0,0,0,0,0,0,0,0,-1,552,722,0,0
-665,302,0,0,0,0,0,0,0,0,0,-1,559,722,0,0
-658,302,0,0,0,0,0,0,0,0,0,-1,566,722,0,0
-651,302,0,0,0,0,0,0,0,0,0,-1,573,722,0,0
-644,302,0,0,0,0,0,0,0,0,0,-1,580,722,0,0
-637,302,0,0,0,0,0,0,0,0,0,-1,587,722,0,0
-630,302,0,0,0,0,0,0,0,0,0,-1,594,722,0,0
-623,302,0,0,0,0,0,0,0,0,0,-1,601,722,0,0
-616,302,0,0,0,0,0,0,0,0,0,-1,608,722,0,0
-609,302,-7.79266,-3.71649,0,0,0,0,0,0,0,-1,615,722,-7.79267,3.7165
-602,302,0.92865,-1.99158,0,0,0,0,0,0,0,-1,622,722,0.928637,1.99157
-595,302,-7.89941,2.13641,0,0,0,0,0,0,0,-1,629,722,-7.89939,-2.13639
-588,302,-7.10895,1.79163,0,0,0,0,0,0,0,-1,636,722,-7.10896,-1.79163
-581,302,-9.17566,1.09448,0,0,0,0,0,0,0,-1,643,722,-9.17569,-1.09445
-574,302,-11.5183,-0.344543,0,0,0,0,0,0,0,-1,650,722,-11.5183,0.344557
-567,302,-12.1534,-0.672241,0,0,0,0,0,0,0,-1,657,722,-12.1535,0.672246
-560,302,-18.1368,-0.824463,0,0,0,0,0,0,0,-1,664,722,-18.1368,0.824474
-553,302,-18.0697,-1.38898,0.000440756,0.00331133,-0.000803959,0.00352116,0.000230929,-1.3155,0.00227437,0.0240949,671,722,-18.0697,1.38896
-546,302,-18.0758,-2.00543,0.000525592,0.002259,-0.000486459,0.00238619,0.000398406,-1.31507,0.00147602,0.0161307,678,722,-18.0758,2.00543
-539,302,-18.0901,-2.54639,0.000693357,0.00140472,-0.000210216,0.0014622,0.00063588,-1.3039,0.000846586,0.0145527,685,722,-18.0902,2.54641
-532,302,-18.0948,-3.12036,0.00070134,0.000523735,0.000109737,0.000753705,0.000471371,0.445226,0.00043969,0.0135985,692,722,-18.0949,3.12035
-525,302,-18.0785,-3.73193,0.00086213,-0.000107973,0.000351455,0.000976074,-0.000221918,0.313514,0.000735928,0.0191964,699,722,-18.0785,3.73194
-518,302,-18.11,-4.28387,0.0011277,-0.000701497,0.000532881,0.00127162,-0.000845413,0.263778,0.0012305,0.0206897,706,722,-18.11,4.2839
-511,302,-18.1437,-4.81531,0.00130469,-0.00127171,0.000741399,0.00150281,-0.00146983,0.261116,0.00171629,0.0101189,713,722,-18.1437,4.81528
-504,302,-18.1474,-5.37946,0.00141712,-0.00177725,0.000989102,0.00169858,-0.00205871,0.277238,0.00217259,0.00904091,720,722,-18.1474,5.37947
-497,302,-18.1865,-5.92834,0.00163429,-0.0021878,0.00116002,0.00195881,-0.00251232,0.272779,0.00258799,0.0148719,727,722,-18.1865,5.92836
-490,302,-18.0275,-6.51917,0,0,0,0,0,0,0,-1,734,722,-18.0275,6.51916
-483,302,-9.53412,-3.1673,0,0,0,0,0,0,0,-1,741,722,-9.53411,3.1673
-476,302,-4.29749,-0.203491,0,0,0,0,0,0,0,-1,748,722,-4.29751,0.203464
-469,302,-12.369,1.42859,0,0,0,0,0,0,0,-1,755,722,-12.3689,-1.42857
-462,302,-17.4766,0.310791,0,0,0,0,0,0,0,-1,762,722,-17.4766,-0.310788
-455,302,-36.7368,-2.97418,0,0,0,0,0,0,0,-1,769,722,-36.7368,2.97416
-448,302,-37.3755,-1.21204,0,0,0,0,0,0,0,-1,776,722,-37.3755,1.21201
-441,302,-38.1774,-1.19635,0,0,0,0,0,0,0,-1,783,722,-38.1774,1.19636
-434,302,-38.5441,-0.682678,0,0,0,0,0,0,0,-1,790,722,-38.5441,0.682664
-427,302,-27.1735,1.81506,0,0,0,0,0,0,0,-1,797,722,-27.1735,-1.81504
-420,302,0,0,0,0,0,0,0,0,0,-1,804,722,0,0
-413,302,0,0,0,0,0,0,0,0,0,-1,811,722,0,0
-406,302,0,0,0,0,0,0,0,0,0,-1,818,722,0,0
-399,302,0,0,0,0,0,0,0,0,0,-1,825,722,0,0
-392,302,0,0,0,0,0,0,0,0,0,-1,832,722,0,0
-385,302,0,0,0,0,0,0,0,0,0,-1,839,722,0,0
-378,302,0,0,0,0,0,0,0,0,0,-1,846,722,0,0
-371,302,0,0,0,0,0,0,0,0,0,-1,853,722,0,0
-364,302,0,0,0,0,0,0,0,0,0,-1,860,722,0,0
-357,302,0,0,0,0,0,0,0,0,0,-1,867,722,0,0
-350,302,0,0,0,0,0,0,0,0,0,-1,874,722,0,0
-343,302,0,0,0,0,0,0,0,0,0,-1,881,722,0,0
-336,302,0,0,0,0,0,0,0,0,0,-1,888,722,0,0
-329,302,0,0,0,0,0,0,0,0,0,-1,895,722,0,0
-322,302,0,0,0,0,0,0,0,0,0,-1,902,722,0,0
-315,302,0,0,0,0,0,0,0,0,0,-1,909,722,0,0
-308,302,0,0,0,0,0,0,0,0,0,-1,916,722,0,0
-301,302,0,0,0,0,0,0,0,0,0,-1,923,722,0,0
-294,302,0,0,0,0,0,0,0,0,0,-1,930,722,0,0
-287,302,0,0,0,0,0,0,0,0,0,-1,937,722,0,0
-280,302,0,0,0,0,0,0,0,0,0,-1,944,722,0,0
-273,302,0,0,0,0,0,0,0,0,0,-1,951,722,0,0
-266,302,0,0,0,0,0,0,0,0,0,-1,958,722,0,0
-259,302,0,0,0,0,0,0,0,0,0,-1,965,722,0,0
-252,302,0,0,0,0,0,0,0,0,0,-1,972,722,0,0
-245,302,0,0,0,0,0,0,0,0,0,-1,979,722,0,0
-238,302,0,0,0,0,0,0,0,0,0,-1,986,722,0,0
-231,302,0,0,0,0,0,0,0,0,0,-1,993,722,0,0
-224,302,0,0,0,0,0,0,0,0,0,-1,1000,722,0,0
-217,302,0,0,0,0,0,0,0,0,0,-1,1007,722,0,0
-210,302,0,0,0,0,0,0,0,0,0,-1,1014,722,0,0
-203,302,0,0,0,0,0,0,0,0,0,-1,1021,722,0,0
-196,302,0,0,0,0,0,0,0,0,0,-1,1028,722,0,0
-189,302,0,0,0,0,0,0,0,0,0,-1,1035,722,0,0
-182,302,0,0,0,0,0,0,0,0,0,-1,1042,722,0,0
-175,302,0,0,0,0,0,0,0,0,0,-1,1049,722,0,0
-168,302,0,0,0,0,0,0,0,0,0,-1,1056,722,0,0
-161,302,0,0,0,0,0,0,0,0,0,-1,1063,722,0,0
-154,302,0,0,0,0,0,0,0,0,0,-1,1070,722,0,0
-147,302,0,0,0,0,0,0,0,0,0,-1,1077,722,0,0
-140,302,0,0,0,0,0,0,0,0,0,-1,1084,722,0,0
-133,302,0,0,0,0,0,0,0,0,0,-1,1091,722,0,0
-126,302,0,0,0,0,0,0,0,0,0,-1,1098,722,0,0
-119,302,0,0,0,0,0,0,0,0,0,-1,1105,722,0,0
-112,302,0,0,0,0,0,0,0,0,0,-1,1112,722,0,0
-105,302,0,0,0,0,0,0,0,0,0,-1,1119,722,0,0
-98,302,0,0,0,0,0,0,0,0,0,-1,1126,722,0,0
-91,302,0,0,0,0,0,0,0,0,0,-1,1133,722,0,0
-84,302,0,0,0,0,0,0,0,0,0,-1,1140,722,0,0
-77,302,0,0,0,0,0,0,0,0,0,-1,1147,722,0,0
-70,302,0,0,0,0,0,0,0,0,0,-1,1154,722,0,0
-63,302,0,0,0,0,0,0,0,0,0,-1,1161,722,0,0
-56,302,0,0,0,0,0,0,0,0,0,-1,1168,722,0,0
-49,302,0,0,0,0,0,0,0,0,0,-1,1175,722,0,0
-42,302,0,0,0,0,0,0,0,0,0,-1,1182,722,0,0
-35,302,0,0,0,0,0,0,0,0,0,-1,1189,722,0,0
-28,302,0,0,0,0,0,0,0,0,0,-1,1196,722,0,0
-21,302,0,0,0,0,0,0,0,0,0,-1,1203,722,0,0
-14,302,0,0,0,0,0,0,0,0,0,-1,1210,722,0,0
-7,302,0,0,0,0,0,0,0,0,0,-1,1217,722,0,0
0,302,0,0,0,0,0,0,0,0,0,-1,1224,722,0,0
7,302,0,0,0,0,0,0,0,0,0,-1,1231,722,0,0
14,302,0,0,0,0,0,0,0,0,0,-1,1238,722,0,0
21,302,0,0,0,0,0,0,0,0,0,-1,1245,722,0,0
28,302,0,0,0,0,0,0,0,0,0,-1,1252,722,0,0
35,302,0,0,0,0,0,0,0,0,0,-1,1259,722,0,0
42,302,0,0,0,0,0,0,0,0,0,-1,1266,722,0,0
49,302,0,0,0,0,0,0,0,0,0,-1,1273,722,0,0
56,302,0,0,0,0,0,0,0,0,0,-1,1280,722,0,0
63,302,0,0,0,0,0,0,0,0,0,-1,1287,722,0,0
70,302,0,0,0,0,0,0,0,0,0,-1,1294,722,0,0
77,302,0,0,0,0,0,0,0,0,0,-1,1301,722,0,0
84,302,0,0,0,0,0,0,0,0,0,-1,1308,722,0,0
91,302,0,0,0,0,0,0,0,0,0,-1,1315,722,0,0
98,302,0,0,0,0,0,0,0,0,0,-1,1322,722,0,0
105,302,0,0,0,0,0,0,0,0,0,-1,1329,722,0,0
112,302,0,0,0,0,0,0,0,0,0,-1,1336,722,0,0
119,302,0,0,0,0,0,0,0,0,0,-1,1343,722,0,0
126,302,0,0,0,0,0,0,0,0,0,-1,1350,722,0,0
133,302,0,0,0,0,0,0,0,0,0,-1,1357,722,0,0
140,302,0,0,0,0,0,0,0,0,0,-1,1364,722,0,0
147,302,0,0,0,0,0,0,0,0,0,-1,1371,722,0,0
154,302,0,0,0,0,0,0,0,0,0,-1,1378,722,0,0
161,302,0,0,0,0,0,0,0,0,0,-1,1385,722,0,0
168,302,0,0,0,0,0,0,0,0,0,-1,1392,722,0,0
175,302,0,0,0,0,0,0,0,0,0,-1,1399,722,0,0
182,302,0,0,0,0,0,0,0,0,0,-1,1406,722,0,0
189,302,0,0,0,0,0,0,0,0,0,-1,1413,722,0,0
196,302,0,0,0,0,0,0,0,0,0,-1,1420,722,0,0
203,302,0,0,0,0,0,0,0,0,0,-1,1427,722,0,0
210,302,0,0,0,0,0,0,0,0,0,-1,1434,722,0,0
217,302,0,0,0,0,0,0,0,0,0,-1,1441,722,0,0
224,302,0,0,0,0,0,0,0,0,0,-1,1448,722,0,0
231,302,0,0,0,0,0,0,0,0,0,-1,1455,722,0,0
238,302,0,0,0,0,0,0,0,0,0,-1,1462,722,0,0
245,302,0,0,0,0,0,0,0,0,0,-1,1469,722,0,0
252,302,0,0,0,0,0,0,0,0,0,-1,1476,722,0,0
259,302,0,0,0,0,0,0,0,0,0,-1,1483,722,0,0
266,302,0,0,0,0,0,0,0,0,0,-1,1490,722,0,0
273,302,0,0,0,0,0,0,0,0,0,-1,1497,722,0,0
280,302,0,0,0,0,0,0,0,0,0,-1,1504,722,0,0
287,302,0,0,0,0,0,0,0,0,0,-1,1511,722,0,0
294,302,0,0,0,0,0,0,0,0,0,-1,1518,722,0,0
301,302,0,0,0,0,0,0,0,0,0,-1,1525,722,0,0
308,302,0,0,0,0,0,0,0,0,0,-1,1532,722,0,0
315,302,0,0,0,0,0,0,0,0,0,-1,1539,722,0,0
322,302,0,0,0,0,0,0,0,0,0,-1,1546,722,0,0
329,302,0,0,0,0,0,0,0,0,0,-1,1553,722,0,0
336,302,0,0,0,0,0,0,0,0,0,-1,1560,722,0,0
343,302,0,0,0,0,0,0,0,0,0,-1,1567,722,0,0
350,302,0,0,0,0,0,0,0,0,0,-1,1574,722,0,0
357,302,0,0,0,0,0,0,0,0,0,-1,1581,722,0,0
364,302,0,0,0,0,0,0,0,0,0,-1,1588,722,0,0
371,302,0,0,0,0,0,0,0,0,0,-1,1595,722,0,0
378,302,0,0,0,0,0,0,0,0,0,-1,1602,722,0,0
385,302,0,0,0,0,0,0,0,0,0,-1,1609,722,0,0
392,302,0,0,0,0,0,0,0,0,0,-1,1616,722,0,0
399,302,0,0,0,0,0,0,0,0,0,-1,1623,722,0,0
406,302,0,0,0,0,0,0,0,0,0,-1,1630,722,0,0
413,302,0,0,0,0,0,0,0,0,0,-1,1637,722,0,0
420,302,0,0,0,0,0,0,0,0,0,-1,1644,722,0,0
427,302,0,0,0,0,0,0,0,0,0,-1,1651,722,0,0
434,302,0,0,0,0,0,0,0,0,0,-1,1658,722,0,0
441,302,0,0,0,0,0,0,0,0,0,-1,1665,722,0,0
448,302,0,0,0,0,0,0,0,0,0,-1,1672,722,0,0
455,302,0,0,0,0,0,0,0,0,0,-1,1679,722,0,0
462,302,0,0,0,0,0,0,0,0,0,-1,1686,722,0,0
469,302,0,0,0,0,0,0,0,0,0,-1,1693,722,0,0
476,302,0,0,0,0,0,0,0,0,0,-1,1700,722,0,0
483,302,0,0,0,0,0,0,0,0,0,-1,1707,722,0,0
490,302,0,0,0,0,0,0,0,0,0,-1,1714,722,0,0
497,302,0,0,0,0,0,0,0,0,0,-1,1721,722,0,0
504,302,0,0,0,0,0,0,0,0,0,-1,1728,722,0,0
511,302,0,0,0,0,0,0,0,0,0,-1,1735,722,0,0
518,302,0,0,0,0,0,0,0,0,0,-1,1742,722,0,0
525,302,0,0,0,0,0,0,0,0,0,-1,1749,722,0,0
532,302,0,0,0,0,0,0,0,0,0,-1,1756,722,0,0
539,302,0,0,0,0,0,0,0,0,0,-1,1763,722,0,0
546,302,44.5226,3.35297,0,0,0,0,0,0,0,-1,1770,722,44.5226,-3.35296
553,302,46.0334,4.32007,0,0,0,0,0,0,0,-1,1777,722,46.0334,-4.32008
560,302,46.5814,4.2301,0,0,0,0,0,0,0,-1,1784,722,46.5814,-4.2301
567,302,45.8298,3.5564,0,0,0,0,0,0,0,-1,1791,722,45.8298,-3.55638
574,302,37.9297,1.69781,0,0,0,0,0,0,0,-1,1798,722,37.9297,-1.69781
581,302,38.2401,2.2843,0,0,0,0,0,0,0,-1,1805,722,38.2402,-2.28431
588,302,26.9731,7.19983,0,0,0,0,0,0,0,-1,1812,722,26.9732,-7.19981
595,302,27.3826,8.13104,0,0,0,0,0,0,0,-1,1819,722,27.3825,-8.13102
602,302,14.7349,5.21246,0,0,0,0,0,0,0,-1,1826,722,14.7349,-5.21247
609,302,28.6851,-5.53937,0,0,0,0,0,0,0,-1,1833,722,28.685,5.53938
616,302,28.7292,-4.8819,-0.00193628,0.00673422,0.00246258,0.00738482,-0.00258688,1.3125,0.00597517,0.0499577,1840,722,28.7293,4.88188
623,302,28.7355,-4.23389,-0.0024339,0.0038715,0.00304281,0.00510038,-0.00366278,1.18696,0.00508206,0.0147608,1847,722,28.7354,4.2339
630,302,28.6938,-3.63983,-0.00189828,0.00129214,0.00281851,0.00293556,-0.00354169,1.04291,0.0037451,0.011422,1854,722,28.6939,3.63986
637,302,28.6492,-3.05505,-0.00115091,-1.79224e-05,0.00222468,0.00171126,-0.00288009,0.910069,0.0026793,0.0145484,1861,722,28.6492,3.05507
644,302,28.6428,-2.47626,-0.000839958,-6.85943e-05,0.00130594,0.000907427,-0.00181598,0.928981,0.00160126,0.0159239,1868,722,28.6428,2.47624
651,302,28.6259,-1.87018,-0.000880302,0.000166164,0.000572049,0.000418181,-0.00113232,1.15583,0.000926292,0.0142781,1875,722,28.6259,1.87017
658,302,28.6069,-1.26099,-0.00158495,0.000500282,0.000139506,0.000509574,-0.00159424,1.50429,0.00126731,0.0138995,1882,722,28.6069,1.26097
665,302,28.5947,-0.686768,-0.00278244,0.00105115,-4.10573e-05,0.00105159,-0.00278288,-1.56009,0.00228781,0.0140372,1889,722,28.5947,0.686745
672,302,28.5663,-0.112793,-0.0041285,0.00180516,-0.000138498,0.00180839,-0.00413173,-1.54747,0.00351588,0.0114713,1896,722,28.5663,0.112783
679,302,28.5378,0.501526,-0.00559417,0.00279309,-0.000167107,0.00279642,-0.0055975,-1.55088,0.00493536,0.00943913,1903,722,28.5378,-0.50154
686,302,28.5403,1.14038,-0.00709938,0.00405999,-6.07596e-05,0.00406032,-0.00709971,-1.56535,0.00652241,0.0189236,1910,722,28.5403,-1.14036
693,302,28.3773,1.70313,0,0,0,0,0,0,0,-1,1917,722,28.3773,-1.70315
700,302,25.4069,1.97308,0,0,0,0,0,0,0,-1,1924,722,25.4068,-1.97311
707,302,16.7321,4.76685,0,0,0,0,0,0,0,-1,1931,722,16.7321,-4.76687
714,302,17.2,5.77594,0,0,0,0,0,0,0,-1,1938,722,17.2,-5.77595
721,302,17.7914,6.60394,0,0,0,0,0,0,0,-1,1945,722,17.7914,-6.60395
728,302,17.2798,4.81702,0,0,0,0,0,0,0,-1,1952,722,17.2798,-4.81703
735,302,0,0,0,0,0,0,0,0,0,-1,1959,722,0,0
742,302,0,0,0,0,0,0,0,0,0,-1,1966,722,0,0
749,302,0,0,0,0,0,0,0,0,0,-1,1973,722,0,0
756,302,0,0,0,0,0,0,0,0,0,-1,1980,722,0,0
763,302,0,0,0,0,0,0,0,0,0,-1,1987,722,0,0
770,302,0,0,0,0,0,0,0,0,0,-1,1994,722,0,0
777,302,0,0,0,0,0,0,0,0,0,-1,2001,722,0,0
784,302,0,0,0,0,0,0,0,0,0,-1,2008,722,0,0
791,302,0,0,0,0,0,0,0,0,0,-1,2015,722,0,0
798,302,0,0,0,0,0,0,0,0,0,-1,2022,722,0,0
805,302,0,0,0,0,0,0,0,0,0,-1,2029,722,0,0
812,302,0,0,0,0,0,0,0,0,0,-1,2036,722,0,0
-700,295,0,0,0,0,0,0,0,0,0,-1,524,729,0,0
-693,295,0,0,0,0,0,0,0,0,0,-1,531,729,0,0
-686,295,0,0,0,0,0,0,0,0,0,-1,538,729,0,0
-679,295,0,0,0,0,0,0,0,0,0,-1,545,729,0,0
-672,295,0,0,0,0,0,0,0,0,0,-1,552,729,0,0
-665,295,0,0,0,0,0,0,0,0,0,-1,559,729,0,0
-658,295,0,0,0,0,0,0,0,0,0,-1,566,729,0,0
-651,295,0,0,0,0,0,0,0,0,0,-1,573,729,0,0
-644,295,0,0,0,0,0,0,0,0,0,-1,580,729,0,0
-637,295,0,0,0,0,0,0,0,0,0,-1,587,729,0,0
-630,295,0,0,0,0,0,0,0,0,0,-1,594,729,0,0
-623,295,0,0,0,0,0,0,0,0,0,-1,601,729,0,0
-616,295,-13.4911,1.31738,0,0,0,0,0,0,0,-1,608,729,-13.4911,-1.3174
-609,295,-10.2864,0.832031,0,0,0,0,0,0,0,-1,615,729,-10.2863,-0.832034
-602,295,-8.19006,3.01587,0,0,0,0,0,0,0,-1,622,729,-8.19005,-3.01588
-595,295,-0.615479,-1.95447,0,0,0,0,0,0,0,-1,629,729,-0.615481,1.95445
-588,295,-7.98999,1.56903,0,0,0,0,0,0,0,-1,636,729,-7.98997,-1.56905
-581,295,-12.0404,0.150574,0,0,0,0,0,0,0,-1,643,729,-12.0404,-0.150604
-574,295,-12.1605,-0.0739746,0,0,0,0,0,0,0,-1,650,729,-12.1605,0.0739856
-567,295,-18.1461,-0.236267,0,0,0,0,0,0,0,-1,657,729,-18.1461,0.23625
-560,295,-18.532,-0.840759,0.00051605,0.00397388,-0.0013373,0.00443072,5.92119e-05,-1.24161,0.00293427,0.0339778,664,729,-18.532,0.840768
-553,295,-18.5831,-1.4201,0.000445016,0.00287256,-0.000843002,0.00313659,0.000180987,-1.26727,0.00203342,0.018491,671,729,-18.5831,1.4201
-546,295,-18.6531,-1.98486,0.000430394,0.00180632,-0.000410219,0.00191933,0.000317375,-1.30196,0.00118798,0.0207104,678,729,-18.6531,1.98489
-539,295,-18.6771,-2.505,0.000521932,0.000913378,-5.49251e-05,0.000920938,0.000514371,-1.434,0.000532917,0.0185091,685,729,-18.677,2.50501
-532,295,-18.6835,-3.06836,0.000460655,-2.07565e-05,0.000351123,0.000645657,-0.000205758,0.484924,0.000512969,0.0159497,692,729,-18.6835,3.06836
-525,295,-18.6661,-3.65826,0.000587448,-0.000700073,0.000652544,0.000860334,-0.000972959,0.396087,0.00105912,0.0149124,699,729,-18.6661,3.65828
-518,295,-18.6738,-4.22137,0.000824728,-0.0013502,0.000893832,0.00114493,-0.0016704,0.343988,0.00163484,0.0108864,706,729,-18.6739,4.22137
-511,295,-18.6831,-4.78436,0.000949418,-0.00197551,0.001187,0.00137051,-0.0023966,0.340901,0.00220167,0.00879289,713,729,-18.6831,4.78436
-504,295,-18.7065,-5.33447,0.00103921,-0.00253502,0.00150868,0.00159087,-0.00308669,0.350559,0.00274624,0.0104837,720,729,-18.7065,5.33447
-497,295,-18.7728,-5.81683,0.00127926,-0.00298971,0.00174033,0.00189883,-0.00360927,0.342012,0.00323081,0.0220038,727,729,-18.7728,5.81684
-490,295,-18.8329,-6.27759,0,0,0,0,0,0,0,-1,734,729,-18.8329,6.2776
-483,295,-6.84503,-0.454651,0,0,0,0,0,0,0,-1,741,729,-6.84505,0.454639
-476,295,-13.1738,-0.836243,0,0,0,0,0,0,0,-1,748,729,-13.1738,0.836223
-469,295,-26.5608,-0.466187,0,0,0,0,0,0,0,-1,755,729,-26.5608,0.466162
-462,295,-29.7701,-0.792664,0,0,0,0,0,0,0,-1,762,729,-29.7701,0.792642
-455,295,-37.14,-1.6676,0,0,0,0,0,0,0,-1,769,729,-37.14,1.66761
-448,295,-37.1309,-1.22095,0,0,0,0,0,0,0,-1,776,729,-37.1308,1.22097
-441,295,-37.28,-1.02405,0,0,0,0,0,0,0,-1,783,729,-37.28,1.02408
-434,295,-37.5234,-0.676086,0,0,0,0,0,0,0,-1,790,729,-37.5234,0.676077
-427,295,0,0,0,0,0,0,0,0,0,-1,797,729,0,0
-420,295,0,0,0,0,0,0,0,0,0,-1,804,729,0,0
-413,295,0,0,0,0,0,0,0,0,0,-1,811,729,0,0
-406,295,0,0,0,0,0,0,0,0,0,-1,818,729,0,0
-399,295,0,0,0,0,0,0,0,0,0,-1,825,729,0,0
-392,295,0,0,0,0,0,0,0,0,0,-1,832,729,0,0
-385,295,0,0,0,0,0,0,0,0,0,-1,839,729,0,0
-378,295,0,0,0,0,0,0,0,0,0,-1,846,729,0,0
-371,295,0,0,0,0,0,0,0,0,0,-1,853,729,0,0
-364,295,0,0,0,0,0,0,0,0,0,-1,860,729,0,0
-357,295,0,0,0,0,0,0,0,0,0,-1,867,729,0,0
-350,295,0,0,0,0,0,0,0,0,0,-1,874,729,0,0
-343,295,0,0,0,0,0,0,0,0,0,-1,881,729,0,0
-336,295,0,0,0,0,0,0,0,0,0,-1,888,729,0,0
-329,295,0,0,0,0,0,0,0,0,0,-1,895,729,0,0
-322,295,0,0,0,0,0,0,0,0,0,-1,902,729,0,0
-315,295,0,0,0,0,0,0,0,0,0,-1,909,729,0,0
-308,295,0,0,0,0,0,0,0,0,0,-1,916,729,0,0
-301,295,0,0,0,0,0,0,0,0,0,-1,923,729,0,0
-294,295,0,0,0,0,0,0,0,0,0,-1,930,729,0,0
-287,295,0,0,0,0,0,0,0,0,0,-1,937,729,0,0
-280,295,0,0,0,0,0,0,0,0,0,-1,944,729,0,0
-273,295,0,0,0,0,0,0,0,0,0,-1,951,729,0,0
-266,295,0,0,0,0,0,0,0,0,0,-1,958,729,0,0
-259,295,0,0,0,0,0,0,0,0,0,-1,965,729,0,0
-252,295,0,0,0,0,0,0,0,0,0,-1,972,729,0,0
-245,295,0,0,0,0,0,0,0,0,0,-1,979,729,0,0
-238,295,0,0,0,0,0,0,0,0,0,-1,986,729,0,0
-231,295,0,0,0,0,0,0,0,0,0,-1,993,729,0,0
-224,295,0,0,0,0,0,0,0,0,0,-1,1000,729,0,0
-217,295,0,0,0,0,0,0,0,0,0,-1,1007,729,0,0
-210,295,0,0,0,0,0,0,0,0,0,-1,1014,729,0,0
-203,295,0,0,0,0,0,0,0,0,0,-1,1021,729,0,0
-196,295,0,0,0,0,0,0,0,0,0,-1,1028,729,0,0
-189,295,0,0,0,0,0,0,0,0,0,-1,1035,729,0,0
-182,295,0,0,0,0,0,0,0,0,0,-1,1042,729,0,0
-175,295,0,0,0,0,0,0,0,0,0,-1,1049,729,0,0
-168,295,0,0,0,0,0,0,0,0,0,-1,1056,729,0,0
-161,295,0,0,0,0,0,0,0,0,0,-1,1063,729,0,0
-154,295,0,0,0,0,0,0,0,0,0,-1,1070,729,0,0
-147,295,0,0,0,0,0,0,0,0,0,-1,1077,729,0,0
-140,295,0,0,0,0,0,0,0,0,0,-1,1084,729,0,0
-133,295,0,0,0,0,0,0,0,0,0,-1,1091,729,0,0
-126,295,0,0,0,0,0,0,0,0,0,-1,1098,729,0,0
-119,295,0,0,0,0,0,0,0,0,0,-1,1105,729,0,0
-112,295,0,0,0,0,0,0,0,0,0,-1,1112,729,0,0
-105,295,0,0,0,0,0,0,0,0,0,-1,1119,729,0,0
-98,295,0,0,0,0,0,0,0,0,0,-1,1126,729,0,0
-91,295,0,0,0,0,0,0,0,0,0,-1,1133,729,0,0
-84,295,0,0,0,0,0,0,0,0,0,-1,1140,729,0,0
-77,295,0,0,0,0,0,0,0,0,0,-1,1147,729,0,0
-70,295,0,0,0,0,0,0,0,0,0,-1,1154,729,0,0
-63,295,0,0,0,0,0,0,0,0,0,-1,1161,729,0,0
-56,295,0,0,0,0,0,0,0,0,0,-1,1168,729,0,0
-49,295,0,0,0,0,0,0,0,0,0,-1,1175,729,0,0
-42,295,0,0,0,0,0,0,0,0,0,-1,1182,729,0,0
-35,295,0,0,0,0,0,0,0,0,0,-1,1189,729,0,0
-28,295,0,0,0,0,0,0,0,0,0,-1,1196,729,0,0
-21,295,0,0,0,0,0,0,0,0,0,-1,1203,729,0,0
-14,295,0,0,0,0,0,0,0,0,0,-1,1210,729,0,0
-7,295,0,0,0,0,0,0,0,0,0,-1,1217,729,0,0
0,295,0,0,0,0,0,0,0,0,0,-1,1224,729,0,0
7,295,0,0,0,0,0,0,0,0,0,-1,1231,729,0,0
14,295,0,0,0,0,0,0,0,0,0,-1,1238,729,0,0
21,295,0,0,0,0,0,0,0,0,0,-1,1245,729,0,0
28,295,0,0,0,0,0,0,0,0,0,-1,1252,729,0,0
35,295,0,0,0,0,0,0,0,0,0,-1,1259,729,0,0
42,295,0,0,0,0,0,0,0,0,0,-1,1266,729,0,0
49,295,0,0,0,0,0,0,0,0,0,-1,1273,729,0,0
56,295,0,0,0,0,0,0,0,0,0,-1,1280,729,0,0
63,295,0,0,0,0,0,0,0,0,0,-1,1287,729,0,0
70,295,0,0,0,0,0,0,0,0,0,-1,1294,729,0,0
77,295,0,0,0,0,0,0,0,0,0,-1,1301,729,0,0
84,295,0,0,0,0,0,0,0,0,0,-1,1308,729,0,0
91,295,0,0,0,0,0,0,0,0,0,-1,1315,729,0,0
98,295,0,0,0,0,0,0,0,0,0,-1,1322,729,0,0
105,295,0,0,0,0,0,0,0,0,0,-1,1329,729,0,0
112,295,0,0,0,0,0,0,0,0,0,-1,1336,729,0,0
119,295,0,0,0,0,0,0,0,0,0,-1,1343,729,0,0
126,295,0,0,0,0,0,0,0,0,0,-1,1350,729,0,0
133,295,0,0,0,0,0,0,0,0,0,-1,1357,729,0,0
140,295,0,0,0,0,0,0,0,0,0,-1,1364,729,0,0
147,295,0,0,0,0,0,0,0,0,0,-1,1371,729,0,0
154,295,0,0,0,0,0,0,0,0,0,-1,1378,729,0,0
161,295,0,0,0,0,0,0,0,0,0,-1,1385,729,0,0
168,295,0,0,0,0,0,0,0,0,0,-1,1392,729,0,0
175,295,0,0,0,0,0,0,0,0,0,-1,1399,729,0,0
182,295,0,0,0,0,0,0,0,0,0,-1,1406,729,0,0
189,295,0,0,0,0,0,0,0,0,0,-1,1413,729,0,0
196,295,0,0,0,0,0,0,0,0,0,-1,1420,729,0,0
203,295,0,0,0,0,0,0,0,0,0,-1,1427,729,0,0
210,295,0,0,0,0,0,0,0,0,0,-1,1434,729,0,0
217,295,0,0,0,0,0,0,0,0,0,-1,1441,729,0,0
224,295,0,0,0,0,0,0,0,0,0,-1,1448,729,0,0
231,295,0,0,0,0,0,0,0,0,0,-1,1455,729,0,0
238,295,0,0,0,0,0,0,0,0,0,-1,1462,729,0,0
245,295,0,0,0,0,0,0,0,0,0,-1,1469,729,0,0
252,295,0,0,0,0,0,0,0,0,0,-1,1476,729,0,0
259,295,0,0,0,0,0,0,0,0,0,-1,1483,729,0,0
266,295,0,0,0,0,0,0,0,0,0,-1,1490,729,0,0
273,295,0,0,0,0,0,0,0,0,0,-1,1497,729,0,0
280,295,0,0,0,0,0,0,0,0,0,-1,1504,729,0,0
287,295,0,0,0,0,0,0,0,0,0,-1,1511,729,0,0
294,295,0,0,0,0,0,0,0,0,0,-1,1518,729,0,0
301,295,0,0,0,0,0,0,0,0,0,-1,1525,729,0,0
308,295,0,0,0,0,0,0,0,0,0,-1,1532,729,0,0
315,295,0,0,0,0,0,0,0,0,0,-1,1539,729,0,0
322,295,0,0,0,0,0,0,0,0,0,-1,1546,729,0,0
329,295,0,0,0,0,0,0,0,0,0,-1,1553,729,0,0
336,295,0,0,0,0,0,0,0,0,0,-1,1560,729,0,0
343,295,0,0,0,0,0,0,0,0,0,-1,1567,729,0,0
350,295,0,0,0,0,0,0,0,0,0,-1,1574,729,0,0
357,295,0,0,0,0,0,0,0,0,0,-1,1581,729,0,0
364,295,0,0,0,0,0,0,0,0,0,-1,1588,729,0,0
371,295,0,0,0,0,0,0,0,0,0,-1,1595,729,0,0
378,295,0,0,0,0,0,0,0,0,0,-1,1602,729,0,0
385,295,0,0,0,0,0,0,0,0,0,-1,1609,729,0,0
392,295,0,0,0,0,0,0,0,0,0,-1,1616,729,0,0
399,295,0,0,0,0,0,0,0,0,0,-1,1623,729,0,0
406,295,0,0,0,0,0,0,0,0,0,-1,1630,729,0,0
413,295,0,0,0,0,0,0,0,0,0,-1,1637,729,0,0
420,295,0,0,0,0,0,0,0,0,0,-1,1644,729,0,0
427,295,0,0,0,0,0,0,0,0,0,-1,1651,729,0,0
434,295,0,0,0,0,0,0,0,0,0,-1,1658,729,0,0
441,295,0,0,0,0,0,0,0,0,0,-1,1665,729,0,0
448,295,0,0,0,0,0,0,0,0,0,-1,1672,729,0,0
455,295,0,0,0,0,0,0,0,0,0,-1,1679,729,0,0
462,295,0,0,0,0,0,0,0,0,0,-1,1686,729,0,0
469,295,0,0,0,0,0,0,0,0,0,-1,1693,729,0,0
476,295,0,0,0,0,0,0,0,0,0,-1,1700,729,0,0
483,295,0,0,0,0,0,0,0,0,0,-1,1707,729,0,0
490,295,0,0,0,0,0,0,0,0,0,-1,1714,729,0,0
497,295,0,0,0,0,0,0,0,0,0,-1,1721,729,0,0
504,295,0,0,0,0,0,0,0,0,0,-1,1728,729,0,0
511,295,0,0,0,0,0,0,0,0,0,-1,1735,729,0,0
518,295,0,0,0,0,0,0,0,0,0,-1,1742,729,0,0
525,295,0,0,0,0,0,0,0,0,0,-1,1749,729,0,0
532,295,0,0,0,0,0,0,0,0,0,-1,1756,729,0,0
539,295,0,0,0,0,0,0,0,0,0,-1,1763,729,0,0
546,295,45.0194,2.68616,0,0,0,0,0,0,0,-1,1770,729,45.0194,-2.68618
553,295,46.0332,3.89307,0,0,0,0,0,0,0,-1,1777,729,46.0332,-3.89309
560,295,45.798,3.54865,0,0,0,0,0,0,0,-1,1784,729,45.798,-3.54862
567,295,46.2061,3.48181,0,0,0,0,0,0,0,-1,1791,729,46.2061,-3.48179
574,295,46.6141,3.41498,0,0,0,0,0,0,0,-1,1798,729,46.6141,-3.41496
581,295,37.8191,2.19592,0,0,0,0,0,0,0,-1,1805,729,37.8191,-2.19594
588,295,39.0542,2.45679,0,0,0,0,0,0,0,-1,1812,729,39.0542,-2.45676
595,295,27.2102,6.99121,0,0,0,0,0,0,0,-1,1819,729,27.2103,-6.99121
602,295,26.9065,7.82141,0,0,0,0,0,0,0,-1,1826,729,26.9064,-7.8214
609,295,11.7737,2.19989,0,0,0,0,0,0,0,-1,1833,729,11.7736,-2.19988
616,295,29.3096,-4.763,0,0,0,0,0,0,0,-1,1840,729,29.3096,4.76298
623,295,29.3359,-4.24841,-0.00474125,0.00451566,0.0043928,0.00626837,-0.00649396,1.19116,0.00736872,0.03101,1847,729,29.3359,4.24842
630,295,29.2659,-3.62036,-0.00408701,0.00173344,0.00414008,0.00388382,-0.00623739,1.09175,0.00589591,0.0130668,1854,729,29.2659,3.62038
637,295,29.2479,-3.0329,-0.00278884,0.000173636,0.00344713,0.0024443,-0.0050595,0.988321,0.00441916,0.0143354,1861,729,29.248,3.03288
644,295,29.2589,-2.44446,-0.00159534,2.82395e-05,0.00218381,0.00154627,-0.00311337,0.963349,0.00274049,0.0132304,1868,729,29.259,2.44448
651,295,29.2552,-1.83319,-0.000725764,0.000199175,0.00112478,0.000952852,-0.00147944,0.980445,0.00141521,0.0126924,1875,729,29.2553,1.83317
658,295,29.2177,-1.25092,-0.000693873,0.000458604,0.00052198,0.000659871,-0.000895139,1.20278,0.000901204,0.011657,1882,729,29.2176,1.25094
665,295,29.1835,-0.682312,-0.0014683,0.00107404,0.00035497,0.00112267,-0.00151693,1.43464,0.00152963,0.0112286,1889,729,29.1835,0.682288
672,295,29.151,-0.10437,-0.00246775,0.00190202,0.000357672,0.0019311,-0.00249684,1.48966,0.00256342,0.0136673,1896,729,29.151,0.104346
679,295,29.1208,0.512634,-0.00347531,0.00286542,0.000442669,0.00289617,-0.00350606,1.50143,0.00370192,0.0108854,1903,729,29.1208,-0.512641
686,295,29.1415,1.09204,-0.00444701,0.00408144,0.000662434,0.00413258,-0.00449816,1.49374,0.00498445,0.0113712,1910,729,29.1414,-1.09203
693,295,29.0792,1.69861,-0.0052623,0.00545347,0.00107574,0.00556039,-0.00536923,1.47172,0.00631054,0.0478878,1917,729,29.0793,-1.69863
700,295,29.0846,2.31378,0,0,0,0,0,0,0,-1,1924,729,29.0846,-2.31379
707,295,22.2661,3.05206,0,0,0,0,0,0,0,-1,1931,729,22.2662,-3.05207
714,295,17.4906,4.63068,0,0,0,0,0,0,0,-1,1938,729,17.4906,-4.63066
721,295,18.3792,5.32281,0,0,0,0,0,0,0,-1,1945,729,18.3791,-5.32283
728,295,17.379,3.74866,0,0,0,0,0,0,0,-1,1952,729,17.379,-3.74863
735,295,0,0,0,0,0,0,0,0,0,-1,1959,729,0,0
742,295,0,0,0,0,0,0,0,0,0,-1,1966,729,0,0
749,295,0,0,0,0,0,0,0,0,0,-1,1973,729,0,0
756,295,0,0,0,0,0,0,0,0,0,-1,1980,729,0,0
763,295,0,0,0,0,0,0,0,0,0,-1,1987,729,0,0
770,295,0,0,0,0,0,0,0,0,0,-1,1994,729,0,0
777,295,0,0,0,0,0,0,0,0,0,-1,2001,729,0,0
784,295,0,0,0,0,0,0,0,0,0,-1,2008,729,0,0
791,295,0,0,0,0,0,0,0,0,0,-1,2015,729,0,0
798,295,0,0,0,0,0,0,0,0,0,-1,2022,729,0,0
805,295,0,0,0,0,0,0,0,0,0,-1,2029,729,0,0
812,295,0,0,0,0,0,0,0,0,0,-1,2036,729,0,0
-700,288,0,0,0,0,0,0,0,0,0,-1,524,736,0,0
-693,288,0,0,0,0,0,0,0,0,0,-1,531,736,0,0
-686,288,0,0,0,0,0,0,0,0,0,-1,538,736,0,0
-679,288,0,0,0,0,0,0,0,0,0,-1,545,736,0,0
-672,288,0,0,0,0,0,0,0,0,0,-1,552,736,0,0
-665,288,0,0,0,0,0,0,0,0,0,-1,559,736,0,0
-658,288,0,0,0,0,0,0,0,0,0,-1,566,736,0,0
-651,288,0,0,0,0,0,0,0,0,0,-1,573,736,0,0
-644,288,0,0,0,0,0,0,0,0,0,-1,580,736,0,0
-637,288,0,0,0,0,0,0,0,0,0,-1,587,736,0,0
-630,288,0,0,0,0,0,0,0,0,0,-1,594,736,0,0
-623,288,0,0,0,0,0,0,0,0,0,-1,601,736,0,0
-616,288,-11.7584,2.4425,0,0,0,0,0,0,0,-1,608,736,-11.7584,-2.44251
-609,288,-10.3007,2.32178,0,0,0,0,0,0,0,-1,615,736,-10.3007,-2.32178
-602,288,-10.1458,-1.85559,0,0,0,0,0,0,0,-1,622,736,-10.1458,1.85556
-595,288,-7.63208,1.81769,0,0,0,0,0,0,0,-1,629,736,-7.63205,-1.81766
-588,288,-8.19269,1.50598,0,0,0,0,0,0,0,-1,636,736,-8.19268,-1.50601
-581,288,-13.1915,0.659241,0,0,0,0,0,0,0,-1,643,736,-13.1915,-0.659228
-574,288,-18.7243,0.320251,0,0,0,0,0,0,0,-1,650,736,-18.7243,-0.320263
-567,288,-18.8879,-0.262634,0.00103747,0.00494706,-0.0024966,0.00616311,-0.000178579,-1.11754,0.00416954,0.0382301,657,736,-18.8879,0.262644
-560,288,-19.1466,-0.871155,0.000557117,0.00349422,-0.00154397,0.00415651,-0.000105174,-1.16558,0.00280672,0.0175345,664,736,-19.1466,0.871157
-553,288,-19.1496,-1.38098,0.000344143,0.00234367,-0.00085601,0.00266006,2.77442e-05,-1.21675,0.0017642,0.0184527,671,736,-19.1496,1.38099
-546,288,-19.19,-1.95264,0.000257505,0.00126167,-0.000284027,0.00133644,0.000182735,-1.31339,0.000836724,0.0198191,678,736,-19.19,1.95262
-539,288,-19.2175,-2.51434,0.000288425,0.00033051,0.000191713,0.000502332,0.000116603,0.84006,0.000303579,0.0172709,685,736,-19.2175,2.51433
-532,288,-19.1879,-3.07245,0.000203179,-0.000811675,0.000707447,0.000566363,-0.00117486,0.474288,0.00102555,0.0143096,692,736,-19.1879,3.07246
-525,288,-19.1931,-3.62219,0.000402273,-0.0018203,0.00110603,0.000858868,-0.00227689,0.391513,0.00187112,0.0127327,699,736,-19.1931,3.62222
-518,288,-19.2424,-4.18604,0.000823384,-0.00290891,0.0014851,0.0013422,-0.00342772,0.336091,0.0028403,0.0113207,706,736,-19.2424,4.18602
-511,288,-19.2748,-4.75201,0.00122296,-0.00417869,0.00195574,0.0018567,-0.00481244,0.313368,0.00397448,0.00859403,713,736,-19.2748,4.75199
-504,288,-19.2844,-5.29352,0.0018158,-0.00562349,0.00250761,0.00258212,-0.00638981,0.296584,0.00533317,0.010544,720,736,-19.2843,5.29351
-497,288,-19.3048,-5.65582,0.00286353,-0.0072418,0.00306439,0.00372017,-0.00809844,0.272589,0.00697781,0.0322804,727,736,-19.3048,5.6558
-490,288,-19.2278,-5.96698,0,0,0,0,0,0,0,-1,734,736,-19.2278,5.96695
-483,288,-17.3287,0.564758,0,0,0,0,0,0,0,-1,741,736,-17.3287,-0.56477
-476,288,-26.136,0.452148,0,0,0,0,0,0,0,-1,748,736,-26.136,-0.452177
-469,288,-27.7904,0.649841,0,0,0,0,0,0,0,-1,755,736,-27.7904,-0.649854
-462,288,-34.9476,1.23218,0,0,0,0,0,0,0,-1,762,736,-34.9476,-1.23219
-455,288,-35.3354,0.743347,0,0,0,0,0,0,0,-1,769,736,-35.3354,-0.743378
-448,288,-36.1013,0.106995,0,0,0,0,0,0,0,-1,776,736,-36.1013,-0.106975
-441,288,-36.4864,-0.569519,0,0,0,0,0,0,0,-1,783,736,-36.4864,0.569532
-434,288,-36.2269,-0.579102,0,0,0,0,0,0,0,-1,790,736,-36.2268,0.579116
-427,288,0,0,0,0,0,0,0,0,0,-1,797,736,0,0
-420,288,0,0,0,0,0,0,0,0,0,-1,804,736,0,0
-413,288,0,0,0,0,0,0,0,0,0,-1,811,736,0,0
-406,288,0,0,0,0,0,0,0,0,0,-1,818,736,0,0
-399,288,0,0,0,0,0,0,0,0,0,-1,825,736,0,0
-392,288,0,0,0,0,0,0,0,0,0,-1,832,736,0,0
-385,288,0,0,0,0,0,0,0,0,0,-1,839,736,0,0
-378,288,0,0,0,0,0,0,0,0,0,-1,846,736,0,0
-371,288,0,0,0,0,0,0,0,0,0,-1,853,736,0,0
-364,288,0,0,0,0,0,0,0,0,0,-1,860,736,0,0
-357,288,0,0,0,0,0,0,0,0,0,-1,867,736,0,0
-350,288,0,0,0,0,0,0,0,0,0,-1,874,736,0,0
-343,288,0,0,0,0,0,0,0,0,0,-1,881,736,0,0
-336,288,0,0,0,0,0,0,0,0,0,-1,888,736,0,0
-329,288,0,0,0,0,0,0,0,0,0,-1,895,736,0,0
-322,288,0,0,0,0,0,0,0,0,0,-1,902,736,0,0
-315,288,0,0,0,0,0,0,0,0,0,-1,909,736,0,0
-308,288,0,0,0,0,0,0,0,0,0,-1,916,736,0,0
-301,288,0,0,0,0,0,0,0,0,0,-1,923,736,0,0
-294,288,0,0,0,0,0,0,0,0,0,-1,930,736,0,0
-287,288,0,0,0,0,0,0,0,0,0,-1,937,736,0,0
-280,288,0,0,0,0,0,0,0,0,0,-1,944,736,0,0
-273,288,0,0,0,0,0,0,0,0,0,-1,951,736,0,0
-266,288,0,0,0,0,0,0,0,0,0,-1,958,736,0,0
-259,288,0,0,0,0,0,0,0,0,0,-1,965,736,0,0
-252,288,0,0,0,0,0,0,0,0,0,-1,972,736,0,0
-245,288,0,0,0,0,0,0,0,0,0,-1,979,736,0,0
-238,288,0,0,0,0,0,0,0,0,0,-1,986,736,0,0
-231,288,0,0,0,0,0,0,0,0,0,-1,993,736,0,0
-224,288,0,0,0,0,0,0,0,0,0,-1,1000,736,0,0
-217,288,0,0,0,0,0,0,0,0,0,-1,1007,736,0,0
-210,288,0,0,0,0,0,0,0,0,0,-1,1014,736,0,0
-203,288,0,0,0,0,0,0,0,0,0,-1,1021,736,0,0
-196,288,0,0,0,0,0,0,0,0,0,-1,1028,736,0,0
-189,288,0,0,0,0,0,0,0,0,0,-1,1035,736,0,0
-182,288,0,0,0,0,0,0,0,0,0,-1,1042,736,0,0
-175,288,0,0,0,0,0,0,0,0,0,-1,1049,736,0,0
-168,288,0,0,0,0,0,0,0,0,0,-1,1056,736,0,0
-161,288,0,0,0,0,0,0,0,0,0,-1,1063,736,0,0
-154,288,0,0,0,0,0,0,0,0,0,-1,1070,736,0,0
-147,288,0,0,0,0,0,0,0,0,0,-1,1077,736,0,0
-140,288,0,0,0,0,0,0,0,0,0,-1,1084,736,0,0
-133,288,0,0,0,0,0,0,0,0,0,-1,1091,736,0,0
-126,288,0,0,0,0,0,0,0,0,0,-1,1098,736,0,0
-119,288,0,0,0,0,0,0,0,0,0,-1,1105,736,0,0
-112,288,0,0,0,0,0,0,0,0,0,-1,1112,736,0,0
-105,288,0,0,0,0,0,0,0,0,0,-1,1119,736,0,0
-98,288,0,0,0,0,0,0,0,0,0,-1,1126,736,0,0
-91,288,0,0,0,0,0,0,0,0,0,-1,1133,736,0,0
-84,288,0,0,0,0,0,0,0,0,0,-1,1140,736,0,0
-77,288,0,0,0,0,0,0,0,0,0,-1,1147,736,0,0
-70,288,0,0,0,0,0,0,0,0,0,-1,1154,736,0,0
-63,288,0,0,0,0,0,0,0,0,0,-1,1161,736,0,0
-56,288,0,0,0,0,0,0,0,0,0,-1,1168,736,0,0
-49,288,0,0,0,0,0,0,0,0,0,-1,1175,736,0,0
-42,288,0,0,0,0,0,0,0,0,0,-1,1182,736,0,0
-35,288,0,0,0,0,0,0,0,0,0,-1,1189,736,0,0
-28,288,0,0,0,0,0,0,0,0,0,-1,1196,736,0,0
-21,288,0,0,0,0,0,0,0,0,0,-1,1203,736,0,0
-14,288,0,0,0,0,0,0,0,0,0,-1,1210,736,0,0
-7,288,0,0,0,0,0,0,0,0,0,-1,1217,736,0,0
0,288,0,0,0,0,0,0,0,0,0,-1,1224,736,0,0
7,288,0,0,0,0,0,0,0,0,0,-1,1231,736,0,0
14,288,0,0,0,0,0,0,0,0,0,-1,1238,736,0,0
21,288,0,0,0,0,0,0,0,0,0,-1,1245,736,0,0
28,288,0,0,0,0,0,0,0,0,0,-1,1252,736,0,0
35,288,0,0,0,0,0,0,0,0,0,-1,1259,736,0,0
42,288,0,0,0,0,0,0,0,0,0,-1,1266,736,0,0
49,288,0,0,0,0,0,0,0,0,0,-1,1273,736,0,0
56,288,0,0,0,0,0,0,0,0,0,-1,1280,736,0,0
63,288,0,0,0,0,0,0,0,0,0,-1,1287,736,0,0
70,288,0,0,0,0,0,0,0,0,0,-1,1294,736,0,0
77,288,0,0,0,0,0,0,0,0,0,-1,1301,736,0,0
84,288,0,0,0,0,0,0,0,0,0,-1,1308,736,0,0
91,288,0,0,0,0,0,0,0,0,0,-1,1315,736,0,0
98,288,0,0,0,0,0,0,0,0,0,-1,1322,736,0,0
105,288,0,0,0,0,0,0,0,0,0,-1,1329,736,0,0
112,288,0,0,0,0,0,0,0,0,0,-1,1336,736,0,0
119,288,0,0,0,0,0,0,0,0,0,-1,1343,736,0,0
126,288,0,0,0,0,0,0,0,0,0,-1,1350,736,0,0
133,288,0,0,0,0,0,0,0,0,0,-1,1357,736,0,0
140,288,0,0,0,0,0,0,0,0,0,-1,1364,736,0,0
147,288,0,0,0,0,0,0,0,0,0,-1,1371,736,0,0
154,288,0,0,0,0,0,0,0,0,0,-1,1378,736,0,0
161,288,0,0,0,0,0,0,0,0,0,-1,1385,736,0,0
168,288,0,0,0,0,0,0,0,0,0,-1,1392,736,0,0
175,288,0,0,0,0,0,0,0,0,0,-1,1399,736,0,0
182,288,0,0,0,0,0,0,0,0,0,-1,1406,736,0,0
189,288,0,0,0,0,0,0,0,0,0,-1,1413,736,0,0
196,288,0,0,0,0,0,0,0,0,0,-1,1420,736,0,0
203,288,0,0,0,0,0,0,0,0,0,-1,1427,736,0,0
210,288,0,0,0,0,0,0,0,0,0,-1,1434,736,0,0
217,288,0,0,0,0,0,0,0,0,0,-1,1441,736,0,0
224,288,0,0,0,0,0,0,0,0,0,-1,1448,736,0,0
231,288,0,0,0,0,0,0,0,0,0,-1,1455,736,0,0
238,288,0,0,0,0,0,0,0,0,0,-1,1462,736,0,0
245,288,0,0,0,0,0,0,0,0,0,-1,1469,736,0,0
252,288,0,0,0,0,0,0,0,0,0,-1,1476,736,0,0
259,288,0,0,0,0,0,0,0,0,0,-1,1483,736,0,0
266,288,0,0,0,0,0,0,0,0,0,-1,1490,736,0,0
273,288,0,0,0,0,0,0,0,0,0,-1,1497,736,0,0
280,288,0,0,0,0,0,0,0,0,0,-1,1504,736,0,0
287,288,0,0,0,0,0,0,0,0,0,-1,1511,736,0,0
294,288,0,0,0,0,0,0,0,0,0,-1,1518,736,0,0
301,288,0,0,0,0,0,0,0,0,0,-1,1525,736,0,0
308,288,0,0,0,0,0,0,0,0,0,-1,1532,736,0,0
315,288,0,0,0,0,0,0,0,0,0,-1,1539,736,0,0
322,288,0,0,0,0,0,0,0,0,0,-1,1546,736,0,0
329,288,0,0,0,0,0,0,0,0,0,-1,1553,736,0,0
336,288,0,0,0,0,0,0,0,0,0,-1,1560,736,0,0
343,288,0,0,0,0,0,0,0,0,0,-1,1567,736,0,0
350,288,0,0,0,0,0,0,0,0,0,-1,1574,736,0,0
357,288,0,0,0,0,0,0,0,0,0,-1,1581,736,0,0
364,288,0,0,0,0,0,0,0,0,0,-1,1588,736,0,0
371,288,0,0,0,0,0,0,0,0,0,-1,1595,736,0,0
378,288,0,0,0,0,0,0,0,0,0,-1,1602,736,0,0
385,288,0,0,0,0,0,0,0,0,0,-1,1609,736,0,0
392,288,0,0,0,0,0,0,0,0,0,-1,1616,736,0,0
399,288,0,0,0,0,0,0,0,0,0,-1,1623,736,0,0
406,288,0,0,0,0,0,0,0,0,0,-1,1630,736,0,0
413,288,0,0,0,0,0,0,0,0,0,-1,1637,736,0,0
420,288,0,0,0,0,0,0,0,0,0,-1,1644,736,0,0
427,288,0,0,0,0,0,0,0,0,0,-1,1651,736,0,0
434,288,0,0,0,0,0,0,0,0,0,-1,1658,736,0,0
441,288,0,0,0,0,0,0,0,0,0,-1,1665,736,0,0
448,288,0,0,0,0,0,0,0,0,0,-1,1672,736,0,0
455,288,0,0,0,0,0,0,0,0,0,-1,1679,736,0,0
462,288,0,0,0,0,0,0,0,0,0,-1,1686,736,0,0
469,288,0,0,0,0,0,0,0,0,0,-1,1693,736,0,0
476,288,0,0,0,0,0,0,0,0,0,-1,1700,736,0,0
483,288,0,0,0,0,0,0,0,0,0,-1,1707,736,0,0
490,288,0,0,0,0,0,0,0,0,0,-1,1714,736,0,0
497,288,0,0,0,0,0,0,0,0,0,-1,1721,736,0,0
504,288,0,0,0,0,0,0,0,0,0,-1,1728,736,0,0
511,288,0,0,0,0,0,0,0,0,0,-1,1735,736,0,0
518,288,0,0,0,0,0,0,0,0,0,-1,1742,736,0,0
525,288,0,0,0,0,0,0,0,0,0,-1,1749,736,0,0
532,288,0,0,0,0,0,0,0,0,0,-1,1756,736,0,0
539,288,0,0,0,0,0,0,0,0,0,-1,1763,736,0,0
546,288,0,0,0,0,0,0,0,0,0,-1,1770,736,0,0
553,288,45.5173,3.92145,0,0,0,0,0,0,0,-1,1777,736,45.5173,-3.92142
560,288,46.1786,3.58759,0,0,0,0,0,0,0,-1,1784,736,46.1786,-3.58758
567,288,46.66,3.48956,0,0,0,0,0,0,0,-1,1791,736,46.66,-3.48958
574,288,47.1772,4.32947,0,0,0,0,0,0,0,-1,1798,736,47.1772,-4.32948
581,288,47.3435,4.13599,0,0,0,0,0,0,0,-1,1805,736,47.3435,-4.13596
588,288,45.3058,4.14844,0,0,0,0,0,0,0,-1,1812,736,45.3057,-4.14844
595,288,47.035,3.35156,0,0,0,0,0,0,0,-1,1819,736,47.035,-3.35157
602,288,26.7634,7.61279,0,0,0,0,0,0,0,-1,1826,736,26.7635,-7.61279
609,288,17.5223,4.86414,0,0,0,0,0,0,0,-1,1833,736,17.5223,-4.86412
616,288,13.4886,0.801331,0,0,0,0,0,0,0,-1,1840,736,13.4886,-0.80132
623,288,29.9336,-4.30695,0,0,0,0,0,0,0,-1,1847,736,29.9336,4.30697
630,288,29.8378,-3.61243,-0.00534719,0.00209448,0.00505944,0.00465397,-0.00790669,1.10245,0.00733251,0.0262501,1854,736,29.8377,3.61243
637,288,29.86,-3.01343,-0.00392373,0.000396363,0.00443291,0.00316749,-0.00669486,1.01211,0.00581416,0.0117574,1861,736,29.86,3.01346
644,288,29.8484,-2.41382,-0.00225267,0.000135703,0.00297612,0.00214829,-0.00426525,0.976192,0.0037695,0.0102945,1868,736,29.8484,2.41384
651,288,29.822,-1.81219,-0.000708623,0.000159837,0.00160392,0.00138727,-0.00193606,0.917594,0.00192743,0.0111707,1875,736,29.822,1.81219
658,288,29.7694,-1.21198,-6.84157e-05,0.000200286,0.000778361,0.000855806,-0.000723936,0.87086,0.000913123,0.0162814,1882,736,29.7694,1.212
665,288,29.7653,-0.629639,-0.000529132,0.000818004,0.00055329,0.00101611,-0.000727243,1.22696,0.00101112,0.0172681,1889,736,29.7653,0.629634
672,288,29.7552,-0.0721436,-0.00131982,0.00166855,0.00059957,0.00178436,-0.00143563,1.38,0.00186269,0.0169079,1896,736,29.7552,0.0721608
679,288,29.7296,0.548096,-0.0020268,0.00260298,0.000754614,0.00272287,-0.00214669,1.41324,0.002818,0.0143102,1903,736,29.7297,-0.5481
686,288,29.6975,1.08514,-0.00265223,0.00375952,0.00103415,0.00392219,-0.0028149,1.41478,0.00390713,0.0110832,1910,736,29.6975,-1.08513
693,288,29.6997,1.75818,-0.00302973,0.00503268,0.00151967,0.00530961,-0.00330666,1.39055,0.00501921,0.0220236,1917,736,29.6998,-1.75821
700,288,29.5469,2.55176,-0.00310701,0.00655075,0.00222437,0.00703844,-0.0035947,1.35496,0.00624545,0.0474143,1924,736,29.5468,-2.55177
707,288,29.6097,3.37018,0,0,0,0,0,0,0,-1,1931,736,29.6097,-3.37016
714,288,23.0149,3.82544,0,0,0,0,0,0,0,-1,1938,736,23.0149,-3.82541
721,288,18.0732,3.69385,0,0,0,0,0,0,0,-1,1945,736,18.0732,-3.69387
728,288,19.3208,3.91455,0,0,0,0,0,0,0,-1,1952,736,19.3209,-3.91455
735,288,18.7712,3.51312,0,0,0,0,0,0,0,-1,1959,736,18.7713,-3.51309
742,288,0,0,0,0,0,0,0,0,0,-1,1966,736,0,0
749,288,0,0,0,0,0,0,0,0,0,-1,1973,736,0,0
756,288,0,0,0,0,0,0,0,0,0,-1,1980,736,0,0
763,288,0,0,0,0,0,0,0,0,0,-1,1987,736,0,0
770,288,0,0,0,0,0,0,0,0,0,-1,1994,736,0,0
777,288,0,0,0,0,0,0,0,0,0,-1,2001,736,0,0
784,288,0,0,0,0,0,0,0,0,0,-1,2008,736,0,0
791,288,0,0,0,0,0,0,0,0,0,-1,2015,736,0,0
798,288,0,0,0,0,0,0,0,0,0,-1,2022,736,0,0
805,288,0,0,0,0,0,0,0,0,0,-1,2029,736,0,0
812,288,0,0,0,0,0,0,0,0,0,-1,2036,736,0,0
-700,281,0,0,0,0,0,0,0,0,0,-1,524,743,0,0
-693,281,0,0,0,0,0,0,0,0,0,-1,531,743,0,0
-686,281,0,0,0,0,0,0,0,0,0,-1,538,743,0,0
-679,281,0,0,0,0,0,0,0,0,0,-1,545,743,0,0
-672,281,0,0,0,0,0,0,0,0,0,-1,552,743,0,0
-665,281,0,0,0,0,0,0,0,0,0,-1,559,743,0,0
-658,281,0,0,0,0,0,0,0,0,0,-1,566,743,0,0
-651,281,0,0,0,0,0,0,0,0,0,-1,573,743,0,0
-644,281,0,0,0,0,0,0,0,0,0,-1,580,743,0,0
-637,281,0,0,0,0,0,0,0,0,0,-1,587,743,0,0
-630,281,0,0,0,0,0,0,0,0,0,-1,594,743,0,0
-623,281,-19.1697,5.67017,0,0,0,0,0,0,0,-1,601,743,-19.1697,-5.67019
-616,281,-11.5906,2.6853,0,0,0,0,0,0,0,-1,608,743,-11.5906,-2.68529
-609,281,-16.1972,4.14838,0,0,0,0,0,0,0,-1,615,743,-16.1972,-4.14837
-602,281,-12.7697,3.94086,0,0,0,0,0,0,0,-1,622,743,-12.7697,-3.94086
-595,281,-10.4797,-1.07404,0,0,0,0,0,0,0,-1,629,743,-10.4798,1.07402
-588,281,-13.277,1.49817,0,0,0,0,0,0,0,-1,636,743,-13.2771,-1.49817
-581,281,-19.6963,0.998474,0,0,0,0,0,0,0,-1,643,743,-19.6963,-0.9985
-574,281,-19.4875,0.254089,0.00233097,0.00630633,-0.00410635,0.00888078,-0.000243482,-1.0108,0.00600333,0.0403264,650,743,-19.4875,-0.254064
-567,281,-19.667,-0.261963,0.00137244,0.00462281,-0.00271309,0.00616023,-0.000164985,-1.05525,0.00416291,0.0192745,657,743,-19.667,0.261971
-560,281,-19.7367,-0.823792,0.000719759,0.003136,-0.00163639,0.00396192,-0.00010616,-1.10338,0.00267737,0.00889047,664,743,-19.7367,0.823811
-553,281,-19.7203,-1.39032,0.00035996,0.00190859,-0.000815979,0.00225917,9.38249e-06,-1.165,0.001503,0.013623,671,743,-19.7203,1.3903
-546,281,-19.7239,-1.93066,0.000175715,0.000793491,-0.000144144,0.000825468,0.000143738,-1.35249,0.000509207,0.0158841,678,743,-19.724,1.93069
-539,281,-19.7516,-2.49866,0.000100257,-0.000326431,0.000423712,0.000361305,-0.000587479,0.552171,0.000552945,0.014656,685,743,-19.7516,2.49868
-532,281,-19.7621,-3.02991,-6.61386e-05,-0.00172031,0.000980599,0.000389603,-0.00217605,0.435059,0.00159649,0.0139604,692,743,-19.7621,3.02989
-525,281,-19.7811,-3.58099,0.000115284,-0.00305872,0.00135963,0.000618061,-0.0035615,0.354194,0.00260491,0.0156547,699,743,-19.7811,3.58098
-518,281,-19.8109,-4.16028,0.000526621,-0.0045421,0.00166824,0.0010264,-0.00504188,0.291076,0.0037505,0.0129631,706,743,-19.8109,4.1603
-511,281,-19.8417,-4.73981,0.000936584,-0.00635852,0.00200831,0.00145292,-0.00687485,0.251648,0.0051365,0.0114091,713,743,-19.8417,4.73981
-504,281,-19.883,-5.28815,0.00160581,-0.00843852,0.00232573,0.00211819,-0.0089509,0.216845,0.00678446,0.0152717,720,743,-19.883,5.28815
-497,281,-19.7171,-5.78699,0.00274766,-0.0106952,0.00253906,0.00321124,-0.0111588,0.180593,0.00870921,0.0485238,727,743,-19.7171,5.78697
-490,281,-19.4736,-6.20709,0,0,0,0,0,0,0,-1,734,743,-19.4736,6.20708
-483,281,-22.1078,-2.34973,0,0,0,0,0,0,0,-1,741,743,-22.1078,2.3497
-476,281,-28.0016,2.17786,0,0,0,0,0,0,0,-1,748,743,-28.0016,-2.17786
-469,281,-34.6448,0.171692,0,0,0,0,0,0,0,-1,755,743,-34.6448,-0.171685
-462,281,-34.2302,1.18732,0,0,0,0,0,0,0,-1,762,743,-34.2302,-1.1873
-455,281,-35.0367,0.741882,0,0,0,0,0,0,0,-1,769,743,-35.0367,-0.741898
-448,281,-35.6111,0.471985,0,0,0,0,0,0,0,-1,776,743,-35.6111,-0.47201
-441,281,-35.7243,0.524963,0,0,0,0,0,0,0,-1,783,743,-35.7243,-0.524959
-434,281,0,0,0,0,0,0,0,0,0,-1,790,743,0,0
-427,281,0,0,0,0,0,0,0,0,0,-1,797,743,0,0
-420,281,0,0,0,0,0,0,0,0,0,-1,804,743,0,0
-413,281,0,0,0,0,0,0,0,0,0,-1,811,743,0,0
-406,281,0,0,0,0,0,0,0,0,0,-1,818,743,0,0
-399,281,0,0,0,0,0,0,0,0,0,-1,825,743,0,0
-392,281,0,0,0,0,0,0,0,0,0,-1,832,743,0,0
-385,281,0,0,0,0,0,0,0,0,0,-1,839,743,0,0
-378,281,0,0,0,0,0,0,0,0,0,-1,846,743,0,0
-371,281,0,0,0,0,0,0,0,0,0,-1,853,743,0,0
-364,281,0,0,0,0,0,0,0,0,0,-1,860,743,0,0
-357,281,0,0,0,0,0,0,0,0,0,-1,867,743,0,0
-350,281,0,0,0,0,0,0,0,0,0,-1,874,743,0,0
-343,281,0,0,0,0,0,0,0,0,0,-1,881,743,0,0
-336,281,0,0,0,0,0,0,0,0,0,-1,888,743,0,0
-329,281,0,0,0,0,0,0,0,0,0,-1,895,743,0,0
-322,281,0,0,0,0,0,0,0,0,0,-1,902,743,0,0
-315,281,0,0,0,0,0,0,0,0,0,-1,909,743,0,0
-308,281,0,0,0,0,0,0,0,0,0,-1,916,743,0,0
-301,281,0,0,0,0,0,0,0,0,0,-1,923,743,0,0
-294,281,0,0,0,0,0,0,0,0,0,-1,930,743,0,0
-287,281,0,0,0,0,0,0,0,0,0,-1,937,743,0,0
-280,281,0,0,0,0,0,0,0,0,0,-1,944,743,0,0
-273,281,0,0,0,0,0,0,0,0,0,-1,951,743,0,0
-266,281,0,0,0,0,0,0,0,0,0,-1,958,743,0,0
-259,281,0,0,0,0,0,0,0,0,0,-1,965,743,0,0
-252,281,0,0,0,0,0,0,0,0,0,-1,972,743,0,0
-245,281,0,0,0,0,0,0,0,0,0,-1,979,743,0,0
-238,281,0,0,0,0,0,0,0,0,0,-1,986,743,0,0
-231,281,0,0,0,0,0,0,0,0,0,-1,993,743,0,0
-224,281,0,0,0,0,0,0,0,0,0,-1,1000,743,0,0
-217,281,0,0,0,0,0,0,0,0,0,-1,1007,743,0,0
-210,281,0,0,0,0,0,0,0,0,0,-1,1014,743,0,0
-203,281,0,0,0,0,0,0,0,0,0,-1,1021,743,0,0
-196,281,0,0,0,0,0,0,0,0,0,-1,1028,743,0,0
-189,281,0,0,0,0,0,0,0,0,0,-1,1035,743,0,0
-182,281,0,0,0,0,0,0,0,0,0,-1,1042,743,0,0
-175,281,0,0,0,0,0,0,0,0,0,-1,1049,743,0,0
-168,281,0,0,0,0,0,0,0,0,0,-1,1056,743,0,0
-161,281,0,0,0,0,0,0,0,0,0,-1,1063,743,0,0
-154,281,0,0,0,0,0,0,0,0,0,-1,1070,743,0,0
-147,281,0,0,0,0,0,0,0,0,0,-1,1077,743,0,0
-140,281,0,0,0,0,0,0,0,0,0,-1,1084,743,0,0
-133,281,0,0,0,0,0,0,0,0,0,-1,1091,743,0,0
-126,281,0,0,0,0,0,0,0,0,0,-1,1098,743,0,0
-119,281,0,0,0,0,0,0,0,0,0,-1,1105,743,0,0
-112,281,0,0,0,0,0,0,0,0,0,-1,1112,743,0,0
-105,281,0,0,0,0,0,0,0,0,0,-1,1119,743,0,0
-98,281,0,0,0,0,0,0,0,0,0,-1,1126,743,0,0
-91,281,0,0,0,0,0,0,0,0,0,-1,1133,743,0,0
-84,281,0,0,0,0,0,0,0,0,0,-1,1140,743,0,0
-77,281,0,0,0,0,0,0,0,0,0,-1,1147,743,0,0
-70,281,0,0,0,0,0,0,0,0,0,-1,1154,743,0,0
-63,281,0,0,0,0,0,0,0,0,0,-1,1161,743,0,0
-56,281,0,0,0,0,0,0,0,0,0,-1,1168,743,0,0
-49,281,0,0,0,0,0,0,0,0,0,-1,1175,743,0,0
-42,281,0,0,0,0,0,0,0,0,0,-1,1182,743,0,0
-35,281,0,0,0,0,0,0,0,0,0,-1,1189,743,0,0
-28,281,0,0,0,0,0,0,0,0,0,-1,1196,743,0,0
-21,281,0,0,0,0,0,0,0,0,0,-1,1203,743,0,0
-14,281,0,0,0,0,0,0,0,0,0,-1,1210,743,0,0
-7,281,0,0,0,0,0,0,0,0,0,-1,1217,743,0,0
0,281,0,0,0,0,0,0,0,0,0,-1,1224,743,0,0
7,281,0,0,0,0,0,0,0,0,0,-1,1231,743,0,0
14,281,0,0,0,0,0,0,0,0,0,-1,1238,743,0,0
21,281,0,0,0,0,0,0,0,0,0,-1,1245,743,0,0
28,281,0,0,0,0,0,0,0,0,0,-1,1252,743,0,0
35,281,0,0,0,0,0,0,0,0,0,-1,1259,743,0,0
42,281,0,0,0,0,0,0,0,0,0,-1,1266,743,0,0
49,281,0,0,0,0,0,0,0,0,0,-1,1273,743,0,0
56,281,0,0,0,0,0,0,0,0,0,-1,1280,743,0,0
63,281,0,0,0,0,0,0,0,0,0,-1,1287,743,0,0
70,281,0,0,0,0,0,0,0,0,0,-1,1294,743,0,0
77,281,0,0,0,0,0,0,0,0,0,-1,1301,743,0,0
84,281,0,0,0,0,0,0,0,0,0,-1,1308,743,0,0
91,281,0,0,0,0,0,0,0,0,0,-1,1315,743,0,0
98,281,0,0,0,0,0,0,0,0,0,-1,1322,743,0,0
105,281,0,0,0,0,0,0,0,0,0,-1,1329,743,0,0
112,281,0,0,0,0,0,0,0,0,0,-1,1336,743,0,0
119,281,0,0,0,0,0,0,0,0,0,-1,1343,743,0,0
126,281,0,0,0,0,0,0,0,0,0,-1,1350,743,0,0
133,281,0,0,0,0,0,0,0,0,0,-1,1357,743,0,0
140,281,0,0,0,0,0,0,0,0,0,-1,1364,743,0,0
147,281,0,0,0,0,0,0,0,0,0,-1,1371,743,0,0
154,281,0,0,0,0,0,0,0,0,0,-1,1378,743,0,0
161,281,0,0,0,0,0,0,0,0,0,-1,1385,743,0,0
168,281,0,0,0,0,0,0,0,0,0,-1,1392,743,0,0
175,281,0,0,0,0,0,0,0,0,0,-1,1399,743,0,0
182,281,0,0,0,0,0,0,0,0,0,-1,1406,743,0,0
189,281,0,0,0,0,0,0,0,0,0,-1,1413,743,0,0
196,281,0,0,0,0,0,0,0,0,0,-1,1420,743,0,0
203,281,0,0,0,0,0,0,0,0,0,-1,1427,743,0,0
210,281,0,0,0,0,0,0,0,0,0,-1,1434,743,0,0
217,281,0,0,0,0,0,0,0,0,0,-1,1441,743,0,0
224,281,0,0,0,0,0,0,0,0,0,-1,1448,743,0,0
231,281,0,0,0,0,0,0,0,0,0,-1,1455,743,0,0
238,281,0,0,0,0,0,0,0,0,0,-1,1462,743,0,0
245,281,0,0,0,0,0,0,0,0,0,-1,1469,743,0,0
252,281,0,0,0,0,0,0,0,0,0,-1,1476,743,0,0
259,281,0,0,0,0,0,0,0,0,0,-1,1483,743,0,0
266,281,0,0,0,0,0,0,0,0,0,-1,1490,743,0,0
273,281,0,0,0,0,0,0,0,0,0,-1,1497,743,0,0
280,281,0,0,0,0,0,0,0,0,0,-1,1504,743,0,0
287,281,0,0,0,0,0,0,0,0,0,-1,1511,743,0,0
294,281,0,0,0,0,0,0,0,0,0,-1,1518,743,0,0
301,281,0,0,0,0,0,0,0,0,0,-1,1525,743,0,0
308,281,0,0,0,0,0,0,0,0,0,-1,1532,743,0,0
315,281,0,0,0,0,0,0,0,0,0,-1,1539,743,0,0
322,281,0,0,0,0,0,0,0,0,0,-1,1546,743,0,0
329,281,0,0,0,0,0,0,0,0,0,-1,1553,743,0,0
336,281,0,0,0,0,0,0,0,0,0,-1,1560,743,0,0
343,281,0,0,0,0,0,0,0,0,0,-1,1567,743,0,0
350,281,0,0,0,0,0,0,0,0,0,-1,1574,743,0,0
357,281,0,0,0,0,0,0,0,0,0,-1,1581,743,0,0
364,281,0,0,0,0,0,0,0,0,0,-1,1588,743,0,0
371,281,0,0,0,0,0,0,0,0,0,-1,1595,743,0,0
378,281,0,0,0,0,0,0,0,0,0,-1,1602,743,0,0
385,281,0,0,0,0,0,0,0,0,0,-1,1609,743,0,0
392,281,0,0,0,0,0,0,0,0,0,-1,1616,743,0,0
399,281,0,0,0,0,0,0,0,0,0,-1,1623,743,0,0
406,281,0,0,0,0,0,0,0,0,0,-1,1630,743,0,0
413,281,0,0,0,0,0,0,0,0,0,-1,1637,743,0,0
420,281,0,0,0,0,0,0,0,0,0,-1,1644,743,0,0
427,281,0,0,0,0,0,0,0,0,0,-1,1651,743,0,0
434,281,0,0,0,0,0,0,0,0,0,-1,1658,743,0,0
441,281,0,0,0,0,0,0,0,0,0,-1,1665,743,0,0
448,281,0,0,0,0,0,0,0,0,0,-1,1672,743,0,0
455,281,0,0,0,0,0,0,0,0,0,-1,1679,743,0,0
462,281,0,0,0,0,0,0,0,0,0,-1,1686,743,0,0
469,281,0,0,0,0,0,0,0,0,0,-1,1693,743,0,0
476,281,0,0,0,0,0,0,0,0,0,-1,1700,743,0,0
483,281,0,0,0,0,0,0,0,0,0,-1,1707,743,0,0
490,281,0,0,0,0,0,0,0,0,0,-1,1714,743,0,0
497,281,0,0,0,0,0,0,0,0,0,-1,1721,743,0,0
504,281,0,0,0,0,0,0,0,0,0,-1,1728,743,0,0
511,281,0,0,0,0,0,0,0,0,0,-1,1735,743,0,0
518,281,0,0,0,0,0,0,0,0,0,-1,1742,743,0,0
525,281,0,0,0,0,0,0,0,0,0,-1,1749,743,0,0
532,281,0,0,0,0,0,0,0,0,0,-1,1756,743,0,0
539,281,0,0,0,0,0,0,0,0,0,-1,1763,743,0,0
546,281,0,0,0,0,0,0,0,0,0,-1,1770,743,0,0
553,281,0,0,0,0,0,0,0,0,0,-1,1777,743,0,0
560,281,46.7455,3.48621,0,0,0,0,0,0,0,-1,1784,743,46.7455,-3.48622
567,281,47.001,3.66022,0.0308108,0.0470242,-0.0218776,0.0622488,0.0155863,-0.962829,0.0374024,0.0447059,1791,743,47.001,-3.66022
574,281,47.3667,3.97455,0.0210588,0.0390415,-0.014496,0.0471082,0.0129921,-1.06299,0.0280947,0.0489668,1798,743,47.3667,-3.97457
581,281,47.4988,3.89813,0.0126253,0.0318121,-0.00857728,0.0350874,0.00935002,-1.20603,0.0209813,0.0466657,1805,743,47.4987,-3.89813
588,281,48.7927,2.01349,0,0,0,0,0,0,0,-1,1812,743,48.7928,-2.01349
595,281,47.3956,2.99799,0,0,0,0,0,0,0,-1,1819,743,47.3956,-2.99802
602,281,45.9985,3.98254,0,0,0,0,0,0,0,-1,1826,743,45.9985,-3.98254
609,281,32.7925,1.28723,0,0,0,0,0,0,0,-1,1833,743,32.7925,-1.28722
616,281,21.3191,-0.253906,0,0,0,0,0,0,0,-1,1840,743,21.3191,0.253931
623,281,30.2526,-4.11151,0,0,0,0,0,0,0,-1,1847,743,30.2526,4.11153
630,281,30.3793,-3.58087,-0.00690312,0.0023935,0.00570323,0.00510275,-0.00961237,1.12732,0.00862774,0.0488312,1854,743,30.3792,3.5809
637,281,30.4293,-2.9989,-0.00555167,0.000726228,0.00513964,0.00360964,-0.00843508,1.05954,0.00713763,0.0160005,1861,743,30.4293,2.99889
644,281,30.429,-2.38214,-0.00361502,0.000364897,0.00367183,0.00255134,-0.00580146,1.03372,0.00494268,0.0109321,1868,743,30.4289,2.38216
651,281,30.4008,-1.79364,-0.00145276,0.000215793,0.00206537,0.00160902,-0.00284599,0.977346,0.00260494,0.0117095,1875,743,30.4008,1.79366
658,281,30.3524,-1.20111,-5.51965e-05,-6.9064e-05,0.000980113,0.000918007,-0.00104227,0.781861,0.00113252,0.0206821,1882,743,30.3524,1.20113
665,281,30.3394,-0.607178,-1.12871e-05,0.000446319,0.000622287,0.000880533,-0.000445502,0.961567,0.000779199,0.0227255,1889,743,30.3394,0.607152
672,281,30.3291,-0.0321045,-0.000511007,0.00126178,0.000676597,0.0014905,-0.000739727,1.24481,0.00131171,0.0142499,1896,743,30.3291,0.0321241
679,281,30.3334,0.515503,-0.000940526,0.00219694,0.000884941,0.00242933,-0.00117292,1.31399,0.00212151,0.0210296,1903,743,30.3334,-0.515518
686,281,30.259,1.07001,-0.00128606,0.00334228,0.00120588,0.00363762,-0.0015814,1.33061,0.00309017,0.0162656,1910,743,30.259,-1.06999
693,281,30.2366,1.69214,-0.00133088,0.00459343,0.00173243,0.00506284,-0.0018003,1.30619,0.00410896,0.0120339,1917,743,30.2366,-1.69216
700,281,30.2061,2.33972,-0.00100886,0.00602992,0.00248584,0.0068193,-0.00179824,1.26332,0.00524931,0.0311114,1924,743,30.2061,-2.33969
707,281,30.249,2.95135,0,0,0,0,0,0,0,-1,1931,743,30.249,-2.95138
714,281,25.0125,2.5105,0,0,0,0,0,0,0,-1,1938,743,25.0124,-2.51053
721,281,16.9656,3.22174,0,0,0,0,0,0,0,-1,1945,743,16.9656,-3.22172
728,281,19.0251,3.63934,0,0,0,0,0,0,0,-1,1952,743,19.0252,-3.63932
735,281,19.0869,2.50311,0,0,0,0,0,0,0,-1,1959,743,19.0869,-2.5031
742,281,0,0,0,0,0,0,0,0,0,-1,1966,743,0,0
749,281,0,0,0,0,0,0,0,0,0,-1,1973,743,0,0
756,281,0,0,0,0,0,0,0,0,0,-1,1980,743,0,0
763,281,0,0,0,0,0,0,0,0,0,-1,1987,743,0,0
770,281,0,0,0,0,0,0,0,0,0,-1,1994,743,0,0
777,281,0,0,0,0,0,0,0,0,0,-1,2001,743,0,0
784,281,0,0,0,0,0,0,0,0,0,-1,2008,743,0,0
791,281,0,0,0,0,0,0,0,0,0,-1,2015,743,0,0
798,281,0,0,0,0,0,0,0,0,0,-1,2022,743,0,0
805,281,0,0,0,0,0,0,0,0,0,-1,2029,743,0,0
812,281,0,0,0,0,0,0,0,0,0,-1,2036,743,0,0
-700,274,0,0,0,0,0,0,0,0,0,-1,524,750,0,0
-693,274,0,0,0,0,0,0,0,0,0,-1,531,750,0,0
-686,274,0,0,0,0,0,0,0,0,0,-1,538,750,0,0
-679,274,0,0,0,0,0,0,0,0,0,-1,545,750,0,0
-672,274,0,0,0,0,0,0,0,0,0,-1,552,750,0,0
-665,274,0,0,0,0,0,0,0,0,0,-1,559,750,0,0
-658,274,0,0,0,0,0,0,0,0,0,-1,566,750,0,0
-651,274,0,0,0,0,0,0,0,0,0,-1,573,750,0,0
-644,274,0,0,0,0,0,0,0,0,0,-1,580,750,0,0
-637,274,0,0,0,0,0,0,0,0,0,-1,587,750,0,0
-630,274,0,0,0,0,0,0,0,0,0,-1,594,750,0,0
-623,274,-19.6909,5.12701,0,0,0,0,0,0,0,-1,601,750,-19.6908,-5.12703
-616,274,-17.9133,3.9024,0,0,0,0,0,0,0,-1,608,750,-17.9133,-3.90239
-609,274,-18.6586,4.92523,0,0,0,0,0,0,0,-1,615,750,-18.6586,-4.92526
-602,274,-18.191,4.28918,0,0,0,0,0,0,0,-1,622,750,-18.191,-4.28919
-595,274,-18.4185,1.95624,0,0,0,0,0,0,0,-1,629,750,-18.4185,-1.95626
-588,274,-20.1058,1.64685,0,0,0,0,0,0,0,-1,636,750,-20.1057,-1.64687
-581,274,-20.1041,0.968323,0.00465376,0.00819555,-0.00637055,0.0130368,-0.000187447,-0.920966,0.00875433,0.0490884,643,750,-20.1041,-0.968332
-574,274,-20.0598,0.264771,0.00286596,0.00603857,-0.0043051,0.00904032,-0.000135794,-0.961915,0.00607265,0.0246658,650,750,-20.0597,-0.26479
-567,274,-20.2411,-0.28833,0.00168637,0.00431968,-0.00279312,0.00609093,-8.48714e-05,-1.00565,0.0040892,0.0232113,657,750,-20.2411,0.288358
-560,274,-20.2529,-0.820007,0.000838075,0.00281713,-0.0016065,0.0037144,-5.91952e-05,-1.06143,0.00249623,0.0141647,664,750,-20.2529,0.820023
-553,274,-20.2866,-1.37793,0.000298064,0.00153878,-0.00067108,0.00183231,4.5331e-06,-1.15847,0.00122003,0.0092022,671,750,-20.2866,1.37793
-546,274,-20.3124,-1.92816,-4.2684e-05,0.000394051,0.000105132,0.000418041,-6.66739e-05,1.34645,0.000303371,0.0115435,678,750,-20.3124,1.92815
-539,274,-20.3168,-2.48212,-0.000313019,-0.000963837,0.000720202,0.000151877,-0.00142873,0.573211,0.00100694,0.0125469,685,750,-20.3169,2.48213
-532,274,-20.3454,-3.00769,-0.00059038,-0.00257005,0.00127554,3.43401e-05,-0.00319477,0.455428,0.00214138,0.0126129,692,750,-20.3454,3.00769
-525,274,-20.3735,-3.55811,-0.000446213,-0.00415569,0.00161229,0.000156595,-0.0047585,0.357791,0.0032258,0.012916,699,750,-20.3735,3.55809
-518,274,-20.3767,-4.13794,-2.9338e-05,-0.00592116,0.00183788,0.000496957,-0.00644745,0.278896,0.00447316,0.0127096,706,750,-20.3767,4.13793
-511,274,-20.393,-4.7168,0.000417335,-0.00804652,0.00204625,0.000886082,-0.00851526,0.225191,0.00599407,0.0130526,713,750,-20.393,4.7168
-504,274,-20.4431,-5.28485,0.00120834,-0.0103699,0.00218246,0.00160607,-0.0107676,0.180258,0.00776932,0.02599,720,750,-20.4431,5.28482
-497,274,-20.5223,-5.85107,0,0,0,0,0,0,0,-1,727,750,-20.5223,5.85105
-490,274,-13.6545,-3.58826,0,0,0,0,0,0,0,-1,734,750,-13.6546,3.58825
-483,274,-27.8608,1.30981,0,0,0,0,0,0,0,-1,741,750,-27.8608,-1.30979
-476,274,-33.7561,-0.508606,0,0,0,0,0,0,0,-1,748,750,-33.7561,0.508636
-469,274,-34.4943,0.574036,0,0,0,0,0,0,0,-1,755,750,-34.4943,-0.574017
-462,274,-34.4627,1.29321,0,0,0,0,0,0,0,-1,762,750,-34.4627,-1.2932
-455,274,-35.0296,0.743103,0,0,0,0,0,0,0,-1,769,750,-35.0296,-0.743097
-448,274,-35.0747,0.840027,0,0,0,0,0,0,0,-1,776,750,-35.0747,-0.840005
-441,274,0,0,0,0,0,0,0,0,0,-1,783,750,0,0
-434,274,0,0,0,0,0,0,0,0,0,-1,790,750,0,0
-427,274,0,0,0,0,0,0,0,0,0,-1,797,750,0,0
-420,274,0,0,0,0,0,0,0,0,0,-1,804,750,0,0
-413,274,0,0,0,0,0,0,0,0,0,-1,811,750,0,0
-406,274,0,0,0,0,0,0,0,0,0,-1,818,750,0,0
-399,274,0,0,0,0,0,0,0,0,0,-1,825,750,0,0
-392,274,0,0,0,0,0,0,0,0,0,-1,832,750,0,0
-385,274,0,0,0,0,0,0,0,0,0,-1,839,750,0,0
-378,274,0,0,0,0,0,0,0,0,0,-1,846,750,0,0
-371,274,0,0,0,0,0,0,0,0,0,-1,853,750,0,0
-364,274,0,0,0,0,0,0,0,0,0,-1,860,750,0,0
-357,274,0,0,0,0,0,0,0,0,0,-1,867,750,0,0
-350,274,0,0,0,0,0,0,0,0,0,-1,874,750,0,0
-343,274,0,0,0,0,0,0,0,0,0,-1,881,750,0,0
-336,274,0,0,0,0,0,0,0,0,0,-1,888,750,0,0
-329,274,0,0,0,0,0,0,0,0,0,-1,895,750,0,0
-322,274,0,0,0,0,0,0,0,0,0,-1,902,750,0,0
-315,274,0,0,0,0,0,0,0,0,0,-1,909,750,0,0
-308,274,0,0,0,0,0,0,0,0,0,-1,916,750,0,0
-301,274,0,0,0,0,0,0,0,0,0,-1,923,750,0,0
-294,274,0,0,0,0,0,0,0,0,0,-1,930,750,0,0
-287,274,0,0,0,0,0,0,0,0,0,-1,937,750,0,0
-280,274,0,0,0,0,0,0,0,0,0,-1,944,750,0,0
-273,274,0,0,0,0,0,0,0,0,0,-1,951,750,0,0
-266,274,0,0,0,0,0,0,0,0,0,-1,958,750,0,0
-259,274,0,0,0,0,0,0,0,0,0,-1,965,750,0,0
-252,274,0,0,0,0,0,0,0,0,0,-1,972,750,0,0
-245,274,0,0,0,0,0,0,0,0,0,-1,979,750,0,0
-238,274,0,0,0,0,0,0,0,0,0,-1,986,750,0,0
-231,274,0,0,0,0,0,0,0,0,0,-1,993,750,0,0
-224,274,0,0,0,0,0,0,0,0,0,-1,1000,750,0,0
-217,274,0,0,0,0,0,0,0,0,0,-1,1007,750,0,0
-210,274,0,0,0,0,0,0,0,0,0,-1,1014,750,0,0
-203,274,0,0,0,0,0,0,0,0,0,-1,1021,750,0,0
-196,274,0,0,0,0,0,0,0,0,0,-1,1028,750,0,0
-189,274,0,0,0,0,0,0,0,0,0,-1,1035,750,0,0
-182,274,0,0,0,0,0,0,0,0,0,-1,1042,750,0,0
-175,274,0,0,0,0,0,0,0,0,0,-1,1049,750,0,0
-168,274,0,0,0,0,0,0,0,0,0,-1,1056,750,0,0
-161,274,0,0,0,0,0,0,0,0,0,-1,1063,750,0,0
-154,274,0,0,0,0,0,0,0,0,0,-1,1070,750,0,0
-147,274,0,0,0,0,0,0,0,0,0,-1,1077,750,0,0
-140,274,0,0,0,0,0,0,0,0,0,-1,1084,750,0,0
-133,274,0,0,0,0,0,0,0,0,0,-1,1091,750,0,0
-126,274,0,0,0,0,0,0,0,0,0,-1,1098,750,0,0
-119,274,0,0,0,0,0,0,0,0,0,-1,1105,750,0,0
-112,274,0,0,0,0,0,0,0,0,0,-1,1112,750,0,0
-105,274,0,0,0,0,0,0,0,0,0,-1,1119,750,0,0
-98,274,0,0,0,0,0,0,0,0,0,-1,1126,750,0,0
-91,274,0,0,0,0,0,0,0,0,0,-1,1133,750,0,0
-84,274,0,0,0,0,0,0,0,0,0,-1,1140,750,0,0
-77,274,0,0,0,0,0,0,0,0,0,-1,1147,750,0,0
-70,274,0,0,0,0,0,0,0,0,0,-1,1154,750,0,0
-63,274,0,0,0,0,0,0,0,0,0,-1,1161,750,0,0
-56,274,0,0,0,0,0,0,0,0,0,-1,1168,750,0,0
-49,274,0,0,0,0,0,0,0,0,0,-1,1175,750,0,0
-42,274,0,0,0,0,0,0,0,0,0,-1,1182,750,0,0
-35,274,0,0,0,0,0,0,0,0,0,-1,1189,750,0,0
-28,274,0,0,0,0,0,0,0,0,0,-1,1196,750,0,0
-21,274,0,0,0,0,0,0,0,0,0,-1,1203,750,0,0
-14,274,0,0,0,0,0,0,0,0,0,-1,1210,750,0,0
-7,274,0,0,0,0,0,0,0,0,0,-1,1217,750,0,0
0,274,0,0,0,0,0,0,0,0,0,-1,1224,750,0,0
7,274,0,0,0,0,0,0,0,0,0,-1,1231,750,0,0
14,274,0,0,0,0,0,0,0,0,0,-1,1238,750,0,0
21,274,0,0,0,0,0,0,0,0,0,-1,1245,750,0,0
28,274,0,0,0,0,0,0,0,0,0,-1,1252,750,0,0
35,274,0,0,0,0,0,0,0,0,0,-1,1259,750,0,0
42,274,0,0,0,0,0,0,0,0,0,-1,1266,750,0,0
49,274,0,0,0,0,0,0,0,0,0,-1,1273,750,0,0
56,274,0,0,0,0,0,0,0,0,0,-1,1280,750,0,0
63,274,0,0,0,0,0,0,0,0,0,-1,1287,750,0,0
70,274,0,0,0,0,0,0,0,0,0,-1,1294,750,0,0
77,274,0,0,0,0,0,0,0,0,0,-1,1301,750,0,0
84,274,0,0,0,0,0,0,0,0,0,-1,1308,750,0,0
91,274,0,0,0,0,0,0,0,0,0,-1,1315,750,0,0
98,274,0,0,0,0,0,0,0,0,0,-1,1322,750,0,0
105,274,0,0,0,0,0,0,0,0,0,-1,1329,750,0,0
112,274,0,0,0,0,0,0,0,0,0,-1,1336,750,0,0
119,274,0,0,0,0,0,0,0,0,0,-1,1343,750,0,0
126,274,0,0,0,0,0,0,0,0,0,-1,1350,750,0,0
133,274,0,0,0,0,0,0,0,0,0,-1,1357,750,0,0
140,274,0,0,0,0,0,0,0,0,0,-1,1364,750,0,0
147,274,0,0,0,0,0,0,0,0,0,-1,1371,750,0,0
154,274,0,0,0,0,0,0,0,0,0,-1,1378,750,0,0
161,274,0,0,0,0,0,0,0,0,0,-1,1385,750,0,0
168,274,0,0,0,0,0,0,0,0,0,-1,1392,750,0,0
175,274,0,0,0,0,0,0,0,0,0,-1,1399,750,0,0
182,274,0,0,0,0,0,0,0,0,0,-1,1406,750,0,0
189,274,0,0,0,0,0,0,0,0,0,-1,1413,750,0,0
196,274,0,0,0,0,0,0,0,0,0,-1,1420,750,0,0
203,274,0,0,0,0,0,0,0,0,0,-1,1427,750,0,0
210,274,0,0,0,0,0,0,0,0,0,-1,1434,750,0,0
217,274,0,0,0,0,0,0,0,0,0,-1,1441,750,0,0
224,274,0,0,0,0,0,0,0,0,0,-1,1448,750,0,0
231,274,0,0,0,0,0,0,0,0,0,-1,1455,750,0,0
238,274,0,0,0,0,0,0,0,0,0,-1,1462,750,0,0
245,274,0,0,0,0,0,0,0,0,0,-1,1469,750,0,0
252,274,0,0,0,0,0,0,0,0,0,-1,1476,750,0,0
259,274,0,0,0,0,0,0,0,0,0,-1,1483,750,0,0
266,274,0,0,0,0,0,0,0,0,0,-1,1490,750,0,0
273,274,0,0,0,0,0,0,0,0,0,-1,1497,750,0,0
280,274,0,0,0,0,0,0,0,0,0,-1,1504,750,0,0
287,274,0,0,0,0,0,0,0,0,0,-1,1511,750,0,0
294,274,0,0,0,0,0,0,0,0,0,-1,1518,750,0,0
301,274,0,0,0,0,0,0,0,0,0,-1,1525,750,0,0
308,274,0,0,0,0,0,0,0,0,0,-1,1532,750,0,0
315,274,0,0,0,0,0,0,0,0,0,-1,1539,750,0,0
322,274,0,0,0,0,0,0,0,0,0,-1,1546,750,0,0
329,274,0,0,0,0,0,0,0,0,0,-1,1553,750,0,0
336,274,0,0,0,0,0,0,0,0,0,-1,1560,750,0,0
343,274,0,0,0,0,0,0,0,0,0,-1,1567,750,0,0
350,274,0,0,0,0,0,0,0,0,0,-1,1574,750,0,0
357,274,0,0,0,0,0,0,0,0,0,-1,1581,750,0,0
364,274,0,0,0,0,0,0,0,0,0,-1,1588,750,0,0
371,274,0,0,0,0,0,0,0,0,0,-1,1595,750,0,0
378,274,0,0,0,0,0,0,0,0,0,-1,1602,750,0,0
385,274,0,0,0,0,0,0,0,0,0,-1,1609,750,0,0
392,274,0,0,0,0,0,0,0,0,0,-1,1616,750,0,0
399,274,0,0,0,0,0,0,0,0,0,-1,1623,750,0,0
406,274,0,0,0,0,0,0,0,0,0,-1,1630,750,0,0
413,274,0,0,0,0,0,0,0,0,0,-1,1637,750,0,0
420,274,0,0,0,0,0,0,0,0,0,-1,1644,750,0,0
427,274,0,0,0,0,0,0,0,0,0,-1,1651,750,0,0
434,274,0,0,0,0,0,0,0,0,0,-1,1658,750,0,0
441,274,0,0,0,0,0,0,0,0,0,-1,1665,750,0,0
448,274,0,0,0,0,0,0,0,0,0,-1,1672,750,0,0
455,274,0,0,0,0,0,0,0,0,0,-1,1679,750,0,0
462,274,0,0,0,0,0,0,0,0,0,-1,1686,750,0,0
469,274,0,0,0,0,0,0,0,0,0,-1,1693,750,0,0
476,274,0,0,0,0,0,0,0,0,0,-1,1700,750,0,0
483,274,0,0,0,0,0,0,0,0,0,-1,1707,750,0,0
490,274,0,0,0,0,0,0,0,0,0,-1,1714,750,0,0
497,274,0,0,0,0,0,0,0,0,0,-1,1721,750,0,0
504,274,0,0,0,0,0,0,0,0,0,-1,1728,750,0,0
511,274,0,0,0,0,0,0,0,0,0,-1,1735,750,0,0
518,274,0,0,0,0,0,0,0,0,0,-1,1742,750,0,0
525,274,0,0,0,0,0,0,0,0,0,-1,1749,750,0,0
532,274,0,0,0,0,0,0,0,0,0,-1,1756,750,0,0
539,274,0,0,0,0,0,0,0,0,0,-1,1763,750,0,0
546,274,0,0,0,0,0,0,0,0,0,-1,1770,750,0,0
553,274,0,0,0,0,0,0,0,0,0,-1,1777,750,0,0
560,274,47.5779,3.38464,0,0,0,0,0,0,0,-1,1784,750,47.5779,-3.38466
567,274,47.4614,3.53235,0.0238803,0.0424393,-0.0186281,0.0539712,0.0123484,-1.01648,0.0326525,0.0438931,1791,750,47.4615,-3.53234
574,274,47.6522,3.58752,0.0130973,0.0355705,-0.0101533,0.0394782,0.00918956,-1.2034,0.0238532,0.0454086,1798,750,47.6522,-3.58755
581,274,47.696,3.60541,0.00552845,0.0292423,-0.00462028,0.0301107,0.00466007,-1.38501,0.0187148,0.0412388,1805,750,47.6961,-3.60541
588,274,49.2026,2.07288,0,0,0,0,0,0,0,-1,1812,750,49.2026,-2.07285
595,274,47.8059,2.88239,0,0,0,0,0,0,0,-1,1819,750,47.8059,-2.88239
602,274,47.6025,3.88513,0,0,0,0,0,0,0,-1,1826,750,47.6025,-3.88516
609,274,44.6676,3.10461,0,0,0,0,0,0,0,-1,1833,750,44.6676,-3.1046
616,274,32.7869,1.78436,0,0,0,0,0,0,0,-1,1840,750,32.7868,-1.78437
623,274,24.8231,-1.80353,0,0,0,0,0,0,0,-1,1847,750,24.8232,1.80351
630,274,30.9316,-3.67377,0,0,0,0,0,0,0,-1,1854,750,30.9317,3.67375
637,274,30.9928,-3.008,-0.00661292,0.0010583,0.00536772,0.00381999,-0.00937461,1.09562,0.00783969,0.0178148,1861,750,30.9928,3.00798
644,274,30.9874,-2.36334,-0.00474419,0.000648515,0.00401762,0.00279072,-0.00688639,1.08094,0.00575146,0.01234,1868,750,30.9874,2.36333
651,274,30.978,-1.7774,-0.00228983,0.000338495,0.00230269,0.00167563,-0.00362697,1.0447,0.00312979,0.0134358,1875,750,30.978,1.77742
658,274,30.9586,-1.19122,-0.000285544,-0.000318113,0.00099817,0.000696474,-0.00130013,0.777242,0.00117017,0.0163648,1882,750,30.9586,1.19122
665,274,30.9315,-0.581055,0.000300052,4.21283e-05,0.000488758,0.000676576,-0.000334395,0.65641,0.000594724,0.0163429,1889,750,30.9315,0.581039
672,274,30.9171,-0.0178833,0.000143473,0.000792458,0.000554728,0.00111063,-0.000174699,1.05004,0.000804997,0.0137367,1896,750,30.9171,0.0178913
679,274,30.8892,0.542664,5.19566e-05,0.00168236,0.000825456,0.0020273,-0.000292985,1.17497,0.00145903,0.0152245,1903,750,30.8892,-0.542643
686,274,30.86,1.10504,1.40924e-05,0.00281829,0.00120762,0.00326666,-0.000434276,1.21529,0.00233602,0.0164181,1910,750,30.86,-1.10506
693,274,30.8224,1.71777,0.000279216,0.00402841,0.0017881,0.00474445,-0.000436823,1.1899,0.00331817,0.0121338,1917,750,30.8224,-1.71777
700,274,30.8242,2.35144,0.000917924,0.00533958,0.0025917,0.00653532,-0.000277815,1.13853,0.00445237,0.0153666,1924,750,30.8242,-2.35144
707,274,30.7461,2.96765,0.00200139,0.00669623,0.00371316,0.00874175,-4.41317e-05,1.06727,0.0058426,0.0282372,1931,750,30.746,-2.96763
714,274,30.9832,3.5387,0,0,0,0,0,0,0,-1,1938,750,30.9832,-3.5387
721,274,25.6215,3.91144,0,0,0,0,0,0,0,-1,1945,750,25.6214,-3.91141
728,274,19.2209,3.95154,0,0,0,0,0,0,0,-1,1952,750,19.221,-3.95151
735,274,20.6608,4.10931,0,0,0,0,0,0,0,-1,1959,750,20.6607,-4.10932
742,274,11.7815,-0.740234,0,0,0,0,0,0,0,-1,1966,750,11.7815,0.740253
749,274,0,0,0,0,0,0,0,0,0,-1,1973,750,0,0
756,274,0,0,0,0,0,0,0,0,0,-1,1980,750,0,0
763,274,0,0,0,0,0,0,0,0,0,-1,1987,750,0,0
770,274,0,0,0,0,0,0,0,0,0,-1,1994,750,0,0
777,274,0,0,0,0,0,0,0,0,0,-1,2001,750,0,0
784,274,0,0,0,0,0,0,0,0,0,-1,2008,750,0,0
791,274,0,0,0,0,0,0,0,0,0,-1,2015,750,0,0
798,274,0,0,0,0,0,0,0,0,0,-1,2022,750,0,0
805,274,0,0,0,0,0,0,0,0,0,-1,2029,750,0,0
812,274,0,0,0,0,0,0,0,0,0,-1,2036,750,0,0
-700,267,0,0,0,0,0,0,0,0,0,-1,524,757,0,0
-693,267,0,0,0,0,0,0,0,0,0,-1,531,757,0,0
-686,267,0,0,0,0,0,0,0,0,0,-1,538,757,0,0
-679,267,0,0,0,0,0,0,0,0,0,-1,545,757,0,0
-672,267,0,0,0,0,0,0,0,0,0,-1,552,757,0,0
-665,267,0,0,0,0,0,0,0,0,0,-1,559,757,0,0
-658,267,0,0,0,0,0,0,0,0,0,-1,566,757,0,0
-651,267,0,0,0,0,0,0,0,0,0,-1,573,757,0,0
-644,267,0,0,0,0,0,0,0,0,0,-1,580,757,0,0
-637,267,0,0,0,0,0,0,0,0,0,-1,587,757,0,0
-630,267,-21.3979,5.17529,0,0,0,0,0,0,0,-1,594,757,-21.3979,-5.17529
-623,267,-20.043,4.43115,0,0,0,0,0,0,0,-1,601,757,-20.043,-4.43116
-616,267,-18.6576,5.19214,0,0,0,0,0,0,0,-1,608,757,-18.6576,-5.19215
-609,267,-18.6078,4.34973,0,0,0,0,0,0,0,-1,615,757,-18.6078,-4.34976
-602,267,-19.3658,2.84296,0,0,0,0,0,0,0,-1,622,757,-19.3658,-2.84295
-595,267,-21.1978,2.89136,0,0,0,0,0,0,0,-1,629,757,-21.1978,-2.89133
-588,267,-20.8373,2.0069,0.00765483,0.0110667,-0.00940746,0.0189216,-0.000200132,-0.875092,0.0126816,0.046824,636,757,-20.8373,-2.00691
-581,267,-20.6554,1.0614,0.0049174,0.00800458,-0.0066,0.0132391,-0.000317114,-0.900272,0.00893364,0.0359157,643,757,-20.6554,-1.06143
-574,267,-20.6919,0.33606,0.00312266,0.00581184,-0.00446978,0.00913489,-0.00020039,-0.931501,0.00615781,0.0205319,650,757,-20.6919,-0.336088
-567,267,-20.7784,-0.201782,0.00183398,0.00402981,-0.00284802,0.00598421,-0.000120424,-0.969371,0.00403021,0.0261031,657,757,-20.7784,0.201813
-560,267,-20.7966,-0.75946,0.000859513,0.0024856,-0.00154837,0.00342141,-7.62936e-05,-1.02716,0.00230679,0.0223412,664,757,-20.7966,0.759481
-553,267,-20.8134,-1.34607,0.000168204,0.0011382,-0.000487217,0.00134066,-3.42602e-05,-1.17696,0.000905411,0.0175377,671,757,-20.8134,1.34606
-546,267,-20.8589,-1.89795,-0.000381612,-5.76202e-05,0.000399498,0.000211477,-0.000650709,0.978017,0.000518869,0.0122602,678,757,-20.859,1.89798
-539,267,-20.861,-2.45795,-0.000914009,-0.00167562,0.00104185,-0.000185547,-0.00240408,0.610187,0.00154459,0.0115974,685,757,-20.861,2.45793
-532,267,-20.8626,-3.00641,-0.00134547,-0.0034784,0.00157265,-0.000511784,-0.00431209,0.487449,0.00272023,0.0121379,692,757,-20.8626,3.00644
-525,267,-20.9234,-3.53571,-0.00126379,-0.00524279,0.00186615,-0.000525542,-0.00598104,0.376708,0.00382423,0.0119287,699,757,-20.9234,3.5357
-518,267,-20.9458,-4.1001,-0.000880092,-0.00715783,0.00201535,-0.000288797,-0.00774913,0.285387,0.00507256,0.0116196,706,757,-20.9458,4.10007
-511,267,-20.9295,-4.64673,-0.000409369,-0.00941766,0.00210834,5.96549e-05,-0.00988669,0.218897,0.0066111,0.0179475,713,757,-20.9295,4.64672
-504,267,-20.9772,-5.08258,0.000514496,-0.0117851,0.00212338,0.000870755,-0.0121413,0.166231,0.00839953,0.0336929,720,757,-20.9772,5.08261
-497,267,-21.0621,-5.49182,0,0,0,0,0,0,0,-1,727,757,-21.0621,5.49181
-490,267,-23.4949,-0.494995,0,0,0,0,0,0,0,-1,734,757,-23.4949,0.494981
-483,267,-33.2785,-0.448425,0,0,0,0,0,0,0,-1,741,757,-33.2785,0.448407
-476,267,-33.7904,1.32043,0,0,0,0,0,0,0,-1,748,757,-33.7904,-1.32042
-469,267,-34.3151,0.902344,0,0,0,0,0,0,0,-1,755,757,-34.3151,-0.902354
-462,267,-35.9111,-0.341064,0,0,0,0,0,0,0,-1,762,757,-35.9111,0.341082
-455,267,-35.3923,0.713135,0,0,0,0,0,0,0,-1,769,757,-35.3923,-0.713105
-448,267,-34.98,1.41986,0,0,0,0,0,0,0,-1,776,757,-34.98,-1.41989
-441,267,0,0,0,0,0,0,0,0,0,-1,783,757,0,0
-434,267,0,0,0,0,0,0,0,0,0,-1,790,757,0,0
-427,267,0,0,0,0,0,0,0,0,0,-1,797,757,0,0
-420,267,0,0,0,0,0,0,0,0,0,-1,804,757,0,0
-413,267,0,0,0,0,0,0,0,0,0,-1,811,757,0,0
-406,267,0,0,0,0,0,0,0,0,0,-1,818,757,0,0
-399,267,0,0,0,0,0,0,0,0,0,-1,825,757,0,0
-392,267,0,0,0,0,0,0,0,0,0,-1,832,757,0,0
-385,267,0,0,0,0,0,0,0,0,0,-1,839,757,0,0
-378,267,0,0,0,0,0,0,0,0,0,-1,846,757,0,0
-371,267,0,0,0,0,0,0,0,0,0,-1,853,757,0,0
-364,267,0,0,0,0,0,0,0,0,0,-1,860,757,0,0
-357,267,0,0,0,0,0,0,0,0,0,-1,867,757,0,0
-350,267,0,0,0,0,0,0,0,0,0,-1,874,757,0,0
-343,267,0,0,0,0,0,0,0,0,0,-1,881,757,0,0
-336,267,0,0,0,0,0,0,0,0,0,-1,888,757,0,0
-329,267,0,0,0,0,0,0,0,0,0,-1,895,757,0,0
-322,267,0,0,0,0,0,0,0,0,0,-1,902,757,0,0
-315,267,0,0,0,0,0,0,0,0,0,-1,909,757,0,0
-308,267,0,0,0,0,0,0,0,0,0,-1,916,757,0,0
-301,267,0,0,0,0,0,0,0,0,0,-1,923,757,0,0
-294,267,0,0,0,0,0,0,0,0,0,-1,930,757,0,0
-287,267,0,0,0,0,0,0,0,0,0,-1,937,757,0,0
-280,267,0,0,0,0,0,0,0,0,0,-1,944,757,0,0
-273,267,0,0,0,0,0,0,0,0,0,-1,951,757,0,0
-266,267,0,0,0,0,0,0,0,0,0,-1,958,757,0,0
-259,267,0,0,0,0,0,0,0,0,0,-1,965,757,0,0
-252,267,0,0,0,0,0,0,0,0,0,-1,972,757,0,0
-245,267,0,0,0,0,0,0,0,0,0,-1,979,757,0,0
-238,267,0,0,0,0,0,0,0,0,0,-1,986,757,0,0
-231,267,0,0,0,0,0,0,0,0,0,-1,993,757,0,0
-224,267,0,0,0,0,0,0,0,0,0,-1,1000,757,0,0
-217,267,0,0,0,0,0,0,0,0,0,-1,1007,757,0,0
-210,267,0,0,0,0,0,0,0,0,0,-1,1014,757,0,0
-203,267,0,0,0,0,0,0,0,0,0,-1,1021,757,0,0
-196,267,0,0,0,0,0,0,0,0,0,-1,1028,757,0,0
-189,267,0,0,0,0,0,0,0,0,0,-1,1035,757,0,0
-182,267,0,0,0,0,0,0,0,0,0,-1,1042,757,0,0
-175,267,0,0,0,0,0,0,0,0,0,-1,1049,757,0,0
-168,267,0,0,0,0,0,0,0,0,0,-1,1056,757,0,0
-161,267,0,0,0,0,0,0,0,0,0,-1,1063,757,0,0
-154,267,0,0,0,0,0,0,0,0,0,-1,1070,757,0,0
-147,267,0,0,0,0,0,0,0,0,0,-1,1077,757,0,0
-140,267,0,0,0,0,0,0,0,0,0,-1,1084,757,0,0
-133,267,0,0,0,0,0,0,0,0,0,-1,1091,757,0,0
-126,267,0,0,0,0,0,0,0,0,0,-1,1098,757,0,0
-119,267,0,0,0,0,0,0,0,0,0,-1,1105,757,0,0
-112,267,0,0,0,0,0,0,0,0,0,-1,1112,757,0,0
-105,267,0,0,0,0,0,0,0,0,0,-1,1119,757,0,0
-98,267,0,0,0,0,0,0,0,0,0,-1,1126,757,0,0
-91,267,0,0,0,0,0,0,0,0,0,-1,1133,757,0,0
-84,267,0,0,0,0,0,0,0,0,0,-1,1140,757,0,0
-77,267,0,0,0,0,0,0,0,0,0,-1,1147,757,0,0
-70,267,0,0,0,0,0,0,0,0,0,-1,1154,757,0,0
-63,267,0,0,0,0,0,0,0,0,0,-1,1161,757,0,0
-56,267,0,0,0,0,0,0,0,0,0,-1,1168,757,0,0
-49,267,0,0,0,0,0,0,0,0,0,-1,1175,757,0,0
-42,267,0,0,0,0,0,0,0,0,0,-1,1182,757,0,0
-35,267,0,0,0,0,0,0,0,0,0,-1,1189,757,0,0
-28,267,0,0,0,0,0,0,0,0,0,-1,1196,757,0,0
-21,267,0,0,0,0,0,0,0,0,0,-1,1203,757,0,0
-14,267,0,0,0,0,0,0,0,0,0,-1,1210,757,0,0
-7,267,0,0,0,0,0,0,0,0,0,-1,1217,757,0,0
0,267,0,0,0,0,0,0,0,0,0,-1,1224,757,0,0
7,267,0,0,0,0,0,0,0,0,0,-1,1231,757,0,0
14,267,0,0,0,0,0,0,0,0,0,-1,1238,757,0,0
21,267,0,0,0,0,0,0,0,0,0,-1,1245,757,0,0
28,267,0,0,0,0,0,0,0,0,0,-1,1252,757,0,0
35,267,0,0,0,0,0,0,0,0,0,-1,1259,757,0,0
42,267,0,0,0,0,0,0,0,0,0,-1,1266,757,0,0
49,267,0,0,0,0,0,0,0,0,0,-1,1273,757,0,0
56,267,0,0,0,0,0,0,0,0,0,-1,1280,757,0,0
63,267,0,0,0,0,0,0,0,0,0,-1,1287,757,0,0
70,267,0,0,0,0,0,0,0,0,0,-1,1294,757,0,0
77,267,0,0,0,0,0,0,0,0,0,-1,1301,757,0,0
84,267,0,0,0,0,0,0,0,0,0,-1,1308,757,0,0
91,267,0,0,0,0,0,0,0,0,0,-1,1315,757,0,0
98,267,0,0,0,0,0,0,0,0,0,-1,1322,757,0,0
105,267,0,0,0,0,0,0,0,0,0,-1,1329,757,0,0
112,267,0,0,0,0,0,0,0,0,0,-1,1336,757,0,0
119,267,0,0,0,0,0,0,0,0,0,-1,1343,757,0,0
126,267,0,0,0,0,0,0,0,0,0,-1,1350,757,0,0
133,267,0,0,0,0,0,0,0,0,0,-1,1357,757,0,0
140,267,0,0,0,0,0,0,0,0,0,-1,1364,757,0,0
147,267,0,0,0,0,0,0,0,0,0,-1,1371,757,0,0
154,267,0,0,0,0,0,0,0,0,0,-1,1378,757,0,0
161,267,0,0,0,0,0,0,0,0,0,-1,1385,757,0,0
168,267,0,0,0,0,0,0,0,0,0,-1,1392,757,0,0
175,267,0,0,0,0,0,0,0,0,0,-1,1399,757,0,0
182,267,0,0,0,0,0,0,0,0,0,-1,1406,757,0,0
189,267,0,0,0,0,0,0,0,0,0,-1,1413,757,0,0
196,267,0,0,0,0,0,0,0,0,0,-1,1420,757,0,0
203,267,0,0,0,0,0,0,0,0,0,-1,1427,757,0,0
210,267,0,0,0,0,0,0,0,0,0,-1,1434,757,0,0
217,267,0,0,0,0,0,0,0,0,0,-1,1441,757,0,0
224,267,0,0,0,0,0,0,0,0,0,-1,1448,757,0,0
231,267,0,0,0,0,0,0,0,0,0,-1,1455,757,0,0
238,267,0,0,0,0,0,0,0,0,0,-1,1462,757,0,0
245,267,0,0,0,0,0,0,0,0,0,-1,1469,757,0,0
252,267,0,0,0,0,0,0,0,0,0,-1,1476,757,0,0
259,267,0,0,0,0,0,0,0,0,0,-1,1483,757,0,0
266,267,0,0,0,0,0,0,0,0,0,-1,1490,757,0,0
273,267,0,0,0,0,0,0,0,0,0,-1,1497,757,0,0
280,267,0,0,0,0,0,0,0,0,0,-1,1504,757,0,0
287,267,0,0,0,0,0,0,0,0,0,-1,1511,757,0,0
294,267,0,0,0,0,0,0,0,0,0,-1,1518,757,0,0
301,267,0,0,0,0,0,0,0,0,0,-1,1525,757,0,0
308,267,0,0,0,0,0,0,0,0,0,-1,1532,757,0,0
315,267,0,0,0,0,0,0,0,0,0,-1,1539,757,0,0
322,267,0,0,0,0,0,0,0,0,0,-1,1546,757,0,0
329,267,0,0,0,0,0,0,0,0,0,-1,1553,757,0,0
336,267,0,0,0,0,0,0,0,0,0,-1,1560,757,0,0
343,267,0,0,0,0,0,0,0,0,0,-1,1567,757,0,0
350,267,0,0,0,0,0,0,0,0,0,-1,1574,757,0,0
357,267,0,0,0,0,0,0,0,0,0,-1,1581,757,0,0
364,267,0,0,0,0,0,0,0,0,0,-1,1588,757,0,0
371,267,0,0,0,0,0,0,0,0,0,-1,1595,757,0,0
378,267,0,0,0,0,0,0,0,0,0,-1,1602,757,0,0
385,267,0,0,0,0,0,0,0,0,0,-1,1609,757,0,0
392,267,0,0,0,0,0,0,0,0,0,-1,1616,757,0,0
399,267,0,0,0,0,0,0,0,0,0,-1,1623,757,0,0
406,267,0,0,0,0,0,0,0,0,0,-1,1630,757,0,0
413,267,0,0,0,0,0,0,0,0,0,-1,1637,757,0,0
420,267,0,0,0,0,0,0,0,0,0,-1,1644,757,0,0
427,267,0,0,0,0,0,0,0,0,0,-1,1651,757,0,0
434,267,0,0,0,0,0,0,0,0,0,-1,1658,757,0,0
441,267,0,0,0,0,0,0,0,0,0,-1,1665,757,0,0
448,267,0,0,0,0,0,0,0,0,0,-1,1672,757,0,0
455,267,0,0,0,0,0,0,0,0,0,-1,1679,757,0,0
462,267,0,0,0,0,0,0,0,0,0,-1,1686,757,0,0
469,267,0,0,0,0,0,0,0,0,0,-1,1693,757,0,0
476,267,0,0,0,0,0,0,0,0,0,-1,1700,757,0,0
483,267,0,0,0,0,0,0,0,0,0,-1,1707,757,0,0
490,267,0,0,0,0,0,0,0,0,0,-1,1714,757,0,0
497,267,0,0,0,0,0,0,0,0,0,-1,1721,757,0,0
504,267,0,0,0,0,0,0,0,0,0,-1,1728,757,0,0
511,267,0,0,0,0,0,0,0,0,0,-1,1735,757,0,0
518,267,0,0,0,0,0,0,0,0,0,-1,1742,757,0,0
525,267,0,0,0,0,0,0,0,0,0,-1,1749,757,0,0
532,267,0,0,0,0,0,0,0,0,0,-1,1756,757,0,0
539,267,0,0,0,0,0,0,0,0,0,-1,1763,757,0,0
546,267,0,0,0,0,0,0,0,0,0,-1,1770,757,0,0
553,267,0,0,0,0,0,0,0,0,0,-1,1777,757,0,0
560,267,0,0,0,0,0,0,0,0,0,-1,1784,757,0,0
567,267,47.916,3.2019,0.0217431,0.0362665,-0.0187407,0.0491032,0.00890638,-0.970232,0.0302076,0.0379,1791,757,47.916,-3.20192
574,267,47.9425,3.23486,0.00895404,0.0310689,-0.00830913,0.0338429,0.00618005,-1.24858,0.0208101,0.0426684,1798,757,47.9425,-3.23486
581,267,47.8442,3.43457,0.000515372,0.025991,-0.00193806,0.0261376,0.000368778,-1.4953,0.0173034,0.0441219,1805,757,47.8442,-3.4346
588,267,48.9213,2.11053,0,0,0,0,0,0,0,-1,1812,757,48.9213,-2.11051
595,267,48.179,2.76306,-0.00755463,0.0163634,0.00437661,0.0171391,-0.00833032,1.39538,0.0149951,0.0467417,1819,757,48.179,-2.76306
602,267,47.6625,3.55762,-0.0091091,0.0124842,0.00566649,0.0138808,-0.0105058,1.32914,0.0141245,0.0439936,1826,757,47.6625,-3.55763
609,267,47.3407,4.23004,0,0,0,0,0,0,0,-1,1833,757,47.3407,-4.23006
616,267,44.2543,3.28918,0,0,0,0,0,0,0,-1,1840,757,44.2542,-3.28918
623,267,24.1475,-1.1391,0,0,0,0,0,0,0,-1,1847,757,24.1475,1.13913
630,267,31.5918,-3.27814,0,0,0,0,0,0,0,-1,1854,757,31.5918,3.27814
637,267,31.5151,-2.83441,-0.00689785,0.00123367,0.00511834,0.00370456,-0.00936874,1.12104,0.00778044,0.0388003,1861,757,31.5152,2.83442
644,267,31.5468,-2.33966,-0.0052168,0.000821487,0.00387887,0.00271771,-0.00711303,1.1161,0.00586183,0.0137474,1868,757,31.5468,2.33968
651,267,31.5291,-1.75537,-0.00284068,0.000442262,0.00222691,0.0015673,-0.00396571,1.103,0.003293,0.0149052,1875,757,31.529,1.75539
658,267,31.5323,-1.16815,-0.000597609,-0.000498458,0.000830904,0.000284348,-0.00138041,0.815195,0.00102825,0.0142087,1882,757,31.5323,1.16816
665,267,31.5199,-0.569336,0.000323142,-0.00033409,0.000177639,0.000368082,-0.00037903,0.247786,0.000431361,0.0143993,1889,757,31.5199,0.569356
672,267,31.5021,0.00543213,0.000362006,0.0002755,0.000243719,0.000566281,7.12252e-05,0.697577,0.000356161,0.0131781,1896,757,31.5021,-0.00546121
679,267,31.4703,0.57605,0.000483486,0.00102496,0.000567819,0.00138328,0.000125162,1.00786,0.000883427,0.0127299,1903,757,31.4704,-0.576049
686,267,31.454,1.15796,0.000651844,0.00213066,0.00101698,0.00264862,0.000133883,1.09973,0.00172286,0.0144341,1910,757,31.454,-1.15798
693,267,31.4194,1.72321,0.00112759,0.00327527,0.00164288,0.00416413,0.000238732,1.07486,0.00270003,0.0138238,1917,757,31.4194,-1.72318
700,267,31.417,2.31812,0.00199147,0.00445631,0.00249231,0.00600426,0.000443519,1.01501,0.0038635,0.0140744,1924,757,31.417,-2.31811
707,267,31.4119,2.89496,0.00330385,0.00564387,0.00362945,0.00828724,0.00066048,0.941322,0.00531835,0.0147943,1931,757,31.4119,-2.89497
714,267,31.5261,3.51959,0.00536711,0.0070114,0.00535904,0.011611,0.000767519,0.861511,0.00749793,0.0350819,1938,757,31.5262,-3.51958
721,267,31.6998,4.172,0,0,0,0,0,0,0,-1,1945,757,31.6998,-4.17198
728,267,26.7886,3.90027,0,0,0,0,0,0,0,-1,1952,757,26.7886,-3.90028
735,267,24.6713,2.82483,0,0,0,0,0,0,0,-1,1959,757,24.6713,-2.82483
742,267,18.1177,3.56561,0,0,0,0,0,0,0,-1,1966,757,18.1176,-3.56564
749,267,0,0,0,0,0,0,0,0,0,-1,1973,757,0,0
756,267,0,0,0,0,0,0,0,0,0,-1,1980,757,0,0
763,267,0,0,0,0,0,0,0,0,0,-1,1987,757,0,0
770,267,0,0,0,0,0,0,0,0,0,-1,1994,757,0,0
777,267,0,0,0,0,0,0,0,0,0,-1,2001,757,0,0
784,267,0,0,0,0,0,0,0,0,0,-1,2008,757,0,0
791,267,0,0,0,0,0,0,0,0,0,-1,2015,757,0,0
798,267,0,0,0,0,0,0,0,0,0,-1,2022,757,0,0
805,267,0,0,0,0,0,0,0,0,0,-1,2029,757,0,0
812,267,0,0,0,0,0,0,0,0,0,-1,2036,757,0,0
-700,260,0,0,0,0,0,0,0,0,0,-1,524,764,0,0
-693,260,0,0,0,0,0,0,0,0,0,-1,531,764,0,0
-686,260,0,0,0,0,0,0,0,0,0,-1,538,764,0,0
-679,260,0,0,0,0,0,0,0,0,0,-1,545,764,0,0
-672,260,0,0,0,0,0,0,0,0,0,-1,552,764,0,0
-665,260,0,0,0,0,0,0,0,0,0,-1,559,764,0,0
-658,260,0,0,0,0,0,0,0,0,0,-1,566,764,0,0
-651,260,0,0,0,0,0,0,0,0,0,-1,573,764,0,0
-644,260,0,0,0,0,0,0,0,0,0,-1,580,764,0,0
-637,260,0,0,0,0,0,0,0,0,0,-1,587,764,0,0
-630,260,-21.8905,4.49341,0,0,0,0,0,0,0,-1,594,764,-21.8905,-4.49342
-623,260,-20.3127,3.53546,0,0,0,0,0,0,0,-1,601,764,-20.3127,-3.53544
-616,260,-23.4346,3.65009,0,0,0,0,0,0,0,-1,608,764,-23.4345,-3.65008
-609,260,-18.557,3.77429,0,0,0,0,0,0,0,-1,615,764,-18.557,-3.77426
-602,260,-20.5432,2.90839,0,0,0,0,0,0,0,-1,622,764,-20.5432,-2.90838
-595,260,-21.9551,2.9455,0,0,0,0,0,0,0,-1,629,764,-21.9551,-2.94547
-588,260,-21.6264,1.9173,0.00668375,0.0110815,-0.00904054,0.0181867,-0.000421498,-0.904693,0.0122674,0.0444254,636,764,-21.6264,-1.91731
-581,260,-21.3038,0.912415,0.00446448,0.00796311,-0.00639043,0.0128393,-0.000411743,-0.918995,0.00870005,0.0288112,643,764,-21.3039,-0.912428
-574,260,-21.3312,0.346497,0.00285866,0.00565729,-0.00430037,0.00878028,-0.00026433,-0.942692,0.00594359,0.0183052,650,764,-21.3312,-0.346496
-567,260,-21.3437,-0.147827,0.00161033,0.00374211,-0.00264354,0.00552656,-0.000174122,-0.977032,0.00374376,0.0170858,657,764,-21.3437,0.147801
-560,260,-21.3591,-0.715027,0.000626022,0.00208496,-0.00128462,0.00283278,-0.000121793,-1.04362,0.0019304,0.0197854,664,764,-21.3591,0.715002
-553,260,-21.3792,-1.30603,-0.000191349,0.00064735,-0.000167066,0.000679403,-0.000223403,-1.38124,0.000542946,0.0171175,671,764,-21.3792,1.30605
-546,260,-21.4036,-1.84686,-0.000977551,-0.000565723,0.000748307,4.48438e-06,-0.00154776,0.919662,0.00103334,0.0118074,678,764,-21.4036,1.84685
-539,260,-21.3928,-2.40308,-0.00180458,-0.00235123,0.0013439,-0.000706497,-0.00344932,0.685075,0.00210396,0.0127447,685,764,-21.3928,2.40306
-532,260,-21.3899,-2.92419,-0.00241679,-0.00414317,0.00181582,-0.00126943,-0.00529053,0.563522,0.00318923,0.0175739,692,764,-21.3899,2.92421
-525,260,-21.4592,-3.50616,-0.00243944,-0.00582559,0.00208007,-0.0014505,-0.00681452,0.443803,0.004145,0.0155602,699,764,-21.4592,3.50618
-518,260,-21.5284,-4.05035,-0.00212663,-0.00762614,0.00219029,-0.00136091,-0.00839186,0.336314,0.00520063,0.0176932,706,764,-21.5284,4.05034
-511,260,-21.5329,-4.58575,-0.00166286,-0.00973442,0.00224301,-0.00108143,-0.0103158,0.253635,0.0065466,0.032489,713,764,-21.5329,4.58575
-504,260,-21.5027,-4.92023,0,0,0,0,0,0,0,-1,720,764,-21.5027,4.92022
-497,260,-16.6542,-3.67334,0,0,0,0,0,0,0,-1,727,764,-16.6542,3.67331
-490,260,-29.4557,0.921387,0,0,0,0,0,0,0,-1,734,764,-29.4557,-0.921369
-483,260,-33.0483,2.17987,0,0,0,0,0,0,0,-1,741,764,-33.0483,-2.17985
-476,260,-35.4565,1.77338,0,0,0,0,0,0,0,-1,748,764,-35.4565,-1.7734
-469,260,-35.2068,1.67932,0,0,0,0,0,0,0,-1,755,764,-35.2068,-1.67933
-462,260,-35.7415,0.272827,0,0,0,0,0,0,0,-1,762,764,-35.7414,-0.272811
-455,260,-35.6425,1.00128,0,0,0,0,0,0,0,-1,769,764,-35.6425,-1.00127
-448,260,0,0,0,0,0,0,0,0,0,-1,776,764,0,0
-441,260,0,0,0,0,0,0,0,0,0,-1,783,764,0,0
-434,260,0,0,0,0,0,0,0,0,0,-1,790,764,0,0
-427,260,0,0,0,0,0,0,0,0,0,-1,797,764,0,0
-420,260,0,0,0,0,0,0,0,0,0,-1,804,764,0,0
-413,260,0,0,0,0,0,0,0,0,0,-1,811,764,0,0
-406,260,0,0,0,0,0,0,0,0,0,-1,818,764,0,0
-399,260,0,0,0,0,0,0,0,0,0,-1,825,764,0,0
-392,260,0,0,0,0,0,0,0,0,0,-1,832,764,0,0
-385,260,0,0,0,0,0,0,0,0,0,-1,839,764,0,0
-378,260,0,0,0,0,0,0,0,0,0,-1,846,764,0,0
-371,260,0,0,0,0,0,0,0,0,0,-1,853,764,0,0
-364,260,0,0,0,0,0,0,0,0,0,-1,860,764,0,0
-357,260,0,0,0,0,0,0,0,0,0,-1,867,764,0,0
-350,260,0,0,0,0,0,0,0,0,0,-1,874,764,0,0
-343,260,0,0,0,0,0,0,0,0,0,-1,881,764,0,0
-336,260,0,0,0,0,0,0,0,0,0,-1,888,764,0,0
-329,260,0,0,0,0,0,0,0,0,0,-1,895,764,0,0
-322,260,0,0,0,0,0,0,0,0,0,-1,902,764,0,0
-315,260,0,0,0,0,0,0,0,0,0,-1,909,764,0,0
-308,260,0,0,0,0,0,0,0,0,0,-1,916,764,0,0
-301,260,0,0,0,0,0,0,0,0,0,-1,923,764,0,0
-294,260,0,0,0,0,0,0,0,0,0,-1,930,764,0,0
-287,260,0,0,0,0,0,0,0,0,0,-1,937,764,0,0
-280,260,0,0,0,0,0,0,0,0,0,-1,944,764,0,0
-273,260,0,0,0,0,0,0,0,0,0,-1,951,764,0,0
-266,260,0,0,0,0,0,0,0,0,0,-1,958,764,0,0
-259,260,0,0,0,0,0,0,0,0,0,-1,965,764,0,0
-252,260,0,0,0,0,0,0,0,0,0,-1,972,764,0,0
-245,260,0,0,0,0,0,0,0,0,0,-1,979,764,0,0
-238,260,0,0,0,0,0,0,0,0,0,-1,986,764,0,0
-231,260,0,0,0,0,0,0,0,0,0,-1,993,764,0,0
-224,260,0,0,0,0,0,0,0,0,0,-1,1000,764,0,0
-217,260,0,0,0,0,0,0,0,0,0,-1,1007,764,0,0
-210,260,0,0,0,0,0,0,0,0,0,-1,1014,764,0,0
-203,260,0,0,0,0,0,0,0,0,0,-1,1021,764,0,0
-196,260,0,0,0,0,0,0,0,0,0,-1,1028,764,0,0
-189,260,0,0,0,0,0,0,0,0,0,-1,1035,764,0,0
-182,260,0,0,0,0,0,0,0,0,0,-1,1042,764,0,0
-175,260,0,0,0,0,0,0,0,0,0,-1,1049,764,0,0
-168,260,0,0,0,0,0,0,0,0,0,-1,1056,764,0,0
-161,260,0,0,0,0,0,0,0,0,0,-1,1063,764,0,0
-154,260,0,0,0,0,0,0,0,0,0,-1,1070,764,0,0
-147,260,0,0,0,0,0,0,0,0,0,-1,1077,764,0,0
-140,260,0,0,0,0,0,0,0,0,0,-1,1084,764,0,0
-133,260,0,0,0,0,0,0,0,0,0,-1,1091,764,0,0
-126,260,0,0,0,0,0,0,0,0,0,-1,1098,764,0,0
-119,260,0,0,0,0,0,0,0,0,0,-1,1105,764,0,0
-112,260,0,0,0,0,0,0,0,0,0,-1,1112,764,0,0
-105,260,0,0,0,0,0,0,0,0,0,-1,1119,764,0,0
-98,260,0,0,0,0,0,0,0,0,0,-1,1126,764,0,0
-91,260,0,0,0,0,0,0,0,0,0,-1,1133,764,0,0
-84,260,0,0,0,0,0,0,0,0,0,-1,1140,764,0,0
-77,260,0,0,0,0,0,0,0,0,0,-1,1147,764,0,0
-70,260,0,0,0,0,0,0,0,0,0,-1,1154,764,0,0
-63,260,0,0,0,0,0,0,0,0,0,-1,1161,764,0,0
-56,260,0,0,0,0,0,0,0,0,0,-1,1168,764,0,0
-49,260,0,0,0,0,0,0,0,0,0,-1,1175,764,0,0
-42,260,0,0,0,0,0,0,0,0,0,-1,1182,764,0,0
-35,260,0,0,0,0,0,0,0,0,0,-1,1189,764,0,0
-28,260,0,0,0,0,0,0,0,0,0,-1,1196,764,0,0
-21,260,0,0,0,0,0,0,0,0,0,-1,1203,764,0,0
-14,260,0,0,0,0,0,0,0,0,0,-1,1210,764,0,0
-7,260,0,0,0,0,0,0,0,0,0,-1,1217,764,0,0
0,260,0,0,0,0,0,0,0,0,0,-1,1224,764,0,0
7,260,0,0,0,0,0,0,0,0,0,-1,1231,764,0,0
14,260,0,0,0,0,0,0,0,0,0,-1,1238,764,0,0
21,260,0,0,0,0,0,0,0,0,0,-1,1245,764,0,0
28,260,0,0,0,0,0,0,0,0,0,-1,1252,764,0,0
35,260,0,0,0,0,0,0,0,0,0,-1,1259,764,0,0
42,260,0,0,0,0,0,0,0,0,0,-1,1266,764,0,0
49,260,0,0,0,0,0,0,0,0,0,-1,1273,764,0,0
56,260,0,0,0,0,0,0,0,0,0,-1,1280,764,0,0
63,260,0,0,0,0,0,0,0,0,0,-1,1287,764,0,0
70,260,0,0,0,0,0,0,0,0,0,-1,1294,764,0,0
77,260,0,0,0,0,0,0,0,0,0,-1,1301,764,0,0
84,260,0,0,0,0,0,0,0,0,0,-1,1308,764,0,0
91,260,0,0,0,0,0,0,0,0,0,-1,1315,764,0,0
98,260,0,0,0,0,0,0,0,0,0,-1,1322,764,0,0
105,260,0,0,0,0,0,0,0,0,0,-1,1329,764,0,0
112,260,0,0,0,0,0,0,0,0,0,-1,1336,764,0,0
119,260,0,0,0,0,0,0,0,0,0,-1,1343,764,0,0
126,260,0,0,0,0,0,0,0,0,0,-1,1350,764,0,0
133,260,0,0,0,0,0,0,0,0,0,-1,1357,764,0,0
140,260,0,0,0,0,0,0,0,0,0,-1,1364,764,0,0
147,260,0,0,0,0,0,0,0,0,0,-1,1371,764,0,0
154,260,0,0,0,0,0,0,0,0,0,-1,1378,764,0,0
161,260,0,0,0,0,0,0,0,0,0,-1,1385,764,0,0
168,260,0,0,0,0,0,0,0,0,0,-1,1392,764,0,0
175,260,0,0,0,0,0,0,0,0,0,-1,1399,764,0,0
182,260,0,0,0,0,0,0,0,0,0,-1,1406,764,0,0
189,260,0,0,0,0,0,0,0,0,0,-1,1413,764,0,0
196,260,0,0,0,0,0,0,0,0,0,-1,1420,764,0,0
203,260,0,0,0,0,0,0,0,0,0,-1,1427,764,0,0
210,260,0,0,0,0,0,0,0,0,0,-1,1434,764,0,0
217,260,0,0,0,0,0,0,0,0,0,-1,1441,764,0,0
224,260,0,0,0,0,0,0,0,0,0,-1,1448,764,0,0
231,260,0,0,0,0,0,0,0,0,0,-1,1455,764,0,0
238,260,0,0,0,0,0,0,0,0,0,-1,1462,764,0,0
245,260,0,0,0,0,0,0,0,0,0,-1,1469,764,0,0
252,260,0,0,0,0,0,0,0,0,0,-1,1476,764,0,0
259,260,0,0,0,0,0,0,0,0,0,-1,1483,764,0,0
266,260,0,0,0,0,0,0,0,0,0,-1,1490,764,0,0
273,260,0,0,0,0,0,0,0,0,0,-1,1497,764,0,0
280,260,0,0,0,0,0,0,0,0,0,-1,1504,764,0,0
287,260,0,0,0,0,0,0,0,0,0,-1,1511,764,0,0
294,260,0,0,0,0,0,0,0,0,0,-1,1518,764,0,0
301,260,0,0,0,0,0,0,0,0,0,-1,1525,764,0,0
308,260,0,0,0,0,0,0,0,0,0,-1,1532,764,0,0
315,260,0,0,0,0,0,0,0,0,0,-1,1539,764,0,0
322,260,0,0,0,0,0,0,0,0,0,-1,1546,764,0,0
329,260,0,0,0,0,0,0,0,0,0,-1,1553,764,0,0
336,260,0,0,0,0,0,0,0,0,0,-1,1560,764,0,0
343,260,0,0,0,0,0,0,0,0,0,-1,1567,764,0,0
350,260,0,0,0,0,0,0,0,0,0,-1,1574,764,0,0
357,260,0,0,0,0,0,0,0,0,0,-1,1581,764,0,0
364,260,0,0,0,0,0,0,0,0,0,-1,1588,764,0,0
371,260,0,0,0,0,0,0,0,0,0,-1,1595,764,0,0
378,260,0,0,0,0,0,0,0,0,0,-1,1602,764,0,0
385,260,0,0,0,0,0,0,0,0,0,-1,1609,764,0,0
392,260,0,0,0,0,0,0,0,0,0,-1,1616,764,0,0
399,260,0,0,0,0,0,0,0,0,0,-1,1623,764,0,0
406,260,0,0,0,0,0,0,0,0,0,-1,1630,764,0,0
413,260,0,0,0,0,0,0,0,0,0,-1,1637,764,0,0
420,260,0,0,0,0,0,0,0,0,0,-1,1644,764,0,0
427,260,0,0,0,0,0,0,0,0,0,-1,1651,764,0,0
434,260,0,0,0,0,0,0,0,0,0,-1,1658,764,0,0
441,260,0,0,0,0,0,0,0,0,0,-1,1665,764,0,0
448,260,0,0,0,0,0,0,0,0,0,-1,1672,764,0,0
455,260,0,0,0,0,0,0,0,0,0,-1,1679,764,0,0
462,260,0,0,0,0,0,0,0,0,0,-1,1686,764,0,0
469,260,0,0,0,0,0,0,0,0,0,-1,1693,764,0,0
476,260,0,0,0,0,0,0,0,0,0,-1,1700,764,0,0
483,260,0,0,0,0,0,0,0,0,0,-1,1707,764,0,0
490,260,0,0,0,0,0,0,0,0,0,-1,1714,764,0,0
497,260,0,0,0,0,0,0,0,0,0,-1,1721,764,0,0
504,260,0,0,0,0,0,0,0,0,0,-1,1728,764,0,0
511,260,0,0,0,0,0,0,0,0,0,-1,1735,764,0,0
518,260,0,0,0,0,0,0,0,0,0,-1,1742,764,0,0
525,260,0,0,0,0,0,0,0,0,0,-1,1749,764,0,0
532,260,0,0,0,0,0,0,0,0,0,-1,1756,764,0,0
539,260,0,0,0,0,0,0,0,0,0,-1,1763,764,0,0
546,260,0,0,0,0,0,0,0,0,0,-1,1770,764,0,0
553,260,0,0,0,0,0,0,0,0,0,-1,1777,764,0,0
560,260,0,0,0,0,0,0,0,0,0,-1,1784,764,0,0
567,260,0,0,0,0,0,0,0,0,0,-1,1791,764,0,0
574,260,48.0337,2.93304,0.00871096,0.0256009,-0.00929262,0.0297126,0.00459925,-1.15422,0.0184672,0.0378806,1798,764,48.0337,-2.93303
581,260,48.0083,3.16174,-0.00159453,0.0222451,-0.00132023,0.022318,-0.00166743,-1.51564,0.0154645,0.0458072,1805,764,48.0083,-3.16176
588,260,48.7627,2.22449,0,0,0,0,0,0,0,-1,1812,764,48.7627,-2.2245
595,260,48.3098,2.80713,-0.00986227,0.0145046,0.00542666,0.0156585,-0.0110162,1.36128,0.0154782,0.0467712,1819,764,48.3098,-2.80713
602,260,47.8326,3.40936,-0.0108027,0.0111377,0.00636004,0.012848,-0.0125131,1.3081,0.0146426,0.0420564,1826,764,47.8327,-3.40939
609,260,47.3076,3.89063,0,0,0,0,0,0,0,-1,1833,764,47.3076,-3.89061
616,260,46.0709,2.74542,0,0,0,0,0,0,0,-1,1840,764,46.0709,-2.74545
623,260,32.2268,3.25836,0,0,0,0,0,0,0,-1,1847,764,32.2268,-3.25833
630,260,24.3739,-0.536316,0,0,0,0,0,0,0,-1,1854,764,24.3739,0.536343
637,260,32.1844,-2.79224,0,0,0,0,0,0,0,-1,1861,764,32.1845,2.79226
644,260,32.1897,-2.26587,-0.00538331,0.000826132,0.00358939,0.00246725,-0.00702443,1.14196,0.00568667,0.034007,1868,764,32.1897,2.26588
651,260,32.1558,-1.6955,-0.00325488,0.000464313,0.00207798,0.00139328,-0.00418385,1.1504,0.00335162,0.0162255,1875,764,32.1557,1.69552
658,260,32.1206,-1.12988,-0.00102699,-0.000628368,0.000655013,-0.000143014,-0.00151235,0.933091,0.000964102,0.0154109,1882,764,32.1206,1.12991
665,260,32.1002,-0.563171,0.000102865,-0.000605005,-0.000152276,0.000134233,-0.000636373,-0.203149,0.000475353,0.0154615,1889,764,32.1002,0.563187
672,260,32.0867,0.0368042,0.000328441,-0.000172008,-0.000133706,0.000361924,-0.00020549,-0.245373,0.000331721,0.0138177,1896,764,32.0867,-0.0367737
679,260,32.0476,0.621704,0.000670368,0.000387332,0.000205052,0.000777996,0.000279704,0.483353,0.000455048,0.0122855,1903,764,32.0476,-0.621715
686,260,32.0088,1.19769,0.00105655,0.00143701,0.000702828,0.0019749,0.000518662,0.917563,0.00118226,0.0172304,1910,764,32.0088,-1.19767
693,260,31.9636,1.7276,0.0017712,0.00252443,0.0013776,0.00357596,0.00071966,0.91883,0.00218398,0.0174108,1917,764,31.9637,-1.72762
700,260,31.9407,2.30426,0.00286293,0.00359458,0.00226099,0.00551915,0.000938367,0.865603,0.00340996,0.0146423,1924,764,31.9407,-2.30427
707,260,31.9553,2.8924,0.00435822,0.00465441,0.00339365,0.00790319,0.00110943,0.807203,0.00494068,0.0146861,1931,764,31.9554,-2.89239
714,260,31.9617,3.4939,0.00649721,0.00582226,0.00502155,0.0111926,0.00112686,0.751846,0.00711593,0.0275959,1938,764,31.9617,-3.4939
721,260,31.9706,4.09924,0,0,0,0,0,0,0,-1,1945,764,31.9706,-4.09923
728,260,30.0559,5.07568,0,0,0,0,0,0,0,-1,1952,764,30.0559,-5.07567
735,260,26.9788,4.85681,0,0,0,0,0,0,0,-1,1959,764,26.9787,-4.85678
742,260,32.1443,1.73688,0,0,0,0,0,0,0,-1,1966,764,32.1442,-1.73688
749,260,33.6013,2.94733,0,0,0,0,0,0,0,-1,1973,764,33.6013,-2.9473
756,260,0,0,0,0,0,0,0,0,0,-1,1980,764,0,0
763,260,0,0,0,0,0,0,0,0,0,-1,1987,764,0,0
770,260,0,0,0,0,0,0,0,0,0,-1,1994,764,0,0
777,260,0,0,0,0,0,0,0,0,0,-1,2001,764,0,0
784,260,0,0,0,0,0,0,0,0,0,-1,2008,764,0,0
791,260,0,0,0,0,0,0,0,0,0,-1,2015,764,0,0
798,260,0,0,0,0,0,0,0,0,0,-1,2022,764,0,0
805,260,0,0,0,0,0,0,0,0,0,-1,2029,764,0,0
812,260,0,0,0,0,0,0,0,0,0,-1,2036,764,0,0
-700,253,0,0,0,0,0,0,0,0,0,-1,524,771,0,0
-693,253,0,0,0,0,0,0,0,0,0,-1,531,771,0,0
-686,253,0,0,0,0,0,0,0,0,0,-1,538,771,0,0
-679,253,0,0,0,0,0,0,0,0,0,-1,545,771,0,0
-672,253,0,0,0,0,0,0,0,0,0,-1,552,771,0,0
-665,253,0,0,0,0,0,0,0,0,0,-1,559,771,0,0
-658,253,0,0,0,0,0,0,0,0,0,-1,566,771,0,0
-651,253,0,0,0,0,0,0,0,0,0,-1,573,771,0,0
-644,253,0,0,0,0,0,0,0,0,0,-1,580,771,0,0
-637,253,-24.7979,-0.491394,0,0,0,0,0,0,0,-1,587,771,-24.7978,0.491371
-630,253,-25.156,0.540405,0,0,0,0,0,0,0,-1,594,771,-25.156,-0.540421
-623,253,-20.808,2.84314,0,0,0,0,0,0,0,-1,601,771,-20.8081,-2.84312
-616,253,-25.0877,2.96875,0,0,0,0,0,0,0,-1,608,771,-25.0877,-2.96876
-609,253,-24.28,2.08228,0,0,0,0,0,0,0,-1,615,771,-24.2801,-2.08227
-602,253,-23.0087,3.30829,0,0,0,0,0,0,0,-1,622,771,-23.0088,-3.30828
-595,253,-22.503,2.54175,0,0,0,0,0,0,0,-1,629,771,-22.503,-2.54178
-588,253,-21.9329,1.44305,0.0055468,0.0106699,-0.00833769,0.0168306,-0.000613973,-0.934433,0.0114306,0.0400155,636,771,-21.9329,-1.44308
-581,253,-21.8594,0.874084,0.00382488,0.00763669,-0.00592505,0.0119548,-0.00049325,-0.941006,0.00813929,0.0258212,643,771,-21.8594,-0.874113
-574,253,-21.908,0.329529,0.0024447,0.00531133,-0.00393959,0.00807024,-0.000314212,-0.959867,0.0054879,0.0206834,650,771,-21.908,-0.329537
-567,253,-21.9446,-0.216797,0.0012852,0.00333175,-0.00230043,0.00482622,-0.000209279,-0.994667,0.00328946,0.0163985,657,771,-21.9446,0.216807
-560,253,-21.9332,-0.705383,0.000296286,0.00164247,-0.000926749,0.00211476,-0.000176012,-1.09948,0.00147203,0.0129738,664,771,-21.9332,0.705364
-553,253,-21.9545,-1.2627,-0.000649392,0.000217297,0.000196559,0.000259792,-0.000691887,1.35788,0.000568016,0.0118604,671,771,-21.9546,1.2627
-546,253,-21.9764,-1.79938,-0.00168583,-0.000907285,0.00108769,-0.000141303,-0.00245181,0.95724,0.00158953,0.0105127,678,771,-21.9764,1.79939
-539,253,-21.9941,-2.36646,-0.00280195,-0.00273033,0.00159174,-0.001174,-0.00435829,0.796645,0.00260396,0.0121932,685,771,-21.9942,2.36647
-532,253,-21.9727,-2.93085,-0.00357126,-0.00432413,0.0019881,-0.00192427,-0.00597112,0.691834,0.00351928,0.018105,692,771,-21.9727,2.93083
-525,253,-21.9991,-3.49829,-0.00369539,-0.00584284,0.00221194,-0.00231035,-0.00722788,0.559439,0.00426255,0.0161319,699,771,-21.9991,3.49831
-518,253,-22.0856,-4.04547,-0.00346535,-0.00749137,0.00227915,-0.00243751,-0.0085192,0.423663,0.00506634,0.0266768,706,771,-22.0856,4.04549
-511,253,-22.2578,-4.52026,0,0,0,0,0,0,0,-1,713,771,-22.2578,4.52025
-504,253,-19.317,-4.1723,0,0,0,0,0,0,0,-1,720,771,-19.317,4.1723
-497,253,-21.7737,-1.76837,0,0,0,0,0,0,0,-1,727,771,-21.7738,1.7684
-490,253,-29.7674,0.438354,0,0,0,0,0,0,0,-1,734,771,-29.7674,-0.438339
-483,253,-35.5228,1.66473,0,0,0,0,0,0,0,-1,741,771,-35.5228,-1.66472
-476,253,-36.4994,0.366089,0,0,0,0,0,0,0,-1,748,771,-36.4994,-0.366082
-469,253,-35.3403,1.56293,0,0,0,0,0,0,0,-1,755,771,-35.3403,-1.56295
-462,253,-35.5031,1.12024,0,0,0,0,0,0,0,-1,762,771,-35.5031,-1.12024
-455,253,-35.626,1.13586,0,0,0,0,0,0,0,-1,769,771,-35.626,-1.13584
-448,253,0,0,0,0,0,0,0,0,0,-1,776,771,0,0
-441,253,0,0,0,0,0,0,0,0,0,-1,783,771,0,0
-434,253,0,0,0,0,0,0,0,0,0,-1,790,771,0,0
-427,253,0,0,0,0,0,0,0,0,0,-1,797,771,0,0
-420,253,0,0,0,0,0,0,0,0,0,-1,804,771,0,0
-413,253,0,0,0,0,0,0,0,0,0,-1,811,771,0,0
-406,253,0,0,0,0,0,0,0,0,0,-1,818,771,0,0
-399,253,0,0,0,0,0,0,0,0,0,-1,825,771,0,0
-392,253,0,0,0,0,0,0,0,0,0,-1,832,771,0,0
-385,253,0,0,0,0,0,0,0,0,0,-1,839,771,0,0
-378,253,0,0,0,0,0,0,0,0,0,-1,846,771,0,0
-371,253,0,0,0,0,0,0,0,0,0,-1,853,771,0,0
-364,253,0,0,0,0,0,0,0,0,0,-1,860,771,0,0
-357,253,0,0,0,0,0,0,0,0,0,-1,867,771,0,0
-350,253,0,0,0,0,0,0,0,0,0,-1,874,771,0,0
-343,253,0,0,0,0,0,0,0,0,0,-1,881,771,0,0
-336,253,0,0,0,0,0,0,0,0,0,-1,888,771,0,0
-329,253,0,0,0,0,0,0,0,0,0,-1,895,771,0,0
-322,253,0,0,0,0,0,0,0,0,0,-1,902,771,0,0
-315,253,0,0,0,0,0,0,0,0,0,-1,909,771,0,0
-308,253,0,0,0,0,0,0,0,0,0,-1,916,771,0,0
-301,253,0,0,0,0,0,0,0,0,0,-1,923,771,0,0
-294,253,0,0,0,0,0,0,0,0,0,-1,930,771,0,0
-287,253,0,0,0,0,0,0,0,0,0,-1,937,771,0,0
-280,253,0,0,0,0,0,0,0,0,0,-1,944,771,0,0
-273,253,0,0,0,0,0,0,0,0,0,-1,951,771,0,0
-266,253,0,0,0,0,0,0,0,0,0,-1,958,771,0,0
-259,253,0,0,0,0,0,0,0,0,0,-1,965,771,0,0
-252,253,0,0,0,0,0,0,0,0,0,-1,972,771,0,0
-245,253,0,0,0,0,0,0,0,0,0,-1,979,771,0,0
-238,253,0,0,0,0,0,0,0,0,0,-1,986,771,0,0
-231,253,0,0,0,0,0,0,0,0,0,-1,993,771,0,0
-224,253,0,0,0,0,0,0,0,0,0,-1,1000,771,0,0
-217,253,0,0,0,0,0,0,0,0,0,-1,1007,771,0,0
-210,253,0,0,0,0,0,0,0,0,0,-1,1014,771,0,0
-203,253,0,0,0,0,0,0,0,0,0,-1,1021,771,0,0
-196,253,0,0,0,0,0,0,0,0,0,-1,1028,771,0,0
-189,253,0,0,0,0,0,0,0,0,0,-1,1035,771,0,0
-182,253,0,0,0,0,0,0,0,0,0,-1,1042,771,0,0
-175,253,0,0,0,0,0,0,0,0,0,-1,1049,771,0,0
-168,253,0,0,0,0,0,0,0,0,0,-1,1056,771,0,0
-161,253,0,0,0,0,0,0,0,0,0,-1,1063,771,0,0
-154,253,0,0,0,0,0,0,0,0,0,-1,1070,771,0,0
-147,253,0,0,0,0,0,0,0,0,0,-1,1077,771,0,0
-140,253,0,0,0,0,0,0,0,0,0,-1,1084,771,0,0
-133,253,0,0,0,0,0,0,0,0,0,-1,1091,771,0,0
-126,253,0,0,0,0,0,0,0,0,0,-1,1098,771,0,0
-119,253,0,0,0,0,0,0,0,0,0,-1,1105,771,0,0
-112,253,0,0,0,0,0,0,0,0,0,-1,1112,771,0,0
-105,253,0,0,0,0,0,0,0,0,0,-1,1119,771,0,0
-98,253,0,0,0,0,0,0,0,0,0,-1,1126,771,0,0
-91,253,0,0,0,0,0,0,0,0,0,-1,1133,771,0,0
-84,253,0,0,0,0,0,0,0,0,0,-1,1140,771,0,0
-77,253,0,0,0,0,0,0,0,0,0,-1,1147,771,0,0
-70,253,0,0,0,0,0,0,0,0,0,-1,1154,771,0,0
-63,253,0,0,0,0,0,0,0,0,0,-1,1161,771,0,0
-56,253,0,0,0,0,0,0,0,0,0,-1,1168,771,0,0
-49,253,0,0,0,0,0,0,0,0,0,-1,1175,771,0,0
-42,253,0,0,0,0,0,0,0,0,0,-1,1182,771,0,0
-35,253,0,0,0,0,0,0,0,0,0,-1,1189,771,0,0
-28,253,0,0,0,0,0,0,0,0,0,-1,1196,771,0,0
-21,253,0,0,0,0,0,0,0,0,0,-1,1203,771,0,0
-14,253,0,0,0,0,0,0,0,0,0,-1,1210,771,0,0
-7,253,0,0,0,0,0,0,0,0,0,-1,1217,771,0,0
0,253,0,0,0,0,0,0,0,0,0,-1,1224,771,0,0
7,253,0,0,0,0,0,0,0,0,0,-1,1231,771,0,0
14,253,0,0,0,0,0,0,0,0,0,-1,1238,771,0,0
21,253,0,0,0,0,0,0,0,0,0,-1,1245,771,0,0
28,253,0,0,0,0,0,0,0,0,0,-1,1252,771,0,0
35,253,0,0,0,0,0,0,0,0,0,-1,1259,771,0,0
42,253,0,0,0,0,0,0,0,0,0,-1,1266,771,0,0
49,253,0,0,0,0,0,0,0,0,0,-1,1273,771,0,0
56,253,0,0,0,0,0,0,0,0,0,-1,1280,771,0,0
63,253,0,0,0,0,0,0,0,0,0,-1,1287,771,0,0
70,253,0,0,0,0,0,0,0,0,0,-1,1294,771,0,0
77,253,0,0,0,0,0,0,0,0,0,-1,1301,771,0,0
84,253,0,0,0,0,0,0,0,0,0,-1,1308,771,0,0
91,253,0,0,0,0,0,0,0,0,0,-1,1315,771,0,0
98,253,0,0,0,0,0,0,0,0,0,-1,1322,771,0,0
105,253,0,0,0,0,0,0,0,0,0,-1,1329,771,0,0
112,253,0,0,0,0,0,0,0,0,0,-1,1336,771,0,0
119,253,0,0,0,0,0,0,0,0,0,-1,1343,771,0,0
126,253,0,0,0,0,0,0,0,0,0,-1,1350,771,0,0
133,253,0,0,0,0,0,0,0,0,0,-1,1357,771,0,0
140,253,0,0,0,0,0,0,0,0,0,-1,1364,771,0,0
147,253,0,0,0,0,0,0,0,0,0,-1,1371,771,0,0
154,253,0,0,0,0,0,0,0,0,0,-1,1378,771,0,0
161,253,0,0,0,0,0,0,0,0,0,-1,1385,771,0,0
168,253,0,0,0,0,0,0,0,0,0,-1,1392,771,0,0
175,253,0,0,0,0,0,0,0,0,0,-1,1399,771,0,0
182,253,0,0,0,0,0,0,0,0,0,-1,1406,771,0,0
189,253,0,0,0,0,0,0,0,0,0,-1,1413,771,0,0
196,253,0,0,0,0,0,0,0,0,0,-1,1420,771,0,0
203,253,0,0,0,0,0,0,0,0,0,-1,1427,771,0,0
210,253,0,0,0,0,0,0,0,0,0,-1,1434,771,0,0
217,253,0,0,0,0,0,0,0,0,0,-1,1441,771,0,0
224,253,0,0,0,0,0,0,0,0,0,-1,1448,771,0,0
231,253,0,0,0,0,0,0,0,0,0,-1,1455,771,0,0
238,253,0,0,0,0,0,0,0,0,0,-1,1462,771,0,0
245,253,0,0,0,0,0,0,0,0,0,-1,1469,771,0,0
252,253,0,0,0,0,0,0,0,0,0,-1,1476,771,0,0
259,253,0,0,0,0,0,0,0,0,0,-1,1483,771,0,0
266,253,0,0,0,0,0,0,0,0,0,-1,1490,771,0,0
273,253,0,0,0,0,0,0,0,0,0,-1,1497,771,0,0
280,253,0,0,0,0,0,0,0,0,0,-1,1504,771,0,0
287,253,0,0,0,0,0,0,0,0,0,-1,1511,771,0,0
294,253,0,0,0,0,0,0,0,0,0,-1,1518,771,0,0
301,253,0,0,0,0,0,0,0,0,0,-1,1525,771,0,0
308,253,0,0,0,0,0,0,0,0,0,-1,1532,771,0,0
315,253,0,0,0,0,0,0,0,0,0,-1,1539,771,0,0
322,253,0,0,0,0,0,0,0,0,0,-1,1546,771,0,0
329,253,0,0,0,0,0,0,0,0,0,-1,1553,771,0,0
336,253,0,0,0,0,0,0,0,0,0,-1,1560,771,0,0
343,253,0,0,0,0,0,0,0,0,0,-1,1567,771,0,0
350,253,0,0,0,0,0,0,0,0,0,-1,1574,771,0,0
357,253,0,0,0,0,0,0,0,0,0,-1,1581,771,0,0
364,253,0,0,0,0,0,0,0,0,0,-1,1588,771,0,0
371,253,0,0,0,0,0,0,0,0,0,-1,1595,771,0,0
378,253,0,0,0,0,0,0,0,0,0,-1,1602,771,0,0
385,253,0,0,0,0,0,0,0,0,0,-1,1609,771,0,0
392,253,0,0,0,0,0,0,0,0,0,-1,1616,771,0,0
399,253,0,0,0,0,0,0,0,0,0,-1,1623,771,0,0
406,253,0,0,0,0,0,0,0,0,0,-1,1630,771,0,0
413,253,0,0,0,0,0,0,0,0,0,-1,1637,771,0,0
420,253,0,0,0,0,0,0,0,0,0,-1,1644,771,0,0
427,253,0,0,0,0,0,0,0,0,0,-1,1651,771,0,0
434,253,0,0,0,0,0,0,0,0,0,-1,1658,771,0,0
441,253,0,0,0,0,0,0,0,0,0,-1,1665,771,0,0
448,253,0,0,0,0,0,0,0,0,0,-1,1672,771,0,0
455,253,0,0,0,0,0,0,0,0,0,-1,1679,771,0,0
462,253,0,0,0,0,0,0,0,0,0,-1,1686,771,0,0
469,253,0,0,0,0,0,0,0,0,0,-1,1693,771,0,0
476,253,0,0,0,0,0,0,0,0,0,-1,1700,771,0,0
483,253,0,0,0,0,0,0,0,0,0,-1,1707,771,0,0
490,253,0,0,0,0,0,0,0,0,0,-1,1714,771,0,0
497,253,0,0,0,0,0,0,0,0,0,-1,1721,771,0,0
504,253,0,0,0,0,0,0,0,0,0,-1,1728,771,0,0
511,253,0,0,0,0,0,0,0,0,0,-1,1735,771,0,0
518,253,0,0,0,0,0,0,0,0,0,-1,1742,771,0,0
525,253,0,0,0,0,0,0,0,0,0,-1,1749,771,0,0
532,253,0,0,0,0,0,0,0,0,0,-1,1756,771,0,0
539,253,0,0,0,0,0,0,0,0,0,-1,1763,771,0,0
546,253,0,0,0,0,0,0,0,0,0,-1,1770,771,0,0
553,253,0,0,0,0,0,0,0,0,0,-1,1777,771,0,0
560,253,0,0,0,0,0,0,0,0,0,-1,1784,771,0,0
567,253,0,0,0,0,0,0,0,0,0,-1,1791,771,0,0
574,253,48.1525,2.76709,0.0119509,0.0191403,-0.0124546,0.0285086,0.00258257,-0.925892,0.0182061,0.0352485,1798,771,48.1524,-2.76707
581,253,48.1317,2.82404,-0.000638503,0.0177626,-0.0027066,0.0181525,-0.00102836,-1.42774,0.0124586,0.0395792,1805,771,48.1317,-2.82404
588,253,48.2435,2.83624,-0.00783119,0.0155055,0.00305433,0.0158987,-0.00822432,1.44279,0.0141604,0.0454605,1812,771,48.2436,-2.83624
595,253,48.3662,2.9234,-0.0108311,0.0126856,0.00569235,0.013991,-0.0121365,1.34537,0.0150974,0.0478933,1819,771,48.3662,-2.92338
602,253,47.8286,3.31183,-0.0116177,0.00998343,0.00661777,0.0118496,-0.0134839,1.29593,0.0146365,0.0426451,1826,771,47.8286,-3.31181
609,253,47.3527,3.84027,-0.011026,0.00778306,0.00666353,0.0099045,-0.0131474,1.26258,0.0133528,0.0388881,1833,771,47.3526,-3.84026
616,253,46.7174,4.69659,0,0,0,0,0,0,0,-1,1840,771,46.7174,-4.69659
623,253,48.028,2.24768,0,0,0,0,0,0,0,-1,1847,771,48.028,-2.24766
630,253,33.561,2.96838,0,0,0,0,0,0,0,-1,1854,771,33.561,-2.96836
637,253,22.3192,-0.604004,0,0,0,0,0,0,0,-1,1861,771,22.3192,0.603986
644,253,32.8781,-2.2121,0,0,0,0,0,0,0,-1,1868,771,32.878,2.21207
651,253,32.7086,-1.61749,-0.00339374,0.000767987,0.00197107,0.00155333,-0.00417908,1.19164,0.00342339,0.0294151,1875,771,32.7087,1.61749
658,253,32.6836,-1.08472,-0.0013625,-0.000402388,0.000582654,-0.0001275,-0.00163739,1.12997,0.00105167,0.019915,1882,771,32.6835,1.08474
665,253,32.6028,-0.542725,-0.000192604,-0.000566457,-0.00032269,-6.60901e-06,-0.000752452,-0.522878,0.000499446,0.0225749,1889,771,32.6028,0.542705
672,253,32.6219,0.0667114,9.74291e-05,-0.000396731,-0.000377696,0.000301684,-0.000600985,-0.495745,0.00053062,0.0180734,1896,771,32.622,-0.0667313
679,253,32.6277,0.670837,0.000502974,-0.00014132,-9.82962e-05,0.000517637,-0.000155983,-0.148078,0.000407169,0.01317,1903,771,32.6276,-0.670841
686,253,32.6,1.21539,0.000920902,0.000772841,0.000355382,0.00120988,0.000483861,0.68271,0.000703174,0.0202323,1910,771,32.6,-1.21539
693,253,32.532,1.7558,0.00168612,0.00176392,0.000984209,0.00271,0.000740041,0.805151,0.00161744,0.020193,1917,771,32.532,-1.7558
700,253,32.5087,2.31415,0.00282582,0.00267962,0.00177434,0.00452857,0.000976871,0.76481,0.00275184,0.0162948,1924,771,32.5086,-2.31415
707,253,32.531,2.91815,0.00433097,0.00340102,0.00264312,0.0065497,0.00118229,0.698329,0.00403059,0.015399,1931,771,32.5311,-2.91816
714,253,32.514,3.50226,0.00637262,0.00400513,0.00369983,0.00907345,0.00130429,0.630571,0.00566448,0.0215305,1938,771,32.514,-3.50224
721,253,32.6772,4.14148,0.00874037,0.0043485,0.00440954,0.0114705,0.00161837,0.554377,0.0071687,0.0387979,1945,771,32.6772,-4.1415
728,253,32.8881,4.76337,0,0,0,0,0,0,0,-1,1952,771,32.8881,-4.76339
735,253,30.9088,5.36432,0,0,0,0,0,0,0,-1,1959,771,30.9088,-5.36435
742,253,31.0571,5.7337,0,0,0,0,0,0,0,-1,1966,771,31.0571,-5.73373
749,253,33.7754,3.21533,0,0,0,0,0,0,0,-1,1973,771,33.7754,-3.21533
756,253,0,0,0,0,0,0,0,0,0,-1,1980,771,0,0
763,253,0,0,0,0,0,0,0,0,0,-1,1987,771,0,0
770,253,0,0,0,0,0,0,0,0,0,-1,1994,771,0,0
777,253,0,0,0,0,0,0,0,0,0,-1,2001,771,0,0
784,253,0,0,0,0,0,0,0,0,0,-1,2008,771,0,0
791,253,0,0,0,0,0,0,0,0,0,-1,2015,771,0,0
798,253,0,0,0,0,0,0,0,0,0,-1,2022,771,0,0
805,253,0,0,0,0,0,0,0,0,0,-1,2029,771,0,0
812,253,0,0,0,0,0,0,0,0,0,-1,2036,771,0,0
-700,246,0,0,0,0,0,0,0,0,0,-1,524,778,0,0
-693,246,0,0,0,0,0,0,0,0,0,-1,531,778,0,0
-686,246,0,0,0,0,0,0,0,0,0,-1,538,778,0,0
-679,246,0,0,0,0,0,0,0,0,0,-1,545,778,0,0
-672,246,0,0,0,0,0,0,0,0,0,-1,552,778,0,0
-665,246,0,0,0,0,0,0,0,0,0,-1,559,778,0,0
-658,246,0,0,0,0,0,0,0,0,0,-1,566,778,0,0
-651,246,0,0,0,0,0,0,0,0,0,-1,573,778,0,0
-644,246,0,0,0,0,0,0,0,0,0,-1,580,778,0,0
-637,246,-24.1234,0.130432,0,0,0,0,0,0,0,-1,587,778,-24.1234,-0.130438
-630,246,-24.0781,1.38916,0,0,0,0,0,0,0,-1,594,778,-24.0781,-1.38913
-623,246,-23.9183,2.49573,0,0,0,0,0,0,0,-1,601,778,-23.9183,-2.49575
-616,246,-26.8182,2.0705,0,0,0,0,0,0,0,-1,608,778,-26.8182,-2.07052
-609,246,-26.0615,1.16388,0,0,0,0,0,0,0,-1,615,778,-26.0615,-1.16388
-602,246,-21.8019,3.6532,0,0,0,0,0,0,0,-1,622,778,-21.8019,-3.6532
-595,246,-22.347,1.95837,0,0,0,0,0,0,0,-1,629,778,-22.347,-1.95838
-588,246,-22.3843,1.41925,0.00431916,0.00984946,-0.00737543,0.014961,-0.000792425,-0.964745,0.0102484,0.031572,636,778,-22.3843,-1.41927
-581,246,-22.45,0.924561,0.00305855,0.00704127,-0.00526095,0.0106751,-0.000575314,-0.966324,0.00731607,0.0179196,643,778,-22.45,-0.924546
-574,246,-22.4251,0.313232,0.00191173,0.0047965,-0.00342685,0.00707215,-0.000363917,-0.984598,0.00484063,0.0183954,650,778,-22.4251,-0.313206
-567,246,-22.4607,-0.194336,0.000858263,0.00282922,-0.00183988,0.00393092,-0.000243438,-1.03127,0.00270541,0.0204278,657,778,-22.4607,0.194355
-560,246,-22.5043,-0.71521,-0.000159281,0.00129484,-0.000510661,0.00145626,-0.000320698,-1.26464,0.00109353,0.0162389,664,778,-22.5043,0.71519
-553,246,-22.5084,-1.24323,-0.00127432,9.1134e-05,0.00057055,0.00029815,-0.00148134,1.22273,0.00110049,0.0126991,671,778,-22.5084,1.2432
-546,246,-22.5324,-1.7749,-0.00258006,-0.000762433,0.00138333,-1.60913e-05,-0.0033264,1.07603,0.00221226,0.0104253,678,778,-22.5324,1.77488
-539,246,-22.5583,-2.34778,-0.00395196,-0.00245871,0.00172498,-0.00132571,-0.00508497,0.98964,0.00304581,0.0110929,685,778,-22.5583,2.34775
-532,246,-22.5347,-2.91736,-0.00485137,-0.00372917,0.00198019,-0.00223212,-0.00634842,0.923456,0.00371869,0.0145319,692,778,-22.5347,2.91733
-525,246,-22.5801,-3.43903,-0.0050545,-0.00506659,0.00213398,-0.00292655,-0.00719453,0.783982,0.00417776,0.0243251,699,778,-22.5801,3.43901
-518,246,-22.7668,-3.79688,-0.00489828,-0.00661899,0.00212675,-0.00346445,-0.00805282,0.593191,0.00466437,0.0383101,706,778,-22.7669,3.79689
-511,246,-23.0734,-4.03436,0,0,0,0,0,0,0,-1,713,778,-23.0734,4.03434
-504,246,-20.0047,-2.88214,0,0,0,0,0,0,0,-1,720,778,-20.0047,2.88216
-497,246,-29.4669,1.82684,0,0,0,0,0,0,0,-1,727,778,-29.4669,-1.82687
-490,246,-36.587,-0.3573,0,0,0,0,0,0,0,-1,734,778,-36.587,0.357289
-483,246,-36.8535,0.254211,0,0,0,0,0,0,0,-1,741,778,-36.8535,-0.254199
-476,246,-36.2925,0.739685,0,0,0,0,0,0,0,-1,748,778,-36.2925,-0.739711
-469,246,-35.7825,1.40686,0,0,0,0,0,0,0,-1,755,778,-35.7825,-1.40688
-462,246,-35.6317,1.17963,0,0,0,0,0,0,0,-1,762,778,-35.6317,-1.17964
-455,246,0,0,0,0,0,0,0,0,0,-1,769,778,0,0
-448,246,0,0,0,0,0,0,0,0,0,-1,776,778,0,0
-441,246,0,0,0,0,0,0,0,0,0,-1,783,778,0,0
-434,246,0,0,0,0,0,0,0,0,0,-1,790,778,0,0
-427,246,0,0,0,0,0,0,0,0,0,-1,797,778,0,0
-420,246,0,0,0,0,0,0,0,0,0,-1,804,778,0,0
-413,246,0,0,0,0,0,0,0,0,0,-1,811,778,0,0
-406,246,0,0,0,0,0,0,0,0,0,-1,818,778,0,0
-399,246,0,0,0,0,0,0,0,0,0,-1,825,778,0,0
-392,246,0,0,0,0,0,0,0,0,0,-1,832,778,0,0
-385,246,0,0,0,0,0,0,0,0,0,-1,839,778,0,0
-378,246,0,0,0,0,0,0,0,0,0,-1,846,778,0,0
-371,246,0,0,0,0,0,0,0,0,0,-1,853,778,0,0
-364,246,0,0,0,0,0,0,0,0,0,-1,860,778,0,0
-357,246,0,0,0,0,0,0,0,0,0,-1,867,778,0,0
-350,246,0,0,0,0,0,0,0,0,0,-1,874,778,0,0
-343,246,0,0,0,0,0,0,0,0,0,-1,881,778,0,0
-336,246,0,0,0,0,0,0,0,0,0,-1,888,778,0,0
-329,246,0,0,0,0,0,0,0,0,0,-1,895,778,0,0
-322,246,0,0,0,0,0,0,0,0,0,-1,902,778,0,0
-315,246,0,0,0,0,0,0,0,0,0,-1,909,778,0,0
-308,246,0,0,0,0,0,0,0,0,0,-1,916,778,0,0
-301,246,0,0,0,0,0,0,0,0,0,-1,923,778,0,0
-294,246,0,0,0,0,0,0,0,0,0,-1,930,778,0,0
-287,246,0,0,0,0,0,0,0,0,0,-1,937,778,0,0
-280,246,0,0,0,0,0,0,0,0,0,-1,944,778,0,0
-273,246,0,0,0,0,0,0,0,0,0,-1,951,778,0,0
-266,246,0,0,0,0,0,0,0,0,0,-1,958,778,0,0
-259,246,0,0,0,0,0,0,0,0,0,-1,965,778,0,0
-252,246,0,0,0,0,0,0,0,0,0,-1,972,778,0,0
-245,246,0,0,0,0,0,0,0,0,0,-1,979,778,0,0
-238,246,0,0,0,0,0,0,0,0,0,-1,986,778,0,0
-231,246,0,0,0,0,0,0,0,0,0,-1,993,778,0,0
-224,246,0,0,0,0,0,0,0,0,0,-1,1000,778,0,0
-217,246,0,0,0,0,0,0,0,0,0,-1,1007,778,0,0
-210,246,0,0,0,0,0,0,0,0,0,-1,1014,778,0,0
-203,246,0,0,0,0,0,0,0,0,0,-1,1021,778,0,0
-196,246,0,0,0,0,0,0,0,0,0,-1,1028,778,0,0
-189,246,0,0,0,0,0,0,0,0,0,-1,1035,778,0,0
-182,246,0,0,0,0,0,0,0,0,0,-1,1042,778,0,0
-175,246,0,0,0,0,0,0,0,0,0,-1,1049,778,0,0
-168,246,0,0,0,0,0,0,0,0,0,-1,1056,778,0,0
-161,246,0,0,0,0,0,0,0,0,0,-1,1063,778,0,0
-154,246,0,0,0,0,0,0,0,0,0,-1,1070,778,0,0
-147,246,0,0,0,0,0,0,0,0,0,-1,1077,778,0,0
-140,246,0,0,0,0,0,0,0,0,0,-1,1084,778,0,0
-133,246,0,0,0,0,0,0,0,0,0,-1,1091,778,0,0
-126,246,0,0,0,0,0,0,0,0,0,-1,1098,778,0,0
-119,246,0,0,0,0,0,0,0,0,0,-1,1105,778,0,0
-112,246,0,0,0,0,0,0,0,0,0,-1,1112,778,0,0
-105,246,0,0,0,0,0,0,0,0,0,-1,1119,778,0,0
-98,246,0,0,0,0,0,0,0,0,0,-1,1126,778,0,0
-91,246,0,0,0,0,0,0,0,0,0,-1,1133,778,0,0
-84,246,0,0,0,0,0,0,0,0,0,-1,1140,778,0,0
-77,246,0,0,0,0,0,0,0,0,0,-1,1147,778,0,0
-70,246,0,0,0,0,0,0,0,0,0,-1,1154,778,0,0
-63,246,0,0,0,0,0,0,0,0,0,-1,1161,778,0,0
-56,246,0,0,0,0,0,0,0,0,0,-1,1168,778,0,0
-49,246,0,0,0,0,0,0,0,0,0,-1,1175,778,0,0
-42,246,0,0,0,0,0,0,0,0,0,-1,1182,778,0,0
-35,246,0,0,0,0,0,0,0,0,0,-1,1189,778,0,0
-28,246,0,0,0,0,0,0,0,0,0,-1,1196,778,0,0
-21,246,0,0,0,0,0,0,0,0,0,-1,1203,778,0,0
-14,246,0,0,0,0,0,0,0,0,0,-1,1210,778,0,0
-7,246,0,0,0,0,0,0,0,0,0,-1,1217,778,0,0
0,246,0,0,0,0,0,0,0,0,0,-1,1224,778,0,0
7,246,0,0,0,0,0,0,0,0,0,-1,1231,778,0,0
14,246,0,0,0,0,0,0,0,0,0,-1,1238,778,0,0
21,246,0,0,0,0,0,0,0,0,0,-1,1245,778,0,0
28,246,0,0,0,0,0,0,0,0,0,-1,1252,778,0,0
35,246,0,0,0,0,0,0,0,0,0,-1,1259,778,0,0
42,246,0,0,0,0,0,0,0,0,0,-1,1266,778,0,0
49,246,0,0,0,0,0,0,0,0,0,-1,1273,778,0,0
56,246,0,0,0,0,0,0,0,0,0,-1,1280,778,0,0
63,246,0,0,0,0,0,0,0,0,0,-1,1287,778,0,0
70,246,0,0,0,0,0,0,0,0,0,-1,1294,778,0,0
77,246,0,0,0,0,0,0,0,0,0,-1,1301,778,0,0
84,246,0,0,0,0,0,0,0,0,0,-1,1308,778,0,0
91,246,0,0,0,0,0,0,0,0,0,-1,1315,778,0,0
98,246,0,0,0,0,0,0,0,0,0,-1,1322,778,0,0
105,246,0,0,0,0,0,0,0,0,0,-1,1329,778,0,0
112,246,0,0,0,0,0,0,0,0,0,-1,1336,778,0,0
119,246,0,0,0,0,0,0,0,0,0,-1,1343,778,0,0
126,246,0,0,0,0,0,0,0,0,0,-1,1350,778,0,0
133,246,0,0,0,0,0,0,0,0,0,-1,1357,778,0,0
140,246,0,0,0,0,0,0,0,0,0,-1,1364,778,0,0
147,246,0,0,0,0,0,0,0,0,0,-1,1371,778,0,0
154,246,0,0,0,0,0,0,0,0,0,-1,1378,778,0,0
161,246,0,0,0,0,0,0,0,0,0,-1,1385,778,0,0
168,246,0,0,0,0,0,0,0,0,0,-1,1392,778,0,0
175,246,0,0,0,0,0,0,0,0,0,-1,1399,778,0,0
182,246,0,0,0,0,0,0,0,0,0,-1,1406,778,0,0
189,246,0,0,0,0,0,0,0,0,0,-1,1413,778,0,0
196,246,0,0,0,0,0,0,0,0,0,-1,1420,778,0,0
203,246,0,0,0,0,0,0,0,0,0,-1,1427,778,0,0
210,246,0,0,0,0,0,0,0,0,0,-1,1434,778,0,0
217,246,0,0,0,0,0,0,0,0,0,-1,1441,778,0,0
224,246,0,0,0,0,0,0,0,0,0,-1,1448,778,0,0
231,246,0,0,0,0,0,0,0,0,0,-1,1455,778,0,0
238,246,0,0,0,0,0,0,0,0,0,-1,1462,778,0,0
245,246,0,0,0,0,0,0,0,0,0,-1,1469,778,0,0
252,246,0,0,0,0,0,0,0,0,0,-1,1476,778,0,0
259,246,0,0,0,0,0,0,0,0,0,-1,1483,778,0,0
266,246,0,0,0,0,0,0,0,0,0,-1,1490,778,0,0
273,246,0,0,0,0,0,0,0,0,0,-1,1497,778,0,0
280,246,0,0,0,0,0,0,0,0,0,-1,1504,778,0,0
287,246,0,0,0,0,0,0,0,0,0,-1,1511,778,0,0
294,246,0,0,0,0,0,0,0,0,0,-1,1518,778,0,0
301,246,0,0,0,0,0,0,0,0,0,-1,1525,778,0,0
308,246,0,0,0,0,0,0,0,0,0,-1,1532,778,0,0
315,246,0,0,0,0,0,0,0,0,0,-1,1539,778,0,0
322,246,0,0,0,0,0,0,0,0,0,-1,1546,778,0,0
329,246,0,0,0,0,0,0,0,0,0,-1,1553,778,0,0
336,246,0,0,0,0,0,0,0,0,0,-1,1560,778,0,0
343,246,0,0,0,0,0,0,0,0,0,-1,1567,778,0,0
350,246,0,0,0,0,0,0,0,0,0,-1,1574,778,0,0
357,246,0,0,0,0,0,0,0,0,0,-1,1581,778,0,0
364,246,0,0,0,0,0,0,0,0,0,-1,1588,778,0,0
371,246,0,0,0,0,0,0,0,0,0,-1,1595,778,0,0
378,246,0,0,0,0,0,0,0,0,0,-1,1602,778,0,0
385,246,0,0,0,0,0,0,0,0,0,-1,1609,778,0,0
392,246,0,0,0,0,0,0,0,0,0,-1,1616,778,0,0
399,246,0,0,0,0,0,0,0,0,0,-1,1623,778,0,0
406,246,0,0,0,0,0,0,0,0,0,-1,1630,778,0,0
413,246,0,0,0,0,0,0,0,0,0,-1,1637,778,0,0
420,246,0,0,0,0,0,0,0,0,0,-1,1644,778,0,0
427,246,0,0,0,0,0,0,0,0,0,-1,1651,778,0,0
434,246,0,0,0,0,0,0,0,0,0,-1,1658,778,0,0
441,246,0,0,0,0,0,0,0,0,0,-1,1665,778,0,0
448,246,0,0,0,0,0,0,0,0,0,-1,1672,778,0,0
455,246,0,0,0,0,0,0,0,0,0,-1,1679,778,0,0
462,246,0,0,0,0,0,0,0,0,0,-1,1686,778,0,0
469,246,0,0,0,0,0,0,0,0,0,-1,1693,778,0,0
476,246,0,0,0,0,0,0,0,0,0,-1,1700,778,0,0
483,246,0,0,0,0,0,0,0,0,0,-1,1707,778,0,0
490,246,0,0,0,0,0,0,0,0,0,-1,1714,778,0,0
497,246,0,0,0,0,0,0,0,0,0,-1,1721,778,0,0
504,246,0,0,0,0,0,0,0,0,0,-1,1728,778,0,0
511,246,0,0,0,0,0,0,0,0,0,-1,1735,778,0,0
518,246,0,0,0,0,0,0,0,0,0,-1,1742,778,0,0
525,246,0,0,0,0,0,0,0,0,0,-1,1749,778,0,0
532,246,0,0,0,0,0,0,0,0,0,-1,1756,778,0,0
539,246,0,0,0,0,0,0,0,0,0,-1,1763,778,0,0
546,246,0,0,0,0,0,0,0,0,0,-1,1770,778,0,0
553,246,0,0,0,0,0,0,0,0,0,-1,1777,778,0,0
560,246,0,0,0,0,0,0,0,0,0,-1,1784,778,0,0
567,246,0,0,0,0,0,0,0,0,0,-1,1791,778,0,0
574,246,0,0,0,0,0,0,0,0,0,-1,1798,778,0,0
581,246,48.2146,2.90411,0.0031749,0.0125416,-0.00581857,0.0153275,0.000389,-1.12426,0.0100911,0.0370732,1805,778,48.2145,-2.90409
588,246,48.1356,2.77594,-0.00623493,0.0123284,0.001592,0.012464,-0.00637047,1.48586,0.0110622,0.0422353,1812,778,48.1356,-2.77596
595,246,48.2623,2.82904,-0.0103415,0.0107936,0.00512464,0.0119706,-0.0115185,1.34503,0.0135623,0.0435373,1819,778,48.2623,-2.82903
602,246,47.8846,3.23584,-0.0114938,0.00888457,0.00640117,0.0107284,-0.0133377,1.29034,0.0139218,0.0446385,1826,778,47.8847,-3.23586
609,246,47.3116,3.76764,-0.0108604,0.00715171,0.0065256,0.00926737,-0.012976,1.25728,0.0129016,0.047888,1833,778,47.3117,-3.76765
616,246,46.574,4.39575,0,0,0,0,0,0,0,-1,1840,778,46.5739,-4.39573
623,246,47.9988,2.75781,0,0,0,0,0,0,0,-1,1847,778,47.9988,-2.75779
630,246,47.0985,3.3858,0,0,0,0,0,0,0,-1,1854,778,47.0985,-3.38582
637,246,29.5785,0.837585,0,0,0,0,0,0,0,-1,1861,778,29.5785,-0.837606
644,246,28.1232,-1.43188,0,0,0,0,0,0,0,-1,1868,778,28.1232,1.43188
651,246,33.2284,-1.57037,0,0,0,0,0,0,0,-1,1875,778,33.2284,1.57034
658,246,33.1606,-1.1181,-0.00162816,-0.000164855,0.00053035,7.14423e-06,-0.00180016,1.25719,0.00120249,0.0340303,1882,778,33.1606,1.11809
665,246,33.1602,-0.49353,-0.000545186,-0.000487157,-0.000441982,-7.3238e-05,-0.000959105,-0.818174,0.000616443,0.0246865,1889,778,33.1602,0.493545
672,246,33.172,0.116089,-0.000251451,-0.000566167,-0.000597347,0.000208917,-0.00102653,-0.65661,0.000763582,0.0233442,1896,778,33.172,-0.116098
679,246,33.2134,0.682495,0.00014119,-0.000610978,-0.000412678,0.000323445,-0.000793232,-0.41588,0.000663459,0.0218042,1903,778,33.2134,-0.68249
686,246,33.2079,1.26788,0.000507235,0.000161872,-2.7361e-05,0.000509389,0.000159718,-0.0785709,0.000300835,0.0220464,1910,778,33.2078,-1.26787
693,246,33.1718,1.7951,0.00126069,0.00110475,0.000564647,0.00175272,0.000612713,0.716788,0.00102709,0.0177608,1917,778,33.1717,-1.79512
700,246,33.1343,2.33466,0.00243205,0.00195056,0.00130556,0.00351888,0.000863737,0.694223,0.00211756,0.0143305,1924,778,33.1343,-2.33467
707,246,33.1202,2.93439,0.0039718,0.0024779,0.00200489,0.00536437,0.00108534,0.607082,0.00327497,0.0130196,1931,778,33.1202,-2.93441
714,246,33.0959,3.5296,0.00604913,0.00273695,0.00258583,0.00746374,0.00132234,0.500583,0.00459886,0.013332,1938,778,33.096,-3.52959
721,246,33.077,4.05426,0.00857972,0.00288199,0.00230106,0.00939295,0.00206876,0.339713,0.00569894,0.0192434,1945,778,33.077,-4.05427
728,246,33.203,4.68195,0.0115691,0.00227884,0.00142032,0.0117814,0.00206655,0.148369,0.00726406,0.0423254,1952,778,33.203,-4.68196
735,246,33.4401,5.40857,0,0,0,0,0,0,0,-1,1959,778,33.4401,-5.40859
742,246,31.7356,6.70013,0,0,0,0,0,0,0,-1,1966,778,31.7356,-6.70011
749,246,32.3883,7.69324,0,0,0,0,0,0,0,-1,1973,778,32.3883,-7.69322
756,246,33.6919,3.45264,0,0,0,0,0,0,0,-1,1980,778,33.6919,-3.45262
763,246,0,0,0,0,0,0,0,0,0,-1,1987,778,0,0
770,246,0,0,0,0,0,0,0,0,0,-1,1994,778,0,0
777,246,0,0,0,0,0,0,0,0,0,-1,2001,778,0,0
784,246,0,0,0,0,0,0,0,0,0,-1,2008,778,0,0
791,246,0,0,0,0,0,0,0,0,0,-1,2015,778,0,0
798,246,0,0,0,0,0,0,0,0,0,-1,2022,778,0,0
805,246,0,0,0,0,0,0,0,0,0,-1,2029,778,0,0
812,246,0,0,0,0,0,0,0,0,0,-1,2036,778,0,0
-700,239,0,0,0,0,0,0,0,0,0,-1,524,785,0,0
-693,239,0,0,0,0,0,0,0,0,0,-1,531,785,0,0
-686,239,0,0,0,0,0,0,0,0,0,-1,538,785,0,0
-679,239,0,0,0,0,0,0,0,0,0,-1,545,785,0,0
-672,239,0,0,0,0,0,0,0,0,0,-1,552,785,0,0
-665,239,0,0,0,0,0,0,0,0,0,-1,559,785,0,0
-658,239,0,0,0,0,0,0,0,0,0,-1,566,785,0,0
-651,239,0,0,0,0,0,0,0,0,0,-1,573,785,0,0
-644,239,0,0,0,0,0,0,0,0,0,-1,580,785,0,0
-637,239,-23.2709,0.465088,0,0,0,0,0,0,0,-1,587,785,-23.271,-0.465116
-630,239,-23.4006,0.956299,0,0,0,0,0,0,0,-1,594,785,-23.4005,-0.956285
-623,239,-30.6328,2.52185,0,0,0,0,0,0,0,-1,601,785,-30.6328,-2.52183
-616,239,-29.1425,1.42139,0,0,0,0,0,0,0,-1,608,785,-29.1425,-1.42139
-609,239,-27.8569,0.322937,0,0,0,0,0,0,0,-1,615,785,-27.857,-0.322963
-602,239,-22.6573,3.29999,0,0,0,0,0,0,0,-1,622,785,-22.6574,-3.29999
-595,239,-22.763,2.43347,0.00445276,0.0121543,-0.00859634,0.0177229,-0.0011159,-0.995974,0.0122043,0.0429659,629,785,-22.763,-2.43345
-588,239,-22.8554,1.5835,0.00323769,0.00896491,-0.00631908,0.013039,-0.000836352,-0.998141,0.00898441,0.0205486,636,785,-22.8554,-1.58349
-581,239,-22.987,0.944153,0.00232601,0.00638485,-0.00451451,0.00930511,-0.00059425,-0.996631,0.00641067,0.0115571,643,785,-22.987,-0.944138
-574,239,-22.9814,0.358948,0.00137049,0.00423659,-0.00286283,0.00600501,-0.00039793,-1.01745,0.00414236,0.012003,650,785,-22.9815,-0.358942
-567,239,-22.9991,-0.174805,0.000397202,0.00236718,-0.00137613,0.00307451,-0.000310126,-1.09601,0.00216048,0.0156241,657,785,-22.9991,0.17483
-560,239,-23.0331,-0.706726,-0.000673723,0.00106715,-0.000123516,0.00107587,-0.000682443,-1.50032,0.0010236,0.0159517,664,785,-23.0331,0.706732
-553,239,-23.0406,-1.24017,-0.00195485,0.000146538,0.000897319,0.00047756,-0.00228587,1.21738,0.00170553,0.0133825,671,785,-23.0406,1.24017
-546,239,-23.0945,-1.76776,-0.00347133,-0.000403193,0.00163045,0.000301426,-0.00417595,1.16287,0.00288969,0.0141792,678,785,-23.0945,1.76775
-539,239,-23.1398,-2.32593,-0.00499804,-0.00192644,0.00184285,-0.00106333,-0.00586116,1.13278,0.00360565,0.0168229,685,785,-23.1398,2.32591
-532,239,-23.1284,-2.86316,-0.00596134,-0.0029277,0.00204054,-0.00190198,-0.00698706,1.10501,0.00417119,0.0189193,692,785,-23.1284,2.86314
-525,239,-23.1844,-3.23309,-0.00621579,-0.00411615,0.00218428,-0.0027425,-0.00758944,1.00941,0.00443756,0.0297149,699,785,-23.1845,3.23308
-518,239,-23.4226,-3.53638,0,0,0,0,0,0,0,-1,706,785,-23.4226,3.5364
-511,239,-20.9849,-2.09235,0,0,0,0,0,0,0,-1,713,785,-20.9848,2.09234
-504,239,-25.5015,2.00421,0,0,0,0,0,0,0,-1,720,785,-25.5015,-2.00422
-497,239,-36.6801,-0.605164,0,0,0,0,0,0,0,-1,727,785,-36.6801,0.605133
-490,239,-36.4847,-0.148682,0.000891636,-0.0172402,0.00200983,0.00111174,-0.0174603,0.109081,0.0120279,0.0494492,734,785,-36.4847,0.148703
-483,239,-36.4916,0.516174,0.00671434,-0.021946,0.00234998,0.00690575,-0.0221374,0.0812708,0.0175199,0.0467197,741,785,-36.4916,-0.516152
-476,239,-36.2298,1.01001,0.0143163,-0.0266677,0.00359906,0.0146299,-0.0269814,0.0869297,0.0243745,0.0447108,748,785,-36.2298,-1.01
-469,239,-36.0085,1.17511,0.0226515,-0.0303717,0.00521753,0.02316,-0.0308802,0.0971592,0.0313061,0.0478918,755,785,-36.0085,-1.1751
-462,239,-36.2651,0.972595,0,0,0,0,0,0,0,-1,762,785,-36.2651,-0.972575
-455,239,0,0,0,0,0,0,0,0,0,-1,769,785,0,0
-448,239,0,0,0,0,0,0,0,0,0,-1,776,785,0,0
-441,239,0,0,0,0,0,0,0,0,0,-1,783,785,0,0
-434,239,0,0,0,0,0,0,0,0,0,-1,790,785,0,0
-427,239,0,0,0,0,0,0,0,0,0,-1,797,785,0,0
-420,239,0,0,0,0,0,0,0,0,0,-1,804,785,0,0
-413,239,0,0,0,0,0,0,0,0,0,-1,811,785,0,0
-406,239,0,0,0,0,0,0,0,0,0,-1,818,785,0,0
-399,239,0,0,0,0,0,0,0,0,0,-1,825,785,0,0
-392,239,0,0,0,0,0,0,0,0,0,-1,832,785,0,0
-385,239,0,0,0,0,0,0,0,0,0,-1,839,785,0,0
-378,239,0,0,0,0,0,0,0,0,0,-1,846,785,0,0
-371,239,0,0,0,0,0,0,0,0,0,-1,853,785,0,0
-364,239,0,0,0,0,0,0,0,0,0,-1,860,785,0,0
-357,239,0,0,0,0,0,0,0,0,0,-1,867,785,0,0
-350,239,0,0,0,0,0,0,0,0,0,-1,874,785,0,0
-343,239,0,0,0,0,0,0,0,0,0,-1,881,785,0,0
-336,239,0,0,0,0,0,0,0,0,0,-1,888,785,0,0
-329,239,0,0,0,0,0,0,0,0,0,-1,895,785,0,0
-322,239,0,0,0,0,0,0,0,0,0,-1,902,785,0,0
-315,239,0,0,0,0,0,0,0,0,0,-1,909,785,0,0
-308,239,0,0,0,0,0,0,0,0,0,-1,916,785,0,0
-301,239,0,0,0,0,0,0,0,0,0,-1,923,785,0,0
-294,239,0,0,0,0,0,0,0,0,0,-1,930,785,0,0
-287,239,0,0,0,0,0,0,0,0,0,-1,937,785,0,0
-280,239,0,0,0,0,0,0,0,0,0,-1,944,785,0,0
-273,239,0,0,0,0,0,0,0,0,0,-1,951,785,0,0
-266,239,0,0,0,0,0,0,0,0,0,-1,958,785,0,0
-259,239,0,0,0,0,0,0,0,0,0,-1,965,785,0,0
-252,239,0,0,0,0,0,0,0,0,0,-1,972,785,0,0
-245,239,0,0,0,0,0,0,0,0,0,-1,979,785,0,0
-238,239,0,0,0,0,0,0,0,0,0,-1,986,785,0,0
-231,239,0,0,0,0,0,0,0,0,0,-1,993,785,0,0
-224,239,0,0,0,0,0,0,0,0,0,-1,1000,785,0,0
-217,239,0,0,0,0,0,0,0,0,0,-1,1007,785,0,0
-210,239,0,0,0,0,0,0,0,0,0,-1,1014,785,0,0
-203,239,0,0,0,0,0,0,0,0,0,-1,1021,785,0,0
-196,239,0,0,0,0,0,0,0,0,0,-1,1028,785,0,0
-189,239,0,0,0,0,0,0,0,0,0,-1,1035,785,0,0
-182,239,0,0,0,0,0,0,0,0,0,-1,1042,785,0,0
-175,239,0,0,0,0,0,0,0,0,0,-1,1049,785,0,0
-168,239,0,0,0,0,0,0,0,0,0,-1,1056,785,0,0
-161,239,0,0,0,0,0,0,0,0,0,-1,1063,785,0,0
-154,239,0,0,0,0,0,0,0,0,0,-1,1070,785,0,0
-147,239,0,0,0,0,0,0,0,0,0,-1,1077,785,0,0
-140,239,0,0,0,0,0,0,0,0,0,-1,1084,785,0,0
-133,239,0,0,0,0,0,0,0,0,0,-1,1091,785,0,0
-126,239,0,0,0,0,0,0,0,0,0,-1,1098,785,0,0
-119,239,0,0,0,0,0,0,0,0,0,-1,1105,785,0,0
-112,239,0,0,0,0,0,0,0,0,0,-1,1112,785,0,0
-105,239,0,0,0,0,0,0,0,0,0,-1,1119,785,0,0
-98,239,0,0,0,0,0,0,0,0,0,-1,1126,785,0,0
-91,239,0,0,0,0,0,0,0,0,0,-1,1133,785,0,0
-84,239,0,0,0,0,0,0,0,0,0,-1,1140,785,0,0
-77,239,0,0,0,0,0,0,0,0,0,-1,1147,785,0,0
-70,239,0,0,0,0,0,0,0,0,0,-1,1154,785,0,0
-63,239,0,0,0,0,0,0,0,0,0,-1,1161,785,0,0
-56,239,0,0,0,0,0,0,0,0,0,-1,1168,785,0,0
-49,239,0,0,0,0,0,0,0,0,0,-1,1175,785,0,0
-42,239,0,0,0,0,0,0,0,0,0,-1,1182,785,0,0
-35,239,0,0,0,0,0,0,0,0,0,-1,1189,785,0,0
-28,239,0,0,0,0,0,0,0,0,0,-1,1196,785,0,0
-21,239,0,0,0,0,0,0,0,0,0,-1,1203,785,0,0
-14,239,0,0,0,0,0,0,0,0,0,-1,1210,785,0,0
-7,239,0,0,0,0,0,0,0,0,0,-1,1217,785,0,0
0,239,0,0,0,0,0,0,0,0,0,-1,1224,785,0,0
7,239,0,0,0,0,0,0,0,0,0,-1,1231,785,0,0
14,239,0,0,0,0,0,0,0,0,0,-1,1238,785,0,0
21,239,0,0,0,0,0,0,0,0,0,-1,1245,785,0,0
28,239,0,0,0,0,0,0,0,0,0,-1,1252,785,0,0
35,239,0,0,0,0,0,0,0,0,0,-1,1259,785,0,0
42,239,0,0,0,0,0,0,0,0,0,-1,1266,785,0,0
49,239,0,0,0,0,0,0,0,0,0,-1,1273,785,0,0
56,239,0,0,0,0,0,0,0,0,0,-1,1280,785,0,0
63,239,0,0,0,0,0,0,0,0,0,-1,1287,785,0,0
70,239,0,0,0,0,0,0,0,0,0,-1,1294,785,0,0
77,239,0,0,0,0,0,0,0,0,0,-1,1301,785,0,0
84,239,0,0,0,0,0,0,0,0,0,-1,1308,785,0,0
91,239,0,0,0,0,0,0,0,0,0,-1,1315,785,0,0
98,239,0,0,0,0,0,0,0,0,0,-1,1322,785,0,0
105,239,0,0,0,0,0,0,0,0,0,-1,1329,785,0,0
112,239,0,0,0,0,0,0,0,0,0,-1,1336,785,0,0
119,239,0,0,0,0,0,0,0,0,0,-1,1343,785,0,0
126,239,0,0,0,0,0,0,0,0,0,-1,1350,785,0,0
133,239,0,0,0,0,0,0,0,0,0,-1,1357,785,0,0
140,239,0,0,0,0,0,0,0,0,0,-1,1364,785,0,0
147,239,0,0,0,0,0,0,0,0,0,-1,1371,785,0,0
154,239,0,0,0,0,0,0,0,0,0,-1,1378,785,0,0
161,239,0,0,0,0,0,0,0,0,0,-1,1385,785,0,0
168,239,0,0,0,0,0,0,0,0,0,-1,1392,785,0,0
175,239,0,0,0,0,0,0,0,0,0,-1,1399,785,0,0
182,239,0,0,0,0,0,0,0,0,0,-1,1406,785,0,0
189,239,0,0,0,0,0,0,0,0,0,-1,1413,785,0,0
196,239,0,0,0,0,0,0,0,0,0,-1,1420,785,0,0
203,239,0,0,0,0,0,0,0,0,0,-1,1427,785,0,0
210,239,0,0,0,0,0,0,0,0,0,-1,1434,785,0,0
217,239,0,0,0,0,0,0,0,0,0,-1,1441,785,0,0
224,239,0,0,0,0,0,0,0,0,0,-1,1448,785,0,0
231,239,0,0,0,0,0,0,0,0,0,-1,1455,785,0,0
238,239,0,0,0,0,0,0,0,0,0,-1,1462,785,0,0
245,239,0,0,0,0,0,0,0,0,0,-1,1469,785,0,0
252,239,0,0,0,0,0,0,0,0,0,-1,1476,785,0,0
259,239,0,0,0,0,0,0,0,0,0,-1,1483,785,0,0
266,239,0,0,0,0,0,0,0,0,0,-1,1490,785,0,0
273,239,0,0,0,0,0,0,0,0,0,-1,1497,785,0,0
280,239,0,0,0,0,0,0,0,0,0,-1,1504,785,0,0
287,239,0,0,0,0,0,0,0,0,0,-1,1511,785,0,0
294,239,0,0,0,0,0,0,0,0,0,-1,1518,785,0,0
301,239,0,0,0,0,0,0,0,0,0,-1,1525,785,0,0
308,239,0,0,0,0,0,0,0,0,0,-1,1532,785,0,0
315,239,0,0,0,0,0,0,0,0,0,-1,1539,785,0,0
322,239,0,0,0,0,0,0,0,0,0,-1,1546,785,0,0
329,239,0,0,0,0,0,0,0,0,0,-1,1553,785,0,0
336,239,0,0,0,0,0,0,0,0,0,-1,1560,785,0,0
343,239,0,0,0,0,0,0,0,0,0,-1,1567,785,0,0
350,239,0,0,0,0,0,0,0,0,0,-1,1574,785,0,0
357,239,0,0,0,0,0,0,0,0,0,-1,1581,785,0,0
364,239,0,0,0,0,0,0,0,0,0,-1,1588,785,0,0
371,239,0,0,0,0,0,0,0,0,0,-1,1595,785,0,0
378,239,0,0,0,0,0,0,0,0,0,-1,1602,785,0,0
385,239,0,0,0,0,0,0,0,0,0,-1,1609,785,0,0
392,239,0,0,0,0,0,0,0,0,0,-1,1616,785,0,0
399,239,0,0,0,0,0,0,0,0,0,-1,1623,785,0,0
406,239,0,0,0,0,0,0,0,0,0,-1,1630,785,0,0
413,239,0,0,0,0,0,0,0,0,0,-1,1637,785,0,0
420,239,0,0,0,0,0,0,0,0,0,-1,1644,785,0,0
427,239,0,0,0,0,0,0,0,0,0,-1,1651,785,0,0
434,239,0,0,0,0,0,0,0,0,0,-1,1658,785,0,0
441,239,0,0,0,0,0,0,0,0,0,-1,1665,785,0,0
448,239,0,0,0,0,0,0,0,0,0,-1,1672,785,0,0
455,239,0,0,0,0,0,0,0,0,0,-1,1679,785,0,0
462,239,0,0,0,0,0,0,0,0,0,-1,1686,785,0,0
469,239,0,0,0,0,0,0,0,0,0,-1,1693,785,0,0
476,239,0,0,0,0,0,0,0,0,0,-1,1700,785,0,0
483,239,0,0,0,0,0,0,0,0,0,-1,1707,785,0,0
490,239,0,0,0,0,0,0,0,0,0,-1,1714,785,0,0
497,239,0,0,0,0,0,0,0,0,0,-1,1721,785,0,0
504,239,0,0,0,0,0,0,0,0,0,-1,1728,785,0,0
511,239,0,0,0,0,0,0,0,0,0,-1,1735,785,0,0
518,239,0,0,0,0,0,0,0,0,0,-1,1742,785,0,0
525,239,0,0,0,0,0,0,0,0,0,-1,1749,785,0,0
532,239,0,0,0,0,0,0,0,0,0,-1,1756,785,0,0
539,239,0,0,0,0,0,0,0,0,0,-1,1763,785,0,0
546,239,0,0,0,0,0,0,0,0,0,-1,1770,785,0,0
553,239,0,0,0,0,0,0,0,0,0,-1,1777,785,0,0
560,239,0,0,0,0,0,0,0,0,0,-1,1784,785,0,0
567,239,0,0,0,0,0,0,0,0,0,-1,1791,785,0,0
574,239,0,0,0,0,0,0,0,0,0,-1,1798,785,0,0
581,239,48.1273,3.07178,0.00756331,0.00655718,-0.0094149,0.0164886,-0.00236809,-0.758707,0.0118608,0.0351694,1805,785,48.1273,-3.07181
588,239,47.9821,2.99377,-0.00314115,0.00827365,-0.000934288,0.00834961,-0.00321711,-1.48967,0.00689371,0.0378139,1812,785,47.982,-2.99376
595,239,48.0697,2.82501,-0.00845503,0.00821085,0.00361855,0.00896261,-0.0092068,1.36596,0.0104904,0.0349655,1819,785,48.0696,-2.82498
602,239,48.1656,2.8446,-0.0103635,0.00729349,0.00555159,0.00889392,-0.0119639,1.29012,0.0120857,0.04,1826,785,48.1656,-2.84459
609,239,48.2253,2.91321,0,0,0,0,0,0,0,-1,1833,785,48.2254,-2.91323
616,239,48.1501,3.01453,0,0,0,0,0,0,0,-1,1840,785,48.1501,-3.01454
623,239,47.7554,3.25317,0,0,0,0,0,0,0,-1,1847,785,47.7554,-3.25316
630,239,46.9565,3.78412,0,0,0,0,0,0,0,-1,1854,785,46.9566,-3.78414
637,239,39.5542,2.54114,0,0,0,0,0,0,0,-1,1861,785,39.5543,-2.54114
644,239,18.3466,0.735413,0,0,0,0,0,0,0,-1,1868,785,18.3465,-0.735414
651,239,33.4684,-1.83936,0,0,0,0,0,0,0,-1,1875,785,33.4684,1.83938
658,239,33.6683,-1.11072,-0.00169846,-0.000152139,0.000492458,-8.6255e-06,-0.00184197,1.28723,0.00122512,0.0467168,1882,785,33.6683,1.11069
665,239,33.7631,-0.444214,-0.000760919,-0.000432449,-0.000465505,-0.000103056,-0.00109031,-0.954986,0.000695074,0.0193213,1889,785,33.763,0.444241
672,239,33.752,0.122559,-0.000475498,-0.000616564,-0.000721199,0.000178609,-0.00127067,-0.736653,0.000912495,0.0224377,1896,785,33.752,-0.12257
679,239,33.7645,0.706482,-0.000155426,-0.000863103,-0.000655104,0.000235291,-0.00125382,-0.537783,0.000924347,0.0224865,1903,785,33.7645,-0.706452
686,239,33.736,1.30975,7.0062e-05,-0.000215074,-0.000381439,0.000334706,-0.000479718,-0.606555,0.000472686,0.0225571,1910,785,33.736,-1.30976
693,239,33.7362,1.84125,0.000752581,0.000680096,0.000132513,0.000853718,0.000578959,0.651912,0.000503216,0.0159395,1917,785,33.7361,-1.84127
700,239,33.7108,2.38019,0.0019112,0.00147334,0.000818777,0.00253981,0.000844726,0.654762,0.0014935,0.012023,1924,785,33.7108,-2.3802
707,239,33.6881,2.953,0.00342518,0.00188891,0.00145087,0.00429871,0.00101538,0.541941,0.00259444,0.0105666,1931,785,33.6881,-2.95303
714,239,33.6691,3.51654,0.00539199,0.0019897,0.00183478,0.00619291,0.00118878,0.411587,0.00379493,0.00983607,1938,785,33.6691,-3.51653
721,239,33.6154,4.08081,0.00804794,0.00213037,0.00107599,0.00823751,0.00194079,0.174395,0.00497263,0.0231424,1945,785,33.6153,-4.0808
728,239,33.7007,4.89307,0.0114035,0.00148147,-0.000582699,0.0114376,0.00144736,-0.0584602,0.0071913,0.0428922,1952,785,33.7007,-4.89309
735,239,34.0908,5.8783,0,0,0,0,0,0,0,-1,1959,785,34.0908,-5.87829
742,239,32.4141,7.6665,0,0,0,0,0,0,0,-1,1966,785,32.4141,-7.6665
749,239,32.1489,3.4411,0,0,0,0,0,0,0,-1,1973,785,32.149,-3.44109
756,239,32.9064,3.6687,0,0,0,0,0,0,0,-1,1980,785,32.9063,-3.66873
763,239,0,0,0,0,0,0,0,0,0,-1,1987,785,0,0
770,239,0,0,0,0,0,0,0,0,0,-1,1994,785,0,0
777,239,0,0,0,0,0,0,0,0,0,-1,2001,785,0,0
784,239,0,0,0,0,0,0,0,0,0,-1,2008,785,0,0
791,239,0,0,0,0,0,0,0,0,0,-1,2015,785,0,0
798,239,0,0,0,0,0,0,0,0,0,-1,2022,785,0,0
805,239,0,0,0,0,0,0,0,0,0,-1,2029,785,0,0
812,239,0,0,0,0,0,0,0,0,0,-1,2036,785,0,0
-700,232,0,0,0,0,0,0,0,0,0,-1,524,792,0,0
-693,232,0,0,0,0,0,0,0,0,0,-1,531,792,0,0
-686,232,0,0,0,0,0,0,0,0,0,-1,538,792,0,0
-679,232,0,0,0,0,0,0,0,0,0,-1,545,792,0,0
-672,232,0,0,0,0,0,0,0,0,0,-1,552,792,0,0
-665,232,0,0,0,0,0,0,0,0,0,-1,559,792,0,0
-658,232,0,0,0,0,0,0,0,0,0,-1,566,792,0,0
-651,232,0,0,0,0,0,0,0,0,0,-1,573,792,0,0
-644,232,-22.5826,0.269348,0,0,0,0,0,0,0,-1,580,792,-22.5826,-0.269357
-637,232,-30.1556,5.06824,0,0,0,0,0,0,0,-1,587,792,-30.1556,-5.06823
-630,232,-32.2345,1.80212,0,0,0,0,0,0,0,-1,594,792,-32.2345,-1.80211
-623,232,-31.5665,1.05115,0,0,0,0,0,0,0,-1,601,792,-31.5664,-1.05112
-616,232,-30.6812,0.432861,0,0,0,0,0,0,0,-1,608,792,-30.6812,-0.432881
-609,232,-29.7142,-0.478943,0,0,0,0,0,0,0,-1,615,792,-29.7142,0.478965
-602,232,-23.2738,3.34265,0,0,0,0,0,0,0,-1,622,792,-23.2738,-3.34264
-595,232,-23.3536,2.4588,0.00294989,0.0109574,-0.00709311,0.0150987,-0.00119143,-1.04234,0.0104856,0.0367005,629,792,-23.3536,-2.45883
-588,232,-23.4678,1.57141,0.00230761,0.00809252,-0.00527402,0.0112152,-0.000815042,-1.03622,0.00776274,0.0142329,636,792,-23.4678,-1.5714
-581,232,-23.5208,0.937683,0.00173598,0.00569064,-0.00374129,0.00794498,-0.000518368,-1.0285,0.00547763,0.00910558,643,792,-23.5207,-0.937664
-574,232,-23.5305,0.401428,0.000989232,0.00361153,-0.00226421,0.00491682,-0.000316063,-1.04784,0.00338815,0.00869727,650,792,-23.5305,-0.401434
-567,232,-23.5536,-0.13501,0.000111317,0.00188439,-0.000896378,0.00225859,-0.000262876,-1.17534,0.00160056,0.0106321,657,792,-23.5536,0.135012
-560,232,-23.5734,-0.672424,-0.00102175,0.000879171,0.00024687,0.000910709,-0.00105328,1.44374,0.00113491,0.013466,664,792,-23.5734,0.672418
-553,232,-23.6059,-1.19995,-0.00247355,0.000299157,0.00116553,0.000724001,-0.0028984,1.22126,0.00221343,0.0129258,671,792,-23.6059,1.19992
-546,232,-23.6584,-1.74927,-0.00415739,7.31674e-05,0.00178843,0.000727888,-0.00481211,1.21986,0.0034762,0.0210538,678,792,-23.6584,1.74926
-539,232,-23.7217,-2.25665,-0.00573934,-0.00121309,0.00187598,-0.000536653,-0.00641578,1.22473,0.00410999,0.0316418,685,792,-23.7217,2.25663
-532,232,-23.7822,-2.76678,-0.00675677,-0.00190046,0.0020298,-0.00116381,-0.00749342,1.22266,0.00465641,0.0323652,692,792,-23.7821,2.76677
-525,232,-23.7725,-2.97247,0,0,0,0,0,0,0,-1,699,792,-23.7724,2.97247
-518,232,-20.8098,-3.08154,0,0,0,0,0,0,0,-1,706,792,-20.8098,3.08155
-511,232,-21.6708,-0.962708,0,0,0,0,0,0,0,-1,713,792,-21.6708,0.962731
-504,232,-34.2155,0.346985,0,0,0,0,0,0,0,-1,720,792,-34.2155,-0.346955
-497,232,-35.6426,1.14777,0,0,0,0,0,0,0,-1,727,792,-35.6426,-1.14777
-490,232,-36.045,1.05353,-0.00128103,-0.0157132,0.00172669,-0.00107732,-0.0159169,0.117433,0.010271,0.0455969,734,792,-36.045,-1.05352
-483,232,-36.2866,0.895569,0.00373371,-0.0202204,0.00190804,0.00388474,-0.0203714,0.0789904,0.015044,0.0430545,741,792,-36.2866,-0.895574
-476,232,-36.0557,1.09772,0.0103028,-0.0243913,0.00285288,0.0105358,-0.0246243,0.0815001,0.0208358,0.0370912,748,792,-36.0557,-1.09771
-469,232,-36.0753,1.09277,0.0178403,-0.0271405,0.00423876,0.0182363,-0.0275364,0.0931422,0.0266081,0.0361828,755,792,-36.0753,-1.09279
-462,232,0,0,0,0,0,0,0,0,0,-1,762,792,0,0
-455,232,0,0,0,0,0,0,0,0,0,-1,769,792,0,0
-448,232,0,0,0,0,0,0,0,0,0,-1,776,792,0,0
-441,232,0,0,0,0,0,0,0,0,0,-1,783,792,0,0
-434,232,0,0,0,0,0,0,0,0,0,-1,790,792,0,0
-427,232,0,0,0,0,0,0,0,0,0,-1,797,792,0,0
-420,232,0,0,0,0,0,0,0,0,0,-1,804,792,0,0
-413,232,0,0,0,0,0,0,0,0,0,-1,811,792,0,0
-406,232,0,0,0,0,0,0,0,0,0,-1,818,792,0,0
-399,232,0,0,0,0,0,0,0,0,0,-1,825,792,0,0
-392,232,0,0,0,0,0,0,0,0,0,-1,832,792,0,0
-385,232,0,0,0,0,0,0,0,0,0,-1,839,792,0,0
-378,232,0,0,0,0,0,0,0,0,0,-1,846,792,0,0
-371,232,0,0,0,0,0,0,0,0,0,-1,853,792,0,0
-364,232,0,0,0,0,0,0,0,0,0,-1,860,792,0,0
-357,232,0,0,0,0,0,0,0,0,0,-1,867,792,0,0
-350,232,0,0,0,0,0,0,0,0,0,-1,874,792,0,0
-343,232,0,0,0,0,0,0,0,0,0,-1,881,792,0,0
-336,232,0,0,0,0,0,0,0,0,0,-1,888,792,0,0
-329,232,0,0,0,0,0,0,0,0,0,-1,895,792,0,0
-322,232,0,0,0,0,0,0,0,0,0,-1,902,792,0,0
-315,232,0,0,0,0,0,0,0,0,0,-1,909,792,0,0
-308,232,0,0,0,0,0,0,0,0,0,-1,916,792,0,0
-301,232,0,0,0,0,0,0,0,0,0,-1,923,792,0,0
-294,232,0,0,0,0,0,0,0,0,0,-1,930,792,0,0
-287,232,0,0,0,0,0,0,0,0,0,-1,937,792,0,0
-280,232,0,0,0,0,0,0,0,0,0,-1,944,792,0,0
-273,232,0,0,0,0,0,0,0,0,0,-1,951,792,0,0
-266,232,0,0,0,0,0,0,0,0,0,-1,958,792,0,0
-259,232,0,0,0,0,0,0,0,0,0,-1,965,792,0,0
-252,232,0,0,0,0,0,0,0,0,0,-1,972,792,0,0
-245,232,0,0,0,0,0,0,0,0,0,-1,979,792,0,0
-238,232,0,0,0,0,0,0,0,0,0,-1,986,792,0,0
-231,232,0,0,0,0,0,0,0,0,0,-1,993,792,0,0
-224,232,0,0,0,0,0,0,0,0,0,-1,1000,792,0,0
-217,232,0,0,0,0,0,0,0,0,0,-1,1007,792,0,0
-210,232,0,0,0,0,0,0,0,0,0,-1,1014,792,0,0
-203,232,0,0,0,0,0,0,0,0,0,-1,1021,792,0,0
-196,232,0,0,0,0,0,0,0,0,0,-1,1028,792,0,0
-189,232,0,0,0,0,0,0,0,0,0,-1,1035,792,0,0
-182,232,0,0,0,0,0,0,0,0,0,-1,1042,792,0,0
-175,232,0,0,0,0,0,0,0,0,0,-1,1049,792,0,0
-168,232,0,0,0,0,0,0,0,0,0,-1,1056,792,0,0
-161,232,0,0,0,0,0,0,0,0,0,-1,1063,792,0,0
-154,232,0,0,0,0,0,0,0,0,0,-1,1070,792,0,0
-147,232,0,0,0,0,0,0,0,0,0,-1,1077,792,0,0
-140,232,0,0,0,0,0,0,0,0,0,-1,1084,792,0,0
-133,232,0,0,0,0,0,0,0,0,0,-1,1091,792,0,0
-126,232,0,0,0,0,0,0,0,0,0,-1,1098,792,0,0
-119,232,0,0,0,0,0,0,0,0,0,-1,1105,792,0,0
-112,232,0,0,0,0,0,0,0,0,0,-1,1112,792,0,0
-105,232,0,0,0,0,0,0,0,0,0,-1,1119,792,0,0
-98,232,0,0,0,0,0,0,0,0,0,-1,1126,792,0,0
-91,232,0,0,0,0,0,0,0,0,0,-1,1133,792,0,0
-84,232,0,0,0,0,0,0,0,0,0,-1,1140,792,0,0
-77,232,0,0,0,0,0,0,0,0,0,-1,1147,792,0,0
-70,232,0,0,0,0,0,0,0,0,0,-1,1154,792,0,0
-63,232,0,0,0,0,0,0,0,0,0,-1,1161,792,0,0
-56,232,0,0,0,0,0,0,0,0,0,-1,1168,792,0,0
-49,232,0,0,0,0,0,0,0,0,0,-1,1175,792,0,0
-42,232,0,0,0,0,0,0,0,0,0,-1,1182,792,0,0
-35,232,0,0,0,0,0,0,0,0,0,-1,1189,792,0,0
-28,232,0,0,0,0,0,0,0,0,0,-1,1196,792,0,0
-21,232,0,0,0,0,0,0,0,0,0,-1,1203,792,0,0
-14,232,0,0,0,0,0,0,0,0,0,-1,1210,792,0,0
-7,232,0,0,0,0,0,0,0,0,0,-1,1217,792,0,0
0,232,0,0,0,0,0,0,0,0,0,-1,1224,792,0,0
7,232,0,0,0,0,0,0,0,0,0,-1,1231,792,0,0
14,232,0,0,0,0,0,0,0,0,0,-1,1238,792,0,0
21,232,0,0,0,0,0,0,0,0,0,-1,1245,792,0,0
28,232,0,0,0,0,0,0,0,0,0,-1,1252,792,0,0
35,232,0,0,0,0,0,0,0,0,0,-1,1259,792,0,0
42,232,0,0,0,0,0,0,0,0,0,-1,1266,792,0,0
49,232,0,0,0,0,0,0,0,0,0,-1,1273,792,0,0
56,232,0,0,0,0,0,0,0,0,0,-1,1280,792,0,0
63,232,0,0,0,0,0,0,0,0,0,-1,1287,792,0,0
70,232,0,0,0,0,0,0,0,0,0,-1,1294,792,0,0
77,232,0,0,0,0,0,0,0,0,0,-1,1301,792,0,0
84,232,0,0,0,0,0,0,0,0,0,-1,1308,792,0,0
91,232,0,0,0,0,0,0,0,0,0,-1,1315,792,0,0
98,232,0,0,0,0,0,0,0,0,0,-1,1322,792,0,0
105,232,0,0,0,0,0,0,0,0,0,-1,1329,792,0,0
112,232,0,0,0,0,0,0,0,0,0,-1,1336,792,0,0
119,232,0,0,0,0,0,0,0,0,0,-1,1343,792,0,0
126,232,0,0,0,0,0,0,0,0,0,-1,1350,792,0,0
133,232,0,0,0,0,0,0,0,0,0,-1,1357,792,0,0
140,232,0,0,0,0,0,0,0,0,0,-1,1364,792,0,0
147,232,0,0,0,0,0,0,0,0,0,-1,1371,792,0,0
154,232,0,0,0,0,0,0,0,0,0,-1,1378,792,0,0
161,232,0,0,0,0,0,0,0,0,0,-1,1385,792,0,0
168,232,0,0,0,0,0,0,0,0,0,-1,1392,792,0,0
175,232,0,0,0,0,0,0,0,0,0,-1,1399,792,0,0
182,232,0,0,0,0,0,0,0,0,0,-1,1406,792,0,0
189,232,0,0,0,0,0,0,0,0,0,-1,1413,792,0,0
196,232,0,0,0,0,0,0,0,0,0,-1,1420,792,0,0
203,232,0,0,0,0,0,0,0,0,0,-1,1427,792,0,0
210,232,0,0,0,0,0,0,0,0,0,-1,1434,792,0,0
217,232,0,0,0,0,0,0,0,0,0,-1,1441,792,0,0
224,232,0,0,0,0,0,0,0,0,0,-1,1448,792,0,0
231,232,0,0,0,0,0,0,0,0,0,-1,1455,792,0,0
238,232,0,0,0,0,0,0,0,0,0,-1,1462,792,0,0
245,232,0,0,0,0,0,0,0,0,0,-1,1469,792,0,0
252,232,0,0,0,0,0,0,0,0,0,-1,1476,792,0,0
259,232,0,0,0,0,0,0,0,0,0,-1,1483,792,0,0
266,232,0,0,0,0,0,0,0,0,0,-1,1490,792,0,0
273,232,0,0,0,0,0,0,0,0,0,-1,1497,792,0,0
280,232,0,0,0,0,0,0,0,0,0,-1,1504,792,0,0
287,232,0,0,0,0,0,0,0,0,0,-1,1511,792,0,0
294,232,0,0,0,0,0,0,0,0,0,-1,1518,792,0,0
301,232,0,0,0,0,0,0,0,0,0,-1,1525,792,0,0
308,232,0,0,0,0,0,0,0,0,0,-1,1532,792,0,0
315,232,0,0,0,0,0,0,0,0,0,-1,1539,792,0,0
322,232,0,0,0,0,0,0,0,0,0,-1,1546,792,0,0
329,232,0,0,0,0,0,0,0,0,0,-1,1553,792,0,0
336,232,0,0,0,0,0,0,0,0,0,-1,1560,792,0,0
343,232,0,0,0,0,0,0,0,0,0,-1,1567,792,0,0
350,232,0,0,0,0,0,0,0,0,0,-1,1574,792,0,0
357,232,0,0,0,0,0,0,0,0,0,-1,1581,792,0,0
364,232,0,0,0,0,0,0,0,0,0,-1,1588,792,0,0
371,232,0,0,0,0,0,0,0,0,0,-1,1595,792,0,0
378,232,0,0,0,0,0,0,0,0,0,-1,1602,792,0,0
385,232,0,0,0,0,0,0,0,0,0,-1,1609,792,0,0
392,232,0,0,0,0,0,0,0,0,0,-1,1616,792,0,0
399,232,0,0,0,0,0,0,0,0,0,-1,1623,792,0,0
406,232,0,0,0,0,0,0,0,0,0,-1,1630,792,0,0
413,232,0,0,0,0,0,0,0,0,0,-1,1637,792,0,0
420,232,0,0,0,0,0,0,0,0,0,-1,1644,792,0,0
427,232,0,0,0,0,0,0,0,0,0,-1,1651,792,0,0
434,232,0,0,0,0,0,0,0,0,0,-1,1658,792,0,0
441,232,0,0,0,0,0,0,0,0,0,-1,1665,792,0,0
448,232,0,0,0,0,0,0,0,0,0,-1,1672,792,0,0
455,232,0,0,0,0,0,0,0,0,0,-1,1679,792,0,0
462,232,0,0,0,0,0,0,0,0,0,-1,1686,792,0,0
469,232,0,0,0,0,0,0,0,0,0,-1,1693,792,0,0
476,232,0,0,0,0,0,0,0,0,0,-1,1700,792,0,0
483,232,0,0,0,0,0,0,0,0,0,-1,1707,792,0,0
490,232,0,0,0,0,0,0,0,0,0,-1,1714,792,0,0
497,232,0,0,0,0,0,0,0,0,0,-1,1721,792,0,0
504,232,0,0,0,0,0,0,0,0,0,-1,1728,792,0,0
511,232,0,0,0,0,0,0,0,0,0,-1,1735,792,0,0
518,232,0,0,0,0,0,0,0,0,0,-1,1742,792,0,0
525,232,0,0,0,0,0,0,0,0,0,-1,1749,792,0,0
532,232,0,0,0,0,0,0,0,0,0,-1,1756,792,0,0
539,232,0,0,0,0,0,0,0,0,0,-1,1763,792,0,0
546,232,0,0,0,0,0,0,0,0,0,-1,1770,792,0,0
553,232,0,0,0,0,0,0,0,0,0,-1,1777,792,0,0
560,232,0,0,0,0,0,0,0,0,0,-1,1784,792,0,0
567,232,0,0,0,0,0,0,0,0,0,-1,1791,792,0,0
574,232,0,0,0,0,0,0,0,0,0,-1,1798,792,0,0
581,232,0,0,0,0,0,0,0,0,0,-1,1805,792,0,0
588,232,47.9965,3.03949,0.000362676,0.00408582,-0.00371439,0.00637902,-0.00193053,-1.01769,0.00502145,0.0396724,1812,792,47.9964,-3.03948
595,232,48.0031,2.88239,-0.00563494,0.00535196,0.00145031,0.00554018,-0.00582316,1.44174,0.00656131,0.038005,1819,792,48.0031,-2.88239
602,232,48.069,2.80847,-0.00838251,0.00556039,0.00408825,0.00667071,-0.00949283,1.30561,0.00937931,0.0353208,1826,792,48.069,-2.80845
609,232,48.147,2.82605,-0.0086423,0.00504556,0.00498562,0.00666897,-0.0102657,1.25601,0.00985048,0.041844,1833,792,48.147,-2.82607
616,232,48.0956,2.9599,-0.00772212,0.00399307,0.00469481,0.00564231,-0.00937137,1.23297,0.00875682,0.0484101,1840,792,48.0956,-2.95993
623,232,47.6609,3.36847,-0.00669688,0.00280713,0.00400716,0.00427114,-0.00816089,1.22051,0.00729381,0.0448155,1847,792,47.6608,-3.36849
630,232,47.2426,3.69757,0,0,0,0,0,0,0,-1,1854,792,47.2425,-3.6976
637,232,47.0471,4.04309,0,0,0,0,0,0,0,-1,1861,792,47.0471,-4.04309
644,232,30.7756,4.24139,0,0,0,0,0,0,0,-1,1868,792,30.7757,-4.24141
651,232,31.6797,-0.564087,0,0,0,0,0,0,0,-1,1875,792,31.6797,0.564059
658,232,34.4773,-0.93689,0,0,0,0,0,0,0,-1,1882,792,34.4773,0.936917
665,232,34.3909,-0.394287,-0.000966584,-0.00046988,-0.000638307,-3.33122e-05,-0.00140315,-0.970927,0.00092453,0.0220163,1889,792,34.3908,0.394294
672,232,34.3099,0.169312,-0.000702479,-0.000704291,-0.000920494,0.000217109,-0.00162388,-0.784906,0.00116174,0.0253433,1896,792,34.31,-0.169335
679,232,34.3016,0.744568,-0.000472964,-0.00112475,-0.000947284,0.000202917,-0.00180063,-0.619725,0.00127346,0.0202387,1903,792,34.3016,-0.744538
686,232,34.2809,1.32562,-0.000426831,-0.000618676,-0.000784213,0.000267304,-0.00131281,-0.724542,0.00097658,0.0184926,1910,792,34.2809,-1.3256
693,232,34.2855,1.85889,0.000151202,0.000217431,-0.00037362,0.000559402,-0.000190768,-0.829598,0.000450204,0.0110762,1917,792,34.2856,-1.85889
700,232,34.2781,2.40265,0.00128876,0.000947344,0.000238008,0.00141095,0.000825153,0.474301,0.000818508,0.0137155,1924,792,34.2781,-2.40263
707,232,34.2657,2.97363,0.00279565,0.00127478,0.000806651,0.0031438,0.000926636,0.40744,0.00186535,0.0134915,1931,792,34.2658,-2.97362
714,232,34.2535,3.52722,0.00469789,0.00127148,0.00103969,0.00498869,0.000980685,0.272726,0.00305188,0.0132884,1938,792,34.2535,-3.5272
721,232,34.2188,4.06165,0.00731408,0.00143376,6.2035e-05,0.00731474,0.0014331,0.010548,0.00447593,0.0223167,1945,792,34.2187,-4.06162
728,232,34.2615,4.70551,0.0105749,0.000828657,-0.00178308,0.0108909,0.000512689,-0.175384,0.00709589,0.0480894,1952,792,34.2615,-4.70552
735,232,34.5808,5.66577,0,0,0,0,0,0,0,-1,1959,792,34.5808,-5.66577
742,232,25.6461,6.00684,0,0,0,0,0,0,0,-1,1966,792,25.6461,-6.00684
749,232,31.2874,3.74713,0,0,0,0,0,0,0,-1,1973,792,31.2874,-3.74713
756,232,32.1207,3.896,0,0,0,0,0,0,0,-1,1980,792,32.1207,-3.89597
763,232,32.7255,4.05878,0,0,0,0,0,0,0,-1,1987,792,32.7255,-4.05881
770,232,0,0,0,0,0,0,0,0,0,-1,1994,792,0,0
777,232,0,0,0,0,0,0,0,0,0,-1,2001,792,0,0
784,232,0,0,0,0,0,0,0,0,0,-1,2008,792,0,0
791,232,0,0,0,0,0,0,0,0,0,-1,2015,792,0,0
798,232,0,0,0,0,0,0,0,0,0,-1,2022,792,0,0
805,232,0,0,0,0,0,0,0,0,0,-1,2029,792,0,0
812,232,0,0,0,0,0,0,0,0,0,-1,2036,792,0,0
-700,225,0,0,0,0,0,0,0,0,0,-1,524,799,0,0
-693,225,0,0,0,0,0,0,0,0,0,-1,531,799,0,0
-686,225,0,0,0,0,0,0,0,0,0,-1,538,799,0,0
-679,225,0,0,0,0,0,0,0,0,0,-1,545,799,0,0
-672,225,0,0,0,0,0,0,0,0,0,-1,552,799,0,0
-665,225,0,0,0,0,0,0,0,0,0,-1,559,799,0,0
-658,225,0,0,0,0,0,0,0,0,0,-1,566,799,0,0
-651,225,0,0,0,0,0,0,0,0,0,-1,573,799,0,0
-644,225,-28.9417,3.77637,0,0,0,0,0,0,0,-1,580,799,-28.9416,-3.77637
-637,225,-29.6128,3.23175,0,0,0,0,0,0,0,-1,587,799,-29.6128,-3.23173
-630,225,-29.8912,5.02606,0,0,0,0,0,0,0,-1,594,799,-29.8912,-5.02606
-623,225,-32.8276,-0.00836182,0,0,0,0,0,0,0,-1,601,799,-32.8276,0.00837668
-616,225,-32.0569,-0.549255,0,0,0,0,0,0,0,-1,608,799,-32.0569,0.549265
-609,225,-24.2545,3.77222,0,0,0,0,0,0,0,-1,615,799,-24.2544,-3.77222
-602,225,-24.198,2.96967,0.000701794,0.0118697,-0.00794805,0.0159992,-0.00342776,-1.09162,0.0119734,0.0493452,622,799,-24.198,-2.96964
-595,225,-24.1143,2.20062,0.00133513,0.00936707,-0.00603691,0.0126018,-0.00189958,-1.0789,0.0091007,0.0323881,629,799,-24.1143,-2.20063
-588,225,-24.0579,1.47772,0.0014013,0.00706384,-0.00433714,0.00941204,-0.000946903,-1.07457,0.00661296,0.0141633,636,799,-24.0579,-1.47771
-581,225,-24.0627,0.945068,0.00115631,0.00491619,-0.00290224,0.00649416,-0.000421665,-1.0728,0.00447662,0.01154,643,799,-24.0627,-0.945098
-574,225,-24.0725,0.42041,0.00052698,0.00291229,-0.00157481,0.0036951,-0.000255831,-1.10949,0.00255295,0.00920054,650,799,-24.0725,-0.420399
-567,225,-24.0984,-0.11145,-0.000310045,0.00142657,-0.000347196,0.00149341,-0.000376886,-1.38061,0.00114215,0.0115816,657,799,-24.0984,0.111427
-560,225,-24.1321,-0.625061,-0.00153987,0.000824313,0.000649327,0.000990912,-0.00170647,1.31964,0.00157549,0.0118582,664,799,-24.1321,0.625042
-553,225,-24.1576,-1.17566,-0.00313414,0.000678997,0.00143042,0.00115593,-0.00361107,1.24896,0.00287133,0.0108681,671,799,-24.1576,1.17566
-546,225,-24.2081,-1.73376,-0.00488266,0.000786972,0.00194266,0.00138874,-0.00548443,1.2704,0.00419651,0.0203476,678,799,-24.208,1.73378
-539,225,-24.2053,-2.25092,-0.00637697,-0.000231119,0.0019613,0.000341443,-0.00694953,1.28676,0.00475093,0.04318,685,799,-24.2053,2.25089
-532,225,-24.3356,-2.66418,-0.00742035,-0.000579502,0.00210461,1.61259e-05,-0.00801598,1.295,0.00534937,0.0437517,692,799,-24.3356,2.6642
-525,225,-24.6656,-2.88849,0,0,0,0,0,0,0,-1,699,799,-24.6656,2.88849
-518,225,-21.963,0.171326,0,0,0,0,0,0,0,-1,706,799,-21.9629,-0.171319
-511,225,-33.0002,0.660217,0,0,0,0,0,0,0,-1,713,799,-33.0002,-0.660239
-504,225,-35.5688,1.37103,0,0,0,0,0,0,0,-1,720,799,-35.5688,-1.37102
-497,225,-35.7618,1.18414,-0.00629965,-0.00934514,0.00180305,-0.00546236,-0.0101824,0.434741,0.00588403,0.0445679,727,799,-35.7618,-1.18415
-490,225,-36.0189,1.07892,-0.00366841,-0.0129425,0.00169617,-0.00336793,-0.0132429,0.175335,0.00794753,0.0397755,734,799,-36.0189,-1.0789
-483,225,-36.0674,1.08502,0.000781249,-0.0168137,0.00172623,0.000949008,-0.0169815,0.0968783,0.0116502,0.0343018,741,799,-36.0675,-1.085
-476,225,-35.9597,1.19257,0.00708865,-0.0199429,0.00245444,0.00730971,-0.020164,0.0898201,0.0164305,0.0322747,748,799,-35.9597,-1.19255
-469,225,-35.8759,1.39197,0.0149686,-0.0211098,0.00375637,0.0153555,-0.0214967,0.10265,0.0213749,0.0354549,755,799,-35.8759,-1.392
-462,225,0,0,0,0,0,0,0,0,0,-1,762,799,0,0
-455,225,0,0,0,0,0,0,0,0,0,-1,769,799,0,0
-448,225,0,0,0,0,0,0,0,0,0,-1,776,799,0,0
-441,225,0,0,0,0,0,0,0,0,0,-1,783,799,0,0
-434,225,0,0,0,0,0,0,0,0,0,-1,790,799,0,0
-427,225,0,0,0,0,0,0,0,0,0,-1,797,799,0,0
-420,225,0,0,0,0,0,0,0,0,0,-1,804,799,0,0
-413,225,0,0,0,0,0,0,0,0,0,-1,811,799,0,0
-406,225,0,0,0,0,0,0,0,0,0,-1,818,799,0,0
-399,225,0,0,0,0,0,0,0,0,0,-1,825,799,0,0
-392,225,0,0,0,0,0,0,0,0,0,-1,832,799,0,0
-385,225,0,0,0,0,0,0,0,0,0,-1,839,799,0,0
-378,225,0,0,0,0,0,0,0,0,0,-1,846,799,0,0
-371,225,0,0,0,0,0,0,0,0,0,-1,853,799,0,0
-364,225,0,0,0,0,0,0,0,0,0,-1,860,799,0,0
-357,225,0,0,0,0,0,0,0,0,0,-1,867,799,0,0
-350,225,0,0,0,0,0,0,0,0,0,-1,874,799,0,0
-343,225,0,0,0,0,0,0,0,0,0,-1,881,799,0,0
-336,225,0,0,0,0,0,0,0,0,0,-1,888,799,0,0
-329,225,0,0,0,0,0,0,0,0,0,-1,895,799,0,0
-322,225,0,0,0,0,0,0,0,0,0,-1,902,799,0,0
-315,225,0,0,0,0,0,0,0,0,0,-1,909,799,0,0
-308,225,0,0,0,0,0,0,0,0,0,-1,916,799,0,0
-301,225,0,0,0,0,0,0,0,0,0,-1,923,799,0,0
-294,225,0,0,0,0,0,0,0,0,0,-1,930,799,0,0
-287,225,0,0,0,0,0,0,0,0,0,-1,937,799,0,0
-280,225,0,0,0,0,0,0,0,0,0,-1,944,799,0,0
-273,225,0,0,0,0,0,0,0,0,0,-1,951,799,0,0
-266,225,0,0,0,0,0,0,0,0,0,-1,958,799,0,0
-259,225,0,0,0,0,0,0,0,0,0,-1,965,799,0,0
-252,225,0,0,0,0,0,0,0,0,0,-1,972,799,0,0
-245,225,0,0,0,0,0,0,0,0,0,-1,979,799,0,0
-238,225,0,0,0,0,0,0,0,0,0,-1,986,799,0,0
-231,225,0,0,0,0,0,0,0,0,0,-1,993,799,0,0
-224,225,0,0,0,0,0,0,0,0,0,-1,1000,799,0,0
-217,225,0,0,0,0,0,0,0,0,0,-1,1007,799,0,0
-210,225,0,0,0,0,0,0,0,0,0,-1,1014,799,0,0
-203,225,0,0,0,0,0,0,0,0,0,-1,1021,799,0,0
-196,225,0,0,0,0,0,0,0,0,0,-1,1028,799,0,0
-189,225,0,0,0,0,0,0,0,0,0,-1,1035,799,0,0
-182,225,0,0,0,0,0,0,0,0,0,-1,1042,799,0,0
-175,225,0,0,0,0,0,0,0,0,0,-1,1049,799,0,0
-168,225,0,0,0,0,0,0,0,0,0,-1,1056,799,0,0
-161,225,0,0,0,0,0,0,0,0,0,-1,1063,799,0,0
-154,225,0,0,0,0,0,0,0,0,0,-1,1070,799,0,0
-147,225,0,0,0,0,0,0,0,0,0,-1,1077,799,0,0
-140,225,0,0,0,0,0,0,0,0,0,-1,1084,799,0,0
-133,225,0,0,0,0,0,0,0,0,0,-1,1091,799,0,0
-126,225,0,0,0,0,0,0,0,0,0,-1,1098,799,0,0
-119,225,0,0,0,0,0,0,0,0,0,-1,1105,799,0,0
-112,225,0,0,0,0,0,0,0,0,0,-1,1112,799,0,0
-105,225,0,0,0,0,0,0,0,0,0,-1,1119,799,0,0
-98,225,0,0,0,0,0,0,0,0,0,-1,1126,799,0,0
-91,225,0,0,0,0,0,0,0,0,0,-1,1133,799,0,0
-84,225,0,0,0,0,0,0,0,0,0,-1,1140,799,0,0
-77,225,0,0,0,0,0,0,0,0,0,-1,1147,799,0,0
-70,225,0,0,0,0,0,0,0,0,0,-1,1154,799,0,0
-63,225,0,0,0,0,0,0,0,0,0,-1,1161,799,0,0
-56,225,0,0,0,0,0,0,0,0,0,-1,1168,799,0,0
-49,225,0,0,0,0,0,0,0,0,0,-1,1175,799,0,0
-42,225,0,0,0,0,0,0,0,0,0,-1,1182,799,0,0
-35,225,0,0,0,0,0,0,0,0,0,-1,1189,799,0,0
-28,225,0,0,0,0,0,0,0,0,0,-1,1196,799,0,0
-21,225,0,0,0,0,0,0,0,0,0,-1,1203,799,0,0
-14,225,0,0,0,0,0,0,0,0,0,-1,1210,799,0,0
-7,225,0,0,0,0,0,0,0,0,0,-1,1217,799,0,0
0,225,0,0,0,0,0,0,0,0,0,-1,1224,799,0,0
7,225,0,0,0,0,0,0,0,0,0,-1,1231,799,0,0
14,225,0,0,0,0,0,0,0,0,0,-1,1238,799,0,0
21,225,0,0,0,0,0,0,0,0,0,-1,1245,799,0,0
28,225,0,0,0,0,0,0,0,0,0,-1,1252,799,0,0
35,225,0,0,0,0,0,0,0,0,0,-1,1259,799,0,0
42,225,0,0,0,0,0,0,0,0,0,-1,1266,799,0,0
49,225,0,0,0,0,0,0,0,0,0,-1,1273,799,0,0
56,225,0,0,0,0,0,0,0,0,0,-1,1280,799,0,0
63,225,0,0,0,0,0,0,0,0,0,-1,1287,799,0,0
70,225,0,0,0,0,0,0,0,0,0,-1,1294,799,0,0
77,225,0,0,0,0,0,0,0,0,0,-1,1301,799,0,0
84,225,0,0,0,0,0,0,0,0,0,-1,1308,799,0,0
91,225,0,0,0,0,0,0,0,0,0,-1,1315,799,0,0
98,225,0,0,0,0,0,0,0,0,0,-1,1322,799,0,0
105,225,0,0,0,0,0,0,0,0,0,-1,1329,799,0,0
112,225,0,0,0,0,0,0,0,0,0,-1,1336,799,0,0
119,225,0,0,0,0,0,0,0,0,0,-1,1343,799,0,0
126,225,0,0,0,0,0,0,0,0,0,-1,1350,799,0,0
133,225,0,0,0,0,0,0,0,0,0,-1,1357,799,0,0
140,225,0,0,0,0,0,0,0,0,0,-1,1364,799,0,0
147,225,0,0,0,0,0,0,0,0,0,-1,1371,799,0,0
154,225,0,0,0,0,0,0,0,0,0,-1,1378,799,0,0
161,225,0,0,0,0,0,0,0,0,0,-1,1385,799,0,0
168,225,0,0,0,0,0,0,0,0,0,-1,1392,799,0,0
175,225,0,0,0,0,0,0,0,0,0,-1,1399,799,0,0
182,225,0,0,0,0,0,0,0,0,0,-1,1406,799,0,0
189,225,0,0,0,0,0,0,0,0,0,-1,1413,799,0,0
196,225,0,0,0,0,0,0,0,0,0,-1,1420,799,0,0
203,225,0,0,0,0,0,0,0,0,0,-1,1427,799,0,0
210,225,0,0,0,0,0,0,0,0,0,-1,1434,799,0,0
217,225,0,0,0,0,0,0,0,0,0,-1,1441,799,0,0
224,225,0,0,0,0,0,0,0,0,0,-1,1448,799,0,0
231,225,0,0,0,0,0,0,0,0,0,-1,1455,799,0,0
238,225,0,0,0,0,0,0,0,0,0,-1,1462,799,0,0
245,225,0,0,0,0,0,0,0,0,0,-1,1469,799,0,0
252,225,0,0,0,0,0,0,0,0,0,-1,1476,799,0,0
259,225,0,0,0,0,0,0,0,0,0,-1,1483,799,0,0
266,225,0,0,0,0,0,0,0,0,0,-1,1490,799,0,0
273,225,0,0,0,0,0,0,0,0,0,-1,1497,799,0,0
280,225,0,0,0,0,0,0,0,0,0,-1,1504,799,0,0
287,225,0,0,0,0,0,0,0,0,0,-1,1511,799,0,0
294,225,0,0,0,0,0,0,0,0,0,-1,1518,799,0,0
301,225,0,0,0,0,0,0,0,0,0,-1,1525,799,0,0
308,225,0,0,0,0,0,0,0,0,0,-1,1532,799,0,0
315,225,0,0,0,0,0,0,0,0,0,-1,1539,799,0,0
322,225,0,0,0,0,0,0,0,0,0,-1,1546,799,0,0
329,225,0,0,0,0,0,0,0,0,0,-1,1553,799,0,0
336,225,0,0,0,0,0,0,0,0,0,-1,1560,799,0,0
343,225,0,0,0,0,0,0,0,0,0,-1,1567,799,0,0
350,225,0,0,0,0,0,0,0,0,0,-1,1574,799,0,0
357,225,0,0,0,0,0,0,0,0,0,-1,1581,799,0,0
364,225,0,0,0,0,0,0,0,0,0,-1,1588,799,0,0
371,225,0,0,0,0,0,0,0,0,0,-1,1595,799,0,0
378,225,0,0,0,0,0,0,0,0,0,-1,1602,799,0,0
385,225,0,0,0,0,0,0,0,0,0,-1,1609,799,0,0
392,225,0,0,0,0,0,0,0,0,0,-1,1616,799,0,0
399,225,0,0,0,0,0,0,0,0,0,-1,1623,799,0,0
406,225,0,0,0,0,0,0,0,0,0,-1,1630,799,0,0
413,225,0,0,0,0,0,0,0,0,0,-1,1637,799,0,0
420,225,0,0,0,0,0,0,0,0,0,-1,1644,799,0,0
427,225,0,0,0,0,0,0,0,0,0,-1,1651,799,0,0
434,225,0,0,0,0,0,0,0,0,0,-1,1658,799,0,0
441,225,0,0,0,0,0,0,0,0,0,-1,1665,799,0,0
448,225,0,0,0,0,0,0,0,0,0,-1,1672,799,0,0
455,225,0,0,0,0,0,0,0,0,0,-1,1679,799,0,0
462,225,0,0,0,0,0,0,0,0,0,-1,1686,799,0,0
469,225,0,0,0,0,0,0,0,0,0,-1,1693,799,0,0
476,225,0,0,0,0,0,0,0,0,0,-1,1700,799,0,0
483,225,0,0,0,0,0,0,0,0,0,-1,1707,799,0,0
490,225,0,0,0,0,0,0,0,0,0,-1,1714,799,0,0
497,225,0,0,0,0,0,0,0,0,0,-1,1721,799,0,0
504,225,0,0,0,0,0,0,0,0,0,-1,1728,799,0,0
511,225,0,0,0,0,0,0,0,0,0,-1,1735,799,0,0
518,225,0,0,0,0,0,0,0,0,0,-1,1742,799,0,0
525,225,0,0,0,0,0,0,0,0,0,-1,1749,799,0,0
532,225,0,0,0,0,0,0,0,0,0,-1,1756,799,0,0
539,225,0,0,0,0,0,0,0,0,0,-1,1763,799,0,0
546,225,0,0,0,0,0,0,0,0,0,-1,1770,799,0,0
553,225,0,0,0,0,0,0,0,0,0,-1,1777,799,0,0
560,225,0,0,0,0,0,0,0,0,0,-1,1784,799,0,0
567,225,0,0,0,0,0,0,0,0,0,-1,1791,799,0,0
574,225,0,0,0,0,0,0,0,0,0,-1,1798,799,0,0
581,225,0,0,0,0,0,0,0,0,0,-1,1805,799,0,0
588,225,48.0649,3.08673,0.00297008,-0.000516564,-0.00592793,0.00740572,-0.0049522,-0.642387,0.00718157,0.0400846,1812,799,48.065,-3.08671
595,225,48.0535,2.94135,-0.00304403,0.00189485,-0.000600646,0.00196685,-0.00311603,-1.4515,0.0029595,0.0381915,1819,799,48.0535,-2.94132
602,225,48.0394,2.81567,-0.00636297,0.00330397,0.0025746,0.00394691,-0.0070059,1.32608,0.00640529,0.0343082,1826,799,48.0395,-2.8157
609,225,48.0948,2.87292,-0.00726542,0.0036985,0.0039754,0.00498822,-0.00855514,1.25708,0.00790914,0.03211,1833,799,48.0949,-2.8729
616,225,48.0415,2.91162,-0.00668514,0.00318934,0.0040127,0.00461434,-0.00811015,1.22957,0.00743832,0.0364096,1840,799,48.0415,-2.91164
623,225,48.0497,3.07581,-0.00577083,0.00227222,0.00338196,0.00350525,-0.00700386,1.22118,0.0061785,0.0393273,1847,799,48.0497,-3.07579
630,225,48.3163,2.90289,0,0,0,0,0,0,0,-1,1854,799,48.3163,-2.9029
637,225,48.3091,2.67694,0,0,0,0,0,0,0,-1,1861,799,48.3091,-2.67694
644,225,42.0298,2.46411,0,0,0,0,0,0,0,-1,1868,799,42.0298,-2.4641
651,225,27.9657,0.579529,0,0,0,0,0,0,0,-1,1875,799,27.9657,-0.579541
658,225,35.5464,-0.522949,0,0,0,0,0,0,0,-1,1882,799,35.5463,0.522938
665,225,35.1477,-0.198792,-0.0012821,-0.000522347,-0.000769806,-4.37915e-05,-0.00176066,-1.0146,0.00115945,0.027579,1889,799,35.1477,0.198802
672,225,34.9315,0.300476,-0.00103487,-0.000787235,-0.00106848,0.000164582,-0.00198669,-0.843081,0.00138259,0.0252004,1896,799,34.9316,-0.300476
679,225,34.88,0.817078,-0.000884265,-0.00130181,-0.00117033,9.5772e-05,-0.00228185,-0.697133,0.00155414,0.0196822,1903,799,34.88,-0.817092
686,225,34.8798,1.32874,-0.00100618,-0.000946011,-0.0011274,0.00015171,-0.0021039,-0.798737,0.00145581,0.0114315,1910,799,34.8798,-1.32876
693,225,34.8457,1.8631,-0.00057715,-0.000172011,-0.000832358,0.000482073,-0.00123123,-0.904762,0.00102021,0.0103993,1917,799,34.8457,-1.86307
700,225,34.8245,2.41486,0.000483649,0.000530259,-0.000295125,0.000802997,0.000210911,-0.8248,0.000480707,0.0121237,1924,799,34.8244,-2.41485
707,225,34.8062,2.9903,0.00196044,0.000838418,0.000243863,0.00201115,0.000787708,0.205023,0.00117018,0.012511,1931,799,34.8061,-2.99031
714,225,34.8147,3.54846,0.00383848,0.000812942,0.000397369,0.0038898,0.000761623,0.128437,0.00238029,0.0132593,1938,799,34.8147,-3.54844
721,225,34.8214,4.0874,0.0064689,0.00104291,-0.000689889,0.00655524,0.000956568,-0.124506,0.00408878,0.0165281,1945,799,34.8214,-4.0874
728,225,34.7236,4.5354,0.00971728,0.000534162,-0.00259375,0.0103992,-0.000147793,-0.257104,0.00698261,0.0367123,1952,799,34.7237,-4.53537
735,225,34.8772,5.22772,0,0,0,0,0,0,0,-1,1959,799,34.8772,-5.22773
742,225,29.0922,3.2132,0,0,0,0,0,0,0,-1,1966,799,29.0921,-3.21322
749,225,29.9529,4.45538,0,0,0,0,0,0,0,-1,1973,799,29.9529,-4.45537
756,225,31.8855,3.83466,0,0,0,0,0,0,0,-1,1980,799,31.8855,-3.83463
763,225,29.1302,5.2796,0,0,0,0,0,0,0,-1,1987,799,29.1303,-5.27958
770,225,0,0,0,0,0,0,0,0,0,-1,1994,799,0,0
777,225,0,0,0,0,0,0,0,0,0,-1,2001,799,0,0
784,225,0,0,0,0,0,0,0,0,0,-1,2008,799,0,0
791,225,0,0,0,0,0,0,0,0,0,-1,2015,799,0,0
798,225,0,0,0,0,0,0,0,0,0,-1,2022,799,0,0
805,225,0,0,0,0,0,0,0,0,0,-1,2029,799,0,0
812,225,0,0,0,0,0,0,0,0,0,-1,2036,799,0,0
-700,218,0,0,0,0,0,0,0,0,0,-1,524,806,0,0
-693,218,0,0,0,0,0,0,0,0,0,-1,531,806,0,0
-686,218,0,0,0,0,0,0,0,0,0,-1,538,806,0,0
-679,218,0,0,0,0,0,0,0,0,0,-1,545,806,0,0
-672,218,0,0,0,0,0,0,0,0,0,-1,552,806,0,0
-665,218,0,0,0,0,0,0,0,0,0,-1,559,806,0,0
-658,218,0,0,0,0,0,0,0,0,0,-1,566,806,0,0
-651,218,-26.2643,2.93054,0,0,0,0,0,0,0,-1,573,806,-26.2643,-2.93053
-644,218,-28.7305,4.12079,0,0,0,0,0,0,0,-1,580,806,-28.7305,-4.12076
-637,218,-29.3349,3.56067,0,0,0,0,0,0,0,-1,587,806,-29.3349,-3.56068
-630,218,-29.7347,3.06238,0,0,0,0,0,0,0,-1,594,806,-29.7347,-3.06238
-623,218,-29.4469,4.34161,0,0,0,0,0,0,0,-1,601,806,-29.4469,-4.34164
-616,218,-20.0258,1.87585,0,0,0,0,0,0,0,-1,608,806,-20.0258,-1.87585
-609,218,-24.6373,3.54663,0,0,0,0,0,0,0,-1,615,806,-24.6373,-3.5466
-602,218,-24.6449,2.80847,-0.00122191,0.00948616,-0.00700654,0.0129501,-0.00468588,-1.11165,0.0105482,0.0426851,622,806,-24.6449,-2.8085
-595,218,-24.6361,2.02539,-5.65432e-05,0.0077713,-0.00503855,0.0102375,-0.00252273,-1.11561,0.00780304,0.0199379,629,806,-24.6361,-2.0254
-588,218,-24.6039,1.4848,0.000521477,0.00606251,-0.00330769,0.00760669,-0.0010227,-1.13402,0.00544414,0.0123615,636,806,-24.6039,-1.48481
-581,218,-24.6125,0.973816,0.000569424,0.00427793,-0.00186694,0.00505497,-0.000207617,-1.17639,0.00344127,0.0115224,643,806,-24.6125,-0.973807
-574,218,-24.6275,0.447754,0.00010902,0.00246709,-0.000649972,0.00263438,-5.8269e-05,-1.31889,0.001776,0.0107687,650,806,-24.6275,-0.447777
-567,218,-24.6217,-0.0904541,-0.000648192,0.00135565,0.000408646,0.00143578,-0.000728323,1.37716,0.0012715,0.0170331,657,806,-24.6217,0.0904505
-560,218,-24.6569,-0.605225,-0.00194198,0.00118687,0.00119401,0.00159045,-0.00234557,1.24484,0.00228636,0.0166791,664,806,-24.6569,0.605232
-553,218,-24.6367,-1.22552,-0.00358806,0.00141796,0.00174933,0.00196867,-0.00413877,1.26581,0.00359957,0.0164162,671,806,-24.6367,1.22554
-546,218,-24.7478,-1.86554,-0.00527447,0.00176057,0.00206437,0.0023216,-0.00583551,1.30544,0.00485298,0.0201835,678,806,-24.7478,1.86553
-539,218,-24.7777,-2.38574,-0.00668584,0.000987223,0.00197217,0.00146444,-0.00716306,1.33338,0.005331,0.0341368,685,806,-24.7777,2.38577
-532,218,-24.9214,-2.64087,-0.00776743,0.000955038,0.00204824,0.00141207,-0.00822446,1.35126,0.00600922,0.0444736,692,806,-24.9215,2.64088
-525,218,-25.4219,-2.81067,0,0,0,0,0,0,0,-1,699,806,-25.4219,2.81069
-518,218,-23.61,2.54181,0,0,0,0,0,0,0,-1,706,806,-23.61,-2.54183
-511,218,-34.9966,1.9256,0,0,0,0,0,0,0,-1,713,806,-34.9967,-1.92557
-504,218,-35.5217,1.42621,-0.00896765,-0.00328423,0.00181729,-0.00275283,-0.00949905,1.28632,0.00564351,0.0446866,720,806,-35.5217,-1.42619
-497,218,-35.783,1.26172,-0.00775144,-0.0056393,0.00165109,-0.00473542,-0.00865532,1.06992,0.00500454,0.0476736,727,806,-35.7829,-1.26174
-490,218,-35.9489,1.12518,-0.00535369,-0.00847366,0.00151562,-0.00473867,-0.00908868,0.385487,0.00524895,0.0390129,734,806,-35.9488,-1.1252
-483,218,-35.9985,1.16974,-0.000904267,-0.0114634,0.00150585,-0.000693714,-0.0116739,0.138923,0.00756201,0.0344155,741,806,-35.9986,-1.16971
-476,218,-35.8936,1.35364,0.00595773,-0.0135085,0.00227976,0.00622116,-0.0137719,0.11504,0.0118142,0.0353249,748,806,-35.8935,-1.35362
-469,218,0,0,0,0,0,0,0,0,0,-1,755,806,0,0
-462,218,0,0,0,0,0,0,0,0,0,-1,762,806,0,0
-455,218,0,0,0,0,0,0,0,0,0,-1,769,806,0,0
-448,218,0,0,0,0,0,0,0,0,0,-1,776,806,0,0
-441,218,0,0,0,0,0,0,0,0,0,-1,783,806,0,0
-434,218,0,0,0,0,0,0,0,0,0,-1,790,806,0,0
-427,218,0,0,0,0,0,0,0,0,0,-1,797,806,0,0
-420,218,0,0,0,0,0,0,0,0,0,-1,804,806,0,0
-413,218,0,0,0,0,0,0,0,0,0,-1,811,806,0,0
-406,218,0,0,0,0,0,0,0,0,0,-1,818,806,0,0
-399,218,0,0,0,0,0,0,0,0,0,-1,825,806,0,0
-392,218,0,0,0,0,0,0,0,0,0,-1,832,806,0,0
-385,218,0,0,0,0,0,0,0,0,0,-1,839,806,0,0
-378,218,0,0,0,0,0,0,0,0,0,-1,846,806,0,0
-371,218,0,0,0,0,0,0,0,0,0,-1,853,806,0,0
-364,218,0,0,0,0,0,0,0,0,0,-1,860,806,0,0
-357,218,0,0,0,0,0,0,0,0,0,-1,867,806,0,0
-350,218,0,0,0,0,0,0,0,0,0,-1,874,806,0,0
-343,218,0,0,0,0,0,0,0,0,0,-1,881,806,0,0
-336,218,0,0,0,0,0,0,0,0,0,-1,888,806,0,0
-329,218,0,0,0,0,0,0,0,0,0,-1,895,806,0,0
-322,218,0,0,0,0,0,0,0,0,0,-1,902,806,0,0
-315,218,0,0,0,0,0,0,0,0,0,-1,909,806,0,0
-308,218,0,0,0,0,0,0,0,0,0,-1,916,806,0,0
-301,218,0,0,0,0,0,0,0,0,0,-1,923,806,0,0
-294,218,0,0,0,0,0,0,0,0,0,-1,930,806,0,0
-287,218,0,0,0,0,0,0,0,0,0,-1,937,806,0,0
-280,218,0,0,0,0,0,0,0,0,0,-1,944,806,0,0
-273,218,0,0,0,0,0,0,0,0,0,-1,951,806,0,0
-266,218,0,0,0,0,0,0,0,0,0,-1,958,806,0,0
-259,218,0,0,0,0,0,0,0,0,0,-1,965,806,0,0
-252,218,0,0,0,0,0,0,0,0,0,-1,972,806,0,0
-245,218,0,0,0,0,0,0,0,0,0,-1,979,806,0,0
-238,218,0,0,0,0,0,0,0,0,0,-1,986,806,0,0
-231,218,0,0,0,0,0,0,0,0,0,-1,993,806,0,0
-224,218,0,0,0,0,0,0,0,0,0,-1,1000,806,0,0
-217,218,0,0,0,0,0,0,0,0,0,-1,1007,806,0,0
-210,218,0,0,0,0,0,0,0,0,0,-1,1014,806,0,0
-203,218,0,0,0,0,0,0,0,0,0,-1,1021,806,0,0
-196,218,0,0,0,0,0,0,0,0,0,-1,1028,806,0,0
-189,218,0,0,0,0,0,0,0,0,0,-1,1035,806,0,0
-182,218,0,0,0,0,0,0,0,0,0,-1,1042,806,0,0
-175,218,0,0,0,0,0,0,0,0,0,-1,1049,806,0,0
-168,218,0,0,0,0,0,0,0,0,0,-1,1056,806,0,0
-161,218,0,0,0,0,0,0,0,0,0,-1,1063,806,0,0
-154,218,0,0,0,0,0,0,0,0,0,-1,1070,806,0,0
-147,218,0,0,0,0,0,0,0,0,0,-1,1077,806,0,0
-140,218,0,0,0,0,0,0,0,0,0,-1,1084,806,0,0
-133,218,0,0,0,0,0,0,0,0,0,-1,1091,806,0,0
-126,218,0,0,0,0,0,0,0,0,0,-1,1098,806,0,0
-119,218,0,0,0,0,0,0,0,0,0,-1,1105,806,0,0
-112,218,0,0,0,0,0,0,0,0,0,-1,1112,806,0,0
-105,218,0,0,0,0,0,0,0,0,0,-1,1119,806,0,0
-98,218,0,0,0,0,0,0,0,0,0,-1,1126,806,0,0
-91,218,0,0,0,0,0,0,0,0,0,-1,1133,806,0,0
-84,218,0,0,0,0,0,0,0,0,0,-1,1140,806,0,0
-77,218,0,0,0,0,0,0,0,0,0,-1,1147,806,0,0
-70,218,0,0,0,0,0,0,0,0,0,-1,1154,806,0,0
-63,218,0,0,0,0,0,0,0,0,0,-1,1161,806,0,0
-56,218,0,0,0,0,0,0,0,0,0,-1,1168,806,0,0
-49,218,0,0,0,0,0,0,0,0,0,-1,1175,806,0,0
-42,218,0,0,0,0,0,0,0,0,0,-1,1182,806,0,0
-35,218,0,0,0,0,0,0,0,0,0,-1,1189,806,0,0
-28,218,0,0,0,0,0,0,0,0,0,-1,1196,806,0,0
-21,218,0,0,0,0,0,0,0,0,0,-1,1203,806,0,0
-14,218,0,0,0,0,0,0,0,0,0,-1,1210,806,0,0
-7,218,0,0,0,0,0,0,0,0,0,-1,1217,806,0,0
0,218,0,0,0,0,0,0,0,0,0,-1,1224,806,0,0
7,218,0,0,0,0,0,0,0,0,0,-1,1231,806,0,0
14,218,0,0,0,0,0,0,0,0,0,-1,1238,806,0,0
21,218,0,0,0,0,0,0,0,0,0,-1,1245,806,0,0
28,218,0,0,0,0,0,0,0,0,0,-1,1252,806,0,0
35,218,0,0,0,0,0,0,0,0,0,-1,1259,806,0,0
42,218,0,0,0,0,0,0,0,0,0,-1,1266,806,0,0
49,218,0,0,0,0,0,0,0,0,0,-1,1273,806,0,0
56,218,0,0,0,0,0,0,0,0,0,-1,1280,806,0,0
63,218,0,0,0,0,0,0,0,0,0,-1,1287,806,0,0
70,218,0,0,0,0,0,0,0,0,0,-1,1294,806,0,0
77,218,0,0,0,0,0,0,0,0,0,-1,1301,806,0,0
84,218,0,0,0,0,0,0,0,0,0,-1,1308,806,0,0
91,218,0,0,0,0,0,0,0,0,0,-1,1315,806,0,0
98,218,0,0,0,0,0,0,0,0,0,-1,1322,806,0,0
105,218,0,0,0,0,0,0,0,0,0,-1,1329,806,0,0
112,218,0,0,0,0,0,0,0,0,0,-1,1336,806,0,0
119,218,0,0,0,0,0,0,0,0,0,-1,1343,806,0,0
126,218,0,0,0,0,0,0,0,0,0,-1,1350,806,0,0
133,218,0,0,0,0,0,0,0,0,0,-1,1357,806,0,0
140,218,0,0,0,0,0,0,0,0,0,-1,1364,806,0,0
147,218,0,0,0,0,0,0,0,0,0,-1,1371,806,0,0
154,218,0,0,0,0,0,0,0,0,0,-1,1378,806,0,0
161,218,0,0,0,0,0,0,0,0,0,-1,1385,806,0,0
168,218,0,0,0,0,0,0,0,0,0,-1,1392,806,0,0
175,218,0,0,0,0,0,0,0,0,0,-1,1399,806,0,0
182,218,0,0,0,0,0,0,0,0,0,-1,1406,806,0,0
189,218,0,0,0,0,0,0,0,0,0,-1,1413,806,0,0
196,218,0,0,0,0,0,0,0,0,0,-1,1420,806,0,0
203,218,0,0,0,0,0,0,0,0,0,-1,1427,806,0,0
210,218,0,0,0,0,0,0,0,0,0,-1,1434,806,0,0
217,218,0,0,0,0,0,0,0,0,0,-1,1441,806,0,0
224,218,0,0,0,0,0,0,0,0,0,-1,1448,806,0,0
231,218,0,0,0,0,0,0,0,0,0,-1,1455,806,0,0
238,218,0,0,0,0,0,0,0,0,0,-1,1462,806,0,0
245,218,0,0,0,0,0,0,0,0,0,-1,1469,806,0,0
252,218,0,0,0,0,0,0,0,0,0,-1,1476,806,0,0
259,218,0,0,0,0,0,0,0,0,0,-1,1483,806,0,0
266,218,0,0,0,0,0,0,0,0,0,-1,1490,806,0,0
273,218,0,0,0,0,0,0,0,0,0,-1,1497,806,0,0
280,218,0,0,0,0,0,0,0,0,0,-1,1504,806,0,0
287,218,0,0,0,0,0,0,0,0,0,-1,1511,806,0,0
294,218,0,0,0,0,0,0,0,0,0,-1,1518,806,0,0
301,218,0,0,0,0,0,0,0,0,0,-1,1525,806,0,0
308,218,0,0,0,0,0,0,0,0,0,-1,1532,806,0,0
315,218,0,0,0,0,0,0,0,0,0,-1,1539,806,0,0
322,218,0,0,0,0,0,0,0,0,0,-1,1546,806,0,0
329,218,0,0,0,0,0,0,0,0,0,-1,1553,806,0,0
336,218,0,0,0,0,0,0,0,0,0,-1,1560,806,0,0
343,218,0,0,0,0,0,0,0,0,0,-1,1567,806,0,0
350,218,0,0,0,0,0,0,0,0,0,-1,1574,806,0,0
357,218,0,0,0,0,0,0,0,0,0,-1,1581,806,0,0
364,218,0,0,0,0,0,0,0,0,0,-1,1588,806,0,0
371,218,0,0,0,0,0,0,0,0,0,-1,1595,806,0,0
378,218,0,0,0,0,0,0,0,0,0,-1,1602,806,0,0
385,218,0,0,0,0,0,0,0,0,0,-1,1609,806,0,0
392,218,0,0,0,0,0,0,0,0,0,-1,1616,806,0,0
399,218,0,0,0,0,0,0,0,0,0,-1,1623,806,0,0
406,218,0,0,0,0,0,0,0,0,0,-1,1630,806,0,0
413,218,0,0,0,0,0,0,0,0,0,-1,1637,806,0,0
420,218,0,0,0,0,0,0,0,0,0,-1,1644,806,0,0
427,218,0,0,0,0,0,0,0,0,0,-1,1651,806,0,0
434,218,0,0,0,0,0,0,0,0,0,-1,1658,806,0,0
441,218,0,0,0,0,0,0,0,0,0,-1,1665,806,0,0
448,218,0,0,0,0,0,0,0,0,0,-1,1672,806,0,0
455,218,0,0,0,0,0,0,0,0,0,-1,1679,806,0,0
462,218,0,0,0,0,0,0,0,0,0,-1,1686,806,0,0
469,218,0,0,0,0,0,0,0,0,0,-1,1693,806,0,0
476,218,0,0,0,0,0,0,0,0,0,-1,1700,806,0,0
483,218,0,0,0,0,0,0,0,0,0,-1,1707,806,0,0
490,218,0,0,0,0,0,0,0,0,0,-1,1714,806,0,0
497,218,0,0,0,0,0,0,0,0,0,-1,1721,806,0,0
504,218,0,0,0,0,0,0,0,0,0,-1,1728,806,0,0
511,218,0,0,0,0,0,0,0,0,0,-1,1735,806,0,0
518,218,0,0,0,0,0,0,0,0,0,-1,1742,806,0,0
525,218,0,0,0,0,0,0,0,0,0,-1,1749,806,0,0
532,218,0,0,0,0,0,0,0,0,0,-1,1756,806,0,0
539,218,0,0,0,0,0,0,0,0,0,-1,1763,806,0,0
546,218,0,0,0,0,0,0,0,0,0,-1,1770,806,0,0
553,218,0,0,0,0,0,0,0,0,0,-1,1777,806,0,0
560,218,0,0,0,0,0,0,0,0,0,-1,1784,806,0,0
567,218,0,0,0,0,0,0,0,0,0,-1,1791,806,0,0
574,218,0,0,0,0,0,0,0,0,0,-1,1798,806,0,0
581,218,0,0,0,0,0,0,0,0,0,-1,1805,806,0,0
588,218,0,0,0,0,0,0,0,0,0,-1,1812,806,0,0
595,218,48.1034,2.91052,-0.000296938,-0.00254511,-0.00190424,0.000790244,-0.00363229,-0.518768,0.00272343,0.039153,1819,806,48.1034,-2.9105
602,218,48.0977,2.76819,-0.00364681,1.25847e-05,0.00123753,0.000391793,-0.00402602,1.27346,0.00282368,0.0330426,1826,806,48.0976,-2.76817
609,218,48.0927,2.83002,-0.00515104,0.00153786,0.00293283,0.00264165,-0.00625483,1.21084,0.0052757,0.0280541,1833,806,48.0926,-2.83
616,218,48.0508,2.90546,-0.00506115,0.00184922,0.00334183,0.00320092,-0.00641285,1.18644,0.00565283,0.0298978,1840,806,48.0507,-2.90544
623,218,48.0587,2.87299,-0.00444416,0.00134792,0.00285474,0.0025184,-0.00561464,1.18169,0.0048077,0.0345641,1847,806,48.0587,-2.87301
630,218,48.2244,2.85559,-0.00370399,0.00087612,0.00224296,0.00179156,-0.00461943,1.18329,0.00381953,0.0367561,1854,806,48.2244,-2.85559
637,218,48.2677,2.61267,-0.00312579,0.000405257,0.00160019,0.00102252,-0.00374305,1.20264,0.002897,0.0433858,1861,806,48.2677,-2.61268
644,218,48.2366,2.44482,0,0,0,0,0,0,0,-1,1868,806,48.2366,-2.44484
651,218,41.7338,1.99164,0,0,0,0,0,0,0,-1,1875,806,41.7338,-1.99162
658,218,28.41,0.514954,0,0,0,0,0,0,0,-1,1882,806,28.41,-0.514983
665,218,35.9631,0.125122,0,0,0,0,0,0,0,-1,1889,806,35.9632,-0.125137
672,218,35.6683,0.377258,-0.00123476,-0.000874636,-0.00109934,5.92952e-05,-0.00216869,-0.866572,0.00146596,0.0226118,1896,806,35.6684,-0.377264
679,218,35.5409,0.843323,-0.00118175,-0.00128075,-0.00129216,6.186e-05,-0.00252436,-0.766252,0.0017039,0.0184711,1903,806,35.5409,-0.843346
686,218,35.4729,1.31836,-0.00145728,-0.00104757,-0.0013802,0.000142896,-0.00264774,-0.859071,0.00181467,0.0125807,1910,806,35.473,-1.31835
693,218,35.4292,1.87146,-0.00118346,-0.000406746,-0.00122751,0.000492377,-0.00208258,-0.938605,0.00157832,0.0119047,1917,806,35.4292,-1.87146
700,218,35.382,2.42639,-0.00025177,0.000213566,-0.000792409,0.000806759,-0.000844963,-0.928195,0.000953707,0.00965223,1924,806,35.382,-2.42637
707,218,35.353,2.98779,0.0011334,0.000494583,-0.000269452,0.00123188,0.000396109,-0.350382,0.000726166,0.00804654,1931,806,35.353,-2.98782
714,218,35.3621,3.55627,0.00295207,0.000454305,-0.000145656,0.00296054,0.00044584,-0.0580524,0.00184314,0.0104063,1938,806,35.362,-3.55629
721,218,35.3862,4.10626,0.00558335,0.000718414,-0.00126402,0.00589216,0.000409597,-0.239619,0.00379894,0.0142501,1945,806,35.3862,-4.10624
728,218,35.3416,4.70648,0.00882274,0.000283166,-0.00315113,0.00985962,-0.000753714,-0.317891,0.00683818,0.026759,1952,806,35.3415,-4.7065
735,218,35.4694,5.38422,0.0126068,-0.000414699,-0.00607665,0.015002,-0.00280988,-0.375463,0.0110576,0.0454493,1959,806,35.4693,-5.38422
742,218,35.7018,6.08087,0,0,0,0,0,0,0,-1,1966,806,35.7018,-6.08088
749,218,34.6599,7.21771,0,0,0,0,0,0,0,-1,1973,806,34.6599,-7.21769
756,218,34.7111,7.59937,0,0,0,0,0,0,0,-1,1980,806,34.711,-7.59938
763,218,35.1069,6.14771,0,0,0,0,0,0,0,-1,1987,806,35.1069,-6.1477
770,218,0,0,0,0,0,0,0,0,0,-1,1994,806,0,0
777,218,0,0,0,0,0,0,0,0,0,-1,2001,806,0,0
784,218,0,0,0,0,0,0,0,0,0,-1,2008,806,0,0
791,218,0,0,0,0,0,0,0,0,0,-1,2015,806,0,0
798,218,0,0,0,0,0,0,0,0,0,-1,2022,806,0,0
805,218,0,0,0,0,0,0,0,0,0,-1,2029,806,0,0
812,218,0,0,0,0,0,0,0,0,0,-1,2036,806,0,0
-700,211,0,0,0,0,0,0,0,0,0,-1,524,813,0,0
-693,211,0,0,0,0,0,0,0,0,0,-1,531,813,0,0
-686,211,0,0,0,0,0,0,0,0,0,-1,538,813,0,0
-679,211,0,0,0,0,0,0,0,0,0,-1,545,813,0,0
-672,211,0,0,0,0,0,0,0,0,0,-1,552,813,0,0
-665,211,0,0,0,0,0,0,0,0,0,-1,559,813,0,0
-658,211,0,0,0,0,0,0,0,0,0,-1,566,813,0,0
-651,211,-26.5805,4.03448,0,0,0,0,0,0,0,-1,573,813,-26.5805,-4.03446
-644,211,-25.6163,4.17889,0,0,0,0,0,0,0,-1,580,813,-25.6163,-4.17889
-637,211,-29.3029,4.28766,0,0,0,0,0,0,0,-1,587,813,-29.3029,-4.28766
-630,211,-26.2802,6.70776,0,0,0,0,0,0,0,-1,594,813,-26.2802,-6.70775
-623,211,-26.2827,6.96381,0,0,0,0,0,0,0,-1,601,813,-26.2827,-6.96378
-616,211,-24.9067,3.79999,0,0,0,0,0,0,0,-1,608,813,-24.9067,-3.79997
-609,211,-24.9422,3.19824,-0.00534102,0.00946154,-0.00794876,0.0129213,-0.00880076,-1.16027,0.0126162,0.0417343,615,813,-24.9422,-3.19826
-602,211,-25.0294,2.58496,-0.00260614,0.00800987,-0.00555669,0.0103864,-0.00498264,-1.16665,0.00905429,0.0232232,622,813,-25.0294,-2.58497
-595,211,-25.1163,2.03021,-0.00120838,0.00652006,-0.0037709,0.00805509,-0.00274341,-1.18421,0.00648105,0.0121022,629,813,-25.1163,-2.03024
-588,211,-25.1393,1.50812,-0.000274344,0.00509102,-0.00216009,0.00585258,-0.0010359,-1.23184,0.00428893,0.011139,636,813,-25.1394,-1.50812
-581,211,-25.1617,0.999939,4.71672e-05,0.00346187,-0.000851335,0.00366235,-0.000153312,-1.33952,0.00249424,0.0118505,643,813,-25.1618,-0.999943
-574,211,-25.1871,0.47406,-0.000178674,0.00186284,0.000162465,0.00187569,-0.000191523,1.49188,0.00131895,0.0135678,650,813,-25.1871,-0.474077
-567,211,-25.1879,-0.0571899,-0.000788827,0.00116865,0.000969547,0.00156758,-0.00118775,1.18046,0.00159582,0.0200648,657,813,-25.1879,0.0572026
-560,211,-25.2149,-0.586975,-0.00203357,0.00133898,0.00145714,0.00188133,-0.00257592,1.21448,0.00258379,0.0237425,664,813,-25.2149,0.586959
-553,211,-25.0668,-1.17914,-0.00360867,0.00177644,0.00173888,0.00228912,-0.00412135,1.28408,0.00375114,0.0372957,671,813,-25.0669,1.17912
-546,211,-25.4108,-1.59558,-0.0051606,0.00225255,0.0018547,0.00269069,-0.00559874,1.33882,0.00488308,0.0454111,678,813,-25.4108,1.59555
-539,211,-25.3369,-2.16803,-0.00645695,0.00170115,0.00168248,0.00203452,-0.00679032,1.37519,0.00533595,0.0290868,685,813,-25.3369,2.16801
-532,211,-25.1845,-2.86908,0,0,0,0,0,0,0,-1,692,813,-25.1845,2.86909
-525,211,-14.3009,2.3233,0,0,0,0,0,0,0,-1,699,813,-14.3009,-2.3233
-518,211,-34.952,1.93011,0,0,0,0,0,0,0,-1,706,813,-34.952,-1.9301
-511,211,-35.2202,1.73694,-0.00972246,0.000748907,0.00147017,0.0009514,-0.00992495,1.43392,0.00695549,0.0479754,713,813,-35.2202,-1.73696
-504,211,-35.6178,1.45349,-0.00961577,-0.000485294,0.00129593,-0.000304922,-0.00979614,1.4325,0.00643153,0.0444044,720,813,-35.6178,-1.45351
-497,211,-35.8386,1.27771,-0.00853149,-0.00214827,0.00112204,-0.00195678,-0.00872298,1.40176,0.00528522,0.0457424,727,813,-35.8387,-1.27772
-490,211,-35.9486,1.16382,-0.00611637,-0.00423096,0.000983814,-0.0038111,-0.00653623,1.16743,0.00379102,0.0357083,734,813,-35.9486,-1.1638
-483,211,-36.0002,1.25128,-0.0011223,-0.00646834,0.000989193,-0.000945137,-0.0066455,0.177219,0.00415131,0.0328283,741,813,-36.0003,-1.25125
-476,211,-35.998,1.39203,0.00705619,-0.00780897,0.00199554,0.00731942,-0.00807219,0.13115,0.00888989,0.0348455,748,813,-35.9981,-1.39201
-469,211,0,0,0,0,0,0,0,0,0,-1,755,813,0,0
-462,211,0,0,0,0,0,0,0,0,0,-1,762,813,0,0
-455,211,0,0,0,0,0,0,0,0,0,-1,769,813,0,0
-448,211,0,0,0,0,0,0,0,0,0,-1,776,813,0,0
-441,211,0,0,0,0,0,0,0,0,0,-1,783,813,0,0
-434,211,0,0,0,0,0,0,0,0,0,-1,790,813,0,0
-427,211,0,0,0,0,0,0,0,0,0,-1,797,813,0,0
-420,211,0,0,0,0,0,0,0,0,0,-1,804,813,0,0
-413,211,0,0,0,0,0,0,0,0,0,-1,811,813,0,0
-406,211,0,0,0,0,0,0,0,0,0,-1,818,813,0,0
-399,211,0,0,0,0,0,0,0,0,0,-1,825,813,0,0
-392,211,0,0,0,0,0,0,0,0,0,-1,832,813,0,0
-385,211,0,0,0,0,0,0,0,0,0,-1,839,813,0,0
-378,211,0,0,0,0,0,0,0,0,0,-1,846,813,0,0
-371,211,0,0,0,0,0,0,0,0,0,-1,853,813,0,0
-364,211,0,0,0,0,0,0,0,0,0,-1,860,813,0,0
-357,211,0,0,0,0,0,0,0,0,0,-1,867,813,0,0
-350,211,0,0,0,0,0,0,0,0,0,-1,874,813,0,0
-343,211,0,0,0,0,0,0,0,0,0,-1,881,813,0,0
-336,211,0,0,0,0,0,0,0,0,0,-1,888,813,0,0
-329,211,0,0,0,0,0,0,0,0,0,-1,895,813,0,0
-322,211,0,0,0,0,0,0,0,0,0,-1,902,813,0,0
-315,211,0,0,0,0,0,0,0,0,0,-1,909,813,0,0
-308,211,0,0,0,0,0,0,0,0,0,-1,916,813,0,0
-301,211,0,0,0,0,0,0,0,0,0,-1,923,813,0,0
-294,211,0,0,0,0,0,0,0,0,0,-1,930,813,0,0
-287,211,0,0,0,0,0,0,0,0,0,-1,937,813,0,0
-280,211,0,0,0,0,0,0,0,0,0,-1,944,813,0,0
-273,211,0,0,0,0,0,0,0,0,0,-1,951,813,0,0
-266,211,0,0,0,0,0,0,0,0,0,-1,958,813,0,0
-259,211,0,0,0,0,0,0,0,0,0,-1,965,813,0,0
-252,211,0,0,0,0,0,0,0,0,0,-1,972,813,0,0
-245,211,0,0,0,0,0,0,0,0,0,-1,979,813,0,0
-238,211,0,0,0,0,0,0,0,0,0,-1,986,813,0,0
-231,211,0,0,0,0,0,0,0,0,0,-1,993,813,0,0
-224,211,0,0,0,0,0,0,0,0,0,-1,1000,813,0,0
-217,211,0,0,0,0,0,0,0,0,0,-1,1007,813,0,0
-210,211,0,0,0,0,0,0,0,0,0,-1,1014,813,0,0
-203,211,0,0,0,0,0,0,0,0,0,-1,1021,813,0,0
-196,211,0,0,0,0,0,0,0,0,0,-1,1028,813,0,0
-189,211,0,0,0,0,0,0,0,0,0,-1,1035,813,0,0
-182,211,0,0,0,0,0,0,0,0,0,-1,1042,813,0,0
-175,211,0,0,0,0,0,0,0,0,0,-1,1049,813,0,0
-168,211,0,0,0,0,0,0,0,0,0,-1,1056,813,0,0
-161,211,0,0,0,0,0,0,0,0,0,-1,1063,813,0,0
-154,211,0,0,0,0,0,0,0,0,0,-1,1070,813,0,0
-147,211,0,0,0,0,0,0,0,0,0,-1,1077,813,0,0
-140,211,0,0,0,0,0,0,0,0,0,-1,1084,813,0,0
-133,211,0,0,0,0,0,0,0,0,0,-1,1091,813,0,0
-126,211,0,0,0,0,0,0,0,0,0,-1,1098,813,0,0
-119,211,0,0,0,0,0,0,0,0,0,-1,1105,813,0,0
-112,211,0,0,0,0,0,0,0,0,0,-1,1112,813,0,0
-105,211,0,0,0,0,0,0,0,0,0,-1,1119,813,0,0
-98,211,0,0,0,0,0,0,0,0,0,-1,1126,813,0,0
-91,211,0,0,0,0,0,0,0,0,0,-1,1133,813,0,0
-84,211,0,0,0,0,0,0,0,0,0,-1,1140,813,0,0
-77,211,0,0,0,0,0,0,0,0,0,-1,1147,813,0,0
-70,211,0,0,0,0,0,0,0,0,0,-1,1154,813,0,0
-63,211,0,0,0,0,0,0,0,0,0,-1,1161,813,0,0
-56,211,0,0,0,0,0,0,0,0,0,-1,1168,813,0,0
-49,211,0,0,0,0,0,0,0,0,0,-1,1175,813,0,0
-42,211,0,0,0,0,0,0,0,0,0,-1,1182,813,0,0
-35,211,0,0,0,0,0,0,0,0,0,-1,1189,813,0,0
-28,211,0,0,0,0,0,0,0,0,0,-1,1196,813,0,0
-21,211,0,0,0,0,0,0,0,0,0,-1,1203,813,0,0
-14,211,0,0,0,0,0,0,0,0,0,-1,1210,813,0,0
-7,211,0,0,0,0,0,0,0,0,0,-1,1217,813,0,0
0,211,0,0,0,0,0,0,0,0,0,-1,1224,813,0,0
7,211,0,0,0,0,0,0,0,0,0,-1,1231,813,0,0
14,211,0,0,0,0,0,0,0,0,0,-1,1238,813,0,0
21,211,0,0,0,0,0,0,0,0,0,-1,1245,813,0,0
28,211,0,0,0,0,0,0,0,0,0,-1,1252,813,0,0
35,211,0,0,0,0,0,0,0,0,0,-1,1259,813,0,0
42,211,0,0,0,0,0,0,0,0,0,-1,1266,813,0,0
49,211,0,0,0,0,0,0,0,0,0,-1,1273,813,0,0
56,211,0,0,0,0,0,0,0,0,0,-1,1280,813,0,0
63,211,0,0,0,0,0,0,0,0,0,-1,1287,813,0,0
70,211,0,0,0,0,0,0,0,0,0,-1,1294,813,0,0
77,211,0,0,0,0,0,0,0,0,0,-1,1301,813,0,0
84,211,0,0,0,0,0,0,0,0,0,-1,1308,813,0,0
91,211,0,0,0,0,0,0,0,0,0,-1,1315,813,0,0
98,211,0,0,0,0,0,0,0,0,0,-1,1322,813,0,0
105,211,0,0,0,0,0,0,0,0,0,-1,1329,813,0,0
112,211,0,0,0,0,0,0,0,0,0,-1,1336,813,0,0
119,211,0,0,0,0,0,0,0,0,0,-1,1343,813,0,0
126,211,0,0,0,0,0,0,0,0,0,-1,1350,813,0,0
133,211,0,0,0,0,0,0,0,0,0,-1,1357,813,0,0
140,211,0,0,0,0,0,0,0,0,0,-1,1364,813,0,0
147,211,0,0,0,0,0,0,0,0,0,-1,1371,813,0,0
154,211,0,0,0,0,0,0,0,0,0,-1,1378,813,0,0
161,211,0,0,0,0,0,0,0,0,0,-1,1385,813,0,0
168,211,0,0,0,0,0,0,0,0,0,-1,1392,813,0,0
175,211,0,0,0,0,0,0,0,0,0,-1,1399,813,0,0
182,211,0,0,0,0,0,0,0,0,0,-1,1406,813,0,0
189,211,0,0,0,0,0,0,0,0,0,-1,1413,813,0,0
196,211,0,0,0,0,0,0,0,0,0,-1,1420,813,0,0
203,211,0,0,0,0,0,0,0,0,0,-1,1427,813,0,0
210,211,0,0,0,0,0,0,0,0,0,-1,1434,813,0,0
217,211,0,0,0,0,0,0,0,0,0,-1,1441,813,0,0
224,211,0,0,0,0,0,0,0,0,0,-1,1448,813,0,0
231,211,0,0,0,0,0,0,0,0,0,-1,1455,813,0,0
238,211,0,0,0,0,0,0,0,0,0,-1,1462,813,0,0
245,211,0,0,0,0,0,0,0,0,0,-1,1469,813,0,0
252,211,0,0,0,0,0,0,0,0,0,-1,1476,813,0,0
259,211,0,0,0,0,0,0,0,0,0,-1,1483,813,0,0
266,211,0,0,0,0,0,0,0,0,0,-1,1490,813,0,0
273,211,0,0,0,0,0,0,0,0,0,-1,1497,813,0,0
280,211,0,0,0,0,0,0,0,0,0,-1,1504,813,0,0
287,211,0,0,0,0,0,0,0,0,0,-1,1511,813,0,0
294,211,0,0,0,0,0,0,0,0,0,-1,1518,813,0,0
301,211,0,0,0,0,0,0,0,0,0,-1,1525,813,0,0
308,211,0,0,0,0,0,0,0,0,0,-1,1532,813,0,0
315,211,0,0,0,0,0,0,0,0,0,-1,1539,813,0,0
322,211,0,0,0,0,0,0,0,0,0,-1,1546,813,0,0
329,211,0,0,0,0,0,0,0,0,0,-1,1553,813,0,0
336,211,0,0,0,0,0,0,0,0,0,-1,1560,813,0,0
343,211,0,0,0,0,0,0,0,0,0,-1,1567,813,0,0
350,211,0,0,0,0,0,0,0,0,0,-1,1574,813,0,0
357,211,0,0,0,0,0,0,0,0,0,-1,1581,813,0,0
364,211,0,0,0,0,0,0,0,0,0,-1,1588,813,0,0
371,211,0,0,0,0,0,0,0,0,0,-1,1595,813,0,0
378,211,0,0,0,0,0,0,0,0,0,-1,1602,813,0,0
385,211,0,0,0,0,0,0,0,0,0,-1,1609,813,0,0
392,211,0,0,0,0,0,0,0,0,0,-1,1616,813,0,0
399,211,0,0,0,0,0,0,0,0,0,-1,1623,813,0,0
406,211,0,0,0,0,0,0,0,0,0,-1,1630,813,0,0
413,211,0,0,0,0,0,0,0,0,0,-1,1637,813,0,0
420,211,0,0,0,0,0,0,0,0,0,-1,1644,813,0,0
427,211,0,0,0,0,0,0,0,0,0,-1,1651,813,0,0
434,211,0,0,0,0,0,0,0,0,0,-1,1658,813,0,0
441,211,0,0,0,0,0,0,0,0,0,-1,1665,813,0,0
448,211,0,0,0,0,0,0,0,0,0,-1,1672,813,0,0
455,211,0,0,0,0,0,0,0,0,0,-1,1679,813,0,0
462,211,0,0,0,0,0,0,0,0,0,-1,1686,813,0,0
469,211,0,0,0,0,0,0,0,0,0,-1,1693,813,0,0
476,211,0,0,0,0,0,0,0,0,0,-1,1700,813,0,0
483,211,0,0,0,0,0,0,0,0,0,-1,1707,813,0,0
490,211,0,0,0,0,0,0,0,0,0,-1,1714,813,0,0
497,211,0,0,0,0,0,0,0,0,0,-1,1721,813,0,0
504,211,0,0,0,0,0,0,0,0,0,-1,1728,813,0,0
511,211,0,0,0,0,0,0,0,0,0,-1,1735,813,0,0
518,211,0,0,0,0,0,0,0,0,0,-1,1742,813,0,0
525,211,0,0,0,0,0,0,0,0,0,-1,1749,813,0,0
532,211,0,0,0,0,0,0,0,0,0,-1,1756,813,0,0
539,211,0,0,0,0,0,0,0,0,0,-1,1763,813,0,0
546,211,0,0,0,0,0,0,0,0,0,-1,1770,813,0,0
553,211,0,0,0,0,0,0,0,0,0,-1,1777,813,0,0
560,211,0,0,0,0,0,0,0,0,0,-1,1784,813,0,0
567,211,0,0,0,0,0,0,0,0,0,-1,1791,813,0,0
574,211,0,0,0,0,0,0,0,0,0,-1,1798,813,0,0
581,211,0,0,0,0,0,0,0,0,0,-1,1805,813,0,0
588,211,0,0,0,0,0,0,0,0,0,-1,1812,813,0,0
595,211,48.1699,2.89734,0.00226361,-0.00732471,-0.00262153,0.00293354,-0.00799465,-0.250198,0.00653105,0.0397449,1819,813,48.1699,-2.89735
602,211,48.1361,2.77448,-0.000626069,-0.00379804,4.1349e-06,-0.000626064,-0.00379804,0.00130357,0.00235129,0.0370314,1826,813,48.1362,-2.77448
609,211,48.172,2.95349,-0.00245174,-0.00109744,0.00169041,4.64065e-05,-0.00359558,0.975903,0.00241267,0.0350253,1833,813,48.172,-2.95346
616,211,48.1288,2.90607,-0.00288652,0.000303183,0.00244101,0.00162417,-0.0042075,1.07476,0.00347529,0.0302742,1840,813,48.1288,-2.90604
623,211,48.0732,2.8457,-0.0027318,0.000444746,0.0022239,0.0015893,-0.00387635,1.09549,0.00324638,0.0303635,1847,813,48.0732,-2.8457
630,211,48.1085,2.81006,-0.00238071,0.000308194,0.00179361,0.0012053,-0.00327782,1.10701,0.00267894,0.0339456,1854,813,48.1085,-2.81006
637,211,48.2445,2.78339,-0.00210973,-2.93178e-05,0.00122824,0.000540012,-0.00267906,1.13675,0.00199061,0.0392677,1861,813,48.2445,-2.78338
644,211,48.2126,2.84015,0,0,0,0,0,0,0,-1,1868,813,48.2126,-2.84017
651,211,45.1924,2.85034,0,0,0,0,0,0,0,-1,1875,813,45.1924,-2.85033
658,211,27.7909,1.52234,0,0,0,0,0,0,0,-1,1882,813,27.7909,-1.52234
665,211,36.5187,0.147034,0,0,0,0,0,0,0,-1,1889,813,36.5187,-0.14705
672,211,36.3608,0.445801,-0.00131377,-0.000942431,-0.00111289,1.71596e-07,-0.00225637,-0.868054,0.0015043,0.0412016,1896,813,36.3609,-0.445792
679,211,36.1854,0.858398,-0.00136242,-0.00121848,-0.00136726,7.87007e-05,-0.00265961,-0.811693,0.00179988,0.0247745,1903,813,36.1855,-0.858382
686,211,36.0199,1.36713,-0.00177171,-0.00107585,-0.00156179,0.000176299,-0.00302386,-0.894997,0.00207717,0.013494,1910,813,36.0199,-1.36714
693,211,35.9946,1.89441,-0.00166118,-0.00059392,-0.00157107,0.000531674,-0.00278678,-0.949115,0.0020581,0.0125105,1917,813,35.9946,-1.89444
700,211,35.9331,2.41248,-0.000933926,-9.82741e-05,-0.00128624,0.0008363,-0.0018685,-0.942443,0.00159907,0.013695,1924,813,35.9331,-2.41246
707,211,35.9354,3.00421,0.000233117,0.000137194,-0.000809836,0.00099641,-0.000626099,-0.755821,0.000944854,0.0207242,1931,813,35.9354,-3.0042
714,211,35.9358,3.5968,0.00188626,0.000111423,-0.000691715,0.002124,-0.000126316,-0.331048,0.00145993,0.0227143,1938,813,35.9358,-3.59681
721,211,35.933,4.08008,0.00444271,0.000405743,-0.00177135,0.00510974,-0.000261285,-0.360141,0.00349684,0.0176831,1945,813,35.933,-4.08006
728,211,35.9296,4.63733,0.00761269,5.61206e-05,-0.00357319,0.0090347,-0.00136589,-0.378753,0.00652625,0.017252,1952,813,35.9295,-4.63735
735,211,35.9769,5.26715,0.0112647,-0.000573083,-0.00634344,0.0140218,-0.00333016,-0.410002,0.0106332,0.0292873,1959,813,35.9769,-5.26716
742,211,36.0831,5.90997,0,0,0,0,0,0,0,-1,1966,813,36.0831,-5.90995
749,211,35.8912,6.20044,0,0,0,0,0,0,0,-1,1973,813,35.8912,-6.20044
756,211,35.6284,5.68683,0,0,0,0,0,0,0,-1,1980,813,35.6284,-5.68683
763,211,35.9668,6.12091,0,0,0,0,0,0,0,-1,1987,813,35.9668,-6.12092
770,211,35.766,6.78741,0,0,0,0,0,0,0,-1,1994,813,35.766,-6.78743
777,211,0,0,0,0,0,0,0,0,0,-1,2001,813,0,0
784,211,0,0,0,0,0,0,0,0,0,-1,2008,813,0,0
791,211,0,0,0,0,0,0,0,0,0,-1,2015,813,0,0
798,211,0,0,0,0,0,0,0,0,0,-1,2022,813,0,0
805,211,0,0,0,0,0,0,0,0,0,-1,2029,813,0,0
812,211,0,0,0,0,0,0,0,0,0,-1,2036,813,0,0
-700,204,0,0,0,0,0,0,0,0,0,-1,524,820,0,0
-693,204,0,0,0,0,0,0,0,0,0,-1,531,820,0,0
-686,204,0,0,0,0,0,0,0,0,0,-1,538,820,0,0
-679,204,0,0,0,0,0,0,0,0,0,-1,545,820,0,0
-672,204,0,0,0,0,0,0,0,0,0,-1,552,820,0,0
-665,204,0,0,0,0,0,0,0,0,0,-1,559,820,0,0
-658,204,0,0,0,0,0,0,0,0,0,-1,566,820,0,0
-651,204,-26.9496,5.22046,0,0,0,0,0,0,0,-1,573,820,-26.9496,-5.22048
-644,204,-26.0089,5.32202,0,0,0,0,0,0,0,-1,580,820,-26.0089,-5.32201
-637,204,-26.352,7.71545,0,0,0,0,0,0,0,-1,587,820,-26.352,-7.71546
-630,204,-26.5369,7.09045,0,0,0,0,0,0,0,-1,594,820,-26.5369,-7.09043
-623,204,-25.6373,3.87756,0,0,0,0,0,0,0,-1,601,820,-25.6373,-3.87759
-616,204,-25.5216,3.45673,0,0,0,0,0,0,0,-1,608,820,-25.5216,-3.4567
-609,204,-25.535,3.04016,-0.00483715,0.00889458,-0.00475445,0.0103801,-0.00632263,-1.26797,0.00973768,0.0361075,615,820,-25.535,-3.04019
-602,204,-25.6156,2.55682,-0.00272288,0.00717855,-0.00317942,0.00811157,-0.00365589,-1.28536,0.00695439,0.016884,622,820,-25.6156,-2.55684
-595,204,-25.6615,2.02917,-0.00154874,0.00557582,-0.00199097,0.00609445,-0.00206736,-1.31597,0.0048997,0.0148447,629,820,-25.6615,-2.02917
-588,204,-25.6855,1.49817,-0.000574019,0.00418961,-0.000801144,0.00432073,-0.000705145,-1.40856,0.00314202,0.0126044,636,820,-25.6855,-1.49819
-581,204,-25.7065,0.980042,-0.000215223,0.00250676,7.52916e-05,0.00250884,-0.000217304,1.54316,0.0017495,0.0130135,643,820,-25.7065,-0.98005
-574,204,-25.7205,0.487061,-0.000271443,0.00108855,0.00077208,0.00143739,-0.000620283,1.14643,0.00121882,0.0146609,650,820,-25.7205,-0.487063
-567,204,-25.6945,-0.0205078,-0.000694996,0.000766569,0.00131055,0.00153632,-0.00146474,1.03973,0.00173283,0.0149825,657,820,-25.6944,0.0205065
-560,204,-25.6848,-0.570007,-0.00180283,0.0011565,0.00156174,0.00182822,-0.00247454,1.16461,0.00249352,0.0179835,664,820,-25.6848,0.570016
-553,204,-25.7789,-1.02466,-0.00323445,0.00165452,0.00167233,0.00217183,-0.00375176,1.2708,0.0034603,0.0214366,671,820,-25.7789,1.02468
-546,204,-25.9222,-1.46143,-0.00459825,0.00219479,0.00170887,0.00260045,-0.00500392,1.33772,0.00446288,0.0248956,678,820,-25.9222,1.46143
-539,204,-25.8192,-2.06519,-0.00573135,0.0018403,0.00152202,0.0021348,-0.00602585,1.37967,0.00488681,0.0461778,685,820,-25.8191,2.06518
-532,204,-25.701,-2.93024,0,0,0,0,0,0,0,-1,692,820,-25.701,2.93025
-525,204,-25.7137,1.52496,0,0,0,0,0,0,0,-1,699,820,-25.7137,-1.52496
-518,204,-35.2406,1.79089,0,0,0,0,0,0,0,-1,706,820,-35.2406,-1.79092
-511,204,-35.5374,1.52435,-0.00939594,0.00229638,0.00114289,0.00240704,-0.00950661,1.47427,0.00727407,0.0448812,713,820,-35.5374,-1.52436
-504,204,-35.8264,1.29504,-0.00943675,0.00160472,0.000914898,0.00168001,-0.00951205,1.48868,0.0069692,0.0451917,720,820,-35.8264,-1.29506
-497,204,-36.0055,1.12128,-0.0083281,0.000510096,0.000683261,0.000562605,-0.00838061,1.4941,0.00578374,0.0386109,727,820,-36.0055,-1.12126
-490,204,-36.1384,0.896851,-0.00558106,-0.00107394,0.000487411,-0.00102184,-0.00563317,1.46429,0.00346542,0.0341121,734,820,-36.1384,-0.896873
-483,204,-36.1968,0.859375,0.000488557,-0.00298924,0.000431266,0.000541238,-0.00304192,0.121553,0.00223036,0.0382773,741,820,-36.1968,-0.859373
-476,204,0,0,0,0,0,0,0,0,0,-1,748,820,0,0
-469,204,0,0,0,0,0,0,0,0,0,-1,755,820,0,0
-462,204,0,0,0,0,0,0,0,0,0,-1,762,820,0,0
-455,204,0,0,0,0,0,0,0,0,0,-1,769,820,0,0
-448,204,0,0,0,0,0,0,0,0,0,-1,776,820,0,0
-441,204,0,0,0,0,0,0,0,0,0,-1,783,820,0,0
-434,204,0,0,0,0,0,0,0,0,0,-1,790,820,0,0
-427,204,0,0,0,0,0,0,0,0,0,-1,797,820,0,0
-420,204,0,0,0,0,0,0,0,0,0,-1,804,820,0,0
-413,204,0,0,0,0,0,0,0,0,0,-1,811,820,0,0
-406,204,0,0,0,0,0,0,0,0,0,-1,818,820,0,0
-399,204,0,0,0,0,0,0,0,0,0,-1,825,820,0,0
-392,204,0,0,0,0,0,0,0,0,0,-1,832,820,0,0
-385,204,0,0,0,0,0,0,0,0,0,-1,839,820,0,0
-378,204,0,0,0,0,0,0,0,0,0,-1,846,820,0,0
-371,204,0,0,0,0,0,0,0,0,0,-1,853,820,0,0
-364,204,0,0,0,0,0,0,0,0,0,-1,860,820,0,0
-357,204,0,0,0,0,0,0,0,0,0,-1,867,820,0,0
-350,204,0,0,0,0,0,0,0,0,0,-1,874,820,0,0
-343,204,0,0,0,0,0,0,0,0,0,-1,881,820,0,0
-336,204,0,0,0,0,0,0,0,0,0,-1,888,820,0,0
-329,204,0,0,0,0,0,0,0,0,0,-1,895,820,0,0
-322,204,0,0,0,0,0,0,0,0,0,-1,902,820,0,0
-315,204,0,0,0,0,0,0,0,0,0,-1,909,820,0,0
-308,204,0,0,0,0,0,0,0,0,0,-1,916,820,0,0
-301,204,0,0,0,0,0,0,0,0,0,-1,923,820,0,0
-294,204,0,0,0,0,0,0,0,0,0,-1,930,820,0,0
-287,204,0,0,0,0,0,0,0,0,0,-1,937,820,0,0
-280,204,0,0,0,0,0,0,0,0,0,-1,944,820,0,0
-273,204,0,0,0,0,0,0,0,0,0,-1,951,820,0,0
-266,204,0,0,0,0,0,0,0,0,0,-1,958,820,0,0
-259,204,0,0,0,0,0,0,0,0,0,-1,965,820,0,0
-252,204,0,0,0,0,0,0,0,0,0,-1,972,820,0,0
-245,204,0,0,0,0,0,0,0,0,0,-1,979,820,0,0
-238,204,0,0,0,0,0,0,0,0,0,-1,986,820,0,0
-231,204,0,0,0,0,0,0,0,0,0,-1,993,820,0,0
-224,204,0,0,0,0,0,0,0,0,0,-1,1000,820,0,0
-217,204,0,0,0,0,0,0,0,0,0,-1,1007,820,0,0
-210,204,0,0,0,0,0,0,0,0,0,-1,1014,820,0,0
-203,204,0,0,0,0,0,0,0,0,0,-1,1021,820,0,0
-196,204,0,0,0,0,0,0,0,0,0,-1,1028,820,0,0
-189,204,0,0,0,0,0,0,0,0,0,-1,1035,820,0,0
-182,204,0,0,0,0,0,0,0,0,0,-1,1042,820,0,0
-175,204,0,0,0,0,0,0,0,0,0,-1,1049,820,0,0
-168,204,0,0,0,0,0,0,0,0,0,-1,1056,820,0,0
-161,204,0,0,0,0,0,0,0,0,0,-1,1063,820,0,0
-154,204,0,0,0,0,0,0,0,0,0,-1,1070,820,0,0
-147,204,0,0,0,0,0,0,0,0,0,-1,1077,820,0,0
-140,204,0,0,0,0,0,0,0,0,0,-1,1084,820,0,0
-133,204,0,0,0,0,0,0,0,0,0,-1,1091,820,0,0
-126,204,0,0,0,0,0,0,0,0,0,-1,1098,820,0,0
-119,204,0,0,0,0,0,0,0,0,0,-1,1105,820,0,0
-112,204,0,0,0,0,0,0,0,0,0,-1,1112,820,0,0
-105,204,0,0,0,0,0,0,0,0,0,-1,1119,820,0,0
-98,204,0,0,0,0,0,0,0,0,0,-1,1126,820,0,0
-91,204,0,0,0,0,0,0,0,0,0,-1,1133,820,0,0
-84,204,0,0,0,0,0,0,0,0,0,-1,1140,820,0,0
-77,204,0,0,0,0,0,0,0,0,0,-1,1147,820,0,0
-70,204,0,0,0,0,0,0,0,0,0,-1,1154,820,0,0
-63,204,0,0,0,0,0,0,0,0,0,-1,1161,820,0,0
-56,204,0,0,0,0,0,0,0,0,0,-1,1168,820,0,0
-49,204,0,0,0,0,0,0,0,0,0,-1,1175,820,0,0
-42,204,0,0,0,0,0,0,0,0,0,-1,1182,820,0,0
-35,204,0,0,0,0,0,0,0,0,0,-1,1189,820,0,0
-28,204,0,0,0,0,0,0,0,0,0,-1,1196,820,0,0
-21,204,0,0,0,0,0,0,0,0,0,-1,1203,820,0,0
-14,204,0,0,0,0,0,0,0,0,0,-1,1210,820,0,0
-7,204,0,0,0,0,0,0,0,0,0,-1,1217,820,0,0
0,204,0,0,0,0,0,0,0,0,0,-1,1224,820,0,0
7,204,0,0,0,0,0,0,0,0,0,-1,1231,820,0,0
14,204,0,0,0,0,0,0,0,0,0,-1,1238,820,0,0
21,204,0,0,0,0,0,0,0,0,0,-1,1245,820,0,0
28,204,0,0,0,0,0,0,0,0,0,-1,1252,820,0,0
35,204,0,0,0,0,0,0,0,0,0,-1,1259,820,0,0
42,204,0,0,0,0,0,0,0,0,0,-1,1266,820,0,0
49,204,0,0,0,0,0,0,0,0,0,-1,1273,820,0,0
56,204,0,0,0,0,0,0,0,0,0,-1,1280,820,0,0
63,204,0,0,0,0,0,0,0,0,0,-1,1287,820,0,0
70,204,0,0,0,0,0,0,0,0,0,-1,1294,820,0,0
77,204,0,0,0,0,0,0,0,0,0,-1,1301,820,0,0
84,204,0,0,0,0,0,0,0,0,0,-1,1308,820,0,0
91,204,0,0,0,0,0,0,0,0,0,-1,1315,820,0,0
98,204,0,0,0,0,0,0,0,0,0,-1,1322,820,0,0
105,204,0,0,0,0,0,0,0,0,0,-1,1329,820,0,0
112,204,0,0,0,0,0,0,0,0,0,-1,1336,820,0,0
119,204,0,0,0,0,0,0,0,0,0,-1,1343,820,0,0
126,204,0,0,0,0,0,0,0,0,0,-1,1350,820,0,0
133,204,0,0,0,0,0,0,0,0,0,-1,1357,820,0,0
140,204,0,0,0,0,0,0,0,0,0,-1,1364,820,0,0
147,204,0,0,0,0,0,0,0,0,0,-1,1371,820,0,0
154,204,0,0,0,0,0,0,0,0,0,-1,1378,820,0,0
161,204,0,0,0,0,0,0,0,0,0,-1,1385,820,0,0
168,204,0,0,0,0,0,0,0,0,0,-1,1392,820,0,0
175,204,0,0,0,0,0,0,0,0,0,-1,1399,820,0,0
182,204,0,0,0,0,0,0,0,0,0,-1,1406,820,0,0
189,204,0,0,0,0,0,0,0,0,0,-1,1413,820,0,0
196,204,0,0,0,0,0,0,0,0,0,-1,1420,820,0,0
203,204,0,0,0,0,0,0,0,0,0,-1,1427,820,0,0
210,204,0,0,0,0,0,0,0,0,0,-1,1434,820,0,0
217,204,0,0,0,0,0,0,0,0,0,-1,1441,820,0,0
224,204,0,0,0,0,0,0,0,0,0,-1,1448,820,0,0
231,204,0,0,0,0,0,0,0,0,0,-1,1455,820,0,0
238,204,0,0,0,0,0,0,0,0,0,-1,1462,820,0,0
245,204,0,0,0,0,0,0,0,0,0,-1,1469,820,0,0
252,204,0,0,0,0,0,0,0,0,0,-1,1476,820,0,0
259,204,0,0,0,0,0,0,0,0,0,-1,1483,820,0,0
266,204,0,0,0,0,0,0,0,0,0,-1,1490,820,0,0
273,204,0,0,0,0,0,0,0,0,0,-1,1497,820,0,0
280,204,0,0,0,0,0,0,0,0,0,-1,1504,820,0,0
287,204,0,0,0,0,0,0,0,0,0,-1,1511,820,0,0
294,204,0,0,0,0,0,0,0,0,0,-1,1518,820,0,0
301,204,0,0,0,0,0,0,0,0,0,-1,1525,820,0,0
308,204,0,0,0,0,0,0,0,0,0,-1,1532,820,0,0
315,204,0,0,0,0,0,0,0,0,0,-1,1539,820,0,0
322,204,0,0,0,0,0,0,0,0,0,-1,1546,820,0,0
329,204,0,0,0,0,0,0,0,0,0,-1,1553,820,0,0
336,204,0,0,0,0,0,0,0,0,0,-1,1560,820,0,0
343,204,0,0,0,0,0,0,0,0,0,-1,1567,820,0,0
350,204,0,0,0,0,0,0,0,0,0,-1,1574,820,0,0
357,204,0,0,0,0,0,0,0,0,0,-1,1581,820,0,0
364,204,0,0,0,0,0,0,0,0,0,-1,1588,820,0,0
371,204,0,0,0,0,0,0,0,0,0,-1,1595,820,0,0
378,204,0,0,0,0,0,0,0,0,0,-1,1602,820,0,0
385,204,0,0,0,0,0,0,0,0,0,-1,1609,820,0,0
392,204,0,0,0,0,0,0,0,0,0,-1,1616,820,0,0
399,204,0,0,0,0,0,0,0,0,0,-1,1623,820,0,0
406,204,0,0,0,0,0,0,0,0,0,-1,1630,820,0,0
413,204,0,0,0,0,0,0,0,0,0,-1,1637,820,0,0
420,204,0,0,0,0,0,0,0,0,0,-1,1644,820,0,0
427,204,0,0,0,0,0,0,0,0,0,-1,1651,820,0,0
434,204,0,0,0,0,0,0,0,0,0,-1,1658,820,0,0
441,204,0,0,0,0,0,0,0,0,0,-1,1665,820,0,0
448,204,0,0,0,0,0,0,0,0,0,-1,1672,820,0,0
455,204,0,0,0,0,0,0,0,0,0,-1,1679,820,0,0
462,204,0,0,0,0,0,0,0,0,0,-1,1686,820,0,0
469,204,0,0,0,0,0,0,0,0,0,-1,1693,820,0,0
476,204,0,0,0,0,0,0,0,0,0,-1,1700,820,0,0
483,204,0,0,0,0,0,0,0,0,0,-1,1707,820,0,0
490,204,0,0,0,0,0,0,0,0,0,-1,1714,820,0,0
497,204,0,0,0,0,0,0,0,0,0,-1,1721,820,0,0
504,204,0,0,0,0,0,0,0,0,0,-1,1728,820,0,0
511,204,0,0,0,0,0,0,0,0,0,-1,1735,820,0,0
518,204,0,0,0,0,0,0,0,0,0,-1,1742,820,0,0
525,204,0,0,0,0,0,0,0,0,0,-1,1749,820,0,0
532,204,0,0,0,0,0,0,0,0,0,-1,1756,820,0,0
539,204,0,0,0,0,0,0,0,0,0,-1,1763,820,0,0
546,204,0,0,0,0,0,0,0,0,0,-1,1770,820,0,0
553,204,0,0,0,0,0,0,0,0,0,-1,1777,820,0,0
560,204,0,0,0,0,0,0,0,0,0,-1,1784,820,0,0
567,204,0,0,0,0,0,0,0,0,0,-1,1791,820,0,0
574,204,0,0,0,0,0,0,0,0,0,-1,1798,820,0,0
581,204,0,0,0,0,0,0,0,0,0,-1,1805,820,0,0
588,204,0,0,0,0,0,0,0,0,0,-1,1812,820,0,0
595,204,0,0,0,0,0,0,0,0,0,-1,1819,820,0,0
602,204,48.1383,2.72516,0.00117423,-0.00672345,-0.00083747,0.00126206,-0.00681128,-0.104492,0.00501475,0.0392196,1826,820,48.1383,-2.72519
609,204,48.1824,3.10236,-0.000443333,-0.00358455,0.000711953,-0.000289503,-0.00373838,0.212796,0.00240158,0.0428161,1833,820,48.1824,-3.10234
616,204,48.17,2.93524,-0.00104267,-0.00138493,0.00167396,0.00046889,-0.00289649,0.73446,0.00210477,0.0400646,1840,820,48.17,-2.93526
623,204,48.0734,2.84351,-0.00120951,-0.000595582,0.0017488,0.000872985,-0.00267808,0.872278,0.00213668,0.0293188,1847,820,48.0734,-2.84348
630,204,48.0431,2.85443,-0.00120405,-0.000342616,0.00148545,0.0007733,-0.00231997,0.926508,0.00185883,0.0280097,1854,820,48.0431,-2.85442
637,204,48.0885,2.81415,-0.00121863,-0.000501193,0.000980048,0.000183724,-0.00190354,0.960835,0.00133449,0.0337255,1861,820,48.0885,-2.81417
644,204,48.1351,2.80157,-0.00133468,-0.000687566,0.000531504,-0.000388881,-0.00163337,1.05882,0.000985208,0.0414715,1868,820,48.1351,-2.80155
651,204,48.1594,2.85394,0,0,0,0,0,0,0,-1,1875,820,48.1595,-2.85394
658,204,34.9631,1.64844,0,0,0,0,0,0,0,-1,1882,820,34.9631,-1.64842
665,204,21.8292,1.51099,0,0,0,0,0,0,0,-1,1889,820,21.8292,-1.51099
672,204,36.6725,0.0627441,0,0,0,0,0,0,0,-1,1896,820,36.6725,-0.0627227
679,204,36.6249,0.68335,-0.00143783,-0.00128504,-0.00144393,8.45065e-05,-0.00280738,-0.811827,0.00190038,0.0392903,1903,820,36.6249,-0.683348
686,204,36.5522,1.3642,-0.00191288,-0.00120909,-0.0017164,0.000191117,-0.00331309,-0.886506,0.00227511,0.0190549,1910,820,36.5522,-1.36418
693,204,36.5087,1.88239,-0.00193469,-0.000834838,-0.0018726,0.000566919,-0.00333645,-0.928217,0.00243537,0.0169511,1917,820,36.5086,-1.88237
700,204,36.5183,2.43524,-0.00141019,-0.000450674,-0.00174036,0.000874844,-0.00273571,-0.919891,0.00217489,0.016542,1924,820,36.5183,-2.43524
707,204,36.4773,3.03503,-0.000471385,-0.000249083,-0.00130917,0.000953645,-0.00167411,-0.827748,0.00153603,0.0147022,1931,820,36.4773,-3.03503
714,204,36.4996,3.62921,0.000999605,-0.000168967,-0.0011307,0.00168807,-0.000857427,-0.546921,0.00149549,0.0241909,1938,820,36.4997,-3.62918
721,204,36.478,4.1087,0.00342762,0.000239122,-0.00203558,0.00441895,-0.000752205,-0.453194,0.00322607,0.0222064,1945,820,36.4781,-4.10873
728,204,36.4504,4.61676,0.00649015,6.82716e-05,-0.00360158,0.0081043,-0.00154588,-0.421338,0.00598508,0.013114,1952,820,36.4505,-4.61673
735,204,36.3944,5.20709,0.0099902,-0.000365898,-0.00603337,0.0127629,-0.00313856,-0.430771,0.00972507,0.0149753,1959,820,36.3944,-5.2071
742,204,36.4194,5.7326,0.0145853,-0.00116292,-0.00999539,0.0194356,-0.00601317,-0.451777,0.0153589,0.030954,1966,820,36.4194,-5.73259
749,204,36.4166,6.21985,0.0207637,-0.00239317,-0.0159925,0.0289291,-0.0105586,-0.472074,0.0236063,0.0471006,1973,820,36.4166,-6.21987
756,204,36.3806,6.21954,0.0287795,-0.00399874,-0.024518,0.0418816,-0.0171009,-0.490779,0.0350411,0.0470422,1980,820,36.3807,-6.21955
763,204,36.7013,6.30121,0.0389878,-0.00578775,-0.0360881,0.0590684,-0.0258683,-0.507768,0.0502715,0.0461596,1987,820,36.7013,-6.30119
770,204,36.7743,6.61597,0.0515898,-0.00724869,-0.0510986,0.0811329,-0.0367918,-0.524205,0.0696698,0.0494991,1994,820,36.7743,-6.61595
777,204,0,0,0,0,0,0,0,0,0,-1,2001,820,0,0
784,204,0,0,0,0,0,0,0,0,0,-1,2008,820,0,0
791,204,0,0,0,0,0,0,0,0,0,-1,2015,820,0,0
798,204,0,0,0,0,0,0,0,0,0,-1,2022,820,0,0
805,204,0,0,0,0,0,0,0,0,0,-1,2029,820,0,0
812,204,0,0,0,0,0,0,0,0,0,-1,2036,820,0,0
-700,197,0,0,0,0,0,0,0,0,0,-1,524,827,0,0
-693,197,0,0,0,0,0,0,0,0,0,-1,531,827,0,0
-686,197,0,0,0,0,0,0,0,0,0,-1,538,827,0,0
-679,197,0,0,0,0,0,0,0,0,0,-1,545,827,0,0
-672,197,0,0,0,0,0,0,0,0,0,-1,552,827,0,0
-665,197,0,0,0,0,0,0,0,0,0,-1,559,827,0,0
-658,197,-28.2596,6.08923,0,0,0,0,0,0,0,-1,566,827,-28.2596,-6.08923
-651,197,-27.4594,6.21869,0,0,0,0,0,0,0,-1,573,827,-27.4593,-6.21868
-644,197,-26.6991,6.16089,0,0,0,0,0,0,0,-1,580,827,-26.6991,-6.16091
-637,197,-27.0466,7.04468,0,0,0,0,0,0,0,-1,587,827,-27.0466,-7.04469
-630,197,-25.9293,5.70282,0,0,0,0,0,0,0,-1,594,827,-25.9293,-5.70282
-623,197,-25.9045,4.01575,0,0,0,0,0,0,0,-1,601,827,-25.9045,-4.01577
-616,197,-25.9858,3.50708,-0.00740768,0.00953876,-0.00528996,0.0110545,-0.00892341,-1.29174,0.0115561,0.049627,608,827,-25.9858,-3.5071
-609,197,-26.0701,3.03241,-0.00481069,0.00762214,-0.00333303,0.0084593,-0.00564785,-1.32472,0.0081985,0.0331867,615,827,-26.0701,-3.03239
-602,197,-26.1711,2.54932,-0.00284867,0.00605313,-0.00199317,0.00647903,-0.00327458,-1.36028,0.00573166,0.0171027,622,827,-26.1712,-2.54934
-595,197,-26.205,2.07739,-0.00162416,0.00458972,-0.000991549,0.00474411,-0.00177854,-1.41633,0.00389344,0.017189,629,827,-26.205,-2.07741
-588,197,-26.2094,1.53241,-0.00049748,0.00337644,4.21892e-05,0.0033769,-0.00049794,1.55991,0.00243428,0.019449,636,827,-26.2094,-1.53241
-581,197,-26.2295,0.992493,-3.07244e-06,0.00183993,0.000727392,0.00209242,-0.000255566,1.23669,0.00148747,0.011966,643,827,-26.2295,-0.992463
-574,197,-26.234,0.507629,0.000104722,0.000638934,0.00121758,0.00161836,-0.000874704,0.893375,0.00146056,0.0137936,650,827,-26.234,-0.507613
-567,197,-26.1846,-0.00549316,-0.000207436,0.00067495,0.0015526,0.00184782,-0.00138031,0.923831,0.00187027,0.0164881,657,827,-26.1846,0.0055231
-560,197,-26.1578,-0.539368,-0.00122017,0.00122438,0.00164588,0.00205219,-0.00204799,1.10478,0.00236724,0.0248706,664,827,-26.1578,0.539366
-553,197,-26.5181,-0.948364,-0.00251846,0.00175087,0.00165225,0.0023156,-0.00308319,1.24145,0.00312747,0.0253071,671,827,-26.5181,0.948344
-546,197,-26.4542,-1.39545,-0.00369651,0.00231875,0.00164854,0.00274092,-0.00411868,1.3201,0.00398693,0.0403489,678,827,-26.4542,1.39543
-539,197,-26.3967,-1.80011,0,0,0,0,0,0,0,-1,685,827,-26.3967,1.8001
-532,197,-16.0519,0.0410156,0,0,0,0,0,0,0,-1,692,827,-16.0519,-0.0410415
-525,197,-35.3785,2.11829,0,0,0,0,0,0,0,-1,699,827,-35.3785,-2.11826
-518,197,-35.6287,1.65924,-0.00754634,0.00348982,0.00113097,0.00360453,-0.00766105,1.46972,0.00664325,0.0495877,706,827,-35.6287,-1.65921
-511,197,-35.8484,1.21033,-0.00852265,0.00358831,0.000935681,0.00366017,-0.00859452,1.49414,0.00726391,0.0441282,713,827,-35.8485,-1.2103
-504,197,-36.0418,1.10077,-0.00853698,0.00325478,0.00064791,0.00329027,-0.00857248,1.51607,0.00707167,0.0397169,720,827,-36.0418,-1.10075
-497,197,-36.1357,1.16254,-0.00721174,0.00250641,0.000354141,0.00251929,-0.00722463,1.53442,0.00584021,0.0397493,727,827,-36.1357,-1.16252
-490,197,-36.2396,1.00525,-0.00385697,0.00104578,0.000114836,0.00104847,-0.00385966,1.54739,0.00298463,0.0388061,734,827,-36.2396,-1.00527
-483,197,-36.3906,0.558228,0.00348041,-0.0011406,1.78215e-05,0.00348048,-0.00114067,0.00385656,0.00277968,0.0408977,741,827,-36.3906,-0.558213
-476,197,0,0,0,0,0,0,0,0,0,-1,748,827,0,0
-469,197,0,0,0,0,0,0,0,0,0,-1,755,827,0,0
-462,197,0,0,0,0,0,0,0,0,0,-1,762,827,0,0
-455,197,0,0,0,0,0,0,0,0,0,-1,769,827,0,0
-448,197,0,0,0,0,0,0,0,0,0,-1,776,827,0,0
-441,197,0,0,0,0,0,0,0,0,0,-1,783,827,0,0
-434,197,0,0,0,0,0,0,0,0,0,-1,790,827,0,0
-427,197,0,0,0,0,0,0,0,0,0,-1,797,827,0,0
-420,197,0,0,0,0,0,0,0,0,0,-1,804,827,0,0
-413,197,0,0,0,0,0,0,0,0,0,-1,811,827,0,0
-406,197,0,0,0,0,0,0,0,0,0,-1,818,827,0,0
-399,197,0,0,0,0,0,0,0,0,0,-1,825,827,0,0
-392,197,0,0,0,0,0,0,0,0,0,-1,832,827,0,0
-385,197,0,0,0,0,0,0,0,0,0,-1,839,827,0,0
-378,197,0,0,0,0,0,0,0,0,0,-1,846,827,0,0
-371,197,0,0,0,0,0,0,0,0,0,-1,853,827,0,0
-364,197,0,0,0,0,0,0,0,0,0,-1,860,827,0,0
-357,197,0,0,0,0,0,0,0,0,0,-1,867,827,0,0
-350,197,0,0,0,0,0,0,0,0,0,-1,874,827,0,0
-343,197,0,0,0,0,0,0,0,0,0,-1,881,827,0,0
-336,197,0,0,0,0,0,0,0,0,0,-1,888,827,0,0
-329,197,0,0,0,0,0,0,0,0,0,-1,895,827,0,0
-322,197,0,0,0,0,0,0,0,0,0,-1,902,827,0,0
-315,197,0,0,0,0,0,0,0,0,0,-1,909,827,0,0
-308,197,0,0,0,0,0,0,0,0,0,-1,916,827,0,0
-301,197,0,0,0,0,0,0,0,0,0,-1,923,827,0,0
-294,197,0,0,0,0,0,0,0,0,0,-1,930,827,0,0
-287,197,0,0,0,0,0,0,0,0,0,-1,937,827,0,0
-280,197,0,0,0,0,0,0,0,0,0,-1,944,827,0,0
-273,197,0,0,0,0,0,0,0,0,0,-1,951,827,0,0
-266,197,0,0,0,0,0,0,0,0,0,-1,958,827,0,0
-259,197,0,0,0,0,0,0,0,0,0,-1,965,827,0,0
-252,197,0,0,0,0,0,0,0,0,0,-1,972,827,0,0
-245,197,0,0,0,0,0,0,0,0,0,-1,979,827,0,0
-238,197,0,0,0,0,0,0,0,0,0,-1,986,827,0,0
-231,197,0,0,0,0,0,0,0,0,0,-1,993,827,0,0
-224,197,0,0,0,0,0,0,0,0,0,-1,1000,827,0,0
-217,197,0,0,0,0,0,0,0,0,0,-1,1007,827,0,0
-210,197,0,0,0,0,0,0,0,0,0,-1,1014,827,0,0
-203,197,0,0,0,0,0,0,0,0,0,-1,1021,827,0,0
-196,197,0,0,0,0,0,0,0,0,0,-1,1028,827,0,0
-189,197,0,0,0,0,0,0,0,0,0,-1,1035,827,0,0
-182,197,0,0,0,0,0,0,0,0,0,-1,1042,827,0,0
-175,197,0,0,0,0,0,0,0,0,0,-1,1049,827,0,0
-168,197,0,0,0,0,0,0,0,0,0,-1,1056,827,0,0
-161,197,0,0,0,0,0,0,0,0,0,-1,1063,827,0,0
-154,197,0,0,0,0,0,0,0,0,0,-1,1070,827,0,0
-147,197,0,0,0,0,0,0,0,0,0,-1,1077,827,0,0
-140,197,0,0,0,0,0,0,0,0,0,-1,1084,827,0,0
-133,197,0,0,0,0,0,0,0,0,0,-1,1091,827,0,0
-126,197,0,0,0,0,0,0,0,0,0,-1,1098,827,0,0
-119,197,0,0,0,0,0,0,0,0,0,-1,1105,827,0,0
-112,197,0,0,0,0,0,0,0,0,0,-1,1112,827,0,0
-105,197,0,0,0,0,0,0,0,0,0,-1,1119,827,0,0
-98,197,0,0,0,0,0,0,0,0,0,-1,1126,827,0,0
-91,197,0,0,0,0,0,0,0,0,0,-1,1133,827,0,0
-84,197,0,0,0,0,0,0,0,0,0,-1,1140,827,0,0
-77,197,0,0,0,0,0,0,0,0,0,-1,1147,827,0,0
-70,197,0,0,0,0,0,0,0,0,0,-1,1154,827,0,0
-63,197,0,0,0,0,0,0,0,0,0,-1,1161,827,0,0
-56,197,0,0,0,0,0,0,0,0,0,-1,1168,827,0,0
-49,197,0,0,0,0,0,0,0,0,0,-1,1175,827,0,0
-42,197,0,0,0,0,0,0,0,0,0,-1,1182,827,0,0
-35,197,0,0,0,0,0,0,0,0,0,-1,1189,827,0,0
-28,197,0,0,0,0,0,0,0,0,0,-1,1196,827,0,0
-21,197,0,0,0,0,0,0,0,0,0,-1,1203,827,0,0
-14,197,0,0,0,0,0,0,0,0,0,-1,1210,827,0,0
-7,197,0,0,0,0,0,0,0,0,0,-1,1217,827,0,0
0,197,0,0,0,0,0,0,0,0,0,-1,1224,827,0,0
7,197,0,0,0,0,0,0,0,0,0,-1,1231,827,0,0
14,197,0,0,0,0,0,0,0,0,0,-1,1238,827,0,0
21,197,0,0,0,0,0,0,0,0,0,-1,1245,827,0,0
28,197,0,0,0,0,0,0,0,0,0,-1,1252,827,0,0
35,197,0,0,0,0,0,0,0,0,0,-1,1259,827,0,0
42,197,0,0,0,0,0,0,0,0,0,-1,1266,827,0,0
49,197,0,0,0,0,0,0,0,0,0,-1,1273,827,0,0
56,197,0,0,0,0,0,0,0,0,0,-1,1280,827,0,0
63,197,0,0,0,0,0,0,0,0,0,-1,1287,827,0,0
70,197,0,0,0,0,0,0,0,0,0,-1,1294,827,0,0
77,197,0,0,0,0,0,0,0,0,0,-1,1301,827,0,0
84,197,0,0,0,0,0,0,0,0,0,-1,1308,827,0,0
91,197,0,0,0,0,0,0,0,0,0,-1,1315,827,0,0
98,197,0,0,0,0,0,0,0,0,0,-1,1322,827,0,0
105,197,0,0,0,0,0,0,0,0,0,-1,1329,827,0,0
112,197,0,0,0,0,0,0,0,0,0,-1,1336,827,0,0
119,197,0,0,0,0,0,0,0,0,0,-1,1343,827,0,0
126,197,0,0,0,0,0,0,0,0,0,-1,1350,827,0,0
133,197,0,0,0,0,0,0,0,0,0,-1,1357,827,0,0
140,197,0,0,0,0,0,0,0,0,0,-1,1364,827,0,0
147,197,0,0,0,0,0,0,0,0,0,-1,1371,827,0,0
154,197,0,0,0,0,0,0,0,0,0,-1,1378,827,0,0
161,197,0,0,0,0,0,0,0,0,0,-1,1385,827,0,0
168,197,0,0,0,0,0,0,0,0,0,-1,1392,827,0,0
175,197,0,0,0,0,0,0,0,0,0,-1,1399,827,0,0
182,197,0,0,0,0,0,0,0,0,0,-1,1406,827,0,0
189,197,0,0,0,0,0,0,0,0,0,-1,1413,827,0,0
196,197,0,0,0,0,0,0,0,0,0,-1,1420,827,0,0
203,197,0,0,0,0,0,0,0,0,0,-1,1427,827,0,0
210,197,0,0,0,0,0,0,0,0,0,-1,1434,827,0,0
217,197,0,0,0,0,0,0,0,0,0,-1,1441,827,0,0
224,197,0,0,0,0,0,0,0,0,0,-1,1448,827,0,0
231,197,0,0,0,0,0,0,0,0,0,-1,1455,827,0,0
238,197,0,0,0,0,0,0,0,0,0,-1,1462,827,0,0
245,197,0,0,0,0,0,0,0,0,0,-1,1469,827,0,0
252,197,0,0,0,0,0,0,0,0,0,-1,1476,827,0,0
259,197,0,0,0,0,0,0,0,0,0,-1,1483,827,0,0
266,197,0,0,0,0,0,0,0,0,0,-1,1490,827,0,0
273,197,0,0,0,0,0,0,0,0,0,-1,1497,827,0,0
280,197,0,0,0,0,0,0,0,0,0,-1,1504,827,0,0
287,197,0,0,0,0,0,0,0,0,0,-1,1511,827,0,0
294,197,0,0,0,0,0,0,0,0,0,-1,1518,827,0,0
301,197,0,0,0,0,0,0,0,0,0,-1,1525,827,0,0
308,197,0,0,0,0,0,0,0,0,0,-1,1532,827,0,0
315,197,0,0,0,0,0,0,0,0,0,-1,1539,827,0,0
322,197,0,0,0,0,0,0,0,0,0,-1,1546,827,0,0
329,197,0,0,0,0,0,0,0,0,0,-1,1553,827,0,0
336,197,0,0,0,0,0,0,0,0,0,-1,1560,827,0,0
343,197,0,0,0,0,0,0,0,0,0,-1,1567,827,0,0
350,197,0,0,0,0,0,0,0,0,0,-1,1574,827,0,0
357,197,0,0,0,0,0,0,0,0,0,-1,1581,827,0,0
364,197,0,0,0,0,0,0,0,0,0,-1,1588,827,0,0
371,197,0,0,0,0,0,0,0,0,0,-1,1595,827,0,0
378,197,0,0,0,0,0,0,0,0,0,-1,1602,827,0,0
385,197,0,0,0,0,0,0,0,0,0,-1,1609,827,0,0
392,197,0,0,0,0,0,0,0,0,0,-1,1616,827,0,0
399,197,0,0,0,0,0,0,0,0,0,-1,1623,827,0,0
406,197,0,0,0,0,0,0,0,0,0,-1,1630,827,0,0
413,197,0,0,0,0,0,0,0,0,0,-1,1637,827,0,0
420,197,0,0,0,0,0,0,0,0,0,-1,1644,827,0,0
427,197,0,0,0,0,0,0,0,0,0,-1,1651,827,0,0
434,197,0,0,0,0,0,0,0,0,0,-1,1658,827,0,0
441,197,0,0,0,0,0,0,0,0,0,-1,1665,827,0,0
448,197,0,0,0,0,0,0,0,0,0,-1,1672,827,0,0
455,197,0,0,0,0,0,0,0,0,0,-1,1679,827,0,0
462,197,0,0,0,0,0,0,0,0,0,-1,1686,827,0,0
469,197,0,0,0,0,0,0,0,0,0,-1,1693,827,0,0
476,197,0,0,0,0,0,0,0,0,0,-1,1700,827,0,0
483,197,0,0,0,0,0,0,0,0,0,-1,1707,827,0,0
490,197,0,0,0,0,0,0,0,0,0,-1,1714,827,0,0
497,197,0,0,0,0,0,0,0,0,0,-1,1721,827,0,0
504,197,0,0,0,0,0,0,0,0,0,-1,1728,827,0,0
511,197,0,0,0,0,0,0,0,0,0,-1,1735,827,0,0
518,197,0,0,0,0,0,0,0,0,0,-1,1742,827,0,0
525,197,0,0,0,0,0,0,0,0,0,-1,1749,827,0,0
532,197,0,0,0,0,0,0,0,0,0,-1,1756,827,0,0
539,197,0,0,0,0,0,0,0,0,0,-1,1763,827,0,0
546,197,0,0,0,0,0,0,0,0,0,-1,1770,827,0,0
553,197,0,0,0,0,0,0,0,0,0,-1,1777,827,0,0
560,197,0,0,0,0,0,0,0,0,0,-1,1784,827,0,0
567,197,0,0,0,0,0,0,0,0,0,-1,1791,827,0,0
574,197,0,0,0,0,0,0,0,0,0,-1,1798,827,0,0
581,197,0,0,0,0,0,0,0,0,0,-1,1805,827,0,0
588,197,0,0,0,0,0,0,0,0,0,-1,1812,827,0,0
595,197,0,0,0,0,0,0,0,0,0,-1,1819,827,0,0
602,197,48.0704,2.62665,0.00212076,-0.00948263,-0.000872691,0.00218603,-0.00954789,-0.0746503,0.00720534,0.0397517,1826,827,48.0705,-2.62667
609,197,48.1355,2.79773,0.00092671,-0.00619074,0.000349291,0.000943811,-0.00620785,0.0489186,0.00448638,0.0406628,1833,827,48.1354,-2.79773
616,197,48.1497,2.78668,0.000456915,-0.00344522,0.0012217,0.00080785,-0.00379615,0.27972,0.00283863,0.0420299,1840,827,48.1496,-2.7867
623,197,48.0223,2.6532,0.000180141,-0.00200181,0.00143644,0.000892939,-0.00271461,0.460623,0.00216953,0.0372364,1847,827,48.0223,-2.65318
630,197,48.0553,2.70624,-7.8111e-05,-0.00130342,0.00126154,0.000711674,-0.0020932,0.559352,0.0016836,0.0309943,1854,827,48.0553,-2.70622
637,197,48.0547,2.77582,-0.0003488,-0.00121583,0.000800072,0.000127656,-0.00169229,0.537117,0.00117306,0.0267513,1861,827,48.0547,-2.77582
644,197,48.0836,2.80621,-0.000655219,-0.00128562,0.00037498,-0.000480561,-0.00146028,0.435899,0.000859354,0.0313918,1868,827,48.0836,-2.80623
651,197,48.1366,2.9278,0,0,0,0,0,0,0,-1,1875,827,48.1366,-2.92781
658,197,40.4694,3.05927,0,0,0,0,0,0,0,-1,1882,827,40.4694,-3.05926
665,197,14.0618,1.80304,0,0,0,0,0,0,0,-1,1889,827,14.0617,-1.80303
672,197,37.0833,-0.0733032,0,0,0,0,0,0,0,-1,1896,827,37.0833,0.0732821
679,197,37.0027,0.468018,0,0,0,0,0,0,0,-1,1903,827,37.0027,-0.467988
686,197,37.1117,1.41742,-0.00185004,-0.00138798,-0.00175528,0.000151401,-0.00338943,-0.850833,0.00231174,0.0316811,1910,827,37.1117,-1.41742
693,197,37.0436,1.98859,-0.00195308,-0.0010686,-0.0019928,0.000530442,-0.00355211,-0.894588,0.00256325,0.0184728,1917,827,37.0436,-1.98857
700,197,37.0137,2.50464,-0.00161939,-0.000768708,-0.00197037,0.000821701,-0.0032098,-0.891702,0.00245995,0.0211363,1924,827,37.0137,-2.50464
707,197,37.0454,3.06403,-0.000956399,-0.000589793,-0.00160315,0.000840504,-0.0023867,-0.84232,0.00193319,0.00836852,1931,827,37.0454,-3.06404
714,197,37.0165,3.60168,0.000236228,-0.000399417,-0.00139615,0.00135027,-0.00151346,-0.673484,0.00165427,0.0111728,1938,827,37.0165,-3.60169
721,197,36.9989,4.11829,0.00240899,0.000114386,-0.00212593,0.00367744,-0.00115407,-0.537959,0.00291353,0.0125909,1945,827,36.9989,-4.11829
728,197,36.9812,4.65588,0.00525367,0.000120072,-0.00346652,0.00700025,-0.00162651,-0.466716,0.00529297,0.0109516,1952,827,36.9812,-4.65586
735,197,36.95,5.20154,0.00852617,-9.94244e-05,-0.00557086,0.0112586,-0.00283181,-0.456002,0.00860637,0.0115226,1959,827,36.95,-5.20154
742,197,36.9291,5.77289,0.0127881,-0.000541678,-0.0089397,0.0172739,-0.00502753,-0.465079,0.0135074,0.0213627,1966,827,36.9291,-5.77287
749,197,36.9459,6.35809,0.0185324,-0.00129851,-0.0140462,0.0258104,-0.00857645,-0.478055,0.0206677,0.0440146,1973,827,36.9459,-6.35809
756,197,37.0703,6.78168,0.0261715,-0.00232413,-0.021384,0.0376195,-0.0137722,-0.49153,0.0307174,0.044227,1980,827,37.0703,-6.78167
763,197,37.3638,6.58862,0.0360687,-0.00346377,-0.0314678,0.0534634,-0.0208584,-0.504971,0.0442647,0.0454135,1987,827,37.3638,-6.58862
770,197,37.8195,6.42963,0.0482586,-0.00410059,-0.0445558,0.0737568,-0.0295988,-0.519784,0.061461,0.0473564,1994,827,37.8194,-6.4296
777,197,0,0,0,0,0,0,0,0,0,-1,2001,827,0,0
784,197,0,0,0,0,0,0,0,0,0,-1,2008,827,0,0
791,197,0,0,0,0,0,0,0,0,0,-1,2015,827,0,0
798,197,0,0,0,0,0,0,0,0,0,-1,2022,827,0,0
805,197,0,0,0,0,0,0,0,0,0,-1,2029,827,0,0
812,197,0,0,0,0,0,0,0,0,0,-1,2036,827,0,0
-700,190,0,0,0,0,0,0,0,0,0,-1,524,834,0,0
-693,190,0,0,0,0,0,0,0,0,0,-1,531,834,0,0
-686,190,0,0,0,0,0,0,0,0,0,-1,538,834,0,0
-679,190,0,0,0,0,0,0,0,0,0,-1,545,834,0,0
-672,190,0,0,0,0,0,0,0,0,0,-1,552,834,0,0
-665,190,0,0,0,0,0,0,0,0,0,-1,559,834,0,0
-658,190,-29.6046,6.81848,0,0,0,0,0,0,0,-1,566,834,-29.6046,-6.81848
-651,190,-29.3401,5.43561,0,0,0,0,0,0,0,-1,573,834,-29.3401,-5.43559
-644,190,-26.3731,5.34583,0,0,0,0,0,0,0,-1,580,834,-26.3731,-5.3458
-637,190,-25.8989,7.53088,0,0,0,0,0,0,0,-1,587,834,-25.8989,-7.5309
-630,190,-26.0363,6.06085,0,0,0,0,0,0,0,-1,594,834,-26.0362,-6.06085
-623,190,-26.5317,3.96381,0,0,0,0,0,0,0,-1,601,834,-26.5318,-3.9638
-616,190,-26.5738,3.50159,-0.00656603,0.00898626,-0.00381813,0.00987306,-0.00745283,-1.34258,0.0100356,0.0455339,608,834,-26.5738,-3.50157
-609,190,-26.6182,3.0484,-0.00436665,0.00705425,-0.00213551,0.00744049,-0.00475289,-1.39186,0.00709663,0.0245562,615,834,-26.6182,-3.04842
-602,190,-26.697,2.58899,-0.00266442,0.00547567,-0.000978906,0.00559174,-0.00278049,-1.45278,0.0049237,0.015291,622,834,-26.6971,-2.589
-595,190,-26.7298,2.10327,-0.00149732,0.00402142,-0.000113961,0.00402377,-0.00149967,-1.55016,0.00329808,0.0175334,629,834,-26.7298,-2.10326
-588,190,-26.7325,1.55328,-0.000338223,0.00286156,0.000790514,0.0030462,-0.000522866,1.34134,0.00222566,0.0173214,636,834,-26.7326,-1.55331
-581,190,-26.7422,1.02917,0.000211325,0.0014122,0.00130754,0.00225058,-0.000627048,1.00064,0.00174732,0.012789,643,834,-26.7422,-1.02918
-574,190,-26.736,0.50592,0.00042328,0.000412193,0.00161237,0.00203012,-0.00119465,0.783679,0.00188253,0.0121271,650,834,-26.7359,-0.505933
-567,190,-26.6622,-0.0653687,0.000196435,0.000754032,0.0017565,0.00225372,-0.00130325,0.864104,0.00207791,0.0225776,657,834,-26.6622,0.0653411
-560,190,-26.7814,-0.502136,-0.000676369,0.00141101,0.00171072,0.00237128,-0.00163664,1.0593,0.0023269,0.0453026,664,834,-26.7814,0.502158
-553,190,-26.8853,-0.973022,-0.00177065,0.00195367,0.00162274,0.00256152,-0.0023785,1.21239,0.00285277,0.0374577,671,834,-26.8852,0.973013
-546,190,-26.4254,-1.22546,0,0,0,0,0,0,0,-1,678,834,-26.4253,1.22546
-539,190,-16.4624,-0.542542,0,0,0,0,0,0,0,-1,685,834,-16.4624,0.542527
-532,190,-21.6292,2.06122,0,0,0,0,0,0,0,-1,692,834,-21.6292,-2.06123
-525,190,-35.9313,1.09863,0,0,0,0,0,0,0,-1,699,834,-35.9313,-1.09865
-518,190,-35.954,1.06335,-0.00626258,0.00432378,0.000903614,0.00440035,-0.00633916,1.48625,0.00623405,0.0483506,706,834,-35.954,-1.06333
-511,190,-36.0204,0.999817,-0.00722039,0.00462251,0.00065978,0.00465915,-0.00725703,1.51531,0.00693409,0.0439179,713,834,-36.0204,-0.999833
-504,190,-36.2062,1.10248,-0.0070654,0.00447206,0.000342067,0.00448219,-0.00707553,1.54118,0.00672862,0.0444524,720,834,-36.2062,-1.10245
-497,190,-36.1641,1.27148,-0.00536729,0.00382274,5.29891e-05,0.00382305,-0.0053676,1.56503,0.00533114,0.0443592,727,834,-36.1641,-1.27146
-490,190,-36.2157,1.2215,-0.0012477,0.0021291,-0.000104411,0.00213232,-0.00125092,-1.53992,0.00197529,0.0390094,734,834,-36.2157,-1.22148
-483,190,0,0,0,0,0,0,0,0,0,-1,741,834,0,0
-476,190,0,0,0,0,0,0,0,0,0,-1,748,834,0,0
-469,190,0,0,0,0,0,0,0,0,0,-1,755,834,0,0
-462,190,0,0,0,0,0,0,0,0,0,-1,762,834,0,0
-455,190,0,0,0,0,0,0,0,0,0,-1,769,834,0,0
-448,190,0,0,0,0,0,0,0,0,0,-1,776,834,0,0
-441,190,0,0,0,0,0,0,0,0,0,-1,783,834,0,0
-434,190,0,0,0,0,0,0,0,0,0,-1,790,834,0,0
-427,190,0,0,0,0,0,0,0,0,0,-1,797,834,0,0
-420,190,0,0,0,0,0,0,0,0,0,-1,804,834,0,0
-413,190,0,0,0,0,0,0,0,0,0,-1,811,834,0,0
-406,190,0,0,0,0,0,0,0,0,0,-1,818,834,0,0
-399,190,0,0,0,0,0,0,0,0,0,-1,825,834,0,0
-392,190,0,0,0,0,0,0,0,0,0,-1,832,834,0,0
-385,190,0,0,0,0,0,0,0,0,0,-1,839,834,0,0
-378,190,0,0,0,0,0,0,0,0,0,-1,846,834,0,0
-371,190,0,0,0,0,0,0,0,0,0,-1,853,834,0,0
-364,190,0,0,0,0,0,0,0,0,0,-1,860,834,0,0
-357,190,0,0,0,0,0,0,0,0,0,-1,867,834,0,0
-350,190,0,0,0,0,0,0,0,0,0,-1,874,834,0,0
-343,190,0,0,0,0,0,0,0,0,0,-1,881,834,0,0
-336,190,0,0,0,0,0,0,0,0,0,-1,888,834,0,0
-329,190,0,0,0,0,0,0,0,0,0,-1,895,834,0,0
-322,190,0,0,0,0,0,0,0,0,0,-1,902,834,0,0
-315,190,0,0,0,0,0,0,0,0,0,-1,909,834,0,0
-308,190,0,0,0,0,0,0,0,0,0,-1,916,834,0,0
-301,190,0,0,0,0,0,0,0,0,0,-1,923,834,0,0
-294,190,0,0,0,0,0,0,0,0,0,-1,930,834,0,0
-287,190,0,0,0,0,0,0,0,0,0,-1,937,834,0,0
-280,190,0,0,0,0,0,0,0,0,0,-1,944,834,0,0
-273,190,0,0,0,0,0,0,0,0,0,-1,951,834,0,0
-266,190,0,0,0,0,0,0,0,0,0,-1,958,834,0,0
-259,190,0,0,0,0,0,0,0,0,0,-1,965,834,0,0
-252,190,0,0,0,0,0,0,0,0,0,-1,972,834,0,0
-245,190,0,0,0,0,0,0,0,0,0,-1,979,834,0,0
-238,190,0,0,0,0,0,0,0,0,0,-1,986,834,0,0
-231,190,0,0,0,0,0,0,0,0,0,-1,993,834,0,0
-224,190,0,0,0,0,0,0,0,0,0,-1,1000,834,0,0
-217,190,0,0,0,0,0,0,0,0,0,-1,1007,834,0,0
-210,190,0,0,0,0,0,0,0,0,0,-1,1014,834,0,0
-203,190,0,0,0,0,0,0,0,0,0,-1,1021,834,0,0
-196,190,0,0,0,0,0,0,0,0,0,-1,1028,834,0,0
-189,190,0,0,0,0,0,0,0,0,0,-1,1035,834,0,0
-182,190,0,0,0,0,0,0,0,0,0,-1,1042,834,0,0
-175,190,0,0,0,0,0,0,0,0,0,-1,1049,834,0,0
-168,190,0,0,0,0,0,0,0,0,0,-1,1056,834,0,0
-161,190,0,0,0,0,0,0,0,0,0,-1,1063,834,0,0
-154,190,0,0,0,0,0,0,0,0,0,-1,1070,834,0,0
-147,190,0,0,0,0,0,0,0,0,0,-1,1077,834,0,0
-140,190,0,0,0,0,0,0,0,0,0,-1,1084,834,0,0
-133,190,0,0,0,0,0,0,0,0,0,-1,1091,834,0,0
-126,190,0,0,0,0,0,0,0,0,0,-1,1098,834,0,0
-119,190,0,0,0,0,0,0,0,0,0,-1,1105,834,0,0
-112,190,0,0,0,0,0,0,0,0,0,-1,1112,834,0,0
-105,190,0,0,0,0,0,0,0,0,0,-1,1119,834,0,0
-98,190,0,0,0,0,0,0,0,0,0,-1,1126,834,0,0
-91,190,0,0,0,0,0,0,0,0,0,-1,1133,834,0,0
-84,190,0,0,0,0,0,0,0,0,0,-1,1140,834,0,0
-77,190,0,0,0,0,0,0,0,0,0,-1,1147,834,0,0
-70,190,0,0,0,0,0,0,0,0,0,-1,1154,834,0,0
-63,190,0,0,0,0,0,0,0,0,0,-1,1161,834,0,0
-56,190,0,0,0,0,0,0,0,0,0,-1,1168,834,0,0
-49,190,0,0,0,0,0,0,0,0,0,-1,1175,834,0,0
-42,190,0,0,0,0,0,0,0,0,0,-1,1182,834,0,0
-35,190,0,0,0,0,0,0,0,0,0,-1,1189,834,0,0
-28,190,0,0,0,0,0,0,0,0,0,-1,1196,834,0,0
-21,190,0,0,0,0,0,0,0,0,0,-1,1203,834,0,0
-14,190,0,0,0,0,0,0,0,0,0,-1,1210,834,0,0
-7,190,0,0,0,0,0,0,0,0,0,-1,1217,834,0,0
0,190,0,0,0,0,0,0,0,0,0,-1,1224,834,0,0
7,190,0,0,0,0,0,0,0,0,0,-1,1231,834,0,0
14,190,0,0,0,0,0,0,0,0,0,-1,1238,834,0,0
21,190,0,0,0,0,0,0,0,0,0,-1,1245,834,0,0
28,190,0,0,0,0,0,0,0,0,0,-1,1252,834,0,0
35,190,0,0,0,0,0,0,0,0,0,-1,1259,834,0,0
42,190,0,0,0,0,0,0,0,0,0,-1,1266,834,0,0
49,190,0,0,0,0,0,0,0,0,0,-1,1273,834,0,0
56,190,0,0,0,0,0,0,0,0,0,-1,1280,834,0,0
63,190,0,0,0,0,0,0,0,0,0,-1,1287,834,0,0
70,190,0,0,0,0,0,0,0,0,0,-1,1294,834,0,0
77,190,0,0,0,0,0,0,0,0,0,-1,1301,834,0,0
84,190,0,0,0,0,0,0,0,0,0,-1,1308,834,0,0
91,190,0,0,0,0,0,0,0,0,0,-1,1315,834,0,0
98,190,0,0,0,0,0,0,0,0,0,-1,1322,834,0,0
105,190,0,0,0,0,0,0,0,0,0,-1,1329,834,0,0
112,190,0,0,0,0,0,0,0,0,0,-1,1336,834,0,0
119,190,0,0,0,0,0,0,0,0,0,-1,1343,834,0,0
126,190,0,0,0,0,0,0,0,0,0,-1,1350,834,0,0
133,190,0,0,0,0,0,0,0,0,0,-1,1357,834,0,0
140,190,0,0,0,0,0,0,0,0,0,-1,1364,834,0,0
147,190,0,0,0,0,0,0,0,0,0,-1,1371,834,0,0
154,190,0,0,0,0,0,0,0,0,0,-1,1378,834,0,0
161,190,0,0,0,0,0,0,0,0,0,-1,1385,834,0,0
168,190,0,0,0,0,0,0,0,0,0,-1,1392,834,0,0
175,190,0,0,0,0,0,0,0,0,0,-1,1399,834,0,0
182,190,0,0,0,0,0,0,0,0,0,-1,1406,834,0,0
189,190,0,0,0,0,0,0,0,0,0,-1,1413,834,0,0
196,190,0,0,0,0,0,0,0,0,0,-1,1420,834,0,0
203,190,0,0,0,0,0,0,0,0,0,-1,1427,834,0,0
210,190,0,0,0,0,0,0,0,0,0,-1,1434,834,0,0
217,190,0,0,0,0,0,0,0,0,0,-1,1441,834,0,0
224,190,0,0,0,0,0,0,0,0,0,-1,1448,834,0,0
231,190,0,0,0,0,0,0,0,0,0,-1,1455,834,0,0
238,190,0,0,0,0,0,0,0,0,0,-1,1462,834,0,0
245,190,0,0,0,0,0,0,0,0,0,-1,1469,834,0,0
252,190,0,0,0,0,0,0,0,0,0,-1,1476,834,0,0
259,190,0,0,0,0,0,0,0,0,0,-1,1483,834,0,0
266,190,0,0,0,0,0,0,0,0,0,-1,1490,834,0,0
273,190,0,0,0,0,0,0,0,0,0,-1,1497,834,0,0
280,190,0,0,0,0,0,0,0,0,0,-1,1504,834,0,0
287,190,0,0,0,0,0,0,0,0,0,-1,1511,834,0,0
294,190,0,0,0,0,0,0,0,0,0,-1,1518,834,0,0
301,190,0,0,0,0,0,0,0,0,0,-1,1525,834,0,0
308,190,0,0,0,0,0,0,0,0,0,-1,1532,834,0,0
315,190,0,0,0,0,0,0,0,0,0,-1,1539,834,0,0
322,190,0,0,0,0,0,0,0,0,0,-1,1546,834,0,0
329,190,0,0,0,0,0,0,0,0,0,-1,1553,834,0,0
336,190,0,0,0,0,0,0,0,0,0,-1,1560,834,0,0
343,190,0,0,0,0,0,0,0,0,0,-1,1567,834,0,0
350,190,0,0,0,0,0,0,0,0,0,-1,1574,834,0,0
357,190,0,0,0,0,0,0,0,0,0,-1,1581,834,0,0
364,190,0,0,0,0,0,0,0,0,0,-1,1588,834,0,0
371,190,0,0,0,0,0,0,0,0,0,-1,1595,834,0,0
378,190,0,0,0,0,0,0,0,0,0,-1,1602,834,0,0
385,190,0,0,0,0,0,0,0,0,0,-1,1609,834,0,0
392,190,0,0,0,0,0,0,0,0,0,-1,1616,834,0,0
399,190,0,0,0,0,0,0,0,0,0,-1,1623,834,0,0
406,190,0,0,0,0,0,0,0,0,0,-1,1630,834,0,0
413,190,0,0,0,0,0,0,0,0,0,-1,1637,834,0,0
420,190,0,0,0,0,0,0,0,0,0,-1,1644,834,0,0
427,190,0,0,0,0,0,0,0,0,0,-1,1651,834,0,0
434,190,0,0,0,0,0,0,0,0,0,-1,1658,834,0,0
441,190,0,0,0,0,0,0,0,0,0,-1,1665,834,0,0
448,190,0,0,0,0,0,0,0,0,0,-1,1672,834,0,0
455,190,0,0,0,0,0,0,0,0,0,-1,1679,834,0,0
462,190,0,0,0,0,0,0,0,0,0,-1,1686,834,0,0
469,190,0,0,0,0,0,0,0,0,0,-1,1693,834,0,0
476,190,0,0,0,0,0,0,0,0,0,-1,1700,834,0,0
483,190,0,0,0,0,0,0,0,0,0,-1,1707,834,0,0
490,190,0,0,0,0,0,0,0,0,0,-1,1714,834,0,0
497,190,0,0,0,0,0,0,0,0,0,-1,1721,834,0,0
504,190,0,0,0,0,0,0,0,0,0,-1,1728,834,0,0
511,190,0,0,0,0,0,0,0,0,0,-1,1735,834,0,0
518,190,0,0,0,0,0,0,0,0,0,-1,1742,834,0,0
525,190,0,0,0,0,0,0,0,0,0,-1,1749,834,0,0
532,190,0,0,0,0,0,0,0,0,0,-1,1756,834,0,0
539,190,0,0,0,0,0,0,0,0,0,-1,1763,834,0,0
546,190,0,0,0,0,0,0,0,0,0,-1,1770,834,0,0
553,190,0,0,0,0,0,0,0,0,0,-1,1777,834,0,0
560,190,0,0,0,0,0,0,0,0,0,-1,1784,834,0,0
567,190,0,0,0,0,0,0,0,0,0,-1,1791,834,0,0
574,190,0,0,0,0,0,0,0,0,0,-1,1798,834,0,0
581,190,0,0,0,0,0,0,0,0,0,-1,1805,834,0,0
588,190,0,0,0,0,0,0,0,0,0,-1,1812,834,0,0
595,190,0,0,0,0,0,0,0,0,0,-1,1819,834,0,0
602,190,48.113,2.91638,0.0032753,-0.0113893,-0.00116751,0.00336767,-0.0114817,-0.0789512,0.00898978,0.0408,1826,834,48.1131,-2.9164
609,190,48.1483,2.80316,0.00232381,-0.00834576,-2.8476e-05,0.00232389,-0.00834583,-0.00266887,0.00647896,0.0376292,1833,834,48.1483,-2.80313
616,190,48.0569,2.79736,0.00190852,-0.00548321,0.000778511,0.00198962,-0.00556431,0.103804,0.00452111,0.0376825,1840,834,48.0569,-2.79738
623,190,47.8099,2.83447,0.0015167,-0.00355973,0.00113647,0.00175951,-0.00380254,0.210488,0.00328267,0.0388495,1847,834,47.8099,-2.83447
630,190,47.9113,2.62579,0.000995585,-0.00239052,0.00105022,0.00129487,-0.0026898,0.277612,0.00234707,0.038903,1854,834,47.9112,-2.62579
637,190,48.0981,2.65771,0.000445454,-0.00194101,0.000636723,0.000604708,-0.00210027,0.245087,0.00163935,0.0299061,1861,834,48.0982,-2.65771
644,190,48.0364,2.8429,-6.25499e-05,-0.00181078,0.000229399,-3.29497e-05,-0.00184038,0.128325,0.00121608,0.0258352,1868,834,48.0363,-2.84291
651,190,48.0559,2.92059,-0.000460004,-0.00180378,-8.64126e-05,-0.00045447,-0.00180931,-0.0639547,0.00108687,0.0404216,1875,834,48.0559,-2.92057
658,190,48.1118,2.91644,0,0,0,0,0,0,0,-1,1882,834,48.1118,-2.91642
665,190,25.9916,3.05157,0,0,0,0,0,0,0,-1,1889,834,25.9916,-3.05156
672,190,27.2662,1.70862,0,0,0,0,0,0,0,-1,1896,834,27.2662,-1.70861
679,190,37.7012,1.05609,0,0,0,0,0,0,0,-1,1903,834,37.7011,-1.05612
686,190,37.6326,1.53619,-0.00188503,-0.0012288,-0.00171769,0.000191837,-0.00330566,-0.879772,0.00227042,0.0260747,1910,834,37.6326,-1.53621
693,190,37.6487,2.04547,-0.00201885,-0.000929794,-0.00198095,0.00058011,-0.00352875,-0.919526,0.00256781,0.0188727,1917,834,37.6487,-2.04548
700,190,37.5319,2.55072,-0.00184764,-0.000692334,-0.0020236,0.000834447,-0.00337442,-0.924429,0.00257326,0.0134619,1924,834,37.5319,-2.55075
707,190,37.5552,3.08417,-0.00140281,-0.000550214,-0.00172274,0.000798191,-0.00275121,-0.906688,0.00215017,0.0121208,1931,834,37.5552,-3.08418
714,190,37.5587,3.59259,-0.000418255,-0.000304213,-0.00150093,0.00114078,-0.00186325,-0.804384,0.00175101,0.011208,1938,834,37.5587,-3.5926
721,190,37.5325,4.13495,0.00151805,0.000249449,-0.00206661,0.00304551,-0.00127802,-0.636498,0.00256478,0.0110869,1945,834,37.5325,-4.13495
728,190,37.5115,4.66431,0.00413498,0.000401725,-0.003169,0.00594625,-0.00140954,-0.519242,0.00450807,0.0129644,1952,834,37.5115,-4.66431
735,190,37.5039,5.185,0.00718881,0.000386706,-0.00492602,0.00977381,-0.0021983,-0.483263,0.00735892,0.0121981,1959,834,37.5039,-5.18499
742,190,37.4589,5.74512,0.011126,0.000261986,-0.00769576,0.0151138,-0.00372573,-0.478078,0.0115204,0.016345,1966,834,37.4589,-5.74512
749,190,37.4348,6.3526,0.0164095,-5.80986e-05,-0.0118984,0.0226453,-0.00629384,-0.482727,0.0175746,0.0388399,1973,834,37.4348,-6.3526
756,190,37.4321,6.97748,0.0235339,-0.000517744,-0.0179958,0.0331522,-0.0101361,-0.490847,0.0261435,0.0464962,1980,834,37.4321,-6.97747
763,190,38.1322,6.88934,0,0,0,0,0,0,0,-1,1987,834,38.1321,-6.88935
770,190,38.8942,6.40955,0.0444851,-0.000778185,-0.0377872,0.0658996,-0.0221927,-0.515584,0.0529056,0.0480479,1994,834,38.8942,-6.40952
777,190,39.5988,6.67767,0.0597303,0.000386948,-0.0523371,0.0902216,-0.0301043,-0.527523,0.0723027,0.0439373,2001,834,39.5987,-6.67767
784,190,0,0,0,0,0,0,0,0,0,-1,2008,834,0,0
791,190,0,0,0,0,0,0,0,0,0,-1,2015,834,0,0
798,190,0,0,0,0,0,0,0,0,0,-1,2022,834,0,0
805,190,0,0,0,0,0,0,0,0,0,-1,2029,834,0,0
812,190,0,0,0,0,0,0,0,0,0,-1,2036,834,0,0
-700,183,0,0,0,0,0,0,0,0,0,-1,524,841,0,0
-693,183,0,0,0,0,0,0,0,0,0,-1,531,841,0,0
-686,183,0,0,0,0,0,0,0,0,0,-1,538,841,0,0
-679,183,0,0,0,0,0,0,0,0,0,-1,545,841,0,0
-672,183,0,0,0,0,0,0,0,0,0,-1,552,841,0,0
-665,183,0,0,0,0,0,0,0,0,0,-1,559,841,0,0
-658,183,-28.3281,4.81165,0,0,0,0,0,0,0,-1,566,841,-28.3281,-4.81166
-651,183,-26.8482,6.84131,0,0,0,0,0,0,0,-1,573,841,-26.8482,-6.84132
-644,183,-26.9282,5.57538,0,0,0,0,0,0,0,-1,580,841,-26.9282,-5.57536
-637,183,-27.7059,4.76001,0,0,0,0,0,0,0,-1,587,841,-27.7058,-4.76
-630,183,-25.7783,5.25586,0,0,0,0,0,0,0,-1,594,841,-25.7782,-5.25587
-623,183,-27.0136,3.95496,0,0,0,0,0,0,0,-1,601,841,-27.0136,-3.95498
-616,183,-27.0921,3.51013,-0.00556592,0.00877456,-0.00226856,0.00912488,-0.00591623,-1.41759,0.0087496,0.0410456,608,841,-27.0921,-3.51013
-609,183,-27.174,3.0675,-0.00384183,0.00672798,-0.00087201,0.00679944,-0.00391329,-1.48903,0.00625937,0.0175118,615,841,-27.1739,-3.06751
-602,183,-27.2065,2.57031,-0.00246975,0.00506141,7.58858e-05,0.00506217,-0.00247051,1.56072,0.00443397,0.0110581,622,841,-27.2065,-2.57032
-595,183,-27.2294,2.05463,-0.00144338,0.00356729,0.000767865,0.00368232,-0.00155841,1.4221,0.00310746,0.0108484,629,841,-27.2294,-2.05464
-588,183,-27.2275,1.5343,-0.000346631,0.00243398,0.00147948,0.00307389,-0.000986549,1.16257,0.00244537,0.0128333,636,841,-27.2275,-1.53428
-581,183,-27.2603,1.03955,0.000220499,0.00110456,0.00177355,0.00249033,-0.00116527,0.907527,0.00215629,0.0140259,643,841,-27.2603,-1.03954
-574,183,-27.2517,0.544617,0.00051875,0.000314444,0.00186098,0.00228038,-0.00144719,0.75798,0.00216996,0.0145985,650,841,-27.2517,-0.544607
-567,183,-27.079,-0.000244141,0.000396461,0.000788019,0.00184775,0.00245033,-0.00126585,0.838179,0.00218156,0.045135,657,841,-27.079,0.000251606
-560,183,-27.4323,-0.554993,0,0,0,0,0,0,0,-1,664,841,-27.4323,0.554987
-553,183,-27.183,-1.10352,0,0,0,0,0,0,0,-1,671,841,-27.1831,1.10353
-546,183,-26.27,-1.5625,0,0,0,0,0,0,0,-1,678,841,-26.27,1.56248
-539,183,-16.8032,-0.417297,0,0,0,0,0,0,0,-1,685,841,-16.8032,0.41732
-532,183,-29.9686,0.953613,0,0,0,0,0,0,0,-1,692,841,-29.9686,-0.953627
-525,183,-35.9814,0.946106,0,0,0,0,0,0,0,-1,699,841,-35.9815,-0.94612
-518,183,-36.0156,0.978516,-0.0051083,0.00481679,0.000553837,0.0048476,-0.00513911,1.51522,0.00576665,0.0461459,706,841,-36.0155,-0.978515
-511,183,-36.0741,0.942017,-0.00602675,0.00532621,0.000231267,0.00533092,-0.00603146,1.55044,0.00656423,0.041789,713,841,-36.0741,-0.942007
-504,183,-36.136,1.08459,-0.0056773,0.00537647,-0.000146546,0.00537841,-0.00567924,-1.55754,0.00638492,0.0428637,720,841,-36.1361,-1.0846
-497,183,-36.1838,1.14252,-0.00363646,0.00472926,-0.000481068,0.00475684,-0.00366404,-1.51354,0.00487542,0.0427223,727,841,-36.1837,-1.14253
-490,183,-36.0336,1.17957,0.0011305,0.00245538,-0.000625107,0.00270375,0.000882121,-1.19259,0.00159212,0.0395116,734,841,-36.0336,-1.17957
-483,183,0,0,0,0,0,0,0,0,0,-1,741,841,0,0
-476,183,0,0,0,0,0,0,0,0,0,-1,748,841,0,0
-469,183,0,0,0,0,0,0,0,0,0,-1,755,841,0,0
-462,183,0,0,0,0,0,0,0,0,0,-1,762,841,0,0
-455,183,0,0,0,0,0,0,0,0,0,-1,769,841,0,0
-448,183,0,0,0,0,0,0,0,0,0,-1,776,841,0,0
-441,183,0,0,0,0,0,0,0,0,0,-1,783,841,0,0
-434,183,0,0,0,0,0,0,0,0,0,-1,790,841,0,0
-427,183,0,0,0,0,0,0,0,0,0,-1,797,841,0,0
-420,183,0,0,0,0,0,0,0,0,0,-1,804,841,0,0
-413,183,0,0,0,0,0,0,0,0,0,-1,811,841,0,0
-406,183,0,0,0,0,0,0,0,0,0,-1,818,841,0,0
-399,183,0,0,0,0,0,0,0,0,0,-1,825,841,0,0
-392,183,0,0,0,0,0,0,0,0,0,-1,832,841,0,0
-385,183,0,0,0,0,0,0,0,0,0,-1,839,841,0,0
-378,183,0,0,0,0,0,0,0,0,0,-1,846,841,0,0
-371,183,0,0,0,0,0,0,0,0,0,-1,853,841,0,0
-364,183,0,0,0,0,0,0,0,0,0,-1,860,841,0,0
-357,183,0,0,0,0,0,0,0,0,0,-1,867,841,0,0
-350,183,0,0,0,0,0,0,0,0,0,-1,874,841,0,0
-343,183,0,0,0,0,0,0,0,0,0,-1,881,841,0,0
-336,183,0,0,0,0,0,0,0,0,0,-1,888,841,0,0
-329,183,0,0,0,0,0,0,0,0,0,-1,895,841,0,0
-322,183,0,0,0,0,0,0,0,0,0,-1,902,841,0,0
-315,183,0,0,0,0,0,0,0,0,0,-1,909,841,0,0
-308,183,0,0,0,0,0,0,0,0,0,-1,916,841,0,0
-301,183,0,0,0,0,0,0,0,0,0,-1,923,841,0,0
-294,183,0,0,0,0,0,0,0,0,0,-1,930,841,0,0
-287,183,0,0,0,0,0,0,0,0,0,-1,937,841,0,0
-280,183,0,0,0,0,0,0,0,0,0,-1,944,841,0,0
-273,183,0,0,0,0,0,0,0,0,0,-1,951,841,0,0
-266,183,0,0,0,0,0,0,0,0,0,-1,958,841,0,0
-259,183,0,0,0,0,0,0,0,0,0,-1,965,841,0,0
-252,183,0,0,0,0,0,0,0,0,0,-1,972,841,0,0
-245,183,0,0,0,0,0,0,0,0,0,-1,979,841,0,0
-238,183,0,0,0,0,0,0,0,0,0,-1,986,841,0,0
-231,183,0,0,0,0,0,0,0,0,0,-1,993,841,0,0
-224,183,0,0,0,0,0,0,0,0,0,-1,1000,841,0,0
-217,183,0,0,0,0,0,0,0,0,0,-1,1007,841,0,0
-210,183,0,0,0,0,0,0,0,0,0,-1,1014,841,0,0
-203,183,0,0,0,0,0,0,0,0,0,-1,1021,841,0,0
-196,183,0,0,0,0,0,0,0,0,0,-1,1028,841,0,0
-189,183,0,0,0,0,0,0,0,0,0,-1,1035,841,0,0
-182,183,0,0,0,0,0,0,0,0,0,-1,1042,841,0,0
-175,183,0,0,0,0,0,0,0,0,0,-1,1049,841,0,0
-168,183,0,0,0,0,0,0,0,0,0,-1,1056,841,0,0
-161,183,0,0,0,0,0,0,0,0,0,-1,1063,841,0,0
-154,183,0,0,0,0,0,0,0,0,0,-1,1070,841,0,0
-147,183,0,0,0,0,0,0,0,0,0,-1,1077,841,0,0
-140,183,0,0,0,0,0,0,0,0,0,-1,1084,841,0,0
-133,183,0,0,0,0,0,0,0,0,0,-1,1091,841,0,0
-126,183,0,0,0,0,0,0,0,0,0,-1,1098,841,0,0
-119,183,0,0,0,0,0,0,0,0,0,-1,1105,841,0,0
-112,183,0,0,0,0,0,0,0,0,0,-1,1112,841,0,0
-105,183,0,0,0,0,0,0,0,0,0,-1,1119,841,0,0
-98,183,0,0,0,0,0,0,0,0,0,-1,1126,841,0,0
-91,183,0,0,0,0,0,0,0,0,0,-1,1133,841,0,0
-84,183,0,0,0,0,0,0,0,0,0,-1,1140,841,0,0
-77,183,0,0,0,0,0,0,0,0,0,-1,1147,841,0,0
-70,183,0,0,0,0,0,0,0,0,0,-1,1154,841,0,0
-63,183,0,0,0,0,0,0,0,0,0,-1,1161,841,0,0
-56,183,0,0,0,0,0,0,0,0,0,-1,1168,841,0,0
-49,183,0,0,0,0,0,0,0,0,0,-1,1175,841,0,0
-42,183,0,0,0,0,0,0,0,0,0,-1,1182,841,0,0
-35,183,0,0,0,0,0,0,0,0,0,-1,1189,841,0,0
-28,183,0,0,0,0,0,0,0,0,0,-1,1196,841,0,0
-21,183,0,0,0,0,0,0,0,0,0,-1,1203,841,0,0
-14,183,0,0,0,0,0,0,0,0,0,-1,1210,841,0,0
-7,183,0,0,0,0,0,0,0,0,0,-1,1217,841,0,0
0,183,0,0,0,0,0,0,0,0,0,-1,1224,841,0,0
7,183,0,0,0,0,0,0,0,0,0,-1,1231,841,0,0
14,183,0,0,0,0,0,0,0,0,0,-1,1238,841,0,0
21,183,0,0,0,0,0,0,0,0,0,-1,1245,841,0,0
28,183,0,0,0,0,0,0,0,0,0,-1,1252,841,0,0
35,183,0,0,0,0,0,0,0,0,0,-1,1259,841,0,0
42,183,0,0,0,0,0,0,0,0,0,-1,1266,841,0,0
49,183,0,0,0,0,0,0,0,0,0,-1,1273,841,0,0
56,183,0,0,0,0,0,0,0,0,0,-1,1280,841,0,0
63,183,0,0,0,0,0,0,0,0,0,-1,1287,841,0,0
70,183,0,0,0,0,0,0,0,0,0,-1,1294,841,0,0
77,183,0,0,0,0,0,0,0,0,0,-1,1301,841,0,0
84,183,0,0,0,0,0,0,0,0,0,-1,1308,841,0,0
91,183,0,0,0,0,0,0,0,0,0,-1,1315,841,0,0
98,183,0,0,0,0,0,0,0,0,0,-1,1322,841,0,0
105,183,0,0,0,0,0,0,0,0,0,-1,1329,841,0,0
112,183,0,0,0,0,0,0,0,0,0,-1,1336,841,0,0
119,183,0,0,0,0,0,0,0,0,0,-1,1343,841,0,0
126,183,0,0,0,0,0,0,0,0,0,-1,1350,841,0,0
133,183,0,0,0,0,0,0,0,0,0,-1,1357,841,0,0
140,183,0,0,0,0,0,0,0,0,0,-1,1364,841,0,0
147,183,0,0,0,0,0,0,0,0,0,-1,1371,841,0,0
154,183,0,0,0,0,0,0,0,0,0,-1,1378,841,0,0
161,183,0,0,0,0,0,0,0,0,0,-1,1385,841,0,0
168,183,0,0,0,0,0,0,0,0,0,-1,1392,841,0,0
175,183,0,0,0,0,0,0,0,0,0,-1,1399,841,0,0
182,183,0,0,0,0,0,0,0,0,0,-1,1406,841,0,0
189,183,0,0,0,0,0,0,0,0,0,-1,1413,841,0,0
196,183,0,0,0,0,0,0,0,0,0,-1,1420,841,0,0
203,183,0,0,0,0,0,0,0,0,0,-1,1427,841,0,0
210,183,0,0,0,0,0,0,0,0,0,-1,1434,841,0,0
217,183,0,0,0,0,0,0,0,0,0,-1,1441,841,0,0
224,183,0,0,0,0,0,0,0,0,0,-1,1448,841,0,0
231,183,0,0,0,0,0,0,0,0,0,-1,1455,841,0,0
238,183,0,0,0,0,0,0,0,0,0,-1,1462,841,0,0
245,183,0,0,0,0,0,0,0,0,0,-1,1469,841,0,0
252,183,0,0,0,0,0,0,0,0,0,-1,1476,841,0,0
259,183,0,0,0,0,0,0,0,0,0,-1,1483,841,0,0
266,183,0,0,0,0,0,0,0,0,0,-1,1490,841,0,0
273,183,0,0,0,0,0,0,0,0,0,-1,1497,841,0,0
280,183,0,0,0,0,0,0,0,0,0,-1,1504,841,0,0
287,183,0,0,0,0,0,0,0,0,0,-1,1511,841,0,0
294,183,0,0,0,0,0,0,0,0,0,-1,1518,841,0,0
301,183,0,0,0,0,0,0,0,0,0,-1,1525,841,0,0
308,183,0,0,0,0,0,0,0,0,0,-1,1532,841,0,0
315,183,0,0,0,0,0,0,0,0,0,-1,1539,841,0,0
322,183,0,0,0,0,0,0,0,0,0,-1,1546,841,0,0
329,183,0,0,0,0,0,0,0,0,0,-1,1553,841,0,0
336,183,0,0,0,0,0,0,0,0,0,-1,1560,841,0,0
343,183,0,0,0,0,0,0,0,0,0,-1,1567,841,0,0
350,183,0,0,0,0,0,0,0,0,0,-1,1574,841,0,0
357,183,0,0,0,0,0,0,0,0,0,-1,1581,841,0,0
364,183,0,0,0,0,0,0,0,0,0,-1,1588,841,0,0
371,183,0,0,0,0,0,0,0,0,0,-1,1595,841,0,0
378,183,0,0,0,0,0,0,0,0,0,-1,1602,841,0,0
385,183,0,0,0,0,0,0,0,0,0,-1,1609,841,0,0
392,183,0,0,0,0,0,0,0,0,0,-1,1616,841,0,0
399,183,0,0,0,0,0,0,0,0,0,-1,1623,841,0,0
406,183,0,0,0,0,0,0,0,0,0,-1,1630,841,0,0
413,183,0,0,0,0,0,0,0,0,0,-1,1637,841,0,0
420,183,0,0,0,0,0,0,0,0,0,-1,1644,841,0,0
427,183,0,0,0,0,0,0,0,0,0,-1,1651,841,0,0
434,183,0,0,0,0,0,0,0,0,0,-1,1658,841,0,0
441,183,0,0,0,0,0,0,0,0,0,-1,1665,841,0,0
448,183,0,0,0,0,0,0,0,0,0,-1,1672,841,0,0
455,183,0,0,0,0,0,0,0,0,0,-1,1679,841,0,0
462,183,0,0,0,0,0,0,0,0,0,-1,1686,841,0,0
469,183,0,0,0,0,0,0,0,0,0,-1,1693,841,0,0
476,183,0,0,0,0,0,0,0,0,0,-1,1700,841,0,0
483,183,0,0,0,0,0,0,0,0,0,-1,1707,841,0,0
490,183,0,0,0,0,0,0,0,0,0,-1,1714,841,0,0
497,183,0,0,0,0,0,0,0,0,0,-1,1721,841,0,0
504,183,0,0,0,0,0,0,0,0,0,-1,1728,841,0,0
511,183,0,0,0,0,0,0,0,0,0,-1,1735,841,0,0
518,183,0,0,0,0,0,0,0,0,0,-1,1742,841,0,0
525,183,0,0,0,0,0,0,0,0,0,-1,1749,841,0,0
532,183,0,0,0,0,0,0,0,0,0,-1,1756,841,0,0
539,183,0,0,0,0,0,0,0,0,0,-1,1763,841,0,0
546,183,0,0,0,0,0,0,0,0,0,-1,1770,841,0,0
553,183,0,0,0,0,0,0,0,0,0,-1,1777,841,0,0
560,183,0,0,0,0,0,0,0,0,0,-1,1784,841,0,0
567,183,0,0,0,0,0,0,0,0,0,-1,1791,841,0,0
574,183,0,0,0,0,0,0,0,0,0,-1,1798,841,0,0
581,183,0,0,0,0,0,0,0,0,0,-1,1805,841,0,0
588,183,0,0,0,0,0,0,0,0,0,-1,1812,841,0,0
595,183,0,0,0,0,0,0,0,0,0,-1,1819,841,0,0
602,183,0,0,0,0,0,0,0,0,0,-1,1826,841,0,0
609,183,47.9673,3.12592,0.00311744,-0.0102829,-0.000914453,0.00317956,-0.010345,-0.0678222,0.00816552,0.039,1833,841,47.9673,-3.12592
616,183,47.9744,2.84686,0.00258343,-0.00745494,6.24057e-05,0.00258382,-0.00745533,0.0062164,0.00601927,0.0387692,1840,841,47.9744,-2.84685
623,183,47.803,2.78339,0.00206199,-0.00519143,0.000718281,0.00213243,-0.00526187,0.0977615,0.0043947,0.0444899,1847,841,47.803,-2.78338
630,183,47.9386,2.75946,0.00140886,-0.00356525,0.000824753,0.00154205,-0.00369843,0.160103,0.0031098,0.0398042,1854,841,47.9385,-2.75946
637,183,48.0677,2.78674,0.00071462,-0.00265777,0.00051396,0.00079121,-0.00273436,0.147929,0.00213606,0.0323587,1861,841,48.0677,-2.78674
644,183,47.9777,2.87732,0.000116495,-0.00226166,0.000120313,0.000122566,-0.00226773,0.0504194,0.00155429,0.0279785,1868,841,47.9777,-2.87735
651,183,47.9954,2.88684,-0.000320392,-0.00209511,-0.000207018,-0.000296564,-0.00211894,-0.114598,0.00132488,0.0253186,1875,841,47.9954,-2.88686
658,183,48.1184,2.68665,0,0,0,0,0,0,0,-1,1882,841,48.1184,-2.68664
665,183,38.4337,2.66992,0,0,0,0,0,0,0,-1,1889,841,38.4337,-2.6699
672,183,29.168,1.54572,0,0,0,0,0,0,0,-1,1896,841,29.168,-1.54574
679,183,38.3309,1.14526,0,0,0,0,0,0,0,-1,1903,841,38.3309,-1.14528
686,183,38.2736,1.5827,-0.00177857,-0.00110066,-0.00169345,0.000287425,-0.00316665,-0.884172,0.00221314,0.0283725,1910,841,38.2735,-1.58273
693,183,38.2517,2.04382,-0.00189202,-0.00077408,-0.0019825,0.00072674,-0.00339284,-0.922807,0.00253905,0.0246425,1917,841,38.2517,-2.04383
700,183,38.1438,2.59143,-0.0017817,-0.000607442,-0.00207857,0.000965326,-0.00335447,-0.923046,0.0026181,0.0228811,1924,841,38.1437,-2.59141
707,183,38.0792,3.11664,-0.00148809,-0.000532473,-0.00182579,0.000876994,-0.00289756,-0.913378,0.00228095,0.0118403,1931,841,38.0792,-3.11663
714,183,38.0845,3.61169,-0.000715402,-0.000259228,-0.00158361,0.00111263,-0.00208726,-0.856922,0.00187581,0.0147609,1938,841,38.0845,-3.61168
721,183,38.0962,4.13031,0.000901392,0.000322972,-0.00195465,0.00258811,-0.00136374,-0.711951,0.00231782,0.0143797,1945,841,38.0962,-4.1303
728,183,38.0631,4.67096,0.00317324,0.000633696,-0.00276733,0.0049482,-0.00114127,-0.570306,0.00373776,0.0130217,1952,841,38.0631,-4.67095
735,183,38.0402,5.19647,0.00590675,0.000860166,-0.00412177,0.00821627,-0.00144935,-0.510732,0.00601907,0.0119022,1959,841,38.0402,-5.19646
742,183,38.0071,5.73523,0.00944135,0.00108474,-0.0062716,0.012799,-0.00227295,-0.491549,0.00938257,0.0106857,1966,841,38.0071,-5.7352
749,183,37.9536,6.2959,0.0141789,0.001237,-0.00957319,0.019263,-0.00384711,-0.4882,0.0142979,0.0300711,1973,841,37.9537,-6.29591
756,183,37.9744,6.97247,0.0206271,0.001387,-0.014423,0.028344,-0.00632985,-0.491283,0.0213215,0.0473266,1980,841,37.9744,-6.97248
763,183,38.1265,7.6535,0,0,0,0,0,0,0,-1,1987,841,38.1265,-7.65348
770,183,40.073,6.66895,0,0,0,0,0,0,0,-1,1994,841,40.073,-6.66896
777,183,40.8909,6.89099,0,0,0,0,0,0,0,-1,2001,841,40.8909,-6.89096
784,183,0,0,0,0,0,0,0,0,0,-1,2008,841,0,0
791,183,0,0,0,0,0,0,0,0,0,-1,2015,841,0,0
798,183,0,0,0,0,0,0,0,0,0,-1,2022,841,0,0
805,183,0,0,0,0,0,0,0,0,0,-1,2029,841,0,0
812,183,0,0,0,0,0,0,0,0,0,-1,2036,841,0,0
-700,176,0,0,0,0,0,0,0,0,0,-1,524,848,0,0
-693,176,0,0,0,0,0,0,0,0,0,-1,531,848,0,0
-686,176,0,0,0,0,0,0,0,0,0,-1,538,848,0,0
-679,176,0,0,0,0,0,0,0,0,0,-1,545,848,0,0
-672,176,0,0,0,0,0,0,0,0,0,-1,552,848,0,0
-665,176,-27.5441,1.32941,0,0,0,0,0,0,0,-1,559,848,-27.5441,-1.32942
-658,176,-27.4673,1.63702,0,0,0,0,0,0,0,-1,566,848,-27.4673,-1.63702
-651,176,-27.2053,7.06696,0,0,0,0,0,0,0,-1,573,848,-27.2052,-7.06693
-644,176,-27.428,5.78601,-0.0203978,0.0166983,-0.0136147,0.0211588,-0.0248582,-1.2542,0.0265965,0.0447286,580,848,-27.4281,-5.786
-637,176,-27.9769,4.73804,-0.0133409,0.0153166,-0.00852378,0.0176602,-0.0156845,-1.30248,0.0192628,0.0474097,587,848,-27.9769,-4.73805
-630,176,-27.8979,4.67224,0,0,0,0,0,0,0,-1,594,848,-27.8979,-4.67224
-623,176,-27.8043,4.12054,0,0,0,0,0,0,0,-1,601,848,-27.8042,-4.12056
-616,176,-27.7188,3.5921,-0.00471837,0.00867028,-0.000879864,0.00872785,-0.00477594,-1.50545,0.00790693,0.0287752,608,848,-27.7188,-3.59208
-609,176,-27.716,3.07471,-0.00336708,0.0064325,0.000198798,0.00643653,-0.00337111,1.55052,0.0057539,0.0118871,615,848,-27.716,-3.07469
-602,176,-27.7292,2.56342,-0.00224999,0.004636,0.000913183,0.00475505,-0.00236904,1.44117,0.00418928,0.0119335,622,848,-27.7292,-2.56343
-595,176,-27.7548,2.04559,-0.00132464,0.00310124,0.00140947,0.00351199,-0.00173538,1.28723,0.00308691,0.0113838,629,848,-27.7548,-2.0456
-588,176,-27.7432,1.54742,-0.000270186,0.00199917,0.00190607,0.00308273,-0.00135375,1.05388,0.00262544,0.0133105,636,848,-27.7431,-1.54744
-581,176,-27.7741,1.08374,0.000351053,0.000834477,0.00200965,0.0026169,-0.00143137,0.845248,0.00237044,0.012987,643,848,-27.7741,-1.08373
-574,176,-27.8121,0.580688,0.000703312,0.000212558,0.00195859,0.00243184,-0.00151597,0.723082,0.00229962,0.0209536,650,848,-27.8121,-0.580702
-567,176,-27.6313,0.223938,0,0,0,0,0,0,0,-1,657,848,-27.6314,-0.223916
-560,176,-27.8022,-0.408264,0,0,0,0,0,0,0,-1,664,848,-27.8022,0.408251
-553,176,-27.3114,-1.09894,0,0,0,0,0,0,0,-1,671,848,-27.3114,1.09894
-546,176,-16.657,-0.403198,0,0,0,0,0,0,0,-1,678,848,-16.657,0.403182
-539,176,-22.7061,1.48657,0,0,0,0,0,0,0,-1,685,848,-22.7061,-1.48657
-532,176,-35.4542,1.00909,0,0,0,0,0,0,0,-1,692,848,-35.4542,-1.00911
-525,176,-36.0414,0.840515,0,0,0,0,0,0,0,-1,699,848,-36.0414,-0.840512
-518,176,-36.0862,0.864441,-0.00364913,0.00451325,0.000446483,0.0045376,-0.00367348,1.51631,0.00474941,0.0438702,706,848,-36.0862,-0.86446
-511,176,-36.1724,0.853882,-0.00435459,0.00507898,0.000109488,0.00508025,-0.00435586,1.55919,0.00545329,0.0403083,713,848,-36.1724,-0.853896
-504,176,-36.176,0.91272,-0.00360334,0.00525653,-0.000250149,0.00526359,-0.0036104,-1.54259,0.00515295,0.0390136,720,848,-36.1761,-0.91271
-497,176,-36.2585,1.00922,-0.00114694,0.00467407,-0.000578858,0.00473108,-0.00120394,-1.47263,0.00362268,0.0399911,727,848,-36.2585,-1.00923
-490,176,-36.0095,1.26343,0.00397401,0.00234508,-0.000736941,0.00425793,0.00206117,-0.367735,0.00245873,0.0379351,734,848,-36.0095,-1.2634
-483,176,0,0,0,0,0,0,0,0,0,-1,741,848,0,0
-476,176,0,0,0,0,0,0,0,0,0,-1,748,848,0,0
-469,176,0,0,0,0,0,0,0,0,0,-1,755,848,0,0
-462,176,0,0,0,0,0,0,0,0,0,-1,762,848,0,0
-455,176,0,0,0,0,0,0,0,0,0,-1,769,848,0,0
-448,176,0,0,0,0,0,0,0,0,0,-1,776,848,0,0
-441,176,0,0,0,0,0,0,0,0,0,-1,783,848,0,0
-434,176,0,0,0,0,0,0,0,0,0,-1,790,848,0,0
-427,176,0,0,0,0,0,0,0,0,0,-1,797,848,0,0
-420,176,0,0,0,0,0,0,0,0,0,-1,804,848,0,0
-413,176,0,0,0,0,0,0,0,0,0,-1,811,848,0,0
-406,176,0,0,0,0,0,0,0,0,0,-1,818,848,0,0
-399,176,0,0,0,0,0,0,0,0,0,-1,825,848,0,0
-392,176,0,0,0,0,0,0,0,0,0,-1,832,848,0,0
-385,176,0,0,0,0,0,0,0,0,0,-1,839,848,0,0
-378,176,0,0,0,0,0,0,0,0,0,-1,846,848,0,0
-371,176,0,0,0,0,0,0,0,0,0,-1,853,848,0,0
-364,176,0,0,0,0,0,0,0,0,0,-1,860,848,0,0
-357,176,0,0,0,0,0,0,0,0,0,-1,867,848,0,0
-350,176,0,0,0,0,0,0,0,0,0,-1,874,848,0,0
-343,176,0,0,0,0,0,0,0,0,0,-1,881,848,0,0
-336,176,0,0,0,0,0,0,0,0,0,-1,888,848,0,0
-329,176,0,0,0,0,0,0,0,0,0,-1,895,848,0,0
-322,176,0,0,0,0,0,0,0,0,0,-1,902,848,0,0
-315,176,0,0,0,0,0,0,0,0,0,-1,909,848,0,0
-308,176,0,0,0,0,0,0,0,0,0,-1,916,848,0,0
-301,176,0,0,0,0,0,0,0,0,0,-1,923,848,0,0
-294,176,0,0,0,0,0,0,0,0,0,-1,930,848,0,0
-287,176,0,0,0,0,0,0,0,0,0,-1,937,848,0,0
-280,176,0,0,0,0,0,0,0,0,0,-1,944,848,0,0
-273,176,0,0,0,0,0,0,0,0,0,-1,951,848,0,0
-266,176,0,0,0,0,0,0,0,0,0,-1,958,848,0,0
-259,176,0,0,0,0,0,0,0,0,0,-1,965,848,0,0
-252,176,0,0,0,0,0,0,0,0,0,-1,972,848,0,0
-245,176,0,0,0,0,0,0,0,0,0,-1,979,848,0,0
-238,176,0,0,0,0,0,0,0,0,0,-1,986,848,0,0
-231,176,0,0,0,0,0,0,0,0,0,-1,993,848,0,0
-224,176,0,0,0,0,0,0,0,0,0,-1,1000,848,0,0
-217,176,0,0,0,0,0,0,0,0,0,-1,1007,848,0,0
-210,176,0,0,0,0,0,0,0,0,0,-1,1014,848,0,0
-203,176,0,0,0,0,0,0,0,0,0,-1,1021,848,0,0
-196,176,0,0,0,0,0,0,0,0,0,-1,1028,848,0,0
-189,176,0,0,0,0,0,0,0,0,0,-1,1035,848,0,0
-182,176,0,0,0,0,0,0,0,0,0,-1,1042,848,0,0
-175,176,0,0,0,0,0,0,0,0,0,-1,1049,848,0,0
-168,176,0,0,0,0,0,0,0,0,0,-1,1056,848,0,0
-161,176,0,0,0,0,0,0,0,0,0,-1,1063,848,0,0
-154,176,0,0,0,0,0,0,0,0,0,-1,1070,848,0,0
-147,176,0,0,0,0,0,0,0,0,0,-1,1077,848,0,0
-140,176,0,0,0,0,0,0,0,0,0,-1,1084,848,0,0
-133,176,0,0,0,0,0,0,0,0,0,-1,1091,848,0,0
-126,176,0,0,0,0,0,0,0,0,0,-1,1098,848,0,0
-119,176,0,0,0,0,0,0,0,0,0,-1,1105,848,0,0
-112,176,0,0,0,0,0,0,0,0,0,-1,1112,848,0,0
-105,176,0,0,0,0,0,0,0,0,0,-1,1119,848,0,0
-98,176,0,0,0,0,0,0,0,0,0,-1,1126,848,0,0
-91,176,0,0,0,0,0,0,0,0,0,-1,1133,848,0,0
-84,176,0,0,0,0,0,0,0,0,0,-1,1140,848,0,0
-77,176,0,0,0,0,0,0,0,0,0,-1,1147,848,0,0
-70,176,0,0,0,0,0,0,0,0,0,-1,1154,848,0,0
-63,176,0,0,0,0,0,0,0,0,0,-1,1161,848,0,0
-56,176,0,0,0,0,0,0,0,0,0,-1,1168,848,0,0
-49,176,0,0,0,0,0,0,0,0,0,-1,1175,848,0,0
-42,176,0,0,0,0,0,0,0,0,0,-1,1182,848,0,0
-35,176,0,0,0,0,0,0,0,0,0,-1,1189,848,0,0
-28,176,0,0,0,0,0,0,0,0,0,-1,1196,848,0,0
-21,176,0,0,0,0,0,0,0,0,0,-1,1203,848,0,0
-14,176,0,0,0,0,0,0,0,0,0,-1,1210,848,0,0
-7,176,0,0,0,0,0,0,0,0,0,-1,1217,848,0,0
0,176,0,0,0,0,0,0,0,0,0,-1,1224,848,0,0
7,176,0,0,0,0,0,0,0,0,0,-1,1231,848,0,0
14,176,0,0,0,0,0,0,0,0,0,-1,1238,848,0,0
21,176,0,0,0,0,0,0,0,0,0,-1,1245,848,0,0
28,176,0,0,0,0,0,0,0,0,0,-1,1252,848,0,0
35,176,0,0,0,0,0,0,0,0,0,-1,1259,848,0,0
42,176,0,0,0,0,0,0,0,0,0,-1,1266,848,0,0
49,176,0,0,0,0,0,0,0,0,0,-1,1273,848,0,0
56,176,0,0,0,0,0,0,0,0,0,-1,1280,848,0,0
63,176,0,0,0,0,0,0,0,0,0,-1,1287,848,0,0
70,176,0,0,0,0,0,0,0,0,0,-1,1294,848,0,0
77,176,0,0,0,0,0,0,0,0,0,-1,1301,848,0,0
84,176,0,0,0,0,0,0,0,0,0,-1,1308,848,0,0
91,176,0,0,0,0,0,0,0,0,0,-1,1315,848,0,0
98,176,0,0,0,0,0,0,0,0,0,-1,1322,848,0,0
105,176,0,0,0,0,0,0,0,0,0,-1,1329,848,0,0
112,176,0,0,0,0,0,0,0,0,0,-1,1336,848,0,0
119,176,0,0,0,0,0,0,0,0,0,-1,1343,848,0,0
126,176,0,0,0,0,0,0,0,0,0,-1,1350,848,0,0
133,176,0,0,0,0,0,0,0,0,0,-1,1357,848,0,0
140,176,0,0,0,0,0,0,0,0,0,-1,1364,848,0,0
147,176,0,0,0,0,0,0,0,0,0,-1,1371,848,0,0
154,176,0,0,0,0,0,0,0,0,0,-1,1378,848,0,0
161,176,0,0,0,0,0,0,0,0,0,-1,1385,848,0,0
168,176,0,0,0,0,0,0,0,0,0,-1,1392,848,0,0
175,176,0,0,0,0,0,0,0,0,0,-1,1399,848,0,0
182,176,0,0,0,0,0,0,0,0,0,-1,1406,848,0,0
189,176,0,0,0,0,0,0,0,0,0,-1,1413,848,0,0
196,176,0,0,0,0,0,0,0,0,0,-1,1420,848,0,0
203,176,0,0,0,0,0,0,0,0,0,-1,1427,848,0,0
210,176,0,0,0,0,0,0,0,0,0,-1,1434,848,0,0
217,176,0,0,0,0,0,0,0,0,0,-1,1441,848,0,0
224,176,0,0,0,0,0,0,0,0,0,-1,1448,848,0,0
231,176,0,0,0,0,0,0,0,0,0,-1,1455,848,0,0
238,176,0,0,0,0,0,0,0,0,0,-1,1462,848,0,0
245,176,0,0,0,0,0,0,0,0,0,-1,1469,848,0,0
252,176,0,0,0,0,0,0,0,0,0,-1,1476,848,0,0
259,176,0,0,0,0,0,0,0,0,0,-1,1483,848,0,0
266,176,0,0,0,0,0,0,0,0,0,-1,1490,848,0,0
273,176,0,0,0,0,0,0,0,0,0,-1,1497,848,0,0
280,176,0,0,0,0,0,0,0,0,0,-1,1504,848,0,0
287,176,0,0,0,0,0,0,0,0,0,-1,1511,848,0,0
294,176,0,0,0,0,0,0,0,0,0,-1,1518,848,0,0
301,176,0,0,0,0,0,0,0,0,0,-1,1525,848,0,0
308,176,0,0,0,0,0,0,0,0,0,-1,1532,848,0,0
315,176,0,0,0,0,0,0,0,0,0,-1,1539,848,0,0
322,176,0,0,0,0,0,0,0,0,0,-1,1546,848,0,0
329,176,0,0,0,0,0,0,0,0,0,-1,1553,848,0,0
336,176,0,0,0,0,0,0,0,0,0,-1,1560,848,0,0
343,176,0,0,0,0,0,0,0,0,0,-1,1567,848,0,0
350,176,0,0,0,0,0,0,0,0,0,-1,1574,848,0,0
357,176,0,0,0,0,0,0,0,0,0,-1,1581,848,0,0
364,176,0,0,0,0,0,0,0,0,0,-1,1588,848,0,0
371,176,0,0,0,0,0,0,0,0,0,-1,1595,848,0,0
378,176,0,0,0,0,0,0,0,0,0,-1,1602,848,0,0
385,176,0,0,0,0,0,0,0,0,0,-1,1609,848,0,0
392,176,0,0,0,0,0,0,0,0,0,-1,1616,848,0,0
399,176,0,0,0,0,0,0,0,0,0,-1,1623,848,0,0
406,176,0,0,0,0,0,0,0,0,0,-1,1630,848,0,0
413,176,0,0,0,0,0,0,0,0,0,-1,1637,848,0,0
420,176,0,0,0,0,0,0,0,0,0,-1,1644,848,0,0
427,176,0,0,0,0,0,0,0,0,0,-1,1651,848,0,0
434,176,0,0,0,0,0,0,0,0,0,-1,1658,848,0,0
441,176,0,0,0,0,0,0,0,0,0,-1,1665,848,0,0
448,176,0,0,0,0,0,0,0,0,0,-1,1672,848,0,0
455,176,0,0,0,0,0,0,0,0,0,-1,1679,848,0,0
462,176,0,0,0,0,0,0,0,0,0,-1,1686,848,0,0
469,176,0,0,0,0,0,0,0,0,0,-1,1693,848,0,0
476,176,0,0,0,0,0,0,0,0,0,-1,1700,848,0,0
483,176,0,0,0,0,0,0,0,0,0,-1,1707,848,0,0
490,176,0,0,0,0,0,0,0,0,0,-1,1714,848,0,0
497,176,0,0,0,0,0,0,0,0,0,-1,1721,848,0,0
504,176,0,0,0,0,0,0,0,0,0,-1,1728,848,0,0
511,176,0,0,0,0,0,0,0,0,0,-1,1735,848,0,0
518,176,0,0,0,0,0,0,0,0,0,-1,1742,848,0,0
525,176,0,0,0,0,0,0,0,0,0,-1,1749,848,0,0
532,176,0,0,0,0,0,0,0,0,0,-1,1756,848,0,0
539,176,0,0,0,0,0,0,0,0,0,-1,1763,848,0,0
546,176,0,0,0,0,0,0,0,0,0,-1,1770,848,0,0
553,176,0,0,0,0,0,0,0,0,0,-1,1777,848,0,0
560,176,0,0,0,0,0,0,0,0,0,-1,1784,848,0,0
567,176,0,0,0,0,0,0,0,0,0,-1,1791,848,0,0
574,176,0,0,0,0,0,0,0,0,0,-1,1798,848,0,0
581,176,0,0,0,0,0,0,0,0,0,-1,1805,848,0,0
588,176,0,0,0,0,0,0,0,0,0,-1,1812,848,0,0
595,176,0,0,0,0,0,0,0,0,0,-1,1819,848,0,0
602,176,0,0,0,0,0,0,0,0,0,-1,1826,848,0,0
609,176,47.9159,3.06622,0,0,0,0,0,0,0,-1,1833,848,47.9159,-3.0662
616,176,48.3125,2.16498,0,0,0,0,0,0,0,-1,1840,848,48.3125,-2.16499
623,176,48.3606,2.01038,0,0,0,0,0,0,0,-1,1847,848,48.3605,-2.01035
630,176,48.1981,2.62598,0.0021607,-0.00501844,0.000636621,0.00221672,-0.00507445,0.087764,0.00431599,0.0396806,1854,848,48.1982,-2.62595
637,176,48.1201,2.88715,0.0013882,-0.00360128,0.000480974,0.00143414,-0.00364722,0.0952291,0.00302505,0.0318965,1861,848,48.1201,-2.88718
644,176,47.9673,2.94403,0.000686056,-0.00285316,0.0001425,0.000691784,-0.00285889,0.0401765,0.00217353,0.0313811,1868,848,47.9672,-2.94402
651,176,47.9554,2.94537,0.000167987,-0.0024728,-0.000169886,0.000178871,-0.00248368,-0.06398,0.00171852,0.0316221,1875,848,47.9555,-2.9454
658,176,48.0664,2.79547,-0.000300231,-0.00220267,-0.000590276,-0.000131967,-0.00237094,-0.277694,0.00153852,0.0389663,1882,848,48.0664,-2.7955
665,176,48.1677,2.58008,0,0,0,0,0,0,0,-1,1889,848,48.1678,-2.58005
672,176,16.9304,2.80719,0,0,0,0,0,0,0,-1,1896,848,16.9305,-2.80719
679,176,39.111,1.06982,0,0,0,0,0,0,0,-1,1903,848,39.111,-1.06984
686,176,38.9854,1.64893,-0.00152006,-0.00113034,-0.00154902,0.00023603,-0.00288642,-0.847968,0.00200759,0.040807,1910,848,38.9853,-1.64893
693,176,38.8268,2.17139,-0.00162405,-0.000782219,-0.0018533,0.000697359,-0.00310363,-0.897063,0.00233649,0.0221691,1917,848,38.8267,-2.17139
700,176,38.6934,2.70416,-0.00156231,-0.000663003,-0.00197087,0.000908861,-0.00313417,-0.897553,0.00244927,0.0250083,1924,848,38.6934,-2.70419
707,176,38.6801,3.19098,-0.0013668,-0.000634204,-0.00175636,0.000793651,-0.00279465,-0.888202,0.00217643,0.0145626,1931,848,38.68,-3.19099
714,176,38.6459,3.64722,-0.00079117,-0.000330828,-0.00152364,0.00097993,-0.00210193,-0.860364,0.00181819,0.0112093,1938,848,38.6459,-3.64719
721,176,38.6254,4.14166,0.000487028,0.000284641,-0.00173035,0.00211914,-0.00134747,-0.756191,0.00201791,0.0119649,1945,848,38.6254,-4.14165
728,176,38.5891,4.69055,0.00235936,0.000760192,-0.00225523,0.00395256,-0.000833002,-0.615038,0.00295214,0.0153783,1952,848,38.5891,-4.69058
735,176,38.562,5.21741,0.00471887,0.00125452,-0.00320125,0.00662653,-0.000653147,-0.537408,0.00465072,0.014084,1959,848,38.562,-5.21743
742,176,38.5308,5.72247,0.00781592,0.00185347,-0.00475689,0.0104486,-0.000779189,-0.505482,0.00723944,0.0167466,1966,848,38.5307,-5.72248
749,176,38.5229,6.19318,0.011967,0.00250126,-0.00720821,0.0158573,-0.001389,-0.494899,0.0110636,0.027652,1973,848,38.5229,-6.19321
756,176,38.6078,6.93066,0.0176685,0.00328627,-0.010877,0.0235166,-0.00256183,-0.493319,0.0165977,0.0488688,1980,848,38.6078,-6.93066
763,176,38.8152,7.64233,0,0,0,0,0,0,0,-1,1987,848,38.8152,-7.64231
770,176,36.4186,4.25641,0,0,0,0,0,0,0,-1,1994,848,36.4186,-4.25639
777,176,42.4061,7.20282,0,0,0,0,0,0,0,-1,2001,848,42.4062,-7.2028
784,176,0,0,0,0,0,0,0,0,0,-1,2008,848,0,0
791,176,0,0,0,0,0,0,0,0,0,-1,2015,848,0,0
798,176,0,0,0,0,0,0,0,0,0,-1,2022,848,0,0
805,176,0,0,0,0,0,0,0,0,0,-1,2029,848,0,0
812,176,0,0,0,0,0,0,0,0,0,-1,2036,848,0,0
-700,169,0,0,0,0,0,0,0,0,0,-1,524,855,0,0
-693,169,0,0,0,0,0,0,0,0,0,-1,531,855,0,0
-686,169,0,0,0,0,0,0,0,0,0,-1,538,855,0,0
-679,169,0,0,0,0,0,0,0,0,0,-1,545,855,0,0
-672,169,0,0,0,0,0,0,0,0,0,-1,552,855,0,0
-665,169,-27.7006,2.21771,0,0,0,0,0,0,0,-1,559,855,-27.7006,-2.21773
-658,169,-27.6542,2.5282,0,0,0,0,0,0,0,-1,566,855,-27.6542,-2.52822
-651,169,-27.7207,7.25531,0,0,0,0,0,0,0,-1,573,855,-27.7207,-7.25533
-644,169,-27.9901,6.00476,-0.00302632,0.0186088,-0.00436365,0.0194557,-0.00387329,-1.37909,0.0144359,0.0451201,580,855,-27.99,-6.00479
-637,169,-28.3192,4.8858,-0.00323446,0.0167175,-0.00269011,0.0170739,-0.0035908,-1.4391,0.0127492,0.0463642,587,855,-28.3192,-4.88583
-630,169,-28.6452,4.33252,0,0,0,0,0,0,0,-1,594,855,-28.6452,-4.33252
-623,169,-28.3487,4.08289,0,0,0,0,0,0,0,-1,601,855,-28.3487,-4.08286
-616,169,-28.2354,3.54639,-0.0037019,0.00861794,0.000427661,0.00863276,-0.00371672,1.53614,0.00731587,0.0220339,608,855,-28.2354,-3.54639
-609,169,-28.225,3.08307,-0.00312668,0.0062214,0.00109797,0.00634863,-0.00325391,1.45543,0.00563919,0.0130583,615,855,-28.225,-3.08306
-602,169,-28.231,2.58392,-0.00221066,0.00423133,0.00157917,0.00459762,-0.00257695,1.34288,0.00419664,0.0127693,622,855,-28.231,-2.58392
-595,169,-28.2595,2.0658,-0.00134174,0.00260593,0.00187597,0.0033552,-0.00209101,1.1908,0.00317248,0.0120485,629,855,-28.2595,-2.06582
-588,169,-28.2631,1.58051,-0.000289641,0.00147627,0.00214982,0.00291739,-0.00173076,0.980252,0.0027126,0.0103915,636,855,-28.2631,-1.58053
-581,169,-28.3054,1.1322,0.000425384,0.000449113,0.00209839,0.00253567,-0.00166118,0.788225,0.00244052,0.0154362,643,855,-28.3054,-1.13221
-574,169,-28.5172,0.6026,0.000780786,-5.17833e-05,0.001961,0.0023692,-0.0016402,0.68081,0.00232755,0.0287848,650,855,-28.5172,-0.602571
-567,169,-28.3416,0.225586,0.000799202,0.000334929,0.00182465,0.00240643,-0.0012723,0.722127,0.00215729,0.0389087,657,855,-28.3415,-0.22559
-560,169,-28.2955,-0.151917,0.00063363,0.000682331,0.00160479,0.00226295,-0.000946991,0.792984,0.00190447,0.0456979,664,855,-28.2954,0.151928
-553,169,-28.1151,-0.595032,0,0,0,0,0,0,0,-1,671,855,-28.115,0.595016
-546,169,-19.0852,-1.05609,0,0,0,0,0,0,0,-1,678,855,-19.0852,1.05612
-539,169,-33.2307,1.10706,0,0,0,0,0,0,0,-1,685,855,-33.2307,-1.10708
-532,169,-35.941,1.078,0,0,0,0,0,0,0,-1,692,855,-35.941,-1.07798
-525,169,-35.9746,0.91156,-0.00138598,0.00297638,0.000483525,0.00302933,-0.00143893,1.46172,0.00263366,0.0461101,699,855,-35.9746,-0.911559
-518,169,-36.0307,0.768738,-0.00240943,0.00382913,0.0002638,0.00384027,-0.00242056,1.52861,0.00364554,0.0427107,706,855,-36.0307,-0.768741
-511,169,-36.2014,0.848511,-0.00288581,0.00441249,-0.000114701,0.00441429,-0.00288761,-1.55509,0.00424636,0.040605,713,855,-36.2014,-0.848503
-504,169,-36.1968,0.759521,-0.00175266,0.00479881,-0.000490054,0.00483526,-0.00178912,-1.49655,0.00395708,0.0383842,720,855,-36.1969,-0.759547
-497,169,-36.1907,0.91449,0.000830684,0.00450311,-0.000842164,0.00468702,0.000646769,-1.35579,0.00293296,0.0392597,727,855,-36.1907,-0.91449
-490,169,0,0,0,0,0,0,0,0,0,-1,734,855,0,0
-483,169,0,0,0,0,0,0,0,0,0,-1,741,855,0,0
-476,169,0,0,0,0,0,0,0,0,0,-1,748,855,0,0
-469,169,0,0,0,0,0,0,0,0,0,-1,755,855,0,0
-462,169,0,0,0,0,0,0,0,0,0,-1,762,855,0,0
-455,169,0,0,0,0,0,0,0,0,0,-1,769,855,0,0
-448,169,0,0,0,0,0,0,0,0,0,-1,776,855,0,0
-441,169,0,0,0,0,0,0,0,0,0,-1,783,855,0,0
-434,169,0,0,0,0,0,0,0,0,0,-1,790,855,0,0
-427,169,0,0,0,0,0,0,0,0,0,-1,797,855,0,0
-420,169,0,0,0,0,0,0,0,0,0,-1,804,855,0,0
-413,169,0,0,0,0,0,0,0,0,0,-1,811,855,0,0
-406,169,0,0,0,0,0,0,0,0,0,-1,818,855,0,0
-399,169,0,0,0,0,0,0,0,0,0,-1,825,855,0,0
-392,169,0,0,0,0,0,0,0,0,0,-1,832,855,0,0
-385,169,0,0,0,0,0,0,0,0,0,-1,839,855,0,0
-378,169,0,0,0,0,0,0,0,0,0,-1,846,855,0,0
-371,169,0,0,0,0,0,0,0,0,0,-1,853,855,0,0
-364,169,0,0,0,0,0,0,0,0,0,-1,860,855,0,0
-357,169,0,0,0,0,0,0,0,0,0,-1,867,855,0,0
-350,169,0,0,0,0,0,0,0,0,0,-1,874,855,0,0
-343,169,0,0,0,0,0,0,0,0,0,-1,881,855,0,0
-336,169,0,0,0,0,0,0,0,0,0,-1,888,855,0,0
-329,169,0,0,0,0,0,0,0,0,0,-1,895,855,0,0
-322,169,0,0,0,0,0,0,0,0,0,-1,902,855,0,0
-315,169,0,0,0,0,0,0,0,0,0,-1,909,855,0,0
-308,169,0,0,0,0,0,0,0,0,0,-1,916,855,0,0
-301,169,0,0,0,0,0,0,0,0,0,-1,923,855,0,0
-294,169,0,0,0,0,0,0,0,0,0,-1,930,855,0,0
-287,169,0,0,0,0,0,0,0,0,0,-1,937,855,0,0
-280,169,0,0,0,0,0,0,0,0,0,-1,944,855,0,0
-273,169,0,0,0,0,0,0,0,0,0,-1,951,855,0,0
-266,169,0,0,0,0,0,0,0,0,0,-1,958,855,0,0
-259,169,0,0,0,0,0,0,0,0,0,-1,965,855,0,0
-252,169,0,0,0,0,0,0,0,0,0,-1,972,855,0,0
-245,169,0,0,0,0,0,0,0,0,0,-1,979,855,0,0
-238,169,0,0,0,0,0,0,0,0,0,-1,986,855,0,0
-231,169,0,0,0,0,0,0,0,0,0,-1,993,855,0,0
-224,169,0,0,0,0,0,0,0,0,0,-1,1000,855,0,0
-217,169,0,0,0,0,0,0,0,0,0,-1,1007,855,0,0
-210,169,0,0,0,0,0,0,0,0,0,-1,1014,855,0,0
-203,169,0,0,0,0,0,0,0,0,0,-1,1021,855,0,0
-196,169,0,0,0,0,0,0,0,0,0,-1,1028,855,0,0
-189,169,0,0,0,0,0,0,0,0,0,-1,1035,855,0,0
-182,169,0,0,0,0,0,0,0,0,0,-1,1042,855,0,0
-175,169,0,0,0,0,0,0,0,0,0,-1,1049,855,0,0
-168,169,0,0,0,0,0,0,0,0,0,-1,1056,855,0,0
-161,169,0,0,0,0,0,0,0,0,0,-1,1063,855,0,0
-154,169,0,0,0,0,0,0,0,0,0,-1,1070,855,0,0
-147,169,0,0,0,0,0,0,0,0,0,-1,1077,855,0,0
-140,169,0,0,0,0,0,0,0,0,0,-1,1084,855,0,0
-133,169,0,0,0,0,0,0,0,0,0,-1,1091,855,0,0
-126,169,0,0,0,0,0,0,0,0,0,-1,1098,855,0,0
-119,169,0,0,0,0,0,0,0,0,0,-1,1105,855,0,0
-112,169,0,0,0,0,0,0,0,0,0,-1,1112,855,0,0
-105,169,0,0,0,0,0,0,0,0,0,-1,1119,855,0,0
-98,169,0,0,0,0,0,0,0,0,0,-1,1126,855,0,0
-91,169,0,0,0,0,0,0,0,0,0,-1,1133,855,0,0
-84,169,0,0,0,0,0,0,0,0,0,-1,1140,855,0,0
-77,169,0,0,0,0,0,0,0,0,0,-1,1147,855,0,0
-70,169,0,0,0,0,0,0,0,0,0,-1,1154,855,0,0
-63,169,0,0,0,0,0,0,0,0,0,-1,1161,855,0,0
-56,169,0,0,0,0,0,0,0,0,0,-1,1168,855,0,0
-49,169,0,0,0,0,0,0,0,0,0,-1,1175,855,0,0
-42,169,0,0,0,0,0,0,0,0,0,-1,1182,855,0,0
-35,169,0,0,0,0,0,0,0,0,0,-1,1189,855,0,0
-28,169,0,0,0,0,0,0,0,0,0,-1,1196,855,0,0
-21,169,0,0,0,0,0,0,0,0,0,-1,1203,855,0,0
-14,169,0,0,0,0,0,0,0,0,0,-1,1210,855,0,0
-7,169,0,0,0,0,0,0,0,0,0,-1,1217,855,0,0
0,169,0,0,0,0,0,0,0,0,0,-1,1224,855,0,0
7,169,0,0,0,0,0,0,0,0,0,-1,1231,855,0,0
14,169,0,0,0,0,0,0,0,0,0,-1,1238,855,0,0
21,169,0,0,0,0,0,0,0,0,0,-1,1245,855,0,0
28,169,0,0,0,0,0,0,0,0,0,-1,1252,855,0,0
35,169,0,0,0,0,0,0,0,0,0,-1,1259,855,0,0
42,169,0,0,0,0,0,0,0,0,0,-1,1266,855,0,0
49,169,0,0,0,0,0,0,0,0,0,-1,1273,855,0,0
56,169,0,0,0,0,0,0,0,0,0,-1,1280,855,0,0
63,169,0,0,0,0,0,0,0,0,0,-1,1287,855,0,0
70,169,0,0,0,0,0,0,0,0,0,-1,1294,855,0,0
77,169,0,0,0,0,0,0,0,0,0,-1,1301,855,0,0
84,169,0,0,0,0,0,0,0,0,0,-1,1308,855,0,0
91,169,0,0,0,0,0,0,0,0,0,-1,1315,855,0,0
98,169,0,0,0,0,0,0,0,0,0,-1,1322,855,0,0
105,169,0,0,0,0,0,0,0,0,0,-1,1329,855,0,0
112,169,0,0,0,0,0,0,0,0,0,-1,1336,855,0,0
119,169,0,0,0,0,0,0,0,0,0,-1,1343,855,0,0
126,169,0,0,0,0,0,0,0,0,0,-1,1350,855,0,0
133,169,0,0,0,0,0,0,0,0,0,-1,1357,855,0,0
140,169,0,0,0,0,0,0,0,0,0,-1,1364,855,0,0
147,169,0,0,0,0,0,0,0,0,0,-1,1371,855,0,0
154,169,0,0,0,0,0,0,0,0,0,-1,1378,855,0,0
161,169,0,0,0,0,0,0,0,0,0,-1,1385,855,0,0
168,169,0,0,0,0,0,0,0,0,0,-1,1392,855,0,0
175,169,0,0,0,0,0,0,0,0,0,-1,1399,855,0,0
182,169,0,0,0,0,0,0,0,0,0,-1,1406,855,0,0
189,169,0,0,0,0,0,0,0,0,0,-1,1413,855,0,0
196,169,0,0,0,0,0,0,0,0,0,-1,1420,855,0,0
203,169,0,0,0,0,0,0,0,0,0,-1,1427,855,0,0
210,169,0,0,0,0,0,0,0,0,0,-1,1434,855,0,0
217,169,0,0,0,0,0,0,0,0,0,-1,1441,855,0,0
224,169,0,0,0,0,0,0,0,0,0,-1,1448,855,0,0
231,169,0,0,0,0,0,0,0,0,0,-1,1455,855,0,0
238,169,0,0,0,0,0,0,0,0,0,-1,1462,855,0,0
245,169,0,0,0,0,0,0,0,0,0,-1,1469,855,0,0
252,169,0,0,0,0,0,0,0,0,0,-1,1476,855,0,0
259,169,0,0,0,0,0,0,0,0,0,-1,1483,855,0,0
266,169,0,0,0,0,0,0,0,0,0,-1,1490,855,0,0
273,169,0,0,0,0,0,0,0,0,0,-1,1497,855,0,0
280,169,0,0,0,0,0,0,0,0,0,-1,1504,855,0,0
287,169,0,0,0,0,0,0,0,0,0,-1,1511,855,0,0
294,169,0,0,0,0,0,0,0,0,0,-1,1518,855,0,0
301,169,0,0,0,0,0,0,0,0,0,-1,1525,855,0,0
308,169,0,0,0,0,0,0,0,0,0,-1,1532,855,0,0
315,169,0,0,0,0,0,0,0,0,0,-1,1539,855,0,0
322,169,0,0,0,0,0,0,0,0,0,-1,1546,855,0,0
329,169,0,0,0,0,0,0,0,0,0,-1,1553,855,0,0
336,169,0,0,0,0,0,0,0,0,0,-1,1560,855,0,0
343,169,0,0,0,0,0,0,0,0,0,-1,1567,855,0,0
350,169,0,0,0,0,0,0,0,0,0,-1,1574,855,0,0
357,169,0,0,0,0,0,0,0,0,0,-1,1581,855,0,0
364,169,0,0,0,0,0,0,0,0,0,-1,1588,855,0,0
371,169,0,0,0,0,0,0,0,0,0,-1,1595,855,0,0
378,169,0,0,0,0,0,0,0,0,0,-1,1602,855,0,0
385,169,0,0,0,0,0,0,0,0,0,-1,1609,855,0,0
392,169,0,0,0,0,0,0,0,0,0,-1,1616,855,0,0
399,169,0,0,0,0,0,0,0,0,0,-1,1623,855,0,0
406,169,0,0,0,0,0,0,0,0,0,-1,1630,855,0,0
413,169,0,0,0,0,0,0,0,0,0,-1,1637,855,0,0
420,169,0,0,0,0,0,0,0,0,0,-1,1644,855,0,0
427,169,0,0,0,0,0,0,0,0,0,-1,1651,855,0,0
434,169,0,0,0,0,0,0,0,0,0,-1,1658,855,0,0
441,169,0,0,0,0,0,0,0,0,0,-1,1665,855,0,0
448,169,0,0,0,0,0,0,0,0,0,-1,1672,855,0,0
455,169,0,0,0,0,0,0,0,0,0,-1,1679,855,0,0
462,169,0,0,0,0,0,0,0,0,0,-1,1686,855,0,0
469,169,0,0,0,0,0,0,0,0,0,-1,1693,855,0,0
476,169,0,0,0,0,0,0,0,0,0,-1,1700,855,0,0
483,169,0,0,0,0,0,0,0,0,0,-1,1707,855,0,0
490,169,0,0,0,0,0,0,0,0,0,-1,1714,855,0,0
497,169,0,0,0,0,0,0,0,0,0,-1,1721,855,0,0
504,169,0,0,0,0,0,0,0,0,0,-1,1728,855,0,0
511,169,0,0,0,0,0,0,0,0,0,-1,1735,855,0,0
518,169,0,0,0,0,0,0,0,0,0,-1,1742,855,0,0
525,169,0,0,0,0,0,0,0,0,0,-1,1749,855,0,0
532,169,0,0,0,0,0,0,0,0,0,-1,1756,855,0,0
539,169,0,0,0,0,0,0,0,0,0,-1,1763,855,0,0
546,169,0,0,0,0,0,0,0,0,0,-1,1770,855,0,0
553,169,0,0,0,0,0,0,0,0,0,-1,1777,855,0,0
560,169,0,0,0,0,0,0,0,0,0,-1,1784,855,0,0
567,169,0,0,0,0,0,0,0,0,0,-1,1791,855,0,0
574,169,0,0,0,0,0,0,0,0,0,-1,1798,855,0,0
581,169,0,0,0,0,0,0,0,0,0,-1,1805,855,0,0
588,169,0,0,0,0,0,0,0,0,0,-1,1812,855,0,0
595,169,0,0,0,0,0,0,0,0,0,-1,1819,855,0,0
602,169,0,0,0,0,0,0,0,0,0,-1,1826,855,0,0
609,169,0,0,0,0,0,0,0,0,0,-1,1833,855,0,0
616,169,47.9933,2.74469,0.00396818,-0.0111459,-0.000684964,0.00399916,-0.0111769,-0.0451961,0.00908269,0.0410558,1840,855,47.9933,-2.74469
623,169,48.2366,2.46295,0.00326546,-0.00863824,7.51504e-05,0.00326593,-0.00863872,0.00631286,0.00710265,0.0429129,1847,855,48.2366,-2.46295
630,169,48.3219,2.64801,0.00255934,-0.00643462,0.000410269,0.00257802,-0.0064533,0.0454901,0.00537186,0.0421604,1854,855,48.3218,-2.64801
637,169,48.1761,2.7934,0.00177621,-0.00453465,0.000446704,0.00180767,-0.00456611,0.0703161,0.00379304,0.0355782,1861,855,48.1761,-2.79339
644,169,47.969,2.97644,0.00105871,-0.00339276,0.000205632,0.00106819,-0.00340224,0.0460635,0.00269571,0.0342904,1868,855,47.9689,-2.97645
651,169,47.925,2.9812,0.000539266,-0.0027644,-6.06563e-05,0.00054038,-0.00276551,-0.0183521,0.00204771,0.0346033,1875,855,47.9251,-2.98121
658,169,48.0293,2.78967,5.65019e-05,-0.00237361,-0.000445956,0.000135756,-0.00245287,-0.17588,0.00168232,0.0332043,1882,855,48.0293,-2.78969
665,169,48.2383,2.51569,0,0,0,0,0,0,0,-1,1889,855,48.2383,-2.51566
672,169,31.2465,2.96387,0,0,0,0,0,0,0,-1,1896,855,31.2464,-2.9639
679,169,38.4297,1.08197,0,0,0,0,0,0,0,-1,1903,855,38.4296,-1.08194
686,169,39.6263,1.75867,0,0,0,0,0,0,0,-1,1910,855,39.6263,-1.75869
693,169,39.3942,2.22137,-0.00125691,-0.000733051,-0.00162338,0.000649395,-0.00263936,-0.865384,0.00201129,0.0227675,1917,855,39.3941,-2.22137
700,169,39.391,2.78235,-0.00124835,-0.000634993,-0.00174747,0.0008325,-0.00271585,-0.872264,0.00214267,0.0202621,1924,855,39.391,-2.78232
707,169,39.3018,3.23718,-0.00113416,-0.000633029,-0.00156153,0.00069791,-0.0024651,-0.864951,0.00191882,0.0191853,1931,855,39.3017,-3.23716
714,169,39.1558,3.63861,-0.000725911,-0.000303614,-0.00135816,0.000859709,-0.00188923,-0.862514,0.00162378,0.0137819,1938,855,39.1558,-3.63859
721,169,39.1229,4.17603,0.000220659,0.000353314,-0.00145313,0.00174163,-0.00116766,-0.808205,0.00169054,0.0164028,1945,855,39.1229,-4.17601
728,169,39.1176,4.71027,0.00166805,0.000978608,-0.00173831,0.00309549,-0.00044883,-0.687514,0.00222839,0.0138213,1952,855,39.1176,-4.71025
735,169,39.0942,5.21527,0.00362368,0.00169531,-0.00232681,0.00517817,0.000140818,-0.588977,0.00340614,0.0185833,1959,855,39.0943,-5.21527
742,169,39.0699,5.70374,0.00625727,0.0026035,-0.00335535,0.00825084,0.00060993,-0.536105,0.00530894,0.0153124,1966,855,39.0699,-5.70375
749,169,38.9891,6.1297,0.00979393,0.00364834,-0.00505162,0.0126339,0.000808354,-0.512156,0.0081665,0.0259237,1973,855,38.9891,-6.12967
756,169,39.1221,6.79578,0.014687,0.00493441,-0.007651,0.0188835,0.000737876,-0.501687,0.0123504,0.0491974,1980,855,39.122,-6.7958
763,169,39.3905,7.47485,0,0,0,0,0,0,0,-1,1987,855,39.3905,-7.47486
770,169,37.2059,3.97021,0,0,0,0,0,0,0,-1,1994,855,37.2059,-3.97022
777,169,37.9381,9.14392,0,0,0,0,0,0,0,-1,2001,855,37.9381,-9.1439
784,169,37.6997,9.83215,0,0,0,0,0,0,0,-1,2008,855,37.6997,-9.83216
791,169,0,0,0,0,0,0,0,0,0,-1,2015,855,0,0
798,169,0,0,0,0,0,0,0,0,0,-1,2022,855,0,0
805,169,0,0,0,0,0,0,0,0,0,-1,2029,855,0,0
812,169,0,0,0,0,0,0,0,0,0,-1,2036,855,0,0
-700,162,0,0,0,0,0,0,0,0,0,-1,524,862,0,0
-693,162,0,0,0,0,0,0,0,0,0,-1,531,862,0,0
-686,162,0,0,0,0,0,0,0,0,0,-1,538,862,0,0
-679,162,0,0,0,0,0,0,0,0,0,-1,545,862,0,0
-672,162,0,0,0,0,0,0,0,0,0,-1,552,862,0,0
-665,162,-27.7366,3.01807,0,0,0,0,0,0,0,-1,559,862,-27.7366,-3.01809
-658,162,-27.9741,3.1861,0,0,0,0,0,0,0,-1,566,862,-27.9741,-3.18607
-651,162,-28.442,6.95349,0,0,0,0,0,0,0,-1,573,862,-28.442,-6.95351
-644,162,-28.5948,6.03333,0.0115347,0.0197774,0.00373353,0.0212171,0.010095,1.20276,0.0122545,0.0469697,580,862,-28.5948,-6.0333
-637,162,-28.7998,5.0462,0.00646688,0.0173388,0.0028813,0.0180552,0.00575048,1.3271,0.0106507,0.0469329,587,862,-28.7998,-5.04621
-630,162,-28.9559,4.41034,0.00270664,0.0143396,0.00231138,0.014782,0.00226421,1.38167,0.00919336,0.0457947,594,862,-28.9559,-4.41036
-623,162,-28.7957,4.01123,-0.000543424,0.0115549,0.00193194,0.0118559,-0.000844439,1.41623,0.0081999,0.0333963,601,862,-28.7957,-4.01124
-616,162,-28.703,3.56677,-0.00220635,0.00839451,0.00175525,0.00867758,-0.00248942,1.4109,0.0067692,0.0199741,608,862,-28.703,-3.56675
-609,162,-28.7414,3.07196,-0.002657,0.00590731,0.00193012,0.00632219,-0.00307189,1.35906,0.00553083,0.0133813,615,862,-28.7414,-3.07197
-602,162,-28.7591,2.57959,-0.00201582,0.00384111,0.00216524,0.00455465,-0.00272936,1.25246,0.00424921,0.0115882,622,862,-28.7591,-2.57961
-595,162,-28.7762,2.10474,-0.00128328,0.00221374,0.00226009,0.00332273,-0.00239226,1.11463,0.0033141,0.0113542,629,862,-28.7762,-2.10474
-588,162,-28.7875,1.61707,-0.000297267,0.00111841,0.00230903,0.00282566,-0.00200451,0.934127,0.0028021,0.0115551,636,862,-28.7875,-1.61706
-581,162,-28.9461,1.13165,0.000421109,0.000261461,0.00213824,0.00248101,-0.00179844,0.766741,0.0024812,0.0253066,643,862,-28.9461,-1.13167
-574,162,-29.1958,0.627319,0.000713571,-0.00016062,0.00195329,0.00227807,-0.00172512,0.675324,0.00231858,0.0373064,650,862,-29.1958,-0.627335
-567,162,-29.1616,0.144958,0.000785707,0.000114051,0.00179099,0.00227208,-0.00137232,0.692719,0.00212537,0.0436613,657,862,-29.1616,-0.144938
-560,162,-28.9177,-0.502075,0.000824024,0.000321575,0.00155569,0.00214864,-0.00100304,0.705345,0.00185927,0.0410811,664,862,-28.9177,0.502061
-553,162,-28.5346,-1.1806,0,0,0,0,0,0,0,-1,671,862,-28.5346,1.18058
-546,162,-22.8181,-1.51154,0,0,0,0,0,0,0,-1,678,862,-22.8181,1.51155
-539,162,-35.9724,1.03577,0,0,0,0,0,0,0,-1,685,862,-35.9724,-1.03576
-532,162,-35.9538,0.995178,0.000164681,0.00169441,0.000652163,0.0019347,-7.56087e-05,1.21778,0.00131572,0.0393181,692,862,-35.9538,-0.995176
-525,162,-35.9553,0.94342,-0.000432725,0.00233202,0.000295539,0.00236326,-0.000463964,1.46549,0.00175077,0.0409427,699,862,-35.9553,-0.94343
-518,162,-35.9628,1.05359,-0.00135819,0.00310946,5.25905e-05,0.00311008,-0.00135881,1.55903,0.00264532,0.041957,706,862,-35.9628,-1.05361
-511,162,-35.9443,0.905579,-0.00160594,0.00360395,-0.000372412,0.00363044,-0.00163242,-1.4998,0.00311065,0.0444532,713,862,-35.9444,-0.905581
-504,162,-35.8437,0.760315,-0.000174831,0.00407992,-0.000773296,0.00421611,-0.000311018,-1.39647,0.00291994,0.0429655,720,862,-35.8437,-0.760319
-497,162,-35.9243,0.77124,0.0021897,0.00391041,-0.00111739,0.00446029,0.00163982,-1.11348,0.00260505,0.041204,727,862,-35.9243,-0.771246
-490,162,0,0,0,0,0,0,0,0,0,-1,734,862,0,0
-483,162,0,0,0,0,0,0,0,0,0,-1,741,862,0,0
-476,162,0,0,0,0,0,0,0,0,0,-1,748,862,0,0
-469,162,0,0,0,0,0,0,0,0,0,-1,755,862,0,0
-462,162,0,0,0,0,0,0,0,0,0,-1,762,862,0,0
-455,162,0,0,0,0,0,0,0,0,0,-1,769,862,0,0
-448,162,0,0,0,0,0,0,0,0,0,-1,776,862,0,0
-441,162,0,0,0,0,0,0,0,0,0,-1,783,862,0,0
-434,162,0,0,0,0,0,0,0,0,0,-1,790,862,0,0
-427,162,0,0,0,0,0,0,0,0,0,-1,797,862,0,0
-420,162,0,0,0,0,0,0,0,0,0,-1,804,862,0,0
-413,162,0,0,0,0,0,0,0,0,0,-1,811,862,0,0
-406,162,0,0,0,0,0,0,0,0,0,-1,818,862,0,0
-399,162,0,0,0,0,0,0,0,0,0,-1,825,862,0,0
-392,162,0,0,0,0,0,0,0,0,0,-1,832,862,0,0
-385,162,0,0,0,0,0,0,0,0,0,-1,839,862,0,0
-378,162,0,0,0,0,0,0,0,0,0,-1,846,862,0,0
-371,162,0,0,0,0,0,0,0,0,0,-1,853,862,0,0
-364,162,0,0,0,0,0,0,0,0,0,-1,860,862,0,0
-357,162,0,0,0,0,0,0,0,0,0,-1,867,862,0,0
-350,162,0,0,0,0,0,0,0,0,0,-1,874,862,0,0
-343,162,0,0,0,0,0,0,0,0,0,-1,881,862,0,0
-336,162,0,0,0,0,0,0,0,0,0,-1,888,862,0,0
-329,162,0,0,0,0,0,0,0,0,0,-1,895,862,0,0
-322,162,0,0,0,0,0,0,0,0,0,-1,902,862,0,0
-315,162,0,0,0,0,0,0,0,0,0,-1,909,862,0,0
-308,162,0,0,0,0,0,0,0,0,0,-1,916,862,0,0
-301,162,0,0,0,0,0,0,0,0,0,-1,923,862,0,0
-294,162,0,0,0,0,0,0,0,0,0,-1,930,862,0,0
-287,162,0,0,0,0,0,0,0,0,0,-1,937,862,0,0
-280,162,0,0,0,0,0,0,0,0,0,-1,944,862,0,0
-273,162,0,0,0,0,0,0,0,0,0,-1,951,862,0,0
-266,162,0,0,0,0,0,0,0,0,0,-1,958,862,0,0
-259,162,0,0,0,0,0,0,0,0,0,-1,965,862,0,0
-252,162,0,0,0,0,0,0,0,0,0,-1,972,862,0,0
-245,162,0,0,0,0,0,0,0,0,0,-1,979,862,0,0
-238,162,0,0,0,0,0,0,0,0,0,-1,986,862,0,0
-231,162,0,0,0,0,0,0,0,0,0,-1,993,862,0,0
-224,162,0,0,0,0,0,0,0,0,0,-1,1000,862,0,0
-217,162,0,0,0,0,0,0,0,0,0,-1,1007,862,0,0
-210,162,0,0,0,0,0,0,0,0,0,-1,1014,862,0,0
-203,162,0,0,0,0,0,0,0,0,0,-1,1021,862,0,0
-196,162,0,0,0,0,0,0,0,0,0,-1,1028,862,0,0
-189,162,0,0,0,0,0,0,0,0,0,-1,1035,862,0,0
-182,162,0,0,0,0,0,0,0,0,0,-1,1042,862,0,0
-175,162,0,0,0,0,0,0,0,0,0,-1,1049,862,0,0
-168,162,0,0,0,0,0,0,0,0,0,-1,1056,862,0,0
-161,162,0,0,0,0,0,0,0,0,0,-1,1063,862,0,0
-154,162,0,0,0,0,0,0,0,0,0,-1,1070,862,0,0
-147,162,0,0,0,0,0,0,0,0,0,-1,1077,862,0,0
-140,162,0,0,0,0,0,0,0,0,0,-1,1084,862,0,0
-133,162,0,0,0,0,0,0,0,0,0,-1,1091,862,0,0
-126,162,0,0,0,0,0,0,0,0,0,-1,1098,862,0,0
-119,162,0,0,0,0,0,0,0,0,0,-1,1105,862,0,0
-112,162,0,0,0,0,0,0,0,0,0,-1,1112,862,0,0
-105,162,0,0,0,0,0,0,0,0,0,-1,1119,862,0,0
-98,162,0,0,0,0,0,0,0,0,0,-1,1126,862,0,0
-91,162,0,0,0,0,0,0,0,0,0,-1,1133,862,0,0
-84,162,0,0,0,0,0,0,0,0,0,-1,1140,862,0,0
-77,162,0,0,0,0,0,0,0,0,0,-1,1147,862,0,0
-70,162,0,0,0,0,0,0,0,0,0,-1,1154,862,0,0
-63,162,0,0,0,0,0,0,0,0,0,-1,1161,862,0,0
-56,162,0,0,0,0,0,0,0,0,0,-1,1168,862,0,0
-49,162,0,0,0,0,0,0,0,0,0,-1,1175,862,0,0
-42,162,0,0,0,0,0,0,0,0,0,-1,1182,862,0,0
-35,162,0,0,0,0,0,0,0,0,0,-1,1189,862,0,0
-28,162,0,0,0,0,0,0,0,0,0,-1,1196,862,0,0
-21,162,0,0,0,0,0,0,0,0,0,-1,1203,862,0,0
-14,162,0,0,0,0,0,0,0,0,0,-1,1210,862,0,0
-7,162,0,0,0,0,0,0,0,0,0,-1,1217,862,0,0
0,162,0,0,0,0,0,0,0,0,0,-1,1224,862,0,0
7,162,0,0,0,0,0,0,0,0,0,-1,1231,862,0,0
14,162,0,0,0,0,0,0,0,0,0,-1,1238,862,0,0
21,162,0,0,0,0,0,0,0,0,0,-1,1245,862,0,0
28,162,0,0,0,0,0,0,0,0,0,-1,1252,862,0,0
35,162,0,0,0,0,0,0,0,0,0,-1,1259,862,0,0
42,162,0,0,0,0,0,0,0,0,0,-1,1266,862,0,0
49,162,0,0,0,0,0,0,0,0,0,-1,1273,862,0,0
56,162,0,0,0,0,0,0,0,0,0,-1,1280,862,0,0
63,162,0,0,0,0,0,0,0,0,0,-1,1287,862,0,0
70,162,0,0,0,0,0,0,0,0,0,-1,1294,862,0,0
77,162,0,0,0,0,0,0,0,0,0,-1,1301,862,0,0
84,162,0,0,0,0,0,0,0,0,0,-1,1308,862,0,0
91,162,0,0,0,0,0,0,0,0,0,-1,1315,862,0,0
98,162,0,0,0,0,0,0,0,0,0,-1,1322,862,0,0
105,162,0,0,0,0,0,0,0,0,0,-1,1329,862,0,0
112,162,0,0,0,0,0,0,0,0,0,-1,1336,862,0,0
119,162,0,0,0,0,0,0,0,0,0,-1,1343,862,0,0
126,162,0,0,0,0,0,0,0,0,0,-1,1350,862,0,0
133,162,0,0,0,0,0,0,0,0,0,-1,1357,862,0,0
140,162,0,0,0,0,0,0,0,0,0,-1,1364,862,0,0
147,162,0,0,0,0,0,0,0,0,0,-1,1371,862,0,0
154,162,0,0,0,0,0,0,0,0,0,-1,1378,862,0,0
161,162,0,0,0,0,0,0,0,0,0,-1,1385,862,0,0
168,162,0,0,0,0,0,0,0,0,0,-1,1392,862,0,0
175,162,0,0,0,0,0,0,0,0,0,-1,1399,862,0,0
182,162,0,0,0,0,0,0,0,0,0,-1,1406,862,0,0
189,162,0,0,0,0,0,0,0,0,0,-1,1413,862,0,0
196,162,0,0,0,0,0,0,0,0,0,-1,1420,862,0,0
203,162,0,0,0,0,0,0,0,0,0,-1,1427,862,0,0
210,162,0,0,0,0,0,0,0,0,0,-1,1434,862,0,0
217,162,0,0,0,0,0,0,0,0,0,-1,1441,862,0,0
224,162,0,0,0,0,0,0,0,0,0,-1,1448,862,0,0
231,162,0,0,0,0,0,0,0,0,0,-1,1455,862,0,0
238,162,0,0,0,0,0,0,0,0,0,-1,1462,862,0,0
245,162,0,0,0,0,0,0,0,0,0,-1,1469,862,0,0
252,162,0,0,0,0,0,0,0,0,0,-1,1476,862,0,0
259,162,0,0,0,0,0,0,0,0,0,-1,1483,862,0,0
266,162,0,0,0,0,0,0,0,0,0,-1,1490,862,0,0
273,162,0,0,0,0,0,0,0,0,0,-1,1497,862,0,0
280,162,0,0,0,0,0,0,0,0,0,-1,1504,862,0,0
287,162,0,0,0,0,0,0,0,0,0,-1,1511,862,0,0
294,162,0,0,0,0,0,0,0,0,0,-1,1518,862,0,0
301,162,0,0,0,0,0,0,0,0,0,-1,1525,862,0,0
308,162,0,0,0,0,0,0,0,0,0,-1,1532,862,0,0
315,162,0,0,0,0,0,0,0,0,0,-1,1539,862,0,0
322,162,0,0,0,0,0,0,0,0,0,-1,1546,862,0,0
329,162,0,0,0,0,0,0,0,0,0,-1,1553,862,0,0
336,162,0,0,0,0,0,0,0,0,0,-1,1560,862,0,0
343,162,0,0,0,0,0,0,0,0,0,-1,1567,862,0,0
350,162,0,0,0,0,0,0,0,0,0,-1,1574,862,0,0
357,162,0,0,0,0,0,0,0,0,0,-1,1581,862,0,0
364,162,0,0,0,0,0,0,0,0,0,-1,1588,862,0,0
371,162,0,0,0,0,0,0,0,0,0,-1,1595,862,0,0
378,162,0,0,0,0,0,0,0,0,0,-1,1602,862,0,0
385,162,0,0,0,0,0,0,0,0,0,-1,1609,862,0,0
392,162,0,0,0,0,0,0,0,0,0,-1,1616,862,0,0
399,162,0,0,0,0,0,0,0,0,0,-1,1623,862,0,0
406,162,0,0,0,0,0,0,0,0,0,-1,1630,862,0,0
413,162,0,0,0,0,0,0,0,0,0,-1,1637,862,0,0
420,162,0,0,0,0,0,0,0,0,0,-1,1644,862,0,0
427,162,0,0,0,0,0,0,0,0,0,-1,1651,862,0,0
434,162,0,0,0,0,0,0,0,0,0,-1,1658,862,0,0
441,162,0,0,0,0,0,0,0,0,0,-1,1665,862,0,0
448,162,0,0,0,0,0,0,0,0,0,-1,1672,862,0,0
455,162,0,0,0,0,0,0,0,0,0,-1,1679,862,0,0
462,162,0,0,0,0,0,0,0,0,0,-1,1686,862,0,0
469,162,0,0,0,0,0,0,0,0,0,-1,1693,862,0,0
476,162,0,0,0,0,0,0,0,0,0,-1,1700,862,0,0
483,162,0,0,0,0,0,0,0,0,0,-1,1707,862,0,0
490,162,0,0,0,0,0,0,0,0,0,-1,1714,862,0,0
497,162,0,0,0,0,0,0,0,0,0,-1,1721,862,0,0
504,162,0,0,0,0,0,0,0,0,0,-1,1728,862,0,0
511,162,0,0,0,0,0,0,0,0,0,-1,1735,862,0,0
518,162,0,0,0,0,0,0,0,0,0,-1,1742,862,0,0
525,162,0,0,0,0,0,0,0,0,0,-1,1749,862,0,0
532,162,0,0,0,0,0,0,0,0,0,-1,1756,862,0,0
539,162,0,0,0,0,0,0,0,0,0,-1,1763,862,0,0
546,162,0,0,0,0,0,0,0,0,0,-1,1770,862,0,0
553,162,0,0,0,0,0,0,0,0,0,-1,1777,862,0,0
560,162,0,0,0,0,0,0,0,0,0,-1,1784,862,0,0
567,162,0,0,0,0,0,0,0,0,0,-1,1791,862,0,0
574,162,0,0,0,0,0,0,0,0,0,-1,1798,862,0,0
581,162,0,0,0,0,0,0,0,0,0,-1,1805,862,0,0
588,162,0,0,0,0,0,0,0,0,0,-1,1812,862,0,0
595,162,0,0,0,0,0,0,0,0,0,-1,1819,862,0,0
602,162,0,0,0,0,0,0,0,0,0,-1,1826,862,0,0
609,162,0,0,0,0,0,0,0,0,0,-1,1833,862,0,0
616,162,47.7212,3.05157,0.0046492,-0.0125172,-0.00123787,0.004738,-0.012606,-0.0716161,0.0103513,0.0422639,1840,862,47.7212,-3.05157
623,162,47.9404,3.02924,0.00366088,-0.00987957,-0.000424595,0.00367418,-0.00989287,-0.0313165,0.00810258,0.0419566,1847,862,47.9405,-3.02924
630,162,48.1289,2.94519,0.00280153,-0.00754433,1.98508e-05,0.00280157,-0.00754437,0.00191871,0.0061789,0.0425309,1854,862,48.1289,-2.94516
637,162,48.1106,2.75104,0.00196368,-0.0053544,0.000260977,0.00197298,-0.00536369,0.0356016,0.00438402,0.0404296,1861,862,48.1106,-2.75103
644,162,48.014,2.84369,0.00122247,-0.0039022,0.000157812,0.00122732,-0.00390705,0.0307558,0.00309599,0.0374361,1868,862,48.014,-2.8437
651,162,47.9796,2.86359,0.000712126,-0.00305434,-3.95315e-05,0.000712541,-0.00305475,-0.0104941,0.00231093,0.0328142,1875,862,47.9796,-2.86358
658,162,48.0253,2.79913,0.00024146,-0.00255467,-0.000368601,0.000289235,-0.00260245,-0.128892,0.00183897,0.0329595,1882,862,48.0253,-2.79913
665,162,48.0917,2.7536,-0.000119527,-0.00216529,-0.000704694,9.97196e-05,-0.00238453,-0.301629,0.00162395,0.0432925,1889,862,48.0916,-2.75357
672,162,48.1262,2.72546,0,0,0,0,0,0,0,-1,1896,862,48.1262,-2.72549
679,162,26.5077,2.54785,0,0,0,0,0,0,0,-1,1903,862,26.5077,-2.54787
686,162,39.6838,1.52533,0,0,0,0,0,0,0,-1,1910,862,39.6838,-1.52532
693,162,39.9023,2.26935,-0.000910761,-0.000754192,-0.00144543,0.000615072,-0.00228002,-0.812452,0.00176121,0.0249913,1917,862,39.9023,-2.26935
700,162,39.9209,2.75574,-0.000934509,-0.000642126,-0.00153966,0.000758264,-0.0023349,-0.832732,0.00186156,0.0241166,1924,862,39.9209,-2.75575
707,162,39.8439,3.21936,-0.000846004,-0.000617824,-0.00135713,0.000630002,-0.00209383,-0.827333,0.00164656,0.0179057,1931,862,39.8438,-3.21934
714,162,39.6929,3.65259,-0.000548193,-0.000246738,-0.0012057,0.000817623,-0.00161255,-0.847582,0.00142786,0.021316,1938,862,39.6929,-3.65259
721,162,39.611,4.26971,0.000110258,0.00046007,-0.00124264,0.00154005,-0.000969727,-0.855316,0.00146144,0.0297581,1945,862,39.611,-4.26974
728,162,39.5981,4.77234,0.0010987,0.00119618,-0.0013523,0.00250061,-0.000205737,-0.803411,0.00173972,0.0230473,1952,862,39.5982,-4.77233
735,162,39.6359,5.24219,0.00257614,0.0020643,-0.00165815,0.003998,0.000642439,-0.708832,0.00247909,0.0109394,1959,862,39.6358,-5.24216
742,162,39.6122,5.72791,0.00468246,0.00318676,-0.00224947,0.00630513,0.00156408,-0.624917,0.00379118,0.0129696,1966,862,39.6122,-5.72789
749,162,39.535,6.20715,0.00756335,0.00452049,-0.00329332,0.00966969,0.00241415,-0.569014,0.00581137,0.0197325,1973,862,39.5351,-6.20718
756,162,39.4847,6.7132,0.0115941,0.00618034,-0.00492702,0.0145088,0.00326558,-0.53421,0.00878863,0.0439633,1980,862,39.4847,-6.7132
763,162,40.1437,7.79877,0,0,0,0,0,0,0,-1,1987,862,40.1436,-7.79879
770,162,39.9985,8.46265,0,0,0,0,0,0,0,-1,1994,862,39.9986,-8.46263
777,162,39.4197,8.78247,0,0,0,0,0,0,0,-1,2001,862,39.4197,-8.78246
784,162,37.2179,12.1003,0,0,0,0,0,0,0,-1,2008,862,37.2179,-12.1003
791,162,0,0,0,0,0,0,0,0,0,-1,2015,862,0,0
798,162,0,0,0,0,0,0,0,0,0,-1,2022,862,0,0
805,162,0,0,0,0,0,0,0,0,0,-1,2029,862,0,0
812,162,0,0,0,0,0,0,0,0,0,-1,2036,862,0,0
-700,155,0,0,0,0,0,0,0,0,0,-1,524,869,0,0
-693,155,0,0,0,0,0,0,0,0,0,-1,531,869,0,0
-686,155,0,0,0,0,0,0,0,0,0,-1,538,869,0,0
-679,155,0,0,0,0,0,0,0,0,0,-1,545,869,0,0
-672,155,0,0,0,0,0,0,0,0,0,-1,552,869,0,0
-665,155,-27.8384,3.4223,0,0,0,0,0,0,0,-1,559,869,-27.8384,-3.4223
-658,155,-28.6256,3.6264,0,0,0,0,0,0,0,-1,566,869,-28.6256,-3.62639
-651,155,-28.7778,3.56354,0,0,0,0,0,0,0,-1,573,869,-28.7778,-3.56353
-644,155,-30.6925,3.72064,0,0,0,0,0,0,0,-1,580,869,-30.6925,-3.72065
-637,155,-30.1949,3.89789,0.0111448,0.0158298,0.00802379,0.021846,0.00512856,0.927423,0.0131911,0.0491319,587,869,-30.1949,-3.89789
-630,155,-29.6072,4.20917,0.00560359,0.0130414,0.00603474,0.0164111,0.00223388,1.06154,0.0102774,0.0469791,594,869,-29.6073,-4.20917
-623,155,-29.1213,4.15381,0.00103753,0.0105146,0.00442387,0.0122587,-0.000706552,1.19526,0.00841784,0.0267494,601,869,-29.1213,-4.1538
-616,155,-29.1842,3.59546,-0.00152602,0.00753601,0.00330654,0.00861421,-0.00260422,1.25559,0.0067797,0.0153697,608,869,-29.1842,-3.59546
-609,155,-29.2391,3.0722,-0.00251826,0.00526829,0.00287757,0.0062163,-0.00346627,1.25255,0.00566489,0.014249,615,869,-29.2391,-3.07221
-602,155,-29.2783,2.60413,-0.00204703,0.0033175,0.0027293,0.00446193,-0.00319147,1.17375,0.00443894,0.0129076,622,869,-29.2783,-2.60413
-595,155,-29.3067,2.11053,-0.00137923,0.00185858,0.00251423,0.00323003,-0.00275068,1.07144,0.00345665,0.011851,629,869,-29.3067,-2.11054
-588,155,-29.3026,1.64557,-0.000456455,0.000896913,0.00235038,0.00266608,-0.00222562,0.92556,0.00282803,0.014761,636,869,-29.3026,-1.6456
-581,155,-29.5074,1.29102,0.000204936,0.000201975,0.00213906,0.00234252,-0.00193561,0.785052,0.0024737,0.0295719,643,869,-29.5074,-1.29102
-574,155,-29.6138,0.8927,0.000412696,-0.000154993,0.00194384,0.0020933,-0.0018356,0.712899,0.00226998,0.0353158,650,869,-29.6139,-0.892698
-567,155,-29.601,0.249817,0.00055666,2.17941e-05,0.00178793,0.00209705,-0.00151859,0.71116,0.00209638,0.0431603,657,869,-29.601,-0.249819
-560,155,-29.433,-0.342651,0.000822793,0.000104209,0.00156114,0.00206545,-0.00113845,0.672294,0.00187541,0.0380128,664,869,-29.4331,0.342629
-553,155,-29.1597,-1.22894,0,0,0,0,0,0,0,-1,671,869,-29.1597,1.22896
-546,155,-22.7988,0.873657,0,0,0,0,0,0,0,-1,678,869,-22.7988,-0.873645
-539,155,-36.0665,0.836426,0,0,0,0,0,0,0,-1,685,869,-36.0665,-0.836449
-532,155,-35.9935,0.962463,0.000815804,0.00114251,0.000620805,0.0016211,0.000337221,0.914049,0.000987702,0.0355584,692,869,-35.9935,-0.962462
-525,155,-35.9313,1.1297,0.000341227,0.00161293,0.000236174,0.00165538,0.000298782,1.39298,0.0010187,0.037714,699,869,-35.9313,-1.1297
-518,155,-35.8804,1.2395,-0.000401114,0.0021546,-6.34395e-05,0.00215617,-0.000402688,-1.54599,0.00158878,0.0411248,706,869,-35.8804,-1.23949
-511,155,-35.5653,1.27863,-0.000385722,0.00242941,-0.000549715,0.00253294,-0.000489258,-1.38463,0.00187314,0.0425436,713,869,-35.5653,-1.2786
-504,155,-35.6279,1.22046,0.00127302,0.00295359,-0.00102829,0.00344126,0.000785349,-1.12796,0.00208236,0.040812,720,869,-35.6279,-1.22044
-497,155,0,0,0,0,0,0,0,0,0,-1,727,869,0,0
-490,155,0,0,0,0,0,0,0,0,0,-1,734,869,0,0
-483,155,0,0,0,0,0,0,0,0,0,-1,741,869,0,0
-476,155,0,0,0,0,0,0,0,0,0,-1,748,869,0,0
-469,155,0,0,0,0,0,0,0,0,0,-1,755,869,0,0
-462,155,0,0,0,0,0,0,0,0,0,-1,762,869,0,0
-455,155,0,0,0,0,0,0,0,0,0,-1,769,869,0,0
-448,155,0,0,0,0,0,0,0,0,0,-1,776,869,0,0
-441,155,0,0,0,0,0,0,0,0,0,-1,783,869,0,0
-434,155,0,0,0,0,0,0,0,0,0,-1,790,869,0,0
-427,155,0,0,0,0,0,0,0,0,0,-1,797,869,0,0
-420,155,0,0,0,0,0,0,0,0,0,-1,804,869,0,0
-413,155,0,0,0,0,0,0,0,0,0,-1,811,869,0,0
-406,155,0,0,0,0,0,0,0,0,0,-1,818,869,0,0
-399,155,0,0,0,0,0,0,0,0,0,-1,825,869,0,0
-392,155,0,0,0,0,0,0,0,0,0,-1,832,869,0,0
-385,155,0,0,0,0,0,0,0,0,0,-1,839,869,0,0
-378,155,0,0,0,0,0,0,0,0,0,-1,846,869,0,0
-371,155,0,0,0,0,0,0,0,0,0,-1,853,869,0,0
-364,155,0,0,0,0,0,0,0,0,0,-1,860,869,0,0
-357,155,0,0,0,0,0,0,0,0,0,-1,867,869,0,0
-350,155,0,0,0,0,0,0,0,0,0,-1,874,869,0,0
-343,155,0,0,0,0,0,0,0,0,0,-1,881,869,0,0
-336,155,0,0,0,0,0,0,0,0,0,-1,888,869,0,0
-329,155,0,0,0,0,0,0,0,0,0,-1,895,869,0,0
-322,155,0,0,0,0,0,0,0,0,0,-1,902,869,0,0
-315,155,0,0,0,0,0,0,0,0,0,-1,909,869,0,0
-308,155,0,0,0,0,0,0,0,0,0,-1,916,869,0,0
-301,155,0,0,0,0,0,0,0,0,0,-1,923,869,0,0
-294,155,0,0,0,0,0,0,0,0,0,-1,930,869,0,0
-287,155,0,0,0,0,0,0,0,0,0,-1,937,869,0,0
-280,155,0,0,0,0,0,0,0,0,0,-1,944,869,0,0
-273,155,0,0,0,0,0,0,0,0,0,-1,951,869,0,0
-266,155,0,0,0,0,0,0,0,0,0,-1,958,869,0,0
-259,155,0,0,0,0,0,0,0,0,0,-1,965,869,0,0
-252,155,0,0,0,0,0,0,0,0,0,-1,972,869,0,0
-245,155,0,0,0,0,0,0,0,0,0,-1,979,869,0,0
-238,155,0,0,0,0,0,0,0,0,0,-1,986,869,0,0
-231,155,0,0,0,0,0,0,0,0,0,-1,993,869,0,0
-224,155,0,0,0,0,0,0,0,0,0,-1,1000,869,0,0
-217,155,0,0,0,0,0,0,0,0,0,-1,1007,869,0,0
-210,155,0,0,0,0,0,0,0,0,0,-1,1014,869,0,0
-203,155,0,0,0,0,0,0,0,0,0,-1,1021,869,0,0
-196,155,0,0,0,0,0,0,0,0,0,-1,1028,869,0,0
-189,155,0,0,0,0,0,0,0,0,0,-1,1035,869,0,0
-182,155,0,0,0,0,0,0,0,0,0,-1,1042,869,0,0
-175,155,0,0,0,0,0,0,0,0,0,-1,1049,869,0,0
-168,155,0,0,0,0,0,0,0,0,0,-1,1056,869,0,0
-161,155,0,0,0,0,0,0,0,0,0,-1,1063,869,0,0
-154,155,0,0,0,0,0,0,0,0,0,-1,1070,869,0,0
-147,155,0,0,0,0,0,0,0,0,0,-1,1077,869,0,0
-140,155,0,0,0,0,0,0,0,0,0,-1,1084,869,0,0
-133,155,0,0,0,0,0,0,0,0,0,-1,1091,869,0,0
-126,155,0,0,0,0,0,0,0,0,0,-1,1098,869,0,0
-119,155,0,0,0,0,0,0,0,0,0,-1,1105,869,0,0
-112,155,0,0,0,0,0,0,0,0,0,-1,1112,869,0,0
-105,155,0,0,0,0,0,0,0,0,0,-1,1119,869,0,0
-98,155,0,0,0,0,0,0,0,0,0,-1,1126,869,0,0
-91,155,0,0,0,0,0,0,0,0,0,-1,1133,869,0,0
-84,155,0,0,0,0,0,0,0,0,0,-1,1140,869,0,0
-77,155,0,0,0,0,0,0,0,0,0,-1,1147,869,0,0
-70,155,0,0,0,0,0,0,0,0,0,-1,1154,869,0,0
-63,155,0,0,0,0,0,0,0,0,0,-1,1161,869,0,0
-56,155,0,0,0,0,0,0,0,0,0,-1,1168,869,0,0
-49,155,0,0,0,0,0,0,0,0,0,-1,1175,869,0,0
-42,155,0,0,0,0,0,0,0,0,0,-1,1182,869,0,0
-35,155,0,0,0,0,0,0,0,0,0,-1,1189,869,0,0
-28,155,0,0,0,0,0,0,0,0,0,-1,1196,869,0,0
-21,155,0,0,0,0,0,0,0,0,0,-1,1203,869,0,0
-14,155,0,0,0,0,0,0,0,0,0,-1,1210,869,0,0
-7,155,0,0,0,0,0,0,0,0,0,-1,1217,869,0,0
0,155,0,0,0,0,0,0,0,0,0,-1,1224,869,0,0
7,155,0,0,0,0,0,0,0,0,0,-1,1231,869,0,0
14,155,0,0,0,0,0,0,0,0,0,-1,1238,869,0,0
21,155,0,0,0,0,0,0,0,0,0,-1,1245,869,0,0
28,155,0,0,0,0,0,0,0,0,0,-1,1252,869,0,0
35,155,0,0,0,0,0,0,0,0,0,-1,1259,869,0,0
42,155,0,0,0,0,0,0,0,0,0,-1,1266,869,0,0
49,155,0,0,0,0,0,0,0,0,0,-1,1273,869,0,0
56,155,0,0,0,0,0,0,0,0,0,-1,1280,869,0,0
63,155,0,0,0,0,0,0,0,0,0,-1,1287,869,0,0
70,155,0,0,0,0,0,0,0,0,0,-1,1294,869,0,0
77,155,0,0,0,0,0,0,0,0,0,-1,1301,869,0,0
84,155,0,0,0,0,0,0,0,0,0,-1,1308,869,0,0
91,155,0,0,0,0,0,0,0,0,0,-1,1315,869,0,0
98,155,0,0,0,0,0,0,0,0,0,-1,1322,869,0,0
105,155,0,0,0,0,0,0,0,0,0,-1,1329,869,0,0
112,155,0,0,0,0,0,0,0,0,0,-1,1336,869,0,0
119,155,0,0,0,0,0,0,0,0,0,-1,1343,869,0,0
126,155,0,0,0,0,0,0,0,0,0,-1,1350,869,0,0
133,155,0,0,0,0,0,0,0,0,0,-1,1357,869,0,0
140,155,0,0,0,0,0,0,0,0,0,-1,1364,869,0,0
147,155,0,0,0,0,0,0,0,0,0,-1,1371,869,0,0
154,155,0,0,0,0,0,0,0,0,0,-1,1378,869,0,0
161,155,0,0,0,0,0,0,0,0,0,-1,1385,869,0,0
168,155,0,0,0,0,0,0,0,0,0,-1,1392,869,0,0
175,155,0,0,0,0,0,0,0,0,0,-1,1399,869,0,0
182,155,0,0,0,0,0,0,0,0,0,-1,1406,869,0,0
189,155,0,0,0,0,0,0,0,0,0,-1,1413,869,0,0
196,155,0,0,0,0,0,0,0,0,0,-1,1420,869,0,0
203,155,0,0,0,0,0,0,0,0,0,-1,1427,869,0,0
210,155,0,0,0,0,0,0,0,0,0,-1,1434,869,0,0
217,155,0,0,0,0,0,0,0,0,0,-1,1441,869,0,0
224,155,0,0,0,0,0,0,0,0,0,-1,1448,869,0,0
231,155,0,0,0,0,0,0,0,0,0,-1,1455,869,0,0
238,155,0,0,0,0,0,0,0,0,0,-1,1462,869,0,0
245,155,0,0,0,0,0,0,0,0,0,-1,1469,869,0,0
252,155,0,0,0,0,0,0,0,0,0,-1,1476,869,0,0
259,155,0,0,0,0,0,0,0,0,0,-1,1483,869,0,0
266,155,0,0,0,0,0,0,0,0,0,-1,1490,869,0,0
273,155,0,0,0,0,0,0,0,0,0,-1,1497,869,0,0
280,155,0,0,0,0,0,0,0,0,0,-1,1504,869,0,0
287,155,0,0,0,0,0,0,0,0,0,-1,1511,869,0,0
294,155,0,0,0,0,0,0,0,0,0,-1,1518,869,0,0
301,155,0,0,0,0,0,0,0,0,0,-1,1525,869,0,0
308,155,0,0,0,0,0,0,0,0,0,-1,1532,869,0,0
315,155,0,0,0,0,0,0,0,0,0,-1,1539,869,0,0
322,155,0,0,0,0,0,0,0,0,0,-1,1546,869,0,0
329,155,0,0,0,0,0,0,0,0,0,-1,1553,869,0,0
336,155,0,0,0,0,0,0,0,0,0,-1,1560,869,0,0
343,155,0,0,0,0,0,0,0,0,0,-1,1567,869,0,0
350,155,0,0,0,0,0,0,0,0,0,-1,1574,869,0,0
357,155,0,0,0,0,0,0,0,0,0,-1,1581,869,0,0
364,155,0,0,0,0,0,0,0,0,0,-1,1588,869,0,0
371,155,0,0,0,0,0,0,0,0,0,-1,1595,869,0,0
378,155,0,0,0,0,0,0,0,0,0,-1,1602,869,0,0
385,155,0,0,0,0,0,0,0,0,0,-1,1609,869,0,0
392,155,0,0,0,0,0,0,0,0,0,-1,1616,869,0,0
399,155,0,0,0,0,0,0,0,0,0,-1,1623,869,0,0
406,155,0,0,0,0,0,0,0,0,0,-1,1630,869,0,0
413,155,0,0,0,0,0,0,0,0,0,-1,1637,869,0,0
420,155,0,0,0,0,0,0,0,0,0,-1,1644,869,0,0
427,155,0,0,0,0,0,0,0,0,0,-1,1651,869,0,0
434,155,0,0,0,0,0,0,0,0,0,-1,1658,869,0,0
441,155,0,0,0,0,0,0,0,0,0,-1,1665,869,0,0
448,155,0,0,0,0,0,0,0,0,0,-1,1672,869,0,0
455,155,0,0,0,0,0,0,0,0,0,-1,1679,869,0,0
462,155,0,0,0,0,0,0,0,0,0,-1,1686,869,0,0
469,155,0,0,0,0,0,0,0,0,0,-1,1693,869,0,0
476,155,0,0,0,0,0,0,0,0,0,-1,1700,869,0,0
483,155,0,0,0,0,0,0,0,0,0,-1,1707,869,0,0
490,155,0,0,0,0,0,0,0,0,0,-1,1714,869,0,0
497,155,0,0,0,0,0,0,0,0,0,-1,1721,869,0,0
504,155,0,0,0,0,0,0,0,0,0,-1,1728,869,0,0
511,155,0,0,0,0,0,0,0,0,0,-1,1735,869,0,0
518,155,0,0,0,0,0,0,0,0,0,-1,1742,869,0,0
525,155,0,0,0,0,0,0,0,0,0,-1,1749,869,0,0
532,155,0,0,0,0,0,0,0,0,0,-1,1756,869,0,0
539,155,0,0,0,0,0,0,0,0,0,-1,1763,869,0,0
546,155,0,0,0,0,0,0,0,0,0,-1,1770,869,0,0
553,155,0,0,0,0,0,0,0,0,0,-1,1777,869,0,0
560,155,0,0,0,0,0,0,0,0,0,-1,1784,869,0,0
567,155,0,0,0,0,0,0,0,0,0,-1,1791,869,0,0
574,155,0,0,0,0,0,0,0,0,0,-1,1798,869,0,0
581,155,0,0,0,0,0,0,0,0,0,-1,1805,869,0,0
588,155,0,0,0,0,0,0,0,0,0,-1,1812,869,0,0
595,155,0,0,0,0,0,0,0,0,0,-1,1819,869,0,0
602,155,0,0,0,0,0,0,0,0,0,-1,1826,869,0,0
609,155,0,0,0,0,0,0,0,0,0,-1,1833,869,0,0
616,155,47.9613,2.92651,0.00481405,-0.0135732,-0.00182603,0.00499364,-0.0137528,-0.098034,0.0112101,0.0460658,1840,869,47.9613,-2.92651
623,155,47.9502,3.07141,0.00361604,-0.010911,-0.000979447,0.00368178,-0.0109767,-0.0670181,0.00880551,0.044,1847,869,47.9502,-3.07139
630,155,47.9609,2.98828,0.00269992,-0.00855007,-0.00045127,0.00271799,-0.00856814,-0.0400273,0.00680159,0.0424851,1854,869,47.9609,-2.98829
637,155,48.0035,2.84857,0.00191719,-0.00624831,-6.26437e-05,0.00191767,-0.00624879,-0.00767115,0.00493099,0.0399001,1861,869,48.0035,-2.8486
644,155,48.0605,2.85657,0.00123272,-0.00458348,-2.81004e-05,0.00123285,-0.00458362,-0.00483124,0.00353902,0.0364767,1868,869,48.0605,-2.85658
651,155,48.1178,2.76355,0.000771237,-0.00353646,-0.000133162,0.00077535,-0.00354058,-0.0308733,0.00265682,0.0328647,1875,869,48.1178,-2.76355
658,155,48.0659,2.75934,0.000346974,-0.00291605,-0.000374778,0.000389466,-0.00295854,-0.112897,0.00211418,0.0281946,1882,869,48.066,-2.75931
665,155,48.0029,2.80676,6.39306e-05,-0.00247313,-0.000659281,0.000225023,-0.00263422,-0.23965,0.00183576,0.0331166,1889,869,48.003,-2.80674
672,155,47.981,2.82642,0,0,0,0,0,0,0,-1,1896,869,47.981,-2.82644
679,155,35.1565,2.78528,0,0,0,0,0,0,0,-1,1903,869,35.1565,-2.7853
686,155,40.6039,1.86279,0,0,0,0,0,0,0,-1,1910,869,40.6039,-1.86282
693,155,40.4019,2.28217,-0.000542006,-0.000955712,-0.00129304,0.000560621,-0.00205834,-0.706083,0.00159234,0.0431282,1917,869,40.4018,-2.28215
700,155,40.4429,2.81952,-0.000592095,-0.000798365,-0.00137132,0.000679966,-0.00207043,-0.747865,0.0016542,0.0304033,1924,869,40.4429,-2.81953
707,155,40.4806,3.35663,-0.000497131,-0.000687152,-0.00120325,0.000614853,-0.00179914,-0.745999,0.00144855,0.0217623,1931,869,40.4806,-3.35662
714,155,40.4584,3.78424,-0.000252867,-0.000225787,-0.00111434,0.000875098,-0.00135375,-0.791473,0.00129668,0.0429795,1938,869,40.4584,-3.78422
721,155,40.202,4.26019,0.000172843,0.000510895,-0.00113933,0.00149366,-0.000809927,-0.859039,0.00134937,0.0312636,1945,869,40.2021,-4.26017
728,155,40.1414,4.77411,0.000735979,0.00132745,-0.00113279,0.00220247,-0.000139048,-0.913082,0.00151679,0.0195051,1952,869,40.1413,-4.77414
735,155,40.139,5.26221,0.00172977,0.00233041,-0.00123567,0.00330173,0.000758445,-0.904609,0.00199694,0.0151558,1959,869,40.139,-5.26219
742,155,40.1625,5.76324,0.00327715,0.00363171,-0.00151366,0.00497844,0.00193042,-0.843693,0.00289834,0.0172284,1966,869,40.1625,-5.76325
749,155,40.0619,6.24194,0.00546837,0.00518841,-0.00208625,0.00741933,0.00323745,-0.751901,0.0042951,0.0165234,1973,869,40.0619,-6.24195
756,155,40.0093,6.81836,0.00858086,0.00711667,-0.00301018,0.0109467,0.00475084,-0.666111,0.0063384,0.0283157,1980,869,40.0093,-6.81837
763,155,40.2169,7.62262,0.0126892,0.0094622,-0.00454753,0.015901,0.00625043,-0.61492,0.00925016,0.0451484,1987,869,40.2169,-7.62259
770,155,40.244,8.14484,0.0186317,0.0126256,-0.00731181,0.0235331,0.00772416,-0.590544,0.0138516,0.0472751,1994,869,40.244,-8.14487
777,155,40.183,8.57806,0,0,0,0,0,0,0,-1,2001,869,40.1829,-8.57806
784,155,38.9619,9.88068,0,0,0,0,0,0,0,-1,2008,869,38.9619,-9.88066
791,155,0,0,0,0,0,0,0,0,0,-1,2015,869,0,0
798,155,0,0,0,0,0,0,0,0,0,-1,2022,869,0,0
805,155,0,0,0,0,0,0,0,0,0,-1,2029,869,0,0
812,155,0,0,0,0,0,0,0,0,0,-1,2036,869,0,0
-700,148,0,0,0,0,0,0,0,0,0,-1,524,876,0,0
-693,148,0,0,0,0,0,0,0,0,0,-1,531,876,0,0
-686,148,0,0,0,0,0,0,0,0,0,-1,538,876,0,0
-679,148,0,0,0,0,0,0,0,0,0,-1,545,876,0,0
-672,148,-27.0593,4.11377,0,0,0,0,0,0,0,-1,552,876,-27.0593,-4.11379
-665,148,-27.9471,4.16602,0,0,0,0,0,0,0,-1,559,876,-27.9472,-4.16604
-658,148,-29.5823,4.6098,0,0,0,0,0,0,0,-1,566,876,-29.5823,-4.6098
-651,148,-32.3823,0.443176,0,0,0,0,0,0,0,-1,573,876,-32.3823,-0.443187
-644,148,-32.8326,-0.11792,0,0,0,0,0,0,0,-1,580,876,-32.8326,0.117905
-637,148,-30.7917,2.54272,0,0,0,0,0,0,0,-1,587,876,-30.7917,-2.54272
-630,148,-29.3958,4.77496,0,0,0,0,0,0,0,-1,594,876,-29.3958,-4.77495
-623,148,-29.5234,4.17676,0.00265483,0.00946428,0.00671865,0.0135916,-0.00147254,1.01992,0.00958971,0.0268527,601,876,-29.5234,-4.17677
-616,148,-29.6424,3.60455,-0.000829459,0.00668865,0.00472357,0.00896636,-0.00310718,1.12149,0.0072391,0.0144619,608,876,-29.6424,-3.60455
-609,148,-29.7263,3.0929,-0.00244648,0.00465932,0.00369716,0.006234,-0.00402116,1.16815,0.00596659,0.0132782,615,876,-29.7263,-3.09288
-602,148,-29.7891,2.61169,-0.00228113,0.00286482,0.00316238,0.00436871,-0.00378502,1.12689,0.00471158,0.0138108,622,876,-29.7891,-2.61172
-595,148,-29.8095,2.12335,-0.00182594,0.00155811,0.00266794,0.00302533,-0.00329316,1.06799,0.00364907,0.0117022,629,876,-29.8095,-2.12333
-588,148,-29.7986,1.60358,-0.00108187,0.000740883,0.00237031,0.002369,-0.00270998,0.968933,0.00293455,0.0221272,636,876,-29.7986,-1.60357
-581,148,-29.9504,1.25708,-0.00056429,0.000145258,0.00214086,0.00196054,-0.00237957,0.86751,0.00250965,0.0380872,643,876,-29.9504,-1.25707
-574,148,-29.6712,0.897156,-0.000437152,-0.000182391,0.00192855,0.00162298,-0.00224252,0.818375,0.00224128,0.0434248,650,876,-29.6712,-0.897184
-567,148,-29.8922,0.457336,0,0,0,0,0,0,0,-1,657,876,-29.8921,-0.457315
-560,148,-29.9856,-0.234985,0,0,0,0,0,0,0,-1,664,876,-29.9856,0.235007
-553,148,-18.3896,-0.00280762,0,0,0,0,0,0,0,-1,671,876,-18.3897,0.00278524
-546,148,-35.9843,0.966553,0,0,0,0,0,0,0,-1,678,876,-35.9843,-0.966541
-539,148,-35.9543,0.949951,0.0006368,0.000218609,0.000891229,0.00134313,-0.000487724,0.670175,0.00109483,0.0355852,685,876,-35.9543,-0.949981
-532,148,-35.9219,1.06061,0.00082196,0.000518842,0.000566003,0.00125635,8.44577e-05,0.654582,0.000810878,0.0354824,692,876,-35.9219,-1.06058
-525,148,-35.8856,1.22791,0.000518285,0.00078775,0.000163888,0.000865178,0.000440856,1.12943,0.000499541,0.0379177,699,876,-35.8856,-1.22791
-518,148,-35.8812,1.27795,2.58438e-05,0.00106496,-0.000189803,0.00109854,-7.74011e-06,-1.39567,0.000734954,0.0428023,706,876,-35.8811,-1.27795
-511,148,-35.7386,1.28784,0.000351607,0.00114705,-0.000677269,0.00153474,-3.60867e-05,-1.05089,0.0010354,0.0403781,713,876,-35.7386,-1.28784
-504,148,-35.7801,1.27185,0.00229853,0.00177353,-0.00112312,0.00318942,0.000882639,-0.670596,0.00190162,0.0412157,720,876,-35.7801,-1.27188
-497,148,0,0,0,0,0,0,0,0,0,-1,727,876,0,0
-490,148,0,0,0,0,0,0,0,0,0,-1,734,876,0,0
-483,148,0,0,0,0,0,0,0,0,0,-1,741,876,0,0
-476,148,0,0,0,0,0,0,0,0,0,-1,748,876,0,0
-469,148,0,0,0,0,0,0,0,0,0,-1,755,876,0,0
-462,148,0,0,0,0,0,0,0,0,0,-1,762,876,0,0
-455,148,0,0,0,0,0,0,0,0,0,-1,769,876,0,0
-448,148,0,0,0,0,0,0,0,0,0,-1,776,876,0,0
-441,148,0,0,0,0,0,0,0,0,0,-1,783,876,0,0
-434,148,0,0,0,0,0,0,0,0,0,-1,790,876,0,0
-427,148,0,0,0,0,0,0,0,0,0,-1,797,876,0,0
-420,148,0,0,0,0,0,0,0,0,0,-1,804,876,0,0
-413,148,0,0,0,0,0,0,0,0,0,-1,811,876,0,0
-406,148,0,0,0,0,0,0,0,0,0,-1,818,876,0,0
-399,148,0,0,0,0,0,0,0,0,0,-1,825,876,0,0
-392,148,0,0,0,0,0,0,0,0,0,-1,832,876,0,0
-385,148,0,0,0,0,0,0,0,0,0,-1,839,876,0,0
-378,148,0,0,0,0,0,0,0,0,0,-1,846,876,0,0
-371,148,0,0,0,0,0,0,0,0,0,-1,853,876,0,0
-364,148,0,0,0,0,0,0,0,0,0,-1,860,876,0,0
-357,148,0,0,0,0,0,0,0,0,0,-1,867,876,0,0
-350,148,0,0,0,0,0,0,0,0,0,-1,874,876,0,0
-343,148,0,0,0,0,0,0,0,0,0,-1,881,876,0,0
-336,148,0,0,0,0,0,0,0,0,0,-1,888,876,0,0
-329,148,0,0,0,0,0,0,0,0,0,-1,895,876,0,0
-322,148,0,0,0,0,0,0,0,0,0,-1,902,876,0,0
-315,148,0,0,0,0,0,0,0,0,0,-1,909,876,0,0
-308,148,0,0,0,0,0,0,0,0,0,-1,916,876,0,0
-301,148,0,0,0,0,0,0,0,0,0,-1,923,876,0,0
-294,148,0,0,0,0,0,0,0,0,0,-1,930,876,0,0
-287,148,0,0,0,0,0,0,0,0,0,-1,937,876,0,0
-280,148,0,0,0,0,0,0,0,0,0,-1,944,876,0,0
-273,148,0,0,0,0,0,0,0,0,0,-1,951,876,0,0
-266,148,0,0,0,0,0,0,0,0,0,-1,958,876,0,0
-259,148,0,0,0,0,0,0,0,0,0,-1,965,876,0,0
-252,148,0,0,0,0,0,0,0,0,0,-1,972,876,0,0
-245,148,0,0,0,0,0,0,0,0,0,-1,979,876,0,0
-238,148,0,0,0,0,0,0,0,0,0,-1,986,876,0,0
-231,148,0,0,0,0,0,0,0,0,0,-1,993,876,0,0
-224,148,0,0,0,0,0,0,0,0,0,-1,1000,876,0,0
-217,148,0,0,0,0,0,0,0,0,0,-1,1007,876,0,0
-210,148,0,0,0,0,0,0,0,0,0,-1,1014,876,0,0
-203,148,0,0,0,0,0,0,0,0,0,-1,1021,876,0,0
-196,148,0,0,0,0,0,0,0,0,0,-1,1028,876,0,0
-189,148,0,0,0,0,0,0,0,0,0,-1,1035,876,0,0
-182,148,0,0,0,0,0,0,0,0,0,-1,1042,876,0,0
-175,148,0,0,0,0,0,0,0,0,0,-1,1049,876,0,0
-168,148,0,0,0,0,0,0,0,0,0,-1,1056,876,0,0
-161,148,0,0,0,0,0,0,0,0,0,-1,1063,876,0,0
-154,148,0,0,0,0,0,0,0,0,0,-1,1070,876,0,0
-147,148,0,0,0,0,0,0,0,0,0,-1,1077,876,0,0
-140,148,0,0,0,0,0,0,0,0,0,-1,1084,876,0,0
-133,148,0,0,0,0,0,0,0,0,0,-1,1091,876,0,0
-126,148,0,0,0,0,0,0,0,0,0,-1,1098,876,0,0
-119,148,0,0,0,0,0,0,0,0,0,-1,1105,876,0,0
-112,148,0,0,0,0,0,0,0,0,0,-1,1112,876,0,0
-105,148,0,0,0,0,0,0,0,0,0,-1,1119,876,0,0
-98,148,0,0,0,0,0,0,0,0,0,-1,1126,876,0,0
-91,148,0,0,0,0,0,0,0,0,0,-1,1133,876,0,0
-84,148,0,0,0,0,0,0,0,0,0,-1,1140,876,0,0
-77,148,0,0,0,0,0,0,0,0,0,-1,1147,876,0,0
-70,148,0,0,0,0,0,0,0,0,0,-1,1154,876,0,0
-63,148,0,0,0,0,0,0,0,0,0,-1,1161,876,0,0
-56,148,0,0,0,0,0,0,0,0,0,-1,1168,876,0,0
-49,148,0,0,0,0,0,0,0,0,0,-1,1175,876,0,0
-42,148,0,0,0,0,0,0,0,0,0,-1,1182,876,0,0
-35,148,0,0,0,0,0,0,0,0,0,-1,1189,876,0,0
-28,148,0,0,0,0,0,0,0,0,0,-1,1196,876,0,0
-21,148,0,0,0,0,0,0,0,0,0,-1,1203,876,0,0
-14,148,0,0,0,0,0,0,0,0,0,-1,1210,876,0,0
-7,148,0,0,0,0,0,0,0,0,0,-1,1217,876,0,0
0,148,0,0,0,0,0,0,0,0,0,-1,1224,876,0,0
7,148,0,0,0,0,0,0,0,0,0,-1,1231,876,0,0
14,148,0,0,0,0,0,0,0,0,0,-1,1238,876,0,0
21,148,0,0,0,0,0,0,0,0,0,-1,1245,876,0,0
28,148,0,0,0,0,0,0,0,0,0,-1,1252,876,0,0
35,148,0,0,0,0,0,0,0,0,0,-1,1259,876,0,0
42,148,0,0,0,0,0,0,0,0,0,-1,1266,876,0,0
49,148,0,0,0,0,0,0,0,0,0,-1,1273,876,0,0
56,148,0,0,0,0,0,0,0,0,0,-1,1280,876,0,0
63,148,0,0,0,0,0,0,0,0,0,-1,1287,876,0,0
70,148,0,0,0,0,0,0,0,0,0,-1,1294,876,0,0
77,148,0,0,0,0,0,0,0,0,0,-1,1301,876,0,0
84,148,0,0,0,0,0,0,0,0,0,-1,1308,876,0,0
91,148,0,0,0,0,0,0,0,0,0,-1,1315,876,0,0
98,148,0,0,0,0,0,0,0,0,0,-1,1322,876,0,0
105,148,0,0,0,0,0,0,0,0,0,-1,1329,876,0,0
112,148,0,0,0,0,0,0,0,0,0,-1,1336,876,0,0
119,148,0,0,0,0,0,0,0,0,0,-1,1343,876,0,0
126,148,0,0,0,0,0,0,0,0,0,-1,1350,876,0,0
133,148,0,0,0,0,0,0,0,0,0,-1,1357,876,0,0
140,148,0,0,0,0,0,0,0,0,0,-1,1364,876,0,0
147,148,0,0,0,0,0,0,0,0,0,-1,1371,876,0,0
154,148,0,0,0,0,0,0,0,0,0,-1,1378,876,0,0
161,148,0,0,0,0,0,0,0,0,0,-1,1385,876,0,0
168,148,0,0,0,0,0,0,0,0,0,-1,1392,876,0,0
175,148,0,0,0,0,0,0,0,0,0,-1,1399,876,0,0
182,148,0,0,0,0,0,0,0,0,0,-1,1406,876,0,0
189,148,0,0,0,0,0,0,0,0,0,-1,1413,876,0,0
196,148,0,0,0,0,0,0,0,0,0,-1,1420,876,0,0
203,148,0,0,0,0,0,0,0,0,0,-1,1427,876,0,0
210,148,0,0,0,0,0,0,0,0,0,-1,1434,876,0,0
217,148,0,0,0,0,0,0,0,0,0,-1,1441,876,0,0
224,148,0,0,0,0,0,0,0,0,0,-1,1448,876,0,0
231,148,0,0,0,0,0,0,0,0,0,-1,1455,876,0,0
238,148,0,0,0,0,0,0,0,0,0,-1,1462,876,0,0
245,148,0,0,0,0,0,0,0,0,0,-1,1469,876,0,0
252,148,0,0,0,0,0,0,0,0,0,-1,1476,876,0,0
259,148,0,0,0,0,0,0,0,0,0,-1,1483,876,0,0
266,148,0,0,0,0,0,0,0,0,0,-1,1490,876,0,0
273,148,0,0,0,0,0,0,0,0,0,-1,1497,876,0,0
280,148,0,0,0,0,0,0,0,0,0,-1,1504,876,0,0
287,148,0,0,0,0,0,0,0,0,0,-1,1511,876,0,0
294,148,0,0,0,0,0,0,0,0,0,-1,1518,876,0,0
301,148,0,0,0,0,0,0,0,0,0,-1,1525,876,0,0
308,148,0,0,0,0,0,0,0,0,0,-1,1532,876,0,0
315,148,0,0,0,0,0,0,0,0,0,-1,1539,876,0,0
322,148,0,0,0,0,0,0,0,0,0,-1,1546,876,0,0
329,148,0,0,0,0,0,0,0,0,0,-1,1553,876,0,0
336,148,0,0,0,0,0,0,0,0,0,-1,1560,876,0,0
343,148,0,0,0,0,0,0,0,0,0,-1,1567,876,0,0
350,148,0,0,0,0,0,0,0,0,0,-1,1574,876,0,0
357,148,0,0,0,0,0,0,0,0,0,-1,1581,876,0,0
364,148,0,0,0,0,0,0,0,0,0,-1,1588,876,0,0
371,148,0,0,0,0,0,0,0,0,0,-1,1595,876,0,0
378,148,0,0,0,0,0,0,0,0,0,-1,1602,876,0,0
385,148,0,0,0,0,0,0,0,0,0,-1,1609,876,0,0
392,148,0,0,0,0,0,0,0,0,0,-1,1616,876,0,0
399,148,0,0,0,0,0,0,0,0,0,-1,1623,876,0,0
406,148,0,0,0,0,0,0,0,0,0,-1,1630,876,0,0
413,148,0,0,0,0,0,0,0,0,0,-1,1637,876,0,0
420,148,0,0,0,0,0,0,0,0,0,-1,1644,876,0,0
427,148,0,0,0,0,0,0,0,0,0,-1,1651,876,0,0
434,148,0,0,0,0,0,0,0,0,0,-1,1658,876,0,0
441,148,0,0,0,0,0,0,0,0,0,-1,1665,876,0,0
448,148,0,0,0,0,0,0,0,0,0,-1,1672,876,0,0
455,148,0,0,0,0,0,0,0,0,0,-1,1679,876,0,0
462,148,0,0,0,0,0,0,0,0,0,-1,1686,876,0,0
469,148,0,0,0,0,0,0,0,0,0,-1,1693,876,0,0
476,148,0,0,0,0,0,0,0,0,0,-1,1700,876,0,0
483,148,0,0,0,0,0,0,0,0,0,-1,1707,876,0,0
490,148,0,0,0,0,0,0,0,0,0,-1,1714,876,0,0
497,148,0,0,0,0,0,0,0,0,0,-1,1721,876,0,0
504,148,0,0,0,0,0,0,0,0,0,-1,1728,876,0,0
511,148,0,0,0,0,0,0,0,0,0,-1,1735,876,0,0
518,148,0,0,0,0,0,0,0,0,0,-1,1742,876,0,0
525,148,0,0,0,0,0,0,0,0,0,-1,1749,876,0,0
532,148,0,0,0,0,0,0,0,0,0,-1,1756,876,0,0
539,148,0,0,0,0,0,0,0,0,0,-1,1763,876,0,0
546,148,0,0,0,0,0,0,0,0,0,-1,1770,876,0,0
553,148,0,0,0,0,0,0,0,0,0,-1,1777,876,0,0
560,148,0,0,0,0,0,0,0,0,0,-1,1784,876,0,0
567,148,0,0,0,0,0,0,0,0,0,-1,1791,876,0,0
574,148,0,0,0,0,0,0,0,0,0,-1,1798,876,0,0
581,148,0,0,0,0,0,0,0,0,0,-1,1805,876,0,0
588,148,0,0,0,0,0,0,0,0,0,-1,1812,876,0,0
595,148,0,0,0,0,0,0,0,0,0,-1,1819,876,0,0
602,148,0,0,0,0,0,0,0,0,0,-1,1826,876,0,0
609,148,0,0,0,0,0,0,0,0,0,-1,1833,876,0,0
616,148,0,0,0,0,0,0,0,0,0,-1,1840,876,0,0
623,148,47.9198,2.92767,0.0034981,-0.0119628,-0.00170771,0.00368447,-0.0121492,-0.108707,0.00956709,0.0429464,1847,876,47.9198,-2.92769
630,148,47.8187,2.98169,0.00261147,-0.00951774,-0.000969336,0.00268844,-0.00959472,-0.0792472,0.00745598,0.0402602,1854,876,47.8187,-2.9817
637,148,47.954,2.98407,0.00187878,-0.0071418,-0.000468387,0.00190303,-0.00716606,-0.0517388,0.00552212,0.0359258,1861,876,47.954,-2.98409
644,148,48.0878,2.91718,0.00121453,-0.00527455,-0.000345081,0.00123283,-0.00529285,-0.0529796,0.0040033,0.0358769,1868,876,48.0877,-2.91717
651,148,48.1783,2.69824,0.000751746,-0.00398785,-0.000385513,0.000782898,-0.004019,-0.0806325,0.00297484,0.0376365,1875,876,48.1783,-2.69821
658,148,48.1083,2.80646,0.000341096,-0.00316742,-0.000545645,0.000423996,-0.00325032,-0.150777,0.00232116,0.0337146,1882,876,48.1083,-2.80644
665,148,47.9343,2.94104,9.87679e-05,-0.00262149,-0.000794792,0.000313962,-0.00283669,-0.264416,0.00200399,0.0247352,1889,876,47.9343,-2.94106
672,148,47.9933,2.81293,-7.73868e-05,-0.00224948,-0.000902816,0.000248861,-0.00257573,-0.346765,0.00180583,0.0282014,1896,876,47.9933,-2.8129
679,148,48.0699,2.66364,0,0,0,0,0,0,0,-1,1903,876,48.0699,-2.66366
686,148,21.6195,2.40845,0,0,0,0,0,0,0,-1,1910,876,21.6196,-2.40846
693,148,41.1221,2.37061,0,0,0,0,0,0,0,-1,1917,876,41.122,-2.37063
700,148,40.9626,2.88116,-0.000453669,-0.000770914,-0.00136633,0.000763217,-0.0019878,-0.72761,0.00163992,0.033181,1924,876,40.9626,-2.88115
707,148,41.0707,3.52887,-0.00035991,-0.000569412,-0.00120155,0.000741451,-0.00167077,-0.741918,0.00142673,0.0275208,1931,876,41.0707,-3.52888
714,148,41.1036,3.86664,0,0,0,0,0,0,0,-1,1938,876,41.1036,-3.86664
721,148,40.7177,4.27368,0.000123118,0.000637698,-0.00105896,0.00147018,-0.000709364,-0.904571,0.00128366,0.0225353,1945,876,40.7176,-4.27365
728,148,40.6881,4.77301,0.000440758,0.00149888,-0.000898492,0.0020125,-7.28675e-05,-1.05148,0.00136661,0.0219075,1952,876,40.6881,-4.77298
735,148,40.6925,5.28613,0.00114116,0.00261718,-0.000724268,0.0029132,0.000845139,-1.18279,0.00173063,0.0194561,1959,876,40.6925,-5.28611
742,148,40.6444,5.78021,0.0023274,0.00402063,-0.000588439,0.00420504,0.00214299,-1.2671,0.00242793,0.0204231,1966,876,40.6444,-5.78022
749,148,40.5476,6.24756,0.00411317,0.00566685,-0.000547045,0.00584013,0.00393988,-1.26403,0.00343966,0.0197566,1973,876,40.5476,-6.24758
756,148,40.4685,6.80652,0.00672474,0.00752201,-0.000591139,0.00783636,0.00641038,-1.08205,0.00481975,0.0244967,1980,876,40.4685,-6.80649
763,148,40.5425,7.349,0.0102045,0.00946031,-0.000885038,0.0107925,0.00887234,-0.586395,0.00664803,0.0452538,1987,876,40.5425,-7.349
770,148,40.6121,7.93365,0.0154969,0.0115898,-0.00186297,0.0162428,0.0108439,-0.380835,0.0095518,0.049664,1994,876,40.612,-7.93365
777,148,40.6736,8.52142,0,0,0,0,0,0,0,-1,2001,876,40.6736,-8.52144
784,148,40.4189,9.19659,0,0,0,0,0,0,0,-1,2008,876,40.4189,-9.19662
791,148,40.6108,9.98114,0,0,0,0,0,0,0,-1,2015,876,40.6108,-9.98111
798,148,0,0,0,0,0,0,0,0,0,-1,2022,876,0,0
805,148,0,0,0,0,0,0,0,0,0,-1,2029,876,0,0
812,148,0,0,0,0,0,0,0,0,0,-1,2036,876,0,0
-700,141,0,0,0,0,0,0,0,0,0,-1,524,883,0,0
-693,141,0,0,0,0,0,0,0,0,0,-1,531,883,0,0
-686,141,0,0,0,0,0,0,0,0,0,-1,538,883,0,0
-679,141,0,0,0,0,0,0,0,0,0,-1,545,883,0,0
-672,141,-27.1796,5.43048,0,0,0,0,0,0,0,-1,552,883,-27.1797,-5.43046
-665,141,-28.5873,4.51385,0,0,0,0,0,0,0,-1,559,883,-28.5873,-4.51388
-658,141,-32.3431,1.59045,0,0,0,0,0,0,0,-1,566,883,-32.3431,-1.59046
-651,141,-32.7885,1.06683,0,0,0,0,0,0,0,-1,573,883,-32.7884,-1.06683
-644,141,-33.2145,0.52594,0,0,0,0,0,0,0,-1,580,883,-33.2145,-0.52596
-637,141,-31.0708,4.99371,0,0,0,0,0,0,0,-1,587,883,-31.0708,-4.99369
-630,141,-30.5826,4.66351,0,0,0,0,0,0,0,-1,594,883,-30.5826,-4.66351
-623,141,-29.9698,4.10211,0.00481871,0.00815294,0.00873902,0.0153824,-0.00241079,0.879649,0.0111458,0.0295173,601,883,-29.9698,-4.10213
-616,141,-30.141,3.5481,0.000287457,0.00569291,0.00598418,0.00955639,-0.00357603,0.997509,0.00783969,0.01349,608,883,-30.141,-3.54809
-609,141,-30.2275,3.0816,-0.00218577,0.00398531,0.00440258,0.00627595,-0.0044764,1.09105,0.00623679,0.0138233,615,883,-30.2275,-3.08161
-602,141,-30.27,2.62012,-0.0026166,0.00243402,0.00350499,0.00422868,-0.00441126,1.09757,0.00498864,0.0134535,622,883,-30.27,-2.62012
-595,141,-30.259,2.13739,-0.00261392,0.00134815,0.00276839,0.0027713,-0.00403707,1.09595,0.00395339,0.0137699,629,883,-30.2591,-2.13742
-588,141,-30.5403,1.69537,-0.00210487,0.000662046,0.00238835,0.00203869,-0.00348151,1.04791,0.00322318,0.0284749,636,883,-30.5404,-1.69535
-581,141,-30.4735,1.24701,-0.0017084,0.000124647,0.00213727,0.00153362,-0.00311738,0.987953,0.00273666,0.0389735,643,883,-30.4735,-1.247
-574,141,-30.1845,0.836853,0,0,0,0,0,0,0,-1,650,883,-30.1845,-0.836873
-567,141,-29.8736,0.530823,0,0,0,0,0,0,0,-1,657,883,-29.8736,-0.530808
-560,141,-29.8921,0.179199,0,0,0,0,0,0,0,-1,664,883,-29.8921,-0.179197
-553,141,-32.0876,1.39459,0,0,0,0,0,0,0,-1,671,883,-32.0876,-1.3946
-546,141,-35.8787,1.0434,0,0,0,0,0,0,0,-1,678,883,-35.8787,-1.04338
-539,141,-35.8694,0.991577,0.000222805,-0.000280224,0.000826627,0.000835334,-0.000892754,0.637715,0.000997895,0.0291172,685,883,-35.8694,-0.991602
-532,141,-35.8868,1.06036,0.000631307,-0.000113467,0.000518164,0.000897016,-0.000379175,0.473826,0.000756758,0.0291782,692,883,-35.8869,-1.06034
-525,141,-35.8824,1.12012,0.000555147,4.97446e-05,0.000124111,0.00058398,2.09118e-05,0.228266,0.00038254,0.0382448,699,883,-35.8824,-1.12009
-518,141,-35.965,1.01483,0.0003042,0.000295665,-0.000254505,0.000554473,4.53925e-05,-0.777015,0.000355485,0.0444875,706,883,-35.965,-1.01484
-511,141,-35.9398,1.09625,0.000845939,0.000614317,-0.000683086,0.00142296,3.7294e-05,-0.701426,0.000936458,0.0409985,713,883,-35.9398,-1.09623
-504,141,-35.8634,1.1026,0.00296319,0.00189036,-0.00101949,0.00357877,0.00127477,-0.543221,0.00209449,0.0420234,720,883,-35.8634,-1.10257
-497,141,0,0,0,0,0,0,0,0,0,-1,727,883,0,0
-490,141,0,0,0,0,0,0,0,0,0,-1,734,883,0,0
-483,141,0,0,0,0,0,0,0,0,0,-1,741,883,0,0
-476,141,0,0,0,0,0,0,0,0,0,-1,748,883,0,0
-469,141,0,0,0,0,0,0,0,0,0,-1,755,883,0,0
-462,141,0,0,0,0,0,0,0,0,0,-1,762,883,0,0
-455,141,0,0,0,0,0,0,0,0,0,-1,769,883,0,0
-448,141,0,0,0,0,0,0,0,0,0,-1,776,883,0,0
-441,141,0,0,0,0,0,0,0,0,0,-1,783,883,0,0
-434,141,0,0,0,0,0,0,0,0,0,-1,790,883,0,0
-427,141,0,0,0,0,0,0,0,0,0,-1,797,883,0,0
-420,141,0,0,0,0,0,0,0,0,0,-1,804,883,0,0
-413,141,0,0,0,0,0,0,0,0,0,-1,811,883,0,0
-406,141,0,0,0,0,0,0,0,0,0,-1,818,883,0,0
-399,141,0,0,0,0,0,0,0,0,0,-1,825,883,0,0
-392,141,0,0,0,0,0,0,0,0,0,-1,832,883,0,0
-385,141,0,0,0,0,0,0,0,0,0,-1,839,883,0,0
-378,141,0,0,0,0,0,0,0,0,0,-1,846,883,0,0
-371,141,0,0,0,0,0,0,0,0,0,-1,853,883,0,0
-364,141,0,0,0,0,0,0,0,0,0,-1,860,883,0,0
-357,141,0,0,0,0,0,0,0,0,0,-1,867,883,0,0
-350,141,0,0,0,0,0,0,0,0,0,-1,874,883,0,0
-343,141,0,0,0,0,0,0,0,0,0,-1,881,883,0,0
-336,141,0,0,0,0,0,0,0,0,0,-1,888,883,0,0
-329,141,0,0,0,0,0,0,0,0,0,-1,895,883,0,0
-322,141,0,0,0,0,0,0,0,0,0,-1,902,883,0,0
-315,141,0,0,0,0,0,0,0,0,0,-1,909,883,0,0
-308,141,0,0,0,0,0,0,0,0,0,-1,916,883,0,0
-301,141,0,0,0,0,0,0,0,0,0,-1,923,883,0,0
-294,141,0,0,0,0,0,0,0,0,0,-1,930,883,0,0
-287,141,0,0,0,0,0,0,0,0,0,-1,937,883,0,0
-280,141,0,0,0,0,0,0,0,0,0,-1,944,883,0,0
-273,141,0,0,0,0,0,0,0,0,0,-1,951,883,0,0
-266,141,0,0,0,0,0,0,0,0,0,-1,958,883,0,0
-259,141,0,0,0,0,0,0,0,0,0,-1,965,883,0,0
-252,141,0,0,0,0,0,0,0,0,0,-1,972,883,0,0
-245,141,0,0,0,0,0,0,0,0,0,-1,979,883,0,0
-238,141,0,0,0,0,0,0,0,0,0,-1,986,883,0,0
-231,141,0,0,0,0,0,0,0,0,0,-1,993,883,0,0
-224,141,0,0,0,0,0,0,0,0,0,-1,1000,883,0,0
-217,141,0,0,0,0,0,0,0,0,0,-1,1007,883,0,0
-210,141,0,0,0,0,0,0,0,0,0,-1,1014,883,0,0
-203,141,0,0,0,0,0,0,0,0,0,-1,1021,883,0,0
-196,141,0,0,0,0,0,0,0,0,0,-1,1028,883,0,0
-189,141,0,0,0,0,0,0,0,0,0,-1,1035,883,0,0
-182,141,0,0,0,0,0,0,0,0,0,-1,1042,883,0,0
-175,141,0,0,0,0,0,0,0,0,0,-1,1049,883,0,0
-168,141,0,0,0,0,0,0,0,0,0,-1,1056,883,0,0
-161,141,0,0,0,0,0,0,0,0,0,-1,1063,883,0,0
-154,141,0,0,0,0,0,0,0,0,0,-1,1070,883,0,0
-147,141,0,0,0,0,0,0,0,0,0,-1,1077,883,0,0
-140,141,0,0,0,0,0,0,0,0,0,-1,1084,883,0,0
-133,141,0,0,0,0,0,0,0,0,0,-1,1091,883,0,0
-126,141,0,0,0,0,0,0,0,0,0,-1,1098,883,0,0
-119,141,0,0,0,0,0,0,0,0,0,-1,1105,883,0,0
-112,141,0,0,0,0,0,0,0,0,0,-1,1112,883,0,0
-105,141,0,0,0,0,0,0,0,0,0,-1,1119,883,0,0
-98,141,0,0,0,0,0,0,0,0,0,-1,1126,883,0,0
-91,141,0,0,0,0,0,0,0,0,0,-1,1133,883,0,0
-84,141,0,0,0,0,0,0,0,0,0,-1,1140,883,0,0
-77,141,0,0,0,0,0,0,0,0,0,-1,1147,883,0,0
-70,141,0,0,0,0,0,0,0,0,0,-1,1154,883,0,0
-63,141,0,0,0,0,0,0,0,0,0,-1,1161,883,0,0
-56,141,0,0,0,0,0,0,0,0,0,-1,1168,883,0,0
-49,141,0,0,0,0,0,0,0,0,0,-1,1175,883,0,0
-42,141,0,0,0,0,0,0,0,0,0,-1,1182,883,0,0
-35,141,0,0,0,0,0,0,0,0,0,-1,1189,883,0,0
-28,141,0,0,0,0,0,0,0,0,0,-1,1196,883,0,0
-21,141,0,0,0,0,0,0,0,0,0,-1,1203,883,0,0
-14,141,0,0,0,0,0,0,0,0,0,-1,1210,883,0,0
-7,141,0,0,0,0,0,0,0,0,0,-1,1217,883,0,0
0,141,0,0,0,0,0,0,0,0,0,-1,1224,883,0,0
7,141,0,0,0,0,0,0,0,0,0,-1,1231,883,0,0
14,141,0,0,0,0,0,0,0,0,0,-1,1238,883,0,0
21,141,0,0,0,0,0,0,0,0,0,-1,1245,883,0,0
28,141,0,0,0,0,0,0,0,0,0,-1,1252,883,0,0
35,141,0,0,0,0,0,0,0,0,0,-1,1259,883,0,0
42,141,0,0,0,0,0,0,0,0,0,-1,1266,883,0,0
49,141,0,0,0,0,0,0,0,0,0,-1,1273,883,0,0
56,141,0,0,0,0,0,0,0,0,0,-1,1280,883,0,0
63,141,0,0,0,0,0,0,0,0,0,-1,1287,883,0,0
70,141,0,0,0,0,0,0,0,0,0,-1,1294,883,0,0
77,141,0,0,0,0,0,0,0,0,0,-1,1301,883,0,0
84,141,0,0,0,0,0,0,0,0,0,-1,1308,883,0,0
91,141,0,0,0,0,0,0,0,0,0,-1,1315,883,0,0
98,141,0,0,0,0,0,0,0,0,0,-1,1322,883,0,0
105,141,0,0,0,0,0,0,0,0,0,-1,1329,883,0,0
112,141,0,0,0,0,0,0,0,0,0,-1,1336,883,0,0
119,141,0,0,0,0,0,0,0,0,0,-1,1343,883,0,0
126,141,0,0,0,0,0,0,0,0,0,-1,1350,883,0,0
133,141,0,0,0,0,0,0,0,0,0,-1,1357,883,0,0
140,141,0,0,0,0,0,0,0,0,0,-1,1364,883,0,0
147,141,0,0,0,0,0,0,0,0,0,-1,1371,883,0,0
154,141,0,0,0,0,0,0,0,0,0,-1,1378,883,0,0
161,141,0,0,0,0,0,0,0,0,0,-1,1385,883,0,0
168,141,0,0,0,0,0,0,0,0,0,-1,1392,883,0,0
175,141,0,0,0,0,0,0,0,0,0,-1,1399,883,0,0
182,141,0,0,0,0,0,0,0,0,0,-1,1406,883,0,0
189,141,0,0,0,0,0,0,0,0,0,-1,1413,883,0,0
196,141,0,0,0,0,0,0,0,0,0,-1,1420,883,0,0
203,141,0,0,0,0,0,0,0,0,0,-1,1427,883,0,0
210,141,0,0,0,0,0,0,0,0,0,-1,1434,883,0,0
217,141,0,0,0,0,0,0,0,0,0,-1,1441,883,0,0
224,141,0,0,0,0,0,0,0,0,0,-1,1448,883,0,0
231,141,0,0,0,0,0,0,0,0,0,-1,1455,883,0,0
238,141,0,0,0,0,0,0,0,0,0,-1,1462,883,0,0
245,141,0,0,0,0,0,0,0,0,0,-1,1469,883,0,0
252,141,0,0,0,0,0,0,0,0,0,-1,1476,883,0,0
259,141,0,0,0,0,0,0,0,0,0,-1,1483,883,0,0
266,141,0,0,0,0,0,0,0,0,0,-1,1490,883,0,0
273,141,0,0,0,0,0,0,0,0,0,-1,1497,883,0,0
280,141,0,0,0,0,0,0,0,0,0,-1,1504,883,0,0
287,141,0,0,0,0,0,0,0,0,0,-1,1511,883,0,0
294,141,0,0,0,0,0,0,0,0,0,-1,1518,883,0,0
301,141,0,0,0,0,0,0,0,0,0,-1,1525,883,0,0
308,141,0,0,0,0,0,0,0,0,0,-1,1532,883,0,0
315,141,0,0,0,0,0,0,0,0,0,-1,1539,883,0,0
322,141,0,0,0,0,0,0,0,0,0,-1,1546,883,0,0
329,141,0,0,0,0,0,0,0,0,0,-1,1553,883,0,0
336,141,0,0,0,0,0,0,0,0,0,-1,1560,883,0,0
343,141,0,0,0,0,0,0,0,0,0,-1,1567,883,0,0
350,141,0,0,0,0,0,0,0,0,0,-1,1574,883,0,0
357,141,0,0,0,0,0,0,0,0,0,-1,1581,883,0,0
364,141,0,0,0,0,0,0,0,0,0,-1,1588,883,0,0
371,141,0,0,0,0,0,0,0,0,0,-1,1595,883,0,0
378,141,0,0,0,0,0,0,0,0,0,-1,1602,883,0,0
385,141,0,0,0,0,0,0,0,0,0,-1,1609,883,0,0
392,141,0,0,0,0,0,0,0,0,0,-1,1616,883,0,0
399,141,0,0,0,0,0,0,0,0,0,-1,1623,883,0,0
406,141,0,0,0,0,0,0,0,0,0,-1,1630,883,0,0
413,141,0,0,0,0,0,0,0,0,0,-1,1637,883,0,0
420,141,0,0,0,0,0,0,0,0,0,-1,1644,883,0,0
427,141,0,0,0,0,0,0,0,0,0,-1,1651,883,0,0
434,141,0,0,0,0,0,0,0,0,0,-1,1658,883,0,0
441,141,0,0,0,0,0,0,0,0,0,-1,1665,883,0,0
448,141,0,0,0,0,0,0,0,0,0,-1,1672,883,0,0
455,141,0,0,0,0,0,0,0,0,0,-1,1679,883,0,0
462,141,0,0,0,0,0,0,0,0,0,-1,1686,883,0,0
469,141,0,0,0,0,0,0,0,0,0,-1,1693,883,0,0
476,141,0,0,0,0,0,0,0,0,0,-1,1700,883,0,0
483,141,0,0,0,0,0,0,0,0,0,-1,1707,883,0,0
490,141,0,0,0,0,0,0,0,0,0,-1,1714,883,0,0
497,141,0,0,0,0,0,0,0,0,0,-1,1721,883,0,0
504,141,0,0,0,0,0,0,0,0,0,-1,1728,883,0,0
511,141,0,0,0,0,0,0,0,0,0,-1,1735,883,0,0
518,141,0,0,0,0,0,0,0,0,0,-1,1742,883,0,0
525,141,0,0,0,0,0,0,0,0,0,-1,1749,883,0,0
532,141,0,0,0,0,0,0,0,0,0,-1,1756,883,0,0
539,141,0,0,0,0,0,0,0,0,0,-1,1763,883,0,0
546,141,0,0,0,0,0,0,0,0,0,-1,1770,883,0,0
553,141,0,0,0,0,0,0,0,0,0,-1,1777,883,0,0
560,141,0,0,0,0,0,0,0,0,0,-1,1784,883,0,0
567,141,0,0,0,0,0,0,0,0,0,-1,1791,883,0,0
574,141,0,0,0,0,0,0,0,0,0,-1,1798,883,0,0
581,141,0,0,0,0,0,0,0,0,0,-1,1805,883,0,0
588,141,0,0,0,0,0,0,0,0,0,-1,1812,883,0,0
595,141,0,0,0,0,0,0,0,0,0,-1,1819,883,0,0
602,141,0,0,0,0,0,0,0,0,0,-1,1826,883,0,0
609,141,0,0,0,0,0,0,0,0,0,-1,1833,883,0,0
616,141,0,0,0,0,0,0,0,0,0,-1,1840,883,0,0
623,141,47.881,3.02551,0.00275001,-0.0119923,-0.00242796,0.00313958,-0.0123819,-0.159098,0.00947609,0.0444163,1847,883,47.881,-3.0255
630,141,47.8805,2.9223,0.00205874,-0.00949139,-0.0015402,0.0022606,-0.00969325,-0.130316,0.00733279,0.0423751,1854,883,47.8805,-2.92233
637,141,47.8159,2.98096,0,0,0,0,0,0,0,-1,1861,883,47.8159,-2.98096
644,141,47.9512,2.91156,0.000987853,-0.00521167,-0.000699454,0.00106579,-0.0052896,-0.110965,0.00393013,0.0399721,1868,883,47.9512,-2.91158
651,141,48.1532,2.88104,0.000603248,-0.00377453,-0.000619772,0.0006893,-0.00386058,-0.137961,0.00283159,0.0387864,1875,883,48.1533,-2.88103
658,141,48.1631,2.87195,0.000258554,-0.00279291,-0.000647602,0.000390304,-0.00292466,-0.200704,0.00209204,0.0369093,1882,883,48.1631,-2.87194
665,141,47.9525,2.90186,0.000104467,-0.0021698,-0.000802428,0.000359082,-0.00242441,-0.307257,0.0017483,0.026696,1889,883,47.9526,-2.90185
672,141,47.9905,2.86066,3.59129e-06,-0.00179665,-0.00085469,0.000344724,-0.00213779,-0.379757,0.00155291,0.0178106,1896,883,47.9905,-2.86067
679,141,47.9712,2.87476,-3.36122e-05,-0.00134308,-0.000888457,0.000415299,-0.00179199,-0.467855,0.00135448,0.0375372,1903,883,47.9712,-2.87477
686,141,47.8977,2.90118,0,0,0,0,0,0,0,-1,1910,883,47.8977,-2.90117
693,141,40.9768,2.13531,0,0,0,0,0,0,0,-1,1917,883,40.9768,-2.13533
700,141,41.4166,2.84442,-0.000291284,-0.000477163,-0.00119619,0.00081557,-0.00158402,-0.746628,0.00140888,0.0316826,1924,883,41.4166,-2.84441
707,141,41.3951,3.45624,-0.000242383,-0.000308268,-0.00104874,0.000773935,-0.00132459,-0.769698,0.00122541,0.0272873,1931,883,41.3951,-3.45621
714,141,41.1753,3.81165,-0.000123454,0.000110786,-0.000960024,0.000960808,-0.000973476,-0.846097,0.00111677,0.0264215,1938,883,41.1753,-3.81166
721,141,41.157,4.27826,1.48749e-05,0.000703383,-0.000897106,0.00132002,-0.000601761,-0.968603,0.00113508,0.0160865,1945,883,41.1569,-4.27827
728,141,41.2019,4.7301,0.000113967,0.00151227,-0.000683932,0.00179116,-0.000164929,-1.1836,0.00125271,0.0169513,1952,883,41.2019,-4.73013
735,141,41.1792,5.28595,0.000524328,0.00262293,-0.000332528,0.00267436,0.000472899,-1.41735,0.00164805,0.0180739,1959,883,41.1792,-5.28593
742,141,41.1289,5.79376,0.00136391,0.00403106,0.000156179,0.00404017,0.0013548,1.51251,0.00237439,0.0184492,1966,883,41.1289,-5.79375
749,141,41.1086,6.23389,0.00273273,0.00570992,0.000804253,0.00591329,0.00252937,1.32312,0.0034259,0.014699,1973,883,41.1087,-6.23387
756,141,41.1154,6.74561,0.0048818,0.00746813,0.00165555,0.00827571,0.00407423,1.11696,0.00477817,0.0217069,1980,883,41.1154,-6.74559
763,141,41.1288,7.29303,0.00788829,0.00910453,0.00264067,0.0112062,0.00578662,0.89857,0.00647106,0.0460059,1987,883,41.1288,-7.29304
770,141,41.1499,7.83337,0,0,0,0,0,0,0,-1,1994,883,41.1499,-7.8334
777,141,41.9054,7.27954,0,0,0,0,0,0,0,-1,2001,883,41.9054,-7.27954
784,141,42.7319,7.87225,0,0,0,0,0,0,0,-1,2008,883,42.7319,-7.87224
791,141,42.5815,7.74707,0,0,0,0,0,0,0,-1,2015,883,42.5815,-7.74706
798,141,0,0,0,0,0,0,0,0,0,-1,2022,883,0,0
805,141,0,0,0,0,0,0,0,0,0,-1,2029,883,0,0
812,141,0,0,0,0,0,0,0,0,0,-1,2036,883,0,0
-700,134,0,0,0,0,0,0,0,0,0,-1,524,890,0,0
-693,134,0,0,0,0,0,0,0,0,0,-1,531,890,0,0
-686,134,0,0,0,0,0,0,0,0,0,-1,538,890,0,0
-679,134,0,0,0,0,0,0,0,0,0,-1,545,890,0,0
-672,134,-27.8921,4.70044,0,0,0,0,0,0,0,-1,552,890,-27.8921,-4.70044
-665,134,-30.1264,3.99939,0,0,0,0,0,0,0,-1,559,890,-30.1264,-3.99936
-658,134,-32.6898,2.21106,0,0,0,0,0,0,0,-1,566,890,-32.6897,-2.21103
-651,134,-33.1285,1.69788,0,0,0,0,0,0,0,-1,573,890,-33.1285,-1.6979
-644,134,-33.5674,1.18475,0,0,0,0,0,0,0,-1,580,890,-33.5674,-1.18477
-637,134,-28.7275,0.339355,0,0,0,0,0,0,0,-1,587,890,-28.7275,-0.339377
-630,134,-30.3389,4.31415,0,0,0,0,0,0,0,-1,594,890,-30.3388,-4.31413
-623,134,-30.4798,3.96271,0.00578501,0.0067316,0.00991579,0.0161854,-0.00366878,0.809246,0.0121985,0.0261629,601,890,-30.4798,-3.96273
-616,134,-30.657,3.53296,0.000615521,0.00461028,0.00671883,0.00962234,-0.00439654,0.929878,0.00827913,0.0119566,608,890,-30.657,-3.53295
-609,134,-30.7418,3.08051,-0.00259321,0.00320788,0.00472973,0.00585562,-0.00524095,1.06045,0.00640988,0.0110268,615,890,-30.7417,-3.0805
-602,134,-30.7474,2.60687,-0.00337242,0.0019197,0.0036589,0.00378908,-0.0052418,1.09846,0.00523642,0.0121958,622,890,-30.7474,-2.60687
-595,134,-30.6732,2.1925,-0.00361383,0.00104116,0.00284459,0.00238912,-0.00496178,1.12827,0.00432982,0.0207752,629,890,-30.6731,-2.19253
-588,134,-31.09,1.82764,-0.00325356,0.000413878,0.00243101,0.00162521,-0.00446489,1.10852,0.0036413,0.0350589,636,890,-31.09,-1.82764
-581,134,-31.2033,1.39343,0,0,0,0,0,0,0,-1,643,890,-31.2033,-1.3934
-574,134,-30.3914,0.854126,0,0,0,0,0,0,0,-1,650,890,-30.3914,-0.854138
-567,134,-30.2026,0.450073,0,0,0,0,0,0,0,-1,657,890,-30.2026,-0.450082
-560,134,-22.9123,0.106567,0,0,0,0,0,0,0,-1,664,890,-22.9123,-0.106594
-553,134,-35.8597,1.02075,0,0,0,0,0,0,0,-1,671,890,-35.8598,-1.02072
-546,134,-35.8784,1.01263,-0.00101907,-0.000726861,0.000957214,9.5335e-05,-0.00184127,0.861131,0.00126049,0.0303862,678,890,-35.8783,-1.01262
-539,134,-35.8754,1.0119,-0.000538286,-0.000646025,0.000681858,9.18272e-05,-0.00127614,0.745978,0.000882961,0.0182408,685,890,-35.8754,-1.01193
-532,134,-35.8883,1.02704,2.22172e-05,-0.000465324,0.000335884,0.000193467,-0.000636574,0.471495,0.00050147,0.0219935,692,890,-35.8883,-1.02703
-525,134,-35.9355,1.03516,0.000176026,-0.000249069,-0.000113977,0.000204658,-0.0002777,-0.24611,0.000279551,0.0344705,699,890,-35.9355,-1.03515
-518,134,-35.9902,0.869263,0.000107283,8.64193e-05,-0.000594251,0.000691194,-0.000497492,-0.776622,0.000689319,0.0417415,706,890,-35.9902,-0.869289
-511,134,-35.9355,0.881775,0.000808295,0.000646173,-0.00104413,0.0017745,-0.000320035,-0.746658,0.00130285,0.042413,713,890,-35.9355,-0.881746
-504,134,0,0,0,0,0,0,0,0,0,-1,720,890,0,0
-497,134,0,0,0,0,0,0,0,0,0,-1,727,890,0,0
-490,134,0,0,0,0,0,0,0,0,0,-1,734,890,0,0
-483,134,0,0,0,0,0,0,0,0,0,-1,741,890,0,0
-476,134,0,0,0,0,0,0,0,0,0,-1,748,890,0,0
-469,134,0,0,0,0,0,0,0,0,0,-1,755,890,0,0
-462,134,0,0,0,0,0,0,0,0,0,-1,762,890,0,0
-455,134,0,0,0,0,0,0,0,0,0,-1,769,890,0,0
-448,134,0,0,0,0,0,0,0,0,0,-1,776,890,0,0
-441,134,0,0,0,0,0,0,0,0,0,-1,783,890,0,0
-434,134,0,0,0,0,0,0,0,0,0,-1,790,890,0,0
-427,134,0,0,0,0,0,0,0,0,0,-1,797,890,0,0
-420,134,0,0,0,0,0,0,0,0,0,-1,804,890,0,0
-413,134,0,0,0,0,0,0,0,0,0,-1,811,890,0,0
-406,134,0,0,0,0,0,0,0,0,0,-1,818,890,0,0
-399,134,0,0,0,0,0,0,0,0,0,-1,825,890,0,0
-392,134,0,0,0,0,0,0,0,0,0,-1,832,890,0,0
-385,134,0,0,0,0,0,0,0,0,0,-1,839,890,0,0
-378,134,0,0,0,0,0,0,0,0,0,-1,846,890,0,0
-371,134,0,0,0,0,0,0,0,0,0,-1,853,890,0,0
-364,134,0,0,0,0,0,0,0,0,0,-1,860,890,0,0
-357,134,0,0,0,0,0,0,0,0,0,-1,867,890,0,0
-350,134,0,0,0,0,0,0,0,0,0,-1,874,890,0,0
-343,134,0,0,0,0,0,0,0,0,0,-1,881,890,0,0
-336,134,0,0,0,0,0,0,0,0,0,-1,888,890,0,0
-329,134,0,0,0,0,0,0,0,0,0,-1,895,890,0,0
-322,134,0,0,0,0,0,0,0,0,0,-1,902,890,0,0
-315,134,0,0,0,0,0,0,0,0,0,-1,909,890,0,0
-308,134,0,0,0,0,0,0,0,0,0,-1,916,890,0,0
-301,134,0,0,0,0,0,0,0,0,0,-1,923,890,0,0
-294,134,0,0,0,0,0,0,0,0,0,-1,930,890,0,0
-287,134,0,0,0,0,0,0,0,0,0,-1,937,890,0,0
-280,134,0,0,0,0,0,0,0,0,0,-1,944,890,0,0
-273,134,0,0,0,0,0,0,0,0,0,-1,951,890,0,0
-266,134,0,0,0,0,0,0,0,0,0,-1,958,890,0,0
-259,134,0,0,0,0,0,0,0,0,0,-1,965,890,0,0
-252,134,0,0,0,0,0,0,0,0,0,-1,972,890,0,0
-245,134,0,0,0,0,0,0,0,0,0,-1,979,890,0,0
-238,134,0,0,0,0,0,0,0,0,0,-1,986,890,0,0
-231,134,0,0,0,0,0,0,0,0,0,-1,993,890,0,0
-224,134,0,0,0,0,0,0,0,0,0,-1,1000,890,0,0
-217,134,0,0,0,0,0,0,0,0,0,-1,1007,890,0,0
-210,134,0,0,0,0,0,0,0,0,0,-1,1014,890,0,0
-203,134,0,0,0,0,0,0,0,0,0,-1,1021,890,0,0
-196,134,0,0,0,0,0,0,0,0,0,-1,1028,890,0,0
-189,134,0,0,0,0,0,0,0,0,0,-1,1035,890,0,0
-182,134,0,0,0,0,0,0,0,0,0,-1,1042,890,0,0
-175,134,0,0,0,0,0,0,0,0,0,-1,1049,890,0,0
-168,134,0,0,0,0,0,0,0,0,0,-1,1056,890,0,0
-161,134,0,0,0,0,0,0,0,0,0,-1,1063,890,0,0
-154,134,0,0,0,0,0,0,0,0,0,-1,1070,890,0,0
-147,134,0,0,0,0,0,0,0,0,0,-1,1077,890,0,0
-140,134,0,0,0,0,0,0,0,0,0,-1,1084,890,0,0
-133,134,0,0,0,0,0,0,0,0,0,-1,1091,890,0,0
-126,134,0,0,0,0,0,0,0,0,0,-1,1098,890,0,0
-119,134,0,0,0,0,0,0,0,0,0,-1,1105,890,0,0
-112,134,0,0,0,0,0,0,0,0,0,-1,1112,890,0,0
-105,134,0,0,0,0,0,0,0,0,0,-1,1119,890,0,0
-98,134,0,0,0,0,0,0,0,0,0,-1,1126,890,0,0
-91,134,0,0,0,0,0,0,0,0,0,-1,1133,890,0,0
-84,134,0,0,0,0,0,0,0,0,0,-1,1140,890,0,0
-77,134,0,0,0,0,0,0,0,0,0,-1,1147,890,0,0
-70,134,0,0,0,0,0,0,0,0,0,-1,1154,890,0,0
-63,134,0,0,0,0,0,0,0,0,0,-1,1161,890,0,0
-56,134,0,0,0,0,0,0,0,0,0,-1,1168,890,0,0
-49,134,0,0,0,0,0,0,0,0,0,-1,1175,890,0,0
-42,134,0,0,0,0,0,0,0,0,0,-1,1182,890,0,0
-35,134,0,0,0,0,0,0,0,0,0,-1,1189,890,0,0
-28,134,0,0,0,0,0,0,0,0,0,-1,1196,890,0,0
-21,134,0,0,0,0,0,0,0,0,0,-1,1203,890,0,0
-14,134,0,0,0,0,0,0,0,0,0,-1,1210,890,0,0
-7,134,0,0,0,0,0,0,0,0,0,-1,1217,890,0,0
0,134,0,0,0,0,0,0,0,0,0,-1,1224,890,0,0
7,134,0,0,0,0,0,0,0,0,0,-1,1231,890,0,0
14,134,0,0,0,0,0,0,0,0,0,-1,1238,890,0,0
21,134,0,0,0,0,0,0,0,0,0,-1,1245,890,0,0
28,134,0,0,0,0,0,0,0,0,0,-1,1252,890,0,0
35,134,0,0,0,0,0,0,0,0,0,-1,1259,890,0,0
42,134,0,0,0,0,0,0,0,0,0,-1,1266,890,0,0
49,134,0,0,0,0,0,0,0,0,0,-1,1273,890,0,0
56,134,0,0,0,0,0,0,0,0,0,-1,1280,890,0,0
63,134,0,0,0,0,0,0,0,0,0,-1,1287,890,0,0
70,134,0,0,0,0,0,0,0,0,0,-1,1294,890,0,0
77,134,0,0,0,0,0,0,0,0,0,-1,1301,890,0,0
84,134,0,0,0,0,0,0,0,0,0,-1,1308,890,0,0
91,134,0,0,0,0,0,0,0,0,0,-1,1315,890,0,0
98,134,0,0,0,0,0,0,0,0,0,-1,1322,890,0,0
105,134,0,0,0,0,0,0,0,0,0,-1,1329,890,0,0
112,134,0,0,0,0,0,0,0,0,0,-1,1336,890,0,0
119,134,0,0,0,0,0,0,0,0,0,-1,1343,890,0,0
126,134,0,0,0,0,0,0,0,0,0,-1,1350,890,0,0
133,134,0,0,0,0,0,0,0,0,0,-1,1357,890,0,0
140,134,0,0,0,0,0,0,0,0,0,-1,1364,890,0,0
147,134,0,0,0,0,0,0,0,0,0,-1,1371,890,0,0
154,134,0,0,0,0,0,0,0,0,0,-1,1378,890,0,0
161,134,0,0,0,0,0,0,0,0,0,-1,1385,890,0,0
168,134,0,0,0,0,0,0,0,0,0,-1,1392,890,0,0
175,134,0,0,0,0,0,0,0,0,0,-1,1399,890,0,0
182,134,0,0,0,0,0,0,0,0,0,-1,1406,890,0,0
189,134,0,0,0,0,0,0,0,0,0,-1,1413,890,0,0
196,134,0,0,0,0,0,0,0,0,0,-1,1420,890,0,0
203,134,0,0,0,0,0,0,0,0,0,-1,1427,890,0,0
210,134,0,0,0,0,0,0,0,0,0,-1,1434,890,0,0
217,134,0,0,0,0,0,0,0,0,0,-1,1441,890,0,0
224,134,0,0,0,0,0,0,0,0,0,-1,1448,890,0,0
231,134,0,0,0,0,0,0,0,0,0,-1,1455,890,0,0
238,134,0,0,0,0,0,0,0,0,0,-1,1462,890,0,0
245,134,0,0,0,0,0,0,0,0,0,-1,1469,890,0,0
252,134,0,0,0,0,0,0,0,0,0,-1,1476,890,0,0
259,134,0,0,0,0,0,0,0,0,0,-1,1483,890,0,0
266,134,0,0,0,0,0,0,0,0,0,-1,1490,890,0,0
273,134,0,0,0,0,0,0,0,0,0,-1,1497,890,0,0
280,134,0,0,0,0,0,0,0,0,0,-1,1504,890,0,0
287,134,0,0,0,0,0,0,0,0,0,-1,1511,890,0,0
294,134,0,0,0,0,0,0,0,0,0,-1,1518,890,0,0
301,134,0,0,0,0,0,0,0,0,0,-1,1525,890,0,0
308,134,0,0,0,0,0,0,0,0,0,-1,1532,890,0,0
315,134,0,0,0,0,0,0,0,0,0,-1,1539,890,0,0
322,134,0,0,0,0,0,0,0,0,0,-1,1546,890,0,0
329,134,0,0,0,0,0,0,0,0,0,-1,1553,890,0,0
336,134,0,0,0,0,0,0,0,0,0,-1,1560,890,0,0
343,134,0,0,0,0,0,0,0,0,0,-1,1567,890,0,0
350,134,0,0,0,0,0,0,0,0,0,-1,1574,890,0,0
357,134,0,0,0,0,0,0,0,0,0,-1,1581,890,0,0
364,134,0,0,0,0,0,0,0,0,0,-1,1588,890,0,0
371,134,0,0,0,0,0,0,0,0,0,-1,1595,890,0,0
378,134,0,0,0,0,0,0,0,0,0,-1,1602,890,0,0
385,134,0,0,0,0,0,0,0,0,0,-1,1609,890,0,0
392,134,0,0,0,0,0,0,0,0,0,-1,1616,890,0,0
399,134,0,0,0,0,0,0,0,0,0,-1,1623,890,0,0
406,134,0,0,0,0,0,0,0,0,0,-1,1630,890,0,0
413,134,0,0,0,0,0,0,0,0,0,-1,1637,890,0,0
420,134,0,0,0,0,0,0,0,0,0,-1,1644,890,0,0
427,134,0,0,0,0,0,0,0,0,0,-1,1651,890,0,0
434,134,0,0,0,0,0,0,0,0,0,-1,1658,890,0,0
441,134,0,0,0,0,0,0,0,0,0,-1,1665,890,0,0
448,134,0,0,0,0,0,0,0,0,0,-1,1672,890,0,0
455,134,0,0,0,0,0,0,0,0,0,-1,1679,890,0,0
462,134,0,0,0,0,0,0,0,0,0,-1,1686,890,0,0
469,134,0,0,0,0,0,0,0,0,0,-1,1693,890,0,0
476,134,0,0,0,0,0,0,0,0,0,-1,1700,890,0,0
483,134,0,0,0,0,0,0,0,0,0,-1,1707,890,0,0
490,134,0,0,0,0,0,0,0,0,0,-1,1714,890,0,0
497,134,0,0,0,0,0,0,0,0,0,-1,1721,890,0,0
504,134,0,0,0,0,0,0,0,0,0,-1,1728,890,0,0
511,134,0,0,0,0,0,0,0,0,0,-1,1735,890,0,0
518,134,0,0,0,0,0,0,0,0,0,-1,1742,890,0,0
525,134,0,0,0,0,0,0,0,0,0,-1,1749,890,0,0
532,134,0,0,0,0,0,0,0,0,0,-1,1756,890,0,0
539,134,0,0,0,0,0,0,0,0,0,-1,1763,890,0,0
546,134,0,0,0,0,0,0,0,0,0,-1,1770,890,0,0
553,134,0,0,0,0,0,0,0,0,0,-1,1777,890,0,0
560,134,0,0,0,0,0,0,0,0,0,-1,1784,890,0,0
567,134,0,0,0,0,0,0,0,0,0,-1,1791,890,0,0
574,134,0,0,0,0,0,0,0,0,0,-1,1798,890,0,0
581,134,0,0,0,0,0,0,0,0,0,-1,1805,890,0,0
588,134,0,0,0,0,0,0,0,0,0,-1,1812,890,0,0
595,134,0,0,0,0,0,0,0,0,0,-1,1819,890,0,0
602,134,0,0,0,0,0,0,0,0,0,-1,1826,890,0,0
609,134,0,0,0,0,0,0,0,0,0,-1,1833,890,0,0
616,134,0,0,0,0,0,0,0,0,0,-1,1840,890,0,0
623,134,48.0967,3.20404,0.00189565,-0.0109379,-0.00290461,0.00252243,-0.0115647,-0.21253,0.00867376,0.0458363,1847,890,48.0966,-3.20403
630,134,47.978,2.80444,0.00135444,-0.00862329,-0.00197318,0.00173048,-0.00899933,-0.188318,0.00665184,0.0458139,1854,890,47.978,-2.80442
637,134,48.0793,2.44165,0.00096376,-0.00646994,-0.00136515,0.00120653,-0.00671272,-0.175996,0.00492682,0.0433128,1861,890,48.0793,-2.44163
644,134,48.0704,2.9173,0.000591159,-0.0046632,-0.00103932,0.000789267,-0.00486131,-0.188355,0.00353347,0.0413573,1868,890,48.0704,-2.91729
651,134,48.0653,2.86041,0.000317869,-0.00325648,-0.00084313,0.000506767,-0.00344537,-0.220404,0.00248314,0.0412427,1875,890,48.0653,-2.86043
658,134,48.0227,2.78564,7.32506e-05,-0.00224007,-0.000733067,0.000285988,-0.00245281,-0.282444,0.00173839,0.0387917,1882,890,48.0227,-2.78562
665,134,47.9536,2.71887,1.88836e-05,-0.00160823,-0.000768358,0.000324366,-0.00191371,-0.378417,0.00139654,0.0323748,1889,890,47.9536,-2.71885
672,134,48.0197,2.76294,-4.76641e-06,-0.0012667,-0.000730987,0.000329907,-0.00160138,-0.429352,0.00119286,0.020518,1896,890,48.0196,-2.76293
679,134,48.0072,2.78925,4.7563e-06,-0.000910922,-0.000703172,0.000386004,-0.00129217,-0.496822,0.00101489,0.0169159,1903,890,48.0072,-2.78927
686,134,47.9329,2.82257,0,0,0,0,0,0,0,-1,1910,890,47.9329,-2.8226
693,134,34.5778,2.48096,0,0,0,0,0,0,0,-1,1917,890,34.5777,-2.48099
700,134,41.6708,2.67035,0,0,0,0,0,0,0,-1,1924,890,41.6707,-2.67037
707,134,41.2493,2.92169,0,0,0,0,0,0,0,-1,1931,890,41.2493,-2.92168
714,134,41.5061,3.64929,-0.000103326,0.000286143,-0.000794307,0.000909238,-0.000726421,-0.905609,0.000946312,0.0236951,1938,890,41.5061,-3.64927
721,134,41.6871,4.24933,-7.58989e-05,0.000769633,-0.000779121,0.0012333,-0.000539565,-1.03398,0.00104936,0.0200292,1945,890,41.6871,-4.24934
728,134,41.7372,4.72125,-0.000154888,0.00148246,-0.000593183,0.00167477,-0.0003472,-1.25728,0.00124845,0.0179714,1952,890,41.7372,-4.72123
735,134,41.6836,5.26721,8.45216e-06,0.00251171,-0.000247898,0.00253602,-1.58609e-05,-1.47303,0.00169599,0.0248534,1959,890,41.6836,-5.26719
742,134,41.6461,5.78925,0.000460107,0.00388051,0.000341349,0.00391424,0.000426374,1.47229,0.00247962,0.0167856,1966,890,41.6462,-5.78926
749,134,41.6537,6.23828,0.00127401,0.00559531,0.00130424,0.00595844,0.000910881,1.29925,0.00370617,0.0132487,1973,890,41.6537,-6.23829
756,134,41.6532,6.69391,0.00269017,0.00739378,0.00271287,0.00863233,0.00145162,1.14251,0.00533723,0.0181368,1980,890,41.6532,-6.69389
763,134,41.6014,7.21844,0.00473259,0.00904233,0.00455902,0.0119301,0.00184483,1.00617,0.00741534,0.0382262,1987,890,41.6014,-7.21842
770,134,41.5493,7.73804,0,0,0,0,0,0,0,-1,1994,890,41.5493,-7.73804
777,134,43.6969,5.94574,0,0,0,0,0,0,0,-1,2001,890,43.697,-5.94577
784,134,42.3352,7.4964,0,0,0,0,0,0,0,-1,2008,890,42.3352,-7.49641
791,134,42.2061,9.63593,0,0,0,0,0,0,0,-1,2015,890,42.2061,-9.63591
798,134,0,0,0,0,0,0,0,0,0,-1,2022,890,0,0
805,134,0,0,0,0,0,0,0,0,0,-1,2029,890,0,0
812,134,0,0,0,0,0,0,0,0,0,-1,2036,890,0,0
-700,127,0,0,0,0,0,0,0,0,0,-1,524,897,0,0
-693,127,0,0,0,0,0,0,0,0,0,-1,531,897,0,0
-686,127,0,0,0,0,0,0,0,0,0,-1,538,897,0,0
-679,127,-35.6425,3.09082,0,0,0,0,0,0,0,-1,545,897,-35.6425,-3.09079
-672,127,-34.6617,4.18298,0,0,0,0,0,0,0,-1,552,897,-34.6617,-4.18301
-665,127,-34.1415,4.05511,0,0,0,0,0,0,0,-1,559,897,-34.1415,-4.0551
-658,127,-32.6992,2.68634,0,0,0,0,0,0,0,-1,566,897,-32.6992,-2.68631
-651,127,-33.4333,2.34149,0,0,0,0,0,0,0,-1,573,897,-33.4333,-2.34149
-644,127,-33.8521,1.84509,0,0,0,0,0,0,0,-1,580,897,-33.8521,-1.84508
-637,127,-31.4189,3.03436,0,0,0,0,0,0,0,-1,587,897,-31.4189,-3.03434
-630,127,-31.1832,3.57831,0,0,0,0,0,0,0,-1,594,897,-31.1832,-3.5783
-623,127,-31.0895,3.88611,0.00579008,0.00541572,0.0106484,0.016253,-0.00504717,0.77661,0.0128524,0.0166671,601,897,-31.0895,-3.88611
-616,127,-31.16,3.49792,0.000435002,0.00361177,0.00717876,0.00937577,-0.005329,0.894275,0.0085963,0.0100954,608,897,-31.16,-3.49792
-609,127,-31.2127,3.06042,-0.00301898,0.00248733,0.00496469,0.00541114,-0.0059428,1.03856,0.0065576,0.0139396,615,897,-31.2127,-3.06042
-602,127,-31.2032,2.61975,-0.0039941,0.00143218,0.00378799,0.00337844,-0.00594036,1.09617,0.00544756,0.016164,622,897,-31.2032,-2.61974
-595,127,-31.1747,2.22681,-0.00438457,0.000700723,0.00293141,0.00203857,-0.00572241,1.14265,0.00464602,0.0259486,629,897,-31.1747,-2.22683
-588,127,-31.2672,1.7583,-0.00417693,9.56926e-05,0.00248495,0.00123639,-0.00531763,1.14045,0.00402108,0.033206,636,897,-31.2671,-1.75832
-581,127,-31.0103,1.29504,0,0,0,0,0,0,0,-1,643,897,-31.0103,-1.29507
-574,127,-25.2603,0.511169,0,0,0,0,0,0,0,-1,650,897,-25.2603,-0.51117
-567,127,-24.5417,-0.0447388,0,0,0,0,0,0,0,-1,657,897,-24.5417,0.0447226
-560,127,-18.9678,1.21667,0,0,0,0,0,0,0,-1,664,897,-18.9677,-1.2167
-553,127,-35.8942,0.996155,0,0,0,0,0,0,0,-1,671,897,-35.8942,-0.996138
-546,127,-35.9014,1.00452,-0.00203402,-0.00120093,0.000911346,-0.000615445,-0.0026195,0.999757,0.00158162,0.0227358,678,897,-35.9014,-1.0045
-539,127,-35.8832,1.00409,-0.00145573,-0.00111507,0.000594554,-0.000666929,-0.00190387,0.924903,0.0011155,0.0199844,685,897,-35.8832,-1.0041
-532,127,-35.8278,1.02466,-0.000732707,-0.000938968,0.000213708,-0.000598546,-0.00107313,0.560593,0.000620947,0.017144,692,897,-35.8278,-1.02467
-525,127,-35.891,1.09772,-0.00025355,-0.000746127,-0.000293727,-0.00011652,-0.000883158,-0.436509,0.000554031,0.0335937,699,897,-35.891,-1.09771
-518,127,-36.0696,0.984131,-9.9093e-05,-0.000512552,-0.000853243,0.000572107,-0.00118375,-0.666545,0.00103404,0.040549,706,897,-36.0696,-0.984143
-511,127,-35.9432,0.894043,0.000729242,-5.11126e-05,-0.00133147,0.00172653,-0.0010484,-0.642868,0.00161797,0.0416896,713,897,-35.9432,-0.894034
-504,127,0,0,0,0,0,0,0,0,0,-1,720,897,0,0
-497,127,0,0,0,0,0,0,0,0,0,-1,727,897,0,0
-490,127,0,0,0,0,0,0,0,0,0,-1,734,897,0,0
-483,127,0,0,0,0,0,0,0,0,0,-1,741,897,0,0
-476,127,0,0,0,0,0,0,0,0,0,-1,748,897,0,0
-469,127,0,0,0,0,0,0,0,0,0,-1,755,897,0,0
-462,127,0,0,0,0,0,0,0,0,0,-1,762,897,0,0
-455,127,0,0,0,0,0,0,0,0,0,-1,769,897,0,0
-448,127,0,0,0,0,0,0,0,0,0,-1,776,897,0,0
-441,127,0,0,0,0,0,0,0,0,0,-1,783,897,0,0
-434,127,0,0,0,0,0,0,0,0,0,-1,790,897,0,0
-427,127,0,0,0,0,0,0,0,0,0,-1,797,897,0,0
-420,127,0,0,0,0,0,0,0,0,0,-1,804,897,0,0
-413,127,0,0,0,0,0,0,0,0,0,-1,811,897,0,0
-406,127,0,0,0,0,0,0,0,0,0,-1,818,897,0,0
-399,127,0,0,0,0,0,0,0,0,0,-1,825,897,0,0
-392,127,0,0,0,0,0,0,0,0,0,-1,832,897,0,0
-385,127,0,0,0,0,0,0,0,0,0,-1,839,897,0,0
-378,127,0,0,0,0,0,0,0,0,0,-1,846,897,0,0
-371,127,0,0,0,0,0,0,0,0,0,-1,853,897,0,0
-364,127,0,0,0,0,0,0,0,0,0,-1,860,897,0,0
-357,127,0,0,0,0,0,0,0,0,0,-1,867,897,0,0
-350,127,0,0,0,0,0,0,0,0,0,-1,874,897,0,0
-343,127,0,0,0,0,0,0,0,0,0,-1,881,897,0,0
-336,127,0,0,0,0,0,0,0,0,0,-1,888,897,0,0
-329,127,0,0,0,0,0,0,0,0,0,-1,895,897,0,0
-322,127,0,0,0,0,0,0,0,0,0,-1,902,897,0,0
-315,127,0,0,0,0,0,0,0,0,0,-1,909,897,0,0
-308,127,0,0,0,0,0,0,0,0,0,-1,916,897,0,0
-301,127,0,0,0,0,0,0,0,0,0,-1,923,897,0,0
-294,127,0,0,0,0,0,0,0,0,0,-1,930,897,0,0
-287,127,0,0,0,0,0,0,0,0,0,-1,937,897,0,0
-280,127,0,0,0,0,0,0,0,0,0,-1,944,897,0,0
-273,127,0,0,0,0,0,0,0,0,0,-1,951,897,0,0
-266,127,0,0,0,0,0,0,0,0,0,-1,958,897,0,0
-259,127,0,0,0,0,0,0,0,0,0,-1,965,897,0,0
-252,127,0,0,0,0,0,0,0,0,0,-1,972,897,0,0
-245,127,0,0,0,0,0,0,0,0,0,-1,979,897,0,0
-238,127,0,0,0,0,0,0,0,0,0,-1,986,897,0,0
-231,127,0,0,0,0,0,0,0,0,0,-1,993,897,0,0
-224,127,0,0,0,0,0,0,0,0,0,-1,1000,897,0,0
-217,127,0,0,0,0,0,0,0,0,0,-1,1007,897,0,0
-210,127,0,0,0,0,0,0,0,0,0,-1,1014,897,0,0
-203,127,0,0,0,0,0,0,0,0,0,-1,1021,897,0,0
-196,127,0,0,0,0,0,0,0,0,0,-1,1028,897,0,0
-189,127,0,0,0,0,0,0,0,0,0,-1,1035,897,0,0
-182,127,0,0,0,0,0,0,0,0,0,-1,1042,897,0,0
-175,127,0,0,0,0,0,0,0,0,0,-1,1049,897,0,0
-168,127,0,0,0,0,0,0,0,0,0,-1,1056,897,0,0
-161,127,0,0,0,0,0,0,0,0,0,-1,1063,897,0,0
-154,127,0,0,0,0,0,0,0,0,0,-1,1070,897,0,0
-147,127,0,0,0,0,0,0,0,0,0,-1,1077,897,0,0
-140,127,0,0,0,0,0,0,0,0,0,-1,1084,897,0,0
-133,127,0,0,0,0,0,0,0,0,0,-1,1091,897,0,0
-126,127,0,0,0,0,0,0,0,0,0,-1,1098,897,0,0
-119,127,0,0,0,0,0,0,0,0,0,-1,1105,897,0,0
-112,127,0,0,0,0,0,0,0,0,0,-1,1112,897,0,0
-105,127,0,0,0,0,0,0,0,0,0,-1,1119,897,0,0
-98,127,0,0,0,0,0,0,0,0,0,-1,1126,897,0,0
-91,127,0,0,0,0,0,0,0,0,0,-1,1133,897,0,0
-84,127,0,0,0,0,0,0,0,0,0,-1,1140,897,0,0
-77,127,0,0,0,0,0,0,0,0,0,-1,1147,897,0,0
-70,127,0,0,0,0,0,0,0,0,0,-1,1154,897,0,0
-63,127,0,0,0,0,0,0,0,0,0,-1,1161,897,0,0
-56,127,0,0,0,0,0,0,0,0,0,-1,1168,897,0,0
-49,127,0,0,0,0,0,0,0,0,0,-1,1175,897,0,0
-42,127,0,0,0,0,0,0,0,0,0,-1,1182,897,0,0
-35,127,0,0,0,0,0,0,0,0,0,-1,1189,897,0,0
-28,127,0,0,0,0,0,0,0,0,0,-1,1196,897,0,0
-21,127,0,0,0,0,0,0,0,0,0,-1,1203,897,0,0
-14,127,0,0,0,0,0,0,0,0,0,-1,1210,897,0,0
-7,127,0,0,0,0,0,0,0,0,0,-1,1217,897,0,0
0,127,0,0,0,0,0,0,0,0,0,-1,1224,897,0,0
7,127,0,0,0,0,0,0,0,0,0,-1,1231,897,0,0
14,127,0,0,0,0,0,0,0,0,0,-1,1238,897,0,0
21,127,0,0,0,0,0,0,0,0,0,-1,1245,897,0,0
28,127,0,0,0,0,0,0,0,0,0,-1,1252,897,0,0
35,127,0,0,0,0,0,0,0,0,0,-1,1259,897,0,0
42,127,0,0,0,0,0,0,0,0,0,-1,1266,897,0,0
49,127,0,0,0,0,0,0,0,0,0,-1,1273,897,0,0
56,127,0,0,0,0,0,0,0,0,0,-1,1280,897,0,0
63,127,0,0,0,0,0,0,0,0,0,-1,1287,897,0,0
70,127,0,0,0,0,0,0,0,0,0,-1,1294,897,0,0
77,127,0,0,0,0,0,0,0,0,0,-1,1301,897,0,0
84,127,0,0,0,0,0,0,0,0,0,-1,1308,897,0,0
91,127,0,0,0,0,0,0,0,0,0,-1,1315,897,0,0
98,127,0,0,0,0,0,0,0,0,0,-1,1322,897,0,0
105,127,0,0,0,0,0,0,0,0,0,-1,1329,897,0,0
112,127,0,0,0,0,0,0,0,0,0,-1,1336,897,0,0
119,127,0,0,0,0,0,0,0,0,0,-1,1343,897,0,0
126,127,0,0,0,0,0,0,0,0,0,-1,1350,897,0,0
133,127,0,0,0,0,0,0,0,0,0,-1,1357,897,0,0
140,127,0,0,0,0,0,0,0,0,0,-1,1364,897,0,0
147,127,0,0,0,0,0,0,0,0,0,-1,1371,897,0,0
154,127,0,0,0,0,0,0,0,0,0,-1,1378,897,0,0
161,127,0,0,0,0,0,0,0,0,0,-1,1385,897,0,0
168,127,0,0,0,0,0,0,0,0,0,-1,1392,897,0,0
175,127,0,0,0,0,0,0,0,0,0,-1,1399,897,0,0
182,127,0,0,0,0,0,0,0,0,0,-1,1406,897,0,0
189,127,0,0,0,0,0,0,0,0,0,-1,1413,897,0,0
196,127,0,0,0,0,0,0,0,0,0,-1,1420,897,0,0
203,127,0,0,0,0,0,0,0,0,0,-1,1427,897,0,0
210,127,0,0,0,0,0,0,0,0,0,-1,1434,897,0,0
217,127,0,0,0,0,0,0,0,0,0,-1,1441,897,0,0
224,127,0,0,0,0,0,0,0,0,0,-1,1448,897,0,0
231,127,0,0,0,0,0,0,0,0,0,-1,1455,897,0,0
238,127,0,0,0,0,0,0,0,0,0,-1,1462,897,0,0
245,127,0,0,0,0,0,0,0,0,0,-1,1469,897,0,0
252,127,0,0,0,0,0,0,0,0,0,-1,1476,897,0,0
259,127,0,0,0,0,0,0,0,0,0,-1,1483,897,0,0
266,127,0,0,0,0,0,0,0,0,0,-1,1490,897,0,0
273,127,0,0,0,0,0,0,0,0,0,-1,1497,897,0,0
280,127,0,0,0,0,0,0,0,0,0,-1,1504,897,0,0
287,127,0,0,0,0,0,0,0,0,0,-1,1511,897,0,0
294,127,0,0,0,0,0,0,0,0,0,-1,1518,897,0,0
301,127,0,0,0,0,0,0,0,0,0,-1,1525,897,0,0
308,127,0,0,0,0,0,0,0,0,0,-1,1532,897,0,0
315,127,0,0,0,0,0,0,0,0,0,-1,1539,897,0,0
322,127,0,0,0,0,0,0,0,0,0,-1,1546,897,0,0
329,127,0,0,0,0,0,0,0,0,0,-1,1553,897,0,0
336,127,0,0,0,0,0,0,0,0,0,-1,1560,897,0,0
343,127,0,0,0,0,0,0,0,0,0,-1,1567,897,0,0
350,127,0,0,0,0,0,0,0,0,0,-1,1574,897,0,0
357,127,0,0,0,0,0,0,0,0,0,-1,1581,897,0,0
364,127,0,0,0,0,0,0,0,0,0,-1,1588,897,0,0
371,127,0,0,0,0,0,0,0,0,0,-1,1595,897,0,0
378,127,0,0,0,0,0,0,0,0,0,-1,1602,897,0,0
385,127,0,0,0,0,0,0,0,0,0,-1,1609,897,0,0
392,127,0,0,0,0,0,0,0,0,0,-1,1616,897,0,0
399,127,0,0,0,0,0,0,0,0,0,-1,1623,897,0,0
406,127,0,0,0,0,0,0,0,0,0,-1,1630,897,0,0
413,127,0,0,0,0,0,0,0,0,0,-1,1637,897,0,0
420,127,0,0,0,0,0,0,0,0,0,-1,1644,897,0,0
427,127,0,0,0,0,0,0,0,0,0,-1,1651,897,0,0
434,127,0,0,0,0,0,0,0,0,0,-1,1658,897,0,0
441,127,0,0,0,0,0,0,0,0,0,-1,1665,897,0,0
448,127,0,0,0,0,0,0,0,0,0,-1,1672,897,0,0
455,127,0,0,0,0,0,0,0,0,0,-1,1679,897,0,0
462,127,0,0,0,0,0,0,0,0,0,-1,1686,897,0,0
469,127,0,0,0,0,0,0,0,0,0,-1,1693,897,0,0
476,127,0,0,0,0,0,0,0,0,0,-1,1700,897,0,0
483,127,0,0,0,0,0,0,0,0,0,-1,1707,897,0,0
490,127,0,0,0,0,0,0,0,0,0,-1,1714,897,0,0
497,127,0,0,0,0,0,0,0,0,0,-1,1721,897,0,0
504,127,0,0,0,0,0,0,0,0,0,-1,1728,897,0,0
511,127,0,0,0,0,0,0,0,0,0,-1,1735,897,0,0
518,127,0,0,0,0,0,0,0,0,0,-1,1742,897,0,0
525,127,0,0,0,0,0,0,0,0,0,-1,1749,897,0,0
532,127,0,0,0,0,0,0,0,0,0,-1,1756,897,0,0
539,127,0,0,0,0,0,0,0,0,0,-1,1763,897,0,0
546,127,0,0,0,0,0,0,0,0,0,-1,1770,897,0,0
553,127,0,0,0,0,0,0,0,0,0,-1,1777,897,0,0
560,127,0,0,0,0,0,0,0,0,0,-1,1784,897,0,0
567,127,0,0,0,0,0,0,0,0,0,-1,1791,897,0,0
574,127,0,0,0,0,0,0,0,0,0,-1,1798,897,0,0
581,127,0,0,0,0,0,0,0,0,0,-1,1805,897,0,0
588,127,0,0,0,0,0,0,0,0,0,-1,1812,897,0,0
595,127,0,0,0,0,0,0,0,0,0,-1,1819,897,0,0
602,127,0,0,0,0,0,0,0,0,0,-1,1826,897,0,0
609,127,0,0,0,0,0,0,0,0,0,-1,1833,897,0,0
616,127,0,0,0,0,0,0,0,0,0,-1,1840,897,0,0
623,127,0,0,0,0,0,0,0,0,0,-1,1847,897,0,0
630,127,47.9987,2.72522,0,0,0,0,0,0,0,-1,1854,897,47.9987,-2.72523
637,127,48.0623,2.74548,0.000307091,-0.00601937,-0.00170488,0.000737276,-0.00644956,-0.247166,0.00456535,0.0393119,1861,897,48.0622,-2.74547
644,127,48.11,2.92993,0.000106988,-0.00427308,-0.00130014,0.000463835,-0.00462993,-0.267873,0.00325228,0.0405307,1868,897,48.1099,-2.92996
651,127,48.0266,2.89191,-2.32797e-05,-0.00287127,-0.000993993,0.000289327,-0.00318387,-0.304702,0.0022253,0.0430674,1875,897,48.0267,-2.89188
658,127,47.9768,2.78204,-0.000131833,-0.00178156,-0.000747782,0.000156667,-0.00207006,-0.368212,0.00143511,0.0431755,1882,897,47.9768,-2.78206
665,127,47.989,2.68011,-7.80521e-05,-0.00110069,-0.000671936,0.000254989,-0.00143373,-0.460157,0.00105118,0.0402514,1889,897,47.989,-2.68014
672,127,47.9806,2.65814,-1.3235e-05,-0.000768468,-0.000554192,0.000279762,-0.00106147,-0.486338,0.000817023,0.0336899,1896,897,47.9806,-2.65812
679,127,48.0078,2.76721,5.08709e-05,-0.000483401,-0.000473219,0.000327148,-0.000759678,-0.528441,0.00064383,0.0218819,1903,897,48.0078,-2.76721
686,127,47.9714,2.78503,5.78195e-05,-0.000358031,-0.000469881,0.000363724,-0.000663936,-0.577096,0.000601699,0.0423823,1910,897,47.9714,-2.78501
693,127,47.8708,2.73322,0,0,0,0,0,0,0,-1,1917,897,47.8709,-2.73323
700,127,41.9841,2.5899,0,0,0,0,0,0,0,-1,1924,897,41.9841,-2.58993
707,127,41.9113,3.12305,0,0,0,0,0,0,0,-1,1931,897,41.9112,-3.12305
714,127,42.1217,3.68494,-9.69821e-05,0.000541917,-0.000629526,0.000928408,-0.000483472,-1.02019,0.000828532,0.0232811,1938,897,42.1217,-3.68496
721,127,42.2968,4.35846,-0.000132971,0.000940919,-0.000672673,0.00126467,-0.000456722,-1.12223,0.00102969,0.0187302,1945,897,42.2968,-4.35846
728,127,42.2444,4.78253,-0.000267769,0.00154129,-0.000588172,0.0017157,-0.000442184,-1.28252,0.00131619,0.0163496,1952,897,42.2443,-4.78256
735,127,42.176,5.25287,-0.000169419,0.00241277,-0.000382518,0.00246825,-0.000224892,-1.42678,0.00172536,0.0209162,1959,897,42.1761,-5.25285
742,127,42.1547,5.76294,0.000189006,0.00362387,3.93015e-05,0.00362432,0.000188557,1.55936,0.00235588,0.0197205,1966,897,42.1547,-5.76291
749,127,42.1484,6.23602,0.000907944,0.00523234,0.000869062,0.00540046,0.000739826,1.37971,0.00338079,0.0137263,1973,897,42.1485,-6.23601
756,127,42.113,6.67432,0.00226722,0.00689409,0.00216351,0.0077481,0.0014132,1.19483,0.00476471,0.0162554,1980,897,42.1131,-6.67432
763,127,42.0897,7.12531,0.00429767,0.00831746,0.00389764,0.0106929,0.00192222,1.02345,0.0065821,0.0248049,1987,897,42.0897,-7.12532
770,127,42.1276,7.57098,0,0,0,0,0,0,0,-1,1994,897,42.1275,-7.57101
777,127,42.703,5.33789,0,0,0,0,0,0,0,-1,2001,897,42.7031,-5.33791
784,127,42.6145,8.47131,0,0,0,0,0,0,0,-1,2008,897,42.6146,-8.47131
791,127,42.5813,5.51636,0,0,0,0,0,0,0,-1,2015,897,42.5813,-5.51633
798,127,0,0,0,0,0,0,0,0,0,-1,2022,897,0,0
805,127,0,0,0,0,0,0,0,0,0,-1,2029,897,0,0
812,127,0,0,0,0,0,0,0,0,0,-1,2036,897,0,0
-700,120,0,0,0,0,0,0,0,0,0,-1,524,904,0,0
-693,120,0,0,0,0,0,0,0,0,0,-1,531,904,0,0
-686,120,0,0,0,0,0,0,0,0,0,-1,538,904,0,0
-679,120,-35.8138,2.91296,0.176384,0.0289702,0.0723627,0.205968,-0.00061404,0.388098,0.137517,0.0393474,545,904,-35.8138,-2.91293
-672,120,-34.9579,3.82312,0.145657,0.0235624,0.0644383,0.173374,-0.00415431,0.406206,0.116992,0.0400584,552,904,-34.9579,-3.82309
-665,120,-34.0465,4.03125,0.117466,0.0191869,0.0560111,0.142837,-0.00618494,0.425328,0.0973521,0.0462504,559,904,-34.0465,-4.03122
-658,120,-32.627,4.50543,0,0,0,0,0,0,0,-1,566,904,-32.627,-4.50543
-651,120,-33.7668,3.00983,0,0,0,0,0,0,0,-1,573,904,-33.7668,-3.00981
-644,120,-32.4323,4.14612,0,0,0,0,0,0,0,-1,580,904,-32.4323,-4.14611
-637,120,-32.1678,3.94397,0,0,0,0,0,0,0,-1,587,904,-32.1678,-3.94394
-630,120,-31.7457,3.85327,0,0,0,0,0,0,0,-1,594,904,-31.7456,-3.85324
-623,120,-31.598,3.87854,0.00669279,0.004692,0.0118059,0.0175406,-0.00615577,0.743131,0.0141977,0.0121407,601,904,-31.598,-3.87855
-616,120,-31.6315,3.45099,0.000602753,0.00299243,0.0078531,0.00974107,-0.00614589,0.860893,0.00925029,0.0104893,608,904,-31.6316,-3.451
-609,120,-31.656,3.04553,-0.0034715,0.00194627,0.00525564,0.00515007,-0.0066753,1.02335,0.00684628,0.0132406,615,904,-31.656,-3.04551
-602,120,-31.6822,2.61908,-0.00482239,0.0010026,0.00391845,0.00297241,-0.00679219,1.10499,0.00577959,0.0154486,622,904,-31.6822,-2.61908
-595,120,-31.6404,2.25842,-0.00549309,0.000360904,0.00296237,0.0015984,-0.00673058,1.17509,0.00510397,0.0280828,629,904,-31.6405,-2.25844
-588,120,-31.6412,1.7627,-0.00551735,-0.000230517,0.00244857,0.000729279,-0.00647715,1.19722,0.00458059,0.0379363,636,904,-31.6413,-1.76267
-581,120,-31.408,1.14258,0,0,0,0,0,0,0,-1,643,904,-31.408,-1.14257
-574,120,-27.5438,0.505066,0,0,0,0,0,0,0,-1,650,904,-27.5438,-0.505085
-567,120,-25.2822,-0.410645,0,0,0,0,0,0,0,-1,657,904,-25.2821,0.410629
-560,120,-27.3358,1.10327,0,0,0,0,0,0,0,-1,664,904,-27.3358,-1.10324
-553,120,-35.8961,1.00928,0,0,0,0,0,0,0,-1,671,904,-35.8961,-1.00925
-546,120,-35.9095,1.07349,-0.00304898,-0.00169777,0.000761368,-0.00135547,-0.00339128,1.14829,0.00197104,0.0311633,678,904,-35.9095,-1.07347
-539,120,-35.868,1.00726,-0.00221205,-0.00161892,0.000389736,-0.00142574,-0.00240522,1.11063,0.0013966,0.0245731,685,904,-35.868,-1.00728
-532,120,-35.7514,1.00793,-0.00106295,-0.00148527,-5.23654e-05,-0.00105655,-0.00149166,-0.121542,0.000885775,0.0278092,692,904,-35.7514,-1.00794
-525,120,-35.8737,1.03534,0.000101756,-0.00138845,-0.000696642,0.000376696,-0.00166339,-0.375898,0.00125351,0.0365044,699,904,-35.8737,-1.03532
-518,120,-36.1929,1.0722,0.000641426,-0.0013697,-0.00148096,0.00142595,-0.00215422,-0.487154,0.00208122,0.038469,706,904,-36.1928,-1.07218
-511,120,-36.1173,0.994812,0.00188967,-0.00113662,-0.00225616,0.00309312,-0.00234007,-0.490013,0.00314688,0.0395693,713,904,-36.1173,-0.994814
-504,120,0,0,0,0,0,0,0,0,0,-1,720,904,0,0
-497,120,0,0,0,0,0,0,0,0,0,-1,727,904,0,0
-490,120,0,0,0,0,0,0,0,0,0,-1,734,904,0,0
-483,120,0,0,0,0,0,0,0,0,0,-1,741,904,0,0
-476,120,0,0,0,0,0,0,0,0,0,-1,748,904,0,0
-469,120,0,0,0,0,0,0,0,0,0,-1,755,904,0,0
-462,120,0,0,0,0,0,0,0,0,0,-1,762,904,0,0
-455,120,0,0,0,0,0,0,0,0,0,-1,769,904,0,0
-448,120,0,0,0,0,0,0,0,0,0,-1,776,904,0,0
-441,120,0,0,0,0,0,0,0,0,0,-1,783,904,0,0
-434,120,0,0,0,0,0,0,0,0,0,-1,790,904,0,0
-427,120,0,0,0,0,0,0,0,0,0,-1,797,904,0,0
-420,120,0,0,0,0,0,0,0,0,0,-1,804,904,0,0
-413,120,0,0,0,0,0,0,0,0,0,-1,811,904,0,0
-406,120,0,0,0,0,0,0,0,0,0,-1,818,904,0,0
-399,120,0,0,0,0,0,0,0,0,0,-1,825,904,0,0
-392,120,0,0,0,0,0,0,0,0,0,-1,832,904,0,0
-385,120,0,0,0,0,0,0,0,0,0,-1,839,904,0,0
-378,120,0,0,0,0,0,0,0,0,0,-1,846,904,0,0
-371,120,0,0,0,0,0,0,0,0,0,-1,853,904,0,0
-364,120,0,0,0,0,0,0,0,0,0,-1,860,904,0,0
-357,120,0,0,0,0,0,0,0,0,0,-1,867,904,0,0
-350,120,0,0,0,0,0,0,0,0,0,-1,874,904,0,0
-343,120,0,0,0,0,0,0,0,0,0,-1,881,904,0,0
-336,120,0,0,0,0,0,0,0,0,0,-1,888,904,0,0
-329,120,0,0,0,0,0,0,0,0,0,-1,895,904,0,0
-322,120,0,0,0,0,0,0,0,0,0,-1,902,904,0,0
-315,120,0,0,0,0,0,0,0,0,0,-1,909,904,0,0
-308,120,0,0,0,0,0,0,0,0,0,-1,916,904,0,0
-301,120,0,0,0,0,0,0,0,0,0,-1,923,904,0,0
-294,120,0,0,0,0,0,0,0,0,0,-1,930,904,0,0
-287,120,0,0,0,0,0,0,0,0,0,-1,937,904,0,0
-280,120,0,0,0,0,0,0,0,0,0,-1,944,904,0,0
-273,120,0,0,0,0,0,0,0,0,0,-1,951,904,0,0
-266,120,0,0,0,0,0,0,0,0,0,-1,958,904,0,0
-259,120,0,0,0,0,0,0,0,0,0,-1,965,904,0,0
-252,120,0,0,0,0,0,0,0,0,0,-1,972,904,0,0
-245,120,0,0,0,0,0,0,0,0,0,-1,979,904,0,0
-238,120,0,0,0,0,0,0,0,0,0,-1,986,904,0,0
-231,120,0,0,0,0,0,0,0,0,0,-1,993,904,0,0
-224,120,0,0,0,0,0,0,0,0,0,-1,1000,904,0,0
-217,120,0,0,0,0,0,0,0,0,0,-1,1007,904,0,0
-210,120,0,0,0,0,0,0,0,0,0,-1,1014,904,0,0
-203,120,0,0,0,0,0,0,0,0,0,-1,1021,904,0,0
-196,120,0,0,0,0,0,0,0,0,0,-1,1028,904,0,0
-189,120,0,0,0,0,0,0,0,0,0,-1,1035,904,0,0
-182,120,0,0,0,0,0,0,0,0,0,-1,1042,904,0,0
-175,120,0,0,0,0,0,0,0,0,0,-1,1049,904,0,0
-168,120,0,0,0,0,0,0,0,0,0,-1,1056,904,0,0
-161,120,0,0,0,0,0,0,0,0,0,-1,1063,904,0,0
-154,120,0,0,0,0,0,0,0,0,0,-1,1070,904,0,0
-147,120,0,0,0,0,0,0,0,0,0,-1,1077,904,0,0
-140,120,0,0,0,0,0,0,0,0,0,-1,1084,904,0,0
-133,120,0,0,0,0,0,0,0,0,0,-1,1091,904,0,0
-126,120,0,0,0,0,0,0,0,0,0,-1,1098,904,0,0
-119,120,0,0,0,0,0,0,0,0,0,-1,1105,904,0,0
-112,120,0,0,0,0,0,0,0,0,0,-1,1112,904,0,0
-105,120,0,0,0,0,0,0,0,0,0,-1,1119,904,0,0
-98,120,0,0,0,0,0,0,0,0,0,-1,1126,904,0,0
-91,120,0,0,0,0,0,0,0,0,0,-1,1133,904,0,0
-84,120,0,0,0,0,0,0,0,0,0,-1,1140,904,0,0
-77,120,0,0,0,0,0,0,0,0,0,-1,1147,904,0,0
-70,120,0,0,0,0,0,0,0,0,0,-1,1154,904,0,0
-63,120,0,0,0,0,0,0,0,0,0,-1,1161,904,0,0
-56,120,0,0,0,0,0,0,0,0,0,-1,1168,904,0,0
-49,120,0,0,0,0,0,0,0,0,0,-1,1175,904,0,0
-42,120,0,0,0,0,0,0,0,0,0,-1,1182,904,0,0
-35,120,0,0,0,0,0,0,0,0,0,-1,1189,904,0,0
-28,120,0,0,0,0,0,0,0,0,0,-1,1196,904,0,0
-21,120,0,0,0,0,0,0,0,0,0,-1,1203,904,0,0
-14,120,0,0,0,0,0,0,0,0,0,-1,1210,904,0,0
-7,120,0,0,0,0,0,0,0,0,0,-1,1217,904,0,0
0,120,0,0,0,0,0,0,0,0,0,-1,1224,904,0,0
7,120,0,0,0,0,0,0,0,0,0,-1,1231,904,0,0
14,120,0,0,0,0,0,0,0,0,0,-1,1238,904,0,0
21,120,0,0,0,0,0,0,0,0,0,-1,1245,904,0,0
28,120,0,0,0,0,0,0,0,0,0,-1,1252,904,0,0
35,120,0,0,0,0,0,0,0,0,0,-1,1259,904,0,0
42,120,0,0,0,0,0,0,0,0,0,-1,1266,904,0,0
49,120,0,0,0,0,0,0,0,0,0,-1,1273,904,0,0
56,120,0,0,0,0,0,0,0,0,0,-1,1280,904,0,0
63,120,0,0,0,0,0,0,0,0,0,-1,1287,904,0,0
70,120,0,0,0,0,0,0,0,0,0,-1,1294,904,0,0
77,120,0,0,0,0,0,0,0,0,0,-1,1301,904,0,0
84,120,0,0,0,0,0,0,0,0,0,-1,1308,904,0,0
91,120,0,0,0,0,0,0,0,0,0,-1,1315,904,0,0
98,120,0,0,0,0,0,0,0,0,0,-1,1322,904,0,0
105,120,0,0,0,0,0,0,0,0,0,-1,1329,904,0,0
112,120,0,0,0,0,0,0,0,0,0,-1,1336,904,0,0
119,120,0,0,0,0,0,0,0,0,0,-1,1343,904,0,0
126,120,0,0,0,0,0,0,0,0,0,-1,1350,904,0,0
133,120,0,0,0,0,0,0,0,0,0,-1,1357,904,0,0
140,120,0,0,0,0,0,0,0,0,0,-1,1364,904,0,0
147,120,0,0,0,0,0,0,0,0,0,-1,1371,904,0,0
154,120,0,0,0,0,0,0,0,0,0,-1,1378,904,0,0
161,120,0,0,0,0,0,0,0,0,0,-1,1385,904,0,0
168,120,0,0,0,0,0,0,0,0,0,-1,1392,904,0,0
175,120,0,0,0,0,0,0,0,0,0,-1,1399,904,0,0
182,120,0,0,0,0,0,0,0,0,0,-1,1406,904,0,0
189,120,0,0,0,0,0,0,0,0,0,-1,1413,904,0,0
196,120,0,0,0,0,0,0,0,0,0,-1,1420,904,0,0
203,120,0,0,0,0,0,0,0,0,0,-1,1427,904,0,0
210,120,0,0,0,0,0,0,0,0,0,-1,1434,904,0,0
217,120,0,0,0,0,0,0,0,0,0,-1,1441,904,0,0
224,120,0,0,0,0,0,0,0,0,0,-1,1448,904,0,0
231,120,0,0,0,0,0,0,0,0,0,-1,1455,904,0,0
238,120,0,0,0,0,0,0,0,0,0,-1,1462,904,0,0
245,120,0,0,0,0,0,0,0,0,0,-1,1469,904,0,0
252,120,0,0,0,0,0,0,0,0,0,-1,1476,904,0,0
259,120,0,0,0,0,0,0,0,0,0,-1,1483,904,0,0
266,120,0,0,0,0,0,0,0,0,0,-1,1490,904,0,0
273,120,0,0,0,0,0,0,0,0,0,-1,1497,904,0,0
280,120,0,0,0,0,0,0,0,0,0,-1,1504,904,0,0
287,120,0,0,0,0,0,0,0,0,0,-1,1511,904,0,0
294,120,0,0,0,0,0,0,0,0,0,-1,1518,904,0,0
301,120,0,0,0,0,0,0,0,0,0,-1,1525,904,0,0
308,120,0,0,0,0,0,0,0,0,0,-1,1532,904,0,0
315,120,0,0,0,0,0,0,0,0,0,-1,1539,904,0,0
322,120,0,0,0,0,0,0,0,0,0,-1,1546,904,0,0
329,120,0,0,0,0,0,0,0,0,0,-1,1553,904,0,0
336,120,0,0,0,0,0,0,0,0,0,-1,1560,904,0,0
343,120,0,0,0,0,0,0,0,0,0,-1,1567,904,0,0
350,120,0,0,0,0,0,0,0,0,0,-1,1574,904,0,0
357,120,0,0,0,0,0,0,0,0,0,-1,1581,904,0,0
364,120,0,0,0,0,0,0,0,0,0,-1,1588,904,0,0
371,120,0,0,0,0,0,0,0,0,0,-1,1595,904,0,0
378,120,0,0,0,0,0,0,0,0,0,-1,1602,904,0,0
385,120,0,0,0,0,0,0,0,0,0,-1,1609,904,0,0
392,120,0,0,0,0,0,0,0,0,0,-1,1616,904,0,0
399,120,0,0,0,0,0,0,0,0,0,-1,1623,904,0,0
406,120,0,0,0,0,0,0,0,0,0,-1,1630,904,0,0
413,120,0,0,0,0,0,0,0,0,0,-1,1637,904,0,0
420,120,0,0,0,0,0,0,0,0,0,-1,1644,904,0,0
427,120,0,0,0,0,0,0,0,0,0,-1,1651,904,0,0
434,120,0,0,0,0,0,0,0,0,0,-1,1658,904,0,0
441,120,0,0,0,0,0,0,0,0,0,-1,1665,904,0,0
448,120,0,0,0,0,0,0,0,0,0,-1,1672,904,0,0
455,120,0,0,0,0,0,0,0,0,0,-1,1679,904,0,0
462,120,0,0,0,0,0,0,0,0,0,-1,1686,904,0,0
469,120,0,0,0,0,0,0,0,0,0,-1,1693,904,0,0
476,120,0,0,0,0,0,0,0,0,0,-1,1700,904,0,0
483,120,0,0,0,0,0,0,0,0,0,-1,1707,904,0,0
490,120,0,0,0,0,0,0,0,0,0,-1,1714,904,0,0
497,120,0,0,0,0,0,0,0,0,0,-1,1721,904,0,0
504,120,0,0,0,0,0,0,0,0,0,-1,1728,904,0,0
511,120,0,0,0,0,0,0,0,0,0,-1,1735,904,0,0
518,120,0,0,0,0,0,0,0,0,0,-1,1742,904,0,0
525,120,0,0,0,0,0,0,0,0,0,-1,1749,904,0,0
532,120,0,0,0,0,0,0,0,0,0,-1,1756,904,0,0
539,120,0,0,0,0,0,0,0,0,0,-1,1763,904,0,0
546,120,0,0,0,0,0,0,0,0,0,-1,1770,904,0,0
553,120,0,0,0,0,0,0,0,0,0,-1,1777,904,0,0
560,120,0,0,0,0,0,0,0,0,0,-1,1784,904,0,0
567,120,0,0,0,0,0,0,0,0,0,-1,1791,904,0,0
574,120,0,0,0,0,0,0,0,0,0,-1,1798,904,0,0
581,120,0,0,0,0,0,0,0,0,0,-1,1805,904,0,0
588,120,0,0,0,0,0,0,0,0,0,-1,1812,904,0,0
595,120,0,0,0,0,0,0,0,0,0,-1,1819,904,0,0
602,120,0,0,0,0,0,0,0,0,0,-1,1826,904,0,0
609,120,0,0,0,0,0,0,0,0,0,-1,1833,904,0,0
616,120,0,0,0,0,0,0,0,0,0,-1,1840,904,0,0
623,120,0,0,0,0,0,0,0,0,0,-1,1847,904,0,0
630,120,48.0085,2.69592,-0.000449917,-0.00709065,-0.00252159,0.000399039,-0.00793961,-0.324755,0.00543097,0.0412256,1854,904,48.0085,-2.6959
637,120,48.0383,2.79175,-0.000400374,-0.00521969,-0.00190441,0.000261326,-0.00588139,-0.334407,0.00401087,0.0411593,1861,904,48.0383,-2.79176
644,120,48.0504,2.96057,-0.000402967,-0.00365555,-0.00145244,0.000151204,-0.00420972,-0.364495,0.00285822,0.0403248,1868,904,48.0504,-2.96056
651,120,47.9569,2.90857,-0.000361864,-0.00237759,-0.00107565,0.000104317,-0.00284377,-0.40896,0.00193156,0.0406055,1875,904,47.9568,-2.90857
658,120,48.014,2.94586,-0.000312192,-0.00131225,-0.000726488,6.97168e-05,-0.00169416,-0.483989,0.00115338,0.0415213,1882,904,48.0141,-2.94589
665,120,47.9633,2.82397,-0.000143324,-0.000623225,-0.000552986,0.000219527,-0.000986076,-0.580698,0.000741472,0.0366382,1889,904,47.9632,-2.82395
672,120,47.9504,2.75897,-1.68825e-05,-0.000322151,-0.000374425,0.000234824,-0.000573857,-0.591857,0.000480375,0.0349312,1896,904,47.9505,-2.75896
679,120,47.974,2.70996,7.56923e-05,-0.000120115,-0.0002509,0.000247113,-0.000291536,-0.599379,0.000311342,0.0283515,1903,904,47.974,-2.70995
686,120,47.9941,2.77087,0.000101798,-4.19168e-05,-0.000241003,0.000281428,-0.000221547,-0.640514,0.000291078,0.0237499,1910,904,47.9941,-2.77087
693,120,47.9175,2.84662,0,0,0,0,0,0,0,-1,1917,904,47.9175,-2.84665
700,120,42.2007,3.00946,0,0,0,0,0,0,0,-1,1924,904,42.2007,-3.00944
707,120,42.6394,3.46533,0,0,0,0,0,0,0,-1,1931,904,42.6394,-3.46533
714,120,42.7858,3.97607,-0.000212448,0.000691935,-0.000520052,0.000928896,-0.000449409,-1.14325,0.000811657,0.0218257,1938,904,42.7858,-3.97606
721,120,42.7804,4.43091,-0.000324914,0.00101696,-0.000607955,0.00125143,-0.000559386,-1.2027,0.00107062,0.0169642,1945,904,42.7803,-4.43089
728,120,42.7311,4.89447,-0.000495375,0.00152327,-0.000590765,0.00168345,-0.000655555,-1.30602,0.00139321,0.0120232,1952,904,42.7311,-4.89445
735,120,42.6619,5.28314,-0.000433173,0.00223356,-0.000499055,0.00232389,-0.000523507,-1.39173,0.00175006,0.0131749,1959,904,42.6619,-5.28317
742,120,42.6331,5.77728,-0.000133255,0.00325024,-0.000238919,0.00326703,-0.000150042,-1.50065,0.00222972,0.0140389,1966,904,42.6331,-5.7773
749,120,42.6332,6.22314,0.000554402,0.00467158,0.000439787,0.00471803,0.000507949,1.46556,0.00299045,0.0109141,1973,904,42.6332,-6.22315
756,120,42.5795,6.65833,0.00193574,0.00609997,0.00159743,0.00664216,0.00139355,1.24358,0.00404443,0.0144144,1980,904,42.5794,-6.65831
763,120,42.5225,7.06079,0.00403428,0.00720117,0.00318679,0.00917623,0.00205923,1.01597,0.00555968,0.0302909,1987,904,42.5225,-7.06079
770,120,42.5166,7.47052,0,0,0,0,0,0,0,-1,1994,904,42.5165,-7.47051
777,120,41.3512,6.78638,0,0,0,0,0,0,0,-1,2001,904,41.3512,-6.78635
784,120,43.5239,5.77271,0,0,0,0,0,0,0,-1,2008,904,43.524,-5.77269
791,120,41.957,6.00659,0,0,0,0,0,0,0,-1,2015,904,41.957,-6.00662
798,120,40.751,6.32587,0,0,0,0,0,0,0,-1,2022,904,40.7509,-6.32586
805,120,0,0,0,0,0,0,0,0,0,-1,2029,904,0,0
812,120,0,0,0,0,0,0,0,0,0,-1,2036,904,0,0
-700,113,0,0,0,0,0,0,0,0,0,-1,524,911,0,0
-693,113,0,0,0,0,0,0,0,0,0,-1,531,911,0,0
-686,113,0,0,0,0,0,0,0,0,0,-1,538,911,0,0
-679,113,-35.7641,2.85327,0.18625,0.0252908,0.078116,0.217927,-0.00638607,0.385248,0.147459,0.0410259,545,911,-35.7641,-2.85326
-672,113,-35.2709,3.46661,0.153442,0.0205507,0.0692218,0.182948,-0.00895516,0.402929,0.125057,0.0445154,552,911,-35.271,-3.46664
-665,113,-34.2512,4.14221,0.123611,0.0167494,0.0599764,0.150505,-0.0101442,0.421526,0.103883,0.0472346,559,911,-34.2512,-4.14219
-658,113,-32.8323,4.89233,0,0,0,0,0,0,0,-1,566,911,-32.8323,-4.89234
-651,113,-31.9794,4.24982,0,0,0,0,0,0,0,-1,573,911,-31.9794,-4.24979
-644,113,-32.3638,4.13696,0,0,0,0,0,0,0,-1,580,911,-32.3638,-4.13695
-637,113,-32.21,4.17145,0.0327389,0.00688233,0.0251659,0.0481031,-0.00848183,0.548115,0.0352379,0.0399213,587,911,-32.21,-4.17145
-630,113,-31.9995,4.26141,0.0175982,0.0051699,0.0182475,0.0306606,-0.00789254,0.621284,0.0235169,0.0188578,594,911,-31.9995,-4.26144
-623,113,-32.071,3.85107,0.0068562,0.0040422,0.0123635,0.0178925,-0.0069941,0.728741,0.0148204,0.011381,601,911,-32.0711,-3.85108
-616,113,-32.0756,3.44653,0.000335791,0.00246453,0.00812313,0.00959272,-0.0067924,0.850542,0.0095059,0.0103652,608,911,-32.0756,-3.44652
-609,113,-32.0894,3.07397,-0.00409038,0.00143877,0.00527873,0.00463304,-0.00728465,1.02662,0.00693722,0.0110041,615,911,-32.0893,-3.07399
-602,113,-32.1369,2.6297,-0.00565536,0.000620121,0.00382846,0.00243238,-0.00746762,1.12868,0.00595711,0.0174931,622,911,-32.1369,-2.62969
-595,113,-32.1682,2.31799,-0.00652157,0.000158208,0.00274968,0.00114447,-0.00750784,1.22641,0.00542709,0.0253509,629,911,-32.1682,-2.31797
-588,113,-32.1481,1.90332,-0.00675562,-0.000280285,0.00214804,0.00036748,-0.00740339,1.27791,0.00506253,0.0289271,636,911,-32.1482,-1.90333
-581,113,-32.1379,1.46301,-0.00676807,-0.00080026,0.0017531,-0.000323377,-0.00724495,1.3052,0.00472587,0.0308167,643,911,-32.1379,-1.463
-574,113,-32.0852,0.874756,0,0,0,0,0,0,0,-1,650,911,-32.0852,-0.874744
-567,113,-21.8396,0.437378,0,0,0,0,0,0,0,-1,657,911,-21.8396,-0.437351
-560,113,-35.8925,0.852844,0,0,0,0,0,0,0,-1,664,911,-35.8925,-0.852868
-553,113,-35.8779,1.01965,-0.0048302,-0.00151699,0.000757835,-0.00135188,-0.00499531,1.35628,0.00298349,0.0398698,671,911,-35.8779,-1.01964
-546,113,-35.9252,1.20673,-0.00414447,-0.00140229,0.000476595,-0.00132182,-0.00422494,1.40353,0.00249557,0.0356601,678,911,-35.9252,-1.20674
-539,113,-35.8306,1.10022,-0.00298883,-0.0012145,0.000151738,-0.00120162,-0.00300172,1.4861,0.00174449,0.0361107,685,911,-35.8306,-1.10022
-532,113,-35.7632,0.960083,-0.00130776,-0.00100768,-0.000232033,-0.0008814,-0.00143404,-1.07241,0.000835164,0.0379807,692,911,-35.7632,-0.960101
-525,113,-35.9591,0.94812,0.000605089,-0.000950062,-0.000834746,0.000968313,-0.00131329,-0.410421,0.00132229,0.0373121,699,911,-35.9591,-0.948115
-518,113,-36.053,1.11169,0.0014403,-0.00118698,-0.00161133,0.0022056,-0.00195229,-0.443411,0.00240205,0.0394602,706,911,-36.053,-1.1117
-511,113,-36.0541,1.0744,0.00306314,-0.00132743,-0.00252651,0.00421488,-0.00247916,-0.427716,0.00390787,0.040232,713,911,-36.0541,-1.07441
-504,113,0,0,0,0,0,0,0,0,0,-1,720,911,0,0
-497,113,0,0,0,0,0,0,0,0,0,-1,727,911,0,0
-490,113,0,0,0,0,0,0,0,0,0,-1,734,911,0,0
-483,113,0,0,0,0,0,0,0,0,0,-1,741,911,0,0
-476,113,0,0,0,0,0,0,0,0,0,-1,748,911,0,0
-469,113,0,0,0,0,0,0,0,0,0,-1,755,911,0,0
-462,113,0,0,0,0,0,0,0,0,0,-1,762,911,0,0
-455,113,0,0,0,0,0,0,0,0,0,-1,769,911,0,0
-448,113,0,0,0,0,0,0,0,0,0,-1,776,911,0,0
-441,113,0,0,0,0,0,0,0,0,0,-1,783,911,0,0
-434,113,0,0,0,0,0,0,0,0,0,-1,790,911,0,0
-427,113,0,0,0,0,0,0,0,0,0,-1,797,911,0,0
-420,113,0,0,0,0,0,0,0,0,0,-1,804,911,0,0
-413,113,0,0,0,0,0,0,0,0,0,-1,811,911,0,0
-406,113,0,0,0,0,0,0,0,0,0,-1,818,911,0,0
-399,113,0,0,0,0,0,0,0,0,0,-1,825,911,0,0
-392,113,0,0,0,0,0,0,0,0,0,-1,832,911,0,0
-385,113,0,0,0,0,0,0,0,0,0,-1,839,911,0,0
-378,113,0,0,0,0,0,0,0,0,0,-1,846,911,0,0
-371,113,0,0,0,0,0,0,0,0,0,-1,853,911,0,0
-364,113,0,0,0,0,0,0,0,0,0,-1,860,911,0,0
-357,113,0,0,0,0,0,0,0,0,0,-1,867,911,0,0
-350,113,0,0,0,0,0,0,0,0,0,-1,874,911,0,0
-343,113,0,0,0,0,0,0,0,0,0,-1,881,911,0,0
-336,113,0,0,0,0,0,0,0,0,0,-1,888,911,0,0
-329,113,0,0,0,0,0,0,0,0,0,-1,895,911,0,0
-322,113,0,0,0,0,0,0,0,0,0,-1,902,911,0,0
-315,113,0,0,0,0,0,0,0,0,0,-1,909,911,0,0
-308,113,0,0,0,0,0,0,0,0,0,-1,916,911,0,0
-301,113,0,0,0,0,0,0,0,0,0,-1,923,911,0,0
-294,113,0,0,0,0,0,0,0,0,0,-1,930,911,0,0
-287,113,0,0,0,0,0,0,0,0,0,-1,937,911,0,0
-280,113,0,0,0,0,0,0,0,0,0,-1,944,911,0,0
-273,113,0,0,0,0,0,0,0,0,0,-1,951,911,0,0
-266,113,0,0,0,0,0,0,0,0,0,-1,958,911,0,0
-259,113,0,0,0,0,0,0,0,0,0,-1,965,911,0,0
-252,113,0,0,0,0,0,0,0,0,0,-1,972,911,0,0
-245,113,0,0,0,0,0,0,0,0,0,-1,979,911,0,0
-238,113,0,0,0,0,0,0,0,0,0,-1,986,911,0,0
-231,113,0,0,0,0,0,0,0,0,0,-1,993,911,0,0
-224,113,0,0,0,0,0,0,0,0,0,-1,1000,911,0,0
-217,113,0,0,0,0,0,0,0,0,0,-1,1007,911,0,0
-210,113,0,0,0,0,0,0,0,0,0,-1,1014,911,0,0
-203,113,0,0,0,0,0,0,0,0,0,-1,1021,911,0,0
-196,113,0,0,0,0,0,0,0,0,0,-1,1028,911,0,0
-189,113,0,0,0,0,0,0,0,0,0,-1,1035,911,0,0
-182,113,0,0,0,0,0,0,0,0,0,-1,1042,911,0,0
-175,113,0,0,0,0,0,0,0,0,0,-1,1049,911,0,0
-168,113,0,0,0,0,0,0,0,0,0,-1,1056,911,0,0
-161,113,0,0,0,0,0,0,0,0,0,-1,1063,911,0,0
-154,113,0,0,0,0,0,0,0,0,0,-1,1070,911,0,0
-147,113,0,0,0,0,0,0,0,0,0,-1,1077,911,0,0
-140,113,0,0,0,0,0,0,0,0,0,-1,1084,911,0,0
-133,113,0,0,0,0,0,0,0,0,0,-1,1091,911,0,0
-126,113,0,0,0,0,0,0,0,0,0,-1,1098,911,0,0
-119,113,0,0,0,0,0,0,0,0,0,-1,1105,911,0,0
-112,113,0,0,0,0,0,0,0,0,0,-1,1112,911,0,0
-105,113,0,0,0,0,0,0,0,0,0,-1,1119,911,0,0
-98,113,0,0,0,0,0,0,0,0,0,-1,1126,911,0,0
-91,113,0,0,0,0,0,0,0,0,0,-1,1133,911,0,0
-84,113,0,0,0,0,0,0,0,0,0,-1,1140,911,0,0
-77,113,0,0,0,0,0,0,0,0,0,-1,1147,911,0,0
-70,113,0,0,0,0,0,0,0,0,0,-1,1154,911,0,0
-63,113,0,0,0,0,0,0,0,0,0,-1,1161,911,0,0
-56,113,0,0,0,0,0,0,0,0,0,-1,1168,911,0,0
-49,113,0,0,0,0,0,0,0,0,0,-1,1175,911,0,0
-42,113,0,0,0,0,0,0,0,0,0,-1,1182,911,0,0
-35,113,0,0,0,0,0,0,0,0,0,-1,1189,911,0,0
-28,113,0,0,0,0,0,0,0,0,0,-1,1196,911,0,0
-21,113,0,0,0,0,0,0,0,0,0,-1,1203,911,0,0
-14,113,0,0,0,0,0,0,0,0,0,-1,1210,911,0,0
-7,113,0,0,0,0,0,0,0,0,0,-1,1217,911,0,0
0,113,0,0,0,0,0,0,0,0,0,-1,1224,911,0,0
7,113,0,0,0,0,0,0,0,0,0,-1,1231,911,0,0
14,113,0,0,0,0,0,0,0,0,0,-1,1238,911,0,0
21,113,0,0,0,0,0,0,0,0,0,-1,1245,911,0,0
28,113,0,0,0,0,0,0,0,0,0,-1,1252,911,0,0
35,113,0,0,0,0,0,0,0,0,0,-1,1259,911,0,0
42,113,0,0,0,0,0,0,0,0,0,-1,1266,911,0,0
49,113,0,0,0,0,0,0,0,0,0,-1,1273,911,0,0
56,113,0,0,0,0,0,0,0,0,0,-1,1280,911,0,0
63,113,0,0,0,0,0,0,0,0,0,-1,1287,911,0,0
70,113,0,0,0,0,0,0,0,0,0,-1,1294,911,0,0
77,113,0,0,0,0,0,0,0,0,0,-1,1301,911,0,0
84,113,0,0,0,0,0,0,0,0,0,-1,1308,911,0,0
91,113,0,0,0,0,0,0,0,0,0,-1,1315,911,0,0
98,113,0,0,0,0,0,0,0,0,0,-1,1322,911,0,0
105,113,0,0,0,0,0,0,0,0,0,-1,1329,911,0,0
112,113,0,0,0,0,0,0,0,0,0,-1,1336,911,0,0
119,113,0,0,0,0,0,0,0,0,0,-1,1343,911,0,0
126,113,0,0,0,0,0,0,0,0,0,-1,1350,911,0,0
133,113,0,0,0,0,0,0,0,0,0,-1,1357,911,0,0
140,113,0,0,0,0,0,0,0,0,0,-1,1364,911,0,0
147,113,0,0,0,0,0,0,0,0,0,-1,1371,911,0,0
154,113,0,0,0,0,0,0,0,0,0,-1,1378,911,0,0
161,113,0,0,0,0,0,0,0,0,0,-1,1385,911,0,0
168,113,0,0,0,0,0,0,0,0,0,-1,1392,911,0,0
175,113,0,0,0,0,0,0,0,0,0,-1,1399,911,0,0
182,113,0,0,0,0,0,0,0,0,0,-1,1406,911,0,0
189,113,0,0,0,0,0,0,0,0,0,-1,1413,911,0,0
196,113,0,0,0,0,0,0,0,0,0,-1,1420,911,0,0
203,113,0,0,0,0,0,0,0,0,0,-1,1427,911,0,0
210,113,0,0,0,0,0,0,0,0,0,-1,1434,911,0,0
217,113,0,0,0,0,0,0,0,0,0,-1,1441,911,0,0
224,113,0,0,0,0,0,0,0,0,0,-1,1448,911,0,0
231,113,0,0,0,0,0,0,0,0,0,-1,1455,911,0,0
238,113,0,0,0,0,0,0,0,0,0,-1,1462,911,0,0
245,113,0,0,0,0,0,0,0,0,0,-1,1469,911,0,0
252,113,0,0,0,0,0,0,0,0,0,-1,1476,911,0,0
259,113,0,0,0,0,0,0,0,0,0,-1,1483,911,0,0
266,113,0,0,0,0,0,0,0,0,0,-1,1490,911,0,0
273,113,0,0,0,0,0,0,0,0,0,-1,1497,911,0,0
280,113,0,0,0,0,0,0,0,0,0,-1,1504,911,0,0
287,113,0,0,0,0,0,0,0,0,0,-1,1511,911,0,0
294,113,0,0,0,0,0,0,0,0,0,-1,1518,911,0,0
301,113,0,0,0,0,0,0,0,0,0,-1,1525,911,0,0
308,113,0,0,0,0,0,0,0,0,0,-1,1532,911,0,0
315,113,0,0,0,0,0,0,0,0,0,-1,1539,911,0,0
322,113,0,0,0,0,0,0,0,0,0,-1,1546,911,0,0
329,113,0,0,0,0,0,0,0,0,0,-1,1553,911,0,0
336,113,0,0,0,0,0,0,0,0,0,-1,1560,911,0,0
343,113,0,0,0,0,0,0,0,0,0,-1,1567,911,0,0
350,113,0,0,0,0,0,0,0,0,0,-1,1574,911,0,0
357,113,0,0,0,0,0,0,0,0,0,-1,1581,911,0,0
364,113,0,0,0,0,0,0,0,0,0,-1,1588,911,0,0
371,113,0,0,0,0,0,0,0,0,0,-1,1595,911,0,0
378,113,0,0,0,0,0,0,0,0,0,-1,1602,911,0,0
385,113,0,0,0,0,0,0,0,0,0,-1,1609,911,0,0
392,113,0,0,0,0,0,0,0,0,0,-1,1616,911,0,0
399,113,0,0,0,0,0,0,0,0,0,-1,1623,911,0,0
406,113,0,0,0,0,0,0,0,0,0,-1,1630,911,0,0
413,113,0,0,0,0,0,0,0,0,0,-1,1637,911,0,0
420,113,0,0,0,0,0,0,0,0,0,-1,1644,911,0,0
427,113,0,0,0,0,0,0,0,0,0,-1,1651,911,0,0
434,113,0,0,0,0,0,0,0,0,0,-1,1658,911,0,0
441,113,0,0,0,0,0,0,0,0,0,-1,1665,911,0,0
448,113,0,0,0,0,0,0,0,0,0,-1,1672,911,0,0
455,113,0,0,0,0,0,0,0,0,0,-1,1679,911,0,0
462,113,0,0,0,0,0,0,0,0,0,-1,1686,911,0,0
469,113,0,0,0,0,0,0,0,0,0,-1,1693,911,0,0
476,113,0,0,0,0,0,0,0,0,0,-1,1700,911,0,0
483,113,0,0,0,0,0,0,0,0,0,-1,1707,911,0,0
490,113,0,0,0,0,0,0,0,0,0,-1,1714,911,0,0
497,113,0,0,0,0,0,0,0,0,0,-1,1721,911,0,0
504,113,0,0,0,0,0,0,0,0,0,-1,1728,911,0,0
511,113,0,0,0,0,0,0,0,0,0,-1,1735,911,0,0
518,113,0,0,0,0,0,0,0,0,0,-1,1742,911,0,0
525,113,0,0,0,0,0,0,0,0,0,-1,1749,911,0,0
532,113,0,0,0,0,0,0,0,0,0,-1,1756,911,0,0
539,113,0,0,0,0,0,0,0,0,0,-1,1763,911,0,0
546,113,0,0,0,0,0,0,0,0,0,-1,1770,911,0,0
553,113,0,0,0,0,0,0,0,0,0,-1,1777,911,0,0
560,113,0,0,0,0,0,0,0,0,0,-1,1784,911,0,0
567,113,0,0,0,0,0,0,0,0,0,-1,1791,911,0,0
574,113,0,0,0,0,0,0,0,0,0,-1,1798,911,0,0
581,113,0,0,0,0,0,0,0,0,0,-1,1805,911,0,0
588,113,0,0,0,0,0,0,0,0,0,-1,1812,911,0,0
595,113,0,0,0,0,0,0,0,0,0,-1,1819,911,0,0
602,113,0,0,0,0,0,0,0,0,0,-1,1826,911,0,0
609,113,0,0,0,0,0,0,0,0,0,-1,1833,911,0,0
616,113,0,0,0,0,0,0,0,0,0,-1,1840,911,0,0
623,113,0,0,0,0,0,0,0,0,0,-1,1847,911,0,0
630,113,48.0184,2.82684,-0.0021133,-0.00548754,-0.00291735,-0.000430361,-0.00717048,-0.523241,0.00464352,0.0395718,1854,911,48.0184,-2.82687
637,113,47.9943,3.02185,-0.00155122,-0.00394192,-0.00224507,-0.000203105,-0.00529004,-0.54077,0.00346098,0.0404548,1861,911,47.9943,-3.02184
644,113,48.0728,2.92596,-0.00121943,-0.00264797,-0.00174548,-4.77285e-05,-0.00381967,-0.591186,0.00253069,0.0399772,1868,911,48.0727,-2.92599
651,113,48.0677,2.67804,-0.00093337,-0.00161043,-0.00130486,7.61603e-05,-0.00261996,-0.658478,0.00177257,0.0394861,1875,911,48.0677,-2.67805
658,113,48.0565,2.7132,-0.000684368,-0.000710426,-0.000847747,0.00015045,-0.00154524,-0.777714,0.0010838,0.0401292,1882,911,48.0565,-2.71318
665,113,48.0095,2.95209,-0.000391634,-0.000114719,-0.000553012,0.000316905,-0.000823258,-0.908062,0.000679568,0.0357067,1889,911,48.0095,-2.95209
672,113,47.9209,2.93402,-0.000194343,9.79781e-05,-0.000283056,0.000270383,-0.000366747,-1.02373,0.000369247,0.0345371,1896,911,47.9209,-2.93404
679,113,47.9232,2.72717,-6.86949e-05,0.000156684,-8.43993e-05,0.000184786,-9.67966e-05,-1.24938,0.000165196,0.0305643,1903,911,47.9233,-2.72718
686,113,48.0004,2.7168,-8.06999e-06,0.000146461,-4.88111e-05,0.000160587,-2.21964e-05,-1.28908,0.000115172,0.024954,1910,911,48.0004,-2.71681
693,113,47.9543,2.82727,0,0,0,0,0,0,0,-1,1917,911,47.9543,-2.82725
700,113,43.897,2.79669,0,0,0,0,0,0,0,-1,1924,911,43.897,-2.79671
707,113,43.0723,3.48663,0,0,0,0,0,0,0,-1,1931,911,43.0723,-3.48666
714,113,43.1368,3.9126,-0.000417866,0.000705518,-0.000366881,0.00081472,-0.000527069,-1.2815,0.000780593,0.0225472,1938,911,43.1369,-3.9126
721,113,43.1661,4.35864,-0.000583723,0.000972117,-0.000483169,0.00110995,-0.000721561,-1.2929,0.00106532,0.02142,1945,911,43.1662,-4.35866
728,113,43.2283,4.86359,-0.000743929,0.00142227,-0.000509691,0.0015362,-0.000857864,-1.35088,0.00140059,0.0216474,1952,911,43.2283,-4.86356
735,113,43.1326,5.32343,-0.000658191,0.00204613,-0.000506022,0.00213771,-0.000749775,-1.39175,0.0017301,0.0182392,1959,911,43.1325,-5.32345
742,113,43.0869,5.75629,-0.000381431,0.00294911,-0.000392829,0.00299482,-0.000427137,-1.45497,0.00215309,0.0116894,1966,911,43.0869,-5.75631
749,113,43.1147,6.19928,0.000270918,0.00424634,0.000119861,0.00424995,0.000267308,1.54068,0.00274853,0.00933266,1973,911,43.1148,-6.19927
756,113,43.0553,6.66217,0.00165914,0.00550808,0.0011441,0.00582248,0.00134474,1.30261,0.00352009,0.0140241,1980,911,43.0552,-6.66219
763,113,42.924,7.15448,0.00381359,0.0064041,0.00264851,0.00805712,0.00216058,1.01282,0.00481558,0.0310251,1987,911,42.924,-7.15445
770,113,42.8134,7.62537,0,0,0,0,0,0,0,-1,1994,911,42.8133,-7.62535
777,113,41.8534,7.79913,0,0,0,0,0,0,0,-1,2001,911,41.8533,-7.79911
784,113,42.8354,6.22766,0,0,0,0,0,0,0,-1,2008,911,42.8355,-6.22766
791,113,41.7288,7.26263,0,0,0,0,0,0,0,-1,2015,911,41.7287,-7.26261
798,113,41.9556,6.86206,0,0,0,0,0,0,0,-1,2022,911,41.9555,-6.86204
805,113,0,0,0,0,0,0,0,0,0,-1,2029,911,0,0
812,113,0,0,0,0,0,0,0,0,0,-1,2036,911,0,0
-700,106,0,0,0,0,0,0,0,0,0,-1,524,918,0,0
-693,106,0,0,0,0,0,0,0,0,0,-1,531,918,0,0
-686,106,0,0,0,0,0,0,0,0,0,-1,538,918,0,0
-679,106,-35.7631,2.83722,0,0,0,0,0,0,0,-1,545,918,-35.7631,-2.83723
-672,106,-35.5333,2.76178,0,0,0,0,0,0,0,-1,552,918,-35.5333,-2.76175
-665,106,-34.0617,3.54999,0,0,0,0,0,0,0,-1,559,918,-34.0617,-3.54998
-658,106,-31.8708,4.10406,0,0,0,0,0,0,0,-1,566,918,-31.8708,-4.10404
-651,106,-32.0419,4.14575,0.0733781,0.00798206,0.0417624,0.0937202,-0.0123601,0.453268,0.0669814,0.049908,573,918,-32.0419,-4.14573
-644,106,-32.1347,4.33661,0.0514622,0.00633144,0.0329487,0.0688319,-0.0110383,0.48515,0.0499754,0.0437321,580,918,-32.1347,-4.33662
-637,106,-32.2237,4.53534,0.0336545,0.00506775,0.0251187,0.0482618,-0.00953956,0.526729,0.0357808,0.0320938,587,918,-32.2237,-4.53531
-630,106,-32.4223,4.3092,0.0179413,0.00376592,0.0181201,0.0303106,-0.00860339,0.598971,0.0236034,0.0150936,594,918,-32.4223,-4.30921
-623,106,-32.5321,3.8255,0.00660126,0.00305583,0.0122271,0.0171835,-0.00752638,0.713408,0.0146249,0.0144097,601,918,-32.5321,-3.82547
-616,106,-32.5508,3.41956,-0.00014379,0.00181652,0.00798809,0.00888437,-0.00721164,0.846444,0.00930975,0.0144047,608,918,-32.5509,-3.41956
-609,106,-32.5424,3.06622,-0.00475482,0.00100086,0.00512002,0.00399639,-0.00775036,1.04143,0.00689646,0.0123224,615,918,-32.5424,-3.0662
-602,106,-32.559,2.64478,-0.00638991,0.000457116,0.00366696,0.00205027,-0.00798307,1.16094,0.00612102,0.0181446,622,918,-32.559,-2.6448
-595,106,-32.6819,2.27234,-0.00736835,0.000258732,0.00251004,0.00101065,-0.00812027,1.27974,0.00577992,0.0226217,629,918,-32.6819,-2.27232
-588,106,-32.6716,1.84509,-0.00776877,3.2228e-05,0.00182634,0.000438632,-0.00817517,1.35184,0.00560205,0.0267097,636,918,-32.6716,-1.84507
-581,106,-32.5011,1.39642,-0.00787807,-0.000364086,0.00142506,-0.000102897,-0.00813926,1.38952,0.0053922,0.0168596,643,918,-32.5011,-1.39643
-574,106,-32.6971,0.974487,-0.00764931,-0.000548268,0.00107566,-0.000388904,-0.00780868,1.42371,0.00508111,0.0428269,650,918,-32.6971,-0.974495
-567,106,-33.6125,0.757629,0,0,0,0,0,0,0,-1,657,918,-33.6125,-0.757644
-560,106,-35.8781,0.909363,0,0,0,0,0,0,0,-1,664,918,-35.8781,-0.909392
-553,106,-35.8682,1.08691,-0.00585863,-0.00074507,0.000366193,-0.000718979,-0.00588472,1.49967,0.0037068,0.0342244,671,918,-35.8682,-1.08693
-546,106,-35.8089,1.14496,-0.00489188,-0.000529347,8.5303e-05,-0.000527679,-0.00489355,1.55125,0.00310147,0.0369576,678,918,-35.8089,-1.14494
-539,106,-35.7383,1.06995,-0.00328919,-0.000261604,-0.000260422,-0.000239367,-0.00331143,-1.48561,0.00213231,0.0403092,685,918,-35.7383,-1.06998
-532,106,-35.9052,1.02728,-0.000897349,-8.46202e-05,-0.000681248,0.000302257,-0.00128423,-1.05432,0.000972684,0.0395835,692,918,-35.9051,-1.02728
-525,106,-36.0956,0.999084,0.00183388,-0.000212188,-0.00134443,0.00250026,-0.000878561,-0.460165,0.00202427,0.0375863,699,918,-36.0957,-0.99909
-518,106,-35.9818,1.08252,0.00288103,-0.000782646,-0.00210054,0.00383628,-0.0017379,-0.426812,0.00329339,0.0395768,706,918,-35.9817,-1.08253
-511,106,0,0,0,0,0,0,0,0,0,-1,713,918,0,0
-504,106,0,0,0,0,0,0,0,0,0,-1,720,918,0,0
-497,106,0,0,0,0,0,0,0,0,0,-1,727,918,0,0
-490,106,0,0,0,0,0,0,0,0,0,-1,734,918,0,0
-483,106,0,0,0,0,0,0,0,0,0,-1,741,918,0,0
-476,106,0,0,0,0,0,0,0,0,0,-1,748,918,0,0
-469,106,0,0,0,0,0,0,0,0,0,-1,755,918,0,0
-462,106,0,0,0,0,0,0,0,0,0,-1,762,918,0,0
-455,106,0,0,0,0,0,0,0,0,0,-1,769,918,0,0
-448,106,0,0,0,0,0,0,0,0,0,-1,776,918,0,0
-441,106,0,0,0,0,0,0,0,0,0,-1,783,918,0,0
-434,106,0,0,0,0,0,0,0,0,0,-1,790,918,0,0
-427,106,0,0,0,0,0,0,0,0,0,-1,797,918,0,0
-420,106,0,0,0,0,0,0,0,0,0,-1,804,918,0,0
-413,106,0,0,0,0,0,0,0,0,0,-1,811,918,0,0
-406,106,0,0,0,0,0,0,0,0,0,-1,818,918,0,0
-399,106,0,0,0,0,0,0,0,0,0,-1,825,918,0,0
-392,106,0,0,0,0,0,0,0,0,0,-1,832,918,0,0
-385,106,0,0,0,0,0,0,0,0,0,-1,839,918,0,0
-378,106,0,0,0,0,0,0,0,0,0,-1,846,918,0,0
-371,106,0,0,0,0,0,0,0,0,0,-1,853,918,0,0
-364,106,0,0,0,0,0,0,0,0,0,-1,860,918,0,0
-357,106,0,0,0,0,0,0,0,0,0,-1,867,918,0,0
-350,106,0,0,0,0,0,0,0,0,0,-1,874,918,0,0
-343,106,0,0,0,0,0,0,0,0,0,-1,881,918,0,0
-336,106,0,0,0,0,0,0,0,0,0,-1,888,918,0,0
-329,106,0,0,0,0,0,0,0,0,0,-1,895,918,0,0
-322,106,0,0,0,0,0,0,0,0,0,-1,902,918,0,0
-315,106,0,0,0,0,0,0,0,0,0,-1,909,918,0,0
-308,106,0,0,0,0,0,0,0,0,0,-1,916,918,0,0
-301,106,0,0,0,0,0,0,0,0,0,-1,923,918,0,0
-294,106,0,0,0,0,0,0,0,0,0,-1,930,918,0,0
-287,106,0,0,0,0,0,0,0,0,0,-1,937,918,0,0
-280,106,0,0,0,0,0,0,0,0,0,-1,944,918,0,0
-273,106,0,0,0,0,0,0,0,0,0,-1,951,918,0,0
-266,106,0,0,0,0,0,0,0,0,0,-1,958,918,0,0
-259,106,0,0,0,0,0,0,0,0,0,-1,965,918,0,0
-252,106,0,0,0,0,0,0,0,0,0,-1,972,918,0,0
-245,106,0,0,0,0,0,0,0,0,0,-1,979,918,0,0
-238,106,0,0,0,0,0,0,0,0,0,-1,986,918,0,0
-231,106,0,0,0,0,0,0,0,0,0,-1,993,918,0,0
-224,106,0,0,0,0,0,0,0,0,0,-1,1000,918,0,0
-217,106,0,0,0,0,0,0,0,0,0,-1,1007,918,0,0
-210,106,0,0,0,0,0,0,0,0,0,-1,1014,918,0,0
-203,106,0,0,0,0,0,0,0,0,0,-1,1021,918,0,0
-196,106,0,0,0,0,0,0,0,0,0,-1,1028,918,0,0
-189,106,0,0,0,0,0,0,0,0,0,-1,1035,918,0,0
-182,106,0,0,0,0,0,0,0,0,0,-1,1042,918,0,0
-175,106,0,0,0,0,0,0,0,0,0,-1,1049,918,0,0
-168,106,0,0,0,0,0,0,0,0,0,-1,1056,918,0,0
-161,106,0,0,0,0,0,0,0,0,0,-1,1063,918,0,0
-154,106,0,0,0,0,0,0,0,0,0,-1,1070,918,0,0
-147,106,0,0,0,0,0,0,0,0,0,-1,1077,918,0,0
-140,106,0,0,0,0,0,0,0,0,0,-1,1084,918,0,0
-133,106,0,0,0,0,0,0,0,0,0,-1,1091,918,0,0
-126,106,0,0,0,0,0,0,0,0,0,-1,1098,918,0,0
-119,106,0,0,0,0,0,0,0,0,0,-1,1105,918,0,0
-112,106,0,0,0,0,0,0,0,0,0,-1,1112,918,0,0
-105,106,0,0,0,0,0,0,0,0,0,-1,1119,918,0,0
-98,106,0,0,0,0,0,0,0,0,0,-1,1126,918,0,0
-91,106,0,0,0,0,0,0,0,0,0,-1,1133,918,0,0
-84,106,0,0,0,0,0,0,0,0,0,-1,1140,918,0,0
-77,106,0,0,0,0,0,0,0,0,0,-1,1147,918,0,0
-70,106,0,0,0,0,0,0,0,0,0,-1,1154,918,0,0
-63,106,0,0,0,0,0,0,0,0,0,-1,1161,918,0,0
-56,106,0,0,0,0,0,0,0,0,0,-1,1168,918,0,0
-49,106,0,0,0,0,0,0,0,0,0,-1,1175,918,0,0
-42,106,0,0,0,0,0,0,0,0,0,-1,1182,918,0,0
-35,106,0,0,0,0,0,0,0,0,0,-1,1189,918,0,0
-28,106,0,0,0,0,0,0,0,0,0,-1,1196,918,0,0
-21,106,0,0,0,0,0,0,0,0,0,-1,1203,918,0,0
-14,106,0,0,0,0,0,0,0,0,0,-1,1210,918,0,0
-7,106,0,0,0,0,0,0,0,0,0,-1,1217,918,0,0
0,106,0,0,0,0,0,0,0,0,0,-1,1224,918,0,0
7,106,0,0,0,0,0,0,0,0,0,-1,1231,918,0,0
14,106,0,0,0,0,0,0,0,0,0,-1,1238,918,0,0
21,106,0,0,0,0,0,0,0,0,0,-1,1245,918,0,0
28,106,0,0,0,0,0,0,0,0,0,-1,1252,918,0,0
35,106,0,0,0,0,0,0,0,0,0,-1,1259,918,0,0
42,106,0,0,0,0,0,0,0,0,0,-1,1266,918,0,0
49,106,0,0,0,0,0,0,0,0,0,-1,1273,918,0,0
56,106,0,0,0,0,0,0,0,0,0,-1,1280,918,0,0
63,106,0,0,0,0,0,0,0,0,0,-1,1287,918,0,0
70,106,0,0,0,0,0,0,0,0,0,-1,1294,918,0,0
77,106,0,0,0,0,0,0,0,0,0,-1,1301,918,0,0
84,106,0,0,0,0,0,0,0,0,0,-1,1308,918,0,0
91,106,0,0,0,0,0,0,0,0,0,-1,1315,918,0,0
98,106,0,0,0,0,0,0,0,0,0,-1,1322,918,0,0
105,106,0,0,0,0,0,0,0,0,0,-1,1329,918,0,0
112,106,0,0,0,0,0,0,0,0,0,-1,1336,918,0,0
119,106,0,0,0,0,0,0,0,0,0,-1,1343,918,0,0
126,106,0,0,0,0,0,0,0,0,0,-1,1350,918,0,0
133,106,0,0,0,0,0,0,0,0,0,-1,1357,918,0,0
140,106,0,0,0,0,0,0,0,0,0,-1,1364,918,0,0
147,106,0,0,0,0,0,0,0,0,0,-1,1371,918,0,0
154,106,0,0,0,0,0,0,0,0,0,-1,1378,918,0,0
161,106,0,0,0,0,0,0,0,0,0,-1,1385,918,0,0
168,106,0,0,0,0,0,0,0,0,0,-1,1392,918,0,0
175,106,0,0,0,0,0,0,0,0,0,-1,1399,918,0,0
182,106,0,0,0,0,0,0,0,0,0,-1,1406,918,0,0
189,106,0,0,0,0,0,0,0,0,0,-1,1413,918,0,0
196,106,0,0,0,0,0,0,0,0,0,-1,1420,918,0,0
203,106,0,0,0,0,0,0,0,0,0,-1,1427,918,0,0
210,106,0,0,0,0,0,0,0,0,0,-1,1434,918,0,0
217,106,0,0,0,0,0,0,0,0,0,-1,1441,918,0,0
224,106,0,0,0,0,0,0,0,0,0,-1,1448,918,0,0
231,106,0,0,0,0,0,0,0,0,0,-1,1455,918,0,0
238,106,0,0,0,0,0,0,0,0,0,-1,1462,918,0,0
245,106,0,0,0,0,0,0,0,0,0,-1,1469,918,0,0
252,106,0,0,0,0,0,0,0,0,0,-1,1476,918,0,0
259,106,0,0,0,0,0,0,0,0,0,-1,1483,918,0,0
266,106,0,0,0,0,0,0,0,0,0,-1,1490,918,0,0
273,106,0,0,0,0,0,0,0,0,0,-1,1497,918,0,0
280,106,0,0,0,0,0,0,0,0,0,-1,1504,918,0,0
287,106,0,0,0,0,0,0,0,0,0,-1,1511,918,0,0
294,106,0,0,0,0,0,0,0,0,0,-1,1518,918,0,0
301,106,0,0,0,0,0,0,0,0,0,-1,1525,918,0,0
308,106,0,0,0,0,0,0,0,0,0,-1,1532,918,0,0
315,106,0,0,0,0,0,0,0,0,0,-1,1539,918,0,0
322,106,0,0,0,0,0,0,0,0,0,-1,1546,918,0,0
329,106,0,0,0,0,0,0,0,0,0,-1,1553,918,0,0
336,106,0,0,0,0,0,0,0,0,0,-1,1560,918,0,0
343,106,0,0,0,0,0,0,0,0,0,-1,1567,918,0,0
350,106,0,0,0,0,0,0,0,0,0,-1,1574,918,0,0
357,106,0,0,0,0,0,0,0,0,0,-1,1581,918,0,0
364,106,0,0,0,0,0,0,0,0,0,-1,1588,918,0,0
371,106,0,0,0,0,0,0,0,0,0,-1,1595,918,0,0
378,106,0,0,0,0,0,0,0,0,0,-1,1602,918,0,0
385,106,0,0,0,0,0,0,0,0,0,-1,1609,918,0,0
392,106,0,0,0,0,0,0,0,0,0,-1,1616,918,0,0
399,106,0,0,0,0,0,0,0,0,0,-1,1623,918,0,0
406,106,0,0,0,0,0,0,0,0,0,-1,1630,918,0,0
413,106,0,0,0,0,0,0,0,0,0,-1,1637,918,0,0
420,106,0,0,0,0,0,0,0,0,0,-1,1644,918,0,0
427,106,0,0,0,0,0,0,0,0,0,-1,1651,918,0,0
434,106,0,0,0,0,0,0,0,0,0,-1,1658,918,0,0
441,106,0,0,0,0,0,0,0,0,0,-1,1665,918,0,0
448,106,0,0,0,0,0,0,0,0,0,-1,1672,918,0,0
455,106,0,0,0,0,0,0,0,0,0,-1,1679,918,0,0
462,106,0,0,0,0,0,0,0,0,0,-1,1686,918,0,0
469,106,0,0,0,0,0,0,0,0,0,-1,1693,918,0,0
476,106,0,0,0,0,0,0,0,0,0,-1,1700,918,0,0
483,106,0,0,0,0,0,0,0,0,0,-1,1707,918,0,0
490,106,0,0,0,0,0,0,0,0,0,-1,1714,918,0,0
497,106,0,0,0,0,0,0,0,0,0,-1,1721,918,0,0
504,106,0,0,0,0,0,0,0,0,0,-1,1728,918,0,0
511,106,0,0,0,0,0,0,0,0,0,-1,1735,918,0,0
518,106,0,0,0,0,0,0,0,0,0,-1,1742,918,0,0
525,106,0,0,0,0,0,0,0,0,0,-1,1749,918,0,0
532,106,0,0,0,0,0,0,0,0,0,-1,1756,918,0,0
539,106,0,0,0,0,0,0,0,0,0,-1,1763,918,0,0
546,106,0,0,0,0,0,0,0,0,0,-1,1770,918,0,0
553,106,0,0,0,0,0,0,0,0,0,-1,1777,918,0,0
560,106,0,0,0,0,0,0,0,0,0,-1,1784,918,0,0
567,106,0,0,0,0,0,0,0,0,0,-1,1791,918,0,0
574,106,0,0,0,0,0,0,0,0,0,-1,1798,918,0,0
581,106,0,0,0,0,0,0,0,0,0,-1,1805,918,0,0
588,106,0,0,0,0,0,0,0,0,0,-1,1812,918,0,0
595,106,0,0,0,0,0,0,0,0,0,-1,1819,918,0,0
602,106,0,0,0,0,0,0,0,0,0,-1,1826,918,0,0
609,106,0,0,0,0,0,0,0,0,0,-1,1833,918,0,0
616,106,0,0,0,0,0,0,0,0,0,-1,1840,918,0,0
623,106,0,0,0,0,0,0,0,0,0,-1,1847,918,0,0
630,106,48.1748,2.89386,-0.00356865,-0.00434508,-0.00306555,-0.000866829,-0.0070469,-0.722415,0.0044373,0.0408485,1854,918,48.1748,-2.89387
637,106,48.0226,2.99695,-0.00248615,-0.00290151,-0.00242426,-0.000260685,-0.00512697,-0.742668,0.00333448,0.0388436,1861,918,48.0226,-2.99698
644,106,48.1311,2.90082,-0.00187247,-0.00172327,-0.00193298,0.000136547,-0.00373229,-0.804686,0.00253493,0.0382829,1868,918,48.1311,-2.90082
651,106,48.0873,2.69598,-0.00139931,-0.000839509,-0.00146323,0.000370351,-0.00260917,-0.879901,0.00187513,0.0399807,1875,918,48.0872,-2.69597
658,106,47.9812,2.85419,-0.00100558,-6.67908e-05,-0.000929669,0.000505264,-0.00157763,-1.01918,0.00125456,0.0408038,1882,918,47.9812,-2.8542
665,106,47.9264,3.04767,-0.000629555,0.000455011,-0.000515568,0.00066098,-0.000835524,-1.19072,0.000865963,0.039792,1889,918,47.9264,-3.04764
672,106,47.9585,3.06061,-0.000397227,0.000596249,-0.000145108,0.00061701,-0.000417988,-1.42869,0.000601227,0.0394259,1896,918,47.9586,-3.06063
679,106,47.999,2.95435,-0.00025088,0.000530402,0.000129392,0.000551273,-0.000271752,1.41087,0.000484223,0.0346723,1903,918,47.999,-2.95437
686,106,47.9849,2.76495,-0.000150237,0.00042148,0.000185907,0.000476615,-0.000205372,1.28249,0.000403993,0.0272907,1910,918,47.9848,-2.76493
693,106,47.97,2.75201,-0.000147031,0.000507303,6.64679e-05,0.000513987,-0.000153715,1.47058,0.00040377,0.0313827,1917,918,47.9699,-2.75199
700,106,48.0353,2.70862,0,0,0,0,0,0,0,-1,1924,918,48.0353,-2.70864
707,106,43.485,3.3905,0,0,0,0,0,0,0,-1,1931,918,43.485,-3.39053
714,106,43.657,3.89502,-0.000632413,0.000775607,-0.000157312,0.000792969,-0.000649775,-1.46088,0.000834335,0.0345423,1938,918,43.6569,-3.89504
721,106,43.694,4.39618,-0.000831086,0.000996284,-0.000304794,0.00104578,-0.000880583,-1.40981,0.00111355,0.0261436,1945,918,43.6939,-4.39619
728,106,43.7383,4.89539,-0.000952767,0.00141377,-0.000379185,0.00147304,-0.00101204,-1.41574,0.00144297,0.0247215,1952,918,43.7383,-4.89538
735,106,43.6591,5.32483,-0.000809986,0.0019833,-0.000446311,0.00205288,-0.000879564,-1.41614,0.00173763,0.0213395,1959,918,43.6591,-5.32482
742,106,43.5835,5.72943,-0.000529752,0.0028305,-0.000441485,0.00288753,-0.000586788,-1.44232,0.00214751,0.0120424,1966,918,43.5835,-5.7294
749,106,43.5735,6.18207,8.48978e-05,0.00408539,-5.13911e-05,0.00408605,8.42379e-05,-1.55795,0.00269639,0.00981986,1973,918,43.5734,-6.18207
756,106,43.5184,6.62207,0.00146924,0.00529317,0.000889412,0.00548992,0.0012725,1.35309,0.00331814,0.012723,1980,918,43.5184,-6.6221
763,106,43.4237,7.14288,0.00366405,0.00614169,0.00236737,0.00757478,0.00223096,1.02645,0.00449471,0.0242141,1987,918,43.4237,-7.14288
770,106,43.3615,7.45581,0.00693651,0.00622698,0.00426883,0.0108653,0.00229819,0.743941,0.00661197,0.0461693,1994,918,43.3614,-7.45579
777,106,43.4071,7.69617,0,0,0,0,0,0,0,-1,2001,918,43.4071,-7.69614
784,106,44.1826,8.42694,0,0,0,0,0,0,0,-1,2008,918,44.1826,-8.42694
791,106,44.166,8.95978,0,0,0,0,0,0,0,-1,2015,918,44.166,-8.95977
798,106,43.1941,7.08234,0,0,0,0,0,0,0,-1,2022,918,43.1941,-7.08234
805,106,0,0,0,0,0,0,0,0,0,-1,2029,918,0,0
812,106,0,0,0,0,0,0,0,0,0,-1,2036,918,0,0
-700,99,0,0,0,0,0,0,0,0,0,-1,524,925,0,0
-693,99,0,0,0,0,0,0,0,0,0,-1,531,925,0,0
-686,99,0,0,0,0,0,0,0,0,0,-1,538,925,0,0
-679,99,-35.9539,2.82599,0,0,0,0,0,0,0,-1,545,925,-35.9539,-2.826
-672,99,-34.9232,1.98737,0,0,0,0,0,0,0,-1,552,925,-34.9232,-1.9874
-665,99,-33.5337,3.17169,0,0,0,0,0,0,0,-1,559,925,-33.5337,-3.1717
-658,99,-32.8378,4.91022,0,0,0,0,0,0,0,-1,566,925,-32.8378,-4.91024
-651,99,-32.9461,4.59149,0.0723838,0.00507029,0.0388537,0.0901313,-0.0126771,0.428474,0.0647283,0.0471872,573,925,-32.9461,-4.59147
-644,99,-32.8294,4.51825,0.0503373,0.00393609,0.0302989,0.0652981,-0.0110247,0.458654,0.0476341,0.0426723,580,925,-32.8294,-4.51824
-637,99,-32.696,4.53308,0.0327102,0.00315006,0.0228927,0.0451795,-0.00931923,0.498752,0.0336589,0.030243,587,925,-32.696,-4.53306
-630,99,-32.8431,4.25726,0.0169533,0.00225194,0.01629,0.0274743,-0.00826906,0.573456,0.0216066,0.0161717,594,925,-32.8431,-4.25724
-623,99,-32.9935,3.82489,0.00537598,0.00199757,0.0108181,0.014636,-0.00726243,0.707951,0.0128797,0.0109453,601,925,-32.9935,-3.82489
-616,99,-33.0085,3.42273,-0.0012802,0.00115477,0.0069632,0.00700612,-0.00713155,0.871946,0.0081625,0.0123072,608,925,-33.0085,-3.42273
-609,99,-32.9962,3.07214,-0.00580062,0.00058291,0.00433924,0.00277783,-0.00799554,1.1025,0.00645859,0.0115363,615,925,-32.9962,-3.07215
-602,99,-32.9816,2.69818,-0.00729224,0.000289044,0.00307601,0.00138008,-0.00838328,1.22995,0.00610113,0.0147559,622,925,-32.9816,-2.69817
-595,99,-33.0635,2.32349,-0.00825859,0.000303604,0.00199047,0.00074371,-0.0086987,1.35319,0.00606226,0.0201537,629,925,-33.0635,-2.32346
-588,99,-33.0617,1.92273,-0.00873776,0.000217201,0.00136242,0.000419895,-0.00894046,1.42311,0.00610509,0.0221158,636,925,-33.0617,-1.92272
-581,99,-32.9965,1.45081,-0.00883291,-1.1913e-05,0.00107016,0.000116062,-0.00896089,1.45178,0.00601299,0.0164013,643,925,-32.9965,-1.45082
-574,99,-33.4127,1.00684,-0.00850485,-0.00015366,0.000738185,-8.89115e-05,-0.0085696,1.48331,0.00568366,0.0360141,650,925,-33.4127,-1.00684
-567,99,-34.4176,0.575439,0,0,0,0,0,0,0,-1,657,925,-34.4176,-0.575418
-560,99,-35.6813,0.987671,-0.00736948,-0.00035925,0.000203612,-0.000353341,-0.00737539,1.54178,0.00480348,0.0437197,664,925,-35.6812,-0.987688
-553,99,-35.8666,1.16791,-0.00654524,-0.000188554,-6.96263e-05,-0.000187791,-0.006546,-1.55984,0.00430277,0.033629,671,925,-35.8667,-1.16788
-546,99,-35.7704,1.11554,-0.00520793,3.37158e-05,-0.000381779,6.1377e-05,-0.00523559,-1.49847,0.00351103,0.0378667,678,925,-35.7704,-1.11554
-539,99,-35.7139,0.988525,-0.00302542,0.00021401,-0.000760755,0.000383771,-0.00319518,-1.35125,0.00226889,0.0396041,685,925,-35.7139,-0.988545
-532,99,-36.0363,1.06622,0.000214038,0.000128216,-0.00123748,0.00140935,-0.0010671,-0.768067,0.00143433,0.041125,692,925,-36.0363,-1.06625
-525,99,-36.1833,1.09039,0.0037171,-0.000379531,-0.00202871,0.00455172,-0.00121414,-0.390295,0.0035099,0.0401115,699,925,-36.1833,-1.09042
-518,99,-36.0541,1.0943,0.00485521,-0.00131604,-0.00284625,0.00596747,-0.0024283,-0.372533,0.00498879,0.0394415,706,925,-36.0541,-1.09429
-511,99,0,0,0,0,0,0,0,0,0,-1,713,925,0,0
-504,99,0,0,0,0,0,0,0,0,0,-1,720,925,0,0
-497,99,0,0,0,0,0,0,0,0,0,-1,727,925,0,0
-490,99,0,0,0,0,0,0,0,0,0,-1,734,925,0,0
-483,99,0,0,0,0,0,0,0,0,0,-1,741,925,0,0
-476,99,0,0,0,0,0,0,0,0,0,-1,748,925,0,0
-469,99,0,0,0,0,0,0,0,0,0,-1,755,925,0,0
-462,99,0,0,0,0,0,0,0,0,0,-1,762,925,0,0
-455,99,0,0,0,0,0,0,0,0,0,-1,769,925,0,0
-448,99,0,0,0,0,0,0,0,0,0,-1,776,925,0,0
-441,99,0,0,0,0,0,0,0,0,0,-1,783,925,0,0
-434,99,0,0,0,0,0,0,0,0,0,-1,790,925,0,0
-427,99,0,0,0,0,0,0,0,0,0,-1,797,925,0,0
-420,99,0,0,0,0,0,0,0,0,0,-1,804,925,0,0
-413,99,0,0,0,0,0,0,0,0,0,-1,811,925,0,0
-406,99,0,0,0,0,0,0,0,0,0,-1,818,925,0,0
-399,99,0,0,0,0,0,0,0,0,0,-1,825,925,0,0
-392,99,0,0,0,0,0,0,0,0,0,-1,832,925,0,0
-385,99,0,0,0,0,0,0,0,0,0,-1,839,925,0,0
-378,99,0,0,0,0,0,0,0,0,0,-1,846,925,0,0
-371,99,0,0,0,0,0,0,0,0,0,-1,853,925,0,0
-364,99,0,0,0,0,0,0,0,0,0,-1,860,925,0,0
-357,99,0,0,0,0,0,0,0,0,0,-1,867,925,0,0
-350,99,0,0,0,0,0,0,0,0,0,-1,874,925,0,0
-343,99,0,0,0,0,0,0,0,0,0,-1,881,925,0,0
-336,99,0,0,0,0,0,0,0,0,0,-1,888,925,0,0
-329,99,0,0,0,0,0,0,0,0,0,-1,895,925,0,0
-322,99,0,0,0,0,0,0,0,0,0,-1,902,925,0,0
-315,99,0,0,0,0,0,0,0,0,0,-1,909,925,0,0
-308,99,0,0,0,0,0,0,0,0,0,-1,916,925,0,0
-301,99,0,0,0,0,0,0,0,0,0,-1,923,925,0,0
-294,99,0,0,0,0,0,0,0,0,0,-1,930,925,0,0
-287,99,0,0,0,0,0,0,0,0,0,-1,937,925,0,0
-280,99,0,0,0,0,0,0,0,0,0,-1,944,925,0,0
-273,99,0,0,0,0,0,0,0,0,0,-1,951,925,0,0
-266,99,0,0,0,0,0,0,0,0,0,-1,958,925,0,0
-259,99,0,0,0,0,0,0,0,0,0,-1,965,925,0,0
-252,99,0,0,0,0,0,0,0,0,0,-1,972,925,0,0
-245,99,0,0,0,0,0,0,0,0,0,-1,979,925,0,0
-238,99,0,0,0,0,0,0,0,0,0,-1,986,925,0,0
-231,99,0,0,0,0,0,0,0,0,0,-1,993,925,0,0
-224,99,0,0,0,0,0,0,0,0,0,-1,1000,925,0,0
-217,99,0,0,0,0,0,0,0,0,0,-1,1007,925,0,0
-210,99,0,0,0,0,0,0,0,0,0,-1,1014,925,0,0
-203,99,0,0,0,0,0,0,0,0,0,-1,1021,925,0,0
-196,99,0,0,0,0,0,0,0,0,0,-1,1028,925,0,0
-189,99,0,0,0,0,0,0,0,0,0,-1,1035,925,0,0
-182,99,0,0,0,0,0,0,0,0,0,-1,1042,925,0,0
-175,99,0,0,0,0,0,0,0,0,0,-1,1049,925,0,0
-168,99,0,0,0,0,0,0,0,0,0,-1,1056,925,0,0
-161,99,0,0,0,0,0,0,0,0,0,-1,1063,925,0,0
-154,99,0,0,0,0,0,0,0,0,0,-1,1070,925,0,0
-147,99,0,0,0,0,0,0,0,0,0,-1,1077,925,0,0
-140,99,0,0,0,0,0,0,0,0,0,-1,1084,925,0,0
-133,99,0,0,0,0,0,0,0,0,0,-1,1091,925,0,0
-126,99,0,0,0,0,0,0,0,0,0,-1,1098,925,0,0
-119,99,0,0,0,0,0,0,0,0,0,-1,1105,925,0,0
-112,99,0,0,0,0,0,0,0,0,0,-1,1112,925,0,0
-105,99,0,0,0,0,0,0,0,0,0,-1,1119,925,0,0
-98,99,0,0,0,0,0,0,0,0,0,-1,1126,925,0,0
-91,99,0,0,0,0,0,0,0,0,0,-1,1133,925,0,0
-84,99,0,0,0,0,0,0,0,0,0,-1,1140,925,0,0
-77,99,0,0,0,0,0,0,0,0,0,-1,1147,925,0,0
-70,99,0,0,0,0,0,0,0,0,0,-1,1154,925,0,0
-63,99,0,0,0,0,0,0,0,0,0,-1,1161,925,0,0
-56,99,0,0,0,0,0,0,0,0,0,-1,1168,925,0,0
-49,99,0,0,0,0,0,0,0,0,0,-1,1175,925,0,0
-42,99,0,0,0,0,0,0,0,0,0,-1,1182,925,0,0
-35,99,0,0,0,0,0,0,0,0,0,-1,1189,925,0,0
-28,99,0,0,0,0,0,0,0,0,0,-1,1196,925,0,0
-21,99,0,0,0,0,0,0,0,0,0,-1,1203,925,0,0
-14,99,0,0,0,0,0,0,0,0,0,-1,1210,925,0,0
-7,99,0,0,0,0,0,0,0,0,0,-1,1217,925,0,0
0,99,0,0,0,0,0,0,0,0,0,-1,1224,925,0,0
7,99,0,0,0,0,0,0,0,0,0,-1,1231,925,0,0
14,99,0,0,0,0,0,0,0,0,0,-1,1238,925,0,0
21,99,0,0,0,0,0,0,0,0,0,-1,1245,925,0,0
28,99,0,0,0,0,0,0,0,0,0,-1,1252,925,0,0
35,99,0,0,0,0,0,0,0,0,0,-1,1259,925,0,0
42,99,0,0,0,0,0,0,0,0,0,-1,1266,925,0,0
49,99,0,0,0,0,0,0,0,0,0,-1,1273,925,0,0
56,99,0,0,0,0,0,0,0,0,0,-1,1280,925,0,0
63,99,0,0,0,0,0,0,0,0,0,-1,1287,925,0,0
70,99,0,0,0,0,0,0,0,0,0,-1,1294,925,0,0
77,99,0,0,0,0,0,0,0,0,0,-1,1301,925,0,0
84,99,0,0,0,0,0,0,0,0,0,-1,1308,925,0,0
91,99,0,0,0,0,0,0,0,0,0,-1,1315,925,0,0
98,99,0,0,0,0,0,0,0,0,0,-1,1322,925,0,0
105,99,0,0,0,0,0,0,0,0,0,-1,1329,925,0,0
112,99,0,0,0,0,0,0,0,0,0,-1,1336,925,0,0
119,99,0,0,0,0,0,0,0,0,0,-1,1343,925,0,0
126,99,0,0,0,0,0,0,0,0,0,-1,1350,925,0,0
133,99,0,0,0,0,0,0,0,0,0,-1,1357,925,0,0
140,99,0,0,0,0,0,0,0,0,0,-1,1364,925,0,0
147,99,0,0,0,0,0,0,0,0,0,-1,1371,925,0,0
154,99,0,0,0,0,0,0,0,0,0,-1,1378,925,0,0
161,99,0,0,0,0,0,0,0,0,0,-1,1385,925,0,0
168,99,0,0,0,0,0,0,0,0,0,-1,1392,925,0,0
175,99,0,0,0,0,0,0,0,0,0,-1,1399,925,0,0
182,99,0,0,0,0,0,0,0,0,0,-1,1406,925,0,0
189,99,0,0,0,0,0,0,0,0,0,-1,1413,925,0,0
196,99,0,0,0,0,0,0,0,0,0,-1,1420,925,0,0
203,99,0,0,0,0,0,0,0,0,0,-1,1427,925,0,0
210,99,0,0,0,0,0,0,0,0,0,-1,1434,925,0,0
217,99,0,0,0,0,0,0,0,0,0,-1,1441,925,0,0
224,99,0,0,0,0,0,0,0,0,0,-1,1448,925,0,0
231,99,0,0,0,0,0,0,0,0,0,-1,1455,925,0,0
238,99,0,0,0,0,0,0,0,0,0,-1,1462,925,0,0
245,99,0,0,0,0,0,0,0,0,0,-1,1469,925,0,0
252,99,0,0,0,0,0,0,0,0,0,-1,1476,925,0,0
259,99,0,0,0,0,0,0,0,0,0,-1,1483,925,0,0
266,99,0,0,0,0,0,0,0,0,0,-1,1490,925,0,0
273,99,0,0,0,0,0,0,0,0,0,-1,1497,925,0,0
280,99,0,0,0,0,0,0,0,0,0,-1,1504,925,0,0
287,99,0,0,0,0,0,0,0,0,0,-1,1511,925,0,0
294,99,0,0,0,0,0,0,0,0,0,-1,1518,925,0,0
301,99,0,0,0,0,0,0,0,0,0,-1,1525,925,0,0
308,99,0,0,0,0,0,0,0,0,0,-1,1532,925,0,0
315,99,0,0,0,0,0,0,0,0,0,-1,1539,925,0,0
322,99,0,0,0,0,0,0,0,0,0,-1,1546,925,0,0
329,99,0,0,0,0,0,0,0,0,0,-1,1553,925,0,0
336,99,0,0,0,0,0,0,0,0,0,-1,1560,925,0,0
343,99,0,0,0,0,0,0,0,0,0,-1,1567,925,0,0
350,99,0,0,0,0,0,0,0,0,0,-1,1574,925,0,0
357,99,0,0,0,0,0,0,0,0,0,-1,1581,925,0,0
364,99,0,0,0,0,0,0,0,0,0,-1,1588,925,0,0
371,99,0,0,0,0,0,0,0,0,0,-1,1595,925,0,0
378,99,0,0,0,0,0,0,0,0,0,-1,1602,925,0,0
385,99,0,0,0,0,0,0,0,0,0,-1,1609,925,0,0
392,99,0,0,0,0,0,0,0,0,0,-1,1616,925,0,0
399,99,0,0,0,0,0,0,0,0,0,-1,1623,925,0,0
406,99,0,0,0,0,0,0,0,0,0,-1,1630,925,0,0
413,99,0,0,0,0,0,0,0,0,0,-1,1637,925,0,0
420,99,0,0,0,0,0,0,0,0,0,-1,1644,925,0,0
427,99,0,0,0,0,0,0,0,0,0,-1,1651,925,0,0
434,99,0,0,0,0,0,0,0,0,0,-1,1658,925,0,0
441,99,0,0,0,0,0,0,0,0,0,-1,1665,925,0,0
448,99,0,0,0,0,0,0,0,0,0,-1,1672,925,0,0
455,99,0,0,0,0,0,0,0,0,0,-1,1679,925,0,0
462,99,0,0,0,0,0,0,0,0,0,-1,1686,925,0,0
469,99,0,0,0,0,0,0,0,0,0,-1,1693,925,0,0
476,99,0,0,0,0,0,0,0,0,0,-1,1700,925,0,0
483,99,0,0,0,0,0,0,0,0,0,-1,1707,925,0,0
490,99,0,0,0,0,0,0,0,0,0,-1,1714,925,0,0
497,99,0,0,0,0,0,0,0,0,0,-1,1721,925,0,0
504,99,0,0,0,0,0,0,0,0,0,-1,1728,925,0,0
511,99,0,0,0,0,0,0,0,0,0,-1,1735,925,0,0
518,99,0,0,0,0,0,0,0,0,0,-1,1742,925,0,0
525,99,0,0,0,0,0,0,0,0,0,-1,1749,925,0,0
532,99,0,0,0,0,0,0,0,0,0,-1,1756,925,0,0
539,99,0,0,0,0,0,0,0,0,0,-1,1763,925,0,0
546,99,0,0,0,0,0,0,0,0,0,-1,1770,925,0,0
553,99,0,0,0,0,0,0,0,0,0,-1,1777,925,0,0
560,99,0,0,0,0,0,0,0,0,0,-1,1784,925,0,0
567,99,0,0,0,0,0,0,0,0,0,-1,1791,925,0,0
574,99,0,0,0,0,0,0,0,0,0,-1,1798,925,0,0
581,99,0,0,0,0,0,0,0,0,0,-1,1805,925,0,0
588,99,0,0,0,0,0,0,0,0,0,-1,1812,925,0,0
595,99,0,0,0,0,0,0,0,0,0,-1,1819,925,0,0
602,99,0,0,0,0,0,0,0,0,0,-1,1826,925,0,0
609,99,0,0,0,0,0,0,0,0,0,-1,1833,925,0,0
616,99,0,0,0,0,0,0,0,0,0,-1,1840,925,0,0
623,99,0,0,0,0,0,0,0,0,0,-1,1847,925,0,0
630,99,0,0,0,0,0,0,0,0,0,-1,1854,925,0,0
637,99,47.9633,3.08112,-0.00283899,-0.00241473,-0.00268462,6.61293e-05,-0.00531985,-0.824824,0.00356881,0.0422408,1861,925,47.9633,-3.08111
644,99,47.9591,3.07428,-0.00209213,-0.00115378,-0.00218966,0.0006164,-0.00386231,-0.890936,0.00280303,0.0382082,1868,925,47.9591,-3.07428
651,99,47.9772,3.07642,-0.00153685,-0.000288288,-0.00167426,0.000874292,-0.00269943,-0.963849,0.00215111,0.0381399,1875,925,47.9771,-3.07642
658,99,47.8287,3.24078,-0.00108929,0.000451218,-0.0010563,0.000988275,-0.00162634,-1.10043,0.00152446,0.0399495,1882,925,47.8288,-3.24077
665,99,47.9331,3.02063,-0.000705269,0.000968596,-0.00049953,0.00110634,-0.000843009,-1.30174,0.00112887,0.0410007,1889,925,47.9332,-3.02066
672,99,48.0841,2.85938,-0.000495869,0.00109659,-4.30608e-06,0.0010966,-0.00049588,-1.56809,0.000940971,0.0409462,1896,925,48.0841,-2.85935
679,99,48.0936,2.89966,-0.000363417,0.000963182,0.000357172,0.00105323,-0.000453469,1.32382,0.000892573,0.0368039,1903,925,48.0936,-2.89966
686,99,47.9792,2.83557,-0.000237972,0.000777763,0.000448307,0.000947324,-0.000407533,1.2092,0.000802654,0.0285283,1910,925,47.9792,-2.83555
693,99,47.9548,2.84778,-0.000206886,0.000738924,0.0003539,0.000856684,-0.000324645,1.24957,0.00070472,0.0278062,1917,925,47.9548,-2.84775
700,99,47.9707,2.89642,0,0,0,0,0,0,0,-1,1924,925,47.9707,-2.89642
707,99,44.3242,3.47876,0,0,0,0,0,0,0,-1,1931,925,44.3242,-3.47874
714,99,44.2953,3.99377,-0.000838843,0.000907115,4.80726e-05,0.000908437,-0.000840166,1.54329,0.00100981,0.0417196,1938,925,44.2952,-3.99375
721,99,44.1395,4.38824,-0.00109846,0.0010852,-0.000153818,0.00109598,-0.00110924,-1.50082,0.00127319,0.030436,1945,925,44.1396,-4.38822
728,99,44.1675,4.87036,-0.00119231,0.00148908,-0.000296537,0.00152148,-0.00122471,-1.46196,0.0015886,0.0235395,1952,925,44.1674,-4.87035
735,99,44.1379,5.31122,-0.0010193,0.00199134,-0.000455191,0.00205866,-0.00108662,-1.42397,0.00184461,0.0189602,1959,925,44.1379,-5.31123
742,99,44.0826,5.73657,-0.000778959,0.00274716,-0.000574169,0.0028383,-0.000870098,-1.41338,0.0022393,0.013482,1966,925,44.0826,-5.73656
749,99,44.024,6.17035,-0.000288275,0.00391912,-0.000342258,0.00394678,-0.000315934,-1.49016,0.00274257,0.0119488,1973,925,44.0241,-6.17035
756,99,43.9731,6.56226,0.000976327,0.00504136,0.000453524,0.00509134,0.000926343,1.46103,0.00313146,0.0135263,1980,925,43.9732,-6.56223
763,99,43.9374,6.97198,0.00309661,0.00582748,0.00183767,0.00675146,0.00217262,1.10491,0.00397963,0.0161435,1987,925,43.9374,-6.972
770,99,43.9559,7.47131,0.00619249,0.00585903,0.00364025,0.00966982,0.00238169,0.762513,0.0058175,0.0288176,1994,925,43.956,-7.47132
777,99,44.3276,7.93372,0.0106104,0.00456255,0.00632145,0.014594,0.000578997,0.562304,0.00954219,0.0420621,2001,925,44.3277,-7.93373
784,99,44.5969,8.58191,0.0171872,0.00106266,0.00999907,0.0219695,-0.00371958,0.446111,0.0160307,0.0435337,2008,925,44.5969,-8.58192
791,99,44.5715,9.1261,0.0266935,-0.00548596,0.0142388,0.0320892,-0.0108816,0.362222,0.0257967,0.0481218,2015,925,44.5716,-9.12611
798,99,44.5288,9.72137,0,0,0,0,0,0,0,-1,2022,925,44.5287,-9.72135
805,99,0,0,0,0,0,0,0,0,0,-1,2029,925,0,0
812,99,0,0,0,0,0,0,0,0,0,-1,2036,925,0,0
-700,92,0,0,0,0,0,0,0,0,0,-1,524,932,0,0
-693,92,0,0,0,0,0,0,0,0,0,-1,531,932,0,0
-686,92,-35.448,0.838989,0,0,0,0,0,0,0,-1,538,932,-35.448,-0.838995
-679,92,-33.1404,1.16138,0,0,0,0,0,0,0,-1,545,932,-33.1404,-1.16139
-672,92,-34.1136,1.60553,0,0,0,0,0,0,0,-1,552,932,-34.1137,-1.60553
-665,92,-33.1337,2.9325,0,0,0,0,0,0,0,-1,559,932,-33.1337,-2.93247
-658,92,-34.0704,4.0658,0,0,0,0,0,0,0,-1,566,932,-34.0704,-4.06577
-651,92,-34.0474,4.05206,0.0725199,0.00531191,0.0370801,0.0889575,-0.0111257,0.417268,0.0633401,0.0463373,573,932,-34.0474,-4.05208
-644,92,-33.3513,5.02496,0.05018,0.0044036,0.0287683,0.0640543,-0.00947074,0.449371,0.0461846,0.0442054,580,932,-33.3512,-5.02497
-637,92,-33.2585,4.59424,0.0325952,0.00367459,0.0216695,0.0441861,-0.00791632,0.491173,0.03242,0.0257139,587,932,-33.2586,-4.59426
-630,92,-33.2825,4.17413,0.0167953,0.00274414,0.0153201,0.026624,-0.00708449,0.570412,0.0205225,0.0133688,594,932,-33.2825,-4.17414
-623,92,-33.3785,3.80341,0.00501051,0.00247658,0.010104,0.0139266,-0.00643956,0.723028,0.0120204,0.0091589,601,932,-33.3785,-3.80343
-616,92,-33.4095,3.43781,-0.00162639,0.00157066,0.00646308,0.00662996,-0.00668569,0.906631,0.00768782,0.00852476,608,932,-33.4095,-3.43782
-609,92,-33.4349,3.08197,-0.00612496,0.000805296,0.00391235,0.00256641,-0.00788607,1.14782,0.00628987,0.0090187,615,932,-33.4349,-3.08197
-602,92,-33.4003,2.68298,-0.00761727,0.000384029,0.00267924,0.00119831,-0.00843155,1.27575,0.00606009,0.010385,622,932,-33.4003,-2.68295
-595,92,-33.3007,2.26093,-0.00866921,0.000379887,0.00156332,0.000642352,-0.00893168,1.40446,0.00617971,0.0208922,629,932,-33.3006,-2.26091
-588,92,-33.3412,1.93042,-0.00930444,0.000288343,0.000880065,0.000368414,-0.00938451,1.48006,0.00638269,0.0241966,636,932,-33.3412,-1.9304
-581,92,-33.5908,1.53577,-0.00947546,1.56868e-05,0.000542147,4.6555e-05,-0.00950633,1.51392,0.00635313,0.0244056,643,932,-33.5908,-1.53574
-574,92,-34.2347,1.10706,-0.00910818,-0.000144146,0.000164376,-0.000141133,-0.00911119,1.55247,0.00602763,0.044684,650,932,-34.2347,-1.10707
-567,92,-35.1786,0.674744,0,0,0,0,0,0,0,-1,657,932,-35.1786,-0.674743
-560,92,-35.6895,0.899719,-0.00785505,-0.000284692,-0.000457589,-0.000257134,-0.00788261,-1.51064,0.0051715,0.038248,664,932,-35.6894,-0.899696
-553,92,-35.8466,1.08746,-0.00670377,-0.000126659,-0.000761105,-3.97325e-05,-0.0067907,-1.45708,0.00451394,0.0359089,671,932,-35.8466,-1.08748
-546,92,-35.7584,1.08502,-0.00486669,3.96899e-05,-0.00108782,0.000270061,-0.00509706,-1.36211,0.00349155,0.0380284,678,932,-35.7584,-1.08504
-539,92,-35.797,1.07098,-0.00203514,5.90741e-05,-0.00147,0.000816779,-0.00279284,-1.09487,0.00218563,0.0396693,685,932,-35.797,-1.07097
-532,92,-35.909,1.04468,0.00198216,-0.000352932,-0.00197715,0.00311076,-0.00148153,-0.518688,0.00270641,0.0437146,692,932,-35.909,-1.04467
-525,92,-35.9446,1.16498,0.00592159,-0.0012945,-0.00288505,0.00693323,-0.00230614,-0.337253,0.00555285,0.0394317,699,932,-35.9446,-1.16498
-518,92,-35.8271,1.19592,0.00682826,-0.0027618,-0.0038227,0.00816555,-0.00409909,-0.336522,0.00720957,0.0390143,706,932,-35.8271,-1.19593
-511,92,0,0,0,0,0,0,0,0,0,-1,713,932,0,0
-504,92,0,0,0,0,0,0,0,0,0,-1,720,932,0,0
-497,92,0,0,0,0,0,0,0,0,0,-1,727,932,0,0
-490,92,0,0,0,0,0,0,0,0,0,-1,734,932,0,0
-483,92,0,0,0,0,0,0,0,0,0,-1,741,932,0,0
-476,92,0,0,0,0,0,0,0,0,0,-1,748,932,0,0
-469,92,0,0,0,0,0,0,0,0,0,-1,755,932,0,0
-462,92,0,0,0,0,0,0,0,0,0,-1,762,932,0,0
-455,92,0,0,0,0,0,0,0,0,0,-1,769,932,0,0
-448,92,0,0,0,0,0,0,0,0,0,-1,776,932,0,0
-441,92,0,0,0,0,0,0,0,0,0,-1,783,932,0,0
-434,92,0,0,0,0,0,0,0,0,0,-1,790,932,0,0
-427,92,0,0,0,0,0,0,0,0,0,-1,797,932,0,0
-420,92,0,0,0,0,0,0,0,0,0,-1,804,932,0,0
-413,92,0,0,0,0,0,0,0,0,0,-1,811,932,0,0
-406,92,0,0,0,0,0,0,0,0,0,-1,818,932,0,0
-399,92,0,0,0,0,0,0,0,0,0,-1,825,932,0,0
-392,92,0,0,0,0,0,0,0,0,0,-1,832,932,0,0
-385,92,0,0,0,0,0,0,0,0,0,-1,839,932,0,0
-378,92,0,0,0,0,0,0,0,0,0,-1,846,932,0,0
-371,92,0,0,0,0,0,0,0,0,0,-1,853,932,0,0
-364,92,0,0,0,0,0,0,0,0,0,-1,860,932,0,0
-357,92,0,0,0,0,0,0,0,0,0,-1,867,932,0,0
-350,92,0,0,0,0,0,0,0,0,0,-1,874,932,0,0
-343,92,0,0,0,0,0,0,0,0,0,-1,881,932,0,0
-336,92,0,0,0,0,0,0,0,0,0,-1,888,932,0,0
-329,92,0,0,0,0,0,0,0,0,0,-1,895,932,0,0
-322,92,0,0,0,0,0,0,0,0,0,-1,902,932,0,0
-315,92,0,0,0,0,0,0,0,0,0,-1,909,932,0,0
-308,92,0,0,0,0,0,0,0,0,0,-1,916,932,0,0
-301,92,0,0,0,0,0,0,0,0,0,-1,923,932,0,0
-294,92,0,0,0,0,0,0,0,0,0,-1,930,932,0,0
-287,92,0,0,0,0,0,0,0,0,0,-1,937,932,0,0
-280,92,0,0,0,0,0,0,0,0,0,-1,944,932,0,0
-273,92,0,0,0,0,0,0,0,0,0,-1,951,932,0,0
-266,92,0,0,0,0,0,0,0,0,0,-1,958,932,0,0
-259,92,0,0,0,0,0,0,0,0,0,-1,965,932,0,0
-252,92,0,0,0,0,0,0,0,0,0,-1,972,932,0,0
-245,92,0,0,0,0,0,0,0,0,0,-1,979,932,0,0
-238,92,0,0,0,0,0,0,0,0,0,-1,986,932,0,0
-231,92,0,0,0,0,0,0,0,0,0,-1,993,932,0,0
-224,92,0,0,0,0,0,0,0,0,0,-1,1000,932,0,0
-217,92,0,0,0,0,0,0,0,0,0,-1,1007,932,0,0
-210,92,0,0,0,0,0,0,0,0,0,-1,1014,932,0,0
-203,92,0,0,0,0,0,0,0,0,0,-1,1021,932,0,0
-196,92,0,0,0,0,0,0,0,0,0,-1,1028,932,0,0
-189,92,0,0,0,0,0,0,0,0,0,-1,1035,932,0,0
-182,92,0,0,0,0,0,0,0,0,0,-1,1042,932,0,0
-175,92,0,0,0,0,0,0,0,0,0,-1,1049,932,0,0
-168,92,0,0,0,0,0,0,0,0,0,-1,1056,932,0,0
-161,92,0,0,0,0,0,0,0,0,0,-1,1063,932,0,0
-154,92,0,0,0,0,0,0,0,0,0,-1,1070,932,0,0
-147,92,0,0,0,0,0,0,0,0,0,-1,1077,932,0,0
-140,92,0,0,0,0,0,0,0,0,0,-1,1084,932,0,0
-133,92,0,0,0,0,0,0,0,0,0,-1,1091,932,0,0
-126,92,0,0,0,0,0,0,0,0,0,-1,1098,932,0,0
-119,92,0,0,0,0,0,0,0,0,0,-1,1105,932,0,0
-112,92,0,0,0,0,0,0,0,0,0,-1,1112,932,0,0
-105,92,0,0,0,0,0,0,0,0,0,-1,1119,932,0,0
-98,92,0,0,0,0,0,0,0,0,0,-1,1126,932,0,0
-91,92,0,0,0,0,0,0,0,0,0,-1,1133,932,0,0
-84,92,0,0,0,0,0,0,0,0,0,-1,1140,932,0,0
-77,92,0,0,0,0,0,0,0,0,0,-1,1147,932,0,0
-70,92,0,0,0,0,0,0,0,0,0,-1,1154,932,0,0
-63,92,0,0,0,0,0,0,0,0,0,-1,1161,932,0,0
-56,92,0,0,0,0,0,0,0,0,0,-1,1168,932,0,0
-49,92,0,0,0,0,0,0,0,0,0,-1,1175,932,0,0
-42,92,0,0,0,0,0,0,0,0,0,-1,1182,932,0,0
-35,92,0,0,0,0,0,0,0,0,0,-1,1189,932,0,0
-28,92,0,0,0,0,0,0,0,0,0,-1,1196,932,0,0
-21,92,0,0,0,0,0,0,0,0,0,-1,1203,932,0,0
-14,92,0,0,0,0,0,0,0,0,0,-1,1210,932,0,0
-7,92,0,0,0,0,0,0,0,0,0,-1,1217,932,0,0
0,92,0,0,0,0,0,0,0,0,0,-1,1224,932,0,0
7,92,0,0,0,0,0,0,0,0,0,-1,1231,932,0,0
14,92,0,0,0,0,0,0,0,0,0,-1,1238,932,0,0
21,92,0,0,0,0,0,0,0,0,0,-1,1245,932,0,0
28,92,0,0,0,0,0,0,0,0,0,-1,1252,932,0,0
35,92,0,0,0,0,0,0,0,0,0,-1,1259,932,0,0
42,92,0,0,0,0,0,0,0,0,0,-1,1266,932,0,0
49,92,0,0,0,0,0,0,0,0,0,-1,1273,932,0,0
56,92,0,0,0,0,0,0,0,0,0,-1,1280,932,0,0
63,92,0,0,0,0,0,0,0,0,0,-1,1287,932,0,0
70,92,0,0,0,0,0,0,0,0,0,-1,1294,932,0,0
77,92,0,0,0,0,0,0,0,0,0,-1,1301,932,0,0
84,92,0,0,0,0,0,0,0,0,0,-1,1308,932,0,0
91,92,0,0,0,0,0,0,0,0,0,-1,1315,932,0,0
98,92,0,0,0,0,0,0,0,0,0,-1,1322,932,0,0
105,92,0,0,0,0,0,0,0,0,0,-1,1329,932,0,0
112,92,0,0,0,0,0,0,0,0,0,-1,1336,932,0,0
119,92,0,0,0,0,0,0,0,0,0,-1,1343,932,0,0
126,92,0,0,0,0,0,0,0,0,0,-1,1350,932,0,0
133,92,0,0,0,0,0,0,0,0,0,-1,1357,932,0,0
140,92,0,0,0,0,0,0,0,0,0,-1,1364,932,0,0
147,92,0,0,0,0,0,0,0,0,0,-1,1371,932,0,0
154,92,0,0,0,0,0,0,0,0,0,-1,1378,932,0,0
161,92,0,0,0,0,0,0,0,0,0,-1,1385,932,0,0
168,92,0,0,0,0,0,0,0,0,0,-1,1392,932,0,0
175,92,0,0,0,0,0,0,0,0,0,-1,1399,932,0,0
182,92,0,0,0,0,0,0,0,0,0,-1,1406,932,0,0
189,92,0,0,0,0,0,0,0,0,0,-1,1413,932,0,0
196,92,0,0,0,0,0,0,0,0,0,-1,1420,932,0,0
203,92,0,0,0,0,0,0,0,0,0,-1,1427,932,0,0
210,92,0,0,0,0,0,0,0,0,0,-1,1434,932,0,0
217,92,0,0,0,0,0,0,0,0,0,-1,1441,932,0,0
224,92,0,0,0,0,0,0,0,0,0,-1,1448,932,0,0
231,92,0,0,0,0,0,0,0,0,0,-1,1455,932,0,0
238,92,0,0,0,0,0,0,0,0,0,-1,1462,932,0,0
245,92,0,0,0,0,0,0,0,0,0,-1,1469,932,0,0
252,92,0,0,0,0,0,0,0,0,0,-1,1476,932,0,0
259,92,0,0,0,0,0,0,0,0,0,-1,1483,932,0,0
266,92,0,0,0,0,0,0,0,0,0,-1,1490,932,0,0
273,92,0,0,0,0,0,0,0,0,0,-1,1497,932,0,0
280,92,0,0,0,0,0,0,0,0,0,-1,1504,932,0,0
287,92,0,0,0,0,0,0,0,0,0,-1,1511,932,0,0
294,92,0,0,0,0,0,0,0,0,0,-1,1518,932,0,0
301,92,0,0,0,0,0,0,0,0,0,-1,1525,932,0,0
308,92,0,0,0,0,0,0,0,0,0,-1,1532,932,0,0
315,92,0,0,0,0,0,0,0,0,0,-1,1539,932,0,0
322,92,0,0,0,0,0,0,0,0,0,-1,1546,932,0,0
329,92,0,0,0,0,0,0,0,0,0,-1,1553,932,0,0
336,92,0,0,0,0,0,0,0,0,0,-1,1560,932,0,0
343,92,0,0,0,0,0,0,0,0,0,-1,1567,932,0,0
350,92,0,0,0,0,0,0,0,0,0,-1,1574,932,0,0
357,92,0,0,0,0,0,0,0,0,0,-1,1581,932,0,0
364,92,0,0,0,0,0,0,0,0,0,-1,1588,932,0,0
371,92,0,0,0,0,0,0,0,0,0,-1,1595,932,0,0
378,92,0,0,0,0,0,0,0,0,0,-1,1602,932,0,0
385,92,0,0,0,0,0,0,0,0,0,-1,1609,932,0,0
392,92,0,0,0,0,0,0,0,0,0,-1,1616,932,0,0
399,92,0,0,0,0,0,0,0,0,0,-1,1623,932,0,0
406,92,0,0,0,0,0,0,0,0,0,-1,1630,932,0,0
413,92,0,0,0,0,0,0,0,0,0,-1,1637,932,0,0
420,92,0,0,0,0,0,0,0,0,0,-1,1644,932,0,0
427,92,0,0,0,0,0,0,0,0,0,-1,1651,932,0,0
434,92,0,0,0,0,0,0,0,0,0,-1,1658,932,0,0
441,92,0,0,0,0,0,0,0,0,0,-1,1665,932,0,0
448,92,0,0,0,0,0,0,0,0,0,-1,1672,932,0,0
455,92,0,0,0,0,0,0,0,0,0,-1,1679,932,0,0
462,92,0,0,0,0,0,0,0,0,0,-1,1686,932,0,0
469,92,0,0,0,0,0,0,0,0,0,-1,1693,932,0,0
476,92,0,0,0,0,0,0,0,0,0,-1,1700,932,0,0
483,92,0,0,0,0,0,0,0,0,0,-1,1707,932,0,0
490,92,0,0,0,0,0,0,0,0,0,-1,1714,932,0,0
497,92,0,0,0,0,0,0,0,0,0,-1,1721,932,0,0
504,92,0,0,0,0,0,0,0,0,0,-1,1728,932,0,0
511,92,0,0,0,0,0,0,0,0,0,-1,1735,932,0,0
518,92,0,0,0,0,0,0,0,0,0,-1,1742,932,0,0
525,92,0,0,0,0,0,0,0,0,0,-1,1749,932,0,0
532,92,0,0,0,0,0,0,0,0,0,-1,1756,932,0,0
539,92,0,0,0,0,0,0,0,0,0,-1,1763,932,0,0
546,92,0,0,0,0,0,0,0,0,0,-1,1770,932,0,0
553,92,0,0,0,0,0,0,0,0,0,-1,1777,932,0,0
560,92,0,0,0,0,0,0,0,0,0,-1,1784,932,0,0
567,92,0,0,0,0,0,0,0,0,0,-1,1791,932,0,0
574,92,0,0,0,0,0,0,0,0,0,-1,1798,932,0,0
581,92,0,0,0,0,0,0,0,0,0,-1,1805,932,0,0
588,92,0,0,0,0,0,0,0,0,0,-1,1812,932,0,0
595,92,0,0,0,0,0,0,0,0,0,-1,1819,932,0,0
602,92,0,0,0,0,0,0,0,0,0,-1,1826,932,0,0
609,92,0,0,0,0,0,0,0,0,0,-1,1833,932,0,0
616,92,0,0,0,0,0,0,0,0,0,-1,1840,932,0,0
623,92,0,0,0,0,0,0,0,0,0,-1,1847,932,0,0
630,92,0,0,0,0,0,0,0,0,0,-1,1854,932,0,0
637,92,48.0529,3.04681,-0.00280769,-0.00147337,-0.00322671,0.00115443,-0.00543549,-0.887343,0.00406351,0.0466436,1861,932,48.0529,-3.04678
644,92,47.8892,3.06354,-0.00203569,-0.000412974,-0.00267605,0.00157201,-0.00402067,-0.93259,0.0033305,0.0389029,1868,932,47.8891,-3.06351
651,92,47.666,3.104,-0.00147378,0.000269534,-0.00206236,0.00163688,-0.00284113,-0.985338,0.00261635,0.0392207,1875,932,47.666,-3.10401
658,92,48.0518,2.90118,-0.00104346,0.000861159,-0.00132849,0.00154341,-0.00172571,-1.09637,0.00188841,0.0423634,1882,932,48.0518,-2.90116
665,92,48.1062,2.71246,-0.000720321,0.00128937,-0.000629209,0.00147011,-0.000901063,-1.29107,0.00138208,0.0419925,1889,932,48.1062,-2.71248
672,92,48.1107,2.83191,-0.000594402,0.00136685,-1.30865e-05,0.00136693,-0.00059449,-1.56412,0.00116133,0.0420977,1896,932,48.1108,-2.83192
679,92,48.0482,2.80414,-0.000531395,0.00117249,0.000431244,0.00127542,-0.000634322,1.3365,0.00112311,0.0382392,1903,932,48.0482,-2.80413
686,92,47.9446,2.78766,-0.000417338,0.000920084,0.000559255,0.00112312,-0.000620372,1.22255,0.00102046,0.0288593,1910,932,47.9446,-2.78764
693,92,47.9606,2.92889,-0.000379822,0.000769425,0.00048764,0.00094845,-0.000558846,1.21895,0.000879875,0.020424,1917,932,47.9606,-2.92891
700,92,47.9834,3.00079,0,0,0,0,0,0,0,-1,1924,932,47.9834,-3.00077
707,92,32.9893,3.26874,0,0,0,0,0,0,0,-1,1931,932,32.9893,-3.26874
714,92,45.2253,4.49286,0,0,0,0,0,0,0,-1,1938,932,45.2254,-4.49286
721,92,44.6796,4.52301,-0.00145469,0.00105048,-0.0001053,0.0010549,-0.00145911,-1.52886,0.00145771,0.0322296,1945,932,44.6796,-4.523
728,92,44.5558,4.9939,-0.00151795,0.00149364,-0.000297748,0.00152279,-0.00154711,-1.47319,0.00177243,0.0248653,1952,932,44.5558,-4.99389
735,92,44.5485,5.35089,-0.00130598,0.00198132,-0.000488175,0.00205228,-0.00137694,-1.42644,0.00199262,0.0192627,1959,932,44.5485,-5.35091
742,92,44.5961,5.724,-0.00108201,0.0027001,-0.000658239,0.00281139,-0.00119329,-1.40331,0.00237418,0.0187888,1966,932,44.5961,-5.724
749,92,44.515,6.14301,-0.000697909,0.00384252,-0.000512239,0.00389959,-0.000754981,-1.45984,0.00288451,0.0169874,1973,932,44.515,-6.14298
756,92,44.4193,6.51935,0.000438086,0.00498066,0.000193222,0.00498886,0.000429883,1.52836,0.00319227,0.0160462,1980,932,44.4193,-6.51932
763,92,44.3972,6.92407,0.00244865,0.00583867,0.0015115,0.00641471,0.0018726,1.20668,0.00380893,0.0177012,1987,932,44.3972,-6.9241
770,92,44.3774,7.44598,0.00533059,0.00599967,0.00323955,0.00892191,0.00240835,0.83685,0.00532973,0.0258245,1994,932,44.3774,-7.44596
777,92,44.5488,8.02637,0.00938676,0.00496619,0.00574885,0.0133356,0.00101737,0.601873,0.00857142,0.0440615,2001,932,44.5488,-8.02634
784,92,44.8228,8.67474,0.0155486,0.00189122,0.0092407,0.0202099,-0.00277016,0.467193,0.0144852,0.0457489,2008,932,44.8228,-8.67473
791,92,45.1082,9.40521,0.0246119,-0.00401984,0.013314,0.0298462,-0.00925411,0.374578,0.023595,0.0446342,2015,932,45.1082,-9.40522
798,92,45.4878,10.0684,0,0,0,0,0,0,0,-1,2022,932,45.4878,-10.0684
805,92,0,0,0,0,0,0,0,0,0,-1,2029,932,0,0
812,92,0,0,0,0,0,0,0,0,0,-1,2036,932,0,0
-700,85,0,0,0,0,0,0,0,0,0,-1,524,939,0,0
-693,85,0,0,0,0,0,0,0,0,0,-1,531,939,0,0
-686,85,-35.9928,0.652649,0.260166,0.0168989,0.0900696,0.289884,-0.012819,0.318697,0.197667,0.0431486,538,939,-35.9928,-0.652678
-679,85,-33.8159,0.929871,0.210907,0.012631,0.0772087,0.237425,-0.0138875,0.33084,0.16311,0.0459094,545,939,-33.8159,-0.929873
-672,85,-33.8143,1.37592,0,0,0,0,0,0,0,-1,552,939,-33.8143,-1.37589
-665,85,-32.7914,2.66077,0.130504,0.00805539,0.0539479,0.150881,-0.0123217,0.361152,0.104936,0.0447522,559,939,-32.7914,-2.66074
-658,85,-31.7406,3.9032,0,0,0,0,0,0,0,-1,566,939,-31.7406,-3.90322
-651,85,-33.2236,5.0921,0.0715076,0.00580358,0.0346398,0.0863962,-0.00908503,0.40594,0.0608523,0.0444296,573,939,-33.2236,-5.09212
-644,85,-33.463,4.79553,0.0494695,0.00507483,0.0267458,0.0620293,-0.00748498,0.439033,0.0440603,0.0353083,580,939,-33.4629,-4.79556
-637,85,-33.6324,4.48077,0.0322393,0.00437876,0.0200655,0.042736,-0.00611793,0.481973,0.0307336,0.0193714,587,939,-33.6324,-4.48077
-630,85,-33.7186,4.07849,0.0166993,0.00338147,0.0140414,0.0255807,-0.00549993,0.563986,0.0191522,0.0121628,594,939,-33.7186,-4.07848
-623,85,-33.792,3.75195,0.00489167,0.003084,0.00909066,0.0131233,-0.00514765,0.735849,0.0108786,0.00881385,601,939,-33.792,-3.75198
-616,85,-33.8125,3.42609,-0.00169636,0.002106,0.00566091,0.00617645,-0.00576682,0.947402,0.0068968,0.00883614,608,939,-33.8125,-3.42606
-609,85,-33.8354,3.06146,-0.00611914,0.00116312,0.00318495,0.00235952,-0.00731554,1.21146,0.00582507,0.0118401,615,939,-33.8354,-3.06143
-602,85,-33.8257,2.7002,-0.00753538,0.000601916,0.00196046,0.0010496,-0.00798307,1.34629,0.0057042,0.0158231,622,939,-33.8257,-2.7002
-595,85,-33.7397,2.34216,-0.00856719,0.000570575,0.000803055,0.000640613,-0.00863723,1.4838,0.00598314,0.0187847,629,939,-33.7397,-2.34218
-588,85,-33.7279,1.97852,-0.00927018,0.000448587,6.96501e-05,0.000449086,-0.00927068,1.56363,0.00633546,0.0188631,636,939,-33.7279,-1.97852
-581,85,-33.9393,1.66211,-0.00946855,0.000110203,-0.000320771,0.000120934,-0.00947928,-1.53736,0.00636021,0.027076,643,939,-33.9393,-1.66214
-574,85,-34.5992,1.33173,-0.00904044,-9.71197e-05,-0.000718212,-3.98089e-05,-0.00909775,-1.49117,0.00605194,0.0440731,650,939,-34.5993,-1.33172
-567,85,-35.4913,1.02692,0,0,0,0,0,0,0,-1,657,939,-35.4914,-1.02691
-560,85,-35.761,0.880554,-0.00760758,-0.000212284,-0.00133668,2.19014e-05,-0.00784176,-1.39736,0.00523516,0.0360373,664,939,-35.761,-0.880584
-553,85,-35.7126,0.782837,-0.00615325,-0.000130813,-0.00159011,0.000263244,-0.00654731,-1.32787,0.00445521,0.0399354,671,939,-35.7126,-0.782854
-546,85,-35.7532,0.849487,-0.00389493,-0.000116833,-0.00182738,0.000622394,-0.00463416,-1.18639,0.00331643,0.0390887,678,939,-35.7533,-0.84951
-539,85,-35.9011,1.01563,-0.000597026,-0.000392748,-0.00206898,0.00157661,-0.00256639,-0.810062,0.00241461,0.0375382,685,939,-35.901,-1.01562
-532,85,-35.8084,1.0589,0.00386593,-0.00128308,-0.00243801,0.00483712,-0.00225428,-0.379088,0.00418376,0.0380168,692,939,-35.8084,-1.05892
-525,85,-35.6806,1.07758,0.00779675,-0.00282772,-0.00326962,0.00872233,-0.00375329,-0.275866,0.00739079,0.0369268,699,939,-35.6806,-1.0776
-518,85,-35.7307,1.10852,0.00845153,-0.00509786,-0.00427104,0.00968547,-0.0063318,-0.281251,0.0093149,0.0381195,706,939,-35.7306,-1.10854
-511,85,0,0,0,0,0,0,0,0,0,-1,713,939,0,0
-504,85,0,0,0,0,0,0,0,0,0,-1,720,939,0,0
-497,85,0,0,0,0,0,0,0,0,0,-1,727,939,0,0
-490,85,0,0,0,0,0,0,0,0,0,-1,734,939,0,0
-483,85,0,0,0,0,0,0,0,0,0,-1,741,939,0,0
-476,85,0,0,0,0,0,0,0,0,0,-1,748,939,0,0
-469,85,0,0,0,0,0,0,0,0,0,-1,755,939,0,0
-462,85,0,0,0,0,0,0,0,0,0,-1,762,939,0,0
-455,85,0,0,0,0,0,0,0,0,0,-1,769,939,0,0
-448,85,0,0,0,0,0,0,0,0,0,-1,776,939,0,0
-441,85,0,0,0,0,0,0,0,0,0,-1,783,939,0,0
-434,85,0,0,0,0,0,0,0,0,0,-1,790,939,0,0
-427,85,0,0,0,0,0,0,0,0,0,-1,797,939,0,0
-420,85,0,0,0,0,0,0,0,0,0,-1,804,939,0,0
-413,85,0,0,0,0,0,0,0,0,0,-1,811,939,0,0
-406,85,0,0,0,0,0,0,0,0,0,-1,818,939,0,0
-399,85,0,0,0,0,0,0,0,0,0,-1,825,939,0,0
-392,85,0,0,0,0,0,0,0,0,0,-1,832,939,0,0
-385,85,0,0,0,0,0,0,0,0,0,-1,839,939,0,0
-378,85,0,0,0,0,0,0,0,0,0,-1,846,939,0,0
-371,85,0,0,0,0,0,0,0,0,0,-1,853,939,0,0
-364,85,0,0,0,0,0,0,0,0,0,-1,860,939,0,0
-357,85,0,0,0,0,0,0,0,0,0,-1,867,939,0,0
-350,85,0,0,0,0,0,0,0,0,0,-1,874,939,0,0
-343,85,0,0,0,0,0,0,0,0,0,-1,881,939,0,0
-336,85,0,0,0,0,0,0,0,0,0,-1,888,939,0,0
-329,85,0,0,0,0,0,0,0,0,0,-1,895,939,0,0
-322,85,0,0,0,0,0,0,0,0,0,-1,902,939,0,0
-315,85,0,0,0,0,0,0,0,0,0,-1,909,939,0,0
-308,85,0,0,0,0,0,0,0,0,0,-1,916,939,0,0
-301,85,0,0,0,0,0,0,0,0,0,-1,923,939,0,0
-294,85,0,0,0,0,0,0,0,0,0,-1,930,939,0,0
-287,85,0,0,0,0,0,0,0,0,0,-1,937,939,0,0
-280,85,0,0,0,0,0,0,0,0,0,-1,944,939,0,0
-273,85,0,0,0,0,0,0,0,0,0,-1,951,939,0,0
-266,85,0,0,0,0,0,0,0,0,0,-1,958,939,0,0
-259,85,0,0,0,0,0,0,0,0,0,-1,965,939,0,0
-252,85,0,0,0,0,0,0,0,0,0,-1,972,939,0,0
-245,85,0,0,0,0,0,0,0,0,0,-1,979,939,0,0
-238,85,0,0,0,0,0,0,0,0,0,-1,986,939,0,0
-231,85,0,0,0,0,0,0,0,0,0,-1,993,939,0,0
-224,85,0,0,0,0,0,0,0,0,0,-1,1000,939,0,0
-217,85,0,0,0,0,0,0,0,0,0,-1,1007,939,0,0
-210,85,0,0,0,0,0,0,0,0,0,-1,1014,939,0,0
-203,85,0,0,0,0,0,0,0,0,0,-1,1021,939,0,0
-196,85,0,0,0,0,0,0,0,0,0,-1,1028,939,0,0
-189,85,0,0,0,0,0,0,0,0,0,-1,1035,939,0,0
-182,85,0,0,0,0,0,0,0,0,0,-1,1042,939,0,0
-175,85,0,0,0,0,0,0,0,0,0,-1,1049,939,0,0
-168,85,0,0,0,0,0,0,0,0,0,-1,1056,939,0,0
-161,85,0,0,0,0,0,0,0,0,0,-1,1063,939,0,0
-154,85,0,0,0,0,0,0,0,0,0,-1,1070,939,0,0
-147,85,0,0,0,0,0,0,0,0,0,-1,1077,939,0,0
-140,85,0,0,0,0,0,0,0,0,0,-1,1084,939,0,0
-133,85,0,0,0,0,0,0,0,0,0,-1,1091,939,0,0
-126,85,0,0,0,0,0,0,0,0,0,-1,1098,939,0,0
-119,85,0,0,0,0,0,0,0,0,0,-1,1105,939,0,0
-112,85,0,0,0,0,0,0,0,0,0,-1,1112,939,0,0
-105,85,0,0,0,0,0,0,0,0,0,-1,1119,939,0,0
-98,85,0,0,0,0,0,0,0,0,0,-1,1126,939,0,0
-91,85,0,0,0,0,0,0,0,0,0,-1,1133,939,0,0
-84,85,0,0,0,0,0,0,0,0,0,-1,1140,939,0,0
-77,85,0,0,0,0,0,0,0,0,0,-1,1147,939,0,0
-70,85,0,0,0,0,0,0,0,0,0,-1,1154,939,0,0
-63,85,0,0,0,0,0,0,0,0,0,-1,1161,939,0,0
-56,85,0,0,0,0,0,0,0,0,0,-1,1168,939,0,0
-49,85,0,0,0,0,0,0,0,0,0,-1,1175,939,0,0
-42,85,0,0,0,0,0,0,0,0,0,-1,1182,939,0,0
-35,85,0,0,0,0,0,0,0,0,0,-1,1189,939,0,0
-28,85,0,0,0,0,0,0,0,0,0,-1,1196,939,0,0
-21,85,0,0,0,0,0,0,0,0,0,-1,1203,939,0,0
-14,85,0,0,0,0,0,0,0,0,0,-1,1210,939,0,0
-7,85,0,0,0,0,0,0,0,0,0,-1,1217,939,0,0
0,85,0,0,0,0,0,0,0,0,0,-1,1224,939,0,0
7,85,0,0,0,0,0,0,0,0,0,-1,1231,939,0,0
14,85,0,0,0,0,0,0,0,0,0,-1,1238,939,0,0
21,85,0,0,0,0,0,0,0,0,0,-1,1245,939,0,0
28,85,0,0,0,0,0,0,0,0,0,-1,1252,939,0,0
35,85,0,0,0,0,0,0,0,0,0,-1,1259,939,0,0
42,85,0,0,0,0,0,0,0,0,0,-1,1266,939,0,0
49,85,0,0,0,0,0,0,0,0,0,-1,1273,939,0,0
56,85,0,0,0,0,0,0,0,0,0,-1,1280,939,0,0
63,85,0,0,0,0,0,0,0,0,0,-1,1287,939,0,0
70,85,0,0,0,0,0,0,0,0,0,-1,1294,939,0,0
77,85,0,0,0,0,0,0,0,0,0,-1,1301,939,0,0
84,85,0,0,0,0,0,0,0,0,0,-1,1308,939,0,0
91,85,0,0,0,0,0,0,0,0,0,-1,1315,939,0,0
98,85,0,0,0,0,0,0,0,0,0,-1,1322,939,0,0
105,85,0,0,0,0,0,0,0,0,0,-1,1329,939,0,0
112,85,0,0,0,0,0,0,0,0,0,-1,1336,939,0,0
119,85,0,0,0,0,0,0,0,0,0,-1,1343,939,0,0
126,85,0,0,0,0,0,0,0,0,0,-1,1350,939,0,0
133,85,0,0,0,0,0,0,0,0,0,-1,1357,939,0,0
140,85,0,0,0,0,0,0,0,0,0,-1,1364,939,0,0
147,85,0,0,0,0,0,0,0,0,0,-1,1371,939,0,0
154,85,0,0,0,0,0,0,0,0,0,-1,1378,939,0,0
161,85,0,0,0,0,0,0,0,0,0,-1,1385,939,0,0
168,85,0,0,0,0,0,0,0,0,0,-1,1392,939,0,0
175,85,0,0,0,0,0,0,0,0,0,-1,1399,939,0,0
182,85,0,0,0,0,0,0,0,0,0,-1,1406,939,0,0
189,85,0,0,0,0,0,0,0,0,0,-1,1413,939,0,0
196,85,0,0,0,0,0,0,0,0,0,-1,1420,939,0,0
203,85,0,0,0,0,0,0,0,0,0,-1,1427,939,0,0
210,85,0,0,0,0,0,0,0,0,0,-1,1434,939,0,0
217,85,0,0,0,0,0,0,0,0,0,-1,1441,939,0,0
224,85,0,0,0,0,0,0,0,0,0,-1,1448,939,0,0
231,85,0,0,0,0,0,0,0,0,0,-1,1455,939,0,0
238,85,0,0,0,0,0,0,0,0,0,-1,1462,939,0,0
245,85,0,0,0,0,0,0,0,0,0,-1,1469,939,0,0
252,85,0,0,0,0,0,0,0,0,0,-1,1476,939,0,0
259,85,0,0,0,0,0,0,0,0,0,-1,1483,939,0,0
266,85,0,0,0,0,0,0,0,0,0,-1,1490,939,0,0
273,85,0,0,0,0,0,0,0,0,0,-1,1497,939,0,0
280,85,0,0,0,0,0,0,0,0,0,-1,1504,939,0,0
287,85,0,0,0,0,0,0,0,0,0,-1,1511,939,0,0
294,85,0,0,0,0,0,0,0,0,0,-1,1518,939,0,0
301,85,0,0,0,0,0,0,0,0,0,-1,1525,939,0,0
308,85,0,0,0,0,0,0,0,0,0,-1,1532,939,0,0
315,85,0,0,0,0,0,0,0,0,0,-1,1539,939,0,0
322,85,0,0,0,0,0,0,0,0,0,-1,1546,939,0,0
329,85,0,0,0,0,0,0,0,0,0,-1,1553,939,0,0
336,85,0,0,0,0,0,0,0,0,0,-1,1560,939,0,0
343,85,0,0,0,0,0,0,0,0,0,-1,1567,939,0,0
350,85,0,0,0,0,0,0,0,0,0,-1,1574,939,0,0
357,85,0,0,0,0,0,0,0,0,0,-1,1581,939,0,0
364,85,0,0,0,0,0,0,0,0,0,-1,1588,939,0,0
371,85,0,0,0,0,0,0,0,0,0,-1,1595,939,0,0
378,85,0,0,0,0,0,0,0,0,0,-1,1602,939,0,0
385,85,0,0,0,0,0,0,0,0,0,-1,1609,939,0,0
392,85,0,0,0,0,0,0,0,0,0,-1,1616,939,0,0
399,85,0,0,0,0,0,0,0,0,0,-1,1623,939,0,0
406,85,0,0,0,0,0,0,0,0,0,-1,1630,939,0,0
413,85,0,0,0,0,0,0,0,0,0,-1,1637,939,0,0
420,85,0,0,0,0,0,0,0,0,0,-1,1644,939,0,0
427,85,0,0,0,0,0,0,0,0,0,-1,1651,939,0,0
434,85,0,0,0,0,0,0,0,0,0,-1,1658,939,0,0
441,85,0,0,0,0,0,0,0,0,0,-1,1665,939,0,0
448,85,0,0,0,0,0,0,0,0,0,-1,1672,939,0,0
455,85,0,0,0,0,0,0,0,0,0,-1,1679,939,0,0
462,85,0,0,0,0,0,0,0,0,0,-1,1686,939,0,0
469,85,0,0,0,0,0,0,0,0,0,-1,1693,939,0,0
476,85,0,0,0,0,0,0,0,0,0,-1,1700,939,0,0
483,85,0,0,0,0,0,0,0,0,0,-1,1707,939,0,0
490,85,0,0,0,0,0,0,0,0,0,-1,1714,939,0,0
497,85,0,0,0,0,0,0,0,0,0,-1,1721,939,0,0
504,85,0,0,0,0,0,0,0,0,0,-1,1728,939,0,0
511,85,0,0,0,0,0,0,0,0,0,-1,1735,939,0,0
518,85,0,0,0,0,0,0,0,0,0,-1,1742,939,0,0
525,85,0,0,0,0,0,0,0,0,0,-1,1749,939,0,0
532,85,0,0,0,0,0,0,0,0,0,-1,1756,939,0,0
539,85,0,0,0,0,0,0,0,0,0,-1,1763,939,0,0
546,85,0,0,0,0,0,0,0,0,0,-1,1770,939,0,0
553,85,0,0,0,0,0,0,0,0,0,-1,1777,939,0,0
560,85,0,0,0,0,0,0,0,0,0,-1,1784,939,0,0
567,85,0,0,0,0,0,0,0,0,0,-1,1791,939,0,0
574,85,0,0,0,0,0,0,0,0,0,-1,1798,939,0,0
581,85,0,0,0,0,0,0,0,0,0,-1,1805,939,0,0
588,85,0,0,0,0,0,0,0,0,0,-1,1812,939,0,0
595,85,0,0,0,0,0,0,0,0,0,-1,1819,939,0,0
602,85,0,0,0,0,0,0,0,0,0,-1,1826,939,0,0
609,85,0,0,0,0,0,0,0,0,0,-1,1833,939,0,0
616,85,0,0,0,0,0,0,0,0,0,-1,1840,939,0,0
623,85,0,0,0,0,0,0,0,0,0,-1,1847,939,0,0
630,85,0,0,0,0,0,0,0,0,0,-1,1854,939,0,0
637,85,48.0894,2.88477,-0.00274286,-0.000108225,-0.00328108,0.00211011,-0.00496119,-0.976293,0.00419177,0.0488269,1861,939,48.0894,-2.8848
644,85,47.973,2.97626,-0.0019644,0.000472802,-0.00282032,0.00232653,-0.00381812,-0.989324,0.00358229,0.0440489,1868,939,47.9731,-2.97625
651,85,47.9253,2.57611,-0.00140826,0.000787792,-0.00222207,0.00216832,-0.00278879,-1.01487,0.00286946,0.0446412,1875,939,47.9252,-2.57609
658,85,47.9474,2.50848,-0.000975521,0.0010943,-0.00145548,0.00184529,-0.00172652,-1.09445,0.00206257,0.0427301,1882,939,47.9473,-2.50847
665,85,48.0079,2.55884,-0.000651819,0.00132344,-0.000665693,0.00152684,-0.000855223,-1.27425,0.00139339,0.0404792,1889,939,48.0079,-2.55883
672,85,48.0431,2.62683,-0.000543256,0.00128928,5.06721e-05,0.00129068,-0.000544656,1.54317,0.00108842,0.0403882,1896,939,48.0431,-2.62681
679,85,48.0649,2.74524,-0.000499102,0.00100621,0.000568083,0.00119653,-0.000689425,1.24752,0.0011019,0.0385492,1903,939,48.0649,-2.74522
686,85,47.8951,2.85907,-0.000373255,0.000691859,0.000733196,0.0010655,-0.000746896,1.09949,0.00105176,0.0318263,1910,939,47.8952,-2.85908
693,85,47.9325,2.89343,-0.000336107,0.000466297,0.000686559,0.000860284,-0.000730094,1.04982,0.00091923,0.0238957,1917,939,47.9325,-2.89343
700,85,47.9681,2.89642,-0.000447889,0.000341979,0.000622233,0.00068403,-0.00078994,1.06817,0.000851729,0.0381939,1924,939,47.9682,-2.89641
707,85,48.0668,2.92053,0,0,0,0,0,0,0,-1,1931,939,48.0668,-2.92055
714,85,45.1683,4.07489,0,0,0,0,0,0,0,-1,1938,939,45.1683,-4.07487
721,85,45.0764,4.58966,-0.0015865,0.00083794,6.17876e-05,0.000839514,-0.00158807,1.54533,0.0014236,0.0299185,1945,939,45.0764,-4.58964
728,85,44.9539,5.11951,-0.00165699,0.0013619,-0.000166836,0.0013711,-0.00166618,-1.51576,0.00175633,0.0270287,1952,939,44.9539,-5.11953
735,85,44.9711,5.39404,-0.00145519,0.00189626,-0.000388112,0.00194062,-0.00149955,-1.457,0.00199162,0.024999,1959,939,44.971,-5.39402
742,85,45.0602,5.75739,-0.00129904,0.00266432,-0.000596191,0.00275206,-0.00138678,-1.42468,0.00243251,0.0178596,1966,939,45.0602,-5.75739
749,85,44.986,6.14679,-0.00107294,0.00387922,-0.000530658,0.00393545,-0.00112916,-1.46524,0.00307004,0.0143457,1973,939,44.9859,-6.14681
756,85,44.86,6.49445,-0.000129442,0.00518317,7.30856e-05,0.00518417,-0.000130447,1.55704,0.00350041,0.0144302,1980,939,44.86,-6.49447
763,85,44.8082,6.8476,0.00170226,0.00629226,0.00130744,0.00663855,0.00135597,1.31188,0.00405009,0.0146721,1987,939,44.8082,-6.84762
770,85,44.765,7.26941,0.0043521,0.00678623,0.00295567,0.0087656,0.00237273,0.980705,0.00523523,0.0205727,1994,939,44.765,-7.26942
777,85,44.7383,7.83398,0.0080265,0.00624771,0.00528669,0.0124981,0.00177612,0.702062,0.00780765,0.0427311,2001,939,44.7383,-7.83397
784,85,44.7783,8.40631,0,0,0,0,0,0,0,-1,2008,939,44.7784,-8.40629
791,85,45.6167,9.50592,0,0,0,0,0,0,0,-1,2015,939,45.6167,-9.50594
798,85,45.8301,10.0475,0,0,0,0,0,0,0,-1,2022,939,45.8301,-10.0475
805,85,47.3477,8.97565,0,0,0,0,0,0,0,-1,2029,939,47.3476,-8.97562
812,85,0,0,0,0,0,0,0,0,0,-1,2036,939,0,0
-700,78,0,0,0,0,0,0,0,0,0,-1,524,946,0,0
-693,78,0,0,0,0,0,0,0,0,0,-1,531,946,0,0
-686,78,-36.6792,0.399048,0.254722,0.0142827,0.0866167,0.282675,-0.0136706,0.312172,0.193168,0.04087,538,946,-36.6792,-0.399031
-679,78,-34.7777,0.9375,0.206523,0.010998,0.0735294,0.231088,-0.0135673,0.322429,0.158775,0.0469081,545,946,-34.7777,-0.937485
-672,78,-33.7063,1.64581,0,0,0,0,0,0,0,-1,552,946,-33.7063,-1.64584
-665,78,-32.7925,2.45001,0,0,0,0,0,0,0,-1,559,946,-32.7925,-2.45004
-658,78,-33.3828,5.4978,0,0,0,0,0,0,0,-1,566,946,-33.3828,-5.4978
-651,78,-33.5818,5.09363,0.0699294,0.00654907,0.0321108,0.0833543,-0.00687582,0.395995,0.0579975,0.0445602,573,946,-33.5818,-5.0936
-644,78,-33.7739,4.69604,0.0485489,0.00596394,0.0247245,0.0598857,-0.00537287,0.429921,0.04183,0.0266665,580,946,-33.7739,-4.69603
-637,78,-34.0065,4.33295,0.0318315,0.00528335,0.0184794,0.0413103,-0.0041954,0.473942,0.0290398,0.0161215,587,946,-34.0065,-4.33293
-630,78,-34.1421,4.01544,0.0167667,0.00422364,0.0127707,0.0247228,-0.0037324,0.557152,0.0178565,0.0152302,594,946,-34.1421,-4.01542
-623,78,-34.1666,3.71625,0.00506011,0.00388539,0.00804729,0.0125414,-0.00359595,0.748968,0.00978246,0.0126966,601,946,-34.1666,-3.71622
-616,78,-34.1807,3.38727,-0.00148223,0.00282019,0.00476307,0.00589531,-0.00455735,0.997508,0.00605131,0.0113077,608,946,-34.1808,-3.38728
-609,78,-34.1678,3.0722,-0.00582098,0.00171457,0.00231043,0.00236655,-0.00647296,1.29576,0.00528387,0.0125527,615,946,-34.1678,-3.07222
-602,78,-34.183,2.73505,-0.00713423,0.00101929,0.00103892,0.00114958,-0.00726453,1.44603,0.00526819,0.0162123,622,946,-34.1831,-2.73506
-595,78,-34.1191,2.35712,-0.00809243,0.000888359,-0.00015828,0.000891148,-0.00809522,-1.55318,0.00571706,0.0153338,629,946,-34.1191,-2.35714
-588,78,-34.0948,2.07556,-0.00876572,0.000676442,-0.00092777,0.000766739,-0.00885602,-1.47377,0.00617548,0.0136748,636,946,-34.0948,-2.07553
-581,78,-34.0361,1.73822,0,0,0,0,0,0,0,-1,643,946,-34.036,-1.73823
-574,78,-34.957,1.39325,0,0,0,0,0,0,0,-1,650,946,-34.9571,-1.39322
-567,78,-35.7483,1.11493,0,0,0,0,0,0,0,-1,657,946,-35.7483,-1.11495
-560,78,-35.7505,1.03577,-0.00693286,-0.000105806,-0.0021619,0.00052121,-0.00755988,-1.28851,0.00522233,0.0326214,664,946,-35.7505,-1.03574
-553,78,-35.7195,0.863464,-0.00527734,-0.000103551,-0.00223549,0.000728538,-0.00610942,-1.21447,0.00433624,0.0409599,671,946,-35.7195,-0.863466
-546,78,-35.7377,1.00702,-0.00278432,-0.000273599,-0.00221079,0.00101339,-0.0040713,-1.04361,0.00310757,0.039262,678,946,-35.7377,-1.00703
-539,78,-35.7698,1.25586,0.000715188,-0.000876908,-0.00208946,0.00215511,-0.00231683,-0.603396,0.00258244,0.0355572,685,946,-35.7698,-1.25588
-532,78,-35.6571,1.02106,0.00528036,-0.00224719,-0.002042,0.00579861,-0.00276545,-0.24855,0.00504677,0.0358164,692,946,-35.6571,-1.02108
-525,78,-35.5493,1.01978,0.00901205,-0.00435814,-0.00249501,0.00946247,-0.00480856,-0.178605,0.00838415,0.0378985,699,946,-35.5493,-1.01977
-518,78,-35.6078,1.14404,0.00936607,-0.00733662,-0.00324446,0.00997416,-0.00794471,-0.185275,0.0103676,0.0403564,706,946,-35.6079,-1.14407
-511,78,0,0,0,0,0,0,0,0,0,-1,713,946,0,0
-504,78,0,0,0,0,0,0,0,0,0,-1,720,946,0,0
-497,78,0,0,0,0,0,0,0,0,0,-1,727,946,0,0
-490,78,0,0,0,0,0,0,0,0,0,-1,734,946,0,0
-483,78,0,0,0,0,0,0,0,0,0,-1,741,946,0,0
-476,78,0,0,0,0,0,0,0,0,0,-1,748,946,0,0
-469,78,0,0,0,0,0,0,0,0,0,-1,755,946,0,0
-462,78,0,0,0,0,0,0,0,0,0,-1,762,946,0,0
-455,78,0,0,0,0,0,0,0,0,0,-1,769,946,0,0
-448,78,0,0,0,0,0,0,0,0,0,-1,776,946,0,0
-441,78,0,0,0,0,0,0,0,0,0,-1,783,946,0,0
-434,78,0,0,0,0,0,0,0,0,0,-1,790,946,0,0
-427,78,0,0,0,0,0,0,0,0,0,-1,797,946,0,0
-420,78,0,0,0,0,0,0,0,0,0,-1,804,946,0,0
-413,78,0,0,0,0,0,0,0,0,0,-1,811,946,0,0
-406,78,0,0,0,0,0,0,0,0,0,-1,818,946,0,0
-399,78,0,0,0,0,0,0,0,0,0,-1,825,946,0,0
-392,78,0,0,0,0,0,0,0,0,0,-1,832,946,0,0
-385,78,0,0,0,0,0,0,0,0,0,-1,839,946,0,0
-378,78,0,0,0,0,0,0,0,0,0,-1,846,946,0,0
-371,78,0,0,0,0,0,0,0,0,0,-1,853,946,0,0
-364,78,0,0,0,0,0,0,0,0,0,-1,860,946,0,0
-357,78,0,0,0,0,0,0,0,0,0,-1,867,946,0,0
-350,78,0,0,0,0,0,0,0,0,0,-1,874,946,0,0
-343,78,0,0,0,0,0,0,0,0,0,-1,881,946,0,0
-336,78,0,0,0,0,0,0,0,0,0,-1,888,946,0,0
-329,78,0,0,0,0,0,0,0,0,0,-1,895,946,0,0
-322,78,0,0,0,0,0,0,0,0,0,-1,902,946,0,0
-315,78,0,0,0,0,0,0,0,0,0,-1,909,946,0,0
-308,78,0,0,0,0,0,0,0,0,0,-1,916,946,0,0
-301,78,0,0,0,0,0,0,0,0,0,-1,923,946,0,0
-294,78,0,0,0,0,0,0,0,0,0,-1,930,946,0,0
-287,78,0,0,0,0,0,0,0,0,0,-1,937,946,0,0
-280,78,0,0,0,0,0,0,0,0,0,-1,944,946,0,0
-273,78,0,0,0,0,0,0,0,0,0,-1,951,946,0,0
-266,78,0,0,0,0,0,0,0,0,0,-1,958,946,0,0
-259,78,0,0,0,0,0,0,0,0,0,-1,965,946,0,0
-252,78,0,0,0,0,0,0,0,0,0,-1,972,946,0,0
-245,78,0,0,0,0,0,0,0,0,0,-1,979,946,0,0
-238,78,0,0,0,0,0,0,0,0,0,-1,986,946,0,0
-231,78,0,0,0,0,0,0,0,0,0,-1,993,946,0,0
-224,78,0,0,0,0,0,0,0,0,0,-1,1000,946,0,0
-217,78,0,0,0,0,0,0,0,0,0,-1,1007,946,0,0
-210,78,0,0,0,0,0,0,0,0,0,-1,1014,946,0,0
-203,78,0,0,0,0,0,0,0,0,0,-1,1021,946,0,0
-196,78,0,0,0,0,0,0,0,0,0,-1,1028,946,0,0
-189,78,0,0,0,0,0,0,0,0,0,-1,1035,946,0,0
-182,78,0,0,0,0,0,0,0,0,0,-1,1042,946,0,0
-175,78,0,0,0,0,0,0,0,0,0,-1,1049,946,0,0
-168,78,0,0,0,0,0,0,0,0,0,-1,1056,946,0,0
-161,78,0,0,0,0,0,0,0,0,0,-1,1063,946,0,0
-154,78,0,0,0,0,0,0,0,0,0,-1,1070,946,0,0
-147,78,0,0,0,0,0,0,0,0,0,-1,1077,946,0,0
-140,78,0,0,0,0,0,0,0,0,0,-1,1084,946,0,0
-133,78,0,0,0,0,0,0,0,0,0,-1,1091,946,0,0
-126,78,0,0,0,0,0,0,0,0,0,-1,1098,946,0,0
-119,78,0,0,0,0,0,0,0,0,0,-1,1105,946,0,0
-112,78,0,0,0,0,0,0,0,0,0,-1,1112,946,0,0
-105,78,0,0,0,0,0,0,0,0,0,-1,1119,946,0,0
-98,78,0,0,0,0,0,0,0,0,0,-1,1126,946,0,0
-91,78,0,0,0,0,0,0,0,0,0,-1,1133,946,0,0
-84,78,0,0,0,0,0,0,0,0,0,-1,1140,946,0,0
-77,78,0,0,0,0,0,0,0,0,0,-1,1147,946,0,0
-70,78,0,0,0,0,0,0,0,0,0,-1,1154,946,0,0
-63,78,0,0,0,0,0,0,0,0,0,-1,1161,946,0,0
-56,78,0,0,0,0,0,0,0,0,0,-1,1168,946,0,0
-49,78,0,0,0,0,0,0,0,0,0,-1,1175,946,0,0
-42,78,0,0,0,0,0,0,0,0,0,-1,1182,946,0,0
-35,78,0,0,0,0,0,0,0,0,0,-1,1189,946,0,0
-28,78,0,0,0,0,0,0,0,0,0,-1,1196,946,0,0
-21,78,0,0,0,0,0,0,0,0,0,-1,1203,946,0,0
-14,78,0,0,0,0,0,0,0,0,0,-1,1210,946,0,0
-7,78,0,0,0,0,0,0,0,0,0,-1,1217,946,0,0
0,78,0,0,0,0,0,0,0,0,0,-1,1224,946,0,0
7,78,0,0,0,0,0,0,0,0,0,-1,1231,946,0,0
14,78,0,0,0,0,0,0,0,0,0,-1,1238,946,0,0
21,78,0,0,0,0,0,0,0,0,0,-1,1245,946,0,0
28,78,0,0,0,0,0,0,0,0,0,-1,1252,946,0,0
35,78,0,0,0,0,0,0,0,0,0,-1,1259,946,0,0
42,78,0,0,0,0,0,0,0,0,0,-1,1266,946,0,0
49,78,0,0,0,0,0,0,0,0,0,-1,1273,946,0,0
56,78,0,0,0,0,0,0,0,0,0,-1,1280,946,0,0
63,78,0,0,0,0,0,0,0,0,0,-1,1287,946,0,0
70,78,0,0,0,0,0,0,0,0,0,-1,1294,946,0,0
77,78,0,0,0,0,0,0,0,0,0,-1,1301,946,0,0
84,78,0,0,0,0,0,0,0,0,0,-1,1308,946,0,0
91,78,0,0,0,0,0,0,0,0,0,-1,1315,946,0,0
98,78,0,0,0,0,0,0,0,0,0,-1,1322,946,0,0
105,78,0,0,0,0,0,0,0,0,0,-1,1329,946,0,0
112,78,0,0,0,0,0,0,0,0,0,-1,1336,946,0,0
119,78,0,0,0,0,0,0,0,0,0,-1,1343,946,0,0
126,78,0,0,0,0,0,0,0,0,0,-1,1350,946,0,0
133,78,0,0,0,0,0,0,0,0,0,-1,1357,946,0,0
140,78,0,0,0,0,0,0,0,0,0,-1,1364,946,0,0
147,78,0,0,0,0,0,0,0,0,0,-1,1371,946,0,0
154,78,0,0,0,0,0,0,0,0,0,-1,1378,946,0,0
161,78,0,0,0,0,0,0,0,0,0,-1,1385,946,0,0
168,78,0,0,0,0,0,0,0,0,0,-1,1392,946,0,0
175,78,0,0,0,0,0,0,0,0,0,-1,1399,946,0,0
182,78,0,0,0,0,0,0,0,0,0,-1,1406,946,0,0
189,78,0,0,0,0,0,0,0,0,0,-1,1413,946,0,0
196,78,0,0,0,0,0,0,0,0,0,-1,1420,946,0,0
203,78,0,0,0,0,0,0,0,0,0,-1,1427,946,0,0
210,78,0,0,0,0,0,0,0,0,0,-1,1434,946,0,0
217,78,0,0,0,0,0,0,0,0,0,-1,1441,946,0,0
224,78,0,0,0,0,0,0,0,0,0,-1,1448,946,0,0
231,78,0,0,0,0,0,0,0,0,0,-1,1455,946,0,0
238,78,0,0,0,0,0,0,0,0,0,-1,1462,946,0,0
245,78,0,0,0,0,0,0,0,0,0,-1,1469,946,0,0
252,78,0,0,0,0,0,0,0,0,0,-1,1476,946,0,0
259,78,0,0,0,0,0,0,0,0,0,-1,1483,946,0,0
266,78,0,0,0,0,0,0,0,0,0,-1,1490,946,0,0
273,78,0,0,0,0,0,0,0,0,0,-1,1497,946,0,0
280,78,0,0,0,0,0,0,0,0,0,-1,1504,946,0,0
287,78,0,0,0,0,0,0,0,0,0,-1,1511,946,0,0
294,78,0,0,0,0,0,0,0,0,0,-1,1518,946,0,0
301,78,0,0,0,0,0,0,0,0,0,-1,1525,946,0,0
308,78,0,0,0,0,0,0,0,0,0,-1,1532,946,0,0
315,78,0,0,0,0,0,0,0,0,0,-1,1539,946,0,0
322,78,0,0,0,0,0,0,0,0,0,-1,1546,946,0,0
329,78,0,0,0,0,0,0,0,0,0,-1,1553,946,0,0
336,78,0,0,0,0,0,0,0,0,0,-1,1560,946,0,0
343,78,0,0,0,0,0,0,0,0,0,-1,1567,946,0,0
350,78,0,0,0,0,0,0,0,0,0,-1,1574,946,0,0
357,78,0,0,0,0,0,0,0,0,0,-1,1581,946,0,0
364,78,0,0,0,0,0,0,0,0,0,-1,1588,946,0,0
371,78,0,0,0,0,0,0,0,0,0,-1,1595,946,0,0
378,78,0,0,0,0,0,0,0,0,0,-1,1602,946,0,0
385,78,0,0,0,0,0,0,0,0,0,-1,1609,946,0,0
392,78,0,0,0,0,0,0,0,0,0,-1,1616,946,0,0
399,78,0,0,0,0,0,0,0,0,0,-1,1623,946,0,0
406,78,0,0,0,0,0,0,0,0,0,-1,1630,946,0,0
413,78,0,0,0,0,0,0,0,0,0,-1,1637,946,0,0
420,78,0,0,0,0,0,0,0,0,0,-1,1644,946,0,0
427,78,0,0,0,0,0,0,0,0,0,-1,1651,946,0,0
434,78,0,0,0,0,0,0,0,0,0,-1,1658,946,0,0
441,78,0,0,0,0,0,0,0,0,0,-1,1665,946,0,0
448,78,0,0,0,0,0,0,0,0,0,-1,1672,946,0,0
455,78,0,0,0,0,0,0,0,0,0,-1,1679,946,0,0
462,78,0,0,0,0,0,0,0,0,0,-1,1686,946,0,0
469,78,0,0,0,0,0,0,0,0,0,-1,1693,946,0,0
476,78,0,0,0,0,0,0,0,0,0,-1,1700,946,0,0
483,78,0,0,0,0,0,0,0,0,0,-1,1707,946,0,0
490,78,0,0,0,0,0,0,0,0,0,-1,1714,946,0,0
497,78,0,0,0,0,0,0,0,0,0,-1,1721,946,0,0
504,78,0,0,0,0,0,0,0,0,0,-1,1728,946,0,0
511,78,0,0,0,0,0,0,0,0,0,-1,1735,946,0,0
518,78,0,0,0,0,0,0,0,0,0,-1,1742,946,0,0
525,78,0,0,0,0,0,0,0,0,0,-1,1749,946,0,0
532,78,0,0,0,0,0,0,0,0,0,-1,1756,946,0,0
539,78,0,0,0,0,0,0,0,0,0,-1,1763,946,0,0
546,78,0,0,0,0,0,0,0,0,0,-1,1770,946,0,0
553,78,0,0,0,0,0,0,0,0,0,-1,1777,946,0,0
560,78,0,0,0,0,0,0,0,0,0,-1,1784,946,0,0
567,78,0,0,0,0,0,0,0,0,0,-1,1791,946,0,0
574,78,0,0,0,0,0,0,0,0,0,-1,1798,946,0,0
581,78,0,0,0,0,0,0,0,0,0,-1,1805,946,0,0
588,78,0,0,0,0,0,0,0,0,0,-1,1812,946,0,0
595,78,0,0,0,0,0,0,0,0,0,-1,1819,946,0,0
602,78,0,0,0,0,0,0,0,0,0,-1,1826,946,0,0
609,78,0,0,0,0,0,0,0,0,0,-1,1833,946,0,0
616,78,0,0,0,0,0,0,0,0,0,-1,1840,946,0,0
623,78,0,0,0,0,0,0,0,0,0,-1,1847,946,0,0
630,78,0,0,0,0,0,0,0,0,0,-1,1854,946,0,0
637,78,48.0765,3.02777,-0.00208332,0.00168668,-0.00259413,0.00300835,-0.00340499,-1.09959,0.00370511,0.0460689,1861,946,48.0766,-3.02779
644,78,48.1379,2.84686,-0.00148293,0.00166388,-0.0024452,0.00299816,-0.00281721,-1.07128,0.00335804,0.0441167,1868,946,48.138,-2.84685
651,78,48.0159,2.64545,-0.00106582,0.0015243,-0.00203206,0.0026389,-0.00218042,-1.0691,0.00278662,0.0420574,1875,946,48.0158,-2.64546
658,78,47.9535,2.66046,-0.000723727,0.00148738,-0.00136491,0.00213831,-0.00137465,-1.1258,0.00204412,0.0383568,1882,946,47.9534,-2.66048
665,78,48.011,2.64301,-0.000490956,0.00148738,-0.00058309,0.00164645,-0.000650025,-1.30447,0.00136684,0.0397774,1889,946,48.0109,-2.64299
672,78,48.0842,2.54846,-0.000466551,0.00133633,0.000178,0.00135374,-0.000483957,1.47332,0.00109989,0.0400865,1896,946,48.0842,-2.54849
679,78,48.083,2.61475,-0.000492061,0.00100757,0.000744989,0.00131474,-0.000799238,1.17971,0.00123254,0.0377236,1903,946,48.083,-2.61478
686,78,47.8973,2.74255,-0.000393231,0.000659197,0.000954549,0.00122297,-0.000957,1.03731,0.00126172,0.0343607,1910,946,47.8973,-2.74254
693,78,47.8846,2.75372,-0.000381418,0.000371652,0.000946192,0.00101348,-0.00102324,0.974766,0.00117591,0.0274561,1917,946,47.8847,-2.75375
700,78,47.926,2.78857,-0.000529234,0.000241287,0.000877425,0.000814307,-0.00110225,0.992267,0.00111068,0.0225081,1924,946,47.926,-2.78856
707,78,48.0181,2.85999,0,0,0,0,0,0,0,-1,1931,946,48.018,-2.86
714,78,45.3719,4.24725,0,0,0,0,0,0,0,-1,1938,946,45.3719,-4.24722
721,78,45.3766,4.63391,-0.00178319,0.000889642,0.000255237,0.000913798,-0.00180734,1.47644,0.00159904,0.0311312,1945,946,45.3766,-4.63391
728,78,45.3667,5.14484,-0.00184787,0.00150014,3.00822e-07,0.00150014,-0.00184787,1.57071,0.00193645,0.0304901,1952,946,45.3666,-5.14484
735,78,45.4298,5.45673,-0.00165982,0.00206244,-0.000246757,0.00207873,-0.00167611,-1.50489,0.00217201,0.0224252,1959,946,45.4298,-5.45674
742,78,45.4697,5.79181,-0.00156336,0.00286356,-0.000486,0.00291629,-0.00161608,-1.46273,0.00265241,0.0179308,1966,946,45.4698,-5.7918
749,78,45.3719,6.12939,-0.00147338,0.00411985,-0.000497343,0.00416373,-0.00151726,-1.4828,0.00339648,0.0148646,1973,946,45.3719,-6.12941
756,78,45.3096,6.4364,-0.00072265,0.00555132,-1.22487e-05,0.00555135,-0.000722674,-1.56884,0.00396381,0.016282,1980,946,45.3096,-6.43638
763,78,45.2312,6.74445,0.000910578,0.00690938,0.00112061,0.00711188,0.000708078,1.39202,0.00452374,0.0167779,1987,946,45.2312,-6.74442
770,78,45.1516,7.03815,0.0032952,0.00776734,0.00268988,0.00902919,0.00203335,1.13216,0.00546916,0.0232432,1994,946,45.1516,-7.03816
777,78,45.0814,7.34265,0.00653999,0.00776086,0.00487847,0.0120669,0.00223392,0.847639,0.00741305,0.0439128,2001,946,45.0814,-7.34266
784,78,45.0725,7.65863,0,0,0,0,0,0,0,-1,2008,946,45.0726,-7.65865
791,78,46.6406,8.83807,0,0,0,0,0,0,0,-1,2015,946,46.6407,-8.83805
798,78,47.4456,9.10638,0,0,0,0,0,0,0,-1,2022,946,47.4455,-9.1064
805,78,44.4521,7.54877,0,0,0,0,0,0,0,-1,2029,946,44.4522,-7.54875
812,78,0,0,0,0,0,0,0,0,0,-1,2036,946,0,0
-700,71,0,0,0,0,0,0,0,0,0,-1,524,953,0,0
-693,71,0,0,0,0,0,0,0,0,0,-1,531,953,0,0
-686,71,-37.1985,0.195129,0.246564,0.0113019,0.0813925,0.271978,-0.0141118,0.302645,0.186201,0.0419473,538,953,-37.1985,-0.195135
-679,71,-35.6075,0.941284,0.199894,0.00904736,0.0687147,0.22206,-0.013119,0.312046,0.152601,0.0452516,545,953,-35.6075,-0.941301
-672,71,-34.1686,1.53552,0.158878,0.00805295,0.0572224,0.17813,-0.0111995,0.324552,0.122657,0.0470119,552,953,-34.1687,-1.53552
-665,71,-33.0931,2.05988,0.123424,0.00757643,0.0468729,0.140014,-0.00901307,0.340167,0.0964874,0.0466424,559,953,-33.0931,-2.05989
-658,71,-33.7666,5.54364,0,0,0,0,0,0,0,-1,566,953,-33.7666,-5.54365
-651,71,-33.9604,5.08038,0.0678101,0.00704509,0.0296943,0.0799111,-0.00505591,0.386972,0.0550368,0.0474163,573,953,-33.9604,-5.08036
-644,71,-34.1321,4.60907,0.0471745,0.00664018,0.0228668,0.057463,-0.00364831,0.422797,0.0395809,0.0327327,580,953,-34.1321,-4.60909
-637,71,-34.3722,4.26245,0.0310263,0.00602992,0.0170424,0.0396621,-0.00260593,0.469016,0.0273515,0.0155568,587,953,-34.3722,-4.26247
-630,71,-34.4828,3.96863,0.0165611,0.00499462,0.011628,0.0237647,-0.00220893,0.554633,0.0166284,0.0148335,594,953,-34.4829,-3.9686
-623,71,-34.522,3.6684,0.00513224,0.00466461,0.00711035,0.0120126,-0.00221576,0.768962,0.00884005,0.0142497,601,953,-34.5221,-3.66842
-616,71,-34.5242,3.32434,-0.00133448,0.00360246,0.00391237,0.00576,-0.00349202,1.06683,0.00539489,0.0144349,608,953,-34.5242,-3.32433
-609,71,-34.5078,3.06763,-0.00557797,0.00240897,0.00142232,0.0026547,-0.0058237,1.39972,0.00500768,0.0162649,615,953,-34.5078,-3.06766
-602,71,-34.4756,2.78302,-0.00677123,0.00164233,4.01301e-05,0.00164252,-0.00677142,1.56603,0.00514985,0.016509,622,953,-34.4756,-2.78302
-595,71,-34.4767,2.46625,-0.00756236,0.00141455,-0.00121067,0.00157496,-0.00772277,-1.43907,0.00574591,0.0172656,629,953,-34.4767,-2.46625
-588,71,-34.4465,2.21472,-0.00811083,0.00108734,-0.00204261,0.00152053,-0.00854402,-1.36181,0.00626467,0.0213628,636,953,-34.4465,-2.21473
-581,71,-34.7025,1.68756,-0.00820477,0.000614615,-0.00251662,0.0012822,-0.00887236,-1.3115,0.00638537,0.0376311,643,953,-34.7025,-1.68755
-574,71,-35.4626,1.24982,-0.00768928,0.00028996,-0.00285771,0.00120784,-0.00860716,-1.26001,0.00618019,0.0432922,650,953,-35.4626,-1.2498
-567,71,-36.0563,0.866882,0,0,0,0,0,0,0,-1,657,953,-36.0563,-0.866863
-560,71,-35.7614,1.03308,-0.00595908,0.000206975,-0.00311844,0.00150912,-0.00726122,-1.17524,0.00541442,0.0279479,664,953,-35.7614,-1.0331
-553,71,-35.8091,1.1499,-0.00412465,0.000130636,-0.00299551,0.00167722,-0.00567124,-1.09419,0.00444662,0.0407387,671,953,-35.8092,-1.14991
-546,71,-36.1259,1.43817,0,0,0,0,0,0,0,-1,678,953,-36.1259,-1.43816
-539,71,-35.9388,1.47131,0.00222054,-0.00110468,-0.00222574,0.0033361,-0.00222023,-0.464611,0.00322944,0.0398915,685,953,-35.9388,-1.47129
-532,71,-35.9916,1.4267,0.00684961,-0.00286482,-0.00183597,0.00718502,-0.00320022,-0.180694,0.00614128,0.0447554,692,953,-35.9916,-1.42668
-525,71,-35.4393,1.00958,0.0104338,-0.00535087,-0.00203897,0.0106929,-0.00561,-0.12641,0.00956378,0.0436285,699,953,-35.4393,-1.00958
-518,71,0,0,0,0,0,0,0,0,0,-1,706,953,0,0
-511,71,0,0,0,0,0,0,0,0,0,-1,713,953,0,0
-504,71,0,0,0,0,0,0,0,0,0,-1,720,953,0,0
-497,71,0,0,0,0,0,0,0,0,0,-1,727,953,0,0
-490,71,0,0,0,0,0,0,0,0,0,-1,734,953,0,0
-483,71,0,0,0,0,0,0,0,0,0,-1,741,953,0,0
-476,71,0,0,0,0,0,0,0,0,0,-1,748,953,0,0
-469,71,0,0,0,0,0,0,0,0,0,-1,755,953,0,0
-462,71,0,0,0,0,0,0,0,0,0,-1,762,953,0,0
-455,71,0,0,0,0,0,0,0,0,0,-1,769,953,0,0
-448,71,0,0,0,0,0,0,0,0,0,-1,776,953,0,0
-441,71,0,0,0,0,0,0,0,0,0,-1,783,953,0,0
-434,71,0,0,0,0,0,0,0,0,0,-1,790,953,0,0
-427,71,0,0,0,0,0,0,0,0,0,-1,797,953,0,0
-420,71,0,0,0,0,0,0,0,0,0,-1,804,953,0,0
-413,71,0,0,0,0,0,0,0,0,0,-1,811,953,0,0
-406,71,0,0,0,0,0,0,0,0,0,-1,818,953,0,0
-399,71,0,0,0,0,0,0,0,0,0,-1,825,953,0,0
-392,71,0,0,0,0,0,0,0,0,0,-1,832,953,0,0
-385,71,0,0,0,0,0,0,0,0,0,-1,839,953,0,0
-378,71,0,0,0,0,0,0,0,0,0,-1,846,953,0,0
-371,71,0,0,0,0,0,0,0,0,0,-1,853,953,0,0
-364,71,0,0,0,0,0,0,0,0,0,-1,860,953,0,0
-357,71,0,0,0,0,0,0,0,0,0,-1,867,953,0,0
-350,71,0,0,0,0,0,0,0,0,0,-1,874,953,0,0
-343,71,0,0,0,0,0,0,0,0,0,-1,881,953,0,0
-336,71,0,0,0,0,0,0,0,0,0,-1,888,953,0,0
-329,71,0,0,0,0,0,0,0,0,0,-1,895,953,0,0
-322,71,0,0,0,0,0,0,0,0,0,-1,902,953,0,0
-315,71,0,0,0,0,0,0,0,0,0,-1,909,953,0,0
-308,71,0,0,0,0,0,0,0,0,0,-1,916,953,0,0
-301,71,0,0,0,0,0,0,0,0,0,-1,923,953,0,0
-294,71,0,0,0,0,0,0,0,0,0,-1,930,953,0,0
-287,71,0,0,0,0,0,0,0,0,0,-1,937,953,0,0
-280,71,0,0,0,0,0,0,0,0,0,-1,944,953,0,0
-273,71,0,0,0,0,0,0,0,0,0,-1,951,953,0,0
-266,71,0,0,0,0,0,0,0,0,0,-1,958,953,0,0
-259,71,0,0,0,0,0,0,0,0,0,-1,965,953,0,0
-252,71,0,0,0,0,0,0,0,0,0,-1,972,953,0,0
-245,71,0,0,0,0,0,0,0,0,0,-1,979,953,0,0
-238,71,0,0,0,0,0,0,0,0,0,-1,986,953,0,0
-231,71,0,0,0,0,0,0,0,0,0,-1,993,953,0,0
-224,71,0,0,0,0,0,0,0,0,0,-1,1000,953,0,0
-217,71,0,0,0,0,0,0,0,0,0,-1,1007,953,0,0
-210,71,0,0,0,0,0,0,0,0,0,-1,1014,953,0,0
-203,71,0,0,0,0,0,0,0,0,0,-1,1021,953,0,0
-196,71,0,0,0,0,0,0,0,0,0,-1,1028,953,0,0
-189,71,0,0,0,0,0,0,0,0,0,-1,1035,953,0,0
-182,71,0,0,0,0,0,0,0,0,0,-1,1042,953,0,0
-175,71,0,0,0,0,0,0,0,0,0,-1,1049,953,0,0
-168,71,0,0,0,0,0,0,0,0,0,-1,1056,953,0,0
-161,71,0,0,0,0,0,0,0,0,0,-1,1063,953,0,0
-154,71,0,0,0,0,0,0,0,0,0,-1,1070,953,0,0
-147,71,0,0,0,0,0,0,0,0,0,-1,1077,953,0,0
-140,71,0,0,0,0,0,0,0,0,0,-1,1084,953,0,0
-133,71,0,0,0,0,0,0,0,0,0,-1,1091,953,0,0
-126,71,0,0,0,0,0,0,0,0,0,-1,1098,953,0,0
-119,71,0,0,0,0,0,0,0,0,0,-1,1105,953,0,0
-112,71,0,0,0,0,0,0,0,0,0,-1,1112,953,0,0
-105,71,0,0,0,0,0,0,0,0,0,-1,1119,953,0,0
-98,71,0,0,0,0,0,0,0,0,0,-1,1126,953,0,0
-91,71,0,0,0,0,0,0,0,0,0,-1,1133,953,0,0
-84,71,0,0,0,0,0,0,0,0,0,-1,1140,953,0,0
-77,71,0,0,0,0,0,0,0,0,0,-1,1147,953,0,0
-70,71,0,0,0,0,0,0,0,0,0,-1,1154,953,0,0
-63,71,0,0,0,0,0,0,0,0,0,-1,1161,953,0,0
-56,71,0,0,0,0,0,0,0,0,0,-1,1168,953,0,0
-49,71,0,0,0,0,0,0,0,0,0,-1,1175,953,0,0
-42,71,0,0,0,0,0,0,0,0,0,-1,1182,953,0,0
-35,71,0,0,0,0,0,0,0,0,0,-1,1189,953,0,0
-28,71,0,0,0,0,0,0,0,0,0,-1,1196,953,0,0
-21,71,0,0,0,0,0,0,0,0,0,-1,1203,953,0,0
-14,71,0,0,0,0,0,0,0,0,0,-1,1210,953,0,0
-7,71,0,0,0,0,0,0,0,0,0,-1,1217,953,0,0
0,71,0,0,0,0,0,0,0,0,0,-1,1224,953,0,0
7,71,0,0,0,0,0,0,0,0,0,-1,1231,953,0,0
14,71,0,0,0,0,0,0,0,0,0,-1,1238,953,0,0
21,71,0,0,0,0,0,0,0,0,0,-1,1245,953,0,0
28,71,0,0,0,0,0,0,0,0,0,-1,1252,953,0,0
35,71,0,0,0,0,0,0,0,0,0,-1,1259,953,0,0
42,71,0,0,0,0,0,0,0,0,0,-1,1266,953,0,0
49,71,0,0,0,0,0,0,0,0,0,-1,1273,953,0,0
56,71,0,0,0,0,0,0,0,0,0,-1,1280,953,0,0
63,71,0,0,0,0,0,0,0,0,0,-1,1287,953,0,0
70,71,0,0,0,0,0,0,0,0,0,-1,1294,953,0,0
77,71,0,0,0,0,0,0,0,0,0,-1,1301,953,0,0
84,71,0,0,0,0,0,0,0,0,0,-1,1308,953,0,0
91,71,0,0,0,0,0,0,0,0,0,-1,1315,953,0,0
98,71,0,0,0,0,0,0,0,0,0,-1,1322,953,0,0
105,71,0,0,0,0,0,0,0,0,0,-1,1329,953,0,0
112,71,0,0,0,0,0,0,0,0,0,-1,1336,953,0,0
119,71,0,0,0,0,0,0,0,0,0,-1,1343,953,0,0
126,71,0,0,0,0,0,0,0,0,0,-1,1350,953,0,0
133,71,0,0,0,0,0,0,0,0,0,-1,1357,953,0,0
140,71,0,0,0,0,0,0,0,0,0,-1,1364,953,0,0
147,71,0,0,0,0,0,0,0,0,0,-1,1371,953,0,0
154,71,0,0,0,0,0,0,0,0,0,-1,1378,953,0,0
161,71,0,0,0,0,0,0,0,0,0,-1,1385,953,0,0
168,71,0,0,0,0,0,0,0,0,0,-1,1392,953,0,0
175,71,0,0,0,0,0,0,0,0,0,-1,1399,953,0,0
182,71,0,0,0,0,0,0,0,0,0,-1,1406,953,0,0
189,71,0,0,0,0,0,0,0,0,0,-1,1413,953,0,0
196,71,0,0,0,0,0,0,0,0,0,-1,1420,953,0,0
203,71,0,0,0,0,0,0,0,0,0,-1,1427,953,0,0
210,71,0,0,0,0,0,0,0,0,0,-1,1434,953,0,0
217,71,0,0,0,0,0,0,0,0,0,-1,1441,953,0,0
224,71,0,0,0,0,0,0,0,0,0,-1,1448,953,0,0
231,71,0,0,0,0,0,0,0,0,0,-1,1455,953,0,0
238,71,0,0,0,0,0,0,0,0,0,-1,1462,953,0,0
245,71,0,0,0,0,0,0,0,0,0,-1,1469,953,0,0
252,71,0,0,0,0,0,0,0,0,0,-1,1476,953,0,0
259,71,0,0,0,0,0,0,0,0,0,-1,1483,953,0,0
266,71,0,0,0,0,0,0,0,0,0,-1,1490,953,0,0
273,71,0,0,0,0,0,0,0,0,0,-1,1497,953,0,0
280,71,0,0,0,0,0,0,0,0,0,-1,1504,953,0,0
287,71,0,0,0,0,0,0,0,0,0,-1,1511,953,0,0
294,71,0,0,0,0,0,0,0,0,0,-1,1518,953,0,0
301,71,0,0,0,0,0,0,0,0,0,-1,1525,953,0,0
308,71,0,0,0,0,0,0,0,0,0,-1,1532,953,0,0
315,71,0,0,0,0,0,0,0,0,0,-1,1539,953,0,0
322,71,0,0,0,0,0,0,0,0,0,-1,1546,953,0,0
329,71,0,0,0,0,0,0,0,0,0,-1,1553,953,0,0
336,71,0,0,0,0,0,0,0,0,0,-1,1560,953,0,0
343,71,0,0,0,0,0,0,0,0,0,-1,1567,953,0,0
350,71,0,0,0,0,0,0,0,0,0,-1,1574,953,0,0
357,71,0,0,0,0,0,0,0,0,0,-1,1581,953,0,0
364,71,0,0,0,0,0,0,0,0,0,-1,1588,953,0,0
371,71,0,0,0,0,0,0,0,0,0,-1,1595,953,0,0
378,71,0,0,0,0,0,0,0,0,0,-1,1602,953,0,0
385,71,0,0,0,0,0,0,0,0,0,-1,1609,953,0,0
392,71,0,0,0,0,0,0,0,0,0,-1,1616,953,0,0
399,71,0,0,0,0,0,0,0,0,0,-1,1623,953,0,0
406,71,0,0,0,0,0,0,0,0,0,-1,1630,953,0,0
413,71,0,0,0,0,0,0,0,0,0,-1,1637,953,0,0
420,71,0,0,0,0,0,0,0,0,0,-1,1644,953,0,0
427,71,0,0,0,0,0,0,0,0,0,-1,1651,953,0,0
434,71,0,0,0,0,0,0,0,0,0,-1,1658,953,0,0
441,71,0,0,0,0,0,0,0,0,0,-1,1665,953,0,0
448,71,0,0,0,0,0,0,0,0,0,-1,1672,953,0,0
455,71,0,0,0,0,0,0,0,0,0,-1,1679,953,0,0
462,71,0,0,0,0,0,0,0,0,0,-1,1686,953,0,0
469,71,0,0,0,0,0,0,0,0,0,-1,1693,953,0,0
476,71,0,0,0,0,0,0,0,0,0,-1,1700,953,0,0
483,71,0,0,0,0,0,0,0,0,0,-1,1707,953,0,0
490,71,0,0,0,0,0,0,0,0,0,-1,1714,953,0,0
497,71,0,0,0,0,0,0,0,0,0,-1,1721,953,0,0
504,71,0,0,0,0,0,0,0,0,0,-1,1728,953,0,0
511,71,0,0,0,0,0,0,0,0,0,-1,1735,953,0,0
518,71,0,0,0,0,0,0,0,0,0,-1,1742,953,0,0
525,71,0,0,0,0,0,0,0,0,0,-1,1749,953,0,0
532,71,0,0,0,0,0,0,0,0,0,-1,1756,953,0,0
539,71,0,0,0,0,0,0,0,0,0,-1,1763,953,0,0
546,71,0,0,0,0,0,0,0,0,0,-1,1770,953,0,0
553,71,0,0,0,0,0,0,0,0,0,-1,1777,953,0,0
560,71,0,0,0,0,0,0,0,0,0,-1,1784,953,0,0
567,71,0,0,0,0,0,0,0,0,0,-1,1791,953,0,0
574,71,0,0,0,0,0,0,0,0,0,-1,1798,953,0,0
581,71,0,0,0,0,0,0,0,0,0,-1,1805,953,0,0
588,71,0,0,0,0,0,0,0,0,0,-1,1812,953,0,0
595,71,0,0,0,0,0,0,0,0,0,-1,1819,953,0,0
602,71,0,0,0,0,0,0,0,0,0,-1,1826,953,0,0
609,71,0,0,0,0,0,0,0,0,0,-1,1833,953,0,0
616,71,0,0,0,0,0,0,0,0,0,-1,1840,953,0,0
623,71,0,0,0,0,0,0,0,0,0,-1,1847,953,0,0
630,71,0,0,0,0,0,0,0,0,0,-1,1854,953,0,0
637,71,48.0298,2.81927,-0.00107323,0.00267726,-0.00262618,0.00402899,-0.00242496,-1.09545,0.00376435,0.0409161,1861,953,48.0298,-2.81926
644,71,48.0662,2.75964,-0.000741939,0.00231922,-0.00243031,0.00366076,-0.00208348,-1.06642,0.00335786,0.0428078,1868,953,48.0662,-2.75967
651,71,47.9603,2.75903,-0.000519787,0.00192955,-0.00201327,0.00306137,-0.00165161,-1.05865,0.00276132,0.0393739,1875,953,47.9603,-2.75903
658,71,47.9404,2.8139,-0.000313037,0.00169855,-0.0013566,0.00238154,-0.000996027,-1.10439,0.00200398,0.0365863,1882,953,47.9404,-2.81391
665,71,48.0161,2.79736,-0.000198743,0.00158168,-0.000557044,0.0017416,-0.000358663,-1.29123,0.00129725,0.0398477,1889,953,48.0161,-2.79737
672,71,47.8966,2.69946,-0.000261094,0.00138664,0.000242377,0.00142155,-0.000296007,1.42774,0.00106023,0.0407876,1896,953,47.8966,-2.69946
679,71,47.8895,2.55023,-0.000330231,0.00108392,0.000892606,0.00151557,-0.000761884,1.12037,0.00133868,0.0406278,1903,953,47.8896,-2.55026
686,71,47.8812,2.55151,-0.00025293,0.000738732,0.00118181,0.00152451,-0.00103871,0.984021,0.00148871,0.0373514,1910,953,47.8812,-2.55149
693,71,47.9126,2.55182,-0.000263241,0.000437378,0.00122913,0.00136515,-0.00119101,0.92422,0.00147694,0.0313168,1917,953,47.9126,-2.5518
700,71,47.9286,2.62634,-0.000434986,0.000320382,0.0011731,0.0011751,-0.0012897,0.941136,0.00142356,0.0260451,1924,953,47.9286,-2.62634
707,71,48.0027,2.78857,0,0,0,0,0,0,0,-1,1931,953,48.0026,-2.78857
714,71,46.1049,4.39288,0,0,0,0,0,0,0,-1,1938,953,46.1048,-4.39288
721,71,45.8809,4.71051,-0.00177934,0.00107764,0.000560555,0.00118369,-0.00188539,1.38382,0.00178731,0.0425934,1945,953,45.8809,-4.71052
728,71,45.7089,5.15131,-0.00188917,0.00176519,0.000302139,0.00179001,-0.00191398,1.48886,0.0021389,0.0253333,1952,953,45.7088,-5.15128
735,71,45.7545,5.50012,-0.00176675,0.00235961,5.39365e-05,0.00236032,-0.00176745,1.55773,0.00239135,0.0194311,1959,953,45.7545,-5.50009
742,71,45.7997,5.79987,-0.00179673,0.00319939,-0.000148537,0.0032038,-0.00180114,-1.5411,0.00292719,0.0197248,1966,953,45.7996,-5.79988
749,71,45.7692,6.09912,-0.00192158,0.0044751,-0.000200747,0.00448139,-0.00192787,-1.53945,0.00379702,0.0187868,1973,953,45.7692,-6.0991
756,71,45.7284,6.39172,-0.0014955,0.0060017,0.00019603,0.00600683,-0.00150062,1.54467,0.00458732,0.0181331,1980,953,45.7284,-6.39172
763,71,45.6649,6.71753,-0.000249648,0.00758187,0.00127776,0.00778507,-0.00045285,1.41309,0.00534739,0.0209549,1987,953,45.665,-6.71754
770,71,45.455,6.94177,0.00167888,0.00880647,0.00290282,0.00983909,0.000646267,1.22903,0.00635493,0.0254111,1994,953,45.455,-6.94177
777,71,45.425,7.19263,0.00429421,0.00933292,0.00520369,0.012595,0.00103208,1.01084,0.00807468,0.0446918,2001,953,45.425,-7.19266
784,71,45.584,7.44568,0.00859058,0.00855565,0.00872117,0.0172943,-0.000148077,0.784397,0.0115792,0.0465252,2008,953,45.5841,-7.44566
791,71,45.6157,7.70703,0,0,0,0,0,0,0,-1,2015,953,45.6158,-7.70706
798,71,45.0645,6.52448,0,0,0,0,0,0,0,-1,2022,953,45.0644,-6.52449
805,71,45.0161,6.63287,0,0,0,0,0,0,0,-1,2029,953,45.0161,-6.63289
812,71,0,0,0,0,0,0,0,0,0,-1,2036,953,0,0
-700,64,0,0,0,0,0,0,0,0,0,-1,524,960,0,0
-693,64,0,0,0,0,0,0,0,0,0,-1,531,960,0,0
-686,64,-37.6774,0.0159912,0,0,0,0,0,0,0,-1,538,960,-37.6774,-0.0160056
-679,64,-36.1989,0.766968,0.187012,0.00539447,0.0638371,0.207205,-0.0147985,0.306362,0.143325,0.0438211,545,960,-36.1989,-0.766958
-672,64,-34.6674,1.4032,0.148692,0.00529296,0.0529308,0.166113,-0.0121282,0.317963,0.114998,0.0490568,552,960,-34.6673,-1.40321
-665,64,-33.6458,1.88446,0.115516,0.00561572,0.0432222,0.130478,-0.009346,0.333248,0.0902621,0.0465767,559,960,-33.6457,-1.88448
-658,64,-34.6517,5.58862,0,0,0,0,0,0,0,-1,566,960,-34.6516,-5.58863
-651,64,-34.6949,5.03735,0.0636524,0.00631162,0.027342,0.0745999,-0.00463584,0.380843,0.0513483,0.0448836,573,960,-34.6949,-5.03733
-644,64,-34.7,4.41937,0.044382,0.00632001,0.0210524,0.0537303,-0.00302828,0.417893,0.0368711,0.032464,580,960,-34.7,-4.41937
-637,64,-34.7309,4.12415,0.0293831,0.00606075,0.0156098,0.0372065,-0.00176266,0.464595,0.0254123,0.0160441,587,960,-34.7309,-4.12416
-630,64,-34.8104,3.86603,0.0158522,0.0052479,0.0104674,0.0222837,-0.0011836,0.550964,0.0152657,0.0130369,594,960,-34.8104,-3.86604
-623,64,-34.8354,3.60657,0.00511038,0.00513173,0.00615966,0.0112807,-0.00103861,0.786265,0.00788951,0.014018,601,960,-34.8354,-3.6066
-616,64,-34.8417,3.31177,-0.00106181,0.00425901,0.00306441,0.00565673,-0.00245953,1.14287,0.00480559,0.0174015,608,960,-34.8417,-3.31174
-609,64,-34.8171,3.10211,-0.00511882,0.00310435,0.000535256,0.00313905,-0.00515351,1.50607,0.00483457,0.0177229,615,960,-34.8171,-3.10209
-602,64,-34.8071,2.85144,-0.00623437,0.00234043,-0.000982253,0.00245151,-0.00634544,-1.45819,0.00524216,0.0163238,622,960,-34.807,-2.85146
-595,64,-34.8151,2.57202,-0.00682689,0.00202132,-0.00226394,0.00256694,-0.0073725,-1.3343,0.00595792,0.0183669,629,960,-34.815,-2.57205
-588,64,-34.7763,2.37134,-0.00722109,0.00159188,-0.0031473,0.00260043,-0.00822964,-1.26069,0.00652822,0.0311742,636,960,-34.7763,-2.37131
-581,64,-35.046,1.81787,-0.00722112,0.00107362,-0.00366588,0.00246153,-0.00860903,-1.20887,0.00671204,0.0423533,643,960,-35.046,-1.8179
-574,64,-35.6289,1.22913,-0.00665396,0.000675278,-0.00397139,0.00241449,-0.00839316,-1.15802,0.00655032,0.0414641,650,960,-35.6289,-1.22915
-567,64,-35.7274,0.945068,-0.00597728,0.000586745,-0.00410521,0.00256062,-0.00795116,-1.12261,0.00632939,0.0239971,657,960,-35.7274,-0.945046
-560,64,-35.7681,1.03473,-0.0047923,0.000516676,-0.00398776,0.00265265,-0.00692828,-1.07905,0.00571221,0.0334634,664,960,-35.7681,-1.03471
-553,64,-35.8682,1.04413,-0.00285244,0.000302057,-0.00362665,0.00267959,-0.00522997,-0.990513,0.00464504,0.0405353,671,960,-35.8682,-1.04413
-546,64,-35.8181,0.967102,-6.66704e-05,-0.000279212,-0.00300651,0.00283545,-0.00318133,-0.767732,0.0034757,0.042194,678,960,-35.8181,-0.967092
-539,64,-35.974,1.36304,0.00366971,-0.00154438,-0.00215401,0.00444444,-0.00231912,-0.345265,0.00396869,0.04201,685,960,-35.974,-1.36301
-532,64,-36.3414,1.82434,0,0,0,0,0,0,0,-1,692,960,-36.3414,-1.82437
-525,64,-35.5231,1.10858,0,0,0,0,0,0,0,-1,699,960,-35.5231,-1.10859
-518,64,0,0,0,0,0,0,0,0,0,-1,706,960,0,0
-511,64,0,0,0,0,0,0,0,0,0,-1,713,960,0,0
-504,64,0,0,0,0,0,0,0,0,0,-1,720,960,0,0
-497,64,0,0,0,0,0,0,0,0,0,-1,727,960,0,0
-490,64,0,0,0,0,0,0,0,0,0,-1,734,960,0,0
-483,64,0,0,0,0,0,0,0,0,0,-1,741,960,0,0
-476,64,0,0,0,0,0,0,0,0,0,-1,748,960,0,0
-469,64,0,0,0,0,0,0,0,0,0,-1,755,960,0,0
-462,64,0,0,0,0,0,0,0,0,0,-1,762,960,0,0
-455,64,0,0,0,0,0,0,0,0,0,-1,769,960,0,0
-448,64,0,0,0,0,0,0,0,0,0,-1,776,960,0,0
-441,64,0,0,0,0,0,0,0,0,0,-1,783,960,0,0
-434,64,0,0,0,0,0,0,0,0,0,-1,790,960,0,0
-427,64,0,0,0,0,0,0,0,0,0,-1,797,960,0,0
-420,64,0,0,0,0,0,0,0,0,0,-1,804,960,0,0
-413,64,0,0,0,0,0,0,0,0,0,-1,811,960,0,0
-406,64,0,0,0,0,0,0,0,0,0,-1,818,960,0,0
-399,64,0,0,0,0,0,0,0,0,0,-1,825,960,0,0
-392,64,0,0,0,0,0,0,0,0,0,-1,832,960,0,0
-385,64,0,0,0,0,0,0,0,0,0,-1,839,960,0,0
-378,64,0,0,0,0,0,0,0,0,0,-1,846,960,0,0
-371,64,0,0,0,0,0,0,0,0,0,-1,853,960,0,0
-364,64,0,0,0,0,0,0,0,0,0,-1,860,960,0,0
-357,64,0,0,0,0,0,0,0,0,0,-1,867,960,0,0
-350,64,0,0,0,0,0,0,0,0,0,-1,874,960,0,0
-343,64,0,0,0,0,0,0,0,0,0,-1,881,960,0,0
-336,64,0,0,0,0,0,0,0,0,0,-1,888,960,0,0
-329,64,0,0,0,0,0,0,0,0,0,-1,895,960,0,0
-322,64,0,0,0,0,0,0,0,0,0,-1,902,960,0,0
-315,64,0,0,0,0,0,0,0,0,0,-1,909,960,0,0
-308,64,0,0,0,0,0,0,0,0,0,-1,916,960,0,0
-301,64,0,0,0,0,0,0,0,0,0,-1,923,960,0,0
-294,64,0,0,0,0,0,0,0,0,0,-1,930,960,0,0
-287,64,0,0,0,0,0,0,0,0,0,-1,937,960,0,0
-280,64,0,0,0,0,0,0,0,0,0,-1,944,960,0,0
-273,64,0,0,0,0,0,0,0,0,0,-1,951,960,0,0
-266,64,0,0,0,0,0,0,0,0,0,-1,958,960,0,0
-259,64,0,0,0,0,0,0,0,0,0,-1,965,960,0,0
-252,64,0,0,0,0,0,0,0,0,0,-1,972,960,0,0
-245,64,0,0,0,0,0,0,0,0,0,-1,979,960,0,0
-238,64,0,0,0,0,0,0,0,0,0,-1,986,960,0,0
-231,64,0,0,0,0,0,0,0,0,0,-1,993,960,0,0
-224,64,0,0,0,0,0,0,0,0,0,-1,1000,960,0,0
-217,64,0,0,0,0,0,0,0,0,0,-1,1007,960,0,0
-210,64,0,0,0,0,0,0,0,0,0,-1,1014,960,0,0
-203,64,0,0,0,0,0,0,0,0,0,-1,1021,960,0,0
-196,64,0,0,0,0,0,0,0,0,0,-1,1028,960,0,0
-189,64,0,0,0,0,0,0,0,0,0,-1,1035,960,0,0
-182,64,0,0,0,0,0,0,0,0,0,-1,1042,960,0,0
-175,64,0,0,0,0,0,0,0,0,0,-1,1049,960,0,0
-168,64,0,0,0,0,0,0,0,0,0,-1,1056,960,0,0
-161,64,0,0,0,0,0,0,0,0,0,-1,1063,960,0,0
-154,64,0,0,0,0,0,0,0,0,0,-1,1070,960,0,0
-147,64,0,0,0,0,0,0,0,0,0,-1,1077,960,0,0
-140,64,0,0,0,0,0,0,0,0,0,-1,1084,960,0,0
-133,64,0,0,0,0,0,0,0,0,0,-1,1091,960,0,0
-126,64,0,0,0,0,0,0,0,0,0,-1,1098,960,0,0
-119,64,0,0,0,0,0,0,0,0,0,-1,1105,960,0,0
-112,64,0,0,0,0,0,0,0,0,0,-1,1112,960,0,0
-105,64,0,0,0,0,0,0,0,0,0,-1,1119,960,0,0
-98,64,0,0,0,0,0,0,0,0,0,-1,1126,960,0,0
-91,64,0,0,0,0,0,0,0,0,0,-1,1133,960,0,0
-84,64,0,0,0,0,0,0,0,0,0,-1,1140,960,0,0
-77,64,0,0,0,0,0,0,0,0,0,-1,1147,960,0,0
-70,64,0,0,0,0,0,0,0,0,0,-1,1154,960,0,0
-63,64,0,0,0,0,0,0,0,0,0,-1,1161,960,0,0
-56,64,0,0,0,0,0,0,0,0,0,-1,1168,960,0,0
-49,64,0,0,0,0,0,0,0,0,0,-1,1175,960,0,0
-42,64,0,0,0,0,0,0,0,0,0,-1,1182,960,0,0
-35,64,0,0,0,0,0,0,0,0,0,-1,1189,960,0,0
-28,64,0,0,0,0,0,0,0,0,0,-1,1196,960,0,0
-21,64,0,0,0,0,0,0,0,0,0,-1,1203,960,0,0
-14,64,0,0,0,0,0,0,0,0,0,-1,1210,960,0,0
-7,64,0,0,0,0,0,0,0,0,0,-1,1217,960,0,0
0,64,0,0,0,0,0,0,0,0,0,-1,1224,960,0,0
7,64,0,0,0,0,0,0,0,0,0,-1,1231,960,0,0
14,64,0,0,0,0,0,0,0,0,0,-1,1238,960,0,0
21,64,0,0,0,0,0,0,0,0,0,-1,1245,960,0,0
28,64,0,0,0,0,0,0,0,0,0,-1,1252,960,0,0
35,64,0,0,0,0,0,0,0,0,0,-1,1259,960,0,0
42,64,0,0,0,0,0,0,0,0,0,-1,1266,960,0,0
49,64,0,0,0,0,0,0,0,0,0,-1,1273,960,0,0
56,64,0,0,0,0,0,0,0,0,0,-1,1280,960,0,0
63,64,0,0,0,0,0,0,0,0,0,-1,1287,960,0,0
70,64,0,0,0,0,0,0,0,0,0,-1,1294,960,0,0
77,64,0,0,0,0,0,0,0,0,0,-1,1301,960,0,0
84,64,0,0,0,0,0,0,0,0,0,-1,1308,960,0,0
91,64,0,0,0,0,0,0,0,0,0,-1,1315,960,0,0
98,64,0,0,0,0,0,0,0,0,0,-1,1322,960,0,0
105,64,0,0,0,0,0,0,0,0,0,-1,1329,960,0,0
112,64,0,0,0,0,0,0,0,0,0,-1,1336,960,0,0
119,64,0,0,0,0,0,0,0,0,0,-1,1343,960,0,0
126,64,0,0,0,0,0,0,0,0,0,-1,1350,960,0,0
133,64,0,0,0,0,0,0,0,0,0,-1,1357,960,0,0
140,64,0,0,0,0,0,0,0,0,0,-1,1364,960,0,0
147,64,0,0,0,0,0,0,0,0,0,-1,1371,960,0,0
154,64,0,0,0,0,0,0,0,0,0,-1,1378,960,0,0
161,64,0,0,0,0,0,0,0,0,0,-1,1385,960,0,0
168,64,0,0,0,0,0,0,0,0,0,-1,1392,960,0,0
175,64,0,0,0,0,0,0,0,0,0,-1,1399,960,0,0
182,64,0,0,0,0,0,0,0,0,0,-1,1406,960,0,0
189,64,0,0,0,0,0,0,0,0,0,-1,1413,960,0,0
196,64,0,0,0,0,0,0,0,0,0,-1,1420,960,0,0
203,64,0,0,0,0,0,0,0,0,0,-1,1427,960,0,0
210,64,0,0,0,0,0,0,0,0,0,-1,1434,960,0,0
217,64,0,0,0,0,0,0,0,0,0,-1,1441,960,0,0
224,64,0,0,0,0,0,0,0,0,0,-1,1448,960,0,0
231,64,0,0,0,0,0,0,0,0,0,-1,1455,960,0,0
238,64,0,0,0,0,0,0,0,0,0,-1,1462,960,0,0
245,64,0,0,0,0,0,0,0,0,0,-1,1469,960,0,0
252,64,0,0,0,0,0,0,0,0,0,-1,1476,960,0,0
259,64,0,0,0,0,0,0,0,0,0,-1,1483,960,0,0
266,64,0,0,0,0,0,0,0,0,0,-1,1490,960,0,0
273,64,0,0,0,0,0,0,0,0,0,-1,1497,960,0,0
280,64,0,0,0,0,0,0,0,0,0,-1,1504,960,0,0
287,64,0,0,0,0,0,0,0,0,0,-1,1511,960,0,0
294,64,0,0,0,0,0,0,0,0,0,-1,1518,960,0,0
301,64,0,0,0,0,0,0,0,0,0,-1,1525,960,0,0
308,64,0,0,0,0,0,0,0,0,0,-1,1532,960,0,0
315,64,0,0,0,0,0,0,0,0,0,-1,1539,960,0,0
322,64,0,0,0,0,0,0,0,0,0,-1,1546,960,0,0
329,64,0,0,0,0,0,0,0,0,0,-1,1553,960,0,0
336,64,0,0,0,0,0,0,0,0,0,-1,1560,960,0,0
343,64,0,0,0,0,0,0,0,0,0,-1,1567,960,0,0
350,64,0,0,0,0,0,0,0,0,0,-1,1574,960,0,0
357,64,0,0,0,0,0,0,0,0,0,-1,1581,960,0,0
364,64,0,0,0,0,0,0,0,0,0,-1,1588,960,0,0
371,64,0,0,0,0,0,0,0,0,0,-1,1595,960,0,0
378,64,0,0,0,0,0,0,0,0,0,-1,1602,960,0,0
385,64,0,0,0,0,0,0,0,0,0,-1,1609,960,0,0
392,64,0,0,0,0,0,0,0,0,0,-1,1616,960,0,0
399,64,0,0,0,0,0,0,0,0,0,-1,1623,960,0,0
406,64,0,0,0,0,0,0,0,0,0,-1,1630,960,0,0
413,64,0,0,0,0,0,0,0,0,0,-1,1637,960,0,0
420,64,0,0,0,0,0,0,0,0,0,-1,1644,960,0,0
427,64,0,0,0,0,0,0,0,0,0,-1,1651,960,0,0
434,64,0,0,0,0,0,0,0,0,0,-1,1658,960,0,0
441,64,0,0,0,0,0,0,0,0,0,-1,1665,960,0,0
448,64,0,0,0,0,0,0,0,0,0,-1,1672,960,0,0
455,64,0,0,0,0,0,0,0,0,0,-1,1679,960,0,0
462,64,0,0,0,0,0,0,0,0,0,-1,1686,960,0,0
469,64,0,0,0,0,0,0,0,0,0,-1,1693,960,0,0
476,64,0,0,0,0,0,0,0,0,0,-1,1700,960,0,0
483,64,0,0,0,0,0,0,0,0,0,-1,1707,960,0,0
490,64,0,0,0,0,0,0,0,0,0,-1,1714,960,0,0
497,64,0,0,0,0,0,0,0,0,0,-1,1721,960,0,0
504,64,0,0,0,0,0,0,0,0,0,-1,1728,960,0,0
511,64,0,0,0,0,0,0,0,0,0,-1,1735,960,0,0
518,64,0,0,0,0,0,0,0,0,0,-1,1742,960,0,0
525,64,0,0,0,0,0,0,0,0,0,-1,1749,960,0,0
532,64,0,0,0,0,0,0,0,0,0,-1,1756,960,0,0
539,64,0,0,0,0,0,0,0,0,0,-1,1763,960,0,0
546,64,0,0,0,0,0,0,0,0,0,-1,1770,960,0,0
553,64,0,0,0,0,0,0,0,0,0,-1,1777,960,0,0
560,64,0,0,0,0,0,0,0,0,0,-1,1784,960,0,0
567,64,0,0,0,0,0,0,0,0,0,-1,1791,960,0,0
574,64,0,0,0,0,0,0,0,0,0,-1,1798,960,0,0
581,64,0,0,0,0,0,0,0,0,0,-1,1805,960,0,0
588,64,0,0,0,0,0,0,0,0,0,-1,1812,960,0,0
595,64,0,0,0,0,0,0,0,0,0,-1,1819,960,0,0
602,64,0,0,0,0,0,0,0,0,0,-1,1826,960,0,0
609,64,0,0,0,0,0,0,0,0,0,-1,1833,960,0,0
616,64,0,0,0,0,0,0,0,0,0,-1,1840,960,0,0
623,64,0,0,0,0,0,0,0,0,0,-1,1847,960,0,0
630,64,0,0,0,0,0,0,0,0,0,-1,1854,960,0,0
637,64,0,0,0,0,0,0,0,0,0,-1,1861,960,0,0
644,64,47.9894,2.91406,9.70167e-05,0.00230144,-0.00265676,0.00407556,-0.0016771,-0.982028,0.00341617,0.0432433,1868,960,47.9894,-2.91407
651,64,47.8219,2.92462,0.000104191,0.00180241,-0.00214283,0.00325823,-0.00135163,-0.974035,0.00273633,0.0398449,1875,960,47.8219,-2.92463
658,64,47.9056,2.78961,0.000162518,0.00149043,-0.00143553,0.00240811,-0.000755165,-1.00201,0.00190762,0.0359481,1882,960,47.9056,-2.7896
665,64,47.9092,2.69995,0.000159044,0.00135094,-0.000593648,0.00159617,-8.61803e-05,-1.17906,0.00109397,0.0423403,1889,960,47.9092,-2.69994
672,64,47.9097,2.68127,3.24171e-05,0.00117722,0.000245544,0.00122766,-1.80262e-05,1.36818,0.000824513,0.0464062,1896,960,47.9096,-2.6813
679,64,47.8982,2.72937,-4.42128e-05,0.000925249,0.000986934,0.00154006,-0.000659029,1.01367,0.00130317,0.0431165,1903,960,47.8982,-2.72939
686,64,47.8293,2.68365,4.08546e-05,0.000607684,0.00138456,0.00173754,-0.001089,0.886352,0.00164616,0.0360168,1910,960,47.8294,-2.68363
693,64,47.881,2.54108,2.79521e-05,0.000316191,0.00150498,0.00168393,-0.00133979,0.833134,0.00174951,0.0310304,1917,960,47.881,-2.5411
700,64,47.9479,2.64923,-0.000147058,0.000234768,0.00148609,0.00154216,-0.00145445,0.849281,0.00173034,0.026831,1924,960,47.9479,-2.64921
707,64,47.8798,3.02942,-0.000472207,0.000360726,0.0013845,0.00139004,-0.00150153,0.931496,0.00166986,0.0433034,1931,960,47.8798,-3.02942
714,64,47.7627,3.7066,0,0,0,0,0,0,0,-1,1938,960,47.7628,-3.70661
721,64,46.1616,4.75616,0,0,0,0,0,0,0,-1,1945,960,46.1616,-4.75616
728,64,46.0392,5.16058,-0.00170698,0.00189715,0.000673109,0.00201876,-0.00182859,1.39206,0.00222217,0.0204139,1952,960,46.0392,-5.16057
735,64,46.0299,5.53571,-0.00168798,0.00253907,0.000443494,0.00258509,-0.00173401,1.46738,0.00250972,0.0281198,1959,960,46.0299,-5.5357
742,64,46.1288,5.79504,-0.00187262,0.00346278,0.000261965,0.00347561,-0.00188545,1.52185,0.00314026,0.0248102,1966,960,46.1288,-5.79504
749,64,46.1019,6.08173,-0.00224181,0.00481126,0.000150002,0.00481445,-0.002245,1.54954,0.00416479,0.0161841,1973,960,46.1019,-6.08171
756,64,46.0723,6.37543,-0.00220726,0.00648828,0.000408836,0.00650746,-0.00222644,1.52392,0.00524055,0.0152495,1980,960,46.0723,-6.3754
763,64,46.049,6.67682,-0.00146793,0.00834151,0.00134383,0.00852227,-0.0016487,1.43708,0.00630337,0.0182822,1987,960,46.0489,-6.67683
770,64,45.8345,6.9101,-0.000111782,0.00997547,0.00288424,0.0107419,-0.000878234,1.31106,0.00747125,0.0188793,1994,960,45.8345,-6.91007
777,64,45.694,7.23352,0.00179383,0.0110438,0.00512605,0.013323,-0.0004853,1.15243,0.00904808,0.0340436,2001,960,45.694,-7.23354
784,64,45.928,7.60693,0.00526561,0.0110443,0.00878228,0.0174003,-0.00109043,0.944318,0.0119802,0.0424108,2008,960,45.9279,-7.60693
791,64,46.0569,8.04895,0,0,0,0,0,0,0,-1,2015,960,46.0568,-8.04893
798,64,43.7566,6.45062,0,0,0,0,0,0,0,-1,2022,960,43.7567,-6.45065
805,64,45.2212,5.37988,0,0,0,0,0,0,0,-1,2029,960,45.2211,-5.37991
812,64,0,0,0,0,0,0,0,0,0,-1,2036,960,0,0
-700,57,0,0,0,0,0,0,0,0,0,-1,524,967,0,0
-693,57,0,0,0,0,0,0,0,0,0,-1,531,967,0,0
-686,57,-37.5489,1.06354,0,0,0,0,0,0,0,-1,538,967,-37.5489,-1.06356
-679,57,-36.2272,1.23273,0.172253,0.00125497,0.0581322,0.190144,-0.0166357,0.29856,0.132656,0.0443422,545,967,-36.2272,-1.23272
-672,57,-34.8524,1.3139,0.136939,0.00200719,0.0481355,0.152351,-0.0134044,0.309858,0.106317,0.0473345,552,967,-34.8523,-1.31391
-665,57,-34.0851,1.2088,0.106413,0.00312077,0.0393205,0.119678,-0.010144,0.32536,0.0833727,0.0448646,559,967,-34.0851,-1.2088
-658,57,-32.9843,1.08038,0,0,0,0,0,0,0,-1,566,967,-32.9842,-1.08041
-651,57,-35.3382,4.93805,0,0,0,0,0,0,0,-1,573,967,-35.3382,-4.93805
-644,57,-35.0953,4.20001,0.0411052,0.0055645,0.0193208,0.0495852,-0.00291548,0.413588,0.0340702,0.0327053,580,967,-35.0953,-4.19999
-637,57,-35.0456,3.99176,0.0272973,0.00569798,0.0142681,0.034392,-0.00139678,0.461444,0.0234075,0.0178962,587,967,-35.0456,-3.99176
-630,57,-35.1276,3.7749,0.0148754,0.00518497,0.00942212,0.0206251,-0.000564738,0.547911,0.0139421,0.0135796,594,967,-35.1276,-3.77489
-623,57,-35.132,3.58368,0.00498123,0.00531982,0.0053328,0.010486,-0.000184957,0.801266,0.00705313,0.0129866,601,967,-35.132,-3.58368
-616,57,-35.1166,3.34357,-0.000802716,0.00466988,0.00233732,0.00553225,-0.00166509,1.21733,0.00435073,0.0145851,608,967,-35.1166,-3.34359
-609,57,-35.1318,3.09674,-0.00460164,0.0036371,-0.000203879,0.00364214,-0.00460669,-1.54607,0.0047733,0.0147131,615,967,-35.1318,-3.09677
-602,57,-35.1244,2.87012,-0.00560966,0.00287448,-0.00186838,0.00326771,-0.00600289,-1.36336,0.00542948,0.0108168,622,967,-35.1244,-2.87009
-595,57,-35.1062,2.61346,-0.00596363,0.00241998,-0.00318779,0.00349441,-0.00703806,-1.24571,0.00619459,0.0131093,629,967,-35.1062,-2.61347
-588,57,-35.0935,2.4422,-0.00616425,0.00185774,-0.00412317,0.00359902,-0.00790553,-1.1712,0.00679551,0.023086,636,967,-35.0935,-2.44219
-581,57,-35.3588,1.68524,-0.00603034,0.00127491,-0.00468723,0.00356466,-0.00832009,-1.11638,0.00704238,0.0342673,643,967,-35.3587,-1.68524
-574,57,-35.7294,0.952271,-0.00543771,0.000795022,-0.0049494,0.00352744,-0.00817012,-1.06636,0.00692863,0.0296744,650,967,-35.7294,-0.952275
-567,57,-35.7408,0.837036,-0.00477298,0.000657982,-0.00499034,0.00362382,-0.00773881,-1.03457,0.00670208,0.0318504,657,967,-35.7408,-0.837053
-560,57,-35.7678,0.864807,-0.0035974,0.000506179,-0.00469193,0.00357534,-0.00666656,-0.99152,0.00600226,0.0394076,664,967,-35.7678,-0.864801
-553,57,-35.6923,0.844788,-0.00168356,0.000138394,-0.00407091,0.003399,-0.00494418,-0.895474,0.0048444,0.0393226,671,967,-35.6923,-0.84476
-546,57,-35.4899,0.454346,0.0010544,-0.00069662,-0.00309681,0.00339708,-0.0030393,-0.647636,0.00371795,0.0422911,678,967,-35.4899,-0.454365
-539,57,-35.5067,0.243896,0.00470865,-0.00234764,-0.00181545,0.00514833,-0.00278732,-0.237614,0.00464875,0.0470891,685,967,-35.5067,-0.243911
-532,57,-35.6894,0.0132446,0,0,0,0,0,0,0,-1,692,967,-35.6894,-0.0132726
-525,57,-35.5565,0.842163,0,0,0,0,0,0,0,-1,699,967,-35.5564,-0.842146
-518,57,0,0,0,0,0,0,0,0,0,-1,706,967,0,0
-511,57,0,0,0,0,0,0,0,0,0,-1,713,967,0,0
-504,57,0,0,0,0,0,0,0,0,0,-1,720,967,0,0
-497,57,0,0,0,0,0,0,0,0,0,-1,727,967,0,0
-490,57,0,0,0,0,0,0,0,0,0,-1,734,967,0,0
-483,57,0,0,0,0,0,0,0,0,0,-1,741,967,0,0
-476,57,0,0,0,0,0,0,0,0,0,-1,748,967,0,0
-469,57,0,0,0,0,0,0,0,0,0,-1,755,967,0,0
-462,57,0,0,0,0,0,0,0,0,0,-1,762,967,0,0
-455,57,0,0,0,0,0,0,0,0,0,-1,769,967,0,0
-448,57,0,0,0,0,0,0,0,0,0,-1,776,967,0,0
-441,57,0,0,0,0,0,0,0,0,0,-1,783,967,0,0
-434,57,0,0,0,0,0,0,0,0,0,-1,790,967,0,0
-427,57,0,0,0,0,0,0,0,0,0,-1,797,967,0,0
-420,57,0,0,0,0,0,0,0,0,0,-1,804,967,0,0
-413,57,0,0,0,0,0,0,0,0,0,-1,811,967,0,0
-406,57,0,0,0,0,0,0,0,0,0,-1,818,967,0,0
-399,57,0,0,0,0,0,0,0,0,0,-1,825,967,0,0
-392,57,0,0,0,0,0,0,0,0,0,-1,832,967,0,0
-385,57,0,0,0,0,0,0,0,0,0,-1,839,967,0,0
-378,57,0,0,0,0,0,0,0,0,0,-1,846,967,0,0
-371,57,0,0,0,0,0,0,0,0,0,-1,853,967,0,0
-364,57,0,0,0,0,0,0,0,0,0,-1,860,967,0,0
-357,57,0,0,0,0,0,0,0,0,0,-1,867,967,0,0
-350,57,0,0,0,0,0,0,0,0,0,-1,874,967,0,0
-343,57,0,0,0,0,0,0,0,0,0,-1,881,967,0,0
-336,57,0,0,0,0,0,0,0,0,0,-1,888,967,0,0
-329,57,0,0,0,0,0,0,0,0,0,-1,895,967,0,0
-322,57,0,0,0,0,0,0,0,0,0,-1,902,967,0,0
-315,57,0,0,0,0,0,0,0,0,0,-1,909,967,0,0
-308,57,0,0,0,0,0,0,0,0,0,-1,916,967,0,0
-301,57,0,0,0,0,0,0,0,0,0,-1,923,967,0,0
-294,57,0,0,0,0,0,0,0,0,0,-1,930,967,0,0
-287,57,0,0,0,0,0,0,0,0,0,-1,937,967,0,0
-280,57,0,0,0,0,0,0,0,0,0,-1,944,967,0,0
-273,57,0,0,0,0,0,0,0,0,0,-1,951,967,0,0
-266,57,0,0,0,0,0,0,0,0,0,-1,958,967,0,0
-259,57,0,0,0,0,0,0,0,0,0,-1,965,967,0,0
-252,57,0,0,0,0,0,0,0,0,0,-1,972,967,0,0
-245,57,0,0,0,0,0,0,0,0,0,-1,979,967,0,0
-238,57,0,0,0,0,0,0,0,0,0,-1,986,967,0,0
-231,57,0,0,0,0,0,0,0,0,0,-1,993,967,0,0
-224,57,0,0,0,0,0,0,0,0,0,-1,1000,967,0,0
-217,57,0,0,0,0,0,0,0,0,0,-1,1007,967,0,0
-210,57,0,0,0,0,0,0,0,0,0,-1,1014,967,0,0
-203,57,0,0,0,0,0,0,0,0,0,-1,1021,967,0,0
-196,57,0,0,0,0,0,0,0,0,0,-1,1028,967,0,0
-189,57,0,0,0,0,0,0,0,0,0,-1,1035,967,0,0
-182,57,0,0,0,0,0,0,0,0,0,-1,1042,967,0,0
-175,57,0,0,0,0,0,0,0,0,0,-1,1049,967,0,0
-168,57,0,0,0,0,0,0,0,0,0,-1,1056,967,0,0
-161,57,0,0,0,0,0,0,0,0,0,-1,1063,967,0,0
-154,57,0,0,0,0,0,0,0,0,0,-1,1070,967,0,0
-147,57,0,0,0,0,0,0,0,0,0,-1,1077,967,0,0
-140,57,0,0,0,0,0,0,0,0,0,-1,1084,967,0,0
-133,57,0,0,0,0,0,0,0,0,0,-1,1091,967,0,0
-126,57,0,0,0,0,0,0,0,0,0,-1,1098,967,0,0
-119,57,0,0,0,0,0,0,0,0,0,-1,1105,967,0,0
-112,57,0,0,0,0,0,0,0,0,0,-1,1112,967,0,0
-105,57,0,0,0,0,0,0,0,0,0,-1,1119,967,0,0
-98,57,0,0,0,0,0,0,0,0,0,-1,1126,967,0,0
-91,57,0,0,0,0,0,0,0,0,0,-1,1133,967,0,0
-84,57,0,0,0,0,0,0,0,0,0,-1,1140,967,0,0
-77,57,0,0,0,0,0,0,0,0,0,-1,1147,967,0,0
-70,57,0,0,0,0,0,0,0,0,0,-1,1154,967,0,0
-63,57,0,0,0,0,0,0,0,0,0,-1,1161,967,0,0
-56,57,0,0,0,0,0,0,0,0,0,-1,1168,967,0,0
-49,57,0,0,0,0,0,0,0,0,0,-1,1175,967,0,0
-42,57,0,0,0,0,0,0,0,0,0,-1,1182,967,0,0
-35,57,0,0,0,0,0,0,0,0,0,-1,1189,967,0,0
-28,57,0,0,0,0,0,0,0,0,0,-1,1196,967,0,0
-21,57,0,0,0,0,0,0,0,0,0,-1,1203,967,0,0
-14,57,0,0,0,0,0,0,0,0,0,-1,1210,967,0,0
-7,57,0,0,0,0,0,0,0,0,0,-1,1217,967,0,0
0,57,0,0,0,0,0,0,0,0,0,-1,1224,967,0,0
7,57,0,0,0,0,0,0,0,0,0,-1,1231,967,0,0
14,57,0,0,0,0,0,0,0,0,0,-1,1238,967,0,0
21,57,0,0,0,0,0,0,0,0,0,-1,1245,967,0,0
28,57,0,0,0,0,0,0,0,0,0,-1,1252,967,0,0
35,57,0,0,0,0,0,0,0,0,0,-1,1259,967,0,0
42,57,0,0,0,0,0,0,0,0,0,-1,1266,967,0,0
49,57,0,0,0,0,0,0,0,0,0,-1,1273,967,0,0
56,57,0,0,0,0,0,0,0,0,0,-1,1280,967,0,0
63,57,0,0,0,0,0,0,0,0,0,-1,1287,967,0,0
70,57,0,0,0,0,0,0,0,0,0,-1,1294,967,0,0
77,57,0,0,0,0,0,0,0,0,0,-1,1301,967,0,0
84,57,0,0,0,0,0,0,0,0,0,-1,1308,967,0,0
91,57,0,0,0,0,0,0,0,0,0,-1,1315,967,0,0
98,57,0,0,0,0,0,0,0,0,0,-1,1322,967,0,0
105,57,0,0,0,0,0,0,0,0,0,-1,1329,967,0,0
112,57,0,0,0,0,0,0,0,0,0,-1,1336,967,0,0
119,57,0,0,0,0,0,0,0,0,0,-1,1343,967,0,0
126,57,0,0,0,0,0,0,0,0,0,-1,1350,967,0,0
133,57,0,0,0,0,0,0,0,0,0,-1,1357,967,0,0
140,57,0,0,0,0,0,0,0,0,0,-1,1364,967,0,0
147,57,0,0,0,0,0,0,0,0,0,-1,1371,967,0,0
154,57,0,0,0,0,0,0,0,0,0,-1,1378,967,0,0
161,57,0,0,0,0,0,0,0,0,0,-1,1385,967,0,0
168,57,0,0,0,0,0,0,0,0,0,-1,1392,967,0,0
175,57,0,0,0,0,0,0,0,0,0,-1,1399,967,0,0
182,57,0,0,0,0,0,0,0,0,0,-1,1406,967,0,0
189,57,0,0,0,0,0,0,0,0,0,-1,1413,967,0,0
196,57,0,0,0,0,0,0,0,0,0,-1,1420,967,0,0
203,57,0,0,0,0,0,0,0,0,0,-1,1427,967,0,0
210,57,0,0,0,0,0,0,0,0,0,-1,1434,967,0,0
217,57,0,0,0,0,0,0,0,0,0,-1,1441,967,0,0
224,57,0,0,0,0,0,0,0,0,0,-1,1448,967,0,0
231,57,0,0,0,0,0,0,0,0,0,-1,1455,967,0,0
238,57,0,0,0,0,0,0,0,0,0,-1,1462,967,0,0
245,57,0,0,0,0,0,0,0,0,0,-1,1469,967,0,0
252,57,0,0,0,0,0,0,0,0,0,-1,1476,967,0,0
259,57,0,0,0,0,0,0,0,0,0,-1,1483,967,0,0
266,57,0,0,0,0,0,0,0,0,0,-1,1490,967,0,0
273,57,0,0,0,0,0,0,0,0,0,-1,1497,967,0,0
280,57,0,0,0,0,0,0,0,0,0,-1,1504,967,0,0
287,57,0,0,0,0,0,0,0,0,0,-1,1511,967,0,0
294,57,0,0,0,0,0,0,0,0,0,-1,1518,967,0,0
301,57,0,0,0,0,0,0,0,0,0,-1,1525,967,0,0
308,57,0,0,0,0,0,0,0,0,0,-1,1532,967,0,0
315,57,0,0,0,0,0,0,0,0,0,-1,1539,967,0,0
322,57,0,0,0,0,0,0,0,0,0,-1,1546,967,0,0
329,57,0,0,0,0,0,0,0,0,0,-1,1553,967,0,0
336,57,0,0,0,0,0,0,0,0,0,-1,1560,967,0,0
343,57,0,0,0,0,0,0,0,0,0,-1,1567,967,0,0
350,57,0,0,0,0,0,0,0,0,0,-1,1574,967,0,0
357,57,0,0,0,0,0,0,0,0,0,-1,1581,967,0,0
364,57,0,0,0,0,0,0,0,0,0,-1,1588,967,0,0
371,57,0,0,0,0,0,0,0,0,0,-1,1595,967,0,0
378,57,0,0,0,0,0,0,0,0,0,-1,1602,967,0,0
385,57,0,0,0,0,0,0,0,0,0,-1,1609,967,0,0
392,57,0,0,0,0,0,0,0,0,0,-1,1616,967,0,0
399,57,0,0,0,0,0,0,0,0,0,-1,1623,967,0,0
406,57,0,0,0,0,0,0,0,0,0,-1,1630,967,0,0
413,57,0,0,0,0,0,0,0,0,0,-1,1637,967,0,0
420,57,0,0,0,0,0,0,0,0,0,-1,1644,967,0,0
427,57,0,0,0,0,0,0,0,0,0,-1,1651,967,0,0
434,57,0,0,0,0,0,0,0,0,0,-1,1658,967,0,0
441,57,0,0,0,0,0,0,0,0,0,-1,1665,967,0,0
448,57,0,0,0,0,0,0,0,0,0,-1,1672,967,0,0
455,57,0,0,0,0,0,0,0,0,0,-1,1679,967,0,0
462,57,0,0,0,0,0,0,0,0,0,-1,1686,967,0,0
469,57,0,0,0,0,0,0,0,0,0,-1,1693,967,0,0
476,57,0,0,0,0,0,0,0,0,0,-1,1700,967,0,0
483,57,0,0,0,0,0,0,0,0,0,-1,1707,967,0,0
490,57,0,0,0,0,0,0,0,0,0,-1,1714,967,0,0
497,57,0,0,0,0,0,0,0,0,0,-1,1721,967,0,0
504,57,0,0,0,0,0,0,0,0,0,-1,1728,967,0,0
511,57,0,0,0,0,0,0,0,0,0,-1,1735,967,0,0
518,57,0,0,0,0,0,0,0,0,0,-1,1742,967,0,0
525,57,0,0,0,0,0,0,0,0,0,-1,1749,967,0,0
532,57,0,0,0,0,0,0,0,0,0,-1,1756,967,0,0
539,57,0,0,0,0,0,0,0,0,0,-1,1763,967,0,0
546,57,0,0,0,0,0,0,0,0,0,-1,1770,967,0,0
553,57,0,0,0,0,0,0,0,0,0,-1,1777,967,0,0
560,57,0,0,0,0,0,0,0,0,0,-1,1784,967,0,0
567,57,0,0,0,0,0,0,0,0,0,-1,1791,967,0,0
574,57,0,0,0,0,0,0,0,0,0,-1,1798,967,0,0
581,57,0,0,0,0,0,0,0,0,0,-1,1805,967,0,0
588,57,0,0,0,0,0,0,0,0,0,-1,1812,967,0,0
595,57,0,0,0,0,0,0,0,0,0,-1,1819,967,0,0
602,57,0,0,0,0,0,0,0,0,0,-1,1826,967,0,0
609,57,0,0,0,0,0,0,0,0,0,-1,1833,967,0,0
616,57,0,0,0,0,0,0,0,0,0,-1,1840,967,0,0
623,57,0,0,0,0,0,0,0,0,0,-1,1847,967,0,0
630,57,0,0,0,0,0,0,0,0,0,-1,1854,967,0,0
637,57,0,0,0,0,0,0,0,0,0,-1,1861,967,0,0
644,57,47.8365,3.02045,0.000987696,0.00195508,-0.00292556,0.00443666,-0.00149388,-0.867324,0.00356174,0.043294,1868,967,47.8366,-3.02044
651,57,47.8728,2.9588,0.000776412,0.00147639,-0.00230422,0.00345705,-0.00120425,-0.860767,0.002794,0.034623,1875,967,47.8727,-2.95878
658,57,47.95,2.69165,0.000692115,0.00116444,-0.00154449,0.00249072,-0.000634166,-0.861264,0.00190734,0.0340819,1882,967,47.95,-2.69164
665,57,47.9862,2.55701,0.000574832,0.00105066,-0.000670132,0.00152386,0.000101635,-0.955971,0.000983778,0.0431343,1889,967,47.9863,-2.55701
672,57,48.0208,2.49725,0.000372665,0.00092709,0.000194483,0.000988507,0.000311248,1.26491,0.00058361,0.0458313,1896,967,48.0207,-2.49725
679,57,48.0031,2.69208,0.000252905,0.000736394,0.000996545,0.0015201,-0.000530798,0.904391,0.00122915,0.0417146,1903,967,48.003,-2.69205
686,57,47.8583,2.78027,0.000305155,0.000451914,0.00147864,0.001859,-0.00110193,0.810191,0.00172801,0.0375659,1910,967,47.8583,-2.78028
693,57,47.8402,2.71869,0.00026482,0.000177513,0.00166195,0.00188369,-0.00144136,0.772268,0.00192538,0.0305901,1917,967,47.8402,-2.71867
700,57,47.908,2.74121,5.53901e-05,0.000140606,0.00166603,0.00176457,-0.00156858,0.798183,0.0019255,0.0233141,1924,967,47.9079,-2.74124
707,57,47.9139,2.98804,-0.000285848,0.000299012,0.00158216,0.00161554,-0.00160238,0.876782,0.00185787,0.0458419,1931,967,47.9139,-2.98805
714,57,47.8848,3.33862,0,0,0,0,0,0,0,-1,1938,967,47.8848,-3.33863
721,57,46.4874,4.92273,0,0,0,0,0,0,0,-1,1945,967,46.4874,-4.92272
728,57,46.3605,5.27069,-0.00171507,0.00203439,0.000912915,0.00224485,-0.00192554,1.34422,0.00241013,0.0233692,1952,967,46.3604,-5.27067
735,57,46.4155,5.58221,-0.00183494,0.0027241,0.000687352,0.00282547,-0.00193632,1.42436,0.00276515,0.028163,1959,967,46.4155,-5.58222
742,57,46.4575,5.78375,-0.00220395,0.00371287,0.00052863,0.00375973,-0.00225081,1.48239,0.00350645,0.0206713,1966,967,46.4576,-5.78375
749,57,46.4049,6.07764,-0.00282155,0.00512402,0.000389232,0.00514304,-0.00284057,1.52196,0.0046728,0.014975,1973,967,46.4049,-6.07766
756,57,46.3552,6.33728,-0.00319008,0.00689229,0.000552627,0.00692249,-0.00322028,1.5162,0.00598455,0.0116404,1980,967,46.3553,-6.33727
763,57,46.2983,6.59558,-0.00300217,0.00891849,0.00137185,0.00907433,-0.00315801,1.45768,0.00733252,0.0117795,1987,967,46.2984,-6.59556
770,57,46.2148,6.84467,-0.00230482,0.0108155,0.00284332,0.0114052,-0.00289449,1.36631,0.00872973,0.0111997,1994,967,46.2149,-6.84465
777,57,46.1708,7.1698,-0.00123047,0.0121991,0.00502671,0.0138722,-0.00290354,1.24949,0.0103526,0.025681,2001,967,46.1708,-7.16983
784,57,46.2297,7.63379,0.00113924,0.0126442,0.00874966,0.017363,-0.00357954,1.0762,0.0129347,0.0446528,2008,967,46.2297,-7.63377
791,57,46.2805,8.36945,0,0,0,0,0,0,0,-1,2015,967,46.2805,-8.36944
798,57,46.6653,9.23236,0,0,0,0,0,0,0,-1,2022,967,46.6652,-9.23236
805,57,44.3279,6.84015,0,0,0,0,0,0,0,-1,2029,967,44.328,-6.84015
812,57,0,0,0,0,0,0,0,0,0,-1,2036,967,0,0
-700,50,0,0,0,0,0,0,0,0,0,-1,524,974,0,0
-693,50,-34.7252,5.94427,0,0,0,0,0,0,0,-1,531,974,-34.7252,-5.94427
-686,50,-35.6592,2.51874,0,0,0,0,0,0,0,-1,538,974,-35.6592,-2.51874
-679,50,-36.2887,1.7301,0.151752,-0.00249709,0.0515825,0.167412,-0.018157,0.294747,0.118126,0.0456015,545,974,-36.2887,-1.73009
-672,50,-35.2009,1.57141,0.122063,-0.000847134,0.0429117,0.135563,-0.0143463,0.304779,0.0955169,0.0448702,552,974,-35.201,-1.57141
-665,50,-34.2968,1.36194,0.0958824,0.00099981,0.0352407,0.107539,-0.010657,0.319448,0.0754963,0.0482889,559,974,-34.2968,-1.36194
-658,50,-33.308,1.34509,0,0,0,0,0,0,0,-1,566,974,-33.308,-1.34511
-651,50,-34.9507,4.29816,0,0,0,0,0,0,0,-1,573,974,-34.9507,-4.29816
-644,50,-35.3183,3.95862,0,0,0,0,0,0,0,-1,580,974,-35.3183,-3.95859
-637,50,-35.3206,3.85004,0.0256189,0.00522666,0.012864,0.0318375,-0.00099193,0.450289,0.0215632,0.0185548,587,974,-35.3206,-3.85004
-630,50,-35.38,3.70844,0.0143932,0.00497661,0.00828147,0.0192112,0.000158577,0.526918,0.0127549,0.0116531,594,974,-35.38,-3.70844
-623,50,-35.3854,3.55396,0.00540479,0.00528205,0.00438145,0.0097253,0.00096154,0.778395,0.00618797,0.0121052,601,974,-35.3854,-3.55397
-616,50,-35.3943,3.35474,-2.08639e-05,0.00485266,0.00143897,0.00524582,-0.000414023,1.30408,0.00364307,0.0121431,608,974,-35.3943,-3.35471
-609,50,-35.4128,3.09503,-0.00360115,0.00398418,-0.00110947,0.00414313,-0.0037601,-1.4285,0.00456472,0.010767,615,974,-35.4128,-3.09502
-602,50,-35.4142,2.87555,-0.00452078,0.00329977,-0.00290556,0.0042611,-0.00548211,-1.25127,0.00563995,0.010649,622,974,-35.4142,-2.87553
-595,50,-35.3866,2.65271,-0.00464765,0.00272199,-0.00423071,0.00464759,-0.00657325,-1.14367,0.00651008,0.0122458,629,974,-35.3866,-2.6527
-588,50,-35.4271,2.29547,-0.00463684,0.00203984,-0.00518733,0.0048702,-0.0074672,-1.07131,0.00717541,0.01845,636,974,-35.4271,-2.29547
-581,50,-35.6445,1.43732,-0.00437726,0.00143844,-0.00576684,0.00498908,-0.00792789,-1.01891,0.00752168,0.023888,643,974,-35.6445,-1.43734
-574,50,-35.7483,0.839478,-0.00380394,0.00088028,-0.00594784,0.00493053,-0.00785419,-0.972962,0.00744532,0.0262572,650,974,-35.7483,-0.839478
-567,50,-35.7296,0.71106,-0.00321078,0.000669145,-0.00584693,0.00488954,-0.00743117,-0.945579,0.00716364,0.037387,657,974,-35.7296,-0.711076
-560,50,-35.7485,0.637146,-0.00214293,0.000396753,-0.00531435,0.00459087,-0.00633704,-0.902672,0.00633602,0.0420389,664,974,-35.7484,-0.637133
-553,50,-35.7372,0.760071,-0.000417518,-0.000155982,-0.00436485,0.00408006,-0.00465356,-0.800373,0.00504598,0.0404778,671,974,-35.7372,-0.760073
-546,50,-35.6047,0.703552,0.00205997,-0.00128293,-0.00296402,0.00379133,-0.00301429,-0.528667,0.00393776,0.0408103,678,974,-35.6046,-0.703554
-539,50,-35.6413,0.552795,0.0053735,-0.00334879,-0.00119176,0.00553341,-0.00350869,-0.133377,0.0052639,0.0448916,685,974,-35.6413,-0.552806
-532,50,-35.7219,0.643982,0.00945605,-0.00648067,0.000247625,0.00945989,-0.00648452,0.015533,0.00925878,0.0448851,692,974,-35.7218,-0.643963
-525,50,-35.5276,0.619263,0.0121684,-0.0101598,0.000948431,0.0122086,-0.0102,0.0423752,0.0129549,0.0424064,699,974,-35.5277,-0.619234
-518,50,0,0,0,0,0,0,0,0,0,-1,706,974,0,0
-511,50,0,0,0,0,0,0,0,0,0,-1,713,974,0,0
-504,50,0,0,0,0,0,0,0,0,0,-1,720,974,0,0
-497,50,0,0,0,0,0,0,0,0,0,-1,727,974,0,0
-490,50,0,0,0,0,0,0,0,0,0,-1,734,974,0,0
-483,50,0,0,0,0,0,0,0,0,0,-1,741,974,0,0
-476,50,0,0,0,0,0,0,0,0,0,-1,748,974,0,0
-469,50,0,0,0,0,0,0,0,0,0,-1,755,974,0,0
-462,50,0,0,0,0,0,0,0,0,0,-1,762,974,0,0
-455,50,0,0,0,0,0,0,0,0,0,-1,769,974,0,0
-448,50,0,0,0,0,0,0,0,0,0,-1,776,974,0,0
-441,50,0,0,0,0,0,0,0,0,0,-1,783,974,0,0
-434,50,0,0,0,0,0,0,0,0,0,-1,790,974,0,0
-427,50,0,0,0,0,0,0,0,0,0,-1,797,974,0,0
-420,50,0,0,0,0,0,0,0,0,0,-1,804,974,0,0
-413,50,0,0,0,0,0,0,0,0,0,-1,811,974,0,0
-406,50,0,0,0,0,0,0,0,0,0,-1,818,974,0,0
-399,50,0,0,0,0,0,0,0,0,0,-1,825,974,0,0
-392,50,0,0,0,0,0,0,0,0,0,-1,832,974,0,0
-385,50,0,0,0,0,0,0,0,0,0,-1,839,974,0,0
-378,50,0,0,0,0,0,0,0,0,0,-1,846,974,0,0
-371,50,0,0,0,0,0,0,0,0,0,-1,853,974,0,0
-364,50,0,0,0,0,0,0,0,0,0,-1,860,974,0,0
-357,50,0,0,0,0,0,0,0,0,0,-1,867,974,0,0
-350,50,0,0,0,0,0,0,0,0,0,-1,874,974,0,0
-343,50,0,0,0,0,0,0,0,0,0,-1,881,974,0,0
-336,50,0,0,0,0,0,0,0,0,0,-1,888,974,0,0
-329,50,0,0,0,0,0,0,0,0,0,-1,895,974,0,0
-322,50,0,0,0,0,0,0,0,0,0,-1,902,974,0,0
-315,50,0,0,0,0,0,0,0,0,0,-1,909,974,0,0
-308,50,0,0,0,0,0,0,0,0,0,-1,916,974,0,0
-301,50,0,0,0,0,0,0,0,0,0,-1,923,974,0,0
-294,50,0,0,0,0,0,0,0,0,0,-1,930,974,0,0
-287,50,0,0,0,0,0,0,0,0,0,-1,937,974,0,0
-280,50,0,0,0,0,0,0,0,0,0,-1,944,974,0,0
-273,50,0,0,0,0,0,0,0,0,0,-1,951,974,0,0
-266,50,0,0,0,0,0,0,0,0,0,-1,958,974,0,0
-259,50,0,0,0,0,0,0,0,0,0,-1,965,974,0,0
-252,50,0,0,0,0,0,0,0,0,0,-1,972,974,0,0
-245,50,0,0,0,0,0,0,0,0,0,-1,979,974,0,0
-238,50,0,0,0,0,0,0,0,0,0,-1,986,974,0,0
-231,50,0,0,0,0,0,0,0,0,0,-1,993,974,0,0
-224,50,0,0,0,0,0,0,0,0,0,-1,1000,974,0,0
-217,50,0,0,0,0,0,0,0,0,0,-1,1007,974,0,0
-210,50,0,0,0,0,0,0,0,0,0,-1,1014,974,0,0
-203,50,0,0,0,0,0,0,0,0,0,-1,1021,974,0,0
-196,50,0,0,0,0,0,0,0,0,0,-1,1028,974,0,0
-189,50,0,0,0,0,0,0,0,0,0,-1,1035,974,0,0
-182,50,0,0,0,0,0,0,0,0,0,-1,1042,974,0,0
-175,50,0,0,0,0,0,0,0,0,0,-1,1049,974,0,0
-168,50,0,0,0,0,0,0,0,0,0,-1,1056,974,0,0
-161,50,0,0,0,0,0,0,0,0,0,-1,1063,974,0,0
-154,50,0,0,0,0,0,0,0,0,0,-1,1070,974,0,0
-147,50,0,0,0,0,0,0,0,0,0,-1,1077,974,0,0
-140,50,0,0,0,0,0,0,0,0,0,-1,1084,974,0,0
-133,50,0,0,0,0,0,0,0,0,0,-1,1091,974,0,0
-126,50,0,0,0,0,0,0,0,0,0,-1,1098,974,0,0
-119,50,0,0,0,0,0,0,0,0,0,-1,1105,974,0,0
-112,50,0,0,0,0,0,0,0,0,0,-1,1112,974,0,0
-105,50,0,0,0,0,0,0,0,0,0,-1,1119,974,0,0
-98,50,0,0,0,0,0,0,0,0,0,-1,1126,974,0,0
-91,50,0,0,0,0,0,0,0,0,0,-1,1133,974,0,0
-84,50,0,0,0,0,0,0,0,0,0,-1,1140,974,0,0
-77,50,0,0,0,0,0,0,0,0,0,-1,1147,974,0,0
-70,50,0,0,0,0,0,0,0,0,0,-1,1154,974,0,0
-63,50,0,0,0,0,0,0,0,0,0,-1,1161,974,0,0
-56,50,0,0,0,0,0,0,0,0,0,-1,1168,974,0,0
-49,50,0,0,0,0,0,0,0,0,0,-1,1175,974,0,0
-42,50,0,0,0,0,0,0,0,0,0,-1,1182,974,0,0
-35,50,0,0,0,0,0,0,0,0,0,-1,1189,974,0,0
-28,50,0,0,0,0,0,0,0,0,0,-1,1196,974,0,0
-21,50,0,0,0,0,0,0,0,0,0,-1,1203,974,0,0
-14,50,0,0,0,0,0,0,0,0,0,-1,1210,974,0,0
-7,50,0,0,0,0,0,0,0,0,0,-1,1217,974,0,0
0,50,0,0,0,0,0,0,0,0,0,-1,1224,974,0,0
7,50,0,0,0,0,0,0,0,0,0,-1,1231,974,0,0
14,50,0,0,0,0,0,0,0,0,0,-1,1238,974,0,0
21,50,0,0,0,0,0,0,0,0,0,-1,1245,974,0,0
28,50,0,0,0,0,0,0,0,0,0,-1,1252,974,0,0
35,50,0,0,0,0,0,0,0,0,0,-1,1259,974,0,0
42,50,0,0,0,0,0,0,0,0,0,-1,1266,974,0,0
49,50,0,0,0,0,0,0,0,0,0,-1,1273,974,0,0
56,50,0,0,0,0,0,0,0,0,0,-1,1280,974,0,0
63,50,0,0,0,0,0,0,0,0,0,-1,1287,974,0,0
70,50,0,0,0,0,0,0,0,0,0,-1,1294,974,0,0
77,50,0,0,0,0,0,0,0,0,0,-1,1301,974,0,0
84,50,0,0,0,0,0,0,0,0,0,-1,1308,974,0,0
91,50,0,0,0,0,0,0,0,0,0,-1,1315,974,0,0
98,50,0,0,0,0,0,0,0,0,0,-1,1322,974,0,0
105,50,0,0,0,0,0,0,0,0,0,-1,1329,974,0,0
112,50,0,0,0,0,0,0,0,0,0,-1,1336,974,0,0
119,50,0,0,0,0,0,0,0,0,0,-1,1343,974,0,0
126,50,0,0,0,0,0,0,0,0,0,-1,1350,974,0,0
133,50,0,0,0,0,0,0,0,0,0,-1,1357,974,0,0
140,50,0,0,0,0,0,0,0,0,0,-1,1364,974,0,0
147,50,0,0,0,0,0,0,0,0,0,-1,1371,974,0,0
154,50,0,0,0,0,0,0,0,0,0,-1,1378,974,0,0
161,50,0,0,0,0,0,0,0,0,0,-1,1385,974,0,0
168,50,0,0,0,0,0,0,0,0,0,-1,1392,974,0,0
175,50,0,0,0,0,0,0,0,0,0,-1,1399,974,0,0
182,50,0,0,0,0,0,0,0,0,0,-1,1406,974,0,0
189,50,0,0,0,0,0,0,0,0,0,-1,1413,974,0,0
196,50,0,0,0,0,0,0,0,0,0,-1,1420,974,0,0
203,50,0,0,0,0,0,0,0,0,0,-1,1427,974,0,0
210,50,0,0,0,0,0,0,0,0,0,-1,1434,974,0,0
217,50,0,0,0,0,0,0,0,0,0,-1,1441,974,0,0
224,50,0,0,0,0,0,0,0,0,0,-1,1448,974,0,0
231,50,0,0,0,0,0,0,0,0,0,-1,1455,974,0,0
238,50,0,0,0,0,0,0,0,0,0,-1,1462,974,0,0
245,50,0,0,0,0,0,0,0,0,0,-1,1469,974,0,0
252,50,0,0,0,0,0,0,0,0,0,-1,1476,974,0,0
259,50,0,0,0,0,0,0,0,0,0,-1,1483,974,0,0
266,50,0,0,0,0,0,0,0,0,0,-1,1490,974,0,0
273,50,0,0,0,0,0,0,0,0,0,-1,1497,974,0,0
280,50,0,0,0,0,0,0,0,0,0,-1,1504,974,0,0
287,50,0,0,0,0,0,0,0,0,0,-1,1511,974,0,0
294,50,0,0,0,0,0,0,0,0,0,-1,1518,974,0,0
301,50,0,0,0,0,0,0,0,0,0,-1,1525,974,0,0
308,50,0,0,0,0,0,0,0,0,0,-1,1532,974,0,0
315,50,0,0,0,0,0,0,0,0,0,-1,1539,974,0,0
322,50,0,0,0,0,0,0,0,0,0,-1,1546,974,0,0
329,50,0,0,0,0,0,0,0,0,0,-1,1553,974,0,0
336,50,0,0,0,0,0,0,0,0,0,-1,1560,974,0,0
343,50,0,0,0,0,0,0,0,0,0,-1,1567,974,0,0
350,50,0,0,0,0,0,0,0,0,0,-1,1574,974,0,0
357,50,0,0,0,0,0,0,0,0,0,-1,1581,974,0,0
364,50,0,0,0,0,0,0,0,0,0,-1,1588,974,0,0
371,50,0,0,0,0,0,0,0,0,0,-1,1595,974,0,0
378,50,0,0,0,0,0,0,0,0,0,-1,1602,974,0,0
385,50,0,0,0,0,0,0,0,0,0,-1,1609,974,0,0
392,50,0,0,0,0,0,0,0,0,0,-1,1616,974,0,0
399,50,0,0,0,0,0,0,0,0,0,-1,1623,974,0,0
406,50,0,0,0,0,0,0,0,0,0,-1,1630,974,0,0
413,50,0,0,0,0,0,0,0,0,0,-1,1637,974,0,0
420,50,0,0,0,0,0,0,0,0,0,-1,1644,974,0,0
427,50,0,0,0,0,0,0,0,0,0,-1,1651,974,0,0
434,50,0,0,0,0,0,0,0,0,0,-1,1658,974,0,0
441,50,0,0,0,0,0,0,0,0,0,-1,1665,974,0,0
448,50,0,0,0,0,0,0,0,0,0,-1,1672,974,0,0
455,50,0,0,0,0,0,0,0,0,0,-1,1679,974,0,0
462,50,0,0,0,0,0,0,0,0,0,-1,1686,974,0,0
469,50,0,0,0,0,0,0,0,0,0,-1,1693,974,0,0
476,50,0,0,0,0,0,0,0,0,0,-1,1700,974,0,0
483,50,0,0,0,0,0,0,0,0,0,-1,1707,974,0,0
490,50,0,0,0,0,0,0,0,0,0,-1,1714,974,0,0
497,50,0,0,0,0,0,0,0,0,0,-1,1721,974,0,0
504,50,0,0,0,0,0,0,0,0,0,-1,1728,974,0,0
511,50,0,0,0,0,0,0,0,0,0,-1,1735,974,0,0
518,50,0,0,0,0,0,0,0,0,0,-1,1742,974,0,0
525,50,0,0,0,0,0,0,0,0,0,-1,1749,974,0,0
532,50,0,0,0,0,0,0,0,0,0,-1,1756,974,0,0
539,50,0,0,0,0,0,0,0,0,0,-1,1763,974,0,0
546,50,0,0,0,0,0,0,0,0,0,-1,1770,974,0,0
553,50,0,0,0,0,0,0,0,0,0,-1,1777,974,0,0
560,50,0,0,0,0,0,0,0,0,0,-1,1784,974,0,0
567,50,0,0,0,0,0,0,0,0,0,-1,1791,974,0,0
574,50,0,0,0,0,0,0,0,0,0,-1,1798,974,0,0
581,50,0,0,0,0,0,0,0,0,0,-1,1805,974,0,0
588,50,0,0,0,0,0,0,0,0,0,-1,1812,974,0,0
595,50,0,0,0,0,0,0,0,0,0,-1,1819,974,0,0
602,50,0,0,0,0,0,0,0,0,0,-1,1826,974,0,0
609,50,0,0,0,0,0,0,0,0,0,-1,1833,974,0,0
616,50,0,0,0,0,0,0,0,0,0,-1,1840,974,0,0
623,50,0,0,0,0,0,0,0,0,0,-1,1847,974,0,0
630,50,0,0,0,0,0,0,0,0,0,-1,1854,974,0,0
637,50,0,0,0,0,0,0,0,0,0,-1,1861,974,0,0
644,50,47.7034,3.07007,0.00212727,0.00200382,-0.00311482,0.00518098,-0.00104989,-0.775491,0.00385194,0.0394159,1868,974,47.7033,-3.07008
651,50,47.7366,2.86078,0.00159057,0.00152126,-0.00243223,0.00398839,-0.000876563,-0.778274,0.00299419,0.0323469,1875,974,47.7366,-2.86079
658,50,47.7725,2.69147,0.0013028,0.00116776,-0.00165389,0.00289055,-0.000419991,-0.764998,0.00208121,0.0369225,1882,974,47.7725,-2.69148
665,50,47.9097,2.53992,0.00103606,0.00102648,-0.000775142,0.00180643,0.000256113,-0.782311,0.00112864,0.0404334,1889,974,47.9097,-2.53991
672,50,47.948,2.50952,0.000734146,0.000913315,9.57303e-05,0.00095484,0.000692621,1.16152,0.00056964,0.0414183,1896,974,47.948,-2.50953
679,50,47.901,2.69434,0.000561114,0.000755418,0.000949829,0.00161305,-0.000296519,0.836363,0.00118662,0.0410299,1903,974,47.901,-2.69434
686,50,47.8346,2.77399,0.000568229,0.000487764,0.00151513,0.00204366,-0.000987663,0.772124,0.00178518,0.0413679,1910,974,47.8347,-2.77397
693,50,47.7646,2.79565,0.000502403,0.000222573,0.00177084,0.00213885,-0.00141387,0.745975,0.00206535,0.0372786,1917,974,47.7646,-2.79567
700,50,47.8486,2.83051,0.000275383,0.000199424,0.00181508,0.00205288,-0.00157808,0.774937,0.0021023,0.0201853,1924,974,47.8487,-2.8305
707,50,47.9171,2.89783,-7.92692e-05,0.000356604,0.00176588,0.00191794,-0.00164061,0.846795,0.00205661,0.0330959,1931,974,47.9172,-2.89785
714,50,47.902,3.01941,0,0,0,0,0,0,0,-1,1938,974,47.9019,-3.01938
721,50,46.7003,4.91473,0,0,0,0,0,0,0,-1,1945,974,46.7003,-4.91476
728,50,46.6962,5.27527,-0.00169778,0.0022332,0.00120031,0.00257073,-0.00203531,1.29667,0.00266528,0.0225987,1952,974,46.6961,-5.27528
735,50,46.7433,5.56152,-0.00197852,0.00295883,0.000970486,0.00314274,-0.00216243,1.38352,0.00308032,0.0203077,1959,974,46.7433,-5.56154
742,50,46.762,5.82117,-0.00256203,0.00393958,0.00082672,0.00404306,-0.0026655,1.44628,0.00390031,0.0156259,1966,974,46.762,-5.82114
749,50,46.7126,6.04297,-0.00344358,0.00535625,0.000664895,0.0054062,-0.00349353,1.49581,0.00517767,0.0168403,1973,974,46.7126,-6.04295
756,50,46.6565,6.27222,-0.00421843,0.00713053,0.000718745,0.00717587,-0.00426377,1.5078,0.00667563,0.0135468,1980,974,46.6565,-6.27221
763,50,46.589,6.5213,-0.00462154,0.00921229,0.00135255,0.00934329,-0.00475254,1.47424,0.00828085,0.0126447,1987,974,46.5889,-6.52132
770,50,46.5311,6.74542,-0.00464343,0.0112346,0.00264475,0.0116635,-0.00507237,1.41001,0.00990912,0.0120428,1994,974,46.5312,-6.7454
777,50,46.5115,7.04437,-0.00442472,0.0127558,0.00460331,0.0139114,-0.00558038,1.32483,0.0115912,0.0242235,2001,974,46.5115,-7.04435
784,50,46.4485,7.47095,-0.003214,0.0134016,0.00813103,0.0167185,-0.00653088,1.18347,0.0138459,0.0414283,2008,974,46.4484,-7.47095
791,50,46.3877,7.87512,0,0,0,0,0,0,0,-1,2015,974,46.3877,-7.8751
798,50,44.8894,6.81195,0,0,0,0,0,0,0,-1,2022,974,44.8894,-6.81197
805,50,45.0342,6.94916,0,0,0,0,0,0,0,-1,2029,974,45.0343,-6.94916
812,50,0,0,0,0,0,0,0,0,0,-1,2036,974,0,0
-700,43,0,0,0,0,0,0,0,0,0,-1,524,981,0,0
-693,43,-36.4328,1.91486,0,0,0,0,0,0,0,-1,531,981,-36.4328,-1.91488
-686,43,-36.0098,2.13812,0,0,0,0,0,0,0,-1,538,981,-36.0098,-2.13813
-679,43,-35.475,1.95154,0,0,0,0,0,0,0,-1,545,981,-35.475,-1.95151
-672,43,-35.2971,1.70496,0.104551,-0.00498964,0.0375472,0.116186,-0.016624,0.300476,0.0835516,0.0460825,552,981,-35.2971,-1.70493
-665,43,-34.8667,1.65955,0.0830479,-0.00228013,0.0309926,0.0931168,-0.012349,0.314124,0.0665771,0.0483962,559,981,-34.8667,-1.65956
-658,43,-34.7769,1.62463,0,0,0,0,0,0,0,-1,566,981,-34.7769,-1.62465
-651,43,-35.1287,4.35522,0,0,0,0,0,0,0,-1,573,981,-35.1287,-4.35522
-644,43,-35.4755,3.9201,0.033861,0.00330588,0.0156223,0.0404344,-0.00326744,0.398277,0.0281088,0.0267278,580,981,-35.4755,-3.92009
-637,43,-35.5877,3.7724,0.0230386,0.00422401,0.0112666,0.0283089,-0.00104632,0.437545,0.0192309,0.0197219,587,981,-35.5877,-3.77241
-630,43,-35.6144,3.62701,0.0133126,0.00438111,0.00697713,0.0171307,0.000562929,0.500723,0.0112376,0.0157074,594,981,-35.6145,-3.62701
-623,43,-35.615,3.47302,0.00549778,0.00495157,0.00330163,0.00853757,0.00191177,0.744133,0.00517357,0.012697,601,981,-35.615,-3.47303
-616,43,-35.6188,3.27484,0.000607209,0.00481938,0.000459093,0.00486884,0.000557753,1.46348,0.00307687,0.0116879,608,981,-35.6188,-3.27482
-609,43,-35.6407,3.07202,-0.00264181,0.0041738,-0.00206153,0.00474883,-0.00321685,-1.29877,0.00462725,0.013168,615,981,-35.6407,-3.07202
-602,43,-35.6242,2.89722,-0.00342433,0.00358928,-0.00396883,0.00537863,-0.00521368,-1.14723,0.00611572,0.0153878,622,981,-35.6242,-2.89721
-595,43,-35.6512,2.71692,-0.00326998,0.00296901,-0.00525029,0.00595663,-0.0062576,-1.05345,0.0070526,0.0158736,629,981,-35.6512,-2.71689
-588,43,-35.6496,2.21661,-0.00302494,0.00223478,-0.00619121,0.00633153,-0.00712168,-0.986237,0.00777168,0.0229542,636,981,-35.6496,-2.2166
-581,43,-35.7644,0.99585,0,0,0,0,0,0,0,-1,643,981,-35.7644,-0.995832
-574,43,-35.728,0.877686,-0.0020974,0.00108281,-0.00676313,0.00644025,-0.00745484,-0.900858,0.00802946,0.0275313,650,981,-35.728,-0.877678
-567,43,-35.6865,0.801941,-0.00161322,0.000854607,-0.00645745,0.00619498,-0.00695359,-0.879802,0.00759554,0.0372448,657,981,-35.6865,-0.801939
-560,43,-35.6295,0.77887,-0.000737495,0.000549266,-0.00562587,0.00556842,-0.00575665,-0.842331,0.00653883,0.0406432,664,981,-35.6294,-0.778891
-553,43,-35.639,0.698303,0.000664055,-5.99426e-05,-0.00426993,0.00458731,-0.00398319,-0.74311,0.00495228,0.0413493,671,981,-35.639,-0.698333
-546,43,-35.7855,1.12219,0.00268764,-0.00128928,-0.00235206,0.00377913,-0.00238078,-0.434486,0.00358684,0.0441883,678,981,-35.7855,-1.12222
-539,43,-35.6246,0.805481,0.00539614,-0.00346698,1.11489e-06,0.00539614,-0.00346698,0.00012579,0.00515737,0.0485942,685,981,-35.6247,-0.805451
-532,43,-35.7277,0.616028,0.00882967,-0.00661034,0.00184924,0.00904806,-0.00682873,0.117554,0.00919627,0.0481498,692,981,-35.7277,-0.616051
-525,43,-35.5883,0.657166,0.0110483,-0.0101004,0.00288735,0.0114354,-0.0104875,0.133277,0.0126612,0.0434469,699,981,-35.5883,-0.657137
-518,43,0,0,0,0,0,0,0,0,0,-1,706,981,0,0
-511,43,0,0,0,0,0,0,0,0,0,-1,713,981,0,0
-504,43,0,0,0,0,0,0,0,0,0,-1,720,981,0,0
-497,43,0,0,0,0,0,0,0,0,0,-1,727,981,0,0
-490,43,0,0,0,0,0,0,0,0,0,-1,734,981,0,0
-483,43,0,0,0,0,0,0,0,0,0,-1,741,981,0,0
-476,43,0,0,0,0,0,0,0,0,0,-1,748,981,0,0
-469,43,0,0,0,0,0,0,0,0,0,-1,755,981,0,0
-462,43,0,0,0,0,0,0,0,0,0,-1,762,981,0,0
-455,43,0,0,0,0,0,0,0,0,0,-1,769,981,0,0
-448,43,0,0,0,0,0,0,0,0,0,-1,776,981,0,0
-441,43,0,0,0,0,0,0,0,0,0,-1,783,981,0,0
-434,43,0,0,0,0,0,0,0,0,0,-1,790,981,0,0
-427,43,0,0,0,0,0,0,0,0,0,-1,797,981,0,0
-420,43,0,0,0,0,0,0,0,0,0,-1,804,981,0,0
-413,43,0,0,0,0,0,0,0,0,0,-1,811,981,0,0
-406,43,0,0,0,0,0,0,0,0,0,-1,818,981,0,0
-399,43,0,0,0,0,0,0,0,0,0,-1,825,981,0,0
-392,43,0,0,0,0,0,0,0,0,0,-1,832,981,0,0
-385,43,0,0,0,0,0,0,0,0,0,-1,839,981,0,0
-378,43,0,0,0,0,0,0,0,0,0,-1,846,981,0,0
-371,43,0,0,0,0,0,0,0,0,0,-1,853,981,0,0
-364,43,0,0,0,0,0,0,0,0,0,-1,860,981,0,0
-357,43,0,0,0,0,0,0,0,0,0,-1,867,981,0,0
-350,43,0,0,0,0,0,0,0,0,0,-1,874,981,0,0
-343,43,0,0,0,0,0,0,0,0,0,-1,881,981,0,0
-336,43,0,0,0,0,0,0,0,0,0,-1,888,981,0,0
-329,43,0,0,0,0,0,0,0,0,0,-1,895,981,0,0
-322,43,0,0,0,0,0,0,0,0,0,-1,902,981,0,0
-315,43,0,0,0,0,0,0,0,0,0,-1,909,981,0,0
-308,43,0,0,0,0,0,0,0,0,0,-1,916,981,0,0
-301,43,0,0,0,0,0,0,0,0,0,-1,923,981,0,0
-294,43,0,0,0,0,0,0,0,0,0,-1,930,981,0,0
-287,43,0,0,0,0,0,0,0,0,0,-1,937,981,0,0
-280,43,0,0,0,0,0,0,0,0,0,-1,944,981,0,0
-273,43,0,0,0,0,0,0,0,0,0,-1,951,981,0,0
-266,43,0,0,0,0,0,0,0,0,0,-1,958,981,0,0
-259,43,0,0,0,0,0,0,0,0,0,-1,965,981,0,0
-252,43,0,0,0,0,0,0,0,0,0,-1,972,981,0,0
-245,43,0,0,0,0,0,0,0,0,0,-1,979,981,0,0
-238,43,0,0,0,0,0,0,0,0,0,-1,986,981,0,0
-231,43,0,0,0,0,0,0,0,0,0,-1,993,981,0,0
-224,43,0,0,0,0,0,0,0,0,0,-1,1000,981,0,0
-217,43,0,0,0,0,0,0,0,0,0,-1,1007,981,0,0
-210,43,0,0,0,0,0,0,0,0,0,-1,1014,981,0,0
-203,43,0,0,0,0,0,0,0,0,0,-1,1021,981,0,0
-196,43,0,0,0,0,0,0,0,0,0,-1,1028,981,0,0
-189,43,0,0,0,0,0,0,0,0,0,-1,1035,981,0,0
-182,43,0,0,0,0,0,0,0,0,0,-1,1042,981,0,0
-175,43,0,0,0,0,0,0,0,0,0,-1,1049,981,0,0
-168,43,0,0,0,0,0,0,0,0,0,-1,1056,981,0,0
-161,43,0,0,0,0,0,0,0,0,0,-1,1063,981,0,0
-154,43,0,0,0,0,0,0,0,0,0,-1,1070,981,0,0
-147,43,0,0,0,0,0,0,0,0,0,-1,1077,981,0,0
-140,43,0,0,0,0,0,0,0,0,0,-1,1084,981,0,0
-133,43,0,0,0,0,0,0,0,0,0,-1,1091,981,0,0
-126,43,0,0,0,0,0,0,0,0,0,-1,1098,981,0,0
-119,43,0,0,0,0,0,0,0,0,0,-1,1105,981,0,0
-112,43,0,0,0,0,0,0,0,0,0,-1,1112,981,0,0
-105,43,0,0,0,0,0,0,0,0,0,-1,1119,981,0,0
-98,43,0,0,0,0,0,0,0,0,0,-1,1126,981,0,0
-91,43,0,0,0,0,0,0,0,0,0,-1,1133,981,0,0
-84,43,0,0,0,0,0,0,0,0,0,-1,1140,981,0,0
-77,43,0,0,0,0,0,0,0,0,0,-1,1147,981,0,0
-70,43,0,0,0,0,0,0,0,0,0,-1,1154,981,0,0
-63,43,0,0,0,0,0,0,0,0,0,-1,1161,981,0,0
-56,43,0,0,0,0,0,0,0,0,0,-1,1168,981,0,0
-49,43,0,0,0,0,0,0,0,0,0,-1,1175,981,0,0
-42,43,0,0,0,0,0,0,0,0,0,-1,1182,981,0,0
-35,43,0,0,0,0,0,0,0,0,0,-1,1189,981,0,0
-28,43,0,0,0,0,0,0,0,0,0,-1,1196,981,0,0
-21,43,0,0,0,0,0,0,0,0,0,-1,1203,981,0,0
-14,43,0,0,0,0,0,0,0,0,0,-1,1210,981,0,0
-7,43,0,0,0,0,0,0,0,0,0,-1,1217,981,0,0
0,43,0,0,0,0,0,0,0,0,0,-1,1224,981,0,0
7,43,0,0,0,0,0,0,0,0,0,-1,1231,981,0,0
14,43,0,0,0,0,0,0,0,0,0,-1,1238,981,0,0
21,43,0,0,0,0,0,0,0,0,0,-1,1245,981,0,0
28,43,0,0,0,0,0,0,0,0,0,-1,1252,981,0,0
35,43,0,0,0,0,0,0,0,0,0,-1,1259,981,0,0
42,43,0,0,0,0,0,0,0,0,0,-1,1266,981,0,0
49,43,0,0,0,0,0,0,0,0,0,-1,1273,981,0,0
56,43,0,0,0,0,0,0,0,0,0,-1,1280,981,0,0
63,43,0,0,0,0,0,0,0,0,0,-1,1287,981,0,0
70,43,0,0,0,0,0,0,0,0,0,-1,1294,981,0,0
77,43,0,0,0,0,0,0,0,0,0,-1,1301,981,0,0
84,43,0,0,0,0,0,0,0,0,0,-1,1308,981,0,0
91,43,0,0,0,0,0,0,0,0,0,-1,1315,981,0,0
98,43,0,0,0,0,0,0,0,0,0,-1,1322,981,0,0
105,43,0,0,0,0,0,0,0,0,0,-1,1329,981,0,0
112,43,0,0,0,0,0,0,0,0,0,-1,1336,981,0,0
119,43,0,0,0,0,0,0,0,0,0,-1,1343,981,0,0
126,43,0,0,0,0,0,0,0,0,0,-1,1350,981,0,0
133,43,0,0,0,0,0,0,0,0,0,-1,1357,981,0,0
140,43,0,0,0,0,0,0,0,0,0,-1,1364,981,0,0
147,43,0,0,0,0,0,0,0,0,0,-1,1371,981,0,0
154,43,0,0,0,0,0,0,0,0,0,-1,1378,981,0,0
161,43,0,0,0,0,0,0,0,0,0,-1,1385,981,0,0
168,43,0,0,0,0,0,0,0,0,0,-1,1392,981,0,0
175,43,0,0,0,0,0,0,0,0,0,-1,1399,981,0,0
182,43,0,0,0,0,0,0,0,0,0,-1,1406,981,0,0
189,43,0,0,0,0,0,0,0,0,0,-1,1413,981,0,0
196,43,0,0,0,0,0,0,0,0,0,-1,1420,981,0,0
203,43,0,0,0,0,0,0,0,0,0,-1,1427,981,0,0
210,43,0,0,0,0,0,0,0,0,0,-1,1434,981,0,0
217,43,0,0,0,0,0,0,0,0,0,-1,1441,981,0,0
224,43,0,0,0,0,0,0,0,0,0,-1,1448,981,0,0
231,43,0,0,0,0,0,0,0,0,0,-1,1455,981,0,0
238,43,0,0,0,0,0,0,0,0,0,-1,1462,981,0,0
245,43,0,0,0,0,0,0,0,0,0,-1,1469,981,0,0
252,43,0,0,0,0,0,0,0,0,0,-1,1476,981,0,0
259,43,0,0,0,0,0,0,0,0,0,-1,1483,981,0,0
266,43,0,0,0,0,0,0,0,0,0,-1,1490,981,0,0
273,43,0,0,0,0,0,0,0,0,0,-1,1497,981,0,0
280,43,0,0,0,0,0,0,0,0,0,-1,1504,981,0,0
287,43,0,0,0,0,0,0,0,0,0,-1,1511,981,0,0
294,43,0,0,0,0,0,0,0,0,0,-1,1518,981,0,0
301,43,0,0,0,0,0,0,0,0,0,-1,1525,981,0,0
308,43,0,0,0,0,0,0,0,0,0,-1,1532,981,0,0
315,43,0,0,0,0,0,0,0,0,0,-1,1539,981,0,0
322,43,0,0,0,0,0,0,0,0,0,-1,1546,981,0,0
329,43,0,0,0,0,0,0,0,0,0,-1,1553,981,0,0
336,43,0,0,0,0,0,0,0,0,0,-1,1560,981,0,0
343,43,0,0,0,0,0,0,0,0,0,-1,1567,981,0,0
350,43,0,0,0,0,0,0,0,0,0,-1,1574,981,0,0
357,43,0,0,0,0,0,0,0,0,0,-1,1581,981,0,0
364,43,0,0,0,0,0,0,0,0,0,-1,1588,981,0,0
371,43,0,0,0,0,0,0,0,0,0,-1,1595,981,0,0
378,43,0,0,0,0,0,0,0,0,0,-1,1602,981,0,0
385,43,0,0,0,0,0,0,0,0,0,-1,1609,981,0,0
392,43,0,0,0,0,0,0,0,0,0,-1,1616,981,0,0
399,43,0,0,0,0,0,0,0,0,0,-1,1623,981,0,0
406,43,0,0,0,0,0,0,0,0,0,-1,1630,981,0,0
413,43,0,0,0,0,0,0,0,0,0,-1,1637,981,0,0
420,43,0,0,0,0,0,0,0,0,0,-1,1644,981,0,0
427,43,0,0,0,0,0,0,0,0,0,-1,1651,981,0,0
434,43,0,0,0,0,0,0,0,0,0,-1,1658,981,0,0
441,43,0,0,0,0,0,0,0,0,0,-1,1665,981,0,0
448,43,0,0,0,0,0,0,0,0,0,-1,1672,981,0,0
455,43,0,0,0,0,0,0,0,0,0,-1,1679,981,0,0
462,43,0,0,0,0,0,0,0,0,0,-1,1686,981,0,0
469,43,0,0,0,0,0,0,0,0,0,-1,1693,981,0,0
476,43,0,0,0,0,0,0,0,0,0,-1,1700,981,0,0
483,43,0,0,0,0,0,0,0,0,0,-1,1707,981,0,0
490,43,0,0,0,0,0,0,0,0,0,-1,1714,981,0,0
497,43,0,0,0,0,0,0,0,0,0,-1,1721,981,0,0
504,43,0,0,0,0,0,0,0,0,0,-1,1728,981,0,0
511,43,0,0,0,0,0,0,0,0,0,-1,1735,981,0,0
518,43,0,0,0,0,0,0,0,0,0,-1,1742,981,0,0
525,43,0,0,0,0,0,0,0,0,0,-1,1749,981,0,0
532,43,0,0,0,0,0,0,0,0,0,-1,1756,981,0,0
539,43,0,0,0,0,0,0,0,0,0,-1,1763,981,0,0
546,43,0,0,0,0,0,0,0,0,0,-1,1770,981,0,0
553,43,0,0,0,0,0,0,0,0,0,-1,1777,981,0,0
560,43,0,0,0,0,0,0,0,0,0,-1,1784,981,0,0
567,43,0,0,0,0,0,0,0,0,0,-1,1791,981,0,0
574,43,0,0,0,0,0,0,0,0,0,-1,1798,981,0,0
581,43,0,0,0,0,0,0,0,0,0,-1,1805,981,0,0
588,43,0,0,0,0,0,0,0,0,0,-1,1812,981,0,0
595,43,0,0,0,0,0,0,0,0,0,-1,1819,981,0,0
602,43,0,0,0,0,0,0,0,0,0,-1,1826,981,0,0
609,43,0,0,0,0,0,0,0,0,0,-1,1833,981,0,0
616,43,0,0,0,0,0,0,0,0,0,-1,1840,981,0,0
623,43,0,0,0,0,0,0,0,0,0,-1,1847,981,0,0
630,43,0,0,0,0,0,0,0,0,0,-1,1854,981,0,0
637,43,0,0,0,0,0,0,0,0,0,-1,1861,981,0,0
644,43,47.6975,2.97455,0.00275499,0.00159102,-0.00347807,0.00569943,-0.00135343,-0.702501,0.00432198,0.0403477,1868,981,47.6976,-2.97453
651,43,47.7751,2.9649,0.00200721,0.0011733,-0.00264666,0.00426956,-0.00108905,-0.707271,0.0032704,0.0388164,1875,981,47.7752,-2.9649
658,43,47.9037,2.74371,0.00160224,0.000848514,-0.00180689,0.00307115,-0.000620396,-0.682587,0.00228251,0.0405442,1882,981,47.9037,-2.74369
665,43,47.8734,2.56561,0.00126386,0.000723636,-0.00091533,0.0019481,3.93952e-05,-0.641921,0.0012858,0.0388103,1889,981,47.8734,-2.56564
672,43,47.88,2.69623,0.000950068,0.000659451,-4.68661e-05,0.000957439,0.00065208,-0.155997,0.00056473,0.0388947,1896,981,47.88,-2.69621
679,43,47.8689,2.74084,0.000793726,0.000578666,0.00084163,0.00153467,-0.000162276,0.72186,0.00108127,0.0417179,1903,981,47.8689,-2.74082
686,43,47.8754,2.65375,0.000834925,0.000361963,0.00146327,0.0020807,-0.000883816,0.705285,0.00175745,0.0406308,1910,981,47.8754,-2.65376
693,43,47.8445,2.76593,0.000799969,0.00011704,0.00179375,0.00228447,-0.00136746,0.691342,0.00213048,0.0359039,1917,981,47.8444,-2.76593
700,43,47.8445,2.86395,0.000592139,0.000121583,0.00189359,0.00226501,-0.00155129,0.72359,0.00221615,0.0306372,1924,981,47.8445,-2.86394
707,43,47.9204,2.80426,0.000259715,0.000284997,0.0018973,0.0021697,-0.00162499,0.788729,0.00219837,0.0261138,1931,981,47.9204,-2.80425
714,43,47.9172,3.01959,0,0,0,0,0,0,0,-1,1938,981,47.9172,-3.01962
721,43,47.094,4.9046,0,0,0,0,0,0,0,-1,1945,981,47.094,-4.90458
728,43,47.0825,5.24969,-0.00155174,0.00229509,0.00140105,0.00275127,-0.00200792,1.25602,0.00275887,0.0214378,1952,981,47.0825,-5.2497
735,43,47.0425,5.55322,-0.00200286,0.00306857,0.00117324,0.00332684,-0.00226113,1.35412,0.00324571,0.0152471,1959,981,47.0425,-5.55323
742,43,47.0087,5.7865,-0.00281665,0.00407927,0.00105227,0.00423626,-0.00297364,1.42269,0.00418386,0.0162717,1966,981,47.0087,-5.78648
749,43,46.9802,6.01068,-0.00399603,0.00554447,0.000863965,0.00562207,-0.00407364,1.48121,0.00562157,0.0180831,1973,981,46.9802,-6.01065
756,43,46.9674,6.20636,-0.00521628,0.00742186,0.000811249,0.00747372,-0.00526814,1.50696,0.00739316,0.019516,1980,981,46.9674,-6.20635
763,43,46.9536,6.41083,-0.00629541,0.00973125,0.00124692,0.00982768,-0.00639184,1.49361,0.00943412,0.0225194,1987,981,46.9537,-6.41082
770,43,46.8448,6.69287,-0.00712385,0.0121189,0.00233819,0.0123989,-0.00740389,1.4516,0.0115537,0.0191109,1994,981,46.8449,-6.69286
777,43,46.7909,6.914,-0.00774483,0.0140711,0.00409653,0.014815,-0.0084887,1.39117,0.0136187,0.0245079,2001,981,46.7909,-6.91399
784,43,46.7134,7.34412,-0.00760155,0.0153536,0.00753036,0.0176034,-0.00985136,1.28047,0.0160602,0.0429659,2008,981,46.7134,-7.34414
791,43,48.488,5.0282,0,0,0,0,0,0,0,-1,2015,981,48.488,-5.02818
798,43,45.5576,6.92877,0,0,0,0,0,0,0,-1,2022,981,45.5576,-6.92876
805,43,46.1099,7.53784,0,0,0,0,0,0,0,-1,2029,981,46.1099,-7.53784
812,43,46.4543,7.84204,0,0,0,0,0,0,0,-1,2036,981,46.4543,-7.84203
-700,36,0,0,0,0,0,0,0,0,0,-1,524,988,0,0
-693,36,-36.811,1.56775,0,0,0,0,0,0,0,-1,531,988,-36.811,-1.56778
-686,36,-36.4024,1.67535,0.123005,-0.0151063,0.045058,0.136405,-0.0285061,0.289061,0.101778,0.0432042,538,988,-36.4024,-1.67535
-679,36,-35.9792,1.66437,0.105548,-0.0123092,0.038435,0.116974,-0.0237356,0.288971,0.086981,0.0430336,545,988,-35.9792,-1.66437
-672,36,-35.6115,1.77252,0.0873476,-0.00866169,0.0324575,0.0972906,-0.0186048,0.297264,0.0718692,0.0415314,552,988,-35.6115,-1.77252
-665,36,-35.2177,1.7226,0.0702375,-0.00510304,0.0270327,0.0789333,-0.0137989,0.311225,0.0577738,0.0431383,559,988,-35.2177,-1.72257
-658,36,-34.7958,1.66022,0.0547739,-0.00201757,0.0221652,0.0624006,-0.00964426,0.331394,0.0451597,0.0458214,566,988,-34.7958,-1.66023
-651,36,-34.1362,1.75287,0,0,0,0,0,0,0,-1,573,988,-34.1362,-1.75284
-644,36,-35.6891,3.73151,0.0292151,0.00219319,0.0138402,0.0350458,-0.00363747,0.398718,0.0246659,0.0282348,580,988,-35.6891,-3.73151
-637,36,-35.8079,3.61493,0.0200115,0.00352613,0.00981762,0.0245878,-0.00105022,0.436191,0.0167529,0.0224167,587,988,-35.8079,-3.61494
-630,36,-35.8179,3.55609,0.0117915,0.00402237,0.00583786,0.0149191,0.000894761,0.491834,0.00966162,0.0170125,594,988,-35.8179,-3.55607
-623,36,-35.8411,3.43359,0.00524534,0.00477036,0.00241502,0.00743452,0.00258118,0.736386,0.00435863,0.0133004,601,988,-35.8411,-3.43361
-616,36,-35.8162,3.27643,0.00100217,0.00480481,-0.00029459,0.0048275,0.000979487,-1.49394,0.00294661,0.0109707,608,988,-35.8162,-3.27641
-609,36,-35.8033,3.12762,-0.00180688,0.00430205,-0.00271973,0.00533741,-0.00284224,-1.20705,0.00479521,0.0150801,615,988,-35.8033,-3.12762
-602,36,-35.8141,2.96832,-0.00244997,0.00379577,-0.00466485,0.00628656,-0.00494076,-1.08036,0.0064976,0.0195848,622,988,-35.8141,-2.96829
-595,36,-35.8934,2.78491,-0.00200462,0.00312413,-0.00586847,0.00696405,-0.00584453,-0.991383,0.00740445,0.0231305,629,988,-35.8934,-2.7849
-588,36,-35.8459,2.06866,-0.00153383,0.00237876,-0.00675839,0.0074583,-0.00661337,-0.926278,0.00812916,0.0308097,636,988,-35.8459,-2.06865
-581,36,-35.7085,1.05829,0,0,0,0,0,0,0,-1,643,988,-35.7085,-1.05829
-574,36,-35.6926,0.950989,-0.000580079,0.00131416,-0.00711962,0.00754938,-0.00681531,-0.851525,0.00829707,0.0270327,650,988,-35.6926,-0.950965
-567,36,-35.6903,0.930176,-0.000257893,0.00112996,-0.00662447,0.00709675,-0.00622469,-0.837584,0.00769663,0.0332157,657,988,-35.6903,-0.93016
-560,36,-35.6229,1.02441,0.000333982,0.000875124,-0.0055311,0.00614226,-0.00493316,-0.809838,0.00640708,0.0379195,664,988,-35.6229,-1.02439
-553,36,-35.5895,1.0354,0.00129457,0.000314928,-0.00381786,0.0046539,-0.0030444,-0.721598,0.00447688,0.0428475,671,988,-35.5895,-1.03537
-546,36,-35.5822,0.828552,0.0027202,-0.000887051,-0.00143907,0.00322395,-0.0013908,-0.336723,0.0027335,0.0454491,678,988,-35.5821,-0.82856
-539,36,-35.3929,0.732361,0.0046553,-0.00296829,0.0014036,0.00490551,-0.0032185,0.17641,0.00472399,0.0456726,685,988,-35.393,-0.732368
-532,36,-35.74,0.68988,0.00734709,-0.00585279,0.00355112,0.00824179,-0.00674749,0.246812,0.00866839,0.0482537,692,988,-35.74,-0.689889
-525,36,-35.5954,0.964966,0.00915786,-0.0088992,0.00494075,0.0104213,-0.0101627,0.25036,0.0118845,0.0456978,699,988,-35.5954,-0.964973
-518,36,0,0,0,0,0,0,0,0,0,-1,706,988,0,0
-511,36,0,0,0,0,0,0,0,0,0,-1,713,988,0,0
-504,36,0,0,0,0,0,0,0,0,0,-1,720,988,0,0
-497,36,0,0,0,0,0,0,0,0,0,-1,727,988,0,0
-490,36,0,0,0,0,0,0,0,0,0,-1,734,988,0,0
-483,36,0,0,0,0,0,0,0,0,0,-1,741,988,0,0
-476,36,0,0,0,0,0,0,0,0,0,-1,748,988,0,0
-469,36,0,0,0,0,0,0,0,0,0,-1,755,988,0,0
-462,36,0,0,0,0,0,0,0,0,0,-1,762,988,0,0
-455,36,0,0,0,0,0,0,0,0,0,-1,769,988,0,0
-448,36,0,0,0,0,0,0,0,0,0,-1,776,988,0,0
-441,36,0,0,0,0,0,0,0,0,0,-1,783,988,0,0
-434,36,0,0,0,0,0,0,0,0,0,-1,790,988,0,0
-427,36,0,0,0,0,0,0,0,0,0,-1,797,988,0,0
-420,36,0,0,0,0,0,0,0,0,0,-1,804,988,0,0
-413,36,0,0,0,0,0,0,0,0,0,-1,811,988,0,0
-406,36,0,0,0,0,0,0,0,0,0,-1,818,988,0,0
-399,36,0,0,0,0,0,0,0,0,0,-1,825,988,0,0
-392,36,0,0,0,0,0,0,0,0,0,-1,832,988,0,0
-385,36,0,0,0,0,0,0,0,0,0,-1,839,988,0,0
-378,36,0,0,0,0,0,0,0,0,0,-1,846,988,0,0
-371,36,0,0,0,0,0,0,0,0,0,-1,853,988,0,0
-364,36,0,0,0,0,0,0,0,0,0,-1,860,988,0,0
-357,36,0,0,0,0,0,0,0,0,0,-1,867,988,0,0
-350,36,0,0,0,0,0,0,0,0,0,-1,874,988,0,0
-343,36,0,0,0,0,0,0,0,0,0,-1,881,988,0,0
-336,36,0,0,0,0,0,0,0,0,0,-1,888,988,0,0
-329,36,0,0,0,0,0,0,0,0,0,-1,895,988,0,0
-322,36,0,0,0,0,0,0,0,0,0,-1,902,988,0,0
-315,36,0,0,0,0,0,0,0,0,0,-1,909,988,0,0
-308,36,0,0,0,0,0,0,0,0,0,-1,916,988,0,0
-301,36,0,0,0,0,0,0,0,0,0,-1,923,988,0,0
-294,36,0,0,0,0,0,0,0,0,0,-1,930,988,0,0
-287,36,0,0,0,0,0,0,0,0,0,-1,937,988,0,0
-280,36,0,0,0,0,0,0,0,0,0,-1,944,988,0,0
-273,36,0,0,0,0,0,0,0,0,0,-1,951,988,0,0
-266,36,0,0,0,0,0,0,0,0,0,-1,958,988,0,0
-259,36,0,0,0,0,0,0,0,0,0,-1,965,988,0,0
-252,36,0,0,0,0,0,0,0,0,0,-1,972,988,0,0
-245,36,0,0,0,0,0,0,0,0,0,-1,979,988,0,0
-238,36,0,0,0,0,0,0,0,0,0,-1,986,988,0,0
-231,36,0,0,0,0,0,0,0,0,0,-1,993,988,0,0
-224,36,0,0,0,0,0,0,0,0,0,-1,1000,988,0,0
-217,36,0,0,0,0,0,0,0,0,0,-1,1007,988,0,0
-210,36,0,0,0,0,0,0,0,0,0,-1,1014,988,0,0
-203,36,0,0,0,0,0,0,0,0,0,-1,1021,988,0,0
-196,36,0,0,0,0,0,0,0,0,0,-1,1028,988,0,0
-189,36,0,0,0,0,0,0,0,0,0,-1,1035,988,0,0
-182,36,0,0,0,0,0,0,0,0,0,-1,1042,988,0,0
-175,36,0,0,0,0,0,0,0,0,0,-1,1049,988,0,0
-168,36,0,0,0,0,0,0,0,0,0,-1,1056,988,0,0
-161,36,0,0,0,0,0,0,0,0,0,-1,1063,988,0,0
-154,36,0,0,0,0,0,0,0,0,0,-1,1070,988,0,0
-147,36,0,0,0,0,0,0,0,0,0,-1,1077,988,0,0
-140,36,0,0,0,0,0,0,0,0,0,-1,1084,988,0,0
-133,36,0,0,0,0,0,0,0,0,0,-1,1091,988,0,0
-126,36,0,0,0,0,0,0,0,0,0,-1,1098,988,0,0
-119,36,0,0,0,0,0,0,0,0,0,-1,1105,988,0,0
-112,36,0,0,0,0,0,0,0,0,0,-1,1112,988,0,0
-105,36,0,0,0,0,0,0,0,0,0,-1,1119,988,0,0
-98,36,0,0,0,0,0,0,0,0,0,-1,1126,988,0,0
-91,36,0,0,0,0,0,0,0,0,0,-1,1133,988,0,0
-84,36,0,0,0,0,0,0,0,0,0,-1,1140,988,0,0
-77,36,0,0,0,0,0,0,0,0,0,-1,1147,988,0,0
-70,36,0,0,0,0,0,0,0,0,0,-1,1154,988,0,0
-63,36,0,0,0,0,0,0,0,0,0,-1,1161,988,0,0
-56,36,0,0,0,0,0,0,0,0,0,-1,1168,988,0,0
-49,36,0,0,0,0,0,0,0,0,0,-1,1175,988,0,0
-42,36,0,0,0,0,0,0,0,0,0,-1,1182,988,0,0
-35,36,0,0,0,0,0,0,0,0,0,-1,1189,988,0,0
-28,36,0,0,0,0,0,0,0,0,0,-1,1196,988,0,0
-21,36,0,0,0,0,0,0,0,0,0,-1,1203,988,0,0
-14,36,0,0,0,0,0,0,0,0,0,-1,1210,988,0,0
-7,36,0,0,0,0,0,0,0,0,0,-1,1217,988,0,0
0,36,0,0,0,0,0,0,0,0,0,-1,1224,988,0,0
7,36,0,0,0,0,0,0,0,0,0,-1,1231,988,0,0
14,36,0,0,0,0,0,0,0,0,0,-1,1238,988,0,0
21,36,0,0,0,0,0,0,0,0,0,-1,1245,988,0,0
28,36,0,0,0,0,0,0,0,0,0,-1,1252,988,0,0
35,36,0,0,0,0,0,0,0,0,0,-1,1259,988,0,0
42,36,0,0,0,0,0,0,0,0,0,-1,1266,988,0,0
49,36,0,0,0,0,0,0,0,0,0,-1,1273,988,0,0
56,36,0,0,0,0,0,0,0,0,0,-1,1280,988,0,0
63,36,0,0,0,0,0,0,0,0,0,-1,1287,988,0,0
70,36,0,0,0,0,0,0,0,0,0,-1,1294,988,0,0
77,36,0,0,0,0,0,0,0,0,0,-1,1301,988,0,0
84,36,0,0,0,0,0,0,0,0,0,-1,1308,988,0,0
91,36,0,0,0,0,0,0,0,0,0,-1,1315,988,0,0
98,36,0,0,0,0,0,0,0,0,0,-1,1322,988,0,0
105,36,0,0,0,0,0,0,0,0,0,-1,1329,988,0,0
112,36,0,0,0,0,0,0,0,0,0,-1,1336,988,0,0
119,36,0,0,0,0,0,0,0,0,0,-1,1343,988,0,0
126,36,0,0,0,0,0,0,0,0,0,-1,1350,988,0,0
133,36,0,0,0,0,0,0,0,0,0,-1,1357,988,0,0
140,36,0,0,0,0,0,0,0,0,0,-1,1364,988,0,0
147,36,0,0,0,0,0,0,0,0,0,-1,1371,988,0,0
154,36,0,0,0,0,0,0,0,0,0,-1,1378,988,0,0
161,36,0,0,0,0,0,0,0,0,0,-1,1385,988,0,0
168,36,0,0,0,0,0,0,0,0,0,-1,1392,988,0,0
175,36,0,0,0,0,0,0,0,0,0,-1,1399,988,0,0
182,36,0,0,0,0,0,0,0,0,0,-1,1406,988,0,0
189,36,0,0,0,0,0,0,0,0,0,-1,1413,988,0,0
196,36,0,0,0,0,0,0,0,0,0,-1,1420,988,0,0
203,36,0,0,0,0,0,0,0,0,0,-1,1427,988,0,0
210,36,0,0,0,0,0,0,0,0,0,-1,1434,988,0,0
217,36,0,0,0,0,0,0,0,0,0,-1,1441,988,0,0
224,36,0,0,0,0,0,0,0,0,0,-1,1448,988,0,0
231,36,0,0,0,0,0,0,0,0,0,-1,1455,988,0,0
238,36,0,0,0,0,0,0,0,0,0,-1,1462,988,0,0
245,36,0,0,0,0,0,0,0,0,0,-1,1469,988,0,0
252,36,0,0,0,0,0,0,0,0,0,-1,1476,988,0,0
259,36,0,0,0,0,0,0,0,0,0,-1,1483,988,0,0
266,36,0,0,0,0,0,0,0,0,0,-1,1490,988,0,0
273,36,0,0,0,0,0,0,0,0,0,-1,1497,988,0,0
280,36,0,0,0,0,0,0,0,0,0,-1,1504,988,0,0
287,36,0,0,0,0,0,0,0,0,0,-1,1511,988,0,0
294,36,0,0,0,0,0,0,0,0,0,-1,1518,988,0,0
301,36,0,0,0,0,0,0,0,0,0,-1,1525,988,0,0
308,36,0,0,0,0,0,0,0,0,0,-1,1532,988,0,0
315,36,0,0,0,0,0,0,0,0,0,-1,1539,988,0,0
322,36,0,0,0,0,0,0,0,0,0,-1,1546,988,0,0
329,36,0,0,0,0,0,0,0,0,0,-1,1553,988,0,0
336,36,0,0,0,0,0,0,0,0,0,-1,1560,988,0,0
343,36,0,0,0,0,0,0,0,0,0,-1,1567,988,0,0
350,36,0,0,0,0,0,0,0,0,0,-1,1574,988,0,0
357,36,0,0,0,0,0,0,0,0,0,-1,1581,988,0,0
364,36,0,0,0,0,0,0,0,0,0,-1,1588,988,0,0
371,36,0,0,0,0,0,0,0,0,0,-1,1595,988,0,0
378,36,0,0,0,0,0,0,0,0,0,-1,1602,988,0,0
385,36,0,0,0,0,0,0,0,0,0,-1,1609,988,0,0
392,36,0,0,0,0,0,0,0,0,0,-1,1616,988,0,0
399,36,0,0,0,0,0,0,0,0,0,-1,1623,988,0,0
406,36,0,0,0,0,0,0,0,0,0,-1,1630,988,0,0
413,36,0,0,0,0,0,0,0,0,0,-1,1637,988,0,0
420,36,0,0,0,0,0,0,0,0,0,-1,1644,988,0,0
427,36,0,0,0,0,0,0,0,0,0,-1,1651,988,0,0
434,36,0,0,0,0,0,0,0,0,0,-1,1658,988,0,0
441,36,0,0,0,0,0,0,0,0,0,-1,1665,988,0,0
448,36,0,0,0,0,0,0,0,0,0,-1,1672,988,0,0
455,36,0,0,0,0,0,0,0,0,0,-1,1679,988,0,0
462,36,0,0,0,0,0,0,0,0,0,-1,1686,988,0,0
469,36,0,0,0,0,0,0,0,0,0,-1,1693,988,0,0
476,36,0,0,0,0,0,0,0,0,0,-1,1700,988,0,0
483,36,0,0,0,0,0,0,0,0,0,-1,1707,988,0,0
490,36,0,0,0,0,0,0,0,0,0,-1,1714,988,0,0
497,36,0,0,0,0,0,0,0,0,0,-1,1721,988,0,0
504,36,0,0,0,0,0,0,0,0,0,-1,1728,988,0,0
511,36,0,0,0,0,0,0,0,0,0,-1,1735,988,0,0
518,36,0,0,0,0,0,0,0,0,0,-1,1742,988,0,0
525,36,0,0,0,0,0,0,0,0,0,-1,1749,988,0,0
532,36,0,0,0,0,0,0,0,0,0,-1,1756,988,0,0
539,36,0,0,0,0,0,0,0,0,0,-1,1763,988,0,0
546,36,0,0,0,0,0,0,0,0,0,-1,1770,988,0,0
553,36,0,0,0,0,0,0,0,0,0,-1,1777,988,0,0
560,36,0,0,0,0,0,0,0,0,0,-1,1784,988,0,0
567,36,0,0,0,0,0,0,0,0,0,-1,1791,988,0,0
574,36,0,0,0,0,0,0,0,0,0,-1,1798,988,0,0
581,36,0,0,0,0,0,0,0,0,0,-1,1805,988,0,0
588,36,0,0,0,0,0,0,0,0,0,-1,1812,988,0,0
595,36,0,0,0,0,0,0,0,0,0,-1,1819,988,0,0
602,36,0,0,0,0,0,0,0,0,0,-1,1826,988,0,0
609,36,0,0,0,0,0,0,0,0,0,-1,1833,988,0,0
616,36,0,0,0,0,0,0,0,0,0,-1,1840,988,0,0
623,36,0,0,0,0,0,0,0,0,0,-1,1847,988,0,0
630,36,0,0,0,0,0,0,0,0,0,-1,1854,988,0,0
637,36,0,0,0,0,0,0,0,0,0,-1,1861,988,0,0
644,36,47.869,2.71674,0.00314704,0.000397881,-0.00361639,0.00564128,-0.00209635,-0.603782,0.00462096,0.0408158,1868,988,47.869,-2.71676
651,36,47.8441,2.88257,0.00218844,0.000245574,-0.00269749,0.00408408,-0.00165007,-0.612565,0.00340858,0.0399097,1875,988,47.8441,-2.88255
658,36,47.9462,2.96783,0.00168111,0.000125447,-0.00185497,0.00291472,-0.00110817,-0.586872,0.00239942,0.0391044,1882,988,47.9462,-2.96783
665,36,47.9519,2.72131,0.00128908,0.000150787,-0.00100423,0.00187424,-0.000434367,-0.527592,0.00141665,0.0385979,1889,988,47.9519,-2.7213
672,36,47.851,2.91486,0.000968754,0.000224226,-0.000198861,0.00101854,0.00017444,-0.245313,0.000628996,0.0379528,1896,988,47.8509,-2.91486
679,36,47.8618,2.96112,0.000833866,0.00028688,0.000676853,0.00129039,-0.000169646,0.593395,0.000922027,0.0417917,1903,988,47.8618,-2.96115
686,36,47.8109,2.81024,0.000888133,0.000167552,0.00132794,0.00190379,-0.000848103,0.652929,0.00162731,0.0394117,1910,988,47.8109,-2.81022
693,36,47.84,2.75574,0.000866172,-1.85775e-05,0.00172585,0.00220544,-0.00135785,0.659938,0.00207657,0.0382466,1917,988,47.84,-2.75575
700,36,47.892,2.83154,0.000677867,3.885e-05,0.0018866,0.00227182,-0.0015551,0.701516,0.00222236,0.0340668,1924,988,47.8919,-2.83155
707,36,47.9921,2.43561,0,0,0,0,0,0,0,-1,1931,988,47.9921,-2.43561
714,36,47.8888,3.17169,0,0,0,0,0,0,0,-1,1938,988,47.8888,-3.17168
721,36,47.4332,4.99323,0,0,0,0,0,0,0,-1,1945,988,47.4332,-4.99321
728,36,47.3231,5.32416,-0.00156838,0.00233405,0.00155059,0.00287514,-0.00210946,1.23505,0.00288916,0.0231306,1952,988,47.3231,-5.32418
735,36,47.2604,5.61725,-0.00215464,0.00313579,0.00132424,0.00344874,-0.00246759,1.33873,0.00343142,0.0206248,1959,988,47.2604,-5.61727
742,36,47.2249,5.76367,-0.00313017,0.00415235,0.00121852,0.00435082,-0.00332865,1.40933,0.00444682,0.016768,1966,988,47.2249,-5.76366
749,36,47.1962,5.99493,-0.00451927,0.00565011,0.000994876,0.00574653,-0.00461568,1.47419,0.00599449,0.0176162,1973,988,47.1962,-5.99492
756,36,47.1722,6.18927,-0.0060785,0.00756224,0.000816684,0.00761096,-0.00612722,1.51121,0.00794715,0.0165042,1980,988,47.1722,-6.18929
763,36,47.1179,6.35071,-0.00772495,0.00997578,0.00100201,0.0100323,-0.00778149,1.51443,0.0103121,0.0189443,1987,988,47.1179,-6.35069
770,36,47.0446,6.55127,-0.00933459,0.0125878,0.00179661,0.0127341,-0.00948086,1.48957,0.0128715,0.0159008,1994,988,47.0445,-6.5513
777,36,47.033,6.83838,-0.010782,0.0148289,0.00322737,0.0152293,-0.0111824,1.44735,0.0153084,0.0247614,2001,988,47.0329,-6.8384
784,36,48.3018,4.40558,0,0,0,0,0,0,0,-1,2008,988,48.3018,-4.4056
791,36,48.3044,5.39349,0,0,0,0,0,0,0,-1,2015,988,48.3043,-5.39352
798,36,48.3069,6.38141,0,0,0,0,0,0,0,-1,2022,988,48.3068,-6.38143
805,36,46.345,7.17139,0,0,0,0,0,0,0,-1,2029,988,46.3451,-7.17136
812,36,46.5723,7.82355,0,0,0,0,0,0,0,-1,2036,988,46.5722,-7.82353
-700,29,0,0,0,0,0,0,0,0,0,-1,524,995,0,0
-693,29,-37.4338,1.28052,0,0,0,0,0,0,0,-1,531,995,-37.4338,-1.28053
-686,29,-37.0094,1.37128,0.0956521,-0.0201429,0.0365746,0.106237,-0.0307276,0.281706,0.0829856,0.0470883,538,995,-37.0094,-1.3713
-679,29,-36.599,1.48993,0.0844026,-0.0164844,0.0314359,0.0933961,-0.0254779,0.278649,0.0722696,0.0458829,545,995,-36.599,-1.48995
-672,29,-36.0806,1.716,0.0712466,-0.0120411,0.026772,0.0791098,-0.0199043,0.285677,0.0604765,0.0416592,552,995,-36.0806,-1.71603
-665,29,-35.5243,1.88861,0.0581837,-0.00777663,0.0224803,0.0651166,-0.0147095,0.299145,0.049055,0.0422079,559,995,-35.5243,-1.88864
-658,29,-34.7943,1.86255,0.0459411,-0.00409646,0.018574,0.0520822,-0.0102375,0.319311,0.0385893,0.044085,566,995,-34.7943,-1.86255
-651,29,-34.0215,2.02777,0,0,0,0,0,0,0,-1,573,995,-34.0215,-2.02776
-644,29,-35.7304,3.29199,0.0249147,0.00102852,0.0116864,0.0296811,-0.00373796,0.387269,0.0211438,0.0450204,580,995,-35.7304,-3.29199
-637,29,-35.9612,3.46118,0.0172422,0.00272313,0.00809516,0.0208562,-0.000890803,0.419882,0.0142104,0.0259184,587,995,-35.9612,-3.46117
-630,29,-35.9767,3.4563,0.0105379,0.00353592,0.00454232,0.0127719,0.00130197,0.457073,0.00811548,0.0140743,594,995,-35.9767,-3.45631
-623,29,-35.9832,3.40009,0.00518664,0.00439897,0.001463,0.00630789,0.00327773,0.653917,0.0036428,0.0120683,601,995,-35.9831,-3.40008
-616,29,-35.9903,3.27161,0.00154839,0.00455511,-0.0010505,0.00488578,0.00121773,-1.26585,0.00293667,0.0136817,608,995,-35.9903,-3.27163
-609,29,-35.9967,3.18433,-0.000800813,0.00417432,-0.00322914,0.00576294,-0.00238943,-1.1136,0.00483924,0.0201582,615,995,-35.9967,-3.1843
-602,29,-36.0515,3.04791,-0.00142238,0.00377082,-0.00515749,0.00694847,-0.00460004,-1.0186,0.00671333,0.0220293,622,995,-36.0514,-3.04789
-595,29,-36.0646,3.08997,0,0,0,0,0,0,0,-1,629,995,-36.0646,-3.08996
-588,29,-35.8762,2.14752,-0.000323235,0.0023713,-0.00714447,0.00829443,-0.00624636,-0.878591,0.00842284,0.036644,636,995,-35.8762,-2.14753
-581,29,-35.6696,1.42963,0.000204579,0.00196109,-0.00752304,0.00865696,-0.0064913,-0.843506,0.00877559,0.0414336,643,995,-35.6695,-1.42961
-574,29,-35.6512,1.02606,0.000587087,0.0014698,-0.00733751,0.00837921,-0.00632232,-0.815437,0.00851558,0.0314698,650,995,-35.6512,-1.02608
-567,29,-35.6693,0.951721,0.000748288,0.00137566,-0.0066982,0.00776752,-0.00564357,-0.808797,0.0077752,0.0323658,657,995,-35.6692,-0.951747
-560,29,-35.7797,1.10168,0.00104228,0.00122089,-0.00541006,0.00654239,-0.00427921,-0.793651,0.00629323,0.036128,664,995,-35.7797,-1.10166
-553,29,-35.7864,1.29633,0,0,0,0,0,0,0,-1,671,995,-35.7865,-1.29635
-546,29,-35.5569,0.620483,0,0,0,0,0,0,0,-1,678,995,-35.557,-0.620483
-539,29,-35.5415,0.809814,0.00360208,-0.00238768,0.00242556,0.00446111,-0.00324671,0.340374,0.00446849,0.0412637,685,995,-35.5415,-0.809816
-532,29,-35.4023,0.841492,0.00567405,-0.00505398,0.0046078,0.00738142,-0.00676134,0.354854,0.00816794,0.0450709,692,995,-35.4023,-0.841503
-525,29,-35.6169,1.33722,0.00726676,-0.00782771,0.00615615,0.00945908,-0.01002,0.342115,0.0112478,0.0439945,699,995,-35.6169,-1.33721
-518,29,0,0,0,0,0,0,0,0,0,-1,706,995,0,0
-511,29,0,0,0,0,0,0,0,0,0,-1,713,995,0,0
-504,29,0,0,0,0,0,0,0,0,0,-1,720,995,0,0
-497,29,0,0,0,0,0,0,0,0,0,-1,727,995,0,0
-490,29,0,0,0,0,0,0,0,0,0,-1,734,995,0,0
-483,29,0,0,0,0,0,0,0,0,0,-1,741,995,0,0
-476,29,0,0,0,0,0,0,0,0,0,-1,748,995,0,0
-469,29,0,0,0,0,0,0,0,0,0,-1,755,995,0,0
-462,29,0,0,0,0,0,0,0,0,0,-1,762,995,0,0
-455,29,0,0,0,0,0,0,0,0,0,-1,769,995,0,0
-448,29,0,0,0,0,0,0,0,0,0,-1,776,995,0,0
-441,29,0,0,0,0,0,0,0,0,0,-1,783,995,0,0
-434,29,0,0,0,0,0,0,0,0,0,-1,790,995,0,0
-427,29,0,0,0,0,0,0,0,0,0,-1,797,995,0,0
-420,29,0,0,0,0,0,0,0,0,0,-1,804,995,0,0
-413,29,0,0,0,0,0,0,0,0,0,-1,811,995,0,0
-406,29,0,0,0,0,0,0,0,0,0,-1,818,995,0,0
-399,29,0,0,0,0,0,0,0,0,0,-1,825,995,0,0
-392,29,0,0,0,0,0,0,0,0,0,-1,832,995,0,0
-385,29,0,0,0,0,0,0,0,0,0,-1,839,995,0,0
-378,29,0,0,0,0,0,0,0,0,0,-1,846,995,0,0
-371,29,0,0,0,0,0,0,0,0,0,-1,853,995,0,0
-364,29,0,0,0,0,0,0,0,0,0,-1,860,995,0,0
-357,29,0,0,0,0,0,0,0,0,0,-1,867,995,0,0
-350,29,0,0,0,0,0,0,0,0,0,-1,874,995,0,0
-343,29,0,0,0,0,0,0,0,0,0,-1,881,995,0,0
-336,29,0,0,0,0,0,0,0,0,0,-1,888,995,0,0
-329,29,0,0,0,0,0,0,0,0,0,-1,895,995,0,0
-322,29,0,0,0,0,0,0,0,0,0,-1,902,995,0,0
-315,29,0,0,0,0,0,0,0,0,0,-1,909,995,0,0
-308,29,0,0,0,0,0,0,0,0,0,-1,916,995,0,0
-301,29,0,0,0,0,0,0,0,0,0,-1,923,995,0,0
-294,29,0,0,0,0,0,0,0,0,0,-1,930,995,0,0
-287,29,0,0,0,0,0,0,0,0,0,-1,937,995,0,0
-280,29,0,0,0,0,0,0,0,0,0,-1,944,995,0,0
-273,29,0,0,0,0,0,0,0,0,0,-1,951,995,0,0
-266,29,0,0,0,0,0,0,0,0,0,-1,958,995,0,0
-259,29,0,0,0,0,0,0,0,0,0,-1,965,995,0,0
-252,29,0,0,0,0,0,0,0,0,0,-1,972,995,0,0
-245,29,0,0,0,0,0,0,0,0,0,-1,979,995,0,0
-238,29,0,0,0,0,0,0,0,0,0,-1,986,995,0,0
-231,29,0,0,0,0,0,0,0,0,0,-1,993,995,0,0
-224,29,0,0,0,0,0,0,0,0,0,-1,1000,995,0,0
-217,29,0,0,0,0,0,0,0,0,0,-1,1007,995,0,0
-210,29,0,0,0,0,0,0,0,0,0,-1,1014,995,0,0
-203,29,0,0,0,0,0,0,0,0,0,-1,1021,995,0,0
-196,29,0,0,0,0,0,0,0,0,0,-1,1028,995,0,0
-189,29,0,0,0,0,0,0,0,0,0,-1,1035,995,0,0
-182,29,0,0,0,0,0,0,0,0,0,-1,1042,995,0,0
-175,29,0,0,0,0,0,0,0,0,0,-1,1049,995,0,0
-168,29,0,0,0,0,0,0,0,0,0,-1,1056,995,0,0
-161,29,0,0,0,0,0,0,0,0,0,-1,1063,995,0,0
-154,29,0,0,0,0,0,0,0,0,0,-1,1070,995,0,0
-147,29,0,0,0,0,0,0,0,0,0,-1,1077,995,0,0
-140,29,0,0,0,0,0,0,0,0,0,-1,1084,995,0,0
-133,29,0,0,0,0,0,0,0,0,0,-1,1091,995,0,0
-126,29,0,0,0,0,0,0,0,0,0,-1,1098,995,0,0
-119,29,0,0,0,0,0,0,0,0,0,-1,1105,995,0,0
-112,29,0,0,0,0,0,0,0,0,0,-1,1112,995,0,0
-105,29,0,0,0,0,0,0,0,0,0,-1,1119,995,0,0
-98,29,0,0,0,0,0,0,0,0,0,-1,1126,995,0,0
-91,29,0,0,0,0,0,0,0,0,0,-1,1133,995,0,0
-84,29,0,0,0,0,0,0,0,0,0,-1,1140,995,0,0
-77,29,0,0,0,0,0,0,0,0,0,-1,1147,995,0,0
-70,29,0,0,0,0,0,0,0,0,0,-1,1154,995,0,0
-63,29,0,0,0,0,0,0,0,0,0,-1,1161,995,0,0
-56,29,0,0,0,0,0,0,0,0,0,-1,1168,995,0,0
-49,29,0,0,0,0,0,0,0,0,0,-1,1175,995,0,0
-42,29,0,0,0,0,0,0,0,0,0,-1,1182,995,0,0
-35,29,0,0,0,0,0,0,0,0,0,-1,1189,995,0,0
-28,29,0,0,0,0,0,0,0,0,0,-1,1196,995,0,0
-21,29,0,0,0,0,0,0,0,0,0,-1,1203,995,0,0
-14,29,0,0,0,0,0,0,0,0,0,-1,1210,995,0,0
-7,29,0,0,0,0,0,0,0,0,0,-1,1217,995,0,0
0,29,0,0,0,0,0,0,0,0,0,-1,1224,995,0,0
7,29,0,0,0,0,0,0,0,0,0,-1,1231,995,0,0
14,29,0,0,0,0,0,0,0,0,0,-1,1238,995,0,0
21,29,0,0,0,0,0,0,0,0,0,-1,1245,995,0,0
28,29,0,0,0,0,0,0,0,0,0,-1,1252,995,0,0
35,29,0,0,0,0,0,0,0,0,0,-1,1259,995,0,0
42,29,0,0,0,0,0,0,0,0,0,-1,1266,995,0,0
49,29,0,0,0,0,0,0,0,0,0,-1,1273,995,0,0
56,29,0,0,0,0,0,0,0,0,0,-1,1280,995,0,0
63,29,0,0,0,0,0,0,0,0,0,-1,1287,995,0,0
70,29,0,0,0,0,0,0,0,0,0,-1,1294,995,0,0
77,29,0,0,0,0,0,0,0,0,0,-1,1301,995,0,0
84,29,0,0,0,0,0,0,0,0,0,-1,1308,995,0,0
91,29,0,0,0,0,0,0,0,0,0,-1,1315,995,0,0
98,29,0,0,0,0,0,0,0,0,0,-1,1322,995,0,0
105,29,0,0,0,0,0,0,0,0,0,-1,1329,995,0,0
112,29,0,0,0,0,0,0,0,0,0,-1,1336,995,0,0
119,29,0,0,0,0,0,0,0,0,0,-1,1343,995,0,0
126,29,0,0,0,0,0,0,0,0,0,-1,1350,995,0,0
133,29,0,0,0,0,0,0,0,0,0,-1,1357,995,0,0
140,29,0,0,0,0,0,0,0,0,0,-1,1364,995,0,0
147,29,0,0,0,0,0,0,0,0,0,-1,1371,995,0,0
154,29,0,0,0,0,0,0,0,0,0,-1,1378,995,0,0
161,29,0,0,0,0,0,0,0,0,0,-1,1385,995,0,0
168,29,0,0,0,0,0,0,0,0,0,-1,1392,995,0,0
175,29,0,0,0,0,0,0,0,0,0,-1,1399,995,0,0
182,29,0,0,0,0,0,0,0,0,0,-1,1406,995,0,0
189,29,0,0,0,0,0,0,0,0,0,-1,1413,995,0,0
196,29,0,0,0,0,0,0,0,0,0,-1,1420,995,0,0
203,29,0,0,0,0,0,0,0,0,0,-1,1427,995,0,0
210,29,0,0,0,0,0,0,0,0,0,-1,1434,995,0,0
217,29,0,0,0,0,0,0,0,0,0,-1,1441,995,0,0
224,29,0,0,0,0,0,0,0,0,0,-1,1448,995,0,0
231,29,0,0,0,0,0,0,0,0,0,-1,1455,995,0,0
238,29,0,0,0,0,0,0,0,0,0,-1,1462,995,0,0
245,29,0,0,0,0,0,0,0,0,0,-1,1469,995,0,0
252,29,0,0,0,0,0,0,0,0,0,-1,1476,995,0,0
259,29,0,0,0,0,0,0,0,0,0,-1,1483,995,0,0
266,29,0,0,0,0,0,0,0,0,0,-1,1490,995,0,0
273,29,0,0,0,0,0,0,0,0,0,-1,1497,995,0,0
280,29,0,0,0,0,0,0,0,0,0,-1,1504,995,0,0
287,29,0,0,0,0,0,0,0,0,0,-1,1511,995,0,0
294,29,0,0,0,0,0,0,0,0,0,-1,1518,995,0,0
301,29,0,0,0,0,0,0,0,0,0,-1,1525,995,0,0
308,29,0,0,0,0,0,0,0,0,0,-1,1532,995,0,0
315,29,0,0,0,0,0,0,0,0,0,-1,1539,995,0,0
322,29,0,0,0,0,0,0,0,0,0,-1,1546,995,0,0
329,29,0,0,0,0,0,0,0,0,0,-1,1553,995,0,0
336,29,0,0,0,0,0,0,0,0,0,-1,1560,995,0,0
343,29,0,0,0,0,0,0,0,0,0,-1,1567,995,0,0
350,29,0,0,0,0,0,0,0,0,0,-1,1574,995,0,0
357,29,0,0,0,0,0,0,0,0,0,-1,1581,995,0,0
364,29,0,0,0,0,0,0,0,0,0,-1,1588,995,0,0
371,29,0,0,0,0,0,0,0,0,0,-1,1595,995,0,0
378,29,0,0,0,0,0,0,0,0,0,-1,1602,995,0,0
385,29,0,0,0,0,0,0,0,0,0,-1,1609,995,0,0
392,29,0,0,0,0,0,0,0,0,0,-1,1616,995,0,0
399,29,0,0,0,0,0,0,0,0,0,-1,1623,995,0,0
406,29,0,0,0,0,0,0,0,0,0,-1,1630,995,0,0
413,29,0,0,0,0,0,0,0,0,0,-1,1637,995,0,0
420,29,0,0,0,0,0,0,0,0,0,-1,1644,995,0,0
427,29,0,0,0,0,0,0,0,0,0,-1,1651,995,0,0
434,29,0,0,0,0,0,0,0,0,0,-1,1658,995,0,0
441,29,0,0,0,0,0,0,0,0,0,-1,1665,995,0,0
448,29,0,0,0,0,0,0,0,0,0,-1,1672,995,0,0
455,29,0,0,0,0,0,0,0,0,0,-1,1679,995,0,0
462,29,0,0,0,0,0,0,0,0,0,-1,1686,995,0,0
469,29,0,0,0,0,0,0,0,0,0,-1,1693,995,0,0
476,29,0,0,0,0,0,0,0,0,0,-1,1700,995,0,0
483,29,0,0,0,0,0,0,0,0,0,-1,1707,995,0,0
490,29,0,0,0,0,0,0,0,0,0,-1,1714,995,0,0
497,29,0,0,0,0,0,0,0,0,0,-1,1721,995,0,0
504,29,0,0,0,0,0,0,0,0,0,-1,1728,995,0,0
511,29,0,0,0,0,0,0,0,0,0,-1,1735,995,0,0
518,29,0,0,0,0,0,0,0,0,0,-1,1742,995,0,0
525,29,0,0,0,0,0,0,0,0,0,-1,1749,995,0,0
532,29,0,0,0,0,0,0,0,0,0,-1,1756,995,0,0
539,29,0,0,0,0,0,0,0,0,0,-1,1763,995,0,0
546,29,0,0,0,0,0,0,0,0,0,-1,1770,995,0,0
553,29,0,0,0,0,0,0,0,0,0,-1,1777,995,0,0
560,29,0,0,0,0,0,0,0,0,0,-1,1784,995,0,0
567,29,0,0,0,0,0,0,0,0,0,-1,1791,995,0,0
574,29,0,0,0,0,0,0,0,0,0,-1,1798,995,0,0
581,29,0,0,0,0,0,0,0,0,0,-1,1805,995,0,0
588,29,0,0,0,0,0,0,0,0,0,-1,1812,995,0,0
595,29,0,0,0,0,0,0,0,0,0,-1,1819,995,0,0
602,29,0,0,0,0,0,0,0,0,0,-1,1826,995,0,0
609,29,0,0,0,0,0,0,0,0,0,-1,1833,995,0,0
616,29,0,0,0,0,0,0,0,0,0,-1,1840,995,0,0
623,29,0,0,0,0,0,0,0,0,0,-1,1847,995,0,0
630,29,0,0,0,0,0,0,0,0,0,-1,1854,995,0,0
637,29,0,0,0,0,0,0,0,0,0,-1,1861,995,0,0
644,29,47.8785,2.53241,0.00320103,-0.000871449,-0.00379241,0.00546928,-0.0031397,-0.539023,0.00503069,0.0384996,1868,995,47.8785,-2.53243
651,29,47.8723,2.79309,0.0021737,-0.000578844,-0.00279054,0.0039089,-0.00231404,-0.556305,0.00363193,0.0381874,1875,995,47.8723,-2.79311
658,29,48.0201,2.85248,0.00163478,-0.000389367,-0.00194484,0.00281513,-0.00156971,-0.545485,0.0025654,0.0411666,1882,995,48.0202,-2.85249
665,29,47.9916,2.83453,0.00123148,-0.000153249,-0.00112376,0.00185904,-0.000780807,-0.509306,0.00156592,0.0414625,1889,995,47.9915,-2.83451
672,29,47.8248,2.92163,0.00092444,8.07436e-05,-0.000365777,0.00106094,-5.57526e-05,-0.357164,0.000726588,0.038498,1896,995,47.8248,-2.92161
679,29,47.8149,2.90503,0.000808491,0.000274521,0.00049978,0.00110813,-2.51171e-05,0.54008,0.000747265,0.0388363,1903,995,47.815,-2.90505
686,29,47.7664,2.82574,0.000845803,0.000226492,0.00118102,0.00175709,-0.000684791,0.657187,0.00145442,0.038783,1910,995,47.7663,-2.82575
693,29,47.8005,2.79865,0.00081129,6.51015e-05,0.0016491,0.00212897,-0.00125258,0.67415,0.00197407,0.0388138,1917,995,47.8005,-2.79864
700,29,47.9061,2.77789,0.000639615,0.000140951,0.0018686,0.00227545,-0.00149488,0.719074,0.00219229,0.0331724,1924,995,47.9061,-2.7779
707,29,47.9105,2.50269,0,0,0,0,0,0,0,-1,1931,995,47.9105,-2.50269
714,29,47.8538,3.22095,0,0,0,0,0,0,0,-1,1938,995,47.8537,-3.22095
721,29,47.5277,5.1283,0,0,0,0,0,0,0,-1,1945,995,47.5277,-5.1283
728,29,47.4828,5.42822,-0.00169938,0.00240468,0.00171062,0.00302417,-0.00231887,1.22334,0.00309375,0.0291614,1952,995,47.4828,-5.4282
735,29,47.4277,5.67236,-0.00236283,0.00318456,0.00150698,0.0035675,-0.00274577,1.32195,0.00365525,0.0166926,1959,995,47.4277,-5.67234
742,29,47.427,5.79071,-0.00339056,0.00414586,0.00140706,0.00439999,-0.00364469,1.39211,0.00465142,0.0146935,1966,995,47.427,-5.79072
749,29,47.3843,5.96466,-0.00481494,0.00558237,0.0011494,0.00570791,-0.00494049,1.462,0.00615318,0.0155281,1973,995,47.3843,-5.96465
756,29,47.3572,6.16003,-0.00644069,0.00742806,0.000884223,0.00748421,-0.00649684,1.50738,0.00807867,0.014313,1980,995,47.3571,-6.16002
763,29,47.3275,6.26855,-0.00820134,0.00988634,0.000888004,0.00992984,-0.00824483,1.52186,0.0105082,0.0124214,1987,995,47.3275,-6.26856
770,29,47.2449,6.36487,-0.00998137,0.0125935,0.00141269,0.0126816,-0.0100694,1.50854,0.0131641,0.0157019,1994,995,47.2449,-6.36486
777,29,47.1499,6.60938,-0.0115108,0.0150848,0.00252606,0.0153226,-0.0117486,1.47693,0.0156749,0.0265566,2001,995,47.15,-6.60935
784,29,47.4285,7.03424,0,0,0,0,0,0,0,-1,2008,995,47.4284,-7.03425
791,29,48.1609,5.78259,0,0,0,0,0,0,0,-1,2015,995,48.161,-5.78261
798,29,48.0076,6.79999,0,0,0,0,0,0,0,-1,2022,995,48.0076,-6.8
805,29,46.655,7.4176,0,0,0,0,0,0,0,-1,2029,995,46.655,-7.41761
812,29,47.155,4.62274,0,0,0,0,0,0,0,-1,2036,995,47.1551,-4.62272
-700,22,0,0,0,0,0,0,0,0,0,-1,524,1002,0,0
-693,22,-35.5007,1.38226,0,0,0,0,0,0,0,-1,531,1002,-35.5007,-1.38226
-686,22,-37.6119,1.30035,0,0,0,0,0,0,0,-1,538,1002,-37.6119,-1.30034
-679,22,-37.009,1.18201,0,0,0,0,0,0,0,-1,545,1002,-37.009,-1.182
-672,22,-36.3301,1.4397,0.0556289,-0.0126969,0.0221652,0.0621895,-0.0192575,0.287769,0.0491528,0.0474646,552,1002,-36.3301,-1.43967
-665,22,-35.8274,1.67432,0.0463126,-0.00793473,0.0187284,0.0521502,-0.0137724,0.302155,0.0401528,0.0427064,559,1002,-35.8274,-1.67433
-658,22,-35.1821,1.9259,0.0370916,-0.00400739,0.0155375,0.0423044,-0.00922021,0.323698,0.0317262,0.0441858,566,1002,-35.1821,-1.92593
-651,22,-35.2451,2.59296,0,0,0,0,0,0,0,-1,573,1002,-35.2451,-2.59296
-644,22,-35.7575,3.01093,0.0204509,0.00123307,0.00973842,0.0245229,-0.00283896,0.396047,0.0173724,0.0397966,580,1002,-35.7575,-3.01093
-637,22,-36.0837,3.32977,0.0142521,0.00296563,0.0064675,0.0171922,2.54661e-05,0.426678,0.011453,0.0240857,587,1002,-36.0838,-3.3298
-630,22,-36.079,3.35724,0.00895483,0.00373103,0.0032836,0.0105386,0.00214721,0.449421,0.00643065,0.0132481,594,1002,-36.079,-3.35727
-623,22,-36.108,3.31171,0.00478324,0.00442808,0.000535932,0.00517025,0.00404108,0.625417,0.00313889,0.0110961,601,1002,-36.1079,-3.31169
-616,22,-36.11,3.20996,0.00177633,0.00432825,-0.00182019,0.00527516,0.000829416,-1.0911,0.0032755,0.0167135,608,1002,-36.11,-3.20999
-609,22,-36.1572,3.17029,-0.000175343,0.00390257,-0.00376879,0.00614859,-0.00242137,-1.03336,0.00510147,0.0266027,615,1002,-36.1571,-3.17027
-602,22,-36.2652,3.06927,-0.000752722,0.00355254,-0.00556847,0.00736998,-0.00457016,-0.969838,0.00695653,0.0278533,622,1002,-36.2652,-3.06926
-595,22,-36.1124,2.93951,0,0,0,0,0,0,0,-1,629,1002,-36.1124,-2.93949
-588,22,-35.887,2.13446,0.000400077,0.00223623,-0.00733242,0.00870783,-0.00607151,-0.847678,0.00857799,0.0433165,636,1002,-35.887,-2.13444
-581,22,-35.6434,1.47717,0.000923324,0.00195564,-0.00762137,0.00907831,-0.00619934,-0.819209,0.0088726,0.0452899,643,1002,-35.6434,-1.4772
-574,22,-35.6718,1.00287,0.00120659,0.00160962,-0.00735305,0.00876391,-0.0059477,-0.799098,0.00854547,0.0366845,650,1002,-35.6718,-1.00285
-567,22,-35.6509,0.98114,0.00120606,0.00169767,-0.00659856,0.008055,-0.00515128,-0.804015,0.00768584,0.0338808,657,1002,-35.6509,-0.981137
-560,22,-35.7555,1.10266,0.00122137,0.00176899,-0.00516678,0.0066692,-0.00367885,-0.81187,0.00605703,0.0368003,664,1002,-35.7555,-1.10266
-553,22,-35.8049,1.23914,0.00132367,0.00155195,-0.00300951,0.00444948,-0.00157387,-0.804353,0.00360727,0.0402686,671,1002,-35.8049,-1.23915
-546,22,-35.6499,1.09076,0.00164231,0.000644304,-8.21678e-05,0.00164903,0.000637584,-0.0815995,0.000960191,0.0409118,678,1002,-35.6499,-1.09076
-539,22,-35.6639,0.948975,0.00224501,-0.00102835,0.00317718,0.00418229,-0.00296563,0.547556,0.00414673,0.0393909,685,1002,-35.6639,-0.948969
-532,22,-35.5473,0.791809,0.00379453,-0.00324529,0.00519505,0.00654984,-0.00600059,0.487648,0.0072483,0.0422032,692,1002,-35.5473,-0.791783
-525,22,0,0,0,0,0,0,0,0,0,-1,699,1002,0,0
-518,22,0,0,0,0,0,0,0,0,0,-1,706,1002,0,0
-511,22,0,0,0,0,0,0,0,0,0,-1,713,1002,0,0
-504,22,0,0,0,0,0,0,0,0,0,-1,720,1002,0,0
-497,22,0,0,0,0,0,0,0,0,0,-1,727,1002,0,0
-490,22,0,0,0,0,0,0,0,0,0,-1,734,1002,0,0
-483,22,0,0,0,0,0,0,0,0,0,-1,741,1002,0,0
-476,22,0,0,0,0,0,0,0,0,0,-1,748,1002,0,0
-469,22,0,0,0,0,0,0,0,0,0,-1,755,1002,0,0
-462,22,0,0,0,0,0,0,0,0,0,-1,762,1002,0,0
-455,22,0,0,0,0,0,0,0,0,0,-1,769,1002,0,0
-448,22,0,0,0,0,0,0,0,0,0,-1,776,1002,0,0
-441,22,0,0,0,0,0,0,0,0,0,-1,783,1002,0,0
-434,22,0,0,0,0,0,0,0,0,0,-1,790,1002,0,0
-427,22,0,0,0,0,0,0,0,0,0,-1,797,1002,0,0
-420,22,0,0,0,0,0,0,0,0,0,-1,804,1002,0,0
-413,22,0,0,0,0,0,0,0,0,0,-1,811,1002,0,0
-406,22,0,0,0,0,0,0,0,0,0,-1,818,1002,0,0
-399,22,0,0,0,0,0,0,0,0,0,-1,825,1002,0,0
-392,22,0,0,0,0,0,0,0,0,0,-1,832,1002,0,0
-385,22,0,0,0,0,0,0,0,0,0,-1,839,1002,0,0
-378,22,0,0,0,0,0,0,0,0,0,-1,846,1002,0,0
-371,22,0,0,0,0,0,0,0,0,0,-1,853,1002,0,0
-364,22,0,0,0,0,0,0,0,0,0,-1,860,1002,0,0
-357,22,0,0,0,0,0,0,0,0,0,-1,867,1002,0,0
-350,22,0,0,0,0,0,0,0,0,0,-1,874,1002,0,0
-343,22,0,0,0,0,0,0,0,0,0,-1,881,1002,0,0
-336,22,0,0,0,0,0,0,0,0,0,-1,888,1002,0,0
-329,22,0,0,0,0,0,0,0,0,0,-1,895,1002,0,0
-322,22,0,0,0,0,0,0,0,0,0,-1,902,1002,0,0
-315,22,0,0,0,0,0,0,0,0,0,-1,909,1002,0,0
-308,22,0,0,0,0,0,0,0,0,0,-1,916,1002,0,0
-301,22,0,0,0,0,0,0,0,0,0,-1,923,1002,0,0
-294,22,0,0,0,0,0,0,0,0,0,-1,930,1002,0,0
-287,22,0,0,0,0,0,0,0,0,0,-1,937,1002,0,0
-280,22,0,0,0,0,0,0,0,0,0,-1,944,1002,0,0
-273,22,0,0,0,0,0,0,0,0,0,-1,951,1002,0,0
-266,22,0,0,0,0,0,0,0,0,0,-1,958,1002,0,0
-259,22,0,0,0,0,0,0,0,0,0,-1,965,1002,0,0
-252,22,0,0,0,0,0,0,0,0,0,-1,972,1002,0,0
-245,22,0,0,0,0,0,0,0,0,0,-1,979,1002,0,0
-238,22,0,0,0,0,0,0,0,0,0,-1,986,1002,0,0
-231,22,0,0,0,0,0,0,0,0,0,-1,993,1002,0,0
-224,22,0,0,0,0,0,0,0,0,0,-1,1000,1002,0,0
-217,22,0,0,0,0,0,0,0,0,0,-1,1007,1002,0,0
-210,22,0,0,0,0,0,0,0,0,0,-1,1014,1002,0,0
-203,22,0,0,0,0,0,0,0,0,0,-1,1021,1002,0,0
-196,22,0,0,0,0,0,0,0,0,0,-1,1028,1002,0,0
-189,22,0,0,0,0,0,0,0,0,0,-1,1035,1002,0,0
-182,22,0,0,0,0,0,0,0,0,0,-1,1042,1002,0,0
-175,22,0,0,0,0,0,0,0,0,0,-1,1049,1002,0,0
-168,22,0,0,0,0,0,0,0,0,0,-1,1056,1002,0,0
-161,22,0,0,0,0,0,0,0,0,0,-1,1063,1002,0,0
-154,22,0,0,0,0,0,0,0,0,0,-1,1070,1002,0,0
-147,22,0,0,0,0,0,0,0,0,0,-1,1077,1002,0,0
-140,22,0,0,0,0,0,0,0,0,0,-1,1084,1002,0,0
-133,22,0,0,0,0,0,0,0,0,0,-1,1091,1002,0,0
-126,22,0,0,0,0,0,0,0,0,0,-1,1098,1002,0,0
-119,22,0,0,0,0,0,0,0,0,0,-1,1105,1002,0,0
-112,22,0,0,0,0,0,0,0,0,0,-1,1112,1002,0,0
-105,22,0,0,0,0,0,0,0,0,0,-1,1119,1002,0,0
-98,22,0,0,0,0,0,0,0,0,0,-1,1126,1002,0,0
-91,22,0,0,0,0,0,0,0,0,0,-1,1133,1002,0,0
-84,22,0,0,0,0,0,0,0,0,0,-1,1140,1002,0,0
-77,22,0,0,0,0,0,0,0,0,0,-1,1147,1002,0,0
-70,22,0,0,0,0,0,0,0,0,0,-1,1154,1002,0,0
-63,22,0,0,0,0,0,0,0,0,0,-1,1161,1002,0,0
-56,22,0,0,0,0,0,0,0,0,0,-1,1168,1002,0,0
-49,22,0,0,0,0,0,0,0,0,0,-1,1175,1002,0,0
-42,22,0,0,0,0,0,0,0,0,0,-1,1182,1002,0,0
-35,22,0,0,0,0,0,0,0,0,0,-1,1189,1002,0,0
-28,22,0,0,0,0,0,0,0,0,0,-1,1196,1002,0,0
-21,22,0,0,0,0,0,0,0,0,0,-1,1203,1002,0,0
-14,22,0,0,0,0,0,0,0,0,0,-1,1210,1002,0,0
-7,22,0,0,0,0,0,0,0,0,0,-1,1217,1002,0,0
0,22,0,0,0,0,0,0,0,0,0,-1,1224,1002,0,0
7,22,0,0,0,0,0,0,0,0,0,-1,1231,1002,0,0
14,22,0,0,0,0,0,0,0,0,0,-1,1238,1002,0,0
21,22,0,0,0,0,0,0,0,0,0,-1,1245,1002,0,0
28,22,0,0,0,0,0,0,0,0,0,-1,1252,1002,0,0
35,22,0,0,0,0,0,0,0,0,0,-1,1259,1002,0,0
42,22,0,0,0,0,0,0,0,0,0,-1,1266,1002,0,0
49,22,0,0,0,0,0,0,0,0,0,-1,1273,1002,0,0
56,22,0,0,0,0,0,0,0,0,0,-1,1280,1002,0,0
63,22,0,0,0,0,0,0,0,0,0,-1,1287,1002,0,0
70,22,0,0,0,0,0,0,0,0,0,-1,1294,1002,0,0
77,22,0,0,0,0,0,0,0,0,0,-1,1301,1002,0,0
84,22,0,0,0,0,0,0,0,0,0,-1,1308,1002,0,0
91,22,0,0,0,0,0,0,0,0,0,-1,1315,1002,0,0
98,22,0,0,0,0,0,0,0,0,0,-1,1322,1002,0,0
105,22,0,0,0,0,0,0,0,0,0,-1,1329,1002,0,0
112,22,0,0,0,0,0,0,0,0,0,-1,1336,1002,0,0
119,22,0,0,0,0,0,0,0,0,0,-1,1343,1002,0,0
126,22,0,0,0,0,0,0,0,0,0,-1,1350,1002,0,0
133,22,0,0,0,0,0,0,0,0,0,-1,1357,1002,0,0
140,22,0,0,0,0,0,0,0,0,0,-1,1364,1002,0,0
147,22,0,0,0,0,0,0,0,0,0,-1,1371,1002,0,0
154,22,0,0,0,0,0,0,0,0,0,-1,1378,1002,0,0
161,22,0,0,0,0,0,0,0,0,0,-1,1385,1002,0,0
168,22,0,0,0,0,0,0,0,0,0,-1,1392,1002,0,0
175,22,0,0,0,0,0,0,0,0,0,-1,1399,1002,0,0
182,22,0,0,0,0,0,0,0,0,0,-1,1406,1002,0,0
189,22,0,0,0,0,0,0,0,0,0,-1,1413,1002,0,0
196,22,0,0,0,0,0,0,0,0,0,-1,1420,1002,0,0
203,22,0,0,0,0,0,0,0,0,0,-1,1427,1002,0,0
210,22,0,0,0,0,0,0,0,0,0,-1,1434,1002,0,0
217,22,0,0,0,0,0,0,0,0,0,-1,1441,1002,0,0
224,22,0,0,0,0,0,0,0,0,0,-1,1448,1002,0,0
231,22,0,0,0,0,0,0,0,0,0,-1,1455,1002,0,0
238,22,0,0,0,0,0,0,0,0,0,-1,1462,1002,0,0
245,22,0,0,0,0,0,0,0,0,0,-1,1469,1002,0,0
252,22,0,0,0,0,0,0,0,0,0,-1,1476,1002,0,0
259,22,0,0,0,0,0,0,0,0,0,-1,1483,1002,0,0
266,22,0,0,0,0,0,0,0,0,0,-1,1490,1002,0,0
273,22,0,0,0,0,0,0,0,0,0,-1,1497,1002,0,0
280,22,0,0,0,0,0,0,0,0,0,-1,1504,1002,0,0
287,22,0,0,0,0,0,0,0,0,0,-1,1511,1002,0,0
294,22,0,0,0,0,0,0,0,0,0,-1,1518,1002,0,0
301,22,0,0,0,0,0,0,0,0,0,-1,1525,1002,0,0
308,22,0,0,0,0,0,0,0,0,0,-1,1532,1002,0,0
315,22,0,0,0,0,0,0,0,0,0,-1,1539,1002,0,0
322,22,0,0,0,0,0,0,0,0,0,-1,1546,1002,0,0
329,22,0,0,0,0,0,0,0,0,0,-1,1553,1002,0,0
336,22,0,0,0,0,0,0,0,0,0,-1,1560,1002,0,0
343,22,0,0,0,0,0,0,0,0,0,-1,1567,1002,0,0
350,22,0,0,0,0,0,0,0,0,0,-1,1574,1002,0,0
357,22,0,0,0,0,0,0,0,0,0,-1,1581,1002,0,0
364,22,0,0,0,0,0,0,0,0,0,-1,1588,1002,0,0
371,22,0,0,0,0,0,0,0,0,0,-1,1595,1002,0,0
378,22,0,0,0,0,0,0,0,0,0,-1,1602,1002,0,0
385,22,0,0,0,0,0,0,0,0,0,-1,1609,1002,0,0
392,22,0,0,0,0,0,0,0,0,0,-1,1616,1002,0,0
399,22,0,0,0,0,0,0,0,0,0,-1,1623,1002,0,0
406,22,0,0,0,0,0,0,0,0,0,-1,1630,1002,0,0
413,22,0,0,0,0,0,0,0,0,0,-1,1637,1002,0,0
420,22,0,0,0,0,0,0,0,0,0,-1,1644,1002,0,0
427,22,0,0,0,0,0,0,0,0,0,-1,1651,1002,0,0
434,22,0,0,0,0,0,0,0,0,0,-1,1658,1002,0,0
441,22,0,0,0,0,0,0,0,0,0,-1,1665,1002,0,0
448,22,0,0,0,0,0,0,0,0,0,-1,1672,1002,0,0
455,22,0,0,0,0,0,0,0,0,0,-1,1679,1002,0,0
462,22,0,0,0,0,0,0,0,0,0,-1,1686,1002,0,0
469,22,0,0,0,0,0,0,0,0,0,-1,1693,1002,0,0
476,22,0,0,0,0,0,0,0,0,0,-1,1700,1002,0,0
483,22,0,0,0,0,0,0,0,0,0,-1,1707,1002,0,0
490,22,0,0,0,0,0,0,0,0,0,-1,1714,1002,0,0
497,22,0,0,0,0,0,0,0,0,0,-1,1721,1002,0,0
504,22,0,0,0,0,0,0,0,0,0,-1,1728,1002,0,0
511,22,0,0,0,0,0,0,0,0,0,-1,1735,1002,0,0
518,22,0,0,0,0,0,0,0,0,0,-1,1742,1002,0,0
525,22,0,0,0,0,0,0,0,0,0,-1,1749,1002,0,0
532,22,0,0,0,0,0,0,0,0,0,-1,1756,1002,0,0
539,22,0,0,0,0,0,0,0,0,0,-1,1763,1002,0,0
546,22,0,0,0,0,0,0,0,0,0,-1,1770,1002,0,0
553,22,0,0,0,0,0,0,0,0,0,-1,1777,1002,0,0
560,22,0,0,0,0,0,0,0,0,0,-1,1784,1002,0,0
567,22,0,0,0,0,0,0,0,0,0,-1,1791,1002,0,0
574,22,0,0,0,0,0,0,0,0,0,-1,1798,1002,0,0
581,22,0,0,0,0,0,0,0,0,0,-1,1805,1002,0,0
588,22,0,0,0,0,0,0,0,0,0,-1,1812,1002,0,0
595,22,0,0,0,0,0,0,0,0,0,-1,1819,1002,0,0
602,22,0,0,0,0,0,0,0,0,0,-1,1826,1002,0,0
609,22,0,0,0,0,0,0,0,0,0,-1,1833,1002,0,0
616,22,0,0,0,0,0,0,0,0,0,-1,1840,1002,0,0
623,22,0,0,0,0,0,0,0,0,0,-1,1847,1002,0,0
630,22,0,0,0,0,0,0,0,0,0,-1,1854,1002,0,0
637,22,0,0,0,0,0,0,0,0,0,-1,1861,1002,0,0
644,22,47.7904,2.51831,0.00275011,-0.00184934,-0.00423675,0.00527105,-0.00437028,-0.536747,0.00557452,0.0372684,1868,1002,47.7904,-2.51828
651,22,47.8538,2.61963,0.00184933,-0.00106669,-0.00309844,0.00381566,-0.00303302,-0.565488,0.00396269,0.0386219,1875,1002,47.8537,-2.61964
658,22,47.9741,2.69641,0.00139516,-0.000568524,-0.00218888,0.00281232,-0.00198568,-0.57457,0.0027838,0.0414854,1882,1002,47.9741,-2.69643
665,22,47.8669,2.90991,0.0010574,-0.000155788,-0.00133433,0.00191655,-0.00101494,-0.572059,0.00171897,0.0409649,1889,1002,47.8669,-2.90992
672,22,47.8267,2.8233,0.00081337,0.000188313,-0.000558888,0.00114118,-0.000139495,-0.53046,0.00081129,0.0380911,1896,1002,47.8266,-2.82331
679,22,47.8608,2.8371,0.000730784,0.000449477,0.000331255,0.00095001,0.000230251,0.584629,0.000572244,0.0378041,1903,1002,47.8608,-2.83711
686,22,47.8794,2.82117,0.00075118,0.000410176,0.00106843,0.00166262,-0.000501267,0.706274,0.00130793,0.038819,1910,1002,47.8794,-2.82119
693,22,47.885,2.84497,0.000709759,0.000211059,0.00161732,0.00209684,-0.00117602,0.708913,0.00191436,0.0382031,1917,1002,47.885,-2.84496
700,22,48.0111,2.67377,0.000550396,0.000256912,0.0019062,0.0023155,-0.00150819,0.746983,0.00222395,0.0323148,1924,1002,48.0111,-2.67377
707,22,47.8888,2.7262,0.000308057,0.000393828,0.00207806,0.00242944,-0.00172756,0.795715,0.00241142,0.0261487,1931,1002,47.8887,-2.72619
714,22,47.8778,2.8739,-0.000211344,0.000778727,0.00215214,0.00249203,-0.00192465,0.898442,0.00255697,0.0335082,1938,1002,47.8778,-2.8739
721,22,47.6613,4.3125,0,0,0,0,0,0,0,-1,1945,1002,47.6612,-4.31247
728,22,47.5491,5.18152,-0.00187418,0.00238407,0.00194187,0.00313662,-0.00262673,1.20108,0.00333181,0.0439312,1952,1002,47.5491,-5.18151
735,22,47.6084,5.74023,-0.00259281,0.00315152,0.00175104,0.0036432,-0.00308449,1.29705,0.0038887,0.0160188,1959,1002,47.6084,-5.74023
742,22,47.6017,5.84766,-0.00365018,0.00408404,0.00164606,0.00441979,-0.00398593,1.36958,0.0048552,0.0173662,1966,1002,47.6017,-5.84765
749,22,47.5406,5.96613,-0.00505861,0.00547223,0.00137596,0.00564904,-0.00523543,1.44299,0.00628567,0.0137264,1973,1002,47.5406,-5.96612
756,22,47.5398,6.06427,-0.00667291,0.00728246,0.00104746,0.00736065,-0.00675109,1.49629,0.00814995,0.0182533,1980,1002,47.5398,-6.06427
763,22,47.4669,6.21661,-0.0084739,0.00977243,0.00084828,0.00981178,-0.00851325,1.52444,0.0105888,0.0194817,1987,1002,47.4669,-6.21664
770,22,47.3308,6.30695,-0.0103515,0.0125516,0.00106921,0.0126014,-0.0104013,1.52425,0.0133008,0.017297,1994,1002,47.3308,-6.30692
777,22,47.0896,6.32166,-0.0119846,0.0152046,0.00178666,0.0153215,-0.0121015,1.50546,0.015869,0.0359591,2001,1002,47.0895,-6.32166
784,22,47.8906,5.26184,0,0,0,0,0,0,0,-1,2008,1002,47.8907,-5.26187
791,22,47.688,5.92493,-0.0135092,0.0194762,0.00620772,0.0206058,-0.0146388,1.3908,0.0204455,0.0461683,2015,1002,47.6879,-5.92494
798,22,47.5715,6.71893,0,0,0,0,0,0,0,-1,2022,1002,47.5716,-6.71894
805,22,47.7983,7.64246,0,0,0,0,0,0,0,-1,2029,1002,47.7983,-7.64245
812,22,46.6714,4.56311,0,0,0,0,0,0,0,-1,2036,1002,46.6713,-4.56312
-700,15,0,0,0,0,0,0,0,0,0,-1,524,1009,0,0
-693,15,-35.6092,1.51855,0.0432029,-0.0257845,0.0304257,0.0547042,-0.0372858,0.361409,0.0534269,0.0454942,531,1009,-35.6092,-1.51853
-686,15,-35.6998,1.93719,0,0,0,0,0,0,0,-1,538,1009,-35.6998,-1.93721
-679,15,-35.9091,1.91846,0.0476383,-0.0138169,0.0232689,0.0554546,-0.0216332,0.324067,0.0459123,0.0471085,545,1009,-35.9091,-1.91845
-672,15,-36.1426,1.80261,0.0423338,-0.00853704,0.019903,0.0491953,-0.0153985,0.331986,0.0389577,0.0455629,552,1009,-36.1427,-1.8026
-665,15,-36.1196,1.68976,0.0358284,-0.00418143,0.0167127,0.0418909,-0.0102439,0.347987,0.031895,0.0417332,559,1009,-36.1196,-1.68975
-658,15,-35.6337,2.29742,0.0289986,-0.000815379,0.0137492,0.0343711,-0.00618789,0.372508,0.0252309,0.0465637,566,1009,-35.6337,-2.2974
-651,15,-34.8553,2.67267,0,0,0,0,0,0,0,-1,573,1009,-34.8554,-2.6727
-644,15,-36.0715,3.2439,0,0,0,0,0,0,0,-1,580,1009,-36.0715,-3.24387
-637,15,-36.0518,3.27747,0.0112721,0.00454444,0.00527579,0.0141652,0.00165132,0.501596,0.00894397,0.0271418,587,1009,-36.0517,-3.27745
-630,15,-36.0955,3.27679,0.00727837,0.00479381,0.00227279,0.00862623,0.00344595,0.535288,0.0050138,0.014612,594,1009,-36.0954,-3.27679
-623,15,-36.1567,3.25214,0.00422693,0.00495064,-0.000269614,0.00504004,0.00413753,-1.25062,0.00310325,0.00964423,601,1009,-36.1567,-3.25212
-616,15,-36.1736,3.21936,0.00195702,0.00437927,-0.00246573,0.00591526,0.00042103,-1.01368,0.00381092,0.0141125,608,1009,-36.1736,-3.21937
-609,15,-36.1966,3.19879,0.000506173,0.00368458,-0.00419494,0.00658125,-0.0023905,-0.966464,0.0053649,0.0212591,615,1009,-36.1966,-3.19879
-602,15,-36.2574,3.12268,5.5886e-05,0.00325555,-0.00582829,0.00769959,-0.00438815,-0.919346,0.00706562,0.0224279,622,1009,-36.2574,-3.1227
-595,15,-36.0704,2.45056,0,0,0,0,0,0,0,-1,629,1009,-36.0705,-2.45053
-588,15,-35.8737,1.89624,0,0,0,0,0,0,0,-1,636,1009,-35.8737,-1.89621
-581,15,-35.644,1.00232,0.00183022,0.0017669,-0.00746818,0.00926681,-0.00566969,-0.783279,0.00870655,0.0408986,643,1009,-35.644,-1.00229
-574,15,-35.6741,0.864746,0.001984,0.0015478,-0.0071169,0.00888614,-0.00535434,-0.77008,0.0083056,0.0366091,650,1009,-35.6741,-0.864773
-567,15,-35.6456,0.920227,0.00178355,0.00179572,-0.00626999,0.00805963,-0.00448036,-0.785883,0.00733761,0.0348967,657,1009,-35.6456,-0.920256
-560,15,-35.6401,1.09155,0.00142171,0.00211424,-0.00473625,0.00651687,-0.00298091,-0.821888,0.00560879,0.0375556,664,1009,-35.6401,-1.09156
-553,15,-35.6567,1.07825,0.000916418,0.00223975,-0.00245451,0.00412022,-0.000964048,-0.917054,0.00311824,0.0402742,671,1009,-35.6567,-1.07826
-546,15,-35.6262,1.00476,0.000362044,0.0017719,0.000623579,0.00200813,0.000125816,1.20868,0.00129885,0.0412676,678,1009,-35.6261,-1.00478
-539,15,-35.5917,1.10736,0,0,0,0,0,0,0,-1,685,1009,-35.5917,-1.10738
-532,15,-35.7538,0.922607,0,0,0,0,0,0,0,-1,692,1009,-35.7539,-0.922596
-525,15,0,0,0,0,0,0,0,0,0,-1,699,1009,0,0
-518,15,0,0,0,0,0,0,0,0,0,-1,706,1009,0,0
-511,15,0,0,0,0,0,0,0,0,0,-1,713,1009,0,0
-504,15,0,0,0,0,0,0,0,0,0,-1,720,1009,0,0
-497,15,0,0,0,0,0,0,0,0,0,-1,727,1009,0,0
-490,15,0,0,0,0,0,0,0,0,0,-1,734,1009,0,0
-483,15,0,0,0,0,0,0,0,0,0,-1,741,1009,0,0
-476,15,0,0,0,0,0,0,0,0,0,-1,748,1009,0,0
-469,15,0,0,0,0,0,0,0,0,0,-1,755,1009,0,0
-462,15,0,0,0,0,0,0,0,0,0,-1,762,1009,0,0
-455,15,0,0,0,0,0,0,0,0,0,-1,769,1009,0,0
-448,15,0,0,0,0,0,0,0,0,0,-1,776,1009,0,0
-441,15,0,0,0,0,0,0,0,0,0,-1,783,1009,0,0
-434,15,0,0,0,0,0,0,0,0,0,-1,790,1009,0,0
-427,15,0,0,0,0,0,0,0,0,0,-1,797,1009,0,0
-420,15,0,0,0,0,0,0,0,0,0,-1,804,1009,0,0
-413,15,0,0,0,0,0,0,0,0,0,-1,811,1009,0,0
-406,15,0,0,0,0,0,0,0,0,0,-1,818,1009,0,0
-399,15,0,0,0,0,0,0,0,0,0,-1,825,1009,0,0
-392,15,0,0,0,0,0,0,0,0,0,-1,832,1009,0,0
-385,15,0,0,0,0,0,0,0,0,0,-1,839,1009,0,0
-378,15,0,0,0,0,0,0,0,0,0,-1,846,1009,0,0
-371,15,0,0,0,0,0,0,0,0,0,-1,853,1009,0,0
-364,15,0,0,0,0,0,0,0,0,0,-1,860,1009,0,0
-357,15,0,0,0,0,0,0,0,0,0,-1,867,1009,0,0
-350,15,0,0,0,0,0,0,0,0,0,-1,874,1009,0,0
-343,15,0,0,0,0,0,0,0,0,0,-1,881,1009,0,0
-336,15,0,0,0,0,0,0,0,0,0,-1,888,1009,0,0
-329,15,0,0,0,0,0,0,0,0,0,-1,895,1009,0,0
-322,15,0,0,0,0,0,0,0,0,0,-1,902,1009,0,0
-315,15,0,0,0,0,0,0,0,0,0,-1,909,1009,0,0
-308,15,0,0,0,0,0,0,0,0,0,-1,916,1009,0,0
-301,15,0,0,0,0,0,0,0,0,0,-1,923,1009,0,0
-294,15,0,0,0,0,0,0,0,0,0,-1,930,1009,0,0
-287,15,0,0,0,0,0,0,0,0,0,-1,937,1009,0,0
-280,15,0,0,0,0,0,0,0,0,0,-1,944,1009,0,0
-273,15,0,0,0,0,0,0,0,0,0,-1,951,1009,0,0
-266,15,0,0,0,0,0,0,0,0,0,-1,958,1009,0,0
-259,15,0,0,0,0,0,0,0,0,0,-1,965,1009,0,0
-252,15,0,0,0,0,0,0,0,0,0,-1,972,1009,0,0
-245,15,0,0,0,0,0,0,0,0,0,-1,979,1009,0,0
-238,15,0,0,0,0,0,0,0,0,0,-1,986,1009,0,0
-231,15,0,0,0,0,0,0,0,0,0,-1,993,1009,0,0
-224,15,0,0,0,0,0,0,0,0,0,-1,1000,1009,0,0
-217,15,0,0,0,0,0,0,0,0,0,-1,1007,1009,0,0
-210,15,0,0,0,0,0,0,0,0,0,-1,1014,1009,0,0
-203,15,0,0,0,0,0,0,0,0,0,-1,1021,1009,0,0
-196,15,0,0,0,0,0,0,0,0,0,-1,1028,1009,0,0
-189,15,0,0,0,0,0,0,0,0,0,-1,1035,1009,0,0
-182,15,0,0,0,0,0,0,0,0,0,-1,1042,1009,0,0
-175,15,0,0,0,0,0,0,0,0,0,-1,1049,1009,0,0
-168,15,0,0,0,0,0,0,0,0,0,-1,1056,1009,0,0
-161,15,0,0,0,0,0,0,0,0,0,-1,1063,1009,0,0
-154,15,0,0,0,0,0,0,0,0,0,-1,1070,1009,0,0
-147,15,0,0,0,0,0,0,0,0,0,-1,1077,1009,0,0
-140,15,0,0,0,0,0,0,0,0,0,-1,1084,1009,0,0
-133,15,0,0,0,0,0,0,0,0,0,-1,1091,1009,0,0
-126,15,0,0,0,0,0,0,0,0,0,-1,1098,1009,0,0
-119,15,0,0,0,0,0,0,0,0,0,-1,1105,1009,0,0
-112,15,0,0,0,0,0,0,0,0,0,-1,1112,1009,0,0
-105,15,0,0,0,0,0,0,0,0,0,-1,1119,1009,0,0
-98,15,0,0,0,0,0,0,0,0,0,-1,1126,1009,0,0
-91,15,0,0,0,0,0,0,0,0,0,-1,1133,1009,0,0
-84,15,0,0,0,0,0,0,0,0,0,-1,1140,1009,0,0
-77,15,0,0,0,0,0,0,0,0,0,-1,1147,1009,0,0
-70,15,0,0,0,0,0,0,0,0,0,-1,1154,1009,0,0
-63,15,0,0,0,0,0,0,0,0,0,-1,1161,1009,0,0
-56,15,0,0,0,0,0,0,0,0,0,-1,1168,1009,0,0
-49,15,0,0,0,0,0,0,0,0,0,-1,1175,1009,0,0
-42,15,0,0,0,0,0,0,0,0,0,-1,1182,1009,0,0
-35,15,0,0,0,0,0,0,0,0,0,-1,1189,1009,0,0
-28,15,0,0,0,0,0,0,0,0,0,-1,1196,1009,0,0
-21,15,0,0,0,0,0,0,0,0,0,-1,1203,1009,0,0
-14,15,0,0,0,0,0,0,0,0,0,-1,1210,1009,0,0
-7,15,0,0,0,0,0,0,0,0,0,-1,1217,1009,0,0
0,15,0,0,0,0,0,0,0,0,0,-1,1224,1009,0,0
7,15,0,0,0,0,0,0,0,0,0,-1,1231,1009,0,0
14,15,0,0,0,0,0,0,0,0,0,-1,1238,1009,0,0
21,15,0,0,0,0,0,0,0,0,0,-1,1245,1009,0,0
28,15,0,0,0,0,0,0,0,0,0,-1,1252,1009,0,0
35,15,0,0,0,0,0,0,0,0,0,-1,1259,1009,0,0
42,15,0,0,0,0,0,0,0,0,0,-1,1266,1009,0,0
49,15,0,0,0,0,0,0,0,0,0,-1,1273,1009,0,0
56,15,0,0,0,0,0,0,0,0,0,-1,1280,1009,0,0
63,15,0,0,0,0,0,0,0,0,0,-1,1287,1009,0,0
70,15,0,0,0,0,0,0,0,0,0,-1,1294,1009,0,0
77,15,0,0,0,0,0,0,0,0,0,-1,1301,1009,0,0
84,15,0,0,0,0,0,0,0,0,0,-1,1308,1009,0,0
91,15,0,0,0,0,0,0,0,0,0,-1,1315,1009,0,0
98,15,0,0,0,0,0,0,0,0,0,-1,1322,1009,0,0
105,15,0,0,0,0,0,0,0,0,0,-1,1329,1009,0,0
112,15,0,0,0,0,0,0,0,0,0,-1,1336,1009,0,0
119,15,0,0,0,0,0,0,0,0,0,-1,1343,1009,0,0
126,15,0,0,0,0,0,0,0,0,0,-1,1350,1009,0,0
133,15,0,0,0,0,0,0,0,0,0,-1,1357,1009,0,0
140,15,0,0,0,0,0,0,0,0,0,-1,1364,1009,0,0
147,15,0,0,0,0,0,0,0,0,0,-1,1371,1009,0,0
154,15,0,0,0,0,0,0,0,0,0,-1,1378,1009,0,0
161,15,0,0,0,0,0,0,0,0,0,-1,1385,1009,0,0
168,15,0,0,0,0,0,0,0,0,0,-1,1392,1009,0,0
175,15,0,0,0,0,0,0,0,0,0,-1,1399,1009,0,0
182,15,0,0,0,0,0,0,0,0,0,-1,1406,1009,0,0
189,15,0,0,0,0,0,0,0,0,0,-1,1413,1009,0,0
196,15,0,0,0,0,0,0,0,0,0,-1,1420,1009,0,0
203,15,0,0,0,0,0,0,0,0,0,-1,1427,1009,0,0
210,15,0,0,0,0,0,0,0,0,0,-1,1434,1009,0,0
217,15,0,0,0,0,0,0,0,0,0,-1,1441,1009,0,0
224,15,0,0,0,0,0,0,0,0,0,-1,1448,1009,0,0
231,15,0,0,0,0,0,0,0,0,0,-1,1455,1009,0,0
238,15,0,0,0,0,0,0,0,0,0,-1,1462,1009,0,0
245,15,0,0,0,0,0,0,0,0,0,-1,1469,1009,0,0
252,15,0,0,0,0,0,0,0,0,0,-1,1476,1009,0,0
259,15,0,0,0,0,0,0,0,0,0,-1,1483,1009,0,0
266,15,0,0,0,0,0,0,0,0,0,-1,1490,1009,0,0
273,15,0,0,0,0,0,0,0,0,0,-1,1497,1009,0,0
280,15,0,0,0,0,0,0,0,0,0,-1,1504,1009,0,0
287,15,0,0,0,0,0,0,0,0,0,-1,1511,1009,0,0
294,15,0,0,0,0,0,0,0,0,0,-1,1518,1009,0,0
301,15,0,0,0,0,0,0,0,0,0,-1,1525,1009,0,0
308,15,0,0,0,0,0,0,0,0,0,-1,1532,1009,0,0
315,15,0,0,0,0,0,0,0,0,0,-1,1539,1009,0,0
322,15,0,0,0,0,0,0,0,0,0,-1,1546,1009,0,0
329,15,0,0,0,0,0,0,0,0,0,-1,1553,1009,0,0
336,15,0,0,0,0,0,0,0,0,0,-1,1560,1009,0,0
343,15,0,0,0,0,0,0,0,0,0,-1,1567,1009,0,0
350,15,0,0,0,0,0,0,0,0,0,-1,1574,1009,0,0
357,15,0,0,0,0,0,0,0,0,0,-1,1581,1009,0,0
364,15,0,0,0,0,0,0,0,0,0,-1,1588,1009,0,0
371,15,0,0,0,0,0,0,0,0,0,-1,1595,1009,0,0
378,15,0,0,0,0,0,0,0,0,0,-1,1602,1009,0,0
385,15,0,0,0,0,0,0,0,0,0,-1,1609,1009,0,0
392,15,0,0,0,0,0,0,0,0,0,-1,1616,1009,0,0
399,15,0,0,0,0,0,0,0,0,0,-1,1623,1009,0,0
406,15,0,0,0,0,0,0,0,0,0,-1,1630,1009,0,0
413,15,0,0,0,0,0,0,0,0,0,-1,1637,1009,0,0
420,15,0,0,0,0,0,0,0,0,0,-1,1644,1009,0,0
427,15,0,0,0,0,0,0,0,0,0,-1,1651,1009,0,0
434,15,0,0,0,0,0,0,0,0,0,-1,1658,1009,0,0
441,15,0,0,0,0,0,0,0,0,0,-1,1665,1009,0,0
448,15,0,0,0,0,0,0,0,0,0,-1,1672,1009,0,0
455,15,0,0,0,0,0,0,0,0,0,-1,1679,1009,0,0
462,15,0,0,0,0,0,0,0,0,0,-1,1686,1009,0,0
469,15,0,0,0,0,0,0,0,0,0,-1,1693,1009,0,0
476,15,0,0,0,0,0,0,0,0,0,-1,1700,1009,0,0
483,15,0,0,0,0,0,0,0,0,0,-1,1707,1009,0,0
490,15,0,0,0,0,0,0,0,0,0,-1,1714,1009,0,0
497,15,0,0,0,0,0,0,0,0,0,-1,1721,1009,0,0
504,15,0,0,0,0,0,0,0,0,0,-1,1728,1009,0,0
511,15,0,0,0,0,0,0,0,0,0,-1,1735,1009,0,0
518,15,0,0,0,0,0,0,0,0,0,-1,1742,1009,0,0
525,15,0,0,0,0,0,0,0,0,0,-1,1749,1009,0,0
532,15,0,0,0,0,0,0,0,0,0,-1,1756,1009,0,0
539,15,0,0,0,0,0,0,0,0,0,-1,1763,1009,0,0
546,15,0,0,0,0,0,0,0,0,0,-1,1770,1009,0,0
553,15,0,0,0,0,0,0,0,0,0,-1,1777,1009,0,0
560,15,0,0,0,0,0,0,0,0,0,-1,1784,1009,0,0
567,15,0,0,0,0,0,0,0,0,0,-1,1791,1009,0,0
574,15,0,0,0,0,0,0,0,0,0,-1,1798,1009,0,0
581,15,0,0,0,0,0,0,0,0,0,-1,1805,1009,0,0
588,15,0,0,0,0,0,0,0,0,0,-1,1812,1009,0,0
595,15,0,0,0,0,0,0,0,0,0,-1,1819,1009,0,0
602,15,0,0,0,0,0,0,0,0,0,-1,1826,1009,0,0
609,15,0,0,0,0,0,0,0,0,0,-1,1833,1009,0,0
616,15,0,0,0,0,0,0,0,0,0,-1,1840,1009,0,0
623,15,0,0,0,0,0,0,0,0,0,-1,1847,1009,0,0
630,15,0,0,0,0,0,0,0,0,0,-1,1854,1009,0,0
637,15,0,0,0,0,0,0,0,0,0,-1,1861,1009,0,0
644,15,47.8243,2.94415,0.00199284,-0.00283305,-0.00476386,0.00491999,-0.0057602,-0.550977,0.00617257,0.0388481,1868,1009,47.8243,-2.94413
651,15,47.9174,2.63049,0.00126907,-0.00160493,-0.00345541,0.00357437,-0.00391023,-0.588342,0.00432268,0.03812,1875,1009,47.9174,-2.63049
658,15,47.8558,2.64343,0.000939986,-0.000809116,-0.00244655,0.0026636,-0.00253273,-0.613744,0.00300042,0.039219,1882,1009,47.8559,-2.64344
665,15,47.7959,2.7157,0.000696709,-0.000223339,-0.00152986,0.00183422,-0.00136085,-0.639351,0.00185141,0.0396045,1889,1009,47.796,-2.71571
672,15,47.7977,2.8855,0.000543956,0.000238848,-0.000709334,0.00111696,-0.000334151,-0.679478,0.000877491,0.0380386,1896,1009,47.7977,-2.88547
679,15,47.946,2.76282,0.000534253,0.000581141,0.000219758,0.000778702,0.000336691,0.838538,0.000450952,0.0382861,1903,1009,47.9461,-2.76282
686,15,48.0405,2.81299,0.00058493,0.000566759,0.00100947,0.00158536,-0.000433667,0.780898,0.00122727,0.042009,1910,1009,48.0406,-2.81298
693,15,48.0322,2.74951,0.000577753,0.00034606,0.00163841,0.00210441,-0.00118059,0.750104,0.00192143,0.0417341,1917,1009,48.0322,-2.74951
700,15,47.9854,2.72467,0.000465765,0.000355491,0.00199556,0.00240695,-0.00158569,0.771587,0.00232135,0.0316091,1924,1009,47.9854,-2.72465
707,15,47.9065,2.78088,0.000263925,0.000435766,0.00220897,0.00256048,-0.00186079,0.804837,0.00256325,0.0248507,1931,1009,47.9065,-2.78089
714,15,47.9028,2.80261,-0.000217738,0.000782714,0.00231456,0.00265049,-0.00208551,0.891822,0.00274081,0.02405,1938,1009,47.9028,-2.80259
721,15,47.7054,3.83936,0,0,0,0,0,0,0,-1,1945,1009,47.7054,-3.83935
728,15,47.5037,5.23883,-0.0019736,0.00237533,0.00217103,0.0032736,-0.00287187,1.17849,0.00355061,0.0460546,1952,1009,47.5036,-5.23885
735,15,47.6823,5.77661,-0.0027367,0.00316858,0.0019848,0.00377368,-0.0033418,1.27488,0.00411065,0.0183268,1959,1009,47.6822,-5.77662
742,15,47.6742,5.93451,-0.0038111,0.0040876,0.00186426,0.00450549,-0.004229,1.35028,0.0050437,0.0315224,1966,1009,47.6742,-5.9345
749,15,47.6423,6.00995,-0.00520705,0.00544995,0.00156687,0.00567555,-0.00543265,1.4278,0.00641383,0.0192555,1973,1009,47.6423,-6.00993
756,15,47.67,5.97852,-0.00683431,0.00728761,0.00117796,0.00738519,-0.00693189,1.48814,0.00826735,0.0158256,1980,1009,47.67,-5.97853
763,15,47.5896,6.0957,-0.00869812,0.00988655,0.000839759,0.00992442,-0.00873598,1.52573,0.0107809,0.0136683,1987,1009,47.5896,-6.09572
770,15,47.4645,6.14929,-0.0107033,0.0128484,0.000827214,0.0128775,-0.0107324,1.53573,0.0136499,0.0181214,1994,1009,47.4645,-6.14929
777,15,47.1758,6.21143,-0.0124896,0.0157986,0.00126387,0.0158549,-0.012546,1.52624,0.0164343,0.0411569,2001,1009,47.1757,-6.2114
784,15,46.9397,6.28217,0,0,0,0,0,0,0,-1,2008,1009,46.9396,-6.28214
791,15,47.2271,5.83484,0,0,0,0,0,0,0,-1,2015,1009,47.2271,-5.83487
798,15,46.542,5.18414,0,0,0,0,0,0,0,-1,2022,1009,46.5419,-5.18415
805,15,45.5293,5.44189,0,0,0,0,0,0,0,-1,2029,1009,45.5292,-5.44192
812,15,45.6838,4.67194,0,0,0,0,0,0,0,-1,2036,1009,45.6837,-4.67196
-700,8,0,0,0,0,0,0,0,0,0,-1,524,1016,0,0
-693,8,-35.7852,1.74249,0,0,0,0,0,0,0,-1,531,1016,-35.7851,-1.74251
-686,8,-36.2134,2.56476,0,0,0,0,0,0,0,-1,538,1016,-36.2134,-2.56476
-679,8,-36.2195,2.47601,0.0347141,-0.00421792,0.0223492,0.0448861,-0.0143899,0.427119,0.0357008,0.0460446,545,1016,-36.2195,-2.476
-672,8,-36.2679,2.30927,0.031404,-0.000654805,0.0187084,0.0400108,-0.00926165,0.431183,0.0302376,0.044362,552,1016,-36.268,-2.30929
-665,8,-36.2132,2.27789,0.0268982,0.00208774,0.0153725,0.0342466,-0.00526061,0.445908,0.0247715,0.0435053,559,1016,-36.2132,-2.27792
-658,8,-36.0306,2.5531,0.0219275,0.00402878,0.0123644,0.0282415,-0.0022852,0.472137,0.0196338,0.0378122,566,1016,-36.0307,-2.55311
-651,8,-35.6135,2.87714,0,0,0,0,0,0,0,-1,573,1016,-35.6135,-2.87712
-644,8,-35.8732,2.9021,0,0,0,0,0,0,0,-1,580,1016,-35.8732,-2.90211
-637,8,-35.9276,3.07483,0.00853131,0.00627607,0.00403546,0.0115937,0.00321364,0.649159,0.00691163,0.0385408,587,1016,-35.9276,-3.07484
-630,8,-36.1324,3.2099,0.00555545,0.00580941,0.00118964,0.00687883,0.00448603,0.838566,0.00403232,0.0226211,594,1016,-36.1325,-3.20989
-623,8,-36.1296,3.25519,0.00343179,0.00532143,-0.00114134,0.00585828,0.00289494,-1.13114,0.00338236,0.0144609,601,1016,-36.1296,-3.25518
-616,8,-36.1542,3.23956,0.00178995,0.00421734,-0.00316629,0.00639458,-0.000387293,-0.96842,0.00439784,0.0149127,608,1016,-36.1542,-3.23956
-609,8,-36.1818,3.16577,0.000803839,0.00334851,-0.00462974,0.00687757,-0.00272522,-0.919496,0.00571433,0.0185711,615,1016,-36.1818,-3.16575
-602,8,-36.1567,3.19122,0.000493568,0.00283785,-0.00604582,0.0078241,-0.00449269,-0.881148,0.00719728,0.022138,622,1016,-36.1567,-3.19125
-595,8,-36.2048,3.12311,0,0,0,0,0,0,0,-1,629,1016,-36.2049,-3.12309
-588,8,-35.6107,0.836304,0,0,0,0,0,0,0,-1,636,1016,-35.6107,-0.83631
-581,8,-35.5862,0.914246,0.00232643,0.0012251,-0.0071642,0.0089611,-0.00540957,-0.747042,0.00838094,0.0320605,643,1016,-35.5862,-0.914217
-574,8,-35.5135,0.974426,0.00245171,0.00104899,-0.0067265,0.00851332,-0.00501262,-0.733452,0.0078959,0.0383238,650,1016,-35.5135,-0.974422
-567,8,-35.4491,0.898499,0.00217879,0.00134466,-0.0058,0.0075767,-0.00405324,-0.749506,0.0068165,0.0401532,657,1016,-35.4491,-0.898487
-560,8,-35.572,0.978638,0.00165926,0.0017892,-0.00421764,0.00594237,-0.00249391,-0.7931,0.00500449,0.0405697,664,1016,-35.572,-0.978648
-553,8,-35.6429,1.01813,0.000878792,0.00215533,-0.00192372,0.00354391,-0.000509779,-0.945579,0.00254958,0.0404758,671,1016,-35.6429,-1.01811
-546,8,-35.6733,1.06525,-9.46537e-05,0.00208182,0.00111286,0.00255009,-0.000562924,1.1725,0.00191547,0.0404325,678,1016,-35.6734,-1.06527
-539,8,-35.743,1.31128,0,0,0,0,0,0,0,-1,685,1016,-35.743,-1.31126
-532,8,-35.8932,1.23572,0,0,0,0,0,0,0,-1,692,1016,-35.8932,-1.23573
-525,8,0,0,0,0,0,0,0,0,0,-1,699,1016,0,0
-518,8,0,0,0,0,0,0,0,0,0,-1,706,1016,0,0
-511,8,0,0,0,0,0,0,0,0,0,-1,713,1016,0,0
-504,8,0,0,0,0,0,0,0,0,0,-1,720,1016,0,0
-497,8,0,0,0,0,0,0,0,0,0,-1,727,1016,0,0
-490,8,0,0,0,0,0,0,0,0,0,-1,734,1016,0,0
-483,8,0,0,0,0,0,0,0,0,0,-1,741,1016,0,0
-476,8,0,0,0,0,0,0,0,0,0,-1,748,1016,0,0
-469,8,0,0,0,0,0,0,0,0,0,-1,755,1016,0,0
-462,8,0,0,0,0,0,0,0,0,0,-1,762,1016,0,0
-455,8,0,0,0,0,0,0,0,0,0,-1,769,1016,0,0
-448,8,0,0,0,0,0,0,0,0,0,-1,776,1016,0,0
-441,8,0,0,0,0,0,0,0,0,0,-1,783,1016,0,0
-434,8,0,0,0,0,0,0,0,0,0,-1,790,1016,0,0
-427,8,0,0,0,0,0,0,0,0,0,-1,797,1016,0,0
-420,8,0,0,0,0,0,0,0,0,0,-1,804,1016,0,0
-413,8,0,0,0,0,0,0,0,0,0,-1,811,1016,0,0
-406,8,0,0,0,0,0,0,0,0,0,-1,818,1016,0,0
-399,8,0,0,0,0,0,0,0,0,0,-1,825,1016,0,0
-392,8,0,0,0,0,0,0,0,0,0,-1,832,1016,0,0
-385,8,0,0,0,0,0,0,0,0,0,-1,839,1016,0,0
-378,8,0,0,0,0,0,0,0,0,0,-1,846,1016,0,0
-371,8,0,0,0,0,0,0,0,0,0,-1,853,1016,0,0
-364,8,0,0,0,0,0,0,0,0,0,-1,860,1016,0,0
-357,8,0,0,0,0,0,0,0,0,0,-1,867,1016,0,0
-350,8,0,0,0,0,0,0,0,0,0,-1,874,1016,0,0
-343,8,0,0,0,0,0,0,0,0,0,-1,881,1016,0,0
-336,8,0,0,0,0,0,0,0,0,0,-1,888,1016,0,0
-329,8,0,0,0,0,0,0,0,0,0,-1,895,1016,0,0
-322,8,0,0,0,0,0,0,0,0,0,-1,902,1016,0,0
-315,8,0,0,0,0,0,0,0,0,0,-1,909,1016,0,0
-308,8,0,0,0,0,0,0,0,0,0,-1,916,1016,0,0
-301,8,0,0,0,0,0,0,0,0,0,-1,923,1016,0,0
-294,8,0,0,0,0,0,0,0,0,0,-1,930,1016,0,0
-287,8,0,0,0,0,0,0,0,0,0,-1,937,1016,0,0
-280,8,0,0,0,0,0,0,0,0,0,-1,944,1016,0,0
-273,8,0,0,0,0,0,0,0,0,0,-1,951,1016,0,0
-266,8,0,0,0,0,0,0,0,0,0,-1,958,1016,0,0
-259,8,0,0,0,0,0,0,0,0,0,-1,965,1016,0,0
-252,8,0,0,0,0,0,0,0,0,0,-1,972,1016,0,0
-245,8,0,0,0,0,0,0,0,0,0,-1,979,1016,0,0
-238,8,0,0,0,0,0,0,0,0,0,-1,986,1016,0,0
-231,8,0,0,0,0,0,0,0,0,0,-1,993,1016,0,0
-224,8,0,0,0,0,0,0,0,0,0,-1,1000,1016,0,0
-217,8,0,0,0,0,0,0,0,0,0,-1,1007,1016,0,0
-210,8,0,0,0,0,0,0,0,0,0,-1,1014,1016,0,0
-203,8,0,0,0,0,0,0,0,0,0,-1,1021,1016,0,0
-196,8,0,0,0,0,0,0,0,0,0,-1,1028,1016,0,0
-189,8,0,0,0,0,0,0,0,0,0,-1,1035,1016,0,0
-182,8,0,0,0,0,0,0,0,0,0,-1,1042,1016,0,0
-175,8,0,0,0,0,0,0,0,0,0,-1,1049,1016,0,0
-168,8,0,0,0,0,0,0,0,0,0,-1,1056,1016,0,0
-161,8,0,0,0,0,0,0,0,0,0,-1,1063,1016,0,0
-154,8,0,0,0,0,0,0,0,0,0,-1,1070,1016,0,0
-147,8,0,0,0,0,0,0,0,0,0,-1,1077,1016,0,0
-140,8,0,0,0,0,0,0,0,0,0,-1,1084,1016,0,0
-133,8,0,0,0,0,0,0,0,0,0,-1,1091,1016,0,0
-126,8,0,0,0,0,0,0,0,0,0,-1,1098,1016,0,0
-119,8,0,0,0,0,0,0,0,0,0,-1,1105,1016,0,0
-112,8,0,0,0,0,0,0,0,0,0,-1,1112,1016,0,0
-105,8,0,0,0,0,0,0,0,0,0,-1,1119,1016,0,0
-98,8,0,0,0,0,0,0,0,0,0,-1,1126,1016,0,0
-91,8,0,0,0,0,0,0,0,0,0,-1,1133,1016,0,0
-84,8,0,0,0,0,0,0,0,0,0,-1,1140,1016,0,0
-77,8,0,0,0,0,0,0,0,0,0,-1,1147,1016,0,0
-70,8,0,0,0,0,0,0,0,0,0,-1,1154,1016,0,0
-63,8,0,0,0,0,0,0,0,0,0,-1,1161,1016,0,0
-56,8,0,0,0,0,0,0,0,0,0,-1,1168,1016,0,0
-49,8,0,0,0,0,0,0,0,0,0,-1,1175,1016,0,0
-42,8,0,0,0,0,0,0,0,0,0,-1,1182,1016,0,0
-35,8,0,0,0,0,0,0,0,0,0,-1,1189,1016,0,0
-28,8,0,0,0,0,0,0,0,0,0,-1,1196,1016,0,0
-21,8,0,0,0,0,0,0,0,0,0,-1,1203,1016,0,0
-14,8,0,0,0,0,0,0,0,0,0,-1,1210,1016,0,0
-7,8,0,0,0,0,0,0,0,0,0,-1,1217,1016,0,0
0,8,0,0,0,0,0,0,0,0,0,-1,1224,1016,0,0
7,8,0,0,0,0,0,0,0,0,0,-1,1231,1016,0,0
14,8,0,0,0,0,0,0,0,0,0,-1,1238,1016,0,0
21,8,0,0,0,0,0,0,0,0,0,-1,1245,1016,0,0
28,8,0,0,0,0,0,0,0,0,0,-1,1252,1016,0,0
35,8,0,0,0,0,0,0,0,0,0,-1,1259,1016,0,0
42,8,0,0,0,0,0,0,0,0,0,-1,1266,1016,0,0
49,8,0,0,0,0,0,0,0,0,0,-1,1273,1016,0,0
56,8,0,0,0,0,0,0,0,0,0,-1,1280,1016,0,0
63,8,0,0,0,0,0,0,0,0,0,-1,1287,1016,0,0
70,8,0,0,0,0,0,0,0,0,0,-1,1294,1016,0,0
77,8,0,0,0,0,0,0,0,0,0,-1,1301,1016,0,0
84,8,0,0,0,0,0,0,0,0,0,-1,1308,1016,0,0
91,8,0,0,0,0,0,0,0,0,0,-1,1315,1016,0,0
98,8,0,0,0,0,0,0,0,0,0,-1,1322,1016,0,0
105,8,0,0,0,0,0,0,0,0,0,-1,1329,1016,0,0
112,8,0,0,0,0,0,0,0,0,0,-1,1336,1016,0,0
119,8,0,0,0,0,0,0,0,0,0,-1,1343,1016,0,0
126,8,0,0,0,0,0,0,0,0,0,-1,1350,1016,0,0
133,8,0,0,0,0,0,0,0,0,0,-1,1357,1016,0,0
140,8,0,0,0,0,0,0,0,0,0,-1,1364,1016,0,0
147,8,0,0,0,0,0,0,0,0,0,-1,1371,1016,0,0
154,8,0,0,0,0,0,0,0,0,0,-1,1378,1016,0,0
161,8,0,0,0,0,0,0,0,0,0,-1,1385,1016,0,0
168,8,0,0,0,0,0,0,0,0,0,-1,1392,1016,0,0
175,8,0,0,0,0,0,0,0,0,0,-1,1399,1016,0,0
182,8,0,0,0,0,0,0,0,0,0,-1,1406,1016,0,0
189,8,0,0,0,0,0,0,0,0,0,-1,1413,1016,0,0
196,8,0,0,0,0,0,0,0,0,0,-1,1420,1016,0,0
203,8,0,0,0,0,0,0,0,0,0,-1,1427,1016,0,0
210,8,0,0,0,0,0,0,0,0,0,-1,1434,1016,0,0
217,8,0,0,0,0,0,0,0,0,0,-1,1441,1016,0,0
224,8,0,0,0,0,0,0,0,0,0,-1,1448,1016,0,0
231,8,0,0,0,0,0,0,0,0,0,-1,1455,1016,0,0
238,8,0,0,0,0,0,0,0,0,0,-1,1462,1016,0,0
245,8,0,0,0,0,0,0,0,0,0,-1,1469,1016,0,0
252,8,0,0,0,0,0,0,0,0,0,-1,1476,1016,0,0
259,8,0,0,0,0,0,0,0,0,0,-1,1483,1016,0,0
266,8,0,0,0,0,0,0,0,0,0,-1,1490,1016,0,0
273,8,0,0,0,0,0,0,0,0,0,-1,1497,1016,0,0
280,8,0,0,0,0,0,0,0,0,0,-1,1504,1016,0,0
287,8,0,0,0,0,0,0,0,0,0,-1,1511,1016,0,0
294,8,0,0,0,0,0,0,0,0,0,-1,1518,1016,0,0
301,8,0,0,0,0,0,0,0,0,0,-1,1525,1016,0,0
308,8,0,0,0,0,0,0,0,0,0,-1,1532,1016,0,0
315,8,0,0,0,0,0,0,0,0,0,-1,1539,1016,0,0
322,8,0,0,0,0,0,0,0,0,0,-1,1546,1016,0,0
329,8,0,0,0,0,0,0,0,0,0,-1,1553,1016,0,0
336,8,0,0,0,0,0,0,0,0,0,-1,1560,1016,0,0
343,8,0,0,0,0,0,0,0,0,0,-1,1567,1016,0,0
350,8,0,0,0,0,0,0,0,0,0,-1,1574,1016,0,0
357,8,0,0,0,0,0,0,0,0,0,-1,1581,1016,0,0
364,8,0,0,0,0,0,0,0,0,0,-1,1588,1016,0,0
371,8,0,0,0,0,0,0,0,0,0,-1,1595,1016,0,0
378,8,0,0,0,0,0,0,0,0,0,-1,1602,1016,0,0
385,8,0,0,0,0,0,0,0,0,0,-1,1609,1016,0,0
392,8,0,0,0,0,0,0,0,0,0,-1,1616,1016,0,0
399,8,0,0,0,0,0,0,0,0,0,-1,1623,1016,0,0
406,8,0,0,0,0,0,0,0,0,0,-1,1630,1016,0,0
413,8,0,0,0,0,0,0,0,0,0,-1,1637,1016,0,0
420,8,0,0,0,0,0,0,0,0,0,-1,1644,1016,0,0
427,8,0,0,0,0,0,0,0,0,0,-1,1651,1016,0,0
434,8,0,0,0,0,0,0,0,0,0,-1,1658,1016,0,0
441,8,0,0,0,0,0,0,0,0,0,-1,1665,1016,0,0
448,8,0,0,0,0,0,0,0,0,0,-1,1672,1016,0,0
455,8,0,0,0,0,0,0,0,0,0,-1,1679,1016,0,0
462,8,0,0,0,0,0,0,0,0,0,-1,1686,1016,0,0
469,8,0,0,0,0,0,0,0,0,0,-1,1693,1016,0,0
476,8,0,0,0,0,0,0,0,0,0,-1,1700,1016,0,0
483,8,0,0,0,0,0,0,0,0,0,-1,1707,1016,0,0
490,8,0,0,0,0,0,0,0,0,0,-1,1714,1016,0,0
497,8,0,0,0,0,0,0,0,0,0,-1,1721,1016,0,0
504,8,0,0,0,0,0,0,0,0,0,-1,1728,1016,0,0
511,8,0,0,0,0,0,0,0,0,0,-1,1735,1016,0,0
518,8,0,0,0,0,0,0,0,0,0,-1,1742,1016,0,0
525,8,0,0,0,0,0,0,0,0,0,-1,1749,1016,0,0
532,8,0,0,0,0,0,0,0,0,0,-1,1756,1016,0,0
539,8,0,0,0,0,0,0,0,0,0,-1,1763,1016,0,0
546,8,0,0,0,0,0,0,0,0,0,-1,1770,1016,0,0
553,8,0,0,0,0,0,0,0,0,0,-1,1777,1016,0,0
560,8,0,0,0,0,0,0,0,0,0,-1,1784,1016,0,0
567,8,0,0,0,0,0,0,0,0,0,-1,1791,1016,0,0
574,8,0,0,0,0,0,0,0,0,0,-1,1798,1016,0,0
581,8,0,0,0,0,0,0,0,0,0,-1,1805,1016,0,0
588,8,0,0,0,0,0,0,0,0,0,-1,1812,1016,0,0
595,8,0,0,0,0,0,0,0,0,0,-1,1819,1016,0,0
602,8,0,0,0,0,0,0,0,0,0,-1,1826,1016,0,0
609,8,0,0,0,0,0,0,0,0,0,-1,1833,1016,0,0
616,8,0,0,0,0,0,0,0,0,0,-1,1840,1016,0,0
623,8,0,0,0,0,0,0,0,0,0,-1,1847,1016,0,0
630,8,0,0,0,0,0,0,0,0,0,-1,1854,1016,0,0
637,8,0,0,0,0,0,0,0,0,0,-1,1861,1016,0,0
644,8,47.8087,3.22418,0.00115138,-0.0034464,-0.00470358,0.00408781,-0.00638282,-0.558093,0.00609343,0.0431522,1868,1016,47.8087,-3.22418
651,8,47.899,2.84088,0.000644407,-0.00197935,-0.00331452,0.00289723,-0.00423217,-0.596959,0.00414014,0.0398253,1875,1016,47.899,-2.84088
658,8,47.7383,2.73523,0.000444696,-0.000974903,-0.00229569,0.00213781,-0.00266802,-0.635466,0.00278027,0.0384196,1882,1016,47.7382,-2.73521
665,8,47.6959,2.73218,0.000304948,-0.000257845,-0.00141752,0.00146874,-0.00142163,-0.687416,0.00166883,0.0412412,1889,1016,47.6959,-2.73215
672,8,47.8103,2.73828,0.000237514,0.000301359,-0.000649864,0.000920085,-0.000381211,-0.809939,0.000772478,0.0413279,1896,1016,47.8104,-2.73825
679,8,47.9839,2.58887,0.000281839,0.000724673,0.000217377,0.000813544,0.000192969,1.1827,0.00049085,0.0405343,1903,1016,47.9839,-2.58886
686,8,48.0367,2.8949,0.000332769,0.00073703,0.000969086,0.00152484,-0.000455042,0.888213,0.00119742,0.0430355,1910,1016,48.0367,-2.89488
693,8,47.9718,2.82306,0.000327717,0.000491712,0.00160979,0.00202159,-0.00120216,0.810845,0.00188117,0.0406409,1917,1016,47.9718,-2.82306
700,8,47.9628,2.76544,0.000243846,0.000466101,0.0019987,0.00235676,-0.00164681,0.81317,0.00232354,0.0321604,1924,1016,47.9627,-2.76547
707,8,47.9186,2.76721,7.19331e-05,0.00049472,0.00222543,0.00251878,-0.00195212,0.832751,0.00258818,0.0224165,1931,1016,47.9186,-2.76721
714,8,47.9036,2.74542,-0.00038551,0.000793987,0.00234551,0.00262276,-0.00221428,0.908563,0.00279598,0.0212776,1938,1016,47.9036,-2.74539
721,8,47.9309,2.69135,0,0,0,0,0,0,0,-1,1945,1016,47.9309,-2.69136
728,8,47.5806,5.71167,0,0,0,0,0,0,0,-1,1952,1016,47.5806,-5.71168
735,8,47.5585,5.79559,0,0,0,0,0,0,0,-1,1959,1016,47.5585,-5.79558
742,8,47.9054,5.96222,0,0,0,0,0,0,0,-1,1966,1016,47.9054,-5.96225
749,8,47.7903,5.9447,-0.00541316,0.00533818,0.00159355,0.0055694,-0.00564438,1.4267,0.00647432,0.0429236,1973,1016,47.7903,-5.94468
756,8,47.7198,5.90485,-0.00700302,0.00720036,0.00112579,0.00728904,-0.0070917,1.49219,0.00830299,0.025294,1980,1016,47.7198,-5.90482
763,8,47.7015,5.99103,-0.00886603,0.00987963,0.000624618,0.00990042,-0.00888682,1.53752,0.0108521,0.0150137,1987,1016,47.7015,-5.991
770,8,47.6057,5.9743,-0.0109185,0.0129546,0.000292807,0.0129582,-0.0109221,1.55853,0.013804,0.0206064,1994,1016,47.6057,-5.97431
777,8,47.29,5.97998,-0.0128395,0.0161439,0.000303575,0.0161471,-0.0128427,1.56032,0.0167735,0.0359089,2001,1016,47.29,-5.97998
784,8,46.9502,5.64447,0,0,0,0,0,0,0,-1,2008,1016,46.9501,-5.64445
791,8,46.8438,5.36719,-0.0156898,0.022147,0.00215037,0.0222689,-0.0158116,1.51421,0.0220909,0.0497572,2015,1016,46.8437,-5.36718
798,8,46.5432,5.37994,0,0,0,0,0,0,0,-1,2022,1016,46.5431,-5.37994
805,8,46.2024,5.35913,0,0,0,0,0,0,0,-1,2029,1016,46.2025,-5.35914
812,8,46.4026,2.224,0,0,0,0,0,0,0,-1,2036,1016,46.4026,-2.224
-700,1,0,0,0,0,0,0,0,0,0,-1,524,1023,0,0
-693,1,-35.9709,2.04144,0,0,0,0,0,0,0,-1,531,1023,-35.9709,-2.04147
-686,1,-35.9994,3.72137,0,0,0,0,0,0,0,-1,538,1023,-35.9994,-3.72136
-679,1,-36.621,2.64227,0,0,0,0,0,0,0,-1,545,1023,-36.621,-2.6423
-672,1,-36.4129,2.6889,0.0230798,0.0114951,0.0186432,0.0368098,-0.00223491,0.634778,0.0253177,0.0446419,552,1023,-36.4129,-2.68892
-665,1,-36.2294,2.66803,0.0199251,0.0119831,0.0150644,0.0315331,0.000375122,0.656529,0.0208982,0.042062,559,1023,-36.2295,-2.66802
-658,1,-36.0551,2.74908,0.016306,0.011832,0.0118645,0.0261425,0.0019955,0.692218,0.0168027,0.0312637,566,1023,-36.0551,-2.7491
-651,1,-35.8763,2.94897,0.0126601,0.01112,0.00900006,0.020923,0.00285714,0.742721,0.0131006,0.026948,573,1023,-35.8763,-2.949
-644,1,-35.6454,3.14294,0,0,0,0,0,0,0,-1,580,1023,-35.6454,-3.14296
-637,1,-35.9305,3.0647,0.00626536,0.0091046,0.00330539,0.0112823,0.00408763,0.98823,0.00659568,0.0355966,587,1023,-35.9305,-3.06467
-630,1,-36.1836,3.12122,0.00411422,0.00746943,0.000574996,0.00756524,0.00401842,1.4057,0.00437062,0.0305436,594,1023,-36.1836,-3.12123
-623,1,-36.092,3.23901,0.00270664,0.00601955,-0.00161098,0.00667374,0.00205245,-1.18506,0.00394709,0.0147216,601,1023,-36.0921,-3.23901
-616,1,-36.1775,3.1911,0.00153915,0.00416083,-0.00350696,0.00659393,-0.000893948,-0.96425,0.00472223,0.0182126,608,1023,-36.1775,-3.1911
-609,1,-36.1725,3.22937,0.00091965,0.00299603,-0.00473611,0.00680641,-0.00289073,-0.893295,0.00574878,0.0197586,615,1023,-36.1725,-3.22935
-602,1,-36.0297,3.27856,0.000700531,0.00232907,-0.00593336,0.00750377,-0.00447417,-0.85359,0.00698881,0.0144465,622,1023,-36.0297,-3.27855
-595,1,-35.981,3.34418,0,0,0,0,0,0,0,-1,629,1023,-35.9809,-3.34415
-588,1,-35.7763,2.10889,0.00190771,0.000872119,-0.00662083,0.00803096,-0.00525113,-0.746374,0.0077242,0.0482206,636,1023,-35.7763,-2.10889
-581,1,-35.6178,0.991943,0.00241629,0.000743463,-0.00655091,0.00818397,-0.00502421,-0.721902,0.00769814,0.0290965,643,1023,-35.6178,-0.991949
-574,1,-35.523,1.11133,0.00250584,0.00068353,-0.00605009,0.007713,-0.00452363,-0.710659,0.00714436,0.0383757,650,1023,-35.523,-1.11134
-567,1,-35.2216,0.934998,0,0,0,0,0,0,0,-1,657,1023,-35.2216,-0.93498
-560,1,-35.4777,0.886963,0.00154015,0.00178796,-0.00351326,0.00517949,-0.00185139,-0.803025,0.00420814,0.0409635,664,1023,-35.4777,-0.886991
-553,1,-35.4534,0.915588,0.000580581,0.00249673,-0.00128324,0.0031401,-6.27848e-05,-1.10606,0.00211464,0.0415829,671,1023,-35.4534,-0.915602
-546,1,-35.4991,1.24719,-0.000658563,0.00290124,0.00161937,0.00352767,-0.00128498,1.20169,0.00287739,0.0419243,678,1023,-35.4991,-1.24717
-539,1,-35.6454,1.61859,0,0,0,0,0,0,0,-1,685,1023,-35.6454,-1.6186
-532,1,-35.5815,1.2088,0,0,0,0,0,0,0,-1,692,1023,-35.5815,-1.2088
-525,1,0,0,0,0,0,0,0,0,0,-1,699,1023,0,0
-518,1,0,0,0,0,0,0,0,0,0,-1,706,1023,0,0
-511,1,0,0,0,0,0,0,0,0,0,-1,713,1023,0,0
-504,1,0,0,0,0,0,0,0,0,0,-1,720,1023,0,0
-497,1,0,0,0,0,0,0,0,0,0,-1,727,1023,0,0
-490,1,0,0,0,0,0,0,0,0,0,-1,734,1023,0,0
-483,1,0,0,0,0,0,0,0,0,0,-1,741,1023,0,0
-476,1,0,0,0,0,0,0,0,0,0,-1,748,1023,0,0
-469,1,0,0,0,0,0,0,0,0,0,-1,755,1023,0,0
-462,1,0,0,0,0,0,0,0,0,0,-1,762,1023,0,0
-455,1,0,0,0,0,0,0,0,0,0,-1,769,1023,0,0
-448,1,0,0,0,0,0,0,0,0,0,-1,776,1023,0,0
-441,1,0,0,0,0,0,0,0,0,0,-1,783,1023,0,0
-434,1,0,0,0,0,0,0,0,0,0,-1,790,1023,0,0
-427,1,0,0,0,0,0,0,0,0,0,-1,797,1023,0,0
-420,1,0,0,0,0,0,0,0,0,0,-1,804,1023,0,0
-413,1,0,0,0,0,0,0,0,0,0,-1,811,1023,0,0
-406,1,0,0,0,0,0,0,0,0,0,-1,818,1023,0,0
-399,1,0,0,0,0,0,0,0,0,0,-1,825,1023,0,0
-392,1,0,0,0,0,0,0,0,0,0,-1,832,1023,0,0
-385,1,0,0,0,0,0,0,0,0,0,-1,839,1023,0,0
-378,1,0,0,0,0,0,0,0,0,0,-1,846,1023,0,0
-371,1,0,0,0,0,0,0,0,0,0,-1,853,1023,0,0
-364,1,0,0,0,0,0,0,0,0,0,-1,860,1023,0,0
-357,1,0,0,0,0,0,0,0,0,0,-1,867,1023,0,0
-350,1,0,0,0,0,0,0,0,0,0,-1,874,1023,0,0
-343,1,0,0,0,0,0,0,0,0,0,-1,881,1023,0,0
-336,1,0,0,0,0,0,0,0,0,0,-1,888,1023,0,0
-329,1,0,0,0,0,0,0,0,0,0,-1,895,1023,0,0
-322,1,0,0,0,0,0,0,0,0,0,-1,902,1023,0,0
-315,1,0,0,0,0,0,0,0,0,0,-1,909,1023,0,0
-308,1,0,0,0,0,0,0,0,0,0,-1,916,1023,0,0
-301,1,0,0,0,0,0,0,0,0,0,-1,923,1023,0,0
-294,1,0,0,0,0,0,0,0,0,0,-1,930,1023,0,0
-287,1,0,0,0,0,0,0,0,0,0,-1,937,1023,0,0
-280,1,0,0,0,0,0,0,0,0,0,-1,944,1023,0,0
-273,1,0,0,0,0,0,0,0,0,0,-1,951,1023,0,0
-266,1,0,0,0,0,0,0,0,0,0,-1,958,1023,0,0
-259,1,0,0,0,0,0,0,0,0,0,-1,965,1023,0,0
-252,1,0,0,0,0,0,0,0,0,0,-1,972,1023,0,0
-245,1,0,0,0,0,0,0,0,0,0,-1,979,1023,0,0
-238,1,0,0,0,0,0,0,0,0,0,-1,986,1023,0,0
-231,1,0,0,0,0,0,0,0,0,0,-1,993,1023,0,0
-224,1,0,0,0,0,0,0,0,0,0,-1,1000,1023,0,0
-217,1,0,0,0,0,0,0,0,0,0,-1,1007,1023,0,0
-210,1,0,0,0,0,0,0,0,0,0,-1,1014,1023,0,0
-203,1,0,0,0,0,0,0,0,0,0,-1,1021,1023,0,0
-196,1,0,0,0,0,0,0,0,0,0,-1,1028,1023,0,0
-189,1,0,0,0,0,0,0,0,0,0,-1,1035,1023,0,0
-182,1,0,0,0,0,0,0,0,0,0,-1,1042,1023,0,0
-175,1,0,0,0,0,0,0,0,0,0,-1,1049,1023,0,0
-168,1,0,0,0,0,0,0,0,0,0,-1,1056,1023,0,0
-161,1,0,0,0,0,0,0,0,0,0,-1,1063,1023,0,0
-154,1,0,0,0,0,0,0,0,0,0,-1,1070,1023,0,0
-147,1,0,0,0,0,0,0,0,0,0,-1,1077,1023,0,0
-140,1,0,0,0,0,0,0,0,0,0,-1,1084,1023,0,0
-133,1,0,0,0,0,0,0,0,0,0,-1,1091,1023,0,0
-126,1,0,0,0,0,0,0,0,0,0,-1,1098,1023,0,0
-119,1,0,0,0,0,0,0,0,0,0,-1,1105,1023,0,0
-112,1,0,0,0,0,0,0,0,0,0,-1,1112,1023,0,0
-105,1,0,0,0,0,0,0,0,0,0,-1,1119,1023,0,0
-98,1,0,0,0,0,0,0,0,0,0,-1,1126,1023,0,0
-91,1,0,0,0,0,0,0,0,0,0,-1,1133,1023,0,0
-84,1,0,0,0,0,0,0,0,0,0,-1,1140,1023,0,0
-77,1,0,0,0,0,0,0,0,0,0,-1,1147,1023,0,0
-70,1,0,0,0,0,0,0,0,0,0,-1,1154,1023,0,0
-63,1,0,0,0,0,0,0,0,0,0,-1,1161,1023,0,0
-56,1,0,0,0,0,0,0,0,0,0,-1,1168,1023,0,0
-49,1,0,0,0,0,0,0,0,0,0,-1,1175,1023,0,0
-42,1,0,0,0,0,0,0,0,0,0,-1,1182,1023,0,0
-35,1,0,0,0,0,0,0,0,0,0,-1,1189,1023,0,0
-28,1,0,0,0,0,0,0,0,0,0,-1,1196,1023,0,0
-21,1,0,0,0,0,0,0,0,0,0,-1,1203,1023,0,0
-14,1,0,0,0,0,0,0,0,0,0,-1,1210,1023,0,0
-7,1,0,0,0,0,0,0,0,0,0,-1,1217,1023,0,0
0,1,0,0,0,0,0,0,0,0,0,-1,1224,1023,0,0
7,1,0,0,0,0,0,0,0,0,0,-1,1231,1023,0,0
14,1,0,0,0,0,0,0,0,0,0,-1,1238,1023,0,0
21,1,0,0,0,0,0,0,0,0,0,-1,1245,1023,0,0
28,1,0,0,0,0,0,0,0,0,0,-1,1252,1023,0,0
35,1,0,0,0,0,0,0,0,0,0,-1,1259,1023,0,0
42,1,0,0,0,0,0,0,0,0,0,-1,1266,1023,0,0
49,1,0,0,0,0,0,0,0,0,0,-1,1273,1023,0,0
56,1,0,0,0,0,0,0,0,0,0,-1,1280,1023,0,0
63,1,0,0,0,0,0,0,0,0,0,-1,1287,1023,0,0
70,1,0,0,0,0,0,0,0,0,0,-1,1294,1023,0,0
77,1,0,0,0,0,0,0,0,0,0,-1,1301,1023,0,0
84,1,0,0,0,0,0,0,0,0,0,-1,1308,1023,0,0
91,1,0,0,0,0,0,0,0,0,0,-1,1315,1023,0,0
98,1,0,0,0,0,0,0,0,0,0,-1,1322,1023,0,0
105,1,0,0,0,0,0,0,0,0,0,-1,1329,1023,0,0
112,1,0,0,0,0,0,0,0,0,0,-1,1336,1023,0,0
119,1,0,0,0,0,0,0,0,0,0,-1,1343,1023,0,0
126,1,0,0,0,0,0,0,0,0,0,-1,1350,1023,0,0
133,1,0,0,0,0,0,0,0,0,0,-1,1357,1023,0,0
140,1,0,0,0,0,0,0,0,0,0,-1,1364,1023,0,0
147,1,0,0,0,0,0,0,0,0,0,-1,1371,1023,0,0
154,1,0,0,0,0,0,0,0,0,0,-1,1378,1023,0,0
161,1,0,0,0,0,0,0,0,0,0,-1,1385,1023,0,0
168,1,0,0,0,0,0,0,0,0,0,-1,1392,1023,0,0
175,1,0,0,0,0,0,0,0,0,0,-1,1399,1023,0,0
182,1,0,0,0,0,0,0,0,0,0,-1,1406,1023,0,0
189,1,0,0,0,0,0,0,0,0,0,-1,1413,1023,0,0
196,1,0,0,0,0,0,0,0,0,0,-1,1420,1023,0,0
203,1,0,0,0,0,0,0,0,0,0,-1,1427,1023,0,0
210,1,0,0,0,0,0,0,0,0,0,-1,1434,1023,0,0
217,1,0,0,0,0,0,0,0,0,0,-1,1441,1023,0,0
224,1,0,0,0,0,0,0,0,0,0,-1,1448,1023,0,0
231,1,0,0,0,0,0,0,0,0,0,-1,1455,1023,0,0
238,1,0,0,0,0,0,0,0,0,0,-1,1462,1023,0,0
245,1,0,0,0,0,0,0,0,0,0,-1,1469,1023,0,0
252,1,0,0,0,0,0,0,0,0,0,-1,1476,1023,0,0
259,1,0,0,0,0,0,0,0,0,0,-1,1483,1023,0,0
266,1,0,0,0,0,0,0,0,0,0,-1,1490,1023,0,0
273,1,0,0,0,0,0,0,0,0,0,-1,1497,1023,0,0
280,1,0,0,0,0,0,0,0,0,0,-1,1504,1023,0,0
287,1,0,0,0,0,0,0,0,0,0,-1,1511,1023,0,0
294,1,0,0,0,0,0,0,0,0,0,-1,1518,1023,0,0
301,1,0,0,0,0,0,0,0,0,0,-1,1525,1023,0,0
308,1,0,0,0,0,0,0,0,0,0,-1,1532,1023,0,0
315,1,0,0,0,0,0,0,0,0,0,-1,1539,1023,0,0
322,1,0,0,0,0,0,0,0,0,0,-1,1546,1023,0,0
329,1,0,0,0,0,0,0,0,0,0,-1,1553,1023,0,0
336,1,0,0,0,0,0,0,0,0,0,-1,1560,1023,0,0
343,1,0,0,0,0,0,0,0,0,0,-1,1567,1023,0,0
350,1,0,0,0,0,0,0,0,0,0,-1,1574,1023,0,0
357,1,0,0,0,0,0,0,0,0,0,-1,1581,1023,0,0
364,1,0,0,0,0,0,0,0,0,0,-1,1588,1023,0,0
371,1,0,0,0,0,0,0,0,0,0,-1,1595,1023,0,0
378,1,0,0,0,0,0,0,0,0,0,-1,1602,1023,0,0
385,1,0,0,0,0,0,0,0,0,0,-1,1609,1023,0,0
392,1,0,0,0,0,0,0,0,0,0,-1,1616,1023,0,0
399,1,0,0,0,0,0,0,0,0,0,-1,1623,1023,0,0
406,1,0,0,0,0,0,0,0,0,0,-1,1630,1023,0,0
413,1,0,0,0,0,0,0,0,0,0,-1,1637,1023,0,0
420,1,0,0,0,0,0,0,0,0,0,-1,1644,1023,0,0
427,1,0,0,0,0,0,0,0,0,0,-1,1651,1023,0,0
434,1,0,0,0,0,0,0,0,0,0,-1,1658,1023,0,0
441,1,0,0,0,0,0,0,0,0,0,-1,1665,1023,0,0
448,1,0,0,0,0,0,0,0,0,0,-1,1672,1023,0,0
455,1,0,0,0,0,0,0,0,0,0,-1,1679,1023,0,0
462,1,0,0,0,0,0,0,0,0,0,-1,1686,1023,0,0
469,1,0,0,0,0,0,0,0,0,0,-1,1693,1023,0,0
476,1,0,0,0,0,0,0,0,0,0,-1,1700,1023,0,0
483,1,0,0,0,0,0,0,0,0,0,-1,1707,1023,0,0
490,1,0,0,0,0,0,0,0,0,0,-1,1714,1023,0,0
497,1,0,0,0,0,0,0,0,0,0,-1,1721,1023,0,0
504,1,0,0,0,0,0,0,0,0,0,-1,1728,1023,0,0
511,1,0,0,0,0,0,0,0,0,0,-1,1735,1023,0,0
518,1,0,0,0,0,0,0,0,0,0,-1,1742,1023,0,0
525,1,0,0,0,0,0,0,0,0,0,-1,1749,1023,0,0
532,1,0,0,0,0,0,0,0,0,0,-1,1756,1023,0,0
539,1,0,0,0,0,0,0,0,0,0,-1,1763,1023,0,0
546,1,0,0,0,0,0,0,0,0,0,-1,1770,1023,0,0
553,1,0,0,0,0,0,0,0,0,0,-1,1777,1023,0,0
560,1,0,0,0,0,0,0,0,0,0,-1,1784,1023,0,0
567,1,0,0,0,0,0,0,0,0,0,-1,1791,1023,0,0
574,1,0,0,0,0,0,0,0,0,0,-1,1798,1023,0,0
581,1,0,0,0,0,0,0,0,0,0,-1,1805,1023,0,0
588,1,0,0,0,0,0,0,0,0,0,-1,1812,1023,0,0
595,1,0,0,0,0,0,0,0,0,0,-1,1819,1023,0,0
602,1,0,0,0,0,0,0,0,0,0,-1,1826,1023,0,0
609,1,0,0,0,0,0,0,0,0,0,-1,1833,1023,0,0
616,1,0,0,0,0,0,0,0,0,0,-1,1840,1023,0,0
623,1,0,0,0,0,0,0,0,0,0,-1,1847,1023,0,0
630,1,0,0,0,0,0,0,0,0,0,-1,1854,1023,0,0
637,1,0,0,0,0,0,0,0,0,0,-1,1861,1023,0,0
644,1,0,0,0,0,0,0,0,0,0,-1,1868,1023,0,0
651,1,47.832,2.78845,-0.000345665,-0.00235249,-0.0030365,0.00184892,-0.00454707,-0.625821,0.00380067,0.0390514,1875,1023,47.8321,-2.78844
658,1,47.8167,2.68408,-0.000240298,-0.00104725,-0.0020799,0.0014749,-0.00276245,-0.689594,0.0024838,0.039221,1882,1023,47.8166,-2.68405
665,1,47.8983,2.61194,-0.000171836,-0.000143567,-0.00126073,0.0011031,-0.00141851,-0.791004,0.00145964,0.042006,1889,1023,47.8983,-2.61191
672,1,47.9889,2.58075,-8.92368e-05,0.000528988,-0.000535724,0.000838383,-0.000398631,-1.04707,0.000729078,0.0422705,1896,1023,47.9888,-2.58072
679,1,47.8788,2.57642,4.4396e-05,0.00103811,0.000286605,0.00111484,-3.23406e-05,1.30919,0.00075424,0.0405712,1903,1023,47.8787,-2.57641
686,1,47.8162,2.85352,9.02065e-05,0.00106291,0.00101455,0.00170166,-0.000548544,1.0089,0.00135483,0.0396415,1910,1023,47.8162,-2.85352
693,1,47.903,2.88379,7.05178e-05,0.000778975,0.00166421,0.00212624,-0.00127675,0.890258,0.00198502,0.0370466,1917,1023,47.9029,-2.8838
700,1,47.9382,2.80658,4.62497e-06,0.000688444,0.00207645,0.00245095,-0.00175788,0.866996,0.00244092,0.0315081,1924,1023,47.9382,-2.80655
707,1,47.9016,2.72705,-0.00015424,0.000653828,0.00231049,0.00259535,-0.00209576,0.871957,0.00271353,0.0239077,1931,1023,47.9016,-2.72703
714,1,47.8726,2.68079,-0.000603716,0.000874834,0.00244237,0.00268736,-0.00241624,0.932359,0.00294795,0.0237483,1938,1023,47.8726,-2.6808
721,1,47.9341,2.62189,0,0,0,0,0,0,0,-1,1945,1023,47.9341,-2.62189
728,1,47.5233,6.05804,0,0,0,0,0,0,0,-1,1952,1023,47.5234,-6.05802
735,1,47.5455,5.92108,0,0,0,0,0,0,0,-1,1959,1023,47.5455,-5.92107
742,1,47.7679,5.79321,0,0,0,0,0,0,0,-1,1966,1023,47.7679,-5.79321
749,1,47.7288,5.94299,-0.00558585,0.00502568,0.00162052,0.00526763,-0.00582781,1.42258,0.00640868,0.049493,1973,1023,47.7288,-5.94302
756,1,47.7594,5.95166,-0.00694666,0.00683172,0.00106437,0.00691346,-0.0070284,1.49415,0.00804942,0.0249954,1980,1023,47.7594,-5.95168
763,1,47.6844,5.90344,-0.00860803,0.00948975,0.000417156,0.00949936,-0.00861764,1.54776,0.010464,0.01665,1987,1023,47.6844,-5.90344
770,1,47.6517,5.87848,-0.0103872,0.0125219,-0.000205102,0.0125238,-0.0103891,-1.56184,0.0132479,0.0187675,1994,1023,47.6517,-5.87851
777,1,47.3833,5.78906,-0.0120043,0.0157684,-0.00062161,0.0157823,-0.0120182,-1.54843,0.0160996,0.0252903,2001,1023,47.3833,-5.78904
784,1,47.1558,5.69464,-0.0132406,0.0190036,-0.000629306,0.0190158,-0.0132529,-1.55129,0.0187291,0.0445827,2008,1023,47.1557,-5.69463
791,1,46.9043,5.56531,-0.0143069,0.0220874,-0.000260928,0.0220893,-0.0143088,-1.56363,0.0211739,0.0463043,2015,1023,46.9043,-5.56531
798,1,46.603,5.573,0,0,0,0,0,0,0,-1,2022,1023,46.6031,-5.57298
805,1,46.8423,2.64124,0,0,0,0,0,0,0,-1,2029,1023,46.8423,-2.64125
812,1,46.7197,2.2876,0,0,0,0,0,0,0,-1,2036,1023,46.7197,-2.28758
-700,-6,0,0,0,0,0,0,0,0,0,-1,524,1030,0,0
-693,-6,-36.3537,4.40796,0.0121586,0.0211581,0.0323544,0.0493241,-0.0160075,0.854494,0.0393201,0.0413873,531,1030,-36.3537,-4.40797
-686,-6,-36.4724,3.98596,0.0168926,0.0253462,0.0279543,0.0493915,-0.00715264,0.860432,0.0355525,0.043104,538,1030,-36.4724,-3.98592
-679,-6,-36.6067,3.51111,0.0174266,0.0262234,0.0233521,0.0455877,-0.00193769,0.878484,0.0310578,0.0464115,545,1030,-36.6067,-3.51109
-672,-6,-36.5134,3.09839,0.0161585,0.025276,0.0189851,0.040242,0.0011925,0.90323,0.0264395,0.049102,552,1030,-36.5135,-3.09833
-665,-6,-36.1962,3.06543,0.0140436,0.0233128,0.0150051,0.0343828,0.00297366,0.935183,0.0219977,0.0445749,559,1030,-36.1962,-3.06548
-658,-6,-35.9664,3.16785,0.0115271,0.0207748,0.0114941,0.0285402,0.00376172,0.976634,0.0179051,0.0360624,566,1030,-35.9665,-3.16789
-651,-6,-35.9573,2.84692,0.00893995,0.0178955,0.00842268,0.0229567,0.00387876,1.02972,0.0141894,0.0397994,573,1030,-35.9573,-2.84697
-644,-6,-35.6877,3.22668,0,0,0,0,0,0,0,-1,580,1030,-35.6877,-3.22666
-637,-6,-35.9315,3.14429,0.00434079,0.0122078,0.00262738,0.0130046,0.00354401,1.27635,0.00776288,0.0390563,587,1030,-35.9315,-3.14428
-630,-6,-36.052,3.09863,0.00286187,0.00927517,1.68643e-05,0.00927522,0.00286183,1.56817,0.00548435,0.0217508,594,1030,-36.052,-3.09859
-623,-6,-36.0328,3.14709,0.00201272,0.00676396,-0.00200834,0.00749912,0.00127755,-1.21989,0.00463266,0.0165518,601,1030,-36.0328,-3.14709
-616,-6,-36.0703,3.17542,0.00126139,0.00411115,-0.00375402,0.0067016,-0.00132907,-0.96678,0.00497035,0.0188697,608,1030,-36.0703,-3.17538
-609,-6,-36.0492,3.2793,0.000988627,0.00259442,-0.00474943,0.00660834,-0.0030253,-0.869132,0.00568877,0.0182828,615,1030,-36.0492,-3.2793
-602,-6,-35.9808,3.35986,0.000900234,0.00178935,-0.00572974,0.00709175,-0.00440216,-0.824115,0.0066963,0.0135009,622,1030,-35.9809,-3.35986
-595,-6,-35.827,3.3092,0,0,0,0,0,0,0,-1,629,1030,-35.827,-3.30926
-588,-6,-35.7372,2.03467,0.0019709,0.000480555,-0.00615919,0.00742983,-0.00497838,-0.725198,0.00721034,0.0287808,636,1030,-35.7372,-2.03468
-581,-6,-35.6379,0.956421,0.00244584,0.000451765,-0.00601209,0.007543,-0.0046454,-0.703226,0.00710295,0.023326,643,1030,-35.6379,-0.956422
-574,-6,-35.6155,0.90271,0.00250127,0.000590321,-0.00552281,0.00715065,-0.00405906,-0.699743,0.00655346,0.0323554,650,1030,-35.6155,-0.902729
-567,-6,-35.6998,1.01428,0.0021318,0.00125535,-0.0046,0.0063144,-0.00292725,-0.737908,0.00545382,0.0418394,657,1030,-35.6998,-1.01426
-560,-6,-35.6458,0.994507,0.00142015,0.00224351,-0.00312238,0.00498123,-0.00131757,-0.850943,0.00383619,0.0402055,664,1030,-35.6458,-0.994552
-553,-6,-35.1804,0.704834,0,0,0,0,0,0,0,-1,671,1030,-35.1804,-0.704844
-546,-6,-35.4547,1.16565,-0.00111115,0.00429244,0.00171448,0.00479051,-0.00160922,1.28807,0.00384404,0.0451504,678,1030,-35.4546,-1.1656
-539,-6,-35.495,1.40295,-0.0028201,0.00474419,0.00447412,0.00682057,-0.00489648,1.13629,0.00679518,0.0434507,685,1030,-35.495,-1.40296
-532,-6,-35.4942,1.2821,-0.00371059,0.00537511,0.00573062,0.00814509,-0.00648057,1.12055,0.00846234,0.0426714,692,1030,-35.4942,-1.28211
-525,-6,0,0,0,0,0,0,0,0,0,-1,699,1030,0,0
-518,-6,0,0,0,0,0,0,0,0,0,-1,706,1030,0,0
-511,-6,0,0,0,0,0,0,0,0,0,-1,713,1030,0,0
-504,-6,0,0,0,0,0,0,0,0,0,-1,720,1030,0,0
-497,-6,0,0,0,0,0,0,0,0,0,-1,727,1030,0,0
-490,-6,0,0,0,0,0,0,0,0,0,-1,734,1030,0,0
-483,-6,0,0,0,0,0,0,0,0,0,-1,741,1030,0,0
-476,-6,0,0,0,0,0,0,0,0,0,-1,748,1030,0,0
-469,-6,0,0,0,0,0,0,0,0,0,-1,755,1030,0,0
-462,-6,0,0,0,0,0,0,0,0,0,-1,762,1030,0,0
-455,-6,0,0,0,0,0,0,0,0,0,-1,769,1030,0,0
-448,-6,0,0,0,0,0,0,0,0,0,-1,776,1030,0,0
-441,-6,0,0,0,0,0,0,0,0,0,-1,783,1030,0,0
-434,-6,0,0,0,0,0,0,0,0,0,-1,790,1030,0,0
-427,-6,0,0,0,0,0,0,0,0,0,-1,797,1030,0,0
-420,-6,0,0,0,0,0,0,0,0,0,-1,804,1030,0,0
-413,-6,0,0,0,0,0,0,0,0,0,-1,811,1030,0,0
-406,-6,0,0,0,0,0,0,0,0,0,-1,818,1030,0,0
-399,-6,0,0,0,0,0,0,0,0,0,-1,825,1030,0,0
-392,-6,0,0,0,0,0,0,0,0,0,-1,832,1030,0,0
-385,-6,0,0,0,0,0,0,0,0,0,-1,839,1030,0,0
-378,-6,0,0,0,0,0,0,0,0,0,-1,846,1030,0,0
-371,-6,0,0,0,0,0,0,0,0,0,-1,853,1030,0,0
-364,-6,0,0,0,0,0,0,0,0,0,-1,860,1030,0,0
-357,-6,0,0,0,0,0,0,0,0,0,-1,867,1030,0,0
-350,-6,0,0,0,0,0,0,0,0,0,-1,874,1030,0,0
-343,-6,0,0,0,0,0,0,0,0,0,-1,881,1030,0,0
-336,-6,0,0,0,0,0,0,0,0,0,-1,888,1030,0,0
-329,-6,0,0,0,0,0,0,0,0,0,-1,895,1030,0,0
-322,-6,0,0,0,0,0,0,0,0,0,-1,902,1030,0,0
-315,-6,0,0,0,0,0,0,0,0,0,-1,909,1030,0,0
-308,-6,0,0,0,0,0,0,0,0,0,-1,916,1030,0,0
-301,-6,0,0,0,0,0,0,0,0,0,-1,923,1030,0,0
-294,-6,0,0,0,0,0,0,0,0,0,-1,930,1030,0,0
-287,-6,0,0,0,0,0,0,0,0,0,-1,937,1030,0,0
-280,-6,0,0,0,0,0,0,0,0,0,-1,944,1030,0,0
-273,-6,0,0,0,0,0,0,0,0,0,-1,951,1030,0,0
-266,-6,0,0,0,0,0,0,0,0,0,-1,958,1030,0,0
-259,-6,0,0,0,0,0,0,0,0,0,-1,965,1030,0,0
-252,-6,0,0,0,0,0,0,0,0,0,-1,972,1030,0,0
-245,-6,0,0,0,0,0,0,0,0,0,-1,979,1030,0,0
-238,-6,0,0,0,0,0,0,0,0,0,-1,986,1030,0,0
-231,-6,0,0,0,0,0,0,0,0,0,-1,993,1030,0,0
-224,-6,0,0,0,0,0,0,0,0,0,-1,1000,1030,0,0
-217,-6,0,0,0,0,0,0,0,0,0,-1,1007,1030,0,0
-210,-6,0,0,0,0,0,0,0,0,0,-1,1014,1030,0,0
-203,-6,0,0,0,0,0,0,0,0,0,-1,1021,1030,0,0
-196,-6,0,0,0,0,0,0,0,0,0,-1,1028,1030,0,0
-189,-6,0,0,0,0,0,0,0,0,0,-1,1035,1030,0,0
-182,-6,0,0,0,0,0,0,0,0,0,-1,1042,1030,0,0
-175,-6,0,0,0,0,0,0,0,0,0,-1,1049,1030,0,0
-168,-6,0,0,0,0,0,0,0,0,0,-1,1056,1030,0,0
-161,-6,0,0,0,0,0,0,0,0,0,-1,1063,1030,0,0
-154,-6,0,0,0,0,0,0,0,0,0,-1,1070,1030,0,0
-147,-6,0,0,0,0,0,0,0,0,0,-1,1077,1030,0,0
-140,-6,0,0,0,0,0,0,0,0,0,-1,1084,1030,0,0
-133,-6,0,0,0,0,0,0,0,0,0,-1,1091,1030,0,0
-126,-6,0,0,0,0,0,0,0,0,0,-1,1098,1030,0,0
-119,-6,0,0,0,0,0,0,0,0,0,-1,1105,1030,0,0
-112,-6,0,0,0,0,0,0,0,0,0,-1,1112,1030,0,0
-105,-6,0,0,0,0,0,0,0,0,0,-1,1119,1030,0,0
-98,-6,0,0,0,0,0,0,0,0,0,-1,1126,1030,0,0
-91,-6,0,0,0,0,0,0,0,0,0,-1,1133,1030,0,0
-84,-6,0,0,0,0,0,0,0,0,0,-1,1140,1030,0,0
-77,-6,0,0,0,0,0,0,0,0,0,-1,1147,1030,0,0
-70,-6,0,0,0,0,0,0,0,0,0,-1,1154,1030,0,0
-63,-6,0,0,0,0,0,0,0,0,0,-1,1161,1030,0,0
-56,-6,0,0,0,0,0,0,0,0,0,-1,1168,1030,0,0
-49,-6,0,0,0,0,0,0,0,0,0,-1,1175,1030,0,0
-42,-6,0,0,0,0,0,0,0,0,0,-1,1182,1030,0,0
-35,-6,0,0,0,0,0,0,0,0,0,-1,1189,1030,0,0
-28,-6,0,0,0,0,0,0,0,0,0,-1,1196,1030,0,0
-21,-6,0,0,0,0,0,0,0,0,0,-1,1203,1030,0,0
-14,-6,0,0,0,0,0,0,0,0,0,-1,1210,1030,0,0
-7,-6,0,0,0,0,0,0,0,0,0,-1,1217,1030,0,0
0,-6,0,0,0,0,0,0,0,0,0,-1,1224,1030,0,0
7,-6,0,0,0,0,0,0,0,0,0,-1,1231,1030,0,0
14,-6,0,0,0,0,0,0,0,0,0,-1,1238,1030,0,0
21,-6,0,0,0,0,0,0,0,0,0,-1,1245,1030,0,0
28,-6,0,0,0,0,0,0,0,0,0,-1,1252,1030,0,0
35,-6,0,0,0,0,0,0,0,0,0,-1,1259,1030,0,0
42,-6,0,0,0,0,0,0,0,0,0,-1,1266,1030,0,0
49,-6,0,0,0,0,0,0,0,0,0,-1,1273,1030,0,0
56,-6,0,0,0,0,0,0,0,0,0,-1,1280,1030,0,0
63,-6,0,0,0,0,0,0,0,0,0,-1,1287,1030,0,0
70,-6,0,0,0,0,0,0,0,0,0,-1,1294,1030,0,0
77,-6,0,0,0,0,0,0,0,0,0,-1,1301,1030,0,0
84,-6,0,0,0,0,0,0,0,0,0,-1,1308,1030,0,0
91,-6,0,0,0,0,0,0,0,0,0,-1,1315,1030,0,0
98,-6,0,0,0,0,0,0,0,0,0,-1,1322,1030,0,0
105,-6,0,0,0,0,0,0,0,0,0,-1,1329,1030,0,0
112,-6,0,0,0,0,0,0,0,0,0,-1,1336,1030,0,0
119,-6,0,0,0,0,0,0,0,0,0,-1,1343,1030,0,0
126,-6,0,0,0,0,0,0,0,0,0,-1,1350,1030,0,0
133,-6,0,0,0,0,0,0,0,0,0,-1,1357,1030,0,0
140,-6,0,0,0,0,0,0,0,0,0,-1,1364,1030,0,0
147,-6,0,0,0,0,0,0,0,0,0,-1,1371,1030,0,0
154,-6,0,0,0,0,0,0,0,0,0,-1,1378,1030,0,0
161,-6,0,0,0,0,0,0,0,0,0,-1,1385,1030,0,0
168,-6,0,0,0,0,0,0,0,0,0,-1,1392,1030,0,0
175,-6,0,0,0,0,0,0,0,0,0,-1,1399,1030,0,0
182,-6,0,0,0,0,0,0,0,0,0,-1,1406,1030,0,0
189,-6,0,0,0,0,0,0,0,0,0,-1,1413,1030,0,0
196,-6,0,0,0,0,0,0,0,0,0,-1,1420,1030,0,0
203,-6,0,0,0,0,0,0,0,0,0,-1,1427,1030,0,0
210,-6,0,0,0,0,0,0,0,0,0,-1,1434,1030,0,0
217,-6,0,0,0,0,0,0,0,0,0,-1,1441,1030,0,0
224,-6,0,0,0,0,0,0,0,0,0,-1,1448,1030,0,0
231,-6,0,0,0,0,0,0,0,0,0,-1,1455,1030,0,0
238,-6,0,0,0,0,0,0,0,0,0,-1,1462,1030,0,0
245,-6,0,0,0,0,0,0,0,0,0,-1,1469,1030,0,0
252,-6,0,0,0,0,0,0,0,0,0,-1,1476,1030,0,0
259,-6,0,0,0,0,0,0,0,0,0,-1,1483,1030,0,0
266,-6,0,0,0,0,0,0,0,0,0,-1,1490,1030,0,0
273,-6,0,0,0,0,0,0,0,0,0,-1,1497,1030,0,0
280,-6,0,0,0,0,0,0,0,0,0,-1,1504,1030,0,0
287,-6,0,0,0,0,0,0,0,0,0,-1,1511,1030,0,0
294,-6,0,0,0,0,0,0,0,0,0,-1,1518,1030,0,0
301,-6,0,0,0,0,0,0,0,0,0,-1,1525,1030,0,0
308,-6,0,0,0,0,0,0,0,0,0,-1,1532,1030,0,0
315,-6,0,0,0,0,0,0,0,0,0,-1,1539,1030,0,0
322,-6,0,0,0,0,0,0,0,0,0,-1,1546,1030,0,0
329,-6,0,0,0,0,0,0,0,0,0,-1,1553,1030,0,0
336,-6,0,0,0,0,0,0,0,0,0,-1,1560,1030,0,0
343,-6,0,0,0,0,0,0,0,0,0,-1,1567,1030,0,0
350,-6,0,0,0,0,0,0,0,0,0,-1,1574,1030,0,0
357,-6,0,0,0,0,0,0,0,0,0,-1,1581,1030,0,0
364,-6,0,0,0,0,0,0,0,0,0,-1,1588,1030,0,0
371,-6,0,0,0,0,0,0,0,0,0,-1,1595,1030,0,0
378,-6,0,0,0,0,0,0,0,0,0,-1,1602,1030,0,0
385,-6,0,0,0,0,0,0,0,0,0,-1,1609,1030,0,0
392,-6,0,0,0,0,0,0,0,0,0,-1,1616,1030,0,0
399,-6,0,0,0,0,0,0,0,0,0,-1,1623,1030,0,0
406,-6,0,0,0,0,0,0,0,0,0,-1,1630,1030,0,0
413,-6,0,0,0,0,0,0,0,0,0,-1,1637,1030,0,0
420,-6,0,0,0,0,0,0,0,0,0,-1,1644,1030,0,0
427,-6,0,0,0,0,0,0,0,0,0,-1,1651,1030,0,0
434,-6,0,0,0,0,0,0,0,0,0,-1,1658,1030,0,0
441,-6,0,0,0,0,0,0,0,0,0,-1,1665,1030,0,0
448,-6,0,0,0,0,0,0,0,0,0,-1,1672,1030,0,0
455,-6,0,0,0,0,0,0,0,0,0,-1,1679,1030,0,0
462,-6,0,0,0,0,0,0,0,0,0,-1,1686,1030,0,0
469,-6,0,0,0,0,0,0,0,0,0,-1,1693,1030,0,0
476,-6,0,0,0,0,0,0,0,0,0,-1,1700,1030,0,0
483,-6,0,0,0,0,0,0,0,0,0,-1,1707,1030,0,0
490,-6,0,0,0,0,0,0,0,0,0,-1,1714,1030,0,0
497,-6,0,0,0,0,0,0,0,0,0,-1,1721,1030,0,0
504,-6,0,0,0,0,0,0,0,0,0,-1,1728,1030,0,0
511,-6,0,0,0,0,0,0,0,0,0,-1,1735,1030,0,0
518,-6,0,0,0,0,0,0,0,0,0,-1,1742,1030,0,0
525,-6,0,0,0,0,0,0,0,0,0,-1,1749,1030,0,0
532,-6,0,0,0,0,0,0,0,0,0,-1,1756,1030,0,0
539,-6,0,0,0,0,0,0,0,0,0,-1,1763,1030,0,0
546,-6,0,0,0,0,0,0,0,0,0,-1,1770,1030,0,0
553,-6,0,0,0,0,0,0,0,0,0,-1,1777,1030,0,0
560,-6,0,0,0,0,0,0,0,0,0,-1,1784,1030,0,0
567,-6,0,0,0,0,0,0,0,0,0,-1,1791,1030,0,0
574,-6,0,0,0,0,0,0,0,0,0,-1,1798,1030,0,0
581,-6,0,0,0,0,0,0,0,0,0,-1,1805,1030,0,0
588,-6,0,0,0,0,0,0,0,0,0,-1,1812,1030,0,0
595,-6,0,0,0,0,0,0,0,0,0,-1,1819,1030,0,0
602,-6,0,0,0,0,0,0,0,0,0,-1,1826,1030,0,0
609,-6,0,0,0,0,0,0,0,0,0,-1,1833,1030,0,0
616,-6,0,0,0,0,0,0,0,0,0,-1,1840,1030,0,0
623,-6,0,0,0,0,0,0,0,0,0,-1,1847,1030,0,0
630,-6,0,0,0,0,0,0,0,0,0,-1,1854,1030,0,0
637,-6,0,0,0,0,0,0,0,0,0,-1,1861,1030,0,0
644,-6,0,0,0,0,0,0,0,0,0,-1,1868,1030,0,0
651,-6,47.9736,2.86707,-0.00147365,-0.00231575,-0.00281156,0.000948217,-0.00473761,-0.711072,0.00351735,0.0355387,1875,1030,47.9736,-2.8671
658,-6,47.8656,2.72473,-0.00102919,-0.000864522,-0.00197799,0.00103284,-0.00292656,-0.806199,0.00237151,0.0387861,1882,1030,47.8655,-2.72472
665,-6,47.9951,2.51233,-0.000735747,0.000107816,-0.00121107,0.000968453,-0.00159638,-0.952965,0.00149553,0.0430913,1889,1030,47.9951,-2.5123
672,-6,48.1038,2.55237,-0.000489167,0.000799398,-0.000490332,0.000964761,-0.00065453,-1.24553,0.0009406,0.0410943,1896,1030,48.1037,-2.55241
679,-6,47.8705,2.69897,-0.00024775,0.00132002,0.000333721,0.0013881,-0.000315831,1.36955,0.00104669,0.038934,1903,1030,47.8705,-2.69901
686,-6,47.7314,2.71472,-0.00018339,0.00132662,0.001076,0.00188608,-0.000742845,1.09132,0.00156492,0.0358603,1910,1030,47.7315,-2.71476
693,-6,47.8579,2.82971,-0.000199657,0.000998988,0.00175177,0.00225112,-0.00145179,0.950219,0.00215441,0.0350915,1917,1030,47.8579,-2.82975
700,-6,47.9288,2.73975,-0.000243708,0.000845765,0.00219455,0.00256218,-0.00196012,0.907051,0.00261865,0.0305065,1924,1030,47.9288,-2.7397
707,-6,47.8644,2.73547,-0.000390373,0.000743414,0.00244487,0.00268625,-0.00233321,0.89932,0.00290038,0.0258158,1931,1030,47.8643,-2.73542
714,-6,47.885,2.65955,-0.000817524,0.000878654,0.00260031,0.00276568,-0.00270455,0.943034,0.00315831,0.0326705,1938,1030,47.885,-2.65959
721,-6,47.9613,2.47046,0,0,0,0,0,0,0,-1,1945,1030,47.9613,-2.4705
728,-6,47.4554,5.98218,0,0,0,0,0,0,0,-1,1952,1030,47.4554,-5.9822
735,-6,47.563,5.88501,-0.00348047,0.0028435,0.0023854,0.00364236,-0.00427933,1.24764,0.00457852,0.0392645,1959,1030,47.563,-5.88498
742,-6,47.7421,5.84888,-0.00456575,0.0035644,0.00223642,0.00413898,-0.00514032,1.31932,0.0053678,0.0410085,1966,1030,47.742,-5.84889
749,-6,47.6976,5.99609,-0.00571024,0.00462597,0.00176515,0.0049191,-0.00600337,1.40623,0.00631644,0.0329168,1973,1030,47.6976,-5.99606
756,-6,47.7461,5.85205,-0.00671334,0.00628704,0.00108509,0.00637698,-0.00680329,1.48809,0.00761096,0.0210686,1980,1030,47.746,-5.85205
763,-6,47.6345,5.76648,-0.00804467,0.00880972,0.000304527,0.00881522,-0.00805017,1.55274,0.00974058,0.0191062,1987,1030,47.6345,-5.76653
770,-6,47.5575,5.72363,-0.00930362,0.011634,-0.000585375,0.0116504,-0.00931998,-1.54287,0.0121321,0.0166566,1994,1030,47.5574,-5.72369
777,-6,47.446,5.70569,-0.0101931,0.0147193,-0.00145448,0.0148039,-0.0102777,-1.51268,0.0145593,0.019154,2001,1030,47.4459,-5.70574
784,-6,47.3379,5.68298,-0.010589,0.0177849,-0.00214718,0.0179465,-0.0107506,-1.49569,0.016741,0.0432962,2008,1030,47.3379,-5.68303
791,-6,46.9648,5.75549,0,0,0,0,0,0,0,-1,2015,1030,46.965,-5.7555
798,-6,46.5164,5.99866,0,0,0,0,0,0,0,-1,2022,1030,46.5165,-5.99869
805,-6,46.3186,6.10309,0,0,0,0,0,0,0,-1,2029,1030,46.3186,-6.10312
812,-6,47.1946,2.68542,0,0,0,0,0,0,0,-1,2036,1030,47.1946,-2.68544
-700,-13,0,0,0,0,0,0,0,0,0,-1,524,1037,0,0
-693,-13,-36.9996,4.97815,0.00774497,0.0469723,0.0352311,0.0676814,-0.0129641,1.03939,0.0500056,0.047611,531,1037,-36.9996,-4.97815
-686,-13,-36.9505,4.26636,0.0123109,0.0483388,0.0300793,0.0653857,-0.00473605,1.0552,0.0452518,0.0446348,538,1037,-36.9505,-4.26636
-679,-13,-37.0278,3.73901,0.0133337,0.0457433,0.0247387,0.0591121,-3.50922e-05,1.07535,0.0394198,0.0491423,545,1037,-37.0278,-3.73901
-672,-13,-36.6537,3.4458,0,0,0,0,0,0,0,-1,552,1037,-36.6538,-3.44579
-665,-13,-36.4586,2.78235,0,0,0,0,0,0,0,-1,559,1037,-36.4586,-2.78237
-658,-13,-36.1404,2.77502,0.00945106,0.0303939,0.0112924,0.0353227,0.00452218,1.15924,0.0221952,0.0469656,566,1037,-36.1404,-2.77497
-651,-13,-35.9013,2.72034,0.00744817,0.024972,0.00796004,0.0280478,0.00437229,1.20205,0.017425,0.0409391,573,1037,-35.9013,-2.7203
-644,-13,-35.6785,2.83203,0.0053628,0.0195578,0.00500399,0.0211444,0.00377614,1.26375,0.0130214,0.0307354,580,1037,-35.6785,-2.83204
-637,-13,-35.7701,2.9436,0.00373666,0.0152718,0.00202293,0.0156163,0.00339218,1.40213,0.00948452,0.0238815,587,1037,-35.7701,-2.94363
-630,-13,-35.8999,2.96045,0.00254754,0.0110478,-0.000486209,0.0110755,0.00251982,-1.51384,0.0067035,0.0154071,594,1037,-35.8999,-2.96047
-623,-13,-35.9207,3.07153,0.00186055,0.00755311,-0.00236888,0.00840992,0.00100374,-1.22374,0.00530379,0.0142719,601,1037,-35.9207,-3.07156
-616,-13,-35.9158,3.20752,0.0012528,0.00417985,-0.00397925,0.00695617,-0.00152352,-0.961615,0.00521993,0.0130459,608,1037,-35.9159,-3.20757
-609,-13,-35.8857,3.323,0.00113754,0.00239765,-0.00476142,0.00657052,-0.00303534,-0.851178,0.00566975,0.0174397,615,1037,-35.8858,-3.32302
-602,-13,-35.8664,3.41577,0.0010589,0.00149654,-0.00551865,0.0068007,-0.00424526,-0.805214,0.00643403,0.0129641,622,1037,-35.8664,-3.41574
-595,-13,-35.878,3.49292,0,0,0,0,0,0,0,-1,629,1037,-35.878,-3.49291
-588,-13,-35.5493,1.06433,0,0,0,0,0,0,0,-1,636,1037,-35.5493,-1.06429
-581,-13,-35.6167,0.913818,0.00231352,0.000415207,-0.00552908,0.00697433,-0.0042456,-0.700393,0.00654137,0.022726,643,1037,-35.6167,-0.913829
-574,-13,-35.6201,0.866455,0.00234153,0.000727411,-0.00506309,0.00666148,-0.00359254,-0.706363,0.00600789,0.0313108,650,1037,-35.6201,-0.866516
-567,-13,-35.6609,1.02551,0.00194623,0.00155646,-0.00418887,0.00594474,-0.00244205,-0.762153,0.00498089,0.0403269,657,1037,-35.661,-1.02546
-560,-13,-35.7211,1.18335,0.00118432,0.00276063,-0.00280513,0.00488623,-0.000941281,-0.922352,0.00361236,0.0430086,664,1037,-35.7212,-1.18336
-553,-13,-35.6684,1.12244,1.35725e-05,0.00417685,-0.000839174,0.00433963,-0.000149211,-1.37919,0.00294409,0.0431973,671,1037,-35.6684,-1.12241
-546,-13,-35.6132,0.881348,-0.00159578,0.00550279,0.00176514,0.00591749,-0.00201048,1.34004,0.00475888,0.0410316,678,1037,-35.6132,-0.881324
-539,-13,-35.5975,1.0708,-0.00363521,0.00642315,0.00443072,0.0080965,-0.00530856,1.20969,0.00779501,0.0421335,685,1037,-35.5975,-1.07084
-532,-13,-35.686,1.10352,-0.00502019,0.00751444,0.00583779,0.00981212,-0.00731787,1.19583,0.00992489,0.0438333,692,1037,-35.686,-1.10346
-525,-13,0,0,0,0,0,0,0,0,0,-1,699,1037,0,0
-518,-13,0,0,0,0,0,0,0,0,0,-1,706,1037,0,0
-511,-13,0,0,0,0,0,0,0,0,0,-1,713,1037,0,0
-504,-13,0,0,0,0,0,0,0,0,0,-1,720,1037,0,0
-497,-13,0,0,0,0,0,0,0,0,0,-1,727,1037,0,0
-490,-13,0,0,0,0,0,0,0,0,0,-1,734,1037,0,0
-483,-13,0,0,0,0,0,0,0,0,0,-1,741,1037,0,0
-476,-13,0,0,0,0,0,0,0,0,0,-1,748,1037,0,0
-469,-13,0,0,0,0,0,0,0,0,0,-1,755,1037,0,0
-462,-13,0,0,0,0,0,0,0,0,0,-1,762,1037,0,0
-455,-13,0,0,0,0,0,0,0,0,0,-1,769,1037,0,0
-448,-13,0,0,0,0,0,0,0,0,0,-1,776,1037,0,0
-441,-13,0,0,0,0,0,0,0,0,0,-1,783,1037,0,0
-434,-13,0,0,0,0,0,0,0,0,0,-1,790,1037,0,0
-427,-13,0,0,0,0,0,0,0,0,0,-1,797,1037,0,0
-420,-13,0,0,0,0,0,0,0,0,0,-1,804,1037,0,0
-413,-13,0,0,0,0,0,0,0,0,0,-1,811,1037,0,0
-406,-13,0,0,0,0,0,0,0,0,0,-1,818,1037,0,0
-399,-13,0,0,0,0,0,0,0,0,0,-1,825,1037,0,0
-392,-13,0,0,0,0,0,0,0,0,0,-1,832,1037,0,0
-385,-13,0,0,0,0,0,0,0,0,0,-1,839,1037,0,0
-378,-13,0,0,0,0,0,0,0,0,0,-1,846,1037,0,0
-371,-13,0,0,0,0,0,0,0,0,0,-1,853,1037,0,0
-364,-13,0,0,0,0,0,0,0,0,0,-1,860,1037,0,0
-357,-13,0,0,0,0,0,0,0,0,0,-1,867,1037,0,0
-350,-13,0,0,0,0,0,0,0,0,0,-1,874,1037,0,0
-343,-13,0,0,0,0,0,0,0,0,0,-1,881,1037,0,0
-336,-13,0,0,0,0,0,0,0,0,0,-1,888,1037,0,0
-329,-13,0,0,0,0,0,0,0,0,0,-1,895,1037,0,0
-322,-13,0,0,0,0,0,0,0,0,0,-1,902,1037,0,0
-315,-13,0,0,0,0,0,0,0,0,0,-1,909,1037,0,0
-308,-13,0,0,0,0,0,0,0,0,0,-1,916,1037,0,0
-301,-13,0,0,0,0,0,0,0,0,0,-1,923,1037,0,0
-294,-13,0,0,0,0,0,0,0,0,0,-1,930,1037,0,0
-287,-13,0,0,0,0,0,0,0,0,0,-1,937,1037,0,0
-280,-13,0,0,0,0,0,0,0,0,0,-1,944,1037,0,0
-273,-13,0,0,0,0,0,0,0,0,0,-1,951,1037,0,0
-266,-13,0,0,0,0,0,0,0,0,0,-1,958,1037,0,0
-259,-13,0,0,0,0,0,0,0,0,0,-1,965,1037,0,0
-252,-13,0,0,0,0,0,0,0,0,0,-1,972,1037,0,0
-245,-13,0,0,0,0,0,0,0,0,0,-1,979,1037,0,0
-238,-13,0,0,0,0,0,0,0,0,0,-1,986,1037,0,0
-231,-13,0,0,0,0,0,0,0,0,0,-1,993,1037,0,0
-224,-13,0,0,0,0,0,0,0,0,0,-1,1000,1037,0,0
-217,-13,0,0,0,0,0,0,0,0,0,-1,1007,1037,0,0
-210,-13,0,0,0,0,0,0,0,0,0,-1,1014,1037,0,0
-203,-13,0,0,0,0,0,0,0,0,0,-1,1021,1037,0,0
-196,-13,0,0,0,0,0,0,0,0,0,-1,1028,1037,0,0
-189,-13,0,0,0,0,0,0,0,0,0,-1,1035,1037,0,0
-182,-13,0,0,0,0,0,0,0,0,0,-1,1042,1037,0,0
-175,-13,0,0,0,0,0,0,0,0,0,-1,1049,1037,0,0
-168,-13,0,0,0,0,0,0,0,0,0,-1,1056,1037,0,0
-161,-13,0,0,0,0,0,0,0,0,0,-1,1063,1037,0,0
-154,-13,0,0,0,0,0,0,0,0,0,-1,1070,1037,0,0
-147,-13,0,0,0,0,0,0,0,0,0,-1,1077,1037,0,0
-140,-13,0,0,0,0,0,0,0,0,0,-1,1084,1037,0,0
-133,-13,0,0,0,0,0,0,0,0,0,-1,1091,1037,0,0
-126,-13,0,0,0,0,0,0,0,0,0,-1,1098,1037,0,0
-119,-13,0,0,0,0,0,0,0,0,0,-1,1105,1037,0,0
-112,-13,0,0,0,0,0,0,0,0,0,-1,1112,1037,0,0
-105,-13,0,0,0,0,0,0,0,0,0,-1,1119,1037,0,0
-98,-13,0,0,0,0,0,0,0,0,0,-1,1126,1037,0,0
-91,-13,0,0,0,0,0,0,0,0,0,-1,1133,1037,0,0
-84,-13,0,0,0,0,0,0,0,0,0,-1,1140,1037,0,0
-77,-13,0,0,0,0,0,0,0,0,0,-1,1147,1037,0,0
-70,-13,0,0,0,0,0,0,0,0,0,-1,1154,1037,0,0
-63,-13,0,0,0,0,0,0,0,0,0,-1,1161,1037,0,0
-56,-13,0,0,0,0,0,0,0,0,0,-1,1168,1037,0,0
-49,-13,0,0,0,0,0,0,0,0,0,-1,1175,1037,0,0
-42,-13,0,0,0,0,0,0,0,0,0,-1,1182,1037,0,0
-35,-13,0,0,0,0,0,0,0,0,0,-1,1189,1037,0,0
-28,-13,0,0,0,0,0,0,0,0,0,-1,1196,1037,0,0
-21,-13,0,0,0,0,0,0,0,0,0,-1,1203,1037,0,0
-14,-13,0,0,0,0,0,0,0,0,0,-1,1210,1037,0,0
-7,-13,0,0,0,0,0,0,0,0,0,-1,1217,1037,0,0
0,-13,0,0,0,0,0,0,0,0,0,-1,1224,1037,0,0
7,-13,0,0,0,0,0,0,0,0,0,-1,1231,1037,0,0
14,-13,0,0,0,0,0,0,0,0,0,-1,1238,1037,0,0
21,-13,0,0,0,0,0,0,0,0,0,-1,1245,1037,0,0
28,-13,0,0,0,0,0,0,0,0,0,-1,1252,1037,0,0
35,-13,0,0,0,0,0,0,0,0,0,-1,1259,1037,0,0
42,-13,0,0,0,0,0,0,0,0,0,-1,1266,1037,0,0
49,-13,0,0,0,0,0,0,0,0,0,-1,1273,1037,0,0
56,-13,0,0,0,0,0,0,0,0,0,-1,1280,1037,0,0
63,-13,0,0,0,0,0,0,0,0,0,-1,1287,1037,0,0
70,-13,0,0,0,0,0,0,0,0,0,-1,1294,1037,0,0
77,-13,0,0,0,0,0,0,0,0,0,-1,1301,1037,0,0
84,-13,0,0,0,0,0,0,0,0,0,-1,1308,1037,0,0
91,-13,0,0,0,0,0,0,0,0,0,-1,1315,1037,0,0
98,-13,0,0,0,0,0,0,0,0,0,-1,1322,1037,0,0
105,-13,0,0,0,0,0,0,0,0,0,-1,1329,1037,0,0
112,-13,0,0,0,0,0,0,0,0,0,-1,1336,1037,0,0
119,-13,0,0,0,0,0,0,0,0,0,-1,1343,1037,0,0
126,-13,0,0,0,0,0,0,0,0,0,-1,1350,1037,0,0
133,-13,0,0,0,0,0,0,0,0,0,-1,1357,1037,0,0
140,-13,0,0,0,0,0,0,0,0,0,-1,1364,1037,0,0
147,-13,0,0,0,0,0,0,0,0,0,-1,1371,1037,0,0
154,-13,0,0,0,0,0,0,0,0,0,-1,1378,1037,0,0
161,-13,0,0,0,0,0,0,0,0,0,-1,1385,1037,0,0
168,-13,0,0,0,0,0,0,0,0,0,-1,1392,1037,0,0
175,-13,0,0,0,0,0,0,0,0,0,-1,1399,1037,0,0
182,-13,0,0,0,0,0,0,0,0,0,-1,1406,1037,0,0
189,-13,0,0,0,0,0,0,0,0,0,-1,1413,1037,0,0
196,-13,0,0,0,0,0,0,0,0,0,-1,1420,1037,0,0
203,-13,0,0,0,0,0,0,0,0,0,-1,1427,1037,0,0
210,-13,0,0,0,0,0,0,0,0,0,-1,1434,1037,0,0
217,-13,0,0,0,0,0,0,0,0,0,-1,1441,1037,0,0
224,-13,0,0,0,0,0,0,0,0,0,-1,1448,1037,0,0
231,-13,0,0,0,0,0,0,0,0,0,-1,1455,1037,0,0
238,-13,0,0,0,0,0,0,0,0,0,-1,1462,1037,0,0
245,-13,0,0,0,0,0,0,0,0,0,-1,1469,1037,0,0
252,-13,0,0,0,0,0,0,0,0,0,-1,1476,1037,0,0
259,-13,0,0,0,0,0,0,0,0,0,-1,1483,1037,0,0
266,-13,0,0,0,0,0,0,0,0,0,-1,1490,1037,0,0
273,-13,0,0,0,0,0,0,0,0,0,-1,1497,1037,0,0
280,-13,0,0,0,0,0,0,0,0,0,-1,1504,1037,0,0
287,-13,0,0,0,0,0,0,0,0,0,-1,1511,1037,0,0
294,-13,0,0,0,0,0,0,0,0,0,-1,1518,1037,0,0
301,-13,0,0,0,0,0,0,0,0,0,-1,1525,1037,0,0
308,-13,0,0,0,0,0,0,0,0,0,-1,1532,1037,0,0
315,-13,0,0,0,0,0,0,0,0,0,-1,1539,1037,0,0
322,-13,0,0,0,0,0,0,0,0,0,-1,1546,1037,0,0
329,-13,0,0,0,0,0,0,0,0,0,-1,1553,1037,0,0
336,-13,0,0,0,0,0,0,0,0,0,-1,1560,1037,0,0
343,-13,0,0,0,0,0,0,0,0,0,-1,1567,1037,0,0
350,-13,0,0,0,0,0,0,0,0,0,-1,1574,1037,0,0
357,-13,0,0,0,0,0,0,0,0,0,-1,1581,1037,0,0
364,-13,0,0,0,0,0,0,0,0,0,-1,1588,1037,0,0
371,-13,0,0,0,0,0,0,0,0,0,-1,1595,1037,0,0
378,-13,0,0,0,0,0,0,0,0,0,-1,1602,1037,0,0
385,-13,0,0,0,0,0,0,0,0,0,-1,1609,1037,0,0
392,-13,0,0,0,0,0,0,0,0,0,-1,1616,1037,0,0
399,-13,0,0,0,0,0,0,0,0,0,-1,1623,1037,0,0
406,-13,0,0,0,0,0,0,0,0,0,-1,1630,1037,0,0
413,-13,0,0,0,0,0,0,0,0,0,-1,1637,1037,0,0
420,-13,0,0,0,0,0,0,0,0,0,-1,1644,1037,0,0
427,-13,0,0,0,0,0,0,0,0,0,-1,1651,1037,0,0
434,-13,0,0,0,0,0,0,0,0,0,-1,1658,1037,0,0
441,-13,0,0,0,0,0,0,0,0,0,-1,1665,1037,0,0
448,-13,0,0,0,0,0,0,0,0,0,-1,1672,1037,0,0
455,-13,0,0,0,0,0,0,0,0,0,-1,1679,1037,0,0
462,-13,0,0,0,0,0,0,0,0,0,-1,1686,1037,0,0
469,-13,0,0,0,0,0,0,0,0,0,-1,1693,1037,0,0
476,-13,0,0,0,0,0,0,0,0,0,-1,1700,1037,0,0
483,-13,0,0,0,0,0,0,0,0,0,-1,1707,1037,0,0
490,-13,0,0,0,0,0,0,0,0,0,-1,1714,1037,0,0
497,-13,0,0,0,0,0,0,0,0,0,-1,1721,1037,0,0
504,-13,0,0,0,0,0,0,0,0,0,-1,1728,1037,0,0
511,-13,0,0,0,0,0,0,0,0,0,-1,1735,1037,0,0
518,-13,0,0,0,0,0,0,0,0,0,-1,1742,1037,0,0
525,-13,0,0,0,0,0,0,0,0,0,-1,1749,1037,0,0
532,-13,0,0,0,0,0,0,0,0,0,-1,1756,1037,0,0
539,-13,0,0,0,0,0,0,0,0,0,-1,1763,1037,0,0
546,-13,0,0,0,0,0,0,0,0,0,-1,1770,1037,0,0
553,-13,0,0,0,0,0,0,0,0,0,-1,1777,1037,0,0
560,-13,0,0,0,0,0,0,0,0,0,-1,1784,1037,0,0
567,-13,0,0,0,0,0,0,0,0,0,-1,1791,1037,0,0
574,-13,0,0,0,0,0,0,0,0,0,-1,1798,1037,0,0
581,-13,0,0,0,0,0,0,0,0,0,-1,1805,1037,0,0
588,-13,0,0,0,0,0,0,0,0,0,-1,1812,1037,0,0
595,-13,0,0,0,0,0,0,0,0,0,-1,1819,1037,0,0
602,-13,0,0,0,0,0,0,0,0,0,-1,1826,1037,0,0
609,-13,0,0,0,0,0,0,0,0,0,-1,1833,1037,0,0
616,-13,0,0,0,0,0,0,0,0,0,-1,1840,1037,0,0
623,-13,0,0,0,0,0,0,0,0,0,-1,1847,1037,0,0
630,-13,0,0,0,0,0,0,0,0,0,-1,1854,1037,0,0
637,-13,0,0,0,0,0,0,0,0,0,-1,1861,1037,0,0
644,-13,0,0,0,0,0,0,0,0,0,-1,1868,1037,0,0
651,-13,48.0891,2.72339,-0.0020541,-0.00230722,-0.00211425,-6.26238e-05,-0.0042987,-0.755504,0.00284515,0.0367875,1875,1037,48.0891,-2.72343
658,-13,47.8971,2.66272,-0.00140811,-0.000755105,-0.00152311,0.0004761,-0.00263932,-0.890984,0.00193784,0.0434729,1882,1037,47.8971,-2.66268
665,-13,47.9119,2.44995,-0.000995173,0.000263826,-0.000888558,0.000723274,-0.00145462,-1.09359,0.00128082,0.0463427,1889,1037,47.9118,-2.44997
672,-13,48.0264,2.64001,-0.000661897,0.000963251,-0.000235662,0.000996734,-0.00069538,-1.42966,0.000982094,0.0389772,1896,1037,48.0264,-2.64006
679,-13,47.8739,2.68823,-0.000362326,0.00149017,0.000535528,0.00163384,-0.000505996,1.30869,0.00129137,0.0359866,1903,1037,47.874,-2.68817
686,-13,47.7698,2.75732,-0.00030995,0.00149116,0.00124677,0.0021286,-0.000947392,1.09817,0.00181905,0.0378551,1910,1037,47.7698,-2.75734
693,-13,47.8041,2.97168,0,0,0,0,0,0,0,-1,1917,1037,47.8041,-2.97173
700,-13,47.8789,2.70374,-0.000400181,0.000946516,0.00236332,0.00273054,-0.00218421,0.924179,0.00284337,0.0358457,1924,1037,47.8789,-2.70371
707,-13,47.9058,2.7196,-0.00056502,0.000799146,0.00261712,0.0028216,-0.00258748,0.912874,0.00312391,0.0294045,1931,1037,47.9057,-2.71959
714,-13,47.8813,2.8783,-0.000983827,0.000856437,0.00277391,0.00285884,-0.00298623,0.945542,0.00337492,0.0299202,1938,1037,47.8813,-2.87834
721,-13,47.7966,3.00647,0,0,0,0,0,0,0,-1,1945,1037,47.7966,-3.00646
728,-13,47.6827,6.0542,0,0,0,0,0,0,0,-1,1952,1037,47.6827,-6.05417
735,-13,47.6337,6.03357,-0.00364107,0.00265709,0.00260134,0.00359257,-0.00457656,1.22558,0.00472784,0.0278484,1959,1037,47.6337,-6.03353
742,-13,47.621,5.9812,-0.00476189,0.00335545,0.00248251,0.00405447,-0.00546091,1.29632,0.00551368,0.0182774,1966,1037,47.6209,-5.98115
749,-13,47.6606,5.91199,-0.00575914,0.00442921,0.00189944,0.0047718,-0.00610174,1.39235,0.00629347,0.0247885,1973,1037,47.6607,-5.91197
756,-13,47.6581,5.82922,-0.00641747,0.00612719,0.00103652,0.00621226,-0.00650254,1.48891,0.00734153,0.0176609,1980,1037,47.6581,-5.82921
763,-13,47.6096,5.72693,-0.00736647,0.00871598,2.2994e-05,0.00871602,-0.0073665,1.56937,0.00929614,0.0233744,1987,1037,47.6096,-5.72693
770,-13,47.5244,5.672,-0.00805951,0.0116845,-0.00124144,0.0117622,-0.00813727,-1.50825,0.0115523,0.0200066,1994,1037,47.5244,-5.67198
777,-13,47.3662,5.58301,-0.00809389,0.0150791,-0.00274548,0.0153999,-0.00841472,-1.45446,0.0139451,0.0165287,2001,1037,47.3663,-5.58302
784,-13,47.3701,5.52844,-0.00750636,0.018489,-0.00430436,0.0191832,-0.00820055,-1.4109,0.0162283,0.0356187,2008,1037,47.3701,-5.52847
791,-13,47.4392,5.45972,-0.00624023,0.0219682,-0.00599854,0.0231908,-0.00746283,-1.36973,0.0184581,0.0494015,2015,1037,47.4392,-5.45971
798,-13,47.4441,5.37061,0,0,0,0,0,0,0,-1,2022,1037,47.444,-5.37061
805,-13,47.7288,5.00073,0,0,0,0,0,0,0,-1,2029,1037,47.7287,-5.00073
812,-13,47.6406,5.42468,0,0,0,0,0,0,0,-1,2036,1037,47.6405,-5.42463
-700,-20,-37.9008,5.73633,0,0,0,0,0,0,0,-1,524,1044,-37.9009,-5.73627
-693,-20,-37.7506,5.0708,0.00426383,0.0755828,0.0389679,0.0927447,-0.0128981,1.15595,0.0665471,0.0484366,531,1044,-37.7506,-5.07082
-686,-20,-37.4603,4.49622,0.00885767,0.0732281,0.0329789,0.0871243,-0.0050385,1.17201,0.0598331,0.0476859,538,1044,-37.4603,-4.49621
-679,-20,-37.391,3.97791,0,0,0,0,0,0,0,-1,545,1044,-37.391,-3.97795
-672,-20,-34.5183,4.0199,0,0,0,0,0,0,0,-1,552,1044,-34.5183,-4.01985
-665,-20,-35.9224,3.14636,0.00934465,0.0491398,0.0158904,0.0547063,0.00377815,1.23385,0.035279,0.0456587,559,1044,-35.9224,-3.14634
-658,-20,-36.0017,2.72949,0.00796927,0.0404381,0.0114831,0.0440887,0.00431858,1.26298,0.028064,0.0471944,566,1044,-36.0017,-2.72954
-651,-20,-35.6811,2.52209,0.006389,0.0323438,0.00780836,0.0345118,0.004221,1.29997,0.0217379,0.0416208,573,1044,-35.6811,-2.52206
-644,-20,-35.5549,2.55811,0.00468869,0.0246977,0.00463294,0.0257184,0.00366803,1.35396,0.0160631,0.0280851,580,1044,-35.5549,-2.55815
-637,-20,-35.6216,2.69226,0.00330543,0.0185188,0.00163479,0.0186925,0.00313175,1.46495,0.01156,0.0182817,587,1044,-35.6216,-2.69232
-630,-20,-35.7034,2.89758,0.00234433,0.0129169,-0.000800746,0.0129772,0.00228402,-1.49563,0.00799957,0.0150174,594,1044,-35.7035,-2.89753
-623,-20,-35.7706,3.0697,0.00177589,0.00842402,-0.00256098,0.00929614,0.000903765,-1.24257,0.00591922,0.0144429,601,1044,-35.7706,-3.06965
-616,-20,-35.7747,3.20886,0.00125336,0.00437836,-0.00403733,0.007145,-0.00151328,-0.970028,0.00533972,0.0137722,608,1044,-35.7747,-3.20886
-609,-20,-35.7712,3.35706,0.00125381,0.00235742,-0.00463623,0.00647456,-0.00286333,-0.84463,0.00552399,0.0150616,615,1044,-35.7712,-3.35703
-602,-20,-35.7353,3.46301,0.00118039,0.00134063,-0.00515953,0.00642066,-0.00389964,-0.793162,0.00601739,0.0132359,622,1044,-35.7353,-3.46306
-595,-20,-35.716,3.53113,0.00142185,0.000506278,-0.00519222,0.00617643,-0.0042483,-0.741428,0.00605294,0.0297977,629,1044,-35.716,-3.53118
-588,-20,-35.5886,0.98291,0,0,0,0,0,0,0,-1,636,1044,-35.5886,-0.982877
-581,-20,-35.6384,0.891968,0.00217685,0.000407704,-0.00493092,0.00630191,-0.00371736,-0.696646,0.00584843,0.0298477,643,1044,-35.6384,-0.891926
-574,-20,-35.6263,0.915649,0.00219879,0.000823133,-0.00450717,0.00607031,-0.00304839,-0.709679,0.00536019,0.0340465,650,1044,-35.6263,-0.915599
-567,-20,-35.6144,1.20947,0.0018233,0.00171406,-0.00371854,0.00548762,-0.00195026,-0.778054,0.0044532,0.041907,657,1044,-35.6144,-1.20951
-560,-20,-35.5981,1.14783,0.001084,0.00300928,-0.00249002,0.00471626,-0.000622985,-0.969849,0.00337108,0.045061,664,1044,-35.5982,-1.14783
-553,-20,-35.5504,0.876831,-6.80764e-05,0.00458461,-0.000749066,0.00470223,-0.0001857,-1.41504,0.00319852,0.0418353,671,1044,-35.5504,-0.876863
-546,-20,-35.5692,0.786621,-0.00168921,0.00620296,0.00157177,0.00650446,-0.00199071,1.38127,0.00513028,0.0392475,678,1044,-35.5692,-0.786662
-539,-20,-35.6779,0.757935,-0.0038727,0.00758572,0.00396685,0.00882499,-0.00511197,1.268,0.00814114,0.0436901,685,1044,-35.6778,-0.757881
-532,-20,-35.8123,0.797607,0,0,0,0,0,0,0,-1,692,1044,-35.8123,-0.797597
-525,-20,0,0,0,0,0,0,0,0,0,-1,699,1044,0,0
-518,-20,0,0,0,0,0,0,0,0,0,-1,706,1044,0,0
-511,-20,0,0,0,0,0,0,0,0,0,-1,713,1044,0,0
-504,-20,0,0,0,0,0,0,0,0,0,-1,720,1044,0,0
-497,-20,0,0,0,0,0,0,0,0,0,-1,727,1044,0,0
-490,-20,0,0,0,0,0,0,0,0,0,-1,734,1044,0,0
-483,-20,0,0,0,0,0,0,0,0,0,-1,741,1044,0,0
-476,-20,0,0,0,0,0,0,0,0,0,-1,748,1044,0,0
-469,-20,0,0,0,0,0,0,0,0,0,-1,755,1044,0,0
-462,-20,0,0,0,0,0,0,0,0,0,-1,762,1044,0,0
-455,-20,0,0,0,0,0,0,0,0,0,-1,769,1044,0,0
-448,-20,0,0,0,0,0,0,0,0,0,-1,776,1044,0,0
-441,-20,0,0,0,0,0,0,0,0,0,-1,783,1044,0,0
-434,-20,0,0,0,0,0,0,0,0,0,-1,790,1044,0,0
-427,-20,0,0,0,0,0,0,0,0,0,-1,797,1044,0,0
-420,-20,0,0,0,0,0,0,0,0,0,-1,804,1044,0,0
-413,-20,0,0,0,0,0,0,0,0,0,-1,811,1044,0,0
-406,-20,0,0,0,0,0,0,0,0,0,-1,818,1044,0,0
-399,-20,0,0,0,0,0,0,0,0,0,-1,825,1044,0,0
-392,-20,0,0,0,0,0,0,0,0,0,-1,832,1044,0,0
-385,-20,0,0,0,0,0,0,0,0,0,-1,839,1044,0,0
-378,-20,0,0,0,0,0,0,0,0,0,-1,846,1044,0,0
-371,-20,0,0,0,0,0,0,0,0,0,-1,853,1044,0,0
-364,-20,0,0,0,0,0,0,0,0,0,-1,860,1044,0,0
-357,-20,0,0,0,0,0,0,0,0,0,-1,867,1044,0,0
-350,-20,0,0,0,0,0,0,0,0,0,-1,874,1044,0,0
-343,-20,0,0,0,0,0,0,0,0,0,-1,881,1044,0,0
-336,-20,0,0,0,0,0,0,0,0,0,-1,888,1044,0,0
-329,-20,0,0,0,0,0,0,0,0,0,-1,895,1044,0,0
-322,-20,0,0,0,0,0,0,0,0,0,-1,902,1044,0,0
-315,-20,0,0,0,0,0,0,0,0,0,-1,909,1044,0,0
-308,-20,0,0,0,0,0,0,0,0,0,-1,916,1044,0,0
-301,-20,0,0,0,0,0,0,0,0,0,-1,923,1044,0,0
-294,-20,0,0,0,0,0,0,0,0,0,-1,930,1044,0,0
-287,-20,0,0,0,0,0,0,0,0,0,-1,937,1044,0,0
-280,-20,0,0,0,0,0,0,0,0,0,-1,944,1044,0,0
-273,-20,0,0,0,0,0,0,0,0,0,-1,951,1044,0,0
-266,-20,0,0,0,0,0,0,0,0,0,-1,958,1044,0,0
-259,-20,0,0,0,0,0,0,0,0,0,-1,965,1044,0,0
-252,-20,0,0,0,0,0,0,0,0,0,-1,972,1044,0,0
-245,-20,0,0,0,0,0,0,0,0,0,-1,979,1044,0,0
-238,-20,0,0,0,0,0,0,0,0,0,-1,986,1044,0,0
-231,-20,0,0,0,0,0,0,0,0,0,-1,993,1044,0,0
-224,-20,0,0,0,0,0,0,0,0,0,-1,1000,1044,0,0
-217,-20,0,0,0,0,0,0,0,0,0,-1,1007,1044,0,0
-210,-20,0,0,0,0,0,0,0,0,0,-1,1014,1044,0,0
-203,-20,0,0,0,0,0,0,0,0,0,-1,1021,1044,0,0
-196,-20,0,0,0,0,0,0,0,0,0,-1,1028,1044,0,0
-189,-20,0,0,0,0,0,0,0,0,0,-1,1035,1044,0,0
-182,-20,0,0,0,0,0,0,0,0,0,-1,1042,1044,0,0
-175,-20,0,0,0,0,0,0,0,0,0,-1,1049,1044,0,0
-168,-20,0,0,0,0,0,0,0,0,0,-1,1056,1044,0,0
-161,-20,0,0,0,0,0,0,0,0,0,-1,1063,1044,0,0
-154,-20,0,0,0,0,0,0,0,0,0,-1,1070,1044,0,0
-147,-20,0,0,0,0,0,0,0,0,0,-1,1077,1044,0,0
-140,-20,0,0,0,0,0,0,0,0,0,-1,1084,1044,0,0
-133,-20,0,0,0,0,0,0,0,0,0,-1,1091,1044,0,0
-126,-20,0,0,0,0,0,0,0,0,0,-1,1098,1044,0,0
-119,-20,0,0,0,0,0,0,0,0,0,-1,1105,1044,0,0
-112,-20,0,0,0,0,0,0,0,0,0,-1,1112,1044,0,0
-105,-20,0,0,0,0,0,0,0,0,0,-1,1119,1044,0,0
-98,-20,0,0,0,0,0,0,0,0,0,-1,1126,1044,0,0
-91,-20,0,0,0,0,0,0,0,0,0,-1,1133,1044,0,0
-84,-20,0,0,0,0,0,0,0,0,0,-1,1140,1044,0,0
-77,-20,0,0,0,0,0,0,0,0,0,-1,1147,1044,0,0
-70,-20,0,0,0,0,0,0,0,0,0,-1,1154,1044,0,0
-63,-20,0,0,0,0,0,0,0,0,0,-1,1161,1044,0,0
-56,-20,0,0,0,0,0,0,0,0,0,-1,1168,1044,0,0
-49,-20,0,0,0,0,0,0,0,0,0,-1,1175,1044,0,0
-42,-20,0,0,0,0,0,0,0,0,0,-1,1182,1044,0,0
-35,-20,0,0,0,0,0,0,0,0,0,-1,1189,1044,0,0
-28,-20,0,0,0,0,0,0,0,0,0,-1,1196,1044,0,0
-21,-20,0,0,0,0,0,0,0,0,0,-1,1203,1044,0,0
-14,-20,0,0,0,0,0,0,0,0,0,-1,1210,1044,0,0
-7,-20,0,0,0,0,0,0,0,0,0,-1,1217,1044,0,0
0,-20,0,0,0,0,0,0,0,0,0,-1,1224,1044,0,0
7,-20,0,0,0,0,0,0,0,0,0,-1,1231,1044,0,0
14,-20,0,0,0,0,0,0,0,0,0,-1,1238,1044,0,0
21,-20,0,0,0,0,0,0,0,0,0,-1,1245,1044,0,0
28,-20,0,0,0,0,0,0,0,0,0,-1,1252,1044,0,0
35,-20,0,0,0,0,0,0,0,0,0,-1,1259,1044,0,0
42,-20,0,0,0,0,0,0,0,0,0,-1,1266,1044,0,0
49,-20,0,0,0,0,0,0,0,0,0,-1,1273,1044,0,0
56,-20,0,0,0,0,0,0,0,0,0,-1,1280,1044,0,0
63,-20,0,0,0,0,0,0,0,0,0,-1,1287,1044,0,0
70,-20,0,0,0,0,0,0,0,0,0,-1,1294,1044,0,0
77,-20,0,0,0,0,0,0,0,0,0,-1,1301,1044,0,0
84,-20,0,0,0,0,0,0,0,0,0,-1,1308,1044,0,0
91,-20,0,0,0,0,0,0,0,0,0,-1,1315,1044,0,0
98,-20,0,0,0,0,0,0,0,0,0,-1,1322,1044,0,0
105,-20,0,0,0,0,0,0,0,0,0,-1,1329,1044,0,0
112,-20,0,0,0,0,0,0,0,0,0,-1,1336,1044,0,0
119,-20,0,0,0,0,0,0,0,0,0,-1,1343,1044,0,0
126,-20,0,0,0,0,0,0,0,0,0,-1,1350,1044,0,0
133,-20,0,0,0,0,0,0,0,0,0,-1,1357,1044,0,0
140,-20,0,0,0,0,0,0,0,0,0,-1,1364,1044,0,0
147,-20,0,0,0,0,0,0,0,0,0,-1,1371,1044,0,0
154,-20,0,0,0,0,0,0,0,0,0,-1,1378,1044,0,0
161,-20,0,0,0,0,0,0,0,0,0,-1,1385,1044,0,0
168,-20,0,0,0,0,0,0,0,0,0,-1,1392,1044,0,0
175,-20,0,0,0,0,0,0,0,0,0,-1,1399,1044,0,0
182,-20,0,0,0,0,0,0,0,0,0,-1,1406,1044,0,0
189,-20,0,0,0,0,0,0,0,0,0,-1,1413,1044,0,0
196,-20,0,0,0,0,0,0,0,0,0,-1,1420,1044,0,0
203,-20,0,0,0,0,0,0,0,0,0,-1,1427,1044,0,0
210,-20,0,0,0,0,0,0,0,0,0,-1,1434,1044,0,0
217,-20,0,0,0,0,0,0,0,0,0,-1,1441,1044,0,0
224,-20,0,0,0,0,0,0,0,0,0,-1,1448,1044,0,0
231,-20,0,0,0,0,0,0,0,0,0,-1,1455,1044,0,0
238,-20,0,0,0,0,0,0,0,0,0,-1,1462,1044,0,0
245,-20,0,0,0,0,0,0,0,0,0,-1,1469,1044,0,0
252,-20,0,0,0,0,0,0,0,0,0,-1,1476,1044,0,0
259,-20,0,0,0,0,0,0,0,0,0,-1,1483,1044,0,0
266,-20,0,0,0,0,0,0,0,0,0,-1,1490,1044,0,0
273,-20,0,0,0,0,0,0,0,0,0,-1,1497,1044,0,0
280,-20,0,0,0,0,0,0,0,0,0,-1,1504,1044,0,0
287,-20,0,0,0,0,0,0,0,0,0,-1,1511,1044,0,0
294,-20,0,0,0,0,0,0,0,0,0,-1,1518,1044,0,0
301,-20,0,0,0,0,0,0,0,0,0,-1,1525,1044,0,0
308,-20,0,0,0,0,0,0,0,0,0,-1,1532,1044,0,0
315,-20,0,0,0,0,0,0,0,0,0,-1,1539,1044,0,0
322,-20,0,0,0,0,0,0,0,0,0,-1,1546,1044,0,0
329,-20,0,0,0,0,0,0,0,0,0,-1,1553,1044,0,0
336,-20,0,0,0,0,0,0,0,0,0,-1,1560,1044,0,0
343,-20,0,0,0,0,0,0,0,0,0,-1,1567,1044,0,0
350,-20,0,0,0,0,0,0,0,0,0,-1,1574,1044,0,0
357,-20,0,0,0,0,0,0,0,0,0,-1,1581,1044,0,0
364,-20,0,0,0,0,0,0,0,0,0,-1,1588,1044,0,0
371,-20,0,0,0,0,0,0,0,0,0,-1,1595,1044,0,0
378,-20,0,0,0,0,0,0,0,0,0,-1,1602,1044,0,0
385,-20,0,0,0,0,0,0,0,0,0,-1,1609,1044,0,0
392,-20,0,0,0,0,0,0,0,0,0,-1,1616,1044,0,0
399,-20,0,0,0,0,0,0,0,0,0,-1,1623,1044,0,0
406,-20,0,0,0,0,0,0,0,0,0,-1,1630,1044,0,0
413,-20,0,0,0,0,0,0,0,0,0,-1,1637,1044,0,0
420,-20,0,0,0,0,0,0,0,0,0,-1,1644,1044,0,0
427,-20,0,0,0,0,0,0,0,0,0,-1,1651,1044,0,0
434,-20,0,0,0,0,0,0,0,0,0,-1,1658,1044,0,0
441,-20,0,0,0,0,0,0,0,0,0,-1,1665,1044,0,0
448,-20,0,0,0,0,0,0,0,0,0,-1,1672,1044,0,0
455,-20,0,0,0,0,0,0,0,0,0,-1,1679,1044,0,0
462,-20,0,0,0,0,0,0,0,0,0,-1,1686,1044,0,0
469,-20,0,0,0,0,0,0,0,0,0,-1,1693,1044,0,0
476,-20,0,0,0,0,0,0,0,0,0,-1,1700,1044,0,0
483,-20,0,0,0,0,0,0,0,0,0,-1,1707,1044,0,0
490,-20,0,0,0,0,0,0,0,0,0,-1,1714,1044,0,0
497,-20,0,0,0,0,0,0,0,0,0,-1,1721,1044,0,0
504,-20,0,0,0,0,0,0,0,0,0,-1,1728,1044,0,0
511,-20,0,0,0,0,0,0,0,0,0,-1,1735,1044,0,0
518,-20,0,0,0,0,0,0,0,0,0,-1,1742,1044,0,0
525,-20,0,0,0,0,0,0,0,0,0,-1,1749,1044,0,0
532,-20,0,0,0,0,0,0,0,0,0,-1,1756,1044,0,0
539,-20,0,0,0,0,0,0,0,0,0,-1,1763,1044,0,0
546,-20,0,0,0,0,0,0,0,0,0,-1,1770,1044,0,0
553,-20,0,0,0,0,0,0,0,0,0,-1,1777,1044,0,0
560,-20,0,0,0,0,0,0,0,0,0,-1,1784,1044,0,0
567,-20,0,0,0,0,0,0,0,0,0,-1,1791,1044,0,0
574,-20,0,0,0,0,0,0,0,0,0,-1,1798,1044,0,0
581,-20,0,0,0,0,0,0,0,0,0,-1,1805,1044,0,0
588,-20,0,0,0,0,0,0,0,0,0,-1,1812,1044,0,0
595,-20,0,0,0,0,0,0,0,0,0,-1,1819,1044,0,0
602,-20,0,0,0,0,0,0,0,0,0,-1,1826,1044,0,0
609,-20,0,0,0,0,0,0,0,0,0,-1,1833,1044,0,0
616,-20,0,0,0,0,0,0,0,0,0,-1,1840,1044,0,0
623,-20,0,0,0,0,0,0,0,0,0,-1,1847,1044,0,0
630,-20,0,0,0,0,0,0,0,0,0,-1,1854,1044,0,0
637,-20,0,0,0,0,0,0,0,0,0,-1,1861,1044,0,0
644,-20,0,0,0,0,0,0,0,0,0,-1,1868,1044,0,0
651,-20,48.0819,2.66016,-0.00203412,-0.00275445,-0.00153639,-0.000816243,-0.00397233,-0.670267,0.00242242,0.0402502,1875,1044,48.082,-2.66021
658,-20,48.0077,2.6217,-0.00133179,-0.00106985,-0.00116109,-3.23608e-05,-0.00236927,-0.841559,0.00156884,0.0432351,1882,1044,48.0077,-2.6217
665,-20,47.9314,2.50208,-0.000897727,4.86955e-05,-0.000644263,0.000374862,-0.00122389,-1.10215,0.000965453,0.0433935,1889,1044,47.9314,-2.50204
672,-20,47.9336,2.71826,-0.000549479,0.000816172,-4.96107e-05,0.000817972,-0.000551279,-1.53453,0.00079552,0.0277921,1896,1044,47.9336,-2.71826
679,-20,47.9037,2.66907,-0.000250649,0.00141389,0.000672376,0.00165156,-0.000488314,1.23103,0.00129488,0.0278532,1903,1044,47.9037,-2.66912
686,-20,47.9896,2.57397,-0.000249714,0.00146907,0.00136426,0.00222206,-0.0010027,1.06647,0.00190567,0.0384525,1910,1044,47.9896,-2.57395
693,-20,47.8812,2.67957,-0.000360323,0.00115648,0.00201026,0.00254664,-0.00175048,0.965776,0.0024951,0.042194,1917,1044,47.8812,-2.67962
700,-20,47.8365,2.72192,-0.000456374,0.000959018,0.00248132,0.00283159,-0.00232895,0.924315,0.00298415,0.0373387,1924,1044,47.8365,-2.72194
707,-20,47.8893,2.70984,-0.000660172,0.000805495,0.00274361,0.00291246,-0.00276714,0.915904,0.00327947,0.0289992,1931,1044,47.8893,-2.70989
714,-20,47.8945,2.90222,-0.00108635,0.000825596,0.00290759,0.00293034,-0.00319109,0.944224,0.00353527,0.0247069,1938,1044,47.8946,-2.90218
721,-20,47.8021,3.01306,0,0,0,0,0,0,0,-1,1945,1044,47.8021,-3.01312
728,-20,47.9487,6.06909,0,0,0,0,0,0,0,-1,1952,1044,47.9488,-6.06912
735,-20,47.6846,6.03394,-0.00373545,0.00246268,0.00280472,0.0035434,-0.00481617,1.20301,0.00484501,0.0294134,1959,1044,47.6846,-6.03393
742,-20,47.4819,5.90735,-0.0048126,0.00314254,0.00268113,0.00396179,-0.00563185,1.27424,0.0055668,0.0223739,1966,1044,47.482,-5.90732
749,-20,47.5442,5.86987,-0.00561208,0.00441808,0.00188094,0.00475921,-0.00595321,1.39139,0.00619761,0.0241182,1973,1044,47.5442,-5.86984
756,-20,47.5494,5.79187,-0.00596106,0.00627415,0.000813085,0.00632794,-0.00601485,1.50473,0.00712688,0.017367,1980,1044,47.5494,-5.79193
763,-20,47.4847,5.68555,-0.00662798,0.00908397,-0.000434207,0.00909596,-0.00663997,-1.54319,0.00912195,0.0248619,1987,1044,47.4848,-5.68557
770,-20,47.4075,5.65991,-0.00689847,0.0124726,-0.00209392,0.0126963,-0.00712223,-1.46434,0.0115921,0.0218238,1994,1044,47.4075,-5.65988
777,-20,47.2822,5.50281,-0.00632017,0.0165985,-0.00423154,0.0173548,-0.00707649,-1.39393,0.0145155,0.0146719,2001,1044,47.2821,-5.50285
784,-20,47.293,5.44629,-0.00510137,0.0208085,-0.00654253,0.0223669,-0.0066597,-1.33697,0.0175573,0.0192001,2008,1044,47.293,-5.4463
791,-20,47.4558,5.30273,-0.00312348,0.0251677,-0.00908055,0.0278315,-0.00578724,-1.28545,0.0207541,0.0370731,2015,1044,47.4558,-5.3027
798,-20,47.4287,4.54614,-7.61035e-05,0.0296423,-0.0117427,0.0337221,-0.00415591,-1.23641,0.023987,0.0444498,2022,1044,47.4287,-4.54617
805,-20,47.4211,4.39917,0.00461243,0.0346336,-0.0144269,0.0404425,-0.00119649,-1.18801,0.0273692,0.0427648,2029,1044,47.4211,-4.3992
812,-20,47.2966,4.54675,0.0103156,0.0401976,-0.0169056,0.0478184,0.0026948,-1.14729,0.0310197,0.0441096,2036,1044,47.2965,-4.54679
-700,-27,-38.033,5.97156,0,0,0,0,0,0,0,-1,524,1051,-38.033,-5.9716
-693,-27,-37.9009,5.05005,0,0,0,0,0,0,0,-1,531,1051,-37.9009,-5.05006
-686,-27,-34.5661,-0.0266113,0,0,0,0,0,0,0,-1,538,1051,-34.5661,0.0265523
-679,-27,-34.8335,0.957764,0,0,0,0,0,0,0,-1,545,1051,-34.8335,-0.957783
-672,-27,-34.6435,2.30579,0.00880179,0.0755913,0.0229464,0.082715,0.00167805,1.26978,0.0545926,0.0462461,552,1051,-34.6435,-2.30584
-665,-27,-34.886,2.9657,0.00815282,0.0625103,0.0170036,0.067391,0.00327214,1.29127,0.0438773,0.0474004,559,1051,-34.8861,-2.96572
-658,-27,-35.5279,2.95789,0.00703549,0.0503448,0.0119847,0.05344,0.00394028,1.31805,0.0343886,0.0445486,566,1051,-35.5279,-2.95794
-651,-27,-35.2693,2.33655,0.00570778,0.0394305,0.00788564,0.0411834,0.00395493,1.35207,0.0262368,0.0365833,573,1051,-35.2693,-2.33651
-644,-27,-35.3901,2.42712,0.00426827,0.029603,0.00444696,0.0303609,0.00351038,1.40199,0.0191779,0.0186064,580,1051,-35.3901,-2.42707
-637,-27,-35.4644,2.5863,0.00303135,0.0215197,0.00138682,0.0216232,0.0029279,1.49634,0.0135454,0.014846,587,1051,-35.4644,-2.58635
-630,-27,-35.5432,2.88196,0.00222442,0.0144826,-0.000996456,0.0145631,0.00214395,-1.49021,0.00907884,0.0179389,594,1051,-35.5431,-2.88193
-623,-27,-35.591,3.07202,0.00170859,0.00904737,-0.002643,0.00990014,0.000855831,-1.25869,0.00633412,0.0164989,601,1051,-35.591,-3.07198
-616,-27,-35.5707,3.23254,0.00122464,0.00445912,-0.00395853,0.00711802,-0.00143426,-0.979324,0.00528866,0.0147879,608,1051,-35.5707,-3.23254
-609,-27,-35.5607,3.40601,0.00130855,0.00226841,-0.00435533,0.00617017,-0.00259321,-0.840273,0.00519813,0.0141731,615,1051,-35.5607,-3.40598
-602,-27,-35.5149,3.57129,0.00122518,0.00113647,-0.00462816,0.0058092,-0.00344755,-0.780607,0.00540205,0.0125468,622,1051,-35.5149,-3.57134
-595,-27,-35.5498,3.68518,0.00136859,0.000333905,-0.00457572,0.00545612,-0.00375362,-0.729106,0.00534744,0.0145328,629,1051,-35.5498,-3.68517
-588,-27,-35.6372,1.05554,0,0,0,0,0,0,0,-1,636,1051,-35.6372,-1.05552
-581,-27,-35.6124,0.94873,0.0019854,0.000303243,-0.00421777,0.00544514,-0.00315649,-0.686982,0.00502441,0.0242545,643,1051,-35.6123,-0.94879
-574,-27,-35.5944,0.998657,0.00205617,0.000756543,-0.0038617,0.00532235,-0.00250964,-0.702044,0.00461798,0.0326767,650,1051,-35.5944,-0.998663
-567,-27,-35.5528,1.18542,0.00176874,0.00162691,-0.00321434,0.00491294,-0.0015173,-0.774369,0.00388121,0.0427237,657,1051,-35.5528,-1.18541
-560,-27,-35.475,1.08557,0.00115434,0.00289439,-0.00223769,0.00442524,-0.00037651,-0.970807,0.00308334,0.0468704,664,1051,-35.475,-1.08557
-553,-27,-35.4124,0.946777,0.000176912,0.00446752,-0.000878069,0.00464026,4.1707e-06,-1.37655,0.00309212,0.0415024,671,1051,-35.4123,-0.946777
-546,-27,-35.4199,0.832031,-0.00122318,0.00617425,0.000909926,0.00628453,-0.00133346,1.45019,0.00469769,0.0426181,678,1051,-35.4199,-0.831989
-539,-27,-35.52,0.843506,-0.0032316,0.00779345,0.00266685,0.00840465,-0.0038428,1.3455,0.00723272,0.0454243,685,1051,-35.52,-0.843525
-532,-27,-35.6146,1.10474,-0.00493681,0.00981759,0.00377975,0.0107295,-0.00584874,1.33405,0.00970875,0.0412961,692,1051,-35.6146,-1.10474
-525,-27,0,0,0,0,0,0,0,0,0,-1,699,1051,0,0
-518,-27,0,0,0,0,0,0,0,0,0,-1,706,1051,0,0
-511,-27,0,0,0,0,0,0,0,0,0,-1,713,1051,0,0
-504,-27,0,0,0,0,0,0,0,0,0,-1,720,1051,0,0
-497,-27,0,0,0,0,0,0,0,0,0,-1,727,1051,0,0
-490,-27,0,0,0,0,0,0,0,0,0,-1,734,1051,0,0
-483,-27,0,0,0,0,0,0,0,0,0,-1,741,1051,0,0
-476,-27,0,0,0,0,0,0,0,0,0,-1,748,1051,0,0
-469,-27,0,0,0,0,0,0,0,0,0,-1,755,1051,0,0
-462,-27,0,0,0,0,0,0,0,0,0,-1,762,1051,0,0
-455,-27,0,0,0,0,0,0,0,0,0,-1,769,1051,0,0
-448,-27,0,0,0,0,0,0,0,0,0,-1,776,1051,0,0
-441,-27,0,0,0,0,0,0,0,0,0,-1,783,1051,0,0
-434,-27,0,0,0,0,0,0,0,0,0,-1,790,1051,0,0
-427,-27,0,0,0,0,0,0,0,0,0,-1,797,1051,0,0
-420,-27,0,0,0,0,0,0,0,0,0,-1,804,1051,0,0
-413,-27,0,0,0,0,0,0,0,0,0,-1,811,1051,0,0
-406,-27,0,0,0,0,0,0,0,0,0,-1,818,1051,0,0
-399,-27,0,0,0,0,0,0,0,0,0,-1,825,1051,0,0
-392,-27,0,0,0,0,0,0,0,0,0,-1,832,1051,0,0
-385,-27,0,0,0,0,0,0,0,0,0,-1,839,1051,0,0
-378,-27,0,0,0,0,0,0,0,0,0,-1,846,1051,0,0
-371,-27,0,0,0,0,0,0,0,0,0,-1,853,1051,0,0
-364,-27,0,0,0,0,0,0,0,0,0,-1,860,1051,0,0
-357,-27,0,0,0,0,0,0,0,0,0,-1,867,1051,0,0
-350,-27,0,0,0,0,0,0,0,0,0,-1,874,1051,0,0
-343,-27,0,0,0,0,0,0,0,0,0,-1,881,1051,0,0
-336,-27,0,0,0,0,0,0,0,0,0,-1,888,1051,0,0
-329,-27,0,0,0,0,0,0,0,0,0,-1,895,1051,0,0
-322,-27,0,0,0,0,0,0,0,0,0,-1,902,1051,0,0
-315,-27,0,0,0,0,0,0,0,0,0,-1,909,1051,0,0
-308,-27,0,0,0,0,0,0,0,0,0,-1,916,1051,0,0
-301,-27,0,0,0,0,0,0,0,0,0,-1,923,1051,0,0
-294,-27,0,0,0,0,0,0,0,0,0,-1,930,1051,0,0
-287,-27,0,0,0,0,0,0,0,0,0,-1,937,1051,0,0
-280,-27,0,0,0,0,0,0,0,0,0,-1,944,1051,0,0
-273,-27,0,0,0,0,0,0,0,0,0,-1,951,1051,0,0
-266,-27,0,0,0,0,0,0,0,0,0,-1,958,1051,0,0
-259,-27,0,0,0,0,0,0,0,0,0,-1,965,1051,0,0
-252,-27,0,0,0,0,0,0,0,0,0,-1,972,1051,0,0
-245,-27,0,0,0,0,0,0,0,0,0,-1,979,1051,0,0
-238,-27,0,0,0,0,0,0,0,0,0,-1,986,1051,0,0
-231,-27,0,0,0,0,0,0,0,0,0,-1,993,1051,0,0
-224,-27,0,0,0,0,0,0,0,0,0,-1,1000,1051,0,0
-217,-27,0,0,0,0,0,0,0,0,0,-1,1007,1051,0,0
-210,-27,0,0,0,0,0,0,0,0,0,-1,1014,1051,0,0
-203,-27,0,0,0,0,0,0,0,0,0,-1,1021,1051,0,0
-196,-27,0,0,0,0,0,0,0,0,0,-1,1028,1051,0,0
-189,-27,0,0,0,0,0,0,0,0,0,-1,1035,1051,0,0
-182,-27,0,0,0,0,0,0,0,0,0,-1,1042,1051,0,0
-175,-27,0,0,0,0,0,0,0,0,0,-1,1049,1051,0,0
-168,-27,0,0,0,0,0,0,0,0,0,-1,1056,1051,0,0
-161,-27,0,0,0,0,0,0,0,0,0,-1,1063,1051,0,0
-154,-27,0,0,0,0,0,0,0,0,0,-1,1070,1051,0,0
-147,-27,0,0,0,0,0,0,0,0,0,-1,1077,1051,0,0
-140,-27,0,0,0,0,0,0,0,0,0,-1,1084,1051,0,0
-133,-27,0,0,0,0,0,0,0,0,0,-1,1091,1051,0,0
-126,-27,0,0,0,0,0,0,0,0,0,-1,1098,1051,0,0
-119,-27,0,0,0,0,0,0,0,0,0,-1,1105,1051,0,0
-112,-27,0,0,0,0,0,0,0,0,0,-1,1112,1051,0,0
-105,-27,0,0,0,0,0,0,0,0,0,-1,1119,1051,0,0
-98,-27,0,0,0,0,0,0,0,0,0,-1,1126,1051,0,0
-91,-27,0,0,0,0,0,0,0,0,0,-1,1133,1051,0,0
-84,-27,0,0,0,0,0,0,0,0,0,-1,1140,1051,0,0
-77,-27,0,0,0,0,0,0,0,0,0,-1,1147,1051,0,0
-70,-27,0,0,0,0,0,0,0,0,0,-1,1154,1051,0,0
-63,-27,0,0,0,0,0,0,0,0,0,-1,1161,1051,0,0
-56,-27,0,0,0,0,0,0,0,0,0,-1,1168,1051,0,0
-49,-27,0,0,0,0,0,0,0,0,0,-1,1175,1051,0,0
-42,-27,0,0,0,0,0,0,0,0,0,-1,1182,1051,0,0
-35,-27,0,0,0,0,0,0,0,0,0,-1,1189,1051,0,0
-28,-27,0,0,0,0,0,0,0,0,0,-1,1196,1051,0,0
-21,-27,0,0,0,0,0,0,0,0,0,-1,1203,1051,0,0
-14,-27,0,0,0,0,0,0,0,0,0,-1,1210,1051,0,0
-7,-27,0,0,0,0,0,0,0,0,0,-1,1217,1051,0,0
0,-27,0,0,0,0,0,0,0,0,0,-1,1224,1051,0,0
7,-27,0,0,0,0,0,0,0,0,0,-1,1231,1051,0,0
14,-27,0,0,0,0,0,0,0,0,0,-1,1238,1051,0,0
21,-27,0,0,0,0,0,0,0,0,0,-1,1245,1051,0,0
28,-27,0,0,0,0,0,0,0,0,0,-1,1252,1051,0,0
35,-27,0,0,0,0,0,0,0,0,0,-1,1259,1051,0,0
42,-27,0,0,0,0,0,0,0,0,0,-1,1266,1051,0,0
49,-27,0,0,0,0,0,0,0,0,0,-1,1273,1051,0,0
56,-27,0,0,0,0,0,0,0,0,0,-1,1280,1051,0,0
63,-27,0,0,0,0,0,0,0,0,0,-1,1287,1051,0,0
70,-27,0,0,0,0,0,0,0,0,0,-1,1294,1051,0,0
77,-27,0,0,0,0,0,0,0,0,0,-1,1301,1051,0,0
84,-27,0,0,0,0,0,0,0,0,0,-1,1308,1051,0,0
91,-27,0,0,0,0,0,0,0,0,0,-1,1315,1051,0,0
98,-27,0,0,0,0,0,0,0,0,0,-1,1322,1051,0,0
105,-27,0,0,0,0,0,0,0,0,0,-1,1329,1051,0,0
112,-27,0,0,0,0,0,0,0,0,0,-1,1336,1051,0,0
119,-27,0,0,0,0,0,0,0,0,0,-1,1343,1051,0,0
126,-27,0,0,0,0,0,0,0,0,0,-1,1350,1051,0,0
133,-27,0,0,0,0,0,0,0,0,0,-1,1357,1051,0,0
140,-27,0,0,0,0,0,0,0,0,0,-1,1364,1051,0,0
147,-27,0,0,0,0,0,0,0,0,0,-1,1371,1051,0,0
154,-27,0,0,0,0,0,0,0,0,0,-1,1378,1051,0,0
161,-27,0,0,0,0,0,0,0,0,0,-1,1385,1051,0,0
168,-27,0,0,0,0,0,0,0,0,0,-1,1392,1051,0,0
175,-27,0,0,0,0,0,0,0,0,0,-1,1399,1051,0,0
182,-27,0,0,0,0,0,0,0,0,0,-1,1406,1051,0,0
189,-27,0,0,0,0,0,0,0,0,0,-1,1413,1051,0,0
196,-27,0,0,0,0,0,0,0,0,0,-1,1420,1051,0,0
203,-27,0,0,0,0,0,0,0,0,0,-1,1427,1051,0,0
210,-27,0,0,0,0,0,0,0,0,0,-1,1434,1051,0,0
217,-27,0,0,0,0,0,0,0,0,0,-1,1441,1051,0,0
224,-27,0,0,0,0,0,0,0,0,0,-1,1448,1051,0,0
231,-27,0,0,0,0,0,0,0,0,0,-1,1455,1051,0,0
238,-27,0,0,0,0,0,0,0,0,0,-1,1462,1051,0,0
245,-27,0,0,0,0,0,0,0,0,0,-1,1469,1051,0,0
252,-27,0,0,0,0,0,0,0,0,0,-1,1476,1051,0,0
259,-27,0,0,0,0,0,0,0,0,0,-1,1483,1051,0,0
266,-27,0,0,0,0,0,0,0,0,0,-1,1490,1051,0,0
273,-27,0,0,0,0,0,0,0,0,0,-1,1497,1051,0,0
280,-27,0,0,0,0,0,0,0,0,0,-1,1504,1051,0,0
287,-27,0,0,0,0,0,0,0,0,0,-1,1511,1051,0,0
294,-27,0,0,0,0,0,0,0,0,0,-1,1518,1051,0,0
301,-27,0,0,0,0,0,0,0,0,0,-1,1525,1051,0,0
308,-27,0,0,0,0,0,0,0,0,0,-1,1532,1051,0,0
315,-27,0,0,0,0,0,0,0,0,0,-1,1539,1051,0,0
322,-27,0,0,0,0,0,0,0,0,0,-1,1546,1051,0,0
329,-27,0,0,0,0,0,0,0,0,0,-1,1553,1051,0,0
336,-27,0,0,0,0,0,0,0,0,0,-1,1560,1051,0,0
343,-27,0,0,0,0,0,0,0,0,0,-1,1567,1051,0,0
350,-27,0,0,0,0,0,0,0,0,0,-1,1574,1051,0,0
357,-27,0,0,0,0,0,0,0,0,0,-1,1581,1051,0,0
364,-27,0,0,0,0,0,0,0,0,0,-1,1588,1051,0,0
371,-27,0,0,0,0,0,0,0,0,0,-1,1595,1051,0,0
378,-27,0,0,0,0,0,0,0,0,0,-1,1602,1051,0,0
385,-27,0,0,0,0,0,0,0,0,0,-1,1609,1051,0,0
392,-27,0,0,0,0,0,0,0,0,0,-1,1616,1051,0,0
399,-27,0,0,0,0,0,0,0,0,0,-1,1623,1051,0,0
406,-27,0,0,0,0,0,0,0,0,0,-1,1630,1051,0,0
413,-27,0,0,0,0,0,0,0,0,0,-1,1637,1051,0,0
420,-27,0,0,0,0,0,0,0,0,0,-1,1644,1051,0,0
427,-27,0,0,0,0,0,0,0,0,0,-1,1651,1051,0,0
434,-27,0,0,0,0,0,0,0,0,0,-1,1658,1051,0,0
441,-27,0,0,0,0,0,0,0,0,0,-1,1665,1051,0,0
448,-27,0,0,0,0,0,0,0,0,0,-1,1672,1051,0,0
455,-27,0,0,0,0,0,0,0,0,0,-1,1679,1051,0,0
462,-27,0,0,0,0,0,0,0,0,0,-1,1686,1051,0,0
469,-27,0,0,0,0,0,0,0,0,0,-1,1693,1051,0,0
476,-27,0,0,0,0,0,0,0,0,0,-1,1700,1051,0,0
483,-27,0,0,0,0,0,0,0,0,0,-1,1707,1051,0,0
490,-27,0,0,0,0,0,0,0,0,0,-1,1714,1051,0,0
497,-27,0,0,0,0,0,0,0,0,0,-1,1721,1051,0,0
504,-27,0,0,0,0,0,0,0,0,0,-1,1728,1051,0,0
511,-27,0,0,0,0,0,0,0,0,0,-1,1735,1051,0,0
518,-27,0,0,0,0,0,0,0,0,0,-1,1742,1051,0,0
525,-27,0,0,0,0,0,0,0,0,0,-1,1749,1051,0,0
532,-27,0,0,0,0,0,0,0,0,0,-1,1756,1051,0,0
539,-27,0,0,0,0,0,0,0,0,0,-1,1763,1051,0,0
546,-27,0,0,0,0,0,0,0,0,0,-1,1770,1051,0,0
553,-27,0,0,0,0,0,0,0,0,0,-1,1777,1051,0,0
560,-27,0,0,0,0,0,0,0,0,0,-1,1784,1051,0,0
567,-27,0,0,0,0,0,0,0,0,0,-1,1791,1051,0,0
574,-27,0,0,0,0,0,0,0,0,0,-1,1798,1051,0,0
581,-27,0,0,0,0,0,0,0,0,0,-1,1805,1051,0,0
588,-27,0,0,0,0,0,0,0,0,0,-1,1812,1051,0,0
595,-27,0,0,0,0,0,0,0,0,0,-1,1819,1051,0,0
602,-27,0,0,0,0,0,0,0,0,0,-1,1826,1051,0,0
609,-27,0,0,0,0,0,0,0,0,0,-1,1833,1051,0,0
616,-27,0,0,0,0,0,0,0,0,0,-1,1840,1051,0,0
623,-27,0,0,0,0,0,0,0,0,0,-1,1847,1051,0,0
630,-27,0,0,0,0,0,0,0,0,0,-1,1854,1051,0,0
637,-27,0,0,0,0,0,0,0,0,0,-1,1861,1051,0,0
644,-27,0,0,0,0,0,0,0,0,0,-1,1868,1051,0,0
651,-27,48.0651,2.82251,0,0,0,0,0,0,0,-1,1875,1051,48.0651,-2.82248
658,-27,48.0927,2.90942,0,0,0,0,0,0,0,-1,1882,1051,48.0927,-2.90944
665,-27,47.8733,2.83032,-0.000746061,-0.000301217,-0.000461453,-1.13783e-05,-0.0010359,-1.00997,0.000686838,0.0408837,1889,1051,47.8732,-2.8303
672,-27,47.8246,2.78003,-0.000371765,0.000462423,8.26358e-05,0.00047053,-0.000379872,1.473,0.000491909,0.0312406,1896,1051,47.8246,-2.78004
679,-27,47.7776,2.69666,-7.48637e-05,0.00107604,0.000773069,0.00146432,-0.000463144,1.10534,0.00116179,0.027727,1903,1051,47.7775,-2.69666
686,-27,47.9006,2.54102,-9.43871e-05,0.00116267,0.00146542,0.00212866,-0.00106038,0.987986,0.00187531,0.0383299,1910,1051,47.9006,-2.54098
693,-27,47.959,2.44165,-0.000241534,0.000897326,0.0021099,0.00251328,-0.00185749,0.917201,0.00253292,0.040379,1917,1051,47.959,-2.44168
700,-27,47.8551,2.53955,-0.000366243,0.000709736,0.00259691,0.0028238,-0.00248031,0.887536,0.00306447,0.0357955,1924,1051,47.8551,-2.53957
707,-27,47.8324,2.72583,-0.000594459,0.000573435,0.00286472,0.00291312,-0.00293414,0.885941,0.00337593,0.0233707,1931,1051,47.8324,-2.72587
714,-27,47.8955,2.82837,-0.00101844,0.00059224,0.00303913,0.00293092,-0.00335712,0.914916,0.00363318,0.0197967,1938,1051,47.8955,-2.82841
721,-27,47.8658,2.99976,0,0,0,0,0,0,0,-1,1945,1051,47.8658,-2.99974
728,-27,47.9598,6.14197,0,0,0,0,0,0,0,-1,1952,1051,47.9599,-6.14196
735,-27,47.5277,6.09961,-0.00361643,0.00214019,0.00303325,0.00344342,-0.00491966,1.16499,0.00485344,0.031931,1959,1051,47.5278,-6.09961
742,-27,47.3538,6,-0.00465709,0.00282134,0.00293576,0.00383611,-0.00567186,1.23799,0.00552343,0.0189027,1966,1051,47.3538,-6.00001
749,-27,47.4119,5.86511,-0.00528534,0.00418544,0.00200087,0.00459081,-0.00569071,1.37091,0.00594735,0.0144698,1973,1051,47.4118,-5.86512
756,-27,47.3962,5.75146,-0.00533644,0.00608978,0.00076357,0.00614058,-0.00538724,1.50436,0.00666032,0.0140866,1980,1051,47.3963,-5.75145
763,-27,47.3376,5.6012,-0.00575892,0.00892801,-0.000661072,0.00895771,-0.00578862,-1.52591,0.00857908,0.0160575,1987,1051,47.3377,-5.60123
770,-27,47.2722,5.4491,-0.00566118,0.0124404,-0.00260677,0.0128083,-0.0060291,-1.43058,0.0111081,0.0170785,1994,1051,47.2722,-5.44905
777,-27,47.1985,5.42749,-0.00450242,0.0168613,-0.00526208,0.0180871,-0.00572819,-1.34193,0.0143537,0.0178439,2001,1051,47.1984,-5.42748
784,-27,47.1868,5.39587,-0.00261834,0.0214257,-0.00824411,0.0239809,-0.00517351,-1.27025,0.0179618,0.0260057,2008,1051,47.1867,-5.39593
791,-27,47.2356,4.74927,0.00018523,0.0262039,-0.011635,0.0306478,-0.00425869,-1.20595,0.0219894,0.0413635,2015,1051,47.2355,-4.74933
798,-27,47.2561,4.41248,0.0041875,0.0311869,-0.0154647,0.0382152,-0.0028408,-1.14423,0.0264746,0.0450576,2022,1051,47.2561,-4.41244
805,-27,47.2173,4.24426,0.00990051,0.0366482,-0.0196594,0.0470515,-0.000502784,-1.08408,0.0315366,0.0453839,2029,1051,47.2173,-4.24421
812,-27,46.9749,3.85413,0.0169346,0.0425724,-0.0240442,0.0570014,0.0025056,-1.0303,0.0371939,0.0454308,2036,1051,46.9749,-3.85407
-700,-34,-38.2542,4.81165,0,0,0,0,0,0,0,-1,524,1058,-38.2542,-4.81162
-693,-34,-35.4131,-1.62012,0,0,0,0,0,0,0,-1,531,1058,-35.4131,1.62007
-686,-34,-35.0233,-1.57336,0.00865608,0.126046,0.0414789,0.139223,-0.00452102,1.2632,0.0943587,0.0499931,538,1058,-35.0233,1.57333
-679,-34,-35.1192,-0.608154,0.0101063,0.108266,0.0328286,0.118233,0.00013924,1.27603,0.0787759,0.0451895,545,1058,-35.1192,0.608186
-672,-34,-35.223,0.437622,0.0100607,0.0904395,0.0250069,0.0975844,0.00291582,1.29249,0.0641064,0.0448001,552,1058,-35.223,-0.437564
-665,-34,-35.083,1.32068,0.00921309,0.0736774,0.0182331,0.0784771,0.00441341,1.3134,0.0509107,0.0452937,559,1058,-35.083,-1.32065
-658,-34,-34.8846,2.1499,0.00791668,0.0585257,0.0125952,0.061487,0.00495536,1.33987,0.0394434,0.0430023,566,1058,-34.8847,-2.14984
-651,-34,-35.0626,2.22192,0.00644912,0.0452199,0.00807601,0.0468349,0.00483415,1.37343,0.0297431,0.0310872,573,1058,-35.0626,-2.22191
-644,-34,-35.2662,2.32275,0.00493644,0.033608,0.00439823,0.0342675,0.00427692,1.42195,0.0215612,0.0164477,580,1058,-35.2663,-2.32274
-637,-34,-35.3187,2.50732,0.00358249,0.0238941,0.00126226,0.0239722,0.00350435,1.50897,0.0149509,0.0174261,587,1058,-35.3187,-2.50735
-630,-34,-35.3357,2.8064,0.00268684,0.0155864,-0.00110415,0.0156802,0.00259301,-1.48602,0.00970528,0.0176839,594,1058,-35.3357,-2.80645
-623,-34,-35.329,3.02979,0.00202163,0.00936925,-0.00266517,0.0102342,0.00115672,-1.25699,0.00647175,0.0140298,601,1058,-35.3291,-3.02975
-616,-34,-35.2742,3.26697,0.00142424,0.00437728,-0.00383121,0.00700664,-0.00120512,-0.969324,0.00512029,0.0211266,608,1058,-35.2742,-3.26698
-609,-34,-35.2782,3.46643,0.00147341,0.00206634,-0.00404593,0.00582665,-0.00228689,-0.82197,0.00483067,0.0206878,615,1058,-35.2782,-3.46641
-602,-34,-35.2865,3.63184,0.0012893,0.00081783,-0.00409253,0.00515288,-0.00304575,-0.756629,0.00478531,0.0151885,622,1058,-35.2865,-3.63179
-595,-34,-35.3832,3.74854,0.0013161,4.16981e-05,-0.0039981,0.00472746,-0.00336966,-0.706375,0.00469673,0.0157834,629,1058,-35.3832,-3.74854
-588,-34,-35.6569,3.81836,0,0,0,0,0,0,0,-1,636,1058,-35.6569,-3.81832
-581,-34,-35.5834,1.03162,0.00180223,2.66786e-05,-0.0035832,0.00460599,-0.00277709,-0.663963,0.004306,0.0253649,643,1058,-35.5834,-1.03165
-574,-34,-35.5266,1.06677,0.00188693,0.00045244,-0.0032578,0.00450551,-0.00216614,-0.677046,0.00393002,0.0348825,650,1058,-35.5266,-1.06673
-567,-34,-35.4932,1.1554,0.00167439,0.00125757,-0.00270538,0.00417938,-0.00124742,-0.746957,0.00328205,0.0423885,657,1058,-35.4932,-1.15545
-560,-34,-35.469,1.03735,0.00117277,0.00241726,-0.00189419,0.00378879,-0.000198764,-0.944097,0.00259466,0.0441778,664,1058,-35.469,-1.03729
-553,-34,-35.3194,0.936523,0.000365163,0.00384246,-0.000776002,0.00400778,0.000199848,-1.3609,0.00260779,0.0449553,671,1058,-35.3194,-0.936521
-546,-34,-35.2571,0.821655,-0.000798251,0.00536706,0.00069627,0.00544471,-0.000875905,1.45973,0.00395424,0.0482847,678,1058,-35.2571,-0.821615
-539,-34,-35.3947,0.928711,-0.00255241,0.0067199,0.00211992,0.00718158,-0.0030141,1.35636,0.00604817,0.0454687,685,1058,-35.3947,-0.928706
-532,-34,-35.5236,1.05627,-0.00422988,0.00845229,0.00320423,0.00921588,-0.00499347,1.33685,0.00832364,0.0407305,692,1058,-35.5236,-1.05626
-525,-34,0,0,0,0,0,0,0,0,0,-1,699,1058,0,0
-518,-34,0,0,0,0,0,0,0,0,0,-1,706,1058,0,0
-511,-34,0,0,0,0,0,0,0,0,0,-1,713,1058,0,0
-504,-34,0,0,0,0,0,0,0,0,0,-1,720,1058,0,0
-497,-34,0,0,0,0,0,0,0,0,0,-1,727,1058,0,0
-490,-34,0,0,0,0,0,0,0,0,0,-1,734,1058,0,0
-483,-34,0,0,0,0,0,0,0,0,0,-1,741,1058,0,0
-476,-34,0,0,0,0,0,0,0,0,0,-1,748,1058,0,0
-469,-34,0,0,0,0,0,0,0,0,0,-1,755,1058,0,0
-462,-34,0,0,0,0,0,0,0,0,0,-1,762,1058,0,0
-455,-34,0,0,0,0,0,0,0,0,0,-1,769,1058,0,0
-448,-34,0,0,0,0,0,0,0,0,0,-1,776,1058,0,0
-441,-34,0,0,0,0,0,0,0,0,0,-1,783,1058,0,0
-434,-34,0,0,0,0,0,0,0,0,0,-1,790,1058,0,0
-427,-34,0,0,0,0,0,0,0,0,0,-1,797,1058,0,0
-420,-34,0,0,0,0,0,0,0,0,0,-1,804,1058,0,0
-413,-34,0,0,0,0,0,0,0,0,0,-1,811,1058,0,0
-406,-34,0,0,0,0,0,0,0,0,0,-1,818,1058,0,0
-399,-34,0,0,0,0,0,0,0,0,0,-1,825,1058,0,0
-392,-34,0,0,0,0,0,0,0,0,0,-1,832,1058,0,0
-385,-34,0,0,0,0,0,0,0,0,0,-1,839,1058,0,0
-378,-34,0,0,0,0,0,0,0,0,0,-1,846,1058,0,0
-371,-34,0,0,0,0,0,0,0,0,0,-1,853,1058,0,0
-364,-34,0,0,0,0,0,0,0,0,0,-1,860,1058,0,0
-357,-34,0,0,0,0,0,0,0,0,0,-1,867,1058,0,0
-350,-34,0,0,0,0,0,0,0,0,0,-1,874,1058,0,0
-343,-34,0,0,0,0,0,0,0,0,0,-1,881,1058,0,0
-336,-34,0,0,0,0,0,0,0,0,0,-1,888,1058,0,0
-329,-34,0,0,0,0,0,0,0,0,0,-1,895,1058,0,0
-322,-34,0,0,0,0,0,0,0,0,0,-1,902,1058,0,0
-315,-34,0,0,0,0,0,0,0,0,0,-1,909,1058,0,0
-308,-34,0,0,0,0,0,0,0,0,0,-1,916,1058,0,0
-301,-34,0,0,0,0,0,0,0,0,0,-1,923,1058,0,0
-294,-34,0,0,0,0,0,0,0,0,0,-1,930,1058,0,0
-287,-34,0,0,0,0,0,0,0,0,0,-1,937,1058,0,0
-280,-34,0,0,0,0,0,0,0,0,0,-1,944,1058,0,0
-273,-34,0,0,0,0,0,0,0,0,0,-1,951,1058,0,0
-266,-34,0,0,0,0,0,0,0,0,0,-1,958,1058,0,0
-259,-34,0,0,0,0,0,0,0,0,0,-1,965,1058,0,0
-252,-34,0,0,0,0,0,0,0,0,0,-1,972,1058,0,0
-245,-34,0,0,0,0,0,0,0,0,0,-1,979,1058,0,0
-238,-34,0,0,0,0,0,0,0,0,0,-1,986,1058,0,0
-231,-34,0,0,0,0,0,0,0,0,0,-1,993,1058,0,0
-224,-34,0,0,0,0,0,0,0,0,0,-1,1000,1058,0,0
-217,-34,0,0,0,0,0,0,0,0,0,-1,1007,1058,0,0
-210,-34,0,0,0,0,0,0,0,0,0,-1,1014,1058,0,0
-203,-34,0,0,0,0,0,0,0,0,0,-1,1021,1058,0,0
-196,-34,0,0,0,0,0,0,0,0,0,-1,1028,1058,0,0
-189,-34,0,0,0,0,0,0,0,0,0,-1,1035,1058,0,0
-182,-34,0,0,0,0,0,0,0,0,0,-1,1042,1058,0,0
-175,-34,0,0,0,0,0,0,0,0,0,-1,1049,1058,0,0
-168,-34,0,0,0,0,0,0,0,0,0,-1,1056,1058,0,0
-161,-34,0,0,0,0,0,0,0,0,0,-1,1063,1058,0,0
-154,-34,0,0,0,0,0,0,0,0,0,-1,1070,1058,0,0
-147,-34,0,0,0,0,0,0,0,0,0,-1,1077,1058,0,0
-140,-34,0,0,0,0,0,0,0,0,0,-1,1084,1058,0,0
-133,-34,0,0,0,0,0,0,0,0,0,-1,1091,1058,0,0
-126,-34,0,0,0,0,0,0,0,0,0,-1,1098,1058,0,0
-119,-34,0,0,0,0,0,0,0,0,0,-1,1105,1058,0,0
-112,-34,0,0,0,0,0,0,0,0,0,-1,1112,1058,0,0
-105,-34,0,0,0,0,0,0,0,0,0,-1,1119,1058,0,0
-98,-34,0,0,0,0,0,0,0,0,0,-1,1126,1058,0,0
-91,-34,0,0,0,0,0,0,0,0,0,-1,1133,1058,0,0
-84,-34,0,0,0,0,0,0,0,0,0,-1,1140,1058,0,0
-77,-34,0,0,0,0,0,0,0,0,0,-1,1147,1058,0,0
-70,-34,0,0,0,0,0,0,0,0,0,-1,1154,1058,0,0
-63,-34,0,0,0,0,0,0,0,0,0,-1,1161,1058,0,0
-56,-34,0,0,0,0,0,0,0,0,0,-1,1168,1058,0,0
-49,-34,0,0,0,0,0,0,0,0,0,-1,1175,1058,0,0
-42,-34,0,0,0,0,0,0,0,0,0,-1,1182,1058,0,0
-35,-34,0,0,0,0,0,0,0,0,0,-1,1189,1058,0,0
-28,-34,0,0,0,0,0,0,0,0,0,-1,1196,1058,0,0
-21,-34,0,0,0,0,0,0,0,0,0,-1,1203,1058,0,0
-14,-34,0,0,0,0,0,0,0,0,0,-1,1210,1058,0,0
-7,-34,0,0,0,0,0,0,0,0,0,-1,1217,1058,0,0
0,-34,0,0,0,0,0,0,0,0,0,-1,1224,1058,0,0
7,-34,0,0,0,0,0,0,0,0,0,-1,1231,1058,0,0
14,-34,0,0,0,0,0,0,0,0,0,-1,1238,1058,0,0
21,-34,0,0,0,0,0,0,0,0,0,-1,1245,1058,0,0
28,-34,0,0,0,0,0,0,0,0,0,-1,1252,1058,0,0
35,-34,0,0,0,0,0,0,0,0,0,-1,1259,1058,0,0
42,-34,0,0,0,0,0,0,0,0,0,-1,1266,1058,0,0
49,-34,0,0,0,0,0,0,0,0,0,-1,1273,1058,0,0
56,-34,0,0,0,0,0,0,0,0,0,-1,1280,1058,0,0
63,-34,0,0,0,0,0,0,0,0,0,-1,1287,1058,0,0
70,-34,0,0,0,0,0,0,0,0,0,-1,1294,1058,0,0
77,-34,0,0,0,0,0,0,0,0,0,-1,1301,1058,0,0
84,-34,0,0,0,0,0,0,0,0,0,-1,1308,1058,0,0
91,-34,0,0,0,0,0,0,0,0,0,-1,1315,1058,0,0
98,-34,0,0,0,0,0,0,0,0,0,-1,1322,1058,0,0
105,-34,0,0,0,0,0,0,0,0,0,-1,1329,1058,0,0
112,-34,0,0,0,0,0,0,0,0,0,-1,1336,1058,0,0
119,-34,0,0,0,0,0,0,0,0,0,-1,1343,1058,0,0
126,-34,0,0,0,0,0,0,0,0,0,-1,1350,1058,0,0
133,-34,0,0,0,0,0,0,0,0,0,-1,1357,1058,0,0
140,-34,0,0,0,0,0,0,0,0,0,-1,1364,1058,0,0
147,-34,0,0,0,0,0,0,0,0,0,-1,1371,1058,0,0
154,-34,0,0,0,0,0,0,0,0,0,-1,1378,1058,0,0
161,-34,0,0,0,0,0,0,0,0,0,-1,1385,1058,0,0
168,-34,0,0,0,0,0,0,0,0,0,-1,1392,1058,0,0
175,-34,0,0,0,0,0,0,0,0,0,-1,1399,1058,0,0
182,-34,0,0,0,0,0,0,0,0,0,-1,1406,1058,0,0
189,-34,0,0,0,0,0,0,0,0,0,-1,1413,1058,0,0
196,-34,0,0,0,0,0,0,0,0,0,-1,1420,1058,0,0
203,-34,0,0,0,0,0,0,0,0,0,-1,1427,1058,0,0
210,-34,0,0,0,0,0,0,0,0,0,-1,1434,1058,0,0
217,-34,0,0,0,0,0,0,0,0,0,-1,1441,1058,0,0
224,-34,0,0,0,0,0,0,0,0,0,-1,1448,1058,0,0
231,-34,0,0,0,0,0,0,0,0,0,-1,1455,1058,0,0
238,-34,0,0,0,0,0,0,0,0,0,-1,1462,1058,0,0
245,-34,0,0,0,0,0,0,0,0,0,-1,1469,1058,0,0
252,-34,0,0,0,0,0,0,0,0,0,-1,1476,1058,0,0
259,-34,0,0,0,0,0,0,0,0,0,-1,1483,1058,0,0
266,-34,0,0,0,0,0,0,0,0,0,-1,1490,1058,0,0
273,-34,0,0,0,0,0,0,0,0,0,-1,1497,1058,0,0
280,-34,0,0,0,0,0,0,0,0,0,-1,1504,1058,0,0
287,-34,0,0,0,0,0,0,0,0,0,-1,1511,1058,0,0
294,-34,0,0,0,0,0,0,0,0,0,-1,1518,1058,0,0
301,-34,0,0,0,0,0,0,0,0,0,-1,1525,1058,0,0
308,-34,0,0,0,0,0,0,0,0,0,-1,1532,1058,0,0
315,-34,0,0,0,0,0,0,0,0,0,-1,1539,1058,0,0
322,-34,0,0,0,0,0,0,0,0,0,-1,1546,1058,0,0
329,-34,0,0,0,0,0,0,0,0,0,-1,1553,1058,0,0
336,-34,0,0,0,0,0,0,0,0,0,-1,1560,1058,0,0
343,-34,0,0,0,0,0,0,0,0,0,-1,1567,1058,0,0
350,-34,0,0,0,0,0,0,0,0,0,-1,1574,1058,0,0
357,-34,0,0,0,0,0,0,0,0,0,-1,1581,1058,0,0
364,-34,0,0,0,0,0,0,0,0,0,-1,1588,1058,0,0
371,-34,0,0,0,0,0,0,0,0,0,-1,1595,1058,0,0
378,-34,0,0,0,0,0,0,0,0,0,-1,1602,1058,0,0
385,-34,0,0,0,0,0,0,0,0,0,-1,1609,1058,0,0
392,-34,0,0,0,0,0,0,0,0,0,-1,1616,1058,0,0
399,-34,0,0,0,0,0,0,0,0,0,-1,1623,1058,0,0
406,-34,0,0,0,0,0,0,0,0,0,-1,1630,1058,0,0
413,-34,0,0,0,0,0,0,0,0,0,-1,1637,1058,0,0
420,-34,0,0,0,0,0,0,0,0,0,-1,1644,1058,0,0
427,-34,0,0,0,0,0,0,0,0,0,-1,1651,1058,0,0
434,-34,0,0,0,0,0,0,0,0,0,-1,1658,1058,0,0
441,-34,0,0,0,0,0,0,0,0,0,-1,1665,1058,0,0
448,-34,0,0,0,0,0,0,0,0,0,-1,1672,1058,0,0
455,-34,0,0,0,0,0,0,0,0,0,-1,1679,1058,0,0
462,-34,0,0,0,0,0,0,0,0,0,-1,1686,1058,0,0
469,-34,0,0,0,0,0,0,0,0,0,-1,1693,1058,0,0
476,-34,0,0,0,0,0,0,0,0,0,-1,1700,1058,0,0
483,-34,0,0,0,0,0,0,0,0,0,-1,1707,1058,0,0
490,-34,0,0,0,0,0,0,0,0,0,-1,1714,1058,0,0
497,-34,0,0,0,0,0,0,0,0,0,-1,1721,1058,0,0
504,-34,0,0,0,0,0,0,0,0,0,-1,1728,1058,0,0
511,-34,0,0,0,0,0,0,0,0,0,-1,1735,1058,0,0
518,-34,0,0,0,0,0,0,0,0,0,-1,1742,1058,0,0
525,-34,0,0,0,0,0,0,0,0,0,-1,1749,1058,0,0
532,-34,0,0,0,0,0,0,0,0,0,-1,1756,1058,0,0
539,-34,0,0,0,0,0,0,0,0,0,-1,1763,1058,0,0
546,-34,0,0,0,0,0,0,0,0,0,-1,1770,1058,0,0
553,-34,0,0,0,0,0,0,0,0,0,-1,1777,1058,0,0
560,-34,0,0,0,0,0,0,0,0,0,-1,1784,1058,0,0
567,-34,0,0,0,0,0,0,0,0,0,-1,1791,1058,0,0
574,-34,0,0,0,0,0,0,0,0,0,-1,1798,1058,0,0
581,-34,0,0,0,0,0,0,0,0,0,-1,1805,1058,0,0
588,-34,0,0,0,0,0,0,0,0,0,-1,1812,1058,0,0
595,-34,0,0,0,0,0,0,0,0,0,-1,1819,1058,0,0
602,-34,0,0,0,0,0,0,0,0,0,-1,1826,1058,0,0
609,-34,0,0,0,0,0,0,0,0,0,-1,1833,1058,0,0
616,-34,0,0,0,0,0,0,0,0,0,-1,1840,1058,0,0
623,-34,0,0,0,0,0,0,0,0,0,-1,1847,1058,0,0
630,-34,0,0,0,0,0,0,0,0,0,-1,1854,1058,0,0
637,-34,0,0,0,0,0,0,0,0,0,-1,1861,1058,0,0
644,-34,0,0,0,0,0,0,0,0,0,-1,1868,1058,0,0
651,-34,47.9644,2.74402,-0.00205494,-0.00232862,-0.000149383,-0.00198919,-0.00239436,-0.414597,0.00147979,0.0405498,1875,1058,47.9643,-2.74397
658,-34,47.9694,2.85999,-0.00111302,-0.00115224,-0.000335053,-0.000797005,-0.00146826,-0.756167,0.000848734,0.0444707,1882,1058,47.9694,-2.85998
665,-34,47.8508,2.94958,-0.000558535,-0.000328872,-0.00013398,-0.000267248,-0.00062016,-1.13969,0.000359186,0.0434233,1889,1058,47.8508,-2.94954
672,-34,47.861,2.87231,-0.000141965,0.000283935,0.000290903,0.000431502,-0.000289532,1.10135,0.00041897,0.0384556,1896,1058,47.861,-2.87235
679,-34,47.8319,2.82666,0.000131896,0.000788218,0.000887895,0.00140665,-0.000486541,0.96241,0.00113525,0.0350884,1903,1058,47.8319,-2.82669
686,-34,47.8074,2.56104,3.29927e-05,0.000825261,0.00152055,0.00200043,-0.00114217,0.912826,0.0018368,0.0399705,1910,1058,47.8074,-2.56101
693,-34,47.881,2.31946,-0.000185868,0.000570236,0.00212088,0.0023465,-0.00196213,0.873598,0.00249088,0.0415838,1917,1058,47.881,-2.31945
700,-34,47.8512,2.4834,-0.000370386,0.000382376,0.00258183,0.00261512,-0.00260313,0.857779,0.00301276,0.0394098,1924,1058,47.8512,-2.48345
707,-34,47.8179,2.74878,-0.000653194,0.000270715,0.00283325,0.00267942,-0.0030619,0.866211,0.00331721,0.0244655,1931,1058,47.8179,-2.74876
714,-34,47.8556,2.84692,-0.00109351,0.000294797,0.00300499,0.00268477,-0.00348348,0.898907,0.00357118,0.0169389,1938,1058,47.8555,-2.8469
721,-34,47.861,2.99072,0,0,0,0,0,0,0,-1,1945,1058,47.8609,-2.99074
728,-34,47.3579,6.25171,0,0,0,0,0,0,0,-1,1952,1058,47.3579,-6.25175
735,-34,47.2263,6.16296,-0.00360782,0.00179827,0.00310637,0.00321299,-0.00502254,1.14344,0.00479289,0.0200451,1959,1058,47.2263,-6.16294
742,-34,47.1714,6.03259,-0.00459227,0.00248491,0.00301007,0.00359197,-0.00569934,1.21836,0.00541014,0.0158144,1966,1058,47.1714,-6.03265
749,-34,47.2251,5.88245,-0.00501537,0.00391112,0.00195752,0.00432153,-0.00542577,1.36413,0.00563963,0.0135449,1973,1058,47.2251,-5.88248
756,-34,47.2377,5.71094,-0.00475461,0.00582204,0.000579875,0.00585373,-0.00478631,1.51619,0.00615333,0.0106509,1980,1058,47.2377,-5.71097
763,-34,47.1718,5.54663,-0.00487629,0.00858379,-0.000997007,0.00865724,-0.00494974,-1.49726,0.0079526,0.0123021,1987,1058,47.1718,-5.54668
770,-34,47.0823,5.38306,-0.00434814,0.0120847,-0.00320544,0.0126878,-0.00495127,-1.38481,0.0105054,0.017757,1994,1058,47.0823,-5.38311
777,-34,46.9744,5.32495,-0.00260881,0.0165085,-0.00631211,0.0184045,-0.00450488,-1.27899,0.0140148,0.0191201,2001,1058,46.9743,-5.32497
784,-34,46.8838,5.2428,-0.000113934,0.0210862,-0.00988244,0.0249783,-0.00400608,-1.19561,0.0181357,0.035649,2008,1058,46.8838,-5.24278
791,-34,46.6809,4.71301,0.00334905,0.0258718,-0.0140317,0.0326023,-0.00338142,-1.12355,0.0229452,0.0443818,2015,1058,46.681,-4.71296
798,-34,46.8269,4.29248,0.00813111,0.0308861,-0.0188863,0.0415572,-0.00253997,-1.0565,0.0285891,0.0490685,2022,1058,46.827,-4.29253
805,-34,46.6758,4.04724,0,0,0,0,0,0,0,-1,2029,1058,46.6758,-4.0472
812,-34,47.4023,4.0481,0,0,0,0,0,0,0,-1,2036,1058,47.4023,-4.04806
-700,-41,-35.1711,-4.05005,0,0,0,0,0,0,0,-1,524,1065,-35.1711,4.05009
-693,-41,-35.338,-3.37402,0.00733872,0.167729,0.0552539,0.184921,-0.00985326,1.26915,0.126693,0.045754,531,1065,-35.338,3.37404
-686,-41,-35.5569,-2.55005,0.0114793,0.146738,0.0451372,0.160417,-0.0022,1.27653,0.107685,0.0455238,538,1065,-35.5569,2.55009
-679,-41,-35.7322,-1.98572,0.0127945,0.124493,0.0355046,0.134823,0.00246435,1.28766,0.0890719,0.046358,545,1065,-35.7322,1.9857
-672,-41,-35.521,-1.16772,0.0124854,0.103004,0.0268733,0.110381,0.00510838,1.30289,0.0719448,0.0460402,552,1065,-35.521,1.16776
-665,-41,-35.3408,-0.23645,0,0,0,0,0,0,0,-1,559,1065,-35.3408,0.236501
-658,-41,-34.7772,1.92627,0,0,0,0,0,0,0,-1,566,1065,-34.7772,-1.92622
-651,-41,-34.7999,2.00122,0.00780534,0.0500246,0.00845259,0.051654,0.00617596,1.38036,0.0325731,0.0330222,573,1065,-34.7999,-2.00128
-644,-41,-35.0496,2.2572,0.00603405,0.0368429,0.00461526,0.0375194,0.00535752,1.42525,0.0234322,0.0181318,580,1065,-35.0496,-2.25724
-637,-41,-35.1039,2.47375,0.00442271,0.025683,0.00144758,0.0257811,0.0043246,1.50312,0.0159426,0.0186906,587,1065,-35.1039,-2.47378
-630,-41,-35.0945,2.73547,0.00333286,0.016279,-0.000927264,0.0163451,0.00326678,-1.49966,0.00998751,0.0143459,594,1065,-35.0945,-2.73542
-623,-41,-35.0623,2.97632,0.00246542,0.00943403,-0.00244378,0.0102056,0.00169385,-1.26497,0.00631529,0.0119561,601,1065,-35.0622,-2.97635
-616,-41,-35.0292,3.25354,0.0017225,0.00423994,-0.00352648,0.00672561,-0.000763165,-0.956817,0.00475857,0.0158228,608,1065,-35.0292,-3.25348
-609,-41,-35.0128,3.47888,0.00170922,0.00187861,-0.0036683,0.0054632,-0.00187537,-0.79694,0.00440248,0.0229305,615,1065,-35.0128,-3.47889
-602,-41,-35.0408,3.67371,0.00144903,0.000546781,-0.00360004,0.0046261,-0.00263029,-0.723068,0.00424197,0.0140323,622,1065,-35.0408,-3.67372
-595,-41,-35.1474,3.8114,0.00140981,-0.000165212,-0.00355457,0.00426305,-0.00301846,-0.676385,0.0042244,0.0218341,629,1065,-35.1474,-3.81136
-588,-41,-35.4169,2.27087,0,0,0,0,0,0,0,-1,636,1065,-35.4169,-2.27086
-581,-41,-35.5721,0.980469,0.001831,-0.000214601,-0.00320534,0.00417277,-0.00255637,-0.630959,0.00392226,0.0339059,643,1065,-35.5721,-0.980428
-574,-41,-35.6596,1.32275,0.00192372,0.000161997,-0.00294122,0.00411315,-0.00202743,-0.639904,0.00361279,0.0345621,650,1065,-35.6596,-1.32281
-567,-41,-35.7022,1.47498,0.0017721,0.000873712,-0.00249065,0.00385373,-0.00120793,-0.696181,0.00305253,0.0400493,657,1065,-35.7022,-1.47499
-560,-41,-35.5649,1.14258,0.00136108,0.00189089,-0.00182238,0.00346752,-0.000215544,-0.857573,0.00238677,0.0406695,664,1065,-35.5649,-1.14252
-553,-41,-35.452,0.964722,0.000693686,0.00311934,-0.000887497,0.00340938,0.000403649,-1.25493,0.00215103,0.0432224,671,1065,-35.452,-0.964665
-546,-41,-35.3661,0.939209,-0.000260419,0.00438594,0.000377836,0.00441647,-0.000290943,1.49018,0.00304593,0.0431569,678,1065,-35.3661,-0.939236
-539,-41,-35.5215,0.906006,-0.0016803,0.00536812,0.00162943,0.00572658,-0.00203875,1.35426,0.00464879,0.0418368,685,1065,-35.5215,-0.905992
-532,-41,-35.5435,0.951416,-0.00314024,0.00665237,0.00269414,0.00734465,-0.00383251,1.31928,0.00655847,0.0400068,692,1065,-35.5435,-0.951418
-525,-41,0,0,0,0,0,0,0,0,0,-1,699,1065,0,0
-518,-41,0,0,0,0,0,0,0,0,0,-1,706,1065,0,0
-511,-41,0,0,0,0,0,0,0,0,0,-1,713,1065,0,0
-504,-41,0,0,0,0,0,0,0,0,0,-1,720,1065,0,0
-497,-41,0,0,0,0,0,0,0,0,0,-1,727,1065,0,0
-490,-41,0,0,0,0,0,0,0,0,0,-1,734,1065,0,0
-483,-41,0,0,0,0,0,0,0,0,0,-1,741,1065,0,0
-476,-41,0,0,0,0,0,0,0,0,0,-1,748,1065,0,0
-469,-41,0,0,0,0,0,0,0,0,0,-1,755,1065,0,0
-462,-41,0,0,0,0,0,0,0,0,0,-1,762,1065,0,0
-455,-41,0,0,0,0,0,0,0,0,0,-1,769,1065,0,0
-448,-41,0,0,0,0,0,0,0,0,0,-1,776,1065,0,0
-441,-41,0,0,0,0,0,0,0,0,0,-1,783,1065,0,0
-434,-41,0,0,0,0,0,0,0,0,0,-1,790,1065,0,0
-427,-41,0,0,0,0,0,0,0,0,0,-1,797,1065,0,0
-420,-41,0,0,0,0,0,0,0,0,0,-1,804,1065,0,0
-413,-41,0,0,0,0,0,0,0,0,0,-1,811,1065,0,0
-406,-41,0,0,0,0,0,0,0,0,0,-1,818,1065,0,0
-399,-41,0,0,0,0,0,0,0,0,0,-1,825,1065,0,0
-392,-41,0,0,0,0,0,0,0,0,0,-1,832,1065,0,0
-385,-41,0,0,0,0,0,0,0,0,0,-1,839,1065,0,0
-378,-41,0,0,0,0,0,0,0,0,0,-1,846,1065,0,0
-371,-41,0,0,0,0,0,0,0,0,0,-1,853,1065,0,0
-364,-41,0,0,0,0,0,0,0,0,0,-1,860,1065,0,0
-357,-41,0,0,0,0,0,0,0,0,0,-1,867,1065,0,0
-350,-41,0,0,0,0,0,0,0,0,0,-1,874,1065,0,0
-343,-41,0,0,0,0,0,0,0,0,0,-1,881,1065,0,0
-336,-41,0,0,0,0,0,0,0,0,0,-1,888,1065,0,0
-329,-41,0,0,0,0,0,0,0,0,0,-1,895,1065,0,0
-322,-41,0,0,0,0,0,0,0,0,0,-1,902,1065,0,0
-315,-41,0,0,0,0,0,0,0,0,0,-1,909,1065,0,0
-308,-41,0,0,0,0,0,0,0,0,0,-1,916,1065,0,0
-301,-41,0,0,0,0,0,0,0,0,0,-1,923,1065,0,0
-294,-41,0,0,0,0,0,0,0,0,0,-1,930,1065,0,0
-287,-41,0,0,0,0,0,0,0,0,0,-1,937,1065,0,0
-280,-41,0,0,0,0,0,0,0,0,0,-1,944,1065,0,0
-273,-41,0,0,0,0,0,0,0,0,0,-1,951,1065,0,0
-266,-41,0,0,0,0,0,0,0,0,0,-1,958,1065,0,0
-259,-41,0,0,0,0,0,0,0,0,0,-1,965,1065,0,0
-252,-41,0,0,0,0,0,0,0,0,0,-1,972,1065,0,0
-245,-41,0,0,0,0,0,0,0,0,0,-1,979,1065,0,0
-238,-41,0,0,0,0,0,0,0,0,0,-1,986,1065,0,0
-231,-41,0,0,0,0,0,0,0,0,0,-1,993,1065,0,0
-224,-41,0,0,0,0,0,0,0,0,0,-1,1000,1065,0,0
-217,-41,0,0,0,0,0,0,0,0,0,-1,1007,1065,0,0
-210,-41,0,0,0,0,0,0,0,0,0,-1,1014,1065,0,0
-203,-41,0,0,0,0,0,0,0,0,0,-1,1021,1065,0,0
-196,-41,0,0,0,0,0,0,0,0,0,-1,1028,1065,0,0
-189,-41,0,0,0,0,0,0,0,0,0,-1,1035,1065,0,0
-182,-41,0,0,0,0,0,0,0,0,0,-1,1042,1065,0,0
-175,-41,0,0,0,0,0,0,0,0,0,-1,1049,1065,0,0
-168,-41,0,0,0,0,0,0,0,0,0,-1,1056,1065,0,0
-161,-41,0,0,0,0,0,0,0,0,0,-1,1063,1065,0,0
-154,-41,0,0,0,0,0,0,0,0,0,-1,1070,1065,0,0
-147,-41,0,0,0,0,0,0,0,0,0,-1,1077,1065,0,0
-140,-41,0,0,0,0,0,0,0,0,0,-1,1084,1065,0,0
-133,-41,0,0,0,0,0,0,0,0,0,-1,1091,1065,0,0
-126,-41,0,0,0,0,0,0,0,0,0,-1,1098,1065,0,0
-119,-41,0,0,0,0,0,0,0,0,0,-1,1105,1065,0,0
-112,-41,0,0,0,0,0,0,0,0,0,-1,1112,1065,0,0
-105,-41,0,0,0,0,0,0,0,0,0,-1,1119,1065,0,0
-98,-41,0,0,0,0,0,0,0,0,0,-1,1126,1065,0,0
-91,-41,0,0,0,0,0,0,0,0,0,-1,1133,1065,0,0
-84,-41,0,0,0,0,0,0,0,0,0,-1,1140,1065,0,0
-77,-41,0,0,0,0,0,0,0,0,0,-1,1147,1065,0,0
-70,-41,0,0,0,0,0,0,0,0,0,-1,1154,1065,0,0
-63,-41,0,0,0,0,0,0,0,0,0,-1,1161,1065,0,0
-56,-41,0,0,0,0,0,0,0,0,0,-1,1168,1065,0,0
-49,-41,0,0,0,0,0,0,0,0,0,-1,1175,1065,0,0
-42,-41,0,0,0,0,0,0,0,0,0,-1,1182,1065,0,0
-35,-41,0,0,0,0,0,0,0,0,0,-1,1189,1065,0,0
-28,-41,0,0,0,0,0,0,0,0,0,-1,1196,1065,0,0
-21,-41,0,0,0,0,0,0,0,0,0,-1,1203,1065,0,0
-14,-41,0,0,0,0,0,0,0,0,0,-1,1210,1065,0,0
-7,-41,0,0,0,0,0,0,0,0,0,-1,1217,1065,0,0
0,-41,0,0,0,0,0,0,0,0,0,-1,1224,1065,0,0
7,-41,0,0,0,0,0,0,0,0,0,-1,1231,1065,0,0
14,-41,0,0,0,0,0,0,0,0,0,-1,1238,1065,0,0
21,-41,0,0,0,0,0,0,0,0,0,-1,1245,1065,0,0
28,-41,0,0,0,0,0,0,0,0,0,-1,1252,1065,0,0
35,-41,0,0,0,0,0,0,0,0,0,-1,1259,1065,0,0
42,-41,0,0,0,0,0,0,0,0,0,-1,1266,1065,0,0
49,-41,0,0,0,0,0,0,0,0,0,-1,1273,1065,0,0
56,-41,0,0,0,0,0,0,0,0,0,-1,1280,1065,0,0
63,-41,0,0,0,0,0,0,0,0,0,-1,1287,1065,0,0
70,-41,0,0,0,0,0,0,0,0,0,-1,1294,1065,0,0
77,-41,0,0,0,0,0,0,0,0,0,-1,1301,1065,0,0
84,-41,0,0,0,0,0,0,0,0,0,-1,1308,1065,0,0
91,-41,0,0,0,0,0,0,0,0,0,-1,1315,1065,0,0
98,-41,0,0,0,0,0,0,0,0,0,-1,1322,1065,0,0
105,-41,0,0,0,0,0,0,0,0,0,-1,1329,1065,0,0
112,-41,0,0,0,0,0,0,0,0,0,-1,1336,1065,0,0
119,-41,0,0,0,0,0,0,0,0,0,-1,1343,1065,0,0
126,-41,0,0,0,0,0,0,0,0,0,-1,1350,1065,0,0
133,-41,0,0,0,0,0,0,0,0,0,-1,1357,1065,0,0
140,-41,0,0,0,0,0,0,0,0,0,-1,1364,1065,0,0
147,-41,0,0,0,0,0,0,0,0,0,-1,1371,1065,0,0
154,-41,0,0,0,0,0,0,0,0,0,-1,1378,1065,0,0
161,-41,0,0,0,0,0,0,0,0,0,-1,1385,1065,0,0
168,-41,0,0,0,0,0,0,0,0,0,-1,1392,1065,0,0
175,-41,0,0,0,0,0,0,0,0,0,-1,1399,1065,0,0
182,-41,0,0,0,0,0,0,0,0,0,-1,1406,1065,0,0
189,-41,0,0,0,0,0,0,0,0,0,-1,1413,1065,0,0
196,-41,0,0,0,0,0,0,0,0,0,-1,1420,1065,0,0
203,-41,0,0,0,0,0,0,0,0,0,-1,1427,1065,0,0
210,-41,0,0,0,0,0,0,0,0,0,-1,1434,1065,0,0
217,-41,0,0,0,0,0,0,0,0,0,-1,1441,1065,0,0
224,-41,0,0,0,0,0,0,0,0,0,-1,1448,1065,0,0
231,-41,0,0,0,0,0,0,0,0,0,-1,1455,1065,0,0
238,-41,0,0,0,0,0,0,0,0,0,-1,1462,1065,0,0
245,-41,0,0,0,0,0,0,0,0,0,-1,1469,1065,0,0
252,-41,0,0,0,0,0,0,0,0,0,-1,1476,1065,0,0
259,-41,0,0,0,0,0,0,0,0,0,-1,1483,1065,0,0
266,-41,0,0,0,0,0,0,0,0,0,-1,1490,1065,0,0
273,-41,0,0,0,0,0,0,0,0,0,-1,1497,1065,0,0
280,-41,0,0,0,0,0,0,0,0,0,-1,1504,1065,0,0
287,-41,0,0,0,0,0,0,0,0,0,-1,1511,1065,0,0
294,-41,0,0,0,0,0,0,0,0,0,-1,1518,1065,0,0
301,-41,0,0,0,0,0,0,0,0,0,-1,1525,1065,0,0
308,-41,0,0,0,0,0,0,0,0,0,-1,1532,1065,0,0
315,-41,0,0,0,0,0,0,0,0,0,-1,1539,1065,0,0
322,-41,0,0,0,0,0,0,0,0,0,-1,1546,1065,0,0
329,-41,0,0,0,0,0,0,0,0,0,-1,1553,1065,0,0
336,-41,0,0,0,0,0,0,0,0,0,-1,1560,1065,0,0
343,-41,0,0,0,0,0,0,0,0,0,-1,1567,1065,0,0
350,-41,0,0,0,0,0,0,0,0,0,-1,1574,1065,0,0
357,-41,0,0,0,0,0,0,0,0,0,-1,1581,1065,0,0
364,-41,0,0,0,0,0,0,0,0,0,-1,1588,1065,0,0
371,-41,0,0,0,0,0,0,0,0,0,-1,1595,1065,0,0
378,-41,0,0,0,0,0,0,0,0,0,-1,1602,1065,0,0
385,-41,0,0,0,0,0,0,0,0,0,-1,1609,1065,0,0
392,-41,0,0,0,0,0,0,0,0,0,-1,1616,1065,0,0
399,-41,0,0,0,0,0,0,0,0,0,-1,1623,1065,0,0
406,-41,0,0,0,0,0,0,0,0,0,-1,1630,1065,0,0
413,-41,0,0,0,0,0,0,0,0,0,-1,1637,1065,0,0
420,-41,0,0,0,0,0,0,0,0,0,-1,1644,1065,0,0
427,-41,0,0,0,0,0,0,0,0,0,-1,1651,1065,0,0
434,-41,0,0,0,0,0,0,0,0,0,-1,1658,1065,0,0
441,-41,0,0,0,0,0,0,0,0,0,-1,1665,1065,0,0
448,-41,0,0,0,0,0,0,0,0,0,-1,1672,1065,0,0
455,-41,0,0,0,0,0,0,0,0,0,-1,1679,1065,0,0
462,-41,0,0,0,0,0,0,0,0,0,-1,1686,1065,0,0
469,-41,0,0,0,0,0,0,0,0,0,-1,1693,1065,0,0
476,-41,0,0,0,0,0,0,0,0,0,-1,1700,1065,0,0
483,-41,0,0,0,0,0,0,0,0,0,-1,1707,1065,0,0
490,-41,0,0,0,0,0,0,0,0,0,-1,1714,1065,0,0
497,-41,0,0,0,0,0,0,0,0,0,-1,1721,1065,0,0
504,-41,0,0,0,0,0,0,0,0,0,-1,1728,1065,0,0
511,-41,0,0,0,0,0,0,0,0,0,-1,1735,1065,0,0
518,-41,0,0,0,0,0,0,0,0,0,-1,1742,1065,0,0
525,-41,0,0,0,0,0,0,0,0,0,-1,1749,1065,0,0
532,-41,0,0,0,0,0,0,0,0,0,-1,1756,1065,0,0
539,-41,0,0,0,0,0,0,0,0,0,-1,1763,1065,0,0
546,-41,0,0,0,0,0,0,0,0,0,-1,1770,1065,0,0
553,-41,0,0,0,0,0,0,0,0,0,-1,1777,1065,0,0
560,-41,0,0,0,0,0,0,0,0,0,-1,1784,1065,0,0
567,-41,0,0,0,0,0,0,0,0,0,-1,1791,1065,0,0
574,-41,0,0,0,0,0,0,0,0,0,-1,1798,1065,0,0
581,-41,0,0,0,0,0,0,0,0,0,-1,1805,1065,0,0
588,-41,0,0,0,0,0,0,0,0,0,-1,1812,1065,0,0
595,-41,0,0,0,0,0,0,0,0,0,-1,1819,1065,0,0
602,-41,0,0,0,0,0,0,0,0,0,-1,1826,1065,0,0
609,-41,0,0,0,0,0,0,0,0,0,-1,1833,1065,0,0
616,-41,0,0,0,0,0,0,0,0,0,-1,1840,1065,0,0
623,-41,0,0,0,0,0,0,0,0,0,-1,1847,1065,0,0
630,-41,0,0,0,0,0,0,0,0,0,-1,1854,1065,0,0
637,-41,0,0,0,0,0,0,0,0,0,-1,1861,1065,0,0
644,-41,0,0,0,0,0,0,0,0,0,-1,1868,1065,0,0
651,-41,47.8501,2.64221,-0.00163312,-0.00100407,0.00115982,-0.000116884,-0.00252031,0.917805,0.00164263,0.0340856,1875,1065,47.85,-2.64216
658,-41,47.8298,2.79712,-0.000689124,-0.00049294,0.000471151,-0.000109777,-0.00107229,0.88803,0.00068122,0.0394356,1882,1065,47.8299,-2.79709
665,-41,47.8141,2.9895,-0.000166713,-9.61583e-05,0.000347911,0.000218259,-0.00048113,0.835925,0.00041319,0.041799,1889,1065,47.814,-2.98945
672,-41,47.8312,3.04333,0.000217788,0.000258327,0.000561415,0.000799839,-0.000323723,0.803442,0.000667821,0.0412445,1896,1065,47.8312,-3.04339
679,-41,47.8402,3.06445,0.000407451,0.000588082,0.000993119,0.00149498,-0.000499451,0.830744,0.00119835,0.0388869,1903,1065,47.8402,-3.06442
686,-41,47.8896,2.76257,0.000203532,0.000549833,0.0015148,0.00190135,-0.00114798,0.842304,0.00177835,0.0415735,1910,1065,47.8896,-2.7626
693,-41,48.1394,2.28748,0,0,0,0,0,0,0,-1,1917,1065,48.1394,-2.28747
700,-41,47.8982,2.64282,-0.000319481,0.000125636,0.00244418,0.00235737,-0.00255122,0.830801,0.00283471,0.0421643,1924,1065,47.8982,-2.64287
707,-41,47.8401,2.75671,-0.000661504,4.99486e-05,0.00267555,0.00239332,-0.00300487,0.851488,0.0031233,0.0278166,1931,1065,47.8401,-2.75667
714,-41,47.8484,2.81494,-0.00112255,8.60084e-05,0.00284716,0.00239231,-0.00342885,0.889966,0.00337856,0.0197756,1938,1065,47.8484,-2.81495
721,-41,47.8436,2.92505,0,0,0,0,0,0,0,-1,1945,1065,47.8437,-2.92504
728,-41,47.2084,6.2804,0,0,0,0,0,0,0,-1,1952,1065,47.2083,-6.2804
735,-41,47.0697,6.15637,-0.00355056,0.00157309,0.00308183,0.00301883,-0.0049963,1.13216,0.00467425,0.0188823,1959,1065,47.0698,-6.15634
742,-41,46.9825,6.02295,-0.00448995,0.00228877,0.00306003,0.00346576,-0.00566694,1.20361,0.00532357,0.0152092,1966,1065,46.9826,-6.02293
749,-41,47.0068,5.8728,-0.00475245,0.00383914,0.00194845,0.00426037,-0.00517368,1.35789,0.00545525,0.0139496,1973,1065,47.0069,-5.87278
756,-41,47.0374,5.703,-0.00424514,0.00579414,0.000508455,0.00581983,-0.00427083,1.52032,0.00584868,0.0137163,1980,1065,47.0374,-5.70296
763,-41,46.9603,5.49585,-0.00411364,0.00857856,-0.00113955,0.00868006,-0.00421514,-1.48196,0.00759235,0.0115372,1987,1065,46.9603,-5.4959
770,-41,46.8884,5.34619,-0.00322632,0.0122141,-0.00350325,0.0129718,-0.00398399,-1.3578,0.0102376,0.0128361,1994,1065,46.8885,-5.34613
777,-41,46.7799,5.18677,-0.00101119,0.0168528,-0.00690243,0.019209,-0.00336742,-1.24184,0.0140635,0.014848,2001,1065,46.7799,-5.18678
784,-41,46.6731,4.95044,0.00203733,0.0216938,-0.0109075,0.0265477,-0.00281665,-1.1521,0.0187082,0.0261271,2008,1065,46.6731,-4.95042
791,-41,46.5637,4.55969,0.00612876,0.026774,-0.015674,0.0352192,-0.00231642,-1.07659,0.0242884,0.0438914,2015,1065,46.5638,-4.55972
798,-41,46.4451,4.1825,0.0117294,0.0321181,-0.021423,0.0456486,-0.0018011,-1.00747,0.0310502,0.0474563,2022,1065,46.445,-4.18249
805,-41,46.261,3.81848,0.0192295,0.0377935,-0.0281625,0.0581641,-0.00114118,-0.944586,0.039162,0.0466881,2029,1065,46.261,-3.81853
812,-41,46.1101,3.43347,0,0,0,0,0,0,0,-1,2036,1065,46.11,-3.43344
-700,-48,-35.4916,-4.96338,0,0,0,0,0,0,0,-1,524,1072,-35.4916,4.96338
-693,-48,-35.2204,-4.55615,0.010593,0.18227,0.0579776,0.200016,-0.00715254,1.27378,0.135791,0.0438107,531,1072,-35.2204,4.55613
-686,-48,-34.9881,-4.13806,0.0148308,0.157702,0.0471895,0.171881,0.000651643,1.27891,0.114371,0.0454692,538,1072,-34.9881,4.13805
-679,-48,-35.6624,-3.39673,0.0160936,0.132865,0.0370172,0.143611,0.00534785,1.28827,0.0940087,0.0481478,545,1072,-35.6624,3.39673
-672,-48,-35.4028,-2.64233,0.015575,0.109303,0.0279187,0.116989,0.0078891,1.30216,0.0755003,0.0469845,552,1072,-35.4029,2.6423
-665,-48,-34.472,-1.349,0,0,0,0,0,0,0,-1,559,1072,-34.472,1.34905
-658,-48,-34.6866,0.835083,0.011937,0.0685289,0.0136944,0.0716686,0.00879733,1.34543,0.0451333,0.0461729,566,1072,-34.6866,-0.835118
-651,-48,-34.5839,1.61365,0.00971087,0.0519132,0.00864558,0.0536157,0.00800842,1.37637,0.0333959,0.0372995,573,1072,-34.5839,-1.61369
-644,-48,-34.711,2.23413,0.00760037,0.0379035,0.00475117,0.038631,0.00687291,1.41886,0.0237962,0.0214399,580,1072,-34.711,-2.23418
-637,-48,-34.7319,2.40662,0.00567732,0.0260399,0.00159405,0.0261639,0.00555328,1.49314,0.0159177,0.020184,587,1072,-34.7319,-2.40659
-630,-48,-34.7349,2.67139,0.00429343,0.0160698,-0.000756194,0.0161181,0.00424507,-1.50693,0.00964693,0.0205548,594,1072,-34.7349,-2.67143
-623,-48,-34.8135,2.93762,0.00316887,0.0090504,-0.00221981,0.00979415,0.00242512,-1.2475,0.0058899,0.0118636,601,1072,-34.8135,-2.93758
-616,-48,-34.8249,3.20337,0.00224111,0.00401269,-0.00320292,0.00645005,-0.000196249,-0.920305,0.00436692,0.0110195,608,1072,-34.8249,-3.20343
-609,-48,-34.7685,3.48584,0.00209885,0.00175594,-0.00329573,0.00522758,-0.00137279,-0.75941,0.00402153,0.0126886,615,1072,-34.7685,-3.48585
-602,-48,-34.7664,3.70483,0.00172687,0.000434795,-0.00317188,0.00431784,-0.00215618,-0.684934,0.00380659,0.013182,622,1072,-34.7664,-3.7048
-595,-48,-34.804,3.88293,0.00163969,-0.000181985,-0.00317814,0.00403494,-0.00257724,-0.645842,0.00384834,0.0290075,629,1072,-34.804,-3.88292
-588,-48,-35.0073,4.01245,0,0,0,0,0,0,0,-1,636,1072,-35.0073,-4.01251
-581,-48,-35.5599,0.935669,0.0019928,-0.000277842,-0.00285831,0.00393301,-0.00221806,-0.596354,0.00359704,0.0441298,643,1072,-35.5599,-0.935716
-574,-48,-35.7058,1.2345,0.00209404,3.07379e-05,-0.00263343,0.00389069,-0.00176591,-0.59871,0.00334176,0.0368309,650,1072,-35.7058,-1.2345
-567,-48,-35.7758,1.36023,0.00199904,0.000624839,-0.00225808,0.00367224,-0.00104837,-0.637707,0.00286234,0.037821,657,1072,-35.7758,-1.36022
-560,-48,-35.6415,1.09595,0.00166141,0.00147645,-0.00170046,0.0032719,-0.000134042,-0.758232,0.00222729,0.0407912,664,1072,-35.6415,-1.09595
-553,-48,-35.5726,0.883179,0.00109185,0.00248155,-0.000903093,0.00292617,0.00064723,-1.1133,0.00177482,0.0400545,671,1072,-35.5726,-0.883169
-546,-48,-35.5734,0.955688,0.000278589,0.0034755,0.000199411,0.00348789,0.000266199,1.50874,0.0022418,0.0381152,678,1072,-35.5734,-0.955745
-539,-48,-35.4643,0.749146,-0.000874373,0.0041093,0.00130266,0.00442925,-0.00119433,1.32995,0.00342115,0.0415216,685,1072,-35.4643,-0.749177
-532,-48,-35.4758,0.824829,-0.00219121,0.00499789,0.00234543,0.0056954,-0.00288873,1.28173,0.00504358,0.0401865,692,1072,-35.4758,-0.82481
-525,-48,0,0,0,0,0,0,0,0,0,-1,699,1072,0,0
-518,-48,0,0,0,0,0,0,0,0,0,-1,706,1072,0,0
-511,-48,0,0,0,0,0,0,0,0,0,-1,713,1072,0,0
-504,-48,0,0,0,0,0,0,0,0,0,-1,720,1072,0,0
-497,-48,0,0,0,0,0,0,0,0,0,-1,727,1072,0,0
-490,-48,0,0,0,0,0,0,0,0,0,-1,734,1072,0,0
-483,-48,0,0,0,0,0,0,0,0,0,-1,741,1072,0,0
-476,-48,0,0,0,0,0,0,0,0,0,-1,748,1072,0,0
-469,-48,0,0,0,0,0,0,0,0,0,-1,755,1072,0,0
-462,-48,0,0,0,0,0,0,0,0,0,-1,762,1072,0,0
-455,-48,0,0,0,0,0,0,0,0,0,-1,769,1072,0,0
-448,-48,0,0,0,0,0,0,0,0,0,-1,776,1072,0,0
-441,-48,0,0,0,0,0,0,0,0,0,-1,783,1072,0,0
-434,-48,0,0,0,0,0,0,0,0,0,-1,790,1072,0,0
-427,-48,0,0,0,0,0,0,0,0,0,-1,797,1072,0,0
-420,-48,0,0,0,0,0,0,0,0,0,-1,804,1072,0,0
-413,-48,0,0,0,0,0,0,0,0,0,-1,811,1072,0,0
-406,-48,0,0,0,0,0,0,0,0,0,-1,818,1072,0,0
-399,-48,0,0,0,0,0,0,0,0,0,-1,825,1072,0,0
-392,-48,0,0,0,0,0,0,0,0,0,-1,832,1072,0,0
-385,-48,0,0,0,0,0,0,0,0,0,-1,839,1072,0,0
-378,-48,0,0,0,0,0,0,0,0,0,-1,846,1072,0,0
-371,-48,0,0,0,0,0,0,0,0,0,-1,853,1072,0,0
-364,-48,0,0,0,0,0,0,0,0,0,-1,860,1072,0,0
-357,-48,0,0,0,0,0,0,0,0,0,-1,867,1072,0,0
-350,-48,0,0,0,0,0,0,0,0,0,-1,874,1072,0,0
-343,-48,0,0,0,0,0,0,0,0,0,-1,881,1072,0,0
-336,-48,0,0,0,0,0,0,0,0,0,-1,888,1072,0,0
-329,-48,0,0,0,0,0,0,0,0,0,-1,895,1072,0,0
-322,-48,0,0,0,0,0,0,0,0,0,-1,902,1072,0,0
-315,-48,0,0,0,0,0,0,0,0,0,-1,909,1072,0,0
-308,-48,0,0,0,0,0,0,0,0,0,-1,916,1072,0,0
-301,-48,0,0,0,0,0,0,0,0,0,-1,923,1072,0,0
-294,-48,0,0,0,0,0,0,0,0,0,-1,930,1072,0,0
-287,-48,0,0,0,0,0,0,0,0,0,-1,937,1072,0,0
-280,-48,0,0,0,0,0,0,0,0,0,-1,944,1072,0,0
-273,-48,0,0,0,0,0,0,0,0,0,-1,951,1072,0,0
-266,-48,0,0,0,0,0,0,0,0,0,-1,958,1072,0,0
-259,-48,0,0,0,0,0,0,0,0,0,-1,965,1072,0,0
-252,-48,0,0,0,0,0,0,0,0,0,-1,972,1072,0,0
-245,-48,0,0,0,0,0,0,0,0,0,-1,979,1072,0,0
-238,-48,0,0,0,0,0,0,0,0,0,-1,986,1072,0,0
-231,-48,0,0,0,0,0,0,0,0,0,-1,993,1072,0,0
-224,-48,0,0,0,0,0,0,0,0,0,-1,1000,1072,0,0
-217,-48,0,0,0,0,0,0,0,0,0,-1,1007,1072,0,0
-210,-48,0,0,0,0,0,0,0,0,0,-1,1014,1072,0,0
-203,-48,0,0,0,0,0,0,0,0,0,-1,1021,1072,0,0
-196,-48,0,0,0,0,0,0,0,0,0,-1,1028,1072,0,0
-189,-48,0,0,0,0,0,0,0,0,0,-1,1035,1072,0,0
-182,-48,0,0,0,0,0,0,0,0,0,-1,1042,1072,0,0
-175,-48,0,0,0,0,0,0,0,0,0,-1,1049,1072,0,0
-168,-48,0,0,0,0,0,0,0,0,0,-1,1056,1072,0,0
-161,-48,0,0,0,0,0,0,0,0,0,-1,1063,1072,0,0
-154,-48,0,0,0,0,0,0,0,0,0,-1,1070,1072,0,0
-147,-48,0,0,0,0,0,0,0,0,0,-1,1077,1072,0,0
-140,-48,0,0,0,0,0,0,0,0,0,-1,1084,1072,0,0
-133,-48,0,0,0,0,0,0,0,0,0,-1,1091,1072,0,0
-126,-48,0,0,0,0,0,0,0,0,0,-1,1098,1072,0,0
-119,-48,0,0,0,0,0,0,0,0,0,-1,1105,1072,0,0
-112,-48,0,0,0,0,0,0,0,0,0,-1,1112,1072,0,0
-105,-48,0,0,0,0,0,0,0,0,0,-1,1119,1072,0,0
-98,-48,0,0,0,0,0,0,0,0,0,-1,1126,1072,0,0
-91,-48,0,0,0,0,0,0,0,0,0,-1,1133,1072,0,0
-84,-48,0,0,0,0,0,0,0,0,0,-1,1140,1072,0,0
-77,-48,0,0,0,0,0,0,0,0,0,-1,1147,1072,0,0
-70,-48,0,0,0,0,0,0,0,0,0,-1,1154,1072,0,0
-63,-48,0,0,0,0,0,0,0,0,0,-1,1161,1072,0,0
-56,-48,0,0,0,0,0,0,0,0,0,-1,1168,1072,0,0
-49,-48,0,0,0,0,0,0,0,0,0,-1,1175,1072,0,0
-42,-48,0,0,0,0,0,0,0,0,0,-1,1182,1072,0,0
-35,-48,0,0,0,0,0,0,0,0,0,-1,1189,1072,0,0
-28,-48,0,0,0,0,0,0,0,0,0,-1,1196,1072,0,0
-21,-48,0,0,0,0,0,0,0,0,0,-1,1203,1072,0,0
-14,-48,0,0,0,0,0,0,0,0,0,-1,1210,1072,0,0
-7,-48,0,0,0,0,0,0,0,0,0,-1,1217,1072,0,0
0,-48,0,0,0,0,0,0,0,0,0,-1,1224,1072,0,0
7,-48,0,0,0,0,0,0,0,0,0,-1,1231,1072,0,0
14,-48,0,0,0,0,0,0,0,0,0,-1,1238,1072,0,0
21,-48,0,0,0,0,0,0,0,0,0,-1,1245,1072,0,0
28,-48,0,0,0,0,0,0,0,0,0,-1,1252,1072,0,0
35,-48,0,0,0,0,0,0,0,0,0,-1,1259,1072,0,0
42,-48,0,0,0,0,0,0,0,0,0,-1,1266,1072,0,0
49,-48,0,0,0,0,0,0,0,0,0,-1,1273,1072,0,0
56,-48,0,0,0,0,0,0,0,0,0,-1,1280,1072,0,0
63,-48,0,0,0,0,0,0,0,0,0,-1,1287,1072,0,0
70,-48,0,0,0,0,0,0,0,0,0,-1,1294,1072,0,0
77,-48,0,0,0,0,0,0,0,0,0,-1,1301,1072,0,0
84,-48,0,0,0,0,0,0,0,0,0,-1,1308,1072,0,0
91,-48,0,0,0,0,0,0,0,0,0,-1,1315,1072,0,0
98,-48,0,0,0,0,0,0,0,0,0,-1,1322,1072,0,0
105,-48,0,0,0,0,0,0,0,0,0,-1,1329,1072,0,0
112,-48,0,0,0,0,0,0,0,0,0,-1,1336,1072,0,0
119,-48,0,0,0,0,0,0,0,0,0,-1,1343,1072,0,0
126,-48,0,0,0,0,0,0,0,0,0,-1,1350,1072,0,0
133,-48,0,0,0,0,0,0,0,0,0,-1,1357,1072,0,0
140,-48,0,0,0,0,0,0,0,0,0,-1,1364,1072,0,0
147,-48,0,0,0,0,0,0,0,0,0,-1,1371,1072,0,0
154,-48,0,0,0,0,0,0,0,0,0,-1,1378,1072,0,0
161,-48,0,0,0,0,0,0,0,0,0,-1,1385,1072,0,0
168,-48,0,0,0,0,0,0,0,0,0,-1,1392,1072,0,0
175,-48,0,0,0,0,0,0,0,0,0,-1,1399,1072,0,0
182,-48,0,0,0,0,0,0,0,0,0,-1,1406,1072,0,0
189,-48,0,0,0,0,0,0,0,0,0,-1,1413,1072,0,0
196,-48,0,0,0,0,0,0,0,0,0,-1,1420,1072,0,0
203,-48,0,0,0,0,0,0,0,0,0,-1,1427,1072,0,0
210,-48,0,0,0,0,0,0,0,0,0,-1,1434,1072,0,0
217,-48,0,0,0,0,0,0,0,0,0,-1,1441,1072,0,0
224,-48,0,0,0,0,0,0,0,0,0,-1,1448,1072,0,0
231,-48,0,0,0,0,0,0,0,0,0,-1,1455,1072,0,0
238,-48,0,0,0,0,0,0,0,0,0,-1,1462,1072,0,0
245,-48,0,0,0,0,0,0,0,0,0,-1,1469,1072,0,0
252,-48,0,0,0,0,0,0,0,0,0,-1,1476,1072,0,0
259,-48,0,0,0,0,0,0,0,0,0,-1,1483,1072,0,0
266,-48,0,0,0,0,0,0,0,0,0,-1,1490,1072,0,0
273,-48,0,0,0,0,0,0,0,0,0,-1,1497,1072,0,0
280,-48,0,0,0,0,0,0,0,0,0,-1,1504,1072,0,0
287,-48,0,0,0,0,0,0,0,0,0,-1,1511,1072,0,0
294,-48,0,0,0,0,0,0,0,0,0,-1,1518,1072,0,0
301,-48,0,0,0,0,0,0,0,0,0,-1,1525,1072,0,0
308,-48,0,0,0,0,0,0,0,0,0,-1,1532,1072,0,0
315,-48,0,0,0,0,0,0,0,0,0,-1,1539,1072,0,0
322,-48,0,0,0,0,0,0,0,0,0,-1,1546,1072,0,0
329,-48,0,0,0,0,0,0,0,0,0,-1,1553,1072,0,0
336,-48,0,0,0,0,0,0,0,0,0,-1,1560,1072,0,0
343,-48,0,0,0,0,0,0,0,0,0,-1,1567,1072,0,0
350,-48,0,0,0,0,0,0,0,0,0,-1,1574,1072,0,0
357,-48,0,0,0,0,0,0,0,0,0,-1,1581,1072,0,0
364,-48,0,0,0,0,0,0,0,0,0,-1,1588,1072,0,0
371,-48,0,0,0,0,0,0,0,0,0,-1,1595,1072,0,0
378,-48,0,0,0,0,0,0,0,0,0,-1,1602,1072,0,0
385,-48,0,0,0,0,0,0,0,0,0,-1,1609,1072,0,0
392,-48,0,0,0,0,0,0,0,0,0,-1,1616,1072,0,0
399,-48,0,0,0,0,0,0,0,0,0,-1,1623,1072,0,0
406,-48,0,0,0,0,0,0,0,0,0,-1,1630,1072,0,0
413,-48,0,0,0,0,0,0,0,0,0,-1,1637,1072,0,0
420,-48,0,0,0,0,0,0,0,0,0,-1,1644,1072,0,0
427,-48,0,0,0,0,0,0,0,0,0,-1,1651,1072,0,0
434,-48,0,0,0,0,0,0,0,0,0,-1,1658,1072,0,0
441,-48,0,0,0,0,0,0,0,0,0,-1,1665,1072,0,0
448,-48,0,0,0,0,0,0,0,0,0,-1,1672,1072,0,0
455,-48,0,0,0,0,0,0,0,0,0,-1,1679,1072,0,0
462,-48,0,0,0,0,0,0,0,0,0,-1,1686,1072,0,0
469,-48,0,0,0,0,0,0,0,0,0,-1,1693,1072,0,0
476,-48,0,0,0,0,0,0,0,0,0,-1,1700,1072,0,0
483,-48,0,0,0,0,0,0,0,0,0,-1,1707,1072,0,0
490,-48,0,0,0,0,0,0,0,0,0,-1,1714,1072,0,0
497,-48,0,0,0,0,0,0,0,0,0,-1,1721,1072,0,0
504,-48,0,0,0,0,0,0,0,0,0,-1,1728,1072,0,0
511,-48,0,0,0,0,0,0,0,0,0,-1,1735,1072,0,0
518,-48,0,0,0,0,0,0,0,0,0,-1,1742,1072,0,0
525,-48,0,0,0,0,0,0,0,0,0,-1,1749,1072,0,0
532,-48,0,0,0,0,0,0,0,0,0,-1,1756,1072,0,0
539,-48,0,0,0,0,0,0,0,0,0,-1,1763,1072,0,0
546,-48,0,0,0,0,0,0,0,0,0,-1,1770,1072,0,0
553,-48,0,0,0,0,0,0,0,0,0,-1,1777,1072,0,0
560,-48,0,0,0,0,0,0,0,0,0,-1,1784,1072,0,0
567,-48,0,0,0,0,0,0,0,0,0,-1,1791,1072,0,0
574,-48,0,0,0,0,0,0,0,0,0,-1,1798,1072,0,0
581,-48,0,0,0,0,0,0,0,0,0,-1,1805,1072,0,0
588,-48,0,0,0,0,0,0,0,0,0,-1,1812,1072,0,0
595,-48,0,0,0,0,0,0,0,0,0,-1,1819,1072,0,0
602,-48,0,0,0,0,0,0,0,0,0,-1,1826,1072,0,0
609,-48,0,0,0,0,0,0,0,0,0,-1,1833,1072,0,0
616,-48,0,0,0,0,0,0,0,0,0,-1,1840,1072,0,0
623,-48,0,0,0,0,0,0,0,0,0,-1,1847,1072,0,0
630,-48,0,0,0,0,0,0,0,0,0,-1,1854,1072,0,0
637,-48,0,0,0,0,0,0,0,0,0,-1,1861,1072,0,0
644,-48,0,0,0,0,0,0,0,0,0,-1,1868,1072,0,0
651,-48,47.7512,2.74365,-0.000827955,-0.000103226,0.00262406,0.00218337,-0.00311456,0.854011,0.00307447,0.0306565,1875,1072,47.7512,-2.74364
658,-48,47.7477,2.79846,-3.8909e-05,-7.75717e-05,0.00140115,0.00134305,-0.00145953,0.7785,0.00161853,0.0353995,1882,1072,47.7477,-2.79851
665,-48,47.6722,2.86536,0.000351087,2.31407e-06,0.000913456,0.00110665,-0.000753252,0.691079,0.00108026,0.0408866,1889,1072,47.6723,-2.86535
672,-48,47.6316,2.85559,0.00063749,0.000166558,0.000859162,0.00129287,-0.00048882,0.65165,0.001063,0.0408829,1896,1072,47.6315,-2.85558
679,-48,47.798,2.89905,0.000717113,0.000366108,0.0010853,0.00164101,-0.000557791,0.705238,0.00131983,0.0413353,1903,1072,47.798,-2.89905
686,-48,47.9503,2.45911,0.000440867,0.000280018,0.00148548,0.00184809,-0.00112721,0.758354,0.00173452,0.0425551,1910,1072,47.9503,-2.45915
693,-48,48.1483,2.61853,0.000130544,5.38616e-05,0.00192099,0.00201358,-0.00182917,0.77542,0.00221946,0.0415604,1917,1072,48.1484,-2.61848
700,-48,47.9749,2.81116,-0.000124922,-0.000117583,0.00229028,0.00216903,-0.00241153,0.786199,0.00264583,0.036684,1924,1072,47.9749,-2.81117
707,-48,47.8593,2.80408,-0.000494674,-0.000151113,0.00252103,0.00220398,-0.00284977,0.819415,0.00292572,0.0266373,1931,1072,47.8592,-2.80406
714,-48,47.8478,2.87622,-0.000958053,-0.000107439,0.00270462,0.00220511,-0.0032706,0.863386,0.00318129,0.0325103,1938,1072,47.8478,-2.87627
721,-48,47.8218,3.11792,0,0,0,0,0,0,0,-1,1945,1072,47.8218,-3.11792
728,-48,46.9828,6.4624,0,0,0,0,0,0,0,-1,1952,1072,46.9828,-6.4624
735,-48,46.8796,6.27087,-0.00322293,0.00133892,0.00310127,0.00290773,-0.00479174,1.10247,0.00448944,0.0206335,1959,1072,46.8796,-6.27091
742,-48,46.7633,6.04663,-0.00406569,0.0021159,0.00315029,0.00343842,-0.00538821,1.17333,0.00513734,0.0164689,1966,1072,46.7632,-6.04658
749,-48,46.7911,5.84338,-0.00415782,0.0039141,0.00193918,0.0043558,-0.00459952,1.34684,0.00517099,0.0146184,1973,1072,46.7911,-5.84344
756,-48,46.7883,5.66443,-0.00342018,0.00601684,0.000397655,0.00603356,-0.0034369,1.52876,0.00553586,0.0131534,1980,1072,46.7884,-5.66444
763,-48,46.7219,5.47852,-0.0030499,0.00893376,-0.0013816,0.00909098,-0.00320712,-1.45749,0.00736621,0.0124921,1987,1072,46.722,-5.47857
770,-48,46.6974,5.29736,-0.00183822,0.012861,-0.00396266,0.0138612,-0.00283843,-1.32355,0.0103179,0.0137922,1994,1072,46.6974,-5.29734
777,-48,46.5992,5.07898,0.000725317,0.0178763,-0.00766188,0.0208005,-0.00219891,-1.2062,0.0146551,0.012525,2001,1072,46.5993,-5.07893
784,-48,46.4756,4.82288,0.0041513,0.0231482,-0.0120581,0.0289997,-0.00170015,-1.119,0.019924,0.0249986,2008,1072,46.4756,-4.82282
791,-48,46.3755,4.521,0.00864147,0.0286998,-0.0173343,0.0386972,-0.00135594,-1.04766,0.0262618,0.0420875,2015,1072,46.3755,-4.52103
798,-48,46.2883,4.22656,0,0,0,0,0,0,0,-1,2022,1072,46.2883,-4.22661
805,-48,46.377,3.61108,0.0226706,0.0405826,-0.0314093,0.0642878,-0.00103466,-0.924282,0.0432076,0.0437005,2029,1072,46.377,-3.61107
812,-48,47.1631,3.13562,0,0,0,0,0,0,0,-1,2036,1072,47.1631,-3.13566
-700,-55,-33.5315,1.16589,0,0,0,0,0,0,0,-1,524,1079,-33.5315,-1.16589
-693,-55,-34.8876,-5.69055,0,0,0,0,0,0,0,-1,531,1079,-34.8876,5.69055
-686,-55,-34.583,-5.38098,0,0,0,0,0,0,0,-1,538,1079,-34.583,5.381
-679,-55,-35.2082,-4.44861,0,0,0,0,0,0,0,-1,545,1079,-35.2081,4.44864
-672,-55,-35.0521,-3.89124,0,0,0,0,0,0,0,-1,552,1079,-35.0521,3.89119
-665,-55,-34.3518,-0.484863,0,0,0,0,0,0,0,-1,559,1079,-34.3518,0.484848
-658,-55,-34.5149,0.359375,0,0,0,0,0,0,0,-1,566,1079,-34.5149,-0.359332
-651,-55,-34.4971,1.59912,0,0,0,0,0,0,0,-1,573,1079,-34.4971,-1.59914
-644,-55,-34.4515,2.12598,0.0090189,0.0374156,0.00455821,0.0381293,0.00830516,1.41547,0.0231531,0.0241489,580,1079,-34.4515,-2.12592
-637,-55,-34.4625,2.354,0.00676369,0.0253933,0.00156598,0.025524,0.00663297,1.48752,0.0152923,0.0184735,587,1079,-34.4625,-2.35396
-630,-55,-34.4518,2.65845,0.00506511,0.0153137,-0.00060383,0.0153492,0.00502965,-1.51215,0.00903556,0.0198772,594,1079,-34.4518,-2.65842
-623,-55,-34.5825,2.97083,0.00369407,0.00844224,-0.00191253,0.00911677,0.00301955,-1.23173,0.00536261,0.0173835,601,1079,-34.5825,-2.97077
-616,-55,-34.6101,3.2135,0.00259989,0.00374995,-0.00270295,0.00593835,0.000411479,-0.890207,0.00382912,0.0163133,608,1079,-34.6101,-3.21344
-609,-55,-34.5561,3.51392,0.00230324,0.00167694,-0.00269434,0.00470256,-0.000722389,-0.727545,0.0034015,0.0168645,615,1079,-34.5561,-3.51396
-602,-55,-34.5066,3.76172,0.0018219,0.000405269,-0.00251772,0.00372905,-0.00150188,-0.648277,0.00310999,0.0147491,622,1079,-34.5066,-3.76167
-595,-55,-34.3934,4.04675,0.00168974,-0.000153138,-0.00255106,0.00348067,-0.00194407,-0.61209,0.00317359,0.0306366,629,1079,-34.3934,-4.04677
-588,-55,-34.4031,4.39429,0,0,0,0,0,0,0,-1,636,1079,-34.4031,-4.39429
-581,-55,-35.5659,1.18176,0,0,0,0,0,0,0,-1,643,1079,-35.5658,-1.18173
-574,-55,-35.622,1.29822,0.00208279,-0.000108233,-0.00206732,0.00332692,-0.00135237,-0.54175,0.00278061,0.039192,650,1079,-35.622,-1.29816
-567,-55,-35.6381,1.24683,0.00205218,0.000353487,-0.00178316,0.00317795,-0.000772278,-0.563138,0.00241753,0.0387351,657,1079,-35.6381,-1.24679
-560,-55,-35.7056,1.01257,0.00181369,0.00102204,-0.00135824,0.00283261,3.12086e-06,-0.643612,0.00188737,0.0435741,664,1079,-35.7056,-1.01258
-553,-55,-35.5828,0.820679,0.00138554,0.00179194,-0.000727776,0.00234435,0.000833126,-0.921537,0.00137225,0.0423939,671,1079,-35.5828,-0.82063
-546,-55,-35.5095,0.837402,0.00081876,0.00251824,0.000193147,0.00253992,0.000797086,1.45904,0.00149992,0.039052,678,1079,-35.5095,-0.837399
-539,-55,-35.6301,0.931885,0.000154124,0.00282575,0.0011746,0.00326872,-0.000288849,1.21016,0.00228154,0.043201,685,1079,-35.6301,-0.931832
-532,-55,-35.5072,1.11804,-0.00081849,0.00335993,0.00236402,0.00442563,-0.00188418,1.14728,0.00374017,0.0428586,692,1079,-35.5072,-1.11803
-525,-55,0,0,0,0,0,0,0,0,0,-1,699,1079,0,0
-518,-55,0,0,0,0,0,0,0,0,0,-1,706,1079,0,0
-511,-55,0,0,0,0,0,0,0,0,0,-1,713,1079,0,0
-504,-55,0,0,0,0,0,0,0,0,0,-1,720,1079,0,0
-497,-55,0,0,0,0,0,0,0,0,0,-1,727,1079,0,0
-490,-55,0,0,0,0,0,0,0,0,0,-1,734,1079,0,0
-483,-55,0,0,0,0,0,0,0,0,0,-1,741,1079,0,0
-476,-55,0,0,0,0,0,0,0,0,0,-1,748,1079,0,0
-469,-55,0,0,0,0,0,0,0,0,0,-1,755,1079,0,0
-462,-55,0,0,0,0,0,0,0,0,0,-1,762,1079,0,0
-455,-55,0,0,0,0,0,0,0,0,0,-1,769,1079,0,0
-448,-55,0,0,0,0,0,0,0,0,0,-1,776,1079,0,0
-441,-55,0,0,0,0,0,0,0,0,0,-1,783,1079,0,0
-434,-55,0,0,0,0,0,0,0,0,0,-1,790,1079,0,0
-427,-55,0,0,0,0,0,0,0,0,0,-1,797,1079,0,0
-420,-55,0,0,0,0,0,0,0,0,0,-1,804,1079,0,0
-413,-55,0,0,0,0,0,0,0,0,0,-1,811,1079,0,0
-406,-55,0,0,0,0,0,0,0,0,0,-1,818,1079,0,0
-399,-55,0,0,0,0,0,0,0,0,0,-1,825,1079,0,0
-392,-55,0,0,0,0,0,0,0,0,0,-1,832,1079,0,0
-385,-55,0,0,0,0,0,0,0,0,0,-1,839,1079,0,0
-378,-55,0,0,0,0,0,0,0,0,0,-1,846,1079,0,0
-371,-55,0,0,0,0,0,0,0,0,0,-1,853,1079,0,0
-364,-55,0,0,0,0,0,0,0,0,0,-1,860,1079,0,0
-357,-55,0,0,0,0,0,0,0,0,0,-1,867,1079,0,0
-350,-55,0,0,0,0,0,0,0,0,0,-1,874,1079,0,0
-343,-55,0,0,0,0,0,0,0,0,0,-1,881,1079,0,0
-336,-55,0,0,0,0,0,0,0,0,0,-1,888,1079,0,0
-329,-55,0,0,0,0,0,0,0,0,0,-1,895,1079,0,0
-322,-55,0,0,0,0,0,0,0,0,0,-1,902,1079,0,0
-315,-55,0,0,0,0,0,0,0,0,0,-1,909,1079,0,0
-308,-55,0,0,0,0,0,0,0,0,0,-1,916,1079,0,0
-301,-55,0,0,0,0,0,0,0,0,0,-1,923,1079,0,0
-294,-55,0,0,0,0,0,0,0,0,0,-1,930,1079,0,0
-287,-55,0,0,0,0,0,0,0,0,0,-1,937,1079,0,0
-280,-55,0,0,0,0,0,0,0,0,0,-1,944,1079,0,0
-273,-55,0,0,0,0,0,0,0,0,0,-1,951,1079,0,0
-266,-55,0,0,0,0,0,0,0,0,0,-1,958,1079,0,0
-259,-55,0,0,0,0,0,0,0,0,0,-1,965,1079,0,0
-252,-55,0,0,0,0,0,0,0,0,0,-1,972,1079,0,0
-245,-55,0,0,0,0,0,0,0,0,0,-1,979,1079,0,0
-238,-55,0,0,0,0,0,0,0,0,0,-1,986,1079,0,0
-231,-55,0,0,0,0,0,0,0,0,0,-1,993,1079,0,0
-224,-55,0,0,0,0,0,0,0,0,0,-1,1000,1079,0,0
-217,-55,0,0,0,0,0,0,0,0,0,-1,1007,1079,0,0
-210,-55,0,0,0,0,0,0,0,0,0,-1,1014,1079,0,0
-203,-55,0,0,0,0,0,0,0,0,0,-1,1021,1079,0,0
-196,-55,0,0,0,0,0,0,0,0,0,-1,1028,1079,0,0
-189,-55,0,0,0,0,0,0,0,0,0,-1,1035,1079,0,0
-182,-55,0,0,0,0,0,0,0,0,0,-1,1042,1079,0,0
-175,-55,0,0,0,0,0,0,0,0,0,-1,1049,1079,0,0
-168,-55,0,0,0,0,0,0,0,0,0,-1,1056,1079,0,0
-161,-55,0,0,0,0,0,0,0,0,0,-1,1063,1079,0,0
-154,-55,0,0,0,0,0,0,0,0,0,-1,1070,1079,0,0
-147,-55,0,0,0,0,0,0,0,0,0,-1,1077,1079,0,0
-140,-55,0,0,0,0,0,0,0,0,0,-1,1084,1079,0,0
-133,-55,0,0,0,0,0,0,0,0,0,-1,1091,1079,0,0
-126,-55,0,0,0,0,0,0,0,0,0,-1,1098,1079,0,0
-119,-55,0,0,0,0,0,0,0,0,0,-1,1105,1079,0,0
-112,-55,0,0,0,0,0,0,0,0,0,-1,1112,1079,0,0
-105,-55,0,0,0,0,0,0,0,0,0,-1,1119,1079,0,0
-98,-55,0,0,0,0,0,0,0,0,0,-1,1126,1079,0,0
-91,-55,0,0,0,0,0,0,0,0,0,-1,1133,1079,0,0
-84,-55,0,0,0,0,0,0,0,0,0,-1,1140,1079,0,0
-77,-55,0,0,0,0,0,0,0,0,0,-1,1147,1079,0,0
-70,-55,0,0,0,0,0,0,0,0,0,-1,1154,1079,0,0
-63,-55,0,0,0,0,0,0,0,0,0,-1,1161,1079,0,0
-56,-55,0,0,0,0,0,0,0,0,0,-1,1168,1079,0,0
-49,-55,0,0,0,0,0,0,0,0,0,-1,1175,1079,0,0
-42,-55,0,0,0,0,0,0,0,0,0,-1,1182,1079,0,0
-35,-55,0,0,0,0,0,0,0,0,0,-1,1189,1079,0,0
-28,-55,0,0,0,0,0,0,0,0,0,-1,1196,1079,0,0
-21,-55,0,0,0,0,0,0,0,0,0,-1,1203,1079,0,0
-14,-55,0,0,0,0,0,0,0,0,0,-1,1210,1079,0,0
-7,-55,0,0,0,0,0,0,0,0,0,-1,1217,1079,0,0
0,-55,0,0,0,0,0,0,0,0,0,-1,1224,1079,0,0
7,-55,0,0,0,0,0,0,0,0,0,-1,1231,1079,0,0
14,-55,0,0,0,0,0,0,0,0,0,-1,1238,1079,0,0
21,-55,0,0,0,0,0,0,0,0,0,-1,1245,1079,0,0
28,-55,0,0,0,0,0,0,0,0,0,-1,1252,1079,0,0
35,-55,0,0,0,0,0,0,0,0,0,-1,1259,1079,0,0
42,-55,0,0,0,0,0,0,0,0,0,-1,1266,1079,0,0
49,-55,0,0,0,0,0,0,0,0,0,-1,1273,1079,0,0
56,-55,0,0,0,0,0,0,0,0,0,-1,1280,1079,0,0
63,-55,0,0,0,0,0,0,0,0,0,-1,1287,1079,0,0
70,-55,0,0,0,0,0,0,0,0,0,-1,1294,1079,0,0
77,-55,0,0,0,0,0,0,0,0,0,-1,1301,1079,0,0
84,-55,0,0,0,0,0,0,0,0,0,-1,1308,1079,0,0
91,-55,0,0,0,0,0,0,0,0,0,-1,1315,1079,0,0
98,-55,0,0,0,0,0,0,0,0,0,-1,1322,1079,0,0
105,-55,0,0,0,0,0,0,0,0,0,-1,1329,1079,0,0
112,-55,0,0,0,0,0,0,0,0,0,-1,1336,1079,0,0
119,-55,0,0,0,0,0,0,0,0,0,-1,1343,1079,0,0
126,-55,0,0,0,0,0,0,0,0,0,-1,1350,1079,0,0
133,-55,0,0,0,0,0,0,0,0,0,-1,1357,1079,0,0
140,-55,0,0,0,0,0,0,0,0,0,-1,1364,1079,0,0
147,-55,0,0,0,0,0,0,0,0,0,-1,1371,1079,0,0
154,-55,0,0,0,0,0,0,0,0,0,-1,1378,1079,0,0
161,-55,0,0,0,0,0,0,0,0,0,-1,1385,1079,0,0
168,-55,0,0,0,0,0,0,0,0,0,-1,1392,1079,0,0
175,-55,0,0,0,0,0,0,0,0,0,-1,1399,1079,0,0
182,-55,0,0,0,0,0,0,0,0,0,-1,1406,1079,0,0
189,-55,0,0,0,0,0,0,0,0,0,-1,1413,1079,0,0
196,-55,0,0,0,0,0,0,0,0,0,-1,1420,1079,0,0
203,-55,0,0,0,0,0,0,0,0,0,-1,1427,1079,0,0
210,-55,0,0,0,0,0,0,0,0,0,-1,1434,1079,0,0
217,-55,0,0,0,0,0,0,0,0,0,-1,1441,1079,0,0
224,-55,0,0,0,0,0,0,0,0,0,-1,1448,1079,0,0
231,-55,0,0,0,0,0,0,0,0,0,-1,1455,1079,0,0
238,-55,0,0,0,0,0,0,0,0,0,-1,1462,1079,0,0
245,-55,0,0,0,0,0,0,0,0,0,-1,1469,1079,0,0
252,-55,0,0,0,0,0,0,0,0,0,-1,1476,1079,0,0
259,-55,0,0,0,0,0,0,0,0,0,-1,1483,1079,0,0
266,-55,0,0,0,0,0,0,0,0,0,-1,1490,1079,0,0
273,-55,0,0,0,0,0,0,0,0,0,-1,1497,1079,0,0
280,-55,0,0,0,0,0,0,0,0,0,-1,1504,1079,0,0
287,-55,0,0,0,0,0,0,0,0,0,-1,1511,1079,0,0
294,-55,0,0,0,0,0,0,0,0,0,-1,1518,1079,0,0
301,-55,0,0,0,0,0,0,0,0,0,-1,1525,1079,0,0
308,-55,0,0,0,0,0,0,0,0,0,-1,1532,1079,0,0
315,-55,0,0,0,0,0,0,0,0,0,-1,1539,1079,0,0
322,-55,0,0,0,0,0,0,0,0,0,-1,1546,1079,0,0
329,-55,0,0,0,0,0,0,0,0,0,-1,1553,1079,0,0
336,-55,0,0,0,0,0,0,0,0,0,-1,1560,1079,0,0
343,-55,0,0,0,0,0,0,0,0,0,-1,1567,1079,0,0
350,-55,0,0,0,0,0,0,0,0,0,-1,1574,1079,0,0
357,-55,0,0,0,0,0,0,0,0,0,-1,1581,1079,0,0
364,-55,0,0,0,0,0,0,0,0,0,-1,1588,1079,0,0
371,-55,0,0,0,0,0,0,0,0,0,-1,1595,1079,0,0
378,-55,0,0,0,0,0,0,0,0,0,-1,1602,1079,0,0
385,-55,0,0,0,0,0,0,0,0,0,-1,1609,1079,0,0
392,-55,0,0,0,0,0,0,0,0,0,-1,1616,1079,0,0
399,-55,0,0,0,0,0,0,0,0,0,-1,1623,1079,0,0
406,-55,0,0,0,0,0,0,0,0,0,-1,1630,1079,0,0
413,-55,0,0,0,0,0,0,0,0,0,-1,1637,1079,0,0
420,-55,0,0,0,0,0,0,0,0,0,-1,1644,1079,0,0
427,-55,0,0,0,0,0,0,0,0,0,-1,1651,1079,0,0
434,-55,0,0,0,0,0,0,0,0,0,-1,1658,1079,0,0
441,-55,0,0,0,0,0,0,0,0,0,-1,1665,1079,0,0
448,-55,0,0,0,0,0,0,0,0,0,-1,1672,1079,0,0
455,-55,0,0,0,0,0,0,0,0,0,-1,1679,1079,0,0
462,-55,0,0,0,0,0,0,0,0,0,-1,1686,1079,0,0
469,-55,0,0,0,0,0,0,0,0,0,-1,1693,1079,0,0
476,-55,0,0,0,0,0,0,0,0,0,-1,1700,1079,0,0
483,-55,0,0,0,0,0,0,0,0,0,-1,1707,1079,0,0
490,-55,0,0,0,0,0,0,0,0,0,-1,1714,1079,0,0
497,-55,0,0,0,0,0,0,0,0,0,-1,1721,1079,0,0
504,-55,0,0,0,0,0,0,0,0,0,-1,1728,1079,0,0
511,-55,0,0,0,0,0,0,0,0,0,-1,1735,1079,0,0
518,-55,0,0,0,0,0,0,0,0,0,-1,1742,1079,0,0
525,-55,0,0,0,0,0,0,0,0,0,-1,1749,1079,0,0
532,-55,0,0,0,0,0,0,0,0,0,-1,1756,1079,0,0
539,-55,0,0,0,0,0,0,0,0,0,-1,1763,1079,0,0
546,-55,0,0,0,0,0,0,0,0,0,-1,1770,1079,0,0
553,-55,0,0,0,0,0,0,0,0,0,-1,1777,1079,0,0
560,-55,0,0,0,0,0,0,0,0,0,-1,1784,1079,0,0
567,-55,0,0,0,0,0,0,0,0,0,-1,1791,1079,0,0
574,-55,0,0,0,0,0,0,0,0,0,-1,1798,1079,0,0
581,-55,0,0,0,0,0,0,0,0,0,-1,1805,1079,0,0
588,-55,0,0,0,0,0,0,0,0,0,-1,1812,1079,0,0
595,-55,0,0,0,0,0,0,0,0,0,-1,1819,1079,0,0
602,-55,0,0,0,0,0,0,0,0,0,-1,1826,1079,0,0
609,-55,0,0,0,0,0,0,0,0,0,-1,1833,1079,0,0
616,-55,0,0,0,0,0,0,0,0,0,-1,1840,1079,0,0
623,-55,0,0,0,0,0,0,0,0,0,-1,1847,1079,0,0
630,-55,0,0,0,0,0,0,0,0,0,-1,1854,1079,0,0
637,-55,0,0,0,0,0,0,0,0,0,-1,1861,1079,0,0
644,-55,0,0,0,0,0,0,0,0,0,-1,1868,1079,0,0
651,-55,47.8776,2.97534,0,0,0,0,0,0,0,-1,1875,1079,47.8775,-2.97528
658,-55,47.8405,2.81506,0.0010047,-0.000373352,0.00214918,0.00257261,-0.00194126,0.630275,0.00261457,0.0333316,1882,1079,47.8404,-2.81505
665,-55,47.7308,2.68652,0.0011449,-0.00030501,0.00136778,0.00196797,-0.00112808,0.54171,0.0018093,0.0368347,1889,1079,47.7308,-2.68654
672,-55,47.7295,2.71997,0.00124124,-0.000143751,0.00107397,0.00182662,-0.000729131,0.499043,0.00152024,0.0372111,1896,1079,47.7295,-2.71991
679,-55,47.8743,2.68372,0.00113507,4.16772e-05,0.00111032,0.00182599,-0.00064924,0.556633,0.00148193,0.0373063,1903,1079,47.8743,-2.68374
686,-55,47.8019,2.43677,0.000749464,-4.08501e-05,0.00139789,0.00180697,-0.00109836,0.647652,0.00169395,0.0403236,1910,1079,47.8018,-2.4368
693,-55,47.9379,2.48291,0.000387507,-0.000233895,0.00175709,0.00186115,-0.00170754,0.697889,0.00206102,0.0397643,1917,1079,47.9378,-2.48286
700,-55,47.9568,2.70508,7.66112e-05,-0.000360982,0.00207491,0.00194423,-0.0022286,0.732868,0.00241105,0.0352762,1924,1079,47.9568,-2.70507
707,-55,47.884,2.8064,-0.000334216,-0.000355802,0.00230179,0.00195681,-0.00264683,0.783054,0.00266784,0.0241814,1931,1079,47.884,-2.80634
714,-55,47.866,2.90112,-0.000813709,-0.000297895,0.00249006,0.00194758,-0.00305918,0.837001,0.00291431,0.0409229,1938,1079,47.866,-2.90117
721,-55,47.8938,3.14844,0,0,0,0,0,0,0,-1,1945,1079,47.8937,-3.14842
728,-55,46.6781,6.55518,0,0,0,0,0,0,0,-1,1952,1079,46.6781,-6.55514
735,-55,46.6061,6.31787,-0.00298212,0.00108215,0.00305531,0.00271941,-0.00461938,1.07886,0.00428412,0.0202964,1959,1079,46.6061,-6.31783
742,-55,46.5948,6.08533,-0.0037574,0.00188642,0.00318908,0.00332285,-0.00519383,1.14759,0.0049565,0.0197546,1966,1079,46.5949,-6.08531
749,-55,46.5996,5.85352,-0.00374614,0.00385854,0.0019502,0.00432949,-0.0042171,1.33384,0.00493452,0.0135278,1973,1079,46.5996,-5.85352
756,-55,46.5317,5.65027,-0.00289365,0.00604607,0.000374119,0.0060617,-0.00290928,1.52904,0.00528492,0.0115515,1980,1079,46.5318,-5.65025
763,-55,46.4829,5.46228,-0.00236798,0.00901781,-0.00147535,0.00920588,-0.00255605,-1.44401,0.00714336,0.0145496,1987,1079,46.4829,-5.4623
770,-55,46.4613,5.24109,-0.000930484,0.0131077,-0.00418971,0.014263,-0.00208582,-1.30173,0.0102748,0.0155985,1994,1079,46.4613,-5.24105
777,-55,46.3853,4.99915,0.00182698,0.0182807,-0.0080539,0.0215667,-0.00145905,-1.18341,0.014888,0.0130222,2001,1079,46.3853,-4.9992
784,-55,46.2649,4.76489,0.00546423,0.0237548,-0.0126965,0.0302568,-0.00103779,-1.09751,0.0205259,0.0289084,2008,1079,46.2648,-4.7649
791,-55,45.4153,4.94727,0.0101832,0.0295619,-0.0183506,0.0406242,-0.000879029,-1.0283,0.0273805,0.0397618,2015,1079,45.4153,-4.94722
798,-55,44.7341,5.29712,0.016513,0.0356874,-0.0253513,0.0532037,-0.00100338,-0.966173,0.0358083,0.0447317,2022,1079,44.734,-5.29717
805,-55,46.3408,3.75464,0.0246963,0.0419748,-0.0337368,0.0681609,-0.00148979,-0.910744,0.0459453,0.0487051,2029,1079,46.3407,-3.75464
812,-55,46.6904,3.39685,0,0,0,0,0,0,0,-1,2036,1079,46.6904,-3.39687
-700,-62,-32.3157,0.124878,0,0,0,0,0,0,0,-1,524,1086,-32.3157,-0.124858
-693,-62,-32.2346,0.128906,0,0,0,0,0,0,0,-1,531,1086,-32.2346,-0.128894
-686,-62,-31.8389,0.406006,0,0,0,0,0,0,0,-1,538,1086,-31.8389,-0.406057
-679,-62,-34.9254,-5.36426,0,0,0,0,0,0,0,-1,545,1086,-34.9253,5.36425
-672,-62,-33.6536,1.33606,0,0,0,0,0,0,0,-1,552,1086,-33.6536,-1.33606
-665,-62,-35.6855,1.70154,0,0,0,0,0,0,0,-1,559,1086,-35.6855,-1.7015
-658,-62,-35.1301,1.66687,0.0165852,0.0683292,0.0127144,0.0712846,0.0136298,1.34241,0.0436942,0.0480032,566,1086,-35.1301,-1.66689
-651,-62,-34.1852,1.55115,0.0132671,0.0505956,0.00783256,0.0521725,0.0116903,1.37213,0.0316138,0.0423662,573,1086,-34.1852,-1.55119
-644,-62,-34.1699,2.02979,0.0102713,0.0360855,0.00427018,0.0367736,0.00958322,1.41104,0.0220275,0.0160458,580,1086,-34.1699,-2.02984
-637,-62,-34.1904,2.34839,0.00766457,0.0239642,0.00150558,0.0241021,0.00752667,1.47946,0.0142385,0.0139909,587,1086,-34.1904,-2.3484
-630,-62,-34.235,2.65747,0.00565913,0.0140347,-0.000438345,0.0140576,0.00563625,-1.51865,0.00816906,0.015158,594,1086,-34.2351,-2.65742
-623,-62,-34.2902,2.98547,0.00410666,0.00750769,-0.00157413,0.00812442,0.00348992,-1.19738,0.00470613,0.0170165,601,1086,-34.2902,-2.98548
-616,-62,-34.2958,3.28845,0.00291686,0.00332524,-0.00218666,0.00531723,0.000924876,-0.831953,0.00328028,0.0168576,608,1086,-34.2958,-3.28844
-609,-62,-34.2612,3.53796,0.00252687,0.00150805,-0.00209884,0.00417723,-0.00014231,-0.666345,0.00283345,0.0165551,615,1086,-34.2612,-3.5379
-602,-62,-34.1798,3.81213,0.00199628,0.000360904,-0.00190229,0.00324918,-0.000891987,-0.582414,0.0025167,0.0156187,622,1086,-34.1798,-3.81215
-595,-62,-34.0384,4.13879,0.00183107,-0.000149138,-0.00199688,0.00306984,-0.0013879,-0.555247,0.00263403,0.0340438,629,1086,-34.0384,-4.13883
-588,-62,-33.993,4.47168,0,0,0,0,0,0,0,-1,636,1086,-33.9931,-4.47168
-581,-62,-35.5781,1.16052,0,0,0,0,0,0,0,-1,643,1086,-35.5781,-1.16052
-574,-62,-35.6196,1.24463,0.00213319,-0.00032652,-0.00162107,0.00293814,-0.00113147,-0.460885,0.00242554,0.037266,650,1086,-35.6196,-1.24469
-567,-62,-35.5997,1.06982,0.00210491,-1.53875e-05,-0.00142825,0.00282348,-0.00073395,-0.46613,0.00216877,0.0374084,657,1086,-35.5997,-1.06986
-560,-62,-35.6616,0.94458,0.00188238,0.000440908,-0.00113186,0.0025035,-0.000180209,-0.501889,0.0017322,0.0394757,664,1086,-35.6616,-0.944629
-553,-62,-35.5584,0.997681,0.00145542,0.00094036,-0.000673221,0.00191869,0.000477094,-0.602718,0.00115347,0.0380402,671,1086,-35.5584,-0.997659
-546,-62,-35.4866,0.942871,0.000947202,0.00133574,5.54727e-05,0.00134351,0.000939438,1.43172,0.000795937,0.0324901,678,1086,-35.4866,-0.942843
-539,-62,-35.5925,0.942139,0.000578624,0.00121522,0.000927,0.00187705,-8.32011e-05,0.950773,0.00128,0.0395188,685,1086,-35.5925,-0.942142
-532,-62,-35.7121,1.1062,-0.000219114,0.00129056,0.00218738,0.00284969,-0.00177824,0.951543,0.0026957,0.0441411,692,1086,-35.7121,-1.10618
-525,-62,0,0,0,0,0,0,0,0,0,-1,699,1086,0,0
-518,-62,0,0,0,0,0,0,0,0,0,-1,706,1086,0,0
-511,-62,0,0,0,0,0,0,0,0,0,-1,713,1086,0,0
-504,-62,0,0,0,0,0,0,0,0,0,-1,720,1086,0,0
-497,-62,0,0,0,0,0,0,0,0,0,-1,727,1086,0,0
-490,-62,0,0,0,0,0,0,0,0,0,-1,734,1086,0,0
-483,-62,0,0,0,0,0,0,0,0,0,-1,741,1086,0,0
-476,-62,0,0,0,0,0,0,0,0,0,-1,748,1086,0,0
-469,-62,0,0,0,0,0,0,0,0,0,-1,755,1086,0,0
-462,-62,0,0,0,0,0,0,0,0,0,-1,762,1086,0,0
-455,-62,0,0,0,0,0,0,0,0,0,-1,769,1086,0,0
-448,-62,0,0,0,0,0,0,0,0,0,-1,776,1086,0,0
-441,-62,0,0,0,0,0,0,0,0,0,-1,783,1086,0,0
-434,-62,0,0,0,0,0,0,0,0,0,-1,790,1086,0,0
-427,-62,0,0,0,0,0,0,0,0,0,-1,797,1086,0,0
-420,-62,0,0,0,0,0,0,0,0,0,-1,804,1086,0,0
-413,-62,0,0,0,0,0,0,0,0,0,-1,811,1086,0,0
-406,-62,0,0,0,0,0,0,0,0,0,-1,818,1086,0,0
-399,-62,0,0,0,0,0,0,0,0,0,-1,825,1086,0,0
-392,-62,0,0,0,0,0,0,0,0,0,-1,832,1086,0,0
-385,-62,0,0,0,0,0,0,0,0,0,-1,839,1086,0,0
-378,-62,0,0,0,0,0,0,0,0,0,-1,846,1086,0,0
-371,-62,0,0,0,0,0,0,0,0,0,-1,853,1086,0,0
-364,-62,0,0,0,0,0,0,0,0,0,-1,860,1086,0,0
-357,-62,0,0,0,0,0,0,0,0,0,-1,867,1086,0,0
-350,-62,0,0,0,0,0,0,0,0,0,-1,874,1086,0,0
-343,-62,0,0,0,0,0,0,0,0,0,-1,881,1086,0,0
-336,-62,0,0,0,0,0,0,0,0,0,-1,888,1086,0,0
-329,-62,0,0,0,0,0,0,0,0,0,-1,895,1086,0,0
-322,-62,0,0,0,0,0,0,0,0,0,-1,902,1086,0,0
-315,-62,0,0,0,0,0,0,0,0,0,-1,909,1086,0,0
-308,-62,0,0,0,0,0,0,0,0,0,-1,916,1086,0,0
-301,-62,0,0,0,0,0,0,0,0,0,-1,923,1086,0,0
-294,-62,0,0,0,0,0,0,0,0,0,-1,930,1086,0,0
-287,-62,0,0,0,0,0,0,0,0,0,-1,937,1086,0,0
-280,-62,0,0,0,0,0,0,0,0,0,-1,944,1086,0,0
-273,-62,0,0,0,0,0,0,0,0,0,-1,951,1086,0,0
-266,-62,0,0,0,0,0,0,0,0,0,-1,958,1086,0,0
-259,-62,0,0,0,0,0,0,0,0,0,-1,965,1086,0,0
-252,-62,0,0,0,0,0,0,0,0,0,-1,972,1086,0,0
-245,-62,0,0,0,0,0,0,0,0,0,-1,979,1086,0,0
-238,-62,0,0,0,0,0,0,0,0,0,-1,986,1086,0,0
-231,-62,0,0,0,0,0,0,0,0,0,-1,993,1086,0,0
-224,-62,0,0,0,0,0,0,0,0,0,-1,1000,1086,0,0
-217,-62,0,0,0,0,0,0,0,0,0,-1,1007,1086,0,0
-210,-62,0,0,0,0,0,0,0,0,0,-1,1014,1086,0,0
-203,-62,0,0,0,0,0,0,0,0,0,-1,1021,1086,0,0
-196,-62,0,0,0,0,0,0,0,0,0,-1,1028,1086,0,0
-189,-62,0,0,0,0,0,0,0,0,0,-1,1035,1086,0,0
-182,-62,0,0,0,0,0,0,0,0,0,-1,1042,1086,0,0
-175,-62,0,0,0,0,0,0,0,0,0,-1,1049,1086,0,0
-168,-62,0,0,0,0,0,0,0,0,0,-1,1056,1086,0,0
-161,-62,0,0,0,0,0,0,0,0,0,-1,1063,1086,0,0
-154,-62,0,0,0,0,0,0,0,0,0,-1,1070,1086,0,0
-147,-62,0,0,0,0,0,0,0,0,0,-1,1077,1086,0,0
-140,-62,0,0,0,0,0,0,0,0,0,-1,1084,1086,0,0
-133,-62,0,0,0,0,0,0,0,0,0,-1,1091,1086,0,0
-126,-62,0,0,0,0,0,0,0,0,0,-1,1098,1086,0,0
-119,-62,0,0,0,0,0,0,0,0,0,-1,1105,1086,0,0
-112,-62,0,0,0,0,0,0,0,0,0,-1,1112,1086,0,0
-105,-62,0,0,0,0,0,0,0,0,0,-1,1119,1086,0,0
-98,-62,0,0,0,0,0,0,0,0,0,-1,1126,1086,0,0
-91,-62,0,0,0,0,0,0,0,0,0,-1,1133,1086,0,0
-84,-62,0,0,0,0,0,0,0,0,0,-1,1140,1086,0,0
-77,-62,0,0,0,0,0,0,0,0,0,-1,1147,1086,0,0
-70,-62,0,0,0,0,0,0,0,0,0,-1,1154,1086,0,0
-63,-62,0,0,0,0,0,0,0,0,0,-1,1161,1086,0,0
-56,-62,0,0,0,0,0,0,0,0,0,-1,1168,1086,0,0
-49,-62,0,0,0,0,0,0,0,0,0,-1,1175,1086,0,0
-42,-62,0,0,0,0,0,0,0,0,0,-1,1182,1086,0,0
-35,-62,0,0,0,0,0,0,0,0,0,-1,1189,1086,0,0
-28,-62,0,0,0,0,0,0,0,0,0,-1,1196,1086,0,0
-21,-62,0,0,0,0,0,0,0,0,0,-1,1203,1086,0,0
-14,-62,0,0,0,0,0,0,0,0,0,-1,1210,1086,0,0
-7,-62,0,0,0,0,0,0,0,0,0,-1,1217,1086,0,0
0,-62,0,0,0,0,0,0,0,0,0,-1,1224,1086,0,0
7,-62,0,0,0,0,0,0,0,0,0,-1,1231,1086,0,0
14,-62,0,0,0,0,0,0,0,0,0,-1,1238,1086,0,0
21,-62,0,0,0,0,0,0,0,0,0,-1,1245,1086,0,0
28,-62,0,0,0,0,0,0,0,0,0,-1,1252,1086,0,0
35,-62,0,0,0,0,0,0,0,0,0,-1,1259,1086,0,0
42,-62,0,0,0,0,0,0,0,0,0,-1,1266,1086,0,0
49,-62,0,0,0,0,0,0,0,0,0,-1,1273,1086,0,0
56,-62,0,0,0,0,0,0,0,0,0,-1,1280,1086,0,0
63,-62,0,0,0,0,0,0,0,0,0,-1,1287,1086,0,0
70,-62,0,0,0,0,0,0,0,0,0,-1,1294,1086,0,0
77,-62,0,0,0,0,0,0,0,0,0,-1,1301,1086,0,0
84,-62,0,0,0,0,0,0,0,0,0,-1,1308,1086,0,0
91,-62,0,0,0,0,0,0,0,0,0,-1,1315,1086,0,0
98,-62,0,0,0,0,0,0,0,0,0,-1,1322,1086,0,0
105,-62,0,0,0,0,0,0,0,0,0,-1,1329,1086,0,0
112,-62,0,0,0,0,0,0,0,0,0,-1,1336,1086,0,0
119,-62,0,0,0,0,0,0,0,0,0,-1,1343,1086,0,0
126,-62,0,0,0,0,0,0,0,0,0,-1,1350,1086,0,0
133,-62,0,0,0,0,0,0,0,0,0,-1,1357,1086,0,0
140,-62,0,0,0,0,0,0,0,0,0,-1,1364,1086,0,0
147,-62,0,0,0,0,0,0,0,0,0,-1,1371,1086,0,0
154,-62,0,0,0,0,0,0,0,0,0,-1,1378,1086,0,0
161,-62,0,0,0,0,0,0,0,0,0,-1,1385,1086,0,0
168,-62,0,0,0,0,0,0,0,0,0,-1,1392,1086,0,0
175,-62,0,0,0,0,0,0,0,0,0,-1,1399,1086,0,0
182,-62,0,0,0,0,0,0,0,0,0,-1,1406,1086,0,0
189,-62,0,0,0,0,0,0,0,0,0,-1,1413,1086,0,0
196,-62,0,0,0,0,0,0,0,0,0,-1,1420,1086,0,0
203,-62,0,0,0,0,0,0,0,0,0,-1,1427,1086,0,0
210,-62,0,0,0,0,0,0,0,0,0,-1,1434,1086,0,0
217,-62,0,0,0,0,0,0,0,0,0,-1,1441,1086,0,0
224,-62,0,0,0,0,0,0,0,0,0,-1,1448,1086,0,0
231,-62,0,0,0,0,0,0,0,0,0,-1,1455,1086,0,0
238,-62,0,0,0,0,0,0,0,0,0,-1,1462,1086,0,0
245,-62,0,0,0,0,0,0,0,0,0,-1,1469,1086,0,0
252,-62,0,0,0,0,0,0,0,0,0,-1,1476,1086,0,0
259,-62,0,0,0,0,0,0,0,0,0,-1,1483,1086,0,0
266,-62,0,0,0,0,0,0,0,0,0,-1,1490,1086,0,0
273,-62,0,0,0,0,0,0,0,0,0,-1,1497,1086,0,0
280,-62,0,0,0,0,0,0,0,0,0,-1,1504,1086,0,0
287,-62,0,0,0,0,0,0,0,0,0,-1,1511,1086,0,0
294,-62,0,0,0,0,0,0,0,0,0,-1,1518,1086,0,0
301,-62,0,0,0,0,0,0,0,0,0,-1,1525,1086,0,0
308,-62,0,0,0,0,0,0,0,0,0,-1,1532,1086,0,0
315,-62,0,0,0,0,0,0,0,0,0,-1,1539,1086,0,0
322,-62,0,0,0,0,0,0,0,0,0,-1,1546,1086,0,0
329,-62,0,0,0,0,0,0,0,0,0,-1,1553,1086,0,0
336,-62,0,0,0,0,0,0,0,0,0,-1,1560,1086,0,0
343,-62,0,0,0,0,0,0,0,0,0,-1,1567,1086,0,0
350,-62,0,0,0,0,0,0,0,0,0,-1,1574,1086,0,0
357,-62,0,0,0,0,0,0,0,0,0,-1,1581,1086,0,0
364,-62,0,0,0,0,0,0,0,0,0,-1,1588,1086,0,0
371,-62,0,0,0,0,0,0,0,0,0,-1,1595,1086,0,0
378,-62,0,0,0,0,0,0,0,0,0,-1,1602,1086,0,0
385,-62,0,0,0,0,0,0,0,0,0,-1,1609,1086,0,0
392,-62,0,0,0,0,0,0,0,0,0,-1,1616,1086,0,0
399,-62,0,0,0,0,0,0,0,0,0,-1,1623,1086,0,0
406,-62,0,0,0,0,0,0,0,0,0,-1,1630,1086,0,0
413,-62,0,0,0,0,0,0,0,0,0,-1,1637,1086,0,0
420,-62,0,0,0,0,0,0,0,0,0,-1,1644,1086,0,0
427,-62,0,0,0,0,0,0,0,0,0,-1,1651,1086,0,0
434,-62,0,0,0,0,0,0,0,0,0,-1,1658,1086,0,0
441,-62,0,0,0,0,0,0,0,0,0,-1,1665,1086,0,0
448,-62,0,0,0,0,0,0,0,0,0,-1,1672,1086,0,0
455,-62,0,0,0,0,0,0,0,0,0,-1,1679,1086,0,0
462,-62,0,0,0,0,0,0,0,0,0,-1,1686,1086,0,0
469,-62,0,0,0,0,0,0,0,0,0,-1,1693,1086,0,0
476,-62,0,0,0,0,0,0,0,0,0,-1,1700,1086,0,0
483,-62,0,0,0,0,0,0,0,0,0,-1,1707,1086,0,0
490,-62,0,0,0,0,0,0,0,0,0,-1,1714,1086,0,0
497,-62,0,0,0,0,0,0,0,0,0,-1,1721,1086,0,0
504,-62,0,0,0,0,0,0,0,0,0,-1,1728,1086,0,0
511,-62,0,0,0,0,0,0,0,0,0,-1,1735,1086,0,0
518,-62,0,0,0,0,0,0,0,0,0,-1,1742,1086,0,0
525,-62,0,0,0,0,0,0,0,0,0,-1,1749,1086,0,0
532,-62,0,0,0,0,0,0,0,0,0,-1,1756,1086,0,0
539,-62,0,0,0,0,0,0,0,0,0,-1,1763,1086,0,0
546,-62,0,0,0,0,0,0,0,0,0,-1,1770,1086,0,0
553,-62,0,0,0,0,0,0,0,0,0,-1,1777,1086,0,0
560,-62,0,0,0,0,0,0,0,0,0,-1,1784,1086,0,0
567,-62,0,0,0,0,0,0,0,0,0,-1,1791,1086,0,0
574,-62,0,0,0,0,0,0,0,0,0,-1,1798,1086,0,0
581,-62,0,0,0,0,0,0,0,0,0,-1,1805,1086,0,0
588,-62,0,0,0,0,0,0,0,0,0,-1,1812,1086,0,0
595,-62,0,0,0,0,0,0,0,0,0,-1,1819,1086,0,0
602,-62,0,0,0,0,0,0,0,0,0,-1,1826,1086,0,0
609,-62,0,0,0,0,0,0,0,0,0,-1,1833,1086,0,0
616,-62,0,0,0,0,0,0,0,0,0,-1,1840,1086,0,0
623,-62,0,0,0,0,0,0,0,0,0,-1,1847,1086,0,0
630,-62,0,0,0,0,0,0,0,0,0,-1,1854,1086,0,0
637,-62,0,0,0,0,0,0,0,0,0,-1,1861,1086,0,0
644,-62,0,0,0,0,0,0,0,0,0,-1,1868,1086,0,0
651,-62,47.7339,2.66663,0.00232768,-0.00086348,0.00423655,0.00525915,-0.00379495,0.605302,0.00525012,0.0411853,1875,1086,47.7339,-2.66669
658,-62,47.8807,2.55835,0.00232422,-0.000768526,0.00246577,0.00368839,-0.00213271,0.505332,0.00340058,0.0392389,1882,1086,47.8807,-2.55838
665,-62,47.8058,2.65149,0.00215068,-0.000676945,0.00153346,0.00282262,-0.00134889,0.412986,0.00245801,0.036655,1889,1086,47.8058,-2.65145
672,-62,47.7643,2.80859,0.00198554,-0.000507661,0.00109605,0.00239887,-0.000920984,0.360611,0.00197901,0.0346028,1896,1086,47.7643,-2.80854
679,-62,47.8551,2.77478,0.0016287,-0.000340463,0.00102123,0.00206268,-0.000774442,0.401834,0.00169337,0.0356879,1903,1086,47.8551,-2.77477
686,-62,47.845,2.58752,0.0010859,-0.000410495,0.00125434,0.00179824,-0.00112283,0.516481,0.00170144,0.0378135,1910,1086,47.8449,-2.58758
693,-62,47.8608,2.47681,0.000638605,-0.000555812,0.00156742,0.00171874,-0.00163594,0.603382,0.00193702,0.0363054,1917,1086,47.8609,-2.47683
700,-62,47.9063,2.59558,0.000264045,-0.000629293,0.00185364,0.00172407,-0.00208932,0.667168,0.00220503,0.0311385,1924,1086,47.9062,-2.59555
707,-62,47.8683,2.74182,-0.000200164,-0.000588843,0.00208252,0.00169707,-0.00248607,0.738873,0.00242942,0.019958,1931,1086,47.8682,-2.74186
714,-62,47.8889,2.78235,-0.000713758,-0.000505972,0.00227619,0.00166869,-0.00288842,0.808204,0.00266228,0.0362233,1938,1086,47.8889,-2.78229
721,-62,47.9619,2.92358,0,0,0,0,0,0,0,-1,1945,1086,47.9619,-2.92358
728,-62,46.3975,6.64636,0,0,0,0,0,0,0,-1,1952,1086,46.3974,-6.64636
735,-62,46.3726,6.31091,-0.00282723,0.000840153,0.00295764,0.00248642,-0.00447349,1.06289,0.00407253,0.0251128,1959,1086,46.3725,-6.31092
742,-62,46.3275,6.10962,-0.0035333,0.0016631,0.00310467,0.00311331,-0.00498352,1.13381,0.00471609,0.0244626,1966,1086,46.3276,-6.10956
749,-62,46.2922,5.85474,-0.00346834,0.00374288,0.00186017,0.00419445,-0.0039199,1.33265,0.00468572,0.0191189,1973,1086,46.2922,-5.85468
756,-62,46.2081,5.69324,-0.00261002,0.0059681,0.000283933,0.00597749,-0.0026194,1.53774,0.00508807,0.0151487,1980,1086,46.2081,-5.6932
763,-62,46.2157,5.43896,-0.00199334,0.00895418,-0.00163276,0.0091925,-0.00223166,-1.42585,0.00699197,0.0166046,1987,1086,46.2157,-5.43894
770,-62,46.2098,5.16541,-0.000422511,0.0131463,-0.00447676,0.0144902,-0.00176642,-1.27916,0.0102996,0.0135172,1994,1086,46.2098,-5.16544
777,-62,46.09,4.89148,0.00238469,0.018398,-0.00845956,0.0220391,-0.00125644,-1.16435,0.0151289,0.014158,2001,1086,46.0899,-4.89142
784,-62,45.9812,4.62817,0.00604779,0.0239802,-0.0132541,0.031016,-0.000987983,-1.08278,0.0210144,0.0261386,2008,1086,45.9811,-4.62818
791,-62,45.188,4.9137,0.0107656,0.0299448,-0.0191463,0.0417688,-0.00105836,-1.01757,0.0282053,0.041108,2015,1086,45.188,-4.91371
798,-62,44.6833,5.71423,0.0170437,0.0362444,-0.0264661,0.0547976,-0.00150951,-0.959388,0.0370451,0.0430833,2022,1086,44.6833,-5.71425
805,-62,46.3518,4.19067,0.025074,0.0426371,-0.0352559,0.0701887,-0.00247756,-0.907455,0.0476398,0.0469838,2029,1086,46.3519,-4.19067
812,-62,46.5938,2.38342,0.0345715,0.0485465,-0.0454449,0.087538,-0.00442001,-0.861679,0.0598864,0.0463555,2036,1086,46.5938,-2.38343
-700,-69,-31.0479,-0.968994,0,0,0,0,0,0,0,-1,524,1093,-31.0479,0.96894
-693,-69,-31.2407,-0.653809,0,0,0,0,0,0,0,-1,531,1093,-31.2407,0.653825
-686,-69,-31.5741,-0.104736,0,0,0,0,0,0,0,-1,538,1093,-31.5741,0.104763
-679,-69,-32.2767,0.518677,0,0,0,0,0,0,0,-1,545,1093,-32.2767,-0.518683
-672,-69,-36.0912,0.845581,0,0,0,0,0,0,0,-1,552,1093,-36.0912,-0.845575
-665,-69,-35.4774,1.05383,0,0,0,0,0,0,0,-1,559,1093,-35.4774,-1.05379
-658,-69,-34.6147,1.52173,0.0186062,0.0642852,0.0113853,0.0669656,0.0159258,1.33958,0.0403955,0.046428,566,1093,-34.6147,-1.52172
-651,-69,-33.8459,1.76147,0.0146166,0.0466067,0.00676061,0.0479768,0.0132465,1.37085,0.0286102,0.0369689,573,1093,-33.8459,-1.76153
-644,-69,-33.8315,2.00793,0.011097,0.0326131,0.00352985,0.0331774,0.0105327,1.41227,0.0195758,0.0116725,580,1093,-33.8315,-2.00795
-637,-69,-33.8576,2.34216,0.00819411,0.0211627,0.00107763,0.0212516,0.00810517,1.48845,0.0123842,0.0131985,587,1093,-33.8576,-2.34221
-630,-69,-33.8776,2.63135,0.00594582,0.0120543,-0.000592967,0.0121114,0.00588879,-1.47492,0.00699338,0.0161758,594,1093,-33.8776,-2.6313
-623,-69,-33.8574,2.95837,0.00426893,0.00624888,-0.00155513,0.0071024,0.00341541,-1.06884,0.00410157,0.0173438,601,1093,-33.8574,-2.95842
-616,-69,-33.8887,3.2467,0.00304167,0.00277287,-0.0020084,0.00492016,0.000894381,-0.751988,0.00302636,0.0194555,608,1093,-33.8887,-3.24674
-609,-69,-33.8978,3.50806,0.00260395,0.0012633,-0.00184888,0.00390027,-3.30218e-05,-0.611491,0.00261126,0.0166042,615,1093,-33.8978,-3.5081
-602,-69,-33.8525,3.8623,0.00209851,0.000241532,-0.00163994,0.00305456,-0.000714518,-0.527811,0.00231165,0.0178019,622,1093,-33.8525,-3.86231
-595,-69,-33.7465,4.14355,0.00194453,-0.000187286,-0.0017596,0.00293589,-0.00117865,-0.513074,0.00244668,0.0333241,629,1093,-33.7465,-4.14352
-588,-69,-33.7302,4.41821,0,0,0,0,0,0,0,-1,636,1093,-33.7301,-4.41823
-581,-69,-35.5499,1.07251,0,0,0,0,0,0,0,-1,643,1093,-35.5499,-1.0725
-574,-69,-35.582,1.0293,0.00215228,-0.000499608,-0.00140082,0.00275518,-0.0011025,-0.406425,0.00229435,0.0328495,650,1093,-35.582,-1.02931
-567,-69,-35.5188,0.904175,0.00211347,-0.000308496,-0.00124012,0.0026358,-0.000830827,-0.398642,0.00208994,0.035886,657,1093,-35.5188,-0.90412
-560,-69,-35.5716,0.884766,0.00189197,-1.15757e-05,-0.000996737,0.00231837,-0.000437974,-0.404235,0.00171037,0.0367097,664,1093,-35.5716,-0.884741
-553,-69,-35.4982,1.02124,0.00142159,0.00029391,-0.000637388,0.00170874,6.76361e-06,-0.423274,0.00113691,0.0362323,671,1093,-35.4982,-1.02125
-546,-69,-35.4984,0.980957,0.000895672,0.000469552,-4.55571e-05,0.000900488,0.000464736,-0.105325,0.000519987,0.0337003,678,1093,-35.4984,-0.980924
-539,-69,-35.5256,0.929932,0.00068058,0.000105012,0.000732509,0.00117981,-0.000394216,0.598224,0.00094574,0.0388014,685,1093,-35.5257,-0.929991
-532,-69,-35.4927,0.944946,2.99443e-05,-9.30423e-05,0.00184021,0.00180968,-0.00187278,0.768696,0.00212618,0.0428359,692,1093,-35.4927,-0.944926
-525,-69,0,0,0,0,0,0,0,0,0,-1,699,1093,0,0
-518,-69,0,0,0,0,0,0,0,0,0,-1,706,1093,0,0
-511,-69,0,0,0,0,0,0,0,0,0,-1,713,1093,0,0
-504,-69,0,0,0,0,0,0,0,0,0,-1,720,1093,0,0
-497,-69,0,0,0,0,0,0,0,0,0,-1,727,1093,0,0
-490,-69,0,0,0,0,0,0,0,0,0,-1,734,1093,0,0
-483,-69,0,0,0,0,0,0,0,0,0,-1,741,1093,0,0
-476,-69,0,0,0,0,0,0,0,0,0,-1,748,1093,0,0
-469,-69,0,0,0,0,0,0,0,0,0,-1,755,1093,0,0
-462,-69,0,0,0,0,0,0,0,0,0,-1,762,1093,0,0
-455,-69,0,0,0,0,0,0,0,0,0,-1,769,1093,0,0
-448,-69,0,0,0,0,0,0,0,0,0,-1,776,1093,0,0
-441,-69,0,0,0,0,0,0,0,0,0,-1,783,1093,0,0
-434,-69,0,0,0,0,0,0,0,0,0,-1,790,1093,0,0
-427,-69,0,0,0,0,0,0,0,0,0,-1,797,1093,0,0
-420,-69,0,0,0,0,0,0,0,0,0,-1,804,1093,0,0
-413,-69,0,0,0,0,0,0,0,0,0,-1,811,1093,0,0
-406,-69,0,0,0,0,0,0,0,0,0,-1,818,1093,0,0
-399,-69,0,0,0,0,0,0,0,0,0,-1,825,1093,0,0
-392,-69,0,0,0,0,0,0,0,0,0,-1,832,1093,0,0
-385,-69,0,0,0,0,0,0,0,0,0,-1,839,1093,0,0
-378,-69,0,0,0,0,0,0,0,0,0,-1,846,1093,0,0
-371,-69,0,0,0,0,0,0,0,0,0,-1,853,1093,0,0
-364,-69,0,0,0,0,0,0,0,0,0,-1,860,1093,0,0
-357,-69,0,0,0,0,0,0,0,0,0,-1,867,1093,0,0
-350,-69,0,0,0,0,0,0,0,0,0,-1,874,1093,0,0
-343,-69,0,0,0,0,0,0,0,0,0,-1,881,1093,0,0
-336,-69,0,0,0,0,0,0,0,0,0,-1,888,1093,0,0
-329,-69,0,0,0,0,0,0,0,0,0,-1,895,1093,0,0
-322,-69,0,0,0,0,0,0,0,0,0,-1,902,1093,0,0
-315,-69,0,0,0,0,0,0,0,0,0,-1,909,1093,0,0
-308,-69,0,0,0,0,0,0,0,0,0,-1,916,1093,0,0
-301,-69,0,0,0,0,0,0,0,0,0,-1,923,1093,0,0
-294,-69,0,0,0,0,0,0,0,0,0,-1,930,1093,0,0
-287,-69,0,0,0,0,0,0,0,0,0,-1,937,1093,0,0
-280,-69,0,0,0,0,0,0,0,0,0,-1,944,1093,0,0
-273,-69,0,0,0,0,0,0,0,0,0,-1,951,1093,0,0
-266,-69,0,0,0,0,0,0,0,0,0,-1,958,1093,0,0
-259,-69,0,0,0,0,0,0,0,0,0,-1,965,1093,0,0
-252,-69,0,0,0,0,0,0,0,0,0,-1,972,1093,0,0
-245,-69,0,0,0,0,0,0,0,0,0,-1,979,1093,0,0
-238,-69,0,0,0,0,0,0,0,0,0,-1,986,1093,0,0
-231,-69,0,0,0,0,0,0,0,0,0,-1,993,1093,0,0
-224,-69,0,0,0,0,0,0,0,0,0,-1,1000,1093,0,0
-217,-69,0,0,0,0,0,0,0,0,0,-1,1007,1093,0,0
-210,-69,0,0,0,0,0,0,0,0,0,-1,1014,1093,0,0
-203,-69,0,0,0,0,0,0,0,0,0,-1,1021,1093,0,0
-196,-69,0,0,0,0,0,0,0,0,0,-1,1028,1093,0,0
-189,-69,0,0,0,0,0,0,0,0,0,-1,1035,1093,0,0
-182,-69,0,0,0,0,0,0,0,0,0,-1,1042,1093,0,0
-175,-69,0,0,0,0,0,0,0,0,0,-1,1049,1093,0,0
-168,-69,0,0,0,0,0,0,0,0,0,-1,1056,1093,0,0
-161,-69,0,0,0,0,0,0,0,0,0,-1,1063,1093,0,0
-154,-69,0,0,0,0,0,0,0,0,0,-1,1070,1093,0,0
-147,-69,0,0,0,0,0,0,0,0,0,-1,1077,1093,0,0
-140,-69,0,0,0,0,0,0,0,0,0,-1,1084,1093,0,0
-133,-69,0,0,0,0,0,0,0,0,0,-1,1091,1093,0,0
-126,-69,0,0,0,0,0,0,0,0,0,-1,1098,1093,0,0
-119,-69,0,0,0,0,0,0,0,0,0,-1,1105,1093,0,0
-112,-69,0,0,0,0,0,0,0,0,0,-1,1112,1093,0,0
-105,-69,0,0,0,0,0,0,0,0,0,-1,1119,1093,0,0
-98,-69,0,0,0,0,0,0,0,0,0,-1,1126,1093,0,0
-91,-69,0,0,0,0,0,0,0,0,0,-1,1133,1093,0,0
-84,-69,0,0,0,0,0,0,0,0,0,-1,1140,1093,0,0
-77,-69,0,0,0,0,0,0,0,0,0,-1,1147,1093,0,0
-70,-69,0,0,0,0,0,0,0,0,0,-1,1154,1093,0,0
-63,-69,0,0,0,0,0,0,0,0,0,-1,1161,1093,0,0
-56,-69,0,0,0,0,0,0,0,0,0,-1,1168,1093,0,0
-49,-69,0,0,0,0,0,0,0,0,0,-1,1175,1093,0,0
-42,-69,0,0,0,0,0,0,0,0,0,-1,1182,1093,0,0
-35,-69,0,0,0,0,0,0,0,0,0,-1,1189,1093,0,0
-28,-69,0,0,0,0,0,0,0,0,0,-1,1196,1093,0,0
-21,-69,0,0,0,0,0,0,0,0,0,-1,1203,1093,0,0
-14,-69,0,0,0,0,0,0,0,0,0,-1,1210,1093,0,0
-7,-69,0,0,0,0,0,0,0,0,0,-1,1217,1093,0,0
0,-69,0,0,0,0,0,0,0,0,0,-1,1224,1093,0,0
7,-69,0,0,0,0,0,0,0,0,0,-1,1231,1093,0,0
14,-69,0,0,0,0,0,0,0,0,0,-1,1238,1093,0,0
21,-69,0,0,0,0,0,0,0,0,0,-1,1245,1093,0,0
28,-69,0,0,0,0,0,0,0,0,0,-1,1252,1093,0,0
35,-69,0,0,0,0,0,0,0,0,0,-1,1259,1093,0,0
42,-69,0,0,0,0,0,0,0,0,0,-1,1266,1093,0,0
49,-69,0,0,0,0,0,0,0,0,0,-1,1273,1093,0,0
56,-69,0,0,0,0,0,0,0,0,0,-1,1280,1093,0,0
63,-69,0,0,0,0,0,0,0,0,0,-1,1287,1093,0,0
70,-69,0,0,0,0,0,0,0,0,0,-1,1294,1093,0,0
77,-69,0,0,0,0,0,0,0,0,0,-1,1301,1093,0,0
84,-69,0,0,0,0,0,0,0,0,0,-1,1308,1093,0,0
91,-69,0,0,0,0,0,0,0,0,0,-1,1315,1093,0,0
98,-69,0,0,0,0,0,0,0,0,0,-1,1322,1093,0,0
105,-69,0,0,0,0,0,0,0,0,0,-1,1329,1093,0,0
112,-69,0,0,0,0,0,0,0,0,0,-1,1336,1093,0,0
119,-69,0,0,0,0,0,0,0,0,0,-1,1343,1093,0,0
126,-69,0,0,0,0,0,0,0,0,0,-1,1350,1093,0,0
133,-69,0,0,0,0,0,0,0,0,0,-1,1357,1093,0,0
140,-69,0,0,0,0,0,0,0,0,0,-1,1364,1093,0,0
147,-69,0,0,0,0,0,0,0,0,0,-1,1371,1093,0,0
154,-69,0,0,0,0,0,0,0,0,0,-1,1378,1093,0,0
161,-69,0,0,0,0,0,0,0,0,0,-1,1385,1093,0,0
168,-69,0,0,0,0,0,0,0,0,0,-1,1392,1093,0,0
175,-69,0,0,0,0,0,0,0,0,0,-1,1399,1093,0,0
182,-69,0,0,0,0,0,0,0,0,0,-1,1406,1093,0,0
189,-69,0,0,0,0,0,0,0,0,0,-1,1413,1093,0,0
196,-69,0,0,0,0,0,0,0,0,0,-1,1420,1093,0,0
203,-69,0,0,0,0,0,0,0,0,0,-1,1427,1093,0,0
210,-69,0,0,0,0,0,0,0,0,0,-1,1434,1093,0,0
217,-69,0,0,0,0,0,0,0,0,0,-1,1441,1093,0,0
224,-69,0,0,0,0,0,0,0,0,0,-1,1448,1093,0,0
231,-69,0,0,0,0,0,0,0,0,0,-1,1455,1093,0,0
238,-69,0,0,0,0,0,0,0,0,0,-1,1462,1093,0,0
245,-69,0,0,0,0,0,0,0,0,0,-1,1469,1093,0,0
252,-69,0,0,0,0,0,0,0,0,0,-1,1476,1093,0,0
259,-69,0,0,0,0,0,0,0,0,0,-1,1483,1093,0,0
266,-69,0,0,0,0,0,0,0,0,0,-1,1490,1093,0,0
273,-69,0,0,0,0,0,0,0,0,0,-1,1497,1093,0,0
280,-69,0,0,0,0,0,0,0,0,0,-1,1504,1093,0,0
287,-69,0,0,0,0,0,0,0,0,0,-1,1511,1093,0,0
294,-69,0,0,0,0,0,0,0,0,0,-1,1518,1093,0,0
301,-69,0,0,0,0,0,0,0,0,0,-1,1525,1093,0,0
308,-69,0,0,0,0,0,0,0,0,0,-1,1532,1093,0,0
315,-69,0,0,0,0,0,0,0,0,0,-1,1539,1093,0,0
322,-69,0,0,0,0,0,0,0,0,0,-1,1546,1093,0,0
329,-69,0,0,0,0,0,0,0,0,0,-1,1553,1093,0,0
336,-69,0,0,0,0,0,0,0,0,0,-1,1560,1093,0,0
343,-69,0,0,0,0,0,0,0,0,0,-1,1567,1093,0,0
350,-69,0,0,0,0,0,0,0,0,0,-1,1574,1093,0,0
357,-69,0,0,0,0,0,0,0,0,0,-1,1581,1093,0,0
364,-69,0,0,0,0,0,0,0,0,0,-1,1588,1093,0,0
371,-69,0,0,0,0,0,0,0,0,0,-1,1595,1093,0,0
378,-69,0,0,0,0,0,0,0,0,0,-1,1602,1093,0,0
385,-69,0,0,0,0,0,0,0,0,0,-1,1609,1093,0,0
392,-69,0,0,0,0,0,0,0,0,0,-1,1616,1093,0,0
399,-69,0,0,0,0,0,0,0,0,0,-1,1623,1093,0,0
406,-69,0,0,0,0,0,0,0,0,0,-1,1630,1093,0,0
413,-69,0,0,0,0,0,0,0,0,0,-1,1637,1093,0,0
420,-69,0,0,0,0,0,0,0,0,0,-1,1644,1093,0,0
427,-69,0,0,0,0,0,0,0,0,0,-1,1651,1093,0,0
434,-69,0,0,0,0,0,0,0,0,0,-1,1658,1093,0,0
441,-69,0,0,0,0,0,0,0,0,0,-1,1665,1093,0,0
448,-69,0,0,0,0,0,0,0,0,0,-1,1672,1093,0,0
455,-69,0,0,0,0,0,0,0,0,0,-1,1679,1093,0,0
462,-69,0,0,0,0,0,0,0,0,0,-1,1686,1093,0,0
469,-69,0,0,0,0,0,0,0,0,0,-1,1693,1093,0,0
476,-69,0,0,0,0,0,0,0,0,0,-1,1700,1093,0,0
483,-69,0,0,0,0,0,0,0,0,0,-1,1707,1093,0,0
490,-69,0,0,0,0,0,0,0,0,0,-1,1714,1093,0,0
497,-69,0,0,0,0,0,0,0,0,0,-1,1721,1093,0,0
504,-69,0,0,0,0,0,0,0,0,0,-1,1728,1093,0,0
511,-69,0,0,0,0,0,0,0,0,0,-1,1735,1093,0,0
518,-69,0,0,0,0,0,0,0,0,0,-1,1742,1093,0,0
525,-69,0,0,0,0,0,0,0,0,0,-1,1749,1093,0,0
532,-69,0,0,0,0,0,0,0,0,0,-1,1756,1093,0,0
539,-69,0,0,0,0,0,0,0,0,0,-1,1763,1093,0,0
546,-69,0,0,0,0,0,0,0,0,0,-1,1770,1093,0,0
553,-69,0,0,0,0,0,0,0,0,0,-1,1777,1093,0,0
560,-69,0,0,0,0,0,0,0,0,0,-1,1784,1093,0,0
567,-69,0,0,0,0,0,0,0,0,0,-1,1791,1093,0,0
574,-69,0,0,0,0,0,0,0,0,0,-1,1798,1093,0,0
581,-69,0,0,0,0,0,0,0,0,0,-1,1805,1093,0,0
588,-69,0,0,0,0,0,0,0,0,0,-1,1812,1093,0,0
595,-69,0,0,0,0,0,0,0,0,0,-1,1819,1093,0,0
602,-69,0,0,0,0,0,0,0,0,0,-1,1826,1093,0,0
609,-69,0,0,0,0,0,0,0,0,0,-1,1833,1093,0,0
616,-69,0,0,0,0,0,0,0,0,0,-1,1840,1093,0,0
623,-69,0,0,0,0,0,0,0,0,0,-1,1847,1093,0,0
630,-69,0,0,0,0,0,0,0,0,0,-1,1854,1093,0,0
637,-69,0,0,0,0,0,0,0,0,0,-1,1861,1093,0,0
644,-69,0,0,0,0,0,0,0,0,0,-1,1868,1093,0,0
651,-69,47.65,2.72217,0.0041789,-0.00138939,0.00377915,0.00608873,-0.00329922,0.467927,0.00549931,0.041365,1875,1093,47.6501,-2.7222
658,-69,47.795,2.6178,0.00377035,-0.00131606,0.00219892,0.00458916,-0.00213487,0.356462,0.00396738,0.0429781,1882,1093,47.7951,-2.61777
665,-69,47.8347,2.63464,0.00328643,-0.001239,0.00133131,0.00364903,-0.0016016,0.265911,0.00310732,0.0413929,1889,1093,47.8347,-2.63466
672,-69,47.6133,2.83594,0.00285291,-0.00108667,0.000884924,0.00304255,-0.00127632,0.211114,0.00256206,0.0360899,1896,1093,47.6133,-2.83599
679,-69,47.7908,2.78748,0.00225139,-0.000944254,0.000776826,0.00243022,-0.00112308,0.226264,0.00209726,0.0353453,1903,1093,47.7908,-2.78745
686,-69,47.938,2.64355,0.00158971,-0.000994686,0.000973778,0.00191554,-0.00132052,0.322895,0.00187884,0.0360988,1910,1093,47.938,-2.64358
693,-69,47.8903,2.55212,0.00108859,-0.00108663,0.00124607,0.00165494,-0.00165298,0.426599,0.00190983,0.0340128,1917,1093,47.8903,-2.55212
700,-69,47.8378,2.57996,0.000668452,-0.0011018,0.00151006,0.00153368,-0.00196703,0.520311,0.00202629,0.0278595,1924,1093,47.8378,-2.5799
707,-69,47.8342,2.70215,0.000168657,-0.00101081,0.00174185,0.00141789,-0.00226005,0.622171,0.00214194,0.0192711,1931,1093,47.8342,-2.70219
714,-69,47.885,2.72632,-0.000385274,-0.000886594,0.00192933,0.00130961,-0.00258148,0.7208,0.00228618,0.0281461,1938,1093,47.885,-2.72629
721,-69,47.9395,2.79382,0,0,0,0,0,0,0,-1,1945,1093,47.9395,-2.79386
728,-69,45.7698,6.76343,0,0,0,0,0,0,0,-1,1952,1093,45.7697,-6.76348
735,-69,46.0441,6.43384,-0.00244157,0.00051074,0.00268565,0.00209918,-0.00403001,1.03668,0.00359674,0.0342402,1959,1093,46.044,-6.43389
742,-69,46.0168,6.20837,-0.00309919,0.0013557,0.00284314,0.00274003,-0.00448352,1.11768,0.00421082,0.0262137,1966,1093,46.0168,-6.20837
749,-69,45.8492,5.90369,-0.00311973,0.00349068,0.00167912,0.00389274,-0.00352179,1.33577,0.00428257,0.0274635,1973,1093,45.8493,-5.90371
756,-69,45.9111,5.67395,-0.00245571,0.00574074,0.000204549,0.00574584,-0.00246081,1.54586,0.004863,0.0173771,1980,1093,45.9111,-5.67395
763,-69,45.9188,5.38135,-0.00194568,0.00873503,-0.0016712,0.00899041,-0.00220107,-1.41915,0.00684627,0.0173144,1987,1093,45.9188,-5.38137
770,-69,45.8619,5.15051,-0.000599642,0.0129639,-0.00444822,0.0142925,-0.0019283,-1.28054,0.0102319,0.0178691,1994,1093,45.8619,-5.15048
777,-69,45.7572,4.93506,0.00172535,0.0181555,-0.00824281,0.0215779,-0.00169708,-1.17725,0.014983,0.0230343,2001,1093,45.7571,-4.93511
784,-69,45.7229,4.64856,0.00478509,0.0236888,-0.0128173,0.0301624,-0.00168853,-1.1031,0.0206941,0.0331895,2008,1093,45.7229,-4.64856
791,-69,45.8521,4.38818,0.0087414,0.0296266,-0.0184697,0.0404014,-0.0020334,-1.04269,0.027637,0.0455593,2015,1093,45.852,-4.38814
798,-69,46.8101,3.13733,0.0140122,0.0358757,-0.0254808,0.0526708,-0.00278283,-0.988033,0.0360772,0.0451713,2022,1093,46.81,-3.13737
805,-69,46.2781,2.5199,0.0207035,0.0421296,-0.0338745,0.0669447,-0.00411164,-0.93855,0.0460616,0.0455966,2029,1093,46.278,-2.51989
812,-69,45.8789,2.30725,0.0285103,0.0477733,-0.0435694,0.0827631,-0.00647946,-0.894179,0.0574571,0.0452987,2036,1093,45.879,-2.30731
-700,-76,0,0,0,0,0,0,0,0,0,-1,524,1100,0,0
-693,-76,-30.3437,-1.7561,0,0,0,0,0,0,0,-1,531,1100,-30.3437,1.75612
-686,-76,-31.4772,-0.383911,0,0,0,0,0,0,0,-1,538,1100,-31.4772,0.383887
-679,-76,-34.5658,0.793091,0,0,0,0,0,0,0,-1,545,1100,-34.5658,-0.793139
-672,-76,-34.2089,1.25916,0,0,0,0,0,0,0,-1,552,1100,-34.2088,-1.2592
-665,-76,-34.1941,0.997681,0,0,0,0,0,0,0,-1,559,1100,-34.1941,-0.997623
-658,-76,-33.8345,1.30981,0.0198792,0.0581102,0.0104905,0.0607996,0.0171898,1.31984,0.0361905,0.0484624,566,1100,-33.8345,-1.30977
-651,-76,-33.4229,1.65149,0.0153599,0.0412516,0.00614313,0.0426352,0.0139763,1.34927,0.0250973,0.0317247,573,1100,-33.4229,-1.65143
-644,-76,-33.4329,1.98047,0.011437,0.0283553,0.00318413,0.0289348,0.0108576,1.39079,0.0168779,0.0115295,580,1100,-33.4329,-1.98049
-637,-76,-33.4908,2.29614,0.00836434,0.0180533,0.000972212,0.0181499,0.00826775,1.47177,0.0104927,0.0140119,587,1100,-33.4908,-2.29614
-630,-76,-33.5151,2.59814,0.00597186,0.0100736,-0.000501326,0.010134,0.00591147,-1.45092,0.00587789,0.0162009,594,1100,-33.5151,-2.5981
-623,-76,-33.5212,2.91418,0.00422708,0.00511857,-0.00136565,0.00610938,0.00323626,-0.943146,0.00352933,0.0178388,601,1100,-33.5212,-2.91417
-616,-76,-33.5765,3.25464,0.00298707,0.00231959,-0.00169251,0.00437843,0.000928227,-0.688053,0.00266401,0.0170388,608,1100,-33.5765,-3.2546
-609,-76,-33.5726,3.57349,0.00250116,0.00107686,-0.00147659,0.00342836,0.000149658,-0.560708,0.00223736,0.0171064,615,1100,-33.5726,-3.57353
-602,-76,-33.5195,3.89368,0.00205524,0.00018331,-0.00127048,0.0026973,-0.00045875,-0.467931,0.00196901,0.0187635,622,1100,-33.5195,-3.89369
-595,-76,-33.4666,4.15698,0.00192751,-0.000175538,-0.00139708,0.00262457,-0.0008726,-0.462799,0.00210185,0.0295802,629,1100,-33.4666,-4.15698
-588,-76,-33.4344,4.40991,0,0,0,0,0,0,0,-1,636,1100,-33.4345,-4.40988
-581,-76,-35.4561,0.91394,0,0,0,0,0,0,0,-1,643,1100,-35.4561,-0.91391
-574,-76,-35.5321,0.74646,0.00205504,-0.000570003,-0.000941207,0.00235763,-0.000872592,-0.311054,0.00192955,0.0362017,650,1100,-35.5321,-0.746441
-567,-76,-35.6199,0.66333,0.00201678,-0.000452519,-0.000776661,0.00224074,-0.000676487,-0.280755,0.00176313,0.0409732,657,1100,-35.6199,-0.663353
-560,-76,-35.6793,0.918701,0.00182454,-0.000238772,-0.000547525,0.00196083,-0.000375062,-0.243962,0.00144852,0.0407452,664,1100,-35.6793,-0.918673
-553,-76,-35.6102,1.28308,0.00134421,-1.40077e-05,-0.000247066,0.00138776,-5.75538e-05,-0.174462,0.00094494,0.0420839,671,1100,-35.6101,-1.28306
-546,-76,-35.5073,1.04419,0.000820646,0.000106322,0.000245036,0.000896621,3.03474e-05,0.300655,0.000587892,0.0419921,678,1100,-35.5073,-1.04413
-539,-76,-35.4923,0.886475,0.000764548,-0.000238058,0.000965872,0.00135146,-0.000824971,0.546026,0.00126876,0.0425491,685,1100,-35.4923,-0.886431
-532,-76,-35.4004,0.788086,0.000281308,-0.000459033,0.00197223,0.0019178,-0.00209553,0.692632,0.00231785,0.0432816,692,1100,-35.4004,-0.788143
-525,-76,0,0,0,0,0,0,0,0,0,-1,699,1100,0,0
-518,-76,0,0,0,0,0,0,0,0,0,-1,706,1100,0,0
-511,-76,0,0,0,0,0,0,0,0,0,-1,713,1100,0,0
-504,-76,0,0,0,0,0,0,0,0,0,-1,720,1100,0,0
-497,-76,0,0,0,0,0,0,0,0,0,-1,727,1100,0,0
-490,-76,0,0,0,0,0,0,0,0,0,-1,734,1100,0,0
-483,-76,0,0,0,0,0,0,0,0,0,-1,741,1100,0,0
-476,-76,0,0,0,0,0,0,0,0,0,-1,748,1100,0,0
-469,-76,0,0,0,0,0,0,0,0,0,-1,755,1100,0,0
-462,-76,0,0,0,0,0,0,0,0,0,-1,762,1100,0,0
-455,-76,0,0,0,0,0,0,0,0,0,-1,769,1100,0,0
-448,-76,0,0,0,0,0,0,0,0,0,-1,776,1100,0,0
-441,-76,0,0,0,0,0,0,0,0,0,-1,783,1100,0,0
-434,-76,0,0,0,0,0,0,0,0,0,-1,790,1100,0,0
-427,-76,0,0,0,0,0,0,0,0,0,-1,797,1100,0,0
-420,-76,0,0,0,0,0,0,0,0,0,-1,804,1100,0,0
-413,-76,0,0,0,0,0,0,0,0,0,-1,811,1100,0,0
-406,-76,0,0,0,0,0,0,0,0,0,-1,818,1100,0,0
-399,-76,0,0,0,0,0,0,0,0,0,-1,825,1100,0,0
-392,-76,0,0,0,0,0,0,0,0,0,-1,832,1100,0,0
-385,-76,0,0,0,0,0,0,0,0,0,-1,839,1100,0,0
-378,-76,0,0,0,0,0,0,0,0,0,-1,846,1100,0,0
-371,-76,0,0,0,0,0,0,0,0,0,-1,853,1100,0,0
-364,-76,0,0,0,0,0,0,0,0,0,-1,860,1100,0,0
-357,-76,0,0,0,0,0,0,0,0,0,-1,867,1100,0,0
-350,-76,0,0,0,0,0,0,0,0,0,-1,874,1100,0,0
-343,-76,0,0,0,0,0,0,0,0,0,-1,881,1100,0,0
-336,-76,0,0,0,0,0,0,0,0,0,-1,888,1100,0,0
-329,-76,0,0,0,0,0,0,0,0,0,-1,895,1100,0,0
-322,-76,0,0,0,0,0,0,0,0,0,-1,902,1100,0,0
-315,-76,0,0,0,0,0,0,0,0,0,-1,909,1100,0,0
-308,-76,0,0,0,0,0,0,0,0,0,-1,916,1100,0,0
-301,-76,0,0,0,0,0,0,0,0,0,-1,923,1100,0,0
-294,-76,0,0,0,0,0,0,0,0,0,-1,930,1100,0,0
-287,-76,0,0,0,0,0,0,0,0,0,-1,937,1100,0,0
-280,-76,0,0,0,0,0,0,0,0,0,-1,944,1100,0,0
-273,-76,0,0,0,0,0,0,0,0,0,-1,951,1100,0,0
-266,-76,0,0,0,0,0,0,0,0,0,-1,958,1100,0,0
-259,-76,0,0,0,0,0,0,0,0,0,-1,965,1100,0,0
-252,-76,0,0,0,0,0,0,0,0,0,-1,972,1100,0,0
-245,-76,0,0,0,0,0,0,0,0,0,-1,979,1100,0,0
-238,-76,0,0,0,0,0,0,0,0,0,-1,986,1100,0,0
-231,-76,0,0,0,0,0,0,0,0,0,-1,993,1100,0,0
-224,-76,0,0,0,0,0,0,0,0,0,-1,1000,1100,0,0
-217,-76,0,0,0,0,0,0,0,0,0,-1,1007,1100,0,0
-210,-76,0,0,0,0,0,0,0,0,0,-1,1014,1100,0,0
-203,-76,0,0,0,0,0,0,0,0,0,-1,1021,1100,0,0
-196,-76,0,0,0,0,0,0,0,0,0,-1,1028,1100,0,0
-189,-76,0,0,0,0,0,0,0,0,0,-1,1035,1100,0,0
-182,-76,0,0,0,0,0,0,0,0,0,-1,1042,1100,0,0
-175,-76,0,0,0,0,0,0,0,0,0,-1,1049,1100,0,0
-168,-76,0,0,0,0,0,0,0,0,0,-1,1056,1100,0,0
-161,-76,0,0,0,0,0,0,0,0,0,-1,1063,1100,0,0
-154,-76,0,0,0,0,0,0,0,0,0,-1,1070,1100,0,0
-147,-76,0,0,0,0,0,0,0,0,0,-1,1077,1100,0,0
-140,-76,0,0,0,0,0,0,0,0,0,-1,1084,1100,0,0
-133,-76,0,0,0,0,0,0,0,0,0,-1,1091,1100,0,0
-126,-76,0,0,0,0,0,0,0,0,0,-1,1098,1100,0,0
-119,-76,0,0,0,0,0,0,0,0,0,-1,1105,1100,0,0
-112,-76,0,0,0,0,0,0,0,0,0,-1,1112,1100,0,0
-105,-76,0,0,0,0,0,0,0,0,0,-1,1119,1100,0,0
-98,-76,0,0,0,0,0,0,0,0,0,-1,1126,1100,0,0
-91,-76,0,0,0,0,0,0,0,0,0,-1,1133,1100,0,0
-84,-76,0,0,0,0,0,0,0,0,0,-1,1140,1100,0,0
-77,-76,0,0,0,0,0,0,0,0,0,-1,1147,1100,0,0
-70,-76,0,0,0,0,0,0,0,0,0,-1,1154,1100,0,0
-63,-76,0,0,0,0,0,0,0,0,0,-1,1161,1100,0,0
-56,-76,0,0,0,0,0,0,0,0,0,-1,1168,1100,0,0
-49,-76,0,0,0,0,0,0,0,0,0,-1,1175,1100,0,0
-42,-76,0,0,0,0,0,0,0,0,0,-1,1182,1100,0,0
-35,-76,0,0,0,0,0,0,0,0,0,-1,1189,1100,0,0
-28,-76,0,0,0,0,0,0,0,0,0,-1,1196,1100,0,0
-21,-76,0,0,0,0,0,0,0,0,0,-1,1203,1100,0,0
-14,-76,0,0,0,0,0,0,0,0,0,-1,1210,1100,0,0
-7,-76,0,0,0,0,0,0,0,0,0,-1,1217,1100,0,0
0,-76,0,0,0,0,0,0,0,0,0,-1,1224,1100,0,0
7,-76,0,0,0,0,0,0,0,0,0,-1,1231,1100,0,0
14,-76,0,0,0,0,0,0,0,0,0,-1,1238,1100,0,0
21,-76,0,0,0,0,0,0,0,0,0,-1,1245,1100,0,0
28,-76,0,0,0,0,0,0,0,0,0,-1,1252,1100,0,0
35,-76,0,0,0,0,0,0,0,0,0,-1,1259,1100,0,0
42,-76,0,0,0,0,0,0,0,0,0,-1,1266,1100,0,0
49,-76,0,0,0,0,0,0,0,0,0,-1,1273,1100,0,0
56,-76,0,0,0,0,0,0,0,0,0,-1,1280,1100,0,0
63,-76,0,0,0,0,0,0,0,0,0,-1,1287,1100,0,0
70,-76,0,0,0,0,0,0,0,0,0,-1,1294,1100,0,0
77,-76,0,0,0,0,0,0,0,0,0,-1,1301,1100,0,0
84,-76,0,0,0,0,0,0,0,0,0,-1,1308,1100,0,0
91,-76,0,0,0,0,0,0,0,0,0,-1,1315,1100,0,0
98,-76,0,0,0,0,0,0,0,0,0,-1,1322,1100,0,0
105,-76,0,0,0,0,0,0,0,0,0,-1,1329,1100,0,0
112,-76,0,0,0,0,0,0,0,0,0,-1,1336,1100,0,0
119,-76,0,0,0,0,0,0,0,0,0,-1,1343,1100,0,0
126,-76,0,0,0,0,0,0,0,0,0,-1,1350,1100,0,0
133,-76,0,0,0,0,0,0,0,0,0,-1,1357,1100,0,0
140,-76,0,0,0,0,0,0,0,0,0,-1,1364,1100,0,0
147,-76,0,0,0,0,0,0,0,0,0,-1,1371,1100,0,0
154,-76,0,0,0,0,0,0,0,0,0,-1,1378,1100,0,0
161,-76,0,0,0,0,0,0,0,0,0,-1,1385,1100,0,0
168,-76,0,0,0,0,0,0,0,0,0,-1,1392,1100,0,0
175,-76,0,0,0,0,0,0,0,0,0,-1,1399,1100,0,0
182,-76,0,0,0,0,0,0,0,0,0,-1,1406,1100,0,0
189,-76,0,0,0,0,0,0,0,0,0,-1,1413,1100,0,0
196,-76,0,0,0,0,0,0,0,0,0,-1,1420,1100,0,0
203,-76,0,0,0,0,0,0,0,0,0,-1,1427,1100,0,0
210,-76,0,0,0,0,0,0,0,0,0,-1,1434,1100,0,0
217,-76,0,0,0,0,0,0,0,0,0,-1,1441,1100,0,0
224,-76,0,0,0,0,0,0,0,0,0,-1,1448,1100,0,0
231,-76,0,0,0,0,0,0,0,0,0,-1,1455,1100,0,0
238,-76,0,0,0,0,0,0,0,0,0,-1,1462,1100,0,0
245,-76,0,0,0,0,0,0,0,0,0,-1,1469,1100,0,0
252,-76,0,0,0,0,0,0,0,0,0,-1,1476,1100,0,0
259,-76,0,0,0,0,0,0,0,0,0,-1,1483,1100,0,0
266,-76,0,0,0,0,0,0,0,0,0,-1,1490,1100,0,0
273,-76,0,0,0,0,0,0,0,0,0,-1,1497,1100,0,0
280,-76,0,0,0,0,0,0,0,0,0,-1,1504,1100,0,0
287,-76,0,0,0,0,0,0,0,0,0,-1,1511,1100,0,0
294,-76,0,0,0,0,0,0,0,0,0,-1,1518,1100,0,0
301,-76,0,0,0,0,0,0,0,0,0,-1,1525,1100,0,0
308,-76,0,0,0,0,0,0,0,0,0,-1,1532,1100,0,0
315,-76,0,0,0,0,0,0,0,0,0,-1,1539,1100,0,0
322,-76,0,0,0,0,0,0,0,0,0,-1,1546,1100,0,0
329,-76,0,0,0,0,0,0,0,0,0,-1,1553,1100,0,0
336,-76,0,0,0,0,0,0,0,0,0,-1,1560,1100,0,0
343,-76,0,0,0,0,0,0,0,0,0,-1,1567,1100,0,0
350,-76,0,0,0,0,0,0,0,0,0,-1,1574,1100,0,0
357,-76,0,0,0,0,0,0,0,0,0,-1,1581,1100,0,0
364,-76,0,0,0,0,0,0,0,0,0,-1,1588,1100,0,0
371,-76,0,0,0,0,0,0,0,0,0,-1,1595,1100,0,0
378,-76,0,0,0,0,0,0,0,0,0,-1,1602,1100,0,0
385,-76,0,0,0,0,0,0,0,0,0,-1,1609,1100,0,0
392,-76,0,0,0,0,0,0,0,0,0,-1,1616,1100,0,0
399,-76,0,0,0,0,0,0,0,0,0,-1,1623,1100,0,0
406,-76,0,0,0,0,0,0,0,0,0,-1,1630,1100,0,0
413,-76,0,0,0,0,0,0,0,0,0,-1,1637,1100,0,0
420,-76,0,0,0,0,0,0,0,0,0,-1,1644,1100,0,0
427,-76,0,0,0,0,0,0,0,0,0,-1,1651,1100,0,0
434,-76,0,0,0,0,0,0,0,0,0,-1,1658,1100,0,0
441,-76,0,0,0,0,0,0,0,0,0,-1,1665,1100,0,0
448,-76,0,0,0,0,0,0,0,0,0,-1,1672,1100,0,0
455,-76,0,0,0,0,0,0,0,0,0,-1,1679,1100,0,0
462,-76,0,0,0,0,0,0,0,0,0,-1,1686,1100,0,0
469,-76,0,0,0,0,0,0,0,0,0,-1,1693,1100,0,0
476,-76,0,0,0,0,0,0,0,0,0,-1,1700,1100,0,0
483,-76,0,0,0,0,0,0,0,0,0,-1,1707,1100,0,0
490,-76,0,0,0,0,0,0,0,0,0,-1,1714,1100,0,0
497,-76,0,0,0,0,0,0,0,0,0,-1,1721,1100,0,0
504,-76,0,0,0,0,0,0,0,0,0,-1,1728,1100,0,0
511,-76,0,0,0,0,0,0,0,0,0,-1,1735,1100,0,0
518,-76,0,0,0,0,0,0,0,0,0,-1,1742,1100,0,0
525,-76,0,0,0,0,0,0,0,0,0,-1,1749,1100,0,0
532,-76,0,0,0,0,0,0,0,0,0,-1,1756,1100,0,0
539,-76,0,0,0,0,0,0,0,0,0,-1,1763,1100,0,0
546,-76,0,0,0,0,0,0,0,0,0,-1,1770,1100,0,0
553,-76,0,0,0,0,0,0,0,0,0,-1,1777,1100,0,0
560,-76,0,0,0,0,0,0,0,0,0,-1,1784,1100,0,0
567,-76,0,0,0,0,0,0,0,0,0,-1,1791,1100,0,0
574,-76,0,0,0,0,0,0,0,0,0,-1,1798,1100,0,0
581,-76,0,0,0,0,0,0,0,0,0,-1,1805,1100,0,0
588,-76,0,0,0,0,0,0,0,0,0,-1,1812,1100,0,0
595,-76,0,0,0,0,0,0,0,0,0,-1,1819,1100,0,0
602,-76,0,0,0,0,0,0,0,0,0,-1,1826,1100,0,0
609,-76,0,0,0,0,0,0,0,0,0,-1,1833,1100,0,0
616,-76,0,0,0,0,0,0,0,0,0,-1,1840,1100,0,0
623,-76,0,0,0,0,0,0,0,0,0,-1,1847,1100,0,0
630,-76,0,0,0,0,0,0,0,0,0,-1,1854,1100,0,0
637,-76,0,0,0,0,0,0,0,0,0,-1,1861,1100,0,0
644,-76,0,0,0,0,0,0,0,0,0,-1,1868,1100,0,0
651,-76,47.7252,2.78467,0.00508548,-0.00130543,0.0030692,0.00632071,-0.00254066,0.382624,0.00526899,0.0390077,1875,1100,47.7253,-2.78462
658,-76,47.7174,2.87476,0.00445865,-0.00136361,0.00177583,0.00495754,-0.0018625,0.273875,0.00407047,0.0436039,1882,1100,47.7174,-2.87472
665,-76,47.8058,2.88953,0.00381769,-0.00139607,0.00103188,0.00401448,-0.00159286,0.188453,0.00333652,0.0418618,1889,1100,47.8058,-2.88953
672,-76,47.7383,2.83838,0.00324864,-0.00135705,0.000618797,0.00333033,-0.00143874,0.131254,0.0028247,0.0371909,1896,1100,47.7383,-2.83837
679,-76,47.7621,2.72498,0.00252917,-0.00132402,0.000503739,0.00259394,-0.00138878,0.12787,0.00233425,0.0358208,1903,1100,47.7621,-2.725
686,-76,47.9135,2.61609,0.00186114,-0.00142216,0.00066605,0.00199111,-0.00155213,0.192714,0.00205092,0.0356276,1910,1100,47.9135,-2.61607
693,-76,47.8594,2.60278,0.00138697,-0.00151082,0.000898799,0.0016431,-0.00176696,0.277619,0.00196924,0.0365452,1917,1100,47.8594,-2.60277
700,-76,47.8224,2.62976,0.000981407,-0.0015006,0.00113996,0.00142552,-0.00194471,0.371494,0.00195348,0.030691,1924,1100,47.8224,-2.62977
707,-76,47.8508,2.73267,0.000496543,-0.00138482,0.00136905,0.00121694,-0.00210522,0.484389,0.00194077,0.0209751,1931,1100,47.8508,-2.73272
714,-76,47.8843,2.80054,0,0,0,0,0,0,0,-1,1938,1100,47.8843,-2.80049
721,-76,45.1713,3.04919,0,0,0,0,0,0,0,-1,1945,1100,45.1713,-3.04915
728,-76,45.8882,6.65503,0,0,0,0,0,0,0,-1,1952,1100,45.8882,-6.65503
735,-76,45.4022,6.56042,-0.00200343,0.000170921,0.00233364,0.0016582,-0.00349071,1.00339,0.00303483,0.0391671,1959,1100,45.4022,-6.56039
742,-76,45.6683,6.24634,-0.00260235,0.00102688,0.00250981,0.00230935,-0.00388483,1.0984,0.00361457,0.026181,1966,1100,45.6683,-6.24634
749,-76,45.5754,5.90637,-0.0027857,0.00318225,0.00147311,0.00352607,-0.00312952,1.34151,0.00384488,0.0257866,1973,1100,45.5754,-5.90643
756,-76,45.6385,5.6615,-0.0024361,0.00542549,0.000156247,0.0054286,-0.0024392,1.55093,0.00465049,0.0165856,1980,1100,45.6385,-5.66146
763,-76,45.6177,5.35864,-0.00214623,0.00835553,-0.00162509,0.00860125,-0.00239196,-1.42073,0.00667589,0.0164912,1987,1100,45.6177,-5.35863
770,-76,45.5282,5.10754,-0.00124123,0.0124927,-0.00422027,0.0136859,-0.00243441,-1.29526,0.0100343,0.0175102,1994,1100,45.5282,-5.10751
777,-76,45.4351,4.94568,0.000323511,0.0174299,-0.00767879,0.0203711,-0.00261769,-1.20501,0.0145321,0.0220389,2001,1100,45.435,-4.94564
784,-76,45.4866,4.6416,0.00245116,0.0227122,-0.011886,0.0281991,-0.00303577,-1.13831,0.0198887,0.0347775,2008,1100,45.4866,-4.64159
791,-76,45.8179,4.21375,0.00526501,0.0283891,-0.0171359,0.0374988,-0.0038447,-1.08218,0.0263743,0.0446132,2015,1100,45.8178,-4.21376
798,-76,46.0359,2.87659,0,0,0,0,0,0,0,-1,2022,1100,46.0358,-2.87665
805,-76,45.9116,2.41675,0.0138657,0.0401254,-0.0314678,0.0610926,-0.00710156,-0.983041,0.0432902,0.0447709,2029,1100,45.9116,-2.4167
812,-76,45.7612,1.49231,0.0193419,0.0451679,-0.0404879,0.0747521,-0.0102424,-0.939766,0.0535762,0.0458025,2036,1100,45.7611,-1.49233
-700,-83,0,0,0,0,0,0,0,0,0,-1,524,1107,0,0
-693,-83,-29.3662,-3.11414,0,0,0,0,0,0,0,-1,531,1107,-29.3662,3.11417
-686,-83,-34.6167,0.273193,0,0,0,0,0,0,0,-1,538,1107,-34.6167,-0.273242
-679,-83,-34.2575,0.723511,0,0,0,0,0,0,0,-1,545,1107,-34.2575,-0.723458
-672,-83,-34.2099,1.14319,0.0315312,0.0897932,0.0195987,0.0957723,0.025552,1.27469,0.0572638,0.0479213,552,1107,-34.2099,-1.14317
-665,-83,-33.9337,1.30347,0,0,0,0,0,0,0,-1,559,1107,-33.9337,-1.30347
-658,-83,-33.5441,1.349,0.0227508,0.0475575,0.00802535,0.0499275,0.0203809,1.28365,0.0289871,0.0442699,566,1107,-33.5441,-1.34897
-651,-83,-33.0828,1.50977,0.0172615,0.0331069,0.00441053,0.0342519,0.0161165,1.31681,0.0197868,0.0333416,573,1107,-33.0827,-1.50976
-644,-83,-33.0599,1.90137,0.0125782,0.0224586,0.00207176,0.0228754,0.0121614,1.37225,0.0132159,0.0157173,580,1107,-33.0599,-1.90137
-637,-83,-33.1091,2.25867,0.00905428,0.0141501,0.000384581,0.014179,0.00902542,1.49589,0.00828736,0.0115717,587,1107,-33.109,-2.25869
-630,-83,-33.1356,2.59424,0.00629403,0.00784244,-0.000684713,0.00810179,0.00603469,-1.20873,0.00486094,0.0168972,594,1107,-33.1356,-2.59418
-623,-83,-33.1731,2.89917,0.00433317,0.00393321,-0.00131167,0.00546002,0.00280636,-0.709749,0.00315275,0.0163951,601,1107,-33.1731,-2.89913
-616,-83,-33.2424,3.23926,0.00299024,0.00185963,-0.00142165,0.00395485,0.00089502,-0.596163,0.00239465,0.0148059,608,1107,-33.2424,-3.23928
-609,-83,-33.2153,3.57104,0.00239109,0.000855245,-0.00110132,0.00296578,0.000280553,-0.480951,0.00189062,0.017315,615,1107,-33.2153,-3.57107
-602,-83,-33.2197,3.93933,0.00198204,9.70389e-05,-0.000913993,0.00235243,-0.000273355,-0.385022,0.00166689,0.0181825,622,1107,-33.2197,-3.93927
-595,-83,-33.1332,4.2522,0.00181951,-0.000239754,-0.00104545,0.00225723,-0.000677471,-0.396511,0.00177429,0.0218209,629,1107,-33.1333,-4.25214
-588,-83,-33.0927,4.49365,0,0,0,0,0,0,0,-1,636,1107,-33.0927,-4.49367
-581,-83,-35.4572,0.880737,0,0,0,0,0,0,0,-1,643,1107,-35.4572,-0.880763
-574,-83,-35.5004,0.672607,0.00185201,-0.000747845,-0.000524731,0.00195392,-0.000849757,-0.19183,0.00166002,0.0368892,650,1107,-35.5004,-0.672596
-567,-83,-35.7212,0.563477,0.00182506,-0.000692131,-0.00037363,0.00187935,-0.000746418,-0.144288,0.00156232,0.0417931,657,1107,-35.7212,-0.563493
-560,-83,-35.7821,0.836792,0.00167643,-0.000537504,-0.000173356,0.00168993,-0.000550996,-0.0776712,0.00134835,0.0420869,664,1107,-35.7821,-0.836844
-553,-83,-35.6642,1.12988,0.00119894,-0.000345991,5.32177e-05,0.00120077,-0.000347822,0.0343924,0.000938197,0.0425003,671,1107,-35.6642,-1.12988
-546,-83,-35.5271,1.11438,0.00068126,-0.000204677,0.00043641,0.000860123,-0.00038354,0.38897,0.000735393,0.0425825,678,1107,-35.5271,-1.1144
-539,-83,-35.528,0.957886,0.000761037,-0.000432693,0.00110028,0.00141591,-0.00108757,0.536877,0.00144952,0.0443566,685,1107,-35.528,-0.95792
-532,-83,-35.3604,0.784546,0.000445955,-0.000582499,0.00203327,0.00202901,-0.00216556,0.661542,0.00242216,0.0451527,692,1107,-35.3604,-0.78452
-525,-83,0,0,0,0,0,0,0,0,0,-1,699,1107,0,0
-518,-83,0,0,0,0,0,0,0,0,0,-1,706,1107,0,0
-511,-83,0,0,0,0,0,0,0,0,0,-1,713,1107,0,0
-504,-83,0,0,0,0,0,0,0,0,0,-1,720,1107,0,0
-497,-83,0,0,0,0,0,0,0,0,0,-1,727,1107,0,0
-490,-83,0,0,0,0,0,0,0,0,0,-1,734,1107,0,0
-483,-83,0,0,0,0,0,0,0,0,0,-1,741,1107,0,0
-476,-83,0,0,0,0,0,0,0,0,0,-1,748,1107,0,0
-469,-83,0,0,0,0,0,0,0,0,0,-1,755,1107,0,0
-462,-83,0,0,0,0,0,0,0,0,0,-1,762,1107,0,0
-455,-83,0,0,0,0,0,0,0,0,0,-1,769,1107,0,0
-448,-83,0,0,0,0,0,0,0,0,0,-1,776,1107,0,0
-441,-83,0,0,0,0,0,0,0,0,0,-1,783,1107,0,0
-434,-83,0,0,0,0,0,0,0,0,0,-1,790,1107,0,0
-427,-83,0,0,0,0,0,0,0,0,0,-1,797,1107,0,0
-420,-83,0,0,0,0,0,0,0,0,0,-1,804,1107,0,0
-413,-83,0,0,0,0,0,0,0,0,0,-1,811,1107,0,0
-406,-83,0,0,0,0,0,0,0,0,0,-1,818,1107,0,0
-399,-83,0,0,0,0,0,0,0,0,0,-1,825,1107,0,0
-392,-83,0,0,0,0,0,0,0,0,0,-1,832,1107,0,0
-385,-83,0,0,0,0,0,0,0,0,0,-1,839,1107,0,0
-378,-83,0,0,0,0,0,0,0,0,0,-1,846,1107,0,0
-371,-83,0,0,0,0,0,0,0,0,0,-1,853,1107,0,0
-364,-83,0,0,0,0,0,0,0,0,0,-1,860,1107,0,0
-357,-83,0,0,0,0,0,0,0,0,0,-1,867,1107,0,0
-350,-83,0,0,0,0,0,0,0,0,0,-1,874,1107,0,0
-343,-83,0,0,0,0,0,0,0,0,0,-1,881,1107,0,0
-336,-83,0,0,0,0,0,0,0,0,0,-1,888,1107,0,0
-329,-83,0,0,0,0,0,0,0,0,0,-1,895,1107,0,0
-322,-83,0,0,0,0,0,0,0,0,0,-1,902,1107,0,0
-315,-83,0,0,0,0,0,0,0,0,0,-1,909,1107,0,0
-308,-83,0,0,0,0,0,0,0,0,0,-1,916,1107,0,0
-301,-83,0,0,0,0,0,0,0,0,0,-1,923,1107,0,0
-294,-83,0,0,0,0,0,0,0,0,0,-1,930,1107,0,0
-287,-83,0,0,0,0,0,0,0,0,0,-1,937,1107,0,0
-280,-83,0,0,0,0,0,0,0,0,0,-1,944,1107,0,0
-273,-83,0,0,0,0,0,0,0,0,0,-1,951,1107,0,0
-266,-83,0,0,0,0,0,0,0,0,0,-1,958,1107,0,0
-259,-83,0,0,0,0,0,0,0,0,0,-1,965,1107,0,0
-252,-83,0,0,0,0,0,0,0,0,0,-1,972,1107,0,0
-245,-83,0,0,0,0,0,0,0,0,0,-1,979,1107,0,0
-238,-83,0,0,0,0,0,0,0,0,0,-1,986,1107,0,0
-231,-83,0,0,0,0,0,0,0,0,0,-1,993,1107,0,0
-224,-83,0,0,0,0,0,0,0,0,0,-1,1000,1107,0,0
-217,-83,0,0,0,0,0,0,0,0,0,-1,1007,1107,0,0
-210,-83,0,0,0,0,0,0,0,0,0,-1,1014,1107,0,0
-203,-83,0,0,0,0,0,0,0,0,0,-1,1021,1107,0,0
-196,-83,0,0,0,0,0,0,0,0,0,-1,1028,1107,0,0
-189,-83,0,0,0,0,0,0,0,0,0,-1,1035,1107,0,0
-182,-83,0,0,0,0,0,0,0,0,0,-1,1042,1107,0,0
-175,-83,0,0,0,0,0,0,0,0,0,-1,1049,1107,0,0
-168,-83,0,0,0,0,0,0,0,0,0,-1,1056,1107,0,0
-161,-83,0,0,0,0,0,0,0,0,0,-1,1063,1107,0,0
-154,-83,0,0,0,0,0,0,0,0,0,-1,1070,1107,0,0
-147,-83,0,0,0,0,0,0,0,0,0,-1,1077,1107,0,0
-140,-83,0,0,0,0,0,0,0,0,0,-1,1084,1107,0,0
-133,-83,0,0,0,0,0,0,0,0,0,-1,1091,1107,0,0
-126,-83,0,0,0,0,0,0,0,0,0,-1,1098,1107,0,0
-119,-83,0,0,0,0,0,0,0,0,0,-1,1105,1107,0,0
-112,-83,0,0,0,0,0,0,0,0,0,-1,1112,1107,0,0
-105,-83,0,0,0,0,0,0,0,0,0,-1,1119,1107,0,0
-98,-83,0,0,0,0,0,0,0,0,0,-1,1126,1107,0,0
-91,-83,0,0,0,0,0,0,0,0,0,-1,1133,1107,0,0
-84,-83,0,0,0,0,0,0,0,0,0,-1,1140,1107,0,0
-77,-83,0,0,0,0,0,0,0,0,0,-1,1147,1107,0,0
-70,-83,0,0,0,0,0,0,0,0,0,-1,1154,1107,0,0
-63,-83,0,0,0,0,0,0,0,0,0,-1,1161,1107,0,0
-56,-83,0,0,0,0,0,0,0,0,0,-1,1168,1107,0,0
-49,-83,0,0,0,0,0,0,0,0,0,-1,1175,1107,0,0
-42,-83,0,0,0,0,0,0,0,0,0,-1,1182,1107,0,0
-35,-83,0,0,0,0,0,0,0,0,0,-1,1189,1107,0,0
-28,-83,0,0,0,0,0,0,0,0,0,-1,1196,1107,0,0
-21,-83,0,0,0,0,0,0,0,0,0,-1,1203,1107,0,0
-14,-83,0,0,0,0,0,0,0,0,0,-1,1210,1107,0,0
-7,-83,0,0,0,0,0,0,0,0,0,-1,1217,1107,0,0
0,-83,0,0,0,0,0,0,0,0,0,-1,1224,1107,0,0
7,-83,0,0,0,0,0,0,0,0,0,-1,1231,1107,0,0
14,-83,0,0,0,0,0,0,0,0,0,-1,1238,1107,0,0
21,-83,0,0,0,0,0,0,0,0,0,-1,1245,1107,0,0
28,-83,0,0,0,0,0,0,0,0,0,-1,1252,1107,0,0
35,-83,0,0,0,0,0,0,0,0,0,-1,1259,1107,0,0
42,-83,0,0,0,0,0,0,0,0,0,-1,1266,1107,0,0
49,-83,0,0,0,0,0,0,0,0,0,-1,1273,1107,0,0
56,-83,0,0,0,0,0,0,0,0,0,-1,1280,1107,0,0
63,-83,0,0,0,0,0,0,0,0,0,-1,1287,1107,0,0
70,-83,0,0,0,0,0,0,0,0,0,-1,1294,1107,0,0
77,-83,0,0,0,0,0,0,0,0,0,-1,1301,1107,0,0
84,-83,0,0,0,0,0,0,0,0,0,-1,1308,1107,0,0
91,-83,0,0,0,0,0,0,0,0,0,-1,1315,1107,0,0
98,-83,0,0,0,0,0,0,0,0,0,-1,1322,1107,0,0
105,-83,0,0,0,0,0,0,0,0,0,-1,1329,1107,0,0
112,-83,0,0,0,0,0,0,0,0,0,-1,1336,1107,0,0
119,-83,0,0,0,0,0,0,0,0,0,-1,1343,1107,0,0
126,-83,0,0,0,0,0,0,0,0,0,-1,1350,1107,0,0
133,-83,0,0,0,0,0,0,0,0,0,-1,1357,1107,0,0
140,-83,0,0,0,0,0,0,0,0,0,-1,1364,1107,0,0
147,-83,0,0,0,0,0,0,0,0,0,-1,1371,1107,0,0
154,-83,0,0,0,0,0,0,0,0,0,-1,1378,1107,0,0
161,-83,0,0,0,0,0,0,0,0,0,-1,1385,1107,0,0
168,-83,0,0,0,0,0,0,0,0,0,-1,1392,1107,0,0
175,-83,0,0,0,0,0,0,0,0,0,-1,1399,1107,0,0
182,-83,0,0,0,0,0,0,0,0,0,-1,1406,1107,0,0
189,-83,0,0,0,0,0,0,0,0,0,-1,1413,1107,0,0
196,-83,0,0,0,0,0,0,0,0,0,-1,1420,1107,0,0
203,-83,0,0,0,0,0,0,0,0,0,-1,1427,1107,0,0
210,-83,0,0,0,0,0,0,0,0,0,-1,1434,1107,0,0
217,-83,0,0,0,0,0,0,0,0,0,-1,1441,1107,0,0
224,-83,0,0,0,0,0,0,0,0,0,-1,1448,1107,0,0
231,-83,0,0,0,0,0,0,0,0,0,-1,1455,1107,0,0
238,-83,0,0,0,0,0,0,0,0,0,-1,1462,1107,0,0
245,-83,0,0,0,0,0,0,0,0,0,-1,1469,1107,0,0
252,-83,0,0,0,0,0,0,0,0,0,-1,1476,1107,0,0
259,-83,0,0,0,0,0,0,0,0,0,-1,1483,1107,0,0
266,-83,0,0,0,0,0,0,0,0,0,-1,1490,1107,0,0
273,-83,0,0,0,0,0,0,0,0,0,-1,1497,1107,0,0
280,-83,0,0,0,0,0,0,0,0,0,-1,1504,1107,0,0
287,-83,0,0,0,0,0,0,0,0,0,-1,1511,1107,0,0
294,-83,0,0,0,0,0,0,0,0,0,-1,1518,1107,0,0
301,-83,0,0,0,0,0,0,0,0,0,-1,1525,1107,0,0
308,-83,0,0,0,0,0,0,0,0,0,-1,1532,1107,0,0
315,-83,0,0,0,0,0,0,0,0,0,-1,1539,1107,0,0
322,-83,0,0,0,0,0,0,0,0,0,-1,1546,1107,0,0
329,-83,0,0,0,0,0,0,0,0,0,-1,1553,1107,0,0
336,-83,0,0,0,0,0,0,0,0,0,-1,1560,1107,0,0
343,-83,0,0,0,0,0,0,0,0,0,-1,1567,1107,0,0
350,-83,0,0,0,0,0,0,0,0,0,-1,1574,1107,0,0
357,-83,0,0,0,0,0,0,0,0,0,-1,1581,1107,0,0
364,-83,0,0,0,0,0,0,0,0,0,-1,1588,1107,0,0
371,-83,0,0,0,0,0,0,0,0,0,-1,1595,1107,0,0
378,-83,0,0,0,0,0,0,0,0,0,-1,1602,1107,0,0
385,-83,0,0,0,0,0,0,0,0,0,-1,1609,1107,0,0
392,-83,0,0,0,0,0,0,0,0,0,-1,1616,1107,0,0
399,-83,0,0,0,0,0,0,0,0,0,-1,1623,1107,0,0
406,-83,0,0,0,0,0,0,0,0,0,-1,1630,1107,0,0
413,-83,0,0,0,0,0,0,0,0,0,-1,1637,1107,0,0
420,-83,0,0,0,0,0,0,0,0,0,-1,1644,1107,0,0
427,-83,0,0,0,0,0,0,0,0,0,-1,1651,1107,0,0
434,-83,0,0,0,0,0,0,0,0,0,-1,1658,1107,0,0
441,-83,0,0,0,0,0,0,0,0,0,-1,1665,1107,0,0
448,-83,0,0,0,0,0,0,0,0,0,-1,1672,1107,0,0
455,-83,0,0,0,0,0,0,0,0,0,-1,1679,1107,0,0
462,-83,0,0,0,0,0,0,0,0,0,-1,1686,1107,0,0
469,-83,0,0,0,0,0,0,0,0,0,-1,1693,1107,0,0
476,-83,0,0,0,0,0,0,0,0,0,-1,1700,1107,0,0
483,-83,0,0,0,0,0,0,0,0,0,-1,1707,1107,0,0
490,-83,0,0,0,0,0,0,0,0,0,-1,1714,1107,0,0
497,-83,0,0,0,0,0,0,0,0,0,-1,1721,1107,0,0
504,-83,0,0,0,0,0,0,0,0,0,-1,1728,1107,0,0
511,-83,0,0,0,0,0,0,0,0,0,-1,1735,1107,0,0
518,-83,0,0,0,0,0,0,0,0,0,-1,1742,1107,0,0
525,-83,0,0,0,0,0,0,0,0,0,-1,1749,1107,0,0
532,-83,0,0,0,0,0,0,0,0,0,-1,1756,1107,0,0
539,-83,0,0,0,0,0,0,0,0,0,-1,1763,1107,0,0
546,-83,0,0,0,0,0,0,0,0,0,-1,1770,1107,0,0
553,-83,0,0,0,0,0,0,0,0,0,-1,1777,1107,0,0
560,-83,0,0,0,0,0,0,0,0,0,-1,1784,1107,0,0
567,-83,0,0,0,0,0,0,0,0,0,-1,1791,1107,0,0
574,-83,0,0,0,0,0,0,0,0,0,-1,1798,1107,0,0
581,-83,0,0,0,0,0,0,0,0,0,-1,1805,1107,0,0
588,-83,0,0,0,0,0,0,0,0,0,-1,1812,1107,0,0
595,-83,0,0,0,0,0,0,0,0,0,-1,1819,1107,0,0
602,-83,0,0,0,0,0,0,0,0,0,-1,1826,1107,0,0
609,-83,0,0,0,0,0,0,0,0,0,-1,1833,1107,0,0
616,-83,0,0,0,0,0,0,0,0,0,-1,1840,1107,0,0
623,-83,0,0,0,0,0,0,0,0,0,-1,1847,1107,0,0
630,-83,0,0,0,0,0,0,0,0,0,-1,1854,1107,0,0
637,-83,0,0,0,0,0,0,0,0,0,-1,1861,1107,0,0
644,-83,47.7223,2.64478,0.00619381,-0.00112305,0.00402739,0.00797634,-0.00290557,0.416683,0.00650607,0.0339418,1868,1107,47.7223,-2.64475
651,-83,47.6749,2.74146,0.00535803,-0.00108668,0.0022698,0.00607719,-0.00180584,0.306834,0.00476877,0.0383738,1875,1107,47.675,-2.74145
658,-83,47.6815,2.82214,0.00466709,-0.00117066,0.00126894,0.00493099,-0.00143456,0.205044,0.00385552,0.0423087,1882,1107,47.6815,-2.82215
665,-83,47.7217,2.90076,0.00398615,-0.00124739,0.000657273,0.00406743,-0.00132867,0.123043,0.00324644,0.0409132,1889,1107,47.7216,-2.9007
672,-83,47.8314,2.82568,0.00338069,-0.00127877,0.000295262,0.00339933,-0.00129741,0.0630322,0.00280072,0.0378992,1896,1107,47.8314,-2.82563
679,-83,47.7788,2.75208,0.00262369,-0.00133956,0.00019894,0.00263365,-0.00134952,0.0500287,0.00233918,0.0377033,1903,1107,47.7788,-2.75212
686,-83,47.8578,2.65356,0.00198319,-0.0014943,0.000337351,0.00201561,-0.00152672,0.0958196,0.00205165,0.0351868,1910,1107,47.8578,-2.65362
693,-83,47.8604,2.71729,0.00154746,-0.00159931,0.000546596,0.0016397,-0.00169155,0.167179,0.00192337,0.0354937,1917,1107,47.8603,-2.71735
700,-83,47.8539,2.77039,0.00117044,-0.00159346,0.000780604,0.00137566,-0.00179869,0.257089,0.00183813,0.0302038,1924,1107,47.8539,-2.77033
707,-83,47.8534,2.76416,0.000711715,-0.0014827,0.00102034,0.00111283,-0.00188382,0.374558,0.0017491,0.020894,1931,1107,47.8534,-2.7642
714,-83,47.8322,2.75757,0,0,0,0,0,0,0,-1,1938,1107,47.8322,-2.75753
721,-83,45.4763,7.07861,0,0,0,0,0,0,0,-1,1945,1107,45.4763,-7.07863
728,-83,45.4191,6.82751,-0.00101408,-0.000573665,0.00167709,0.000897609,-0.00248536,0.850677,0.00202359,0.0410293,1952,1107,45.4191,-6.82757
735,-83,45.0886,6.54504,-0.00168147,-3.39086e-05,0.00202297,0.00132658,-0.00304195,0.978753,0.00258617,0.0385776,1959,1107,45.0886,-6.54501
742,-83,45.2623,6.24744,-0.00221331,0.00080046,0.00221017,0.00196856,-0.00338142,1.0846,0.00312451,0.0231092,1966,1107,45.2623,-6.24745
749,-83,45.3552,5.94934,-0.0026198,0.00286968,0.00131527,0.00316855,-0.00291867,1.34736,0.00351545,0.0162196,1973,1107,45.3553,-5.94937
756,-83,45.3657,5.67896,-0.00271107,0.00502925,0.000193832,0.0050341,-0.00271592,1.54578,0.00454071,0.0158611,1980,1107,45.3657,-5.67899
763,-83,45.3401,5.35181,-0.00280561,0.00783449,-0.00141444,0.00801931,-0.00299042,-1.44087,0.00657379,0.0127038,1987,1107,45.34,-5.35177
770,-83,45.2554,5.08801,-0.00263581,0.0117276,-0.00371111,0.0126297,-0.00353799,-1.33232,0.00981408,0.0160874,1994,1107,45.2554,-5.08798
777,-83,45.155,4.82788,-0.00220417,0.0162482,-0.00668652,0.0184164,-0.00437237,-1.25723,0.0139651,0.0175197,2001,1107,45.155,-4.82794
784,-83,45.0645,4.57654,-0.00148781,0.0211263,-0.0103343,0.0251375,-0.00549899,-1.20056,0.0188604,0.0273989,2008,1107,45.0645,-4.57652
791,-83,45.3359,3.99316,-0.000462712,0.0263862,-0.0149041,0.0330203,-0.00709686,-1.15201,0.0247211,0.0434174,2015,1107,45.3358,-3.99316
798,-83,45.5313,3.36292,0.00104425,0.0318555,-0.0205472,0.042131,-0.00923127,-1.10707,0.0316169,0.0436953,2022,1107,45.5312,-3.36295
805,-83,45.5271,2.76343,0.00291802,0.0371712,-0.0272493,0.0522292,-0.0121399,-1.06596,0.039493,0.0446293,2029,1107,45.5271,-2.76341
812,-83,45.3254,2.10547,0.00482469,0.0416791,-0.0348773,0.0626979,-0.0161941,-1.02843,0.0481138,0.0471035,2036,1107,45.3253,-2.10544
-700,-90,0,0,0,0,0,0,0,0,0,-1,524,1114,0,0
-693,-90,-28.3567,-4.28296,0,0,0,0,0,0,0,-1,531,1114,-28.3567,4.28294
-686,-90,-28.8061,-4.25269,0,0,0,0,0,0,0,-1,538,1114,-28.8061,4.25273
-679,-90,-34.396,0.848389,0,0,0,0,0,0,0,-1,545,1114,-34.396,-0.848406
-672,-90,-34.1825,1.02795,0,0,0,0,0,0,0,-1,552,1114,-34.1825,-1.028
-665,-90,-33.9608,1.22632,0,0,0,0,0,0,0,-1,559,1114,-33.9608,-1.22634
-658,-90,-32.741,0.842163,0.0251712,0.0351838,0.00295826,0.0359925,0.0243625,1.30394,0.0212093,0.0491138,566,1114,-32.741,-0.842155
-651,-90,-32.7169,1.30286,0.018476,0.0238593,0.000893892,0.0240039,0.0183315,1.41048,0.0144868,0.0331317,573,1114,-32.7168,-1.30281
-644,-90,-32.7147,1.78235,0.0130257,0.0160003,-0.000220402,0.0160165,0.0130095,-1.49724,0.00982985,0.0150233,580,1114,-32.7147,-1.78234
-637,-90,-32.7469,2.22058,0.00916048,0.00999874,-0.000961297,0.0106283,0.00853091,-0.990975,0.00650019,0.0124789,587,1114,-32.7469,-2.22062
-630,-90,-32.7687,2.58093,0.0061556,0.00559845,-0.00124674,0.00715452,0.00459954,-0.675483,0.00418651,0.0120526,594,1114,-32.7687,-2.58095
-623,-90,-32.7855,2.93152,0.00408756,0.00282342,-0.00141845,0.0050084,0.00190258,-0.575802,0.00291928,0.01069,601,1114,-32.7855,-2.93149
-616,-90,-32.8153,3.3064,0.00272546,0.00133776,-0.00125945,0.00346954,0.000593683,-0.533625,0.00214272,0.0129812,608,1114,-32.8153,-3.30643
-609,-90,-32.8232,3.63635,0.00207947,0.000540941,-0.000799017,0.00241935,0.000201064,-0.402184,0.00155023,0.0182351,615,1114,-32.8233,-3.63641
-602,-90,-32.8934,3.97803,0.0017333,-9.13863e-05,-0.000627844,0.00192846,-0.000286544,-0.30137,0.00139103,0.0192647,622,1114,-32.8934,-3.97809
-595,-90,-32.7559,4.38281,0.00152878,-0.00042939,-0.000761079,0.00178979,-0.000690406,-0.330384,0.00147809,0.0151152,629,1114,-32.7558,-4.38276
-588,-90,-32.7204,4.69861,0,0,0,0,0,0,0,-1,636,1114,-32.7204,-4.69858
-581,-90,-35.5354,1.06018,0,0,0,0,0,0,0,-1,643,1114,-35.5354,-1.06015
-574,-90,-35.4748,0.897461,0.00151829,-0.000970611,-0.000247953,0.00154276,-0.000995073,-0.0983354,0.00147655,0.0358659,650,1114,-35.4748,-0.897499
-567,-90,-35.4733,0.792969,0.00152415,-0.000939179,-0.000134683,0.00153149,-0.000946521,-0.054459,0.00144391,0.0348621,657,1114,-35.4734,-0.793026
-560,-90,-35.5035,0.865845,0.0014429,-0.000801883,8.07422e-06,0.00144293,-0.000801912,0.00359682,0.00131356,0.0371292,664,1114,-35.5035,-0.865887
-553,-90,-35.4177,0.856689,0.00100909,-0.000590788,0.000126375,0.00101901,-0.000600709,0.078343,0.000945483,0.0388892,671,1114,-35.4176,-0.856643
-546,-90,-35.3174,0.831421,0.000518102,-0.000380971,0.000359742,0.000644323,-0.000507193,0.337447,0.000666398,0.0402608,678,1114,-35.3174,-0.831363
-539,-90,-35.3856,0.816528,0.000685368,-0.000441875,0.000915324,0.00119668,-0.000953189,0.509434,0.00124388,0.0415327,685,1114,-35.3856,-0.816484
-532,-90,-35.4555,0.945923,0.000531546,-0.000457223,0.00175602,0.00186145,-0.00178713,0.648182,0.00210666,0.0416763,692,1114,-35.4555,-0.945868
-525,-90,0,0,0,0,0,0,0,0,0,-1,699,1114,0,0
-518,-90,0,0,0,0,0,0,0,0,0,-1,706,1114,0,0
-511,-90,0,0,0,0,0,0,0,0,0,-1,713,1114,0,0
-504,-90,0,0,0,0,0,0,0,0,0,-1,720,1114,0,0
-497,-90,0,0,0,0,0,0,0,0,0,-1,727,1114,0,0
-490,-90,0,0,0,0,0,0,0,0,0,-1,734,1114,0,0
-483,-90,0,0,0,0,0,0,0,0,0,-1,741,1114,0,0
-476,-90,0,0,0,0,0,0,0,0,0,-1,748,1114,0,0
-469,-90,0,0,0,0,0,0,0,0,0,-1,755,1114,0,0
-462,-90,0,0,0,0,0,0,0,0,0,-1,762,1114,0,0
-455,-90,0,0,0,0,0,0,0,0,0,-1,769,1114,0,0
-448,-90,0,0,0,0,0,0,0,0,0,-1,776,1114,0,0
-441,-90,0,0,0,0,0,0,0,0,0,-1,783,1114,0,0
-434,-90,0,0,0,0,0,0,0,0,0,-1,790,1114,0,0
-427,-90,0,0,0,0,0,0,0,0,0,-1,797,1114,0,0
-420,-90,0,0,0,0,0,0,0,0,0,-1,804,1114,0,0
-413,-90,0,0,0,0,0,0,0,0,0,-1,811,1114,0,0
-406,-90,0,0,0,0,0,0,0,0,0,-1,818,1114,0,0
-399,-90,0,0,0,0,0,0,0,0,0,-1,825,1114,0,0
-392,-90,0,0,0,0,0,0,0,0,0,-1,832,1114,0,0
-385,-90,0,0,0,0,0,0,0,0,0,-1,839,1114,0,0
-378,-90,0,0,0,0,0,0,0,0,0,-1,846,1114,0,0
-371,-90,0,0,0,0,0,0,0,0,0,-1,853,1114,0,0
-364,-90,0,0,0,0,0,0,0,0,0,-1,860,1114,0,0
-357,-90,0,0,0,0,0,0,0,0,0,-1,867,1114,0,0
-350,-90,0,0,0,0,0,0,0,0,0,-1,874,1114,0,0
-343,-90,0,0,0,0,0,0,0,0,0,-1,881,1114,0,0
-336,-90,0,0,0,0,0,0,0,0,0,-1,888,1114,0,0
-329,-90,0,0,0,0,0,0,0,0,0,-1,895,1114,0,0
-322,-90,0,0,0,0,0,0,0,0,0,-1,902,1114,0,0
-315,-90,0,0,0,0,0,0,0,0,0,-1,909,1114,0,0
-308,-90,0,0,0,0,0,0,0,0,0,-1,916,1114,0,0
-301,-90,0,0,0,0,0,0,0,0,0,-1,923,1114,0,0
-294,-90,0,0,0,0,0,0,0,0,0,-1,930,1114,0,0
-287,-90,0,0,0,0,0,0,0,0,0,-1,937,1114,0,0
-280,-90,0,0,0,0,0,0,0,0,0,-1,944,1114,0,0
-273,-90,0,0,0,0,0,0,0,0,0,-1,951,1114,0,0
-266,-90,0,0,0,0,0,0,0,0,0,-1,958,1114,0,0
-259,-90,0,0,0,0,0,0,0,0,0,-1,965,1114,0,0
-252,-90,0,0,0,0,0,0,0,0,0,-1,972,1114,0,0
-245,-90,0,0,0,0,0,0,0,0,0,-1,979,1114,0,0
-238,-90,0,0,0,0,0,0,0,0,0,-1,986,1114,0,0
-231,-90,0,0,0,0,0,0,0,0,0,-1,993,1114,0,0
-224,-90,0,0,0,0,0,0,0,0,0,-1,1000,1114,0,0
-217,-90,0,0,0,0,0,0,0,0,0,-1,1007,1114,0,0
-210,-90,0,0,0,0,0,0,0,0,0,-1,1014,1114,0,0
-203,-90,0,0,0,0,0,0,0,0,0,-1,1021,1114,0,0
-196,-90,0,0,0,0,0,0,0,0,0,-1,1028,1114,0,0
-189,-90,0,0,0,0,0,0,0,0,0,-1,1035,1114,0,0
-182,-90,0,0,0,0,0,0,0,0,0,-1,1042,1114,0,0
-175,-90,0,0,0,0,0,0,0,0,0,-1,1049,1114,0,0
-168,-90,0,0,0,0,0,0,0,0,0,-1,1056,1114,0,0
-161,-90,0,0,0,0,0,0,0,0,0,-1,1063,1114,0,0
-154,-90,0,0,0,0,0,0,0,0,0,-1,1070,1114,0,0
-147,-90,0,0,0,0,0,0,0,0,0,-1,1077,1114,0,0
-140,-90,0,0,0,0,0,0,0,0,0,-1,1084,1114,0,0
-133,-90,0,0,0,0,0,0,0,0,0,-1,1091,1114,0,0
-126,-90,0,0,0,0,0,0,0,0,0,-1,1098,1114,0,0
-119,-90,0,0,0,0,0,0,0,0,0,-1,1105,1114,0,0
-112,-90,0,0,0,0,0,0,0,0,0,-1,1112,1114,0,0
-105,-90,0,0,0,0,0,0,0,0,0,-1,1119,1114,0,0
-98,-90,0,0,0,0,0,0,0,0,0,-1,1126,1114,0,0
-91,-90,0,0,0,0,0,0,0,0,0,-1,1133,1114,0,0
-84,-90,0,0,0,0,0,0,0,0,0,-1,1140,1114,0,0
-77,-90,0,0,0,0,0,0,0,0,0,-1,1147,1114,0,0
-70,-90,0,0,0,0,0,0,0,0,0,-1,1154,1114,0,0
-63,-90,0,0,0,0,0,0,0,0,0,-1,1161,1114,0,0
-56,-90,0,0,0,0,0,0,0,0,0,-1,1168,1114,0,0
-49,-90,0,0,0,0,0,0,0,0,0,-1,1175,1114,0,0
-42,-90,0,0,0,0,0,0,0,0,0,-1,1182,1114,0,0
-35,-90,0,0,0,0,0,0,0,0,0,-1,1189,1114,0,0
-28,-90,0,0,0,0,0,0,0,0,0,-1,1196,1114,0,0
-21,-90,0,0,0,0,0,0,0,0,0,-1,1203,1114,0,0
-14,-90,0,0,0,0,0,0,0,0,0,-1,1210,1114,0,0
-7,-90,0,0,0,0,0,0,0,0,0,-1,1217,1114,0,0
0,-90,0,0,0,0,0,0,0,0,0,-1,1224,1114,0,0
7,-90,0,0,0,0,0,0,0,0,0,-1,1231,1114,0,0
14,-90,0,0,0,0,0,0,0,0,0,-1,1238,1114,0,0
21,-90,0,0,0,0,0,0,0,0,0,-1,1245,1114,0,0
28,-90,0,0,0,0,0,0,0,0,0,-1,1252,1114,0,0
35,-90,0,0,0,0,0,0,0,0,0,-1,1259,1114,0,0
42,-90,0,0,0,0,0,0,0,0,0,-1,1266,1114,0,0
49,-90,0,0,0,0,0,0,0,0,0,-1,1273,1114,0,0
56,-90,0,0,0,0,0,0,0,0,0,-1,1280,1114,0,0
63,-90,0,0,0,0,0,0,0,0,0,-1,1287,1114,0,0
70,-90,0,0,0,0,0,0,0,0,0,-1,1294,1114,0,0
77,-90,0,0,0,0,0,0,0,0,0,-1,1301,1114,0,0
84,-90,0,0,0,0,0,0,0,0,0,-1,1308,1114,0,0
91,-90,0,0,0,0,0,0,0,0,0,-1,1315,1114,0,0
98,-90,0,0,0,0,0,0,0,0,0,-1,1322,1114,0,0
105,-90,0,0,0,0,0,0,0,0,0,-1,1329,1114,0,0
112,-90,0,0,0,0,0,0,0,0,0,-1,1336,1114,0,0
119,-90,0,0,0,0,0,0,0,0,0,-1,1343,1114,0,0
126,-90,0,0,0,0,0,0,0,0,0,-1,1350,1114,0,0
133,-90,0,0,0,0,0,0,0,0,0,-1,1357,1114,0,0
140,-90,0,0,0,0,0,0,0,0,0,-1,1364,1114,0,0
147,-90,0,0,0,0,0,0,0,0,0,-1,1371,1114,0,0
154,-90,0,0,0,0,0,0,0,0,0,-1,1378,1114,0,0
161,-90,0,0,0,0,0,0,0,0,0,-1,1385,1114,0,0
168,-90,0,0,0,0,0,0,0,0,0,-1,1392,1114,0,0
175,-90,0,0,0,0,0,0,0,0,0,-1,1399,1114,0,0
182,-90,0,0,0,0,0,0,0,0,0,-1,1406,1114,0,0
189,-90,0,0,0,0,0,0,0,0,0,-1,1413,1114,0,0
196,-90,0,0,0,0,0,0,0,0,0,-1,1420,1114,0,0
203,-90,0,0,0,0,0,0,0,0,0,-1,1427,1114,0,0
210,-90,0,0,0,0,0,0,0,0,0,-1,1434,1114,0,0
217,-90,0,0,0,0,0,0,0,0,0,-1,1441,1114,0,0
224,-90,0,0,0,0,0,0,0,0,0,-1,1448,1114,0,0
231,-90,0,0,0,0,0,0,0,0,0,-1,1455,1114,0,0
238,-90,0,0,0,0,0,0,0,0,0,-1,1462,1114,0,0
245,-90,0,0,0,0,0,0,0,0,0,-1,1469,1114,0,0
252,-90,0,0,0,0,0,0,0,0,0,-1,1476,1114,0,0
259,-90,0,0,0,0,0,0,0,0,0,-1,1483,1114,0,0
266,-90,0,0,0,0,0,0,0,0,0,-1,1490,1114,0,0
273,-90,0,0,0,0,0,0,0,0,0,-1,1497,1114,0,0
280,-90,0,0,0,0,0,0,0,0,0,-1,1504,1114,0,0
287,-90,0,0,0,0,0,0,0,0,0,-1,1511,1114,0,0
294,-90,0,0,0,0,0,0,0,0,0,-1,1518,1114,0,0
301,-90,0,0,0,0,0,0,0,0,0,-1,1525,1114,0,0
308,-90,0,0,0,0,0,0,0,0,0,-1,1532,1114,0,0
315,-90,0,0,0,0,0,0,0,0,0,-1,1539,1114,0,0
322,-90,0,0,0,0,0,0,0,0,0,-1,1546,1114,0,0
329,-90,0,0,0,0,0,0,0,0,0,-1,1553,1114,0,0
336,-90,0,0,0,0,0,0,0,0,0,-1,1560,1114,0,0
343,-90,0,0,0,0,0,0,0,0,0,-1,1567,1114,0,0
350,-90,0,0,0,0,0,0,0,0,0,-1,1574,1114,0,0
357,-90,0,0,0,0,0,0,0,0,0,-1,1581,1114,0,0
364,-90,0,0,0,0,0,0,0,0,0,-1,1588,1114,0,0
371,-90,0,0,0,0,0,0,0,0,0,-1,1595,1114,0,0
378,-90,0,0,0,0,0,0,0,0,0,-1,1602,1114,0,0
385,-90,0,0,0,0,0,0,0,0,0,-1,1609,1114,0,0
392,-90,0,0,0,0,0,0,0,0,0,-1,1616,1114,0,0
399,-90,0,0,0,0,0,0,0,0,0,-1,1623,1114,0,0
406,-90,0,0,0,0,0,0,0,0,0,-1,1630,1114,0,0
413,-90,0,0,0,0,0,0,0,0,0,-1,1637,1114,0,0
420,-90,0,0,0,0,0,0,0,0,0,-1,1644,1114,0,0
427,-90,0,0,0,0,0,0,0,0,0,-1,1651,1114,0,0
434,-90,0,0,0,0,0,0,0,0,0,-1,1658,1114,0,0
441,-90,0,0,0,0,0,0,0,0,0,-1,1665,1114,0,0
448,-90,0,0,0,0,0,0,0,0,0,-1,1672,1114,0,0
455,-90,0,0,0,0,0,0,0,0,0,-1,1679,1114,0,0
462,-90,0,0,0,0,0,0,0,0,0,-1,1686,1114,0,0
469,-90,0,0,0,0,0,0,0,0,0,-1,1693,1114,0,0
476,-90,0,0,0,0,0,0,0,0,0,-1,1700,1114,0,0
483,-90,0,0,0,0,0,0,0,0,0,-1,1707,1114,0,0
490,-90,0,0,0,0,0,0,0,0,0,-1,1714,1114,0,0
497,-90,0,0,0,0,0,0,0,0,0,-1,1721,1114,0,0
504,-90,0,0,0,0,0,0,0,0,0,-1,1728,1114,0,0
511,-90,0,0,0,0,0,0,0,0,0,-1,1735,1114,0,0
518,-90,0,0,0,0,0,0,0,0,0,-1,1742,1114,0,0
525,-90,0,0,0,0,0,0,0,0,0,-1,1749,1114,0,0
532,-90,0,0,0,0,0,0,0,0,0,-1,1756,1114,0,0
539,-90,0,0,0,0,0,0,0,0,0,-1,1763,1114,0,0
546,-90,0,0,0,0,0,0,0,0,0,-1,1770,1114,0,0
553,-90,0,0,0,0,0,0,0,0,0,-1,1777,1114,0,0
560,-90,0,0,0,0,0,0,0,0,0,-1,1784,1114,0,0
567,-90,0,0,0,0,0,0,0,0,0,-1,1791,1114,0,0
574,-90,0,0,0,0,0,0,0,0,0,-1,1798,1114,0,0
581,-90,0,0,0,0,0,0,0,0,0,-1,1805,1114,0,0
588,-90,0,0,0,0,0,0,0,0,0,-1,1812,1114,0,0
595,-90,0,0,0,0,0,0,0,0,0,-1,1819,1114,0,0
602,-90,0,0,0,0,0,0,0,0,0,-1,1826,1114,0,0
609,-90,0,0,0,0,0,0,0,0,0,-1,1833,1114,0,0
616,-90,0,0,0,0,0,0,0,0,0,-1,1840,1114,0,0
623,-90,0,0,0,0,0,0,0,0,0,-1,1847,1114,0,0
630,-90,0,0,0,0,0,0,0,0,0,-1,1854,1114,0,0
637,-90,0,0,0,0,0,0,0,0,0,-1,1861,1114,0,0
644,-90,47.6781,2.61536,0.00684593,-0.0014909,0.00242051,0.00749773,-0.0021427,0.263046,0.00584514,0.0346105,1868,1114,47.6781,-2.61537
651,-90,47.6959,2.77673,0.00572957,-0.00119987,0.00122519,0.00593981,-0.00141012,0.169947,0.0045041,0.0375294,1875,1114,47.6959,-2.77671
658,-90,47.7235,2.89734,0.00492237,-0.00112825,0.000549101,0.0049718,-0.00117767,0.0897739,0.00376893,0.0427458,1882,1114,47.7235,-2.89739
665,-90,47.8488,2.8728,0.00415479,-0.00110376,0.000120533,0.00415755,-0.00110652,0.0229054,0.00320486,0.0454233,1889,1114,47.8488,-2.87275
672,-90,47.84,2.82947,0.00347851,-0.00108522,-0.000126769,0.00348203,-0.00108874,-0.0277489,0.00275688,0.0431908,1896,1114,47.84,-2.82942
679,-90,47.8201,2.85828,0.00267279,-0.00116293,-0.00013837,0.00267778,-0.00116792,-0.0360117,0.00227664,0.0379802,1903,1114,47.82,-2.85831
686,-90,47.853,2.77429,0.00202954,-0.00133925,2.20427e-05,0.00202968,-0.00133939,0.00654284,0.0019587,0.0337186,1910,1114,47.853,-2.77432
693,-90,47.8546,2.76099,0.00160508,-0.00146386,0.000234383,0.00162288,-0.00148166,0.0757867,0.00179303,0.0347113,1917,1114,47.8547,-2.76096
700,-90,47.8511,2.78625,0.00123606,-0.00147423,0.000485045,0.00132025,-0.00155842,0.17186,0.0016639,0.0297456,1924,1114,47.851,-2.78619
707,-90,47.8335,2.7583,0.000790255,-0.00139614,0.000752826,0.0010244,-0.00163028,0.301533,0.00154593,0.0206735,1931,1114,47.8335,-2.75829
714,-90,47.8475,2.70764,0,0,0,0,0,0,0,-1,1938,1114,47.8476,-2.70766
721,-90,45.0336,7.18665,0,0,0,0,0,0,0,-1,1945,1114,45.0336,-7.1867
728,-90,45.0052,6.95679,-0.000894433,-0.000636137,0.00143413,0.00067465,-0.00220522,0.830304,0.00173921,0.0295503,1952,1114,45.0053,-6.95682
735,-90,44.8248,6.6001,-0.00147441,-0.000214361,0.0017925,0.00105561,-0.00274438,0.954393,0.002265,0.0328162,1959,1114,44.8249,-6.60015
742,-90,44.9324,6.22803,-0.00194774,0.000549963,0.00198275,0.00164439,-0.00304217,1.06644,0.00274561,0.0273499,1966,1114,44.9323,-6.22809
749,-90,45.1425,5.85999,-0.00254905,0.00244094,0.00125987,0.00274099,-0.00284909,1.33699,0.00322764,0.0182385,1973,1114,45.1424,-5.86001
756,-90,45.1139,5.60815,-0.00304664,0.00446207,0.000359361,0.00447923,-0.0030638,1.52308,0.00438045,0.0160211,1980,1114,45.1139,-5.60815
763,-90,45.0446,5.32153,-0.00356548,0.00706558,-0.00101768,0.00716212,-0.00366202,-1.47621,0.0063573,0.012525,1987,1114,45.0445,-5.32152
770,-90,44.9794,5.01794,-0.00416984,0.0105846,-0.00290976,0.0111377,-0.00472294,-1.38295,0.0094035,0.0164683,1994,1114,44.9794,-5.01789
777,-90,44.8848,4.77112,-0.00487417,0.0145726,-0.00529099,0.0159189,-0.00622051,-1.32163,0.0131847,0.0156886,2001,1114,44.8847,-4.77113
784,-90,44.7903,4.55322,-0.00566091,0.0189224,-0.00822172,0.0214186,-0.00815714,-1.27603,0.0176385,0.0287564,2008,1114,44.7903,-4.55317
791,-90,44.7366,4.40369,-0.0066708,0.0236141,-0.0118652,0.027709,-0.0107657,-1.23848,0.0229201,0.0441265,2015,1114,44.7367,-4.40371
798,-90,44.7402,4.25891,-0.00789138,0.0284696,-0.016293,0.0347021,-0.0141239,-1.20545,0.0290122,0.0470511,2022,1114,44.7402,-4.25885
805,-90,44.6963,4.04492,0,0,0,0,0,0,0,-1,2029,1114,44.6963,-4.04494
812,-90,44.8286,2.7489,0,0,0,0,0,0,0,-1,2036,1114,44.8286,-2.74895
-700,-97,0,0,0,0,0,0,0,0,0,-1,524,1121,0,0
-693,-97,-27.3789,-5.2876,0,0,0,0,0,0,0,-1,531,1121,-27.3789,5.28763
-686,-97,-27.7833,-5.90405,0,0,0,0,0,0,0,-1,538,1121,-27.7833,5.9041
-679,-97,-33.6703,0.594238,0,0,0,0,0,0,0,-1,545,1121,-33.6703,-0.594193
-672,-97,-34.1487,0.926636,0,0,0,0,0,0,0,-1,552,1121,-34.1487,-0.926607
-665,-97,-32.6715,0.53772,0,0,0,0,0,0,0,-1,559,1121,-32.6715,-0.537706
-658,-97,-32.5742,0.981812,0.0271853,0.023353,-0.00073203,0.0273204,0.0232179,-0.182458,0.0170118,0.044022,566,1121,-32.5742,-0.981786
-651,-97,-32.3761,1.39343,0.0189761,0.0161057,-0.00139847,0.0195448,0.0155371,-0.386223,0.0119207,0.0311264,573,1121,-32.3761,-1.39343
-644,-97,-32.3538,1.78198,0.0128281,0.0111282,-0.00162125,0.0138087,0.0101476,-0.543975,0.00826043,0.0117323,580,1121,-32.3538,-1.78197
-637,-97,-32.3832,2.1792,0.00871586,0.00728882,-0.00162242,0.00977473,0.00622995,-0.578233,0.00571398,0.0121071,587,1121,-32.3831,-2.17919
-630,-97,-32.3931,2.54578,0.00568704,0.00431071,-0.0014417,0.00659639,0.00340135,-0.562725,0.00380905,0.0100667,594,1121,-32.3931,-2.54573
-623,-97,-32.3982,2.92102,0.00371378,0.00222199,-0.00133283,0.00449524,0.00144053,-0.530293,0.00265051,0.0126868,601,1121,-32.3982,-2.92107
-616,-97,-32.4557,3.32141,0.00245117,0.00102706,-0.000972304,0.00294427,0.000533957,-0.469346,0.00181129,0.0191269,608,1121,-32.4557,-3.32144
-609,-97,-32.5433,3.70789,0.00182429,0.000297651,-0.000403496,0.00192437,0.000197567,-0.243136,0.00122239,0.0253622,615,1121,-32.5433,-3.70783
-602,-97,-32.5591,4.00171,0.00160094,-0.00022392,-0.000255753,0.0016361,-0.000259086,-0.136643,0.00118656,0.0236833,622,1121,-32.5591,-4.00169
-595,-97,-32.3928,4.39319,0.00140334,-0.000550807,-0.000404288,0.00148368,-0.000631146,-0.196162,0.00125363,0.0173946,629,1121,-32.3927,-4.39325
-588,-97,-32.3906,4.76575,0,0,0,0,0,0,0,-1,636,1121,-32.3906,-4.76576
-581,-97,-35.5558,1.11877,0,0,0,0,0,0,0,-1,643,1121,-35.5559,-1.11872
-574,-97,-35.5221,1.03467,0.00130752,-0.00101786,4.83042e-05,0.00130852,-0.00101886,0.0207607,0.00134718,0.0492739,650,1121,-35.5221,-1.03472
-567,-97,-35.4286,0.925781,0.00131869,-0.000978138,0.000111646,0.0013241,-0.000983552,0.0484563,0.00133715,0.0350048,657,1121,-35.4286,-0.925748
-560,-97,-35.4404,1.06567,0.00125215,-0.000827996,0.000184279,0.00126834,-0.000844195,0.0876798,0.00122784,0.0378245,664,1121,-35.4404,-1.06568
-553,-97,-35.48,1.15991,0.00076402,-0.000586931,0.000177015,0.000786829,-0.00060974,0.128148,0.000808467,0.0416641,671,1121,-35.48,-1.15987
-546,-97,-35.1553,0.581177,0.000169223,-0.00031132,0.000258169,0.000281629,-0.000423726,0.410645,0.000409982,0.0417395,678,1121,-35.1553,-0.581144
-539,-97,-35.2971,0.725708,0.000171175,-0.000249149,0.000735889,0.000726324,-0.000804297,0.646306,0.000884087,0.0396753,685,1121,-35.297,-0.725671
-532,-97,-35.4894,1.0033,-8.50708e-05,-0.000183451,0.00155804,0.00142456,-0.00169308,0.769617,0.00180219,0.0389681,692,1121,-35.4894,-1.00331
-525,-97,0,0,0,0,0,0,0,0,0,-1,699,1121,0,0
-518,-97,0,0,0,0,0,0,0,0,0,-1,706,1121,0,0
-511,-97,0,0,0,0,0,0,0,0,0,-1,713,1121,0,0
-504,-97,0,0,0,0,0,0,0,0,0,-1,720,1121,0,0
-497,-97,0,0,0,0,0,0,0,0,0,-1,727,1121,0,0
-490,-97,0,0,0,0,0,0,0,0,0,-1,734,1121,0,0
-483,-97,0,0,0,0,0,0,0,0,0,-1,741,1121,0,0
-476,-97,0,0,0,0,0,0,0,0,0,-1,748,1121,0,0
-469,-97,0,0,0,0,0,0,0,0,0,-1,755,1121,0,0
-462,-97,0,0,0,0,0,0,0,0,0,-1,762,1121,0,0
-455,-97,0,0,0,0,0,0,0,0,0,-1,769,1121,0,0
-448,-97,0,0,0,0,0,0,0,0,0,-1,776,1121,0,0
-441,-97,0,0,0,0,0,0,0,0,0,-1,783,1121,0,0
-434,-97,0,0,0,0,0,0,0,0,0,-1,790,1121,0,0
-427,-97,0,0,0,0,0,0,0,0,0,-1,797,1121,0,0
-420,-97,0,0,0,0,0,0,0,0,0,-1,804,1121,0,0
-413,-97,0,0,0,0,0,0,0,0,0,-1,811,1121,0,0
-406,-97,0,0,0,0,0,0,0,0,0,-1,818,1121,0,0
-399,-97,0,0,0,0,0,0,0,0,0,-1,825,1121,0,0
-392,-97,0,0,0,0,0,0,0,0,0,-1,832,1121,0,0
-385,-97,0,0,0,0,0,0,0,0,0,-1,839,1121,0,0
-378,-97,0,0,0,0,0,0,0,0,0,-1,846,1121,0,0
-371,-97,0,0,0,0,0,0,0,0,0,-1,853,1121,0,0
-364,-97,0,0,0,0,0,0,0,0,0,-1,860,1121,0,0
-357,-97,0,0,0,0,0,0,0,0,0,-1,867,1121,0,0
-350,-97,0,0,0,0,0,0,0,0,0,-1,874,1121,0,0
-343,-97,0,0,0,0,0,0,0,0,0,-1,881,1121,0,0
-336,-97,0,0,0,0,0,0,0,0,0,-1,888,1121,0,0
-329,-97,0,0,0,0,0,0,0,0,0,-1,895,1121,0,0
-322,-97,0,0,0,0,0,0,0,0,0,-1,902,1121,0,0
-315,-97,0,0,0,0,0,0,0,0,0,-1,909,1121,0,0
-308,-97,0,0,0,0,0,0,0,0,0,-1,916,1121,0,0
-301,-97,0,0,0,0,0,0,0,0,0,-1,923,1121,0,0
-294,-97,0,0,0,0,0,0,0,0,0,-1,930,1121,0,0
-287,-97,0,0,0,0,0,0,0,0,0,-1,937,1121,0,0
-280,-97,0,0,0,0,0,0,0,0,0,-1,944,1121,0,0
-273,-97,0,0,0,0,0,0,0,0,0,-1,951,1121,0,0
-266,-97,0,0,0,0,0,0,0,0,0,-1,958,1121,0,0
-259,-97,0,0,0,0,0,0,0,0,0,-1,965,1121,0,0
-252,-97,0,0,0,0,0,0,0,0,0,-1,972,1121,0,0
-245,-97,0,0,0,0,0,0,0,0,0,-1,979,1121,0,0
-238,-97,0,0,0,0,0,0,0,0,0,-1,986,1121,0,0
-231,-97,0,0,0,0,0,0,0,0,0,-1,993,1121,0,0
-224,-97,0,0,0,0,0,0,0,0,0,-1,1000,1121,0,0
-217,-97,0,0,0,0,0,0,0,0,0,-1,1007,1121,0,0
-210,-97,0,0,0,0,0,0,0,0,0,-1,1014,1121,0,0
-203,-97,0,0,0,0,0,0,0,0,0,-1,1021,1121,0,0
-196,-97,0,0,0,0,0,0,0,0,0,-1,1028,1121,0,0
-189,-97,0,0,0,0,0,0,0,0,0,-1,1035,1121,0,0
-182,-97,0,0,0,0,0,0,0,0,0,-1,1042,1121,0,0
-175,-97,0,0,0,0,0,0,0,0,0,-1,1049,1121,0,0
-168,-97,0,0,0,0,0,0,0,0,0,-1,1056,1121,0,0
-161,-97,0,0,0,0,0,0,0,0,0,-1,1063,1121,0,0
-154,-97,0,0,0,0,0,0,0,0,0,-1,1070,1121,0,0
-147,-97,0,0,0,0,0,0,0,0,0,-1,1077,1121,0,0
-140,-97,0,0,0,0,0,0,0,0,0,-1,1084,1121,0,0
-133,-97,0,0,0,0,0,0,0,0,0,-1,1091,1121,0,0
-126,-97,0,0,0,0,0,0,0,0,0,-1,1098,1121,0,0
-119,-97,0,0,0,0,0,0,0,0,0,-1,1105,1121,0,0
-112,-97,0,0,0,0,0,0,0,0,0,-1,1112,1121,0,0
-105,-97,0,0,0,0,0,0,0,0,0,-1,1119,1121,0,0
-98,-97,0,0,0,0,0,0,0,0,0,-1,1126,1121,0,0
-91,-97,0,0,0,0,0,0,0,0,0,-1,1133,1121,0,0
-84,-97,0,0,0,0,0,0,0,0,0,-1,1140,1121,0,0
-77,-97,0,0,0,0,0,0,0,0,0,-1,1147,1121,0,0
-70,-97,0,0,0,0,0,0,0,0,0,-1,1154,1121,0,0
-63,-97,0,0,0,0,0,0,0,0,0,-1,1161,1121,0,0
-56,-97,0,0,0,0,0,0,0,0,0,-1,1168,1121,0,0
-49,-97,0,0,0,0,0,0,0,0,0,-1,1175,1121,0,0
-42,-97,0,0,0,0,0,0,0,0,0,-1,1182,1121,0,0
-35,-97,0,0,0,0,0,0,0,0,0,-1,1189,1121,0,0
-28,-97,0,0,0,0,0,0,0,0,0,-1,1196,1121,0,0
-21,-97,0,0,0,0,0,0,0,0,0,-1,1203,1121,0,0
-14,-97,0,0,0,0,0,0,0,0,0,-1,1210,1121,0,0
-7,-97,0,0,0,0,0,0,0,0,0,-1,1217,1121,0,0
0,-97,0,0,0,0,0,0,0,0,0,-1,1224,1121,0,0
7,-97,0,0,0,0,0,0,0,0,0,-1,1231,1121,0,0
14,-97,0,0,0,0,0,0,0,0,0,-1,1238,1121,0,0
21,-97,0,0,0,0,0,0,0,0,0,-1,1245,1121,0,0
28,-97,0,0,0,0,0,0,0,0,0,-1,1252,1121,0,0
35,-97,0,0,0,0,0,0,0,0,0,-1,1259,1121,0,0
42,-97,0,0,0,0,0,0,0,0,0,-1,1266,1121,0,0
49,-97,0,0,0,0,0,0,0,0,0,-1,1273,1121,0,0
56,-97,0,0,0,0,0,0,0,0,0,-1,1280,1121,0,0
63,-97,0,0,0,0,0,0,0,0,0,-1,1287,1121,0,0
70,-97,0,0,0,0,0,0,0,0,0,-1,1294,1121,0,0
77,-97,0,0,0,0,0,0,0,0,0,-1,1301,1121,0,0
84,-97,0,0,0,0,0,0,0,0,0,-1,1308,1121,0,0
91,-97,0,0,0,0,0,0,0,0,0,-1,1315,1121,0,0
98,-97,0,0,0,0,0,0,0,0,0,-1,1322,1121,0,0
105,-97,0,0,0,0,0,0,0,0,0,-1,1329,1121,0,0
112,-97,0,0,0,0,0,0,0,0,0,-1,1336,1121,0,0
119,-97,0,0,0,0,0,0,0,0,0,-1,1343,1121,0,0
126,-97,0,0,0,0,0,0,0,0,0,-1,1350,1121,0,0
133,-97,0,0,0,0,0,0,0,0,0,-1,1357,1121,0,0
140,-97,0,0,0,0,0,0,0,0,0,-1,1364,1121,0,0
147,-97,0,0,0,0,0,0,0,0,0,-1,1371,1121,0,0
154,-97,0,0,0,0,0,0,0,0,0,-1,1378,1121,0,0
161,-97,0,0,0,0,0,0,0,0,0,-1,1385,1121,0,0
168,-97,0,0,0,0,0,0,0,0,0,-1,1392,1121,0,0
175,-97,0,0,0,0,0,0,0,0,0,-1,1399,1121,0,0
182,-97,0,0,0,0,0,0,0,0,0,-1,1406,1121,0,0
189,-97,0,0,0,0,0,0,0,0,0,-1,1413,1121,0,0
196,-97,0,0,0,0,0,0,0,0,0,-1,1420,1121,0,0
203,-97,0,0,0,0,0,0,0,0,0,-1,1427,1121,0,0
210,-97,0,0,0,0,0,0,0,0,0,-1,1434,1121,0,0
217,-97,0,0,0,0,0,0,0,0,0,-1,1441,1121,0,0
224,-97,0,0,0,0,0,0,0,0,0,-1,1448,1121,0,0
231,-97,0,0,0,0,0,0,0,0,0,-1,1455,1121,0,0
238,-97,0,0,0,0,0,0,0,0,0,-1,1462,1121,0,0
245,-97,0,0,0,0,0,0,0,0,0,-1,1469,1121,0,0
252,-97,0,0,0,0,0,0,0,0,0,-1,1476,1121,0,0
259,-97,0,0,0,0,0,0,0,0,0,-1,1483,1121,0,0
266,-97,0,0,0,0,0,0,0,0,0,-1,1490,1121,0,0
273,-97,0,0,0,0,0,0,0,0,0,-1,1497,1121,0,0
280,-97,0,0,0,0,0,0,0,0,0,-1,1504,1121,0,0
287,-97,0,0,0,0,0,0,0,0,0,-1,1511,1121,0,0
294,-97,0,0,0,0,0,0,0,0,0,-1,1518,1121,0,0
301,-97,0,0,0,0,0,0,0,0,0,-1,1525,1121,0,0
308,-97,0,0,0,0,0,0,0,0,0,-1,1532,1121,0,0
315,-97,0,0,0,0,0,0,0,0,0,-1,1539,1121,0,0
322,-97,0,0,0,0,0,0,0,0,0,-1,1546,1121,0,0
329,-97,0,0,0,0,0,0,0,0,0,-1,1553,1121,0,0
336,-97,0,0,0,0,0,0,0,0,0,-1,1560,1121,0,0
343,-97,0,0,0,0,0,0,0,0,0,-1,1567,1121,0,0
350,-97,0,0,0,0,0,0,0,0,0,-1,1574,1121,0,0
357,-97,0,0,0,0,0,0,0,0,0,-1,1581,1121,0,0
364,-97,0,0,0,0,0,0,0,0,0,-1,1588,1121,0,0
371,-97,0,0,0,0,0,0,0,0,0,-1,1595,1121,0,0
378,-97,0,0,0,0,0,0,0,0,0,-1,1602,1121,0,0
385,-97,0,0,0,0,0,0,0,0,0,-1,1609,1121,0,0
392,-97,0,0,0,0,0,0,0,0,0,-1,1616,1121,0,0
399,-97,0,0,0,0,0,0,0,0,0,-1,1623,1121,0,0
406,-97,0,0,0,0,0,0,0,0,0,-1,1630,1121,0,0
413,-97,0,0,0,0,0,0,0,0,0,-1,1637,1121,0,0
420,-97,0,0,0,0,0,0,0,0,0,-1,1644,1121,0,0
427,-97,0,0,0,0,0,0,0,0,0,-1,1651,1121,0,0
434,-97,0,0,0,0,0,0,0,0,0,-1,1658,1121,0,0
441,-97,0,0,0,0,0,0,0,0,0,-1,1665,1121,0,0
448,-97,0,0,0,0,0,0,0,0,0,-1,1672,1121,0,0
455,-97,0,0,0,0,0,0,0,0,0,-1,1679,1121,0,0
462,-97,0,0,0,0,0,0,0,0,0,-1,1686,1121,0,0
469,-97,0,0,0,0,0,0,0,0,0,-1,1693,1121,0,0
476,-97,0,0,0,0,0,0,0,0,0,-1,1700,1121,0,0
483,-97,0,0,0,0,0,0,0,0,0,-1,1707,1121,0,0
490,-97,0,0,0,0,0,0,0,0,0,-1,1714,1121,0,0
497,-97,0,0,0,0,0,0,0,0,0,-1,1721,1121,0,0
504,-97,0,0,0,0,0,0,0,0,0,-1,1728,1121,0,0
511,-97,0,0,0,0,0,0,0,0,0,-1,1735,1121,0,0
518,-97,0,0,0,0,0,0,0,0,0,-1,1742,1121,0,0
525,-97,0,0,0,0,0,0,0,0,0,-1,1749,1121,0,0
532,-97,0,0,0,0,0,0,0,0,0,-1,1756,1121,0,0
539,-97,0,0,0,0,0,0,0,0,0,-1,1763,1121,0,0
546,-97,0,0,0,0,0,0,0,0,0,-1,1770,1121,0,0
553,-97,0,0,0,0,0,0,0,0,0,-1,1777,1121,0,0
560,-97,0,0,0,0,0,0,0,0,0,-1,1784,1121,0,0
567,-97,0,0,0,0,0,0,0,0,0,-1,1791,1121,0,0
574,-97,0,0,0,0,0,0,0,0,0,-1,1798,1121,0,0
581,-97,0,0,0,0,0,0,0,0,0,-1,1805,1121,0,0
588,-97,0,0,0,0,0,0,0,0,0,-1,1812,1121,0,0
595,-97,0,0,0,0,0,0,0,0,0,-1,1819,1121,0,0
602,-97,0,0,0,0,0,0,0,0,0,-1,1826,1121,0,0
609,-97,0,0,0,0,0,0,0,0,0,-1,1833,1121,0,0
616,-97,0,0,0,0,0,0,0,0,0,-1,1840,1121,0,0
623,-97,0,0,0,0,0,0,0,0,0,-1,1847,1121,0,0
630,-97,0,0,0,0,0,0,0,0,0,-1,1854,1121,0,0
637,-97,0,0,0,0,0,0,0,0,0,-1,1861,1121,0,0
644,-97,47.7332,2.54211,0.00684433,-0.00271727,0.00118802,0.00698973,-0.00286267,0.121782,0.00585228,0.0357579,1868,1121,47.7331,-2.54211
651,-97,47.8401,2.64514,0.00560696,-0.00203955,0.000415538,0.00562948,-0.00206207,0.0541309,0.00459717,0.0367021,1875,1121,47.8401,-2.64518
658,-97,47.8457,2.72583,0.00478395,-0.00166956,-1.85643e-05,0.004784,-0.00166961,-0.00287659,0.00386791,0.0403846,1882,1121,47.8458,-2.72584
665,-97,47.9183,2.89917,0.00401128,-0.00141403,-0.000299272,0.00402774,-0.00143048,-0.0549401,0.00326806,0.0446172,1889,1121,47.9184,-2.89911
672,-97,47.9348,2.98694,0.00334563,-0.00122155,-0.000448279,0.00338922,-0.00126513,-0.0969197,0.0027789,0.042869,1896,1121,47.9348,-2.98692
679,-97,47.7451,3.0658,0.00258008,-0.00120242,-0.000396518,0.0026212,-0.00124354,-0.103333,0.00227808,0.0392231,1903,1121,47.7451,-3.06577
686,-97,47.7289,2.87708,0.0020069,-0.00129894,-0.000229011,0.00202269,-0.00131473,-0.0688365,0.00194126,0.0360745,1910,1121,47.7288,-2.87706
693,-97,47.8385,2.68433,0.00164415,-0.00136189,-2.96264e-05,0.00164444,-0.00136219,-0.00985434,0.00173843,0.0333279,1917,1121,47.8385,-2.68431
700,-97,47.8472,2.73242,0.00132058,-0.00134678,0.000232466,0.00134068,-0.00136689,0.0862853,0.00156324,0.0264776,1924,1121,47.8472,-2.73245
707,-97,47.8291,2.76343,0.000912737,-0.00128615,0.000519073,0.00102911,-0.00140253,0.220549,0.00140941,0.0225475,1931,1121,47.8291,-2.76347
714,-97,47.8431,2.72278,0,0,0,0,0,0,0,-1,1938,1121,47.8431,-2.72284
721,-97,44.7739,7.13647,0,0,0,0,0,0,0,-1,1945,1121,44.774,-7.13646
728,-97,44.7444,6.93506,-0.000675189,-0.000611539,0.0012401,0.000597146,-0.00188387,0.798227,0.00149525,0.0265191,1952,1121,44.7444,-6.93506
735,-97,44.703,6.55371,-0.00114008,-0.000354079,0.00164907,0.000948174,-0.00244234,0.902375,0.00201988,0.0253872,1959,1121,44.7031,-6.55371
742,-97,44.6906,6.21887,-0.00156671,0.000299005,0.00187268,0.00145831,-0.00272601,1.01648,0.0024525,0.0189825,1966,1121,44.6906,-6.21886
749,-97,44.7581,5.87122,-0.00239501,0.0018695,0.00139279,0.00228408,-0.00280959,1.28149,0.00294604,0.0207164,1973,1121,44.758,-5.8712
756,-97,44.7632,5.55591,-0.00334426,0.00363935,0.000804117,0.00373074,-0.00343565,1.45763,0.00413869,0.0158708,1980,1121,44.7632,-5.55587
763,-97,44.6786,5.29065,-0.00435147,0.00589717,-0.000201324,0.00590112,-0.00435542,-1.55116,0.00594399,0.0124108,1987,1121,44.6786,-5.29062
770,-97,44.6312,5.02087,-0.00577693,0.00885747,-0.00152497,0.00901469,-0.00593415,-1.46806,0.00869158,0.0116406,1994,1121,44.6312,-5.02091
777,-97,44.5992,4.70972,-0.00762007,0.0121617,-0.0031798,0.0126602,-0.00811864,-1.41527,0.0120918,0.0161708,2001,1121,44.5992,-4.70971
784,-97,44.4849,4.29785,-0.00997174,0.015819,-0.00526138,0.0168511,-0.0110038,-1.3771,0.0161997,0.0358996,2008,1121,44.4848,-4.29791
791,-97,44.8174,3.55811,-0.0131488,0.0197603,-0.00783599,0.0215309,-0.0149193,-1.34857,0.0211596,0.042602,2015,1121,44.8173,-3.55816
798,-97,45.137,3.12512,-0.0172963,0.0238442,-0.0109385,0.0265717,-0.0200239,-1.32643,0.0269903,0.0436742,2022,1121,45.137,-3.12509
805,-97,45.1099,2.73584,-0.0229399,0.0277478,-0.0144248,0.0315653,-0.0267574,-1.31208,0.0337107,0.0450543,2029,1121,45.1099,-2.7358
812,-97,45.1375,2.35632,0,0,0,0,0,0,0,-1,2036,1121,45.1374,-2.35628
-700,-104,0,0,0,0,0,0,0,0,0,-1,524,1128,0,0
-693,-104,-26.4591,-6.70862,0,0,0,0,0,0,0,-1,531,1128,-26.4591,6.70865
-686,-104,-25.3441,-7.01746,0,0,0,0,0,0,0,-1,538,1128,-25.344,7.01751
-679,-104,-24.0389,-7.48706,0,0,0,0,0,0,0,-1,545,1128,-24.0389,7.48706
-672,-104,-31.0214,0.569092,0,0,0,0,0,0,0,-1,552,1128,-31.0213,-0.569082
-665,-104,-31.6107,0.919189,0,0,0,0,0,0,0,-1,559,1128,-31.6106,-0.919188
-658,-104,-32.1446,1.09631,0,0,0,0,0,0,0,-1,566,1128,-32.1446,-1.09633
-651,-104,-32.0496,1.40247,0.0189394,0.00851273,-0.00294333,0.0197129,0.00773924,-0.256983,0.0114684,0.0390159,573,1128,-32.0496,-1.4024
-644,-104,-31.9726,1.76575,0.0122374,0.00668949,-0.00258248,0.0132534,0.00567345,-0.374835,0.00767821,0.0156131,580,1128,-31.9726,-1.76577
-637,-104,-31.9845,2.16431,0.00804722,0.00496085,-0.00214173,0.00914381,0.00386426,-0.473211,0.00530022,0.0111332,587,1128,-31.9845,-2.16427
-630,-104,-31.9894,2.49402,0.00502253,0.00329418,-0.00169666,0.00606242,0.00225429,-0.549853,0.00353826,0.0150266,594,1128,-31.9894,-2.49406
-623,-104,-32.0029,2.90967,0.00314513,0.00178038,-0.00139252,0.00401349,0.000912027,-0.557579,0.0024294,0.01794,601,1128,-32.0029,-2.90962
-616,-104,-32.2308,3.35791,0.0019805,0.000781501,-0.000855567,0.0024257,0.000336303,-0.479798,0.00151751,0.0220635,608,1128,-32.2308,-3.35792
-609,-104,-32.3542,3.61902,0.00140695,0.000148951,-0.000197613,0.00143726,0.00011864,-0.152203,0.000921177,0.0276476,615,1128,-32.3542,-3.61905
-602,-104,-32.1669,4.01025,0.00133582,-0.000204396,-6.54958e-05,0.0013386,-0.000207176,-0.0424218,0.000968868,0.0256082,622,1128,-32.1669,-4.01029
-595,-104,-31.9973,4.46704,0.00116745,-0.000484149,-0.000227783,0.00119829,-0.000514988,-0.13457,0.00101505,0.0181637,629,1128,-31.9973,-4.46704
-588,-104,-31.9214,4.92065,0,0,0,0,0,0,0,-1,636,1128,-31.9214,-4.92063
-581,-104,-23.9373,2.85864,0,0,0,0,0,0,0,-1,643,1128,-23.9373,-2.85861
-574,-104,-35.509,1.07947,0,0,0,0,0,0,0,-1,650,1128,-35.509,-1.0795
-567,-104,-35.4068,0.935669,0.00102716,-0.000630954,0.000246254,0.00106296,-0.000666753,0.144365,0.00100734,0.0347639,657,1128,-35.4068,-0.935698
-560,-104,-35.4832,1.21582,0.000985707,-0.000442766,0.000310325,0.00105021,-0.000507269,0.204939,0.000917243,0.0400641,664,1128,-35.4831,-1.21585
-553,-104,-35.6545,1.31238,0.000437605,-0.000163286,0.000254737,0.000531061,-0.000256742,0.351626,0.000463939,0.0459656,671,1128,-35.6545,-1.31242
-546,-104,-35.4567,0.659302,-0.000329419,0.000177104,0.000276798,0.00029902,-0.000451336,1.15591,0.000436183,0.0445887,678,1128,-35.4567,-0.65934
-539,-104,-35.46,0.811401,-0.000696405,0.000347522,0.000740258,0.000731333,-0.00108022,1.09247,0.00105234,0.0398407,685,1128,-35.4599,-0.811452
-532,-104,-35.4973,1.06519,-0.0012876,0.00050137,0.00162489,0.00146171,-0.00224794,1.03701,0.00215775,0.0413924,692,1128,-35.4973,-1.06522
-525,-104,-35.4215,1.08105,-0.00227413,0.000683106,0.00291303,0.0024713,-0.00406233,1.02025,0.00380929,0.0398293,699,1128,-35.4215,-1.0811
-518,-104,0,0,0,0,0,0,0,0,0,-1,706,1128,0,0
-511,-104,0,0,0,0,0,0,0,0,0,-1,713,1128,0,0
-504,-104,0,0,0,0,0,0,0,0,0,-1,720,1128,0,0
-497,-104,0,0,0,0,0,0,0,0,0,-1,727,1128,0,0
-490,-104,0,0,0,0,0,0,0,0,0,-1,734,1128,0,0
-483,-104,0,0,0,0,0,0,0,0,0,-1,741,1128,0,0
-476,-104,0,0,0,0,0,0,0,0,0,-1,748,1128,0,0
-469,-104,0,0,0,0,0,0,0,0,0,-1,755,1128,0,0
-462,-104,0,0,0,0,0,0,0,0,0,-1,762,1128,0,0
-455,-104,0,0,0,0,0,0,0,0,0,-1,769,1128,0,0
-448,-104,0,0,0,0,0,0,0,0,0,-1,776,1128,0,0
-441,-104,0,0,0,0,0,0,0,0,0,-1,783,1128,0,0
-434,-104,0,0,0,0,0,0,0,0,0,-1,790,1128,0,0
-427,-104,0,0,0,0,0,0,0,0,0,-1,797,1128,0,0
-420,-104,0,0,0,0,0,0,0,0,0,-1,804,1128,0,0
-413,-104,0,0,0,0,0,0,0,0,0,-1,811,1128,0,0
-406,-104,0,0,0,0,0,0,0,0,0,-1,818,1128,0,0
-399,-104,0,0,0,0,0,0,0,0,0,-1,825,1128,0,0
-392,-104,0,0,0,0,0,0,0,0,0,-1,832,1128,0,0
-385,-104,0,0,0,0,0,0,0,0,0,-1,839,1128,0,0
-378,-104,0,0,0,0,0,0,0,0,0,-1,846,1128,0,0
-371,-104,0,0,0,0,0,0,0,0,0,-1,853,1128,0,0
-364,-104,0,0,0,0,0,0,0,0,0,-1,860,1128,0,0
-357,-104,0,0,0,0,0,0,0,0,0,-1,867,1128,0,0
-350,-104,0,0,0,0,0,0,0,0,0,-1,874,1128,0,0
-343,-104,0,0,0,0,0,0,0,0,0,-1,881,1128,0,0
-336,-104,0,0,0,0,0,0,0,0,0,-1,888,1128,0,0
-329,-104,0,0,0,0,0,0,0,0,0,-1,895,1128,0,0
-322,-104,0,0,0,0,0,0,0,0,0,-1,902,1128,0,0
-315,-104,0,0,0,0,0,0,0,0,0,-1,909,1128,0,0
-308,-104,0,0,0,0,0,0,0,0,0,-1,916,1128,0,0
-301,-104,0,0,0,0,0,0,0,0,0,-1,923,1128,0,0
-294,-104,0,0,0,0,0,0,0,0,0,-1,930,1128,0,0
-287,-104,0,0,0,0,0,0,0,0,0,-1,937,1128,0,0
-280,-104,0,0,0,0,0,0,0,0,0,-1,944,1128,0,0
-273,-104,0,0,0,0,0,0,0,0,0,-1,951,1128,0,0
-266,-104,0,0,0,0,0,0,0,0,0,-1,958,1128,0,0
-259,-104,0,0,0,0,0,0,0,0,0,-1,965,1128,0,0
-252,-104,0,0,0,0,0,0,0,0,0,-1,972,1128,0,0
-245,-104,0,0,0,0,0,0,0,0,0,-1,979,1128,0,0
-238,-104,0,0,0,0,0,0,0,0,0,-1,986,1128,0,0
-231,-104,0,0,0,0,0,0,0,0,0,-1,993,1128,0,0
-224,-104,0,0,0,0,0,0,0,0,0,-1,1000,1128,0,0
-217,-104,0,0,0,0,0,0,0,0,0,-1,1007,1128,0,0
-210,-104,0,0,0,0,0,0,0,0,0,-1,1014,1128,0,0
-203,-104,0,0,0,0,0,0,0,0,0,-1,1021,1128,0,0
-196,-104,0,0,0,0,0,0,0,0,0,-1,1028,1128,0,0
-189,-104,0,0,0,0,0,0,0,0,0,-1,1035,1128,0,0
-182,-104,0,0,0,0,0,0,0,0,0,-1,1042,1128,0,0
-175,-104,0,0,0,0,0,0,0,0,0,-1,1049,1128,0,0
-168,-104,0,0,0,0,0,0,0,0,0,-1,1056,1128,0,0
-161,-104,0,0,0,0,0,0,0,0,0,-1,1063,1128,0,0
-154,-104,0,0,0,0,0,0,0,0,0,-1,1070,1128,0,0
-147,-104,0,0,0,0,0,0,0,0,0,-1,1077,1128,0,0
-140,-104,0,0,0,0,0,0,0,0,0,-1,1084,1128,0,0
-133,-104,0,0,0,0,0,0,0,0,0,-1,1091,1128,0,0
-126,-104,0,0,0,0,0,0,0,0,0,-1,1098,1128,0,0
-119,-104,0,0,0,0,0,0,0,0,0,-1,1105,1128,0,0
-112,-104,0,0,0,0,0,0,0,0,0,-1,1112,1128,0,0
-105,-104,0,0,0,0,0,0,0,0,0,-1,1119,1128,0,0
-98,-104,0,0,0,0,0,0,0,0,0,-1,1126,1128,0,0
-91,-104,0,0,0,0,0,0,0,0,0,-1,1133,1128,0,0
-84,-104,0,0,0,0,0,0,0,0,0,-1,1140,1128,0,0
-77,-104,0,0,0,0,0,0,0,0,0,-1,1147,1128,0,0
-70,-104,0,0,0,0,0,0,0,0,0,-1,1154,1128,0,0
-63,-104,0,0,0,0,0,0,0,0,0,-1,1161,1128,0,0
-56,-104,0,0,0,0,0,0,0,0,0,-1,1168,1128,0,0
-49,-104,0,0,0,0,0,0,0,0,0,-1,1175,1128,0,0
-42,-104,0,0,0,0,0,0,0,0,0,-1,1182,1128,0,0
-35,-104,0,0,0,0,0,0,0,0,0,-1,1189,1128,0,0
-28,-104,0,0,0,0,0,0,0,0,0,-1,1196,1128,0,0
-21,-104,0,0,0,0,0,0,0,0,0,-1,1203,1128,0,0
-14,-104,0,0,0,0,0,0,0,0,0,-1,1210,1128,0,0
-7,-104,0,0,0,0,0,0,0,0,0,-1,1217,1128,0,0
0,-104,0,0,0,0,0,0,0,0,0,-1,1224,1128,0,0
7,-104,0,0,0,0,0,0,0,0,0,-1,1231,1128,0,0
14,-104,0,0,0,0,0,0,0,0,0,-1,1238,1128,0,0
21,-104,0,0,0,0,0,0,0,0,0,-1,1245,1128,0,0
28,-104,0,0,0,0,0,0,0,0,0,-1,1252,1128,0,0
35,-104,0,0,0,0,0,0,0,0,0,-1,1259,1128,0,0
42,-104,0,0,0,0,0,0,0,0,0,-1,1266,1128,0,0
49,-104,0,0,0,0,0,0,0,0,0,-1,1273,1128,0,0
56,-104,0,0,0,0,0,0,0,0,0,-1,1280,1128,0,0
63,-104,0,0,0,0,0,0,0,0,0,-1,1287,1128,0,0
70,-104,0,0,0,0,0,0,0,0,0,-1,1294,1128,0,0
77,-104,0,0,0,0,0,0,0,0,0,-1,1301,1128,0,0
84,-104,0,0,0,0,0,0,0,0,0,-1,1308,1128,0,0
91,-104,0,0,0,0,0,0,0,0,0,-1,1315,1128,0,0
98,-104,0,0,0,0,0,0,0,0,0,-1,1322,1128,0,0
105,-104,0,0,0,0,0,0,0,0,0,-1,1329,1128,0,0
112,-104,0,0,0,0,0,0,0,0,0,-1,1336,1128,0,0
119,-104,0,0,0,0,0,0,0,0,0,-1,1343,1128,0,0
126,-104,0,0,0,0,0,0,0,0,0,-1,1350,1128,0,0
133,-104,0,0,0,0,0,0,0,0,0,-1,1357,1128,0,0
140,-104,0,0,0,0,0,0,0,0,0,-1,1364,1128,0,0
147,-104,0,0,0,0,0,0,0,0,0,-1,1371,1128,0,0
154,-104,0,0,0,0,0,0,0,0,0,-1,1378,1128,0,0
161,-104,0,0,0,0,0,0,0,0,0,-1,1385,1128,0,0
168,-104,0,0,0,0,0,0,0,0,0,-1,1392,1128,0,0
175,-104,0,0,0,0,0,0,0,0,0,-1,1399,1128,0,0
182,-104,0,0,0,0,0,0,0,0,0,-1,1406,1128,0,0
189,-104,0,0,0,0,0,0,0,0,0,-1,1413,1128,0,0
196,-104,0,0,0,0,0,0,0,0,0,-1,1420,1128,0,0
203,-104,0,0,0,0,0,0,0,0,0,-1,1427,1128,0,0
210,-104,0,0,0,0,0,0,0,0,0,-1,1434,1128,0,0
217,-104,0,0,0,0,0,0,0,0,0,-1,1441,1128,0,0
224,-104,0,0,0,0,0,0,0,0,0,-1,1448,1128,0,0
231,-104,0,0,0,0,0,0,0,0,0,-1,1455,1128,0,0
238,-104,0,0,0,0,0,0,0,0,0,-1,1462,1128,0,0
245,-104,0,0,0,0,0,0,0,0,0,-1,1469,1128,0,0
252,-104,0,0,0,0,0,0,0,0,0,-1,1476,1128,0,0
259,-104,0,0,0,0,0,0,0,0,0,-1,1483,1128,0,0
266,-104,0,0,0,0,0,0,0,0,0,-1,1490,1128,0,0
273,-104,0,0,0,0,0,0,0,0,0,-1,1497,1128,0,0
280,-104,0,0,0,0,0,0,0,0,0,-1,1504,1128,0,0
287,-104,0,0,0,0,0,0,0,0,0,-1,1511,1128,0,0
294,-104,0,0,0,0,0,0,0,0,0,-1,1518,1128,0,0
301,-104,0,0,0,0,0,0,0,0,0,-1,1525,1128,0,0
308,-104,0,0,0,0,0,0,0,0,0,-1,1532,1128,0,0
315,-104,0,0,0,0,0,0,0,0,0,-1,1539,1128,0,0
322,-104,0,0,0,0,0,0,0,0,0,-1,1546,1128,0,0
329,-104,0,0,0,0,0,0,0,0,0,-1,1553,1128,0,0
336,-104,0,0,0,0,0,0,0,0,0,-1,1560,1128,0,0
343,-104,0,0,0,0,0,0,0,0,0,-1,1567,1128,0,0
350,-104,0,0,0,0,0,0,0,0,0,-1,1574,1128,0,0
357,-104,0,0,0,0,0,0,0,0,0,-1,1581,1128,0,0
364,-104,0,0,0,0,0,0,0,0,0,-1,1588,1128,0,0
371,-104,0,0,0,0,0,0,0,0,0,-1,1595,1128,0,0
378,-104,0,0,0,0,0,0,0,0,0,-1,1602,1128,0,0
385,-104,0,0,0,0,0,0,0,0,0,-1,1609,1128,0,0
392,-104,0,0,0,0,0,0,0,0,0,-1,1616,1128,0,0
399,-104,0,0,0,0,0,0,0,0,0,-1,1623,1128,0,0
406,-104,0,0,0,0,0,0,0,0,0,-1,1630,1128,0,0
413,-104,0,0,0,0,0,0,0,0,0,-1,1637,1128,0,0
420,-104,0,0,0,0,0,0,0,0,0,-1,1644,1128,0,0
427,-104,0,0,0,0,0,0,0,0,0,-1,1651,1128,0,0
434,-104,0,0,0,0,0,0,0,0,0,-1,1658,1128,0,0
441,-104,0,0,0,0,0,0,0,0,0,-1,1665,1128,0,0
448,-104,0,0,0,0,0,0,0,0,0,-1,1672,1128,0,0
455,-104,0,0,0,0,0,0,0,0,0,-1,1679,1128,0,0
462,-104,0,0,0,0,0,0,0,0,0,-1,1686,1128,0,0
469,-104,0,0,0,0,0,0,0,0,0,-1,1693,1128,0,0
476,-104,0,0,0,0,0,0,0,0,0,-1,1700,1128,0,0
483,-104,0,0,0,0,0,0,0,0,0,-1,1707,1128,0,0
490,-104,0,0,0,0,0,0,0,0,0,-1,1714,1128,0,0
497,-104,0,0,0,0,0,0,0,0,0,-1,1721,1128,0,0
504,-104,0,0,0,0,0,0,0,0,0,-1,1728,1128,0,0
511,-104,0,0,0,0,0,0,0,0,0,-1,1735,1128,0,0
518,-104,0,0,0,0,0,0,0,0,0,-1,1742,1128,0,0
525,-104,0,0,0,0,0,0,0,0,0,-1,1749,1128,0,0
532,-104,0,0,0,0,0,0,0,0,0,-1,1756,1128,0,0
539,-104,0,0,0,0,0,0,0,0,0,-1,1763,1128,0,0
546,-104,0,0,0,0,0,0,0,0,0,-1,1770,1128,0,0
553,-104,0,0,0,0,0,0,0,0,0,-1,1777,1128,0,0
560,-104,0,0,0,0,0,0,0,0,0,-1,1784,1128,0,0
567,-104,0,0,0,0,0,0,0,0,0,-1,1791,1128,0,0
574,-104,0,0,0,0,0,0,0,0,0,-1,1798,1128,0,0
581,-104,0,0,0,0,0,0,0,0,0,-1,1805,1128,0,0
588,-104,0,0,0,0,0,0,0,0,0,-1,1812,1128,0,0
595,-104,0,0,0,0,0,0,0,0,0,-1,1819,1128,0,0
602,-104,0,0,0,0,0,0,0,0,0,-1,1826,1128,0,0
609,-104,0,0,0,0,0,0,0,0,0,-1,1833,1128,0,0
616,-104,0,0,0,0,0,0,0,0,0,-1,1840,1128,0,0
623,-104,0,0,0,0,0,0,0,0,0,-1,1847,1128,0,0
630,-104,0,0,0,0,0,0,0,0,0,-1,1854,1128,0,0
637,-104,0,0,0,0,0,0,0,0,0,-1,1861,1128,0,0
644,-104,47.6533,2.5553,0.00659343,-0.00321415,0.000448004,0.00661385,-0.00323458,0.0455529,0.00579649,0.0361906,1868,1128,47.6534,-2.5553
651,-104,47.774,2.75977,0.00529716,-0.00244985,-5.63959e-06,0.00529716,-0.00244986,-0.00072797,0.00457233,0.0371367,1875,1128,47.774,-2.75973
658,-104,47.8651,2.63721,0.00448877,-0.00200071,-0.000286613,0.00450141,-0.00201334,-0.0440514,0.00385164,0.039866,1882,1128,47.8651,-2.63725
665,-104,48.0477,2.98462,0.00374713,-0.00166435,-0.00049992,0.00379292,-0.00171014,-0.0913514,0.00325216,0.0426215,1889,1128,48.0478,-2.98458
672,-104,48.0193,3.0929,0.00313126,-0.00140635,-0.000629787,0.00321705,-0.00149214,-0.135384,0.00277898,0.0418463,1896,1128,48.0193,-3.09292
679,-104,47.7876,2.85217,0.00243825,-0.00135091,-0.000575627,0.00252377,-0.00143642,-0.147483,0.00231497,0.0400465,1903,1128,47.7875,-2.85215
686,-104,47.7247,2.74707,0.00194893,-0.00139467,-0.000428748,0.00200303,-0.00144877,-0.125524,0.00200145,0.0387541,1910,1128,47.7248,-2.74703
693,-104,47.8434,2.66785,0.00165094,-0.00139873,-0.000247312,0.00167086,-0.00141866,-0.0803946,0.00178572,0.0337998,1917,1128,47.8434,-2.66785
700,-104,47.8687,2.71851,0.0013768,-0.00134945,3.26393e-05,0.00137719,-0.00134984,0.01197,0.00157448,0.0252041,1924,1128,47.8687,-2.71845
707,-104,47.8173,2.78149,0,0,0,0,0,0,0,-1,1931,1128,47.8173,-2.7815
714,-104,45.5221,2.32166,0,0,0,0,0,0,0,-1,1938,1128,45.5221,-2.3216
721,-104,44.2958,7.27563,0,0,0,0,0,0,0,-1,1945,1128,44.2957,-7.27566
728,-104,44.5142,6.8623,-0.000475043,-0.000630171,0.00106802,0.000518226,-0.00162344,0.74915,0.00129021,0.0253041,1952,1128,44.5142,-6.86231
735,-104,44.5352,6.49866,-0.000845229,-0.000464063,0.00152822,0.000885412,-0.0021947,0.847433,0.00183108,0.0262471,1959,1128,44.5352,-6.49863
742,-104,44.4158,6.19678,-0.001263,0.000113638,0.00179892,0.00135143,-0.00250078,0.968119,0.00225683,0.0169344,1966,1128,44.4157,-6.19673
749,-104,44.3643,5.86584,-0.00237428,0.00138283,0.00156841,0.00195149,-0.00294294,1.22296,0.00284506,0.0184566,1973,1128,44.3642,-5.86589
756,-104,44.3605,5.55176,-0.00391245,0.00294418,0.00126447,0.00316994,-0.0041382,1.39412,0.00423168,0.0164054,1980,1128,44.3605,-5.55178
763,-104,44.3094,5.27686,-0.00560068,0.0048782,0.000617854,0.0049145,-0.00563698,1.51211,0.00609666,0.0159157,1987,1128,44.3094,-5.27691
770,-104,44.2612,5.00806,-0.0080714,0.00731671,-0.000172829,0.00731865,-0.00807334,-1.55957,0.00889013,0.014206,1994,1128,44.2612,-5.00805
777,-104,44.2056,4.65588,-0.0113087,0.00999517,-0.00114627,0.0100567,-0.0113702,-1.5172,0.0123786,0.0219511,2001,1128,44.2056,-4.65588
784,-104,44.0564,4.25378,-0.0156124,0.0129638,-0.00236989,0.013159,-0.0158076,-1.48861,0.0167472,0.0394222,2008,1128,44.0565,-4.2538
791,-104,43.8784,3.85901,-0.0214691,0.0161017,-0.00380984,0.0164841,-0.0218515,-1.47075,0.0222053,0.0455498,2015,1128,43.8783,-3.85905
798,-104,43.8486,3.4729,0,0,0,0,0,0,0,-1,2022,1128,43.8487,-3.47286
805,-104,44.6033,2.22729,0,0,0,0,0,0,0,-1,2029,1128,44.6034,-2.22732
812,-104,44.5938,1.88489,0,0,0,0,0,0,0,-1,2036,1128,44.5938,-1.88483
-700,-111,0,0,0,0,0,0,0,0,0,-1,524,1135,0,0
-693,-111,-25.4094,-7.9718,0,0,0,0,0,0,0,-1,531,1135,-25.4094,7.97186
-686,-111,-24.2197,-8.29053,0,0,0,0,0,0,0,-1,538,1135,-24.2197,8.29055
-679,-111,-30.835,0.381104,0,0,0,0,0,0,0,-1,545,1135,-30.835,-0.381135
-672,-111,-31.4046,0.773804,0,0,0,0,0,0,0,-1,552,1135,-31.4046,-0.773791
-665,-111,-31.8553,1.37744,0,0,0,0,0,0,0,-1,559,1135,-31.8553,-1.3775
-658,-111,-31.5894,0.906494,0,0,0,0,0,0,0,-1,566,1135,-31.5894,-0.906545
-651,-111,-31.4813,1.27466,0.0173815,0.00800015,-0.00243588,0.0179763,0.00740538,-0.239485,0.0104321,0.043773,573,1135,-31.4813,-1.2747
-644,-111,-31.4974,1.72095,0.011098,0.00632924,-0.00224346,0.0119875,0.00543972,-0.37748,0.00693084,0.0273599,580,1135,-31.4974,-1.72094
-637,-111,-31.5778,2.16052,0.00720251,0.00475418,-0.00188726,0.00822786,0.00372883,-0.497687,0.00475729,0.0110029,587,1135,-31.5777,-2.16051
-630,-111,-31.5994,2.49854,0.00438427,0.00324189,-0.0014899,0.00540872,0.00221745,-0.602351,0.00313955,0.0209402,594,1135,-31.5995,-2.49852
-623,-111,-31.6165,2.90784,0.00262505,0.00182412,-0.00116226,0.0034539,0.000995266,-0.61949,0.00205291,0.0174903,601,1135,-31.6165,-2.9078
-616,-111,-31.8107,3.28613,0.00152321,0.00083914,-0.000510817,0.00179593,0.00056642,-0.490389,0.00106017,0.0174075,608,1135,-31.8107,-3.28608
-609,-111,-32.0333,3.59119,0.000976597,0.000272916,0.000223136,0.00104139,0.000208125,0.282593,0.000636332,0.0290442,615,1135,-32.0332,-3.59124
-602,-111,-31.9456,3.99622,0.00100058,5.37054e-05,0.000342651,0.00111157,-5.7282e-05,0.313244,0.000760861,0.0346068,622,1135,-31.9456,-3.99619
-595,-111,-31.7146,4.4823,0.000867439,-0.000210997,0.000164125,0.000891864,-0.000235422,0.147733,0.000686637,0.0174695,629,1135,-31.7146,-4.48234
-588,-111,-31.4276,5.03528,0,0,0,0,0,0,0,-1,636,1135,-31.4276,-5.0353
-581,-111,-21.0555,3.14551,0,0,0,0,0,0,0,-1,643,1135,-21.0555,-3.14548
-574,-111,-35.398,0.748779,0,0,0,0,0,0,0,-1,650,1135,-35.398,-0.748808
-567,-111,-35.3771,0.941284,0.000690416,-0.000262389,0.000519644,0.000918988,-0.000490961,0.414392,0.000826444,0.0357736,657,1135,-35.3771,-0.941225
-560,-111,-35.4549,1.16724,0.000695554,-0.000104893,0.00055996,0.000983614,-0.000392953,0.475125,0.000818786,0.03764,664,1135,-35.4549,-1.16728
-553,-111,-35.5574,1.17212,0.000151164,0.000154105,0.000420425,0.000573061,-0.000267793,0.787147,0.000496017,0.0422558,671,1135,-35.5574,-1.1721
-546,-111,-35.558,1.1084,-0.000674054,0.000478185,0.000318332,0.000560282,-0.000756151,1.3184,0.000762842,0.0393209,678,1135,-35.558,-1.10841
-539,-111,-35.6396,0.903076,-0.00130262,0.000715563,0.000665452,0.000915228,-0.00150228,1.2793,0.0014094,0.039102,685,1135,-35.6397,-0.903108
-532,-111,-35.5911,0.98877,-0.00215781,0.000950124,0.00152993,0.00157687,-0.00278455,1.18199,0.00255004,0.0414023,692,1135,-35.5911,-0.988742
-525,-111,-35.7165,1.09265,-0.00344583,0.00123104,0.00286892,0.00259382,-0.00480861,1.12734,0.00433709,0.0419117,699,1135,-35.7165,-1.0927
-518,-111,0,0,0,0,0,0,0,0,0,-1,706,1135,0,0
-511,-111,0,0,0,0,0,0,0,0,0,-1,713,1135,0,0
-504,-111,0,0,0,0,0,0,0,0,0,-1,720,1135,0,0
-497,-111,0,0,0,0,0,0,0,0,0,-1,727,1135,0,0
-490,-111,0,0,0,0,0,0,0,0,0,-1,734,1135,0,0
-483,-111,0,0,0,0,0,0,0,0,0,-1,741,1135,0,0
-476,-111,0,0,0,0,0,0,0,0,0,-1,748,1135,0,0
-469,-111,0,0,0,0,0,0,0,0,0,-1,755,1135,0,0
-462,-111,0,0,0,0,0,0,0,0,0,-1,762,1135,0,0
-455,-111,0,0,0,0,0,0,0,0,0,-1,769,1135,0,0
-448,-111,0,0,0,0,0,0,0,0,0,-1,776,1135,0,0
-441,-111,0,0,0,0,0,0,0,0,0,-1,783,1135,0,0
-434,-111,0,0,0,0,0,0,0,0,0,-1,790,1135,0,0
-427,-111,0,0,0,0,0,0,0,0,0,-1,797,1135,0,0
-420,-111,0,0,0,0,0,0,0,0,0,-1,804,1135,0,0
-413,-111,0,0,0,0,0,0,0,0,0,-1,811,1135,0,0
-406,-111,0,0,0,0,0,0,0,0,0,-1,818,1135,0,0
-399,-111,0,0,0,0,0,0,0,0,0,-1,825,1135,0,0
-392,-111,0,0,0,0,0,0,0,0,0,-1,832,1135,0,0
-385,-111,0,0,0,0,0,0,0,0,0,-1,839,1135,0,0
-378,-111,0,0,0,0,0,0,0,0,0,-1,846,1135,0,0
-371,-111,0,0,0,0,0,0,0,0,0,-1,853,1135,0,0
-364,-111,0,0,0,0,0,0,0,0,0,-1,860,1135,0,0
-357,-111,0,0,0,0,0,0,0,0,0,-1,867,1135,0,0
-350,-111,0,0,0,0,0,0,0,0,0,-1,874,1135,0,0
-343,-111,0,0,0,0,0,0,0,0,0,-1,881,1135,0,0
-336,-111,0,0,0,0,0,0,0,0,0,-1,888,1135,0,0
-329,-111,0,0,0,0,0,0,0,0,0,-1,895,1135,0,0
-322,-111,0,0,0,0,0,0,0,0,0,-1,902,1135,0,0
-315,-111,0,0,0,0,0,0,0,0,0,-1,909,1135,0,0
-308,-111,0,0,0,0,0,0,0,0,0,-1,916,1135,0,0
-301,-111,0,0,0,0,0,0,0,0,0,-1,923,1135,0,0
-294,-111,0,0,0,0,0,0,0,0,0,-1,930,1135,0,0
-287,-111,0,0,0,0,0,0,0,0,0,-1,937,1135,0,0
-280,-111,0,0,0,0,0,0,0,0,0,-1,944,1135,0,0
-273,-111,0,0,0,0,0,0,0,0,0,-1,951,1135,0,0
-266,-111,0,0,0,0,0,0,0,0,0,-1,958,1135,0,0
-259,-111,0,0,0,0,0,0,0,0,0,-1,965,1135,0,0
-252,-111,0,0,0,0,0,0,0,0,0,-1,972,1135,0,0
-245,-111,0,0,0,0,0,0,0,0,0,-1,979,1135,0,0
-238,-111,0,0,0,0,0,0,0,0,0,-1,986,1135,0,0
-231,-111,0,0,0,0,0,0,0,0,0,-1,993,1135,0,0
-224,-111,0,0,0,0,0,0,0,0,0,-1,1000,1135,0,0
-217,-111,0,0,0,0,0,0,0,0,0,-1,1007,1135,0,0
-210,-111,0,0,0,0,0,0,0,0,0,-1,1014,1135,0,0
-203,-111,0,0,0,0,0,0,0,0,0,-1,1021,1135,0,0
-196,-111,0,0,0,0,0,0,0,0,0,-1,1028,1135,0,0
-189,-111,0,0,0,0,0,0,0,0,0,-1,1035,1135,0,0
-182,-111,0,0,0,0,0,0,0,0,0,-1,1042,1135,0,0
-175,-111,0,0,0,0,0,0,0,0,0,-1,1049,1135,0,0
-168,-111,0,0,0,0,0,0,0,0,0,-1,1056,1135,0,0
-161,-111,0,0,0,0,0,0,0,0,0,-1,1063,1135,0,0
-154,-111,0,0,0,0,0,0,0,0,0,-1,1070,1135,0,0
-147,-111,0,0,0,0,0,0,0,0,0,-1,1077,1135,0,0
-140,-111,0,0,0,0,0,0,0,0,0,-1,1084,1135,0,0
-133,-111,0,0,0,0,0,0,0,0,0,-1,1091,1135,0,0
-126,-111,0,0,0,0,0,0,0,0,0,-1,1098,1135,0,0
-119,-111,0,0,0,0,0,0,0,0,0,-1,1105,1135,0,0
-112,-111,0,0,0,0,0,0,0,0,0,-1,1112,1135,0,0
-105,-111,0,0,0,0,0,0,0,0,0,-1,1119,1135,0,0
-98,-111,0,0,0,0,0,0,0,0,0,-1,1126,1135,0,0
-91,-111,0,0,0,0,0,0,0,0,0,-1,1133,1135,0,0
-84,-111,0,0,0,0,0,0,0,0,0,-1,1140,1135,0,0
-77,-111,0,0,0,0,0,0,0,0,0,-1,1147,1135,0,0
-70,-111,0,0,0,0,0,0,0,0,0,-1,1154,1135,0,0
-63,-111,0,0,0,0,0,0,0,0,0,-1,1161,1135,0,0
-56,-111,0,0,0,0,0,0,0,0,0,-1,1168,1135,0,0
-49,-111,0,0,0,0,0,0,0,0,0,-1,1175,1135,0,0
-42,-111,0,0,0,0,0,0,0,0,0,-1,1182,1135,0,0
-35,-111,0,0,0,0,0,0,0,0,0,-1,1189,1135,0,0
-28,-111,0,0,0,0,0,0,0,0,0,-1,1196,1135,0,0
-21,-111,0,0,0,0,0,0,0,0,0,-1,1203,1135,0,0
-14,-111,0,0,0,0,0,0,0,0,0,-1,1210,1135,0,0
-7,-111,0,0,0,0,0,0,0,0,0,-1,1217,1135,0,0
0,-111,0,0,0,0,0,0,0,0,0,-1,1224,1135,0,0
7,-111,0,0,0,0,0,0,0,0,0,-1,1231,1135,0,0
14,-111,0,0,0,0,0,0,0,0,0,-1,1238,1135,0,0
21,-111,0,0,0,0,0,0,0,0,0,-1,1245,1135,0,0
28,-111,0,0,0,0,0,0,0,0,0,-1,1252,1135,0,0
35,-111,0,0,0,0,0,0,0,0,0,-1,1259,1135,0,0
42,-111,0,0,0,0,0,0,0,0,0,-1,1266,1135,0,0
49,-111,0,0,0,0,0,0,0,0,0,-1,1273,1135,0,0
56,-111,0,0,0,0,0,0,0,0,0,-1,1280,1135,0,0
63,-111,0,0,0,0,0,0,0,0,0,-1,1287,1135,0,0
70,-111,0,0,0,0,0,0,0,0,0,-1,1294,1135,0,0
77,-111,0,0,0,0,0,0,0,0,0,-1,1301,1135,0,0
84,-111,0,0,0,0,0,0,0,0,0,-1,1308,1135,0,0
91,-111,0,0,0,0,0,0,0,0,0,-1,1315,1135,0,0
98,-111,0,0,0,0,0,0,0,0,0,-1,1322,1135,0,0
105,-111,0,0,0,0,0,0,0,0,0,-1,1329,1135,0,0
112,-111,0,0,0,0,0,0,0,0,0,-1,1336,1135,0,0
119,-111,0,0,0,0,0,0,0,0,0,-1,1343,1135,0,0
126,-111,0,0,0,0,0,0,0,0,0,-1,1350,1135,0,0
133,-111,0,0,0,0,0,0,0,0,0,-1,1357,1135,0,0
140,-111,0,0,0,0,0,0,0,0,0,-1,1364,1135,0,0
147,-111,0,0,0,0,0,0,0,0,0,-1,1371,1135,0,0
154,-111,0,0,0,0,0,0,0,0,0,-1,1378,1135,0,0
161,-111,0,0,0,0,0,0,0,0,0,-1,1385,1135,0,0
168,-111,0,0,0,0,0,0,0,0,0,-1,1392,1135,0,0
175,-111,0,0,0,0,0,0,0,0,0,-1,1399,1135,0,0
182,-111,0,0,0,0,0,0,0,0,0,-1,1406,1135,0,0
189,-111,0,0,0,0,0,0,0,0,0,-1,1413,1135,0,0
196,-111,0,0,0,0,0,0,0,0,0,-1,1420,1135,0,0
203,-111,0,0,0,0,0,0,0,0,0,-1,1427,1135,0,0
210,-111,0,0,0,0,0,0,0,0,0,-1,1434,1135,0,0
217,-111,0,0,0,0,0,0,0,0,0,-1,1441,1135,0,0
224,-111,0,0,0,0,0,0,0,0,0,-1,1448,1135,0,0
231,-111,0,0,0,0,0,0,0,0,0,-1,1455,1135,0,0
238,-111,0,0,0,0,0,0,0,0,0,-1,1462,1135,0,0
245,-111,0,0,0,0,0,0,0,0,0,-1,1469,1135,0,0
252,-111,0,0,0,0,0,0,0,0,0,-1,1476,1135,0,0
259,-111,0,0,0,0,0,0,0,0,0,-1,1483,1135,0,0
266,-111,0,0,0,0,0,0,0,0,0,-1,1490,1135,0,0
273,-111,0,0,0,0,0,0,0,0,0,-1,1497,1135,0,0
280,-111,0,0,0,0,0,0,0,0,0,-1,1504,1135,0,0
287,-111,0,0,0,0,0,0,0,0,0,-1,1511,1135,0,0
294,-111,0,0,0,0,0,0,0,0,0,-1,1518,1135,0,0
301,-111,0,0,0,0,0,0,0,0,0,-1,1525,1135,0,0
308,-111,0,0,0,0,0,0,0,0,0,-1,1532,1135,0,0
315,-111,0,0,0,0,0,0,0,0,0,-1,1539,1135,0,0
322,-111,0,0,0,0,0,0,0,0,0,-1,1546,1135,0,0
329,-111,0,0,0,0,0,0,0,0,0,-1,1553,1135,0,0
336,-111,0,0,0,0,0,0,0,0,0,-1,1560,1135,0,0
343,-111,0,0,0,0,0,0,0,0,0,-1,1567,1135,0,0
350,-111,0,0,0,0,0,0,0,0,0,-1,1574,1135,0,0
357,-111,0,0,0,0,0,0,0,0,0,-1,1581,1135,0,0
364,-111,0,0,0,0,0,0,0,0,0,-1,1588,1135,0,0
371,-111,0,0,0,0,0,0,0,0,0,-1,1595,1135,0,0
378,-111,0,0,0,0,0,0,0,0,0,-1,1602,1135,0,0
385,-111,0,0,0,0,0,0,0,0,0,-1,1609,1135,0,0
392,-111,0,0,0,0,0,0,0,0,0,-1,1616,1135,0,0
399,-111,0,0,0,0,0,0,0,0,0,-1,1623,1135,0,0
406,-111,0,0,0,0,0,0,0,0,0,-1,1630,1135,0,0
413,-111,0,0,0,0,0,0,0,0,0,-1,1637,1135,0,0
420,-111,0,0,0,0,0,0,0,0,0,-1,1644,1135,0,0
427,-111,0,0,0,0,0,0,0,0,0,-1,1651,1135,0,0
434,-111,0,0,0,0,0,0,0,0,0,-1,1658,1135,0,0
441,-111,0,0,0,0,0,0,0,0,0,-1,1665,1135,0,0
448,-111,0,0,0,0,0,0,0,0,0,-1,1672,1135,0,0
455,-111,0,0,0,0,0,0,0,0,0,-1,1679,1135,0,0
462,-111,0,0,0,0,0,0,0,0,0,-1,1686,1135,0,0
469,-111,0,0,0,0,0,0,0,0,0,-1,1693,1135,0,0
476,-111,0,0,0,0,0,0,0,0,0,-1,1700,1135,0,0
483,-111,0,0,0,0,0,0,0,0,0,-1,1707,1135,0,0
490,-111,0,0,0,0,0,0,0,0,0,-1,1714,1135,0,0
497,-111,0,0,0,0,0,0,0,0,0,-1,1721,1135,0,0
504,-111,0,0,0,0,0,0,0,0,0,-1,1728,1135,0,0
511,-111,0,0,0,0,0,0,0,0,0,-1,1735,1135,0,0
518,-111,0,0,0,0,0,0,0,0,0,-1,1742,1135,0,0
525,-111,0,0,0,0,0,0,0,0,0,-1,1749,1135,0,0
532,-111,0,0,0,0,0,0,0,0,0,-1,1756,1135,0,0
539,-111,0,0,0,0,0,0,0,0,0,-1,1763,1135,0,0
546,-111,0,0,0,0,0,0,0,0,0,-1,1770,1135,0,0
553,-111,0,0,0,0,0,0,0,0,0,-1,1777,1135,0,0
560,-111,0,0,0,0,0,0,0,0,0,-1,1784,1135,0,0
567,-111,0,0,0,0,0,0,0,0,0,-1,1791,1135,0,0
574,-111,0,0,0,0,0,0,0,0,0,-1,1798,1135,0,0
581,-111,0,0,0,0,0,0,0,0,0,-1,1805,1135,0,0
588,-111,0,0,0,0,0,0,0,0,0,-1,1812,1135,0,0
595,-111,0,0,0,0,0,0,0,0,0,-1,1819,1135,0,0
602,-111,0,0,0,0,0,0,0,0,0,-1,1826,1135,0,0
609,-111,0,0,0,0,0,0,0,0,0,-1,1833,1135,0,0
616,-111,0,0,0,0,0,0,0,0,0,-1,1840,1135,0,0
623,-111,0,0,0,0,0,0,0,0,0,-1,1847,1135,0,0
630,-111,0,0,0,0,0,0,0,0,0,-1,1854,1135,0,0
637,-111,0,0,0,0,0,0,0,0,0,-1,1861,1135,0,0
644,-111,47.5383,2.81799,0.00601297,-0.00320295,-8.40179e-05,0.00601374,-0.00320372,-0.00911559,0.0054035,0.0407184,1868,1135,47.5384,-2.81805
651,-111,47.5828,2.70044,0.00484381,-0.00232986,-0.000243403,0.00485206,-0.00233811,-0.0338781,0.00423498,0.0417848,1875,1135,47.5828,-2.70045
658,-111,47.8552,2.68213,0.0041346,-0.00180124,-0.000393607,0.00416059,-0.00182723,-0.0659255,0.00354348,0.0442809,1882,1135,47.8552,-2.68209
665,-111,48.1316,2.75879,0,0,0,0,0,0,0,-1,1889,1135,48.1315,-2.75879
672,-111,47.9136,2.9646,0.00294023,-0.00111393,-0.000708915,0.00306062,-0.00123431,-0.168214,0.00255331,0.0427816,1896,1135,47.9136,-2.96465
679,-111,47.845,2.63831,0.00232002,-0.00107146,-0.000670653,0.00244783,-0.00119927,-0.188307,0.00214638,0.0386236,1903,1135,47.845,-2.63834
686,-111,47.7649,2.68958,0.00187506,-0.0011545,-0.0005467,0.0019707,-0.00125014,-0.17318,0.001875,0.0364185,1910,1135,47.7649,-2.68954
693,-111,47.7605,2.75,0.00159596,-0.00118155,-0.000383779,0.00164801,-0.0012336,-0.134809,0.00166943,0.0354907,1917,1135,47.7605,-2.75
700,-111,47.8529,2.7334,0.00134839,-0.00116558,-8.10755e-05,0.001351,-0.00116819,-0.0322055,0.00145573,0.0250231,1924,1135,47.8529,-2.73343
707,-111,47.8282,2.73352,0,0,0,0,0,0,0,-1,1931,1135,47.8283,-2.73353
714,-111,39.0695,6.81152,0,0,0,0,0,0,0,-1,1938,1135,39.0694,-6.81152
721,-111,43.9668,7.33154,0,0,0,0,0,0,0,-1,1945,1135,43.9668,-7.33159
728,-111,44.0834,6.91077,-0.000438465,-0.00068621,0.000952188,0.000397874,-0.00152255,0.720715,0.00117042,0.0229422,1952,1135,44.0834,-6.91079
735,-111,44.1106,6.58582,-0.000737447,-0.000669402,0.00147844,0.000775408,-0.00218226,0.796902,0.00177083,0.0226709,1959,1135,44.1106,-6.5858
742,-111,44.0272,6.26782,-0.00114853,-0.000220658,0.0017918,0.00116629,-0.00253548,0.912078,0.00218541,0.0141698,1966,1135,44.0272,-6.26788
749,-111,43.9941,5.90942,-0.00248673,0.000763116,0.00177316,0.00154329,-0.0032669,1.1563,0.00283597,0.0164042,1973,1135,43.9941,-5.90936
756,-111,43.9749,5.57581,-0.00456983,0.00213622,0.00175028,0.00256555,-0.00499917,1.33025,0.00444219,0.01658,1980,1135,43.9748,-5.57583
763,-111,43.9636,5.28125,-0.00698142,0.00374214,0.00148809,0.00394481,-0.00718409,1.43543,0.00651537,0.0144246,1987,1135,43.9636,-5.28123
770,-111,43.9493,4.96399,-0.0105295,0.00567889,0.00123828,0.00577294,-0.0106236,1.49498,0.00960361,0.0123647,1994,1135,43.9493,-4.964
777,-111,43.8135,4.63074,-0.0152336,0.00778002,0.000950629,0.00781922,-0.0152728,1.52958,0.0135617,0.024665,2001,1135,43.8134,-4.63071
784,-111,43.6335,4.17786,-0.0216816,0.0100862,0.000634986,0.0100989,-0.0216943,1.55082,0.0187583,0.0403943,2008,1135,43.6336,-4.17781
791,-111,43.4829,3.75232,0,0,0,0,0,0,0,-1,2015,1135,43.4828,-3.75236
798,-111,45.9595,0.333984,0,0,0,0,0,0,0,-1,2022,1135,45.9594,-0.333982
805,-111,44.3689,1.71021,0,0,0,0,0,0,0,-1,2029,1135,44.369,-1.71022
812,-111,43.9944,1.90857,0,0,0,0,0,0,0,-1,2036,1135,43.9943,-1.90861
-700,-118,0,0,0,0,0,0,0,0,0,-1,524,1142,0,0
-693,-118,-28.9482,-3.44446,0,0,0,0,0,0,0,-1,531,1142,-28.9481,3.4445
-686,-118,-30.586,0.237915,0,0,0,0,0,0,0,-1,538,1142,-30.586,-0.237912
-679,-118,-31.2259,0.676147,0,0,0,0,0,0,0,-1,545,1142,-31.2259,-0.676181
-672,-118,-31.8466,1.09546,0,0,0,0,0,0,0,-1,552,1142,-31.8466,-1.09552
-665,-118,-32.2934,1.55518,0,0,0,0,0,0,0,-1,559,1142,-32.2934,-1.55514
-658,-118,-31.135,0.957275,0,0,0,0,0,0,0,-1,566,1142,-31.135,-0.957247
-651,-118,-31.019,1.3479,0.0149939,0.00778224,-0.00187397,0.0154518,0.00732435,-0.239644,0.00892512,0.0460105,573,1142,-31.019,-1.34791
-644,-118,-31.013,1.71851,0.00935712,0.00617793,-0.00187597,0.0102264,0.00530864,-0.433922,0.00590565,0.0308621,580,1142,-31.013,-1.71856
-637,-118,-31.1536,2.16321,0.00592725,0.00467014,-0.00163972,0.00705477,0.00354263,-0.602371,0.00407308,0.0167472,587,1142,-31.1535,-2.1632
-630,-118,-31.1964,2.52759,0.00346081,0.0032289,-0.00132596,0.00467587,0.00201384,-0.741783,0.00270825,0.0232817,594,1142,-31.1963,-2.5276
-623,-118,-31.2026,2.92334,0.00193048,0.00184271,-0.00101109,0.00289864,0.000874551,-0.76371,0.00171684,0.0187873,601,1142,-31.2026,-2.92334
-616,-118,-31.2839,3.2821,0.000954546,0.000837552,-0.00028918,0.00119109,0.000601012,-0.685602,0.000687684,0.0199279,608,1142,-31.2839,-3.28211
-609,-118,-31.5052,3.51697,0.000468525,0.000355962,0.000483721,0.000899228,-7.47407e-05,0.727483,0.000625888,0.0344814,615,1142,-31.5052,-3.51701
-602,-118,-31.3905,4.12341,0.000557213,0.00025492,0.000585602,0.00101086,-0.000198727,0.659102,0.000748988,0.0339701,622,1142,-31.3905,-4.12337
-595,-118,-31.4239,4.42896,0.000463359,9.50439e-06,0.000389959,0.000687613,-0.000214749,0.521886,0.000544301,0.0272557,629,1142,-31.4239,-4.429
-588,-118,-30.8828,5.12256,0,0,0,0,0,0,0,-1,636,1142,-30.8828,-5.12255
-581,-118,-24.6116,3.89648,0,0,0,0,0,0,0,-1,643,1142,-24.6116,-3.89645
-574,-118,-35.372,0.639404,0,0,0,0,0,0,0,-1,650,1142,-35.372,-0.639349
-567,-118,-35.3744,0.92627,0.000384277,-8.2774e-05,0.000683776,0.000873305,-0.000571802,0.620846,0.000840364,0.040719,657,1142,-35.3744,-0.926216
-560,-118,-35.4438,1.18774,0.000459014,1.05036e-05,0.000732111,0.00100045,-0.000530929,0.636779,0.000897885,0.0350384,664,1142,-35.4438,-1.1877
-553,-118,-35.4227,1.17395,2.15856e-06,0.000201995,0.0005593,0.000670232,-0.000466079,0.87379,0.000659569,0.0379184,671,1142,-35.4227,-1.17397
-546,-118,-35.2864,1.00769,-0.000724467,0.000422661,0.000393983,0.000544941,-0.000846747,1.26986,0.000809765,0.0388638,678,1142,-35.2865,-1.00768
-539,-118,-35.4065,1.06226,-0.00141076,0.000604531,0.000673704,0.000809002,-0.00161523,1.27613,0.0014252,0.0390388,685,1142,-35.4065,-1.06231
-532,-118,-35.6706,1.14307,-0.00233023,0.000784778,0.00153377,0.0014132,-0.00295865,1.18194,0.00257612,0.039073,692,1142,-35.6706,-1.14303
-525,-118,-35.7064,1.1792,-0.00369657,0.00102507,0.00290228,0.00240547,-0.00507697,1.12684,0.00441081,0.0423397,699,1142,-35.7064,-1.17916
-518,-118,0,0,0,0,0,0,0,0,0,-1,706,1142,0,0
-511,-118,0,0,0,0,0,0,0,0,0,-1,713,1142,0,0
-504,-118,0,0,0,0,0,0,0,0,0,-1,720,1142,0,0
-497,-118,0,0,0,0,0,0,0,0,0,-1,727,1142,0,0
-490,-118,0,0,0,0,0,0,0,0,0,-1,734,1142,0,0
-483,-118,0,0,0,0,0,0,0,0,0,-1,741,1142,0,0
-476,-118,0,0,0,0,0,0,0,0,0,-1,748,1142,0,0
-469,-118,0,0,0,0,0,0,0,0,0,-1,755,1142,0,0
-462,-118,0,0,0,0,0,0,0,0,0,-1,762,1142,0,0
-455,-118,0,0,0,0,0,0,0,0,0,-1,769,1142,0,0
-448,-118,0,0,0,0,0,0,0,0,0,-1,776,1142,0,0
-441,-118,0,0,0,0,0,0,0,0,0,-1,783,1142,0,0
-434,-118,0,0,0,0,0,0,0,0,0,-1,790,1142,0,0
-427,-118,0,0,0,0,0,0,0,0,0,-1,797,1142,0,0
-420,-118,0,0,0,0,0,0,0,0,0,-1,804,1142,0,0
-413,-118,0,0,0,0,0,0,0,0,0,-1,811,1142,0,0
-406,-118,0,0,0,0,0,0,0,0,0,-1,818,1142,0,0
-399,-118,0,0,0,0,0,0,0,0,0,-1,825,1142,0,0
-392,-118,0,0,0,0,0,0,0,0,0,-1,832,1142,0,0
-385,-118,0,0,0,0,0,0,0,0,0,-1,839,1142,0,0
-378,-118,0,0,0,0,0,0,0,0,0,-1,846,1142,0,0
-371,-118,0,0,0,0,0,0,0,0,0,-1,853,1142,0,0
-364,-118,0,0,0,0,0,0,0,0,0,-1,860,1142,0,0
-357,-118,0,0,0,0,0,0,0,0,0,-1,867,1142,0,0
-350,-118,0,0,0,0,0,0,0,0,0,-1,874,1142,0,0
-343,-118,0,0,0,0,0,0,0,0,0,-1,881,1142,0,0
-336,-118,0,0,0,0,0,0,0,0,0,-1,888,1142,0,0
-329,-118,0,0,0,0,0,0,0,0,0,-1,895,1142,0,0
-322,-118,0,0,0,0,0,0,0,0,0,-1,902,1142,0,0
-315,-118,0,0,0,0,0,0,0,0,0,-1,909,1142,0,0
-308,-118,0,0,0,0,0,0,0,0,0,-1,916,1142,0,0
-301,-118,0,0,0,0,0,0,0,0,0,-1,923,1142,0,0
-294,-118,0,0,0,0,0,0,0,0,0,-1,930,1142,0,0
-287,-118,0,0,0,0,0,0,0,0,0,-1,937,1142,0,0
-280,-118,0,0,0,0,0,0,0,0,0,-1,944,1142,0,0
-273,-118,0,0,0,0,0,0,0,0,0,-1,951,1142,0,0
-266,-118,0,0,0,0,0,0,0,0,0,-1,958,1142,0,0
-259,-118,0,0,0,0,0,0,0,0,0,-1,965,1142,0,0
-252,-118,0,0,0,0,0,0,0,0,0,-1,972,1142,0,0
-245,-118,0,0,0,0,0,0,0,0,0,-1,979,1142,0,0
-238,-118,0,0,0,0,0,0,0,0,0,-1,986,1142,0,0
-231,-118,0,0,0,0,0,0,0,0,0,-1,993,1142,0,0
-224,-118,0,0,0,0,0,0,0,0,0,-1,1000,1142,0,0
-217,-118,0,0,0,0,0,0,0,0,0,-1,1007,1142,0,0
-210,-118,0,0,0,0,0,0,0,0,0,-1,1014,1142,0,0
-203,-118,0,0,0,0,0,0,0,0,0,-1,1021,1142,0,0
-196,-118,0,0,0,0,0,0,0,0,0,-1,1028,1142,0,0
-189,-118,0,0,0,0,0,0,0,0,0,-1,1035,1142,0,0
-182,-118,0,0,0,0,0,0,0,0,0,-1,1042,1142,0,0
-175,-118,0,0,0,0,0,0,0,0,0,-1,1049,1142,0,0
-168,-118,0,0,0,0,0,0,0,0,0,-1,1056,1142,0,0
-161,-118,0,0,0,0,0,0,0,0,0,-1,1063,1142,0,0
-154,-118,0,0,0,0,0,0,0,0,0,-1,1070,1142,0,0
-147,-118,0,0,0,0,0,0,0,0,0,-1,1077,1142,0,0
-140,-118,0,0,0,0,0,0,0,0,0,-1,1084,1142,0,0
-133,-118,0,0,0,0,0,0,0,0,0,-1,1091,1142,0,0
-126,-118,0,0,0,0,0,0,0,0,0,-1,1098,1142,0,0
-119,-118,0,0,0,0,0,0,0,0,0,-1,1105,1142,0,0
-112,-118,0,0,0,0,0,0,0,0,0,-1,1112,1142,0,0
-105,-118,0,0,0,0,0,0,0,0,0,-1,1119,1142,0,0
-98,-118,0,0,0,0,0,0,0,0,0,-1,1126,1142,0,0
-91,-118,0,0,0,0,0,0,0,0,0,-1,1133,1142,0,0
-84,-118,0,0,0,0,0,0,0,0,0,-1,1140,1142,0,0
-77,-118,0,0,0,0,0,0,0,0,0,-1,1147,1142,0,0
-70,-118,0,0,0,0,0,0,0,0,0,-1,1154,1142,0,0
-63,-118,0,0,0,0,0,0,0,0,0,-1,1161,1142,0,0
-56,-118,0,0,0,0,0,0,0,0,0,-1,1168,1142,0,0
-49,-118,0,0,0,0,0,0,0,0,0,-1,1175,1142,0,0
-42,-118,0,0,0,0,0,0,0,0,0,-1,1182,1142,0,0
-35,-118,0,0,0,0,0,0,0,0,0,-1,1189,1142,0,0
-28,-118,0,0,0,0,0,0,0,0,0,-1,1196,1142,0,0
-21,-118,0,0,0,0,0,0,0,0,0,-1,1203,1142,0,0
-14,-118,0,0,0,0,0,0,0,0,0,-1,1210,1142,0,0
-7,-118,0,0,0,0,0,0,0,0,0,-1,1217,1142,0,0
0,-118,0,0,0,0,0,0,0,0,0,-1,1224,1142,0,0
7,-118,0,0,0,0,0,0,0,0,0,-1,1231,1142,0,0
14,-118,0,0,0,0,0,0,0,0,0,-1,1238,1142,0,0
21,-118,0,0,0,0,0,0,0,0,0,-1,1245,1142,0,0
28,-118,0,0,0,0,0,0,0,0,0,-1,1252,1142,0,0
35,-118,0,0,0,0,0,0,0,0,0,-1,1259,1142,0,0
42,-118,0,0,0,0,0,0,0,0,0,-1,1266,1142,0,0
49,-118,0,0,0,0,0,0,0,0,0,-1,1273,1142,0,0
56,-118,0,0,0,0,0,0,0,0,0,-1,1280,1142,0,0
63,-118,0,0,0,0,0,0,0,0,0,-1,1287,1142,0,0
70,-118,0,0,0,0,0,0,0,0,0,-1,1294,1142,0,0
77,-118,0,0,0,0,0,0,0,0,0,-1,1301,1142,0,0
84,-118,0,0,0,0,0,0,0,0,0,-1,1308,1142,0,0
91,-118,0,0,0,0,0,0,0,0,0,-1,1315,1142,0,0
98,-118,0,0,0,0,0,0,0,0,0,-1,1322,1142,0,0
105,-118,0,0,0,0,0,0,0,0,0,-1,1329,1142,0,0
112,-118,0,0,0,0,0,0,0,0,0,-1,1336,1142,0,0
119,-118,0,0,0,0,0,0,0,0,0,-1,1343,1142,0,0
126,-118,0,0,0,0,0,0,0,0,0,-1,1350,1142,0,0
133,-118,0,0,0,0,0,0,0,0,0,-1,1357,1142,0,0
140,-118,0,0,0,0,0,0,0,0,0,-1,1364,1142,0,0
147,-118,0,0,0,0,0,0,0,0,0,-1,1371,1142,0,0
154,-118,0,0,0,0,0,0,0,0,0,-1,1378,1142,0,0
161,-118,0,0,0,0,0,0,0,0,0,-1,1385,1142,0,0
168,-118,0,0,0,0,0,0,0,0,0,-1,1392,1142,0,0
175,-118,0,0,0,0,0,0,0,0,0,-1,1399,1142,0,0
182,-118,0,0,0,0,0,0,0,0,0,-1,1406,1142,0,0
189,-118,0,0,0,0,0,0,0,0,0,-1,1413,1142,0,0
196,-118,0,0,0,0,0,0,0,0,0,-1,1420,1142,0,0
203,-118,0,0,0,0,0,0,0,0,0,-1,1427,1142,0,0
210,-118,0,0,0,0,0,0,0,0,0,-1,1434,1142,0,0
217,-118,0,0,0,0,0,0,0,0,0,-1,1441,1142,0,0
224,-118,0,0,0,0,0,0,0,0,0,-1,1448,1142,0,0
231,-118,0,0,0,0,0,0,0,0,0,-1,1455,1142,0,0
238,-118,0,0,0,0,0,0,0,0,0,-1,1462,1142,0,0
245,-118,0,0,0,0,0,0,0,0,0,-1,1469,1142,0,0
252,-118,0,0,0,0,0,0,0,0,0,-1,1476,1142,0,0
259,-118,0,0,0,0,0,0,0,0,0,-1,1483,1142,0,0
266,-118,0,0,0,0,0,0,0,0,0,-1,1490,1142,0,0
273,-118,0,0,0,0,0,0,0,0,0,-1,1497,1142,0,0
280,-118,0,0,0,0,0,0,0,0,0,-1,1504,1142,0,0
287,-118,0,0,0,0,0,0,0,0,0,-1,1511,1142,0,0
294,-118,0,0,0,0,0,0,0,0,0,-1,1518,1142,0,0
301,-118,0,0,0,0,0,0,0,0,0,-1,1525,1142,0,0
308,-118,0,0,0,0,0,0,0,0,0,-1,1532,1142,0,0
315,-118,0,0,0,0,0,0,0,0,0,-1,1539,1142,0,0
322,-118,0,0,0,0,0,0,0,0,0,-1,1546,1142,0,0
329,-118,0,0,0,0,0,0,0,0,0,-1,1553,1142,0,0
336,-118,0,0,0,0,0,0,0,0,0,-1,1560,1142,0,0
343,-118,0,0,0,0,0,0,0,0,0,-1,1567,1142,0,0
350,-118,0,0,0,0,0,0,0,0,0,-1,1574,1142,0,0
357,-118,0,0,0,0,0,0,0,0,0,-1,1581,1142,0,0
364,-118,0,0,0,0,0,0,0,0,0,-1,1588,1142,0,0
371,-118,0,0,0,0,0,0,0,0,0,-1,1595,1142,0,0
378,-118,0,0,0,0,0,0,0,0,0,-1,1602,1142,0,0
385,-118,0,0,0,0,0,0,0,0,0,-1,1609,1142,0,0
392,-118,0,0,0,0,0,0,0,0,0,-1,1616,1142,0,0
399,-118,0,0,0,0,0,0,0,0,0,-1,1623,1142,0,0
406,-118,0,0,0,0,0,0,0,0,0,-1,1630,1142,0,0
413,-118,0,0,0,0,0,0,0,0,0,-1,1637,1142,0,0
420,-118,0,0,0,0,0,0,0,0,0,-1,1644,1142,0,0
427,-118,0,0,0,0,0,0,0,0,0,-1,1651,1142,0,0
434,-118,0,0,0,0,0,0,0,0,0,-1,1658,1142,0,0
441,-118,0,0,0,0,0,0,0,0,0,-1,1665,1142,0,0
448,-118,0,0,0,0,0,0,0,0,0,-1,1672,1142,0,0
455,-118,0,0,0,0,0,0,0,0,0,-1,1679,1142,0,0
462,-118,0,0,0,0,0,0,0,0,0,-1,1686,1142,0,0
469,-118,0,0,0,0,0,0,0,0,0,-1,1693,1142,0,0
476,-118,0,0,0,0,0,0,0,0,0,-1,1700,1142,0,0
483,-118,0,0,0,0,0,0,0,0,0,-1,1707,1142,0,0
490,-118,0,0,0,0,0,0,0,0,0,-1,1714,1142,0,0
497,-118,0,0,0,0,0,0,0,0,0,-1,1721,1142,0,0
504,-118,0,0,0,0,0,0,0,0,0,-1,1728,1142,0,0
511,-118,0,0,0,0,0,0,0,0,0,-1,1735,1142,0,0
518,-118,0,0,0,0,0,0,0,0,0,-1,1742,1142,0,0
525,-118,0,0,0,0,0,0,0,0,0,-1,1749,1142,0,0
532,-118,0,0,0,0,0,0,0,0,0,-1,1756,1142,0,0
539,-118,0,0,0,0,0,0,0,0,0,-1,1763,1142,0,0
546,-118,0,0,0,0,0,0,0,0,0,-1,1770,1142,0,0
553,-118,0,0,0,0,0,0,0,0,0,-1,1777,1142,0,0
560,-118,0,0,0,0,0,0,0,0,0,-1,1784,1142,0,0
567,-118,0,0,0,0,0,0,0,0,0,-1,1791,1142,0,0
574,-118,0,0,0,0,0,0,0,0,0,-1,1798,1142,0,0
581,-118,0,0,0,0,0,0,0,0,0,-1,1805,1142,0,0
588,-118,0,0,0,0,0,0,0,0,0,-1,1812,1142,0,0
595,-118,0,0,0,0,0,0,0,0,0,-1,1819,1142,0,0
602,-118,0,0,0,0,0,0,0,0,0,-1,1826,1142,0,0
609,-118,0,0,0,0,0,0,0,0,0,-1,1833,1142,0,0
616,-118,0,0,0,0,0,0,0,0,0,-1,1840,1142,0,0
623,-118,0,0,0,0,0,0,0,0,0,-1,1847,1142,0,0
630,-118,0,0,0,0,0,0,0,0,0,-1,1854,1142,0,0
637,-118,0,0,0,0,0,0,0,0,0,-1,1861,1142,0,0
644,-118,47.546,3.16101,0.00520612,-0.00339213,-0.000829776,0.00528547,-0.00347148,-0.095333,0.00509185,0.0419935,1868,1142,47.5461,-3.16098
651,-118,47.599,2.7533,0.00419287,-0.00229025,-0.000706872,0.00426905,-0.00236643,-0.107352,0.00388313,0.0412357,1875,1142,47.599,-2.75324
658,-118,47.7173,2.58081,0.00360861,-0.00158338,-0.000690948,0.00369899,-0.00167375,-0.130064,0.00317457,0.042834,1882,1142,47.7173,-2.5808
665,-118,47.9089,2.78479,0.00307625,-0.00105089,-0.000768322,0.00321464,-0.00118928,-0.178213,0.00263071,0.045186,1889,1142,47.9089,-2.78474
672,-118,48.0643,2.97717,0,0,0,0,0,0,0,-1,1896,1142,48.0643,-2.97713
679,-118,47.7415,2.93176,0.00210469,-0.000637081,-0.000764189,0.0023033,-0.000835689,-0.254269,0.00187716,0.0396065,1903,1142,47.7414,-2.9318
686,-118,47.6986,2.80383,0.00171901,-0.0007477,-0.000627248,0.00186935,-0.000898037,-0.23524,0.00163023,0.0331437,1910,1142,47.6987,-2.80381
693,-118,47.6888,2.7782,0.00146445,-0.000796954,-0.000466032,0.00155672,-0.000889229,-0.195473,0.00142959,0.0335541,1917,1142,47.6889,-2.77822
700,-118,47.8292,2.76453,0.00125328,-0.000818552,-0.000146271,0.00126356,-0.000828827,-0.0701359,0.0012167,0.020586,1924,1142,47.8292,-2.76451
707,-118,47.9333,2.875,0,0,0,0,0,0,0,-1,1931,1142,47.9334,-2.87498
714,-118,43.9178,7.81116,0,0,0,0,0,0,0,-1,1938,1142,43.9178,-7.81116
721,-118,43.6414,7.37024,-0.000100588,-0.000540125,0.000334638,7.99946e-05,-0.000720707,0.494851,0.000509235,0.0287093,1945,1142,43.6414,-7.37028
728,-118,43.712,7.00903,-0.000406793,-0.000663543,0.000879058,0.000353214,-0.00142355,0.712892,0.00108609,0.0205836,1952,1142,43.712,-7.009
735,-118,43.6779,6.67627,-0.000637865,-0.000824841,0.00146799,0.000739613,-0.00220232,0.753599,0.00176712,0.0203715,1959,1142,43.6779,-6.67624
742,-118,43.6678,6.32922,-0.00105658,-0.000531152,0.00181926,0.00104426,-0.002632,0.857106,0.00218748,0.0265098,1966,1142,43.6679,-6.32923
749,-118,43.6139,5.97839,-0.00254028,5.75071e-05,0.00198576,0.00113146,-0.00361423,1.07502,0.00286218,0.0230407,1973,1142,43.6139,-5.97837
756,-118,43.6165,5.61353,-0.00502384,0.00101235,0.00225386,0.00176106,-0.00577255,1.25008,0.00455043,0.018272,1980,1142,43.6164,-5.61354
763,-118,43.6455,5.25269,-0.00811988,0.0019764,0.00248505,0.00255491,-0.00869839,1.34207,0.00681219,0.00996703,1987,1142,43.6456,-5.25271
770,-118,43.5853,4.9574,-0.0126232,0.00304555,0.00286586,0.00355327,-0.013131,1.39545,0.0101479,0.0128694,1994,1142,43.5853,-4.9574
777,-118,43.4716,4.69971,-0.0186848,0.00416831,0.00336897,0.00465461,-0.0191711,1.42744,0.0145821,0.0276962,2001,1142,43.4716,-4.69976
784,-118,43.3733,4.1676,-0.0272024,0.00532417,0.00411026,0.00583553,-0.0277138,1.44702,0.0206971,0.0435019,2008,1142,43.3732,-4.16764
791,-118,43.2988,3.61694,0,0,0,0,0,0,0,-1,2015,1142,43.2988,-3.61693
798,-118,45.9578,-0.0032959,-0.0545427,0.00755002,0.00674847,0.00827501,-0.0552677,1.46378,0.0398906,0.0489231,2022,1142,45.9578,0.00326997
805,-118,44.9478,0.629761,-0.0751929,0.00860344,0.00900977,0.00956122,-0.0761507,1.46489,0.0542358,0.0465024,2029,1142,44.9477,-0.629782
812,-118,43.9431,0.883179,0,0,0,0,0,0,0,-1,2036,1142,43.943,-0.883202
-700,-125,0,0,0,0,0,0,0,0,0,-1,524,1149,0,0
-693,-125,-30.4573,0.134033,0,0,0,0,0,0,0,-1,531,1149,-30.4573,-0.134051
-686,-125,-31.0944,0.600952,0,0,0,0,0,0,0,-1,538,1149,-31.0944,-0.600977
-679,-125,-31.7068,1.01025,0,0,0,0,0,0,0,-1,545,1149,-31.7068,-1.01024
-672,-125,-32.3291,1.41711,0,0,0,0,0,0,0,-1,552,1149,-32.3291,-1.41715
-665,-125,-32.5221,1.94214,0,0,0,0,0,0,0,-1,559,1149,-32.5221,-1.94211
-658,-125,-30.7529,0.93335,0,0,0,0,0,0,0,-1,566,1149,-30.7529,-0.933363
-651,-125,-30.644,1.37793,0.0127094,0.00747202,-0.00159638,0.0131576,0.0070238,-0.273726,0.00760236,0.0422754,573,1149,-30.644,-1.3779
-644,-125,-30.607,1.75757,0.00773463,0.00591877,-0.00167617,0.00873298,0.00492042,-0.537185,0.00505549,0.0283816,580,1149,-30.607,-1.75751
-637,-125,-30.7249,2.16125,0.00472748,0.00449264,-0.00147964,0.00609435,0.00312576,-0.745802,0.00351897,0.0138002,587,1149,-30.7249,-2.16121
-630,-125,-30.7516,2.55054,0.00256761,0.00312111,-0.00119371,0.00406973,0.00161898,-0.899306,0.00236596,0.0154085,594,1149,-30.7516,-2.55055
-623,-125,-30.769,2.9519,0.00120736,0.00176481,-0.000864116,0.00239404,0.000578129,-0.941406,0.00144247,0.013797,601,1149,-30.769,-2.95187
-616,-125,-30.7809,3.30579,0.00029494,0.000715972,-0.000111144,0.000743511,0.000267401,-1.32791,0.000434867,0.020414,608,1149,-30.7809,-3.30574
-609,-125,-30.9272,3.6106,-0.000155273,0.000292459,0.000650191,0.000756244,-0.000619059,0.951196,0.000795347,0.0399083,615,1149,-30.9272,-3.61056
-602,-125,-30.9183,4.1554,-6.19312e-05,0.00023561,0.000724899,0.000826847,-0.000653169,0.886607,0.000856446,0.0331932,622,1149,-30.9183,-4.15542
-595,-125,-31.1042,4.6676,0,0,0,0,0,0,0,-1,629,1149,-31.1042,-4.66766
-588,-125,-30.7952,5.07031,0,0,0,0,0,0,0,-1,636,1149,-30.7952,-5.07035
-581,-125,-26.4055,4.83203,0,0,0,0,0,0,0,-1,643,1149,-26.4055,-4.83204
-574,-125,-35.254,0.468994,0,0,0,0,0,0,0,-1,650,1149,-35.254,-0.469029
-567,-125,-35.3694,0.868774,-7.62014e-06,-4.24204e-05,0.000718896,0.000694086,-0.000744127,0.773299,0.00083052,0.0484663,657,1149,-35.3694,-0.868814
-560,-125,-35.5283,1.22473,0.000104029,6.19882e-05,0.000768425,0.000851721,-0.000685704,0.771724,0.000889356,0.0373783,664,1149,-35.5284,-1.22477
-553,-125,-35.5253,1.15759,-0.000249111,0.000284096,0.000593121,0.000667777,-0.000632792,0.996615,0.000750974,0.0381175,671,1149,-35.5254,-1.15762
-546,-125,-35.3954,0.921143,-0.000822442,0.000527439,0.00043933,0.000657828,-0.000952831,1.28229,0.000935099,0.0393863,678,1149,-35.3954,-0.921182
-539,-125,-35.3946,0.979126,-0.00151219,0.000809129,0.000787147,0.00105087,-0.00175393,1.27283,0.00163622,0.0414271,685,1149,-35.3946,-0.979141
-532,-125,-35.3909,0.962769,-0.00256984,0.00103823,0.00181214,0.00179122,-0.00332283,1.17698,0.00299641,0.037261,692,1149,-35.3909,-0.962725
-525,-125,-35.4569,1.10095,-0.00404592,0.00127128,0.0034143,0.00293999,-0.00571463,1.1162,0.00508162,0.0388455,699,1149,-35.4569,-1.10096
-518,-125,0,0,0,0,0,0,0,0,0,-1,706,1149,0,0
-511,-125,0,0,0,0,0,0,0,0,0,-1,713,1149,0,0
-504,-125,0,0,0,0,0,0,0,0,0,-1,720,1149,0,0
-497,-125,0,0,0,0,0,0,0,0,0,-1,727,1149,0,0
-490,-125,0,0,0,0,0,0,0,0,0,-1,734,1149,0,0
-483,-125,0,0,0,0,0,0,0,0,0,-1,741,1149,0,0
-476,-125,0,0,0,0,0,0,0,0,0,-1,748,1149,0,0
-469,-125,0,0,0,0,0,0,0,0,0,-1,755,1149,0,0
-462,-125,0,0,0,0,0,0,0,0,0,-1,762,1149,0,0
-455,-125,0,0,0,0,0,0,0,0,0,-1,769,1149,0,0
-448,-125,0,0,0,0,0,0,0,0,0,-1,776,1149,0,0
-441,-125,0,0,0,0,0,0,0,0,0,-1,783,1149,0,0
-434,-125,0,0,0,0,0,0,0,0,0,-1,790,1149,0,0
-427,-125,0,0,0,0,0,0,0,0,0,-1,797,1149,0,0
-420,-125,0,0,0,0,0,0,0,0,0,-1,804,1149,0,0
-413,-125,0,0,0,0,0,0,0,0,0,-1,811,1149,0,0
-406,-125,0,0,0,0,0,0,0,0,0,-1,818,1149,0,0
-399,-125,0,0,0,0,0,0,0,0,0,-1,825,1149,0,0
-392,-125,0,0,0,0,0,0,0,0,0,-1,832,1149,0,0
-385,-125,0,0,0,0,0,0,0,0,0,-1,839,1149,0,0
-378,-125,0,0,0,0,0,0,0,0,0,-1,846,1149,0,0
-371,-125,0,0,0,0,0,0,0,0,0,-1,853,1149,0,0
-364,-125,0,0,0,0,0,0,0,0,0,-1,860,1149,0,0
-357,-125,0,0,0,0,0,0,0,0,0,-1,867,1149,0,0
-350,-125,0,0,0,0,0,0,0,0,0,-1,874,1149,0,0
-343,-125,0,0,0,0,0,0,0,0,0,-1,881,1149,0,0
-336,-125,0,0,0,0,0,0,0,0,0,-1,888,1149,0,0
-329,-125,0,0,0,0,0,0,0,0,0,-1,895,1149,0,0
-322,-125,0,0,0,0,0,0,0,0,0,-1,902,1149,0,0
-315,-125,0,0,0,0,0,0,0,0,0,-1,909,1149,0,0
-308,-125,0,0,0,0,0,0,0,0,0,-1,916,1149,0,0
-301,-125,0,0,0,0,0,0,0,0,0,-1,923,1149,0,0
-294,-125,0,0,0,0,0,0,0,0,0,-1,930,1149,0,0
-287,-125,0,0,0,0,0,0,0,0,0,-1,937,1149,0,0
-280,-125,0,0,0,0,0,0,0,0,0,-1,944,1149,0,0
-273,-125,0,0,0,0,0,0,0,0,0,-1,951,1149,0,0
-266,-125,0,0,0,0,0,0,0,0,0,-1,958,1149,0,0
-259,-125,0,0,0,0,0,0,0,0,0,-1,965,1149,0,0
-252,-125,0,0,0,0,0,0,0,0,0,-1,972,1149,0,0
-245,-125,0,0,0,0,0,0,0,0,0,-1,979,1149,0,0
-238,-125,0,0,0,0,0,0,0,0,0,-1,986,1149,0,0
-231,-125,0,0,0,0,0,0,0,0,0,-1,993,1149,0,0
-224,-125,0,0,0,0,0,0,0,0,0,-1,1000,1149,0,0
-217,-125,0,0,0,0,0,0,0,0,0,-1,1007,1149,0,0
-210,-125,0,0,0,0,0,0,0,0,0,-1,1014,1149,0,0
-203,-125,0,0,0,0,0,0,0,0,0,-1,1021,1149,0,0
-196,-125,0,0,0,0,0,0,0,0,0,-1,1028,1149,0,0
-189,-125,0,0,0,0,0,0,0,0,0,-1,1035,1149,0,0
-182,-125,0,0,0,0,0,0,0,0,0,-1,1042,1149,0,0
-175,-125,0,0,0,0,0,0,0,0,0,-1,1049,1149,0,0
-168,-125,0,0,0,0,0,0,0,0,0,-1,1056,1149,0,0
-161,-125,0,0,0,0,0,0,0,0,0,-1,1063,1149,0,0
-154,-125,0,0,0,0,0,0,0,0,0,-1,1070,1149,0,0
-147,-125,0,0,0,0,0,0,0,0,0,-1,1077,1149,0,0
-140,-125,0,0,0,0,0,0,0,0,0,-1,1084,1149,0,0
-133,-125,0,0,0,0,0,0,0,0,0,-1,1091,1149,0,0
-126,-125,0,0,0,0,0,0,0,0,0,-1,1098,1149,0,0
-119,-125,0,0,0,0,0,0,0,0,0,-1,1105,1149,0,0
-112,-125,0,0,0,0,0,0,0,0,0,-1,1112,1149,0,0
-105,-125,0,0,0,0,0,0,0,0,0,-1,1119,1149,0,0
-98,-125,0,0,0,0,0,0,0,0,0,-1,1126,1149,0,0
-91,-125,0,0,0,0,0,0,0,0,0,-1,1133,1149,0,0
-84,-125,0,0,0,0,0,0,0,0,0,-1,1140,1149,0,0
-77,-125,0,0,0,0,0,0,0,0,0,-1,1147,1149,0,0
-70,-125,0,0,0,0,0,0,0,0,0,-1,1154,1149,0,0
-63,-125,0,0,0,0,0,0,0,0,0,-1,1161,1149,0,0
-56,-125,0,0,0,0,0,0,0,0,0,-1,1168,1149,0,0
-49,-125,0,0,0,0,0,0,0,0,0,-1,1175,1149,0,0
-42,-125,0,0,0,0,0,0,0,0,0,-1,1182,1149,0,0
-35,-125,0,0,0,0,0,0,0,0,0,-1,1189,1149,0,0
-28,-125,0,0,0,0,0,0,0,0,0,-1,1196,1149,0,0
-21,-125,0,0,0,0,0,0,0,0,0,-1,1203,1149,0,0
-14,-125,0,0,0,0,0,0,0,0,0,-1,1210,1149,0,0
-7,-125,0,0,0,0,0,0,0,0,0,-1,1217,1149,0,0
0,-125,0,0,0,0,0,0,0,0,0,-1,1224,1149,0,0
7,-125,0,0,0,0,0,0,0,0,0,-1,1231,1149,0,0
14,-125,0,0,0,0,0,0,0,0,0,-1,1238,1149,0,0
21,-125,0,0,0,0,0,0,0,0,0,-1,1245,1149,0,0
28,-125,0,0,0,0,0,0,0,0,0,-1,1252,1149,0,0
35,-125,0,0,0,0,0,0,0,0,0,-1,1259,1149,0,0
42,-125,0,0,0,0,0,0,0,0,0,-1,1266,1149,0,0
49,-125,0,0,0,0,0,0,0,0,0,-1,1273,1149,0,0
56,-125,0,0,0,0,0,0,0,0,0,-1,1280,1149,0,0
63,-125,0,0,0,0,0,0,0,0,0,-1,1287,1149,0,0
70,-125,0,0,0,0,0,0,0,0,0,-1,1294,1149,0,0
77,-125,0,0,0,0,0,0,0,0,0,-1,1301,1149,0,0
84,-125,0,0,0,0,0,0,0,0,0,-1,1308,1149,0,0
91,-125,0,0,0,0,0,0,0,0,0,-1,1315,1149,0,0
98,-125,0,0,0,0,0,0,0,0,0,-1,1322,1149,0,0
105,-125,0,0,0,0,0,0,0,0,0,-1,1329,1149,0,0
112,-125,0,0,0,0,0,0,0,0,0,-1,1336,1149,0,0
119,-125,0,0,0,0,0,0,0,0,0,-1,1343,1149,0,0
126,-125,0,0,0,0,0,0,0,0,0,-1,1350,1149,0,0
133,-125,0,0,0,0,0,0,0,0,0,-1,1357,1149,0,0
140,-125,0,0,0,0,0,0,0,0,0,-1,1364,1149,0,0
147,-125,0,0,0,0,0,0,0,0,0,-1,1371,1149,0,0
154,-125,0,0,0,0,0,0,0,0,0,-1,1378,1149,0,0
161,-125,0,0,0,0,0,0,0,0,0,-1,1385,1149,0,0
168,-125,0,0,0,0,0,0,0,0,0,-1,1392,1149,0,0
175,-125,0,0,0,0,0,0,0,0,0,-1,1399,1149,0,0
182,-125,0,0,0,0,0,0,0,0,0,-1,1406,1149,0,0
189,-125,0,0,0,0,0,0,0,0,0,-1,1413,1149,0,0
196,-125,0,0,0,0,0,0,0,0,0,-1,1420,1149,0,0
203,-125,0,0,0,0,0,0,0,0,0,-1,1427,1149,0,0
210,-125,0,0,0,0,0,0,0,0,0,-1,1434,1149,0,0
217,-125,0,0,0,0,0,0,0,0,0,-1,1441,1149,0,0
224,-125,0,0,0,0,0,0,0,0,0,-1,1448,1149,0,0
231,-125,0,0,0,0,0,0,0,0,0,-1,1455,1149,0,0
238,-125,0,0,0,0,0,0,0,0,0,-1,1462,1149,0,0
245,-125,0,0,0,0,0,0,0,0,0,-1,1469,1149,0,0
252,-125,0,0,0,0,0,0,0,0,0,-1,1476,1149,0,0
259,-125,0,0,0,0,0,0,0,0,0,-1,1483,1149,0,0
266,-125,0,0,0,0,0,0,0,0,0,-1,1490,1149,0,0
273,-125,0,0,0,0,0,0,0,0,0,-1,1497,1149,0,0
280,-125,0,0,0,0,0,0,0,0,0,-1,1504,1149,0,0
287,-125,0,0,0,0,0,0,0,0,0,-1,1511,1149,0,0
294,-125,0,0,0,0,0,0,0,0,0,-1,1518,1149,0,0
301,-125,0,0,0,0,0,0,0,0,0,-1,1525,1149,0,0
308,-125,0,0,0,0,0,0,0,0,0,-1,1532,1149,0,0
315,-125,0,0,0,0,0,0,0,0,0,-1,1539,1149,0,0
322,-125,0,0,0,0,0,0,0,0,0,-1,1546,1149,0,0
329,-125,0,0,0,0,0,0,0,0,0,-1,1553,1149,0,0
336,-125,0,0,0,0,0,0,0,0,0,-1,1560,1149,0,0
343,-125,0,0,0,0,0,0,0,0,0,-1,1567,1149,0,0
350,-125,0,0,0,0,0,0,0,0,0,-1,1574,1149,0,0
357,-125,0,0,0,0,0,0,0,0,0,-1,1581,1149,0,0
364,-125,0,0,0,0,0,0,0,0,0,-1,1588,1149,0,0
371,-125,0,0,0,0,0,0,0,0,0,-1,1595,1149,0,0
378,-125,0,0,0,0,0,0,0,0,0,-1,1602,1149,0,0
385,-125,0,0,0,0,0,0,0,0,0,-1,1609,1149,0,0
392,-125,0,0,0,0,0,0,0,0,0,-1,1616,1149,0,0
399,-125,0,0,0,0,0,0,0,0,0,-1,1623,1149,0,0
406,-125,0,0,0,0,0,0,0,0,0,-1,1630,1149,0,0
413,-125,0,0,0,0,0,0,0,0,0,-1,1637,1149,0,0
420,-125,0,0,0,0,0,0,0,0,0,-1,1644,1149,0,0
427,-125,0,0,0,0,0,0,0,0,0,-1,1651,1149,0,0
434,-125,0,0,0,0,0,0,0,0,0,-1,1658,1149,0,0
441,-125,0,0,0,0,0,0,0,0,0,-1,1665,1149,0,0
448,-125,0,0,0,0,0,0,0,0,0,-1,1672,1149,0,0
455,-125,0,0,0,0,0,0,0,0,0,-1,1679,1149,0,0
462,-125,0,0,0,0,0,0,0,0,0,-1,1686,1149,0,0
469,-125,0,0,0,0,0,0,0,0,0,-1,1693,1149,0,0
476,-125,0,0,0,0,0,0,0,0,0,-1,1700,1149,0,0
483,-125,0,0,0,0,0,0,0,0,0,-1,1707,1149,0,0
490,-125,0,0,0,0,0,0,0,0,0,-1,1714,1149,0,0
497,-125,0,0,0,0,0,0,0,0,0,-1,1721,1149,0,0
504,-125,0,0,0,0,0,0,0,0,0,-1,1728,1149,0,0
511,-125,0,0,0,0,0,0,0,0,0,-1,1735,1149,0,0
518,-125,0,0,0,0,0,0,0,0,0,-1,1742,1149,0,0
525,-125,0,0,0,0,0,0,0,0,0,-1,1749,1149,0,0
532,-125,0,0,0,0,0,0,0,0,0,-1,1756,1149,0,0
539,-125,0,0,0,0,0,0,0,0,0,-1,1763,1149,0,0
546,-125,0,0,0,0,0,0,0,0,0,-1,1770,1149,0,0
553,-125,0,0,0,0,0,0,0,0,0,-1,1777,1149,0,0
560,-125,0,0,0,0,0,0,0,0,0,-1,1784,1149,0,0
567,-125,0,0,0,0,0,0,0,0,0,-1,1791,1149,0,0
574,-125,0,0,0,0,0,0,0,0,0,-1,1798,1149,0,0
581,-125,0,0,0,0,0,0,0,0,0,-1,1805,1149,0,0
588,-125,0,0,0,0,0,0,0,0,0,-1,1812,1149,0,0
595,-125,0,0,0,0,0,0,0,0,0,-1,1819,1149,0,0
602,-125,0,0,0,0,0,0,0,0,0,-1,1826,1149,0,0
609,-125,0,0,0,0,0,0,0,0,0,-1,1833,1149,0,0
616,-125,0,0,0,0,0,0,0,0,0,-1,1840,1149,0,0
623,-125,0,0,0,0,0,0,0,0,0,-1,1847,1149,0,0
630,-125,0,0,0,0,0,0,0,0,0,-1,1854,1149,0,0
637,-125,0,0,0,0,0,0,0,0,0,-1,1861,1149,0,0
644,-125,47.8568,3.10181,0.00432325,-0.00355156,-0.00148141,0.00459271,-0.00382103,-0.179929,0.00486448,0.0386131,1868,1149,47.8568,-3.10178
651,-125,47.7455,2.73633,0.00347204,-0.00227669,-0.00111667,0.00368133,-0.00248598,-0.185274,0.00358293,0.0380971,1875,1149,47.7455,-2.73634
658,-125,47.6769,2.65332,0.00302522,-0.0014288,-0.000937177,0.00321438,-0.00161796,-0.199163,0.00284025,0.0398627,1882,1149,47.6769,-2.65332
665,-125,47.7272,2.96228,0.00264254,-0.000796048,-0.0009008,0.00286423,-0.00101774,-0.241307,0.00232423,0.0438956,1889,1149,47.7271,-2.96226
672,-125,47.7761,3.25757,0.00233178,-0.000380498,-0.000898577,0.00260246,-0.000651183,-0.292591,0.00198791,0.0458985,1896,1149,47.7761,-3.25759
679,-125,47.7196,3.02698,0.00189341,-0.000324677,-0.000745451,0.00212066,-0.000551924,-0.295897,0.00162921,0.0381633,1903,1149,47.7196,-3.02701
686,-125,47.691,2.83875,0.00156254,-0.00043997,-0.000592143,0.00172453,-0.000601962,-0.267036,0.00139435,0.0336321,1910,1149,47.691,-2.83879
693,-125,47.686,2.82422,0.00133128,-0.000485488,-0.000423051,0.00142496,-0.000579169,-0.217924,0.00119094,0.0307406,1917,1149,47.6861,-2.82423
700,-125,47.8395,2.82849,0.0011379,-0.000506287,-9.54658e-05,0.00114343,-0.000511811,-0.0578037,0.000978569,0.0154915,1924,1149,47.8395,-2.82844
707,-125,48.0015,2.91394,0,0,0,0,0,0,0,-1,1931,1149,48.0015,-2.9139
714,-125,43.4448,7.84802,0,0,0,0,0,0,0,-1,1938,1149,43.4448,-7.848
721,-125,43.3297,7.43213,-0.00011497,-0.00029525,0.000302867,0.000110886,-0.000521106,0.640761,0.000389661,0.0285319,1945,1149,43.3297,-7.43209
728,-125,43.302,7.07898,-0.000378786,-0.000521274,0.000860454,0.000413368,-0.00131343,0.744093,0.00104113,0.021348,1952,1149,43.302,-7.07901
735,-125,43.2903,6.73853,-0.000564339,-0.000797568,0.00148945,0.000813059,-0.00217497,0.746331,0.00178387,0.0229783,1959,1149,43.2903,-6.73857
742,-125,43.3279,6.34998,-0.00102403,-0.000589313,0.00186945,0.00107537,-0.00268871,0.843272,0.00223874,0.0270033,1966,1149,43.3279,-6.34993
749,-125,43.2529,6.00476,-0.00258303,-0.000365905,0.00220743,0.000995685,-0.00394462,1.0181,0.00301692,0.0280169,1973,1149,43.2529,-6.00478
756,-125,43.2517,5.58923,-0.00535259,5.92606e-05,0.00277198,0.00122708,-0.00652041,1.17207,0.00480845,0.0218572,1980,1149,43.2517,-5.58928
763,-125,43.2595,5.25037,-0.00893798,0.00017287,0.00348625,0.00135381,-0.0101189,1.24419,0.00723953,0.011493,1987,1149,43.2596,-5.25038
770,-125,43.2128,4.91272,-0.0141063,0.000159576,0.00446407,0.00144131,-0.0153881,1.2912,0.0107713,0.0145918,1994,1149,43.2128,-4.9127
777,-125,43.1212,4.67053,-0.0211502,9.28417e-06,0.00568923,0.00144196,-0.0225829,1.3241,0.0155582,0.0292516,2001,1149,43.1212,-4.67056
784,-125,43.0515,4.20435,-0.0311823,-0.000387026,0.00733943,0.00127272,-0.0328421,1.3484,0.0223311,0.0463462,2008,1149,43.0514,-4.20434
791,-125,43.0266,3.72522,0,0,0,0,0,0,0,-1,2015,1149,43.0265,-3.72528
798,-125,45.9084,-0.0465088,-0.0634606,-0.00160578,0.012061,0.000662781,-0.0657291,1.38488,0.044042,0.0466506,2022,1149,45.9085,0.0465643
805,-125,44.8379,0.418091,-0.0878796,-0.00214142,0.0154215,0.00054805,-0.0905691,1.39814,0.0605629,0.04688,2029,1149,44.8379,-0.418076
812,-125,43.7236,0.0098877,0,0,0,0,0,0,0,-1,2036,1149,43.7237,-0.00986534
-700,-132,0,0,0,0,0,0,0,0,0,-1,524,1156,0,0
-693,-132,-33.3282,-5.13147,0,0,0,0,0,0,0,-1,531,1156,-33.3282,5.1315
-686,-132,-31.2509,1.01685,0,0,0,0,0,0,0,-1,538,1156,-31.251,-1.01685
-679,-132,-31.9466,1.38855,0,0,0,0,0,0,0,-1,545,1156,-31.9466,-1.38857
-672,-132,-32.7257,1.75854,0,0,0,0,0,0,0,-1,552,1156,-32.7257,-1.75856
-665,-132,-33.0979,1.43738,0,0,0,0,0,0,0,-1,559,1156,-33.0979,-1.4374
-658,-132,-31.3936,1.27136,0,0,0,0,0,0,0,-1,566,1156,-31.3936,-1.27137
-651,-132,-30.8336,1.52271,0.0104026,0.00706834,-0.0014364,0.010936,0.00653489,-0.355596,0.00635386,0.0385981,573,1156,-30.8336,-1.52265
-644,-132,-30.2791,1.77539,0.00614751,0.00557504,-0.00155298,0.00744041,0.00428214,-0.694264,0.00431203,0.0224352,580,1156,-30.2791,-1.77539
-637,-132,-30.3164,2.16504,0.00353173,0.0042527,-0.00136531,0.00530431,0.00248013,-0.914469,0.00306459,0.0120453,587,1156,-30.3164,-2.16501
-630,-132,-30.3325,2.53931,0.00165953,0.00297417,-0.00109432,0.00359341,0.00104029,-1.05585,0.00213507,0.0102515,594,1156,-30.3324,-2.53925
-623,-132,-30.3559,2.96594,0.000481403,0.00169301,-0.000759922,0.00205905,0.000115364,-1.12191,0.00133591,0.0154786,601,1156,-30.3559,-2.96592
-616,-132,-30.3613,3.33997,-0.000342628,0.000639,-3.17049e-05,0.000640022,-0.000343651,-1.53854,0.000576452,0.0279201,608,1156,-30.3613,-3.33997
-609,-132,-30.2657,3.80554,0,0,0,0,0,0,0,-1,615,1156,-30.2658,-3.80556
-602,-132,-30.3983,4.11755,-0.000624019,0.000254158,0.000691351,0.000634072,-0.00100393,1.06832,0.000953704,0.0291866,622,1156,-30.3983,-4.11761
-595,-132,-30.5025,4.55042,-0.000633162,1.6479e-05,0.000460003,0.000254785,-0.000871468,1.09281,0.000681961,0.040916,629,1156,-30.5025,-4.55047
-588,-132,-30.4792,5.03174,0,0,0,0,0,0,0,-1,636,1156,-30.4793,-5.03176
-581,-132,-30.355,5.5498,0,0,0,0,0,0,0,-1,643,1156,-30.355,-5.5498
-574,-132,-33.2071,2.86963,0,0,0,0,0,0,0,-1,650,1156,-33.2071,-2.86963
-567,-132,-35.3385,0.799194,0,0,0,0,0,0,0,-1,657,1156,-35.3385,-0.799152
-560,-132,-35.4832,1.07947,-0.000134046,0.000270691,0.000658137,0.00075687,-0.000620225,0.934554,0.000796369,0.0361248,664,1156,-35.4832,-1.07951
-553,-132,-35.5623,1.11414,-0.000395279,0.000558392,0.000494315,0.000768375,-0.000605262,1.1691,0.000794931,0.0380541,671,1156,-35.5623,-1.11415
-546,-132,-35.5807,1.1333,-0.000788097,0.000875107,0.0003899,0.000961973,-0.000874964,1.35159,0.00106095,0.0410118,678,1156,-35.5807,-1.13332
-539,-132,-35.445,1.06226,-0.00143626,0.0013429,0.000856667,0.00158575,-0.0016791,1.29457,0.00188522,0.0433297,685,1156,-35.445,-1.06231
-532,-132,-35.2849,1.03149,-0.00260487,0.00178747,0.00210901,0.00263615,-0.00345354,1.18822,0.00352642,0.0417743,692,1156,-35.2848,-1.03154
-525,-132,-35.381,1.18896,-0.00411981,0.00223349,0.0040012,0.00416572,-0.00605204,1.12091,0.00593264,0.0389115,699,1156,-35.381,-1.18899
-518,-132,0,0,0,0,0,0,0,0,0,-1,706,1156,0,0
-511,-132,0,0,0,0,0,0,0,0,0,-1,713,1156,0,0
-504,-132,0,0,0,0,0,0,0,0,0,-1,720,1156,0,0
-497,-132,0,0,0,0,0,0,0,0,0,-1,727,1156,0,0
-490,-132,0,0,0,0,0,0,0,0,0,-1,734,1156,0,0
-483,-132,0,0,0,0,0,0,0,0,0,-1,741,1156,0,0
-476,-132,0,0,0,0,0,0,0,0,0,-1,748,1156,0,0
-469,-132,0,0,0,0,0,0,0,0,0,-1,755,1156,0,0
-462,-132,0,0,0,0,0,0,0,0,0,-1,762,1156,0,0
-455,-132,0,0,0,0,0,0,0,0,0,-1,769,1156,0,0
-448,-132,0,0,0,0,0,0,0,0,0,-1,776,1156,0,0
-441,-132,0,0,0,0,0,0,0,0,0,-1,783,1156,0,0
-434,-132,0,0,0,0,0,0,0,0,0,-1,790,1156,0,0
-427,-132,0,0,0,0,0,0,0,0,0,-1,797,1156,0,0
-420,-132,0,0,0,0,0,0,0,0,0,-1,804,1156,0,0
-413,-132,0,0,0,0,0,0,0,0,0,-1,811,1156,0,0
-406,-132,0,0,0,0,0,0,0,0,0,-1,818,1156,0,0
-399,-132,0,0,0,0,0,0,0,0,0,-1,825,1156,0,0
-392,-132,0,0,0,0,0,0,0,0,0,-1,832,1156,0,0
-385,-132,0,0,0,0,0,0,0,0,0,-1,839,1156,0,0
-378,-132,0,0,0,0,0,0,0,0,0,-1,846,1156,0,0
-371,-132,0,0,0,0,0,0,0,0,0,-1,853,1156,0,0
-364,-132,0,0,0,0,0,0,0,0,0,-1,860,1156,0,0
-357,-132,0,0,0,0,0,0,0,0,0,-1,867,1156,0,0
-350,-132,0,0,0,0,0,0,0,0,0,-1,874,1156,0,0
-343,-132,0,0,0,0,0,0,0,0,0,-1,881,1156,0,0
-336,-132,0,0,0,0,0,0,0,0,0,-1,888,1156,0,0
-329,-132,0,0,0,0,0,0,0,0,0,-1,895,1156,0,0
-322,-132,0,0,0,0,0,0,0,0,0,-1,902,1156,0,0
-315,-132,0,0,0,0,0,0,0,0,0,-1,909,1156,0,0
-308,-132,0,0,0,0,0,0,0,0,0,-1,916,1156,0,0
-301,-132,0,0,0,0,0,0,0,0,0,-1,923,1156,0,0
-294,-132,0,0,0,0,0,0,0,0,0,-1,930,1156,0,0
-287,-132,0,0,0,0,0,0,0,0,0,-1,937,1156,0,0
-280,-132,0,0,0,0,0,0,0,0,0,-1,944,1156,0,0
-273,-132,0,0,0,0,0,0,0,0,0,-1,951,1156,0,0
-266,-132,0,0,0,0,0,0,0,0,0,-1,958,1156,0,0
-259,-132,0,0,0,0,0,0,0,0,0,-1,965,1156,0,0
-252,-132,0,0,0,0,0,0,0,0,0,-1,972,1156,0,0
-245,-132,0,0,0,0,0,0,0,0,0,-1,979,1156,0,0
-238,-132,0,0,0,0,0,0,0,0,0,-1,986,1156,0,0
-231,-132,0,0,0,0,0,0,0,0,0,-1,993,1156,0,0
-224,-132,0,0,0,0,0,0,0,0,0,-1,1000,1156,0,0
-217,-132,0,0,0,0,0,0,0,0,0,-1,1007,1156,0,0
-210,-132,0,0,0,0,0,0,0,0,0,-1,1014,1156,0,0
-203,-132,0,0,0,0,0,0,0,0,0,-1,1021,1156,0,0
-196,-132,0,0,0,0,0,0,0,0,0,-1,1028,1156,0,0
-189,-132,0,0,0,0,0,0,0,0,0,-1,1035,1156,0,0
-182,-132,0,0,0,0,0,0,0,0,0,-1,1042,1156,0,0
-175,-132,0,0,0,0,0,0,0,0,0,-1,1049,1156,0,0
-168,-132,0,0,0,0,0,0,0,0,0,-1,1056,1156,0,0
-161,-132,0,0,0,0,0,0,0,0,0,-1,1063,1156,0,0
-154,-132,0,0,0,0,0,0,0,0,0,-1,1070,1156,0,0
-147,-132,0,0,0,0,0,0,0,0,0,-1,1077,1156,0,0
-140,-132,0,0,0,0,0,0,0,0,0,-1,1084,1156,0,0
-133,-132,0,0,0,0,0,0,0,0,0,-1,1091,1156,0,0
-126,-132,0,0,0,0,0,0,0,0,0,-1,1098,1156,0,0
-119,-132,0,0,0,0,0,0,0,0,0,-1,1105,1156,0,0
-112,-132,0,0,0,0,0,0,0,0,0,-1,1112,1156,0,0
-105,-132,0,0,0,0,0,0,0,0,0,-1,1119,1156,0,0
-98,-132,0,0,0,0,0,0,0,0,0,-1,1126,1156,0,0
-91,-132,0,0,0,0,0,0,0,0,0,-1,1133,1156,0,0
-84,-132,0,0,0,0,0,0,0,0,0,-1,1140,1156,0,0
-77,-132,0,0,0,0,0,0,0,0,0,-1,1147,1156,0,0
-70,-132,0,0,0,0,0,0,0,0,0,-1,1154,1156,0,0
-63,-132,0,0,0,0,0,0,0,0,0,-1,1161,1156,0,0
-56,-132,0,0,0,0,0,0,0,0,0,-1,1168,1156,0,0
-49,-132,0,0,0,0,0,0,0,0,0,-1,1175,1156,0,0
-42,-132,0,0,0,0,0,0,0,0,0,-1,1182,1156,0,0
-35,-132,0,0,0,0,0,0,0,0,0,-1,1189,1156,0,0
-28,-132,0,0,0,0,0,0,0,0,0,-1,1196,1156,0,0
-21,-132,0,0,0,0,0,0,0,0,0,-1,1203,1156,0,0
-14,-132,0,0,0,0,0,0,0,0,0,-1,1210,1156,0,0
-7,-132,0,0,0,0,0,0,0,0,0,-1,1217,1156,0,0
0,-132,0,0,0,0,0,0,0,0,0,-1,1224,1156,0,0
7,-132,0,0,0,0,0,0,0,0,0,-1,1231,1156,0,0
14,-132,0,0,0,0,0,0,0,0,0,-1,1238,1156,0,0
21,-132,0,0,0,0,0,0,0,0,0,-1,1245,1156,0,0
28,-132,0,0,0,0,0,0,0,0,0,-1,1252,1156,0,0
35,-132,0,0,0,0,0,0,0,0,0,-1,1259,1156,0,0
42,-132,0,0,0,0,0,0,0,0,0,-1,1266,1156,0,0
49,-132,0,0,0,0,0,0,0,0,0,-1,1273,1156,0,0
56,-132,0,0,0,0,0,0,0,0,0,-1,1280,1156,0,0
63,-132,0,0,0,0,0,0,0,0,0,-1,1287,1156,0,0
70,-132,0,0,0,0,0,0,0,0,0,-1,1294,1156,0,0
77,-132,0,0,0,0,0,0,0,0,0,-1,1301,1156,0,0
84,-132,0,0,0,0,0,0,0,0,0,-1,1308,1156,0,0
91,-132,0,0,0,0,0,0,0,0,0,-1,1315,1156,0,0
98,-132,0,0,0,0,0,0,0,0,0,-1,1322,1156,0,0
105,-132,0,0,0,0,0,0,0,0,0,-1,1329,1156,0,0
112,-132,0,0,0,0,0,0,0,0,0,-1,1336,1156,0,0
119,-132,0,0,0,0,0,0,0,0,0,-1,1343,1156,0,0
126,-132,0,0,0,0,0,0,0,0,0,-1,1350,1156,0,0
133,-132,0,0,0,0,0,0,0,0,0,-1,1357,1156,0,0
140,-132,0,0,0,0,0,0,0,0,0,-1,1364,1156,0,0
147,-132,0,0,0,0,0,0,0,0,0,-1,1371,1156,0,0
154,-132,0,0,0,0,0,0,0,0,0,-1,1378,1156,0,0
161,-132,0,0,0,0,0,0,0,0,0,-1,1385,1156,0,0
168,-132,0,0,0,0,0,0,0,0,0,-1,1392,1156,0,0
175,-132,0,0,0,0,0,0,0,0,0,-1,1399,1156,0,0
182,-132,0,0,0,0,0,0,0,0,0,-1,1406,1156,0,0
189,-132,0,0,0,0,0,0,0,0,0,-1,1413,1156,0,0
196,-132,0,0,0,0,0,0,0,0,0,-1,1420,1156,0,0
203,-132,0,0,0,0,0,0,0,0,0,-1,1427,1156,0,0
210,-132,0,0,0,0,0,0,0,0,0,-1,1434,1156,0,0
217,-132,0,0,0,0,0,0,0,0,0,-1,1441,1156,0,0
224,-132,0,0,0,0,0,0,0,0,0,-1,1448,1156,0,0
231,-132,0,0,0,0,0,0,0,0,0,-1,1455,1156,0,0
238,-132,0,0,0,0,0,0,0,0,0,-1,1462,1156,0,0
245,-132,0,0,0,0,0,0,0,0,0,-1,1469,1156,0,0
252,-132,0,0,0,0,0,0,0,0,0,-1,1476,1156,0,0
259,-132,0,0,0,0,0,0,0,0,0,-1,1483,1156,0,0
266,-132,0,0,0,0,0,0,0,0,0,-1,1490,1156,0,0
273,-132,0,0,0,0,0,0,0,0,0,-1,1497,1156,0,0
280,-132,0,0,0,0,0,0,0,0,0,-1,1504,1156,0,0
287,-132,0,0,0,0,0,0,0,0,0,-1,1511,1156,0,0
294,-132,0,0,0,0,0,0,0,0,0,-1,1518,1156,0,0
301,-132,0,0,0,0,0,0,0,0,0,-1,1525,1156,0,0
308,-132,0,0,0,0,0,0,0,0,0,-1,1532,1156,0,0
315,-132,0,0,0,0,0,0,0,0,0,-1,1539,1156,0,0
322,-132,0,0,0,0,0,0,0,0,0,-1,1546,1156,0,0
329,-132,0,0,0,0,0,0,0,0,0,-1,1553,1156,0,0
336,-132,0,0,0,0,0,0,0,0,0,-1,1560,1156,0,0
343,-132,0,0,0,0,0,0,0,0,0,-1,1567,1156,0,0
350,-132,0,0,0,0,0,0,0,0,0,-1,1574,1156,0,0
357,-132,0,0,0,0,0,0,0,0,0,-1,1581,1156,0,0
364,-132,0,0,0,0,0,0,0,0,0,-1,1588,1156,0,0
371,-132,0,0,0,0,0,0,0,0,0,-1,1595,1156,0,0
378,-132,0,0,0,0,0,0,0,0,0,-1,1602,1156,0,0
385,-132,0,0,0,0,0,0,0,0,0,-1,1609,1156,0,0
392,-132,0,0,0,0,0,0,0,0,0,-1,1616,1156,0,0
399,-132,0,0,0,0,0,0,0,0,0,-1,1623,1156,0,0
406,-132,0,0,0,0,0,0,0,0,0,-1,1630,1156,0,0
413,-132,0,0,0,0,0,0,0,0,0,-1,1637,1156,0,0
420,-132,0,0,0,0,0,0,0,0,0,-1,1644,1156,0,0
427,-132,0,0,0,0,0,0,0,0,0,-1,1651,1156,0,0
434,-132,0,0,0,0,0,0,0,0,0,-1,1658,1156,0,0
441,-132,0,0,0,0,0,0,0,0,0,-1,1665,1156,0,0
448,-132,0,0,0,0,0,0,0,0,0,-1,1672,1156,0,0
455,-132,0,0,0,0,0,0,0,0,0,-1,1679,1156,0,0
462,-132,0,0,0,0,0,0,0,0,0,-1,1686,1156,0,0
469,-132,0,0,0,0,0,0,0,0,0,-1,1693,1156,0,0
476,-132,0,0,0,0,0,0,0,0,0,-1,1700,1156,0,0
483,-132,0,0,0,0,0,0,0,0,0,-1,1707,1156,0,0
490,-132,0,0,0,0,0,0,0,0,0,-1,1714,1156,0,0
497,-132,0,0,0,0,0,0,0,0,0,-1,1721,1156,0,0
504,-132,0,0,0,0,0,0,0,0,0,-1,1728,1156,0,0
511,-132,0,0,0,0,0,0,0,0,0,-1,1735,1156,0,0
518,-132,0,0,0,0,0,0,0,0,0,-1,1742,1156,0,0
525,-132,0,0,0,0,0,0,0,0,0,-1,1749,1156,0,0
532,-132,0,0,0,0,0,0,0,0,0,-1,1756,1156,0,0
539,-132,0,0,0,0,0,0,0,0,0,-1,1763,1156,0,0
546,-132,0,0,0,0,0,0,0,0,0,-1,1770,1156,0,0
553,-132,0,0,0,0,0,0,0,0,0,-1,1777,1156,0,0
560,-132,0,0,0,0,0,0,0,0,0,-1,1784,1156,0,0
567,-132,0,0,0,0,0,0,0,0,0,-1,1791,1156,0,0
574,-132,0,0,0,0,0,0,0,0,0,-1,1798,1156,0,0
581,-132,0,0,0,0,0,0,0,0,0,-1,1805,1156,0,0
588,-132,0,0,0,0,0,0,0,0,0,-1,1812,1156,0,0
595,-132,0,0,0,0,0,0,0,0,0,-1,1819,1156,0,0
602,-132,0,0,0,0,0,0,0,0,0,-1,1826,1156,0,0
609,-132,0,0,0,0,0,0,0,0,0,-1,1833,1156,0,0
616,-132,0,0,0,0,0,0,0,0,0,-1,1840,1156,0,0
623,-132,0,0,0,0,0,0,0,0,0,-1,1847,1156,0,0
630,-132,0,0,0,0,0,0,0,0,0,-1,1854,1156,0,0
637,-132,0,0,0,0,0,0,0,0,0,-1,1861,1156,0,0
644,-132,47.9006,2.85925,0.00343701,-0.00332972,-0.00182681,0.0038987,-0.0037914,-0.247543,0.00444002,0.038125,1868,1156,47.9006,-2.85926
651,-132,47.7778,2.75415,0.00277196,-0.00206984,-0.0013303,0.00311339,-0.00241127,-0.251232,0.00319824,0.0391942,1875,1156,47.7778,-2.7541
658,-132,47.646,2.75391,0.00245868,-0.00117356,-0.00104945,0.0027401,-0.00145497,-0.261988,0.00245961,0.0389616,1882,1156,47.646,-2.75389
665,-132,47.5862,2.91211,0.00222401,-0.000477483,-0.000942705,0.00252044,-0.000773918,-0.304662,0.0019891,0.0398737,1889,1156,47.5862,-2.91208
672,-132,47.7017,3.1344,0.00203238,-1.30108e-05,-0.000888046,0.00236413,-0.000344764,-0.357523,0.00170268,0.0409204,1896,1156,47.7017,-3.13439
679,-132,47.7571,2.86536,0.0016879,4.73862e-05,-0.000683883,0.00193559,-0.000200307,-0.34749,0.00136208,0.0382521,1903,1156,47.757,-2.86535
686,-132,47.7415,2.79309,0.00137214,-9.37419e-05,-0.000517643,0.00153651,-0.000258106,-0.307456,0.00112033,0.0345483,1910,1156,47.7415,-2.79312
693,-132,47.7419,2.86584,0.00113673,-0.000154972,-0.000340212,0.00122085,-0.000239099,-0.242415,0.000904202,0.0274973,1917,1156,47.7419,-2.86585
700,-132,47.8195,2.81909,0.000959845,-0.00017864,-1.0484e-05,0.000959941,-0.000178736,-0.00920768,0.00070711,0.0386276,1924,1156,47.8195,-2.81912
707,-132,47.871,2.77087,0,0,0,0,0,0,0,-1,1931,1156,47.871,-2.77089
714,-132,42.9275,7.64148,0,0,0,0,0,0,0,-1,1938,1156,42.9275,-7.64147
721,-132,42.9939,7.35303,-0.000138856,-2.32724e-05,0.000304921,0.000229285,-0.000391413,0.879053,0.000362412,0.0345652,1945,1156,42.9939,-7.35307
728,-132,42.9266,7.07996,-0.000375469,-0.000344733,0.000858683,0.000498719,-0.00121892,0.794346,0.00102032,0.0263288,1952,1156,42.9266,-7.07992
735,-132,42.8666,6.77112,-0.000543533,-0.000703738,0.00151822,0.000896695,-0.00214397,0.759042,0.00180409,0.0276627,1959,1156,42.8666,-6.77111
742,-132,42.8865,6.33704,-0.00100178,-0.000562373,0.00190817,0.0011387,-0.00270285,0.842715,0.00227838,0.0207032,1966,1156,42.8865,-6.33709
749,-132,42.8826,5.96216,-0.00250885,-0.000529698,0.00230044,0.000984978,-0.00402352,0.988518,0.00306391,0.0244505,1973,1156,42.8826,-5.96213
756,-132,42.8805,5.57202,-0.00539788,-0.000375066,0.0029921,0.00101991,-0.00679286,1.13454,0.00490402,0.0231937,1980,1156,42.8805,-5.57204
763,-132,42.8744,5.26013,-0.00925661,-0.00061365,0.00395182,0.000920812,-0.0107911,1.20042,0.0075198,0.0136666,1987,1156,42.8744,-5.26013
770,-132,42.8585,4.91516,-0.0148265,-0.00104599,0.00522154,0.000708986,-0.0165815,1.24655,0.0112981,0.0135903,1994,1156,42.8585,-4.91521
777,-132,42.7935,4.55066,-0.0226135,-0.0016865,0.00686103,0.000362345,-0.0246623,1.28061,0.0165636,0.0240144,2001,1156,42.7935,-4.55061
784,-132,42.6887,4.23926,-0.0338857,-0.00271364,0.00911155,-0.000245731,-0.0363536,1.30629,0.0241543,0.044055,2008,1156,42.6886,-4.23926
791,-132,42.6318,3.92249,0,0,0,0,0,0,0,-1,2015,1156,42.6319,-3.92244
798,-132,45.9854,0.289307,-0.071041,-0.00533888,0.0155687,-0.00183646,-0.0745435,1.34951,0.0490949,0.0497404,2022,1156,45.9854,-0.289311
805,-132,44.6443,0.337402,-0.0995535,-0.00652448,0.0202574,-0.00230475,-0.103773,1.36543,0.0684269,0.0495792,2029,1156,44.6443,-0.337422
812,-132,43.3916,0.622437,0,0,0,0,0,0,0,-1,2036,1156,43.3916,-0.622461
-700,-139,0,0,0,0,0,0,0,0,0,-1,524,1163,0,0
-693,-139,-33.0234,-5.39563,0,0,0,0,0,0,0,-1,531,1163,-33.0234,5.39558
-686,-139,-31.9109,-4.26904,0,0,0,0,0,0,0,-1,538,1163,-31.9109,4.26909
-679,-139,-32.2413,1.88306,0,0,0,0,0,0,0,-1,545,1163,-32.2413,-1.88301
-672,-139,-33.0753,2.39966,0,0,0,0,0,0,0,-1,552,1163,-33.0753,-2.39962
-665,-139,-29.6364,0.964966,0,0,0,0,0,0,0,-1,559,1163,-29.6364,-0.964984
-658,-139,-30.6014,0.73584,0,0,0,0,0,0,0,-1,566,1163,-30.6014,-0.735895
-651,-139,-30.2301,1.2312,0.00780716,0.0062812,-0.00129221,0.00854483,0.00554353,-0.518716,0.00500561,0.0418151,573,1163,-30.2301,-1.23122
-644,-139,-29.8439,1.74219,0.00449145,0.00499084,-0.00141981,0.00618274,0.00329955,-0.872442,0.00357231,0.0224681,580,1163,-29.844,-1.7422
-637,-139,-29.8808,2.13586,0.00238053,0.00387588,-0.00123056,0.0045681,0.00168831,-1.05839,0.00266713,0.0133112,587,1163,-29.8808,-2.13585
-630,-139,-29.9091,2.53577,0.00085559,0.00276063,-0.000993105,0.00318417,0.000432046,-1.16767,0.00199443,0.0108411,594,1163,-29.9091,-2.53579
-623,-139,-29.916,2.94519,-9.14529e-05,0.00164077,-0.000697581,0.00188676,-0.000337443,-1.23178,0.0013841,0.0165197,601,1163,-29.9159,-2.94515
-616,-139,-29.9114,3.33167,-0.000784728,0.000692086,-4.53601e-05,0.000693478,-0.00078612,-1.54012,0.000854804,0.0185896,608,1163,-29.9114,-3.33161
-609,-139,-29.7712,3.77686,-0.00112137,0.000414397,0.000550885,0.000591563,-0.00129854,1.25964,0.00111641,0.0398738,615,1163,-29.7712,-3.7769
-602,-139,-29.9629,4.22107,-0.00104586,0.000379069,0.000565814,0.000576413,-0.00124321,1.23521,0.00107381,0.034385,622,1163,-29.9629,-4.22103
-595,-139,-30.1135,4.62585,-0.00100151,0.000123794,0.000319672,0.000208265,-0.00108598,1.31246,0.000802468,0.0396838,629,1163,-30.1135,-4.62585
-588,-139,-30.2977,4.97205,0,0,0,0,0,0,0,-1,636,1163,-30.2977,-4.972
-581,-139,-32.2094,4.0603,0,0,0,0,0,0,0,-1,643,1163,-32.2094,-4.06033
-574,-139,-23.0725,2.4043,0,0,0,0,0,0,0,-1,650,1163,-23.0725,-2.40433
-567,-139,-35.4312,1.11743,0,0,0,0,0,0,0,-1,657,1163,-35.4312,-1.11749
-560,-139,-35.4429,1.11414,-0.00026254,0.000420425,0.000432139,0.000629719,-0.000471833,1.11977,0.000638155,0.0375382,664,1163,-35.4429,-1.11411
-553,-139,-35.415,1.07104,-0.000412448,0.000712134,0.000290599,0.000782788,-0.000483102,1.33229,0.000737657,0.0395188,671,1163,-35.415,-1.07103
-546,-139,-35.504,1.07617,-0.000574152,0.000999654,0.000265337,0.00104318,-0.000617682,1.40819,0.000969335,0.0413306,678,1163,-35.5039,-1.07612
-539,-139,-35.4214,1.08228,-0.00104589,0.00149042,0.000891057,0.00177216,-0.00132764,1.26455,0.0017958,0.0416035,685,1163,-35.4214,-1.0823
-532,-139,-35.2747,1.08752,-0.00224167,0.00198179,0.00239261,0.00306129,-0.00332117,1.14696,0.00368594,0.0407274,692,1163,-35.2747,-1.08752
-525,-139,-35.2654,0.992065,-0.00381636,0.00249906,0.00460945,0.00492868,-0.00624597,1.08571,0.00646661,0.0409048,699,1163,-35.2654,-0.992044
-518,-139,0,0,0,0,0,0,0,0,0,-1,706,1163,0,0
-511,-139,0,0,0,0,0,0,0,0,0,-1,713,1163,0,0
-504,-139,0,0,0,0,0,0,0,0,0,-1,720,1163,0,0
-497,-139,0,0,0,0,0,0,0,0,0,-1,727,1163,0,0
-490,-139,0,0,0,0,0,0,0,0,0,-1,734,1163,0,0
-483,-139,0,0,0,0,0,0,0,0,0,-1,741,1163,0,0
-476,-139,0,0,0,0,0,0,0,0,0,-1,748,1163,0,0
-469,-139,0,0,0,0,0,0,0,0,0,-1,755,1163,0,0
-462,-139,0,0,0,0,0,0,0,0,0,-1,762,1163,0,0
-455,-139,0,0,0,0,0,0,0,0,0,-1,769,1163,0,0
-448,-139,0,0,0,0,0,0,0,0,0,-1,776,1163,0,0
-441,-139,0,0,0,0,0,0,0,0,0,-1,783,1163,0,0
-434,-139,0,0,0,0,0,0,0,0,0,-1,790,1163,0,0
-427,-139,0,0,0,0,0,0,0,0,0,-1,797,1163,0,0
-420,-139,0,0,0,0,0,0,0,0,0,-1,804,1163,0,0
-413,-139,0,0,0,0,0,0,0,0,0,-1,811,1163,0,0
-406,-139,0,0,0,0,0,0,0,0,0,-1,818,1163,0,0
-399,-139,0,0,0,0,0,0,0,0,0,-1,825,1163,0,0
-392,-139,0,0,0,0,0,0,0,0,0,-1,832,1163,0,0
-385,-139,0,0,0,0,0,0,0,0,0,-1,839,1163,0,0
-378,-139,0,0,0,0,0,0,0,0,0,-1,846,1163,0,0
-371,-139,0,0,0,0,0,0,0,0,0,-1,853,1163,0,0
-364,-139,0,0,0,0,0,0,0,0,0,-1,860,1163,0,0
-357,-139,0,0,0,0,0,0,0,0,0,-1,867,1163,0,0
-350,-139,0,0,0,0,0,0,0,0,0,-1,874,1163,0,0
-343,-139,0,0,0,0,0,0,0,0,0,-1,881,1163,0,0
-336,-139,0,0,0,0,0,0,0,0,0,-1,888,1163,0,0
-329,-139,0,0,0,0,0,0,0,0,0,-1,895,1163,0,0
-322,-139,0,0,0,0,0,0,0,0,0,-1,902,1163,0,0
-315,-139,0,0,0,0,0,0,0,0,0,-1,909,1163,0,0
-308,-139,0,0,0,0,0,0,0,0,0,-1,916,1163,0,0
-301,-139,0,0,0,0,0,0,0,0,0,-1,923,1163,0,0
-294,-139,0,0,0,0,0,0,0,0,0,-1,930,1163,0,0
-287,-139,0,0,0,0,0,0,0,0,0,-1,937,1163,0,0
-280,-139,0,0,0,0,0,0,0,0,0,-1,944,1163,0,0
-273,-139,0,0,0,0,0,0,0,0,0,-1,951,1163,0,0
-266,-139,0,0,0,0,0,0,0,0,0,-1,958,1163,0,0
-259,-139,0,0,0,0,0,0,0,0,0,-1,965,1163,0,0
-252,-139,0,0,0,0,0,0,0,0,0,-1,972,1163,0,0
-245,-139,0,0,0,0,0,0,0,0,0,-1,979,1163,0,0
-238,-139,0,0,0,0,0,0,0,0,0,-1,986,1163,0,0
-231,-139,0,0,0,0,0,0,0,0,0,-1,993,1163,0,0
-224,-139,0,0,0,0,0,0,0,0,0,-1,1000,1163,0,0
-217,-139,0,0,0,0,0,0,0,0,0,-1,1007,1163,0,0
-210,-139,0,0,0,0,0,0,0,0,0,-1,1014,1163,0,0
-203,-139,0,0,0,0,0,0,0,0,0,-1,1021,1163,0,0
-196,-139,0,0,0,0,0,0,0,0,0,-1,1028,1163,0,0
-189,-139,0,0,0,0,0,0,0,0,0,-1,1035,1163,0,0
-182,-139,0,0,0,0,0,0,0,0,0,-1,1042,1163,0,0
-175,-139,0,0,0,0,0,0,0,0,0,-1,1049,1163,0,0
-168,-139,0,0,0,0,0,0,0,0,0,-1,1056,1163,0,0
-161,-139,0,0,0,0,0,0,0,0,0,-1,1063,1163,0,0
-154,-139,0,0,0,0,0,0,0,0,0,-1,1070,1163,0,0
-147,-139,0,0,0,0,0,0,0,0,0,-1,1077,1163,0,0
-140,-139,0,0,0,0,0,0,0,0,0,-1,1084,1163,0,0
-133,-139,0,0,0,0,0,0,0,0,0,-1,1091,1163,0,0
-126,-139,0,0,0,0,0,0,0,0,0,-1,1098,1163,0,0
-119,-139,0,0,0,0,0,0,0,0,0,-1,1105,1163,0,0
-112,-139,0,0,0,0,0,0,0,0,0,-1,1112,1163,0,0
-105,-139,0,0,0,0,0,0,0,0,0,-1,1119,1163,0,0
-98,-139,0,0,0,0,0,0,0,0,0,-1,1126,1163,0,0
-91,-139,0,0,0,0,0,0,0,0,0,-1,1133,1163,0,0
-84,-139,0,0,0,0,0,0,0,0,0,-1,1140,1163,0,0
-77,-139,0,0,0,0,0,0,0,0,0,-1,1147,1163,0,0
-70,-139,0,0,0,0,0,0,0,0,0,-1,1154,1163,0,0
-63,-139,0,0,0,0,0,0,0,0,0,-1,1161,1163,0,0
-56,-139,0,0,0,0,0,0,0,0,0,-1,1168,1163,0,0
-49,-139,0,0,0,0,0,0,0,0,0,-1,1175,1163,0,0
-42,-139,0,0,0,0,0,0,0,0,0,-1,1182,1163,0,0
-35,-139,0,0,0,0,0,0,0,0,0,-1,1189,1163,0,0
-28,-139,0,0,0,0,0,0,0,0,0,-1,1196,1163,0,0
-21,-139,0,0,0,0,0,0,0,0,0,-1,1203,1163,0,0
-14,-139,0,0,0,0,0,0,0,0,0,-1,1210,1163,0,0
-7,-139,0,0,0,0,0,0,0,0,0,-1,1217,1163,0,0
0,-139,0,0,0,0,0,0,0,0,0,-1,1224,1163,0,0
7,-139,0,0,0,0,0,0,0,0,0,-1,1231,1163,0,0
14,-139,0,0,0,0,0,0,0,0,0,-1,1238,1163,0,0
21,-139,0,0,0,0,0,0,0,0,0,-1,1245,1163,0,0
28,-139,0,0,0,0,0,0,0,0,0,-1,1252,1163,0,0
35,-139,0,0,0,0,0,0,0,0,0,-1,1259,1163,0,0
42,-139,0,0,0,0,0,0,0,0,0,-1,1266,1163,0,0
49,-139,0,0,0,0,0,0,0,0,0,-1,1273,1163,0,0
56,-139,0,0,0,0,0,0,0,0,0,-1,1280,1163,0,0
63,-139,0,0,0,0,0,0,0,0,0,-1,1287,1163,0,0
70,-139,0,0,0,0,0,0,0,0,0,-1,1294,1163,0,0
77,-139,0,0,0,0,0,0,0,0,0,-1,1301,1163,0,0
84,-139,0,0,0,0,0,0,0,0,0,-1,1308,1163,0,0
91,-139,0,0,0,0,0,0,0,0,0,-1,1315,1163,0,0
98,-139,0,0,0,0,0,0,0,0,0,-1,1322,1163,0,0
105,-139,0,0,0,0,0,0,0,0,0,-1,1329,1163,0,0
112,-139,0,0,0,0,0,0,0,0,0,-1,1336,1163,0,0
119,-139,0,0,0,0,0,0,0,0,0,-1,1343,1163,0,0
126,-139,0,0,0,0,0,0,0,0,0,-1,1350,1163,0,0
133,-139,0,0,0,0,0,0,0,0,0,-1,1357,1163,0,0
140,-139,0,0,0,0,0,0,0,0,0,-1,1364,1163,0,0
147,-139,0,0,0,0,0,0,0,0,0,-1,1371,1163,0,0
154,-139,0,0,0,0,0,0,0,0,0,-1,1378,1163,0,0
161,-139,0,0,0,0,0,0,0,0,0,-1,1385,1163,0,0
168,-139,0,0,0,0,0,0,0,0,0,-1,1392,1163,0,0
175,-139,0,0,0,0,0,0,0,0,0,-1,1399,1163,0,0
182,-139,0,0,0,0,0,0,0,0,0,-1,1406,1163,0,0
189,-139,0,0,0,0,0,0,0,0,0,-1,1413,1163,0,0
196,-139,0,0,0,0,0,0,0,0,0,-1,1420,1163,0,0
203,-139,0,0,0,0,0,0,0,0,0,-1,1427,1163,0,0
210,-139,0,0,0,0,0,0,0,0,0,-1,1434,1163,0,0
217,-139,0,0,0,0,0,0,0,0,0,-1,1441,1163,0,0
224,-139,0,0,0,0,0,0,0,0,0,-1,1448,1163,0,0
231,-139,0,0,0,0,0,0,0,0,0,-1,1455,1163,0,0
238,-139,0,0,0,0,0,0,0,0,0,-1,1462,1163,0,0
245,-139,0,0,0,0,0,0,0,0,0,-1,1469,1163,0,0
252,-139,0,0,0,0,0,0,0,0,0,-1,1476,1163,0,0
259,-139,0,0,0,0,0,0,0,0,0,-1,1483,1163,0,0
266,-139,0,0,0,0,0,0,0,0,0,-1,1490,1163,0,0
273,-139,0,0,0,0,0,0,0,0,0,-1,1497,1163,0,0
280,-139,0,0,0,0,0,0,0,0,0,-1,1504,1163,0,0
287,-139,0,0,0,0,0,0,0,0,0,-1,1511,1163,0,0
294,-139,0,0,0,0,0,0,0,0,0,-1,1518,1163,0,0
301,-139,0,0,0,0,0,0,0,0,0,-1,1525,1163,0,0
308,-139,0,0,0,0,0,0,0,0,0,-1,1532,1163,0,0
315,-139,0,0,0,0,0,0,0,0,0,-1,1539,1163,0,0
322,-139,0,0,0,0,0,0,0,0,0,-1,1546,1163,0,0
329,-139,0,0,0,0,0,0,0,0,0,-1,1553,1163,0,0
336,-139,0,0,0,0,0,0,0,0,0,-1,1560,1163,0,0
343,-139,0,0,0,0,0,0,0,0,0,-1,1567,1163,0,0
350,-139,0,0,0,0,0,0,0,0,0,-1,1574,1163,0,0
357,-139,0,0,0,0,0,0,0,0,0,-1,1581,1163,0,0
364,-139,0,0,0,0,0,0,0,0,0,-1,1588,1163,0,0
371,-139,0,0,0,0,0,0,0,0,0,-1,1595,1163,0,0
378,-139,0,0,0,0,0,0,0,0,0,-1,1602,1163,0,0
385,-139,0,0,0,0,0,0,0,0,0,-1,1609,1163,0,0
392,-139,0,0,0,0,0,0,0,0,0,-1,1616,1163,0,0
399,-139,0,0,0,0,0,0,0,0,0,-1,1623,1163,0,0
406,-139,0,0,0,0,0,0,0,0,0,-1,1630,1163,0,0
413,-139,0,0,0,0,0,0,0,0,0,-1,1637,1163,0,0
420,-139,0,0,0,0,0,0,0,0,0,-1,1644,1163,0,0
427,-139,0,0,0,0,0,0,0,0,0,-1,1651,1163,0,0
434,-139,0,0,0,0,0,0,0,0,0,-1,1658,1163,0,0
441,-139,0,0,0,0,0,0,0,0,0,-1,1665,1163,0,0
448,-139,0,0,0,0,0,0,0,0,0,-1,1672,1163,0,0
455,-139,0,0,0,0,0,0,0,0,0,-1,1679,1163,0,0
462,-139,0,0,0,0,0,0,0,0,0,-1,1686,1163,0,0
469,-139,0,0,0,0,0,0,0,0,0,-1,1693,1163,0,0
476,-139,0,0,0,0,0,0,0,0,0,-1,1700,1163,0,0
483,-139,0,0,0,0,0,0,0,0,0,-1,1707,1163,0,0
490,-139,0,0,0,0,0,0,0,0,0,-1,1714,1163,0,0
497,-139,0,0,0,0,0,0,0,0,0,-1,1721,1163,0,0
504,-139,0,0,0,0,0,0,0,0,0,-1,1728,1163,0,0
511,-139,0,0,0,0,0,0,0,0,0,-1,1735,1163,0,0
518,-139,0,0,0,0,0,0,0,0,0,-1,1742,1163,0,0
525,-139,0,0,0,0,0,0,0,0,0,-1,1749,1163,0,0
532,-139,0,0,0,0,0,0,0,0,0,-1,1756,1163,0,0
539,-139,0,0,0,0,0,0,0,0,0,-1,1763,1163,0,0
546,-139,0,0,0,0,0,0,0,0,0,-1,1770,1163,0,0
553,-139,0,0,0,0,0,0,0,0,0,-1,1777,1163,0,0
560,-139,0,0,0,0,0,0,0,0,0,-1,1784,1163,0,0
567,-139,0,0,0,0,0,0,0,0,0,-1,1791,1163,0,0
574,-139,0,0,0,0,0,0,0,0,0,-1,1798,1163,0,0
581,-139,0,0,0,0,0,0,0,0,0,-1,1805,1163,0,0
588,-139,0,0,0,0,0,0,0,0,0,-1,1812,1163,0,0
595,-139,0,0,0,0,0,0,0,0,0,-1,1819,1163,0,0
602,-139,0,0,0,0,0,0,0,0,0,-1,1826,1163,0,0
609,-139,0,0,0,0,0,0,0,0,0,-1,1833,1163,0,0
616,-139,0,0,0,0,0,0,0,0,0,-1,1840,1163,0,0
623,-139,0,0,0,0,0,0,0,0,0,-1,1847,1163,0,0
630,-139,0,0,0,0,0,0,0,0,0,-1,1854,1163,0,0
637,-139,0,0,0,0,0,0,0,0,0,-1,1861,1163,0,0
644,-139,47.8376,2.96118,0,0,0,0,0,0,0,-1,1868,1163,47.8376,-2.96124
651,-139,47.8723,2.70508,0.00215511,-0.00200399,-0.00136875,0.00256514,-0.00241402,-0.291057,0.00287516,0.039571,1875,1163,47.8723,-2.70507
658,-139,47.9037,2.66333,0.00195488,-0.00103367,-0.0010568,0.00229082,-0.0013696,-0.307781,0.00213554,0.0395319,1882,1163,47.9037,-2.66334
665,-139,47.7627,2.79761,0.00185707,-0.000248045,-0.000925928,0.00220638,-0.00059735,-0.360741,0.00170527,0.0372827,1889,1163,47.7627,-2.79758
672,-139,47.7466,2.90479,0.00174919,0.000288197,-0.000836515,0.00212927,-9.18844e-05,-0.426477,0.00145111,0.038261,1896,1163,47.7466,-2.90476
679,-139,47.8508,2.81335,0.00148585,0.000380264,-0.000606374,0.00175359,0.000112526,-0.415795,0.00113341,0.0363633,1903,1163,47.8508,-2.81334
686,-139,47.7477,2.80188,0.00120097,0.00022192,-0.000427711,0.0013615,6.13901e-05,-0.359054,0.000887912,0.0322715,1910,1163,47.7477,-2.80187
693,-139,47.766,2.84644,0.000949524,0.000142641,-0.000252944,0.00102226,6.99043e-05,-0.280005,0.000659442,0.0211579,1917,1163,47.766,-2.84647
700,-139,47.8485,2.73193,0,0,0,0,0,0,0,-1,1924,1163,47.8485,-2.73193
707,-139,32.116,6.54346,0,0,0,0,0,0,0,-1,1931,1163,32.116,-6.54343
714,-139,42.5304,7.79749,0,0,0,0,0,0,0,-1,1938,1163,42.5304,-7.79748
721,-139,42.5833,7.37122,-0.000208433,0.000256246,0.000313347,0.000413994,-0.000366181,1.10441,0.000450716,0.0319861,1945,1163,42.5832,-7.37127
728,-139,42.4849,7.14282,-0.000410277,-0.00013721,0.000856961,0.000594025,-0.00114151,0.864396,0.0010185,0.0392888,1952,1163,42.4849,-7.14284
735,-139,42.3934,6.82654,-0.000556342,-0.000518173,0.00151034,0.000973199,-0.00204771,0.791716,0.00178052,0.0295533,1959,1163,42.3935,-6.82653
742,-139,42.4449,6.30969,-0.000965454,-0.000418155,0.001903,0.00123077,-0.00261438,0.856808,0.0022674,0.0236185,1966,1163,42.445,-6.30974
749,-139,42.4369,5.93433,-0.00232677,-0.000540711,0.0023439,0.00107452,-0.003942,0.967409,0.00304994,0.0192741,1973,1163,42.4369,-5.93436
756,-139,42.4507,5.59338,-0.0052256,-0.000604794,0.00312654,0.000972374,-0.00680277,1.1036,0.00489163,0.0109345,1980,1163,42.4507,-5.59334
763,-139,42.4441,5.24072,-0.0092291,-0.00100943,0.00423134,0.000779462,-0.011018,1.17081,0.00761845,0.011032,1987,1163,42.4441,-5.24072
770,-139,42.4451,4.88574,-0.0150551,-0.00162523,0.00567477,0.000451499,-0.0171318,1.21998,0.0115747,0.0126245,1994,1163,42.445,-4.88578
777,-139,42.4117,4.56934,-0.0234194,-0.00245041,0.00757494,-2.84053e-07,-0.0258695,1.25797,0.0172462,0.0251123,2001,1163,42.4118,-4.5693
784,-139,42.2834,4.41455,-0.035597,-0.00366707,0.0101793,-0.000697998,-0.0385661,1.28699,0.0254813,0.0428812,2008,1163,42.2834,-4.41456
791,-139,42.1826,4.18457,0,0,0,0,0,0,0,-1,2015,1163,42.1827,-4.18463
798,-139,45.751,0.114136,0,0,0,0,0,0,0,-1,2022,1163,45.751,-0.114182
805,-139,45.0464,0.386963,0,0,0,0,0,0,0,-1,2029,1163,45.0464,-0.386988
812,-139,0,0,0,0,0,0,0,0,0,-1,2036,1163,0,0
-700,-146,0,0,0,0,0,0,0,0,0,-1,524,1170,0,0
-693,-146,-32.5156,-5.35474,0,0,0,0,0,0,0,-1,531,1170,-32.5156,5.35471
-686,-146,-31.4651,-4.12561,0,0,0,0,0,0,0,-1,538,1170,-31.4651,4.12558
-679,-146,-30.5282,-2.90405,0,0,0,0,0,0,0,-1,545,1170,-30.5282,2.90406
-672,-146,-29.2435,0.990723,0,0,0,0,0,0,0,-1,552,1170,-29.2435,-0.990716
-665,-146,-29.1677,1.22827,0,0,0,0,0,0,0,-1,559,1170,-29.1677,-1.2283
-658,-146,-29.4036,0.688232,0,0,0,0,0,0,0,-1,566,1170,-29.4036,-0.688241
-651,-146,-29.3812,1.1665,0.00587611,0.00576189,-0.0015962,0.00741622,0.00422178,-0.767518,0.00429543,0.0403348,573,1170,-29.3812,-1.16653
-644,-146,-29.3591,1.67102,0.00325084,0.00460917,-0.00161305,0.00568021,0.0021798,-0.984654,0.00330888,0.0213792,580,1170,-29.359,-1.67099
-637,-146,-29.4224,2.12402,0.00146422,0.00365049,-0.00132971,0.00427871,0.000836002,-1.12943,0.00261867,0.0117916,587,1170,-29.4225,-2.124
-630,-146,-29.4602,2.53894,0.000174382,0.00265858,-0.00106495,0.00305261,-0.000219653,-1.21641,0.0021121,0.0104828,594,1170,-29.4602,-2.539
-623,-146,-29.4844,2.94373,-0.000618785,0.00168073,-0.000788404,0.00192507,-0.000863131,-1.27026,0.00164823,0.012916,601,1170,-29.4845,-2.94372
-616,-146,-29.543,3.35681,-0.00125026,0.000855209,-0.000215894,0.000877119,-0.00127217,-1.46966,0.00124786,0.0194859,608,1170,-29.543,-3.35686
-609,-146,-29.3483,3.89026,-0.00157716,0.000683469,0.00032036,0.000727991,-0.00162168,1.43271,0.00138891,0.025276,615,1170,-29.3483,-3.89022
-602,-146,-29.586,4.38928,0,0,0,0,0,0,0,-1,622,1170,-29.586,-4.38922
-595,-146,-29.7557,4.67834,0,0,0,0,0,0,0,-1,629,1170,-29.7557,-4.67833
-588,-146,-29.8979,4.97717,0,0,0,0,0,0,0,-1,636,1170,-29.8979,-4.97714
-581,-146,-28.6086,5.78027,0,0,0,0,0,0,0,-1,643,1170,-28.6086,-5.78029
-574,-146,-17.9915,3.79114,0,0,0,0,0,0,0,-1,650,1170,-17.9915,-3.79118
-567,-146,-35.4388,1.01758,0,0,0,0,0,0,0,-1,657,1170,-35.4388,-1.01755
-560,-146,-35.426,1.07996,-0.000524093,0.00059408,0.000194276,0.000626872,-0.000556885,1.40358,0.000683841,0.0411124,664,1170,-35.426,-1.07992
-553,-146,-35.3979,1.18213,-0.000573859,0.000818164,8.32789e-05,0.000823129,-0.000578823,1.51125,0.000813504,0.0379022,671,1170,-35.3979,-1.18218
-546,-146,-35.3701,1.2312,-0.000449214,0.00097593,0.000136273,0.000988844,-0.000462128,1.47632,0.000855919,0.0397174,678,1170,-35.37,-1.23116
-539,-146,-35.2451,0.998169,-0.000501508,0.00131389,0.000887331,0.00167556,-0.000863168,1.18377,0.00149054,0.0399243,685,1170,-35.2451,-0.998114
-532,-146,-35.2165,0.890015,-0.00137358,0.00163978,0.00256588,0.00310864,-0.00284243,1.05087,0.003437,0.0392858,692,1170,-35.2165,-0.889982
-525,-146,-35.3362,0.9198,-0.00269981,0.00200497,0.00496559,0.0051472,-0.00584203,1.00661,0.00634886,0.0417604,699,1170,-35.3362,-0.919807
-518,-146,0,0,0,0,0,0,0,0,0,-1,706,1170,0,0
-511,-146,0,0,0,0,0,0,0,0,0,-1,713,1170,0,0
-504,-146,0,0,0,0,0,0,0,0,0,-1,720,1170,0,0
-497,-146,0,0,0,0,0,0,0,0,0,-1,727,1170,0,0
-490,-146,0,0,0,0,0,0,0,0,0,-1,734,1170,0,0
-483,-146,0,0,0,0,0,0,0,0,0,-1,741,1170,0,0
-476,-146,0,0,0,0,0,0,0,0,0,-1,748,1170,0,0
-469,-146,0,0,0,0,0,0,0,0,0,-1,755,1170,0,0
-462,-146,0,0,0,0,0,0,0,0,0,-1,762,1170,0,0
-455,-146,0,0,0,0,0,0,0,0,0,-1,769,1170,0,0
-448,-146,0,0,0,0,0,0,0,0,0,-1,776,1170,0,0
-441,-146,0,0,0,0,0,0,0,0,0,-1,783,1170,0,0
-434,-146,0,0,0,0,0,0,0,0,0,-1,790,1170,0,0
-427,-146,0,0,0,0,0,0,0,0,0,-1,797,1170,0,0
-420,-146,0,0,0,0,0,0,0,0,0,-1,804,1170,0,0
-413,-146,0,0,0,0,0,0,0,0,0,-1,811,1170,0,0
-406,-146,0,0,0,0,0,0,0,0,0,-1,818,1170,0,0
-399,-146,0,0,0,0,0,0,0,0,0,-1,825,1170,0,0
-392,-146,0,0,0,0,0,0,0,0,0,-1,832,1170,0,0
-385,-146,0,0,0,0,0,0,0,0,0,-1,839,1170,0,0
-378,-146,0,0,0,0,0,0,0,0,0,-1,846,1170,0,0
-371,-146,0,0,0,0,0,0,0,0,0,-1,853,1170,0,0
-364,-146,0,0,0,0,0,0,0,0,0,-1,860,1170,0,0
-357,-146,0,0,0,0,0,0,0,0,0,-1,867,1170,0,0
-350,-146,0,0,0,0,0,0,0,0,0,-1,874,1170,0,0
-343,-146,0,0,0,0,0,0,0,0,0,-1,881,1170,0,0
-336,-146,0,0,0,0,0,0,0,0,0,-1,888,1170,0,0
-329,-146,0,0,0,0,0,0,0,0,0,-1,895,1170,0,0
-322,-146,0,0,0,0,0,0,0,0,0,-1,902,1170,0,0
-315,-146,0,0,0,0,0,0,0,0,0,-1,909,1170,0,0
-308,-146,0,0,0,0,0,0,0,0,0,-1,916,1170,0,0
-301,-146,0,0,0,0,0,0,0,0,0,-1,923,1170,0,0
-294,-146,0,0,0,0,0,0,0,0,0,-1,930,1170,0,0
-287,-146,0,0,0,0,0,0,0,0,0,-1,937,1170,0,0
-280,-146,0,0,0,0,0,0,0,0,0,-1,944,1170,0,0
-273,-146,0,0,0,0,0,0,0,0,0,-1,951,1170,0,0
-266,-146,0,0,0,0,0,0,0,0,0,-1,958,1170,0,0
-259,-146,0,0,0,0,0,0,0,0,0,-1,965,1170,0,0
-252,-146,0,0,0,0,0,0,0,0,0,-1,972,1170,0,0
-245,-146,0,0,0,0,0,0,0,0,0,-1,979,1170,0,0
-238,-146,0,0,0,0,0,0,0,0,0,-1,986,1170,0,0
-231,-146,0,0,0,0,0,0,0,0,0,-1,993,1170,0,0
-224,-146,0,0,0,0,0,0,0,0,0,-1,1000,1170,0,0
-217,-146,0,0,0,0,0,0,0,0,0,-1,1007,1170,0,0
-210,-146,0,0,0,0,0,0,0,0,0,-1,1014,1170,0,0
-203,-146,0,0,0,0,0,0,0,0,0,-1,1021,1170,0,0
-196,-146,0,0,0,0,0,0,0,0,0,-1,1028,1170,0,0
-189,-146,0,0,0,0,0,0,0,0,0,-1,1035,1170,0,0
-182,-146,0,0,0,0,0,0,0,0,0,-1,1042,1170,0,0
-175,-146,0,0,0,0,0,0,0,0,0,-1,1049,1170,0,0
-168,-146,0,0,0,0,0,0,0,0,0,-1,1056,1170,0,0
-161,-146,0,0,0,0,0,0,0,0,0,-1,1063,1170,0,0
-154,-146,0,0,0,0,0,0,0,0,0,-1,1070,1170,0,0
-147,-146,0,0,0,0,0,0,0,0,0,-1,1077,1170,0,0
-140,-146,0,0,0,0,0,0,0,0,0,-1,1084,1170,0,0
-133,-146,0,0,0,0,0,0,0,0,0,-1,1091,1170,0,0
-126,-146,0,0,0,0,0,0,0,0,0,-1,1098,1170,0,0
-119,-146,0,0,0,0,0,0,0,0,0,-1,1105,1170,0,0
-112,-146,0,0,0,0,0,0,0,0,0,-1,1112,1170,0,0
-105,-146,0,0,0,0,0,0,0,0,0,-1,1119,1170,0,0
-98,-146,0,0,0,0,0,0,0,0,0,-1,1126,1170,0,0
-91,-146,0,0,0,0,0,0,0,0,0,-1,1133,1170,0,0
-84,-146,0,0,0,0,0,0,0,0,0,-1,1140,1170,0,0
-77,-146,0,0,0,0,0,0,0,0,0,-1,1147,1170,0,0
-70,-146,0,0,0,0,0,0,0,0,0,-1,1154,1170,0,0
-63,-146,0,0,0,0,0,0,0,0,0,-1,1161,1170,0,0
-56,-146,0,0,0,0,0,0,0,0,0,-1,1168,1170,0,0
-49,-146,0,0,0,0,0,0,0,0,0,-1,1175,1170,0,0
-42,-146,0,0,0,0,0,0,0,0,0,-1,1182,1170,0,0
-35,-146,0,0,0,0,0,0,0,0,0,-1,1189,1170,0,0
-28,-146,0,0,0,0,0,0,0,0,0,-1,1196,1170,0,0
-21,-146,0,0,0,0,0,0,0,0,0,-1,1203,1170,0,0
-14,-146,0,0,0,0,0,0,0,0,0,-1,1210,1170,0,0
-7,-146,0,0,0,0,0,0,0,0,0,-1,1217,1170,0,0
0,-146,0,0,0,0,0,0,0,0,0,-1,1224,1170,0,0
7,-146,0,0,0,0,0,0,0,0,0,-1,1231,1170,0,0
14,-146,0,0,0,0,0,0,0,0,0,-1,1238,1170,0,0
21,-146,0,0,0,0,0,0,0,0,0,-1,1245,1170,0,0
28,-146,0,0,0,0,0,0,0,0,0,-1,1252,1170,0,0
35,-146,0,0,0,0,0,0,0,0,0,-1,1259,1170,0,0
42,-146,0,0,0,0,0,0,0,0,0,-1,1266,1170,0,0
49,-146,0,0,0,0,0,0,0,0,0,-1,1273,1170,0,0
56,-146,0,0,0,0,0,0,0,0,0,-1,1280,1170,0,0
63,-146,0,0,0,0,0,0,0,0,0,-1,1287,1170,0,0
70,-146,0,0,0,0,0,0,0,0,0,-1,1294,1170,0,0
77,-146,0,0,0,0,0,0,0,0,0,-1,1301,1170,0,0
84,-146,0,0,0,0,0,0,0,0,0,-1,1308,1170,0,0
91,-146,0,0,0,0,0,0,0,0,0,-1,1315,1170,0,0
98,-146,0,0,0,0,0,0,0,0,0,-1,1322,1170,0,0
105,-146,0,0,0,0,0,0,0,0,0,-1,1329,1170,0,0
112,-146,0,0,0,0,0,0,0,0,0,-1,1336,1170,0,0
119,-146,0,0,0,0,0,0,0,0,0,-1,1343,1170,0,0
126,-146,0,0,0,0,0,0,0,0,0,-1,1350,1170,0,0
133,-146,0,0,0,0,0,0,0,0,0,-1,1357,1170,0,0
140,-146,0,0,0,0,0,0,0,0,0,-1,1364,1170,0,0
147,-146,0,0,0,0,0,0,0,0,0,-1,1371,1170,0,0
154,-146,0,0,0,0,0,0,0,0,0,-1,1378,1170,0,0
161,-146,0,0,0,0,0,0,0,0,0,-1,1385,1170,0,0
168,-146,0,0,0,0,0,0,0,0,0,-1,1392,1170,0,0
175,-146,0,0,0,0,0,0,0,0,0,-1,1399,1170,0,0
182,-146,0,0,0,0,0,0,0,0,0,-1,1406,1170,0,0
189,-146,0,0,0,0,0,0,0,0,0,-1,1413,1170,0,0
196,-146,0,0,0,0,0,0,0,0,0,-1,1420,1170,0,0
203,-146,0,0,0,0,0,0,0,0,0,-1,1427,1170,0,0
210,-146,0,0,0,0,0,0,0,0,0,-1,1434,1170,0,0
217,-146,0,0,0,0,0,0,0,0,0,-1,1441,1170,0,0
224,-146,0,0,0,0,0,0,0,0,0,-1,1448,1170,0,0
231,-146,0,0,0,0,0,0,0,0,0,-1,1455,1170,0,0
238,-146,0,0,0,0,0,0,0,0,0,-1,1462,1170,0,0
245,-146,0,0,0,0,0,0,0,0,0,-1,1469,1170,0,0
252,-146,0,0,0,0,0,0,0,0,0,-1,1476,1170,0,0
259,-146,0,0,0,0,0,0,0,0,0,-1,1483,1170,0,0
266,-146,0,0,0,0,0,0,0,0,0,-1,1490,1170,0,0
273,-146,0,0,0,0,0,0,0,0,0,-1,1497,1170,0,0
280,-146,0,0,0,0,0,0,0,0,0,-1,1504,1170,0,0
287,-146,0,0,0,0,0,0,0,0,0,-1,1511,1170,0,0
294,-146,0,0,0,0,0,0,0,0,0,-1,1518,1170,0,0
301,-146,0,0,0,0,0,0,0,0,0,-1,1525,1170,0,0
308,-146,0,0,0,0,0,0,0,0,0,-1,1532,1170,0,0
315,-146,0,0,0,0,0,0,0,0,0,-1,1539,1170,0,0
322,-146,0,0,0,0,0,0,0,0,0,-1,1546,1170,0,0
329,-146,0,0,0,0,0,0,0,0,0,-1,1553,1170,0,0
336,-146,0,0,0,0,0,0,0,0,0,-1,1560,1170,0,0
343,-146,0,0,0,0,0,0,0,0,0,-1,1567,1170,0,0
350,-146,0,0,0,0,0,0,0,0,0,-1,1574,1170,0,0
357,-146,0,0,0,0,0,0,0,0,0,-1,1581,1170,0,0
364,-146,0,0,0,0,0,0,0,0,0,-1,1588,1170,0,0
371,-146,0,0,0,0,0,0,0,0,0,-1,1595,1170,0,0
378,-146,0,0,0,0,0,0,0,0,0,-1,1602,1170,0,0
385,-146,0,0,0,0,0,0,0,0,0,-1,1609,1170,0,0
392,-146,0,0,0,0,0,0,0,0,0,-1,1616,1170,0,0
399,-146,0,0,0,0,0,0,0,0,0,-1,1623,1170,0,0
406,-146,0,0,0,0,0,0,0,0,0,-1,1630,1170,0,0
413,-146,0,0,0,0,0,0,0,0,0,-1,1637,1170,0,0
420,-146,0,0,0,0,0,0,0,0,0,-1,1644,1170,0,0
427,-146,0,0,0,0,0,0,0,0,0,-1,1651,1170,0,0
434,-146,0,0,0,0,0,0,0,0,0,-1,1658,1170,0,0
441,-146,0,0,0,0,0,0,0,0,0,-1,1665,1170,0,0
448,-146,0,0,0,0,0,0,0,0,0,-1,1672,1170,0,0
455,-146,0,0,0,0,0,0,0,0,0,-1,1679,1170,0,0
462,-146,0,0,0,0,0,0,0,0,0,-1,1686,1170,0,0
469,-146,0,0,0,0,0,0,0,0,0,-1,1693,1170,0,0
476,-146,0,0,0,0,0,0,0,0,0,-1,1700,1170,0,0
483,-146,0,0,0,0,0,0,0,0,0,-1,1707,1170,0,0
490,-146,0,0,0,0,0,0,0,0,0,-1,1714,1170,0,0
497,-146,0,0,0,0,0,0,0,0,0,-1,1721,1170,0,0
504,-146,0,0,0,0,0,0,0,0,0,-1,1728,1170,0,0
511,-146,0,0,0,0,0,0,0,0,0,-1,1735,1170,0,0
518,-146,0,0,0,0,0,0,0,0,0,-1,1742,1170,0,0
525,-146,0,0,0,0,0,0,0,0,0,-1,1749,1170,0,0
532,-146,0,0,0,0,0,0,0,0,0,-1,1756,1170,0,0
539,-146,0,0,0,0,0,0,0,0,0,-1,1763,1170,0,0
546,-146,0,0,0,0,0,0,0,0,0,-1,1770,1170,0,0
553,-146,0,0,0,0,0,0,0,0,0,-1,1777,1170,0,0
560,-146,0,0,0,0,0,0,0,0,0,-1,1784,1170,0,0
567,-146,0,0,0,0,0,0,0,0,0,-1,1791,1170,0,0
574,-146,0,0,0,0,0,0,0,0,0,-1,1798,1170,0,0
581,-146,0,0,0,0,0,0,0,0,0,-1,1805,1170,0,0
588,-146,0,0,0,0,0,0,0,0,0,-1,1812,1170,0,0
595,-146,0,0,0,0,0,0,0,0,0,-1,1819,1170,0,0
602,-146,0,0,0,0,0,0,0,0,0,-1,1826,1170,0,0
609,-146,0,0,0,0,0,0,0,0,0,-1,1833,1170,0,0
616,-146,0,0,0,0,0,0,0,0,0,-1,1840,1170,0,0
623,-146,0,0,0,0,0,0,0,0,0,-1,1847,1170,0,0
630,-146,0,0,0,0,0,0,0,0,0,-1,1854,1170,0,0
637,-146,48.0115,2.71423,0.00234595,-0.00485186,-0.00241958,0.00308369,-0.0055896,-0.29595,0.00507671,0.0398227,1861,1170,48.0114,-2.71421
644,-146,48.0062,2.63037,0.00179427,-0.00328012,-0.00168513,0.00230289,-0.00378875,-0.293136,0.00355171,0.0385699,1868,1170,48.0063,-2.63042
651,-146,48.077,2.31287,0,0,0,0,0,0,0,-1,1875,1170,48.077,-2.31288
658,-146,47.9474,2.66638,0.00144262,-0.000933569,-0.000980202,0.00179477,-0.00128572,-0.344906,0.0017866,0.0369347,1882,1170,47.9473,-2.66641
665,-146,47.9138,2.77112,0.00149524,-6.77733e-05,-0.000880021,0.00189067,-0.000463208,-0.42231,0.00143991,0.0371908,1889,1170,47.9138,-2.77118
672,-146,47.9065,2.78601,0.00147236,0.000523933,-0.000769355,0.00190191,9.43858e-05,-0.50921,0.00123768,0.0387673,1896,1170,47.9066,-2.78599
679,-146,47.8887,2.76074,0.00126549,0.000631828,-0.000505284,0.00154506,0.000352259,-0.505367,0.000935007,0.0317518,1903,1170,47.8887,-2.76077
686,-146,47.7665,2.7583,0.000989238,0.000457072,-0.000295979,0.00112115,0.000325155,-0.419269,0.000666055,0.0223811,1910,1170,47.7665,-2.75833
693,-146,47.8077,2.75415,0.000719285,0.000361852,-0.000102193,0.00074644,0.000334698,-0.259719,0.000431722,0.0146047,1917,1170,47.8078,-2.75418
700,-146,47.8822,2.60986,0,0,0,0,0,0,0,-1,1924,1170,47.8822,-2.60986
707,-146,29.9441,6.94653,0,0,0,0,0,0,0,-1,1931,1170,29.9441,-6.94652
714,-146,31.325,6.13245,0,0,0,0,0,0,0,-1,1938,1170,31.325,-6.1325
721,-146,42.0924,7.30811,0,0,0,0,0,0,0,-1,1945,1170,42.0924,-7.30807
728,-146,42.0457,7.25647,0,0,0,0,0,0,0,-1,1952,1170,42.0456,-7.25648
735,-146,42.0703,6.72632,-0.000636507,-0.000359981,0.00157609,0.0010839,-0.00208038,0.829149,0.00185685,0.029509,1959,1170,42.0704,-6.72633
742,-146,42.1034,6.2865,-0.00100659,-0.000289239,0.00194324,0.00132815,-0.00262398,0.87666,0.00232229,0.0174652,1966,1170,42.1034,-6.28649
749,-146,42.0645,5.96436,-0.00217374,-0.00058893,0.00237631,0.00112361,-0.00388628,0.94633,0.00303552,0.0152397,1973,1170,42.0645,-5.96433
756,-146,42.0767,5.60303,-0.004879,-0.000986862,0.00315517,0.000774132,-0.00663999,1.06173,0.00470598,0.0116073,1980,1170,42.0767,-5.60309
763,-146,42.0393,5.21826,-0.00867417,-0.00182695,0.00426479,0.000218406,-0.0107195,1.12361,0.00722025,0.0109317,1987,1170,42.0393,-5.21821
770,-146,42.0132,4.86011,-0.0143085,-0.00296292,0.00573811,-0.000566844,-0.0167045,1.17523,0.0109523,0.0124091,1994,1170,42.0131,-4.86006
777,-146,42.0233,4.66064,-0.0226699,-0.00443488,0.00773983,-0.00159271,-0.0255121,1.21887,0.0165028,0.0224423,2001,1170,42.0233,-4.66063
784,-146,42.1804,5.41431,-0.0349584,-0.00644206,0.0104983,-0.00299401,-0.0384065,1.25346,0.0246669,0.0397082,2008,1170,42.1803,-5.41437
791,-146,41.845,6.13257,0,0,0,0,0,0,0,-1,2015,1170,41.845,-6.13257
798,-146,46.8276,-0.269653,0,0,0,0,0,0,0,-1,2022,1170,46.8276,0.269678
805,-146,45.5449,0.157349,0,0,0,0,0,0,0,-1,2029,1170,45.5448,-0.157378
812,-146,0,0,0,0,0,0,0,0,0,-1,2036,1170,0,0
-700,-153,0,0,0,0,0,0,0,0,0,-1,524,1177,0,0
-693,-153,0,0,0,0,0,0,0,0,0,-1,531,1177,0,0
-686,-153,-31.0076,-4.03625,0,0,0,0,0,0,0,-1,538,1177,-31.0076,4.03624
-679,-153,-29.8993,-2.79919,0,0,0,0,0,0,0,-1,545,1177,-29.8993,2.79919
-672,-153,-29.1152,-1.47144,0,0,0,0,0,0,0,-1,552,1177,-29.1152,1.47145
-665,-153,-28.3395,1.08105,0,0,0,0,0,0,0,-1,559,1177,-28.3395,-1.08103
-658,-153,-28.5048,0.4823,0,0,0,0,0,0,0,-1,566,1177,-28.5048,-0.482294
-651,-153,-28.8695,1.13428,0,0,0,0,0,0,0,-1,573,1177,-28.8695,-1.13426
-644,-153,-28.926,1.6311,0.00162802,0.00462176,-0.0017804,0.00545092,0.000798853,-1.13495,0.0033991,0.028581,580,1177,-28.926,-1.63114
-637,-153,-28.9701,2.11853,0.00032278,0.0036634,-0.00141419,0.00418166,-0.000195488,-1.21952,0.00285517,0.0120639,587,1177,-28.9701,-2.11852
-630,-153,-28.9954,2.52881,-0.000608992,0.00268207,-0.00114739,0.00304261,-0.000969523,-1.26635,0.00241728,0.010293,594,1177,-28.9954,-2.52875
-623,-153,-29.0251,2.95483,-0.00113244,0.00174001,-0.000935435,0.00201778,-0.00141021,-1.28215,0.00198949,0.0105923,601,1177,-29.0251,-2.95479
-616,-153,-29.0709,3.37915,-0.00159889,0.000929246,-0.000513069,0.0010294,-0.00169904,-1.37801,0.001591,0.0133004,608,1177,-29.0709,-3.37914
-609,-153,-29.0389,3.7843,-0.00185337,0.00077918,-0.000112007,0.000783937,-0.00185813,-1.52835,0.00156686,0.0214228,615,1177,-29.0389,-3.78429
-602,-153,-28.9778,4.15454,0,0,0,0,0,0,0,-1,622,1177,-28.9778,-4.15449
-595,-153,-29.4406,4.72058,0,0,0,0,0,0,0,-1,629,1177,-29.4406,-4.72053
-588,-153,-29.1819,5.06567,0,0,0,0,0,0,0,-1,636,1177,-29.1819,-5.06562
-581,-153,-28.2946,5.67114,0,0,0,0,0,0,0,-1,643,1177,-28.2946,-5.67111
-574,-153,-25.4814,5.16956,0,0,0,0,0,0,0,-1,650,1177,-25.4814,-5.16961
-567,-153,-35.3121,1.09485,0,0,0,0,0,0,0,-1,657,1177,-35.3121,-1.09482
-560,-153,-35.3517,0.89917,-0.000738286,0.000597268,-0.000208628,0.000629099,-0.000770118,-1.41939,0.000809204,0.0491661,664,1177,-35.3517,-0.899182
-553,-153,-35.2522,0.905151,-0.000732034,0.000744522,-0.000270169,0.000792403,-0.000779915,-1.39539,0.000907787,0.0360138,671,1177,-35.2522,-0.905134
-546,-153,-35.179,1.07251,-0.000406407,0.000776373,-0.000128583,0.00079019,-0.000420224,-1.46375,0.000709631,0.0394619,678,1177,-35.1789,-1.07251
-539,-153,-35.2123,0.784912,-0.000103056,0.00101196,0.000757517,0.00139501,-0.000486105,1.10263,0.00112753,0.0413575,685,1177,-35.2123,-0.784912
-532,-153,-35.1955,0.412231,-0.000604425,0.00130235,0.0026034,0.00312144,-0.00242351,0.960919,0.00320982,0.0426765,692,1177,-35.1955,-0.412233
-525,-153,-35.4728,0.922974,-0.00150898,0.00163532,0.00512825,0.00542699,-0.00530065,0.934133,0.00619375,0.0402871,699,1177,-35.4728,-0.923024
-518,-153,0,0,0,0,0,0,0,0,0,-1,706,1177,0,0
-511,-153,0,0,0,0,0,0,0,0,0,-1,713,1177,0,0
-504,-153,0,0,0,0,0,0,0,0,0,-1,720,1177,0,0
-497,-153,0,0,0,0,0,0,0,0,0,-1,727,1177,0,0
-490,-153,0,0,0,0,0,0,0,0,0,-1,734,1177,0,0
-483,-153,0,0,0,0,0,0,0,0,0,-1,741,1177,0,0
-476,-153,0,0,0,0,0,0,0,0,0,-1,748,1177,0,0
-469,-153,0,0,0,0,0,0,0,0,0,-1,755,1177,0,0
-462,-153,0,0,0,0,0,0,0,0,0,-1,762,1177,0,0
-455,-153,0,0,0,0,0,0,0,0,0,-1,769,1177,0,0
-448,-153,0,0,0,0,0,0,0,0,0,-1,776,1177,0,0
-441,-153,0,0,0,0,0,0,0,0,0,-1,783,1177,0,0
-434,-153,0,0,0,0,0,0,0,0,0,-1,790,1177,0,0
-427,-153,0,0,0,0,0,0,0,0,0,-1,797,1177,0,0
-420,-153,0,0,0,0,0,0,0,0,0,-1,804,1177,0,0
-413,-153,0,0,0,0,0,0,0,0,0,-1,811,1177,0,0
-406,-153,0,0,0,0,0,0,0,0,0,-1,818,1177,0,0
-399,-153,0,0,0,0,0,0,0,0,0,-1,825,1177,0,0
-392,-153,0,0,0,0,0,0,0,0,0,-1,832,1177,0,0
-385,-153,0,0,0,0,0,0,0,0,0,-1,839,1177,0,0
-378,-153,0,0,0,0,0,0,0,0,0,-1,846,1177,0,0
-371,-153,0,0,0,0,0,0,0,0,0,-1,853,1177,0,0
-364,-153,0,0,0,0,0,0,0,0,0,-1,860,1177,0,0
-357,-153,0,0,0,0,0,0,0,0,0,-1,867,1177,0,0
-350,-153,0,0,0,0,0,0,0,0,0,-1,874,1177,0,0
-343,-153,0,0,0,0,0,0,0,0,0,-1,881,1177,0,0
-336,-153,0,0,0,0,0,0,0,0,0,-1,888,1177,0,0
-329,-153,0,0,0,0,0,0,0,0,0,-1,895,1177,0,0
-322,-153,0,0,0,0,0,0,0,0,0,-1,902,1177,0,0
-315,-153,0,0,0,0,0,0,0,0,0,-1,909,1177,0,0
-308,-153,0,0,0,0,0,0,0,0,0,-1,916,1177,0,0
-301,-153,0,0,0,0,0,0,0,0,0,-1,923,1177,0,0
-294,-153,0,0,0,0,0,0,0,0,0,-1,930,1177,0,0
-287,-153,0,0,0,0,0,0,0,0,0,-1,937,1177,0,0
-280,-153,0,0,0,0,0,0,0,0,0,-1,944,1177,0,0
-273,-153,0,0,0,0,0,0,0,0,0,-1,951,1177,0,0
-266,-153,0,0,0,0,0,0,0,0,0,-1,958,1177,0,0
-259,-153,0,0,0,0,0,0,0,0,0,-1,965,1177,0,0
-252,-153,0,0,0,0,0,0,0,0,0,-1,972,1177,0,0
-245,-153,0,0,0,0,0,0,0,0,0,-1,979,1177,0,0
-238,-153,0,0,0,0,0,0,0,0,0,-1,986,1177,0,0
-231,-153,0,0,0,0,0,0,0,0,0,-1,993,1177,0,0
-224,-153,0,0,0,0,0,0,0,0,0,-1,1000,1177,0,0
-217,-153,0,0,0,0,0,0,0,0,0,-1,1007,1177,0,0
-210,-153,0,0,0,0,0,0,0,0,0,-1,1014,1177,0,0
-203,-153,0,0,0,0,0,0,0,0,0,-1,1021,1177,0,0
-196,-153,0,0,0,0,0,0,0,0,0,-1,1028,1177,0,0
-189,-153,0,0,0,0,0,0,0,0,0,-1,1035,1177,0,0
-182,-153,0,0,0,0,0,0,0,0,0,-1,1042,1177,0,0
-175,-153,0,0,0,0,0,0,0,0,0,-1,1049,1177,0,0
-168,-153,0,0,0,0,0,0,0,0,0,-1,1056,1177,0,0
-161,-153,0,0,0,0,0,0,0,0,0,-1,1063,1177,0,0
-154,-153,0,0,0,0,0,0,0,0,0,-1,1070,1177,0,0
-147,-153,0,0,0,0,0,0,0,0,0,-1,1077,1177,0,0
-140,-153,0,0,0,0,0,0,0,0,0,-1,1084,1177,0,0
-133,-153,0,0,0,0,0,0,0,0,0,-1,1091,1177,0,0
-126,-153,0,0,0,0,0,0,0,0,0,-1,1098,1177,0,0
-119,-153,0,0,0,0,0,0,0,0,0,-1,1105,1177,0,0
-112,-153,0,0,0,0,0,0,0,0,0,-1,1112,1177,0,0
-105,-153,0,0,0,0,0,0,0,0,0,-1,1119,1177,0,0
-98,-153,0,0,0,0,0,0,0,0,0,-1,1126,1177,0,0
-91,-153,0,0,0,0,0,0,0,0,0,-1,1133,1177,0,0
-84,-153,0,0,0,0,0,0,0,0,0,-1,1140,1177,0,0
-77,-153,0,0,0,0,0,0,0,0,0,-1,1147,1177,0,0
-70,-153,0,0,0,0,0,0,0,0,0,-1,1154,1177,0,0
-63,-153,0,0,0,0,0,0,0,0,0,-1,1161,1177,0,0
-56,-153,0,0,0,0,0,0,0,0,0,-1,1168,1177,0,0
-49,-153,0,0,0,0,0,0,0,0,0,-1,1175,1177,0,0
-42,-153,0,0,0,0,0,0,0,0,0,-1,1182,1177,0,0
-35,-153,0,0,0,0,0,0,0,0,0,-1,1189,1177,0,0
-28,-153,0,0,0,0,0,0,0,0,0,-1,1196,1177,0,0
-21,-153,0,0,0,0,0,0,0,0,0,-1,1203,1177,0,0
-14,-153,0,0,0,0,0,0,0,0,0,-1,1210,1177,0,0
-7,-153,0,0,0,0,0,0,0,0,0,-1,1217,1177,0,0
0,-153,0,0,0,0,0,0,0,0,0,-1,1224,1177,0,0
7,-153,0,0,0,0,0,0,0,0,0,-1,1231,1177,0,0
14,-153,0,0,0,0,0,0,0,0,0,-1,1238,1177,0,0
21,-153,0,0,0,0,0,0,0,0,0,-1,1245,1177,0,0
28,-153,0,0,0,0,0,0,0,0,0,-1,1252,1177,0,0
35,-153,0,0,0,0,0,0,0,0,0,-1,1259,1177,0,0
42,-153,0,0,0,0,0,0,0,0,0,-1,1266,1177,0,0
49,-153,0,0,0,0,0,0,0,0,0,-1,1273,1177,0,0
56,-153,0,0,0,0,0,0,0,0,0,-1,1280,1177,0,0
63,-153,0,0,0,0,0,0,0,0,0,-1,1287,1177,0,0
70,-153,0,0,0,0,0,0,0,0,0,-1,1294,1177,0,0
77,-153,0,0,0,0,0,0,0,0,0,-1,1301,1177,0,0
84,-153,0,0,0,0,0,0,0,0,0,-1,1308,1177,0,0
91,-153,0,0,0,0,0,0,0,0,0,-1,1315,1177,0,0
98,-153,0,0,0,0,0,0,0,0,0,-1,1322,1177,0,0
105,-153,0,0,0,0,0,0,0,0,0,-1,1329,1177,0,0
112,-153,0,0,0,0,0,0,0,0,0,-1,1336,1177,0,0
119,-153,0,0,0,0,0,0,0,0,0,-1,1343,1177,0,0
126,-153,0,0,0,0,0,0,0,0,0,-1,1350,1177,0,0
133,-153,0,0,0,0,0,0,0,0,0,-1,1357,1177,0,0
140,-153,0,0,0,0,0,0,0,0,0,-1,1364,1177,0,0
147,-153,0,0,0,0,0,0,0,0,0,-1,1371,1177,0,0
154,-153,0,0,0,0,0,0,0,0,0,-1,1378,1177,0,0
161,-153,0,0,0,0,0,0,0,0,0,-1,1385,1177,0,0
168,-153,0,0,0,0,0,0,0,0,0,-1,1392,1177,0,0
175,-153,0,0,0,0,0,0,0,0,0,-1,1399,1177,0,0
182,-153,0,0,0,0,0,0,0,0,0,-1,1406,1177,0,0
189,-153,0,0,0,0,0,0,0,0,0,-1,1413,1177,0,0
196,-153,0,0,0,0,0,0,0,0,0,-1,1420,1177,0,0
203,-153,0,0,0,0,0,0,0,0,0,-1,1427,1177,0,0
210,-153,0,0,0,0,0,0,0,0,0,-1,1434,1177,0,0
217,-153,0,0,0,0,0,0,0,0,0,-1,1441,1177,0,0
224,-153,0,0,0,0,0,0,0,0,0,-1,1448,1177,0,0
231,-153,0,0,0,0,0,0,0,0,0,-1,1455,1177,0,0
238,-153,0,0,0,0,0,0,0,0,0,-1,1462,1177,0,0
245,-153,0,0,0,0,0,0,0,0,0,-1,1469,1177,0,0
252,-153,0,0,0,0,0,0,0,0,0,-1,1476,1177,0,0
259,-153,0,0,0,0,0,0,0,0,0,-1,1483,1177,0,0
266,-153,0,0,0,0,0,0,0,0,0,-1,1490,1177,0,0
273,-153,0,0,0,0,0,0,0,0,0,-1,1497,1177,0,0
280,-153,0,0,0,0,0,0,0,0,0,-1,1504,1177,0,0
287,-153,0,0,0,0,0,0,0,0,0,-1,1511,1177,0,0
294,-153,0,0,0,0,0,0,0,0,0,-1,1518,1177,0,0
301,-153,0,0,0,0,0,0,0,0,0,-1,1525,1177,0,0
308,-153,0,0,0,0,0,0,0,0,0,-1,1532,1177,0,0
315,-153,0,0,0,0,0,0,0,0,0,-1,1539,1177,0,0
322,-153,0,0,0,0,0,0,0,0,0,-1,1546,1177,0,0
329,-153,0,0,0,0,0,0,0,0,0,-1,1553,1177,0,0
336,-153,0,0,0,0,0,0,0,0,0,-1,1560,1177,0,0
343,-153,0,0,0,0,0,0,0,0,0,-1,1567,1177,0,0
350,-153,0,0,0,0,0,0,0,0,0,-1,1574,1177,0,0
357,-153,0,0,0,0,0,0,0,0,0,-1,1581,1177,0,0
364,-153,0,0,0,0,0,0,0,0,0,-1,1588,1177,0,0
371,-153,0,0,0,0,0,0,0,0,0,-1,1595,1177,0,0
378,-153,0,0,0,0,0,0,0,0,0,-1,1602,1177,0,0
385,-153,0,0,0,0,0,0,0,0,0,-1,1609,1177,0,0
392,-153,0,0,0,0,0,0,0,0,0,-1,1616,1177,0,0
399,-153,0,0,0,0,0,0,0,0,0,-1,1623,1177,0,0
406,-153,0,0,0,0,0,0,0,0,0,-1,1630,1177,0,0
413,-153,0,0,0,0,0,0,0,0,0,-1,1637,1177,0,0
420,-153,0,0,0,0,0,0,0,0,0,-1,1644,1177,0,0
427,-153,0,0,0,0,0,0,0,0,0,-1,1651,1177,0,0
434,-153,0,0,0,0,0,0,0,0,0,-1,1658,1177,0,0
441,-153,0,0,0,0,0,0,0,0,0,-1,1665,1177,0,0
448,-153,0,0,0,0,0,0,0,0,0,-1,1672,1177,0,0
455,-153,0,0,0,0,0,0,0,0,0,-1,1679,1177,0,0
462,-153,0,0,0,0,0,0,0,0,0,-1,1686,1177,0,0
469,-153,0,0,0,0,0,0,0,0,0,-1,1693,1177,0,0
476,-153,0,0,0,0,0,0,0,0,0,-1,1700,1177,0,0
483,-153,0,0,0,0,0,0,0,0,0,-1,1707,1177,0,0
490,-153,0,0,0,0,0,0,0,0,0,-1,1714,1177,0,0
497,-153,0,0,0,0,0,0,0,0,0,-1,1721,1177,0,0
504,-153,0,0,0,0,0,0,0,0,0,-1,1728,1177,0,0
511,-153,0,0,0,0,0,0,0,0,0,-1,1735,1177,0,0
518,-153,0,0,0,0,0,0,0,0,0,-1,1742,1177,0,0
525,-153,0,0,0,0,0,0,0,0,0,-1,1749,1177,0,0
532,-153,0,0,0,0,0,0,0,0,0,-1,1756,1177,0,0
539,-153,0,0,0,0,0,0,0,0,0,-1,1763,1177,0,0
546,-153,0,0,0,0,0,0,0,0,0,-1,1770,1177,0,0
553,-153,0,0,0,0,0,0,0,0,0,-1,1777,1177,0,0
560,-153,0,0,0,0,0,0,0,0,0,-1,1784,1177,0,0
567,-153,0,0,0,0,0,0,0,0,0,-1,1791,1177,0,0
574,-153,0,0,0,0,0,0,0,0,0,-1,1798,1177,0,0
581,-153,0,0,0,0,0,0,0,0,0,-1,1805,1177,0,0
588,-153,0,0,0,0,0,0,0,0,0,-1,1812,1177,0,0
595,-153,0,0,0,0,0,0,0,0,0,-1,1819,1177,0,0
602,-153,0,0,0,0,0,0,0,0,0,-1,1826,1177,0,0
609,-153,0,0,0,0,0,0,0,0,0,-1,1833,1177,0,0
616,-153,0,0,0,0,0,0,0,0,0,-1,1840,1177,0,0
623,-153,0,0,0,0,0,0,0,0,0,-1,1847,1177,0,0
630,-153,0,0,0,0,0,0,0,0,0,-1,1854,1177,0,0
637,-153,47.7668,3.00928,0.0015121,-0.00399923,-0.00199058,0.00215587,-0.00464299,-0.312788,0.00401192,0.0412748,1861,1177,47.7668,-3.00925
644,-153,47.7838,2.86121,0.00118347,-0.00270114,-0.00145822,0.00166994,-0.00318761,-0.321996,0.00284977,0.0382417,1868,1177,47.7838,-2.86115
651,-153,47.8263,2.73169,0.00105762,-0.00155397,-0.00113323,0.00148079,-0.00197714,-0.357382,0.00200328,0.0302204,1875,1177,47.8263,-2.73172
658,-153,47.879,2.88782,0.00112153,-0.000585176,-0.000957138,0.00155049,-0.00101413,-0.42133,0.00149144,0.0339094,1882,1177,47.879,-2.88787
665,-153,47.9177,2.95154,0.0012791,0.000218738,-0.000894726,0.00178893,-0.000291094,-0.517932,0.00130056,0.0375687,1889,1177,47.9177,-2.95155
672,-153,47.8438,2.86926,0.00129464,0.000755039,-0.000748003,0.00182001,0.000229666,-0.612314,0.00114449,0.0385635,1896,1177,47.8437,-2.86923
679,-153,47.7744,2.78052,0.0010812,0.000805823,-0.000432636,0.00139753,0.000489495,-0.631336,0.000818838,0.0298844,1903,1177,47.7744,-2.78046
686,-153,47.7958,2.76282,0.000787302,0.00057358,-0.000180924,0.000890567,0.000470316,-0.518644,0.00051444,0.0177383,1910,1177,47.7957,-2.76286
693,-153,47.8514,2.73279,0.000519541,0.000443306,3.37685e-05,0.000532348,0.000430499,0.362484,0.000326291,0.0296106,1917,1177,47.8514,-2.73277
700,-153,47.9197,2.67065,0,0,0,0,0,0,0,-1,1924,1177,47.9197,-2.67068
707,-153,29.6483,6.6842,0,0,0,0,0,0,0,-1,1931,1177,29.6483,-6.68415
714,-153,36.0046,6.78418,0,0,0,0,0,0,0,-1,1938,1177,36.0046,-6.78418
721,-153,36.4866,6.47595,0,0,0,0,0,0,0,-1,1945,1177,36.4866,-6.47593
728,-153,41.2474,6.83081,0,0,0,0,0,0,0,-1,1952,1177,41.2474,-6.83076
735,-153,41.6667,6.55688,0,0,0,0,0,0,0,-1,1959,1177,41.6668,-6.55689
742,-153,41.7239,6.34546,-0.00102355,-0.000270992,0.00200424,0.00139198,-0.00268652,0.878188,0.00239394,0.0145694,1966,1177,41.7239,-6.34549
749,-153,41.7106,5.9873,-0.00201538,-0.000738378,0.00242422,0.00113002,-0.00388378,0.914165,0.00303677,0.0155939,1973,1177,41.7106,-5.98728
756,-153,41.7095,5.61194,-0.00449661,-0.00153349,0.00322106,0.000530402,-0.0065605,1.00095,0.00456076,0.0114394,1980,1177,41.7095,-5.61191
763,-153,41.6816,5.23291,-0.00803293,-0.00292233,0.00438573,-0.000401785,-0.0105535,1.04918,0.00690562,0.0115054,1987,1177,41.6817,-5.23293
770,-153,41.6599,4.87122,-0.0134378,-0.004786,0.00597558,-0.00173485,-0.016489,1.0987,0.0104624,0.0117036,1994,1177,41.6599,-4.87121
777,-153,41.6299,4.56165,-0.021743,-0.00723709,0.00819386,-0.00354726,-0.0254329,1.14768,0.0159052,0.0221218,2001,1177,41.6299,-4.56164
784,-153,41.4451,4.63428,0,0,0,0,0,0,0,-1,2008,1177,41.4451,-4.63432
791,-153,41.5823,5.00684,0,0,0,0,0,0,0,-1,2015,1177,41.5822,-5.00688
798,-153,41.8396,4.67236,0,0,0,0,0,0,0,-1,2022,1177,41.8397,-4.67235
805,-153,45.9417,-0.22937,0,0,0,0,0,0,0,-1,2029,1177,45.9416,0.229374
812,-153,0,0,0,0,0,0,0,0,0,-1,2036,1177,0,0
-700,-160,0,0,0,0,0,0,0,0,0,-1,524,1184,0,0
-693,-160,0,0,0,0,0,0,0,0,0,-1,531,1184,0,0
-686,-160,-30.5823,-4.328,0,0,0,0,0,0,0,-1,538,1184,-30.5823,4.328
-679,-160,-29.9604,-3.57141,0,0,0,0,0,0,0,-1,545,1184,-29.9605,3.57144
-672,-160,-29.4216,-2.11304,0,0,0,0,0,0,0,-1,552,1184,-29.4216,2.1131
-665,-160,-29.4713,-0.892334,0,0,0,0,0,0,0,-1,559,1184,-29.4712,0.892383
-658,-160,-28.5723,1.55688,0,0,0,0,0,0,0,-1,566,1184,-28.5723,-1.55686
-651,-160,-28.4713,0.969238,0,0,0,0,0,0,0,-1,573,1184,-28.4713,-0.969229
-644,-160,-28.4796,1.54272,-0.000371781,0.00421615,-0.00145001,0.004636,-0.000791631,-1.28895,0.00338554,0.0380955,580,1184,-28.4795,-1.54277
-637,-160,-28.5251,2.1217,-0.00107995,0.00341562,-0.00116071,0.00369761,-0.00136194,-1.33246,0.00302311,0.0140455,587,1184,-28.5251,-2.12171
-630,-160,-28.58,2.505,-0.0015556,0.002539,-0.00100059,0.00277043,-0.00178703,-1.3435,0.00265159,0.00920037,594,1184,-28.58,-2.50503
-623,-160,-28.6228,2.90613,-0.00171823,0.00166917,-0.000924234,0.00190493,-0.001954,-1.32103,0.00222801,0.0133173,601,1184,-28.6228,-2.90619
-616,-160,-28.6411,3.35217,-0.00189548,0.000867205,-0.000728273,0.00104743,-0.00207571,-1.3282,0.00183543,0.0114275,608,1184,-28.6411,-3.3522
-609,-160,-28.6407,3.81409,-0.00197101,0.000646204,-0.0005247,0.000747477,-0.00207228,-1.38013,0.00168682,0.0135877,615,1184,-28.6407,-3.81406
-602,-160,-28.5491,4.42883,-0.00197386,0.000541156,-0.000530197,0.000648358,-0.00208106,-1.37129,0.00164661,0.0469291,622,1184,-28.5491,-4.42884
-595,-160,-28.6812,5.28699,0,0,0,0,0,0,0,-1,629,1184,-28.6811,-5.28697
-588,-160,-28.2798,5.22412,0,0,0,0,0,0,0,-1,636,1184,-28.2798,-5.22415
-581,-160,-25.2925,4.6272,0,0,0,0,0,0,0,-1,643,1184,-25.2925,-4.62719
-574,-160,-28.1793,4.33484,0,0,0,0,0,0,0,-1,650,1184,-28.1792,-4.33488
-567,-160,-29.5828,0.643921,0,0,0,0,0,0,0,-1,657,1184,-29.5828,-0.643968
-560,-160,-35.265,0.706055,0,0,0,0,0,0,0,-1,664,1184,-35.265,-0.706089
-553,-160,-35.2004,0.675903,0,0,0,0,0,0,0,-1,671,1184,-35.2004,-0.675928
-546,-160,-35.0621,0.651245,0,0,0,0,0,0,0,-1,678,1184,-35.0621,-0.651213
-539,-160,-35.295,0.714966,0.00029748,0.00056494,0.000558082,0.00100509,-0.000142671,0.902993,0.00072233,0.040231,685,1184,-35.295,-0.714954
-532,-160,-35.2482,0.44165,-4.44016e-05,0.000995731,0.00237568,0.0029076,-0.00195627,0.893155,0.002826,0.0444022,692,1184,-35.2482,-0.441654
-525,-160,-35.2359,0.825928,-0.000776652,0.00155963,0.00486034,0.00539024,-0.00460725,0.903332,0.00577795,0.042858,699,1184,-35.2359,-0.825877
-518,-160,-35.3529,1.23755,-0.00167759,0.00230842,0.00780971,0.00837542,-0.00774459,0.91033,0.00930926,0.0394212,706,1184,-35.3529,-1.23756
-511,-160,0,0,0,0,0,0,0,0,0,-1,713,1184,0,0
-504,-160,0,0,0,0,0,0,0,0,0,-1,720,1184,0,0
-497,-160,0,0,0,0,0,0,0,0,0,-1,727,1184,0,0
-490,-160,0,0,0,0,0,0,0,0,0,-1,734,1184,0,0
-483,-160,0,0,0,0,0,0,0,0,0,-1,741,1184,0,0
-476,-160,0,0,0,0,0,0,0,0,0,-1,748,1184,0,0
-469,-160,0,0,0,0,0,0,0,0,0,-1,755,1184,0,0
-462,-160,0,0,0,0,0,0,0,0,0,-1,762,1184,0,0
-455,-160,0,0,0,0,0,0,0,0,0,-1,769,1184,0,0
-448,-160,0,0,0,0,0,0,0,0,0,-1,776,1184,0,0
-441,-160,0,0,0,0,0,0,0,0,0,-1,783,1184,0,0
-434,-160,0,0,0,0,0,0,0,0,0,-1,790,1184,0,0
-427,-160,0,0,0,0,0,0,0,0,0,-1,797,1184,0,0
-420,-160,0,0,0,0,0,0,0,0,0,-1,804,1184,0,0
-413,-160,0,0,0,0,0,0,0,0,0,-1,811,1184,0,0
-406,-160,0,0,0,0,0,0,0,0,0,-1,818,1184,0,0
-399,-160,0,0,0,0,0,0,0,0,0,-1,825,1184,0,0
-392,-160,0,0,0,0,0,0,0,0,0,-1,832,1184,0,0
-385,-160,0,0,0,0,0,0,0,0,0,-1,839,1184,0,0
-378,-160,0,0,0,0,0,0,0,0,0,-1,846,1184,0,0
-371,-160,0,0,0,0,0,0,0,0,0,-1,853,1184,0,0
-364,-160,0,0,0,0,0,0,0,0,0,-1,860,1184,0,0
-357,-160,0,0,0,0,0,0,0,0,0,-1,867,1184,0,0
-350,-160,0,0,0,0,0,0,0,0,0,-1,874,1184,0,0
-343,-160,0,0,0,0,0,0,0,0,0,-1,881,1184,0,0
-336,-160,0,0,0,0,0,0,0,0,0,-1,888,1184,0,0
-329,-160,0,0,0,0,0,0,0,0,0,-1,895,1184,0,0
-322,-160,0,0,0,0,0,0,0,0,0,-1,902,1184,0,0
-315,-160,0,0,0,0,0,0,0,0,0,-1,909,1184,0,0
-308,-160,0,0,0,0,0,0,0,0,0,-1,916,1184,0,0
-301,-160,0,0,0,0,0,0,0,0,0,-1,923,1184,0,0
-294,-160,0,0,0,0,0,0,0,0,0,-1,930,1184,0,0
-287,-160,0,0,0,0,0,0,0,0,0,-1,937,1184,0,0
-280,-160,0,0,0,0,0,0,0,0,0,-1,944,1184,0,0
-273,-160,0,0,0,0,0,0,0,0,0,-1,951,1184,0,0
-266,-160,0,0,0,0,0,0,0,0,0,-1,958,1184,0,0
-259,-160,0,0,0,0,0,0,0,0,0,-1,965,1184,0,0
-252,-160,0,0,0,0,0,0,0,0,0,-1,972,1184,0,0
-245,-160,0,0,0,0,0,0,0,0,0,-1,979,1184,0,0
-238,-160,0,0,0,0,0,0,0,0,0,-1,986,1184,0,0
-231,-160,0,0,0,0,0,0,0,0,0,-1,993,1184,0,0
-224,-160,0,0,0,0,0,0,0,0,0,-1,1000,1184,0,0
-217,-160,0,0,0,0,0,0,0,0,0,-1,1007,1184,0,0
-210,-160,0,0,0,0,0,0,0,0,0,-1,1014,1184,0,0
-203,-160,0,0,0,0,0,0,0,0,0,-1,1021,1184,0,0
-196,-160,0,0,0,0,0,0,0,0,0,-1,1028,1184,0,0
-189,-160,0,0,0,0,0,0,0,0,0,-1,1035,1184,0,0
-182,-160,0,0,0,0,0,0,0,0,0,-1,1042,1184,0,0
-175,-160,0,0,0,0,0,0,0,0,0,-1,1049,1184,0,0
-168,-160,0,0,0,0,0,0,0,0,0,-1,1056,1184,0,0
-161,-160,0,0,0,0,0,0,0,0,0,-1,1063,1184,0,0
-154,-160,0,0,0,0,0,0,0,0,0,-1,1070,1184,0,0
-147,-160,0,0,0,0,0,0,0,0,0,-1,1077,1184,0,0
-140,-160,0,0,0,0,0,0,0,0,0,-1,1084,1184,0,0
-133,-160,0,0,0,0,0,0,0,0,0,-1,1091,1184,0,0
-126,-160,0,0,0,0,0,0,0,0,0,-1,1098,1184,0,0
-119,-160,0,0,0,0,0,0,0,0,0,-1,1105,1184,0,0
-112,-160,0,0,0,0,0,0,0,0,0,-1,1112,1184,0,0
-105,-160,0,0,0,0,0,0,0,0,0,-1,1119,1184,0,0
-98,-160,0,0,0,0,0,0,0,0,0,-1,1126,1184,0,0
-91,-160,0,0,0,0,0,0,0,0,0,-1,1133,1184,0,0
-84,-160,0,0,0,0,0,0,0,0,0,-1,1140,1184,0,0
-77,-160,0,0,0,0,0,0,0,0,0,-1,1147,1184,0,0
-70,-160,0,0,0,0,0,0,0,0,0,-1,1154,1184,0,0
-63,-160,0,0,0,0,0,0,0,0,0,-1,1161,1184,0,0
-56,-160,0,0,0,0,0,0,0,0,0,-1,1168,1184,0,0
-49,-160,0,0,0,0,0,0,0,0,0,-1,1175,1184,0,0
-42,-160,0,0,0,0,0,0,0,0,0,-1,1182,1184,0,0
-35,-160,0,0,0,0,0,0,0,0,0,-1,1189,1184,0,0
-28,-160,0,0,0,0,0,0,0,0,0,-1,1196,1184,0,0
-21,-160,0,0,0,0,0,0,0,0,0,-1,1203,1184,0,0
-14,-160,0,0,0,0,0,0,0,0,0,-1,1210,1184,0,0
-7,-160,0,0,0,0,0,0,0,0,0,-1,1217,1184,0,0
0,-160,0,0,0,0,0,0,0,0,0,-1,1224,1184,0,0
7,-160,0,0,0,0,0,0,0,0,0,-1,1231,1184,0,0
14,-160,0,0,0,0,0,0,0,0,0,-1,1238,1184,0,0
21,-160,0,0,0,0,0,0,0,0,0,-1,1245,1184,0,0
28,-160,0,0,0,0,0,0,0,0,0,-1,1252,1184,0,0
35,-160,0,0,0,0,0,0,0,0,0,-1,1259,1184,0,0
42,-160,0,0,0,0,0,0,0,0,0,-1,1266,1184,0,0
49,-160,0,0,0,0,0,0,0,0,0,-1,1273,1184,0,0
56,-160,0,0,0,0,0,0,0,0,0,-1,1280,1184,0,0
63,-160,0,0,0,0,0,0,0,0,0,-1,1287,1184,0,0
70,-160,0,0,0,0,0,0,0,0,0,-1,1294,1184,0,0
77,-160,0,0,0,0,0,0,0,0,0,-1,1301,1184,0,0
84,-160,0,0,0,0,0,0,0,0,0,-1,1308,1184,0,0
91,-160,0,0,0,0,0,0,0,0,0,-1,1315,1184,0,0
98,-160,0,0,0,0,0,0,0,0,0,-1,1322,1184,0,0
105,-160,0,0,0,0,0,0,0,0,0,-1,1329,1184,0,0
112,-160,0,0,0,0,0,0,0,0,0,-1,1336,1184,0,0
119,-160,0,0,0,0,0,0,0,0,0,-1,1343,1184,0,0
126,-160,0,0,0,0,0,0,0,0,0,-1,1350,1184,0,0
133,-160,0,0,0,0,0,0,0,0,0,-1,1357,1184,0,0
140,-160,0,0,0,0,0,0,0,0,0,-1,1364,1184,0,0
147,-160,0,0,0,0,0,0,0,0,0,-1,1371,1184,0,0
154,-160,0,0,0,0,0,0,0,0,0,-1,1378,1184,0,0
161,-160,0,0,0,0,0,0,0,0,0,-1,1385,1184,0,0
168,-160,0,0,0,0,0,0,0,0,0,-1,1392,1184,0,0
175,-160,0,0,0,0,0,0,0,0,0,-1,1399,1184,0,0
182,-160,0,0,0,0,0,0,0,0,0,-1,1406,1184,0,0
189,-160,0,0,0,0,0,0,0,0,0,-1,1413,1184,0,0
196,-160,0,0,0,0,0,0,0,0,0,-1,1420,1184,0,0
203,-160,0,0,0,0,0,0,0,0,0,-1,1427,1184,0,0
210,-160,0,0,0,0,0,0,0,0,0,-1,1434,1184,0,0
217,-160,0,0,0,0,0,0,0,0,0,-1,1441,1184,0,0
224,-160,0,0,0,0,0,0,0,0,0,-1,1448,1184,0,0
231,-160,0,0,0,0,0,0,0,0,0,-1,1455,1184,0,0
238,-160,0,0,0,0,0,0,0,0,0,-1,1462,1184,0,0
245,-160,0,0,0,0,0,0,0,0,0,-1,1469,1184,0,0
252,-160,0,0,0,0,0,0,0,0,0,-1,1476,1184,0,0
259,-160,0,0,0,0,0,0,0,0,0,-1,1483,1184,0,0
266,-160,0,0,0,0,0,0,0,0,0,-1,1490,1184,0,0
273,-160,0,0,0,0,0,0,0,0,0,-1,1497,1184,0,0
280,-160,0,0,0,0,0,0,0,0,0,-1,1504,1184,0,0
287,-160,0,0,0,0,0,0,0,0,0,-1,1511,1184,0,0
294,-160,0,0,0,0,0,0,0,0,0,-1,1518,1184,0,0
301,-160,0,0,0,0,0,0,0,0,0,-1,1525,1184,0,0
308,-160,0,0,0,0,0,0,0,0,0,-1,1532,1184,0,0
315,-160,0,0,0,0,0,0,0,0,0,-1,1539,1184,0,0
322,-160,0,0,0,0,0,0,0,0,0,-1,1546,1184,0,0
329,-160,0,0,0,0,0,0,0,0,0,-1,1553,1184,0,0
336,-160,0,0,0,0,0,0,0,0,0,-1,1560,1184,0,0
343,-160,0,0,0,0,0,0,0,0,0,-1,1567,1184,0,0
350,-160,0,0,0,0,0,0,0,0,0,-1,1574,1184,0,0
357,-160,0,0,0,0,0,0,0,0,0,-1,1581,1184,0,0
364,-160,0,0,0,0,0,0,0,0,0,-1,1588,1184,0,0
371,-160,0,0,0,0,0,0,0,0,0,-1,1595,1184,0,0
378,-160,0,0,0,0,0,0,0,0,0,-1,1602,1184,0,0
385,-160,0,0,0,0,0,0,0,0,0,-1,1609,1184,0,0
392,-160,0,0,0,0,0,0,0,0,0,-1,1616,1184,0,0
399,-160,0,0,0,0,0,0,0,0,0,-1,1623,1184,0,0
406,-160,0,0,0,0,0,0,0,0,0,-1,1630,1184,0,0
413,-160,0,0,0,0,0,0,0,0,0,-1,1637,1184,0,0
420,-160,0,0,0,0,0,0,0,0,0,-1,1644,1184,0,0
427,-160,0,0,0,0,0,0,0,0,0,-1,1651,1184,0,0
434,-160,0,0,0,0,0,0,0,0,0,-1,1658,1184,0,0
441,-160,0,0,0,0,0,0,0,0,0,-1,1665,1184,0,0
448,-160,0,0,0,0,0,0,0,0,0,-1,1672,1184,0,0
455,-160,0,0,0,0,0,0,0,0,0,-1,1679,1184,0,0
462,-160,0,0,0,0,0,0,0,0,0,-1,1686,1184,0,0
469,-160,0,0,0,0,0,0,0,0,0,-1,1693,1184,0,0
476,-160,0,0,0,0,0,0,0,0,0,-1,1700,1184,0,0
483,-160,0,0,0,0,0,0,0,0,0,-1,1707,1184,0,0
490,-160,0,0,0,0,0,0,0,0,0,-1,1714,1184,0,0
497,-160,0,0,0,0,0,0,0,0,0,-1,1721,1184,0,0
504,-160,0,0,0,0,0,0,0,0,0,-1,1728,1184,0,0
511,-160,0,0,0,0,0,0,0,0,0,-1,1735,1184,0,0
518,-160,0,0,0,0,0,0,0,0,0,-1,1742,1184,0,0
525,-160,0,0,0,0,0,0,0,0,0,-1,1749,1184,0,0
532,-160,0,0,0,0,0,0,0,0,0,-1,1756,1184,0,0
539,-160,0,0,0,0,0,0,0,0,0,-1,1763,1184,0,0
546,-160,0,0,0,0,0,0,0,0,0,-1,1770,1184,0,0
553,-160,0,0,0,0,0,0,0,0,0,-1,1777,1184,0,0
560,-160,0,0,0,0,0,0,0,0,0,-1,1784,1184,0,0
567,-160,0,0,0,0,0,0,0,0,0,-1,1791,1184,0,0
574,-160,0,0,0,0,0,0,0,0,0,-1,1798,1184,0,0
581,-160,0,0,0,0,0,0,0,0,0,-1,1805,1184,0,0
588,-160,0,0,0,0,0,0,0,0,0,-1,1812,1184,0,0
595,-160,0,0,0,0,0,0,0,0,0,-1,1819,1184,0,0
602,-160,0,0,0,0,0,0,0,0,0,-1,1826,1184,0,0
609,-160,0,0,0,0,0,0,0,0,0,-1,1833,1184,0,0
616,-160,0,0,0,0,0,0,0,0,0,-1,1840,1184,0,0
623,-160,0,0,0,0,0,0,0,0,0,-1,1847,1184,0,0
630,-160,0,0,0,0,0,0,0,0,0,-1,1854,1184,0,0
637,-160,47.6466,2.89465,0.000531298,-0.00251621,-0.00181494,0.00137732,-0.00336223,-0.436197,0.00281524,0.041469,1861,1184,47.6466,-2.89465
644,-160,47.663,2.75134,0.00051344,-0.00167257,-0.00140827,0.00120309,-0.00236223,-0.455388,0.00209439,0.0405193,1868,1184,47.663,-2.75134
651,-160,47.6678,2.67712,0.000624255,-0.000845338,-0.00114599,0.00125078,-0.00147187,-0.500319,0.00157365,0.0379593,1875,1184,47.6679,-2.67707
658,-160,47.7136,2.82397,0.000894352,-0.000113376,-0.00105634,0.00156085,-0.000779869,-0.562863,0.00137626,0.0391331,1882,1184,47.7136,-2.82392
665,-160,47.842,3.05469,0.00124435,0.000453081,-0.00104649,0.00196749,-0.000270066,-0.604674,0.00141033,0.0379638,1889,1184,47.842,-3.05466
672,-160,47.8003,2.90027,0.00137481,0.000807675,-0.000900806,0.00203563,0.000146858,-0.632912,0.00131088,0.0337945,1896,1184,47.8003,-2.90032
679,-160,47.7922,2.77771,0.00120291,0.000762056,-0.000593939,0.00161601,0.00034896,-0.607712,0.00098191,0.0257468,1903,1184,47.7922,-2.77771
686,-160,47.8076,2.7406,0.000909024,0.000506453,-0.000344199,0.00110647,0.000309004,-0.520816,0.000659245,0.0161698,1910,1184,47.8077,-2.74065
693,-160,47.8777,2.72314,0,0,0,0,0,0,0,-1,1917,1184,47.8777,-2.72311
700,-160,42.8784,2.44617,0,0,0,0,0,0,0,-1,1924,1184,42.8785,-2.4462
707,-160,24.5115,6.27405,0,0,0,0,0,0,0,-1,1931,1184,24.5115,-6.27401
714,-160,35.6892,6.8905,0,0,0,0,0,0,0,-1,1938,1184,35.6892,-6.89048
721,-160,36.2388,6.37878,0,0,0,0,0,0,0,-1,1945,1184,36.2388,-6.37876
728,-160,41.3179,7.19653,0,0,0,0,0,0,0,-1,1952,1184,41.3179,-7.19656
735,-160,41.4348,6.70837,-0.000627417,-0.000367636,0.00158302,0.00109081,-0.00208586,0.826333,0.00186381,0.0298638,1959,1184,41.4349,-6.70835
742,-160,41.3406,6.32214,-0.000922245,-0.000243128,0.00187656,0.00132435,-0.00248972,0.874903,0.00223606,0.0162862,1966,1184,41.3406,-6.32219
749,-160,41.3251,5.92529,-0.00171482,-0.000745851,0.00228366,0.00110415,-0.00356482,0.889925,0.00281766,0.0171435,1973,1184,41.3251,-5.92528
756,-160,41.3212,5.58936,-0.00375584,-0.00157099,0.00302393,0.000551796,-0.00587862,0.958734,0.00411536,0.0116405,1980,1184,41.3212,-5.58937
763,-160,41.2734,5.245,-0.00666593,-0.00298061,0.00407448,-0.000351497,-0.00929504,0.997757,0.00608292,0.012895,1987,1184,41.2735,-5.24499
770,-160,41.1841,4.80554,-0.0113379,-0.00491784,0.00555492,-0.00171216,-0.0145436,1.04739,0.00917841,0.0244781,1994,1184,41.1841,-4.80552
777,-160,41.0983,4.4176,-0.0188507,-0.00750956,0.0076827,-0.00363135,-0.0227289,1.10332,0.0140989,0.0357371,2001,1184,41.0982,-4.41763
784,-160,41.0547,4.01941,0,0,0,0,0,0,0,-1,2008,1184,41.0546,-4.01944
791,-160,40.9668,3.9707,0,0,0,0,0,0,0,-1,2015,1184,40.9668,-3.97072
798,-160,40.9358,3.92383,0,0,0,0,0,0,0,-1,2022,1184,40.9357,-3.92384
805,-160,46.3748,-0.533325,0,0,0,0,0,0,0,-1,2029,1184,46.3748,0.533315
812,-160,0,0,0,0,0,0,0,0,0,-1,2036,1184,0,0
-700,-167,0,0,0,0,0,0,0,0,0,-1,524,1191,0,0
-693,-167,0,0,0,0,0,0,0,0,0,-1,531,1191,0,0
-686,-167,-30.4136,-4.61133,0,0,0,0,0,0,0,-1,538,1191,-30.4136,4.61135
-679,-167,-29.7316,-3.55347,0,0,0,0,0,0,0,-1,545,1191,-29.7315,3.55342
-672,-167,-29.1503,-2.08142,0,0,0,0,0,0,0,-1,552,1191,-29.1503,2.08148
-665,-167,-28.5746,-0.605225,0,0,0,0,0,0,0,-1,559,1191,-28.5746,0.605196
-658,-167,-27.9899,-0.765991,0,0,0,0,0,0,0,-1,566,1191,-27.9899,0.766043
-651,-167,-28.0004,0.990967,0,0,0,0,0,0,0,-1,573,1191,-28.0004,-0.990913
-644,-167,-28.0035,1.57007,-0.00224311,0.00383356,-0.000873379,0.00395659,-0.00236614,-1.43084,0.00368873,0.0421489,580,1191,-28.0035,-1.57003
-637,-167,-28.0609,2.13489,-0.00233811,0.00322412,-0.000659193,0.00330118,-0.00241517,-1.45443,0.00331352,0.0178453,587,1191,-28.0608,-2.1349
-630,-167,-28.1367,2.50391,-0.00238438,0.00246269,-0.000614793,0.00253946,-0.00246114,-1.44658,0.00288721,0.00952186,594,1191,-28.1367,-2.50396
-623,-167,-28.154,2.89734,-0.00221606,0.00167248,-0.000684045,0.0017893,-0.00233288,-1.40165,0.00238683,0.0126731,601,1191,-28.154,-2.89733
-616,-167,-28.1575,3.33765,-0.00212504,0.00089254,-0.000709747,0.00105114,-0.00228364,-1.35095,0.00196868,0.0159001,608,1191,-28.1575,-3.33765
-609,-167,-28.1875,3.8219,-0.00203281,0.00057043,-0.000712269,0.00075257,-0.00221494,-1.32044,0.00178129,0.013744,615,1191,-28.1875,-3.82189
-602,-167,-28.2286,4.23743,-0.00197742,0.000312065,-0.000793504,0.000560191,-0.00222555,-1.26773,0.00170145,0.0166511,622,1191,-28.2286,-4.23738
-595,-167,-28.1162,4.5907,0,0,0,0,0,0,0,-1,629,1191,-28.1162,-4.59068
-588,-167,-28.383,5.03882,0,0,0,0,0,0,0,-1,636,1191,-28.383,-5.0388
-581,-167,-28.3348,5.29346,0,0,0,0,0,0,0,-1,643,1191,-28.3349,-5.29344
-574,-167,-24.1547,5.43677,0,0,0,0,0,0,0,-1,650,1191,-24.1547,-5.43682
-567,-167,-27.3643,2.55859,0,0,0,0,0,0,0,-1,657,1191,-27.3643,-2.55864
-560,-167,-35.2562,0.841675,0,0,0,0,0,0,0,-1,664,1191,-35.2562,-0.841682
-553,-167,-35.2382,0.782471,-0.000349989,-6.24817e-05,-0.000733465,0.000541185,-0.000953656,-0.882168,0.000873929,0.0400759,671,1191,-35.2382,-0.78251
-546,-167,-35.3134,0.837646,0.000155121,-0.000207433,-0.00047585,0.000483054,-0.000535366,-0.603408,0.000588243,0.0335089,678,1191,-35.3134,-0.837657
-539,-167,-35.3181,1.02722,0.000796443,-5.40029e-05,0.000400497,0.000955354,-0.000212914,0.377731,0.000718468,0.0359162,685,1191,-35.3181,-1.02719
-532,-167,-35.2213,0.949219,0.000725109,0.000449586,0.00210626,0.00269811,-0.00152342,0.752742,0.00246855,0.0416068,692,1191,-35.2213,-0.94927
-525,-167,-35.2095,0.999878,0.000441239,0.00122468,0.0045752,0.0054249,-0.00375898,0.828103,0.00533131,0.0438345,699,1191,-35.2095,-0.999832
-518,-167,-35.231,1.14636,8.50291e-05,0.00211335,0.00743894,0.00860695,-0.00640856,0.853146,0.00870013,0.0440248,706,1191,-35.231,-1.14635
-511,-167,0,0,0,0,0,0,0,0,0,-1,713,1191,0,0
-504,-167,0,0,0,0,0,0,0,0,0,-1,720,1191,0,0
-497,-167,0,0,0,0,0,0,0,0,0,-1,727,1191,0,0
-490,-167,0,0,0,0,0,0,0,0,0,-1,734,1191,0,0
-483,-167,0,0,0,0,0,0,0,0,0,-1,741,1191,0,0
-476,-167,0,0,0,0,0,0,0,0,0,-1,748,1191,0,0
-469,-167,0,0,0,0,0,0,0,0,0,-1,755,1191,0,0
-462,-167,0,0,0,0,0,0,0,0,0,-1,762,1191,0,0
-455,-167,0,0,0,0,0,0,0,0,0,-1,769,1191,0,0
-448,-167,0,0,0,0,0,0,0,0,0,-1,776,1191,0,0
-441,-167,0,0,0,0,0,0,0,0,0,-1,783,1191,0,0
-434,-167,0,0,0,0,0,0,0,0,0,-1,790,1191,0,0
-427,-167,0,0,0,0,0,0,0,0,0,-1,797,1191,0,0
-420,-167,0,0,0,0,0,0,0,0,0,-1,804,1191,0,0
-413,-167,0,0,0,0,0,0,0,0,0,-1,811,1191,0,0
-406,-167,0,0,0,0,0,0,0,0,0,-1,818,1191,0,0
-399,-167,0,0,0,0,0,0,0,0,0,-1,825,1191,0,0
-392,-167,0,0,0,0,0,0,0,0,0,-1,832,1191,0,0
-385,-167,0,0,0,0,0,0,0,0,0,-1,839,1191,0,0
-378,-167,0,0,0,0,0,0,0,0,0,-1,846,1191,0,0
-371,-167,0,0,0,0,0,0,0,0,0,-1,853,1191,0,0
-364,-167,0,0,0,0,0,0,0,0,0,-1,860,1191,0,0
-357,-167,0,0,0,0,0,0,0,0,0,-1,867,1191,0,0
-350,-167,0,0,0,0,0,0,0,0,0,-1,874,1191,0,0
-343,-167,0,0,0,0,0,0,0,0,0,-1,881,1191,0,0
-336,-167,0,0,0,0,0,0,0,0,0,-1,888,1191,0,0
-329,-167,0,0,0,0,0,0,0,0,0,-1,895,1191,0,0
-322,-167,0,0,0,0,0,0,0,0,0,-1,902,1191,0,0
-315,-167,0,0,0,0,0,0,0,0,0,-1,909,1191,0,0
-308,-167,0,0,0,0,0,0,0,0,0,-1,916,1191,0,0
-301,-167,0,0,0,0,0,0,0,0,0,-1,923,1191,0,0
-294,-167,0,0,0,0,0,0,0,0,0,-1,930,1191,0,0
-287,-167,0,0,0,0,0,0,0,0,0,-1,937,1191,0,0
-280,-167,0,0,0,0,0,0,0,0,0,-1,944,1191,0,0
-273,-167,0,0,0,0,0,0,0,0,0,-1,951,1191,0,0
-266,-167,0,0,0,0,0,0,0,0,0,-1,958,1191,0,0
-259,-167,0,0,0,0,0,0,0,0,0,-1,965,1191,0,0
-252,-167,0,0,0,0,0,0,0,0,0,-1,972,1191,0,0
-245,-167,0,0,0,0,0,0,0,0,0,-1,979,1191,0,0
-238,-167,0,0,0,0,0,0,0,0,0,-1,986,1191,0,0
-231,-167,0,0,0,0,0,0,0,0,0,-1,993,1191,0,0
-224,-167,0,0,0,0,0,0,0,0,0,-1,1000,1191,0,0
-217,-167,0,0,0,0,0,0,0,0,0,-1,1007,1191,0,0
-210,-167,0,0,0,0,0,0,0,0,0,-1,1014,1191,0,0
-203,-167,0,0,0,0,0,0,0,0,0,-1,1021,1191,0,0
-196,-167,0,0,0,0,0,0,0,0,0,-1,1028,1191,0,0
-189,-167,0,0,0,0,0,0,0,0,0,-1,1035,1191,0,0
-182,-167,0,0,0,0,0,0,0,0,0,-1,1042,1191,0,0
-175,-167,0,0,0,0,0,0,0,0,0,-1,1049,1191,0,0
-168,-167,0,0,0,0,0,0,0,0,0,-1,1056,1191,0,0
-161,-167,0,0,0,0,0,0,0,0,0,-1,1063,1191,0,0
-154,-167,0,0,0,0,0,0,0,0,0,-1,1070,1191,0,0
-147,-167,0,0,0,0,0,0,0,0,0,-1,1077,1191,0,0
-140,-167,0,0,0,0,0,0,0,0,0,-1,1084,1191,0,0
-133,-167,0,0,0,0,0,0,0,0,0,-1,1091,1191,0,0
-126,-167,0,0,0,0,0,0,0,0,0,-1,1098,1191,0,0
-119,-167,0,0,0,0,0,0,0,0,0,-1,1105,1191,0,0
-112,-167,0,0,0,0,0,0,0,0,0,-1,1112,1191,0,0
-105,-167,0,0,0,0,0,0,0,0,0,-1,1119,1191,0,0
-98,-167,0,0,0,0,0,0,0,0,0,-1,1126,1191,0,0
-91,-167,0,0,0,0,0,0,0,0,0,-1,1133,1191,0,0
-84,-167,0,0,0,0,0,0,0,0,0,-1,1140,1191,0,0
-77,-167,0,0,0,0,0,0,0,0,0,-1,1147,1191,0,0
-70,-167,0,0,0,0,0,0,0,0,0,-1,1154,1191,0,0
-63,-167,0,0,0,0,0,0,0,0,0,-1,1161,1191,0,0
-56,-167,0,0,0,0,0,0,0,0,0,-1,1168,1191,0,0
-49,-167,0,0,0,0,0,0,0,0,0,-1,1175,1191,0,0
-42,-167,0,0,0,0,0,0,0,0,0,-1,1182,1191,0,0
-35,-167,0,0,0,0,0,0,0,0,0,-1,1189,1191,0,0
-28,-167,0,0,0,0,0,0,0,0,0,-1,1196,1191,0,0
-21,-167,0,0,0,0,0,0,0,0,0,-1,1203,1191,0,0
-14,-167,0,0,0,0,0,0,0,0,0,-1,1210,1191,0,0
-7,-167,0,0,0,0,0,0,0,0,0,-1,1217,1191,0,0
0,-167,0,0,0,0,0,0,0,0,0,-1,1224,1191,0,0
7,-167,0,0,0,0,0,0,0,0,0,-1,1231,1191,0,0
14,-167,0,0,0,0,0,0,0,0,0,-1,1238,1191,0,0
21,-167,0,0,0,0,0,0,0,0,0,-1,1245,1191,0,0
28,-167,0,0,0,0,0,0,0,0,0,-1,1252,1191,0,0
35,-167,0,0,0,0,0,0,0,0,0,-1,1259,1191,0,0
42,-167,0,0,0,0,0,0,0,0,0,-1,1266,1191,0,0
49,-167,0,0,0,0,0,0,0,0,0,-1,1273,1191,0,0
56,-167,0,0,0,0,0,0,0,0,0,-1,1280,1191,0,0
63,-167,0,0,0,0,0,0,0,0,0,-1,1287,1191,0,0
70,-167,0,0,0,0,0,0,0,0,0,-1,1294,1191,0,0
77,-167,0,0,0,0,0,0,0,0,0,-1,1301,1191,0,0
84,-167,0,0,0,0,0,0,0,0,0,-1,1308,1191,0,0
91,-167,0,0,0,0,0,0,0,0,0,-1,1315,1191,0,0
98,-167,0,0,0,0,0,0,0,0,0,-1,1322,1191,0,0
105,-167,0,0,0,0,0,0,0,0,0,-1,1329,1191,0,0
112,-167,0,0,0,0,0,0,0,0,0,-1,1336,1191,0,0
119,-167,0,0,0,0,0,0,0,0,0,-1,1343,1191,0,0
126,-167,0,0,0,0,0,0,0,0,0,-1,1350,1191,0,0
133,-167,0,0,0,0,0,0,0,0,0,-1,1357,1191,0,0
140,-167,0,0,0,0,0,0,0,0,0,-1,1364,1191,0,0
147,-167,0,0,0,0,0,0,0,0,0,-1,1371,1191,0,0
154,-167,0,0,0,0,0,0,0,0,0,-1,1378,1191,0,0
161,-167,0,0,0,0,0,0,0,0,0,-1,1385,1191,0,0
168,-167,0,0,0,0,0,0,0,0,0,-1,1392,1191,0,0
175,-167,0,0,0,0,0,0,0,0,0,-1,1399,1191,0,0
182,-167,0,0,0,0,0,0,0,0,0,-1,1406,1191,0,0
189,-167,0,0,0,0,0,0,0,0,0,-1,1413,1191,0,0
196,-167,0,0,0,0,0,0,0,0,0,-1,1420,1191,0,0
203,-167,0,0,0,0,0,0,0,0,0,-1,1427,1191,0,0
210,-167,0,0,0,0,0,0,0,0,0,-1,1434,1191,0,0
217,-167,0,0,0,0,0,0,0,0,0,-1,1441,1191,0,0
224,-167,0,0,0,0,0,0,0,0,0,-1,1448,1191,0,0
231,-167,0,0,0,0,0,0,0,0,0,-1,1455,1191,0,0
238,-167,0,0,0,0,0,0,0,0,0,-1,1462,1191,0,0
245,-167,0,0,0,0,0,0,0,0,0,-1,1469,1191,0,0
252,-167,0,0,0,0,0,0,0,0,0,-1,1476,1191,0,0
259,-167,0,0,0,0,0,0,0,0,0,-1,1483,1191,0,0
266,-167,0,0,0,0,0,0,0,0,0,-1,1490,1191,0,0
273,-167,0,0,0,0,0,0,0,0,0,-1,1497,1191,0,0
280,-167,0,0,0,0,0,0,0,0,0,-1,1504,1191,0,0
287,-167,0,0,0,0,0,0,0,0,0,-1,1511,1191,0,0
294,-167,0,0,0,0,0,0,0,0,0,-1,1518,1191,0,0
301,-167,0,0,0,0,0,0,0,0,0,-1,1525,1191,0,0
308,-167,0,0,0,0,0,0,0,0,0,-1,1532,1191,0,0
315,-167,0,0,0,0,0,0,0,0,0,-1,1539,1191,0,0
322,-167,0,0,0,0,0,0,0,0,0,-1,1546,1191,0,0
329,-167,0,0,0,0,0,0,0,0,0,-1,1553,1191,0,0
336,-167,0,0,0,0,0,0,0,0,0,-1,1560,1191,0,0
343,-167,0,0,0,0,0,0,0,0,0,-1,1567,1191,0,0
350,-167,0,0,0,0,0,0,0,0,0,-1,1574,1191,0,0
357,-167,0,0,0,0,0,0,0,0,0,-1,1581,1191,0,0
364,-167,0,0,0,0,0,0,0,0,0,-1,1588,1191,0,0
371,-167,0,0,0,0,0,0,0,0,0,-1,1595,1191,0,0
378,-167,0,0,0,0,0,0,0,0,0,-1,1602,1191,0,0
385,-167,0,0,0,0,0,0,0,0,0,-1,1609,1191,0,0
392,-167,0,0,0,0,0,0,0,0,0,-1,1616,1191,0,0
399,-167,0,0,0,0,0,0,0,0,0,-1,1623,1191,0,0
406,-167,0,0,0,0,0,0,0,0,0,-1,1630,1191,0,0
413,-167,0,0,0,0,0,0,0,0,0,-1,1637,1191,0,0
420,-167,0,0,0,0,0,0,0,0,0,-1,1644,1191,0,0
427,-167,0,0,0,0,0,0,0,0,0,-1,1651,1191,0,0
434,-167,0,0,0,0,0,0,0,0,0,-1,1658,1191,0,0
441,-167,0,0,0,0,0,0,0,0,0,-1,1665,1191,0,0
448,-167,0,0,0,0,0,0,0,0,0,-1,1672,1191,0,0
455,-167,0,0,0,0,0,0,0,0,0,-1,1679,1191,0,0
462,-167,0,0,0,0,0,0,0,0,0,-1,1686,1191,0,0
469,-167,0,0,0,0,0,0,0,0,0,-1,1693,1191,0,0
476,-167,0,0,0,0,0,0,0,0,0,-1,1700,1191,0,0
483,-167,0,0,0,0,0,0,0,0,0,-1,1707,1191,0,0
490,-167,0,0,0,0,0,0,0,0,0,-1,1714,1191,0,0
497,-167,0,0,0,0,0,0,0,0,0,-1,1721,1191,0,0
504,-167,0,0,0,0,0,0,0,0,0,-1,1728,1191,0,0
511,-167,0,0,0,0,0,0,0,0,0,-1,1735,1191,0,0
518,-167,0,0,0,0,0,0,0,0,0,-1,1742,1191,0,0
525,-167,0,0,0,0,0,0,0,0,0,-1,1749,1191,0,0
532,-167,0,0,0,0,0,0,0,0,0,-1,1756,1191,0,0
539,-167,0,0,0,0,0,0,0,0,0,-1,1763,1191,0,0
546,-167,0,0,0,0,0,0,0,0,0,-1,1770,1191,0,0
553,-167,0,0,0,0,0,0,0,0,0,-1,1777,1191,0,0
560,-167,0,0,0,0,0,0,0,0,0,-1,1784,1191,0,0
567,-167,0,0,0,0,0,0,0,0,0,-1,1791,1191,0,0
574,-167,0,0,0,0,0,0,0,0,0,-1,1798,1191,0,0
581,-167,0,0,0,0,0,0,0,0,0,-1,1805,1191,0,0
588,-167,0,0,0,0,0,0,0,0,0,-1,1812,1191,0,0
595,-167,0,0,0,0,0,0,0,0,0,-1,1819,1191,0,0
602,-167,0,0,0,0,0,0,0,0,0,-1,1826,1191,0,0
609,-167,0,0,0,0,0,0,0,0,0,-1,1833,1191,0,0
616,-167,0,0,0,0,0,0,0,0,0,-1,1840,1191,0,0
623,-167,0,0,0,0,0,0,0,0,0,-1,1847,1191,0,0
630,-167,0,0,0,0,0,0,0,0,0,-1,1854,1191,0,0
637,-167,47.6458,2.77771,-0.000289496,-0.00129752,-0.00117428,0.000484369,-0.00207138,-0.582683,0.00156753,0.0403301,1861,1191,47.6457,-2.77774
644,-167,47.7292,2.66504,2.1486e-05,-0.000811187,-0.000999267,0.000687679,-0.00147738,-0.588013,0.00127741,0.0425113,1868,1191,47.7293,-2.66505
651,-167,47.6805,2.69019,0.000417811,-0.000264298,-0.000931016,0.00106827,-0.000914762,-0.609826,0.00114605,0.042926,1875,1191,47.6806,-2.69016
658,-167,47.6721,2.84229,0.000911635,0.000264359,-0.00104743,0.00168429,-0.000508297,-0.63556,0.0013252,0.0440163,1882,1191,47.6721,-2.84235
665,-167,47.8499,2.85962,0.00141365,0.000646552,-0.00117097,0.00226228,-0.000202083,-0.627131,0.00157986,0.0379497,1889,1191,47.8499,-2.85962
672,-167,47.8328,2.81763,0.00158605,0.000884755,-0.00107445,0.00236562,0.000105185,-0.62767,0.00154322,0.027298,1896,1191,47.8327,-2.81757
679,-167,47.7883,2.77222,0.00139022,0.000824845,-0.000804694,0.00196044,0.000254629,-0.616483,0.00123089,0.0208005,1903,1191,47.7884,-2.77222
686,-167,47.7806,2.76001,0.00105486,0.000600594,-0.000561944,0.00143383,0.000221615,-0.593343,0.00089125,0.02831,1910,1191,47.7806,-2.75999
693,-167,47.743,2.80493,0,0,0,0,0,0,0,-1,1917,1191,47.7431,-2.80497
700,-167,28.0459,2.70508,0,0,0,0,0,0,0,-1,1924,1191,28.0459,-2.70513
707,-167,29.4708,7.10168,0,0,0,0,0,0,0,-1,1931,1191,29.4708,-7.10172
714,-167,35.9202,6.84668,0,0,0,0,0,0,0,-1,1938,1191,35.9202,-6.84664
721,-167,36.2072,6.38892,0,0,0,0,0,0,0,-1,1945,1191,36.2072,-6.38891
728,-167,40.9114,7.24182,0,0,0,0,0,0,0,-1,1952,1191,40.9114,-7.24181
735,-167,40.9718,6.86206,-0.000558422,-0.000184275,0.001413,0.00105398,-0.00179668,0.851213,0.00166434,0.0195073,1959,1191,40.9718,-6.86208
742,-167,40.9355,6.38623,-0.000775976,-8.69345e-05,0.00171882,0.00132155,-0.00218446,0.884308,0.00204453,0.0160358,1966,1191,40.9356,-6.38627
749,-167,40.9205,5.97009,-0.00126465,-0.000657209,0.00214192,0.00120242,-0.00312428,0.855828,0.00257886,0.0135953,1973,1191,40.9205,-5.97014
756,-167,40.9249,5.61353,-0.00266425,-0.00153806,0.00284726,0.000801255,-0.00500356,0.883022,0.00363237,0.0108421,1980,1191,40.9249,-5.61357
763,-167,40.8481,5.20654,-0.00471833,-0.00297412,0.00381381,6.60294e-05,-0.00775848,0.8978,0.00519447,0.0136113,1987,1191,40.8481,-5.20652
770,-167,40.6956,4.88306,-0.00834066,-0.00498339,0.00521878,-0.00117992,-0.0121441,0.940999,0.00773284,0.0324319,1994,1191,40.6956,-4.883
777,-167,40.7925,4.6333,-0.0145848,-0.00769809,0.00727289,-0.00309459,-0.0191883,1.00649,0.0118956,0.0490428,2001,1191,40.7925,-4.6333
784,-167,40.9128,4.31995,0,0,0,0,0,0,0,-1,2008,1191,40.9129,-4.32001
791,-167,40.5652,3.29578,0,0,0,0,0,0,0,-1,2015,1191,40.5651,-3.29579
798,-167,41.9321,3.85583,0,0,0,0,0,0,0,-1,2022,1191,41.9322,-3.85587
805,-167,46.7957,-0.838745,0,0,0,0,0,0,0,-1,2029,1191,46.7957,0.838721
812,-167,0,0,0,0,0,0,0,0,0,-1,2036,1191,0,0
-700,-174,0,0,0,0,0,0,0,0,0,-1,524,1198,0,0
-693,-174,0,0,0,0,0,0,0,0,0,-1,531,1198,0,0
-686,-174,-30.2807,-4.83325,0,0,0,0,0,0,0,-1,538,1198,-30.2807,4.83331
-679,-174,-29.0436,-3.52295,0,0,0,0,0,0,0,-1,545,1198,-29.0436,3.52289
-672,-174,-28.7104,-2.14368,0,0,0,0,0,0,0,-1,552,1198,-28.7104,2.14368
-665,-174,-28.3191,-1.33228,0,0,0,0,0,0,0,-1,559,1198,-28.3191,1.33224
-658,-174,-27.9528,-0.607178,0,0,0,0,0,0,0,-1,566,1198,-27.9527,0.607145
-651,-174,-27.0707,0.975098,0,0,0,0,0,0,0,-1,573,1198,-27.0707,-0.975048
-644,-174,-27.2877,1.52075,-0.00361799,0.00359256,1.39284e-05,0.00359259,-0.00361802,1.56886,0.00416306,0.0460626,580,1198,-27.2877,-1.52075
-637,-174,-27.5532,2.11743,-0.00313858,0.00318207,0.000128368,0.00318468,-0.00314119,1.5505,0.00365227,0.0250166,587,1198,-27.5532,-2.11744
-630,-174,-27.6545,2.52002,-0.00283605,0.00252587,2.74215e-05,0.00252601,-0.00283619,1.56568,0.00309759,0.0131252,594,1198,-27.6545,-2.52002
-623,-174,-27.6821,2.92871,-0.00241219,0.00179696,-0.000217326,0.00180816,-0.00242338,-1.51935,0.00245167,0.0141709,601,1198,-27.6821,-2.92868
-616,-174,-27.6772,3.38342,-0.0020791,0.00106081,-0.00046196,0.00112737,-0.00214566,-1.42771,0.00191992,0.0200183,608,1198,-27.6772,-3.38345
-609,-174,-27.7065,3.85718,-0.00180406,0.000654539,-0.000690755,0.000835318,-0.00198484,-1.31483,0.0016727,0.0213649,615,1198,-27.7065,-3.85712
-602,-174,-27.7786,4.25952,-0.00167001,0.00027741,-0.000892492,0.000624553,-0.00201715,-1.19984,0.00159427,0.0147719,622,1198,-27.7786,-4.25947
-595,-174,-27.7379,4.79797,-0.00164188,3.39394e-05,-0.00105855,0.000546073,-0.00215402,-1.12019,0.00164847,0.0367164,629,1198,-27.7379,-4.79794
-588,-174,-28.153,5.03674,-0.00110364,-8.51982e-05,-0.00147164,0.000962832,-0.00215167,-0.951961,0.0018413,0.0344249,636,1198,-28.153,-5.03675
-581,-174,-28.1066,5.58606,-0.000521226,-0.000274125,-0.00162617,0.00123318,-0.00202853,-0.823314,0.00190172,0.0401224,643,1198,-28.1066,-5.58603
-574,-174,-27.5696,6.20142,0,0,0,0,0,0,0,-1,650,1198,-27.5696,-6.2014
-567,-174,-26.6597,3.04041,0,0,0,0,0,0,0,-1,657,1198,-26.6597,-3.04039
-560,-174,-35.1984,1.04443,0,0,0,0,0,0,0,-1,664,1198,-35.1984,-1.04448
-553,-174,-35.2305,0.960449,0.000143951,-0.000550829,-0.000634659,0.000520075,-0.000926952,-0.534989,0.000846379,0.0406902,671,1198,-35.2306,-0.960397
-546,-174,-35.282,0.938354,0.000645719,-0.000806738,-0.000315267,0.000711198,-0.000872217,-0.204783,0.000915759,0.0289236,678,1198,-35.282,-0.938329
-539,-174,-35.4026,1.02856,0.00131107,-0.000840064,0.000510432,0.00142604,-0.000955037,0.221549,0.00138365,0.0350093,685,1198,-35.4026,-1.02851
-532,-174,-35.2847,0.946533,0.00141027,-0.000556311,0.00205973,0.00270938,-0.00185542,0.562701,0.00265082,0.0443178,692,1198,-35.2847,-0.946518
-525,-174,-35.2032,1.11047,0.00142397,-5.2152e-05,0.00437318,0.00512093,-0.00374911,0.701801,0.0051415,0.0456733,699,1198,-35.2032,-1.11047
-518,-174,-35.1978,1.28796,0.00155252,0.00074823,0.00723251,0.00839406,-0.00609331,0.757626,0.00839937,0.04587,706,1198,-35.1977,-1.28797
-511,-174,0,0,0,0,0,0,0,0,0,-1,713,1198,0,0
-504,-174,0,0,0,0,0,0,0,0,0,-1,720,1198,0,0
-497,-174,0,0,0,0,0,0,0,0,0,-1,727,1198,0,0
-490,-174,0,0,0,0,0,0,0,0,0,-1,734,1198,0,0
-483,-174,0,0,0,0,0,0,0,0,0,-1,741,1198,0,0
-476,-174,0,0,0,0,0,0,0,0,0,-1,748,1198,0,0
-469,-174,0,0,0,0,0,0,0,0,0,-1,755,1198,0,0
-462,-174,0,0,0,0,0,0,0,0,0,-1,762,1198,0,0
-455,-174,0,0,0,0,0,0,0,0,0,-1,769,1198,0,0
-448,-174,0,0,0,0,0,0,0,0,0,-1,776,1198,0,0
-441,-174,0,0,0,0,0,0,0,0,0,-1,783,1198,0,0
-434,-174,0,0,0,0,0,0,0,0,0,-1,790,1198,0,0
-427,-174,0,0,0,0,0,0,0,0,0,-1,797,1198,0,0
-420,-174,0,0,0,0,0,0,0,0,0,-1,804,1198,0,0
-413,-174,0,0,0,0,0,0,0,0,0,-1,811,1198,0,0
-406,-174,0,0,0,0,0,0,0,0,0,-1,818,1198,0,0
-399,-174,0,0,0,0,0,0,0,0,0,-1,825,1198,0,0
-392,-174,0,0,0,0,0,0,0,0,0,-1,832,1198,0,0
-385,-174,0,0,0,0,0,0,0,0,0,-1,839,1198,0,0
-378,-174,0,0,0,0,0,0,0,0,0,-1,846,1198,0,0
-371,-174,0,0,0,0,0,0,0,0,0,-1,853,1198,0,0
-364,-174,0,0,0,0,0,0,0,0,0,-1,860,1198,0,0
-357,-174,0,0,0,0,0,0,0,0,0,-1,867,1198,0,0
-350,-174,0,0,0,0,0,0,0,0,0,-1,874,1198,0,0
-343,-174,0,0,0,0,0,0,0,0,0,-1,881,1198,0,0
-336,-174,0,0,0,0,0,0,0,0,0,-1,888,1198,0,0
-329,-174,0,0,0,0,0,0,0,0,0,-1,895,1198,0,0
-322,-174,0,0,0,0,0,0,0,0,0,-1,902,1198,0,0
-315,-174,0,0,0,0,0,0,0,0,0,-1,909,1198,0,0
-308,-174,0,0,0,0,0,0,0,0,0,-1,916,1198,0,0
-301,-174,0,0,0,0,0,0,0,0,0,-1,923,1198,0,0
-294,-174,0,0,0,0,0,0,0,0,0,-1,930,1198,0,0
-287,-174,0,0,0,0,0,0,0,0,0,-1,937,1198,0,0
-280,-174,0,0,0,0,0,0,0,0,0,-1,944,1198,0,0
-273,-174,0,0,0,0,0,0,0,0,0,-1,951,1198,0,0
-266,-174,0,0,0,0,0,0,0,0,0,-1,958,1198,0,0
-259,-174,0,0,0,0,0,0,0,0,0,-1,965,1198,0,0
-252,-174,0,0,0,0,0,0,0,0,0,-1,972,1198,0,0
-245,-174,0,0,0,0,0,0,0,0,0,-1,979,1198,0,0
-238,-174,0,0,0,0,0,0,0,0,0,-1,986,1198,0,0
-231,-174,0,0,0,0,0,0,0,0,0,-1,993,1198,0,0
-224,-174,0,0,0,0,0,0,0,0,0,-1,1000,1198,0,0
-217,-174,0,0,0,0,0,0,0,0,0,-1,1007,1198,0,0
-210,-174,0,0,0,0,0,0,0,0,0,-1,1014,1198,0,0
-203,-174,0,0,0,0,0,0,0,0,0,-1,1021,1198,0,0
-196,-174,0,0,0,0,0,0,0,0,0,-1,1028,1198,0,0
-189,-174,0,0,0,0,0,0,0,0,0,-1,1035,1198,0,0
-182,-174,0,0,0,0,0,0,0,0,0,-1,1042,1198,0,0
-175,-174,0,0,0,0,0,0,0,0,0,-1,1049,1198,0,0
-168,-174,0,0,0,0,0,0,0,0,0,-1,1056,1198,0,0
-161,-174,0,0,0,0,0,0,0,0,0,-1,1063,1198,0,0
-154,-174,0,0,0,0,0,0,0,0,0,-1,1070,1198,0,0
-147,-174,0,0,0,0,0,0,0,0,0,-1,1077,1198,0,0
-140,-174,0,0,0,0,0,0,0,0,0,-1,1084,1198,0,0
-133,-174,0,0,0,0,0,0,0,0,0,-1,1091,1198,0,0
-126,-174,0,0,0,0,0,0,0,0,0,-1,1098,1198,0,0
-119,-174,0,0,0,0,0,0,0,0,0,-1,1105,1198,0,0
-112,-174,0,0,0,0,0,0,0,0,0,-1,1112,1198,0,0
-105,-174,0,0,0,0,0,0,0,0,0,-1,1119,1198,0,0
-98,-174,0,0,0,0,0,0,0,0,0,-1,1126,1198,0,0
-91,-174,0,0,0,0,0,0,0,0,0,-1,1133,1198,0,0
-84,-174,0,0,0,0,0,0,0,0,0,-1,1140,1198,0,0
-77,-174,0,0,0,0,0,0,0,0,0,-1,1147,1198,0,0
-70,-174,0,0,0,0,0,0,0,0,0,-1,1154,1198,0,0
-63,-174,0,0,0,0,0,0,0,0,0,-1,1161,1198,0,0
-56,-174,0,0,0,0,0,0,0,0,0,-1,1168,1198,0,0
-49,-174,0,0,0,0,0,0,0,0,0,-1,1175,1198,0,0
-42,-174,0,0,0,0,0,0,0,0,0,-1,1182,1198,0,0
-35,-174,0,0,0,0,0,0,0,0,0,-1,1189,1198,0,0
-28,-174,0,0,0,0,0,0,0,0,0,-1,1196,1198,0,0
-21,-174,0,0,0,0,0,0,0,0,0,-1,1203,1198,0,0
-14,-174,0,0,0,0,0,0,0,0,0,-1,1210,1198,0,0
-7,-174,0,0,0,0,0,0,0,0,0,-1,1217,1198,0,0
0,-174,0,0,0,0,0,0,0,0,0,-1,1224,1198,0,0
7,-174,0,0,0,0,0,0,0,0,0,-1,1231,1198,0,0
14,-174,0,0,0,0,0,0,0,0,0,-1,1238,1198,0,0
21,-174,0,0,0,0,0,0,0,0,0,-1,1245,1198,0,0
28,-174,0,0,0,0,0,0,0,0,0,-1,1252,1198,0,0
35,-174,0,0,0,0,0,0,0,0,0,-1,1259,1198,0,0
42,-174,0,0,0,0,0,0,0,0,0,-1,1266,1198,0,0
49,-174,0,0,0,0,0,0,0,0,0,-1,1273,1198,0,0
56,-174,0,0,0,0,0,0,0,0,0,-1,1280,1198,0,0
63,-174,0,0,0,0,0,0,0,0,0,-1,1287,1198,0,0
70,-174,0,0,0,0,0,0,0,0,0,-1,1294,1198,0,0
77,-174,0,0,0,0,0,0,0,0,0,-1,1301,1198,0,0
84,-174,0,0,0,0,0,0,0,0,0,-1,1308,1198,0,0
91,-174,0,0,0,0,0,0,0,0,0,-1,1315,1198,0,0
98,-174,0,0,0,0,0,0,0,0,0,-1,1322,1198,0,0
105,-174,0,0,0,0,0,0,0,0,0,-1,1329,1198,0,0
112,-174,0,0,0,0,0,0,0,0,0,-1,1336,1198,0,0
119,-174,0,0,0,0,0,0,0,0,0,-1,1343,1198,0,0
126,-174,0,0,0,0,0,0,0,0,0,-1,1350,1198,0,0
133,-174,0,0,0,0,0,0,0,0,0,-1,1357,1198,0,0
140,-174,0,0,0,0,0,0,0,0,0,-1,1364,1198,0,0
147,-174,0,0,0,0,0,0,0,0,0,-1,1371,1198,0,0
154,-174,0,0,0,0,0,0,0,0,0,-1,1378,1198,0,0
161,-174,0,0,0,0,0,0,0,0,0,-1,1385,1198,0,0
168,-174,0,0,0,0,0,0,0,0,0,-1,1392,1198,0,0
175,-174,0,0,0,0,0,0,0,0,0,-1,1399,1198,0,0
182,-174,0,0,0,0,0,0,0,0,0,-1,1406,1198,0,0
189,-174,0,0,0,0,0,0,0,0,0,-1,1413,1198,0,0
196,-174,0,0,0,0,0,0,0,0,0,-1,1420,1198,0,0
203,-174,0,0,0,0,0,0,0,0,0,-1,1427,1198,0,0
210,-174,0,0,0,0,0,0,0,0,0,-1,1434,1198,0,0
217,-174,0,0,0,0,0,0,0,0,0,-1,1441,1198,0,0
224,-174,0,0,0,0,0,0,0,0,0,-1,1448,1198,0,0
231,-174,0,0,0,0,0,0,0,0,0,-1,1455,1198,0,0
238,-174,0,0,0,0,0,0,0,0,0,-1,1462,1198,0,0
245,-174,0,0,0,0,0,0,0,0,0,-1,1469,1198,0,0
252,-174,0,0,0,0,0,0,0,0,0,-1,1476,1198,0,0
259,-174,0,0,0,0,0,0,0,0,0,-1,1483,1198,0,0
266,-174,0,0,0,0,0,0,0,0,0,-1,1490,1198,0,0
273,-174,0,0,0,0,0,0,0,0,0,-1,1497,1198,0,0
280,-174,0,0,0,0,0,0,0,0,0,-1,1504,1198,0,0
287,-174,0,0,0,0,0,0,0,0,0,-1,1511,1198,0,0
294,-174,0,0,0,0,0,0,0,0,0,-1,1518,1198,0,0
301,-174,0,0,0,0,0,0,0,0,0,-1,1525,1198,0,0
308,-174,0,0,0,0,0,0,0,0,0,-1,1532,1198,0,0
315,-174,0,0,0,0,0,0,0,0,0,-1,1539,1198,0,0
322,-174,0,0,0,0,0,0,0,0,0,-1,1546,1198,0,0
329,-174,0,0,0,0,0,0,0,0,0,-1,1553,1198,0,0
336,-174,0,0,0,0,0,0,0,0,0,-1,1560,1198,0,0
343,-174,0,0,0,0,0,0,0,0,0,-1,1567,1198,0,0
350,-174,0,0,0,0,0,0,0,0,0,-1,1574,1198,0,0
357,-174,0,0,0,0,0,0,0,0,0,-1,1581,1198,0,0
364,-174,0,0,0,0,0,0,0,0,0,-1,1588,1198,0,0
371,-174,0,0,0,0,0,0,0,0,0,-1,1595,1198,0,0
378,-174,0,0,0,0,0,0,0,0,0,-1,1602,1198,0,0
385,-174,0,0,0,0,0,0,0,0,0,-1,1609,1198,0,0
392,-174,0,0,0,0,0,0,0,0,0,-1,1616,1198,0,0
399,-174,0,0,0,0,0,0,0,0,0,-1,1623,1198,0,0
406,-174,0,0,0,0,0,0,0,0,0,-1,1630,1198,0,0
413,-174,0,0,0,0,0,0,0,0,0,-1,1637,1198,0,0
420,-174,0,0,0,0,0,0,0,0,0,-1,1644,1198,0,0
427,-174,0,0,0,0,0,0,0,0,0,-1,1651,1198,0,0
434,-174,0,0,0,0,0,0,0,0,0,-1,1658,1198,0,0
441,-174,0,0,0,0,0,0,0,0,0,-1,1665,1198,0,0
448,-174,0,0,0,0,0,0,0,0,0,-1,1672,1198,0,0
455,-174,0,0,0,0,0,0,0,0,0,-1,1679,1198,0,0
462,-174,0,0,0,0,0,0,0,0,0,-1,1686,1198,0,0
469,-174,0,0,0,0,0,0,0,0,0,-1,1693,1198,0,0
476,-174,0,0,0,0,0,0,0,0,0,-1,1700,1198,0,0
483,-174,0,0,0,0,0,0,0,0,0,-1,1707,1198,0,0
490,-174,0,0,0,0,0,0,0,0,0,-1,1714,1198,0,0
497,-174,0,0,0,0,0,0,0,0,0,-1,1721,1198,0,0
504,-174,0,0,0,0,0,0,0,0,0,-1,1728,1198,0,0
511,-174,0,0,0,0,0,0,0,0,0,-1,1735,1198,0,0
518,-174,0,0,0,0,0,0,0,0,0,-1,1742,1198,0,0
525,-174,0,0,0,0,0,0,0,0,0,-1,1749,1198,0,0
532,-174,0,0,0,0,0,0,0,0,0,-1,1756,1198,0,0
539,-174,0,0,0,0,0,0,0,0,0,-1,1763,1198,0,0
546,-174,0,0,0,0,0,0,0,0,0,-1,1770,1198,0,0
553,-174,0,0,0,0,0,0,0,0,0,-1,1777,1198,0,0
560,-174,0,0,0,0,0,0,0,0,0,-1,1784,1198,0,0
567,-174,0,0,0,0,0,0,0,0,0,-1,1791,1198,0,0
574,-174,0,0,0,0,0,0,0,0,0,-1,1798,1198,0,0
581,-174,0,0,0,0,0,0,0,0,0,-1,1805,1198,0,0
588,-174,0,0,0,0,0,0,0,0,0,-1,1812,1198,0,0
595,-174,0,0,0,0,0,0,0,0,0,-1,1819,1198,0,0
602,-174,0,0,0,0,0,0,0,0,0,-1,1826,1198,0,0
609,-174,0,0,0,0,0,0,0,0,0,-1,1833,1198,0,0
616,-174,0,0,0,0,0,0,0,0,0,-1,1840,1198,0,0
623,-174,0,0,0,0,0,0,0,0,0,-1,1847,1198,0,0
630,-174,0,0,0,0,0,0,0,0,0,-1,1854,1198,0,0
637,-174,47.7343,2.89319,-0.000771752,-0.00043788,-0.000251871,-0.000302646,-0.000906986,-1.07805,0.000533218,0.039564,1861,1198,47.7343,-2.89319
644,-174,47.8136,2.83716,-0.000199086,-8.32095e-05,-0.000462768,0.000325234,-0.000607529,-0.847674,0.00054669,0.0408423,1868,1198,47.8136,-2.83714
651,-174,47.7987,2.84119,0.00033323,0.000329558,-0.000672274,0.00100367,-0.000340883,-0.784033,0.000807105,0.04317,1875,1198,47.7987,-2.84118
658,-174,47.7152,2.84814,0.000838908,0.000734752,-0.00100582,0.001794,-0.000220335,-0.759533,0.0012758,0.0429015,1882,1198,47.7153,-2.84812
665,-174,47.7649,2.78564,0.00124496,0.000977568,-0.00119373,0.00231246,-8.99304e-05,-0.729631,0.00157247,0.0368221,1889,1198,47.7648,-2.78559
672,-174,47.7521,2.77063,0.00126508,0.0011342,-0.00106915,0.00227079,0.000128482,-0.754832,0.0014729,0.0261678,1896,1198,47.752,-2.77062
679,-174,47.7427,2.75793,0.000979553,0.00106533,-0.000782714,0.00180633,0.000238553,-0.812768,0.0011331,0.0210593,1903,1198,47.7427,-2.75794
686,-174,47.8452,2.90137,0.000626161,0.000853256,-0.000526842,0.00127865,0.000200769,-0.891537,0.000794015,0.0483244,1910,1198,47.8453,-2.90139
693,-174,47.9373,3.12708,0,0,0,0,0,0,0,-1,1917,1198,47.9372,-3.12713
700,-174,25.4004,6.11792,0,0,0,0,0,0,0,-1,1924,1198,25.4004,-6.11797
707,-174,34.7908,7.34473,0,0,0,0,0,0,0,-1,1931,1198,34.7908,-7.34475
714,-174,40.1135,7.79871,0,0,0,0,0,0,0,-1,1938,1198,40.1135,-7.79875
721,-174,40.4408,7.64343,0,0,0,0,0,0,0,-1,1945,1198,40.4408,-7.6434
728,-174,40.5951,7.22485,-0.000651289,0.000268557,0.00106663,0.000970196,-0.00135293,0.98895,0.00134731,0.0483315,1952,1198,40.595,-7.2248
735,-174,40.5212,6.81189,-0.000814649,-1.91545e-05,0.00148435,0.00111981,-0.00195362,0.916303,0.00179608,0.0142076,1959,1198,40.5213,-6.81186
742,-174,40.5477,6.40674,-0.000824421,2.37322e-05,0.00174127,0.00139183,-0.00219251,0.904845,0.00208656,0.019809,1966,1198,40.5477,-6.40677
749,-174,40.5469,6.0116,-0.000767769,-0.000576548,0.0020606,0.00139065,-0.00273497,0.808581,0.00242371,0.0169718,1973,1198,40.5468,-6.01158
756,-174,40.4912,5.59778,-0.00121246,-0.00149952,0.00261436,0.00126231,-0.00397429,0.757976,0.00315561,0.0107175,1980,1198,40.4912,-5.59773
763,-174,40.4525,5.18457,-0.00205822,-0.00296321,0.00337534,0.000894817,-0.00591625,0.718766,0.00427378,0.014992,1987,1198,40.4525,-5.18454
770,-174,40.5326,4.80359,-0.00406612,-0.00511585,0.00456307,2.17324e-06,-0.00918415,0.728138,0.00612349,0.0367649,1994,1198,40.5325,-4.80358
777,-174,40.7316,4.36035,0,0,0,0,0,0,0,-1,2001,1198,40.7315,-4.36033
784,-174,40.7651,3.94226,0,0,0,0,0,0,0,-1,2008,1198,40.7652,-3.94232
791,-174,41.407,3.23169,0,0,0,0,0,0,0,-1,2015,1198,41.4071,-3.23164
798,-174,41.0354,1.76587,0,0,0,0,0,0,0,-1,2022,1198,41.0354,-1.76589
805,-174,40.4573,0.261963,0,0,0,0,0,0,0,-1,2029,1198,40.4573,-0.261991
812,-174,0,0,0,0,0,0,0,0,0,-1,2036,1198,0,0
-700,-181,0,0,0,0,0,0,0,0,0,-1,524,1205,0,0
-693,-181,0,0,0,0,0,0,0,0,0,-1,531,1205,0,0
-686,-181,-29.3471,-4.22827,0,0,0,0,0,0,0,-1,538,1205,-29.3471,4.22821
-679,-181,-29.1107,-3.2572,0,0,0,0,0,0,0,-1,545,1205,-29.1107,3.25723
-672,-181,-28.6566,-2.28577,0,0,0,0,0,0,0,-1,552,1205,-28.6566,2.28576
-665,-181,-28.1292,-1.25452,0,0,0,0,0,0,0,-1,559,1205,-28.1292,1.25448
-658,-181,-27.0864,0.602295,0,0,0,0,0,0,0,-1,566,1205,-27.0864,-0.602256
-651,-181,-26.2531,1.20837,0,0,0,0,0,0,0,-1,573,1205,-26.2531,-1.20837
-644,-181,-26.6656,1.62524,-0.00475763,0.00329669,0.000581645,0.00333848,-0.00479941,1.49908,0.00472358,0.0455154,580,1205,-26.6656,-1.62525
-637,-181,-27.0873,2.10181,-0.00380452,0.00309531,0.000632391,0.00315279,-0.003862,1.48015,0.00405689,0.0257241,587,1205,-27.0873,-2.10181
-630,-181,-27.2026,2.52515,-0.00323543,0.00255565,0.000435673,0.00258824,-0.00326803,1.49612,0.0033887,0.0133723,594,1205,-27.2026,-2.52509
-623,-181,-27.2445,2.94275,-0.00262058,0.00189617,6.49069e-05,0.0018971,-0.00262151,1.55643,0.00261997,0.0150358,601,1205,-27.2445,-2.94275
-616,-181,-27.2301,3.4082,-0.00209,0.00121083,-0.000337416,0.00124497,-0.00212414,-1.46996,0.00196711,0.0150136,608,1205,-27.2301,-3.40822
-609,-181,-27.2446,3.89124,-0.00161806,0.000710537,-0.00075729,0.000935152,-0.00184267,-1.28246,0.00163206,0.0144152,615,1205,-27.2446,-3.89118
-602,-181,-27.2545,4.34021,-0.00132133,0.000198302,-0.00110129,0.000776454,-0.00189948,-1.08737,0.00158966,0.0130075,622,1205,-27.2545,-4.34019
-595,-181,-27.4468,4.69177,-0.00122115,-0.00010329,-0.00131308,0.00076487,-0.00208931,-0.986615,0.00170598,0.034727,629,1205,-27.4469,-4.69181
-588,-181,-27.717,5.20264,-0.000694883,-0.000280258,-0.00168331,0.00120846,-0.0021836,-0.846669,0.00198519,0.0327188,636,1205,-27.717,-5.20258
-581,-181,-27.6011,5.70557,-0.000115816,-0.000575427,-0.00182282,0.00149163,-0.00218287,-0.722693,0.00213395,0.0281523,643,1205,-27.6011,-5.70561
-574,-181,-27.2813,6.1145,0,0,0,0,0,0,0,-1,650,1205,-27.2813,-6.11454
-567,-181,-25.8839,3.34485,0,0,0,0,0,0,0,-1,657,1205,-25.8839,-3.3449
-560,-181,-31.7396,1.63306,0,0,0,0,0,0,0,-1,664,1205,-31.7396,-1.63303
-553,-181,-35.2331,1.12622,0,0,0,0,0,0,0,-1,671,1205,-35.2331,-1.12621
-546,-181,-35.2521,0.960693,0.00108796,-0.00141188,-0.000265723,0.0011159,-0.00143981,-0.104737,0.00147948,0.0336115,678,1205,-35.2521,-0.960658
-539,-181,-35.3478,1.0752,0.00167303,-0.00157741,0.000462453,0.00173755,-0.00164192,0.13861,0.0019514,0.0386665,685,1205,-35.3478,-1.07519
-532,-181,-35.3279,1.02893,0.00176408,-0.00147334,0.00178175,0.00255262,-0.00226188,0.416655,0.00278134,0.0454027,692,1205,-35.3279,-1.02895
-525,-181,-35.2136,0.835205,0.00179383,-0.00124831,0.00375689,0.00432589,-0.00378037,0.593047,0.00468368,0.0427735,699,1205,-35.2136,-0.835187
-518,-181,-35.1289,1.15552,0.00218129,-0.000637126,0.00642293,0.00734779,-0.00580362,0.677408,0.0076104,0.0436312,706,1205,-35.1289,-1.15557
-511,-181,0,0,0,0,0,0,0,0,0,-1,713,1205,0,0
-504,-181,0,0,0,0,0,0,0,0,0,-1,720,1205,0,0
-497,-181,0,0,0,0,0,0,0,0,0,-1,727,1205,0,0
-490,-181,0,0,0,0,0,0,0,0,0,-1,734,1205,0,0
-483,-181,0,0,0,0,0,0,0,0,0,-1,741,1205,0,0
-476,-181,0,0,0,0,0,0,0,0,0,-1,748,1205,0,0
-469,-181,0,0,0,0,0,0,0,0,0,-1,755,1205,0,0
-462,-181,0,0,0,0,0,0,0,0,0,-1,762,1205,0,0
-455,-181,0,0,0,0,0,0,0,0,0,-1,769,1205,0,0
-448,-181,0,0,0,0,0,0,0,0,0,-1,776,1205,0,0
-441,-181,0,0,0,0,0,0,0,0,0,-1,783,1205,0,0
-434,-181,0,0,0,0,0,0,0,0,0,-1,790,1205,0,0
-427,-181,0,0,0,0,0,0,0,0,0,-1,797,1205,0,0
-420,-181,0,0,0,0,0,0,0,0,0,-1,804,1205,0,0
-413,-181,0,0,0,0,0,0,0,0,0,-1,811,1205,0,0
-406,-181,0,0,0,0,0,0,0,0,0,-1,818,1205,0,0
-399,-181,0,0,0,0,0,0,0,0,0,-1,825,1205,0,0
-392,-181,0,0,0,0,0,0,0,0,0,-1,832,1205,0,0
-385,-181,0,0,0,0,0,0,0,0,0,-1,839,1205,0,0
-378,-181,0,0,0,0,0,0,0,0,0,-1,846,1205,0,0
-371,-181,0,0,0,0,0,0,0,0,0,-1,853,1205,0,0
-364,-181,0,0,0,0,0,0,0,0,0,-1,860,1205,0,0
-357,-181,0,0,0,0,0,0,0,0,0,-1,867,1205,0,0
-350,-181,0,0,0,0,0,0,0,0,0,-1,874,1205,0,0
-343,-181,0,0,0,0,0,0,0,0,0,-1,881,1205,0,0
-336,-181,0,0,0,0,0,0,0,0,0,-1,888,1205,0,0
-329,-181,0,0,0,0,0,0,0,0,0,-1,895,1205,0,0
-322,-181,0,0,0,0,0,0,0,0,0,-1,902,1205,0,0
-315,-181,0,0,0,0,0,0,0,0,0,-1,909,1205,0,0
-308,-181,0,0,0,0,0,0,0,0,0,-1,916,1205,0,0
-301,-181,0,0,0,0,0,0,0,0,0,-1,923,1205,0,0
-294,-181,0,0,0,0,0,0,0,0,0,-1,930,1205,0,0
-287,-181,0,0,0,0,0,0,0,0,0,-1,937,1205,0,0
-280,-181,0,0,0,0,0,0,0,0,0,-1,944,1205,0,0
-273,-181,0,0,0,0,0,0,0,0,0,-1,951,1205,0,0
-266,-181,0,0,0,0,0,0,0,0,0,-1,958,1205,0,0
-259,-181,0,0,0,0,0,0,0,0,0,-1,965,1205,0,0
-252,-181,0,0,0,0,0,0,0,0,0,-1,972,1205,0,0
-245,-181,0,0,0,0,0,0,0,0,0,-1,979,1205,0,0
-238,-181,0,0,0,0,0,0,0,0,0,-1,986,1205,0,0
-231,-181,0,0,0,0,0,0,0,0,0,-1,993,1205,0,0
-224,-181,0,0,0,0,0,0,0,0,0,-1,1000,1205,0,0
-217,-181,0,0,0,0,0,0,0,0,0,-1,1007,1205,0,0
-210,-181,0,0,0,0,0,0,0,0,0,-1,1014,1205,0,0
-203,-181,0,0,0,0,0,0,0,0,0,-1,1021,1205,0,0
-196,-181,0,0,0,0,0,0,0,0,0,-1,1028,1205,0,0
-189,-181,0,0,0,0,0,0,0,0,0,-1,1035,1205,0,0
-182,-181,0,0,0,0,0,0,0,0,0,-1,1042,1205,0,0
-175,-181,0,0,0,0,0,0,0,0,0,-1,1049,1205,0,0
-168,-181,0,0,0,0,0,0,0,0,0,-1,1056,1205,0,0
-161,-181,0,0,0,0,0,0,0,0,0,-1,1063,1205,0,0
-154,-181,0,0,0,0,0,0,0,0,0,-1,1070,1205,0,0
-147,-181,0,0,0,0,0,0,0,0,0,-1,1077,1205,0,0
-140,-181,0,0,0,0,0,0,0,0,0,-1,1084,1205,0,0
-133,-181,0,0,0,0,0,0,0,0,0,-1,1091,1205,0,0
-126,-181,0,0,0,0,0,0,0,0,0,-1,1098,1205,0,0
-119,-181,0,0,0,0,0,0,0,0,0,-1,1105,1205,0,0
-112,-181,0,0,0,0,0,0,0,0,0,-1,1112,1205,0,0
-105,-181,0,0,0,0,0,0,0,0,0,-1,1119,1205,0,0
-98,-181,0,0,0,0,0,0,0,0,0,-1,1126,1205,0,0
-91,-181,0,0,0,0,0,0,0,0,0,-1,1133,1205,0,0
-84,-181,0,0,0,0,0,0,0,0,0,-1,1140,1205,0,0
-77,-181,0,0,0,0,0,0,0,0,0,-1,1147,1205,0,0
-70,-181,0,0,0,0,0,0,0,0,0,-1,1154,1205,0,0
-63,-181,0,0,0,0,0,0,0,0,0,-1,1161,1205,0,0
-56,-181,0,0,0,0,0,0,0,0,0,-1,1168,1205,0,0
-49,-181,0,0,0,0,0,0,0,0,0,-1,1175,1205,0,0
-42,-181,0,0,0,0,0,0,0,0,0,-1,1182,1205,0,0
-35,-181,0,0,0,0,0,0,0,0,0,-1,1189,1205,0,0
-28,-181,0,0,0,0,0,0,0,0,0,-1,1196,1205,0,0
-21,-181,0,0,0,0,0,0,0,0,0,-1,1203,1205,0,0
-14,-181,0,0,0,0,0,0,0,0,0,-1,1210,1205,0,0
-7,-181,0,0,0,0,0,0,0,0,0,-1,1217,1205,0,0
0,-181,0,0,0,0,0,0,0,0,0,-1,1224,1205,0,0
7,-181,0,0,0,0,0,0,0,0,0,-1,1231,1205,0,0
14,-181,0,0,0,0,0,0,0,0,0,-1,1238,1205,0,0
21,-181,0,0,0,0,0,0,0,0,0,-1,1245,1205,0,0
28,-181,0,0,0,0,0,0,0,0,0,-1,1252,1205,0,0
35,-181,0,0,0,0,0,0,0,0,0,-1,1259,1205,0,0
42,-181,0,0,0,0,0,0,0,0,0,-1,1266,1205,0,0
49,-181,0,0,0,0,0,0,0,0,0,-1,1273,1205,0,0
56,-181,0,0,0,0,0,0,0,0,0,-1,1280,1205,0,0
63,-181,0,0,0,0,0,0,0,0,0,-1,1287,1205,0,0
70,-181,0,0,0,0,0,0,0,0,0,-1,1294,1205,0,0
77,-181,0,0,0,0,0,0,0,0,0,-1,1301,1205,0,0
84,-181,0,0,0,0,0,0,0,0,0,-1,1308,1205,0,0
91,-181,0,0,0,0,0,0,0,0,0,-1,1315,1205,0,0
98,-181,0,0,0,0,0,0,0,0,0,-1,1322,1205,0,0
105,-181,0,0,0,0,0,0,0,0,0,-1,1329,1205,0,0
112,-181,0,0,0,0,0,0,0,0,0,-1,1336,1205,0,0
119,-181,0,0,0,0,0,0,0,0,0,-1,1343,1205,0,0
126,-181,0,0,0,0,0,0,0,0,0,-1,1350,1205,0,0
133,-181,0,0,0,0,0,0,0,0,0,-1,1357,1205,0,0
140,-181,0,0,0,0,0,0,0,0,0,-1,1364,1205,0,0
147,-181,0,0,0,0,0,0,0,0,0,-1,1371,1205,0,0
154,-181,0,0,0,0,0,0,0,0,0,-1,1378,1205,0,0
161,-181,0,0,0,0,0,0,0,0,0,-1,1385,1205,0,0
168,-181,0,0,0,0,0,0,0,0,0,-1,1392,1205,0,0
175,-181,0,0,0,0,0,0,0,0,0,-1,1399,1205,0,0
182,-181,0,0,0,0,0,0,0,0,0,-1,1406,1205,0,0
189,-181,0,0,0,0,0,0,0,0,0,-1,1413,1205,0,0
196,-181,0,0,0,0,0,0,0,0,0,-1,1420,1205,0,0
203,-181,0,0,0,0,0,0,0,0,0,-1,1427,1205,0,0
210,-181,0,0,0,0,0,0,0,0,0,-1,1434,1205,0,0
217,-181,0,0,0,0,0,0,0,0,0,-1,1441,1205,0,0
224,-181,0,0,0,0,0,0,0,0,0,-1,1448,1205,0,0
231,-181,0,0,0,0,0,0,0,0,0,-1,1455,1205,0,0
238,-181,0,0,0,0,0,0,0,0,0,-1,1462,1205,0,0
245,-181,0,0,0,0,0,0,0,0,0,-1,1469,1205,0,0
252,-181,0,0,0,0,0,0,0,0,0,-1,1476,1205,0,0
259,-181,0,0,0,0,0,0,0,0,0,-1,1483,1205,0,0
266,-181,0,0,0,0,0,0,0,0,0,-1,1490,1205,0,0
273,-181,0,0,0,0,0,0,0,0,0,-1,1497,1205,0,0
280,-181,0,0,0,0,0,0,0,0,0,-1,1504,1205,0,0
287,-181,0,0,0,0,0,0,0,0,0,-1,1511,1205,0,0
294,-181,0,0,0,0,0,0,0,0,0,-1,1518,1205,0,0
301,-181,0,0,0,0,0,0,0,0,0,-1,1525,1205,0,0
308,-181,0,0,0,0,0,0,0,0,0,-1,1532,1205,0,0
315,-181,0,0,0,0,0,0,0,0,0,-1,1539,1205,0,0
322,-181,0,0,0,0,0,0,0,0,0,-1,1546,1205,0,0
329,-181,0,0,0,0,0,0,0,0,0,-1,1553,1205,0,0
336,-181,0,0,0,0,0,0,0,0,0,-1,1560,1205,0,0
343,-181,0,0,0,0,0,0,0,0,0,-1,1567,1205,0,0
350,-181,0,0,0,0,0,0,0,0,0,-1,1574,1205,0,0
357,-181,0,0,0,0,0,0,0,0,0,-1,1581,1205,0,0
364,-181,0,0,0,0,0,0,0,0,0,-1,1588,1205,0,0
371,-181,0,0,0,0,0,0,0,0,0,-1,1595,1205,0,0
378,-181,0,0,0,0,0,0,0,0,0,-1,1602,1205,0,0
385,-181,0,0,0,0,0,0,0,0,0,-1,1609,1205,0,0
392,-181,0,0,0,0,0,0,0,0,0,-1,1616,1205,0,0
399,-181,0,0,0,0,0,0,0,0,0,-1,1623,1205,0,0
406,-181,0,0,0,0,0,0,0,0,0,-1,1630,1205,0,0
413,-181,0,0,0,0,0,0,0,0,0,-1,1637,1205,0,0
420,-181,0,0,0,0,0,0,0,0,0,-1,1644,1205,0,0
427,-181,0,0,0,0,0,0,0,0,0,-1,1651,1205,0,0
434,-181,0,0,0,0,0,0,0,0,0,-1,1658,1205,0,0
441,-181,0,0,0,0,0,0,0,0,0,-1,1665,1205,0,0
448,-181,0,0,0,0,0,0,0,0,0,-1,1672,1205,0,0
455,-181,0,0,0,0,0,0,0,0,0,-1,1679,1205,0,0
462,-181,0,0,0,0,0,0,0,0,0,-1,1686,1205,0,0
469,-181,0,0,0,0,0,0,0,0,0,-1,1693,1205,0,0
476,-181,0,0,0,0,0,0,0,0,0,-1,1700,1205,0,0
483,-181,0,0,0,0,0,0,0,0,0,-1,1707,1205,0,0
490,-181,0,0,0,0,0,0,0,0,0,-1,1714,1205,0,0
497,-181,0,0,0,0,0,0,0,0,0,-1,1721,1205,0,0
504,-181,0,0,0,0,0,0,0,0,0,-1,1728,1205,0,0
511,-181,0,0,0,0,0,0,0,0,0,-1,1735,1205,0,0
518,-181,0,0,0,0,0,0,0,0,0,-1,1742,1205,0,0
525,-181,0,0,0,0,0,0,0,0,0,-1,1749,1205,0,0
532,-181,0,0,0,0,0,0,0,0,0,-1,1756,1205,0,0
539,-181,0,0,0,0,0,0,0,0,0,-1,1763,1205,0,0
546,-181,0,0,0,0,0,0,0,0,0,-1,1770,1205,0,0
553,-181,0,0,0,0,0,0,0,0,0,-1,1777,1205,0,0
560,-181,0,0,0,0,0,0,0,0,0,-1,1784,1205,0,0
567,-181,0,0,0,0,0,0,0,0,0,-1,1791,1205,0,0
574,-181,0,0,0,0,0,0,0,0,0,-1,1798,1205,0,0
581,-181,0,0,0,0,0,0,0,0,0,-1,1805,1205,0,0
588,-181,0,0,0,0,0,0,0,0,0,-1,1812,1205,0,0
595,-181,0,0,0,0,0,0,0,0,0,-1,1819,1205,0,0
602,-181,0,0,0,0,0,0,0,0,0,-1,1826,1205,0,0
609,-181,0,0,0,0,0,0,0,0,0,-1,1833,1205,0,0
616,-181,0,0,0,0,0,0,0,0,0,-1,1840,1205,0,0
623,-181,0,0,0,0,0,0,0,0,0,-1,1847,1205,0,0
630,-181,47.8989,2.92859,-0.00157281,-0.000202224,0.000549091,-9.37824e-06,-0.00176566,1.23305,0.00117399,0.0384636,1854,1205,47.8989,-2.92864
637,-181,47.912,2.95142,-0.000837383,0.000159336,0.000173575,0.000188699,-0.000866745,1.40322,0.000649926,0.0376504,1861,1205,47.912,-2.95142
644,-181,47.8573,2.92883,-7.0648e-05,0.000398784,-0.000311056,0.000553744,-0.000225608,-1.10861,0.000463063,0.0386434,1868,1205,47.8573,-2.92888
651,-181,47.8085,2.90686,0.000552063,0.000697697,-0.000670165,0.00129899,-4.92292e-05,-0.839513,0.00088286,0.0408574,1875,1205,47.8085,-2.9069
658,-181,47.7808,2.84546,0.00105518,0.000952014,-0.00106428,0.00206912,-6.19292e-05,-0.761183,0.00140052,0.0379003,1882,1205,47.7807,-2.8454
665,-181,47.6652,2.77148,0.00138194,0.00101967,-0.00117465,0.00238934,1.22725e-05,-0.708899,0.00158882,0.0336654,1889,1205,47.6652,-2.77153
672,-181,47.701,2.80042,0.00132324,0.00104715,-0.00095392,0.00214905,0.000221339,-0.713541,0.00136492,0.0231836,1896,1205,47.7011,-2.80047
679,-181,47.7991,2.79089,0.00101191,0.000932839,-0.000637038,0.00161064,0.00033411,-0.754408,0.000981529,0.0264231,1903,1205,47.7991,-2.79085
686,-181,47.86,2.94031,0,0,0,0,0,0,0,-1,1910,1205,47.86,-2.94036
693,-181,36.1301,2.91016,0,0,0,0,0,0,0,-1,1917,1205,36.1302,-2.9102
700,-181,29.5845,6.58398,0,0,0,0,0,0,0,-1,1924,1205,29.5844,-6.58395
707,-181,39.8232,8.03186,0,0,0,0,0,0,0,-1,1931,1205,39.8233,-8.0319
714,-181,40.174,7.73877,0,0,0,0,0,0,0,-1,1938,1205,40.174,-7.73878
721,-181,39.9218,7.73914,0,0,0,0,0,0,0,-1,1945,1205,39.9218,-7.73913
728,-181,40.1289,7.21472,-0.000721371,0.00018196,0.00126203,0.00107071,-0.00161012,0.957241,0.00155819,0.0288424,1952,1205,40.1289,-7.21473
735,-181,40.1299,6.82507,-0.000825124,-0.000106029,0.00159518,0.00116962,-0.00210077,0.896244,0.00191351,0.0128693,1959,1205,40.1298,-6.8251
742,-181,40.1102,6.44812,-0.000641959,-7.29378e-05,0.00175969,0.0014251,-0.00213999,0.865546,0.00207205,0.0167038,1966,1205,40.1103,-6.44813
749,-181,40.1174,6.02246,-0.000135433,-0.000580534,0.00194851,0.00160319,-0.00231916,0.728537,0.00227711,0.015378,1973,1205,40.1174,-6.02242
756,-181,40.0917,5.58667,0.000254133,-0.00138038,0.00233612,0.00191183,-0.00303807,0.617135,0.00288238,0.011855,1980,1205,40.0917,-5.58664
763,-181,40.0852,5.18262,0.000535931,-0.00269483,0.00288615,0.00222802,-0.00438691,0.530268,0.00388634,0.0145466,1987,1205,40.0851,-5.18261
770,-181,40.1823,4.68701,0.000250779,-0.0047752,0.00384666,0.00233256,-0.00685698,0.496055,0.00551577,0.0391947,1994,1205,40.1823,-4.68701
777,-181,40.3495,4.0697,0,0,0,0,0,0,0,-1,2001,1205,40.3495,-4.06965
784,-181,34.7717,2.39917,0,0,0,0,0,0,0,-1,2008,1205,34.7717,-2.39918
791,-181,39.9827,1.92883,0,0,0,0,0,0,0,-1,2015,1205,39.9826,-1.92877
798,-181,41.1882,1.26025,0,0,0,0,0,0,0,-1,2022,1205,41.1883,-1.2603
805,-181,0,0,0,0,0,0,0,0,0,-1,2029,1205,0,0
812,-181,0,0,0,0,0,0,0,0,0,-1,2036,1205,0,0
-700,-188,0,0,0,0,0,0,0,0,0,-1,524,1212,0,0
-693,-188,0,0,0,0,0,0,0,0,0,-1,531,1212,0,0
-686,-188,0,0,0,0,0,0,0,0,0,-1,538,1212,0,0
-679,-188,-29.1099,-2.94678,0,0,0,0,0,0,0,-1,545,1212,-29.1099,2.94676
-672,-188,-28.6749,-2.05945,0,0,0,0,0,0,0,-1,552,1212,-28.6749,2.05946
-665,-188,-26.5001,0.212646,0,0,0,0,0,0,0,-1,559,1212,-26.5,-0.212622
-658,-188,-26.5032,0.602173,0,0,0,0,0,0,0,-1,566,1212,-26.5032,-0.602208
-651,-188,-26.5836,1.2301,0,0,0,0,0,0,0,-1,573,1212,-26.5836,-1.23006
-644,-188,-26.6434,1.66541,-0.00606144,0.00294299,0.00171493,0.00325855,-0.00637699,1.38883,0.00565936,0.0459878,580,1212,-26.6434,-1.6654
-637,-188,-26.6998,2.09973,-0.00455513,0.00297874,0.00154614,0.0032837,-0.00486009,1.37606,0.00473109,0.0223337,587,1212,-26.6998,-2.09975
-630,-188,-26.7548,2.53784,-0.00368208,0.00255927,0.00114066,0.0027612,-0.00388401,1.39558,0.00385483,0.0104423,594,1212,-26.7548,-2.53787
-623,-188,-26.7619,2.97888,-0.00286284,0.00196069,0.000563774,0.00202571,-0.00292786,1.45598,0.00287571,0.0108628,601,1212,-26.7619,-2.97893
-616,-188,-26.7529,3.4259,-0.00216048,0.00132073,-1.88748e-05,0.00132083,-0.00216058,-1.56537,0.00202939,0.0104372,608,1212,-26.7529,-3.4259
-609,-188,-26.7591,3.90186,-0.00152417,0.000766465,-0.000603304,0.000915646,-0.00167336,-1.32838,0.00151595,0.0132638,615,1212,-26.7591,-3.90181
-602,-188,-26.7772,4.3833,-0.00103172,0.000170022,-0.00107715,0.000802557,-0.00166425,-1.03982,0.00145289,0.0161819,622,1212,-26.7772,-4.3833
-595,-188,-26.8632,4.8092,-0.000784571,-0.00017279,-0.00132374,0.000879939,-0.0018373,-0.898946,0.00160093,0.0218847,629,1212,-26.8631,-4.80923
-588,-188,-27.0322,5.25562,-0.000273919,-0.000392953,-0.00161851,0.00128617,-0.00195304,-0.76702,0.00188332,0.0248691,636,1212,-27.0322,-5.25565
-581,-188,-27.0416,5.68054,0.000274853,-0.000763255,-0.00174347,0.00157489,-0.00206329,-0.640719,0.0021068,0.024488,643,1212,-27.0416,-5.68051
-574,-188,-27.3673,6.04993,0,0,0,0,0,0,0,-1,650,1212,-27.3673,-6.04998
-567,-188,-19.5786,4.10388,0,0,0,0,0,0,0,-1,657,1212,-19.5785,-4.10383
-560,-188,-23.9507,0.416626,0,0,0,0,0,0,0,-1,664,1212,-23.9508,-0.416602
-553,-188,-35.5422,1.078,0,0,0,0,0,0,0,-1,671,1212,-35.5422,-1.07795
-546,-188,-35.3762,1.09106,0.00139176,-0.00187993,-7.57242e-05,0.00139351,-0.00188168,-0.0231288,0.00189792,0.0411443,678,1212,-35.3762,-1.09105
-539,-188,-35.3195,1.07715,0.0018534,-0.00215273,0.000498525,0.00191451,-0.00221383,0.121963,0.00238559,0.0358313,685,1212,-35.3195,-1.0772
-532,-188,-35.3126,0.909058,0.00187557,-0.00219876,0.00148248,0.00235789,-0.00268108,0.314544,0.00291124,0.040868,692,1212,-35.3126,-0.909081
-525,-188,-35.2107,0.745483,0.00181203,-0.00220634,0.00291453,0.0033428,-0.00373711,0.483621,0.0040897,0.040594,699,1212,-35.2107,-0.745432
-518,-188,-35.1011,0.843384,0.00224567,-0.00183966,0.00512249,0.00571775,-0.00531174,0.595678,0.00636932,0.041683,706,1212,-35.1011,-0.843394
-511,-188,-35.0543,0.998779,0.00338255,-0.000676083,0.00831997,0.00991711,-0.00721064,0.665779,0.00992978,0.0416021,713,1212,-35.0542,-0.998772
-504,-188,0,0,0,0,0,0,0,0,0,-1,720,1212,0,0
-497,-188,0,0,0,0,0,0,0,0,0,-1,727,1212,0,0
-490,-188,0,0,0,0,0,0,0,0,0,-1,734,1212,0,0
-483,-188,0,0,0,0,0,0,0,0,0,-1,741,1212,0,0
-476,-188,0,0,0,0,0,0,0,0,0,-1,748,1212,0,0
-469,-188,0,0,0,0,0,0,0,0,0,-1,755,1212,0,0
-462,-188,0,0,0,0,0,0,0,0,0,-1,762,1212,0,0
-455,-188,0,0,0,0,0,0,0,0,0,-1,769,1212,0,0
-448,-188,0,0,0,0,0,0,0,0,0,-1,776,1212,0,0
-441,-188,0,0,0,0,0,0,0,0,0,-1,783,1212,0,0
-434,-188,0,0,0,0,0,0,0,0,0,-1,790,1212,0,0
-427,-188,0,0,0,0,0,0,0,0,0,-1,797,1212,0,0
-420,-188,0,0,0,0,0,0,0,0,0,-1,804,1212,0,0
-413,-188,0,0,0,0,0,0,0,0,0,-1,811,1212,0,0
-406,-188,0,0,0,0,0,0,0,0,0,-1,818,1212,0,0
-399,-188,0,0,0,0,0,0,0,0,0,-1,825,1212,0,0
-392,-188,0,0,0,0,0,0,0,0,0,-1,832,1212,0,0
-385,-188,0,0,0,0,0,0,0,0,0,-1,839,1212,0,0
-378,-188,0,0,0,0,0,0,0,0,0,-1,846,1212,0,0
-371,-188,0,0,0,0,0,0,0,0,0,-1,853,1212,0,0
-364,-188,0,0,0,0,0,0,0,0,0,-1,860,1212,0,0
-357,-188,0,0,0,0,0,0,0,0,0,-1,867,1212,0,0
-350,-188,0,0,0,0,0,0,0,0,0,-1,874,1212,0,0
-343,-188,0,0,0,0,0,0,0,0,0,-1,881,1212,0,0
-336,-188,0,0,0,0,0,0,0,0,0,-1,888,1212,0,0
-329,-188,0,0,0,0,0,0,0,0,0,-1,895,1212,0,0
-322,-188,0,0,0,0,0,0,0,0,0,-1,902,1212,0,0
-315,-188,0,0,0,0,0,0,0,0,0,-1,909,1212,0,0
-308,-188,0,0,0,0,0,0,0,0,0,-1,916,1212,0,0
-301,-188,0,0,0,0,0,0,0,0,0,-1,923,1212,0,0
-294,-188,0,0,0,0,0,0,0,0,0,-1,930,1212,0,0
-287,-188,0,0,0,0,0,0,0,0,0,-1,937,1212,0,0
-280,-188,0,0,0,0,0,0,0,0,0,-1,944,1212,0,0
-273,-188,0,0,0,0,0,0,0,0,0,-1,951,1212,0,0
-266,-188,0,0,0,0,0,0,0,0,0,-1,958,1212,0,0
-259,-188,0,0,0,0,0,0,0,0,0,-1,965,1212,0,0
-252,-188,0,0,0,0,0,0,0,0,0,-1,972,1212,0,0
-245,-188,0,0,0,0,0,0,0,0,0,-1,979,1212,0,0
-238,-188,0,0,0,0,0,0,0,0,0,-1,986,1212,0,0
-231,-188,0,0,0,0,0,0,0,0,0,-1,993,1212,0,0
-224,-188,0,0,0,0,0,0,0,0,0,-1,1000,1212,0,0
-217,-188,0,0,0,0,0,0,0,0,0,-1,1007,1212,0,0
-210,-188,0,0,0,0,0,0,0,0,0,-1,1014,1212,0,0
-203,-188,0,0,0,0,0,0,0,0,0,-1,1021,1212,0,0
-196,-188,0,0,0,0,0,0,0,0,0,-1,1028,1212,0,0
-189,-188,0,0,0,0,0,0,0,0,0,-1,1035,1212,0,0
-182,-188,0,0,0,0,0,0,0,0,0,-1,1042,1212,0,0
-175,-188,0,0,0,0,0,0,0,0,0,-1,1049,1212,0,0
-168,-188,0,0,0,0,0,0,0,0,0,-1,1056,1212,0,0
-161,-188,0,0,0,0,0,0,0,0,0,-1,1063,1212,0,0
-154,-188,0,0,0,0,0,0,0,0,0,-1,1070,1212,0,0
-147,-188,0,0,0,0,0,0,0,0,0,-1,1077,1212,0,0
-140,-188,0,0,0,0,0,0,0,0,0,-1,1084,1212,0,0
-133,-188,0,0,0,0,0,0,0,0,0,-1,1091,1212,0,0
-126,-188,0,0,0,0,0,0,0,0,0,-1,1098,1212,0,0
-119,-188,0,0,0,0,0,0,0,0,0,-1,1105,1212,0,0
-112,-188,0,0,0,0,0,0,0,0,0,-1,1112,1212,0,0
-105,-188,0,0,0,0,0,0,0,0,0,-1,1119,1212,0,0
-98,-188,0,0,0,0,0,0,0,0,0,-1,1126,1212,0,0
-91,-188,0,0,0,0,0,0,0,0,0,-1,1133,1212,0,0
-84,-188,0,0,0,0,0,0,0,0,0,-1,1140,1212,0,0
-77,-188,0,0,0,0,0,0,0,0,0,-1,1147,1212,0,0
-70,-188,0,0,0,0,0,0,0,0,0,-1,1154,1212,0,0
-63,-188,0,0,0,0,0,0,0,0,0,-1,1161,1212,0,0
-56,-188,0,0,0,0,0,0,0,0,0,-1,1168,1212,0,0
-49,-188,0,0,0,0,0,0,0,0,0,-1,1175,1212,0,0
-42,-188,0,0,0,0,0,0,0,0,0,-1,1182,1212,0,0
-35,-188,0,0,0,0,0,0,0,0,0,-1,1189,1212,0,0
-28,-188,0,0,0,0,0,0,0,0,0,-1,1196,1212,0,0
-21,-188,0,0,0,0,0,0,0,0,0,-1,1203,1212,0,0
-14,-188,0,0,0,0,0,0,0,0,0,-1,1210,1212,0,0
-7,-188,0,0,0,0,0,0,0,0,0,-1,1217,1212,0,0
0,-188,0,0,0,0,0,0,0,0,0,-1,1224,1212,0,0
7,-188,0,0,0,0,0,0,0,0,0,-1,1231,1212,0,0
14,-188,0,0,0,0,0,0,0,0,0,-1,1238,1212,0,0
21,-188,0,0,0,0,0,0,0,0,0,-1,1245,1212,0,0
28,-188,0,0,0,0,0,0,0,0,0,-1,1252,1212,0,0
35,-188,0,0,0,0,0,0,0,0,0,-1,1259,1212,0,0
42,-188,0,0,0,0,0,0,0,0,0,-1,1266,1212,0,0
49,-188,0,0,0,0,0,0,0,0,0,-1,1273,1212,0,0
56,-188,0,0,0,0,0,0,0,0,0,-1,1280,1212,0,0
63,-188,0,0,0,0,0,0,0,0,0,-1,1287,1212,0,0
70,-188,0,0,0,0,0,0,0,0,0,-1,1294,1212,0,0
77,-188,0,0,0,0,0,0,0,0,0,-1,1301,1212,0,0
84,-188,0,0,0,0,0,0,0,0,0,-1,1308,1212,0,0
91,-188,0,0,0,0,0,0,0,0,0,-1,1315,1212,0,0
98,-188,0,0,0,0,0,0,0,0,0,-1,1322,1212,0,0
105,-188,0,0,0,0,0,0,0,0,0,-1,1329,1212,0,0
112,-188,0,0,0,0,0,0,0,0,0,-1,1336,1212,0,0
119,-188,0,0,0,0,0,0,0,0,0,-1,1343,1212,0,0
126,-188,0,0,0,0,0,0,0,0,0,-1,1350,1212,0,0
133,-188,0,0,0,0,0,0,0,0,0,-1,1357,1212,0,0
140,-188,0,0,0,0,0,0,0,0,0,-1,1364,1212,0,0
147,-188,0,0,0,0,0,0,0,0,0,-1,1371,1212,0,0
154,-188,0,0,0,0,0,0,0,0,0,-1,1378,1212,0,0
161,-188,0,0,0,0,0,0,0,0,0,-1,1385,1212,0,0
168,-188,0,0,0,0,0,0,0,0,0,-1,1392,1212,0,0
175,-188,0,0,0,0,0,0,0,0,0,-1,1399,1212,0,0
182,-188,0,0,0,0,0,0,0,0,0,-1,1406,1212,0,0
189,-188,0,0,0,0,0,0,0,0,0,-1,1413,1212,0,0
196,-188,0,0,0,0,0,0,0,0,0,-1,1420,1212,0,0
203,-188,0,0,0,0,0,0,0,0,0,-1,1427,1212,0,0
210,-188,0,0,0,0,0,0,0,0,0,-1,1434,1212,0,0
217,-188,0,0,0,0,0,0,0,0,0,-1,1441,1212,0,0
224,-188,0,0,0,0,0,0,0,0,0,-1,1448,1212,0,0
231,-188,0,0,0,0,0,0,0,0,0,-1,1455,1212,0,0
238,-188,0,0,0,0,0,0,0,0,0,-1,1462,1212,0,0
245,-188,0,0,0,0,0,0,0,0,0,-1,1469,1212,0,0
252,-188,0,0,0,0,0,0,0,0,0,-1,1476,1212,0,0
259,-188,0,0,0,0,0,0,0,0,0,-1,1483,1212,0,0
266,-188,0,0,0,0,0,0,0,0,0,-1,1490,1212,0,0
273,-188,0,0,0,0,0,0,0,0,0,-1,1497,1212,0,0
280,-188,0,0,0,0,0,0,0,0,0,-1,1504,1212,0,0
287,-188,0,0,0,0,0,0,0,0,0,-1,1511,1212,0,0
294,-188,0,0,0,0,0,0,0,0,0,-1,1518,1212,0,0
301,-188,0,0,0,0,0,0,0,0,0,-1,1525,1212,0,0
308,-188,0,0,0,0,0,0,0,0,0,-1,1532,1212,0,0
315,-188,0,0,0,0,0,0,0,0,0,-1,1539,1212,0,0
322,-188,0,0,0,0,0,0,0,0,0,-1,1546,1212,0,0
329,-188,0,0,0,0,0,0,0,0,0,-1,1553,1212,0,0
336,-188,0,0,0,0,0,0,0,0,0,-1,1560,1212,0,0
343,-188,0,0,0,0,0,0,0,0,0,-1,1567,1212,0,0
350,-188,0,0,0,0,0,0,0,0,0,-1,1574,1212,0,0
357,-188,0,0,0,0,0,0,0,0,0,-1,1581,1212,0,0
364,-188,0,0,0,0,0,0,0,0,0,-1,1588,1212,0,0
371,-188,0,0,0,0,0,0,0,0,0,-1,1595,1212,0,0
378,-188,0,0,0,0,0,0,0,0,0,-1,1602,1212,0,0
385,-188,0,0,0,0,0,0,0,0,0,-1,1609,1212,0,0
392,-188,0,0,0,0,0,0,0,0,0,-1,1616,1212,0,0
399,-188,0,0,0,0,0,0,0,0,0,-1,1623,1212,0,0
406,-188,0,0,0,0,0,0,0,0,0,-1,1630,1212,0,0
413,-188,0,0,0,0,0,0,0,0,0,-1,1637,1212,0,0
420,-188,0,0,0,0,0,0,0,0,0,-1,1644,1212,0,0
427,-188,0,0,0,0,0,0,0,0,0,-1,1651,1212,0,0
434,-188,0,0,0,0,0,0,0,0,0,-1,1658,1212,0,0
441,-188,0,0,0,0,0,0,0,0,0,-1,1665,1212,0,0
448,-188,0,0,0,0,0,0,0,0,0,-1,1672,1212,0,0
455,-188,0,0,0,0,0,0,0,0,0,-1,1679,1212,0,0
462,-188,0,0,0,0,0,0,0,0,0,-1,1686,1212,0,0
469,-188,0,0,0,0,0,0,0,0,0,-1,1693,1212,0,0
476,-188,0,0,0,0,0,0,0,0,0,-1,1700,1212,0,0
483,-188,0,0,0,0,0,0,0,0,0,-1,1707,1212,0,0
490,-188,0,0,0,0,0,0,0,0,0,-1,1714,1212,0,0
497,-188,0,0,0,0,0,0,0,0,0,-1,1721,1212,0,0
504,-188,0,0,0,0,0,0,0,0,0,-1,1728,1212,0,0
511,-188,0,0,0,0,0,0,0,0,0,-1,1735,1212,0,0
518,-188,0,0,0,0,0,0,0,0,0,-1,1742,1212,0,0
525,-188,0,0,0,0,0,0,0,0,0,-1,1749,1212,0,0
532,-188,0,0,0,0,0,0,0,0,0,-1,1756,1212,0,0
539,-188,0,0,0,0,0,0,0,0,0,-1,1763,1212,0,0
546,-188,0,0,0,0,0,0,0,0,0,-1,1770,1212,0,0
553,-188,0,0,0,0,0,0,0,0,0,-1,1777,1212,0,0
560,-188,0,0,0,0,0,0,0,0,0,-1,1784,1212,0,0
567,-188,0,0,0,0,0,0,0,0,0,-1,1791,1212,0,0
574,-188,0,0,0,0,0,0,0,0,0,-1,1798,1212,0,0
581,-188,0,0,0,0,0,0,0,0,0,-1,1805,1212,0,0
588,-188,0,0,0,0,0,0,0,0,0,-1,1812,1212,0,0
595,-188,0,0,0,0,0,0,0,0,0,-1,1819,1212,0,0
602,-188,0,0,0,0,0,0,0,0,0,-1,1826,1212,0,0
609,-188,0,0,0,0,0,0,0,0,0,-1,1833,1212,0,0
616,-188,0,0,0,0,0,0,0,0,0,-1,1840,1212,0,0
623,-188,0,0,0,0,0,0,0,0,0,-1,1847,1212,0,0
630,-188,47.8901,2.83069,-0.00174326,0.000254476,0.00083964,0.000560496,-0.00204928,1.22129,0.00158638,0.0425072,1854,1212,47.8901,-2.8307
637,-188,47.9012,2.88708,-0.000848859,0.000411086,0.000292241,0.00047557,-0.000913344,1.35362,0.000815059,0.0428751,1861,1212,47.9012,-2.88709
644,-188,47.8265,2.90857,5.2595e-05,0.0005537,-0.0003533,0.000736273,-0.000129978,-1.09383,0.00053942,0.0361621,1868,1212,47.8265,-2.90852
651,-188,47.7284,2.87561,0.000728497,0.000771734,-0.000813734,0.00156414,-6.39054e-05,-0.798679,0.0010647,0.0323535,1875,1212,47.7284,-2.87562
658,-188,47.7275,2.75964,0.00122039,0.000903911,-0.00122183,0.00229418,-0.000169878,-0.721001,0.00158911,0.0323342,1882,1212,47.7275,-2.75962
665,-188,47.6819,2.77039,0.00148606,0.000838666,-0.00124048,0.00244438,-0.000119655,-0.657772,0.0016709,0.0296447,1889,1212,47.6818,-2.77041
672,-188,47.7299,2.78662,0.00139899,0.000766223,-0.000961468,0.00209479,7.04218e-05,-0.626446,0.00137366,0.0231298,1896,1212,47.7299,-2.78661
679,-188,47.7902,2.73254,0.00112228,0.000625897,-0.000641687,0.0015621,0.000186077,-0.600868,0.000985252,0.0430193,1903,1212,47.7902,-2.73249
686,-188,47.8763,2.71082,0,0,0,0,0,0,0,-1,1910,1212,47.8763,-2.7108
693,-188,35.9054,2.18042,0,0,0,0,0,0,0,-1,1917,1212,35.9054,-2.18038
700,-188,39.0826,8.68848,0,0,0,0,0,0,0,-1,1924,1212,39.0826,-8.68852
707,-188,39.8693,8.67053,0,0,0,0,0,0,0,-1,1931,1212,39.8692,-8.67048
714,-188,40.0903,8.24268,0,0,0,0,0,0,0,-1,1938,1212,40.0904,-8.24269
721,-188,39.8738,7.71045,-0.000466507,0.000299219,0.000794331,0.000798141,-0.000965429,1.00997,0.00101972,0.039242,1945,1212,39.8738,-7.71044
728,-188,39.7186,7.24658,-0.000667254,1.14644e-07,0.00126951,0.000979062,-0.0016462,0.913914,0.00153192,0.0139622,1952,1212,39.7186,-7.24656
735,-188,39.6868,6.82935,-0.00067221,-0.000246083,0.00152387,0.00107955,-0.00199784,0.854856,0.00180291,0.0132449,1959,1212,39.6867,-6.82938
742,-188,39.6635,6.42529,-0.000341193,-0.000211783,0.00165727,0.00138204,-0.00193502,0.80491,0.00192395,0.0143076,1966,1212,39.6635,-6.42529
749,-188,39.6823,6.02454,0.000504636,-0.000583254,0.0018355,0.00187509,-0.00195371,0.641347,0.00221072,0.0141996,1973,1212,39.6822,-6.02457
756,-188,39.6775,5.5979,0.00161016,-0.00120048,0.00219781,0.00281353,-0.00240385,0.500948,0.00301535,0.0135466,1980,1212,39.6775,-5.59792
763,-188,39.6887,5.17737,0.00298344,-0.00226753,0.00269268,0.00411877,-0.00340286,0.399017,0.00434916,0.0169034,1987,1212,39.6887,-5.17742
770,-188,39.6368,4.71838,0.00468716,-0.00406252,0.0036554,0.0060133,-0.00538866,0.348023,0.00658622,0.0323531,1994,1212,39.6369,-4.71844
777,-188,39.6364,4.23157,0,0,0,0,0,0,0,-1,2001,1212,39.6363,-4.23161
784,-188,34.7103,1.6665,0,0,0,0,0,0,0,-1,2008,1212,34.7103,-1.66656
791,-188,38.8401,0.969482,0,0,0,0,0,0,0,-1,2015,1212,38.8401,-0.969542
798,-188,38.8203,2.93079,0,0,0,0,0,0,0,-1,2022,1212,38.8204,-2.93082
805,-188,0,0,0,0,0,0,0,0,0,-1,2029,1212,0,0
812,-188,0,0,0,0,0,0,0,0,0,-1,2036,1212,0,0
-700,-195,0,0,0,0,0,0,0,0,0,-1,524,1219,0,0
-693,-195,0,0,0,0,0,0,0,0,0,-1,531,1219,0,0
-686,-195,0,0,0,0,0,0,0,0,0,-1,538,1219,0,0
-679,-195,-29.1196,-2.63147,0,0,0,0,0,0,0,-1,545,1219,-29.1195,2.6315
-672,-195,-26.0662,-0.985962,0,0,0,0,0,0,0,-1,552,1219,-26.0662,0.985991
-665,-195,-26.2,0.0357666,0,0,0,0,0,0,0,-1,559,1219,-26.2,-0.035819
-658,-195,-26.1404,0.855957,0,0,0,0,0,0,0,-1,566,1219,-26.1404,-0.855955
-651,-195,-26.1488,1.29736,0,0,0,0,0,0,0,-1,573,1219,-26.1488,-1.29737
-644,-195,-26.1301,1.70471,-0.00540041,0.00281559,0.00349465,0.00410094,-0.00668576,1.21835,0.00628702,0.0425902,580,1219,-26.1302,-1.70474
-637,-195,-26.1483,2.14709,-0.00382778,0.00309214,0.00295908,0.00418493,-0.00492057,1.21703,0.00526278,0.021186,587,1219,-26.1483,-2.14709
-630,-195,-26.2698,2.53955,-0.00301458,0.00277857,0.00223404,0.00354001,-0.00377602,1.24231,0.00422465,0.00812368,594,1219,-26.2698,-2.53958
-623,-195,-26.2988,2.97913,-0.00226879,0.00221543,0.00137638,0.00260419,-0.00265756,1.29552,0.00303792,0.00834873,601,1219,-26.2989,-2.97914
-616,-195,-26.3089,3.44458,-0.00162972,0.00158958,0.000549181,0.00168069,-0.00172082,1.4064,0.00196391,0.00983622,608,1219,-26.3089,-3.44454
-609,-195,-26.3131,3.93835,-0.00103469,0.000974128,-0.000247219,0.0010041,-0.00106467,-1.45013,0.00119458,0.0179522,615,1219,-26.3131,-3.93836
-602,-195,-26.3447,4.4126,-0.000503138,0.00031919,-0.000894059,0.000892098,-0.00107605,-1.00092,0.00113796,0.0216993,622,1219,-26.3447,-4.41261
-595,-195,-26.3854,4.85693,-0.000151676,-8.7536e-05,-0.00121201,0.00109283,-0.00133204,-0.798625,0.00140227,0.0187551,629,1219,-26.3855,-4.85695
-588,-195,-26.4067,5.35889,0.000356202,-0.000390993,-0.00143617,0.00146657,-0.00150136,-0.658151,0.00171358,0.0214994,636,1219,-26.4067,-5.35883
-581,-195,-26.4802,5.65442,0.000862386,-0.00087917,-0.00152933,0.00175147,-0.00176825,-0.526596,0.00203212,0.0334627,643,1219,-26.4802,-5.65439
-574,-195,-27.0231,5.84705,0,0,0,0,0,0,0,-1,650,1219,-27.0231,-5.84702
-567,-195,-20.6388,3.78369,0,0,0,0,0,0,0,-1,657,1219,-20.6388,-3.78369
-560,-195,-20.878,2.10388,0,0,0,0,0,0,0,-1,664,1219,-20.878,-2.10385
-553,-195,-35.3707,0.942627,0,0,0,0,0,0,0,-1,671,1219,-35.3707,-0.942643
-546,-195,-35.2504,0.981567,0.00179736,-0.00237594,0.000159883,0.00180348,-0.00238205,0.0382362,0.0024242,0.0498674,678,1219,-35.2504,-0.981524
-539,-195,-35.2742,1.07263,0.00210776,-0.00273203,0.000583775,0.00217718,-0.00280145,0.118358,0.00288194,0.040469,685,1219,-35.2742,-1.0726
-532,-195,-35.2474,0.861694,0.00202847,-0.00292576,0.00126821,0.00233424,-0.00323153,0.236588,0.00322729,0.0360536,692,1219,-35.2474,-0.861654
-525,-195,-35.2274,0.859863,0.00183069,-0.00313976,0.00220692,0.00266914,-0.00397821,0.363077,0.00386258,0.0406496,699,1219,-35.2274,-0.859881
-518,-195,-35.2421,1.06885,0.00209263,-0.00310254,0.00382643,0.00411987,-0.00512978,0.487202,0.00535089,0.0417426,706,1219,-35.2422,-1.06886
-511,-195,-35.1728,1.09131,0.00336228,-0.00221682,0.00672793,0.00785604,-0.00671058,0.588874,0.00841871,0.0422472,713,1219,-35.1728,-1.09135
-504,-195,0,0,0,0,0,0,0,0,0,-1,720,1219,0,0
-497,-195,0,0,0,0,0,0,0,0,0,-1,727,1219,0,0
-490,-195,0,0,0,0,0,0,0,0,0,-1,734,1219,0,0
-483,-195,0,0,0,0,0,0,0,0,0,-1,741,1219,0,0
-476,-195,0,0,0,0,0,0,0,0,0,-1,748,1219,0,0
-469,-195,0,0,0,0,0,0,0,0,0,-1,755,1219,0,0
-462,-195,0,0,0,0,0,0,0,0,0,-1,762,1219,0,0
-455,-195,0,0,0,0,0,0,0,0,0,-1,769,1219,0,0
-448,-195,0,0,0,0,0,0,0,0,0,-1,776,1219,0,0
-441,-195,0,0,0,0,0,0,0,0,0,-1,783,1219,0,0
-434,-195,0,0,0,0,0,0,0,0,0,-1,790,1219,0,0
-427,-195,0,0,0,0,0,0,0,0,0,-1,797,1219,0,0
-420,-195,0,0,0,0,0,0,0,0,0,-1,804,1219,0,0
-413,-195,0,0,0,0,0,0,0,0,0,-1,811,1219,0,0
-406,-195,0,0,0,0,0,0,0,0,0,-1,818,1219,0,0
-399,-195,0,0,0,0,0,0,0,0,0,-1,825,1219,0,0
-392,-195,0,0,0,0,0,0,0,0,0,-1,832,1219,0,0
-385,-195,0,0,0,0,0,0,0,0,0,-1,839,1219,0,0
-378,-195,0,0,0,0,0,0,0,0,0,-1,846,1219,0,0
-371,-195,0,0,0,0,0,0,0,0,0,-1,853,1219,0,0
-364,-195,0,0,0,0,0,0,0,0,0,-1,860,1219,0,0
-357,-195,0,0,0,0,0,0,0,0,0,-1,867,1219,0,0
-350,-195,0,0,0,0,0,0,0,0,0,-1,874,1219,0,0
-343,-195,0,0,0,0,0,0,0,0,0,-1,881,1219,0,0
-336,-195,0,0,0,0,0,0,0,0,0,-1,888,1219,0,0
-329,-195,0,0,0,0,0,0,0,0,0,-1,895,1219,0,0
-322,-195,0,0,0,0,0,0,0,0,0,-1,902,1219,0,0
-315,-195,0,0,0,0,0,0,0,0,0,-1,909,1219,0,0
-308,-195,0,0,0,0,0,0,0,0,0,-1,916,1219,0,0
-301,-195,0,0,0,0,0,0,0,0,0,-1,923,1219,0,0
-294,-195,0,0,0,0,0,0,0,0,0,-1,930,1219,0,0
-287,-195,0,0,0,0,0,0,0,0,0,-1,937,1219,0,0
-280,-195,0,0,0,0,0,0,0,0,0,-1,944,1219,0,0
-273,-195,0,0,0,0,0,0,0,0,0,-1,951,1219,0,0
-266,-195,0,0,0,0,0,0,0,0,0,-1,958,1219,0,0
-259,-195,0,0,0,0,0,0,0,0,0,-1,965,1219,0,0
-252,-195,0,0,0,0,0,0,0,0,0,-1,972,1219,0,0
-245,-195,0,0,0,0,0,0,0,0,0,-1,979,1219,0,0
-238,-195,0,0,0,0,0,0,0,0,0,-1,986,1219,0,0
-231,-195,0,0,0,0,0,0,0,0,0,-1,993,1219,0,0
-224,-195,0,0,0,0,0,0,0,0,0,-1,1000,1219,0,0
-217,-195,0,0,0,0,0,0,0,0,0,-1,1007,1219,0,0
-210,-195,0,0,0,0,0,0,0,0,0,-1,1014,1219,0,0
-203,-195,0,0,0,0,0,0,0,0,0,-1,1021,1219,0,0
-196,-195,0,0,0,0,0,0,0,0,0,-1,1028,1219,0,0
-189,-195,0,0,0,0,0,0,0,0,0,-1,1035,1219,0,0
-182,-195,0,0,0,0,0,0,0,0,0,-1,1042,1219,0,0
-175,-195,0,0,0,0,0,0,0,0,0,-1,1049,1219,0,0
-168,-195,0,0,0,0,0,0,0,0,0,-1,1056,1219,0,0
-161,-195,0,0,0,0,0,0,0,0,0,-1,1063,1219,0,0
-154,-195,0,0,0,0,0,0,0,0,0,-1,1070,1219,0,0
-147,-195,0,0,0,0,0,0,0,0,0,-1,1077,1219,0,0
-140,-195,0,0,0,0,0,0,0,0,0,-1,1084,1219,0,0
-133,-195,0,0,0,0,0,0,0,0,0,-1,1091,1219,0,0
-126,-195,0,0,0,0,0,0,0,0,0,-1,1098,1219,0,0
-119,-195,0,0,0,0,0,0,0,0,0,-1,1105,1219,0,0
-112,-195,0,0,0,0,0,0,0,0,0,-1,1112,1219,0,0
-105,-195,0,0,0,0,0,0,0,0,0,-1,1119,1219,0,0
-98,-195,0,0,0,0,0,0,0,0,0,-1,1126,1219,0,0
-91,-195,0,0,0,0,0,0,0,0,0,-1,1133,1219,0,0
-84,-195,0,0,0,0,0,0,0,0,0,-1,1140,1219,0,0
-77,-195,0,0,0,0,0,0,0,0,0,-1,1147,1219,0,0
-70,-195,0,0,0,0,0,0,0,0,0,-1,1154,1219,0,0
-63,-195,0,0,0,0,0,0,0,0,0,-1,1161,1219,0,0
-56,-195,0,0,0,0,0,0,0,0,0,-1,1168,1219,0,0
-49,-195,0,0,0,0,0,0,0,0,0,-1,1175,1219,0,0
-42,-195,0,0,0,0,0,0,0,0,0,-1,1182,1219,0,0
-35,-195,0,0,0,0,0,0,0,0,0,-1,1189,1219,0,0
-28,-195,0,0,0,0,0,0,0,0,0,-1,1196,1219,0,0
-21,-195,0,0,0,0,0,0,0,0,0,-1,1203,1219,0,0
-14,-195,0,0,0,0,0,0,0,0,0,-1,1210,1219,0,0
-7,-195,0,0,0,0,0,0,0,0,0,-1,1217,1219,0,0
0,-195,0,0,0,0,0,0,0,0,0,-1,1224,1219,0,0
7,-195,0,0,0,0,0,0,0,0,0,-1,1231,1219,0,0
14,-195,0,0,0,0,0,0,0,0,0,-1,1238,1219,0,0
21,-195,0,0,0,0,0,0,0,0,0,-1,1245,1219,0,0
28,-195,0,0,0,0,0,0,0,0,0,-1,1252,1219,0,0
35,-195,0,0,0,0,0,0,0,0,0,-1,1259,1219,0,0
42,-195,0,0,0,0,0,0,0,0,0,-1,1266,1219,0,0
49,-195,0,0,0,0,0,0,0,0,0,-1,1273,1219,0,0
56,-195,0,0,0,0,0,0,0,0,0,-1,1280,1219,0,0
63,-195,0,0,0,0,0,0,0,0,0,-1,1287,1219,0,0
70,-195,0,0,0,0,0,0,0,0,0,-1,1294,1219,0,0
77,-195,0,0,0,0,0,0,0,0,0,-1,1301,1219,0,0
84,-195,0,0,0,0,0,0,0,0,0,-1,1308,1219,0,0
91,-195,0,0,0,0,0,0,0,0,0,-1,1315,1219,0,0
98,-195,0,0,0,0,0,0,0,0,0,-1,1322,1219,0,0
105,-195,0,0,0,0,0,0,0,0,0,-1,1329,1219,0,0
112,-195,0,0,0,0,0,0,0,0,0,-1,1336,1219,0,0
119,-195,0,0,0,0,0,0,0,0,0,-1,1343,1219,0,0
126,-195,0,0,0,0,0,0,0,0,0,-1,1350,1219,0,0
133,-195,0,0,0,0,0,0,0,0,0,-1,1357,1219,0,0
140,-195,0,0,0,0,0,0,0,0,0,-1,1364,1219,0,0
147,-195,0,0,0,0,0,0,0,0,0,-1,1371,1219,0,0
154,-195,0,0,0,0,0,0,0,0,0,-1,1378,1219,0,0
161,-195,0,0,0,0,0,0,0,0,0,-1,1385,1219,0,0
168,-195,0,0,0,0,0,0,0,0,0,-1,1392,1219,0,0
175,-195,0,0,0,0,0,0,0,0,0,-1,1399,1219,0,0
182,-195,0,0,0,0,0,0,0,0,0,-1,1406,1219,0,0
189,-195,0,0,0,0,0,0,0,0,0,-1,1413,1219,0,0
196,-195,0,0,0,0,0,0,0,0,0,-1,1420,1219,0,0
203,-195,0,0,0,0,0,0,0,0,0,-1,1427,1219,0,0
210,-195,0,0,0,0,0,0,0,0,0,-1,1434,1219,0,0
217,-195,0,0,0,0,0,0,0,0,0,-1,1441,1219,0,0
224,-195,0,0,0,0,0,0,0,0,0,-1,1448,1219,0,0
231,-195,0,0,0,0,0,0,0,0,0,-1,1455,1219,0,0
238,-195,0,0,0,0,0,0,0,0,0,-1,1462,1219,0,0
245,-195,0,0,0,0,0,0,0,0,0,-1,1469,1219,0,0
252,-195,0,0,0,0,0,0,0,0,0,-1,1476,1219,0,0
259,-195,0,0,0,0,0,0,0,0,0,-1,1483,1219,0,0
266,-195,0,0,0,0,0,0,0,0,0,-1,1490,1219,0,0
273,-195,0,0,0,0,0,0,0,0,0,-1,1497,1219,0,0
280,-195,0,0,0,0,0,0,0,0,0,-1,1504,1219,0,0
287,-195,0,0,0,0,0,0,0,0,0,-1,1511,1219,0,0
294,-195,0,0,0,0,0,0,0,0,0,-1,1518,1219,0,0
301,-195,0,0,0,0,0,0,0,0,0,-1,1525,1219,0,0
308,-195,0,0,0,0,0,0,0,0,0,-1,1532,1219,0,0
315,-195,0,0,0,0,0,0,0,0,0,-1,1539,1219,0,0
322,-195,0,0,0,0,0,0,0,0,0,-1,1546,1219,0,0
329,-195,0,0,0,0,0,0,0,0,0,-1,1553,1219,0,0
336,-195,0,0,0,0,0,0,0,0,0,-1,1560,1219,0,0
343,-195,0,0,0,0,0,0,0,0,0,-1,1567,1219,0,0
350,-195,0,0,0,0,0,0,0,0,0,-1,1574,1219,0,0
357,-195,0,0,0,0,0,0,0,0,0,-1,1581,1219,0,0
364,-195,0,0,0,0,0,0,0,0,0,-1,1588,1219,0,0
371,-195,0,0,0,0,0,0,0,0,0,-1,1595,1219,0,0
378,-195,0,0,0,0,0,0,0,0,0,-1,1602,1219,0,0
385,-195,0,0,0,0,0,0,0,0,0,-1,1609,1219,0,0
392,-195,0,0,0,0,0,0,0,0,0,-1,1616,1219,0,0
399,-195,0,0,0,0,0,0,0,0,0,-1,1623,1219,0,0
406,-195,0,0,0,0,0,0,0,0,0,-1,1630,1219,0,0
413,-195,0,0,0,0,0,0,0,0,0,-1,1637,1219,0,0
420,-195,0,0,0,0,0,0,0,0,0,-1,1644,1219,0,0
427,-195,0,0,0,0,0,0,0,0,0,-1,1651,1219,0,0
434,-195,0,0,0,0,0,0,0,0,0,-1,1658,1219,0,0
441,-195,0,0,0,0,0,0,0,0,0,-1,1665,1219,0,0
448,-195,0,0,0,0,0,0,0,0,0,-1,1672,1219,0,0
455,-195,0,0,0,0,0,0,0,0,0,-1,1679,1219,0,0
462,-195,0,0,0,0,0,0,0,0,0,-1,1686,1219,0,0
469,-195,0,0,0,0,0,0,0,0,0,-1,1693,1219,0,0
476,-195,0,0,0,0,0,0,0,0,0,-1,1700,1219,0,0
483,-195,0,0,0,0,0,0,0,0,0,-1,1707,1219,0,0
490,-195,0,0,0,0,0,0,0,0,0,-1,1714,1219,0,0
497,-195,0,0,0,0,0,0,0,0,0,-1,1721,1219,0,0
504,-195,0,0,0,0,0,0,0,0,0,-1,1728,1219,0,0
511,-195,0,0,0,0,0,0,0,0,0,-1,1735,1219,0,0
518,-195,0,0,0,0,0,0,0,0,0,-1,1742,1219,0,0
525,-195,0,0,0,0,0,0,0,0,0,-1,1749,1219,0,0
532,-195,0,0,0,0,0,0,0,0,0,-1,1756,1219,0,0
539,-195,0,0,0,0,0,0,0,0,0,-1,1763,1219,0,0
546,-195,0,0,0,0,0,0,0,0,0,-1,1770,1219,0,0
553,-195,0,0,0,0,0,0,0,0,0,-1,1777,1219,0,0
560,-195,0,0,0,0,0,0,0,0,0,-1,1784,1219,0,0
567,-195,0,0,0,0,0,0,0,0,0,-1,1791,1219,0,0
574,-195,0,0,0,0,0,0,0,0,0,-1,1798,1219,0,0
581,-195,0,0,0,0,0,0,0,0,0,-1,1805,1219,0,0
588,-195,0,0,0,0,0,0,0,0,0,-1,1812,1219,0,0
595,-195,0,0,0,0,0,0,0,0,0,-1,1819,1219,0,0
602,-195,0,0,0,0,0,0,0,0,0,-1,1826,1219,0,0
609,-195,0,0,0,0,0,0,0,0,0,-1,1833,1219,0,0
616,-195,0,0,0,0,0,0,0,0,0,-1,1840,1219,0,0
623,-195,0,0,0,0,0,0,0,0,0,-1,1847,1219,0,0
630,-195,47.84,2.90979,-0.00200759,0.000812331,0.00103514,0.00115151,-0.00234677,1.25415,0.00205866,0.0412138,1854,1219,47.84,-2.9098
637,-195,47.7843,2.94885,-0.000925452,0.000731324,0.000327918,0.000793866,-0.000987994,1.38233,0.00103079,0.0426865,1861,1219,47.7843,-2.94885
644,-195,47.7579,2.91223,0.000136249,0.000711039,-0.000433699,0.000943923,-9.66353e-05,-1.07801,0.000663843,0.0355724,1868,1219,47.7579,-2.91221
651,-195,47.7642,2.82654,0.000876644,0.000815717,-0.000975506,0.00182216,-0.000129801,-0.769789,0.00126027,0.0271318,1875,1219,47.7642,-2.82651
658,-195,47.777,2.81421,0.00137171,0.000828768,-0.00137314,0.00249996,-0.000299481,-0.687806,0.00177491,0.0253489,1882,1219,47.7769,-2.81427
665,-195,47.7594,2.81262,0.00160345,0.000682735,-0.00131735,0.00253857,-0.000252381,-0.617303,0.00178247,0.02343,1889,1219,47.7593,-2.81259
672,-195,47.7883,2.71118,0.00152586,0.000570999,-0.00103245,0.00218592,-8.90669e-05,-0.56883,0.00148786,0.0341593,1896,1219,47.7884,-2.71115
679,-195,47.7494,2.7124,0.00132143,0.00043395,-0.000739816,0.00174038,1.50016e-05,-0.515262,0.00115529,0.047327,1903,1219,47.7493,-2.71241
686,-195,47.7782,2.72046,0,0,0,0,0,0,0,-1,1910,1219,47.7782,-2.72045
693,-195,24.4368,5.68298,0,0,0,0,0,0,0,-1,1917,1219,24.4368,-5.68293
700,-195,39.6023,8.99902,0,0,0,0,0,0,0,-1,1924,1219,39.6023,-8.99904
707,-195,39.3549,8.54797,0,0,0,0,0,0,0,-1,1931,1219,39.3548,-8.54791
714,-195,39.3507,7.97961,0.000106117,0.000192801,0.00038279,0.000534696,-0.000235777,0.841771,0.000455855,0.0401234,1938,1219,39.3507,-7.97956
721,-195,39.3025,7.69189,-0.000316614,9.29563e-05,0.000785847,0.000700263,-0.00092392,0.912859,0.000940681,0.0219997,1945,1219,39.3025,-7.69191
728,-195,39.3,7.27942,-0.000472779,-0.000150747,0.00121458,0.000913444,-0.00153697,0.851298,0.00142993,0.0109371,1952,1219,39.3001,-7.27941
735,-195,39.2808,6.8197,-0.000385627,-0.000326362,0.00144001,0.00108432,-0.00179631,0.795686,0.00167998,0.0124888,1959,1219,39.2808,-6.81965
742,-195,39.2477,6.4187,2.46864e-05,-0.000297135,0.00160092,0.00147276,-0.00174521,0.73531,0.00186011,0.0139608,1966,1219,39.2477,-6.41872
749,-195,39.2397,6.02332,0.0009007,-0.000578437,0.0018099,0.0021163,-0.00179404,0.591438,0.00226019,0.0141181,1973,1219,39.2397,-6.02333
756,-195,39.2501,5.60852,0.00207312,-0.00102389,0.00213666,0.0031634,-0.00211417,0.471832,0.00306701,0.0145982,1980,1219,39.2501,-5.60855
763,-195,39.2563,5.18408,0.00364658,-0.00181358,0.00252085,0.00463242,-0.00279941,0.372786,0.00433405,0.0190173,1987,1219,39.2564,-5.18411
770,-195,39.2141,4.78418,0.00574566,-0.0031705,0.00332678,0.00685013,-0.00427497,0.320544,0.00648018,0.0361328,1994,1219,39.2142,-4.78414
777,-195,39.2179,4.42017,0,0,0,0,0,0,0,-1,2001,1219,39.2179,-4.42017
784,-195,40.2747,-0.327393,0,0,0,0,0,0,0,-1,2008,1219,40.2747,0.327416
791,-195,40.3972,1.3114,0,0,0,0,0,0,0,-1,2015,1219,40.3973,-1.31137
798,-195,40.4421,3.11365,0,0,0,0,0,0,0,-1,2022,1219,40.4421,-3.11367
805,-195,0,0,0,0,0,0,0,0,0,-1,2029,1219,0,0
812,-195,0,0,0,0,0,0,0,0,0,-1,2036,1219,0,0
-700,-202,0,0,0,0,0,0,0,0,0,-1,524,1226,0,0
-693,-202,0,0,0,0,0,0,0,0,0,-1,531,1226,0,0
-686,-202,0,0,0,0,0,0,0,0,0,-1,538,1226,0,0
-679,-202,-30.4439,-3.88879,0,0,0,0,0,0,0,-1,545,1226,-30.4439,3.8888
-672,-202,-29.4357,-2.03052,0,0,0,0,0,0,0,-1,552,1226,-29.4357,2.03046
-665,-202,-24.7151,-0.259399,0,0,0,0,0,0,0,-1,559,1226,-24.7151,0.259405
-658,-202,-25.572,0.865112,0,0,0,0,0,0,0,-1,566,1226,-25.572,-0.865161
-651,-202,-25.614,1.35901,0,0,0,0,0,0,0,-1,573,1226,-25.6139,-1.35896
-644,-202,-25.8065,1.77527,-0.00222476,0.00371765,0.00578657,0.00725125,-0.00575836,1.02258,0.00752757,0.0457741,580,1226,-25.8064,-1.77529
-637,-202,-25.6367,2.14685,-0.00134678,0.00392592,0.00474935,0.00672158,-0.00414244,1.03877,0.00633098,0.0372907,587,1226,-25.6367,-2.1468
-630,-202,-25.7921,2.53699,-0.00111388,0.00349766,0.00361719,0.00548149,-0.00309771,1.06915,0.00501653,0.0161827,594,1226,-25.7921,-2.53695
-623,-202,-25.8145,2.9718,-0.000806534,0.00281388,0.00244042,0.00404218,-0.00203483,1.1045,0.00357179,0.00878372,601,1226,-25.8144,-2.97181
-616,-202,-25.8315,3.44128,-0.000541662,0.00205961,0.00134673,0.00263122,-0.00111328,1.16939,0.00222031,0.00838833,608,1226,-25.8316,-3.44126
-609,-202,-25.8034,3.90076,-0.00024767,0.00129062,0.00033989,0.00136237,-0.000319423,1.36274,0.00103135,0.0207288,615,1226,-25.8034,-3.9008
-602,-202,-25.8628,4.37646,9.19419e-05,0.000486981,-0.000505271,0.000831968,-0.000253044,-0.971725,0.000655482,0.0219952,622,1226,-25.8628,-4.3765
-595,-202,-25.9109,4.85376,0.000402787,-6.51635e-05,-0.000943274,0.00114067,-0.000803048,-0.663829,0.00112784,0.01566,629,1226,-25.9109,-4.85377
-588,-202,-25.8536,5.3324,0.000903305,-0.00049741,-0.00111597,0.00152048,-0.00111458,-0.505173,0.00152736,0.0141854,636,1226,-25.8536,-5.33241
-581,-202,-25.7884,5.67834,0.00141627,-0.00114912,-0.00117783,0.00187501,-0.00160785,-0.371403,0.0020128,0.0485732,643,1226,-25.7884,-5.67829
-574,-202,-25.9668,5.92065,0,0,0,0,0,0,0,-1,650,1226,-25.9668,-5.9207
-567,-202,-22.1768,4.56995,0,0,0,0,0,0,0,-1,657,1226,-22.1768,-4.56991
-560,-202,-10.929,2.73096,0,0,0,0,0,0,0,-1,664,1226,-10.929,-2.73092
-553,-202,-30.2701,1.474,0,0,0,0,0,0,0,-1,671,1226,-30.2701,-1.47395
-546,-202,-35.0023,0.600586,0,0,0,0,0,0,0,-1,678,1226,-35.0022,-0.600595
-539,-202,-35.1779,1.00793,0.00242296,-0.00321223,0.000645268,0.0024959,-0.00328517,0.112566,0.00334805,0.0428252,685,1226,-35.1779,-1.0079
-532,-202,-35.246,0.993774,0.00222005,-0.00349741,0.00102172,0.00239715,-0.0036745,0.171627,0.00353123,0.028369,692,1226,-35.2461,-0.993832
-525,-202,-35.2934,1.026,0.00189356,-0.00382006,0.00146675,0.00224809,-0.00417459,0.237164,0.00376333,0.033934,699,1226,-35.2934,-1.02602
-518,-202,-35.3288,1.2356,0.00189485,-0.00403254,0.00233092,0.00270166,-0.00483935,0.333225,0.00441173,0.041165,706,1226,-35.3288,-1.2356
-511,-202,-35.2982,1.17322,0.00310537,-0.0035208,0.00456822,0.00543543,-0.00585087,0.471663,0.00651762,0.0414202,713,1226,-35.2982,-1.17326
-504,-202,0,0,0,0,0,0,0,0,0,-1,720,1226,0,0
-497,-202,0,0,0,0,0,0,0,0,0,-1,727,1226,0,0
-490,-202,0,0,0,0,0,0,0,0,0,-1,734,1226,0,0
-483,-202,0,0,0,0,0,0,0,0,0,-1,741,1226,0,0
-476,-202,0,0,0,0,0,0,0,0,0,-1,748,1226,0,0
-469,-202,0,0,0,0,0,0,0,0,0,-1,755,1226,0,0
-462,-202,0,0,0,0,0,0,0,0,0,-1,762,1226,0,0
-455,-202,0,0,0,0,0,0,0,0,0,-1,769,1226,0,0
-448,-202,0,0,0,0,0,0,0,0,0,-1,776,1226,0,0
-441,-202,0,0,0,0,0,0,0,0,0,-1,783,1226,0,0
-434,-202,0,0,0,0,0,0,0,0,0,-1,790,1226,0,0
-427,-202,0,0,0,0,0,0,0,0,0,-1,797,1226,0,0
-420,-202,0,0,0,0,0,0,0,0,0,-1,804,1226,0,0
-413,-202,0,0,0,0,0,0,0,0,0,-1,811,1226,0,0
-406,-202,0,0,0,0,0,0,0,0,0,-1,818,1226,0,0
-399,-202,0,0,0,0,0,0,0,0,0,-1,825,1226,0,0
-392,-202,0,0,0,0,0,0,0,0,0,-1,832,1226,0,0
-385,-202,0,0,0,0,0,0,0,0,0,-1,839,1226,0,0
-378,-202,0,0,0,0,0,0,0,0,0,-1,846,1226,0,0
-371,-202,0,0,0,0,0,0,0,0,0,-1,853,1226,0,0
-364,-202,0,0,0,0,0,0,0,0,0,-1,860,1226,0,0
-357,-202,0,0,0,0,0,0,0,0,0,-1,867,1226,0,0
-350,-202,0,0,0,0,0,0,0,0,0,-1,874,1226,0,0
-343,-202,0,0,0,0,0,0,0,0,0,-1,881,1226,0,0
-336,-202,0,0,0,0,0,0,0,0,0,-1,888,1226,0,0
-329,-202,0,0,0,0,0,0,0,0,0,-1,895,1226,0,0
-322,-202,0,0,0,0,0,0,0,0,0,-1,902,1226,0,0
-315,-202,0,0,0,0,0,0,0,0,0,-1,909,1226,0,0
-308,-202,0,0,0,0,0,0,0,0,0,-1,916,1226,0,0
-301,-202,0,0,0,0,0,0,0,0,0,-1,923,1226,0,0
-294,-202,0,0,0,0,0,0,0,0,0,-1,930,1226,0,0
-287,-202,0,0,0,0,0,0,0,0,0,-1,937,1226,0,0
-280,-202,0,0,0,0,0,0,0,0,0,-1,944,1226,0,0
-273,-202,0,0,0,0,0,0,0,0,0,-1,951,1226,0,0
-266,-202,0,0,0,0,0,0,0,0,0,-1,958,1226,0,0
-259,-202,0,0,0,0,0,0,0,0,0,-1,965,1226,0,0
-252,-202,0,0,0,0,0,0,0,0,0,-1,972,1226,0,0
-245,-202,0,0,0,0,0,0,0,0,0,-1,979,1226,0,0
-238,-202,0,0,0,0,0,0,0,0,0,-1,986,1226,0,0
-231,-202,0,0,0,0,0,0,0,0,0,-1,993,1226,0,0
-224,-202,0,0,0,0,0,0,0,0,0,-1,1000,1226,0,0
-217,-202,0,0,0,0,0,0,0,0,0,-1,1007,1226,0,0
-210,-202,0,0,0,0,0,0,0,0,0,-1,1014,1226,0,0
-203,-202,0,0,0,0,0,0,0,0,0,-1,1021,1226,0,0
-196,-202,0,0,0,0,0,0,0,0,0,-1,1028,1226,0,0
-189,-202,0,0,0,0,0,0,0,0,0,-1,1035,1226,0,0
-182,-202,0,0,0,0,0,0,0,0,0,-1,1042,1226,0,0
-175,-202,0,0,0,0,0,0,0,0,0,-1,1049,1226,0,0
-168,-202,0,0,0,0,0,0,0,0,0,-1,1056,1226,0,0
-161,-202,0,0,0,0,0,0,0,0,0,-1,1063,1226,0,0
-154,-202,0,0,0,0,0,0,0,0,0,-1,1070,1226,0,0
-147,-202,0,0,0,0,0,0,0,0,0,-1,1077,1226,0,0
-140,-202,0,0,0,0,0,0,0,0,0,-1,1084,1226,0,0
-133,-202,0,0,0,0,0,0,0,0,0,-1,1091,1226,0,0
-126,-202,0,0,0,0,0,0,0,0,0,-1,1098,1226,0,0
-119,-202,0,0,0,0,0,0,0,0,0,-1,1105,1226,0,0
-112,-202,0,0,0,0,0,0,0,0,0,-1,1112,1226,0,0
-105,-202,0,0,0,0,0,0,0,0,0,-1,1119,1226,0,0
-98,-202,0,0,0,0,0,0,0,0,0,-1,1126,1226,0,0
-91,-202,0,0,0,0,0,0,0,0,0,-1,1133,1226,0,0
-84,-202,0,0,0,0,0,0,0,0,0,-1,1140,1226,0,0
-77,-202,0,0,0,0,0,0,0,0,0,-1,1147,1226,0,0
-70,-202,0,0,0,0,0,0,0,0,0,-1,1154,1226,0,0
-63,-202,0,0,0,0,0,0,0,0,0,-1,1161,1226,0,0
-56,-202,0,0,0,0,0,0,0,0,0,-1,1168,1226,0,0
-49,-202,0,0,0,0,0,0,0,0,0,-1,1175,1226,0,0
-42,-202,0,0,0,0,0,0,0,0,0,-1,1182,1226,0,0
-35,-202,0,0,0,0,0,0,0,0,0,-1,1189,1226,0,0
-28,-202,0,0,0,0,0,0,0,0,0,-1,1196,1226,0,0
-21,-202,0,0,0,0,0,0,0,0,0,-1,1203,1226,0,0
-14,-202,0,0,0,0,0,0,0,0,0,-1,1210,1226,0,0
-7,-202,0,0,0,0,0,0,0,0,0,-1,1217,1226,0,0
0,-202,0,0,0,0,0,0,0,0,0,-1,1224,1226,0,0
7,-202,0,0,0,0,0,0,0,0,0,-1,1231,1226,0,0
14,-202,0,0,0,0,0,0,0,0,0,-1,1238,1226,0,0
21,-202,0,0,0,0,0,0,0,0,0,-1,1245,1226,0,0
28,-202,0,0,0,0,0,0,0,0,0,-1,1252,1226,0,0
35,-202,0,0,0,0,0,0,0,0,0,-1,1259,1226,0,0
42,-202,0,0,0,0,0,0,0,0,0,-1,1266,1226,0,0
49,-202,0,0,0,0,0,0,0,0,0,-1,1273,1226,0,0
56,-202,0,0,0,0,0,0,0,0,0,-1,1280,1226,0,0
63,-202,0,0,0,0,0,0,0,0,0,-1,1287,1226,0,0
70,-202,0,0,0,0,0,0,0,0,0,-1,1294,1226,0,0
77,-202,0,0,0,0,0,0,0,0,0,-1,1301,1226,0,0
84,-202,0,0,0,0,0,0,0,0,0,-1,1308,1226,0,0
91,-202,0,0,0,0,0,0,0,0,0,-1,1315,1226,0,0
98,-202,0,0,0,0,0,0,0,0,0,-1,1322,1226,0,0
105,-202,0,0,0,0,0,0,0,0,0,-1,1329,1226,0,0
112,-202,0,0,0,0,0,0,0,0,0,-1,1336,1226,0,0
119,-202,0,0,0,0,0,0,0,0,0,-1,1343,1226,0,0
126,-202,0,0,0,0,0,0,0,0,0,-1,1350,1226,0,0
133,-202,0,0,0,0,0,0,0,0,0,-1,1357,1226,0,0
140,-202,0,0,0,0,0,0,0,0,0,-1,1364,1226,0,0
147,-202,0,0,0,0,0,0,0,0,0,-1,1371,1226,0,0
154,-202,0,0,0,0,0,0,0,0,0,-1,1378,1226,0,0
161,-202,0,0,0,0,0,0,0,0,0,-1,1385,1226,0,0
168,-202,0,0,0,0,0,0,0,0,0,-1,1392,1226,0,0
175,-202,0,0,0,0,0,0,0,0,0,-1,1399,1226,0,0
182,-202,0,0,0,0,0,0,0,0,0,-1,1406,1226,0,0
189,-202,0,0,0,0,0,0,0,0,0,-1,1413,1226,0,0
196,-202,0,0,0,0,0,0,0,0,0,-1,1420,1226,0,0
203,-202,0,0,0,0,0,0,0,0,0,-1,1427,1226,0,0
210,-202,0,0,0,0,0,0,0,0,0,-1,1434,1226,0,0
217,-202,0,0,0,0,0,0,0,0,0,-1,1441,1226,0,0
224,-202,0,0,0,0,0,0,0,0,0,-1,1448,1226,0,0
231,-202,0,0,0,0,0,0,0,0,0,-1,1455,1226,0,0
238,-202,0,0,0,0,0,0,0,0,0,-1,1462,1226,0,0
245,-202,0,0,0,0,0,0,0,0,0,-1,1469,1226,0,0
252,-202,0,0,0,0,0,0,0,0,0,-1,1476,1226,0,0
259,-202,0,0,0,0,0,0,0,0,0,-1,1483,1226,0,0
266,-202,0,0,0,0,0,0,0,0,0,-1,1490,1226,0,0
273,-202,0,0,0,0,0,0,0,0,0,-1,1497,1226,0,0
280,-202,0,0,0,0,0,0,0,0,0,-1,1504,1226,0,0
287,-202,0,0,0,0,0,0,0,0,0,-1,1511,1226,0,0
294,-202,0,0,0,0,0,0,0,0,0,-1,1518,1226,0,0
301,-202,0,0,0,0,0,0,0,0,0,-1,1525,1226,0,0
308,-202,0,0,0,0,0,0,0,0,0,-1,1532,1226,0,0
315,-202,0,0,0,0,0,0,0,0,0,-1,1539,1226,0,0
322,-202,0,0,0,0,0,0,0,0,0,-1,1546,1226,0,0
329,-202,0,0,0,0,0,0,0,0,0,-1,1553,1226,0,0
336,-202,0,0,0,0,0,0,0,0,0,-1,1560,1226,0,0
343,-202,0,0,0,0,0,0,0,0,0,-1,1567,1226,0,0
350,-202,0,0,0,0,0,0,0,0,0,-1,1574,1226,0,0
357,-202,0,0,0,0,0,0,0,0,0,-1,1581,1226,0,0
364,-202,0,0,0,0,0,0,0,0,0,-1,1588,1226,0,0
371,-202,0,0,0,0,0,0,0,0,0,-1,1595,1226,0,0
378,-202,0,0,0,0,0,0,0,0,0,-1,1602,1226,0,0
385,-202,0,0,0,0,0,0,0,0,0,-1,1609,1226,0,0
392,-202,0,0,0,0,0,0,0,0,0,-1,1616,1226,0,0
399,-202,0,0,0,0,0,0,0,0,0,-1,1623,1226,0,0
406,-202,0,0,0,0,0,0,0,0,0,-1,1630,1226,0,0
413,-202,0,0,0,0,0,0,0,0,0,-1,1637,1226,0,0
420,-202,0,0,0,0,0,0,0,0,0,-1,1644,1226,0,0
427,-202,0,0,0,0,0,0,0,0,0,-1,1651,1226,0,0
434,-202,0,0,0,0,0,0,0,0,0,-1,1658,1226,0,0
441,-202,0,0,0,0,0,0,0,0,0,-1,1665,1226,0,0
448,-202,0,0,0,0,0,0,0,0,0,-1,1672,1226,0,0
455,-202,0,0,0,0,0,0,0,0,0,-1,1679,1226,0,0
462,-202,0,0,0,0,0,0,0,0,0,-1,1686,1226,0,0
469,-202,0,0,0,0,0,0,0,0,0,-1,1693,1226,0,0
476,-202,0,0,0,0,0,0,0,0,0,-1,1700,1226,0,0
483,-202,0,0,0,0,0,0,0,0,0,-1,1707,1226,0,0
490,-202,0,0,0,0,0,0,0,0,0,-1,1714,1226,0,0
497,-202,0,0,0,0,0,0,0,0,0,-1,1721,1226,0,0
504,-202,0,0,0,0,0,0,0,0,0,-1,1728,1226,0,0
511,-202,0,0,0,0,0,0,0,0,0,-1,1735,1226,0,0
518,-202,0,0,0,0,0,0,0,0,0,-1,1742,1226,0,0
525,-202,0,0,0,0,0,0,0,0,0,-1,1749,1226,0,0
532,-202,0,0,0,0,0,0,0,0,0,-1,1756,1226,0,0
539,-202,0,0,0,0,0,0,0,0,0,-1,1763,1226,0,0
546,-202,0,0,0,0,0,0,0,0,0,-1,1770,1226,0,0
553,-202,0,0,0,0,0,0,0,0,0,-1,1777,1226,0,0
560,-202,0,0,0,0,0,0,0,0,0,-1,1784,1226,0,0
567,-202,0,0,0,0,0,0,0,0,0,-1,1791,1226,0,0
574,-202,0,0,0,0,0,0,0,0,0,-1,1798,1226,0,0
581,-202,0,0,0,0,0,0,0,0,0,-1,1805,1226,0,0
588,-202,0,0,0,0,0,0,0,0,0,-1,1812,1226,0,0
595,-202,0,0,0,0,0,0,0,0,0,-1,1819,1226,0,0
602,-202,0,0,0,0,0,0,0,0,0,-1,1826,1226,0,0
609,-202,0,0,0,0,0,0,0,0,0,-1,1833,1226,0,0
616,-202,0,0,0,0,0,0,0,0,0,-1,1840,1226,0,0
623,-202,0,0,0,0,0,0,0,0,0,-1,1847,1226,0,0
630,-202,47.7111,2.96204,-0.00219002,0.00179006,0.000794651,0.00194285,-0.00234281,1.38084,0.00247792,0.0386189,1854,1226,47.711,-2.96207
637,-202,47.7289,2.91821,-0.000802534,0.00139528,1.08245e-05,0.00139533,-0.000802587,1.56587,0.00128426,0.0369804,1861,1226,47.7289,-2.91818
644,-202,47.7466,2.88098,0.000465204,0.00110217,-0.000754058,0.00160225,-3.48678e-05,-0.985215,0.00107998,0.033596,1868,1226,47.7466,-2.88097
651,-202,47.785,2.82227,0.00121573,0.00104705,-0.00126993,0.00240412,-0.00014134,-0.75224,0.00165188,0.0272697,1875,1226,47.7851,-2.82231
658,-202,47.79,2.82996,0.00163684,0.000948532,-0.00157796,0.00290774,-0.000322365,-0.678029,0.0020544,0.0233864,1882,1226,47.79,-2.82997
665,-202,47.8082,2.77161,0.00177697,0.000771496,-0.00143367,0.0027935,-0.000245031,-0.616765,0.00194915,0.0211298,1889,1226,47.8082,-2.77156
672,-202,47.9282,2.67932,0.00164984,0.000662018,-0.00113781,0.00239631,-8.44594e-05,-0.580627,0.00162643,0.0405423,1896,1226,47.9282,-2.67932
679,-202,47.7986,2.65149,0.00147215,0.000538293,-0.000860641,0.00198437,2.60763e-05,-0.536851,0.00131431,0.0490103,1903,1226,47.7986,-2.65149
686,-202,47.7872,2.6543,0,0,0,0,0,0,0,-1,1910,1226,47.7873,-2.65426
693,-202,38.6689,9.83691,0,0,0,0,0,0,0,-1,1917,1226,38.669,-9.83687
700,-202,38.785,9.08667,0,0,0,0,0,0,0,-1,1924,1226,38.7851,-9.08673
707,-202,38.8873,8.26013,0,0,0,0,0,0,0,-1,1931,1226,38.8873,-8.26018
714,-202,38.8779,7.94617,0.000119063,4.97611e-05,0.00048748,0.000573122,-0.000404298,0.749917,0.000567113,0.0257728,1938,1226,38.8779,-7.9462
721,-202,38.901,7.69666,-0.0003247,-8.50232e-05,0.000951789,0.000754443,-0.00116417,0.848023,0.0011161,0.0143979,1945,1226,38.901,-7.69666
728,-202,38.8822,7.28345,-0.000448478,-0.000331191,0.00133161,0.000943067,-0.00172274,0.807404,0.00156089,0.0109856,1952,1226,38.8822,-7.28347
735,-202,38.8589,6.84705,-0.000309757,-0.000405046,0.00150312,0.00114647,-0.00186127,0.769555,0.00175279,0.0109106,1959,1226,38.8589,-6.84701
742,-202,38.8468,6.42456,0.000131723,-0.000348586,0.00162144,0.0015307,-0.00174756,0.711877,0.00189409,0.0117965,1966,1226,38.8468,-6.42462
749,-202,38.8213,6.00537,0.000957783,-0.00048849,0.00176347,0.00214063,-0.00167133,0.590822,0.00220639,0.0123405,1973,1226,38.8213,-6.00536
756,-202,38.827,5.60376,0.00210026,-0.000689261,0.00192239,0.00308057,-0.00166957,0.471569,0.00278253,0.0123,1980,1226,38.827,-5.60377
763,-202,38.8876,5.245,0.00372303,-0.00109704,0.00201436,0.00445401,-0.00182801,0.348103,0.00373106,0.0210041,1987,1226,38.8875,-5.24504
770,-202,38.89,4.90173,0.00598738,-0.00182293,0.00235631,0.00664319,-0.00247875,0.271452,0.00544643,0.0497339,1994,1226,38.89,-4.90176
777,-202,38.9323,4.52051,0,0,0,0,0,0,0,-1,2001,1226,38.9322,-4.5205
784,-202,37.9491,-2.1272,0,0,0,0,0,0,0,-1,2008,1226,37.9491,2.12721
791,-202,41.6821,1.56946,0,0,0,0,0,0,0,-1,2015,1226,41.6821,-1.56946
798,-202,41.7263,3.20728,0,0,0,0,0,0,0,-1,2022,1226,41.7262,-3.20725
805,-202,0,0,0,0,0,0,0,0,0,-1,2029,1226,0,0
812,-202,0,0,0,0,0,0,0,0,0,-1,2036,1226,0,0
-700,-209,0,0,0,0,0,0,0,0,0,-1,524,1233,0,0
-693,-209,0,0,0,0,0,0,0,0,0,-1,531,1233,0,0
-686,-209,0,0,0,0,0,0,0,0,0,-1,538,1233,0,0
-679,-209,-30.2968,-3.64197,0,0,0,0,0,0,0,-1,545,1233,-30.2968,3.64194
-672,-209,-29.8036,-2.13794,0,0,0,0,0,0,0,-1,552,1233,-29.8036,2.13796
-665,-209,-28.9336,-0.841064,0,0,0,0,0,0,0,-1,559,1233,-28.9336,0.841125
-658,-209,-28.082,0.41394,0,0,0,0,0,0,0,-1,566,1233,-28.082,-0.413908
-651,-209,-25.512,1.85376,0,0,0,0,0,0,0,-1,573,1233,-25.512,-1.85374
-644,-209,-25.6113,1.62219,0,0,0,0,0,0,0,-1,580,1233,-25.6114,-1.62216
-637,-209,-25.2456,2.13245,0,0,0,0,0,0,0,-1,587,1233,-25.2456,-2.13245
-630,-209,-25.2515,2.4812,0.000875358,0.00454298,0.00481423,0.00786084,-0.0024425,0.967371,0.00621678,0.0275982,594,1233,-25.2515,-2.48119
-623,-209,-25.3257,2.99414,0.00075115,0.00364714,0.00339649,0.00589141,-0.00149312,0.986893,0.0045085,0.0134482,601,1233,-25.3257,-2.99412
-616,-209,-25.3516,3.46472,0.000673274,0.00268854,0.00211339,0.00402221,-0.000660402,1.00785,0.00292655,0.012095,608,1233,-25.3516,-3.46472
-609,-209,-25.3518,3.92822,0.000714825,0.00174782,0.000991054,0.00234889,0.000113754,1.02561,0.00152942,0.0142017,615,1233,-25.3518,-3.92828
-602,-209,-25.3685,4.38452,0.000858466,0.000761179,3.69688e-05,0.000870919,0.000748725,0.324935,0.000544472,0.0168903,622,1233,-25.3685,-4.38458
-595,-209,-25.3729,4.85864,0.0010752,-2.39816e-05,-0.000505279,0.00127218,-0.000220954,-0.371707,0.000930554,0.0118348,629,1233,-25.3729,-4.85865
-588,-209,-25.3436,5.36401,0.00152653,-0.000633684,-0.000673112,0.0017191,-0.000826255,-0.278648,0.0014994,0.0168427,636,1233,-25.3436,-5.36399
-581,-209,-25.1031,5.95117,0.00201198,-0.00143096,-0.000743503,0.00216567,-0.00158466,-0.20385,0.0021739,0.047756,643,1233,-25.1031,-5.95118
-574,-209,-25.3168,6.43494,0,0,0,0,0,0,0,-1,650,1233,-25.3168,-6.43489
-567,-209,-25.4458,6.69714,0,0,0,0,0,0,0,-1,657,1233,-25.4458,-6.69714
-560,-209,-13.9294,4.16626,0,0,0,0,0,0,0,-1,664,1233,-13.9294,-4.16621
-553,-209,-22.7542,0.748779,0,0,0,0,0,0,0,-1,671,1233,-22.7541,-0.748796
-546,-209,-35.4833,0.812622,0,0,0,0,0,0,0,-1,678,1233,-35.4833,-0.812619
-539,-209,-35.3191,0.948242,0.00264506,-0.00345929,0.000613003,0.00270601,-0.00352024,0.0991024,0.00360495,0.0399222,685,1233,-35.3191,-0.948218
-532,-209,-35.2036,1.13562,0.0022879,-0.00374943,0.000707021,0.0023696,-0.00383113,0.115035,0.00361299,0.0302893,692,1233,-35.2036,-1.13564
-525,-209,-35.3516,1.21753,0.00181481,-0.00407346,0.000737675,0.00190582,-0.00416447,0.122752,0.00358464,0.0324967,699,1233,-35.3516,-1.21754
-518,-209,-35.4243,1.28809,0.00149303,-0.00436699,0.000916004,0.00163287,-0.00450684,0.151501,0.00367194,0.0424212,706,1233,-35.4243,-1.2881
-511,-209,-35.3184,1.10852,0.00235649,-0.00420021,0.00221704,0.00303578,-0.0048795,0.29731,0.00461102,0.0434613,713,1233,-35.3183,-1.10853
-504,-209,0,0,0,0,0,0,0,0,0,-1,720,1233,0,0
-497,-209,0,0,0,0,0,0,0,0,0,-1,727,1233,0,0
-490,-209,0,0,0,0,0,0,0,0,0,-1,734,1233,0,0
-483,-209,0,0,0,0,0,0,0,0,0,-1,741,1233,0,0
-476,-209,0,0,0,0,0,0,0,0,0,-1,748,1233,0,0
-469,-209,0,0,0,0,0,0,0,0,0,-1,755,1233,0,0
-462,-209,0,0,0,0,0,0,0,0,0,-1,762,1233,0,0
-455,-209,0,0,0,0,0,0,0,0,0,-1,769,1233,0,0
-448,-209,0,0,0,0,0,0,0,0,0,-1,776,1233,0,0
-441,-209,0,0,0,0,0,0,0,0,0,-1,783,1233,0,0
-434,-209,0,0,0,0,0,0,0,0,0,-1,790,1233,0,0
-427,-209,0,0,0,0,0,0,0,0,0,-1,797,1233,0,0
-420,-209,0,0,0,0,0,0,0,0,0,-1,804,1233,0,0
-413,-209,0,0,0,0,0,0,0,0,0,-1,811,1233,0,0
-406,-209,0,0,0,0,0,0,0,0,0,-1,818,1233,0,0
-399,-209,0,0,0,0,0,0,0,0,0,-1,825,1233,0,0
-392,-209,0,0,0,0,0,0,0,0,0,-1,832,1233,0,0
-385,-209,0,0,0,0,0,0,0,0,0,-1,839,1233,0,0
-378,-209,0,0,0,0,0,0,0,0,0,-1,846,1233,0,0
-371,-209,0,0,0,0,0,0,0,0,0,-1,853,1233,0,0
-364,-209,0,0,0,0,0,0,0,0,0,-1,860,1233,0,0
-357,-209,0,0,0,0,0,0,0,0,0,-1,867,1233,0,0
-350,-209,0,0,0,0,0,0,0,0,0,-1,874,1233,0,0
-343,-209,0,0,0,0,0,0,0,0,0,-1,881,1233,0,0
-336,-209,0,0,0,0,0,0,0,0,0,-1,888,1233,0,0
-329,-209,0,0,0,0,0,0,0,0,0,-1,895,1233,0,0
-322,-209,0,0,0,0,0,0,0,0,0,-1,902,1233,0,0
-315,-209,0,0,0,0,0,0,0,0,0,-1,909,1233,0,0
-308,-209,0,0,0,0,0,0,0,0,0,-1,916,1233,0,0
-301,-209,0,0,0,0,0,0,0,0,0,-1,923,1233,0,0
-294,-209,0,0,0,0,0,0,0,0,0,-1,930,1233,0,0
-287,-209,0,0,0,0,0,0,0,0,0,-1,937,1233,0,0
-280,-209,0,0,0,0,0,0,0,0,0,-1,944,1233,0,0
-273,-209,0,0,0,0,0,0,0,0,0,-1,951,1233,0,0
-266,-209,0,0,0,0,0,0,0,0,0,-1,958,1233,0,0
-259,-209,0,0,0,0,0,0,0,0,0,-1,965,1233,0,0
-252,-209,0,0,0,0,0,0,0,0,0,-1,972,1233,0,0
-245,-209,0,0,0,0,0,0,0,0,0,-1,979,1233,0,0
-238,-209,0,0,0,0,0,0,0,0,0,-1,986,1233,0,0
-231,-209,0,0,0,0,0,0,0,0,0,-1,993,1233,0,0
-224,-209,0,0,0,0,0,0,0,0,0,-1,1000,1233,0,0
-217,-209,0,0,0,0,0,0,0,0,0,-1,1007,1233,0,0
-210,-209,0,0,0,0,0,0,0,0,0,-1,1014,1233,0,0
-203,-209,0,0,0,0,0,0,0,0,0,-1,1021,1233,0,0
-196,-209,0,0,0,0,0,0,0,0,0,-1,1028,1233,0,0
-189,-209,0,0,0,0,0,0,0,0,0,-1,1035,1233,0,0
-182,-209,0,0,0,0,0,0,0,0,0,-1,1042,1233,0,0
-175,-209,0,0,0,0,0,0,0,0,0,-1,1049,1233,0,0
-168,-209,0,0,0,0,0,0,0,0,0,-1,1056,1233,0,0
-161,-209,0,0,0,0,0,0,0,0,0,-1,1063,1233,0,0
-154,-209,0,0,0,0,0,0,0,0,0,-1,1070,1233,0,0
-147,-209,0,0,0,0,0,0,0,0,0,-1,1077,1233,0,0
-140,-209,0,0,0,0,0,0,0,0,0,-1,1084,1233,0,0
-133,-209,0,0,0,0,0,0,0,0,0,-1,1091,1233,0,0
-126,-209,0,0,0,0,0,0,0,0,0,-1,1098,1233,0,0
-119,-209,0,0,0,0,0,0,0,0,0,-1,1105,1233,0,0
-112,-209,0,0,0,0,0,0,0,0,0,-1,1112,1233,0,0
-105,-209,0,0,0,0,0,0,0,0,0,-1,1119,1233,0,0
-98,-209,0,0,0,0,0,0,0,0,0,-1,1126,1233,0,0
-91,-209,0,0,0,0,0,0,0,0,0,-1,1133,1233,0,0
-84,-209,0,0,0,0,0,0,0,0,0,-1,1140,1233,0,0
-77,-209,0,0,0,0,0,0,0,0,0,-1,1147,1233,0,0
-70,-209,0,0,0,0,0,0,0,0,0,-1,1154,1233,0,0
-63,-209,0,0,0,0,0,0,0,0,0,-1,1161,1233,0,0
-56,-209,0,0,0,0,0,0,0,0,0,-1,1168,1233,0,0
-49,-209,0,0,0,0,0,0,0,0,0,-1,1175,1233,0,0
-42,-209,0,0,0,0,0,0,0,0,0,-1,1182,1233,0,0
-35,-209,0,0,0,0,0,0,0,0,0,-1,1189,1233,0,0
-28,-209,0,0,0,0,0,0,0,0,0,-1,1196,1233,0,0
-21,-209,0,0,0,0,0,0,0,0,0,-1,1203,1233,0,0
-14,-209,0,0,0,0,0,0,0,0,0,-1,1210,1233,0,0
-7,-209,0,0,0,0,0,0,0,0,0,-1,1217,1233,0,0
0,-209,0,0,0,0,0,0,0,0,0,-1,1224,1233,0,0
7,-209,0,0,0,0,0,0,0,0,0,-1,1231,1233,0,0
14,-209,0,0,0,0,0,0,0,0,0,-1,1238,1233,0,0
21,-209,0,0,0,0,0,0,0,0,0,-1,1245,1233,0,0
28,-209,0,0,0,0,0,0,0,0,0,-1,1252,1233,0,0
35,-209,0,0,0,0,0,0,0,0,0,-1,1259,1233,0,0
42,-209,0,0,0,0,0,0,0,0,0,-1,1266,1233,0,0
49,-209,0,0,0,0,0,0,0,0,0,-1,1273,1233,0,0
56,-209,0,0,0,0,0,0,0,0,0,-1,1280,1233,0,0
63,-209,0,0,0,0,0,0,0,0,0,-1,1287,1233,0,0
70,-209,0,0,0,0,0,0,0,0,0,-1,1294,1233,0,0
77,-209,0,0,0,0,0,0,0,0,0,-1,1301,1233,0,0
84,-209,0,0,0,0,0,0,0,0,0,-1,1308,1233,0,0
91,-209,0,0,0,0,0,0,0,0,0,-1,1315,1233,0,0
98,-209,0,0,0,0,0,0,0,0,0,-1,1322,1233,0,0
105,-209,0,0,0,0,0,0,0,0,0,-1,1329,1233,0,0
112,-209,0,0,0,0,0,0,0,0,0,-1,1336,1233,0,0
119,-209,0,0,0,0,0,0,0,0,0,-1,1343,1233,0,0
126,-209,0,0,0,0,0,0,0,0,0,-1,1350,1233,0,0
133,-209,0,0,0,0,0,0,0,0,0,-1,1357,1233,0,0
140,-209,0,0,0,0,0,0,0,0,0,-1,1364,1233,0,0
147,-209,0,0,0,0,0,0,0,0,0,-1,1371,1233,0,0
154,-209,0,0,0,0,0,0,0,0,0,-1,1378,1233,0,0
161,-209,0,0,0,0,0,0,0,0,0,-1,1385,1233,0,0
168,-209,0,0,0,0,0,0,0,0,0,-1,1392,1233,0,0
175,-209,0,0,0,0,0,0,0,0,0,-1,1399,1233,0,0
182,-209,0,0,0,0,0,0,0,0,0,-1,1406,1233,0,0
189,-209,0,0,0,0,0,0,0,0,0,-1,1413,1233,0,0
196,-209,0,0,0,0,0,0,0,0,0,-1,1420,1233,0,0
203,-209,0,0,0,0,0,0,0,0,0,-1,1427,1233,0,0
210,-209,0,0,0,0,0,0,0,0,0,-1,1434,1233,0,0
217,-209,0,0,0,0,0,0,0,0,0,-1,1441,1233,0,0
224,-209,0,0,0,0,0,0,0,0,0,-1,1448,1233,0,0
231,-209,0,0,0,0,0,0,0,0,0,-1,1455,1233,0,0
238,-209,0,0,0,0,0,0,0,0,0,-1,1462,1233,0,0
245,-209,0,0,0,0,0,0,0,0,0,-1,1469,1233,0,0
252,-209,0,0,0,0,0,0,0,0,0,-1,1476,1233,0,0
259,-209,0,0,0,0,0,0,0,0,0,-1,1483,1233,0,0
266,-209,0,0,0,0,0,0,0,0,0,-1,1490,1233,0,0
273,-209,0,0,0,0,0,0,0,0,0,-1,1497,1233,0,0
280,-209,0,0,0,0,0,0,0,0,0,-1,1504,1233,0,0
287,-209,0,0,0,0,0,0,0,0,0,-1,1511,1233,0,0
294,-209,0,0,0,0,0,0,0,0,0,-1,1518,1233,0,0
301,-209,0,0,0,0,0,0,0,0,0,-1,1525,1233,0,0
308,-209,0,0,0,0,0,0,0,0,0,-1,1532,1233,0,0
315,-209,0,0,0,0,0,0,0,0,0,-1,1539,1233,0,0
322,-209,0,0,0,0,0,0,0,0,0,-1,1546,1233,0,0
329,-209,0,0,0,0,0,0,0,0,0,-1,1553,1233,0,0
336,-209,0,0,0,0,0,0,0,0,0,-1,1560,1233,0,0
343,-209,0,0,0,0,0,0,0,0,0,-1,1567,1233,0,0
350,-209,0,0,0,0,0,0,0,0,0,-1,1574,1233,0,0
357,-209,0,0,0,0,0,0,0,0,0,-1,1581,1233,0,0
364,-209,0,0,0,0,0,0,0,0,0,-1,1588,1233,0,0
371,-209,0,0,0,0,0,0,0,0,0,-1,1595,1233,0,0
378,-209,0,0,0,0,0,0,0,0,0,-1,1602,1233,0,0
385,-209,0,0,0,0,0,0,0,0,0,-1,1609,1233,0,0
392,-209,0,0,0,0,0,0,0,0,0,-1,1616,1233,0,0
399,-209,0,0,0,0,0,0,0,0,0,-1,1623,1233,0,0
406,-209,0,0,0,0,0,0,0,0,0,-1,1630,1233,0,0
413,-209,0,0,0,0,0,0,0,0,0,-1,1637,1233,0,0
420,-209,0,0,0,0,0,0,0,0,0,-1,1644,1233,0,0
427,-209,0,0,0,0,0,0,0,0,0,-1,1651,1233,0,0
434,-209,0,0,0,0,0,0,0,0,0,-1,1658,1233,0,0
441,-209,0,0,0,0,0,0,0,0,0,-1,1665,1233,0,0
448,-209,0,0,0,0,0,0,0,0,0,-1,1672,1233,0,0
455,-209,0,0,0,0,0,0,0,0,0,-1,1679,1233,0,0
462,-209,0,0,0,0,0,0,0,0,0,-1,1686,1233,0,0
469,-209,0,0,0,0,0,0,0,0,0,-1,1693,1233,0,0
476,-209,0,0,0,0,0,0,0,0,0,-1,1700,1233,0,0
483,-209,0,0,0,0,0,0,0,0,0,-1,1707,1233,0,0
490,-209,0,0,0,0,0,0,0,0,0,-1,1714,1233,0,0
497,-209,0,0,0,0,0,0,0,0,0,-1,1721,1233,0,0
504,-209,0,0,0,0,0,0,0,0,0,-1,1728,1233,0,0
511,-209,0,0,0,0,0,0,0,0,0,-1,1735,1233,0,0
518,-209,0,0,0,0,0,0,0,0,0,-1,1742,1233,0,0
525,-209,0,0,0,0,0,0,0,0,0,-1,1749,1233,0,0
532,-209,0,0,0,0,0,0,0,0,0,-1,1756,1233,0,0
539,-209,0,0,0,0,0,0,0,0,0,-1,1763,1233,0,0
546,-209,0,0,0,0,0,0,0,0,0,-1,1770,1233,0,0
553,-209,0,0,0,0,0,0,0,0,0,-1,1777,1233,0,0
560,-209,0,0,0,0,0,0,0,0,0,-1,1784,1233,0,0
567,-209,0,0,0,0,0,0,0,0,0,-1,1791,1233,0,0
574,-209,0,0,0,0,0,0,0,0,0,-1,1798,1233,0,0
581,-209,0,0,0,0,0,0,0,0,0,-1,1805,1233,0,0
588,-209,0,0,0,0,0,0,0,0,0,-1,1812,1233,0,0
595,-209,0,0,0,0,0,0,0,0,0,-1,1819,1233,0,0
602,-209,0,0,0,0,0,0,0,0,0,-1,1826,1233,0,0
609,-209,0,0,0,0,0,0,0,0,0,-1,1833,1233,0,0
616,-209,0,0,0,0,0,0,0,0,0,-1,1840,1233,0,0
623,-209,47.7261,2.76892,-0.00442677,0.00292482,0.00165528,0.00328033,-0.00478228,1.35924,0.0046818,0.0356128,1847,1233,47.7261,-2.76898
630,-209,47.6572,2.68506,-0.00218724,0.00177597,0.000681171,0.00188978,-0.00230105,1.40525,0.00242346,0.0386707,1854,1233,47.6572,-2.68506
637,-209,47.666,2.69568,-0.000486255,0.00113333,-0.00023807,0.0011676,-0.000520525,-1.42783,0.00099822,0.0371037,1861,1233,47.666,-2.69562
644,-209,47.724,2.74805,0.000904732,0.000713088,-0.000983457,0.00179702,-0.000179205,-0.736834,0.001262,0.0320321,1868,1233,47.724,-2.74809
651,-209,47.7755,2.77905,0.00154757,0.000687825,-0.00145402,0.00263393,-0.000398535,-0.64167,0.00190276,0.0248872,1875,1233,47.7755,-2.77902
658,-209,47.7944,2.78967,0.00182517,0.000648084,-0.00166229,0.00300003,-0.000526779,-0.615257,0.00219677,0.0209078,1882,1233,47.7944,-2.78965
665,-209,47.8794,2.71631,0.00185606,0.000560511,-0.00145705,0.00280284,-0.000386265,-0.576229,0.00200973,0.0344659,1889,1233,47.8794,-2.71627
672,-209,47.9281,2.61914,0.00167955,0.00052841,-0.0011801,0.00241695,-0.000208998,-0.558507,0.00168529,0.0468182,1896,1233,47.9281,-2.61918
679,-209,48.0968,2.61548,0,0,0,0,0,0,0,-1,1903,1233,48.0968,-2.61547
686,-209,33.3711,3.89856,0,0,0,0,0,0,0,-1,1910,1233,33.3711,-3.89855
693,-209,38.2139,9.81458,0,0,0,0,0,0,0,-1,1917,1233,38.2139,-9.81454
700,-209,38.316,9.12927,0.000729334,0.00026889,-0.000161756,0.000780479,0.000217745,-0.306237,0.000465052,0.0423146,1924,1233,38.316,-9.12929
707,-209,38.4075,8.51172,0.000437586,9.68558e-05,0.000161718,0.000502119,3.23233e-05,0.379682,0.000324508,0.0345104,1931,1233,38.4074,-8.5117
714,-209,38.4398,8.11743,6.30724e-05,3.36468e-05,0.000568891,0.000617441,-0.000520722,0.77247,0.000657909,0.0187192,1938,1233,38.4399,-8.11738
721,-209,38.4557,7.69409,-0.000374585,-0.000144739,0.00108126,0.000827691,-0.00134701,0.838342,0.00126744,0.0122593,1945,1233,38.4556,-7.69414
728,-209,38.4709,7.29797,-0.000446484,-0.000417912,0.00144099,0.00100886,-0.00187326,0.790355,0.00168875,0.0121841,1952,1233,38.4709,-7.29799
735,-209,38.4478,6.86816,-0.000241387,-0.000526372,0.00162936,0.0012517,-0.00201946,0.741783,0.00190587,0.014261,1959,1233,38.4477,-6.86818
742,-209,38.4253,6.43811,0.000214905,-0.000569348,0.00179671,0.00166178,-0.00201623,0.67796,0.00212678,0.0143322,1966,1233,38.4253,-6.43815
749,-209,38.3933,6.01526,0.000996031,-0.000770301,0.00200567,0.00230437,-0.00207864,0.578004,0.00253165,0.0130351,1973,1233,38.3934,-6.01528
756,-209,38.3811,5.61816,0.00215815,-0.00104266,0.0021949,0.00327415,-0.00215866,0.470387,0.0031586,0.0122574,1980,1233,38.3811,-5.61817
763,-209,38.4001,5.29468,0.00392112,-0.00157109,0.00230946,0.00476315,-0.00241312,0.349621,0.00421662,0.0227042,1987,1233,38.4001,-5.29471
770,-209,38.5444,5.05273,0,0,0,0,0,0,0,-1,1994,1233,38.5444,-5.05274
777,-209,38.5304,4.56787,0,0,0,0,0,0,0,-1,2001,1233,38.5304,-4.56792
784,-209,40.3342,-2.14001,0,0,0,0,0,0,0,-1,2008,1233,40.3342,2.13997
791,-209,41.8398,1.573,0,0,0,0,0,0,0,-1,2015,1233,41.8399,-1.57295
798,-209,41.8267,2.67419,0,0,0,0,0,0,0,-1,2022,1233,41.8267,-2.67425
805,-209,0,0,0,0,0,0,0,0,0,-1,2029,1233,0,0
812,-209,0,0,0,0,0,0,0,0,0,-1,2036,1233,0,0
-700,-216,0,0,0,0,0,0,0,0,0,-1,524,1240,0,0
-693,-216,0,0,0,0,0,0,0,0,0,-1,531,1240,0,0
-686,-216,0,0,0,0,0,0,0,0,0,-1,538,1240,0,0
-679,-216,-29.4822,-3.25793,0,0,0,0,0,0,0,-1,545,1240,-29.4822,3.25797
-672,-216,-30.0974,-1.97449,0,0,0,0,0,0,0,-1,552,1240,-30.0974,1.9745
-665,-216,-29.3085,-0.704834,0,0,0,0,0,0,0,-1,559,1240,-29.3084,0.70479
-658,-216,-28.4547,0.654663,0,0,0,0,0,0,0,-1,566,1240,-28.4547,-0.654704
-651,-216,-32.0997,-9.95728,0,0,0,0,0,0,0,-1,573,1240,-32.0997,9.95729
-644,-216,-25.1531,2.25598,0,0,0,0,0,0,0,-1,580,1240,-25.1531,-2.25596
-637,-216,-24.8844,1.49768,0,0,0,0,0,0,0,-1,587,1240,-24.8844,-1.49773
-630,-216,-24.8049,2.29907,0.00301175,0.00597255,0.00633204,0.0109949,-0.00201064,0.900233,0.00808396,0.0313321,594,1240,-24.8049,-2.29912
-623,-216,-24.8155,3.0282,0.00235778,0.00474037,0.0045757,0.00827731,-0.00117916,0.912747,0.00595033,0.0143924,601,1240,-24.8155,-3.02814
-616,-216,-24.8888,3.49841,0.0018541,0.00346719,0.00302107,0.00578752,-0.000466239,0.915842,0.00402278,0.0139854,608,1240,-24.8888,-3.49843
-609,-216,-24.8984,3.95947,0.00160505,0.00230406,0.00172961,0.00371913,0.000189985,0.885091,0.00241858,0.0142104,615,1240,-24.8985,-3.95941
-602,-216,-24.9006,4.41418,0.00155349,0.00117128,0.000651763,0.00204159,0.000683183,0.642787,0.00120001,0.0138188,622,1240,-24.9006,-4.41416
-595,-216,-24.8804,4.87292,0.00168489,0.000262241,-2.41227e-05,0.0016853,0.000261832,-0.0169498,0.00104722,0.0177986,629,1240,-24.8804,-4.87297
-588,-216,-24.8846,5.36462,0.00208249,-0.000399028,-0.000253384,0.0021081,-0.000424636,-0.100724,0.00156625,0.0203826,636,1240,-24.8847,-5.36458
-581,-216,-24.856,5.8866,0.00251242,-0.00114471,-0.000344791,0.00254465,-0.00117693,-0.093185,0.00219649,0.0338076,643,1240,-24.856,-5.88655
-574,-216,-24.6783,6.35608,0,0,0,0,0,0,0,-1,650,1240,-24.6783,-6.35605
-567,-216,-25.1429,7.37817,0,0,0,0,0,0,0,-1,657,1240,-25.1429,-7.37818
-560,-216,-16.5087,5.4574,0,0,0,0,0,0,0,-1,664,1240,-16.5087,-5.45746
-553,-216,-16.2355,1.22351,0,0,0,0,0,0,0,-1,671,1240,-16.2356,-1.22356
-546,-216,-35.4055,1.00562,0,0,0,0,0,0,0,-1,678,1240,-35.4055,-1.00563
-539,-216,-35.166,1.09302,0.00255785,-0.0033472,0.000548862,0.00260843,-0.00339778,0.091899,0.00347766,0.0493564,685,1240,-35.166,-1.09305
-532,-216,-35.1252,1.21204,0.00204524,-0.00375111,0.000429317,0.00207687,-0.00378274,0.0735319,0.0034305,0.0470535,692,1240,-35.1252,-1.21206
-525,-216,-35.148,1.08606,0.00143179,-0.00418293,0.000170202,0.00143694,-0.00418808,0.0302764,0.0033746,0.0444819,699,1240,-35.148,-1.08605
-518,-216,-35.3422,1.18384,0.000795213,-0.00460888,-7.32907e-05,0.000796207,-0.00460987,-0.0135588,0.00337015,0.0403075,706,1240,-35.3422,-1.18383
-511,-216,-35.2762,1.02991,0.000989699,-0.00479004,0.00037428,0.00101384,-0.00481418,0.0643987,0.00359537,0.0404336,713,1240,-35.2762,-1.02992
-504,-216,-35.19,0.902222,0.00325393,-0.00504084,0.00249309,0.00394559,-0.00573249,0.270622,0.0056193,0.0413609,720,1240,-35.19,-0.902249
-497,-216,0,0,0,0,0,0,0,0,0,-1,727,1240,0,0
-490,-216,0,0,0,0,0,0,0,0,0,-1,734,1240,0,0
-483,-216,0,0,0,0,0,0,0,0,0,-1,741,1240,0,0
-476,-216,0,0,0,0,0,0,0,0,0,-1,748,1240,0,0
-469,-216,0,0,0,0,0,0,0,0,0,-1,755,1240,0,0
-462,-216,0,0,0,0,0,0,0,0,0,-1,762,1240,0,0
-455,-216,0,0,0,0,0,0,0,0,0,-1,769,1240,0,0
-448,-216,0,0,0,0,0,0,0,0,0,-1,776,1240,0,0
-441,-216,0,0,0,0,0,0,0,0,0,-1,783,1240,0,0
-434,-216,0,0,0,0,0,0,0,0,0,-1,790,1240,0,0
-427,-216,0,0,0,0,0,0,0,0,0,-1,797,1240,0,0
-420,-216,0,0,0,0,0,0,0,0,0,-1,804,1240,0,0
-413,-216,0,0,0,0,0,0,0,0,0,-1,811,1240,0,0
-406,-216,0,0,0,0,0,0,0,0,0,-1,818,1240,0,0
-399,-216,0,0,0,0,0,0,0,0,0,-1,825,1240,0,0
-392,-216,0,0,0,0,0,0,0,0,0,-1,832,1240,0,0
-385,-216,0,0,0,0,0,0,0,0,0,-1,839,1240,0,0
-378,-216,0,0,0,0,0,0,0,0,0,-1,846,1240,0,0
-371,-216,0,0,0,0,0,0,0,0,0,-1,853,1240,0,0
-364,-216,0,0,0,0,0,0,0,0,0,-1,860,1240,0,0
-357,-216,0,0,0,0,0,0,0,0,0,-1,867,1240,0,0
-350,-216,0,0,0,0,0,0,0,0,0,-1,874,1240,0,0
-343,-216,0,0,0,0,0,0,0,0,0,-1,881,1240,0,0
-336,-216,0,0,0,0,0,0,0,0,0,-1,888,1240,0,0
-329,-216,0,0,0,0,0,0,0,0,0,-1,895,1240,0,0
-322,-216,0,0,0,0,0,0,0,0,0,-1,902,1240,0,0
-315,-216,0,0,0,0,0,0,0,0,0,-1,909,1240,0,0
-308,-216,0,0,0,0,0,0,0,0,0,-1,916,1240,0,0
-301,-216,0,0,0,0,0,0,0,0,0,-1,923,1240,0,0
-294,-216,0,0,0,0,0,0,0,0,0,-1,930,1240,0,0
-287,-216,0,0,0,0,0,0,0,0,0,-1,937,1240,0,0
-280,-216,0,0,0,0,0,0,0,0,0,-1,944,1240,0,0
-273,-216,0,0,0,0,0,0,0,0,0,-1,951,1240,0,0
-266,-216,0,0,0,0,0,0,0,0,0,-1,958,1240,0,0
-259,-216,0,0,0,0,0,0,0,0,0,-1,965,1240,0,0
-252,-216,0,0,0,0,0,0,0,0,0,-1,972,1240,0,0
-245,-216,0,0,0,0,0,0,0,0,0,-1,979,1240,0,0
-238,-216,0,0,0,0,0,0,0,0,0,-1,986,1240,0,0
-231,-216,0,0,0,0,0,0,0,0,0,-1,993,1240,0,0
-224,-216,0,0,0,0,0,0,0,0,0,-1,1000,1240,0,0
-217,-216,0,0,0,0,0,0,0,0,0,-1,1007,1240,0,0
-210,-216,0,0,0,0,0,0,0,0,0,-1,1014,1240,0,0
-203,-216,0,0,0,0,0,0,0,0,0,-1,1021,1240,0,0
-196,-216,0,0,0,0,0,0,0,0,0,-1,1028,1240,0,0
-189,-216,0,0,0,0,0,0,0,0,0,-1,1035,1240,0,0
-182,-216,0,0,0,0,0,0,0,0,0,-1,1042,1240,0,0
-175,-216,0,0,0,0,0,0,0,0,0,-1,1049,1240,0,0
-168,-216,0,0,0,0,0,0,0,0,0,-1,1056,1240,0,0
-161,-216,0,0,0,0,0,0,0,0,0,-1,1063,1240,0,0
-154,-216,0,0,0,0,0,0,0,0,0,-1,1070,1240,0,0
-147,-216,0,0,0,0,0,0,0,0,0,-1,1077,1240,0,0
-140,-216,0,0,0,0,0,0,0,0,0,-1,1084,1240,0,0
-133,-216,0,0,0,0,0,0,0,0,0,-1,1091,1240,0,0
-126,-216,0,0,0,0,0,0,0,0,0,-1,1098,1240,0,0
-119,-216,0,0,0,0,0,0,0,0,0,-1,1105,1240,0,0
-112,-216,0,0,0,0,0,0,0,0,0,-1,1112,1240,0,0
-105,-216,0,0,0,0,0,0,0,0,0,-1,1119,1240,0,0
-98,-216,0,0,0,0,0,0,0,0,0,-1,1126,1240,0,0
-91,-216,0,0,0,0,0,0,0,0,0,-1,1133,1240,0,0
-84,-216,0,0,0,0,0,0,0,0,0,-1,1140,1240,0,0
-77,-216,0,0,0,0,0,0,0,0,0,-1,1147,1240,0,0
-70,-216,0,0,0,0,0,0,0,0,0,-1,1154,1240,0,0
-63,-216,0,0,0,0,0,0,0,0,0,-1,1161,1240,0,0
-56,-216,0,0,0,0,0,0,0,0,0,-1,1168,1240,0,0
-49,-216,0,0,0,0,0,0,0,0,0,-1,1175,1240,0,0
-42,-216,0,0,0,0,0,0,0,0,0,-1,1182,1240,0,0
-35,-216,0,0,0,0,0,0,0,0,0,-1,1189,1240,0,0
-28,-216,0,0,0,0,0,0,0,0,0,-1,1196,1240,0,0
-21,-216,0,0,0,0,0,0,0,0,0,-1,1203,1240,0,0
-14,-216,0,0,0,0,0,0,0,0,0,-1,1210,1240,0,0
-7,-216,0,0,0,0,0,0,0,0,0,-1,1217,1240,0,0
0,-216,0,0,0,0,0,0,0,0,0,-1,1224,1240,0,0
7,-216,0,0,0,0,0,0,0,0,0,-1,1231,1240,0,0
14,-216,0,0,0,0,0,0,0,0,0,-1,1238,1240,0,0
21,-216,0,0,0,0,0,0,0,0,0,-1,1245,1240,0,0
28,-216,0,0,0,0,0,0,0,0,0,-1,1252,1240,0,0
35,-216,0,0,0,0,0,0,0,0,0,-1,1259,1240,0,0
42,-216,0,0,0,0,0,0,0,0,0,-1,1266,1240,0,0
49,-216,0,0,0,0,0,0,0,0,0,-1,1273,1240,0,0
56,-216,0,0,0,0,0,0,0,0,0,-1,1280,1240,0,0
63,-216,0,0,0,0,0,0,0,0,0,-1,1287,1240,0,0
70,-216,0,0,0,0,0,0,0,0,0,-1,1294,1240,0,0
77,-216,0,0,0,0,0,0,0,0,0,-1,1301,1240,0,0
84,-216,0,0,0,0,0,0,0,0,0,-1,1308,1240,0,0
91,-216,0,0,0,0,0,0,0,0,0,-1,1315,1240,0,0
98,-216,0,0,0,0,0,0,0,0,0,-1,1322,1240,0,0
105,-216,0,0,0,0,0,0,0,0,0,-1,1329,1240,0,0
112,-216,0,0,0,0,0,0,0,0,0,-1,1336,1240,0,0
119,-216,0,0,0,0,0,0,0,0,0,-1,1343,1240,0,0
126,-216,0,0,0,0,0,0,0,0,0,-1,1350,1240,0,0
133,-216,0,0,0,0,0,0,0,0,0,-1,1357,1240,0,0
140,-216,0,0,0,0,0,0,0,0,0,-1,1364,1240,0,0
147,-216,0,0,0,0,0,0,0,0,0,-1,1371,1240,0,0
154,-216,0,0,0,0,0,0,0,0,0,-1,1378,1240,0,0
161,-216,0,0,0,0,0,0,0,0,0,-1,1385,1240,0,0
168,-216,0,0,0,0,0,0,0,0,0,-1,1392,1240,0,0
175,-216,0,0,0,0,0,0,0,0,0,-1,1399,1240,0,0
182,-216,0,0,0,0,0,0,0,0,0,-1,1406,1240,0,0
189,-216,0,0,0,0,0,0,0,0,0,-1,1413,1240,0,0
196,-216,0,0,0,0,0,0,0,0,0,-1,1420,1240,0,0
203,-216,0,0,0,0,0,0,0,0,0,-1,1427,1240,0,0
210,-216,0,0,0,0,0,0,0,0,0,-1,1434,1240,0,0
217,-216,0,0,0,0,0,0,0,0,0,-1,1441,1240,0,0
224,-216,0,0,0,0,0,0,0,0,0,-1,1448,1240,0,0
231,-216,0,0,0,0,0,0,0,0,0,-1,1455,1240,0,0
238,-216,0,0,0,0,0,0,0,0,0,-1,1462,1240,0,0
245,-216,0,0,0,0,0,0,0,0,0,-1,1469,1240,0,0
252,-216,0,0,0,0,0,0,0,0,0,-1,1476,1240,0,0
259,-216,0,0,0,0,0,0,0,0,0,-1,1483,1240,0,0
266,-216,0,0,0,0,0,0,0,0,0,-1,1490,1240,0,0
273,-216,0,0,0,0,0,0,0,0,0,-1,1497,1240,0,0
280,-216,0,0,0,0,0,0,0,0,0,-1,1504,1240,0,0
287,-216,0,0,0,0,0,0,0,0,0,-1,1511,1240,0,0
294,-216,0,0,0,0,0,0,0,0,0,-1,1518,1240,0,0
301,-216,0,0,0,0,0,0,0,0,0,-1,1525,1240,0,0
308,-216,0,0,0,0,0,0,0,0,0,-1,1532,1240,0,0
315,-216,0,0,0,0,0,0,0,0,0,-1,1539,1240,0,0
322,-216,0,0,0,0,0,0,0,0,0,-1,1546,1240,0,0
329,-216,0,0,0,0,0,0,0,0,0,-1,1553,1240,0,0
336,-216,0,0,0,0,0,0,0,0,0,-1,1560,1240,0,0
343,-216,0,0,0,0,0,0,0,0,0,-1,1567,1240,0,0
350,-216,0,0,0,0,0,0,0,0,0,-1,1574,1240,0,0
357,-216,0,0,0,0,0,0,0,0,0,-1,1581,1240,0,0
364,-216,0,0,0,0,0,0,0,0,0,-1,1588,1240,0,0
371,-216,0,0,0,0,0,0,0,0,0,-1,1595,1240,0,0
378,-216,0,0,0,0,0,0,0,0,0,-1,1602,1240,0,0
385,-216,0,0,0,0,0,0,0,0,0,-1,1609,1240,0,0
392,-216,0,0,0,0,0,0,0,0,0,-1,1616,1240,0,0
399,-216,0,0,0,0,0,0,0,0,0,-1,1623,1240,0,0
406,-216,0,0,0,0,0,0,0,0,0,-1,1630,1240,0,0
413,-216,0,0,0,0,0,0,0,0,0,-1,1637,1240,0,0
420,-216,0,0,0,0,0,0,0,0,0,-1,1644,1240,0,0
427,-216,0,0,0,0,0,0,0,0,0,-1,1651,1240,0,0
434,-216,0,0,0,0,0,0,0,0,0,-1,1658,1240,0,0
441,-216,0,0,0,0,0,0,0,0,0,-1,1665,1240,0,0
448,-216,0,0,0,0,0,0,0,0,0,-1,1672,1240,0,0
455,-216,0,0,0,0,0,0,0,0,0,-1,1679,1240,0,0
462,-216,0,0,0,0,0,0,0,0,0,-1,1686,1240,0,0
469,-216,0,0,0,0,0,0,0,0,0,-1,1693,1240,0,0
476,-216,0,0,0,0,0,0,0,0,0,-1,1700,1240,0,0
483,-216,0,0,0,0,0,0,0,0,0,-1,1707,1240,0,0
490,-216,0,0,0,0,0,0,0,0,0,-1,1714,1240,0,0
497,-216,0,0,0,0,0,0,0,0,0,-1,1721,1240,0,0
504,-216,0,0,0,0,0,0,0,0,0,-1,1728,1240,0,0
511,-216,0,0,0,0,0,0,0,0,0,-1,1735,1240,0,0
518,-216,0,0,0,0,0,0,0,0,0,-1,1742,1240,0,0
525,-216,0,0,0,0,0,0,0,0,0,-1,1749,1240,0,0
532,-216,0,0,0,0,0,0,0,0,0,-1,1756,1240,0,0
539,-216,0,0,0,0,0,0,0,0,0,-1,1763,1240,0,0
546,-216,0,0,0,0,0,0,0,0,0,-1,1770,1240,0,0
553,-216,0,0,0,0,0,0,0,0,0,-1,1777,1240,0,0
560,-216,0,0,0,0,0,0,0,0,0,-1,1784,1240,0,0
567,-216,0,0,0,0,0,0,0,0,0,-1,1791,1240,0,0
574,-216,0,0,0,0,0,0,0,0,0,-1,1798,1240,0,0
581,-216,0,0,0,0,0,0,0,0,0,-1,1805,1240,0,0
588,-216,0,0,0,0,0,0,0,0,0,-1,1812,1240,0,0
595,-216,0,0,0,0,0,0,0,0,0,-1,1819,1240,0,0
602,-216,0,0,0,0,0,0,0,0,0,-1,1826,1240,0,0
609,-216,0,0,0,0,0,0,0,0,0,-1,1833,1240,0,0
616,-216,0,0,0,0,0,0,0,0,0,-1,1840,1240,0,0
623,-216,47.7766,2.72937,-0.00428096,0.00251838,0.00177011,0.0029516,-0.00471418,1.33077,0.00446467,0.040071,1847,1240,47.7767,-2.7294
630,-216,47.7373,2.67908,-0.00162718,0.0012218,0.000785913,0.00142422,-0.0018296,1.31872,0.00188344,0.0388263,1854,1240,47.7374,-2.67909
637,-216,47.7213,2.69995,0.000527407,0.000404116,-0.000203136,0.000678045,0.000253478,-0.638079,0.000395602,0.0347485,1861,1240,47.7214,-2.70001
644,-216,47.7358,2.75708,0.00192306,1.80381e-05,-0.000822252,0.00222887,-0.000287773,-0.356067,0.00159054,0.0277002,1868,1240,47.7358,-2.75705
651,-216,47.7635,2.79102,0.00230567,9.54314e-05,-0.00124374,0.00286434,-0.000463233,-0.422173,0.00208122,0.0226513,1875,1240,47.7636,-2.79105
658,-216,47.8501,2.84985,0.00233708,0.00013232,-0.00139991,0.00301655,-0.000547153,-0.451874,0.00221605,0.0309078,1882,1240,47.8501,-2.84982
665,-216,48.0945,2.83008,0.00218999,0.000117564,-0.00121355,0.00274953,-0.00044198,-0.43203,0.00199672,0.0430458,1889,1240,48.0945,-2.83013
672,-216,48.347,2.7666,0,0,0,0,0,0,0,-1,1896,1240,48.347,-2.76662
679,-216,47.3159,3.82703,0,0,0,0,0,0,0,-1,1903,1240,47.316,-3.82708
686,-216,21.5172,6.19458,0,0,0,0,0,0,0,-1,1910,1240,21.5172,-6.19453
693,-216,38.6344,9.13721,0,0,0,0,0,0,0,-1,1917,1240,38.6344,-9.13724
700,-216,37.9948,9.09644,0.000778221,0.00024361,-0.000154831,0.000819825,0.000202006,-0.262503,0.000493202,0.0386506,1924,1240,37.9947,-9.09638
707,-216,37.9828,8.60376,0.000437205,4.00855e-05,0.000192288,0.000515052,-3.77611e-05,0.384676,0.000356622,0.031092,1931,1240,37.9828,-8.60379
714,-216,38.0267,8.14844,4.19644e-05,-1.42809e-05,0.000664218,0.000678655,-0.000650972,0.764241,0.000767716,0.0143503,1938,1240,38.0268,-8.14843
721,-216,38.0363,7.73853,-0.000348531,-0.000166156,0.00119644,0.000942571,-0.00145726,0.823432,0.00139612,0.0126607,1945,1240,38.0363,-7.73852
728,-216,38.0603,7.31104,-0.000366606,-0.00041801,0.0015395,0.0011474,-0.00193202,0.777051,0.00179704,0.0117464,1952,1240,38.0603,-7.31109
735,-216,38.0538,6.88538,-0.000136137,-0.000554027,0.001767,0.00143422,-0.00212439,0.726547,0.00206741,0.0130154,1959,1240,38.0538,-6.88541
742,-216,37.994,6.48328,0.000299256,-0.000680391,0.00200753,0.00187586,-0.00225699,0.66574,0.00238948,0.0147724,1966,1240,37.9941,-6.48327
749,-216,37.9736,6.04102,0.00103634,-0.000932778,0.00230615,0.00255931,-0.00245574,0.583647,0.00289565,0.0121888,1973,1240,37.9736,-6.04103
756,-216,37.9376,5.61682,0.00221742,-0.00126064,0.00254771,0.00356304,-0.00260626,0.485927,0.0035761,0.0126126,1980,1240,37.9376,-5.61678
763,-216,37.9381,5.26416,0.00410643,-0.00187747,0.00272057,0.0051584,-0.00292944,0.368964,0.00472826,0.0209144,1987,1240,37.9381,-5.26412
770,-216,38.1976,4.77612,0.00699385,-0.00289405,0.00315181,0.00791305,-0.00381326,0.283772,0.00690674,0.0447745,1994,1240,38.1976,-4.77617
777,-216,38.5032,4.28967,0,0,0,0,0,0,0,-1,2001,1240,38.5032,-4.28968
784,-216,42.4829,-1.97656,0,0,0,0,0,0,0,-1,2008,1240,42.4828,1.97653
791,-216,41.0908,0.603882,0,0,0,0,0,0,0,-1,2015,1240,41.0908,-0.603931
798,-216,0,0,0,0,0,0,0,0,0,-1,2022,1240,0,0
805,-216,0,0,0,0,0,0,0,0,0,-1,2029,1240,0,0
812,-216,0,0,0,0,0,0,0,0,0,-1,2036,1240,0,0
-700,-223,0,0,0,0,0,0,0,0,0,-1,524,1247,0,0
-693,-223,0,0,0,0,0,0,0,0,0,-1,531,1247,0,0
-686,-223,0,0,0,0,0,0,0,0,0,-1,538,1247,0,0
-679,-223,0,0,0,0,0,0,0,0,0,-1,545,1247,0,0
-672,-223,-30.0311,-12.17,0,0,0,0,0,0,0,-1,552,1247,-30.0311,12.17
-665,-223,-30.4604,-12.1311,0,0,0,0,0,0,0,-1,559,1247,-30.4604,12.1311
-658,-223,-31.1181,-11.9969,0,0,0,0,0,0,0,-1,566,1247,-31.1181,11.997
-651,-223,-31.4391,-11.8546,0,0,0,0,0,0,0,-1,573,1247,-31.4391,11.8546
-644,-223,-31.4351,-11.5337,0,0,0,0,0,0,0,-1,580,1247,-31.435,11.5337
-637,-223,-24.8433,1.30151,0,0,0,0,0,0,0,-1,587,1247,-24.8433,-1.30148
-630,-223,-24.5956,2.15906,0.0052442,0.00745178,0.00792808,0.0143525,-0.00165656,0.854566,0.0101656,0.0436292,594,1247,-24.5956,-2.15908
-623,-223,-24.4056,2.99231,0.00402351,0.00589068,0.00580727,0.0108389,-0.00092474,0.865097,0.00755309,0.0222771,601,1247,-24.4056,-2.99234
-616,-223,-24.4097,3.48584,0.00306345,0.0043181,0.00397361,0.0077136,-0.000332056,0.863688,0.00525658,0.0150568,608,1247,-24.4097,-3.48579
-609,-223,-24.4016,3.96423,0.00252102,0.00297463,0.00252821,0.00528619,0.000209463,0.830133,0.00345642,0.0121129,615,1247,-24.4016,-3.9642
-602,-223,-24.4171,4.41394,0.00227964,0.00171648,0.00134722,0.00337439,0.00062173,0.682377,0.00207365,0.0151947,622,1247,-24.4171,-4.41396
-595,-223,-24.4159,4.90515,0.00233811,0.000713055,0.000555187,0.00250967,0.000541492,0.299709,0.00152501,0.0208013,629,1247,-24.4159,-4.90512
-588,-223,-24.4301,5.37964,0.00269714,-7.34134e-07,0.000198636,0.00271169,-1.52807e-05,0.0731015,0.00181291,0.0230247,636,1247,-24.43,-5.37966
-581,-223,-24.4865,5.84326,0.0031137,-0.000709957,4.84016e-05,0.00311431,-0.00071057,0.0126558,0.00234916,0.0211822,643,1247,-24.4865,-5.84329
-574,-223,-24.4349,6.35449,0.0032445,-0.001091,0.000203299,0.00325401,-0.00110052,0.046755,0.00261456,0.0250169,650,1247,-24.4349,-6.35453
-567,-223,-24.3218,7.00769,0.00336491,-0.00129213,0.000611058,0.00344375,-0.00137098,0.128318,0.00286437,0.0400389,657,1247,-24.3218,-7.00768
-560,-223,-24.4076,7.6698,0,0,0,0,0,0,0,-1,664,1247,-24.4076,-7.66984
-553,-223,-11.4025,4.14722,0,0,0,0,0,0,0,-1,671,1247,-11.4025,-4.14719
-546,-223,-26.9034,-0.148682,0,0,0,0,0,0,0,-1,678,1247,-26.9034,0.14867
-539,-223,-34.9533,1.19617,0,0,0,0,0,0,0,-1,685,1247,-34.9533,-1.19611
-532,-223,-35.0615,1.23596,0,0,0,0,0,0,0,-1,692,1247,-35.0615,-1.23599
-525,-223,-35.0012,0.87561,0,0,0,0,0,0,0,-1,699,1247,-35.0012,-0.87562
-518,-223,-35.2591,1.06299,0,0,0,0,0,0,0,-1,706,1247,-35.2591,-1.06305
-511,-223,-35.3258,1.08716,-0.000100568,-0.00536784,-0.000464177,-5.99753e-05,-0.00540843,-0.0872289,0.0035858,0.0372223,713,1247,-35.3258,-1.08713
-504,-223,-35.3062,1.04126,0.000464401,-0.00587016,0.000333485,0.000481909,-0.00588767,0.0524521,0.00409521,0.038517,720,1247,-35.3062,-1.04126
-497,-223,0,0,0,0,0,0,0,0,0,-1,727,1247,0,0
-490,-223,0,0,0,0,0,0,0,0,0,-1,734,1247,0,0
-483,-223,0,0,0,0,0,0,0,0,0,-1,741,1247,0,0
-476,-223,0,0,0,0,0,0,0,0,0,-1,748,1247,0,0
-469,-223,0,0,0,0,0,0,0,0,0,-1,755,1247,0,0
-462,-223,0,0,0,0,0,0,0,0,0,-1,762,1247,0,0
-455,-223,0,0,0,0,0,0,0,0,0,-1,769,1247,0,0
-448,-223,0,0,0,0,0,0,0,0,0,-1,776,1247,0,0
-441,-223,0,0,0,0,0,0,0,0,0,-1,783,1247,0,0
-434,-223,0,0,0,0,0,0,0,0,0,-1,790,1247,0,0
-427,-223,0,0,0,0,0,0,0,0,0,-1,797,1247,0,0
-420,-223,0,0,0,0,0,0,0,0,0,-1,804,1247,0,0
-413,-223,0,0,0,0,0,0,0,0,0,-1,811,1247,0,0
-406,-223,0,0,0,0,0,0,0,0,0,-1,818,1247,0,0
-399,-223,0,0,0,0,0,0,0,0,0,-1,825,1247,0,0
-392,-223,0,0,0,0,0,0,0,0,0,-1,832,1247,0,0
-385,-223,0,0,0,0,0,0,0,0,0,-1,839,1247,0,0
-378,-223,0,0,0,0,0,0,0,0,0,-1,846,1247,0,0
-371,-223,0,0,0,0,0,0,0,0,0,-1,853,1247,0,0
-364,-223,0,0,0,0,0,0,0,0,0,-1,860,1247,0,0
-357,-223,0,0,0,0,0,0,0,0,0,-1,867,1247,0,0
-350,-223,0,0,0,0,0,0,0,0,0,-1,874,1247,0,0
-343,-223,0,0,0,0,0,0,0,0,0,-1,881,1247,0,0
-336,-223,0,0,0,0,0,0,0,0,0,-1,888,1247,0,0
-329,-223,0,0,0,0,0,0,0,0,0,-1,895,1247,0,0
-322,-223,0,0,0,0,0,0,0,0,0,-1,902,1247,0,0
-315,-223,0,0,0,0,0,0,0,0,0,-1,909,1247,0,0
-308,-223,0,0,0,0,0,0,0,0,0,-1,916,1247,0,0
-301,-223,0,0,0,0,0,0,0,0,0,-1,923,1247,0,0
-294,-223,0,0,0,0,0,0,0,0,0,-1,930,1247,0,0
-287,-223,0,0,0,0,0,0,0,0,0,-1,937,1247,0,0
-280,-223,0,0,0,0,0,0,0,0,0,-1,944,1247,0,0
-273,-223,0,0,0,0,0,0,0,0,0,-1,951,1247,0,0
-266,-223,0,0,0,0,0,0,0,0,0,-1,958,1247,0,0
-259,-223,0,0,0,0,0,0,0,0,0,-1,965,1247,0,0
-252,-223,0,0,0,0,0,0,0,0,0,-1,972,1247,0,0
-245,-223,0,0,0,0,0,0,0,0,0,-1,979,1247,0,0
-238,-223,0,0,0,0,0,0,0,0,0,-1,986,1247,0,0
-231,-223,0,0,0,0,0,0,0,0,0,-1,993,1247,0,0
-224,-223,0,0,0,0,0,0,0,0,0,-1,1000,1247,0,0
-217,-223,0,0,0,0,0,0,0,0,0,-1,1007,1247,0,0
-210,-223,0,0,0,0,0,0,0,0,0,-1,1014,1247,0,0
-203,-223,0,0,0,0,0,0,0,0,0,-1,1021,1247,0,0
-196,-223,0,0,0,0,0,0,0,0,0,-1,1028,1247,0,0
-189,-223,0,0,0,0,0,0,0,0,0,-1,1035,1247,0,0
-182,-223,0,0,0,0,0,0,0,0,0,-1,1042,1247,0,0
-175,-223,0,0,0,0,0,0,0,0,0,-1,1049,1247,0,0
-168,-223,0,0,0,0,0,0,0,0,0,-1,1056,1247,0,0
-161,-223,0,0,0,0,0,0,0,0,0,-1,1063,1247,0,0
-154,-223,0,0,0,0,0,0,0,0,0,-1,1070,1247,0,0
-147,-223,0,0,0,0,0,0,0,0,0,-1,1077,1247,0,0
-140,-223,0,0,0,0,0,0,0,0,0,-1,1084,1247,0,0
-133,-223,0,0,0,0,0,0,0,0,0,-1,1091,1247,0,0
-126,-223,0,0,0,0,0,0,0,0,0,-1,1098,1247,0,0
-119,-223,0,0,0,0,0,0,0,0,0,-1,1105,1247,0,0
-112,-223,0,0,0,0,0,0,0,0,0,-1,1112,1247,0,0
-105,-223,0,0,0,0,0,0,0,0,0,-1,1119,1247,0,0
-98,-223,0,0,0,0,0,0,0,0,0,-1,1126,1247,0,0
-91,-223,0,0,0,0,0,0,0,0,0,-1,1133,1247,0,0
-84,-223,0,0,0,0,0,0,0,0,0,-1,1140,1247,0,0
-77,-223,0,0,0,0,0,0,0,0,0,-1,1147,1247,0,0
-70,-223,0,0,0,0,0,0,0,0,0,-1,1154,1247,0,0
-63,-223,0,0,0,0,0,0,0,0,0,-1,1161,1247,0,0
-56,-223,0,0,0,0,0,0,0,0,0,-1,1168,1247,0,0
-49,-223,0,0,0,0,0,0,0,0,0,-1,1175,1247,0,0
-42,-223,0,0,0,0,0,0,0,0,0,-1,1182,1247,0,0
-35,-223,0,0,0,0,0,0,0,0,0,-1,1189,1247,0,0
-28,-223,0,0,0,0,0,0,0,0,0,-1,1196,1247,0,0
-21,-223,0,0,0,0,0,0,0,0,0,-1,1203,1247,0,0
-14,-223,0,0,0,0,0,0,0,0,0,-1,1210,1247,0,0
-7,-223,0,0,0,0,0,0,0,0,0,-1,1217,1247,0,0
0,-223,0,0,0,0,0,0,0,0,0,-1,1224,1247,0,0
7,-223,0,0,0,0,0,0,0,0,0,-1,1231,1247,0,0
14,-223,0,0,0,0,0,0,0,0,0,-1,1238,1247,0,0
21,-223,0,0,0,0,0,0,0,0,0,-1,1245,1247,0,0
28,-223,0,0,0,0,0,0,0,0,0,-1,1252,1247,0,0
35,-223,0,0,0,0,0,0,0,0,0,-1,1259,1247,0,0
42,-223,0,0,0,0,0,0,0,0,0,-1,1266,1247,0,0
49,-223,0,0,0,0,0,0,0,0,0,-1,1273,1247,0,0
56,-223,0,0,0,0,0,0,0,0,0,-1,1280,1247,0,0
63,-223,0,0,0,0,0,0,0,0,0,-1,1287,1247,0,0
70,-223,0,0,0,0,0,0,0,0,0,-1,1294,1247,0,0
77,-223,0,0,0,0,0,0,0,0,0,-1,1301,1247,0,0
84,-223,0,0,0,0,0,0,0,0,0,-1,1308,1247,0,0
91,-223,0,0,0,0,0,0,0,0,0,-1,1315,1247,0,0
98,-223,0,0,0,0,0,0,0,0,0,-1,1322,1247,0,0
105,-223,0,0,0,0,0,0,0,0,0,-1,1329,1247,0,0
112,-223,0,0,0,0,0,0,0,0,0,-1,1336,1247,0,0
119,-223,0,0,0,0,0,0,0,0,0,-1,1343,1247,0,0
126,-223,0,0,0,0,0,0,0,0,0,-1,1350,1247,0,0
133,-223,0,0,0,0,0,0,0,0,0,-1,1357,1247,0,0
140,-223,0,0,0,0,0,0,0,0,0,-1,1364,1247,0,0
147,-223,0,0,0,0,0,0,0,0,0,-1,1371,1247,0,0
154,-223,0,0,0,0,0,0,0,0,0,-1,1378,1247,0,0
161,-223,0,0,0,0,0,0,0,0,0,-1,1385,1247,0,0
168,-223,0,0,0,0,0,0,0,0,0,-1,1392,1247,0,0
175,-223,0,0,0,0,0,0,0,0,0,-1,1399,1247,0,0
182,-223,0,0,0,0,0,0,0,0,0,-1,1406,1247,0,0
189,-223,0,0,0,0,0,0,0,0,0,-1,1413,1247,0,0
196,-223,0,0,0,0,0,0,0,0,0,-1,1420,1247,0,0
203,-223,0,0,0,0,0,0,0,0,0,-1,1427,1247,0,0
210,-223,0,0,0,0,0,0,0,0,0,-1,1434,1247,0,0
217,-223,0,0,0,0,0,0,0,0,0,-1,1441,1247,0,0
224,-223,0,0,0,0,0,0,0,0,0,-1,1448,1247,0,0
231,-223,0,0,0,0,0,0,0,0,0,-1,1455,1247,0,0
238,-223,0,0,0,0,0,0,0,0,0,-1,1462,1247,0,0
245,-223,0,0,0,0,0,0,0,0,0,-1,1469,1247,0,0
252,-223,0,0,0,0,0,0,0,0,0,-1,1476,1247,0,0
259,-223,0,0,0,0,0,0,0,0,0,-1,1483,1247,0,0
266,-223,0,0,0,0,0,0,0,0,0,-1,1490,1247,0,0
273,-223,0,0,0,0,0,0,0,0,0,-1,1497,1247,0,0
280,-223,0,0,0,0,0,0,0,0,0,-1,1504,1247,0,0
287,-223,0,0,0,0,0,0,0,0,0,-1,1511,1247,0,0
294,-223,0,0,0,0,0,0,0,0,0,-1,1518,1247,0,0
301,-223,0,0,0,0,0,0,0,0,0,-1,1525,1247,0,0
308,-223,0,0,0,0,0,0,0,0,0,-1,1532,1247,0,0
315,-223,0,0,0,0,0,0,0,0,0,-1,1539,1247,0,0
322,-223,0,0,0,0,0,0,0,0,0,-1,1546,1247,0,0
329,-223,0,0,0,0,0,0,0,0,0,-1,1553,1247,0,0
336,-223,0,0,0,0,0,0,0,0,0,-1,1560,1247,0,0
343,-223,0,0,0,0,0,0,0,0,0,-1,1567,1247,0,0
350,-223,0,0,0,0,0,0,0,0,0,-1,1574,1247,0,0
357,-223,0,0,0,0,0,0,0,0,0,-1,1581,1247,0,0
364,-223,0,0,0,0,0,0,0,0,0,-1,1588,1247,0,0
371,-223,0,0,0,0,0,0,0,0,0,-1,1595,1247,0,0
378,-223,0,0,0,0,0,0,0,0,0,-1,1602,1247,0,0
385,-223,0,0,0,0,0,0,0,0,0,-1,1609,1247,0,0
392,-223,0,0,0,0,0,0,0,0,0,-1,1616,1247,0,0
399,-223,0,0,0,0,0,0,0,0,0,-1,1623,1247,0,0
406,-223,0,0,0,0,0,0,0,0,0,-1,1630,1247,0,0
413,-223,0,0,0,0,0,0,0,0,0,-1,1637,1247,0,0
420,-223,0,0,0,0,0,0,0,0,0,-1,1644,1247,0,0
427,-223,0,0,0,0,0,0,0,0,0,-1,1651,1247,0,0
434,-223,0,0,0,0,0,0,0,0,0,-1,1658,1247,0,0
441,-223,0,0,0,0,0,0,0,0,0,-1,1665,1247,0,0
448,-223,0,0,0,0,0,0,0,0,0,-1,1672,1247,0,0
455,-223,0,0,0,0,0,0,0,0,0,-1,1679,1247,0,0
462,-223,0,0,0,0,0,0,0,0,0,-1,1686,1247,0,0
469,-223,0,0,0,0,0,0,0,0,0,-1,1693,1247,0,0
476,-223,0,0,0,0,0,0,0,0,0,-1,1700,1247,0,0
483,-223,0,0,0,0,0,0,0,0,0,-1,1707,1247,0,0
490,-223,0,0,0,0,0,0,0,0,0,-1,1714,1247,0,0
497,-223,0,0,0,0,0,0,0,0,0,-1,1721,1247,0,0
504,-223,0,0,0,0,0,0,0,0,0,-1,1728,1247,0,0
511,-223,0,0,0,0,0,0,0,0,0,-1,1735,1247,0,0
518,-223,0,0,0,0,0,0,0,0,0,-1,1742,1247,0,0
525,-223,0,0,0,0,0,0,0,0,0,-1,1749,1247,0,0
532,-223,0,0,0,0,0,0,0,0,0,-1,1756,1247,0,0
539,-223,0,0,0,0,0,0,0,0,0,-1,1763,1247,0,0
546,-223,0,0,0,0,0,0,0,0,0,-1,1770,1247,0,0
553,-223,0,0,0,0,0,0,0,0,0,-1,1777,1247,0,0
560,-223,0,0,0,0,0,0,0,0,0,-1,1784,1247,0,0
567,-223,0,0,0,0,0,0,0,0,0,-1,1791,1247,0,0
574,-223,0,0,0,0,0,0,0,0,0,-1,1798,1247,0,0
581,-223,0,0,0,0,0,0,0,0,0,-1,1805,1247,0,0
588,-223,0,0,0,0,0,0,0,0,0,-1,1812,1247,0,0
595,-223,0,0,0,0,0,0,0,0,0,-1,1819,1247,0,0
602,-223,0,0,0,0,0,0,0,0,0,-1,1826,1247,0,0
609,-223,0,0,0,0,0,0,0,0,0,-1,1833,1247,0,0
616,-223,0,0,0,0,0,0,0,0,0,-1,1840,1247,0,0
623,-223,47.7611,2.67419,-0.00406202,0.00236097,0.0015984,0.00273676,-0.00443781,1.33989,0.00418087,0.0397836,1847,1247,47.7611,-2.67425
630,-223,47.7163,2.70154,-0.000530277,0.00103207,0.000675744,0.00128378,-0.000781994,1.21422,0.00120435,0.036575,1854,1247,47.7163,-2.70148
637,-223,47.7515,2.74841,0.00240267,0.000123918,-0.000330045,0.00244951,7.70785e-05,-0.140978,0.00160793,0.0313455,1861,1247,47.7514,-2.74841
644,-223,47.74,2.7948,0.00367877,-0.000175536,-0.000741291,0.00381642,-0.00031319,-0.183605,0.00265484,0.0246683,1868,1247,47.74,-2.79478
651,-223,47.7406,2.78992,0.00365286,-7.1198e-05,-0.00107245,0.00393962,-0.000357958,-0.261276,0.0027535,0.0305417,1875,1247,47.7406,-2.78996
658,-223,47.9119,2.90747,0,0,0,0,0,0,0,-1,1882,1247,47.9119,-2.90752
665,-223,48.2034,2.84717,0,0,0,0,0,0,0,-1,1889,1247,48.2034,-2.84716
672,-223,48.5055,2.81226,0,0,0,0,0,0,0,-1,1896,1247,48.5056,-2.81223
679,-223,43.2783,2.46973,0,0,0,0,0,0,0,-1,1903,1247,43.2784,-2.46978
686,-223,38.1482,9.75232,0,0,0,0,0,0,0,-1,1910,1247,38.1482,-9.75228
693,-223,37.9703,9.35608,0.00112334,0.000216762,-0.000516885,0.00135754,-1.74376e-05,-0.425428,0.000910896,0.0446684,1917,1247,37.9703,-9.3561
700,-223,37.7283,8.95679,0.00084562,0.000208043,-0.000111606,0.000864592,0.000189071,-0.168379,0.000524848,0.02352,1924,1247,37.7283,-8.95682
707,-223,37.6127,8.5752,0.00042927,-3.53702e-05,0.000245908,0.000535245,-0.000141345,0.406902,0.000412106,0.0182452,1931,1247,37.6126,-8.57521
714,-223,37.6044,8.18225,-2.3008e-05,-9.40931e-05,0.000756567,0.000698851,-0.000815952,0.761926,0.000875443,0.0118064,1938,1247,37.6044,-8.18219
721,-223,37.6144,7.74951,-0.000405819,-0.000222093,0.00130842,0.000997681,-0.00162559,0.820445,0.00152894,0.0146047,1945,1247,37.6144,-7.74956
728,-223,37.6136,7.30066,-0.000458017,-0.000446585,0.00167579,0.0012235,-0.00212811,0.787104,0.0019584,0.0165104,1952,1247,37.6137,-7.30071
735,-223,37.5835,6.90588,-0.000299909,-0.000601288,0.0019693,0.00152445,-0.00242565,0.747213,0.00230029,0.0159999,1959,1247,37.5835,-6.90585
742,-223,37.5262,6.51746,4.02358e-05,-0.000774596,0.00228609,0.00195493,-0.00268929,0.697216,0.00269249,0.0145556,1966,1247,37.5263,-6.51746
749,-223,37.5229,6.04443,0.000669966,-0.00104023,0.00267819,0.00262626,-0.00299652,0.630872,0.00324866,0.0131872,1973,1247,37.523,-6.04449
756,-223,37.485,5.61719,0.00178964,-0.00137518,0.0029649,0.00356799,-0.00315352,0.540271,0.00388312,0.0167881,1980,1247,37.485,-5.61713
763,-223,37.4713,5.27307,0.00370213,-0.00201189,0.00318266,0.00512202,-0.00343178,0.419632,0.00497057,0.0219855,1987,1247,37.4713,-5.27312
770,-223,37.6666,4.84619,0.00673509,-0.00302966,0.00365217,0.00794992,-0.00424449,0.32112,0.00714797,0.0472064,1994,1247,37.6667,-4.84614
777,-223,37.8763,4.39905,0,0,0,0,0,0,0,-1,2001,1247,37.8763,-4.39906
784,-223,35.1801,2.14172,0,0,0,0,0,0,0,-1,2008,1247,35.1801,-2.14178
791,-223,34.7136,2.92554,0,0,0,0,0,0,0,-1,2015,1247,34.7137,-2.92555
798,-223,0,0,0,0,0,0,0,0,0,-1,2022,1247,0,0
805,-223,0,0,0,0,0,0,0,0,0,-1,2029,1247,0,0
812,-223,0,0,0,0,0,0,0,0,0,-1,2036,1247,0,0
-700,-230,0,0,0,0,0,0,0,0,0,-1,524,1254,0,0
-693,-230,0,0,0,0,0,0,0,0,0,-1,531,1254,0,0
-686,-230,0,0,0,0,0,0,0,0,0,-1,538,1254,0,0
-679,-230,0,0,0,0,0,0,0,0,0,-1,545,1254,0,0
-672,-230,-29.5349,-13.78,0,0,0,0,0,0,0,-1,552,1254,-29.5349,13.78
-665,-230,-29.7554,-13.5834,0,0,0,0,0,0,0,-1,559,1254,-29.7554,13.5834
-658,-230,-30.4599,-13.5826,0,0,0,0,0,0,0,-1,566,1254,-30.4599,13.5827
-651,-230,-31.0204,-13.6718,0,0,0,0,0,0,0,-1,573,1254,-31.0204,13.6718
-644,-230,-22.1688,1.23816,0,0,0,0,0,0,0,-1,580,1254,-22.1688,-1.23818
-637,-230,-25.0955,2.2384,0,0,0,0,0,0,0,-1,587,1254,-25.0955,-2.23838
-630,-230,-24.285,2.12878,0,0,0,0,0,0,0,-1,594,1254,-24.285,-2.12882
-623,-230,-23.9341,2.93994,0.0065589,0.00740905,0.00737047,0.0143667,-0.000398745,0.814203,0.00971343,0.02862,601,1254,-23.9341,-2.93995
-616,-230,-23.9069,3.48389,0.00492327,0.00546349,0.00513349,0.010334,5.27883e-05,0.811682,0.00687179,0.0155268,608,1254,-23.9069,-3.48386
-609,-230,-23.8918,3.97485,0.00391533,0.00390075,0.0034441,0.00735215,0.000463934,0.78434,0.00475434,0.0114567,615,1254,-23.8918,-3.97488
-602,-230,-23.9135,4.4314,0.00331635,0.00246755,0.00209334,0.00502788,0.000756024,0.685384,0.00313049,0.011487,622,1254,-23.9135,-4.43141
-595,-230,-23.9424,4.91858,0.00312741,0.00131709,0.00114711,0.00368347,0.000761027,0.451374,0.00224538,0.0190331,629,1254,-23.9424,-4.91859
-588,-230,-23.9554,5.41296,0.00332495,0.00047317,0.000650154,0.00346618,0.000331941,0.213901,0.00220847,0.0264544,636,1254,-23.9554,-5.41293
-581,-230,-23.9836,5.90369,0.00365502,-0.000311765,0.000418022,0.00369859,-0.000355338,0.103861,0.00259231,0.0249756,643,1254,-23.9836,-5.9037
-574,-230,-23.9449,6.32178,0.00375445,-0.00078411,0.000483804,0.00380545,-0.00083511,0.105026,0.00285633,0.0216384,650,1254,-23.945,-6.32183
-567,-230,-23.8082,6.8175,0.00386083,-0.00102403,0.000845061,0.00400289,-0.00116609,0.16655,0.00313054,0.0376262,657,1254,-23.8082,-6.81753
-560,-230,-23.7053,7.31116,0,0,0,0,0,0,0,-1,664,1254,-23.7053,-7.31113
-553,-230,-13.1939,4.9718,0,0,0,0,0,0,0,-1,671,1254,-13.1939,-4.97175
-546,-230,-15.23,0.453979,0,0,0,0,0,0,0,-1,678,1254,-15.23,-0.453996
-539,-230,-25.8232,0.512817,0,0,0,0,0,0,0,-1,685,1254,-25.8232,-0.512878
-532,-230,-21.1644,1.52966,0,0,0,0,0,0,0,-1,692,1254,-21.1644,-1.52969
-525,-230,-29.4775,0.731445,0,0,0,0,0,0,0,-1,699,1254,-29.4775,-0.731432
-518,-230,-35.2045,1.10425,0,0,0,0,0,0,0,-1,706,1254,-35.2045,-1.10422
-511,-230,-35.2944,1.0957,-0.000753697,-0.00547069,-0.000589585,-0.00068112,-0.00554327,-0.122482,0.00349069,0.0388985,713,1254,-35.2944,-1.09568
-504,-230,-35.3348,1.0929,-0.00142493,-0.00624262,-0.000631961,-0.00134341,-0.00632413,-0.128284,0.00384728,0.0356657,720,1254,-35.3348,-1.09284
-497,-230,0,0,0,0,0,0,0,0,0,-1,727,1254,0,0
-490,-230,0,0,0,0,0,0,0,0,0,-1,734,1254,0,0
-483,-230,0,0,0,0,0,0,0,0,0,-1,741,1254,0,0
-476,-230,0,0,0,0,0,0,0,0,0,-1,748,1254,0,0
-469,-230,0,0,0,0,0,0,0,0,0,-1,755,1254,0,0
-462,-230,0,0,0,0,0,0,0,0,0,-1,762,1254,0,0
-455,-230,0,0,0,0,0,0,0,0,0,-1,769,1254,0,0
-448,-230,0,0,0,0,0,0,0,0,0,-1,776,1254,0,0
-441,-230,0,0,0,0,0,0,0,0,0,-1,783,1254,0,0
-434,-230,0,0,0,0,0,0,0,0,0,-1,790,1254,0,0
-427,-230,0,0,0,0,0,0,0,0,0,-1,797,1254,0,0
-420,-230,0,0,0,0,0,0,0,0,0,-1,804,1254,0,0
-413,-230,0,0,0,0,0,0,0,0,0,-1,811,1254,0,0
-406,-230,0,0,0,0,0,0,0,0,0,-1,818,1254,0,0
-399,-230,0,0,0,0,0,0,0,0,0,-1,825,1254,0,0
-392,-230,0,0,0,0,0,0,0,0,0,-1,832,1254,0,0
-385,-230,0,0,0,0,0,0,0,0,0,-1,839,1254,0,0
-378,-230,0,0,0,0,0,0,0,0,0,-1,846,1254,0,0
-371,-230,0,0,0,0,0,0,0,0,0,-1,853,1254,0,0
-364,-230,0,0,0,0,0,0,0,0,0,-1,860,1254,0,0
-357,-230,0,0,0,0,0,0,0,0,0,-1,867,1254,0,0
-350,-230,0,0,0,0,0,0,0,0,0,-1,874,1254,0,0
-343,-230,0,0,0,0,0,0,0,0,0,-1,881,1254,0,0
-336,-230,0,0,0,0,0,0,0,0,0,-1,888,1254,0,0
-329,-230,0,0,0,0,0,0,0,0,0,-1,895,1254,0,0
-322,-230,0,0,0,0,0,0,0,0,0,-1,902,1254,0,0
-315,-230,0,0,0,0,0,0,0,0,0,-1,909,1254,0,0
-308,-230,0,0,0,0,0,0,0,0,0,-1,916,1254,0,0
-301,-230,0,0,0,0,0,0,0,0,0,-1,923,1254,0,0
-294,-230,0,0,0,0,0,0,0,0,0,-1,930,1254,0,0
-287,-230,0,0,0,0,0,0,0,0,0,-1,937,1254,0,0
-280,-230,0,0,0,0,0,0,0,0,0,-1,944,1254,0,0
-273,-230,0,0,0,0,0,0,0,0,0,-1,951,1254,0,0
-266,-230,0,0,0,0,0,0,0,0,0,-1,958,1254,0,0
-259,-230,0,0,0,0,0,0,0,0,0,-1,965,1254,0,0
-252,-230,0,0,0,0,0,0,0,0,0,-1,972,1254,0,0
-245,-230,0,0,0,0,0,0,0,0,0,-1,979,1254,0,0
-238,-230,0,0,0,0,0,0,0,0,0,-1,986,1254,0,0
-231,-230,0,0,0,0,0,0,0,0,0,-1,993,1254,0,0
-224,-230,0,0,0,0,0,0,0,0,0,-1,1000,1254,0,0
-217,-230,0,0,0,0,0,0,0,0,0,-1,1007,1254,0,0
-210,-230,0,0,0,0,0,0,0,0,0,-1,1014,1254,0,0
-203,-230,0,0,0,0,0,0,0,0,0,-1,1021,1254,0,0
-196,-230,0,0,0,0,0,0,0,0,0,-1,1028,1254,0,0
-189,-230,0,0,0,0,0,0,0,0,0,-1,1035,1254,0,0
-182,-230,0,0,0,0,0,0,0,0,0,-1,1042,1254,0,0
-175,-230,0,0,0,0,0,0,0,0,0,-1,1049,1254,0,0
-168,-230,0,0,0,0,0,0,0,0,0,-1,1056,1254,0,0
-161,-230,0,0,0,0,0,0,0,0,0,-1,1063,1254,0,0
-154,-230,0,0,0,0,0,0,0,0,0,-1,1070,1254,0,0
-147,-230,0,0,0,0,0,0,0,0,0,-1,1077,1254,0,0
-140,-230,0,0,0,0,0,0,0,0,0,-1,1084,1254,0,0
-133,-230,0,0,0,0,0,0,0,0,0,-1,1091,1254,0,0
-126,-230,0,0,0,0,0,0,0,0,0,-1,1098,1254,0,0
-119,-230,0,0,0,0,0,0,0,0,0,-1,1105,1254,0,0
-112,-230,0,0,0,0,0,0,0,0,0,-1,1112,1254,0,0
-105,-230,0,0,0,0,0,0,0,0,0,-1,1119,1254,0,0
-98,-230,0,0,0,0,0,0,0,0,0,-1,1126,1254,0,0
-91,-230,0,0,0,0,0,0,0,0,0,-1,1133,1254,0,0
-84,-230,0,0,0,0,0,0,0,0,0,-1,1140,1254,0,0
-77,-230,0,0,0,0,0,0,0,0,0,-1,1147,1254,0,0
-70,-230,0,0,0,0,0,0,0,0,0,-1,1154,1254,0,0
-63,-230,0,0,0,0,0,0,0,0,0,-1,1161,1254,0,0
-56,-230,0,0,0,0,0,0,0,0,0,-1,1168,1254,0,0
-49,-230,0,0,0,0,0,0,0,0,0,-1,1175,1254,0,0
-42,-230,0,0,0,0,0,0,0,0,0,-1,1182,1254,0,0
-35,-230,0,0,0,0,0,0,0,0,0,-1,1189,1254,0,0
-28,-230,0,0,0,0,0,0,0,0,0,-1,1196,1254,0,0
-21,-230,0,0,0,0,0,0,0,0,0,-1,1203,1254,0,0
-14,-230,0,0,0,0,0,0,0,0,0,-1,1210,1254,0,0
-7,-230,0,0,0,0,0,0,0,0,0,-1,1217,1254,0,0
0,-230,0,0,0,0,0,0,0,0,0,-1,1224,1254,0,0
7,-230,0,0,0,0,0,0,0,0,0,-1,1231,1254,0,0
14,-230,0,0,0,0,0,0,0,0,0,-1,1238,1254,0,0
21,-230,0,0,0,0,0,0,0,0,0,-1,1245,1254,0,0
28,-230,0,0,0,0,0,0,0,0,0,-1,1252,1254,0,0
35,-230,0,0,0,0,0,0,0,0,0,-1,1259,1254,0,0
42,-230,0,0,0,0,0,0,0,0,0,-1,1266,1254,0,0
49,-230,0,0,0,0,0,0,0,0,0,-1,1273,1254,0,0
56,-230,0,0,0,0,0,0,0,0,0,-1,1280,1254,0,0
63,-230,0,0,0,0,0,0,0,0,0,-1,1287,1254,0,0
70,-230,0,0,0,0,0,0,0,0,0,-1,1294,1254,0,0
77,-230,0,0,0,0,0,0,0,0,0,-1,1301,1254,0,0
84,-230,0,0,0,0,0,0,0,0,0,-1,1308,1254,0,0
91,-230,0,0,0,0,0,0,0,0,0,-1,1315,1254,0,0
98,-230,0,0,0,0,0,0,0,0,0,-1,1322,1254,0,0
105,-230,0,0,0,0,0,0,0,0,0,-1,1329,1254,0,0
112,-230,0,0,0,0,0,0,0,0,0,-1,1336,1254,0,0
119,-230,0,0,0,0,0,0,0,0,0,-1,1343,1254,0,0
126,-230,0,0,0,0,0,0,0,0,0,-1,1350,1254,0,0
133,-230,0,0,0,0,0,0,0,0,0,-1,1357,1254,0,0
140,-230,0,0,0,0,0,0,0,0,0,-1,1364,1254,0,0
147,-230,0,0,0,0,0,0,0,0,0,-1,1371,1254,0,0
154,-230,0,0,0,0,0,0,0,0,0,-1,1378,1254,0,0
161,-230,0,0,0,0,0,0,0,0,0,-1,1385,1254,0,0
168,-230,0,0,0,0,0,0,0,0,0,-1,1392,1254,0,0
175,-230,0,0,0,0,0,0,0,0,0,-1,1399,1254,0,0
182,-230,0,0,0,0,0,0,0,0,0,-1,1406,1254,0,0
189,-230,0,0,0,0,0,0,0,0,0,-1,1413,1254,0,0
196,-230,0,0,0,0,0,0,0,0,0,-1,1420,1254,0,0
203,-230,0,0,0,0,0,0,0,0,0,-1,1427,1254,0,0
210,-230,0,0,0,0,0,0,0,0,0,-1,1434,1254,0,0
217,-230,0,0,0,0,0,0,0,0,0,-1,1441,1254,0,0
224,-230,0,0,0,0,0,0,0,0,0,-1,1448,1254,0,0
231,-230,0,0,0,0,0,0,0,0,0,-1,1455,1254,0,0
238,-230,0,0,0,0,0,0,0,0,0,-1,1462,1254,0,0
245,-230,0,0,0,0,0,0,0,0,0,-1,1469,1254,0,0
252,-230,0,0,0,0,0,0,0,0,0,-1,1476,1254,0,0
259,-230,0,0,0,0,0,0,0,0,0,-1,1483,1254,0,0
266,-230,0,0,0,0,0,0,0,0,0,-1,1490,1254,0,0
273,-230,0,0,0,0,0,0,0,0,0,-1,1497,1254,0,0
280,-230,0,0,0,0,0,0,0,0,0,-1,1504,1254,0,0
287,-230,0,0,0,0,0,0,0,0,0,-1,1511,1254,0,0
294,-230,0,0,0,0,0,0,0,0,0,-1,1518,1254,0,0
301,-230,0,0,0,0,0,0,0,0,0,-1,1525,1254,0,0
308,-230,0,0,0,0,0,0,0,0,0,-1,1532,1254,0,0
315,-230,0,0,0,0,0,0,0,0,0,-1,1539,1254,0,0
322,-230,0,0,0,0,0,0,0,0,0,-1,1546,1254,0,0
329,-230,0,0,0,0,0,0,0,0,0,-1,1553,1254,0,0
336,-230,0,0,0,0,0,0,0,0,0,-1,1560,1254,0,0
343,-230,0,0,0,0,0,0,0,0,0,-1,1567,1254,0,0
350,-230,0,0,0,0,0,0,0,0,0,-1,1574,1254,0,0
357,-230,0,0,0,0,0,0,0,0,0,-1,1581,1254,0,0
364,-230,0,0,0,0,0,0,0,0,0,-1,1588,1254,0,0
371,-230,0,0,0,0,0,0,0,0,0,-1,1595,1254,0,0
378,-230,0,0,0,0,0,0,0,0,0,-1,1602,1254,0,0
385,-230,0,0,0,0,0,0,0,0,0,-1,1609,1254,0,0
392,-230,0,0,0,0,0,0,0,0,0,-1,1616,1254,0,0
399,-230,0,0,0,0,0,0,0,0,0,-1,1623,1254,0,0
406,-230,0,0,0,0,0,0,0,0,0,-1,1630,1254,0,0
413,-230,0,0,0,0,0,0,0,0,0,-1,1637,1254,0,0
420,-230,0,0,0,0,0,0,0,0,0,-1,1644,1254,0,0
427,-230,0,0,0,0,0,0,0,0,0,-1,1651,1254,0,0
434,-230,0,0,0,0,0,0,0,0,0,-1,1658,1254,0,0
441,-230,0,0,0,0,0,0,0,0,0,-1,1665,1254,0,0
448,-230,0,0,0,0,0,0,0,0,0,-1,1672,1254,0,0
455,-230,0,0,0,0,0,0,0,0,0,-1,1679,1254,0,0
462,-230,0,0,0,0,0,0,0,0,0,-1,1686,1254,0,0
469,-230,0,0,0,0,0,0,0,0,0,-1,1693,1254,0,0
476,-230,0,0,0,0,0,0,0,0,0,-1,1700,1254,0,0
483,-230,0,0,0,0,0,0,0,0,0,-1,1707,1254,0,0
490,-230,0,0,0,0,0,0,0,0,0,-1,1714,1254,0,0
497,-230,0,0,0,0,0,0,0,0,0,-1,1721,1254,0,0
504,-230,0,0,0,0,0,0,0,0,0,-1,1728,1254,0,0
511,-230,0,0,0,0,0,0,0,0,0,-1,1735,1254,0,0
518,-230,0,0,0,0,0,0,0,0,0,-1,1742,1254,0,0
525,-230,0,0,0,0,0,0,0,0,0,-1,1749,1254,0,0
532,-230,0,0,0,0,0,0,0,0,0,-1,1756,1254,0,0
539,-230,0,0,0,0,0,0,0,0,0,-1,1763,1254,0,0
546,-230,0,0,0,0,0,0,0,0,0,-1,1770,1254,0,0
553,-230,0,0,0,0,0,0,0,0,0,-1,1777,1254,0,0
560,-230,0,0,0,0,0,0,0,0,0,-1,1784,1254,0,0
567,-230,0,0,0,0,0,0,0,0,0,-1,1791,1254,0,0
574,-230,0,0,0,0,0,0,0,0,0,-1,1798,1254,0,0
581,-230,0,0,0,0,0,0,0,0,0,-1,1805,1254,0,0
588,-230,0,0,0,0,0,0,0,0,0,-1,1812,1254,0,0
595,-230,0,0,0,0,0,0,0,0,0,-1,1819,1254,0,0
602,-230,0,0,0,0,0,0,0,0,0,-1,1826,1254,0,0
609,-230,0,0,0,0,0,0,0,0,0,-1,1833,1254,0,0
616,-230,47.8767,2.8208,-0.00790243,0.0043315,0.00102221,0.00441632,-0.00798726,1.48801,0.00725946,0.0374108,1840,1254,47.8767,-2.82076
623,-230,47.8101,2.72473,-0.00317135,0.00244535,0.00115739,0.0026745,-0.00340049,1.37534,0.00351574,0.0360517,1847,1254,47.8101,-2.72476
630,-230,47.741,2.72461,0.00103888,0.00103039,0.000763064,0.00179771,0.000271558,0.782616,0.00111899,0.0316951,1854,1254,47.741,-2.72461
637,-230,47.7158,2.82324,0.00439066,3.02168e-05,8.87368e-05,0.00439246,2.84116e-05,0.0203392,0.00291888,0.0272812,1861,1254,47.7158,-2.82322
644,-230,47.6428,2.77393,0.00511142,-0.000184106,-6.69763e-05,0.00511226,-0.000184953,-0.012645,0.00347147,0.0225162,1868,1254,47.6428,-2.7739
651,-230,47.6736,2.72949,0.00463508,-9.25022e-05,-0.000405538,0.00466962,-0.000127038,-0.0849542,0.00315628,0.0488663,1875,1254,47.6736,-2.72945
658,-230,47.703,2.72424,0,0,0,0,0,0,0,-1,1882,1254,47.703,-2.72423
665,-230,48.2299,2.78784,0,0,0,0,0,0,0,-1,1889,1254,48.2298,-2.78779
672,-230,43.0962,2.78699,0,0,0,0,0,0,0,-1,1896,1254,43.0962,-2.78698
679,-230,27.9967,2.37708,0,0,0,0,0,0,0,-1,1903,1254,27.9967,-2.3771
686,-230,37.1791,9.68237,0,0,0,0,0,0,0,-1,1910,1254,37.1791,-9.68237
693,-230,37.1945,9.40601,0.00117954,0.000232428,-0.000543413,0.00142679,-1.48155e-05,-0.42699,0.000956168,0.0469173,1917,1254,37.1945,-9.40606
700,-230,37.2281,9.0592,0.000893343,0.000239048,-0.000109675,0.000911237,0.000221153,-0.161736,0.000548833,0.0190824,1924,1254,37.2282,-9.05927
707,-230,37.1802,8.62805,0.000392065,-4.87836e-05,0.000244836,0.000501082,-0.000157801,0.41891,0.000397244,0.0106713,1931,1254,37.1802,-8.62801
714,-230,37.163,8.20776,-0.000146806,-0.000140026,0.000777712,0.000634303,-0.000921135,0.787578,0.000903108,0.0129504,1938,1254,37.1629,-8.20774
721,-230,37.1733,7.76599,-0.000556874,-0.000299559,0.00135453,0.00093241,-0.00178884,0.832748,0.00159684,0.0129946,1945,1254,37.1733,-7.76594
728,-230,37.1552,7.34558,-0.000686851,-0.000541866,0.00176975,0.00115688,-0.00238559,0.805868,0.00208585,0.0144695,1952,1254,37.1551,-7.3456
735,-230,37.1312,6.94189,-0.000662941,-0.000735805,0.00214202,0.00144295,-0.0028417,0.776895,0.0025173,0.0150393,1959,1254,37.1313,-6.94187
742,-230,37.0939,6.5022,-0.000485531,-0.00096271,0.00254006,0.00182712,-0.00327536,0.73857,0.00298521,0.0113493,1966,1254,37.0939,-6.50222
749,-230,37.0798,6.04688,-4.02872e-05,-0.00127533,0.0030395,0.00244379,-0.00375941,0.685179,0.00360817,0.0111767,1973,1254,37.0798,-6.04691
756,-230,37.052,5.62976,0.000918469,-0.00168029,0.00339714,0.00325626,-0.00401807,0.602737,0.00420751,0.0171885,1980,1254,37.052,-5.62982
763,-230,37.0868,5.15295,0.0027345,-0.00243849,0.00370299,0.00466487,-0.00436886,0.480543,0.00521656,0.0360331,1987,1254,37.0868,-5.15293
770,-230,37.2944,4.79541,0,0,0,0,0,0,0,-1,1994,1254,37.2944,-4.79542
777,-230,37.5939,4.58337,0,0,0,0,0,0,0,-1,2001,1254,37.5938,-4.58343
784,-230,35.8896,1.80334,0,0,0,0,0,0,0,-1,2008,1254,35.8897,-1.80338
791,-230,35.6028,2.20642,0,0,0,0,0,0,0,-1,2015,1254,35.6027,-2.2064
798,-230,0,0,0,0,0,0,0,0,0,-1,2022,1254,0,0
805,-230,0,0,0,0,0,0,0,0,0,-1,2029,1254,0,0
812,-230,0,0,0,0,0,0,0,0,0,-1,2036,1254,0,0
-700,-237,0,0,0,0,0,0,0,0,0,-1,524,1261,0,0
-693,-237,0,0,0,0,0,0,0,0,0,-1,531,1261,0,0
-686,-237,0,0,0,0,0,0,0,0,0,-1,538,1261,0,0
-679,-237,0,0,0,0,0,0,0,0,0,-1,545,1261,0,0
-672,-237,-29.0023,-15.6008,0,0,0,0,0,0,0,-1,552,1261,-29.0023,15.6009
-665,-237,-28.7714,-15.3932,0,0,0,0,0,0,0,-1,559,1261,-28.7714,15.3931
-658,-237,-29.5687,-15.5544,0,0,0,0,0,0,0,-1,566,1261,-29.5687,15.5545
-651,-237,-30.0585,-15.5795,0,0,0,0,0,0,0,-1,573,1261,-30.0585,15.5794
-644,-237,-22.7836,6.22681,0,0,0,0,0,0,0,-1,580,1261,-22.7836,-6.22677
-637,-237,-23.5365,0.484985,0,0,0,0,0,0,0,-1,587,1261,-23.5365,-0.484983
-630,-237,-23.3511,2.3075,0,0,0,0,0,0,0,-1,594,1261,-23.3511,-2.30747
-623,-237,-23.3813,2.95203,0.00897941,0.00908981,0.00863871,0.0176735,0.000395727,0.788593,0.0116527,0.0317473,601,1261,-23.3813,-2.95206
-616,-237,-23.373,3.5061,0.00654291,0.00667916,0.00604792,0.0126593,0.000562734,0.79103,0.00825837,0.0139929,608,1261,-23.3731,-3.50612
-609,-237,-23.3778,3.97058,0.00502547,0.00484804,0.00418,0.00911769,0.000755814,0.774788,0.00584284,0.0160365,615,1261,-23.3778,-3.97057
-602,-237,-23.4212,4.45349,0.00406866,0.00319622,0.00273787,0.00640484,0.00086004,0.706398,0.00401404,0.0122161,622,1261,-23.4212,-4.45355
-595,-237,-23.4684,4.94373,0.00362339,0.00184519,0.00171227,0.00466364,0.00080495,0.545933,0.00287854,0.0157529,629,1261,-23.4684,-4.94377
-588,-237,-23.4644,5.4314,0.00362336,0.000819735,0.00111025,0.00400977,0.000433327,0.334925,0.00254108,0.027546,636,1261,-23.4643,-5.43142
-581,-237,-23.4914,5.89441,0.00387014,-9.43919e-05,0.000811614,0.00402986,-0.00025411,0.194308,0.00277515,0.0259693,643,1261,-23.4914,-5.89443
-574,-237,-23.4937,6.40112,0.00396592,-0.000724826,0.000775834,0.00409091,-0.000849815,0.159731,0.00305026,0.0170797,650,1261,-23.4937,-6.40113
-567,-237,-23.4509,6.91724,0.00408519,-0.00109887,0.00102803,0.00428161,-0.00129529,0.188791,0.00337019,0.0268721,657,1261,-23.4509,-6.91721
-560,-237,-23.3427,7.34705,0,0,0,0,0,0,0,-1,664,1261,-23.3426,-7.34707
-553,-237,-20.6102,6.92139,0,0,0,0,0,0,0,-1,671,1261,-20.6102,-6.92138
-546,-237,-11.192,1.14014,0,0,0,0,0,0,0,-1,678,1261,-11.192,-1.14011
-539,-237,-16.512,1.53455,0,0,0,0,0,0,0,-1,685,1261,-16.512,-1.53457
-532,-237,-29.7025,1.23621,0,0,0,0,0,0,0,-1,692,1261,-29.7025,-1.23618
-525,-237,-33.0974,1.11963,0,0,0,0,0,0,0,-1,699,1261,-33.0974,-1.11964
-518,-237,-35.0715,1.13843,0,0,0,0,0,0,0,-1,706,1261,-35.0715,-1.13839
-511,-237,-35.2009,1.14868,-0.00117783,-0.00471441,-0.000335747,-0.00114624,-0.004746,-0.0938189,0.00285955,0.0430833,713,1261,-35.2008,-1.1487
-504,-237,-35.2936,1.15735,-0.00229174,-0.00555373,-0.000521065,-0.00221053,-0.00563495,-0.154614,0.0032784,0.0395395,720,1261,-35.2937,-1.1574
-497,-237,-35.3204,1.24854,-0.00294287,-0.00670452,-0.000339583,-0.00291246,-0.00673493,-0.0893127,0.00390023,0.0462057,727,1261,-35.3204,-1.24857
-490,-237,0,0,0,0,0,0,0,0,0,-1,734,1261,0,0
-483,-237,0,0,0,0,0,0,0,0,0,-1,741,1261,0,0
-476,-237,0,0,0,0,0,0,0,0,0,-1,748,1261,0,0
-469,-237,0,0,0,0,0,0,0,0,0,-1,755,1261,0,0
-462,-237,0,0,0,0,0,0,0,0,0,-1,762,1261,0,0
-455,-237,0,0,0,0,0,0,0,0,0,-1,769,1261,0,0
-448,-237,0,0,0,0,0,0,0,0,0,-1,776,1261,0,0
-441,-237,0,0,0,0,0,0,0,0,0,-1,783,1261,0,0
-434,-237,0,0,0,0,0,0,0,0,0,-1,790,1261,0,0
-427,-237,0,0,0,0,0,0,0,0,0,-1,797,1261,0,0
-420,-237,0,0,0,0,0,0,0,0,0,-1,804,1261,0,0
-413,-237,0,0,0,0,0,0,0,0,0,-1,811,1261,0,0
-406,-237,0,0,0,0,0,0,0,0,0,-1,818,1261,0,0
-399,-237,0,0,0,0,0,0,0,0,0,-1,825,1261,0,0
-392,-237,0,0,0,0,0,0,0,0,0,-1,832,1261,0,0
-385,-237,0,0,0,0,0,0,0,0,0,-1,839,1261,0,0
-378,-237,0,0,0,0,0,0,0,0,0,-1,846,1261,0,0
-371,-237,0,0,0,0,0,0,0,0,0,-1,853,1261,0,0
-364,-237,0,0,0,0,0,0,0,0,0,-1,860,1261,0,0
-357,-237,0,0,0,0,0,0,0,0,0,-1,867,1261,0,0
-350,-237,0,0,0,0,0,0,0,0,0,-1,874,1261,0,0
-343,-237,0,0,0,0,0,0,0,0,0,-1,881,1261,0,0
-336,-237,0,0,0,0,0,0,0,0,0,-1,888,1261,0,0
-329,-237,0,0,0,0,0,0,0,0,0,-1,895,1261,0,0
-322,-237,0,0,0,0,0,0,0,0,0,-1,902,1261,0,0
-315,-237,0,0,0,0,0,0,0,0,0,-1,909,1261,0,0
-308,-237,0,0,0,0,0,0,0,0,0,-1,916,1261,0,0
-301,-237,0,0,0,0,0,0,0,0,0,-1,923,1261,0,0
-294,-237,0,0,0,0,0,0,0,0,0,-1,930,1261,0,0
-287,-237,0,0,0,0,0,0,0,0,0,-1,937,1261,0,0
-280,-237,0,0,0,0,0,0,0,0,0,-1,944,1261,0,0
-273,-237,0,0,0,0,0,0,0,0,0,-1,951,1261,0,0
-266,-237,0,0,0,0,0,0,0,0,0,-1,958,1261,0,0
-259,-237,0,0,0,0,0,0,0,0,0,-1,965,1261,0,0
-252,-237,0,0,0,0,0,0,0,0,0,-1,972,1261,0,0
-245,-237,0,0,0,0,0,0,0,0,0,-1,979,1261,0,0
-238,-237,0,0,0,0,0,0,0,0,0,-1,986,1261,0,0
-231,-237,0,0,0,0,0,0,0,0,0,-1,993,1261,0,0
-224,-237,0,0,0,0,0,0,0,0,0,-1,1000,1261,0,0
-217,-237,0,0,0,0,0,0,0,0,0,-1,1007,1261,0,0
-210,-237,0,0,0,0,0,0,0,0,0,-1,1014,1261,0,0
-203,-237,0,0,0,0,0,0,0,0,0,-1,1021,1261,0,0
-196,-237,0,0,0,0,0,0,0,0,0,-1,1028,1261,0,0
-189,-237,0,0,0,0,0,0,0,0,0,-1,1035,1261,0,0
-182,-237,0,0,0,0,0,0,0,0,0,-1,1042,1261,0,0
-175,-237,0,0,0,0,0,0,0,0,0,-1,1049,1261,0,0
-168,-237,0,0,0,0,0,0,0,0,0,-1,1056,1261,0,0
-161,-237,0,0,0,0,0,0,0,0,0,-1,1063,1261,0,0
-154,-237,0,0,0,0,0,0,0,0,0,-1,1070,1261,0,0
-147,-237,0,0,0,0,0,0,0,0,0,-1,1077,1261,0,0
-140,-237,0,0,0,0,0,0,0,0,0,-1,1084,1261,0,0
-133,-237,0,0,0,0,0,0,0,0,0,-1,1091,1261,0,0
-126,-237,0,0,0,0,0,0,0,0,0,-1,1098,1261,0,0
-119,-237,0,0,0,0,0,0,0,0,0,-1,1105,1261,0,0
-112,-237,0,0,0,0,0,0,0,0,0,-1,1112,1261,0,0
-105,-237,0,0,0,0,0,0,0,0,0,-1,1119,1261,0,0
-98,-237,0,0,0,0,0,0,0,0,0,-1,1126,1261,0,0
-91,-237,0,0,0,0,0,0,0,0,0,-1,1133,1261,0,0
-84,-237,0,0,0,0,0,0,0,0,0,-1,1140,1261,0,0
-77,-237,0,0,0,0,0,0,0,0,0,-1,1147,1261,0,0
-70,-237,0,0,0,0,0,0,0,0,0,-1,1154,1261,0,0
-63,-237,0,0,0,0,0,0,0,0,0,-1,1161,1261,0,0
-56,-237,0,0,0,0,0,0,0,0,0,-1,1168,1261,0,0
-49,-237,0,0,0,0,0,0,0,0,0,-1,1175,1261,0,0
-42,-237,0,0,0,0,0,0,0,0,0,-1,1182,1261,0,0
-35,-237,0,0,0,0,0,0,0,0,0,-1,1189,1261,0,0
-28,-237,0,0,0,0,0,0,0,0,0,-1,1196,1261,0,0
-21,-237,0,0,0,0,0,0,0,0,0,-1,1203,1261,0,0
-14,-237,0,0,0,0,0,0,0,0,0,-1,1210,1261,0,0
-7,-237,0,0,0,0,0,0,0,0,0,-1,1217,1261,0,0
0,-237,0,0,0,0,0,0,0,0,0,-1,1224,1261,0,0
7,-237,0,0,0,0,0,0,0,0,0,-1,1231,1261,0,0
14,-237,0,0,0,0,0,0,0,0,0,-1,1238,1261,0,0
21,-237,0,0,0,0,0,0,0,0,0,-1,1245,1261,0,0
28,-237,0,0,0,0,0,0,0,0,0,-1,1252,1261,0,0
35,-237,0,0,0,0,0,0,0,0,0,-1,1259,1261,0,0
42,-237,0,0,0,0,0,0,0,0,0,-1,1266,1261,0,0
49,-237,0,0,0,0,0,0,0,0,0,-1,1273,1261,0,0
56,-237,0,0,0,0,0,0,0,0,0,-1,1280,1261,0,0
63,-237,0,0,0,0,0,0,0,0,0,-1,1287,1261,0,0
70,-237,0,0,0,0,0,0,0,0,0,-1,1294,1261,0,0
77,-237,0,0,0,0,0,0,0,0,0,-1,1301,1261,0,0
84,-237,0,0,0,0,0,0,0,0,0,-1,1308,1261,0,0
91,-237,0,0,0,0,0,0,0,0,0,-1,1315,1261,0,0
98,-237,0,0,0,0,0,0,0,0,0,-1,1322,1261,0,0
105,-237,0,0,0,0,0,0,0,0,0,-1,1329,1261,0,0
112,-237,0,0,0,0,0,0,0,0,0,-1,1336,1261,0,0
119,-237,0,0,0,0,0,0,0,0,0,-1,1343,1261,0,0
126,-237,0,0,0,0,0,0,0,0,0,-1,1350,1261,0,0
133,-237,0,0,0,0,0,0,0,0,0,-1,1357,1261,0,0
140,-237,0,0,0,0,0,0,0,0,0,-1,1364,1261,0,0
147,-237,0,0,0,0,0,0,0,0,0,-1,1371,1261,0,0
154,-237,0,0,0,0,0,0,0,0,0,-1,1378,1261,0,0
161,-237,0,0,0,0,0,0,0,0,0,-1,1385,1261,0,0
168,-237,0,0,0,0,0,0,0,0,0,-1,1392,1261,0,0
175,-237,0,0,0,0,0,0,0,0,0,-1,1399,1261,0,0
182,-237,0,0,0,0,0,0,0,0,0,-1,1406,1261,0,0
189,-237,0,0,0,0,0,0,0,0,0,-1,1413,1261,0,0
196,-237,0,0,0,0,0,0,0,0,0,-1,1420,1261,0,0
203,-237,0,0,0,0,0,0,0,0,0,-1,1427,1261,0,0
210,-237,0,0,0,0,0,0,0,0,0,-1,1434,1261,0,0
217,-237,0,0,0,0,0,0,0,0,0,-1,1441,1261,0,0
224,-237,0,0,0,0,0,0,0,0,0,-1,1448,1261,0,0
231,-237,0,0,0,0,0,0,0,0,0,-1,1455,1261,0,0
238,-237,0,0,0,0,0,0,0,0,0,-1,1462,1261,0,0
245,-237,0,0,0,0,0,0,0,0,0,-1,1469,1261,0,0
252,-237,0,0,0,0,0,0,0,0,0,-1,1476,1261,0,0
259,-237,0,0,0,0,0,0,0,0,0,-1,1483,1261,0,0
266,-237,0,0,0,0,0,0,0,0,0,-1,1490,1261,0,0
273,-237,0,0,0,0,0,0,0,0,0,-1,1497,1261,0,0
280,-237,0,0,0,0,0,0,0,0,0,-1,1504,1261,0,0
287,-237,0,0,0,0,0,0,0,0,0,-1,1511,1261,0,0
294,-237,0,0,0,0,0,0,0,0,0,-1,1518,1261,0,0
301,-237,0,0,0,0,0,0,0,0,0,-1,1525,1261,0,0
308,-237,0,0,0,0,0,0,0,0,0,-1,1532,1261,0,0
315,-237,0,0,0,0,0,0,0,0,0,-1,1539,1261,0,0
322,-237,0,0,0,0,0,0,0,0,0,-1,1546,1261,0,0
329,-237,0,0,0,0,0,0,0,0,0,-1,1553,1261,0,0
336,-237,0,0,0,0,0,0,0,0,0,-1,1560,1261,0,0
343,-237,0,0,0,0,0,0,0,0,0,-1,1567,1261,0,0
350,-237,0,0,0,0,0,0,0,0,0,-1,1574,1261,0,0
357,-237,0,0,0,0,0,0,0,0,0,-1,1581,1261,0,0
364,-237,0,0,0,0,0,0,0,0,0,-1,1588,1261,0,0
371,-237,0,0,0,0,0,0,0,0,0,-1,1595,1261,0,0
378,-237,0,0,0,0,0,0,0,0,0,-1,1602,1261,0,0
385,-237,0,0,0,0,0,0,0,0,0,-1,1609,1261,0,0
392,-237,0,0,0,0,0,0,0,0,0,-1,1616,1261,0,0
399,-237,0,0,0,0,0,0,0,0,0,-1,1623,1261,0,0
406,-237,0,0,0,0,0,0,0,0,0,-1,1630,1261,0,0
413,-237,0,0,0,0,0,0,0,0,0,-1,1637,1261,0,0
420,-237,0,0,0,0,0,0,0,0,0,-1,1644,1261,0,0
427,-237,0,0,0,0,0,0,0,0,0,-1,1651,1261,0,0
434,-237,0,0,0,0,0,0,0,0,0,-1,1658,1261,0,0
441,-237,0,0,0,0,0,0,0,0,0,-1,1665,1261,0,0
448,-237,0,0,0,0,0,0,0,0,0,-1,1672,1261,0,0
455,-237,0,0,0,0,0,0,0,0,0,-1,1679,1261,0,0
462,-237,0,0,0,0,0,0,0,0,0,-1,1686,1261,0,0
469,-237,0,0,0,0,0,0,0,0,0,-1,1693,1261,0,0
476,-237,0,0,0,0,0,0,0,0,0,-1,1700,1261,0,0
483,-237,0,0,0,0,0,0,0,0,0,-1,1707,1261,0,0
490,-237,0,0,0,0,0,0,0,0,0,-1,1714,1261,0,0
497,-237,0,0,0,0,0,0,0,0,0,-1,1721,1261,0,0
504,-237,0,0,0,0,0,0,0,0,0,-1,1728,1261,0,0
511,-237,0,0,0,0,0,0,0,0,0,-1,1735,1261,0,0
518,-237,0,0,0,0,0,0,0,0,0,-1,1742,1261,0,0
525,-237,0,0,0,0,0,0,0,0,0,-1,1749,1261,0,0
532,-237,0,0,0,0,0,0,0,0,0,-1,1756,1261,0,0
539,-237,0,0,0,0,0,0,0,0,0,-1,1763,1261,0,0
546,-237,0,0,0,0,0,0,0,0,0,-1,1770,1261,0,0
553,-237,0,0,0,0,0,0,0,0,0,-1,1777,1261,0,0
560,-237,0,0,0,0,0,0,0,0,0,-1,1784,1261,0,0
567,-237,0,0,0,0,0,0,0,0,0,-1,1791,1261,0,0
574,-237,0,0,0,0,0,0,0,0,0,-1,1798,1261,0,0
581,-237,0,0,0,0,0,0,0,0,0,-1,1805,1261,0,0
588,-237,0,0,0,0,0,0,0,0,0,-1,1812,1261,0,0
595,-237,0,0,0,0,0,0,0,0,0,-1,1819,1261,0,0
602,-237,0,0,0,0,0,0,0,0,0,-1,1826,1261,0,0
609,-237,0,0,0,0,0,0,0,0,0,-1,1833,1261,0,0
616,-237,47.8159,2.6908,-0.00746437,0.0038795,-0.000898535,0.00395023,-0.00753511,-1.49224,0.00673787,0.0364193,1840,1261,47.8159,-2.69084
623,-237,47.8389,2.7251,-0.00211496,0.00220443,0.000565285,0.00227718,-0.00218771,1.4428,0.00257798,0.0328109,1847,1261,47.8389,-2.72513
630,-237,47.7296,2.76111,0.00271847,0.000871199,0.0012642,0.0033605,0.000229168,0.469912,0.00216798,0.0268089,1854,1261,47.7296,-2.76112
637,-237,47.6486,2.77881,0.00610404,-3.36663e-05,0.00127242,0.00635737,-0.000286997,0.196524,0.00433708,0.0215338,1861,1261,47.6486,-2.77876
644,-237,47.6367,2.72778,0.00609717,-0.000137174,0.00120582,0.00632226,-0.000362272,0.184552,0.00434064,0.0423456,1868,1261,47.6367,-2.72779
651,-237,47.6388,2.65015,0,0,0,0,0,0,0,-1,1875,1261,47.6388,-2.6501
658,-237,47.1923,2.55188,0,0,0,0,0,0,0,-1,1882,1261,47.1923,-2.55188
665,-237,46.6094,2.27942,0,0,0,0,0,0,0,-1,1889,1261,46.6093,-2.2794
672,-237,45.3922,1.95618,0,0,0,0,0,0,0,-1,1896,1261,45.3922,-1.95623
679,-237,23.1501,7.37488,0,0,0,0,0,0,0,-1,1903,1261,23.1502,-7.37493
686,-237,35.7424,9.78296,0,0,0,0,0,0,0,-1,1910,1261,35.7424,-9.783
693,-237,36.5134,9.49207,0,0,0,0,0,0,0,-1,1917,1261,36.5134,-9.49209
700,-237,36.7279,9.10852,0.000963396,0.00017392,-5.031e-05,0.000966589,0.000170727,-0.0633841,0.000595696,0.013259,1924,1261,36.728,-9.10846
707,-237,36.7428,8.66577,0.000379759,-0.000107093,0.000306732,0.00052792,-0.000255254,0.449982,0.00046121,0.0100378,1931,1261,36.7428,-8.66581
714,-237,36.734,8.21643,-0.000244919,-0.000196166,0.000837757,0.000617569,-0.00105865,0.799943,0.000978873,0.01461,1938,1261,36.734,-8.21649
721,-237,36.7034,7.79321,-0.000693842,-0.000357201,0.00139921,0.000883775,-0.00193482,0.845259,0.0016646,0.0164308,1945,1261,36.7033,-7.79326
728,-237,36.7098,7.35608,-0.000911876,-0.000581204,0.00183309,0.00109399,-0.00258707,0.830374,0.00218276,0.0149358,1952,1261,36.7099,-7.35602
735,-237,36.6808,6.91907,-0.00102627,-0.000783513,0.00225034,0.00134872,-0.0031585,0.812341,0.00267125,0.0198106,1959,1261,36.6808,-6.91905
742,-237,36.6652,6.49585,-0.000998302,-0.00103992,0.00269742,0.00167839,-0.00371661,0.781541,0.00318804,0.0148755,1966,1261,36.6652,-6.49585
749,-237,36.6234,6.08435,-0.000733503,-0.00138775,0.00327442,0.0022301,-0.00435135,0.735612,0.00386503,0.0101234,1973,1261,36.6234,-6.08435
756,-237,36.592,5.65686,4.38109e-05,-0.00185642,0.00366835,0.00288309,-0.0046957,0.658681,0.00441714,0.0172041,1980,1261,36.5921,-5.65682
763,-237,36.3796,5.16833,0.00171874,-0.00272069,0.00401906,0.00409032,-0.00509227,0.533095,0.00531208,0.0341686,1987,1261,36.3796,-5.16832
770,-237,36.4098,4.50244,0,0,0,0,0,0,0,-1,1994,1261,36.4098,-4.50244
777,-237,36.4769,3.82922,0,0,0,0,0,0,0,-1,2001,1261,36.4769,-3.82925
784,-237,36.3441,1.68591,0,0,0,0,0,0,0,-1,2008,1261,36.3441,-1.68592
791,-237,32.3025,6.03235,0,0,0,0,0,0,0,-1,2015,1261,32.3025,-6.03229
798,-237,0,0,0,0,0,0,0,0,0,-1,2022,1261,0,0
805,-237,0,0,0,0,0,0,0,0,0,-1,2029,1261,0,0
812,-237,0,0,0,0,0,0,0,0,0,-1,2036,1261,0,0
-700,-244,0,0,0,0,0,0,0,0,0,-1,524,1268,0,0
-693,-244,0,0,0,0,0,0,0,0,0,-1,531,1268,0,0
-686,-244,0,0,0,0,0,0,0,0,0,-1,538,1268,0,0
-679,-244,0,0,0,0,0,0,0,0,0,-1,545,1268,0,0
-672,-244,-29.0622,-13.5513,0,0,0,0,0,0,0,-1,552,1268,-29.0622,13.5513
-665,-244,-27.9451,-17.0111,0,0,0,0,0,0,0,-1,559,1268,-27.9452,17.0111
-658,-244,-28.5282,-17.3331,0,0,0,0,0,0,0,-1,566,1268,-28.5282,17.3331
-651,-244,-23.5394,4.41724,0,0,0,0,0,0,0,-1,573,1268,-23.5394,-4.41721
-644,-244,-20.4261,0.428345,0,0,0,0,0,0,0,-1,580,1268,-20.4261,-0.428352
-637,-244,-23.8482,1.29626,0,0,0,0,0,0,0,-1,587,1268,-23.8482,-1.29622
-630,-244,-23.5623,1.99561,0,0,0,0,0,0,0,-1,594,1268,-23.5623,-1.99562
-623,-244,-23.1364,2.81641,0.0104934,0.0109798,0.0099259,0.0206655,0.000807755,0.797647,0.0135158,0.0331707,601,1268,-23.1363,-2.81638
-616,-244,-22.8887,3.52734,0.0074376,0.00801485,0.00695818,0.0146904,0.000762057,0.806126,0.00954972,0.0167864,608,1268,-22.8887,-3.52733
-609,-244,-22.9018,3.99207,0.00555719,0.00586012,0.00490399,0.010615,0.000802326,0.800836,0.00682495,0.0146831,615,1268,-22.9018,-3.99205
-602,-244,-22.9326,4.46362,0.00438146,0.00395309,0.00337333,0.0075474,0.000787154,0.753693,0.00479082,0.0151571,622,1268,-22.9326,-4.46364
-595,-244,-22.9963,4.98657,0.00378534,0.00237373,0.00229185,0.0054776,0.000681468,0.636025,0.00344711,0.0162754,629,1268,-22.9962,-4.98661
-588,-244,-22.9927,5.46008,0.00366656,0.00113798,0.00162687,0.00446265,0.000341899,0.455079,0.00286793,0.0207742,636,1268,-22.9927,-5.46003
-581,-244,-22.9803,5.91797,0.00386636,5.52351e-05,0.00129733,0.00426606,-0.000344462,0.298865,0.00296554,0.0178233,643,1268,-22.9803,-5.91792
-574,-244,-23.0153,6.4436,0.0040028,-0.000709678,0.00121301,0.0042967,-0.00100358,0.237712,0.00325105,0.012654,650,1268,-23.0152,-6.44354
-567,-244,-22.9992,6.95081,0.00419686,-0.00116384,0.00140652,0.00454349,-0.00151046,0.241626,0.00363853,0.0145931,657,1268,-22.9992,-6.95078
-560,-244,-22.9173,7.40552,0.00400503,-0.00139682,0.00122531,0.00426997,-0.00166176,0.212948,0.00353332,0.0378761,664,1268,-22.9173,-7.40549
-553,-244,-22.7855,7.86133,0,0,0,0,0,0,0,-1,671,1268,-22.7855,-7.86129
-546,-244,-11.2686,4.41772,0,0,0,0,0,0,0,-1,678,1268,-11.2686,-4.41767
-539,-244,-12.8706,0.3302,0,0,0,0,0,0,0,-1,685,1268,-12.8706,-0.330156
-532,-244,-18.1502,0.816528,0,0,0,0,0,0,0,-1,692,1268,-18.1502,-0.816514
-525,-244,-33.0835,0.693604,0,0,0,0,0,0,0,-1,699,1268,-33.0835,-0.69365
-518,-244,-33.1169,0.668091,0,0,0,0,0,0,0,-1,706,1268,-33.1169,-0.668103
-511,-244,-35.1667,1.21362,0,0,0,0,0,0,0,-1,713,1268,-35.1667,-1.21362
-504,-244,-35.2917,1.17358,0,0,0,0,0,0,0,-1,720,1268,-35.2917,-1.17358
-497,-244,-35.3445,1.2666,0,0,0,0,0,0,0,-1,727,1268,-35.3446,-1.26666
-490,-244,0,0,0,0,0,0,0,0,0,-1,734,1268,0,0
-483,-244,0,0,0,0,0,0,0,0,0,-1,741,1268,0,0
-476,-244,0,0,0,0,0,0,0,0,0,-1,748,1268,0,0
-469,-244,0,0,0,0,0,0,0,0,0,-1,755,1268,0,0
-462,-244,0,0,0,0,0,0,0,0,0,-1,762,1268,0,0
-455,-244,0,0,0,0,0,0,0,0,0,-1,769,1268,0,0
-448,-244,0,0,0,0,0,0,0,0,0,-1,776,1268,0,0
-441,-244,0,0,0,0,0,0,0,0,0,-1,783,1268,0,0
-434,-244,0,0,0,0,0,0,0,0,0,-1,790,1268,0,0
-427,-244,0,0,0,0,0,0,0,0,0,-1,797,1268,0,0
-420,-244,0,0,0,0,0,0,0,0,0,-1,804,1268,0,0
-413,-244,0,0,0,0,0,0,0,0,0,-1,811,1268,0,0
-406,-244,0,0,0,0,0,0,0,0,0,-1,818,1268,0,0
-399,-244,0,0,0,0,0,0,0,0,0,-1,825,1268,0,0
-392,-244,0,0,0,0,0,0,0,0,0,-1,832,1268,0,0
-385,-244,0,0,0,0,0,0,0,0,0,-1,839,1268,0,0
-378,-244,0,0,0,0,0,0,0,0,0,-1,846,1268,0,0
-371,-244,0,0,0,0,0,0,0,0,0,-1,853,1268,0,0
-364,-244,0,0,0,0,0,0,0,0,0,-1,860,1268,0,0
-357,-244,0,0,0,0,0,0,0,0,0,-1,867,1268,0,0
-350,-244,0,0,0,0,0,0,0,0,0,-1,874,1268,0,0
-343,-244,0,0,0,0,0,0,0,0,0,-1,881,1268,0,0
-336,-244,0,0,0,0,0,0,0,0,0,-1,888,1268,0,0
-329,-244,0,0,0,0,0,0,0,0,0,-1,895,1268,0,0
-322,-244,0,0,0,0,0,0,0,0,0,-1,902,1268,0,0
-315,-244,0,0,0,0,0,0,0,0,0,-1,909,1268,0,0
-308,-244,0,0,0,0,0,0,0,0,0,-1,916,1268,0,0
-301,-244,0,0,0,0,0,0,0,0,0,-1,923,1268,0,0
-294,-244,0,0,0,0,0,0,0,0,0,-1,930,1268,0,0
-287,-244,0,0,0,0,0,0,0,0,0,-1,937,1268,0,0
-280,-244,0,0,0,0,0,0,0,0,0,-1,944,1268,0,0
-273,-244,0,0,0,0,0,0,0,0,0,-1,951,1268,0,0
-266,-244,0,0,0,0,0,0,0,0,0,-1,958,1268,0,0
-259,-244,0,0,0,0,0,0,0,0,0,-1,965,1268,0,0
-252,-244,0,0,0,0,0,0,0,0,0,-1,972,1268,0,0
-245,-244,0,0,0,0,0,0,0,0,0,-1,979,1268,0,0
-238,-244,0,0,0,0,0,0,0,0,0,-1,986,1268,0,0
-231,-244,0,0,0,0,0,0,0,0,0,-1,993,1268,0,0
-224,-244,0,0,0,0,0,0,0,0,0,-1,1000,1268,0,0
-217,-244,0,0,0,0,0,0,0,0,0,-1,1007,1268,0,0
-210,-244,0,0,0,0,0,0,0,0,0,-1,1014,1268,0,0
-203,-244,0,0,0,0,0,0,0,0,0,-1,1021,1268,0,0
-196,-244,0,0,0,0,0,0,0,0,0,-1,1028,1268,0,0
-189,-244,0,0,0,0,0,0,0,0,0,-1,1035,1268,0,0
-182,-244,0,0,0,0,0,0,0,0,0,-1,1042,1268,0,0
-175,-244,0,0,0,0,0,0,0,0,0,-1,1049,1268,0,0
-168,-244,0,0,0,0,0,0,0,0,0,-1,1056,1268,0,0
-161,-244,0,0,0,0,0,0,0,0,0,-1,1063,1268,0,0
-154,-244,0,0,0,0,0,0,0,0,0,-1,1070,1268,0,0
-147,-244,0,0,0,0,0,0,0,0,0,-1,1077,1268,0,0
-140,-244,0,0,0,0,0,0,0,0,0,-1,1084,1268,0,0
-133,-244,0,0,0,0,0,0,0,0,0,-1,1091,1268,0,0
-126,-244,0,0,0,0,0,0,0,0,0,-1,1098,1268,0,0
-119,-244,0,0,0,0,0,0,0,0,0,-1,1105,1268,0,0
-112,-244,0,0,0,0,0,0,0,0,0,-1,1112,1268,0,0
-105,-244,0,0,0,0,0,0,0,0,0,-1,1119,1268,0,0
-98,-244,0,0,0,0,0,0,0,0,0,-1,1126,1268,0,0
-91,-244,0,0,0,0,0,0,0,0,0,-1,1133,1268,0,0
-84,-244,0,0,0,0,0,0,0,0,0,-1,1140,1268,0,0
-77,-244,0,0,0,0,0,0,0,0,0,-1,1147,1268,0,0
-70,-244,0,0,0,0,0,0,0,0,0,-1,1154,1268,0,0
-63,-244,0,0,0,0,0,0,0,0,0,-1,1161,1268,0,0
-56,-244,0,0,0,0,0,0,0,0,0,-1,1168,1268,0,0
-49,-244,0,0,0,0,0,0,0,0,0,-1,1175,1268,0,0
-42,-244,0,0,0,0,0,0,0,0,0,-1,1182,1268,0,0
-35,-244,0,0,0,0,0,0,0,0,0,-1,1189,1268,0,0
-28,-244,0,0,0,0,0,0,0,0,0,-1,1196,1268,0,0
-21,-244,0,0,0,0,0,0,0,0,0,-1,1203,1268,0,0
-14,-244,0,0,0,0,0,0,0,0,0,-1,1210,1268,0,0
-7,-244,0,0,0,0,0,0,0,0,0,-1,1217,1268,0,0
0,-244,0,0,0,0,0,0,0,0,0,-1,1224,1268,0,0
7,-244,0,0,0,0,0,0,0,0,0,-1,1231,1268,0,0
14,-244,0,0,0,0,0,0,0,0,0,-1,1238,1268,0,0
21,-244,0,0,0,0,0,0,0,0,0,-1,1245,1268,0,0
28,-244,0,0,0,0,0,0,0,0,0,-1,1252,1268,0,0
35,-244,0,0,0,0,0,0,0,0,0,-1,1259,1268,0,0
42,-244,0,0,0,0,0,0,0,0,0,-1,1266,1268,0,0
49,-244,0,0,0,0,0,0,0,0,0,-1,1273,1268,0,0
56,-244,0,0,0,0,0,0,0,0,0,-1,1280,1268,0,0
63,-244,0,0,0,0,0,0,0,0,0,-1,1287,1268,0,0
70,-244,0,0,0,0,0,0,0,0,0,-1,1294,1268,0,0
77,-244,0,0,0,0,0,0,0,0,0,-1,1301,1268,0,0
84,-244,0,0,0,0,0,0,0,0,0,-1,1308,1268,0,0
91,-244,0,0,0,0,0,0,0,0,0,-1,1315,1268,0,0
98,-244,0,0,0,0,0,0,0,0,0,-1,1322,1268,0,0
105,-244,0,0,0,0,0,0,0,0,0,-1,1329,1268,0,0
112,-244,0,0,0,0,0,0,0,0,0,-1,1336,1268,0,0
119,-244,0,0,0,0,0,0,0,0,0,-1,1343,1268,0,0
126,-244,0,0,0,0,0,0,0,0,0,-1,1350,1268,0,0
133,-244,0,0,0,0,0,0,0,0,0,-1,1357,1268,0,0
140,-244,0,0,0,0,0,0,0,0,0,-1,1364,1268,0,0
147,-244,0,0,0,0,0,0,0,0,0,-1,1371,1268,0,0
154,-244,0,0,0,0,0,0,0,0,0,-1,1378,1268,0,0
161,-244,0,0,0,0,0,0,0,0,0,-1,1385,1268,0,0
168,-244,0,0,0,0,0,0,0,0,0,-1,1392,1268,0,0
175,-244,0,0,0,0,0,0,0,0,0,-1,1399,1268,0,0
182,-244,0,0,0,0,0,0,0,0,0,-1,1406,1268,0,0
189,-244,0,0,0,0,0,0,0,0,0,-1,1413,1268,0,0
196,-244,0,0,0,0,0,0,0,0,0,-1,1420,1268,0,0
203,-244,0,0,0,0,0,0,0,0,0,-1,1427,1268,0,0
210,-244,0,0,0,0,0,0,0,0,0,-1,1434,1268,0,0
217,-244,0,0,0,0,0,0,0,0,0,-1,1441,1268,0,0
224,-244,0,0,0,0,0,0,0,0,0,-1,1448,1268,0,0
231,-244,0,0,0,0,0,0,0,0,0,-1,1455,1268,0,0
238,-244,0,0,0,0,0,0,0,0,0,-1,1462,1268,0,0
245,-244,0,0,0,0,0,0,0,0,0,-1,1469,1268,0,0
252,-244,0,0,0,0,0,0,0,0,0,-1,1476,1268,0,0
259,-244,0,0,0,0,0,0,0,0,0,-1,1483,1268,0,0
266,-244,0,0,0,0,0,0,0,0,0,-1,1490,1268,0,0
273,-244,0,0,0,0,0,0,0,0,0,-1,1497,1268,0,0
280,-244,0,0,0,0,0,0,0,0,0,-1,1504,1268,0,0
287,-244,0,0,0,0,0,0,0,0,0,-1,1511,1268,0,0
294,-244,0,0,0,0,0,0,0,0,0,-1,1518,1268,0,0
301,-244,0,0,0,0,0,0,0,0,0,-1,1525,1268,0,0
308,-244,0,0,0,0,0,0,0,0,0,-1,1532,1268,0,0
315,-244,0,0,0,0,0,0,0,0,0,-1,1539,1268,0,0
322,-244,0,0,0,0,0,0,0,0,0,-1,1546,1268,0,0
329,-244,0,0,0,0,0,0,0,0,0,-1,1553,1268,0,0
336,-244,0,0,0,0,0,0,0,0,0,-1,1560,1268,0,0
343,-244,0,0,0,0,0,0,0,0,0,-1,1567,1268,0,0
350,-244,0,0,0,0,0,0,0,0,0,-1,1574,1268,0,0
357,-244,0,0,0,0,0,0,0,0,0,-1,1581,1268,0,0
364,-244,0,0,0,0,0,0,0,0,0,-1,1588,1268,0,0
371,-244,0,0,0,0,0,0,0,0,0,-1,1595,1268,0,0
378,-244,0,0,0,0,0,0,0,0,0,-1,1602,1268,0,0
385,-244,0,0,0,0,0,0,0,0,0,-1,1609,1268,0,0
392,-244,0,0,0,0,0,0,0,0,0,-1,1616,1268,0,0
399,-244,0,0,0,0,0,0,0,0,0,-1,1623,1268,0,0
406,-244,0,0,0,0,0,0,0,0,0,-1,1630,1268,0,0
413,-244,0,0,0,0,0,0,0,0,0,-1,1637,1268,0,0
420,-244,0,0,0,0,0,0,0,0,0,-1,1644,1268,0,0
427,-244,0,0,0,0,0,0,0,0,0,-1,1651,1268,0,0
434,-244,0,0,0,0,0,0,0,0,0,-1,1658,1268,0,0
441,-244,0,0,0,0,0,0,0,0,0,-1,1665,1268,0,0
448,-244,0,0,0,0,0,0,0,0,0,-1,1672,1268,0,0
455,-244,0,0,0,0,0,0,0,0,0,-1,1679,1268,0,0
462,-244,0,0,0,0,0,0,0,0,0,-1,1686,1268,0,0
469,-244,0,0,0,0,0,0,0,0,0,-1,1693,1268,0,0
476,-244,0,0,0,0,0,0,0,0,0,-1,1700,1268,0,0
483,-244,0,0,0,0,0,0,0,0,0,-1,1707,1268,0,0
490,-244,0,0,0,0,0,0,0,0,0,-1,1714,1268,0,0
497,-244,0,0,0,0,0,0,0,0,0,-1,1721,1268,0,0
504,-244,0,0,0,0,0,0,0,0,0,-1,1728,1268,0,0
511,-244,0,0,0,0,0,0,0,0,0,-1,1735,1268,0,0
518,-244,0,0,0,0,0,0,0,0,0,-1,1742,1268,0,0
525,-244,0,0,0,0,0,0,0,0,0,-1,1749,1268,0,0
532,-244,0,0,0,0,0,0,0,0,0,-1,1756,1268,0,0
539,-244,0,0,0,0,0,0,0,0,0,-1,1763,1268,0,0
546,-244,0,0,0,0,0,0,0,0,0,-1,1770,1268,0,0
553,-244,0,0,0,0,0,0,0,0,0,-1,1777,1268,0,0
560,-244,0,0,0,0,0,0,0,0,0,-1,1784,1268,0,0
567,-244,0,0,0,0,0,0,0,0,0,-1,1791,1268,0,0
574,-244,0,0,0,0,0,0,0,0,0,-1,1798,1268,0,0
581,-244,0,0,0,0,0,0,0,0,0,-1,1805,1268,0,0
588,-244,0,0,0,0,0,0,0,0,0,-1,1812,1268,0,0
595,-244,0,0,0,0,0,0,0,0,0,-1,1819,1268,0,0
602,-244,0,0,0,0,0,0,0,0,0,-1,1826,1268,0,0
609,-244,0,0,0,0,0,0,0,0,0,-1,1833,1268,0,0
616,-244,47.6776,2.72351,-0.0060065,0.00376529,-0.00148332,0.00398548,-0.0062267,-1.42342,0.00594315,0.0343071,1840,1268,47.6776,-2.72347
623,-244,47.6985,2.84705,0.00016082,0.00218033,0.000862279,0.00249841,-0.000157254,1.21741,0.00172042,0.0273916,1847,1268,47.6985,-2.84708
630,-244,47.7334,2.85706,0.00531384,0.00081819,0.00226515,0.0062572,-0.000125166,0.394619,0.00421381,0.0251273,1854,1268,47.7333,-2.85703
637,-244,47.7969,2.91223,0.00782238,-5.05277e-05,0.00243041,0.00851221,-0.000740364,0.276562,0.005937,0.0402817,1861,1268,47.7968,-2.91227
644,-244,47.8713,2.99585,0.00699537,-0.000132918,0.00215128,0.00759429,-0.00073184,0.271527,0.0053236,0.0469467,1868,1268,47.8713,-2.99585
651,-244,47.6389,2.96899,0,0,0,0,0,0,0,-1,1875,1268,47.639,-2.96905
658,-244,47.4712,2.8717,0,0,0,0,0,0,0,-1,1882,1268,47.4712,-2.87172
665,-244,47.4683,2.76221,0,0,0,0,0,0,0,-1,1889,1268,47.4683,-2.76219
672,-244,32.224,3.6123,0,0,0,0,0,0,0,-1,1896,1268,32.224,-3.6123
679,-244,27.2593,7.90649,0,0,0,0,0,0,0,-1,1903,1268,27.2592,-7.9065
686,-244,36.2987,10.24,0,0,0,0,0,0,0,-1,1910,1268,36.2987,-10.24
693,-244,36.2585,9.6908,0.00124053,-8.82993e-05,-0.000451176,0.00137924,-0.000227008,-0.298266,0.00100376,0.0265845,1917,1268,36.2585,-9.69083
700,-244,36.2638,9.14124,0.000960761,1.3642e-05,6.81969e-05,0.000965647,8.75667e-06,0.0715128,0.000640866,0.00920837,1924,1268,36.2639,-9.14127
707,-244,36.2875,8.69238,0.000373258,-0.000205202,0.000404151,0.00058101,-0.000412954,0.474823,0.000576594,0.0101072,1931,1268,36.2874,-8.69238
714,-244,36.3314,8.2489,-0.000256826,-0.000271071,0.000908205,0.000644285,-0.00117218,0.781477,0.0010634,0.0135146,1938,1268,36.3314,-8.24889
721,-244,36.2644,7.83289,-0.00072149,-0.000414333,0.00143765,0.00087792,-0.00201374,0.838609,0.00171189,0.0175566,1945,1268,36.2644,-7.83292
728,-244,36.236,7.3562,-0.00104441,-0.000603422,0.00188254,0.0010715,-0.00271933,0.843695,0.00225651,0.0228342,1952,1268,36.236,-7.35621
735,-244,36.204,6.86096,-0.00131693,-0.000812403,0.00234202,0.0012909,-0.00342023,0.839048,0.00281106,0.0258541,1959,1268,36.204,-6.86095
742,-244,36.1744,6.50842,-0.00145798,-0.0010923,0.00283191,0.00156267,-0.00411295,0.817636,0.00338529,0.0169667,1966,1268,36.1744,-6.50841
749,-244,36.0701,6.1571,-0.00140663,-0.0014628,0.003475,0.0020404,-0.00490983,0.781358,0.00412513,0.0239258,1973,1268,36.07,-6.15708
756,-244,35.89,5.84875,-0.000862101,-0.00198269,0.00388716,0.00250494,-0.00534973,0.713821,0.00463298,0.0325434,1980,1268,35.8901,-5.84878
763,-244,35.9435,5.2323,0.000616973,-0.00292566,0.00424609,0.0034464,-0.00575508,0.58779,0.00536793,0.0452001,1987,1268,35.9435,-5.23228
770,-244,36.0999,4.53857,0,0,0,0,0,0,0,-1,1994,1268,36.0999,-4.53858
777,-244,35.3986,3.32544,0,0,0,0,0,0,0,-1,2001,1268,35.3986,-3.32546
784,-244,31.7908,5.20081,0,0,0,0,0,0,0,-1,2008,1268,31.7907,-5.20083
791,-244,0,0,0,0,0,0,0,0,0,-1,2015,1268,0,0
798,-244,0,0,0,0,0,0,0,0,0,-1,2022,1268,0,0
805,-244,0,0,0,0,0,0,0,0,0,-1,2029,1268,0,0
812,-244,0,0,0,0,0,0,0,0,0,-1,2036,1268,0,0
-700,-251,0,0,0,0,0,0,0,0,0,-1,524,1275,0,0
-693,-251,0,0,0,0,0,0,0,0,0,-1,531,1275,0,0
-686,-251,0,0,0,0,0,0,0,0,0,-1,538,1275,0,0
-679,-251,0,0,0,0,0,0,0,0,0,-1,545,1275,0,0
-672,-251,0,0,0,0,0,0,0,0,0,-1,552,1275,0,0
-665,-251,-20.993,4.27515,0,0,0,0,0,0,0,-1,559,1275,-20.993,-4.2752
-658,-251,-23.7194,2.79553,0,0,0,0,0,0,0,-1,566,1275,-23.7194,-2.79554
-651,-251,-20.6763,-0.483032,0,0,0,0,0,0,0,-1,573,1275,-20.6763,0.483012
-644,-251,-24.0956,2.08496,0,0,0,0,0,0,0,-1,580,1275,-24.0956,-2.08496
-637,-251,-23.6958,2.35254,0,0,0,0,0,0,0,-1,587,1275,-23.6958,-2.35249
-630,-251,-23.1641,1.74146,0,0,0,0,0,0,0,-1,594,1275,-23.1641,-1.74146
-623,-251,-22.6911,2.64307,0.0123648,0.0129597,0.0113641,0.0240303,0.00129428,0.798483,0.0156067,0.0398216,601,1275,-22.6911,-2.64309
-616,-251,-22.4063,3.49304,0.00856946,0.00931932,0.00790554,0.0168588,0.00102997,0.809094,0.0109121,0.0212716,608,1275,-22.4062,-3.49298
-609,-251,-22.4235,3.9895,0.00622722,0.00678927,0.00559603,0.0121113,0.000905161,0.810486,0.00779005,0.0192592,615,1275,-22.4235,-3.98945
-602,-251,-22.4243,4.47668,0.00475851,0.0046257,0.00393777,0.00863043,0.000753767,0.776967,0.00551955,0.0140731,622,1275,-22.4243,-4.47666
-595,-251,-22.4816,4.96851,0.00394624,0.00284317,0.00277331,0.00622232,0.000567079,0.687242,0.0039727,0.0132967,629,1275,-22.4816,-4.96855
-588,-251,-22.4912,5.44543,0.00367521,0.00142261,0.00204013,0.0048793,0.000218523,0.533182,0.00318252,0.0153642,636,1275,-22.4912,-5.44538
-581,-251,-22.4847,5.95972,0.00381141,0.000219253,0.00166904,0.00446719,-0.000436527,0.374377,0.00313379,0.0145256,643,1275,-22.4847,-5.95972
-574,-251,-22.4913,6.4917,0.00404746,-0.000637746,0.00152838,0.00450196,-0.00109224,0.289041,0.00342396,0.0129553,650,1275,-22.4913,-6.49172
-567,-251,-22.5035,6.99744,0.00442947,-0.00108343,0.00165774,0.00488956,-0.00154352,0.270726,0.00387799,0.0131738,657,1275,-22.5035,-6.99747
-560,-251,-22.4348,7.60474,0.00435346,-0.00120658,0.00144872,0.00470829,-0.00156142,0.2402,0.00376874,0.0347685,664,1275,-22.4348,-7.6047
-553,-251,-22.2728,8.1344,0,0,0,0,0,0,0,-1,671,1275,-22.2728,-8.13435
-546,-251,-12.995,4.5675,0,0,0,0,0,0,0,-1,678,1275,-12.995,-4.56745
-539,-251,-10.7916,0.366333,0,0,0,0,0,0,0,-1,685,1275,-10.7916,-0.366282
-532,-251,-10.7391,-0.00769043,0,0,0,0,0,0,0,-1,692,1275,-10.7391,0.00773227
-525,-251,-29.4286,-0.250244,0,0,0,0,0,0,0,-1,699,1275,-29.4286,0.250266
-518,-251,-32.6981,0.678833,0,0,0,0,0,0,0,-1,706,1275,-32.6981,-0.678787
-511,-251,-29.4731,0.637085,0,0,0,0,0,0,0,-1,713,1275,-29.4731,-0.637025
-504,-251,-30.6428,0.792358,0,0,0,0,0,0,0,-1,720,1275,-30.6427,-0.792335
-497,-251,-35.2974,1.17798,0,0,0,0,0,0,0,-1,727,1275,-35.2974,-1.17802
-490,-251,0,0,0,0,0,0,0,0,0,-1,734,1275,0,0
-483,-251,0,0,0,0,0,0,0,0,0,-1,741,1275,0,0
-476,-251,0,0,0,0,0,0,0,0,0,-1,748,1275,0,0
-469,-251,0,0,0,0,0,0,0,0,0,-1,755,1275,0,0
-462,-251,0,0,0,0,0,0,0,0,0,-1,762,1275,0,0
-455,-251,0,0,0,0,0,0,0,0,0,-1,769,1275,0,0
-448,-251,0,0,0,0,0,0,0,0,0,-1,776,1275,0,0
-441,-251,0,0,0,0,0,0,0,0,0,-1,783,1275,0,0
-434,-251,0,0,0,0,0,0,0,0,0,-1,790,1275,0,0
-427,-251,0,0,0,0,0,0,0,0,0,-1,797,1275,0,0
-420,-251,0,0,0,0,0,0,0,0,0,-1,804,1275,0,0
-413,-251,0,0,0,0,0,0,0,0,0,-1,811,1275,0,0
-406,-251,0,0,0,0,0,0,0,0,0,-1,818,1275,0,0
-399,-251,0,0,0,0,0,0,0,0,0,-1,825,1275,0,0
-392,-251,0,0,0,0,0,0,0,0,0,-1,832,1275,0,0
-385,-251,0,0,0,0,0,0,0,0,0,-1,839,1275,0,0
-378,-251,0,0,0,0,0,0,0,0,0,-1,846,1275,0,0
-371,-251,0,0,0,0,0,0,0,0,0,-1,853,1275,0,0
-364,-251,0,0,0,0,0,0,0,0,0,-1,860,1275,0,0
-357,-251,0,0,0,0,0,0,0,0,0,-1,867,1275,0,0
-350,-251,0,0,0,0,0,0,0,0,0,-1,874,1275,0,0
-343,-251,0,0,0,0,0,0,0,0,0,-1,881,1275,0,0
-336,-251,0,0,0,0,0,0,0,0,0,-1,888,1275,0,0
-329,-251,0,0,0,0,0,0,0,0,0,-1,895,1275,0,0
-322,-251,0,0,0,0,0,0,0,0,0,-1,902,1275,0,0
-315,-251,0,0,0,0,0,0,0,0,0,-1,909,1275,0,0
-308,-251,0,0,0,0,0,0,0,0,0,-1,916,1275,0,0
-301,-251,0,0,0,0,0,0,0,0,0,-1,923,1275,0,0
-294,-251,0,0,0,0,0,0,0,0,0,-1,930,1275,0,0
-287,-251,0,0,0,0,0,0,0,0,0,-1,937,1275,0,0
-280,-251,0,0,0,0,0,0,0,0,0,-1,944,1275,0,0
-273,-251,0,0,0,0,0,0,0,0,0,-1,951,1275,0,0
-266,-251,0,0,0,0,0,0,0,0,0,-1,958,1275,0,0
-259,-251,0,0,0,0,0,0,0,0,0,-1,965,1275,0,0
-252,-251,0,0,0,0,0,0,0,0,0,-1,972,1275,0,0
-245,-251,0,0,0,0,0,0,0,0,0,-1,979,1275,0,0
-238,-251,0,0,0,0,0,0,0,0,0,-1,986,1275,0,0
-231,-251,0,0,0,0,0,0,0,0,0,-1,993,1275,0,0
-224,-251,0,0,0,0,0,0,0,0,0,-1,1000,1275,0,0
-217,-251,0,0,0,0,0,0,0,0,0,-1,1007,1275,0,0
-210,-251,0,0,0,0,0,0,0,0,0,-1,1014,1275,0,0
-203,-251,0,0,0,0,0,0,0,0,0,-1,1021,1275,0,0
-196,-251,0,0,0,0,0,0,0,0,0,-1,1028,1275,0,0
-189,-251,0,0,0,0,0,0,0,0,0,-1,1035,1275,0,0
-182,-251,0,0,0,0,0,0,0,0,0,-1,1042,1275,0,0
-175,-251,0,0,0,0,0,0,0,0,0,-1,1049,1275,0,0
-168,-251,0,0,0,0,0,0,0,0,0,-1,1056,1275,0,0
-161,-251,0,0,0,0,0,0,0,0,0,-1,1063,1275,0,0
-154,-251,0,0,0,0,0,0,0,0,0,-1,1070,1275,0,0
-147,-251,0,0,0,0,0,0,0,0,0,-1,1077,1275,0,0
-140,-251,0,0,0,0,0,0,0,0,0,-1,1084,1275,0,0
-133,-251,0,0,0,0,0,0,0,0,0,-1,1091,1275,0,0
-126,-251,0,0,0,0,0,0,0,0,0,-1,1098,1275,0,0
-119,-251,0,0,0,0,0,0,0,0,0,-1,1105,1275,0,0
-112,-251,0,0,0,0,0,0,0,0,0,-1,1112,1275,0,0
-105,-251,0,0,0,0,0,0,0,0,0,-1,1119,1275,0,0
-98,-251,0,0,0,0,0,0,0,0,0,-1,1126,1275,0,0
-91,-251,0,0,0,0,0,0,0,0,0,-1,1133,1275,0,0
-84,-251,0,0,0,0,0,0,0,0,0,-1,1140,1275,0,0
-77,-251,0,0,0,0,0,0,0,0,0,-1,1147,1275,0,0
-70,-251,0,0,0,0,0,0,0,0,0,-1,1154,1275,0,0
-63,-251,0,0,0,0,0,0,0,0,0,-1,1161,1275,0,0
-56,-251,0,0,0,0,0,0,0,0,0,-1,1168,1275,0,0
-49,-251,0,0,0,0,0,0,0,0,0,-1,1175,1275,0,0
-42,-251,0,0,0,0,0,0,0,0,0,-1,1182,1275,0,0
-35,-251,0,0,0,0,0,0,0,0,0,-1,1189,1275,0,0
-28,-251,0,0,0,0,0,0,0,0,0,-1,1196,1275,0,0
-21,-251,0,0,0,0,0,0,0,0,0,-1,1203,1275,0,0
-14,-251,0,0,0,0,0,0,0,0,0,-1,1210,1275,0,0
-7,-251,0,0,0,0,0,0,0,0,0,-1,1217,1275,0,0
0,-251,0,0,0,0,0,0,0,0,0,-1,1224,1275,0,0
7,-251,0,0,0,0,0,0,0,0,0,-1,1231,1275,0,0
14,-251,0,0,0,0,0,0,0,0,0,-1,1238,1275,0,0
21,-251,0,0,0,0,0,0,0,0,0,-1,1245,1275,0,0
28,-251,0,0,0,0,0,0,0,0,0,-1,1252,1275,0,0
35,-251,0,0,0,0,0,0,0,0,0,-1,1259,1275,0,0
42,-251,0,0,0,0,0,0,0,0,0,-1,1266,1275,0,0
49,-251,0,0,0,0,0,0,0,0,0,-1,1273,1275,0,0
56,-251,0,0,0,0,0,0,0,0,0,-1,1280,1275,0,0
63,-251,0,0,0,0,0,0,0,0,0,-1,1287,1275,0,0
70,-251,0,0,0,0,0,0,0,0,0,-1,1294,1275,0,0
77,-251,0,0,0,0,0,0,0,0,0,-1,1301,1275,0,0
84,-251,0,0,0,0,0,0,0,0,0,-1,1308,1275,0,0
91,-251,0,0,0,0,0,0,0,0,0,-1,1315,1275,0,0
98,-251,0,0,0,0,0,0,0,0,0,-1,1322,1275,0,0
105,-251,0,0,0,0,0,0,0,0,0,-1,1329,1275,0,0
112,-251,0,0,0,0,0,0,0,0,0,-1,1336,1275,0,0
119,-251,0,0,0,0,0,0,0,0,0,-1,1343,1275,0,0
126,-251,0,0,0,0,0,0,0,0,0,-1,1350,1275,0,0
133,-251,0,0,0,0,0,0,0,0,0,-1,1357,1275,0,0
140,-251,0,0,0,0,0,0,0,0,0,-1,1364,1275,0,0
147,-251,0,0,0,0,0,0,0,0,0,-1,1371,1275,0,0
154,-251,0,0,0,0,0,0,0,0,0,-1,1378,1275,0,0
161,-251,0,0,0,0,0,0,0,0,0,-1,1385,1275,0,0
168,-251,0,0,0,0,0,0,0,0,0,-1,1392,1275,0,0
175,-251,0,0,0,0,0,0,0,0,0,-1,1399,1275,0,0
182,-251,0,0,0,0,0,0,0,0,0,-1,1406,1275,0,0
189,-251,0,0,0,0,0,0,0,0,0,-1,1413,1275,0,0
196,-251,0,0,0,0,0,0,0,0,0,-1,1420,1275,0,0
203,-251,0,0,0,0,0,0,0,0,0,-1,1427,1275,0,0
210,-251,0,0,0,0,0,0,0,0,0,-1,1434,1275,0,0
217,-251,0,0,0,0,0,0,0,0,0,-1,1441,1275,0,0
224,-251,0,0,0,0,0,0,0,0,0,-1,1448,1275,0,0
231,-251,0,0,0,0,0,0,0,0,0,-1,1455,1275,0,0
238,-251,0,0,0,0,0,0,0,0,0,-1,1462,1275,0,0
245,-251,0,0,0,0,0,0,0,0,0,-1,1469,1275,0,0
252,-251,0,0,0,0,0,0,0,0,0,-1,1476,1275,0,0
259,-251,0,0,0,0,0,0,0,0,0,-1,1483,1275,0,0
266,-251,0,0,0,0,0,0,0,0,0,-1,1490,1275,0,0
273,-251,0,0,0,0,0,0,0,0,0,-1,1497,1275,0,0
280,-251,0,0,0,0,0,0,0,0,0,-1,1504,1275,0,0
287,-251,0,0,0,0,0,0,0,0,0,-1,1511,1275,0,0
294,-251,0,0,0,0,0,0,0,0,0,-1,1518,1275,0,0
301,-251,0,0,0,0,0,0,0,0,0,-1,1525,1275,0,0
308,-251,0,0,0,0,0,0,0,0,0,-1,1532,1275,0,0
315,-251,0,0,0,0,0,0,0,0,0,-1,1539,1275,0,0
322,-251,0,0,0,0,0,0,0,0,0,-1,1546,1275,0,0
329,-251,0,0,0,0,0,0,0,0,0,-1,1553,1275,0,0
336,-251,0,0,0,0,0,0,0,0,0,-1,1560,1275,0,0
343,-251,0,0,0,0,0,0,0,0,0,-1,1567,1275,0,0
350,-251,0,0,0,0,0,0,0,0,0,-1,1574,1275,0,0
357,-251,0,0,0,0,0,0,0,0,0,-1,1581,1275,0,0
364,-251,0,0,0,0,0,0,0,0,0,-1,1588,1275,0,0
371,-251,0,0,0,0,0,0,0,0,0,-1,1595,1275,0,0
378,-251,0,0,0,0,0,0,0,0,0,-1,1602,1275,0,0
385,-251,0,0,0,0,0,0,0,0,0,-1,1609,1275,0,0
392,-251,0,0,0,0,0,0,0,0,0,-1,1616,1275,0,0
399,-251,0,0,0,0,0,0,0,0,0,-1,1623,1275,0,0
406,-251,0,0,0,0,0,0,0,0,0,-1,1630,1275,0,0
413,-251,0,0,0,0,0,0,0,0,0,-1,1637,1275,0,0
420,-251,0,0,0,0,0,0,0,0,0,-1,1644,1275,0,0
427,-251,0,0,0,0,0,0,0,0,0,-1,1651,1275,0,0
434,-251,0,0,0,0,0,0,0,0,0,-1,1658,1275,0,0
441,-251,0,0,0,0,0,0,0,0,0,-1,1665,1275,0,0
448,-251,0,0,0,0,0,0,0,0,0,-1,1672,1275,0,0
455,-251,0,0,0,0,0,0,0,0,0,-1,1679,1275,0,0
462,-251,0,0,0,0,0,0,0,0,0,-1,1686,1275,0,0
469,-251,0,0,0,0,0,0,0,0,0,-1,1693,1275,0,0
476,-251,0,0,0,0,0,0,0,0,0,-1,1700,1275,0,0
483,-251,0,0,0,0,0,0,0,0,0,-1,1707,1275,0,0
490,-251,0,0,0,0,0,0,0,0,0,-1,1714,1275,0,0
497,-251,0,0,0,0,0,0,0,0,0,-1,1721,1275,0,0
504,-251,0,0,0,0,0,0,0,0,0,-1,1728,1275,0,0
511,-251,0,0,0,0,0,0,0,0,0,-1,1735,1275,0,0
518,-251,0,0,0,0,0,0,0,0,0,-1,1742,1275,0,0
525,-251,0,0,0,0,0,0,0,0,0,-1,1749,1275,0,0
532,-251,0,0,0,0,0,0,0,0,0,-1,1756,1275,0,0
539,-251,0,0,0,0,0,0,0,0,0,-1,1763,1275,0,0
546,-251,0,0,0,0,0,0,0,0,0,-1,1770,1275,0,0
553,-251,0,0,0,0,0,0,0,0,0,-1,1777,1275,0,0
560,-251,0,0,0,0,0,0,0,0,0,-1,1784,1275,0,0
567,-251,0,0,0,0,0,0,0,0,0,-1,1791,1275,0,0
574,-251,0,0,0,0,0,0,0,0,0,-1,1798,1275,0,0
581,-251,0,0,0,0,0,0,0,0,0,-1,1805,1275,0,0
588,-251,0,0,0,0,0,0,0,0,0,-1,1812,1275,0,0
595,-251,0,0,0,0,0,0,0,0,0,-1,1819,1275,0,0
602,-251,0,0,0,0,0,0,0,0,0,-1,1826,1275,0,0
609,-251,47.7867,2.80432,-0.0108841,0.00576812,-0.00582464,0.00760325,-0.0127192,-1.26558,0.0118564,0.0307591,1833,1275,47.7868,-2.80438
616,-251,47.7059,2.79163,-0.00408798,0.00426752,-0.00142036,0.00450236,-0.00432283,-1.40694,0.00509558,0.0272994,1840,1275,47.706,-2.7916
623,-251,47.7058,2.84619,0.00270447,0.00270085,0.0019651,0.00466776,0.000737565,0.784938,0.00289745,0.0233545,1847,1275,47.7059,-2.84614
630,-251,47.8188,2.91174,0.00775516,0.0012349,0.00390154,0.00957937,-0.000589305,0.437361,0.00659147,0.0353393,1854,1275,47.8189,-2.91173
637,-251,47.965,2.92664,0.00909997,0.000309542,0.00381512,0.0105248,-0.0011153,0.357431,0.00741632,0.042363,1861,1275,47.965,-2.92668
644,-251,48.0718,2.9707,0.00774979,0.000153941,0.00317289,0.00890075,-0.000997016,0.347986,0.00629256,0.047341,1868,1275,48.0718,-2.97065
651,-251,48.2246,3.03333,0,0,0,0,0,0,0,-1,1875,1275,48.2246,-3.03328
658,-251,47.75,3.19153,0,0,0,0,0,0,0,-1,1882,1275,47.7501,-3.19156
665,-251,32.9579,2.60229,0,0,0,0,0,0,0,-1,1889,1275,32.9579,-2.60231
672,-251,26.0721,4.53064,0,0,0,0,0,0,0,-1,1896,1275,26.0721,-4.53063
679,-251,29.1344,8.63782,0,0,0,0,0,0,0,-1,1903,1275,29.1344,-8.63778
686,-251,35.9119,10.1031,0,0,0,0,0,0,0,-1,1910,1275,35.9119,-10.1032
693,-251,35.8639,9.65454,0.00129226,-0.000267571,-0.000373191,0.00137694,-0.00035226,-0.223151,0.00105517,0.0139095,1917,1275,35.8639,-9.65457
700,-251,35.83,9.18066,0.00101734,-0.000120218,0.000145423,0.00103564,-0.000138514,0.125156,0.000740927,0.00885552,1924,1275,35.83,-9.18069
707,-251,35.8401,8.70813,0.00037984,-0.000297618,0.000463615,0.000615286,-0.000533064,0.469905,0.000663566,0.0114565,1931,1275,35.8401,-8.7081
714,-251,35.8644,8.26587,-0.000313283,-0.000377644,0.000961277,0.000616353,-0.00130728,0.768666,0.00113424,0.0137601,1938,1275,35.8643,-8.26591
721,-251,35.7966,7.86011,-0.00086513,-0.000533291,0.00150046,0.000810396,-0.00220882,0.840464,0.00180439,0.0188144,1945,1275,35.7966,-7.86012
728,-251,35.7766,7.43359,-0.00134738,-0.000736182,0.00200893,0.00099026,-0.00307382,0.860879,0.00244703,0.0220895,1952,1275,35.7767,-7.43364
735,-251,35.7726,6.90649,-0.00179755,-0.000987761,0.00255408,0.00119331,-0.00397863,0.864008,0.00312703,0.0190639,1959,1275,35.7726,-6.90646
742,-251,35.7104,6.5437,-0.00212035,-0.0013153,0.00312747,0.00143544,-0.00487109,0.8494,0.00381694,0.0178596,1966,1275,35.7105,-6.54376
749,-251,35.5096,6.25183,-0.0023,-0.00172414,0.00387045,0.00186908,-0.00589321,0.822525,0.004678,0.0349404,1973,1275,35.5096,-6.25186
756,-251,35.4044,5.84741,0,0,0,0,0,0,0,-1,1980,1275,35.4044,-5.84741
763,-251,35.5327,5.30444,0,0,0,0,0,0,0,-1,1987,1275,35.5327,-5.30441
770,-251,35.0577,4.99304,0,0,0,0,0,0,0,-1,1994,1275,35.0577,-4.99307
777,-251,31.5731,4.33252,0,0,0,0,0,0,0,-1,2001,1275,31.5731,-4.33251
784,-251,32.0776,5.78247,0,0,0,0,0,0,0,-1,2008,1275,32.0776,-5.78247
791,-251,0,0,0,0,0,0,0,0,0,-1,2015,1275,0,0
798,-251,0,0,0,0,0,0,0,0,0,-1,2022,1275,0,0
805,-251,0,0,0,0,0,0,0,0,0,-1,2029,1275,0,0
812,-251,0,0,0,0,0,0,0,0,0,-1,2036,1275,0,0
-700,-258,0,0,0,0,0,0,0,0,0,-1,524,1282,0,0
-693,-258,0,0,0,0,0,0,0,0,0,-1,531,1282,0,0
-686,-258,0,0,0,0,0,0,0,0,0,-1,538,1282,0,0
-679,-258,0,0,0,0,0,0,0,0,0,-1,545,1282,0,0
-672,-258,0,0,0,0,0,0,0,0,0,-1,552,1282,0,0
-665,-258,-20.7346,4.88318,0,0,0,0,0,0,0,-1,559,1282,-20.7345,-4.88316
-658,-258,-21.545,6.01331,0,0,0,0,0,0,0,-1,566,1282,-21.545,-6.01331
-651,-258,-21.2513,-0.901245,0,0,0,0,0,0,0,-1,573,1282,-21.2513,0.901221
-644,-258,-24.3275,1.75598,0,0,0,0,0,0,0,-1,580,1282,-24.3275,-1.75593
-637,-258,-23.9147,1.9967,0,0,0,0,0,0,0,-1,587,1282,-23.9147,-1.99675
-630,-258,-23.5231,2.35852,0,0,0,0,0,0,0,-1,594,1282,-23.5231,-2.35846
-623,-258,-22.316,2.49194,0,0,0,0,0,0,0,-1,601,1282,-22.3161,-2.49194
-616,-258,-21.8927,3.42834,0.00965277,0.0106254,0.00888631,0.0190387,0.00123948,0.812734,0.0123001,0.0373433,608,1282,-21.8927,-3.42836
-609,-258,-21.8803,3.97473,0.00685404,0.00771168,0.00627763,0.0135751,0.000990598,0.8195,0.00873862,0.0175824,615,1282,-21.8803,-3.97476
-602,-258,-21.9127,4.48596,0.00508557,0.00532398,0.00446191,0.00966828,0.000741272,0.798753,0.00621319,0.013773,622,1282,-21.9127,-4.48596
-595,-258,-21.9616,4.98279,0.00402597,0.00338372,0.00317976,0.00690078,0.000508907,0.735073,0.00444062,0.0122034,629,1282,-21.9616,-4.98284
-588,-258,-21.9833,5.47192,0.00356827,0.00185855,0.002359,0.00522252,0.000204297,0.611567,0.00341562,0.0131703,636,1282,-21.9833,-5.47194
-581,-258,-21.983,5.96924,0.00357549,0.00061947,0.00190195,0.0045062,-0.000311243,0.455088,0.00311307,0.0152225,643,1282,-21.983,-5.96927
-574,-258,-21.968,6.48279,0.00384638,-0.000263721,0.00167509,0.00444259,-0.00085993,0.341944,0.00328609,0.0152245,650,1282,-21.968,-6.4828
-567,-258,-21.9985,7.01343,0.00440216,-0.000724245,0.00171389,0.00492237,-0.00124445,0.294688,0.00376558,0.0149154,657,1282,-21.9985,-7.01339
-560,-258,-21.9948,7.5188,0.00462102,-0.000809012,0.00153843,0.00502659,-0.00121459,0.257764,0.00382083,0.0383235,664,1282,-21.9947,-7.51885
-553,-258,-21.9217,8.00696,0,0,0,0,0,0,0,-1,671,1282,-21.9217,-8.00694
-546,-258,-14.2231,5.92029,0,0,0,0,0,0,0,-1,678,1282,-14.2231,-5.92028
-539,-258,-10.2228,4.05823,0,0,0,0,0,0,0,-1,685,1282,-10.2228,-4.05823
-532,-258,-10.2173,-0.353882,0,0,0,0,0,0,0,-1,692,1282,-10.2173,0.353836
-525,-258,-21.8661,-1.5929,0,0,0,0,0,0,0,-1,699,1282,-21.8661,1.59285
-518,-258,-29.2484,0.123169,0,0,0,0,0,0,0,-1,706,1282,-29.2484,-0.123186
-511,-258,-23.5061,1.16833,0,0,0,0,0,0,0,-1,713,1282,-23.5061,-1.16833
-504,-258,-22.9178,0.484131,0,0,0,0,0,0,0,-1,720,1282,-22.9178,-0.484106
-497,-258,-17.8047,0.730469,0,0,0,0,0,0,0,-1,727,1282,-17.8048,-0.730489
-490,-258,-15.4346,0.632935,0,0,0,0,0,0,0,-1,734,1282,-15.4346,-0.632917
-483,-258,0,0,0,0,0,0,0,0,0,-1,741,1282,0,0
-476,-258,0,0,0,0,0,0,0,0,0,-1,748,1282,0,0
-469,-258,0,0,0,0,0,0,0,0,0,-1,755,1282,0,0
-462,-258,0,0,0,0,0,0,0,0,0,-1,762,1282,0,0
-455,-258,0,0,0,0,0,0,0,0,0,-1,769,1282,0,0
-448,-258,0,0,0,0,0,0,0,0,0,-1,776,1282,0,0
-441,-258,0,0,0,0,0,0,0,0,0,-1,783,1282,0,0
-434,-258,0,0,0,0,0,0,0,0,0,-1,790,1282,0,0
-427,-258,0,0,0,0,0,0,0,0,0,-1,797,1282,0,0
-420,-258,0,0,0,0,0,0,0,0,0,-1,804,1282,0,0
-413,-258,0,0,0,0,0,0,0,0,0,-1,811,1282,0,0
-406,-258,0,0,0,0,0,0,0,0,0,-1,818,1282,0,0
-399,-258,0,0,0,0,0,0,0,0,0,-1,825,1282,0,0
-392,-258,0,0,0,0,0,0,0,0,0,-1,832,1282,0,0
-385,-258,0,0,0,0,0,0,0,0,0,-1,839,1282,0,0
-378,-258,0,0,0,0,0,0,0,0,0,-1,846,1282,0,0
-371,-258,0,0,0,0,0,0,0,0,0,-1,853,1282,0,0
-364,-258,0,0,0,0,0,0,0,0,0,-1,860,1282,0,0
-357,-258,0,0,0,0,0,0,0,0,0,-1,867,1282,0,0
-350,-258,0,0,0,0,0,0,0,0,0,-1,874,1282,0,0
-343,-258,0,0,0,0,0,0,0,0,0,-1,881,1282,0,0
-336,-258,0,0,0,0,0,0,0,0,0,-1,888,1282,0,0
-329,-258,0,0,0,0,0,0,0,0,0,-1,895,1282,0,0
-322,-258,0,0,0,0,0,0,0,0,0,-1,902,1282,0,0
-315,-258,0,0,0,0,0,0,0,0,0,-1,909,1282,0,0
-308,-258,0,0,0,0,0,0,0,0,0,-1,916,1282,0,0
-301,-258,0,0,0,0,0,0,0,0,0,-1,923,1282,0,0
-294,-258,0,0,0,0,0,0,0,0,0,-1,930,1282,0,0
-287,-258,0,0,0,0,0,0,0,0,0,-1,937,1282,0,0
-280,-258,0,0,0,0,0,0,0,0,0,-1,944,1282,0,0
-273,-258,0,0,0,0,0,0,0,0,0,-1,951,1282,0,0
-266,-258,0,0,0,0,0,0,0,0,0,-1,958,1282,0,0
-259,-258,0,0,0,0,0,0,0,0,0,-1,965,1282,0,0
-252,-258,0,0,0,0,0,0,0,0,0,-1,972,1282,0,0
-245,-258,0,0,0,0,0,0,0,0,0,-1,979,1282,0,0
-238,-258,0,0,0,0,0,0,0,0,0,-1,986,1282,0,0
-231,-258,0,0,0,0,0,0,0,0,0,-1,993,1282,0,0
-224,-258,0,0,0,0,0,0,0,0,0,-1,1000,1282,0,0
-217,-258,0,0,0,0,0,0,0,0,0,-1,1007,1282,0,0
-210,-258,0,0,0,0,0,0,0,0,0,-1,1014,1282,0,0
-203,-258,0,0,0,0,0,0,0,0,0,-1,1021,1282,0,0
-196,-258,0,0,0,0,0,0,0,0,0,-1,1028,1282,0,0
-189,-258,0,0,0,0,0,0,0,0,0,-1,1035,1282,0,0
-182,-258,0,0,0,0,0,0,0,0,0,-1,1042,1282,0,0
-175,-258,0,0,0,0,0,0,0,0,0,-1,1049,1282,0,0
-168,-258,0,0,0,0,0,0,0,0,0,-1,1056,1282,0,0
-161,-258,0,0,0,0,0,0,0,0,0,-1,1063,1282,0,0
-154,-258,0,0,0,0,0,0,0,0,0,-1,1070,1282,0,0
-147,-258,0,0,0,0,0,0,0,0,0,-1,1077,1282,0,0
-140,-258,0,0,0,0,0,0,0,0,0,-1,1084,1282,0,0
-133,-258,0,0,0,0,0,0,0,0,0,-1,1091,1282,0,0
-126,-258,0,0,0,0,0,0,0,0,0,-1,1098,1282,0,0
-119,-258,0,0,0,0,0,0,0,0,0,-1,1105,1282,0,0
-112,-258,0,0,0,0,0,0,0,0,0,-1,1112,1282,0,0
-105,-258,0,0,0,0,0,0,0,0,0,-1,1119,1282,0,0
-98,-258,0,0,0,0,0,0,0,0,0,-1,1126,1282,0,0
-91,-258,0,0,0,0,0,0,0,0,0,-1,1133,1282,0,0
-84,-258,0,0,0,0,0,0,0,0,0,-1,1140,1282,0,0
-77,-258,0,0,0,0,0,0,0,0,0,-1,1147,1282,0,0
-70,-258,0,0,0,0,0,0,0,0,0,-1,1154,1282,0,0
-63,-258,0,0,0,0,0,0,0,0,0,-1,1161,1282,0,0
-56,-258,0,0,0,0,0,0,0,0,0,-1,1168,1282,0,0
-49,-258,0,0,0,0,0,0,0,0,0,-1,1175,1282,0,0
-42,-258,0,0,0,0,0,0,0,0,0,-1,1182,1282,0,0
-35,-258,0,0,0,0,0,0,0,0,0,-1,1189,1282,0,0
-28,-258,0,0,0,0,0,0,0,0,0,-1,1196,1282,0,0
-21,-258,0,0,0,0,0,0,0,0,0,-1,1203,1282,0,0
-14,-258,0,0,0,0,0,0,0,0,0,-1,1210,1282,0,0
-7,-258,0,0,0,0,0,0,0,0,0,-1,1217,1282,0,0
0,-258,0,0,0,0,0,0,0,0,0,-1,1224,1282,0,0
7,-258,0,0,0,0,0,0,0,0,0,-1,1231,1282,0,0
14,-258,0,0,0,0,0,0,0,0,0,-1,1238,1282,0,0
21,-258,0,0,0,0,0,0,0,0,0,-1,1245,1282,0,0
28,-258,0,0,0,0,0,0,0,0,0,-1,1252,1282,0,0
35,-258,0,0,0,0,0,0,0,0,0,-1,1259,1282,0,0
42,-258,0,0,0,0,0,0,0,0,0,-1,1266,1282,0,0
49,-258,0,0,0,0,0,0,0,0,0,-1,1273,1282,0,0
56,-258,0,0,0,0,0,0,0,0,0,-1,1280,1282,0,0
63,-258,0,0,0,0,0,0,0,0,0,-1,1287,1282,0,0
70,-258,0,0,0,0,0,0,0,0,0,-1,1294,1282,0,0
77,-258,0,0,0,0,0,0,0,0,0,-1,1301,1282,0,0
84,-258,0,0,0,0,0,0,0,0,0,-1,1308,1282,0,0
91,-258,0,0,0,0,0,0,0,0,0,-1,1315,1282,0,0
98,-258,0,0,0,0,0,0,0,0,0,-1,1322,1282,0,0
105,-258,0,0,0,0,0,0,0,0,0,-1,1329,1282,0,0
112,-258,0,0,0,0,0,0,0,0,0,-1,1336,1282,0,0
119,-258,0,0,0,0,0,0,0,0,0,-1,1343,1282,0,0
126,-258,0,0,0,0,0,0,0,0,0,-1,1350,1282,0,0
133,-258,0,0,0,0,0,0,0,0,0,-1,1357,1282,0,0
140,-258,0,0,0,0,0,0,0,0,0,-1,1364,1282,0,0
147,-258,0,0,0,0,0,0,0,0,0,-1,1371,1282,0,0
154,-258,0,0,0,0,0,0,0,0,0,-1,1378,1282,0,0
161,-258,0,0,0,0,0,0,0,0,0,-1,1385,1282,0,0
168,-258,0,0,0,0,0,0,0,0,0,-1,1392,1282,0,0
175,-258,0,0,0,0,0,0,0,0,0,-1,1399,1282,0,0
182,-258,0,0,0,0,0,0,0,0,0,-1,1406,1282,0,0
189,-258,0,0,0,0,0,0,0,0,0,-1,1413,1282,0,0
196,-258,0,0,0,0,0,0,0,0,0,-1,1420,1282,0,0
203,-258,0,0,0,0,0,0,0,0,0,-1,1427,1282,0,0
210,-258,0,0,0,0,0,0,0,0,0,-1,1434,1282,0,0
217,-258,0,0,0,0,0,0,0,0,0,-1,1441,1282,0,0
224,-258,0,0,0,0,0,0,0,0,0,-1,1448,1282,0,0
231,-258,0,0,0,0,0,0,0,0,0,-1,1455,1282,0,0
238,-258,0,0,0,0,0,0,0,0,0,-1,1462,1282,0,0
245,-258,0,0,0,0,0,0,0,0,0,-1,1469,1282,0,0
252,-258,0,0,0,0,0,0,0,0,0,-1,1476,1282,0,0
259,-258,0,0,0,0,0,0,0,0,0,-1,1483,1282,0,0
266,-258,0,0,0,0,0,0,0,0,0,-1,1490,1282,0,0
273,-258,0,0,0,0,0,0,0,0,0,-1,1497,1282,0,0
280,-258,0,0,0,0,0,0,0,0,0,-1,1504,1282,0,0
287,-258,0,0,0,0,0,0,0,0,0,-1,1511,1282,0,0
294,-258,0,0,0,0,0,0,0,0,0,-1,1518,1282,0,0
301,-258,0,0,0,0,0,0,0,0,0,-1,1525,1282,0,0
308,-258,0,0,0,0,0,0,0,0,0,-1,1532,1282,0,0
315,-258,0,0,0,0,0,0,0,0,0,-1,1539,1282,0,0
322,-258,0,0,0,0,0,0,0,0,0,-1,1546,1282,0,0
329,-258,0,0,0,0,0,0,0,0,0,-1,1553,1282,0,0
336,-258,0,0,0,0,0,0,0,0,0,-1,1560,1282,0,0
343,-258,0,0,0,0,0,0,0,0,0,-1,1567,1282,0,0
350,-258,0,0,0,0,0,0,0,0,0,-1,1574,1282,0,0
357,-258,0,0,0,0,0,0,0,0,0,-1,1581,1282,0,0
364,-258,0,0,0,0,0,0,0,0,0,-1,1588,1282,0,0
371,-258,0,0,0,0,0,0,0,0,0,-1,1595,1282,0,0
378,-258,0,0,0,0,0,0,0,0,0,-1,1602,1282,0,0
385,-258,0,0,0,0,0,0,0,0,0,-1,1609,1282,0,0
392,-258,0,0,0,0,0,0,0,0,0,-1,1616,1282,0,0
399,-258,0,0,0,0,0,0,0,0,0,-1,1623,1282,0,0
406,-258,0,0,0,0,0,0,0,0,0,-1,1630,1282,0,0
413,-258,0,0,0,0,0,0,0,0,0,-1,1637,1282,0,0
420,-258,0,0,0,0,0,0,0,0,0,-1,1644,1282,0,0
427,-258,0,0,0,0,0,0,0,0,0,-1,1651,1282,0,0
434,-258,0,0,0,0,0,0,0,0,0,-1,1658,1282,0,0
441,-258,0,0,0,0,0,0,0,0,0,-1,1665,1282,0,0
448,-258,0,0,0,0,0,0,0,0,0,-1,1672,1282,0,0
455,-258,0,0,0,0,0,0,0,0,0,-1,1679,1282,0,0
462,-258,0,0,0,0,0,0,0,0,0,-1,1686,1282,0,0
469,-258,0,0,0,0,0,0,0,0,0,-1,1693,1282,0,0
476,-258,0,0,0,0,0,0,0,0,0,-1,1700,1282,0,0
483,-258,0,0,0,0,0,0,0,0,0,-1,1707,1282,0,0
490,-258,0,0,0,0,0,0,0,0,0,-1,1714,1282,0,0
497,-258,0,0,0,0,0,0,0,0,0,-1,1721,1282,0,0
504,-258,0,0,0,0,0,0,0,0,0,-1,1728,1282,0,0
511,-258,0,0,0,0,0,0,0,0,0,-1,1735,1282,0,0
518,-258,0,0,0,0,0,0,0,0,0,-1,1742,1282,0,0
525,-258,0,0,0,0,0,0,0,0,0,-1,1749,1282,0,0
532,-258,0,0,0,0,0,0,0,0,0,-1,1756,1282,0,0
539,-258,0,0,0,0,0,0,0,0,0,-1,1763,1282,0,0
546,-258,0,0,0,0,0,0,0,0,0,-1,1770,1282,0,0
553,-258,0,0,0,0,0,0,0,0,0,-1,1777,1282,0,0
560,-258,0,0,0,0,0,0,0,0,0,-1,1784,1282,0,0
567,-258,0,0,0,0,0,0,0,0,0,-1,1791,1282,0,0
574,-258,0,0,0,0,0,0,0,0,0,-1,1798,1282,0,0
581,-258,0,0,0,0,0,0,0,0,0,-1,1805,1282,0,0
588,-258,0,0,0,0,0,0,0,0,0,-1,1812,1282,0,0
595,-258,0,0,0,0,0,0,0,0,0,-1,1819,1282,0,0
602,-258,0,0,0,0,0,0,0,0,0,-1,1826,1282,0,0
609,-258,47.7667,2.83765,-0.0096044,0.00666505,-0.00603807,0.00866108,-0.0116004,-1.25153,0.0117389,0.024438,1833,1282,47.7668,-2.8376
616,-258,47.7122,2.83057,-0.00185675,0.00529424,-0.000347513,0.00531109,-0.0018736,-1.52235,0.00430343,0.0242035,1840,1282,47.7122,-2.8306
623,-258,47.7462,2.89685,0.00485051,0.00367121,0.00378331,0.00808984,0.000431878,0.708093,0.00525519,0.03475,1847,1282,47.7462,-2.89686
630,-258,47.9136,2.927,0.00898665,0.00195673,0.0057283,0.0121924,-0.00124905,0.510214,0.00857501,0.0453644,1854,1282,47.9136,-2.927
637,-258,48.0193,2.90601,0.00929477,0.000789641,0.00516475,0.0117324,-0.00164801,0.44098,0.00842485,0.0470784,1861,1282,48.0193,-2.90599
644,-258,48.0804,2.91479,0,0,0,0,0,0,0,-1,1868,1282,48.0804,-2.91481
651,-258,45.7943,3.40613,0,0,0,0,0,0,0,-1,1875,1282,45.7943,-3.40619
658,-258,45.4424,3.1405,0,0,0,0,0,0,0,-1,1882,1282,45.4423,-3.14046
665,-258,35.4747,1.1864,0,0,0,0,0,0,0,-1,1889,1282,35.4747,-1.18637
672,-258,22.703,2.80957,0,0,0,0,0,0,0,-1,1896,1282,22.703,-2.80962
679,-258,26.8693,8.19543,0,0,0,0,0,0,0,-1,1903,1282,26.8692,-8.19548
686,-258,35.4514,10.1259,0,0,0,0,0,0,0,-1,1910,1282,35.4514,-10.1259
693,-258,35.4255,9.66077,0.00116615,-0.000485494,-0.00021469,0.0011936,-0.000512944,-0.127171,0.00101106,0.0133231,1917,1282,35.4255,-9.66079
700,-258,35.3969,9.1842,0.000910006,-0.000248566,0.000275181,0.000972045,-0.000310604,0.221738,0.000772663,0.00909371,1924,1282,35.3968,-9.18425
707,-258,35.3922,8.71704,0.000281877,-0.000370609,0.000586646,0.000626893,-0.000715624,0.531635,0.000775666,0.0118312,1931,1282,35.3922,-8.71702
714,-258,35.3978,8.2843,-0.000405122,-0.000464332,0.00107241,0.000638092,-0.00150755,0.771599,0.00127224,0.0118556,1938,1282,35.3978,-8.28434
721,-258,35.3634,7.84021,-0.000992449,-0.000649264,0.00161596,0.000804185,-0.0024459,0.838293,0.0019546,0.0172484,1945,1282,35.3634,-7.84019
728,-258,35.3191,7.42908,-0.00158841,-0.000902354,0.00217926,0.000960708,-0.00345147,0.863461,0.00267926,0.0168964,1952,1282,35.3191,-7.42905
735,-258,35.3453,6.95874,-0.00217366,-0.00122325,0.00278755,0.0011293,-0.00452622,0.869824,0.00345598,0.0166273,1959,1282,35.3453,-6.95876
742,-258,35.3085,6.55005,-0.0026605,-0.00161905,0.00342003,0.00131967,-0.00559922,0.860946,0.0042417,0.0184529,1966,1282,35.3084,-6.55001
749,-258,35.1732,6.25134,-0.00307236,-0.00208967,0.00422556,0.00167301,-0.00683505,0.843278,0.00520478,0.0374463,1973,1282,35.1732,-6.25138
756,-258,35.0699,5.81384,0,0,0,0,0,0,0,-1,1980,1282,35.0699,-5.81378
763,-258,34.3058,5.43958,0,0,0,0,0,0,0,-1,1987,1282,34.3058,-5.43955
770,-258,35.0776,4.69446,0,0,0,0,0,0,0,-1,1994,1282,35.0776,-4.6944
777,-258,31.912,4.83093,0,0,0,0,0,0,0,-1,2001,1282,31.912,-4.8309
784,-258,32.6525,6.43091,0,0,0,0,0,0,0,-1,2008,1282,32.6525,-6.43091
791,-258,0,0,0,0,0,0,0,0,0,-1,2015,1282,0,0
798,-258,0,0,0,0,0,0,0,0,0,-1,2022,1282,0,0
805,-258,0,0,0,0,0,0,0,0,0,-1,2029,1282,0,0
812,-258,0,0,0,0,0,0,0,0,0,-1,2036,1282,0,0
-700,-265,0,0,0,0,0,0,0,0,0,-1,524,1289,0,0
-693,-265,0,0,0,0,0,0,0,0,0,-1,531,1289,0,0
-686,-265,0,0,0,0,0,0,0,0,0,-1,538,1289,0,0
-679,-265,0,0,0,0,0,0,0,0,0,-1,545,1289,0,0
-672,-265,0,0,0,0,0,0,0,0,0,-1,552,1289,0,0
-665,-265,-21.8043,0.183594,0,0,0,0,0,0,0,-1,559,1289,-21.8042,-0.183562
-658,-265,-18.9856,-0.2948,0,0,0,0,0,0,0,-1,566,1289,-18.9856,0.294797
-651,-265,-18.8685,0.415161,0,0,0,0,0,0,0,-1,573,1289,-18.8685,-0.415106
-644,-265,-24.5891,2.23987,0,0,0,0,0,0,0,-1,580,1289,-24.5891,-2.23987
-637,-265,-24.1727,1.51135,0,0,0,0,0,0,0,-1,587,1289,-24.1727,-1.51131
-630,-265,-23.8566,0.68103,0,0,0,0,0,0,0,-1,594,1289,-23.8566,-0.681087
-623,-265,-21.2867,2.52612,0,0,0,0,0,0,0,-1,601,1289,-21.2867,-2.52613
-616,-265,-21.318,3.19934,0.0107871,0.0117255,0.00969767,0.0209653,0.00154729,0.809573,0.0134907,0.0456644,608,1289,-21.318,-3.19933
-609,-265,-21.3637,3.93311,0.00751222,0.00855303,0.00683709,0.0148895,0.00117576,0.823382,0.00955854,0.0194927,615,1289,-21.3637,-3.9331
-602,-265,-21.4061,4.50708,0.00543601,0.00601448,0.00486729,0.0106011,0.000849373,0.815076,0.00680199,0.0144982,622,1289,-21.4061,-4.50709
-595,-265,-21.4441,5.02454,0.00412603,0.00394784,0.00343982,0.00747791,0.000595959,0.772451,0.00479897,0.0123876,629,1289,-21.4441,-5.02453
-588,-265,-21.478,5.51282,0.00346859,0.00236261,0.002513,0.00548872,0.000342475,0.677098,0.0035505,0.0111052,636,1289,-21.4779,-5.51287
-581,-265,-21.4922,5.99939,0.00329557,0.00109617,0.00193797,0.00442411,-3.23753e-05,0.527327,0.00296026,0.0140473,643,1289,-21.4922,-5.99937
-574,-265,-21.5126,6.55347,0.00349331,0.000163602,0.00161468,0.00414771,-0.000490795,0.38505,0.00294241,0.0149433,650,1289,-21.5126,-6.55346
-567,-265,-21.5615,7.08374,0.00405194,-0.000399423,0.00157827,0.00455474,-0.00090222,0.308409,0.00337764,0.0199526,657,1289,-21.5615,-7.08376
-560,-265,-21.5881,7.57117,0.0044775,-0.00056815,0.00153022,0.0049053,-0.000995955,0.272611,0.00364779,0.0227953,664,1289,-21.5881,-7.57121
-553,-265,-21.6005,8.06775,0,0,0,0,0,0,0,-1,671,1289,-21.6005,-8.06776
-546,-265,-21.1743,8.77881,0,0,0,0,0,0,0,-1,678,1289,-21.1743,-8.77881
-539,-265,-13.7668,6.39917,0,0,0,0,0,0,0,-1,685,1289,-13.7668,-6.39915
-532,-265,-8.53998,3.41467,0,0,0,0,0,0,0,-1,692,1289,-8.53996,-3.41473
-525,-265,-12.1317,0.514648,0,0,0,0,0,0,0,-1,699,1289,-12.1317,-0.514634
-518,-265,-24.1604,0.712402,0,0,0,0,0,0,0,-1,706,1289,-24.1604,-0.712425
-511,-265,-23.233,0.791626,0,0,0,0,0,0,0,-1,713,1289,-23.233,-0.791617
-504,-265,-22.3056,0.87085,0,0,0,0,0,0,0,-1,720,1289,-22.3056,-0.87081
-497,-265,-18.689,-0.278442,0,0,0,0,0,0,0,-1,727,1289,-18.689,0.278423
-490,-265,-15.1696,0.492676,0,0,0,0,0,0,0,-1,734,1289,-15.1696,-0.492688
-483,-265,0,0,0,0,0,0,0,0,0,-1,741,1289,0,0
-476,-265,0,0,0,0,0,0,0,0,0,-1,748,1289,0,0
-469,-265,0,0,0,0,0,0,0,0,0,-1,755,1289,0,0
-462,-265,0,0,0,0,0,0,0,0,0,-1,762,1289,0,0
-455,-265,0,0,0,0,0,0,0,0,0,-1,769,1289,0,0
-448,-265,0,0,0,0,0,0,0,0,0,-1,776,1289,0,0
-441,-265,0,0,0,0,0,0,0,0,0,-1,783,1289,0,0
-434,-265,0,0,0,0,0,0,0,0,0,-1,790,1289,0,0
-427,-265,0,0,0,0,0,0,0,0,0,-1,797,1289,0,0
-420,-265,0,0,0,0,0,0,0,0,0,-1,804,1289,0,0
-413,-265,0,0,0,0,0,0,0,0,0,-1,811,1289,0,0
-406,-265,0,0,0,0,0,0,0,0,0,-1,818,1289,0,0
-399,-265,0,0,0,0,0,0,0,0,0,-1,825,1289,0,0
-392,-265,0,0,0,0,0,0,0,0,0,-1,832,1289,0,0
-385,-265,0,0,0,0,0,0,0,0,0,-1,839,1289,0,0
-378,-265,0,0,0,0,0,0,0,0,0,-1,846,1289,0,0
-371,-265,0,0,0,0,0,0,0,0,0,-1,853,1289,0,0
-364,-265,0,0,0,0,0,0,0,0,0,-1,860,1289,0,0
-357,-265,0,0,0,0,0,0,0,0,0,-1,867,1289,0,0
-350,-265,0,0,0,0,0,0,0,0,0,-1,874,1289,0,0
-343,-265,0,0,0,0,0,0,0,0,0,-1,881,1289,0,0
-336,-265,0,0,0,0,0,0,0,0,0,-1,888,1289,0,0
-329,-265,0,0,0,0,0,0,0,0,0,-1,895,1289,0,0
-322,-265,0,0,0,0,0,0,0,0,0,-1,902,1289,0,0
-315,-265,0,0,0,0,0,0,0,0,0,-1,909,1289,0,0
-308,-265,0,0,0,0,0,0,0,0,0,-1,916,1289,0,0
-301,-265,0,0,0,0,0,0,0,0,0,-1,923,1289,0,0
-294,-265,0,0,0,0,0,0,0,0,0,-1,930,1289,0,0
-287,-265,0,0,0,0,0,0,0,0,0,-1,937,1289,0,0
-280,-265,0,0,0,0,0,0,0,0,0,-1,944,1289,0,0
-273,-265,0,0,0,0,0,0,0,0,0,-1,951,1289,0,0
-266,-265,0,0,0,0,0,0,0,0,0,-1,958,1289,0,0
-259,-265,0,0,0,0,0,0,0,0,0,-1,965,1289,0,0
-252,-265,0,0,0,0,0,0,0,0,0,-1,972,1289,0,0
-245,-265,0,0,0,0,0,0,0,0,0,-1,979,1289,0,0
-238,-265,0,0,0,0,0,0,0,0,0,-1,986,1289,0,0
-231,-265,0,0,0,0,0,0,0,0,0,-1,993,1289,0,0
-224,-265,0,0,0,0,0,0,0,0,0,-1,1000,1289,0,0
-217,-265,0,0,0,0,0,0,0,0,0,-1,1007,1289,0,0
-210,-265,0,0,0,0,0,0,0,0,0,-1,1014,1289,0,0
-203,-265,0,0,0,0,0,0,0,0,0,-1,1021,1289,0,0
-196,-265,0,0,0,0,0,0,0,0,0,-1,1028,1289,0,0
-189,-265,0,0,0,0,0,0,0,0,0,-1,1035,1289,0,0
-182,-265,0,0,0,0,0,0,0,0,0,-1,1042,1289,0,0
-175,-265,0,0,0,0,0,0,0,0,0,-1,1049,1289,0,0
-168,-265,0,0,0,0,0,0,0,0,0,-1,1056,1289,0,0
-161,-265,0,0,0,0,0,0,0,0,0,-1,1063,1289,0,0
-154,-265,0,0,0,0,0,0,0,0,0,-1,1070,1289,0,0
-147,-265,0,0,0,0,0,0,0,0,0,-1,1077,1289,0,0
-140,-265,0,0,0,0,0,0,0,0,0,-1,1084,1289,0,0
-133,-265,0,0,0,0,0,0,0,0,0,-1,1091,1289,0,0
-126,-265,0,0,0,0,0,0,0,0,0,-1,1098,1289,0,0
-119,-265,0,0,0,0,0,0,0,0,0,-1,1105,1289,0,0
-112,-265,0,0,0,0,0,0,0,0,0,-1,1112,1289,0,0
-105,-265,0,0,0,0,0,0,0,0,0,-1,1119,1289,0,0
-98,-265,0,0,0,0,0,0,0,0,0,-1,1126,1289,0,0
-91,-265,0,0,0,0,0,0,0,0,0,-1,1133,1289,0,0
-84,-265,0,0,0,0,0,0,0,0,0,-1,1140,1289,0,0
-77,-265,0,0,0,0,0,0,0,0,0,-1,1147,1289,0,0
-70,-265,0,0,0,0,0,0,0,0,0,-1,1154,1289,0,0
-63,-265,0,0,0,0,0,0,0,0,0,-1,1161,1289,0,0
-56,-265,0,0,0,0,0,0,0,0,0,-1,1168,1289,0,0
-49,-265,0,0,0,0,0,0,0,0,0,-1,1175,1289,0,0
-42,-265,0,0,0,0,0,0,0,0,0,-1,1182,1289,0,0
-35,-265,0,0,0,0,0,0,0,0,0,-1,1189,1289,0,0
-28,-265,0,0,0,0,0,0,0,0,0,-1,1196,1289,0,0
-21,-265,0,0,0,0,0,0,0,0,0,-1,1203,1289,0,0
-14,-265,0,0,0,0,0,0,0,0,0,-1,1210,1289,0,0
-7,-265,0,0,0,0,0,0,0,0,0,-1,1217,1289,0,0
0,-265,0,0,0,0,0,0,0,0,0,-1,1224,1289,0,0
7,-265,0,0,0,0,0,0,0,0,0,-1,1231,1289,0,0
14,-265,0,0,0,0,0,0,0,0,0,-1,1238,1289,0,0
21,-265,0,0,0,0,0,0,0,0,0,-1,1245,1289,0,0
28,-265,0,0,0,0,0,0,0,0,0,-1,1252,1289,0,0
35,-265,0,0,0,0,0,0,0,0,0,-1,1259,1289,0,0
42,-265,0,0,0,0,0,0,0,0,0,-1,1266,1289,0,0
49,-265,0,0,0,0,0,0,0,0,0,-1,1273,1289,0,0
56,-265,0,0,0,0,0,0,0,0,0,-1,1280,1289,0,0
63,-265,0,0,0,0,0,0,0,0,0,-1,1287,1289,0,0
70,-265,0,0,0,0,0,0,0,0,0,-1,1294,1289,0,0
77,-265,0,0,0,0,0,0,0,0,0,-1,1301,1289,0,0
84,-265,0,0,0,0,0,0,0,0,0,-1,1308,1289,0,0
91,-265,0,0,0,0,0,0,0,0,0,-1,1315,1289,0,0
98,-265,0,0,0,0,0,0,0,0,0,-1,1322,1289,0,0
105,-265,0,0,0,0,0,0,0,0,0,-1,1329,1289,0,0
112,-265,0,0,0,0,0,0,0,0,0,-1,1336,1289,0,0
119,-265,0,0,0,0,0,0,0,0,0,-1,1343,1289,0,0
126,-265,0,0,0,0,0,0,0,0,0,-1,1350,1289,0,0
133,-265,0,0,0,0,0,0,0,0,0,-1,1357,1289,0,0
140,-265,0,0,0,0,0,0,0,0,0,-1,1364,1289,0,0
147,-265,0,0,0,0,0,0,0,0,0,-1,1371,1289,0,0
154,-265,0,0,0,0,0,0,0,0,0,-1,1378,1289,0,0
161,-265,0,0,0,0,0,0,0,0,0,-1,1385,1289,0,0
168,-265,0,0,0,0,0,0,0,0,0,-1,1392,1289,0,0
175,-265,0,0,0,0,0,0,0,0,0,-1,1399,1289,0,0
182,-265,0,0,0,0,0,0,0,0,0,-1,1406,1289,0,0
189,-265,0,0,0,0,0,0,0,0,0,-1,1413,1289,0,0
196,-265,0,0,0,0,0,0,0,0,0,-1,1420,1289,0,0
203,-265,0,0,0,0,0,0,0,0,0,-1,1427,1289,0,0
210,-265,0,0,0,0,0,0,0,0,0,-1,1434,1289,0,0
217,-265,0,0,0,0,0,0,0,0,0,-1,1441,1289,0,0
224,-265,0,0,0,0,0,0,0,0,0,-1,1448,1289,0,0
231,-265,0,0,0,0,0,0,0,0,0,-1,1455,1289,0,0
238,-265,0,0,0,0,0,0,0,0,0,-1,1462,1289,0,0
245,-265,0,0,0,0,0,0,0,0,0,-1,1469,1289,0,0
252,-265,0,0,0,0,0,0,0,0,0,-1,1476,1289,0,0
259,-265,0,0,0,0,0,0,0,0,0,-1,1483,1289,0,0
266,-265,0,0,0,0,0,0,0,0,0,-1,1490,1289,0,0
273,-265,0,0,0,0,0,0,0,0,0,-1,1497,1289,0,0
280,-265,0,0,0,0,0,0,0,0,0,-1,1504,1289,0,0
287,-265,0,0,0,0,0,0,0,0,0,-1,1511,1289,0,0
294,-265,0,0,0,0,0,0,0,0,0,-1,1518,1289,0,0
301,-265,0,0,0,0,0,0,0,0,0,-1,1525,1289,0,0
308,-265,0,0,0,0,0,0,0,0,0,-1,1532,1289,0,0
315,-265,0,0,0,0,0,0,0,0,0,-1,1539,1289,0,0
322,-265,0,0,0,0,0,0,0,0,0,-1,1546,1289,0,0
329,-265,0,0,0,0,0,0,0,0,0,-1,1553,1289,0,0
336,-265,0,0,0,0,0,0,0,0,0,-1,1560,1289,0,0
343,-265,0,0,0,0,0,0,0,0,0,-1,1567,1289,0,0
350,-265,0,0,0,0,0,0,0,0,0,-1,1574,1289,0,0
357,-265,0,0,0,0,0,0,0,0,0,-1,1581,1289,0,0
364,-265,0,0,0,0,0,0,0,0,0,-1,1588,1289,0,0
371,-265,0,0,0,0,0,0,0,0,0,-1,1595,1289,0,0
378,-265,0,0,0,0,0,0,0,0,0,-1,1602,1289,0,0
385,-265,0,0,0,0,0,0,0,0,0,-1,1609,1289,0,0
392,-265,0,0,0,0,0,0,0,0,0,-1,1616,1289,0,0
399,-265,0,0,0,0,0,0,0,0,0,-1,1623,1289,0,0
406,-265,0,0,0,0,0,0,0,0,0,-1,1630,1289,0,0
413,-265,0,0,0,0,0,0,0,0,0,-1,1637,1289,0,0
420,-265,0,0,0,0,0,0,0,0,0,-1,1644,1289,0,0
427,-265,0,0,0,0,0,0,0,0,0,-1,1651,1289,0,0
434,-265,0,0,0,0,0,0,0,0,0,-1,1658,1289,0,0
441,-265,0,0,0,0,0,0,0,0,0,-1,1665,1289,0,0
448,-265,0,0,0,0,0,0,0,0,0,-1,1672,1289,0,0
455,-265,0,0,0,0,0,0,0,0,0,-1,1679,1289,0,0
462,-265,0,0,0,0,0,0,0,0,0,-1,1686,1289,0,0
469,-265,0,0,0,0,0,0,0,0,0,-1,1693,1289,0,0
476,-265,0,0,0,0,0,0,0,0,0,-1,1700,1289,0,0
483,-265,0,0,0,0,0,0,0,0,0,-1,1707,1289,0,0
490,-265,0,0,0,0,0,0,0,0,0,-1,1714,1289,0,0
497,-265,0,0,0,0,0,0,0,0,0,-1,1721,1289,0,0
504,-265,0,0,0,0,0,0,0,0,0,-1,1728,1289,0,0
511,-265,0,0,0,0,0,0,0,0,0,-1,1735,1289,0,0
518,-265,0,0,0,0,0,0,0,0,0,-1,1742,1289,0,0
525,-265,0,0,0,0,0,0,0,0,0,-1,1749,1289,0,0
532,-265,0,0,0,0,0,0,0,0,0,-1,1756,1289,0,0
539,-265,0,0,0,0,0,0,0,0,0,-1,1763,1289,0,0
546,-265,0,0,0,0,0,0,0,0,0,-1,1770,1289,0,0
553,-265,0,0,0,0,0,0,0,0,0,-1,1777,1289,0,0
560,-265,0,0,0,0,0,0,0,0,0,-1,1784,1289,0,0
567,-265,0,0,0,0,0,0,0,0,0,-1,1791,1289,0,0
574,-265,0,0,0,0,0,0,0,0,0,-1,1798,1289,0,0
581,-265,0,0,0,0,0,0,0,0,0,-1,1805,1289,0,0
588,-265,0,0,0,0,0,0,0,0,0,-1,1812,1289,0,0
595,-265,0,0,0,0,0,0,0,0,0,-1,1819,1289,0,0
602,-265,47.6724,2.81152,-0.0163953,0.00943354,-0.0131846,0.0149749,-0.0219366,-1.17292,0.0214368,0.0260175,1826,1289,47.6723,-2.81157
609,-265,47.6853,2.771,-0.00841334,0.00851853,-0.00552204,0.0101603,-0.0100551,-1.28181,0.0116714,0.0263846,1833,1289,47.6853,-2.77094
616,-265,47.7172,2.77625,-4.83954e-05,0.00724672,0.00151078,0.00754721,-0.000348891,1.37446,0.00515171,0.0321456,1840,1289,47.7172,-2.77627
623,-265,47.7827,2.91248,0.005984,0.00536006,0.00583926,0.0115196,-0.000175552,0.758711,0.00773893,0.046286,1847,1289,47.7828,-2.91249
630,-265,47.8304,3.12427,0.0090729,0.00319712,0.00734201,0.014043,-0.00177298,0.595081,0.0100055,0.0439761,1854,1289,47.8304,-3.12423
637,-265,48.2506,3.3219,0.0089349,0.0016703,0.00637314,0.0126382,-0.00203296,0.526387,0.00917845,0.0426082,1861,1289,48.2506,-3.32185
644,-265,48.6356,3.34497,0,0,0,0,0,0,0,-1,1868,1289,48.6357,-3.34493
651,-265,45.0878,3.73743,0,0,0,0,0,0,0,-1,1875,1289,45.0877,-3.73741
658,-265,41.7163,3.71619,0,0,0,0,0,0,0,-1,1882,1289,41.7163,-3.71624
665,-265,34.7902,1.43164,0,0,0,0,0,0,0,-1,1889,1289,34.7901,-1.43162
672,-265,20.0045,6.62671,0,0,0,0,0,0,0,-1,1896,1289,20.0045,-6.62668
679,-265,34.9399,10.6392,0,0,0,0,0,0,0,-1,1903,1289,34.9399,-10.6392
686,-265,34.9426,10.1527,0.00300997,-0.000864394,-0.000161904,0.00301672,-0.000871148,-0.0416917,0.00235585,0.0364518,1910,1289,34.9427,-10.1527
693,-265,34.9462,9.68018,0.000752244,-0.000538246,3.91651e-05,0.000753431,-0.000539434,0.0303118,0.000749837,0.0100281,1917,1289,34.9462,-9.68017
700,-265,34.9261,9.20105,0.00051616,-0.000256996,0.000523826,0.000780609,-0.000521445,0.467513,0.000756689,0.0104309,1924,1289,34.9262,-9.201
707,-265,34.9275,8.71741,-1.85067e-05,-0.000364353,0.000835177,0.000661461,-0.00104432,0.683316,0.000993068,0.0111356,1931,1289,34.9275,-8.71746
714,-265,34.9139,8.27954,-0.000608327,-0.000497537,0.00128123,0.0007295,-0.00183536,0.807003,0.00152602,0.0122291,1938,1289,34.9139,-8.27958
721,-265,34.8673,7.83826,-0.00116738,-0.000734852,0.00179723,0.000859075,-0.00276131,0.845276,0.00218429,0.0128883,1945,1289,34.8673,-7.83831
728,-265,34.8429,7.40344,-0.00180182,-0.00105444,0.00237017,0.000971317,-0.00382757,0.863587,0.00292966,0.0138514,1952,1289,34.8429,-7.40346
735,-265,34.8864,6.96411,-0.00246741,-0.00146477,0.00298638,0.00106207,-0.00499425,0.868557,0.00373421,0.0172775,1959,1289,34.8863,-6.96407
742,-265,34.8761,6.55347,-0.00307902,-0.00197009,0.0036212,0.00113885,-0.00618796,0.861366,0.00455265,0.0211749,1966,1289,34.8761,-6.55351
749,-265,34.9155,6.26172,-0.00369148,-0.00258328,0.00441196,0.00130924,-0.007584,0.847866,0.00554419,0.0460554,1973,1289,34.9155,-6.26167
756,-265,35.0554,5.95776,0,0,0,0,0,0,0,-1,1980,1289,35.0554,-5.95774
763,-265,34.2904,5.52454,0,0,0,0,0,0,0,-1,1987,1289,34.2905,-5.52454
770,-265,35.1674,5.07715,0,0,0,0,0,0,0,-1,1994,1289,35.1673,-5.07718
777,-265,32.1664,5.3457,0,0,0,0,0,0,0,-1,2001,1289,32.1664,-5.34568
784,-265,0,0,0,0,0,0,0,0,0,-1,2008,1289,0,0
791,-265,0,0,0,0,0,0,0,0,0,-1,2015,1289,0,0
798,-265,0,0,0,0,0,0,0,0,0,-1,2022,1289,0,0
805,-265,0,0,0,0,0,0,0,0,0,-1,2029,1289,0,0
812,-265,0,0,0,0,0,0,0,0,0,-1,2036,1289,0,0
-700,-272,0,0,0,0,0,0,0,0,0,-1,524,1296,0,0
-693,-272,0,0,0,0,0,0,0,0,0,-1,531,1296,0,0
-686,-272,0,0,0,0,0,0,0,0,0,-1,538,1296,0,0
-679,-272,0,0,0,0,0,0,0,0,0,-1,545,1296,0,0
-672,-272,0,0,0,0,0,0,0,0,0,-1,552,1296,0,0
-665,-272,0,0,0,0,0,0,0,0,0,-1,559,1296,0,0
-658,-272,-18.6953,0.101318,0,0,0,0,0,0,0,-1,566,1296,-18.6953,-0.101268
-651,-272,-19.5643,1.76074,0,0,0,0,0,0,0,-1,573,1296,-19.5643,-1.76073
-644,-272,-24.5912,1.62415,0,0,0,0,0,0,0,-1,580,1296,-24.5912,-1.62411
-637,-272,-24.1454,0.841187,0,0,0,0,0,0,0,-1,587,1296,-24.1454,-0.841179
-630,-272,-23.6996,0.0582275,0,0,0,0,0,0,0,-1,594,1296,-23.6996,-0.0582498
-623,-272,-19.3821,2.36462,0,0,0,0,0,0,0,-1,601,1296,-19.3821,-2.36459
-616,-272,-20.7142,3.27356,0,0,0,0,0,0,0,-1,608,1296,-20.7142,-3.27361
-609,-272,-20.8734,4.13452,0.00821058,0.00938341,0.00733367,0.0161541,0.00143992,0.825294,0.0103229,0.0274998,615,1296,-20.8733,-4.13449
-602,-272,-20.9056,4.52515,0.00587622,0.00666491,0.0052412,0.0115266,0.00101456,0.822947,0.00736952,0.0148801,622,1296,-20.9056,-4.52511
-595,-272,-20.9371,5.04248,0.00434959,0.00444571,0.00367425,0.00807221,0.000723084,0.791938,0.00515737,0.0112739,629,1296,-20.9371,-5.04244
-588,-272,-20.9506,5.54236,0.00353364,0.00278898,0.00265895,0.00584621,0.000476416,0.715836,0.00374877,0.010633,636,1296,-20.9506,-5.54232
-581,-272,-20.983,6.03833,0.0032115,0.00149989,0.00200142,0.00453241,0.000178976,0.583363,0.00296375,0.0105863,643,1296,-20.983,-6.03836
-574,-272,-21.0361,6.5708,0.00330344,0.000520949,0.0016385,0.00406167,-0.000237281,0.433413,0.00279024,0.015762,650,1296,-21.0361,-6.57076
-567,-272,-21.0643,7.08521,0.00381057,-0.000161314,0.00158295,0.00436425,-0.000714999,0.336479,0.00317479,0.0205079,657,1296,-21.0643,-7.08516
-560,-272,-21.0946,7.58704,0.00442051,-0.000446491,0.00170258,0.00495697,-0.000982957,0.305243,0.00367637,0.0193118,664,1296,-21.0946,-7.58708
-553,-272,-20.9828,8.073,0.00498158,-0.000650832,0.00203133,0.00563774,-0.00130699,0.312439,0.0042615,0.0222574,671,1296,-20.9828,-8.07303
-546,-272,-20.8047,8.71521,0.00506717,-0.000630516,0.00228414,0.00586979,-0.00143314,0.337912,0.00446819,0.0447033,678,1296,-20.8047,-8.71526
-539,-272,-21.0858,9.44312,0,0,0,0,0,0,0,-1,685,1296,-21.0858,-9.44317
-532,-272,-10.5572,4.53943,0,0,0,0,0,0,0,-1,692,1296,-10.5572,-4.53943
-525,-272,-11.9599,0.0393066,0,0,0,0,0,0,0,-1,699,1296,-11.9599,-0.0393577
-518,-272,-21.1357,-1.41382,0,0,0,0,0,0,0,-1,706,1296,-21.1357,1.41379
-511,-272,-23.2565,0.226318,0,0,0,0,0,0,0,-1,713,1296,-23.2565,-0.22626
-504,-272,-19.7397,0.114746,0,0,0,0,0,0,0,-1,720,1296,-19.7397,-0.114701
-497,-272,-19.2225,1.71301,0,0,0,0,0,0,0,-1,727,1296,-19.2225,-1.71302
-490,-272,-20.1948,2.4032,0,0,0,0,0,0,0,-1,734,1296,-20.1948,-2.40322
-483,-272,-15.3736,0.792603,0,0,0,0,0,0,0,-1,741,1296,-15.3736,-0.79263
-476,-272,0,0,0,0,0,0,0,0,0,-1,748,1296,0,0
-469,-272,0,0,0,0,0,0,0,0,0,-1,755,1296,0,0
-462,-272,0,0,0,0,0,0,0,0,0,-1,762,1296,0,0
-455,-272,0,0,0,0,0,0,0,0,0,-1,769,1296,0,0
-448,-272,0,0,0,0,0,0,0,0,0,-1,776,1296,0,0
-441,-272,0,0,0,0,0,0,0,0,0,-1,783,1296,0,0
-434,-272,0,0,0,0,0,0,0,0,0,-1,790,1296,0,0
-427,-272,0,0,0,0,0,0,0,0,0,-1,797,1296,0,0
-420,-272,0,0,0,0,0,0,0,0,0,-1,804,1296,0,0
-413,-272,0,0,0,0,0,0,0,0,0,-1,811,1296,0,0
-406,-272,0,0,0,0,0,0,0,0,0,-1,818,1296,0,0
-399,-272,0,0,0,0,0,0,0,0,0,-1,825,1296,0,0
-392,-272,0,0,0,0,0,0,0,0,0,-1,832,1296,0,0
-385,-272,0,0,0,0,0,0,0,0,0,-1,839,1296,0,0
-378,-272,0,0,0,0,0,0,0,0,0,-1,846,1296,0,0
-371,-272,0,0,0,0,0,0,0,0,0,-1,853,1296,0,0
-364,-272,0,0,0,0,0,0,0,0,0,-1,860,1296,0,0
-357,-272,0,0,0,0,0,0,0,0,0,-1,867,1296,0,0
-350,-272,0,0,0,0,0,0,0,0,0,-1,874,1296,0,0
-343,-272,0,0,0,0,0,0,0,0,0,-1,881,1296,0,0
-336,-272,0,0,0,0,0,0,0,0,0,-1,888,1296,0,0
-329,-272,0,0,0,0,0,0,0,0,0,-1,895,1296,0,0
-322,-272,0,0,0,0,0,0,0,0,0,-1,902,1296,0,0
-315,-272,0,0,0,0,0,0,0,0,0,-1,909,1296,0,0
-308,-272,0,0,0,0,0,0,0,0,0,-1,916,1296,0,0
-301,-272,0,0,0,0,0,0,0,0,0,-1,923,1296,0,0
-294,-272,0,0,0,0,0,0,0,0,0,-1,930,1296,0,0
-287,-272,0,0,0,0,0,0,0,0,0,-1,937,1296,0,0
-280,-272,0,0,0,0,0,0,0,0,0,-1,944,1296,0,0
-273,-272,0,0,0,0,0,0,0,0,0,-1,951,1296,0,0
-266,-272,0,0,0,0,0,0,0,0,0,-1,958,1296,0,0
-259,-272,0,0,0,0,0,0,0,0,0,-1,965,1296,0,0
-252,-272,0,0,0,0,0,0,0,0,0,-1,972,1296,0,0
-245,-272,0,0,0,0,0,0,0,0,0,-1,979,1296,0,0
-238,-272,0,0,0,0,0,0,0,0,0,-1,986,1296,0,0
-231,-272,0,0,0,0,0,0,0,0,0,-1,993,1296,0,0
-224,-272,0,0,0,0,0,0,0,0,0,-1,1000,1296,0,0
-217,-272,0,0,0,0,0,0,0,0,0,-1,1007,1296,0,0
-210,-272,0,0,0,0,0,0,0,0,0,-1,1014,1296,0,0
-203,-272,0,0,0,0,0,0,0,0,0,-1,1021,1296,0,0
-196,-272,0,0,0,0,0,0,0,0,0,-1,1028,1296,0,0
-189,-272,0,0,0,0,0,0,0,0,0,-1,1035,1296,0,0
-182,-272,0,0,0,0,0,0,0,0,0,-1,1042,1296,0,0
-175,-272,0,0,0,0,0,0,0,0,0,-1,1049,1296,0,0
-168,-272,0,0,0,0,0,0,0,0,0,-1,1056,1296,0,0
-161,-272,0,0,0,0,0,0,0,0,0,-1,1063,1296,0,0
-154,-272,0,0,0,0,0,0,0,0,0,-1,1070,1296,0,0
-147,-272,0,0,0,0,0,0,0,0,0,-1,1077,1296,0,0
-140,-272,0,0,0,0,0,0,0,0,0,-1,1084,1296,0,0
-133,-272,0,0,0,0,0,0,0,0,0,-1,1091,1296,0,0
-126,-272,0,0,0,0,0,0,0,0,0,-1,1098,1296,0,0
-119,-272,0,0,0,0,0,0,0,0,0,-1,1105,1296,0,0
-112,-272,0,0,0,0,0,0,0,0,0,-1,1112,1296,0,0
-105,-272,0,0,0,0,0,0,0,0,0,-1,1119,1296,0,0
-98,-272,0,0,0,0,0,0,0,0,0,-1,1126,1296,0,0
-91,-272,0,0,0,0,0,0,0,0,0,-1,1133,1296,0,0
-84,-272,0,0,0,0,0,0,0,0,0,-1,1140,1296,0,0
-77,-272,0,0,0,0,0,0,0,0,0,-1,1147,1296,0,0
-70,-272,0,0,0,0,0,0,0,0,0,-1,1154,1296,0,0
-63,-272,0,0,0,0,0,0,0,0,0,-1,1161,1296,0,0
-56,-272,0,0,0,0,0,0,0,0,0,-1,1168,1296,0,0
-49,-272,0,0,0,0,0,0,0,0,0,-1,1175,1296,0,0
-42,-272,0,0,0,0,0,0,0,0,0,-1,1182,1296,0,0
-35,-272,0,0,0,0,0,0,0,0,0,-1,1189,1296,0,0
-28,-272,0,0,0,0,0,0,0,0,0,-1,1196,1296,0,0
-21,-272,0,0,0,0,0,0,0,0,0,-1,1203,1296,0,0
-14,-272,0,0,0,0,0,0,0,0,0,-1,1210,1296,0,0
-7,-272,0,0,0,0,0,0,0,0,0,-1,1217,1296,0,0
0,-272,0,0,0,0,0,0,0,0,0,-1,1224,1296,0,0
7,-272,0,0,0,0,0,0,0,0,0,-1,1231,1296,0,0
14,-272,0,0,0,0,0,0,0,0,0,-1,1238,1296,0,0
21,-272,0,0,0,0,0,0,0,0,0,-1,1245,1296,0,0
28,-272,0,0,0,0,0,0,0,0,0,-1,1252,1296,0,0
35,-272,0,0,0,0,0,0,0,0,0,-1,1259,1296,0,0
42,-272,0,0,0,0,0,0,0,0,0,-1,1266,1296,0,0
49,-272,0,0,0,0,0,0,0,0,0,-1,1273,1296,0,0
56,-272,0,0,0,0,0,0,0,0,0,-1,1280,1296,0,0
63,-272,0,0,0,0,0,0,0,0,0,-1,1287,1296,0,0
70,-272,0,0,0,0,0,0,0,0,0,-1,1294,1296,0,0
77,-272,0,0,0,0,0,0,0,0,0,-1,1301,1296,0,0
84,-272,0,0,0,0,0,0,0,0,0,-1,1308,1296,0,0
91,-272,0,0,0,0,0,0,0,0,0,-1,1315,1296,0,0
98,-272,0,0,0,0,0,0,0,0,0,-1,1322,1296,0,0
105,-272,0,0,0,0,0,0,0,0,0,-1,1329,1296,0,0
112,-272,0,0,0,0,0,0,0,0,0,-1,1336,1296,0,0
119,-272,0,0,0,0,0,0,0,0,0,-1,1343,1296,0,0
126,-272,0,0,0,0,0,0,0,0,0,-1,1350,1296,0,0
133,-272,0,0,0,0,0,0,0,0,0,-1,1357,1296,0,0
140,-272,0,0,0,0,0,0,0,0,0,-1,1364,1296,0,0
147,-272,0,0,0,0,0,0,0,0,0,-1,1371,1296,0,0
154,-272,0,0,0,0,0,0,0,0,0,-1,1378,1296,0,0
161,-272,0,0,0,0,0,0,0,0,0,-1,1385,1296,0,0
168,-272,0,0,0,0,0,0,0,0,0,-1,1392,1296,0,0
175,-272,0,0,0,0,0,0,0,0,0,-1,1399,1296,0,0
182,-272,0,0,0,0,0,0,0,0,0,-1,1406,1296,0,0
189,-272,0,0,0,0,0,0,0,0,0,-1,1413,1296,0,0
196,-272,0,0,0,0,0,0,0,0,0,-1,1420,1296,0,0
203,-272,0,0,0,0,0,0,0,0,0,-1,1427,1296,0,0
210,-272,0,0,0,0,0,0,0,0,0,-1,1434,1296,0,0
217,-272,0,0,0,0,0,0,0,0,0,-1,1441,1296,0,0
224,-272,0,0,0,0,0,0,0,0,0,-1,1448,1296,0,0
231,-272,0,0,0,0,0,0,0,0,0,-1,1455,1296,0,0
238,-272,0,0,0,0,0,0,0,0,0,-1,1462,1296,0,0
245,-272,0,0,0,0,0,0,0,0,0,-1,1469,1296,0,0
252,-272,0,0,0,0,0,0,0,0,0,-1,1476,1296,0,0
259,-272,0,0,0,0,0,0,0,0,0,-1,1483,1296,0,0
266,-272,0,0,0,0,0,0,0,0,0,-1,1490,1296,0,0
273,-272,0,0,0,0,0,0,0,0,0,-1,1497,1296,0,0
280,-272,0,0,0,0,0,0,0,0,0,-1,1504,1296,0,0
287,-272,0,0,0,0,0,0,0,0,0,-1,1511,1296,0,0
294,-272,0,0,0,0,0,0,0,0,0,-1,1518,1296,0,0
301,-272,0,0,0,0,0,0,0,0,0,-1,1525,1296,0,0
308,-272,0,0,0,0,0,0,0,0,0,-1,1532,1296,0,0
315,-272,0,0,0,0,0,0,0,0,0,-1,1539,1296,0,0
322,-272,0,0,0,0,0,0,0,0,0,-1,1546,1296,0,0
329,-272,0,0,0,0,0,0,0,0,0,-1,1553,1296,0,0
336,-272,0,0,0,0,0,0,0,0,0,-1,1560,1296,0,0
343,-272,0,0,0,0,0,0,0,0,0,-1,1567,1296,0,0
350,-272,0,0,0,0,0,0,0,0,0,-1,1574,1296,0,0
357,-272,0,0,0,0,0,0,0,0,0,-1,1581,1296,0,0
364,-272,0,0,0,0,0,0,0,0,0,-1,1588,1296,0,0
371,-272,0,0,0,0,0,0,0,0,0,-1,1595,1296,0,0
378,-272,0,0,0,0,0,0,0,0,0,-1,1602,1296,0,0
385,-272,0,0,0,0,0,0,0,0,0,-1,1609,1296,0,0
392,-272,0,0,0,0,0,0,0,0,0,-1,1616,1296,0,0
399,-272,0,0,0,0,0,0,0,0,0,-1,1623,1296,0,0
406,-272,0,0,0,0,0,0,0,0,0,-1,1630,1296,0,0
413,-272,0,0,0,0,0,0,0,0,0,-1,1637,1296,0,0
420,-272,0,0,0,0,0,0,0,0,0,-1,1644,1296,0,0
427,-272,0,0,0,0,0,0,0,0,0,-1,1651,1296,0,0
434,-272,0,0,0,0,0,0,0,0,0,-1,1658,1296,0,0
441,-272,0,0,0,0,0,0,0,0,0,-1,1665,1296,0,0
448,-272,0,0,0,0,0,0,0,0,0,-1,1672,1296,0,0
455,-272,0,0,0,0,0,0,0,0,0,-1,1679,1296,0,0
462,-272,0,0,0,0,0,0,0,0,0,-1,1686,1296,0,0
469,-272,0,0,0,0,0,0,0,0,0,-1,1693,1296,0,0
476,-272,0,0,0,0,0,0,0,0,0,-1,1700,1296,0,0
483,-272,0,0,0,0,0,0,0,0,0,-1,1707,1296,0,0
490,-272,0,0,0,0,0,0,0,0,0,-1,1714,1296,0,0
497,-272,0,0,0,0,0,0,0,0,0,-1,1721,1296,0,0
504,-272,0,0,0,0,0,0,0,0,0,-1,1728,1296,0,0
511,-272,0,0,0,0,0,0,0,0,0,-1,1735,1296,0,0
518,-272,0,0,0,0,0,0,0,0,0,-1,1742,1296,0,0
525,-272,0,0,0,0,0,0,0,0,0,-1,1749,1296,0,0
532,-272,0,0,0,0,0,0,0,0,0,-1,1756,1296,0,0
539,-272,0,0,0,0,0,0,0,0,0,-1,1763,1296,0,0
546,-272,0,0,0,0,0,0,0,0,0,-1,1770,1296,0,0
553,-272,0,0,0,0,0,0,0,0,0,-1,1777,1296,0,0
560,-272,0,0,0,0,0,0,0,0,0,-1,1784,1296,0,0
567,-272,0,0,0,0,0,0,0,0,0,-1,1791,1296,0,0
574,-272,0,0,0,0,0,0,0,0,0,-1,1798,1296,0,0
581,-272,0,0,0,0,0,0,0,0,0,-1,1805,1296,0,0
588,-272,0,0,0,0,0,0,0,0,0,-1,1812,1296,0,0
595,-272,0,0,0,0,0,0,0,0,0,-1,1819,1296,0,0
602,-272,47.6873,2.83301,-0.0164625,0.012257,-0.0134059,0.0175421,-0.0217477,-1.19527,0.0227273,0.0296775,1826,1296,47.6873,-2.833
609,-272,47.6587,2.69897,-0.00780091,0.0114901,-0.00414524,0.0123431,-0.00865392,-1.36785,0.0121848,0.0363918,1833,1296,47.6587,-2.69901
616,-272,47.6429,2.53516,0.000605372,0.0100585,0.00379669,0.0113945,-0.00073068,1.23243,0.00785124,0.0414924,1840,1296,47.6429,-2.5352
623,-272,47.801,2.92371,0,0,0,0,0,0,0,-1,1847,1296,47.8011,-2.92375
630,-272,47.5967,3.10583,0.00794434,0.00503409,0.00847004,0.0150833,-0.00210491,0.70033,0.0108256,0.0443775,1854,1296,47.5967,-3.10584
637,-272,48.1522,3.06519,0.00795681,0.00315762,0.00737074,0.0133087,-0.00219429,0.62803,0.00968711,0.049031,1861,1296,48.1523,-3.06517
644,-272,48.5034,3.21082,0,0,0,0,0,0,0,-1,1868,1296,48.5034,-3.21077
651,-272,41.9225,4.27161,0,0,0,0,0,0,0,-1,1875,1296,41.9225,-4.27157
658,-272,35.1527,2.10571,0,0,0,0,0,0,0,-1,1882,1296,35.1527,-2.10573
665,-272,22.0238,4.14417,0,0,0,0,0,0,0,-1,1889,1296,22.0238,-4.14421
672,-272,22.661,7.21765,0,0,0,0,0,0,0,-1,1896,1296,22.661,-7.21761
679,-272,34.4586,10.6351,0,0,0,0,0,0,0,-1,1903,1296,34.4586,-10.6352
686,-272,34.4559,10.16,0.00268437,-0.000732259,-4.75477e-05,0.00268503,-0.00073292,-0.013913,0.00207787,0.0231753,1910,1296,34.456,-10.16
693,-272,34.4691,9.69446,0.000344038,-0.000491652,0.00015362,0.000371383,-0.000518997,0.176155,0.00051641,0.0117885,1917,1296,34.4692,-9.69441
700,-272,34.4624,9.2301,0.000180862,-0.000296408,0.000626259,0.000612411,-0.000727957,0.603367,0.00077482,0.0122953,1924,1296,34.4624,-9.2301
707,-272,34.4603,8.73669,-0.0002364,-0.000435431,0.000974644,0.000643796,-0.00131563,0.734522,0.00115323,0.0120773,1931,1296,34.4603,-8.73667
714,-272,34.4564,8.27625,-0.000762832,-0.000614366,0.00142579,0.000739123,-0.00211632,0.811407,0.00171131,0.0130119,1938,1296,34.4564,-8.27624
721,-272,34.4219,7.8606,-0.00138679,-0.000881676,0.00195987,0.000841846,-0.00311031,0.849477,0.00240381,0.0161109,1945,1296,34.4219,-7.86059
728,-272,34.4138,7.38489,-0.00214429,-0.00124547,0.00257229,0.000916374,-0.00430614,0.871881,0.00321998,0.0181241,1952,1296,34.4138,-7.38487
735,-272,34.4115,6.96021,-0.00299107,-0.00171832,0.00322908,0.000936492,-0.00564588,0.882689,0.00411179,0.016249,1959,1296,34.4115,-6.96026
742,-272,34.354,6.59424,-0.00387483,-0.00231032,0.00390764,0.000892591,-0.00707774,0.884185,0.00504243,0.0263294,1966,1296,34.354,-6.59429
749,-272,34.4177,6.16467,0,0,0,0,0,0,0,-1,1973,1296,34.4177,-6.16469
756,-272,32.9099,5.30151,0,0,0,0,0,0,0,-1,1980,1296,32.9099,-5.30156
763,-272,34.3995,5.88416,0,0,0,0,0,0,0,-1,1987,1296,34.3996,-5.88419
770,-272,25.9485,3.67749,0,0,0,0,0,0,0,-1,1994,1296,25.9485,-3.67744
777,-272,32.3619,6.13257,0,0,0,0,0,0,0,-1,2001,1296,32.362,-6.1326
784,-272,0,0,0,0,0,0,0,0,0,-1,2008,1296,0,0
791,-272,0,0,0,0,0,0,0,0,0,-1,2015,1296,0,0
798,-272,0,0,0,0,0,0,0,0,0,-1,2022,1296,0,0
805,-272,0,0,0,0,0,0,0,0,0,-1,2029,1296,0,0
812,-272,0,0,0,0,0,0,0,0,0,-1,2036,1296,0,0
-700,-279,0,0,0,0,0,0,0,0,0,-1,524,1303,0,0
-693,-279,0,0,0,0,0,0,0,0,0,-1,531,1303,0,0
-686,-279,0,0,0,0,0,0,0,0,0,-1,538,1303,0,0
-679,-279,0,0,0,0,0,0,0,0,0,-1,545,1303,0,0
-672,-279,0,0,0,0,0,0,0,0,0,-1,552,1303,0,0
-665,-279,0,0,0,0,0,0,0,0,0,-1,559,1303,0,0
-658,-279,-18.0391,1.31946,0,0,0,0,0,0,0,-1,566,1303,-18.0391,-1.31942
-651,-279,-18.2878,1.5625,0,0,0,0,0,0,0,-1,573,1303,-18.2879,-1.56247
-644,-279,-19.7198,0.645874,0,0,0,0,0,0,0,-1,580,1303,-19.7198,-0.645909
-637,-279,-24.0978,0.214844,0,0,0,0,0,0,0,-1,587,1303,-24.0978,-0.214866
-630,-279,-19.8475,-0.60144,0,0,0,0,0,0,0,-1,594,1303,-19.8475,0.60148
-623,-279,-20.8763,2.23047,0,0,0,0,0,0,0,-1,601,1303,-20.8763,-2.23049
-616,-279,-21.2455,3.28198,0,0,0,0,0,0,0,-1,608,1303,-21.2455,-3.282
-609,-279,-20.7807,3.91968,0.00868726,0.010292,0.00778795,0.0173188,0.00166047,0.836732,0.0110341,0.0473813,615,1303,-20.7807,-3.91972
-602,-279,-20.3966,4.5354,0.00617353,0.00733062,0.00558391,0.0123659,0.00113828,0.837019,0.0078919,0.0153718,622,1303,-20.3966,-4.53542
-595,-279,-20.4202,5.04492,0.00448313,0.00490641,0.00387743,0.00857797,0.000811571,0.812662,0.00546824,0.010169,629,1303,-20.4202,-5.0449
-588,-279,-20.4294,5.54993,0.00354829,0.0031428,0.00278752,0.00614043,0.000550659,0.749096,0.00392297,0.0107884,636,1303,-20.4294,-5.54998
-581,-279,-20.4674,6.04663,0.00309601,0.00178732,0.00205471,0.00459805,0.000285285,0.631245,0.00297483,0.0116654,643,1303,-20.4674,-6.04666
-574,-279,-20.5071,6.54175,0.00304423,0.00075944,0.00162347,0.00388696,-8.32867e-05,0.478803,0.00261951,0.0121108,650,1303,-20.5071,-6.54172
-567,-279,-20.5339,7.04712,0.00332453,2.50343e-06,0.00144264,0.00386356,-0.000536522,0.357576,0.00277191,0.0167619,657,1303,-20.5339,-7.04709
-560,-279,-20.5395,7.59814,0.00385587,-0.000392452,0.00150564,0.00433537,-0.000871943,0.308309,0.00322048,0.0164144,664,1303,-20.5395,-7.59814
-553,-279,-20.5205,8.12964,0.00455249,-0.00055333,0.00184022,0.0051466,-0.00114744,0.312285,0.00387066,0.013667,671,1303,-20.5205,-8.12959
-546,-279,-20.4962,8.6239,0.00496185,-0.00042067,0.00221659,0.00575716,-0.00121598,0.34449,0.00430111,0.0257703,678,1303,-20.4962,-8.62392
-539,-279,-20.7444,9.17651,0,0,0,0,0,0,0,-1,685,1303,-20.7444,-9.17655
-532,-279,-14.9813,7.89917,0,0,0,0,0,0,0,-1,692,1303,-14.9813,-7.89918
-525,-279,-11.7063,-0.539185,0,0,0,0,0,0,0,-1,699,1303,-11.7063,0.539166
-518,-279,-16.8138,1.11963,0,0,0,0,0,0,0,-1,706,1303,-16.8138,-1.11968
-511,-279,-20.1063,-1.37915,0,0,0,0,0,0,0,-1,713,1303,-20.1062,1.37918
-504,-279,-18.3766,1.04578,0,0,0,0,0,0,0,-1,720,1303,-18.3767,-1.04577
-497,-279,-19.0046,2.08911,0,0,0,0,0,0,0,-1,727,1303,-19.0046,-2.08905
-490,-279,-20.0176,2.55188,0,0,0,0,0,0,0,-1,734,1303,-20.0176,-2.55183
-483,-279,-20.8064,2.99792,0,0,0,0,0,0,0,-1,741,1303,-20.8064,-2.99797
-476,-279,0,0,0,0,0,0,0,0,0,-1,748,1303,0,0
-469,-279,0,0,0,0,0,0,0,0,0,-1,755,1303,0,0
-462,-279,0,0,0,0,0,0,0,0,0,-1,762,1303,0,0
-455,-279,0,0,0,0,0,0,0,0,0,-1,769,1303,0,0
-448,-279,0,0,0,0,0,0,0,0,0,-1,776,1303,0,0
-441,-279,0,0,0,0,0,0,0,0,0,-1,783,1303,0,0
-434,-279,0,0,0,0,0,0,0,0,0,-1,790,1303,0,0
-427,-279,0,0,0,0,0,0,0,0,0,-1,797,1303,0,0
-420,-279,0,0,0,0,0,0,0,0,0,-1,804,1303,0,0
-413,-279,0,0,0,0,0,0,0,0,0,-1,811,1303,0,0
-406,-279,0,0,0,0,0,0,0,0,0,-1,818,1303,0,0
-399,-279,0,0,0,0,0,0,0,0,0,-1,825,1303,0,0
-392,-279,0,0,0,0,0,0,0,0,0,-1,832,1303,0,0
-385,-279,0,0,0,0,0,0,0,0,0,-1,839,1303,0,0
-378,-279,0,0,0,0,0,0,0,0,0,-1,846,1303,0,0
-371,-279,0,0,0,0,0,0,0,0,0,-1,853,1303,0,0
-364,-279,0,0,0,0,0,0,0,0,0,-1,860,1303,0,0
-357,-279,0,0,0,0,0,0,0,0,0,-1,867,1303,0,0
-350,-279,0,0,0,0,0,0,0,0,0,-1,874,1303,0,0
-343,-279,0,0,0,0,0,0,0,0,0,-1,881,1303,0,0
-336,-279,0,0,0,0,0,0,0,0,0,-1,888,1303,0,0
-329,-279,0,0,0,0,0,0,0,0,0,-1,895,1303,0,0
-322,-279,0,0,0,0,0,0,0,0,0,-1,902,1303,0,0
-315,-279,0,0,0,0,0,0,0,0,0,-1,909,1303,0,0
-308,-279,0,0,0,0,0,0,0,0,0,-1,916,1303,0,0
-301,-279,0,0,0,0,0,0,0,0,0,-1,923,1303,0,0
-294,-279,0,0,0,0,0,0,0,0,0,-1,930,1303,0,0
-287,-279,0,0,0,0,0,0,0,0,0,-1,937,1303,0,0
-280,-279,0,0,0,0,0,0,0,0,0,-1,944,1303,0,0
-273,-279,0,0,0,0,0,0,0,0,0,-1,951,1303,0,0
-266,-279,0,0,0,0,0,0,0,0,0,-1,958,1303,0,0
-259,-279,0,0,0,0,0,0,0,0,0,-1,965,1303,0,0
-252,-279,0,0,0,0,0,0,0,0,0,-1,972,1303,0,0
-245,-279,0,0,0,0,0,0,0,0,0,-1,979,1303,0,0
-238,-279,0,0,0,0,0,0,0,0,0,-1,986,1303,0,0
-231,-279,0,0,0,0,0,0,0,0,0,-1,993,1303,0,0
-224,-279,0,0,0,0,0,0,0,0,0,-1,1000,1303,0,0
-217,-279,0,0,0,0,0,0,0,0,0,-1,1007,1303,0,0
-210,-279,0,0,0,0,0,0,0,0,0,-1,1014,1303,0,0
-203,-279,0,0,0,0,0,0,0,0,0,-1,1021,1303,0,0
-196,-279,0,0,0,0,0,0,0,0,0,-1,1028,1303,0,0
-189,-279,0,0,0,0,0,0,0,0,0,-1,1035,1303,0,0
-182,-279,0,0,0,0,0,0,0,0,0,-1,1042,1303,0,0
-175,-279,0,0,0,0,0,0,0,0,0,-1,1049,1303,0,0
-168,-279,0,0,0,0,0,0,0,0,0,-1,1056,1303,0,0
-161,-279,0,0,0,0,0,0,0,0,0,-1,1063,1303,0,0
-154,-279,0,0,0,0,0,0,0,0,0,-1,1070,1303,0,0
-147,-279,0,0,0,0,0,0,0,0,0,-1,1077,1303,0,0
-140,-279,0,0,0,0,0,0,0,0,0,-1,1084,1303,0,0
-133,-279,0,0,0,0,0,0,0,0,0,-1,1091,1303,0,0
-126,-279,0,0,0,0,0,0,0,0,0,-1,1098,1303,0,0
-119,-279,0,0,0,0,0,0,0,0,0,-1,1105,1303,0,0
-112,-279,0,0,0,0,0,0,0,0,0,-1,1112,1303,0,0
-105,-279,0,0,0,0,0,0,0,0,0,-1,1119,1303,0,0
-98,-279,0,0,0,0,0,0,0,0,0,-1,1126,1303,0,0
-91,-279,0,0,0,0,0,0,0,0,0,-1,1133,1303,0,0
-84,-279,0,0,0,0,0,0,0,0,0,-1,1140,1303,0,0
-77,-279,0,0,0,0,0,0,0,0,0,-1,1147,1303,0,0
-70,-279,0,0,0,0,0,0,0,0,0,-1,1154,1303,0,0
-63,-279,0,0,0,0,0,0,0,0,0,-1,1161,1303,0,0
-56,-279,0,0,0,0,0,0,0,0,0,-1,1168,1303,0,0
-49,-279,0,0,0,0,0,0,0,0,0,-1,1175,1303,0,0
-42,-279,0,0,0,0,0,0,0,0,0,-1,1182,1303,0,0
-35,-279,0,0,0,0,0,0,0,0,0,-1,1189,1303,0,0
-28,-279,0,0,0,0,0,0,0,0,0,-1,1196,1303,0,0
-21,-279,0,0,0,0,0,0,0,0,0,-1,1203,1303,0,0
-14,-279,0,0,0,0,0,0,0,0,0,-1,1210,1303,0,0
-7,-279,0,0,0,0,0,0,0,0,0,-1,1217,1303,0,0
0,-279,0,0,0,0,0,0,0,0,0,-1,1224,1303,0,0
7,-279,0,0,0,0,0,0,0,0,0,-1,1231,1303,0,0
14,-279,0,0,0,0,0,0,0,0,0,-1,1238,1303,0,0
21,-279,0,0,0,0,0,0,0,0,0,-1,1245,1303,0,0
28,-279,0,0,0,0,0,0,0,0,0,-1,1252,1303,0,0
35,-279,0,0,0,0,0,0,0,0,0,-1,1259,1303,0,0
42,-279,0,0,0,0,0,0,0,0,0,-1,1266,1303,0,0
49,-279,0,0,0,0,0,0,0,0,0,-1,1273,1303,0,0
56,-279,0,0,0,0,0,0,0,0,0,-1,1280,1303,0,0
63,-279,0,0,0,0,0,0,0,0,0,-1,1287,1303,0,0
70,-279,0,0,0,0,0,0,0,0,0,-1,1294,1303,0,0
77,-279,0,0,0,0,0,0,0,0,0,-1,1301,1303,0,0
84,-279,0,0,0,0,0,0,0,0,0,-1,1308,1303,0,0
91,-279,0,0,0,0,0,0,0,0,0,-1,1315,1303,0,0
98,-279,0,0,0,0,0,0,0,0,0,-1,1322,1303,0,0
105,-279,0,0,0,0,0,0,0,0,0,-1,1329,1303,0,0
112,-279,0,0,0,0,0,0,0,0,0,-1,1336,1303,0,0
119,-279,0,0,0,0,0,0,0,0,0,-1,1343,1303,0,0
126,-279,0,0,0,0,0,0,0,0,0,-1,1350,1303,0,0
133,-279,0,0,0,0,0,0,0,0,0,-1,1357,1303,0,0
140,-279,0,0,0,0,0,0,0,0,0,-1,1364,1303,0,0
147,-279,0,0,0,0,0,0,0,0,0,-1,1371,1303,0,0
154,-279,0,0,0,0,0,0,0,0,0,-1,1378,1303,0,0
161,-279,0,0,0,0,0,0,0,0,0,-1,1385,1303,0,0
168,-279,0,0,0,0,0,0,0,0,0,-1,1392,1303,0,0
175,-279,0,0,0,0,0,0,0,0,0,-1,1399,1303,0,0
182,-279,0,0,0,0,0,0,0,0,0,-1,1406,1303,0,0
189,-279,0,0,0,0,0,0,0,0,0,-1,1413,1303,0,0
196,-279,0,0,0,0,0,0,0,0,0,-1,1420,1303,0,0
203,-279,0,0,0,0,0,0,0,0,0,-1,1427,1303,0,0
210,-279,0,0,0,0,0,0,0,0,0,-1,1434,1303,0,0
217,-279,0,0,0,0,0,0,0,0,0,-1,1441,1303,0,0
224,-279,0,0,0,0,0,0,0,0,0,-1,1448,1303,0,0
231,-279,0,0,0,0,0,0,0,0,0,-1,1455,1303,0,0
238,-279,0,0,0,0,0,0,0,0,0,-1,1462,1303,0,0
245,-279,0,0,0,0,0,0,0,0,0,-1,1469,1303,0,0
252,-279,0,0,0,0,0,0,0,0,0,-1,1476,1303,0,0
259,-279,0,0,0,0,0,0,0,0,0,-1,1483,1303,0,0
266,-279,0,0,0,0,0,0,0,0,0,-1,1490,1303,0,0
273,-279,0,0,0,0,0,0,0,0,0,-1,1497,1303,0,0
280,-279,0,0,0,0,0,0,0,0,0,-1,1504,1303,0,0
287,-279,0,0,0,0,0,0,0,0,0,-1,1511,1303,0,0
294,-279,0,0,0,0,0,0,0,0,0,-1,1518,1303,0,0
301,-279,0,0,0,0,0,0,0,0,0,-1,1525,1303,0,0
308,-279,0,0,0,0,0,0,0,0,0,-1,1532,1303,0,0
315,-279,0,0,0,0,0,0,0,0,0,-1,1539,1303,0,0
322,-279,0,0,0,0,0,0,0,0,0,-1,1546,1303,0,0
329,-279,0,0,0,0,0,0,0,0,0,-1,1553,1303,0,0
336,-279,0,0,0,0,0,0,0,0,0,-1,1560,1303,0,0
343,-279,0,0,0,0,0,0,0,0,0,-1,1567,1303,0,0
350,-279,0,0,0,0,0,0,0,0,0,-1,1574,1303,0,0
357,-279,0,0,0,0,0,0,0,0,0,-1,1581,1303,0,0
364,-279,0,0,0,0,0,0,0,0,0,-1,1588,1303,0,0
371,-279,0,0,0,0,0,0,0,0,0,-1,1595,1303,0,0
378,-279,0,0,0,0,0,0,0,0,0,-1,1602,1303,0,0
385,-279,0,0,0,0,0,0,0,0,0,-1,1609,1303,0,0
392,-279,0,0,0,0,0,0,0,0,0,-1,1616,1303,0,0
399,-279,0,0,0,0,0,0,0,0,0,-1,1623,1303,0,0
406,-279,0,0,0,0,0,0,0,0,0,-1,1630,1303,0,0
413,-279,0,0,0,0,0,0,0,0,0,-1,1637,1303,0,0
420,-279,0,0,0,0,0,0,0,0,0,-1,1644,1303,0,0
427,-279,0,0,0,0,0,0,0,0,0,-1,1651,1303,0,0
434,-279,0,0,0,0,0,0,0,0,0,-1,1658,1303,0,0
441,-279,0,0,0,0,0,0,0,0,0,-1,1665,1303,0,0
448,-279,0,0,0,0,0,0,0,0,0,-1,1672,1303,0,0
455,-279,0,0,0,0,0,0,0,0,0,-1,1679,1303,0,0
462,-279,0,0,0,0,0,0,0,0,0,-1,1686,1303,0,0
469,-279,0,0,0,0,0,0,0,0,0,-1,1693,1303,0,0
476,-279,0,0,0,0,0,0,0,0,0,-1,1700,1303,0,0
483,-279,0,0,0,0,0,0,0,0,0,-1,1707,1303,0,0
490,-279,0,0,0,0,0,0,0,0,0,-1,1714,1303,0,0
497,-279,0,0,0,0,0,0,0,0,0,-1,1721,1303,0,0
504,-279,0,0,0,0,0,0,0,0,0,-1,1728,1303,0,0
511,-279,0,0,0,0,0,0,0,0,0,-1,1735,1303,0,0
518,-279,0,0,0,0,0,0,0,0,0,-1,1742,1303,0,0
525,-279,0,0,0,0,0,0,0,0,0,-1,1749,1303,0,0
532,-279,0,0,0,0,0,0,0,0,0,-1,1756,1303,0,0
539,-279,0,0,0,0,0,0,0,0,0,-1,1763,1303,0,0
546,-279,0,0,0,0,0,0,0,0,0,-1,1770,1303,0,0
553,-279,0,0,0,0,0,0,0,0,0,-1,1777,1303,0,0
560,-279,0,0,0,0,0,0,0,0,0,-1,1784,1303,0,0
567,-279,0,0,0,0,0,0,0,0,0,-1,1791,1303,0,0
574,-279,0,0,0,0,0,0,0,0,0,-1,1798,1303,0,0
581,-279,0,0,0,0,0,0,0,0,0,-1,1805,1303,0,0
588,-279,0,0,0,0,0,0,0,0,0,-1,1812,1303,0,0
595,-279,0,0,0,0,0,0,0,0,0,-1,1819,1303,0,0
602,-279,47.7351,2.77771,-0.0178866,0.0160369,-0.0128771,0.0203712,-0.0222209,-1.24612,0.0245983,0.0393733,1826,1303,47.7351,-2.7777
609,-279,47.6837,2.50562,-0.00861491,0.0152321,-0.00191362,0.0153847,-0.0087675,-1.49123,0.0141176,0.0482934,1833,1303,47.6837,-2.50558
616,-279,47.5424,2.27441,-0.00120494,0.0130325,0.00537857,0.014836,-0.00300839,1.24727,0.0110311,0.0457696,1840,1303,47.5423,-2.27444
623,-279,47.3363,2.15381,0.00295021,0.0100226,0.00814733,0.015368,-0.00239525,0.990145,0.01113,0.0474581,1847,1303,47.3363,-2.15379
630,-279,47.5459,3.11841,0.00546737,0.00697809,0.00875339,0.0150087,-0.00256319,0.828438,0.0109605,0.0465903,1854,1303,47.5458,-3.11836
637,-279,47.9097,3.3302,0,0,0,0,0,0,0,-1,1861,1303,47.9097,-3.33018
644,-279,33.5021,3.40234,0,0,0,0,0,0,0,-1,1868,1303,33.5021,-3.40237
651,-279,29.8456,2.3562,0,0,0,0,0,0,0,-1,1875,1303,29.8455,-2.35615
658,-279,21.5076,7.65649,0,0,0,0,0,0,0,-1,1882,1303,21.5076,-7.65648
665,-279,18.9794,6.09607,0,0,0,0,0,0,0,-1,1889,1303,18.9793,-6.09601
672,-279,23.5206,8.32507,0,0,0,0,0,0,0,-1,1896,1303,23.5206,-8.32512
679,-279,33.9387,10.6353,0,0,0,0,0,0,0,-1,1903,1303,33.9387,-10.6353
686,-279,33.9951,10.1731,0.00294759,-0.000725972,-0.000219282,0.00296063,-0.000739015,-0.0594107,0.00226072,0.0260402,1910,1303,33.9952,-10.1731
693,-279,34.0034,9.70117,0.000717752,-0.000562609,-1.39373e-05,0.000717904,-0.000562761,-0.0108838,0.000741198,0.016499,1917,1303,34.0034,-9.70111
700,-279,34.0143,9.2644,0.000430388,-0.000411465,0.000492453,0.000657296,-0.000638372,0.431774,0.000748081,0.0128453,1924,1303,34.0143,-9.26439
707,-279,33.9954,8.77417,-9.27098e-05,-0.000546322,0.000955592,0.000662623,-0.00130166,0.668881,0.00115391,0.0102347,1931,1303,33.9953,-8.77419
714,-279,33.9789,8.3031,-0.000726921,-0.000760152,0.00149748,0.000754035,-0.00224111,0.779851,0.00179889,0.010343,1938,1303,33.9788,-8.30314
721,-279,33.9962,7.84753,-0.00150486,-0.00108342,0.00212796,0.000844225,-0.00343251,0.83475,0.00261556,0.0145084,1945,1303,33.9962,-7.84759
728,-279,33.9884,7.39233,-0.00243951,-0.00153863,0.00284756,0.000893897,-0.00487204,0.86384,0.00358335,0.0171458,1952,1303,33.9884,-7.39234
735,-279,33.9478,6.99292,-0.00351869,-0.00212649,0.00361056,0.000854456,-0.00649964,0.880628,0.00464418,0.0162412,1959,1303,33.9478,-6.99288
742,-279,33.8405,6.58374,-0.0047518,-0.00287324,0.00440737,0.000693824,-0.00831887,0.890385,0.00579106,0.0311474,1966,1303,33.8405,-6.58377
749,-279,33.8789,6.11719,0,0,0,0,0,0,0,-1,1973,1303,33.8789,-6.11719
756,-279,23.2091,4.43433,0,0,0,0,0,0,0,-1,1980,1303,23.2092,-4.43432
763,-279,27.1613,3.46265,0,0,0,0,0,0,0,-1,1987,1303,27.1613,-3.4627
770,-279,21.5828,3.54199,0,0,0,0,0,0,0,-1,1994,1303,21.5827,-3.54198
777,-279,32.5369,6.99609,0,0,0,0,0,0,0,-1,2001,1303,32.5369,-6.99608
784,-279,0,0,0,0,0,0,0,0,0,-1,2008,1303,0,0
791,-279,0,0,0,0,0,0,0,0,0,-1,2015,1303,0,0
798,-279,0,0,0,0,0,0,0,0,0,-1,2022,1303,0,0
805,-279,0,0,0,0,0,0,0,0,0,-1,2029,1303,0,0
812,-279,0,0,0,0,0,0,0,0,0,-1,2036,1303,0,0
-700,-286,0,0,0,0,0,0,0,0,0,-1,524,1310,0,0
-693,-286,0,0,0,0,0,0,0,0,0,-1,531,1310,0,0
-686,-286,0,0,0,0,0,0,0,0,0,-1,538,1310,0,0
-679,-286,0,0,0,0,0,0,0,0,0,-1,545,1310,0,0
-672,-286,0,0,0,0,0,0,0,0,0,-1,552,1310,0,0
-665,-286,0,0,0,0,0,0,0,0,0,-1,559,1310,0,0
-658,-286,-18.8017,-0.794922,0,0,0,0,0,0,0,-1,566,1310,-18.8017,0.79496
-651,-286,-18.798,0.594727,0,0,0,0,0,0,0,-1,573,1310,-18.798,-0.594671
-644,-286,-19.1089,1.80017,0,0,0,0,0,0,0,-1,580,1310,-19.1089,-1.80021
-637,-286,-19.4593,2.65125,0,0,0,0,0,0,0,-1,587,1310,-19.4593,-2.65124
-630,-286,-19.6556,3.39246,0,0,0,0,0,0,0,-1,594,1310,-19.6556,-3.39242
-623,-286,-20.1415,-1.72998,0,0,0,0,0,0,0,-1,601,1310,-20.1415,1.72995
-616,-286,-20.7865,2.08813,0,0,0,0,0,0,0,-1,608,1310,-20.7865,-2.08817
-609,-286,-20.4456,3.54932,0,0,0,0,0,0,0,-1,615,1310,-20.4455,-3.54935
-602,-286,-19.9171,4.45911,0.00675041,0.00784177,0.00607501,0.0133956,0.00119663,0.83019,0.00855942,0.0206234,622,1310,-19.9171,-4.45908
-595,-286,-19.9356,5.05481,0.00481155,0.00526324,0.00415748,0.00920101,0.000873788,0.812533,0.00586448,0.0119717,629,1310,-19.9356,-5.05477
-588,-286,-19.944,5.552,0.00370625,0.0034547,0.00297027,0.00655341,0.000607544,0.764239,0.00418116,0.0125418,636,1310,-19.944,-5.55205
-581,-286,-19.9272,6.05725,0.00310072,0.00210649,0.00216547,0.0048254,0.000381808,0.672571,0.00309752,0.0139297,643,1310,-19.9273,-6.05722
-574,-286,-19.9533,6.5592,0.00289499,0.0010944,0.00166566,0.00388809,0.000101291,0.537637,0.00255897,0.0137075,650,1310,-19.9533,-6.55921
-567,-286,-19.9988,7.06653,0.00300779,0.000324227,0.00139878,0.0036043,-0.000272281,0.403097,0.00249858,0.013763,657,1310,-19.9988,-7.06647
-560,-286,-20.0019,7.59863,0.00346239,-0.000143734,0.00139937,0.00394171,-0.000623054,0.330001,0.00285822,0.0139519,664,1310,-20.0019,-7.59867
-553,-286,-19.9997,8.13342,0.00423738,-0.000353803,0.00167715,0.00478477,-0.000901199,0.315484,0.00352882,0.0108883,671,1310,-19.9997,-8.1334
-546,-286,-20.0013,8.68042,0.00497957,-0.00027919,0.00208449,0.0057056,-0.00100521,0.335158,0.00417929,0.019949,678,1310,-20.0014,-8.68045
-539,-286,-20.027,9.19836,0.00584299,-0.000344587,0.00267782,0.00684093,-0.00134253,0.356725,0.00506776,0.046543,685,1310,-20.0269,-9.19835
-532,-286,-19.9098,9.71912,0,0,0,0,0,0,0,-1,692,1310,-19.9098,-9.71909
-525,-286,-11.4528,-1.11768,0,0,0,0,0,0,0,-1,699,1310,-11.4528,1.11769
-518,-286,-11.0701,1.37329,0,0,0,0,0,0,0,-1,706,1310,-11.0701,-1.37332
-511,-286,-17.7545,-0.0791016,0,0,0,0,0,0,0,-1,713,1310,-17.7544,0.0791606
-504,-286,-18.0455,1.29602,0,0,0,0,0,0,0,-1,720,1310,-18.0455,-1.29601
-497,-286,-18.3367,2.67114,0,0,0,0,0,0,0,-1,727,1310,-18.3366,-2.67118
-490,-286,-19.5795,2.47266,0,0,0,0,0,0,0,-1,734,1310,-19.5795,-2.4727
-483,-286,-19.7277,2.74744,0,0,0,0,0,0,0,-1,741,1310,-19.7277,-2.74747
-476,-286,-20.0391,3.06177,0,0,0,0,0,0,0,-1,748,1310,-20.0391,-3.06178
-469,-286,0,0,0,0,0,0,0,0,0,-1,755,1310,0,0
-462,-286,0,0,0,0,0,0,0,0,0,-1,762,1310,0,0
-455,-286,0,0,0,0,0,0,0,0,0,-1,769,1310,0,0
-448,-286,0,0,0,0,0,0,0,0,0,-1,776,1310,0,0
-441,-286,0,0,0,0,0,0,0,0,0,-1,783,1310,0,0
-434,-286,0,0,0,0,0,0,0,0,0,-1,790,1310,0,0
-427,-286,0,0,0,0,0,0,0,0,0,-1,797,1310,0,0
-420,-286,0,0,0,0,0,0,0,0,0,-1,804,1310,0,0
-413,-286,0,0,0,0,0,0,0,0,0,-1,811,1310,0,0
-406,-286,0,0,0,0,0,0,0,0,0,-1,818,1310,0,0
-399,-286,0,0,0,0,0,0,0,0,0,-1,825,1310,0,0
-392,-286,0,0,0,0,0,0,0,0,0,-1,832,1310,0,0
-385,-286,0,0,0,0,0,0,0,0,0,-1,839,1310,0,0
-378,-286,0,0,0,0,0,0,0,0,0,-1,846,1310,0,0
-371,-286,0,0,0,0,0,0,0,0,0,-1,853,1310,0,0
-364,-286,0,0,0,0,0,0,0,0,0,-1,860,1310,0,0
-357,-286,0,0,0,0,0,0,0,0,0,-1,867,1310,0,0
-350,-286,0,0,0,0,0,0,0,0,0,-1,874,1310,0,0
-343,-286,0,0,0,0,0,0,0,0,0,-1,881,1310,0,0
-336,-286,0,0,0,0,0,0,0,0,0,-1,888,1310,0,0
-329,-286,0,0,0,0,0,0,0,0,0,-1,895,1310,0,0
-322,-286,0,0,0,0,0,0,0,0,0,-1,902,1310,0,0
-315,-286,0,0,0,0,0,0,0,0,0,-1,909,1310,0,0
-308,-286,0,0,0,0,0,0,0,0,0,-1,916,1310,0,0
-301,-286,0,0,0,0,0,0,0,0,0,-1,923,1310,0,0
-294,-286,0,0,0,0,0,0,0,0,0,-1,930,1310,0,0
-287,-286,0,0,0,0,0,0,0,0,0,-1,937,1310,0,0
-280,-286,0,0,0,0,0,0,0,0,0,-1,944,1310,0,0
-273,-286,0,0,0,0,0,0,0,0,0,-1,951,1310,0,0
-266,-286,0,0,0,0,0,0,0,0,0,-1,958,1310,0,0
-259,-286,0,0,0,0,0,0,0,0,0,-1,965,1310,0,0
-252,-286,0,0,0,0,0,0,0,0,0,-1,972,1310,0,0
-245,-286,0,0,0,0,0,0,0,0,0,-1,979,1310,0,0
-238,-286,0,0,0,0,0,0,0,0,0,-1,986,1310,0,0
-231,-286,0,0,0,0,0,0,0,0,0,-1,993,1310,0,0
-224,-286,0,0,0,0,0,0,0,0,0,-1,1000,1310,0,0
-217,-286,0,0,0,0,0,0,0,0,0,-1,1007,1310,0,0
-210,-286,0,0,0,0,0,0,0,0,0,-1,1014,1310,0,0
-203,-286,0,0,0,0,0,0,0,0,0,-1,1021,1310,0,0
-196,-286,0,0,0,0,0,0,0,0,0,-1,1028,1310,0,0
-189,-286,0,0,0,0,0,0,0,0,0,-1,1035,1310,0,0
-182,-286,0,0,0,0,0,0,0,0,0,-1,1042,1310,0,0
-175,-286,0,0,0,0,0,0,0,0,0,-1,1049,1310,0,0
-168,-286,0,0,0,0,0,0,0,0,0,-1,1056,1310,0,0
-161,-286,0,0,0,0,0,0,0,0,0,-1,1063,1310,0,0
-154,-286,0,0,0,0,0,0,0,0,0,-1,1070,1310,0,0
-147,-286,0,0,0,0,0,0,0,0,0,-1,1077,1310,0,0
-140,-286,0,0,0,0,0,0,0,0,0,-1,1084,1310,0,0
-133,-286,0,0,0,0,0,0,0,0,0,-1,1091,1310,0,0
-126,-286,0,0,0,0,0,0,0,0,0,-1,1098,1310,0,0
-119,-286,0,0,0,0,0,0,0,0,0,-1,1105,1310,0,0
-112,-286,0,0,0,0,0,0,0,0,0,-1,1112,1310,0,0
-105,-286,0,0,0,0,0,0,0,0,0,-1,1119,1310,0,0
-98,-286,0,0,0,0,0,0,0,0,0,-1,1126,1310,0,0
-91,-286,0,0,0,0,0,0,0,0,0,-1,1133,1310,0,0
-84,-286,0,0,0,0,0,0,0,0,0,-1,1140,1310,0,0
-77,-286,0,0,0,0,0,0,0,0,0,-1,1147,1310,0,0
-70,-286,0,0,0,0,0,0,0,0,0,-1,1154,1310,0,0
-63,-286,0,0,0,0,0,0,0,0,0,-1,1161,1310,0,0
-56,-286,0,0,0,0,0,0,0,0,0,-1,1168,1310,0,0
-49,-286,0,0,0,0,0,0,0,0,0,-1,1175,1310,0,0
-42,-286,0,0,0,0,0,0,0,0,0,-1,1182,1310,0,0
-35,-286,0,0,0,0,0,0,0,0,0,-1,1189,1310,0,0
-28,-286,0,0,0,0,0,0,0,0,0,-1,1196,1310,0,0
-21,-286,0,0,0,0,0,0,0,0,0,-1,1203,1310,0,0
-14,-286,0,0,0,0,0,0,0,0,0,-1,1210,1310,0,0
-7,-286,0,0,0,0,0,0,0,0,0,-1,1217,1310,0,0
0,-286,0,0,0,0,0,0,0,0,0,-1,1224,1310,0,0
7,-286,0,0,0,0,0,0,0,0,0,-1,1231,1310,0,0
14,-286,0,0,0,0,0,0,0,0,0,-1,1238,1310,0,0
21,-286,0,0,0,0,0,0,0,0,0,-1,1245,1310,0,0
28,-286,0,0,0,0,0,0,0,0,0,-1,1252,1310,0,0
35,-286,0,0,0,0,0,0,0,0,0,-1,1259,1310,0,0
42,-286,0,0,0,0,0,0,0,0,0,-1,1266,1310,0,0
49,-286,0,0,0,0,0,0,0,0,0,-1,1273,1310,0,0
56,-286,0,0,0,0,0,0,0,0,0,-1,1280,1310,0,0
63,-286,0,0,0,0,0,0,0,0,0,-1,1287,1310,0,0
70,-286,0,0,0,0,0,0,0,0,0,-1,1294,1310,0,0
77,-286,0,0,0,0,0,0,0,0,0,-1,1301,1310,0,0
84,-286,0,0,0,0,0,0,0,0,0,-1,1308,1310,0,0
91,-286,0,0,0,0,0,0,0,0,0,-1,1315,1310,0,0
98,-286,0,0,0,0,0,0,0,0,0,-1,1322,1310,0,0
105,-286,0,0,0,0,0,0,0,0,0,-1,1329,1310,0,0
112,-286,0,0,0,0,0,0,0,0,0,-1,1336,1310,0,0
119,-286,0,0,0,0,0,0,0,0,0,-1,1343,1310,0,0
126,-286,0,0,0,0,0,0,0,0,0,-1,1350,1310,0,0
133,-286,0,0,0,0,0,0,0,0,0,-1,1357,1310,0,0
140,-286,0,0,0,0,0,0,0,0,0,-1,1364,1310,0,0
147,-286,0,0,0,0,0,0,0,0,0,-1,1371,1310,0,0
154,-286,0,0,0,0,0,0,0,0,0,-1,1378,1310,0,0
161,-286,0,0,0,0,0,0,0,0,0,-1,1385,1310,0,0
168,-286,0,0,0,0,0,0,0,0,0,-1,1392,1310,0,0
175,-286,0,0,0,0,0,0,0,0,0,-1,1399,1310,0,0
182,-286,0,0,0,0,0,0,0,0,0,-1,1406,1310,0,0
189,-286,0,0,0,0,0,0,0,0,0,-1,1413,1310,0,0
196,-286,0,0,0,0,0,0,0,0,0,-1,1420,1310,0,0
203,-286,0,0,0,0,0,0,0,0,0,-1,1427,1310,0,0
210,-286,0,0,0,0,0,0,0,0,0,-1,1434,1310,0,0
217,-286,0,0,0,0,0,0,0,0,0,-1,1441,1310,0,0
224,-286,0,0,0,0,0,0,0,0,0,-1,1448,1310,0,0
231,-286,0,0,0,0,0,0,0,0,0,-1,1455,1310,0,0
238,-286,0,0,0,0,0,0,0,0,0,-1,1462,1310,0,0
245,-286,0,0,0,0,0,0,0,0,0,-1,1469,1310,0,0
252,-286,0,0,0,0,0,0,0,0,0,-1,1476,1310,0,0
259,-286,0,0,0,0,0,0,0,0,0,-1,1483,1310,0,0
266,-286,0,0,0,0,0,0,0,0,0,-1,1490,1310,0,0
273,-286,0,0,0,0,0,0,0,0,0,-1,1497,1310,0,0
280,-286,0,0,0,0,0,0,0,0,0,-1,1504,1310,0,0
287,-286,0,0,0,0,0,0,0,0,0,-1,1511,1310,0,0
294,-286,0,0,0,0,0,0,0,0,0,-1,1518,1310,0,0
301,-286,0,0,0,0,0,0,0,0,0,-1,1525,1310,0,0
308,-286,0,0,0,0,0,0,0,0,0,-1,1532,1310,0,0
315,-286,0,0,0,0,0,0,0,0,0,-1,1539,1310,0,0
322,-286,0,0,0,0,0,0,0,0,0,-1,1546,1310,0,0
329,-286,0,0,0,0,0,0,0,0,0,-1,1553,1310,0,0
336,-286,0,0,0,0,0,0,0,0,0,-1,1560,1310,0,0
343,-286,0,0,0,0,0,0,0,0,0,-1,1567,1310,0,0
350,-286,0,0,0,0,0,0,0,0,0,-1,1574,1310,0,0
357,-286,0,0,0,0,0,0,0,0,0,-1,1581,1310,0,0
364,-286,0,0,0,0,0,0,0,0,0,-1,1588,1310,0,0
371,-286,0,0,0,0,0,0,0,0,0,-1,1595,1310,0,0
378,-286,0,0,0,0,0,0,0,0,0,-1,1602,1310,0,0
385,-286,0,0,0,0,0,0,0,0,0,-1,1609,1310,0,0
392,-286,0,0,0,0,0,0,0,0,0,-1,1616,1310,0,0
399,-286,0,0,0,0,0,0,0,0,0,-1,1623,1310,0,0
406,-286,0,0,0,0,0,0,0,0,0,-1,1630,1310,0,0
413,-286,0,0,0,0,0,0,0,0,0,-1,1637,1310,0,0
420,-286,0,0,0,0,0,0,0,0,0,-1,1644,1310,0,0
427,-286,0,0,0,0,0,0,0,0,0,-1,1651,1310,0,0
434,-286,0,0,0,0,0,0,0,0,0,-1,1658,1310,0,0
441,-286,0,0,0,0,0,0,0,0,0,-1,1665,1310,0,0
448,-286,0,0,0,0,0,0,0,0,0,-1,1672,1310,0,0
455,-286,0,0,0,0,0,0,0,0,0,-1,1679,1310,0,0
462,-286,0,0,0,0,0,0,0,0,0,-1,1686,1310,0,0
469,-286,0,0,0,0,0,0,0,0,0,-1,1693,1310,0,0
476,-286,0,0,0,0,0,0,0,0,0,-1,1700,1310,0,0
483,-286,0,0,0,0,0,0,0,0,0,-1,1707,1310,0,0
490,-286,0,0,0,0,0,0,0,0,0,-1,1714,1310,0,0
497,-286,0,0,0,0,0,0,0,0,0,-1,1721,1310,0,0
504,-286,0,0,0,0,0,0,0,0,0,-1,1728,1310,0,0
511,-286,0,0,0,0,0,0,0,0,0,-1,1735,1310,0,0
518,-286,0,0,0,0,0,0,0,0,0,-1,1742,1310,0,0
525,-286,0,0,0,0,0,0,0,0,0,-1,1749,1310,0,0
532,-286,0,0,0,0,0,0,0,0,0,-1,1756,1310,0,0
539,-286,0,0,0,0,0,0,0,0,0,-1,1763,1310,0,0
546,-286,0,0,0,0,0,0,0,0,0,-1,1770,1310,0,0
553,-286,0,0,0,0,0,0,0,0,0,-1,1777,1310,0,0
560,-286,0,0,0,0,0,0,0,0,0,-1,1784,1310,0,0
567,-286,0,0,0,0,0,0,0,0,0,-1,1791,1310,0,0
574,-286,0,0,0,0,0,0,0,0,0,-1,1798,1310,0,0
581,-286,0,0,0,0,0,0,0,0,0,-1,1805,1310,0,0
588,-286,0,0,0,0,0,0,0,0,0,-1,1812,1310,0,0
595,-286,47.9208,2.89246,0,0,0,0,0,0,0,-1,1819,1310,47.9208,-2.89241
602,-286,47.9656,2.77246,-0.0218337,0.0209869,-0.0117219,0.0239857,-0.0248324,-1.32034,0.0281866,0.0473952,1826,1310,47.9656,-2.77243
609,-286,47.7137,2.32471,-0.0126695,0.019515,-0.00054174,0.0195241,-0.0126786,-1.55397,0.0187317,0.0473953,1833,1310,47.7137,-2.32473
616,-286,47.4093,2.06836,-0.00629758,0.0161997,0.00484472,0.0171987,-0.00729652,1.36746,0.0145224,0.0442029,1840,1310,47.4092,-2.0683
623,-286,47.295,1.92749,-0.00182605,0.0126339,0.00722456,0.0156248,-0.00481697,1.17828,0.0123397,0.0491225,1847,1310,47.295,-1.92752
630,-286,47.1569,3.21167,0.00174334,0.00914504,0.00820939,0.0144492,-0.00356083,0.99716,0.0110133,0.0484955,1854,1310,47.1569,-3.21161
637,-286,47.8409,3.69824,0,0,0,0,0,0,0,-1,1861,1310,47.841,-3.69823
644,-286,25.6433,1.33862,0,0,0,0,0,0,0,-1,1868,1310,25.6433,-1.33858
651,-286,25.2507,1.88245,0,0,0,0,0,0,0,-1,1875,1310,25.2508,-1.88245
658,-286,25.9475,9.43689,0,0,0,0,0,0,0,-1,1882,1310,25.9475,-9.43693
665,-286,24.9838,8.03101,0,0,0,0,0,0,0,-1,1889,1310,24.9837,-8.03104
672,-286,33.8113,10.923,0,0,0,0,0,0,0,-1,1896,1310,33.8112,-10.923
679,-286,33.5792,10.6396,0,0,0,0,0,0,0,-1,1903,1310,33.5793,-10.6397
686,-286,33.569,10.1938,0.00267045,-0.000740243,-0.000358905,0.00270781,-0.000777601,-0.103716,0.00211266,0.0217181,1910,1310,33.5689,-10.1939
693,-286,33.5447,9.73486,0.000597919,-0.000608307,-0.000120693,0.000609877,-0.000620264,-0.0987536,0.000710231,0.0162292,1917,1310,33.5446,-9.73483
700,-286,33.5403,9.25586,0.000272199,-0.000485647,0.000408679,0.000450592,-0.00066404,0.41158,0.000647454,0.0122916,1924,1310,33.5403,-9.25589
707,-286,33.5228,8.80554,-0.000214589,-0.000621891,0.000964254,0.000567285,-0.00140376,0.681327,0.00117165,0.00992607,1931,1310,33.5229,-8.80559
714,-286,33.5083,8.35217,-0.000826128,-0.000881422,0.00159381,0.000740278,-0.00244783,0.776726,0.00192665,0.00972367,1938,1310,33.5083,-8.35219
721,-286,33.5242,7.88794,-0.00159439,-0.00127735,0.00232998,0.000899497,-0.00377124,0.819363,0.00286151,0.0125052,1945,1310,33.5242,-7.88789
728,-286,33.5033,7.43066,-0.00256008,-0.00185064,0.00318088,0.000995238,-0.00540596,0.840927,0.00397744,0.0159748,1952,1310,33.5033,-7.43065
735,-286,33.525,6.98328,-0.00371532,-0.00259627,0.00408923,0.000971536,-0.00728313,0.85339,0.00520955,0.019726,1959,1310,33.525,-6.98333
742,-286,33.5323,6.57849,-0.00511416,-0.00357731,0.00507825,0.000790325,-0.0094818,0.860487,0.00660043,0.0441475,1966,1310,33.5323,-6.57855
749,-286,33.6887,6.1189,0,0,0,0,0,0,0,-1,1973,1310,33.6888,-6.1189
756,-286,24.8226,4.43481,0,0,0,0,0,0,0,-1,1980,1310,24.8227,-4.43479
763,-286,20.6671,3.99683,0,0,0,0,0,0,0,-1,1987,1310,20.6671,-3.99683
770,-286,23.9147,4.45679,0,0,0,0,0,0,0,-1,1994,1310,23.9146,-4.45675
777,-286,0,0,0,0,0,0,0,0,0,-1,2001,1310,0,0
784,-286,0,0,0,0,0,0,0,0,0,-1,2008,1310,0,0
791,-286,0,0,0,0,0,0,0,0,0,-1,2015,1310,0,0
798,-286,0,0,0,0,0,0,0,0,0,-1,2022,1310,0,0
805,-286,0,0,0,0,0,0,0,0,0,-1,2029,1310,0,0
812,-286,0,0,0,0,0,0,0,0,0,-1,2036,1310,0,0
-700,-293,0,0,0,0,0,0,0,0,0,-1,524,1317,0,0
-693,-293,0,0,0,0,0,0,0,0,0,-1,531,1317,0,0
-686,-293,0,0,0,0,0,0,0,0,0,-1,538,1317,0,0
-679,-293,0,0,0,0,0,0,0,0,0,-1,545,1317,0,0
-672,-293,0,0,0,0,0,0,0,0,0,-1,552,1317,0,0
-665,-293,0,0,0,0,0,0,0,0,0,-1,559,1317,0,0
-658,-293,0,0,0,0,0,0,0,0,0,-1,566,1317,0,0
-651,-293,-19.3986,0.230591,0,0,0,0,0,0,0,-1,573,1317,-19.3986,-0.230615
-644,-293,-19.6501,1.56128,0,0,0,0,0,0,0,-1,580,1317,-19.6502,-1.56126
-637,-293,-19.9641,2.40369,0,0,0,0,0,0,0,-1,587,1317,-19.9641,-2.4037
-630,-293,-20.2918,3.08264,0,0,0,0,0,0,0,-1,594,1317,-20.2918,-3.08267
-623,-293,-15.6058,0.229614,0,0,0,0,0,0,0,-1,601,1317,-15.6058,-0.229666
-616,-293,-15.5056,2.17737,0,0,0,0,0,0,0,-1,608,1317,-15.5055,-2.17742
-609,-293,-19.2825,3.5614,0,0,0,0,0,0,0,-1,615,1317,-19.2825,-3.56137
-602,-293,-19.2725,4.32861,0.00750009,0.00820776,0.006557,0.0144205,0.00128739,0.812353,0.00921454,0.0463031,622,1317,-19.2725,-4.32861
-595,-293,-19.4559,5.05273,0.00532121,0.00552535,0.00441697,0.00984143,0.00100513,0.796951,0.0062529,0.0193241,629,1317,-19.456,-5.05275
-588,-293,-19.4344,5.58447,0.00404708,0.00370889,0.00312621,0.00700876,0.00074721,0.758379,0.00444442,0.0164914,636,1317,-19.4344,-5.5845
-581,-293,-19.4127,6.07678,0.00329815,0.0024035,0.00224661,0.00514154,0.000560116,0.687128,0.00325708,0.0185412,643,1317,-19.4127,-6.0768
-574,-293,-19.4478,6.61096,0.00295162,0.00143254,0.00168045,0.00403621,0.000347948,0.573145,0.00258265,0.0161965,650,1317,-19.4478,-6.611
-567,-293,-19.4949,7.12671,0.0029248,0.000680913,0.00135037,0.0035585,4.72182e-05,0.438766,0.00235675,0.0155393,657,1317,-19.4949,-7.12677
-560,-293,-19.4937,7.64478,0.003281,0.000182396,0.00128863,0.00374687,-0.000283472,0.346902,0.00259756,0.0161522,664,1317,-19.4937,-7.64483
-553,-293,-19.4844,8.14294,0.00403,-6.28134e-05,0.00149161,0.00451592,-0.000548736,0.314928,0.0032092,0.0116403,671,1317,-19.4845,-8.14298
-546,-293,-19.4835,8.67883,0.00504291,-4.88151e-05,0.00188608,0.00566544,-0.000671344,0.318806,0.00401948,0.012294,678,1317,-19.4834,-8.6788
-539,-293,-19.4557,9.19531,0.00655633,-0.00010329,0.00260076,0.00745163,-0.000998593,0.33154,0.00533188,0.0350797,685,1317,-19.4557,-9.19537
-532,-293,-19.3888,9.63098,0,0,0,0,0,0,0,-1,692,1317,-19.3888,-9.63103
-525,-293,-8.20642,3.62256,0,0,0,0,0,0,0,-1,699,1317,-8.20639,-3.6226
-518,-293,-10.1053,0.314209,0,0,0,0,0,0,0,-1,706,1317,-10.1053,-0.314234
-511,-293,-11.6276,0.235352,0,0,0,0,0,0,0,-1,713,1317,-11.6276,-0.235372
-504,-293,-17.9086,1.25427,0,0,0,0,0,0,0,-1,720,1317,-17.9086,-1.25423
-497,-293,-18.8006,1.62122,0,0,0,0,0,0,0,-1,727,1317,-18.8006,-1.62119
-490,-293,-18.8961,1.99255,0,0,0,0,0,0,0,-1,734,1317,-18.8961,-1.99251
-483,-293,-19.0831,2.35498,0,0,0,0,0,0,0,-1,741,1317,-19.0831,-2.35497
-476,-293,-19.5228,2.61243,0,0,0,0,0,0,0,-1,748,1317,-19.5228,-2.61237
-469,-293,0,0,0,0,0,0,0,0,0,-1,755,1317,0,0
-462,-293,0,0,0,0,0,0,0,0,0,-1,762,1317,0,0
-455,-293,0,0,0,0,0,0,0,0,0,-1,769,1317,0,0
-448,-293,0,0,0,0,0,0,0,0,0,-1,776,1317,0,0
-441,-293,0,0,0,0,0,0,0,0,0,-1,783,1317,0,0
-434,-293,0,0,0,0,0,0,0,0,0,-1,790,1317,0,0
-427,-293,0,0,0,0,0,0,0,0,0,-1,797,1317,0,0
-420,-293,0,0,0,0,0,0,0,0,0,-1,804,1317,0,0
-413,-293,0,0,0,0,0,0,0,0,0,-1,811,1317,0,0
-406,-293,0,0,0,0,0,0,0,0,0,-1,818,1317,0,0
-399,-293,0,0,0,0,0,0,0,0,0,-1,825,1317,0,0
-392,-293,0,0,0,0,0,0,0,0,0,-1,832,1317,0,0
-385,-293,0,0,0,0,0,0,0,0,0,-1,839,1317,0,0
-378,-293,0,0,0,0,0,0,0,0,0,-1,846,1317,0,0
-371,-293,0,0,0,0,0,0,0,0,0,-1,853,1317,0,0
-364,-293,0,0,0,0,0,0,0,0,0,-1,860,1317,0,0
-357,-293,0,0,0,0,0,0,0,0,0,-1,867,1317,0,0
-350,-293,0,0,0,0,0,0,0,0,0,-1,874,1317,0,0
-343,-293,0,0,0,0,0,0,0,0,0,-1,881,1317,0,0
-336,-293,0,0,0,0,0,0,0,0,0,-1,888,1317,0,0
-329,-293,0,0,0,0,0,0,0,0,0,-1,895,1317,0,0
-322,-293,0,0,0,0,0,0,0,0,0,-1,902,1317,0,0
-315,-293,0,0,0,0,0,0,0,0,0,-1,909,1317,0,0
-308,-293,0,0,0,0,0,0,0,0,0,-1,916,1317,0,0
-301,-293,0,0,0,0,0,0,0,0,0,-1,923,1317,0,0
-294,-293,0,0,0,0,0,0,0,0,0,-1,930,1317,0,0
-287,-293,0,0,0,0,0,0,0,0,0,-1,937,1317,0,0
-280,-293,0,0,0,0,0,0,0,0,0,-1,944,1317,0,0
-273,-293,0,0,0,0,0,0,0,0,0,-1,951,1317,0,0
-266,-293,0,0,0,0,0,0,0,0,0,-1,958,1317,0,0
-259,-293,0,0,0,0,0,0,0,0,0,-1,965,1317,0,0
-252,-293,0,0,0,0,0,0,0,0,0,-1,972,1317,0,0
-245,-293,0,0,0,0,0,0,0,0,0,-1,979,1317,0,0
-238,-293,0,0,0,0,0,0,0,0,0,-1,986,1317,0,0
-231,-293,0,0,0,0,0,0,0,0,0,-1,993,1317,0,0
-224,-293,0,0,0,0,0,0,0,0,0,-1,1000,1317,0,0
-217,-293,0,0,0,0,0,0,0,0,0,-1,1007,1317,0,0
-210,-293,0,0,0,0,0,0,0,0,0,-1,1014,1317,0,0
-203,-293,0,0,0,0,0,0,0,0,0,-1,1021,1317,0,0
-196,-293,0,0,0,0,0,0,0,0,0,-1,1028,1317,0,0
-189,-293,0,0,0,0,0,0,0,0,0,-1,1035,1317,0,0
-182,-293,0,0,0,0,0,0,0,0,0,-1,1042,1317,0,0
-175,-293,0,0,0,0,0,0,0,0,0,-1,1049,1317,0,0
-168,-293,0,0,0,0,0,0,0,0,0,-1,1056,1317,0,0
-161,-293,0,0,0,0,0,0,0,0,0,-1,1063,1317,0,0
-154,-293,0,0,0,0,0,0,0,0,0,-1,1070,1317,0,0
-147,-293,0,0,0,0,0,0,0,0,0,-1,1077,1317,0,0
-140,-293,0,0,0,0,0,0,0,0,0,-1,1084,1317,0,0
-133,-293,0,0,0,0,0,0,0,0,0,-1,1091,1317,0,0
-126,-293,0,0,0,0,0,0,0,0,0,-1,1098,1317,0,0
-119,-293,0,0,0,0,0,0,0,0,0,-1,1105,1317,0,0
-112,-293,0,0,0,0,0,0,0,0,0,-1,1112,1317,0,0
-105,-293,0,0,0,0,0,0,0,0,0,-1,1119,1317,0,0
-98,-293,0,0,0,0,0,0,0,0,0,-1,1126,1317,0,0
-91,-293,0,0,0,0,0,0,0,0,0,-1,1133,1317,0,0
-84,-293,0,0,0,0,0,0,0,0,0,-1,1140,1317,0,0
-77,-293,0,0,0,0,0,0,0,0,0,-1,1147,1317,0,0
-70,-293,0,0,0,0,0,0,0,0,0,-1,1154,1317,0,0
-63,-293,0,0,0,0,0,0,0,0,0,-1,1161,1317,0,0
-56,-293,0,0,0,0,0,0,0,0,0,-1,1168,1317,0,0
-49,-293,0,0,0,0,0,0,0,0,0,-1,1175,1317,0,0
-42,-293,0,0,0,0,0,0,0,0,0,-1,1182,1317,0,0
-35,-293,0,0,0,0,0,0,0,0,0,-1,1189,1317,0,0
-28,-293,0,0,0,0,0,0,0,0,0,-1,1196,1317,0,0
-21,-293,0,0,0,0,0,0,0,0,0,-1,1203,1317,0,0
-14,-293,0,0,0,0,0,0,0,0,0,-1,1210,1317,0,0
-7,-293,0,0,0,0,0,0,0,0,0,-1,1217,1317,0,0
0,-293,0,0,0,0,0,0,0,0,0,-1,1224,1317,0,0
7,-293,0,0,0,0,0,0,0,0,0,-1,1231,1317,0,0
14,-293,0,0,0,0,0,0,0,0,0,-1,1238,1317,0,0
21,-293,0,0,0,0,0,0,0,0,0,-1,1245,1317,0,0
28,-293,0,0,0,0,0,0,0,0,0,-1,1252,1317,0,0
35,-293,0,0,0,0,0,0,0,0,0,-1,1259,1317,0,0
42,-293,0,0,0,0,0,0,0,0,0,-1,1266,1317,0,0
49,-293,0,0,0,0,0,0,0,0,0,-1,1273,1317,0,0
56,-293,0,0,0,0,0,0,0,0,0,-1,1280,1317,0,0
63,-293,0,0,0,0,0,0,0,0,0,-1,1287,1317,0,0
70,-293,0,0,0,0,0,0,0,0,0,-1,1294,1317,0,0
77,-293,0,0,0,0,0,0,0,0,0,-1,1301,1317,0,0
84,-293,0,0,0,0,0,0,0,0,0,-1,1308,1317,0,0
91,-293,0,0,0,0,0,0,0,0,0,-1,1315,1317,0,0
98,-293,0,0,0,0,0,0,0,0,0,-1,1322,1317,0,0
105,-293,0,0,0,0,0,0,0,0,0,-1,1329,1317,0,0
112,-293,0,0,0,0,0,0,0,0,0,-1,1336,1317,0,0
119,-293,0,0,0,0,0,0,0,0,0,-1,1343,1317,0,0
126,-293,0,0,0,0,0,0,0,0,0,-1,1350,1317,0,0
133,-293,0,0,0,0,0,0,0,0,0,-1,1357,1317,0,0
140,-293,0,0,0,0,0,0,0,0,0,-1,1364,1317,0,0
147,-293,0,0,0,0,0,0,0,0,0,-1,1371,1317,0,0
154,-293,0,0,0,0,0,0,0,0,0,-1,1378,1317,0,0
161,-293,0,0,0,0,0,0,0,0,0,-1,1385,1317,0,0
168,-293,0,0,0,0,0,0,0,0,0,-1,1392,1317,0,0
175,-293,0,0,0,0,0,0,0,0,0,-1,1399,1317,0,0
182,-293,0,0,0,0,0,0,0,0,0,-1,1406,1317,0,0
189,-293,0,0,0,0,0,0,0,0,0,-1,1413,1317,0,0
196,-293,0,0,0,0,0,0,0,0,0,-1,1420,1317,0,0
203,-293,0,0,0,0,0,0,0,0,0,-1,1427,1317,0,0
210,-293,0,0,0,0,0,0,0,0,0,-1,1434,1317,0,0
217,-293,0,0,0,0,0,0,0,0,0,-1,1441,1317,0,0
224,-293,0,0,0,0,0,0,0,0,0,-1,1448,1317,0,0
231,-293,0,0,0,0,0,0,0,0,0,-1,1455,1317,0,0
238,-293,0,0,0,0,0,0,0,0,0,-1,1462,1317,0,0
245,-293,0,0,0,0,0,0,0,0,0,-1,1469,1317,0,0
252,-293,0,0,0,0,0,0,0,0,0,-1,1476,1317,0,0
259,-293,0,0,0,0,0,0,0,0,0,-1,1483,1317,0,0
266,-293,0,0,0,0,0,0,0,0,0,-1,1490,1317,0,0
273,-293,0,0,0,0,0,0,0,0,0,-1,1497,1317,0,0
280,-293,0,0,0,0,0,0,0,0,0,-1,1504,1317,0,0
287,-293,0,0,0,0,0,0,0,0,0,-1,1511,1317,0,0
294,-293,0,0,0,0,0,0,0,0,0,-1,1518,1317,0,0
301,-293,0,0,0,0,0,0,0,0,0,-1,1525,1317,0,0
308,-293,0,0,0,0,0,0,0,0,0,-1,1532,1317,0,0
315,-293,0,0,0,0,0,0,0,0,0,-1,1539,1317,0,0
322,-293,0,0,0,0,0,0,0,0,0,-1,1546,1317,0,0
329,-293,0,0,0,0,0,0,0,0,0,-1,1553,1317,0,0
336,-293,0,0,0,0,0,0,0,0,0,-1,1560,1317,0,0
343,-293,0,0,0,0,0,0,0,0,0,-1,1567,1317,0,0
350,-293,0,0,0,0,0,0,0,0,0,-1,1574,1317,0,0
357,-293,0,0,0,0,0,0,0,0,0,-1,1581,1317,0,0
364,-293,0,0,0,0,0,0,0,0,0,-1,1588,1317,0,0
371,-293,0,0,0,0,0,0,0,0,0,-1,1595,1317,0,0
378,-293,0,0,0,0,0,0,0,0,0,-1,1602,1317,0,0
385,-293,0,0,0,0,0,0,0,0,0,-1,1609,1317,0,0
392,-293,0,0,0,0,0,0,0,0,0,-1,1616,1317,0,0
399,-293,0,0,0,0,0,0,0,0,0,-1,1623,1317,0,0
406,-293,0,0,0,0,0,0,0,0,0,-1,1630,1317,0,0
413,-293,0,0,0,0,0,0,0,0,0,-1,1637,1317,0,0
420,-293,0,0,0,0,0,0,0,0,0,-1,1644,1317,0,0
427,-293,0,0,0,0,0,0,0,0,0,-1,1651,1317,0,0
434,-293,0,0,0,0,0,0,0,0,0,-1,1658,1317,0,0
441,-293,0,0,0,0,0,0,0,0,0,-1,1665,1317,0,0
448,-293,0,0,0,0,0,0,0,0,0,-1,1672,1317,0,0
455,-293,0,0,0,0,0,0,0,0,0,-1,1679,1317,0,0
462,-293,0,0,0,0,0,0,0,0,0,-1,1686,1317,0,0
469,-293,0,0,0,0,0,0,0,0,0,-1,1693,1317,0,0
476,-293,0,0,0,0,0,0,0,0,0,-1,1700,1317,0,0
483,-293,0,0,0,0,0,0,0,0,0,-1,1707,1317,0,0
490,-293,0,0,0,0,0,0,0,0,0,-1,1714,1317,0,0
497,-293,0,0,0,0,0,0,0,0,0,-1,1721,1317,0,0
504,-293,0,0,0,0,0,0,0,0,0,-1,1728,1317,0,0
511,-293,0,0,0,0,0,0,0,0,0,-1,1735,1317,0,0
518,-293,0,0,0,0,0,0,0,0,0,-1,1742,1317,0,0
525,-293,0,0,0,0,0,0,0,0,0,-1,1749,1317,0,0
532,-293,0,0,0,0,0,0,0,0,0,-1,1756,1317,0,0
539,-293,0,0,0,0,0,0,0,0,0,-1,1763,1317,0,0
546,-293,0,0,0,0,0,0,0,0,0,-1,1770,1317,0,0
553,-293,0,0,0,0,0,0,0,0,0,-1,1777,1317,0,0
560,-293,0,0,0,0,0,0,0,0,0,-1,1784,1317,0,0
567,-293,0,0,0,0,0,0,0,0,0,-1,1791,1317,0,0
574,-293,0,0,0,0,0,0,0,0,0,-1,1798,1317,0,0
581,-293,0,0,0,0,0,0,0,0,0,-1,1805,1317,0,0
588,-293,0,0,0,0,0,0,0,0,0,-1,1812,1317,0,0
595,-293,48.0605,2.78748,0,0,0,0,0,0,0,-1,1819,1317,48.0606,-2.78743
602,-293,48.2003,2.76367,0,0,0,0,0,0,0,-1,1826,1317,48.2003,-2.76362
609,-293,47.7731,2.15051,0,0,0,0,0,0,0,-1,1833,1317,47.7731,-2.15046
616,-293,47.0823,1.9801,0,0,0,0,0,0,0,-1,1840,1317,47.0823,-1.98016
623,-293,46.8907,1.74548,0,0,0,0,0,0,0,-1,1847,1317,46.8908,-1.74546
630,-293,46.6716,3.21558,0,0,0,0,0,0,0,-1,1854,1317,46.6716,-3.2156
637,-293,42.7729,4.95544,0,0,0,0,0,0,0,-1,1861,1317,42.773,-4.95546
644,-293,24.4565,0.520752,0,0,0,0,0,0,0,-1,1868,1317,24.4566,-0.520709
651,-293,25.8926,9.51245,0,0,0,0,0,0,0,-1,1875,1317,25.8926,-9.51246
658,-293,25.4904,9.10205,0,0,0,0,0,0,0,-1,1882,1317,25.4904,-9.10209
665,-293,33.4695,11.3647,0,0,0,0,0,0,0,-1,1889,1317,33.4695,-11.3647
672,-293,33.2026,11.1287,0.00627943,-0.000688549,0.00502961,0.00891387,-0.00332299,0.482495,0.00730662,0.037853,1896,1317,33.2026,-11.1286
679,-293,33.1412,10.6572,0.00478784,-0.00122936,0.00276652,0.00586645,-0.00230797,0.371753,0.00486628,0.0150992,1903,1317,33.1413,-10.6572
686,-293,33.1276,10.2097,0.00218061,-0.000626454,-0.000128977,0.00218652,-0.000632367,-0.0458185,0.00170795,0.0164789,1910,1317,33.1276,-10.2097
693,-293,33.0997,9.74927,0.000456138,-0.000614166,0.000101782,0.000465731,-0.000623759,0.093974,0.000631219,0.0122662,1917,1317,33.0997,-9.7493
700,-293,33.0551,9.26697,0.000118592,-0.000607333,0.000555859,0.000419497,-0.000908239,0.496166,0.000783689,0.0112885,1924,1317,33.055,-9.26701
707,-293,33.0426,8.8136,-0.000329897,-0.000775423,0.00109839,0.000568091,-0.00167341,0.685351,0.00134556,0.0122605,1931,1317,33.0426,-8.81357
714,-293,33.0414,8.36584,-0.000905023,-0.00106502,0.00173397,0.00075079,-0.00272083,0.762347,0.00210917,0.00871176,1938,1317,33.0414,-8.36588
721,-293,33.0692,7.8949,-0.001648,-0.00150996,0.00250764,0.000929606,-0.00408757,0.799157,0.00308201,0.0103252,1945,1317,33.0693,-7.89495
728,-293,33.0475,7.41577,-0.00261069,-0.00216791,0.00343902,0.00105684,-0.00583544,0.817541,0.00428623,0.0126517,1952,1317,33.0475,-7.41581
735,-293,33.0402,6.9646,-0.00378042,-0.00302616,0.00446045,0.00107307,-0.00787966,0.827573,0.0056449,0.0247846,1959,1317,33.0402,-6.96461
742,-293,33.1469,6.51733,0,0,0,0,0,0,0,-1,1966,1317,33.1468,-6.51739
749,-293,29.439,5.35339,0,0,0,0,0,0,0,-1,1973,1317,29.4389,-5.35334
756,-293,24.978,3.9718,0,0,0,0,0,0,0,-1,1980,1317,24.978,-3.97186
763,-293,26.6713,4.74097,0,0,0,0,0,0,0,-1,1987,1317,26.6713,-4.74098
770,-293,24.1349,4.69153,0,0,0,0,0,0,0,-1,1994,1317,24.1348,-4.69159
777,-293,0,0,0,0,0,0,0,0,0,-1,2001,1317,0,0
784,-293,0,0,0,0,0,0,0,0,0,-1,2008,1317,0,0
791,-293,0,0,0,0,0,0,0,0,0,-1,2015,1317,0,0
798,-293,0,0,0,0,0,0,0,0,0,-1,2022,1317,0,0
805,-293,0,0,0,0,0,0,0,0,0,-1,2029,1317,0,0
812,-293,0,0,0,0,0,0,0,0,0,-1,2036,1317,0,0
-700,-300,0,0,0,0,0,0,0,0,0,-1,524,1324,0,0
-693,-300,0,0,0,0,0,0,0,0,0,-1,531,1324,0,0
-686,-300,0,0,0,0,0,0,0,0,0,-1,538,1324,0,0
-679,-300,0,0,0,0,0,0,0,0,0,-1,545,1324,0,0
-672,-300,0,0,0,0,0,0,0,0,0,-1,552,1324,0,0
-665,-300,0,0,0,0,0,0,0,0,0,-1,559,1324,0,0
-658,-300,0,0,0,0,0,0,0,0,0,-1,566,1324,0,0
-651,-300,-20.1143,0.203857,0,0,0,0,0,0,0,-1,573,1324,-20.1142,-0.203872
-644,-300,-20.4374,1.17224,0,0,0,0,0,0,0,-1,580,1324,-20.4375,-1.17226
-637,-300,-20.7362,1.82813,0,0,0,0,0,0,0,-1,587,1324,-20.7362,-1.8281
-630,-300,-21.1108,2.26306,0,0,0,0,0,0,0,-1,594,1324,-21.1109,-2.2631
-623,-300,-12.7067,1.48462,0,0,0,0,0,0,0,-1,601,1324,-12.7067,-1.48462
-616,-300,-14.9988,1.68628,0,0,0,0,0,0,0,-1,608,1324,-14.9988,-1.68627
-609,-300,-15.5027,3.29907,0,0,0,0,0,0,0,-1,615,1324,-15.5027,-3.29902
-602,-300,-18.9582,4.33105,0,0,0,0,0,0,0,-1,622,1324,-18.9582,-4.33104
-595,-300,-18.9661,5.0498,0.00558527,0.0055845,0.00454472,0.0101296,0.00104016,0.785356,0.00643444,0.0335243,629,1324,-18.9661,-5.04978
-588,-300,-18.8979,5.63464,0.00420935,0.00381071,0.00320752,0.00722374,0.000796323,0.754367,0.00457356,0.0205839,636,1324,-18.898,-5.63464
-581,-300,-18.9109,6.15637,0.00337044,0.00258737,0.00229845,0.00531047,0.00064734,0.701034,0.00334547,0.0205956,643,1324,-18.911,-6.15634
-574,-300,-18.9472,6.64185,0.00292753,0.00168653,0.00170852,0.00412474,0.000489321,0.611214,0.0026021,0.0164327,650,1324,-18.9472,-6.64179
-567,-300,-18.9857,7.15491,0.0028156,0.00099524,0.00136303,0.00354441,0.000266438,0.491017,0.00227932,0.016717,657,1324,-18.9857,-7.15493
-560,-300,-18.9935,7.68286,0.00304124,0.00049746,0.0012483,0.00355147,-1.27719e-05,0.38802,0.00237191,0.0150745,664,1324,-18.9935,-7.68282
-553,-300,-18.9683,8.18469,0.00360526,0.00020943,0.00135376,0.00407888,-0.000264193,0.336548,0.00281146,0.0107837,671,1324,-18.9683,-8.18464
-546,-300,-18.9771,8.67908,0.00447778,0.000110178,0.00166379,0.00503938,-0.000451416,0.32553,0.00351972,0.00942626,678,1324,-18.9771,-8.67905
-539,-300,-18.9464,9.19348,0.00581828,-4.07486e-05,0.00224232,0.00657795,-0.000800415,0.32665,0.004675,0.0210826,685,1324,-18.9463,-9.19349
-532,-300,-18.894,9.68994,0,0,0,0,0,0,0,-1,692,1324,-18.8941,-9.68998
-525,-300,-13.5115,6.27783,0,0,0,0,0,0,0,-1,699,1324,-13.5115,-6.2778
-518,-300,-9.8349,-0.537109,0,0,0,0,0,0,0,-1,706,1324,-9.83487,0.537068
-511,-300,-12.8644,0.081665,0,0,0,0,0,0,0,-1,713,1324,-12.8644,-0.0817016
-504,-300,-13.4829,-0.165527,0,0,0,0,0,0,0,-1,720,1324,-13.4829,0.165544
-497,-300,-18.1063,0.956543,0,0,0,0,0,0,0,-1,727,1324,-18.1063,-0.9565
-490,-300,-18.2293,1.53625,0,0,0,0,0,0,0,-1,734,1324,-18.2293,-1.53626
-483,-300,-18.3522,1.61084,0,0,0,0,0,0,0,-1,741,1324,-18.3522,-1.6108
-476,-300,-18.7489,1.96387,0,0,0,0,0,0,0,-1,748,1324,-18.7489,-1.96387
-469,-300,0,0,0,0,0,0,0,0,0,-1,755,1324,0,0
-462,-300,0,0,0,0,0,0,0,0,0,-1,762,1324,0,0
-455,-300,0,0,0,0,0,0,0,0,0,-1,769,1324,0,0
-448,-300,0,0,0,0,0,0,0,0,0,-1,776,1324,0,0
-441,-300,0,0,0,0,0,0,0,0,0,-1,783,1324,0,0
-434,-300,0,0,0,0,0,0,0,0,0,-1,790,1324,0,0
-427,-300,0,0,0,0,0,0,0,0,0,-1,797,1324,0,0
-420,-300,0,0,0,0,0,0,0,0,0,-1,804,1324,0,0
-413,-300,0,0,0,0,0,0,0,0,0,-1,811,1324,0,0
-406,-300,0,0,0,0,0,0,0,0,0,-1,818,1324,0,0
-399,-300,0,0,0,0,0,0,0,0,0,-1,825,1324,0,0
-392,-300,0,0,0,0,0,0,0,0,0,-1,832,1324,0,0
-385,-300,0,0,0,0,0,0,0,0,0,-1,839,1324,0,0
-378,-300,0,0,0,0,0,0,0,0,0,-1,846,1324,0,0
-371,-300,0,0,0,0,0,0,0,0,0,-1,853,1324,0,0
-364,-300,0,0,0,0,0,0,0,0,0,-1,860,1324,0,0
-357,-300,0,0,0,0,0,0,0,0,0,-1,867,1324,0,0
-350,-300,0,0,0,0,0,0,0,0,0,-1,874,1324,0,0
-343,-300,0,0,0,0,0,0,0,0,0,-1,881,1324,0,0
-336,-300,0,0,0,0,0,0,0,0,0,-1,888,1324,0,0
-329,-300,0,0,0,0,0,0,0,0,0,-1,895,1324,0,0
-322,-300,0,0,0,0,0,0,0,0,0,-1,902,1324,0,0
-315,-300,0,0,0,0,0,0,0,0,0,-1,909,1324,0,0
-308,-300,0,0,0,0,0,0,0,0,0,-1,916,1324,0,0
-301,-300,0,0,0,0,0,0,0,0,0,-1,923,1324,0,0
-294,-300,0,0,0,0,0,0,0,0,0,-1,930,1324,0,0
-287,-300,0,0,0,0,0,0,0,0,0,-1,937,1324,0,0
-280,-300,0,0,0,0,0,0,0,0,0,-1,944,1324,0,0
-273,-300,0,0,0,0,0,0,0,0,0,-1,951,1324,0,0
-266,-300,0,0,0,0,0,0,0,0,0,-1,958,1324,0,0
-259,-300,0,0,0,0,0,0,0,0,0,-1,965,1324,0,0
-252,-300,0,0,0,0,0,0,0,0,0,-1,972,1324,0,0
-245,-300,0,0,0,0,0,0,0,0,0,-1,979,1324,0,0
-238,-300,0,0,0,0,0,0,0,0,0,-1,986,1324,0,0
-231,-300,0,0,0,0,0,0,0,0,0,-1,993,1324,0,0
-224,-300,0,0,0,0,0,0,0,0,0,-1,1000,1324,0,0
-217,-300,0,0,0,0,0,0,0,0,0,-1,1007,1324,0,0
-210,-300,0,0,0,0,0,0,0,0,0,-1,1014,1324,0,0
-203,-300,0,0,0,0,0,0,0,0,0,-1,1021,1324,0,0
-196,-300,0,0,0,0,0,0,0,0,0,-1,1028,1324,0,0
-189,-300,0,0,0,0,0,0,0,0,0,-1,1035,1324,0,0
-182,-300,0,0,0,0,0,0,0,0,0,-1,1042,1324,0,0
-175,-300,0,0,0,0,0,0,0,0,0,-1,1049,1324,0,0
-168,-300,0,0,0,0,0,0,0,0,0,-1,1056,1324,0,0
-161,-300,0,0,0,0,0,0,0,0,0,-1,1063,1324,0,0
-154,-300,0,0,0,0,0,0,0,0,0,-1,1070,1324,0,0
-147,-300,0,0,0,0,0,0,0,0,0,-1,1077,1324,0,0
-140,-300,0,0,0,0,0,0,0,0,0,-1,1084,1324,0,0
-133,-300,0,0,0,0,0,0,0,0,0,-1,1091,1324,0,0
-126,-300,0,0,0,0,0,0,0,0,0,-1,1098,1324,0,0
-119,-300,0,0,0,0,0,0,0,0,0,-1,1105,1324,0,0
-112,-300,0,0,0,0,0,0,0,0,0,-1,1112,1324,0,0
-105,-300,0,0,0,0,0,0,0,0,0,-1,1119,1324,0,0
-98,-300,0,0,0,0,0,0,0,0,0,-1,1126,1324,0,0
-91,-300,0,0,0,0,0,0,0,0,0,-1,1133,1324,0,0
-84,-300,0,0,0,0,0,0,0,0,0,-1,1140,1324,0,0
-77,-300,0,0,0,0,0,0,0,0,0,-1,1147,1324,0,0
-70,-300,0,0,0,0,0,0,0,0,0,-1,1154,1324,0,0
-63,-300,0,0,0,0,0,0,0,0,0,-1,1161,1324,0,0
-56,-300,0,0,0,0,0,0,0,0,0,-1,1168,1324,0,0
-49,-300,0,0,0,0,0,0,0,0,0,-1,1175,1324,0,0
-42,-300,0,0,0,0,0,0,0,0,0,-1,1182,1324,0,0
-35,-300,0,0,0,0,0,0,0,0,0,-1,1189,1324,0,0
-28,-300,0,0,0,0,0,0,0,0,0,-1,1196,1324,0,0
-21,-300,0,0,0,0,0,0,0,0,0,-1,1203,1324,0,0
-14,-300,0,0,0,0,0,0,0,0,0,-1,1210,1324,0,0
-7,-300,0,0,0,0,0,0,0,0,0,-1,1217,1324,0,0
0,-300,0,0,0,0,0,0,0,0,0,-1,1224,1324,0,0
7,-300,0,0,0,0,0,0,0,0,0,-1,1231,1324,0,0
14,-300,0,0,0,0,0,0,0,0,0,-1,1238,1324,0,0
21,-300,0,0,0,0,0,0,0,0,0,-1,1245,1324,0,0
28,-300,0,0,0,0,0,0,0,0,0,-1,1252,1324,0,0
35,-300,0,0,0,0,0,0,0,0,0,-1,1259,1324,0,0
42,-300,0,0,0,0,0,0,0,0,0,-1,1266,1324,0,0
49,-300,0,0,0,0,0,0,0,0,0,-1,1273,1324,0,0
56,-300,0,0,0,0,0,0,0,0,0,-1,1280,1324,0,0
63,-300,0,0,0,0,0,0,0,0,0,-1,1287,1324,0,0
70,-300,0,0,0,0,0,0,0,0,0,-1,1294,1324,0,0
77,-300,0,0,0,0,0,0,0,0,0,-1,1301,1324,0,0
84,-300,0,0,0,0,0,0,0,0,0,-1,1308,1324,0,0
91,-300,0,0,0,0,0,0,0,0,0,-1,1315,1324,0,0
98,-300,0,0,0,0,0,0,0,0,0,-1,1322,1324,0,0
105,-300,0,0,0,0,0,0,0,0,0,-1,1329,1324,0,0
112,-300,0,0,0,0,0,0,0,0,0,-1,1336,1324,0,0
119,-300,0,0,0,0,0,0,0,0,0,-1,1343,1324,0,0
126,-300,0,0,0,0,0,0,0,0,0,-1,1350,1324,0,0
133,-300,0,0,0,0,0,0,0,0,0,-1,1357,1324,0,0
140,-300,0,0,0,0,0,0,0,0,0,-1,1364,1324,0,0
147,-300,0,0,0,0,0,0,0,0,0,-1,1371,1324,0,0
154,-300,0,0,0,0,0,0,0,0,0,-1,1378,1324,0,0
161,-300,0,0,0,0,0,0,0,0,0,-1,1385,1324,0,0
168,-300,0,0,0,0,0,0,0,0,0,-1,1392,1324,0,0
175,-300,0,0,0,0,0,0,0,0,0,-1,1399,1324,0,0
182,-300,0,0,0,0,0,0,0,0,0,-1,1406,1324,0,0
189,-300,0,0,0,0,0,0,0,0,0,-1,1413,1324,0,0
196,-300,0,0,0,0,0,0,0,0,0,-1,1420,1324,0,0
203,-300,0,0,0,0,0,0,0,0,0,-1,1427,1324,0,0
210,-300,0,0,0,0,0,0,0,0,0,-1,1434,1324,0,0
217,-300,0,0,0,0,0,0,0,0,0,-1,1441,1324,0,0
224,-300,0,0,0,0,0,0,0,0,0,-1,1448,1324,0,0
231,-300,0,0,0,0,0,0,0,0,0,-1,1455,1324,0,0
238,-300,0,0,0,0,0,0,0,0,0,-1,1462,1324,0,0
245,-300,0,0,0,0,0,0,0,0,0,-1,1469,1324,0,0
252,-300,0,0,0,0,0,0,0,0,0,-1,1476,1324,0,0
259,-300,0,0,0,0,0,0,0,0,0,-1,1483,1324,0,0
266,-300,0,0,0,0,0,0,0,0,0,-1,1490,1324,0,0
273,-300,0,0,0,0,0,0,0,0,0,-1,1497,1324,0,0
280,-300,0,0,0,0,0,0,0,0,0,-1,1504,1324,0,0
287,-300,0,0,0,0,0,0,0,0,0,-1,1511,1324,0,0
294,-300,0,0,0,0,0,0,0,0,0,-1,1518,1324,0,0
301,-300,0,0,0,0,0,0,0,0,0,-1,1525,1324,0,0
308,-300,0,0,0,0,0,0,0,0,0,-1,1532,1324,0,0
315,-300,0,0,0,0,0,0,0,0,0,-1,1539,1324,0,0
322,-300,0,0,0,0,0,0,0,0,0,-1,1546,1324,0,0
329,-300,0,0,0,0,0,0,0,0,0,-1,1553,1324,0,0
336,-300,0,0,0,0,0,0,0,0,0,-1,1560,1324,0,0
343,-300,0,0,0,0,0,0,0,0,0,-1,1567,1324,0,0
350,-300,0,0,0,0,0,0,0,0,0,-1,1574,1324,0,0
357,-300,0,0,0,0,0,0,0,0,0,-1,1581,1324,0,0
364,-300,0,0,0,0,0,0,0,0,0,-1,1588,1324,0,0
371,-300,0,0,0,0,0,0,0,0,0,-1,1595,1324,0,0
378,-300,0,0,0,0,0,0,0,0,0,-1,1602,1324,0,0
385,-300,0,0,0,0,0,0,0,0,0,-1,1609,1324,0,0
392,-300,0,0,0,0,0,0,0,0,0,-1,1616,1324,0,0
399,-300,0,0,0,0,0,0,0,0,0,-1,1623,1324,0,0
406,-300,0,0,0,0,0,0,0,0,0,-1,1630,1324,0,0
413,-300,0,0,0,0,0,0,0,0,0,-1,1637,1324,0,0
420,-300,0,0,0,0,0,0,0,0,0,-1,1644,1324,0,0
427,-300,0,0,0,0,0,0,0,0,0,-1,1651,1324,0,0
434,-300,0,0,0,0,0,0,0,0,0,-1,1658,1324,0,0
441,-300,0,0,0,0,0,0,0,0,0,-1,1665,1324,0,0
448,-300,0,0,0,0,0,0,0,0,0,-1,1672,1324,0,0
455,-300,0,0,0,0,0,0,0,0,0,-1,1679,1324,0,0
462,-300,0,0,0,0,0,0,0,0,0,-1,1686,1324,0,0
469,-300,0,0,0,0,0,0,0,0,0,-1,1693,1324,0,0
476,-300,0,0,0,0,0,0,0,0,0,-1,1700,1324,0,0
483,-300,0,0,0,0,0,0,0,0,0,-1,1707,1324,0,0
490,-300,0,0,0,0,0,0,0,0,0,-1,1714,1324,0,0
497,-300,0,0,0,0,0,0,0,0,0,-1,1721,1324,0,0
504,-300,0,0,0,0,0,0,0,0,0,-1,1728,1324,0,0
511,-300,0,0,0,0,0,0,0,0,0,-1,1735,1324,0,0
518,-300,0,0,0,0,0,0,0,0,0,-1,1742,1324,0,0
525,-300,0,0,0,0,0,0,0,0,0,-1,1749,1324,0,0
532,-300,0,0,0,0,0,0,0,0,0,-1,1756,1324,0,0
539,-300,0,0,0,0,0,0,0,0,0,-1,1763,1324,0,0
546,-300,0,0,0,0,0,0,0,0,0,-1,1770,1324,0,0
553,-300,0,0,0,0,0,0,0,0,0,-1,1777,1324,0,0
560,-300,0,0,0,0,0,0,0,0,0,-1,1784,1324,0,0
567,-300,0,0,0,0,0,0,0,0,0,-1,1791,1324,0,0
574,-300,0,0,0,0,0,0,0,0,0,-1,1798,1324,0,0
581,-300,0,0,0,0,0,0,0,0,0,-1,1805,1324,0,0
588,-300,47.0767,3.70276,0,0,0,0,0,0,0,-1,1812,1324,47.0766,-3.70277
595,-300,43.6869,2.22852,0,0,0,0,0,0,0,-1,1819,1324,43.6869,-2.22849
602,-300,44.7303,2.54236,0,0,0,0,0,0,0,-1,1826,1324,44.7303,-2.54239
609,-300,44.5328,2.60791,0,0,0,0,0,0,0,-1,1833,1324,44.5329,-2.60797
616,-300,46.8105,1.91296,0,0,0,0,0,0,0,-1,1840,1324,46.8105,-1.91298
623,-300,44.7166,2.60559,0,0,0,0,0,0,0,-1,1847,1324,44.7166,-2.60562
630,-300,42.4099,3.9165,0,0,0,0,0,0,0,-1,1854,1324,42.4099,-3.91649
637,-300,31.1719,4.6366,0,0,0,0,0,0,0,-1,1861,1324,31.1718,-4.63665
644,-300,22.9836,3.44934,0,0,0,0,0,0,0,-1,1868,1324,22.9836,-3.4493
651,-300,25.5004,9.11853,0,0,0,0,0,0,0,-1,1875,1324,25.5004,-9.11851
658,-300,25.4012,9.20032,0,0,0,0,0,0,0,-1,1882,1324,25.4012,-9.20036
665,-300,32.7656,11.6766,0,0,0,0,0,0,0,-1,1889,1324,32.7656,-11.6766
672,-300,32.6511,11.2097,0.00535246,-0.000416512,0.00504909,0.00828292,-0.00334697,0.525878,0.00691316,0.0218623,1896,1324,32.6511,-11.2097
679,-300,32.6652,10.6918,0.00383367,-0.00101625,0.00271777,0.00505106,-0.00223364,0.421137,0.0043094,0.0129293,1903,1324,32.6652,-10.6918
686,-300,32.6681,10.2352,0.00161487,-0.000606846,0.000155548,0.00162571,-0.000617684,0.06956,0.0013381,0.0138652,1910,1324,32.6681,-10.2352
693,-300,32.6222,9.77148,0.000340814,-0.000670653,0.000337284,0.000442968,-0.000772806,0.294089,0.000710486,0.0113919,1917,1324,32.6222,-9.77151
700,-300,32.597,9.28943,5.962e-05,-0.000713573,0.000687413,0.000461689,-0.00111564,0.529244,0.000936398,0.0128948,1924,1324,32.5971,-9.28947
707,-300,32.5914,8.81958,-0.000304447,-0.000874474,0.00115994,0.000604979,-0.0017839,0.664927,0.00143411,0.00937522,1931,1324,32.5914,-8.81955
714,-300,32.594,8.36511,-0.000833903,-0.00115976,0.00176339,0.000774075,-0.00276774,0.739332,0.00215014,0.0109992,1938,1324,32.594,-8.36509
721,-300,32.6024,7.90625,-0.0015559,-0.00162385,0.00254353,0.000953883,-0.00413363,0.77872,0.00312266,0.0125289,1945,1324,32.6024,-7.90631
728,-300,32.6191,7.40942,-0.00255213,-0.00234045,0.00353384,0.00108913,-0.00598171,0.800369,0.00439605,0.015636,1952,1324,32.6191,-7.40941
735,-300,32.436,7.17834,-0.00382203,-0.00329253,0.00466579,0.00111601,-0.00823058,0.813739,0.00589438,0.0308582,1959,1324,32.436,-7.17837
742,-300,32.3978,6.80261,0,0,0,0,0,0,0,-1,1966,1324,32.3979,-6.80257
749,-300,27.4065,5.9718,0,0,0,0,0,0,0,-1,1973,1324,27.4065,-5.97181
756,-300,22.1423,3.45642,0,0,0,0,0,0,0,-1,1980,1324,22.1423,-3.45638
763,-300,22.6136,5.1571,0,0,0,0,0,0,0,-1,1987,1324,22.6136,-5.15706
770,-300,24.859,4.77979,0,0,0,0,0,0,0,-1,1994,1324,24.859,-4.77972
777,-300,0,0,0,0,0,0,0,0,0,-1,2001,1324,0,0
784,-300,0,0,0,0,0,0,0,0,0,-1,2008,1324,0,0
791,-300,0,0,0,0,0,0,0,0,0,-1,2015,1324,0,0
798,-300,0,0,0,0,0,0,0,0,0,-1,2022,1324,0,0
805,-300,0,0,0,0,0,0,0,0,0,-1,2029,1324,0,0
812,-300,0,0,0,0,0,0,0,0,0,-1,2036,1324,0,0
-700,-307,0,0,0,0,0,0,0,0,0,-1,524,1331,0,0
-693,-307,0,0,0,0,0,0,0,0,0,-1,531,1331,0,0
-686,-307,0,0,0,0,0,0,0,0,0,-1,538,1331,0,0
-679,-307,0,0,0,0,0,0,0,0,0,-1,545,1331,0,0
-672,-307,0,0,0,0,0,0,0,0,0,-1,552,1331,0,0
-665,-307,0,0,0,0,0,0,0,0,0,-1,559,1331,0,0
-658,-307,0,0,0,0,0,0,0,0,0,-1,566,1331,0,0
-651,-307,-20.2972,-0.0720215,0,0,0,0,0,0,0,-1,573,1331,-20.2973,0.0720287
-644,-307,-20.7615,0.556152,0,0,0,0,0,0,0,-1,580,1331,-20.7615,-0.556159
-637,-307,-21.0822,1.21277,0,0,0,0,0,0,0,-1,587,1331,-21.0821,-1.21273
-630,-307,-12.0005,0.767212,0,0,0,0,0,0,0,-1,594,1331,-12.0005,-0.767266
-623,-307,-12.2128,2.93811,0,0,0,0,0,0,0,-1,601,1331,-12.2128,-2.93813
-616,-307,-12.6612,2.08289,0,0,0,0,0,0,0,-1,608,1331,-12.6612,-2.08293
-609,-307,-12.2767,1.83228,0,0,0,0,0,0,0,-1,615,1331,-12.2768,-1.83224
-602,-307,-18.3434,4.44373,0,0,0,0,0,0,0,-1,622,1331,-18.3435,-4.44373
-595,-307,-18.505,5.0752,0.00594896,0.00553259,0.00468306,0.0104285,0.00105309,0.763185,0.00662922,0.0433222,629,1331,-18.505,-5.07523
-588,-307,-18.4109,5.67346,0.00447811,0.00379887,0.00328241,0.00743842,0.00083856,0.733848,0.00470441,0.0219155,636,1331,-18.4109,-5.67346
-581,-307,-18.3875,6.17419,0.00354512,0.00264147,0.00232678,0.00546353,0.000723052,0.689499,0.00342686,0.016107,643,1331,-18.3875,-6.17415
-574,-307,-18.4173,6.63757,0.00300016,0.00178322,0.00170092,0.00419817,0.00058521,0.613627,0.00262554,0.0133674,650,1331,-18.4173,-6.63757
-567,-307,-18.4501,7.16577,0.00281918,0.00113094,0.00133226,0.00355223,0.00039789,0.503018,0.00224729,0.0136809,657,1331,-18.4502,-7.16573
-560,-307,-18.4611,7.69177,0.00297479,0.000630156,0.00118862,0.00347195,0.000132994,0.396153,0.0022716,0.014439,664,1331,-18.4611,-7.69174
-553,-307,-18.4559,8.1936,0.00343233,0.000296316,0.00122998,0.00385718,-0.000128536,0.332584,0.00261535,0.0114196,671,1331,-18.456,-8.19362
-546,-307,-18.4689,8.69385,0.00426873,0.000105941,0.00149942,0.00475258,-0.000377907,0.312141,0.00330157,0.010944,678,1331,-18.4689,-8.69381
-539,-307,-18.4674,9.23181,0.00558973,-9.1079e-05,0.00202136,0.00623555,-0.000736905,0.30925,0.00442318,0.0160881,685,1331,-18.4674,-9.23176
-532,-307,-18.4525,9.77197,0,0,0,0,0,0,0,-1,692,1331,-18.4525,-9.772
-525,-307,-13.2009,6.91309,0,0,0,0,0,0,0,-1,699,1331,-13.2009,-6.9131
-518,-307,-9.77777,-1.56653,0,0,0,0,0,0,0,-1,706,1331,-9.77777,1.56651
-511,-307,-12.5226,0.26709,0,0,0,0,0,0,0,-1,713,1331,-12.5226,-0.267038
-504,-307,-12.5913,-0.308105,0,0,0,0,0,0,0,-1,720,1331,-12.5913,0.308124
-497,-307,-13.8586,-0.115845,0,0,0,0,0,0,0,-1,727,1331,-13.8587,0.115861
-490,-307,-17.9429,0.982178,0,0,0,0,0,0,0,-1,734,1331,-17.9429,-0.982198
-483,-307,-18.1066,0.927612,0,0,0,0,0,0,0,-1,741,1331,-18.1066,-0.927609
-476,-307,-18.1288,1.1228,0,0,0,0,0,0,0,-1,748,1331,-18.1289,-1.12286
-469,-307,-18.2028,0.798584,0,0,0,0,0,0,0,-1,755,1331,-18.2027,-0.798546
-462,-307,0,0,0,0,0,0,0,0,0,-1,762,1331,0,0
-455,-307,0,0,0,0,0,0,0,0,0,-1,769,1331,0,0
-448,-307,0,0,0,0,0,0,0,0,0,-1,776,1331,0,0
-441,-307,0,0,0,0,0,0,0,0,0,-1,783,1331,0,0
-434,-307,0,0,0,0,0,0,0,0,0,-1,790,1331,0,0
-427,-307,0,0,0,0,0,0,0,0,0,-1,797,1331,0,0
-420,-307,0,0,0,0,0,0,0,0,0,-1,804,1331,0,0
-413,-307,0,0,0,0,0,0,0,0,0,-1,811,1331,0,0
-406,-307,0,0,0,0,0,0,0,0,0,-1,818,1331,0,0
-399,-307,0,0,0,0,0,0,0,0,0,-1,825,1331,0,0
-392,-307,0,0,0,0,0,0,0,0,0,-1,832,1331,0,0
-385,-307,0,0,0,0,0,0,0,0,0,-1,839,1331,0,0
-378,-307,0,0,0,0,0,0,0,0,0,-1,846,1331,0,0
-371,-307,0,0,0,0,0,0,0,0,0,-1,853,1331,0,0
-364,-307,0,0,0,0,0,0,0,0,0,-1,860,1331,0,0
-357,-307,0,0,0,0,0,0,0,0,0,-1,867,1331,0,0
-350,-307,0,0,0,0,0,0,0,0,0,-1,874,1331,0,0
-343,-307,0,0,0,0,0,0,0,0,0,-1,881,1331,0,0
-336,-307,0,0,0,0,0,0,0,0,0,-1,888,1331,0,0
-329,-307,0,0,0,0,0,0,0,0,0,-1,895,1331,0,0
-322,-307,0,0,0,0,0,0,0,0,0,-1,902,1331,0,0
-315,-307,0,0,0,0,0,0,0,0,0,-1,909,1331,0,0
-308,-307,0,0,0,0,0,0,0,0,0,-1,916,1331,0,0
-301,-307,0,0,0,0,0,0,0,0,0,-1,923,1331,0,0
-294,-307,0,0,0,0,0,0,0,0,0,-1,930,1331,0,0
-287,-307,0,0,0,0,0,0,0,0,0,-1,937,1331,0,0
-280,-307,0,0,0,0,0,0,0,0,0,-1,944,1331,0,0
-273,-307,0,0,0,0,0,0,0,0,0,-1,951,1331,0,0
-266,-307,0,0,0,0,0,0,0,0,0,-1,958,1331,0,0
-259,-307,0,0,0,0,0,0,0,0,0,-1,965,1331,0,0
-252,-307,0,0,0,0,0,0,0,0,0,-1,972,1331,0,0
-245,-307,0,0,0,0,0,0,0,0,0,-1,979,1331,0,0
-238,-307,0,0,0,0,0,0,0,0,0,-1,986,1331,0,0
-231,-307,0,0,0,0,0,0,0,0,0,-1,993,1331,0,0
-224,-307,0,0,0,0,0,0,0,0,0,-1,1000,1331,0,0
-217,-307,0,0,0,0,0,0,0,0,0,-1,1007,1331,0,0
-210,-307,0,0,0,0,0,0,0,0,0,-1,1014,1331,0,0
-203,-307,0,0,0,0,0,0,0,0,0,-1,1021,1331,0,0
-196,-307,0,0,0,0,0,0,0,0,0,-1,1028,1331,0,0
-189,-307,0,0,0,0,0,0,0,0,0,-1,1035,1331,0,0
-182,-307,0,0,0,0,0,0,0,0,0,-1,1042,1331,0,0
-175,-307,0,0,0,0,0,0,0,0,0,-1,1049,1331,0,0
-168,-307,0,0,0,0,0,0,0,0,0,-1,1056,1331,0,0
-161,-307,0,0,0,0,0,0,0,0,0,-1,1063,1331,0,0
-154,-307,0,0,0,0,0,0,0,0,0,-1,1070,1331,0,0
-147,-307,0,0,0,0,0,0,0,0,0,-1,1077,1331,0,0
-140,-307,0,0,0,0,0,0,0,0,0,-1,1084,1331,0,0
-133,-307,0,0,0,0,0,0,0,0,0,-1,1091,1331,0,0
-126,-307,0,0,0,0,0,0,0,0,0,-1,1098,1331,0,0
-119,-307,0,0,0,0,0,0,0,0,0,-1,1105,1331,0,0
-112,-307,0,0,0,0,0,0,0,0,0,-1,1112,1331,0,0
-105,-307,0,0,0,0,0,0,0,0,0,-1,1119,1331,0,0
-98,-307,0,0,0,0,0,0,0,0,0,-1,1126,1331,0,0
-91,-307,0,0,0,0,0,0,0,0,0,-1,1133,1331,0,0
-84,-307,0,0,0,0,0,0,0,0,0,-1,1140,1331,0,0
-77,-307,0,0,0,0,0,0,0,0,0,-1,1147,1331,0,0
-70,-307,0,0,0,0,0,0,0,0,0,-1,1154,1331,0,0
-63,-307,0,0,0,0,0,0,0,0,0,-1,1161,1331,0,0
-56,-307,0,0,0,0,0,0,0,0,0,-1,1168,1331,0,0
-49,-307,0,0,0,0,0,0,0,0,0,-1,1175,1331,0,0
-42,-307,0,0,0,0,0,0,0,0,0,-1,1182,1331,0,0
-35,-307,0,0,0,0,0,0,0,0,0,-1,1189,1331,0,0
-28,-307,0,0,0,0,0,0,0,0,0,-1,1196,1331,0,0
-21,-307,0,0,0,0,0,0,0,0,0,-1,1203,1331,0,0
-14,-307,0,0,0,0,0,0,0,0,0,-1,1210,1331,0,0
-7,-307,0,0,0,0,0,0,0,0,0,-1,1217,1331,0,0
0,-307,0,0,0,0,0,0,0,0,0,-1,1224,1331,0,0
7,-307,0,0,0,0,0,0,0,0,0,-1,1231,1331,0,0
14,-307,0,0,0,0,0,0,0,0,0,-1,1238,1331,0,0
21,-307,0,0,0,0,0,0,0,0,0,-1,1245,1331,0,0
28,-307,0,0,0,0,0,0,0,0,0,-1,1252,1331,0,0
35,-307,0,0,0,0,0,0,0,0,0,-1,1259,1331,0,0
42,-307,0,0,0,0,0,0,0,0,0,-1,1266,1331,0,0
49,-307,0,0,0,0,0,0,0,0,0,-1,1273,1331,0,0
56,-307,0,0,0,0,0,0,0,0,0,-1,1280,1331,0,0
63,-307,0,0,0,0,0,0,0,0,0,-1,1287,1331,0,0
70,-307,0,0,0,0,0,0,0,0,0,-1,1294,1331,0,0
77,-307,0,0,0,0,0,0,0,0,0,-1,1301,1331,0,0
84,-307,0,0,0,0,0,0,0,0,0,-1,1308,1331,0,0
91,-307,0,0,0,0,0,0,0,0,0,-1,1315,1331,0,0
98,-307,0,0,0,0,0,0,0,0,0,-1,1322,1331,0,0
105,-307,0,0,0,0,0,0,0,0,0,-1,1329,1331,0,0
112,-307,0,0,0,0,0,0,0,0,0,-1,1336,1331,0,0
119,-307,0,0,0,0,0,0,0,0,0,-1,1343,1331,0,0
126,-307,0,0,0,0,0,0,0,0,0,-1,1350,1331,0,0
133,-307,0,0,0,0,0,0,0,0,0,-1,1357,1331,0,0
140,-307,0,0,0,0,0,0,0,0,0,-1,1364,1331,0,0
147,-307,0,0,0,0,0,0,0,0,0,-1,1371,1331,0,0
154,-307,0,0,0,0,0,0,0,0,0,-1,1378,1331,0,0
161,-307,0,0,0,0,0,0,0,0,0,-1,1385,1331,0,0
168,-307,0,0,0,0,0,0,0,0,0,-1,1392,1331,0,0
175,-307,0,0,0,0,0,0,0,0,0,-1,1399,1331,0,0
182,-307,0,0,0,0,0,0,0,0,0,-1,1406,1331,0,0
189,-307,0,0,0,0,0,0,0,0,0,-1,1413,1331,0,0
196,-307,0,0,0,0,0,0,0,0,0,-1,1420,1331,0,0
203,-307,0,0,0,0,0,0,0,0,0,-1,1427,1331,0,0
210,-307,0,0,0,0,0,0,0,0,0,-1,1434,1331,0,0
217,-307,0,0,0,0,0,0,0,0,0,-1,1441,1331,0,0
224,-307,0,0,0,0,0,0,0,0,0,-1,1448,1331,0,0
231,-307,0,0,0,0,0,0,0,0,0,-1,1455,1331,0,0
238,-307,0,0,0,0,0,0,0,0,0,-1,1462,1331,0,0
245,-307,0,0,0,0,0,0,0,0,0,-1,1469,1331,0,0
252,-307,0,0,0,0,0,0,0,0,0,-1,1476,1331,0,0
259,-307,0,0,0,0,0,0,0,0,0,-1,1483,1331,0,0
266,-307,0,0,0,0,0,0,0,0,0,-1,1490,1331,0,0
273,-307,0,0,0,0,0,0,0,0,0,-1,1497,1331,0,0
280,-307,0,0,0,0,0,0,0,0,0,-1,1504,1331,0,0
287,-307,0,0,0,0,0,0,0,0,0,-1,1511,1331,0,0
294,-307,0,0,0,0,0,0,0,0,0,-1,1518,1331,0,0
301,-307,0,0,0,0,0,0,0,0,0,-1,1525,1331,0,0
308,-307,0,0,0,0,0,0,0,0,0,-1,1532,1331,0,0
315,-307,0,0,0,0,0,0,0,0,0,-1,1539,1331,0,0
322,-307,0,0,0,0,0,0,0,0,0,-1,1546,1331,0,0
329,-307,0,0,0,0,0,0,0,0,0,-1,1553,1331,0,0
336,-307,0,0,0,0,0,0,0,0,0,-1,1560,1331,0,0
343,-307,0,0,0,0,0,0,0,0,0,-1,1567,1331,0,0
350,-307,0,0,0,0,0,0,0,0,0,-1,1574,1331,0,0
357,-307,0,0,0,0,0,0,0,0,0,-1,1581,1331,0,0
364,-307,0,0,0,0,0,0,0,0,0,-1,1588,1331,0,0
371,-307,0,0,0,0,0,0,0,0,0,-1,1595,1331,0,0
378,-307,0,0,0,0,0,0,0,0,0,-1,1602,1331,0,0
385,-307,0,0,0,0,0,0,0,0,0,-1,1609,1331,0,0
392,-307,0,0,0,0,0,0,0,0,0,-1,1616,1331,0,0
399,-307,0,0,0,0,0,0,0,0,0,-1,1623,1331,0,0
406,-307,0,0,0,0,0,0,0,0,0,-1,1630,1331,0,0
413,-307,0,0,0,0,0,0,0,0,0,-1,1637,1331,0,0
420,-307,0,0,0,0,0,0,0,0,0,-1,1644,1331,0,0
427,-307,0,0,0,0,0,0,0,0,0,-1,1651,1331,0,0
434,-307,0,0,0,0,0,0,0,0,0,-1,1658,1331,0,0
441,-307,0,0,0,0,0,0,0,0,0,-1,1665,1331,0,0
448,-307,0,0,0,0,0,0,0,0,0,-1,1672,1331,0,0
455,-307,0,0,0,0,0,0,0,0,0,-1,1679,1331,0,0
462,-307,0,0,0,0,0,0,0,0,0,-1,1686,1331,0,0
469,-307,0,0,0,0,0,0,0,0,0,-1,1693,1331,0,0
476,-307,0,0,0,0,0,0,0,0,0,-1,1700,1331,0,0
483,-307,0,0,0,0,0,0,0,0,0,-1,1707,1331,0,0
490,-307,0,0,0,0,0,0,0,0,0,-1,1714,1331,0,0
497,-307,0,0,0,0,0,0,0,0,0,-1,1721,1331,0,0
504,-307,0,0,0,0,0,0,0,0,0,-1,1728,1331,0,0
511,-307,0,0,0,0,0,0,0,0,0,-1,1735,1331,0,0
518,-307,0,0,0,0,0,0,0,0,0,-1,1742,1331,0,0
525,-307,0,0,0,0,0,0,0,0,0,-1,1749,1331,0,0
532,-307,0,0,0,0,0,0,0,0,0,-1,1756,1331,0,0
539,-307,0,0,0,0,0,0,0,0,0,-1,1763,1331,0,0
546,-307,0,0,0,0,0,0,0,0,0,-1,1770,1331,0,0
553,-307,0,0,0,0,0,0,0,0,0,-1,1777,1331,0,0
560,-307,0,0,0,0,0,0,0,0,0,-1,1784,1331,0,0
567,-307,0,0,0,0,0,0,0,0,0,-1,1791,1331,0,0
574,-307,0,0,0,0,0,0,0,0,0,-1,1798,1331,0,0
581,-307,0,0,0,0,0,0,0,0,0,-1,1805,1331,0,0
588,-307,43.0215,1.94336,0,0,0,0,0,0,0,-1,1812,1331,43.0215,-1.94336
595,-307,43.5874,1.73145,0,0,0,0,0,0,0,-1,1819,1331,43.5875,-1.73144
602,-307,43.9133,1.6084,0,0,0,0,0,0,0,-1,1826,1331,43.9134,-1.6084
609,-307,43.8763,2.6842,0,0,0,0,0,0,0,-1,1833,1331,43.8764,-2.6842
616,-307,44.2523,2.8761,0,0,0,0,0,0,0,-1,1840,1331,44.2523,-2.87605
623,-307,44.3966,2.84888,0,0,0,0,0,0,0,-1,1847,1331,44.3966,-2.84884
630,-307,29.8116,1.51184,0,0,0,0,0,0,0,-1,1854,1331,29.8116,-1.51188
637,-307,24.6407,4.09106,0,0,0,0,0,0,0,-1,1861,1331,24.6407,-4.09103
644,-307,22.6885,5.80408,0,0,0,0,0,0,0,-1,1868,1331,22.6884,-5.80408
651,-307,17.5013,5.80078,0,0,0,0,0,0,0,-1,1875,1331,17.5014,-5.80072
658,-307,32.5618,12.2092,0,0,0,0,0,0,0,-1,1882,1331,32.5617,-12.2092
665,-307,32.2903,11.6364,0.00448811,0.000990406,0.00630772,0.00928493,-0.00380641,0.650167,0.00777577,0.0426565,1889,1331,32.2903,-11.6364
672,-307,32.2087,11.1851,0.00405929,-0.000477215,0.00469397,0.00700432,-0.00342224,0.560328,0.00613706,0.0141812,1896,1331,32.2087,-11.1851
679,-307,32.182,10.7095,0.00274904,-0.00101246,0.00238847,0.00390836,-0.00217177,0.451883,0.00355777,0.0106056,1903,1331,32.1821,-10.7095
686,-307,32.1709,10.2529,0.00111192,-0.000703273,0.000282715,0.00115494,-0.000746286,0.150986,0.00110609,0.0105435,1910,1331,32.1709,-10.2529
693,-307,32.1508,9.76038,0.000305091,-0.000723669,0.000428332,0.000460081,-0.000878658,0.347187,0.000785413,0.0115963,1917,1331,32.1508,-9.76043
700,-307,32.152,9.27197,0.000106575,-0.000738274,0.000722038,0.000520679,-0.00115238,0.520723,0.000988625,0.0128061,1924,1331,32.1519,-9.27195
707,-307,32.1418,8.8075,-0.000210145,-0.000880224,0.0011622,0.00066434,-0.00175471,0.645062,0.00144316,0.0148415,1931,1331,32.1418,-8.80749
714,-307,32.1185,8.38953,-0.000697008,-0.00115884,0.0017451,0.000832385,-0.00268823,0.719619,0.00212468,0.0136473,1938,1331,32.1185,-8.3895
721,-307,32.156,7.94006,-0.00139298,-0.00165441,0.00255833,0.00103797,-0.00408536,0.759874,0.00312751,0.0174514,1945,1331,32.156,-7.94012
728,-307,32.1301,7.64636,-0.00239196,-0.0024717,0.00363239,0.00120078,-0.00606444,0.77991,0.00449698,0.0430497,1952,1331,32.1301,-7.64638
735,-307,32.1865,7.06311,0,0,0,0,0,0,0,-1,1959,1331,32.1866,-7.06307
742,-307,26.677,6.09192,0,0,0,0,0,0,0,-1,1966,1331,26.677,-6.0919
749,-307,26.7727,5.9032,0,0,0,0,0,0,0,-1,1973,1331,26.7727,-5.90323
756,-307,27.1556,5.74756,0,0,0,0,0,0,0,-1,1980,1331,27.1557,-5.7475
763,-307,18.7522,3.55298,0,0,0,0,0,0,0,-1,1987,1331,18.7522,-3.55301
770,-307,0,0,0,0,0,0,0,0,0,-1,1994,1331,0,0
777,-307,0,0,0,0,0,0,0,0,0,-1,2001,1331,0,0
784,-307,0,0,0,0,0,0,0,0,0,-1,2008,1331,0,0
791,-307,0,0,0,0,0,0,0,0,0,-1,2015,1331,0,0
798,-307,0,0,0,0,0,0,0,0,0,-1,2022,1331,0,0
805,-307,0,0,0,0,0,0,0,0,0,-1,2029,1331,0,0
812,-307,0,0,0,0,0,0,0,0,0,-1,2036,1331,0,0
-700,-314,0,0,0,0,0,0,0,0,0,-1,524,1338,0,0
-693,-314,0,0,0,0,0,0,0,0,0,-1,531,1338,0,0
-686,-314,0,0,0,0,0,0,0,0,0,-1,538,1338,0,0
-679,-314,0,0,0,0,0,0,0,0,0,-1,545,1338,0,0
-672,-314,0,0,0,0,0,0,0,0,0,-1,552,1338,0,0
-665,-314,0,0,0,0,0,0,0,0,0,-1,559,1338,0,0
-658,-314,0,0,0,0,0,0,0,0,0,-1,566,1338,0,0
-651,-314,0,0,0,0,0,0,0,0,0,-1,573,1338,0,0
-644,-314,-20.9896,-0.0299072,0,0,0,0,0,0,0,-1,580,1338,-20.9896,0.0299587
-637,-314,-18.8677,6.62646,0,0,0,0,0,0,0,-1,587,1338,-18.8677,-6.62651
-630,-314,-13.2771,2.98938,0,0,0,0,0,0,0,-1,594,1338,-13.2771,-2.98943
-623,-314,-13.3542,3.00903,0,0,0,0,0,0,0,-1,601,1338,-13.3542,-3.00907
-616,-314,-9.93311,1.15088,0,0,0,0,0,0,0,-1,608,1338,-9.93308,-1.15093
-609,-314,-9.4361,2.86292,0,0,0,0,0,0,0,-1,615,1338,-9.43612,-2.86286
-602,-314,-11.8027,2.42798,0,0,0,0,0,0,0,-1,622,1338,-11.8027,-2.42802
-595,-314,-18.1304,5.04578,0,0,0,0,0,0,0,-1,629,1338,-18.1304,-5.04578
-588,-314,-17.9453,5.60632,0.00501911,0.00373378,0.00341632,0.00785269,0.000900205,0.692426,0.00496235,0.0321441,636,1338,-17.9453,-5.60637
-581,-314,-17.8692,6.14539,0.00387778,0.00264411,0.00236716,0.00570715,0.000814736,0.657943,0.00356436,0.0130298,643,1338,-17.8692,-6.14538
-574,-314,-17.9111,6.62195,0.00317437,0.00182413,0.00169495,0.0043237,0.000674795,0.595872,0.00268594,0.0121621,650,1338,-17.9111,-6.6219
-567,-314,-17.9224,7.1665,0.00287062,0.00120211,0.00129632,0.00357793,0.000494795,0.499482,0.00223866,0.0141976,657,1338,-17.9223,-7.16655
-560,-314,-17.9184,7.69592,0.00294449,0.000720813,0.00114397,0.00342792,0.000237389,0.399821,0.0022104,0.0157119,664,1338,-17.9184,-7.69588
-553,-314,-17.9409,8.20178,0.0033131,0.000359026,0.00116257,0.00371574,-4.36198e-05,0.333412,0.00249183,0.0183621,671,1338,-17.9409,-8.20174
-546,-314,-17.991,8.74646,0.0040895,0.000107147,0.0014145,0.00454078,-0.000344131,0.30883,0.00314817,0.018466,678,1338,-17.991,-8.74644
-539,-314,-17.9721,9.26697,0.00531845,-0.000110484,0.00189471,0.00591431,-0.000706344,0.304693,0.00419817,0.017855,685,1338,-17.9721,-9.26698
-532,-314,-17.8986,9.72607,0,0,0,0,0,0,0,-1,692,1338,-17.8986,-9.72612
-525,-314,-13.3017,7.50671,0,0,0,0,0,0,0,-1,699,1338,-13.3017,-7.50669
-518,-314,-8.52753,4.70032,0,0,0,0,0,0,0,-1,706,1338,-8.52755,-4.70034
-511,-314,-11.8597,0.384888,0,0,0,0,0,0,0,-1,713,1338,-11.8597,-0.384927
-504,-314,-11.4322,-0.187378,0,0,0,0,0,0,0,-1,720,1338,-11.4322,0.187381
-497,-314,-11.0047,-0.759644,0,0,0,0,0,0,0,-1,727,1338,-11.0047,0.759689
-490,-314,-18.5143,0.471069,0,0,0,0,0,0,0,-1,734,1338,-18.5143,-0.47103
-483,-314,-17.8528,0.577271,0,0,0,0,0,0,0,-1,741,1338,-17.8528,-0.577327
-476,-314,-17.714,0.665405,0,0,0,0,0,0,0,-1,748,1338,-17.714,-0.665388
-469,-314,-17.7246,0.794678,0,0,0,0,0,0,0,-1,755,1338,-17.7246,-0.794645
-462,-314,0,0,0,0,0,0,0,0,0,-1,762,1338,0,0
-455,-314,0,0,0,0,0,0,0,0,0,-1,769,1338,0,0
-448,-314,0,0,0,0,0,0,0,0,0,-1,776,1338,0,0
-441,-314,0,0,0,0,0,0,0,0,0,-1,783,1338,0,0
-434,-314,0,0,0,0,0,0,0,0,0,-1,790,1338,0,0
-427,-314,0,0,0,0,0,0,0,0,0,-1,797,1338,0,0
-420,-314,0,0,0,0,0,0,0,0,0,-1,804,1338,0,0
-413,-314,0,0,0,0,0,0,0,0,0,-1,811,1338,0,0
-406,-314,0,0,0,0,0,0,0,0,0,-1,818,1338,0,0
-399,-314,0,0,0,0,0,0,0,0,0,-1,825,1338,0,0
-392,-314,0,0,0,0,0,0,0,0,0,-1,832,1338,0,0
-385,-314,0,0,0,0,0,0,0,0,0,-1,839,1338,0,0
-378,-314,0,0,0,0,0,0,0,0,0,-1,846,1338,0,0
-371,-314,0,0,0,0,0,0,0,0,0,-1,853,1338,0,0
-364,-314,0,0,0,0,0,0,0,0,0,-1,860,1338,0,0
-357,-314,0,0,0,0,0,0,0,0,0,-1,867,1338,0,0
-350,-314,0,0,0,0,0,0,0,0,0,-1,874,1338,0,0
-343,-314,0,0,0,0,0,0,0,0,0,-1,881,1338,0,0
-336,-314,0,0,0,0,0,0,0,0,0,-1,888,1338,0,0
-329,-314,0,0,0,0,0,0,0,0,0,-1,895,1338,0,0
-322,-314,0,0,0,0,0,0,0,0,0,-1,902,1338,0,0
-315,-314,0,0,0,0,0,0,0,0,0,-1,909,1338,0,0
-308,-314,0,0,0,0,0,0,0,0,0,-1,916,1338,0,0
-301,-314,0,0,0,0,0,0,0,0,0,-1,923,1338,0,0
-294,-314,0,0,0,0,0,0,0,0,0,-1,930,1338,0,0
-287,-314,0,0,0,0,0,0,0,0,0,-1,937,1338,0,0
-280,-314,0,0,0,0,0,0,0,0,0,-1,944,1338,0,0
-273,-314,0,0,0,0,0,0,0,0,0,-1,951,1338,0,0
-266,-314,0,0,0,0,0,0,0,0,0,-1,958,1338,0,0
-259,-314,0,0,0,0,0,0,0,0,0,-1,965,1338,0,0
-252,-314,0,0,0,0,0,0,0,0,0,-1,972,1338,0,0
-245,-314,0,0,0,0,0,0,0,0,0,-1,979,1338,0,0
-238,-314,0,0,0,0,0,0,0,0,0,-1,986,1338,0,0
-231,-314,0,0,0,0,0,0,0,0,0,-1,993,1338,0,0
-224,-314,0,0,0,0,0,0,0,0,0,-1,1000,1338,0,0
-217,-314,0,0,0,0,0,0,0,0,0,-1,1007,1338,0,0
-210,-314,0,0,0,0,0,0,0,0,0,-1,1014,1338,0,0
-203,-314,0,0,0,0,0,0,0,0,0,-1,1021,1338,0,0
-196,-314,0,0,0,0,0,0,0,0,0,-1,1028,1338,0,0
-189,-314,0,0,0,0,0,0,0,0,0,-1,1035,1338,0,0
-182,-314,0,0,0,0,0,0,0,0,0,-1,1042,1338,0,0
-175,-314,0,0,0,0,0,0,0,0,0,-1,1049,1338,0,0
-168,-314,0,0,0,0,0,0,0,0,0,-1,1056,1338,0,0
-161,-314,0,0,0,0,0,0,0,0,0,-1,1063,1338,0,0
-154,-314,0,0,0,0,0,0,0,0,0,-1,1070,1338,0,0
-147,-314,0,0,0,0,0,0,0,0,0,-1,1077,1338,0,0
-140,-314,0,0,0,0,0,0,0,0,0,-1,1084,1338,0,0
-133,-314,0,0,0,0,0,0,0,0,0,-1,1091,1338,0,0
-126,-314,0,0,0,0,0,0,0,0,0,-1,1098,1338,0,0
-119,-314,0,0,0,0,0,0,0,0,0,-1,1105,1338,0,0
-112,-314,0,0,0,0,0,0,0,0,0,-1,1112,1338,0,0
-105,-314,0,0,0,0,0,0,0,0,0,-1,1119,1338,0,0
-98,-314,0,0,0,0,0,0,0,0,0,-1,1126,1338,0,0
-91,-314,0,0,0,0,0,0,0,0,0,-1,1133,1338,0,0
-84,-314,0,0,0,0,0,0,0,0,0,-1,1140,1338,0,0
-77,-314,0,0,0,0,0,0,0,0,0,-1,1147,1338,0,0
-70,-314,0,0,0,0,0,0,0,0,0,-1,1154,1338,0,0
-63,-314,0,0,0,0,0,0,0,0,0,-1,1161,1338,0,0
-56,-314,0,0,0,0,0,0,0,0,0,-1,1168,1338,0,0
-49,-314,0,0,0,0,0,0,0,0,0,-1,1175,1338,0,0
-42,-314,0,0,0,0,0,0,0,0,0,-1,1182,1338,0,0
-35,-314,0,0,0,0,0,0,0,0,0,-1,1189,1338,0,0
-28,-314,0,0,0,0,0,0,0,0,0,-1,1196,1338,0,0
-21,-314,0,0,0,0,0,0,0,0,0,-1,1203,1338,0,0
-14,-314,0,0,0,0,0,0,0,0,0,-1,1210,1338,0,0
-7,-314,0,0,0,0,0,0,0,0,0,-1,1217,1338,0,0
0,-314,0,0,0,0,0,0,0,0,0,-1,1224,1338,0,0
7,-314,0,0,0,0,0,0,0,0,0,-1,1231,1338,0,0
14,-314,0,0,0,0,0,0,0,0,0,-1,1238,1338,0,0
21,-314,0,0,0,0,0,0,0,0,0,-1,1245,1338,0,0
28,-314,0,0,0,0,0,0,0,0,0,-1,1252,1338,0,0
35,-314,0,0,0,0,0,0,0,0,0,-1,1259,1338,0,0
42,-314,0,0,0,0,0,0,0,0,0,-1,1266,1338,0,0
49,-314,0,0,0,0,0,0,0,0,0,-1,1273,1338,0,0
56,-314,0,0,0,0,0,0,0,0,0,-1,1280,1338,0,0
63,-314,0,0,0,0,0,0,0,0,0,-1,1287,1338,0,0
70,-314,0,0,0,0,0,0,0,0,0,-1,1294,1338,0,0
77,-314,0,0,0,0,0,0,0,0,0,-1,1301,1338,0,0
84,-314,0,0,0,0,0,0,0,0,0,-1,1308,1338,0,0
91,-314,0,0,0,0,0,0,0,0,0,-1,1315,1338,0,0
98,-314,0,0,0,0,0,0,0,0,0,-1,1322,1338,0,0
105,-314,0,0,0,0,0,0,0,0,0,-1,1329,1338,0,0
112,-314,0,0,0,0,0,0,0,0,0,-1,1336,1338,0,0
119,-314,0,0,0,0,0,0,0,0,0,-1,1343,1338,0,0
126,-314,0,0,0,0,0,0,0,0,0,-1,1350,1338,0,0
133,-314,0,0,0,0,0,0,0,0,0,-1,1357,1338,0,0
140,-314,0,0,0,0,0,0,0,0,0,-1,1364,1338,0,0
147,-314,0,0,0,0,0,0,0,0,0,-1,1371,1338,0,0
154,-314,0,0,0,0,0,0,0,0,0,-1,1378,1338,0,0
161,-314,0,0,0,0,0,0,0,0,0,-1,1385,1338,0,0
168,-314,0,0,0,0,0,0,0,0,0,-1,1392,1338,0,0
175,-314,0,0,0,0,0,0,0,0,0,-1,1399,1338,0,0
182,-314,0,0,0,0,0,0,0,0,0,-1,1406,1338,0,0
189,-314,0,0,0,0,0,0,0,0,0,-1,1413,1338,0,0
196,-314,0,0,0,0,0,0,0,0,0,-1,1420,1338,0,0
203,-314,0,0,0,0,0,0,0,0,0,-1,1427,1338,0,0
210,-314,0,0,0,0,0,0,0,0,0,-1,1434,1338,0,0
217,-314,0,0,0,0,0,0,0,0,0,-1,1441,1338,0,0
224,-314,0,0,0,0,0,0,0,0,0,-1,1448,1338,0,0
231,-314,0,0,0,0,0,0,0,0,0,-1,1455,1338,0,0
238,-314,0,0,0,0,0,0,0,0,0,-1,1462,1338,0,0
245,-314,0,0,0,0,0,0,0,0,0,-1,1469,1338,0,0
252,-314,0,0,0,0,0,0,0,0,0,-1,1476,1338,0,0
259,-314,0,0,0,0,0,0,0,0,0,-1,1483,1338,0,0
266,-314,0,0,0,0,0,0,0,0,0,-1,1490,1338,0,0
273,-314,0,0,0,0,0,0,0,0,0,-1,1497,1338,0,0
280,-314,0,0,0,0,0,0,0,0,0,-1,1504,1338,0,0
287,-314,0,0,0,0,0,0,0,0,0,-1,1511,1338,0,0
294,-314,0,0,0,0,0,0,0,0,0,-1,1518,1338,0,0
301,-314,0,0,0,0,0,0,0,0,0,-1,1525,1338,0,0
308,-314,0,0,0,0,0,0,0,0,0,-1,1532,1338,0,0
315,-314,0,0,0,0,0,0,0,0,0,-1,1539,1338,0,0
322,-314,0,0,0,0,0,0,0,0,0,-1,1546,1338,0,0
329,-314,0,0,0,0,0,0,0,0,0,-1,1553,1338,0,0
336,-314,0,0,0,0,0,0,0,0,0,-1,1560,1338,0,0
343,-314,0,0,0,0,0,0,0,0,0,-1,1567,1338,0,0
350,-314,0,0,0,0,0,0,0,0,0,-1,1574,1338,0,0
357,-314,0,0,0,0,0,0,0,0,0,-1,1581,1338,0,0
364,-314,0,0,0,0,0,0,0,0,0,-1,1588,1338,0,0
371,-314,0,0,0,0,0,0,0,0,0,-1,1595,1338,0,0
378,-314,0,0,0,0,0,0,0,0,0,-1,1602,1338,0,0
385,-314,0,0,0,0,0,0,0,0,0,-1,1609,1338,0,0
392,-314,0,0,0,0,0,0,0,0,0,-1,1616,1338,0,0
399,-314,0,0,0,0,0,0,0,0,0,-1,1623,1338,0,0
406,-314,0,0,0,0,0,0,0,0,0,-1,1630,1338,0,0
413,-314,0,0,0,0,0,0,0,0,0,-1,1637,1338,0,0
420,-314,0,0,0,0,0,0,0,0,0,-1,1644,1338,0,0
427,-314,0,0,0,0,0,0,0,0,0,-1,1651,1338,0,0
434,-314,0,0,0,0,0,0,0,0,0,-1,1658,1338,0,0
441,-314,0,0,0,0,0,0,0,0,0,-1,1665,1338,0,0
448,-314,0,0,0,0,0,0,0,0,0,-1,1672,1338,0,0
455,-314,0,0,0,0,0,0,0,0,0,-1,1679,1338,0,0
462,-314,0,0,0,0,0,0,0,0,0,-1,1686,1338,0,0
469,-314,0,0,0,0,0,0,0,0,0,-1,1693,1338,0,0
476,-314,0,0,0,0,0,0,0,0,0,-1,1700,1338,0,0
483,-314,0,0,0,0,0,0,0,0,0,-1,1707,1338,0,0
490,-314,0,0,0,0,0,0,0,0,0,-1,1714,1338,0,0
497,-314,0,0,0,0,0,0,0,0,0,-1,1721,1338,0,0
504,-314,0,0,0,0,0,0,0,0,0,-1,1728,1338,0,0
511,-314,0,0,0,0,0,0,0,0,0,-1,1735,1338,0,0
518,-314,0,0,0,0,0,0,0,0,0,-1,1742,1338,0,0
525,-314,0,0,0,0,0,0,0,0,0,-1,1749,1338,0,0
532,-314,0,0,0,0,0,0,0,0,0,-1,1756,1338,0,0
539,-314,0,0,0,0,0,0,0,0,0,-1,1763,1338,0,0
546,-314,0,0,0,0,0,0,0,0,0,-1,1770,1338,0,0
553,-314,0,0,0,0,0,0,0,0,0,-1,1777,1338,0,0
560,-314,0,0,0,0,0,0,0,0,0,-1,1784,1338,0,0
567,-314,0,0,0,0,0,0,0,0,0,-1,1791,1338,0,0
574,-314,0,0,0,0,0,0,0,0,0,-1,1798,1338,0,0
581,-314,45.8688,3.97046,0,0,0,0,0,0,0,-1,1805,1338,45.8688,-3.9704
588,-314,46.0762,3.99866,0,0,0,0,0,0,0,-1,1812,1338,46.0761,-3.9987
595,-314,43.488,1.23438,0,0,0,0,0,0,0,-1,1819,1338,43.488,-1.23439
602,-314,43.83,1.1582,0,0,0,0,0,0,0,-1,1826,1338,43.8299,-1.15822
609,-314,44.0597,0.952026,0,0,0,0,0,0,0,-1,1833,1338,44.0597,-0.951975
616,-314,43.955,3.06885,0,0,0,0,0,0,0,-1,1840,1338,43.955,-3.06887
623,-314,38.7728,2.71741,0,0,0,0,0,0,0,-1,1847,1338,38.7728,-2.71737
630,-314,29.4308,6.23206,0,0,0,0,0,0,0,-1,1854,1338,29.4308,-6.23202
637,-314,22.1349,5.16418,0,0,0,0,0,0,0,-1,1861,1338,22.1349,-5.16414
644,-314,18.7517,6.2605,0,0,0,0,0,0,0,-1,1868,1338,18.7517,-6.26053
651,-314,23.1317,8.005,0,0,0,0,0,0,0,-1,1875,1338,23.1317,-8.00506
658,-314,31.7784,12.1608,0,0,0,0,0,0,0,-1,1882,1338,31.7784,-12.1607
665,-314,31.7262,11.6918,0.00328104,0.00112668,0.00557742,0.00788435,-0.00347662,0.690007,0.0067218,0.0277958,1889,1338,31.7261,-11.6918
672,-314,31.7395,11.2394,0.00285099,-0.000283314,0.00380192,0.00539609,-0.00282841,0.589908,0.00482493,0.0125242,1896,1338,31.7395,-11.2394
679,-314,31.7157,10.7522,0.00190615,-0.000794713,0.00178071,0.00279057,-0.00167914,0.460981,0.00260705,0.0105447,1903,1338,31.7157,-10.7522
686,-314,31.6968,10.266,0.000862354,-0.00065021,0.000258348,0.000905263,-0.000693119,0.164587,0.000925531,0.0126578,1910,1338,31.6968,-10.266
693,-314,31.6816,9.76929,0.000433524,-0.000671725,0.000370935,0.000546472,-0.000784673,0.295576,0.000772628,0.0121605,1917,1338,31.6817,-9.7693
700,-314,31.6603,9.29102,0.000310946,-0.000666252,0.000628541,0.000618457,-0.000973764,0.455008,0.000926867,0.0132139,1924,1338,31.6603,-9.29099
707,-314,31.6674,8.83582,5.87056e-05,-0.000769584,0.00102462,0.000749709,-0.00146059,0.593339,0.00129793,0.014195,1931,1338,31.6673,-8.83577
714,-314,31.65,8.40051,-0.000371359,-0.00101817,0.00157873,0.000916755,-0.00230628,0.684371,0.0019176,0.0129273,1938,1338,31.65,-8.40056
721,-314,31.6144,7.98767,-0.00103834,-0.00152034,0.00243692,0.00116947,-0.00372814,0.736111,0.00295346,0.0267092,1945,1338,31.6144,-7.98766
728,-314,31.6971,7.57373,0,0,0,0,0,0,0,-1,1952,1338,31.6971,-7.57375
735,-314,26.3665,6.21582,0,0,0,0,0,0,0,-1,1959,1338,26.3664,-6.21581
742,-314,26.2235,6.0166,0,0,0,0,0,0,0,-1,1966,1338,26.2235,-6.01662
749,-314,26.2223,5.47046,0,0,0,0,0,0,0,-1,1973,1338,26.2223,-5.47041
756,-314,24.2521,5.93408,0,0,0,0,0,0,0,-1,1980,1338,24.252,-5.93413
763,-314,19.2207,4.07239,0,0,0,0,0,0,0,-1,1987,1338,19.2206,-4.07239
770,-314,0,0,0,0,0,0,0,0,0,-1,1994,1338,0,0
777,-314,0,0,0,0,0,0,0,0,0,-1,2001,1338,0,0
784,-314,0,0,0,0,0,0,0,0,0,-1,2008,1338,0,0
791,-314,0,0,0,0,0,0,0,0,0,-1,2015,1338,0,0
798,-314,0,0,0,0,0,0,0,0,0,-1,2022,1338,0,0
805,-314,0,0,0,0,0,0,0,0,0,-1,2029,1338,0,0
812,-314,0,0,0,0,0,0,0,0,0,-1,2036,1338,0,0
-700,-321,0,0,0,0,0,0,0,0,0,-1,524,1345,0,0
-693,-321,0,0,0,0,0,0,0,0,0,-1,531,1345,0,0
-686,-321,0,0,0,0,0,0,0,0,0,-1,538,1345,0,0
-679,-321,0,0,0,0,0,0,0,0,0,-1,545,1345,0,0
-672,-321,0,0,0,0,0,0,0,0,0,-1,552,1345,0,0
-665,-321,0,0,0,0,0,0,0,0,0,-1,559,1345,0,0
-658,-321,0,0,0,0,0,0,0,0,0,-1,566,1345,0,0
-651,-321,0,0,0,0,0,0,0,0,0,-1,573,1345,0,0
-644,-321,-17.2769,5.65454,0,0,0,0,0,0,0,-1,580,1345,-17.2768,-5.65454
-637,-321,-13.3991,3.59241,0,0,0,0,0,0,0,-1,587,1345,-13.3991,-3.59236
-630,-321,-13.2958,3.65039,0,0,0,0,0,0,0,-1,594,1345,-13.2958,-3.65042
-623,-321,-13.2242,3.14148,0,0,0,0,0,0,0,-1,601,1345,-13.2243,-3.14146
-616,-321,-11.6754,3.13794,0,0,0,0,0,0,0,-1,608,1345,-11.6754,-3.13789
-609,-321,-7.95209,1.14758,0,0,0,0,0,0,0,-1,615,1345,-7.95208,-1.14757
-602,-321,-8.85791,2.50049,0,0,0,0,0,0,0,-1,622,1345,-8.85791,-2.50048
-595,-321,-17.9061,4.98145,0,0,0,0,0,0,0,-1,629,1345,-17.9061,-4.9815
-588,-321,-17.4832,5.54138,0.00570347,0.00365639,0.00342684,0.00825636,0.0011035,0.640273,0.00517577,0.0466615,636,1345,-17.4832,-5.54133
-581,-321,-17.3842,6.16675,0.00431955,0.00265795,0.00234314,0.00597481,0.00100268,0.615029,0.00369462,0.0136296,643,1345,-17.3842,-6.16669
-574,-321,-17.4122,6.65723,0.00343739,0.00188461,0.00167028,0.0045029,0.000819097,0.56784,0.00276958,0.0149514,650,1345,-17.4123,-6.6572
-567,-321,-17.4121,7.16589,0.0029939,0.00130601,0.00126852,0.00367356,0.000626343,0.491871,0.00226926,0.0212872,657,1345,-17.4121,-7.16592
-560,-321,-17.4066,7.72498,0.00296879,0.000856037,0.00112002,0.00345201,0.000372814,0.407315,0.00218769,0.0249658,664,1345,-17.4066,-7.72495
-553,-321,-17.4335,8.18738,0.00324797,0.000472883,0.00112473,0.00364657,7.42892e-05,0.340582,0.00240666,0.0268841,671,1345,-17.4335,-8.18733
-546,-321,-17.4746,8.7207,0.00394527,0.000182457,0.00134713,0.00437783,-0.000250106,0.3107,0.00300539,0.0261724,678,1345,-17.4746,-8.72076
-539,-321,-17.495,9.25598,0.00505756,-4.9924e-05,0.00176959,0.00561075,-0.000603116,0.302986,0.00395689,0.0240081,685,1345,-17.495,-9.25599
-532,-321,-17.3795,9.78687,0.00682747,-0.00019231,0.00245692,0.00760194,-0.000966783,0.305362,0.00541905,0.0330645,692,1345,-17.3795,-9.78684
-525,-321,-17.4517,10.4758,0,0,0,0,0,0,0,-1,699,1345,-17.4517,-10.4759
-518,-321,-10.3564,6.75696,0,0,0,0,0,0,0,-1,706,1345,-10.3564,-6.75694
-511,-321,-9.3302,5.29297,0,0,0,0,0,0,0,-1,713,1345,-9.33023,-5.29294
-504,-321,-10.4713,0.0145264,0,0,0,0,0,0,0,-1,720,1345,-10.4713,-0.0145296
-497,-321,-9.96771,0.313599,0,0,0,0,0,0,0,-1,727,1345,-9.96769,-0.313618
-490,-321,-10.7631,0.973511,0,0,0,0,0,0,0,-1,734,1345,-10.7631,-0.97353
-483,-321,-17.5908,0.2323,0,0,0,0,0,0,0,-1,741,1345,-17.5908,-0.232355
-476,-321,-17.2915,0.297363,0,0,0,0,0,0,0,-1,748,1345,-17.2915,-0.297342
-469,-321,-17.2441,0.478027,0,0,0,0,0,0,0,-1,755,1345,-17.2441,-0.477994
-462,-321,-17.1672,0.526489,0,0,0,0,0,0,0,-1,762,1345,-17.1672,-0.526533
-455,-321,0,0,0,0,0,0,0,0,0,-1,769,1345,0,0
-448,-321,0,0,0,0,0,0,0,0,0,-1,776,1345,0,0
-441,-321,0,0,0,0,0,0,0,0,0,-1,783,1345,0,0
-434,-321,0,0,0,0,0,0,0,0,0,-1,790,1345,0,0
-427,-321,0,0,0,0,0,0,0,0,0,-1,797,1345,0,0
-420,-321,0,0,0,0,0,0,0,0,0,-1,804,1345,0,0
-413,-321,0,0,0,0,0,0,0,0,0,-1,811,1345,0,0
-406,-321,0,0,0,0,0,0,0,0,0,-1,818,1345,0,0
-399,-321,0,0,0,0,0,0,0,0,0,-1,825,1345,0,0
-392,-321,0,0,0,0,0,0,0,0,0,-1,832,1345,0,0
-385,-321,0,0,0,0,0,0,0,0,0,-1,839,1345,0,0
-378,-321,0,0,0,0,0,0,0,0,0,-1,846,1345,0,0
-371,-321,0,0,0,0,0,0,0,0,0,-1,853,1345,0,0
-364,-321,0,0,0,0,0,0,0,0,0,-1,860,1345,0,0
-357,-321,0,0,0,0,0,0,0,0,0,-1,867,1345,0,0
-350,-321,0,0,0,0,0,0,0,0,0,-1,874,1345,0,0
-343,-321,0,0,0,0,0,0,0,0,0,-1,881,1345,0,0
-336,-321,0,0,0,0,0,0,0,0,0,-1,888,1345,0,0
-329,-321,0,0,0,0,0,0,0,0,0,-1,895,1345,0,0
-322,-321,0,0,0,0,0,0,0,0,0,-1,902,1345,0,0
-315,-321,0,0,0,0,0,0,0,0,0,-1,909,1345,0,0
-308,-321,0,0,0,0,0,0,0,0,0,-1,916,1345,0,0
-301,-321,0,0,0,0,0,0,0,0,0,-1,923,1345,0,0
-294,-321,0,0,0,0,0,0,0,0,0,-1,930,1345,0,0
-287,-321,0,0,0,0,0,0,0,0,0,-1,937,1345,0,0
-280,-321,0,0,0,0,0,0,0,0,0,-1,944,1345,0,0
-273,-321,0,0,0,0,0,0,0,0,0,-1,951,1345,0,0
-266,-321,0,0,0,0,0,0,0,0,0,-1,958,1345,0,0
-259,-321,0,0,0,0,0,0,0,0,0,-1,965,1345,0,0
-252,-321,0,0,0,0,0,0,0,0,0,-1,972,1345,0,0
-245,-321,0,0,0,0,0,0,0,0,0,-1,979,1345,0,0
-238,-321,0,0,0,0,0,0,0,0,0,-1,986,1345,0,0
-231,-321,0,0,0,0,0,0,0,0,0,-1,993,1345,0,0
-224,-321,0,0,0,0,0,0,0,0,0,-1,1000,1345,0,0
-217,-321,0,0,0,0,0,0,0,0,0,-1,1007,1345,0,0
-210,-321,0,0,0,0,0,0,0,0,0,-1,1014,1345,0,0
-203,-321,0,0,0,0,0,0,0,0,0,-1,1021,1345,0,0
-196,-321,0,0,0,0,0,0,0,0,0,-1,1028,1345,0,0
-189,-321,0,0,0,0,0,0,0,0,0,-1,1035,1345,0,0
-182,-321,0,0,0,0,0,0,0,0,0,-1,1042,1345,0,0
-175,-321,0,0,0,0,0,0,0,0,0,-1,1049,1345,0,0
-168,-321,0,0,0,0,0,0,0,0,0,-1,1056,1345,0,0
-161,-321,0,0,0,0,0,0,0,0,0,-1,1063,1345,0,0
-154,-321,0,0,0,0,0,0,0,0,0,-1,1070,1345,0,0
-147,-321,0,0,0,0,0,0,0,0,0,-1,1077,1345,0,0
-140,-321,0,0,0,0,0,0,0,0,0,-1,1084,1345,0,0
-133,-321,0,0,0,0,0,0,0,0,0,-1,1091,1345,0,0
-126,-321,0,0,0,0,0,0,0,0,0,-1,1098,1345,0,0
-119,-321,0,0,0,0,0,0,0,0,0,-1,1105,1345,0,0
-112,-321,0,0,0,0,0,0,0,0,0,-1,1112,1345,0,0
-105,-321,0,0,0,0,0,0,0,0,0,-1,1119,1345,0,0
-98,-321,0,0,0,0,0,0,0,0,0,-1,1126,1345,0,0
-91,-321,0,0,0,0,0,0,0,0,0,-1,1133,1345,0,0
-84,-321,0,0,0,0,0,0,0,0,0,-1,1140,1345,0,0
-77,-321,0,0,0,0,0,0,0,0,0,-1,1147,1345,0,0
-70,-321,0,0,0,0,0,0,0,0,0,-1,1154,1345,0,0
-63,-321,0,0,0,0,0,0,0,0,0,-1,1161,1345,0,0
-56,-321,0,0,0,0,0,0,0,0,0,-1,1168,1345,0,0
-49,-321,0,0,0,0,0,0,0,0,0,-1,1175,1345,0,0
-42,-321,0,0,0,0,0,0,0,0,0,-1,1182,1345,0,0
-35,-321,0,0,0,0,0,0,0,0,0,-1,1189,1345,0,0
-28,-321,0,0,0,0,0,0,0,0,0,-1,1196,1345,0,0
-21,-321,0,0,0,0,0,0,0,0,0,-1,1203,1345,0,0
-14,-321,0,0,0,0,0,0,0,0,0,-1,1210,1345,0,0
-7,-321,0,0,0,0,0,0,0,0,0,-1,1217,1345,0,0
0,-321,0,0,0,0,0,0,0,0,0,-1,1224,1345,0,0
7,-321,0,0,0,0,0,0,0,0,0,-1,1231,1345,0,0
14,-321,0,0,0,0,0,0,0,0,0,-1,1238,1345,0,0
21,-321,0,0,0,0,0,0,0,0,0,-1,1245,1345,0,0
28,-321,0,0,0,0,0,0,0,0,0,-1,1252,1345,0,0
35,-321,0,0,0,0,0,0,0,0,0,-1,1259,1345,0,0
42,-321,0,0,0,0,0,0,0,0,0,-1,1266,1345,0,0
49,-321,0,0,0,0,0,0,0,0,0,-1,1273,1345,0,0
56,-321,0,0,0,0,0,0,0,0,0,-1,1280,1345,0,0
63,-321,0,0,0,0,0,0,0,0,0,-1,1287,1345,0,0
70,-321,0,0,0,0,0,0,0,0,0,-1,1294,1345,0,0
77,-321,0,0,0,0,0,0,0,0,0,-1,1301,1345,0,0
84,-321,0,0,0,0,0,0,0,0,0,-1,1308,1345,0,0
91,-321,0,0,0,0,0,0,0,0,0,-1,1315,1345,0,0
98,-321,0,0,0,0,0,0,0,0,0,-1,1322,1345,0,0
105,-321,0,0,0,0,0,0,0,0,0,-1,1329,1345,0,0
112,-321,0,0,0,0,0,0,0,0,0,-1,1336,1345,0,0
119,-321,0,0,0,0,0,0,0,0,0,-1,1343,1345,0,0
126,-321,0,0,0,0,0,0,0,0,0,-1,1350,1345,0,0
133,-321,0,0,0,0,0,0,0,0,0,-1,1357,1345,0,0
140,-321,0,0,0,0,0,0,0,0,0,-1,1364,1345,0,0
147,-321,0,0,0,0,0,0,0,0,0,-1,1371,1345,0,0
154,-321,0,0,0,0,0,0,0,0,0,-1,1378,1345,0,0
161,-321,0,0,0,0,0,0,0,0,0,-1,1385,1345,0,0
168,-321,0,0,0,0,0,0,0,0,0,-1,1392,1345,0,0
175,-321,0,0,0,0,0,0,0,0,0,-1,1399,1345,0,0
182,-321,0,0,0,0,0,0,0,0,0,-1,1406,1345,0,0
189,-321,0,0,0,0,0,0,0,0,0,-1,1413,1345,0,0
196,-321,0,0,0,0,0,0,0,0,0,-1,1420,1345,0,0
203,-321,0,0,0,0,0,0,0,0,0,-1,1427,1345,0,0
210,-321,0,0,0,0,0,0,0,0,0,-1,1434,1345,0,0
217,-321,0,0,0,0,0,0,0,0,0,-1,1441,1345,0,0
224,-321,0,0,0,0,0,0,0,0,0,-1,1448,1345,0,0
231,-321,0,0,0,0,0,0,0,0,0,-1,1455,1345,0,0
238,-321,0,0,0,0,0,0,0,0,0,-1,1462,1345,0,0
245,-321,0,0,0,0,0,0,0,0,0,-1,1469,1345,0,0
252,-321,0,0,0,0,0,0,0,0,0,-1,1476,1345,0,0
259,-321,0,0,0,0,0,0,0,0,0,-1,1483,1345,0,0
266,-321,0,0,0,0,0,0,0,0,0,-1,1490,1345,0,0
273,-321,0,0,0,0,0,0,0,0,0,-1,1497,1345,0,0
280,-321,0,0,0,0,0,0,0,0,0,-1,1504,1345,0,0
287,-321,0,0,0,0,0,0,0,0,0,-1,1511,1345,0,0
294,-321,0,0,0,0,0,0,0,0,0,-1,1518,1345,0,0
301,-321,0,0,0,0,0,0,0,0,0,-1,1525,1345,0,0
308,-321,0,0,0,0,0,0,0,0,0,-1,1532,1345,0,0
315,-321,0,0,0,0,0,0,0,0,0,-1,1539,1345,0,0
322,-321,0,0,0,0,0,0,0,0,0,-1,1546,1345,0,0
329,-321,0,0,0,0,0,0,0,0,0,-1,1553,1345,0,0
336,-321,0,0,0,0,0,0,0,0,0,-1,1560,1345,0,0
343,-321,0,0,0,0,0,0,0,0,0,-1,1567,1345,0,0
350,-321,0,0,0,0,0,0,0,0,0,-1,1574,1345,0,0
357,-321,0,0,0,0,0,0,0,0,0,-1,1581,1345,0,0
364,-321,0,0,0,0,0,0,0,0,0,-1,1588,1345,0,0
371,-321,0,0,0,0,0,0,0,0,0,-1,1595,1345,0,0
378,-321,0,0,0,0,0,0,0,0,0,-1,1602,1345,0,0
385,-321,0,0,0,0,0,0,0,0,0,-1,1609,1345,0,0
392,-321,0,0,0,0,0,0,0,0,0,-1,1616,1345,0,0
399,-321,0,0,0,0,0,0,0,0,0,-1,1623,1345,0,0
406,-321,0,0,0,0,0,0,0,0,0,-1,1630,1345,0,0
413,-321,0,0,0,0,0,0,0,0,0,-1,1637,1345,0,0
420,-321,0,0,0,0,0,0,0,0,0,-1,1644,1345,0,0
427,-321,0,0,0,0,0,0,0,0,0,-1,1651,1345,0,0
434,-321,0,0,0,0,0,0,0,0,0,-1,1658,1345,0,0
441,-321,0,0,0,0,0,0,0,0,0,-1,1665,1345,0,0
448,-321,0,0,0,0,0,0,0,0,0,-1,1672,1345,0,0
455,-321,0,0,0,0,0,0,0,0,0,-1,1679,1345,0,0
462,-321,0,0,0,0,0,0,0,0,0,-1,1686,1345,0,0
469,-321,0,0,0,0,0,0,0,0,0,-1,1693,1345,0,0
476,-321,0,0,0,0,0,0,0,0,0,-1,1700,1345,0,0
483,-321,0,0,0,0,0,0,0,0,0,-1,1707,1345,0,0
490,-321,0,0,0,0,0,0,0,0,0,-1,1714,1345,0,0
497,-321,0,0,0,0,0,0,0,0,0,-1,1721,1345,0,0
504,-321,0,0,0,0,0,0,0,0,0,-1,1728,1345,0,0
511,-321,0,0,0,0,0,0,0,0,0,-1,1735,1345,0,0
518,-321,0,0,0,0,0,0,0,0,0,-1,1742,1345,0,0
525,-321,0,0,0,0,0,0,0,0,0,-1,1749,1345,0,0
532,-321,0,0,0,0,0,0,0,0,0,-1,1756,1345,0,0
539,-321,0,0,0,0,0,0,0,0,0,-1,1763,1345,0,0
546,-321,0,0,0,0,0,0,0,0,0,-1,1770,1345,0,0
553,-321,0,0,0,0,0,0,0,0,0,-1,1777,1345,0,0
560,-321,0,0,0,0,0,0,0,0,0,-1,1784,1345,0,0
567,-321,0,0,0,0,0,0,0,0,0,-1,1791,1345,0,0
574,-321,0,0,0,0,0,0,0,0,0,-1,1798,1345,0,0
581,-321,45.3884,5.0686,0,0,0,0,0,0,0,-1,1805,1345,45.3884,-5.06858
588,-321,46.0454,4.33325,0,0,0,0,0,0,0,-1,1812,1345,46.0455,-4.33326
595,-321,46.4561,4.422,0,0,0,0,0,0,0,-1,1819,1345,46.456,-4.42204
602,-321,46.9861,4.7251,0,0,0,0,0,0,0,-1,1826,1345,46.9861,-4.72509
609,-321,43.7571,0.604126,0,0,0,0,0,0,0,-1,1833,1345,43.7571,-0.60415
616,-321,37.8107,2.58704,0,0,0,0,0,0,0,-1,1840,1345,37.8106,-2.58705
623,-321,37.6854,3.68933,0,0,0,0,0,0,0,-1,1847,1345,37.6854,-3.68931
630,-321,23.6674,4.34106,0,0,0,0,0,0,0,-1,1854,1345,23.6674,-4.34112
637,-321,21.7925,6.79224,0,0,0,0,0,0,0,-1,1861,1345,21.7925,-6.7922
644,-321,16.8844,6.71973,0,0,0,0,0,0,0,-1,1868,1345,16.8844,-6.71971
651,-321,27.4924,10.0319,0,0,0,0,0,0,0,-1,1875,1345,27.4924,-10.0319
658,-321,31.1661,12.1647,0,0,0,0,0,0,0,-1,1882,1345,31.1662,-12.1647
665,-321,31.2305,11.7208,0.00159055,0.000918497,0.00421062,0.00547853,-0.00296949,0.745581,0.00494865,0.021982,1889,1345,31.2304,-11.7208
672,-321,31.2714,11.2466,0.00152794,-0.000242168,0.00260557,0.00339468,-0.0021089,0.621673,0.00320627,0.0128758,1896,1345,31.2713,-11.2466
679,-321,31.2588,10.7864,0.00114845,-0.00065869,0.00109532,0.0016648,-0.00117504,0.440518,0.00164769,0.0112168,1903,1345,31.2588,-10.7864
686,-321,31.2181,10.2965,0.000733367,-0.000597889,0.000150714,0.000750216,-0.000614738,0.111335,0.00078935,0.0124681,1910,1345,31.2182,-10.2965
693,-321,31.2047,9.81738,0.00066293,-0.000586585,0.000245682,0.000709501,-0.000633156,0.187334,0.000775601,0.0127576,1917,1345,31.2047,-9.81741
700,-321,31.2002,9.34192,0.000630659,-0.000569147,0.000450874,0.000781203,-0.000719691,0.322255,0.000866784,0.0125285,1924,1345,31.2002,-9.34191
707,-321,31.214,8.87207,0.000448206,-0.000632386,0.00077874,0.000855726,-0.00103991,0.482119,0.00109616,0.0146135,1931,1345,31.2139,-8.87211
714,-321,31.1775,8.39319,6.4325e-05,-0.000844605,0.00127546,0.000963864,-0.00174414,0.614253,0.00158495,0.0144225,1938,1345,31.1775,-8.39318
721,-321,31.0706,7.93176,-0.000605718,-0.0013376,0.00215524,0.00121443,-0.00315775,0.701304,0.00260607,0.0410748,1945,1345,31.0705,-7.93172
728,-321,31.0319,7.54956,0,0,0,0,0,0,0,-1,1952,1345,31.0319,-7.54961
735,-321,22.0081,5.65479,0,0,0,0,0,0,0,-1,1959,1345,22.008,-5.65481
742,-321,24.5398,5.05725,0,0,0,0,0,0,0,-1,1966,1345,24.5398,-5.05729
749,-321,24.0675,5.4458,0,0,0,0,0,0,0,-1,1973,1345,24.0675,-5.44581
756,-321,19.6251,4.98315,0,0,0,0,0,0,0,-1,1980,1345,19.6251,-4.98311
763,-321,19.6747,4.61438,0,0,0,0,0,0,0,-1,1987,1345,19.6747,-4.61436
770,-321,0,0,0,0,0,0,0,0,0,-1,1994,1345,0,0
777,-321,0,0,0,0,0,0,0,0,0,-1,2001,1345,0,0
784,-321,0,0,0,0,0,0,0,0,0,-1,2008,1345,0,0
791,-321,0,0,0,0,0,0,0,0,0,-1,2015,1345,0,0
798,-321,0,0,0,0,0,0,0,0,0,-1,2022,1345,0,0
805,-321,0,0,0,0,0,0,0,0,0,-1,2029,1345,0,0
812,-321,0,0,0,0,0,0,0,0,0,-1,2036,1345,0,0
-700,-328,0,0,0,0,0,0,0,0,0,-1,524,1352,0,0
-693,-328,0,0,0,0,0,0,0,0,0,-1,531,1352,0,0
-686,-328,0,0,0,0,0,0,0,0,0,-1,538,1352,0,0
-679,-328,0,0,0,0,0,0,0,0,0,-1,545,1352,0,0
-672,-328,0,0,0,0,0,0,0,0,0,-1,552,1352,0,0
-665,-328,0,0,0,0,0,0,0,0,0,-1,559,1352,0,0
-658,-328,0,0,0,0,0,0,0,0,0,-1,566,1352,0,0
-651,-328,0,0,0,0,0,0,0,0,0,-1,573,1352,0,0
-644,-328,0,0,0,0,0,0,0,0,0,-1,580,1352,0,0
-637,-328,-12.0695,1.02014,0,0,0,0,0,0,0,-1,587,1352,-12.0694,-1.02017
-630,-328,-13.3971,4.54578,0,0,0,0,0,0,0,-1,594,1352,-13.3971,-4.54572
-623,-328,-10.7739,4.55042,0,0,0,0,0,0,0,-1,601,1352,-10.7739,-4.55041
-616,-328,-8.22198,-0.25708,0,0,0,0,0,0,0,-1,608,1352,-8.22201,0.257067
-609,-328,-7.87439,0.192871,0,0,0,0,0,0,0,-1,615,1352,-7.87441,-0.192822
-602,-328,-7.63062,1.31665,0,0,0,0,0,0,0,-1,622,1352,-7.63064,-1.3166
-595,-328,-9.42639,2.93494,0,0,0,0,0,0,0,-1,629,1352,-9.42638,-2.93499
-588,-328,-17.06,5.17188,0,0,0,0,0,0,0,-1,636,1352,-17.06,-5.17187
-581,-328,-16.8864,6.12036,0.00490002,0.00274384,0.0024613,0.00650899,0.00113488,0.578976,0.00401486,0.0245889,643,1352,-16.8864,-6.12038
-574,-328,-16.879,6.68433,0.00373274,0.00193977,0.00173928,0.00479298,0.000879523,0.547439,0.00294624,0.0159726,650,1352,-16.879,-6.68428
-567,-328,-16.903,7.21875,0.0030595,0.0013659,0.00129016,0.00375594,0.000669459,0.494984,0.00231332,0.0207725,657,1352,-16.903,-7.21871
-560,-328,-16.8671,7.77271,0.00286736,0.000898081,0.00109445,0.00335491,0.000410529,0.419084,0.0021131,0.0277544,664,1352,-16.8671,-7.77265
-553,-328,-16.8936,8.2146,0.00300542,0.000499484,0.00106008,0.0033937,0.000111206,0.351099,0.00222633,0.0296654,671,1352,-16.8936,-8.21461
-546,-328,-16.9324,8.73364,0.00357254,0.000176101,0.00122483,0.00396816,-0.000219516,0.31242,0.00272156,0.0279606,678,1352,-16.9323,-8.73364
-539,-328,-16.9743,9.27063,0.0045304,-7.482e-05,0.00157052,0.005015,-0.000559422,0.299292,0.00354456,0.0237296,685,1352,-16.9743,-9.2706
-532,-328,-16.9712,9.80298,0.00605819,-0.000256389,0.00216112,0.00672698,-0.000925183,0.300119,0.00482272,0.0187409,692,1352,-16.9712,-9.80303
-525,-328,-16.9406,10.3856,0.00813949,-0.000527324,0.00290238,0.00902166,-0.00140949,0.295073,0.00653513,0.0298706,699,1352,-16.9405,-10.3856
-518,-328,-16.9435,10.798,0,0,0,0,0,0,0,-1,706,1352,-16.9435,-10.798
-511,-328,-9.39868,7.16113,0,0,0,0,0,0,0,-1,713,1352,-9.39869,-7.16113
-504,-328,-8.60626,-0.905762,0,0,0,0,0,0,0,-1,720,1352,-8.60623,0.905787
-497,-328,-9.29102,-0.0517578,0,0,0,0,0,0,0,-1,727,1352,-9.29104,0.0518175
-490,-328,-10.0663,0.882813,0,0,0,0,0,0,0,-1,734,1352,-10.0663,-0.882795
-483,-328,-10.8181,1.72375,0,0,0,0,0,0,0,-1,741,1352,-10.8181,-1.72374
-476,-328,-16.8951,-0.150757,0,0,0,0,0,0,0,-1,748,1352,-16.8951,0.150795
-469,-328,-16.8412,0.00158691,0,0,0,0,0,0,0,-1,755,1352,-16.8412,-0.00161515
-462,-328,-16.3546,-0.203491,0,0,0,0,0,0,0,-1,762,1352,-16.3545,0.203532
-455,-328,0,0,0,0,0,0,0,0,0,-1,769,1352,0,0
-448,-328,0,0,0,0,0,0,0,0,0,-1,776,1352,0,0
-441,-328,0,0,0,0,0,0,0,0,0,-1,783,1352,0,0
-434,-328,0,0,0,0,0,0,0,0,0,-1,790,1352,0,0
-427,-328,0,0,0,0,0,0,0,0,0,-1,797,1352,0,0
-420,-328,0,0,0,0,0,0,0,0,0,-1,804,1352,0,0
-413,-328,0,0,0,0,0,0,0,0,0,-1,811,1352,0,0
-406,-328,0,0,0,0,0,0,0,0,0,-1,818,1352,0,0
-399,-328,0,0,0,0,0,0,0,0,0,-1,825,1352,0,0
-392,-328,0,0,0,0,0,0,0,0,0,-1,832,1352,0,0
-385,-328,0,0,0,0,0,0,0,0,0,-1,839,1352,0,0
-378,-328,0,0,0,0,0,0,0,0,0,-1,846,1352,0,0
-371,-328,0,0,0,0,0,0,0,0,0,-1,853,1352,0,0
-364,-328,0,0,0,0,0,0,0,0,0,-1,860,1352,0,0
-357,-328,0,0,0,0,0,0,0,0,0,-1,867,1352,0,0
-350,-328,0,0,0,0,0,0,0,0,0,-1,874,1352,0,0
-343,-328,0,0,0,0,0,0,0,0,0,-1,881,1352,0,0
-336,-328,0,0,0,0,0,0,0,0,0,-1,888,1352,0,0
-329,-328,0,0,0,0,0,0,0,0,0,-1,895,1352,0,0
-322,-328,0,0,0,0,0,0,0,0,0,-1,902,1352,0,0
-315,-328,0,0,0,0,0,0,0,0,0,-1,909,1352,0,0
-308,-328,0,0,0,0,0,0,0,0,0,-1,916,1352,0,0
-301,-328,0,0,0,0,0,0,0,0,0,-1,923,1352,0,0
-294,-328,0,0,0,0,0,0,0,0,0,-1,930,1352,0,0
-287,-328,0,0,0,0,0,0,0,0,0,-1,937,1352,0,0
-280,-328,0,0,0,0,0,0,0,0,0,-1,944,1352,0,0
-273,-328,0,0,0,0,0,0,0,0,0,-1,951,1352,0,0
-266,-328,0,0,0,0,0,0,0,0,0,-1,958,1352,0,0
-259,-328,0,0,0,0,0,0,0,0,0,-1,965,1352,0,0
-252,-328,0,0,0,0,0,0,0,0,0,-1,972,1352,0,0
-245,-328,0,0,0,0,0,0,0,0,0,-1,979,1352,0,0
-238,-328,0,0,0,0,0,0,0,0,0,-1,986,1352,0,0
-231,-328,0,0,0,0,0,0,0,0,0,-1,993,1352,0,0
-224,-328,0,0,0,0,0,0,0,0,0,-1,1000,1352,0,0
-217,-328,0,0,0,0,0,0,0,0,0,-1,1007,1352,0,0
-210,-328,0,0,0,0,0,0,0,0,0,-1,1014,1352,0,0
-203,-328,0,0,0,0,0,0,0,0,0,-1,1021,1352,0,0
-196,-328,0,0,0,0,0,0,0,0,0,-1,1028,1352,0,0
-189,-328,0,0,0,0,0,0,0,0,0,-1,1035,1352,0,0
-182,-328,0,0,0,0,0,0,0,0,0,-1,1042,1352,0,0
-175,-328,0,0,0,0,0,0,0,0,0,-1,1049,1352,0,0
-168,-328,0,0,0,0,0,0,0,0,0,-1,1056,1352,0,0
-161,-328,0,0,0,0,0,0,0,0,0,-1,1063,1352,0,0
-154,-328,0,0,0,0,0,0,0,0,0,-1,1070,1352,0,0
-147,-328,0,0,0,0,0,0,0,0,0,-1,1077,1352,0,0
-140,-328,0,0,0,0,0,0,0,0,0,-1,1084,1352,0,0
-133,-328,0,0,0,0,0,0,0,0,0,-1,1091,1352,0,0
-126,-328,0,0,0,0,0,0,0,0,0,-1,1098,1352,0,0
-119,-328,0,0,0,0,0,0,0,0,0,-1,1105,1352,0,0
-112,-328,0,0,0,0,0,0,0,0,0,-1,1112,1352,0,0
-105,-328,0,0,0,0,0,0,0,0,0,-1,1119,1352,0,0
-98,-328,0,0,0,0,0,0,0,0,0,-1,1126,1352,0,0
-91,-328,0,0,0,0,0,0,0,0,0,-1,1133,1352,0,0
-84,-328,0,0,0,0,0,0,0,0,0,-1,1140,1352,0,0
-77,-328,0,0,0,0,0,0,0,0,0,-1,1147,1352,0,0
-70,-328,0,0,0,0,0,0,0,0,0,-1,1154,1352,0,0
-63,-328,0,0,0,0,0,0,0,0,0,-1,1161,1352,0,0
-56,-328,0,0,0,0,0,0,0,0,0,-1,1168,1352,0,0
-49,-328,0,0,0,0,0,0,0,0,0,-1,1175,1352,0,0
-42,-328,0,0,0,0,0,0,0,0,0,-1,1182,1352,0,0
-35,-328,0,0,0,0,0,0,0,0,0,-1,1189,1352,0,0
-28,-328,0,0,0,0,0,0,0,0,0,-1,1196,1352,0,0
-21,-328,0,0,0,0,0,0,0,0,0,-1,1203,1352,0,0
-14,-328,0,0,0,0,0,0,0,0,0,-1,1210,1352,0,0
-7,-328,0,0,0,0,0,0,0,0,0,-1,1217,1352,0,0
0,-328,0,0,0,0,0,0,0,0,0,-1,1224,1352,0,0
7,-328,0,0,0,0,0,0,0,0,0,-1,1231,1352,0,0
14,-328,0,0,0,0,0,0,0,0,0,-1,1238,1352,0,0
21,-328,0,0,0,0,0,0,0,0,0,-1,1245,1352,0,0
28,-328,0,0,0,0,0,0,0,0,0,-1,1252,1352,0,0
35,-328,0,0,0,0,0,0,0,0,0,-1,1259,1352,0,0
42,-328,0,0,0,0,0,0,0,0,0,-1,1266,1352,0,0
49,-328,0,0,0,0,0,0,0,0,0,-1,1273,1352,0,0
56,-328,0,0,0,0,0,0,0,0,0,-1,1280,1352,0,0
63,-328,0,0,0,0,0,0,0,0,0,-1,1287,1352,0,0
70,-328,0,0,0,0,0,0,0,0,0,-1,1294,1352,0,0
77,-328,0,0,0,0,0,0,0,0,0,-1,1301,1352,0,0
84,-328,0,0,0,0,0,0,0,0,0,-1,1308,1352,0,0
91,-328,0,0,0,0,0,0,0,0,0,-1,1315,1352,0,0
98,-328,0,0,0,0,0,0,0,0,0,-1,1322,1352,0,0
105,-328,0,0,0,0,0,0,0,0,0,-1,1329,1352,0,0
112,-328,0,0,0,0,0,0,0,0,0,-1,1336,1352,0,0
119,-328,0,0,0,0,0,0,0,0,0,-1,1343,1352,0,0
126,-328,0,0,0,0,0,0,0,0,0,-1,1350,1352,0,0
133,-328,0,0,0,0,0,0,0,0,0,-1,1357,1352,0,0
140,-328,0,0,0,0,0,0,0,0,0,-1,1364,1352,0,0
147,-328,0,0,0,0,0,0,0,0,0,-1,1371,1352,0,0
154,-328,0,0,0,0,0,0,0,0,0,-1,1378,1352,0,0
161,-328,0,0,0,0,0,0,0,0,0,-1,1385,1352,0,0
168,-328,0,0,0,0,0,0,0,0,0,-1,1392,1352,0,0
175,-328,0,0,0,0,0,0,0,0,0,-1,1399,1352,0,0
182,-328,0,0,0,0,0,0,0,0,0,-1,1406,1352,0,0
189,-328,0,0,0,0,0,0,0,0,0,-1,1413,1352,0,0
196,-328,0,0,0,0,0,0,0,0,0,-1,1420,1352,0,0
203,-328,0,0,0,0,0,0,0,0,0,-1,1427,1352,0,0
210,-328,0,0,0,0,0,0,0,0,0,-1,1434,1352,0,0
217,-328,0,0,0,0,0,0,0,0,0,-1,1441,1352,0,0
224,-328,0,0,0,0,0,0,0,0,0,-1,1448,1352,0,0
231,-328,0,0,0,0,0,0,0,0,0,-1,1455,1352,0,0
238,-328,0,0,0,0,0,0,0,0,0,-1,1462,1352,0,0
245,-328,0,0,0,0,0,0,0,0,0,-1,1469,1352,0,0
252,-328,0,0,0,0,0,0,0,0,0,-1,1476,1352,0,0
259,-328,0,0,0,0,0,0,0,0,0,-1,1483,1352,0,0
266,-328,0,0,0,0,0,0,0,0,0,-1,1490,1352,0,0
273,-328,0,0,0,0,0,0,0,0,0,-1,1497,1352,0,0
280,-328,0,0,0,0,0,0,0,0,0,-1,1504,1352,0,0
287,-328,0,0,0,0,0,0,0,0,0,-1,1511,1352,0,0
294,-328,0,0,0,0,0,0,0,0,0,-1,1518,1352,0,0
301,-328,0,0,0,0,0,0,0,0,0,-1,1525,1352,0,0
308,-328,0,0,0,0,0,0,0,0,0,-1,1532,1352,0,0
315,-328,0,0,0,0,0,0,0,0,0,-1,1539,1352,0,0
322,-328,0,0,0,0,0,0,0,0,0,-1,1546,1352,0,0
329,-328,0,0,0,0,0,0,0,0,0,-1,1553,1352,0,0
336,-328,0,0,0,0,0,0,0,0,0,-1,1560,1352,0,0
343,-328,0,0,0,0,0,0,0,0,0,-1,1567,1352,0,0
350,-328,0,0,0,0,0,0,0,0,0,-1,1574,1352,0,0
357,-328,0,0,0,0,0,0,0,0,0,-1,1581,1352,0,0
364,-328,0,0,0,0,0,0,0,0,0,-1,1588,1352,0,0
371,-328,0,0,0,0,0,0,0,0,0,-1,1595,1352,0,0
378,-328,0,0,0,0,0,0,0,0,0,-1,1602,1352,0,0
385,-328,0,0,0,0,0,0,0,0,0,-1,1609,1352,0,0
392,-328,0,0,0,0,0,0,0,0,0,-1,1616,1352,0,0
399,-328,0,0,0,0,0,0,0,0,0,-1,1623,1352,0,0
406,-328,0,0,0,0,0,0,0,0,0,-1,1630,1352,0,0
413,-328,0,0,0,0,0,0,0,0,0,-1,1637,1352,0,0
420,-328,0,0,0,0,0,0,0,0,0,-1,1644,1352,0,0
427,-328,0,0,0,0,0,0,0,0,0,-1,1651,1352,0,0
434,-328,0,0,0,0,0,0,0,0,0,-1,1658,1352,0,0
441,-328,0,0,0,0,0,0,0,0,0,-1,1665,1352,0,0
448,-328,0,0,0,0,0,0,0,0,0,-1,1672,1352,0,0
455,-328,0,0,0,0,0,0,0,0,0,-1,1679,1352,0,0
462,-328,0,0,0,0,0,0,0,0,0,-1,1686,1352,0,0
469,-328,0,0,0,0,0,0,0,0,0,-1,1693,1352,0,0
476,-328,0,0,0,0,0,0,0,0,0,-1,1700,1352,0,0
483,-328,0,0,0,0,0,0,0,0,0,-1,1707,1352,0,0
490,-328,0,0,0,0,0,0,0,0,0,-1,1714,1352,0,0
497,-328,0,0,0,0,0,0,0,0,0,-1,1721,1352,0,0
504,-328,0,0,0,0,0,0,0,0,0,-1,1728,1352,0,0
511,-328,0,0,0,0,0,0,0,0,0,-1,1735,1352,0,0
518,-328,0,0,0,0,0,0,0,0,0,-1,1742,1352,0,0
525,-328,0,0,0,0,0,0,0,0,0,-1,1749,1352,0,0
532,-328,0,0,0,0,0,0,0,0,0,-1,1756,1352,0,0
539,-328,0,0,0,0,0,0,0,0,0,-1,1763,1352,0,0
546,-328,0,0,0,0,0,0,0,0,0,-1,1770,1352,0,0
553,-328,0,0,0,0,0,0,0,0,0,-1,1777,1352,0,0
560,-328,0,0,0,0,0,0,0,0,0,-1,1784,1352,0,0
567,-328,0,0,0,0,0,0,0,0,0,-1,1791,1352,0,0
574,-328,44.8926,5.11475,0,0,0,0,0,0,0,-1,1798,1352,44.8926,-5.11469
581,-328,45.0055,5.88647,0,0,0,0,0,0,0,-1,1805,1352,45.0055,-5.88644
588,-328,45.2971,6.46729,0,0,0,0,0,0,0,-1,1812,1352,45.2971,-6.46723
595,-328,46.5374,4.38489,0,0,0,0,0,0,0,-1,1819,1352,46.5374,-4.3849
602,-328,47.1033,5.10815,0,0,0,0,0,0,0,-1,1826,1352,47.1032,-5.10816
609,-328,37.0468,1.17407,0,0,0,0,0,0,0,-1,1833,1352,37.0468,-1.17407
616,-328,36.999,2.42859,0,0,0,0,0,0,0,-1,1840,1352,36.999,-2.42862
623,-328,34.345,5.14722,0,0,0,0,0,0,0,-1,1847,1352,34.3449,-5.14718
630,-328,22.0211,5.026,0,0,0,0,0,0,0,-1,1854,1352,22.0212,-5.02603
637,-328,21.15,5.53699,0,0,0,0,0,0,0,-1,1861,1352,21.15,-5.53704
644,-328,16.9579,6.3396,0,0,0,0,0,0,0,-1,1868,1352,16.9579,-6.33959
651,-328,30.9951,12.6904,0,0,0,0,0,0,0,-1,1875,1352,30.9951,-12.6904
658,-328,30.7831,12.236,-0.000804065,0.00159268,0.00405954,0.00462703,-0.00383842,0.928921,0.00489459,0.042918,1882,1352,30.783,-12.2359
665,-328,30.7924,11.7402,-1.17225e-05,0.000239744,0.00286728,0.00298405,-0.00275603,0.80731,0.00331491,0.0149679,1889,1352,30.7924,-11.7403
672,-328,30.7858,11.2775,0.0004809,-0.000403611,0.00158748,0.00168658,-0.00160929,0.649548,0.00190304,0.0116613,1896,1352,30.7857,-11.2774
679,-328,30.7946,10.7943,0.000669698,-0.000629079,0.000599265,0.000903952,-0.000863333,0.372639,0.00102043,0.0138705,1903,1352,30.7945,-10.7943
686,-328,30.7546,10.3107,0.000785442,-0.000572293,8.77958e-05,0.000791096,-0.000577947,0.0643065,0.000793604,0.0146853,1910,1352,30.7547,-10.3106
693,-328,30.7354,9.83997,0.000928639,-0.000542277,0.000181993,0.000950822,-0.00056446,0.121291,0.000884277,0.0102912,1917,1352,30.7353,-9.83995
700,-328,30.73,9.35132,0.000987773,-0.000547561,0.000351658,0.00106449,-0.000624273,0.214779,0.000985985,0.0141124,1924,1352,30.73,-9.3513
707,-328,30.7422,8.88306,0.000887983,-0.000600298,0.000615637,0.00110963,-0.000821949,0.345587,0.00111932,0.0160892,1931,1352,30.7422,-8.88306
714,-328,30.7164,8.40918,0.000593781,-0.000803135,0.00104126,0.00114914,-0.0013585,0.489975,0.00144947,0.0171049,1938,1352,30.7164,-8.40913
721,-328,30.6854,7.96692,0,0,0,0,0,0,0,-1,1945,1352,30.6854,-7.9669
728,-328,29.2787,6.74695,0,0,0,0,0,0,0,-1,1952,1352,29.2787,-6.74693
735,-328,20.8927,5.23523,0,0,0,0,0,0,0,-1,1959,1352,20.8927,-5.23528
742,-328,20.3547,4.11316,0,0,0,0,0,0,0,-1,1966,1352,20.3547,-4.11321
749,-328,20.0669,5.66321,0,0,0,0,0,0,0,-1,1973,1352,20.0669,-5.66319
756,-328,19.9543,5.50464,0,0,0,0,0,0,0,-1,1980,1352,19.9543,-5.50463
763,-328,0,0,0,0,0,0,0,0,0,-1,1987,1352,0,0
770,-328,0,0,0,0,0,0,0,0,0,-1,1994,1352,0,0
777,-328,0,0,0,0,0,0,0,0,0,-1,2001,1352,0,0
784,-328,0,0,0,0,0,0,0,0,0,-1,2008,1352,0,0
791,-328,0,0,0,0,0,0,0,0,0,-1,2015,1352,0,0
798,-328,0,0,0,0,0,0,0,0,0,-1,2022,1352,0,0
805,-328,0,0,0,0,0,0,0,0,0,-1,2029,1352,0,0
812,-328,0,0,0,0,0,0,0,0,0,-1,2036,1352,0,0
-700,-335,0,0,0,0,0,0,0,0,0,-1,524,1359,0,0
-693,-335,0,0,0,0,0,0,0,0,0,-1,531,1359,0,0
-686,-335,0,0,0,0,0,0,0,0,0,-1,538,1359,0,0
-679,-335,0,0,0,0,0,0,0,0,0,-1,545,1359,0,0
-672,-335,0,0,0,0,0,0,0,0,0,-1,552,1359,0,0
-665,-335,0,0,0,0,0,0,0,0,0,-1,559,1359,0,0
-658,-335,0,0,0,0,0,0,0,0,0,-1,566,1359,0,0
-651,-335,0,0,0,0,0,0,0,0,0,-1,573,1359,0,0
-644,-335,0,0,0,0,0,0,0,0,0,-1,580,1359,0,0
-637,-335,-9.64746,3.53809,0,0,0,0,0,0,0,-1,587,1359,-9.64744,-3.53803
-630,-335,-6.07397,-2.99902,0,0,0,0,0,0,0,-1,594,1359,-6.07397,2.99902
-623,-335,-8.43304,1.09509,0,0,0,0,0,0,0,-1,601,1359,-8.43301,-1.09507
-616,-335,-7.80927,-0.485352,0,0,0,0,0,0,0,-1,608,1359,-7.80926,0.485291
-609,-335,-7.12256,-2.03601,0,0,0,0,0,0,0,-1,615,1359,-7.12253,2.03601
-602,-335,-9.39935,2.25146,0,0,0,0,0,0,0,-1,622,1359,-9.39935,-2.25145
-595,-335,-9.54767,3.01917,0,0,0,0,0,0,0,-1,629,1359,-9.54768,-3.01911
-588,-335,-16.5167,5.39124,0,0,0,0,0,0,0,-1,636,1359,-16.5167,-5.39122
-581,-335,-16.3475,6.19592,0.00477106,0.0025401,0.0022314,0.00615026,0.00116089,0.553614,0.00377321,0.0411015,643,1359,-16.3475,-6.19591
-574,-335,-16.3539,6.66418,0.0036345,0.00180881,0.00161794,0.00457935,0.000863957,0.528558,0.00280955,0.0143983,650,1359,-16.354,-6.6642
-567,-335,-16.3536,7.2384,0.0029495,0.0013193,0.00122612,0.00360674,0.000662068,0.492051,0.002217,0.0185397,657,1359,-16.3536,-7.23836
-560,-335,-16.3429,7.73267,0.00275225,0.000881986,0.00105353,0.00322581,0.00040843,0.422432,0.00202815,0.0265332,664,1359,-16.3429,-7.73261
-553,-335,-16.4059,8.27649,0.00291803,0.000530193,0.00106418,0.00332346,0.000124763,0.364003,0.00217524,0.0298139,671,1359,-16.4059,-8.27647
-546,-335,-16.4473,8.79907,0.00344323,0.000224829,0.00122573,0.00385688,-0.000188826,0.325474,0.00263645,0.0273443,678,1359,-16.4473,-8.79909
-539,-335,-16.4575,9.30042,0.00430723,-3.29106e-06,0.00154883,0.00480602,-0.000502087,0.311559,0.00338382,0.0220207,685,1359,-16.4575,-9.3004
-532,-335,-16.4713,9.86047,0.00565007,-0.00017082,0.00209208,0.00632396,-0.000844712,0.311622,0.00452391,0.0169548,692,1359,-16.4713,-9.86048
-525,-335,-16.4181,10.4006,0.00748639,-0.000360126,0.00280623,0.0083867,-0.00126044,0.310454,0.00605517,0.012695,699,1359,-16.4181,-10.4006
-518,-335,-16.3237,10.8457,0.00994904,-0.000366597,0.0037932,0.0111937,-0.00161123,0.317054,0.00805344,0.0468445,706,1359,-16.3237,-10.8457
-511,-335,-16.1808,11.2477,0,0,0,0,0,0,0,-1,713,1359,-16.1809,-11.2476
-504,-335,-9.35767,5.99695,0,0,0,0,0,0,0,-1,720,1359,-9.35767,-5.99694
-497,-335,-8.75024,-0.650513,0,0,0,0,0,0,0,-1,727,1359,-8.75024,0.650521
-490,-335,-9.51971,0.417603,0,0,0,0,0,0,0,-1,734,1359,-9.51974,-0.41765
-483,-335,-10.2883,1.29224,0,0,0,0,0,0,0,-1,741,1359,-10.2883,-1.2922
-476,-335,-11.9938,-0.173462,0,0,0,0,0,0,0,-1,748,1359,-11.9938,0.173429
-469,-335,-12.8704,-0.204102,0,0,0,0,0,0,0,-1,755,1359,-12.8704,0.204117
-462,-335,-13.486,0.0218506,0,0,0,0,0,0,0,-1,762,1359,-13.4859,-0.0217908
-455,-335,-14.1504,0.549561,0,0,0,0,0,0,0,-1,769,1359,-14.1504,-0.549583
-448,-335,0,0,0,0,0,0,0,0,0,-1,776,1359,0,0
-441,-335,0,0,0,0,0,0,0,0,0,-1,783,1359,0,0
-434,-335,0,0,0,0,0,0,0,0,0,-1,790,1359,0,0
-427,-335,0,0,0,0,0,0,0,0,0,-1,797,1359,0,0
-420,-335,0,0,0,0,0,0,0,0,0,-1,804,1359,0,0
-413,-335,0,0,0,0,0,0,0,0,0,-1,811,1359,0,0
-406,-335,0,0,0,0,0,0,0,0,0,-1,818,1359,0,0
-399,-335,0,0,0,0,0,0,0,0,0,-1,825,1359,0,0
-392,-335,0,0,0,0,0,0,0,0,0,-1,832,1359,0,0
-385,-335,0,0,0,0,0,0,0,0,0,-1,839,1359,0,0
-378,-335,0,0,0,0,0,0,0,0,0,-1,846,1359,0,0
-371,-335,0,0,0,0,0,0,0,0,0,-1,853,1359,0,0
-364,-335,0,0,0,0,0,0,0,0,0,-1,860,1359,0,0
-357,-335,0,0,0,0,0,0,0,0,0,-1,867,1359,0,0
-350,-335,0,0,0,0,0,0,0,0,0,-1,874,1359,0,0
-343,-335,0,0,0,0,0,0,0,0,0,-1,881,1359,0,0
-336,-335,0,0,0,0,0,0,0,0,0,-1,888,1359,0,0
-329,-335,0,0,0,0,0,0,0,0,0,-1,895,1359,0,0
-322,-335,0,0,0,0,0,0,0,0,0,-1,902,1359,0,0
-315,-335,0,0,0,0,0,0,0,0,0,-1,909,1359,0,0
-308,-335,0,0,0,0,0,0,0,0,0,-1,916,1359,0,0
-301,-335,0,0,0,0,0,0,0,0,0,-1,923,1359,0,0
-294,-335,0,0,0,0,0,0,0,0,0,-1,930,1359,0,0
-287,-335,0,0,0,0,0,0,0,0,0,-1,937,1359,0,0
-280,-335,0,0,0,0,0,0,0,0,0,-1,944,1359,0,0
-273,-335,0,0,0,0,0,0,0,0,0,-1,951,1359,0,0
-266,-335,0,0,0,0,0,0,0,0,0,-1,958,1359,0,0
-259,-335,0,0,0,0,0,0,0,0,0,-1,965,1359,0,0
-252,-335,0,0,0,0,0,0,0,0,0,-1,972,1359,0,0
-245,-335,0,0,0,0,0,0,0,0,0,-1,979,1359,0,0
-238,-335,0,0,0,0,0,0,0,0,0,-1,986,1359,0,0
-231,-335,0,0,0,0,0,0,0,0,0,-1,993,1359,0,0
-224,-335,0,0,0,0,0,0,0,0,0,-1,1000,1359,0,0
-217,-335,0,0,0,0,0,0,0,0,0,-1,1007,1359,0,0
-210,-335,0,0,0,0,0,0,0,0,0,-1,1014,1359,0,0
-203,-335,0,0,0,0,0,0,0,0,0,-1,1021,1359,0,0
-196,-335,0,0,0,0,0,0,0,0,0,-1,1028,1359,0,0
-189,-335,0,0,0,0,0,0,0,0,0,-1,1035,1359,0,0
-182,-335,0,0,0,0,0,0,0,0,0,-1,1042,1359,0,0
-175,-335,0,0,0,0,0,0,0,0,0,-1,1049,1359,0,0
-168,-335,0,0,0,0,0,0,0,0,0,-1,1056,1359,0,0
-161,-335,0,0,0,0,0,0,0,0,0,-1,1063,1359,0,0
-154,-335,0,0,0,0,0,0,0,0,0,-1,1070,1359,0,0
-147,-335,0,0,0,0,0,0,0,0,0,-1,1077,1359,0,0
-140,-335,0,0,0,0,0,0,0,0,0,-1,1084,1359,0,0
-133,-335,0,0,0,0,0,0,0,0,0,-1,1091,1359,0,0
-126,-335,0,0,0,0,0,0,0,0,0,-1,1098,1359,0,0
-119,-335,0,0,0,0,0,0,0,0,0,-1,1105,1359,0,0
-112,-335,0,0,0,0,0,0,0,0,0,-1,1112,1359,0,0
-105,-335,0,0,0,0,0,0,0,0,0,-1,1119,1359,0,0
-98,-335,0,0,0,0,0,0,0,0,0,-1,1126,1359,0,0
-91,-335,0,0,0,0,0,0,0,0,0,-1,1133,1359,0,0
-84,-335,0,0,0,0,0,0,0,0,0,-1,1140,1359,0,0
-77,-335,0,0,0,0,0,0,0,0,0,-1,1147,1359,0,0
-70,-335,0,0,0,0,0,0,0,0,0,-1,1154,1359,0,0
-63,-335,0,0,0,0,0,0,0,0,0,-1,1161,1359,0,0
-56,-335,0,0,0,0,0,0,0,0,0,-1,1168,1359,0,0
-49,-335,0,0,0,0,0,0,0,0,0,-1,1175,1359,0,0
-42,-335,0,0,0,0,0,0,0,0,0,-1,1182,1359,0,0
-35,-335,0,0,0,0,0,0,0,0,0,-1,1189,1359,0,0
-28,-335,0,0,0,0,0,0,0,0,0,-1,1196,1359,0,0
-21,-335,0,0,0,0,0,0,0,0,0,-1,1203,1359,0,0
-14,-335,0,0,0,0,0,0,0,0,0,-1,1210,1359,0,0
-7,-335,0,0,0,0,0,0,0,0,0,-1,1217,1359,0,0
0,-335,0,0,0,0,0,0,0,0,0,-1,1224,1359,0,0
7,-335,0,0,0,0,0,0,0,0,0,-1,1231,1359,0,0
14,-335,0,0,0,0,0,0,0,0,0,-1,1238,1359,0,0
21,-335,0,0,0,0,0,0,0,0,0,-1,1245,1359,0,0
28,-335,0,0,0,0,0,0,0,0,0,-1,1252,1359,0,0
35,-335,0,0,0,0,0,0,0,0,0,-1,1259,1359,0,0
42,-335,0,0,0,0,0,0,0,0,0,-1,1266,1359,0,0
49,-335,0,0,0,0,0,0,0,0,0,-1,1273,1359,0,0
56,-335,0,0,0,0,0,0,0,0,0,-1,1280,1359,0,0
63,-335,0,0,0,0,0,0,0,0,0,-1,1287,1359,0,0
70,-335,0,0,0,0,0,0,0,0,0,-1,1294,1359,0,0
77,-335,0,0,0,0,0,0,0,0,0,-1,1301,1359,0,0
84,-335,0,0,0,0,0,0,0,0,0,-1,1308,1359,0,0
91,-335,0,0,0,0,0,0,0,0,0,-1,1315,1359,0,0
98,-335,0,0,0,0,0,0,0,0,0,-1,1322,1359,0,0
105,-335,0,0,0,0,0,0,0,0,0,-1,1329,1359,0,0
112,-335,0,0,0,0,0,0,0,0,0,-1,1336,1359,0,0
119,-335,0,0,0,0,0,0,0,0,0,-1,1343,1359,0,0
126,-335,0,0,0,0,0,0,0,0,0,-1,1350,1359,0,0
133,-335,0,0,0,0,0,0,0,0,0,-1,1357,1359,0,0
140,-335,0,0,0,0,0,0,0,0,0,-1,1364,1359,0,0
147,-335,0,0,0,0,0,0,0,0,0,-1,1371,1359,0,0
154,-335,0,0,0,0,0,0,0,0,0,-1,1378,1359,0,0
161,-335,0,0,0,0,0,0,0,0,0,-1,1385,1359,0,0
168,-335,0,0,0,0,0,0,0,0,0,-1,1392,1359,0,0
175,-335,0,0,0,0,0,0,0,0,0,-1,1399,1359,0,0
182,-335,0,0,0,0,0,0,0,0,0,-1,1406,1359,0,0
189,-335,0,0,0,0,0,0,0,0,0,-1,1413,1359,0,0
196,-335,0,0,0,0,0,0,0,0,0,-1,1420,1359,0,0
203,-335,0,0,0,0,0,0,0,0,0,-1,1427,1359,0,0
210,-335,0,0,0,0,0,0,0,0,0,-1,1434,1359,0,0
217,-335,0,0,0,0,0,0,0,0,0,-1,1441,1359,0,0
224,-335,0,0,0,0,0,0,0,0,0,-1,1448,1359,0,0
231,-335,0,0,0,0,0,0,0,0,0,-1,1455,1359,0,0
238,-335,0,0,0,0,0,0,0,0,0,-1,1462,1359,0,0
245,-335,0,0,0,0,0,0,0,0,0,-1,1469,1359,0,0
252,-335,0,0,0,0,0,0,0,0,0,-1,1476,1359,0,0
259,-335,0,0,0,0,0,0,0,0,0,-1,1483,1359,0,0
266,-335,0,0,0,0,0,0,0,0,0,-1,1490,1359,0,0
273,-335,0,0,0,0,0,0,0,0,0,-1,1497,1359,0,0
280,-335,0,0,0,0,0,0,0,0,0,-1,1504,1359,0,0
287,-335,0,0,0,0,0,0,0,0,0,-1,1511,1359,0,0
294,-335,0,0,0,0,0,0,0,0,0,-1,1518,1359,0,0
301,-335,0,0,0,0,0,0,0,0,0,-1,1525,1359,0,0
308,-335,0,0,0,0,0,0,0,0,0,-1,1532,1359,0,0
315,-335,0,0,0,0,0,0,0,0,0,-1,1539,1359,0,0
322,-335,0,0,0,0,0,0,0,0,0,-1,1546,1359,0,0
329,-335,0,0,0,0,0,0,0,0,0,-1,1553,1359,0,0
336,-335,0,0,0,0,0,0,0,0,0,-1,1560,1359,0,0
343,-335,0,0,0,0,0,0,0,0,0,-1,1567,1359,0,0
350,-335,0,0,0,0,0,0,0,0,0,-1,1574,1359,0,0
357,-335,0,0,0,0,0,0,0,0,0,-1,1581,1359,0,0
364,-335,0,0,0,0,0,0,0,0,0,-1,1588,1359,0,0
371,-335,0,0,0,0,0,0,0,0,0,-1,1595,1359,0,0
378,-335,0,0,0,0,0,0,0,0,0,-1,1602,1359,0,0
385,-335,0,0,0,0,0,0,0,0,0,-1,1609,1359,0,0
392,-335,0,0,0,0,0,0,0,0,0,-1,1616,1359,0,0
399,-335,0,0,0,0,0,0,0,0,0,-1,1623,1359,0,0
406,-335,0,0,0,0,0,0,0,0,0,-1,1630,1359,0,0
413,-335,0,0,0,0,0,0,0,0,0,-1,1637,1359,0,0
420,-335,0,0,0,0,0,0,0,0,0,-1,1644,1359,0,0
427,-335,0,0,0,0,0,0,0,0,0,-1,1651,1359,0,0
434,-335,0,0,0,0,0,0,0,0,0,-1,1658,1359,0,0
441,-335,0,0,0,0,0,0,0,0,0,-1,1665,1359,0,0
448,-335,0,0,0,0,0,0,0,0,0,-1,1672,1359,0,0
455,-335,0,0,0,0,0,0,0,0,0,-1,1679,1359,0,0
462,-335,0,0,0,0,0,0,0,0,0,-1,1686,1359,0,0
469,-335,0,0,0,0,0,0,0,0,0,-1,1693,1359,0,0
476,-335,0,0,0,0,0,0,0,0,0,-1,1700,1359,0,0
483,-335,0,0,0,0,0,0,0,0,0,-1,1707,1359,0,0
490,-335,0,0,0,0,0,0,0,0,0,-1,1714,1359,0,0
497,-335,0,0,0,0,0,0,0,0,0,-1,1721,1359,0,0
504,-335,0,0,0,0,0,0,0,0,0,-1,1728,1359,0,0
511,-335,0,0,0,0,0,0,0,0,0,-1,1735,1359,0,0
518,-335,0,0,0,0,0,0,0,0,0,-1,1742,1359,0,0
525,-335,0,0,0,0,0,0,0,0,0,-1,1749,1359,0,0
532,-335,0,0,0,0,0,0,0,0,0,-1,1756,1359,0,0
539,-335,0,0,0,0,0,0,0,0,0,-1,1763,1359,0,0
546,-335,0,0,0,0,0,0,0,0,0,-1,1770,1359,0,0
553,-335,0,0,0,0,0,0,0,0,0,-1,1777,1359,0,0
560,-335,0,0,0,0,0,0,0,0,0,-1,1784,1359,0,0
567,-335,0,0,0,0,0,0,0,0,0,-1,1791,1359,0,0
574,-335,44.5405,5.74219,0,0,0,0,0,0,0,-1,1798,1359,44.5406,-5.74224
581,-335,44.1571,6.41992,0,0,0,0,0,0,0,-1,1805,1359,44.1571,-6.41989
588,-335,44.5253,7.03552,0,0,0,0,0,0,0,-1,1812,1359,44.5252,-7.03551
595,-335,44.9108,7.65088,0,0,0,0,0,0,0,-1,1819,1359,44.9108,-7.65084
602,-335,36.5643,0.0861816,0,0,0,0,0,0,0,-1,1826,1359,36.5643,-0.0862283
609,-335,36.2933,0.993896,0,0,0,0,0,0,0,-1,1833,1359,36.2934,-0.993911
616,-335,34.6969,4.82666,0,0,0,0,0,0,0,-1,1840,1359,34.6969,-4.82667
623,-335,26.6051,6.54333,0,0,0,0,0,0,0,-1,1847,1359,26.6051,-6.54339
630,-335,19.1707,1.00952,0,0,0,0,0,0,0,-1,1854,1359,19.1707,-1.00953
637,-335,18.2009,6.65454,0,0,0,0,0,0,0,-1,1861,1359,18.2009,-6.6546
644,-335,28.1042,12.067,0,0,0,0,0,0,0,-1,1868,1359,28.1042,-12.067
651,-335,30.2119,12.8929,0,0,0,0,0,0,0,-1,1875,1359,30.2119,-12.893
658,-335,30.2799,12.3044,-0.00100265,0.000812185,0.0017204,0.00184981,-0.00204027,1.02808,0.00224684,0.0272402,1882,1359,30.28,-12.3044
665,-335,30.3159,11.7667,-0.000174216,5.76196e-06,0.00111714,0.00103654,-0.00120499,0.825588,0.00129536,0.0151086,1889,1359,30.3159,-11.7667
672,-335,30.2919,11.2814,0.000384169,-0.000322747,0.000544774,0.000680104,-0.000618682,0.497627,0.000750134,0.0165098,1896,1359,30.2919,-11.2814
679,-335,30.2882,10.8298,0.000771109,-0.000459903,0.000162724,0.000792256,-0.000481049,0.129231,0.000742426,0.0146044,1903,1359,30.2883,-10.8298
686,-335,30.2953,10.335,0.00107605,-0.00049248,2.00381e-05,0.00107631,-0.000492736,0.0127723,0.000926537,0.0130894,1910,1359,30.2953,-10.335
693,-335,30.2643,9.8446,0.00134361,-0.000507168,7.93927e-05,0.001347,-0.000510568,0.0427923,0.00110812,0.0111599,1917,1359,30.2643,-9.84458
700,-335,30.2275,9.37573,0.00154386,-0.00052739,0.000187005,0.0015606,-0.000544139,0.0893239,0.00126153,0.0114773,1924,1359,30.2276,-9.37571
707,-335,30.2299,8.90991,0.00157376,-0.000555118,0.000361087,0.00163334,-0.000614696,0.163523,0.00134158,0.0144624,1931,1359,30.2298,-8.90994
714,-335,30.245,8.33032,0.00143941,-0.000738139,0.000695398,0.00164253,-0.000941266,0.284195,0.00150996,0.0343564,1938,1359,30.245,-8.33028
721,-335,30.1879,7.63818,0,0,0,0,0,0,0,-1,1945,1359,30.1879,-7.63813
728,-335,20.8126,5.21167,0,0,0,0,0,0,0,-1,1952,1359,20.8127,-5.21172
735,-335,20.2725,5.34729,0,0,0,0,0,0,0,-1,1959,1359,20.2724,-5.34734
742,-335,19.8624,4.72229,0,0,0,0,0,0,0,-1,1966,1359,19.8624,-4.72225
749,-335,20.5887,6.05322,0,0,0,0,0,0,0,-1,1973,1359,20.5887,-6.05322
756,-335,20.7832,6.00452,0,0,0,0,0,0,0,-1,1980,1359,20.7832,-6.00447
763,-335,0,0,0,0,0,0,0,0,0,-1,1987,1359,0,0
770,-335,0,0,0,0,0,0,0,0,0,-1,1994,1359,0,0
777,-335,0,0,0,0,0,0,0,0,0,-1,2001,1359,0,0
784,-335,0,0,0,0,0,0,0,0,0,-1,2008,1359,0,0
791,-335,0,0,0,0,0,0,0,0,0,-1,2015,1359,0,0
798,-335,0,0,0,0,0,0,0,0,0,-1,2022,1359,0,0
805,-335,0,0,0,0,0,0,0,0,0,-1,2029,1359,0,0
812,-335,0,0,0,0,0,0,0,0,0,-1,2036,1359,0,0
-700,-342,0,0,0,0,0,0,0,0,0,-1,524,1366,0,0
-693,-342,0,0,0,0,0,0,0,0,0,-1,531,1366,0,0
-686,-342,0,0,0,0,0,0,0,0,0,-1,538,1366,0,0
-679,-342,0,0,0,0,0,0,0,0,0,-1,545,1366,0,0
-672,-342,0,0,0,0,0,0,0,0,0,-1,552,1366,0,0
-665,-342,0,0,0,0,0,0,0,0,0,-1,559,1366,0,0
-658,-342,0,0,0,0,0,0,0,0,0,-1,566,1366,0,0
-651,-342,0,0,0,0,0,0,0,0,0,-1,573,1366,0,0
-644,-342,0,0,0,0,0,0,0,0,0,-1,580,1366,0,0
-637,-342,-8.67786,-4.58557,0,0,0,0,0,0,0,-1,587,1366,-8.67788,4.5856
-630,-342,-8.60132,2.71777,0,0,0,0,0,0,0,-1,594,1366,-8.60135,-2.71779
-623,-342,-8.41168,0.662476,0,0,0,0,0,0,0,-1,601,1366,-8.41168,-0.662442
-616,-342,-6.625,-1.28015,0,0,0,0,0,0,0,-1,608,1366,-6.62499,1.28011
-609,-342,-7.83154,0.674561,0,0,0,0,0,0,0,-1,615,1366,-7.83155,-0.674598
-602,-342,-9.65765,2.25195,0,0,0,0,0,0,0,-1,622,1366,-9.65767,-2.25192
-595,-342,-9.47687,3.00671,0,0,0,0,0,0,0,-1,629,1366,-9.47686,-3.00668
-588,-342,-9.78467,3.57727,0,0,0,0,0,0,0,-1,636,1366,-9.78468,-3.57723
-581,-342,-15.9745,6.19971,0,0,0,0,0,0,0,-1,643,1366,-15.9745,-6.1997
-574,-342,-15.8799,6.69495,0.00391047,0.0017398,0.00159984,0.00475838,0.00089189,0.487358,0.00292071,0.0153917,650,1366,-15.8799,-6.69491
-567,-342,-15.7911,7.23743,0.00303554,0.00131955,0.00120179,0.00365418,0.000700907,0.475392,0.00223935,0.0186231,657,1366,-15.7911,-7.23747
-560,-342,-15.8409,7.72766,0.00272611,0.000895536,0.00100758,0.00317206,0.000449582,0.416681,0.00198192,0.0265952,664,1366,-15.8409,-7.72765
-553,-342,-15.9045,8.25549,0.0028321,0.000573862,0.0010302,0.00323145,0.00017451,0.36981,0.00209855,0.0289449,671,1366,-15.9045,-8.25546
-546,-342,-15.9147,8.79016,0.00328734,0.00030703,0.00119951,0.00371013,-0.000115766,0.338878,0.0025129,0.0287945,678,1366,-15.9147,-8.79016
-539,-342,-15.92,9.33826,0.00405868,0.000107976,0.00151702,0.00457398,-0.000407328,0.327453,0.00319377,0.0242334,685,1366,-15.92,-9.33826
-532,-342,-15.9541,9.89905,0.00523174,-3.50095e-05,0.00202594,0.00592088,-0.000724147,0.327879,0.00420945,0.0188675,692,1366,-15.9541,-9.89909
-525,-342,-15.9131,10.4293,0.00683332,-0.000147478,0.00270919,0.00776136,-0.00107552,0.330024,0.00556748,0.0128784,699,1366,-15.9131,-10.4293
-518,-342,-15.8376,10.9689,0.00894072,-8.24795e-05,0.00363019,0.0102199,-0.00136164,0.338781,0.00730952,0.0305081,706,1366,-15.8376,-10.9689
-511,-342,-15.8375,11.5138,0,0,0,0,0,0,0,-1,713,1366,-15.8374,-11.5139
-504,-342,-8.95709,6.5719,0,0,0,0,0,0,0,-1,720,1366,-8.95707,-6.57192
-497,-342,-8.26587,-0.943604,0,0,0,0,0,0,0,-1,727,1366,-8.26586,0.943543
-490,-342,-9.07153,-0.0227051,0,0,0,0,0,0,0,-1,734,1366,-9.07155,0.0227087
-483,-342,-9.87726,0.898071,0,0,0,0,0,0,0,-1,741,1366,-9.87724,-0.898125
-476,-342,-11.6371,-0.736328,0,0,0,0,0,0,0,-1,748,1366,-11.6371,0.736281
-469,-342,-12.6245,-0.987549,0,0,0,0,0,0,0,-1,755,1366,-12.6245,0.987553
-462,-342,-13.0912,-0.533203,0,0,0,0,0,0,0,-1,762,1366,-13.0912,0.533224
-455,-342,-13.7612,0.122925,0,0,0,0,0,0,0,-1,769,1366,-13.7612,-0.122896
-448,-342,-14.5278,0.826904,0,0,0,0,0,0,0,-1,776,1366,-14.5277,-0.826861
-441,-342,0,0,0,0,0,0,0,0,0,-1,783,1366,0,0
-434,-342,0,0,0,0,0,0,0,0,0,-1,790,1366,0,0
-427,-342,0,0,0,0,0,0,0,0,0,-1,797,1366,0,0
-420,-342,0,0,0,0,0,0,0,0,0,-1,804,1366,0,0
-413,-342,0,0,0,0,0,0,0,0,0,-1,811,1366,0,0
-406,-342,0,0,0,0,0,0,0,0,0,-1,818,1366,0,0
-399,-342,0,0,0,0,0,0,0,0,0,-1,825,1366,0,0
-392,-342,0,0,0,0,0,0,0,0,0,-1,832,1366,0,0
-385,-342,0,0,0,0,0,0,0,0,0,-1,839,1366,0,0
-378,-342,0,0,0,0,0,0,0,0,0,-1,846,1366,0,0
-371,-342,0,0,0,0,0,0,0,0,0,-1,853,1366,0,0
-364,-342,0,0,0,0,0,0,0,0,0,-1,860,1366,0,0
-357,-342,0,0,0,0,0,0,0,0,0,-1,867,1366,0,0
-350,-342,0,0,0,0,0,0,0,0,0,-1,874,1366,0,0
-343,-342,0,0,0,0,0,0,0,0,0,-1,881,1366,0,0
-336,-342,0,0,0,0,0,0,0,0,0,-1,888,1366,0,0
-329,-342,0,0,0,0,0,0,0,0,0,-1,895,1366,0,0
-322,-342,0,0,0,0,0,0,0,0,0,-1,902,1366,0,0
-315,-342,0,0,0,0,0,0,0,0,0,-1,909,1366,0,0
-308,-342,0,0,0,0,0,0,0,0,0,-1,916,1366,0,0
-301,-342,0,0,0,0,0,0,0,0,0,-1,923,1366,0,0
-294,-342,0,0,0,0,0,0,0,0,0,-1,930,1366,0,0
-287,-342,0,0,0,0,0,0,0,0,0,-1,937,1366,0,0
-280,-342,0,0,0,0,0,0,0,0,0,-1,944,1366,0,0
-273,-342,0,0,0,0,0,0,0,0,0,-1,951,1366,0,0
-266,-342,0,0,0,0,0,0,0,0,0,-1,958,1366,0,0
-259,-342,0,0,0,0,0,0,0,0,0,-1,965,1366,0,0
-252,-342,0,0,0,0,0,0,0,0,0,-1,972,1366,0,0
-245,-342,0,0,0,0,0,0,0,0,0,-1,979,1366,0,0
-238,-342,0,0,0,0,0,0,0,0,0,-1,986,1366,0,0
-231,-342,0,0,0,0,0,0,0,0,0,-1,993,1366,0,0
-224,-342,0,0,0,0,0,0,0,0,0,-1,1000,1366,0,0
-217,-342,0,0,0,0,0,0,0,0,0,-1,1007,1366,0,0
-210,-342,0,0,0,0,0,0,0,0,0,-1,1014,1366,0,0
-203,-342,0,0,0,0,0,0,0,0,0,-1,1021,1366,0,0
-196,-342,0,0,0,0,0,0,0,0,0,-1,1028,1366,0,0
-189,-342,0,0,0,0,0,0,0,0,0,-1,1035,1366,0,0
-182,-342,0,0,0,0,0,0,0,0,0,-1,1042,1366,0,0
-175,-342,0,0,0,0,0,0,0,0,0,-1,1049,1366,0,0
-168,-342,0,0,0,0,0,0,0,0,0,-1,1056,1366,0,0
-161,-342,0,0,0,0,0,0,0,0,0,-1,1063,1366,0,0
-154,-342,0,0,0,0,0,0,0,0,0,-1,1070,1366,0,0
-147,-342,0,0,0,0,0,0,0,0,0,-1,1077,1366,0,0
-140,-342,0,0,0,0,0,0,0,0,0,-1,1084,1366,0,0
-133,-342,0,0,0,0,0,0,0,0,0,-1,1091,1366,0,0
-126,-342,0,0,0,0,0,0,0,0,0,-1,1098,1366,0,0
-119,-342,0,0,0,0,0,0,0,0,0,-1,1105,1366,0,0
-112,-342,0,0,0,0,0,0,0,0,0,-1,1112,1366,0,0
-105,-342,0,0,0,0,0,0,0,0,0,-1,1119,1366,0,0
-98,-342,0,0,0,0,0,0,0,0,0,-1,1126,1366,0,0
-91,-342,0,0,0,0,0,0,0,0,0,-1,1133,1366,0,0
-84,-342,0,0,0,0,0,0,0,0,0,-1,1140,1366,0,0
-77,-342,0,0,0,0,0,0,0,0,0,-1,1147,1366,0,0
-70,-342,0,0,0,0,0,0,0,0,0,-1,1154,1366,0,0
-63,-342,0,0,0,0,0,0,0,0,0,-1,1161,1366,0,0
-56,-342,0,0,0,0,0,0,0,0,0,-1,1168,1366,0,0
-49,-342,0,0,0,0,0,0,0,0,0,-1,1175,1366,0,0
-42,-342,0,0,0,0,0,0,0,0,0,-1,1182,1366,0,0
-35,-342,0,0,0,0,0,0,0,0,0,-1,1189,1366,0,0
-28,-342,0,0,0,0,0,0,0,0,0,-1,1196,1366,0,0
-21,-342,0,0,0,0,0,0,0,0,0,-1,1203,1366,0,0
-14,-342,0,0,0,0,0,0,0,0,0,-1,1210,1366,0,0
-7,-342,0,0,0,0,0,0,0,0,0,-1,1217,1366,0,0
0,-342,0,0,0,0,0,0,0,0,0,-1,1224,1366,0,0
7,-342,0,0,0,0,0,0,0,0,0,-1,1231,1366,0,0
14,-342,0,0,0,0,0,0,0,0,0,-1,1238,1366,0,0
21,-342,0,0,0,0,0,0,0,0,0,-1,1245,1366,0,0
28,-342,0,0,0,0,0,0,0,0,0,-1,1252,1366,0,0
35,-342,0,0,0,0,0,0,0,0,0,-1,1259,1366,0,0
42,-342,0,0,0,0,0,0,0,0,0,-1,1266,1366,0,0
49,-342,0,0,0,0,0,0,0,0,0,-1,1273,1366,0,0
56,-342,0,0,0,0,0,0,0,0,0,-1,1280,1366,0,0
63,-342,0,0,0,0,0,0,0,0,0,-1,1287,1366,0,0
70,-342,0,0,0,0,0,0,0,0,0,-1,1294,1366,0,0
77,-342,0,0,0,0,0,0,0,0,0,-1,1301,1366,0,0
84,-342,0,0,0,0,0,0,0,0,0,-1,1308,1366,0,0
91,-342,0,0,0,0,0,0,0,0,0,-1,1315,1366,0,0
98,-342,0,0,0,0,0,0,0,0,0,-1,1322,1366,0,0
105,-342,0,0,0,0,0,0,0,0,0,-1,1329,1366,0,0
112,-342,0,0,0,0,0,0,0,0,0,-1,1336,1366,0,0
119,-342,0,0,0,0,0,0,0,0,0,-1,1343,1366,0,0
126,-342,0,0,0,0,0,0,0,0,0,-1,1350,1366,0,0
133,-342,0,0,0,0,0,0,0,0,0,-1,1357,1366,0,0
140,-342,0,0,0,0,0,0,0,0,0,-1,1364,1366,0,0
147,-342,0,0,0,0,0,0,0,0,0,-1,1371,1366,0,0
154,-342,0,0,0,0,0,0,0,0,0,-1,1378,1366,0,0
161,-342,0,0,0,0,0,0,0,0,0,-1,1385,1366,0,0
168,-342,0,0,0,0,0,0,0,0,0,-1,1392,1366,0,0
175,-342,0,0,0,0,0,0,0,0,0,-1,1399,1366,0,0
182,-342,0,0,0,0,0,0,0,0,0,-1,1406,1366,0,0
189,-342,0,0,0,0,0,0,0,0,0,-1,1413,1366,0,0
196,-342,0,0,0,0,0,0,0,0,0,-1,1420,1366,0,0
203,-342,0,0,0,0,0,0,0,0,0,-1,1427,1366,0,0
210,-342,0,0,0,0,0,0,0,0,0,-1,1434,1366,0,0
217,-342,0,0,0,0,0,0,0,0,0,-1,1441,1366,0,0
224,-342,0,0,0,0,0,0,0,0,0,-1,1448,1366,0,0
231,-342,0,0,0,0,0,0,0,0,0,-1,1455,1366,0,0
238,-342,0,0,0,0,0,0,0,0,0,-1,1462,1366,0,0
245,-342,0,0,0,0,0,0,0,0,0,-1,1469,1366,0,0
252,-342,0,0,0,0,0,0,0,0,0,-1,1476,1366,0,0
259,-342,0,0,0,0,0,0,0,0,0,-1,1483,1366,0,0
266,-342,0,0,0,0,0,0,0,0,0,-1,1490,1366,0,0
273,-342,0,0,0,0,0,0,0,0,0,-1,1497,1366,0,0
280,-342,0,0,0,0,0,0,0,0,0,-1,1504,1366,0,0
287,-342,0,0,0,0,0,0,0,0,0,-1,1511,1366,0,0
294,-342,0,0,0,0,0,0,0,0,0,-1,1518,1366,0,0
301,-342,0,0,0,0,0,0,0,0,0,-1,1525,1366,0,0
308,-342,0,0,0,0,0,0,0,0,0,-1,1532,1366,0,0
315,-342,0,0,0,0,0,0,0,0,0,-1,1539,1366,0,0
322,-342,0,0,0,0,0,0,0,0,0,-1,1546,1366,0,0
329,-342,0,0,0,0,0,0,0,0,0,-1,1553,1366,0,0
336,-342,0,0,0,0,0,0,0,0,0,-1,1560,1366,0,0
343,-342,0,0,0,0,0,0,0,0,0,-1,1567,1366,0,0
350,-342,0,0,0,0,0,0,0,0,0,-1,1574,1366,0,0
357,-342,0,0,0,0,0,0,0,0,0,-1,1581,1366,0,0
364,-342,0,0,0,0,0,0,0,0,0,-1,1588,1366,0,0
371,-342,0,0,0,0,0,0,0,0,0,-1,1595,1366,0,0
378,-342,0,0,0,0,0,0,0,0,0,-1,1602,1366,0,0
385,-342,0,0,0,0,0,0,0,0,0,-1,1609,1366,0,0
392,-342,0,0,0,0,0,0,0,0,0,-1,1616,1366,0,0
399,-342,0,0,0,0,0,0,0,0,0,-1,1623,1366,0,0
406,-342,0,0,0,0,0,0,0,0,0,-1,1630,1366,0,0
413,-342,0,0,0,0,0,0,0,0,0,-1,1637,1366,0,0
420,-342,0,0,0,0,0,0,0,0,0,-1,1644,1366,0,0
427,-342,0,0,0,0,0,0,0,0,0,-1,1651,1366,0,0
434,-342,0,0,0,0,0,0,0,0,0,-1,1658,1366,0,0
441,-342,0,0,0,0,0,0,0,0,0,-1,1665,1366,0,0
448,-342,0,0,0,0,0,0,0,0,0,-1,1672,1366,0,0
455,-342,0,0,0,0,0,0,0,0,0,-1,1679,1366,0,0
462,-342,0,0,0,0,0,0,0,0,0,-1,1686,1366,0,0
469,-342,0,0,0,0,0,0,0,0,0,-1,1693,1366,0,0
476,-342,0,0,0,0,0,0,0,0,0,-1,1700,1366,0,0
483,-342,0,0,0,0,0,0,0,0,0,-1,1707,1366,0,0
490,-342,0,0,0,0,0,0,0,0,0,-1,1714,1366,0,0
497,-342,0,0,0,0,0,0,0,0,0,-1,1721,1366,0,0
504,-342,0,0,0,0,0,0,0,0,0,-1,1728,1366,0,0
511,-342,0,0,0,0,0,0,0,0,0,-1,1735,1366,0,0
518,-342,0,0,0,0,0,0,0,0,0,-1,1742,1366,0,0
525,-342,0,0,0,0,0,0,0,0,0,-1,1749,1366,0,0
532,-342,0,0,0,0,0,0,0,0,0,-1,1756,1366,0,0
539,-342,0,0,0,0,0,0,0,0,0,-1,1763,1366,0,0
546,-342,0,0,0,0,0,0,0,0,0,-1,1770,1366,0,0
553,-342,0,0,0,0,0,0,0,0,0,-1,1777,1366,0,0
560,-342,0,0,0,0,0,0,0,0,0,-1,1784,1366,0,0
567,-342,42.6652,5.53748,0,0,0,0,0,0,0,-1,1791,1366,42.6652,-5.53752
574,-342,43.0466,5.95728,0,0,0,0,0,0,0,-1,1798,1366,43.0466,-5.9573
581,-342,43.4904,6.59937,0,0,0,0,0,0,0,-1,1805,1366,43.4903,-6.59938
588,-342,43.9108,7.22559,0,0,0,0,0,0,0,-1,1812,1366,43.9107,-7.22554
595,-342,35.7993,0.709961,0,0,0,0,0,0,0,-1,1819,1366,35.7993,-0.709913
602,-342,36.3618,3.28723,0,0,0,0,0,0,0,-1,1826,1366,36.3619,-3.28719
609,-342,35.3777,4.14978,0,0,0,0,0,0,0,-1,1833,1366,35.3777,-4.14976
616,-342,34.199,5.8158,0,0,0,0,0,0,0,-1,1840,1366,34.199,-5.81579
623,-342,26.0299,6.86865,0,0,0,0,0,0,0,-1,1847,1366,26.0299,-6.86863
630,-342,17.3431,0.773071,0,0,0,0,0,0,0,-1,1854,1366,17.3432,-0.773095
637,-342,16.196,6.76172,0,0,0,0,0,0,0,-1,1861,1366,16.1961,-6.76174
644,-342,29.7258,13.2527,0,0,0,0,0,0,0,-1,1868,1366,29.7258,-13.2527
651,-342,29.8763,12.8104,-0.000871466,0.000772389,-0.00105095,0.00128465,-0.00138373,-1.11726,0.00154094,0.0460354,1875,1366,29.8763,-12.8104
658,-342,29.845,12.271,-0.000462074,0.000303592,-0.000509723,0.000558237,-0.00071672,-1.10749,0.00073799,0.0208389,1882,1366,29.845,-12.271
665,-342,29.8123,11.7567,5.57467e-05,-0.000100628,-0.0002352,0.000225415,-0.000270296,-0.62493,0.00028659,0.0171031,1889,1366,29.8123,-11.7567
672,-342,29.8063,11.3153,0.00055156,-0.000301316,-9.77285e-05,0.000562616,-0.000312371,-0.112642,0.000512014,0.0131833,1896,1366,29.8062,-11.3154
679,-342,29.7958,10.8704,0.00100861,-0.00044197,-5.38897e-06,0.00100863,-0.00044199,-0.00371498,0.000858551,0.013301,1903,1366,29.7958,-10.8703
686,-342,29.8326,10.4039,0.00141293,-0.000561271,7.9132e-05,0.0014161,-0.000564438,0.0399974,0.00117818,0.0123329,1910,1366,29.8327,-10.404
693,-342,29.7999,9.90356,0.00177493,-0.000643665,0.000150624,0.00178428,-0.000653009,0.0619583,0.00145682,0.0123267,1917,1366,29.8,-9.90353
700,-342,29.7582,9.4165,0.00207625,-0.000705982,0.000242299,0.00209719,-0.000726926,0.0862229,0.00169327,0.0134129,1924,1366,29.7582,-9.41652
707,-342,29.7461,8.89587,0.00216455,-0.000735732,0.000370833,0.00221121,-0.000782397,0.125179,0.00179278,0.0132757,1931,1366,29.7461,-8.89589
714,-342,29.8253,8.23108,0,0,0,0,0,0,0,-1,1938,1366,29.8253,-8.2311
721,-342,22.4666,6.08679,0,0,0,0,0,0,0,-1,1945,1366,22.4666,-6.08678
728,-342,19.8912,5.26636,0,0,0,0,0,0,0,-1,1952,1366,19.8913,-5.26636
735,-342,19.481,4.41968,0,0,0,0,0,0,0,-1,1959,1366,19.4809,-4.41962
742,-342,19.309,2.66943,0,0,0,0,0,0,0,-1,1966,1366,19.3089,-2.66948
749,-342,21.0934,6.47729,0,0,0,0,0,0,0,-1,1973,1366,21.0934,-6.4773
756,-342,0,0,0,0,0,0,0,0,0,-1,1980,1366,0,0
763,-342,0,0,0,0,0,0,0,0,0,-1,1987,1366,0,0
770,-342,0,0,0,0,0,0,0,0,0,-1,1994,1366,0,0
777,-342,0,0,0,0,0,0,0,0,0,-1,2001,1366,0,0
784,-342,0,0,0,0,0,0,0,0,0,-1,2008,1366,0,0
791,-342,0,0,0,0,0,0,0,0,0,-1,2015,1366,0,0
798,-342,0,0,0,0,0,0,0,0,0,-1,2022,1366,0,0
805,-342,0,0,0,0,0,0,0,0,0,-1,2029,1366,0,0
812,-342,0,0,0,0,0,0,0,0,0,-1,2036,1366,0,0
-700,-349,0,0,0,0,0,0,0,0,0,-1,524,1373,0,0
-693,-349,0,0,0,0,0,0,0,0,0,-1,531,1373,0,0
-686,-349,0,0,0,0,0,0,0,0,0,-1,538,1373,0,0
-679,-349,0,0,0,0,0,0,0,0,0,-1,545,1373,0,0
-672,-349,0,0,0,0,0,0,0,0,0,-1,552,1373,0,0
-665,-349,0,0,0,0,0,0,0,0,0,-1,559,1373,0,0
-658,-349,0,0,0,0,0,0,0,0,0,-1,566,1373,0,0
-651,-349,0,0,0,0,0,0,0,0,0,-1,573,1373,0,0
-644,-349,0,0,0,0,0,0,0,0,0,-1,580,1373,0,0
-637,-349,0,0,0,0,0,0,0,0,0,-1,587,1373,0,0
-630,-349,-7.64117,-5.06177,0,0,0,0,0,0,0,-1,594,1373,-7.64118,5.0618
-623,-349,-8.63507,0.51123,0,0,0,0,0,0,0,-1,601,1373,-8.63505,-0.511275
-616,-349,-5.2066,-0.188232,0,0,0,0,0,0,0,-1,608,1373,-5.20659,0.188211
-609,-349,-7.12073,1.37048,0,0,0,0,0,0,0,-1,615,1373,-7.12072,-1.37044
-602,-349,-9.00623,3.39587,0,0,0,0,0,0,0,-1,622,1373,-9.0062,-3.39591
-595,-349,-9.50568,2.96912,0,0,0,0,0,0,0,-1,629,1373,-9.50569,-2.96906
-588,-349,-8.60046,3.56042,0,0,0,0,0,0,0,-1,636,1373,-8.60046,-3.56047
-581,-349,-15.253,6.16992,0,0,0,0,0,0,0,-1,643,1373,-15.253,-6.16995
-574,-349,-15.2944,6.65112,0.00452029,0.00163264,0.00155837,0.00520088,0.000952046,0.411767,0.00319751,0.0329308,650,1373,-15.2944,-6.65116
-567,-349,-15.332,7.25671,0.00332052,0.00131121,0.00116743,0.00385606,0.000775662,0.430099,0.00235512,0.0188299,657,1373,-15.332,-7.25667
-560,-349,-15.343,7.78894,0.00279732,0.000904102,0.000936865,0.00318255,0.000518876,0.390112,0.00197163,0.0217636,664,1373,-15.343,-7.78896
-553,-349,-15.3578,8.26379,0.00277571,0.0006226,0.00096764,0.00314667,0.00025164,0.366084,0.00201913,0.0274189,671,1373,-15.3578,-8.26378
-546,-349,-15.3745,8.79199,0.00308303,0.000400517,0.00113367,0.00349796,-1.4409e-05,0.350859,0.00233679,0.0298505,678,1373,-15.3744,-8.79202
-539,-349,-15.4095,9.354,0.00369799,0.000227272,0.00142802,0.00421001,-0.000284747,0.344273,0.00290625,0.023441,685,1373,-15.4095,-9.35406
-532,-349,-15.4297,9.88647,0.00465401,0.0001032,0.00187887,0.00532947,-0.000572264,0.345117,0.00375829,0.0178822,692,1373,-15.4297,-9.88643
-525,-349,-15.4003,10.425,0.00596574,3.98577e-05,0.00249348,0.00687532,-0.000869729,0.349786,0.00489926,0.0134747,699,1373,-15.4004,-10.4251
-518,-349,-15.3944,10.9967,0.00765499,0.000123669,0.00329742,0.00889465,-0.00111598,0.3596,0.00633461,0.0198241,706,1373,-15.3944,-10.9967
-511,-349,-15.3666,11.5785,0,0,0,0,0,0,0,-1,713,1373,-15.3666,-11.5785
-504,-349,-9.60516,7.88831,0,0,0,0,0,0,0,-1,720,1373,-9.60519,-7.88825
-497,-349,-7.9339,5.58789,0,0,0,0,0,0,0,-1,727,1373,-7.93388,-5.58785
-490,-349,-8.73969,-0.503784,0,0,0,0,0,0,0,-1,734,1373,-8.73966,0.503752
-483,-349,-5.66974,3.7395,0,0,0,0,0,0,0,-1,741,1373,-5.66975,-3.73949
-476,-349,-10.8496,1.15759,0,0,0,0,0,0,0,-1,748,1373,-10.8496,-1.15756
-469,-349,-12.3314,-1.74878,0,0,0,0,0,0,0,-1,755,1373,-12.3314,1.74882
-462,-349,-12.6559,-0.995361,0,0,0,0,0,0,0,-1,762,1373,-12.656,0.995351
-455,-349,-13.2897,-0.234253,0,0,0,0,0,0,0,-1,769,1373,-13.2897,0.234261
-448,-349,-14.045,0.712891,0,0,0,0,0,0,0,-1,776,1373,-14.045,-0.712838
-441,-349,0,0,0,0,0,0,0,0,0,-1,783,1373,0,0
-434,-349,0,0,0,0,0,0,0,0,0,-1,790,1373,0,0
-427,-349,0,0,0,0,0,0,0,0,0,-1,797,1373,0,0
-420,-349,0,0,0,0,0,0,0,0,0,-1,804,1373,0,0
-413,-349,0,0,0,0,0,0,0,0,0,-1,811,1373,0,0
-406,-349,0,0,0,0,0,0,0,0,0,-1,818,1373,0,0
-399,-349,0,0,0,0,0,0,0,0,0,-1,825,1373,0,0
-392,-349,0,0,0,0,0,0,0,0,0,-1,832,1373,0,0
-385,-349,0,0,0,0,0,0,0,0,0,-1,839,1373,0,0
-378,-349,0,0,0,0,0,0,0,0,0,-1,846,1373,0,0
-371,-349,0,0,0,0,0,0,0,0,0,-1,853,1373,0,0
-364,-349,0,0,0,0,0,0,0,0,0,-1,860,1373,0,0
-357,-349,0,0,0,0,0,0,0,0,0,-1,867,1373,0,0
-350,-349,0,0,0,0,0,0,0,0,0,-1,874,1373,0,0
-343,-349,0,0,0,0,0,0,0,0,0,-1,881,1373,0,0
-336,-349,0,0,0,0,0,0,0,0,0,-1,888,1373,0,0
-329,-349,0,0,0,0,0,0,0,0,0,-1,895,1373,0,0
-322,-349,0,0,0,0,0,0,0,0,0,-1,902,1373,0,0
-315,-349,0,0,0,0,0,0,0,0,0,-1,909,1373,0,0
-308,-349,0,0,0,0,0,0,0,0,0,-1,916,1373,0,0
-301,-349,0,0,0,0,0,0,0,0,0,-1,923,1373,0,0
-294,-349,0,0,0,0,0,0,0,0,0,-1,930,1373,0,0
-287,-349,0,0,0,0,0,0,0,0,0,-1,937,1373,0,0
-280,-349,0,0,0,0,0,0,0,0,0,-1,944,1373,0,0
-273,-349,0,0,0,0,0,0,0,0,0,-1,951,1373,0,0
-266,-349,0,0,0,0,0,0,0,0,0,-1,958,1373,0,0
-259,-349,0,0,0,0,0,0,0,0,0,-1,965,1373,0,0
-252,-349,0,0,0,0,0,0,0,0,0,-1,972,1373,0,0
-245,-349,0,0,0,0,0,0,0,0,0,-1,979,1373,0,0
-238,-349,0,0,0,0,0,0,0,0,0,-1,986,1373,0,0
-231,-349,0,0,0,0,0,0,0,0,0,-1,993,1373,0,0
-224,-349,0,0,0,0,0,0,0,0,0,-1,1000,1373,0,0
-217,-349,0,0,0,0,0,0,0,0,0,-1,1007,1373,0,0
-210,-349,0,0,0,0,0,0,0,0,0,-1,1014,1373,0,0
-203,-349,0,0,0,0,0,0,0,0,0,-1,1021,1373,0,0
-196,-349,0,0,0,0,0,0,0,0,0,-1,1028,1373,0,0
-189,-349,0,0,0,0,0,0,0,0,0,-1,1035,1373,0,0
-182,-349,0,0,0,0,0,0,0,0,0,-1,1042,1373,0,0
-175,-349,0,0,0,0,0,0,0,0,0,-1,1049,1373,0,0
-168,-349,0,0,0,0,0,0,0,0,0,-1,1056,1373,0,0
-161,-349,0,0,0,0,0,0,0,0,0,-1,1063,1373,0,0
-154,-349,0,0,0,0,0,0,0,0,0,-1,1070,1373,0,0
-147,-349,0,0,0,0,0,0,0,0,0,-1,1077,1373,0,0
-140,-349,0,0,0,0,0,0,0,0,0,-1,1084,1373,0,0
-133,-349,0,0,0,0,0,0,0,0,0,-1,1091,1373,0,0
-126,-349,0,0,0,0,0,0,0,0,0,-1,1098,1373,0,0
-119,-349,0,0,0,0,0,0,0,0,0,-1,1105,1373,0,0
-112,-349,0,0,0,0,0,0,0,0,0,-1,1112,1373,0,0
-105,-349,0,0,0,0,0,0,0,0,0,-1,1119,1373,0,0
-98,-349,0,0,0,0,0,0,0,0,0,-1,1126,1373,0,0
-91,-349,0,0,0,0,0,0,0,0,0,-1,1133,1373,0,0
-84,-349,0,0,0,0,0,0,0,0,0,-1,1140,1373,0,0
-77,-349,0,0,0,0,0,0,0,0,0,-1,1147,1373,0,0
-70,-349,0,0,0,0,0,0,0,0,0,-1,1154,1373,0,0
-63,-349,0,0,0,0,0,0,0,0,0,-1,1161,1373,0,0
-56,-349,0,0,0,0,0,0,0,0,0,-1,1168,1373,0,0
-49,-349,0,0,0,0,0,0,0,0,0,-1,1175,1373,0,0
-42,-349,0,0,0,0,0,0,0,0,0,-1,1182,1373,0,0
-35,-349,0,0,0,0,0,0,0,0,0,-1,1189,1373,0,0
-28,-349,0,0,0,0,0,0,0,0,0,-1,1196,1373,0,0
-21,-349,0,0,0,0,0,0,0,0,0,-1,1203,1373,0,0
-14,-349,0,0,0,0,0,0,0,0,0,-1,1210,1373,0,0
-7,-349,0,0,0,0,0,0,0,0,0,-1,1217,1373,0,0
0,-349,0,0,0,0,0,0,0,0,0,-1,1224,1373,0,0
7,-349,0,0,0,0,0,0,0,0,0,-1,1231,1373,0,0
14,-349,0,0,0,0,0,0,0,0,0,-1,1238,1373,0,0
21,-349,0,0,0,0,0,0,0,0,0,-1,1245,1373,0,0
28,-349,0,0,0,0,0,0,0,0,0,-1,1252,1373,0,0
35,-349,0,0,0,0,0,0,0,0,0,-1,1259,1373,0,0
42,-349,0,0,0,0,0,0,0,0,0,-1,1266,1373,0,0
49,-349,0,0,0,0,0,0,0,0,0,-1,1273,1373,0,0
56,-349,0,0,0,0,0,0,0,0,0,-1,1280,1373,0,0
63,-349,0,0,0,0,0,0,0,0,0,-1,1287,1373,0,0
70,-349,0,0,0,0,0,0,0,0,0,-1,1294,1373,0,0
77,-349,0,0,0,0,0,0,0,0,0,-1,1301,1373,0,0
84,-349,0,0,0,0,0,0,0,0,0,-1,1308,1373,0,0
91,-349,0,0,0,0,0,0,0,0,0,-1,1315,1373,0,0
98,-349,0,0,0,0,0,0,0,0,0,-1,1322,1373,0,0
105,-349,0,0,0,0,0,0,0,0,0,-1,1329,1373,0,0
112,-349,0,0,0,0,0,0,0,0,0,-1,1336,1373,0,0
119,-349,0,0,0,0,0,0,0,0,0,-1,1343,1373,0,0
126,-349,0,0,0,0,0,0,0,0,0,-1,1350,1373,0,0
133,-349,0,0,0,0,0,0,0,0,0,-1,1357,1373,0,0
140,-349,0,0,0,0,0,0,0,0,0,-1,1364,1373,0,0
147,-349,0,0,0,0,0,0,0,0,0,-1,1371,1373,0,0
154,-349,0,0,0,0,0,0,0,0,0,-1,1378,1373,0,0
161,-349,0,0,0,0,0,0,0,0,0,-1,1385,1373,0,0
168,-349,0,0,0,0,0,0,0,0,0,-1,1392,1373,0,0
175,-349,0,0,0,0,0,0,0,0,0,-1,1399,1373,0,0
182,-349,0,0,0,0,0,0,0,0,0,-1,1406,1373,0,0
189,-349,0,0,0,0,0,0,0,0,0,-1,1413,1373,0,0
196,-349,0,0,0,0,0,0,0,0,0,-1,1420,1373,0,0
203,-349,0,0,0,0,0,0,0,0,0,-1,1427,1373,0,0
210,-349,0,0,0,0,0,0,0,0,0,-1,1434,1373,0,0
217,-349,0,0,0,0,0,0,0,0,0,-1,1441,1373,0,0
224,-349,0,0,0,0,0,0,0,0,0,-1,1448,1373,0,0
231,-349,0,0,0,0,0,0,0,0,0,-1,1455,1373,0,0
238,-349,0,0,0,0,0,0,0,0,0,-1,1462,1373,0,0
245,-349,0,0,0,0,0,0,0,0,0,-1,1469,1373,0,0
252,-349,0,0,0,0,0,0,0,0,0,-1,1476,1373,0,0
259,-349,0,0,0,0,0,0,0,0,0,-1,1483,1373,0,0
266,-349,0,0,0,0,0,0,0,0,0,-1,1490,1373,0,0
273,-349,0,0,0,0,0,0,0,0,0,-1,1497,1373,0,0
280,-349,0,0,0,0,0,0,0,0,0,-1,1504,1373,0,0
287,-349,0,0,0,0,0,0,0,0,0,-1,1511,1373,0,0
294,-349,0,0,0,0,0,0,0,0,0,-1,1518,1373,0,0
301,-349,0,0,0,0,0,0,0,0,0,-1,1525,1373,0,0
308,-349,0,0,0,0,0,0,0,0,0,-1,1532,1373,0,0
315,-349,0,0,0,0,0,0,0,0,0,-1,1539,1373,0,0
322,-349,0,0,0,0,0,0,0,0,0,-1,1546,1373,0,0
329,-349,0,0,0,0,0,0,0,0,0,-1,1553,1373,0,0
336,-349,0,0,0,0,0,0,0,0,0,-1,1560,1373,0,0
343,-349,0,0,0,0,0,0,0,0,0,-1,1567,1373,0,0
350,-349,0,0,0,0,0,0,0,0,0,-1,1574,1373,0,0
357,-349,0,0,0,0,0,0,0,0,0,-1,1581,1373,0,0
364,-349,0,0,0,0,0,0,0,0,0,-1,1588,1373,0,0
371,-349,0,0,0,0,0,0,0,0,0,-1,1595,1373,0,0
378,-349,0,0,0,0,0,0,0,0,0,-1,1602,1373,0,0
385,-349,0,0,0,0,0,0,0,0,0,-1,1609,1373,0,0
392,-349,0,0,0,0,0,0,0,0,0,-1,1616,1373,0,0
399,-349,0,0,0,0,0,0,0,0,0,-1,1623,1373,0,0
406,-349,0,0,0,0,0,0,0,0,0,-1,1630,1373,0,0
413,-349,0,0,0,0,0,0,0,0,0,-1,1637,1373,0,0
420,-349,0,0,0,0,0,0,0,0,0,-1,1644,1373,0,0
427,-349,0,0,0,0,0,0,0,0,0,-1,1651,1373,0,0
434,-349,0,0,0,0,0,0,0,0,0,-1,1658,1373,0,0
441,-349,0,0,0,0,0,0,0,0,0,-1,1665,1373,0,0
448,-349,0,0,0,0,0,0,0,0,0,-1,1672,1373,0,0
455,-349,0,0,0,0,0,0,0,0,0,-1,1679,1373,0,0
462,-349,0,0,0,0,0,0,0,0,0,-1,1686,1373,0,0
469,-349,0,0,0,0,0,0,0,0,0,-1,1693,1373,0,0
476,-349,0,0,0,0,0,0,0,0,0,-1,1700,1373,0,0
483,-349,0,0,0,0,0,0,0,0,0,-1,1707,1373,0,0
490,-349,0,0,0,0,0,0,0,0,0,-1,1714,1373,0,0
497,-349,0,0,0,0,0,0,0,0,0,-1,1721,1373,0,0
504,-349,0,0,0,0,0,0,0,0,0,-1,1728,1373,0,0
511,-349,0,0,0,0,0,0,0,0,0,-1,1735,1373,0,0
518,-349,0,0,0,0,0,0,0,0,0,-1,1742,1373,0,0
525,-349,0,0,0,0,0,0,0,0,0,-1,1749,1373,0,0
532,-349,0,0,0,0,0,0,0,0,0,-1,1756,1373,0,0
539,-349,0,0,0,0,0,0,0,0,0,-1,1763,1373,0,0
546,-349,0,0,0,0,0,0,0,0,0,-1,1770,1373,0,0
553,-349,0,0,0,0,0,0,0,0,0,-1,1777,1373,0,0
560,-349,45.6893,3.53845,0,0,0,0,0,0,0,-1,1784,1373,45.6893,-3.5385
567,-349,41.9424,6.03833,0,0,0,0,0,0,0,-1,1791,1373,41.9423,-6.03834
574,-349,42.4165,6.17078,0,0,0,0,0,0,0,-1,1798,1373,42.4165,-6.17072
581,-349,42.8947,6.78381,0,0,0,0,0,0,0,-1,1805,1373,42.8946,-6.78376
588,-349,44.8121,5.06213,0,0,0,0,0,0,0,-1,1812,1373,44.8121,-5.06215
595,-349,44.4338,6.14099,0,0,0,0,0,0,0,-1,1819,1373,44.4338,-6.14095
602,-349,35.6641,3.26465,0,0,0,0,0,0,0,-1,1826,1373,35.6641,-3.26468
609,-349,34.7175,4.401,0,0,0,0,0,0,0,-1,1833,1373,34.7175,-4.40096
616,-349,27.1451,6.68274,0,0,0,0,0,0,0,-1,1840,1373,27.1451,-6.6828
623,-349,18.8478,2.75769,0,0,0,0,0,0,0,-1,1847,1373,18.8478,-2.75774
630,-349,15.4948,6.47644,0,0,0,0,0,0,0,-1,1854,1373,15.4947,-6.4765
637,-349,16.5161,6.92639,0,0,0,0,0,0,0,-1,1861,1373,16.5161,-6.92636
644,-349,29.4695,13.2555,0,0,0,0,0,0,0,-1,1868,1373,29.4695,-13.2555
651,-349,29.4774,12.7502,-0.000586866,0.000747749,-0.00108891,0.00135756,-0.00119668,-1.06029,0.00147566,0.0352024,1875,1373,29.4774,-12.7502
658,-349,29.3665,12.2546,-0.000191606,0.000331625,-0.00057122,0.000698289,-0.00055827,-1.00014,0.000726975,0.0271018,1882,1373,29.3664,-12.2546
665,-349,29.3062,11.7839,0.000281414,-4.19277e-05,-0.000247228,0.000415139,-0.000175653,-0.49583,0.000350311,0.0211565,1889,1373,29.3062,-11.7839
672,-349,29.3171,11.3297,0.00073917,-0.000283684,-1.40728e-05,0.000739363,-0.000283877,-0.0137549,0.000609967,0.0161359,1896,1373,29.3171,-11.3298
679,-349,29.3138,10.8721,0.00118049,-0.000503279,0.000177066,0.00119891,-0.000521698,0.10365,0.00101872,0.0165302,1903,1373,29.3139,-10.8721
686,-349,29.3673,10.4326,0.00158803,-0.000689637,0.000344859,0.0016391,-0.000740707,0.14702,0.00140624,0.016147,1910,1373,29.3674,-10.4327
693,-349,29.3217,9.93909,0.00197002,-0.000848079,0.000492089,0.00205348,-0.000931535,0.167996,0.00176351,0.0177506,1917,1373,29.3216,-9.93907
700,-349,29.2948,9.45325,0.00231281,-0.000965688,0.000629825,0.00242964,-0.00108252,0.183413,0.00207687,0.0170223,1924,1373,29.2948,-9.4532
707,-349,29.3705,8.94067,0.00241165,-0.0010118,0.000762488,0.00257379,-0.00117395,0.209532,0.0022135,0.0344311,1931,1373,29.3705,-8.94066
714,-349,29.4891,8.33569,0,0,0,0,0,0,0,-1,1938,1373,29.4892,-8.33574
721,-349,19.6688,5.93604,0,0,0,0,0,0,0,-1,1945,1373,19.6688,-5.93606
728,-349,18.6333,3.73218,0,0,0,0,0,0,0,-1,1952,1373,18.6333,-3.73214
735,-349,18.1918,3.39954,0,0,0,0,0,0,0,-1,1959,1373,18.1918,-3.3995
742,-349,20.7345,2.07483,0,0,0,0,0,0,0,-1,1966,1373,20.7345,-2.07485
749,-349,21.9037,1.45789,0,0,0,0,0,0,0,-1,1973,1373,21.9037,-1.45788
756,-349,0,0,0,0,0,0,0,0,0,-1,1980,1373,0,0
763,-349,0,0,0,0,0,0,0,0,0,-1,1987,1373,0,0
770,-349,0,0,0,0,0,0,0,0,0,-1,1994,1373,0,0
777,-349,0,0,0,0,0,0,0,0,0,-1,2001,1373,0,0
784,-349,0,0,0,0,0,0,0,0,0,-1,2008,1373,0,0
791,-349,0,0,0,0,0,0,0,0,0,-1,2015,1373,0,0
798,-349,0,0,0,0,0,0,0,0,0,-1,2022,1373,0,0
805,-349,0,0,0,0,0,0,0,0,0,-1,2029,1373,0,0
812,-349,0,0,0,0,0,0,0,0,0,-1,2036,1373,0,0
-700,-356,0,0,0,0,0,0,0,0,0,-1,524,1380,0,0
-693,-356,0,0,0,0,0,0,0,0,0,-1,531,1380,0,0
-686,-356,0,0,0,0,0,0,0,0,0,-1,538,1380,0,0
-679,-356,0,0,0,0,0,0,0,0,0,-1,545,1380,0,0
-672,-356,0,0,0,0,0,0,0,0,0,-1,552,1380,0,0
-665,-356,0,0,0,0,0,0,0,0,0,-1,559,1380,0,0
-658,-356,0,0,0,0,0,0,0,0,0,-1,566,1380,0,0
-651,-356,0,0,0,0,0,0,0,0,0,-1,573,1380,0,0
-644,-356,0,0,0,0,0,0,0,0,0,-1,580,1380,0,0
-637,-356,0,0,0,0,0,0,0,0,0,-1,587,1380,0,0
-630,-356,-8.23126,-5.01917,0,0,0,0,0,0,0,-1,594,1380,-8.23124,5.0192
-623,-356,-0.263855,-0.675781,0,0,0,0,0,0,0,-1,601,1380,-0.263835,0.675841
-616,-356,-8.26532,-3.43945,0,0,0,0,0,0,0,-1,608,1380,-8.2653,3.43948
-609,-356,-4.88483,0.734497,0,0,0,0,0,0,0,-1,615,1380,-4.88485,-0.734532
-602,-356,-9.06635,2.4021,0,0,0,0,0,0,0,-1,622,1380,-9.06634,-2.40206
-595,-356,-8.45703,3.61853,0,0,0,0,0,0,0,-1,629,1380,-8.45706,-3.61848
-588,-356,-9.31738,4.14258,0,0,0,0,0,0,0,-1,636,1380,-9.31736,-4.14255
-581,-356,-14.3957,6.35889,0,0,0,0,0,0,0,-1,643,1380,-14.3957,-6.35889
-574,-356,-14.8704,6.67725,0,0,0,0,0,0,0,-1,650,1380,-14.8704,-6.67729
-567,-356,-14.8519,7.23633,0.00345061,0.0014001,0.00119029,0.00399633,0.000854384,0.429876,0.00243002,0.020163,657,1380,-14.8519,-7.23633
-560,-356,-14.8087,7.80261,0.00278119,0.000950593,0.000882858,0.00313759,0.000594196,0.383679,0.00192449,0.0192272,664,1380,-14.8087,-7.80265
-553,-356,-14.806,8.29944,0.00268335,0.000682257,0.000904033,0.00303127,0.000334334,0.367384,0.00191913,0.0220225,671,1380,-14.806,-8.29949
-546,-356,-14.8613,8.82068,0.00287804,0.000475335,0.00104605,0.00326963,8.3742e-05,0.358203,0.00215238,0.0225121,678,1380,-14.8613,-8.82072
-539,-356,-14.8576,9.37769,0.00335029,0.000326053,0.00130863,0.00383793,-0.000161581,0.356691,0.00261414,0.0152614,685,1380,-14.8576,-9.37768
-532,-356,-14.8805,9.91113,0.00411196,0.000245798,0.00171358,0.00476213,-0.000404367,0.362639,0.00331777,0.0151041,692,1380,-14.8805,-9.91117
-525,-356,-14.8823,10.4344,0.00516419,0.000241653,0.00226764,0.00604956,-0.000643722,0.372238,0.00426385,0.0127045,699,1380,-14.8823,-10.4344
-518,-356,-14.8807,10.9727,0.00650673,0.000367015,0.00298261,0.00771706,-0.000843315,0.385492,0.00544761,0.0120245,706,1380,-14.8807,-10.9726
-511,-356,-14.6376,11.6182,0.00822347,0.000523415,0.00390185,0.00985497,-0.00110808,0.396041,0.00696877,0.0493664,713,1380,-14.6376,-11.6182
-504,-356,-14.3925,12.3971,0,0,0,0,0,0,0,-1,720,1380,-14.3925,-12.3971
-497,-356,-5.68604,4.96387,0,0,0,0,0,0,0,-1,727,1380,-5.68605,-4.96385
-490,-356,-7.95288,5.5625,0,0,0,0,0,0,0,-1,734,1380,-7.95285,-5.56246
-483,-356,-7.2627,4.07446,0,0,0,0,0,0,0,-1,741,1380,-7.2627,-4.07441
-476,-356,-5.1936,4.16016,0,0,0,0,0,0,0,-1,748,1380,-5.1936,-4.16012
-469,-356,-10.0883,0.536011,0,0,0,0,0,0,0,-1,755,1380,-10.0883,-0.535989
-462,-356,-12.3481,-0.215698,0,0,0,0,0,0,0,-1,762,1380,-12.3481,0.215641
-455,-356,-13.1367,-0.264648,0,0,0,0,0,0,0,-1,769,1380,-13.1367,0.264647
-448,-356,-13.9116,-0.310181,0,0,0,0,0,0,0,-1,776,1380,-13.9115,0.310207
-441,-356,-13.1602,3.05603,0,0,0,0,0,0,0,-1,783,1380,-13.1602,-3.05609
-434,-356,0,0,0,0,0,0,0,0,0,-1,790,1380,0,0
-427,-356,0,0,0,0,0,0,0,0,0,-1,797,1380,0,0
-420,-356,0,0,0,0,0,0,0,0,0,-1,804,1380,0,0
-413,-356,0,0,0,0,0,0,0,0,0,-1,811,1380,0,0
-406,-356,0,0,0,0,0,0,0,0,0,-1,818,1380,0,0
-399,-356,0,0,0,0,0,0,0,0,0,-1,825,1380,0,0
-392,-356,0,0,0,0,0,0,0,0,0,-1,832,1380,0,0
-385,-356,0,0,0,0,0,0,0,0,0,-1,839,1380,0,0
-378,-356,0,0,0,0,0,0,0,0,0,-1,846,1380,0,0
-371,-356,0,0,0,0,0,0,0,0,0,-1,853,1380,0,0
-364,-356,0,0,0,0,0,0,0,0,0,-1,860,1380,0,0
-357,-356,0,0,0,0,0,0,0,0,0,-1,867,1380,0,0
-350,-356,0,0,0,0,0,0,0,0,0,-1,874,1380,0,0
-343,-356,0,0,0,0,0,0,0,0,0,-1,881,1380,0,0
-336,-356,0,0,0,0,0,0,0,0,0,-1,888,1380,0,0
-329,-356,0,0,0,0,0,0,0,0,0,-1,895,1380,0,0
-322,-356,0,0,0,0,0,0,0,0,0,-1,902,1380,0,0
-315,-356,0,0,0,0,0,0,0,0,0,-1,909,1380,0,0
-308,-356,0,0,0,0,0,0,0,0,0,-1,916,1380,0,0
-301,-356,0,0,0,0,0,0,0,0,0,-1,923,1380,0,0
-294,-356,0,0,0,0,0,0,0,0,0,-1,930,1380,0,0
-287,-356,0,0,0,0,0,0,0,0,0,-1,937,1380,0,0
-280,-356,0,0,0,0,0,0,0,0,0,-1,944,1380,0,0
-273,-356,0,0,0,0,0,0,0,0,0,-1,951,1380,0,0
-266,-356,0,0,0,0,0,0,0,0,0,-1,958,1380,0,0
-259,-356,0,0,0,0,0,0,0,0,0,-1,965,1380,0,0
-252,-356,0,0,0,0,0,0,0,0,0,-1,972,1380,0,0
-245,-356,0,0,0,0,0,0,0,0,0,-1,979,1380,0,0
-238,-356,0,0,0,0,0,0,0,0,0,-1,986,1380,0,0
-231,-356,0,0,0,0,0,0,0,0,0,-1,993,1380,0,0
-224,-356,0,0,0,0,0,0,0,0,0,-1,1000,1380,0,0
-217,-356,0,0,0,0,0,0,0,0,0,-1,1007,1380,0,0
-210,-356,0,0,0,0,0,0,0,0,0,-1,1014,1380,0,0
-203,-356,0,0,0,0,0,0,0,0,0,-1,1021,1380,0,0
-196,-356,0,0,0,0,0,0,0,0,0,-1,1028,1380,0,0
-189,-356,0,0,0,0,0,0,0,0,0,-1,1035,1380,0,0
-182,-356,0,0,0,0,0,0,0,0,0,-1,1042,1380,0,0
-175,-356,0,0,0,0,0,0,0,0,0,-1,1049,1380,0,0
-168,-356,0,0,0,0,0,0,0,0,0,-1,1056,1380,0,0
-161,-356,0,0,0,0,0,0,0,0,0,-1,1063,1380,0,0
-154,-356,0,0,0,0,0,0,0,0,0,-1,1070,1380,0,0
-147,-356,0,0,0,0,0,0,0,0,0,-1,1077,1380,0,0
-140,-356,0,0,0,0,0,0,0,0,0,-1,1084,1380,0,0
-133,-356,0,0,0,0,0,0,0,0,0,-1,1091,1380,0,0
-126,-356,0,0,0,0,0,0,0,0,0,-1,1098,1380,0,0
-119,-356,0,0,0,0,0,0,0,0,0,-1,1105,1380,0,0
-112,-356,0,0,0,0,0,0,0,0,0,-1,1112,1380,0,0
-105,-356,0,0,0,0,0,0,0,0,0,-1,1119,1380,0,0
-98,-356,0,0,0,0,0,0,0,0,0,-1,1126,1380,0,0
-91,-356,0,0,0,0,0,0,0,0,0,-1,1133,1380,0,0
-84,-356,0,0,0,0,0,0,0,0,0,-1,1140,1380,0,0
-77,-356,0,0,0,0,0,0,0,0,0,-1,1147,1380,0,0
-70,-356,0,0,0,0,0,0,0,0,0,-1,1154,1380,0,0
-63,-356,0,0,0,0,0,0,0,0,0,-1,1161,1380,0,0
-56,-356,0,0,0,0,0,0,0,0,0,-1,1168,1380,0,0
-49,-356,0,0,0,0,0,0,0,0,0,-1,1175,1380,0,0
-42,-356,0,0,0,0,0,0,0,0,0,-1,1182,1380,0,0
-35,-356,0,0,0,0,0,0,0,0,0,-1,1189,1380,0,0
-28,-356,0,0,0,0,0,0,0,0,0,-1,1196,1380,0,0
-21,-356,0,0,0,0,0,0,0,0,0,-1,1203,1380,0,0
-14,-356,0,0,0,0,0,0,0,0,0,-1,1210,1380,0,0
-7,-356,0,0,0,0,0,0,0,0,0,-1,1217,1380,0,0
0,-356,0,0,0,0,0,0,0,0,0,-1,1224,1380,0,0
7,-356,0,0,0,0,0,0,0,0,0,-1,1231,1380,0,0
14,-356,0,0,0,0,0,0,0,0,0,-1,1238,1380,0,0
21,-356,0,0,0,0,0,0,0,0,0,-1,1245,1380,0,0
28,-356,0,0,0,0,0,0,0,0,0,-1,1252,1380,0,0
35,-356,0,0,0,0,0,0,0,0,0,-1,1259,1380,0,0
42,-356,0,0,0,0,0,0,0,0,0,-1,1266,1380,0,0
49,-356,0,0,0,0,0,0,0,0,0,-1,1273,1380,0,0
56,-356,0,0,0,0,0,0,0,0,0,-1,1280,1380,0,0
63,-356,0,0,0,0,0,0,0,0,0,-1,1287,1380,0,0
70,-356,0,0,0,0,0,0,0,0,0,-1,1294,1380,0,0
77,-356,0,0,0,0,0,0,0,0,0,-1,1301,1380,0,0
84,-356,0,0,0,0,0,0,0,0,0,-1,1308,1380,0,0
91,-356,0,0,0,0,0,0,0,0,0,-1,1315,1380,0,0
98,-356,0,0,0,0,0,0,0,0,0,-1,1322,1380,0,0
105,-356,0,0,0,0,0,0,0,0,0,-1,1329,1380,0,0
112,-356,0,0,0,0,0,0,0,0,0,-1,1336,1380,0,0
119,-356,0,0,0,0,0,0,0,0,0,-1,1343,1380,0,0
126,-356,0,0,0,0,0,0,0,0,0,-1,1350,1380,0,0
133,-356,0,0,0,0,0,0,0,0,0,-1,1357,1380,0,0
140,-356,0,0,0,0,0,0,0,0,0,-1,1364,1380,0,0
147,-356,0,0,0,0,0,0,0,0,0,-1,1371,1380,0,0
154,-356,0,0,0,0,0,0,0,0,0,-1,1378,1380,0,0
161,-356,0,0,0,0,0,0,0,0,0,-1,1385,1380,0,0
168,-356,0,0,0,0,0,0,0,0,0,-1,1392,1380,0,0
175,-356,0,0,0,0,0,0,0,0,0,-1,1399,1380,0,0
182,-356,0,0,0,0,0,0,0,0,0,-1,1406,1380,0,0
189,-356,0,0,0,0,0,0,0,0,0,-1,1413,1380,0,0
196,-356,0,0,0,0,0,0,0,0,0,-1,1420,1380,0,0
203,-356,0,0,0,0,0,0,0,0,0,-1,1427,1380,0,0
210,-356,0,0,0,0,0,0,0,0,0,-1,1434,1380,0,0
217,-356,0,0,0,0,0,0,0,0,0,-1,1441,1380,0,0
224,-356,0,0,0,0,0,0,0,0,0,-1,1448,1380,0,0
231,-356,0,0,0,0,0,0,0,0,0,-1,1455,1380,0,0
238,-356,0,0,0,0,0,0,0,0,0,-1,1462,1380,0,0
245,-356,0,0,0,0,0,0,0,0,0,-1,1469,1380,0,0
252,-356,0,0,0,0,0,0,0,0,0,-1,1476,1380,0,0
259,-356,0,0,0,0,0,0,0,0,0,-1,1483,1380,0,0
266,-356,0,0,0,0,0,0,0,0,0,-1,1490,1380,0,0
273,-356,0,0,0,0,0,0,0,0,0,-1,1497,1380,0,0
280,-356,0,0,0,0,0,0,0,0,0,-1,1504,1380,0,0
287,-356,0,0,0,0,0,0,0,0,0,-1,1511,1380,0,0
294,-356,0,0,0,0,0,0,0,0,0,-1,1518,1380,0,0
301,-356,0,0,0,0,0,0,0,0,0,-1,1525,1380,0,0
308,-356,0,0,0,0,0,0,0,0,0,-1,1532,1380,0,0
315,-356,0,0,0,0,0,0,0,0,0,-1,1539,1380,0,0
322,-356,0,0,0,0,0,0,0,0,0,-1,1546,1380,0,0
329,-356,0,0,0,0,0,0,0,0,0,-1,1553,1380,0,0
336,-356,0,0,0,0,0,0,0,0,0,-1,1560,1380,0,0
343,-356,0,0,0,0,0,0,0,0,0,-1,1567,1380,0,0
350,-356,0,0,0,0,0,0,0,0,0,-1,1574,1380,0,0
357,-356,0,0,0,0,0,0,0,0,0,-1,1581,1380,0,0
364,-356,0,0,0,0,0,0,0,0,0,-1,1588,1380,0,0
371,-356,0,0,0,0,0,0,0,0,0,-1,1595,1380,0,0
378,-356,0,0,0,0,0,0,0,0,0,-1,1602,1380,0,0
385,-356,0,0,0,0,0,0,0,0,0,-1,1609,1380,0,0
392,-356,0,0,0,0,0,0,0,0,0,-1,1616,1380,0,0
399,-356,0,0,0,0,0,0,0,0,0,-1,1623,1380,0,0
406,-356,0,0,0,0,0,0,0,0,0,-1,1630,1380,0,0
413,-356,0,0,0,0,0,0,0,0,0,-1,1637,1380,0,0
420,-356,0,0,0,0,0,0,0,0,0,-1,1644,1380,0,0
427,-356,0,0,0,0,0,0,0,0,0,-1,1651,1380,0,0
434,-356,0,0,0,0,0,0,0,0,0,-1,1658,1380,0,0
441,-356,0,0,0,0,0,0,0,0,0,-1,1665,1380,0,0
448,-356,0,0,0,0,0,0,0,0,0,-1,1672,1380,0,0
455,-356,0,0,0,0,0,0,0,0,0,-1,1679,1380,0,0
462,-356,0,0,0,0,0,0,0,0,0,-1,1686,1380,0,0
469,-356,0,0,0,0,0,0,0,0,0,-1,1693,1380,0,0
476,-356,0,0,0,0,0,0,0,0,0,-1,1700,1380,0,0
483,-356,0,0,0,0,0,0,0,0,0,-1,1707,1380,0,0
490,-356,0,0,0,0,0,0,0,0,0,-1,1714,1380,0,0
497,-356,0,0,0,0,0,0,0,0,0,-1,1721,1380,0,0
504,-356,0,0,0,0,0,0,0,0,0,-1,1728,1380,0,0
511,-356,0,0,0,0,0,0,0,0,0,-1,1735,1380,0,0
518,-356,0,0,0,0,0,0,0,0,0,-1,1742,1380,0,0
525,-356,0,0,0,0,0,0,0,0,0,-1,1749,1380,0,0
532,-356,0,0,0,0,0,0,0,0,0,-1,1756,1380,0,0
539,-356,0,0,0,0,0,0,0,0,0,-1,1763,1380,0,0
546,-356,0,0,0,0,0,0,0,0,0,-1,1770,1380,0,0
553,-356,0,0,0,0,0,0,0,0,0,-1,1777,1380,0,0
560,-356,45.7938,3.65295,0,0,0,0,0,0,0,-1,1784,1380,45.7938,-3.65294
567,-356,45.6788,3.51428,0,0,0,0,0,0,0,-1,1791,1380,45.6788,-3.51422
574,-356,45.5742,3.39575,0,0,0,0,0,0,0,-1,1798,1380,45.5742,-3.39574
581,-356,45.6708,3.64172,0,0,0,0,0,0,0,-1,1805,1380,45.6707,-3.64175
588,-356,44.4739,4.87085,0,0,0,0,0,0,0,-1,1812,1380,44.4739,-4.87086
595,-356,32.0834,5.86084,0,0,0,0,0,0,0,-1,1819,1380,32.0834,-5.86079
602,-356,30.1604,6.07104,0,0,0,0,0,0,0,-1,1826,1380,30.1604,-6.07104
609,-356,28.3435,6.48901,0,0,0,0,0,0,0,-1,1833,1380,28.3435,-6.48899
616,-356,26.9358,6.80872,0,0,0,0,0,0,0,-1,1840,1380,26.9358,-6.80877
623,-356,16.1803,1.07532,0,0,0,0,0,0,0,-1,1847,1380,16.1803,-1.07529
630,-356,16.4138,6.91553,0,0,0,0,0,0,0,-1,1854,1380,16.4138,-6.9155
637,-356,24.8021,12.0151,0,0,0,0,0,0,0,-1,1861,1380,24.8022,-12.0151
644,-356,28.9606,13.3378,0,0,0,0,0,0,0,-1,1868,1380,28.9606,-13.3378
651,-356,28.9441,12.7766,-0.000253783,0.000755552,-0.00102568,0.00139399,-0.000892225,-1.01403,0.0013305,0.0181169,1875,1380,28.944,-12.7766
658,-356,28.8861,12.2517,4.33555e-05,0.000348359,-0.000518919,0.000736721,-0.000345007,-0.928316,0.000638039,0.0152088,1882,1380,28.8861,-12.2517
665,-356,28.853,11.8177,0.000421808,-1.09507e-05,-0.000160961,0.000475111,-6.42536e-05,-0.319788,0.000340187,0.015211,1889,1380,28.8531,-11.8178
672,-356,28.8433,11.3848,0.00080203,-0.000301508,0.000143825,0.000820466,-0.000319945,0.127494,0.000679226,0.0165844,1896,1380,28.8433,-11.3848
679,-356,28.8396,10.8943,0.00122004,-0.00055717,0.000385211,0.00129994,-0.000637072,0.204524,0.00113996,0.0188562,1903,1380,28.8396,-10.8943
686,-356,28.8342,10.4032,0.0016672,-0.000763924,0.000571069,0.00179466,-0.000891385,0.219598,0.00157975,0.0181757,1910,1380,28.8342,-10.4032
693,-356,28.8308,9.94812,0.00212656,-0.000945849,0.00072607,0.00228951,-0.00110879,0.22076,0.00200109,0.0153742,1917,1380,28.8308,-9.94806
700,-356,28.8512,9.46509,0.0026203,-0.0010473,0.000822165,0.00279617,-0.00122317,0.210736,0.00237907,0.0215031,1924,1380,28.8512,-9.46503
707,-356,29.0239,8.83008,0,0,0,0,0,0,0,-1,1931,1380,29.0239,-8.83012
714,-356,19.6907,5.82129,0,0,0,0,0,0,0,-1,1938,1380,19.6907,-5.82132
721,-356,17.2948,4.1958,0,0,0,0,0,0,0,-1,1945,1380,17.2948,-4.19584
728,-356,19.1846,2.31519,0,0,0,0,0,0,0,-1,1952,1380,19.1846,-2.31514
735,-356,20.0731,2.50842,0,0,0,0,0,0,0,-1,1959,1380,20.0731,-2.50844
742,-356,21.0111,2.43762,0,0,0,0,0,0,0,-1,1966,1380,21.0112,-2.43762
749,-356,22.1411,1.83276,0,0,0,0,0,0,0,-1,1973,1380,22.1411,-1.83275
756,-356,0,0,0,0,0,0,0,0,0,-1,1980,1380,0,0
763,-356,0,0,0,0,0,0,0,0,0,-1,1987,1380,0,0
770,-356,0,0,0,0,0,0,0,0,0,-1,1994,1380,0,0
777,-356,0,0,0,0,0,0,0,0,0,-1,2001,1380,0,0
784,-356,0,0,0,0,0,0,0,0,0,-1,2008,1380,0,0
791,-356,0,0,0,0,0,0,0,0,0,-1,2015,1380,0,0
798,-356,0,0,0,0,0,0,0,0,0,-1,2022,1380,0,0
805,-356,0,0,0,0,0,0,0,0,0,-1,2029,1380,0,0
812,-356,0,0,0,0,0,0,0,0,0,-1,2036,1380,0,0
-700,-363,0,0,0,0,0,0,0,0,0,-1,524,1387,0,0
-693,-363,0,0,0,0,0,0,0,0,0,-1,531,1387,0,0
-686,-363,0,0,0,0,0,0,0,0,0,-1,538,1387,0,0
-679,-363,0,0,0,0,0,0,0,0,0,-1,545,1387,0,0
-672,-363,0,0,0,0,0,0,0,0,0,-1,552,1387,0,0
-665,-363,0,0,0,0,0,0,0,0,0,-1,559,1387,0,0
-658,-363,0,0,0,0,0,0,0,0,0,-1,566,1387,0,0
-651,-363,0,0,0,0,0,0,0,0,0,-1,573,1387,0,0
-644,-363,0,0,0,0,0,0,0,0,0,-1,580,1387,0,0
-637,-363,0,0,0,0,0,0,0,0,0,-1,587,1387,0,0
-630,-363,0,0,0,0,0,0,0,0,0,-1,594,1387,0,0
-623,-363,-9.67566,-5.91846,0,0,0,0,0,0,0,-1,601,1387,-9.67563,5.91847
-616,-363,-9.02985,-2.98083,0,0,0,0,0,0,0,-1,608,1387,-9.02987,2.98079
-609,-363,-4.90265,0.195679,0,0,0,0,0,0,0,-1,615,1387,-4.90263,-0.195721
-602,-363,-9.65009,3.5321,0,0,0,0,0,0,0,-1,622,1387,-9.65007,-3.53211
-595,-363,-8.00256,3.48853,0,0,0,0,0,0,0,-1,629,1387,-8.00256,-3.48855
-588,-363,-10.8846,4.49768,0,0,0,0,0,0,0,-1,636,1387,-10.8846,-4.49773
-581,-363,-11.7469,5.15161,0,0,0,0,0,0,0,-1,643,1387,-11.747,-5.15167
-574,-363,-14.2358,6.65173,0,0,0,0,0,0,0,-1,650,1387,-14.2358,-6.65169
-567,-363,-14.3099,7.30066,0.00350572,0.00132629,0.00122925,0.00405872,0.000773286,0.422749,0.00248843,0.040704,657,1387,-14.3099,-7.30063
-560,-363,-14.2993,7.77759,0.00270641,0.000850145,0.000813827,0.00301268,0.000543877,0.359936,0.00185395,0.0144916,664,1387,-14.2993,-7.77757
-553,-363,-14.3021,8.32727,0.00255714,0.000620945,0.000814506,0.0028542,0.000323881,0.349725,0.00180456,0.0139625,671,1387,-14.3021,-8.32724
-546,-363,-14.3225,8.86096,0.00265789,0.000450562,0.000921415,0.00299196,0.000116492,0.347822,0.00195697,0.0131272,678,1387,-14.3225,-8.86102
-539,-363,-14.3212,9.40381,0.0030027,0.00034602,0.0011407,0.00342527,-7.65476e-05,0.354773,0.00230945,0.0147231,685,1387,-14.3212,-9.40377
-532,-363,-14.3593,9.93091,0.00359914,0.000326686,0.00149492,0.00417922,-0.000253393,0.370149,0.00287433,0.013153,692,1387,-14.3593,-9.93089
-525,-363,-14.3627,10.4441,0.00447983,0.000440206,0.00203286,0.00532571,-0.000405667,0.394308,0.00369313,0.0112941,699,1387,-14.3628,-10.4441
-518,-363,-14.3593,10.9725,0.00559463,0.000661578,0.00271258,0.00679442,-0.00053821,0.416436,0.00471926,0.00958247,706,1387,-14.3593,-10.9725
-511,-363,-14.3116,11.5637,0.00703695,0.000997855,0.00360216,0.00871775,-0.000682942,0.436579,0.00605234,0.0242698,713,1387,-14.3116,-11.5638
-504,-363,-14.2217,12.2002,0,0,0,0,0,0,0,-1,720,1387,-14.2217,-12.2002
-497,-363,-7.18842,7.29944,0,0,0,0,0,0,0,-1,727,1387,-7.18839,-7.29945
-490,-363,-5.42413,4.6958,0,0,0,0,0,0,0,-1,734,1387,-5.42412,-4.69583
-483,-363,-6.28375,4.1394,0,0,0,0,0,0,0,-1,741,1387,-6.28374,-4.13944
-476,-363,-5.83807,4.31018,0,0,0,0,0,0,0,-1,748,1387,-5.8381,-4.31013
-469,-363,-10.7125,0.697754,0,0,0,0,0,0,0,-1,755,1387,-10.7125,-0.697811
-462,-363,-9.55951,-0.0830078,0,0,0,0,0,0,0,-1,762,1387,-9.55949,0.0830163
-455,-363,-13.1008,-0.290894,0,0,0,0,0,0,0,-1,769,1387,-13.1008,0.290921
-448,-363,-11.7324,2.46606,0,0,0,0,0,0,0,-1,776,1387,-11.7324,-2.46605
-441,-363,-12.4464,2.5354,0,0,0,0,0,0,0,-1,783,1387,-12.4463,-2.53537
-434,-363,-13.6918,2.14661,0,0,0,0,0,0,0,-1,790,1387,-13.6918,-2.14662
-427,-363,0,0,0,0,0,0,0,0,0,-1,797,1387,0,0
-420,-363,0,0,0,0,0,0,0,0,0,-1,804,1387,0,0
-413,-363,0,0,0,0,0,0,0,0,0,-1,811,1387,0,0
-406,-363,0,0,0,0,0,0,0,0,0,-1,818,1387,0,0
-399,-363,0,0,0,0,0,0,0,0,0,-1,825,1387,0,0
-392,-363,0,0,0,0,0,0,0,0,0,-1,832,1387,0,0
-385,-363,0,0,0,0,0,0,0,0,0,-1,839,1387,0,0
-378,-363,0,0,0,0,0,0,0,0,0,-1,846,1387,0,0
-371,-363,0,0,0,0,0,0,0,0,0,-1,853,1387,0,0
-364,-363,0,0,0,0,0,0,0,0,0,-1,860,1387,0,0
-357,-363,0,0,0,0,0,0,0,0,0,-1,867,1387,0,0
-350,-363,0,0,0,0,0,0,0,0,0,-1,874,1387,0,0
-343,-363,0,0,0,0,0,0,0,0,0,-1,881,1387,0,0
-336,-363,0,0,0,0,0,0,0,0,0,-1,888,1387,0,0
-329,-363,0,0,0,0,0,0,0,0,0,-1,895,1387,0,0
-322,-363,0,0,0,0,0,0,0,0,0,-1,902,1387,0,0
-315,-363,0,0,0,0,0,0,0,0,0,-1,909,1387,0,0
-308,-363,0,0,0,0,0,0,0,0,0,-1,916,1387,0,0
-301,-363,0,0,0,0,0,0,0,0,0,-1,923,1387,0,0
-294,-363,0,0,0,0,0,0,0,0,0,-1,930,1387,0,0
-287,-363,0,0,0,0,0,0,0,0,0,-1,937,1387,0,0
-280,-363,0,0,0,0,0,0,0,0,0,-1,944,1387,0,0
-273,-363,0,0,0,0,0,0,0,0,0,-1,951,1387,0,0
-266,-363,0,0,0,0,0,0,0,0,0,-1,958,1387,0,0
-259,-363,0,0,0,0,0,0,0,0,0,-1,965,1387,0,0
-252,-363,0,0,0,0,0,0,0,0,0,-1,972,1387,0,0
-245,-363,0,0,0,0,0,0,0,0,0,-1,979,1387,0,0
-238,-363,0,0,0,0,0,0,0,0,0,-1,986,1387,0,0
-231,-363,0,0,0,0,0,0,0,0,0,-1,993,1387,0,0
-224,-363,0,0,0,0,0,0,0,0,0,-1,1000,1387,0,0
-217,-363,0,0,0,0,0,0,0,0,0,-1,1007,1387,0,0
-210,-363,0,0,0,0,0,0,0,0,0,-1,1014,1387,0,0
-203,-363,0,0,0,0,0,0,0,0,0,-1,1021,1387,0,0
-196,-363,0,0,0,0,0,0,0,0,0,-1,1028,1387,0,0
-189,-363,0,0,0,0,0,0,0,0,0,-1,1035,1387,0,0
-182,-363,0,0,0,0,0,0,0,0,0,-1,1042,1387,0,0
-175,-363,0,0,0,0,0,0,0,0,0,-1,1049,1387,0,0
-168,-363,0,0,0,0,0,0,0,0,0,-1,1056,1387,0,0
-161,-363,0,0,0,0,0,0,0,0,0,-1,1063,1387,0,0
-154,-363,0,0,0,0,0,0,0,0,0,-1,1070,1387,0,0
-147,-363,0,0,0,0,0,0,0,0,0,-1,1077,1387,0,0
-140,-363,0,0,0,0,0,0,0,0,0,-1,1084,1387,0,0
-133,-363,0,0,0,0,0,0,0,0,0,-1,1091,1387,0,0
-126,-363,0,0,0,0,0,0,0,0,0,-1,1098,1387,0,0
-119,-363,0,0,0,0,0,0,0,0,0,-1,1105,1387,0,0
-112,-363,0,0,0,0,0,0,0,0,0,-1,1112,1387,0,0
-105,-363,0,0,0,0,0,0,0,0,0,-1,1119,1387,0,0
-98,-363,0,0,0,0,0,0,0,0,0,-1,1126,1387,0,0
-91,-363,0,0,0,0,0,0,0,0,0,-1,1133,1387,0,0
-84,-363,0,0,0,0,0,0,0,0,0,-1,1140,1387,0,0
-77,-363,0,0,0,0,0,0,0,0,0,-1,1147,1387,0,0
-70,-363,0,0,0,0,0,0,0,0,0,-1,1154,1387,0,0
-63,-363,0,0,0,0,0,0,0,0,0,-1,1161,1387,0,0
-56,-363,0,0,0,0,0,0,0,0,0,-1,1168,1387,0,0
-49,-363,0,0,0,0,0,0,0,0,0,-1,1175,1387,0,0
-42,-363,0,0,0,0,0,0,0,0,0,-1,1182,1387,0,0
-35,-363,0,0,0,0,0,0,0,0,0,-1,1189,1387,0,0
-28,-363,0,0,0,0,0,0,0,0,0,-1,1196,1387,0,0
-21,-363,0,0,0,0,0,0,0,0,0,-1,1203,1387,0,0
-14,-363,0,0,0,0,0,0,0,0,0,-1,1210,1387,0,0
-7,-363,0,0,0,0,0,0,0,0,0,-1,1217,1387,0,0
0,-363,0,0,0,0,0,0,0,0,0,-1,1224,1387,0,0
7,-363,0,0,0,0,0,0,0,0,0,-1,1231,1387,0,0
14,-363,0,0,0,0,0,0,0,0,0,-1,1238,1387,0,0
21,-363,0,0,0,0,0,0,0,0,0,-1,1245,1387,0,0
28,-363,0,0,0,0,0,0,0,0,0,-1,1252,1387,0,0
35,-363,0,0,0,0,0,0,0,0,0,-1,1259,1387,0,0
42,-363,0,0,0,0,0,0,0,0,0,-1,1266,1387,0,0
49,-363,0,0,0,0,0,0,0,0,0,-1,1273,1387,0,0
56,-363,0,0,0,0,0,0,0,0,0,-1,1280,1387,0,0
63,-363,0,0,0,0,0,0,0,0,0,-1,1287,1387,0,0
70,-363,0,0,0,0,0,0,0,0,0,-1,1294,1387,0,0
77,-363,0,0,0,0,0,0,0,0,0,-1,1301,1387,0,0
84,-363,0,0,0,0,0,0,0,0,0,-1,1308,1387,0,0
91,-363,0,0,0,0,0,0,0,0,0,-1,1315,1387,0,0
98,-363,0,0,0,0,0,0,0,0,0,-1,1322,1387,0,0
105,-363,0,0,0,0,0,0,0,0,0,-1,1329,1387,0,0
112,-363,0,0,0,0,0,0,0,0,0,-1,1336,1387,0,0
119,-363,0,0,0,0,0,0,0,0,0,-1,1343,1387,0,0
126,-363,0,0,0,0,0,0,0,0,0,-1,1350,1387,0,0
133,-363,0,0,0,0,0,0,0,0,0,-1,1357,1387,0,0
140,-363,0,0,0,0,0,0,0,0,0,-1,1364,1387,0,0
147,-363,0,0,0,0,0,0,0,0,0,-1,1371,1387,0,0
154,-363,0,0,0,0,0,0,0,0,0,-1,1378,1387,0,0
161,-363,0,0,0,0,0,0,0,0,0,-1,1385,1387,0,0
168,-363,0,0,0,0,0,0,0,0,0,-1,1392,1387,0,0
175,-363,0,0,0,0,0,0,0,0,0,-1,1399,1387,0,0
182,-363,0,0,0,0,0,0,0,0,0,-1,1406,1387,0,0
189,-363,0,0,0,0,0,0,0,0,0,-1,1413,1387,0,0
196,-363,0,0,0,0,0,0,0,0,0,-1,1420,1387,0,0
203,-363,0,0,0,0,0,0,0,0,0,-1,1427,1387,0,0
210,-363,0,0,0,0,0,0,0,0,0,-1,1434,1387,0,0
217,-363,0,0,0,0,0,0,0,0,0,-1,1441,1387,0,0
224,-363,0,0,0,0,0,0,0,0,0,-1,1448,1387,0,0
231,-363,0,0,0,0,0,0,0,0,0,-1,1455,1387,0,0
238,-363,0,0,0,0,0,0,0,0,0,-1,1462,1387,0,0
245,-363,0,0,0,0,0,0,0,0,0,-1,1469,1387,0,0
252,-363,0,0,0,0,0,0,0,0,0,-1,1476,1387,0,0
259,-363,0,0,0,0,0,0,0,0,0,-1,1483,1387,0,0
266,-363,0,0,0,0,0,0,0,0,0,-1,1490,1387,0,0
273,-363,0,0,0,0,0,0,0,0,0,-1,1497,1387,0,0
280,-363,0,0,0,0,0,0,0,0,0,-1,1504,1387,0,0
287,-363,0,0,0,0,0,0,0,0,0,-1,1511,1387,0,0
294,-363,0,0,0,0,0,0,0,0,0,-1,1518,1387,0,0
301,-363,0,0,0,0,0,0,0,0,0,-1,1525,1387,0,0
308,-363,0,0,0,0,0,0,0,0,0,-1,1532,1387,0,0
315,-363,0,0,0,0,0,0,0,0,0,-1,1539,1387,0,0
322,-363,0,0,0,0,0,0,0,0,0,-1,1546,1387,0,0
329,-363,0,0,0,0,0,0,0,0,0,-1,1553,1387,0,0
336,-363,0,0,0,0,0,0,0,0,0,-1,1560,1387,0,0
343,-363,0,0,0,0,0,0,0,0,0,-1,1567,1387,0,0
350,-363,0,0,0,0,0,0,0,0,0,-1,1574,1387,0,0
357,-363,0,0,0,0,0,0,0,0,0,-1,1581,1387,0,0
364,-363,0,0,0,0,0,0,0,0,0,-1,1588,1387,0,0
371,-363,0,0,0,0,0,0,0,0,0,-1,1595,1387,0,0
378,-363,0,0,0,0,0,0,0,0,0,-1,1602,1387,0,0
385,-363,0,0,0,0,0,0,0,0,0,-1,1609,1387,0,0
392,-363,0,0,0,0,0,0,0,0,0,-1,1616,1387,0,0
399,-363,0,0,0,0,0,0,0,0,0,-1,1623,1387,0,0
406,-363,0,0,0,0,0,0,0,0,0,-1,1630,1387,0,0
413,-363,0,0,0,0,0,0,0,0,0,-1,1637,1387,0,0
420,-363,0,0,0,0,0,0,0,0,0,-1,1644,1387,0,0
427,-363,0,0,0,0,0,0,0,0,0,-1,1651,1387,0,0
434,-363,0,0,0,0,0,0,0,0,0,-1,1658,1387,0,0
441,-363,0,0,0,0,0,0,0,0,0,-1,1665,1387,0,0
448,-363,0,0,0,0,0,0,0,0,0,-1,1672,1387,0,0
455,-363,0,0,0,0,0,0,0,0,0,-1,1679,1387,0,0
462,-363,0,0,0,0,0,0,0,0,0,-1,1686,1387,0,0
469,-363,0,0,0,0,0,0,0,0,0,-1,1693,1387,0,0
476,-363,0,0,0,0,0,0,0,0,0,-1,1700,1387,0,0
483,-363,0,0,0,0,0,0,0,0,0,-1,1707,1387,0,0
490,-363,0,0,0,0,0,0,0,0,0,-1,1714,1387,0,0
497,-363,0,0,0,0,0,0,0,0,0,-1,1721,1387,0,0
504,-363,0,0,0,0,0,0,0,0,0,-1,1728,1387,0,0
511,-363,0,0,0,0,0,0,0,0,0,-1,1735,1387,0,0
518,-363,0,0,0,0,0,0,0,0,0,-1,1742,1387,0,0
525,-363,0,0,0,0,0,0,0,0,0,-1,1749,1387,0,0
532,-363,0,0,0,0,0,0,0,0,0,-1,1756,1387,0,0
539,-363,0,0,0,0,0,0,0,0,0,-1,1763,1387,0,0
546,-363,0,0,0,0,0,0,0,0,0,-1,1770,1387,0,0
553,-363,45.9076,3.64331,0,0,0,0,0,0,0,-1,1777,1387,45.9076,-3.64336
560,-363,45.9459,3.6875,0,0,0,0,0,0,0,-1,1784,1387,45.9459,-3.68756
567,-363,45.9266,3.32825,0,0,0,0,0,0,0,-1,1791,1387,45.9266,-3.32824
574,-363,45.7261,2.8075,0,0,0,0,0,0,0,-1,1798,1387,45.7261,-2.80754
581,-363,39.2413,1.97632,0,0,0,0,0,0,0,-1,1805,1387,39.2413,-1.97636
588,-363,32.5608,6.72131,0,0,0,0,0,0,0,-1,1812,1387,32.5608,-6.72131
595,-363,31.4688,6.95435,0,0,0,0,0,0,0,-1,1819,1387,31.4688,-6.95431
602,-363,25.7437,5.33667,0,0,0,0,0,0,0,-1,1826,1387,25.7437,-5.33667
609,-363,27.7048,7.06885,0,0,0,0,0,0,0,-1,1833,1387,27.7048,-7.06882
616,-363,16.229,1.08704,0,0,0,0,0,0,0,-1,1840,1387,16.229,-1.08706
623,-363,15.7283,7.16663,0,0,0,0,0,0,0,-1,1847,1387,15.7282,-7.16665
630,-363,18.3192,9.27844,0,0,0,0,0,0,0,-1,1854,1387,18.3192,-9.27843
637,-363,28.3831,13.9463,0,0,0,0,0,0,0,-1,1861,1387,28.383,-13.9463
644,-363,28.4124,13.3359,6.24285e-05,0.00105822,-0.0014917,0.00213293,-0.00101228,-0.946473,0.00185391,0.0159232,1868,1387,28.4124,-13.3359
651,-363,28.4282,12.7887,5.76389e-05,0.000687684,-0.000928947,0.00135357,-0.000608247,-0.948872,0.00115958,0.011098,1875,1387,28.4282,-12.7887
658,-363,28.4154,12.2911,0.000317955,0.000295036,-0.000447099,0.000753741,-0.00014075,-0.772586,0.000555388,0.0115793,1882,1387,28.4155,-12.2911
665,-363,28.3823,11.8549,0.000634115,-5.81339e-05,-5.48066e-05,0.000638427,-6.24462e-05,-0.0785199,0.000447887,0.0122858,1889,1387,28.3823,-11.8549
672,-363,28.3733,11.3994,0.000977393,-0.000385308,0.000304816,0.00104247,-0.000450383,0.210332,0.000884206,0.0144677,1896,1387,28.3733,-11.3994
679,-363,28.3485,10.9115,0.0013803,-0.000664941,0.000599319,0.00154298,-0.000827621,0.265054,0.00138928,0.015707,1903,1387,28.3485,-10.9115
686,-363,28.3386,10.4282,0.00181277,-0.000934328,0.000859114,0.00205931,-0.00118088,0.279469,0.0018935,0.014978,1910,1387,28.3387,-10.4282
693,-363,28.3339,9.94043,0.00228624,-0.00117704,0.00107494,0.00259275,-0.00148356,0.277774,0.00238233,0.0135427,1917,1387,28.3338,-9.94047
700,-363,28.4515,9.40051,0.00282892,-0.0013268,0.0012058,0.00315345,-0.00165133,0.262907,0.00281886,0.024913,1924,1387,28.4516,-9.40054
707,-363,28.6979,8.90247,0,0,0,0,0,0,0,-1,1931,1387,28.6979,-8.90241
714,-363,16.5782,5.3147,0,0,0,0,0,0,0,-1,1938,1387,16.5783,-5.31472
721,-363,14.4045,4.51685,0,0,0,0,0,0,0,-1,1945,1387,14.4045,-4.51685
728,-363,19.9756,0.853027,0,0,0,0,0,0,0,-1,1952,1387,19.9756,-0.853059
735,-363,21.4297,1.2981,0,0,0,0,0,0,0,-1,1959,1387,21.4297,-1.29811
742,-363,21.3621,2.79663,0,0,0,0,0,0,0,-1,1966,1387,21.362,-2.7966
749,-363,0,0,0,0,0,0,0,0,0,-1,1973,1387,0,0
756,-363,0,0,0,0,0,0,0,0,0,-1,1980,1387,0,0
763,-363,0,0,0,0,0,0,0,0,0,-1,1987,1387,0,0
770,-363,0,0,0,0,0,0,0,0,0,-1,1994,1387,0,0
777,-363,0,0,0,0,0,0,0,0,0,-1,2001,1387,0,0
784,-363,0,0,0,0,0,0,0,0,0,-1,2008,1387,0,0
791,-363,0,0,0,0,0,0,0,0,0,-1,2015,1387,0,0
798,-363,0,0,0,0,0,0,0,0,0,-1,2022,1387,0,0
805,-363,0,0,0,0,0,0,0,0,0,-1,2029,1387,0,0
812,-363,0,0,0,0,0,0,0,0,0,-1,2036,1387,0,0
-700,-370,0,0,0,0,0,0,0,0,0,-1,524,1394,0,0
-693,-370,0,0,0,0,0,0,0,0,0,-1,531,1394,0,0
-686,-370,0,0,0,0,0,0,0,0,0,-1,538,1394,0,0
-679,-370,0,0,0,0,0,0,0,0,0,-1,545,1394,0,0
-672,-370,0,0,0,0,0,0,0,0,0,-1,552,1394,0,0
-665,-370,0,0,0,0,0,0,0,0,0,-1,559,1394,0,0
-658,-370,0,0,0,0,0,0,0,0,0,-1,566,1394,0,0
-651,-370,0,0,0,0,0,0,0,0,0,-1,573,1394,0,0
-644,-370,0,0,0,0,0,0,0,0,0,-1,580,1394,0,0
-637,-370,0,0,0,0,0,0,0,0,0,-1,587,1394,0,0
-630,-370,0,0,0,0,0,0,0,0,0,-1,594,1394,0,0
-623,-370,-10.1758,-7.10486,0,0,0,0,0,0,0,-1,601,1394,-10.1758,7.10483
-616,-370,-8.85925,-1.61475,0,0,0,0,0,0,0,-1,608,1394,-8.85925,1.61476
-609,-370,-5.39325,0.0421143,0,0,0,0,0,0,0,-1,615,1394,-5.39328,-0.0421372
-602,-370,-12.3151,3.44592,0,0,0,0,0,0,0,-1,622,1394,-12.3151,-3.44595
-595,-370,-7.53284,5.44214,0,0,0,0,0,0,0,-1,629,1394,-7.53284,-5.44216
-588,-370,-11.2422,4.50598,0,0,0,0,0,0,0,-1,636,1394,-11.2422,-4.50596
-581,-370,-13.1575,5.84888,0,0,0,0,0,0,0,-1,643,1394,-13.1575,-5.84887
-574,-370,-13.0107,6.69861,0,0,0,0,0,0,0,-1,650,1394,-13.0108,-6.69866
-567,-370,-13.8112,7.17383,0,0,0,0,0,0,0,-1,657,1394,-13.8112,-7.17388
-560,-370,-13.8282,7.77722,0.00226019,0.000659104,0.000593329,0.00245609,0.000463198,0.318909,0.00150691,0.025161,664,1394,-13.8282,-7.77717
-553,-370,-13.776,8.34875,0.00209216,0.00048131,0.000576197,0.00227704,0.000296426,0.310492,0.0014295,0.0107727,671,1394,-13.776,-8.3487
-546,-370,-13.7693,8.88049,0.00215281,0.000346797,0.000662131,0.00236955,0.000130054,0.316348,0.00153818,0.0140517,678,1394,-13.7693,-8.88048
-539,-370,-13.7844,9.45154,0.00243174,0.000284308,0.000855631,0.00273096,-1.49182e-05,0.33642,0.00182564,0.0182208,685,1394,-13.7844,-9.45159
-532,-370,-13.8423,9.94629,0.00294888,0.00031174,0.00118296,0.00340175,-0.000141133,0.36562,0.00231631,0.0211501,692,1394,-13.8424,-9.94631
-525,-370,-13.8352,10.4432,0.00373956,0.000501018,0.0017121,0.00447684,-0.00023626,0.406628,0.00306635,0.0169518,699,1394,-13.8352,-10.4432
-518,-370,-13.8396,10.9594,0.00476093,0.000848409,0.00241489,0.00591251,-0.000303171,0.444969,0.00404652,0.012006,706,1394,-13.8396,-10.9593
-511,-370,-13.842,11.521,0.00606614,0.00134915,0.0033123,0.00777382,-0.000358534,0.476017,0.0053061,0.0146504,713,1394,-13.842,-11.521
-504,-370,-13.8351,12.1084,0,0,0,0,0,0,0,-1,720,1394,-13.8351,-12.1084
-497,-370,-12.3546,11.7982,0,0,0,0,0,0,0,-1,727,1394,-12.3546,-11.7983
-490,-370,-5.30695,4.5271,0,0,0,0,0,0,0,-1,734,1394,-5.30698,-4.52704
-483,-370,-6.02997,4.59253,0,0,0,0,0,0,0,-1,741,1394,-6.02994,-4.5925
-476,-370,-6.75293,4.65796,0,0,0,0,0,0,0,-1,748,1394,-6.7529,-4.65795
-469,-370,-10.584,1.14294,0,0,0,0,0,0,0,-1,755,1394,-10.584,-1.14293
-462,-370,-9.54462,0.387207,0,0,0,0,0,0,0,-1,762,1394,-9.5446,-0.387176
-455,-370,-8.50525,-0.36853,0,0,0,0,0,0,0,-1,769,1394,-8.50523,0.368582
-448,-370,-10.9543,2.28833,0,0,0,0,0,0,0,-1,776,1394,-10.9543,-2.28835
-441,-370,-11.8699,1.8313,0,0,0,0,0,0,0,-1,783,1394,-11.8699,-1.83127
-434,-370,-12.7855,1.37415,0,0,0,0,0,0,0,-1,790,1394,-12.7855,-1.37419
-427,-370,0,0,0,0,0,0,0,0,0,-1,797,1394,0,0
-420,-370,0,0,0,0,0,0,0,0,0,-1,804,1394,0,0
-413,-370,0,0,0,0,0,0,0,0,0,-1,811,1394,0,0
-406,-370,0,0,0,0,0,0,0,0,0,-1,818,1394,0,0
-399,-370,0,0,0,0,0,0,0,0,0,-1,825,1394,0,0
-392,-370,0,0,0,0,0,0,0,0,0,-1,832,1394,0,0
-385,-370,0,0,0,0,0,0,0,0,0,-1,839,1394,0,0
-378,-370,0,0,0,0,0,0,0,0,0,-1,846,1394,0,0
-371,-370,0,0,0,0,0,0,0,0,0,-1,853,1394,0,0
-364,-370,0,0,0,0,0,0,0,0,0,-1,860,1394,0,0
-357,-370,0,0,0,0,0,0,0,0,0,-1,867,1394,0,0
-350,-370,0,0,0,0,0,0,0,0,0,-1,874,1394,0,0
-343,-370,0,0,0,0,0,0,0,0,0,-1,881,1394,0,0
-336,-370,0,0,0,0,0,0,0,0,0,-1,888,1394,0,0
-329,-370,0,0,0,0,0,0,0,0,0,-1,895,1394,0,0
-322,-370,0,0,0,0,0,0,0,0,0,-1,902,1394,0,0
-315,-370,0,0,0,0,0,0,0,0,0,-1,909,1394,0,0
-308,-370,0,0,0,0,0,0,0,0,0,-1,916,1394,0,0
-301,-370,0,0,0,0,0,0,0,0,0,-1,923,1394,0,0
-294,-370,0,0,0,0,0,0,0,0,0,-1,930,1394,0,0
-287,-370,0,0,0,0,0,0,0,0,0,-1,937,1394,0,0
-280,-370,0,0,0,0,0,0,0,0,0,-1,944,1394,0,0
-273,-370,0,0,0,0,0,0,0,0,0,-1,951,1394,0,0
-266,-370,0,0,0,0,0,0,0,0,0,-1,958,1394,0,0
-259,-370,0,0,0,0,0,0,0,0,0,-1,965,1394,0,0
-252,-370,0,0,0,0,0,0,0,0,0,-1,972,1394,0,0
-245,-370,0,0,0,0,0,0,0,0,0,-1,979,1394,0,0
-238,-370,0,0,0,0,0,0,0,0,0,-1,986,1394,0,0
-231,-370,0,0,0,0,0,0,0,0,0,-1,993,1394,0,0
-224,-370,0,0,0,0,0,0,0,0,0,-1,1000,1394,0,0
-217,-370,0,0,0,0,0,0,0,0,0,-1,1007,1394,0,0
-210,-370,0,0,0,0,0,0,0,0,0,-1,1014,1394,0,0
-203,-370,0,0,0,0,0,0,0,0,0,-1,1021,1394,0,0
-196,-370,0,0,0,0,0,0,0,0,0,-1,1028,1394,0,0
-189,-370,0,0,0,0,0,0,0,0,0,-1,1035,1394,0,0
-182,-370,0,0,0,0,0,0,0,0,0,-1,1042,1394,0,0
-175,-370,0,0,0,0,0,0,0,0,0,-1,1049,1394,0,0
-168,-370,0,0,0,0,0,0,0,0,0,-1,1056,1394,0,0
-161,-370,0,0,0,0,0,0,0,0,0,-1,1063,1394,0,0
-154,-370,0,0,0,0,0,0,0,0,0,-1,1070,1394,0,0
-147,-370,0,0,0,0,0,0,0,0,0,-1,1077,1394,0,0
-140,-370,0,0,0,0,0,0,0,0,0,-1,1084,1394,0,0
-133,-370,0,0,0,0,0,0,0,0,0,-1,1091,1394,0,0
-126,-370,0,0,0,0,0,0,0,0,0,-1,1098,1394,0,0
-119,-370,0,0,0,0,0,0,0,0,0,-1,1105,1394,0,0
-112,-370,0,0,0,0,0,0,0,0,0,-1,1112,1394,0,0
-105,-370,0,0,0,0,0,0,0,0,0,-1,1119,1394,0,0
-98,-370,0,0,0,0,0,0,0,0,0,-1,1126,1394,0,0
-91,-370,0,0,0,0,0,0,0,0,0,-1,1133,1394,0,0
-84,-370,0,0,0,0,0,0,0,0,0,-1,1140,1394,0,0
-77,-370,0,0,0,0,0,0,0,0,0,-1,1147,1394,0,0
-70,-370,0,0,0,0,0,0,0,0,0,-1,1154,1394,0,0
-63,-370,0,0,0,0,0,0,0,0,0,-1,1161,1394,0,0
-56,-370,0,0,0,0,0,0,0,0,0,-1,1168,1394,0,0
-49,-370,0,0,0,0,0,0,0,0,0,-1,1175,1394,0,0
-42,-370,0,0,0,0,0,0,0,0,0,-1,1182,1394,0,0
-35,-370,0,0,0,0,0,0,0,0,0,-1,1189,1394,0,0
-28,-370,0,0,0,0,0,0,0,0,0,-1,1196,1394,0,0
-21,-370,0,0,0,0,0,0,0,0,0,-1,1203,1394,0,0
-14,-370,0,0,0,0,0,0,0,0,0,-1,1210,1394,0,0
-7,-370,0,0,0,0,0,0,0,0,0,-1,1217,1394,0,0
0,-370,0,0,0,0,0,0,0,0,0,-1,1224,1394,0,0
7,-370,0,0,0,0,0,0,0,0,0,-1,1231,1394,0,0
14,-370,0,0,0,0,0,0,0,0,0,-1,1238,1394,0,0
21,-370,0,0,0,0,0,0,0,0,0,-1,1245,1394,0,0
28,-370,0,0,0,0,0,0,0,0,0,-1,1252,1394,0,0
35,-370,0,0,0,0,0,0,0,0,0,-1,1259,1394,0,0
42,-370,0,0,0,0,0,0,0,0,0,-1,1266,1394,0,0
49,-370,0,0,0,0,0,0,0,0,0,-1,1273,1394,0,0
56,-370,0,0,0,0,0,0,0,0,0,-1,1280,1394,0,0
63,-370,0,0,0,0,0,0,0,0,0,-1,1287,1394,0,0
70,-370,0,0,0,0,0,0,0,0,0,-1,1294,1394,0,0
77,-370,0,0,0,0,0,0,0,0,0,-1,1301,1394,0,0
84,-370,0,0,0,0,0,0,0,0,0,-1,1308,1394,0,0
91,-370,0,0,0,0,0,0,0,0,0,-1,1315,1394,0,0
98,-370,0,0,0,0,0,0,0,0,0,-1,1322,1394,0,0
105,-370,0,0,0,0,0,0,0,0,0,-1,1329,1394,0,0
112,-370,0,0,0,0,0,0,0,0,0,-1,1336,1394,0,0
119,-370,0,0,0,0,0,0,0,0,0,-1,1343,1394,0,0
126,-370,0,0,0,0,0,0,0,0,0,-1,1350,1394,0,0
133,-370,0,0,0,0,0,0,0,0,0,-1,1357,1394,0,0
140,-370,0,0,0,0,0,0,0,0,0,-1,1364,1394,0,0
147,-370,0,0,0,0,0,0,0,0,0,-1,1371,1394,0,0
154,-370,0,0,0,0,0,0,0,0,0,-1,1378,1394,0,0
161,-370,0,0,0,0,0,0,0,0,0,-1,1385,1394,0,0
168,-370,0,0,0,0,0,0,0,0,0,-1,1392,1394,0,0
175,-370,0,0,0,0,0,0,0,0,0,-1,1399,1394,0,0
182,-370,0,0,0,0,0,0,0,0,0,-1,1406,1394,0,0
189,-370,0,0,0,0,0,0,0,0,0,-1,1413,1394,0,0
196,-370,0,0,0,0,0,0,0,0,0,-1,1420,1394,0,0
203,-370,0,0,0,0,0,0,0,0,0,-1,1427,1394,0,0
210,-370,0,0,0,0,0,0,0,0,0,-1,1434,1394,0,0
217,-370,0,0,0,0,0,0,0,0,0,-1,1441,1394,0,0
224,-370,0,0,0,0,0,0,0,0,0,-1,1448,1394,0,0
231,-370,0,0,0,0,0,0,0,0,0,-1,1455,1394,0,0
238,-370,0,0,0,0,0,0,0,0,0,-1,1462,1394,0,0
245,-370,0,0,0,0,0,0,0,0,0,-1,1469,1394,0,0
252,-370,0,0,0,0,0,0,0,0,0,-1,1476,1394,0,0
259,-370,0,0,0,0,0,0,0,0,0,-1,1483,1394,0,0
266,-370,0,0,0,0,0,0,0,0,0,-1,1490,1394,0,0
273,-370,0,0,0,0,0,0,0,0,0,-1,1497,1394,0,0
280,-370,0,0,0,0,0,0,0,0,0,-1,1504,1394,0,0
287,-370,0,0,0,0,0,0,0,0,0,-1,1511,1394,0,0
294,-370,0,0,0,0,0,0,0,0,0,-1,1518,1394,0,0
301,-370,0,0,0,0,0,0,0,0,0,-1,1525,1394,0,0
308,-370,0,0,0,0,0,0,0,0,0,-1,1532,1394,0,0
315,-370,0,0,0,0,0,0,0,0,0,-1,1539,1394,0,0
322,-370,0,0,0,0,0,0,0,0,0,-1,1546,1394,0,0
329,-370,0,0,0,0,0,0,0,0,0,-1,1553,1394,0,0
336,-370,0,0,0,0,0,0,0,0,0,-1,1560,1394,0,0
343,-370,0,0,0,0,0,0,0,0,0,-1,1567,1394,0,0
350,-370,0,0,0,0,0,0,0,0,0,-1,1574,1394,0,0
357,-370,0,0,0,0,0,0,0,0,0,-1,1581,1394,0,0
364,-370,0,0,0,0,0,0,0,0,0,-1,1588,1394,0,0
371,-370,0,0,0,0,0,0,0,0,0,-1,1595,1394,0,0
378,-370,0,0,0,0,0,0,0,0,0,-1,1602,1394,0,0
385,-370,0,0,0,0,0,0,0,0,0,-1,1609,1394,0,0
392,-370,0,0,0,0,0,0,0,0,0,-1,1616,1394,0,0
399,-370,0,0,0,0,0,0,0,0,0,-1,1623,1394,0,0
406,-370,0,0,0,0,0,0,0,0,0,-1,1630,1394,0,0
413,-370,0,0,0,0,0,0,0,0,0,-1,1637,1394,0,0
420,-370,0,0,0,0,0,0,0,0,0,-1,1644,1394,0,0
427,-370,0,0,0,0,0,0,0,0,0,-1,1651,1394,0,0
434,-370,0,0,0,0,0,0,0,0,0,-1,1658,1394,0,0
441,-370,0,0,0,0,0,0,0,0,0,-1,1665,1394,0,0
448,-370,0,0,0,0,0,0,0,0,0,-1,1672,1394,0,0
455,-370,0,0,0,0,0,0,0,0,0,-1,1679,1394,0,0
462,-370,0,0,0,0,0,0,0,0,0,-1,1686,1394,0,0
469,-370,0,0,0,0,0,0,0,0,0,-1,1693,1394,0,0
476,-370,0,0,0,0,0,0,0,0,0,-1,1700,1394,0,0
483,-370,0,0,0,0,0,0,0,0,0,-1,1707,1394,0,0
490,-370,0,0,0,0,0,0,0,0,0,-1,1714,1394,0,0
497,-370,0,0,0,0,0,0,0,0,0,-1,1721,1394,0,0
504,-370,0,0,0,0,0,0,0,0,0,-1,1728,1394,0,0
511,-370,0,0,0,0,0,0,0,0,0,-1,1735,1394,0,0
518,-370,0,0,0,0,0,0,0,0,0,-1,1742,1394,0,0
525,-370,0,0,0,0,0,0,0,0,0,-1,1749,1394,0,0
532,-370,0,0,0,0,0,0,0,0,0,-1,1756,1394,0,0
539,-370,0,0,0,0,0,0,0,0,0,-1,1763,1394,0,0
546,-370,27.4949,2.81201,0,0,0,0,0,0,0,-1,1770,1394,27.4948,-2.81198
553,-370,26.5985,1.99329,0,0,0,0,0,0,0,-1,1777,1394,26.5985,-1.99327
560,-370,46.0132,3.65686,0,0,0,0,0,0,0,-1,1784,1394,46.0132,-3.65689
567,-370,46.1089,3.11719,0,0,0,0,0,0,0,-1,1791,1394,46.1089,-3.1172
574,-370,38.8953,1.49353,0,0,0,0,0,0,0,-1,1798,1394,38.8952,-1.49348
581,-370,39.178,2.86145,0,0,0,0,0,0,0,-1,1805,1394,39.1779,-2.86145
588,-370,39.2102,4.27661,0,0,0,0,0,0,0,-1,1812,1394,39.2102,-4.27657
595,-370,25.793,4.5271,0,0,0,0,0,0,0,-1,1819,1394,25.793,-4.52711
602,-370,25.1077,5.34937,0,0,0,0,0,0,0,-1,1826,1394,25.1077,-5.34932
609,-370,16.712,0.993286,0,0,0,0,0,0,0,-1,1833,1394,16.7121,-0.99323
616,-370,16.7764,7.23315,0,0,0,0,0,0,0,-1,1840,1394,16.7764,-7.23313
623,-370,17.6625,8.94263,0,0,0,0,0,0,0,-1,1847,1394,17.6624,-8.94258
630,-370,20.9681,11.1785,0,0,0,0,0,0,0,-1,1854,1394,20.9681,-11.1784
637,-370,27.7234,14.0597,0,0,0,0,0,0,0,-1,1861,1394,27.7233,-14.0597
644,-370,27.959,13.3018,0.000105704,0.00082546,-0.00116323,0.00168321,-0.000752045,-0.935417,0.00143985,0.0143883,1868,1394,27.959,-13.3018
651,-370,27.938,12.8055,0.000176227,0.000503589,-0.000691213,0.00105024,-0.000370421,-0.901658,0.000850944,0.0123515,1875,1394,27.9379,-12.8056
658,-370,27.9159,12.3409,0.000434745,0.00015619,-0.000254365,0.000585467,5.46756e-06,-0.534919,0.000388502,0.0115396,1882,1394,27.9159,-12.341
665,-370,27.905,11.8851,0.000726181,-0.000168539,0.000146929,0.000749692,-0.00019205,0.158668,0.000574611,0.0137073,1889,1394,27.905,-11.8851
672,-370,27.8873,11.4004,0.001048,-0.000505653,0.000549357,0.00122262,-0.000680274,0.307765,0.00111341,0.0161489,1896,1394,27.8874,-11.4004
679,-370,27.8937,10.8982,0.00142877,-0.000827621,0.000921162,0.00175707,-0.00115592,0.342358,0.00169371,0.0156129,1903,1394,27.8937,-10.8982
686,-370,27.8722,10.4338,0.00183406,-0.00120146,0.00129793,0.00231335,-0.00168075,0.35374,0.00231562,0.0147728,1910,1394,27.8722,-10.4338
693,-370,27.8473,9.92358,0.00230621,-0.00159257,0.00164561,0.00290793,-0.00219429,0.350549,0.00295536,0.0124413,1917,1394,27.8472,-9.92358
700,-370,27.9618,9.37231,0.00288036,-0.00196819,0.00193299,0.00355666,-0.00264449,0.336561,0.00359313,0.0324586,1924,1394,27.9618,-9.37227
707,-370,28.1693,8.77332,0,0,0,0,0,0,0,-1,1931,1394,28.1693,-8.77327
714,-370,16.9116,5.93018,0,0,0,0,0,0,0,-1,1938,1394,16.9116,-5.93014
721,-370,17.2007,4.69153,0,0,0,0,0,0,0,-1,1945,1394,17.2007,-4.69158
728,-370,20.5315,-0.313354,0,0,0,0,0,0,0,-1,1952,1394,20.5315,0.313332
735,-370,22.3652,0.233398,0,0,0,0,0,0,0,-1,1959,1394,22.3652,-0.233355
742,-370,24.1989,0.780029,0,0,0,0,0,0,0,-1,1966,1394,24.1989,-0.780041
749,-370,0,0,0,0,0,0,0,0,0,-1,1973,1394,0,0
756,-370,0,0,0,0,0,0,0,0,0,-1,1980,1394,0,0
763,-370,0,0,0,0,0,0,0,0,0,-1,1987,1394,0,0
770,-370,0,0,0,0,0,0,0,0,0,-1,1994,1394,0,0
777,-370,0,0,0,0,0,0,0,0,0,-1,2001,1394,0,0
784,-370,0,0,0,0,0,0,0,0,0,-1,2008,1394,0,0
791,-370,0,0,0,0,0,0,0,0,0,-1,2015,1394,0,0
798,-370,0,0,0,0,0,0,0,0,0,-1,2022,1394,0,0
805,-370,0,0,0,0,0,0,0,0,0,-1,2029,1394,0,0
812,-370,0,0,0,0,0,0,0,0,0,-1,2036,1394,0,0
-700,-377,0,0,0,0,0,0,0,0,0,-1,524,1401,0,0
-693,-377,0,0,0,0,0,0,0,0,0,-1,531,1401,0,0
-686,-377,0,0,0,0,0,0,0,0,0,-1,538,1401,0,0
-679,-377,0,0,0,0,0,0,0,0,0,-1,545,1401,0,0
-672,-377,0,0,0,0,0,0,0,0,0,-1,552,1401,0,0
-665,-377,0,0,0,0,0,0,0,0,0,-1,559,1401,0,0
-658,-377,0,0,0,0,0,0,0,0,0,-1,566,1401,0,0
-651,-377,0,0,0,0,0,0,0,0,0,-1,573,1401,0,0
-644,-377,0,0,0,0,0,0,0,0,0,-1,580,1401,0,0
-637,-377,0,0,0,0,0,0,0,0,0,-1,587,1401,0,0
-630,-377,0,0,0,0,0,0,0,0,0,-1,594,1401,0,0
-623,-377,0,0,0,0,0,0,0,0,0,-1,601,1401,0,0
-616,-377,-9.43915,-2.4906,0,0,0,0,0,0,0,-1,608,1401,-9.43915,2.49062
-609,-377,-7.2821,-1.35278,0,0,0,0,0,0,0,-1,615,1401,-7.28208,1.35279
-602,-377,-14.9736,3.98279,0,0,0,0,0,0,0,-1,622,1401,-14.9737,-3.98276
-595,-377,-6.9082,1.18201,0,0,0,0,0,0,0,-1,629,1401,-6.90822,-1.18204
-588,-377,-12.8003,3.44751,0,0,0,0,0,0,0,-1,636,1401,-12.8003,-3.44754
-581,-377,-11.8243,6.21521,0,0,0,0,0,0,0,-1,643,1401,-11.8244,-6.21519
-574,-377,-12.2761,6.60547,0,0,0,0,0,0,0,-1,650,1401,-12.2761,-6.60552
-567,-377,-12.5818,7.31348,0,0,0,0,0,0,0,-1,657,1401,-12.5818,-7.3135
-560,-377,-13.3124,7.71301,0,0,0,0,0,0,0,-1,664,1401,-13.3124,-7.713
-553,-377,-13.2581,8.34888,0.00167196,0.000378065,0.00030812,0.00174159,0.000308438,0.222241,0.00107312,0.0148727,671,1401,-13.2581,-8.34891
-546,-377,-13.2697,8.93506,0.0016582,0.000258336,0.000378518,0.001754,0.000162542,0.247873,0.00111909,0.016251,678,1401,-13.2697,-8.935
-539,-377,-13.2693,9.4292,0.00183816,0.000217686,0.000545742,0.00200481,5.10304e-05,0.29638,0.00131986,0.0220516,685,1401,-13.2693,-9.42919
-532,-377,-13.3015,9.91943,0.00224915,0.00026611,0.000842202,0.00255856,-4.32982e-05,0.352074,0.00172032,0.0207656,692,1401,-13.3014,-9.91943
-525,-377,-13.267,10.4697,0.00292381,0.000484082,0.00133689,0.00351373,-0.000105844,0.415569,0.00237856,0.0209795,699,1401,-13.2669,-10.4697
-518,-377,-13.3127,10.9968,0.00385941,0.000883723,0.00202339,0.0048831,-0.000139965,0.468378,0.00330304,0.0138808,706,1401,-13.3127,-10.9968
-511,-377,-13.3311,11.5342,0.00516432,0.00151237,0.00298942,0.00684131,-0.000164627,0.511232,0.00461673,0.0113497,713,1401,-13.3311,-11.5342
-504,-377,-13.3469,12.0898,0.00682075,0.00243241,0.00424503,0.00940514,-0.000151984,0.546868,0.00632137,0.0145279,720,1401,-13.3469,-12.0898
-497,-377,-13.199,12.6614,0,0,0,0,0,0,0,-1,727,1401,-13.199,-12.6614
-490,-377,-8.88409,10.1245,0,0,0,0,0,0,0,-1,734,1401,-8.8841,-10.1245
-483,-377,-5.6524,5.07324,0,0,0,0,0,0,0,-1,741,1401,-5.6524,-5.07325
-476,-377,-6.11682,5.10535,0,0,0,0,0,0,0,-1,748,1401,-6.11681,-5.10537
-469,-377,-10.3211,1.9281,0,0,0,0,0,0,0,-1,755,1401,-10.3211,-1.92808
-462,-377,-9.2204,1.0022,0,0,0,0,0,0,0,-1,762,1401,-9.22039,-1.00218
-455,-377,-8.11969,0.0762939,0,0,0,0,0,0,0,-1,769,1401,-8.11968,-0.0762759
-448,-377,-9.05334,0.877319,0,0,0,0,0,0,0,-1,776,1401,-9.05332,-0.877324
-441,-377,-11.212,0.763428,0,0,0,0,0,0,0,-1,783,1401,-11.212,-0.763415
-434,-377,-11.0984,0.996216,0,0,0,0,0,0,0,-1,790,1401,-11.0984,-0.996265
-427,-377,-11.1733,1.25732,0,0,0,0,0,0,0,-1,797,1401,-11.1733,-1.25732
-420,-377,0,0,0,0,0,0,0,0,0,-1,804,1401,0,0
-413,-377,0,0,0,0,0,0,0,0,0,-1,811,1401,0,0
-406,-377,0,0,0,0,0,0,0,0,0,-1,818,1401,0,0
-399,-377,0,0,0,0,0,0,0,0,0,-1,825,1401,0,0
-392,-377,0,0,0,0,0,0,0,0,0,-1,832,1401,0,0
-385,-377,0,0,0,0,0,0,0,0,0,-1,839,1401,0,0
-378,-377,0,0,0,0,0,0,0,0,0,-1,846,1401,0,0
-371,-377,0,0,0,0,0,0,0,0,0,-1,853,1401,0,0
-364,-377,0,0,0,0,0,0,0,0,0,-1,860,1401,0,0
-357,-377,0,0,0,0,0,0,0,0,0,-1,867,1401,0,0
-350,-377,0,0,0,0,0,0,0,0,0,-1,874,1401,0,0
-343,-377,0,0,0,0,0,0,0,0,0,-1,881,1401,0,0
-336,-377,0,0,0,0,0,0,0,0,0,-1,888,1401,0,0
-329,-377,0,0,0,0,0,0,0,0,0,-1,895,1401,0,0
-322,-377,0,0,0,0,0,0,0,0,0,-1,902,1401,0,0
-315,-377,0,0,0,0,0,0,0,0,0,-1,909,1401,0,0
-308,-377,0,0,0,0,0,0,0,0,0,-1,916,1401,0,0
-301,-377,0,0,0,0,0,0,0,0,0,-1,923,1401,0,0
-294,-377,0,0,0,0,0,0,0,0,0,-1,930,1401,0,0
-287,-377,0,0,0,0,0,0,0,0,0,-1,937,1401,0,0
-280,-377,0,0,0,0,0,0,0,0,0,-1,944,1401,0,0
-273,-377,0,0,0,0,0,0,0,0,0,-1,951,1401,0,0
-266,-377,0,0,0,0,0,0,0,0,0,-1,958,1401,0,0
-259,-377,0,0,0,0,0,0,0,0,0,-1,965,1401,0,0
-252,-377,0,0,0,0,0,0,0,0,0,-1,972,1401,0,0
-245,-377,0,0,0,0,0,0,0,0,0,-1,979,1401,0,0
-238,-377,0,0,0,0,0,0,0,0,0,-1,986,1401,0,0
-231,-377,0,0,0,0,0,0,0,0,0,-1,993,1401,0,0
-224,-377,0,0,0,0,0,0,0,0,0,-1,1000,1401,0,0
-217,-377,0,0,0,0,0,0,0,0,0,-1,1007,1401,0,0
-210,-377,0,0,0,0,0,0,0,0,0,-1,1014,1401,0,0
-203,-377,0,0,0,0,0,0,0,0,0,-1,1021,1401,0,0
-196,-377,0,0,0,0,0,0,0,0,0,-1,1028,1401,0,0
-189,-377,0,0,0,0,0,0,0,0,0,-1,1035,1401,0,0
-182,-377,0,0,0,0,0,0,0,0,0,-1,1042,1401,0,0
-175,-377,0,0,0,0,0,0,0,0,0,-1,1049,1401,0,0
-168,-377,0,0,0,0,0,0,0,0,0,-1,1056,1401,0,0
-161,-377,0,0,0,0,0,0,0,0,0,-1,1063,1401,0,0
-154,-377,0,0,0,0,0,0,0,0,0,-1,1070,1401,0,0
-147,-377,0,0,0,0,0,0,0,0,0,-1,1077,1401,0,0
-140,-377,0,0,0,0,0,0,0,0,0,-1,1084,1401,0,0
-133,-377,0,0,0,0,0,0,0,0,0,-1,1091,1401,0,0
-126,-377,0,0,0,0,0,0,0,0,0,-1,1098,1401,0,0
-119,-377,0,0,0,0,0,0,0,0,0,-1,1105,1401,0,0
-112,-377,0,0,0,0,0,0,0,0,0,-1,1112,1401,0,0
-105,-377,0,0,0,0,0,0,0,0,0,-1,1119,1401,0,0
-98,-377,0,0,0,0,0,0,0,0,0,-1,1126,1401,0,0
-91,-377,0,0,0,0,0,0,0,0,0,-1,1133,1401,0,0
-84,-377,0,0,0,0,0,0,0,0,0,-1,1140,1401,0,0
-77,-377,0,0,0,0,0,0,0,0,0,-1,1147,1401,0,0
-70,-377,0,0,0,0,0,0,0,0,0,-1,1154,1401,0,0
-63,-377,0,0,0,0,0,0,0,0,0,-1,1161,1401,0,0
-56,-377,0,0,0,0,0,0,0,0,0,-1,1168,1401,0,0
-49,-377,0,0,0,0,0,0,0,0,0,-1,1175,1401,0,0
-42,-377,0,0,0,0,0,0,0,0,0,-1,1182,1401,0,0
-35,-377,0,0,0,0,0,0,0,0,0,-1,1189,1401,0,0
-28,-377,0,0,0,0,0,0,0,0,0,-1,1196,1401,0,0
-21,-377,0,0,0,0,0,0,0,0,0,-1,1203,1401,0,0
-14,-377,0,0,0,0,0,0,0,0,0,-1,1210,1401,0,0
-7,-377,0,0,0,0,0,0,0,0,0,-1,1217,1401,0,0
0,-377,0,0,0,0,0,0,0,0,0,-1,1224,1401,0,0
7,-377,0,0,0,0,0,0,0,0,0,-1,1231,1401,0,0
14,-377,0,0,0,0,0,0,0,0,0,-1,1238,1401,0,0
21,-377,0,0,0,0,0,0,0,0,0,-1,1245,1401,0,0
28,-377,0,0,0,0,0,0,0,0,0,-1,1252,1401,0,0
35,-377,0,0,0,0,0,0,0,0,0,-1,1259,1401,0,0
42,-377,0,0,0,0,0,0,0,0,0,-1,1266,1401,0,0
49,-377,0,0,0,0,0,0,0,0,0,-1,1273,1401,0,0
56,-377,0,0,0,0,0,0,0,0,0,-1,1280,1401,0,0
63,-377,0,0,0,0,0,0,0,0,0,-1,1287,1401,0,0
70,-377,0,0,0,0,0,0,0,0,0,-1,1294,1401,0,0
77,-377,0,0,0,0,0,0,0,0,0,-1,1301,1401,0,0
84,-377,0,0,0,0,0,0,0,0,0,-1,1308,1401,0,0
91,-377,0,0,0,0,0,0,0,0,0,-1,1315,1401,0,0
98,-377,0,0,0,0,0,0,0,0,0,-1,1322,1401,0,0
105,-377,0,0,0,0,0,0,0,0,0,-1,1329,1401,0,0
112,-377,0,0,0,0,0,0,0,0,0,-1,1336,1401,0,0
119,-377,0,0,0,0,0,0,0,0,0,-1,1343,1401,0,0
126,-377,0,0,0,0,0,0,0,0,0,-1,1350,1401,0,0
133,-377,0,0,0,0,0,0,0,0,0,-1,1357,1401,0,0
140,-377,0,0,0,0,0,0,0,0,0,-1,1364,1401,0,0
147,-377,0,0,0,0,0,0,0,0,0,-1,1371,1401,0,0
154,-377,0,0,0,0,0,0,0,0,0,-1,1378,1401,0,0
161,-377,0,0,0,0,0,0,0,0,0,-1,1385,1401,0,0
168,-377,0,0,0,0,0,0,0,0,0,-1,1392,1401,0,0
175,-377,0,0,0,0,0,0,0,0,0,-1,1399,1401,0,0
182,-377,0,0,0,0,0,0,0,0,0,-1,1406,1401,0,0
189,-377,0,0,0,0,0,0,0,0,0,-1,1413,1401,0,0
196,-377,0,0,0,0,0,0,0,0,0,-1,1420,1401,0,0
203,-377,0,0,0,0,0,0,0,0,0,-1,1427,1401,0,0
210,-377,0,0,0,0,0,0,0,0,0,-1,1434,1401,0,0
217,-377,0,0,0,0,0,0,0,0,0,-1,1441,1401,0,0
224,-377,0,0,0,0,0,0,0,0,0,-1,1448,1401,0,0
231,-377,0,0,0,0,0,0,0,0,0,-1,1455,1401,0,0
238,-377,0,0,0,0,0,0,0,0,0,-1,1462,1401,0,0
245,-377,0,0,0,0,0,0,0,0,0,-1,1469,1401,0,0
252,-377,0,0,0,0,0,0,0,0,0,-1,1476,1401,0,0
259,-377,0,0,0,0,0,0,0,0,0,-1,1483,1401,0,0
266,-377,0,0,0,0,0,0,0,0,0,-1,1490,1401,0,0
273,-377,0,0,0,0,0,0,0,0,0,-1,1497,1401,0,0
280,-377,0,0,0,0,0,0,0,0,0,-1,1504,1401,0,0
287,-377,0,0,0,0,0,0,0,0,0,-1,1511,1401,0,0
294,-377,0,0,0,0,0,0,0,0,0,-1,1518,1401,0,0
301,-377,0,0,0,0,0,0,0,0,0,-1,1525,1401,0,0
308,-377,0,0,0,0,0,0,0,0,0,-1,1532,1401,0,0
315,-377,0,0,0,0,0,0,0,0,0,-1,1539,1401,0,0
322,-377,0,0,0,0,0,0,0,0,0,-1,1546,1401,0,0
329,-377,0,0,0,0,0,0,0,0,0,-1,1553,1401,0,0
336,-377,0,0,0,0,0,0,0,0,0,-1,1560,1401,0,0
343,-377,0,0,0,0,0,0,0,0,0,-1,1567,1401,0,0
350,-377,0,0,0,0,0,0,0,0,0,-1,1574,1401,0,0
357,-377,0,0,0,0,0,0,0,0,0,-1,1581,1401,0,0
364,-377,0,0,0,0,0,0,0,0,0,-1,1588,1401,0,0
371,-377,0,0,0,0,0,0,0,0,0,-1,1595,1401,0,0
378,-377,0,0,0,0,0,0,0,0,0,-1,1602,1401,0,0
385,-377,0,0,0,0,0,0,0,0,0,-1,1609,1401,0,0
392,-377,0,0,0,0,0,0,0,0,0,-1,1616,1401,0,0
399,-377,0,0,0,0,0,0,0,0,0,-1,1623,1401,0,0
406,-377,0,0,0,0,0,0,0,0,0,-1,1630,1401,0,0
413,-377,0,0,0,0,0,0,0,0,0,-1,1637,1401,0,0
420,-377,0,0,0,0,0,0,0,0,0,-1,1644,1401,0,0
427,-377,0,0,0,0,0,0,0,0,0,-1,1651,1401,0,0
434,-377,0,0,0,0,0,0,0,0,0,-1,1658,1401,0,0
441,-377,0,0,0,0,0,0,0,0,0,-1,1665,1401,0,0
448,-377,0,0,0,0,0,0,0,0,0,-1,1672,1401,0,0
455,-377,0,0,0,0,0,0,0,0,0,-1,1679,1401,0,0
462,-377,0,0,0,0,0,0,0,0,0,-1,1686,1401,0,0
469,-377,0,0,0,0,0,0,0,0,0,-1,1693,1401,0,0
476,-377,0,0,0,0,0,0,0,0,0,-1,1700,1401,0,0
483,-377,0,0,0,0,0,0,0,0,0,-1,1707,1401,0,0
490,-377,0,0,0,0,0,0,0,0,0,-1,1714,1401,0,0
497,-377,0,0,0,0,0,0,0,0,0,-1,1721,1401,0,0
504,-377,0,0,0,0,0,0,0,0,0,-1,1728,1401,0,0
511,-377,0,0,0,0,0,0,0,0,0,-1,1735,1401,0,0
518,-377,0,0,0,0,0,0,0,0,0,-1,1742,1401,0,0
525,-377,0,0,0,0,0,0,0,0,0,-1,1749,1401,0,0
532,-377,0,0,0,0,0,0,0,0,0,-1,1756,1401,0,0
539,-377,0,0,0,0,0,0,0,0,0,-1,1763,1401,0,0
546,-377,27.8485,2.34094,0,0,0,0,0,0,0,-1,1770,1401,27.8486,-2.34091
553,-377,27.2189,2.42493,0,0,0,0,0,0,0,-1,1777,1401,27.2188,-2.42498
560,-377,38.3577,-2.15015,0,0,0,0,0,0,0,-1,1784,1401,38.3576,2.1501
567,-377,38.4889,-0.285645,0,0,0,0,0,0,0,-1,1791,1401,38.4889,0.2857
574,-377,38.6221,1.61694,0,0,0,0,0,0,0,-1,1798,1401,38.6221,-1.61689
581,-377,39.1818,3.76367,0,0,0,0,0,0,0,-1,1805,1401,39.1818,-3.76366
588,-377,25.882,4.35217,0,0,0,0,0,0,0,-1,1812,1401,25.8819,-4.3522
595,-377,25.5392,5.11804,0,0,0,0,0,0,0,-1,1819,1401,25.5392,-5.11808
602,-377,24.816,5.79126,0,0,0,0,0,0,0,-1,1826,1401,24.816,-5.79124
609,-377,15.0223,4.76135,0,0,0,0,0,0,0,-1,1833,1401,15.0224,-4.76129
616,-377,14.1842,5.78992,0,0,0,0,0,0,0,-1,1840,1401,14.1842,-5.78987
623,-377,15.8248,8.76721,0,0,0,0,0,0,0,-1,1847,1401,15.8248,-8.76725
630,-377,27.0983,14.5898,0,0,0,0,0,0,0,-1,1854,1401,27.0982,-14.5898
637,-377,27.3885,13.8621,0.000171389,0.000741071,-0.00101852,0.00151383,-0.000601371,-0.921745,0.00125852,0.0316843,1861,1401,27.3886,-13.862
644,-377,27.4828,13.3257,0.000248489,0.000592678,-0.000817901,0.00125639,-0.000415227,-0.88909,0.00100502,0.0136074,1868,1401,27.4828,-13.3257
651,-377,27.4366,12.8197,0.000333314,0.000326156,-0.000422221,0.000751971,-9.25011e-05,-0.78116,0.000534821,0.0137758,1875,1401,27.4367,-12.8197
658,-377,27.4188,12.3733,0.000540957,3.74171e-05,-2.51615e-05,0.000542211,3.61629e-05,-0.0498039,0.000350043,0.0141882,1882,1401,27.4189,-12.3733
665,-377,27.4398,11.8809,0.000791662,-0.000256266,0.000378397,0.000914013,-0.000378616,0.312729,0.000767342,0.0177326,1889,1401,27.4399,-11.8809
672,-377,27.4114,11.4067,0.00108313,-0.000601027,0.000824085,0.00141928,-0.000937172,0.387299,0.00136996,0.019495,1896,1401,27.4114,-11.4068
679,-377,27.3702,10.9354,0.00142045,-0.000965996,0.00128829,0.00198321,-0.00152875,0.411844,0.00203328,0.0193351,1903,1401,27.3703,-10.9354
686,-377,27.3806,10.4631,0.0017669,-0.0014625,0.00182579,0.00258957,-0.00228517,0.423338,0.00281626,0.0158369,1910,1401,27.3806,-10.4632
693,-377,27.3961,9.93591,0.00220491,-0.00203425,0.00237891,0.00327152,-0.00310086,0.421491,0.00367954,0.0147795,1917,1401,27.3961,-9.93587
700,-377,27.3584,9.54883,0.00278369,-0.00271334,0.00294935,0.00406668,-0.00399633,0.410315,0.00465524,0.04716,1924,1401,27.3585,-9.54887
707,-377,27.5404,9.08911,0,0,0,0,0,0,0,-1,1931,1401,27.5405,-9.08908
714,-377,16.5369,5.45959,0,0,0,0,0,0,0,-1,1938,1401,16.5369,-5.4596
721,-377,17.0913,5.42529,0,0,0,0,0,0,0,-1,1945,1401,17.0914,-5.42529
728,-377,14.5396,2.79724,0,0,0,0,0,0,0,-1,1952,1401,14.5396,-2.7972
735,-377,23.2977,-0.991089,0,0,0,0,0,0,0,-1,1959,1401,23.2978,0.991076
742,-377,0,0,0,0,0,0,0,0,0,-1,1966,1401,0,0
749,-377,0,0,0,0,0,0,0,0,0,-1,1973,1401,0,0
756,-377,0,0,0,0,0,0,0,0,0,-1,1980,1401,0,0
763,-377,0,0,0,0,0,0,0,0,0,-1,1987,1401,0,0
770,-377,0,0,0,0,0,0,0,0,0,-1,1994,1401,0,0
777,-377,0,0,0,0,0,0,0,0,0,-1,2001,1401,0,0
784,-377,0,0,0,0,0,0,0,0,0,-1,2008,1401,0,0
791,-377,0,0,0,0,0,0,0,0,0,-1,2015,1401,0,0
798,-377,0,0,0,0,0,0,0,0,0,-1,2022,1401,0,0
805,-377,0,0,0,0,0,0,0,0,0,-1,2029,1401,0,0
812,-377,0,0,0,0,0,0,0,0,0,-1,2036,1401,0,0
-700,-384,0,0,0,0,0,0,0,0,0,-1,524,1408,0,0
-693,-384,0,0,0,0,0,0,0,0,0,-1,531,1408,0,0
-686,-384,0,0,0,0,0,0,0,0,0,-1,538,1408,0,0
-679,-384,0,0,0,0,0,0,0,0,0,-1,545,1408,0,0
-672,-384,0,0,0,0,0,0,0,0,0,-1,552,1408,0,0
-665,-384,0,0,0,0,0,0,0,0,0,-1,559,1408,0,0
-658,-384,0,0,0,0,0,0,0,0,0,-1,566,1408,0,0
-651,-384,0,0,0,0,0,0,0,0,0,-1,573,1408,0,0
-644,-384,0,0,0,0,0,0,0,0,0,-1,580,1408,0,0
-637,-384,0,0,0,0,0,0,0,0,0,-1,587,1408,0,0
-630,-384,0,0,0,0,0,0,0,0,0,-1,594,1408,0,0
-623,-384,0,0,0,0,0,0,0,0,0,-1,601,1408,0,0
-616,-384,-10.019,-3.36646,0,0,0,0,0,0,0,-1,608,1408,-10.019,3.36648
-609,-384,-7.72357,-2.3418,0,0,0,0,0,0,0,-1,615,1408,-7.72358,2.34182
-602,-384,-11.7632,-2.85156,0,0,0,0,0,0,0,-1,622,1408,-11.7632,2.85157
-595,-384,-10.2217,2.8855,0,0,0,0,0,0,0,-1,629,1408,-10.2218,-2.88548
-588,-384,-12.1653,2.29041,0,0,0,0,0,0,0,-1,636,1408,-12.1654,-2.29038
-581,-384,-11.9297,3.60376,0,0,0,0,0,0,0,-1,643,1408,-11.9298,-3.6038
-574,-384,-11.8677,6.02722,0,0,0,0,0,0,0,-1,650,1408,-11.8677,-6.02722
-567,-384,-12.0743,7.04639,0,0,0,0,0,0,0,-1,657,1408,-12.0743,-7.04641
-560,-384,-12.8857,7.76355,0,0,0,0,0,0,0,-1,664,1408,-12.8858,-7.76357
-553,-384,-12.7621,8.38049,0.00127867,0.000283399,8.96513e-05,0.00128668,0.000275388,0.0891213,0.000782319,0.0356103,671,1408,-12.7621,-8.38055
-546,-384,-12.7457,8.95459,0.00120604,0.000171073,0.000126649,0.00122131,0.000155801,0.120011,0.000767561,0.0154301,678,1408,-12.7457,-8.95457
-539,-384,-12.78,9.43909,0.0013078,0.000152255,0.000257618,0.00136263,9.7423e-05,0.209712,0.00087775,0.0172463,685,1408,-12.78,-9.4391
-532,-384,-12.7405,9.93896,0.00162547,0.000212849,0.000506812,0.00178849,4.98305e-05,0.311203,0.00117607,0.0216642,692,1408,-12.7405,-9.939
-525,-384,-12.7269,10.5105,0.0022158,0.000456061,0.000960726,0.00263868,3.31779e-05,0.41465,0.00174817,0.02062,699,1408,-12.7269,-10.5105
-518,-384,-12.796,11.0315,0.00306675,0.000892051,0.0016137,0.00392526,3.3545e-05,0.488927,0.00260573,0.0127564,706,1408,-12.796,-11.0315
-511,-384,-12.8275,11.5776,0.00426138,0.00159181,0.00256783,0.00582063,3.25693e-05,0.545713,0.00386961,0.0102137,713,1408,-12.8275,-11.5776
-504,-384,-12.8265,12.1238,0.0057602,0.00254019,0.0037673,0.00824711,5.32805e-05,0.583463,0.0054804,0.0114514,720,1408,-12.8265,-12.1237
-497,-384,-12.8039,12.6677,0.00771966,0.00387096,0.00541546,0.0115425,4.81042e-05,0.614684,0.00767902,0.0376044,727,1408,-12.8039,-12.6677
-490,-384,-12.6511,13.2999,0,0,0,0,0,0,0,-1,734,1408,-12.6511,-13.2999
-483,-384,-6.26471,7.61194,0,0,0,0,0,0,0,-1,741,1408,-6.26469,-7.61191
-476,-384,-6.02734,5.67761,0,0,0,0,0,0,0,-1,748,1408,-6.02736,-5.6776
-469,-384,-10.206,2.63721,0,0,0,0,0,0,0,-1,755,1408,-10.206,-2.6372
-462,-384,-9.04291,1.43542,0,0,0,0,0,0,0,-1,762,1408,-9.04293,-1.43545
-455,-384,-7.87988,0.233765,0,0,0,0,0,0,0,-1,769,1408,-7.87986,-0.233709
-448,-384,-9.35529,7.19226,0,0,0,0,0,0,0,-1,776,1408,-9.35531,-7.19226
-441,-384,-10.4697,1.79004,0,0,0,0,0,0,0,-1,783,1408,-10.4697,-1.79003
-434,-384,-10.6449,0.552246,0,0,0,0,0,0,0,-1,790,1408,-10.6449,-0.552216
-427,-384,-10.968,1.10583,0,0,0,0,0,0,0,-1,797,1408,-10.968,-1.10588
-420,-384,-12.5607,4.54858,0,0,0,0,0,0,0,-1,804,1408,-12.5607,-4.54859
-413,-384,0,0,0,0,0,0,0,0,0,-1,811,1408,0,0
-406,-384,0,0,0,0,0,0,0,0,0,-1,818,1408,0,0
-399,-384,0,0,0,0,0,0,0,0,0,-1,825,1408,0,0
-392,-384,0,0,0,0,0,0,0,0,0,-1,832,1408,0,0
-385,-384,0,0,0,0,0,0,0,0,0,-1,839,1408,0,0
-378,-384,0,0,0,0,0,0,0,0,0,-1,846,1408,0,0
-371,-384,0,0,0,0,0,0,0,0,0,-1,853,1408,0,0
-364,-384,0,0,0,0,0,0,0,0,0,-1,860,1408,0,0
-357,-384,0,0,0,0,0,0,0,0,0,-1,867,1408,0,0
-350,-384,0,0,0,0,0,0,0,0,0,-1,874,1408,0,0
-343,-384,0,0,0,0,0,0,0,0,0,-1,881,1408,0,0
-336,-384,0,0,0,0,0,0,0,0,0,-1,888,1408,0,0
-329,-384,0,0,0,0,0,0,0,0,0,-1,895,1408,0,0
-322,-384,0,0,0,0,0,0,0,0,0,-1,902,1408,0,0
-315,-384,0,0,0,0,0,0,0,0,0,-1,909,1408,0,0
-308,-384,0,0,0,0,0,0,0,0,0,-1,916,1408,0,0
-301,-384,0,0,0,0,0,0,0,0,0,-1,923,1408,0,0
-294,-384,0,0,0,0,0,0,0,0,0,-1,930,1408,0,0
-287,-384,0,0,0,0,0,0,0,0,0,-1,937,1408,0,0
-280,-384,0,0,0,0,0,0,0,0,0,-1,944,1408,0,0
-273,-384,0,0,0,0,0,0,0,0,0,-1,951,1408,0,0
-266,-384,0,0,0,0,0,0,0,0,0,-1,958,1408,0,0
-259,-384,0,0,0,0,0,0,0,0,0,-1,965,1408,0,0
-252,-384,0,0,0,0,0,0,0,0,0,-1,972,1408,0,0
-245,-384,0,0,0,0,0,0,0,0,0,-1,979,1408,0,0
-238,-384,0,0,0,0,0,0,0,0,0,-1,986,1408,0,0
-231,-384,0,0,0,0,0,0,0,0,0,-1,993,1408,0,0
-224,-384,0,0,0,0,0,0,0,0,0,-1,1000,1408,0,0
-217,-384,0,0,0,0,0,0,0,0,0,-1,1007,1408,0,0
-210,-384,0,0,0,0,0,0,0,0,0,-1,1014,1408,0,0
-203,-384,0,0,0,0,0,0,0,0,0,-1,1021,1408,0,0
-196,-384,0,0,0,0,0,0,0,0,0,-1,1028,1408,0,0
-189,-384,0,0,0,0,0,0,0,0,0,-1,1035,1408,0,0
-182,-384,0,0,0,0,0,0,0,0,0,-1,1042,1408,0,0
-175,-384,0,0,0,0,0,0,0,0,0,-1,1049,1408,0,0
-168,-384,0,0,0,0,0,0,0,0,0,-1,1056,1408,0,0
-161,-384,0,0,0,0,0,0,0,0,0,-1,1063,1408,0,0
-154,-384,0,0,0,0,0,0,0,0,0,-1,1070,1408,0,0
-147,-384,0,0,0,0,0,0,0,0,0,-1,1077,1408,0,0
-140,-384,0,0,0,0,0,0,0,0,0,-1,1084,1408,0,0
-133,-384,0,0,0,0,0,0,0,0,0,-1,1091,1408,0,0
-126,-384,0,0,0,0,0,0,0,0,0,-1,1098,1408,0,0
-119,-384,0,0,0,0,0,0,0,0,0,-1,1105,1408,0,0
-112,-384,0,0,0,0,0,0,0,0,0,-1,1112,1408,0,0
-105,-384,0,0,0,0,0,0,0,0,0,-1,1119,1408,0,0
-98,-384,0,0,0,0,0,0,0,0,0,-1,1126,1408,0,0
-91,-384,0,0,0,0,0,0,0,0,0,-1,1133,1408,0,0
-84,-384,0,0,0,0,0,0,0,0,0,-1,1140,1408,0,0
-77,-384,0,0,0,0,0,0,0,0,0,-1,1147,1408,0,0
-70,-384,0,0,0,0,0,0,0,0,0,-1,1154,1408,0,0
-63,-384,0,0,0,0,0,0,0,0,0,-1,1161,1408,0,0
-56,-384,0,0,0,0,0,0,0,0,0,-1,1168,1408,0,0
-49,-384,0,0,0,0,0,0,0,0,0,-1,1175,1408,0,0
-42,-384,0,0,0,0,0,0,0,0,0,-1,1182,1408,0,0
-35,-384,0,0,0,0,0,0,0,0,0,-1,1189,1408,0,0
-28,-384,0,0,0,0,0,0,0,0,0,-1,1196,1408,0,0
-21,-384,0,0,0,0,0,0,0,0,0,-1,1203,1408,0,0
-14,-384,0,0,0,0,0,0,0,0,0,-1,1210,1408,0,0
-7,-384,0,0,0,0,0,0,0,0,0,-1,1217,1408,0,0
0,-384,0,0,0,0,0,0,0,0,0,-1,1224,1408,0,0
7,-384,0,0,0,0,0,0,0,0,0,-1,1231,1408,0,0
14,-384,0,0,0,0,0,0,0,0,0,-1,1238,1408,0,0
21,-384,0,0,0,0,0,0,0,0,0,-1,1245,1408,0,0
28,-384,0,0,0,0,0,0,0,0,0,-1,1252,1408,0,0
35,-384,0,0,0,0,0,0,0,0,0,-1,1259,1408,0,0
42,-384,0,0,0,0,0,0,0,0,0,-1,1266,1408,0,0
49,-384,0,0,0,0,0,0,0,0,0,-1,1273,1408,0,0
56,-384,0,0,0,0,0,0,0,0,0,-1,1280,1408,0,0
63,-384,0,0,0,0,0,0,0,0,0,-1,1287,1408,0,0
70,-384,0,0,0,0,0,0,0,0,0,-1,1294,1408,0,0
77,-384,0,0,0,0,0,0,0,0,0,-1,1301,1408,0,0
84,-384,0,0,0,0,0,0,0,0,0,-1,1308,1408,0,0
91,-384,0,0,0,0,0,0,0,0,0,-1,1315,1408,0,0
98,-384,0,0,0,0,0,0,0,0,0,-1,1322,1408,0,0
105,-384,0,0,0,0,0,0,0,0,0,-1,1329,1408,0,0
112,-384,0,0,0,0,0,0,0,0,0,-1,1336,1408,0,0
119,-384,0,0,0,0,0,0,0,0,0,-1,1343,1408,0,0
126,-384,0,0,0,0,0,0,0,0,0,-1,1350,1408,0,0
133,-384,0,0,0,0,0,0,0,0,0,-1,1357,1408,0,0
140,-384,0,0,0,0,0,0,0,0,0,-1,1364,1408,0,0
147,-384,0,0,0,0,0,0,0,0,0,-1,1371,1408,0,0
154,-384,0,0,0,0,0,0,0,0,0,-1,1378,1408,0,0
161,-384,0,0,0,0,0,0,0,0,0,-1,1385,1408,0,0
168,-384,0,0,0,0,0,0,0,0,0,-1,1392,1408,0,0
175,-384,0,0,0,0,0,0,0,0,0,-1,1399,1408,0,0
182,-384,0,0,0,0,0,0,0,0,0,-1,1406,1408,0,0
189,-384,0,0,0,0,0,0,0,0,0,-1,1413,1408,0,0
196,-384,0,0,0,0,0,0,0,0,0,-1,1420,1408,0,0
203,-384,0,0,0,0,0,0,0,0,0,-1,1427,1408,0,0
210,-384,0,0,0,0,0,0,0,0,0,-1,1434,1408,0,0
217,-384,0,0,0,0,0,0,0,0,0,-1,1441,1408,0,0
224,-384,0,0,0,0,0,0,0,0,0,-1,1448,1408,0,0
231,-384,0,0,0,0,0,0,0,0,0,-1,1455,1408,0,0
238,-384,0,0,0,0,0,0,0,0,0,-1,1462,1408,0,0
245,-384,0,0,0,0,0,0,0,0,0,-1,1469,1408,0,0
252,-384,0,0,0,0,0,0,0,0,0,-1,1476,1408,0,0
259,-384,0,0,0,0,0,0,0,0,0,-1,1483,1408,0,0
266,-384,0,0,0,0,0,0,0,0,0,-1,1490,1408,0,0
273,-384,0,0,0,0,0,0,0,0,0,-1,1497,1408,0,0
280,-384,0,0,0,0,0,0,0,0,0,-1,1504,1408,0,0
287,-384,0,0,0,0,0,0,0,0,0,-1,1511,1408,0,0
294,-384,0,0,0,0,0,0,0,0,0,-1,1518,1408,0,0
301,-384,0,0,0,0,0,0,0,0,0,-1,1525,1408,0,0
308,-384,0,0,0,0,0,0,0,0,0,-1,1532,1408,0,0
315,-384,0,0,0,0,0,0,0,0,0,-1,1539,1408,0,0
322,-384,0,0,0,0,0,0,0,0,0,-1,1546,1408,0,0
329,-384,0,0,0,0,0,0,0,0,0,-1,1553,1408,0,0
336,-384,0,0,0,0,0,0,0,0,0,-1,1560,1408,0,0
343,-384,0,0,0,0,0,0,0,0,0,-1,1567,1408,0,0
350,-384,0,0,0,0,0,0,0,0,0,-1,1574,1408,0,0
357,-384,0,0,0,0,0,0,0,0,0,-1,1581,1408,0,0
364,-384,0,0,0,0,0,0,0,0,0,-1,1588,1408,0,0
371,-384,0,0,0,0,0,0,0,0,0,-1,1595,1408,0,0
378,-384,0,0,0,0,0,0,0,0,0,-1,1602,1408,0,0
385,-384,0,0,0,0,0,0,0,0,0,-1,1609,1408,0,0
392,-384,0,0,0,0,0,0,0,0,0,-1,1616,1408,0,0
399,-384,0,0,0,0,0,0,0,0,0,-1,1623,1408,0,0
406,-384,0,0,0,0,0,0,0,0,0,-1,1630,1408,0,0
413,-384,0,0,0,0,0,0,0,0,0,-1,1637,1408,0,0
420,-384,0,0,0,0,0,0,0,0,0,-1,1644,1408,0,0
427,-384,0,0,0,0,0,0,0,0,0,-1,1651,1408,0,0
434,-384,0,0,0,0,0,0,0,0,0,-1,1658,1408,0,0
441,-384,0,0,0,0,0,0,0,0,0,-1,1665,1408,0,0
448,-384,0,0,0,0,0,0,0,0,0,-1,1672,1408,0,0
455,-384,0,0,0,0,0,0,0,0,0,-1,1679,1408,0,0
462,-384,0,0,0,0,0,0,0,0,0,-1,1686,1408,0,0
469,-384,0,0,0,0,0,0,0,0,0,-1,1693,1408,0,0
476,-384,0,0,0,0,0,0,0,0,0,-1,1700,1408,0,0
483,-384,0,0,0,0,0,0,0,0,0,-1,1707,1408,0,0
490,-384,0,0,0,0,0,0,0,0,0,-1,1714,1408,0,0
497,-384,0,0,0,0,0,0,0,0,0,-1,1721,1408,0,0
504,-384,0,0,0,0,0,0,0,0,0,-1,1728,1408,0,0
511,-384,0,0,0,0,0,0,0,0,0,-1,1735,1408,0,0
518,-384,0,0,0,0,0,0,0,0,0,-1,1742,1408,0,0
525,-384,0,0,0,0,0,0,0,0,0,-1,1749,1408,0,0
532,-384,0,0,0,0,0,0,0,0,0,-1,1756,1408,0,0
539,-384,27.6886,2.85803,0,0,0,0,0,0,0,-1,1763,1408,27.6886,-2.85807
546,-384,27.5044,2.9425,0,0,0,0,0,0,0,-1,1770,1408,27.5044,-2.94255
553,-384,27.3052,2.78394,0,0,0,0,0,0,0,-1,1777,1408,27.3051,-2.78394
560,-384,26.833,3.19812,0,0,0,0,0,0,0,-1,1784,1408,26.833,-3.19816
567,-384,38.2566,0.109985,0,0,0,0,0,0,0,-1,1791,1408,38.2566,-0.110044
574,-384,38.4003,2.05945,0,0,0,0,0,0,0,-1,1798,1408,38.4003,-2.05949
581,-384,25.819,3.91846,0,0,0,0,0,0,0,-1,1805,1408,25.8189,-3.91848
588,-384,23.3721,4.25439,0,0,0,0,0,0,0,-1,1812,1408,23.3721,-4.25442
595,-384,24.981,5.59595,0,0,0,0,0,0,0,-1,1819,1408,24.981,-5.59598
602,-384,20.6605,4.17261,0,0,0,0,0,0,0,-1,1826,1408,20.6606,-4.17265
609,-384,14.158,5.49475,0,0,0,0,0,0,0,-1,1833,1408,14.158,-5.49474
616,-384,14.7997,7.6908,0,0,0,0,0,0,0,-1,1840,1408,14.7996,-7.69079
623,-384,16.4293,9.58899,0,0,0,0,0,0,0,-1,1847,1408,16.4294,-9.58901
630,-384,26.9302,14.3491,0,0,0,0,0,0,0,-1,1854,1408,26.9302,-14.3492
637,-384,26.9777,13.8381,0.000325408,0.000676574,-0.000765716,0.00128658,-0.000284598,-0.898103,0.000966654,0.0196994,1861,1408,26.9777,-13.8382
644,-384,26.9581,13.3729,0.00037323,0.000483555,-0.000566836,0.000997907,-0.000141121,-0.833904,0.000716956,0.0165523,1868,1408,26.9582,-13.3729
651,-384,26.933,12.8466,0.000464863,0.000205364,-0.000206963,0.000579385,9.08416e-05,-0.505409,0.000359819,0.0165077,1875,1408,26.933,-12.8465
658,-384,26.9261,12.3622,0.000624123,-6.86319e-05,0.000176657,0.000666571,-0.000111079,0.235813,0.00048566,0.0159677,1882,1408,26.9262,-12.3622
665,-384,26.9437,11.9087,0.000814506,-0.000362601,0.000596227,0.00106374,-0.000611831,0.395937,0.000979047,0.0172081,1889,1408,26.9437,-11.9087
672,-384,26.9269,11.4169,0.0010303,-0.000717313,0.00109671,0.00155875,-0.00124576,0.449021,0.00162254,0.0162234,1896,1408,26.9268,-11.4169
679,-384,26.8889,10.9208,0.00126184,-0.00112691,0.00167314,0.00212317,-0.00198824,0.475416,0.00237415,0.0159865,1903,1408,26.8889,-10.9208
686,-384,26.8889,10.4716,0.00144576,-0.00174749,0.00241397,0.00274334,-0.00304507,0.493221,0.00334346,0.0128797,1910,1408,26.8889,-10.4715
693,-384,26.9124,9.9917,0.00169061,-0.00248763,0.00324531,0.00346109,-0.0042581,0.499419,0.00446459,0.0221494,1917,1408,26.9123,-9.9917
700,-384,26.9565,9.51709,0,0,0,0,0,0,0,-1,1924,1408,26.9565,-9.51711
707,-384,17.0566,6.62842,0,0,0,0,0,0,0,-1,1931,1408,17.0567,-6.62848
714,-384,16.038,5.0282,0,0,0,0,0,0,0,-1,1938,1408,16.038,-5.02819
721,-384,13.8843,2.8717,0,0,0,0,0,0,0,-1,1945,1408,13.8843,-2.87171
728,-384,15.4409,6.25745,0,0,0,0,0,0,0,-1,1952,1408,15.4409,-6.2574
735,-384,16.7598,6.71289,0,0,0,0,0,0,0,-1,1959,1408,16.7598,-6.71287
742,-384,0,0,0,0,0,0,0,0,0,-1,1966,1408,0,0
749,-384,0,0,0,0,0,0,0,0,0,-1,1973,1408,0,0
756,-384,0,0,0,0,0,0,0,0,0,-1,1980,1408,0,0
763,-384,0,0,0,0,0,0,0,0,0,-1,1987,1408,0,0
770,-384,0,0,0,0,0,0,0,0,0,-1,1994,1408,0,0
777,-384,0,0,0,0,0,0,0,0,0,-1,2001,1408,0,0
784,-384,0,0,0,0,0,0,0,0,0,-1,2008,1408,0,0
791,-384,0,0,0,0,0,0,0,0,0,-1,2015,1408,0,0
798,-384,0,0,0,0,0,0,0,0,0,-1,2022,1408,0,0
805,-384,0,0,0,0,0,0,0,0,0,-1,2029,1408,0,0
812,-384,0,0,0,0,0,0,0,0,0,-1,2036,1408,0,0
-700,-391,0,0,0,0,0,0,0,0,0,-1,524,1415,0,0
-693,-391,0,0,0,0,0,0,0,0,0,-1,531,1415,0,0
-686,-391,0,0,0,0,0,0,0,0,0,-1,538,1415,0,0
-679,-391,0,0,0,0,0,0,0,0,0,-1,545,1415,0,0
-672,-391,0,0,0,0,0,0,0,0,0,-1,552,1415,0,0
-665,-391,0,0,0,0,0,0,0,0,0,-1,559,1415,0,0
-658,-391,0,0,0,0,0,0,0,0,0,-1,566,1415,0,0
-651,-391,0,0,0,0,0,0,0,0,0,-1,573,1415,0,0
-644,-391,0,0,0,0,0,0,0,0,0,-1,580,1415,0,0
-637,-391,0,0,0,0,0,0,0,0,0,-1,587,1415,0,0
-630,-391,0,0,0,0,0,0,0,0,0,-1,594,1415,0,0
-623,-391,0,0,0,0,0,0,0,0,0,-1,601,1415,0,0
-616,-391,0,0,0,0,0,0,0,0,0,-1,608,1415,0,0
-609,-391,-7.71753,-3.69763,0,0,0,0,0,0,0,-1,615,1415,-7.71751,3.69759
-602,-391,-13.9493,-4.12805,0,0,0,0,0,0,0,-1,622,1415,-13.9493,4.12803
-595,-391,-10.8315,1.76172,0,0,0,0,0,0,0,-1,629,1415,-10.8315,-1.76171
-588,-391,-10.265,2.16431,0,0,0,0,0,0,0,-1,636,1415,-10.265,-2.16431
-581,-391,-11.3325,2.44836,0,0,0,0,0,0,0,-1,643,1415,-11.3325,-2.44842
-574,-391,-11.1471,6.19983,0,0,0,0,0,0,0,-1,650,1415,-11.1471,-6.19981
-567,-391,-11.5172,6.82458,0,0,0,0,0,0,0,-1,657,1415,-11.5171,-6.82454
-560,-391,-11.2459,7.37195,0,0,0,0,0,0,0,-1,664,1415,-11.2459,-7.37191
-553,-391,-12.2806,8.39819,0,0,0,0,0,0,0,-1,671,1415,-12.2806,-8.39817
-546,-391,-12.2273,8.93762,0.000782781,8.67295e-05,-0.000129882,0.000806227,6.32837e-05,-0.178594,0.000517681,0.0152386,678,1415,-12.2273,-8.93765
-539,-391,-12.1962,9.47095,0.000799123,9.85251e-05,-4.20944e-06,0.000799148,9.84998e-05,-0.00600806,0.000503157,0.0148783,685,1415,-12.1961,-9.47097
-532,-391,-12.1735,10.0012,0.00101347,0.000171931,0.000218172,0.00106667,0.000118733,0.239171,0.000675027,0.0243,692,1415,-12.1735,-10.0012
-525,-391,-12.1901,10.5699,0.00151127,0.000430134,0.000638994,0.00180768,0.000133727,0.434324,0.00116311,0.0216701,699,1415,-12.1901,-10.5699
-518,-391,-12.3006,11.0679,0.00227362,0.000904017,0.00127043,0.00303206,0.000145579,0.538207,0.00197463,0.0143911,706,1415,-12.3006,-11.0679
-511,-391,-12.3012,11.5994,0.00337861,0.00164552,0.00219893,0.00487558,0.000148552,0.597704,0.00320202,0.0137148,713,1415,-12.3012,-11.5993
-504,-391,-12.2953,12.1436,0.00478927,0.00262415,0.00336825,0.00724465,0.000168764,0.629911,0.00477451,0.0126915,720,1415,-12.2953,-12.1435
-497,-391,-12.3139,12.6517,0.00659043,0.00394585,0.00491481,0.0103577,0.000178559,0.653989,0.00684641,0.0137885,727,1415,-12.3139,-12.6518
-490,-391,-12.2488,13.178,0,0,0,0,0,0,0,-1,734,1415,-12.2488,-13.178
-483,-391,-11.1018,12.9382,0,0,0,0,0,0,0,-1,741,1415,-11.1018,-12.9382
-476,-391,-6.05731,6.85303,0,0,0,0,0,0,0,-1,748,1415,-6.05728,-6.85304
-469,-391,-3.88953,5.0979,0,0,0,0,0,0,0,-1,755,1415,-3.88955,-5.09794
-462,-391,-8.67688,2.03125,0,0,0,0,0,0,0,-1,762,1415,-8.67685,-2.03121
-455,-391,-8.65576,6.46997,0,0,0,0,0,0,0,-1,769,1415,-8.65579,-6.46999
-448,-391,-8.39618,4.38403,0,0,0,0,0,0,0,-1,776,1415,-8.39617,-4.38405
-441,-391,-9.77704,2.5946,0,0,0,0,0,0,0,-1,783,1415,-9.77702,-2.5946
-434,-391,-11.5403,2.12878,0,0,0,0,0,0,0,-1,790,1415,-11.5403,-2.12881
-427,-391,-10.5311,2.50403,0,0,0,0,0,0,0,-1,797,1415,-10.5311,-2.504
-420,-391,-14.7087,1.24365,0,0,0,0,0,0,0,-1,804,1415,-14.7088,-1.24365
-413,-391,0,0,0,0,0,0,0,0,0,-1,811,1415,0,0
-406,-391,0,0,0,0,0,0,0,0,0,-1,818,1415,0,0
-399,-391,0,0,0,0,0,0,0,0,0,-1,825,1415,0,0
-392,-391,0,0,0,0,0,0,0,0,0,-1,832,1415,0,0
-385,-391,0,0,0,0,0,0,0,0,0,-1,839,1415,0,0
-378,-391,0,0,0,0,0,0,0,0,0,-1,846,1415,0,0
-371,-391,0,0,0,0,0,0,0,0,0,-1,853,1415,0,0
-364,-391,0,0,0,0,0,0,0,0,0,-1,860,1415,0,0
-357,-391,0,0,0,0,0,0,0,0,0,-1,867,1415,0,0
-350,-391,0,0,0,0,0,0,0,0,0,-1,874,1415,0,0
-343,-391,0,0,0,0,0,0,0,0,0,-1,881,1415,0,0
-336,-391,0,0,0,0,0,0,0,0,0,-1,888,1415,0,0
-329,-391,0,0,0,0,0,0,0,0,0,-1,895,1415,0,0
-322,-391,0,0,0,0,0,0,0,0,0,-1,902,1415,0,0
-315,-391,0,0,0,0,0,0,0,0,0,-1,909,1415,0,0
-308,-391,0,0,0,0,0,0,0,0,0,-1,916,1415,0,0
-301,-391,0,0,0,0,0,0,0,0,0,-1,923,1415,0,0
-294,-391,0,0,0,0,0,0,0,0,0,-1,930,1415,0,0
-287,-391,0,0,0,0,0,0,0,0,0,-1,937,1415,0,0
-280,-391,0,0,0,0,0,0,0,0,0,-1,944,1415,0,0
-273,-391,0,0,0,0,0,0,0,0,0,-1,951,1415,0,0
-266,-391,0,0,0,0,0,0,0,0,0,-1,958,1415,0,0
-259,-391,0,0,0,0,0,0,0,0,0,-1,965,1415,0,0
-252,-391,0,0,0,0,0,0,0,0,0,-1,972,1415,0,0
-245,-391,0,0,0,0,0,0,0,0,0,-1,979,1415,0,0
-238,-391,0,0,0,0,0,0,0,0,0,-1,986,1415,0,0
-231,-391,0,0,0,0,0,0,0,0,0,-1,993,1415,0,0
-224,-391,0,0,0,0,0,0,0,0,0,-1,1000,1415,0,0
-217,-391,0,0,0,0,0,0,0,0,0,-1,1007,1415,0,0
-210,-391,0,0,0,0,0,0,0,0,0,-1,1014,1415,0,0
-203,-391,0,0,0,0,0,0,0,0,0,-1,1021,1415,0,0
-196,-391,0,0,0,0,0,0,0,0,0,-1,1028,1415,0,0
-189,-391,0,0,0,0,0,0,0,0,0,-1,1035,1415,0,0
-182,-391,0,0,0,0,0,0,0,0,0,-1,1042,1415,0,0
-175,-391,0,0,0,0,0,0,0,0,0,-1,1049,1415,0,0
-168,-391,0,0,0,0,0,0,0,0,0,-1,1056,1415,0,0
-161,-391,0,0,0,0,0,0,0,0,0,-1,1063,1415,0,0
-154,-391,0,0,0,0,0,0,0,0,0,-1,1070,1415,0,0
-147,-391,0,0,0,0,0,0,0,0,0,-1,1077,1415,0,0
-140,-391,0,0,0,0,0,0,0,0,0,-1,1084,1415,0,0
-133,-391,0,0,0,0,0,0,0,0,0,-1,1091,1415,0,0
-126,-391,0,0,0,0,0,0,0,0,0,-1,1098,1415,0,0
-119,-391,0,0,0,0,0,0,0,0,0,-1,1105,1415,0,0
-112,-391,0,0,0,0,0,0,0,0,0,-1,1112,1415,0,0
-105,-391,0,0,0,0,0,0,0,0,0,-1,1119,1415,0,0
-98,-391,0,0,0,0,0,0,0,0,0,-1,1126,1415,0,0
-91,-391,0,0,0,0,0,0,0,0,0,-1,1133,1415,0,0
-84,-391,0,0,0,0,0,0,0,0,0,-1,1140,1415,0,0
-77,-391,0,0,0,0,0,0,0,0,0,-1,1147,1415,0,0
-70,-391,0,0,0,0,0,0,0,0,0,-1,1154,1415,0,0
-63,-391,0,0,0,0,0,0,0,0,0,-1,1161,1415,0,0
-56,-391,0,0,0,0,0,0,0,0,0,-1,1168,1415,0,0
-49,-391,0,0,0,0,0,0,0,0,0,-1,1175,1415,0,0
-42,-391,0,0,0,0,0,0,0,0,0,-1,1182,1415,0,0
-35,-391,0,0,0,0,0,0,0,0,0,-1,1189,1415,0,0
-28,-391,0,0,0,0,0,0,0,0,0,-1,1196,1415,0,0
-21,-391,0,0,0,0,0,0,0,0,0,-1,1203,1415,0,0
-14,-391,0,0,0,0,0,0,0,0,0,-1,1210,1415,0,0
-7,-391,0,0,0,0,0,0,0,0,0,-1,1217,1415,0,0
0,-391,0,0,0,0,0,0,0,0,0,-1,1224,1415,0,0
7,-391,0,0,0,0,0,0,0,0,0,-1,1231,1415,0,0
14,-391,0,0,0,0,0,0,0,0,0,-1,1238,1415,0,0
21,-391,0,0,0,0,0,0,0,0,0,-1,1245,1415,0,0
28,-391,0,0,0,0,0,0,0,0,0,-1,1252,1415,0,0
35,-391,0,0,0,0,0,0,0,0,0,-1,1259,1415,0,0
42,-391,0,0,0,0,0,0,0,0,0,-1,1266,1415,0,0
49,-391,0,0,0,0,0,0,0,0,0,-1,1273,1415,0,0
56,-391,0,0,0,0,0,0,0,0,0,-1,1280,1415,0,0
63,-391,0,0,0,0,0,0,0,0,0,-1,1287,1415,0,0
70,-391,0,0,0,0,0,0,0,0,0,-1,1294,1415,0,0
77,-391,0,0,0,0,0,0,0,0,0,-1,1301,1415,0,0
84,-391,0,0,0,0,0,0,0,0,0,-1,1308,1415,0,0
91,-391,0,0,0,0,0,0,0,0,0,-1,1315,1415,0,0
98,-391,0,0,0,0,0,0,0,0,0,-1,1322,1415,0,0
105,-391,0,0,0,0,0,0,0,0,0,-1,1329,1415,0,0
112,-391,0,0,0,0,0,0,0,0,0,-1,1336,1415,0,0
119,-391,0,0,0,0,0,0,0,0,0,-1,1343,1415,0,0
126,-391,0,0,0,0,0,0,0,0,0,-1,1350,1415,0,0
133,-391,0,0,0,0,0,0,0,0,0,-1,1357,1415,0,0
140,-391,0,0,0,0,0,0,0,0,0,-1,1364,1415,0,0
147,-391,0,0,0,0,0,0,0,0,0,-1,1371,1415,0,0
154,-391,0,0,0,0,0,0,0,0,0,-1,1378,1415,0,0
161,-391,0,0,0,0,0,0,0,0,0,-1,1385,1415,0,0
168,-391,0,0,0,0,0,0,0,0,0,-1,1392,1415,0,0
175,-391,0,0,0,0,0,0,0,0,0,-1,1399,1415,0,0
182,-391,0,0,0,0,0,0,0,0,0,-1,1406,1415,0,0
189,-391,0,0,0,0,0,0,0,0,0,-1,1413,1415,0,0
196,-391,0,0,0,0,0,0,0,0,0,-1,1420,1415,0,0
203,-391,0,0,0,0,0,0,0,0,0,-1,1427,1415,0,0
210,-391,0,0,0,0,0,0,0,0,0,-1,1434,1415,0,0
217,-391,0,0,0,0,0,0,0,0,0,-1,1441,1415,0,0
224,-391,0,0,0,0,0,0,0,0,0,-1,1448,1415,0,0
231,-391,0,0,0,0,0,0,0,0,0,-1,1455,1415,0,0
238,-391,0,0,0,0,0,0,0,0,0,-1,1462,1415,0,0
245,-391,0,0,0,0,0,0,0,0,0,-1,1469,1415,0,0
252,-391,0,0,0,0,0,0,0,0,0,-1,1476,1415,0,0
259,-391,0,0,0,0,0,0,0,0,0,-1,1483,1415,0,0
266,-391,0,0,0,0,0,0,0,0,0,-1,1490,1415,0,0
273,-391,0,0,0,0,0,0,0,0,0,-1,1497,1415,0,0
280,-391,0,0,0,0,0,0,0,0,0,-1,1504,1415,0,0
287,-391,0,0,0,0,0,0,0,0,0,-1,1511,1415,0,0
294,-391,0,0,0,0,0,0,0,0,0,-1,1518,1415,0,0
301,-391,0,0,0,0,0,0,0,0,0,-1,1525,1415,0,0
308,-391,0,0,0,0,0,0,0,0,0,-1,1532,1415,0,0
315,-391,0,0,0,0,0,0,0,0,0,-1,1539,1415,0,0
322,-391,0,0,0,0,0,0,0,0,0,-1,1546,1415,0,0
329,-391,0,0,0,0,0,0,0,0,0,-1,1553,1415,0,0
336,-391,0,0,0,0,0,0,0,0,0,-1,1560,1415,0,0
343,-391,0,0,0,0,0,0,0,0,0,-1,1567,1415,0,0
350,-391,0,0,0,0,0,0,0,0,0,-1,1574,1415,0,0
357,-391,0,0,0,0,0,0,0,0,0,-1,1581,1415,0,0
364,-391,0,0,0,0,0,0,0,0,0,-1,1588,1415,0,0
371,-391,0,0,0,0,0,0,0,0,0,-1,1595,1415,0,0
378,-391,0,0,0,0,0,0,0,0,0,-1,1602,1415,0,0
385,-391,0,0,0,0,0,0,0,0,0,-1,1609,1415,0,0
392,-391,0,0,0,0,0,0,0,0,0,-1,1616,1415,0,0
399,-391,0,0,0,0,0,0,0,0,0,-1,1623,1415,0,0
406,-391,0,0,0,0,0,0,0,0,0,-1,1630,1415,0,0
413,-391,0,0,0,0,0,0,0,0,0,-1,1637,1415,0,0
420,-391,0,0,0,0,0,0,0,0,0,-1,1644,1415,0,0
427,-391,0,0,0,0,0,0,0,0,0,-1,1651,1415,0,0
434,-391,0,0,0,0,0,0,0,0,0,-1,1658,1415,0,0
441,-391,0,0,0,0,0,0,0,0,0,-1,1665,1415,0,0
448,-391,0,0,0,0,0,0,0,0,0,-1,1672,1415,0,0
455,-391,0,0,0,0,0,0,0,0,0,-1,1679,1415,0,0
462,-391,0,0,0,0,0,0,0,0,0,-1,1686,1415,0,0
469,-391,0,0,0,0,0,0,0,0,0,-1,1693,1415,0,0
476,-391,0,0,0,0,0,0,0,0,0,-1,1700,1415,0,0
483,-391,0,0,0,0,0,0,0,0,0,-1,1707,1415,0,0
490,-391,0,0,0,0,0,0,0,0,0,-1,1714,1415,0,0
497,-391,0,0,0,0,0,0,0,0,0,-1,1721,1415,0,0
504,-391,0,0,0,0,0,0,0,0,0,-1,1728,1415,0,0
511,-391,0,0,0,0,0,0,0,0,0,-1,1735,1415,0,0
518,-391,0,0,0,0,0,0,0,0,0,-1,1742,1415,0,0
525,-391,0,0,0,0,0,0,0,0,0,-1,1749,1415,0,0
532,-391,28.5959,3.02356,0,0,0,0,0,0,0,-1,1756,1415,28.596,-3.02358
539,-391,27.5881,3.25012,0,0,0,0,0,0,0,-1,1763,1415,27.5882,-3.25016
546,-391,27.2837,3.28064,0,0,0,0,0,0,0,-1,1770,1415,27.2837,-3.28064
553,-391,32.5952,5.04553,0,0,0,0,0,0,0,-1,1777,1415,32.5952,-5.04551
560,-391,31.2947,5.67017,0,0,0,0,0,0,0,-1,1784,1415,31.2947,-5.67011
567,-391,30.1473,6.17603,0,0,0,0,0,0,0,-1,1791,1415,30.1473,-6.17602
574,-391,27.5656,5.6842,0,0,0,0,0,0,0,-1,1798,1415,27.5655,-5.68422
581,-391,25.8883,5.76123,0,0,0,0,0,0,0,-1,1805,1415,25.8883,-5.76124
588,-391,24.2717,5.47986,0,0,0,0,0,0,0,-1,1812,1415,24.2717,-5.47982
595,-391,22.8827,6.1991,0,0,0,0,0,0,0,-1,1819,1415,22.8827,-6.19909
602,-391,15.1635,5.69849,0,0,0,0,0,0,0,-1,1826,1415,15.1635,-5.69847
609,-391,14.8285,7.50476,0,0,0,0,0,0,0,-1,1833,1415,14.8285,-7.50479
616,-391,20.7952,12.0503,0,0,0,0,0,0,0,-1,1840,1415,20.7952,-12.0503
623,-391,26.5007,14.7004,0,0,0,0,0,0,0,-1,1847,1415,26.5008,-14.7004
630,-391,26.6074,14.2024,0.000674518,0.00115344,-0.000891044,0.00183664,-8.6808e-06,-0.916668,0.00122733,0.0387428,1854,1415,26.6074,-14.2024
637,-391,26.4877,13.8276,0.000579064,0.000606568,-0.000608623,0.00120159,-1.59619e-05,-0.796694,0.000806436,0.0170237,1861,1415,26.4876,-13.8277
644,-391,26.4619,13.3624,0.000503977,0.000355778,-0.000360819,0.000798226,6.15286e-05,-0.684124,0.000512873,0.017185,1868,1415,26.4619,-13.3624
651,-391,26.4458,12.887,0.000514891,6.32985e-05,-3.75223e-06,0.000514922,6.32673e-05,-0.00830813,0.000324256,0.0184344,1875,1415,26.4458,-12.887
658,-391,26.4352,12.3973,0.000578785,-0.000195103,0.00038239,0.000735852,-0.00035217,0.389739,0.000641057,0.0179526,1882,1415,26.4352,-12.3974
665,-391,26.4425,11.9187,0.000678354,-0.000483284,0.000829192,0.00110991,-0.000914844,0.479879,0.0011708,0.0140779,1889,1415,26.4425,-11.9187
672,-391,26.4382,11.4298,0.000794721,-0.000826629,0.0013865,0.00159015,-0.00162206,0.520855,0.0018546,0.01237,1896,1415,26.4382,-11.4298
679,-391,26.4225,10.9431,0.000896069,-0.00126083,0.00208185,0.00216222,-0.00252698,0.546417,0.00271004,0.0115885,1903,1415,26.4225,-10.9431
686,-391,26.4227,10.4939,0.000876211,-0.00200044,0.00305406,0.00281369,-0.00393792,0.565326,0.00391602,0.0128672,1910,1415,26.4227,-10.4939
693,-391,26.4208,10.1815,0.000854792,-0.00290736,0.00421978,0.00359378,-0.00564634,0.57573,0.00537848,0.032855,1917,1415,26.4207,-10.1815
700,-391,26.4794,9.84363,0,0,0,0,0,0,0,-1,1924,1415,26.4794,-9.84364
707,-391,12.9524,5.96851,0,0,0,0,0,0,0,-1,1931,1415,12.9524,-5.96849
714,-391,15.6875,7.67896,0,0,0,0,0,0,0,-1,1938,1415,15.6875,-7.67893
721,-391,14.1808,8.08435,0,0,0,0,0,0,0,-1,1945,1415,14.1808,-8.08439
728,-391,13.8102,7.28174,0,0,0,0,0,0,0,-1,1952,1415,13.8102,-7.28174
735,-391,0,0,0,0,0,0,0,0,0,-1,1959,1415,0,0
742,-391,0,0,0,0,0,0,0,0,0,-1,1966,1415,0,0
749,-391,0,0,0,0,0,0,0,0,0,-1,1973,1415,0,0
756,-391,0,0,0,0,0,0,0,0,0,-1,1980,1415,0,0
763,-391,0,0,0,0,0,0,0,0,0,-1,1987,1415,0,0
770,-391,0,0,0,0,0,0,0,0,0,-1,1994,1415,0,0
777,-391,0,0,0,0,0,0,0,0,0,-1,2001,1415,0,0
784,-391,0,0,0,0,0,0,0,0,0,-1,2008,1415,0,0
791,-391,0,0,0,0,0,0,0,0,0,-1,2015,1415,0,0
798,-391,0,0,0,0,0,0,0,0,0,-1,2022,1415,0,0
805,-391,0,0,0,0,0,0,0,0,0,-1,2029,1415,0,0
812,-391,0,0,0,0,0,0,0,0,0,-1,2036,1415,0,0
-700,-398,0,0,0,0,0,0,0,0,0,-1,524,1422,0,0
-693,-398,0,0,0,0,0,0,0,0,0,-1,531,1422,0,0
-686,-398,0,0,0,0,0,0,0,0,0,-1,538,1422,0,0
-679,-398,0,0,0,0,0,0,0,0,0,-1,545,1422,0,0
-672,-398,0,0,0,0,0,0,0,0,0,-1,552,1422,0,0
-665,-398,0,0,0,0,0,0,0,0,0,-1,559,1422,0,0
-658,-398,0,0,0,0,0,0,0,0,0,-1,566,1422,0,0
-651,-398,0,0,0,0,0,0,0,0,0,-1,573,1422,0,0
-644,-398,0,0,0,0,0,0,0,0,0,-1,580,1422,0,0
-637,-398,0,0,0,0,0,0,0,0,0,-1,587,1422,0,0
-630,-398,0,0,0,0,0,0,0,0,0,-1,594,1422,0,0
-623,-398,0,0,0,0,0,0,0,0,0,-1,601,1422,0,0
-616,-398,0,0,0,0,0,0,0,0,0,-1,608,1422,0,0
-609,-398,-7.47125,-4.05322,0,0,0,0,0,0,0,-1,615,1422,-7.47128,4.05317
-602,-398,-4.58868,-2.77026,0,0,0,0,0,0,0,-1,622,1422,-4.58869,2.77023
-595,-398,-12.2224,-1.82007,0,0,0,0,0,0,0,-1,629,1422,-12.2224,1.82006
-588,-398,-10.6939,1.32336,0,0,0,0,0,0,0,-1,636,1422,-10.6939,-1.32337
-581,-398,-10.433,3.1123,0,0,0,0,0,0,0,-1,643,1422,-10.433,-3.11233
-574,-398,-10.4475,5.89807,0,0,0,0,0,0,0,-1,650,1422,-10.4475,-5.89802
-567,-398,-10.4904,6.80115,0,0,0,0,0,0,0,-1,657,1422,-10.4904,-6.80115
-560,-398,-10.5333,7.70435,0,0,0,0,0,0,0,-1,664,1422,-10.5333,-7.70429
-553,-398,-11.7377,8.33484,0,0,0,0,0,0,0,-1,671,1422,-11.7376,-8.33481
-546,-398,-11.72,8.95483,7.31324e-05,2.28927e-06,-0.000423979,0.000463166,-0.000387745,-0.743722,0.000491917,0.0252082,678,1422,-11.72,-8.95485
-539,-398,-11.657,9.51807,0.000112446,2.63848e-05,-0.000283835,0.000356494,-0.000217663,-0.710169,0.000334704,0.0127788,685,1422,-11.657,-9.51809
-532,-398,-11.6763,10.042,0.000304553,7.53855e-05,-9.23983e-05,0.000337166,4.27725e-05,-0.33931,0.000211963,0.0206354,692,1422,-11.6763,-10.042
-525,-398,-11.7186,10.5751,0.000778311,0.000302352,0.000280325,0.000908048,0.000172614,0.433458,0.000556819,0.0190956,699,1422,-11.7186,-10.5751
-518,-398,-11.7377,11.0986,0.00151932,0.000764296,0.00086886,0.00208914,0.000194479,0.580456,0.00133267,0.0172995,706,1422,-11.7377,-11.0986
-511,-398,-11.7379,11.6053,0.00256895,0.00149649,0.00174583,0.00385905,0.000206388,0.636397,0.00250674,0.0140295,713,1422,-11.7379,-11.6053
-504,-398,-11.7475,12.1525,0.0039107,0.00245928,0.002857,0.00613272,0.000237263,0.661023,0.00401173,0.0145488,720,1422,-11.7475,-12.1525
-497,-398,-11.7889,12.6699,0.00564306,0.0037831,0.00433179,0.00914357,0.00028259,0.679659,0.00600373,0.0107085,727,1422,-11.7889,-12.6699
-490,-398,-11.8008,13.2034,0.00795882,0.00558652,0.00629298,0.0131765,0.000368873,0.692247,0.00866397,0.0184972,734,1422,-11.8008,-13.2033
-483,-398,-11.7542,13.7756,0,0,0,0,0,0,0,-1,741,1422,-11.7541,-13.7756
-476,-398,-8.64392,11.9448,0,0,0,0,0,0,0,-1,748,1422,-8.6439,-11.9448
-469,-398,-8.91699,10.6276,0,0,0,0,0,0,0,-1,755,1422,-8.91697,-10.6275
-462,-398,-9.59753,9.32532,0,0,0,0,0,0,0,-1,762,1422,-9.59753,-9.32531
-455,-398,-8.08331,6.75024,0,0,0,0,0,0,0,-1,769,1422,-8.08333,-6.75022
-448,-398,-7.4505,5.25293,0,0,0,0,0,0,0,-1,776,1422,-7.4505,-5.25291
-441,-398,-7.61639,3.32141,0,0,0,0,0,0,0,-1,783,1422,-7.61637,-3.32145
-434,-398,-10.7618,3.297,0,0,0,0,0,0,0,-1,790,1422,-10.7618,-3.29704
-427,-398,-11.9061,2.24939,0,0,0,0,0,0,0,-1,797,1422,-11.9061,-2.24941
-420,-398,-13.467,2.32788,0,0,0,0,0,0,0,-1,804,1422,-13.467,-2.32787
-413,-398,-14.7983,2.15515,0,0,0,0,0,0,0,-1,811,1422,-14.7983,-2.15516
-406,-398,0,0,0,0,0,0,0,0,0,-1,818,1422,0,0
-399,-398,0,0,0,0,0,0,0,0,0,-1,825,1422,0,0
-392,-398,0,0,0,0,0,0,0,0,0,-1,832,1422,0,0
-385,-398,0,0,0,0,0,0,0,0,0,-1,839,1422,0,0
-378,-398,0,0,0,0,0,0,0,0,0,-1,846,1422,0,0
-371,-398,0,0,0,0,0,0,0,0,0,-1,853,1422,0,0
-364,-398,0,0,0,0,0,0,0,0,0,-1,860,1422,0,0
-357,-398,0,0,0,0,0,0,0,0,0,-1,867,1422,0,0
-350,-398,0,0,0,0,0,0,0,0,0,-1,874,1422,0,0
-343,-398,0,0,0,0,0,0,0,0,0,-1,881,1422,0,0
-336,-398,0,0,0,0,0,0,0,0,0,-1,888,1422,0,0
-329,-398,0,0,0,0,0,0,0,0,0,-1,895,1422,0,0
-322,-398,0,0,0,0,0,0,0,0,0,-1,902,1422,0,0
-315,-398,0,0,0,0,0,0,0,0,0,-1,909,1422,0,0
-308,-398,0,0,0,0,0,0,0,0,0,-1,916,1422,0,0
-301,-398,0,0,0,0,0,0,0,0,0,-1,923,1422,0,0
-294,-398,0,0,0,0,0,0,0,0,0,-1,930,1422,0,0
-287,-398,0,0,0,0,0,0,0,0,0,-1,937,1422,0,0
-280,-398,0,0,0,0,0,0,0,0,0,-1,944,1422,0,0
-273,-398,0,0,0,0,0,0,0,0,0,-1,951,1422,0,0
-266,-398,0,0,0,0,0,0,0,0,0,-1,958,1422,0,0
-259,-398,0,0,0,0,0,0,0,0,0,-1,965,1422,0,0
-252,-398,0,0,0,0,0,0,0,0,0,-1,972,1422,0,0
-245,-398,0,0,0,0,0,0,0,0,0,-1,979,1422,0,0
-238,-398,0,0,0,0,0,0,0,0,0,-1,986,1422,0,0
-231,-398,0,0,0,0,0,0,0,0,0,-1,993,1422,0,0
-224,-398,0,0,0,0,0,0,0,0,0,-1,1000,1422,0,0
-217,-398,0,0,0,0,0,0,0,0,0,-1,1007,1422,0,0
-210,-398,0,0,0,0,0,0,0,0,0,-1,1014,1422,0,0
-203,-398,0,0,0,0,0,0,0,0,0,-1,1021,1422,0,0
-196,-398,0,0,0,0,0,0,0,0,0,-1,1028,1422,0,0
-189,-398,0,0,0,0,0,0,0,0,0,-1,1035,1422,0,0
-182,-398,0,0,0,0,0,0,0,0,0,-1,1042,1422,0,0
-175,-398,0,0,0,0,0,0,0,0,0,-1,1049,1422,0,0
-168,-398,0,0,0,0,0,0,0,0,0,-1,1056,1422,0,0
-161,-398,0,0,0,0,0,0,0,0,0,-1,1063,1422,0,0
-154,-398,0,0,0,0,0,0,0,0,0,-1,1070,1422,0,0
-147,-398,0,0,0,0,0,0,0,0,0,-1,1077,1422,0,0
-140,-398,0,0,0,0,0,0,0,0,0,-1,1084,1422,0,0
-133,-398,0,0,0,0,0,0,0,0,0,-1,1091,1422,0,0
-126,-398,0,0,0,0,0,0,0,0,0,-1,1098,1422,0,0
-119,-398,0,0,0,0,0,0,0,0,0,-1,1105,1422,0,0
-112,-398,0,0,0,0,0,0,0,0,0,-1,1112,1422,0,0
-105,-398,0,0,0,0,0,0,0,0,0,-1,1119,1422,0,0
-98,-398,0,0,0,0,0,0,0,0,0,-1,1126,1422,0,0
-91,-398,0,0,0,0,0,0,0,0,0,-1,1133,1422,0,0
-84,-398,0,0,0,0,0,0,0,0,0,-1,1140,1422,0,0
-77,-398,0,0,0,0,0,0,0,0,0,-1,1147,1422,0,0
-70,-398,0,0,0,0,0,0,0,0,0,-1,1154,1422,0,0
-63,-398,0,0,0,0,0,0,0,0,0,-1,1161,1422,0,0
-56,-398,0,0,0,0,0,0,0,0,0,-1,1168,1422,0,0
-49,-398,0,0,0,0,0,0,0,0,0,-1,1175,1422,0,0
-42,-398,0,0,0,0,0,0,0,0,0,-1,1182,1422,0,0
-35,-398,0,0,0,0,0,0,0,0,0,-1,1189,1422,0,0
-28,-398,0,0,0,0,0,0,0,0,0,-1,1196,1422,0,0
-21,-398,0,0,0,0,0,0,0,0,0,-1,1203,1422,0,0
-14,-398,0,0,0,0,0,0,0,0,0,-1,1210,1422,0,0
-7,-398,0,0,0,0,0,0,0,0,0,-1,1217,1422,0,0
0,-398,0,0,0,0,0,0,0,0,0,-1,1224,1422,0,0
7,-398,0,0,0,0,0,0,0,0,0,-1,1231,1422,0,0
14,-398,0,0,0,0,0,0,0,0,0,-1,1238,1422,0,0
21,-398,0,0,0,0,0,0,0,0,0,-1,1245,1422,0,0
28,-398,0,0,0,0,0,0,0,0,0,-1,1252,1422,0,0
35,-398,0,0,0,0,0,0,0,0,0,-1,1259,1422,0,0
42,-398,0,0,0,0,0,0,0,0,0,-1,1266,1422,0,0
49,-398,0,0,0,0,0,0,0,0,0,-1,1273,1422,0,0
56,-398,0,0,0,0,0,0,0,0,0,-1,1280,1422,0,0
63,-398,0,0,0,0,0,0,0,0,0,-1,1287,1422,0,0
70,-398,0,0,0,0,0,0,0,0,0,-1,1294,1422,0,0
77,-398,0,0,0,0,0,0,0,0,0,-1,1301,1422,0,0
84,-398,0,0,0,0,0,0,0,0,0,-1,1308,1422,0,0
91,-398,0,0,0,0,0,0,0,0,0,-1,1315,1422,0,0
98,-398,0,0,0,0,0,0,0,0,0,-1,1322,1422,0,0
105,-398,0,0,0,0,0,0,0,0,0,-1,1329,1422,0,0
112,-398,0,0,0,0,0,0,0,0,0,-1,1336,1422,0,0
119,-398,0,0,0,0,0,0,0,0,0,-1,1343,1422,0,0
126,-398,0,0,0,0,0,0,0,0,0,-1,1350,1422,0,0
133,-398,0,0,0,0,0,0,0,0,0,-1,1357,1422,0,0
140,-398,0,0,0,0,0,0,0,0,0,-1,1364,1422,0,0
147,-398,0,0,0,0,0,0,0,0,0,-1,1371,1422,0,0
154,-398,0,0,0,0,0,0,0,0,0,-1,1378,1422,0,0
161,-398,0,0,0,0,0,0,0,0,0,-1,1385,1422,0,0
168,-398,0,0,0,0,0,0,0,0,0,-1,1392,1422,0,0
175,-398,0,0,0,0,0,0,0,0,0,-1,1399,1422,0,0
182,-398,0,0,0,0,0,0,0,0,0,-1,1406,1422,0,0
189,-398,0,0,0,0,0,0,0,0,0,-1,1413,1422,0,0
196,-398,0,0,0,0,0,0,0,0,0,-1,1420,1422,0,0
203,-398,0,0,0,0,0,0,0,0,0,-1,1427,1422,0,0
210,-398,0,0,0,0,0,0,0,0,0,-1,1434,1422,0,0
217,-398,0,0,0,0,0,0,0,0,0,-1,1441,1422,0,0
224,-398,0,0,0,0,0,0,0,0,0,-1,1448,1422,0,0
231,-398,0,0,0,0,0,0,0,0,0,-1,1455,1422,0,0
238,-398,0,0,0,0,0,0,0,0,0,-1,1462,1422,0,0
245,-398,0,0,0,0,0,0,0,0,0,-1,1469,1422,0,0
252,-398,0,0,0,0,0,0,0,0,0,-1,1476,1422,0,0
259,-398,0,0,0,0,0,0,0,0,0,-1,1483,1422,0,0
266,-398,0,0,0,0,0,0,0,0,0,-1,1490,1422,0,0
273,-398,0,0,0,0,0,0,0,0,0,-1,1497,1422,0,0
280,-398,0,0,0,0,0,0,0,0,0,-1,1504,1422,0,0
287,-398,0,0,0,0,0,0,0,0,0,-1,1511,1422,0,0
294,-398,0,0,0,0,0,0,0,0,0,-1,1518,1422,0,0
301,-398,0,0,0,0,0,0,0,0,0,-1,1525,1422,0,0
308,-398,0,0,0,0,0,0,0,0,0,-1,1532,1422,0,0
315,-398,0,0,0,0,0,0,0,0,0,-1,1539,1422,0,0
322,-398,0,0,0,0,0,0,0,0,0,-1,1546,1422,0,0
329,-398,0,0,0,0,0,0,0,0,0,-1,1553,1422,0,0
336,-398,0,0,0,0,0,0,0,0,0,-1,1560,1422,0,0
343,-398,0,0,0,0,0,0,0,0,0,-1,1567,1422,0,0
350,-398,0,0,0,0,0,0,0,0,0,-1,1574,1422,0,0
357,-398,0,0,0,0,0,0,0,0,0,-1,1581,1422,0,0
364,-398,0,0,0,0,0,0,0,0,0,-1,1588,1422,0,0
371,-398,0,0,0,0,0,0,0,0,0,-1,1595,1422,0,0
378,-398,0,0,0,0,0,0,0,0,0,-1,1602,1422,0,0
385,-398,0,0,0,0,0,0,0,0,0,-1,1609,1422,0,0
392,-398,0,0,0,0,0,0,0,0,0,-1,1616,1422,0,0
399,-398,0,0,0,0,0,0,0,0,0,-1,1623,1422,0,0
406,-398,0,0,0,0,0,0,0,0,0,-1,1630,1422,0,0
413,-398,0,0,0,0,0,0,0,0,0,-1,1637,1422,0,0
420,-398,0,0,0,0,0,0,0,0,0,-1,1644,1422,0,0
427,-398,0,0,0,0,0,0,0,0,0,-1,1651,1422,0,0
434,-398,0,0,0,0,0,0,0,0,0,-1,1658,1422,0,0
441,-398,0,0,0,0,0,0,0,0,0,-1,1665,1422,0,0
448,-398,0,0,0,0,0,0,0,0,0,-1,1672,1422,0,0
455,-398,0,0,0,0,0,0,0,0,0,-1,1679,1422,0,0
462,-398,0,0,0,0,0,0,0,0,0,-1,1686,1422,0,0
469,-398,0,0,0,0,0,0,0,0,0,-1,1693,1422,0,0
476,-398,0,0,0,0,0,0,0,0,0,-1,1700,1422,0,0
483,-398,0,0,0,0,0,0,0,0,0,-1,1707,1422,0,0
490,-398,0,0,0,0,0,0,0,0,0,-1,1714,1422,0,0
497,-398,0,0,0,0,0,0,0,0,0,-1,1721,1422,0,0
504,-398,0,0,0,0,0,0,0,0,0,-1,1728,1422,0,0
511,-398,0,0,0,0,0,0,0,0,0,-1,1735,1422,0,0
518,-398,0,0,0,0,0,0,0,0,0,-1,1742,1422,0,0
525,-398,0,0,0,0,0,0,0,0,0,-1,1749,1422,0,0
532,-398,28.4558,3.84094,0,0,0,0,0,0,0,-1,1756,1422,28.4558,-3.8409
539,-398,27.0594,3.33887,0,0,0,0,0,0,0,-1,1763,1422,27.0595,-3.3389
546,-398,31.6873,5.58582,0,0,0,0,0,0,0,-1,1770,1422,31.6872,-5.58585
553,-398,30.4392,5.92383,0,0,0,0,0,0,0,-1,1777,1422,30.4392,-5.92386
560,-398,29.1621,6.30469,0,0,0,0,0,0,0,-1,1784,1422,29.1621,-6.30469
567,-398,27.8411,6.55029,0,0,0,0,0,0,0,-1,1791,1422,27.8411,-6.55033
574,-398,26.411,6.8916,0,0,0,0,0,0,0,-1,1798,1422,26.411,-6.8916
581,-398,24.75,7.11145,0,0,0,0,0,0,0,-1,1805,1422,24.7499,-7.11142
588,-398,23.1649,7.67969,0,0,0,0,0,0,0,-1,1812,1422,23.1649,-7.67975
595,-398,21.4253,7.86023,0,0,0,0,0,0,0,-1,1819,1422,21.4253,-7.86029
602,-398,19.6857,8.04077,0,0,0,0,0,0,0,-1,1826,1422,19.6856,-8.04083
609,-398,21.1835,13.2628,0,0,0,0,0,0,0,-1,1833,1422,21.1835,-13.2628
616,-398,25.715,15.7057,0,0,0,0,0,0,0,-1,1840,1422,25.715,-15.7056
623,-398,26.0791,14.8088,0,0,0,0,0,0,0,-1,1847,1422,26.0791,-14.8088
630,-398,26.0566,14.3092,0.000986198,0.00100249,-0.000801835,0.00179622,0.000192469,-0.790478,0.00113876,0.0135886,1854,1422,26.0567,-14.3093
637,-398,26.022,13.8439,0.000772983,0.000455831,-0.000472445,0.00111275,0.000116059,-0.623481,0.000706335,0.0155129,1861,1422,26.022,-13.8438
644,-398,25.9417,13.386,0.000645898,0.00019212,-0.000205173,0.000724908,0.00011311,-0.367589,0.000450329,0.0224281,1868,1422,25.9416,-13.386
651,-398,25.9769,12.9585,0.000628505,-6.156e-05,0.00011032,0.000645712,-7.87675e-05,0.154732,0.000458989,0.0297224,1875,1422,25.977,-12.9586
658,-398,25.9675,12.4774,0.000635881,-0.000257143,0.000466892,0.000835404,-0.000456665,0.403853,0.000756584,0.0240561,1882,1422,25.9676,-12.4774
665,-398,25.968,11.9611,0.00066589,-0.000479681,0.000904586,0.00116379,-0.000977577,0.50316,0.00123787,0.0151754,1889,1422,25.968,-11.961
672,-398,25.9658,11.4698,0.000682349,-0.000744107,0.00148747,0.00161874,-0.0016805,0.561845,0.00190493,0.0128924,1896,1422,25.9658,-11.4699
679,-398,25.9386,10.9846,0.000629394,-0.00113407,0.00227896,0.00219125,-0.00269592,0.600817,0.00282662,0.011963,1903,1422,25.9385,-10.9847
686,-398,25.9319,10.5054,0.000341806,-0.00191963,0.00348423,0.0028742,-0.00445202,0.628497,0.00426236,0.0192582,1910,1422,25.9318,-10.5054
693,-398,25.7675,10.2957,-6.64603e-05,-0.00288188,0.00500344,0.00372353,-0.00667187,0.648269,0.00608172,0.0477832,1917,1422,25.7675,-10.2957
700,-398,25.6375,10.1765,0,0,0,0,0,0,0,-1,1924,1422,25.6375,-10.1765
707,-398,10.9731,5.479,0,0,0,0,0,0,0,-1,1931,1422,10.9732,-5.47896
714,-398,11.7313,6.17346,0,0,0,0,0,0,0,-1,1938,1422,11.7313,-6.17348
721,-398,13.9371,8.05103,0,0,0,0,0,0,0,-1,1945,1422,13.9372,-8.05102
728,-398,14.786,7.0282,0,0,0,0,0,0,0,-1,1952,1422,14.786,-7.0282
735,-398,0,0,0,0,0,0,0,0,0,-1,1959,1422,0,0
742,-398,0,0,0,0,0,0,0,0,0,-1,1966,1422,0,0
749,-398,0,0,0,0,0,0,0,0,0,-1,1973,1422,0,0
756,-398,0,0,0,0,0,0,0,0,0,-1,1980,1422,0,0
763,-398,0,0,0,0,0,0,0,0,0,-1,1987,1422,0,0
770,-398,0,0,0,0,0,0,0,0,0,-1,1994,1422,0,0
777,-398,0,0,0,0,0,0,0,0,0,-1,2001,1422,0,0
784,-398,0,0,0,0,0,0,0,0,0,-1,2008,1422,0,0
791,-398,0,0,0,0,0,0,0,0,0,-1,2015,1422,0,0
798,-398,0,0,0,0,0,0,0,0,0,-1,2022,1422,0,0
805,-398,0,0,0,0,0,0,0,0,0,-1,2029,1422,0,0
812,-398,0,0,0,0,0,0,0,0,0,-1,2036,1422,0,0
-700,-405,0,0,0,0,0,0,0,0,0,-1,524,1429,0,0
-693,-405,0,0,0,0,0,0,0,0,0,-1,531,1429,0,0
-686,-405,0,0,0,0,0,0,0,0,0,-1,538,1429,0,0
-679,-405,0,0,0,0,0,0,0,0,0,-1,545,1429,0,0
-672,-405,0,0,0,0,0,0,0,0,0,-1,552,1429,0,0
-665,-405,0,0,0,0,0,0,0,0,0,-1,559,1429,0,0
-658,-405,0,0,0,0,0,0,0,0,0,-1,566,1429,0,0
-651,-405,0,0,0,0,0,0,0,0,0,-1,573,1429,0,0
-644,-405,0,0,0,0,0,0,0,0,0,-1,580,1429,0,0
-637,-405,0,0,0,0,0,0,0,0,0,-1,587,1429,0,0
-630,-405,0,0,0,0,0,0,0,0,0,-1,594,1429,0,0
-623,-405,0,0,0,0,0,0,0,0,0,-1,601,1429,0,0
-616,-405,0,0,0,0,0,0,0,0,0,-1,608,1429,0,0
-609,-405,0,0,0,0,0,0,0,0,0,-1,615,1429,0,0
-602,-405,-5.80988,-3.46594,0,0,0,0,0,0,0,-1,622,1429,-5.80987,3.46592
-595,-405,-9.35413,2.01477,0,0,0,0,0,0,0,-1,629,1429,-9.35411,-2.01476
-588,-405,-7.35693,0.507202,0,0,0,0,0,0,0,-1,636,1429,-7.35696,-0.507187
-581,-405,-10.1284,1.62927,0,0,0,0,0,0,0,-1,643,1429,-10.1284,-1.62922
-574,-405,-9.32074,3.05896,0,0,0,0,0,0,0,-1,650,1429,-9.32077,-3.0589
-567,-405,-9.68781,6.92163,0,0,0,0,0,0,0,-1,657,1429,-9.68782,-6.92166
-560,-405,-9.28674,7.20886,0,0,0,0,0,0,0,-1,664,1429,-9.28675,-7.20885
-553,-405,-11.2083,8.43042,0,0,0,0,0,0,0,-1,671,1429,-11.2083,-8.43042
-546,-405,-11.1899,8.95679,-0.000672479,3.34317e-05,-0.000715059,0.000477902,-0.00111695,-1.01466,0.000945106,0.03898,678,1429,-11.19,-8.95674
-539,-405,-11.1682,9.49414,-0.000550783,7.0698e-05,-0.000495015,0.000344423,-0.000824508,-1.06568,0.000693596,0.0125248,685,1429,-11.1681,-9.49409
-532,-405,-11.1916,10.0311,-0.000334013,7.2437e-05,-0.00030854,0.000238668,-0.000500243,-1.07662,0.00043543,0.0156971,692,1429,-11.1916,-10.0312
-525,-405,-11.2048,10.5836,0.000150706,0.00022453,1.57972e-05,0.000227768,0.000147468,1.3686,0.000133394,0.0152245,699,1429,-11.2048,-10.5836
-518,-405,-11.1887,11.1213,0.000882945,0.000628491,0.000552869,0.00132304,0.000188399,0.672307,0.000826414,0.0149016,706,1429,-11.1887,-11.1213
-511,-405,-11.2065,11.6389,0.00188286,0.0012963,0.00135563,0.00297657,0.00020259,0.678869,0.00192042,0.0154424,713,1429,-11.2065,-11.6389
-504,-405,-11.2211,12.1746,0.00314505,0.0021864,0.00236856,0.0050823,0.000249151,0.685561,0.00330828,0.0180201,720,1429,-11.2211,-12.1745
-497,-405,-11.2435,12.7036,0.00478143,0.00342897,0.00372242,0.00788854,0.000321853,0.695546,0.0051551,0.0146761,727,1429,-11.2435,-12.7036
-490,-405,-11.2893,13.2301,0.00694715,0.00513665,0.0055561,0.0116713,0.00041254,0.704643,0.00764704,0.0126941,734,1429,-11.2893,-13.23
-483,-405,-11.2031,13.8419,0.00950245,0.00735056,0.00784551,0.0163454,0.000507557,0.717252,0.0107318,0.0224825,741,1429,-11.2031,-13.8419
-476,-405,-10.9974,14.6373,0,0,0,0,0,0,0,-1,748,1429,-10.9975,-14.6373
-469,-405,-9.65692,12.8171,0,0,0,0,0,0,0,-1,755,1429,-9.65691,-12.8172
-462,-405,-9.14862,11.3597,0,0,0,0,0,0,0,-1,762,1429,-9.14865,-11.3597
-455,-405,-9.021,9.51111,0,0,0,0,0,0,0,-1,769,1429,-9.021,-9.51109
-448,-405,-8.4649,6.82813,0,0,0,0,0,0,0,-1,776,1429,-8.46492,-6.82817
-441,-405,-6.6712,4.23767,0,0,0,0,0,0,0,-1,783,1429,-6.67121,-4.23764
-434,-405,-9.62549,3.94189,0,0,0,0,0,0,0,-1,790,1429,-9.62546,-3.94191
-427,-405,-10.9764,3.73926,0,0,0,0,0,0,0,-1,797,1429,-10.9764,-3.73923
-420,-405,-12.1187,3.68506,0,0,0,0,0,0,0,-1,804,1429,-12.1187,-3.68512
-413,-405,-13.5353,3.75659,0,0,0,0,0,0,0,-1,811,1429,-13.5353,-3.75655
-406,-405,-14.7374,3.99817,0,0,0,0,0,0,0,-1,818,1429,-14.7374,-3.99814
-399,-405,0,0,0,0,0,0,0,0,0,-1,825,1429,0,0
-392,-405,0,0,0,0,0,0,0,0,0,-1,832,1429,0,0
-385,-405,0,0,0,0,0,0,0,0,0,-1,839,1429,0,0
-378,-405,0,0,0,0,0,0,0,0,0,-1,846,1429,0,0
-371,-405,0,0,0,0,0,0,0,0,0,-1,853,1429,0,0
-364,-405,0,0,0,0,0,0,0,0,0,-1,860,1429,0,0
-357,-405,0,0,0,0,0,0,0,0,0,-1,867,1429,0,0
-350,-405,0,0,0,0,0,0,0,0,0,-1,874,1429,0,0
-343,-405,0,0,0,0,0,0,0,0,0,-1,881,1429,0,0
-336,-405,0,0,0,0,0,0,0,0,0,-1,888,1429,0,0
-329,-405,0,0,0,0,0,0,0,0,0,-1,895,1429,0,0
-322,-405,0,0,0,0,0,0,0,0,0,-1,902,1429,0,0
-315,-405,0,0,0,0,0,0,0,0,0,-1,909,1429,0,0
-308,-405,0,0,0,0,0,0,0,0,0,-1,916,1429,0,0
-301,-405,0,0,0,0,0,0,0,0,0,-1,923,1429,0,0
-294,-405,0,0,0,0,0,0,0,0,0,-1,930,1429,0,0
-287,-405,0,0,0,0,0,0,0,0,0,-1,937,1429,0,0
-280,-405,0,0,0,0,0,0,0,0,0,-1,944,1429,0,0
-273,-405,0,0,0,0,0,0,0,0,0,-1,951,1429,0,0
-266,-405,0,0,0,0,0,0,0,0,0,-1,958,1429,0,0
-259,-405,0,0,0,0,0,0,0,0,0,-1,965,1429,0,0
-252,-405,0,0,0,0,0,0,0,0,0,-1,972,1429,0,0
-245,-405,0,0,0,0,0,0,0,0,0,-1,979,1429,0,0
-238,-405,0,0,0,0,0,0,0,0,0,-1,986,1429,0,0
-231,-405,0,0,0,0,0,0,0,0,0,-1,993,1429,0,0
-224,-405,0,0,0,0,0,0,0,0,0,-1,1000,1429,0,0
-217,-405,0,0,0,0,0,0,0,0,0,-1,1007,1429,0,0
-210,-405,0,0,0,0,0,0,0,0,0,-1,1014,1429,0,0
-203,-405,0,0,0,0,0,0,0,0,0,-1,1021,1429,0,0
-196,-405,0,0,0,0,0,0,0,0,0,-1,1028,1429,0,0
-189,-405,0,0,0,0,0,0,0,0,0,-1,1035,1429,0,0
-182,-405,0,0,0,0,0,0,0,0,0,-1,1042,1429,0,0
-175,-405,0,0,0,0,0,0,0,0,0,-1,1049,1429,0,0
-168,-405,0,0,0,0,0,0,0,0,0,-1,1056,1429,0,0
-161,-405,0,0,0,0,0,0,0,0,0,-1,1063,1429,0,0
-154,-405,0,0,0,0,0,0,0,0,0,-1,1070,1429,0,0
-147,-405,0,0,0,0,0,0,0,0,0,-1,1077,1429,0,0
-140,-405,0,0,0,0,0,0,0,0,0,-1,1084,1429,0,0
-133,-405,0,0,0,0,0,0,0,0,0,-1,1091,1429,0,0
-126,-405,0,0,0,0,0,0,0,0,0,-1,1098,1429,0,0
-119,-405,0,0,0,0,0,0,0,0,0,-1,1105,1429,0,0
-112,-405,0,0,0,0,0,0,0,0,0,-1,1112,1429,0,0
-105,-405,0,0,0,0,0,0,0,0,0,-1,1119,1429,0,0
-98,-405,0,0,0,0,0,0,0,0,0,-1,1126,1429,0,0
-91,-405,0,0,0,0,0,0,0,0,0,-1,1133,1429,0,0
-84,-405,0,0,0,0,0,0,0,0,0,-1,1140,1429,0,0
-77,-405,0,0,0,0,0,0,0,0,0,-1,1147,1429,0,0
-70,-405,0,0,0,0,0,0,0,0,0,-1,1154,1429,0,0
-63,-405,0,0,0,0,0,0,0,0,0,-1,1161,1429,0,0
-56,-405,0,0,0,0,0,0,0,0,0,-1,1168,1429,0,0
-49,-405,0,0,0,0,0,0,0,0,0,-1,1175,1429,0,0
-42,-405,0,0,0,0,0,0,0,0,0,-1,1182,1429,0,0
-35,-405,0,0,0,0,0,0,0,0,0,-1,1189,1429,0,0
-28,-405,0,0,0,0,0,0,0,0,0,-1,1196,1429,0,0
-21,-405,0,0,0,0,0,0,0,0,0,-1,1203,1429,0,0
-14,-405,0,0,0,0,0,0,0,0,0,-1,1210,1429,0,0
-7,-405,0,0,0,0,0,0,0,0,0,-1,1217,1429,0,0
0,-405,0,0,0,0,0,0,0,0,0,-1,1224,1429,0,0
7,-405,0,0,0,0,0,0,0,0,0,-1,1231,1429,0,0
14,-405,0,0,0,0,0,0,0,0,0,-1,1238,1429,0,0
21,-405,0,0,0,0,0,0,0,0,0,-1,1245,1429,0,0
28,-405,0,0,0,0,0,0,0,0,0,-1,1252,1429,0,0
35,-405,0,0,0,0,0,0,0,0,0,-1,1259,1429,0,0
42,-405,0,0,0,0,0,0,0,0,0,-1,1266,1429,0,0
49,-405,0,0,0,0,0,0,0,0,0,-1,1273,1429,0,0
56,-405,0,0,0,0,0,0,0,0,0,-1,1280,1429,0,0
63,-405,0,0,0,0,0,0,0,0,0,-1,1287,1429,0,0
70,-405,0,0,0,0,0,0,0,0,0,-1,1294,1429,0,0
77,-405,0,0,0,0,0,0,0,0,0,-1,1301,1429,0,0
84,-405,0,0,0,0,0,0,0,0,0,-1,1308,1429,0,0
91,-405,0,0,0,0,0,0,0,0,0,-1,1315,1429,0,0
98,-405,0,0,0,0,0,0,0,0,0,-1,1322,1429,0,0
105,-405,0,0,0,0,0,0,0,0,0,-1,1329,1429,0,0
112,-405,0,0,0,0,0,0,0,0,0,-1,1336,1429,0,0
119,-405,0,0,0,0,0,0,0,0,0,-1,1343,1429,0,0
126,-405,0,0,0,0,0,0,0,0,0,-1,1350,1429,0,0
133,-405,0,0,0,0,0,0,0,0,0,-1,1357,1429,0,0
140,-405,0,0,0,0,0,0,0,0,0,-1,1364,1429,0,0
147,-405,0,0,0,0,0,0,0,0,0,-1,1371,1429,0,0
154,-405,0,0,0,0,0,0,0,0,0,-1,1378,1429,0,0
161,-405,0,0,0,0,0,0,0,0,0,-1,1385,1429,0,0
168,-405,0,0,0,0,0,0,0,0,0,-1,1392,1429,0,0
175,-405,0,0,0,0,0,0,0,0,0,-1,1399,1429,0,0
182,-405,0,0,0,0,0,0,0,0,0,-1,1406,1429,0,0
189,-405,0,0,0,0,0,0,0,0,0,-1,1413,1429,0,0
196,-405,0,0,0,0,0,0,0,0,0,-1,1420,1429,0,0
203,-405,0,0,0,0,0,0,0,0,0,-1,1427,1429,0,0
210,-405,0,0,0,0,0,0,0,0,0,-1,1434,1429,0,0
217,-405,0,0,0,0,0,0,0,0,0,-1,1441,1429,0,0
224,-405,0,0,0,0,0,0,0,0,0,-1,1448,1429,0,0
231,-405,0,0,0,0,0,0,0,0,0,-1,1455,1429,0,0
238,-405,0,0,0,0,0,0,0,0,0,-1,1462,1429,0,0
245,-405,0,0,0,0,0,0,0,0,0,-1,1469,1429,0,0
252,-405,0,0,0,0,0,0,0,0,0,-1,1476,1429,0,0
259,-405,0,0,0,0,0,0,0,0,0,-1,1483,1429,0,0
266,-405,0,0,0,0,0,0,0,0,0,-1,1490,1429,0,0
273,-405,0,0,0,0,0,0,0,0,0,-1,1497,1429,0,0
280,-405,0,0,0,0,0,0,0,0,0,-1,1504,1429,0,0
287,-405,0,0,0,0,0,0,0,0,0,-1,1511,1429,0,0
294,-405,0,0,0,0,0,0,0,0,0,-1,1518,1429,0,0
301,-405,0,0,0,0,0,0,0,0,0,-1,1525,1429,0,0
308,-405,0,0,0,0,0,0,0,0,0,-1,1532,1429,0,0
315,-405,0,0,0,0,0,0,0,0,0,-1,1539,1429,0,0
322,-405,0,0,0,0,0,0,0,0,0,-1,1546,1429,0,0
329,-405,0,0,0,0,0,0,0,0,0,-1,1553,1429,0,0
336,-405,0,0,0,0,0,0,0,0,0,-1,1560,1429,0,0
343,-405,0,0,0,0,0,0,0,0,0,-1,1567,1429,0,0
350,-405,0,0,0,0,0,0,0,0,0,-1,1574,1429,0,0
357,-405,0,0,0,0,0,0,0,0,0,-1,1581,1429,0,0
364,-405,0,0,0,0,0,0,0,0,0,-1,1588,1429,0,0
371,-405,0,0,0,0,0,0,0,0,0,-1,1595,1429,0,0
378,-405,0,0,0,0,0,0,0,0,0,-1,1602,1429,0,0
385,-405,0,0,0,0,0,0,0,0,0,-1,1609,1429,0,0
392,-405,0,0,0,0,0,0,0,0,0,-1,1616,1429,0,0
399,-405,0,0,0,0,0,0,0,0,0,-1,1623,1429,0,0
406,-405,0,0,0,0,0,0,0,0,0,-1,1630,1429,0,0
413,-405,0,0,0,0,0,0,0,0,0,-1,1637,1429,0,0
420,-405,0,0,0,0,0,0,0,0,0,-1,1644,1429,0,0
427,-405,0,0,0,0,0,0,0,0,0,-1,1651,1429,0,0
434,-405,0,0,0,0,0,0,0,0,0,-1,1658,1429,0,0
441,-405,0,0,0,0,0,0,0,0,0,-1,1665,1429,0,0
448,-405,0,0,0,0,0,0,0,0,0,-1,1672,1429,0,0
455,-405,0,0,0,0,0,0,0,0,0,-1,1679,1429,0,0
462,-405,0,0,0,0,0,0,0,0,0,-1,1686,1429,0,0
469,-405,0,0,0,0,0,0,0,0,0,-1,1693,1429,0,0
476,-405,0,0,0,0,0,0,0,0,0,-1,1700,1429,0,0
483,-405,0,0,0,0,0,0,0,0,0,-1,1707,1429,0,0
490,-405,0,0,0,0,0,0,0,0,0,-1,1714,1429,0,0
497,-405,0,0,0,0,0,0,0,0,0,-1,1721,1429,0,0
504,-405,0,0,0,0,0,0,0,0,0,-1,1728,1429,0,0
511,-405,0,0,0,0,0,0,0,0,0,-1,1735,1429,0,0
518,-405,0,0,0,0,0,0,0,0,0,-1,1742,1429,0,0
525,-405,31.1563,-1.40942,0,0,0,0,0,0,0,-1,1749,1429,31.1563,1.40937
532,-405,28.156,4.8783,0,0,0,0,0,0,0,-1,1756,1429,28.1561,-4.87833
539,-405,26.5133,3.02454,0,0,0,0,0,0,0,-1,1763,1429,26.5133,-3.0246
546,-405,29.5735,6.53052,0,0,0,0,0,0,0,-1,1770,1429,29.5735,-6.53049
553,-405,28.2911,6.70654,0,0,0,0,0,0,0,-1,1777,1429,28.2912,-6.70656
560,-405,26.9299,7.08472,0,0,0,0,0,0,0,-1,1784,1429,26.9299,-7.08469
567,-405,25.804,7.14661,0,0,0,0,0,0,0,-1,1791,1429,25.8039,-7.14665
574,-405,25.1151,8.07971,0,0,0,0,0,0,0,-1,1798,1429,25.1151,-8.07965
581,-405,23.5055,8.505,0,0,0,0,0,0,0,-1,1805,1429,23.5054,-8.50501
588,-405,21.7491,8.98254,0,0,0,0,0,0,0,-1,1812,1429,21.7491,-8.98254
595,-405,21.6327,10.7795,0,0,0,0,0,0,0,-1,1819,1429,21.6327,-10.7796
602,-405,21.6461,13.9199,0,0,0,0,0,0,0,-1,1826,1429,21.6461,-13.92
609,-405,25.251,16.1031,0,0,0,0,0,0,0,-1,1833,1429,25.251,-16.1031
616,-405,25.4976,15.496,0.00267447,0.00285807,-0.00223305,0.00500121,0.000531331,-0.805941,0.0031719,0.0367358,1840,1429,25.4976,-15.496
623,-405,25.5417,14.9055,0.00175334,0.00173801,-0.00140442,0.00315011,0.000341237,-0.78267,0.00199607,0.0130398,1847,1429,25.5418,-14.9055
630,-405,25.5529,14.3827,0.00127034,0.000965958,-0.000839569,0.0019714,0.000264899,-0.695734,0.00123547,0.0109931,1854,1429,25.5528,-14.3827
637,-405,25.5338,13.8805,0.000994837,0.000407273,-0.000484208,0.00126742,0.000134694,-0.512723,0.000803817,0.0122802,1861,1429,25.5339,-13.8804
644,-405,25.4464,13.4182,0.000823051,0.000104752,-0.000186911,0.000868778,5.90262e-05,-0.239928,0.000560546,0.0312695,1868,1429,25.4465,-13.4182
651,-405,25.4441,12.9688,0.000757431,-0.000139392,0.000110254,0.000770787,-0.000152747,0.120547,0.000571617,0.0333287,1875,1429,25.4441,-12.9687
658,-405,25.4395,12.4766,0.000686485,-0.000299839,0.000455877,0.000864913,-0.000478267,0.373066,0.000786122,0.0234925,1882,1429,25.4395,-12.4765
665,-405,25.4713,11.9723,0.000623542,-0.000470676,0.000894736,0.00112518,-0.000972319,0.510991,0.00121207,0.0182858,1889,1429,25.4714,-11.9723
672,-405,25.4923,11.4849,0.000506601,-0.000646031,0.00150159,0.00153867,-0.0016781,0.602165,0.00185779,0.0227884,1896,1429,25.4923,-11.4849
679,-405,25.5044,10.9926,0.000249585,-0.000978772,0.00238454,0.00209777,-0.00282696,0.659354,0.00285366,0.0218352,1903,1429,25.5044,-10.9926
686,-405,25.304,10.4845,-0.000395422,-0.00179465,0.00383405,0.00280232,-0.00499239,0.695154,0.0045591,0.0402831,1910,1429,25.3039,-10.4845
693,-405,25.1693,10.3789,0,0,0,0,0,0,0,-1,1917,1429,25.1693,-10.3789
700,-405,9.1958,4.02026,0,0,0,0,0,0,0,-1,1924,1429,9.19579,-4.02025
707,-405,7.40308,3.83191,0,0,0,0,0,0,0,-1,1931,1429,7.40311,-3.83194
714,-405,7.33252,3.47388,0,0,0,0,0,0,0,-1,1938,1429,7.33255,-3.47383
721,-405,9.23523,0.993896,0,0,0,0,0,0,0,-1,1945,1429,9.23523,-0.993884
728,-405,0,0,0,0,0,0,0,0,0,-1,1952,1429,0,0
735,-405,0,0,0,0,0,0,0,0,0,-1,1959,1429,0,0
742,-405,0,0,0,0,0,0,0,0,0,-1,1966,1429,0,0
749,-405,0,0,0,0,0,0,0,0,0,-1,1973,1429,0,0
756,-405,0,0,0,0,0,0,0,0,0,-1,1980,1429,0,0
763,-405,0,0,0,0,0,0,0,0,0,-1,1987,1429,0,0
770,-405,0,0,0,0,0,0,0,0,0,-1,1994,1429,0,0
777,-405,0,0,0,0,0,0,0,0,0,-1,2001,1429,0,0
784,-405,0,0,0,0,0,0,0,0,0,-1,2008,1429,0,0
791,-405,0,0,0,0,0,0,0,0,0,-1,2015,1429,0,0
798,-405,0,0,0,0,0,0,0,0,0,-1,2022,1429,0,0
805,-405,0,0,0,0,0,0,0,0,0,-1,2029,1429,0,0
812,-405,0,0,0,0,0,0,0,0,0,-1,2036,1429,0,0
-700,-412,0,0,0,0,0,0,0,0,0,-1,524,1436,0,0
-693,-412,0,0,0,0,0,0,0,0,0,-1,531,1436,0,0
-686,-412,0,0,0,0,0,0,0,0,0,-1,538,1436,0,0
-679,-412,0,0,0,0,0,0,0,0,0,-1,545,1436,0,0
-672,-412,0,0,0,0,0,0,0,0,0,-1,552,1436,0,0
-665,-412,0,0,0,0,0,0,0,0,0,-1,559,1436,0,0
-658,-412,0,0,0,0,0,0,0,0,0,-1,566,1436,0,0
-651,-412,0,0,0,0,0,0,0,0,0,-1,573,1436,0,0
-644,-412,0,0,0,0,0,0,0,0,0,-1,580,1436,0,0
-637,-412,0,0,0,0,0,0,0,0,0,-1,587,1436,0,0
-630,-412,0,0,0,0,0,0,0,0,0,-1,594,1436,0,0
-623,-412,0,0,0,0,0,0,0,0,0,-1,601,1436,0,0
-616,-412,0,0,0,0,0,0,0,0,0,-1,608,1436,0,0
-609,-412,0,0,0,0,0,0,0,0,0,-1,615,1436,0,0
-602,-412,-3.72766,-3.50012,0,0,0,0,0,0,0,-1,622,1436,-3.72764,3.50017
-595,-412,-10.3706,0.65564,0,0,0,0,0,0,0,-1,629,1436,-10.3706,-0.655672
-588,-412,-8.17957,1.94934,0,0,0,0,0,0,0,-1,636,1436,-8.17956,-1.94939
-581,-412,-6.60065,-0.0554199,0,0,0,0,0,0,0,-1,643,1436,-6.60063,0.0554733
-574,-412,-8.34131,5.25012,0,0,0,0,0,0,0,-1,650,1436,-8.34129,-5.25012
-567,-412,-7.50354,3.65454,0,0,0,0,0,0,0,-1,657,1436,-7.50356,-3.65452
-560,-412,-8.52448,7.39014,0,0,0,0,0,0,0,-1,664,1436,-8.52447,-7.39019
-553,-412,-7.36761,6.54651,0,0,0,0,0,0,0,-1,671,1436,-7.36763,-6.54654
-546,-412,-10.6859,8.8905,0,0,0,0,0,0,0,-1,678,1436,-10.6859,-8.89055
-539,-412,-10.613,9.46533,-0.0011559,0.000234383,-0.000605694,0.000461243,-0.00138276,-1.21242,0.00110806,0.0233763,685,1436,-10.613,-9.46532
-532,-412,-10.6497,10.071,-0.000912762,0.000152322,-0.000440949,0.000311183,-0.00107162,-1.225,0.000837637,0.013916,692,1436,-10.6497,-10.071
-525,-412,-10.6724,10.621,-0.000446149,0.000191419,-0.000194061,0.000245842,-0.000500572,-1.29738,0.000439227,0.0153284,699,1436,-10.6724,-10.621
-518,-412,-10.6582,11.14,0.000237376,0.000497662,0.000263909,0.000661773,7.32658e-05,1.01447,0.000418901,0.0158561,706,1436,-10.6582,-11.14
-511,-412,-10.6863,11.6462,0.00114322,0.00107936,0.000962484,0.0020743,0.000148275,0.768818,0.00133619,0.0184636,713,1436,-10.6863,-11.6463
-504,-412,-10.7141,12.1868,0.00228859,0.00189235,0.00186879,0.00396973,0.000211206,0.732588,0.00257897,0.0190847,720,1436,-10.7141,-12.1868
-497,-412,-10.7495,12.7174,0.0037768,0.0030367,0.00308851,0.00651735,0.000296149,0.725775,0.00424963,0.0154376,727,1436,-10.7495,-12.7174
-490,-412,-10.7608,13.2351,0.00571136,0.00462481,0.00475351,0.00995254,0.000383628,0.728501,0.00651092,0.0128685,734,1436,-10.7608,-13.2351
-483,-412,-10.7482,13.756,0.00802912,0.00663952,0.00682652,0.0141961,0.000472535,0.734683,0.00931056,0.00988204,741,1436,-10.7482,-13.7559
-476,-412,-10.5776,14.5197,0.010911,0.0092625,0.00953744,0.0196597,0.000513748,0.742295,0.0129386,0.0337011,748,1436,-10.5776,-14.5196
-469,-412,-10.412,15.3335,0,0,0,0,0,0,0,-1,755,1436,-10.4121,-15.3334
-462,-412,-8.94659,13.3385,0,0,0,0,0,0,0,-1,762,1436,-8.94657,-13.3385
-455,-412,-8.25006,11.2572,0,0,0,0,0,0,0,-1,769,1436,-8.25007,-11.2572
-448,-412,-7.38086,8.78186,0,0,0,0,0,0,0,-1,776,1436,-7.38088,-8.78183
-441,-412,-8.79523,9.05286,0,0,0,0,0,0,0,-1,783,1436,-8.79521,-9.0529
-434,-412,-10.6305,8.03577,0,0,0,0,0,0,0,-1,790,1436,-10.6305,-8.0358
-427,-412,-10.0004,5.15271,0,0,0,0,0,0,0,-1,797,1436,-10.0004,-5.15266
-420,-412,-10.4468,4.9043,0,0,0,0,0,0,0,-1,804,1436,-10.4468,-4.90429
-413,-412,-11.5704,4.97766,0,0,0,0,0,0,0,-1,811,1436,-11.5704,-4.97771
-406,-412,-13.1968,5.70093,0,0,0,0,0,0,0,-1,818,1436,-13.1968,-5.70096
-399,-412,-10.5506,0.771973,0,0,0,0,0,0,0,-1,825,1436,-10.5506,-0.771954
-392,-412,0,0,0,0,0,0,0,0,0,-1,832,1436,0,0
-385,-412,0,0,0,0,0,0,0,0,0,-1,839,1436,0,0
-378,-412,0,0,0,0,0,0,0,0,0,-1,846,1436,0,0
-371,-412,0,0,0,0,0,0,0,0,0,-1,853,1436,0,0
-364,-412,0,0,0,0,0,0,0,0,0,-1,860,1436,0,0
-357,-412,0,0,0,0,0,0,0,0,0,-1,867,1436,0,0
-350,-412,0,0,0,0,0,0,0,0,0,-1,874,1436,0,0
-343,-412,0,0,0,0,0,0,0,0,0,-1,881,1436,0,0
-336,-412,0,0,0,0,0,0,0,0,0,-1,888,1436,0,0
-329,-412,0,0,0,0,0,0,0,0,0,-1,895,1436,0,0
-322,-412,0,0,0,0,0,0,0,0,0,-1,902,1436,0,0
-315,-412,0,0,0,0,0,0,0,0,0,-1,909,1436,0,0
-308,-412,0,0,0,0,0,0,0,0,0,-1,916,1436,0,0
-301,-412,0,0,0,0,0,0,0,0,0,-1,923,1436,0,0
-294,-412,0,0,0,0,0,0,0,0,0,-1,930,1436,0,0
-287,-412,0,0,0,0,0,0,0,0,0,-1,937,1436,0,0
-280,-412,0,0,0,0,0,0,0,0,0,-1,944,1436,0,0
-273,-412,0,0,0,0,0,0,0,0,0,-1,951,1436,0,0
-266,-412,0,0,0,0,0,0,0,0,0,-1,958,1436,0,0
-259,-412,0,0,0,0,0,0,0,0,0,-1,965,1436,0,0
-252,-412,0,0,0,0,0,0,0,0,0,-1,972,1436,0,0
-245,-412,0,0,0,0,0,0,0,0,0,-1,979,1436,0,0
-238,-412,0,0,0,0,0,0,0,0,0,-1,986,1436,0,0
-231,-412,0,0,0,0,0,0,0,0,0,-1,993,1436,0,0
-224,-412,0,0,0,0,0,0,0,0,0,-1,1000,1436,0,0
-217,-412,0,0,0,0,0,0,0,0,0,-1,1007,1436,0,0
-210,-412,0,0,0,0,0,0,0,0,0,-1,1014,1436,0,0
-203,-412,0,0,0,0,0,0,0,0,0,-1,1021,1436,0,0
-196,-412,0,0,0,0,0,0,0,0,0,-1,1028,1436,0,0
-189,-412,0,0,0,0,0,0,0,0,0,-1,1035,1436,0,0
-182,-412,0,0,0,0,0,0,0,0,0,-1,1042,1436,0,0
-175,-412,0,0,0,0,0,0,0,0,0,-1,1049,1436,0,0
-168,-412,0,0,0,0,0,0,0,0,0,-1,1056,1436,0,0
-161,-412,0,0,0,0,0,0,0,0,0,-1,1063,1436,0,0
-154,-412,0,0,0,0,0,0,0,0,0,-1,1070,1436,0,0
-147,-412,0,0,0,0,0,0,0,0,0,-1,1077,1436,0,0
-140,-412,0,0,0,0,0,0,0,0,0,-1,1084,1436,0,0
-133,-412,0,0,0,0,0,0,0,0,0,-1,1091,1436,0,0
-126,-412,0,0,0,0,0,0,0,0,0,-1,1098,1436,0,0
-119,-412,0,0,0,0,0,0,0,0,0,-1,1105,1436,0,0
-112,-412,0,0,0,0,0,0,0,0,0,-1,1112,1436,0,0
-105,-412,0,0,0,0,0,0,0,0,0,-1,1119,1436,0,0
-98,-412,0,0,0,0,0,0,0,0,0,-1,1126,1436,0,0
-91,-412,0,0,0,0,0,0,0,0,0,-1,1133,1436,0,0
-84,-412,0,0,0,0,0,0,0,0,0,-1,1140,1436,0,0
-77,-412,0,0,0,0,0,0,0,0,0,-1,1147,1436,0,0
-70,-412,0,0,0,0,0,0,0,0,0,-1,1154,1436,0,0
-63,-412,0,0,0,0,0,0,0,0,0,-1,1161,1436,0,0
-56,-412,0,0,0,0,0,0,0,0,0,-1,1168,1436,0,0
-49,-412,0,0,0,0,0,0,0,0,0,-1,1175,1436,0,0
-42,-412,0,0,0,0,0,0,0,0,0,-1,1182,1436,0,0
-35,-412,0,0,0,0,0,0,0,0,0,-1,1189,1436,0,0
-28,-412,0,0,0,0,0,0,0,0,0,-1,1196,1436,0,0
-21,-412,0,0,0,0,0,0,0,0,0,-1,1203,1436,0,0
-14,-412,0,0,0,0,0,0,0,0,0,-1,1210,1436,0,0
-7,-412,0,0,0,0,0,0,0,0,0,-1,1217,1436,0,0
0,-412,0,0,0,0,0,0,0,0,0,-1,1224,1436,0,0
7,-412,0,0,0,0,0,0,0,0,0,-1,1231,1436,0,0
14,-412,0,0,0,0,0,0,0,0,0,-1,1238,1436,0,0
21,-412,0,0,0,0,0,0,0,0,0,-1,1245,1436,0,0
28,-412,0,0,0,0,0,0,0,0,0,-1,1252,1436,0,0
35,-412,0,0,0,0,0,0,0,0,0,-1,1259,1436,0,0
42,-412,0,0,0,0,0,0,0,0,0,-1,1266,1436,0,0
49,-412,0,0,0,0,0,0,0,0,0,-1,1273,1436,0,0
56,-412,0,0,0,0,0,0,0,0,0,-1,1280,1436,0,0
63,-412,0,0,0,0,0,0,0,0,0,-1,1287,1436,0,0
70,-412,0,0,0,0,0,0,0,0,0,-1,1294,1436,0,0
77,-412,0,0,0,0,0,0,0,0,0,-1,1301,1436,0,0
84,-412,0,0,0,0,0,0,0,0,0,-1,1308,1436,0,0
91,-412,0,0,0,0,0,0,0,0,0,-1,1315,1436,0,0
98,-412,0,0,0,0,0,0,0,0,0,-1,1322,1436,0,0
105,-412,0,0,0,0,0,0,0,0,0,-1,1329,1436,0,0
112,-412,0,0,0,0,0,0,0,0,0,-1,1336,1436,0,0
119,-412,0,0,0,0,0,0,0,0,0,-1,1343,1436,0,0
126,-412,0,0,0,0,0,0,0,0,0,-1,1350,1436,0,0
133,-412,0,0,0,0,0,0,0,0,0,-1,1357,1436,0,0
140,-412,0,0,0,0,0,0,0,0,0,-1,1364,1436,0,0
147,-412,0,0,0,0,0,0,0,0,0,-1,1371,1436,0,0
154,-412,0,0,0,0,0,0,0,0,0,-1,1378,1436,0,0
161,-412,0,0,0,0,0,0,0,0,0,-1,1385,1436,0,0
168,-412,0,0,0,0,0,0,0,0,0,-1,1392,1436,0,0
175,-412,0,0,0,0,0,0,0,0,0,-1,1399,1436,0,0
182,-412,0,0,0,0,0,0,0,0,0,-1,1406,1436,0,0
189,-412,0,0,0,0,0,0,0,0,0,-1,1413,1436,0,0
196,-412,0,0,0,0,0,0,0,0,0,-1,1420,1436,0,0
203,-412,0,0,0,0,0,0,0,0,0,-1,1427,1436,0,0
210,-412,0,0,0,0,0,0,0,0,0,-1,1434,1436,0,0
217,-412,0,0,0,0,0,0,0,0,0,-1,1441,1436,0,0
224,-412,0,0,0,0,0,0,0,0,0,-1,1448,1436,0,0
231,-412,0,0,0,0,0,0,0,0,0,-1,1455,1436,0,0
238,-412,0,0,0,0,0,0,0,0,0,-1,1462,1436,0,0
245,-412,0,0,0,0,0,0,0,0,0,-1,1469,1436,0,0
252,-412,0,0,0,0,0,0,0,0,0,-1,1476,1436,0,0
259,-412,0,0,0,0,0,0,0,0,0,-1,1483,1436,0,0
266,-412,0,0,0,0,0,0,0,0,0,-1,1490,1436,0,0
273,-412,0,0,0,0,0,0,0,0,0,-1,1497,1436,0,0
280,-412,0,0,0,0,0,0,0,0,0,-1,1504,1436,0,0
287,-412,0,0,0,0,0,0,0,0,0,-1,1511,1436,0,0
294,-412,0,0,0,0,0,0,0,0,0,-1,1518,1436,0,0
301,-412,0,0,0,0,0,0,0,0,0,-1,1525,1436,0,0
308,-412,0,0,0,0,0,0,0,0,0,-1,1532,1436,0,0
315,-412,0,0,0,0,0,0,0,0,0,-1,1539,1436,0,0
322,-412,0,0,0,0,0,0,0,0,0,-1,1546,1436,0,0
329,-412,0,0,0,0,0,0,0,0,0,-1,1553,1436,0,0
336,-412,0,0,0,0,0,0,0,0,0,-1,1560,1436,0,0
343,-412,0,0,0,0,0,0,0,0,0,-1,1567,1436,0,0
350,-412,0,0,0,0,0,0,0,0,0,-1,1574,1436,0,0
357,-412,0,0,0,0,0,0,0,0,0,-1,1581,1436,0,0
364,-412,0,0,0,0,0,0,0,0,0,-1,1588,1436,0,0
371,-412,0,0,0,0,0,0,0,0,0,-1,1595,1436,0,0
378,-412,0,0,0,0,0,0,0,0,0,-1,1602,1436,0,0
385,-412,0,0,0,0,0,0,0,0,0,-1,1609,1436,0,0
392,-412,0,0,0,0,0,0,0,0,0,-1,1616,1436,0,0
399,-412,0,0,0,0,0,0,0,0,0,-1,1623,1436,0,0
406,-412,0,0,0,0,0,0,0,0,0,-1,1630,1436,0,0
413,-412,0,0,0,0,0,0,0,0,0,-1,1637,1436,0,0
420,-412,0,0,0,0,0,0,0,0,0,-1,1644,1436,0,0
427,-412,0,0,0,0,0,0,0,0,0,-1,1651,1436,0,0
434,-412,0,0,0,0,0,0,0,0,0,-1,1658,1436,0,0
441,-412,0,0,0,0,0,0,0,0,0,-1,1665,1436,0,0
448,-412,0,0,0,0,0,0,0,0,0,-1,1672,1436,0,0
455,-412,0,0,0,0,0,0,0,0,0,-1,1679,1436,0,0
462,-412,0,0,0,0,0,0,0,0,0,-1,1686,1436,0,0
469,-412,0,0,0,0,0,0,0,0,0,-1,1693,1436,0,0
476,-412,0,0,0,0,0,0,0,0,0,-1,1700,1436,0,0
483,-412,0,0,0,0,0,0,0,0,0,-1,1707,1436,0,0
490,-412,0,0,0,0,0,0,0,0,0,-1,1714,1436,0,0
497,-412,0,0,0,0,0,0,0,0,0,-1,1721,1436,0,0
504,-412,0,0,0,0,0,0,0,0,0,-1,1728,1436,0,0
511,-412,0,0,0,0,0,0,0,0,0,-1,1735,1436,0,0
518,-412,30.1038,-2.43384,0,0,0,0,0,0,0,-1,1742,1436,30.1038,2.43383
525,-412,29.5283,-1.42493,0,0,0,0,0,0,0,-1,1749,1436,29.5283,1.42495
532,-412,28.8533,-0.386597,0,0,0,0,0,0,0,-1,1756,1436,28.8533,0.386632
539,-412,25.8654,2.74683,0,0,0,0,0,0,0,-1,1763,1436,25.8654,-2.74685
546,-412,25.4265,2.4342,0,0,0,0,0,0,0,-1,1770,1436,25.4265,-2.4342
553,-412,26.3595,7.49255,0,0,0,0,0,0,0,-1,1777,1436,26.3595,-7.4925
560,-412,24.9116,7.94324,0,0,0,0,0,0,0,-1,1784,1436,24.9116,-7.94327
567,-412,23.668,7.94531,0,0,0,0,0,0,0,-1,1791,1436,23.6679,-7.94534
574,-412,23.0142,9.17236,0,0,0,0,0,0,0,-1,1798,1436,23.0141,-9.17235
581,-412,22.2615,10.0349,0,0,0,0,0,0,0,-1,1805,1436,22.2615,-10.0349
588,-412,21.6893,10.8069,0,0,0,0,0,0,0,-1,1812,1436,21.6893,-10.8069
595,-412,21.5137,14.3157,0,0,0,0,0,0,0,-1,1819,1436,21.5137,-14.3157
602,-412,24.9137,16.6128,0,0,0,0,0,0,0,-1,1826,1436,24.9137,-16.6128
609,-412,25.0471,15.8961,0.00358386,0.00399146,-0.00313669,0.00693096,0.000644358,-0.817839,0.00442153,0.0288271,1833,1436,25.0471,-15.8961
616,-412,25.0903,15.3746,0.00254552,0.00258688,-0.00210776,0.00467406,0.00045834,-0.790304,0.00297505,0.0110359,1840,1436,25.0903,-15.3747
623,-412,25.0575,14.9017,0.00181158,0.00163691,-0.00139863,0.0031256,0.00032289,-0.754218,0.00198488,0.00942103,1847,1436,25.0576,-14.9017
630,-412,25.0531,14.3917,0.00138785,0.00090676,-0.000886033,0.00206541,0.000229202,-0.652849,0.00130726,0.012842,1854,1436,25.0531,-14.3917
637,-412,25.058,13.8734,0.00108892,0.000376078,-0.000501337,0.00134762,0.000117377,-0.476383,0.000861957,0.0157733,1861,1436,25.058,-13.8735
644,-412,25.0397,13.4042,0.000902367,5.54559e-05,-0.000172376,0.000936107,2.17154e-05,-0.193293,0.000616961,0.0161069,1868,1436,25.0397,-13.4041
651,-412,25.006,12.8915,0.000817757,-0.000179968,0.000117321,0.000831367,-0.000193578,0.11549,0.000628783,0.025995,1875,1436,25.006,-12.8914
658,-412,24.9832,12.4354,0.000725162,-0.000320513,0.000439364,0.000885259,-0.00048061,0.349431,0.000800037,0.0167291,1882,1436,24.9832,-12.4354
665,-412,24.969,11.975,0.000625858,-0.000451616,0.000859639,0.00110162,-0.000927382,0.505487,0.00117289,0.0215218,1889,1436,24.969,-11.9749
672,-412,25.0295,11.4982,0.000438268,-0.00053909,0.00144771,0.00147756,-0.00157838,0.622627,0.00176466,0.0275484,1896,1436,25.0296,-11.4982
679,-412,25.0913,10.99,4.19754e-05,-0.000820707,0.00235877,0.00200852,-0.00278725,0.694964,0.00278098,0.0406021,1903,1436,25.0913,-10.99
686,-412,25.0116,10.3962,0,0,0,0,0,0,0,-1,1910,1436,25.0115,-10.3963
693,-412,11.9346,6.02344,0,0,0,0,0,0,0,-1,1917,1436,11.9346,-6.02343
700,-412,8.82764,5.8844,0,0,0,0,0,0,0,-1,1924,1436,8.82761,-5.88444
707,-412,6.59998,1.68994,0,0,0,0,0,0,0,-1,1931,1436,6.60002,-1.68995
714,-412,4.77283,-2.39832,0,0,0,0,0,0,0,-1,1938,1436,4.77288,2.39835
721,-412,0,0,0,0,0,0,0,0,0,-1,1945,1436,0,0
728,-412,0,0,0,0,0,0,0,0,0,-1,1952,1436,0,0
735,-412,0,0,0,0,0,0,0,0,0,-1,1959,1436,0,0
742,-412,0,0,0,0,0,0,0,0,0,-1,1966,1436,0,0
749,-412,0,0,0,0,0,0,0,0,0,-1,1973,1436,0,0
756,-412,0,0,0,0,0,0,0,0,0,-1,1980,1436,0,0
763,-412,0,0,0,0,0,0,0,0,0,-1,1987,1436,0,0
770,-412,0,0,0,0,0,0,0,0,0,-1,1994,1436,0,0
777,-412,0,0,0,0,0,0,0,0,0,-1,2001,1436,0,0
784,-412,0,0,0,0,0,0,0,0,0,-1,2008,1436,0,0
791,-412,0,0,0,0,0,0,0,0,0,-1,2015,1436,0,0
798,-412,0,0,0,0,0,0,0,0,0,-1,2022,1436,0,0
805,-412,0,0,0,0,0,0,0,0,0,-1,2029,1436,0,0
812,-412,0,0,0,0,0,0,0,0,0,-1,2036,1436,0,0
-700,-419,0,0,0,0,0,0,0,0,0,-1,524,1443,0,0
-693,-419,0,0,0,0,0,0,0,0,0,-1,531,1443,0,0
-686,-419,0,0,0,0,0,0,0,0,0,-1,538,1443,0,0
-679,-419,0,0,0,0,0,0,0,0,0,-1,545,1443,0,0
-672,-419,0,0,0,0,0,0,0,0,0,-1,552,1443,0,0
-665,-419,0,0,0,0,0,0,0,0,0,-1,559,1443,0,0
-658,-419,0,0,0,0,0,0,0,0,0,-1,566,1443,0,0
-651,-419,0,0,0,0,0,0,0,0,0,-1,573,1443,0,0
-644,-419,0,0,0,0,0,0,0,0,0,-1,580,1443,0,0
-637,-419,0,0,0,0,0,0,0,0,0,-1,587,1443,0,0
-630,-419,0,0,0,0,0,0,0,0,0,-1,594,1443,0,0
-623,-419,0,0,0,0,0,0,0,0,0,-1,601,1443,0,0
-616,-419,0,0,0,0,0,0,0,0,0,-1,608,1443,0,0
-609,-419,0,0,0,0,0,0,0,0,0,-1,615,1443,0,0
-602,-419,0,0,0,0,0,0,0,0,0,-1,622,1443,0,0
-595,-419,-11.4904,-0.622681,0,0,0,0,0,0,0,-1,629,1443,-11.4903,0.622714
-588,-419,-9.09369,0.742432,0,0,0,0,0,0,0,-1,636,1443,-9.09366,-0.742482
-581,-419,-6.39172,2.14673,0,0,0,0,0,0,0,-1,643,1443,-6.39175,-2.14668
-574,-419,-4.09772,3.54773,0,0,0,0,0,0,0,-1,650,1443,-4.09772,-3.54767
-567,-419,-6.14038,3.22498,0,0,0,0,0,0,0,-1,657,1443,-6.14037,-3.22497
-560,-419,-4.52814,5.22253,0,0,0,0,0,0,0,-1,664,1443,-4.52816,-5.22251
-553,-419,-5.08331,6.11829,0,0,0,0,0,0,0,-1,671,1443,-5.08331,-6.1183
-546,-419,-9.72852,9.01746,0,0,0,0,0,0,0,-1,678,1443,-9.72853,-9.01743
-539,-419,-9.86304,9.56262,-0.00207606,0.000400647,-0.000657925,0.000564573,-0.00223998,-1.32661,0.00171281,0.0482907,685,1443,-9.86301,-9.56265
-532,-419,-10.1323,10.0646,-0.00166752,0.000208064,-0.000496346,0.000331315,-0.00179077,-1.3274,0.00131824,0.021882,692,1443,-10.1323,-10.0646
-525,-419,-10.1281,10.6451,-0.00110531,0.000107611,-0.000321885,0.000187739,-0.00118544,-1.32682,0.000859733,0.0130175,699,1443,-10.1281,-10.6451
-518,-419,-10.1078,11.1627,-0.000366843,0.000299482,6.36962e-05,0.000305516,-0.000372878,1.47634,0.000392314,0.0170195,706,1443,-10.1078,-11.1627
-511,-419,-10.1411,11.687,0.00053069,0.000784002,0.000650015,0.00131959,-4.89369e-06,0.881618,0.00088136,0.0190106,713,1443,-10.1411,-11.687
-504,-419,-10.2038,12.2139,0.00164397,0.00152746,0.00145897,0.00304584,0.000125582,0.765444,0.00199002,0.0192875,720,1443,-10.2038,-12.2139
-497,-419,-10.2263,12.7223,0.00306283,0.00258498,0.00255661,0.00539166,0.000256152,0.738806,0.00351217,0.0142301,727,1443,-10.2263,-12.7222
-490,-419,-10.2219,13.2379,0.00485602,0.00405365,0.00405843,0.00853305,0.000376622,0.736132,0.00556741,0.0114881,734,1443,-10.2219,-13.238
-483,-419,-10.216,13.7571,0.00701324,0.00588511,0.00591684,0.0123928,0.000505505,0.737876,0.00809865,0.00996901,741,1443,-10.216,-13.7571
-476,-419,-10.2008,14.3392,0.00964936,0.008208,0.00827703,0.017237,0.000620335,0.741973,0.0112903,0.0143334,748,1443,-10.2008,-14.3392
-469,-419,-10.1036,15.04,0.0131031,0.0111087,0.0113181,0.0234678,0.000743941,0.741458,0.0154032,0.0354396,755,1443,-10.1036,-15.0401
-462,-419,-9.64069,15.8141,0,0,0,0,0,0,0,-1,762,1443,-9.64071,-15.8141
-455,-419,-7.35645,11.9451,0,0,0,0,0,0,0,-1,769,1443,-7.35646,-11.9451
-448,-419,-7.49109,9.92444,0,0,0,0,0,0,0,-1,776,1443,-7.49109,-9.92442
-441,-419,-7.65527,8.75574,0,0,0,0,0,0,0,-1,783,1443,-7.65525,-8.75568
-434,-419,-11.3724,12.3643,0,0,0,0,0,0,0,-1,790,1443,-11.3724,-12.3643
-427,-419,-8.23193,7.89404,0,0,0,0,0,0,0,-1,797,1443,-8.23193,-7.89404
-420,-419,-8.74091,6.36597,0,0,0,0,0,0,0,-1,804,1443,-8.74089,-6.366
-413,-419,-9.88391,6.53955,0,0,0,0,0,0,0,-1,811,1443,-9.8839,-6.53955
-406,-419,-10.3372,2.75195,0,0,0,0,0,0,0,-1,818,1443,-10.3372,-2.75201
-399,-419,-11.5999,1.40002,0,0,0,0,0,0,0,-1,825,1443,-11.5999,-1.39998
-392,-419,0,0,0,0,0,0,0,0,0,-1,832,1443,0,0
-385,-419,0,0,0,0,0,0,0,0,0,-1,839,1443,0,0
-378,-419,0,0,0,0,0,0,0,0,0,-1,846,1443,0,0
-371,-419,0,0,0,0,0,0,0,0,0,-1,853,1443,0,0
-364,-419,0,0,0,0,0,0,0,0,0,-1,860,1443,0,0
-357,-419,0,0,0,0,0,0,0,0,0,-1,867,1443,0,0
-350,-419,0,0,0,0,0,0,0,0,0,-1,874,1443,0,0
-343,-419,0,0,0,0,0,0,0,0,0,-1,881,1443,0,0
-336,-419,0,0,0,0,0,0,0,0,0,-1,888,1443,0,0
-329,-419,0,0,0,0,0,0,0,0,0,-1,895,1443,0,0
-322,-419,0,0,0,0,0,0,0,0,0,-1,902,1443,0,0
-315,-419,0,0,0,0,0,0,0,0,0,-1,909,1443,0,0
-308,-419,0,0,0,0,0,0,0,0,0,-1,916,1443,0,0
-301,-419,0,0,0,0,0,0,0,0,0,-1,923,1443,0,0
-294,-419,0,0,0,0,0,0,0,0,0,-1,930,1443,0,0
-287,-419,0,0,0,0,0,0,0,0,0,-1,937,1443,0,0
-280,-419,0,0,0,0,0,0,0,0,0,-1,944,1443,0,0
-273,-419,0,0,0,0,0,0,0,0,0,-1,951,1443,0,0
-266,-419,0,0,0,0,0,0,0,0,0,-1,958,1443,0,0
-259,-419,0,0,0,0,0,0,0,0,0,-1,965,1443,0,0
-252,-419,0,0,0,0,0,0,0,0,0,-1,972,1443,0,0
-245,-419,0,0,0,0,0,0,0,0,0,-1,979,1443,0,0
-238,-419,0,0,0,0,0,0,0,0,0,-1,986,1443,0,0
-231,-419,0,0,0,0,0,0,0,0,0,-1,993,1443,0,0
-224,-419,0,0,0,0,0,0,0,0,0,-1,1000,1443,0,0
-217,-419,0,0,0,0,0,0,0,0,0,-1,1007,1443,0,0
-210,-419,0,0,0,0,0,0,0,0,0,-1,1014,1443,0,0
-203,-419,0,0,0,0,0,0,0,0,0,-1,1021,1443,0,0
-196,-419,0,0,0,0,0,0,0,0,0,-1,1028,1443,0,0
-189,-419,0,0,0,0,0,0,0,0,0,-1,1035,1443,0,0
-182,-419,0,0,0,0,0,0,0,0,0,-1,1042,1443,0,0
-175,-419,0,0,0,0,0,0,0,0,0,-1,1049,1443,0,0
-168,-419,0,0,0,0,0,0,0,0,0,-1,1056,1443,0,0
-161,-419,0,0,0,0,0,0,0,0,0,-1,1063,1443,0,0
-154,-419,0,0,0,0,0,0,0,0,0,-1,1070,1443,0,0
-147,-419,0,0,0,0,0,0,0,0,0,-1,1077,1443,0,0
-140,-419,0,0,0,0,0,0,0,0,0,-1,1084,1443,0,0
-133,-419,0,0,0,0,0,0,0,0,0,-1,1091,1443,0,0
-126,-419,0,0,0,0,0,0,0,0,0,-1,1098,1443,0,0
-119,-419,0,0,0,0,0,0,0,0,0,-1,1105,1443,0,0
-112,-419,0,0,0,0,0,0,0,0,0,-1,1112,1443,0,0
-105,-419,0,0,0,0,0,0,0,0,0,-1,1119,1443,0,0
-98,-419,0,0,0,0,0,0,0,0,0,-1,1126,1443,0,0
-91,-419,0,0,0,0,0,0,0,0,0,-1,1133,1443,0,0
-84,-419,0,0,0,0,0,0,0,0,0,-1,1140,1443,0,0
-77,-419,0,0,0,0,0,0,0,0,0,-1,1147,1443,0,0
-70,-419,0,0,0,0,0,0,0,0,0,-1,1154,1443,0,0
-63,-419,0,0,0,0,0,0,0,0,0,-1,1161,1443,0,0
-56,-419,0,0,0,0,0,0,0,0,0,-1,1168,1443,0,0
-49,-419,0,0,0,0,0,0,0,0,0,-1,1175,1443,0,0
-42,-419,0,0,0,0,0,0,0,0,0,-1,1182,1443,0,0
-35,-419,0,0,0,0,0,0,0,0,0,-1,1189,1443,0,0
-28,-419,0,0,0,0,0,0,0,0,0,-1,1196,1443,0,0
-21,-419,0,0,0,0,0,0,0,0,0,-1,1203,1443,0,0
-14,-419,0,0,0,0,0,0,0,0,0,-1,1210,1443,0,0
-7,-419,0,0,0,0,0,0,0,0,0,-1,1217,1443,0,0
0,-419,0,0,0,0,0,0,0,0,0,-1,1224,1443,0,0
7,-419,0,0,0,0,0,0,0,0,0,-1,1231,1443,0,0
14,-419,0,0,0,0,0,0,0,0,0,-1,1238,1443,0,0
21,-419,0,0,0,0,0,0,0,0,0,-1,1245,1443,0,0
28,-419,0,0,0,0,0,0,0,0,0,-1,1252,1443,0,0
35,-419,0,0,0,0,0,0,0,0,0,-1,1259,1443,0,0
42,-419,0,0,0,0,0,0,0,0,0,-1,1266,1443,0,0
49,-419,0,0,0,0,0,0,0,0,0,-1,1273,1443,0,0
56,-419,0,0,0,0,0,0,0,0,0,-1,1280,1443,0,0
63,-419,0,0,0,0,0,0,0,0,0,-1,1287,1443,0,0
70,-419,0,0,0,0,0,0,0,0,0,-1,1294,1443,0,0
77,-419,0,0,0,0,0,0,0,0,0,-1,1301,1443,0,0
84,-419,0,0,0,0,0,0,0,0,0,-1,1308,1443,0,0
91,-419,0,0,0,0,0,0,0,0,0,-1,1315,1443,0,0
98,-419,0,0,0,0,0,0,0,0,0,-1,1322,1443,0,0
105,-419,0,0,0,0,0,0,0,0,0,-1,1329,1443,0,0
112,-419,0,0,0,0,0,0,0,0,0,-1,1336,1443,0,0
119,-419,0,0,0,0,0,0,0,0,0,-1,1343,1443,0,0
126,-419,0,0,0,0,0,0,0,0,0,-1,1350,1443,0,0
133,-419,0,0,0,0,0,0,0,0,0,-1,1357,1443,0,0
140,-419,0,0,0,0,0,0,0,0,0,-1,1364,1443,0,0
147,-419,0,0,0,0,0,0,0,0,0,-1,1371,1443,0,0
154,-419,0,0,0,0,0,0,0,0,0,-1,1378,1443,0,0
161,-419,0,0,0,0,0,0,0,0,0,-1,1385,1443,0,0
168,-419,0,0,0,0,0,0,0,0,0,-1,1392,1443,0,0
175,-419,0,0,0,0,0,0,0,0,0,-1,1399,1443,0,0
182,-419,0,0,0,0,0,0,0,0,0,-1,1406,1443,0,0
189,-419,0,0,0,0,0,0,0,0,0,-1,1413,1443,0,0
196,-419,0,0,0,0,0,0,0,0,0,-1,1420,1443,0,0
203,-419,0,0,0,0,0,0,0,0,0,-1,1427,1443,0,0
210,-419,0,0,0,0,0,0,0,0,0,-1,1434,1443,0,0
217,-419,0,0,0,0,0,0,0,0,0,-1,1441,1443,0,0
224,-419,0,0,0,0,0,0,0,0,0,-1,1448,1443,0,0
231,-419,0,0,0,0,0,0,0,0,0,-1,1455,1443,0,0
238,-419,0,0,0,0,0,0,0,0,0,-1,1462,1443,0,0
245,-419,0,0,0,0,0,0,0,0,0,-1,1469,1443,0,0
252,-419,0,0,0,0,0,0,0,0,0,-1,1476,1443,0,0
259,-419,0,0,0,0,0,0,0,0,0,-1,1483,1443,0,0
266,-419,0,0,0,0,0,0,0,0,0,-1,1490,1443,0,0
273,-419,0,0,0,0,0,0,0,0,0,-1,1497,1443,0,0
280,-419,0,0,0,0,0,0,0,0,0,-1,1504,1443,0,0
287,-419,0,0,0,0,0,0,0,0,0,-1,1511,1443,0,0
294,-419,0,0,0,0,0,0,0,0,0,-1,1518,1443,0,0
301,-419,0,0,0,0,0,0,0,0,0,-1,1525,1443,0,0
308,-419,0,0,0,0,0,0,0,0,0,-1,1532,1443,0,0
315,-419,0,0,0,0,0,0,0,0,0,-1,1539,1443,0,0
322,-419,0,0,0,0,0,0,0,0,0,-1,1546,1443,0,0
329,-419,0,0,0,0,0,0,0,0,0,-1,1553,1443,0,0
336,-419,0,0,0,0,0,0,0,0,0,-1,1560,1443,0,0
343,-419,0,0,0,0,0,0,0,0,0,-1,1567,1443,0,0
350,-419,0,0,0,0,0,0,0,0,0,-1,1574,1443,0,0
357,-419,0,0,0,0,0,0,0,0,0,-1,1581,1443,0,0
364,-419,0,0,0,0,0,0,0,0,0,-1,1588,1443,0,0
371,-419,0,0,0,0,0,0,0,0,0,-1,1595,1443,0,0
378,-419,0,0,0,0,0,0,0,0,0,-1,1602,1443,0,0
385,-419,0,0,0,0,0,0,0,0,0,-1,1609,1443,0,0
392,-419,0,0,0,0,0,0,0,0,0,-1,1616,1443,0,0
399,-419,0,0,0,0,0,0,0,0,0,-1,1623,1443,0,0
406,-419,0,0,0,0,0,0,0,0,0,-1,1630,1443,0,0
413,-419,0,0,0,0,0,0,0,0,0,-1,1637,1443,0,0
420,-419,0,0,0,0,0,0,0,0,0,-1,1644,1443,0,0
427,-419,0,0,0,0,0,0,0,0,0,-1,1651,1443,0,0
434,-419,0,0,0,0,0,0,0,0,0,-1,1658,1443,0,0
441,-419,0,0,0,0,0,0,0,0,0,-1,1665,1443,0,0
448,-419,0,0,0,0,0,0,0,0,0,-1,1672,1443,0,0
455,-419,0,0,0,0,0,0,0,0,0,-1,1679,1443,0,0
462,-419,0,0,0,0,0,0,0,0,0,-1,1686,1443,0,0
469,-419,0,0,0,0,0,0,0,0,0,-1,1693,1443,0,0
476,-419,0,0,0,0,0,0,0,0,0,-1,1700,1443,0,0
483,-419,0,0,0,0,0,0,0,0,0,-1,1707,1443,0,0
490,-419,0,0,0,0,0,0,0,0,0,-1,1714,1443,0,0
497,-419,0,0,0,0,0,0,0,0,0,-1,1721,1443,0,0
504,-419,0,0,0,0,0,0,0,0,0,-1,1728,1443,0,0
511,-419,20.3005,3.7959,0,0,0,0,0,0,0,-1,1735,1443,20.3005,-3.79584
518,-419,21.3154,2.03027,0,0,0,0,0,0,0,-1,1742,1443,21.3155,-2.03029
525,-419,28.3439,-1.24475,0,0,0,0,0,0,0,-1,1749,1443,28.3438,1.24471
532,-419,27.5902,-0.272583,0,0,0,0,0,0,0,-1,1756,1443,27.5902,0.272526
539,-419,26.5278,1.60583,0,0,0,0,0,0,0,-1,1763,1443,26.5279,-1.60579
546,-419,24.9509,2.77539,0,0,0,0,0,0,0,-1,1770,1443,24.9509,-2.77537
553,-419,24.118,3.75525,0,0,0,0,0,0,0,-1,1777,1443,24.1181,-3.75526
560,-419,11.8199,8.26343,0,0,0,0,0,0,0,-1,1784,1443,11.82,-8.26341
567,-419,21.5143,8.74719,0,0,0,0,0,0,0,-1,1791,1443,21.5143,-8.74722
574,-419,19.5886,6.46155,0,0,0,0,0,0,0,-1,1798,1443,19.5886,-6.46157
581,-419,20.7926,11.4265,0,0,0,0,0,0,0,-1,1805,1443,20.7926,-11.4265
588,-419,19.4242,12.5363,0,0,0,0,0,0,0,-1,1812,1443,19.4242,-12.5362
595,-419,22.9375,16.0151,0,0,0,0,0,0,0,-1,1819,1443,22.9375,-16.0152
602,-419,24.6373,16.3843,0,0,0,0,0,0,0,-1,1826,1443,24.6374,-16.3843
609,-419,24.618,15.8719,0.00312247,0.00331017,-0.00274999,0.00596791,0.000464736,-0.802455,0.0038331,0.0179974,1833,1443,24.618,-15.8719
616,-419,24.5962,15.4169,0.00234289,0.00223028,-0.00192566,0.00421306,0.000360106,-0.770782,0.0026967,0.0123683,1840,1443,24.5961,-15.4168
623,-419,24.5867,14.9214,0.00176883,0.00143663,-0.00130705,0.00292029,0.000285166,-0.722197,0.00185911,0.0105412,1847,1443,24.5867,-14.9214
630,-419,24.587,14.4109,0.00141437,0.000780358,-0.00084861,0.00200325,0.000191477,-0.606644,0.00127647,0.0137941,1854,1443,24.587,-14.4108
637,-419,24.5742,13.9338,0.00113052,0.000309203,-0.000461582,0.00133768,0.000102045,-0.421856,0.000859795,0.0149123,1861,1443,24.5742,-13.9338
644,-419,24.5642,13.4575,0.000960382,1.26846e-05,-0.000127249,0.000977171,-4.10387e-06,-0.131177,0.000652819,0.0124872,1868,1443,24.5642,-13.4575
651,-419,24.5371,12.9908,0.000879909,-0.000181809,0.000141244,0.000898377,-0.000200278,0.130021,0.000675646,0.0116793,1875,1443,24.5371,-12.9908
658,-419,24.5034,12.4861,0.000808194,-0.000279236,0.00042207,0.000952788,-0.000423829,0.330052,0.000814113,0.0129271,1882,1443,24.5035,-12.4861
665,-419,24.5021,12.0057,0.000715115,-0.000342283,0.000807639,0.00115172,-0.000778884,0.495589,0.00112154,0.01925,1889,1443,24.5021,-12.0058
672,-419,24.5662,11.4783,0.000496061,-0.000298921,0.00135167,0.00150748,-0.00131034,0.642393,0.00162819,0.0281499,1896,1443,24.5662,-11.4783
679,-419,24.6161,10.8799,0,0,0,0,0,0,0,-1,1903,1443,24.6161,-10.8799
686,-419,17.4127,8.03076,0,0,0,0,0,0,0,-1,1910,1443,17.4127,-8.03071
693,-419,8.76086,5.60535,0,0,0,0,0,0,0,-1,1917,1443,8.76091,-5.6054
700,-419,11.0498,4.85156,0,0,0,0,0,0,0,-1,1924,1443,11.0498,-4.85153
707,-419,9.5752,1.80042,0,0,0,0,0,0,0,-1,1931,1443,9.57523,-1.80037
714,-419,5.77576,-1.25061,0,0,0,0,0,0,0,-1,1938,1443,5.7757,1.25056
721,-419,0,0,0,0,0,0,0,0,0,-1,1945,1443,0,0
728,-419,0,0,0,0,0,0,0,0,0,-1,1952,1443,0,0
735,-419,0,0,0,0,0,0,0,0,0,-1,1959,1443,0,0
742,-419,0,0,0,0,0,0,0,0,0,-1,1966,1443,0,0
749,-419,0,0,0,0,0,0,0,0,0,-1,1973,1443,0,0
756,-419,0,0,0,0,0,0,0,0,0,-1,1980,1443,0,0
763,-419,0,0,0,0,0,0,0,0,0,-1,1987,1443,0,0
770,-419,0,0,0,0,0,0,0,0,0,-1,1994,1443,0,0
777,-419,0,0,0,0,0,0,0,0,0,-1,2001,1443,0,0
784,-419,0,0,0,0,0,0,0,0,0,-1,2008,1443,0,0
791,-419,0,0,0,0,0,0,0,0,0,-1,2015,1443,0,0
798,-419,0,0,0,0,0,0,0,0,0,-1,2022,1443,0,0
805,-419,0,0,0,0,0,0,0,0,0,-1,2029,1443,0,0
812,-419,0,0,0,0,0,0,0,0,0,-1,2036,1443,0,0
-700,-426,0,0,0,0,0,0,0,0,0,-1,524,1450,0,0
-693,-426,0,0,0,0,0,0,0,0,0,-1,531,1450,0,0
-686,-426,0,0,0,0,0,0,0,0,0,-1,538,1450,0,0
-679,-426,0,0,0,0,0,0,0,0,0,-1,545,1450,0,0
-672,-426,0,0,0,0,0,0,0,0,0,-1,552,1450,0,0
-665,-426,0,0,0,0,0,0,0,0,0,-1,559,1450,0,0
-658,-426,0,0,0,0,0,0,0,0,0,-1,566,1450,0,0
-651,-426,0,0,0,0,0,0,0,0,0,-1,573,1450,0,0
-644,-426,0,0,0,0,0,0,0,0,0,-1,580,1450,0,0
-637,-426,0,0,0,0,0,0,0,0,0,-1,587,1450,0,0
-630,-426,0,0,0,0,0,0,0,0,0,-1,594,1450,0,0
-623,-426,0,0,0,0,0,0,0,0,0,-1,601,1450,0,0
-616,-426,0,0,0,0,0,0,0,0,0,-1,608,1450,0,0
-609,-426,0,0,0,0,0,0,0,0,0,-1,615,1450,0,0
-602,-426,0,0,0,0,0,0,0,0,0,-1,622,1450,0,0
-595,-426,0,0,0,0,0,0,0,0,0,-1,629,1450,0,0
-588,-426,-10.184,-0.554321,0,0,0,0,0,0,0,-1,636,1450,-10.184,0.554321
-581,-426,-7.3349,1.48157,0,0,0,0,0,0,0,-1,643,1450,-7.33491,-1.48152
-574,-426,-5.02856,2.89319,0,0,0,0,0,0,0,-1,650,1450,-5.02858,-2.89319
-567,-426,-3.04797,1.72644,0,0,0,0,0,0,0,-1,657,1450,-3.04797,-1.72639
-560,-426,-5.55682,3.44397,0,0,0,0,0,0,0,-1,664,1450,-5.55684,-3.44399
-553,-426,-4.67017,6.66614,0,0,0,0,0,0,0,-1,671,1450,-4.67015,-6.66619
-546,-426,-7.58752,8.28882,0,0,0,0,0,0,0,-1,678,1450,-7.58752,-8.28878
-539,-426,-9.28668,9.67664,0,0,0,0,0,0,0,-1,685,1450,-9.28667,-9.67659
-532,-426,-9.46661,10.1156,-0.0025161,0.000364115,-0.000171224,0.000374258,-0.00252624,-1.51163,0.00182177,0.0452334,692,1450,-9.46659,-10.1156
-525,-426,-9.6225,10.594,-0.0017933,0.000122753,-5.97646e-05,0.000124615,-0.00179516,-1.53965,0.0012404,0.0180844,699,1450,-9.6225,-10.594
-518,-426,-9.59344,11.1816,-0.000962556,0.00018365,0.000228722,0.000227605,-0.00100651,1.38093,0.000758348,0.0161835,706,1450,-9.59346,-11.1817
-511,-426,-9.60675,11.7338,-6.66547e-05,0.000542311,0.000647777,0.000953597,-0.00047794,1.0051,0.000841569,0.0160881,713,1450,-9.60676,-11.7338
-504,-426,-9.64819,12.2408,0.00101649,0.0011748,0.0012933,0.00239136,-0.000200075,0.815962,0.00166494,0.0165358,720,1450,-9.64822,-12.2409
-497,-426,-9.67383,12.7371,0.00235411,0.00209394,0.00218665,0.00441455,3.35085e-05,0.755688,0.00293192,0.0134552,727,1450,-9.67383,-12.7371
-490,-426,-9.6922,13.2521,0.00400466,0.00339053,0.00344175,0.00715302,0.000242174,0.740907,0.00469004,0.0123993,734,1450,-9.6922,-13.252
-483,-426,-9.69916,13.7847,0.0059856,0.00499332,0.00500395,0.0105179,0.000460968,0.735985,0.00686347,0.0121085,741,1450,-9.69916,-13.7847
-476,-426,-9.71667,14.3184,0.00837088,0.00699478,0.00696891,0.0146856,0.000680043,0.736192,0.00957179,0.00995845,748,1450,-9.71665,-14.3183
-469,-426,-9.73376,14.8341,0.0113577,0.00936371,0.00943896,0.0198522,0.000869233,0.73278,0.0129548,0.0101428,755,1450,-9.73377,-14.8341
-462,-426,-9.44446,15.5845,0.0151686,0.0123909,0.0126432,0.026499,0.00106053,0.730693,0.0173233,0.0444482,762,1450,-9.44448,-15.5845
-455,-426,-9.04175,16.462,0,0,0,0,0,0,0,-1,769,1450,-9.04172,-16.462
-448,-426,-6.46545,10.1322,0,0,0,0,0,0,0,-1,776,1450,-6.46543,-10.1322
-441,-426,-10.9547,11.4747,0,0,0,0,0,0,0,-1,783,1450,-10.9546,-11.4748
-434,-426,-10.4998,13.6189,0,0,0,0,0,0,0,-1,790,1450,-10.4997,-13.6189
-427,-426,-9.36627,13.7396,0,0,0,0,0,0,0,-1,797,1450,-9.36628,-13.7396
-420,-426,-5.33765,7.95044,0,0,0,0,0,0,0,-1,804,1450,-5.33766,-7.95041
-413,-426,-10.1148,5.0415,0,0,0,0,0,0,0,-1,811,1450,-10.1148,-5.04152
-406,-426,-11.4199,3.6438,0,0,0,0,0,0,0,-1,818,1450,-11.4198,-3.64382
-399,-426,-12.7595,2.29004,0,0,0,0,0,0,0,-1,825,1450,-12.7595,-2.29003
-392,-426,-12.4147,0.537354,0,0,0,0,0,0,0,-1,832,1450,-12.4147,-0.53731
-385,-426,0,0,0,0,0,0,0,0,0,-1,839,1450,0,0
-378,-426,0,0,0,0,0,0,0,0,0,-1,846,1450,0,0
-371,-426,0,0,0,0,0,0,0,0,0,-1,853,1450,0,0
-364,-426,0,0,0,0,0,0,0,0,0,-1,860,1450,0,0
-357,-426,0,0,0,0,0,0,0,0,0,-1,867,1450,0,0
-350,-426,0,0,0,0,0,0,0,0,0,-1,874,1450,0,0
-343,-426,0,0,0,0,0,0,0,0,0,-1,881,1450,0,0
-336,-426,0,0,0,0,0,0,0,0,0,-1,888,1450,0,0
-329,-426,0,0,0,0,0,0,0,0,0,-1,895,1450,0,0
-322,-426,0,0,0,0,0,0,0,0,0,-1,902,1450,0,0
-315,-426,0,0,0,0,0,0,0,0,0,-1,909,1450,0,0
-308,-426,0,0,0,0,0,0,0,0,0,-1,916,1450,0,0
-301,-426,0,0,0,0,0,0,0,0,0,-1,923,1450,0,0
-294,-426,0,0,0,0,0,0,0,0,0,-1,930,1450,0,0
-287,-426,0,0,0,0,0,0,0,0,0,-1,937,1450,0,0
-280,-426,0,0,0,0,0,0,0,0,0,-1,944,1450,0,0
-273,-426,0,0,0,0,0,0,0,0,0,-1,951,1450,0,0
-266,-426,0,0,0,0,0,0,0,0,0,-1,958,1450,0,0
-259,-426,0,0,0,0,0,0,0,0,0,-1,965,1450,0,0
-252,-426,0,0,0,0,0,0,0,0,0,-1,972,1450,0,0
-245,-426,0,0,0,0,0,0,0,0,0,-1,979,1450,0,0
-238,-426,0,0,0,0,0,0,0,0,0,-1,986,1450,0,0
-231,-426,0,0,0,0,0,0,0,0,0,-1,993,1450,0,0
-224,-426,0,0,0,0,0,0,0,0,0,-1,1000,1450,0,0
-217,-426,0,0,0,0,0,0,0,0,0,-1,1007,1450,0,0
-210,-426,0,0,0,0,0,0,0,0,0,-1,1014,1450,0,0
-203,-426,0,0,0,0,0,0,0,0,0,-1,1021,1450,0,0
-196,-426,0,0,0,0,0,0,0,0,0,-1,1028,1450,0,0
-189,-426,0,0,0,0,0,0,0,0,0,-1,1035,1450,0,0
-182,-426,0,0,0,0,0,0,0,0,0,-1,1042,1450,0,0
-175,-426,0,0,0,0,0,0,0,0,0,-1,1049,1450,0,0
-168,-426,0,0,0,0,0,0,0,0,0,-1,1056,1450,0,0
-161,-426,0,0,0,0,0,0,0,0,0,-1,1063,1450,0,0
-154,-426,0,0,0,0,0,0,0,0,0,-1,1070,1450,0,0
-147,-426,0,0,0,0,0,0,0,0,0,-1,1077,1450,0,0
-140,-426,0,0,0,0,0,0,0,0,0,-1,1084,1450,0,0
-133,-426,0,0,0,0,0,0,0,0,0,-1,1091,1450,0,0
-126,-426,0,0,0,0,0,0,0,0,0,-1,1098,1450,0,0
-119,-426,0,0,0,0,0,0,0,0,0,-1,1105,1450,0,0
-112,-426,0,0,0,0,0,0,0,0,0,-1,1112,1450,0,0
-105,-426,0,0,0,0,0,0,0,0,0,-1,1119,1450,0,0
-98,-426,0,0,0,0,0,0,0,0,0,-1,1126,1450,0,0
-91,-426,0,0,0,0,0,0,0,0,0,-1,1133,1450,0,0
-84,-426,0,0,0,0,0,0,0,0,0,-1,1140,1450,0,0
-77,-426,0,0,0,0,0,0,0,0,0,-1,1147,1450,0,0
-70,-426,0,0,0,0,0,0,0,0,0,-1,1154,1450,0,0
-63,-426,0,0,0,0,0,0,0,0,0,-1,1161,1450,0,0
-56,-426,0,0,0,0,0,0,0,0,0,-1,1168,1450,0,0
-49,-426,0,0,0,0,0,0,0,0,0,-1,1175,1450,0,0
-42,-426,0,0,0,0,0,0,0,0,0,-1,1182,1450,0,0
-35,-426,0,0,0,0,0,0,0,0,0,-1,1189,1450,0,0
-28,-426,0,0,0,0,0,0,0,0,0,-1,1196,1450,0,0
-21,-426,0,0,0,0,0,0,0,0,0,-1,1203,1450,0,0
-14,-426,0,0,0,0,0,0,0,0,0,-1,1210,1450,0,0
-7,-426,0,0,0,0,0,0,0,0,0,-1,1217,1450,0,0
0,-426,0,0,0,0,0,0,0,0,0,-1,1224,1450,0,0
7,-426,0,0,0,0,0,0,0,0,0,-1,1231,1450,0,0
14,-426,0,0,0,0,0,0,0,0,0,-1,1238,1450,0,0
21,-426,0,0,0,0,0,0,0,0,0,-1,1245,1450,0,0
28,-426,0,0,0,0,0,0,0,0,0,-1,1252,1450,0,0
35,-426,0,0,0,0,0,0,0,0,0,-1,1259,1450,0,0
42,-426,0,0,0,0,0,0,0,0,0,-1,1266,1450,0,0
49,-426,0,0,0,0,0,0,0,0,0,-1,1273,1450,0,0
56,-426,0,0,0,0,0,0,0,0,0,-1,1280,1450,0,0
63,-426,0,0,0,0,0,0,0,0,0,-1,1287,1450,0,0
70,-426,0,0,0,0,0,0,0,0,0,-1,1294,1450,0,0
77,-426,0,0,0,0,0,0,0,0,0,-1,1301,1450,0,0
84,-426,0,0,0,0,0,0,0,0,0,-1,1308,1450,0,0
91,-426,0,0,0,0,0,0,0,0,0,-1,1315,1450,0,0
98,-426,0,0,0,0,0,0,0,0,0,-1,1322,1450,0,0
105,-426,0,0,0,0,0,0,0,0,0,-1,1329,1450,0,0
112,-426,0,0,0,0,0,0,0,0,0,-1,1336,1450,0,0
119,-426,0,0,0,0,0,0,0,0,0,-1,1343,1450,0,0
126,-426,0,0,0,0,0,0,0,0,0,-1,1350,1450,0,0
133,-426,0,0,0,0,0,0,0,0,0,-1,1357,1450,0,0
140,-426,0,0,0,0,0,0,0,0,0,-1,1364,1450,0,0
147,-426,0,0,0,0,0,0,0,0,0,-1,1371,1450,0,0
154,-426,0,0,0,0,0,0,0,0,0,-1,1378,1450,0,0
161,-426,0,0,0,0,0,0,0,0,0,-1,1385,1450,0,0
168,-426,0,0,0,0,0,0,0,0,0,-1,1392,1450,0,0
175,-426,0,0,0,0,0,0,0,0,0,-1,1399,1450,0,0
182,-426,0,0,0,0,0,0,0,0,0,-1,1406,1450,0,0
189,-426,0,0,0,0,0,0,0,0,0,-1,1413,1450,0,0
196,-426,0,0,0,0,0,0,0,0,0,-1,1420,1450,0,0
203,-426,0,0,0,0,0,0,0,0,0,-1,1427,1450,0,0
210,-426,0,0,0,0,0,0,0,0,0,-1,1434,1450,0,0
217,-426,0,0,0,0,0,0,0,0,0,-1,1441,1450,0,0
224,-426,0,0,0,0,0,0,0,0,0,-1,1448,1450,0,0
231,-426,0,0,0,0,0,0,0,0,0,-1,1455,1450,0,0
238,-426,0,0,0,0,0,0,0,0,0,-1,1462,1450,0,0
245,-426,0,0,0,0,0,0,0,0,0,-1,1469,1450,0,0
252,-426,0,0,0,0,0,0,0,0,0,-1,1476,1450,0,0
259,-426,0,0,0,0,0,0,0,0,0,-1,1483,1450,0,0
266,-426,0,0,0,0,0,0,0,0,0,-1,1490,1450,0,0
273,-426,0,0,0,0,0,0,0,0,0,-1,1497,1450,0,0
280,-426,0,0,0,0,0,0,0,0,0,-1,1504,1450,0,0
287,-426,0,0,0,0,0,0,0,0,0,-1,1511,1450,0,0
294,-426,0,0,0,0,0,0,0,0,0,-1,1518,1450,0,0
301,-426,0,0,0,0,0,0,0,0,0,-1,1525,1450,0,0
308,-426,0,0,0,0,0,0,0,0,0,-1,1532,1450,0,0
315,-426,0,0,0,0,0,0,0,0,0,-1,1539,1450,0,0
322,-426,0,0,0,0,0,0,0,0,0,-1,1546,1450,0,0
329,-426,0,0,0,0,0,0,0,0,0,-1,1553,1450,0,0
336,-426,0,0,0,0,0,0,0,0,0,-1,1560,1450,0,0
343,-426,0,0,0,0,0,0,0,0,0,-1,1567,1450,0,0
350,-426,0,0,0,0,0,0,0,0,0,-1,1574,1450,0,0
357,-426,0,0,0,0,0,0,0,0,0,-1,1581,1450,0,0
364,-426,0,0,0,0,0,0,0,0,0,-1,1588,1450,0,0
371,-426,0,0,0,0,0,0,0,0,0,-1,1595,1450,0,0
378,-426,0,0,0,0,0,0,0,0,0,-1,1602,1450,0,0
385,-426,0,0,0,0,0,0,0,0,0,-1,1609,1450,0,0
392,-426,0,0,0,0,0,0,0,0,0,-1,1616,1450,0,0
399,-426,0,0,0,0,0,0,0,0,0,-1,1623,1450,0,0
406,-426,0,0,0,0,0,0,0,0,0,-1,1630,1450,0,0
413,-426,0,0,0,0,0,0,0,0,0,-1,1637,1450,0,0
420,-426,0,0,0,0,0,0,0,0,0,-1,1644,1450,0,0
427,-426,0,0,0,0,0,0,0,0,0,-1,1651,1450,0,0
434,-426,0,0,0,0,0,0,0,0,0,-1,1658,1450,0,0
441,-426,0,0,0,0,0,0,0,0,0,-1,1665,1450,0,0
448,-426,0,0,0,0,0,0,0,0,0,-1,1672,1450,0,0
455,-426,0,0,0,0,0,0,0,0,0,-1,1679,1450,0,0
462,-426,0,0,0,0,0,0,0,0,0,-1,1686,1450,0,0
469,-426,0,0,0,0,0,0,0,0,0,-1,1693,1450,0,0
476,-426,0,0,0,0,0,0,0,0,0,-1,1700,1450,0,0
483,-426,0,0,0,0,0,0,0,0,0,-1,1707,1450,0,0
490,-426,0,0,0,0,0,0,0,0,0,-1,1714,1450,0,0
497,-426,0,0,0,0,0,0,0,0,0,-1,1721,1450,0,0
504,-426,20.6873,3.38367,0,0,0,0,0,0,0,-1,1728,1450,20.6873,-3.38361
511,-426,19.6676,3.53748,0,0,0,0,0,0,0,-1,1735,1450,19.6676,-3.53749
518,-426,18.6853,3.32288,0,0,0,0,0,0,0,-1,1742,1450,18.6853,-3.3229
525,-426,18.9552,2.71033,0,0,0,0,0,0,0,-1,1749,1450,18.9552,-2.71034
532,-426,19.4333,2.70764,0,0,0,0,0,0,0,-1,1756,1450,19.4334,-2.70764
539,-426,25.1482,2.56287,0,0,0,0,0,0,0,-1,1763,1450,25.1482,-2.56286
546,-426,24.1136,3.75659,0,0,0,0,0,0,0,-1,1770,1450,24.1136,-3.7566
553,-426,23.0791,4.95032,0,0,0,0,0,0,0,-1,1777,1450,23.0791,-4.95034
560,-426,12.9688,11.8289,0,0,0,0,0,0,0,-1,1784,1450,12.9688,-11.8288
567,-426,13.6388,11.5623,0,0,0,0,0,0,0,-1,1791,1450,13.6388,-11.5623
574,-426,14.3943,11.0286,0,0,0,0,0,0,0,-1,1798,1450,14.3942,-11.0285
581,-426,16.3879,11.4653,0,0,0,0,0,0,0,-1,1805,1450,16.3879,-11.4653
588,-426,18.1212,12.5547,0,0,0,0,0,0,0,-1,1812,1450,18.1212,-12.5547
595,-426,23.907,16.8872,0,0,0,0,0,0,0,-1,1819,1450,23.907,-16.8872
602,-426,24.0432,16.3846,0.00357129,0.00388243,-0.00321596,0.00694657,0.000507142,-0.809567,0.0044716,0.0314497,1826,1450,24.0432,-16.3847
609,-426,24.1218,15.8748,0.00289957,0.00286991,-0.00242691,0.0053117,0.000457785,-0.782342,0.00339883,0.012334,1833,1450,24.1218,-15.8747
616,-426,24.1185,15.4014,0.00223115,0.00196367,-0.00173313,0.00383569,0.000359125,-0.746891,0.00244622,0.0138742,1840,1450,24.1185,-15.4014
623,-426,24.1188,14.9235,0.00175803,0.00125462,-0.00119041,0.00272305,0.000289596,-0.681211,0.00172695,0.0123607,1847,1450,24.1188,-14.9235
630,-426,24.1187,14.4502,0.00145559,0.000637665,-0.000787983,0.00193442,0.00015884,-0.546032,0.00124006,0.0132358,1854,1450,24.1186,-14.4501
637,-426,24.0878,13.9764,0.00118491,0.000200942,-0.000425058,0.00134309,4.27543e-05,-0.356274,0.00088149,0.0135503,1861,1450,24.0878,-13.9764
644,-426,24.0526,13.4832,0.00102131,-8.04603e-05,-0.000108113,0.00103182,-9.09689e-05,-0.0968952,0.000720121,0.0127496,1868,1450,24.0527,-13.4832
651,-426,24.0132,13.0114,0.000932387,-0.00022895,0.000122949,0.000945261,-0.000241824,0.104327,0.000724365,0.0117127,1875,1450,24.0132,-13.0114
658,-426,24.0223,12.4921,0.000880931,-0.000283873,0.000350088,0.000978054,-0.000380996,0.270618,0.000809494,0.0120748,1882,1450,24.0223,-12.4921
665,-426,24.0642,11.9298,0.000797234,-0.000259965,0.000695641,0.00114232,-0.000605055,0.460503,0.00102462,0.0222955,1889,1450,24.0642,-11.9298
672,-426,24.1852,11.4707,0,0,0,0,0,0,0,-1,1896,1450,24.1852,-11.4708
679,-426,17.1522,8.15784,0,0,0,0,0,0,0,-1,1903,1450,17.1522,-8.15784
686,-426,13.5326,8.03711,0,0,0,0,0,0,0,-1,1910,1450,13.5326,-8.03717
693,-426,11.8607,6.45215,0,0,0,0,0,0,0,-1,1917,1450,11.8607,-6.45215
700,-426,9.24304,2.95447,0,0,0,0,0,0,0,-1,1924,1450,9.24305,-2.95442
707,-426,8.44519,-1.21448,0,0,0,0,0,0,0,-1,1931,1450,8.44514,1.21454
714,-426,0,0,0,0,0,0,0,0,0,-1,1938,1450,0,0
721,-426,0,0,0,0,0,0,0,0,0,-1,1945,1450,0,0
728,-426,0,0,0,0,0,0,0,0,0,-1,1952,1450,0,0
735,-426,0,0,0,0,0,0,0,0,0,-1,1959,1450,0,0
742,-426,0,0,0,0,0,0,0,0,0,-1,1966,1450,0,0
749,-426,0,0,0,0,0,0,0,0,0,-1,1973,1450,0,0
756,-426,0,0,0,0,0,0,0,0,0,-1,1980,1450,0,0
763,-426,0,0,0,0,0,0,0,0,0,-1,1987,1450,0,0
770,-426,0,0,0,0,0,0,0,0,0,-1,1994,1450,0,0
777,-426,0,0,0,0,0,0,0,0,0,-1,2001,1450,0,0
784,-426,0,0,0,0,0,0,0,0,0,-1,2008,1450,0,0
791,-426,0,0,0,0,0,0,0,0,0,-1,2015,1450,0,0
798,-426,0,0,0,0,0,0,0,0,0,-1,2022,1450,0,0
805,-426,0,0,0,0,0,0,0,0,0,-1,2029,1450,0,0
812,-426,0,0,0,0,0,0,0,0,0,-1,2036,1450,0,0
-700,-433,0,0,0,0,0,0,0,0,0,-1,524,1457,0,0
-693,-433,0,0,0,0,0,0,0,0,0,-1,531,1457,0,0
-686,-433,0,0,0,0,0,0,0,0,0,-1,538,1457,0,0
-679,-433,0,0,0,0,0,0,0,0,0,-1,545,1457,0,0
-672,-433,0,0,0,0,0,0,0,0,0,-1,552,1457,0,0
-665,-433,0,0,0,0,0,0,0,0,0,-1,559,1457,0,0
-658,-433,0,0,0,0,0,0,0,0,0,-1,566,1457,0,0
-651,-433,0,0,0,0,0,0,0,0,0,-1,573,1457,0,0
-644,-433,0,0,0,0,0,0,0,0,0,-1,580,1457,0,0
-637,-433,0,0,0,0,0,0,0,0,0,-1,587,1457,0,0
-630,-433,0,0,0,0,0,0,0,0,0,-1,594,1457,0,0
-623,-433,0,0,0,0,0,0,0,0,0,-1,601,1457,0,0
-616,-433,0,0,0,0,0,0,0,0,0,-1,608,1457,0,0
-609,-433,0,0,0,0,0,0,0,0,0,-1,615,1457,0,0
-602,-433,0,0,0,0,0,0,0,0,0,-1,622,1457,0,0
-595,-433,0,0,0,0,0,0,0,0,0,-1,629,1457,0,0
-588,-433,-10.3756,-0.467041,0,0,0,0,0,0,0,-1,636,1457,-10.3756,0.467081
-581,-433,-8.12201,0.884033,0,0,0,0,0,0,0,-1,643,1457,-8.12204,-0.884056
-574,-433,-5.86847,2.23523,0,0,0,0,0,0,0,-1,650,1457,-5.86844,-2.23519
-567,-433,-5.42255,1.16833,0,0,0,0,0,0,0,-1,657,1457,-5.42254,-1.1683
-560,-433,-6.84027,1.86414,0,0,0,0,0,0,0,-1,664,1457,-6.84026,-1.86412
-553,-433,-5.74017,1.79163,0,0,0,0,0,0,0,-1,671,1457,-5.74015,-1.79166
-546,-433,-6.9668,8.25073,0,0,0,0,0,0,0,-1,678,1457,-6.96679,-8.25074
-539,-433,-7.3136,8.75659,0,0,0,0,0,0,0,-1,685,1457,-7.31362,-8.75659
-532,-433,-8.97424,9.93616,0,0,0,0,0,0,0,-1,692,1457,-8.97425,-9.93614
-525,-433,-9.03754,10.6761,-0.00223344,0.000139861,0.000270513,0.000170304,-0.00226389,1.45873,0.00156911,0.036382,699,1457,-9.03756,-10.6761
-518,-433,-9.08099,11.1996,-0.00133427,8.10785e-05,0.000436075,0.000204647,-0.00145784,1.29467,0.0010468,0.0165818,706,1457,-9.08098,-11.1996
-511,-433,-9.09528,11.7476,-0.000478384,0.000318035,0.000673967,0.000702642,-0.000862991,1.05223,0.000905498,0.0167681,713,1457,-9.09529,-11.7476
-504,-433,-9.09735,12.2367,0.000518269,0.000838889,0.00115605,0.00184569,-0.000488531,0.854294,0.00142157,0.0139907,720,1457,-9.09734,-12.2367
-497,-433,-9.11847,12.7479,0.00172234,0.00161917,0.0018661,0.00353757,-0.000196061,0.77158,0.00242638,0.0137581,727,1457,-9.11849,-12.7479
-490,-433,-9.17987,13.2629,0.0031961,0.00274736,0.00290743,0.0058878,5.56572e-05,0.746889,0.00390678,0.015714,734,1457,-9.17988,-13.2629
-483,-433,-9.19312,13.8125,0.00497002,0.00413872,0.00422594,0.0088007,0.000308041,0.736378,0.00576719,0.0169247,741,1457,-9.19314,-13.8125
-476,-433,-9.18817,14.359,0.00709023,0.00585534,0.00589135,0.0123964,0.00054917,0.733186,0.00808743,0.0114126,748,1457,-9.18818,-14.359
-469,-433,-9.21948,14.8776,0.00967052,0.00781826,0.00798225,0.0167802,0.000708599,0.727644,0.0109582,0.0106779,755,1457,-9.21949,-14.8776
-462,-433,-9.25903,15.4015,0.0128734,0.0102775,0.010636,0.0222904,0.000860493,0.724682,0.0145819,0.0136832,762,1457,-9.25902,-15.4015
-455,-433,-8.81561,16.1976,0,0,0,0,0,0,0,-1,769,1457,-8.81561,-16.1977
-448,-433,-6.94812,14.5563,0,0,0,0,0,0,0,-1,776,1457,-6.94809,-14.5562
-441,-433,-9.97485,14.0258,0,0,0,0,0,0,0,-1,783,1457,-9.97488,-14.0257
-434,-433,-9.41205,14.2297,0,0,0,0,0,0,0,-1,790,1457,-9.41205,-14.2297
-427,-433,-8.67419,13.6827,0,0,0,0,0,0,0,-1,797,1457,-8.67422,-13.6827
-420,-433,-5.74658,9.49121,0,0,0,0,0,0,0,-1,804,1457,-5.7466,-9.49119
-413,-433,-3.63074,5.5813,0,0,0,0,0,0,0,-1,811,1457,-3.63072,-5.58129
-406,-433,-12.3472,4.69373,0,0,0,0,0,0,0,-1,818,1457,-12.3472,-4.69374
-399,-433,-12.055,2.83594,0,0,0,0,0,0,0,-1,825,1457,-12.055,-2.83594
-392,-433,-12.9772,1.6228,0,0,0,0,0,0,0,-1,832,1457,-12.9772,-1.62282
-385,-433,-13.7999,0.514771,0,0,0,0,0,0,0,-1,839,1457,-13.7999,-0.514788
-378,-433,0,0,0,0,0,0,0,0,0,-1,846,1457,0,0
-371,-433,0,0,0,0,0,0,0,0,0,-1,853,1457,0,0
-364,-433,0,0,0,0,0,0,0,0,0,-1,860,1457,0,0
-357,-433,0,0,0,0,0,0,0,0,0,-1,867,1457,0,0
-350,-433,0,0,0,0,0,0,0,0,0,-1,874,1457,0,0
-343,-433,0,0,0,0,0,0,0,0,0,-1,881,1457,0,0
-336,-433,0,0,0,0,0,0,0,0,0,-1,888,1457,0,0
-329,-433,0,0,0,0,0,0,0,0,0,-1,895,1457,0,0
-322,-433,0,0,0,0,0,0,0,0,0,-1,902,1457,0,0
-315,-433,0,0,0,0,0,0,0,0,0,-1,909,1457,0,0
-308,-433,0,0,0,0,0,0,0,0,0,-1,916,1457,0,0
-301,-433,0,0,0,0,0,0,0,0,0,-1,923,1457,0,0
-294,-433,0,0,0,0,0,0,0,0,0,-1,930,1457,0,0
-287,-433,0,0,0,0,0,0,0,0,0,-1,937,1457,0,0
-280,-433,0,0,0,0,0,0,0,0,0,-1,944,1457,0,0
-273,-433,0,0,0,0,0,0,0,0,0,-1,951,1457,0,0
-266,-433,0,0,0,0,0,0,0,0,0,-1,958,1457,0,0
-259,-433,0,0,0,0,0,0,0,0,0,-1,965,1457,0,0
-252,-433,0,0,0,0,0,0,0,0,0,-1,972,1457,0,0
-245,-433,0,0,0,0,0,0,0,0,0,-1,979,1457,0,0
-238,-433,0,0,0,0,0,0,0,0,0,-1,986,1457,0,0
-231,-433,0,0,0,0,0,0,0,0,0,-1,993,1457,0,0
-224,-433,0,0,0,0,0,0,0,0,0,-1,1000,1457,0,0
-217,-433,0,0,0,0,0,0,0,0,0,-1,1007,1457,0,0
-210,-433,0,0,0,0,0,0,0,0,0,-1,1014,1457,0,0
-203,-433,0,0,0,0,0,0,0,0,0,-1,1021,1457,0,0
-196,-433,0,0,0,0,0,0,0,0,0,-1,1028,1457,0,0
-189,-433,0,0,0,0,0,0,0,0,0,-1,1035,1457,0,0
-182,-433,0,0,0,0,0,0,0,0,0,-1,1042,1457,0,0
-175,-433,0,0,0,0,0,0,0,0,0,-1,1049,1457,0,0
-168,-433,0,0,0,0,0,0,0,0,0,-1,1056,1457,0,0
-161,-433,0,0,0,0,0,0,0,0,0,-1,1063,1457,0,0
-154,-433,0,0,0,0,0,0,0,0,0,-1,1070,1457,0,0
-147,-433,0,0,0,0,0,0,0,0,0,-1,1077,1457,0,0
-140,-433,0,0,0,0,0,0,0,0,0,-1,1084,1457,0,0
-133,-433,0,0,0,0,0,0,0,0,0,-1,1091,1457,0,0
-126,-433,0,0,0,0,0,0,0,0,0,-1,1098,1457,0,0
-119,-433,0,0,0,0,0,0,0,0,0,-1,1105,1457,0,0
-112,-433,0,0,0,0,0,0,0,0,0,-1,1112,1457,0,0
-105,-433,0,0,0,0,0,0,0,0,0,-1,1119,1457,0,0
-98,-433,0,0,0,0,0,0,0,0,0,-1,1126,1457,0,0
-91,-433,0,0,0,0,0,0,0,0,0,-1,1133,1457,0,0
-84,-433,0,0,0,0,0,0,0,0,0,-1,1140,1457,0,0
-77,-433,0,0,0,0,0,0,0,0,0,-1,1147,1457,0,0
-70,-433,0,0,0,0,0,0,0,0,0,-1,1154,1457,0,0
-63,-433,0,0,0,0,0,0,0,0,0,-1,1161,1457,0,0
-56,-433,0,0,0,0,0,0,0,0,0,-1,1168,1457,0,0
-49,-433,0,0,0,0,0,0,0,0,0,-1,1175,1457,0,0
-42,-433,0,0,0,0,0,0,0,0,0,-1,1182,1457,0,0
-35,-433,0,0,0,0,0,0,0,0,0,-1,1189,1457,0,0
-28,-433,0,0,0,0,0,0,0,0,0,-1,1196,1457,0,0
-21,-433,0,0,0,0,0,0,0,0,0,-1,1203,1457,0,0
-14,-433,0,0,0,0,0,0,0,0,0,-1,1210,1457,0,0
-7,-433,0,0,0,0,0,0,0,0,0,-1,1217,1457,0,0
0,-433,0,0,0,0,0,0,0,0,0,-1,1224,1457,0,0
7,-433,0,0,0,0,0,0,0,0,0,-1,1231,1457,0,0
14,-433,0,0,0,0,0,0,0,0,0,-1,1238,1457,0,0
21,-433,0,0,0,0,0,0,0,0,0,-1,1245,1457,0,0
28,-433,0,0,0,0,0,0,0,0,0,-1,1252,1457,0,0
35,-433,0,0,0,0,0,0,0,0,0,-1,1259,1457,0,0
42,-433,0,0,0,0,0,0,0,0,0,-1,1266,1457,0,0
49,-433,0,0,0,0,0,0,0,0,0,-1,1273,1457,0,0
56,-433,0,0,0,0,0,0,0,0,0,-1,1280,1457,0,0
63,-433,0,0,0,0,0,0,0,0,0,-1,1287,1457,0,0
70,-433,0,0,0,0,0,0,0,0,0,-1,1294,1457,0,0
77,-433,0,0,0,0,0,0,0,0,0,-1,1301,1457,0,0
84,-433,0,0,0,0,0,0,0,0,0,-1,1308,1457,0,0
91,-433,0,0,0,0,0,0,0,0,0,-1,1315,1457,0,0
98,-433,0,0,0,0,0,0,0,0,0,-1,1322,1457,0,0
105,-433,0,0,0,0,0,0,0,0,0,-1,1329,1457,0,0
112,-433,0,0,0,0,0,0,0,0,0,-1,1336,1457,0,0
119,-433,0,0,0,0,0,0,0,0,0,-1,1343,1457,0,0
126,-433,0,0,0,0,0,0,0,0,0,-1,1350,1457,0,0
133,-433,0,0,0,0,0,0,0,0,0,-1,1357,1457,0,0
140,-433,0,0,0,0,0,0,0,0,0,-1,1364,1457,0,0
147,-433,0,0,0,0,0,0,0,0,0,-1,1371,1457,0,0
154,-433,0,0,0,0,0,0,0,0,0,-1,1378,1457,0,0
161,-433,0,0,0,0,0,0,0,0,0,-1,1385,1457,0,0
168,-433,0,0,0,0,0,0,0,0,0,-1,1392,1457,0,0
175,-433,0,0,0,0,0,0,0,0,0,-1,1399,1457,0,0
182,-433,0,0,0,0,0,0,0,0,0,-1,1406,1457,0,0
189,-433,0,0,0,0,0,0,0,0,0,-1,1413,1457,0,0
196,-433,0,0,0,0,0,0,0,0,0,-1,1420,1457,0,0
203,-433,0,0,0,0,0,0,0,0,0,-1,1427,1457,0,0
210,-433,0,0,0,0,0,0,0,0,0,-1,1434,1457,0,0
217,-433,0,0,0,0,0,0,0,0,0,-1,1441,1457,0,0
224,-433,0,0,0,0,0,0,0,0,0,-1,1448,1457,0,0
231,-433,0,0,0,0,0,0,0,0,0,-1,1455,1457,0,0
238,-433,0,0,0,0,0,0,0,0,0,-1,1462,1457,0,0
245,-433,0,0,0,0,0,0,0,0,0,-1,1469,1457,0,0
252,-433,0,0,0,0,0,0,0,0,0,-1,1476,1457,0,0
259,-433,0,0,0,0,0,0,0,0,0,-1,1483,1457,0,0
266,-433,0,0,0,0,0,0,0,0,0,-1,1490,1457,0,0
273,-433,0,0,0,0,0,0,0,0,0,-1,1497,1457,0,0
280,-433,0,0,0,0,0,0,0,0,0,-1,1504,1457,0,0
287,-433,0,0,0,0,0,0,0,0,0,-1,1511,1457,0,0
294,-433,0,0,0,0,0,0,0,0,0,-1,1518,1457,0,0
301,-433,0,0,0,0,0,0,0,0,0,-1,1525,1457,0,0
308,-433,0,0,0,0,0,0,0,0,0,-1,1532,1457,0,0
315,-433,0,0,0,0,0,0,0,0,0,-1,1539,1457,0,0
322,-433,0,0,0,0,0,0,0,0,0,-1,1546,1457,0,0
329,-433,0,0,0,0,0,0,0,0,0,-1,1553,1457,0,0
336,-433,0,0,0,0,0,0,0,0,0,-1,1560,1457,0,0
343,-433,0,0,0,0,0,0,0,0,0,-1,1567,1457,0,0
350,-433,0,0,0,0,0,0,0,0,0,-1,1574,1457,0,0
357,-433,0,0,0,0,0,0,0,0,0,-1,1581,1457,0,0
364,-433,0,0,0,0,0,0,0,0,0,-1,1588,1457,0,0
371,-433,0,0,0,0,0,0,0,0,0,-1,1595,1457,0,0
378,-433,0,0,0,0,0,0,0,0,0,-1,1602,1457,0,0
385,-433,0,0,0,0,0,0,0,0,0,-1,1609,1457,0,0
392,-433,0,0,0,0,0,0,0,0,0,-1,1616,1457,0,0
399,-433,0,0,0,0,0,0,0,0,0,-1,1623,1457,0,0
406,-433,0,0,0,0,0,0,0,0,0,-1,1630,1457,0,0
413,-433,0,0,0,0,0,0,0,0,0,-1,1637,1457,0,0
420,-433,0,0,0,0,0,0,0,0,0,-1,1644,1457,0,0
427,-433,0,0,0,0,0,0,0,0,0,-1,1651,1457,0,0
434,-433,0,0,0,0,0,0,0,0,0,-1,1658,1457,0,0
441,-433,0,0,0,0,0,0,0,0,0,-1,1665,1457,0,0
448,-433,0,0,0,0,0,0,0,0,0,-1,1672,1457,0,0
455,-433,0,0,0,0,0,0,0,0,0,-1,1679,1457,0,0
462,-433,0,0,0,0,0,0,0,0,0,-1,1686,1457,0,0
469,-433,0,0,0,0,0,0,0,0,0,-1,1693,1457,0,0
476,-433,0,0,0,0,0,0,0,0,0,-1,1700,1457,0,0
483,-433,0,0,0,0,0,0,0,0,0,-1,1707,1457,0,0
490,-433,0,0,0,0,0,0,0,0,0,-1,1714,1457,0,0
497,-433,0,0,0,0,0,0,0,0,0,-1,1721,1457,0,0
504,-433,19.9058,3.03662,0,0,0,0,0,0,0,-1,1728,1457,19.9058,-3.03656
511,-433,19.0145,3.07837,0,0,0,0,0,0,0,-1,1735,1457,19.0146,-3.07834
518,-433,18.071,3.06433,0,0,0,0,0,0,0,-1,1742,1457,18.071,-3.06432
525,-433,17.2048,3.37085,0,0,0,0,0,0,0,-1,1749,1457,17.2049,-3.37083
532,-433,16.5637,3.36646,0,0,0,0,0,0,0,-1,1756,1457,16.5637,-3.36643
539,-433,15.9193,3.30396,0,0,0,0,0,0,0,-1,1763,1457,15.9193,-3.30394
546,-433,23.1903,4.81775,0,0,0,0,0,0,0,-1,1770,1457,23.1903,-4.81775
553,-433,13.9674,11.5781,0,0,0,0,0,0,0,-1,1777,1457,13.9674,-11.5781
560,-433,13.9855,11.7341,0,0,0,0,0,0,0,-1,1784,1457,13.9855,-11.7341
567,-433,13.9264,11.3364,0,0,0,0,0,0,0,-1,1791,1457,13.9263,-11.3364
574,-433,15.5305,12.3673,0,0,0,0,0,0,0,-1,1798,1457,15.5305,-12.3673
581,-433,16.6405,12.1898,0,0,0,0,0,0,0,-1,1805,1457,16.6405,-12.1898
588,-433,23.7358,17.7181,0,0,0,0,0,0,0,-1,1812,1457,23.7358,-17.7181
595,-433,23.6388,16.9658,0.00399548,0.00447329,-0.00367046,0.00791262,0.00055616,-0.817896,0.00509981,0.039515,1819,1457,23.6388,-16.9658
602,-433,23.6188,16.4099,0.00320079,0.00334071,-0.00278324,0.00605487,0.000486626,-0.797963,0.00388455,0.022386,1826,1457,23.6188,-16.4099
609,-433,23.6449,15.8712,0.0025787,0.0024178,-0.00207919,0.004579,0.000417498,-0.766061,0.00292345,0.0153738,1833,1457,23.6449,-15.8712
616,-433,23.6608,15.4093,0.00201008,0.00163006,-0.00147706,0.0033093,0.000330838,-0.72143,0.00210461,0.0134185,1840,1457,23.6608,-15.4093
623,-433,23.6335,14.9198,0.00163465,0.000988339,-0.000990943,0.0023538,0.000269189,-0.627781,0.00148761,0.0109957,1847,1457,23.6336,-14.9198
630,-433,23.6011,14.4521,0.00140285,0.000408531,-0.000626732,0.00170567,0.000105716,-0.45009,0.00110356,0.0142355,1854,1457,23.6011,-14.4521
637,-433,23.578,13.9767,0.00118941,1.21665e-05,-0.000295391,0.00125937,-5.77943e-05,-0.232557,0.000859495,0.0156549,1861,1457,23.578,-13.9766
644,-433,23.5596,13.5193,0.00108822,-0.000242629,-1.41225e-05,0.00108837,-0.000242779,-0.01061,0.000818595,0.0156131,1868,1457,23.5595,-13.5193
651,-433,23.5487,13.0164,0.00107966,-0.000317575,0.000143295,0.0010942,-0.00033212,0.101153,0.000861778,0.0117872,1875,1457,23.5486,-13.0164
658,-433,23.5255,12.4796,0.00115246,-0.000310449,0.000272211,0.00120147,-0.000359459,0.178135,0.000943897,0.025189,1882,1457,23.5255,-12.4796
665,-433,23.6095,11.8268,0,0,0,0,0,0,0,-1,1889,1457,23.6095,-11.8268
672,-433,18.115,8.7207,0,0,0,0,0,0,0,-1,1896,1457,18.115,-8.72074
679,-433,17.2969,9.6355,0,0,0,0,0,0,0,-1,1903,1457,17.2968,-9.63548
686,-433,13.6356,8.61694,0,0,0,0,0,0,0,-1,1910,1457,13.6356,-8.61694
693,-433,13.4081,8.39624,0,0,0,0,0,0,0,-1,1917,1457,13.4081,-8.39624
700,-433,7.16809,-1.5166,0,0,0,0,0,0,0,-1,1924,1457,7.16806,1.51656
707,-433,8.68359,-2.82202,0,0,0,0,0,0,0,-1,1931,1457,8.68359,2.82197
714,-433,0,0,0,0,0,0,0,0,0,-1,1938,1457,0,0
721,-433,0,0,0,0,0,0,0,0,0,-1,1945,1457,0,0
728,-433,0,0,0,0,0,0,0,0,0,-1,1952,1457,0,0
735,-433,0,0,0,0,0,0,0,0,0,-1,1959,1457,0,0
742,-433,0,0,0,0,0,0,0,0,0,-1,1966,1457,0,0
749,-433,0,0,0,0,0,0,0,0,0,-1,1973,1457,0,0
756,-433,0,0,0,0,0,0,0,0,0,-1,1980,1457,0,0
763,-433,0,0,0,0,0,0,0,0,0,-1,1987,1457,0,0
770,-433,0,0,0,0,0,0,0,0,0,-1,1994,1457,0,0
777,-433,0,0,0,0,0,0,0,0,0,-1,2001,1457,0,0
784,-433,0,0,0,0,0,0,0,0,0,-1,2008,1457,0,0
791,-433,0,0,0,0,0,0,0,0,0,-1,2015,1457,0,0
798,-433,0,0,0,0,0,0,0,0,0,-1,2022,1457,0,0
805,-433,0,0,0,0,0,0,0,0,0,-1,2029,1457,0,0
812,-433,0,0,0,0,0,0,0,0,0,-1,2036,1457,0,0
-700,-440,0,0,0,0,0,0,0,0,0,-1,524,1464,0,0
-693,-440,0,0,0,0,0,0,0,0,0,-1,531,1464,0,0
-686,-440,0,0,0,0,0,0,0,0,0,-1,538,1464,0,0
-679,-440,0,0,0,0,0,0,0,0,0,-1,545,1464,0,0
-672,-440,0,0,0,0,0,0,0,0,0,-1,552,1464,0,0
-665,-440,0,0,0,0,0,0,0,0,0,-1,559,1464,0,0
-658,-440,0,0,0,0,0,0,0,0,0,-1,566,1464,0,0
-651,-440,0,0,0,0,0,0,0,0,0,-1,573,1464,0,0
-644,-440,0,0,0,0,0,0,0,0,0,-1,580,1464,0,0
-637,-440,0,0,0,0,0,0,0,0,0,-1,587,1464,0,0
-630,-440,0,0,0,0,0,0,0,0,0,-1,594,1464,0,0
-623,-440,0,0,0,0,0,0,0,0,0,-1,601,1464,0,0
-616,-440,0,0,0,0,0,0,0,0,0,-1,608,1464,0,0
-609,-440,0,0,0,0,0,0,0,0,0,-1,615,1464,0,0
-602,-440,0,0,0,0,0,0,0,0,0,-1,622,1464,0,0
-595,-440,0,0,0,0,0,0,0,0,0,-1,629,1464,0,0
-588,-440,0,0,0,0,0,0,0,0,0,-1,636,1464,0,0
-581,-440,-8.97278,0.254517,0,0,0,0,0,0,0,-1,643,1464,-8.97276,-0.254526
-574,-440,-7.00818,-0.918579,0,0,0,0,0,0,0,-1,650,1464,-7.00817,0.918538
-567,-440,-6.12152,-0.0766602,0,0,0,0,0,0,0,-1,657,1464,-6.12151,0.0767097
-560,-440,-5.46747,0.82251,0,0,0,0,0,0,0,-1,664,1464,-5.46748,-0.822551
-553,-440,-6.84729,0.0831299,0,0,0,0,0,0,0,-1,671,1464,-6.84732,-0.083136
-546,-440,-5.63446,-0.153198,0,0,0,0,0,0,0,-1,678,1464,-5.63447,0.153147
-539,-440,-6.80017,8.58252,0,0,0,0,0,0,0,-1,685,1464,-6.80015,-8.58257
-532,-440,-8.13007,9.89331,0,0,0,0,0,0,0,-1,692,1464,-8.13008,-9.89333
-525,-440,-8.65564,10.5355,0,0,0,0,0,0,0,-1,699,1464,-8.65562,-10.5355
-518,-440,-8.61176,11.1442,-0.00186979,-0.000123366,0.000790147,0.00018106,-0.00217422,1.20305,0.00151345,0.0208271,706,1464,-8.61173,-11.1442
-511,-440,-8.57831,11.743,-0.00105658,-2.30234e-05,0.000800645,0.000413138,-0.00149274,1.07198,0.00115771,0.0156407,713,1464,-8.57828,-11.743
-504,-440,-8.57343,12.2808,-0.000145288,0.000383626,0.00108963,0.00124044,-0.0010021,0.904448,0.00129716,0.0190128,720,1464,-8.57344,-12.2807
-497,-440,-8.61719,12.7971,0.000939609,0.00102792,0.0015926,0.00257698,-0.000609447,0.799258,0.00195309,0.0208472,727,1464,-8.61716,-12.7972
-490,-440,-8.61835,13.2224,0.00227688,0.00200552,0.00241081,0.00455583,-0.00027343,0.757289,0.00313234,0.0221854,734,1464,-8.61833,-13.2224
-483,-440,-8.65387,13.7625,0.003906,0.00322898,0.003499,0.00708282,5.21522e-05,0.737176,0.00470459,0.0207125,741,1464,-8.65385,-13.7625
-476,-440,-8.64496,14.3412,0.00583598,0.00472291,0.00489638,0.0102074,0.000351532,0.72881,0.0066908,0.0134001,748,1464,-8.64496,-14.3412
-469,-440,-8.68958,14.8837,0.00810976,0.00640969,0.00665961,0.0139734,0.000546083,0.721921,0.00913899,0.012018,755,1464,-8.6896,-14.8837
-462,-440,-8.75464,15.3905,0.0108593,0.00846577,0.00885021,0.0185933,0.000731783,0.718193,0.012159,0.0154063,762,1464,-8.75465,-15.3905
-455,-440,-8.58917,16.031,0.0142823,0.0109142,0.0116225,0.0243422,0.000854339,0.713451,0.015951,0.0358063,769,1464,-8.58918,-16.031
-448,-440,-8.08673,16.7976,0,0,0,0,0,0,0,-1,776,1464,-8.08673,-16.7976
-441,-440,-7.28583,14.7465,0,0,0,0,0,0,0,-1,783,1464,-7.28584,-14.7464
-434,-440,-8.33636,14.5024,0,0,0,0,0,0,0,-1,790,1464,-8.33638,-14.5025
-427,-440,-8.28094,14.2512,0,0,0,0,0,0,0,-1,797,1464,-8.28094,-14.2512
-420,-440,-6.86603,8.09216,0,0,0,0,0,0,0,-1,804,1464,-6.86602,-8.09222
-413,-440,-3.46796,5.72278,0,0,0,0,0,0,0,-1,811,1464,-3.46797,-5.72276
-406,-440,-5.2887,5.20264,0,0,0,0,0,0,0,-1,818,1464,-5.2887,-5.20261
-399,-440,-12.7318,3.94421,0,0,0,0,0,0,0,-1,825,1464,-12.7318,-3.94419
-392,-440,-13.5565,2.51855,0,0,0,0,0,0,0,-1,832,1464,-13.5565,-2.51861
-385,-440,-14.6741,1.39795,0,0,0,0,0,0,0,-1,839,1464,-14.6741,-1.39801
-378,-440,-15.8063,0.293457,0,0,0,0,0,0,0,-1,846,1464,-15.8063,-0.293412
-371,-440,0,0,0,0,0,0,0,0,0,-1,853,1464,0,0
-364,-440,0,0,0,0,0,0,0,0,0,-1,860,1464,0,0
-357,-440,0,0,0,0,0,0,0,0,0,-1,867,1464,0,0
-350,-440,0,0,0,0,0,0,0,0,0,-1,874,1464,0,0
-343,-440,0,0,0,0,0,0,0,0,0,-1,881,1464,0,0
-336,-440,0,0,0,0,0,0,0,0,0,-1,888,1464,0,0
-329,-440,0,0,0,0,0,0,0,0,0,-1,895,1464,0,0
-322,-440,0,0,0,0,0,0,0,0,0,-1,902,1464,0,0
-315,-440,0,0,0,0,0,0,0,0,0,-1,909,1464,0,0
-308,-440,0,0,0,0,0,0,0,0,0,-1,916,1464,0,0
-301,-440,0,0,0,0,0,0,0,0,0,-1,923,1464,0,0
-294,-440,0,0,0,0,0,0,0,0,0,-1,930,1464,0,0
-287,-440,0,0,0,0,0,0,0,0,0,-1,937,1464,0,0
-280,-440,0,0,0,0,0,0,0,0,0,-1,944,1464,0,0
-273,-440,0,0,0,0,0,0,0,0,0,-1,951,1464,0,0
-266,-440,0,0,0,0,0,0,0,0,0,-1,958,1464,0,0
-259,-440,0,0,0,0,0,0,0,0,0,-1,965,1464,0,0
-252,-440,0,0,0,0,0,0,0,0,0,-1,972,1464,0,0
-245,-440,0,0,0,0,0,0,0,0,0,-1,979,1464,0,0
-238,-440,0,0,0,0,0,0,0,0,0,-1,986,1464,0,0
-231,-440,0,0,0,0,0,0,0,0,0,-1,993,1464,0,0
-224,-440,0,0,0,0,0,0,0,0,0,-1,1000,1464,0,0
-217,-440,0,0,0,0,0,0,0,0,0,-1,1007,1464,0,0
-210,-440,0,0,0,0,0,0,0,0,0,-1,1014,1464,0,0
-203,-440,0,0,0,0,0,0,0,0,0,-1,1021,1464,0,0
-196,-440,0,0,0,0,0,0,0,0,0,-1,1028,1464,0,0
-189,-440,0,0,0,0,0,0,0,0,0,-1,1035,1464,0,0
-182,-440,0,0,0,0,0,0,0,0,0,-1,1042,1464,0,0
-175,-440,0,0,0,0,0,0,0,0,0,-1,1049,1464,0,0
-168,-440,0,0,0,0,0,0,0,0,0,-1,1056,1464,0,0
-161,-440,0,0,0,0,0,0,0,0,0,-1,1063,1464,0,0
-154,-440,0,0,0,0,0,0,0,0,0,-1,1070,1464,0,0
-147,-440,0,0,0,0,0,0,0,0,0,-1,1077,1464,0,0
-140,-440,0,0,0,0,0,0,0,0,0,-1,1084,1464,0,0
-133,-440,0,0,0,0,0,0,0,0,0,-1,1091,1464,0,0
-126,-440,0,0,0,0,0,0,0,0,0,-1,1098,1464,0,0
-119,-440,0,0,0,0,0,0,0,0,0,-1,1105,1464,0,0
-112,-440,0,0,0,0,0,0,0,0,0,-1,1112,1464,0,0
-105,-440,0,0,0,0,0,0,0,0,0,-1,1119,1464,0,0
-98,-440,0,0,0,0,0,0,0,0,0,-1,1126,1464,0,0
-91,-440,0,0,0,0,0,0,0,0,0,-1,1133,1464,0,0
-84,-440,0,0,0,0,0,0,0,0,0,-1,1140,1464,0,0
-77,-440,0,0,0,0,0,0,0,0,0,-1,1147,1464,0,0
-70,-440,0,0,0,0,0,0,0,0,0,-1,1154,1464,0,0
-63,-440,0,0,0,0,0,0,0,0,0,-1,1161,1464,0,0
-56,-440,0,0,0,0,0,0,0,0,0,-1,1168,1464,0,0
-49,-440,0,0,0,0,0,0,0,0,0,-1,1175,1464,0,0
-42,-440,0,0,0,0,0,0,0,0,0,-1,1182,1464,0,0
-35,-440,0,0,0,0,0,0,0,0,0,-1,1189,1464,0,0
-28,-440,0,0,0,0,0,0,0,0,0,-1,1196,1464,0,0
-21,-440,0,0,0,0,0,0,0,0,0,-1,1203,1464,0,0
-14,-440,0,0,0,0,0,0,0,0,0,-1,1210,1464,0,0
-7,-440,0,0,0,0,0,0,0,0,0,-1,1217,1464,0,0
0,-440,0,0,0,0,0,0,0,0,0,-1,1224,1464,0,0
7,-440,0,0,0,0,0,0,0,0,0,-1,1231,1464,0,0
14,-440,0,0,0,0,0,0,0,0,0,-1,1238,1464,0,0
21,-440,0,0,0,0,0,0,0,0,0,-1,1245,1464,0,0
28,-440,0,0,0,0,0,0,0,0,0,-1,1252,1464,0,0
35,-440,0,0,0,0,0,0,0,0,0,-1,1259,1464,0,0
42,-440,0,0,0,0,0,0,0,0,0,-1,1266,1464,0,0
49,-440,0,0,0,0,0,0,0,0,0,-1,1273,1464,0,0
56,-440,0,0,0,0,0,0,0,0,0,-1,1280,1464,0,0
63,-440,0,0,0,0,0,0,0,0,0,-1,1287,1464,0,0
70,-440,0,0,0,0,0,0,0,0,0,-1,1294,1464,0,0
77,-440,0,0,0,0,0,0,0,0,0,-1,1301,1464,0,0
84,-440,0,0,0,0,0,0,0,0,0,-1,1308,1464,0,0
91,-440,0,0,0,0,0,0,0,0,0,-1,1315,1464,0,0
98,-440,0,0,0,0,0,0,0,0,0,-1,1322,1464,0,0
105,-440,0,0,0,0,0,0,0,0,0,-1,1329,1464,0,0
112,-440,0,0,0,0,0,0,0,0,0,-1,1336,1464,0,0
119,-440,0,0,0,0,0,0,0,0,0,-1,1343,1464,0,0
126,-440,0,0,0,0,0,0,0,0,0,-1,1350,1464,0,0
133,-440,0,0,0,0,0,0,0,0,0,-1,1357,1464,0,0
140,-440,0,0,0,0,0,0,0,0,0,-1,1364,1464,0,0
147,-440,0,0,0,0,0,0,0,0,0,-1,1371,1464,0,0
154,-440,0,0,0,0,0,0,0,0,0,-1,1378,1464,0,0
161,-440,0,0,0,0,0,0,0,0,0,-1,1385,1464,0,0
168,-440,0,0,0,0,0,0,0,0,0,-1,1392,1464,0,0
175,-440,0,0,0,0,0,0,0,0,0,-1,1399,1464,0,0
182,-440,0,0,0,0,0,0,0,0,0,-1,1406,1464,0,0
189,-440,0,0,0,0,0,0,0,0,0,-1,1413,1464,0,0
196,-440,0,0,0,0,0,0,0,0,0,-1,1420,1464,0,0
203,-440,0,0,0,0,0,0,0,0,0,-1,1427,1464,0,0
210,-440,0,0,0,0,0,0,0,0,0,-1,1434,1464,0,0
217,-440,0,0,0,0,0,0,0,0,0,-1,1441,1464,0,0
224,-440,0,0,0,0,0,0,0,0,0,-1,1448,1464,0,0
231,-440,0,0,0,0,0,0,0,0,0,-1,1455,1464,0,0
238,-440,0,0,0,0,0,0,0,0,0,-1,1462,1464,0,0
245,-440,0,0,0,0,0,0,0,0,0,-1,1469,1464,0,0
252,-440,0,0,0,0,0,0,0,0,0,-1,1476,1464,0,0
259,-440,0,0,0,0,0,0,0,0,0,-1,1483,1464,0,0
266,-440,0,0,0,0,0,0,0,0,0,-1,1490,1464,0,0
273,-440,0,0,0,0,0,0,0,0,0,-1,1497,1464,0,0
280,-440,0,0,0,0,0,0,0,0,0,-1,1504,1464,0,0
287,-440,0,0,0,0,0,0,0,0,0,-1,1511,1464,0,0
294,-440,0,0,0,0,0,0,0,0,0,-1,1518,1464,0,0
301,-440,0,0,0,0,0,0,0,0,0,-1,1525,1464,0,0
308,-440,0,0,0,0,0,0,0,0,0,-1,1532,1464,0,0
315,-440,0,0,0,0,0,0,0,0,0,-1,1539,1464,0,0
322,-440,0,0,0,0,0,0,0,0,0,-1,1546,1464,0,0
329,-440,0,0,0,0,0,0,0,0,0,-1,1553,1464,0,0
336,-440,0,0,0,0,0,0,0,0,0,-1,1560,1464,0,0
343,-440,0,0,0,0,0,0,0,0,0,-1,1567,1464,0,0
350,-440,0,0,0,0,0,0,0,0,0,-1,1574,1464,0,0
357,-440,0,0,0,0,0,0,0,0,0,-1,1581,1464,0,0
364,-440,0,0,0,0,0,0,0,0,0,-1,1588,1464,0,0
371,-440,0,0,0,0,0,0,0,0,0,-1,1595,1464,0,0
378,-440,0,0,0,0,0,0,0,0,0,-1,1602,1464,0,0
385,-440,0,0,0,0,0,0,0,0,0,-1,1609,1464,0,0
392,-440,0,0,0,0,0,0,0,0,0,-1,1616,1464,0,0
399,-440,0,0,0,0,0,0,0,0,0,-1,1623,1464,0,0
406,-440,0,0,0,0,0,0,0,0,0,-1,1630,1464,0,0
413,-440,0,0,0,0,0,0,0,0,0,-1,1637,1464,0,0
420,-440,0,0,0,0,0,0,0,0,0,-1,1644,1464,0,0
427,-440,0,0,0,0,0,0,0,0,0,-1,1651,1464,0,0
434,-440,0,0,0,0,0,0,0,0,0,-1,1658,1464,0,0
441,-440,0,0,0,0,0,0,0,0,0,-1,1665,1464,0,0
448,-440,0,0,0,0,0,0,0,0,0,-1,1672,1464,0,0
455,-440,0,0,0,0,0,0,0,0,0,-1,1679,1464,0,0
462,-440,0,0,0,0,0,0,0,0,0,-1,1686,1464,0,0
469,-440,0,0,0,0,0,0,0,0,0,-1,1693,1464,0,0
476,-440,0,0,0,0,0,0,0,0,0,-1,1700,1464,0,0
483,-440,0,0,0,0,0,0,0,0,0,-1,1707,1464,0,0
490,-440,0,0,0,0,0,0,0,0,0,-1,1714,1464,0,0
497,-440,16.965,-0.528442,0,0,0,0,0,0,0,-1,1721,1464,16.965,0.528492
504,-440,15.8052,0.670166,0,0,0,0,0,0,0,-1,1728,1464,15.8052,-0.670145
511,-440,17.5754,2.77832,0,0,0,0,0,0,0,-1,1735,1464,17.5754,-2.77826
518,-440,16.9017,3.07861,0,0,0,0,0,0,0,-1,1742,1464,16.9018,-3.07859
525,-440,18.4495,12.0867,0,0,0,0,0,0,0,-1,1749,1464,18.4495,-12.0867
532,-440,15.4319,3.64392,0,0,0,0,0,0,0,-1,1756,1464,15.4318,-3.64391
539,-440,14.8214,3.41321,0,0,0,0,0,0,0,-1,1763,1464,14.8214,-3.4132
546,-440,14.8651,10.7683,0,0,0,0,0,0,0,-1,1770,1464,14.8651,-10.7683
553,-440,15.1213,11.4121,0,0,0,0,0,0,0,-1,1777,1464,15.1213,-11.4121
560,-440,17.4325,12.5394,0,0,0,0,0,0,0,-1,1784,1464,17.4325,-12.5394
567,-440,16.9025,12.4249,0,0,0,0,0,0,0,-1,1791,1464,16.9025,-12.425
574,-440,19.2841,14.8679,0,0,0,0,0,0,0,-1,1798,1464,19.2841,-14.868
581,-440,22.9912,18.4435,0,0,0,0,0,0,0,-1,1805,1464,22.9912,-18.4435
588,-440,23.0858,17.5281,0,0,0,0,0,0,0,-1,1812,1464,23.0858,-17.5281
595,-440,23.1179,16.9412,0.00358879,0.00369243,-0.00305466,0.0066957,0.000585511,-0.793879,0.004282,0.0234563,1819,1464,23.1179,-16.9411
602,-440,23.1708,16.3723,0.00290998,0.0027306,-0.00234076,0.00516277,0.000477815,-0.766249,0.00329415,0.0184046,1826,1464,23.1708,-16.3723
609,-440,23.166,15.8984,0.00235329,0.00190993,-0.0017247,0.0038705,0.000392715,-0.721482,0.0024599,0.0161813,1833,1464,23.1661,-15.8984
616,-440,23.1404,15.441,0.00187812,0.00124599,-0.00121639,0.00281884,0.000305268,-0.65829,0.00178619,0.0176202,1840,1464,23.1404,-15.441
623,-440,23.1531,14.958,0.0015855,0.000681312,-0.000787136,0.00204114,0.000225677,-0.524723,0.00129212,0.0135193,1847,1464,23.1531,-14.958
630,-440,23.1123,14.4471,0.00141069,0.000157679,-0.000454846,0.00155839,9.97877e-06,-0.313983,0.00103562,0.0114714,1854,1464,23.1123,-14.4472
637,-440,23.0968,14.0093,0.00124822,-0.000169439,-0.000162528,0.00126661,-0.000187834,-0.112698,0.000913479,0.015762,1861,1464,23.0968,-14.0093
644,-440,23.0933,13.5554,0.00118141,-0.000365398,8.608e-05,0.00118618,-0.000370174,0.0554221,0.00093883,0.0144836,1868,1464,23.0932,-13.5554
651,-440,23.1156,13.0084,0.00121204,-0.000377485,0.000210182,0.00123936,-0.000404807,0.12927,0.000989183,0.0187557,1875,1464,23.1156,-13.0085
658,-440,22.9325,12.63,0.00136604,-0.000318535,0.000278345,0.00141084,-0.000363335,0.159583,0.0010822,0.0463045,1882,1464,22.9324,-12.63
665,-440,22.8313,12.004,0,0,0,0,0,0,0,-1,1889,1464,22.8313,-12.004
672,-440,18.9385,9.6394,0,0,0,0,0,0,0,-1,1896,1464,18.9384,-9.63939
679,-440,16.9508,10.2336,0,0,0,0,0,0,0,-1,1903,1464,16.9508,-10.2337
686,-440,15.2556,8.44177,0,0,0,0,0,0,0,-1,1910,1464,15.2556,-8.44177
693,-440,9.88635,2.89795,0,0,0,0,0,0,0,-1,1917,1464,9.88638,-2.89798
700,-440,7.07825,-2.62061,0,0,0,0,0,0,0,-1,1924,1464,7.07829,2.62057
707,-440,0,0,0,0,0,0,0,0,0,-1,1931,1464,0,0
714,-440,0,0,0,0,0,0,0,0,0,-1,1938,1464,0,0
721,-440,0,0,0,0,0,0,0,0,0,-1,1945,1464,0,0
728,-440,0,0,0,0,0,0,0,0,0,-1,1952,1464,0,0
735,-440,0,0,0,0,0,0,0,0,0,-1,1959,1464,0,0
742,-440,0,0,0,0,0,0,0,0,0,-1,1966,1464,0,0
749,-440,0,0,0,0,0,0,0,0,0,-1,1973,1464,0,0
756,-440,0,0,0,0,0,0,0,0,0,-1,1980,1464,0,0
763,-440,0,0,0,0,0,0,0,0,0,-1,1987,1464,0,0
770,-440,0,0,0,0,0,0,0,0,0,-1,1994,1464,0,0
777,-440,0,0,0,0,0,0,0,0,0,-1,2001,1464,0,0
784,-440,0,0,0,0,0,0,0,0,0,-1,2008,1464,0,0
791,-440,0,0,0,0,0,0,0,0,0,-1,2015,1464,0,0
798,-440,0,0,0,0,0,0,0,0,0,-1,2022,1464,0,0
805,-440,0,0,0,0,0,0,0,0,0,-1,2029,1464,0,0
812,-440,0,0,0,0,0,0,0,0,0,-1,2036,1464,0,0
-700,-447,0,0,0,0,0,0,0,0,0,-1,524,1471,0,0
-693,-447,0,0,0,0,0,0,0,0,0,-1,531,1471,0,0
-686,-447,0,0,0,0,0,0,0,0,0,-1,538,1471,0,0
-679,-447,0,0,0,0,0,0,0,0,0,-1,545,1471,0,0
-672,-447,0,0,0,0,0,0,0,0,0,-1,552,1471,0,0
-665,-447,0,0,0,0,0,0,0,0,0,-1,559,1471,0,0
-658,-447,0,0,0,0,0,0,0,0,0,-1,566,1471,0,0
-651,-447,0,0,0,0,0,0,0,0,0,-1,573,1471,0,0
-644,-447,0,0,0,0,0,0,0,0,0,-1,580,1471,0,0
-637,-447,0,0,0,0,0,0,0,0,0,-1,587,1471,0,0
-630,-447,0,0,0,0,0,0,0,0,0,-1,594,1471,0,0
-623,-447,0,0,0,0,0,0,0,0,0,-1,601,1471,0,0
-616,-447,0,0,0,0,0,0,0,0,0,-1,608,1471,0,0
-609,-447,0,0,0,0,0,0,0,0,0,-1,615,1471,0,0
-602,-447,0,0,0,0,0,0,0,0,0,-1,622,1471,0,0
-595,-447,0,0,0,0,0,0,0,0,0,-1,629,1471,0,0
-588,-447,0,0,0,0,0,0,0,0,0,-1,636,1471,0,0
-581,-447,-7.06482,-1.50476,0,0,0,0,0,0,0,-1,643,1471,-7.0648,1.50474
-574,-447,-6.88092,-0.00585938,0,0,0,0,0,0,0,-1,650,1471,-6.88095,0.00589852
-567,-447,-6.8205,-1.32178,0,0,0,0,0,0,0,-1,657,1471,-6.82047,1.32172
-560,-447,-8.85748,2.80774,0,0,0,0,0,0,0,-1,664,1471,-8.85748,-2.80775
-553,-447,-7.60486,3.26794,0,0,0,0,0,0,0,-1,671,1471,-7.60487,-3.26799
-546,-447,-3.94501,1.8656,0,0,0,0,0,0,0,-1,678,1471,-3.945,-1.86554
-539,-447,-5.35492,4.50024,0,0,0,0,0,0,0,-1,685,1471,-5.35492,-4.50018
-532,-447,-6.12781,8.81091,0,0,0,0,0,0,0,-1,692,1471,-6.12781,-8.81094
-525,-447,-7.91888,10.6069,0,0,0,0,0,0,0,-1,699,1471,-7.91888,-10.6069
-518,-447,-8.10309,11.1118,0,0,0,0,0,0,0,-1,706,1471,-8.10309,-11.1118
-511,-447,-8.0722,11.7136,-0.00162971,-0.000572579,0.000939057,-2.35487e-05,-0.00217874,1.04173,0.0014447,0.0203535,713,1471,-8.07219,-11.7136
-504,-447,-8.06714,12.3295,-0.000796475,-0.000273061,0.00101942,0.000517709,-0.00158725,0.911045,0.00126651,0.0197689,720,1471,-8.06712,-12.3295
-497,-447,-8.1178,12.8538,0.000155523,0.000247368,0.00129713,0.00149939,-0.0010965,0.803092,0.00150474,0.0239115,727,1471,-8.11781,-12.8538
-490,-447,-8.06122,13.2943,0.00135474,0.00108884,0.00189121,0.00311767,-0.00067409,0.750308,0.00233579,0.0237915,734,1471,-8.0612,-13.2944
-483,-447,-8.11658,13.7814,0.00283894,0.00218838,0.00277216,0.00530484,-0.000277523,0.726996,0.0036326,0.0219539,741,1471,-8.11658,-13.7814
-476,-447,-8.12006,14.3314,0.00457787,0.00352441,0.00393952,0.00802573,7.65626e-05,0.71894,0.00532515,0.01411,748,1471,-8.12004,-14.3314
-469,-447,-8.15027,14.8792,0.0065837,0.00502203,0.00542741,0.0112862,0.000319569,0.713954,0.00741988,0.0128205,755,1471,-8.15028,-14.8792
-462,-447,-8.1958,15.4093,0.00895006,0.00679912,0.00724306,0.0151971,0.000552122,0.711695,0.00995243,0.0132571,762,1471,-8.19581,-15.4093
-455,-447,-8.23499,15.9375,0.0118209,0.00885644,0.00949789,0.0199515,0.000725799,0.707994,0.0130658,0.0197024,769,1471,-8.23497,-15.9376
-448,-447,-8.02753,16.6332,0.0152658,0.0112845,0.0124635,0.0258966,0.000653669,0.706208,0.0170507,0.0444306,776,1471,-8.02751,-16.6331
-441,-447,-7.69379,17.5197,0,0,0,0,0,0,0,-1,783,1471,-7.69378,-17.5197
-434,-447,-7.43402,15.6273,0,0,0,0,0,0,0,-1,790,1471,-7.43404,-15.6274
-427,-447,-7.21832,14.691,0,0,0,0,0,0,0,-1,797,1471,-7.21834,-14.6911
-420,-447,-8.0545,12.8055,0,0,0,0,0,0,0,-1,804,1471,-8.05452,-12.8055
-413,-447,-4.27393,6.59705,0,0,0,0,0,0,0,-1,811,1471,-4.27392,-6.59707
-406,-447,-1.04279,6.18591,0,0,0,0,0,0,0,-1,818,1471,-1.04276,-6.18586
-399,-447,0.0134888,0.687622,0,0,0,0,0,0,0,-1,825,1471,0.0134841,-0.68767
-392,-447,-14.0646,3.76147,0,0,0,0,0,0,0,-1,832,1471,-14.0646,-3.7615
-385,-447,-15.1695,2.61865,0,0,0,0,0,0,0,-1,839,1471,-15.1695,-2.61871
-378,-447,-15.9424,1.49316,0,0,0,0,0,0,0,-1,846,1471,-15.9424,-1.49313
-371,-447,-17.3655,0.73291,0,0,0,0,0,0,0,-1,853,1471,-17.3655,-0.732946
-364,-447,0,0,0,0,0,0,0,0,0,-1,860,1471,0,0
-357,-447,0,0,0,0,0,0,0,0,0,-1,867,1471,0,0
-350,-447,0,0,0,0,0,0,0,0,0,-1,874,1471,0,0
-343,-447,0,0,0,0,0,0,0,0,0,-1,881,1471,0,0
-336,-447,0,0,0,0,0,0,0,0,0,-1,888,1471,0,0
-329,-447,0,0,0,0,0,0,0,0,0,-1,895,1471,0,0
-322,-447,0,0,0,0,0,0,0,0,0,-1,902,1471,0,0
-315,-447,0,0,0,0,0,0,0,0,0,-1,909,1471,0,0
-308,-447,0,0,0,0,0,0,0,0,0,-1,916,1471,0,0
-301,-447,0,0,0,0,0,0,0,0,0,-1,923,1471,0,0
-294,-447,0,0,0,0,0,0,0,0,0,-1,930,1471,0,0
-287,-447,0,0,0,0,0,0,0,0,0,-1,937,1471,0,0
-280,-447,0,0,0,0,0,0,0,0,0,-1,944,1471,0,0
-273,-447,0,0,0,0,0,0,0,0,0,-1,951,1471,0,0
-266,-447,0,0,0,0,0,0,0,0,0,-1,958,1471,0,0
-259,-447,0,0,0,0,0,0,0,0,0,-1,965,1471,0,0
-252,-447,0,0,0,0,0,0,0,0,0,-1,972,1471,0,0
-245,-447,0,0,0,0,0,0,0,0,0,-1,979,1471,0,0
-238,-447,0,0,0,0,0,0,0,0,0,-1,986,1471,0,0
-231,-447,0,0,0,0,0,0,0,0,0,-1,993,1471,0,0
-224,-447,0,0,0,0,0,0,0,0,0,-1,1000,1471,0,0
-217,-447,0,0,0,0,0,0,0,0,0,-1,1007,1471,0,0
-210,-447,0,0,0,0,0,0,0,0,0,-1,1014,1471,0,0
-203,-447,0,0,0,0,0,0,0,0,0,-1,1021,1471,0,0
-196,-447,0,0,0,0,0,0,0,0,0,-1,1028,1471,0,0
-189,-447,0,0,0,0,0,0,0,0,0,-1,1035,1471,0,0
-182,-447,0,0,0,0,0,0,0,0,0,-1,1042,1471,0,0
-175,-447,0,0,0,0,0,0,0,0,0,-1,1049,1471,0,0
-168,-447,0,0,0,0,0,0,0,0,0,-1,1056,1471,0,0
-161,-447,0,0,0,0,0,0,0,0,0,-1,1063,1471,0,0
-154,-447,0,0,0,0,0,0,0,0,0,-1,1070,1471,0,0
-147,-447,0,0,0,0,0,0,0,0,0,-1,1077,1471,0,0
-140,-447,0,0,0,0,0,0,0,0,0,-1,1084,1471,0,0
-133,-447,0,0,0,0,0,0,0,0,0,-1,1091,1471,0,0
-126,-447,0,0,0,0,0,0,0,0,0,-1,1098,1471,0,0
-119,-447,0,0,0,0,0,0,0,0,0,-1,1105,1471,0,0
-112,-447,0,0,0,0,0,0,0,0,0,-1,1112,1471,0,0
-105,-447,0,0,0,0,0,0,0,0,0,-1,1119,1471,0,0
-98,-447,0,0,0,0,0,0,0,0,0,-1,1126,1471,0,0
-91,-447,0,0,0,0,0,0,0,0,0,-1,1133,1471,0,0
-84,-447,0,0,0,0,0,0,0,0,0,-1,1140,1471,0,0
-77,-447,0,0,0,0,0,0,0,0,0,-1,1147,1471,0,0
-70,-447,0,0,0,0,0,0,0,0,0,-1,1154,1471,0,0
-63,-447,0,0,0,0,0,0,0,0,0,-1,1161,1471,0,0
-56,-447,0,0,0,0,0,0,0,0,0,-1,1168,1471,0,0
-49,-447,0,0,0,0,0,0,0,0,0,-1,1175,1471,0,0
-42,-447,0,0,0,0,0,0,0,0,0,-1,1182,1471,0,0
-35,-447,0,0,0,0,0,0,0,0,0,-1,1189,1471,0,0
-28,-447,0,0,0,0,0,0,0,0,0,-1,1196,1471,0,0
-21,-447,0,0,0,0,0,0,0,0,0,-1,1203,1471,0,0
-14,-447,0,0,0,0,0,0,0,0,0,-1,1210,1471,0,0
-7,-447,0,0,0,0,0,0,0,0,0,-1,1217,1471,0,0
0,-447,0,0,0,0,0,0,0,0,0,-1,1224,1471,0,0
7,-447,0,0,0,0,0,0,0,0,0,-1,1231,1471,0,0
14,-447,0,0,0,0,0,0,0,0,0,-1,1238,1471,0,0
21,-447,0,0,0,0,0,0,0,0,0,-1,1245,1471,0,0
28,-447,0,0,0,0,0,0,0,0,0,-1,1252,1471,0,0
35,-447,0,0,0,0,0,0,0,0,0,-1,1259,1471,0,0
42,-447,0,0,0,0,0,0,0,0,0,-1,1266,1471,0,0
49,-447,0,0,0,0,0,0,0,0,0,-1,1273,1471,0,0
56,-447,0,0,0,0,0,0,0,0,0,-1,1280,1471,0,0
63,-447,0,0,0,0,0,0,0,0,0,-1,1287,1471,0,0
70,-447,0,0,0,0,0,0,0,0,0,-1,1294,1471,0,0
77,-447,0,0,0,0,0,0,0,0,0,-1,1301,1471,0,0
84,-447,0,0,0,0,0,0,0,0,0,-1,1308,1471,0,0
91,-447,0,0,0,0,0,0,0,0,0,-1,1315,1471,0,0
98,-447,0,0,0,0,0,0,0,0,0,-1,1322,1471,0,0
105,-447,0,0,0,0,0,0,0,0,0,-1,1329,1471,0,0
112,-447,0,0,0,0,0,0,0,0,0,-1,1336,1471,0,0
119,-447,0,0,0,0,0,0,0,0,0,-1,1343,1471,0,0
126,-447,0,0,0,0,0,0,0,0,0,-1,1350,1471,0,0
133,-447,0,0,0,0,0,0,0,0,0,-1,1357,1471,0,0
140,-447,0,0,0,0,0,0,0,0,0,-1,1364,1471,0,0
147,-447,0,0,0,0,0,0,0,0,0,-1,1371,1471,0,0
154,-447,0,0,0,0,0,0,0,0,0,-1,1378,1471,0,0
161,-447,0,0,0,0,0,0,0,0,0,-1,1385,1471,0,0
168,-447,0,0,0,0,0,0,0,0,0,-1,1392,1471,0,0
175,-447,0,0,0,0,0,0,0,0,0,-1,1399,1471,0,0
182,-447,0,0,0,0,0,0,0,0,0,-1,1406,1471,0,0
189,-447,0,0,0,0,0,0,0,0,0,-1,1413,1471,0,0
196,-447,0,0,0,0,0,0,0,0,0,-1,1420,1471,0,0
203,-447,0,0,0,0,0,0,0,0,0,-1,1427,1471,0,0
210,-447,0,0,0,0,0,0,0,0,0,-1,1434,1471,0,0
217,-447,0,0,0,0,0,0,0,0,0,-1,1441,1471,0,0
224,-447,0,0,0,0,0,0,0,0,0,-1,1448,1471,0,0
231,-447,0,0,0,0,0,0,0,0,0,-1,1455,1471,0,0
238,-447,0,0,0,0,0,0,0,0,0,-1,1462,1471,0,0
245,-447,0,0,0,0,0,0,0,0,0,-1,1469,1471,0,0
252,-447,0,0,0,0,0,0,0,0,0,-1,1476,1471,0,0
259,-447,0,0,0,0,0,0,0,0,0,-1,1483,1471,0,0
266,-447,0,0,0,0,0,0,0,0,0,-1,1490,1471,0,0
273,-447,0,0,0,0,0,0,0,0,0,-1,1497,1471,0,0
280,-447,0,0,0,0,0,0,0,0,0,-1,1504,1471,0,0
287,-447,0,0,0,0,0,0,0,0,0,-1,1511,1471,0,0
294,-447,0,0,0,0,0,0,0,0,0,-1,1518,1471,0,0
301,-447,0,0,0,0,0,0,0,0,0,-1,1525,1471,0,0
308,-447,0,0,0,0,0,0,0,0,0,-1,1532,1471,0,0
315,-447,0,0,0,0,0,0,0,0,0,-1,1539,1471,0,0
322,-447,0,0,0,0,0,0,0,0,0,-1,1546,1471,0,0
329,-447,0,0,0,0,0,0,0,0,0,-1,1553,1471,0,0
336,-447,0,0,0,0,0,0,0,0,0,-1,1560,1471,0,0
343,-447,0,0,0,0,0,0,0,0,0,-1,1567,1471,0,0
350,-447,0,0,0,0,0,0,0,0,0,-1,1574,1471,0,0
357,-447,0,0,0,0,0,0,0,0,0,-1,1581,1471,0,0
364,-447,0,0,0,0,0,0,0,0,0,-1,1588,1471,0,0
371,-447,0,0,0,0,0,0,0,0,0,-1,1595,1471,0,0
378,-447,0,0,0,0,0,0,0,0,0,-1,1602,1471,0,0
385,-447,0,0,0,0,0,0,0,0,0,-1,1609,1471,0,0
392,-447,0,0,0,0,0,0,0,0,0,-1,1616,1471,0,0
399,-447,0,0,0,0,0,0,0,0,0,-1,1623,1471,0,0
406,-447,0,0,0,0,0,0,0,0,0,-1,1630,1471,0,0
413,-447,0,0,0,0,0,0,0,0,0,-1,1637,1471,0,0
420,-447,0,0,0,0,0,0,0,0,0,-1,1644,1471,0,0
427,-447,0,0,0,0,0,0,0,0,0,-1,1651,1471,0,0
434,-447,0,0,0,0,0,0,0,0,0,-1,1658,1471,0,0
441,-447,0,0,0,0,0,0,0,0,0,-1,1665,1471,0,0
448,-447,0,0,0,0,0,0,0,0,0,-1,1672,1471,0,0
455,-447,0,0,0,0,0,0,0,0,0,-1,1679,1471,0,0
462,-447,0,0,0,0,0,0,0,0,0,-1,1686,1471,0,0
469,-447,0,0,0,0,0,0,0,0,0,-1,1693,1471,0,0
476,-447,0,0,0,0,0,0,0,0,0,-1,1700,1471,0,0
483,-447,0,0,0,0,0,0,0,0,0,-1,1707,1471,0,0
490,-447,18.2214,-0.810303,0,0,0,0,0,0,0,-1,1714,1471,18.2215,0.810307
497,-447,17.0237,0.352417,0,0,0,0,0,0,0,-1,1721,1471,17.0237,-0.352442
504,-447,15.8998,1.53479,0,0,0,0,0,0,0,-1,1728,1471,15.8997,-1.53478
511,-447,14.7201,2.76111,0,0,0,0,0,0,0,-1,1735,1471,14.7201,-2.76107
518,-447,17.7618,13.2864,0,0,0,0,0,0,0,-1,1742,1471,17.7619,-13.2863
525,-447,17.1191,11.9014,0,0,0,0,0,0,0,-1,1749,1471,17.1191,-11.9013
532,-447,16.3959,10.0455,0,0,0,0,0,0,0,-1,1756,1471,16.3959,-10.0456
539,-447,14.1699,10.0204,0,0,0,0,0,0,0,-1,1763,1471,14.1699,-10.0204
546,-447,16.3715,11.8046,0,0,0,0,0,0,0,-1,1770,1471,16.3714,-11.8046
553,-447,17.5106,13.4012,0,0,0,0,0,0,0,-1,1777,1471,17.5107,-13.4012
560,-447,17.0187,13.168,0,0,0,0,0,0,0,-1,1784,1471,17.0187,-13.168
567,-447,18.9286,15.1703,0,0,0,0,0,0,0,-1,1791,1471,18.9286,-15.1703
574,-447,22.2887,18.7145,0,0,0,0,0,0,0,-1,1798,1471,22.2887,-18.7145
581,-447,22.6122,18.1055,0.00498342,0.00498172,-0.00363714,0.00861971,0.00134543,-0.785282,0.00535464,0.0393735,1805,1471,22.6122,-18.1055
588,-447,22.6875,17.4205,0.00406,0.00396642,-0.00306194,0.00707551,0.000950906,-0.777758,0.00443415,0.0218814,1812,1471,22.6875,-17.4206
595,-447,22.6826,16.9053,0.00323944,0.00306005,-0.00250401,0.00565536,0.00064413,-0.767495,0.00357492,0.0133956,1819,1471,22.6826,-16.9053
602,-447,22.6904,16.3958,0.00267159,0.00221391,-0.00195116,0.00440728,0.000478216,-0.727022,0.00279246,0.011851,1826,1471,22.6905,-16.3958
609,-447,22.6727,15.9116,0.0022004,0.00146127,-0.0014291,0.00330695,0.000354721,-0.658871,0.00209642,0.0130508,1833,1471,22.6728,-15.9116
616,-447,22.6605,15.4274,0.00182668,0.000864011,-0.00100291,0.00245778,0.000232906,-0.561665,0.00156667,0.0149518,1840,1471,22.6605,-15.4274
623,-447,22.6754,14.9762,0.00161549,0.00032914,-0.000614912,0.00186214,8.24889e-05,-0.381469,0.00121486,0.0169296,1847,1471,22.6755,-14.9762
630,-447,22.657,14.4866,0.00149377,-0.000166737,-0.000294239,0.00154437,-0.000217334,-0.170293,0.00110915,0.00988789,1854,1471,22.657,-14.4865
637,-447,22.6425,14.0116,0.00138008,-0.000440125,-3.10752e-05,0.00138061,-0.000440655,-0.0170658,0.00109719,0.00996384,1861,1471,22.6425,-14.0115
644,-447,22.635,13.5311,0.00133059,-0.00059489,0.000180278,0.00134733,-0.000611623,0.0925553,0.00115728,0.0112727,1868,1471,22.635,-13.5311
651,-447,22.673,13.0005,0.00136831,-0.000560563,0.00027906,0.00140787,-0.000600124,0.140829,0.00119017,0.0462892,1875,1471,22.673,-13.0005
658,-447,22.851,12.3738,0,0,0,0,0,0,0,-1,1882,1471,22.851,-12.3738
665,-447,18.4946,9.79919,0,0,0,0,0,0,0,-1,1889,1471,18.4946,-9.79922
672,-447,18.9784,9.66077,0,0,0,0,0,0,0,-1,1896,1471,18.9784,-9.66081
679,-447,14.844,7.4248,0,0,0,0,0,0,0,-1,1903,1471,14.844,-7.42477
686,-447,9.81079,4.30859,0,0,0,0,0,0,0,-1,1910,1471,9.8108,-4.30864
693,-447,10.48,2.08643,0,0,0,0,0,0,0,-1,1917,1471,10.48,-2.08642
700,-447,0,0,0,0,0,0,0,0,0,-1,1924,1471,0,0
707,-447,0,0,0,0,0,0,0,0,0,-1,1931,1471,0,0
714,-447,0,0,0,0,0,0,0,0,0,-1,1938,1471,0,0
721,-447,0,0,0,0,0,0,0,0,0,-1,1945,1471,0,0
728,-447,0,0,0,0,0,0,0,0,0,-1,1952,1471,0,0
735,-447,0,0,0,0,0,0,0,0,0,-1,1959,1471,0,0
742,-447,0,0,0,0,0,0,0,0,0,-1,1966,1471,0,0
749,-447,0,0,0,0,0,0,0,0,0,-1,1973,1471,0,0
756,-447,0,0,0,0,0,0,0,0,0,-1,1980,1471,0,0
763,-447,0,0,0,0,0,0,0,0,0,-1,1987,1471,0,0
770,-447,0,0,0,0,0,0,0,0,0,-1,1994,1471,0,0
777,-447,0,0,0,0,0,0,0,0,0,-1,2001,1471,0,0
784,-447,0,0,0,0,0,0,0,0,0,-1,2008,1471,0,0
791,-447,0,0,0,0,0,0,0,0,0,-1,2015,1471,0,0
798,-447,0,0,0,0,0,0,0,0,0,-1,2022,1471,0,0
805,-447,0,0,0,0,0,0,0,0,0,-1,2029,1471,0,0
812,-447,0,0,0,0,0,0,0,0,0,-1,2036,1471,0,0
-700,-454,0,0,0,0,0,0,0,0,0,-1,524,1478,0,0
-693,-454,0,0,0,0,0,0,0,0,0,-1,531,1478,0,0
-686,-454,0,0,0,0,0,0,0,0,0,-1,538,1478,0,0
-679,-454,0,0,0,0,0,0,0,0,0,-1,545,1478,0,0
-672,-454,0,0,0,0,0,0,0,0,0,-1,552,1478,0,0
-665,-454,0,0,0,0,0,0,0,0,0,-1,559,1478,0,0
-658,-454,0,0,0,0,0,0,0,0,0,-1,566,1478,0,0
-651,-454,0,0,0,0,0,0,0,0,0,-1,573,1478,0,0
-644,-454,0,0,0,0,0,0,0,0,0,-1,580,1478,0,0
-637,-454,0,0,0,0,0,0,0,0,0,-1,587,1478,0,0
-630,-454,0,0,0,0,0,0,0,0,0,-1,594,1478,0,0
-623,-454,0,0,0,0,0,0,0,0,0,-1,601,1478,0,0
-616,-454,0,0,0,0,0,0,0,0,0,-1,608,1478,0,0
-609,-454,0,0,0,0,0,0,0,0,0,-1,615,1478,0,0
-602,-454,0,0,0,0,0,0,0,0,0,-1,622,1478,0,0
-595,-454,0,0,0,0,0,0,0,0,0,-1,629,1478,0,0
-588,-454,0,0,0,0,0,0,0,0,0,-1,636,1478,0,0
-581,-454,0,0,0,0,0,0,0,0,0,-1,643,1478,0,0
-574,-454,-8.4881,-0.465942,0,0,0,0,0,0,0,-1,650,1478,-8.4881,0.465885
-567,-454,-8.10046,0.922974,0,0,0,0,0,0,0,-1,657,1478,-8.10047,-0.923034
-560,-454,-10.656,3.51172,0,0,0,0,0,0,0,-1,664,1478,-10.656,-3.51176
-553,-454,-9.01129,3.95251,0,0,0,0,0,0,0,-1,671,1478,-9.0113,-3.95256
-546,-454,-9.61896,6.05237,0,0,0,0,0,0,0,-1,678,1478,-9.61897,-6.05239
-539,-454,-7.72589,4.96533,0,0,0,0,0,0,0,-1,685,1478,-7.72592,-4.96532
-532,-454,-7.03931,7.59985,0,0,0,0,0,0,0,-1,692,1478,-7.03929,-7.59981
-525,-454,-5.78723,9.677,0,0,0,0,0,0,0,-1,699,1478,-5.78722,-9.67703
-518,-454,-7.46826,11.2026,0,0,0,0,0,0,0,-1,706,1478,-7.46824,-11.2026
-511,-454,-7.63904,11.6722,-0.0025353,-0.000974361,0.00106386,-0.000435387,-0.00307428,1.10187,0.00192091,0.0404209,713,1478,-7.63903,-11.6722
-504,-454,-7.57825,12.2816,-0.00174658,-0.000779015,0.000914299,-0.000228397,-0.0022972,1.02874,0.0014613,0.0172709,720,1478,-7.57826,-12.2816
-497,-454,-7.56793,12.8517,-0.000897726,-0.000390738,0.000950903,0.000339879,-0.00162834,0.91566,0.00121481,0.0191163,727,1478,-7.56794,-12.8517
-490,-454,-7.57855,13.3679,0.000206781,0.000286773,0.00131581,0.00156319,-0.00106964,0.800592,0.00152894,0.0175077,734,1478,-7.57854,-13.3679
-483,-454,-7.62366,13.8699,0.00160496,0.00124806,0.00201422,0.00344862,-0.000595602,0.741215,0.00252118,0.0160011,741,1478,-7.62368,-13.8699
-476,-454,-7.63611,14.3744,0.00322428,0.00241336,0.00298803,0.00583423,-0.000196593,0.717963,0.00395664,0.0136227,748,1478,-7.63609,-14.3744
-469,-454,-7.64606,14.8879,0.00506679,0.00370888,0.00425944,0.00870105,7.46269e-05,0.706363,0.00577598,0.0101927,755,1478,-7.64607,-14.888
-462,-454,-7.69366,15.4144,0.00718157,0.00521035,0.0057904,0.0120696,0.000322273,0.701099,0.00794119,0.011106,762,1478,-7.69367,-15.4144
-455,-454,-7.71826,15.9254,0.00967024,0.006897,0.00766684,0.0160748,0.0004924,0.695936,0.0105563,0.0120638,769,1478,-7.71828,-15.9254
-448,-454,-7.68939,16.4675,0.0125886,0.0088997,0.0101217,0.0210325,0.000455795,0.695274,0.0138722,0.0186673,776,1478,-7.6894,-16.4675
-441,-454,-7.36926,17.3195,0.0158897,0.0108457,0.0127752,0.0263895,0.000345877,0.687944,0.0174788,0.0482703,783,1478,-7.36928,-17.3195
-434,-454,-6.87598,18.2319,0,0,0,0,0,0,0,-1,790,1478,-6.87599,-18.232
-427,-454,-6.00183,15.8636,0,0,0,0,0,0,0,-1,797,1478,-6.00184,-15.8637
-420,-454,-6.28088,15.2135,0,0,0,0,0,0,0,-1,804,1478,-6.28087,-15.2135
-413,-454,-5.4408,13.674,0,0,0,0,0,0,0,-1,811,1478,-5.44079,-13.6739
-406,-454,-2.38208,10.0308,0,0,0,0,0,0,0,-1,818,1478,-2.38209,-10.0308
-399,-454,-1.21033,6.95447,0,0,0,0,0,0,0,-1,825,1478,-1.21035,-6.95452
-392,-454,0.0967407,0.985474,0,0,0,0,0,0,0,-1,832,1478,0.0967364,-0.985529
-385,-454,2.38629,3.297,0,0,0,0,0,0,0,-1,839,1478,2.38629,-3.29702
-378,-454,-15.9756,2.83997,0,0,0,0,0,0,0,-1,846,1478,-15.9756,-2.83994
-371,-454,-17.2753,2.01453,0,0,0,0,0,0,0,-1,853,1478,-17.2753,-2.01455
-364,-454,1.08124,0.819458,0,0,0,0,0,0,0,-1,860,1478,1.08124,-0.819513
-357,-454,0,0,0,0,0,0,0,0,0,-1,867,1478,0,0
-350,-454,0,0,0,0,0,0,0,0,0,-1,874,1478,0,0
-343,-454,0,0,0,0,0,0,0,0,0,-1,881,1478,0,0
-336,-454,0,0,0,0,0,0,0,0,0,-1,888,1478,0,0
-329,-454,0,0,0,0,0,0,0,0,0,-1,895,1478,0,0
-322,-454,0,0,0,0,0,0,0,0,0,-1,902,1478,0,0
-315,-454,0,0,0,0,0,0,0,0,0,-1,909,1478,0,0
-308,-454,0,0,0,0,0,0,0,0,0,-1,916,1478,0,0
-301,-454,0,0,0,0,0,0,0,0,0,-1,923,1478,0,0
-294,-454,0,0,0,0,0,0,0,0,0,-1,930,1478,0,0
-287,-454,0,0,0,0,0,0,0,0,0,-1,937,1478,0,0
-280,-454,0,0,0,0,0,0,0,0,0,-1,944,1478,0,0
-273,-454,0,0,0,0,0,0,0,0,0,-1,951,1478,0,0
-266,-454,0,0,0,0,0,0,0,0,0,-1,958,1478,0,0
-259,-454,0,0,0,0,0,0,0,0,0,-1,965,1478,0,0
-252,-454,0,0,0,0,0,0,0,0,0,-1,972,1478,0,0
-245,-454,0,0,0,0,0,0,0,0,0,-1,979,1478,0,0
-238,-454,0,0,0,0,0,0,0,0,0,-1,986,1478,0,0
-231,-454,0,0,0,0,0,0,0,0,0,-1,993,1478,0,0
-224,-454,0,0,0,0,0,0,0,0,0,-1,1000,1478,0,0
-217,-454,0,0,0,0,0,0,0,0,0,-1,1007,1478,0,0
-210,-454,0,0,0,0,0,0,0,0,0,-1,1014,1478,0,0
-203,-454,0,0,0,0,0,0,0,0,0,-1,1021,1478,0,0
-196,-454,0,0,0,0,0,0,0,0,0,-1,1028,1478,0,0
-189,-454,0,0,0,0,0,0,0,0,0,-1,1035,1478,0,0
-182,-454,0,0,0,0,0,0,0,0,0,-1,1042,1478,0,0
-175,-454,0,0,0,0,0,0,0,0,0,-1,1049,1478,0,0
-168,-454,0,0,0,0,0,0,0,0,0,-1,1056,1478,0,0
-161,-454,0,0,0,0,0,0,0,0,0,-1,1063,1478,0,0
-154,-454,0,0,0,0,0,0,0,0,0,-1,1070,1478,0,0
-147,-454,0,0,0,0,0,0,0,0,0,-1,1077,1478,0,0
-140,-454,0,0,0,0,0,0,0,0,0,-1,1084,1478,0,0
-133,-454,0,0,0,0,0,0,0,0,0,-1,1091,1478,0,0
-126,-454,0,0,0,0,0,0,0,0,0,-1,1098,1478,0,0
-119,-454,0,0,0,0,0,0,0,0,0,-1,1105,1478,0,0
-112,-454,0,0,0,0,0,0,0,0,0,-1,1112,1478,0,0
-105,-454,0,0,0,0,0,0,0,0,0,-1,1119,1478,0,0
-98,-454,0,0,0,0,0,0,0,0,0,-1,1126,1478,0,0
-91,-454,0,0,0,0,0,0,0,0,0,-1,1133,1478,0,0
-84,-454,0,0,0,0,0,0,0,0,0,-1,1140,1478,0,0
-77,-454,0,0,0,0,0,0,0,0,0,-1,1147,1478,0,0
-70,-454,0,0,0,0,0,0,0,0,0,-1,1154,1478,0,0
-63,-454,0,0,0,0,0,0,0,0,0,-1,1161,1478,0,0
-56,-454,0,0,0,0,0,0,0,0,0,-1,1168,1478,0,0
-49,-454,0,0,0,0,0,0,0,0,0,-1,1175,1478,0,0
-42,-454,0,0,0,0,0,0,0,0,0,-1,1182,1478,0,0
-35,-454,0,0,0,0,0,0,0,0,0,-1,1189,1478,0,0
-28,-454,0,0,0,0,0,0,0,0,0,-1,1196,1478,0,0
-21,-454,0,0,0,0,0,0,0,0,0,-1,1203,1478,0,0
-14,-454,0,0,0,0,0,0,0,0,0,-1,1210,1478,0,0
-7,-454,0,0,0,0,0,0,0,0,0,-1,1217,1478,0,0
0,-454,0,0,0,0,0,0,0,0,0,-1,1224,1478,0,0
7,-454,0,0,0,0,0,0,0,0,0,-1,1231,1478,0,0
14,-454,0,0,0,0,0,0,0,0,0,-1,1238,1478,0,0
21,-454,0,0,0,0,0,0,0,0,0,-1,1245,1478,0,0
28,-454,0,0,0,0,0,0,0,0,0,-1,1252,1478,0,0
35,-454,0,0,0,0,0,0,0,0,0,-1,1259,1478,0,0
42,-454,0,0,0,0,0,0,0,0,0,-1,1266,1478,0,0
49,-454,0,0,0,0,0,0,0,0,0,-1,1273,1478,0,0
56,-454,0,0,0,0,0,0,0,0,0,-1,1280,1478,0,0
63,-454,0,0,0,0,0,0,0,0,0,-1,1287,1478,0,0
70,-454,0,0,0,0,0,0,0,0,0,-1,1294,1478,0,0
77,-454,0,0,0,0,0,0,0,0,0,-1,1301,1478,0,0
84,-454,0,0,0,0,0,0,0,0,0,-1,1308,1478,0,0
91,-454,0,0,0,0,0,0,0,0,0,-1,1315,1478,0,0
98,-454,0,0,0,0,0,0,0,0,0,-1,1322,1478,0,0
105,-454,0,0,0,0,0,0,0,0,0,-1,1329,1478,0,0
112,-454,0,0,0,0,0,0,0,0,0,-1,1336,1478,0,0
119,-454,0,0,0,0,0,0,0,0,0,-1,1343,1478,0,0
126,-454,0,0,0,0,0,0,0,0,0,-1,1350,1478,0,0
133,-454,0,0,0,0,0,0,0,0,0,-1,1357,1478,0,0
140,-454,0,0,0,0,0,0,0,0,0,-1,1364,1478,0,0
147,-454,0,0,0,0,0,0,0,0,0,-1,1371,1478,0,0
154,-454,0,0,0,0,0,0,0,0,0,-1,1378,1478,0,0
161,-454,0,0,0,0,0,0,0,0,0,-1,1385,1478,0,0
168,-454,0,0,0,0,0,0,0,0,0,-1,1392,1478,0,0
175,-454,0,0,0,0,0,0,0,0,0,-1,1399,1478,0,0
182,-454,0,0,0,0,0,0,0,0,0,-1,1406,1478,0,0
189,-454,0,0,0,0,0,0,0,0,0,-1,1413,1478,0,0
196,-454,0,0,0,0,0,0,0,0,0,-1,1420,1478,0,0
203,-454,0,0,0,0,0,0,0,0,0,-1,1427,1478,0,0
210,-454,0,0,0,0,0,0,0,0,0,-1,1434,1478,0,0
217,-454,0,0,0,0,0,0,0,0,0,-1,1441,1478,0,0
224,-454,0,0,0,0,0,0,0,0,0,-1,1448,1478,0,0
231,-454,0,0,0,0,0,0,0,0,0,-1,1455,1478,0,0
238,-454,0,0,0,0,0,0,0,0,0,-1,1462,1478,0,0
245,-454,0,0,0,0,0,0,0,0,0,-1,1469,1478,0,0
252,-454,0,0,0,0,0,0,0,0,0,-1,1476,1478,0,0
259,-454,0,0,0,0,0,0,0,0,0,-1,1483,1478,0,0
266,-454,0,0,0,0,0,0,0,0,0,-1,1490,1478,0,0
273,-454,0,0,0,0,0,0,0,0,0,-1,1497,1478,0,0
280,-454,0,0,0,0,0,0,0,0,0,-1,1504,1478,0,0
287,-454,0,0,0,0,0,0,0,0,0,-1,1511,1478,0,0
294,-454,0,0,0,0,0,0,0,0,0,-1,1518,1478,0,0
301,-454,0,0,0,0,0,0,0,0,0,-1,1525,1478,0,0
308,-454,0,0,0,0,0,0,0,0,0,-1,1532,1478,0,0
315,-454,0,0,0,0,0,0,0,0,0,-1,1539,1478,0,0
322,-454,0,0,0,0,0,0,0,0,0,-1,1546,1478,0,0
329,-454,0,0,0,0,0,0,0,0,0,-1,1553,1478,0,0
336,-454,0,0,0,0,0,0,0,0,0,-1,1560,1478,0,0
343,-454,0,0,0,0,0,0,0,0,0,-1,1567,1478,0,0
350,-454,0,0,0,0,0,0,0,0,0,-1,1574,1478,0,0
357,-454,0,0,0,0,0,0,0,0,0,-1,1581,1478,0,0
364,-454,0,0,0,0,0,0,0,0,0,-1,1588,1478,0,0
371,-454,0,0,0,0,0,0,0,0,0,-1,1595,1478,0,0
378,-454,0,0,0,0,0,0,0,0,0,-1,1602,1478,0,0
385,-454,0,0,0,0,0,0,0,0,0,-1,1609,1478,0,0
392,-454,0,0,0,0,0,0,0,0,0,-1,1616,1478,0,0
399,-454,0,0,0,0,0,0,0,0,0,-1,1623,1478,0,0
406,-454,0,0,0,0,0,0,0,0,0,-1,1630,1478,0,0
413,-454,0,0,0,0,0,0,0,0,0,-1,1637,1478,0,0
420,-454,0,0,0,0,0,0,0,0,0,-1,1644,1478,0,0
427,-454,0,0,0,0,0,0,0,0,0,-1,1651,1478,0,0
434,-454,0,0,0,0,0,0,0,0,0,-1,1658,1478,0,0
441,-454,0,0,0,0,0,0,0,0,0,-1,1665,1478,0,0
448,-454,0,0,0,0,0,0,0,0,0,-1,1672,1478,0,0
455,-454,0,0,0,0,0,0,0,0,0,-1,1679,1478,0,0
462,-454,0,0,0,0,0,0,0,0,0,-1,1686,1478,0,0
469,-454,0,0,0,0,0,0,0,0,0,-1,1693,1478,0,0
476,-454,0,0,0,0,0,0,0,0,0,-1,1700,1478,0,0
483,-454,14.2399,3.97498,0,0,0,0,0,0,0,-1,1707,1478,14.2399,-3.97502
490,-454,18.1821,-0.175781,0,0,0,0,0,0,0,-1,1714,1478,18.1821,0.175822
497,-454,16.8854,1.01208,0,0,0,0,0,0,0,-1,1721,1478,16.8854,-1.01209
504,-454,15.587,2.05994,0,0,0,0,0,0,0,-1,1728,1478,15.5871,-2.05998
511,-454,17.0273,14.5258,0,0,0,0,0,0,0,-1,1735,1478,17.0273,-14.5258
518,-454,16.4158,13.1039,0,0,0,0,0,0,0,-1,1742,1478,16.4157,-13.1038
525,-454,15.7842,11.6628,0,0,0,0,0,0,0,-1,1749,1478,15.7841,-11.6629
532,-454,15.1094,10.2476,0,0,0,0,0,0,0,-1,1756,1478,15.1094,-10.2475
539,-454,13.7905,10.9373,0,0,0,0,0,0,0,-1,1763,1478,13.7906,-10.9372
546,-454,16.2002,13.2458,0,0,0,0,0,0,0,-1,1770,1478,16.2002,-13.2459
553,-454,15.6747,12.1868,0,0,0,0,0,0,0,-1,1777,1478,15.6747,-12.1868
560,-454,16.3895,14.0527,0,0,0,0,0,0,0,-1,1784,1478,16.3895,-14.0528
567,-454,22.3336,19.0491,0,0,0,0,0,0,0,-1,1791,1478,22.3337,-19.049
574,-454,22.2375,18.4032,0.00433525,0.00486607,-0.00308944,0.00770148,0.00149984,-0.828248,0.00471458,0.0343243,1798,1478,22.2376,-18.4032
581,-454,22.2241,17.8794,0.0036777,0.00411793,-0.00274999,0.00665661,0.00113903,-0.825334,0.004111,0.0213794,1805,1478,22.2241,-17.8794
588,-454,22.24,17.3785,0.00313536,0.00324593,-0.00235577,0.00554706,0.000834226,-0.797131,0.00345372,0.0137328,1812,1478,22.24,-17.3785
595,-454,22.2004,16.9104,0.00272245,0.00241547,-0.00196213,0.00453709,0.000600837,-0.746364,0.00284567,0.0126904,1819,1478,22.2005,-16.9104
602,-454,22.1995,16.4211,0.00246978,0.00162415,-0.00157143,0.00367429,0.000419645,-0.653979,0.00232232,0.00959004,1826,1478,22.1994,-16.4211
609,-454,22.2028,15.9423,0.00228739,0.00088622,-0.00116588,0.00294699,0.000226621,-0.514855,0.00189365,0.0113699,1833,1478,22.2028,-15.9423
616,-454,22.2046,15.4561,0.00219343,0.000288176,-0.000832928,0.00250621,-2.46088e-05,-0.35923,0.00167907,0.0146013,1840,1478,22.2046,-15.456
623,-454,22.2162,14.9758,0.00222192,-0.000273141,-0.000502457,0.0023193,-0.000370526,-0.191442,0.00168336,0.0145459,1847,1478,22.2162,-14.9758
630,-454,22.212,14.5024,0.00228983,-0.000777462,-0.000207686,0.00230383,-0.000791461,-0.0673004,0.00185681,0.013602,1854,1478,22.2121,-14.5025
637,-454,22.1459,14.0414,0.00235392,-0.00101985,-2.8322e-06,0.00235392,-0.00101985,-0.000839478,0.00199796,0.0110763,1861,1478,22.1459,-14.0414
644,-454,22.2194,13.5447,0.00245986,-0.00116222,0.000120164,0.00246384,-0.0011662,0.0331269,0.00213998,0.0220399,1868,1478,22.2193,-13.5447
651,-454,22.3158,12.8666,0,0,0,0,0,0,0,-1,1875,1478,22.3158,-12.8666
658,-454,17.2583,10.0765,0,0,0,0,0,0,0,-1,1882,1478,17.2583,-10.0765
665,-454,17.683,9.67566,0,0,0,0,0,0,0,-1,1889,1478,17.683,-9.67572
672,-454,16.5476,6.41931,0,0,0,0,0,0,0,-1,1896,1478,16.5476,-6.41929
679,-454,14.2161,5.45007,0,0,0,0,0,0,0,-1,1903,1478,14.2161,-5.45013
686,-454,10.3767,2.12842,0,0,0,0,0,0,0,-1,1910,1478,10.3767,-2.12839
693,-454,11.1857,1.48486,0,0,0,0,0,0,0,-1,1917,1478,11.1857,-1.48487
700,-454,0,0,0,0,0,0,0,0,0,-1,1924,1478,0,0
707,-454,0,0,0,0,0,0,0,0,0,-1,1931,1478,0,0
714,-454,0,0,0,0,0,0,0,0,0,-1,1938,1478,0,0
721,-454,0,0,0,0,0,0,0,0,0,-1,1945,1478,0,0
728,-454,0,0,0,0,0,0,0,0,0,-1,1952,1478,0,0
735,-454,0,0,0,0,0,0,0,0,0,-1,1959,1478,0,0
742,-454,0,0,0,0,0,0,0,0,0,-1,1966,1478,0,0
749,-454,0,0,0,0,0,0,0,0,0,-1,1973,1478,0,0
756,-454,0,0,0,0,0,0,0,0,0,-1,1980,1478,0,0
763,-454,0,0,0,0,0,0,0,0,0,-1,1987,1478,0,0
770,-454,0,0,0,0,0,0,0,0,0,-1,1994,1478,0,0
777,-454,0,0,0,0,0,0,0,0,0,-1,2001,1478,0,0
784,-454,0,0,0,0,0,0,0,0,0,-1,2008,1478,0,0
791,-454,0,0,0,0,0,0,0,0,0,-1,2015,1478,0,0
798,-454,0,0,0,0,0,0,0,0,0,-1,2022,1478,0,0
805,-454,0,0,0,0,0,0,0,0,0,-1,2029,1478,0,0
812,-454,0,0,0,0,0,0,0,0,0,-1,2036,1478,0,0
-700,-461,0,0,0,0,0,0,0,0,0,-1,524,1485,0,0
-693,-461,0,0,0,0,0,0,0,0,0,-1,531,1485,0,0
-686,-461,0,0,0,0,0,0,0,0,0,-1,538,1485,0,0
-679,-461,0,0,0,0,0,0,0,0,0,-1,545,1485,0,0
-672,-461,0,0,0,0,0,0,0,0,0,-1,552,1485,0,0
-665,-461,0,0,0,0,0,0,0,0,0,-1,559,1485,0,0
-658,-461,0,0,0,0,0,0,0,0,0,-1,566,1485,0,0
-651,-461,0,0,0,0,0,0,0,0,0,-1,573,1485,0,0
-644,-461,0,0,0,0,0,0,0,0,0,-1,580,1485,0,0
-637,-461,0,0,0,0,0,0,0,0,0,-1,587,1485,0,0
-630,-461,0,0,0,0,0,0,0,0,0,-1,594,1485,0,0
-623,-461,0,0,0,0,0,0,0,0,0,-1,601,1485,0,0
-616,-461,0,0,0,0,0,0,0,0,0,-1,608,1485,0,0
-609,-461,0,0,0,0,0,0,0,0,0,-1,615,1485,0,0
-602,-461,0,0,0,0,0,0,0,0,0,-1,622,1485,0,0
-595,-461,0,0,0,0,0,0,0,0,0,-1,629,1485,0,0
-588,-461,0,0,0,0,0,0,0,0,0,-1,636,1485,0,0
-581,-461,0,0,0,0,0,0,0,0,0,-1,643,1485,0,0
-574,-461,0,0,0,0,0,0,0,0,0,-1,650,1485,0,0
-567,-461,-9.69031,0.513306,0,0,0,0,0,0,0,-1,657,1485,-9.69032,-0.513305
-560,-461,-7.28815,1.54004,0,0,0,0,0,0,0,-1,664,1485,-7.28817,-1.54005
-553,-461,-11.9607,5.27783,0,0,0,0,0,0,0,-1,671,1485,-11.9607,-5.27778
-546,-461,-11.4215,4.44666,0,0,0,0,0,0,0,-1,678,1485,-11.4215,-4.4467
-539,-461,-9.36493,5.23438,0,0,0,0,0,0,0,-1,685,1485,-9.3649,-5.23432
-532,-461,-7.82898,6.78357,0,0,0,0,0,0,0,-1,692,1485,-7.829,-6.78363
-525,-461,-6.37878,8.75659,0,0,0,0,0,0,0,-1,699,1485,-6.3788,-8.75659
-518,-461,-6.49695,10.886,0,0,0,0,0,0,0,-1,706,1485,-6.49696,-10.8859
-511,-461,-7.21936,11.7847,0,0,0,0,0,0,0,-1,713,1485,-7.21934,-11.7847
-504,-461,-7.11316,12.2482,-0.00325942,-0.00110985,0.000738529,-0.000880565,-0.0034887,1.26978,0.0020949,0.0249273,720,1485,-7.11315,-12.2481
-497,-461,-7.04523,12.863,-0.00248077,-0.000863464,0.000507791,-0.000717249,-0.00262698,1.29044,0.00156791,0.0117722,727,1485,-7.0452,-12.8631
-490,-461,-7.0827,13.3784,-0.00142261,-0.000367277,0.000639935,-6.55176e-05,-0.00172437,1.13017,0.00112838,0.0128082,734,1485,-7.08267,-13.3784
-483,-461,-7.11523,13.8889,-3.19156e-05,0.000450763,0.00118243,0.00141623,-0.000997387,0.886067,0.00140048,0.0125884,741,1485,-7.11525,-13.8889
-476,-461,-7.14569,14.4076,0.00156194,0.00143788,0.00199645,0.00349733,-0.000497504,0.769868,0.00251385,0.0109881,748,1485,-7.14572,-14.4076
-469,-461,-7.15765,14.9136,0.00335577,0.00253004,0.00309714,0.00606744,-0.000181639,0.719136,0.00410685,0.0123378,755,1485,-7.15764,-14.9135
-462,-461,-7.17059,15.4368,0.00535398,0.00376911,0.00441115,0.00904331,7.97785e-05,0.696524,0.00600245,0.0187423,762,1485,-7.17059,-15.4368
-455,-461,-7.17334,15.9449,0.00760891,0.00512419,0.0059894,0.0124834,0.000249661,0.683135,0.00824033,0.0232025,769,1485,-7.17337,-15.945
-448,-461,-7.16687,16.49,0.0101909,0.00673966,0.00802012,0.0166689,0.000261602,0.679434,0.0110264,0.0191223,776,1485,-7.16688,-16.49
-441,-461,-7.09851,17.0608,0.0130692,0.00838909,0.0102888,0.0212807,0.000177589,0.673581,0.0141283,0.0244158,783,1485,-7.09851,-17.0608
-434,-461,-7.02246,17.623,0,0,0,0,0,0,0,-1,790,1485,-7.02245,-17.6231
-427,-461,-6.71289,18.2535,0,0,0,0,0,0,0,-1,797,1485,-6.7129,-18.2535
-420,-461,-5.70355,16.6116,0,0,0,0,0,0,0,-1,804,1485,-5.70353,-16.6115
-413,-461,-5.98798,16.0605,0,0,0,0,0,0,0,-1,811,1485,-5.98796,-16.0605
-406,-461,-5.52667,14.839,0,0,0,0,0,0,0,-1,818,1485,-5.52666,-14.839
-399,-461,-1.93439,9.82849,0,0,0,0,0,0,0,-1,825,1485,-1.9344,-9.82846
-392,-461,-0.357544,5.55225,0,0,0,0,0,0,0,-1,832,1485,-0.357536,-5.55228
-385,-461,1.71509,3.35254,0,0,0,0,0,0,0,-1,839,1485,1.71511,-3.35255
-378,-461,1.95996,3.01111,0,0,0,0,0,0,0,-1,846,1485,1.95993,-3.01111
-371,-461,0.702881,2.33459,0,0,0,0,0,0,0,-1,853,1485,0.702859,-2.33459
-364,-461,-1.93097,2.56458,0,0,0,0,0,0,0,-1,860,1485,-1.93095,-2.56456
-357,-461,-2.41516,3.49487,0,0,0,0,0,0,0,-1,867,1485,-2.41517,-3.49487
-350,-461,0,0,0,0,0,0,0,0,0,-1,874,1485,0,0
-343,-461,0,0,0,0,0,0,0,0,0,-1,881,1485,0,0
-336,-461,0,0,0,0,0,0,0,0,0,-1,888,1485,0,0
-329,-461,0,0,0,0,0,0,0,0,0,-1,895,1485,0,0
-322,-461,0,0,0,0,0,0,0,0,0,-1,902,1485,0,0
-315,-461,0,0,0,0,0,0,0,0,0,-1,909,1485,0,0
-308,-461,0,0,0,0,0,0,0,0,0,-1,916,1485,0,0
-301,-461,0,0,0,0,0,0,0,0,0,-1,923,1485,0,0
-294,-461,0,0,0,0,0,0,0,0,0,-1,930,1485,0,0
-287,-461,0,0,0,0,0,0,0,0,0,-1,937,1485,0,0
-280,-461,0,0,0,0,0,0,0,0,0,-1,944,1485,0,0
-273,-461,0,0,0,0,0,0,0,0,0,-1,951,1485,0,0
-266,-461,0,0,0,0,0,0,0,0,0,-1,958,1485,0,0
-259,-461,0,0,0,0,0,0,0,0,0,-1,965,1485,0,0
-252,-461,0,0,0,0,0,0,0,0,0,-1,972,1485,0,0
-245,-461,0,0,0,0,0,0,0,0,0,-1,979,1485,0,0
-238,-461,0,0,0,0,0,0,0,0,0,-1,986,1485,0,0
-231,-461,0,0,0,0,0,0,0,0,0,-1,993,1485,0,0
-224,-461,0,0,0,0,0,0,0,0,0,-1,1000,1485,0,0
-217,-461,0,0,0,0,0,0,0,0,0,-1,1007,1485,0,0
-210,-461,0,0,0,0,0,0,0,0,0,-1,1014,1485,0,0
-203,-461,0,0,0,0,0,0,0,0,0,-1,1021,1485,0,0
-196,-461,0,0,0,0,0,0,0,0,0,-1,1028,1485,0,0
-189,-461,0,0,0,0,0,0,0,0,0,-1,1035,1485,0,0
-182,-461,0,0,0,0,0,0,0,0,0,-1,1042,1485,0,0
-175,-461,0,0,0,0,0,0,0,0,0,-1,1049,1485,0,0
-168,-461,0,0,0,0,0,0,0,0,0,-1,1056,1485,0,0
-161,-461,0,0,0,0,0,0,0,0,0,-1,1063,1485,0,0
-154,-461,0,0,0,0,0,0,0,0,0,-1,1070,1485,0,0
-147,-461,0,0,0,0,0,0,0,0,0,-1,1077,1485,0,0
-140,-461,0,0,0,0,0,0,0,0,0,-1,1084,1485,0,0
-133,-461,0,0,0,0,0,0,0,0,0,-1,1091,1485,0,0
-126,-461,0,0,0,0,0,0,0,0,0,-1,1098,1485,0,0
-119,-461,0,0,0,0,0,0,0,0,0,-1,1105,1485,0,0
-112,-461,0,0,0,0,0,0,0,0,0,-1,1112,1485,0,0
-105,-461,0,0,0,0,0,0,0,0,0,-1,1119,1485,0,0
-98,-461,0,0,0,0,0,0,0,0,0,-1,1126,1485,0,0
-91,-461,0,0,0,0,0,0,0,0,0,-1,1133,1485,0,0
-84,-461,0,0,0,0,0,0,0,0,0,-1,1140,1485,0,0
-77,-461,0,0,0,0,0,0,0,0,0,-1,1147,1485,0,0
-70,-461,0,0,0,0,0,0,0,0,0,-1,1154,1485,0,0
-63,-461,0,0,0,0,0,0,0,0,0,-1,1161,1485,0,0
-56,-461,0,0,0,0,0,0,0,0,0,-1,1168,1485,0,0
-49,-461,0,0,0,0,0,0,0,0,0,-1,1175,1485,0,0
-42,-461,0,0,0,0,0,0,0,0,0,-1,1182,1485,0,0
-35,-461,0,0,0,0,0,0,0,0,0,-1,1189,1485,0,0
-28,-461,0,0,0,0,0,0,0,0,0,-1,1196,1485,0,0
-21,-461,0,0,0,0,0,0,0,0,0,-1,1203,1485,0,0
-14,-461,0,0,0,0,0,0,0,0,0,-1,1210,1485,0,0
-7,-461,0,0,0,0,0,0,0,0,0,-1,1217,1485,0,0
0,-461,0,0,0,0,0,0,0,0,0,-1,1224,1485,0,0
7,-461,0,0,0,0,0,0,0,0,0,-1,1231,1485,0,0
14,-461,0,0,0,0,0,0,0,0,0,-1,1238,1485,0,0
21,-461,0,0,0,0,0,0,0,0,0,-1,1245,1485,0,0
28,-461,0,0,0,0,0,0,0,0,0,-1,1252,1485,0,0
35,-461,0,0,0,0,0,0,0,0,0,-1,1259,1485,0,0
42,-461,0,0,0,0,0,0,0,0,0,-1,1266,1485,0,0
49,-461,0,0,0,0,0,0,0,0,0,-1,1273,1485,0,0
56,-461,0,0,0,0,0,0,0,0,0,-1,1280,1485,0,0
63,-461,0,0,0,0,0,0,0,0,0,-1,1287,1485,0,0
70,-461,0,0,0,0,0,0,0,0,0,-1,1294,1485,0,0
77,-461,0,0,0,0,0,0,0,0,0,-1,1301,1485,0,0
84,-461,0,0,0,0,0,0,0,0,0,-1,1308,1485,0,0
91,-461,0,0,0,0,0,0,0,0,0,-1,1315,1485,0,0
98,-461,0,0,0,0,0,0,0,0,0,-1,1322,1485,0,0
105,-461,0,0,0,0,0,0,0,0,0,-1,1329,1485,0,0
112,-461,0,0,0,0,0,0,0,0,0,-1,1336,1485,0,0
119,-461,0,0,0,0,0,0,0,0,0,-1,1343,1485,0,0
126,-461,0,0,0,0,0,0,0,0,0,-1,1350,1485,0,0
133,-461,0,0,0,0,0,0,0,0,0,-1,1357,1485,0,0
140,-461,0,0,0,0,0,0,0,0,0,-1,1364,1485,0,0
147,-461,0,0,0,0,0,0,0,0,0,-1,1371,1485,0,0
154,-461,0,0,0,0,0,0,0,0,0,-1,1378,1485,0,0
161,-461,0,0,0,0,0,0,0,0,0,-1,1385,1485,0,0
168,-461,0,0,0,0,0,0,0,0,0,-1,1392,1485,0,0
175,-461,0,0,0,0,0,0,0,0,0,-1,1399,1485,0,0
182,-461,0,0,0,0,0,0,0,0,0,-1,1406,1485,0,0
189,-461,0,0,0,0,0,0,0,0,0,-1,1413,1485,0,0
196,-461,0,0,0,0,0,0,0,0,0,-1,1420,1485,0,0
203,-461,0,0,0,0,0,0,0,0,0,-1,1427,1485,0,0
210,-461,0,0,0,0,0,0,0,0,0,-1,1434,1485,0,0
217,-461,0,0,0,0,0,0,0,0,0,-1,1441,1485,0,0
224,-461,0,0,0,0,0,0,0,0,0,-1,1448,1485,0,0
231,-461,0,0,0,0,0,0,0,0,0,-1,1455,1485,0,0
238,-461,0,0,0,0,0,0,0,0,0,-1,1462,1485,0,0
245,-461,0,0,0,0,0,0,0,0,0,-1,1469,1485,0,0
252,-461,0,0,0,0,0,0,0,0,0,-1,1476,1485,0,0
259,-461,0,0,0,0,0,0,0,0,0,-1,1483,1485,0,0
266,-461,0,0,0,0,0,0,0,0,0,-1,1490,1485,0,0
273,-461,0,0,0,0,0,0,0,0,0,-1,1497,1485,0,0
280,-461,0,0,0,0,0,0,0,0,0,-1,1504,1485,0,0
287,-461,0,0,0,0,0,0,0,0,0,-1,1511,1485,0,0
294,-461,0,0,0,0,0,0,0,0,0,-1,1518,1485,0,0
301,-461,0,0,0,0,0,0,0,0,0,-1,1525,1485,0,0
308,-461,0,0,0,0,0,0,0,0,0,-1,1532,1485,0,0
315,-461,0,0,0,0,0,0,0,0,0,-1,1539,1485,0,0
322,-461,0,0,0,0,0,0,0,0,0,-1,1546,1485,0,0
329,-461,0,0,0,0,0,0,0,0,0,-1,1553,1485,0,0
336,-461,0,0,0,0,0,0,0,0,0,-1,1560,1485,0,0
343,-461,0,0,0,0,0,0,0,0,0,-1,1567,1485,0,0
350,-461,0,0,0,0,0,0,0,0,0,-1,1574,1485,0,0
357,-461,0,0,0,0,0,0,0,0,0,-1,1581,1485,0,0
364,-461,0,0,0,0,0,0,0,0,0,-1,1588,1485,0,0
371,-461,0,0,0,0,0,0,0,0,0,-1,1595,1485,0,0
378,-461,0,0,0,0,0,0,0,0,0,-1,1602,1485,0,0
385,-461,0,0,0,0,0,0,0,0,0,-1,1609,1485,0,0
392,-461,0,0,0,0,0,0,0,0,0,-1,1616,1485,0,0
399,-461,0,0,0,0,0,0,0,0,0,-1,1623,1485,0,0
406,-461,0,0,0,0,0,0,0,0,0,-1,1630,1485,0,0
413,-461,0,0,0,0,0,0,0,0,0,-1,1637,1485,0,0
420,-461,0,0,0,0,0,0,0,0,0,-1,1644,1485,0,0
427,-461,0,0,0,0,0,0,0,0,0,-1,1651,1485,0,0
434,-461,0,0,0,0,0,0,0,0,0,-1,1658,1485,0,0
441,-461,0,0,0,0,0,0,0,0,0,-1,1665,1485,0,0
448,-461,0,0,0,0,0,0,0,0,0,-1,1672,1485,0,0
455,-461,0,0,0,0,0,0,0,0,0,-1,1679,1485,0,0
462,-461,0,0,0,0,0,0,0,0,0,-1,1686,1485,0,0
469,-461,0,0,0,0,0,0,0,0,0,-1,1693,1485,0,0
476,-461,14.1906,0.690552,0,0,0,0,0,0,0,-1,1700,1485,14.1906,-0.690525
483,-461,10.6361,3.09106,0,0,0,0,0,0,0,-1,1707,1485,10.6361,-3.091
490,-461,17.9972,0.665894,0,0,0,0,0,0,0,-1,1714,1485,17.9972,-0.665876
497,-461,16.6829,1.87732,0,0,0,0,0,0,0,-1,1721,1485,16.6828,-1.87736
504,-461,15.3884,3.09216,0,0,0,0,0,0,0,-1,1728,1485,15.3885,-3.09212
511,-461,15.4292,14.3512,0,0,0,0,0,0,0,-1,1735,1485,15.4292,-14.3512
518,-461,14.8081,10.0085,0,0,0,0,0,0,0,-1,1742,1485,14.8081,-10.0086
525,-461,14.0022,10.8033,0,0,0,0,0,0,0,-1,1749,1485,14.0022,-10.8033
532,-461,17.1704,14.077,0,0,0,0,0,0,0,-1,1756,1485,17.1704,-14.077
539,-461,17.0229,14.7386,0,0,0,0,0,0,0,-1,1763,1485,17.0229,-14.7387
546,-461,16.2106,14.1372,0,0,0,0,0,0,0,-1,1770,1485,16.2106,-14.1372
553,-461,21.2849,19.7461,0,0,0,0,0,0,0,-1,1777,1485,21.2849,-19.7461
560,-461,21.7756,19.314,0,0,0,0,0,0,0,-1,1784,1485,21.7756,-19.314
567,-461,21.7938,18.7316,0.00436322,0.00438909,-0.00253487,0.00691106,0.00184125,-0.787949,0.00413268,0.0314394,1791,1485,21.7938,-18.7316
574,-461,21.8085,18.3274,0.00363372,0.00376613,-0.0023431,0.00604396,0.00135589,-0.799523,0.00366199,0.0262395,1798,1485,21.8085,-18.3274
581,-461,21.8116,17.8491,0.00313745,0.00311947,-0.00211225,0.00524073,0.00101619,-0.78327,0.00320917,0.017644,1805,1485,21.8117,-17.8491
588,-461,21.778,17.3995,0.0027798,0.00237379,-0.00183046,0.00441847,0.000735109,-0.730172,0.00273376,0.0115287,1812,1485,21.778,-17.3995
595,-461,21.7365,16.9308,0.00259768,0.00164801,-0.00154788,0.00374192,0.00050377,-0.636574,0.0023448,0.0090845,1819,1485,21.7364,-16.9308
602,-461,21.7341,16.4338,0.00252759,0.000938111,-0.00127378,0.00323423,0.000231479,-0.506485,0.00208328,0.00962404,1826,1485,21.7341,-16.4338
609,-461,21.7375,15.9464,0.00251687,0.000251819,-0.000957623,0.00286747,-9.87794e-05,-0.350957,0.00194541,0.0121049,1833,1485,21.7375,-15.9464
616,-461,21.7329,15.4723,0.00260256,-0.00031813,-0.000693462,0.00275884,-0.000474416,-0.221668,0.00201606,0.0147653,1840,1485,21.7329,-15.4723
623,-461,21.7255,15.0044,0.00279673,-0.000876519,-0.00040864,0.00284164,-0.000921431,-0.109465,0.00226494,0.016194,1847,1485,21.7255,-15.0043
630,-461,21.717,14.5454,0.00302611,-0.00135564,-0.000135338,0.00303028,-0.00135981,-0.0308477,0.00259506,0.0154483,1854,1485,21.7171,-14.5454
637,-461,21.6742,14.0745,0.00330433,-0.00152915,1.35714e-05,0.00330437,-0.00152919,0.00280777,0.0028527,0.0144724,1861,1485,21.6742,-14.0744
644,-461,21.7311,13.6663,0.00356385,-0.00165735,0.000128281,0.003567,-0.0016605,0.0245495,0.00308428,0.0299106,1868,1485,21.731,-13.6662
651,-461,21.8337,13.1981,0,0,0,0,0,0,0,-1,1875,1485,21.8337,-13.1981
658,-461,16.8987,10.1084,0,0,0,0,0,0,0,-1,1882,1485,16.8986,-10.1084
665,-461,17.2638,9.81384,0,0,0,0,0,0,0,-1,1889,1485,17.2638,-9.81385
672,-461,14.4877,6.89429,0,0,0,0,0,0,0,-1,1896,1485,14.4876,-6.89431
679,-461,10.0535,2.16321,0,0,0,0,0,0,0,-1,1903,1485,10.0535,-2.16317
686,-461,10.8195,1.84192,0,0,0,0,0,0,0,-1,1910,1485,10.8194,-1.84195
693,-461,0,0,0,0,0,0,0,0,0,-1,1917,1485,0,0
700,-461,0,0,0,0,0,0,0,0,0,-1,1924,1485,0,0
707,-461,0,0,0,0,0,0,0,0,0,-1,1931,1485,0,0
714,-461,0,0,0,0,0,0,0,0,0,-1,1938,1485,0,0
721,-461,0,0,0,0,0,0,0,0,0,-1,1945,1485,0,0
728,-461,0,0,0,0,0,0,0,0,0,-1,1952,1485,0,0
735,-461,0,0,0,0,0,0,0,0,0,-1,1959,1485,0,0
742,-461,0,0,0,0,0,0,0,0,0,-1,1966,1485,0,0
749,-461,0,0,0,0,0,0,0,0,0,-1,1973,1485,0,0
756,-461,0,0,0,0,0,0,0,0,0,-1,1980,1485,0,0
763,-461,0,0,0,0,0,0,0,0,0,-1,1987,1485,0,0
770,-461,0,0,0,0,0,0,0,0,0,-1,1994,1485,0,0
777,-461,0,0,0,0,0,0,0,0,0,-1,2001,1485,0,0
784,-461,0,0,0,0,0,0,0,0,0,-1,2008,1485,0,0
791,-461,0,0,0,0,0,0,0,0,0,-1,2015,1485,0,0
798,-461,0,0,0,0,0,0,0,0,0,-1,2022,1485,0,0
805,-461,0,0,0,0,0,0,0,0,0,-1,2029,1485,0,0
812,-461,0,0,0,0,0,0,0,0,0,-1,2036,1485,0,0
-700,-468,0,0,0,0,0,0,0,0,0,-1,524,1492,0,0
-693,-468,0,0,0,0,0,0,0,0,0,-1,531,1492,0,0
-686,-468,0,0,0,0,0,0,0,0,0,-1,538,1492,0,0
-679,-468,0,0,0,0,0,0,0,0,0,-1,545,1492,0,0
-672,-468,0,0,0,0,0,0,0,0,0,-1,552,1492,0,0
-665,-468,0,0,0,0,0,0,0,0,0,-1,559,1492,0,0
-658,-468,0,0,0,0,0,0,0,0,0,-1,566,1492,0,0
-651,-468,0,0,0,0,0,0,0,0,0,-1,573,1492,0,0
-644,-468,0,0,0,0,0,0,0,0,0,-1,580,1492,0,0
-637,-468,0,0,0,0,0,0,0,0,0,-1,587,1492,0,0
-630,-468,0,0,0,0,0,0,0,0,0,-1,594,1492,0,0
-623,-468,0,0,0,0,0,0,0,0,0,-1,601,1492,0,0
-616,-468,0,0,0,0,0,0,0,0,0,-1,608,1492,0,0
-609,-468,0,0,0,0,0,0,0,0,0,-1,615,1492,0,0
-602,-468,0,0,0,0,0,0,0,0,0,-1,622,1492,0,0
-595,-468,0,0,0,0,0,0,0,0,0,-1,629,1492,0,0
-588,-468,0,0,0,0,0,0,0,0,0,-1,636,1492,0,0
-581,-468,0,0,0,0,0,0,0,0,0,-1,643,1492,0,0
-574,-468,0,0,0,0,0,0,0,0,0,-1,650,1492,0,0
-567,-468,-11.2603,1.8042,0,0,0,0,0,0,0,-1,657,1492,-11.2603,-1.80424
-560,-468,-8.77441,2.23694,0,0,0,0,0,0,0,-1,664,1492,-8.77443,-2.23692
-553,-468,-5.94061,9.26318,0,0,0,0,0,0,0,-1,671,1492,-5.94062,-9.26322
-546,-468,-10.47,5.43237,0,0,0,0,0,0,0,-1,678,1492,-10.47,-5.4324
-539,-468,-10.2468,5.45203,0,0,0,0,0,0,0,-1,685,1492,-10.2468,-5.45197
-532,-468,-8.39795,6.02783,0,0,0,0,0,0,0,-1,692,1492,-8.39793,-6.02789
-525,-468,-6.59332,7.15405,0,0,0,0,0,0,0,-1,699,1492,-6.59331,-7.15411
-518,-468,-6.33588,8.65393,0,0,0,0,0,0,0,-1,706,1492,-6.33588,-8.65397
-511,-468,-6.51929,11.7892,0,0,0,0,0,0,0,-1,713,1492,-6.51929,-11.7892
-504,-468,-6.46338,12.3088,-0.00461493,-0.001547,0.000763436,-0.00136752,-0.0047944,1.3399,0.0028519,0.0379169,720,1492,-6.46339,-12.3088
-497,-468,-6.56775,12.8374,-0.00395495,-0.00148789,0.000188382,-0.00147359,-0.00396925,1.49502,0.00231683,0.0171317,727,1492,-6.56773,-12.8374
-490,-468,-6.55896,13.4025,-0.00298993,-0.00119251,4.1653e-05,-0.00119154,-0.0029909,1.54764,0.00173864,0.00830541,734,1492,-6.55897,-13.4024
-483,-468,-6.58911,13.9136,-0.00163974,-0.000497612,0.00040245,-0.000370049,-0.0017673,1.26385,0.00107627,0.00845563,741,1492,-6.58909,-13.9136
-476,-468,-6.62091,14.4314,-0.000109068,0.000365493,0.00104526,0.00120007,-0.000943642,0.897009,0.00124062,0.00906059,748,1492,-6.62092,-14.4313
-469,-468,-6.62158,14.9447,0.00160082,0.00133849,0.00197292,0.00344693,-0.000507618,0.752206,0.00248451,0.0126801,755,1492,-6.6216,-14.9447
-462,-468,-6.60089,15.4576,0.0034657,0.00242907,0.00309179,0.00608232,-0.000187549,0.70235,0.00411882,0.0229828,762,1492,-6.60092,-15.4576
-455,-468,-6.62274,15.9377,0.00550043,0.00360038,0.00441999,0.00907134,2.94759e-05,0.67954,0.00603776,0.0236448,769,1492,-6.62272,-15.9378
-448,-468,-6.65649,16.4624,0.00777489,0.00499708,0.00609463,0.0126369,0.000135097,0.673367,0.00837991,0.0137937,776,1492,-6.65647,-16.4624
-441,-468,-6.67395,16.9922,0.0102724,0.00650474,0.00803894,0.0166453,0.000131869,0.670305,0.0110532,0.0139671,783,1492,-6.67397,-16.9922
-434,-468,-6.63269,17.563,0.0130105,0.00810267,0.0102715,0.0211171,-3.9665e-06,0.668144,0.0140794,0.0206805,790,1492,-6.6327,-17.563
-427,-468,-6.53027,18.1404,0.015763,0.0101015,0.0126503,0.0258954,-3.0891e-05,0.675328,0.0172739,0.0368187,797,1492,-6.53025,-18.1404
-420,-468,-6.30133,18.6501,0,0,0,0,0,0,0,-1,804,1492,-6.30131,-18.6501
-413,-468,-5.30328,17.3519,0,0,0,0,0,0,0,-1,811,1492,-5.30329,-17.352
-406,-468,-2.2356,9.396,0,0,0,0,0,0,0,-1,818,1492,-2.2356,-9.396
-399,-468,-0.940369,8.1936,0,0,0,0,0,0,0,-1,825,1492,-0.940365,-8.19357
-392,-468,-0.35144,8.14673,0,0,0,0,0,0,0,-1,832,1492,-0.351449,-8.14674
-385,-468,0.465759,5.35864,0,0,0,0,0,0,0,-1,839,1492,0.465732,-5.35864
-378,-468,1.99835,3.25391,0,0,0,0,0,0,0,-1,846,1492,1.99837,-3.2539
-371,-468,-0.31842,3.1532,0,0,0,0,0,0,0,-1,853,1492,-0.318441,-3.15324
-364,-468,-0.966736,2.14563,0,0,0,0,0,0,0,-1,860,1492,-0.966735,-2.14557
-357,-468,-3.06787,3.22742,0,0,0,0,0,0,0,-1,867,1492,-3.06784,-3.2274
-350,-468,-3.18658,4.12659,0,0,0,0,0,0,0,-1,874,1492,-3.18659,-4.12658
-343,-468,0,0,0,0,0,0,0,0,0,-1,881,1492,0,0
-336,-468,0,0,0,0,0,0,0,0,0,-1,888,1492,0,0
-329,-468,0,0,0,0,0,0,0,0,0,-1,895,1492,0,0
-322,-468,0,0,0,0,0,0,0,0,0,-1,902,1492,0,0
-315,-468,0,0,0,0,0,0,0,0,0,-1,909,1492,0,0
-308,-468,0,0,0,0,0,0,0,0,0,-1,916,1492,0,0
-301,-468,0,0,0,0,0,0,0,0,0,-1,923,1492,0,0
-294,-468,0,0,0,0,0,0,0,0,0,-1,930,1492,0,0
-287,-468,0,0,0,0,0,0,0,0,0,-1,937,1492,0,0
-280,-468,0,0,0,0,0,0,0,0,0,-1,944,1492,0,0
-273,-468,0,0,0,0,0,0,0,0,0,-1,951,1492,0,0
-266,-468,0,0,0,0,0,0,0,0,0,-1,958,1492,0,0
-259,-468,0,0,0,0,0,0,0,0,0,-1,965,1492,0,0
-252,-468,0,0,0,0,0,0,0,0,0,-1,972,1492,0,0
-245,-468,0,0,0,0,0,0,0,0,0,-1,979,1492,0,0
-238,-468,0,0,0,0,0,0,0,0,0,-1,986,1492,0,0
-231,-468,0,0,0,0,0,0,0,0,0,-1,993,1492,0,0
-224,-468,0,0,0,0,0,0,0,0,0,-1,1000,1492,0,0
-217,-468,0,0,0,0,0,0,0,0,0,-1,1007,1492,0,0
-210,-468,0,0,0,0,0,0,0,0,0,-1,1014,1492,0,0
-203,-468,0,0,0,0,0,0,0,0,0,-1,1021,1492,0,0
-196,-468,0,0,0,0,0,0,0,0,0,-1,1028,1492,0,0
-189,-468,0,0,0,0,0,0,0,0,0,-1,1035,1492,0,0
-182,-468,0,0,0,0,0,0,0,0,0,-1,1042,1492,0,0
-175,-468,0,0,0,0,0,0,0,0,0,-1,1049,1492,0,0
-168,-468,0,0,0,0,0,0,0,0,0,-1,1056,1492,0,0
-161,-468,0,0,0,0,0,0,0,0,0,-1,1063,1492,0,0
-154,-468,0,0,0,0,0,0,0,0,0,-1,1070,1492,0,0
-147,-468,0,0,0,0,0,0,0,0,0,-1,1077,1492,0,0
-140,-468,0,0,0,0,0,0,0,0,0,-1,1084,1492,0,0
-133,-468,0,0,0,0,0,0,0,0,0,-1,1091,1492,0,0
-126,-468,0,0,0,0,0,0,0,0,0,-1,1098,1492,0,0
-119,-468,0,0,0,0,0,0,0,0,0,-1,1105,1492,0,0
-112,-468,0,0,0,0,0,0,0,0,0,-1,1112,1492,0,0
-105,-468,0,0,0,0,0,0,0,0,0,-1,1119,1492,0,0
-98,-468,0,0,0,0,0,0,0,0,0,-1,1126,1492,0,0
-91,-468,0,0,0,0,0,0,0,0,0,-1,1133,1492,0,0
-84,-468,0,0,0,0,0,0,0,0,0,-1,1140,1492,0,0
-77,-468,0,0,0,0,0,0,0,0,0,-1,1147,1492,0,0
-70,-468,0,0,0,0,0,0,0,0,0,-1,1154,1492,0,0
-63,-468,0,0,0,0,0,0,0,0,0,-1,1161,1492,0,0
-56,-468,0,0,0,0,0,0,0,0,0,-1,1168,1492,0,0
-49,-468,0,0,0,0,0,0,0,0,0,-1,1175,1492,0,0
-42,-468,0,0,0,0,0,0,0,0,0,-1,1182,1492,0,0
-35,-468,0,0,0,0,0,0,0,0,0,-1,1189,1492,0,0
-28,-468,0,0,0,0,0,0,0,0,0,-1,1196,1492,0,0
-21,-468,0,0,0,0,0,0,0,0,0,-1,1203,1492,0,0
-14,-468,0,0,0,0,0,0,0,0,0,-1,1210,1492,0,0
-7,-468,0,0,0,0,0,0,0,0,0,-1,1217,1492,0,0
0,-468,0,0,0,0,0,0,0,0,0,-1,1224,1492,0,0
7,-468,0,0,0,0,0,0,0,0,0,-1,1231,1492,0,0
14,-468,0,0,0,0,0,0,0,0,0,-1,1238,1492,0,0
21,-468,0,0,0,0,0,0,0,0,0,-1,1245,1492,0,0
28,-468,0,0,0,0,0,0,0,0,0,-1,1252,1492,0,0
35,-468,0,0,0,0,0,0,0,0,0,-1,1259,1492,0,0
42,-468,0,0,0,0,0,0,0,0,0,-1,1266,1492,0,0
49,-468,0,0,0,0,0,0,0,0,0,-1,1273,1492,0,0
56,-468,0,0,0,0,0,0,0,0,0,-1,1280,1492,0,0
63,-468,0,0,0,0,0,0,0,0,0,-1,1287,1492,0,0
70,-468,0,0,0,0,0,0,0,0,0,-1,1294,1492,0,0
77,-468,0,0,0,0,0,0,0,0,0,-1,1301,1492,0,0
84,-468,0,0,0,0,0,0,0,0,0,-1,1308,1492,0,0
91,-468,0,0,0,0,0,0,0,0,0,-1,1315,1492,0,0
98,-468,0,0,0,0,0,0,0,0,0,-1,1322,1492,0,0
105,-468,0,0,0,0,0,0,0,0,0,-1,1329,1492,0,0
112,-468,0,0,0,0,0,0,0,0,0,-1,1336,1492,0,0
119,-468,0,0,0,0,0,0,0,0,0,-1,1343,1492,0,0
126,-468,0,0,0,0,0,0,0,0,0,-1,1350,1492,0,0
133,-468,0,0,0,0,0,0,0,0,0,-1,1357,1492,0,0
140,-468,0,0,0,0,0,0,0,0,0,-1,1364,1492,0,0
147,-468,0,0,0,0,0,0,0,0,0,-1,1371,1492,0,0
154,-468,0,0,0,0,0,0,0,0,0,-1,1378,1492,0,0
161,-468,0,0,0,0,0,0,0,0,0,-1,1385,1492,0,0
168,-468,0,0,0,0,0,0,0,0,0,-1,1392,1492,0,0
175,-468,0,0,0,0,0,0,0,0,0,-1,1399,1492,0,0
182,-468,0,0,0,0,0,0,0,0,0,-1,1406,1492,0,0
189,-468,0,0,0,0,0,0,0,0,0,-1,1413,1492,0,0
196,-468,0,0,0,0,0,0,0,0,0,-1,1420,1492,0,0
203,-468,0,0,0,0,0,0,0,0,0,-1,1427,1492,0,0
210,-468,0,0,0,0,0,0,0,0,0,-1,1434,1492,0,0
217,-468,0,0,0,0,0,0,0,0,0,-1,1441,1492,0,0
224,-468,0,0,0,0,0,0,0,0,0,-1,1448,1492,0,0
231,-468,0,0,0,0,0,0,0,0,0,-1,1455,1492,0,0
238,-468,0,0,0,0,0,0,0,0,0,-1,1462,1492,0,0
245,-468,0,0,0,0,0,0,0,0,0,-1,1469,1492,0,0
252,-468,0,0,0,0,0,0,0,0,0,-1,1476,1492,0,0
259,-468,0,0,0,0,0,0,0,0,0,-1,1483,1492,0,0
266,-468,0,0,0,0,0,0,0,0,0,-1,1490,1492,0,0
273,-468,0,0,0,0,0,0,0,0,0,-1,1497,1492,0,0
280,-468,0,0,0,0,0,0,0,0,0,-1,1504,1492,0,0
287,-468,0,0,0,0,0,0,0,0,0,-1,1511,1492,0,0
294,-468,0,0,0,0,0,0,0,0,0,-1,1518,1492,0,0
301,-468,0,0,0,0,0,0,0,0,0,-1,1525,1492,0,0
308,-468,0,0,0,0,0,0,0,0,0,-1,1532,1492,0,0
315,-468,0,0,0,0,0,0,0,0,0,-1,1539,1492,0,0
322,-468,0,0,0,0,0,0,0,0,0,-1,1546,1492,0,0
329,-468,0,0,0,0,0,0,0,0,0,-1,1553,1492,0,0
336,-468,0,0,0,0,0,0,0,0,0,-1,1560,1492,0,0
343,-468,0,0,0,0,0,0,0,0,0,-1,1567,1492,0,0
350,-468,0,0,0,0,0,0,0,0,0,-1,1574,1492,0,0
357,-468,0,0,0,0,0,0,0,0,0,-1,1581,1492,0,0
364,-468,0,0,0,0,0,0,0,0,0,-1,1588,1492,0,0
371,-468,0,0,0,0,0,0,0,0,0,-1,1595,1492,0,0
378,-468,0,0,0,0,0,0,0,0,0,-1,1602,1492,0,0
385,-468,0,0,0,0,0,0,0,0,0,-1,1609,1492,0,0
392,-468,0,0,0,0,0,0,0,0,0,-1,1616,1492,0,0
399,-468,0,0,0,0,0,0,0,0,0,-1,1623,1492,0,0
406,-468,0,0,0,0,0,0,0,0,0,-1,1630,1492,0,0
413,-468,0,0,0,0,0,0,0,0,0,-1,1637,1492,0,0
420,-468,0,0,0,0,0,0,0,0,0,-1,1644,1492,0,0
427,-468,0,0,0,0,0,0,0,0,0,-1,1651,1492,0,0
434,-468,0,0,0,0,0,0,0,0,0,-1,1658,1492,0,0
441,-468,0,0,0,0,0,0,0,0,0,-1,1665,1492,0,0
448,-468,0,0,0,0,0,0,0,0,0,-1,1672,1492,0,0
455,-468,0,0,0,0,0,0,0,0,0,-1,1679,1492,0,0
462,-468,0,0,0,0,0,0,0,0,0,-1,1686,1492,0,0
469,-468,15.6879,1.2677,0,0,0,0,0,0,0,-1,1693,1492,15.6879,-1.26772
476,-468,14.9318,1.61865,0,0,0,0,0,0,0,-1,1700,1492,14.9318,-1.61869
483,-468,11.265,4.64795,0,0,0,0,0,0,0,-1,1707,1492,11.265,-4.64798
490,-468,12.1316,3.51624,0,0,0,0,0,0,0,-1,1714,1492,12.1316,-3.51628
497,-468,16.5355,3.14587,0,0,0,0,0,0,0,-1,1721,1492,16.5356,-3.14583
504,-468,15.0642,4.10437,0,0,0,0,0,0,0,-1,1728,1492,15.0643,-4.10431
511,-468,15.6877,9.4801,0,0,0,0,0,0,0,-1,1735,1492,15.6878,-9.48007
518,-468,13.759,11.0887,0,0,0,0,0,0,0,-1,1742,1492,13.759,-11.0887
525,-468,16.6531,14.2238,0,0,0,0,0,0,0,-1,1749,1492,16.653,-14.2237
532,-468,16.9696,15.9641,0,0,0,0,0,0,0,-1,1756,1492,16.9696,-15.9641
539,-468,21.5308,20.7551,0,0,0,0,0,0,0,-1,1763,1492,21.5308,-20.7551
546,-468,21.1412,20.2661,0,0,0,0,0,0,0,-1,1770,1492,21.1412,-20.2661
553,-468,21.3351,19.7067,0,0,0,0,0,0,0,-1,1777,1492,21.3351,-19.7067
560,-468,21.3164,19.2898,0.00599131,0.00379224,-0.00258056,0.00769682,0.00208673,-0.584004,0.00459634,0.0383606,1784,1492,21.3164,-19.2898
567,-468,21.2965,18.8407,0.00401238,0.00358386,-0.00212783,0.00593671,0.00165953,-0.73522,0.00353688,0.0213475,1791,1492,21.2965,-18.8407
574,-468,21.3302,18.3457,0.00334246,0.00295918,-0.00192652,0.00508685,0.00121479,-0.735823,0.00306756,0.0158275,1798,1492,21.3302,-18.3457
581,-468,21.3281,17.8894,0.00289753,0.00232549,-0.0017187,0.00435385,0.000869178,-0.702946,0.00266059,0.0163432,1805,1492,21.3281,-17.8894
588,-468,21.2904,17.4191,0.0026621,0.00164311,-0.00151395,0.00374999,0.000555216,-0.623084,0.00233701,0.0127154,1812,1492,21.2904,-17.4191
595,-468,21.2762,16.9421,0.00266905,0.000966811,-0.0013096,0.00337981,0.000256055,-0.497243,0.00217289,0.0103368,1819,1492,21.2762,-16.9421
602,-468,21.269,16.4528,0.00278303,0.000289867,-0.00112225,0.00321377,-0.000140876,-0.366481,0.00219098,0.00901993,1826,1492,21.2691,-16.4528
609,-468,21.2579,15.9634,0.00297483,-0.000379709,-0.000884592,0.00319381,-0.000598682,-0.242663,0.00235428,0.010446,1833,1492,21.258,-15.9634
616,-468,21.2427,15.4838,0.0032863,-0.0009665,-0.000674288,0.00339065,-0.00107085,-0.153536,0.00268941,0.0110866,1840,1492,21.2426,-15.4838
623,-468,21.233,15.0243,0.00369905,-0.00156782,-0.000423489,0.00373288,-0.00160165,-0.0797238,0.00316076,0.0115277,1847,1492,21.233,-15.0243
630,-468,21.2361,14.5468,0.00411473,-0.00205633,-0.000157931,0.00411877,-0.00206036,-0.0255698,0.0036329,0.0114628,1854,1492,21.236,-14.5468
637,-468,21.1951,14.0439,0.00457588,-0.00217167,-3.46774e-05,0.00457605,-0.00217185,-0.00513908,0.00397748,0.0145505,1861,1492,21.1951,-14.0439
644,-468,21.2535,13.6348,0.00491873,-0.00230405,0.000114598,0.00492055,-0.00230586,0.0158609,0.00426223,0.0395805,1868,1492,21.2535,-13.6348
651,-468,21.4589,13.1913,0,0,0,0,0,0,0,-1,1875,1492,21.4589,-13.1913
658,-468,16.4969,10.0774,0,0,0,0,0,0,0,-1,1882,1492,16.497,-10.0774
665,-468,15.4673,8.59546,0,0,0,0,0,0,0,-1,1889,1492,15.4672,-8.59548
672,-468,9.96814,3.61133,0,0,0,0,0,0,0,-1,1896,1492,9.96817,-3.61139
679,-468,11.2191,1.91968,0,0,0,0,0,0,0,-1,1903,1492,11.2191,-1.91965
686,-468,11.9252,1.42285,0,0,0,0,0,0,0,-1,1910,1492,11.9252,-1.42291
693,-468,0,0,0,0,0,0,0,0,0,-1,1917,1492,0,0
700,-468,0,0,0,0,0,0,0,0,0,-1,1924,1492,0,0
707,-468,0,0,0,0,0,0,0,0,0,-1,1931,1492,0,0
714,-468,0,0,0,0,0,0,0,0,0,-1,1938,1492,0,0
721,-468,0,0,0,0,0,0,0,0,0,-1,1945,1492,0,0
728,-468,0,0,0,0,0,0,0,0,0,-1,1952,1492,0,0
735,-468,0,0,0,0,0,0,0,0,0,-1,1959,1492,0,0
742,-468,0,0,0,0,0,0,0,0,0,-1,1966,1492,0,0
749,-468,0,0,0,0,0,0,0,0,0,-1,1973,1492,0,0
756,-468,0,0,0,0,0,0,0,0,0,-1,1980,1492,0,0
763,-468,0,0,0,0,0,0,0,0,0,-1,1987,1492,0,0
770,-468,0,0,0,0,0,0,0,0,0,-1,1994,1492,0,0
777,-468,0,0,0,0,0,0,0,0,0,-1,2001,1492,0,0
784,-468,0,0,0,0,0,0,0,0,0,-1,2008,1492,0,0
791,-468,0,0,0,0,0,0,0,0,0,-1,2015,1492,0,0
798,-468,0,0,0,0,0,0,0,0,0,-1,2022,1492,0,0
805,-468,0,0,0,0,0,0,0,0,0,-1,2029,1492,0,0
812,-468,0,0,0,0,0,0,0,0,0,-1,2036,1492,0,0
-700,-475,0,0,0,0,0,0,0,0,0,-1,524,1499,0,0
-693,-475,0,0,0,0,0,0,0,0,0,-1,531,1499,0,0
-686,-475,0,0,0,0,0,0,0,0,0,-1,538,1499,0,0
-679,-475,0,0,0,0,0,0,0,0,0,-1,545,1499,0,0
-672,-475,0,0,0,0,0,0,0,0,0,-1,552,1499,0,0
-665,-475,0,0,0,0,0,0,0,0,0,-1,559,1499,0,0
-658,-475,0,0,0,0,0,0,0,0,0,-1,566,1499,0,0
-651,-475,0,0,0,0,0,0,0,0,0,-1,573,1499,0,0
-644,-475,0,0,0,0,0,0,0,0,0,-1,580,1499,0,0
-637,-475,0,0,0,0,0,0,0,0,0,-1,587,1499,0,0
-630,-475,0,0,0,0,0,0,0,0,0,-1,594,1499,0,0
-623,-475,0,0,0,0,0,0,0,0,0,-1,601,1499,0,0
-616,-475,0,0,0,0,0,0,0,0,0,-1,608,1499,0,0
-609,-475,0,0,0,0,0,0,0,0,0,-1,615,1499,0,0
-602,-475,0,0,0,0,0,0,0,0,0,-1,622,1499,0,0
-595,-475,0,0,0,0,0,0,0,0,0,-1,629,1499,0,0
-588,-475,0,0,0,0,0,0,0,0,0,-1,636,1499,0,0
-581,-475,0,0,0,0,0,0,0,0,0,-1,643,1499,0,0
-574,-475,0,0,0,0,0,0,0,0,0,-1,650,1499,0,0
-567,-475,0,0,0,0,0,0,0,0,0,-1,657,1499,0,0
-560,-475,-9.42731,9.29517,0,0,0,0,0,0,0,-1,664,1499,-9.42731,-9.29519
-553,-475,-8.15131,8.78369,0,0,0,0,0,0,0,-1,671,1499,-8.15131,-8.78367
-546,-475,-8.41254,8.20654,0,0,0,0,0,0,0,-1,678,1499,-8.41251,-8.20655
-539,-475,-4.7345,4.17419,0,0,0,0,0,0,0,-1,685,1499,-4.73449,-4.17418
-532,-475,-7.07379,4.25024,0,0,0,0,0,0,0,-1,692,1499,-7.07378,-4.2503
-525,-475,-6.13147,5.82166,0,0,0,0,0,0,0,-1,699,1499,-6.1315,-5.8216
-518,-475,-7.28784,9.31506,0,0,0,0,0,0,0,-1,706,1499,-7.28782,-9.315
-511,-475,-6.06476,11.5692,0,0,0,0,0,0,0,-1,713,1499,-6.06478,-11.5692
-504,-475,-5.95215,12.4242,-0.00611889,-0.00189311,0.000702609,-0.00177935,-0.00623265,1.41028,0.00370717,0.0455246,720,1499,-5.95215,-12.4242
-497,-475,-6.05975,12.9641,-0.00558509,-0.00203142,-0.000268174,-0.0020113,-0.00560522,-1.4959,0.00327889,0.0325003,727,1499,-6.05974,-12.9641
-490,-475,-6.06396,13.3986,-0.00465906,-0.00193454,-0.000683617,-0.00177264,-0.00482097,-1.33824,0.00281568,0.0114744,734,1499,-6.06395,-13.3986
-483,-475,-6.05811,13.9637,-0.00330784,-0.00135833,-0.000476122,-0.00124826,-0.00341791,-1.34361,0.00199709,0.00850449,741,1499,-6.05808,-13.9637
-476,-475,-6.07697,14.4583,-0.00176844,-0.000606084,4.59022e-05,-0.000604274,-0.00177025,1.53139,0.00103906,0.0102661,748,1499,-6.07694,-14.4582
-469,-475,-6.10297,14.9613,-7.22563e-05,0.00026743,0.000861036,0.000975214,-0.000780041,0.882775,0.00101548,0.0129096,755,1499,-6.10298,-14.9613
-462,-475,-6.07202,15.4712,0.00172229,0.00122918,0.00185834,0.00335036,-0.000398893,0.719447,0.00237772,0.0180435,762,1499,-6.07203,-15.4712
-455,-475,-6.10168,15.9662,0.00360125,0.00224885,0.00302398,0.00602371,-0.000173612,0.675402,0.00407491,0.0158855,769,1499,-6.1017,-15.9662
-448,-475,-6.15833,16.4984,0.00563873,0.0034726,0.00445097,0.00913651,-2.51858e-05,0.666051,0.00609942,0.0136492,776,1499,-6.15831,-16.4984
-441,-475,-6.17389,17.0283,0.00781895,0.00485512,0.00615446,0.0126674,6.67805e-06,0.667253,0.00844271,0.0177486,783,1499,-6.17391,-17.0283
-434,-475,-6.17059,17.5007,0.0101283,0.00638308,0.00811527,0.0165842,-7.28136e-05,0.672006,0.0110805,0.0113358,790,1499,-6.17058,-17.5007
-427,-475,-6.1131,18.0985,0.0123968,0.00838039,0.0102457,0.0208292,-5.20861e-05,0.688624,0.0139036,0.026104,797,1499,-6.11309,-18.0985
-420,-475,-6.00745,18.6605,0.0149157,0.0107751,0.0128471,0.0258582,-0.000167475,0.70551,0.0172949,0.0457175,804,1499,-6.00744,-18.6606
-413,-475,-5.7215,19.3381,0,0,0,0,0,0,0,-1,811,1499,-5.72151,-19.3381
-406,-475,-2.56116,12.4956,0,0,0,0,0,0,0,-1,818,1499,-2.56116,-12.4956
-399,-475,-1.39667,6.1615,0,0,0,0,0,0,0,-1,825,1499,-1.39664,-6.16155
-392,-475,0.217163,8.61389,0,0,0,0,0,0,0,-1,832,1499,0.217167,-8.6139
-385,-475,1.18372,2.73999,0,0,0,0,0,0,0,-1,839,1499,1.18372,-2.73995
-378,-475,1.31409,2.90149,0,0,0,0,0,0,0,-1,846,1499,1.31411,-2.90151
-371,-475,2.3476,3.31116,0,0,0,0,0,0,0,-1,853,1499,2.34761,-3.31121
-364,-475,1.04462,9.05823,0,0,0,0,0,0,0,-1,860,1499,1.04461,-9.05825
-357,-475,-0.262756,7.97205,0,0,0,0,0,0,0,-1,867,1499,-0.262784,-7.97205
-350,-475,-2.77173,4.35486,0,0,0,0,0,0,0,-1,874,1499,-2.77175,-4.35491
-343,-475,-6.81641,-1.95203,0,0,0,0,0,0,0,-1,881,1499,-6.81643,1.95198
-336,-475,0,0,0,0,0,0,0,0,0,-1,888,1499,0,0
-329,-475,0,0,0,0,0,0,0,0,0,-1,895,1499,0,0
-322,-475,0,0,0,0,0,0,0,0,0,-1,902,1499,0,0
-315,-475,0,0,0,0,0,0,0,0,0,-1,909,1499,0,0
-308,-475,0,0,0,0,0,0,0,0,0,-1,916,1499,0,0
-301,-475,0,0,0,0,0,0,0,0,0,-1,923,1499,0,0
-294,-475,0,0,0,0,0,0,0,0,0,-1,930,1499,0,0
-287,-475,0,0,0,0,0,0,0,0,0,-1,937,1499,0,0
-280,-475,0,0,0,0,0,0,0,0,0,-1,944,1499,0,0
-273,-475,0,0,0,0,0,0,0,0,0,-1,951,1499,0,0
-266,-475,0,0,0,0,0,0,0,0,0,-1,958,1499,0,0
-259,-475,0,0,0,0,0,0,0,0,0,-1,965,1499,0,0
-252,-475,0,0,0,0,0,0,0,0,0,-1,972,1499,0,0
-245,-475,0,0,0,0,0,0,0,0,0,-1,979,1499,0,0
-238,-475,0,0,0,0,0,0,0,0,0,-1,986,1499,0,0
-231,-475,0,0,0,0,0,0,0,0,0,-1,993,1499,0,0
-224,-475,0,0,0,0,0,0,0,0,0,-1,1000,1499,0,0
-217,-475,0,0,0,0,0,0,0,0,0,-1,1007,1499,0,0
-210,-475,0,0,0,0,0,0,0,0,0,-1,1014,1499,0,0
-203,-475,0,0,0,0,0,0,0,0,0,-1,1021,1499,0,0
-196,-475,0,0,0,0,0,0,0,0,0,-1,1028,1499,0,0
-189,-475,0,0,0,0,0,0,0,0,0,-1,1035,1499,0,0
-182,-475,0,0,0,0,0,0,0,0,0,-1,1042,1499,0,0
-175,-475,0,0,0,0,0,0,0,0,0,-1,1049,1499,0,0
-168,-475,0,0,0,0,0,0,0,0,0,-1,1056,1499,0,0
-161,-475,0,0,0,0,0,0,0,0,0,-1,1063,1499,0,0
-154,-475,0,0,0,0,0,0,0,0,0,-1,1070,1499,0,0
-147,-475,0,0,0,0,0,0,0,0,0,-1,1077,1499,0,0
-140,-475,0,0,0,0,0,0,0,0,0,-1,1084,1499,0,0
-133,-475,0,0,0,0,0,0,0,0,0,-1,1091,1499,0,0
-126,-475,0,0,0,0,0,0,0,0,0,-1,1098,1499,0,0
-119,-475,0,0,0,0,0,0,0,0,0,-1,1105,1499,0,0
-112,-475,0,0,0,0,0,0,0,0,0,-1,1112,1499,0,0
-105,-475,0,0,0,0,0,0,0,0,0,-1,1119,1499,0,0
-98,-475,0,0,0,0,0,0,0,0,0,-1,1126,1499,0,0
-91,-475,0,0,0,0,0,0,0,0,0,-1,1133,1499,0,0
-84,-475,0,0,0,0,0,0,0,0,0,-1,1140,1499,0,0
-77,-475,0,0,0,0,0,0,0,0,0,-1,1147,1499,0,0
-70,-475,0,0,0,0,0,0,0,0,0,-1,1154,1499,0,0
-63,-475,0,0,0,0,0,0,0,0,0,-1,1161,1499,0,0
-56,-475,0,0,0,0,0,0,0,0,0,-1,1168,1499,0,0
-49,-475,0,0,0,0,0,0,0,0,0,-1,1175,1499,0,0
-42,-475,0,0,0,0,0,0,0,0,0,-1,1182,1499,0,0
-35,-475,0,0,0,0,0,0,0,0,0,-1,1189,1499,0,0
-28,-475,0,0,0,0,0,0,0,0,0,-1,1196,1499,0,0
-21,-475,0,0,0,0,0,0,0,0,0,-1,1203,1499,0,0
-14,-475,0,0,0,0,0,0,0,0,0,-1,1210,1499,0,0
-7,-475,0,0,0,0,0,0,0,0,0,-1,1217,1499,0,0
0,-475,0,0,0,0,0,0,0,0,0,-1,1224,1499,0,0
7,-475,0,0,0,0,0,0,0,0,0,-1,1231,1499,0,0
14,-475,0,0,0,0,0,0,0,0,0,-1,1238,1499,0,0
21,-475,0,0,0,0,0,0,0,0,0,-1,1245,1499,0,0
28,-475,0,0,0,0,0,0,0,0,0,-1,1252,1499,0,0
35,-475,0,0,0,0,0,0,0,0,0,-1,1259,1499,0,0
42,-475,0,0,0,0,0,0,0,0,0,-1,1266,1499,0,0
49,-475,0,0,0,0,0,0,0,0,0,-1,1273,1499,0,0
56,-475,0,0,0,0,0,0,0,0,0,-1,1280,1499,0,0
63,-475,0,0,0,0,0,0,0,0,0,-1,1287,1499,0,0
70,-475,0,0,0,0,0,0,0,0,0,-1,1294,1499,0,0
77,-475,0,0,0,0,0,0,0,0,0,-1,1301,1499,0,0
84,-475,0,0,0,0,0,0,0,0,0,-1,1308,1499,0,0
91,-475,0,0,0,0,0,0,0,0,0,-1,1315,1499,0,0
98,-475,0,0,0,0,0,0,0,0,0,-1,1322,1499,0,0
105,-475,0,0,0,0,0,0,0,0,0,-1,1329,1499,0,0
112,-475,0,0,0,0,0,0,0,0,0,-1,1336,1499,0,0
119,-475,0,0,0,0,0,0,0,0,0,-1,1343,1499,0,0
126,-475,0,0,0,0,0,0,0,0,0,-1,1350,1499,0,0
133,-475,0,0,0,0,0,0,0,0,0,-1,1357,1499,0,0
140,-475,0,0,0,0,0,0,0,0,0,-1,1364,1499,0,0
147,-475,0,0,0,0,0,0,0,0,0,-1,1371,1499,0,0
154,-475,0,0,0,0,0,0,0,0,0,-1,1378,1499,0,0
161,-475,0,0,0,0,0,0,0,0,0,-1,1385,1499,0,0
168,-475,0,0,0,0,0,0,0,0,0,-1,1392,1499,0,0
175,-475,0,0,0,0,0,0,0,0,0,-1,1399,1499,0,0
182,-475,0,0,0,0,0,0,0,0,0,-1,1406,1499,0,0
189,-475,0,0,0,0,0,0,0,0,0,-1,1413,1499,0,0
196,-475,0,0,0,0,0,0,0,0,0,-1,1420,1499,0,0
203,-475,0,0,0,0,0,0,0,0,0,-1,1427,1499,0,0
210,-475,0,0,0,0,0,0,0,0,0,-1,1434,1499,0,0
217,-475,0,0,0,0,0,0,0,0,0,-1,1441,1499,0,0
224,-475,0,0,0,0,0,0,0,0,0,-1,1448,1499,0,0
231,-475,0,0,0,0,0,0,0,0,0,-1,1455,1499,0,0
238,-475,0,0,0,0,0,0,0,0,0,-1,1462,1499,0,0
245,-475,0,0,0,0,0,0,0,0,0,-1,1469,1499,0,0
252,-475,0,0,0,0,0,0,0,0,0,-1,1476,1499,0,0
259,-475,0,0,0,0,0,0,0,0,0,-1,1483,1499,0,0
266,-475,0,0,0,0,0,0,0,0,0,-1,1490,1499,0,0
273,-475,0,0,0,0,0,0,0,0,0,-1,1497,1499,0,0
280,-475,0,0,0,0,0,0,0,0,0,-1,1504,1499,0,0
287,-475,0,0,0,0,0,0,0,0,0,-1,1511,1499,0,0
294,-475,0,0,0,0,0,0,0,0,0,-1,1518,1499,0,0
301,-475,0,0,0,0,0,0,0,0,0,-1,1525,1499,0,0
308,-475,0,0,0,0,0,0,0,0,0,-1,1532,1499,0,0
315,-475,0,0,0,0,0,0,0,0,0,-1,1539,1499,0,0
322,-475,0,0,0,0,0,0,0,0,0,-1,1546,1499,0,0
329,-475,0,0,0,0,0,0,0,0,0,-1,1553,1499,0,0
336,-475,0,0,0,0,0,0,0,0,0,-1,1560,1499,0,0
343,-475,0,0,0,0,0,0,0,0,0,-1,1567,1499,0,0
350,-475,0,0,0,0,0,0,0,0,0,-1,1574,1499,0,0
357,-475,0,0,0,0,0,0,0,0,0,-1,1581,1499,0,0
364,-475,0,0,0,0,0,0,0,0,0,-1,1588,1499,0,0
371,-475,0,0,0,0,0,0,0,0,0,-1,1595,1499,0,0
378,-475,0,0,0,0,0,0,0,0,0,-1,1602,1499,0,0
385,-475,0,0,0,0,0,0,0,0,0,-1,1609,1499,0,0
392,-475,0,0,0,0,0,0,0,0,0,-1,1616,1499,0,0
399,-475,0,0,0,0,0,0,0,0,0,-1,1623,1499,0,0
406,-475,0,0,0,0,0,0,0,0,0,-1,1630,1499,0,0
413,-475,0,0,0,0,0,0,0,0,0,-1,1637,1499,0,0
420,-475,0,0,0,0,0,0,0,0,0,-1,1644,1499,0,0
427,-475,0,0,0,0,0,0,0,0,0,-1,1651,1499,0,0
434,-475,0,0,0,0,0,0,0,0,0,-1,1658,1499,0,0
441,-475,0,0,0,0,0,0,0,0,0,-1,1665,1499,0,0
448,-475,0,0,0,0,0,0,0,0,0,-1,1672,1499,0,0
455,-475,0,0,0,0,0,0,0,0,0,-1,1679,1499,0,0
462,-475,12.6372,0.275391,0,0,0,0,0,0,0,-1,1686,1499,12.6372,-0.27536
469,-475,15.6437,2.28296,0,0,0,0,0,0,0,-1,1693,1499,15.6437,-2.28293
476,-475,15.3302,2.71436,0,0,0,0,0,0,0,-1,1700,1499,15.3303,-2.7143
483,-475,10.7461,5.91479,0,0,0,0,0,0,0,-1,1707,1499,10.7461,-5.91476
490,-475,11.9305,4.4364,0,0,0,0,0,0,0,-1,1714,1499,11.9305,-4.43644
497,-475,15.3451,4.3479,0,0,0,0,0,0,0,-1,1721,1499,15.3451,-4.34789
504,-475,16.9646,7.71265,0,0,0,0,0,0,0,-1,1728,1499,16.9646,-7.71265
511,-475,18.941,12.7572,0,0,0,0,0,0,0,-1,1735,1499,18.941,-12.7572
518,-475,17.0021,13.8564,0,0,0,0,0,0,0,-1,1742,1499,17.0021,-13.8564
525,-475,17.5637,15.2103,0,0,0,0,0,0,0,-1,1749,1499,17.5637,-15.2103
532,-475,20.8623,20.8413,0,0,0,0,0,0,0,-1,1756,1499,20.8623,-20.8413
539,-475,20.5494,20.8519,0,0,0,0,0,0,0,-1,1763,1499,20.5494,-20.852
546,-475,20.4524,19.8799,0,0,0,0,0,0,0,-1,1770,1499,20.4524,-19.8798
553,-475,20.6542,19.9348,0,0,0,0,0,0,0,-1,1777,1499,20.6542,-19.9348
560,-475,20.7354,19.4131,0.00522038,0.00315994,-0.00228172,0.00669368,0.00168664,-0.573345,0.00401997,0.0257712,1784,1499,20.7353,-19.413
567,-475,20.8756,18.8606,0.00363119,0.00286385,-0.00185295,0.00513977,0.00135527,-0.68331,0.00307594,0.0146362,1791,1499,20.8757,-18.8605
574,-475,20.8425,18.3639,0.00314121,0.00225838,-0.00166851,0.00442571,0.00097388,-0.656082,0.00268537,0.0138279,1798,1499,20.8426,-18.3639
581,-475,20.8303,17.9049,0.00285384,0.00164066,-0.00149765,0.00386308,0.000631422,-0.59298,0.00239284,0.0120485,1805,1499,20.8303,-17.9049
588,-475,20.8138,17.4142,0.00279796,0.00100793,-0.00136751,0.00353731,0.00026858,-0.495638,0.00227397,0.0101946,1812,1499,20.8139,-17.4141
595,-475,20.8058,16.9244,0.00302337,0.00036171,-0.0012409,0.00351214,-0.000127059,-0.375222,0.00238491,0.010893,1819,1499,20.8057,-16.9245
602,-475,20.7994,16.4435,0.00336463,-0.000303365,-0.00114185,0.00369104,-0.000629779,-0.278437,0.00269526,0.0127058,1826,1499,20.7995,-16.4435
609,-475,20.7826,15.99,0.00380368,-0.000982501,-0.000985455,0.00399864,-0.00117746,-0.195315,0.00313289,0.0124686,1833,1499,20.7826,-15.99
616,-475,20.7565,15.5387,0.00440178,-0.00163632,-0.000822682,0.00451186,-0.0017464,-0.133019,0.00372895,0.0123097,1840,1499,20.7564,-15.5386
623,-475,20.7513,15.0537,0.00509724,-0.00235103,-0.000597824,0.00514492,-0.00239871,-0.0795844,0.00445048,0.0118412,1847,1499,20.7514,-15.0537
630,-475,20.7562,14.5663,0.00577562,-0.00291829,-0.000338352,0.00578877,-0.00293144,-0.03884,0.00512392,0.0130668,1854,1499,20.7563,-14.5662
637,-475,20.7351,14.0365,0.0064922,-0.00307032,-0.00021545,0.00649705,-0.00307517,-0.0225155,0.00564301,0.0243326,1861,1499,20.7351,-14.0365
644,-475,20.7253,13.5338,0,0,0,0,0,0,0,-1,1868,1499,20.7253,-13.5338
651,-475,11.7965,7.57593,0,0,0,0,0,0,0,-1,1875,1499,11.7965,-7.5759
658,-475,14.6708,8.80322,0,0,0,0,0,0,0,-1,1882,1499,14.6708,-8.8032
665,-475,9.33435,5.43335,0,0,0,0,0,0,0,-1,1889,1499,9.33439,-5.43332
672,-475,9.38635,1.10474,0,0,0,0,0,0,0,-1,1896,1499,9.38629,-1.10475
679,-475,12.2594,1.31079,0,0,0,0,0,0,0,-1,1903,1499,12.2594,-1.31077
686,-475,0,0,0,0,0,0,0,0,0,-1,1910,1499,0,0
693,-475,0,0,0,0,0,0,0,0,0,-1,1917,1499,0,0
700,-475,0,0,0,0,0,0,0,0,0,-1,1924,1499,0,0
707,-475,0,0,0,0,0,0,0,0,0,-1,1931,1499,0,0
714,-475,0,0,0,0,0,0,0,0,0,-1,1938,1499,0,0
721,-475,0,0,0,0,0,0,0,0,0,-1,1945,1499,0,0
728,-475,0,0,0,0,0,0,0,0,0,-1,1952,1499,0,0
735,-475,0,0,0,0,0,0,0,0,0,-1,1959,1499,0,0
742,-475,0,0,0,0,0,0,0,0,0,-1,1966,1499,0,0
749,-475,0,0,0,0,0,0,0,0,0,-1,1973,1499,0,0
756,-475,0,0,0,0,0,0,0,0,0,-1,1980,1499,0,0
763,-475,0,0,0,0,0,0,0,0,0,-1,1987,1499,0,0
770,-475,0,0,0,0,0,0,0,0,0,-1,1994,1499,0,0
777,-475,0,0,0,0,0,0,0,0,0,-1,2001,1499,0,0
784,-475,0,0,0,0,0,0,0,0,0,-1,2008,1499,0,0
791,-475,0,0,0,0,0,0,0,0,0,-1,2015,1499,0,0
798,-475,0,0,0,0,0,0,0,0,0,-1,2022,1499,0,0
805,-475,0,0,0,0,0,0,0,0,0,-1,2029,1499,0,0
812,-475,0,0,0,0,0,0,0,0,0,-1,2036,1499,0,0
-700,-482,0,0,0,0,0,0,0,0,0,-1,524,1506,0,0
-693,-482,0,0,0,0,0,0,0,0,0,-1,531,1506,0,0
-686,-482,0,0,0,0,0,0,0,0,0,-1,538,1506,0,0
-679,-482,0,0,0,0,0,0,0,0,0,-1,545,1506,0,0
-672,-482,0,0,0,0,0,0,0,0,0,-1,552,1506,0,0
-665,-482,0,0,0,0,0,0,0,0,0,-1,559,1506,0,0
-658,-482,0,0,0,0,0,0,0,0,0,-1,566,1506,0,0
-651,-482,0,0,0,0,0,0,0,0,0,-1,573,1506,0,0
-644,-482,0,0,0,0,0,0,0,0,0,-1,580,1506,0,0
-637,-482,0,0,0,0,0,0,0,0,0,-1,587,1506,0,0
-630,-482,0,0,0,0,0,0,0,0,0,-1,594,1506,0,0
-623,-482,0,0,0,0,0,0,0,0,0,-1,601,1506,0,0
-616,-482,0,0,0,0,0,0,0,0,0,-1,608,1506,0,0
-609,-482,0,0,0,0,0,0,0,0,0,-1,615,1506,0,0
-602,-482,0,0,0,0,0,0,0,0,0,-1,622,1506,0,0
-595,-482,0,0,0,0,0,0,0,0,0,-1,629,1506,0,0
-588,-482,0,0,0,0,0,0,0,0,0,-1,636,1506,0,0
-581,-482,0,0,0,0,0,0,0,0,0,-1,643,1506,0,0
-574,-482,0,0,0,0,0,0,0,0,0,-1,650,1506,0,0
-567,-482,0,0,0,0,0,0,0,0,0,-1,657,1506,0,0
-560,-482,0,0,0,0,0,0,0,0,0,-1,664,1506,0,0
-553,-482,-9.06055,9.34314,0,0,0,0,0,0,0,-1,671,1506,-9.06056,-9.34312
-546,-482,-4.08624,8.34241,0,0,0,0,0,0,0,-1,678,1506,-4.08624,-8.3424
-539,-482,-4.29877,2.73499,0,0,0,0,0,0,0,-1,685,1506,-4.29879,-2.73494
-532,-482,-3.63611,4.23987,0,0,0,0,0,0,0,-1,692,1506,-3.63609,-4.23983
-525,-482,-6.19116,5.24927,0,0,0,0,0,0,0,-1,699,1506,-6.19117,-5.24927
-518,-482,-5.92957,6.39807,0,0,0,0,0,0,0,-1,706,1506,-5.92958,-6.39806
-511,-482,-6.98798,10.8634,0,0,0,0,0,0,0,-1,713,1506,-6.98796,-10.8634
-504,-482,-6.37579,12.1255,0,0,0,0,0,0,0,-1,720,1506,-6.37579,-12.1254
-497,-482,-5.62097,12.7281,0,0,0,0,0,0,0,-1,727,1506,-5.62095,-12.7281
-490,-482,-5.59149,13.3828,-0.00671595,-0.00264181,-0.00152506,-0.00213419,-0.00722357,-1.24948,0.00428529,0.0302675,734,1506,-5.59149,-13.3828
-483,-482,-5.54944,13.9661,-0.00523358,-0.00213085,-0.00138984,-0.00159934,-0.00576509,-1.20553,0.00343665,0.00955441,741,1506,-5.54945,-13.9661
-476,-482,-5.55469,14.4604,-0.0036372,-0.00146572,-0.000958925,-0.00110289,-0.00400003,-1.20907,0.00238561,0.010087,748,1506,-5.55469,-14.4605
-469,-482,-5.58606,14.9856,-0.00191173,-0.000670403,-0.000223417,-0.000631416,-0.00195072,-1.39803,0.00114935,0.0115178,755,1506,-5.58607,-14.9856
-462,-482,-5.58954,15.511,-0.000126823,0.000188912,0.000693514,0.0007423,-0.00068021,0.897308,0.000821547,0.0128786,762,1506,-5.58953,-15.511
-455,-482,-5.60236,16.0137,0.00167542,0.00109335,0.00174062,0.00314917,-0.000380394,0.702563,0.00223705,0.0135731,769,1506,-5.60235,-16.0137
-448,-482,-5.63757,16.5398,0.00357691,0.00218407,0.00297739,0.00593825,-0.000177267,0.670512,0.00401922,0.0141548,776,1506,-5.63759,-16.5399
-441,-482,-5.65918,17.0355,0.0055629,0.00346932,0.00449369,0.00913011,-9.78922e-05,0.670965,0.00611963,0.0139228,783,1506,-5.65916,-17.0356
-434,-482,-5.66846,17.5244,0.00760605,0.00493222,0.0062276,0.0126386,-0.000100349,0.679665,0.0084594,0.0160728,790,1506,-5.66848,-17.5244
-427,-482,-5.67053,18.0477,0.00958124,0.00685478,0.00810334,0.0164352,8.00006e-07,0.702063,0.0109565,0.0184578,797,1506,-5.67054,-18.0477
-420,-482,-5.57013,18.7738,0.0116976,0.00914094,0.0103363,0.0208343,4.24683e-06,0.723874,0.0138881,0.0451875,804,1506,-5.57011,-18.7739
-413,-482,-5.30957,19.4497,0,0,0,0,0,0,0,-1,811,1506,-5.30955,-19.4497
-406,-482,-2.51373,12.7556,0,0,0,0,0,0,0,-1,818,1506,-2.51376,-12.7556
-399,-482,-1.3822,9.22595,0,0,0,0,0,0,0,-1,825,1506,-1.38221,-9.22598
-392,-482,-1.06836,9.22729,0,0,0,0,0,0,0,-1,832,1506,-1.06835,-9.2273
-385,-482,0.0647583,8.90649,0,0,0,0,0,0,0,-1,839,1506,0.0647778,-8.90644
-378,-482,0.215698,5.96948,0,0,0,0,0,0,0,-1,846,1506,0.215681,-5.9695
-371,-482,-0.10907,8.10437,0,0,0,0,0,0,0,-1,853,1506,-0.109063,-8.10433
-364,-482,-0.154968,10.5032,0,0,0,0,0,0,0,-1,860,1506,-0.154976,-10.5032
-357,-482,2.14807,4.60144,0,0,0,0,0,0,0,-1,867,1506,2.14807,-4.60144
-350,-482,-7.5813,-1.45935,0,0,0,0,0,0,0,-1,874,1506,-7.58133,1.45937
-343,-482,-7.19983,-1.26416,0,0,0,0,0,0,0,-1,881,1506,-7.19981,1.26414
-336,-482,-6.78491,-1.18127,0,0,0,0,0,0,0,-1,888,1506,-6.78488,1.18125
-329,-482,0,0,0,0,0,0,0,0,0,-1,895,1506,0,0
-322,-482,0,0,0,0,0,0,0,0,0,-1,902,1506,0,0
-315,-482,0,0,0,0,0,0,0,0,0,-1,909,1506,0,0
-308,-482,0,0,0,0,0,0,0,0,0,-1,916,1506,0,0
-301,-482,0,0,0,0,0,0,0,0,0,-1,923,1506,0,0
-294,-482,0,0,0,0,0,0,0,0,0,-1,930,1506,0,0
-287,-482,0,0,0,0,0,0,0,0,0,-1,937,1506,0,0
-280,-482,0,0,0,0,0,0,0,0,0,-1,944,1506,0,0
-273,-482,0,0,0,0,0,0,0,0,0,-1,951,1506,0,0
-266,-482,0,0,0,0,0,0,0,0,0,-1,958,1506,0,0
-259,-482,0,0,0,0,0,0,0,0,0,-1,965,1506,0,0
-252,-482,0,0,0,0,0,0,0,0,0,-1,972,1506,0,0
-245,-482,0,0,0,0,0,0,0,0,0,-1,979,1506,0,0
-238,-482,0,0,0,0,0,0,0,0,0,-1,986,1506,0,0
-231,-482,0,0,0,0,0,0,0,0,0,-1,993,1506,0,0
-224,-482,0,0,0,0,0,0,0,0,0,-1,1000,1506,0,0
-217,-482,0,0,0,0,0,0,0,0,0,-1,1007,1506,0,0
-210,-482,0,0,0,0,0,0,0,0,0,-1,1014,1506,0,0
-203,-482,0,0,0,0,0,0,0,0,0,-1,1021,1506,0,0
-196,-482,0,0,0,0,0,0,0,0,0,-1,1028,1506,0,0
-189,-482,0,0,0,0,0,0,0,0,0,-1,1035,1506,0,0
-182,-482,0,0,0,0,0,0,0,0,0,-1,1042,1506,0,0
-175,-482,0,0,0,0,0,0,0,0,0,-1,1049,1506,0,0
-168,-482,0,0,0,0,0,0,0,0,0,-1,1056,1506,0,0
-161,-482,0,0,0,0,0,0,0,0,0,-1,1063,1506,0,0
-154,-482,0,0,0,0,0,0,0,0,0,-1,1070,1506,0,0
-147,-482,0,0,0,0,0,0,0,0,0,-1,1077,1506,0,0
-140,-482,0,0,0,0,0,0,0,0,0,-1,1084,1506,0,0
-133,-482,0,0,0,0,0,0,0,0,0,-1,1091,1506,0,0
-126,-482,0,0,0,0,0,0,0,0,0,-1,1098,1506,0,0
-119,-482,0,0,0,0,0,0,0,0,0,-1,1105,1506,0,0
-112,-482,0,0,0,0,0,0,0,0,0,-1,1112,1506,0,0
-105,-482,0,0,0,0,0,0,0,0,0,-1,1119,1506,0,0
-98,-482,0,0,0,0,0,0,0,0,0,-1,1126,1506,0,0
-91,-482,0,0,0,0,0,0,0,0,0,-1,1133,1506,0,0
-84,-482,0,0,0,0,0,0,0,0,0,-1,1140,1506,0,0
-77,-482,0,0,0,0,0,0,0,0,0,-1,1147,1506,0,0
-70,-482,0,0,0,0,0,0,0,0,0,-1,1154,1506,0,0
-63,-482,0,0,0,0,0,0,0,0,0,-1,1161,1506,0,0
-56,-482,0,0,0,0,0,0,0,0,0,-1,1168,1506,0,0
-49,-482,0,0,0,0,0,0,0,0,0,-1,1175,1506,0,0
-42,-482,0,0,0,0,0,0,0,0,0,-1,1182,1506,0,0
-35,-482,0,0,0,0,0,0,0,0,0,-1,1189,1506,0,0
-28,-482,0,0,0,0,0,0,0,0,0,-1,1196,1506,0,0
-21,-482,0,0,0,0,0,0,0,0,0,-1,1203,1506,0,0
-14,-482,0,0,0,0,0,0,0,0,0,-1,1210,1506,0,0
-7,-482,0,0,0,0,0,0,0,0,0,-1,1217,1506,0,0
0,-482,0,0,0,0,0,0,0,0,0,-1,1224,1506,0,0
7,-482,0,0,0,0,0,0,0,0,0,-1,1231,1506,0,0
14,-482,0,0,0,0,0,0,0,0,0,-1,1238,1506,0,0
21,-482,0,0,0,0,0,0,0,0,0,-1,1245,1506,0,0
28,-482,0,0,0,0,0,0,0,0,0,-1,1252,1506,0,0
35,-482,0,0,0,0,0,0,0,0,0,-1,1259,1506,0,0
42,-482,0,0,0,0,0,0,0,0,0,-1,1266,1506,0,0
49,-482,0,0,0,0,0,0,0,0,0,-1,1273,1506,0,0
56,-482,0,0,0,0,0,0,0,0,0,-1,1280,1506,0,0
63,-482,0,0,0,0,0,0,0,0,0,-1,1287,1506,0,0
70,-482,0,0,0,0,0,0,0,0,0,-1,1294,1506,0,0
77,-482,0,0,0,0,0,0,0,0,0,-1,1301,1506,0,0
84,-482,0,0,0,0,0,0,0,0,0,-1,1308,1506,0,0
91,-482,0,0,0,0,0,0,0,0,0,-1,1315,1506,0,0
98,-482,0,0,0,0,0,0,0,0,0,-1,1322,1506,0,0
105,-482,0,0,0,0,0,0,0,0,0,-1,1329,1506,0,0
112,-482,0,0,0,0,0,0,0,0,0,-1,1336,1506,0,0
119,-482,0,0,0,0,0,0,0,0,0,-1,1343,1506,0,0
126,-482,0,0,0,0,0,0,0,0,0,-1,1350,1506,0,0
133,-482,0,0,0,0,0,0,0,0,0,-1,1357,1506,0,0
140,-482,0,0,0,0,0,0,0,0,0,-1,1364,1506,0,0
147,-482,0,0,0,0,0,0,0,0,0,-1,1371,1506,0,0
154,-482,0,0,0,0,0,0,0,0,0,-1,1378,1506,0,0
161,-482,0,0,0,0,0,0,0,0,0,-1,1385,1506,0,0
168,-482,0,0,0,0,0,0,0,0,0,-1,1392,1506,0,0
175,-482,0,0,0,0,0,0,0,0,0,-1,1399,1506,0,0
182,-482,0,0,0,0,0,0,0,0,0,-1,1406,1506,0,0
189,-482,0,0,0,0,0,0,0,0,0,-1,1413,1506,0,0
196,-482,0,0,0,0,0,0,0,0,0,-1,1420,1506,0,0
203,-482,0,0,0,0,0,0,0,0,0,-1,1427,1506,0,0
210,-482,0,0,0,0,0,0,0,0,0,-1,1434,1506,0,0
217,-482,0,0,0,0,0,0,0,0,0,-1,1441,1506,0,0
224,-482,0,0,0,0,0,0,0,0,0,-1,1448,1506,0,0
231,-482,0,0,0,0,0,0,0,0,0,-1,1455,1506,0,0
238,-482,0,0,0,0,0,0,0,0,0,-1,1462,1506,0,0
245,-482,0,0,0,0,0,0,0,0,0,-1,1469,1506,0,0
252,-482,0,0,0,0,0,0,0,0,0,-1,1476,1506,0,0
259,-482,0,0,0,0,0,0,0,0,0,-1,1483,1506,0,0
266,-482,0,0,0,0,0,0,0,0,0,-1,1490,1506,0,0
273,-482,0,0,0,0,0,0,0,0,0,-1,1497,1506,0,0
280,-482,0,0,0,0,0,0,0,0,0,-1,1504,1506,0,0
287,-482,0,0,0,0,0,0,0,0,0,-1,1511,1506,0,0
294,-482,0,0,0,0,0,0,0,0,0,-1,1518,1506,0,0
301,-482,0,0,0,0,0,0,0,0,0,-1,1525,1506,0,0
308,-482,0,0,0,0,0,0,0,0,0,-1,1532,1506,0,0
315,-482,0,0,0,0,0,0,0,0,0,-1,1539,1506,0,0
322,-482,0,0,0,0,0,0,0,0,0,-1,1546,1506,0,0
329,-482,0,0,0,0,0,0,0,0,0,-1,1553,1506,0,0
336,-482,0,0,0,0,0,0,0,0,0,-1,1560,1506,0,0
343,-482,0,0,0,0,0,0,0,0,0,-1,1567,1506,0,0
350,-482,0,0,0,0,0,0,0,0,0,-1,1574,1506,0,0
357,-482,0,0,0,0,0,0,0,0,0,-1,1581,1506,0,0
364,-482,0,0,0,0,0,0,0,0,0,-1,1588,1506,0,0
371,-482,0,0,0,0,0,0,0,0,0,-1,1595,1506,0,0
378,-482,0,0,0,0,0,0,0,0,0,-1,1602,1506,0,0
385,-482,0,0,0,0,0,0,0,0,0,-1,1609,1506,0,0
392,-482,0,0,0,0,0,0,0,0,0,-1,1616,1506,0,0
399,-482,0,0,0,0,0,0,0,0,0,-1,1623,1506,0,0
406,-482,0,0,0,0,0,0,0,0,0,-1,1630,1506,0,0
413,-482,0,0,0,0,0,0,0,0,0,-1,1637,1506,0,0
420,-482,0,0,0,0,0,0,0,0,0,-1,1644,1506,0,0
427,-482,0,0,0,0,0,0,0,0,0,-1,1651,1506,0,0
434,-482,0,0,0,0,0,0,0,0,0,-1,1658,1506,0,0
441,-482,0,0,0,0,0,0,0,0,0,-1,1665,1506,0,0
448,-482,4.24146,1.55383,0,0,0,0,0,0,0,-1,1672,1506,4.24149,-1.55381
455,-482,12.4122,1.09729,0,0,0,0,0,0,0,-1,1679,1506,12.4122,-1.09734
462,-482,15.0673,3.13135,0,0,0,0,0,0,0,-1,1686,1506,15.0672,-3.13134
469,-482,15.3793,3.46301,0,0,0,0,0,0,0,-1,1693,1506,15.3793,-3.46307
476,-482,8.69751,9.18738,0,0,0,0,0,0,0,-1,1700,1506,8.69753,-9.18739
483,-482,10.0902,7.17432,0,0,0,0,0,0,0,-1,1707,1506,10.0902,-7.1743
490,-482,11.6289,5.4928,0,0,0,0,0,0,0,-1,1714,1506,11.6289,-5.49283
497,-482,15.9539,7.40222,0,0,0,0,0,0,0,-1,1721,1506,15.9538,-7.40219
504,-482,20.4233,12.006,0,0,0,0,0,0,0,-1,1728,1506,20.4233,-12.006
511,-482,18.4937,12.9175,0,0,0,0,0,0,0,-1,1735,1506,18.4936,-12.9174
518,-482,16.6002,13.9679,0,0,0,0,0,0,0,-1,1742,1506,16.6003,-13.9679
525,-482,18.495,15.9618,0,0,0,0,0,0,0,-1,1749,1506,18.495,-15.9618
532,-482,19.9375,21.0775,0,0,0,0,0,0,0,-1,1756,1506,19.9375,-21.0775
539,-482,20.2291,20.5577,0,0,0,0,0,0,0,-1,1763,1506,20.2291,-20.5578
546,-482,20.2782,20.5345,0,0,0,0,0,0,0,-1,1770,1506,20.2783,-20.5346
553,-482,20.2144,19.8477,0,0,0,0,0,0,0,-1,1777,1506,20.2143,-19.8476
560,-482,20.3312,19.3276,0.00455557,0.0026674,-0.00202239,0.00584338,0.00137959,-0.567023,0.00352684,0.014279,1784,1506,20.3312,-19.3276
567,-482,20.4034,18.8506,0.00334198,0.0022731,-0.00164348,0.00453573,0.00107935,-0.628197,0.00273595,0.0154373,1791,1506,20.4034,-18.8506
574,-482,20.3845,18.3955,0.00302283,0.00168749,-0.00149555,0.00399298,0.000717343,-0.575453,0.00245801,0.0143044,1798,1506,20.3845,-18.3955
581,-482,20.3768,17.9176,0.00291214,0.00108288,-0.00138089,0.00365383,0.00034119,-0.492894,0.0023305,0.00965544,1805,1506,20.3768,-17.9176
588,-482,20.3505,17.4204,0.00306874,0.000480393,-0.00133667,0.0036351,-8.5964e-05,-0.400775,0.00245256,0.0105512,1812,1506,20.3504,-17.4205
595,-482,20.3364,16.9077,0.00355674,-0.000153623,-0.0013034,0.00396883,-0.000565717,-0.306225,0.00285322,0.016621,1819,1506,20.3365,-16.9078
602,-482,20.3309,16.4421,0.0041968,-0.000833336,-0.00131148,0.00451819,-0.00115473,-0.240329,0.00346184,0.0209095,1826,1506,20.3309,-16.4421
609,-482,20.2968,16.0134,0.00497471,-0.00156642,-0.00126234,0.00520987,-0.00180158,-0.184177,0.00420446,0.0163318,1833,1506,20.2968,-16.0134
616,-482,20.266,15.5557,0.00601021,-0.00235511,-0.00116952,0.00617064,-0.00251554,-0.136324,0.00516085,0.0122706,1840,1506,20.266,-15.5557
623,-482,20.2467,15.1023,0.00718508,-0.00326135,-0.000996905,0.00727937,-0.00335564,-0.094296,0.00627788,0.0151894,1847,1506,20.2467,-15.1023
630,-482,20.2531,14.6379,0.0083328,-0.00401427,-0.000766096,0.00838016,-0.00406162,-0.0617312,0.00732608,0.030353,1854,1506,20.253,-14.638
637,-482,20.29,14.1851,0,0,0,0,0,0,0,-1,1861,1506,20.29,-14.1851
644,-482,17.5909,11.6163,0,0,0,0,0,0,0,-1,1868,1506,17.5909,-11.6163
651,-482,4.03845,7.05273,0,0,0,0,0,0,0,-1,1875,1506,4.03843,-7.05279
658,-482,10.0278,5.87903,0,0,0,0,0,0,0,-1,1882,1506,10.0279,-5.87902
665,-482,8.15198,3.22229,0,0,0,0,0,0,0,-1,1889,1506,8.15199,-3.22232
672,-482,9.87415,1.3147,0,0,0,0,0,0,0,-1,1896,1506,9.87416,-1.31473
679,-482,0,0,0,0,0,0,0,0,0,-1,1903,1506,0,0
686,-482,0,0,0,0,0,0,0,0,0,-1,1910,1506,0,0
693,-482,0,0,0,0,0,0,0,0,0,-1,1917,1506,0,0
700,-482,0,0,0,0,0,0,0,0,0,-1,1924,1506,0,0
707,-482,0,0,0,0,0,0,0,0,0,-1,1931,1506,0,0
714,-482,0,0,0,0,0,0,0,0,0,-1,1938,1506,0,0
721,-482,0,0,0,0,0,0,0,0,0,-1,1945,1506,0,0
728,-482,0,0,0,0,0,0,0,0,0,-1,1952,1506,0,0
735,-482,0,0,0,0,0,0,0,0,0,-1,1959,1506,0,0
742,-482,0,0,0,0,0,0,0,0,0,-1,1966,1506,0,0
749,-482,0,0,0,0,0,0,0,0,0,-1,1973,1506,0,0
756,-482,0,0,0,0,0,0,0,0,0,-1,1980,1506,0,0
763,-482,0,0,0,0,0,0,0,0,0,-1,1987,1506,0,0
770,-482,0,0,0,0,0,0,0,0,0,-1,1994,1506,0,0
777,-482,0,0,0,0,0,0,0,0,0,-1,2001,1506,0,0
784,-482,0,0,0,0,0,0,0,0,0,-1,2008,1506,0,0
791,-482,0,0,0,0,0,0,0,0,0,-1,2015,1506,0,0
798,-482,0,0,0,0,0,0,0,0,0,-1,2022,1506,0,0
805,-482,0,0,0,0,0,0,0,0,0,-1,2029,1506,0,0
812,-482,0,0,0,0,0,0,0,0,0,-1,2036,1506,0,0
-700,-489,0,0,0,0,0,0,0,0,0,-1,524,1513,0,0
-693,-489,0,0,0,0,0,0,0,0,0,-1,531,1513,0,0
-686,-489,0,0,0,0,0,0,0,0,0,-1,538,1513,0,0
-679,-489,0,0,0,0,0,0,0,0,0,-1,545,1513,0,0
-672,-489,0,0,0,0,0,0,0,0,0,-1,552,1513,0,0
-665,-489,0,0,0,0,0,0,0,0,0,-1,559,1513,0,0
-658,-489,0,0,0,0,0,0,0,0,0,-1,566,1513,0,0
-651,-489,0,0,0,0,0,0,0,0,0,-1,573,1513,0,0
-644,-489,0,0,0,0,0,0,0,0,0,-1,580,1513,0,0
-637,-489,0,0,0,0,0,0,0,0,0,-1,587,1513,0,0
-630,-489,0,0,0,0,0,0,0,0,0,-1,594,1513,0,0
-623,-489,0,0,0,0,0,0,0,0,0,-1,601,1513,0,0
-616,-489,0,0,0,0,0,0,0,0,0,-1,608,1513,0,0
-609,-489,0,0,0,0,0,0,0,0,0,-1,615,1513,0,0
-602,-489,0,0,0,0,0,0,0,0,0,-1,622,1513,0,0
-595,-489,0,0,0,0,0,0,0,0,0,-1,629,1513,0,0
-588,-489,0,0,0,0,0,0,0,0,0,-1,636,1513,0,0
-581,-489,0,0,0,0,0,0,0,0,0,-1,643,1513,0,0
-574,-489,0,0,0,0,0,0,0,0,0,-1,650,1513,0,0
-567,-489,0,0,0,0,0,0,0,0,0,-1,657,1513,0,0
-560,-489,0,0,0,0,0,0,0,0,0,-1,664,1513,0,0
-553,-489,-9.42206,8.5116,0,0,0,0,0,0,0,-1,671,1513,-9.42205,-8.51158
-546,-489,-7.80951,8.18506,0,0,0,0,0,0,0,-1,678,1513,-7.8095,-8.18503
-539,-489,-3.06879,2.82349,0,0,0,0,0,0,0,-1,685,1513,-3.06881,-2.82354
-532,-489,-3.14215,2.5835,0,0,0,0,0,0,0,-1,692,1513,-3.14213,-2.58353
-525,-489,-2.604,4.06274,0,0,0,0,0,0,0,-1,699,1513,-2.60399,-4.06274
-518,-489,-5.43774,7.48059,0,0,0,0,0,0,0,-1,706,1513,-5.43777,-7.48058
-511,-489,-7.52856,10.951,0,0,0,0,0,0,0,-1,713,1513,-7.52857,-10.951
-504,-489,-7.00171,11.9862,0,0,0,0,0,0,0,-1,720,1513,-7.00169,-11.9862
-497,-489,-4.62683,13.236,0,0,0,0,0,0,0,-1,727,1513,-4.62685,-13.236
-490,-489,-4.89288,13.4557,-0.00932712,-0.00304993,-0.00268595,-0.00205753,-0.0103195,-1.21688,0.00630672,0.0398603,734,1513,-4.89286,-13.4557
-483,-489,-5.07947,13.9066,-0.00739905,-0.0025227,-0.0024343,-0.00151551,-0.00840624,-1.17849,0.00517352,0.0170768,741,1513,-5.07945,-13.9066
-476,-489,-5.0708,14.4595,-0.0054959,-0.00189086,-0.00193605,-0.00104812,-0.00633864,-1.16025,0.00392333,0.00993449,748,1513,-5.07083,-14.4594
-469,-489,-5.0755,14.9889,-0.00357996,-0.00115523,-0.00118592,-0.000671644,-0.00406355,-1.18361,0.00251522,0.010127,755,1513,-5.07551,-14.9889
-462,-489,-5.08466,15.5222,-0.00169118,-0.000389851,-0.000271082,-0.00033564,-0.00174539,-1.37342,0.00106942,0.0148637,762,1513,-5.08466,-15.5223
-455,-489,-5.11829,16.0419,0.00012629,0.000385063,0.000720848,0.000988044,-0.000476691,0.874198,0.000862672,0.0192766,769,1513,-5.11826,-16.0419
-448,-489,-5.16394,16.522,0.00195591,0.00129934,0.00182425,0.00348118,-0.000225926,0.696373,0.00239964,0.0177117,776,1513,-5.16392,-16.522
-441,-489,-5.15466,17.0422,0.00378879,0.00241033,0.00318434,0.00635763,-0.000158509,0.67882,0.00429224,0.0156856,783,1513,-5.15465,-17.0422
-434,-489,-5.17432,17.5499,0.00560861,0.00372055,0.00471707,0.00947518,-0.000146027,0.686638,0.00636602,0.0177444,790,1513,-5.17435,-17.5499
-427,-489,-5.19049,18.0605,0.00735305,0.0054062,0.00637096,0.0128245,-6.52713e-05,0.709589,0.00857152,0.0191951,797,1513,-5.19048,-18.0605
-420,-489,-5.20282,18.6923,0.00913651,0.007367,0.00825307,0.0165521,-4.85992e-05,0.732001,0.011051,0.0231611,804,1513,-5.20284,-18.6923
-413,-489,-5.1604,19.3939,0,0,0,0,0,0,0,-1,811,1513,-5.1604,-19.394
-406,-489,-3.10559,15.8143,0,0,0,0,0,0,0,-1,818,1513,-3.10556,-15.8143
-399,-489,-1.41241,9.10718,0,0,0,0,0,0,0,-1,825,1513,-1.41244,-9.10722
-392,-489,-1.0368,9.30469,0,0,0,0,0,0,0,-1,832,1513,-1.03682,-9.30466
-385,-489,-1.75165,10.6559,0,0,0,0,0,0,0,-1,839,1513,-1.75165,-10.6559
-378,-489,-0.401428,9.87048,0,0,0,0,0,0,0,-1,846,1513,-0.401415,-9.87047
-371,-489,-1.11633,10.6606,0,0,0,0,0,0,0,-1,853,1513,-1.11633,-10.6606
-364,-489,-0.503113,8.98486,0,0,0,0,0,0,0,-1,860,1513,-0.503097,-8.98482
-357,-489,-0.609924,10.9606,0,0,0,0,0,0,0,-1,867,1513,-0.609947,-10.9605
-350,-489,-7.94659,-0.358887,0,0,0,0,0,0,0,-1,874,1513,-7.94657,0.358912
-343,-489,-7.49323,-0.437866,0,0,0,0,0,0,0,-1,881,1513,-7.49322,0.437823
-336,-489,-7.02332,-0.53125,0,0,0,0,0,0,0,-1,888,1513,-7.0233,0.531295
-329,-489,-8.34747,2.06458,0,0,0,0,0,0,0,-1,895,1513,-8.34748,-2.0646
-322,-489,0,0,0,0,0,0,0,0,0,-1,902,1513,0,0
-315,-489,0,0,0,0,0,0,0,0,0,-1,909,1513,0,0
-308,-489,0,0,0,0,0,0,0,0,0,-1,916,1513,0,0
-301,-489,0,0,0,0,0,0,0,0,0,-1,923,1513,0,0
-294,-489,0,0,0,0,0,0,0,0,0,-1,930,1513,0,0
-287,-489,0,0,0,0,0,0,0,0,0,-1,937,1513,0,0
-280,-489,0,0,0,0,0,0,0,0,0,-1,944,1513,0,0
-273,-489,0,0,0,0,0,0,0,0,0,-1,951,1513,0,0
-266,-489,0,0,0,0,0,0,0,0,0,-1,958,1513,0,0
-259,-489,0,0,0,0,0,0,0,0,0,-1,965,1513,0,0
-252,-489,0,0,0,0,0,0,0,0,0,-1,972,1513,0,0
-245,-489,0,0,0,0,0,0,0,0,0,-1,979,1513,0,0
-238,-489,0,0,0,0,0,0,0,0,0,-1,986,1513,0,0
-231,-489,0,0,0,0,0,0,0,0,0,-1,993,1513,0,0
-224,-489,0,0,0,0,0,0,0,0,0,-1,1000,1513,0,0
-217,-489,0,0,0,0,0,0,0,0,0,-1,1007,1513,0,0
-210,-489,0,0,0,0,0,0,0,0,0,-1,1014,1513,0,0
-203,-489,0,0,0,0,0,0,0,0,0,-1,1021,1513,0,0
-196,-489,0,0,0,0,0,0,0,0,0,-1,1028,1513,0,0
-189,-489,0,0,0,0,0,0,0,0,0,-1,1035,1513,0,0
-182,-489,0,0,0,0,0,0,0,0,0,-1,1042,1513,0,0
-175,-489,0,0,0,0,0,0,0,0,0,-1,1049,1513,0,0
-168,-489,0,0,0,0,0,0,0,0,0,-1,1056,1513,0,0
-161,-489,0,0,0,0,0,0,0,0,0,-1,1063,1513,0,0
-154,-489,0,0,0,0,0,0,0,0,0,-1,1070,1513,0,0
-147,-489,0,0,0,0,0,0,0,0,0,-1,1077,1513,0,0
-140,-489,0,0,0,0,0,0,0,0,0,-1,1084,1513,0,0
-133,-489,0,0,0,0,0,0,0,0,0,-1,1091,1513,0,0
-126,-489,0,0,0,0,0,0,0,0,0,-1,1098,1513,0,0
-119,-489,0,0,0,0,0,0,0,0,0,-1,1105,1513,0,0
-112,-489,0,0,0,0,0,0,0,0,0,-1,1112,1513,0,0
-105,-489,0,0,0,0,0,0,0,0,0,-1,1119,1513,0,0
-98,-489,0,0,0,0,0,0,0,0,0,-1,1126,1513,0,0
-91,-489,0,0,0,0,0,0,0,0,0,-1,1133,1513,0,0
-84,-489,0,0,0,0,0,0,0,0,0,-1,1140,1513,0,0
-77,-489,0,0,0,0,0,0,0,0,0,-1,1147,1513,0,0
-70,-489,0,0,0,0,0,0,0,0,0,-1,1154,1513,0,0
-63,-489,0,0,0,0,0,0,0,0,0,-1,1161,1513,0,0
-56,-489,0,0,0,0,0,0,0,0,0,-1,1168,1513,0,0
-49,-489,0,0,0,0,0,0,0,0,0,-1,1175,1513,0,0
-42,-489,0,0,0,0,0,0,0,0,0,-1,1182,1513,0,0
-35,-489,0,0,0,0,0,0,0,0,0,-1,1189,1513,0,0
-28,-489,0,0,0,0,0,0,0,0,0,-1,1196,1513,0,0
-21,-489,0,0,0,0,0,0,0,0,0,-1,1203,1513,0,0
-14,-489,0,0,0,0,0,0,0,0,0,-1,1210,1513,0,0
-7,-489,0,0,0,0,0,0,0,0,0,-1,1217,1513,0,0
0,-489,0,0,0,0,0,0,0,0,0,-1,1224,1513,0,0
7,-489,0,0,0,0,0,0,0,0,0,-1,1231,1513,0,0
14,-489,0,0,0,0,0,0,0,0,0,-1,1238,1513,0,0
21,-489,0,0,0,0,0,0,0,0,0,-1,1245,1513,0,0
28,-489,0,0,0,0,0,0,0,0,0,-1,1252,1513,0,0
35,-489,0,0,0,0,0,0,0,0,0,-1,1259,1513,0,0
42,-489,0,0,0,0,0,0,0,0,0,-1,1266,1513,0,0
49,-489,0,0,0,0,0,0,0,0,0,-1,1273,1513,0,0
56,-489,0,0,0,0,0,0,0,0,0,-1,1280,1513,0,0
63,-489,0,0,0,0,0,0,0,0,0,-1,1287,1513,0,0
70,-489,0,0,0,0,0,0,0,0,0,-1,1294,1513,0,0
77,-489,0,0,0,0,0,0,0,0,0,-1,1301,1513,0,0
84,-489,0,0,0,0,0,0,0,0,0,-1,1308,1513,0,0
91,-489,0,0,0,0,0,0,0,0,0,-1,1315,1513,0,0
98,-489,0,0,0,0,0,0,0,0,0,-1,1322,1513,0,0
105,-489,0,0,0,0,0,0,0,0,0,-1,1329,1513,0,0
112,-489,0,0,0,0,0,0,0,0,0,-1,1336,1513,0,0
119,-489,0,0,0,0,0,0,0,0,0,-1,1343,1513,0,0
126,-489,0,0,0,0,0,0,0,0,0,-1,1350,1513,0,0
133,-489,0,0,0,0,0,0,0,0,0,-1,1357,1513,0,0
140,-489,0,0,0,0,0,0,0,0,0,-1,1364,1513,0,0
147,-489,0,0,0,0,0,0,0,0,0,-1,1371,1513,0,0
154,-489,0,0,0,0,0,0,0,0,0,-1,1378,1513,0,0
161,-489,0,0,0,0,0,0,0,0,0,-1,1385,1513,0,0
168,-489,0,0,0,0,0,0,0,0,0,-1,1392,1513,0,0
175,-489,0,0,0,0,0,0,0,0,0,-1,1399,1513,0,0
182,-489,0,0,0,0,0,0,0,0,0,-1,1406,1513,0,0
189,-489,0,0,0,0,0,0,0,0,0,-1,1413,1513,0,0
196,-489,0,0,0,0,0,0,0,0,0,-1,1420,1513,0,0
203,-489,0,0,0,0,0,0,0,0,0,-1,1427,1513,0,0
210,-489,0,0,0,0,0,0,0,0,0,-1,1434,1513,0,0
217,-489,0,0,0,0,0,0,0,0,0,-1,1441,1513,0,0
224,-489,0,0,0,0,0,0,0,0,0,-1,1448,1513,0,0
231,-489,0,0,0,0,0,0,0,0,0,-1,1455,1513,0,0
238,-489,0,0,0,0,0,0,0,0,0,-1,1462,1513,0,0
245,-489,0,0,0,0,0,0,0,0,0,-1,1469,1513,0,0
252,-489,0,0,0,0,0,0,0,0,0,-1,1476,1513,0,0
259,-489,0,0,0,0,0,0,0,0,0,-1,1483,1513,0,0
266,-489,0,0,0,0,0,0,0,0,0,-1,1490,1513,0,0
273,-489,0,0,0,0,0,0,0,0,0,-1,1497,1513,0,0
280,-489,0,0,0,0,0,0,0,0,0,-1,1504,1513,0,0
287,-489,0,0,0,0,0,0,0,0,0,-1,1511,1513,0,0
294,-489,0,0,0,0,0,0,0,0,0,-1,1518,1513,0,0
301,-489,0,0,0,0,0,0,0,0,0,-1,1525,1513,0,0
308,-489,0,0,0,0,0,0,0,0,0,-1,1532,1513,0,0
315,-489,0,0,0,0,0,0,0,0,0,-1,1539,1513,0,0
322,-489,0,0,0,0,0,0,0,0,0,-1,1546,1513,0,0
329,-489,0,0,0,0,0,0,0,0,0,-1,1553,1513,0,0
336,-489,0,0,0,0,0,0,0,0,0,-1,1560,1513,0,0
343,-489,0,0,0,0,0,0,0,0,0,-1,1567,1513,0,0
350,-489,0,0,0,0,0,0,0,0,0,-1,1574,1513,0,0
357,-489,0,0,0,0,0,0,0,0,0,-1,1581,1513,0,0
364,-489,0,0,0,0,0,0,0,0,0,-1,1588,1513,0,0
371,-489,0,0,0,0,0,0,0,0,0,-1,1595,1513,0,0
378,-489,0,0,0,0,0,0,0,0,0,-1,1602,1513,0,0
385,-489,0,0,0,0,0,0,0,0,0,-1,1609,1513,0,0
392,-489,0,0,0,0,0,0,0,0,0,-1,1616,1513,0,0
399,-489,0,0,0,0,0,0,0,0,0,-1,1623,1513,0,0
406,-489,0,0,0,0,0,0,0,0,0,-1,1630,1513,0,0
413,-489,0,0,0,0,0,0,0,0,0,-1,1637,1513,0,0
420,-489,0,0,0,0,0,0,0,0,0,-1,1644,1513,0,0
427,-489,0,0,0,0,0,0,0,0,0,-1,1651,1513,0,0
434,-489,0,0,0,0,0,0,0,0,0,-1,1658,1513,0,0
441,-489,11.4602,2.56787,0,0,0,0,0,0,0,-1,1665,1513,11.4602,-2.56786
448,-489,12.4425,1.72351,0,0,0,0,0,0,0,-1,1672,1513,12.4425,-1.72349
455,-489,12.5575,1.37463,0,0,0,0,0,0,0,-1,1679,1513,12.5575,-1.37469
462,-489,14.9784,3.84888,0,0,0,0,0,0,0,-1,1686,1513,14.9784,-3.84892
469,-489,15.1367,4.53101,0,0,0,0,0,0,0,-1,1693,1513,15.1368,-4.531
476,-489,15.5536,5.09338,0,0,0,0,0,0,0,-1,1700,1513,15.5536,-5.09339
483,-489,8.96912,8.37805,0,0,0,0,0,0,0,-1,1707,1513,8.96909,-8.37809
490,-489,10.5366,7.49561,0,0,0,0,0,0,0,-1,1714,1513,10.5367,-7.49558
497,-489,14.6051,11.8397,0,0,0,0,0,0,0,-1,1721,1513,14.6051,-11.8397
504,-489,16.7527,14.1735,0,0,0,0,0,0,0,-1,1728,1513,16.7527,-14.1735
511,-489,17.83,17.7993,0,0,0,0,0,0,0,-1,1735,1513,17.83,-17.7993
518,-489,16.4751,14.3682,0,0,0,0,0,0,0,-1,1742,1513,16.4751,-14.3682
525,-489,17.2606,17.4949,0,0,0,0,0,0,0,-1,1749,1513,17.2606,-17.4949
532,-489,19.397,21.0182,0,0,0,0,0,0,0,-1,1756,1513,19.397,-21.0182
539,-489,19.7844,21.0513,0,0,0,0,0,0,0,-1,1763,1513,19.7844,-21.0513
546,-489,19.8949,20.4406,0.00609754,0.00420636,-0.00328527,0.00857059,0.0017333,-0.645272,0.00523255,0.0225903,1770,1513,19.8949,-20.4405
553,-489,19.8983,19.8391,0.00489897,0.00312694,-0.00240941,0.00658011,0.0014458,-0.609207,0.00399303,0.01784,1777,1513,19.8983,-19.8391
560,-489,19.9089,19.3335,0.0039829,0.00229701,-0.00182911,0.00515396,0.00112595,-0.569478,0.00312893,0.0137857,1784,1513,19.909,-19.3335
567,-489,19.9165,18.8809,0.00318824,0.00180106,-0.00150426,0.00415111,0.000838185,-0.569383,0.00253464,0.0162262,1791,1513,19.9165,-18.8808
574,-489,19.8699,18.4482,0.00307334,0.00122026,-0.00139043,0.00381766,0.000475943,-0.4915,0.00240223,0.0155244,1798,1513,19.8699,-18.4482
581,-489,19.8979,17.9631,0.00318311,0.000609117,-0.00133335,0.00374927,4.29602e-05,-0.401543,0.00248532,0.0101144,1805,1513,19.898,-17.9631
588,-489,19.8812,17.4884,0.00359581,1.35574e-05,-0.00138169,0.00406681,-0.000457439,-0.328531,0.00287584,0.012796,1812,1513,19.8812,-17.4884
595,-489,19.8588,16.9957,0.00438834,-0.00062646,-0.00145592,0.00478038,-0.0010185,-0.263034,0.00357511,0.0199698,1819,1513,19.8588,-16.9957
602,-489,19.8562,16.4832,0.00539903,-0.00133791,-0.00158846,0.00575477,-0.00169365,-0.220322,0.00450839,0.0253486,1826,1513,19.8562,-16.4832
609,-489,19.8224,16.0334,0.00661238,-0.00215247,-0.00168612,0.00692555,-0.00246565,-0.183644,0.00562213,0.017345,1833,1513,19.8224,-16.0334
616,-489,19.8099,15.5588,0.00824466,-0.00311589,-0.00172816,0.00850173,-0.00337296,-0.14767,0.00706579,0.0164652,1840,1513,19.8099,-15.5588
623,-489,19.8055,15.1205,0.0101005,-0.00426122,-0.00167352,0.0102929,-0.00445365,-0.114483,0.00873359,0.0343824,1847,1513,19.8055,-15.1205
630,-489,19.8854,14.5776,0,0,0,0,0,0,0,-1,1854,1513,19.8853,-14.5776
637,-489,17.2048,11.8091,0,0,0,0,0,0,0,-1,1861,1513,17.2048,-11.8091
644,-489,9.67578,8.45874,0,0,0,0,0,0,0,-1,1868,1513,9.67576,-8.45879
651,-489,6.13818,6.85095,0,0,0,0,0,0,0,-1,1875,1513,6.13823,-6.85097
658,-489,5.43848,7.75513,0,0,0,0,0,0,0,-1,1882,1513,5.43844,-7.75509
665,-489,5.48438,8.59912,0,0,0,0,0,0,0,-1,1889,1513,5.48434,-8.59907
672,-489,0,0,0,0,0,0,0,0,0,-1,1896,1513,0,0
679,-489,0,0,0,0,0,0,0,0,0,-1,1903,1513,0,0
686,-489,0,0,0,0,0,0,0,0,0,-1,1910,1513,0,0
693,-489,0,0,0,0,0,0,0,0,0,-1,1917,1513,0,0
700,-489,0,0,0,0,0,0,0,0,0,-1,1924,1513,0,0
707,-489,0,0,0,0,0,0,0,0,0,-1,1931,1513,0,0
714,-489,0,0,0,0,0,0,0,0,0,-1,1938,1513,0,0
721,-489,0,0,0,0,0,0,0,0,0,-1,1945,1513,0,0
728,-489,0,0,0,0,0,0,0,0,0,-1,1952,1513,0,0
735,-489,0,0,0,0,0,0,0,0,0,-1,1959,1513,0,0
742,-489,0,0,0,0,0,0,0,0,0,-1,1966,1513,0,0
749,-489,0,0,0,0,0,0,0,0,0,-1,1973,1513,0,0
756,-489,0,0,0,0,0,0,0,0,0,-1,1980,1513,0,0
763,-489,0,0,0,0,0,0,0,0,0,-1,1987,1513,0,0
770,-489,0,0,0,0,0,0,0,0,0,-1,1994,1513,0,0
777,-489,0,0,0,0,0,0,0,0,0,-1,2001,1513,0,0
784,-489,0,0,0,0,0,0,0,0,0,-1,2008,1513,0,0
791,-489,0,0,0,0,0,0,0,0,0,-1,2015,1513,0,0
798,-489,0,0,0,0,0,0,0,0,0,-1,2022,1513,0,0
805,-489,0,0,0,0,0,0,0,0,0,-1,2029,1513,0,0
812,-489,0,0,0,0,0,0,0,0,0,-1,2036,1513,0,0
-700,-496,0,0,0,0,0,0,0,0,0,-1,524,1520,0,0
-693,-496,0,0,0,0,0,0,0,0,0,-1,531,1520,0,0
-686,-496,0,0,0,0,0,0,0,0,0,-1,538,1520,0,0
-679,-496,0,0,0,0,0,0,0,0,0,-1,545,1520,0,0
-672,-496,0,0,0,0,0,0,0,0,0,-1,552,1520,0,0
-665,-496,0,0,0,0,0,0,0,0,0,-1,559,1520,0,0
-658,-496,0,0,0,0,0,0,0,0,0,-1,566,1520,0,0
-651,-496,0,0,0,0,0,0,0,0,0,-1,573,1520,0,0
-644,-496,0,0,0,0,0,0,0,0,0,-1,580,1520,0,0
-637,-496,0,0,0,0,0,0,0,0,0,-1,587,1520,0,0
-630,-496,0,0,0,0,0,0,0,0,0,-1,594,1520,0,0
-623,-496,0,0,0,0,0,0,0,0,0,-1,601,1520,0,0
-616,-496,0,0,0,0,0,0,0,0,0,-1,608,1520,0,0
-609,-496,0,0,0,0,0,0,0,0,0,-1,615,1520,0,0
-602,-496,0,0,0,0,0,0,0,0,0,-1,622,1520,0,0
-595,-496,0,0,0,0,0,0,0,0,0,-1,629,1520,0,0
-588,-496,0,0,0,0,0,0,0,0,0,-1,636,1520,0,0
-581,-496,0,0,0,0,0,0,0,0,0,-1,643,1520,0,0
-574,-496,0,0,0,0,0,0,0,0,0,-1,650,1520,0,0
-567,-496,0,0,0,0,0,0,0,0,0,-1,657,1520,0,0
-560,-496,0,0,0,0,0,0,0,0,0,-1,664,1520,0,0
-553,-496,0,0,0,0,0,0,0,0,0,-1,671,1520,0,0
-546,-496,-8.09711,7.94836,0,0,0,0,0,0,0,-1,678,1520,-8.09712,-7.94842
-539,-496,-3.20129,1.16052,0,0,0,0,0,0,0,-1,685,1520,-3.20131,-1.16054
-532,-496,-2.98279,2.62146,0,0,0,0,0,0,0,-1,692,1520,-2.98278,-2.62151
-525,-496,-2.75201,4.08032,0,0,0,0,0,0,0,-1,699,1520,-2.75201,-4.08031
-518,-496,-2.6333,5.36072,0,0,0,0,0,0,0,-1,706,1520,-2.63328,-5.36077
-511,-496,-7.92126,9.68604,0,0,0,0,0,0,0,-1,713,1520,-7.92127,-9.68598
-504,-496,-7.51044,11.6274,0,0,0,0,0,0,0,-1,720,1520,-7.51042,-11.6275
-497,-496,-4.39661,13.201,0,0,0,0,0,0,0,-1,727,1520,-4.3966,-13.201
-490,-496,-4.40833,13.6588,-0.0121346,-0.00286585,-0.00382377,-0.00149201,-0.0135084,-1.22587,0.00855177,0.0459339,734,1520,-4.4083,-13.6588
-483,-496,-4.50604,14.0825,-0.00961098,-0.00225297,-0.00329052,-0.000996128,-0.0108678,-1.20594,0.00693705,0.0285018,741,1520,-4.50607,-14.0826
-476,-496,-4.5752,14.486,-0.0073125,-0.00162365,-0.00262979,-0.000594244,-0.0083419,-1.19769,0.00537415,0.0132888,748,1520,-4.5752,-14.4859
-469,-496,-4.57611,15.0173,-0.00516197,-0.000952107,-0.00182427,-0.000271594,-0.00584248,-1.21375,0.00380769,0.0101411,755,1520,-4.57612,-15.0173
-462,-496,-4.59778,15.5326,-0.00314478,-0.000311148,-0.000905752,-4.63718e-05,-0.00340956,-1.28639,0.00225774,0.0145504,762,1520,-4.59775,-15.5326
-455,-496,-4.633,16.0403,-0.00130153,0.000283926,1.36424e-05,0.000284043,-0.00130165,1.56219,0.000976318,0.0202123,769,1520,-4.63298,-16.0403
-448,-496,-4.64148,16.5537,0.000460537,0.000950224,0.000959191,0.00169533,-0.000284567,0.91036,0.00123604,0.0191195,776,1520,-4.64151,-16.5537
-441,-496,-4.63776,17.0665,0.00215782,0.00179651,0.00211947,0.00410432,-0.000149992,0.742884,0.00278756,0.0146792,783,1520,-4.63777,-17.0665
-434,-496,-4.66937,17.5774,0.00379446,0.00285868,0.00341618,0.00677464,-0.000121505,0.717341,0.00455747,0.0132798,790,1520,-4.66935,-17.5774
-427,-496,-4.67316,18.0889,0.00536724,0.00422653,0.00483681,0.0096672,-7.3432e-05,0.726709,0.00646942,0.0167788,797,1520,-4.67315,-18.0888
-420,-496,-4.67218,18.5887,0.0069006,0.0058055,0.00638813,0.0127646,-5.85066e-05,0.742646,0.00852931,0.0184184,804,1520,-4.67216,-18.5887
-413,-496,-4.61115,19.1379,0.00863395,0.00782602,0.00831813,0.0165579,-9.79416e-05,0.761135,0.0110714,0.02793,811,1520,-4.61115,-19.1379
-406,-496,-4.46234,19.7024,0,0,0,0,0,0,0,-1,818,1520,-4.46237,-19.7024
-399,-496,-4.19794,20.6426,0,0,0,0,0,0,0,-1,825,1520,-4.19794,-20.6426
-392,-496,-1.49786,12.387,0,0,0,0,0,0,0,-1,832,1520,-1.49788,-12.387
-385,-496,-1.72437,11.4985,0,0,0,0,0,0,0,-1,839,1520,-1.72436,-11.4985
-378,-496,-1.45532,14.0719,0,0,0,0,0,0,0,-1,846,1520,-1.45533,-14.0719
-371,-496,0.0877075,12.5299,0,0,0,0,0,0,0,-1,853,1520,0.0876896,-12.5299
-364,-496,0.0881348,10.6422,0,0,0,0,0,0,0,-1,860,1520,0.0881368,-10.6423
-357,-496,0.323792,7.56812,0,0,0,0,0,0,0,-1,867,1520,0.323782,-7.56806
-350,-496,2.1535,7.18945,0,0,0,0,0,0,0,-1,874,1520,2.15348,-7.1894
-343,-496,-7.56244,0.335327,0,0,0,0,0,0,0,-1,881,1520,-7.56242,-0.335322
-336,-496,-3.99249,6.02222,0,0,0,0,0,0,0,-1,888,1520,-3.99246,-6.0222
-329,-496,-6.93689,-0.100342,0,0,0,0,0,0,0,-1,895,1520,-6.93686,0.1003
-322,-496,-6.17505,0.494385,0,0,0,0,0,0,0,-1,902,1520,-6.17507,-0.49437
-315,-496,-7.539,5.78638,0,0,0,0,0,0,0,-1,909,1520,-7.53898,-5.78633
-308,-496,0,0,0,0,0,0,0,0,0,-1,916,1520,0,0
-301,-496,0,0,0,0,0,0,0,0,0,-1,923,1520,0,0
-294,-496,0,0,0,0,0,0,0,0,0,-1,930,1520,0,0
-287,-496,0,0,0,0,0,0,0,0,0,-1,937,1520,0,0
-280,-496,0,0,0,0,0,0,0,0,0,-1,944,1520,0,0
-273,-496,0,0,0,0,0,0,0,0,0,-1,951,1520,0,0
-266,-496,0,0,0,0,0,0,0,0,0,-1,958,1520,0,0
-259,-496,0,0,0,0,0,0,0,0,0,-1,965,1520,0,0
-252,-496,0,0,0,0,0,0,0,0,0,-1,972,1520,0,0
-245,-496,0,0,0,0,0,0,0,0,0,-1,979,1520,0,0
-238,-496,0,0,0,0,0,0,0,0,0,-1,986,1520,0,0
-231,-496,0,0,0,0,0,0,0,0,0,-1,993,1520,0,0
-224,-496,0,0,0,0,0,0,0,0,0,-1,1000,1520,0,0
-217,-496,0,0,0,0,0,0,0,0,0,-1,1007,1520,0,0
-210,-496,0,0,0,0,0,0,0,0,0,-1,1014,1520,0,0
-203,-496,0,0,0,0,0,0,0,0,0,-1,1021,1520,0,0
-196,-496,0,0,0,0,0,0,0,0,0,-1,1028,1520,0,0
-189,-496,0,0,0,0,0,0,0,0,0,-1,1035,1520,0,0
-182,-496,0,0,0,0,0,0,0,0,0,-1,1042,1520,0,0
-175,-496,0,0,0,0,0,0,0,0,0,-1,1049,1520,0,0
-168,-496,0,0,0,0,0,0,0,0,0,-1,1056,1520,0,0
-161,-496,0,0,0,0,0,0,0,0,0,-1,1063,1520,0,0
-154,-496,0,0,0,0,0,0,0,0,0,-1,1070,1520,0,0
-147,-496,0,0,0,0,0,0,0,0,0,-1,1077,1520,0,0
-140,-496,0,0,0,0,0,0,0,0,0,-1,1084,1520,0,0
-133,-496,0,0,0,0,0,0,0,0,0,-1,1091,1520,0,0
-126,-496,0,0,0,0,0,0,0,0,0,-1,1098,1520,0,0
-119,-496,0,0,0,0,0,0,0,0,0,-1,1105,1520,0,0
-112,-496,0,0,0,0,0,0,0,0,0,-1,1112,1520,0,0
-105,-496,0,0,0,0,0,0,0,0,0,-1,1119,1520,0,0
-98,-496,0,0,0,0,0,0,0,0,0,-1,1126,1520,0,0
-91,-496,0,0,0,0,0,0,0,0,0,-1,1133,1520,0,0
-84,-496,0,0,0,0,0,0,0,0,0,-1,1140,1520,0,0
-77,-496,0,0,0,0,0,0,0,0,0,-1,1147,1520,0,0
-70,-496,0,0,0,0,0,0,0,0,0,-1,1154,1520,0,0
-63,-496,0,0,0,0,0,0,0,0,0,-1,1161,1520,0,0
-56,-496,0,0,0,0,0,0,0,0,0,-1,1168,1520,0,0
-49,-496,0,0,0,0,0,0,0,0,0,-1,1175,1520,0,0
-42,-496,0,0,0,0,0,0,0,0,0,-1,1182,1520,0,0
-35,-496,0,0,0,0,0,0,0,0,0,-1,1189,1520,0,0
-28,-496,0,0,0,0,0,0,0,0,0,-1,1196,1520,0,0
-21,-496,0,0,0,0,0,0,0,0,0,-1,1203,1520,0,0
-14,-496,0,0,0,0,0,0,0,0,0,-1,1210,1520,0,0
-7,-496,0,0,0,0,0,0,0,0,0,-1,1217,1520,0,0
0,-496,0,0,0,0,0,0,0,0,0,-1,1224,1520,0,0
7,-496,0,0,0,0,0,0,0,0,0,-1,1231,1520,0,0
14,-496,0,0,0,0,0,0,0,0,0,-1,1238,1520,0,0
21,-496,0,0,0,0,0,0,0,0,0,-1,1245,1520,0,0
28,-496,0,0,0,0,0,0,0,0,0,-1,1252,1520,0,0
35,-496,0,0,0,0,0,0,0,0,0,-1,1259,1520,0,0
42,-496,0,0,0,0,0,0,0,0,0,-1,1266,1520,0,0
49,-496,0,0,0,0,0,0,0,0,0,-1,1273,1520,0,0
56,-496,0,0,0,0,0,0,0,0,0,-1,1280,1520,0,0
63,-496,0,0,0,0,0,0,0,0,0,-1,1287,1520,0,0
70,-496,0,0,0,0,0,0,0,0,0,-1,1294,1520,0,0
77,-496,0,0,0,0,0,0,0,0,0,-1,1301,1520,0,0
84,-496,0,0,0,0,0,0,0,0,0,-1,1308,1520,0,0
91,-496,0,0,0,0,0,0,0,0,0,-1,1315,1520,0,0
98,-496,0,0,0,0,0,0,0,0,0,-1,1322,1520,0,0
105,-496,0,0,0,0,0,0,0,0,0,-1,1329,1520,0,0
112,-496,0,0,0,0,0,0,0,0,0,-1,1336,1520,0,0
119,-496,0,0,0,0,0,0,0,0,0,-1,1343,1520,0,0
126,-496,0,0,0,0,0,0,0,0,0,-1,1350,1520,0,0
133,-496,0,0,0,0,0,0,0,0,0,-1,1357,1520,0,0
140,-496,0,0,0,0,0,0,0,0,0,-1,1364,1520,0,0
147,-496,0,0,0,0,0,0,0,0,0,-1,1371,1520,0,0
154,-496,0,0,0,0,0,0,0,0,0,-1,1378,1520,0,0
161,-496,0,0,0,0,0,0,0,0,0,-1,1385,1520,0,0
168,-496,0,0,0,0,0,0,0,0,0,-1,1392,1520,0,0
175,-496,0,0,0,0,0,0,0,0,0,-1,1399,1520,0,0
182,-496,0,0,0,0,0,0,0,0,0,-1,1406,1520,0,0
189,-496,0,0,0,0,0,0,0,0,0,-1,1413,1520,0,0
196,-496,0,0,0,0,0,0,0,0,0,-1,1420,1520,0,0
203,-496,0,0,0,0,0,0,0,0,0,-1,1427,1520,0,0
210,-496,0,0,0,0,0,0,0,0,0,-1,1434,1520,0,0
217,-496,0,0,0,0,0,0,0,0,0,-1,1441,1520,0,0
224,-496,0,0,0,0,0,0,0,0,0,-1,1448,1520,0,0
231,-496,0,0,0,0,0,0,0,0,0,-1,1455,1520,0,0
238,-496,0,0,0,0,0,0,0,0,0,-1,1462,1520,0,0
245,-496,0,0,0,0,0,0,0,0,0,-1,1469,1520,0,0
252,-496,0,0,0,0,0,0,0,0,0,-1,1476,1520,0,0
259,-496,0,0,0,0,0,0,0,0,0,-1,1483,1520,0,0
266,-496,0,0,0,0,0,0,0,0,0,-1,1490,1520,0,0
273,-496,0,0,0,0,0,0,0,0,0,-1,1497,1520,0,0
280,-496,0,0,0,0,0,0,0,0,0,-1,1504,1520,0,0
287,-496,0,0,0,0,0,0,0,0,0,-1,1511,1520,0,0
294,-496,0,0,0,0,0,0,0,0,0,-1,1518,1520,0,0
301,-496,0,0,0,0,0,0,0,0,0,-1,1525,1520,0,0
308,-496,0,0,0,0,0,0,0,0,0,-1,1532,1520,0,0
315,-496,0,0,0,0,0,0,0,0,0,-1,1539,1520,0,0
322,-496,0,0,0,0,0,0,0,0,0,-1,1546,1520,0,0
329,-496,0,0,0,0,0,0,0,0,0,-1,1553,1520,0,0
336,-496,0,0,0,0,0,0,0,0,0,-1,1560,1520,0,0
343,-496,0,0,0,0,0,0,0,0,0,-1,1567,1520,0,0
350,-496,0,0,0,0,0,0,0,0,0,-1,1574,1520,0,0
357,-496,0,0,0,0,0,0,0,0,0,-1,1581,1520,0,0
364,-496,0,0,0,0,0,0,0,0,0,-1,1588,1520,0,0
371,-496,0,0,0,0,0,0,0,0,0,-1,1595,1520,0,0
378,-496,0,0,0,0,0,0,0,0,0,-1,1602,1520,0,0
385,-496,0,0,0,0,0,0,0,0,0,-1,1609,1520,0,0
392,-496,0,0,0,0,0,0,0,0,0,-1,1616,1520,0,0
399,-496,0,0,0,0,0,0,0,0,0,-1,1623,1520,0,0
406,-496,0,0,0,0,0,0,0,0,0,-1,1630,1520,0,0
413,-496,0,0,0,0,0,0,0,0,0,-1,1637,1520,0,0
420,-496,0,0,0,0,0,0,0,0,0,-1,1644,1520,0,0
427,-496,0,0,0,0,0,0,0,0,0,-1,1651,1520,0,0
434,-496,11.0457,3.37732,0,0,0,0,0,0,0,-1,1658,1520,11.0456,-3.37736
441,-496,11.788,2.75488,0,0,0,0,0,0,0,-1,1665,1520,11.7879,-2.75485
448,-496,12.2146,2.18494,0,0,0,0,0,0,0,-1,1672,1520,12.2146,-2.18489
455,-496,12.3489,1.65173,0,0,0,0,0,0,0,-1,1679,1520,12.3489,-1.65178
462,-496,12.1912,1.32361,0,0,0,0,0,0,0,-1,1686,1520,12.1911,-1.32357
469,-496,14.8138,5.77954,0,0,0,0,0,0,0,-1,1693,1520,14.8138,-5.77958
476,-496,15.2449,6.27942,0,0,0,0,0,0,0,-1,1700,1520,15.2449,-6.27936
483,-496,9.19812,6.88367,0,0,0,0,0,0,0,-1,1707,1520,9.19812,-6.88361
490,-496,10.2123,7.97144,0,0,0,0,0,0,0,-1,1714,1520,10.2122,-7.97145
497,-496,13.9297,12.2981,0,0,0,0,0,0,0,-1,1721,1520,13.9297,-12.2982
504,-496,16.3271,16.6501,0,0,0,0,0,0,0,-1,1728,1520,16.3272,-16.6502
511,-496,17.6753,18.0685,0,0,0,0,0,0,0,-1,1735,1520,17.6753,-18.0685
518,-496,17.0537,17.3118,0,0,0,0,0,0,0,-1,1742,1520,17.0538,-17.3118
525,-496,18.2721,19.3259,0,0,0,0,0,0,0,-1,1749,1520,18.2721,-19.3259
532,-496,19.5725,20.9817,0,0,0,0,0,0,0,-1,1756,1520,19.5725,-20.9817
539,-496,19.2373,20.9077,0,0,0,0,0,0,0,-1,1763,1520,19.2373,-20.9077
546,-496,19.3794,20.3507,0.0053271,0.0037424,-0.00299309,0.00763094,0.00143856,-0.656004,0.00468203,0.0151876,1770,1520,19.3793,-20.3507
553,-496,19.4636,19.8081,0.00427635,0.00273662,-0.00218796,0.00582594,0.00118704,-0.616231,0.00355496,0.0160621,1777,1520,19.4636,-19.8081
560,-496,19.4548,19.3547,0.00350088,0.00196626,-0.00165498,0.00455777,0.00090937,-0.56833,0.00278532,0.0146909,1784,1520,19.4549,-19.3548
567,-496,19.4431,18.8789,0.00309993,0.0013986,-0.00141654,0.0039016,0.000596933,-0.514996,0.00242669,0.0121024,1791,1520,19.4431,-18.879
574,-496,19.4186,18.417,0.00319271,0.000837542,-0.0013637,0.0038169,0.000213357,-0.429251,0.00247655,0.0118491,1798,1520,19.4185,-18.4169
581,-496,19.4102,17.9763,0.00355261,0.00023382,-0.00138848,0.00405689,-0.000270456,-0.348372,0.0027991,0.0122919,1805,1520,19.4102,-17.9764
588,-496,19.4193,17.5215,0.0042689,-0.000356467,-0.00155024,0.00474041,-0.000827978,-0.295264,0.00346936,0.0151265,1812,1520,19.4194,-17.5214
595,-496,19.3987,17.0522,0.00542686,-0.00101329,-0.00175455,0.00587384,-0.00146027,-0.249451,0.00448265,0.0172247,1819,1520,19.3987,-17.0522
602,-496,19.3888,16.5391,0.00692413,-0.00176802,-0.00203873,0.00737856,-0.00222245,-0.21931,0.00580348,0.0185205,1826,1520,19.3888,-16.5391
609,-496,19.385,16.0394,0.00874875,-0.00268578,-0.00232909,0.00920496,-0.00314199,-0.193425,0.00740946,0.0161486,1833,1520,19.385,-16.0394
616,-496,19.4314,15.476,0.0112345,-0.00387417,-0.00256387,0.0116577,-0.00429739,-0.163596,0.00953283,0.0338789,1840,1520,19.4314,-15.476
623,-496,19.3662,14.7899,0,0,0,0,0,0,0,-1,1847,1520,19.3663,-14.7899
630,-496,18.5656,13.8966,0,0,0,0,0,0,0,-1,1854,1520,18.5655,-13.8967
637,-496,14.6411,10.1016,0,0,0,0,0,0,0,-1,1861,1520,14.6411,-10.1016
644,-496,12.4537,10.087,0,0,0,0,0,0,0,-1,1868,1520,12.4537,-10.0871
651,-496,8.18506,5.47803,0,0,0,0,0,0,0,-1,1875,1520,8.18505,-5.47806
658,-496,7.79993,4.02563,0,0,0,0,0,0,0,-1,1882,1520,7.79997,-4.02568
665,-496,5.47583,7.90625,0,0,0,0,0,0,0,-1,1889,1520,5.47581,-7.90628
672,-496,0,0,0,0,0,0,0,0,0,-1,1896,1520,0,0
679,-496,0,0,0,0,0,0,0,0,0,-1,1903,1520,0,0
686,-496,0,0,0,0,0,0,0,0,0,-1,1910,1520,0,0
693,-496,0,0,0,0,0,0,0,0,0,-1,1917,1520,0,0
700,-496,0,0,0,0,0,0,0,0,0,-1,1924,1520,0,0
707,-496,0,0,0,0,0,0,0,0,0,-1,1931,1520,0,0
714,-496,0,0,0,0,0,0,0,0,0,-1,1938,1520,0,0
721,-496,0,0,0,0,0,0,0,0,0,-1,1945,1520,0,0
728,-496,0,0,0,0,0,0,0,0,0,-1,1952,1520,0,0
735,-496,0,0,0,0,0,0,0,0,0,-1,1959,1520,0,0
742,-496,0,0,0,0,0,0,0,0,0,-1,1966,1520,0,0
749,-496,0,0,0,0,0,0,0,0,0,-1,1973,1520,0,0
756,-496,0,0,0,0,0,0,0,0,0,-1,1980,1520,0,0
763,-496,0,0,0,0,0,0,0,0,0,-1,1987,1520,0,0
770,-496,0,0,0,0,0,0,0,0,0,-1,1994,1520,0,0
777,-496,0,0,0,0,0,0,0,0,0,-1,2001,1520,0,0
784,-496,0,0,0,0,0,0,0,0,0,-1,2008,1520,0,0
791,-496,0,0,0,0,0,0,0,0,0,-1,2015,1520,0,0
798,-496,0,0,0,0,0,0,0,0,0,-1,2022,1520,0,0
805,-496,0,0,0,0,0,0,0,0,0,-1,2029,1520,0,0
812,-496,0,0,0,0,0,0,0,0,0,-1,2036,1520,0,0
-700,-503,0,0,0,0,0,0,0,0,0,-1,524,1527,0,0
-693,-503,0,0,0,0,0,0,0,0,0,-1,531,1527,0,0
-686,-503,0,0,0,0,0,0,0,0,0,-1,538,1527,0,0
-679,-503,0,0,0,0,0,0,0,0,0,-1,545,1527,0,0
-672,-503,0,0,0,0,0,0,0,0,0,-1,552,1527,0,0
-665,-503,0,0,0,0,0,0,0,0,0,-1,559,1527,0,0
-658,-503,0,0,0,0,0,0,0,0,0,-1,566,1527,0,0
-651,-503,0,0,0,0,0,0,0,0,0,-1,573,1527,0,0
-644,-503,0,0,0,0,0,0,0,0,0,-1,580,1527,0,0
-637,-503,0,0,0,0,0,0,0,0,0,-1,587,1527,0,0
-630,-503,0,0,0,0,0,0,0,0,0,-1,594,1527,0,0
-623,-503,0,0,0,0,0,0,0,0,0,-1,601,1527,0,0
-616,-503,0,0,0,0,0,0,0,0,0,-1,608,1527,0,0
-609,-503,0,0,0,0,0,0,0,0,0,-1,615,1527,0,0
-602,-503,0,0,0,0,0,0,0,0,0,-1,622,1527,0,0
-595,-503,0,0,0,0,0,0,0,0,0,-1,629,1527,0,0
-588,-503,0,0,0,0,0,0,0,0,0,-1,636,1527,0,0
-581,-503,0,0,0,0,0,0,0,0,0,-1,643,1527,0,0
-574,-503,0,0,0,0,0,0,0,0,0,-1,650,1527,0,0
-567,-503,0,0,0,0,0,0,0,0,0,-1,657,1527,0,0
-560,-503,0,0,0,0,0,0,0,0,0,-1,664,1527,0,0
-553,-503,0,0,0,0,0,0,0,0,0,-1,671,1527,0,0
-546,-503,0,0,0,0,0,0,0,0,0,-1,678,1527,0,0
-539,-503,3.50177,4.26428,0,0,0,0,0,0,0,-1,685,1527,3.50177,-4.26424
-532,-503,-3.13196,1.05298,0,0,0,0,0,0,0,-1,692,1527,-3.13194,-1.05299
-525,-503,-2.94293,2.59314,0,0,0,0,0,0,0,-1,699,1527,-2.94296,-2.59314
-518,-503,-2.7395,4.05872,0,0,0,0,0,0,0,-1,706,1527,-2.73948,-4.05871
-511,-503,-1.60022,7.23877,0,0,0,0,0,0,0,-1,713,1527,-1.60023,-7.23872
-504,-503,-8.1402,10.1541,0,0,0,0,0,0,0,-1,720,1527,-8.14017,-10.1541
-497,-503,-4.37592,13.5675,0,0,0,0,0,0,0,-1,727,1527,-4.37592,-13.5675
-490,-503,-3.71204,13.6921,0,0,0,0,0,0,0,-1,734,1527,-3.71202,-13.6921
-483,-503,-3.7439,14.118,-0.011396,-0.00126078,-0.00370953,-4.81624e-05,-0.0126087,-1.25485,0.00838977,0.0467084,741,1527,-3.74391,-14.118
-476,-503,-3.995,14.5898,-0.00859416,-0.000686098,-0.0028321,0.000223527,-0.00950379,-1.26002,0.00641166,0.0252421,748,1527,-3.99497,-14.5898
-469,-503,-4.07788,15.0391,-0.00615388,-0.000142245,-0.00195107,0.000435456,-0.00673159,-1.28293,0.00463969,0.0113323,755,1527,-4.07785,-15.0391
-462,-503,-4.09015,15.5691,-0.0040098,0.000307628,-0.00104293,0.000546362,-0.00424853,-1.34577,0.00303093,0.0116186,762,1527,-4.09014,-15.5691
-455,-503,-4.10858,16.1058,-0.00216268,0.000676956,-0.000214857,0.000693121,-0.00217884,-1.4957,0.00173051,0.0177814,769,1527,-4.10861,-16.1058
-448,-503,-4.10394,16.6041,-0.000518046,0.00104742,0.000539022,0.00121507,-0.000685689,1.26927,0.0011115,0.0160652,776,1527,-4.10394,-16.6041
-441,-503,-4.11011,17.0881,0.00098423,0.00158282,0.0014501,0.00276419,-0.000197142,0.887166,0.0019119,0.0127442,783,1527,-4.1101,-17.0881
-434,-503,-4.15509,17.5778,0.00238274,0.00235695,0.00247033,0.00484021,-0.000100517,0.782788,0.00326083,0.0110138,790,1527,-4.15508,-17.5777
-427,-503,-4.17548,18.0707,0.00373482,0.00340489,0.00362389,0.0071975,-5.77918e-05,0.762653,0.00481771,0.0164103,797,1527,-4.17545,-18.0707
-420,-503,-4.17249,18.5573,0.00499203,0.00464461,0.00483607,0.00965751,-2.08728e-05,0.767446,0.00644531,0.0174817,804,1527,-4.17246,-18.5572
-413,-503,-4.18219,19.0728,0.0063557,0.00631986,0.00632675,0.0126646,1.10073e-05,0.783982,0.00843937,0.0168968,811,1527,-4.1822,-19.0728
-406,-503,-4.16553,19.5917,0.0079406,0.00845045,0.00818302,0.0163825,8.53557e-06,0.80097,0.0109188,0.0241744,818,1527,-4.16553,-19.5917
-399,-503,-4.04742,20.2837,0.00994411,0.0119624,0.0106933,0.0216941,0.000212403,0.832444,0.0143924,0.0389929,825,1527,-4.04741,-20.2838
-392,-503,-3.76282,21.1553,0,0,0,0,0,0,0,-1,832,1527,-3.76285,-21.1552
-385,-503,-2.00403,14.1218,0,0,0,0,0,0,0,-1,839,1527,-2.00403,-14.1218
-378,-503,-2.07043,13.8632,0,0,0,0,0,0,0,-1,846,1527,-2.07043,-13.8631
-371,-503,-1.67285,13.8081,0,0,0,0,0,0,0,-1,853,1527,-1.67285,-13.8081
-364,-503,0.181396,12.3768,0,0,0,0,0,0,0,-1,860,1527,0.18138,-12.3768
-357,-503,0.558533,9.25452,0,0,0,0,0,0,0,-1,867,1527,0.558542,-9.25446
-350,-503,0.219971,6.84827,0,0,0,0,0,0,0,-1,874,1527,0.21996,-6.84831
-343,-503,-3.5802,4.43274,0,0,0,0,0,0,0,-1,881,1527,-3.58018,-4.43276
-336,-503,-3.2384,6.40637,0,0,0,0,0,0,0,-1,888,1527,-3.2384,-6.40643
-329,-503,-1.70691,11.886,0,0,0,0,0,0,0,-1,895,1527,-1.70689,-11.886
-322,-503,-3.31317,8.81519,0,0,0,0,0,0,0,-1,902,1527,-3.31315,-8.81524
-315,-503,-3.90265,7.73853,0,0,0,0,0,0,0,-1,909,1527,-3.90264,-7.73854
-308,-503,-1.70264,7.35413,0,0,0,0,0,0,0,-1,916,1527,-1.70262,-7.35416
-301,-503,0,0,0,0,0,0,0,0,0,-1,923,1527,0,0
-294,-503,0,0,0,0,0,0,0,0,0,-1,930,1527,0,0
-287,-503,0,0,0,0,0,0,0,0,0,-1,937,1527,0,0
-280,-503,0,0,0,0,0,0,0,0,0,-1,944,1527,0,0
-273,-503,0,0,0,0,0,0,0,0,0,-1,951,1527,0,0
-266,-503,0,0,0,0,0,0,0,0,0,-1,958,1527,0,0
-259,-503,0,0,0,0,0,0,0,0,0,-1,965,1527,0,0
-252,-503,0,0,0,0,0,0,0,0,0,-1,972,1527,0,0
-245,-503,0,0,0,0,0,0,0,0,0,-1,979,1527,0,0
-238,-503,0,0,0,0,0,0,0,0,0,-1,986,1527,0,0
-231,-503,0,0,0,0,0,0,0,0,0,-1,993,1527,0,0
-224,-503,0,0,0,0,0,0,0,0,0,-1,1000,1527,0,0
-217,-503,0,0,0,0,0,0,0,0,0,-1,1007,1527,0,0
-210,-503,0,0,0,0,0,0,0,0,0,-1,1014,1527,0,0
-203,-503,0,0,0,0,0,0,0,0,0,-1,1021,1527,0,0
-196,-503,0,0,0,0,0,0,0,0,0,-1,1028,1527,0,0
-189,-503,0,0,0,0,0,0,0,0,0,-1,1035,1527,0,0
-182,-503,0,0,0,0,0,0,0,0,0,-1,1042,1527,0,0
-175,-503,0,0,0,0,0,0,0,0,0,-1,1049,1527,0,0
-168,-503,0,0,0,0,0,0,0,0,0,-1,1056,1527,0,0
-161,-503,0,0,0,0,0,0,0,0,0,-1,1063,1527,0,0
-154,-503,0,0,0,0,0,0,0,0,0,-1,1070,1527,0,0
-147,-503,0,0,0,0,0,0,0,0,0,-1,1077,1527,0,0
-140,-503,0,0,0,0,0,0,0,0,0,-1,1084,1527,0,0
-133,-503,0,0,0,0,0,0,0,0,0,-1,1091,1527,0,0
-126,-503,0,0,0,0,0,0,0,0,0,-1,1098,1527,0,0
-119,-503,0,0,0,0,0,0,0,0,0,-1,1105,1527,0,0
-112,-503,0,0,0,0,0,0,0,0,0,-1,1112,1527,0,0
-105,-503,0,0,0,0,0,0,0,0,0,-1,1119,1527,0,0
-98,-503,0,0,0,0,0,0,0,0,0,-1,1126,1527,0,0
-91,-503,0,0,0,0,0,0,0,0,0,-1,1133,1527,0,0
-84,-503,0,0,0,0,0,0,0,0,0,-1,1140,1527,0,0
-77,-503,0,0,0,0,0,0,0,0,0,-1,1147,1527,0,0
-70,-503,0,0,0,0,0,0,0,0,0,-1,1154,1527,0,0
-63,-503,0,0,0,0,0,0,0,0,0,-1,1161,1527,0,0
-56,-503,0,0,0,0,0,0,0,0,0,-1,1168,1527,0,0
-49,-503,0,0,0,0,0,0,0,0,0,-1,1175,1527,0,0
-42,-503,0,0,0,0,0,0,0,0,0,-1,1182,1527,0,0
-35,-503,0,0,0,0,0,0,0,0,0,-1,1189,1527,0,0
-28,-503,0,0,0,0,0,0,0,0,0,-1,1196,1527,0,0
-21,-503,0,0,0,0,0,0,0,0,0,-1,1203,1527,0,0
-14,-503,0,0,0,0,0,0,0,0,0,-1,1210,1527,0,0
-7,-503,0,0,0,0,0,0,0,0,0,-1,1217,1527,0,0
0,-503,0,0,0,0,0,0,0,0,0,-1,1224,1527,0,0
7,-503,0,0,0,0,0,0,0,0,0,-1,1231,1527,0,0
14,-503,0,0,0,0,0,0,0,0,0,-1,1238,1527,0,0
21,-503,0,0,0,0,0,0,0,0,0,-1,1245,1527,0,0
28,-503,0,0,0,0,0,0,0,0,0,-1,1252,1527,0,0
35,-503,0,0,0,0,0,0,0,0,0,-1,1259,1527,0,0
42,-503,0,0,0,0,0,0,0,0,0,-1,1266,1527,0,0
49,-503,0,0,0,0,0,0,0,0,0,-1,1273,1527,0,0
56,-503,0,0,0,0,0,0,0,0,0,-1,1280,1527,0,0
63,-503,0,0,0,0,0,0,0,0,0,-1,1287,1527,0,0
70,-503,0,0,0,0,0,0,0,0,0,-1,1294,1527,0,0
77,-503,0,0,0,0,0,0,0,0,0,-1,1301,1527,0,0
84,-503,0,0,0,0,0,0,0,0,0,-1,1308,1527,0,0
91,-503,0,0,0,0,0,0,0,0,0,-1,1315,1527,0,0
98,-503,0,0,0,0,0,0,0,0,0,-1,1322,1527,0,0
105,-503,0,0,0,0,0,0,0,0,0,-1,1329,1527,0,0
112,-503,0,0,0,0,0,0,0,0,0,-1,1336,1527,0,0
119,-503,0,0,0,0,0,0,0,0,0,-1,1343,1527,0,0
126,-503,0,0,0,0,0,0,0,0,0,-1,1350,1527,0,0
133,-503,0,0,0,0,0,0,0,0,0,-1,1357,1527,0,0
140,-503,0,0,0,0,0,0,0,0,0,-1,1364,1527,0,0
147,-503,0,0,0,0,0,0,0,0,0,-1,1371,1527,0,0
154,-503,0,0,0,0,0,0,0,0,0,-1,1378,1527,0,0
161,-503,0,0,0,0,0,0,0,0,0,-1,1385,1527,0,0
168,-503,0,0,0,0,0,0,0,0,0,-1,1392,1527,0,0
175,-503,0,0,0,0,0,0,0,0,0,-1,1399,1527,0,0
182,-503,0,0,0,0,0,0,0,0,0,-1,1406,1527,0,0
189,-503,0,0,0,0,0,0,0,0,0,-1,1413,1527,0,0
196,-503,0,0,0,0,0,0,0,0,0,-1,1420,1527,0,0
203,-503,0,0,0,0,0,0,0,0,0,-1,1427,1527,0,0
210,-503,0,0,0,0,0,0,0,0,0,-1,1434,1527,0,0
217,-503,0,0,0,0,0,0,0,0,0,-1,1441,1527,0,0
224,-503,0,0,0,0,0,0,0,0,0,-1,1448,1527,0,0
231,-503,0,0,0,0,0,0,0,0,0,-1,1455,1527,0,0
238,-503,0,0,0,0,0,0,0,0,0,-1,1462,1527,0,0
245,-503,0,0,0,0,0,0,0,0,0,-1,1469,1527,0,0
252,-503,0,0,0,0,0,0,0,0,0,-1,1476,1527,0,0
259,-503,0,0,0,0,0,0,0,0,0,-1,1483,1527,0,0
266,-503,0,0,0,0,0,0,0,0,0,-1,1490,1527,0,0
273,-503,0,0,0,0,0,0,0,0,0,-1,1497,1527,0,0
280,-503,0,0,0,0,0,0,0,0,0,-1,1504,1527,0,0
287,-503,0,0,0,0,0,0,0,0,0,-1,1511,1527,0,0
294,-503,0,0,0,0,0,0,0,0,0,-1,1518,1527,0,0
301,-503,0,0,0,0,0,0,0,0,0,-1,1525,1527,0,0
308,-503,0,0,0,0,0,0,0,0,0,-1,1532,1527,0,0
315,-503,0,0,0,0,0,0,0,0,0,-1,1539,1527,0,0
322,-503,0,0,0,0,0,0,0,0,0,-1,1546,1527,0,0
329,-503,0,0,0,0,0,0,0,0,0,-1,1553,1527,0,0
336,-503,0,0,0,0,0,0,0,0,0,-1,1560,1527,0,0
343,-503,0,0,0,0,0,0,0,0,0,-1,1567,1527,0,0
350,-503,0,0,0,0,0,0,0,0,0,-1,1574,1527,0,0
357,-503,0,0,0,0,0,0,0,0,0,-1,1581,1527,0,0
364,-503,0,0,0,0,0,0,0,0,0,-1,1588,1527,0,0
371,-503,0,0,0,0,0,0,0,0,0,-1,1595,1527,0,0
378,-503,0,0,0,0,0,0,0,0,0,-1,1602,1527,0,0
385,-503,0,0,0,0,0,0,0,0,0,-1,1609,1527,0,0
392,-503,0,0,0,0,0,0,0,0,0,-1,1616,1527,0,0
399,-503,0,0,0,0,0,0,0,0,0,-1,1623,1527,0,0
406,-503,0,0,0,0,0,0,0,0,0,-1,1630,1527,0,0
413,-503,0,0,0,0,0,0,0,0,0,-1,1637,1527,0,0
420,-503,0,0,0,0,0,0,0,0,0,-1,1644,1527,0,0
427,-503,10.5968,4.9856,0,0,0,0,0,0,0,-1,1651,1527,10.5969,-4.98563
434,-503,11.4329,3.97217,0,0,0,0,0,0,0,-1,1658,1527,11.4328,-3.97222
441,-503,12.0957,2.96509,0,0,0,0,0,0,0,-1,1665,1527,12.0957,-2.96512
448,-503,12.3259,2.53894,0,0,0,0,0,0,0,-1,1672,1527,12.326,-2.53895
455,-503,12.1669,2.18762,0,0,0,0,0,0,0,-1,1679,1527,12.1668,-2.18767
462,-503,11.59,2.60791,0,0,0,0,0,0,0,-1,1686,1527,11.5899,-2.60794
469,-503,11.1625,1.61853,0,0,0,0,0,0,0,-1,1693,1527,11.1625,-1.61856
476,-503,9.07703,5.81042,0,0,0,0,0,0,0,-1,1700,1527,9.07699,-5.81047
483,-503,9.74414,6.92432,0,0,0,0,0,0,0,-1,1707,1527,9.74417,-6.9243
490,-503,10.5033,10.1071,0,0,0,0,0,0,0,-1,1714,1527,10.5032,-10.107
497,-503,15.0057,17.9476,0,0,0,0,0,0,0,-1,1721,1527,15.0058,-17.9476
504,-503,16.4764,18.4486,0,0,0,0,0,0,0,-1,1728,1527,16.4764,-18.4486
511,-503,16.8276,18.3271,0,0,0,0,0,0,0,-1,1735,1527,16.8276,-18.3272
518,-503,17.2533,18.2738,0,0,0,0,0,0,0,-1,1742,1527,17.2533,-18.2738
525,-503,19.0686,21.5942,0,0,0,0,0,0,0,-1,1749,1527,19.0686,-21.5942
532,-503,18.942,21.2914,0,0,0,0,0,0,0,-1,1756,1527,18.942,-21.2913
539,-503,18.9357,20.806,0.00576966,0.00437124,-0.00359084,0.00872873,0.00141217,-0.689241,0.00541022,0.019399,1763,1527,18.9356,-20.8061
546,-503,18.9602,20.2817,0.00457485,0.0031419,-0.00257818,0.00653426,0.00118249,-0.649868,0.0040204,0.0133082,1770,1527,18.9602,-20.2818
553,-503,18.9818,19.8431,0.00367857,0.00223488,-0.00186513,0.00495667,0.000956778,-0.600764,0.00303619,0.0144342,1777,1527,18.9818,-19.8432
560,-503,18.9574,19.3724,0.00305158,0.00154469,-0.00139818,0.0038864,0.00070987,-0.538266,0.00238972,0.0135363,1784,1527,18.9574,-19.3725
567,-503,18.9689,18.886,0.00302515,0.000946089,-0.00126015,0.00361921,0.00035203,-0.440521,0.00230444,0.0121445,1791,1527,18.9688,-18.886
574,-503,18.963,18.4241,0.00333833,0.000442085,-0.00129439,0.0038325,-5.20898e-05,-0.364702,0.00257254,0.0122978,1798,1527,18.963,-18.424
581,-503,18.9325,17.9746,0.0039852,-0.00010122,-0.00144151,0.00444252,-0.000558541,-0.307208,0.00316433,0.0131991,1805,1527,18.9325,-17.9746
588,-503,18.9315,17.5272,0.00506631,-0.000632458,-0.00176572,0.00556905,-0.0011352,-0.277384,0.00414327,0.016038,1812,1527,18.9315,-17.5273
595,-503,18.9374,17.0548,0.00667776,-0.00125551,-0.0021674,0.00723128,-0.00180904,-0.250041,0.00552352,0.0130246,1819,1527,18.9373,-17.0548
602,-503,18.9774,16.5181,0.00879348,-0.00200343,-0.00268608,0.00942481,-0.00263477,-0.230849,0.00732124,0.0255849,1826,1527,18.9774,-16.5181
609,-503,18.9741,16.0237,0,0,0,0,0,0,0,-1,1833,1527,18.9741,-16.0236
616,-503,18.7964,15.8962,0.0150325,-0.00445077,-0.00381588,0.0157532,-0.00517146,-0.186669,0.0125853,0.0482275,1840,1527,18.7963,-15.8962
623,-503,19.5684,14.8752,0,0,0,0,0,0,0,-1,1847,1527,19.5684,-14.8753
630,-503,20.5392,13.8899,0,0,0,0,0,0,0,-1,1854,1527,20.5391,-13.8899
637,-503,14.5564,9.20496,0,0,0,0,0,0,0,-1,1861,1527,14.5564,-9.2049
644,-503,11.4802,7.57214,0,0,0,0,0,0,0,-1,1868,1527,11.4802,-7.57215
651,-503,11.5718,6.5448,0,0,0,0,0,0,0,-1,1875,1527,11.5718,-6.54476
658,-503,8.25635,3.10498,0,0,0,0,0,0,0,-1,1882,1527,8.2563,-3.10493
665,-503,0,0,0,0,0,0,0,0,0,-1,1889,1527,0,0
672,-503,0,0,0,0,0,0,0,0,0,-1,1896,1527,0,0
679,-503,0,0,0,0,0,0,0,0,0,-1,1903,1527,0,0
686,-503,0,0,0,0,0,0,0,0,0,-1,1910,1527,0,0
693,-503,0,0,0,0,0,0,0,0,0,-1,1917,1527,0,0
700,-503,0,0,0,0,0,0,0,0,0,-1,1924,1527,0,0
707,-503,0,0,0,0,0,0,0,0,0,-1,1931,1527,0,0
714,-503,0,0,0,0,0,0,0,0,0,-1,1938,1527,0,0
721,-503,0,0,0,0,0,0,0,0,0,-1,1945,1527,0,0
728,-503,0,0,0,0,0,0,0,0,0,-1,1952,1527,0,0
735,-503,0,0,0,0,0,0,0,0,0,-1,1959,1527,0,0
742,-503,0,0,0,0,0,0,0,0,0,-1,1966,1527,0,0
749,-503,0,0,0,0,0,0,0,0,0,-1,1973,1527,0,0
756,-503,0,0,0,0,0,0,0,0,0,-1,1980,1527,0,0
763,-503,0,0,0,0,0,0,0,0,0,-1,1987,1527,0,0
770,-503,0,0,0,0,0,0,0,0,0,-1,1994,1527,0,0
777,-503,0,0,0,0,0,0,0,0,0,-1,2001,1527,0,0
784,-503,0,0,0,0,0,0,0,0,0,-1,2008,1527,0,0
791,-503,0,0,0,0,0,0,0,0,0,-1,2015,1527,0,0
798,-503,0,0,0,0,0,0,0,0,0,-1,2022,1527,0,0
805,-503,0,0,0,0,0,0,0,0,0,-1,2029,1527,0,0
812,-503,0,0,0,0,0,0,0,0,0,-1,2036,1527,0,0
-700,-510,0,0,0,0,0,0,0,0,0,-1,524,1534,0,0
-693,-510,0,0,0,0,0,0,0,0,0,-1,531,1534,0,0
-686,-510,0,0,0,0,0,0,0,0,0,-1,538,1534,0,0
-679,-510,0,0,0,0,0,0,0,0,0,-1,545,1534,0,0
-672,-510,0,0,0,0,0,0,0,0,0,-1,552,1534,0,0
-665,-510,0,0,0,0,0,0,0,0,0,-1,559,1534,0,0
-658,-510,0,0,0,0,0,0,0,0,0,-1,566,1534,0,0
-651,-510,0,0,0,0,0,0,0,0,0,-1,573,1534,0,0
-644,-510,0,0,0,0,0,0,0,0,0,-1,580,1534,0,0
-637,-510,0,0,0,0,0,0,0,0,0,-1,587,1534,0,0
-630,-510,0,0,0,0,0,0,0,0,0,-1,594,1534,0,0
-623,-510,0,0,0,0,0,0,0,0,0,-1,601,1534,0,0
-616,-510,0,0,0,0,0,0,0,0,0,-1,608,1534,0,0
-609,-510,0,0,0,0,0,0,0,0,0,-1,615,1534,0,0
-602,-510,0,0,0,0,0,0,0,0,0,-1,622,1534,0,0
-595,-510,0,0,0,0,0,0,0,0,0,-1,629,1534,0,0
-588,-510,0,0,0,0,0,0,0,0,0,-1,636,1534,0,0
-581,-510,0,0,0,0,0,0,0,0,0,-1,643,1534,0,0
-574,-510,0,0,0,0,0,0,0,0,0,-1,650,1534,0,0
-567,-510,0,0,0,0,0,0,0,0,0,-1,657,1534,0,0
-560,-510,0,0,0,0,0,0,0,0,0,-1,664,1534,0,0
-553,-510,0,0,0,0,0,0,0,0,0,-1,671,1534,0,0
-546,-510,0,0,0,0,0,0,0,0,0,-1,678,1534,0,0
-539,-510,0,0,0,0,0,0,0,0,0,-1,685,1534,0,0
-532,-510,-3.95129,4.52014,0,0,0,0,0,0,0,-1,692,1534,-3.95131,-4.5202
-525,-510,-2.77411,0.316772,0,0,0,0,0,0,0,-1,699,1534,-2.77409,-0.3168
-518,-510,-2.86847,2.71423,0,0,0,0,0,0,0,-1,706,1534,-2.86849,-2.71424
-511,-510,-2.28571,4.48083,0,0,0,0,0,0,0,-1,713,1534,-2.28571,-4.48086
-504,-510,-4.86731,10.8224,0,0,0,0,0,0,0,-1,720,1534,-4.8673,-10.8224
-497,-510,-4.17883,15.0382,0,0,0,0,0,0,0,-1,727,1534,-4.17885,-15.0383
-490,-510,-2.77295,13.698,0,0,0,0,0,0,0,-1,734,1534,-2.77297,-13.698
-483,-510,-2.94568,14.0975,-0.0133006,0.000274724,-0.00411503,0.00142469,-0.0144505,-1.29829,0.010142,0.0444292,741,1534,-2.94568,-14.0975
-476,-510,-3.31085,14.5483,-0.00998932,0.000657621,-0.00300926,0.00144929,-0.010781,-1.31355,0.00771593,0.0392254,748,1534,-3.31088,-14.5483
-469,-510,-3.56158,15.0686,-0.00728414,0.000958929,-0.00207016,0.00144962,-0.00777482,-1.33806,0.0057279,0.0152766,755,1534,-3.56156,-15.0687
-462,-510,-3.57062,15.5848,-0.00503323,0.0011403,-0.0011785,0.00135763,-0.00525055,-1.38844,0.00402987,0.0125206,762,1534,-3.57064,-15.5848
-455,-510,-3.59503,16.1321,-0.00317991,0.00123822,-0.000430992,0.00127987,-0.00322156,-1.47446,0.00267828,0.0157108,769,1534,-3.59502,-16.1321
-448,-510,-3.58984,16.6355,-0.00162768,0.00128973,0.000160974,0.00129858,-0.00163653,1.51584,0.00169833,0.0133297,776,1534,-3.58983,-16.6355
-441,-510,-3.61804,17.1116,-0.000258759,0.00151587,0.000871318,0.00187215,-0.000615036,1.18265,0.00149587,0.0133326,783,1534,-3.61806,-17.1116
-434,-510,-3.68164,17.6016,0.00100945,0.00202594,0.00168735,0.00327993,-0.000244536,0.931681,0.00227252,0.0149513,790,1534,-3.68167,-17.6016
-427,-510,-3.68927,18.0758,0.00228779,0.00281314,0.00266315,0.00522654,-0.000125617,0.834556,0.00352698,0.0219761,797,1534,-3.68924,-18.0758
-420,-510,-3.69073,18.5687,0.00345785,0.00380522,0.00365554,0.0072912,-2.8129e-05,0.809136,0.0048702,0.020828,804,1534,-3.69074,-18.5687
-413,-510,-3.69141,19.0902,0.00469927,0.00524792,0.00487149,0.0098528,9.43914e-05,0.813525,0.0065373,0.0117198,811,1534,-3.69138,-19.0902
-406,-510,-3.7207,19.5878,0.00610874,0.00713216,0.00638337,0.0130243,0.000216605,0.825394,0.00861157,0.0112043,818,1534,-3.72068,-19.5877
-399,-510,-3.72681,20.079,0.00780135,0.0100768,0.00836192,0.017378,0.000500112,0.853013,0.0114223,0.0145615,825,1534,-3.72682,-20.079
-392,-510,-3.56769,20.8123,0.00988033,0.0140577,0.0108589,0.0230269,0.000911069,0.880411,0.0150568,0.0416278,832,1534,-3.56767,-20.8122
-385,-510,-3.427,21.6385,0,0,0,0,0,0,0,-1,839,1534,-3.42699,-21.6385
-378,-510,-1.78308,13.8044,0,0,0,0,0,0,0,-1,846,1534,-1.78309,-13.8044
-371,-510,-1.74982,13.8027,0,0,0,0,0,0,0,-1,853,1534,-1.74981,-13.8028
-364,-510,-1.3479,13.7771,0,0,0,0,0,0,0,-1,860,1534,-1.34791,-13.7771
-357,-510,-0.254395,8.89575,0,0,0,0,0,0,0,-1,867,1534,-0.254397,-8.89569
-350,-510,0.471191,6.06458,0,0,0,0,0,0,0,-1,874,1534,0.47118,-6.06453
-343,-510,-2.94617,5.00989,0,0,0,0,0,0,0,-1,881,1534,-2.94615,-5.00992
-336,-510,-4.33069,26.4395,0,0,0,0,0,0,0,-1,888,1534,-4.33068,-26.4395
-329,-510,-4.87781,20.6893,0,0,0,0,0,0,0,-1,895,1534,-4.87782,-20.6894
-322,-510,-0.251526,11.973,0,0,0,0,0,0,0,-1,902,1534,-0.251497,-11.9731
-315,-510,-1.73047,10.9796,0,0,0,0,0,0,0,-1,909,1534,-1.73049,-10.9796
-308,-510,-2.05328,9.72034,0,0,0,0,0,0,0,-1,916,1534,-2.05327,-9.72036
-301,-510,-1.85437,11.5869,0,0,0,0,0,0,0,-1,923,1534,-1.85437,-11.5869
-294,-510,0,0,0,0,0,0,0,0,0,-1,930,1534,0,0
-287,-510,0,0,0,0,0,0,0,0,0,-1,937,1534,0,0
-280,-510,0,0,0,0,0,0,0,0,0,-1,944,1534,0,0
-273,-510,0,0,0,0,0,0,0,0,0,-1,951,1534,0,0
-266,-510,0,0,0,0,0,0,0,0,0,-1,958,1534,0,0
-259,-510,0,0,0,0,0,0,0,0,0,-1,965,1534,0,0
-252,-510,0,0,0,0,0,0,0,0,0,-1,972,1534,0,0
-245,-510,0,0,0,0,0,0,0,0,0,-1,979,1534,0,0
-238,-510,0,0,0,0,0,0,0,0,0,-1,986,1534,0,0
-231,-510,0,0,0,0,0,0,0,0,0,-1,993,1534,0,0
-224,-510,0,0,0,0,0,0,0,0,0,-1,1000,1534,0,0
-217,-510,0,0,0,0,0,0,0,0,0,-1,1007,1534,0,0
-210,-510,0,0,0,0,0,0,0,0,0,-1,1014,1534,0,0
-203,-510,0,0,0,0,0,0,0,0,0,-1,1021,1534,0,0
-196,-510,0,0,0,0,0,0,0,0,0,-1,1028,1534,0,0
-189,-510,0,0,0,0,0,0,0,0,0,-1,1035,1534,0,0
-182,-510,0,0,0,0,0,0,0,0,0,-1,1042,1534,0,0
-175,-510,0,0,0,0,0,0,0,0,0,-1,1049,1534,0,0
-168,-510,0,0,0,0,0,0,0,0,0,-1,1056,1534,0,0
-161,-510,0,0,0,0,0,0,0,0,0,-1,1063,1534,0,0
-154,-510,0,0,0,0,0,0,0,0,0,-1,1070,1534,0,0
-147,-510,0,0,0,0,0,0,0,0,0,-1,1077,1534,0,0
-140,-510,0,0,0,0,0,0,0,0,0,-1,1084,1534,0,0
-133,-510,0,0,0,0,0,0,0,0,0,-1,1091,1534,0,0
-126,-510,0,0,0,0,0,0,0,0,0,-1,1098,1534,0,0
-119,-510,0,0,0,0,0,0,0,0,0,-1,1105,1534,0,0
-112,-510,0,0,0,0,0,0,0,0,0,-1,1112,1534,0,0
-105,-510,0,0,0,0,0,0,0,0,0,-1,1119,1534,0,0
-98,-510,0,0,0,0,0,0,0,0,0,-1,1126,1534,0,0
-91,-510,0,0,0,0,0,0,0,0,0,-1,1133,1534,0,0
-84,-510,0,0,0,0,0,0,0,0,0,-1,1140,1534,0,0
-77,-510,0,0,0,0,0,0,0,0,0,-1,1147,1534,0,0
-70,-510,0,0,0,0,0,0,0,0,0,-1,1154,1534,0,0
-63,-510,0,0,0,0,0,0,0,0,0,-1,1161,1534,0,0
-56,-510,0,0,0,0,0,0,0,0,0,-1,1168,1534,0,0
-49,-510,0,0,0,0,0,0,0,0,0,-1,1175,1534,0,0
-42,-510,0,0,0,0,0,0,0,0,0,-1,1182,1534,0,0
-35,-510,0,0,0,0,0,0,0,0,0,-1,1189,1534,0,0
-28,-510,0,0,0,0,0,0,0,0,0,-1,1196,1534,0,0
-21,-510,0,0,0,0,0,0,0,0,0,-1,1203,1534,0,0
-14,-510,0,0,0,0,0,0,0,0,0,-1,1210,1534,0,0
-7,-510,0,0,0,0,0,0,0,0,0,-1,1217,1534,0,0
0,-510,0,0,0,0,0,0,0,0,0,-1,1224,1534,0,0
7,-510,0,0,0,0,0,0,0,0,0,-1,1231,1534,0,0
14,-510,0,0,0,0,0,0,0,0,0,-1,1238,1534,0,0
21,-510,0,0,0,0,0,0,0,0,0,-1,1245,1534,0,0
28,-510,0,0,0,0,0,0,0,0,0,-1,1252,1534,0,0
35,-510,0,0,0,0,0,0,0,0,0,-1,1259,1534,0,0
42,-510,0,0,0,0,0,0,0,0,0,-1,1266,1534,0,0
49,-510,0,0,0,0,0,0,0,0,0,-1,1273,1534,0,0
56,-510,0,0,0,0,0,0,0,0,0,-1,1280,1534,0,0
63,-510,0,0,0,0,0,0,0,0,0,-1,1287,1534,0,0
70,-510,0,0,0,0,0,0,0,0,0,-1,1294,1534,0,0
77,-510,0,0,0,0,0,0,0,0,0,-1,1301,1534,0,0
84,-510,0,0,0,0,0,0,0,0,0,-1,1308,1534,0,0
91,-510,0,0,0,0,0,0,0,0,0,-1,1315,1534,0,0
98,-510,0,0,0,0,0,0,0,0,0,-1,1322,1534,0,0
105,-510,0,0,0,0,0,0,0,0,0,-1,1329,1534,0,0
112,-510,0,0,0,0,0,0,0,0,0,-1,1336,1534,0,0
119,-510,0,0,0,0,0,0,0,0,0,-1,1343,1534,0,0
126,-510,0,0,0,0,0,0,0,0,0,-1,1350,1534,0,0
133,-510,0,0,0,0,0,0,0,0,0,-1,1357,1534,0,0
140,-510,0,0,0,0,0,0,0,0,0,-1,1364,1534,0,0
147,-510,0,0,0,0,0,0,0,0,0,-1,1371,1534,0,0
154,-510,0,0,0,0,0,0,0,0,0,-1,1378,1534,0,0
161,-510,0,0,0,0,0,0,0,0,0,-1,1385,1534,0,0
168,-510,0,0,0,0,0,0,0,0,0,-1,1392,1534,0,0
175,-510,0,0,0,0,0,0,0,0,0,-1,1399,1534,0,0
182,-510,0,0,0,0,0,0,0,0,0,-1,1406,1534,0,0
189,-510,0,0,0,0,0,0,0,0,0,-1,1413,1534,0,0
196,-510,0,0,0,0,0,0,0,0,0,-1,1420,1534,0,0
203,-510,0,0,0,0,0,0,0,0,0,-1,1427,1534,0,0
210,-510,0,0,0,0,0,0,0,0,0,-1,1434,1534,0,0
217,-510,0,0,0,0,0,0,0,0,0,-1,1441,1534,0,0
224,-510,0,0,0,0,0,0,0,0,0,-1,1448,1534,0,0
231,-510,0,0,0,0,0,0,0,0,0,-1,1455,1534,0,0
238,-510,0,0,0,0,0,0,0,0,0,-1,1462,1534,0,0
245,-510,0,0,0,0,0,0,0,0,0,-1,1469,1534,0,0
252,-510,0,0,0,0,0,0,0,0,0,-1,1476,1534,0,0
259,-510,0,0,0,0,0,0,0,0,0,-1,1483,1534,0,0
266,-510,0,0,0,0,0,0,0,0,0,-1,1490,1534,0,0
273,-510,0,0,0,0,0,0,0,0,0,-1,1497,1534,0,0
280,-510,0,0,0,0,0,0,0,0,0,-1,1504,1534,0,0
287,-510,0,0,0,0,0,0,0,0,0,-1,1511,1534,0,0
294,-510,0,0,0,0,0,0,0,0,0,-1,1518,1534,0,0
301,-510,0,0,0,0,0,0,0,0,0,-1,1525,1534,0,0
308,-510,0,0,0,0,0,0,0,0,0,-1,1532,1534,0,0
315,-510,0,0,0,0,0,0,0,0,0,-1,1539,1534,0,0
322,-510,0,0,0,0,0,0,0,0,0,-1,1546,1534,0,0
329,-510,0,0,0,0,0,0,0,0,0,-1,1553,1534,0,0
336,-510,0,0,0,0,0,0,0,0,0,-1,1560,1534,0,0
343,-510,0,0,0,0,0,0,0,0,0,-1,1567,1534,0,0
350,-510,0,0,0,0,0,0,0,0,0,-1,1574,1534,0,0
357,-510,0,0,0,0,0,0,0,0,0,-1,1581,1534,0,0
364,-510,0,0,0,0,0,0,0,0,0,-1,1588,1534,0,0
371,-510,0,0,0,0,0,0,0,0,0,-1,1595,1534,0,0
378,-510,0,0,0,0,0,0,0,0,0,-1,1602,1534,0,0
385,-510,0,0,0,0,0,0,0,0,0,-1,1609,1534,0,0
392,-510,0,0,0,0,0,0,0,0,0,-1,1616,1534,0,0
399,-510,0,0,0,0,0,0,0,0,0,-1,1623,1534,0,0
406,-510,0,0,0,0,0,0,0,0,0,-1,1630,1534,0,0
413,-510,0,0,0,0,0,0,0,0,0,-1,1637,1534,0,0
420,-510,14.1888,6.71936,0,0,0,0,0,0,0,-1,1644,1534,14.1889,-6.71939
427,-510,10.2134,5.59485,0,0,0,0,0,0,0,-1,1651,1534,10.2134,-5.59485
434,-510,11.8219,4.07898,0,0,0,0,0,0,0,-1,1658,1534,11.8219,-4.07895
441,-510,12.6812,3.02991,0,0,0,0,0,0,0,-1,1665,1534,12.6811,-3.0299
448,-510,13.2379,2.2804,0,0,0,0,0,0,0,-1,1672,1534,13.2379,-2.28037
455,-510,9.76892,2.20642,0,0,0,0,0,0,0,-1,1679,1534,9.76894,-2.20647
462,-510,9.84692,2.49182,0,0,0,0,0,0,0,-1,1686,1534,9.84695,-2.49185
469,-510,16.6072,7.26941,0,0,0,0,0,0,0,-1,1693,1534,16.6072,-7.26945
476,-510,15.9199,7.8645,0,0,0,0,0,0,0,-1,1700,1534,15.9199,-7.86455
483,-510,13.0833,8.10938,0,0,0,0,0,0,0,-1,1707,1534,13.0833,-8.10932
490,-510,13.0841,15.3286,0,0,0,0,0,0,0,-1,1714,1534,13.0841,-15.3286
497,-510,15.5652,18.823,0,0,0,0,0,0,0,-1,1721,1534,15.5652,-18.823
504,-510,15.998,18.7478,0,0,0,0,0,0,0,-1,1728,1534,15.998,-18.7478
511,-510,15.9443,18.0476,0,0,0,0,0,0,0,-1,1735,1534,15.9443,-18.0476
518,-510,17.9249,21.9351,0,0,0,0,0,0,0,-1,1742,1534,17.9249,-21.9351
525,-510,18.2494,21.9142,0,0,0,0,0,0,0,-1,1749,1534,18.2494,-21.9142
532,-510,18.4978,21.2721,0.00613554,0.00514989,-0.00417946,0.00985113,0.0014343,-0.726711,0.00614537,0.0214245,1756,1534,18.4978,-21.2721
539,-510,18.5552,20.7268,0.00487341,0.00375036,-0.00307814,0.00744083,0.00118295,-0.695179,0.00461703,0.0134531,1763,1534,18.5552,-20.7268
546,-510,18.5188,20.3077,0.00393796,0.00262319,-0.00222154,0.00559734,0.000963813,-0.641547,0.00345539,0.012917,1770,1534,18.5188,-20.3077
553,-510,18.5243,19.848,0.00322255,0.00175514,-0.00158364,0.00423419,0.000743497,-0.568467,0.0026105,0.0137177,1777,1534,18.5243,-19.8481
560,-510,18.5155,19.3638,0.00276101,0.00110245,-0.00116643,0.0033629,0.000500552,-0.476378,0.00209511,0.0135618,1784,1534,18.5155,-19.3638
567,-510,18.4938,18.8936,0.00306769,0.000462403,-0.00110284,0.00347184,5.82559e-05,-0.351263,0.00229539,0.0122163,1791,1534,18.4937,-18.8935
574,-510,18.4858,18.4353,0.00358855,-4.13961e-06,-0.0012037,0.00395455,-0.00037014,-0.295181,0.00276801,0.0129795,1798,1534,18.4858,-18.4353
581,-510,18.4734,17.9993,0.00452543,-0.000493237,-0.00146374,0.00492114,-0.000888947,-0.264031,0.00361371,0.0121353,1805,1534,18.4734,-17.9993
588,-510,18.4641,17.5453,0.00598201,-0.000961908,-0.0019413,0.00648789,-0.00146778,-0.254916,0.00488853,0.0128596,1812,1534,18.4641,-17.5452
595,-510,18.5955,16.9435,0.0080639,-0.0015344,-0.00254159,0.00869536,-0.00216586,-0.24352,0.00663771,0.0247105,1819,1534,18.5955,-16.9435
602,-510,18.6548,16.3724,0,0,0,0,0,0,0,-1,1826,1534,18.6548,-16.3724
609,-510,17.2866,14.8556,0,0,0,0,0,0,0,-1,1833,1534,17.2866,-14.8556
616,-510,18.3043,16.1168,0,0,0,0,0,0,0,-1,1840,1534,18.3044,-16.1168
623,-510,19.5902,14.6489,0,0,0,0,0,0,0,-1,1847,1534,19.5902,-14.6489
630,-510,13.7461,9.30334,0,0,0,0,0,0,0,-1,1854,1534,13.7461,-9.30335
637,-510,11.0155,7.38464,0,0,0,0,0,0,0,-1,1861,1534,11.0155,-7.38463
644,-510,11.5809,7.17126,0,0,0,0,0,0,0,-1,1868,1534,11.5809,-7.17123
651,-510,8.70471,3.5061,0,0,0,0,0,0,0,-1,1875,1534,8.70475,-3.50611
658,-510,0,0,0,0,0,0,0,0,0,-1,1882,1534,0,0
665,-510,0,0,0,0,0,0,0,0,0,-1,1889,1534,0,0
672,-510,0,0,0,0,0,0,0,0,0,-1,1896,1534,0,0
679,-510,0,0,0,0,0,0,0,0,0,-1,1903,1534,0,0
686,-510,0,0,0,0,0,0,0,0,0,-1,1910,1534,0,0
693,-510,0,0,0,0,0,0,0,0,0,-1,1917,1534,0,0
700,-510,0,0,0,0,0,0,0,0,0,-1,1924,1534,0,0
707,-510,0,0,0,0,0,0,0,0,0,-1,1931,1534,0,0
714,-510,0,0,0,0,0,0,0,0,0,-1,1938,1534,0,0
721,-510,0,0,0,0,0,0,0,0,0,-1,1945,1534,0,0
728,-510,0,0,0,0,0,0,0,0,0,-1,1952,1534,0,0
735,-510,0,0,0,0,0,0,0,0,0,-1,1959,1534,0,0
742,-510,0,0,0,0,0,0,0,0,0,-1,1966,1534,0,0
749,-510,0,0,0,0,0,0,0,0,0,-1,1973,1534,0,0
756,-510,0,0,0,0,0,0,0,0,0,-1,1980,1534,0,0
763,-510,0,0,0,0,0,0,0,0,0,-1,1987,1534,0,0
770,-510,0,0,0,0,0,0,0,0,0,-1,1994,1534,0,0
777,-510,0,0,0,0,0,0,0,0,0,-1,2001,1534,0,0
784,-510,0,0,0,0,0,0,0,0,0,-1,2008,1534,0,0
791,-510,0,0,0,0,0,0,0,0,0,-1,2015,1534,0,0
798,-510,0,0,0,0,0,0,0,0,0,-1,2022,1534,0,0
805,-510,0,0,0,0,0,0,0,0,0,-1,2029,1534,0,0
812,-510,0,0,0,0,0,0,0,0,0,-1,2036,1534,0,0
-700,-517,0,0,0,0,0,0,0,0,0,-1,524,1541,0,0
-693,-517,0,0,0,0,0,0,0,0,0,-1,531,1541,0,0
-686,-517,0,0,0,0,0,0,0,0,0,-1,538,1541,0,0
-679,-517,0,0,0,0,0,0,0,0,0,-1,545,1541,0,0
-672,-517,0,0,0,0,0,0,0,0,0,-1,552,1541,0,0
-665,-517,0,0,0,0,0,0,0,0,0,-1,559,1541,0,0
-658,-517,0,0,0,0,0,0,0,0,0,-1,566,1541,0,0
-651,-517,0,0,0,0,0,0,0,0,0,-1,573,1541,0,0
-644,-517,0,0,0,0,0,0,0,0,0,-1,580,1541,0,0
-637,-517,0,0,0,0,0,0,0,0,0,-1,587,1541,0,0
-630,-517,0,0,0,0,0,0,0,0,0,-1,594,1541,0,0
-623,-517,0,0,0,0,0,0,0,0,0,-1,601,1541,0,0
-616,-517,0,0,0,0,0,0,0,0,0,-1,608,1541,0,0
-609,-517,0,0,0,0,0,0,0,0,0,-1,615,1541,0,0
-602,-517,0,0,0,0,0,0,0,0,0,-1,622,1541,0,0
-595,-517,0,0,0,0,0,0,0,0,0,-1,629,1541,0,0
-588,-517,0,0,0,0,0,0,0,0,0,-1,636,1541,0,0
-581,-517,0,0,0,0,0,0,0,0,0,-1,643,1541,0,0
-574,-517,0,0,0,0,0,0,0,0,0,-1,650,1541,0,0
-567,-517,0,0,0,0,0,0,0,0,0,-1,657,1541,0,0
-560,-517,0,0,0,0,0,0,0,0,0,-1,664,1541,0,0
-553,-517,0,0,0,0,0,0,0,0,0,-1,671,1541,0,0
-546,-517,0,0,0,0,0,0,0,0,0,-1,678,1541,0,0
-539,-517,0,0,0,0,0,0,0,0,0,-1,685,1541,0,0
-532,-517,0,0,0,0,0,0,0,0,0,-1,692,1541,0,0
-525,-517,-3.62903,4.3606,0,0,0,0,0,0,0,-1,699,1541,-3.62904,-4.36056
-518,-517,-1.664,2.27209,0,0,0,0,0,0,0,-1,706,1541,-1.66399,-2.27207
-511,-517,-0.999146,5.52063,0,0,0,0,0,0,0,-1,713,1541,-0.999126,-5.52059
-504,-517,-1.06946,8.67432,0,0,0,0,0,0,0,-1,720,1541,-1.06947,-8.6743
-497,-517,-2.00299,12.8037,0,0,0,0,0,0,0,-1,727,1541,-2.003,-12.8038
-490,-517,-3.38928,14.9283,0,0,0,0,0,0,0,-1,734,1541,-3.3893,-14.9283
-483,-517,-2.32288,14.0851,0,0,0,0,0,0,0,-1,741,1541,-2.3229,-14.0851
-476,-517,-2.75403,14.4875,0,0,0,0,0,0,0,-1,748,1541,-2.75404,-14.4876
-469,-517,-2.97736,15.1033,-0.00793927,0.00300724,-0.00166851,0.00325591,-0.00818794,-1.42285,0.00680857,0.0201081,755,1541,-2.97734,-15.1033
-462,-517,-3.09119,15.5908,-0.00554354,0.00279667,-0.000796463,0.00287204,-0.00561892,-1.47644,0.00498703,0.0181416,762,1541,-3.0912,-15.5908
-455,-517,-3.09351,16.1449,-0.00367056,0.00252134,-0.000150822,0.00252502,-0.00367423,-1.54646,0.00359958,0.0149914,769,1541,-3.09348,-16.1449
-448,-517,-3.09802,16.6541,-0.00218858,0.00216167,0.00026855,0.00217818,-0.0022051,1.50938,0.0025307,0.0137651,776,1541,-3.09801,-16.6541
-441,-517,-3.14648,17.1331,-0.000949942,0.00199154,0.000756064,0.00217449,-0.0011329,1.33338,0.00194083,0.0120544,783,1541,-3.14646,-17.1331
-434,-517,-3.14935,17.632,0.00017277,0.00214303,0.00133698,0.00281862,-0.000502824,1.10291,0.00206718,0.0141694,790,1541,-3.14938,-17.6319
-427,-517,-3.15973,18.1066,0.00133057,0.00258678,0.0020977,0.00414839,-0.000231036,0.930864,0.00284573,0.013345,797,1541,-3.15975,-18.1066
-420,-517,-3.20709,18.6135,0.00235238,0.00325695,0.00284416,0.00568456,-7.52388e-05,0.864249,0.00381504,0.0201155,804,1541,-3.20708,-18.6135
-413,-517,-3.2168,19.0945,0.00341183,0.00438921,0.00378338,0.00771533,8.57019e-05,0.849626,0.00511522,0.01078,811,1541,-3.21679,-19.0944
-406,-517,-3.23102,19.6001,0.00459282,0.00595778,0.00497518,0.0102971,0.000253529,0.853562,0.00678178,0.0111739,818,1541,-3.231,-19.6001
-399,-517,-3.23456,20.0974,0.00594278,0.00829864,0.00649773,0.0137243,0.000517074,0.875066,0.00898217,0.0119246,825,1541,-3.23455,-20.0974
-392,-517,-3.2345,20.6028,0.00756771,0.0115436,0.00840424,0.0181918,0.000919493,0.901534,0.0118333,0.0163142,832,1541,-3.23449,-20.6028
-385,-517,-3.13409,21.3892,0.00918491,0.0144304,0.0102782,0.0224152,0.00120008,0.910319,0.0145599,0.0362821,839,1541,-3.13412,-21.3892
-378,-517,-3.02277,22.5286,0,0,0,0,0,0,0,-1,846,1541,-3.02274,-22.5285
-371,-517,-1.37585,13.2646,0,0,0,0,0,0,0,-1,853,1541,-1.37586,-13.2647
-364,-517,-1.26245,12.6289,0,0,0,0,0,0,0,-1,860,1541,-1.26243,-12.6289
-357,-517,-1.23889,12.979,0,0,0,0,0,0,0,-1,867,1541,-1.23891,-12.979
-350,-517,0.722412,10.0829,0,0,0,0,0,0,0,-1,874,1541,0.722399,-10.0828
-343,-517,-4.32025,24.4452,0,0,0,0,0,0,0,-1,881,1541,-4.32024,-24.4452
-336,-517,-3.63934,25.7883,0,0,0,0,0,0,0,-1,888,1541,-3.63935,-25.7884
-329,-517,-2.9585,27.1316,0,0,0,0,0,0,0,-1,895,1541,-2.95847,-27.1316
-322,-517,-4.21246,19.5819,0,0,0,0,0,0,0,-1,902,1541,-4.21244,-19.5819
-315,-517,-0.987976,7.29749,0,0,0,0,0,0,0,-1,909,1541,-0.987993,-7.29743
-308,-517,3.27911,17.621,0,0,0,0,0,0,0,-1,916,1541,3.27913,-17.621
-301,-517,-1.69141,8.87488,0,0,0,0,0,0,0,-1,923,1541,-1.69141,-8.87485
-294,-517,-1.72583,9.92566,0,0,0,0,0,0,0,-1,930,1541,-1.72584,-9.92571
-287,-517,-3.09045,12.1472,0,0,0,0,0,0,0,-1,937,1541,-3.09043,-12.1472
-280,-517,0,0,0,0,0,0,0,0,0,-1,944,1541,0,0
-273,-517,0,0,0,0,0,0,0,0,0,-1,951,1541,0,0
-266,-517,0,0,0,0,0,0,0,0,0,-1,958,1541,0,0
-259,-517,0,0,0,0,0,0,0,0,0,-1,965,1541,0,0
-252,-517,0,0,0,0,0,0,0,0,0,-1,972,1541,0,0
-245,-517,0,0,0,0,0,0,0,0,0,-1,979,1541,0,0
-238,-517,0,0,0,0,0,0,0,0,0,-1,986,1541,0,0
-231,-517,0,0,0,0,0,0,0,0,0,-1,993,1541,0,0
-224,-517,0,0,0,0,0,0,0,0,0,-1,1000,1541,0,0
-217,-517,0,0,0,0,0,0,0,0,0,-1,1007,1541,0,0
-210,-517,0,0,0,0,0,0,0,0,0,-1,1014,1541,0,0
-203,-517,0,0,0,0,0,0,0,0,0,-1,1021,1541,0,0
-196,-517,0,0,0,0,0,0,0,0,0,-1,1028,1541,0,0
-189,-517,0,0,0,0,0,0,0,0,0,-1,1035,1541,0,0
-182,-517,0,0,0,0,0,0,0,0,0,-1,1042,1541,0,0
-175,-517,0,0,0,0,0,0,0,0,0,-1,1049,1541,0,0
-168,-517,0,0,0,0,0,0,0,0,0,-1,1056,1541,0,0
-161,-517,0,0,0,0,0,0,0,0,0,-1,1063,1541,0,0
-154,-517,0,0,0,0,0,0,0,0,0,-1,1070,1541,0,0
-147,-517,0,0,0,0,0,0,0,0,0,-1,1077,1541,0,0
-140,-517,0,0,0,0,0,0,0,0,0,-1,1084,1541,0,0
-133,-517,0,0,0,0,0,0,0,0,0,-1,1091,1541,0,0
-126,-517,0,0,0,0,0,0,0,0,0,-1,1098,1541,0,0
-119,-517,0,0,0,0,0,0,0,0,0,-1,1105,1541,0,0
-112,-517,0,0,0,0,0,0,0,0,0,-1,1112,1541,0,0
-105,-517,0,0,0,0,0,0,0,0,0,-1,1119,1541,0,0
-98,-517,0,0,0,0,0,0,0,0,0,-1,1126,1541,0,0
-91,-517,0,0,0,0,0,0,0,0,0,-1,1133,1541,0,0
-84,-517,0,0,0,0,0,0,0,0,0,-1,1140,1541,0,0
-77,-517,0,0,0,0,0,0,0,0,0,-1,1147,1541,0,0
-70,-517,0,0,0,0,0,0,0,0,0,-1,1154,1541,0,0
-63,-517,0,0,0,0,0,0,0,0,0,-1,1161,1541,0,0
-56,-517,0,0,0,0,0,0,0,0,0,-1,1168,1541,0,0
-49,-517,0,0,0,0,0,0,0,0,0,-1,1175,1541,0,0
-42,-517,0,0,0,0,0,0,0,0,0,-1,1182,1541,0,0
-35,-517,0,0,0,0,0,0,0,0,0,-1,1189,1541,0,0
-28,-517,0,0,0,0,0,0,0,0,0,-1,1196,1541,0,0
-21,-517,0,0,0,0,0,0,0,0,0,-1,1203,1541,0,0
-14,-517,0,0,0,0,0,0,0,0,0,-1,1210,1541,0,0
-7,-517,0,0,0,0,0,0,0,0,0,-1,1217,1541,0,0
0,-517,0,0,0,0,0,0,0,0,0,-1,1224,1541,0,0
7,-517,0,0,0,0,0,0,0,0,0,-1,1231,1541,0,0
14,-517,0,0,0,0,0,0,0,0,0,-1,1238,1541,0,0
21,-517,0,0,0,0,0,0,0,0,0,-1,1245,1541,0,0
28,-517,0,0,0,0,0,0,0,0,0,-1,1252,1541,0,0
35,-517,0,0,0,0,0,0,0,0,0,-1,1259,1541,0,0
42,-517,0,0,0,0,0,0,0,0,0,-1,1266,1541,0,0
49,-517,0,0,0,0,0,0,0,0,0,-1,1273,1541,0,0
56,-517,0,0,0,0,0,0,0,0,0,-1,1280,1541,0,0
63,-517,0,0,0,0,0,0,0,0,0,-1,1287,1541,0,0
70,-517,0,0,0,0,0,0,0,0,0,-1,1294,1541,0,0
77,-517,0,0,0,0,0,0,0,0,0,-1,1301,1541,0,0
84,-517,0,0,0,0,0,0,0,0,0,-1,1308,1541,0,0
91,-517,0,0,0,0,0,0,0,0,0,-1,1315,1541,0,0
98,-517,0,0,0,0,0,0,0,0,0,-1,1322,1541,0,0
105,-517,0,0,0,0,0,0,0,0,0,-1,1329,1541,0,0
112,-517,0,0,0,0,0,0,0,0,0,-1,1336,1541,0,0
119,-517,0,0,0,0,0,0,0,0,0,-1,1343,1541,0,0
126,-517,0,0,0,0,0,0,0,0,0,-1,1350,1541,0,0
133,-517,0,0,0,0,0,0,0,0,0,-1,1357,1541,0,0
140,-517,0,0,0,0,0,0,0,0,0,-1,1364,1541,0,0
147,-517,0,0,0,0,0,0,0,0,0,-1,1371,1541,0,0
154,-517,0,0,0,0,0,0,0,0,0,-1,1378,1541,0,0
161,-517,0,0,0,0,0,0,0,0,0,-1,1385,1541,0,0
168,-517,0,0,0,0,0,0,0,0,0,-1,1392,1541,0,0
175,-517,0,0,0,0,0,0,0,0,0,-1,1399,1541,0,0
182,-517,0,0,0,0,0,0,0,0,0,-1,1406,1541,0,0
189,-517,0,0,0,0,0,0,0,0,0,-1,1413,1541,0,0
196,-517,0,0,0,0,0,0,0,0,0,-1,1420,1541,0,0
203,-517,0,0,0,0,0,0,0,0,0,-1,1427,1541,0,0
210,-517,0,0,0,0,0,0,0,0,0,-1,1434,1541,0,0
217,-517,0,0,0,0,0,0,0,0,0,-1,1441,1541,0,0
224,-517,0,0,0,0,0,0,0,0,0,-1,1448,1541,0,0
231,-517,0,0,0,0,0,0,0,0,0,-1,1455,1541,0,0
238,-517,0,0,0,0,0,0,0,0,0,-1,1462,1541,0,0
245,-517,0,0,0,0,0,0,0,0,0,-1,1469,1541,0,0
252,-517,0,0,0,0,0,0,0,0,0,-1,1476,1541,0,0
259,-517,0,0,0,0,0,0,0,0,0,-1,1483,1541,0,0
266,-517,0,0,0,0,0,0,0,0,0,-1,1490,1541,0,0
273,-517,0,0,0,0,0,0,0,0,0,-1,1497,1541,0,0
280,-517,0,0,0,0,0,0,0,0,0,-1,1504,1541,0,0
287,-517,0,0,0,0,0,0,0,0,0,-1,1511,1541,0,0
294,-517,0,0,0,0,0,0,0,0,0,-1,1518,1541,0,0
301,-517,0,0,0,0,0,0,0,0,0,-1,1525,1541,0,0
308,-517,0,0,0,0,0,0,0,0,0,-1,1532,1541,0,0
315,-517,0,0,0,0,0,0,0,0,0,-1,1539,1541,0,0
322,-517,0,0,0,0,0,0,0,0,0,-1,1546,1541,0,0
329,-517,0,0,0,0,0,0,0,0,0,-1,1553,1541,0,0
336,-517,0,0,0,0,0,0,0,0,0,-1,1560,1541,0,0
343,-517,0,0,0,0,0,0,0,0,0,-1,1567,1541,0,0
350,-517,0,0,0,0,0,0,0,0,0,-1,1574,1541,0,0
357,-517,0,0,0,0,0,0,0,0,0,-1,1581,1541,0,0
364,-517,0,0,0,0,0,0,0,0,0,-1,1588,1541,0,0
371,-517,0,0,0,0,0,0,0,0,0,-1,1595,1541,0,0
378,-517,0,0,0,0,0,0,0,0,0,-1,1602,1541,0,0
385,-517,0,0,0,0,0,0,0,0,0,-1,1609,1541,0,0
392,-517,0,0,0,0,0,0,0,0,0,-1,1616,1541,0,0
399,-517,0,0,0,0,0,0,0,0,0,-1,1623,1541,0,0
406,-517,13.1395,7.01978,0,0,0,0,0,0,0,-1,1630,1541,13.1396,-7.01981
413,-517,12.8859,6.31592,0,0,0,0,0,0,0,-1,1637,1541,12.8858,-6.31588
420,-517,12.4789,6.20337,0,0,0,0,0,0,0,-1,1644,1541,12.4789,-6.20333
427,-517,11.647,4.66516,0,0,0,0,0,0,0,-1,1651,1541,11.647,-4.66519
434,-517,12.3719,3.92773,0,0,0,0,0,0,0,-1,1658,1541,12.3719,-3.92776
441,-517,13.146,3.14124,0,0,0,0,0,0,0,-1,1665,1541,13.146,-3.14121
448,-517,13.8861,2.36682,0,0,0,0,0,0,0,-1,1672,1541,13.8861,-2.36684
455,-517,13.6012,4.06335,0,0,0,0,0,0,0,-1,1679,1541,13.6012,-4.06335
462,-517,14.8956,7.0752,0,0,0,0,0,0,0,-1,1686,1541,14.8956,-7.07525
469,-517,13.6292,6.87744,0,0,0,0,0,0,0,-1,1693,1541,13.6292,-6.87739
476,-517,17.1632,14.1487,0,0,0,0,0,0,0,-1,1700,1541,17.1632,-14.1487
483,-517,16.5157,15.0776,0,0,0,0,0,0,0,-1,1707,1541,16.5157,-15.0777
490,-517,15.5439,18.0258,0,0,0,0,0,0,0,-1,1714,1541,15.5439,-18.0258
497,-517,16.0292,18.7786,0,0,0,0,0,0,0,-1,1721,1541,16.0291,-18.7786
504,-517,17.3815,22.3873,0,0,0,0,0,0,0,-1,1728,1541,17.3814,-22.3873
511,-517,16.9674,21.8491,0,0,0,0,0,0,0,-1,1735,1541,16.9674,-21.8491
518,-517,17.7764,22.2208,0,0,0,0,0,0,0,-1,1742,1541,17.7763,-22.2208
525,-517,17.9536,21.735,0.00663441,0.00618716,-0.00504379,0.0114595,0.00136204,-0.763244,0.00722858,0.0227302,1749,1541,17.9536,-21.735
532,-517,18.0884,21.1914,0.0051892,0.00461471,-0.00375343,0.00866636,0.00113754,-0.747208,0.0054382,0.0114931,1756,1541,18.0884,-21.1914
539,-517,18.1117,20.7297,0.0041441,0.0032717,-0.00271133,0.0064541,0.000961704,-0.705642,0.00402069,0.0118061,1763,1541,18.1117,-20.7298
546,-517,18.1066,20.3004,0.00334574,0.00211468,-0.00185133,0.00468119,0.000779237,-0.624907,0.0028962,0.0134089,1770,1541,18.1066,-20.3004
553,-517,18.0961,19.8333,0.00271828,0.00116021,-0.00115061,0.00332878,0.000549715,-0.487815,0.00206053,0.0179218,1777,1541,18.0961,-19.8333
560,-517,18.1029,19.3729,0.00235121,0.000425039,-0.000661106,0.00255628,0.000219966,-0.300786,0.0016358,0.016142,1784,1541,18.1028,-19.3729
567,-517,18.068,18.9324,0.00288342,-0.000346183,-0.00055279,0.00297541,-0.00043818,-0.164912,0.00214464,0.0122218,1791,1541,18.068,-18.9323
574,-517,18.0393,18.4557,0.00356446,-0.000877011,-0.00062435,0.00365056,-0.000963109,-0.137035,0.0028103,0.0135097,1798,1541,18.0393,-18.4557
581,-517,18.0348,18.0022,0.00477871,-0.00139599,-0.000932964,0.0049166,-0.00153388,-0.146732,0.00389114,0.0151852,1805,1541,18.0348,-18.0021
588,-517,18.0179,17.5396,0.0066384,-0.00187959,-0.00152168,0.00690207,-0.00214327,-0.171575,0.00545793,0.0159255,1812,1541,18.018,-17.5395
595,-517,18.275,16.811,0,0,0,0,0,0,0,-1,1819,1541,18.2751,-16.811
602,-517,15.8027,13.5498,0,0,0,0,0,0,0,-1,1826,1541,15.8027,-13.5498
609,-517,12.6417,10.8751,0,0,0,0,0,0,0,-1,1833,1541,12.6417,-10.8751
616,-517,14.205,10.3193,0,0,0,0,0,0,0,-1,1840,1541,14.205,-10.3194
623,-517,12.578,10.0779,0,0,0,0,0,0,0,-1,1847,1541,12.578,-10.0779
630,-517,11.7035,7.47815,0,0,0,0,0,0,0,-1,1854,1541,11.7035,-7.47812
637,-517,11.5172,5.79822,0,0,0,0,0,0,0,-1,1861,1541,11.5173,-5.79825
644,-517,11.4232,3.30579,0,0,0,0,0,0,0,-1,1868,1541,11.4232,-3.30574
651,-517,0,0,0,0,0,0,0,0,0,-1,1875,1541,0,0
658,-517,0,0,0,0,0,0,0,0,0,-1,1882,1541,0,0
665,-517,0,0,0,0,0,0,0,0,0,-1,1889,1541,0,0
672,-517,0,0,0,0,0,0,0,0,0,-1,1896,1541,0,0
679,-517,0,0,0,0,0,0,0,0,0,-1,1903,1541,0,0
686,-517,0,0,0,0,0,0,0,0,0,-1,1910,1541,0,0
693,-517,0,0,0,0,0,0,0,0,0,-1,1917,1541,0,0
700,-517,0,0,0,0,0,0,0,0,0,-1,1924,1541,0,0
707,-517,0,0,0,0,0,0,0,0,0,-1,1931,1541,0,0
714,-517,0,0,0,0,0,0,0,0,0,-1,1938,1541,0,0
721,-517,0,0,0,0,0,0,0,0,0,-1,1945,1541,0,0
728,-517,0,0,0,0,0,0,0,0,0,-1,1952,1541,0,0
735,-517,0,0,0,0,0,0,0,0,0,-1,1959,1541,0,0
742,-517,0,0,0,0,0,0,0,0,0,-1,1966,1541,0,0
749,-517,0,0,0,0,0,0,0,0,0,-1,1973,1541,0,0
756,-517,0,0,0,0,0,0,0,0,0,-1,1980,1541,0,0
763,-517,0,0,0,0,0,0,0,0,0,-1,1987,1541,0,0
770,-517,0,0,0,0,0,0,0,0,0,-1,1994,1541,0,0
777,-517,0,0,0,0,0,0,0,0,0,-1,2001,1541,0,0
784,-517,0,0,0,0,0,0,0,0,0,-1,2008,1541,0,0
791,-517,0,0,0,0,0,0,0,0,0,-1,2015,1541,0,0
798,-517,0,0,0,0,0,0,0,0,0,-1,2022,1541,0,0
805,-517,0,0,0,0,0,0,0,0,0,-1,2029,1541,0,0
812,-517,0,0,0,0,0,0,0,0,0,-1,2036,1541,0,0
-700,-524,0,0,0,0,0,0,0,0,0,-1,524,1548,0,0
-693,-524,0,0,0,0,0,0,0,0,0,-1,531,1548,0,0
-686,-524,0,0,0,0,0,0,0,0,0,-1,538,1548,0,0
-679,-524,0,0,0,0,0,0,0,0,0,-1,545,1548,0,0
-672,-524,0,0,0,0,0,0,0,0,0,-1,552,1548,0,0
-665,-524,0,0,0,0,0,0,0,0,0,-1,559,1548,0,0
-658,-524,0,0,0,0,0,0,0,0,0,-1,566,1548,0,0
-651,-524,0,0,0,0,0,0,0,0,0,-1,573,1548,0,0
-644,-524,0,0,0,0,0,0,0,0,0,-1,580,1548,0,0
-637,-524,0,0,0,0,0,0,0,0,0,-1,587,1548,0,0
-630,-524,0,0,0,0,0,0,0,0,0,-1,594,1548,0,0
-623,-524,0,0,0,0,0,0,0,0,0,-1,601,1548,0,0
-616,-524,0,0,0,0,0,0,0,0,0,-1,608,1548,0,0
-609,-524,0,0,0,0,0,0,0,0,0,-1,615,1548,0,0
-602,-524,0,0,0,0,0,0,0,0,0,-1,622,1548,0,0
-595,-524,0,0,0,0,0,0,0,0,0,-1,629,1548,0,0
-588,-524,0,0,0,0,0,0,0,0,0,-1,636,1548,0,0
-581,-524,0,0,0,0,0,0,0,0,0,-1,643,1548,0,0
-574,-524,0,0,0,0,0,0,0,0,0,-1,650,1548,0,0
-567,-524,0,0,0,0,0,0,0,0,0,-1,657,1548,0,0
-560,-524,0,0,0,0,0,0,0,0,0,-1,664,1548,0,0
-553,-524,0,0,0,0,0,0,0,0,0,-1,671,1548,0,0
-546,-524,0,0,0,0,0,0,0,0,0,-1,678,1548,0,0
-539,-524,0,0,0,0,0,0,0,0,0,-1,685,1548,0,0
-532,-524,0,0,0,0,0,0,0,0,0,-1,692,1548,0,0
-525,-524,-0.215515,3.97131,0,0,0,0,0,0,0,-1,699,1548,-0.215501,-3.97136
-518,-524,-0.806274,4.35632,0,0,0,0,0,0,0,-1,706,1548,-0.806259,-4.35633
-511,-524,-1.08301,4.29004,0,0,0,0,0,0,0,-1,713,1548,-1.08301,-4.29006
-504,-524,-1.28821,3.98145,0,0,0,0,0,0,0,-1,720,1548,-1.28822,-3.98151
-497,-524,-0.328491,8.63416,0,0,0,0,0,0,0,-1,727,1548,-0.328487,-8.63411
-490,-524,-2.18744,13.5383,0,0,0,0,0,0,0,-1,734,1548,-2.18744,-13.5384
-483,-524,-2.21771,14.3499,0,0,0,0,0,0,0,-1,741,1548,-2.21771,-14.3499
-476,-524,-2.41565,14.9651,0,0,0,0,0,0,0,-1,748,1548,-2.41564,-14.965
-469,-524,-2.52533,15.3999,-0.0078826,0.00637088,-0.000519294,0.00638978,-0.0079015,-1.53443,0.00826644,0.0359921,755,1548,-2.52536,-15.3998
-462,-524,-2.55164,15.8018,-0.00547353,0.00550277,0.000222502,0.00550728,-0.00547804,1.55054,0.00634238,0.0286197,762,1548,-2.55163,-15.8017
-455,-524,-2.64093,16.1696,-0.00371178,0.00463181,0.000655412,0.00468298,-0.00376295,1.49288,0.0048859,0.0227956,769,1548,-2.64092,-16.1696
-448,-524,-2.61755,16.6705,-0.00242953,0.00365581,0.000794501,0.00375783,-0.00253155,1.44309,0.00365411,0.0133214,776,1548,-2.61756,-16.6705
-441,-524,-2.63751,17.1624,-0.00140321,0.00292864,0.000972969,0.00313714,-0.00161171,1.35969,0.0027885,0.0111341,783,1548,-2.63748,-17.1624
-434,-524,-2.62463,17.639,-0.000478966,0.0025922,0.00125346,0.00303883,-0.000925597,1.2285,0.0023948,0.013636,790,1548,-2.62461,-17.639
-427,-524,-2.63049,18.1228,0.000515095,0.00260262,0.00174837,0.00359509,-0.000477375,1.0545,0.00257067,0.0138618,797,1548,-2.63049,-18.1228
-420,-524,-2.67847,18.6305,0.00137475,0.00289919,0.00223164,0.00449519,-0.000221248,0.949962,0.0030732,0.011023,804,1548,-2.67848,-18.6304
-413,-524,-2.69177,19.1189,0.0022681,0.00368363,0.00290314,0.00596403,-1.22993e-05,0.904963,0.00398013,0.0105725,811,1548,-2.69179,-19.1189
-406,-524,-2.70636,19.6176,0.00326343,0.004913,0.00380107,0.00797774,0.000198686,0.892235,0.00525352,0.0114336,818,1548,-2.70634,-19.6175
-399,-524,-2.72723,20.1029,0.00434466,0.0066603,0.00492195,0.0105588,0.000446183,0.900916,0.00689527,0.00972178,825,1548,-2.72722,-20.1029
-392,-524,-2.74634,20.5648,0.00561151,0.00921181,0.00631004,0.0139735,0.000849865,0.924349,0.00904566,0.0103954,832,1548,-2.74633,-20.5649
-385,-524,-2.77234,21.0896,0.00692891,0.0115254,0.00770929,0.0172717,0.00118258,0.930261,0.0111412,0.0148314,839,1548,-2.77236,-21.0896
-378,-524,-2.69653,21.9017,0.00804414,0.014288,0.00900917,0.0207008,0.00163131,0.952187,0.0132902,0.0476935,846,1548,-2.69652,-21.9018
-371,-524,-2.60077,22.6554,0,0,0,0,0,0,0,-1,853,1548,-2.60074,-22.6554
-364,-524,-0.712097,14.9871,0,0,0,0,0,0,0,-1,860,1548,-0.712116,-14.9871
-357,-524,-1.34052,14.7448,0,0,0,0,0,0,0,-1,867,1548,-1.34054,-14.7447
-350,-524,-2.63245,12.7522,0,0,0,0,0,0,0,-1,874,1548,-2.63245,-12.7522
-343,-524,-3.05817,24.1354,0,0,0,0,0,0,0,-1,881,1548,-3.05819,-24.1354
-336,-524,-3.19861,25.126,0,0,0,0,0,0,0,-1,888,1548,-3.19864,-25.1259
-329,-524,-3.33911,26.1165,0,0,0,0,0,0,0,-1,895,1548,-3.33909,-26.1164
-322,-524,-4.31378,25.6389,0,0,0,0,0,0,0,-1,902,1548,-4.31379,-25.639
-315,-524,-1.90839,19.4824,0,0,0,0,0,0,0,-1,909,1548,-1.90838,-19.4824
-308,-524,-2.36938,19.3059,0,0,0,0,0,0,0,-1,916,1548,-2.3694,-19.3058
-301,-524,2.72394,17.7618,0,0,0,0,0,0,0,-1,923,1548,2.72396,-17.7619
-294,-524,-1.52515,9.05408,0,0,0,0,0,0,0,-1,930,1548,-1.52512,-9.05411
-287,-524,-0.962219,10.3199,0,0,0,0,0,0,0,-1,937,1548,-0.962241,-10.32
-280,-524,-1.36255,10.3859,0,0,0,0,0,0,0,-1,944,1548,-1.36253,-10.3859
-273,-524,0,0,0,0,0,0,0,0,0,-1,951,1548,0,0
-266,-524,0,0,0,0,0,0,0,0,0,-1,958,1548,0,0
-259,-524,0,0,0,0,0,0,0,0,0,-1,965,1548,0,0
-252,-524,0,0,0,0,0,0,0,0,0,-1,972,1548,0,0
-245,-524,0,0,0,0,0,0,0,0,0,-1,979,1548,0,0
-238,-524,0,0,0,0,0,0,0,0,0,-1,986,1548,0,0
-231,-524,0,0,0,0,0,0,0,0,0,-1,993,1548,0,0
-224,-524,0,0,0,0,0,0,0,0,0,-1,1000,1548,0,0
-217,-524,0,0,0,0,0,0,0,0,0,-1,1007,1548,0,0
-210,-524,0,0,0,0,0,0,0,0,0,-1,1014,1548,0,0
-203,-524,0,0,0,0,0,0,0,0,0,-1,1021,1548,0,0
-196,-524,0,0,0,0,0,0,0,0,0,-1,1028,1548,0,0
-189,-524,0,0,0,0,0,0,0,0,0,-1,1035,1548,0,0
-182,-524,0,0,0,0,0,0,0,0,0,-1,1042,1548,0,0
-175,-524,0,0,0,0,0,0,0,0,0,-1,1049,1548,0,0
-168,-524,0,0,0,0,0,0,0,0,0,-1,1056,1548,0,0
-161,-524,0,0,0,0,0,0,0,0,0,-1,1063,1548,0,0
-154,-524,0,0,0,0,0,0,0,0,0,-1,1070,1548,0,0
-147,-524,0,0,0,0,0,0,0,0,0,-1,1077,1548,0,0
-140,-524,0,0,0,0,0,0,0,0,0,-1,1084,1548,0,0
-133,-524,0,0,0,0,0,0,0,0,0,-1,1091,1548,0,0
-126,-524,0,0,0,0,0,0,0,0,0,-1,1098,1548,0,0
-119,-524,0,0,0,0,0,0,0,0,0,-1,1105,1548,0,0
-112,-524,0,0,0,0,0,0,0,0,0,-1,1112,1548,0,0
-105,-524,0,0,0,0,0,0,0,0,0,-1,1119,1548,0,0
-98,-524,0,0,0,0,0,0,0,0,0,-1,1126,1548,0,0
-91,-524,0,0,0,0,0,0,0,0,0,-1,1133,1548,0,0
-84,-524,0,0,0,0,0,0,0,0,0,-1,1140,1548,0,0
-77,-524,0,0,0,0,0,0,0,0,0,-1,1147,1548,0,0
-70,-524,0,0,0,0,0,0,0,0,0,-1,1154,1548,0,0
-63,-524,0,0,0,0,0,0,0,0,0,-1,1161,1548,0,0
-56,-524,0,0,0,0,0,0,0,0,0,-1,1168,1548,0,0
-49,-524,0,0,0,0,0,0,0,0,0,-1,1175,1548,0,0
-42,-524,0,0,0,0,0,0,0,0,0,-1,1182,1548,0,0
-35,-524,0,0,0,0,0,0,0,0,0,-1,1189,1548,0,0
-28,-524,0,0,0,0,0,0,0,0,0,-1,1196,1548,0,0
-21,-524,0,0,0,0,0,0,0,0,0,-1,1203,1548,0,0
-14,-524,0,0,0,0,0,0,0,0,0,-1,1210,1548,0,0
-7,-524,0,0,0,0,0,0,0,0,0,-1,1217,1548,0,0
0,-524,0,0,0,0,0,0,0,0,0,-1,1224,1548,0,0
7,-524,0,0,0,0,0,0,0,0,0,-1,1231,1548,0,0
14,-524,0,0,0,0,0,0,0,0,0,-1,1238,1548,0,0
21,-524,0,0,0,0,0,0,0,0,0,-1,1245,1548,0,0
28,-524,0,0,0,0,0,0,0,0,0,-1,1252,1548,0,0
35,-524,0,0,0,0,0,0,0,0,0,-1,1259,1548,0,0
42,-524,0,0,0,0,0,0,0,0,0,-1,1266,1548,0,0
49,-524,0,0,0,0,0,0,0,0,0,-1,1273,1548,0,0
56,-524,0,0,0,0,0,0,0,0,0,-1,1280,1548,0,0
63,-524,0,0,0,0,0,0,0,0,0,-1,1287,1548,0,0
70,-524,0,0,0,0,0,0,0,0,0,-1,1294,1548,0,0
77,-524,0,0,0,0,0,0,0,0,0,-1,1301,1548,0,0
84,-524,0,0,0,0,0,0,0,0,0,-1,1308,1548,0,0
91,-524,0,0,0,0,0,0,0,0,0,-1,1315,1548,0,0
98,-524,0,0,0,0,0,0,0,0,0,-1,1322,1548,0,0
105,-524,0,0,0,0,0,0,0,0,0,-1,1329,1548,0,0
112,-524,0,0,0,0,0,0,0,0,0,-1,1336,1548,0,0
119,-524,0,0,0,0,0,0,0,0,0,-1,1343,1548,0,0
126,-524,0,0,0,0,0,0,0,0,0,-1,1350,1548,0,0
133,-524,0,0,0,0,0,0,0,0,0,-1,1357,1548,0,0
140,-524,0,0,0,0,0,0,0,0,0,-1,1364,1548,0,0
147,-524,0,0,0,0,0,0,0,0,0,-1,1371,1548,0,0
154,-524,0,0,0,0,0,0,0,0,0,-1,1378,1548,0,0
161,-524,0,0,0,0,0,0,0,0,0,-1,1385,1548,0,0
168,-524,0,0,0,0,0,0,0,0,0,-1,1392,1548,0,0
175,-524,0,0,0,0,0,0,0,0,0,-1,1399,1548,0,0
182,-524,0,0,0,0,0,0,0,0,0,-1,1406,1548,0,0
189,-524,0,0,0,0,0,0,0,0,0,-1,1413,1548,0,0
196,-524,0,0,0,0,0,0,0,0,0,-1,1420,1548,0,0
203,-524,0,0,0,0,0,0,0,0,0,-1,1427,1548,0,0
210,-524,0,0,0,0,0,0,0,0,0,-1,1434,1548,0,0
217,-524,0,0,0,0,0,0,0,0,0,-1,1441,1548,0,0
224,-524,0,0,0,0,0,0,0,0,0,-1,1448,1548,0,0
231,-524,0,0,0,0,0,0,0,0,0,-1,1455,1548,0,0
238,-524,0,0,0,0,0,0,0,0,0,-1,1462,1548,0,0
245,-524,0,0,0,0,0,0,0,0,0,-1,1469,1548,0,0
252,-524,0,0,0,0,0,0,0,0,0,-1,1476,1548,0,0
259,-524,0,0,0,0,0,0,0,0,0,-1,1483,1548,0,0
266,-524,0,0,0,0,0,0,0,0,0,-1,1490,1548,0,0
273,-524,0,0,0,0,0,0,0,0,0,-1,1497,1548,0,0
280,-524,0,0,0,0,0,0,0,0,0,-1,1504,1548,0,0
287,-524,0,0,0,0,0,0,0,0,0,-1,1511,1548,0,0
294,-524,0,0,0,0,0,0,0,0,0,-1,1518,1548,0,0
301,-524,0,0,0,0,0,0,0,0,0,-1,1525,1548,0,0
308,-524,0,0,0,0,0,0,0,0,0,-1,1532,1548,0,0
315,-524,0,0,0,0,0,0,0,0,0,-1,1539,1548,0,0
322,-524,0,0,0,0,0,0,0,0,0,-1,1546,1548,0,0
329,-524,0,0,0,0,0,0,0,0,0,-1,1553,1548,0,0
336,-524,0,0,0,0,0,0,0,0,0,-1,1560,1548,0,0
343,-524,0,0,0,0,0,0,0,0,0,-1,1567,1548,0,0
350,-524,0,0,0,0,0,0,0,0,0,-1,1574,1548,0,0
357,-524,0,0,0,0,0,0,0,0,0,-1,1581,1548,0,0
364,-524,0,0,0,0,0,0,0,0,0,-1,1588,1548,0,0
371,-524,0,0,0,0,0,0,0,0,0,-1,1595,1548,0,0
378,-524,0,0,0,0,0,0,0,0,0,-1,1602,1548,0,0
385,-524,0,0,0,0,0,0,0,0,0,-1,1609,1548,0,0
392,-524,0,0,0,0,0,0,0,0,0,-1,1616,1548,0,0
399,-524,8.81848,5.05774,0,0,0,0,0,0,0,-1,1623,1548,8.81843,-5.05769
406,-524,8.64294,6.06799,0,0,0,0,0,0,0,-1,1630,1548,8.6429,-6.06805
413,-524,11.677,6.41858,0,0,0,0,0,0,0,-1,1637,1548,11.677,-6.41864
420,-524,11.4913,6.36401,0,0,0,0,0,0,0,-1,1644,1548,11.4913,-6.36402
427,-524,7.68335,6.17249,0,0,0,0,0,0,0,-1,1651,1548,7.68341,-6.17245
434,-524,10.432,11.6801,0,0,0,0,0,0,0,-1,1658,1548,10.432,-11.68
441,-524,8.78552,4.12305,0,0,0,0,0,0,0,-1,1665,1548,8.78553,-4.12301
448,-524,14.1854,4.78674,0,0,0,0,0,0,0,-1,1672,1548,14.1854,-4.78674
455,-524,12.4784,3.65576,0,0,0,0,0,0,0,-1,1679,1548,12.4784,-3.65572
462,-524,14.7551,9.29395,0,0,0,0,0,0,0,-1,1686,1548,14.7552,-9.29397
469,-524,16.3314,14.3779,0,0,0,0,0,0,0,-1,1693,1548,16.3314,-14.3779
476,-524,15.9106,15.1875,0,0,0,0,0,0,0,-1,1700,1548,15.9107,-15.1876
483,-524,15.2776,16.2268,0,0,0,0,0,0,0,-1,1707,1548,15.2776,-16.2269
490,-524,15.2563,18.5848,0,0,0,0,0,0,0,-1,1714,1548,15.2564,-18.5848
497,-524,17.5173,22.6123,0,0,0,0,0,0,0,-1,1721,1548,17.5174,-22.6123
504,-524,17.3065,23.377,0,0,0,0,0,0,0,-1,1728,1548,17.3065,-23.3769
511,-524,17.6737,22.6154,0,0,0,0,0,0,0,-1,1735,1548,17.6738,-22.6154
518,-524,17.6647,22.1263,0.00717134,0.00694122,-0.00556257,0.01262,0.00149252,-0.775057,0.00796262,0.0251776,1742,1548,17.6647,-22.1263
525,-524,17.6504,21.6858,0.00567641,0.00523529,-0.00423201,0.0096936,0.0012181,-0.759363,0.00609706,0.014266,1749,1548,17.6504,-21.6858
532,-524,17.6476,21.2148,0.00436473,0.00375004,-0.00303131,0.00710423,0.00101054,-0.734876,0.00443783,0.00971697,1756,1548,17.6476,-21.2149
539,-524,17.6442,20.7488,0.00336935,0.00246297,-0.00202719,0.00499339,0.000838932,-0.675429,0.00308751,0.0105538,1763,1548,17.6442,-20.7488
546,-524,17.6226,20.3247,0.00256158,0.00127312,-0.00114103,0.00322768,0.000607019,-0.528404,0.0019807,0.0146619,1770,1548,17.6226,-20.3248
553,-524,17.626,19.8663,0.00191217,0.00023672,-0.000372553,0.00199128,0.000157614,-0.209227,0.00127823,0.0239746,1777,1548,17.6259,-19.8664
560,-524,17.6832,19.3916,0.0015541,-0.000581708,0.000190501,0.00157095,-0.000598566,0.0882658,0.00129383,0.0288272,1784,1548,17.6832,-19.3916
567,-524,17.5861,18.9403,0.00219521,-0.00147116,0.000366516,0.00223149,-0.00150744,0.098666,0.00217212,0.0166816,1791,1548,17.5861,-18.9403
574,-524,17.5676,18.4733,0.00298733,-0.00208284,0.00034744,0.00301102,-0.00210654,0.0681019,0.00296997,0.0131673,1798,1548,17.5676,-18.4733
581,-524,17.588,18.0123,0.00447794,-0.0026439,1.01517e-06,0.00447794,-0.0026439,0.000142543,0.00415699,0.01459,1805,1548,17.588,-18.0124
588,-524,17.6383,17.5419,0.0068014,-0.0031606,-0.000691126,0.00684912,-0.00320832,-0.0689361,0.00593213,0.0284919,1812,1548,17.6382,-17.5419
595,-524,17.6937,16.8658,0,0,0,0,0,0,0,-1,1819,1548,17.6938,-16.8658
602,-524,13.837,12.0682,0,0,0,0,0,0,0,-1,1826,1548,13.837,-12.0683
609,-524,13.0056,10.5138,0,0,0,0,0,0,0,-1,1833,1548,13.0056,-10.5138
616,-524,11.6941,8.65515,0,0,0,0,0,0,0,-1,1840,1548,11.6941,-8.65514
623,-524,9.38452,5.15356,0,0,0,0,0,0,0,-1,1847,1548,9.38456,-5.15359
630,-524,11.0541,3.57434,0,0,0,0,0,0,0,-1,1854,1548,11.0541,-3.57438
637,-524,11.6067,3.20728,0,0,0,0,0,0,0,-1,1861,1548,11.6067,-3.20724
644,-524,12.2134,0.727173,0,0,0,0,0,0,0,-1,1868,1548,12.2134,-0.727222
651,-524,0,0,0,0,0,0,0,0,0,-1,1875,1548,0,0
658,-524,0,0,0,0,0,0,0,0,0,-1,1882,1548,0,0
665,-524,0,0,0,0,0,0,0,0,0,-1,1889,1548,0,0
672,-524,0,0,0,0,0,0,0,0,0,-1,1896,1548,0,0
679,-524,0,0,0,0,0,0,0,0,0,-1,1903,1548,0,0
686,-524,0,0,0,0,0,0,0,0,0,-1,1910,1548,0,0
693,-524,0,0,0,0,0,0,0,0,0,-1,1917,1548,0,0
700,-524,0,0,0,0,0,0,0,0,0,-1,1924,1548,0,0
707,-524,0,0,0,0,0,0,0,0,0,-1,1931,1548,0,0
714,-524,0,0,0,0,0,0,0,0,0,-1,1938,1548,0,0
721,-524,0,0,0,0,0,0,0,0,0,-1,1945,1548,0,0
728,-524,0,0,0,0,0,0,0,0,0,-1,1952,1548,0,0
735,-524,0,0,0,0,0,0,0,0,0,-1,1959,1548,0,0
742,-524,0,0,0,0,0,0,0,0,0,-1,1966,1548,0,0
749,-524,0,0,0,0,0,0,0,0,0,-1,1973,1548,0,0
756,-524,0,0,0,0,0,0,0,0,0,-1,1980,1548,0,0
763,-524,0,0,0,0,0,0,0,0,0,-1,1987,1548,0,0
770,-524,0,0,0,0,0,0,0,0,0,-1,1994,1548,0,0
777,-524,0,0,0,0,0,0,0,0,0,-1,2001,1548,0,0
784,-524,0,0,0,0,0,0,0,0,0,-1,2008,1548,0,0
791,-524,0,0,0,0,0,0,0,0,0,-1,2015,1548,0,0
798,-524,0,0,0,0,0,0,0,0,0,-1,2022,1548,0,0
805,-524,0,0,0,0,0,0,0,0,0,-1,2029,1548,0,0
812,-524,0,0,0,0,0,0,0,0,0,-1,2036,1548,0,0
-700,-531,0,0,0,0,0,0,0,0,0,-1,524,1555,0,0
-693,-531,0,0,0,0,0,0,0,0,0,-1,531,1555,0,0
-686,-531,0,0,0,0,0,0,0,0,0,-1,538,1555,0,0
-679,-531,0,0,0,0,0,0,0,0,0,-1,545,1555,0,0
-672,-531,0,0,0,0,0,0,0,0,0,-1,552,1555,0,0
-665,-531,0,0,0,0,0,0,0,0,0,-1,559,1555,0,0
-658,-531,0,0,0,0,0,0,0,0,0,-1,566,1555,0,0
-651,-531,0,0,0,0,0,0,0,0,0,-1,573,1555,0,0
-644,-531,0,0,0,0,0,0,0,0,0,-1,580,1555,0,0
-637,-531,0,0,0,0,0,0,0,0,0,-1,587,1555,0,0
-630,-531,0,0,0,0,0,0,0,0,0,-1,594,1555,0,0
-623,-531,0,0,0,0,0,0,0,0,0,-1,601,1555,0,0
-616,-531,0,0,0,0,0,0,0,0,0,-1,608,1555,0,0
-609,-531,0,0,0,0,0,0,0,0,0,-1,615,1555,0,0
-602,-531,0,0,0,0,0,0,0,0,0,-1,622,1555,0,0
-595,-531,0,0,0,0,0,0,0,0,0,-1,629,1555,0,0
-588,-531,0,0,0,0,0,0,0,0,0,-1,636,1555,0,0
-581,-531,0,0,0,0,0,0,0,0,0,-1,643,1555,0,0
-574,-531,0,0,0,0,0,0,0,0,0,-1,650,1555,0,0
-567,-531,0,0,0,0,0,0,0,0,0,-1,657,1555,0,0
-560,-531,0,0,0,0,0,0,0,0,0,-1,664,1555,0,0
-553,-531,0,0,0,0,0,0,0,0,0,-1,671,1555,0,0
-546,-531,0,0,0,0,0,0,0,0,0,-1,678,1555,0,0
-539,-531,0,0,0,0,0,0,0,0,0,-1,685,1555,0,0
-532,-531,0,0,0,0,0,0,0,0,0,-1,692,1555,0,0
-525,-531,0,0,0,0,0,0,0,0,0,-1,699,1555,0,0
-518,-531,-1.63983,4.03821,0,0,0,0,0,0,0,-1,706,1555,-1.63982,-4.03821
-511,-531,-2.9682,8.07483,0,0,0,0,0,0,0,-1,713,1555,-2.9682,-8.07479
-504,-531,-2.95978,0.557861,0,0,0,0,0,0,0,-1,720,1555,-2.95978,-0.557917
-497,-531,-2.46039,8.07422,0,0,0,0,0,0,0,-1,727,1555,-2.46039,-8.07423
-490,-531,-0.423462,7.92065,0,0,0,0,0,0,0,-1,734,1555,-0.42344,-7.92066
-483,-531,-2.32495,13.3652,0,0,0,0,0,0,0,-1,741,1555,-2.32493,-13.3653
-476,-531,-2.0719,15.3953,0,0,0,0,0,0,0,-1,748,1555,-2.07189,-15.3952
-469,-531,-1.86493,15.1641,0,0,0,0,0,0,0,-1,755,1555,-1.86493,-15.164
-462,-531,-1.98663,15.6278,0,0,0,0,0,0,0,-1,762,1555,-1.98663,-15.6278
-455,-531,-2.01666,16.3015,0,0,0,0,0,0,0,-1,769,1555,-2.01668,-16.3015
-448,-531,-2.06543,16.6738,-0.00229818,0.00578814,0.00180008,0.00617075,-0.00268079,1.36136,0.00524118,0.0177387,776,1555,-2.06545,-16.6738
-441,-531,-2.14105,17.1462,-0.00158107,0.00432587,0.00154103,0.00470373,-0.00195893,1.33034,0.003954,0.0123475,783,1555,-2.14103,-17.1462
-434,-531,-2.15179,17.6755,-0.000919048,0.00337115,0.0014342,0.00380644,-0.00135433,1.27613,0.00308965,0.0123888,790,1555,-2.1518,-17.6756
-427,-531,-2.15741,18.176,-0.000139067,0.00285977,0.0016021,0.00355466,-0.000833956,1.16155,0.00269118,0.0135057,797,1555,-2.15743,-18.176
-420,-531,-2.1944,18.6735,0.000535492,0.00274648,0.0018039,0.00375668,-0.000474709,1.0603,0.00267676,0.0117111,804,1555,-2.19442,-18.6735
-413,-531,-2.2074,19.1602,0.00126457,0.00316166,0.0022132,0.00462102,-0.000194788,0.98785,0.00314762,0.0100231,811,1555,-2.20737,-19.1602
-406,-531,-2.22375,19.6405,0.00209569,0.00404387,0.00284475,0.00607668,6.28771e-05,0.950349,0.00403033,0.0113948,818,1555,-2.22374,-19.6405
-399,-531,-2.22711,20.1088,0.00295715,0.00522931,0.00362543,0.0078925,0.000293965,0.937234,0.00516646,0.0131913,825,1555,-2.2271,-20.1088
-392,-531,-2.23737,20.5748,0.00393201,0.00713379,0.00457261,0.0103777,0.000688144,0.953782,0.00670084,0.0167757,832,1555,-2.23738,-20.5749
-385,-531,-2.30243,21.0652,0.00503597,0.00898595,0.00562151,0.0129693,0.0010526,0.954326,0.00831757,0.0147179,839,1555,-2.30246,-21.0651
-378,-531,-2.31946,21.5265,0.00601528,0.0112045,0.00659934,0.015701,0.00151882,0.972697,0.00999956,0.0165586,846,1555,-2.31943,-21.5265
-371,-531,-2.28918,22.0577,0,0,0,0,0,0,0,-1,853,1555,-2.28919,-22.0577
-364,-531,-2.11761,22.696,0,0,0,0,0,0,0,-1,860,1555,-2.11759,-22.696
-357,-531,-2.14075,23.2716,0,0,0,0,0,0,0,-1,867,1555,-2.14076,-23.2716
-350,-531,-2.42267,23.6821,0,0,0,0,0,0,0,-1,874,1555,-2.42265,-23.6821
-343,-531,-2.31824,24.5773,0,0,0,0,0,0,0,-1,881,1555,-2.31825,-24.5772
-336,-531,-2.29871,25.4633,0,0,0,0,0,0,0,-1,888,1555,-2.2987,-25.4633
-329,-531,-3.19897,25.4121,0,0,0,0,0,0,0,-1,895,1555,-3.19895,-25.4122
-322,-531,-3.7243,25.0143,0,0,0,0,0,0,0,-1,902,1555,-3.72428,-25.0143
-315,-531,-4.13751,24.7864,0,0,0,0,0,0,0,-1,909,1555,-4.13752,-24.7864
-308,-531,-1.66455,19.0624,0,0,0,0,0,0,0,-1,916,1555,-1.66455,-19.0623
-301,-531,-2.02405,18.8912,0,0,0,0,0,0,0,-1,923,1555,-2.02407,-18.8913
-294,-531,-1.3244,8.1825,0,0,0,0,0,0,0,-1,930,1555,-1.3244,-8.18251
-287,-531,-1.78192,10.1661,0,0,0,0,0,0,0,-1,937,1555,-1.78192,-10.1661
-280,-531,-2.14508,10.3945,0,0,0,0,0,0,0,-1,944,1555,-2.14506,-10.3945
-273,-531,-2.50818,10.6229,0,0,0,0,0,0,0,-1,951,1555,-2.5082,-10.6229
-266,-531,-4.97742,17.9215,0,0,0,0,0,0,0,-1,958,1555,-4.97744,-17.9215
-259,-531,0,0,0,0,0,0,0,0,0,-1,965,1555,0,0
-252,-531,0,0,0,0,0,0,0,0,0,-1,972,1555,0,0
-245,-531,0,0,0,0,0,0,0,0,0,-1,979,1555,0,0
-238,-531,0,0,0,0,0,0,0,0,0,-1,986,1555,0,0
-231,-531,0,0,0,0,0,0,0,0,0,-1,993,1555,0,0
-224,-531,0,0,0,0,0,0,0,0,0,-1,1000,1555,0,0
-217,-531,0,0,0,0,0,0,0,0,0,-1,1007,1555,0,0
-210,-531,0,0,0,0,0,0,0,0,0,-1,1014,1555,0,0
-203,-531,0,0,0,0,0,0,0,0,0,-1,1021,1555,0,0
-196,-531,0,0,0,0,0,0,0,0,0,-1,1028,1555,0,0
-189,-531,0,0,0,0,0,0,0,0,0,-1,1035,1555,0,0
-182,-531,0,0,0,0,0,0,0,0,0,-1,1042,1555,0,0
-175,-531,0,0,0,0,0,0,0,0,0,-1,1049,1555,0,0
-168,-531,0,0,0,0,0,0,0,0,0,-1,1056,1555,0,0
-161,-531,0,0,0,0,0,0,0,0,0,-1,1063,1555,0,0
-154,-531,0,0,0,0,0,0,0,0,0,-1,1070,1555,0,0
-147,-531,0,0,0,0,0,0,0,0,0,-1,1077,1555,0,0
-140,-531,0,0,0,0,0,0,0,0,0,-1,1084,1555,0,0
-133,-531,0,0,0,0,0,0,0,0,0,-1,1091,1555,0,0
-126,-531,0,0,0,0,0,0,0,0,0,-1,1098,1555,0,0
-119,-531,0,0,0,0,0,0,0,0,0,-1,1105,1555,0,0
-112,-531,0,0,0,0,0,0,0,0,0,-1,1112,1555,0,0
-105,-531,0,0,0,0,0,0,0,0,0,-1,1119,1555,0,0
-98,-531,0,0,0,0,0,0,0,0,0,-1,1126,1555,0,0
-91,-531,0,0,0,0,0,0,0,0,0,-1,1133,1555,0,0
-84,-531,0,0,0,0,0,0,0,0,0,-1,1140,1555,0,0
-77,-531,0,0,0,0,0,0,0,0,0,-1,1147,1555,0,0
-70,-531,0,0,0,0,0,0,0,0,0,-1,1154,1555,0,0
-63,-531,0,0,0,0,0,0,0,0,0,-1,1161,1555,0,0
-56,-531,0,0,0,0,0,0,0,0,0,-1,1168,1555,0,0
-49,-531,0,0,0,0,0,0,0,0,0,-1,1175,1555,0,0
-42,-531,0,0,0,0,0,0,0,0,0,-1,1182,1555,0,0
-35,-531,0,0,0,0,0,0,0,0,0,-1,1189,1555,0,0
-28,-531,0,0,0,0,0,0,0,0,0,-1,1196,1555,0,0
-21,-531,0,0,0,0,0,0,0,0,0,-1,1203,1555,0,0
-14,-531,0,0,0,0,0,0,0,0,0,-1,1210,1555,0,0
-7,-531,0,0,0,0,0,0,0,0,0,-1,1217,1555,0,0
0,-531,0,0,0,0,0,0,0,0,0,-1,1224,1555,0,0
7,-531,0,0,0,0,0,0,0,0,0,-1,1231,1555,0,0
14,-531,0,0,0,0,0,0,0,0,0,-1,1238,1555,0,0
21,-531,0,0,0,0,0,0,0,0,0,-1,1245,1555,0,0
28,-531,0,0,0,0,0,0,0,0,0,-1,1252,1555,0,0
35,-531,0,0,0,0,0,0,0,0,0,-1,1259,1555,0,0
42,-531,0,0,0,0,0,0,0,0,0,-1,1266,1555,0,0
49,-531,0,0,0,0,0,0,0,0,0,-1,1273,1555,0,0
56,-531,0,0,0,0,0,0,0,0,0,-1,1280,1555,0,0
63,-531,0,0,0,0,0,0,0,0,0,-1,1287,1555,0,0
70,-531,0,0,0,0,0,0,0,0,0,-1,1294,1555,0,0
77,-531,0,0,0,0,0,0,0,0,0,-1,1301,1555,0,0
84,-531,0,0,0,0,0,0,0,0,0,-1,1308,1555,0,0
91,-531,0,0,0,0,0,0,0,0,0,-1,1315,1555,0,0
98,-531,0,0,0,0,0,0,0,0,0,-1,1322,1555,0,0
105,-531,0,0,0,0,0,0,0,0,0,-1,1329,1555,0,0
112,-531,0,0,0,0,0,0,0,0,0,-1,1336,1555,0,0
119,-531,0,0,0,0,0,0,0,0,0,-1,1343,1555,0,0
126,-531,0,0,0,0,0,0,0,0,0,-1,1350,1555,0,0
133,-531,0,0,0,0,0,0,0,0,0,-1,1357,1555,0,0
140,-531,0,0,0,0,0,0,0,0,0,-1,1364,1555,0,0
147,-531,0,0,0,0,0,0,0,0,0,-1,1371,1555,0,0
154,-531,0,0,0,0,0,0,0,0,0,-1,1378,1555,0,0
161,-531,0,0,0,0,0,0,0,0,0,-1,1385,1555,0,0
168,-531,0,0,0,0,0,0,0,0,0,-1,1392,1555,0,0
175,-531,0,0,0,0,0,0,0,0,0,-1,1399,1555,0,0
182,-531,0,0,0,0,0,0,0,0,0,-1,1406,1555,0,0
189,-531,0,0,0,0,0,0,0,0,0,-1,1413,1555,0,0
196,-531,0,0,0,0,0,0,0,0,0,-1,1420,1555,0,0
203,-531,0,0,0,0,0,0,0,0,0,-1,1427,1555,0,0
210,-531,0,0,0,0,0,0,0,0,0,-1,1434,1555,0,0
217,-531,0,0,0,0,0,0,0,0,0,-1,1441,1555,0,0
224,-531,0,0,0,0,0,0,0,0,0,-1,1448,1555,0,0
231,-531,0,0,0,0,0,0,0,0,0,-1,1455,1555,0,0
238,-531,0,0,0,0,0,0,0,0,0,-1,1462,1555,0,0
245,-531,0,0,0,0,0,0,0,0,0,-1,1469,1555,0,0
252,-531,0,0,0,0,0,0,0,0,0,-1,1476,1555,0,0
259,-531,0,0,0,0,0,0,0,0,0,-1,1483,1555,0,0
266,-531,0,0,0,0,0,0,0,0,0,-1,1490,1555,0,0
273,-531,0,0,0,0,0,0,0,0,0,-1,1497,1555,0,0
280,-531,0,0,0,0,0,0,0,0,0,-1,1504,1555,0,0
287,-531,0,0,0,0,0,0,0,0,0,-1,1511,1555,0,0
294,-531,0,0,0,0,0,0,0,0,0,-1,1518,1555,0,0
301,-531,0,0,0,0,0,0,0,0,0,-1,1525,1555,0,0
308,-531,0,0,0,0,0,0,0,0,0,-1,1532,1555,0,0
315,-531,0,0,0,0,0,0,0,0,0,-1,1539,1555,0,0
322,-531,0,0,0,0,0,0,0,0,0,-1,1546,1555,0,0
329,-531,0,0,0,0,0,0,0,0,0,-1,1553,1555,0,0
336,-531,0,0,0,0,0,0,0,0,0,-1,1560,1555,0,0
343,-531,0,0,0,0,0,0,0,0,0,-1,1567,1555,0,0
350,-531,0,0,0,0,0,0,0,0,0,-1,1574,1555,0,0
357,-531,0,0,0,0,0,0,0,0,0,-1,1581,1555,0,0
364,-531,0,0,0,0,0,0,0,0,0,-1,1588,1555,0,0
371,-531,0,0,0,0,0,0,0,0,0,-1,1595,1555,0,0
378,-531,0,0,0,0,0,0,0,0,0,-1,1602,1555,0,0
385,-531,3.48169,1.78625,0,0,0,0,0,0,0,-1,1609,1555,3.48165,-1.78624
392,-531,10.8781,9.09204,0,0,0,0,0,0,0,-1,1616,1555,10.8781,-9.09205
399,-531,8.26306,5.29602,0,0,0,0,0,0,0,-1,1623,1555,8.26302,-5.29607
406,-531,8.26147,5.42712,0,0,0,0,0,0,0,-1,1630,1555,8.26145,-5.42716
413,-531,8.20618,5.75012,0,0,0,0,0,0,0,-1,1637,1555,8.20619,-5.75017
420,-531,7.64868,7.09558,0,0,0,0,0,0,0,-1,1644,1555,7.64867,-7.09564
427,-531,9.93054,11.8412,0,0,0,0,0,0,0,-1,1651,1555,9.93059,-11.8412
434,-531,10.244,11.7072,0,0,0,0,0,0,0,-1,1658,1555,10.244,-11.7071
441,-531,11.4528,12.9397,0,0,0,0,0,0,0,-1,1665,1555,11.4528,-12.9397
448,-531,11.928,18.8029,0,0,0,0,0,0,0,-1,1672,1555,11.928,-18.8028
455,-531,14.4877,9.67065,0,0,0,0,0,0,0,-1,1679,1555,14.4876,-9.67066
462,-531,13.5253,12.2002,0,0,0,0,0,0,0,-1,1686,1555,13.5252,-12.2002
469,-531,15.5087,15.7894,0,0,0,0,0,0,0,-1,1693,1555,15.5086,-15.7895
476,-531,14.6582,16.2264,0,0,0,0,0,0,0,-1,1700,1555,14.6582,-16.2264
483,-531,14.755,18.5994,0,0,0,0,0,0,0,-1,1707,1555,14.7551,-18.5994
490,-531,15.4741,22.5215,0,0,0,0,0,0,0,-1,1714,1555,15.4741,-22.5214
497,-531,16.9574,23.8151,0,0,0,0,0,0,0,-1,1721,1555,16.9574,-23.8151
504,-531,17.0813,23.142,0.00816764,0.00883487,-0.0067606,0.0152701,0.00173243,-0.810052,0.00965453,0.0334314,1728,1555,17.0813,-23.142
511,-531,17.191,22.6063,0.00681497,0.0072617,-0.00556466,0.0126075,0.00146919,-0.805457,0.00796057,0.0159485,1735,1555,17.191,-22.6063
518,-531,17.2062,22.1418,0.00550199,0.00547791,-0.00422215,0.00971212,0.00126778,-0.783972,0.00609625,0.0146308,1742,1555,17.2062,-22.1418
525,-531,17.1978,21.7188,0.00424426,0.00387972,-0.00303055,0.00709802,0.00102596,-0.755362,0.0044298,0.0140098,1749,1555,17.1978,-21.7188
532,-531,17.2129,21.2371,0.0031615,0.00247451,-0.0019545,0.00480246,0.000833554,-0.698414,0.00296313,0.0110484,1756,1555,17.2129,-21.2371
539,-531,17.1893,20.7865,0.00232379,0.00124823,-0.00102708,0.00294536,0.00062666,-0.544224,0.0017916,0.0124451,1763,1555,17.1893,-20.7865
546,-531,17.1313,20.3358,0.00161834,4.87583e-05,-0.000155956,0.00163369,3.34123e-05,-0.0980838,0.00107816,0.0157881,1770,1555,17.1314,-20.3359
553,-531,17.2285,19.9016,0.00106396,-0.00103176,0.000630089,0.00123881,-0.00120661,0.270691,0.00141191,0.0307001,1777,1555,17.2285,-19.9016
560,-531,17.2533,19.4965,0.000816179,-0.00189673,0.00121935,0.00128367,-0.00236422,0.366111,0.00213669,0.0323686,1784,1555,17.2532,-19.4964
567,-531,17.0902,18.9705,0.00159624,-0.00285299,0.00144212,0.00202278,-0.00327953,0.287574,0.00308982,0.0195609,1791,1555,17.0902,-18.9705
574,-531,17.0842,18.5017,0.00255198,-0.00351564,0.00146231,0.00288601,-0.00384967,0.224574,0.00390209,0.0141135,1798,1555,17.0842,-18.5018
581,-531,17.1421,18.0104,0.00437905,-0.00406886,0.00105634,0.00450913,-0.00419895,0.122528,0.00502867,0.018595,1805,1555,17.1421,-18.0104
588,-531,17.1772,17.4716,0.00727125,-0.00455738,0.000247694,0.00727643,-0.00456256,0.020928,0.00689485,0.0361287,1812,1555,17.1772,-17.4715
595,-531,17.1537,16.8893,0,0,0,0,0,0,0,-1,1819,1555,17.1537,-16.8892
602,-531,13.701,11.8346,0,0,0,0,0,0,0,-1,1826,1555,13.701,-11.8347
609,-531,10.9072,8.50903,0,0,0,0,0,0,0,-1,1833,1555,10.9073,-8.50902
616,-531,10.5723,7.17859,0,0,0,0,0,0,0,-1,1840,1555,10.5723,-7.17855
623,-531,10.0674,5.08984,0,0,0,0,0,0,0,-1,1847,1555,10.0674,-5.08981
630,-531,11.672,3.18909,0,0,0,0,0,0,0,-1,1854,1555,11.672,-3.18904
637,-531,13.2546,1.38965,0,0,0,0,0,0,0,-1,1861,1555,13.2547,-1.3896
644,-531,0,0,0,0,0,0,0,0,0,-1,1868,1555,0,0
651,-531,0,0,0,0,0,0,0,0,0,-1,1875,1555,0,0
658,-531,0,0,0,0,0,0,0,0,0,-1,1882,1555,0,0
665,-531,0,0,0,0,0,0,0,0,0,-1,1889,1555,0,0
672,-531,0,0,0,0,0,0,0,0,0,-1,1896,1555,0,0
679,-531,0,0,0,0,0,0,0,0,0,-1,1903,1555,0,0
686,-531,0,0,0,0,0,0,0,0,0,-1,1910,1555,0,0
693,-531,0,0,0,0,0,0,0,0,0,-1,1917,1555,0,0
700,-531,0,0,0,0,0,0,0,0,0,-1,1924,1555,0,0
707,-531,0,0,0,0,0,0,0,0,0,-1,1931,1555,0,0
714,-531,0,0,0,0,0,0,0,0,0,-1,1938,1555,0,0
721,-531,0,0,0,0,0,0,0,0,0,-1,1945,1555,0,0
728,-531,0,0,0,0,0,0,0,0,0,-1,1952,1555,0,0
735,-531,0,0,0,0,0,0,0,0,0,-1,1959,1555,0,0
742,-531,0,0,0,0,0,0,0,0,0,-1,1966,1555,0,0
749,-531,0,0,0,0,0,0,0,0,0,-1,1973,1555,0,0
756,-531,0,0,0,0,0,0,0,0,0,-1,1980,1555,0,0
763,-531,0,0,0,0,0,0,0,0,0,-1,1987,1555,0,0
770,-531,0,0,0,0,0,0,0,0,0,-1,1994,1555,0,0
777,-531,0,0,0,0,0,0,0,0,0,-1,2001,1555,0,0
784,-531,0,0,0,0,0,0,0,0,0,-1,2008,1555,0,0
791,-531,0,0,0,0,0,0,0,0,0,-1,2015,1555,0,0
798,-531,0,0,0,0,0,0,0,0,0,-1,2022,1555,0,0
805,-531,0,0,0,0,0,0,0,0,0,-1,2029,1555,0,0
812,-531,0,0,0,0,0,0,0,0,0,-1,2036,1555,0,0
-700,-538,0,0,0,0,0,0,0,0,0,-1,524,1562,0,0
-693,-538,0,0,0,0,0,0,0,0,0,-1,531,1562,0,0
-686,-538,0,0,0,0,0,0,0,0,0,-1,538,1562,0,0
-679,-538,0,0,0,0,0,0,0,0,0,-1,545,1562,0,0
-672,-538,0,0,0,0,0,0,0,0,0,-1,552,1562,0,0
-665,-538,0,0,0,0,0,0,0,0,0,-1,559,1562,0,0
-658,-538,0,0,0,0,0,0,0,0,0,-1,566,1562,0,0
-651,-538,0,0,0,0,0,0,0,0,0,-1,573,1562,0,0
-644,-538,0,0,0,0,0,0,0,0,0,-1,580,1562,0,0
-637,-538,0,0,0,0,0,0,0,0,0,-1,587,1562,0,0
-630,-538,0,0,0,0,0,0,0,0,0,-1,594,1562,0,0
-623,-538,0,0,0,0,0,0,0,0,0,-1,601,1562,0,0
-616,-538,0,0,0,0,0,0,0,0,0,-1,608,1562,0,0
-609,-538,0,0,0,0,0,0,0,0,0,-1,615,1562,0,0
-602,-538,0,0,0,0,0,0,0,0,0,-1,622,1562,0,0
-595,-538,0,0,0,0,0,0,0,0,0,-1,629,1562,0,0
-588,-538,0,0,0,0,0,0,0,0,0,-1,636,1562,0,0
-581,-538,0,0,0,0,0,0,0,0,0,-1,643,1562,0,0
-574,-538,0,0,0,0,0,0,0,0,0,-1,650,1562,0,0
-567,-538,0,0,0,0,0,0,0,0,0,-1,657,1562,0,0
-560,-538,0,0,0,0,0,0,0,0,0,-1,664,1562,0,0
-553,-538,0,0,0,0,0,0,0,0,0,-1,671,1562,0,0
-546,-538,0,0,0,0,0,0,0,0,0,-1,678,1562,0,0
-539,-538,0,0,0,0,0,0,0,0,0,-1,685,1562,0,0
-532,-538,0,0,0,0,0,0,0,0,0,-1,692,1562,0,0
-525,-538,0,0,0,0,0,0,0,0,0,-1,699,1562,0,0
-518,-538,0,0,0,0,0,0,0,0,0,-1,706,1562,0,0
-511,-538,-2.6582,-1.54321,0,0,0,0,0,0,0,-1,713,1562,-2.65821,1.54327
-504,-538,-2.66455,-0.71167,0,0,0,0,0,0,0,-1,720,1562,-2.66456,0.711667
-497,-538,-0.763855,6.77747,0,0,0,0,0,0,0,-1,727,1562,-0.76385,-6.77743
-490,-538,-2.70453,8.01465,0,0,0,0,0,0,0,-1,734,1562,-2.70451,-8.0147
-483,-538,-0.933533,7.84644,0,0,0,0,0,0,0,-1,741,1562,-0.933548,-7.84638
-476,-538,-3.03552,15.3466,0,0,0,0,0,0,0,-1,748,1562,-3.03552,-15.3466
-469,-538,-1.29877,14.3845,0,0,0,0,0,0,0,-1,755,1562,-1.29878,-14.3845
-462,-538,-1.46765,15.3129,0,0,0,0,0,0,0,-1,762,1562,-1.46768,-15.3129
-455,-538,-1.59955,16.1941,-0.00226038,0.0115962,0.00432201,0.0128338,-0.00349793,1.29192,0.00992937,0.0433076,769,1562,-1.59955,-16.1941
-448,-538,-1.54181,16.7734,-0.00180979,0.00861726,0.00339683,0.00962622,-0.00281875,1.28207,0.0075349,0.0206915,776,1562,-1.54181,-16.7734
-441,-538,-1.62732,17.2494,-0.00155844,0.0062066,0.00251711,0.00695115,-0.002303,1.2832,0.005563,0.0215423,783,1562,-1.62735,-17.2494
-434,-538,-1.68854,17.6917,-0.00124977,0.00443277,0.00189802,0.00500842,-0.00182541,1.27633,0.00408568,0.0121189,790,1562,-1.68855,-17.6916
-427,-538,-1.71942,18.2129,-0.000739828,0.00327168,0.00165621,0.0038671,-0.00133525,1.22568,0.00311989,0.0126823,797,1562,-1.71939,-18.2129
-420,-538,-1.74725,18.6953,-0.000268719,0.00268335,0.00154028,0.00334066,-0.000926028,1.16745,0.00259153,0.0174063,804,1562,-1.74724,-18.6953
-413,-538,-1.7522,19.1708,0.00030059,0.00268553,0.00167079,0.00354575,-0.000559624,1.09534,0.00257076,0.0176666,811,1562,-1.75218,-19.1708
-406,-538,-1.74658,19.632,0.000995953,0.00318847,0.00204074,0.00440876,-0.00022434,1.03187,0.00301674,0.0139056,818,1562,-1.74655,-19.632
-399,-538,-1.74115,20.1324,0.00170602,0.00383667,0.00252151,0.00550867,3.40187e-05,0.985271,0.00366116,0.0138303,825,1562,-1.74117,-20.1325
-392,-538,-1.74335,20.6113,0.00247588,0.00514074,0.00308995,0.00717331,0.000443322,0.988959,0.00464149,0.0149424,832,1562,-1.74334,-20.6113
-385,-538,-1.80151,21.1006,0.00347627,0.00662708,0.00388765,0.0092464,0.000856948,0.977903,0.0058994,0.0131713,839,1562,-1.80152,-21.1005
-378,-538,-1.80963,21.5774,0.00445409,0.00842127,0.00466804,0.0115097,0.00136568,0.986304,0.00726084,0.0109107,846,1562,-1.80961,-21.5773
-371,-538,-1.83929,22.0237,0.00534658,0.0101661,0.00538328,0.0136543,0.00185832,0.995841,0.00855103,0.0134319,853,1562,-1.83928,-22.0237
-364,-538,-1.75885,22.5615,0.00639648,0.0121508,0.00617794,0.0160887,0.0024586,1.00332,0.0100075,0.0173483,860,1562,-1.75883,-22.5615
-357,-538,-1.7049,23.1433,0.00753096,0.0143144,0.00697487,0.0186785,0.00316687,1.0117,0.0115424,0.0380563,867,1562,-1.70488,-23.1433
-350,-538,-1.55035,23.906,0,0,0,0,0,0,0,-1,874,1562,-1.55036,-23.906
-343,-538,-1.81873,24.1959,0.00991615,0.0193967,0.00867855,0.0245452,0.00476768,1.03536,0.0150285,0.0471701,881,1562,-1.81875,-24.1959
-336,-538,-1.74933,24.8805,0,0,0,0,0,0,0,-1,888,1562,-1.74932,-24.8805
-329,-538,-1.59497,25.3386,0,0,0,0,0,0,0,-1,895,1562,-1.595,-25.3386
-322,-538,-3.27972,24.5345,0,0,0,0,0,0,0,-1,902,1562,-3.27971,-24.5345
-315,-538,-3.80261,24.2098,0,0,0,0,0,0,0,-1,909,1562,-3.80261,-24.2098
-308,-538,-4.33704,23.9226,0,0,0,0,0,0,0,-1,916,1562,-4.33704,-23.9226
-301,-538,-0.452393,18.5101,0,0,0,0,0,0,0,-1,923,1562,-0.452367,-18.5102
-294,-538,1.23138,14.0757,0,0,0,0,0,0,0,-1,930,1562,1.23137,-14.0757
-287,-538,-2.60419,10.2361,0,0,0,0,0,0,0,-1,937,1562,-2.6042,-10.2361
-280,-538,-2.93475,10.5106,0,0,0,0,0,0,0,-1,944,1562,-2.93475,-10.5106
-273,-538,-3.26532,10.785,0,0,0,0,0,0,0,-1,951,1562,-3.26531,-10.785
-266,-538,-5.03412,15.9951,0,0,0,0,0,0,0,-1,958,1562,-5.03409,-15.9951
-259,-538,-5.89642,16.5184,0,0,0,0,0,0,0,-1,965,1562,-5.89644,-16.5184
-252,-538,0,0,0,0,0,0,0,0,0,-1,972,1562,0,0
-245,-538,0,0,0,0,0,0,0,0,0,-1,979,1562,0,0
-238,-538,0,0,0,0,0,0,0,0,0,-1,986,1562,0,0
-231,-538,0,0,0,0,0,0,0,0,0,-1,993,1562,0,0
-224,-538,0,0,0,0,0,0,0,0,0,-1,1000,1562,0,0
-217,-538,0,0,0,0,0,0,0,0,0,-1,1007,1562,0,0
-210,-538,0,0,0,0,0,0,0,0,0,-1,1014,1562,0,0
-203,-538,0,0,0,0,0,0,0,0,0,-1,1021,1562,0,0
-196,-538,0,0,0,0,0,0,0,0,0,-1,1028,1562,0,0
-189,-538,0,0,0,0,0,0,0,0,0,-1,1035,1562,0,0
-182,-538,0,0,0,0,0,0,0,0,0,-1,1042,1562,0,0
-175,-538,0,0,0,0,0,0,0,0,0,-1,1049,1562,0,0
-168,-538,0,0,0,0,0,0,0,0,0,-1,1056,1562,0,0
-161,-538,0,0,0,0,0,0,0,0,0,-1,1063,1562,0,0
-154,-538,0,0,0,0,0,0,0,0,0,-1,1070,1562,0,0
-147,-538,0,0,0,0,0,0,0,0,0,-1,1077,1562,0,0
-140,-538,0,0,0,0,0,0,0,0,0,-1,1084,1562,0,0
-133,-538,0,0,0,0,0,0,0,0,0,-1,1091,1562,0,0
-126,-538,0,0,0,0,0,0,0,0,0,-1,1098,1562,0,0
-119,-538,0,0,0,0,0,0,0,0,0,-1,1105,1562,0,0
-112,-538,0,0,0,0,0,0,0,0,0,-1,1112,1562,0,0
-105,-538,0,0,0,0,0,0,0,0,0,-1,1119,1562,0,0
-98,-538,0,0,0,0,0,0,0,0,0,-1,1126,1562,0,0
-91,-538,0,0,0,0,0,0,0,0,0,-1,1133,1562,0,0
-84,-538,0,0,0,0,0,0,0,0,0,-1,1140,1562,0,0
-77,-538,0,0,0,0,0,0,0,0,0,-1,1147,1562,0,0
-70,-538,0,0,0,0,0,0,0,0,0,-1,1154,1562,0,0
-63,-538,0,0,0,0,0,0,0,0,0,-1,1161,1562,0,0
-56,-538,0,0,0,0,0,0,0,0,0,-1,1168,1562,0,0
-49,-538,0,0,0,0,0,0,0,0,0,-1,1175,1562,0,0
-42,-538,0,0,0,0,0,0,0,0,0,-1,1182,1562,0,0
-35,-538,0,0,0,0,0,0,0,0,0,-1,1189,1562,0,0
-28,-538,0,0,0,0,0,0,0,0,0,-1,1196,1562,0,0
-21,-538,0,0,0,0,0,0,0,0,0,-1,1203,1562,0,0
-14,-538,0,0,0,0,0,0,0,0,0,-1,1210,1562,0,0
-7,-538,0,0,0,0,0,0,0,0,0,-1,1217,1562,0,0
0,-538,0,0,0,0,0,0,0,0,0,-1,1224,1562,0,0
7,-538,0,0,0,0,0,0,0,0,0,-1,1231,1562,0,0
14,-538,0,0,0,0,0,0,0,0,0,-1,1238,1562,0,0
21,-538,0,0,0,0,0,0,0,0,0,-1,1245,1562,0,0
28,-538,0,0,0,0,0,0,0,0,0,-1,1252,1562,0,0
35,-538,0,0,0,0,0,0,0,0,0,-1,1259,1562,0,0
42,-538,0,0,0,0,0,0,0,0,0,-1,1266,1562,0,0
49,-538,0,0,0,0,0,0,0,0,0,-1,1273,1562,0,0
56,-538,0,0,0,0,0,0,0,0,0,-1,1280,1562,0,0
63,-538,0,0,0,0,0,0,0,0,0,-1,1287,1562,0,0
70,-538,0,0,0,0,0,0,0,0,0,-1,1294,1562,0,0
77,-538,0,0,0,0,0,0,0,0,0,-1,1301,1562,0,0
84,-538,0,0,0,0,0,0,0,0,0,-1,1308,1562,0,0
91,-538,0,0,0,0,0,0,0,0,0,-1,1315,1562,0,0
98,-538,0,0,0,0,0,0,0,0,0,-1,1322,1562,0,0
105,-538,0,0,0,0,0,0,0,0,0,-1,1329,1562,0,0
112,-538,0,0,0,0,0,0,0,0,0,-1,1336,1562,0,0
119,-538,0,0,0,0,0,0,0,0,0,-1,1343,1562,0,0
126,-538,0,0,0,0,0,0,0,0,0,-1,1350,1562,0,0
133,-538,0,0,0,0,0,0,0,0,0,-1,1357,1562,0,0
140,-538,0,0,0,0,0,0,0,0,0,-1,1364,1562,0,0
147,-538,0,0,0,0,0,0,0,0,0,-1,1371,1562,0,0
154,-538,0,0,0,0,0,0,0,0,0,-1,1378,1562,0,0
161,-538,0,0,0,0,0,0,0,0,0,-1,1385,1562,0,0
168,-538,0,0,0,0,0,0,0,0,0,-1,1392,1562,0,0
175,-538,0,0,0,0,0,0,0,0,0,-1,1399,1562,0,0
182,-538,0,0,0,0,0,0,0,0,0,-1,1406,1562,0,0
189,-538,0,0,0,0,0,0,0,0,0,-1,1413,1562,0,0
196,-538,0,0,0,0,0,0,0,0,0,-1,1420,1562,0,0
203,-538,0,0,0,0,0,0,0,0,0,-1,1427,1562,0,0
210,-538,0,0,0,0,0,0,0,0,0,-1,1434,1562,0,0
217,-538,0,0,0,0,0,0,0,0,0,-1,1441,1562,0,0
224,-538,0,0,0,0,0,0,0,0,0,-1,1448,1562,0,0
231,-538,0,0,0,0,0,0,0,0,0,-1,1455,1562,0,0
238,-538,0,0,0,0,0,0,0,0,0,-1,1462,1562,0,0
245,-538,0,0,0,0,0,0,0,0,0,-1,1469,1562,0,0
252,-538,0,0,0,0,0,0,0,0,0,-1,1476,1562,0,0
259,-538,0,0,0,0,0,0,0,0,0,-1,1483,1562,0,0
266,-538,0,0,0,0,0,0,0,0,0,-1,1490,1562,0,0
273,-538,0,0,0,0,0,0,0,0,0,-1,1497,1562,0,0
280,-538,0,0,0,0,0,0,0,0,0,-1,1504,1562,0,0
287,-538,0,0,0,0,0,0,0,0,0,-1,1511,1562,0,0
294,-538,0,0,0,0,0,0,0,0,0,-1,1518,1562,0,0
301,-538,0,0,0,0,0,0,0,0,0,-1,1525,1562,0,0
308,-538,0,0,0,0,0,0,0,0,0,-1,1532,1562,0,0
315,-538,0,0,0,0,0,0,0,0,0,-1,1539,1562,0,0
322,-538,0,0,0,0,0,0,0,0,0,-1,1546,1562,0,0
329,-538,0,0,0,0,0,0,0,0,0,-1,1553,1562,0,0
336,-538,0,0,0,0,0,0,0,0,0,-1,1560,1562,0,0
343,-538,0,0,0,0,0,0,0,0,0,-1,1567,1562,0,0
350,-538,0,0,0,0,0,0,0,0,0,-1,1574,1562,0,0
357,-538,0,0,0,0,0,0,0,0,0,-1,1581,1562,0,0
364,-538,0,0,0,0,0,0,0,0,0,-1,1588,1562,0,0
371,-538,0,0,0,0,0,0,0,0,0,-1,1595,1562,0,0
378,-538,9.65479,5.82434,0,0,0,0,0,0,0,-1,1602,1562,9.6548,-5.82439
385,-538,10.5449,7.9502,0,0,0,0,0,0,0,-1,1609,1562,10.5449,-7.95014
392,-538,8.20361,7.07214,0,0,0,0,0,0,0,-1,1616,1562,8.20362,-7.07211
399,-538,7.85425,4.70508,0,0,0,0,0,0,0,-1,1623,1562,7.85425,-4.70512
406,-538,7.77734,4.96094,0,0,0,0,0,0,0,-1,1630,1562,7.77729,-4.96097
413,-538,13.0446,13.1765,0,0,0,0,0,0,0,-1,1637,1562,13.0446,-13.1765
420,-538,9.96216,12.7653,0,0,0,0,0,0,0,-1,1644,1562,9.96221,-12.7653
427,-538,10.1732,14.5863,0,0,0,0,0,0,0,-1,1651,1562,10.1732,-14.5863
434,-538,9.64331,14.7745,0,0,0,0,0,0,0,-1,1658,1562,9.64326,-14.7746
441,-538,11.5039,20.5195,0,0,0,0,0,0,0,-1,1665,1562,11.5039,-20.5195
448,-538,12.8766,22.4932,0,0,0,0,0,0,0,-1,1672,1562,12.8766,-22.4932
455,-538,12.5693,17.4128,0,0,0,0,0,0,0,-1,1679,1562,12.5694,-17.4128
462,-538,12.1389,17.017,0,0,0,0,0,0,0,-1,1686,1562,12.1389,-17.017
469,-538,14.3802,16.6945,0,0,0,0,0,0,0,-1,1693,1562,14.3803,-16.6945
476,-538,13.724,19.0608,0,0,0,0,0,0,0,-1,1700,1562,13.724,-19.0608
483,-538,16.0903,24.2487,0,0,0,0,0,0,0,-1,1707,1562,16.0904,-24.2486
490,-538,16.5538,24.1012,0,0,0,0,0,0,0,-1,1714,1562,16.5538,-24.1012
497,-538,16.6639,23.587,0.00710658,0.00937019,-0.00623877,0.014579,0.00189778,-0.87513,0.00915255,0.0341792,1721,1562,16.6639,-23.5871
504,-538,16.7607,23.0184,0.0062823,0.00719789,-0.00522101,0.0119811,0.00149906,-0.829128,0.00753759,0.0152339,1728,1562,16.7607,-23.0184
511,-538,16.7399,22.5764,0.00516565,0.00566622,-0.00414875,0.00957223,0.00125964,-0.815526,0.0060058,0.0104529,1735,1562,16.7399,-22.5764
518,-538,16.7419,22.1396,0.00404309,0.0039826,-0.00296335,0.00697635,0.00104934,-0.780295,0.00434358,0.0111352,1742,1562,16.742,-22.1397
525,-538,16.7291,21.6989,0.00300562,0.00248035,-0.00189116,0.0046523,0.000833667,-0.716402,0.00286437,0.0123647,1749,1562,16.7291,-21.6989
532,-538,16.7463,21.2551,0.00212902,0.00113156,-0.000907305,0.00266563,0.000594946,-0.534098,0.00161571,0.0135918,1756,1562,16.7463,-21.2551
539,-538,16.7369,20.826,0.00142387,-7.42916e-05,-1.45138e-05,0.00142401,-7.44322e-05,-0.00968653,0.000975097,0.0156476,1763,1562,16.737,-20.826
546,-538,16.6852,20.3628,0.00079241,-0.00131756,0.00088529,0.00111464,-0.00163979,0.34908,0.00159988,0.0171869,1770,1562,16.6852,-20.3628
553,-538,16.7228,19.8927,0.000300266,-0.00247882,0.00173357,0.00113245,-0.003311,0.447555,0.00266623,0.0282283,1777,1562,16.7227,-19.8928
560,-538,16.6624,19.5314,0.000107743,-0.00344019,0.00240622,0.00132323,-0.00465568,0.467755,0.00362625,0.032173,1784,1562,16.6624,-19.5314
567,-538,16.5868,19.0435,0.000917245,-0.00450837,0.00275718,0.00207243,-0.00566356,0.396755,0.004624,0.0230145,1791,1562,16.5868,-19.0434
574,-538,16.564,18.5217,0.0019503,-0.00529362,0.00290435,0.00297095,-0.00631427,0.33794,0.00547544,0.0239602,1798,1562,16.5639,-18.5218
581,-538,16.6847,18.0298,0.00404084,-0.00590101,0.00250475,0.00463623,-0.0064964,0.233373,0.00645727,0.0324851,1805,1562,16.6847,-18.0298
588,-538,16.9525,17.5465,0,0,0,0,0,0,0,-1,1812,1562,16.9525,-17.5466
595,-538,15.9808,16.0894,0,0,0,0,0,0,0,-1,1819,1562,15.9808,-16.0893
602,-538,10.314,8.94238,0,0,0,0,0,0,0,-1,1826,1562,10.314,-8.94238
609,-538,10.1046,7.05713,0,0,0,0,0,0,0,-1,1833,1562,10.1046,-7.05719
616,-538,9.92249,5.43506,0,0,0,0,0,0,0,-1,1840,1562,9.92254,-5.43507
623,-538,11.1711,4.31604,0,0,0,0,0,0,0,-1,1847,1562,11.1711,-4.316
630,-538,12.6112,2.61633,0,0,0,0,0,0,0,-1,1854,1562,12.6112,-2.61637
637,-538,0,0,0,0,0,0,0,0,0,-1,1861,1562,0,0
644,-538,0,0,0,0,0,0,0,0,0,-1,1868,1562,0,0
651,-538,0,0,0,0,0,0,0,0,0,-1,1875,1562,0,0
658,-538,0,0,0,0,0,0,0,0,0,-1,1882,1562,0,0
665,-538,0,0,0,0,0,0,0,0,0,-1,1889,1562,0,0
672,-538,0,0,0,0,0,0,0,0,0,-1,1896,1562,0,0
679,-538,0,0,0,0,0,0,0,0,0,-1,1903,1562,0,0
686,-538,0,0,0,0,0,0,0,0,0,-1,1910,1562,0,0
693,-538,0,0,0,0,0,0,0,0,0,-1,1917,1562,0,0
700,-538,0,0,0,0,0,0,0,0,0,-1,1924,1562,0,0
707,-538,0,0,0,0,0,0,0,0,0,-1,1931,1562,0,0
714,-538,0,0,0,0,0,0,0,0,0,-1,1938,1562,0,0
721,-538,0,0,0,0,0,0,0,0,0,-1,1945,1562,0,0
728,-538,0,0,0,0,0,0,0,0,0,-1,1952,1562,0,0
735,-538,0,0,0,0,0,0,0,0,0,-1,1959,1562,0,0
742,-538,0,0,0,0,0,0,0,0,0,-1,1966,1562,0,0
749,-538,0,0,0,0,0,0,0,0,0,-1,1973,1562,0,0
756,-538,0,0,0,0,0,0,0,0,0,-1,1980,1562,0,0
763,-538,0,0,0,0,0,0,0,0,0,-1,1987,1562,0,0
770,-538,0,0,0,0,0,0,0,0,0,-1,1994,1562,0,0
777,-538,0,0,0,0,0,0,0,0,0,-1,2001,1562,0,0
784,-538,0,0,0,0,0,0,0,0,0,-1,2008,1562,0,0
791,-538,0,0,0,0,0,0,0,0,0,-1,2015,1562,0,0
798,-538,0,0,0,0,0,0,0,0,0,-1,2022,1562,0,0
805,-538,0,0,0,0,0,0,0,0,0,-1,2029,1562,0,0
812,-538,0,0,0,0,0,0,0,0,0,-1,2036,1562,0,0
-700,-545,0,0,0,0,0,0,0,0,0,-1,524,1569,0,0
-693,-545,0,0,0,0,0,0,0,0,0,-1,531,1569,0,0
-686,-545,0,0,0,0,0,0,0,0,0,-1,538,1569,0,0
-679,-545,0,0,0,0,0,0,0,0,0,-1,545,1569,0,0
-672,-545,0,0,0,0,0,0,0,0,0,-1,552,1569,0,0
-665,-545,0,0,0,0,0,0,0,0,0,-1,559,1569,0,0
-658,-545,0,0,0,0,0,0,0,0,0,-1,566,1569,0,0
-651,-545,0,0,0,0,0,0,0,0,0,-1,573,1569,0,0
-644,-545,0,0,0,0,0,0,0,0,0,-1,580,1569,0,0
-637,-545,0,0,0,0,0,0,0,0,0,-1,587,1569,0,0
-630,-545,0,0,0,0,0,0,0,0,0,-1,594,1569,0,0
-623,-545,0,0,0,0,0,0,0,0,0,-1,601,1569,0,0
-616,-545,0,0,0,0,0,0,0,0,0,-1,608,1569,0,0
-609,-545,0,0,0,0,0,0,0,0,0,-1,615,1569,0,0
-602,-545,0,0,0,0,0,0,0,0,0,-1,622,1569,0,0
-595,-545,0,0,0,0,0,0,0,0,0,-1,629,1569,0,0
-588,-545,0,0,0,0,0,0,0,0,0,-1,636,1569,0,0
-581,-545,0,0,0,0,0,0,0,0,0,-1,643,1569,0,0
-574,-545,0,0,0,0,0,0,0,0,0,-1,650,1569,0,0
-567,-545,0,0,0,0,0,0,0,0,0,-1,657,1569,0,0
-560,-545,0,0,0,0,0,0,0,0,0,-1,664,1569,0,0
-553,-545,0,0,0,0,0,0,0,0,0,-1,671,1569,0,0
-546,-545,0,0,0,0,0,0,0,0,0,-1,678,1569,0,0
-539,-545,0,0,0,0,0,0,0,0,0,-1,685,1569,0,0
-532,-545,0,0,0,0,0,0,0,0,0,-1,692,1569,0,0
-525,-545,0,0,0,0,0,0,0,0,0,-1,699,1569,0,0
-518,-545,0,0,0,0,0,0,0,0,0,-1,706,1569,0,0
-511,-545,0,0,0,0,0,0,0,0,0,-1,713,1569,0,0
-504,-545,-3.55237,-2.5354,0,0,0,0,0,0,0,-1,720,1569,-3.55236,2.53545
-497,-545,2.26575,5.69214,0,0,0,0,0,0,0,-1,727,1569,2.26573,-5.6922
-490,-545,-2.17334,7.81396,0,0,0,0,0,0,0,-1,734,1569,-2.17334,-7.81399
-483,-545,-1.88336,5.8446,0,0,0,0,0,0,0,-1,741,1569,-1.88334,-5.84466
-476,-545,-1.13147,6.5741,0,0,0,0,0,0,0,-1,748,1569,-1.13149,-6.57405
-469,-545,-3.65411,16.1852,0,0,0,0,0,0,0,-1,755,1569,-3.65412,-16.1851
-462,-545,-1.10413,14.881,0,0,0,0,0,0,0,-1,762,1569,-1.10412,-14.881
-455,-545,-1.08722,15.764,-0.000728068,0.0169137,0.00743273,0.0196277,-0.00344206,1.2207,0.0143706,0.047574,769,1569,-1.08723,-15.7641
-448,-545,-1.04938,16.6458,-0.00102155,0.0122781,0.00555348,0.0142921,-0.00303552,1.2229,0.0106846,0.0338496,776,1569,-1.04938,-16.6457
-441,-545,-1.04755,17.3586,-0.00135702,0.00860966,0.00388295,0.00994383,-0.00269119,1.23984,0.00768499,0.0259599,783,1569,-1.04753,-17.3586
-434,-545,-1.25604,17.7539,-0.0015069,0.00574408,0.00263031,0.00659773,-0.00236055,1.25698,0.00536145,0.0225696,790,1569,-1.25605,-17.754
-427,-545,-1.24554,18.2184,-0.00129504,0.00378471,0.00191304,0.00442456,-0.00193489,1.24802,0.00376425,0.0183653,797,1569,-1.24552,-18.2184
-420,-545,-1.22894,18.6705,-0.00100358,0.00266687,0.00147171,0.00318408,-0.00152079,1.23284,0.00277237,0.0232517,804,1569,-1.22892,-18.6706
-413,-545,-1.24414,19.1163,-0.00057012,0.00222932,0.00133065,0.00276088,-0.00110168,1.19074,0.00229761,0.0236085,811,1569,-1.24416,-19.1163
-406,-545,-1.23584,19.6384,1.41922e-05,0.00234809,0.00146002,0.00305021,-0.000687931,1.12255,0.00229738,0.0168828,818,1569,-1.23584,-19.6385
-399,-545,-1.24414,20.1442,0.000610317,0.00252335,0.00168769,0.00350673,-0.000373064,1.04321,0.00247158,0.011754,825,1569,-1.24415,-20.1441
-392,-545,-1.27783,20.6315,0.00121096,0.00331025,0.00194363,0.00446955,5.165e-05,1.03298,0.00296264,0.012206,832,1569,-1.27785,-20.6314
-385,-545,-1.29218,21.1068,0.00213432,0.00454544,0.00256778,0.00617658,0.000503182,1.00487,0.00396066,0.0103935,839,1569,-1.29217,-21.1068
-378,-545,-1.32831,21.5817,0.00312814,0.00604712,0.00323509,0.0081367,0.00103856,0.9973,0.00511356,0.0119315,846,1569,-1.32834,-21.5816
-371,-545,-1.3559,22.0732,0.00397167,0.00745216,0.00377217,0.00986616,0.00155767,1.00152,0.0061246,0.0146496,853,1569,-1.35588,-22.0732
-364,-545,-1.33661,22.5104,0.00490948,0.00906,0.0043882,0.0118389,0.00213057,1.00627,0.00728699,0.0103212,860,1569,-1.33659,-22.5104
-357,-545,-1.26257,23.0679,0.00591708,0.0108018,0.00500007,0.0139242,0.00279476,1.01259,0.00850564,0.0166896,867,1569,-1.26258,-23.0679
-350,-545,-1.22119,23.5952,0.00701284,0.0127546,0.00566986,0.016239,0.00352847,1.01975,0.00986252,0.0252288,874,1569,-1.22117,-23.5953
-343,-545,-1.2912,23.9995,0.00812782,0.0148743,0.00639364,0.01873,0.00427214,1.02814,0.0113342,0.0407469,881,1569,-1.29118,-23.9996
-336,-545,-1.06079,24.2582,0,0,0,0,0,0,0,-1,888,1569,-1.0608,-24.2582
-329,-545,-2.29504,23.8047,0,0,0,0,0,0,0,-1,895,1569,-2.29505,-23.8047
-322,-545,-2.96466,23.9288,0,0,0,0,0,0,0,-1,902,1569,-2.96467,-23.9288
-315,-545,-3.46771,23.6332,0,0,0,0,0,0,0,-1,909,1569,-3.46769,-23.6332
-308,-545,-1.54358,21.4457,0,0,0,0,0,0,0,-1,916,1569,-1.54357,-21.4457
-301,-545,1.52191,17.5009,0,0,0,0,0,0,0,-1,923,1569,1.52192,-17.5008
-294,-545,-2.69287,8.42102,0,0,0,0,0,0,0,-1,930,1569,-2.69287,-8.42097
-287,-545,-3.47784,9.96021,0,0,0,0,0,0,0,-1,937,1569,-3.47785,-9.96021
-280,-545,-3.7879,10.5448,0,0,0,0,0,0,0,-1,944,1569,-3.78793,-10.5448
-273,-545,-5.10333,12.864,0,0,0,0,0,0,0,-1,951,1569,-5.10331,-12.864
-266,-545,-5.78955,13.3704,0,0,0,0,0,0,0,-1,958,1569,-5.78952,-13.3703
-259,-545,-6.32184,13.8101,0,0,0,0,0,0,0,-1,965,1569,-6.32182,-13.81
-252,-545,0.369263,7.54053,0,0,0,0,0,0,0,-1,972,1569,0.369276,-7.54056
-245,-545,-0.236633,6.65564,0,0,0,0,0,0,0,-1,979,1569,-0.236605,-6.65566
-238,-545,0,0,0,0,0,0,0,0,0,-1,986,1569,0,0
-231,-545,0,0,0,0,0,0,0,0,0,-1,993,1569,0,0
-224,-545,0,0,0,0,0,0,0,0,0,-1,1000,1569,0,0
-217,-545,0,0,0,0,0,0,0,0,0,-1,1007,1569,0,0
-210,-545,0,0,0,0,0,0,0,0,0,-1,1014,1569,0,0
-203,-545,0,0,0,0,0,0,0,0,0,-1,1021,1569,0,0
-196,-545,0,0,0,0,0,0,0,0,0,-1,1028,1569,0,0
-189,-545,0,0,0,0,0,0,0,0,0,-1,1035,1569,0,0
-182,-545,0,0,0,0,0,0,0,0,0,-1,1042,1569,0,0
-175,-545,0,0,0,0,0,0,0,0,0,-1,1049,1569,0,0
-168,-545,0,0,0,0,0,0,0,0,0,-1,1056,1569,0,0
-161,-545,0,0,0,0,0,0,0,0,0,-1,1063,1569,0,0
-154,-545,0,0,0,0,0,0,0,0,0,-1,1070,1569,0,0
-147,-545,0,0,0,0,0,0,0,0,0,-1,1077,1569,0,0
-140,-545,0,0,0,0,0,0,0,0,0,-1,1084,1569,0,0
-133,-545,0,0,0,0,0,0,0,0,0,-1,1091,1569,0,0
-126,-545,0,0,0,0,0,0,0,0,0,-1,1098,1569,0,0
-119,-545,0,0,0,0,0,0,0,0,0,-1,1105,1569,0,0
-112,-545,0,0,0,0,0,0,0,0,0,-1,1112,1569,0,0
-105,-545,0,0,0,0,0,0,0,0,0,-1,1119,1569,0,0
-98,-545,0,0,0,0,0,0,0,0,0,-1,1126,1569,0,0
-91,-545,0,0,0,0,0,0,0,0,0,-1,1133,1569,0,0
-84,-545,0,0,0,0,0,0,0,0,0,-1,1140,1569,0,0
-77,-545,0,0,0,0,0,0,0,0,0,-1,1147,1569,0,0
-70,-545,0,0,0,0,0,0,0,0,0,-1,1154,1569,0,0
-63,-545,0,0,0,0,0,0,0,0,0,-1,1161,1569,0,0
-56,-545,0,0,0,0,0,0,0,0,0,-1,1168,1569,0,0
-49,-545,0,0,0,0,0,0,0,0,0,-1,1175,1569,0,0
-42,-545,0,0,0,0,0,0,0,0,0,-1,1182,1569,0,0
-35,-545,0,0,0,0,0,0,0,0,0,-1,1189,1569,0,0
-28,-545,0,0,0,0,0,0,0,0,0,-1,1196,1569,0,0
-21,-545,0,0,0,0,0,0,0,0,0,-1,1203,1569,0,0
-14,-545,0,0,0,0,0,0,0,0,0,-1,1210,1569,0,0
-7,-545,0,0,0,0,0,0,0,0,0,-1,1217,1569,0,0
0,-545,0,0,0,0,0,0,0,0,0,-1,1224,1569,0,0
7,-545,0,0,0,0,0,0,0,0,0,-1,1231,1569,0,0
14,-545,0,0,0,0,0,0,0,0,0,-1,1238,1569,0,0
21,-545,0,0,0,0,0,0,0,0,0,-1,1245,1569,0,0
28,-545,0,0,0,0,0,0,0,0,0,-1,1252,1569,0,0
35,-545,0,0,0,0,0,0,0,0,0,-1,1259,1569,0,0
42,-545,0,0,0,0,0,0,0,0,0,-1,1266,1569,0,0
49,-545,0,0,0,0,0,0,0,0,0,-1,1273,1569,0,0
56,-545,0,0,0,0,0,0,0,0,0,-1,1280,1569,0,0
63,-545,0,0,0,0,0,0,0,0,0,-1,1287,1569,0,0
70,-545,0,0,0,0,0,0,0,0,0,-1,1294,1569,0,0
77,-545,0,0,0,0,0,0,0,0,0,-1,1301,1569,0,0
84,-545,0,0,0,0,0,0,0,0,0,-1,1308,1569,0,0
91,-545,0,0,0,0,0,0,0,0,0,-1,1315,1569,0,0
98,-545,0,0,0,0,0,0,0,0,0,-1,1322,1569,0,0
105,-545,0,0,0,0,0,0,0,0,0,-1,1329,1569,0,0
112,-545,0,0,0,0,0,0,0,0,0,-1,1336,1569,0,0
119,-545,0,0,0,0,0,0,0,0,0,-1,1343,1569,0,0
126,-545,0,0,0,0,0,0,0,0,0,-1,1350,1569,0,0
133,-545,0,0,0,0,0,0,0,0,0,-1,1357,1569,0,0
140,-545,0,0,0,0,0,0,0,0,0,-1,1364,1569,0,0
147,-545,0,0,0,0,0,0,0,0,0,-1,1371,1569,0,0
154,-545,0,0,0,0,0,0,0,0,0,-1,1378,1569,0,0
161,-545,0,0,0,0,0,0,0,0,0,-1,1385,1569,0,0
168,-545,0,0,0,0,0,0,0,0,0,-1,1392,1569,0,0
175,-545,0,0,0,0,0,0,0,0,0,-1,1399,1569,0,0
182,-545,0,0,0,0,0,0,0,0,0,-1,1406,1569,0,0
189,-545,0,0,0,0,0,0,0,0,0,-1,1413,1569,0,0
196,-545,0,0,0,0,0,0,0,0,0,-1,1420,1569,0,0
203,-545,0,0,0,0,0,0,0,0,0,-1,1427,1569,0,0
210,-545,0,0,0,0,0,0,0,0,0,-1,1434,1569,0,0
217,-545,0,0,0,0,0,0,0,0,0,-1,1441,1569,0,0
224,-545,0,0,0,0,0,0,0,0,0,-1,1448,1569,0,0
231,-545,0,0,0,0,0,0,0,0,0,-1,1455,1569,0,0
238,-545,0,0,0,0,0,0,0,0,0,-1,1462,1569,0,0
245,-545,0,0,0,0,0,0,0,0,0,-1,1469,1569,0,0
252,-545,0,0,0,0,0,0,0,0,0,-1,1476,1569,0,0
259,-545,0,0,0,0,0,0,0,0,0,-1,1483,1569,0,0
266,-545,0,0,0,0,0,0,0,0,0,-1,1490,1569,0,0
273,-545,0,0,0,0,0,0,0,0,0,-1,1497,1569,0,0
280,-545,0,0,0,0,0,0,0,0,0,-1,1504,1569,0,0
287,-545,0,0,0,0,0,0,0,0,0,-1,1511,1569,0,0
294,-545,0,0,0,0,0,0,0,0,0,-1,1518,1569,0,0
301,-545,0,0,0,0,0,0,0,0,0,-1,1525,1569,0,0
308,-545,0,0,0,0,0,0,0,0,0,-1,1532,1569,0,0
315,-545,0,0,0,0,0,0,0,0,0,-1,1539,1569,0,0
322,-545,0,0,0,0,0,0,0,0,0,-1,1546,1569,0,0
329,-545,0,0,0,0,0,0,0,0,0,-1,1553,1569,0,0
336,-545,0,0,0,0,0,0,0,0,0,-1,1560,1569,0,0
343,-545,0,0,0,0,0,0,0,0,0,-1,1567,1569,0,0
350,-545,0,0,0,0,0,0,0,0,0,-1,1574,1569,0,0
357,-545,0,0,0,0,0,0,0,0,0,-1,1581,1569,0,0
364,-545,7.19495,4.88098,0,0,0,0,0,0,0,-1,1588,1569,7.19497,-4.88095
371,-545,7.82324,3.84302,0,0,0,0,0,0,0,-1,1595,1569,7.82324,-3.84307
378,-545,7.65674,5.52673,0,0,0,0,0,0,0,-1,1602,1569,7.6567,-5.52667
385,-545,8.58447,1.16125,0,0,0,0,0,0,0,-1,1609,1569,8.5845,-1.1612
392,-545,12.5654,3.89526,0,0,0,0,0,0,0,-1,1616,1569,12.5655,-3.89532
399,-545,11.5869,5.6333,0,0,0,0,0,0,0,-1,1623,1569,11.5869,-5.63326
406,-545,11.234,6.36414,0,0,0,0,0,0,0,-1,1630,1569,11.234,-6.3641
413,-545,12.1521,13.4817,0,0,0,0,0,0,0,-1,1637,1569,12.1521,-13.4817
420,-545,11.1954,13.6047,0,0,0,0,0,0,0,-1,1644,1569,11.1954,-13.6047
427,-545,9.61072,14.9135,0,0,0,0,0,0,0,-1,1651,1569,9.61076,-14.9134
434,-545,13.1598,23.9921,0,0,0,0,0,0,0,-1,1658,1569,13.1598,-23.992
441,-545,12.2833,22.2238,0,0,0,0,0,0,0,-1,1665,1569,12.2833,-22.2237
448,-545,13.0082,21.941,0,0,0,0,0,0,0,-1,1672,1569,13.0082,-21.941
455,-545,13.733,21.6583,0,0,0,0,0,0,0,-1,1679,1569,13.733,-21.6583
462,-545,12.449,20.7413,0,0,0,0,0,0,0,-1,1686,1569,12.4489,-20.7413
469,-545,12.7837,17.7919,0,0,0,0,0,0,0,-1,1693,1569,12.7837,-17.7919
476,-545,15.7562,24.8708,0,0,0,0,0,0,0,-1,1700,1569,15.7563,-24.8709
483,-545,16.2025,24.5026,0,0,0,0,0,0,0,-1,1707,1569,16.2026,-24.5026
490,-545,16.2559,23.9763,0.00618587,0.0104451,-0.00605065,0.01473,0.00190101,-0.954611,0.00925166,0.0262995,1714,1569,16.2559,-23.9763
497,-545,16.2737,23.5135,0.00563637,0.00770866,-0.00496563,0.0117451,0.00159994,-0.888254,0.00735499,0.0213642,1721,1569,16.2736,-23.5136
504,-545,16.3684,23.0391,0.00493521,0.00569719,-0.00401073,0.00934498,0.00128742,-0.832752,0.00584828,0.0169074,1728,1569,16.3684,-23.0391
511,-545,16.3312,22.5724,0.00393995,0.00419358,-0.00298852,0.00705798,0.00107555,-0.806602,0.00439093,0.0128303,1735,1569,16.3311,-22.5723
518,-545,16.3262,22.1271,0.00291347,0.00258925,-0.00188769,0.004646,0.000856721,-0.742565,0.00285494,0.0143491,1742,1569,16.3262,-22.1271
525,-545,16.3013,21.6729,0.00197361,0.0011421,-0.000859552,0.00251267,0.000603037,-0.560143,0.00151466,0.0149037,1749,1569,16.3013,-21.6728
532,-545,16.2915,21.2419,0.00117922,-0.000199538,0.000115017,0.00118875,-0.000209067,0.0826591,0.000870597,0.014431,1756,1569,16.2915,-21.242
539,-545,16.2668,20.8597,0.00049504,-0.00145352,0.00106251,0.000962338,-0.00192082,0.414345,0.00169497,0.0167471,1763,1569,16.2669,-20.8597
546,-545,16.2355,20.4113,-0.000161663,-0.00280703,0.00208304,0.000983156,-0.00395185,0.502528,0.00301618,0.0186886,1770,1569,16.2355,-20.4112
553,-545,16.2395,19.931,-0.000685482,-0.00412905,0.00309142,0.00113129,-0.00594583,0.531314,0.00438985,0.0271489,1777,1569,16.2395,-19.931
560,-545,16.2389,19.4657,-0.000930044,-0.0052939,0.0039596,0.001409,-0.00763295,0.533574,0.00561751,0.0298261,1784,1569,16.2389,-19.4657
567,-545,16.2279,18.9521,0,0,0,0,0,0,0,-1,1791,1569,16.2279,-18.9521
574,-545,16.2189,18.3657,0,0,0,0,0,0,0,-1,1798,1569,16.2189,-18.3657
581,-545,16.3402,17.9158,0,0,0,0,0,0,0,-1,1805,1569,16.3402,-17.9158
588,-545,15.4786,16.7035,0,0,0,0,0,0,0,-1,1812,1569,15.4786,-16.7035
595,-545,10.2859,9.11218,0,0,0,0,0,0,0,-1,1819,1569,10.2858,-9.11215
602,-545,8.82117,6.32214,0,0,0,0,0,0,0,-1,1826,1569,8.82121,-6.32217
609,-545,10.2406,5.22351,0,0,0,0,0,0,0,-1,1833,1569,10.2406,-5.22353
616,-545,11.701,3.93188,0,0,0,0,0,0,0,-1,1840,1569,11.701,-3.93191
623,-545,13.2139,2.32043,0,0,0,0,0,0,0,-1,1847,1569,13.2139,-2.32042
630,-545,0,0,0,0,0,0,0,0,0,-1,1854,1569,0,0
637,-545,0,0,0,0,0,0,0,0,0,-1,1861,1569,0,0
644,-545,0,0,0,0,0,0,0,0,0,-1,1868,1569,0,0
651,-545,0,0,0,0,0,0,0,0,0,-1,1875,1569,0,0
658,-545,0,0,0,0,0,0,0,0,0,-1,1882,1569,0,0
665,-545,0,0,0,0,0,0,0,0,0,-1,1889,1569,0,0
672,-545,0,0,0,0,0,0,0,0,0,-1,1896,1569,0,0
679,-545,0,0,0,0,0,0,0,0,0,-1,1903,1569,0,0
686,-545,0,0,0,0,0,0,0,0,0,-1,1910,1569,0,0
693,-545,0,0,0,0,0,0,0,0,0,-1,1917,1569,0,0
700,-545,0,0,0,0,0,0,0,0,0,-1,1924,1569,0,0
707,-545,0,0,0,0,0,0,0,0,0,-1,1931,1569,0,0
714,-545,0,0,0,0,0,0,0,0,0,-1,1938,1569,0,0
721,-545,0,0,0,0,0,0,0,0,0,-1,1945,1569,0,0
728,-545,0,0,0,0,0,0,0,0,0,-1,1952,1569,0,0
735,-545,0,0,0,0,0,0,0,0,0,-1,1959,1569,0,0
742,-545,0,0,0,0,0,0,0,0,0,-1,1966,1569,0,0
749,-545,0,0,0,0,0,0,0,0,0,-1,1973,1569,0,0
756,-545,0,0,0,0,0,0,0,0,0,-1,1980,1569,0,0
763,-545,0,0,0,0,0,0,0,0,0,-1,1987,1569,0,0
770,-545,0,0,0,0,0,0,0,0,0,-1,1994,1569,0,0
777,-545,0,0,0,0,0,0,0,0,0,-1,2001,1569,0,0
784,-545,0,0,0,0,0,0,0,0,0,-1,2008,1569,0,0
791,-545,0,0,0,0,0,0,0,0,0,-1,2015,1569,0,0
798,-545,0,0,0,0,0,0,0,0,0,-1,2022,1569,0,0
805,-545,0,0,0,0,0,0,0,0,0,-1,2029,1569,0,0
812,-545,0,0,0,0,0,0,0,0,0,-1,2036,1569,0,0
-700,-552,0,0,0,0,0,0,0,0,0,-1,524,1576,0,0
-693,-552,0,0,0,0,0,0,0,0,0,-1,531,1576,0,0
-686,-552,0,0,0,0,0,0,0,0,0,-1,538,1576,0,0
-679,-552,0,0,0,0,0,0,0,0,0,-1,545,1576,0,0
-672,-552,0,0,0,0,0,0,0,0,0,-1,552,1576,0,0
-665,-552,0,0,0,0,0,0,0,0,0,-1,559,1576,0,0
-658,-552,0,0,0,0,0,0,0,0,0,-1,566,1576,0,0
-651,-552,0,0,0,0,0,0,0,0,0,-1,573,1576,0,0
-644,-552,0,0,0,0,0,0,0,0,0,-1,580,1576,0,0
-637,-552,0,0,0,0,0,0,0,0,0,-1,587,1576,0,0
-630,-552,0,0,0,0,0,0,0,0,0,-1,594,1576,0,0
-623,-552,0,0,0,0,0,0,0,0,0,-1,601,1576,0,0
-616,-552,0,0,0,0,0,0,0,0,0,-1,608,1576,0,0
-609,-552,0,0,0,0,0,0,0,0,0,-1,615,1576,0,0
-602,-552,0,0,0,0,0,0,0,0,0,-1,622,1576,0,0
-595,-552,0,0,0,0,0,0,0,0,0,-1,629,1576,0,0
-588,-552,0,0,0,0,0,0,0,0,0,-1,636,1576,0,0
-581,-552,0,0,0,0,0,0,0,0,0,-1,643,1576,0,0
-574,-552,0,0,0,0,0,0,0,0,0,-1,650,1576,0,0
-567,-552,0,0,0,0,0,0,0,0,0,-1,657,1576,0,0
-560,-552,0,0,0,0,0,0,0,0,0,-1,664,1576,0,0
-553,-552,0,0,0,0,0,0,0,0,0,-1,671,1576,0,0
-546,-552,0,0,0,0,0,0,0,0,0,-1,678,1576,0,0
-539,-552,0,0,0,0,0,0,0,0,0,-1,685,1576,0,0
-532,-552,0,0,0,0,0,0,0,0,0,-1,692,1576,0,0
-525,-552,0,0,0,0,0,0,0,0,0,-1,699,1576,0,0
-518,-552,0,0,0,0,0,0,0,0,0,-1,706,1576,0,0
-511,-552,0,0,0,0,0,0,0,0,0,-1,713,1576,0,0
-504,-552,0,0,0,0,0,0,0,0,0,-1,720,1576,0,0
-497,-552,1.51282,3.96924,0,0,0,0,0,0,0,-1,727,1576,1.5128,-3.96924
-490,-552,-3.82312,6.32104,0,0,0,0,0,0,0,-1,734,1576,-3.82314,-6.3211
-483,-552,-3.50586,6.47986,0,0,0,0,0,0,0,-1,741,1576,-3.50587,-6.47983
-476,-552,-1.95129,4.43054,0,0,0,0,0,0,0,-1,748,1576,-1.95128,-4.43054
-469,-552,-1.40491,7.9895,0,0,0,0,0,0,0,-1,755,1576,-1.40491,-7.98947
-462,-552,-1.99573,11.4446,0,0,0,0,0,0,0,-1,762,1576,-1.99571,-11.4445
-455,-552,-0.810486,14.7942,0,0,0,0,0,0,0,-1,769,1576,-0.810479,-14.7942
-448,-552,-0.752686,15.9994,0.000160209,0.0168797,0.00830602,0.0203045,-0.00326458,1.17971,0.0147455,0.0486652,776,1576,-0.752678,-15.9994
-441,-552,-0.393738,17.3523,-0.000977635,0.0115796,0.00560193,0.0137154,-0.00311345,1.20655,0.0103389,0.0454019,783,1576,-0.393713,-17.3523
-434,-552,-0.577148,17.9069,-0.001682,0.00738614,0.00359543,0.00863869,-0.00293455,1.23557,0.00694707,0.0331443,790,1576,-0.577156,-17.9069
-427,-552,-0.777588,18.1262,-0.00182352,0.00450155,0.00233428,0.00526972,-0.0025917,1.25287,0.00462575,0.0294031,797,1576,-0.777597,-18.1262
-420,-552,-0.730408,18.686,-0.00172524,0.00282679,0.0015635,0.00331207,-0.00221053,1.26984,0.00320955,0.0220055,804,1576,-0.730406,-18.6861
-413,-552,-0.737549,19.1584,-0.00142874,0.00195299,0.00116188,0.00231371,-0.00178945,1.26977,0.0023754,0.017779,811,1576,-0.737558,-19.1585
-406,-552,-0.750122,19.6594,-0.000940356,0.00170202,0.00107476,0.00208396,-0.0013223,1.22934,0.00198293,0.0136585,818,1576,-0.750139,-19.6594
-399,-552,-0.784424,20.1475,-0.000421456,0.00146827,0.00109599,0.00197046,-0.000923646,1.14114,0.00170696,0.0135135,825,1576,-0.784436,-20.1475
-392,-552,-0.820923,20.623,5.05386e-05,0.00180141,0.00109774,0.00233004,-0.000478098,1.122,0.00173483,0.0149019,832,1576,-0.820931,-20.623
-385,-552,-0.834229,21.1113,0.000927923,0.0028464,0.00159783,0.00375081,2.35102e-05,1.05573,0.00249274,0.0136803,839,1576,-0.834244,-21.1113
-378,-552,-0.861328,21.5728,0.00195635,0.00410502,0.00219574,0.00547516,0.000586209,1.01292,0.00347125,0.0156798,846,1576,-0.861304,-21.5728
-371,-552,-0.872742,22.0618,0.00277691,0.00524089,0.00260742,0.00689272,0.00112507,1.0061,0.00426982,0.0190254,853,1576,-0.872713,-22.0618
-364,-552,-0.863098,22.5195,0.00363841,0.0065293,0.00308658,0.00849213,0.00167559,1.00438,0.00519378,0.0143004,860,1576,-0.863083,-22.5195
-357,-552,-0.851501,22.9712,0.00455454,0.00791564,0.00357515,0.0101855,0.00228466,1.00511,0.00617141,0.00984361,867,1576,-0.851504,-22.9712
-350,-552,-0.836487,23.4808,0.00555684,0.00942555,0.00411333,0.0120367,0.00294573,1.00519,0.00724498,0.0125111,874,1576,-0.83651,-23.4808
-343,-552,-0.856018,23.9077,0.00660182,0.0111168,0.00474607,0.0141149,0.00360369,1.00739,0.00846827,0.016794,881,1576,-0.856048,-23.9077
-336,-552,-0.782471,24.2745,0.00761094,0.0130043,0.00539822,0.0163419,0.0042733,1.01704,0.00978628,0.0315032,888,1576,-0.782481,-24.2745
-329,-552,-0.616516,25.3604,0,0,0,0,0,0,0,-1,895,1576,-0.616492,-25.3604
-322,-552,-0.509277,23.9327,0,0,0,0,0,0,0,-1,902,1576,-0.509305,-23.9327
-315,-552,0.154358,26.4829,0,0,0,0,0,0,0,-1,909,1576,0.154341,-26.4829
-308,-552,1.48743,24.9044,0,0,0,0,0,0,0,-1,916,1576,1.48745,-24.9045
-301,-552,1.39453,18.4995,0,0,0,0,0,0,0,-1,923,1576,1.3945,-18.4995
-294,-552,0.842163,13.7863,0,0,0,0,0,0,0,-1,930,1576,0.842149,-13.7863
-287,-552,-0.663757,13.3474,0,0,0,0,0,0,0,-1,937,1576,-0.663744,-13.3474
-280,-552,-5.47241,8.96765,0,0,0,0,0,0,0,-1,944,1576,-5.47239,-8.96766
-273,-552,1.64587,10.6685,0,0,0,0,0,0,0,-1,951,1576,1.6459,-10.6685
-266,-552,-1.32678,8.05688,0,0,0,0,0,0,0,-1,958,1576,-1.32677,-8.05683
-259,-552,-5.54321,8.31213,0,0,0,0,0,0,0,-1,965,1576,-5.54324,-8.31214
-252,-552,-1.93445,7.81543,0,0,0,0,0,0,0,-1,972,1576,-1.93445,-7.81546
-245,-552,-2.53613,6.92212,0,0,0,0,0,0,0,-1,979,1576,-2.53614,-6.92216
-238,-552,-6.5365,2.81885,0,0,0,0,0,0,0,-1,986,1576,-6.53649,-2.8188
-231,-552,-4.32239,4.34583,0,0,0,0,0,0,0,-1,993,1576,-4.32239,-4.34587
-224,-552,0,0,0,0,0,0,0,0,0,-1,1000,1576,0,0
-217,-552,0,0,0,0,0,0,0,0,0,-1,1007,1576,0,0
-210,-552,0,0,0,0,0,0,0,0,0,-1,1014,1576,0,0
-203,-552,0,0,0,0,0,0,0,0,0,-1,1021,1576,0,0
-196,-552,0,0,0,0,0,0,0,0,0,-1,1028,1576,0,0
-189,-552,0,0,0,0,0,0,0,0,0,-1,1035,1576,0,0
-182,-552,0,0,0,0,0,0,0,0,0,-1,1042,1576,0,0
-175,-552,0,0,0,0,0,0,0,0,0,-1,1049,1576,0,0
-168,-552,0,0,0,0,0,0,0,0,0,-1,1056,1576,0,0
-161,-552,0,0,0,0,0,0,0,0,0,-1,1063,1576,0,0
-154,-552,0,0,0,0,0,0,0,0,0,-1,1070,1576,0,0
-147,-552,0,0,0,0,0,0,0,0,0,-1,1077,1576,0,0
-140,-552,0,0,0,0,0,0,0,0,0,-1,1084,1576,0,0
-133,-552,0,0,0,0,0,0,0,0,0,-1,1091,1576,0,0
-126,-552,0,0,0,0,0,0,0,0,0,-1,1098,1576,0,0
-119,-552,0,0,0,0,0,0,0,0,0,-1,1105,1576,0,0
-112,-552,0,0,0,0,0,0,0,0,0,-1,1112,1576,0,0
-105,-552,0,0,0,0,0,0,0,0,0,-1,1119,1576,0,0
-98,-552,0,0,0,0,0,0,0,0,0,-1,1126,1576,0,0
-91,-552,0,0,0,0,0,0,0,0,0,-1,1133,1576,0,0
-84,-552,0,0,0,0,0,0,0,0,0,-1,1140,1576,0,0
-77,-552,0,0,0,0,0,0,0,0,0,-1,1147,1576,0,0
-70,-552,0,0,0,0,0,0,0,0,0,-1,1154,1576,0,0
-63,-552,0,0,0,0,0,0,0,0,0,-1,1161,1576,0,0
-56,-552,0,0,0,0,0,0,0,0,0,-1,1168,1576,0,0
-49,-552,0,0,0,0,0,0,0,0,0,-1,1175,1576,0,0
-42,-552,0,0,0,0,0,0,0,0,0,-1,1182,1576,0,0
-35,-552,0,0,0,0,0,0,0,0,0,-1,1189,1576,0,0
-28,-552,0,0,0,0,0,0,0,0,0,-1,1196,1576,0,0
-21,-552,0,0,0,0,0,0,0,0,0,-1,1203,1576,0,0
-14,-552,0,0,0,0,0,0,0,0,0,-1,1210,1576,0,0
-7,-552,0,0,0,0,0,0,0,0,0,-1,1217,1576,0,0
0,-552,0,0,0,0,0,0,0,0,0,-1,1224,1576,0,0
7,-552,0,0,0,0,0,0,0,0,0,-1,1231,1576,0,0
14,-552,0,0,0,0,0,0,0,0,0,-1,1238,1576,0,0
21,-552,0,0,0,0,0,0,0,0,0,-1,1245,1576,0,0
28,-552,0,0,0,0,0,0,0,0,0,-1,1252,1576,0,0
35,-552,0,0,0,0,0,0,0,0,0,-1,1259,1576,0,0
42,-552,0,0,0,0,0,0,0,0,0,-1,1266,1576,0,0
49,-552,0,0,0,0,0,0,0,0,0,-1,1273,1576,0,0
56,-552,0,0,0,0,0,0,0,0,0,-1,1280,1576,0,0
63,-552,0,0,0,0,0,0,0,0,0,-1,1287,1576,0,0
70,-552,0,0,0,0,0,0,0,0,0,-1,1294,1576,0,0
77,-552,0,0,0,0,0,0,0,0,0,-1,1301,1576,0,0
84,-552,0,0,0,0,0,0,0,0,0,-1,1308,1576,0,0
91,-552,0,0,0,0,0,0,0,0,0,-1,1315,1576,0,0
98,-552,0,0,0,0,0,0,0,0,0,-1,1322,1576,0,0
105,-552,0,0,0,0,0,0,0,0,0,-1,1329,1576,0,0
112,-552,0,0,0,0,0,0,0,0,0,-1,1336,1576,0,0
119,-552,0,0,0,0,0,0,0,0,0,-1,1343,1576,0,0
126,-552,0,0,0,0,0,0,0,0,0,-1,1350,1576,0,0
133,-552,0,0,0,0,0,0,0,0,0,-1,1357,1576,0,0
140,-552,0,0,0,0,0,0,0,0,0,-1,1364,1576,0,0
147,-552,0,0,0,0,0,0,0,0,0,-1,1371,1576,0,0
154,-552,0,0,0,0,0,0,0,0,0,-1,1378,1576,0,0
161,-552,0,0,0,0,0,0,0,0,0,-1,1385,1576,0,0
168,-552,0,0,0,0,0,0,0,0,0,-1,1392,1576,0,0
175,-552,0,0,0,0,0,0,0,0,0,-1,1399,1576,0,0
182,-552,0,0,0,0,0,0,0,0,0,-1,1406,1576,0,0
189,-552,0,0,0,0,0,0,0,0,0,-1,1413,1576,0,0
196,-552,0,0,0,0,0,0,0,0,0,-1,1420,1576,0,0
203,-552,0,0,0,0,0,0,0,0,0,-1,1427,1576,0,0
210,-552,0,0,0,0,0,0,0,0,0,-1,1434,1576,0,0
217,-552,0,0,0,0,0,0,0,0,0,-1,1441,1576,0,0
224,-552,0,0,0,0,0,0,0,0,0,-1,1448,1576,0,0
231,-552,0,0,0,0,0,0,0,0,0,-1,1455,1576,0,0
238,-552,0,0,0,0,0,0,0,0,0,-1,1462,1576,0,0
245,-552,0,0,0,0,0,0,0,0,0,-1,1469,1576,0,0
252,-552,0,0,0,0,0,0,0,0,0,-1,1476,1576,0,0
259,-552,0,0,0,0,0,0,0,0,0,-1,1483,1576,0,0
266,-552,0,0,0,0,0,0,0,0,0,-1,1490,1576,0,0
273,-552,0,0,0,0,0,0,0,0,0,-1,1497,1576,0,0
280,-552,0,0,0,0,0,0,0,0,0,-1,1504,1576,0,0
287,-552,0,0,0,0,0,0,0,0,0,-1,1511,1576,0,0
294,-552,0,0,0,0,0,0,0,0,0,-1,1518,1576,0,0
301,-552,0,0,0,0,0,0,0,0,0,-1,1525,1576,0,0
308,-552,0,0,0,0,0,0,0,0,0,-1,1532,1576,0,0
315,-552,0,0,0,0,0,0,0,0,0,-1,1539,1576,0,0
322,-552,0,0,0,0,0,0,0,0,0,-1,1546,1576,0,0
329,-552,0,0,0,0,0,0,0,0,0,-1,1553,1576,0,0
336,-552,0,0,0,0,0,0,0,0,0,-1,1560,1576,0,0
343,-552,0,0,0,0,0,0,0,0,0,-1,1567,1576,0,0
350,-552,4.97876,4.09888,0,0,0,0,0,0,0,-1,1574,1576,4.97875,-4.09883
357,-552,5.18469,4.10706,0,0,0,0,0,0,0,-1,1581,1576,5.1847,-4.10702
364,-552,5.80872,5.07031,0,0,0,0,0,0,0,-1,1588,1576,5.80874,-5.07037
371,-552,7.10657,5.64783,0,0,0,0,0,0,0,-1,1595,1576,7.10651,-5.64786
378,-552,6.44446,4.91492,0,0,0,0,0,0,0,-1,1602,1576,6.44448,-4.91496
385,-552,12.8276,3.16504,0,0,0,0,0,0,0,-1,1609,1576,12.8276,-3.16503
392,-552,12.1301,4.3363,0,0,0,0,0,0,0,-1,1616,1576,12.1302,-4.33631
399,-552,11.3486,5.6012,0,0,0,0,0,0,0,-1,1623,1576,11.3486,-5.60115
406,-552,10.7863,6.42542,0,0,0,0,0,0,0,-1,1630,1576,10.7863,-6.42536
413,-552,8.39307,10.365,0,0,0,0,0,0,0,-1,1637,1576,8.3931,-10.365
420,-552,10.2306,12.7225,0,0,0,0,0,0,0,-1,1644,1576,10.2305,-12.7226
427,-552,9.73267,14.783,0,0,0,0,0,0,0,-1,1651,1576,9.73269,-14.783
434,-552,12.0377,20.1364,0,0,0,0,0,0,0,-1,1658,1576,12.0377,-20.1364
441,-552,12.4963,21.5277,0,0,0,0,0,0,0,-1,1665,1576,12.4964,-21.5277
448,-552,12.9141,21.5482,0,0,0,0,0,0,0,-1,1672,1576,12.9141,-21.5482
455,-552,13.3318,21.5687,0,0,0,0,0,0,0,-1,1679,1576,13.3317,-21.5687
462,-552,12.745,20.5947,0,0,0,0,0,0,0,-1,1686,1576,12.745,-20.5947
469,-552,15.368,25.5865,0,0,0,0,0,0,0,-1,1693,1576,15.3681,-25.5865
476,-552,15.7128,25.0295,0,0,0,0,0,0,0,-1,1700,1576,15.7127,-25.0296
483,-552,15.9349,24.2883,0.00547517,0.0119603,-0.0060998,0.0156259,0.00180965,-1.0297,0.00986948,0.0314526,1707,1576,15.935,-24.2884
490,-552,15.8915,23.9041,0.00488019,0.00880627,-0.00477732,0.0120081,0.00167832,-0.980336,0.00750877,0.0146327,1714,1576,15.8915,-23.9041
497,-552,15.9457,23.4919,0.00442012,0.00631634,-0.00391465,0.00939605,0.0013404,-0.904208,0.00586849,0.0231217,1721,1576,15.9457,-23.492
504,-552,15.9335,23.0449,0.00374562,0.00439402,-0.00300092,0.0070882,0.00105144,-0.839207,0.0044169,0.0254494,1728,1576,15.9335,-23.045
511,-552,15.8937,22.5565,0.00281731,0.00285491,-0.00200305,0.00483925,0.000832969,-0.79009,0.00298747,0.0187243,1735,1576,15.8936,-22.5565
518,-552,15.9005,22.1309,0.00184873,0.00127164,-0.000956013,0.00255879,0.000561573,-0.638835,0.00155289,0.0164028,1742,1576,15.9005,-22.1309
525,-552,15.8578,21.7094,0.000957952,-0.000186532,6.11733e-05,0.000961212,-0.000189792,0.0532483,0.000712548,0.0158271,1749,1576,15.8577,-21.7094
532,-552,15.8624,21.2438,0.000192707,-0.00159573,0.00107437,0.000696308,-0.00209933,0.438328,0.00168045,0.0159789,1756,1576,15.8624,-21.2438
539,-552,15.835,20.8159,-0.000524465,-0.00299125,0.00214249,0.000714288,-0.00423001,0.524224,0.00308578,0.0187231,1763,1576,15.835,-20.8159
546,-552,15.7856,20.3927,-0.00125468,-0.00454646,0.0033632,0.000843772,-0.00664491,0.557839,0.00473632,0.021657,1770,1576,15.7856,-20.3927
553,-552,15.8137,19.9142,-0.00186003,-0.00613733,0.00463856,0.00110916,-0.00910652,0.569392,0.00647249,0.0245278,1777,1576,15.8138,-19.9142
560,-552,15.7936,19.5575,-0.00222978,-0.00764048,0.00584646,0.00150692,-0.0113772,0.568702,0.00813376,0.0446602,1784,1576,15.7936,-19.5574
567,-552,15.8191,18.8561,0,0,0,0,0,0,0,-1,1791,1576,15.819,-18.856
574,-552,12.8835,14.8463,0,0,0,0,0,0,0,-1,1798,1576,12.8836,-14.8463
581,-552,9.74841,9.98645,0,0,0,0,0,0,0,-1,1805,1576,9.74847,-9.9864
588,-552,10.5619,9.34924,0,0,0,0,0,0,0,-1,1812,1576,10.5619,-9.34921
595,-552,5.36194,6.62744,0,0,0,0,0,0,0,-1,1819,1576,5.36193,-6.62742
602,-552,10.6863,4.31616,0,0,0,0,0,0,0,-1,1826,1576,10.6862,-4.31619
609,-552,12.146,3.18286,0,0,0,0,0,0,0,-1,1833,1576,12.1459,-3.18281
616,-552,13.8762,2.08167,0,0,0,0,0,0,0,-1,1840,1576,13.8763,-2.08167
623,-552,0,0,0,0,0,0,0,0,0,-1,1847,1576,0,0
630,-552,0,0,0,0,0,0,0,0,0,-1,1854,1576,0,0
637,-552,0,0,0,0,0,0,0,0,0,-1,1861,1576,0,0
644,-552,0,0,0,0,0,0,0,0,0,-1,1868,1576,0,0
651,-552,0,0,0,0,0,0,0,0,0,-1,1875,1576,0,0
658,-552,0,0,0,0,0,0,0,0,0,-1,1882,1576,0,0
665,-552,0,0,0,0,0,0,0,0,0,-1,1889,1576,0,0
672,-552,0,0,0,0,0,0,0,0,0,-1,1896,1576,0,0
679,-552,0,0,0,0,0,0,0,0,0,-1,1903,1576,0,0
686,-552,0,0,0,0,0,0,0,0,0,-1,1910,1576,0,0
693,-552,0,0,0,0,0,0,0,0,0,-1,1917,1576,0,0
700,-552,0,0,0,0,0,0,0,0,0,-1,1924,1576,0,0
707,-552,0,0,0,0,0,0,0,0,0,-1,1931,1576,0,0
714,-552,0,0,0,0,0,0,0,0,0,-1,1938,1576,0,0
721,-552,0,0,0,0,0,0,0,0,0,-1,1945,1576,0,0
728,-552,0,0,0,0,0,0,0,0,0,-1,1952,1576,0,0
735,-552,0,0,0,0,0,0,0,0,0,-1,1959,1576,0,0
742,-552,0,0,0,0,0,0,0,0,0,-1,1966,1576,0,0
749,-552,0,0,0,0,0,0,0,0,0,-1,1973,1576,0,0
756,-552,0,0,0,0,0,0,0,0,0,-1,1980,1576,0,0
763,-552,0,0,0,0,0,0,0,0,0,-1,1987,1576,0,0
770,-552,0,0,0,0,0,0,0,0,0,-1,1994,1576,0,0
777,-552,0,0,0,0,0,0,0,0,0,-1,2001,1576,0,0
784,-552,0,0,0,0,0,0,0,0,0,-1,2008,1576,0,0
791,-552,0,0,0,0,0,0,0,0,0,-1,2015,1576,0,0
798,-552,0,0,0,0,0,0,0,0,0,-1,2022,1576,0,0
805,-552,0,0,0,0,0,0,0,0,0,-1,2029,1576,0,0
812,-552,0,0,0,0,0,0,0,0,0,-1,2036,1576,0,0
-700,-559,0,0,0,0,0,0,0,0,0,-1,524,1583,0,0
-693,-559,0,0,0,0,0,0,0,0,0,-1,531,1583,0,0
-686,-559,0,0,0,0,0,0,0,0,0,-1,538,1583,0,0
-679,-559,0,0,0,0,0,0,0,0,0,-1,545,1583,0,0
-672,-559,0,0,0,0,0,0,0,0,0,-1,552,1583,0,0
-665,-559,0,0,0,0,0,0,0,0,0,-1,559,1583,0,0
-658,-559,0,0,0,0,0,0,0,0,0,-1,566,1583,0,0
-651,-559,0,0,0,0,0,0,0,0,0,-1,573,1583,0,0
-644,-559,0,0,0,0,0,0,0,0,0,-1,580,1583,0,0
-637,-559,0,0,0,0,0,0,0,0,0,-1,587,1583,0,0
-630,-559,0,0,0,0,0,0,0,0,0,-1,594,1583,0,0
-623,-559,0,0,0,0,0,0,0,0,0,-1,601,1583,0,0
-616,-559,0,0,0,0,0,0,0,0,0,-1,608,1583,0,0
-609,-559,0,0,0,0,0,0,0,0,0,-1,615,1583,0,0
-602,-559,0,0,0,0,0,0,0,0,0,-1,622,1583,0,0
-595,-559,0,0,0,0,0,0,0,0,0,-1,629,1583,0,0
-588,-559,0,0,0,0,0,0,0,0,0,-1,636,1583,0,0
-581,-559,0,0,0,0,0,0,0,0,0,-1,643,1583,0,0
-574,-559,0,0,0,0,0,0,0,0,0,-1,650,1583,0,0
-567,-559,0,0,0,0,0,0,0,0,0,-1,657,1583,0,0
-560,-559,0,0,0,0,0,0,0,0,0,-1,664,1583,0,0
-553,-559,0,0,0,0,0,0,0,0,0,-1,671,1583,0,0
-546,-559,0,0,0,0,0,0,0,0,0,-1,678,1583,0,0
-539,-559,0,0,0,0,0,0,0,0,0,-1,685,1583,0,0
-532,-559,0,0,0,0,0,0,0,0,0,-1,692,1583,0,0
-525,-559,0,0,0,0,0,0,0,0,0,-1,699,1583,0,0
-518,-559,0,0,0,0,0,0,0,0,0,-1,706,1583,0,0
-511,-559,0,0,0,0,0,0,0,0,0,-1,713,1583,0,0
-504,-559,0,0,0,0,0,0,0,0,0,-1,720,1583,0,0
-497,-559,0,0,0,0,0,0,0,0,0,-1,727,1583,0,0
-490,-559,-5.49835,4.47424,0,0,0,0,0,0,0,-1,734,1583,-5.49833,-4.4743
-483,-559,-5.24078,4.74561,0,0,0,0,0,0,0,-1,741,1583,-5.24079,-4.74563
-476,-559,-4.98022,4.99316,0,0,0,0,0,0,0,-1,748,1583,-4.98024,-4.99321
-469,-559,-4.6424,5.38062,0,0,0,0,0,0,0,-1,755,1583,-4.64237,-5.38058
-462,-559,-0.161865,6.49438,0,0,0,0,0,0,0,-1,762,1583,-0.161835,-6.49444
-455,-559,1.08826,7.02527,0,0,0,0,0,0,0,-1,769,1583,1.08823,-7.02529
-448,-559,-0.522766,15.6921,0,0,0,0,0,0,0,-1,776,1583,-0.52276,-15.6921
-441,-559,0.166992,17.2765,0,0,0,0,0,0,0,-1,783,1583,0.166968,-17.2765
-434,-559,0.146362,17.9948,-0.00174051,0.00940478,0.00499359,0.0113148,-0.00365053,1.20547,0.00901002,0.0460642,790,1583,0.14637,-17.9948
-427,-559,-0.159302,18.3699,-0.00230232,0.0054448,0.0030619,0.00650882,-0.00336634,1.23635,0.00579685,0.0395721,797,1583,-0.15931,-18.3699
-420,-559,-0.319275,18.7125,-0.00241559,0.00317016,0.00190194,0.00375627,-0.0030017,1.27187,0.00390981,0.043058,804,1583,-0.319246,-18.7126
-413,-559,-0.290894,19.1997,-0.00227074,0.00181905,0.00121293,0.00215171,-0.00260341,1.30311,0.0027495,0.0164332,811,1583,-0.290894,-19.1997
-406,-559,-0.296997,19.6965,-0.00187368,0.00116913,0.000886405,0.00140852,-0.00211307,1.30702,0.00204671,0.00996423,818,1583,-0.296988,-19.6965
-399,-559,-0.301941,20.1887,-0.00140879,0.000571991,0.000712628,0.000801729,-0.00163853,1.25894,0.00143623,0.0129463,825,1583,-0.301927,-20.1887
-392,-559,-0.351929,20.6515,-0.00103175,0.000513451,0.000494409,0.000658102,-0.0011764,1.28617,0.00107315,0.016361,832,1583,-0.351943,-20.6514
-385,-559,-0.37085,21.1365,-0.000180481,0.00142006,0.00089218,0.00181829,-0.000578717,1.15097,0.00144428,0.0167168,839,1583,-0.370864,-21.1365
-378,-559,-0.385864,21.6017,0.000886067,0.00248847,0.00143687,0.00333242,4.21228e-05,1.03973,0.00220771,0.015478,846,1583,-0.385852,-21.6017
-371,-559,-0.399475,22.0499,0.0017057,0.00344318,0.00175673,0.00453423,0.000614647,1.01503,0.0028402,0.0209805,853,1583,-0.399479,-22.05
-364,-559,-0.384033,22.4924,0.00251871,0.00450576,0.00213227,0.00586461,0.00115986,1.00342,0.0035862,0.0186185,860,1583,-0.384012,-22.4924
-357,-559,-0.381287,22.9741,0.00337326,0.00566115,0.00252614,0.00729029,0.00174412,0.998006,0.00439571,0.0121749,867,1583,-0.381269,-22.9741
-350,-559,-0.398071,23.4265,0.00432737,0.00687812,0.00296615,0.00883147,0.00237403,0.988437,0.0052774,0.0107496,874,1583,-0.398056,-23.4266
-343,-559,-0.410461,23.8896,0.00533495,0.00831137,0.00352866,0.0106528,0.00299351,0.984955,0.00634399,0.01111,881,1583,-0.410449,-23.8896
-336,-559,-0.47113,24.2922,0.00628502,0.00984416,0.00409035,0.0125253,0.00360389,0.990581,0.00744554,0.0211074,888,1583,-0.471151,-24.2923
-329,-559,-0.34552,24.9984,0.00736544,0.0113958,0.0048175,0.0146026,0.00415863,0.983491,0.00868725,0.0371719,895,1583,-0.345496,-24.9984
-322,-559,0.0203247,25.7999,0,0,0,0,0,0,0,-1,902,1583,0.0203054,-25.7999
-315,-559,-0.0228271,25.894,0,0,0,0,0,0,0,-1,909,1583,-0.0228225,-25.894
-308,-559,-0.203369,26.7545,0,0,0,0,0,0,0,-1,916,1583,-0.203399,-26.7545
-301,-559,1.97064,24.717,0,0,0,0,0,0,0,-1,923,1583,1.97066,-24.717
-294,-559,0.945129,18.5165,0,0,0,0,0,0,0,-1,930,1583,0.945117,-18.5165
-287,-559,-0.11792,15.4912,0,0,0,0,0,0,0,-1,937,1583,-0.117939,-15.4912
-280,-559,0.191467,13.5093,0,0,0,0,0,0,0,-1,944,1583,0.191441,-13.5093
-273,-559,2.12836,10.3059,0,0,0,0,0,0,0,-1,951,1583,2.12839,-10.3059
-266,-559,-0.597046,6.68933,0,0,0,0,0,0,0,-1,958,1583,-0.597031,-6.68937
-259,-559,-7.00311,8.62756,0,0,0,0,0,0,0,-1,965,1583,-7.00312,-8.6275
-252,-559,-9.4483,2.87805,0,0,0,0,0,0,0,-1,972,1583,-9.44829,-2.87805
-245,-559,-4.80804,7.1803,0,0,0,0,0,0,0,-1,979,1583,-4.80804,-7.18027
-238,-559,-8.45764,2.54858,0,0,0,0,0,0,0,-1,986,1583,-8.45763,-2.54862
-231,-559,-5.86914,4.34021,0,0,0,0,0,0,0,-1,993,1583,-5.86914,-4.34019
-224,-559,-3.30505,6.22864,0,0,0,0,0,0,0,-1,1000,1583,-3.30505,-6.22859
-217,-559,0,0,0,0,0,0,0,0,0,-1,1007,1583,0,0
-210,-559,0,0,0,0,0,0,0,0,0,-1,1014,1583,0,0
-203,-559,0,0,0,0,0,0,0,0,0,-1,1021,1583,0,0
-196,-559,0,0,0,0,0,0,0,0,0,-1,1028,1583,0,0
-189,-559,0,0,0,0,0,0,0,0,0,-1,1035,1583,0,0
-182,-559,0,0,0,0,0,0,0,0,0,-1,1042,1583,0,0
-175,-559,0,0,0,0,0,0,0,0,0,-1,1049,1583,0,0
-168,-559,0,0,0,0,0,0,0,0,0,-1,1056,1583,0,0
-161,-559,0,0,0,0,0,0,0,0,0,-1,1063,1583,0,0
-154,-559,0,0,0,0,0,0,0,0,0,-1,1070,1583,0,0
-147,-559,0,0,0,0,0,0,0,0,0,-1,1077,1583,0,0
-140,-559,0,0,0,0,0,0,0,0,0,-1,1084,1583,0,0
-133,-559,0,0,0,0,0,0,0,0,0,-1,1091,1583,0,0
-126,-559,0,0,0,0,0,0,0,0,0,-1,1098,1583,0,0
-119,-559,0,0,0,0,0,0,0,0,0,-1,1105,1583,0,0
-112,-559,0,0,0,0,0,0,0,0,0,-1,1112,1583,0,0
-105,-559,0,0,0,0,0,0,0,0,0,-1,1119,1583,0,0
-98,-559,0,0,0,0,0,0,0,0,0,-1,1126,1583,0,0
-91,-559,0,0,0,0,0,0,0,0,0,-1,1133,1583,0,0
-84,-559,0,0,0,0,0,0,0,0,0,-1,1140,1583,0,0
-77,-559,0,0,0,0,0,0,0,0,0,-1,1147,1583,0,0
-70,-559,0,0,0,0,0,0,0,0,0,-1,1154,1583,0,0
-63,-559,0,0,0,0,0,0,0,0,0,-1,1161,1583,0,0
-56,-559,0,0,0,0,0,0,0,0,0,-1,1168,1583,0,0
-49,-559,0,0,0,0,0,0,0,0,0,-1,1175,1583,0,0
-42,-559,0,0,0,0,0,0,0,0,0,-1,1182,1583,0,0
-35,-559,0,0,0,0,0,0,0,0,0,-1,1189,1583,0,0
-28,-559,0,0,0,0,0,0,0,0,0,-1,1196,1583,0,0
-21,-559,0,0,0,0,0,0,0,0,0,-1,1203,1583,0,0
-14,-559,0,0,0,0,0,0,0,0,0,-1,1210,1583,0,0
-7,-559,0,0,0,0,0,0,0,0,0,-1,1217,1583,0,0
0,-559,0,0,0,0,0,0,0,0,0,-1,1224,1583,0,0
7,-559,0,0,0,0,0,0,0,0,0,-1,1231,1583,0,0
14,-559,0,0,0,0,0,0,0,0,0,-1,1238,1583,0,0
21,-559,0,0,0,0,0,0,0,0,0,-1,1245,1583,0,0
28,-559,0,0,0,0,0,0,0,0,0,-1,1252,1583,0,0
35,-559,0,0,0,0,0,0,0,0,0,-1,1259,1583,0,0
42,-559,0,0,0,0,0,0,0,0,0,-1,1266,1583,0,0
49,-559,0,0,0,0,0,0,0,0,0,-1,1273,1583,0,0
56,-559,0,0,0,0,0,0,0,0,0,-1,1280,1583,0,0
63,-559,0,0,0,0,0,0,0,0,0,-1,1287,1583,0,0
70,-559,0,0,0,0,0,0,0,0,0,-1,1294,1583,0,0
77,-559,0,0,0,0,0,0,0,0,0,-1,1301,1583,0,0
84,-559,0,0,0,0,0,0,0,0,0,-1,1308,1583,0,0
91,-559,0,0,0,0,0,0,0,0,0,-1,1315,1583,0,0
98,-559,0,0,0,0,0,0,0,0,0,-1,1322,1583,0,0
105,-559,0,0,0,0,0,0,0,0,0,-1,1329,1583,0,0
112,-559,0,0,0,0,0,0,0,0,0,-1,1336,1583,0,0
119,-559,0,0,0,0,0,0,0,0,0,-1,1343,1583,0,0
126,-559,0,0,0,0,0,0,0,0,0,-1,1350,1583,0,0
133,-559,0,0,0,0,0,0,0,0,0,-1,1357,1583,0,0
140,-559,0,0,0,0,0,0,0,0,0,-1,1364,1583,0,0
147,-559,0,0,0,0,0,0,0,0,0,-1,1371,1583,0,0
154,-559,0,0,0,0,0,0,0,0,0,-1,1378,1583,0,0
161,-559,0,0,0,0,0,0,0,0,0,-1,1385,1583,0,0
168,-559,0,0,0,0,0,0,0,0,0,-1,1392,1583,0,0
175,-559,0,0,0,0,0,0,0,0,0,-1,1399,1583,0,0
182,-559,0,0,0,0,0,0,0,0,0,-1,1406,1583,0,0
189,-559,0,0,0,0,0,0,0,0,0,-1,1413,1583,0,0
196,-559,0,0,0,0,0,0,0,0,0,-1,1420,1583,0,0
203,-559,0,0,0,0,0,0,0,0,0,-1,1427,1583,0,0
210,-559,0,0,0,0,0,0,0,0,0,-1,1434,1583,0,0
217,-559,0,0,0,0,0,0,0,0,0,-1,1441,1583,0,0
224,-559,0,0,0,0,0,0,0,0,0,-1,1448,1583,0,0
231,-559,0,0,0,0,0,0,0,0,0,-1,1455,1583,0,0
238,-559,0,0,0,0,0,0,0,0,0,-1,1462,1583,0,0
245,-559,0,0,0,0,0,0,0,0,0,-1,1469,1583,0,0
252,-559,0,0,0,0,0,0,0,0,0,-1,1476,1583,0,0
259,-559,0,0,0,0,0,0,0,0,0,-1,1483,1583,0,0
266,-559,0,0,0,0,0,0,0,0,0,-1,1490,1583,0,0
273,-559,0,0,0,0,0,0,0,0,0,-1,1497,1583,0,0
280,-559,0,0,0,0,0,0,0,0,0,-1,1504,1583,0,0
287,-559,0,0,0,0,0,0,0,0,0,-1,1511,1583,0,0
294,-559,0,0,0,0,0,0,0,0,0,-1,1518,1583,0,0
301,-559,0,0,0,0,0,0,0,0,0,-1,1525,1583,0,0
308,-559,0,0,0,0,0,0,0,0,0,-1,1532,1583,0,0
315,-559,0,0,0,0,0,0,0,0,0,-1,1539,1583,0,0
322,-559,0,0,0,0,0,0,0,0,0,-1,1546,1583,0,0
329,-559,0,0,0,0,0,0,0,0,0,-1,1553,1583,0,0
336,-559,5.97668,3.09827,0,0,0,0,0,0,0,-1,1560,1583,5.97667,-3.09824
343,-559,5.44824,2.88696,0,0,0,0,0,0,0,-1,1567,1583,5.44819,-2.88693
350,-559,4.69775,3.27051,0,0,0,0,0,0,0,-1,1574,1583,4.69771,-3.27048
357,-559,3.88025,3.60999,0,0,0,0,0,0,0,-1,1581,1583,3.88027,-3.60998
364,-559,5.00928,5.32605,0,0,0,0,0,0,0,-1,1588,1583,5.00928,-5.32607
371,-559,1.84436,2.52441,0,0,0,0,0,0,0,-1,1595,1583,1.84441,-2.52447
378,-559,6.34753,1.53137,0,0,0,0,0,0,0,-1,1602,1583,6.34752,-1.53139
385,-559,6.95911,1.48181,0,0,0,0,0,0,0,-1,1609,1583,6.95916,-1.48175
392,-559,11.6949,4.77734,0,0,0,0,0,0,0,-1,1616,1583,11.6949,-4.77731
399,-559,11.1104,5.56909,0,0,0,0,0,0,0,-1,1623,1583,11.1103,-5.56905
406,-559,10.3385,6.48657,0,0,0,0,0,0,0,-1,1630,1583,10.3385,-6.48661
413,-559,9.76147,6.97571,0,0,0,0,0,0,0,-1,1637,1583,9.76143,-6.97574
420,-559,7.77124,10.5851,0,0,0,0,0,0,0,-1,1644,1583,7.77128,-10.585
427,-559,10.1022,12.5565,0,0,0,0,0,0,0,-1,1651,1583,10.1021,-12.5565
434,-559,9.62769,14.6309,0,0,0,0,0,0,0,-1,1658,1583,9.62771,-14.6309
441,-559,12.6149,21.3678,0,0,0,0,0,0,0,-1,1665,1583,12.6149,-21.3678
448,-559,13.7046,22.6677,0,0,0,0,0,0,0,-1,1672,1583,13.7046,-22.6677
455,-559,13.9427,23.0509,0,0,0,0,0,0,0,-1,1679,1583,13.9427,-23.0509
462,-559,15.2147,26.0808,0,0,0,0,0,0,0,-1,1686,1583,15.2147,-26.0809
469,-559,15.293,25.4255,0.00369723,0.0172915,-0.00641866,0.0198431,0.00114555,-1.19241,0.0128639,0.0435306,1693,1583,15.293,-25.4255
476,-559,15.3887,24.8519,0.00402487,0.0134079,-0.00560564,0.0160262,0.00140656,-1.13383,0.0102475,0.0197883,1700,1583,15.3887,-24.852
483,-559,15.4741,24.3157,0.00421441,0.00993989,-0.00486815,0.0127246,0.00142965,-1.05119,0.00804898,0.013337,1707,1583,15.4741,-24.3157
490,-559,15.4679,23.8876,0.00378595,0.0071664,-0.00378143,0.00961817,0.00133419,-0.995568,0.00601689,0.0154352,1714,1583,15.4678,-23.8876
497,-559,15.5051,23.4838,0.00337294,0.00491928,-0.00305104,0.00729359,0.000998632,-0.909492,0.00456606,0.0194717,1721,1583,15.5051,-23.4838
504,-559,15.4484,23.0398,0.00268654,0.00307998,-0.00212931,0.00502164,0.000744889,-0.831461,0.00312916,0.0249326,1728,1583,15.4483,-23.0398
511,-559,15.4188,22.5723,0.00180027,0.00150473,-0.0011136,0.00277586,0.000529135,-0.719436,0.00170184,0.0222764,1735,1583,15.4188,-22.5723
518,-559,15.4747,22.1504,0.000874211,-6.20805e-05,-8.22098e-05,0.000881375,-6.92439e-05,-0.0869173,0.000611972,0.0149427,1742,1583,15.4747,-22.1504
525,-559,15.4242,21.7391,5.35294e-06,-0.00154722,0.000959686,0.000463415,-0.00200528,0.445327,0.00151514,0.0131708,1749,1583,15.4242,-21.7392
532,-559,15.4126,21.2756,-0.000772341,-0.00305575,0.00205612,0.000437789,-0.00426588,0.531958,0.00300051,0.0141937,1756,1583,15.4126,-21.2757
539,-559,15.4004,20.8209,-0.0015782,-0.00465316,0.00330117,0.000525969,-0.00675733,0.567466,0.00469005,0.0183725,1763,1583,15.4004,-20.8209
546,-559,15.3514,20.3696,-0.00245613,-0.00648989,0.00479377,0.000727762,-0.00967378,0.586274,0.00670495,0.0160351,1770,1583,15.3515,-20.3697
553,-559,15.4286,19.8945,-0.00324981,-0.00846148,0.00643799,0.00108972,-0.012801,0.593097,0.00891946,0.0200766,1777,1583,15.4286,-19.8946
560,-559,15.4385,19.6245,-0.00388372,-0.0104667,0.00811021,0.00157746,-0.0159279,0.59263,0.0111816,0.0414465,1784,1583,15.4384,-19.6246
567,-559,15.3782,19.1921,0,0,0,0,0,0,0,-1,1791,1583,15.3782,-19.1921
574,-559,10.5109,10.7317,0,0,0,0,0,0,0,-1,1798,1583,10.5108,-10.7317
581,-559,5.97095,5.96179,0,0,0,0,0,0,0,-1,1805,1583,5.97093,-5.96181
588,-559,5.79102,5.89954,0,0,0,0,0,0,0,-1,1812,1583,5.79098,-5.89949
595,-559,5.79089,6.24231,0,0,0,0,0,0,0,-1,1819,1583,5.7909,-6.24227
602,-559,12.478,2.35669,0,0,0,0,0,0,0,-1,1826,1583,12.4781,-2.35675
609,-559,14.0479,1.22681,0,0,0,0,0,0,0,-1,1833,1583,14.0479,-1.22681
616,-559,0,0,0,0,0,0,0,0,0,-1,1840,1583,0,0
623,-559,0,0,0,0,0,0,0,0,0,-1,1847,1583,0,0
630,-559,0,0,0,0,0,0,0,0,0,-1,1854,1583,0,0
637,-559,0,0,0,0,0,0,0,0,0,-1,1861,1583,0,0
644,-559,0,0,0,0,0,0,0,0,0,-1,1868,1583,0,0
651,-559,0,0,0,0,0,0,0,0,0,-1,1875,1583,0,0
658,-559,0,0,0,0,0,0,0,0,0,-1,1882,1583,0,0
665,-559,0,0,0,0,0,0,0,0,0,-1,1889,1583,0,0
672,-559,0,0,0,0,0,0,0,0,0,-1,1896,1583,0,0
679,-559,0,0,0,0,0,0,0,0,0,-1,1903,1583,0,0
686,-559,0,0,0,0,0,0,0,0,0,-1,1910,1583,0,0
693,-559,0,0,0,0,0,0,0,0,0,-1,1917,1583,0,0
700,-559,0,0,0,0,0,0,0,0,0,-1,1924,1583,0,0
707,-559,0,0,0,0,0,0,0,0,0,-1,1931,1583,0,0
714,-559,0,0,0,0,0,0,0,0,0,-1,1938,1583,0,0
721,-559,0,0,0,0,0,0,0,0,0,-1,1945,1583,0,0
728,-559,0,0,0,0,0,0,0,0,0,-1,1952,1583,0,0
735,-559,0,0,0,0,0,0,0,0,0,-1,1959,1583,0,0
742,-559,0,0,0,0,0,0,0,0,0,-1,1966,1583,0,0
749,-559,0,0,0,0,0,0,0,0,0,-1,1973,1583,0,0
756,-559,0,0,0,0,0,0,0,0,0,-1,1980,1583,0,0
763,-559,0,0,0,0,0,0,0,0,0,-1,1987,1583,0,0
770,-559,0,0,0,0,0,0,0,0,0,-1,1994,1583,0,0
777,-559,0,0,0,0,0,0,0,0,0,-1,2001,1583,0,0
784,-559,0,0,0,0,0,0,0,0,0,-1,2008,1583,0,0
791,-559,0,0,0,0,0,0,0,0,0,-1,2015,1583,0,0
798,-559,0,0,0,0,0,0,0,0,0,-1,2022,1583,0,0
805,-559,0,0,0,0,0,0,0,0,0,-1,2029,1583,0,0
812,-559,0,0,0,0,0,0,0,0,0,-1,2036,1583,0,0
-700,-566,0,0,0,0,0,0,0,0,0,-1,524,1590,0,0
-693,-566,0,0,0,0,0,0,0,0,0,-1,531,1590,0,0
-686,-566,0,0,0,0,0,0,0,0,0,-1,538,1590,0,0
-679,-566,0,0,0,0,0,0,0,0,0,-1,545,1590,0,0
-672,-566,0,0,0,0,0,0,0,0,0,-1,552,1590,0,0
-665,-566,0,0,0,0,0,0,0,0,0,-1,559,1590,0,0
-658,-566,0,0,0,0,0,0,0,0,0,-1,566,1590,0,0
-651,-566,0,0,0,0,0,0,0,0,0,-1,573,1590,0,0
-644,-566,0,0,0,0,0,0,0,0,0,-1,580,1590,0,0
-637,-566,0,0,0,0,0,0,0,0,0,-1,587,1590,0,0
-630,-566,0,0,0,0,0,0,0,0,0,-1,594,1590,0,0
-623,-566,0,0,0,0,0,0,0,0,0,-1,601,1590,0,0
-616,-566,0,0,0,0,0,0,0,0,0,-1,608,1590,0,0
-609,-566,0,0,0,0,0,0,0,0,0,-1,615,1590,0,0
-602,-566,0,0,0,0,0,0,0,0,0,-1,622,1590,0,0
-595,-566,0,0,0,0,0,0,0,0,0,-1,629,1590,0,0
-588,-566,0,0,0,0,0,0,0,0,0,-1,636,1590,0,0
-581,-566,0,0,0,0,0,0,0,0,0,-1,643,1590,0,0
-574,-566,0,0,0,0,0,0,0,0,0,-1,650,1590,0,0
-567,-566,0,0,0,0,0,0,0,0,0,-1,657,1590,0,0
-560,-566,0,0,0,0,0,0,0,0,0,-1,664,1590,0,0
-553,-566,0,0,0,0,0,0,0,0,0,-1,671,1590,0,0
-546,-566,0,0,0,0,0,0,0,0,0,-1,678,1590,0,0
-539,-566,0,0,0,0,0,0,0,0,0,-1,685,1590,0,0
-532,-566,0,0,0,0,0,0,0,0,0,-1,692,1590,0,0
-525,-566,0,0,0,0,0,0,0,0,0,-1,699,1590,0,0
-518,-566,0,0,0,0,0,0,0,0,0,-1,706,1590,0,0
-511,-566,0,0,0,0,0,0,0,0,0,-1,713,1590,0,0
-504,-566,0,0,0,0,0,0,0,0,0,-1,720,1590,0,0
-497,-566,0,0,0,0,0,0,0,0,0,-1,727,1590,0,0
-490,-566,0,0,0,0,0,0,0,0,0,-1,734,1590,0,0
-483,-566,-7.17084,2.78613,0,0,0,0,0,0,0,-1,741,1590,-7.17083,-2.78618
-476,-566,-7.13971,2.87183,0,0,0,0,0,0,0,-1,748,1590,-7.13971,-2.87184
-469,-566,-6.43829,3.2998,0,0,0,0,0,0,0,-1,755,1590,-6.43829,-3.2998
-462,-566,-0.459106,3.89343,0,0,0,0,0,0,0,-1,762,1590,-0.459095,-3.89341
-455,-566,0.280212,4.74023,0,0,0,0,0,0,0,-1,769,1590,0.280207,-4.74023
-448,-566,0.436951,5.51306,0,0,0,0,0,0,0,-1,776,1590,0.436971,-5.51301
-441,-566,-0.440735,12.4063,0,0,0,0,0,0,0,-1,783,1590,-0.440753,-12.4062
-434,-566,0.687927,18.119,0,0,0,0,0,0,0,-1,790,1590,0.687901,-18.119
-427,-566,0.00506592,18.452,0,0,0,0,0,0,0,-1,797,1590,0.00505322,-18.452
-420,-566,0.0390625,18.6891,0,0,0,0,0,0,0,-1,804,1590,0.0390393,-18.6891
-413,-566,0.16095,19.2284,-0.00297094,0.00178533,0.00154603,0.00224369,-0.0034293,1.28257,0.00329906,0.026544,811,1590,0.160977,-19.2284
-406,-566,0.169006,19.7042,-0.00260467,0.000673639,0.000948618,0.000928344,-0.00285937,1.30848,0.0022796,0.0116162,818,1590,0.168985,-19.7042
-399,-566,0.16272,20.1938,-0.0021672,-0.000254731,0.000580902,-9.21123e-05,-0.00232981,1.29784,0.00152343,0.0102681,825,1590,0.162719,-20.1939
-392,-566,0.132202,20.6587,-0.00184387,-0.000662737,0.000170246,-0.000638688,-0.00186792,1.43046,0.00109626,0.0131788,832,1590,0.132227,-20.6586
-385,-566,0.125183,21.1512,-0.00100915,0.000128115,0.000472799,0.000298997,-0.00118004,1.22398,0.00090301,0.0160508,839,1590,0.1252,-21.1513
-378,-566,0.105042,21.6449,6.83365e-05,0.00102715,0.000955709,0.00161695,-0.000521468,1.01787,0.00128749,0.0157493,846,1590,0.105055,-21.6449
-371,-566,0.0485229,22.061,0.000862942,0.00185415,0.00119463,0.0026519,6.5197e-05,0.982025,0.00174661,0.0201089,853,1590,0.0485348,-22.061
-364,-566,0.071228,22.5135,0.00159714,0.00276115,0.00148114,0.00377053,0.000587764,0.972603,0.00234247,0.0214998,860,1590,0.0712551,-22.5135
-357,-566,0.0455322,22.9675,0.0023548,0.00377927,0.00179798,0.00500094,0.00113312,0.973981,0.00302778,0.0190232,867,1590,0.0455599,-22.9675
-350,-566,0.0415649,23.4387,0.00320504,0.00483574,0.0021564,0.00632579,0.00171499,0.966144,0.0037776,0.0228979,874,1590,0.0415473,-23.4387
-343,-566,0.0455322,23.896,0.0041003,0.00610871,0.00264011,0.00792915,0.00227986,0.967131,0.00471366,0.0272921,881,1590,0.0455591,-23.896
-336,-566,-0.0180664,24.3396,0.00495932,0.00744122,0.00315289,0.00958858,0.00281195,0.972883,0.00569153,0.0264681,888,1590,-0.0180729,-24.3396
-329,-566,0.0528564,24.7194,0.00587731,0.00880947,0.00375463,0.0113741,0.00331268,0.971531,0.00675492,0.0236676,895,1590,0.0528508,-24.7194
-322,-566,0.168457,25.3741,0,0,0,0,0,0,0,-1,902,1590,0.168435,-25.3742
-315,-566,0.399841,25.9132,0,0,0,0,0,0,0,-1,909,1590,0.399816,-25.9132
-308,-566,0.50708,26.2681,0,0,0,0,0,0,0,-1,916,1590,0.507082,-26.268
-301,-566,1.14246,27.0635,0,0,0,0,0,0,0,-1,923,1590,1.14247,-27.0634
-294,-566,0.741455,25.3229,0,0,0,0,0,0,0,-1,930,1590,0.741475,-25.3229
-287,-566,1.25391,23.4589,0,0,0,0,0,0,0,-1,937,1590,1.2539,-23.4589
-280,-566,1.59406,17.8762,0,0,0,0,0,0,0,-1,944,1590,1.59405,-17.8762
-273,-566,0.49762,11.2427,0,0,0,0,0,0,0,-1,951,1590,0.497591,-11.2426
-266,-566,0.392151,6.90295,0,0,0,0,0,0,0,-1,958,1590,0.392151,-6.90294
-259,-566,0.343628,6.47437,0,0,0,0,0,0,0,-1,965,1590,0.34363,-6.47438
-252,-566,-7.68311,1.01343,0,0,0,0,0,0,0,-1,972,1590,-7.68308,-1.01348
-245,-566,-11.1835,1.97522,0,0,0,0,0,0,0,-1,979,1590,-11.1835,-1.97527
-238,-566,-10.4883,2.40491,0,0,0,0,0,0,0,-1,986,1590,-10.4883,-2.40487
-231,-566,-7.41827,4.22803,0,0,0,0,0,0,0,-1,993,1590,-7.41827,-4.22803
-224,-566,-4.67188,6.30859,0,0,0,0,0,0,0,-1,1000,1590,-4.67185,-6.30853
-217,-566,-2.82867,7.52527,0,0,0,0,0,0,0,-1,1007,1590,-2.82869,-7.52531
-210,-566,-1.03436,8.67737,0,0,0,0,0,0,0,-1,1014,1590,-1.03439,-8.67733
-203,-566,0,0,0,0,0,0,0,0,0,-1,1021,1590,0,0
-196,-566,0,0,0,0,0,0,0,0,0,-1,1028,1590,0,0
-189,-566,0,0,0,0,0,0,0,0,0,-1,1035,1590,0,0
-182,-566,0,0,0,0,0,0,0,0,0,-1,1042,1590,0,0
-175,-566,0,0,0,0,0,0,0,0,0,-1,1049,1590,0,0
-168,-566,0,0,0,0,0,0,0,0,0,-1,1056,1590,0,0
-161,-566,0,0,0,0,0,0,0,0,0,-1,1063,1590,0,0
-154,-566,0,0,0,0,0,0,0,0,0,-1,1070,1590,0,0
-147,-566,0,0,0,0,0,0,0,0,0,-1,1077,1590,0,0
-140,-566,0,0,0,0,0,0,0,0,0,-1,1084,1590,0,0
-133,-566,0,0,0,0,0,0,0,0,0,-1,1091,1590,0,0
-126,-566,0,0,0,0,0,0,0,0,0,-1,1098,1590,0,0
-119,-566,0,0,0,0,0,0,0,0,0,-1,1105,1590,0,0
-112,-566,0,0,0,0,0,0,0,0,0,-1,1112,1590,0,0
-105,-566,0,0,0,0,0,0,0,0,0,-1,1119,1590,0,0
-98,-566,0,0,0,0,0,0,0,0,0,-1,1126,1590,0,0
-91,-566,0,0,0,0,0,0,0,0,0,-1,1133,1590,0,0
-84,-566,0,0,0,0,0,0,0,0,0,-1,1140,1590,0,0
-77,-566,0,0,0,0,0,0,0,0,0,-1,1147,1590,0,0
-70,-566,0,0,0,0,0,0,0,0,0,-1,1154,1590,0,0
-63,-566,0,0,0,0,0,0,0,0,0,-1,1161,1590,0,0
-56,-566,0,0,0,0,0,0,0,0,0,-1,1168,1590,0,0
-49,-566,0,0,0,0,0,0,0,0,0,-1,1175,1590,0,0
-42,-566,0,0,0,0,0,0,0,0,0,-1,1182,1590,0,0
-35,-566,0,0,0,0,0,0,0,0,0,-1,1189,1590,0,0
-28,-566,0,0,0,0,0,0,0,0,0,-1,1196,1590,0,0
-21,-566,0,0,0,0,0,0,0,0,0,-1,1203,1590,0,0
-14,-566,0,0,0,0,0,0,0,0,0,-1,1210,1590,0,0
-7,-566,0,0,0,0,0,0,0,0,0,-1,1217,1590,0,0
0,-566,0,0,0,0,0,0,0,0,0,-1,1224,1590,0,0
7,-566,0,0,0,0,0,0,0,0,0,-1,1231,1590,0,0
14,-566,0,0,0,0,0,0,0,0,0,-1,1238,1590,0,0
21,-566,0,0,0,0,0,0,0,0,0,-1,1245,1590,0,0
28,-566,0,0,0,0,0,0,0,0,0,-1,1252,1590,0,0
35,-566,0,0,0,0,0,0,0,0,0,-1,1259,1590,0,0
42,-566,0,0,0,0,0,0,0,0,0,-1,1266,1590,0,0
49,-566,0,0,0,0,0,0,0,0,0,-1,1273,1590,0,0
56,-566,0,0,0,0,0,0,0,0,0,-1,1280,1590,0,0
63,-566,0,0,0,0,0,0,0,0,0,-1,1287,1590,0,0
70,-566,0,0,0,0,0,0,0,0,0,-1,1294,1590,0,0
77,-566,0,0,0,0,0,0,0,0,0,-1,1301,1590,0,0
84,-566,0,0,0,0,0,0,0,0,0,-1,1308,1590,0,0
91,-566,0,0,0,0,0,0,0,0,0,-1,1315,1590,0,0
98,-566,0,0,0,0,0,0,0,0,0,-1,1322,1590,0,0
105,-566,0,0,0,0,0,0,0,0,0,-1,1329,1590,0,0
112,-566,0,0,0,0,0,0,0,0,0,-1,1336,1590,0,0
119,-566,0,0,0,0,0,0,0,0,0,-1,1343,1590,0,0
126,-566,0,0,0,0,0,0,0,0,0,-1,1350,1590,0,0
133,-566,0,0,0,0,0,0,0,0,0,-1,1357,1590,0,0
140,-566,0,0,0,0,0,0,0,0,0,-1,1364,1590,0,0
147,-566,0,0,0,0,0,0,0,0,0,-1,1371,1590,0,0
154,-566,0,0,0,0,0,0,0,0,0,-1,1378,1590,0,0
161,-566,0,0,0,0,0,0,0,0,0,-1,1385,1590,0,0
168,-566,0,0,0,0,0,0,0,0,0,-1,1392,1590,0,0
175,-566,0,0,0,0,0,0,0,0,0,-1,1399,1590,0,0
182,-566,0,0,0,0,0,0,0,0,0,-1,1406,1590,0,0
189,-566,0,0,0,0,0,0,0,0,0,-1,1413,1590,0,0
196,-566,0,0,0,0,0,0,0,0,0,-1,1420,1590,0,0
203,-566,0,0,0,0,0,0,0,0,0,-1,1427,1590,0,0
210,-566,0,0,0,0,0,0,0,0,0,-1,1434,1590,0,0
217,-566,0,0,0,0,0,0,0,0,0,-1,1441,1590,0,0
224,-566,0,0,0,0,0,0,0,0,0,-1,1448,1590,0,0
231,-566,0,0,0,0,0,0,0,0,0,-1,1455,1590,0,0
238,-566,0,0,0,0,0,0,0,0,0,-1,1462,1590,0,0
245,-566,0,0,0,0,0,0,0,0,0,-1,1469,1590,0,0
252,-566,0,0,0,0,0,0,0,0,0,-1,1476,1590,0,0
259,-566,0,0,0,0,0,0,0,0,0,-1,1483,1590,0,0
266,-566,0,0,0,0,0,0,0,0,0,-1,1490,1590,0,0
273,-566,0,0,0,0,0,0,0,0,0,-1,1497,1590,0,0
280,-566,0,0,0,0,0,0,0,0,0,-1,1504,1590,0,0
287,-566,0,0,0,0,0,0,0,0,0,-1,1511,1590,0,0
294,-566,0,0,0,0,0,0,0,0,0,-1,1518,1590,0,0
301,-566,0,0,0,0,0,0,0,0,0,-1,1525,1590,0,0
308,-566,0,0,0,0,0,0,0,0,0,-1,1532,1590,0,0
315,-566,0,0,0,0,0,0,0,0,0,-1,1539,1590,0,0
322,-566,6.07983,4.44873,0,0,0,0,0,0,0,-1,1546,1590,6.07983,-4.44873
329,-566,5.77026,3.47534,0,0,0,0,0,0,0,-1,1553,1590,5.77026,-3.47535
336,-566,5.41138,2.62915,0,0,0,0,0,0,0,-1,1560,1590,5.41138,-2.62909
343,-566,4.81873,1.79089,0,0,0,0,0,0,0,-1,1567,1590,4.81878,-1.79095
350,-566,4.41663,2.44214,0,0,0,0,0,0,0,-1,1574,1590,4.41666,-2.44214
357,-566,6.34058,5.18579,0,0,0,0,0,0,0,-1,1581,1590,6.34059,-5.1858
364,-566,6.06262,4.20251,0,0,0,0,0,0,0,-1,1588,1590,6.06259,-4.20246
371,-566,5.78455,3.21912,0,0,0,0,0,0,0,-1,1595,1590,5.7846,-3.21912
378,-566,5.7439,0.695557,0,0,0,0,0,0,0,-1,1602,1590,5.74392,-0.695531
385,-566,5.67615,-0.573975,0,0,0,0,0,0,0,-1,1609,1590,5.67612,0.573956
392,-566,5.78638,1.82434,0,0,0,0,0,0,0,-1,1616,1590,5.78637,-1.82439
399,-566,5.36621,1.7373,0,0,0,0,0,0,0,-1,1623,1590,5.36627,-1.7373
406,-566,4.30359,5.26868,0,0,0,0,0,0,0,-1,1630,1590,4.30364,-5.26867
413,-566,4.27124,5.79492,0,0,0,0,0,0,0,-1,1637,1590,4.27123,-5.7949
420,-566,7.19812,8.25146,0,0,0,0,0,0,0,-1,1644,1590,7.19817,-8.25149
427,-566,17.3438,26.1176,0,0,0,0,0,0,0,-1,1651,1590,17.3437,-26.1175
434,-566,9.18567,14.3304,0,0,0,0,0,0,0,-1,1658,1590,9.18571,-14.3305
441,-566,15.5841,27.5869,0,0,0,0,0,0,0,-1,1665,1590,15.5842,-27.587
448,-566,15.1328,27.353,0,0,0,0,0,0,0,-1,1672,1590,15.1328,-27.3531
455,-566,14.6887,26.5133,0,0,0,0,0,0,0,-1,1679,1590,14.6887,-26.5134
462,-566,14.8696,25.884,0.00207861,0.0174865,-0.00550999,0.0192541,0.000310977,-1.26036,0.0127337,0.0353456,1686,1590,14.8696,-25.884
469,-566,14.9688,25.2108,0.00266051,0.0140453,-0.0049647,0.0159061,0.000799648,-1.21218,0.0103478,0.0167399,1693,1590,14.9687,-25.2109
476,-566,15.0204,24.7338,0.00290818,0.0108609,-0.004339,0.01277,0.000999101,-1.1563,0.00820059,0.0105002,1700,1590,15.0204,-24.7338
483,-566,15.0277,24.3003,0.00308348,0.00787081,-0.00376398,0.00993777,0.00101652,-1.06861,0.00631368,0.0102121,1707,1590,15.0277,-24.3003
490,-566,15.0227,23.8756,0.00277619,0.00546084,-0.0028776,0.0072938,0.000943228,-1.00363,0.00458061,0.0123414,1714,1590,15.0227,-23.8756
497,-566,15.0709,23.4845,0.00239398,0.00346125,-0.00225214,0.00524211,0.000613114,-0.901726,0.00330935,0.0162421,1721,1590,15.0709,-23.4845
504,-566,15.0596,23.0746,0.00169489,0.00173035,-0.00133253,0.00304527,0.000379969,-0.79205,0.00191612,0.0204121,1728,1590,15.0595,-23.0746
511,-566,15.0121,22.6307,0.000859482,0.000152424,-0.000313952,0.000978763,3.31434e-05,-0.363087,0.000641746,0.0204741,1735,1590,15.0121,-22.6307
518,-566,15.0199,22.2041,-1.0317e-05,-0.001372,0.000696438,0.000282788,-0.00166511,0.398361,0.00121535,0.0127868,1742,1590,15.0198,-22.2041
525,-566,14.9889,21.7531,-0.000857539,-0.00287394,0.00176703,0.000168678,-0.00390015,0.526152,0.00265811,0.0121056,1749,1590,14.9889,-21.753
532,-566,14.9586,21.2894,-0.00166781,-0.00449127,0.00297007,0.000208965,-0.00636805,0.563544,0.00431671,0.0139063,1756,1590,14.9586,-21.2894
539,-566,14.9529,20.8204,-0.00260867,-0.00633095,0.00444124,0.000345629,-0.00928526,0.586984,0.00630854,0.0184304,1763,1590,14.9529,-20.8204
546,-566,15.0001,20.3262,-0.0037171,-0.00853196,0.0062875,0.000608105,-0.0128572,0.602563,0.00878116,0.0208961,1770,1590,15.0001,-20.3262
553,-566,14.99,20.0475,-0.00480482,-0.0109724,0.00839175,0.0010518,-0.016829,0.609317,0.0115859,0.0340553,1777,1590,14.99,-20.0475
560,-566,14.7986,20.0707,-0.0059133,-0.0136768,0.0107192,0.00160538,-0.0211955,0.611678,0.0146947,0.042316,1784,1590,14.7986,-20.0707
567,-566,14.7461,20.0203,0,0,0,0,0,0,0,-1,1791,1590,14.7461,-20.0203
574,-566,7.99548,3.14514,0,0,0,0,0,0,0,-1,1798,1590,7.99543,-3.14511
581,-566,2.54102,5.1311,0,0,0,0,0,0,0,-1,1805,1590,2.54099,-5.13111
588,-566,-1.91321,8.39197,0,0,0,0,0,0,0,-1,1812,1590,-1.91316,-8.39199
595,-566,9.0271,4.66467,0,0,0,0,0,0,0,-1,1819,1590,9.02705,-4.66468
602,-566,9.953,3.54895,0,0,0,0,0,0,0,-1,1826,1590,9.953,-3.54898
609,-566,0,0,0,0,0,0,0,0,0,-1,1833,1590,0,0
616,-566,0,0,0,0,0,0,0,0,0,-1,1840,1590,0,0
623,-566,0,0,0,0,0,0,0,0,0,-1,1847,1590,0,0
630,-566,0,0,0,0,0,0,0,0,0,-1,1854,1590,0,0
637,-566,0,0,0,0,0,0,0,0,0,-1,1861,1590,0,0
644,-566,0,0,0,0,0,0,0,0,0,-1,1868,1590,0,0
651,-566,0,0,0,0,0,0,0,0,0,-1,1875,1590,0,0
658,-566,0,0,0,0,0,0,0,0,0,-1,1882,1590,0,0
665,-566,0,0,0,0,0,0,0,0,0,-1,1889,1590,0,0
672,-566,0,0,0,0,0,0,0,0,0,-1,1896,1590,0,0
679,-566,0,0,0,0,0,0,0,0,0,-1,1903,1590,0,0
686,-566,0,0,0,0,0,0,0,0,0,-1,1910,1590,0,0
693,-566,0,0,0,0,0,0,0,0,0,-1,1917,1590,0,0
700,-566,0,0,0,0,0,0,0,0,0,-1,1924,1590,0,0
707,-566,0,0,0,0,0,0,0,0,0,-1,1931,1590,0,0
714,-566,0,0,0,0,0,0,0,0,0,-1,1938,1590,0,0
721,-566,0,0,0,0,0,0,0,0,0,-1,1945,1590,0,0
728,-566,0,0,0,0,0,0,0,0,0,-1,1952,1590,0,0
735,-566,0,0,0,0,0,0,0,0,0,-1,1959,1590,0,0
742,-566,0,0,0,0,0,0,0,0,0,-1,1966,1590,0,0
749,-566,0,0,0,0,0,0,0,0,0,-1,1973,1590,0,0
756,-566,0,0,0,0,0,0,0,0,0,-1,1980,1590,0,0
763,-566,0,0,0,0,0,0,0,0,0,-1,1987,1590,0,0
770,-566,0,0,0,0,0,0,0,0,0,-1,1994,1590,0,0
777,-566,0,0,0,0,0,0,0,0,0,-1,2001,1590,0,0
784,-566,0,0,0,0,0,0,0,0,0,-1,2008,1590,0,0
791,-566,0,0,0,0,0,0,0,0,0,-1,2015,1590,0,0
798,-566,0,0,0,0,0,0,0,0,0,-1,2022,1590,0,0
805,-566,0,0,0,0,0,0,0,0,0,-1,2029,1590,0,0
812,-566,0,0,0,0,0,0,0,0,0,-1,2036,1590,0,0
-700,-573,0,0,0,0,0,0,0,0,0,-1,524,1597,0,0
-693,-573,0,0,0,0,0,0,0,0,0,-1,531,1597,0,0
-686,-573,0,0,0,0,0,0,0,0,0,-1,538,1597,0,0
-679,-573,0,0,0,0,0,0,0,0,0,-1,545,1597,0,0
-672,-573,0,0,0,0,0,0,0,0,0,-1,552,1597,0,0
-665,-573,0,0,0,0,0,0,0,0,0,-1,559,1597,0,0
-658,-573,0,0,0,0,0,0,0,0,0,-1,566,1597,0,0
-651,-573,0,0,0,0,0,0,0,0,0,-1,573,1597,0,0
-644,-573,0,0,0,0,0,0,0,0,0,-1,580,1597,0,0
-637,-573,0,0,0,0,0,0,0,0,0,-1,587,1597,0,0
-630,-573,0,0,0,0,0,0,0,0,0,-1,594,1597,0,0
-623,-573,0,0,0,0,0,0,0,0,0,-1,601,1597,0,0
-616,-573,0,0,0,0,0,0,0,0,0,-1,608,1597,0,0
-609,-573,0,0,0,0,0,0,0,0,0,-1,615,1597,0,0
-602,-573,0,0,0,0,0,0,0,0,0,-1,622,1597,0,0
-595,-573,0,0,0,0,0,0,0,0,0,-1,629,1597,0,0
-588,-573,0,0,0,0,0,0,0,0,0,-1,636,1597,0,0
-581,-573,0,0,0,0,0,0,0,0,0,-1,643,1597,0,0
-574,-573,0,0,0,0,0,0,0,0,0,-1,650,1597,0,0
-567,-573,0,0,0,0,0,0,0,0,0,-1,657,1597,0,0
-560,-573,0,0,0,0,0,0,0,0,0,-1,664,1597,0,0
-553,-573,0,0,0,0,0,0,0,0,0,-1,671,1597,0,0
-546,-573,0,0,0,0,0,0,0,0,0,-1,678,1597,0,0
-539,-573,0,0,0,0,0,0,0,0,0,-1,685,1597,0,0
-532,-573,0,0,0,0,0,0,0,0,0,-1,692,1597,0,0
-525,-573,0,0,0,0,0,0,0,0,0,-1,699,1597,0,0
-518,-573,0,0,0,0,0,0,0,0,0,-1,706,1597,0,0
-511,-573,0,0,0,0,0,0,0,0,0,-1,713,1597,0,0
-504,-573,0,0,0,0,0,0,0,0,0,-1,720,1597,0,0
-497,-573,0,0,0,0,0,0,0,0,0,-1,727,1597,0,0
-490,-573,0,0,0,0,0,0,0,0,0,-1,734,1597,0,0
-483,-573,0,0,0,0,0,0,0,0,0,-1,741,1597,0,0
-476,-573,-9.3327,0.972778,0,0,0,0,0,0,0,-1,748,1597,-9.33268,-0.972776
-469,-573,-1.41681,1.13379,0,0,0,0,0,0,0,-1,755,1597,-1.41681,-1.13382
-462,-573,-0.748535,2.02588,0,0,0,0,0,0,0,-1,762,1597,-0.748533,-2.02584
-455,-573,-0.112976,2.70703,0,0,0,0,0,0,0,-1,769,1597,-0.112988,-2.70697
-448,-573,-1.26172,3.33252,0,0,0,0,0,0,0,-1,776,1597,-1.26173,-3.33248
-441,-573,0.108582,5.06726,0,0,0,0,0,0,0,-1,783,1597,0.108584,-5.06721
-434,-573,1.61768,7.05444,0,0,0,0,0,0,0,-1,790,1597,1.61767,-7.05446
-427,-573,0.0448608,18.5526,0,0,0,0,0,0,0,-1,797,1597,0.0448807,-18.5526
-420,-573,1.06628,17.4988,0,0,0,0,0,0,0,-1,804,1597,1.06625,-17.4988
-413,-573,0.611694,19.064,0,0,0,0,0,0,0,-1,811,1597,0.611686,-19.064
-406,-573,0.648743,19.6595,-0.00341329,0.000475127,0.00125411,0.000844518,-0.00378268,1.28435,0.00284538,0.0292402,818,1597,0.648742,-19.6596
-399,-573,0.608154,20.1895,-0.00294778,-0.000763637,0.000708918,-0.000553717,-0.0031577,1.28291,0.00194699,0.0132703,825,1597,0.608141,-20.1894
-392,-573,0.612122,20.6835,-0.00261496,-0.00150621,0.000132643,-0.00149056,-0.00263061,1.45337,0.00152327,0.0122466,832,1597,0.612129,-20.6835
-385,-573,0.585388,21.1719,-0.00176175,-0.000844257,0.000336494,-0.000734078,-0.00187193,1.25437,0.00108911,0.0142625,839,1597,0.585365,-21.1718
-378,-573,0.565369,21.6432,-0.000664858,-0.000140948,0.000735084,0.000377461,-0.00118327,0.956563,0.000940268,0.0150463,846,1597,0.565376,-21.6432
-371,-573,0.560913,22.106,0.000124785,0.00054859,0.000887419,0.00124905,-0.00057568,0.902596,0.00107716,0.0159692,853,1597,0.560896,-22.1059
-364,-573,0.531677,22.5361,0.000807786,0.00129115,0.00107563,0.00215191,-5.29739e-05,0.895909,0.00145259,0.0201857,860,1597,0.531694,-22.5362
-357,-573,0.514099,22.9873,0.0015058,0.00216739,0.00130918,0.00318692,0.000486276,0.909145,0.0019825,0.0244552,867,1597,0.514075,-22.9873
-350,-573,0.531677,23.4658,0.00229047,0.00307352,0.001585,0.00431464,0.00104936,0.906484,0.00259826,0.0185175,874,1597,0.531701,-23.4658
-343,-573,0.546631,23.9142,0.00309792,0.00418474,0.00197407,0.00568883,0.00159384,0.919709,0.00338861,0.0206933,881,1597,0.546643,-23.9142
-336,-573,0.528137,24.3877,0.00387757,0.00532273,0.00240564,0.00711197,0.00208833,0.931296,0.00422106,0.0167356,888,1597,0.528146,-24.3877
-329,-573,0.519714,24.8271,0.00469947,0.0065605,0.00291324,0.00868822,0.00257175,0.939981,0.00515343,0.0171757,895,1597,0.519695,-24.8271
-322,-573,0.502258,25.2792,0.00556791,0.00786517,0.00348655,0.0103874,0.00304566,0.944522,0.00616579,0.0157811,902,1597,0.502285,-25.2792
-315,-573,0.622192,25.9077,0.00652417,0.00945164,0.00413198,0.0123715,0.00360432,0.955624,0.00734708,0.036995,909,1597,0.622221,-25.9077
-308,-573,0.959656,26.6138,0,0,0,0,0,0,0,-1,916,1597,0.95963,-26.6137
-301,-573,0.769958,26.8533,0,0,0,0,0,0,0,-1,923,1597,0.769946,-26.8533
-294,-573,1.00702,24.802,0,0,0,0,0,0,0,-1,930,1597,1.00701,-24.802
-287,-573,1.38068,27.6692,0,0,0,0,0,0,0,-1,937,1597,1.38071,-27.6692
-280,-573,1.19684,26.4906,0,0,0,0,0,0,0,-1,944,1597,1.19685,-26.4906
-273,-573,2.24805,25.4375,0,0,0,0,0,0,0,-1,951,1597,2.24803,-25.4374
-266,-573,1.31116,7.1814,0,0,0,0,0,0,0,-1,958,1597,1.31118,-7.18142
-259,-573,1.2514,6.70959,0,0,0,0,0,0,0,-1,965,1597,1.25137,-6.70965
-252,-573,2.07874,5.27161,0,0,0,0,0,0,0,-1,972,1597,2.07875,-5.27157
-245,-573,-10.2592,1.09827,0,0,0,0,0,0,0,-1,979,1597,-10.2592,-1.09823
-238,-573,-11.5463,4.44141,0,0,0,0,0,0,0,-1,986,1597,-11.5463,-4.44146
-231,-573,-9.23431,4.14539,0,0,0,0,0,0,0,-1,993,1597,-9.23431,-4.14534
-224,-573,-6.70044,7.40857,0,0,0,0,0,0,0,-1,1000,1597,-6.70045,-7.40851
-217,-573,-4.25824,8.59119,0,0,0,0,0,0,0,-1,1007,1597,-4.25824,-8.59122
-210,-573,-2.39661,9.73914,0,0,0,0,0,0,0,-1,1014,1597,-2.39658,-9.73915
-203,-573,-0.557373,10.9005,0,0,0,0,0,0,0,-1,1021,1597,-0.557387,-10.9006
-196,-573,-1.65344,9.02246,0,0,0,0,0,0,0,-1,1028,1597,-1.65349,-9.02241
-189,-573,-6.12915,6.66882,0,0,0,0,0,0,0,-1,1035,1597,-6.12913,-6.66884
-182,-573,0,0,0,0,0,0,0,0,0,-1,1042,1597,0,0
-175,-573,0,0,0,0,0,0,0,0,0,-1,1049,1597,0,0
-168,-573,0,0,0,0,0,0,0,0,0,-1,1056,1597,0,0
-161,-573,0,0,0,0,0,0,0,0,0,-1,1063,1597,0,0
-154,-573,0,0,0,0,0,0,0,0,0,-1,1070,1597,0,0
-147,-573,0,0,0,0,0,0,0,0,0,-1,1077,1597,0,0
-140,-573,0,0,0,0,0,0,0,0,0,-1,1084,1597,0,0
-133,-573,0,0,0,0,0,0,0,0,0,-1,1091,1597,0,0
-126,-573,0,0,0,0,0,0,0,0,0,-1,1098,1597,0,0
-119,-573,0,0,0,0,0,0,0,0,0,-1,1105,1597,0,0
-112,-573,0,0,0,0,0,0,0,0,0,-1,1112,1597,0,0
-105,-573,0,0,0,0,0,0,0,0,0,-1,1119,1597,0,0
-98,-573,0,0,0,0,0,0,0,0,0,-1,1126,1597,0,0
-91,-573,0,0,0,0,0,0,0,0,0,-1,1133,1597,0,0
-84,-573,0,0,0,0,0,0,0,0,0,-1,1140,1597,0,0
-77,-573,0,0,0,0,0,0,0,0,0,-1,1147,1597,0,0
-70,-573,0,0,0,0,0,0,0,0,0,-1,1154,1597,0,0
-63,-573,0,0,0,0,0,0,0,0,0,-1,1161,1597,0,0
-56,-573,0,0,0,0,0,0,0,0,0,-1,1168,1597,0,0
-49,-573,0,0,0,0,0,0,0,0,0,-1,1175,1597,0,0
-42,-573,0,0,0,0,0,0,0,0,0,-1,1182,1597,0,0
-35,-573,0,0,0,0,0,0,0,0,0,-1,1189,1597,0,0
-28,-573,0,0,0,0,0,0,0,0,0,-1,1196,1597,0,0
-21,-573,0,0,0,0,0,0,0,0,0,-1,1203,1597,0,0
-14,-573,0,0,0,0,0,0,0,0,0,-1,1210,1597,0,0
-7,-573,0,0,0,0,0,0,0,0,0,-1,1217,1597,0,0
0,-573,0,0,0,0,0,0,0,0,0,-1,1224,1597,0,0
7,-573,0,0,0,0,0,0,0,0,0,-1,1231,1597,0,0
14,-573,0,0,0,0,0,0,0,0,0,-1,1238,1597,0,0
21,-573,0,0,0,0,0,0,0,0,0,-1,1245,1597,0,0
28,-573,0,0,0,0,0,0,0,0,0,-1,1252,1597,0,0
35,-573,0,0,0,0,0,0,0,0,0,-1,1259,1597,0,0
42,-573,0,0,0,0,0,0,0,0,0,-1,1266,1597,0,0
49,-573,0,0,0,0,0,0,0,0,0,-1,1273,1597,0,0
56,-573,0,0,0,0,0,0,0,0,0,-1,1280,1597,0,0
63,-573,0,0,0,0,0,0,0,0,0,-1,1287,1597,0,0
70,-573,0,0,0,0,0,0,0,0,0,-1,1294,1597,0,0
77,-573,0,0,0,0,0,0,0,0,0,-1,1301,1597,0,0
84,-573,0,0,0,0,0,0,0,0,0,-1,1308,1597,0,0
91,-573,0,0,0,0,0,0,0,0,0,-1,1315,1597,0,0
98,-573,0,0,0,0,0,0,0,0,0,-1,1322,1597,0,0
105,-573,0,0,0,0,0,0,0,0,0,-1,1329,1597,0,0
112,-573,0,0,0,0,0,0,0,0,0,-1,1336,1597,0,0
119,-573,0,0,0,0,0,0,0,0,0,-1,1343,1597,0,0
126,-573,0,0,0,0,0,0,0,0,0,-1,1350,1597,0,0
133,-573,0,0,0,0,0,0,0,0,0,-1,1357,1597,0,0
140,-573,0,0,0,0,0,0,0,0,0,-1,1364,1597,0,0
147,-573,0,0,0,0,0,0,0,0,0,-1,1371,1597,0,0
154,-573,0,0,0,0,0,0,0,0,0,-1,1378,1597,0,0
161,-573,0,0,0,0,0,0,0,0,0,-1,1385,1597,0,0
168,-573,0,0,0,0,0,0,0,0,0,-1,1392,1597,0,0
175,-573,0,0,0,0,0,0,0,0,0,-1,1399,1597,0,0
182,-573,0,0,0,0,0,0,0,0,0,-1,1406,1597,0,0
189,-573,0,0,0,0,0,0,0,0,0,-1,1413,1597,0,0
196,-573,0,0,0,0,0,0,0,0,0,-1,1420,1597,0,0
203,-573,0,0,0,0,0,0,0,0,0,-1,1427,1597,0,0
210,-573,0,0,0,0,0,0,0,0,0,-1,1434,1597,0,0
217,-573,0,0,0,0,0,0,0,0,0,-1,1441,1597,0,0
224,-573,0,0,0,0,0,0,0,0,0,-1,1448,1597,0,0
231,-573,0,0,0,0,0,0,0,0,0,-1,1455,1597,0,0
238,-573,0,0,0,0,0,0,0,0,0,-1,1462,1597,0,0
245,-573,0,0,0,0,0,0,0,0,0,-1,1469,1597,0,0
252,-573,0,0,0,0,0,0,0,0,0,-1,1476,1597,0,0
259,-573,0,0,0,0,0,0,0,0,0,-1,1483,1597,0,0
266,-573,0,0,0,0,0,0,0,0,0,-1,1490,1597,0,0
273,-573,0,0,0,0,0,0,0,0,0,-1,1497,1597,0,0
280,-573,0,0,0,0,0,0,0,0,0,-1,1504,1597,0,0
287,-573,0,0,0,0,0,0,0,0,0,-1,1511,1597,0,0
294,-573,0,0,0,0,0,0,0,0,0,-1,1518,1597,0,0
301,-573,0,0,0,0,0,0,0,0,0,-1,1525,1597,0,0
308,-573,5.93042,9.71143,0,0,0,0,0,0,0,-1,1532,1597,5.93046,-9.71144
315,-573,4.34204,11.719,0,0,0,0,0,0,0,-1,1539,1597,4.34205,-11.719
322,-573,10.3269,7.77563,0,0,0,0,0,0,0,-1,1546,1597,10.327,-7.77565
329,-573,4.99573,3.80273,0,0,0,0,0,0,0,-1,1553,1597,4.9957,-3.80273
336,-573,4.85693,2.53455,0,0,0,0,0,0,0,-1,1560,1597,4.8569,-2.53459
343,-573,5.5946,2.15894,0,0,0,0,0,0,0,-1,1567,1597,5.59456,-2.1589
350,-573,2.53748,1.56433,0,0,0,0,0,0,0,-1,1574,1597,2.53753,-1.5643
357,-573,7.40247,4.03613,0,0,0,0,0,0,0,-1,1581,1597,7.40244,-4.03614
364,-573,7.14551,3.02087,0,0,0,0,0,0,0,-1,1588,1597,7.14556,-3.02084
371,-573,6.88867,2.00549,0,0,0,0,0,0,0,-1,1595,1597,6.88868,-2.00553
378,-573,8.62012,6.09106,0,0,0,0,0,0,0,-1,1602,1597,8.62012,-6.09103
385,-573,6.54346,-0.951904,0,0,0,0,0,0,0,-1,1609,1597,6.54349,0.951901
392,-573,6.41833,-2.18225,0,0,0,0,0,0,0,-1,1616,1597,6.41831,2.18228
399,-573,4.26282,4.73657,0,0,0,0,0,0,0,-1,1623,1597,4.26285,-4.73652
406,-573,6.82715,10.823,0,0,0,0,0,0,0,-1,1630,1597,6.82719,-10.823
413,-573,8.90552,13.1737,0,0,0,0,0,0,0,-1,1637,1597,8.90553,-13.1737
420,-573,16.317,26.6865,0,0,0,0,0,0,0,-1,1644,1597,16.317,-26.6866
427,-573,15.4199,28.4318,0,0,0,0,0,0,0,-1,1651,1597,15.4199,-28.4317
434,-573,14.5795,27.9568,0,0,0,0,0,0,0,-1,1658,1597,14.5795,-27.9568
441,-573,14.8519,27.1479,-0.00296029,0.0218709,-0.00450709,0.0226637,-0.00375306,-1.39668,0.016503,0.0497325,1665,1597,14.852,-27.1479
448,-573,14.551,26.7771,-0.00149478,0.0188629,-0.00436993,0.0197613,-0.00239317,-1.36804,0.0140401,0.0421982,1672,1597,14.5511,-26.7771
455,-573,14.5342,26.1656,0.000268049,0.0162257,-0.00438556,0.0173516,-0.000857781,-1.31951,0.011864,0.0303941,1679,1597,14.5342,-26.1656
462,-573,14.6421,25.5714,0.00137452,0.0137007,-0.00403743,0.0149054,0.000169809,-1.28082,0.00988082,0.022005,1686,1597,14.6421,-25.5714
469,-573,14.6428,25.1348,0.00181865,0.0109761,-0.00368204,0.012273,0.000521829,-1.23216,0.00801369,0.015938,1693,1597,14.6428,-25.1347
476,-573,14.6512,24.726,0.00196696,0.00837736,-0.00321288,0.00971043,0.000633887,-1.1775,0.00627301,0.0147245,1700,1597,14.6513,-24.7259
483,-573,14.6371,24.3274,0.00209291,0.00582519,-0.00278527,0.00731169,0.000606405,-1.08055,0.00468542,0.0127173,1707,1597,14.6371,-24.3273
490,-573,14.6161,23.8964,0.0018612,0.0037536,-0.00209419,0.00510543,0.000509372,-0.997581,0.00324717,0.0139117,1714,1597,14.6161,-23.8963
497,-573,14.6411,23.4716,0.00147981,0.00199388,-0.00156849,0.00332625,0.000147439,-0.866613,0.00217003,0.0213557,1721,1597,14.6412,-23.4715
504,-573,14.6113,23.0576,0.000759347,0.000388585,-0.000676863,0.00127576,-0.000127825,-0.651735,0.000896156,0.0181885,1728,1597,14.6114,-23.0576
511,-573,14.5669,22.6139,-3.04681e-05,-0.00116996,0.000318775,5.26474e-05,-0.00125308,0.255055,0.000853475,0.019011,1735,1597,14.5669,-22.6138
518,-573,14.5634,22.1969,-0.000841904,-0.00263837,0.00129375,-0.000165139,-0.00331514,0.481958,0.00215715,0.0151376,1742,1597,14.5634,-22.1969
525,-573,14.5671,21.7654,-0.00166161,-0.00415622,0.00239006,-0.000212963,-0.00560486,0.544902,0.00366765,0.0178322,1749,1597,14.5672,-21.7654
532,-573,14.5444,21.3179,-0.0024986,-0.00589271,0.00371681,-0.00010975,-0.00828157,0.571238,0.00548483,0.0159496,1756,1597,14.5444,-21.3179
539,-573,14.5273,20.8633,-0.00355571,-0.00801375,0.0054538,0.000106997,-0.0116765,0.591402,0.00782021,0.0220779,1763,1597,14.5274,-20.8632
546,-573,14.5743,20.4774,-0.00484631,-0.0106292,0.00768769,0.000475724,-0.0159512,0.605525,0.0107962,0.039334,1770,1597,14.5744,-20.4774
553,-573,14.0935,20.3694,-0.00621229,-0.013648,0.0103334,0.00105174,-0.020912,0.612713,0.0143048,0.0463793,1777,1597,14.0935,-20.3694
560,-573,14.0115,20.4269,0,0,0,0,0,0,0,-1,1784,1597,14.0114,-20.4269
567,-573,11.9315,19.6708,0,0,0,0,0,0,0,-1,1791,1597,11.9315,-19.6708
574,-573,0.83374,5.7041,0,0,0,0,0,0,0,-1,1798,1597,0.833718,-5.70405
581,-573,-0.224854,7.41602,0,0,0,0,0,0,0,-1,1805,1597,-0.224904,-7.41596
588,-573,-0.134033,7.67065,0,0,0,0,0,0,0,-1,1812,1597,-0.134037,-7.67063
595,-573,-0.0825195,8.35083,0,0,0,0,0,0,0,-1,1819,1597,-0.0824684,-8.35088
602,-573,0,0,0,0,0,0,0,0,0,-1,1826,1597,0,0
609,-573,0,0,0,0,0,0,0,0,0,-1,1833,1597,0,0
616,-573,0,0,0,0,0,0,0,0,0,-1,1840,1597,0,0
623,-573,0,0,0,0,0,0,0,0,0,-1,1847,1597,0,0
630,-573,0,0,0,0,0,0,0,0,0,-1,1854,1597,0,0
637,-573,0,0,0,0,0,0,0,0,0,-1,1861,1597,0,0
644,-573,0,0,0,0,0,0,0,0,0,-1,1868,1597,0,0
651,-573,0,0,0,0,0,0,0,0,0,-1,1875,1597,0,0
658,-573,0,0,0,0,0,0,0,0,0,-1,1882,1597,0,0
665,-573,0,0,0,0,0,0,0,0,0,-1,1889,1597,0,0
672,-573,0,0,0,0,0,0,0,0,0,-1,1896,1597,0,0
679,-573,0,0,0,0,0,0,0,0,0,-1,1903,1597,0,0
686,-573,0,0,0,0,0,0,0,0,0,-1,1910,1597,0,0
693,-573,0,0,0,0,0,0,0,0,0,-1,1917,1597,0,0
700,-573,0,0,0,0,0,0,0,0,0,-1,1924,1597,0,0
707,-573,0,0,0,0,0,0,0,0,0,-1,1931,1597,0,0
714,-573,0,0,0,0,0,0,0,0,0,-1,1938,1597,0,0
721,-573,0,0,0,0,0,0,0,0,0,-1,1945,1597,0,0
728,-573,0,0,0,0,0,0,0,0,0,-1,1952,1597,0,0
735,-573,0,0,0,0,0,0,0,0,0,-1,1959,1597,0,0
742,-573,0,0,0,0,0,0,0,0,0,-1,1966,1597,0,0
749,-573,0,0,0,0,0,0,0,0,0,-1,1973,1597,0,0
756,-573,0,0,0,0,0,0,0,0,0,-1,1980,1597,0,0
763,-573,0,0,0,0,0,0,0,0,0,-1,1987,1597,0,0
770,-573,0,0,0,0,0,0,0,0,0,-1,1994,1597,0,0
777,-573,0,0,0,0,0,0,0,0,0,-1,2001,1597,0,0
784,-573,0,0,0,0,0,0,0,0,0,-1,2008,1597,0,0
791,-573,0,0,0,0,0,0,0,0,0,-1,2015,1597,0,0
798,-573,0,0,0,0,0,0,0,0,0,-1,2022,1597,0,0
805,-573,0,0,0,0,0,0,0,0,0,-1,2029,1597,0,0
812,-573,0,0,0,0,0,0,0,0,0,-1,2036,1597,0,0
-700,-580,0,0,0,0,0,0,0,0,0,-1,524,1604,0,0
-693,-580,0,0,0,0,0,0,0,0,0,-1,531,1604,0,0
-686,-580,0,0,0,0,0,0,0,0,0,-1,538,1604,0,0
-679,-580,0,0,0,0,0,0,0,0,0,-1,545,1604,0,0
-672,-580,0,0,0,0,0,0,0,0,0,-1,552,1604,0,0
-665,-580,0,0,0,0,0,0,0,0,0,-1,559,1604,0,0
-658,-580,0,0,0,0,0,0,0,0,0,-1,566,1604,0,0
-651,-580,0,0,0,0,0,0,0,0,0,-1,573,1604,0,0
-644,-580,0,0,0,0,0,0,0,0,0,-1,580,1604,0,0
-637,-580,0,0,0,0,0,0,0,0,0,-1,587,1604,0,0
-630,-580,0,0,0,0,0,0,0,0,0,-1,594,1604,0,0
-623,-580,0,0,0,0,0,0,0,0,0,-1,601,1604,0,0
-616,-580,0,0,0,0,0,0,0,0,0,-1,608,1604,0,0
-609,-580,0,0,0,0,0,0,0,0,0,-1,615,1604,0,0
-602,-580,0,0,0,0,0,0,0,0,0,-1,622,1604,0,0
-595,-580,0,0,0,0,0,0,0,0,0,-1,629,1604,0,0
-588,-580,0,0,0,0,0,0,0,0,0,-1,636,1604,0,0
-581,-580,0,0,0,0,0,0,0,0,0,-1,643,1604,0,0
-574,-580,0,0,0,0,0,0,0,0,0,-1,650,1604,0,0
-567,-580,0,0,0,0,0,0,0,0,0,-1,657,1604,0,0
-560,-580,0,0,0,0,0,0,0,0,0,-1,664,1604,0,0
-553,-580,0,0,0,0,0,0,0,0,0,-1,671,1604,0,0
-546,-580,0,0,0,0,0,0,0,0,0,-1,678,1604,0,0
-539,-580,0,0,0,0,0,0,0,0,0,-1,685,1604,0,0
-532,-580,0,0,0,0,0,0,0,0,0,-1,692,1604,0,0
-525,-580,0,0,0,0,0,0,0,0,0,-1,699,1604,0,0
-518,-580,0,0,0,0,0,0,0,0,0,-1,706,1604,0,0
-511,-580,0,0,0,0,0,0,0,0,0,-1,713,1604,0,0
-504,-580,0,0,0,0,0,0,0,0,0,-1,720,1604,0,0
-497,-580,0,0,0,0,0,0,0,0,0,-1,727,1604,0,0
-490,-580,0,0,0,0,0,0,0,0,0,-1,734,1604,0,0
-483,-580,0,0,0,0,0,0,0,0,0,-1,741,1604,0,0
-476,-580,0,0,0,0,0,0,0,0,0,-1,748,1604,0,0
-469,-580,-1.69189,-0.38916,0,0,0,0,0,0,0,-1,755,1604,-1.69192,0.389188
-462,-580,-0.859863,0.675293,0,0,0,0,0,0,0,-1,762,1604,-0.859834,-0.675245
-455,-580,-0.730164,0.651978,0,0,0,0,0,0,0,-1,769,1604,-0.730153,-0.651957
-448,-580,-3.31891,2.07544,0,0,0,0,0,0,0,-1,776,1604,-3.3189,-2.07539
-441,-580,-1.63843,3.9469,0,0,0,0,0,0,0,-1,783,1604,-1.63842,-3.94695
-434,-580,0.23291,5.97876,0,0,0,0,0,0,0,-1,790,1604,0.232901,-5.97878
-427,-580,1.62756,8.05493,0,0,0,0,0,0,0,-1,797,1604,1.62758,-8.05488
-420,-580,0.986572,11.2383,0,0,0,0,0,0,0,-1,804,1604,0.986544,-11.2382
-413,-580,1.20325,18.5469,0,0,0,0,0,0,0,-1,811,1604,1.20324,-18.5468
-406,-580,1.10773,19.6458,0,0,0,0,0,0,0,-1,818,1604,1.10776,-19.6458
-399,-580,1.08978,20.2145,-0.00373843,-0.000981891,0.0011,-0.000596748,-0.00412357,1.23401,0.0025733,0.0302535,825,1604,1.08976,-20.2145
-392,-580,1.05933,20.7145,-0.00332106,-0.00207687,0.000355825,-0.00198229,-0.00341563,1.31102,0.00198049,0.0156024,832,1604,1.05936,-20.7145
-385,-580,1.04285,21.1953,-0.00240531,-0.00157233,0.00044024,-0.00138279,-0.00259485,1.16424,0.00149922,0.0121524,839,1604,1.04282,-21.1953
-378,-580,1.03497,21.6652,-0.00128284,-0.00109431,0.0007222,-0.000460249,-0.0019169,0.850293,0.00115549,0.0151343,846,1604,1.035,-21.6651
-371,-580,1.0166,22.1476,-0.000494015,-0.000549086,0.000771632,0.000250573,-0.00129367,0.767564,0.000956971,0.013958,853,1604,1.01661,-22.1475
-364,-580,0.983765,22.5991,0.000138581,3.00565e-05,0.000843431,0.000929494,-0.000760856,0.753275,0.000977541,0.0209291,860,1604,0.983795,-22.5991
-357,-580,0.989014,23.0083,0.000778292,0.000774319,0.000983875,0.00176018,-0.000207572,0.784389,0.00124841,0.0156308,867,1604,0.988986,-23.0083
-350,-580,0.987061,23.4926,0.00149493,0.0015615,0.00117595,0.00270463,0.000351799,0.799547,0.00169801,0.0110399,874,1604,0.987076,-23.4925
-343,-580,1.0144,23.9552,0.00221417,0.002544,0.00147477,0.00386305,0.000895128,0.841079,0.0023349,0.0116329,881,1604,1.01441,-23.9552
-336,-580,1.01837,24.384,0.00291073,0.00352154,0.00182071,0.00506228,0.00136999,0.868495,0.00302349,0.0202902,888,1604,1.01834,-24.384
-329,-580,0.981567,24.843,0.0036287,0.00463571,0.00222552,0.00641397,0.00185043,0.896647,0.00381194,0.0179367,895,1604,0.981588,-24.843
-322,-580,0.947693,25.278,0.00435002,0.00580416,0.0026945,0.00786796,0.00228623,0.917177,0.0046735,0.0189403,902,1604,0.947702,-25.278
-315,-580,0.958679,25.7278,0.00511273,0.0070898,0.00316584,0.00941785,0.00278468,0.936727,0.00558668,0.0206224,909,1604,0.958709,-25.7278
-308,-580,1.07416,26.2808,0.00600791,0.00802224,0.00357712,0.0107313,0.00329887,0.922624,0.00634707,0.0306408,916,1604,1.07414,-26.2808
-301,-580,1.1272,26.6079,0.00719233,0.00833067,0.00414211,0.0119425,0.00358046,0.853676,0.00707685,0.028765,923,1604,1.12722,-26.6079
-294,-580,1.18066,27.2271,0,0,0,0,0,0,0,-1,930,1604,1.18064,-27.2271
-287,-580,1.38251,27.1248,0,0,0,0,0,0,0,-1,937,1604,1.38251,-27.1248
-280,-580,1.79675,28.4565,0,0,0,0,0,0,0,-1,944,1604,1.79676,-28.4566
-273,-580,1.39575,28.6672,0,0,0,0,0,0,0,-1,951,1604,1.39577,-28.6672
-266,-580,1.71777,25.6515,0,0,0,0,0,0,0,-1,958,1604,1.71775,-25.6515
-259,-580,1.31091,9.11536,0,0,0,0,0,0,0,-1,965,1604,1.31092,-9.11539
-252,-580,1.07629,7.74097,0,0,0,0,0,0,0,-1,972,1604,1.07627,-7.74101
-245,-580,3.80304,9.16028,0,0,0,0,0,0,0,-1,979,1604,3.80306,-9.16034
-238,-580,-10.3588,1.57556,0,0,0,0,0,0,0,-1,986,1604,-10.3588,-1.5755
-231,-580,-10.576,6.43787,0,0,0,0,0,0,0,-1,993,1604,-10.576,-6.43783
-224,-580,-8.27435,7.58972,0,0,0,0,0,0,0,-1,1000,1604,-8.27435,-7.5897
-217,-580,-5.85632,9.51221,0,0,0,0,0,0,0,-1,1007,1604,-5.85632,-9.5122
-210,-580,-3.6684,11.1569,0,0,0,0,0,0,0,-1,1014,1604,-3.66839,-11.1569
-203,-580,-1.92474,12.7845,0,0,0,0,0,0,0,-1,1021,1604,-1.92477,-12.7845
-196,-580,-2.28552,10.3289,0,0,0,0,0,0,0,-1,1028,1604,-2.28552,-10.3288
-189,-580,-4.58252,7.59058,0,0,0,0,0,0,0,-1,1035,1604,-4.58256,-7.59057
-182,-580,-5.45874,7.65942,0,0,0,0,0,0,0,-1,1042,1604,-5.45876,-7.65939
-175,-580,-6.38977,7.55005,0,0,0,0,0,0,0,-1,1049,1604,-6.38981,-7.5501
-168,-580,0,0,0,0,0,0,0,0,0,-1,1056,1604,0,0
-161,-580,0,0,0,0,0,0,0,0,0,-1,1063,1604,0,0
-154,-580,0,0,0,0,0,0,0,0,0,-1,1070,1604,0,0
-147,-580,0,0,0,0,0,0,0,0,0,-1,1077,1604,0,0
-140,-580,0,0,0,0,0,0,0,0,0,-1,1084,1604,0,0
-133,-580,0,0,0,0,0,0,0,0,0,-1,1091,1604,0,0
-126,-580,0,0,0,0,0,0,0,0,0,-1,1098,1604,0,0
-119,-580,0,0,0,0,0,0,0,0,0,-1,1105,1604,0,0
-112,-580,0,0,0,0,0,0,0,0,0,-1,1112,1604,0,0
-105,-580,0,0,0,0,0,0,0,0,0,-1,1119,1604,0,0
-98,-580,0,0,0,0,0,0,0,0,0,-1,1126,1604,0,0
-91,-580,0,0,0,0,0,0,0,0,0,-1,1133,1604,0,0
-84,-580,0,0,0,0,0,0,0,0,0,-1,1140,1604,0,0
-77,-580,0,0,0,0,0,0,0,0,0,-1,1147,1604,0,0
-70,-580,0,0,0,0,0,0,0,0,0,-1,1154,1604,0,0
-63,-580,0,0,0,0,0,0,0,0,0,-1,1161,1604,0,0
-56,-580,0,0,0,0,0,0,0,0,0,-1,1168,1604,0,0
-49,-580,0,0,0,0,0,0,0,0,0,-1,1175,1604,0,0
-42,-580,0,0,0,0,0,0,0,0,0,-1,1182,1604,0,0
-35,-580,0,0,0,0,0,0,0,0,0,-1,1189,1604,0,0
-28,-580,0,0,0,0,0,0,0,0,0,-1,1196,1604,0,0
-21,-580,0,0,0,0,0,0,0,0,0,-1,1203,1604,0,0
-14,-580,0,0,0,0,0,0,0,0,0,-1,1210,1604,0,0
-7,-580,0,0,0,0,0,0,0,0,0,-1,1217,1604,0,0
0,-580,0,0,0,0,0,0,0,0,0,-1,1224,1604,0,0
7,-580,0,0,0,0,0,0,0,0,0,-1,1231,1604,0,0
14,-580,0,0,0,0,0,0,0,0,0,-1,1238,1604,0,0
21,-580,0,0,0,0,0,0,0,0,0,-1,1245,1604,0,0
28,-580,0,0,0,0,0,0,0,0,0,-1,1252,1604,0,0
35,-580,0,0,0,0,0,0,0,0,0,-1,1259,1604,0,0
42,-580,0,0,0,0,0,0,0,0,0,-1,1266,1604,0,0
49,-580,0,0,0,0,0,0,0,0,0,-1,1273,1604,0,0
56,-580,0,0,0,0,0,0,0,0,0,-1,1280,1604,0,0
63,-580,0,0,0,0,0,0,0,0,0,-1,1287,1604,0,0
70,-580,0,0,0,0,0,0,0,0,0,-1,1294,1604,0,0
77,-580,0,0,0,0,0,0,0,0,0,-1,1301,1604,0,0
84,-580,0,0,0,0,0,0,0,0,0,-1,1308,1604,0,0
91,-580,0,0,0,0,0,0,0,0,0,-1,1315,1604,0,0
98,-580,0,0,0,0,0,0,0,0,0,-1,1322,1604,0,0
105,-580,0,0,0,0,0,0,0,0,0,-1,1329,1604,0,0
112,-580,0,0,0,0,0,0,0,0,0,-1,1336,1604,0,0
119,-580,0,0,0,0,0,0,0,0,0,-1,1343,1604,0,0
126,-580,0,0,0,0,0,0,0,0,0,-1,1350,1604,0,0
133,-580,0,0,0,0,0,0,0,0,0,-1,1357,1604,0,0
140,-580,0,0,0,0,0,0,0,0,0,-1,1364,1604,0,0
147,-580,0,0,0,0,0,0,0,0,0,-1,1371,1604,0,0
154,-580,0,0,0,0,0,0,0,0,0,-1,1378,1604,0,0
161,-580,0,0,0,0,0,0,0,0,0,-1,1385,1604,0,0
168,-580,0,0,0,0,0,0,0,0,0,-1,1392,1604,0,0
175,-580,0,0,0,0,0,0,0,0,0,-1,1399,1604,0,0
182,-580,0,0,0,0,0,0,0,0,0,-1,1406,1604,0,0
189,-580,0,0,0,0,0,0,0,0,0,-1,1413,1604,0,0
196,-580,0,0,0,0,0,0,0,0,0,-1,1420,1604,0,0
203,-580,0,0,0,0,0,0,0,0,0,-1,1427,1604,0,0
210,-580,0,0,0,0,0,0,0,0,0,-1,1434,1604,0,0
217,-580,0,0,0,0,0,0,0,0,0,-1,1441,1604,0,0
224,-580,0,0,0,0,0,0,0,0,0,-1,1448,1604,0,0
231,-580,0,0,0,0,0,0,0,0,0,-1,1455,1604,0,0
238,-580,0,0,0,0,0,0,0,0,0,-1,1462,1604,0,0
245,-580,0,0,0,0,0,0,0,0,0,-1,1469,1604,0,0
252,-580,0,0,0,0,0,0,0,0,0,-1,1476,1604,0,0
259,-580,0,0,0,0,0,0,0,0,0,-1,1483,1604,0,0
266,-580,0,0,0,0,0,0,0,0,0,-1,1490,1604,0,0
273,-580,0,0,0,0,0,0,0,0,0,-1,1497,1604,0,0
280,-580,0,0,0,0,0,0,0,0,0,-1,1504,1604,0,0
287,-580,0,0,0,0,0,0,0,0,0,-1,1511,1604,0,0
294,-580,4.0437,0.177368,0,0,0,0,0,0,0,-1,1518,1604,4.04369,-0.177371
301,-580,7.55164,8.05798,0,0,0,0,0,0,0,-1,1525,1604,7.55158,-8.05802
308,-580,5.9126,9.99341,0,0,0,0,0,0,0,-1,1532,1604,5.91255,-9.99337
315,-580,4.27356,11.9287,0,0,0,0,0,0,0,-1,1539,1604,4.27352,-11.9287
322,-580,10.2366,7.50281,0,0,0,0,0,0,0,-1,1546,1604,10.2366,-7.50282
329,-580,10.5962,8.69641,0,0,0,0,0,0,0,-1,1553,1604,10.5962,-8.69642
336,-580,3.66431,1.58862,0,0,0,0,0,0,0,-1,1560,1604,3.6643,-1.58864
343,-580,3.32227,1.39636,0,0,0,0,0,0,0,-1,1567,1604,3.32222,-1.39633
350,-580,8.71277,4.0564,0,0,0,0,0,0,0,-1,1574,1604,8.71271,-4.05638
357,-580,8.52332,3.08154,0,0,0,0,0,0,0,-1,1581,1604,8.52332,-3.08157
364,-580,8.25818,2.07605,0,0,0,0,0,0,0,-1,1588,1604,8.25812,-2.07608
371,-580,7.42114,7.14282,0,0,0,0,0,0,0,-1,1595,1604,7.42119,-7.14281
378,-580,7.9718,6.6731,0,0,0,0,0,0,0,-1,1602,1604,7.9718,-6.67307
385,-580,8.52246,6.20337,0,0,0,0,0,0,0,-1,1609,1604,8.52241,-6.20334
392,-580,14.4536,30.236,0,0,0,0,0,0,0,-1,1616,1604,14.4537,-30.2359
399,-580,14.4644,29.4833,0,0,0,0,0,0,0,-1,1623,1604,14.4643,-29.4833
406,-580,13.656,28.7712,0,0,0,0,0,0,0,-1,1630,1604,13.656,-28.7712
413,-580,14.103,28.348,0,0,0,0,0,0,0,-1,1637,1604,14.1031,-28.348
420,-580,14.0225,28.0704,0,0,0,0,0,0,0,-1,1644,1604,14.0225,-28.0705
427,-580,14.6091,27.9663,-0.00454511,0.0209325,-0.00383455,0.0214971,-0.00510972,-1.4246,0.0163038,0.0402087,1651,1604,14.6091,-27.9664
434,-580,14.2224,27.467,-0.00345251,0.0186646,-0.00339488,0.019174,-0.00396187,-1.42187,0.0142876,0.0300814,1658,1604,14.2224,-27.4671
441,-580,14.1241,26.8623,-0.00218647,0.0165725,-0.00327128,0.0171266,-0.00274056,-1.40301,0.0124323,0.0171943,1665,1604,14.1242,-26.8623
448,-580,14.1875,26.3949,-0.00125875,0.0143155,-0.00317728,0.0149387,-0.001882,-1.3771,0.0106421,0.0154147,1672,1604,14.1875,-26.3949
455,-580,14.2559,26.0093,2.37513e-05,0.0123089,-0.00322438,0.0131038,-0.000771098,-1.3291,0.00900389,0.0206908,1679,1604,14.2559,-26.0092
462,-580,14.2423,25.5729,0.000848422,0.0103085,-0.00296732,0.0111622,-5.28805e-06,-1.29066,0.00744324,0.0241354,1686,1604,14.2423,-25.5729
469,-580,14.224,25.125,0.00118647,0.00814585,-0.00271485,0.00907962,0.0002527,-1.23952,0.00597063,0.0199818,1693,1604,14.224,-25.125
476,-580,14.2437,24.7258,0.00128447,0.00602815,-0.00234031,0.00698837,0.000324244,-1.18144,0.00455468,0.015051,1700,1604,14.2437,-24.7259
483,-580,14.2023,24.3448,0.00136617,0.00387258,-0.00198729,0.00496881,0.00026994,-1.06671,0.00322633,0.0139004,1707,1604,14.2023,-24.3449
490,-580,14.1664,23.9285,0.00118746,0.00210841,-0.00143146,0.00315164,0.000144238,-0.941012,0.0020547,0.0177252,1714,1604,14.1664,-23.9284
497,-580,14.1604,23.4861,0.00079058,0.000574084,-0.000962596,0.001651,-0.000286331,-0.729406,0.00120748,0.0144027,1721,1604,14.1604,-23.486
504,-580,14.1323,23.047,3.68183e-05,-0.000900632,-9.34369e-05,4.60406e-05,-0.000909855,-0.0983817,0.000622484,0.0178423,1728,1604,14.1324,-23.047
511,-580,14.1141,22.6257,-0.000733308,-0.00242906,0.000872817,-0.000364343,-0.00279803,0.399945,0.00175655,0.0177669,1735,1604,14.1142,-22.6257
518,-580,14.1248,22.2139,-0.00152292,-0.00384876,0.00180703,-0.000536949,-0.00483473,0.499483,0.00305992,0.0168346,1742,1604,14.1247,-22.2138
525,-580,14.1028,21.7921,-0.00237601,-0.00540677,0.00292588,-0.000596366,-0.00718641,0.546457,0.00460504,0.0188334,1749,1604,14.1028,-21.7921
532,-580,14.0898,21.3588,-0.00334366,-0.00731261,0.00438847,-0.000511827,-0.0101444,0.573056,0.00659897,0.0197975,1756,1604,14.0899,-21.3588
539,-580,14.1304,20.9788,-0.00462826,-0.00978781,0.00644028,-0.000270284,-0.0141458,0.5949,0.00934173,0.0289222,1763,1604,14.1304,-20.9788
546,-580,14.4775,20.4634,0,0,0,0,0,0,0,-1,1770,1604,14.4775,-20.4634
553,-580,13.1624,20.5845,0,0,0,0,0,0,0,-1,1777,1604,13.1624,-20.5845
560,-580,11.722,20.2501,0,0,0,0,0,0,0,-1,1784,1604,11.7221,-20.2501
567,-580,3.87708,4.0647,0,0,0,0,0,0,0,-1,1791,1604,3.87711,-4.06471
574,-580,2.31653,5.62952,0,0,0,0,0,0,0,-1,1798,1604,2.31654,-5.62947
581,-580,1.60876,6.67664,0,0,0,0,0,0,0,-1,1805,1604,1.60873,-6.67667
588,-580,1.38684,7.14441,0,0,0,0,0,0,0,-1,1812,1604,1.38689,-7.14443
595,-580,0,0,0,0,0,0,0,0,0,-1,1819,1604,0,0
602,-580,0,0,0,0,0,0,0,0,0,-1,1826,1604,0,0
609,-580,0,0,0,0,0,0,0,0,0,-1,1833,1604,0,0
616,-580,0,0,0,0,0,0,0,0,0,-1,1840,1604,0,0
623,-580,0,0,0,0,0,0,0,0,0,-1,1847,1604,0,0
630,-580,0,0,0,0,0,0,0,0,0,-1,1854,1604,0,0
637,-580,0,0,0,0,0,0,0,0,0,-1,1861,1604,0,0
644,-580,0,0,0,0,0,0,0,0,0,-1,1868,1604,0,0
651,-580,0,0,0,0,0,0,0,0,0,-1,1875,1604,0,0
658,-580,0,0,0,0,0,0,0,0,0,-1,1882,1604,0,0
665,-580,0,0,0,0,0,0,0,0,0,-1,1889,1604,0,0
672,-580,0,0,0,0,0,0,0,0,0,-1,1896,1604,0,0
679,-580,0,0,0,0,0,0,0,0,0,-1,1903,1604,0,0
686,-580,0,0,0,0,0,0,0,0,0,-1,1910,1604,0,0
693,-580,0,0,0,0,0,0,0,0,0,-1,1917,1604,0,0
700,-580,0,0,0,0,0,0,0,0,0,-1,1924,1604,0,0
707,-580,0,0,0,0,0,0,0,0,0,-1,1931,1604,0,0
714,-580,0,0,0,0,0,0,0,0,0,-1,1938,1604,0,0
721,-580,0,0,0,0,0,0,0,0,0,-1,1945,1604,0,0
728,-580,0,0,0,0,0,0,0,0,0,-1,1952,1604,0,0
735,-580,0,0,0,0,0,0,0,0,0,-1,1959,1604,0,0
742,-580,0,0,0,0,0,0,0,0,0,-1,1966,1604,0,0
749,-580,0,0,0,0,0,0,0,0,0,-1,1973,1604,0,0
756,-580,0,0,0,0,0,0,0,0,0,-1,1980,1604,0,0
763,-580,0,0,0,0,0,0,0,0,0,-1,1987,1604,0,0
770,-580,0,0,0,0,0,0,0,0,0,-1,1994,1604,0,0
777,-580,0,0,0,0,0,0,0,0,0,-1,2001,1604,0,0
784,-580,0,0,0,0,0,0,0,0,0,-1,2008,1604,0,0
791,-580,0,0,0,0,0,0,0,0,0,-1,2015,1604,0,0
798,-580,0,0,0,0,0,0,0,0,0,-1,2022,1604,0,0
805,-580,0,0,0,0,0,0,0,0,0,-1,2029,1604,0,0
812,-580,0,0,0,0,0,0,0,0,0,-1,2036,1604,0,0
-700,-587,0,0,0,0,0,0,0,0,0,-1,524,1611,0,0
-693,-587,0,0,0,0,0,0,0,0,0,-1,531,1611,0,0
-686,-587,0,0,0,0,0,0,0,0,0,-1,538,1611,0,0
-679,-587,0,0,0,0,0,0,0,0,0,-1,545,1611,0,0
-672,-587,0,0,0,0,0,0,0,0,0,-1,552,1611,0,0
-665,-587,0,0,0,0,0,0,0,0,0,-1,559,1611,0,0
-658,-587,0,0,0,0,0,0,0,0,0,-1,566,1611,0,0
-651,-587,0,0,0,0,0,0,0,0,0,-1,573,1611,0,0
-644,-587,0,0,0,0,0,0,0,0,0,-1,580,1611,0,0
-637,-587,0,0,0,0,0,0,0,0,0,-1,587,1611,0,0
-630,-587,0,0,0,0,0,0,0,0,0,-1,594,1611,0,0
-623,-587,0,0,0,0,0,0,0,0,0,-1,601,1611,0,0
-616,-587,0,0,0,0,0,0,0,0,0,-1,608,1611,0,0
-609,-587,0,0,0,0,0,0,0,0,0,-1,615,1611,0,0
-602,-587,0,0,0,0,0,0,0,0,0,-1,622,1611,0,0
-595,-587,0,0,0,0,0,0,0,0,0,-1,629,1611,0,0
-588,-587,0,0,0,0,0,0,0,0,0,-1,636,1611,0,0
-581,-587,0,0,0,0,0,0,0,0,0,-1,643,1611,0,0
-574,-587,0,0,0,0,0,0,0,0,0,-1,650,1611,0,0
-567,-587,0,0,0,0,0,0,0,0,0,-1,657,1611,0,0
-560,-587,0,0,0,0,0,0,0,0,0,-1,664,1611,0,0
-553,-587,0,0,0,0,0,0,0,0,0,-1,671,1611,0,0
-546,-587,0,0,0,0,0,0,0,0,0,-1,678,1611,0,0
-539,-587,0,0,0,0,0,0,0,0,0,-1,685,1611,0,0
-532,-587,0,0,0,0,0,0,0,0,0,-1,692,1611,0,0
-525,-587,0,0,0,0,0,0,0,0,0,-1,699,1611,0,0
-518,-587,0,0,0,0,0,0,0,0,0,-1,706,1611,0,0
-511,-587,0,0,0,0,0,0,0,0,0,-1,713,1611,0,0
-504,-587,0,0,0,0,0,0,0,0,0,-1,720,1611,0,0
-497,-587,0,0,0,0,0,0,0,0,0,-1,727,1611,0,0
-490,-587,0,0,0,0,0,0,0,0,0,-1,734,1611,0,0
-483,-587,0,0,0,0,0,0,0,0,0,-1,741,1611,0,0
-476,-587,0,0,0,0,0,0,0,0,0,-1,748,1611,0,0
-469,-587,0,0,0,0,0,0,0,0,0,-1,755,1611,0,0
-462,-587,-0.714355,-0.418457,0,0,0,0,0,0,0,-1,762,1611,-0.714359,0.418483
-455,-587,-0.619812,-0.522461,0,0,0,0,0,0,0,-1,769,1611,-0.619802,0.522515
-448,-587,-0.461731,-0.686523,0,0,0,0,0,0,0,-1,776,1611,-0.461739,0.686559
-441,-587,-3.56555,2.72253,0,0,0,0,0,0,0,-1,783,1611,-3.56555,-2.72259
-434,-587,-1.77319,4.76318,0,0,0,0,0,0,0,-1,790,1611,-1.77318,-4.76323
-427,-587,0.0346069,6.92944,0,0,0,0,0,0,0,-1,797,1611,0.034587,-6.92941
-420,-587,-0.647156,10.1157,0,0,0,0,0,0,0,-1,804,1611,-0.647128,-10.1158
-413,-587,2.13971,10.3901,0,0,0,0,0,0,0,-1,811,1611,2.13971,-10.3902
-406,-587,2.02716,19.4719,0,0,0,0,0,0,0,-1,818,1611,2.02713,-19.472
-399,-587,1.71387,20.2064,0,0,0,0,0,0,0,-1,825,1611,1.71389,-20.2065
-392,-587,1.64825,20.6526,-0.00407776,-0.00276477,0.000518463,-0.00258473,-0.0042578,1.23657,0.00247695,0.0401031,832,1611,1.64828,-20.6526
-385,-587,1.45032,21.1541,-0.00300643,-0.00230411,0.000572132,-0.00198397,-0.00332657,1.06064,0.00193246,0.0203139,839,1611,1.45029,-21.154
-378,-587,1.44647,21.6785,-0.00181413,-0.00195459,0.000803391,-0.0010779,-0.00269081,0.741799,0.00156375,0.0137872,846,1611,1.4465,-21.6784
-371,-587,1.43182,22.173,-0.000994634,-0.00147058,0.000803534,-0.000394573,-0.00207064,0.641435,0.00126951,0.0140569,853,1611,1.4318,-22.1729
-364,-587,1.43793,22.632,-0.00039351,-0.00100062,0.0007859,0.000145421,-0.00153955,0.601099,0.00107812,0.0172887,860,1611,1.43795,-22.6319
-357,-587,1.42993,23.0051,0.000197941,-0.000348113,0.000846153,0.000814025,-0.000964197,0.629337,0.00102788,0.0164735,867,1611,1.42993,-23.0051
-350,-587,1.4118,23.509,0.000843549,0.000359454,0.000958727,0.00159031,-0.000387308,0.661748,0.00121015,0.0100764,874,1611,1.4118,-23.509
-343,-587,1.41309,23.9562,0.0014729,0.00123876,0.00116632,0.00252801,0.000183644,0.735377,0.00162759,0.0130573,881,1611,1.41312,-23.9562
-336,-587,1.39557,24.3782,0.00208801,0.00209157,0.00142403,0.00351382,0.000665757,0.786023,0.00215518,0.0126209,888,1611,1.39555,-24.3781
-329,-587,1.375,24.8076,0.0026987,0.00309013,0.00171313,0.00461869,0.00117014,0.842274,0.00277265,0.0143778,895,1611,1.37497,-24.8076
-322,-587,1.38409,25.2528,0.00327399,0.00410288,0.00205095,0.00578084,0.00159603,0.885093,0.00344732,0.0175715,902,1611,1.38412,-25.2528
-315,-587,1.35919,25.6947,0.00388388,0.00516061,0.00238567,0.00699185,0.00205264,0.916128,0.00414984,0.0144702,909,1611,1.3592,-25.6947
-308,-587,1.3584,26.1406,0.00460264,0.00590927,0.00265179,0.00798704,0.00252488,0.906177,0.00471411,0.0147668,916,1611,1.35841,-26.1406
-301,-587,1.43939,26.5848,0.0055812,0.00615584,0.0030749,0.00895681,0.00278023,0.831983,0.00529369,0.0156843,923,1611,1.43941,-26.5849
-294,-587,1.49469,27.0494,0.00696419,0.00707428,0.00439647,0.011416,0.00262243,0.791658,0.0069046,0.0280332,930,1611,1.4947,-27.0494
-287,-587,1.4538,27.5012,0,0,0,0,0,0,0,-1,937,1611,1.4538,-27.5013
-280,-587,1.82507,28.088,0,0,0,0,0,0,0,-1,944,1611,1.82509,-28.088
-273,-587,1.87579,28.6661,0,0,0,0,0,0,0,-1,951,1611,1.87577,-28.6662
-266,-587,1.90717,29.3033,0,0,0,0,0,0,0,-1,958,1611,1.90718,-29.3034
-259,-587,1.76306,28.5784,0,0,0,0,0,0,0,-1,965,1611,1.76307,-28.5784
-252,-587,1.30188,10.3103,0,0,0,0,0,0,0,-1,972,1611,1.30188,-10.3104
-245,-587,1.52075,27.4791,0,0,0,0,0,0,0,-1,979,1611,1.52076,-27.4791
-238,-587,2.87799,9.53821,0,0,0,0,0,0,0,-1,986,1611,2.87797,-9.53823
-231,-587,2.49548,9.14465,0,0,0,0,0,0,0,-1,993,1611,2.49551,-9.14468
-224,-587,-9.72528,9.21069,0,0,0,0,0,0,0,-1,1000,1611,-9.72529,-9.21072
-217,-587,-7.07495,10.7847,0,0,0,0,0,0,0,-1,1007,1611,-7.07495,-10.7847
-210,-587,-4.72308,12.5889,0,0,0,0,0,0,0,-1,1014,1611,-4.72307,-12.5888
-203,-587,-3.2583,13.7289,0,0,0,0,0,0,0,-1,1021,1611,-3.25828,-13.7289
-196,-587,-1.953,14.8145,0,0,0,0,0,0,0,-1,1028,1611,-1.95302,-14.8144
-189,-587,-3.04138,8.66638,0,0,0,0,0,0,0,-1,1035,1611,-3.04136,-8.66635
-182,-587,-3.97095,9.7146,0,0,0,0,0,0,0,-1,1042,1611,-3.97093,-9.71461
-175,-587,-4.80969,8.37878,0,0,0,0,0,0,0,-1,1049,1611,-4.80964,-8.37883
-168,-587,-5.91394,8.72546,0,0,0,0,0,0,0,-1,1056,1611,-5.91398,-8.72542
-161,-587,-7.06946,8.88501,0,0,0,0,0,0,0,-1,1063,1611,-7.06947,-8.885
-154,-587,-2.24731,6.56519,0,0,0,0,0,0,0,-1,1070,1611,-2.24728,-6.56517
-147,-587,0,0,0,0,0,0,0,0,0,-1,1077,1611,0,0
-140,-587,0,0,0,0,0,0,0,0,0,-1,1084,1611,0,0
-133,-587,0,0,0,0,0,0,0,0,0,-1,1091,1611,0,0
-126,-587,0,0,0,0,0,0,0,0,0,-1,1098,1611,0,0
-119,-587,0,0,0,0,0,0,0,0,0,-1,1105,1611,0,0
-112,-587,0,0,0,0,0,0,0,0,0,-1,1112,1611,0,0
-105,-587,0,0,0,0,0,0,0,0,0,-1,1119,1611,0,0
-98,-587,0,0,0,0,0,0,0,0,0,-1,1126,1611,0,0
-91,-587,0,0,0,0,0,0,0,0,0,-1,1133,1611,0,0
-84,-587,0,0,0,0,0,0,0,0,0,-1,1140,1611,0,0
-77,-587,0,0,0,0,0,0,0,0,0,-1,1147,1611,0,0
-70,-587,0,0,0,0,0,0,0,0,0,-1,1154,1611,0,0
-63,-587,0,0,0,0,0,0,0,0,0,-1,1161,1611,0,0
-56,-587,0,0,0,0,0,0,0,0,0,-1,1168,1611,0,0
-49,-587,0,0,0,0,0,0,0,0,0,-1,1175,1611,0,0
-42,-587,0,0,0,0,0,0,0,0,0,-1,1182,1611,0,0
-35,-587,0,0,0,0,0,0,0,0,0,-1,1189,1611,0,0
-28,-587,0,0,0,0,0,0,0,0,0,-1,1196,1611,0,0
-21,-587,0,0,0,0,0,0,0,0,0,-1,1203,1611,0,0
-14,-587,0,0,0,0,0,0,0,0,0,-1,1210,1611,0,0
-7,-587,0,0,0,0,0,0,0,0,0,-1,1217,1611,0,0
0,-587,0,0,0,0,0,0,0,0,0,-1,1224,1611,0,0
7,-587,0,0,0,0,0,0,0,0,0,-1,1231,1611,0,0
14,-587,0,0,0,0,0,0,0,0,0,-1,1238,1611,0,0
21,-587,0,0,0,0,0,0,0,0,0,-1,1245,1611,0,0
28,-587,0,0,0,0,0,0,0,0,0,-1,1252,1611,0,0
35,-587,0,0,0,0,0,0,0,0,0,-1,1259,1611,0,0
42,-587,0,0,0,0,0,0,0,0,0,-1,1266,1611,0,0
49,-587,0,0,0,0,0,0,0,0,0,-1,1273,1611,0,0
56,-587,0,0,0,0,0,0,0,0,0,-1,1280,1611,0,0
63,-587,0,0,0,0,0,0,0,0,0,-1,1287,1611,0,0
70,-587,0,0,0,0,0,0,0,0,0,-1,1294,1611,0,0
77,-587,0,0,0,0,0,0,0,0,0,-1,1301,1611,0,0
84,-587,0,0,0,0,0,0,0,0,0,-1,1308,1611,0,0
91,-587,0,0,0,0,0,0,0,0,0,-1,1315,1611,0,0
98,-587,0,0,0,0,0,0,0,0,0,-1,1322,1611,0,0
105,-587,0,0,0,0,0,0,0,0,0,-1,1329,1611,0,0
112,-587,0,0,0,0,0,0,0,0,0,-1,1336,1611,0,0
119,-587,0,0,0,0,0,0,0,0,0,-1,1343,1611,0,0
126,-587,0,0,0,0,0,0,0,0,0,-1,1350,1611,0,0
133,-587,0,0,0,0,0,0,0,0,0,-1,1357,1611,0,0
140,-587,0,0,0,0,0,0,0,0,0,-1,1364,1611,0,0
147,-587,0,0,0,0,0,0,0,0,0,-1,1371,1611,0,0
154,-587,0,0,0,0,0,0,0,0,0,-1,1378,1611,0,0
161,-587,0,0,0,0,0,0,0,0,0,-1,1385,1611,0,0
168,-587,0,0,0,0,0,0,0,0,0,-1,1392,1611,0,0
175,-587,0,0,0,0,0,0,0,0,0,-1,1399,1611,0,0
182,-587,0,0,0,0,0,0,0,0,0,-1,1406,1611,0,0
189,-587,0,0,0,0,0,0,0,0,0,-1,1413,1611,0,0
196,-587,0,0,0,0,0,0,0,0,0,-1,1420,1611,0,0
203,-587,0,0,0,0,0,0,0,0,0,-1,1427,1611,0,0
210,-587,0,0,0,0,0,0,0,0,0,-1,1434,1611,0,0
217,-587,0,0,0,0,0,0,0,0,0,-1,1441,1611,0,0
224,-587,0,0,0,0,0,0,0,0,0,-1,1448,1611,0,0
231,-587,0,0,0,0,0,0,0,0,0,-1,1455,1611,0,0
238,-587,0,0,0,0,0,0,0,0,0,-1,1462,1611,0,0
245,-587,0,0,0,0,0,0,0,0,0,-1,1469,1611,0,0
252,-587,0,0,0,0,0,0,0,0,0,-1,1476,1611,0,0
259,-587,0,0,0,0,0,0,0,0,0,-1,1483,1611,0,0
266,-587,0,0,0,0,0,0,0,0,0,-1,1490,1611,0,0
273,-587,10.2936,6.35083,0,0,0,0,0,0,0,-1,1497,1611,10.2936,-6.35087
280,-587,2.09204,1.1217,0,0,0,0,0,0,0,-1,1504,1611,2.092,-1.12176
287,-587,3.2865,0.671509,0,0,0,0,0,0,0,-1,1511,1611,3.28656,-0.671538
294,-587,4.24646,1.58765,0,0,0,0,0,0,0,-1,1518,1611,4.24648,-1.58761
301,-587,7.60474,8.37085,0,0,0,0,0,0,0,-1,1525,1611,7.60478,-8.37084
308,-587,5.99316,10.2291,0,0,0,0,0,0,0,-1,1532,1611,5.99315,-10.2291
315,-587,4.34558,12.3289,0,0,0,0,0,0,0,-1,1539,1611,4.34556,-12.3288
322,-587,10.4526,6.38245,0,0,0,0,0,0,0,-1,1546,1611,10.4526,-6.38245
329,-587,10.7738,8.42444,0,0,0,0,0,0,0,-1,1553,1611,10.7738,-8.42438
336,-587,7.5531,5.96619,0,0,0,0,0,0,0,-1,1560,1611,7.55311,-5.96617
343,-587,9.57495,4.38391,0,0,0,0,0,0,0,-1,1567,1611,9.57494,-4.38397
350,-587,9.50378,3.45093,0,0,0,0,0,0,0,-1,1574,1611,9.50376,-3.4509
357,-587,9.40027,2.50806,0,0,0,0,0,0,0,-1,1581,1611,9.40022,-2.50803
364,-587,9.26477,1.34131,0,0,0,0,0,0,0,-1,1588,1611,9.26479,-1.34126
371,-587,6.98926,7.87561,0,0,0,0,0,0,0,-1,1595,1611,6.98928,-7.87564
378,-587,9.25146,13.8358,0,0,0,0,0,0,0,-1,1602,1611,9.2515,-13.8359
385,-587,13.9305,30.3229,0,0,0,0,0,0,0,-1,1609,1611,13.9305,-30.3228
392,-587,14.2776,29.584,0,0,0,0,0,0,0,-1,1616,1611,14.2776,-29.584
399,-587,14.1249,29.3209,-0.00255322,0.0227668,-0.00588037,0.0240658,-0.00385225,-1.35338,0.0174701,0.0488486,1623,1611,14.1249,-29.3209
406,-587,13.6584,28.7891,-0.00334228,0.0202645,-0.00437918,0.0210507,-0.00412846,-1.39316,0.0155932,0.0407552,1630,1611,13.6584,-28.7891
413,-587,13.7892,28.3967,-0.0034605,0.0186637,-0.00360308,0.0192357,-0.0040325,-1.41336,0.014358,0.033968,1637,1611,13.7892,-28.3968
420,-587,13.7542,28.0271,-0.00315347,0.0171127,-0.00311973,0.0175821,-0.00362284,-1.42146,0.0130971,0.0280084,1644,1611,13.7541,-28.0271
427,-587,13.7769,27.6814,-0.00266672,0.0156506,-0.00282236,0.0160756,-0.00309173,-1.42133,0.0118825,0.0223584,1651,1611,13.7768,-27.6814
434,-587,13.8138,27.1598,-0.00215343,0.0137898,-0.00241477,0.0141475,-0.00251115,-1.42373,0.0103706,0.0167963,1658,1611,13.8138,-27.1598
441,-587,13.8167,26.6851,-0.00140955,0.0122242,-0.00232664,0.0126103,-0.00179566,-1.40634,0.00906489,0.020265,1665,1611,13.8166,-26.685
448,-587,13.8289,26.3997,-0.000862111,0.0104978,-0.0022478,0.0109264,-0.00129072,-1.38238,0.00775039,0.0165754,1672,1611,13.8288,-26.3996
455,-587,13.828,26.035,9.48542e-06,0.00896719,-0.00229381,0.0095204,-0.000543727,-1.33414,0.00653572,0.0149027,1679,1611,13.828,-26.0351
462,-587,13.8141,25.6033,0.000561297,0.00738209,-0.00209731,0.00797539,-3.19937e-05,-1.29512,0.00532762,0.0180199,1686,1611,13.8141,-25.6033
469,-587,13.7959,25.1871,0.00077035,0.0056654,-0.00190862,0.00632161,0.000114135,-1.23964,0.00417688,0.0156547,1693,1611,13.7959,-25.1872
476,-587,13.8152,24.7716,0.00079232,0.0039512,-0.0016091,0.0046265,0.000117023,-1.17345,0.00304607,0.0104607,1700,1611,13.8151,-24.7717
483,-587,13.777,24.347,0.000792992,0.00214495,-0.00130681,0.00294026,-2.32237e-06,-1.02408,0.00196095,0.012416,1707,1611,13.777,-24.3471
490,-587,13.7347,23.9121,0.000622486,0.000643405,-0.000863575,0.00149658,-0.000230693,-0.791454,0.00108284,0.0143979,1714,1611,13.7347,-23.9121
497,-587,13.713,23.4943,0.000185588,-0.000698928,-0.00043492,0.00036361,-0.00087695,-0.388516,0.000736394,0.012551,1721,1611,13.713,-23.4942
504,-587,13.6953,23.1028,-0.000598355,-0.00205721,0.000394368,-0.000498571,-0.00215699,0.24782,0.00130397,0.0124036,1728,1611,13.6953,-23.1028
511,-587,13.6998,22.6897,-0.00134124,-0.00356532,0.00130703,-0.000737189,-0.00416937,0.432915,0.00256935,0.0137578,1735,1611,13.6998,-22.6897
518,-587,13.7184,22.2561,-0.00209915,-0.00494879,0.00218557,-0.000914974,-0.00613296,0.496536,0.00382035,0.0143184,1742,1611,13.7184,-22.2561
525,-587,13.7111,21.8474,-0.00297802,-0.00655811,0.00331568,-0.00100004,-0.00853609,0.537881,0.0053884,0.0182446,1749,1611,13.7111,-21.8475
532,-587,13.7106,21.4276,-0.00409272,-0.0087014,0.00492298,-0.000961464,-0.0118327,0.566505,0.00758828,0.0296421,1756,1611,13.7106,-21.4276
539,-587,13.8372,20.984,-0.00558965,-0.0115554,0.00733299,-0.000656066,-0.016489,0.592232,0.0107806,0.0494723,1763,1611,13.8372,-20.984
546,-587,14.1487,20.5233,0,0,0,0,0,0,0,-1,1770,1611,14.1487,-20.5233
553,-587,7.5813,8.45068,0,0,0,0,0,0,0,-1,1777,1611,7.58125,-8.45068
560,-587,4.21179,5.23547,0,0,0,0,0,0,0,-1,1784,1611,4.21185,-5.23553
567,-587,4.03711,5.46387,0,0,0,0,0,0,0,-1,1791,1611,4.03715,-5.46382
574,-587,3.83142,5.68884,0,0,0,0,0,0,0,-1,1798,1611,3.83141,-5.68881
581,-587,3.47168,6.00977,0,0,0,0,0,0,0,-1,1805,1611,3.47167,-6.00983
588,-587,0,0,0,0,0,0,0,0,0,-1,1812,1611,0,0
595,-587,0,0,0,0,0,0,0,0,0,-1,1819,1611,0,0
602,-587,0,0,0,0,0,0,0,0,0,-1,1826,1611,0,0
609,-587,0,0,0,0,0,0,0,0,0,-1,1833,1611,0,0
616,-587,0,0,0,0,0,0,0,0,0,-1,1840,1611,0,0
623,-587,0,0,0,0,0,0,0,0,0,-1,1847,1611,0,0
630,-587,0,0,0,0,0,0,0,0,0,-1,1854,1611,0,0
637,-587,0,0,0,0,0,0,0,0,0,-1,1861,1611,0,0
644,-587,0,0,0,0,0,0,0,0,0,-1,1868,1611,0,0
651,-587,0,0,0,0,0,0,0,0,0,-1,1875,1611,0,0
658,-587,0,0,0,0,0,0,0,0,0,-1,1882,1611,0,0
665,-587,0,0,0,0,0,0,0,0,0,-1,1889,1611,0,0
672,-587,0,0,0,0,0,0,0,0,0,-1,1896,1611,0,0
679,-587,0,0,0,0,0,0,0,0,0,-1,1903,1611,0,0
686,-587,0,0,0,0,0,0,0,0,0,-1,1910,1611,0,0
693,-587,0,0,0,0,0,0,0,0,0,-1,1917,1611,0,0
700,-587,0,0,0,0,0,0,0,0,0,-1,1924,1611,0,0
707,-587,0,0,0,0,0,0,0,0,0,-1,1931,1611,0,0
714,-587,0,0,0,0,0,0,0,0,0,-1,1938,1611,0,0
721,-587,0,0,0,0,0,0,0,0,0,-1,1945,1611,0,0
728,-587,0,0,0,0,0,0,0,0,0,-1,1952,1611,0,0
735,-587,0,0,0,0,0,0,0,0,0,-1,1959,1611,0,0
742,-587,0,0,0,0,0,0,0,0,0,-1,1966,1611,0,0
749,-587,0,0,0,0,0,0,0,0,0,-1,1973,1611,0,0
756,-587,0,0,0,0,0,0,0,0,0,-1,1980,1611,0,0
763,-587,0,0,0,0,0,0,0,0,0,-1,1987,1611,0,0
770,-587,0,0,0,0,0,0,0,0,0,-1,1994,1611,0,0
777,-587,0,0,0,0,0,0,0,0,0,-1,2001,1611,0,0
784,-587,0,0,0,0,0,0,0,0,0,-1,2008,1611,0,0
791,-587,0,0,0,0,0,0,0,0,0,-1,2015,1611,0,0
798,-587,0,0,0,0,0,0,0,0,0,-1,2022,1611,0,0
805,-587,0,0,0,0,0,0,0,0,0,-1,2029,1611,0,0
812,-587,0,0,0,0,0,0,0,0,0,-1,2036,1611,0,0
-700,-594,0,0,0,0,0,0,0,0,0,-1,524,1618,0,0
-693,-594,0,0,0,0,0,0,0,0,0,-1,531,1618,0,0
-686,-594,0,0,0,0,0,0,0,0,0,-1,538,1618,0,0
-679,-594,0,0,0,0,0,0,0,0,0,-1,545,1618,0,0
-672,-594,0,0,0,0,0,0,0,0,0,-1,552,1618,0,0
-665,-594,0,0,0,0,0,0,0,0,0,-1,559,1618,0,0
-658,-594,0,0,0,0,0,0,0,0,0,-1,566,1618,0,0
-651,-594,0,0,0,0,0,0,0,0,0,-1,573,1618,0,0
-644,-594,0,0,0,0,0,0,0,0,0,-1,580,1618,0,0
-637,-594,0,0,0,0,0,0,0,0,0,-1,587,1618,0,0
-630,-594,0,0,0,0,0,0,0,0,0,-1,594,1618,0,0
-623,-594,0,0,0,0,0,0,0,0,0,-1,601,1618,0,0
-616,-594,0,0,0,0,0,0,0,0,0,-1,608,1618,0,0
-609,-594,0,0,0,0,0,0,0,0,0,-1,615,1618,0,0
-602,-594,0,0,0,0,0,0,0,0,0,-1,622,1618,0,0
-595,-594,0,0,0,0,0,0,0,0,0,-1,629,1618,0,0
-588,-594,0,0,0,0,0,0,0,0,0,-1,636,1618,0,0
-581,-594,0,0,0,0,0,0,0,0,0,-1,643,1618,0,0
-574,-594,0,0,0,0,0,0,0,0,0,-1,650,1618,0,0
-567,-594,0,0,0,0,0,0,0,0,0,-1,657,1618,0,0
-560,-594,0,0,0,0,0,0,0,0,0,-1,664,1618,0,0
-553,-594,0,0,0,0,0,0,0,0,0,-1,671,1618,0,0
-546,-594,0,0,0,0,0,0,0,0,0,-1,678,1618,0,0
-539,-594,0,0,0,0,0,0,0,0,0,-1,685,1618,0,0
-532,-594,0,0,0,0,0,0,0,0,0,-1,692,1618,0,0
-525,-594,0,0,0,0,0,0,0,0,0,-1,699,1618,0,0
-518,-594,0,0,0,0,0,0,0,0,0,-1,706,1618,0,0
-511,-594,0,0,0,0,0,0,0,0,0,-1,713,1618,0,0
-504,-594,0,0,0,0,0,0,0,0,0,-1,720,1618,0,0
-497,-594,0,0,0,0,0,0,0,0,0,-1,727,1618,0,0
-490,-594,0,0,0,0,0,0,0,0,0,-1,734,1618,0,0
-483,-594,0,0,0,0,0,0,0,0,0,-1,741,1618,0,0
-476,-594,0,0,0,0,0,0,0,0,0,-1,748,1618,0,0
-469,-594,0,0,0,0,0,0,0,0,0,-1,755,1618,0,0
-462,-594,0,0,0,0,0,0,0,0,0,-1,762,1618,0,0
-455,-594,-0.509216,-1.58411,0,0,0,0,0,0,0,-1,769,1618,-0.509245,1.58415
-448,-594,-7.71887,-0.0559082,0,0,0,0,0,0,0,-1,776,1618,-7.71885,0.055939
-441,-594,-5.78473,1.18298,0,0,0,0,0,0,0,-1,783,1618,-5.78474,-1.18295
-434,-594,-3.93628,3.06213,0,0,0,0,0,0,0,-1,790,1618,-3.93631,-3.06208
-427,-594,-3.97693,6.77759,0,0,0,0,0,0,0,-1,797,1618,-3.97695,-6.77764
-420,-594,-2.53046,7.71606,0,0,0,0,0,0,0,-1,804,1618,-2.53047,-7.71609
-413,-594,-0.860413,8.00391,0,0,0,0,0,0,0,-1,811,1618,-0.860423,-8.00389
-406,-594,2.45746,13.6218,0,0,0,0,0,0,0,-1,818,1618,2.45747,-13.6218
-399,-594,2.46674,19.9954,0,0,0,0,0,0,0,-1,825,1618,2.46673,-19.9953
-392,-594,2.10901,20.9598,0,0,0,0,0,0,0,-1,832,1618,2.10899,-20.9599
-385,-594,1.99188,21.3308,-0.00334455,-0.00314131,0.000930942,-0.00230646,-0.0041794,0.839763,0.0024173,0.0323171,839,1618,1.99188,-21.3308
-378,-594,1.87445,21.6812,-0.00213903,-0.00279765,0.00106745,-0.00135125,-0.00358543,0.635778,0.00209087,0.0146835,846,1618,1.87444,-21.6812
-371,-594,1.90094,22.1693,-0.00134515,-0.00228583,0.000970932,-0.000736632,-0.00289434,0.559844,0.00173689,0.012061,853,1618,1.90093,-22.1694
-364,-594,1.89752,22.6178,-0.000823688,-0.00186597,0.000825811,-0.000368329,-0.00232133,0.503923,0.00144056,0.0109229,860,1618,1.89753,-22.6178
-357,-594,1.87897,23.0797,-0.000311201,-0.0012625,0.000781331,0.000127872,-0.00170158,0.511976,0.00117932,0.0110187,867,1618,1.87894,-23.0797
-350,-594,1.85602,23.5594,0.000238077,-0.000604454,0.000800676,0.000721548,-0.00108792,0.543229,0.00105181,0.015191,874,1618,1.85599,-23.5595
-343,-594,1.83392,23.9995,0.000771651,0.000190924,0.000911391,0.00143782,-0.00047524,0.631185,0.00115016,0.0175237,881,1618,1.83393,-23.9995
-336,-594,1.79889,24.3933,0.00131573,0.000945039,0.00108558,0.00223167,2.90923e-05,0.700847,0.00147818,0.0138822,888,1618,1.7989,-24.3933
-329,-594,1.80096,24.8395,0.00184092,0.00184031,0.00127486,0.00311547,0.000565755,0.785279,0.00191644,0.0132837,895,1618,1.80095,-24.8394
-322,-594,1.83246,25.2842,0.00230744,0.00269088,0.00150273,0.00401408,0.000984249,0.848846,0.00241576,0.0163385,902,1618,1.83244,-25.2841
-315,-594,1.8197,25.718,0.00280752,0.00354589,0.00173041,0.00494606,0.00140735,0.890497,0.00294266,0.0169803,909,1618,1.81968,-25.718
-308,-594,1.81451,26.1318,0.00340182,0.00415849,0.00189315,0.00571074,0.00184958,0.884022,0.00336459,0.015175,916,1618,1.81453,-26.1319
-301,-594,1.81683,26.5222,0.00423392,0.00437302,0.0022181,0.00652266,0.00208429,0.801071,0.00384675,0.011915,923,1618,1.81681,-26.5222
-294,-594,1.84344,26.9271,0.00538052,0.005138,0.00324503,0.00850655,0.00201197,0.766723,0.00513353,0.0141381,930,1618,1.84347,-26.9271
-287,-594,1.77277,27.3414,0.00645881,0.00593235,0.00413304,0.010337,0.00205417,0.753597,0.0063189,0.0249474,937,1618,1.77278,-27.3415
-280,-594,1.76685,27.8923,0,0,0,0,0,0,0,-1,944,1618,1.76687,-27.8923
-273,-594,1.86859,28.4143,0,0,0,0,0,0,0,-1,951,1618,1.86858,-28.4143
-266,-594,2.02203,28.8699,0,0,0,0,0,0,0,-1,958,1618,2.02202,-28.8699
-259,-594,1.96368,28.9269,0,0,0,0,0,0,0,-1,965,1618,1.96368,-28.9269
-252,-594,2.07257,29.0782,0,0,0,0,0,0,0,-1,972,1618,2.07256,-29.0783
-245,-594,2.08893,30.2736,0,0,0,0,0,0,0,-1,979,1618,2.08892,-30.2735
-238,-594,2.09015,28.0121,0,0,0,0,0,0,0,-1,986,1618,2.09012,-28.0121
-231,-594,1.93774,9.35388,0,0,0,0,0,0,0,-1,993,1618,1.93776,-9.35393
-224,-594,1.81824,8.62744,0,0,0,0,0,0,0,-1,1000,1618,1.81822,-8.62745
-217,-594,-8.24066,12.0752,0,0,0,0,0,0,0,-1,1007,1618,-8.24068,-12.0751
-210,-594,-5.61438,14.2119,0,0,0,0,0,0,0,-1,1014,1618,-5.6144,-14.212
-203,-594,-3.94507,15.5768,0,0,0,0,0,0,0,-1,1021,1618,-3.94506,-15.5768
-196,-594,2.78613,10.5815,0,0,0,0,0,0,0,-1,1028,1618,2.78612,-10.5815
-189,-594,2.60913,9.48865,0,0,0,0,0,0,0,-1,1035,1618,2.6091,-9.48871
-182,-594,1.2395,9.38806,0,0,0,0,0,0,0,-1,1042,1618,1.23951,-9.38804
-175,-594,0.234863,8.73792,0,0,0,0,0,0,0,-1,1049,1618,0.234812,-8.73786
-168,-594,-0.495483,8.46289,0,0,0,0,0,0,0,-1,1056,1618,-0.495513,-8.46285
-161,-594,-1.39734,8.28699,0,0,0,0,0,0,0,-1,1063,1618,-1.39729,-8.28699
-154,-594,-0.000854492,7.68445,0,0,0,0,0,0,0,-1,1070,1618,-0.000805755,-7.6845
-147,-594,0.348267,9.3385,0,0,0,0,0,0,0,-1,1077,1618,0.348237,-9.33849
-140,-594,0.675171,11.5884,0,0,0,0,0,0,0,-1,1084,1618,0.675204,-11.5884
-133,-594,0,0,0,0,0,0,0,0,0,-1,1091,1618,0,0
-126,-594,0,0,0,0,0,0,0,0,0,-1,1098,1618,0,0
-119,-594,0,0,0,0,0,0,0,0,0,-1,1105,1618,0,0
-112,-594,0,0,0,0,0,0,0,0,0,-1,1112,1618,0,0
-105,-594,0,0,0,0,0,0,0,0,0,-1,1119,1618,0,0
-98,-594,0,0,0,0,0,0,0,0,0,-1,1126,1618,0,0
-91,-594,0,0,0,0,0,0,0,0,0,-1,1133,1618,0,0
-84,-594,0,0,0,0,0,0,0,0,0,-1,1140,1618,0,0
-77,-594,0,0,0,0,0,0,0,0,0,-1,1147,1618,0,0
-70,-594,0,0,0,0,0,0,0,0,0,-1,1154,1618,0,0
-63,-594,0,0,0,0,0,0,0,0,0,-1,1161,1618,0,0
-56,-594,0,0,0,0,0,0,0,0,0,-1,1168,1618,0,0
-49,-594,0,0,0,0,0,0,0,0,0,-1,1175,1618,0,0
-42,-594,0,0,0,0,0,0,0,0,0,-1,1182,1618,0,0
-35,-594,0,0,0,0,0,0,0,0,0,-1,1189,1618,0,0
-28,-594,0,0,0,0,0,0,0,0,0,-1,1196,1618,0,0
-21,-594,0,0,0,0,0,0,0,0,0,-1,1203,1618,0,0
-14,-594,0,0,0,0,0,0,0,0,0,-1,1210,1618,0,0
-7,-594,0,0,0,0,0,0,0,0,0,-1,1217,1618,0,0
0,-594,0,0,0,0,0,0,0,0,0,-1,1224,1618,0,0
7,-594,0,0,0,0,0,0,0,0,0,-1,1231,1618,0,0
14,-594,0,0,0,0,0,0,0,0,0,-1,1238,1618,0,0
21,-594,0,0,0,0,0,0,0,0,0,-1,1245,1618,0,0
28,-594,0,0,0,0,0,0,0,0,0,-1,1252,1618,0,0
35,-594,0,0,0,0,0,0,0,0,0,-1,1259,1618,0,0
42,-594,0,0,0,0,0,0,0,0,0,-1,1266,1618,0,0
49,-594,0,0,0,0,0,0,0,0,0,-1,1273,1618,0,0
56,-594,0,0,0,0,0,0,0,0,0,-1,1280,1618,0,0
63,-594,0,0,0,0,0,0,0,0,0,-1,1287,1618,0,0
70,-594,0,0,0,0,0,0,0,0,0,-1,1294,1618,0,0
77,-594,0,0,0,0,0,0,0,0,0,-1,1301,1618,0,0
84,-594,0,0,0,0,0,0,0,0,0,-1,1308,1618,0,0
91,-594,0,0,0,0,0,0,0,0,0,-1,1315,1618,0,0
98,-594,0,0,0,0,0,0,0,0,0,-1,1322,1618,0,0
105,-594,0,0,0,0,0,0,0,0,0,-1,1329,1618,0,0
112,-594,0,0,0,0,0,0,0,0,0,-1,1336,1618,0,0
119,-594,0,0,0,0,0,0,0,0,0,-1,1343,1618,0,0
126,-594,0,0,0,0,0,0,0,0,0,-1,1350,1618,0,0
133,-594,0,0,0,0,0,0,0,0,0,-1,1357,1618,0,0
140,-594,0,0,0,0,0,0,0,0,0,-1,1364,1618,0,0
147,-594,0,0,0,0,0,0,0,0,0,-1,1371,1618,0,0
154,-594,0,0,0,0,0,0,0,0,0,-1,1378,1618,0,0
161,-594,0,0,0,0,0,0,0,0,0,-1,1385,1618,0,0
168,-594,0,0,0,0,0,0,0,0,0,-1,1392,1618,0,0
175,-594,0,0,0,0,0,0,0,0,0,-1,1399,1618,0,0
182,-594,0,0,0,0,0,0,0,0,0,-1,1406,1618,0,0
189,-594,0,0,0,0,0,0,0,0,0,-1,1413,1618,0,0
196,-594,0,0,0,0,0,0,0,0,0,-1,1420,1618,0,0
203,-594,0,0,0,0,0,0,0,0,0,-1,1427,1618,0,0
210,-594,0,0,0,0,0,0,0,0,0,-1,1434,1618,0,0
217,-594,0,0,0,0,0,0,0,0,0,-1,1441,1618,0,0
224,-594,0,0,0,0,0,0,0,0,0,-1,1448,1618,0,0
231,-594,0,0,0,0,0,0,0,0,0,-1,1455,1618,0,0
238,-594,0,0,0,0,0,0,0,0,0,-1,1462,1618,0,0
245,-594,0,0,0,0,0,0,0,0,0,-1,1469,1618,0,0
252,-594,3.03674,1.20996,0,0,0,0,0,0,0,-1,1476,1618,3.0368,-1.20999
259,-594,4.79834,1.53113,0,0,0,0,0,0,0,-1,1483,1618,4.79837,-1.53118
266,-594,3.71606,2.68152,0,0,0,0,0,0,0,-1,1490,1618,3.71609,-2.68149
273,-594,9.7655,6.33557,0,0,0,0,0,0,0,-1,1497,1618,9.76555,-6.33554
280,-594,3.13281,0.911255,0,0,0,0,0,0,0,-1,1504,1618,3.13277,-0.911207
287,-594,4.42749,1.51563,0,0,0,0,0,0,0,-1,1511,1618,4.42747,-1.51564
294,-594,5.36475,3.34937,0,0,0,0,0,0,0,-1,1518,1618,5.36475,-3.3494
301,-594,7.97144,9.04333,0,0,0,0,0,0,0,-1,1525,1618,7.9714,-9.04328
308,-594,6.30347,10.4633,0,0,0,0,0,0,0,-1,1532,1618,6.30351,-10.4633
315,-594,4.62012,11.934,0,0,0,0,0,0,0,-1,1539,1618,4.62006,-11.934
322,-594,2.91528,13.3134,0,0,0,0,0,0,0,-1,1546,1618,2.91523,-13.3133
329,-594,4.19861,9.77258,0,0,0,0,0,0,0,-1,1553,1618,4.19865,-9.77264
336,-594,10.1353,4.66528,0,0,0,0,0,0,0,-1,1560,1618,10.1353,-4.66533
343,-594,10.5729,3.71228,0,0,0,0,0,0,0,-1,1567,1618,10.5729,-3.71232
350,-594,10.219,2.98792,0,0,0,0,0,0,0,-1,1574,1618,10.219,-2.98797
357,-594,9.83154,1.96326,0,0,0,0,0,0,0,-1,1581,1618,9.8315,-1.96321
364,-594,9.74939,0.700562,0,0,0,0,0,0,0,-1,1588,1618,9.74939,-0.700615
371,-594,8.54297,14.3988,0,0,0,0,0,0,0,-1,1595,1618,8.54296,-14.3989
378,-594,12.8971,31.8892,0,0,0,0,0,0,0,-1,1602,1618,12.8971,-31.8892
385,-594,13.0355,30.178,0,0,0,0,0,0,0,-1,1609,1618,13.0355,-30.178
392,-594,13.3279,29.9119,0.00121757,0.0217796,-0.00663483,0.0237346,-0.000737432,-1.28425,0.0160745,0.0468302,1616,1618,13.3279,-29.9119
399,-594,13.5619,29.2876,-4.89631e-05,0.0188998,-0.00491301,0.0200979,-0.00124705,-1.3316,0.013833,0.0394351,1623,1618,13.5619,-29.2876
406,-594,13.4801,28.8699,-0.0008892,0.0163958,-0.00369064,0.0171508,-0.00164423,-1.369,0.0120195,0.0257685,1630,1618,13.4801,-28.8699
413,-594,13.4133,28.4493,-0.00130874,0.0146399,-0.00294925,0.0151678,-0.00183665,-1.39367,0.0107764,0.017102,1637,1618,13.4134,-28.4493
420,-594,13.422,28.0464,-0.00140466,0.0130543,-0.0024192,0.0134483,-0.00179869,-1.40934,0.00962132,0.0137146,1644,1618,13.4221,-28.0464
427,-594,13.4429,27.6425,-0.00129499,0.0117404,-0.0021002,0.0120704,-0.00162501,-1.41493,0.00863972,0.0122634,1651,1618,13.4429,-27.6425
434,-594,13.4001,27.2307,-0.00113594,0.0101451,-0.00172036,0.0104016,-0.00139246,-1.42278,0.0074421,0.0179933,1658,1618,13.4001,-27.2307
441,-594,13.3971,26.8052,-0.000738246,0.00891467,-0.00164655,0.00918781,-0.00101138,-1.40641,0.00648866,0.0177203,1665,1618,13.3971,-26.8052
448,-594,13.4312,26.4067,-0.000458205,0.00754325,-0.00156281,0.00783766,-0.000752615,-1.38459,0.00549319,0.0166812,1672,1618,13.4312,-26.4067
455,-594,13.3972,26.0156,0.000113778,0.0063257,-0.00159517,0.00671138,-0.000271902,-1.33357,0.00456759,0.0117262,1679,1618,13.3972,-26.0156
462,-594,13.3707,25.6093,0.000442576,0.00499724,-0.00142336,0.00540546,3.43565e-05,-1.29149,0.00359224,0.0131125,1686,1618,13.3707,-25.6092
469,-594,13.3848,25.2045,0.000532646,0.0035761,-0.00125915,0.00402949,7.92521e-05,-1.22517,0.0026603,0.0122254,1693,1618,13.3848,-25.2045
476,-594,13.3915,24.7931,0.000475444,0.00214145,-0.000998422,0.00260873,8.16281e-06,-1.13306,0.00173644,0.0123686,1700,1618,13.3915,-24.7931
483,-594,13.3794,24.3745,0.000373172,0.00060063,-0.000713892,0.00120979,-0.000235993,-0.864389,0.000895619,0.0141458,1707,1618,13.3794,-24.3745
490,-594,13.3478,23.9353,0.000171901,-0.00070736,-0.000356992,0.00029859,-0.000834049,-0.341016,0.000677851,0.0123507,1714,1618,13.3478,-23.9353
497,-594,13.3145,23.5186,-0.00032148,-0.00190194,5.0191e-05,-0.000319887,-0.00190353,0.0317146,0.00117697,0.0103155,1721,1618,13.3145,-23.5186
504,-594,13.3181,23.1064,-0.00112981,-0.00315888,0.000834162,-0.000830907,-0.00345778,0.344069,0.00208418,0.010571,1728,1618,13.3182,-23.1064
511,-594,13.3254,22.6588,-0.00187063,-0.00468403,0.00166087,-0.0011008,-0.00545387,0.434033,0.00333019,0.0151639,1735,1618,13.3255,-22.6588
518,-594,13.2638,22.2069,-0.00264701,-0.00606113,0.00245487,-0.00136402,-0.00734413,0.48159,0.00451069,0.0211577,1742,1618,13.2638,-22.2069
525,-594,13.2415,21.7803,-0.00358572,-0.00771593,0.00357739,-0.00152016,-0.00978149,0.52363,0.00607798,0.0326132,1749,1618,13.2414,-21.7803
532,-594,13.3387,21.4392,0,0,0,0,0,0,0,-1,1756,1618,13.3388,-21.4392
539,-594,13.4999,21.0089,0,0,0,0,0,0,0,-1,1763,1618,13.4999,-21.0089
546,-594,7.48645,8.54785,0,0,0,0,0,0,0,-1,1770,1618,7.48639,-8.54789
553,-594,3.69714,5.68762,0,0,0,0,0,0,0,-1,1777,1618,3.69715,-5.68764
560,-594,6.06616,4.44482,0,0,0,0,0,0,0,-1,1784,1618,6.06621,-4.44477
567,-594,5.97266,4.73303,0,0,0,0,0,0,0,-1,1791,1618,5.97271,-4.73309
574,-594,5.9906,4.96326,0,0,0,0,0,0,0,-1,1798,1618,5.99065,-4.96326
581,-594,0,0,0,0,0,0,0,0,0,-1,1805,1618,0,0
588,-594,0,0,0,0,0,0,0,0,0,-1,1812,1618,0,0
595,-594,0,0,0,0,0,0,0,0,0,-1,1819,1618,0,0
602,-594,0,0,0,0,0,0,0,0,0,-1,1826,1618,0,0
609,-594,0,0,0,0,0,0,0,0,0,-1,1833,1618,0,0
616,-594,0,0,0,0,0,0,0,0,0,-1,1840,1618,0,0
623,-594,0,0,0,0,0,0,0,0,0,-1,1847,1618,0,0
630,-594,0,0,0,0,0,0,0,0,0,-1,1854,1618,0,0
637,-594,0,0,0,0,0,0,0,0,0,-1,1861,1618,0,0
644,-594,0,0,0,0,0,0,0,0,0,-1,1868,1618,0,0
651,-594,0,0,0,0,0,0,0,0,0,-1,1875,1618,0,0
658,-594,0,0,0,0,0,0,0,0,0,-1,1882,1618,0,0
665,-594,0,0,0,0,0,0,0,0,0,-1,1889,1618,0,0
672,-594,0,0,0,0,0,0,0,0,0,-1,1896,1618,0,0
679,-594,0,0,0,0,0,0,0,0,0,-1,1903,1618,0,0
686,-594,0,0,0,0,0,0,0,0,0,-1,1910,1618,0,0
693,-594,0,0,0,0,0,0,0,0,0,-1,1917,1618,0,0
700,-594,0,0,0,0,0,0,0,0,0,-1,1924,1618,0,0
707,-594,0,0,0,0,0,0,0,0,0,-1,1931,1618,0,0
714,-594,0,0,0,0,0,0,0,0,0,-1,1938,1618,0,0
721,-594,0,0,0,0,0,0,0,0,0,-1,1945,1618,0,0
728,-594,0,0,0,0,0,0,0,0,0,-1,1952,1618,0,0
735,-594,0,0,0,0,0,0,0,0,0,-1,1959,1618,0,0
742,-594,0,0,0,0,0,0,0,0,0,-1,1966,1618,0,0
749,-594,0,0,0,0,0,0,0,0,0,-1,1973,1618,0,0
756,-594,0,0,0,0,0,0,0,0,0,-1,1980,1618,0,0
763,-594,0,0,0,0,0,0,0,0,0,-1,1987,1618,0,0
770,-594,0,0,0,0,0,0,0,0,0,-1,1994,1618,0,0
777,-594,0,0,0,0,0,0,0,0,0,-1,2001,1618,0,0
784,-594,0,0,0,0,0,0,0,0,0,-1,2008,1618,0,0
791,-594,0,0,0,0,0,0,0,0,0,-1,2015,1618,0,0
798,-594,0,0,0,0,0,0,0,0,0,-1,2022,1618,0,0
805,-594,0,0,0,0,0,0,0,0,0,-1,2029,1618,0,0
812,-594,0,0,0,0,0,0,0,0,0,-1,2036,1618,0,0
-700,-601,0,0,0,0,0,0,0,0,0,-1,524,1625,0,0
-693,-601,0,0,0,0,0,0,0,0,0,-1,531,1625,0,0
-686,-601,0,0,0,0,0,0,0,0,0,-1,538,1625,0,0
-679,-601,0,0,0,0,0,0,0,0,0,-1,545,1625,0,0
-672,-601,0,0,0,0,0,0,0,0,0,-1,552,1625,0,0
-665,-601,0,0,0,0,0,0,0,0,0,-1,559,1625,0,0
-658,-601,0,0,0,0,0,0,0,0,0,-1,566,1625,0,0
-651,-601,0,0,0,0,0,0,0,0,0,-1,573,1625,0,0
-644,-601,0,0,0,0,0,0,0,0,0,-1,580,1625,0,0
-637,-601,0,0,0,0,0,0,0,0,0,-1,587,1625,0,0
-630,-601,0,0,0,0,0,0,0,0,0,-1,594,1625,0,0
-623,-601,0,0,0,0,0,0,0,0,0,-1,601,1625,0,0
-616,-601,0,0,0,0,0,0,0,0,0,-1,608,1625,0,0
-609,-601,0,0,0,0,0,0,0,0,0,-1,615,1625,0,0
-602,-601,0,0,0,0,0,0,0,0,0,-1,622,1625,0,0
-595,-601,0,0,0,0,0,0,0,0,0,-1,629,1625,0,0
-588,-601,0,0,0,0,0,0,0,0,0,-1,636,1625,0,0
-581,-601,0,0,0,0,0,0,0,0,0,-1,643,1625,0,0
-574,-601,0,0,0,0,0,0,0,0,0,-1,650,1625,0,0
-567,-601,0,0,0,0,0,0,0,0,0,-1,657,1625,0,0
-560,-601,0,0,0,0,0,0,0,0,0,-1,664,1625,0,0
-553,-601,0,0,0,0,0,0,0,0,0,-1,671,1625,0,0
-546,-601,0,0,0,0,0,0,0,0,0,-1,678,1625,0,0
-539,-601,0,0,0,0,0,0,0,0,0,-1,685,1625,0,0
-532,-601,0,0,0,0,0,0,0,0,0,-1,692,1625,0,0
-525,-601,0,0,0,0,0,0,0,0,0,-1,699,1625,0,0
-518,-601,0,0,0,0,0,0,0,0,0,-1,706,1625,0,0
-511,-601,0,0,0,0,0,0,0,0,0,-1,713,1625,0,0
-504,-601,0,0,0,0,0,0,0,0,0,-1,720,1625,0,0
-497,-601,0,0,0,0,0,0,0,0,0,-1,727,1625,0,0
-490,-601,0,0,0,0,0,0,0,0,0,-1,734,1625,0,0
-483,-601,0,0,0,0,0,0,0,0,0,-1,741,1625,0,0
-476,-601,0,0,0,0,0,0,0,0,0,-1,748,1625,0,0
-469,-601,0,0,0,0,0,0,0,0,0,-1,755,1625,0,0
-462,-601,0,0,0,0,0,0,0,0,0,-1,762,1625,0,0
-455,-601,0,0,0,0,0,0,0,0,0,-1,769,1625,0,0
-448,-601,-7.07623,2.7616,0,0,0,0,0,0,0,-1,776,1625,-7.07626,-2.76161
-441,-601,-6.06689,3.33447,0,0,0,0,0,0,0,-1,783,1625,-6.06691,-3.33448
-434,-601,-5.02655,3.8468,0,0,0,0,0,0,0,-1,790,1625,-5.02657,-3.84674
-427,-601,-5.78601,4.2406,0,0,0,0,0,0,0,-1,797,1625,-5.786,-4.24058
-420,-601,-5.5191,5.60364,0,0,0,0,0,0,0,-1,804,1625,-5.51907,-5.60368
-413,-601,-4.30756,5.86047,0,0,0,0,0,0,0,-1,811,1625,-4.30757,-5.86046
-406,-601,-1.67493,7.20422,0,0,0,0,0,0,0,-1,818,1625,-1.67493,-7.20428
-399,-601,1.40094,15.3108,0,0,0,0,0,0,0,-1,825,1625,1.40096,-15.3107
-392,-601,2.03394,21.0156,0,0,0,0,0,0,0,-1,832,1625,2.03395,-21.0156
-385,-601,2.21014,21.4736,0,0,0,0,0,0,0,-1,839,1625,2.21015,-21.4736
-378,-601,2.25958,21.6249,0,0,0,0,0,0,0,-1,846,1625,2.25959,-21.6249
-371,-601,2.33746,22.137,-0.00141653,-0.00289232,0.00125939,-0.000694789,-0.00361406,0.520399,0.00221441,0.0239065,853,1625,2.33747,-22.1369
-364,-601,2.33386,22.6106,-0.000963731,-0.00254929,0.000997138,-0.000482625,-0.00303039,0.449539,0.00188015,0.0132479,860,1625,2.33389,-22.6106
-357,-601,2.29877,23.0802,-0.000499137,-0.00198408,0.000893873,-7.95957e-05,-0.00240362,0.43883,0.00157655,0.0107449,867,1625,2.29874,-23.0802
-350,-601,2.30927,23.6034,-3.11518e-05,-0.0013647,0.000856151,0.000387239,-0.00178309,0.454557,0.00133664,0.0208775,874,1625,2.30925,-23.6033
-343,-601,2.25568,24.0497,0.000415989,-0.000641987,0.000893809,0.000925616,-0.00115162,0.518201,0.00120165,0.0237435,881,1625,2.25565,-24.0497
-336,-601,2.21143,24.415,0.000886708,4.06784e-05,0.00100203,0.00155135,-0.000623964,0.585667,0.0012934,0.0196345,888,1625,2.21141,-24.415
-329,-601,2.23846,24.8715,0.00130832,0.000854403,0.00110429,0.00220873,-4.60154e-05,0.684048,0.00148806,0.0153275,895,1625,2.23844,-24.8714
-322,-601,2.25507,25.3104,0.00164253,0.00158295,0.00122708,0.00284018,0.000385293,0.773263,0.00177899,0.0122257,902,1625,2.25507,-25.3105
-315,-601,2.24011,25.7081,0.00200396,0.00230106,0.00134314,0.00350384,0.000801177,0.840473,0.00211991,0.0128138,909,1625,2.24013,-25.7081
-308,-601,2.21954,26.1171,0.00244398,0.00286013,0.00138918,0.00405673,0.00124738,0.859737,0.00239933,0.0118902,916,1625,2.21957,-26.117
-301,-601,2.22894,26.527,0.00311558,0.0031259,0.00160183,0.00472258,0.0015189,0.787009,0.00278382,0.00977319,923,1625,2.22891,-26.5269
-294,-601,2.22888,26.9459,0.0040453,0.00383162,0.00236088,0.00630175,0.00157517,0.762787,0.00378693,0.00975525,930,1625,2.22885,-26.9459
-287,-601,2.18903,27.3815,0.00486774,0.00460468,0.00297093,0.00771005,0.00176237,0.763276,0.0046649,0.0103085,937,1625,2.18905,-27.3815
-280,-601,2.211,27.8204,0.00590709,0.00525757,0.00373135,0.00932778,0.00183687,0.74199,0.00570566,0.0154588,944,1625,2.21097,-27.8204
-273,-601,2.22015,28.2651,0.00716912,0.00593152,0.0047841,0.0113743,0.00172637,0.721083,0.00707792,0.0181922,951,1625,2.22014,-28.2651
-266,-601,2.26123,28.6929,0.00851598,0.00673922,0.00605999,0.0137524,0.00150284,0.712618,0.00871062,0.0214782,958,1625,2.26125,-28.6929
-259,-601,2.31226,28.9447,0.0099183,0.00735474,0.00757296,0.0163172,0.000955852,0.701564,0.0105739,0.0310637,965,1625,2.31226,-28.9447
-252,-601,2.36584,29.2312,0.0116325,0.008369,0.00958037,0.0197191,0.00028241,0.701047,0.0130529,0.0444829,972,1625,2.36584,-29.2312
-245,-601,2.60504,30.188,0.0132782,0.00962096,0.0118795,0.023469,-0.000569825,0.709032,0.0158394,0.0440328,979,1625,2.60506,-30.188
-238,-601,3.06213,30.9176,0,0,0,0,0,0,0,-1,986,1625,3.0621,-30.9176
-231,-601,2.66772,13.7051,0,0,0,0,0,0,0,-1,993,1625,2.6677,-13.7051
-224,-601,-0.0305176,9.13684,0,0,0,0,0,0,0,-1,1000,1625,-0.030498,-9.13681
-217,-601,3.39429,10.3898,0,0,0,0,0,0,0,-1,1007,1625,3.39431,-10.3898
-210,-601,-6.53699,15.7931,0,0,0,0,0,0,0,-1,1014,1625,-6.53697,-15.7931
-203,-601,2.69348,15.9099,0,0,0,0,0,0,0,-1,1021,1625,2.69351,-15.91
-196,-601,2.66992,16.1815,0,0,0,0,0,0,0,-1,1028,1625,2.66995,-16.1815
-189,-601,2.849,16.6105,0,0,0,0,0,0,0,-1,1035,1625,2.84902,-16.6104
-182,-601,1.82153,13.9752,0,0,0,0,0,0,0,-1,1042,1625,1.82155,-13.9752
-175,-601,0.544922,9.28687,0,0,0,0,0,0,0,-1,1049,1625,0.544879,-9.28685
-168,-601,-0.247559,8.97461,0,0,0,0,0,0,0,-1,1056,1625,-0.247598,-8.97466
-161,-601,-1.16833,8.80078,0,0,0,0,0,0,0,-1,1063,1625,-1.16837,-8.80081
-154,-601,1.12756,7.94861,0,0,0,0,0,0,0,-1,1070,1625,1.12762,-7.94855
-147,-601,1.35352,9.55432,0,0,0,0,0,0,0,-1,1077,1625,1.35351,-9.55429
-140,-601,1.72437,11.1498,0,0,0,0,0,0,0,-1,1084,1625,1.72432,-11.1498
-133,-601,2.13281,12.8347,0,0,0,0,0,0,0,-1,1091,1625,2.13287,-12.8348
-126,-601,3.09534,15.427,0,0,0,0,0,0,0,-1,1098,1625,3.0953,-15.4271
-119,-601,1.22485,9.43457,0,0,0,0,0,0,0,-1,1105,1625,1.22489,-9.43456
-112,-601,0,0,0,0,0,0,0,0,0,-1,1112,1625,0,0
-105,-601,0,0,0,0,0,0,0,0,0,-1,1119,1625,0,0
-98,-601,0,0,0,0,0,0,0,0,0,-1,1126,1625,0,0
-91,-601,0,0,0,0,0,0,0,0,0,-1,1133,1625,0,0
-84,-601,0,0,0,0,0,0,0,0,0,-1,1140,1625,0,0
-77,-601,0,0,0,0,0,0,0,0,0,-1,1147,1625,0,0
-70,-601,0,0,0,0,0,0,0,0,0,-1,1154,1625,0,0
-63,-601,0,0,0,0,0,0,0,0,0,-1,1161,1625,0,0
-56,-601,0,0,0,0,0,0,0,0,0,-1,1168,1625,0,0
-49,-601,0,0,0,0,0,0,0,0,0,-1,1175,1625,0,0
-42,-601,0,0,0,0,0,0,0,0,0,-1,1182,1625,0,0
-35,-601,0,0,0,0,0,0,0,0,0,-1,1189,1625,0,0
-28,-601,0,0,0,0,0,0,0,0,0,-1,1196,1625,0,0
-21,-601,0,0,0,0,0,0,0,0,0,-1,1203,1625,0,0
-14,-601,0,0,0,0,0,0,0,0,0,-1,1210,1625,0,0
-7,-601,0,0,0,0,0,0,0,0,0,-1,1217,1625,0,0
0,-601,0,0,0,0,0,0,0,0,0,-1,1224,1625,0,0
7,-601,0,0,0,0,0,0,0,0,0,-1,1231,1625,0,0
14,-601,0,0,0,0,0,0,0,0,0,-1,1238,1625,0,0
21,-601,0,0,0,0,0,0,0,0,0,-1,1245,1625,0,0
28,-601,0,0,0,0,0,0,0,0,0,-1,1252,1625,0,0
35,-601,0,0,0,0,0,0,0,0,0,-1,1259,1625,0,0
42,-601,0,0,0,0,0,0,0,0,0,-1,1266,1625,0,0
49,-601,0,0,0,0,0,0,0,0,0,-1,1273,1625,0,0
56,-601,0,0,0,0,0,0,0,0,0,-1,1280,1625,0,0
63,-601,0,0,0,0,0,0,0,0,0,-1,1287,1625,0,0
70,-601,0,0,0,0,0,0,0,0,0,-1,1294,1625,0,0
77,-601,0,0,0,0,0,0,0,0,0,-1,1301,1625,0,0
84,-601,0,0,0,0,0,0,0,0,0,-1,1308,1625,0,0
91,-601,0,0,0,0,0,0,0,0,0,-1,1315,1625,0,0
98,-601,0,0,0,0,0,0,0,0,0,-1,1322,1625,0,0
105,-601,0,0,0,0,0,0,0,0,0,-1,1329,1625,0,0
112,-601,0,0,0,0,0,0,0,0,0,-1,1336,1625,0,0
119,-601,0,0,0,0,0,0,0,0,0,-1,1343,1625,0,0
126,-601,0,0,0,0,0,0,0,0,0,-1,1350,1625,0,0
133,-601,0,0,0,0,0,0,0,0,0,-1,1357,1625,0,0
140,-601,0,0,0,0,0,0,0,0,0,-1,1364,1625,0,0
147,-601,0,0,0,0,0,0,0,0,0,-1,1371,1625,0,0
154,-601,0,0,0,0,0,0,0,0,0,-1,1378,1625,0,0
161,-601,0,0,0,0,0,0,0,0,0,-1,1385,1625,0,0
168,-601,0,0,0,0,0,0,0,0,0,-1,1392,1625,0,0
175,-601,0,0,0,0,0,0,0,0,0,-1,1399,1625,0,0
182,-601,0,0,0,0,0,0,0,0,0,-1,1406,1625,0,0
189,-601,0,0,0,0,0,0,0,0,0,-1,1413,1625,0,0
196,-601,0,0,0,0,0,0,0,0,0,-1,1420,1625,0,0
203,-601,0,0,0,0,0,0,0,0,0,-1,1427,1625,0,0
210,-601,0,0,0,0,0,0,0,0,0,-1,1434,1625,0,0
217,-601,0,0,0,0,0,0,0,0,0,-1,1441,1625,0,0
224,-601,0,0,0,0,0,0,0,0,0,-1,1448,1625,0,0
231,-601,-0.0371094,0.525879,0,0,0,0,0,0,0,-1,1455,1625,-0.0371518,-0.525824
238,-601,2.03369,-1.32861,0,0,0,0,0,0,0,-1,1462,1625,2.03364,1.32858
245,-601,2.71375,2.44983,0,0,0,0,0,0,0,-1,1469,1625,2.71371,-2.44979
252,-601,4.66943,2.28381,0,0,0,0,0,0,0,-1,1476,1625,4.66947,-2.28376
259,-601,6.42712,2.61987,0,0,0,0,0,0,0,-1,1483,1625,6.42711,-2.61985
266,-601,6.75317,1.68701,0,0,0,0,0,0,0,-1,1490,1625,6.75323,-1.687
273,-601,5.4314,2.92053,0,0,0,0,0,0,0,-1,1497,1625,5.43144,-2.92051
280,-601,4.64722,1.17786,0,0,0,0,0,0,0,-1,1504,1625,4.64722,-1.1779
287,-601,5.32532,2.6217,0,0,0,0,0,0,0,-1,1511,1625,5.32535,-2.62171
294,-601,5.97693,4.22693,0,0,0,0,0,0,0,-1,1518,1625,5.97697,-4.22694
301,-601,7.28162,9.50024,0,0,0,0,0,0,0,-1,1525,1625,7.28162,-9.50025
308,-601,6.53528,10.3927,0,0,0,0,0,0,0,-1,1532,1625,6.53529,-10.3927
315,-601,4.88013,11.7184,0,0,0,0,0,0,0,-1,1539,1625,4.88015,-11.7184
322,-601,3.38098,12.7864,0,0,0,0,0,0,0,-1,1546,1625,3.38104,-12.7864
329,-601,1.8772,13.8768,0,0,0,0,0,0,0,-1,1553,1625,1.87716,-13.8768
336,-601,4.67847,9.53308,0,0,0,0,0,0,0,-1,1560,1625,4.67848,-9.53309
343,-601,11.1404,3.14575,0,0,0,0,0,0,0,-1,1567,1625,11.1404,-3.1458
350,-601,10.9462,2.37769,0,0,0,0,0,0,0,-1,1574,1625,10.9461,-2.37764
357,-601,10.7518,1.6095,0,0,0,0,0,0,0,-1,1581,1625,10.7518,-1.60948
364,-601,5.33643,9.74426,0,0,0,0,0,0,0,-1,1588,1625,5.33637,-9.74429
371,-601,12.296,31.8589,0,0,0,0,0,0,0,-1,1595,1625,12.296,-31.8589
378,-601,12.4709,31.1588,0,0,0,0,0,0,0,-1,1602,1625,12.4709,-31.1589
385,-601,12.8728,30.0195,0,0,0,0,0,0,0,-1,1609,1625,12.8728,-30.0196
392,-601,12.8883,29.6279,0.00228697,0.0178451,-0.00534478,0.0195043,0.000627792,-1.2698,0.0127987,0.0400825,1616,1625,12.8882,-29.6279
399,-601,13.0001,29.1672,0.00129622,0.0153255,-0.00397917,0.0163755,0.000246184,-1.3128,0.0108359,0.0196516,1623,1625,13.0001,-29.1673
406,-601,13.0256,28.7788,0.000584315,0.0130467,-0.00298073,0.013723,-9.1916e-05,-1.34771,0.00917943,0.0135569,1630,1625,13.0256,-28.7788
413,-601,13.0033,28.3813,4.20796e-05,0.0113888,-0.00233443,0.0118503,-0.000419428,-1.37562,0.00804365,0.011948,1637,1625,13.0033,-28.3813
420,-601,13.0276,27.972,-0.000268985,0.00986184,-0.00183003,0.0101823,-0.000589424,-1.39745,0.00699295,0.0101142,1644,1625,13.0276,-27.972
427,-601,13.0427,27.6183,-0.00038502,0.00869659,-0.00153856,0.00895016,-0.000638594,-1.40745,0.00619063,0.0148707,1651,1625,13.0428,-27.6182
434,-601,13.0146,27.2091,-0.000465867,0.00730497,-0.00121334,0.00749002,-0.000650911,-1.41945,0.00522385,0.0165921,1658,1625,13.0147,-27.2091
441,-601,13.0184,26.7972,-0.0003331,0.00630934,-0.00117,0.0065094,-0.000533157,-1.40144,0.0045278,0.0182724,1665,1625,13.0184,-26.7972
448,-601,13.0173,26.4153,-0.000241468,0.00518304,-0.00110931,0.00540113,-0.000459553,-1.37668,0.0037633,0.0149194,1672,1625,13.0174,-26.4153
455,-601,13.0059,26.0079,7.86129e-05,0.00418038,-0.00114741,0.00447954,-0.000220542,-1.31575,0.00306252,0.0124928,1679,1625,13.0059,-26.0079
462,-601,12.989,25.604,0.000206462,0.00301953,-0.0010036,0.00334088,-0.00011488,-1.26092,0.00226652,0.0115634,1686,1625,12.989,-25.604
469,-601,12.9867,25.2152,0.000191392,0.00180725,-0.000860194,0.00217944,-0.0001808,-1.16244,0.00151682,0.0121949,1693,1625,12.9867,-25.2152
476,-601,12.9562,24.8184,7.20297e-05,0.000580008,-0.000624912,0.00100057,-0.000348537,-0.978421,0.000808666,0.0134868,1700,1625,12.9561,-24.8183
483,-601,12.923,24.4055,-0.000118539,-0.00074394,-0.000334197,2.64385e-05,-0.000888917,-0.409308,0.000601618,0.0161004,1707,1625,12.923,-24.4056
490,-601,12.9155,23.9788,-0.000351391,-0.00190469,-3.40674e-05,-0.000350644,-0.00190543,-0.0219183,0.00117104,0.013058,1714,1625,12.9155,-23.9788
497,-601,12.9342,23.5411,-0.000894749,-0.00296988,0.00038403,-0.00082596,-0.00303867,0.177245,0.00181425,0.0106347,1721,1625,12.9342,-23.5411
504,-601,12.9796,23.1033,-0.00168199,-0.00412228,0.00116913,-0.00121228,-0.00459199,0.382024,0.00274787,0.0192489,1728,1625,12.9796,-23.1033
511,-601,12.8837,22.7616,-0.00233512,-0.00571264,0.00194217,-0.00145018,-0.00659758,0.427538,0.00400352,0.0340522,1735,1625,12.8837,-22.7616
518,-601,12.7809,22.2539,-0.00319624,-0.00711272,0.00264969,-0.0018597,-0.00844926,0.467172,0.00512664,0.0446543,1742,1625,12.7809,-22.2539
525,-601,12.7391,21.6293,0,0,0,0,0,0,0,-1,1749,1625,12.7391,-21.6292
532,-601,13.8806,19.4907,0,0,0,0,0,0,0,-1,1756,1625,13.8806,-19.4907
539,-601,7.77112,11.4299,0,0,0,0,0,0,0,-1,1763,1625,7.77116,-11.4299
546,-601,6.56873,3.62354,0,0,0,0,0,0,0,-1,1770,1625,6.56867,-3.62352
553,-601,7.03015,4.25049,0,0,0,0,0,0,0,-1,1777,1625,7.03011,-4.25048
560,-601,7.50745,4.83374,0,0,0,0,0,0,0,-1,1784,1625,7.50744,-4.83376
567,-601,7.82043,3.83301,0,0,0,0,0,0,0,-1,1791,1625,7.82041,-3.83303
574,-601,0,0,0,0,0,0,0,0,0,-1,1798,1625,0,0
581,-601,0,0,0,0,0,0,0,0,0,-1,1805,1625,0,0
588,-601,0,0,0,0,0,0,0,0,0,-1,1812,1625,0,0
595,-601,0,0,0,0,0,0,0,0,0,-1,1819,1625,0,0
602,-601,0,0,0,0,0,0,0,0,0,-1,1826,1625,0,0
609,-601,0,0,0,0,0,0,0,0,0,-1,1833,1625,0,0
616,-601,0,0,0,0,0,0,0,0,0,-1,1840,1625,0,0
623,-601,0,0,0,0,0,0,0,0,0,-1,1847,1625,0,0
630,-601,0,0,0,0,0,0,0,0,0,-1,1854,1625,0,0
637,-601,0,0,0,0,0,0,0,0,0,-1,1861,1625,0,0
644,-601,0,0,0,0,0,0,0,0,0,-1,1868,1625,0,0
651,-601,0,0,0,0,0,0,0,0,0,-1,1875,1625,0,0
658,-601,0,0,0,0,0,0,0,0,0,-1,1882,1625,0,0
665,-601,0,0,0,0,0,0,0,0,0,-1,1889,1625,0,0
672,-601,0,0,0,0,0,0,0,0,0,-1,1896,1625,0,0
679,-601,0,0,0,0,0,0,0,0,0,-1,1903,1625,0,0
686,-601,0,0,0,0,0,0,0,0,0,-1,1910,1625,0,0
693,-601,0,0,0,0,0,0,0,0,0,-1,1917,1625,0,0
700,-601,0,0,0,0,0,0,0,0,0,-1,1924,1625,0,0
707,-601,0,0,0,0,0,0,0,0,0,-1,1931,1625,0,0
714,-601,0,0,0,0,0,0,0,0,0,-1,1938,1625,0,0
721,-601,0,0,0,0,0,0,0,0,0,-1,1945,1625,0,0
728,-601,0,0,0,0,0,0,0,0,0,-1,1952,1625,0,0
735,-601,0,0,0,0,0,0,0,0,0,-1,1959,1625,0,0
742,-601,0,0,0,0,0,0,0,0,0,-1,1966,1625,0,0
749,-601,0,0,0,0,0,0,0,0,0,-1,1973,1625,0,0
756,-601,0,0,0,0,0,0,0,0,0,-1,1980,1625,0,0
763,-601,0,0,0,0,0,0,0,0,0,-1,1987,1625,0,0
770,-601,0,0,0,0,0,0,0,0,0,-1,1994,1625,0,0
777,-601,0,0,0,0,0,0,0,0,0,-1,2001,1625,0,0
784,-601,0,0,0,0,0,0,0,0,0,-1,2008,1625,0,0
791,-601,0,0,0,0,0,0,0,0,0,-1,2015,1625,0,0
798,-601,0,0,0,0,0,0,0,0,0,-1,2022,1625,0,0
805,-601,0,0,0,0,0,0,0,0,0,-1,2029,1625,0,0
812,-601,0,0,0,0,0,0,0,0,0,-1,2036,1625,0,0
-700,-608,0,0,0,0,0,0,0,0,0,-1,524,1632,0,0
-693,-608,0,0,0,0,0,0,0,0,0,-1,531,1632,0,0
-686,-608,0,0,0,0,0,0,0,0,0,-1,538,1632,0,0
-679,-608,0,0,0,0,0,0,0,0,0,-1,545,1632,0,0
-672,-608,0,0,0,0,0,0,0,0,0,-1,552,1632,0,0
-665,-608,0,0,0,0,0,0,0,0,0,-1,559,1632,0,0
-658,-608,0,0,0,0,0,0,0,0,0,-1,566,1632,0,0
-651,-608,0,0,0,0,0,0,0,0,0,-1,573,1632,0,0
-644,-608,0,0,0,0,0,0,0,0,0,-1,580,1632,0,0
-637,-608,0,0,0,0,0,0,0,0,0,-1,587,1632,0,0
-630,-608,0,0,0,0,0,0,0,0,0,-1,594,1632,0,0
-623,-608,0,0,0,0,0,0,0,0,0,-1,601,1632,0,0
-616,-608,0,0,0,0,0,0,0,0,0,-1,608,1632,0,0
-609,-608,0,0,0,0,0,0,0,0,0,-1,615,1632,0,0
-602,-608,0,0,0,0,0,0,0,0,0,-1,622,1632,0,0
-595,-608,0,0,0,0,0,0,0,0,0,-1,629,1632,0,0
-588,-608,0,0,0,0,0,0,0,0,0,-1,636,1632,0,0
-581,-608,0,0,0,0,0,0,0,0,0,-1,643,1632,0,0
-574,-608,0,0,0,0,0,0,0,0,0,-1,650,1632,0,0
-567,-608,0,0,0,0,0,0,0,0,0,-1,657,1632,0,0
-560,-608,0,0,0,0,0,0,0,0,0,-1,664,1632,0,0
-553,-608,0,0,0,0,0,0,0,0,0,-1,671,1632,0,0
-546,-608,0,0,0,0,0,0,0,0,0,-1,678,1632,0,0
-539,-608,0,0,0,0,0,0,0,0,0,-1,685,1632,0,0
-532,-608,0,0,0,0,0,0,0,0,0,-1,692,1632,0,0
-525,-608,0,0,0,0,0,0,0,0,0,-1,699,1632,0,0
-518,-608,0,0,0,0,0,0,0,0,0,-1,706,1632,0,0
-511,-608,0,0,0,0,0,0,0,0,0,-1,713,1632,0,0
-504,-608,0,0,0,0,0,0,0,0,0,-1,720,1632,0,0
-497,-608,0,0,0,0,0,0,0,0,0,-1,727,1632,0,0
-490,-608,0,0,0,0,0,0,0,0,0,-1,734,1632,0,0
-483,-608,0,0,0,0,0,0,0,0,0,-1,741,1632,0,0
-476,-608,0,0,0,0,0,0,0,0,0,-1,748,1632,0,0
-469,-608,0,0,0,0,0,0,0,0,0,-1,755,1632,0,0
-462,-608,0,0,0,0,0,0,0,0,0,-1,762,1632,0,0
-455,-608,0,0,0,0,0,0,0,0,0,-1,769,1632,0,0
-448,-608,0,0,0,0,0,0,0,0,0,-1,776,1632,0,0
-441,-608,-7.34601,2.78052,0,0,0,0,0,0,0,-1,783,1632,-7.346,-2.78056
-434,-608,-6.34558,3.27405,0,0,0,0,0,0,0,-1,790,1632,-6.34555,-3.27406
-427,-608,-7.74335,4.17688,0,0,0,0,0,0,0,-1,797,1632,-7.74334,-4.17693
-420,-608,-6.82794,4.34839,0,0,0,0,0,0,0,-1,804,1632,-6.82794,-4.34838
-413,-608,-5.41919,5.66138,0,0,0,0,0,0,0,-1,811,1632,-5.41917,-5.66133
-406,-608,-4.79681,4.98999,0,0,0,0,0,0,0,-1,818,1632,-4.79684,-4.98997
-399,-608,-2.60645,6.34167,0,0,0,0,0,0,0,-1,825,1632,-2.60643,-6.34169
-392,-608,2.08356,15.437,0,0,0,0,0,0,0,-1,832,1632,2.08354,-15.437
-385,-608,2.54431,21.5642,0,0,0,0,0,0,0,-1,839,1632,2.54429,-21.5642
-378,-608,2.92053,21.4355,0,0,0,0,0,0,0,-1,846,1632,2.92051,-21.4355
-371,-608,2.72479,21.9681,0,0,0,0,0,0,0,-1,853,1632,2.72479,-21.9681
-364,-608,2.80817,22.5005,-0.00102625,-0.00361745,0.00111431,-0.000612969,-0.00403072,0.355156,0.00250792,0.0299446,860,1632,2.80814,-22.5004
-357,-608,2.74225,23.0187,-0.000694907,-0.00318425,0.00092442,-0.000389172,-0.00348998,0.319407,0.00220839,0.0198699,867,1632,2.74225,-23.0186
-350,-608,2.74731,23.5508,-0.000348969,-0.00261381,0.000819648,-8.34637e-05,-0.00287932,0.313261,0.00189234,0.018676,874,1632,2.7473,-23.5507
-343,-608,2.70496,24.0171,-1.45858e-05,-0.00193652,0.000768649,0.000255008,-0.00220611,0.337331,0.00156269,0.0254924,881,1632,2.70496,-24.0171
-336,-608,2.69086,24.4358,0.000379017,-0.00127363,0.000812679,0.000711683,-0.0016063,0.388536,0.00137111,0.0175334,888,1632,2.69084,-24.4358
-329,-608,2.67291,24.9073,0.000720931,-0.000476446,0.000853862,0.00116508,-0.000920594,0.479648,0.00120692,0.0151434,895,1632,2.6729,-24.9073
-322,-608,2.65405,25.3268,0.000979062,0.000235946,0.000916795,0.00159673,-0.000381722,0.592874,0.00121193,0.0150681,902,1632,2.65408,-25.3268
-315,-608,2.65503,25.7152,0.00127249,0.000961359,0.000988438,0.00211753,0.000116318,0.707347,0.00137455,0.0137516,909,1632,2.65504,-25.7153
-308,-608,2.62958,26.1346,0.0016303,0.0016209,0.00100051,0.00262612,0.000625074,0.783051,0.00158405,0.0136415,916,1632,2.62961,-26.1346
-301,-608,2.62408,26.5491,0.00220805,0.002067,0.00118435,0.00332397,0.000951078,0.755659,0.00197675,0.0104378,923,1632,2.62411,-26.5491
-294,-608,2.64471,26.9598,0.00300219,0.00282613,0.00178923,0.00470555,0.00112277,0.760819,0.00283781,0.0104944,930,1632,2.64473,-26.9598
-287,-608,2.62329,27.3682,0.00368653,0.00366177,0.0022735,0.00594769,0.00140062,0.782675,0.0035905,0.010018,937,1632,2.62326,-27.3682
-280,-608,2.62903,27.7729,0.00453001,0.00434625,0.00286727,0.00730687,0.00156939,0.769381,0.00444152,0.00894216,944,1632,2.62904,-27.773
-273,-608,2.62195,28.1843,0.0055169,0.00510579,0.00366554,0.00898265,0.00164004,0.757389,0.00552352,0.0101463,951,1632,2.62198,-28.1843
-266,-608,2.64069,28.6176,0.00653395,0.00591714,0.00459489,0.0108308,0.00162031,0.751889,0.00674559,0.0108272,958,1632,2.64067,-28.6175
-259,-608,2.69806,29.014,0.00753256,0.00650155,0.00566893,0.0127094,0.00132473,0.740055,0.00806768,0.0146464,965,1632,2.69805,-29.0141
-252,-608,2.8017,29.4196,0.00874758,0.00737755,0.00703492,0.0151308,0.000994375,0.736864,0.00977259,0.0274075,972,1632,2.80172,-29.4195
-245,-608,2.83429,30.0859,0.00989761,0.00841828,0.00854406,0.017734,0.00058192,0.74222,0.0116335,0.0382939,979,1632,2.83426,-30.0859
-238,-608,2.99908,30.7224,0,0,0,0,0,0,0,-1,986,1632,2.99905,-30.7224
-231,-608,3.26025,27.5262,0,0,0,0,0,0,0,-1,993,1632,3.26023,-27.5263
-224,-608,2.51642,15.3452,0,0,0,0,0,0,0,-1,1000,1632,2.5164,-15.3452
-217,-608,1.04419,12.8451,0,0,0,0,0,0,0,-1,1007,1632,1.04418,-12.8451
-210,-608,2.75903,15.9414,0,0,0,0,0,0,0,-1,1014,1632,2.75903,-15.9414
-203,-608,2.76776,16.217,0,0,0,0,0,0,0,-1,1021,1632,2.76773,-16.217
-196,-608,1.53955,18.6058,0,0,0,0,0,0,0,-1,1028,1632,1.53959,-18.6058
-189,-608,1.37634,19.119,0,0,0,0,0,0,0,-1,1035,1632,1.37634,-19.1191
-182,-608,2.89221,16.7092,0,0,0,0,0,0,0,-1,1042,1632,2.89224,-16.7093
-175,-608,0.219116,15.1643,0,0,0,0,0,0,0,-1,1049,1632,0.219173,-15.1644
-168,-608,0.000366211,9.48645,0,0,0,0,0,0,0,-1,1056,1632,0.000317105,-9.48648
-161,-608,2.27832,15.4423,0,0,0,0,0,0,0,-1,1063,1632,2.27826,-15.4423
-154,-608,1.3999,16.4037,0,0,0,0,0,0,0,-1,1070,1632,1.39987,-16.4037
-147,-608,2.4386,9.50317,0,0,0,0,0,0,0,-1,1077,1632,2.43858,-9.50313
-140,-608,2.60132,10.8401,0,0,0,0,0,0,0,-1,1084,1632,2.60134,-10.8401
-133,-608,3.2312,12.4738,0,0,0,0,0,0,0,-1,1091,1632,3.23116,-12.4738
-126,-608,3.76465,13.9644,0,0,0,0,0,0,0,-1,1098,1632,3.76466,-13.9644
-119,-608,4.28906,15.4196,0,0,0,0,0,0,0,-1,1105,1632,4.28911,-15.4195
-112,-608,0.745117,10.5587,0,0,0,0,0,0,0,-1,1112,1632,0.745145,-10.5587
-105,-608,-0.252319,1.42419,0,0,0,0,0,0,0,-1,1119,1632,-0.252331,-1.42418
-98,-608,-2.8595,3.0863,0,0,0,0,0,0,0,-1,1126,1632,-2.85948,-3.08625
-91,-608,-3.71948,1.73608,0,0,0,0,0,0,0,-1,1133,1632,-3.7195,-1.73607
-84,-608,0,0,0,0,0,0,0,0,0,-1,1140,1632,0,0
-77,-608,0,0,0,0,0,0,0,0,0,-1,1147,1632,0,0
-70,-608,0,0,0,0,0,0,0,0,0,-1,1154,1632,0,0
-63,-608,0,0,0,0,0,0,0,0,0,-1,1161,1632,0,0
-56,-608,0,0,0,0,0,0,0,0,0,-1,1168,1632,0,0
-49,-608,0,0,0,0,0,0,0,0,0,-1,1175,1632,0,0
-42,-608,0,0,0,0,0,0,0,0,0,-1,1182,1632,0,0
-35,-608,0,0,0,0,0,0,0,0,0,-1,1189,1632,0,0
-28,-608,0,0,0,0,0,0,0,0,0,-1,1196,1632,0,0
-21,-608,0,0,0,0,0,0,0,0,0,-1,1203,1632,0,0
-14,-608,0,0,0,0,0,0,0,0,0,-1,1210,1632,0,0
-7,-608,0,0,0,0,0,0,0,0,0,-1,1217,1632,0,0
0,-608,0,0,0,0,0,0,0,0,0,-1,1224,1632,0,0
7,-608,0,0,0,0,0,0,0,0,0,-1,1231,1632,0,0
14,-608,0,0,0,0,0,0,0,0,0,-1,1238,1632,0,0
21,-608,0,0,0,0,0,0,0,0,0,-1,1245,1632,0,0
28,-608,0,0,0,0,0,0,0,0,0,-1,1252,1632,0,0
35,-608,0,0,0,0,0,0,0,0,0,-1,1259,1632,0,0
42,-608,0,0,0,0,0,0,0,0,0,-1,1266,1632,0,0
49,-608,0,0,0,0,0,0,0,0,0,-1,1273,1632,0,0
56,-608,0,0,0,0,0,0,0,0,0,-1,1280,1632,0,0
63,-608,0,0,0,0,0,0,0,0,0,-1,1287,1632,0,0
70,-608,0,0,0,0,0,0,0,0,0,-1,1294,1632,0,0
77,-608,0,0,0,0,0,0,0,0,0,-1,1301,1632,0,0
84,-608,0,0,0,0,0,0,0,0,0,-1,1308,1632,0,0
91,-608,0,0,0,0,0,0,0,0,0,-1,1315,1632,0,0
98,-608,0,0,0,0,0,0,0,0,0,-1,1322,1632,0,0
105,-608,0,0,0,0,0,0,0,0,0,-1,1329,1632,0,0
112,-608,0,0,0,0,0,0,0,0,0,-1,1336,1632,0,0
119,-608,0,0,0,0,0,0,0,0,0,-1,1343,1632,0,0
126,-608,0,0,0,0,0,0,0,0,0,-1,1350,1632,0,0
133,-608,0,0,0,0,0,0,0,0,0,-1,1357,1632,0,0
140,-608,0,0,0,0,0,0,0,0,0,-1,1364,1632,0,0
147,-608,0,0,0,0,0,0,0,0,0,-1,1371,1632,0,0
154,-608,0,0,0,0,0,0,0,0,0,-1,1378,1632,0,0
161,-608,0,0,0,0,0,0,0,0,0,-1,1385,1632,0,0
168,-608,0,0,0,0,0,0,0,0,0,-1,1392,1632,0,0
175,-608,0,0,0,0,0,0,0,0,0,-1,1399,1632,0,0
182,-608,0,0,0,0,0,0,0,0,0,-1,1406,1632,0,0
189,-608,0,0,0,0,0,0,0,0,0,-1,1413,1632,0,0
196,-608,0,0,0,0,0,0,0,0,0,-1,1420,1632,0,0
203,-608,0,0,0,0,0,0,0,0,0,-1,1427,1632,0,0
210,-608,5.7157,-0.333008,0,0,0,0,0,0,0,-1,1434,1632,5.71566,0.333004
217,-608,4.49402,-0.831787,0,0,0,0,0,0,0,-1,1441,1632,4.49396,0.831738
224,-608,4.18018,-1.11792,0,0,0,0,0,0,0,-1,1448,1632,4.1802,1.11796
231,-608,0.361816,0.825195,0,0,0,0,0,0,0,-1,1455,1632,0.36185,-0.825226
238,-608,2.85388,-0.28833,0,0,0,0,0,0,0,-1,1462,1632,2.85391,0.288282
245,-608,3.87537,4.02173,0,0,0,0,0,0,0,-1,1469,1632,3.87538,-4.02168
252,-608,5.66956,3.5282,0,0,0,0,0,0,0,-1,1476,1632,5.6696,-3.52815
259,-608,7.47437,3.07178,0,0,0,0,0,0,0,-1,1483,1632,7.4744,-3.07172
266,-608,9.46936,2.34766,0,0,0,0,0,0,0,-1,1490,1632,9.46932,-2.34764
273,-608,6.03003,3.34241,0,0,0,0,0,0,0,-1,1497,1632,6.02997,-3.34245
280,-608,5.72461,2.0769,0,0,0,0,0,0,0,-1,1504,1632,5.72457,-2.07688
287,-608,6.20581,3.59338,0,0,0,0,0,0,0,-1,1511,1632,6.20585,-3.59341
294,-608,6.94922,5.17151,0,0,0,0,0,0,0,-1,1518,1632,6.94925,-5.17151
301,-608,7.60083,6.68018,0,0,0,0,0,0,0,-1,1525,1632,7.60086,-6.68013
308,-608,7.64746,9.93848,0,0,0,0,0,0,0,-1,1532,1632,7.64745,-9.93842
315,-608,5.30688,11.2054,0,0,0,0,0,0,0,-1,1539,1632,5.30694,-11.2054
322,-608,5.32617,13.7581,0,0,0,0,0,0,0,-1,1546,1632,5.32613,-13.758
329,-608,7.12231,13.9607,0,0,0,0,0,0,0,-1,1553,1632,7.12231,-13.9607
336,-608,5.48633,7.82446,0,0,0,0,0,0,0,-1,1560,1632,5.48634,-7.82446
343,-608,5.47192,5.61047,0,0,0,0,0,0,0,-1,1567,1632,5.47192,-5.61045
350,-608,11.6957,1.71387,0,0,0,0,0,0,0,-1,1574,1632,11.6957,-1.71388
357,-608,3.77002,5.10046,0,0,0,0,0,0,0,-1,1581,1632,3.77002,-5.10043
364,-608,12.2728,32.3684,0,0,0,0,0,0,0,-1,1588,1632,12.2728,-32.3684
371,-608,12.2732,31.5935,0,0,0,0,0,0,0,-1,1595,1632,12.2732,-31.5935
378,-608,12.3491,30.7253,0.00489956,0.0188963,-0.00616196,0.0212225,0.0025734,-1.20983,0.0133733,0.0421439,1602,1632,12.3491,-30.7253
385,-608,12.5582,30.0114,0.00369178,0.0164478,-0.00524902,0.01833,0.00180957,-1.2265,0.0116637,0.03803,1609,1632,12.5582,-30.0114
392,-608,12.5613,29.5189,0.00259385,0.0141993,-0.00420768,0.0155643,0.00122885,-1.2571,0.00999179,0.021591,1616,1632,12.5613,-29.5189
399,-608,12.5961,29.1023,0.00179341,0.012083,-0.00321025,0.0130024,0.000873995,-1.29186,0.00839213,0.0105061,1623,1632,12.5961,-29.1022
406,-608,12.6138,28.7155,0.00113693,0.0101534,-0.00243479,0.0107688,0.00052146,-1.3232,0.00701187,0.00968775,1630,1632,12.6138,-28.7154
413,-608,12.6271,28.3403,0.000593386,0.00867687,-0.00188891,0.00909648,0.000173775,-1.3522,0.00600723,0.0103812,1637,1632,12.627,-28.3403
420,-608,12.6183,27.9656,0.000219695,0.00727232,-0.00142665,0.00754998,-5.7966e-05,-1.37857,0.00505275,0.0174201,1644,1632,12.6183,-27.9656
427,-608,12.6237,27.5865,3.37654e-05,0.00626634,-0.00115981,0.00647517,-0.000175064,-1.39265,0.0043763,0.0199666,1651,1632,12.6237,-27.5866
434,-608,12.5935,27.2059,-0.000135179,0.00507445,-0.000879889,0.00521905,-0.000279775,-1.40792,0.00357627,0.0166511,1658,1632,12.5935,-27.2059
441,-608,12.6088,26.8262,-0.000114358,0.00426306,-0.000848338,0.00442172,-0.000273015,-1.38591,0.0030429,0.0145719,1665,1632,12.6088,-26.8262
448,-608,12.6372,26.4404,-7.96998e-05,0.00333626,-0.000793889,0.00351174,-0.000255189,-1.35324,0.0024307,0.0162146,1672,1632,12.6372,-26.4404
455,-608,12.6416,26.0226,0.000108894,0.002499,-0.000816659,0.00275138,-0.000143493,-1.27106,0.00188391,0.0119695,1679,1632,12.6416,-26.0226
462,-608,12.6091,25.6268,0.000126556,0.00146477,-0.0006819,0.00175101,-0.000159685,-1.17336,0.00122405,0.0112553,1686,1632,12.6092,-25.6268
469,-608,12.5704,25.2466,6.79268e-05,0.000411731,-0.000543052,0.000809439,-0.000329781,-0.938683,0.000676883,0.00930344,1693,1632,12.5704,-25.2466
476,-608,12.549,24.8397,-7.82232e-05,-0.000658816,-0.000314725,5.96436e-05,-0.000796682,-0.412876,0.000552078,0.00925638,1700,1632,12.5489,-24.8397
483,-608,12.5365,24.4147,-0.00035124,-0.00181294,6.1169e-06,-0.000351215,-0.00181297,0.00418468,0.00111025,0.00865981,1707,1632,12.5365,-24.4146
490,-608,12.5449,23.9866,-0.000659224,-0.002882,0.000271404,-0.000626565,-0.00291466,0.119757,0.00177158,0.0094585,1714,1632,12.5449,-23.9866
497,-608,12.5906,23.5452,-0.00131778,-0.00383337,0.000720148,-0.00112621,-0.00402494,0.259994,0.00239774,0.0201177,1721,1632,12.5906,-23.5451
504,-608,12.5771,23.2002,-0.0021406,-0.00493367,0.00154905,-0.0014515,-0.00562277,0.418565,0.00337052,0.0461094,1728,1632,12.5772,-23.2002
511,-608,12.4075,22.9586,-0.0027991,-0.00664483,0.00230511,-0.00172014,-0.00772379,0.437781,0.00468235,0.0461192,1735,1632,12.4075,-22.9586
518,-608,12.4255,22.2615,0,0,0,0,0,0,0,-1,1742,1632,12.4256,-22.2615
525,-608,11.2109,16.2579,0,0,0,0,0,0,0,-1,1749,1632,11.2109,-16.2579
532,-608,8.27917,11.6693,0,0,0,0,0,0,0,-1,1756,1632,8.27919,-11.6694
539,-608,9.40796,1.43457,0,0,0,0,0,0,0,-1,1763,1632,9.40801,-1.43463
546,-608,9.94031,2.1134,0,0,0,0,0,0,0,-1,1770,1632,9.94031,-2.11346
553,-608,10.363,2.81335,0,0,0,0,0,0,0,-1,1777,1632,10.3631,-2.81333
560,-608,9.23999,4.5636,0,0,0,0,0,0,0,-1,1784,1632,9.24,-4.56354
567,-608,0,0,0,0,0,0,0,0,0,-1,1791,1632,0,0
574,-608,0,0,0,0,0,0,0,0,0,-1,1798,1632,0,0
581,-608,0,0,0,0,0,0,0,0,0,-1,1805,1632,0,0
588,-608,0,0,0,0,0,0,0,0,0,-1,1812,1632,0,0
595,-608,0,0,0,0,0,0,0,0,0,-1,1819,1632,0,0
602,-608,0,0,0,0,0,0,0,0,0,-1,1826,1632,0,0
609,-608,0,0,0,0,0,0,0,0,0,-1,1833,1632,0,0
616,-608,0,0,0,0,0,0,0,0,0,-1,1840,1632,0,0
623,-608,0,0,0,0,0,0,0,0,0,-1,1847,1632,0,0
630,-608,0,0,0,0,0,0,0,0,0,-1,1854,1632,0,0
637,-608,0,0,0,0,0,0,0,0,0,-1,1861,1632,0,0
644,-608,0,0,0,0,0,0,0,0,0,-1,1868,1632,0,0
651,-608,0,0,0,0,0,0,0,0,0,-1,1875,1632,0,0
658,-608,0,0,0,0,0,0,0,0,0,-1,1882,1632,0,0
665,-608,0,0,0,0,0,0,0,0,0,-1,1889,1632,0,0
672,-608,0,0,0,0,0,0,0,0,0,-1,1896,1632,0,0
679,-608,0,0,0,0,0,0,0,0,0,-1,1903,1632,0,0
686,-608,0,0,0,0,0,0,0,0,0,-1,1910,1632,0,0
693,-608,0,0,0,0,0,0,0,0,0,-1,1917,1632,0,0
700,-608,0,0,0,0,0,0,0,0,0,-1,1924,1632,0,0
707,-608,0,0,0,0,0,0,0,0,0,-1,1931,1632,0,0
714,-608,0,0,0,0,0,0,0,0,0,-1,1938,1632,0,0
721,-608,0,0,0,0,0,0,0,0,0,-1,1945,1632,0,0
728,-608,0,0,0,0,0,0,0,0,0,-1,1952,1632,0,0
735,-608,0,0,0,0,0,0,0,0,0,-1,1959,1632,0,0
742,-608,0,0,0,0,0,0,0,0,0,-1,1966,1632,0,0
749,-608,0,0,0,0,0,0,0,0,0,-1,1973,1632,0,0
756,-608,0,0,0,0,0,0,0,0,0,-1,1980,1632,0,0
763,-608,0,0,0,0,0,0,0,0,0,-1,1987,1632,0,0
770,-608,0,0,0,0,0,0,0,0,0,-1,1994,1632,0,0
777,-608,0,0,0,0,0,0,0,0,0,-1,2001,1632,0,0
784,-608,0,0,0,0,0,0,0,0,0,-1,2008,1632,0,0
791,-608,0,0,0,0,0,0,0,0,0,-1,2015,1632,0,0
798,-608,0,0,0,0,0,0,0,0,0,-1,2022,1632,0,0
805,-608,0,0,0,0,0,0,0,0,0,-1,2029,1632,0,0
812,-608,0,0,0,0,0,0,0,0,0,-1,2036,1632,0,0
-700,-615,0,0,0,0,0,0,0,0,0,-1,524,1639,0,0
-693,-615,0,0,0,0,0,0,0,0,0,-1,531,1639,0,0
-686,-615,0,0,0,0,0,0,0,0,0,-1,538,1639,0,0
-679,-615,0,0,0,0,0,0,0,0,0,-1,545,1639,0,0
-672,-615,0,0,0,0,0,0,0,0,0,-1,552,1639,0,0
-665,-615,0,0,0,0,0,0,0,0,0,-1,559,1639,0,0
-658,-615,0,0,0,0,0,0,0,0,0,-1,566,1639,0,0
-651,-615,0,0,0,0,0,0,0,0,0,-1,573,1639,0,0
-644,-615,0,0,0,0,0,0,0,0,0,-1,580,1639,0,0
-637,-615,0,0,0,0,0,0,0,0,0,-1,587,1639,0,0
-630,-615,0,0,0,0,0,0,0,0,0,-1,594,1639,0,0
-623,-615,0,0,0,0,0,0,0,0,0,-1,601,1639,0,0
-616,-615,0,0,0,0,0,0,0,0,0,-1,608,1639,0,0
-609,-615,0,0,0,0,0,0,0,0,0,-1,615,1639,0,0
-602,-615,0,0,0,0,0,0,0,0,0,-1,622,1639,0,0
-595,-615,0,0,0,0,0,0,0,0,0,-1,629,1639,0,0
-588,-615,0,0,0,0,0,0,0,0,0,-1,636,1639,0,0
-581,-615,0,0,0,0,0,0,0,0,0,-1,643,1639,0,0
-574,-615,0,0,0,0,0,0,0,0,0,-1,650,1639,0,0
-567,-615,0,0,0,0,0,0,0,0,0,-1,657,1639,0,0
-560,-615,0,0,0,0,0,0,0,0,0,-1,664,1639,0,0
-553,-615,0,0,0,0,0,0,0,0,0,-1,671,1639,0,0
-546,-615,0,0,0,0,0,0,0,0,0,-1,678,1639,0,0
-539,-615,0,0,0,0,0,0,0,0,0,-1,685,1639,0,0
-532,-615,0,0,0,0,0,0,0,0,0,-1,692,1639,0,0
-525,-615,0,0,0,0,0,0,0,0,0,-1,699,1639,0,0
-518,-615,0,0,0,0,0,0,0,0,0,-1,706,1639,0,0
-511,-615,0,0,0,0,0,0,0,0,0,-1,713,1639,0,0
-504,-615,0,0,0,0,0,0,0,0,0,-1,720,1639,0,0
-497,-615,0,0,0,0,0,0,0,0,0,-1,727,1639,0,0
-490,-615,0,0,0,0,0,0,0,0,0,-1,734,1639,0,0
-483,-615,0,0,0,0,0,0,0,0,0,-1,741,1639,0,0
-476,-615,0,0,0,0,0,0,0,0,0,-1,748,1639,0,0
-469,-615,0,0,0,0,0,0,0,0,0,-1,755,1639,0,0
-462,-615,0,0,0,0,0,0,0,0,0,-1,762,1639,0,0
-455,-615,0,0,0,0,0,0,0,0,0,-1,769,1639,0,0
-448,-615,0,0,0,0,0,0,0,0,0,-1,776,1639,0,0
-441,-615,0,0,0,0,0,0,0,0,0,-1,783,1639,0,0
-434,-615,-7.64508,2.98596,0,0,0,0,0,0,0,-1,790,1639,-7.64505,-2.98594
-427,-615,-9.0011,2.89404,0,0,0,0,0,0,0,-1,797,1639,-9.00107,-2.89399
-420,-615,-8.07568,3.0752,0,0,0,0,0,0,0,-1,804,1639,-8.07569,-3.07514
-413,-615,-7.09149,3.396,0,0,0,0,0,0,0,-1,811,1639,-7.09147,-3.39599
-406,-615,-6.21368,3.7312,0,0,0,0,0,0,0,-1,818,1639,-6.21366,-3.73114
-399,-615,-4.84875,3.91907,0,0,0,0,0,0,0,-1,825,1639,-4.84877,-3.91901
-392,-615,1.7395,13.3127,0,0,0,0,0,0,0,-1,832,1639,1.73953,-13.3128
-385,-615,3.42297,14.9401,0,0,0,0,0,0,0,-1,839,1639,3.42296,-14.94
-378,-615,2.54102,17.2609,0,0,0,0,0,0,0,-1,846,1639,2.54099,-17.2608
-371,-615,3.13629,22.0701,0,0,0,0,0,0,0,-1,853,1639,3.1363,-22.0701
-364,-615,3.12537,22.7318,-0.000488994,-0.00507215,0.00146411,-6.12077e-05,-0.00549994,0.284269,0.00364639,0.0404527,860,1639,3.12537,-22.7318
-357,-615,3.30505,23.235,-0.000213971,-0.00503317,0.000987937,-1.93068e-05,-0.00522783,0.194549,0.0034788,0.0408771,867,1639,3.30508,-23.235
-350,-615,3.18256,23.5623,4.11734e-06,-0.0045463,0.000658725,9.75565e-05,-0.00463974,0.140909,0.00312619,0.0315385,874,1639,3.18256,-23.5622
-343,-615,3.1358,23.9869,0.000200338,-0.00391138,0.000400201,0.000238929,-0.00394997,0.0961295,0.00271646,0.0201548,881,1639,3.13582,-23.9869
-336,-615,3.14368,24.448,0.000459121,-0.00327064,0.000310047,0.000484719,-0.00329624,0.0823744,0.00237561,0.0113927,888,1639,3.14365,-24.448
-329,-615,3.10602,24.9019,0.000657256,-0.00249139,0.000245224,0.00067624,-0.00251038,0.0772614,0.00193872,0.0111587,895,1639,3.10603,-24.9018
-322,-615,3.07855,25.3448,0.000769215,-0.00176419,0.000234144,0.000790674,-0.00178565,0.0913912,0.00152397,0.0117022,902,1639,3.07856,-25.3448
-315,-615,3.0802,25.7787,0.000911601,-0.000977452,0.000277528,0.000951529,-0.00101738,0.142892,0.00113696,0.0140599,909,1639,3.08019,-25.7787
-308,-615,3.03326,26.1929,0.00110919,-0.000159399,0.000304495,0.00117849,-0.0002287,0.223783,0.000871947,0.0207163,916,1639,3.03325,-26.1928
-301,-615,3.04944,26.5645,0.00152027,0.000516097,0.000524715,0.00174442,0.000291949,0.403716,0.00107888,0.0124896,923,1639,3.04944,-26.5644
-294,-615,3.05914,26.9701,0.00213671,0.00139005,0.00107459,0.00290097,0.000625787,0.618213,0.00176281,0.0105225,930,1639,3.05914,-26.9701
-287,-615,3.02893,27.382,0.00266999,0.00234242,0.00155247,0.00406729,0.000945114,0.732843,0.00245783,0.00821417,937,1639,3.02893,-27.382
-280,-615,3.03571,27.7832,0.00333224,0.00314014,0.00211412,0.00535249,0.00111989,0.762697,0.00325979,0.00956421,944,1639,3.03569,-27.7832
-273,-615,3.02258,28.1924,0.00410789,0.00401964,0.00280812,0.00687224,0.00125529,0.777543,0.00422567,0.0105492,951,1639,3.0226,-28.1923
-266,-615,3.01019,28.5823,0.00489692,0.00486699,0.0035488,0.00843079,0.00133312,0.783289,0.00523306,0.0101696,958,1639,3.01019,-28.5822
-259,-615,3.04706,28.9475,0.00573004,0.00548154,0.00435951,0.00996706,0.00124451,0.771151,0.00627117,0.0115556,965,1639,3.04705,-28.9476
-252,-615,3.06787,29.3724,0.00665213,0.00621184,0.00524396,0.0116806,0.00118341,0.76442,0.00742408,0.0153405,972,1639,3.06787,-29.3724
-245,-615,3.15253,29.8937,0.00746029,0.00710195,0.00614435,0.0134281,0.00113416,0.770822,0.00859897,0.0228373,979,1639,3.15251,-29.8937
-238,-615,3.14471,30.3616,0.00809092,0.00794782,0.00684022,0.01486,0.00117878,0.780168,0.00953803,0.0347119,986,1639,3.14474,-30.3616
-231,-615,3.1449,30.9071,0,0,0,0,0,0,0,-1,993,1639,3.14492,-30.907
-224,-615,3.46838,30.8065,0,0,0,0,0,0,0,-1,1000,1639,3.4684,-30.8065
-217,-615,3.99097,27.3737,0,0,0,0,0,0,0,-1,1007,1639,3.99096,-27.3736
-210,-615,2.48901,18.9324,0,0,0,0,0,0,0,-1,1014,1639,2.48902,-18.9323
-203,-615,2.13684,18.6173,0,0,0,0,0,0,0,-1,1021,1639,2.13683,-18.6173
-196,-615,4.27161,21.3264,0,0,0,0,0,0,0,-1,1028,1639,4.27165,-21.3264
-189,-615,1.8269,19.6761,0,0,0,0,0,0,0,-1,1035,1639,1.82691,-19.6761
-182,-615,1.63489,20.2278,0,0,0,0,0,0,0,-1,1042,1639,1.63492,-20.2277
-175,-615,-0.609985,13.8434,0,0,0,0,0,0,0,-1,1049,1639,-0.610016,-13.8434
-168,-615,3.85754,15.472,0,0,0,0,0,0,0,-1,1056,1639,3.85757,-15.472
-161,-615,2.44141,28.2932,0,0,0,0,0,0,0,-1,1063,1639,2.44135,-28.2933
-154,-615,2.42737,24.3593,0,0,0,0,0,0,0,-1,1070,1639,2.42742,-24.3593
-147,-615,1.52502,17.3442,0,0,0,0,0,0,0,-1,1077,1639,1.52501,-17.3442
-140,-615,3.73401,10.2349,0,0,0,0,0,0,0,-1,1084,1639,3.73402,-10.2348
-133,-615,2.6178,17.45,0,0,0,0,0,0,0,-1,1091,1639,2.61776,-17.4499
-126,-615,4.43408,12.5017,0,0,0,0,0,0,0,-1,1098,1639,4.43403,-12.5018
-119,-615,4.82983,13.9279,0,0,0,0,0,0,0,-1,1105,1639,4.82986,-13.9278
-112,-615,3.65698,14.4874,0,0,0,0,0,0,0,-1,1112,1639,3.65695,-14.4875
-105,-615,0.958496,2.45398,0,0,0,0,0,0,0,-1,1119,1639,0.958452,-2.45398
-98,-615,-0.647705,2.12109,0,0,0,0,0,0,0,-1,1126,1639,-0.647756,-2.12105
-91,-615,-3.07983,2.97375,0,0,0,0,0,0,0,-1,1133,1639,-3.07989,-2.97376
-84,-615,-2.46509,0.703247,0,0,0,0,0,0,0,-1,1140,1639,-2.46505,-0.703273
-77,-615,-3.17859,1.23755,0,0,0,0,0,0,0,-1,1147,1639,-3.17865,-1.23752
-70,-615,-4.03943,1.43335,0,0,0,0,0,0,0,-1,1154,1639,-4.03942,-1.43339
-63,-615,-4.8877,1.45544,0,0,0,0,0,0,0,-1,1161,1639,-4.88766,-1.45549
-56,-615,0,0,0,0,0,0,0,0,0,-1,1168,1639,0,0
-49,-615,0,0,0,0,0,0,0,0,0,-1,1175,1639,0,0
-42,-615,0,0,0,0,0,0,0,0,0,-1,1182,1639,0,0
-35,-615,0,0,0,0,0,0,0,0,0,-1,1189,1639,0,0
-28,-615,0,0,0,0,0,0,0,0,0,-1,1196,1639,0,0
-21,-615,0,0,0,0,0,0,0,0,0,-1,1203,1639,0,0
-14,-615,0,0,0,0,0,0,0,0,0,-1,1210,1639,0,0
-7,-615,0,0,0,0,0,0,0,0,0,-1,1217,1639,0,0
0,-615,0,0,0,0,0,0,0,0,0,-1,1224,1639,0,0
7,-615,0,0,0,0,0,0,0,0,0,-1,1231,1639,0,0
14,-615,0,0,0,0,0,0,0,0,0,-1,1238,1639,0,0
21,-615,0,0,0,0,0,0,0,0,0,-1,1245,1639,0,0
28,-615,0,0,0,0,0,0,0,0,0,-1,1252,1639,0,0
35,-615,0,0,0,0,0,0,0,0,0,-1,1259,1639,0,0
42,-615,0,0,0,0,0,0,0,0,0,-1,1266,1639,0,0
49,-615,0,0,0,0,0,0,0,0,0,-1,1273,1639,0,0
56,-615,0,0,0,0,0,0,0,0,0,-1,1280,1639,0,0
63,-615,0,0,0,0,0,0,0,0,0,-1,1287,1639,0,0
70,-615,0,0,0,0,0,0,0,0,0,-1,1294,1639,0,0
77,-615,0,0,0,0,0,0,0,0,0,-1,1301,1639,0,0
84,-615,0,0,0,0,0,0,0,0,0,-1,1308,1639,0,0
91,-615,0,0,0,0,0,0,0,0,0,-1,1315,1639,0,0
98,-615,0,0,0,0,0,0,0,0,0,-1,1322,1639,0,0
105,-615,0,0,0,0,0,0,0,0,0,-1,1329,1639,0,0
112,-615,0,0,0,0,0,0,0,0,0,-1,1336,1639,0,0
119,-615,0,0,0,0,0,0,0,0,0,-1,1343,1639,0,0
126,-615,0,0,0,0,0,0,0,0,0,-1,1350,1639,0,0
133,-615,0,0,0,0,0,0,0,0,0,-1,1357,1639,0,0
140,-615,0,0,0,0,0,0,0,0,0,-1,1364,1639,0,0
147,-615,0,0,0,0,0,0,0,0,0,-1,1371,1639,0,0
154,-615,0,0,0,0,0,0,0,0,0,-1,1378,1639,0,0
161,-615,0,0,0,0,0,0,0,0,0,-1,1385,1639,0,0
168,-615,0,0,0,0,0,0,0,0,0,-1,1392,1639,0,0
175,-615,5.39648,-2.00879,0,0,0,0,0,0,0,-1,1399,1639,5.3965,2.00881
182,-615,5.65393,-1.51025,0,0,0,0,0,0,0,-1,1406,1639,5.65388,1.51028
189,-615,5.58972,-1.35608,0,0,0,0,0,0,0,-1,1413,1639,5.58967,1.35607
196,-615,5.49915,-0.693604,0,0,0,0,0,0,0,-1,1420,1639,5.4991,0.693602
203,-615,5.33411,-0.226685,0,0,0,0,0,0,0,-1,1427,1639,5.33414,0.226689
210,-615,5.60278,0.108276,0,0,0,0,0,0,0,-1,1434,1639,5.60284,-0.10831
217,-615,6.26331,-0.307373,0,0,0,0,0,0,0,-1,1441,1639,6.26331,0.307372
224,-615,5.45422,-0.333984,0,0,0,0,0,0,0,-1,1448,1639,5.45422,0.333992
231,-615,4.92542,1.80298,0,0,0,0,0,0,0,-1,1455,1639,4.92537,-1.80297
238,-615,4.76355,1.96729,0,0,0,0,0,0,0,-1,1462,1639,4.76357,-1.96734
245,-615,4.08643,3.15906,0,0,0,0,0,0,0,-1,1469,1639,4.08638,-3.159
252,-615,6.37805,3.73889,0,0,0,0,0,0,0,-1,1476,1639,6.37806,-3.73891
259,-615,8.35974,3.16443,0,0,0,0,0,0,0,-1,1483,1639,8.35975,-3.16444
266,-615,10.3414,2.58997,0,0,0,0,0,0,0,-1,1490,1639,10.3414,-2.58996
273,-615,6.57043,1.84766,0,0,0,0,0,0,0,-1,1497,1639,6.5704,-1.84771
280,-615,7.10449,3.23438,0,0,0,0,0,0,0,-1,1504,1639,7.10447,-3.23435
287,-615,7.35779,4.68542,0,0,0,0,0,0,0,-1,1511,1639,7.35776,-4.68546
294,-615,7.63733,6.29114,0,0,0,0,0,0,0,-1,1518,1639,7.63735,-6.29109
301,-615,8.47925,11.452,0,0,0,0,0,0,0,-1,1525,1639,8.47922,-11.452
308,-615,6.8114,10.9059,0,0,0,0,0,0,0,-1,1532,1639,6.81137,-10.9058
315,-615,5.1427,14.7251,0,0,0,0,0,0,0,-1,1539,1639,5.14269,-14.7251
322,-615,7.17981,17.6864,0,0,0,0,0,0,0,-1,1546,1639,7.17985,-17.6864
329,-615,7.62134,20.4354,0,0,0,0,0,0,0,-1,1553,1639,7.62139,-20.4354
336,-615,6.45007,14.1138,0,0,0,0,0,0,0,-1,1560,1639,6.45011,-14.1138
343,-615,2.40491,6.50134,0,0,0,0,0,0,0,-1,1567,1639,2.40489,-6.50137
350,-615,6.4458,15.4594,0,0,0,0,0,0,0,-1,1574,1639,6.44578,-15.4593
357,-615,11.8376,32.1808,0,0,0,0,0,0,0,-1,1581,1639,11.8376,-32.1807
364,-615,12.1252,31.6312,0,0,0,0,0,0,0,-1,1588,1639,12.1252,-31.6312
371,-615,12.3027,30.621,0,0,0,0,0,0,0,-1,1595,1639,12.3027,-30.621
378,-615,12.2356,30.191,0.00421792,0.0146766,-0.00449106,0.0163404,0.0025541,-1.216,0.0101499,0.0227171,1602,1639,12.2356,-30.191
385,-615,12.1989,29.7946,0.00332958,0.0128758,-0.00392546,0.0142827,0.00192274,-1.22667,0.00894997,0.0131162,1609,1639,12.1989,-29.7946
392,-615,12.2275,29.4484,0.00253014,0.011101,-0.00324438,0.0121906,0.00144055,-1.24679,0.00769196,0.0109078,1616,1639,12.2276,-29.4484
399,-615,12.2245,29.0896,0.00188233,0.00931661,-0.00253137,0.0100967,0.00110225,-1.27187,0.00639545,0.0118337,1623,1639,12.2245,-29.0896
406,-615,12.2313,28.7239,0.00128313,0.00769032,-0.00193928,0.00823156,0.000741885,-1.29863,0.00525789,0.011212,1630,1639,12.2314,-28.7239
413,-615,12.2321,28.3567,0.0007742,0.0063927,-0.00149585,0.00676613,0.000400772,-1.32615,0.00438327,0.0121945,1637,1639,12.232,-28.3567
420,-615,12.2334,27.986,0.000378467,0.00510856,-0.00108685,0.00534634,0.000140688,-1.35541,0.00351827,0.013731,1644,1639,12.2333,-27.986
427,-615,12.2368,27.5997,0.000162967,0.00424353,-0.000852665,0.00441453,-8.03755e-06,-1.37287,0.0029457,0.0154265,1651,1639,12.2369,-27.5997
434,-615,12.2305,27.2148,-5.99109e-05,0.00322234,-0.000621326,0.00333602,-0.00017359,-1.38984,0.00228407,0.0145851,1658,1639,12.2305,-27.2149
441,-615,12.241,26.8229,-0.000115858,0.00256107,-0.000602848,0.00269057,-0.000245355,-1.3592,0.00188084,0.0150857,1665,1639,12.241,-26.8229
448,-615,12.2496,26.4501,-0.000111166,0.00181332,-0.00055822,0.00196351,-0.000261362,-1.30796,0.00140426,0.0160023,1672,1639,12.2496,-26.4501
455,-615,12.2335,26.0654,-1.62847e-05,0.00113625,-0.00056964,0.00137027,-0.00025031,-1.18099,0.00100737,0.0147569,1679,1639,12.2335,-26.0654
462,-615,12.2036,25.6758,-6.23944e-05,0.000245676,-0.000452859,0.00056998,-0.000386699,-0.94933,0.000555707,0.0145405,1686,1639,12.2036,-25.6758
469,-615,12.1713,25.2764,-0.00010968,-0.000617304,-0.000338808,5.98419e-05,-0.000786826,-0.463926,0.000545593,0.0124338,1693,1639,12.1713,-25.2764
476,-615,12.1608,24.8475,-0.000210761,-0.00150795,-0.000139051,-0.000196023,-0.00152269,-0.105596,0.000956503,0.011517,1700,1639,12.1608,-24.8475
483,-615,12.171,24.3773,-0.000481792,-0.00245162,0.000183757,-0.000464797,-0.00246862,0.0922255,0.00151477,0.0185016,1707,1639,12.171,-24.3773
490,-615,12.155,23.9802,-0.000789189,-0.00338605,0.000392292,-0.000731222,-0.00344402,0.146704,0.00209524,0.0255516,1714,1639,12.155,-23.9802
497,-615,12.1066,23.6921,-0.00147627,-0.00418174,0.000854511,-0.00122898,-0.00442903,0.281698,0.00264016,0.0378455,1721,1639,12.1066,-23.6922
504,-615,11.8955,23.2831,0,0,0,0,0,0,0,-1,1728,1639,11.8955,-23.2831
511,-615,11.978,23.0962,0,0,0,0,0,0,0,-1,1735,1639,11.978,-23.0962
518,-615,13.2416,9.81812,0,0,0,0,0,0,0,-1,1742,1639,13.2416,-9.81813
525,-615,4.37524,3.90491,0,0,0,0,0,0,0,-1,1749,1639,4.37518,-3.90495
532,-615,7.3645,0.848145,0,0,0,0,0,0,0,-1,1756,1639,7.36451,-0.848093
539,-615,12.8112,-0.0476074,0,0,0,0,0,0,0,-1,1763,1639,12.8111,0.0475553
546,-615,8.33813,2.94556,0,0,0,0,0,0,0,-1,1770,1639,8.33813,-2.9455
553,-615,5.82532,-2.04199,0,0,0,0,0,0,0,-1,1777,1639,5.82534,2.04195
560,-615,0,0,0,0,0,0,0,0,0,-1,1784,1639,0,0
567,-615,0,0,0,0,0,0,0,0,0,-1,1791,1639,0,0
574,-615,0,0,0,0,0,0,0,0,0,-1,1798,1639,0,0
581,-615,0,0,0,0,0,0,0,0,0,-1,1805,1639,0,0
588,-615,0,0,0,0,0,0,0,0,0,-1,1812,1639,0,0
595,-615,0,0,0,0,0,0,0,0,0,-1,1819,1639,0,0
602,-615,0,0,0,0,0,0,0,0,0,-1,1826,1639,0,0
609,-615,0,0,0,0,0,0,0,0,0,-1,1833,1639,0,0
616,-615,0,0,0,0,0,0,0,0,0,-1,1840,1639,0,0
623,-615,0,0,0,0,0,0,0,0,0,-1,1847,1639,0,0
630,-615,0,0,0,0,0,0,0,0,0,-1,1854,1639,0,0
637,-615,0,0,0,0,0,0,0,0,0,-1,1861,1639,0,0
644,-615,0,0,0,0,0,0,0,0,0,-1,1868,1639,0,0
651,-615,0,0,0,0,0,0,0,0,0,-1,1875,1639,0,0
658,-615,0,0,0,0,0,0,0,0,0,-1,1882,1639,0,0
665,-615,0,0,0,0,0,0,0,0,0,-1,1889,1639,0,0
672,-615,0,0,0,0,0,0,0,0,0,-1,1896,1639,0,0
679,-615,0,0,0,0,0,0,0,0,0,-1,1903,1639,0,0
686,-615,0,0,0,0,0,0,0,0,0,-1,1910,1639,0,0
693,-615,0,0,0,0,0,0,0,0,0,-1,1917,1639,0,0
700,-615,0,0,0,0,0,0,0,0,0,-1,1924,1639,0,0
707,-615,0,0,0,0,0,0,0,0,0,-1,1931,1639,0,0
714,-615,0,0,0,0,0,0,0,0,0,-1,1938,1639,0,0
721,-615,0,0,0,0,0,0,0,0,0,-1,1945,1639,0,0
728,-615,0,0,0,0,0,0,0,0,0,-1,1952,1639,0,0
735,-615,0,0,0,0,0,0,0,0,0,-1,1959,1639,0,0
742,-615,0,0,0,0,0,0,0,0,0,-1,1966,1639,0,0
749,-615,0,0,0,0,0,0,0,0,0,-1,1973,1639,0,0
756,-615,0,0,0,0,0,0,0,0,0,-1,1980,1639,0,0
763,-615,0,0,0,0,0,0,0,0,0,-1,1987,1639,0,0
770,-615,0,0,0,0,0,0,0,0,0,-1,1994,1639,0,0
777,-615,0,0,0,0,0,0,0,0,0,-1,2001,1639,0,0
784,-615,0,0,0,0,0,0,0,0,0,-1,2008,1639,0,0
791,-615,0,0,0,0,0,0,0,0,0,-1,2015,1639,0,0
798,-615,0,0,0,0,0,0,0,0,0,-1,2022,1639,0,0
805,-615,0,0,0,0,0,0,0,0,0,-1,2029,1639,0,0
812,-615,0,0,0,0,0,0,0,0,0,-1,2036,1639,0,0
-700,-622,0,0,0,0,0,0,0,0,0,-1,524,1646,0,0
-693,-622,0,0,0,0,0,0,0,0,0,-1,531,1646,0,0
-686,-622,0,0,0,0,0,0,0,0,0,-1,538,1646,0,0
-679,-622,0,0,0,0,0,0,0,0,0,-1,545,1646,0,0
-672,-622,0,0,0,0,0,0,0,0,0,-1,552,1646,0,0
-665,-622,0,0,0,0,0,0,0,0,0,-1,559,1646,0,0
-658,-622,0,0,0,0,0,0,0,0,0,-1,566,1646,0,0
-651,-622,0,0,0,0,0,0,0,0,0,-1,573,1646,0,0
-644,-622,0,0,0,0,0,0,0,0,0,-1,580,1646,0,0
-637,-622,0,0,0,0,0,0,0,0,0,-1,587,1646,0,0
-630,-622,0,0,0,0,0,0,0,0,0,-1,594,1646,0,0
-623,-622,0,0,0,0,0,0,0,0,0,-1,601,1646,0,0
-616,-622,0,0,0,0,0,0,0,0,0,-1,608,1646,0,0
-609,-622,0,0,0,0,0,0,0,0,0,-1,615,1646,0,0
-602,-622,0,0,0,0,0,0,0,0,0,-1,622,1646,0,0
-595,-622,0,0,0,0,0,0,0,0,0,-1,629,1646,0,0
-588,-622,0,0,0,0,0,0,0,0,0,-1,636,1646,0,0
-581,-622,0,0,0,0,0,0,0,0,0,-1,643,1646,0,0
-574,-622,0,0,0,0,0,0,0,0,0,-1,650,1646,0,0
-567,-622,0,0,0,0,0,0,0,0,0,-1,657,1646,0,0
-560,-622,0,0,0,0,0,0,0,0,0,-1,664,1646,0,0
-553,-622,0,0,0,0,0,0,0,0,0,-1,671,1646,0,0
-546,-622,0,0,0,0,0,0,0,0,0,-1,678,1646,0,0
-539,-622,0,0,0,0,0,0,0,0,0,-1,685,1646,0,0
-532,-622,0,0,0,0,0,0,0,0,0,-1,692,1646,0,0
-525,-622,0,0,0,0,0,0,0,0,0,-1,699,1646,0,0
-518,-622,0,0,0,0,0,0,0,0,0,-1,706,1646,0,0
-511,-622,0,0,0,0,0,0,0,0,0,-1,713,1646,0,0
-504,-622,0,0,0,0,0,0,0,0,0,-1,720,1646,0,0
-497,-622,0,0,0,0,0,0,0,0,0,-1,727,1646,0,0
-490,-622,0,0,0,0,0,0,0,0,0,-1,734,1646,0,0
-483,-622,0,0,0,0,0,0,0,0,0,-1,741,1646,0,0
-476,-622,0,0,0,0,0,0,0,0,0,-1,748,1646,0,0
-469,-622,0,0,0,0,0,0,0,0,0,-1,755,1646,0,0
-462,-622,0,0,0,0,0,0,0,0,0,-1,762,1646,0,0
-455,-622,0,0,0,0,0,0,0,0,0,-1,769,1646,0,0
-448,-622,0,0,0,0,0,0,0,0,0,-1,776,1646,0,0
-441,-622,0,0,0,0,0,0,0,0,0,-1,783,1646,0,0
-434,-622,0,0,0,0,0,0,0,0,0,-1,790,1646,0,0
-427,-622,-7.62891,3.48096,0,0,0,0,0,0,0,-1,797,1646,-7.62892,-3.48092
-420,-622,-9.35791,1.77185,0,0,0,0,0,0,0,-1,804,1646,-9.35789,-1.77183
-413,-622,-8.46075,1.96777,0,0,0,0,0,0,0,-1,811,1646,-8.46074,-1.96774
-406,-622,-4.44318,2.16858,0,0,0,0,0,0,0,-1,818,1646,-4.44315,-2.16859
-399,-622,-7.06976,1.51001,0,0,0,0,0,0,0,-1,825,1646,-7.06976,-1.51005
-392,-622,3.89551,5.85376,0,0,0,0,0,0,0,-1,832,1646,3.8955,-5.85379
-385,-622,2.00543,14.0448,0,0,0,0,0,0,0,-1,839,1646,2.00544,-14.0448
-378,-622,1.49036,15.3436,0,0,0,0,0,0,0,-1,846,1646,1.49033,-15.3436
-371,-622,3.23883,20.4496,0,0,0,0,0,0,0,-1,853,1646,3.23886,-20.4496
-364,-622,3.26099,22.6504,0,0,0,0,0,0,0,-1,860,1646,3.26099,-22.6504
-357,-622,3.67535,23.1572,0,0,0,0,0,0,0,-1,867,1646,3.67534,-23.1572
-350,-622,3.55518,23.5452,0,0,0,0,0,0,0,-1,874,1646,3.5552,-23.5452
-343,-622,3.56311,24.0254,0.000616032,-0.00582008,8.71891e-05,0.000617213,-0.00582126,0.0135436,0.00410208,0.0259818,881,1646,3.56314,-24.0254
-336,-622,3.54987,24.479,0.000759246,-0.00514404,-5.93057e-05,0.000759841,-0.00514464,-0.0100449,0.00370908,0.0101105,888,1646,3.54986,-24.479
-329,-622,3.51447,24.8969,0.000819818,-0.00436421,-0.000177678,0.000825901,-0.00437029,-0.0342207,0.00322428,0.00885782,895,1646,3.51449,-24.8969
-322,-622,3.48962,25.3346,0.000809144,-0.00365099,-0.000240586,0.000822084,-0.00366393,-0.0537336,0.0027578,0.00987421,902,1646,3.48964,-25.3346
-315,-622,3.47845,25.7758,0.000825754,-0.00286428,-0.000240431,0.000841354,-0.00287988,-0.0647918,0.00225335,0.0140106,909,1646,3.47846,-25.7757
-308,-622,3.46503,26.1881,0.000881802,-0.0019693,-0.000236747,0.000901327,-0.00198883,-0.0822859,0.00170755,0.0151788,916,1646,3.46501,-26.1881
-301,-622,3.46991,26.5768,0.00113765,-0.00115715,-4.2118e-05,0.00113842,-0.00115792,-0.0183454,0.00132581,0.0135503,923,1646,3.46994,-26.5768
-294,-622,3.46082,26.9786,0.00158052,-0.000231824,0.000400951,0.00166526,-0.000316565,0.208286,0.00122936,0.0100594,930,1646,3.46079,-26.9786
-287,-622,3.44257,27.3822,0.00196784,0.000784433,0.000823644,0.00239029,0.000361986,0.473914,0.00148762,0.00842948,937,1646,3.44255,-27.3822
-280,-622,3.43304,27.7776,0.00244594,0.00166874,0.00130577,0.00341971,0.00069497,0.640771,0.00208708,0.009392,944,1646,3.43306,-27.7776
-273,-622,3.43469,28.1671,0.003002,0.00259322,0.00186268,0.00467147,0.000923749,0.730753,0.00285662,0.0128987,951,1646,3.43472,-28.1671
-266,-622,3.41034,28.5643,0.00359779,0.00349344,0.00246286,0.00600903,0.0010822,0.774807,0.00369844,0.0119887,958,1646,3.41032,-28.5643
-259,-622,3.42633,28.9659,0.0042346,0.00428223,0.00308508,0.00734358,0.00117324,0.789258,0.00455529,0.0113132,965,1646,3.42633,-28.9659
-252,-622,3.4411,29.3242,0.00488585,0.00506622,0.00370734,0.00868447,0.0012676,0.797559,0.00541678,0.0121882,972,1646,3.44108,-29.3243
-245,-622,3.49408,29.703,0.00548793,0.00585379,0.00428818,0.00996294,0.00137878,0.806715,0.0062334,0.0104204,979,1646,3.49409,-29.703
-238,-622,3.48297,30.0917,0.00600154,0.00653675,0.00465723,0.0109341,0.00160423,0.814097,0.00681784,0.0141398,986,1646,3.48294,-30.0916
-231,-622,3.56616,30.5072,0,0,0,0,0,0,0,-1,993,1646,3.56614,-30.5072
-224,-622,3.66095,30.7878,0,0,0,0,0,0,0,-1,1000,1646,3.66094,-30.7879
-217,-622,3.76459,31.251,0,0,0,0,0,0,0,-1,1007,1646,3.76458,-31.251
-210,-622,3.87927,28.0903,0,0,0,0,0,0,0,-1,1014,1646,3.87925,-28.0903
-203,-622,4.21375,20.9574,0,0,0,0,0,0,0,-1,1021,1646,4.21375,-20.9574
-196,-622,4.18518,21.2491,0,0,0,0,0,0,0,-1,1028,1646,4.18521,-21.2491
-189,-622,4.98254,25.8979,0,0,0,0,0,0,0,-1,1035,1646,4.98255,-25.8979
-182,-622,2.21411,20.6752,0,0,0,0,0,0,0,-1,1042,1646,2.21416,-20.6751
-175,-622,2.56091,11.0195,0,0,0,0,0,0,0,-1,1049,1646,2.56095,-11.0195
-168,-622,3.31055,28.6663,0,0,0,0,0,0,0,-1,1056,1646,3.31055,-28.6663
-161,-622,4.31458,34.1837,0,0,0,0,0,0,0,-1,1063,1646,4.31454,-34.1838
-154,-622,3.02039,29.4987,0,0,0,0,0,0,0,-1,1070,1646,3.02035,-29.4986
-147,-622,3.7146,25.5477,0,0,0,0,0,0,0,-1,1077,1646,3.71464,-25.5478
-140,-622,3.27515,16.0353,0,0,0,0,0,0,0,-1,1084,1646,3.27519,-16.0353
-133,-622,3.09644,17.677,0,0,0,0,0,0,0,-1,1091,1646,3.09638,-17.677
-126,-622,3.5061,19.5251,0,0,0,0,0,0,0,-1,1098,1646,3.50616,-19.5252
-119,-622,4.06384,13.1715,0,0,0,0,0,0,0,-1,1105,1646,4.06379,-13.1716
-112,-622,4.33276,14.6605,0,0,0,0,0,0,0,-1,1112,1646,4.33281,-14.6605
-105,-622,0.306519,4.38159,0,0,0,0,0,0,0,-1,1119,1646,0.306536,-4.38159
-98,-622,-0.510376,3.5033,0,0,0,0,0,0,0,-1,1126,1646,-0.510393,-3.50324
-91,-622,-1.146,0.975952,0,0,0,0,0,0,0,-1,1133,1646,-1.14599,-0.97597
-84,-622,-2.04895,1.31787,0,0,0,0,0,0,0,-1,1140,1646,-2.0489,-1.31781
-77,-622,-1.80627,0.332275,0,0,0,0,0,0,0,-1,1147,1646,-1.80622,-0.33223
-70,-622,-3.65588,2.28149,0,0,0,0,0,0,0,-1,1154,1646,-3.65589,-2.28155
-63,-622,-2.49683,1.27087,0,0,0,0,0,0,0,-1,1161,1646,-2.49679,-1.27093
-56,-622,-2.44238,-0.575562,0,0,0,0,0,0,0,-1,1168,1646,-2.44242,0.575508
-49,-622,-2.41089,1.38818,0,0,0,0,0,0,0,-1,1175,1646,-2.41088,-1.38815
-42,-622,-2.71497,2.85242,0,0,0,0,0,0,0,-1,1182,1646,-2.71491,-2.85247
-35,-622,-3.0177,4.25842,0,0,0,0,0,0,0,-1,1189,1646,-3.01773,-4.25838
-28,-622,-0.896606,0.678833,0,0,0,0,0,0,0,-1,1196,1646,-0.89661,-0.678835
-21,-622,16.4141,36.2849,0,0,0,0,0,0,0,-1,1203,1646,16.4141,-36.285
-14,-622,14.2528,41.1599,0,0,0,0,0,0,0,-1,1210,1646,14.2529,-41.16
-7,-622,13.3898,41.3202,0,0,0,0,0,0,0,-1,1217,1646,13.3898,-41.3201
0,-622,0,0,0,0,0,0,0,0,0,-1,1224,1646,0,0
7,-622,0,0,0,0,0,0,0,0,0,-1,1231,1646,0,0
14,-622,0,0,0,0,0,0,0,0,0,-1,1238,1646,0,0
21,-622,0,0,0,0,0,0,0,0,0,-1,1245,1646,0,0
28,-622,0,0,0,0,0,0,0,0,0,-1,1252,1646,0,0
35,-622,0,0,0,0,0,0,0,0,0,-1,1259,1646,0,0
42,-622,0,0,0,0,0,0,0,0,0,-1,1266,1646,0,0
49,-622,0,0,0,0,0,0,0,0,0,-1,1273,1646,0,0
56,-622,0,0,0,0,0,0,0,0,0,-1,1280,1646,0,0
63,-622,0,0,0,0,0,0,0,0,0,-1,1287,1646,0,0
70,-622,0,0,0,0,0,0,0,0,0,-1,1294,1646,0,0
77,-622,0,0,0,0,0,0,0,0,0,-1,1301,1646,0,0
84,-622,0,0,0,0,0,0,0,0,0,-1,1308,1646,0,0
91,-622,0,0,0,0,0,0,0,0,0,-1,1315,1646,0,0
98,-622,0,0,0,0,0,0,0,0,0,-1,1322,1646,0,0
105,-622,0,0,0,0,0,0,0,0,0,-1,1329,1646,0,0
112,-622,0,0,0,0,0,0,0,0,0,-1,1336,1646,0,0
119,-622,0,0,0,0,0,0,0,0,0,-1,1343,1646,0,0
126,-622,14.3625,37.0542,0,0,0,0,0,0,0,-1,1350,1646,14.3625,-37.0542
133,-622,14.5792,37.6353,0,0,0,0,0,0,0,-1,1357,1646,14.5792,-37.6353
140,-622,13.847,38.902,0,0,0,0,0,0,0,-1,1364,1646,13.847,-38.902
147,-622,14.2314,39.2466,0,0,0,0,0,0,0,-1,1371,1646,14.2315,-39.2466
154,-622,3.34119,31.8622,0,0,0,0,0,0,0,-1,1378,1646,3.34117,-31.8622
161,-622,10.6884,6.46448,0,0,0,0,0,0,0,-1,1385,1646,10.6883,-6.46442
168,-622,12.2402,5.18091,0,0,0,0,0,0,0,-1,1392,1646,12.2403,-5.1809
175,-622,5.64355,-1.77075,0,0,0,0,0,0,0,-1,1399,1646,5.64351,1.77077
182,-622,5.88586,-1.32251,0,0,0,0,0,0,0,-1,1406,1646,5.88587,1.32256
189,-622,5.97986,-1.18005,0,0,0,0,0,0,0,-1,1413,1646,5.97986,1.18003
196,-622,5.85022,-0.244507,0,0,0,0,0,0,0,-1,1420,1646,5.85026,0.244478
203,-622,5.25159,0.138794,0,0,0,0,0,0,0,-1,1427,1646,5.25162,-0.138822
210,-622,6.66833,0.0397949,0,0,0,0,0,0,0,-1,1434,1646,6.6684,-0.0398278
217,-622,6.12061,0.0506592,0,0,0,0,0,0,0,-1,1441,1646,6.12058,-0.0507181
224,-622,5.57275,0.0616455,0,0,0,0,0,0,0,-1,1448,1646,5.57276,-0.0616084
231,-622,5.31348,1.3949,0,0,0,0,0,0,0,-1,1455,1646,5.31342,-1.39495
238,-622,3.76477,2.90686,0,0,0,0,0,0,0,-1,1462,1646,3.7648,-2.90686
245,-622,5.13794,2.67993,0,0,0,0,0,0,0,-1,1469,1646,5.13796,-2.67992
252,-622,6.66528,2.53992,0,0,0,0,0,0,0,-1,1476,1646,6.66522,-2.53991
259,-622,8.93787,3.31458,0,0,0,0,0,0,0,-1,1483,1646,8.93791,-3.31454
266,-622,5.72644,3.11926,0,0,0,0,0,0,0,-1,1490,1646,5.72647,-3.1192
273,-622,7.28076,3.61218,0,0,0,0,0,0,0,-1,1497,1646,7.28071,-3.61212
280,-622,8.43127,4.4447,0,0,0,0,0,0,0,-1,1504,1646,8.43123,-4.44467
287,-622,8.60315,5.94617,0,0,0,0,0,0,0,-1,1511,1646,8.60319,-5.94622
294,-622,7.62756,11.5143,0,0,0,0,0,0,0,-1,1518,1646,7.62762,-11.5143
301,-622,7.36548,11.6569,0,0,0,0,0,0,0,-1,1525,1646,7.36549,-11.6569
308,-622,7.10339,11.7994,0,0,0,0,0,0,0,-1,1532,1646,7.10335,-11.7995
315,-622,8.28687,16.5842,0,0,0,0,0,0,0,-1,1539,1646,8.28689,-16.5843
322,-622,7.43689,20.5786,0,0,0,0,0,0,0,-1,1546,1646,7.43685,-20.5786
329,-622,9.76477,26.4202,0,0,0,0,0,0,0,-1,1553,1646,9.7648,-26.4202
336,-622,10.4526,28.8552,0,0,0,0,0,0,0,-1,1560,1646,10.4526,-28.8552
343,-622,11.2021,31.8704,0,0,0,0,0,0,0,-1,1567,1646,11.2021,-31.8703
350,-622,11.9319,31.6614,0,0,0,0,0,0,0,-1,1574,1646,11.9319,-31.6614
357,-622,11.9723,31.1722,0,0,0,0,0,0,0,-1,1581,1646,11.9723,-31.1723
364,-622,11.8265,31.1691,0.00494582,0.0134841,-0.00416778,0.0151812,0.00324872,-1.1841,0.00923044,0.0396785,1588,1646,11.8265,-31.169
371,-622,11.8876,30.5667,0.00427105,0.0123039,-0.00374052,0.0137759,0.00279902,-1.19587,0.00840771,0.0239053,1595,1646,11.8875,-30.5666
378,-622,11.8837,30.1581,0.00352023,0.0112155,-0.0032784,0.0124228,0.00231295,-1.21795,0.00762868,0.0111916,1602,1646,11.8837,-30.158
385,-622,11.8741,29.7935,0.00284997,0.00984133,-0.0029172,0.0108987,0.00179265,-1.22308,0.00674807,0.0104067,1609,1646,11.8741,-29.7935
392,-622,11.8617,29.4573,0.0022486,0.00837392,-0.0024504,0.00923355,0.00138897,-1.2334,0.00574892,0.0119001,1616,1646,11.8617,-29.4572
399,-622,11.838,29.1027,0.00169071,0.00682139,-0.00192719,0.00746464,0.00104746,-1.24865,0.00466662,0.0117873,1623,1646,11.838,-29.1027
406,-622,11.8516,28.7301,0.00111514,0.00543355,-0.00145815,0.00587979,0.000668891,-1.27381,0.00371701,0.0139347,1630,1646,11.8516,-28.7301
413,-622,11.8553,28.3497,0.00062421,0.00427499,-0.00107065,0.00456581,0.000333393,-1.30557,0.00293905,0.0146227,1637,1646,11.8554,-28.3498
420,-622,11.8447,27.9812,0.000228373,0.00312766,-0.000715197,0.00329448,6.15473e-05,-1.34163,0.0021761,0.0149723,1644,1646,11.8447,-27.9812
427,-622,11.8539,27.6112,1.8145e-05,0.00241162,-0.000522948,0.00252089,-9.11249e-05,-1.36481,0.00171177,0.0121854,1651,1646,11.8538,-27.6112
434,-622,11.8613,27.2175,-0.000222827,0.00157695,-0.000353505,0.0016439,-0.000289771,-1.38364,0.0012042,0.0125516,1658,1646,11.8614,-27.2175
441,-622,11.8525,26.8252,-0.000316034,0.00107977,-0.000364078,0.00116903,-0.000405291,-1.33038,0.000943913,0.0148544,1665,1646,11.8525,-26.8252
448,-622,11.8333,26.4563,-0.000306845,0.000542024,-0.0003537,0.000670082,-0.000434903,-1.22342,0.000642762,0.0144058,1672,1646,11.8332,-26.4563
455,-622,11.7932,26.0432,-0.00025683,7.81705e-05,-0.00038807,0.000333346,-0.000512005,-0.989132,0.000491684,0.0160333,1679,1646,11.7932,-26.0433
462,-622,11.7998,25.6583,-0.000302542,-0.000585043,-0.000343457,-7.24241e-05,-0.000815161,-0.59031,0.00052098,0.0169305,1686,1646,11.7998,-25.6583
469,-622,11.7952,25.2894,-0.00026617,-0.00117515,-0.000316989,-0.000166546,-0.00127478,-0.304509,0.000800136,0.0184944,1693,1646,11.7952,-25.2895
476,-622,11.8427,24.876,-0.000266234,-0.00183012,-0.000183727,-0.00024494,-0.00185142,-0.115388,0.00116127,0.0234239,1700,1646,11.8427,-24.8759
483,-622,11.8137,24.4956,-0.000470895,-0.00249813,0.000102277,-0.000465748,-0.00250327,0.0502815,0.0015373,0.0348247,1707,1646,11.8138,-24.4956
490,-622,11.7686,23.9778,-0.000738552,-0.00322624,0.000213809,-0.00072031,-0.00324448,0.0851152,0.00196734,0.0390868,1714,1646,11.7685,-23.9777
497,-622,11.7361,23.9923,0,0,0,0,0,0,0,-1,1721,1646,11.7361,-23.9923
504,-622,10.8306,19.8021,0,0,0,0,0,0,0,-1,1728,1646,10.8306,-19.8022
511,-622,5.29004,4.14587,0,0,0,0,0,0,0,-1,1735,1646,5.29008,-4.14589
518,-622,5.6001,1.55359,0,0,0,0,0,0,0,-1,1742,1646,5.60015,-1.5536
525,-622,5.83093,2.01807,0,0,0,0,0,0,0,-1,1749,1646,5.83097,-2.01802
532,-622,5.44202,0.57373,0,0,0,0,0,0,0,-1,1756,1646,5.44196,-0.573705
539,-622,9.32129,1.06116,0,0,0,0,0,0,0,-1,1763,1646,9.32131,-1.0612
546,-622,6.50977,-3.45618,0,0,0,0,0,0,0,-1,1770,1646,6.50981,3.4562
553,-622,0,0,0,0,0,0,0,0,0,-1,1777,1646,0,0
560,-622,0,0,0,0,0,0,0,0,0,-1,1784,1646,0,0
567,-622,0,0,0,0,0,0,0,0,0,-1,1791,1646,0,0
574,-622,0,0,0,0,0,0,0,0,0,-1,1798,1646,0,0
581,-622,0,0,0,0,0,0,0,0,0,-1,1805,1646,0,0
588,-622,0,0,0,0,0,0,0,0,0,-1,1812,1646,0,0
595,-622,0,0,0,0,0,0,0,0,0,-1,1819,1646,0,0
602,-622,0,0,0,0,0,0,0,0,0,-1,1826,1646,0,0
609,-622,0,0,0,0,0,0,0,0,0,-1,1833,1646,0,0
616,-622,0,0,0,0,0,0,0,0,0,-1,1840,1646,0,0
623,-622,0,0,0,0,0,0,0,0,0,-1,1847,1646,0,0
630,-622,0,0,0,0,0,0,0,0,0,-1,1854,1646,0,0
637,-622,0,0,0,0,0,0,0,0,0,-1,1861,1646,0,0
644,-622,0,0,0,0,0,0,0,0,0,-1,1868,1646,0,0
651,-622,0,0,0,0,0,0,0,0,0,-1,1875,1646,0,0
658,-622,0,0,0,0,0,0,0,0,0,-1,1882,1646,0,0
665,-622,0,0,0,0,0,0,0,0,0,-1,1889,1646,0,0
672,-622,0,0,0,0,0,0,0,0,0,-1,1896,1646,0,0
679,-622,0,0,0,0,0,0,0,0,0,-1,1903,1646,0,0
686,-622,0,0,0,0,0,0,0,0,0,-1,1910,1646,0,0
693,-622,0,0,0,0,0,0,0,0,0,-1,1917,1646,0,0
700,-622,0,0,0,0,0,0,0,0,0,-1,1924,1646,0,0
707,-622,0,0,0,0,0,0,0,0,0,-1,1931,1646,0,0
714,-622,0,0,0,0,0,0,0,0,0,-1,1938,1646,0,0
721,-622,0,0,0,0,0,0,0,0,0,-1,1945,1646,0,0
728,-622,0,0,0,0,0,0,0,0,0,-1,1952,1646,0,0
735,-622,0,0,0,0,0,0,0,0,0,-1,1959,1646,0,0
742,-622,0,0,0,0,0,0,0,0,0,-1,1966,1646,0,0
749,-622,0,0,0,0,0,0,0,0,0,-1,1973,1646,0,0
756,-622,0,0,0,0,0,0,0,0,0,-1,1980,1646,0,0
763,-622,0,0,0,0,0,0,0,0,0,-1,1987,1646,0,0
770,-622,0,0,0,0,0,0,0,0,0,-1,1994,1646,0,0
777,-622,0,0,0,0,0,0,0,0,0,-1,2001,1646,0,0
784,-622,0,0,0,0,0,0,0,0,0,-1,2008,1646,0,0
791,-622,0,0,0,0,0,0,0,0,0,-1,2015,1646,0,0
798,-622,0,0,0,0,0,0,0,0,0,-1,2022,1646,0,0
805,-622,0,0,0,0,0,0,0,0,0,-1,2029,1646,0,0
812,-622,0,0,0,0,0,0,0,0,0,-1,2036,1646,0,0
-700,-629,0,0,0,0,0,0,0,0,0,-1,524,1653,0,0
-693,-629,0,0,0,0,0,0,0,0,0,-1,531,1653,0,0
-686,-629,0,0,0,0,0,0,0,0,0,-1,538,1653,0,0
-679,-629,0,0,0,0,0,0,0,0,0,-1,545,1653,0,0
-672,-629,0,0,0,0,0,0,0,0,0,-1,552,1653,0,0
-665,-629,0,0,0,0,0,0,0,0,0,-1,559,1653,0,0
-658,-629,0,0,0,0,0,0,0,0,0,-1,566,1653,0,0
-651,-629,0,0,0,0,0,0,0,0,0,-1,573,1653,0,0
-644,-629,0,0,0,0,0,0,0,0,0,-1,580,1653,0,0
-637,-629,0,0,0,0,0,0,0,0,0,-1,587,1653,0,0
-630,-629,0,0,0,0,0,0,0,0,0,-1,594,1653,0,0
-623,-629,0,0,0,0,0,0,0,0,0,-1,601,1653,0,0
-616,-629,0,0,0,0,0,0,0,0,0,-1,608,1653,0,0
-609,-629,0,0,0,0,0,0,0,0,0,-1,615,1653,0,0
-602,-629,0,0,0,0,0,0,0,0,0,-1,622,1653,0,0
-595,-629,0,0,0,0,0,0,0,0,0,-1,629,1653,0,0
-588,-629,0,0,0,0,0,0,0,0,0,-1,636,1653,0,0
-581,-629,0,0,0,0,0,0,0,0,0,-1,643,1653,0,0
-574,-629,0,0,0,0,0,0,0,0,0,-1,650,1653,0,0
-567,-629,0,0,0,0,0,0,0,0,0,-1,657,1653,0,0
-560,-629,0,0,0,0,0,0,0,0,0,-1,664,1653,0,0
-553,-629,0,0,0,0,0,0,0,0,0,-1,671,1653,0,0
-546,-629,0,0,0,0,0,0,0,0,0,-1,678,1653,0,0
-539,-629,0,0,0,0,0,0,0,0,0,-1,685,1653,0,0
-532,-629,0,0,0,0,0,0,0,0,0,-1,692,1653,0,0
-525,-629,0,0,0,0,0,0,0,0,0,-1,699,1653,0,0
-518,-629,0,0,0,0,0,0,0,0,0,-1,706,1653,0,0
-511,-629,0,0,0,0,0,0,0,0,0,-1,713,1653,0,0
-504,-629,0,0,0,0,0,0,0,0,0,-1,720,1653,0,0
-497,-629,0,0,0,0,0,0,0,0,0,-1,727,1653,0,0
-490,-629,0,0,0,0,0,0,0,0,0,-1,734,1653,0,0
-483,-629,0,0,0,0,0,0,0,0,0,-1,741,1653,0,0
-476,-629,0,0,0,0,0,0,0,0,0,-1,748,1653,0,0
-469,-629,0,0,0,0,0,0,0,0,0,-1,755,1653,0,0
-462,-629,0,0,0,0,0,0,0,0,0,-1,762,1653,0,0
-455,-629,0,0,0,0,0,0,0,0,0,-1,769,1653,0,0
-448,-629,0,0,0,0,0,0,0,0,0,-1,776,1653,0,0
-441,-629,0,0,0,0,0,0,0,0,0,-1,783,1653,0,0
-434,-629,0,0,0,0,0,0,0,0,0,-1,790,1653,0,0
-427,-629,0,0,0,0,0,0,0,0,0,-1,797,1653,0,0
-420,-629,-3.87103,3.37634,0,0,0,0,0,0,0,-1,804,1653,-3.87101,-3.37633
-413,-629,-5.69751,1.33582,0,0,0,0,0,0,0,-1,811,1653,-5.69754,-1.3358
-406,-629,2.85406,6.01501,0,0,0,0,0,0,0,-1,818,1653,2.85405,-6.01507
-399,-629,-0.455627,10.8687,0,0,0,0,0,0,0,-1,825,1653,-0.455625,-10.8687
-392,-629,1.15369,11.1295,0,0,0,0,0,0,0,-1,832,1653,1.1537,-11.1295
-385,-629,1.81976,11.6935,0,0,0,0,0,0,0,-1,839,1653,1.81975,-11.6935
-378,-629,2.19452,14.7941,0,0,0,0,0,0,0,-1,846,1653,2.19451,-14.7941
-371,-629,3.60114,14.7299,0,0,0,0,0,0,0,-1,853,1653,3.60113,-14.7299
-364,-629,3.26898,21.0801,0,0,0,0,0,0,0,-1,860,1653,3.26895,-21.08
-357,-629,4.38782,16.3444,0,0,0,0,0,0,0,-1,867,1653,4.38783,-16.3443
-350,-629,4.04144,23.6708,0,0,0,0,0,0,0,-1,874,1653,4.04143,-23.6708
-343,-629,3.97205,24.1162,0.00184073,-0.00853301,0.000180727,0.00184387,-0.00853616,0.0174145,0.00639463,0.0416775,881,1653,3.97206,-24.1162
-336,-629,3.92468,24.4822,0.00180701,-0.00779601,-3.74696e-05,0.00180716,-0.00779615,-0.00390177,0.00589292,0.0192325,888,1653,3.92469,-24.4822
-329,-629,3.95135,24.9091,0.0016714,-0.00696625,-0.000182475,0.00167525,-0.0069701,-0.021113,0.00529425,0.0119419,895,1653,3.95137,-24.9091
-322,-629,3.93231,25.3362,0.00150677,-0.00622692,-0.000275493,0.00151657,-0.00623672,-0.0355624,0.00474483,0.0115743,902,1653,3.9323,-25.3362
-315,-629,3.89423,25.7664,0.00135981,-0.0053779,-0.00032043,0.00137501,-0.0053931,-0.0474152,0.00413074,0.0149251,909,1653,3.89425,-25.7664
-308,-629,3.87915,26.1996,0.00122672,-0.00434037,-0.000353232,0.00124904,-0.00436269,-0.0631128,0.00340211,0.0127787,916,1653,3.87912,-26.1996
-301,-629,3.88464,26.6239,0.00127889,-0.00332634,-0.000212691,0.00128869,-0.00333614,-0.046054,0.00275599,0.0111089,923,1653,3.88464,-26.6239
-294,-629,3.8725,27.0115,0.00149827,-0.00225929,0.000100994,0.00150098,-0.00226201,0.0268516,0.00218732,0.011781,930,1653,3.87249,-27.0115
-287,-629,3.84406,27.4003,0.00169114,-0.00109828,0.000429989,0.00175592,-0.00116306,0.149527,0.00169682,0.00965725,937,1653,3.84408,-27.4002
-280,-629,3.83997,27.7958,0.00193824,-4.4726e-05,0.000794904,0.00221755,-0.000324034,0.337898,0.00159737,0.0099956,944,1653,3.83994,-27.7957
-273,-629,3.82935,28.1677,0.00223431,0.000977072,0.00118468,0.00294682,0.000264567,0.541474,0.00188256,0.0126976,951,1653,3.82933,-28.1678
-266,-629,3.81775,28.5657,0.00261751,0.00199106,0.00162247,0.00395672,0.000651856,0.690045,0.00244961,0.0130478,958,1653,3.81774,-28.5657
-259,-629,3.81763,28.9912,0.00304956,0.00300918,0.00206188,0.00509135,0.000967392,0.780502,0.00312213,0.0145986,965,1653,3.81763,-28.9912
-252,-629,3.83612,29.3513,0.00344306,0.00389006,0.00245869,0.00613539,0.00119773,0.830725,0.00375524,0.011123,972,1653,3.83614,-29.3513
-245,-629,3.8645,29.7249,0.00386479,0.00463832,0.00284094,0.0071187,0.00138441,0.853053,0.00435825,0.00819057,979,1653,3.8645,-29.7248
-238,-629,3.8504,30.0945,0.00429092,0.0052043,0.00308268,0.00786394,0.00163129,0.858937,0.00479232,0.0112007,986,1653,3.85042,-30.0945
-231,-629,3.80524,30.4558,0.00455375,0.00561867,0.00328547,0.00841454,0.00175788,0.865732,0.00512523,0.0160915,993,1653,3.80523,-30.4558
-224,-629,3.90894,30.9105,0.00472148,0.00621869,0.00351586,0.00906476,0.00187541,0.890293,0.00552517,0.0195973,1000,1653,3.90896,-30.9105
-217,-629,3.86646,31.2021,0.00486003,0.00698839,0.00397852,0.0100426,0.00180583,0.91608,0.00618168,0.0339244,1007,1653,3.86646,-31.2022
-210,-629,3.71265,31.9025,0,0,0,0,0,0,0,-1,1014,1653,3.71265,-31.9025
-203,-629,3.89575,32.2048,0,0,0,0,0,0,0,-1,1021,1653,3.8958,-32.2049
-196,-629,4.43542,32.4381,0,0,0,0,0,0,0,-1,1028,1653,4.43547,-32.4381
-189,-629,4.26978,32.5254,0,0,0,0,0,0,0,-1,1035,1653,4.26983,-32.5254
-182,-629,4.18079,32.9347,0,0,0,0,0,0,0,-1,1042,1653,4.18078,-32.9347
-175,-629,4.69446,33.0199,0,0,0,0,0,0,0,-1,1049,1653,4.69444,-33.0199
-168,-629,4.63879,33.9028,0,0,0,0,0,0,0,-1,1056,1653,4.63879,-33.9028
-161,-629,4.59033,34.0793,0,0,0,0,0,0,0,-1,1063,1653,4.59039,-34.0793
-154,-629,4.56848,34.3054,0,0,0,0,0,0,0,-1,1070,1653,4.56847,-34.3054
-147,-629,4.46606,30.7166,0,0,0,0,0,0,0,-1,1077,1653,4.46604,-30.7166
-140,-629,2.34851,19.2911,0,0,0,0,0,0,0,-1,1084,1653,2.34853,-19.2911
-133,-629,3.41248,17.6686,0,0,0,0,0,0,0,-1,1091,1653,3.41243,-17.6686
-126,-629,4.01025,19.5328,0,0,0,0,0,0,0,-1,1098,1653,4.01022,-19.5328
-119,-629,4.94177,13.5525,0,0,0,0,0,0,0,-1,1105,1653,4.94172,-13.5525
-112,-629,5.63123,15.9187,0,0,0,0,0,0,0,-1,1112,1653,5.63118,-15.9187
-105,-629,2.15881,4.38342,0,0,0,0,0,0,0,-1,1119,1653,2.15878,-4.38347
-98,-629,0.825806,4.19385,0,0,0,0,0,0,0,-1,1126,1653,0.825779,-4.1939
-91,-629,-0.452271,3.64465,0,0,0,0,0,0,0,-1,1133,1653,-0.452278,-3.6446
-84,-629,-2.6084,0.466797,0,0,0,0,0,0,0,-1,1140,1653,-2.6084,-0.466786
-77,-629,-3.50903,2.10706,0,0,0,0,0,0,0,-1,1147,1653,-3.509,-2.10707
-70,-629,-1.20886,2.52502,0,0,0,0,0,0,0,-1,1154,1653,-1.20886,-2.525
-63,-629,-0.960693,4.30212,0,0,0,0,0,0,0,-1,1161,1653,-0.960691,-4.30215
-56,-629,-1.31934,5.64343,0,0,0,0,0,0,0,-1,1168,1653,-1.31928,-5.6434
-49,-629,-2.15662,2.57458,0,0,0,0,0,0,0,-1,1175,1653,-2.15656,-2.57459
-42,-629,-2.46326,3.91467,0,0,0,0,0,0,0,-1,1182,1653,-2.4633,-3.91466
-35,-629,-2.67261,5.24292,0,0,0,0,0,0,0,-1,1189,1653,-2.67257,-5.24298
-28,-629,-0.402954,-0.866577,0,0,0,0,0,0,0,-1,1196,1653,-0.402943,0.866612
-21,-629,3.45508,27.0596,0,0,0,0,0,0,0,-1,1203,1653,3.45508,-27.0596
-14,-629,14.4163,41.2482,0,0,0,0,0,0,0,-1,1210,1653,14.4162,-41.2482
-7,-629,13.5211,41.4132,-0.154497,0.084107,0.0304837,0.08794,-0.15833,1.44571,0.144107,0.0486039,1217,1653,13.5211,-41.4133
0,-629,12.4866,41.7773,-0.160128,0.0848449,0.0240421,0.0871821,-0.162465,1.47389,0.146302,0.0475793,1224,1653,12.4865,-41.7774
7,-629,11.2745,42.3583,0,0,0,0,0,0,0,-1,1231,1653,11.2746,-42.3583
14,-629,6.69617,43.4197,0,0,0,0,0,0,0,-1,1238,1653,6.69613,-43.4197
21,-629,8.21851,43.3199,0,0,0,0,0,0,0,-1,1245,1653,8.21856,-43.3199
28,-629,7.20471,43.2449,-0.14358,0.0662238,0.019262,0.0679775,-0.145333,1.48,0.125826,0.0492812,1252,1653,7.20475,-43.2448
35,-629,6.18884,43.1348,-0.109985,0.0827582,0.00529484,0.0829035,-0.110131,1.54335,0.111817,0.0480288,1259,1653,6.18888,-43.1348
42,-629,5.03088,43.0691,0,0,0,0,0,0,0,-1,1266,1653,5.0309,-43.0691
49,-629,3.86389,42.9075,-0.00196426,0.0983763,-0.0178008,0.101441,-0.00502861,-1.40032,0.0693641,0.0478871,1273,1653,3.86394,-42.9074
56,-629,3.2417,43.349,0.0641741,0.113248,-0.0332312,0.13002,0.0474029,-1.10341,0.0759791,0.047221,1280,1653,3.24166,-43.349
63,-629,2.46484,43.5381,0.122818,0.12314,-0.0442531,0.167232,0.0787254,-0.787214,0.0966066,0.0468745,1287,1653,2.4648,-43.5381
70,-629,1.64465,43.6646,0,0,0,0,0,0,0,-1,1294,1653,1.64465,-43.6645
77,-629,2.37622,46.301,0.196243,0.120908,-0.0487535,0.220185,0.096966,-0.456493,0.127425,0.0435812,1301,1653,2.37625,-46.301
84,-629,1.34924,47.4038,0.212497,0.111833,-0.0471263,0.231116,0.0932147,-0.376258,0.134264,0.0440227,1308,1653,1.34925,-47.4038
91,-629,0.414063,48.6766,0,0,0,0,0,0,0,-1,1315,1653,0.414008,-48.6766
98,-629,13.4934,40.075,0,0,0,0,0,0,0,-1,1322,1653,13.4935,-40.075
105,-629,14.271,35.6559,0,0,0,0,0,0,0,-1,1329,1653,14.271,-35.6559
112,-629,14.2036,36.2096,0.169578,0.0170323,0.00629197,0.169837,0.0167732,0.0411533,0.108068,0.0453367,1336,1653,14.2036,-36.2095
119,-629,13.7731,37.0884,0.131057,-0.0162706,0.029416,0.136713,-0.0219267,0.189963,0.0992616,0.0450505,1343,1653,13.7731,-37.0884
126,-629,14.0101,37.677,0.0817275,-0.0591016,0.0536845,0.0998581,-0.0772321,0.325697,0.102521,0.0430584,1350,1653,14.0102,-37.677
133,-629,13.8981,38.431,0.0527633,-0.100036,0.0654702,0.076978,-0.124251,0.354255,0.117243,0.0449782,1357,1653,13.8981,-38.4311
140,-629,14.0945,38.7534,0,0,0,0,0,0,0,-1,1364,1653,14.0945,-38.7534
147,-629,18.4926,38.0448,0,0,0,0,0,0,0,-1,1371,1653,18.4926,-38.0448
154,-629,11.7258,38.2805,0,0,0,0,0,0,0,-1,1378,1653,11.7258,-38.2805
161,-629,10.5461,6.83752,0,0,0,0,0,0,0,-1,1385,1653,10.5461,-6.83758
168,-629,12.0059,5.56348,0,0,0,0,0,0,0,-1,1392,1653,12.0059,-5.56352
175,-629,5.84485,-1.78845,0,0,0,0,0,0,0,-1,1399,1653,5.84479,1.7884
182,-629,5.99036,-1.27783,0,0,0,0,0,0,0,-1,1406,1653,5.99041,1.27778
189,-629,5.97668,-0.748535,0,0,0,0,0,0,0,-1,1413,1653,5.97671,0.748544
196,-629,4.52869,9.24695,0,0,0,0,0,0,0,-1,1420,1653,4.52869,-9.2469
203,-629,3.75085,6.88037,0,0,0,0,0,0,0,-1,1427,1653,3.75087,-6.88032
210,-629,3.5907,6.52637,0,0,0,0,0,0,0,-1,1434,1653,3.59067,-6.52642
217,-629,2.4585,4.84448,0,0,0,0,0,0,0,-1,1441,1653,2.45855,-4.84448
224,-629,1.31982,3.68481,0,0,0,0,0,0,0,-1,1448,1653,1.31986,-3.68487
231,-629,3.63025,1.73499,0,0,0,0,0,0,0,-1,1455,1653,3.6303,-1.735
238,-629,4.26428,2.11255,0,0,0,0,0,0,0,-1,1462,1653,4.26429,-2.11253
245,-629,5.61816,1.95361,0,0,0,0,0,0,0,-1,1469,1653,5.61815,-1.95359
252,-629,7.27136,2.18982,0,0,0,0,0,0,0,-1,1476,1653,7.27131,-2.18985
259,-629,8.67334,2.18628,0,0,0,0,0,0,0,-1,1483,1653,8.6733,-2.18633
266,-629,6.86475,3.72058,0,0,0,0,0,0,0,-1,1490,1653,6.86479,-3.72063
273,-629,7.9021,3.8717,0,0,0,0,0,0,0,-1,1497,1653,7.90205,-3.87171
280,-629,9.70837,4.39087,0,0,0,0,0,0,0,-1,1504,1653,9.7084,-4.39082
287,-629,9.82947,7.19348,0,0,0,0,0,0,0,-1,1511,1653,9.8295,-7.19347
294,-629,6.56555,11.6359,0,0,0,0,0,0,0,-1,1518,1653,6.5656,-11.6358
301,-629,6.93835,15.6102,0,0,0,0,0,0,0,-1,1525,1653,6.93835,-15.6103
308,-629,6.08264,12.1423,0,0,0,0,0,0,0,-1,1532,1653,6.08263,-12.1423
315,-629,6.82043,18.2764,0,0,0,0,0,0,0,-1,1539,1653,6.82049,-18.2764
322,-629,10.3922,29.9829,0,0,0,0,0,0,0,-1,1546,1653,10.3922,-29.9829
329,-629,11.304,32.573,0,0,0,0,0,0,0,-1,1553,1653,11.3039,-32.573
336,-629,11.4762,32.167,0,0,0,0,0,0,0,-1,1560,1653,11.4762,-32.167
343,-629,11.5112,31.8879,0,0,0,0,0,0,0,-1,1567,1653,11.5112,-31.8879
350,-629,11.5128,31.5991,0.0051915,0.0104879,-0.00278924,0.0116859,0.00399356,-1.16513,0.00685856,0.0290764,1574,1653,11.5128,-31.5991
357,-629,11.5436,31.1661,0.00450564,0.010325,-0.00294764,0.0115571,0.00327348,-1.17486,0.00687835,0.0158055,1581,1653,11.5435,-31.1661
364,-629,11.502,30.8331,0.00396044,0.0098617,-0.00289805,0.0110469,0.00277526,-1.18259,0.00663585,0.0132744,1588,1653,11.5019,-30.8331
371,-629,11.5032,30.4911,0.00339316,0.00903435,-0.0026206,0.0100639,0.00236365,-1.19647,0.00607657,0.0113226,1595,1653,11.5032,-30.4911
378,-629,11.5066,30.1332,0.00279335,0.00821597,-0.00231898,0.00907241,0.00193691,-1.21702,0.00551716,0.0101733,1602,1653,11.5066,-30.1332
385,-629,11.5072,29.7992,0.002243,0.0071163,-0.00205023,0.00786409,0.0014952,-1.22105,0.00482223,0.0124681,1609,1653,11.5073,-29.7992
392,-629,11.4897,29.4537,0.00178031,0.00581821,-0.00170656,0.00644284,0.00115568,-1.21993,0.00396652,0.0115443,1616,1653,11.4897,-29.4538
399,-629,11.4749,29.1035,0.00127352,0.00439288,-0.00130243,0.00486518,0.000801221,-1.22292,0.00301211,0.0116378,1623,1653,11.4748,-29.1035
406,-629,11.4901,28.7324,0.000691822,0.00317569,-0.00090797,0.0034722,0.000395312,-1.25515,0.00219493,0.0137853,1630,1653,11.4901,-28.7324
413,-629,11.4764,28.3513,0.000227547,0.00215092,-0.000581149,0.00231287,6.55891e-05,-1.29901,0.00152052,0.0207645,1637,1653,11.4764,-28.3513
420,-629,11.4493,27.9929,-0.000148741,0.00116171,-0.000299968,0.00122711,-0.000214141,-1.35613,0.000898006,0.0197061,1644,1653,11.4493,-27.9929
427,-629,11.4706,27.6398,-0.000334677,0.000619437,-0.000169423,0.000648628,-0.000363868,-1.40017,0.000592221,0.0126324,1651,1653,11.4706,-27.6397
434,-629,11.4784,27.2435,-0.00058204,2.15622e-05,-8.79297e-05,3.41104e-05,-0.000594588,-1.42905,0.000408237,0.0103349,1658,1653,11.4784,-27.2435
441,-629,11.4774,26.8461,-0.000709764,-0.000245279,-0.000156631,-0.000197396,-0.000757646,-1.27412,0.000453841,0.0151311,1665,1653,11.4774,-26.8461
448,-629,11.4564,26.4519,-0.000708401,-0.000483641,-0.000214893,-0.000353517,-0.000838525,-1.02632,0.000486103,0.0154481,1672,1653,11.4564,-26.4519
455,-629,11.4119,26.0403,-0.000703464,-0.000586466,-0.000305823,-0.000333597,-0.000956332,-0.879898,0.000560487,0.0140951,1679,1653,11.4119,-26.0403
462,-629,11.4172,25.6785,-0.000751362,-0.000815153,-0.000385775,-0.000396166,-0.00117035,-0.744153,0.00068735,0.016335,1686,1653,11.4173,-25.6785
469,-629,11.4049,25.2795,-0.00068806,-0.000996364,-0.000443343,-0.000372835,-0.00131159,-0.618084,0.00078039,0.0206377,1693,1653,11.4049,-25.2796
476,-629,11.5563,24.9689,-0.0006334,-0.00128017,-0.000365593,-0.00046869,-0.00144488,-0.423293,0.00085118,0.035937,1700,1653,11.5563,-24.9689
483,-629,11.6967,24.5518,0,0,0,0,0,0,0,-1,1707,1653,11.6966,-24.5518
490,-629,11.5743,23.7709,0,0,0,0,0,0,0,-1,1714,1653,11.5743,-23.7709
497,-629,10.3662,19.8605,0,0,0,0,0,0,0,-1,1721,1653,10.3662,-19.8605
504,-629,7.89453,15.5316,0,0,0,0,0,0,0,-1,1728,1653,7.89447,-15.5316
511,-629,6.29138,3.40295,0,0,0,0,0,0,0,-1,1735,1653,6.29137,-3.403
518,-629,5.84387,1.41858,0,0,0,0,0,0,0,-1,1742,1653,5.84391,-1.4186
525,-629,6.4729,1.02319,0,0,0,0,0,0,0,-1,1749,1653,6.47284,-1.02316
532,-629,6.86511,0.903687,0,0,0,0,0,0,0,-1,1756,1653,6.86514,-0.903691
539,-629,6.60803,0.746704,0,0,0,0,0,0,0,-1,1763,1653,6.60809,-0.746691
546,-629,0,0,0,0,0,0,0,0,0,-1,1770,1653,0,0
553,-629,0,0,0,0,0,0,0,0,0,-1,1777,1653,0,0
560,-629,0,0,0,0,0,0,0,0,0,-1,1784,1653,0,0
567,-629,0,0,0,0,0,0,0,0,0,-1,1791,1653,0,0
574,-629,0,0,0,0,0,0,0,0,0,-1,1798,1653,0,0
581,-629,0,0,0,0,0,0,0,0,0,-1,1805,1653,0,0
588,-629,0,0,0,0,0,0,0,0,0,-1,1812,1653,0,0
595,-629,0,0,0,0,0,0,0,0,0,-1,1819,1653,0,0
602,-629,0,0,0,0,0,0,0,0,0,-1,1826,1653,0,0
609,-629,0,0,0,0,0,0,0,0,0,-1,1833,1653,0,0
616,-629,0,0,0,0,0,0,0,0,0,-1,1840,1653,0,0
623,-629,0,0,0,0,0,0,0,0,0,-1,1847,1653,0,0
630,-629,0,0,0,0,0,0,0,0,0,-1,1854,1653,0,0
637,-629,0,0,0,0,0,0,0,0,0,-1,1861,1653,0,0
644,-629,0,0,0,0,0,0,0,0,0,-1,1868,1653,0,0
651,-629,0,0,0,0,0,0,0,0,0,-1,1875,1653,0,0
658,-629,0,0,0,0,0,0,0,0,0,-1,1882,1653,0,0
665,-629,0,0,0,0,0,0,0,0,0,-1,1889,1653,0,0
672,-629,0,0,0,0,0,0,0,0,0,-1,1896,1653,0,0
679,-629,0,0,0,0,0,0,0,0,0,-1,1903,1653,0,0
686,-629,0,0,0,0,0,0,0,0,0,-1,1910,1653,0,0
693,-629,0,0,0,0,0,0,0,0,0,-1,1917,1653,0,0
700,-629,0,0,0,0,0,0,0,0,0,-1,1924,1653,0,0
707,-629,0,0,0,0,0,0,0,0,0,-1,1931,1653,0,0
714,-629,0,0,0,0,0,0,0,0,0,-1,1938,1653,0,0
721,-629,0,0,0,0,0,0,0,0,0,-1,1945,1653,0,0
728,-629,0,0,0,0,0,0,0,0,0,-1,1952,1653,0,0
735,-629,0,0,0,0,0,0,0,0,0,-1,1959,1653,0,0
742,-629,0,0,0,0,0,0,0,0,0,-1,1966,1653,0,0
749,-629,0,0,0,0,0,0,0,0,0,-1,1973,1653,0,0
756,-629,0,0,0,0,0,0,0,0,0,-1,1980,1653,0,0
763,-629,0,0,0,0,0,0,0,0,0,-1,1987,1653,0,0
770,-629,0,0,0,0,0,0,0,0,0,-1,1994,1653,0,0
777,-629,0,0,0,0,0,0,0,0,0,-1,2001,1653,0,0
784,-629,0,0,0,0,0,0,0,0,0,-1,2008,1653,0,0
791,-629,0,0,0,0,0,0,0,0,0,-1,2015,1653,0,0
798,-629,0,0,0,0,0,0,0,0,0,-1,2022,1653,0,0
805,-629,0,0,0,0,0,0,0,0,0,-1,2029,1653,0,0
812,-629,0,0,0,0,0,0,0,0,0,-1,2036,1653,0,0
-700,-636,0,0,0,0,0,0,0,0,0,-1,524,1660,0,0
-693,-636,0,0,0,0,0,0,0,0,0,-1,531,1660,0,0
-686,-636,0,0,0,0,0,0,0,0,0,-1,538,1660,0,0
-679,-636,0,0,0,0,0,0,0,0,0,-1,545,1660,0,0
-672,-636,0,0,0,0,0,0,0,0,0,-1,552,1660,0,0
-665,-636,0,0,0,0,0,0,0,0,0,-1,559,1660,0,0
-658,-636,0,0,0,0,0,0,0,0,0,-1,566,1660,0,0
-651,-636,0,0,0,0,0,0,0,0,0,-1,573,1660,0,0
-644,-636,0,0,0,0,0,0,0,0,0,-1,580,1660,0,0
-637,-636,0,0,0,0,0,0,0,0,0,-1,587,1660,0,0
-630,-636,0,0,0,0,0,0,0,0,0,-1,594,1660,0,0
-623,-636,0,0,0,0,0,0,0,0,0,-1,601,1660,0,0
-616,-636,0,0,0,0,0,0,0,0,0,-1,608,1660,0,0
-609,-636,0,0,0,0,0,0,0,0,0,-1,615,1660,0,0
-602,-636,0,0,0,0,0,0,0,0,0,-1,622,1660,0,0
-595,-636,0,0,0,0,0,0,0,0,0,-1,629,1660,0,0
-588,-636,0,0,0,0,0,0,0,0,0,-1,636,1660,0,0
-581,-636,0,0,0,0,0,0,0,0,0,-1,643,1660,0,0
-574,-636,0,0,0,0,0,0,0,0,0,-1,650,1660,0,0
-567,-636,0,0,0,0,0,0,0,0,0,-1,657,1660,0,0
-560,-636,0,0,0,0,0,0,0,0,0,-1,664,1660,0,0
-553,-636,0,0,0,0,0,0,0,0,0,-1,671,1660,0,0
-546,-636,0,0,0,0,0,0,0,0,0,-1,678,1660,0,0
-539,-636,0,0,0,0,0,0,0,0,0,-1,685,1660,0,0
-532,-636,0,0,0,0,0,0,0,0,0,-1,692,1660,0,0
-525,-636,0,0,0,0,0,0,0,0,0,-1,699,1660,0,0
-518,-636,0,0,0,0,0,0,0,0,0,-1,706,1660,0,0
-511,-636,0,0,0,0,0,0,0,0,0,-1,713,1660,0,0
-504,-636,0,0,0,0,0,0,0,0,0,-1,720,1660,0,0
-497,-636,0,0,0,0,0,0,0,0,0,-1,727,1660,0,0
-490,-636,0,0,0,0,0,0,0,0,0,-1,734,1660,0,0
-483,-636,0,0,0,0,0,0,0,0,0,-1,741,1660,0,0
-476,-636,0,0,0,0,0,0,0,0,0,-1,748,1660,0,0
-469,-636,0,0,0,0,0,0,0,0,0,-1,755,1660,0,0
-462,-636,0,0,0,0,0,0,0,0,0,-1,762,1660,0,0
-455,-636,0,0,0,0,0,0,0,0,0,-1,769,1660,0,0
-448,-636,0,0,0,0,0,0,0,0,0,-1,776,1660,0,0
-441,-636,0,0,0,0,0,0,0,0,0,-1,783,1660,0,0
-434,-636,0,0,0,0,0,0,0,0,0,-1,790,1660,0,0
-427,-636,0,0,0,0,0,0,0,0,0,-1,797,1660,0,0
-420,-636,0,0,0,0,0,0,0,0,0,-1,804,1660,0,0
-413,-636,0,0,0,0,0,0,0,0,0,-1,811,1660,0,0
-406,-636,-0.591125,10.6943,0,0,0,0,0,0,0,-1,818,1660,-0.59115,-10.6943
-399,-636,0.0766602,11.2408,0,0,0,0,0,0,0,-1,825,1660,0.076685,-11.2409
-392,-636,0.75946,11.9233,0,0,0,0,0,0,0,-1,832,1660,0.759481,-11.9233
-385,-636,1.68878,12.517,0,0,0,0,0,0,0,-1,839,1660,1.6888,-12.5169
-378,-636,2.22107,13.0013,0,0,0,0,0,0,0,-1,846,1660,2.22107,-13.0014
-371,-636,2.52185,11.9684,0,0,0,0,0,0,0,-1,853,1660,2.52184,-11.9684
-364,-636,4.51947,14.8503,0,0,0,0,0,0,0,-1,860,1660,4.51949,-14.8504
-357,-636,4.55682,15.8809,0,0,0,0,0,0,0,-1,867,1660,4.55681,-15.8808
-350,-636,2.63104,14.4946,0,0,0,0,0,0,0,-1,874,1660,2.63102,-14.4946
-343,-636,4.35706,24.2013,0,0,0,0,0,0,0,-1,881,1660,4.35708,-24.2013
-336,-636,4.36035,24.5256,0.00326907,-0.0112251,-0.00029064,0.0032749,-0.0112309,-0.0200415,0.00878479,0.0307896,888,1660,4.36034,-24.5256
-329,-636,4.37274,24.9095,0.00281034,-0.0102696,-0.000418318,0.0028237,-0.0102829,-0.0319382,0.00796515,0.0188286,895,1660,4.37275,-24.9096
-322,-636,4.3526,25.3612,0.00237992,-0.00941883,-0.000471026,0.0023987,-0.0094376,-0.0398372,0.00722527,0.0121945,902,1660,4.35259,-25.3612
-315,-636,4.29486,25.7667,0.00199499,-0.00840879,-0.00051057,0.00201999,-0.00843378,-0.0489187,0.00640296,0.0129295,909,1660,4.29486,-25.7667
-308,-636,4.28674,26.1957,0.00161821,-0.0071264,-0.00051343,0.00164826,-0.00715644,-0.0584462,0.00540481,0.0118583,916,1660,4.28672,-26.1956
-301,-636,4.28723,26.6201,0.00143419,-0.00582507,-0.000352056,0.00145123,-0.0058421,-0.0483463,0.00445792,0.011516,923,1660,4.28723,-26.6201
-294,-636,4.24219,27.0465,0.00142098,-0.00452623,-7.97337e-05,0.00142205,-0.0045273,-0.0134037,0.00358743,0.0145705,930,1660,4.24216,-27.0465
-287,-636,4.2301,27.4318,0.00143116,-0.0031612,0.00023028,0.00144268,-0.00317272,0.0499771,0.00272639,0.0123668,937,1660,4.23007,-27.4318
-280,-636,4.23242,27.8062,0.00148616,-0.00190187,0.000549326,0.001573,-0.00198871,0.156788,0.00206102,0.0116363,944,1660,4.23243,-27.8061
-273,-636,4.21088,28.1769,0.00158487,-0.000756734,0.000837346,0.00185349,-0.00102535,0.310424,0.00168486,0.0117794,951,1660,4.21087,-28.1769
-266,-636,4.21045,28.5778,0.00182744,0.000382736,0.00116785,0.00247828,-0.000268107,0.508431,0.00174842,0.01327,958,1660,4.21044,-28.5778
-259,-636,4.22217,29.0084,0.00213389,0.00161463,0.00147418,0.00337113,0.000377397,0.698232,0.00213278,0.0153518,965,1660,4.22216,-29.0084
-252,-636,4.22876,29.3715,0.00238329,0.00260337,0.00172222,0.00421907,0.0007676,0.817302,0.00259497,0.0114037,972,1660,4.22879,-29.3714
-245,-636,4.2348,29.7336,0.00265944,0.00335557,0.00192224,0.004961,0.00105401,0.874964,0.00301798,0.0100753,979,1660,4.23482,-29.7337
-238,-636,4.23645,30.095,0.0030094,0.00389757,0.00204858,0.00554964,0.00135733,0.892136,0.00334054,0.0112435,986,1660,4.23643,-30.0949
-231,-636,4.22211,30.4586,0.00326969,0.00429383,0.00215383,0.00599562,0.0015679,0.902107,0.00359044,0.0107944,993,1660,4.22212,-30.4586
-224,-636,4.23328,30.8101,0.00345671,0.00485174,0.00231762,0.00657453,0.00173392,0.931568,0.00393453,0.00956328,1000,1660,4.23327,-30.81
-217,-636,4.21643,31.2115,0.00360628,0.00552786,0.00268993,0.00742343,0.00171071,0.956926,0.00448873,0.0177493,1007,1660,4.21643,-31.2115
-210,-636,4.20923,31.5392,0.00360774,0.00627099,0.00298398,0.00820699,0.00167174,0.995267,0.00500797,0.0303024,1014,1660,4.20925,-31.5392
-203,-636,4.19775,31.9518,0,0,0,0,0,0,0,-1,1021,1660,4.19779,-31.9518
-196,-636,4.45264,32.2217,0.00302097,0.00786074,0.00309905,0.00937277,0.00150894,1.11687,0.00581121,0.0360453,1028,1660,4.45259,-32.2217
-189,-636,4.4248,32.4746,0.00242439,0.00852735,0.00272981,0.00957018,0.00138155,1.20589,0.0059731,0.0327618,1035,1660,4.42484,-32.4746
-182,-636,4.43054,32.7976,0.00242437,0.00920276,0.00318557,0.0104649,0.00116228,1.19358,0.00662322,0.0451244,1042,1660,4.43048,-32.7976
-175,-636,4.55908,33.5131,0,0,0,0,0,0,0,-1,1049,1660,4.55912,-33.513
-168,-636,4.80725,33.7551,0.00163019,0.0124508,0.00423615,0.0139119,0.000169079,1.23866,0.00921878,0.0496978,1056,1660,4.80729,-33.7551
-161,-636,4.81458,33.9963,0.00123765,0.0146146,0.00472782,0.0161168,-0.000264602,1.26314,0.0108338,0.0494764,1063,1660,4.81453,-33.9964
-154,-636,4.74695,34.2383,0,0,0,0,0,0,0,-1,1070,1660,4.74692,-34.2383
-147,-636,4.32129,31.4845,0,0,0,0,0,0,0,-1,1077,1660,4.32127,-31.4845
-140,-636,3.4729,27.1271,0,0,0,0,0,0,0,-1,1084,1660,3.47287,-27.1271
-133,-636,4.68311,18.0922,0,0,0,0,0,0,0,-1,1091,1660,4.68316,-18.0921
-126,-636,3.79028,18.2225,0,0,0,0,0,0,0,-1,1098,1660,3.79025,-18.2226
-119,-636,1.8667,13.8916,0,0,0,0,0,0,0,-1,1105,1660,1.86668,-13.8916
-112,-636,-1.24963,9.7998,0,0,0,0,0,0,0,-1,1112,1660,-1.24968,-9.79978
-105,-636,3.51624,4.72791,0,0,0,0,0,0,0,-1,1119,1660,3.51618,-4.7279
-98,-636,1.54504,5.11914,0,0,0,0,0,0,0,-1,1126,1660,1.54503,-5.11912
-91,-636,-1.87964,-2.25012,0,0,0,0,0,0,0,-1,1133,1660,-1.87966,2.25016
-84,-636,-2.84143,0.133667,0,0,0,0,0,0,0,-1,1140,1660,-2.84144,-0.133701
-77,-636,-3.57349,2.45935,0,0,0,0,0,0,0,-1,1147,1660,-3.57345,-2.45939
-70,-636,-4.23682,4.82312,0,0,0,0,0,0,0,-1,1154,1660,-4.23681,-4.82307
-63,-636,-2.21033,6.97168,0,0,0,0,0,0,0,-1,1161,1660,-2.21034,-6.97165
-56,-636,-2.51917,8.80359,0,0,0,0,0,0,0,-1,1168,1660,-2.51916,-8.80361
-49,-636,-3.13,10.4113,0,0,0,0,0,0,0,-1,1175,1660,-3.12996,-10.4112
-42,-636,-2.27771,4.90173,0,0,0,0,0,0,0,-1,1182,1660,-2.27775,-4.90173
-35,-636,-2.27698,5.89685,0,0,0,0,0,0,0,-1,1189,1660,-2.27695,-5.89686
-28,-636,-1.70654,4.83936,0,0,0,0,0,0,0,-1,1196,1660,-1.70656,-4.8393
-21,-636,4.24683,27.7834,0,0,0,0,0,0,0,-1,1203,1660,4.24687,-27.7835
-14,-636,14.7362,40.3306,0,0,0,0,0,0,0,-1,1210,1660,14.7362,-40.3305
-7,-636,13.616,40.8088,-0.135082,0.0783663,0.0269664,0.0817204,-0.138436,1.44705,0.128506,0.047767,1217,1660,13.6159,-40.8088
0,-636,12.4395,41.2633,-0.142523,0.0801019,0.0210721,0.0820789,-0.1445,1.47725,0.13246,0.0485353,1224,1660,12.4395,-41.2634
7,-636,11.2466,41.9829,-0.144258,0.0799474,0.0164661,0.0811502,-0.145461,1.49788,0.132578,0.0467196,1231,1660,11.2466,-41.9829
14,-636,10.0717,42.4438,0,0,0,0,0,0,0,-1,1238,1660,10.0716,-42.4438
21,-636,8.58423,42.7102,-0.138704,0.0760713,0.0102945,0.0765636,-0.139196,1.52301,0.126306,0.0437403,1245,1660,8.58421,-42.7102
28,-636,7.35498,42.7633,-0.125852,0.0717899,0.0088217,0.0721829,-0.126245,1.52628,0.115971,0.0451006,1252,1660,7.35498,-42.7633
35,-636,6.40942,42.5735,-0.0832639,0.0874305,-0.00874544,0.0878774,-0.0837108,-1.51974,0.0990762,0.0455565,1259,1660,6.40939,-42.5735
42,-636,5.38989,42.5397,0,0,0,0,0,0,0,-1,1266,1660,5.38993,-42.5397
49,-636,4.10303,41.319,0.0269208,0.101631,-0.0330314,0.114141,0.0144113,-1.20877,0.0717738,0.0477482,1273,1660,4.10302,-41.319
56,-636,3.61401,43.7369,0.0889876,0.1118,-0.0462444,0.148024,0.0527636,-0.906313,0.086628,0.045815,1280,1660,3.61402,-43.7369
63,-636,3.1615,44.63,0.145152,0.119367,-0.0552346,0.188979,0.0755406,-0.670745,0.109836,0.0451511,1287,1660,3.16156,-44.63
70,-636,2.92151,45.6239,0.19284,0.121993,-0.0594805,0.226646,0.0881869,-0.51683,0.131923,0.0434686,1294,1660,2.92153,-45.6239
77,-636,2.66113,46.5193,0.224684,0.117238,-0.058921,0.250697,0.0912246,-0.415754,0.146517,0.043908,1301,1660,2.66113,-46.5192
84,-636,2.66077,47.5852,0.24469,0.108452,-0.0552399,0.264273,0.0888686,-0.340684,0.155281,0.0440901,1308,1660,2.66082,-47.5852
91,-636,12.3333,38.4915,0.257211,0.0954672,-0.0471086,0.269931,0.082747,-0.263729,0.159686,0.0441317,1315,1660,12.3333,-38.4915
98,-636,12.9023,39.7107,0.247502,0.0731982,-0.0311747,0.25291,0.0677903,-0.171761,0.151164,0.0481951,1322,1660,12.9024,-39.7108
105,-636,13.3738,40.7626,0,0,0,0,0,0,0,-1,1329,1660,13.3737,-40.7625
112,-636,13.699,36.7378,0.197697,0.017068,0.00654189,0.197934,0.0168314,0.0361541,0.126719,0.0465566,1336,1660,13.699,-36.7378
119,-636,13.4966,37.5583,0.15224,-0.0172078,0.0317724,0.158002,-0.0229694,0.17939,0.113767,0.0458345,1343,1660,13.4966,-37.5584
126,-636,13.7242,38.4049,0.102571,-0.057415,0.0558063,0.120113,-0.0749578,0.304571,0.113626,0.0441816,1350,1660,13.7243,-38.4049
133,-636,14.1063,38.7341,0.070219,-0.0957512,0.069941,0.0957617,-0.121294,0.350154,0.125606,0.0487211,1357,1660,14.1063,-38.7341
140,-636,14.5134,39.0264,0,0,0,0,0,0,0,-1,1364,1660,14.5134,-39.0264
147,-636,17.6116,39.1437,0,0,0,0,0,0,0,-1,1371,1660,17.6115,-39.1437
154,-636,19.6548,40.0386,0,0,0,0,0,0,0,-1,1378,1660,19.6548,-40.0385
161,-636,10.2961,7.13025,0,0,0,0,0,0,0,-1,1385,1660,10.2961,-7.13021
168,-636,11.7659,5.83899,0,0,0,0,0,0,0,-1,1392,1660,11.7658,-5.83899
175,-636,5.94592,-1.72888,0,0,0,0,0,0,0,-1,1399,1660,5.94598,1.72886
182,-636,5.93994,-1.11938,0,0,0,0,0,0,0,-1,1406,1660,5.93998,1.11936
189,-636,5.32544,11.9595,0,0,0,0,0,0,0,-1,1413,1660,5.32542,-11.9595
196,-636,5.3623,9.38025,0,0,0,0,0,0,0,-1,1420,1660,5.36225,-9.38027
203,-636,5.18542,9.02429,0,0,0,0,0,0,0,-1,1427,1660,5.18547,-9.0243
210,-636,4.09167,7.17041,0,0,0,0,0,0,0,-1,1434,1660,4.09173,-7.17041
217,-636,2.94897,5.28992,0,0,0,0,0,0,0,-1,1441,1660,2.94899,-5.28991
224,-636,1.49194,3.63916,0,0,0,0,0,0,0,-1,1448,1660,1.49197,-3.63918
231,-636,0.17749,2.24854,0,0,0,0,0,0,0,-1,1455,1660,0.177501,-2.24855
238,-636,-0.764648,1.00598,0,0,0,0,0,0,0,-1,1462,1660,-0.764704,-1.00595
245,-636,6.21204,1.18005,0,0,0,0,0,0,0,-1,1469,1660,6.21206,-1.18001
252,-636,7.70251,0.865723,0,0,0,0,0,0,0,-1,1476,1660,7.7025,-0.865692
259,-636,9.03601,0.787231,0,0,0,0,0,0,0,-1,1483,1660,9.03598,-0.787243
266,-636,10.1071,3.24109,0,0,0,0,0,0,0,-1,1490,1660,10.1071,-3.24103
273,-636,8.48535,5.02466,0,0,0,0,0,0,0,-1,1497,1660,8.48533,-5.02472
280,-636,11.908,32.0698,0,0,0,0,0,0,0,-1,1504,1660,11.9079,-32.0698
287,-636,9.86169,33.63,0,0,0,0,0,0,0,-1,1511,1660,9.86169,-33.63
294,-636,6.69592,15.9669,0,0,0,0,0,0,0,-1,1518,1660,6.69595,-15.9669
301,-636,8.25903,23.0582,0,0,0,0,0,0,0,-1,1525,1660,8.25903,-23.0583
308,-636,10.7478,33.1339,0,0,0,0,0,0,0,-1,1532,1660,10.7478,-33.134
315,-636,10.9291,33.4329,0,0,0,0,0,0,0,-1,1539,1660,10.929,-33.4328
322,-636,11.0349,32.7201,0,0,0,0,0,0,0,-1,1546,1660,11.0349,-32.7201
329,-636,11.0751,32.3622,0.00778882,0.00461347,-0.00186441,0.00864997,0.00375232,-0.432696,0.00500863,0.0383418,1553,1660,11.075,-32.3622
336,-636,11.1329,32.0889,0.00645841,0.00624249,-0.00154682,0.00790103,0.00479987,-0.750557,0.00459667,0.0279727,1560,1660,11.133,-32.0889
343,-636,11.1071,31.8895,0.00513209,0.00706971,-0.0015372,0.00791792,0.00428388,-1.06658,0.00457654,0.0236697,1567,1660,11.107,-31.8895
350,-636,11.1084,31.5313,0.00394151,0.00718538,-0.00169748,0.00791123,0.00321565,-1.16672,0.00459411,0.0126526,1574,1660,11.1084,-31.5312
357,-636,11.1332,31.1611,0.00342246,0.00715566,-0.00187291,0.0079333,0.00264482,-1.17725,0.00466429,0.0102073,1581,1660,11.1332,-31.1611
364,-636,11.1324,30.8259,0.00294826,0.0068481,-0.00188526,0.00761045,0.00218591,-1.18653,0.00452457,0.0107548,1588,1660,11.1324,-30.826
371,-636,11.1384,30.4966,0.00245901,0.00622186,-0.00169455,0.00687248,0.00180839,-1.2042,0.00411357,0.00976339,1595,1660,11.1385,-30.4965
378,-636,11.1558,30.1509,0.00201902,0.00553898,-0.00150421,0.00609421,0.00146379,-1.2172,0.00367341,0.00963009,1602,1660,11.1558,-30.1509
385,-636,11.1589,29.8007,0.00160819,0.00459716,-0.00128012,0.00507047,0.00113489,-1.21665,0.00307269,0.0146562,1609,1660,11.159,-29.8006
392,-636,11.1348,29.4392,0.00125307,0.00341134,-0.000984935,0.00379325,0.000871166,-1.2009,0.00229425,0.0164064,1616,1660,11.1347,-29.4392
399,-636,11.1299,29.1016,0.000785092,0.0021013,-0.000667871,0.00238083,0.000505565,-1.17442,0.00144841,0.0125844,1623,1660,11.1299,-29.1016
406,-636,11.1409,28.7496,0.000195517,0.001048,-0.000341791,0.00116812,7.54048e-05,-1.23286,0.000754866,0.0138322,1630,1660,11.1409,-28.7496
413,-636,11.1353,28.3536,-0.000253595,0.00017418,-7.1576e-05,0.000185838,-0.000265254,-1.40933,0.00026178,0.0214526,1637,1660,11.1352,-28.3536
420,-636,11.1006,27.9834,-0.000643467,-0.000619849,0.000135404,-0.00049574,-0.000767576,0.828893,0.000449401,0.0220713,1644,1660,11.1006,-27.9834
427,-636,11.0858,27.6479,-0.000852967,-0.000950675,0.000205052,-0.00069103,-0.00111261,0.668452,0.000648616,0.0133551,1651,1660,11.0858,-27.6479
434,-636,11.0837,27.2556,-0.00115506,-0.00124548,0.000193428,-0.00100163,-0.00139891,0.67059,0.000832405,0.0114556,1658,1660,11.0837,-27.2556
441,-636,11.1036,26.8431,-0.00136181,-0.00122655,5.38372e-05,-0.00120774,-0.00138063,1.23463,0.000868543,0.0121936,1665,1660,11.1036,-26.8432
448,-636,11.1042,26.491,-0.00143789,-0.00111045,-0.000108804,-0.0010776,-0.00147074,-1.27751,0.000879251,0.0148506,1672,1660,11.1043,-26.491
455,-636,11.0317,26.1177,-0.00155365,-0.000711226,-0.000268475,-0.00063294,-0.00163194,-1.28707,0.000950067,0.0157107,1679,1660,11.0318,-26.1176
462,-636,11.0139,25.7065,-0.0016224,-0.000417714,-0.000468253,-0.000257116,-0.001783,-1.2404,0.0011129,0.0206564,1686,1660,11.014,-25.7065
469,-636,10.9856,25.2653,-0.00152296,-9.11995e-05,-0.000602874,0.000128837,-0.001743,-1.22084,0.00120724,0.0319437,1693,1660,10.9856,-25.2653
476,-636,11.1085,24.7689,-0.00138979,5.97184e-05,-0.000530237,0.000232972,-0.00156305,-1.25498,0.00112774,0.049812,1700,1660,11.1085,-24.7689
483,-636,11.3833,24.3958,0,0,0,0,0,0,0,-1,1707,1660,11.3833,-24.3957
490,-636,10.8951,23.9569,0,0,0,0,0,0,0,-1,1714,1660,10.8951,-23.9569
497,-636,9.55579,18.0111,0,0,0,0,0,0,0,-1,1721,1660,9.55574,-18.0111
504,-636,6.26428,19.4268,0,0,0,0,0,0,0,-1,1728,1660,6.26433,-19.4268
511,-636,5.65466,9.23218,0,0,0,0,0,0,0,-1,1735,1660,5.65461,-9.23216
518,-636,6.72791,1.07605,0,0,0,0,0,0,0,-1,1742,1660,6.7279,-1.0761
525,-636,7.04309,0.93335,0,0,0,0,0,0,0,-1,1749,1660,7.04308,-0.933298
532,-636,0,0,0,0,0,0,0,0,0,-1,1756,1660,0,0
539,-636,0,0,0,0,0,0,0,0,0,-1,1763,1660,0,0
546,-636,0,0,0,0,0,0,0,0,0,-1,1770,1660,0,0
553,-636,0,0,0,0,0,0,0,0,0,-1,1777,1660,0,0
560,-636,0,0,0,0,0,0,0,0,0,-1,1784,1660,0,0
567,-636,0,0,0,0,0,0,0,0,0,-1,1791,1660,0,0
574,-636,0,0,0,0,0,0,0,0,0,-1,1798,1660,0,0
581,-636,0,0,0,0,0,0,0,0,0,-1,1805,1660,0,0
588,-636,0,0,0,0,0,0,0,0,0,-1,1812,1660,0,0
595,-636,0,0,0,0,0,0,0,0,0,-1,1819,1660,0,0
602,-636,0,0,0,0,0,0,0,0,0,-1,1826,1660,0,0
609,-636,0,0,0,0,0,0,0,0,0,-1,1833,1660,0,0
616,-636,0,0,0,0,0,0,0,0,0,-1,1840,1660,0,0
623,-636,0,0,0,0,0,0,0,0,0,-1,1847,1660,0,0
630,-636,0,0,0,0,0,0,0,0,0,-1,1854,1660,0,0
637,-636,0,0,0,0,0,0,0,0,0,-1,1861,1660,0,0
644,-636,0,0,0,0,0,0,0,0,0,-1,1868,1660,0,0
651,-636,0,0,0,0,0,0,0,0,0,-1,1875,1660,0,0
658,-636,0,0,0,0,0,0,0,0,0,-1,1882,1660,0,0
665,-636,0,0,0,0,0,0,0,0,0,-1,1889,1660,0,0
672,-636,0,0,0,0,0,0,0,0,0,-1,1896,1660,0,0
679,-636,0,0,0,0,0,0,0,0,0,-1,1903,1660,0,0
686,-636,0,0,0,0,0,0,0,0,0,-1,1910,1660,0,0
693,-636,0,0,0,0,0,0,0,0,0,-1,1917,1660,0,0
700,-636,0,0,0,0,0,0,0,0,0,-1,1924,1660,0,0
707,-636,0,0,0,0,0,0,0,0,0,-1,1931,1660,0,0
714,-636,0,0,0,0,0,0,0,0,0,-1,1938,1660,0,0
721,-636,0,0,0,0,0,0,0,0,0,-1,1945,1660,0,0
728,-636,0,0,0,0,0,0,0,0,0,-1,1952,1660,0,0
735,-636,0,0,0,0,0,0,0,0,0,-1,1959,1660,0,0
742,-636,0,0,0,0,0,0,0,0,0,-1,1966,1660,0,0
749,-636,0,0,0,0,0,0,0,0,0,-1,1973,1660,0,0
756,-636,0,0,0,0,0,0,0,0,0,-1,1980,1660,0,0
763,-636,0,0,0,0,0,0,0,0,0,-1,1987,1660,0,0
770,-636,0,0,0,0,0,0,0,0,0,-1,1994,1660,0,0
777,-636,0,0,0,0,0,0,0,0,0,-1,2001,1660,0,0
784,-636,0,0,0,0,0,0,0,0,0,-1,2008,1660,0,0
791,-636,0,0,0,0,0,0,0,0,0,-1,2015,1660,0,0
798,-636,0,0,0,0,0,0,0,0,0,-1,2022,1660,0,0
805,-636,0,0,0,0,0,0,0,0,0,-1,2029,1660,0,0
812,-636,0,0,0,0,0,0,0,0,0,-1,2036,1660,0,0
-700,-643,0,0,0,0,0,0,0,0,0,-1,524,1667,0,0
-693,-643,0,0,0,0,0,0,0,0,0,-1,531,1667,0,0
-686,-643,0,0,0,0,0,0,0,0,0,-1,538,1667,0,0
-679,-643,0,0,0,0,0,0,0,0,0,-1,545,1667,0,0
-672,-643,0,0,0,0,0,0,0,0,0,-1,552,1667,0,0
-665,-643,0,0,0,0,0,0,0,0,0,-1,559,1667,0,0
-658,-643,0,0,0,0,0,0,0,0,0,-1,566,1667,0,0
-651,-643,0,0,0,0,0,0,0,0,0,-1,573,1667,0,0
-644,-643,0,0,0,0,0,0,0,0,0,-1,580,1667,0,0
-637,-643,0,0,0,0,0,0,0,0,0,-1,587,1667,0,0
-630,-643,0,0,0,0,0,0,0,0,0,-1,594,1667,0,0
-623,-643,0,0,0,0,0,0,0,0,0,-1,601,1667,0,0
-616,-643,0,0,0,0,0,0,0,0,0,-1,608,1667,0,0
-609,-643,0,0,0,0,0,0,0,0,0,-1,615,1667,0,0
-602,-643,0,0,0,0,0,0,0,0,0,-1,622,1667,0,0
-595,-643,0,0,0,0,0,0,0,0,0,-1,629,1667,0,0
-588,-643,0,0,0,0,0,0,0,0,0,-1,636,1667,0,0
-581,-643,0,0,0,0,0,0,0,0,0,-1,643,1667,0,0
-574,-643,0,0,0,0,0,0,0,0,0,-1,650,1667,0,0
-567,-643,0,0,0,0,0,0,0,0,0,-1,657,1667,0,0
-560,-643,0,0,0,0,0,0,0,0,0,-1,664,1667,0,0
-553,-643,0,0,0,0,0,0,0,0,0,-1,671,1667,0,0
-546,-643,0,0,0,0,0,0,0,0,0,-1,678,1667,0,0
-539,-643,0,0,0,0,0,0,0,0,0,-1,685,1667,0,0
-532,-643,0,0,0,0,0,0,0,0,0,-1,692,1667,0,0
-525,-643,0,0,0,0,0,0,0,0,0,-1,699,1667,0,0
-518,-643,0,0,0,0,0,0,0,0,0,-1,706,1667,0,0
-511,-643,0,0,0,0,0,0,0,0,0,-1,713,1667,0,0
-504,-643,0,0,0,0,0,0,0,0,0,-1,720,1667,0,0
-497,-643,0,0,0,0,0,0,0,0,0,-1,727,1667,0,0
-490,-643,0,0,0,0,0,0,0,0,0,-1,734,1667,0,0
-483,-643,0,0,0,0,0,0,0,0,0,-1,741,1667,0,0
-476,-643,0,0,0,0,0,0,0,0,0,-1,748,1667,0,0
-469,-643,0,0,0,0,0,0,0,0,0,-1,755,1667,0,0
-462,-643,0,0,0,0,0,0,0,0,0,-1,762,1667,0,0
-455,-643,0,0,0,0,0,0,0,0,0,-1,769,1667,0,0
-448,-643,0,0,0,0,0,0,0,0,0,-1,776,1667,0,0
-441,-643,0,0,0,0,0,0,0,0,0,-1,783,1667,0,0
-434,-643,0,0,0,0,0,0,0,0,0,-1,790,1667,0,0
-427,-643,0,0,0,0,0,0,0,0,0,-1,797,1667,0,0
-420,-643,0,0,0,0,0,0,0,0,0,-1,804,1667,0,0
-413,-643,0,0,0,0,0,0,0,0,0,-1,811,1667,0,0
-406,-643,0,0,0,0,0,0,0,0,0,-1,818,1667,0,0
-399,-643,0.589417,11.6465,0,0,0,0,0,0,0,-1,825,1667,0.58939,-11.6465
-392,-643,0.865295,12.6523,0,0,0,0,0,0,0,-1,832,1667,0.865315,-12.6523
-385,-643,1.72968,13.2692,0,0,0,0,0,0,0,-1,839,1667,1.72967,-13.2692
-378,-643,2.66522,13.8193,0,0,0,0,0,0,0,-1,846,1667,2.66524,-13.8193
-371,-643,0.466125,3.35095,0,0,0,0,0,0,0,-1,853,1667,0.466148,-3.351
-364,-643,1.69513,9.922,0,0,0,0,0,0,0,-1,860,1667,1.69511,-9.92205
-357,-643,1.14227,10.8429,0,0,0,0,0,0,0,-1,867,1667,1.14228,-10.8429
-350,-643,2.50061,9.96948,0,0,0,0,0,0,0,-1,874,1667,2.50059,-9.96954
-343,-643,2.61505,6.17407,0,0,0,0,0,0,0,-1,881,1667,2.61504,-6.17412
-336,-643,4.7876,24.5563,0,0,0,0,0,0,0,-1,888,1667,4.78761,-24.5562
-329,-643,4.77563,24.9611,0.00471495,-0.0147875,-0.000674471,0.00473825,-0.0148108,-0.0345289,0.0117755,0.039283,895,1667,4.77564,-24.9611
-322,-643,4.78186,25.3662,0.00393998,-0.0136533,-0.000706194,0.00396828,-0.0136816,-0.0400541,0.0106922,0.0274854,902,1667,4.78186,-25.3662
-315,-643,4.69519,25.788,0.00323473,-0.0123069,-0.000742183,0.0032701,-0.0123422,-0.0476101,0.00950753,0.0176267,909,1667,4.69521,-25.788
-308,-643,4.69165,26.1847,0.00253554,-0.0106217,-0.000707373,0.00257346,-0.0106596,-0.0535572,0.00810164,0.0133222,916,1667,4.69165,-26.1846
-301,-643,4.69,26.6091,0.00203711,-0.00889616,-0.000511533,0.00206099,-0.00892005,-0.046651,0.00673957,0.0148907,923,1667,4.68999,-26.6091
-294,-643,4.63318,27.0149,0.00171216,-0.00721176,-0.000250404,0.00171918,-0.00721878,-0.0280304,0.00547628,0.0128185,930,1667,4.63318,-27.0148
-287,-643,4.62396,27.415,0.0014654,-0.00552457,6.54941e-05,0.00146602,-0.00552519,0.00936862,0.00425712,0.0102647,937,1667,4.62395,-27.415
-280,-643,4.61487,27.8219,0.00126536,-0.00396524,0.000372738,0.00129178,-0.00399167,0.0707844,0.00318039,0.0137548,944,1667,4.61487,-27.8219
-273,-643,4.59247,28.1855,0.00112239,-0.00260729,0.000596622,0.0012155,-0.0027004,0.154821,0.00231439,0.011795,951,1667,4.59247,-28.1855
-266,-643,4.58319,28.5852,0.00119219,-0.00127352,0.000870963,0.00146881,-0.00155013,0.307524,0.0017432,0.0119959,958,1667,4.58317,-28.5852
-259,-643,4.60175,28.9899,0.00134806,0.000221709,0.0011064,0.00202637,-0.000456599,0.54998,0.00152605,0.0121663,965,1667,4.60175,-28.9899
-252,-643,4.59961,29.3713,0.00145216,0.00135172,0.00128491,0.00268783,0.000116044,0.765866,0.00175449,0.0131551,972,1667,4.59961,-29.3713
-245,-643,4.58911,29.735,0.00159359,0.00214491,0.00138517,0.00328158,0.00045692,0.883619,0.00205244,0.0117819,979,1667,4.58913,-29.7349
-238,-643,4.61646,30.0825,0.00189142,0.00268518,0.00145793,0.00379929,0.000777315,0.918289,0.00231762,0.0141727,986,1667,4.61643,-30.0825
-231,-643,4.59271,30.4723,0.00218325,0.00305866,0.00150205,0.00418547,0.00105643,0.927174,0.0025133,0.0104539,993,1667,4.59272,-30.4722
-224,-643,4.58447,30.8068,0.00243297,0.00354481,0.00157011,0.00465452,0.00132327,0.955543,0.00276939,0.00895256,1000,1667,4.58447,-30.8067
-217,-643,4.57819,31.1158,0.00263549,0.00413353,0.001808,0.00534152,0.0014275,0.981777,0.00319337,0.00831789,1007,1667,4.57819,-31.1159
-210,-643,4.57721,31.4924,0.00272938,0.00476035,0.00201856,0.00600447,0.00148527,1.01845,0.00361118,0.0117655,1014,1667,4.57721,-31.4924
-203,-643,4.58813,31.9126,0.00268467,0.00521583,0.00202196,0.00633563,0.00156488,1.06503,0.00381078,0.0158803,1021,1667,4.58811,-31.9126
-196,-643,4.60547,32.2329,0.0025729,0.00592655,0.00211885,0.00695181,0.00154764,1.12013,0.00421447,0.0160902,1028,1667,4.6055,-32.2329
-189,-643,4.70654,32.5205,0.00231539,0.00667006,0.00199978,0.00744906,0.00153639,1.19934,0.00454138,0.015796,1035,1667,4.70654,-32.5205
-182,-643,4.74695,32.8909,0.00237061,0.00737696,0.00230826,0.00827877,0.0014688,1.19834,0.00510057,0.021997,1042,1667,4.74692,-32.8908
-175,-643,4.79224,33.2706,0.00220857,0.00865699,0.00272103,0.00965174,0.00121383,1.22031,0.00607047,0.0336921,1049,1667,4.79224,-33.2706
-168,-643,4.88831,33.5836,0.0019238,0.0101096,0.00306432,0.0111296,0.000903787,1.24947,0.00713759,0.0391331,1056,1667,4.88833,-33.5836
-161,-643,4.89587,33.8634,0.00174278,0.0119412,0.00341117,0.012977,0.000707008,1.276,0.00842557,0.0413547,1063,1667,4.89593,-33.8634
-154,-643,4.755,33.9325,0.00148797,0.013587,0.00379778,0.0146803,0.000394675,1.2905,0.00965802,0.0471107,1070,1667,4.75501,-33.9325
-147,-643,4.8949,34.2173,0,0,0,0,0,0,0,-1,1077,1667,4.89491,-34.2173
-140,-643,4.30322,22.9166,0,0,0,0,0,0,0,-1,1084,1667,4.30327,-22.9167
-133,-643,3.66748,21.6034,0,0,0,0,0,0,0,-1,1091,1667,3.66743,-21.6034
-126,-643,3.13904,17.689,0,0,0,0,0,0,0,-1,1098,1667,3.13909,-17.689
-119,-643,3.76282,14.1458,0,0,0,0,0,0,0,-1,1105,1667,3.76283,-14.1458
-112,-643,3.81458,16.2069,0,0,0,0,0,0,0,-1,1112,1667,3.81463,-16.2069
-105,-643,-2.23413,10.0996,0,0,0,0,0,0,0,-1,1119,1667,-2.23415,-10.0996
-98,-643,3.11035,4.68066,0,0,0,0,0,0,0,-1,1126,1667,3.11041,-4.68071
-91,-643,-1.74146,-2.5885,0,0,0,0,0,0,0,-1,1133,1667,-1.74146,2.58856
-84,-643,-3.07446,-0.199341,0,0,0,0,0,0,0,-1,1140,1667,-3.07449,0.199383
-77,-643,-3.63794,2.81165,0,0,0,0,0,0,0,-1,1147,1667,-3.63791,-2.8117
-70,-643,-3.36938,4.45203,0,0,0,0,0,0,0,-1,1154,1667,-3.36941,-4.452
-63,-643,-3.67822,6.26855,0,0,0,0,0,0,0,-1,1161,1667,-3.67823,-6.26856
-56,-643,-3.95142,8.1073,0,0,0,0,0,0,0,-1,1168,1667,-3.95139,-8.10732
-49,-643,-4.23535,9.90552,0,0,0,0,0,0,0,-1,1175,1667,-4.23537,-9.90557
-42,-643,-4.25195,10.7059,0,0,0,0,0,0,0,-1,1182,1667,-4.25192,-10.706
-35,-643,-4.10986,11.6588,0,0,0,0,0,0,0,-1,1189,1667,-4.10982,-11.6589
-28,-643,-1.38513,5.604,0,0,0,0,0,0,0,-1,1196,1667,-1.3851,-5.60403
-21,-643,1.61011,23.1276,0,0,0,0,0,0,0,-1,1203,1667,1.61011,-23.1275
-14,-643,14.6746,39.7666,0,0,0,0,0,0,0,-1,1210,1667,14.6745,-39.7666
-7,-643,13.5797,40.2283,0,0,0,0,0,0,0,-1,1217,1667,13.5797,-40.2282
0,-643,11.4907,42.5828,0,0,0,0,0,0,0,-1,1224,1667,11.4907,-42.5827
7,-643,10.995,41.505,-0.124594,0.0767344,0.0145267,0.0777771,-0.125636,1.49914,0.118519,0.0460543,1231,1667,10.995,-41.505
14,-643,9.95398,41.7428,-0.125208,0.0766631,0.0108904,0.0772489,-0.125793,1.51706,0.118338,0.0440658,1238,1667,9.95393,-41.7427
21,-643,8.92493,41.9619,-0.123122,0.0762778,0.00863996,0.0766515,-0.123496,1.52757,0.116605,0.0418636,1245,1667,8.92497,-41.9619
28,-643,7.65881,42.0974,-0.105074,0.0741223,0.00280852,0.0741663,-0.105118,1.55513,0.104023,0.0411842,1252,1667,7.6588,-42.0974
35,-643,6.56653,41.9662,-0.0599731,0.0880645,-0.015965,0.0897667,-0.0616753,-1.46458,0.087935,0.0412756,1259,1667,6.56653,-41.9662
42,-643,5.4552,42.3362,-0.00873056,0.0933345,-0.028247,0.10063,-0.0160265,-1.31803,0.0730178,0.0461652,1266,1667,5.45516,-42.3362
49,-643,4.56274,42.7186,0.0409347,0.0989612,-0.0384867,0.118145,0.0217505,-1.10838,0.0726076,0.0459975,1273,1667,4.5628,-42.7187
56,-643,4.1355,42.6526,0.0961317,0.105154,-0.0496191,0.150467,0.0508193,-0.830733,0.0883836,0.0451298,1280,1667,4.1355,-42.6526
63,-643,3.64807,43.2363,0,0,0,0,0,0,0,-1,1287,1667,3.64812,-43.2363
70,-643,3.22058,45.2234,0.191623,0.110979,-0.0606041,0.224094,0.0785091,-0.491859,0.131298,0.0427908,1294,1667,3.22063,-45.2233
77,-643,2.90759,46.1802,0.224895,0.106322,-0.0596903,0.249738,0.081479,-0.394398,0.147059,0.0419901,1301,1667,2.90759,-46.1802
84,-643,9.85852,37.6561,0.246094,0.097693,-0.0550189,0.264266,0.0795203,-0.319017,0.156554,0.0441554,1308,1667,9.85858,-37.6561
91,-643,11.4271,38.5969,0.258848,0.0851589,-0.0461382,0.270343,0.0736637,-0.244176,0.161379,0.0468901,1315,1667,11.4271,-38.5969
98,-643,12.2762,39.4636,0.250799,0.0649636,-0.0300547,0.255539,0.0602238,-0.156417,0.154255,0.048243,1322,1667,12.2763,-39.4637
105,-643,13.0686,40.228,0.232558,0.0407859,-0.0125388,0.233374,0.0399696,-0.0650151,0.144119,0.0481615,1329,1667,13.0686,-40.228
112,-643,13.6953,40.9589,0,0,0,0,0,0,0,-1,1336,1667,13.6953,-40.9589
119,-643,13.3198,38.6653,0.153973,-0.0203343,0.0338043,0.1603,-0.0266606,0.185003,0.116772,0.0435321,1343,1667,13.3199,-38.6653
126,-643,13.5438,39.1594,0.107997,-0.0559034,0.0556816,0.125124,-0.0730303,0.298403,0.115715,0.0437511,1350,1667,13.5438,-39.1594
133,-643,14.0693,39.5042,0.0759872,-0.0897252,0.0693695,0.101192,-0.11493,0.348516,0.124863,0.049624,1357,1667,14.0693,-39.5042
140,-643,15.0463,39.8296,0.0708546,-0.115288,0.0685686,0.0933857,-0.137819,0.317477,0.134305,0.0462405,1364,1667,15.0463,-39.8296
147,-643,16.4388,40.3962,0.0798981,-0.135241,0.0708077,0.101111,-0.156454,0.291076,0.149845,0.043749,1371,1667,16.4388,-40.3963
154,-643,17.9347,41.1332,0,0,0,0,0,0,0,-1,1378,1667,17.9347,-41.1332
161,-643,5.57935,26.2754,0,0,0,0,0,0,0,-1,1385,1667,5.57931,-26.2754
168,-643,10.5563,10.9818,0,0,0,0,0,0,0,-1,1392,1667,10.5562,-10.9819
175,-643,5.88525,-1.1698,0,0,0,0,0,0,0,-1,1399,1667,5.88526,1.16977
182,-643,5.80945,-0.418701,0,0,0,0,0,0,0,-1,1406,1667,5.80949,0.418712
189,-643,5.42297,12.9208,0,0,0,0,0,0,0,-1,1413,1667,5.42298,-12.9208
196,-643,5.51953,11.2415,0,0,0,0,0,0,0,-1,1420,1667,5.51948,-11.2414
203,-643,5.60828,9.82153,0,0,0,0,0,0,0,-1,1427,1667,5.60833,-9.82148
210,-643,4.73218,7.58728,0,0,0,0,0,0,0,-1,1434,1667,4.73222,-7.58728
217,-643,3.8031,5.28955,0,0,0,0,0,0,0,-1,1441,1667,3.80305,-5.28955
224,-643,2.96436,2.97095,0,0,0,0,0,0,0,-1,1448,1667,2.96432,-2.97095
231,-643,2.13403,1.08472,0,0,0,0,0,0,0,-1,1455,1667,2.13403,-1.08467
238,-643,1.18152,-0.261963,0,0,0,0,0,0,0,-1,1462,1667,1.18152,0.26192
245,-643,-0.157471,-1.79016,0,0,0,0,0,0,0,-1,1469,1667,-0.157517,1.7901
252,-643,8.08789,0.0202637,0,0,0,0,0,0,0,-1,1476,1667,8.08791,-0.0203056
259,-643,9.02979,-0.46936,0,0,0,0,0,0,0,-1,1483,1667,9.02974,0.46933
266,-643,4.55066,5.17554,0,0,0,0,0,0,0,-1,1490,1667,4.55063,-5.17556
273,-643,10.74,31.432,0,0,0,0,0,0,0,-1,1497,1667,10.7399,-31.4319
280,-643,9.55176,33.9175,0,0,0,0,0,0,0,-1,1504,1667,9.55174,-33.9175
287,-643,9.6416,33.7826,0,0,0,0,0,0,0,-1,1511,1667,9.64161,-33.7826
294,-643,10.5811,33.8853,0,0,0,0,0,0,0,-1,1518,1667,10.5811,-33.8853
301,-643,10.6963,33.6641,0,0,0,0,0,0,0,-1,1525,1667,10.6963,-33.6641
308,-643,10.6361,33.4155,0,0,0,0,0,0,0,-1,1532,1667,10.6361,-33.4155
315,-643,10.6658,33.1277,0.00962603,0.000905911,-0.00180347,0.0099843,0.000547643,-0.196102,0.00648137,0.0417564,1539,1667,10.6658,-33.1277
322,-643,10.7495,32.6412,0.00765698,0.00188535,-0.00115856,0.00788085,0.00166147,-0.190885,0.00479697,0.0279757,1546,1667,10.7495,-32.6412
329,-643,10.7971,32.373,0.00617389,0.00330014,-0.00109177,0.00654161,0.00293242,-0.32488,0.00378353,0.0184211,1553,1667,10.7972,-32.3731
336,-643,10.7335,32.1521,0.00503068,0.00441347,-0.000798801,0.00557842,0.00386573,-0.601063,0.00329969,0.0141791,1560,1667,10.7336,-32.1521
343,-643,10.7561,31.8575,0.00384166,0.00490498,-0.000764091,0.00530418,0.00344246,-1.08935,0.00310737,0.0131464,1567,1667,10.7562,-31.8575
350,-643,10.7959,31.4972,0.00299584,0.00487937,-0.000961683,0.00528362,0.00259159,-1.17287,0.00305069,0.0125125,1574,1667,10.7959,-31.4972
357,-643,10.7795,31.1733,0.00262765,0.0047672,-0.00110096,0.00523252,0.00216232,-1.17092,0.00303612,0.0111234,1581,1667,10.7795,-31.1734
364,-643,10.7844,30.8368,0.00222892,0.00443027,-0.0011296,0.00490677,0.00175242,-1.17161,0.00287121,0.00982359,1588,1667,10.7845,-30.8368
371,-643,10.793,30.5172,0.00182382,0.0038469,-0.000985056,0.00424729,0.00142343,-1.18473,0.00249621,0.00817003,1595,1667,10.793,-30.5172
378,-643,10.7983,30.1814,0.00144657,0.0032004,-0.000833016,0.00353299,0.00111398,-1.19093,0.00208564,0.00969711,1602,1667,10.7984,-30.1814
385,-643,10.8138,29.8086,0.00108185,0.00235168,-0.000614131,0.0026001,0.000833436,-1.18642,0.00153306,0.0154886,1609,1667,10.8139,-29.8085
392,-643,10.807,29.4498,0.000753667,0.00124308,-0.000321349,0.00140229,0.00059446,-1.11081,0.00081273,0.0174217,1616,1667,10.807,-29.4498
399,-643,10.7888,29.144,0.00024479,3.65338e-05,-5.43206e-05,0.000258107,2.32166e-05,-0.240417,0.000164878,0.0150513,1623,1667,10.7888,-29.1441
406,-643,10.7876,28.7615,-0.000439606,-0.000870025,0.000231385,-0.000338818,-0.000970813,0.410801,0.000568955,0.013437,1630,1667,10.7876,-28.7615
413,-643,10.7964,28.3738,-0.000957536,-0.00161173,0.00047473,-0.000708127,-0.00186114,0.483738,0.00108472,0.019188,1637,1667,10.7964,-28.3738
420,-643,10.7502,28.0166,-0.00143376,-0.0022093,0.00062397,-0.00108689,-0.00255618,0.507375,0.00148131,0.017863,1644,1667,10.7503,-28.0166
427,-643,10.7249,27.6627,-0.00171989,-0.00240313,0.000640718,-0.00133541,-0.00278761,0.540477,0.0016099,0.0151956,1651,1667,10.7248,-27.6627
434,-643,10.7106,27.2756,-0.00210974,-0.0024429,0.000539528,-0.00171166,-0.00284098,0.635666,0.00165169,0.0156311,1658,1667,10.7106,-27.2756
441,-643,10.7146,26.8755,-0.00239126,-0.00221606,0.000330637,-0.00196161,-0.0026457,0.914894,0.00158575,0.0148798,1665,1667,10.7145,-26.8755
448,-643,10.6298,26.4886,-0.00252848,-0.00182195,6.51984e-05,-0.00181598,-0.00253444,1.47954,0.0015083,0.0212353,1672,1667,10.6298,-26.4887
455,-643,10.5187,26.0045,-0.00261487,-0.000984963,-0.000161242,-0.000969165,-0.00263067,-1.47313,0.00153625,0.0303172,1679,1667,10.5187,-26.0045
462,-643,10.5653,25.6259,-0.00258529,-0.000122848,-0.000466322,-3.74971e-05,-0.00267064,-1.38977,0.00176806,0.0423408,1686,1667,10.5653,-25.6259
469,-643,10.5233,25.2692,0,0,0,0,0,0,0,-1,1693,1667,10.5233,-25.2691
476,-643,10.5598,24.5066,0,0,0,0,0,0,0,-1,1700,1667,10.5598,-24.5065
483,-643,10.4502,24.3062,0,0,0,0,0,0,0,-1,1707,1667,10.4502,-24.3062
490,-643,10.6885,24.1522,0,0,0,0,0,0,0,-1,1714,1667,10.6884,-24.1522
497,-643,10.9073,23.9465,0,0,0,0,0,0,0,-1,1721,1667,10.9074,-23.9465
504,-643,8.05591,19.0656,0,0,0,0,0,0,0,-1,1728,1667,8.0559,-19.0655
511,-643,7.74719,18.1564,0,0,0,0,0,0,0,-1,1735,1667,7.74724,-18.1563
518,-643,7.40564,0.922607,0,0,0,0,0,0,0,-1,1742,1667,7.4057,-0.922598
525,-643,0,0,0,0,0,0,0,0,0,-1,1749,1667,0,0
532,-643,0,0,0,0,0,0,0,0,0,-1,1756,1667,0,0
539,-643,0,0,0,0,0,0,0,0,0,-1,1763,1667,0,0
546,-643,0,0,0,0,0,0,0,0,0,-1,1770,1667,0,0
553,-643,0,0,0,0,0,0,0,0,0,-1,1777,1667,0,0
560,-643,0,0,0,0,0,0,0,0,0,-1,1784,1667,0,0
567,-643,0,0,0,0,0,0,0,0,0,-1,1791,1667,0,0
574,-643,0,0,0,0,0,0,0,0,0,-1,1798,1667,0,0
581,-643,0,0,0,0,0,0,0,0,0,-1,1805,1667,0,0
588,-643,0,0,0,0,0,0,0,0,0,-1,1812,1667,0,0
595,-643,0,0,0,0,0,0,0,0,0,-1,1819,1667,0,0
602,-643,0,0,0,0,0,0,0,0,0,-1,1826,1667,0,0
609,-643,0,0,0,0,0,0,0,0,0,-1,1833,1667,0,0
616,-643,0,0,0,0,0,0,0,0,0,-1,1840,1667,0,0
623,-643,0,0,0,0,0,0,0,0,0,-1,1847,1667,0,0
630,-643,0,0,0,0,0,0,0,0,0,-1,1854,1667,0,0
637,-643,0,0,0,0,0,0,0,0,0,-1,1861,1667,0,0
644,-643,0,0,0,0,0,0,0,0,0,-1,1868,1667,0,0
651,-643,0,0,0,0,0,0,0,0,0,-1,1875,1667,0,0
658,-643,0,0,0,0,0,0,0,0,0,-1,1882,1667,0,0
665,-643,0,0,0,0,0,0,0,0,0,-1,1889,1667,0,0
672,-643,0,0,0,0,0,0,0,0,0,-1,1896,1667,0,0
679,-643,0,0,0,0,0,0,0,0,0,-1,1903,1667,0,0
686,-643,0,0,0,0,0,0,0,0,0,-1,1910,1667,0,0
693,-643,0,0,0,0,0,0,0,0,0,-1,1917,1667,0,0
700,-643,0,0,0,0,0,0,0,0,0,-1,1924,1667,0,0
707,-643,0,0,0,0,0,0,0,0,0,-1,1931,1667,0,0
714,-643,0,0,0,0,0,0,0,0,0,-1,1938,1667,0,0
721,-643,0,0,0,0,0,0,0,0,0,-1,1945,1667,0,0
728,-643,0,0,0,0,0,0,0,0,0,-1,1952,1667,0,0
735,-643,0,0,0,0,0,0,0,0,0,-1,1959,1667,0,0
742,-643,0,0,0,0,0,0,0,0,0,-1,1966,1667,0,0
749,-643,0,0,0,0,0,0,0,0,0,-1,1973,1667,0,0
756,-643,0,0,0,0,0,0,0,0,0,-1,1980,1667,0,0
763,-643,0,0,0,0,0,0,0,0,0,-1,1987,1667,0,0
770,-643,0,0,0,0,0,0,0,0,0,-1,1994,1667,0,0
777,-643,0,0,0,0,0,0,0,0,0,-1,2001,1667,0,0
784,-643,0,0,0,0,0,0,0,0,0,-1,2008,1667,0,0
791,-643,0,0,0,0,0,0,0,0,0,-1,2015,1667,0,0
798,-643,0,0,0,0,0,0,0,0,0,-1,2022,1667,0,0
805,-643,0,0,0,0,0,0,0,0,0,-1,2029,1667,0,0
812,-643,0,0,0,0,0,0,0,0,0,-1,2036,1667,0,0
-700,-650,0,0,0,0,0,0,0,0,0,-1,524,1674,0,0
-693,-650,0,0,0,0,0,0,0,0,0,-1,531,1674,0,0
-686,-650,0,0,0,0,0,0,0,0,0,-1,538,1674,0,0
-679,-650,0,0,0,0,0,0,0,0,0,-1,545,1674,0,0
-672,-650,0,0,0,0,0,0,0,0,0,-1,552,1674,0,0
-665,-650,0,0,0,0,0,0,0,0,0,-1,559,1674,0,0
-658,-650,0,0,0,0,0,0,0,0,0,-1,566,1674,0,0
-651,-650,0,0,0,0,0,0,0,0,0,-1,573,1674,0,0
-644,-650,0,0,0,0,0,0,0,0,0,-1,580,1674,0,0
-637,-650,0,0,0,0,0,0,0,0,0,-1,587,1674,0,0
-630,-650,0,0,0,0,0,0,0,0,0,-1,594,1674,0,0
-623,-650,0,0,0,0,0,0,0,0,0,-1,601,1674,0,0
-616,-650,0,0,0,0,0,0,0,0,0,-1,608,1674,0,0
-609,-650,0,0,0,0,0,0,0,0,0,-1,615,1674,0,0
-602,-650,0,0,0,0,0,0,0,0,0,-1,622,1674,0,0
-595,-650,0,0,0,0,0,0,0,0,0,-1,629,1674,0,0
-588,-650,0,0,0,0,0,0,0,0,0,-1,636,1674,0,0
-581,-650,0,0,0,0,0,0,0,0,0,-1,643,1674,0,0
-574,-650,0,0,0,0,0,0,0,0,0,-1,650,1674,0,0
-567,-650,0,0,0,0,0,0,0,0,0,-1,657,1674,0,0
-560,-650,0,0,0,0,0,0,0,0,0,-1,664,1674,0,0
-553,-650,0,0,0,0,0,0,0,0,0,-1,671,1674,0,0
-546,-650,0,0,0,0,0,0,0,0,0,-1,678,1674,0,0
-539,-650,0,0,0,0,0,0,0,0,0,-1,685,1674,0,0
-532,-650,0,0,0,0,0,0,0,0,0,-1,692,1674,0,0
-525,-650,0,0,0,0,0,0,0,0,0,-1,699,1674,0,0
-518,-650,0,0,0,0,0,0,0,0,0,-1,706,1674,0,0
-511,-650,0,0,0,0,0,0,0,0,0,-1,713,1674,0,0
-504,-650,0,0,0,0,0,0,0,0,0,-1,720,1674,0,0
-497,-650,0,0,0,0,0,0,0,0,0,-1,727,1674,0,0
-490,-650,0,0,0,0,0,0,0,0,0,-1,734,1674,0,0
-483,-650,0,0,0,0,0,0,0,0,0,-1,741,1674,0,0
-476,-650,0,0,0,0,0,0,0,0,0,-1,748,1674,0,0
-469,-650,0,0,0,0,0,0,0,0,0,-1,755,1674,0,0
-462,-650,0,0,0,0,0,0,0,0,0,-1,762,1674,0,0
-455,-650,0,0,0,0,0,0,0,0,0,-1,769,1674,0,0
-448,-650,0,0,0,0,0,0,0,0,0,-1,776,1674,0,0
-441,-650,0,0,0,0,0,0,0,0,0,-1,783,1674,0,0
-434,-650,0,0,0,0,0,0,0,0,0,-1,790,1674,0,0
-427,-650,0,0,0,0,0,0,0,0,0,-1,797,1674,0,0
-420,-650,0,0,0,0,0,0,0,0,0,-1,804,1674,0,0
-413,-650,0,0,0,0,0,0,0,0,0,-1,811,1674,0,0
-406,-650,0,0,0,0,0,0,0,0,0,-1,818,1674,0,0
-399,-650,0,0,0,0,0,0,0,0,0,-1,825,1674,0,0
-392,-650,5.44415,6.85669,0,0,0,0,0,0,0,-1,832,1674,5.44414,-6.85674
-385,-650,1.74451,14.0183,0,0,0,0,0,0,0,-1,839,1674,1.74453,-14.0183
-378,-650,0.997986,4.11108,0,0,0,0,0,0,0,-1,846,1674,0.998006,-4.11113
-371,-650,-1.80096,3.78625,0,0,0,0,0,0,0,-1,853,1674,-1.80094,-3.78625
-364,-650,-2.95679,2.57507,0,0,0,0,0,0,0,-1,860,1674,-2.95681,-2.57506
-357,-650,1.97833,10.8362,0,0,0,0,0,0,0,-1,867,1674,1.97835,-10.8362
-350,-650,-5.30243,0.159912,0,0,0,0,0,0,0,-1,874,1674,-5.30244,-0.159866
-343,-650,-6.21338,-1.4425,0,0,0,0,0,0,0,-1,881,1674,-6.21341,1.44248
-336,-650,4.59857,24.226,0,0,0,0,0,0,0,-1,888,1674,4.59858,-24.2259
-329,-650,5.04297,24.7621,0.00748203,-0.0211084,-0.000975242,0.00751526,-0.0211417,-0.0340579,0.0171572,0.0495103,895,1674,5.04294,-24.7621
-322,-650,5.27362,25.3314,0.00621543,-0.0193545,-0.000915002,0.00624813,-0.0193872,-0.0357234,0.015435,0.0454097,902,1674,5.27362,-25.3314
-315,-650,5.05945,25.71,0.00508281,-0.0173576,-0.000876437,0.00511699,-0.0173918,-0.038977,0.0136244,0.0411231,909,1674,5.05947,-25.7099
-308,-650,5.04755,26.1294,0.00396043,-0.0149949,-0.000736999,0.00398904,-0.0150235,-0.0388027,0.0115768,0.02481,916,1674,5.04755,-26.1294
-301,-650,5.07404,26.6313,0.00306149,-0.0126176,-0.000456677,0.00307478,-0.0126309,-0.0290936,0.00961089,0.0140044,923,1674,5.07405,-26.6313
-294,-650,5.02698,27.0122,0.00235297,-0.010354,-0.000169579,0.00235523,-0.0103562,-0.0133422,0.00780855,0.0114678,930,1674,5.02699,-27.0122
-287,-650,5.02332,27.4236,0.00178926,-0.00819843,0.000169086,0.00179212,-0.00820129,0.016923,0.00615253,0.0138148,937,1674,5.0233,-27.4235
-280,-650,5.00568,27.8126,0.00131321,-0.00622254,0.000449769,0.00133996,-0.00624929,0.0594035,0.00467727,0.0150415,944,1674,5.00568,-27.8126
-273,-650,4.97827,28.1974,0.000917287,-0.00452989,0.000592117,0.000980908,-0.00459351,0.107036,0.0034363,0.0140408,951,1674,4.97827,-28.1974
-266,-650,4.96179,28.6067,0.000797608,-0.00291617,0.000798565,0.000962041,-0.0030806,0.203072,0.00243852,0.011882,958,1674,4.96177,-28.6067
-259,-650,4.97546,28.9752,0.000793817,-0.00109283,0.000955596,0.00119326,-0.00149227,0.395931,0.00155369,0.0146691,965,1674,4.97544,-28.9752
-252,-650,4.95807,29.3392,0.000750596,0.000226349,0.00106383,0.00158412,-0.00060717,0.664606,0.00130638,0.0136814,972,1674,4.95805,-29.3392
-245,-650,4.95898,29.702,0.000735377,0.00111257,0.00106057,0.00200118,-0.000153238,0.87339,0.00138802,0.0119984,979,1674,4.95898,-29.7021
-238,-650,4.95209,30.0999,0.000956759,0.00168956,0.00108491,0.00246827,0.000178051,0.948247,0.00158949,0.0119699,986,1674,4.95207,-30.0999
-231,-650,4.91046,30.502,0.00125793,0.0020614,0.00108083,0.00281274,0.00050659,0.963333,0.00173118,0.0163059,993,1674,4.91045,-30.5019
-224,-650,4.91925,30.8402,0.00154258,0.00249111,0.00106918,0.00318649,0.000847198,0.994149,0.00190577,0.014392,1000,1674,4.91923,-30.8402
-217,-650,4.9455,31.1514,0.00176668,0.00300941,0.00120267,0.00374174,0.00103434,1.02384,0.00223112,0.00975656,1007,1674,4.94549,-31.1513
-210,-650,4.95959,31.4858,0.00191717,0.00353192,0.00137131,0.00431588,0.0011332,1.05146,0.00258373,0.00903935,1014,1674,4.95957,-31.4859
-203,-650,4.97217,31.8273,0.00199299,0.00388212,0.00137917,0.00460918,0.00126593,1.08565,0.00274972,0.0135184,1021,1674,4.97217,-31.8273
-196,-650,4.96582,32.1337,0.00203855,0.00440673,0.0014785,0.00511685,0.00132843,1.12303,0.00306591,0.0137303,1028,1674,4.96581,-32.1336
-189,-650,4.95691,32.4459,0.00198472,0.00510967,0.00146236,0.00568724,0.00140714,1.19464,0.00342033,0.0118985,1035,1674,4.9569,-32.446
-182,-650,5.00354,32.827,0.0021133,0.00573983,0.00166194,0.00638623,0.0014669,1.19986,0.00386252,0.0109031,1042,1674,5.0035,-32.827
-175,-650,5.02173,33.1051,0.00212568,0.00674496,0.00193679,0.00744955,0.00142109,1.22189,0.00456698,0.0156773,1049,1674,5.02169,-33.1051
-168,-650,5.00977,33.3959,0.00201246,0.00798033,0.00217984,0.00869174,0.00130105,1.25534,0.00541318,0.0186745,1056,1674,5.00975,-33.3958
-161,-650,5.00366,33.6936,0.00197876,0.00950903,0.00242501,0.0102224,0.00126541,1.2847,0.00643474,0.0254922,1063,1674,5.00362,-33.6936
-154,-650,5.08411,33.969,0.0019585,0.0108442,0.00274566,0.0116241,0.00117856,1.29402,0.00738796,0.0304282,1070,1674,5.08406,-33.969
-147,-650,5.19482,34.2507,0,0,0,0,0,0,0,-1,1077,1674,5.19486,-34.2507
-140,-650,4.83044,35.3352,0,0,0,0,0,0,0,-1,1084,1674,4.83044,-35.3352
-133,-650,4.57971,35.736,0,0,0,0,0,0,0,-1,1091,1674,4.57965,-35.7359
-126,-650,4.77869,36.5115,0,0,0,0,0,0,0,-1,1098,1674,4.77864,-36.5115
-119,-650,5.16663,20.6232,0,0,0,0,0,0,0,-1,1105,1674,5.16665,-20.6232
-112,-650,3.86292,14.4513,0,0,0,0,0,0,0,-1,1112,1674,3.8629,-14.4513
-105,-650,4.9259,12.0626,0,0,0,0,0,0,0,-1,1119,1674,4.92591,-12.0626
-98,-650,3.3761,6.78003,0,0,0,0,0,0,0,-1,1126,1674,3.37611,-6.78009
-91,-650,3.66809,7.04443,0,0,0,0,0,0,0,-1,1133,1674,3.66806,-7.04439
-84,-650,-3.82666,-1.59521,0,0,0,0,0,0,0,-1,1140,1674,-3.82661,1.59517
-77,-650,-4.70557,1.90198,0,0,0,0,0,0,0,-1,1147,1674,-4.7056,-1.90194
-70,-650,-4.88171,3.81653,0,0,0,0,0,0,0,-1,1154,1674,-4.88176,-3.81651
-63,-650,-5.14612,5.56543,0,0,0,0,0,0,0,-1,1161,1674,-5.14612,-5.56547
-56,-650,-5.38367,7.41101,0,0,0,0,0,0,0,-1,1168,1674,-5.38361,-7.41102
-49,-650,-5.11316,8.23706,0,0,0,0,0,0,0,-1,1175,1674,-5.11317,-8.23708
-42,-650,-4.99487,9.6792,0,0,0,0,0,0,0,-1,1182,1674,-4.99484,-9.67921
-35,-650,-4.77771,11.3369,0,0,0,0,0,0,0,-1,1189,1674,-4.77769,-11.3369
-28,-650,-4.1936,13.1501,0,0,0,0,0,0,0,-1,1196,1674,-4.19358,-13.1501
-21,-650,14.001,37.6479,0,0,0,0,0,0,0,-1,1203,1674,14.0009,-37.6479
-14,-650,7.27942,38.6459,0,0,0,0,0,0,0,-1,1210,1674,7.27944,-38.6458
-7,-650,13.0361,42.1924,0,0,0,0,0,0,0,-1,1217,1674,13.0362,-42.1924
0,-650,11.9055,42.069,-0.10165,0.069157,0.0157983,0.0706059,-0.103099,1.47934,0.100872,0.04708,1224,1674,11.9055,-42.069
7,-650,10.7935,41.901,-0.104403,0.0720214,0.0129272,0.0729635,-0.105345,1.49804,0.103511,0.0448607,1231,1674,10.7934,-41.901
14,-650,9.80908,41.647,-0.105925,0.0730803,0.00980948,0.0736163,-0.106461,1.51621,0.104543,0.042581,1238,1674,9.80904,-41.6469
21,-650,8.80579,41.6062,-0.105225,0.073611,0.00777382,0.0739482,-0.105562,1.52744,0.104175,0.0433213,1245,1674,8.8058,-41.6063
28,-650,7.75232,41.4783,-0.0855536,0.072749,-0.000197108,0.0727493,-0.0855538,-1.56955,0.091496,0.0422308,1252,1674,7.75237,-41.4783
35,-650,6.70264,41.515,-0.0425806,0.0845017,-0.0182842,0.08708,-0.045159,-1.4307,0.0776165,0.0446624,1259,1674,6.70266,-41.515
42,-650,5.65076,41.5729,0.00129711,0.0883253,-0.0289101,0.0970536,-0.00743122,-1.27759,0.0673163,0.0468219,1266,1674,5.65076,-41.5729
49,-650,4.72412,41.5789,0.0450545,0.0920973,-0.0379862,0.113255,0.023897,-1.06261,0.0689324,0.0453295,1273,1674,4.7241,-41.5789
56,-650,4.15845,41.5745,0.0925371,0.0953706,-0.0471846,0.14116,0.046748,-0.800406,0.0830328,0.0460027,1280,1674,4.15841,-41.5745
63,-650,3.47607,41.9269,0,0,0,0,0,0,0,-1,1287,1674,3.47613,-41.9269
70,-650,3.40356,44.5529,0.176658,0.0973868,-0.0561333,0.205739,0.0683061,-0.477995,0.120998,0.0478465,1294,1674,3.40351,-44.5529
77,-650,3.41833,45.925,0.208373,0.0925681,-0.0549578,0.230302,0.0706391,-0.379657,0.136236,0.0447623,1301,1674,3.41838,-45.925
84,-650,9.03564,37.2859,0.228694,0.0841589,-0.049978,0.244292,0.0685606,-0.302523,0.145496,0.0464119,1308,1674,9.03569,-37.2859
91,-650,10.5117,38.3195,0.240811,0.0723393,-0.0412178,0.250355,0.0627957,-0.227531,0.150406,0.0476633,1315,1674,10.5118,-38.3195
98,-650,11.65,39.3821,0.234414,0.0544426,-0.0260954,0.238121,0.0507352,-0.141126,0.144829,0.0466188,1322,1674,11.65,-39.3821
105,-650,12.6028,39.6061,0.216836,0.0327578,-0.00903368,0.217278,0.0323156,-0.0489185,0.135372,0.0462289,1329,1674,12.6028,-39.6061
112,-650,13.197,39.6383,0.187407,0.00737113,0.0108819,0.188062,0.00671577,0.0601512,0.123197,0.0447168,1336,1674,13.197,-39.6383
119,-650,13.7389,39.8899,0,0,0,0,0,0,0,-1,1343,1674,13.7389,-39.8899
126,-650,13.2931,39.8944,0.106302,-0.0502674,0.0508886,0.121388,-0.0653536,0.288203,0.109422,0.0463236,1350,1674,13.2931,-39.8944
133,-650,13.832,40.417,0.0782429,-0.0772351,0.0624582,0.100225,-0.0992176,0.338416,0.115149,0.0497987,1357,1674,13.832,-40.417
140,-650,14.5367,40.9132,0.071622,-0.0977437,0.0628085,0.092372,-0.118494,0.319081,0.122054,0.0473538,1364,1674,14.5367,-40.9133
147,-650,14.9404,41.616,0.0740866,-0.11061,0.0640665,0.0941336,-0.130657,0.303259,0.130353,0.0463129,1371,1674,14.9404,-41.616
154,-650,15.4779,42.4648,0,0,0,0,0,0,0,-1,1378,1674,15.4779,-42.4649
161,-650,4.09106,30.3021,0,0,0,0,0,0,0,-1,1385,1674,4.09104,-30.3021
168,-650,11.2113,7.87231,0,0,0,0,0,0,0,-1,1392,1674,11.2113,-7.87236
175,-650,5.62537,-0.230713,0,0,0,0,0,0,0,-1,1399,1674,5.62538,0.230745
182,-650,5.56006,0.421631,0,0,0,0,0,0,0,-1,1406,1674,5.56,-0.421652
189,-650,4.81543,11.0654,0,0,0,0,0,0,0,-1,1413,1674,4.81542,-11.0654
196,-650,5.39575,11.9077,0,0,0,0,0,0,0,-1,1420,1674,5.39575,-11.9078
203,-650,3.93628,11.8215,0,0,0,0,0,0,0,-1,1427,1674,3.93624,-11.8216
210,-650,5.40955,8.08594,0,0,0,0,0,0,0,-1,1434,1674,5.40958,-8.086
217,-650,5.12451,4.69739,0,0,0,0,0,0,0,-1,1441,1674,5.12451,-4.69738
224,-650,4.79041,1.45813,0,0,0,0,0,0,0,-1,1448,1674,4.79046,-1.45816
231,-650,4.04102,-0.642212,0,0,0,0,0,0,0,-1,1455,1674,4.04101,0.642209
238,-650,3.23022,-1.43396,0,0,0,0,0,0,0,-1,1462,1674,3.23023,1.43394
245,-650,1.65894,-2.55042,0,0,0,0,0,0,0,-1,1469,1674,1.65889,2.55036
252,-650,8.75342,0.355103,0,0,0,0,0,0,0,-1,1476,1674,8.75337,-0.355147
259,-650,5.61255,3.17566,0,0,0,0,0,0,0,-1,1483,1674,5.61257,-3.17572
266,-650,4.00403,6.10229,0,0,0,0,0,0,0,-1,1490,1674,4.00401,-6.10225
273,-650,9.8822,34.2307,0,0,0,0,0,0,0,-1,1497,1674,9.88218,-34.2308
280,-650,9.65063,34.1157,0.0169726,-0.00504712,-0.00633513,0.0186651,-0.00673965,-0.261069,0.0151966,0.0487077,1504,1674,9.65062,-34.1157
287,-650,9.69617,34.0237,0.0151408,-0.00402019,-0.00497864,0.0163572,-0.00523658,-0.239627,0.0130066,0.0412612,1511,1674,9.69622,-34.0237
294,-650,10.3058,34.0024,0.0132248,-0.00275758,-0.00382866,0.0140946,-0.00362741,-0.223398,0.0108104,0.0436783,1518,1674,10.3058,-34.0024
301,-650,10.3721,33.674,0.0112764,-0.00168243,-0.00284914,0.0118751,-0.00228118,-0.207138,0.00877652,0.0340629,1525,1674,10.3721,-33.674
308,-650,10.4097,33.3544,0.00932666,-0.000667489,-0.00194046,0.0096902,-0.00103102,-0.185198,0.0068298,0.0208987,1532,1674,10.4097,-33.3543
315,-650,10.4166,33.0651,0.00757555,0.000756779,-0.00138206,0.00784503,0.000487307,-0.192563,0.00507539,0.0171405,1539,1674,10.4166,-33.0651
322,-650,10.4108,32.7689,0.00603837,0.00142425,-0.000903721,0.00620906,0.00125356,-0.186674,0.00379124,0.0136838,1546,1674,10.4107,-32.7689
329,-650,10.4597,32.4053,0.00483001,0.00223503,-0.000784475,0.00504873,0.00201631,-0.271901,0.0029345,0.0153453,1553,1674,10.4597,-32.4052
336,-650,10.4586,32.109,0.00387322,0.00294502,-0.000516944,0.00410383,0.00271441,-0.419605,0.00241016,0.0143696,1560,1674,10.4586,-32.109
343,-650,10.4629,31.8058,0.00281212,0.00311738,-0.000418302,0.00341003,0.00251947,-0.960336,0.00204228,0.0140389,1567,1674,10.4629,-31.8058
350,-650,10.4753,31.4969,0.00207309,0.0028639,-0.000561914,0.00315559,0.00178141,-1.09199,0.00182693,0.0161943,1574,1674,10.4753,-31.497
357,-650,10.4587,31.1714,0.00172591,0.00252566,-0.000612687,0.00285741,0.00139415,-1.07452,0.00164989,0.0133701,1581,1674,10.4587,-31.1713
364,-650,10.4479,30.8441,0.0013336,0.00202039,-0.00057277,0.00234481,0.00100917,-1.05544,0.00135814,0.00910052,1588,1674,10.4479,-30.8441
371,-650,10.4412,30.5092,0.000941296,0.00135443,-0.000402703,0.00160045,0.000695271,-1.02238,0.000926669,0.0111369,1595,1674,10.4412,-30.5092
378,-650,10.4408,30.1615,0.000576742,0.000667041,-0.000214393,0.000840987,0.000402796,-0.889178,0.000485687,0.0123406,1602,1674,10.4408,-30.1615
385,-650,10.4541,29.8124,0.000228661,-0.000144779,5.19737e-05,0.000235759,-0.000151877,0.13574,0.000225542,0.0135738,1609,1674,10.4541,-29.8124
392,-650,10.4617,29.4805,-7.90237e-05,-0.00121523,0.000391205,4.26427e-05,-0.0013369,0.301522,0.000905816,0.0179458,1616,1674,10.4617,-29.4805
399,-650,10.4431,29.1488,-0.000596967,-0.0023318,0.000654423,-0.000377793,-0.00255098,0.323171,0.00158976,0.017201,1623,1674,10.4432,-29.1487
406,-650,10.4307,28.7842,-0.00133543,-0.00309172,0.00093342,-0.000932012,-0.00349515,0.40795,0.00208989,0.0152093,1630,1674,10.4307,-28.7842
413,-650,10.4303,28.4045,-0.00187222,-0.00366462,0.00117177,-0.00129322,-0.00424362,0.458936,0.00251156,0.0150773,1637,1674,10.4302,-28.4046
420,-650,10.3945,28.0493,-0.0023727,-0.00395889,0.00126477,-0.00167293,-0.00465865,0.505357,0.00272504,0.0150292,1644,1674,10.3946,-28.0493
427,-650,10.3663,27.696,-0.00271047,-0.00404932,0.00124813,-0.00196358,-0.00479621,0.539251,0.00278421,0.0140562,1651,1674,10.3664,-27.6961
434,-650,10.3344,27.3241,-0.003185,-0.0038608,0.00106541,-0.00240519,-0.00464061,0.631838,0.00267986,0.0167891,1658,1674,10.3343,-27.3241
441,-650,10.3206,27.0034,-0.00356784,-0.00345729,0.000776736,-0.00273386,-0.00429127,0.820921,0.00250841,0.0272855,1665,1674,10.3206,-27.0035
448,-650,10.3629,26.6561,-0.00390463,-0.0029147,0.000394852,-0.0027765,-0.00404283,1.23412,0.00238779,0.0460843,1672,1674,10.363,-26.6562
455,-650,9.89478,25.9454,-0.00417465,-0.00159188,4.32235e-05,-0.00159116,-0.00417538,1.55407,0.00243327,0.04844,1679,1674,9.89482,-25.9454
462,-650,9.91333,25.6453,0,0,0,0,0,0,0,-1,1686,1674,9.91335,-25.6453
469,-650,10.3394,25.4606,0,0,0,0,0,0,0,-1,1693,1674,10.3393,-25.4606
476,-650,10.0289,24.4348,0,0,0,0,0,0,0,-1,1700,1674,10.0289,-24.4349
483,-650,10.2426,24.5127,0,0,0,0,0,0,0,-1,1707,1674,10.2425,-24.5127
490,-650,10.4818,24.3475,0,0,0,0,0,0,0,-1,1714,1674,10.4818,-24.3475
497,-650,10.4985,20.1362,0,0,0,0,0,0,0,-1,1721,1674,10.4986,-20.1362
504,-650,9.69458,18.7721,0,0,0,0,0,0,0,-1,1728,1674,9.6946,-18.772
511,-650,9.37158,17.7506,0,0,0,0,0,0,0,-1,1735,1674,9.37159,-17.7506
518,-650,0,0,0,0,0,0,0,0,0,-1,1742,1674,0,0
525,-650,0,0,0,0,0,0,0,0,0,-1,1749,1674,0,0
532,-650,0,0,0,0,0,0,0,0,0,-1,1756,1674,0,0
539,-650,0,0,0,0,0,0,0,0,0,-1,1763,1674,0,0
546,-650,0,0,0,0,0,0,0,0,0,-1,1770,1674,0,0
553,-650,0,0,0,0,0,0,0,0,0,-1,1777,1674,0,0
560,-650,0,0,0,0,0,0,0,0,0,-1,1784,1674,0,0
567,-650,0,0,0,0,0,0,0,0,0,-1,1791,1674,0,0
574,-650,0,0,0,0,0,0,0,0,0,-1,1798,1674,0,0
581,-650,0,0,0,0,0,0,0,0,0,-1,1805,1674,0,0
588,-650,0,0,0,0,0,0,0,0,0,-1,1812,1674,0,0
595,-650,0,0,0,0,0,0,0,0,0,-1,1819,1674,0,0
602,-650,0,0,0,0,0,0,0,0,0,-1,1826,1674,0,0
609,-650,0,0,0,0,0,0,0,0,0,-1,1833,1674,0,0
616,-650,0,0,0,0,0,0,0,0,0,-1,1840,1674,0,0
623,-650,0,0,0,0,0,0,0,0,0,-1,1847,1674,0,0
630,-650,0,0,0,0,0,0,0,0,0,-1,1854,1674,0,0
637,-650,0,0,0,0,0,0,0,0,0,-1,1861,1674,0,0
644,-650,0,0,0,0,0,0,0,0,0,-1,1868,1674,0,0
651,-650,0,0,0,0,0,0,0,0,0,-1,1875,1674,0,0
658,-650,0,0,0,0,0,0,0,0,0,-1,1882,1674,0,0
665,-650,0,0,0,0,0,0,0,0,0,-1,1889,1674,0,0
672,-650,0,0,0,0,0,0,0,0,0,-1,1896,1674,0,0
679,-650,0,0,0,0,0,0,0,0,0,-1,1903,1674,0,0
686,-650,0,0,0,0,0,0,0,0,0,-1,1910,1674,0,0
693,-650,0,0,0,0,0,0,0,0,0,-1,1917,1674,0,0
700,-650,0,0,0,0,0,0,0,0,0,-1,1924,1674,0,0
707,-650,0,0,0,0,0,0,0,0,0,-1,1931,1674,0,0
714,-650,0,0,0,0,0,0,0,0,0,-1,1938,1674,0,0
721,-650,0,0,0,0,0,0,0,0,0,-1,1945,1674,0,0
728,-650,0,0,0,0,0,0,0,0,0,-1,1952,1674,0,0
735,-650,0,0,0,0,0,0,0,0,0,-1,1959,1674,0,0
742,-650,0,0,0,0,0,0,0,0,0,-1,1966,1674,0,0
749,-650,0,0,0,0,0,0,0,0,0,-1,1973,1674,0,0
756,-650,0,0,0,0,0,0,0,0,0,-1,1980,1674,0,0
763,-650,0,0,0,0,0,0,0,0,0,-1,1987,1674,0,0
770,-650,0,0,0,0,0,0,0,0,0,-1,1994,1674,0,0
777,-650,0,0,0,0,0,0,0,0,0,-1,2001,1674,0,0
784,-650,0,0,0,0,0,0,0,0,0,-1,2008,1674,0,0
791,-650,0,0,0,0,0,0,0,0,0,-1,2015,1674,0,0
798,-650,0,0,0,0,0,0,0,0,0,-1,2022,1674,0,0
805,-650,0,0,0,0,0,0,0,0,0,-1,2029,1674,0,0
812,-650,0,0,0,0,0,0,0,0,0,-1,2036,1674,0,0
-700,-657,0,0,0,0,0,0,0,0,0,-1,524,1681,0,0
-693,-657,0,0,0,0,0,0,0,0,0,-1,531,1681,0,0
-686,-657,0,0,0,0,0,0,0,0,0,-1,538,1681,0,0
-679,-657,0,0,0,0,0,0,0,0,0,-1,545,1681,0,0
-672,-657,0,0,0,0,0,0,0,0,0,-1,552,1681,0,0
-665,-657,0,0,0,0,0,0,0,0,0,-1,559,1681,0,0
-658,-657,0,0,0,0,0,0,0,0,0,-1,566,1681,0,0
-651,-657,0,0,0,0,0,0,0,0,0,-1,573,1681,0,0
-644,-657,0,0,0,0,0,0,0,0,0,-1,580,1681,0,0
-637,-657,0,0,0,0,0,0,0,0,0,-1,587,1681,0,0
-630,-657,0,0,0,0,0,0,0,0,0,-1,594,1681,0,0
-623,-657,0,0,0,0,0,0,0,0,0,-1,601,1681,0,0
-616,-657,0,0,0,0,0,0,0,0,0,-1,608,1681,0,0
-609,-657,0,0,0,0,0,0,0,0,0,-1,615,1681,0,0
-602,-657,0,0,0,0,0,0,0,0,0,-1,622,1681,0,0
-595,-657,0,0,0,0,0,0,0,0,0,-1,629,1681,0,0
-588,-657,0,0,0,0,0,0,0,0,0,-1,636,1681,0,0
-581,-657,0,0,0,0,0,0,0,0,0,-1,643,1681,0,0
-574,-657,0,0,0,0,0,0,0,0,0,-1,650,1681,0,0
-567,-657,0,0,0,0,0,0,0,0,0,-1,657,1681,0,0
-560,-657,0,0,0,0,0,0,0,0,0,-1,664,1681,0,0
-553,-657,0,0,0,0,0,0,0,0,0,-1,671,1681,0,0
-546,-657,0,0,0,0,0,0,0,0,0,-1,678,1681,0,0
-539,-657,0,0,0,0,0,0,0,0,0,-1,685,1681,0,0
-532,-657,0,0,0,0,0,0,0,0,0,-1,692,1681,0,0
-525,-657,0,0,0,0,0,0,0,0,0,-1,699,1681,0,0
-518,-657,0,0,0,0,0,0,0,0,0,-1,706,1681,0,0
-511,-657,0,0,0,0,0,0,0,0,0,-1,713,1681,0,0
-504,-657,0,0,0,0,0,0,0,0,0,-1,720,1681,0,0
-497,-657,0,0,0,0,0,0,0,0,0,-1,727,1681,0,0
-490,-657,0,0,0,0,0,0,0,0,0,-1,734,1681,0,0
-483,-657,0,0,0,0,0,0,0,0,0,-1,741,1681,0,0
-476,-657,0,0,0,0,0,0,0,0,0,-1,748,1681,0,0
-469,-657,0,0,0,0,0,0,0,0,0,-1,755,1681,0,0
-462,-657,0,0,0,0,0,0,0,0,0,-1,762,1681,0,0
-455,-657,0,0,0,0,0,0,0,0,0,-1,769,1681,0,0
-448,-657,0,0,0,0,0,0,0,0,0,-1,776,1681,0,0
-441,-657,0,0,0,0,0,0,0,0,0,-1,783,1681,0,0
-434,-657,0,0,0,0,0,0,0,0,0,-1,790,1681,0,0
-427,-657,0,0,0,0,0,0,0,0,0,-1,797,1681,0,0
-420,-657,0,0,0,0,0,0,0,0,0,-1,804,1681,0,0
-413,-657,0,0,0,0,0,0,0,0,0,-1,811,1681,0,0
-406,-657,0,0,0,0,0,0,0,0,0,-1,818,1681,0,0
-399,-657,0,0,0,0,0,0,0,0,0,-1,825,1681,0,0
-392,-657,0,0,0,0,0,0,0,0,0,-1,832,1681,0,0
-385,-657,1.09814,6.18896,0,0,0,0,0,0,0,-1,839,1681,1.09814,-6.18894
-378,-657,0.31488,4.46753,0,0,0,0,0,0,0,-1,846,1681,0.31487,-4.46755
-371,-657,-0.519043,2.69421,0,0,0,0,0,0,0,-1,853,1681,-0.519064,-2.69422
-364,-657,-3.42017,4.18323,0,0,0,0,0,0,0,-1,860,1681,-3.42019,-4.18319
-357,-657,-4.41913,2.97168,0,0,0,0,0,0,0,-1,867,1681,-4.41913,-2.97165
-350,-657,-5.42291,1.70276,0,0,0,0,0,0,0,-1,874,1681,-5.42291,-1.70277
-343,-657,-6.51294,0.397339,0,0,0,0,0,0,0,-1,881,1681,-6.51295,-0.397335
-336,-657,7.12177,22.8324,0,0,0,0,0,0,0,-1,888,1681,7.12179,-22.8324
-329,-657,5.7879,24.8416,0,0,0,0,0,0,0,-1,895,1681,5.78791,-24.8416
-322,-657,5.85358,25.3452,0,0,0,0,0,0,0,-1,902,1681,5.85358,-25.3452
-315,-657,5.46393,26.1721,0.00794467,-0.0239785,-0.000745904,0.00796209,-0.0239959,-0.0233486,0.0192095,0.0452558,909,1681,5.4639,-26.1722
-308,-657,5.18488,26.2378,0.00618283,-0.0206018,-0.000477936,0.00619135,-0.0206103,-0.0178361,0.0162032,0.0408792,916,1681,5.18487,-26.2378
-301,-657,5.39923,26.7891,0.00470697,-0.0172905,-7.04648e-05,0.0047072,-0.0172907,-0.00320328,0.0133752,0.0321171,923,1681,5.39923,-26.789
-294,-657,5.41528,27.1219,0.00346374,-0.0141561,0.000291326,0.00346856,-0.0141609,0.0165279,0.0107844,0.0217391,930,1681,5.41526,-27.122
-287,-657,5.39496,27.4706,0.00242461,-0.0113065,0.000634241,0.00245384,-0.0113357,0.0460595,0.00849405,0.0144467,937,1681,5.39496,-27.4706
-280,-657,5.36823,27.8159,0.00155213,-0.00875814,0.000857906,0.00162303,-0.00882903,0.0824532,0.00649498,0.0143332,944,1681,5.36821,-27.8159
-273,-657,5.36584,28.2284,0.000822066,-0.00661529,0.000883856,0.00092566,-0.00671888,0.116675,0.00481754,0.0106901,951,1681,5.36582,-28.2285
-266,-657,5.33014,28.629,0.000427448,-0.0046186,0.000977193,0.000610077,-0.00480122,0.18476,0.00342235,0.0153606,958,1681,5.33016,-28.629
-259,-657,5.33203,28.9736,0.000196564,-0.00240818,0.00102235,0.000549901,-0.00276152,0.332761,0.00204906,0.0187567,965,1681,5.33203,-28.9736
-252,-657,5.31012,29.3329,-3.0073e-05,-0.000851868,0.00103243,0.000670226,-0.00155217,0.596012,0.00131635,0.0138361,972,1681,5.31013,-29.3329
-245,-657,5.31689,29.7173,-0.000235136,0.000180811,0.000891602,0.000888375,-0.000942699,0.899978,0.00105733,0.0161582,979,1681,5.3169,-29.7173
-238,-657,5.32031,30.1288,-0.000104878,0.000845506,0.000844966,0.00133973,-0.000599106,1.04155,0.00114629,0.0197849,986,1681,5.3203,-30.1288
-231,-657,5.31079,30.4763,0.000225782,0.00127005,0.000778578,0.00168537,-0.000189531,1.08077,0.00119179,0.0203777,993,1681,5.31076,-30.4763
-224,-657,5.29401,30.8417,0.000566181,0.00169881,0.00066974,0.00200958,0.000255419,1.13636,0.00126321,0.0165064,1000,1681,5.29401,-30.8417
-217,-657,5.3031,31.1821,0.000838936,0.0022009,0.000701707,0.00249774,0.0005421,1.1706,0.00151709,0.00994579,1007,1681,5.30311,-31.1821
-210,-657,5.31073,31.5057,0.00106605,0.0026571,0.000846277,0.00302306,0.000700088,1.16265,0.00182728,0.0103485,1014,1681,5.31071,-31.5058
-203,-657,5.30017,31.8497,0.00126334,0.00293139,0.00087084,0.00330317,0.000891565,1.1673,0.00197325,0.0133635,1021,1681,5.30013,-31.8497
-196,-657,5.29565,32.1626,0.00145319,0.00330402,0.000979761,0.00372632,0.0010309,1.16384,0.00222178,0.0149935,1028,1681,5.29569,-32.1626
-189,-657,5.31018,32.4609,0.00157732,0.00392229,0.00104744,0.00432202,0.00117759,1.20623,0.00258001,0.0109215,1035,1681,5.31022,-32.4609
-182,-657,5.30835,32.7883,0.00177392,0.00443555,0.00116305,0.00487215,0.00133732,1.21168,0.00290675,0.00820132,1042,1681,5.30832,-32.7883
-175,-657,5.32507,33.0953,0.00190168,0.00519106,0.00134427,0.00567054,0.00142221,1.22818,0.00340672,0.0104019,1049,1681,5.32502,-33.0954
-168,-657,5.31604,33.4052,0.00191817,0.00615023,0.00151197,0.0066349,0.0014335,1.26059,0.00403131,0.0123048,1056,1681,5.31603,-33.4052
-161,-657,5.33252,33.7096,0.00198659,0.00740207,0.00165826,0.0078695,0.00151916,1.29605,0.00482041,0.0123524,1063,1681,5.33248,-33.7096
-154,-657,5.38354,33.9697,0.00210617,0.0084865,0.00190533,0.00901217,0.0015805,1.3016,0.00555671,0.0128594,1070,1681,5.38355,-33.9698
-147,-657,5.36914,34.2781,0.00208846,0.00961526,0.00208983,0.0101566,0.00154715,1.31734,0.00631879,0.0259455,1077,1681,5.36915,-34.2781
-140,-657,5.28137,34.8563,0.00221607,0.0107572,0.00226375,0.0113201,0.00165318,1.32708,0.00706046,0.0471944,1084,1681,5.28131,-34.8563
-133,-657,5.12061,35.313,0,0,0,0,0,0,0,-1,1091,1681,5.12062,-35.3129
-126,-657,5.11792,36.1133,0,0,0,0,0,0,0,-1,1098,1681,5.11791,-36.1133
-119,-657,5.18665,36.3679,0,0,0,0,0,0,0,-1,1105,1681,5.18663,-36.3679
-112,-657,4.6051,21.3439,0,0,0,0,0,0,0,-1,1112,1681,4.60512,-21.3438
-105,-657,7.36963,34.7488,0,0,0,0,0,0,0,-1,1119,1681,7.3696,-34.7488
-98,-657,3.78662,8.16785,0,0,0,0,0,0,0,-1,1126,1681,3.78663,-8.16786
-91,-657,3.6521,16.6017,0,0,0,0,0,0,0,-1,1133,1681,3.65215,-16.6017
-84,-657,4.08008,10.4579,0,0,0,0,0,0,0,-1,1140,1681,4.08006,-10.4579
-77,-657,-5.29846,0.396606,0,0,0,0,0,0,0,-1,1147,1681,-5.29842,-0.396573
-70,-657,-4.14893,2.14575,0,0,0,0,0,0,0,-1,1154,1681,-4.14893,-2.1458
-63,-657,-4.1239,3.177,0,0,0,0,0,0,0,-1,1161,1681,-4.12391,-3.17698
-56,-657,-6.40576,5.73987,0,0,0,0,0,0,0,-1,1168,1681,-6.40577,-5.7399
-49,-657,-5.98462,7.54053,0,0,0,0,0,0,0,-1,1175,1681,-5.98466,-7.5405
-42,-657,-5.71948,9.28955,0,0,0,0,0,0,0,-1,1182,1681,-5.71951,-9.2895
-35,-657,-5.44556,11.015,0,0,0,0,0,0,0,-1,1189,1681,-5.44555,-11.015
-28,-657,-1.3446,8.92847,0,0,0,0,0,0,0,-1,1196,1681,-1.34459,-8.92848
-21,-657,7.06494,38.3046,0,0,0,0,0,0,0,-1,1203,1681,7.06488,-38.3046
-14,-657,7.245,38.4091,-0.0798887,0.0542766,0.0146513,0.0558579,-0.08147,1.46328,0.0797446,0.0449034,1210,1681,7.24494,-38.4091
-7,-657,7.41272,38.5425,0,0,0,0,0,0,0,-1,1217,1681,7.41271,-38.5425
0,-657,12.5503,41.3046,-0.0826896,0.0626268,0.0135449,0.0638785,-0.0839413,1.47864,0.0856054,0.0481986,1224,1681,12.5503,-41.3046
7,-657,11.2061,41.3535,-0.0850508,0.0659551,0.0115026,0.0668263,-0.0859219,1.4952,0.0884186,0.049125,1231,1681,11.2061,-41.3535
14,-657,10.0243,41.1747,-0.087023,0.0676081,0.0089446,0.0681238,-0.0875387,1.51321,0.0901045,0.043886,1238,1681,10.0243,-41.1747
21,-657,8.99146,41.0682,-0.0872909,0.0686792,0.0071884,0.0690098,-0.0876215,1.52484,0.0906437,0.0419985,1245,1681,8.99146,-41.0682
28,-657,8.0155,41.163,0,0,0,0,0,0,0,-1,1252,1681,8.01545,-41.163
35,-657,6.93579,41.182,-0.0294637,0.0781009,-0.0180134,0.0810374,-0.0324002,-1.4092,0.06747,0.0432954,1259,1681,6.93582,-41.182
42,-657,5.8645,41.1356,0.0069615,0.0806761,-0.0268975,0.089447,-0.00180945,-1.25558,0.0602436,0.0427333,1266,1681,5.86455,-41.1357
49,-657,4.95471,41.0474,0.0441065,0.0829233,-0.034637,0.103219,0.0238109,-1.04077,0.0624086,0.0431202,1273,1681,4.95469,-41.0474
56,-657,4.05933,41.0093,0.0840827,0.0841508,-0.0421214,0.126238,0.0419953,-0.785803,0.0742317,0.0451877,1280,1681,4.05938,-41.0093
63,-657,3.29614,40.916,0,0,0,0,0,0,0,-1,1287,1681,3.2961,-40.916
70,-657,2.38025,40.7836,0,0,0,0,0,0,0,-1,1294,1681,2.3803,-40.7836
77,-657,4.30762,44.9778,0.184612,0.0783093,-0.0478194,0.202957,0.0599641,-0.366319,0.120402,0.0420033,1301,1681,4.30761,-44.9778
84,-657,8.01477,36.8304,0.20287,0.0702818,-0.0428906,0.215534,0.057617,-0.287123,0.128852,0.0464255,1308,1681,8.01474,-36.8304
91,-657,10.4939,38.787,0,0,0,0,0,0,0,-1,1315,1681,10.4939,-38.787
98,-657,11.0188,39.1421,0.20883,0.0438231,-0.0210782,0.21148,0.0411731,-0.125067,0.129463,0.045277,1322,1681,11.0187,-39.142
105,-657,11.5531,39.4265,0.193106,0.0251123,-0.0055908,0.193292,0.0249264,-0.0332308,0.121408,0.0445172,1329,1681,11.5531,-39.4265
112,-657,12.4438,39.4808,0.168263,0.00373701,0.0115195,0.169065,0.00293437,0.0695642,0.111745,0.0447012,1336,1681,12.4438,-39.4808
119,-657,12.8365,40.0393,0.132893,-0.0193956,0.0296138,0.138448,-0.0249516,0.185458,0.101642,0.0457537,1343,1681,12.8366,-40.0393
126,-657,12.9705,40.6125,0.101051,-0.0429213,0.0441835,0.113529,-0.0553993,0.275245,0.0994368,0.0475537,1350,1681,12.9705,-40.6126
133,-657,13.3313,41.2015,0.0772113,-0.063852,0.0539768,0.0954952,-0.0821359,0.326606,0.102652,0.0480391,1357,1681,13.3313,-41.2015
140,-657,13.8401,41.8567,0.0688476,-0.0810216,0.0560587,0.087496,-0.09967,0.321143,0.108136,0.0464856,1364,1681,13.8401,-41.8567
147,-657,14.2131,42.4073,0.0677688,-0.0899776,0.0568609,0.086128,-0.108337,0.312313,0.112518,0.0494027,1371,1681,14.2131,-42.4073
154,-657,14.5862,42.9543,0,0,0,0,0,0,0,-1,1378,1681,14.5862,-42.9543
161,-657,4.2926,24.9226,0,0,0,0,0,0,0,-1,1385,1681,4.29264,-24.9226
168,-657,5.21643,0.70105,0,0,0,0,0,0,0,-1,1392,1681,5.21648,-0.7011
175,-657,5.52771,0.649048,0,0,0,0,0,0,0,-1,1399,1681,5.52774,-0.649019
182,-657,5.73999,1.02612,0,0,0,0,0,0,0,-1,1406,1681,5.73995,-1.02611
189,-657,5.92126,1.44116,0,0,0,0,0,0,0,-1,1413,1681,5.92126,-1.44115
196,-657,4.92834,9.59021,0,0,0,0,0,0,0,-1,1420,1681,4.9284,-9.59018
203,-657,6.26343,5.16492,0,0,0,0,0,0,0,-1,1427,1681,6.26345,-5.16488
210,-657,3.9856,5.28088,0,0,0,0,0,0,0,-1,1434,1681,3.98555,-5.28084
217,-657,3.95178,5.2843,0,0,0,0,0,0,0,-1,1441,1681,3.95174,-5.28431
224,-657,6.66736,-0.250244,0,0,0,0,0,0,0,-1,1448,1681,6.66737,0.250229
231,-657,6.85498,-1.70752,0,0,0,0,0,0,0,-1,1455,1681,6.855,1.70758
238,-657,5.34143,-2.89819,0,0,0,0,0,0,0,-1,1462,1681,5.34143,2.89813
245,-657,8.66003,-0.102783,0,0,0,0,0,0,0,-1,1469,1681,8.66,0.102824
252,-657,4.78955,0.623779,0,0,0,0,0,0,0,-1,1476,1681,4.7895,-0.623826
259,-657,2.61523,4.31909,0,0,0,0,0,0,0,-1,1483,1681,2.61523,-4.31908
266,-657,5.35437,11.4742,0,0,0,0,0,0,0,-1,1490,1681,5.35441,-11.4742
273,-657,9.85388,34.5878,0,0,0,0,0,0,0,-1,1497,1681,9.85382,-34.5877
280,-657,9.74084,34.4291,0.0126164,-0.00332371,-0.00428798,0.0136967,-0.00440399,-0.246797,0.0108998,0.0459359,1504,1681,9.74079,-34.4291
287,-657,9.82678,34.1697,0.0113538,-0.00286923,-0.00337037,0.0121121,-0.00362747,-0.221288,0.00951716,0.0402568,1511,1681,9.82675,-34.1697
294,-657,10.0934,33.8971,0.00998407,-0.00210203,-0.00263398,0.0105332,-0.00265112,-0.205521,0.00805262,0.0318637,1518,1681,10.0934,-33.897
301,-657,10.072,33.6461,0.00854898,-0.00141849,-0.00198815,0.00893091,-0.00180042,-0.189791,0.006636,0.020024,1525,1681,10.0721,-33.6461
308,-657,10.078,33.3527,0.00713569,-0.000702655,-0.00141442,0.00738311,-0.000950076,-0.173175,0.0052674,0.0133555,1532,1681,10.078,-33.3527
315,-657,10.1204,33.0382,0.00582772,0.000209515,-0.00103701,0.00601302,2.42151e-05,-0.176821,0.00400063,0.010864,1539,1681,10.1204,-33.0382
322,-657,10.1292,32.7236,0.00465408,0.00067408,-0.000716796,0.00477924,0.000548921,-0.172866,0.00301986,0.0127505,1546,1681,10.1292,-32.7236
329,-657,10.139,32.4254,0.00371066,0.00113474,-0.000627789,0.00385552,0.000989882,-0.22677,0.00231213,0.0191734,1553,1681,10.1391,-32.4254
336,-657,10.1489,32.1067,0.00293953,0.00157698,-0.00042453,0.00306097,0.00145554,-0.278632,0.00176796,0.018054,1560,1681,10.1489,-32.1066
343,-657,10.1637,31.7874,0.0020777,0.0016006,-0.000320966,0.00223906,0.00143925,-0.465823,0.00131018,0.0143326,1567,1681,10.1637,-31.7874
350,-657,10.1565,31.4902,0.00147272,0.00121345,-0.000416058,0.00177887,0.000907299,-0.634373,0.0010271,0.0154076,1574,1681,10.1564,-31.4903
357,-657,10.1406,31.1675,0.00113233,0.000700346,-0.00038302,0.00135606,0.000476615,-0.528663,0.000794355,0.0137893,1581,1681,10.1406,-31.1675
364,-657,10.1372,30.8416,0.000733682,4.3546e-05,-0.00025621,0.000818399,-4.11712e-05,-0.319339,0.000559828,0.010248,1588,1681,10.1372,-30.8416
371,-657,10.1213,30.5311,0.00033776,-0.000726191,-3.331e-05,0.000338802,-0.000727232,-0.0312671,0.000628947,0.0145481,1595,1681,10.1213,-30.5311
378,-657,10.105,30.1846,-5.31124e-05,-0.00152599,0.000238281,-1.55227e-05,-0.00156358,0.156464,0.00103725,0.0150792,1602,1681,10.105,-30.1845
385,-657,10.0853,29.8336,-0.000439631,-0.00238879,0.000616435,-0.000261042,-0.00256738,0.281992,0.00163155,0.0132238,1609,1681,10.0854,-29.8337
392,-657,10.0723,29.4902,-0.000777171,-0.00354077,0.00107217,-0.000409991,-0.00390795,0.329944,0.00247996,0.0133011,1616,1681,10.0723,-29.4903
399,-657,10.1011,29.1455,-0.00135735,-0.00468185,0.00140129,-0.000845505,-0.00519369,0.350211,0.00321787,0.0131786,1623,1681,10.1011,-29.1454
406,-657,10.101,28.7942,-0.00221454,-0.00540002,0.00175827,-0.00143487,-0.00617969,0.417378,0.00373455,0.0140502,1630,1681,10.1009,-28.7942
413,-657,10.0823,28.4191,-0.00280548,-0.00587966,0.00206602,-0.00176748,-0.00691766,0.465577,0.00415003,0.0131164,1637,1681,10.0822,-28.4191
420,-657,10.0698,28.0298,-0.00337402,-0.00592083,0.00217904,-0.00212358,-0.00717127,0.520967,0.00425352,0.0149141,1644,1681,10.0699,-28.0298
427,-657,10.0288,27.6365,-0.00381503,-0.00595515,0.00219653,-0.00244178,-0.0073284,0.558738,0.00430882,0.0196146,1651,1681,10.0288,-27.6365
434,-657,9.98926,27.2606,-0.00443495,-0.00554905,0.00199914,-0.0029167,-0.00706729,0.649523,0.00410098,0.0283932,1658,1681,9.98928,-27.2606
441,-657,10.0767,27.187,-0.00498735,-0.00497327,0.00166648,-0.00331381,-0.00664681,0.787511,0.00383754,0.0470773,1665,1681,10.0767,-27.187
448,-657,10.2618,27.1036,0,0,0,0,0,0,0,-1,1672,1681,10.2619,-27.1037
455,-657,9.24011,25.8131,0,0,0,0,0,0,0,-1,1679,1681,9.24015,-25.8131
462,-657,9.90137,25.7837,0,0,0,0,0,0,0,-1,1686,1681,9.90131,-25.7837
469,-657,9.70483,21.9269,0,0,0,0,0,0,0,-1,1693,1681,9.70488,-21.9269
476,-657,8.9519,20.5712,0,0,0,0,0,0,0,-1,1700,1681,8.95194,-20.5712
483,-657,10.0663,21.8628,0,0,0,0,0,0,0,-1,1707,1681,10.0663,-21.8628
490,-657,11.6039,21.2185,0,0,0,0,0,0,0,-1,1714,1681,11.6038,-21.2185
497,-657,9.20862,17.8127,0,0,0,0,0,0,0,-1,1721,1681,9.2086,-17.8127
504,-657,0,0,0,0,0,0,0,0,0,-1,1728,1681,0,0
511,-657,0,0,0,0,0,0,0,0,0,-1,1735,1681,0,0
518,-657,0,0,0,0,0,0,0,0,0,-1,1742,1681,0,0
525,-657,0,0,0,0,0,0,0,0,0,-1,1749,1681,0,0
532,-657,0,0,0,0,0,0,0,0,0,-1,1756,1681,0,0
539,-657,0,0,0,0,0,0,0,0,0,-1,1763,1681,0,0
546,-657,0,0,0,0,0,0,0,0,0,-1,1770,1681,0,0
553,-657,0,0,0,0,0,0,0,0,0,-1,1777,1681,0,0
560,-657,0,0,0,0,0,0,0,0,0,-1,1784,1681,0,0
567,-657,0,0,0,0,0,0,0,0,0,-1,1791,1681,0,0
574,-657,0,0,0,0,0,0,0,0,0,-1,1798,1681,0,0
581,-657,0,0,0,0,0,0,0,0,0,-1,1805,1681,0,0
588,-657,0,0,0,0,0,0,0,0,0,-1,1812,1681,0,0
595,-657,0,0,0,0,0,0,0,0,0,-1,1819,1681,0,0
602,-657,0,0,0,0,0,0,0,0,0,-1,1826,1681,0,0
609,-657,0,0,0,0,0,0,0,0,0,-1,1833,1681,0,0
616,-657,0,0,0,0,0,0,0,0,0,-1,1840,1681,0,0
623,-657,0,0,0,0,0,0,0,0,0,-1,1847,1681,0,0
630,-657,0,0,0,0,0,0,0,0,0,-1,1854,1681,0,0
637,-657,0,0,0,0,0,0,0,0,0,-1,1861,1681,0,0
644,-657,0,0,0,0,0,0,0,0,0,-1,1868,1681,0,0
651,-657,0,0,0,0,0,0,0,0,0,-1,1875,1681,0,0
658,-657,0,0,0,0,0,0,0,0,0,-1,1882,1681,0,0
665,-657,0,0,0,0,0,0,0,0,0,-1,1889,1681,0,0
672,-657,0,0,0,0,0,0,0,0,0,-1,1896,1681,0,0
679,-657,0,0,0,0,0,0,0,0,0,-1,1903,1681,0,0
686,-657,0,0,0,0,0,0,0,0,0,-1,1910,1681,0,0
693,-657,0,0,0,0,0,0,0,0,0,-1,1917,1681,0,0
700,-657,0,0,0,0,0,0,0,0,0,-1,1924,1681,0,0
707,-657,0,0,0,0,0,0,0,0,0,-1,1931,1681,0,0
714,-657,0,0,0,0,0,0,0,0,0,-1,1938,1681,0,0
721,-657,0,0,0,0,0,0,0,0,0,-1,1945,1681,0,0
728,-657,0,0,0,0,0,0,0,0,0,-1,1952,1681,0,0
735,-657,0,0,0,0,0,0,0,0,0,-1,1959,1681,0,0
742,-657,0,0,0,0,0,0,0,0,0,-1,1966,1681,0,0
749,-657,0,0,0,0,0,0,0,0,0,-1,1973,1681,0,0
756,-657,0,0,0,0,0,0,0,0,0,-1,1980,1681,0,0
763,-657,0,0,0,0,0,0,0,0,0,-1,1987,1681,0,0
770,-657,0,0,0,0,0,0,0,0,0,-1,1994,1681,0,0
777,-657,0,0,0,0,0,0,0,0,0,-1,2001,1681,0,0
784,-657,0,0,0,0,0,0,0,0,0,-1,2008,1681,0,0
791,-657,0,0,0,0,0,0,0,0,0,-1,2015,1681,0,0
798,-657,0,0,0,0,0,0,0,0,0,-1,2022,1681,0,0
805,-657,0,0,0,0,0,0,0,0,0,-1,2029,1681,0,0
812,-657,0,0,0,0,0,0,0,0,0,-1,2036,1681,0,0
-700,-664,0,0,0,0,0,0,0,0,0,-1,524,1688,0,0
-693,-664,0,0,0,0,0,0,0,0,0,-1,531,1688,0,0
-686,-664,0,0,0,0,0,0,0,0,0,-1,538,1688,0,0
-679,-664,0,0,0,0,0,0,0,0,0,-1,545,1688,0,0
-672,-664,0,0,0,0,0,0,0,0,0,-1,552,1688,0,0
-665,-664,0,0,0,0,0,0,0,0,0,-1,559,1688,0,0
-658,-664,0,0,0,0,0,0,0,0,0,-1,566,1688,0,0
-651,-664,0,0,0,0,0,0,0,0,0,-1,573,1688,0,0
-644,-664,0,0,0,0,0,0,0,0,0,-1,580,1688,0,0
-637,-664,0,0,0,0,0,0,0,0,0,-1,587,1688,0,0
-630,-664,0,0,0,0,0,0,0,0,0,-1,594,1688,0,0
-623,-664,0,0,0,0,0,0,0,0,0,-1,601,1688,0,0
-616,-664,0,0,0,0,0,0,0,0,0,-1,608,1688,0,0
-609,-664,0,0,0,0,0,0,0,0,0,-1,615,1688,0,0
-602,-664,0,0,0,0,0,0,0,0,0,-1,622,1688,0,0
-595,-664,0,0,0,0,0,0,0,0,0,-1,629,1688,0,0
-588,-664,0,0,0,0,0,0,0,0,0,-1,636,1688,0,0
-581,-664,0,0,0,0,0,0,0,0,0,-1,643,1688,0,0
-574,-664,0,0,0,0,0,0,0,0,0,-1,650,1688,0,0
-567,-664,0,0,0,0,0,0,0,0,0,-1,657,1688,0,0
-560,-664,0,0,0,0,0,0,0,0,0,-1,664,1688,0,0
-553,-664,0,0,0,0,0,0,0,0,0,-1,671,1688,0,0
-546,-664,0,0,0,0,0,0,0,0,0,-1,678,1688,0,0
-539,-664,0,0,0,0,0,0,0,0,0,-1,685,1688,0,0
-532,-664,0,0,0,0,0,0,0,0,0,-1,692,1688,0,0
-525,-664,0,0,0,0,0,0,0,0,0,-1,699,1688,0,0
-518,-664,0,0,0,0,0,0,0,0,0,-1,706,1688,0,0
-511,-664,0,0,0,0,0,0,0,0,0,-1,713,1688,0,0
-504,-664,0,0,0,0,0,0,0,0,0,-1,720,1688,0,0
-497,-664,0,0,0,0,0,0,0,0,0,-1,727,1688,0,0
-490,-664,0,0,0,0,0,0,0,0,0,-1,734,1688,0,0
-483,-664,0,0,0,0,0,0,0,0,0,-1,741,1688,0,0
-476,-664,0,0,0,0,0,0,0,0,0,-1,748,1688,0,0
-469,-664,0,0,0,0,0,0,0,0,0,-1,755,1688,0,0
-462,-664,0,0,0,0,0,0,0,0,0,-1,762,1688,0,0
-455,-664,0,0,0,0,0,0,0,0,0,-1,769,1688,0,0
-448,-664,0,0,0,0,0,0,0,0,0,-1,776,1688,0,0
-441,-664,0,0,0,0,0,0,0,0,0,-1,783,1688,0,0
-434,-664,0,0,0,0,0,0,0,0,0,-1,790,1688,0,0
-427,-664,0,0,0,0,0,0,0,0,0,-1,797,1688,0,0
-420,-664,0,0,0,0,0,0,0,0,0,-1,804,1688,0,0
-413,-664,0,0,0,0,0,0,0,0,0,-1,811,1688,0,0
-406,-664,0,0,0,0,0,0,0,0,0,-1,818,1688,0,0
-399,-664,0,0,0,0,0,0,0,0,0,-1,825,1688,0,0
-392,-664,0,0,0,0,0,0,0,0,0,-1,832,1688,0,0
-385,-664,0,0,0,0,0,0,0,0,0,-1,839,1688,0,0
-378,-664,0,0,0,0,0,0,0,0,0,-1,846,1688,0,0
-371,-664,-1.61676,5.92737,0,0,0,0,0,0,0,-1,853,1688,-1.61675,-5.92735
-364,-664,-3.901,5.87024,0,0,0,0,0,0,0,-1,860,1688,-3.90097,-5.87027
-357,-664,-4.81012,4.53479,0,0,0,0,0,0,0,-1,867,1688,-4.81012,-4.5348
-350,-664,-5.7193,3.19934,0,0,0,0,0,0,0,-1,874,1688,-5.71927,-3.19932
-343,-664,7.80219,22.6451,0,0,0,0,0,0,0,-1,881,1688,7.80219,-22.6451
-336,-664,7.38434,23.2649,0,0,0,0,0,0,0,-1,888,1688,7.38432,-23.2649
-329,-664,5.74603,23.8534,0,0,0,0,0,0,0,-1,895,1688,5.74601,-23.8534
-322,-664,5.28546,27.0173,0,0,0,0,0,0,0,-1,902,1688,5.28544,-27.0173
-315,-664,5.5957,27.0632,0.0120321,-0.0323108,-0.000115946,0.0120324,-0.0323111,-0.00261475,0.026479,0.048064,909,1688,5.5957,-27.0632
-308,-664,5.90149,27.0917,0.00937753,-0.0275158,0.000366789,0.00938118,-0.0275194,0.00994057,0.0221459,0.0485942,916,1688,5.90146,-27.0917
-301,-664,6.02246,27.1019,0.00709833,-0.0229452,0.000933572,0.00712731,-0.0229741,0.0310341,0.0181641,0.0478918,923,1688,6.02247,-27.1019
-294,-664,6.07684,27.1068,0.00512387,-0.0186453,0.00136676,0.0052022,-0.0187237,0.05725,0.0145303,0.0447447,930,1688,6.07684,-27.1068
-287,-664,5.89581,27.5134,0.00345722,-0.0148825,0.0016746,0.00360887,-0.0150342,0.0903145,0.0114175,0.0334905,937,1688,5.89579,-27.5134
-280,-664,5.72607,27.8602,0.0020974,-0.0116111,0.00177821,0.00232431,-0.011838,0.126918,0.00877002,0.0222892,944,1688,5.7261,-27.8602
-273,-664,5.71991,28.2358,0.000979944,-0.00887758,0.00162113,0.0012397,-0.00913734,0.158883,0.00654405,0.016491,951,1688,5.71988,-28.2359
-266,-664,5.6687,28.6255,0.000282372,-0.00641707,0.00153854,0.000618808,-0.0067535,0.215283,0.00472214,0.0225614,958,1688,5.66872,-28.6254
-259,-664,5.67126,28.99,-0.00018366,-0.0037826,0.00142161,0.000310134,-0.00427639,0.334311,0.00295973,0.0181146,965,1688,5.67129,-28.99
-252,-664,5.69745,29.3566,-0.000577116,-0.00196404,0.00129615,0.000199424,-0.00274058,0.539765,0.00189703,0.0159812,972,1688,5.69744,-29.3566
-245,-664,5.65643,29.762,-0.000974302,-0.000751809,0.000976288,0.00011955,-0.00184566,0.842128,0.00127216,0.0210697,979,1688,5.65643,-29.762
-238,-664,5.69855,30.1472,-0.000920221,2.05805e-05,0.000833796,0.000507516,-0.00140716,1.04223,0.00114539,0.0245892,986,1688,5.69857,-30.1472
-231,-664,5.68658,30.4677,-0.000538942,0.000495025,0.000698828,0.000847313,-0.00089123,1.10386,0.00100385,0.020361,993,1688,5.6866,-30.4676
-224,-664,5.64777,30.8196,-0.000129807,0.000920493,0.000489567,0.0011133,-0.000322612,1.19562,0.00086991,0.013504,1000,1688,5.64777,-30.8196
-217,-664,5.62018,31.1776,0.00017165,0.00141954,0.000428899,0.00155274,3.84544e-05,1.26969,0.00102258,0.0096866,1007,1688,5.62019,-31.1776
-210,-664,5.61835,31.5154,0.000431859,0.00182341,0.000583766,0.00203586,0.000219402,1.22176,0.00129034,0.0110878,1014,1688,5.61837,-31.5154
-203,-664,5.60193,31.8589,0.000692634,0.0020601,0.000649608,0.00231949,0.000433244,1.19089,0.00142405,0.0136491,1021,1688,5.60192,-31.8589
-196,-664,5.60364,32.158,0.000933759,0.00234576,0.000760632,0.00267754,0.000601975,1.15948,0.00162204,0.0148557,1028,1688,5.60362,-32.1579
-189,-664,5.62439,32.4633,0.00111462,0.00285897,0.000833157,0.00319296,0.000780631,1.18953,0.00192202,0.0102151,1035,1688,5.62443,-32.4633
-182,-664,5.62439,32.7972,0.00134716,0.00326969,0.000895086,0.0036219,0.000994952,1.19591,0.0021607,0.00889942,1042,1688,5.62435,-32.7973
-175,-664,5.63879,33.0782,0.00152786,0.00385184,0.00100956,0.00422915,0.00115055,1.21314,0.00252486,0.0117422,1049,1688,5.6388,-33.0782
-168,-664,5.65784,33.3628,0.00159782,0.00462004,0.00111408,0.00498633,0.00123153,1.25315,0.00299921,0.0134977,1056,1688,5.65788,-33.3628
-161,-664,5.64758,33.6536,0.00171297,0.00567277,0.00116656,0.00599088,0.00139486,1.30458,0.00361969,0.0106313,1063,1688,5.64759,-33.6536
-154,-664,5.69702,33.938,0.00190125,0.00661073,0.00131951,0.00695523,0.00155675,1.31541,0.00421485,0.0106542,1070,1688,5.69696,-33.938
-147,-664,5.69849,34.2244,0.00197948,0.00759346,0.00142412,0.00793406,0.00163888,1.33604,0.00483654,0.0158901,1077,1688,5.69846,-34.2243
-140,-664,5.70117,34.5326,0.0021657,0.00856298,0.00152288,0.008907,0.00182168,1.34862,0.00543354,0.0209424,1084,1688,5.70121,-34.5327
-133,-664,5.76025,34.785,0,0,0,0,0,0,0,-1,1091,1688,5.76029,-34.785
-126,-664,5.74695,35.1659,0,0,0,0,0,0,0,-1,1098,1688,5.74699,-35.1659
-119,-664,5.61548,35.7798,0,0,0,0,0,0,0,-1,1105,1688,5.61547,-35.7798
-112,-664,6.15747,35.7117,0,0,0,0,0,0,0,-1,1112,1688,6.15748,-35.7116
-105,-664,6.78137,35.389,0,0,0,0,0,0,0,-1,1119,1688,6.78142,-35.3891
-98,-664,6.32947,35.897,0,0,0,0,0,0,0,-1,1126,1688,6.32951,-35.897
-91,-664,5.41931,25.6302,0,0,0,0,0,0,0,-1,1133,1688,5.41932,-25.6302
-84,-664,3.48389,16.6913,0,0,0,0,0,0,0,-1,1140,1688,3.4839,-16.6913
-77,-664,4.52014,11.2122,0,0,0,0,0,0,0,-1,1147,1688,4.5202,-11.2122
-70,-664,4.20374,8.24524,0,0,0,0,0,0,0,-1,1154,1688,4.20379,-8.24519
-63,-664,-4.677,2.40503,0,0,0,0,0,0,0,-1,1161,1688,-4.67702,-2.40498
-56,-664,-4.66504,3.32727,0,0,0,0,0,0,0,-1,1168,1688,-4.6651,-3.32724
-49,-664,-2.54297,3.31848,0,0,0,0,0,0,0,-1,1175,1688,-2.54297,-3.31852
-42,-664,-0.359253,4.38684,0,0,0,0,0,0,0,-1,1182,1688,-0.359261,-4.38685
-35,-664,-0.705566,3.55017,0,0,0,0,0,0,0,-1,1189,1688,-0.705567,-3.55023
-28,-664,-1.54236,10.2538,0,0,0,0,0,0,0,-1,1196,1688,-1.54236,-10.2538
-21,-664,6.79456,38.1381,0,0,0,0,0,0,0,-1,1203,1688,6.79456,-38.1381
-14,-664,7.07373,38.109,0,0,0,0,0,0,0,-1,1210,1688,7.07376,-38.109
-7,-664,7.35291,38.0798,0,0,0,0,0,0,0,-1,1217,1688,7.35295,-38.0798
0,-664,7.43848,38.5536,0,0,0,0,0,0,0,-1,1224,1688,7.43845,-38.5536
7,-664,11.6293,40.8234,0,0,0,0,0,0,0,-1,1231,1688,11.6293,-40.8234
14,-664,10.2272,40.7926,0,0,0,0,0,0,0,-1,1238,1688,10.2272,-40.7926
21,-664,9.18127,40.5542,0,0,0,0,0,0,0,-1,1245,1688,9.18124,-40.5542
28,-664,8.33655,41.1455,0,0,0,0,0,0,0,-1,1252,1688,8.33654,-41.1455
35,-664,7.27527,41.009,-0.0196553,0.0701058,-0.016232,0.072951,-0.0225005,-1.39728,0.0576177,0.0450865,1259,1688,7.2753,-41.009
42,-664,6.19116,40.7483,0.0097907,0.0716871,-0.0234758,0.0795835,0.00189429,-1.24632,0.0524356,0.0411573,1266,1688,6.19116,-40.7482
49,-664,5.24182,40.4368,0.0404414,0.0727551,-0.0299089,0.0905922,0.0226044,-1.03304,0.0544472,0.04254,1273,1688,5.24183,-40.4367
56,-664,4.39929,40.3729,0.0735051,0.072586,-0.0359179,0.108966,0.0371247,-0.779001,0.0639673,0.0470412,1280,1688,4.39932,-40.373
63,-664,3.41101,40.5547,0,0,0,0,0,0,0,-1,1287,1688,3.411,-40.5547
70,-664,2.84094,40.4528,0,0,0,0,0,0,0,-1,1294,1688,2.84096,-40.4528
77,-664,5.39417,44.0563,0.15821,0.0645924,-0.039806,0.172847,0.0499554,-0.352362,0.102712,0.0433712,1301,1688,5.39414,-44.0563
84,-664,8.98547,38.2971,0.173798,0.0570856,-0.0351539,0.183568,0.0473151,-0.271093,0.110051,0.0479643,1308,1688,8.98543,-38.2971
91,-664,9.79541,38.5829,0.183267,0.0471957,-0.0277588,0.188712,0.0417507,-0.193693,0.114458,0.045016,1315,1688,9.79541,-38.5829
98,-664,10.3401,38.8931,0.179397,0.0339382,-0.0159206,0.181119,0.032216,-0.107751,0.111569,0.0474436,1322,1688,10.3401,-38.893
105,-664,10.8544,39.1736,0.166115,0.018333,-0.00260242,0.166161,0.0182872,-0.0176025,0.105209,0.0488871,1329,1688,10.8544,-39.1736
112,-664,11.7631,39.5697,0.146295,0.000991671,0.011408,0.147185,0.000101462,0.0778759,0.0980897,0.0458124,1336,1688,11.763,-39.5697
119,-664,12.7327,40.0131,0.11796,-0.0172169,0.025769,0.122706,-0.0219627,0.182126,0.0900221,0.0480971,1343,1688,12.7327,-40.0131
126,-664,13.6016,40.4259,0,0,0,0,0,0,0,-1,1350,1688,13.6016,-40.4259
133,-664,12.811,41.9783,0,0,0,0,0,0,0,-1,1357,1688,12.8111,-41.9783
140,-664,13.2102,42.8055,0,0,0,0,0,0,0,-1,1364,1688,13.2102,-42.8055
147,-664,13.5709,43.285,0,0,0,0,0,0,0,-1,1371,1688,13.5709,-43.285
154,-664,4.76721,26.2594,0,0,0,0,0,0,0,-1,1378,1688,4.76723,-26.2594
161,-664,4.60132,1.56238,0,0,0,0,0,0,0,-1,1385,1688,4.60134,-1.56233
168,-664,5.172,1.25488,0,0,0,0,0,0,0,-1,1392,1688,5.17203,-1.25484
175,-664,5.58313,1.16467,0,0,0,0,0,0,0,-1,1399,1688,5.58317,-1.16466
182,-664,5.74268,1.41113,0,0,0,0,0,0,0,-1,1406,1688,5.74263,-1.41115
189,-664,5.87744,1.87061,0,0,0,0,0,0,0,-1,1413,1688,5.87745,-1.87065
196,-664,6.7594,5.97473,0,0,0,0,0,0,0,-1,1420,1688,6.75943,-5.97478
203,-664,5.38452,5.22034,0,0,0,0,0,0,0,-1,1427,1688,5.38453,-5.2203
210,-664,5.25549,6.45715,0,0,0,0,0,0,0,-1,1434,1688,5.25549,-6.45721
217,-664,5.72009,6.73975,0,0,0,0,0,0,0,-1,1441,1688,5.72014,-6.73972
224,-664,5.05725,7.42908,0,0,0,0,0,0,0,-1,1448,1688,5.05723,-7.42912
231,-664,5.13318,7.60864,0,0,0,0,0,0,0,-1,1455,1688,5.13313,-7.60862
238,-664,4.23193,6.45471,0,0,0,0,0,0,0,-1,1462,1688,4.23197,-6.45476
245,-664,4.42004,6.80896,0,0,0,0,0,0,0,-1,1469,1688,4.4201,-6.80901
252,-664,3.67346,6.85461,0,0,0,0,0,0,0,-1,1476,1688,3.6734,-6.85462
259,-664,4.55823,11.7435,0,0,0,0,0,0,0,-1,1483,1688,4.55826,-11.7435
266,-664,9.45642,34.5236,0,0,0,0,0,0,0,-1,1490,1688,9.45639,-34.5235
273,-664,9.67419,34.6206,0,0,0,0,0,0,0,-1,1497,1688,9.67418,-34.6207
280,-664,9.66968,34.3948,0.00914383,-0.0024712,-0.00266247,0.00972506,-0.00305242,-0.21493,0.00770509,0.0297707,1504,1688,9.66967,-34.3947
287,-664,9.67249,34.1167,0.00831427,-0.00219344,-0.00214292,0.00873449,-0.00261366,-0.193639,0.00686218,0.0244053,1511,1688,9.67252,-34.1167
294,-664,9.74683,33.8748,0.00740031,-0.00160733,-0.00175664,0.00773076,-0.00193778,-0.185942,0.00590669,0.0177613,1518,1688,9.74677,-33.8747
301,-664,9.77563,33.6157,0.00642372,-0.00108304,-0.0014336,0.00668819,-0.00134751,-0.182424,0.00496924,0.0118593,1525,1688,9.77561,-33.6157
308,-664,9.81091,33.3097,0.00542416,-0.000518256,-0.00115484,0.0056407,-0.000734796,-0.185354,0.00402781,0.0106827,1532,1688,9.81087,-33.3097
315,-664,9.84058,33.0197,0.00446884,4.9295e-05,-0.000963539,0.00466978,-0.000151638,-0.20559,0.00316494,0.0109607,1539,1688,9.84059,-33.0197
322,-664,9.86121,32.7512,0.00359326,0.000358736,-0.000798361,0.00377959,0.000172414,-0.229277,0.00246426,0.0143796,1546,1688,9.86115,-32.7512
329,-664,9.84119,32.4733,0.00284877,0.000472369,-0.000728993,0.00305458,0.000266564,-0.275153,0.0019536,0.0173006,1553,1688,9.84125,-32.4733
336,-664,9.82874,32.1439,0.00221273,0.000588066,-0.000567177,0.00239114,0.000409654,-0.304761,0.00147661,0.0150278,1560,1688,9.82878,-32.144
343,-664,9.81897,31.8182,0.00152108,0.000389926,-0.00043326,0.00166796,0.000243049,-0.326847,0.00104046,0.0117794,1567,1688,9.81899,-31.8182
350,-664,9.82166,31.5038,0.00101948,-0.000240751,-0.000425204,0.00114952,-0.000370796,-0.296807,0.000915334,0.0134633,1574,1688,9.8217,-31.5038
357,-664,9.82336,31.1714,0.000649454,-0.00102877,-0.000249773,0.000685839,-0.00106515,-0.144656,0.00101881,0.0126094,1581,1688,9.82336,-31.1713
364,-664,9.82373,30.8419,0.000225067,-0.00191283,1.2905e-05,0.000225144,-0.0019129,0.00603604,0.00135656,0.0111478,1588,1688,9.82372,-30.8419
371,-664,9.80994,30.5323,-0.000189737,-0.00284155,0.000339839,-0.000146879,-0.00288441,0.125453,0.0018759,0.0138324,1595,1688,9.8099,-30.5323
378,-664,9.78064,30.2067,-0.000627571,-0.00382513,0.00074154,-0.000463972,-0.00398873,0.217142,0.00251878,0.0128086,1602,1688,9.7806,-30.2067
385,-664,9.75378,29.8661,-0.0010498,-0.0047449,0.00123484,-0.000675127,-0.00511958,0.29459,0.00321175,0.0140582,1609,1688,9.75373,-29.8661
392,-664,9.71814,29.5228,-0.00141779,-0.00597076,0.00181185,-0.000784776,-0.00660377,0.336117,0.00416563,0.0169674,1616,1688,9.71811,-29.5229
399,-664,9.75464,29.1497,-0.00205037,-0.00714124,0.00222676,-0.00121384,-0.00797777,0.35936,0.00496362,0.0140279,1623,1688,9.75459,-29.1496
406,-664,9.76123,28.7946,-0.00302656,-0.00785771,0.00268109,-0.00183337,-0.00905091,0.418724,0.00552516,0.0128143,1630,1688,9.76127,-28.7946
413,-664,9.74207,28.4054,-0.00369871,-0.00828588,0.00309057,-0.00214364,-0.00984095,0.466177,0.00597565,0.0143085,1637,1688,9.74213,-28.4054
420,-664,9.73804,28.0449,-0.00437119,-0.00806601,0.00326113,-0.00247055,-0.00996665,0.527689,0.00599313,0.0339777,1644,1688,9.73803,-28.0449
427,-664,9.77136,27.5208,0,0,0,0,0,0,0,-1,1651,1688,9.77139,-27.5208
434,-664,9.62866,27.1066,0,0,0,0,0,0,0,-1,1658,1688,9.62862,-27.1066
441,-664,9.55127,27.1769,0,0,0,0,0,0,0,-1,1665,1688,9.55121,-27.1769
448,-664,7.27502,19.7417,0,0,0,0,0,0,0,-1,1672,1688,7.27505,-19.7417
455,-664,7.53198,11.3838,0,0,0,0,0,0,0,-1,1679,1688,7.53195,-11.3838
462,-664,4.3147,4.25439,0,0,0,0,0,0,0,-1,1686,1688,4.31467,-4.25435
469,-664,6.05469,7.49341,0,0,0,0,0,0,0,-1,1693,1688,6.05474,-7.49339
476,-664,10.2377,22.7128,0,0,0,0,0,0,0,-1,1700,1688,10.2377,-22.7128
483,-664,8.41895,10.9768,0,0,0,0,0,0,0,-1,1707,1688,8.41897,-10.9769
490,-664,3.90771,13.2842,0,0,0,0,0,0,0,-1,1714,1688,3.90776,-13.2841
497,-664,0,0,0,0,0,0,0,0,0,-1,1721,1688,0,0
504,-664,0,0,0,0,0,0,0,0,0,-1,1728,1688,0,0
511,-664,0,0,0,0,0,0,0,0,0,-1,1735,1688,0,0
518,-664,0,0,0,0,0,0,0,0,0,-1,1742,1688,0,0
525,-664,0,0,0,0,0,0,0,0,0,-1,1749,1688,0,0
532,-664,0,0,0,0,0,0,0,0,0,-1,1756,1688,0,0
539,-664,0,0,0,0,0,0,0,0,0,-1,1763,1688,0,0
546,-664,0,0,0,0,0,0,0,0,0,-1,1770,1688,0,0
553,-664,0,0,0,0,0,0,0,0,0,-1,1777,1688,0,0
560,-664,0,0,0,0,0,0,0,0,0,-1,1784,1688,0,0
567,-664,0,0,0,0,0,0,0,0,0,-1,1791,1688,0,0
574,-664,0,0,0,0,0,0,0,0,0,-1,1798,1688,0,0
581,-664,0,0,0,0,0,0,0,0,0,-1,1805,1688,0,0
588,-664,0,0,0,0,0,0,0,0,0,-1,1812,1688,0,0
595,-664,0,0,0,0,0,0,0,0,0,-1,1819,1688,0,0
602,-664,0,0,0,0,0,0,0,0,0,-1,1826,1688,0,0
609,-664,0,0,0,0,0,0,0,0,0,-1,1833,1688,0,0
616,-664,0,0,0,0,0,0,0,0,0,-1,1840,1688,0,0
623,-664,0,0,0,0,0,0,0,0,0,-1,1847,1688,0,0
630,-664,0,0,0,0,0,0,0,0,0,-1,1854,1688,0,0
637,-664,0,0,0,0,0,0,0,0,0,-1,1861,1688,0,0
644,-664,0,0,0,0,0,0,0,0,0,-1,1868,1688,0,0
651,-664,0,0,0,0,0,0,0,0,0,-1,1875,1688,0,0
658,-664,0,0,0,0,0,0,0,0,0,-1,1882,1688,0,0
665,-664,0,0,0,0,0,0,0,0,0,-1,1889,1688,0,0
672,-664,0,0,0,0,0,0,0,0,0,-1,1896,1688,0,0
679,-664,0,0,0,0,0,0,0,0,0,-1,1903,1688,0,0
686,-664,0,0,0,0,0,0,0,0,0,-1,1910,1688,0,0
693,-664,0,0,0,0,0,0,0,0,0,-1,1917,1688,0,0
700,-664,0,0,0,0,0,0,0,0,0,-1,1924,1688,0,0
707,-664,0,0,0,0,0,0,0,0,0,-1,1931,1688,0,0
714,-664,0,0,0,0,0,0,0,0,0,-1,1938,1688,0,0
721,-664,0,0,0,0,0,0,0,0,0,-1,1945,1688,0,0
728,-664,0,0,0,0,0,0,0,0,0,-1,1952,1688,0,0
735,-664,0,0,0,0,0,0,0,0,0,-1,1959,1688,0,0
742,-664,0,0,0,0,0,0,0,0,0,-1,1966,1688,0,0
749,-664,0,0,0,0,0,0,0,0,0,-1,1973,1688,0,0
756,-664,0,0,0,0,0,0,0,0,0,-1,1980,1688,0,0
763,-664,0,0,0,0,0,0,0,0,0,-1,1987,1688,0,0
770,-664,0,0,0,0,0,0,0,0,0,-1,1994,1688,0,0
777,-664,0,0,0,0,0,0,0,0,0,-1,2001,1688,0,0
784,-664,0,0,0,0,0,0,0,0,0,-1,2008,1688,0,0
791,-664,0,0,0,0,0,0,0,0,0,-1,2015,1688,0,0
798,-664,0,0,0,0,0,0,0,0,0,-1,2022,1688,0,0
805,-664,0,0,0,0,0,0,0,0,0,-1,2029,1688,0,0
812,-664,0,0,0,0,0,0,0,0,0,-1,2036,1688,0,0
-700,-671,0,0,0,0,0,0,0,0,0,-1,524,1695,0,0
-693,-671,0,0,0,0,0,0,0,0,0,-1,531,1695,0,0
-686,-671,0,0,0,0,0,0,0,0,0,-1,538,1695,0,0
-679,-671,0,0,0,0,0,0,0,0,0,-1,545,1695,0,0
-672,-671,0,0,0,0,0,0,0,0,0,-1,552,1695,0,0
-665,-671,0,0,0,0,0,0,0,0,0,-1,559,1695,0,0
-658,-671,0,0,0,0,0,0,0,0,0,-1,566,1695,0,0
-651,-671,0,0,0,0,0,0,0,0,0,-1,573,1695,0,0
-644,-671,0,0,0,0,0,0,0,0,0,-1,580,1695,0,0
-637,-671,0,0,0,0,0,0,0,0,0,-1,587,1695,0,0
-630,-671,0,0,0,0,0,0,0,0,0,-1,594,1695,0,0
-623,-671,0,0,0,0,0,0,0,0,0,-1,601,1695,0,0
-616,-671,0,0,0,0,0,0,0,0,0,-1,608,1695,0,0
-609,-671,0,0,0,0,0,0,0,0,0,-1,615,1695,0,0
-602,-671,0,0,0,0,0,0,0,0,0,-1,622,1695,0,0
-595,-671,0,0,0,0,0,0,0,0,0,-1,629,1695,0,0
-588,-671,0,0,0,0,0,0,0,0,0,-1,636,1695,0,0
-581,-671,0,0,0,0,0,0,0,0,0,-1,643,1695,0,0
-574,-671,0,0,0,0,0,0,0,0,0,-1,650,1695,0,0
-567,-671,0,0,0,0,0,0,0,0,0,-1,657,1695,0,0
-560,-671,0,0,0,0,0,0,0,0,0,-1,664,1695,0,0
-553,-671,0,0,0,0,0,0,0,0,0,-1,671,1695,0,0
-546,-671,0,0,0,0,0,0,0,0,0,-1,678,1695,0,0
-539,-671,0,0,0,0,0,0,0,0,0,-1,685,1695,0,0
-532,-671,0,0,0,0,0,0,0,0,0,-1,692,1695,0,0
-525,-671,0,0,0,0,0,0,0,0,0,-1,699,1695,0,0
-518,-671,0,0,0,0,0,0,0,0,0,-1,706,1695,0,0
-511,-671,0,0,0,0,0,0,0,0,0,-1,713,1695,0,0
-504,-671,0,0,0,0,0,0,0,0,0,-1,720,1695,0,0
-497,-671,0,0,0,0,0,0,0,0,0,-1,727,1695,0,0
-490,-671,0,0,0,0,0,0,0,0,0,-1,734,1695,0,0
-483,-671,0,0,0,0,0,0,0,0,0,-1,741,1695,0,0
-476,-671,0,0,0,0,0,0,0,0,0,-1,748,1695,0,0
-469,-671,0,0,0,0,0,0,0,0,0,-1,755,1695,0,0
-462,-671,0,0,0,0,0,0,0,0,0,-1,762,1695,0,0
-455,-671,0,0,0,0,0,0,0,0,0,-1,769,1695,0,0
-448,-671,0,0,0,0,0,0,0,0,0,-1,776,1695,0,0
-441,-671,0,0,0,0,0,0,0,0,0,-1,783,1695,0,0
-434,-671,0,0,0,0,0,0,0,0,0,-1,790,1695,0,0
-427,-671,0,0,0,0,0,0,0,0,0,-1,797,1695,0,0
-420,-671,0,0,0,0,0,0,0,0,0,-1,804,1695,0,0
-413,-671,0,0,0,0,0,0,0,0,0,-1,811,1695,0,0
-406,-671,0,0,0,0,0,0,0,0,0,-1,818,1695,0,0
-399,-671,0,0,0,0,0,0,0,0,0,-1,825,1695,0,0
-392,-671,0,0,0,0,0,0,0,0,0,-1,832,1695,0,0
-385,-671,0,0,0,0,0,0,0,0,0,-1,839,1695,0,0
-378,-671,0,0,0,0,0,0,0,0,0,-1,846,1695,0,0
-371,-671,0,0,0,0,0,0,0,0,0,-1,853,1695,0,0
-364,-671,-4.18738,7.51416,0,0,0,0,0,0,0,-1,860,1695,-4.18739,-7.51419
-357,-671,-5.02393,6.07129,0,0,0,0,0,0,0,-1,867,1695,-5.0239,-6.07135
-350,-671,-5.72333,4.58386,0,0,0,0,0,0,0,-1,874,1695,-5.72333,-4.58386
-343,-671,8.04773,23.1034,0,0,0,0,0,0,0,-1,881,1695,8.04774,-23.1034
-336,-671,7.64795,23.7375,0,0,0,0,0,0,0,-1,888,1695,7.64792,-23.7375
-329,-671,7.2774,24.0865,0,0,0,0,0,0,0,-1,895,1695,7.27738,-24.0866
-322,-671,6.13654,23.6582,0,0,0,0,0,0,0,-1,902,1695,6.13652,-23.6582
-315,-671,5.92542,27.723,0,0,0,0,0,0,0,-1,909,1695,5.92542,-27.723
-308,-671,6.21075,27.7742,0,0,0,0,0,0,0,-1,916,1695,6.21077,-27.7741
-301,-671,6.65033,27.1775,0.0103424,-0.0295368,0.00292361,0.0105556,-0.02975,0.0727929,0.024134,0.0482357,923,1695,6.65033,-27.1775
-294,-671,6.82788,27.0383,0.00739702,-0.0237428,0.00334736,0.00775278,-0.0240985,0.105883,0.0191796,0.0484821,930,1695,6.82786,-27.0384
-287,-671,6.26965,27.6715,0,0,0,0,0,0,0,-1,937,1695,6.26966,-27.6716
-280,-671,6.22357,27.9731,0.00292779,-0.0146353,0.0033898,0.00355934,-0.0152668,0.184196,0.0115486,0.0414345,944,1695,6.2236,-27.9732
-273,-671,6.10114,28.269,0.00133404,-0.0111368,0.0029156,0.00198202,-0.0117848,0.218691,0.00859373,0.0349933,951,1695,6.10116,-28.269
-266,-671,6.11603,28.6855,0.000251994,-0.00810297,0.00253606,0.000961533,-0.00881251,0.272804,0.00622034,0.0243713,958,1695,6.11605,-28.6856
-259,-671,6.02979,29.0216,-0.000502944,-0.00500693,0.00216042,0.000365782,-0.00587566,0.382324,0.00404455,0.0216136,965,1695,6.02979,-29.0216
-252,-671,6.0321,29.3762,-0.00107925,-0.00291281,0.00182306,4.45654e-05,-0.00403662,0.552423,0.00270606,0.0164645,972,1695,6.03211,-29.3762
-245,-671,6.0155,29.7633,-0.00169167,-0.00150341,0.00125457,-0.000339437,-0.00285564,0.822842,0.0018013,0.0195259,979,1695,6.01548,-29.7633
-238,-671,6.03918,30.1512,-0.00173111,-0.000613912,0.000967647,-5.52053e-05,-0.00228982,1.04717,0.00150848,0.020992,986,1695,6.03918,-30.1512
-231,-671,6.00922,30.4929,-0.00128941,-0.000157491,0.000755196,0.000220281,-0.00166719,1.10696,0.00119169,0.0158868,993,1695,6.00923,-30.4929
-224,-671,5.96136,30.8094,-0.000801289,0.000191835,0.00044946,0.00036504,-0.000974494,1.20297,0.000799617,0.0113763,1000,1695,5.96134,-30.8095
-217,-671,5.95087,31.1477,-0.000457958,0.000650714,0.000339319,0.000746321,-0.000553565,1.29616,0.000753235,0.0109895,1007,1695,5.95087,-31.1477
-210,-671,5.92944,31.5129,-0.000140526,0.000952116,0.00055637,0.00118555,-0.000373958,1.17354,0.000940145,0.0112037,1014,1695,5.92942,-31.513
-203,-671,5.89685,31.828,0.000201477,0.00111562,0.000696293,0.00149146,-0.00017436,1.07584,0.00105723,0.0181447,1021,1695,5.89681,-31.828
-196,-671,5.90955,32.1526,0.000505478,0.00129661,0.000834523,0.00182457,-2.2483e-05,1.00671,0.00122394,0.0150564,1028,1695,5.90951,-32.1525
-189,-671,5.95288,32.5066,0.000758704,0.00167196,0.000917894,0.00224054,0.000190131,1.01621,0.00143452,0.0114906,1035,1695,5.9529,-32.5066
-182,-671,5.92688,32.8105,0.0010416,0.00200086,0.000960438,0.00259477,0.000447689,1.01698,0.00160161,0.00913588,1042,1695,5.92689,-32.8105
-175,-671,5.9353,33.0908,0.00126515,0.0024552,0.00102383,0.00304436,0.000675996,1.04863,0.00184597,0.0116463,1049,1695,5.9353,-33.0909
-168,-671,5.94141,33.3612,0.00136441,0.00307913,0.0010536,0.00358013,0.000863414,1.12693,0.00215733,0.0128784,1056,1695,5.94143,-33.3612
-161,-671,5.94275,33.6608,0.00148571,0.00399778,0.000986865,0.00433909,0.00114439,1.23782,0.00259673,0.00894573,1063,1695,5.94274,-33.6608
-154,-671,5.96826,33.9393,0.00166879,0.00485923,0.000999229,0.00514635,0.00138168,1.291,0.00307559,0.00846201,1070,1695,5.96829,-33.9394
-147,-671,5.97937,34.2288,0.00175085,0.0057547,0.000973951,0.00597905,0.00152651,1.3444,0.00358715,0.00994969,1077,1695,5.97943,-34.2287
-140,-671,6.01172,34.4924,0.00189839,0.00659934,0.000945943,0.00678254,0.00171519,1.37949,0.00407221,0.0125805,1084,1695,6.01174,-34.4924
-133,-671,6.01367,34.7321,0.00212666,0.0072582,0.000972376,0.00743628,0.00194858,1.38967,0.00445247,0.0168726,1091,1695,6.01369,-34.7321
-126,-671,6.03162,35.0858,0.00252399,0.00783852,0.00105407,0.00803995,0.00232256,1.38198,0.00477781,0.0237725,1098,1695,6.03159,-35.0858
-119,-671,6.07568,35.5497,0.00305341,0.00803103,0.00115576,0.0082863,0.00279815,1.35342,0.0048674,0.0420138,1105,1695,6.07574,-35.5497
-112,-671,6.07202,35.8577,0.00354884,0.00794122,0.00116147,0.00822944,0.00326062,1.32756,0.00478526,0.0486917,1112,1695,6.07207,-35.8577
-105,-671,6.3739,35.8845,0.00409418,0.00762462,0.00124202,0.00801778,0.00370101,1.26423,0.00463362,0.0476814,1119,1695,6.37384,-35.8846
-98,-671,6.28345,36.0918,0.00470366,0.00753458,0.0015132,0.00819114,0.00404709,1.16142,0.00472927,0.0452921,1126,1695,6.28349,-36.0918
-91,-671,6.36658,36.1967,0,0,0,0,0,0,0,-1,1133,1695,6.36656,-36.1966
-84,-671,5.4209,26.2415,0,0,0,0,0,0,0,-1,1140,1695,5.42096,-26.2414
-77,-671,4.31763,16.489,0,0,0,0,0,0,0,-1,1147,1695,4.31757,-16.489
-70,-671,3.06067,10.7737,0,0,0,0,0,0,0,-1,1154,1695,3.0607,-10.7737
-63,-671,2.94592,6.90198,0,0,0,0,0,0,0,-1,1161,1695,2.94594,-6.90198
-56,-671,-3.07678,2.87976,0,0,0,0,0,0,0,-1,1168,1695,-3.07675,-2.87979
-49,-671,-1.05957,4.76917,0,0,0,0,0,0,0,-1,1175,1695,-1.05958,-4.76921
-42,-671,0.539307,3.7865,0,0,0,0,0,0,0,-1,1182,1695,0.539266,-3.78648
-35,-671,-0.272461,0.347534,0,0,0,0,0,0,0,-1,1189,1695,-0.272434,-0.347569
-28,-671,-10.4878,17.2009,0,0,0,0,0,0,0,-1,1196,1695,-10.4878,-17.2009
-21,-671,6.71924,37.9924,0,0,0,0,0,0,0,-1,1203,1695,6.71925,-37.9924
-14,-671,7.08557,37.96,-0.046943,0.0418157,0.0101682,0.0429657,-0.0480929,1.45818,0.0526005,0.0454159,1210,1695,7.08554,-37.9599
-7,-671,7.35266,37.811,-0.0475198,0.0448645,0.0104145,0.046024,-0.0486793,1.45992,0.0546841,0.0449627,1217,1695,7.35266,-37.811
0,-671,7.2157,38.2294,-0.0488751,0.0482885,0.0101481,0.0493371,-0.0499237,1.46783,0.0573086,0.0440638,1224,1695,7.21572,-38.2293
7,-671,7.12012,38.3151,0,0,0,0,0,0,0,-1,1231,1695,7.12007,-38.315
14,-671,8.24988,41.2667,-0.053212,0.0537324,0.00757017,0.0542656,-0.0537452,1.50048,0.0623603,0.0463059,1238,1695,8.2499,-41.2667
21,-671,8.41797,41.3695,0,0,0,0,0,0,0,-1,1245,1695,8.41798,-41.3694
28,-671,7.91724,40.4878,0,0,0,0,0,0,0,-1,1252,1695,7.91725,-40.4878
35,-671,7.65625,40.4843,-0.0124403,0.061282,-0.0135934,0.0637085,-0.0148669,-1.39415,0.0481984,0.0452753,1259,1695,7.65628,-40.4842
42,-671,6.58569,40.5286,0.0107253,0.0621218,-0.0193772,0.0686086,0.00423852,-1.24776,0.0443937,0.0444802,1266,1695,6.58569,-40.5286
49,-671,5.80298,40.5933,0,0,0,0,0,0,0,-1,1273,1695,5.80297,-40.5933
56,-671,4.70886,39.4222,0.0621879,0.0612545,-0.029378,0.0911029,0.0323395,-0.777456,0.0533307,0.047213,1280,1695,4.70883,-39.4223
63,-671,3.61438,39.7089,0,0,0,0,0,0,0,-1,1287,1695,3.61442,-39.7089
70,-671,2.52905,39.9867,0,0,0,0,0,0,0,-1,1294,1695,2.529,-39.9867
77,-671,1.15479,40.1985,0,0,0,0,0,0,0,-1,1301,1695,1.15482,-40.1985
84,-671,8.72595,38.0901,0.144272,0.045073,-0.0275373,0.151403,0.0379414,-0.253411,0.0909653,0.0468145,1308,1695,8.726,-38.0901
91,-671,9.073,38.5122,0.152115,0.0362779,-0.0210725,0.15583,0.0325636,-0.174471,0.0949126,0.0424716,1315,1695,9.07299,-38.5122
98,-671,9.67798,38.8597,0.149134,0.0252063,-0.0111252,0.150124,0.0242155,-0.0888253,0.0930672,0.0420861,1322,1695,9.678,-38.8597
105,-671,10.3359,39.3195,0.138469,0.0126095,-0.000216701,0.138469,0.0126091,-0.00172177,0.0884099,0.0465413,1329,1695,10.336,-39.3195
112,-671,11.106,39.4746,0.123447,-0.00101248,0.0107765,0.124373,-0.0019387,0.0857365,0.0835692,0.0455184,1336,1695,11.1059,-39.4746
119,-671,11.9642,39.4961,0.101797,-0.0148205,0.0216851,0.105699,-0.0187223,0.178026,0.0774645,0.0456219,1343,1695,11.9642,-39.4961
126,-671,8.60913,37.9867,0,0,0,0,0,0,0,-1,1350,1695,8.60911,-37.9867
133,-671,12.4188,43.2502,0,0,0,0,0,0,0,-1,1357,1695,12.4188,-43.2503
140,-671,12.8615,43.7848,0.0564399,-0.0523952,0.0414203,0.0704103,-0.0663656,0.325302,0.0789791,0.0482455,1364,1695,12.8614,-43.7848
147,-671,13.4099,44.2167,0.0530518,-0.0572148,0.0414382,0.0668881,-0.0710511,0.322262,0.0796513,0.0473869,1371,1695,13.4099,-44.2167
154,-671,14.0531,44.566,0,0,0,0,0,0,0,-1,1378,1695,14.0531,-44.5661
161,-671,4.49292,4.91272,0,0,0,0,0,0,0,-1,1385,1695,4.49297,-4.91273
168,-671,5.17639,6.1416,0,0,0,0,0,0,0,-1,1392,1695,5.1764,-6.14164
175,-671,5.6731,1.64685,0,0,0,0,0,0,0,-1,1399,1695,5.67313,-1.64691
182,-671,5.56812,1.71692,0,0,0,0,0,0,0,-1,1406,1695,5.56809,-1.71686
189,-671,6.98315,6.36169,0,0,0,0,0,0,0,-1,1413,1695,6.98312,-6.36175
196,-671,5.38123,5.69775,0,0,0,0,0,0,0,-1,1420,1695,5.38125,-5.69769
203,-671,5.95117,8.11658,0,0,0,0,0,0,0,-1,1427,1695,5.9512,-8.11662
210,-671,4.73596,8.39624,0,0,0,0,0,0,0,-1,1434,1695,4.736,-8.39618
217,-671,5.37097,11.863,0,0,0,0,0,0,0,-1,1441,1695,5.37094,-11.863
224,-671,5.08167,13.6694,0,0,0,0,0,0,0,-1,1448,1695,5.08165,-13.6695
231,-671,5.66663,15.3348,0,0,0,0,0,0,0,-1,1455,1695,5.66667,-15.3349
238,-671,6.32959,16.2036,0,0,0,0,0,0,0,-1,1462,1695,6.32961,-16.2037
245,-671,9.64392,35.0273,0,0,0,0,0,0,0,-1,1469,1695,9.64398,-35.0273
252,-671,9.37268,35.1573,0,0,0,0,0,0,0,-1,1476,1695,9.37273,-35.1574
259,-671,9.37549,35.1875,0,0,0,0,0,0,0,-1,1483,1695,9.37555,-35.1874
266,-671,9.38477,34.8547,0.00709144,-0.00209708,-0.00202909,0.00751958,-0.00252522,-0.207947,0.00603358,0.0355876,1490,1695,9.38477,-34.8548
273,-671,9.4563,34.6461,0.00683462,-0.00212352,-0.00189542,0.00721916,-0.00250806,-0.200161,0.00583144,0.011825,1497,1695,9.45632,-34.6461
280,-671,9.47156,34.4094,0.00646126,-0.0018269,-0.00176767,0.00682252,-0.00218816,-0.201593,0.00542683,0.00941809,1504,1695,9.47158,-34.4094
287,-671,9.46521,34.0934,0.00595159,-0.00153853,-0.00153731,0.00625483,-0.00184178,-0.194758,0.00490057,0.0110174,1511,1695,9.46524,-34.0933
294,-671,9.46411,33.8151,0.00538165,-0.000981278,-0.00140234,0.00567701,-0.00127663,-0.207582,0.00427425,0.011209,1518,1695,9.46411,-33.8151
301,-671,9.48022,33.5876,0.00476045,-0.000497228,-0.00131397,0.00507054,-0.000807318,-0.231755,0.00367911,0.0108266,1525,1695,9.48027,-33.5876
308,-671,9.50354,33.3169,0.00408451,-2.82018e-05,-0.00124839,0.00443379,-0.000377483,-0.272808,0.00308938,0.0111692,1532,1695,9.50358,-33.3169
315,-671,9.54639,33.0406,0.00341009,0.000247233,-0.00118974,0.00380766,-0.00015033,-0.322493,0.00259,0.012611,1539,1695,9.54633,-33.0406
322,-671,9.55261,32.7782,0.0027809,0.00039511,-0.00113235,0.00323275,-5.67479e-05,-0.379683,0.00217433,0.0150808,1546,1695,9.55257,-32.7782
329,-671,9.50427,32.4829,0.0022485,0.00024568,-0.00111458,0.00274545,-0.000251276,-0.419415,0.00191955,0.0142276,1553,1695,9.50424,-32.483
336,-671,9.50916,32.1447,0.00176252,4.50204e-05,-0.00100748,0.00222758,-0.000420039,-0.432464,0.00164306,0.0114362,1560,1695,9.50913,-32.1446
343,-671,9.52637,31.8105,0.00123201,-0.000415142,-0.000852015,0.00159342,-0.000776559,-0.401185,0.00139514,0.0111343,1567,1695,9.52631,-31.8106
350,-671,9.51074,31.5315,0.000824658,-0.00134368,-0.00073761,0.00105178,-0.0015708,-0.298707,0.001524,0.0119325,1574,1695,9.51068,-31.5315
357,-671,9.50073,31.181,0.00042496,-0.00247446,-0.000410083,0.000481844,-0.00253134,-0.137835,0.001869,0.0112541,1581,1695,9.50077,-31.181
364,-671,9.48608,30.8466,-2.75994e-05,-0.00364826,1.55826e-05,-2.75325e-05,-0.00364833,0.00430368,0.0024231,0.0133094,1588,1695,9.48614,-30.8465
371,-671,9.45166,30.5446,-0.000480712,-0.00481788,0.000503378,-0.000423056,-0.00487553,0.114042,0.00311892,0.015014,1595,1695,9.45161,-30.5446
378,-671,9.45435,30.2168,-0.00100789,-0.00607989,0.00109724,-0.000780695,-0.00630708,0.204172,0.00397016,0.0117043,1602,1695,9.45431,-30.2168
385,-671,9.44861,29.8457,-0.00153919,-0.00718392,0.00180207,-0.00101295,-0.00771016,0.284123,0.00483794,0.0141145,1609,1695,9.44858,-29.8457
392,-671,9.40967,29.5344,-0.00202436,-0.00862834,0.00261727,-0.00111289,-0.00953981,0.335117,0.00602328,0.0195838,1616,1695,9.40961,-29.5344
399,-671,9.39075,29.1564,-0.00279797,-0.00998716,0.00325824,-0.00154104,-0.0112441,0.368178,0.00703883,0.0160918,1623,1695,9.39075,-29.1564
406,-671,9.41357,28.7893,-0.00399588,-0.0108856,0.00396666,-0.00218703,-0.0126944,0.427844,0.00783634,0.0242325,1630,1695,9.41356,-28.7893
413,-671,9.29492,28.6044,-0.00484209,-0.0114019,0.00462761,-0.0024499,-0.013794,0.477106,0.00849794,0.0402858,1637,1695,9.2949,-28.6043
420,-671,9.3761,28.1992,0,0,0,0,0,0,0,-1,1644,1695,9.37607,-28.1993
427,-671,9.31738,21.7188,0,0,0,0,0,0,0,-1,1651,1695,9.31735,-21.7187
434,-671,9.66528,26.177,0,0,0,0,0,0,0,-1,1658,1695,9.66528,-26.177
441,-671,8.34961,20.6522,0,0,0,0,0,0,0,-1,1665,1695,8.34964,-20.6522
448,-671,7.44873,20.2306,0,0,0,0,0,0,0,-1,1672,1695,7.44872,-20.2306
455,-671,6.62805,19.8612,0,0,0,0,0,0,0,-1,1679,1695,6.62811,-19.8612
462,-671,5.86255,4.47961,0,0,0,0,0,0,0,-1,1686,1695,5.8625,-4.4796
469,-671,3.71301,3.76978,0,0,0,0,0,0,0,-1,1693,1695,3.71297,-3.76974
476,-671,3.75574,3.18848,0,0,0,0,0,0,0,-1,1700,1695,3.7558,-3.18847
483,-671,7.81824,12.1041,0,0,0,0,0,0,0,-1,1707,1695,7.81826,-12.1041
490,-671,0,0,0,0,0,0,0,0,0,-1,1714,1695,0,0
497,-671,0,0,0,0,0,0,0,0,0,-1,1721,1695,0,0
504,-671,0,0,0,0,0,0,0,0,0,-1,1728,1695,0,0
511,-671,0,0,0,0,0,0,0,0,0,-1,1735,1695,0,0
518,-671,0,0,0,0,0,0,0,0,0,-1,1742,1695,0,0
525,-671,0,0,0,0,0,0,0,0,0,-1,1749,1695,0,0
532,-671,0,0,0,0,0,0,0,0,0,-1,1756,1695,0,0
539,-671,0,0,0,0,0,0,0,0,0,-1,1763,1695,0,0
546,-671,0,0,0,0,0,0,0,0,0,-1,1770,1695,0,0
553,-671,0,0,0,0,0,0,0,0,0,-1,1777,1695,0,0
560,-671,0,0,0,0,0,0,0,0,0,-1,1784,1695,0,0
567,-671,0,0,0,0,0,0,0,0,0,-1,1791,1695,0,0
574,-671,0,0,0,0,0,0,0,0,0,-1,1798,1695,0,0
581,-671,0,0,0,0,0,0,0,0,0,-1,1805,1695,0,0
588,-671,0,0,0,0,0,0,0,0,0,-1,1812,1695,0,0
595,-671,0,0,0,0,0,0,0,0,0,-1,1819,1695,0,0
602,-671,0,0,0,0,0,0,0,0,0,-1,1826,1695,0,0
609,-671,0,0,0,0,0,0,0,0,0,-1,1833,1695,0,0
616,-671,0,0,0,0,0,0,0,0,0,-1,1840,1695,0,0
623,-671,0,0,0,0,0,0,0,0,0,-1,1847,1695,0,0
630,-671,0,0,0,0,0,0,0,0,0,-1,1854,1695,0,0
637,-671,0,0,0,0,0,0,0,0,0,-1,1861,1695,0,0
644,-671,0,0,0,0,0,0,0,0,0,-1,1868,1695,0,0
651,-671,0,0,0,0,0,0,0,0,0,-1,1875,1695,0,0
658,-671,0,0,0,0,0,0,0,0,0,-1,1882,1695,0,0
665,-671,0,0,0,0,0,0,0,0,0,-1,1889,1695,0,0
672,-671,0,0,0,0,0,0,0,0,0,-1,1896,1695,0,0
679,-671,0,0,0,0,0,0,0,0,0,-1,1903,1695,0,0
686,-671,0,0,0,0,0,0,0,0,0,-1,1910,1695,0,0
693,-671,0,0,0,0,0,0,0,0,0,-1,1917,1695,0,0
700,-671,0,0,0,0,0,0,0,0,0,-1,1924,1695,0,0
707,-671,0,0,0,0,0,0,0,0,0,-1,1931,1695,0,0
714,-671,0,0,0,0,0,0,0,0,0,-1,1938,1695,0,0
721,-671,0,0,0,0,0,0,0,0,0,-1,1945,1695,0,0
728,-671,0,0,0,0,0,0,0,0,0,-1,1952,1695,0,0
735,-671,0,0,0,0,0,0,0,0,0,-1,1959,1695,0,0
742,-671,0,0,0,0,0,0,0,0,0,-1,1966,1695,0,0
749,-671,0,0,0,0,0,0,0,0,0,-1,1973,1695,0,0
756,-671,0,0,0,0,0,0,0,0,0,-1,1980,1695,0,0
763,-671,0,0,0,0,0,0,0,0,0,-1,1987,1695,0,0
770,-671,0,0,0,0,0,0,0,0,0,-1,1994,1695,0,0
777,-671,0,0,0,0,0,0,0,0,0,-1,2001,1695,0,0
784,-671,0,0,0,0,0,0,0,0,0,-1,2008,1695,0,0
791,-671,0,0,0,0,0,0,0,0,0,-1,2015,1695,0,0
798,-671,0,0,0,0,0,0,0,0,0,-1,2022,1695,0,0
805,-671,0,0,0,0,0,0,0,0,0,-1,2029,1695,0,0
812,-671,0,0,0,0,0,0,0,0,0,-1,2036,1695,0,0
-700,-678,0,0,0,0,0,0,0,0,0,-1,524,1702,0,0
-693,-678,0,0,0,0,0,0,0,0,0,-1,531,1702,0,0
-686,-678,0,0,0,0,0,0,0,0,0,-1,538,1702,0,0
-679,-678,0,0,0,0,0,0,0,0,0,-1,545,1702,0,0
-672,-678,0,0,0,0,0,0,0,0,0,-1,552,1702,0,0
-665,-678,0,0,0,0,0,0,0,0,0,-1,559,1702,0,0
-658,-678,0,0,0,0,0,0,0,0,0,-1,566,1702,0,0
-651,-678,0,0,0,0,0,0,0,0,0,-1,573,1702,0,0
-644,-678,0,0,0,0,0,0,0,0,0,-1,580,1702,0,0
-637,-678,0,0,0,0,0,0,0,0,0,-1,587,1702,0,0
-630,-678,0,0,0,0,0,0,0,0,0,-1,594,1702,0,0
-623,-678,0,0,0,0,0,0,0,0,0,-1,601,1702,0,0
-616,-678,0,0,0,0,0,0,0,0,0,-1,608,1702,0,0
-609,-678,0,0,0,0,0,0,0,0,0,-1,615,1702,0,0
-602,-678,0,0,0,0,0,0,0,0,0,-1,622,1702,0,0
-595,-678,0,0,0,0,0,0,0,0,0,-1,629,1702,0,0
-588,-678,0,0,0,0,0,0,0,0,0,-1,636,1702,0,0
-581,-678,0,0,0,0,0,0,0,0,0,-1,643,1702,0,0
-574,-678,0,0,0,0,0,0,0,0,0,-1,650,1702,0,0
-567,-678,0,0,0,0,0,0,0,0,0,-1,657,1702,0,0
-560,-678,0,0,0,0,0,0,0,0,0,-1,664,1702,0,0
-553,-678,0,0,0,0,0,0,0,0,0,-1,671,1702,0,0
-546,-678,0,0,0,0,0,0,0,0,0,-1,678,1702,0,0
-539,-678,0,0,0,0,0,0,0,0,0,-1,685,1702,0,0
-532,-678,0,0,0,0,0,0,0,0,0,-1,692,1702,0,0
-525,-678,0,0,0,0,0,0,0,0,0,-1,699,1702,0,0
-518,-678,0,0,0,0,0,0,0,0,0,-1,706,1702,0,0
-511,-678,0,0,0,0,0,0,0,0,0,-1,713,1702,0,0
-504,-678,0,0,0,0,0,0,0,0,0,-1,720,1702,0,0
-497,-678,0,0,0,0,0,0,0,0,0,-1,727,1702,0,0
-490,-678,0,0,0,0,0,0,0,0,0,-1,734,1702,0,0
-483,-678,0,0,0,0,0,0,0,0,0,-1,741,1702,0,0
-476,-678,0,0,0,0,0,0,0,0,0,-1,748,1702,0,0
-469,-678,0,0,0,0,0,0,0,0,0,-1,755,1702,0,0
-462,-678,0,0,0,0,0,0,0,0,0,-1,762,1702,0,0
-455,-678,0,0,0,0,0,0,0,0,0,-1,769,1702,0,0
-448,-678,0,0,0,0,0,0,0,0,0,-1,776,1702,0,0
-441,-678,0,0,0,0,0,0,0,0,0,-1,783,1702,0,0
-434,-678,0,0,0,0,0,0,0,0,0,-1,790,1702,0,0
-427,-678,0,0,0,0,0,0,0,0,0,-1,797,1702,0,0
-420,-678,0,0,0,0,0,0,0,0,0,-1,804,1702,0,0
-413,-678,0,0,0,0,0,0,0,0,0,-1,811,1702,0,0
-406,-678,0,0,0,0,0,0,0,0,0,-1,818,1702,0,0
-399,-678,0,0,0,0,0,0,0,0,0,-1,825,1702,0,0
-392,-678,0,0,0,0,0,0,0,0,0,-1,832,1702,0,0
-385,-678,0,0,0,0,0,0,0,0,0,-1,839,1702,0,0
-378,-678,0,0,0,0,0,0,0,0,0,-1,846,1702,0,0
-371,-678,0,0,0,0,0,0,0,0,0,-1,853,1702,0,0
-364,-678,0,0,0,0,0,0,0,0,0,-1,860,1702,0,0
-357,-678,0,0,0,0,0,0,0,0,0,-1,867,1702,0,0
-350,-678,-5.79944,6.11865,0,0,0,0,0,0,0,-1,874,1702,-5.79942,-6.11864
-343,-678,-6.44891,4.52759,0,0,0,0,0,0,0,-1,881,1702,-6.4489,-4.52758
-336,-678,7.92682,24.1683,0,0,0,0,0,0,0,-1,888,1702,7.92682,-24.1684
-329,-678,-7.14575,1.29761,0,0,0,0,0,0,0,-1,895,1702,-7.14577,-1.29755
-322,-678,3.78455,20.3917,0,0,0,0,0,0,0,-1,902,1702,3.78457,-20.3917
-315,-678,4.74176,22.3245,0,0,0,0,0,0,0,-1,909,1702,4.74178,-22.3244
-308,-678,5.5799,27.4917,0,0,0,0,0,0,0,-1,916,1702,5.57988,-27.4917
-301,-678,5.8941,27.4879,0.0146007,-0.0369857,0.00643697,0.0153917,-0.0377768,0.122283,0.0315907,0.0487544,923,1702,5.89409,-27.4879
-294,-678,6.31549,27.4521,0.0103728,-0.0294374,0.00664265,0.0114519,-0.0305165,0.161047,0.02505,0.0499545,930,1702,6.3155,-27.4521
-287,-678,6.49384,27.6129,0,0,0,0,0,0,0,-1,937,1702,6.49381,-27.6129
-280,-678,6.35938,27.8755,0.00402496,-0.0178824,0.0058353,0.00548232,-0.0193398,0.244742,0.0150571,0.0474878,944,1702,6.35935,-27.8755
-273,-678,6.29694,28.3824,0.00184377,-0.01341,0.00480653,0.00323199,-0.0147982,0.281169,0.0111007,0.0424419,951,1702,6.29693,-28.3825
-266,-678,6.45721,28.7679,0.000272335,-0.00966063,0.00393747,0.0016438,-0.0110321,0.33517,0.00795945,0.0357122,958,1702,6.45719,-28.7679
-259,-678,6.39166,29.0753,-0.000834396,-0.00604227,0.00316409,0.000659467,-0.00753613,0.441104,0.00525771,0.0231607,965,1702,6.39164,-29.0753
-252,-678,6.36871,29.4041,-0.00161021,-0.00362132,0.00252071,9.81125e-05,-0.00532964,0.595612,0.00358624,0.0176149,972,1702,6.36871,-29.4041
-245,-678,6.37054,29.7626,-0.0024575,-0.00195597,0.00163389,-0.000553711,-0.00385976,0.861541,0.0024099,0.0183214,979,1702,6.37054,-29.7626
-238,-678,6.35559,30.1398,-0.00258958,-0.000922948,0.0011729,-0.00031748,-0.00319505,1.09426,0.00203249,0.0156085,986,1702,6.3556,-30.1398
-231,-678,6.30298,30.4838,-0.00207874,-0.000486921,0.000880278,-9.60865e-05,-0.00246957,1.15295,0.00161531,0.0133113,993,1702,6.30297,-30.4838
-224,-678,6.26831,30.802,-0.0014987,-0.000222442,0.000476431,-6.42079e-05,-0.00165694,1.25013,0.00108386,0.0128873,1000,1702,6.26831,-30.8021
-217,-678,6.28491,31.1495,-0.00107508,0.000174499,0.000395042,0.000288912,-0.00118949,1.28889,0.000904805,0.0137303,1007,1702,6.28491,-31.1496
-210,-678,6.25891,31.5271,-0.00066885,0.00031072,0.000757863,0.00072329,-0.00108142,1.07227,0.00104877,0.0144698,1014,1702,6.2589,-31.5271
-203,-678,6.22205,31.827,-0.000233061,0.000351583,0.0010147,0.00111522,-0.000996703,0.925645,0.00121996,0.0181846,1021,1702,6.22208,-31.827
-196,-678,6.22803,32.1527,0.000150724,0.000380956,0.00122185,0.00149311,-0.000961425,0.832367,0.00142816,0.0170442,1028,1702,6.22797,-32.1527
-189,-678,6.24951,32.5009,0.000506726,0.000592152,0.00136544,0.00191554,-0.000816664,0.801034,0.00161941,0.0100388,1035,1702,6.24948,-32.5008
-182,-678,6.24451,32.8202,0.000863057,0.000813715,0.00142896,0.00226756,-0.000590791,0.776767,0.00174235,0.00963162,1042,1702,6.24448,-32.8202
-175,-678,6.24072,33.1205,0.00113028,0.00115704,0.00148468,0.0026284,-0.000341075,0.789905,0.00187632,0.0102992,1049,1702,6.24076,-33.1205
-168,-678,6.23877,33.401,0.00126008,0.00163778,0.0014689,0.00292992,-3.20589e-05,0.84933,0.00196406,0.00983023,1056,1702,6.23873,-33.401
-161,-678,6.23621,33.6782,0.00138421,0.00242109,0.0013047,0.00330658,0.000498722,0.974515,0.00205838,0.00841144,1063,1702,6.23625,-33.6782
-154,-678,6.24231,33.9602,0.0015382,0.00320896,0.00118059,0.00381983,0.00092733,1.0933,0.00230061,0.00850719,1070,1702,6.24234,-33.9603
-147,-678,6.24878,34.2313,0.00159017,0.0040279,0.00101409,0.0043946,0.00122347,1.22382,0.00261897,0.0110498,1077,1702,6.24882,-34.2314
-140,-678,6.27551,34.5004,0.00166372,0.00476924,0.000832575,0.00497836,0.0014546,1.32471,0.00295586,0.0121631,1084,1702,6.27551,-34.5003
-133,-678,6.29773,34.7391,0.00181135,0.00533495,0.000683519,0.00546289,0.0016834,1.38575,0.00323046,0.0118763,1091,1702,6.29777,-34.7391
-126,-678,6.28723,35.0302,0.00210717,0.00580492,0.000589701,0.00589669,0.0020154,1.41642,0.0034608,0.0113717,1098,1702,6.28719,-35.0301
-119,-678,6.34741,35.4697,0.00251168,0.00597506,0.000549324,0.0060601,0.00242664,1.41721,0.00352185,0.0308764,1105,1702,6.34738,-35.4697
-112,-678,6.29468,35.8013,0.0029373,0.00591679,0.000548811,0.00601467,0.00283942,1.39431,0.00347437,0.0477808,1112,1702,6.29462,-35.8012
-105,-678,6.33423,36.0441,0.00340885,0.00557088,0.000596875,0.00572472,0.00325502,1.31855,0.00331552,0.0474318,1119,1702,6.33428,-36.0441
-98,-678,6.36169,36.0861,0.00389117,0.00533734,0.000612481,0.00556188,0.00366663,1.21941,0.00326499,0.0270089,1126,1702,6.36173,-36.086
-91,-678,6.47644,36.0665,0,0,0,0,0,0,0,-1,1133,1702,6.47643,-36.0666
-84,-678,6.58545,36.5073,0,0,0,0,0,0,0,-1,1140,1702,6.58544,-36.5073
-77,-678,5.95154,29.1879,0,0,0,0,0,0,0,-1,1147,1702,5.95156,-29.1878
-70,-678,4.75891,19.6552,0,0,0,0,0,0,0,-1,1154,1702,4.75895,-19.6551
-63,-678,3.41687,11.0365,0,0,0,0,0,0,0,-1,1161,1702,3.41682,-11.0365
-56,-678,1.72388,6.13159,0,0,0,0,0,0,0,-1,1168,1702,1.72388,-6.13157
-49,-678,-0.241699,5.29895,0,0,0,0,0,0,0,-1,1175,1702,-0.241682,-5.29897
-42,-678,0.297119,3.90649,0,0,0,0,0,0,0,-1,1182,1702,0.297139,-3.90655
-35,-678,0.498413,3.64038,0,0,0,0,0,0,0,-1,1189,1702,0.498471,-3.64038
-28,-678,0.132446,3.55994,0,0,0,0,0,0,0,-1,1196,1702,0.132432,-3.55993
-21,-678,6.94287,37.8887,0,0,0,0,0,0,0,-1,1203,1702,6.94286,-37.8887
-14,-678,7.15112,37.9305,-0.032035,0.0349186,0.00877091,0.0360485,-0.0331649,1.44268,0.0399719,0.0405102,1210,1702,7.15117,-37.9305
-7,-678,7.33435,37.7645,-0.0331772,0.0376836,0.00895826,0.0387985,-0.0342921,1.44697,0.0422256,0.0422088,1217,1702,7.33431,-37.7646
0,-678,7.11987,38.0771,-0.0346411,0.0408423,0.008843,0.0418644,-0.0356633,1.45572,0.0448083,0.0454415,1224,1702,7.11993,-38.0771
7,-678,7.13818,38.3004,-0.0367065,0.0440405,0.00812074,0.0448491,-0.0375151,1.47155,0.0476158,0.045751,1231,1702,7.13817,-38.3004
14,-678,7.90417,40.2688,-0.0389656,0.0461081,0.00694073,0.0466707,-0.0395281,1.48992,0.0498238,0.0464171,1238,1702,7.90417,-40.2688
21,-678,7.69043,39.5964,0,0,0,0,0,0,0,-1,1245,1702,7.69048,-39.5965
28,-678,7.78943,39.6669,-0.0285328,0.0484862,-0.00112614,0.0485027,-0.0285493,-1.55618,0.0449804,0.0468852,1252,1702,7.7894,-39.6669
35,-678,7.93982,39.6954,-0.00723202,0.0521459,-0.0105566,0.0539669,-0.00905299,-1.39998,0.0393443,0.0440834,1259,1702,7.93976,-39.6954
42,-678,7.98218,39.7244,0,0,0,0,0,0,0,-1,1266,1702,7.98213,-39.7244
49,-678,7.72229,38.3401,0,0,0,0,0,0,0,-1,1273,1702,7.72233,-38.3401
56,-678,7.65137,38.8822,0,0,0,0,0,0,0,-1,1280,1702,7.65135,-38.8822
63,-678,7.77295,38.9788,0,0,0,0,0,0,0,-1,1287,1702,7.77291,-38.9788
70,-678,7.58618,39.1279,0,0,0,0,0,0,0,-1,1294,1702,7.58624,-39.1279
77,-678,8.67725,37.6461,0,0,0,0,0,0,0,-1,1301,1702,8.67721,-37.6462
84,-678,8.46301,37.9741,0.1159,0.0344201,-0.0204701,0.120754,0.0295666,-0.232805,0.0726801,0.0455507,1308,1702,8.46304,-37.9742
91,-678,8.62341,38.5577,0.122127,0.026784,-0.0150039,0.124432,0.0244786,-0.15246,0.0761189,0.0440025,1315,1702,8.62344,-38.5578
98,-678,8.23669,38.0188,0,0,0,0,0,0,0,-1,1322,1702,8.23674,-38.0188
105,-678,9.53015,39.5494,0.111707,0.00794631,0.00157358,0.111731,0.00792245,0.0151608,0.0719922,0.0410901,1329,1702,9.53018,-39.5494
112,-678,10.2251,39.5874,0.100845,-0.00242675,0.00985841,0.101777,-0.00335942,0.0943259,0.0689987,0.0443655,1336,1702,10.2251,-39.5874
119,-678,8.45813,38.0266,0,0,0,0,0,0,0,-1,1343,1702,8.45809,-38.0266
126,-678,8.53918,37.9252,0,0,0,0,0,0,0,-1,1350,1702,8.53918,-37.9252
133,-678,7.87561,37.5692,0,0,0,0,0,0,0,-1,1357,1702,7.87566,-37.5692
140,-678,12.8162,44.8019,0.0480271,-0.040759,0.0339922,0.0595466,-0.0522785,0.32674,0.0646077,0.0480241,1364,1702,12.8162,-44.8018
147,-678,13.3544,44.9093,0.0447223,-0.0443694,0.0336179,0.0559841,-0.0556312,0.323245,0.0644412,0.0464656,1371,1702,13.3544,-44.9093
154,-678,14.0015,45.1842,0,0,0,0,0,0,0,-1,1378,1702,14.0015,-45.1842
161,-678,8.81226,34.8624,0,0,0,0,0,0,0,-1,1385,1702,8.81229,-34.8624
168,-678,4.21863,5.25781,0,0,0,0,0,0,0,-1,1392,1702,4.21865,-5.25781
175,-678,5.21899,5.9635,0,0,0,0,0,0,0,-1,1399,1702,5.21894,-5.96346
182,-678,7.31262,6.75122,0,0,0,0,0,0,0,-1,1406,1702,7.3126,-6.75123
189,-678,5.96021,6.36853,0,0,0,0,0,0,0,-1,1413,1702,5.96018,-6.36851
196,-678,5.01599,8.15771,0,0,0,0,0,0,0,-1,1420,1702,5.01596,-8.15767
203,-678,4.64771,13.0559,0,0,0,0,0,0,0,-1,1427,1702,4.64766,-13.0559
210,-678,5.6532,18.5957,0,0,0,0,0,0,0,-1,1434,1702,5.65318,-18.5958
217,-678,6.88049,23.4835,0,0,0,0,0,0,0,-1,1441,1702,6.88047,-23.4835
224,-678,8.521,32.0977,0,0,0,0,0,0,0,-1,1448,1702,8.52098,-32.0977
231,-678,8.9021,36.2133,0,0,0,0,0,0,0,-1,1455,1702,8.90207,-36.2132
238,-678,9.18604,35.9314,0,0,0,0,0,0,0,-1,1462,1702,9.18598,-35.9314
245,-678,9.16553,35.651,0.00485835,-0.00102154,-0.000964824,0.00501262,-0.00117581,-0.158552,0.0037949,0.039887,1469,1702,9.16551,-35.651
252,-678,9.15454,35.3634,0.00472195,-0.00149838,-0.00110768,0.00491331,-0.00168974,-0.171071,0.00396082,0.027724,1476,1702,9.15448,-35.3634
259,-678,9.15186,35.1675,0.00473125,-0.00166831,-0.00121121,0.00495282,-0.00188988,-0.180931,0.00408043,0.0160246,1483,1702,9.15191,-35.1674
266,-678,9.18604,34.9176,0.00472137,-0.00155311,-0.0013065,0.00498254,-0.00181428,-0.197303,0.00406378,0.0115533,1490,1702,9.18608,-34.9176
273,-678,9.20044,34.672,0.00463788,-0.0014337,-0.00133413,0.0049181,-0.00171392,-0.20703,0.00397517,0.0111087,1497,1702,9.20041,-34.672
280,-678,9.19946,34.4216,0.00449297,-0.00107965,-0.00138275,0.00481721,-0.00140389,-0.230328,0.00376766,0.0113375,1504,1702,9.19948,-34.4216
287,-678,9.2146,34.1389,0.00424846,-0.00068656,-0.00135183,0.0045945,-0.0010326,-0.250596,0.00345896,0.0108996,1511,1702,9.21458,-34.1389
294,-678,9.2124,33.8514,0.00395283,-6.78004e-05,-0.0013921,0.00438778,-0.000502748,-0.30283,0.00310636,0.011854,1518,1702,9.21245,-33.8515
301,-678,9.19495,33.5985,0.00361419,0.000448727,-0.00147432,0.00419448,-0.000131565,-0.374976,0.00284119,0.0122693,1525,1702,9.19497,-33.5985
308,-678,9.21106,33.3264,0.00319107,0.000858805,-0.00156705,0.00397827,7.16052e-05,-0.465522,0.00262863,0.0130813,1532,1702,9.21112,-33.3264
315,-678,9.22729,33.0444,0.00272715,0.000842936,-0.0015951,0.00363758,-6.75032e-05,-0.51865,0.00244787,0.0143166,1539,1702,9.22732,-33.0444
322,-678,9.19385,32.8025,0.00228848,0.000805623,-0.00161267,0.003322,-0.000227893,-0.569931,0.00229441,0.017888,1546,1702,9.19382,-32.8025
329,-678,9.17126,32.4841,0.00191115,0.000401052,-0.00163636,0.00295826,-0.000646055,-0.569243,0.0022191,0.0163138,1553,1702,9.17122,-32.4842
336,-678,9.18298,32.146,0.00153885,-0.000146674,-0.0015759,0.00248319,-0.00109101,-0.539856,0.0021151,0.0138233,1560,1702,9.18293,-32.146
343,-678,9.20459,31.8363,0.00112309,-0.000945381,-0.00140175,0.00183085,-0.00165314,-0.467569,0.00201236,0.0130224,1567,1702,9.20458,-31.8364
350,-678,9.20813,31.5184,0.000780993,-0.00225714,-0.00118159,0.00118643,-0.00266258,-0.330541,0.00227605,0.0131443,1574,1702,9.20808,-31.5185
357,-678,9.18054,31.1898,0.000335732,-0.00382746,-0.000693754,0.000448295,-0.00394002,-0.160851,0.00278815,0.0103116,1581,1702,9.18052,-31.1898
364,-678,9.15649,30.8666,-0.000134676,-0.00534162,-9.84538e-05,-0.000132815,-0.00534348,-0.0188992,0.00351888,0.0118678,1588,1702,9.15653,-30.8665
371,-678,9.1239,30.5681,-0.000624334,-0.00683568,0.000573437,-0.000571837,-0.00688818,0.0912927,0.00441387,0.0125615,1595,1702,9.12394,-30.5682
378,-678,9.11243,30.2098,-0.00126078,-0.00851604,0.00141237,-0.000995539,-0.00878128,0.18564,0.00555217,0.0126341,1602,1702,9.11244,-30.2099
385,-678,9.12915,29.8656,-0.00192577,-0.0099367,0.00238686,-0.00126853,-0.0105939,0.2687,0.00668005,0.0143898,1609,1702,9.12918,-29.8657
392,-678,9.11157,29.5697,-0.00256201,-0.0117617,0.0035221,-0.00136842,-0.0129552,0.326738,0.00821875,0.0259643,1616,1702,9.11155,-29.5697
399,-678,9.02124,29.3374,-0.00352006,-0.0134958,0.00450597,-0.00178614,-0.0152298,0.36734,0.00961326,0.0363462,1623,1702,9.02124,-29.3374
406,-678,8.82251,29.1918,-0.00502379,-0.0148037,0.00563152,-0.00245547,-0.017372,0.427883,0.0108558,0.0437573,1630,1702,8.82257,-29.1918
413,-678,8.87634,28.748,0,0,0,0,0,0,0,-1,1637,1702,8.87631,-28.748
420,-678,9.6665,28.3398,0,0,0,0,0,0,0,-1,1644,1702,9.66649,-28.3398
427,-678,4.57483,10.1555,0,0,0,0,0,0,0,-1,1651,1702,4.57485,-10.1555
434,-678,9.48169,21.6665,0,0,0,0,0,0,0,-1,1658,1702,9.48169,-21.6665
441,-678,8.64539,21.1864,0,0,0,0,0,0,0,-1,1665,1702,8.64536,-21.1865
448,-678,7.62244,20.7195,0,0,0,0,0,0,0,-1,1672,1702,7.6224,-20.7195
455,-678,5.44678,5.54297,0,0,0,0,0,0,0,-1,1679,1702,5.44676,-5.54294
462,-678,3.86792,2.87402,0,0,0,0,0,0,0,-1,1686,1702,3.86796,-2.87406
469,-678,2.26587,1.98755,0,0,0,0,0,0,0,-1,1693,1702,2.26592,-1.98755
476,-678,0,0,0,0,0,0,0,0,0,-1,1700,1702,0,0
483,-678,0,0,0,0,0,0,0,0,0,-1,1707,1702,0,0
490,-678,0,0,0,0,0,0,0,0,0,-1,1714,1702,0,0
497,-678,0,0,0,0,0,0,0,0,0,-1,1721,1702,0,0
504,-678,0,0,0,0,0,0,0,0,0,-1,1728,1702,0,0
511,-678,0,0,0,0,0,0,0,0,0,-1,1735,1702,0,0
518,-678,0,0,0,0,0,0,0,0,0,-1,1742,1702,0,0
525,-678,0,0,0,0,0,0,0,0,0,-1,1749,1702,0,0
532,-678,0,0,0,0,0,0,0,0,0,-1,1756,1702,0,0
539,-678,0,0,0,0,0,0,0,0,0,-1,1763,1702,0,0
546,-678,0,0,0,0,0,0,0,0,0,-1,1770,1702,0,0
553,-678,0,0,0,0,0,0,0,0,0,-1,1777,1702,0,0
560,-678,0,0,0,0,0,0,0,0,0,-1,1784,1702,0,0
567,-678,0,0,0,0,0,0,0,0,0,-1,1791,1702,0,0
574,-678,0,0,0,0,0,0,0,0,0,-1,1798,1702,0,0
581,-678,0,0,0,0,0,0,0,0,0,-1,1805,1702,0,0
588,-678,0,0,0,0,0,0,0,0,0,-1,1812,1702,0,0
595,-678,0,0,0,0,0,0,0,0,0,-1,1819,1702,0,0
602,-678,0,0,0,0,0,0,0,0,0,-1,1826,1702,0,0
609,-678,0,0,0,0,0,0,0,0,0,-1,1833,1702,0,0
616,-678,0,0,0,0,0,0,0,0,0,-1,1840,1702,0,0
623,-678,0,0,0,0,0,0,0,0,0,-1,1847,1702,0,0
630,-678,0,0,0,0,0,0,0,0,0,-1,1854,1702,0,0
637,-678,0,0,0,0,0,0,0,0,0,-1,1861,1702,0,0
644,-678,0,0,0,0,0,0,0,0,0,-1,1868,1702,0,0
651,-678,0,0,0,0,0,0,0,0,0,-1,1875,1702,0,0
658,-678,0,0,0,0,0,0,0,0,0,-1,1882,1702,0,0
665,-678,0,0,0,0,0,0,0,0,0,-1,1889,1702,0,0
672,-678,0,0,0,0,0,0,0,0,0,-1,1896,1702,0,0
679,-678,0,0,0,0,0,0,0,0,0,-1,1903,1702,0,0
686,-678,0,0,0,0,0,0,0,0,0,-1,1910,1702,0,0
693,-678,0,0,0,0,0,0,0,0,0,-1,1917,1702,0,0
700,-678,0,0,0,0,0,0,0,0,0,-1,1924,1702,0,0
707,-678,0,0,0,0,0,0,0,0,0,-1,1931,1702,0,0
714,-678,0,0,0,0,0,0,0,0,0,-1,1938,1702,0,0
721,-678,0,0,0,0,0,0,0,0,0,-1,1945,1702,0,0
728,-678,0,0,0,0,0,0,0,0,0,-1,1952,1702,0,0
735,-678,0,0,0,0,0,0,0,0,0,-1,1959,1702,0,0
742,-678,0,0,0,0,0,0,0,0,0,-1,1966,1702,0,0
749,-678,0,0,0,0,0,0,0,0,0,-1,1973,1702,0,0
756,-678,0,0,0,0,0,0,0,0,0,-1,1980,1702,0,0
763,-678,0,0,0,0,0,0,0,0,0,-1,1987,1702,0,0
770,-678,0,0,0,0,0,0,0,0,0,-1,1994,1702,0,0
777,-678,0,0,0,0,0,0,0,0,0,-1,2001,1702,0,0
784,-678,0,0,0,0,0,0,0,0,0,-1,2008,1702,0,0
791,-678,0,0,0,0,0,0,0,0,0,-1,2015,1702,0,0
798,-678,0,0,0,0,0,0,0,0,0,-1,2022,1702,0,0
805,-678,0,0,0,0,0,0,0,0,0,-1,2029,1702,0,0
812,-678,0,0,0,0,0,0,0,0,0,-1,2036,1702,0,0
-700,-685,0,0,0,0,0,0,0,0,0,-1,524,1709,0,0
-693,-685,0,0,0,0,0,0,0,0,0,-1,531,1709,0,0
-686,-685,0,0,0,0,0,0,0,0,0,-1,538,1709,0,0
-679,-685,0,0,0,0,0,0,0,0,0,-1,545,1709,0,0
-672,-685,0,0,0,0,0,0,0,0,0,-1,552,1709,0,0
-665,-685,0,0,0,0,0,0,0,0,0,-1,559,1709,0,0
-658,-685,0,0,0,0,0,0,0,0,0,-1,566,1709,0,0
-651,-685,0,0,0,0,0,0,0,0,0,-1,573,1709,0,0
-644,-685,0,0,0,0,0,0,0,0,0,-1,580,1709,0,0
-637,-685,0,0,0,0,0,0,0,0,0,-1,587,1709,0,0
-630,-685,0,0,0,0,0,0,0,0,0,-1,594,1709,0,0
-623,-685,0,0,0,0,0,0,0,0,0,-1,601,1709,0,0
-616,-685,0,0,0,0,0,0,0,0,0,-1,608,1709,0,0
-609,-685,0,0,0,0,0,0,0,0,0,-1,615,1709,0,0
-602,-685,0,0,0,0,0,0,0,0,0,-1,622,1709,0,0
-595,-685,0,0,0,0,0,0,0,0,0,-1,629,1709,0,0
-588,-685,0,0,0,0,0,0,0,0,0,-1,636,1709,0,0
-581,-685,0,0,0,0,0,0,0,0,0,-1,643,1709,0,0
-574,-685,0,0,0,0,0,0,0,0,0,-1,650,1709,0,0
-567,-685,0,0,0,0,0,0,0,0,0,-1,657,1709,0,0
-560,-685,0,0,0,0,0,0,0,0,0,-1,664,1709,0,0
-553,-685,0,0,0,0,0,0,0,0,0,-1,671,1709,0,0
-546,-685,0,0,0,0,0,0,0,0,0,-1,678,1709,0,0
-539,-685,0,0,0,0,0,0,0,0,0,-1,685,1709,0,0
-532,-685,0,0,0,0,0,0,0,0,0,-1,692,1709,0,0
-525,-685,0,0,0,0,0,0,0,0,0,-1,699,1709,0,0
-518,-685,0,0,0,0,0,0,0,0,0,-1,706,1709,0,0
-511,-685,0,0,0,0,0,0,0,0,0,-1,713,1709,0,0
-504,-685,0,0,0,0,0,0,0,0,0,-1,720,1709,0,0
-497,-685,0,0,0,0,0,0,0,0,0,-1,727,1709,0,0
-490,-685,0,0,0,0,0,0,0,0,0,-1,734,1709,0,0
-483,-685,0,0,0,0,0,0,0,0,0,-1,741,1709,0,0
-476,-685,0,0,0,0,0,0,0,0,0,-1,748,1709,0,0
-469,-685,0,0,0,0,0,0,0,0,0,-1,755,1709,0,0
-462,-685,0,0,0,0,0,0,0,0,0,-1,762,1709,0,0
-455,-685,0,0,0,0,0,0,0,0,0,-1,769,1709,0,0
-448,-685,0,0,0,0,0,0,0,0,0,-1,776,1709,0,0
-441,-685,0,0,0,0,0,0,0,0,0,-1,783,1709,0,0
-434,-685,0,0,0,0,0,0,0,0,0,-1,790,1709,0,0
-427,-685,0,0,0,0,0,0,0,0,0,-1,797,1709,0,0
-420,-685,0,0,0,0,0,0,0,0,0,-1,804,1709,0,0
-413,-685,0,0,0,0,0,0,0,0,0,-1,811,1709,0,0
-406,-685,0,0,0,0,0,0,0,0,0,-1,818,1709,0,0
-399,-685,0,0,0,0,0,0,0,0,0,-1,825,1709,0,0
-392,-685,0,0,0,0,0,0,0,0,0,-1,832,1709,0,0
-385,-685,0,0,0,0,0,0,0,0,0,-1,839,1709,0,0
-378,-685,0,0,0,0,0,0,0,0,0,-1,846,1709,0,0
-371,-685,0,0,0,0,0,0,0,0,0,-1,853,1709,0,0
-364,-685,0,0,0,0,0,0,0,0,0,-1,860,1709,0,0
-357,-685,0,0,0,0,0,0,0,0,0,-1,867,1709,0,0
-350,-685,0,0,0,0,0,0,0,0,0,-1,874,1709,0,0
-343,-685,-5.98505,6.56335,0,0,0,0,0,0,0,-1,881,1709,-5.98505,-6.56329
-336,-685,-6.51312,5.10571,0,0,0,0,0,0,0,-1,888,1709,-6.51311,-5.10575
-329,-685,-6.81384,3.34106,0,0,0,0,0,0,0,-1,895,1709,-6.81385,-3.341
-322,-685,3.83191,16.7219,0,0,0,0,0,0,0,-1,902,1709,3.8319,-16.7219
-315,-685,5.15784,21.4388,0,0,0,0,0,0,0,-1,909,1709,5.15783,-21.4389
-308,-685,6.36969,21.0303,0,0,0,0,0,0,0,-1,916,1709,6.36968,-21.0302
-301,-685,4.6817,27.6464,0,0,0,0,0,0,0,-1,923,1709,4.6817,-27.6464
-294,-685,5.51105,27.3157,0,0,0,0,0,0,0,-1,930,1709,5.51102,-27.3156
-287,-685,6.74579,27.1583,0,0,0,0,0,0,0,-1,937,1709,6.74581,-27.1583
-280,-685,6.44995,27.8845,0.00544723,-0.0215143,0.00954205,0.00848257,-0.0245497,0.30798,0.0198089,0.0487866,944,1709,6.44997,-27.8845
-273,-685,6.29315,28.5511,0.00258029,-0.0158543,0.00758068,0.00529719,-0.0185713,0.344137,0.0144734,0.0454888,951,1709,6.29314,-28.5511
-266,-685,6.84326,28.8436,0,0,0,0,0,0,0,-1,958,1709,6.84327,-28.8437
-259,-685,6.78601,29.1295,-0.00119491,-0.00702293,0.00448798,0.0012421,-0.00945995,0.49746,0.00675882,0.0440972,965,1709,6.78604,-29.1295
-252,-685,6.74457,29.4965,-0.00220932,-0.00420085,0.00337198,0.000310852,-0.00672102,0.641827,0.00458781,0.0387022,972,1709,6.74454,-29.4965
-245,-685,6.77991,29.8174,-0.0033266,-0.00219743,0.0020469,-0.000638681,-0.00488535,0.919964,0.00306626,0.0356919,979,1709,6.77993,-29.8174
-238,-685,6.73199,30.1753,-0.00354378,-0.000996681,0.00136529,-0.00040316,-0.0041373,1.16072,0.00263412,0.0263219,986,1709,6.73197,-30.1752
-231,-685,6.64331,30.5378,-0.00292634,-0.000633712,0.00100264,-0.000257097,-0.00330296,1.21148,0.00212147,0.0167955,993,1709,6.64329,-30.5378
-224,-685,6.61005,30.8364,-0.00221551,-0.000506134,0.000524525,-0.000358017,-0.00236363,1.29558,0.00147101,0.0149347,1000,1709,6.61006,-30.8364
-217,-685,6.61914,31.1923,-0.00168712,-0.000207421,0.000512689,-4.71445e-05,-0.0018474,1.2678,0.00121619,0.0114591,1007,1709,6.61915,-31.1922
-210,-685,6.59973,31.5581,-0.00117306,-0.000271322,0.00105954,0.000429288,-0.00187367,0.98656,0.0014141,0.0150408,1014,1709,6.59976,-31.5581
-203,-685,6.57556,31.8723,-0.000628709,-0.000387511,0.0014558,0.000952675,-0.00196889,0.826724,0.00172045,0.0155213,1021,1709,6.57554,-31.8724
-196,-685,6.57056,32.1804,-0.000154017,-0.000538957,0.0017562,0.00142022,-0.0021132,0.730819,0.00205306,0.013004,1028,1709,6.57052,-32.1804
-189,-685,6.55981,32.4819,0.000308629,-0.000514555,0.00197756,0.00191697,-0.0021229,0.682797,0.00233343,0.00878938,1035,1709,6.55984,-32.482
-182,-685,6.55359,32.8027,0.000705936,-0.000399525,0.00207167,0.00229734,-0.00199093,0.655033,0.00247794,0.0132242,1042,1709,6.55363,-32.8027
-175,-685,6.54431,33.1097,0.000977447,-0.00014083,0.00214561,0.00263557,-0.00179896,0.657935,0.00257542,0.0132833,1049,1709,6.54436,-33.1097
-168,-685,6.53601,33.4075,0.00111567,0.000224126,0.00212277,0.00283896,-0.00149917,0.681904,0.00254413,0.0103166,1056,1709,6.53606,-33.4075
-161,-685,6.53918,33.7052,0.00123598,0.000903377,0.00190793,0.00298484,-0.000845485,0.741926,0.00232358,0.0112294,1063,1709,6.5392,-33.7052
-154,-685,6.5459,33.9847,0.00135889,0.00167065,0.00169662,0.00321854,-0.000188997,0.831209,0.00221138,0.0106184,1070,1709,6.54593,-33.9848
-147,-685,6.53857,34.2432,0.00139005,0.0024883,0.00143764,0.00347812,0.000400233,0.967828,0.00219752,0.00957234,1077,1709,6.53857,-34.2432
-140,-685,6.53491,34.4939,0.00142396,0.00323193,0.00115623,0.00379562,0.000860274,1.11718,0.00229797,0.0119298,1084,1709,6.5349,-34.4939
-133,-685,6.56396,34.7593,0.00153302,0.00381302,0.000891245,0.00412006,0.00122599,1.23903,0.00244284,0.0112245,1091,1709,6.56396,-34.7592
-126,-685,6.57019,35.0195,0.00177098,0.00429107,0.000677036,0.00446144,0.00160061,1.32427,0.00260985,0.00971599,1098,1709,6.57014,-35.0195
-119,-685,6.59131,35.2462,0.0020914,0.00450693,0.000529009,0.00461771,0.00198063,1.36438,0.002675,0.0133151,1105,1709,6.59125,-35.2463
-112,-685,6.60291,35.4778,0.00243079,0.00449849,0.000418683,0.00458005,0.00234923,1.3784,0.00264459,0.0134759,1112,1709,6.60293,-35.4778
-105,-685,6.5791,35.7032,0.0027923,0.00422564,0.000356352,0.00430935,0.0027086,1.34008,0.00251526,0.0136023,1119,1709,6.57907,-35.7033
-98,-685,6.65674,35.9287,0.00316003,0.00395381,0.00027304,0.00403866,0.00307518,1.2695,0.00243565,0.0176737,1126,1709,6.65669,-35.9288
-91,-685,6.64807,36.083,0.00347734,0.0032778,8.01699e-05,0.00350556,0.00324958,0.338441,0.00225656,0.026697,1133,1709,6.64806,-36.083
-84,-685,6.65027,36.2666,0.00387988,0.00245274,-6.97784e-05,0.00388329,0.00244934,-0.0487389,0.00226742,0.0479737,1140,1709,6.6503,-36.2666
-77,-685,6.68713,36.6088,0,0,0,0,0,0,0,-1,1147,1709,6.68713,-36.6087
-70,-685,6.8374,37.0408,0,0,0,0,0,0,0,-1,1154,1709,6.83744,-37.0408
-63,-685,6.03015,29.7728,0,0,0,0,0,0,0,-1,1161,1709,6.0302,-29.7728
-56,-685,3.93909,15.8704,0,0,0,0,0,0,0,-1,1168,1709,3.93905,-15.8704
-49,-685,3.07471,9.86011,0,0,0,0,0,0,0,-1,1175,1709,3.07467,-9.86009
-42,-685,2.70618,7.54504,0,0,0,0,0,0,0,-1,1182,1709,2.7062,-7.54504
-35,-685,2.95264,7.91516,0,0,0,0,0,0,0,-1,1189,1709,2.95262,-7.91517
-28,-685,7.02417,37.8101,0,0,0,0,0,0,0,-1,1196,1709,7.02415,-37.8101
-21,-685,7.12012,37.6589,0,0,0,0,0,0,0,-1,1203,1709,7.12016,-37.659
-14,-685,7.17712,37.866,-0.0186938,0.0280978,0.00752319,0.0292777,-0.0198736,1.41524,0.0285501,0.0316757,1210,1709,7.17709,-37.866
-7,-685,7.16687,38.042,-0.0204532,0.0307605,0.00769245,0.031891,-0.0215837,1.42488,0.0310642,0.0422203,1217,1709,7.16686,-38.0421
0,-685,7.21326,38.0757,-0.0222237,0.0336076,0.00767893,0.0346445,-0.0232606,1.43658,0.0336462,0.046358,1224,1709,7.21328,-38.0757
7,-685,7.59875,38.9907,-0.0244457,0.0366782,0.00718306,0.037511,-0.0252785,1.45537,0.0364801,0.0455916,1231,1709,7.5987,-38.9908
14,-685,7.71143,39.105,-0.0266857,0.0388505,0.00635781,0.0394615,-0.0272968,1.47497,0.0387557,0.0479956,1238,1709,7.71142,-39.105
21,-685,7.63269,39.0884,-0.0284728,0.040352,0.00557204,0.0408002,-0.028921,1.49053,0.0404478,0.0429392,1245,1709,7.63266,-39.0884
28,-685,7.64941,38.9246,-0.0188043,0.0415012,-0.000521658,0.0415058,-0.0188088,-1.56215,0.035635,0.0450681,1252,1709,7.64937,-38.9246
35,-685,7.73206,38.9756,-0.00189672,0.0442251,-0.00814603,0.0456216,-0.00329319,-1.40102,0.0315694,0.0456368,1259,1709,7.7321,-38.9756
42,-685,7.70056,38.9663,0,0,0,0,0,0,0,-1,1266,1709,7.70058,-38.9663
49,-685,7.62769,38.4351,0,0,0,0,0,0,0,-1,1273,1709,7.62768,-38.435
56,-685,7.69153,38.5728,0.044151,0.0419529,-0.018078,0.0611633,0.0249405,-0.755038,0.0355124,0.0474771,1280,1709,7.6915,-38.5728
63,-685,7.81067,38.6635,0.0610403,0.0403629,-0.0196389,0.0728957,0.0285076,-0.54311,0.0424179,0.0459142,1287,1709,7.81069,-38.6634
70,-685,7.76318,38.7218,0.0757634,0.0366681,-0.0204215,0.0844849,0.0279465,-0.403629,0.0496998,0.0458792,1294,1709,7.76324,-38.7218
77,-685,8.1825,38.8402,0,0,0,0,0,0,0,-1,1301,1709,8.18249,-38.8402
84,-685,8.3269,38.0629,0.0958942,0.0271676,-0.0156639,0.0992959,0.0237659,-0.213847,0.0598689,0.0475799,1308,1709,8.32689,-38.0629
91,-685,8.28711,38.3842,0.100437,0.0205636,-0.011057,0.101939,0.0190612,-0.13505,0.0625808,0.0436166,1315,1709,8.28707,-38.3841
98,-685,8.20825,38.0752,0.0984551,0.0132257,-0.00457957,0.0987005,0.0129803,-0.0535269,0.0619287,0.0387469,1322,1709,8.20829,-38.0752
105,-685,8.3009,38.1267,0,0,0,0,0,0,0,-1,1329,1709,8.30086,-38.1267
112,-685,8.23108,38.0939,0,0,0,0,0,0,0,-1,1336,1709,8.23103,-38.0938
119,-685,8.39758,37.7272,0.0719865,-0.00978917,0.0139464,0.0742996,-0.0121022,0.164357,0.0540209,0.0382369,1343,1709,8.39755,-37.7272
126,-685,8.45935,37.885,0.0622969,-0.017059,0.0182159,0.0662785,-0.0210406,0.215196,0.0526206,0.043766,1350,1709,8.45932,-37.885
133,-685,8.11511,37.6727,0.0502802,-0.0237846,0.0235669,0.0571431,-0.0306476,0.283373,0.0514497,0.0480481,1357,1709,8.11514,-37.6727
140,-685,8.4082,37.9241,0,0,0,0,0,0,0,-1,1364,1709,8.40817,-37.9241
147,-685,8.59033,37.9535,0,0,0,0,0,0,0,-1,1371,1709,8.59028,-37.9534
154,-685,8.42065,37.7847,0,0,0,0,0,0,0,-1,1378,1709,8.42064,-37.7847
161,-685,8.81116,37.7798,0,0,0,0,0,0,0,-1,1385,1709,8.81113,-37.7798
168,-685,4.37524,10.8778,0,0,0,0,0,0,0,-1,1392,1709,4.37525,-10.8778
175,-685,3.97522,8.94324,0,0,0,0,0,0,0,-1,1399,1709,3.97519,-8.94328
182,-685,3.98218,9.19739,0,0,0,0,0,0,0,-1,1406,1709,3.98221,-9.1974
189,-685,4.53479,15.2343,0,0,0,0,0,0,0,-1,1413,1709,4.53474,-15.2343
196,-685,8.69543,37.1702,0,0,0,0,0,0,0,-1,1420,1709,8.69543,-37.1701
203,-685,8.73816,36.8843,0,0,0,0,0,0,0,-1,1427,1709,8.73818,-36.8843
210,-685,8.88647,36.6077,0,0,0,0,0,0,0,-1,1434,1709,8.88651,-36.6077
217,-685,8.83459,36.3037,0,0,0,0,0,0,0,-1,1441,1709,8.83462,-36.3038
224,-685,8.88025,36.2925,0,0,0,0,0,0,0,-1,1448,1709,8.88023,-36.2925
231,-685,8.8584,36.1177,0.00298408,0.000214673,0.000273486,0.00301083,0.000187924,0.0974976,0.0019476,0.0372762,1455,1709,8.8584,-36.1177
238,-685,8.91333,35.7695,0.00315934,-0.000238039,-0.000341357,0.0031933,-0.000271998,-0.0991559,0.00222508,0.0193158,1462,1709,8.91335,-35.7696
245,-685,8.89624,35.5315,0.00328335,-0.000427786,-0.000533183,0.00335843,-0.00050287,-0.139902,0.00242403,0.0194234,1469,1709,8.89622,-35.5315
252,-685,8.9071,35.359,0.00320501,-0.000697819,-0.000712764,0.0033311,-0.000823915,-0.1751,0.00254031,0.0137643,1476,1709,8.90714,-35.359
259,-685,8.92004,35.1707,0.00324908,-0.000779546,-0.000862782,0.00342608,-0.000956546,-0.202342,0.00266084,0.010104,1483,1709,8.92,-35.1707
266,-685,8.92981,34.9213,0.00327695,-0.000664561,-0.00100484,0.00351834,-0.000905949,-0.235758,0.00269871,0.0121256,1490,1709,8.92982,-34.9212
273,-685,8.93591,34.6558,0.00326324,-0.000448141,-0.00113142,0.00358095,-0.000765859,-0.273762,0.00267933,0.0146854,1497,1709,8.93597,-34.6558
280,-685,8.94897,34.3942,0.00321822,-8.1201e-05,-0.00129669,0.00366683,-0.000529808,-0.333075,0.00263894,0.0161238,1504,1709,8.94898,-34.3942
287,-685,8.95117,34.1547,0.00311257,0.000381605,-0.00142363,0.00371972,-0.000225543,-0.403122,0.00255831,0.0120944,1511,1709,8.95114,-34.1547
294,-685,8.9436,33.8899,0.00297394,0.00104447,-0.00161252,0.00388828,0.000130128,-0.515821,0.00254992,0.0108717,1518,1709,8.94358,-33.8899
301,-685,8.91956,33.6215,0.00281972,0.0015782,-0.00184568,0.00414624,0.000251681,-0.623175,0.0026842,0.0131604,1525,1709,8.91956,-33.6215
308,-685,8.93628,33.3403,0.00257575,0.00191852,-0.00208559,0.00435845,0.000135818,-0.707258,0.00286144,0.0141548,1532,1709,8.93625,-33.3403
315,-685,8.95435,33.0563,0.00227712,0.00166564,-0.00221785,0.0042102,-0.000267442,-0.716902,0.00290006,0.0124675,1539,1709,8.95437,-33.0563
322,-685,8.9187,32.7704,0.00200818,0.00147276,-0.0023236,0.00407944,-0.000598498,-0.728044,0.0029395,0.0196718,1546,1709,8.91868,-32.7703
329,-685,8.89648,32.4762,0.00177548,0.000822637,-0.00239342,0.00373943,-0.00114132,-0.687155,0.00294798,0.0192864,1553,1709,8.89643,-32.4762
336,-685,8.9043,32.1489,0.00151995,-7.10217e-05,-0.00238252,0.00323627,-0.00178735,-0.624275,0.00294033,0.0143312,1560,1709,8.90433,-32.1489
343,-685,8.89832,31.8345,0.00121892,-0.00123125,-0.00218818,0.00250162,-0.00251395,-0.530206,0.00289574,0.0128568,1567,1709,8.89836,-31.8344
350,-685,8.88452,31.5194,0.000942184,-0.00297608,-0.00184829,0.00167644,-0.00371034,-0.378147,0.0031831,0.0130235,1574,1709,8.88447,-31.5194
357,-685,8.86609,31.212,0.000460296,-0.00506944,-0.00117257,0.000698661,-0.0053078,-0.200552,0.00379293,0.0104742,1581,1709,8.86611,-31.2121
364,-685,8.82605,30.9047,-2.16651e-05,-0.00704908,-0.000351482,-4.12902e-06,-0.00706662,-0.0498499,0.0047097,0.0103282,1588,1709,8.826,-30.9047
371,-685,8.84497,30.5785,-0.000562184,-0.00903388,0.000601107,-0.000519745,-0.00907632,0.0704841,0.00588529,0.015882,1595,1709,8.84495,-30.5785
378,-685,8.83191,30.2255,-0.00136151,-0.0113702,0.00181316,-0.00104316,-0.0116886,0.173802,0.00746899,0.020196,1602,1709,8.83185,-30.2255
385,-685,8.74158,29.9045,-0.00222057,-0.0133144,0.00319263,-0.00136739,-0.0141675,0.261131,0.00902382,0.0354987,1609,1709,8.74161,-29.9046
392,-685,8.62024,29.5153,-0.00308027,-0.0157586,0.00481216,-0.00146067,-0.0173782,0.324655,0.0111306,0.0409109,1616,1709,8.62028,-29.5152
399,-685,8.69812,29.5669,-0.00431521,-0.018124,0.00633919,-0.00184646,-0.0205927,0.371373,0.0131563,0.0445189,1623,1709,8.69809,-29.5669
406,-685,8.32825,29.629,0,0,0,0,0,0,0,-1,1630,1709,8.32825,-29.629
413,-685,9.14075,29.2178,0,0,0,0,0,0,0,-1,1637,1709,9.14078,-29.2178
420,-685,4.84631,10.3781,0,0,0,0,0,0,0,-1,1644,1709,4.84634,-10.378
427,-685,6.05151,9.21155,0,0,0,0,0,0,0,-1,1651,1709,6.05156,-9.21156
434,-685,4.87769,8.91418,0,0,0,0,0,0,0,-1,1658,1709,4.87768,-8.91413
441,-685,5.62,8.75549,0,0,0,0,0,0,0,-1,1665,1709,5.61996,-8.75545
448,-685,6.4043,8.58972,0,0,0,0,0,0,0,-1,1672,1709,6.40435,-8.58971
455,-685,2.31958,4.09802,0,0,0,0,0,0,0,-1,1679,1709,2.31957,-4.09803
462,-685,0,0,0,0,0,0,0,0,0,-1,1686,1709,0,0
469,-685,0,0,0,0,0,0,0,0,0,-1,1693,1709,0,0
476,-685,0,0,0,0,0,0,0,0,0,-1,1700,1709,0,0
483,-685,0,0,0,0,0,0,0,0,0,-1,1707,1709,0,0
490,-685,0,0,0,0,0,0,0,0,0,-1,1714,1709,0,0
497,-685,0,0,0,0,0,0,0,0,0,-1,1721,1709,0,0
504,-685,0,0,0,0,0,0,0,0,0,-1,1728,1709,0,0
511,-685,0,0,0,0,0,0,0,0,0,-1,1735,1709,0,0
518,-685,0,0,0,0,0,0,0,0,0,-1,1742,1709,0,0
525,-685,0,0,0,0,0,0,0,0,0,-1,1749,1709,0,0
532,-685,0,0,0,0,0,0,0,0,0,-1,1756,1709,0,0
539,-685,0,0,0,0,0,0,0,0,0,-1,1763,1709,0,0
546,-685,0,0,0,0,0,0,0,0,0,-1,1770,1709,0,0
553,-685,0,0,0,0,0,0,0,0,0,-1,1777,1709,0,0
560,-685,0,0,0,0,0,0,0,0,0,-1,1784,1709,0,0
567,-685,0,0,0,0,0,0,0,0,0,-1,1791,1709,0,0
574,-685,0,0,0,0,0,0,0,0,0,-1,1798,1709,0,0
581,-685,0,0,0,0,0,0,0,0,0,-1,1805,1709,0,0
588,-685,0,0,0,0,0,0,0,0,0,-1,1812,1709,0,0
595,-685,0,0,0,0,0,0,0,0,0,-1,1819,1709,0,0
602,-685,0,0,0,0,0,0,0,0,0,-1,1826,1709,0,0
609,-685,0,0,0,0,0,0,0,0,0,-1,1833,1709,0,0
616,-685,0,0,0,0,0,0,0,0,0,-1,1840,1709,0,0
623,-685,0,0,0,0,0,0,0,0,0,-1,1847,1709,0,0
630,-685,0,0,0,0,0,0,0,0,0,-1,1854,1709,0,0
637,-685,0,0,0,0,0,0,0,0,0,-1,1861,1709,0,0
644,-685,0,0,0,0,0,0,0,0,0,-1,1868,1709,0,0
651,-685,0,0,0,0,0,0,0,0,0,-1,1875,1709,0,0
658,-685,0,0,0,0,0,0,0,0,0,-1,1882,1709,0,0
665,-685,0,0,0,0,0,0,0,0,0,-1,1889,1709,0,0
672,-685,0,0,0,0,0,0,0,0,0,-1,1896,1709,0,0
679,-685,0,0,0,0,0,0,0,0,0,-1,1903,1709,0,0
686,-685,0,0,0,0,0,0,0,0,0,-1,1910,1709,0,0
693,-685,0,0,0,0,0,0,0,0,0,-1,1917,1709,0,0
700,-685,0,0,0,0,0,0,0,0,0,-1,1924,1709,0,0
707,-685,0,0,0,0,0,0,0,0,0,-1,1931,1709,0,0
714,-685,0,0,0,0,0,0,0,0,0,-1,1938,1709,0,0
721,-685,0,0,0,0,0,0,0,0,0,-1,1945,1709,0,0
728,-685,0,0,0,0,0,0,0,0,0,-1,1952,1709,0,0
735,-685,0,0,0,0,0,0,0,0,0,-1,1959,1709,0,0
742,-685,0,0,0,0,0,0,0,0,0,-1,1966,1709,0,0
749,-685,0,0,0,0,0,0,0,0,0,-1,1973,1709,0,0
756,-685,0,0,0,0,0,0,0,0,0,-1,1980,1709,0,0
763,-685,0,0,0,0,0,0,0,0,0,-1,1987,1709,0,0
770,-685,0,0,0,0,0,0,0,0,0,-1,1994,1709,0,0
777,-685,0,0,0,0,0,0,0,0,0,-1,2001,1709,0,0
784,-685,0,0,0,0,0,0,0,0,0,-1,2008,1709,0,0
791,-685,0,0,0,0,0,0,0,0,0,-1,2015,1709,0,0
798,-685,0,0,0,0,0,0,0,0,0,-1,2022,1709,0,0
805,-685,0,0,0,0,0,0,0,0,0,-1,2029,1709,0,0
812,-685,0,0,0,0,0,0,0,0,0,-1,2036,1709,0,0
-700,-692,0,0,0,0,0,0,0,0,0,-1,524,1716,0,0
-693,-692,0,0,0,0,0,0,0,0,0,-1,531,1716,0,0
-686,-692,0,0,0,0,0,0,0,0,0,-1,538,1716,0,0
-679,-692,0,0,0,0,0,0,0,0,0,-1,545,1716,0,0
-672,-692,0,0,0,0,0,0,0,0,0,-1,552,1716,0,0
-665,-692,0,0,0,0,0,0,0,0,0,-1,559,1716,0,0
-658,-692,0,0,0,0,0,0,0,0,0,-1,566,1716,0,0
-651,-692,0,0,0,0,0,0,0,0,0,-1,573,1716,0,0
-644,-692,0,0,0,0,0,0,0,0,0,-1,580,1716,0,0
-637,-692,0,0,0,0,0,0,0,0,0,-1,587,1716,0,0
-630,-692,0,0,0,0,0,0,0,0,0,-1,594,1716,0,0
-623,-692,0,0,0,0,0,0,0,0,0,-1,601,1716,0,0
-616,-692,0,0,0,0,0,0,0,0,0,-1,608,1716,0,0
-609,-692,0,0,0,0,0,0,0,0,0,-1,615,1716,0,0
-602,-692,0,0,0,0,0,0,0,0,0,-1,622,1716,0,0
-595,-692,0,0,0,0,0,0,0,0,0,-1,629,1716,0,0
-588,-692,0,0,0,0,0,0,0,0,0,-1,636,1716,0,0
-581,-692,0,0,0,0,0,0,0,0,0,-1,643,1716,0,0
-574,-692,0,0,0,0,0,0,0,0,0,-1,650,1716,0,0
-567,-692,0,0,0,0,0,0,0,0,0,-1,657,1716,0,0
-560,-692,0,0,0,0,0,0,0,0,0,-1,664,1716,0,0
-553,-692,0,0,0,0,0,0,0,0,0,-1,671,1716,0,0
-546,-692,0,0,0,0,0,0,0,0,0,-1,678,1716,0,0
-539,-692,0,0,0,0,0,0,0,0,0,-1,685,1716,0,0
-532,-692,0,0,0,0,0,0,0,0,0,-1,692,1716,0,0
-525,-692,0,0,0,0,0,0,0,0,0,-1,699,1716,0,0
-518,-692,0,0,0,0,0,0,0,0,0,-1,706,1716,0,0
-511,-692,0,0,0,0,0,0,0,0,0,-1,713,1716,0,0
-504,-692,0,0,0,0,0,0,0,0,0,-1,720,1716,0,0
-497,-692,0,0,0,0,0,0,0,0,0,-1,727,1716,0,0
-490,-692,0,0,0,0,0,0,0,0,0,-1,734,1716,0,0
-483,-692,0,0,0,0,0,0,0,0,0,-1,741,1716,0,0
-476,-692,0,0,0,0,0,0,0,0,0,-1,748,1716,0,0
-469,-692,0,0,0,0,0,0,0,0,0,-1,755,1716,0,0
-462,-692,0,0,0,0,0,0,0,0,0,-1,762,1716,0,0
-455,-692,0,0,0,0,0,0,0,0,0,-1,769,1716,0,0
-448,-692,0,0,0,0,0,0,0,0,0,-1,776,1716,0,0
-441,-692,0,0,0,0,0,0,0,0,0,-1,783,1716,0,0
-434,-692,0,0,0,0,0,0,0,0,0,-1,790,1716,0,0
-427,-692,0,0,0,0,0,0,0,0,0,-1,797,1716,0,0
-420,-692,0,0,0,0,0,0,0,0,0,-1,804,1716,0,0
-413,-692,0,0,0,0,0,0,0,0,0,-1,811,1716,0,0
-406,-692,0,0,0,0,0,0,0,0,0,-1,818,1716,0,0
-399,-692,0,0,0,0,0,0,0,0,0,-1,825,1716,0,0
-392,-692,0,0,0,0,0,0,0,0,0,-1,832,1716,0,0
-385,-692,0,0,0,0,0,0,0,0,0,-1,839,1716,0,0
-378,-692,0,0,0,0,0,0,0,0,0,-1,846,1716,0,0
-371,-692,0,0,0,0,0,0,0,0,0,-1,853,1716,0,0
-364,-692,0,0,0,0,0,0,0,0,0,-1,860,1716,0,0
-357,-692,0,0,0,0,0,0,0,0,0,-1,867,1716,0,0
-350,-692,0,0,0,0,0,0,0,0,0,-1,874,1716,0,0
-343,-692,0,0,0,0,0,0,0,0,0,-1,881,1716,0,0
-336,-692,0,0,0,0,0,0,0,0,0,-1,888,1716,0,0
-329,-692,3.03107,4.10266,0,0,0,0,0,0,0,-1,895,1716,3.03105,-4.10267
-322,-692,4.43713,18.5242,0,0,0,0,0,0,0,-1,902,1716,4.43711,-18.5241
-315,-692,5.38965,17.975,0,0,0,0,0,0,0,-1,909,1716,5.38963,-17.975
-308,-692,5.86938,17.4392,0,0,0,0,0,0,0,-1,916,1716,5.86937,-17.4392
-301,-692,8.65558,20.7662,0,0,0,0,0,0,0,-1,923,1716,8.65556,-20.7663
-294,-692,7.04529,27.412,0,0,0,0,0,0,0,-1,930,1716,7.04529,-27.412
-287,-692,7.44824,28.3254,0,0,0,0,0,0,0,-1,937,1716,7.44825,-28.3254
-280,-692,6.61145,27.9436,0,0,0,0,0,0,0,-1,944,1716,6.61145,-27.9437
-273,-692,6.35132,28.6246,0,0,0,0,0,0,0,-1,951,1716,6.35133,-28.6246
-266,-692,6.21893,29.208,0,0,0,0,0,0,0,-1,958,1716,6.21893,-29.208
-259,-692,7.18622,29.2,0,0,0,0,0,0,0,-1,965,1716,7.18621,-29.2
-252,-692,7.24573,29.4509,0,0,0,0,0,0,0,-1,972,1716,7.2457,-29.451
-245,-692,7.20996,29.8126,-0.00436482,-0.00206011,0.00252703,-0.000435091,-0.00598984,0.999319,0.00385639,0.0477529,979,1716,7.20996,-29.8126
-238,-692,7.1637,30.2389,-0.00467325,-0.000751494,0.00157239,-0.000198915,-0.00522583,1.23285,0.00341951,0.0427348,986,1716,7.16368,-30.2389
-231,-692,7.03979,30.6073,-0.00389542,-0.000619566,0.00115215,-0.000254929,-0.00426005,1.26429,0.00275899,0.0370573,993,1716,7.03981,-30.6073
-224,-692,6.93927,30.8837,-0.00299221,-0.000742485,0.000621114,-0.000582397,-0.0031523,1.31854,0.00193681,0.0189201,1000,1716,6.9393,-30.8837
-217,-692,6.92633,31.2026,-0.00230118,-0.000580904,0.000791491,-0.000272156,-0.00260993,1.19887,0.0016567,0.0123648,1007,1716,6.92634,-31.2026
-210,-692,6.91821,31.5433,-0.00162124,-0.000903776,0.00162329,0.000399947,-0.00292497,0.894146,0.00209605,0.0131949,1014,1716,6.91823,-31.5434
-203,-692,6.90991,31.863,-0.000923768,-0.00121692,0.00220159,0.00113612,-0.0032768,0.752159,0.00264584,0.0155683,1021,1716,6.9099,-31.863
-196,-692,6.87842,32.2125,-0.000325633,-0.001574,0.00262634,0.00174968,-0.00364931,0.668731,0.00318077,0.0170006,1028,1716,6.87844,-32.2125
-189,-692,6.85315,32.4829,0.000266294,-0.0017153,0.00294068,0.00237861,-0.00382761,0.622907,0.00361557,0.00855988,1035,1716,6.85313,-32.483
-182,-692,6.83484,32.7999,0.000716635,-0.00167524,0.00306119,0.00280721,-0.00376581,0.599176,0.00380836,0.0130987,1042,1716,6.83486,-32.7999
-175,-692,6.80444,33.1189,0.00098579,-0.001469,0.00314038,0.00313011,-0.00361332,0.599105,0.00389665,0.0146102,1049,1716,6.80446,-33.1189
-168,-692,6.82507,33.4075,0.00111972,-0.00119603,0.0030844,0.00325642,-0.00333273,0.605839,0.00380433,0.0117585,1056,1716,6.82504,-33.4074
-161,-692,6.85303,33.7207,0.00122374,-0.00058676,0.00279823,0.0032595,-0.00262252,0.628957,0.00340262,0.0141131,1063,1716,6.85301,-33.7208
-154,-692,6.83337,34.0125,0.00128174,0.000190253,0.00247485,0.00327031,-0.00179831,0.676877,0.00296722,0.0147805,1070,1716,6.83343,-34.0125
-147,-692,6.81067,34.2728,0.00124558,0.00103797,0.00210092,0.00324526,-0.000961711,0.760714,0.00254538,0.0127263,1077,1716,6.8107,-34.2728
-140,-692,6.81116,34.5238,0.00118847,0.00182223,0.00170668,0.00324119,-0.000230499,0.877189,0.00224158,0.00986549,1084,1716,6.81122,-34.5238
-133,-692,6.81494,34.7865,0.00120117,0.00247453,0.00131904,0.0033025,0.000373187,1.01025,0.00208842,0.0100523,1091,1716,6.81499,-34.7865
-126,-692,6.81812,35.026,0.00132409,0.00303198,0.000987881,0.00348384,0.000872226,1.1418,0.0020933,0.00836945,1098,1716,6.81816,-35.026
-119,-692,6.8252,35.2446,0.00152493,0.00335843,0.000738857,0.00361911,0.00126425,1.23162,0.00212088,0.0119393,1105,1716,6.82516,-35.2447
-112,-692,6.83093,35.4823,0.00176927,0.0034681,0.000522267,0.00361581,0.00162156,1.29516,0.00209128,0.0115732,1112,1716,6.83093,-35.4824
-105,-692,6.86157,35.7135,0.002047,0.00335166,0.00037515,0.00345184,0.00194682,1.30984,0.00199835,0.0158328,1119,1716,6.86151,-35.7135
-98,-692,6.90588,35.9659,0.00236261,0.00315674,0.000244293,0.00322587,0.00229348,1.29502,0.00191692,0.0165784,1126,1716,6.90585,-35.9659
-91,-692,6.8894,36.1531,0.00265262,0.00267106,8.03416e-05,0.00274271,0.00258097,0.84251,0.00177702,0.0184852,1133,1716,6.88936,-36.153
-84,-692,6.8988,36.3363,0.0029705,0.00210001,-4.88183e-05,0.00297323,0.00209728,-0.0558479,0.00176421,0.0217688,1140,1716,6.89884,-36.3363
-77,-692,6.901,36.569,0.00318302,0.00204486,-0.000433961,0.0033296,0.00189827,-0.325747,0.00192864,0.0178743,1147,1716,6.90097,-36.569
-70,-692,6.96667,36.7726,0.0033822,0.00161493,-0.00079587,0.00368777,0.00130936,-0.366595,0.00215875,0.0343671,1154,1716,6.96666,-36.7726
-63,-692,7.04419,36.9894,0,0,0,0,0,0,0,-1,1161,1716,7.04416,-36.9894
-56,-692,6.94861,37.0344,0,0,0,0,0,0,0,-1,1168,1716,6.94861,-37.0344
-49,-692,6.95959,37.2736,0,0,0,0,0,0,0,-1,1175,1716,6.95962,-37.2736
-42,-692,7.12134,37.4241,0,0,0,0,0,0,0,-1,1182,1716,7.12137,-37.424
-35,-692,7.14954,37.6755,0,0,0,0,0,0,0,-1,1189,1716,7.14953,-37.6755
-28,-692,7.13062,37.7692,-0.00373608,0.0158235,0.0047901,0.0169336,-0.00484616,1.34307,0.0132043,0.0477311,1196,1716,7.13063,-37.7692
-21,-692,7.19409,37.6919,-0.00515555,0.0183772,0.00550288,0.0196004,-0.00637876,1.35207,0.0156331,0.0345731,1203,1716,7.19411,-37.6919
-14,-692,7.23743,37.8187,-0.00726457,0.0210125,0.00587804,0.0221857,-0.00843778,1.37379,0.0182647,0.017491,1210,1716,7.23742,-37.8187
-7,-692,7.26868,37.9954,-0.00927508,0.0236391,0.00613522,0.0247455,-0.0103815,1.39238,0.0208381,0.0149352,1217,1716,7.26867,-37.9953
0,-692,7.30554,38.0905,-0.0112612,0.0264449,0.00615023,0.0274227,-0.012239,1.41313,0.0234514,0.0176897,1224,1716,7.30556,-38.0905
7,-692,7.30774,38.1412,-0.0136397,0.0293327,0.0057741,0.030095,-0.0144021,1.43953,0.0262175,0.0232732,1231,1716,7.30768,-38.1413
14,-692,7.46313,38.3669,-0.0158618,0.0315622,0.00516476,0.0321181,-0.0164177,1.46357,0.0285067,0.0265315,1238,1716,7.46316,-38.367
21,-692,7.58923,38.4617,-0.0177967,0.0330846,0.0044697,0.0334742,-0.0181864,1.48384,0.0302585,0.0264388,1245,1716,7.5892,-38.4617
28,-692,7.58069,38.4153,-0.0107277,0.0343832,-0.000598479,0.0343911,-0.0107356,-1.55753,0.027221,0.0275912,1252,1716,7.58064,-38.4153
35,-692,7.60242,38.5303,0.000471825,0.0351474,-0.00575588,0.0360778,-0.000458637,-1.41053,0.0242062,0.0274559,1259,1716,7.60244,-38.5303
42,-692,7.68823,38.6466,0.00885021,0.0348059,-0.00823885,0.0372002,0.0064559,-1.28797,0.0229529,0.0264873,1266,1716,7.68823,-38.6466
49,-692,7.77966,38.6206,0.0192525,0.0336063,-0.0107346,0.0393422,0.0135166,-1.08006,0.0230818,0.0311877,1273,1716,7.77967,-38.6207
56,-692,7.75146,38.5406,0.0312777,0.0312231,-0.0126013,0.0438518,0.0186491,-0.784315,0.0254119,0.0368278,1280,1716,7.75142,-38.5406
63,-692,7.72388,38.5587,0.0432462,0.0290475,-0.0133638,0.0512793,0.0210144,-0.541235,0.0297663,0.0383304,1287,1716,7.72394,-38.5587
70,-692,7.87549,38.661,0.0537476,0.0251682,-0.0136285,0.0592046,0.0197112,-0.38086,0.034812,0.0334451,1294,1716,7.87546,-38.661
77,-692,8.00757,38.624,0.0624344,0.0212342,-0.0118899,0.0656195,0.0180491,-0.261735,0.0391425,0.0373202,1301,1716,8.00751,-38.624
84,-692,8.02258,38.4498,0.0674835,0.0166776,-0.0091475,0.0690803,0.0150808,-0.17282,0.0419403,0.046923,1308,1716,8.02264,-38.4498
91,-692,8.06421,38.4108,0.0706814,0.0112254,-0.00537995,0.0711643,0.0107425,-0.0895174,0.0442983,0.0421534,1315,1716,8.0642,-38.4108
98,-692,8.05835,38.3506,0.0695699,0.00577621,-0.000490816,0.0695737,0.00577244,-0.00769319,0.0445831,0.0338484,1322,1716,8.0584,-38.3506
105,-692,8.14954,38.2411,0.0652046,0.000536557,0.00423414,0.0654807,0.000260502,0.0651045,0.0435672,0.0394926,1329,1716,8.14954,-38.2411
112,-692,8.15771,38.1838,0.0602175,-0.00485983,0.00846231,0.0612999,-0.00594222,0.127216,0.0429845,0.039511,1336,1716,8.15772,-38.1839
119,-692,8.15198,38.1366,0.0526517,-0.00959161,0.0120534,0.0549043,-0.0118442,0.184756,0.0411235,0.033911,1343,1716,8.15195,-38.1366
126,-692,8.27112,38.0541,0.0463795,-0.0141829,0.0146715,0.0497465,-0.0175499,0.225589,0.0403086,0.0347346,1350,1716,8.27111,-38.0541
133,-692,8.30908,37.9822,0.037185,-0.0185798,0.0186406,0.0428422,-0.024237,0.294651,0.0392216,0.0264653,1357,1716,8.30913,-37.9822
140,-692,8.27246,37.9808,0.0307656,-0.0226432,0.0206467,0.0378164,-0.029694,0.329079,0.0390711,0.0306902,1364,1716,8.27248,-37.9808
147,-692,8.38489,37.9331,0.0294549,-0.0244695,0.0194687,0.0357491,-0.0307637,0.312695,0.0384372,0.0361129,1371,1716,8.38489,-37.9331
154,-692,8.31714,37.7794,0.0279861,-0.0254117,0.0184435,0.0337371,-0.0311626,0.302261,0.0374797,0.0307275,1378,1716,8.31717,-37.7795
161,-692,8.54358,37.7258,0.0258829,-0.0257622,0.017065,0.0310122,-0.0308915,0.291985,0.0357401,0.039725,1385,1716,8.54358,-37.7258
168,-692,8.73328,37.6539,0,0,0,0,0,0,0,-1,1392,1716,8.7333,-37.6539
175,-692,8.52917,37.4299,0,0,0,0,0,0,0,-1,1399,1716,8.52918,-37.43
182,-692,8.51624,37.2345,0,0,0,0,0,0,0,-1,1406,1716,8.5162,-37.2345
189,-692,8.52405,37.0973,0,0,0,0,0,0,0,-1,1413,1716,8.524,-37.0973
196,-692,8.53638,36.9409,0.0101094,-0.0063623,0.00631012,0.0122489,-0.00850175,0.326887,0.0120453,0.0370233,1420,1716,8.5364,-36.9409
203,-692,8.56128,36.7982,0.00408173,0.000574982,0.00159573,0.00469916,-4.24422e-05,0.369182,0.00314701,0.0242184,1427,1716,8.56123,-36.7982
210,-692,8.61768,36.6205,0.00339817,0.000710173,0.0013709,0.00397399,0.000134351,0.397654,0.0026057,0.0192853,1434,1716,8.61773,-36.6204
217,-692,8.62402,36.3898,0.00266489,0.000559685,0.000863599,0.00297382,0.000250754,0.343541,0.00190447,0.0164268,1441,1716,8.62403,-36.3898
224,-692,8.66187,36.2336,0.00238116,0.000652981,0.000668711,0.0026097,0.000424448,0.329308,0.00161699,0.0132275,1448,1716,8.66181,-36.2336
231,-692,8.64734,36.0411,0.00216145,0.00038351,0.000178749,0.00217924,0.000365717,0.0992145,0.00134757,0.0119135,1455,1716,8.64735,-36.0411
238,-692,8.66467,35.7561,0.00218384,0.000146529,-0.000236106,0.00221084,0.000119524,-0.11388,0.00143571,0.0177057,1462,1716,8.66469,-35.7561
245,-692,8.63696,35.5288,0.00221998,5.14797e-05,-0.000405917,0.00229347,-2.20123e-05,-0.179112,0.00153637,0.0197754,1469,1716,8.63695,-35.5289
252,-692,8.66541,35.3481,0.00218008,-4.08521e-05,-0.000583438,0.00232402,-0.000184792,-0.24188,0.00161447,0.018313,1476,1716,8.66538,-35.3482
259,-692,8.66479,35.1791,0.00223268,-6.98313e-06,-0.000755676,0.0024638,-0.000238103,-0.29681,0.00172738,0.0097681,1483,1716,8.66478,-35.1791
266,-692,8.67334,34.9436,0.00227623,0.000180851,-0.00094367,0.00263856,-0.000181483,-0.366605,0.00182255,0.010107,1490,1716,8.67336,-34.9436
273,-692,8.68506,34.6649,0.00232477,0.000571907,-0.0011699,0.00291011,-1.34383e-05,-0.463919,0.00194457,0.014874,1497,1716,8.6851,-34.665
280,-692,8.68982,34.4006,0.00236463,0.00103329,-0.00144826,0.00329287,0.000105044,-0.56998,0.00216108,0.0145834,1504,1716,8.68986,-34.4007
287,-692,8.69104,34.1637,0.00237742,0.00164532,-0.0017343,0.00378387,0.000238863,-0.681392,0.00244685,0.0115592,1511,1716,8.691,-34.1637
294,-692,8.67883,33.9045,0.00237604,0.00241541,-0.0020695,0.00446532,0.000326135,-0.790153,0.00287434,0.0108522,1518,1716,8.67883,-33.9045
301,-692,8.66492,33.6287,0.00238698,0.0030315,-0.00245255,0.00518287,0.000235604,-0.850723,0.00337945,0.0139291,1525,1716,8.66496,-33.6287
308,-692,8.64673,33.371,0.00229744,0.0033497,-0.00283362,0.00570563,-5.8484e-05,-0.87719,0.00382339,0.0171516,1532,1716,8.64667,-33.371
315,-692,8.67981,33.0905,0.00213627,0.00290864,-0.0030665,0.00561318,-0.00056827,-0.848037,0.00394521,0.0152304,1539,1716,8.67977,-33.0904
322,-692,8.62329,32.7549,0.00201968,0.00258729,-0.003261,0.00557681,-0.000969835,-0.828804,0.00407976,0.0185667,1546,1716,8.62335,-32.7548
329,-692,8.61572,32.464,0.0019195,0.00170055,-0.00337138,0.00518318,-0.00156313,-0.769168,0.00407762,0.0167984,1553,1716,8.6157,-32.4639
336,-692,8.61829,32.1522,0.00178443,0.000435416,-0.00340389,0.00458,-0.00236015,-0.687586,0.00407465,0.0122746,1560,1716,8.61823,-32.1522
343,-692,8.60071,31.856,0.00159265,-0.00118041,-0.00318458,0.00367945,-0.0032672,-0.580079,0.004013,0.0136949,1567,1716,8.60075,-31.856
350,-692,8.58374,31.5626,0.00138195,-0.0035039,-0.00270184,0.00258153,-0.00470348,-0.417841,0.00426506,0.0155624,1574,1716,8.58378,-31.5626
357,-692,8.55164,31.2076,0.000879535,-0.00634101,-0.00179252,0.00130004,-0.00676152,-0.230424,0.00499771,0.0203308,1581,1716,8.55162,-31.2076
364,-692,8.53967,30.8713,0.000425491,-0.00901218,-0.000672401,0.000473157,-0.00905985,-0.0707701,0.00620363,0.026999,1588,1716,8.53964,-30.8713
371,-692,8.58228,30.5841,-0.000148244,-0.0117735,0.000677976,-0.000108839,-0.0118129,0.0580567,0.00783927,0.037461,1595,1716,8.58228,-30.5842
378,-692,8.61096,30.3828,-0.00115343,-0.0151601,0.00241179,-0.00074978,-0.0155638,0.165828,0.0101352,0.0481955,1602,1716,8.61098,-30.3828
385,-692,8.34924,29.9294,0,0,0,0,0,0,0,-1,1609,1716,8.34923,-29.9295
392,-692,7.99841,29.3076,0,0,0,0,0,0,0,-1,1616,1716,7.99847,-29.3076
399,-692,8.84656,29.9285,0,0,0,0,0,0,0,-1,1623,1716,8.84653,-29.9284
406,-692,8.48706,30.1267,0,0,0,0,0,0,0,-1,1630,1716,8.48703,-30.1267
413,-692,4.25085,10.5685,0,0,0,0,0,0,0,-1,1637,1716,4.2508,-10.5685
420,-692,5.48901,10.4845,0,0,0,0,0,0,0,-1,1644,1716,5.48906,-10.4845
427,-692,3.79578,8.60339,0,0,0,0,0,0,0,-1,1651,1716,3.79577,-8.6034
434,-692,4.78516,8.64636,0,0,0,0,0,0,0,-1,1658,1716,4.78512,-8.64634
441,-692,5.8208,8.74036,0,0,0,0,0,0,0,-1,1665,1716,5.82084,-8.7404
448,-692,6.73792,8.51013,0,0,0,0,0,0,0,-1,1672,1716,6.73793,-8.5101
455,-692,0,0,0,0,0,0,0,0,0,-1,1679,1716,0,0
462,-692,0,0,0,0,0,0,0,0,0,-1,1686,1716,0,0
469,-692,0,0,0,0,0,0,0,0,0,-1,1693,1716,0,0
476,-692,0,0,0,0,0,0,0,0,0,-1,1700,1716,0,0
483,-692,0,0,0,0,0,0,0,0,0,-1,1707,1716,0,0
490,-692,0,0,0,0,0,0,0,0,0,-1,1714,1716,0,0
497,-692,0,0,0,0,0,0,0,0,0,-1,1721,1716,0,0
504,-692,0,0,0,0,0,0,0,0,0,-1,1728,1716,0,0
511,-692,0,0,0,0,0,0,0,0,0,-1,1735,1716,0,0
518,-692,0,0,0,0,0,0,0,0,0,-1,1742,1716,0,0
525,-692,0,0,0,0,0,0,0,0,0,-1,1749,1716,0,0
532,-692,0,0,0,0,0,0,0,0,0,-1,1756,1716,0,0
539,-692,0,0,0,0,0,0,0,0,0,-1,1763,1716,0,0
546,-692,0,0,0,0,0,0,0,0,0,-1,1770,1716,0,0
553,-692,0,0,0,0,0,0,0,0,0,-1,1777,1716,0,0
560,-692,0,0,0,0,0,0,0,0,0,-1,1784,1716,0,0
567,-692,0,0,0,0,0,0,0,0,0,-1,1791,1716,0,0
574,-692,0,0,0,0,0,0,0,0,0,-1,1798,1716,0,0
581,-692,0,0,0,0,0,0,0,0,0,-1,1805,1716,0,0
588,-692,0,0,0,0,0,0,0,0,0,-1,1812,1716,0,0
595,-692,0,0,0,0,0,0,0,0,0,-1,1819,1716,0,0
602,-692,0,0,0,0,0,0,0,0,0,-1,1826,1716,0,0
609,-692,0,0,0,0,0,0,0,0,0,-1,1833,1716,0,0
616,-692,0,0,0,0,0,0,0,0,0,-1,1840,1716,0,0
623,-692,0,0,0,0,0,0,0,0,0,-1,1847,1716,0,0
630,-692,0,0,0,0,0,0,0,0,0,-1,1854,1716,0,0
637,-692,0,0,0,0,0,0,0,0,0,-1,1861,1716,0,0
644,-692,0,0,0,0,0,0,0,0,0,-1,1868,1716,0,0
651,-692,0,0,0,0,0,0,0,0,0,-1,1875,1716,0,0
658,-692,0,0,0,0,0,0,0,0,0,-1,1882,1716,0,0
665,-692,0,0,0,0,0,0,0,0,0,-1,1889,1716,0,0
672,-692,0,0,0,0,0,0,0,0,0,-1,1896,1716,0,0
679,-692,0,0,0,0,0,0,0,0,0,-1,1903,1716,0,0
686,-692,0,0,0,0,0,0,0,0,0,-1,1910,1716,0,0
693,-692,0,0,0,0,0,0,0,0,0,-1,1917,1716,0,0
700,-692,0,0,0,0,0,0,0,0,0,-1,1924,1716,0,0
707,-692,0,0,0,0,0,0,0,0,0,-1,1931,1716,0,0
714,-692,0,0,0,0,0,0,0,0,0,-1,1938,1716,0,0
721,-692,0,0,0,0,0,0,0,0,0,-1,1945,1716,0,0
728,-692,0,0,0,0,0,0,0,0,0,-1,1952,1716,0,0
735,-692,0,0,0,0,0,0,0,0,0,-1,1959,1716,0,0
742,-692,0,0,0,0,0,0,0,0,0,-1,1966,1716,0,0
749,-692,0,0,0,0,0,0,0,0,0,-1,1973,1716,0,0
756,-692,0,0,0,0,0,0,0,0,0,-1,1980,1716,0,0
763,-692,0,0,0,0,0,0,0,0,0,-1,1987,1716,0,0
770,-692,0,0,0,0,0,0,0,0,0,-1,1994,1716,0,0
777,-692,0,0,0,0,0,0,0,0,0,-1,2001,1716,0,0
784,-692,0,0,0,0,0,0,0,0,0,-1,2008,1716,0,0
791,-692,0,0,0,0,0,0,0,0,0,-1,2015,1716,0,0
798,-692,0,0,0,0,0,0,0,0,0,-1,2022,1716,0,0
805,-692,0,0,0,0,0,0,0,0,0,-1,2029,1716,0,0
812,-692,0,0,0,0,0,0,0,0,0,-1,2036,1716,0,0
-700,-699,0,0,0,0,0,0,0,0,0,-1,524,1723,0,0
-693,-699,0,0,0,0,0,0,0,0,0,-1,531,1723,0,0
-686,-699,0,0,0,0,0,0,0,0,0,-1,538,1723,0,0
-679,-699,0,0,0,0,0,0,0,0,0,-1,545,1723,0,0
-672,-699,0,0,0,0,0,0,0,0,0,-1,552,1723,0,0
-665,-699,0,0,0,0,0,0,0,0,0,-1,559,1723,0,0
-658,-699,0,0,0,0,0,0,0,0,0,-1,566,1723,0,0
-651,-699,0,0,0,0,0,0,0,0,0,-1,573,1723,0,0
-644,-699,0,0,0,0,0,0,0,0,0,-1,580,1723,0,0
-637,-699,0,0,0,0,0,0,0,0,0,-1,587,1723,0,0
-630,-699,0,0,0,0,0,0,0,0,0,-1,594,1723,0,0
-623,-699,0,0,0,0,0,0,0,0,0,-1,601,1723,0,0
-616,-699,0,0,0,0,0,0,0,0,0,-1,608,1723,0,0
-609,-699,0,0,0,0,0,0,0,0,0,-1,615,1723,0,0
-602,-699,0,0,0,0,0,0,0,0,0,-1,622,1723,0,0
-595,-699,0,0,0,0,0,0,0,0,0,-1,629,1723,0,0
-588,-699,0,0,0,0,0,0,0,0,0,-1,636,1723,0,0
-581,-699,0,0,0,0,0,0,0,0,0,-1,643,1723,0,0
-574,-699,0,0,0,0,0,0,0,0,0,-1,650,1723,0,0
-567,-699,0,0,0,0,0,0,0,0,0,-1,657,1723,0,0
-560,-699,0,0,0,0,0,0,0,0,0,-1,664,1723,0,0
-553,-699,0,0,0,0,0,0,0,0,0,-1,671,1723,0,0
-546,-699,0,0,0,0,0,0,0,0,0,-1,678,1723,0,0
-539,-699,0,0,0,0,0,0,0,0,0,-1,685,1723,0,0
-532,-699,0,0,0,0,0,0,0,0,0,-1,692,1723,0,0
-525,-699,0,0,0,0,0,0,0,0,0,-1,699,1723,0,0
-518,-699,0,0,0,0,0,0,0,0,0,-1,706,1723,0,0
-511,-699,0,0,0,0,0,0,0,0,0,-1,713,1723,0,0
-504,-699,0,0,0,0,0,0,0,0,0,-1,720,1723,0,0
-497,-699,0,0,0,0,0,0,0,0,0,-1,727,1723,0,0
-490,-699,0,0,0,0,0,0,0,0,0,-1,734,1723,0,0
-483,-699,0,0,0,0,0,0,0,0,0,-1,741,1723,0,0
-476,-699,0,0,0,0,0,0,0,0,0,-1,748,1723,0,0
-469,-699,0,0,0,0,0,0,0,0,0,-1,755,1723,0,0
-462,-699,0,0,0,0,0,0,0,0,0,-1,762,1723,0,0
-455,-699,0,0,0,0,0,0,0,0,0,-1,769,1723,0,0
-448,-699,0,0,0,0,0,0,0,0,0,-1,776,1723,0,0
-441,-699,0,0,0,0,0,0,0,0,0,-1,783,1723,0,0
-434,-699,0,0,0,0,0,0,0,0,0,-1,790,1723,0,0
-427,-699,0,0,0,0,0,0,0,0,0,-1,797,1723,0,0
-420,-699,0,0,0,0,0,0,0,0,0,-1,804,1723,0,0
-413,-699,0,0,0,0,0,0,0,0,0,-1,811,1723,0,0
-406,-699,0,0,0,0,0,0,0,0,0,-1,818,1723,0,0
-399,-699,0,0,0,0,0,0,0,0,0,-1,825,1723,0,0
-392,-699,0,0,0,0,0,0,0,0,0,-1,832,1723,0,0
-385,-699,0,0,0,0,0,0,0,0,0,-1,839,1723,0,0
-378,-699,0,0,0,0,0,0,0,0,0,-1,846,1723,0,0
-371,-699,0,0,0,0,0,0,0,0,0,-1,853,1723,0,0
-364,-699,0,0,0,0,0,0,0,0,0,-1,860,1723,0,0
-357,-699,0,0,0,0,0,0,0,0,0,-1,867,1723,0,0
-350,-699,0,0,0,0,0,0,0,0,0,-1,874,1723,0,0
-343,-699,0,0,0,0,0,0,0,0,0,-1,881,1723,0,0
-336,-699,0,0,0,0,0,0,0,0,0,-1,888,1723,0,0
-329,-699,0,0,0,0,0,0,0,0,0,-1,895,1723,0,0
-322,-699,0,0,0,0,0,0,0,0,0,-1,902,1723,0,0
-315,-699,6.20001,19.5193,0,0,0,0,0,0,0,-1,909,1723,6.20001,-19.5193
-308,-699,6.98151,18.9218,0,0,0,0,0,0,0,-1,916,1723,6.98151,-18.9217
-301,-699,4.72729,12.8752,0,0,0,0,0,0,0,-1,923,1723,4.72732,-12.8752
-294,-699,6.90332,19.8601,0,0,0,0,0,0,0,-1,930,1723,6.90332,-19.8601
-287,-699,7.71405,27.0637,0,0,0,0,0,0,0,-1,937,1723,7.71407,-27.0637
-280,-699,7.63812,28.7865,0,0,0,0,0,0,0,-1,944,1723,7.63813,-28.7865
-273,-699,6.48779,28.6891,0,0,0,0,0,0,0,-1,951,1723,6.48782,-28.6891
-266,-699,6.81915,20.8951,0,0,0,0,0,0,0,-1,958,1723,6.81914,-20.8952
-259,-699,5.39758,14.5466,0,0,0,0,0,0,0,-1,965,1723,5.39759,-14.5466
-252,-699,7.9483,28.2317,0,0,0,0,0,0,0,-1,972,1723,7.94833,-28.2317
-245,-699,7.60828,29.9465,0,0,0,0,0,0,0,-1,979,1723,7.60826,-29.9466
-238,-699,7.48035,30.4493,0,0,0,0,0,0,0,-1,986,1723,7.48033,-30.4493
-231,-699,7.27734,30.5934,-0.00481645,-0.00026394,0.00138917,0.000126477,-0.00520687,1.29682,0.00351416,0.0446481,993,1723,7.27736,-30.5933
-224,-699,7.38947,30.6277,-0.00362675,-0.000761883,0.000860465,-0.000523309,-0.00386532,1.30033,0.00242137,0.0402101,1000,1723,7.38947,-30.6276
-217,-699,7.29266,31.1593,-0.0027013,-0.00080188,0.00138825,-6.95754e-05,-0.00343361,1.08539,0.00226624,0.0273804,1007,1723,7.29265,-31.1593
-210,-699,7.23669,31.5813,-0.00182878,-0.00149332,0.00263898,0.000983255,-0.00430535,0.817135,0.00324798,0.0187368,1014,1723,7.23672,-31.5813
-203,-699,7.21326,31.8756,-0.00098398,-0.00210407,0.00343951,0.00194078,-0.00502883,0.704693,0.00415348,0.0215011,1021,1723,7.21328,-31.8756
-196,-699,7.17993,32.1874,-0.000252846,-0.00274421,0.00403416,0.00272358,-0.00572064,0.635651,0.00497657,0.0171567,1028,1723,7.17999,-32.1874
-189,-699,7.15564,32.5187,0.00046927,-0.00306493,0.00446395,0.00350316,-0.00609883,0.596932,0.00561082,0.00879764,1035,1723,7.15562,-32.5187
-182,-699,7.12634,32.827,0.000935606,-0.00308819,0.00460194,0.00394621,-0.0060988,0.579325,0.00584371,0.0119551,1042,1723,7.12633,-32.827
-175,-699,7.11511,33.1227,0.00115695,-0.00290261,0.00467354,0.00422246,-0.00596812,0.580532,0.00591224,0.0143491,1049,1723,7.11513,-33.1227
-168,-699,7.1272,33.4169,0.00125479,-0.00268221,0.00455827,0.00425145,-0.00567886,0.581568,0.00575298,0.0151813,1056,1723,7.12718,-33.4169
-161,-699,7.13831,33.7141,0.00131771,-0.00209424,0.00417056,0.00411772,-0.00489425,0.591256,0.0052095,0.0136176,1063,1723,7.13826,-33.7141
-154,-699,7.09741,34.001,0.0012796,-0.00124948,0.00369865,0.00392391,-0.00389378,0.620681,0.00451356,0.0133234,1070,1723,7.09735,-34.001
-147,-699,7.0636,34.2677,0.00114504,-0.000306733,0.00316547,0.00366679,-0.00282848,0.67269,0.00376044,0.0138075,1077,1723,7.06365,-34.2677
-140,-699,7.05579,34.5214,0.000981686,0.000588223,0.00261151,0.00340387,-0.00183396,0.747803,0.003069,0.00954907,1084,1723,7.05574,-34.5213
-133,-699,7.05969,34.7875,0.000882387,0.00136976,0.00206597,0.00320637,-0.000954221,0.844103,0.00251669,0.00930026,1091,1723,7.05968,-34.7875
-126,-699,7.07214,35.0209,0.000874156,0.00206173,0.00158569,0.00316116,-0.000225281,0.964549,0.00218641,0.0119688,1098,1723,7.07209,-35.0209
-119,-699,7.06836,35.259,0.000947792,0.00251328,0.00120136,0.0031644,0.000296674,1.07413,0.00201799,0.0168234,1105,1723,7.0684,-35.259
-112,-699,7.04541,35.4846,0.00109829,0.00271195,0.000818484,0.00305442,0.000755823,1.17451,0.00183692,0.011551,1112,1723,7.04542,-35.4847
-105,-699,7.04883,35.7198,0.00129038,0.00273479,0.000540945,0.00291491,0.00111025,1.24936,0.00169877,0.0123985,1119,1723,7.04885,-35.7199
-98,-699,7.09607,35.963,0.0015458,0.00261135,0.000360596,0.00272191,0.00143524,1.2733,0.00157228,0.0144071,1126,1723,7.09606,-35.963
-91,-699,7.10974,36.1698,0.0018166,0.00228624,0.000207735,0.00236494,0.0017379,1.20866,0.00141472,0.0205023,1133,1723,7.10976,-36.1699
-84,-699,7.10999,36.3783,0.00206634,0.00188165,8.1785e-05,0.00209735,0.00185064,0.362419,0.00132368,0.0231347,1140,1723,7.10997,-36.3783
-77,-699,7.11182,36.5515,0.00228437,0.00179776,-0.000201959,0.00235727,0.00172486,-0.346402,0.00140884,0.0162617,1147,1723,7.11179,-36.5516
-70,-699,7.13403,36.7168,0.0024832,0.001441,-0.00047685,0.00266845,0.00125575,-0.370542,0.00154152,0.0170004,1154,1723,7.13408,-36.7168
-63,-699,7.14343,36.9069,0.00331191,0.00154232,-0.000595501,0.00349364,0.00136058,-0.296201,0.00203342,0.0138321,1161,1723,7.14342,-36.9069
-56,-699,7.1405,37.0701,0.0036401,0.00117761,-0.00029875,0.00367583,0.00114188,-0.11902,0.00217238,0.0101435,1168,1723,7.14052,-37.0701
-49,-699,7.16309,37.2639,0.0022313,0.00408463,0.000764053,0.004359,0.00195693,1.22604,0.00252104,0.0233555,1175,1723,7.16312,-37.2639
-42,-699,7.25757,37.3762,0.00173694,0.00496844,0.00144015,0.0055171,0.00118828,1.2068,0.00335291,0.0283175,1182,1723,7.2576,-37.3762
-35,-699,7.23743,37.5739,0.00160661,0.00834126,0.00291252,0.00942609,0.000521778,1.21425,0.00611755,0.0261108,1189,1723,7.23743,-37.5738
-28,-699,7.28467,37.6763,0.000745288,0.0105276,0.00349561,0.0116484,-0.000375432,1.26054,0.0078937,0.0209974,1196,1723,7.28462,-37.6763
-21,-699,7.29651,37.7291,0.000239666,0.0127506,0.0041893,0.0140238,-0.00103355,1.27575,0.00971208,0.0140083,1203,1723,7.29648,-37.7291
-14,-699,7.30957,37.8456,-0.00101498,0.0152348,0.00462113,0.016457,-0.00223721,1.31223,0.011788,0.0116426,1210,1723,7.30957,-37.8456
-7,-699,7.3374,37.9685,-0.00237355,0.0175803,0.00491535,0.0187254,-0.00351866,1.34191,0.0138068,0.00833179,1217,1723,7.33741,-37.9685
0,-699,7.37927,38.0563,-0.00378016,0.0201538,0.00505493,0.0211776,-0.00480398,1.37096,0.0159626,0.0102159,1224,1723,7.37922,-38.0562
7,-699,7.401,38.1366,-0.0056444,0.0226128,0.00488018,0.0234319,-0.00646349,1.40451,0.0181632,0.015865,1231,1723,7.40094,-38.1366
14,-699,7.45715,38.238,-0.00729691,0.0244961,0.00450641,0.0251225,-0.00792331,1.43268,0.0199218,0.0178208,1238,1723,7.45713,-38.2381
21,-699,7.50549,38.2814,-0.00884561,0.0257553,0.00398008,0.0262072,-0.00929753,1.45774,0.0212595,0.0168108,1245,1723,7.50547,-38.2814
28,-699,7.55896,38.3102,-0.00477991,0.0268244,0.000443464,0.0268306,-0.00478613,1.55677,0.0196774,0.0159518,1252,1723,7.55899,-38.3102
35,-699,7.61646,38.3966,0.0016893,0.0259972,-0.0025651,0.0262649,0.00142157,-1.4668,0.0170559,0.0143102,1259,1723,7.61641,-38.3966
42,-699,7.66833,38.4351,0.00660347,0.025094,-0.00415663,0.0259854,0.00571205,-1.35954,0.0157683,0.0139252,1266,1723,7.66834,-38.4351
49,-699,7.72961,38.4667,0.0129812,0.0233722,-0.00579578,0.0259603,0.0103931,-1.15082,0.0150871,0.0151849,1273,1723,7.7296,-38.4666
56,-699,7.78479,38.5017,0.0207653,0.0205751,-0.00695603,0.0276269,0.0137135,-0.778564,0.0159505,0.0150056,1280,1723,7.78485,-38.5017
63,-699,7.80273,38.4885,0.0284026,0.0179027,-0.00713675,0.0320124,0.0142929,-0.46828,0.0185176,0.0136184,1287,1723,7.80269,-38.4885
70,-699,7.81055,38.4899,0.0351797,0.0140442,-0.00707671,0.0373303,0.0118935,-0.295033,0.0220204,0.0118051,1294,1723,7.81057,-38.4899
77,-699,7.84546,38.4706,0.0407814,0.0106147,-0.00558022,0.0417806,0.0096156,-0.177172,0.025266,0.0121154,1301,1723,7.84542,-38.4706
84,-699,7.87573,38.4258,0.0440417,0.00705455,-0.00357658,0.0443844,0.00671188,-0.0955187,0.0276255,0.0144188,1308,1723,7.87574,-38.4258
91,-699,7.91858,38.4122,0.0463433,0.00303018,-0.00092526,0.0463631,0.00301042,-0.0213491,0.0299557,0.0130165,1315,1723,7.91859,-38.4122
98,-699,7.98364,38.3981,0.0458351,-0.000425679,0.00225238,0.0459446,-0.000535084,0.0485358,0.0308096,0.0118855,1322,1723,7.98368,-38.3981
105,-699,8.00745,38.3577,0.0432518,-0.0035338,0.00511762,0.0438051,-0.00408704,0.107688,0.0306567,0.0158685,1329,1723,8.00748,-38.3577
112,-699,8.02954,38.3011,0.0403713,-0.00659051,0.0076012,0.041571,-0.00779019,0.156536,0.0306426,0.019977,1336,1723,8.02957,-38.3011
119,-699,8.04944,38.2365,0.0357301,-0.00902066,0.00952673,0.0376737,-0.0109643,0.201261,0.0294588,0.0158756,1343,1723,8.04947,-38.2364
126,-699,8.10583,38.1652,0.0315485,-0.0113529,0.0108232,0.0341243,-0.0139287,0.233646,0.0285485,0.0180008,1350,1723,8.1058,-38.1652
133,-699,8.17676,38.0862,0.0250611,-0.0136587,0.0131723,0.0291173,-0.0177149,0.298721,0.0273044,0.0160403,1357,1723,8.17678,-38.0862
140,-699,8.21082,37.9875,0.0204696,-0.0148835,0.0137108,0.0251637,-0.0195776,0.329859,0.0258984,0.0169832,1364,1723,8.21087,-37.9876
147,-699,8.23206,37.9093,0.0191008,-0.0157257,0.0124586,0.0230987,-0.0197236,0.310515,0.0247491,0.0138413,1371,1723,8.23207,-37.9093
154,-699,8.22815,37.8009,0.0175564,-0.0158387,0.0113508,0.0210491,-0.0193314,0.298516,0.0233208,0.0141915,1378,1723,8.22817,-37.8009
161,-699,8.27698,37.6616,0.0155365,-0.0154411,0.00996172,0.0184634,-0.018368,0.285775,0.0212647,0.0109081,1385,1723,8.27702,-37.6617
168,-699,8.30542,37.5635,0.0132433,-0.0146999,0.00840927,0.0155788,-0.0170354,0.270902,0.0188361,0.0118558,1392,1723,8.30545,-37.5635
175,-699,8.35205,37.4502,0.0112227,-0.0134937,0.00708956,0.0131118,-0.0153829,0.260418,0.0164688,0.0133389,1399,1723,8.35205,-37.4503
182,-699,8.3562,37.2679,0.00991661,-0.0105261,0.00576958,0.0114325,-0.012042,0.25694,0.0135546,0.0142946,1406,1723,8.35624,-37.268
189,-699,8.34595,37.1163,0.00844686,-0.00735364,0.00460693,0.00969197,-0.00859876,0.263964,0.0105664,0.0167477,1413,1723,8.34596,-37.1164
196,-699,8.35498,36.9316,0.00547293,-0.00263306,0.0028742,0.00638861,-0.00354875,0.308422,0.00581491,0.0162429,1420,1723,8.35497,-36.9316
203,-699,8.36353,36.7849,0.00288511,0.00059694,0.0010228,0.00327564,0.000206411,0.364741,0.00211831,0.013405,1427,1723,8.36349,-36.7849
210,-699,8.38428,36.6182,0.00236634,0.000708669,0.000843157,0.00271983,0.000355184,0.396981,0.00170718,0.0130686,1434,1723,8.38432,-36.6181
217,-699,8.4126,36.4344,0.00182341,0.000635631,0.000459616,0.00198049,0.000478554,0.329314,0.00119324,0.0138069,1441,1723,8.41258,-36.4344
224,-699,8.4447,36.2489,0.00160049,0.000710772,0.000271535,0.00167681,0.000634449,0.27401,0.000977611,0.0152985,1448,1723,8.44469,-36.2489
231,-699,8.46228,36.0514,0.00139358,0.000586927,-5.4588e-05,0.00139726,0.000583249,-0.0672633,0.000810367,0.0117057,1455,1723,8.46224,-36.0514
238,-699,8.43176,35.8193,0.00136875,0.00051066,-0.000317178,0.00147326,0.000406149,-0.318298,0.000878657,0.0102247,1462,1723,8.43175,-35.8193
245,-699,8.43005,35.5929,0.00140991,0.000524802,-0.000461546,0.0016068,0.00032792,-0.4032,0.000980345,0.0119629,1469,1723,8.43007,-35.5928
252,-699,8.4386,35.3894,0.00145241,0.000632792,-0.000640902,0.00180333,0.00028188,-0.500944,0.00112014,0.0106039,1476,1723,8.43854,-35.3894
259,-699,8.42395,35.187,0.00154418,0.000803234,-0.000837005,0.00208903,0.000258376,-0.57705,0.00131505,0.01061,1483,1723,8.42395,-35.187
266,-699,8.42017,34.9677,0.00163019,0.0010964,-0.00107314,0.00246912,0.000257465,-0.663516,0.00156733,0.0128224,1490,1723,8.42018,-34.9677
273,-699,8.4469,34.6967,0.00176805,0.00170999,-0.00140244,0.00314176,0.000336275,-0.775049,0.0019919,0.0118845,1497,1723,8.44691,-34.6967
280,-699,8.4436,34.4177,0.00190885,0.00232311,-0.00179076,0.00391868,0.000313279,-0.842975,0.00251454,0.0122815,1504,1723,8.44355,-34.4178
287,-699,8.43054,34.1489,0.00204285,0.00314472,-0.00223021,0.00489104,0.000296541,-0.90649,0.00316648,0.0109634,1511,1723,8.43049,-34.149
294,-699,8.42102,33.884,0.00216906,0.00409424,-0.00271353,0.00601086,0.000252443,-0.955842,0.0039258,0.0110724,1518,1723,8.42099,-33.884
301,-699,8.40833,33.629,0.00233697,0.00486409,-0.00325514,0.00709231,0.000108747,-0.970533,0.00469238,0.0128941,1525,1723,8.40831,-33.629
308,-699,8.40002,33.3822,0.00239588,0.00522974,-0.00379216,0.00786105,-0.000235423,-0.96419,0.00532091,0.0176287,1532,1723,8.40001,-33.3823
315,-699,8.3988,33.0848,0.00236608,0.00467137,-0.00414881,0.00782468,-0.00078723,-0.920894,0.00549768,0.0191631,1539,1723,8.3988,-33.0848
322,-699,8.35559,32.7742,0.00240821,0.00426627,-0.0044648,0.00789766,-0.00122319,-0.887974,0.00571663,0.0184232,1546,1723,8.3556,-32.7742
329,-699,8.31958,32.485,0.00245208,0.00314918,-0.00464442,0.00745811,-0.00185685,-0.822852,0.00569288,0.0164064,1553,1723,8.31957,-32.485
336,-699,8.31702,32.2113,0.00246453,0.00147072,-0.00475373,0.00674725,-0.00281201,-0.733322,0.00567278,0.0198945,1560,1723,8.31696,-32.2113
343,-699,8.37927,31.9146,0.00239537,-0.000723266,-0.00454617,0.00564221,-0.0039701,-0.620187,0.00557759,0.0282691,1567,1723,8.37924,-31.9146
350,-699,8.3595,31.5953,0.00226275,-0.00380989,-0.00392648,0.00418995,-0.00573709,-0.456277,0.00575453,0.0388362,1574,1723,8.3595,-31.5954
357,-699,8.53711,31.5035,0.0017669,-0.00767577,-0.00275405,0.00251144,-0.00842031,-0.264032,0.00661164,0.0417328,1581,1723,8.53713,-31.5036
364,-699,8.4364,31.6718,0.00140979,-0.0113057,-0.00125929,0.0015333,-0.0114292,-0.0977705,0.0081786,0.0431178,1588,1723,8.43637,-31.6718
371,-699,8.25354,30.7463,0,0,0,0,0,0,0,-1,1595,1723,8.2535,-30.7463
378,-699,8.39514,30.5642,0,0,0,0,0,0,0,-1,1602,1723,8.39513,-30.5642
385,-699,6.32727,24.7136,0,0,0,0,0,0,0,-1,1609,1723,6.32725,-24.7136
392,-699,8.46643,29.9736,0,0,0,0,0,0,0,-1,1616,1723,8.46643,-29.9737
399,-699,9.27136,30.5154,0,0,0,0,0,0,0,-1,1623,1723,9.27135,-30.5154
406,-699,5.50757,21.6672,0,0,0,0,0,0,0,-1,1630,1723,5.50755,-21.6672
413,-699,9.31396,23.2781,0,0,0,0,0,0,0,-1,1637,1723,9.31396,-23.278
420,-699,2.15076,7.65527,0,0,0,0,0,0,0,-1,1644,1723,2.15079,-7.65522
427,-699,3.36328,8.2428,0,0,0,0,0,0,0,-1,1651,1723,3.36332,-8.24283
434,-699,4.66455,8.90222,0,0,0,0,0,0,0,-1,1658,1723,4.66456,-8.90223
441,-699,0,0,0,0,0,0,0,0,0,-1,1665,1723,0,0
448,-699,0,0,0,0,0,0,0,0,0,-1,1672,1723,0,0
455,-699,0,0,0,0,0,0,0,0,0,-1,1679,1723,0,0
462,-699,0,0,0,0,0,0,0,0,0,-1,1686,1723,0,0
469,-699,0,0,0,0,0,0,0,0,0,-1,1693,1723,0,0
476,-699,0,0,0,0,0,0,0,0,0,-1,1700,1723,0,0
483,-699,0,0,0,0,0,0,0,0,0,-1,1707,1723,0,0
490,-699,0,0,0,0,0,0,0,0,0,-1,1714,1723,0,0
497,-699,0,0,0,0,0,0,0,0,0,-1,1721,1723,0,0
504,-699,0,0,0,0,0,0,0,0,0,-1,1728,1723,0,0
511,-699,0,0,0,0,0,0,0,0,0,-1,1735,1723,0,0
518,-699,0,0,0,0,0,0,0,0,0,-1,1742,1723,0,0
525,-699,0,0,0,0,0,0,0,0,0,-1,1749,1723,0,0
532,-699,0,0,0,0,0,0,0,0,0,-1,1756,1723,0,0
539,-699,0,0,0,0,0,0,0,0,0,-1,1763,1723,0,0
546,-699,0,0,0,0,0,0,0,0,0,-1,1770,1723,0,0
553,-699,0,0,0,0,0,0,0,0,0,-1,1777,1723,0,0
560,-699,0,0,0,0,0,0,0,0,0,-1,1784,1723,0,0
567,-699,0,0,0,0,0,0,0,0,0,-1,1791,1723,0,0
574,-699,0,0,0,0,0,0,0,0,0,-1,1798,1723,0,0
581,-699,0,0,0,0,0,0,0,0,0,-1,1805,1723,0,0
588,-699,0,0,0,0,0,0,0,0,0,-1,1812,1723,0,0
595,-699,0,0,0,0,0,0,0,0,0,-1,1819,1723,0,0
602,-699,0,0,0,0,0,0,0,0,0,-1,1826,1723,0,0
609,-699,0,0,0,0,0,0,0,0,0,-1,1833,1723,0,0
616,-699,0,0,0,0,0,0,0,0,0,-1,1840,1723,0,0
623,-699,0,0,0,0,0,0,0,0,0,-1,1847,1723,0,0
630,-699,0,0,0,0,0,0,0,0,0,-1,1854,1723,0,0
637,-699,0,0,0,0,0,0,0,0,0,-1,1861,1723,0,0
644,-699,0,0,0,0,0,0,0,0,0,-1,1868,1723,0,0
651,-699,0,0,0,0,0,0,0,0,0,-1,1875,1723,0,0
658,-699,0,0,0,0,0,0,0,0,0,-1,1882,1723,0,0
665,-699,0,0,0,0,0,0,0,0,0,-1,1889,1723,0,0
672,-699,0,0,0,0,0,0,0,0,0,-1,1896,1723,0,0
679,-699,0,0,0,0,0,0,0,0,0,-1,1903,1723,0,0
686,-699,0,0,0,0,0,0,0,0,0,-1,1910,1723,0,0
693,-699,0,0,0,0,0,0,0,0,0,-1,1917,1723,0,0
700,-699,0,0,0,0,0,0,0,0,0,-1,1924,1723,0,0
707,-699,0,0,0,0,0,0,0,0,0,-1,1931,1723,0,0
714,-699,0,0,0,0,0,0,0,0,0,-1,1938,1723,0,0
721,-699,0,0,0,0,0,0,0,0,0,-1,1945,1723,0,0
728,-699,0,0,0,0,0,0,0,0,0,-1,1952,1723,0,0
735,-699,0,0,0,0,0,0,0,0,0,-1,1959,1723,0,0
742,-699,0,0,0,0,0,0,0,0,0,-1,1966,1723,0,0
749,-699,0,0,0,0,0,0,0,0,0,-1,1973,1723,0,0
756,-699,0,0,0,0,0,0,0,0,0,-1,1980,1723,0,0
763,-699,0,0,0,0,0,0,0,0,0,-1,1987,1723,0,0
770,-699,0,0,0,0,0,0,0,0,0,-1,1994,1723,0,0
777,-699,0,0,0,0,0,0,0,0,0,-1,2001,1723,0,0
784,-699,0,0,0,0,0,0,0,0,0,-1,2008,1723,0,0
791,-699,0,0,0,0,0,0,0,0,0,-1,2015,1723,0,0
798,-699,0,0,0,0,0,0,0,0,0,-1,2022,1723,0,0
805,-699,0,0,0,0,0,0,0,0,0,-1,2029,1723,0,0
812,-699,0,0,0,0,0,0,0,0,0,-1,2036,1723,0,0
-700,-706,0,0,0,0,0,0,0,0,0,-1,524,1730,0,0
-693,-706,0,0,0,0,0,0,0,0,0,-1,531,1730,0,0
-686,-706,0,0,0,0,0,0,0,0,0,-1,538,1730,0,0
-679,-706,0,0,0,0,0,0,0,0,0,-1,545,1730,0,0
-672,-706,0,0,0,0,0,0,0,0,0,-1,552,1730,0,0
-665,-706,0,0,0,0,0,0,0,0,0,-1,559,1730,0,0
-658,-706,0,0,0,0,0,0,0,0,0,-1,566,1730,0,0
-651,-706,0,0,0,0,0,0,0,0,0,-1,573,1730,0,0
-644,-706,0,0,0,0,0,0,0,0,0,-1,580,1730,0,0
-637,-706,0,0,0,0,0,0,0,0,0,-1,587,1730,0,0
-630,-706,0,0,0,0,0,0,0,0,0,-1,594,1730,0,0
-623,-706,0,0,0,0,0,0,0,0,0,-1,601,1730,0,0
-616,-706,0,0,0,0,0,0,0,0,0,-1,608,1730,0,0
-609,-706,0,0,0,0,0,0,0,0,0,-1,615,1730,0,0
-602,-706,0,0,0,0,0,0,0,0,0,-1,622,1730,0,0
-595,-706,0,0,0,0,0,0,0,0,0,-1,629,1730,0,0
-588,-706,0,0,0,0,0,0,0,0,0,-1,636,1730,0,0
-581,-706,0,0,0,0,0,0,0,0,0,-1,643,1730,0,0
-574,-706,0,0,0,0,0,0,0,0,0,-1,650,1730,0,0
-567,-706,0,0,0,0,0,0,0,0,0,-1,657,1730,0,0
-560,-706,0,0,0,0,0,0,0,0,0,-1,664,1730,0,0
-553,-706,0,0,0,0,0,0,0,0,0,-1,671,1730,0,0
-546,-706,0,0,0,0,0,0,0,0,0,-1,678,1730,0,0
-539,-706,0,0,0,0,0,0,0,0,0,-1,685,1730,0,0
-532,-706,0,0,0,0,0,0,0,0,0,-1,692,1730,0,0
-525,-706,0,0,0,0,0,0,0,0,0,-1,699,1730,0,0
-518,-706,0,0,0,0,0,0,0,0,0,-1,706,1730,0,0
-511,-706,0,0,0,0,0,0,0,0,0,-1,713,1730,0,0
-504,-706,0,0,0,0,0,0,0,0,0,-1,720,1730,0,0
-497,-706,0,0,0,0,0,0,0,0,0,-1,727,1730,0,0
-490,-706,0,0,0,0,0,0,0,0,0,-1,734,1730,0,0
-483,-706,0,0,0,0,0,0,0,0,0,-1,741,1730,0,0
-476,-706,0,0,0,0,0,0,0,0,0,-1,748,1730,0,0
-469,-706,0,0,0,0,0,0,0,0,0,-1,755,1730,0,0
-462,-706,0,0,0,0,0,0,0,0,0,-1,762,1730,0,0
-455,-706,0,0,0,0,0,0,0,0,0,-1,769,1730,0,0
-448,-706,0,0,0,0,0,0,0,0,0,-1,776,1730,0,0
-441,-706,0,0,0,0,0,0,0,0,0,-1,783,1730,0,0
-434,-706,0,0,0,0,0,0,0,0,0,-1,790,1730,0,0
-427,-706,0,0,0,0,0,0,0,0,0,-1,797,1730,0,0
-420,-706,0,0,0,0,0,0,0,0,0,-1,804,1730,0,0
-413,-706,0,0,0,0,0,0,0,0,0,-1,811,1730,0,0
-406,-706,0,0,0,0,0,0,0,0,0,-1,818,1730,0,0
-399,-706,0,0,0,0,0,0,0,0,0,-1,825,1730,0,0
-392,-706,0,0,0,0,0,0,0,0,0,-1,832,1730,0,0
-385,-706,0,0,0,0,0,0,0,0,0,-1,839,1730,0,0
-378,-706,0,0,0,0,0,0,0,0,0,-1,846,1730,0,0
-371,-706,0,0,0,0,0,0,0,0,0,-1,853,1730,0,0
-364,-706,0,0,0,0,0,0,0,0,0,-1,860,1730,0,0
-357,-706,0,0,0,0,0,0,0,0,0,-1,867,1730,0,0
-350,-706,0,0,0,0,0,0,0,0,0,-1,874,1730,0,0
-343,-706,0,0,0,0,0,0,0,0,0,-1,881,1730,0,0
-336,-706,0,0,0,0,0,0,0,0,0,-1,888,1730,0,0
-329,-706,0,0,0,0,0,0,0,0,0,-1,895,1730,0,0
-322,-706,0,0,0,0,0,0,0,0,0,-1,902,1730,0,0
-315,-706,0,0,0,0,0,0,0,0,0,-1,909,1730,0,0
-308,-706,5.08191,14.6245,0,0,0,0,0,0,0,-1,916,1730,5.08188,-14.6245
-301,-706,7.45007,21.1975,0,0,0,0,0,0,0,-1,923,1730,7.45005,-21.1976
-294,-706,11.8603,21.026,0,0,0,0,0,0,0,-1,930,1730,11.8603,-21.026
-287,-706,10.3292,20.8425,0,0,0,0,0,0,0,-1,937,1730,10.3292,-20.8425
-280,-706,7.9162,21.8951,0,0,0,0,0,0,0,-1,944,1730,7.9162,-21.8952
-273,-706,7.38953,20.6355,0,0,0,0,0,0,0,-1,951,1730,7.38955,-20.6355
-266,-706,9.66724,22.8231,0,0,0,0,0,0,0,-1,958,1730,9.66722,-22.8231
-259,-706,3.47852,20.7363,0,0,0,0,0,0,0,-1,965,1730,3.47851,-20.7364
-252,-706,3.84259,20.1979,0,0,0,0,0,0,0,-1,972,1730,3.84256,-20.1979
-245,-706,4.698,19.2992,0,0,0,0,0,0,0,-1,979,1730,4.69799,-19.2991
-238,-706,7.53864,29.7126,0,0,0,0,0,0,0,-1,986,1730,7.53865,-29.7126
-231,-706,7.62042,30.5209,0,0,0,0,0,0,0,-1,993,1730,7.62043,-30.5208
-224,-706,7.81989,30.8579,0,0,0,0,0,0,0,-1,1000,1730,7.81987,-30.8579
-217,-706,7.76959,31.0602,-0.00296771,-0.00111937,0.0022878,0.000423869,-0.00451095,0.977354,0.00315809,0.0464048,1007,1730,7.7696,-31.0602
-210,-706,7.59521,31.5699,-0.001784,-0.00228862,0.00415987,0.00213121,-0.00620383,0.755109,0.00500005,0.0415475,1014,1730,7.5952,-31.5699
-203,-706,7.47864,31.9143,-0.000681158,-0.00325927,0.0052899,0.00347449,-0.00741491,0.665886,0.00642274,0.0350738,1021,1730,7.47862,-31.9143
-196,-706,7.49304,32.1904,0.000235663,-0.00422306,0.00613024,0.00452933,-0.00851672,0.611,0.00764851,0.0261856,1028,1730,7.49299,-32.1904
-189,-706,7.45129,32.5181,0.00111448,-0.0046753,0.00671343,0.00553058,-0.0090914,0.581839,0.00852503,0.0193403,1035,1730,7.45124,-32.518
-182,-706,7.41504,32.8439,0.00155165,-0.00469512,0.00685277,0.00595926,-0.00910274,0.571571,0.00875895,0.0152415,1042,1730,7.41503,-32.8439
-175,-706,7.42529,33.1285,0.00165773,-0.00445107,0.00688836,0.00613851,-0.00893184,0.576716,0.00875055,0.0157743,1049,1730,7.42532,-33.1285
-168,-706,7.42017,33.4277,0.00165366,-0.00420223,0.00666495,0.00600544,-0.00855401,0.578436,0.00844872,0.0165167,1056,1730,7.42021,-33.4277
-161,-706,7.39465,33.7274,0.00160609,-0.00356665,0.00611258,0.00565696,-0.00761752,0.585258,0.00769184,0.0133554,1063,1730,7.3947,-33.7274
-154,-706,7.35828,34.0106,0.0013902,-0.00258791,0.005414,0.00516896,-0.00636667,0.609356,0.00667206,0.0128266,1070,1730,7.3583,-34.0107
-147,-706,7.31689,34.259,0.00108236,-0.00149226,0.00463913,0.00460948,-0.00501938,0.650059,0.0055609,0.012379,1077,1730,7.31686,-34.259
-140,-706,7.31909,34.5276,0.000755002,-0.000426899,0.00384893,0.00405808,-0.00372998,0.709225,0.00449777,0.0111528,1084,1730,7.31906,-34.5275
-133,-706,7.32117,34.7673,0.000502505,0.00052377,0.00308539,0.00359854,-0.00257227,0.787121,0.00357911,0.00845517,1091,1730,7.32112,-34.7674
-126,-706,7.31799,35.0187,0.000342613,0.00138336,0.00240723,0.00332582,-0.00159984,0.891846,0.00290145,0.0132011,1098,1730,7.31804,-35.0187
-119,-706,7.29395,35.2515,0.000285718,0.00195711,0.00184213,0.00314424,-0.000901415,0.998344,0.00245249,0.0184356,1105,1730,7.2939,-35.2514
-112,-706,7.27673,35.5043,0.000349292,0.00222644,0.00124205,0.00284466,-0.000268931,1.10896,0.00199214,0.0129434,1112,1730,7.27674,-35.5043
-105,-706,7.26721,35.7369,0.00048233,0.00237784,0.000811004,0.00267747,0.000182701,1.2169,0.0017273,0.00965741,1119,1730,7.26717,-35.7369
-98,-706,7.28845,35.9386,0.000723159,0.00233567,0.000604728,0.00253725,0.000521573,1.24903,0.00154723,0.0108074,1126,1730,7.28843,-35.9386
-91,-706,7.29602,36.1594,0.000981712,0.0021445,0.000443567,0.00229439,0.000831826,1.24493,0.00134125,0.0145868,1133,1730,7.29605,-36.1595
-84,-706,7.28198,36.3722,0.00117494,0.00183521,0.000301459,0.00195214,0.00105801,1.20078,0.00112839,0.017292,1140,1730,7.28193,-36.3721
-77,-706,7.3042,36.5507,0.0014096,0.00171529,9.50607e-05,0.00174244,0.00138245,1.2926,0.00106216,0.0171075,1147,1730,7.30422,-36.5506
-70,-706,7.32739,36.7389,0.00160619,0.00139945,-0.000135979,0.00167363,0.00133201,-0.460407,0.00102111,0.0184717,1154,1730,7.32744,-36.7388
-63,-706,7.31152,36.9147,0.00208785,0.00132813,-0.00028541,0.00218312,0.00123286,-0.322185,0.00126394,0.0129727,1161,1730,7.31149,-36.9147
-56,-706,7.32825,37.073,0.00235118,0.00104669,-0.000156928,0.00236979,0.00102808,-0.118055,0.00137219,0.0125619,1168,1730,7.32821,-37.0729
-49,-706,7.3385,37.2438,0.00209542,0.00213036,0.000476272,0.00258948,0.0016363,0.803729,0.00151228,0.0132728,1175,1730,7.33844,-37.2438
-42,-706,7.36023,37.4106,0.0023681,0.00251534,0.00101885,0.00346322,0.00142022,0.821466,0.00201024,0.0179573,1182,1730,7.36017,-37.4107
-35,-706,7.3678,37.5327,0.00282651,0.00462994,0.00212228,0.00603413,0.00142233,0.986283,0.00364242,0.0169702,1189,1730,7.3678,-37.5328
-28,-706,7.39563,37.6543,0.00279616,0.00617658,0.00267601,0.00765147,0.00132127,1.06707,0.00472257,0.010443,1196,1730,7.39566,-37.6543
-21,-706,7.41028,37.7642,0.00290194,0.00787017,0.0033219,0.00953405,0.00123806,1.10644,0.00598617,0.0103772,1203,1730,7.41028,-37.7641
-14,-706,7.43433,37.8612,0.00242811,0.00993797,0.00380591,0.0115295,0.0008366,1.17473,0.00742319,0.0099672,1210,1730,7.43438,-37.8612
-7,-706,7.45337,37.9681,0.0017896,0.0118898,0.00417206,0.0133903,0.000289157,1.22556,0.00883203,0.00851638,1217,1730,7.45339,-37.9681
0,-706,7.48962,38.0665,0.00106165,0.0140074,0.00442887,0.0153776,-0.000308493,1.27077,0.0103561,0.0122185,1224,1730,7.48966,-38.0665
7,-706,7.50598,38.142,-0.000138501,0.016023,0.0044059,0.0171461,-0.00126158,1.32121,0.0118736,0.0144768,1231,1730,7.50598,-38.1419
14,-706,7.53296,38.2333,-0.00119873,0.0175669,0.00420115,0.0184645,-0.00209633,1.36031,0.0130646,0.0147254,1238,1730,7.53291,-38.2333
21,-706,7.55933,38.2816,-0.00230371,0.0185546,0.00376994,0.0192151,-0.00296418,1.39736,0.0139038,0.0120625,1245,1730,7.55936,-38.2816
28,-706,7.5957,38.3354,-0.000373526,0.0193435,0.00152649,0.019461,-0.000491007,1.49399,0.0131407,0.0122637,1252,1730,7.59567,-38.3354
35,-706,7.63135,38.4001,0.00268442,0.0186716,-0.000391882,0.0186812,0.00267482,-1.5463,0.0116652,0.0144238,1259,1730,7.63133,-38.4002
42,-706,7.6687,38.4484,0.00500125,0.0178606,-0.00152028,0.0180378,0.00482396,-1.4547,0.0107831,0.0122494,1266,1730,7.66872,-38.4484
49,-706,7.70923,38.4822,0.00821631,0.016393,-0.00272472,0.0172178,0.00739154,-1.27687,0.00997375,0.0136827,1273,1730,7.70926,-38.4822
56,-706,7.76355,38.509,0.012416,0.0140846,-0.00358793,0.0169339,0.00956664,-0.899629,0.00980426,0.0129163,1280,1730,7.76356,-38.5091
63,-706,7.79333,38.4877,0.0166156,0.0118238,-0.00373541,0.0186575,0.00978192,-0.500242,0.0107761,0.0113992,1287,1730,7.79339,-38.4876
70,-706,7.79614,38.4565,0.0203577,0.00864342,-0.00367872,0.0214172,0.00758399,-0.280403,0.0125394,0.011976,1294,1730,7.79616,-38.4565
77,-706,7.80432,38.4664,0.0235209,0.00606569,-0.0026385,0.0239111,0.00567558,-0.14679,0.0144259,0.0115956,1301,1730,7.8043,-38.4664
84,-706,7.82666,38.4558,0.0253605,0.00348782,-0.00135115,0.0254436,0.00340467,-0.061462,0.0159491,0.00924568,1308,1730,7.82663,-38.4558
91,-706,7.87451,38.4448,0.0269148,0.000603708,0.000350729,0.0269195,0.000599033,0.0133269,0.01775,0.00967543,1315,1730,7.87448,-38.4448
98,-706,7.92102,38.4315,0.026919,-0.00164819,0.00229234,0.0271018,-0.00183097,0.0795653,0.0187081,0.0138147,1322,1730,7.92099,-38.4315
105,-706,7.93616,38.3925,0.0256429,-0.0035793,0.00395619,0.0261691,-0.00410542,0.132213,0.0189632,0.0153768,1329,1730,7.93614,-38.3924
112,-706,7.9425,38.3301,0.0242229,-0.00544854,0.00536748,0.025164,-0.00638965,0.173571,0.0192625,0.0145894,1336,1730,7.94253,-38.3301
119,-706,7.97144,38.2744,0.0217366,-0.00683146,0.00634135,0.023081,-0.00817581,0.208904,0.0187176,0.0128684,1343,1730,7.97147,-38.2744
126,-706,7.98022,38.2003,0.0193272,-0.0080269,0.00691677,0.0209767,-0.00967641,0.234107,0.018094,0.0147638,1350,1730,7.98023,-38.2004
133,-706,8.02795,38.097,0.0154407,-0.00916143,0.00804698,0.0178389,-0.0115597,0.28965,0.0171019,0.0129771,1357,1730,8.02796,-38.097
140,-706,8.08728,37.9893,0.0127709,-0.00946007,0.00796307,0.0153289,-0.0120181,0.310822,0.0158273,0.0123243,1364,1730,8.08728,-37.9892
147,-706,8.1134,37.8784,0.0117541,-0.00957108,0.00688475,0.0137837,-0.0116006,0.28667,0.0146737,0.0205432,1371,1730,8.1134,-37.8784
154,-706,8.13965,37.8043,0.010583,-0.00914575,0.00595382,0.0122405,-0.0108033,0.27152,0.0133129,0.0200061,1378,1730,8.1396,-37.8043
161,-706,8.12756,37.6807,0.00906913,-0.00837404,0.0048543,0.010329,-0.00963395,0.253942,0.011528,0.010749,1385,1730,8.12754,-37.6807
168,-706,8.1394,37.5547,0.00746528,-0.00748238,0.00376233,0.00835884,-0.00837595,0.233182,0.00966184,0.0107604,1392,1730,8.13944,-37.5547
175,-706,8.16907,37.4247,0.00611853,-0.00641598,0.00290386,0.00675858,-0.00705603,0.216945,0.00797649,0.0105383,1399,1730,8.16907,-37.4246
182,-706,8.18823,37.2603,0.00536855,-0.00461428,0.00225113,0.0058527,-0.00509843,0.211843,0.00632763,0.0111631,1406,1730,8.18821,-37.2602
189,-706,8.19165,37.1036,0.0046034,-0.00290753,0.00180891,0.00501634,-0.00332048,0.224439,0.00484635,0.0137868,1413,1730,8.19163,-37.1036
196,-706,8.19495,36.9419,0.00300935,-0.000593247,0.00108963,0.00331327,-0.000897173,0.272012,0.00256084,0.0116051,1420,1730,8.19496,-36.9419
203,-706,8.18103,36.7998,0.0017213,0.000776723,0.000442896,0.00189648,0.000601544,0.376647,0.00111906,0.0125256,1427,1730,8.18106,-36.7998
210,-706,8.19348,36.6165,0.00136341,0.000897809,0.000288655,0.00150144,0.000759775,0.446054,0.000866877,0.012474,1434,1730,8.19347,-36.6165
217,-706,8.20813,36.4312,0.00100712,0.000887992,-1.81461e-06,0.00100715,0.000887965,-0.0152274,0.000635442,0.0144133,1441,1730,8.20809,-36.4312
224,-706,8.20459,36.2483,0.000854921,0.000938123,-0.00018092,0.00108216,0.00071088,-0.898406,0.000634959,0.0193963,1448,1730,8.20459,-36.2483
231,-706,8.2229,36.0388,0.000676057,0.000905315,-0.000381841,0.00118936,0.00039201,-0.931218,0.000699845,0.0135388,1455,1730,8.22284,-36.0388
238,-706,8.21484,35.8282,0.00065105,0.000964595,-0.000518109,0.00134913,0.000266514,-0.932312,0.000825058,0.00883464,1462,1730,8.21483,-35.8282
245,-706,8.22217,35.603,0.000742278,0.00108888,-0.000636402,0.00157516,0.000256004,-0.918333,0.000976027,0.0116245,1469,1730,8.2222,-35.603
252,-706,8.23181,35.3829,0.000901877,0.00141154,-0.000820952,0.0020163,0.000297116,-0.935889,0.00125692,0.0110688,1476,1730,8.23185,-35.3829
259,-706,8.21301,35.1614,0.00106717,0.00173058,-0.00104603,0.00249624,0.000301507,-0.938938,0.00157331,0.0118385,1483,1730,8.21301,-35.1614
266,-706,8.19458,34.9535,0.00124761,0.00216518,-0.00135916,0.0031409,0.000271898,-0.948168,0.00200944,0.0123776,1490,1730,8.1946,-34.9535
273,-706,8.20435,34.7052,0.00153355,0.00302259,-0.00180783,0.0042332,0.000322935,-0.98073,0.00272089,0.0119628,1497,1730,8.20434,-34.7052
280,-706,8.18701,34.425,0.00183074,0.00383427,-0.00231892,0.00535855,0.000306454,-0.989289,0.00347472,0.00986029,1504,1730,8.18705,-34.425
287,-706,8.16565,34.1594,0.00214791,0.00493095,-0.00293686,0.00678928,0.000289585,-1.00664,0.00443281,0.0108515,1511,1730,8.16559,-34.1594
294,-706,8.17041,33.9135,0.0024683,0.00614922,-0.00360621,0.00835747,0.000260051,-1.02135,0.00548702,0.0111939,1518,1730,8.17043,-33.9135
301,-706,8.15002,33.6418,0.00285848,0.00717429,-0.00434903,0.00987135,0.000161429,-1.01569,0.00652775,0.010974,1525,1730,8.14998,-33.6419
308,-706,8.14587,33.3691,0.00313099,0.007703,-0.00509036,0.0109971,-0.000163114,-0.996445,0.00738637,0.0128407,1532,1730,8.14583,-33.3691
315,-706,8.11328,33.0935,0.00328346,0.00714682,-0.00561861,0.0111565,-0.000726251,-0.950969,0.00769121,0.0203365,1539,1730,8.1133,-33.0936
322,-706,8.04382,32.868,0.00353619,0.00674327,-0.00610532,0.0114521,-0.00117267,-0.913821,0.00805414,0.0301936,1546,1730,8.04383,-32.868
329,-706,8.12695,32.4685,0.00375448,0.0054159,-0.00638523,0.0110242,-0.00185385,-0.850084,0.00803901,0.0297873,1553,1730,8.12693,-32.4685
336,-706,8.12195,31.9884,0.00393504,0.00334576,-0.00657485,0.0102218,-0.00294105,-0.763007,0.00797771,0.0410413,1560,1730,8.12198,-31.9884
343,-706,8.12695,31.7399,0.00388576,0.000482682,-0.00637525,0.00878264,-0.00441419,-0.654989,0.00775709,0.0416801,1567,1730,8.1269,-31.7399
350,-706,8.29919,31.5361,0.00368914,-0.00360751,-0.00562595,0.00674615,-0.00666453,-0.497745,0.00774271,0.0485751,1574,1730,8.29919,-31.5361
357,-706,8.51917,31.9637,0,0,0,0,0,0,0,-1,1581,1730,8.51921,-31.9638
364,-706,8.24219,32.468,0,0,0,0,0,0,0,-1,1588,1730,8.24222,-32.468
371,-706,6.27881,24.0759,0,0,0,0,0,0,0,-1,1595,1730,6.27883,-24.0759
378,-706,4.80444,25.0989,0,0,0,0,0,0,0,-1,1602,1730,4.80445,-25.0989
385,-706,5.55212,24.9753,0,0,0,0,0,0,0,-1,1609,1730,5.55214,-24.9753
392,-706,6.2998,24.8518,0,0,0,0,0,0,0,-1,1616,1730,6.29983,-24.8518
399,-706,3.9502,25.5428,0,0,0,0,0,0,0,-1,1623,1730,3.95019,-25.5428
406,-706,6.04211,18.8085,0,0,0,0,0,0,0,-1,1630,1730,6.04216,-18.8085
413,-706,6.23413,20.7725,0,0,0,0,0,0,0,-1,1637,1730,6.23413,-20.7725
420,-706,6.51294,21.9171,0,0,0,0,0,0,0,-1,1644,1730,6.51292,-21.9171
427,-706,0,0,0,0,0,0,0,0,0,-1,1651,1730,0,0
434,-706,0,0,0,0,0,0,0,0,0,-1,1658,1730,0,0
441,-706,0,0,0,0,0,0,0,0,0,-1,1665,1730,0,0
448,-706,0,0,0,0,0,0,0,0,0,-1,1672,1730,0,0
455,-706,0,0,0,0,0,0,0,0,0,-1,1679,1730,0,0
462,-706,0,0,0,0,0,0,0,0,0,-1,1686,1730,0,0
469,-706,0,0,0,0,0,0,0,0,0,-1,1693,1730,0,0
476,-706,0,0,0,0,0,0,0,0,0,-1,1700,1730,0,0
483,-706,0,0,0,0,0,0,0,0,0,-1,1707,1730,0,0
490,-706,0,0,0,0,0,0,0,0,0,-1,1714,1730,0,0
497,-706,0,0,0,0,0,0,0,0,0,-1,1721,1730,0,0
504,-706,0,0,0,0,0,0,0,0,0,-1,1728,1730,0,0
511,-706,0,0,0,0,0,0,0,0,0,-1,1735,1730,0,0
518,-706,0,0,0,0,0,0,0,0,0,-1,1742,1730,0,0
525,-706,0,0,0,0,0,0,0,0,0,-1,1749,1730,0,0
532,-706,0,0,0,0,0,0,0,0,0,-1,1756,1730,0,0
539,-706,0,0,0,0,0,0,0,0,0,-1,1763,1730,0,0
546,-706,0,0,0,0,0,0,0,0,0,-1,1770,1730,0,0
553,-706,0,0,0,0,0,0,0,0,0,-1,1777,1730,0,0
560,-706,0,0,0,0,0,0,0,0,0,-1,1784,1730,0,0
567,-706,0,0,0,0,0,0,0,0,0,-1,1791,1730,0,0
574,-706,0,0,0,0,0,0,0,0,0,-1,1798,1730,0,0
581,-706,0,0,0,0,0,0,0,0,0,-1,1805,1730,0,0
588,-706,0,0,0,0,0,0,0,0,0,-1,1812,1730,0,0
595,-706,0,0,0,0,0,0,0,0,0,-1,1819,1730,0,0
602,-706,0,0,0,0,0,0,0,0,0,-1,1826,1730,0,0
609,-706,0,0,0,0,0,0,0,0,0,-1,1833,1730,0,0
616,-706,0,0,0,0,0,0,0,0,0,-1,1840,1730,0,0
623,-706,0,0,0,0,0,0,0,0,0,-1,1847,1730,0,0
630,-706,0,0,0,0,0,0,0,0,0,-1,1854,1730,0,0
637,-706,0,0,0,0,0,0,0,0,0,-1,1861,1730,0,0
644,-706,0,0,0,0,0,0,0,0,0,-1,1868,1730,0,0
651,-706,0,0,0,0,0,0,0,0,0,-1,1875,1730,0,0
658,-706,0,0,0,0,0,0,0,0,0,-1,1882,1730,0,0
665,-706,0,0,0,0,0,0,0,0,0,-1,1889,1730,0,0
672,-706,0,0,0,0,0,0,0,0,0,-1,1896,1730,0,0
679,-706,0,0,0,0,0,0,0,0,0,-1,1903,1730,0,0
686,-706,0,0,0,0,0,0,0,0,0,-1,1910,1730,0,0
693,-706,0,0,0,0,0,0,0,0,0,-1,1917,1730,0,0
700,-706,0,0,0,0,0,0,0,0,0,-1,1924,1730,0,0
707,-706,0,0,0,0,0,0,0,0,0,-1,1931,1730,0,0
714,-706,0,0,0,0,0,0,0,0,0,-1,1938,1730,0,0
721,-706,0,0,0,0,0,0,0,0,0,-1,1945,1730,0,0
728,-706,0,0,0,0,0,0,0,0,0,-1,1952,1730,0,0
735,-706,0,0,0,0,0,0,0,0,0,-1,1959,1730,0,0
742,-706,0,0,0,0,0,0,0,0,0,-1,1966,1730,0,0
749,-706,0,0,0,0,0,0,0,0,0,-1,1973,1730,0,0
756,-706,0,0,0,0,0,0,0,0,0,-1,1980,1730,0,0
763,-706,0,0,0,0,0,0,0,0,0,-1,1987,1730,0,0
770,-706,0,0,0,0,0,0,0,0,0,-1,1994,1730,0,0
777,-706,0,0,0,0,0,0,0,0,0,-1,2001,1730,0,0
784,-706,0,0,0,0,0,0,0,0,0,-1,2008,1730,0,0
791,-706,0,0,0,0,0,0,0,0,0,-1,2015,1730,0,0
798,-706,0,0,0,0,0,0,0,0,0,-1,2022,1730,0,0
805,-706,0,0,0,0,0,0,0,0,0,-1,2029,1730,0,0
812,-706,0,0,0,0,0,0,0,0,0,-1,2036,1730,0,0
-700,-713,0,0,0,0,0,0,0,0,0,-1,524,1737,0,0
-693,-713,0,0,0,0,0,0,0,0,0,-1,531,1737,0,0
-686,-713,0,0,0,0,0,0,0,0,0,-1,538,1737,0,0
-679,-713,0,0,0,0,0,0,0,0,0,-1,545,1737,0,0
-672,-713,0,0,0,0,0,0,0,0,0,-1,552,1737,0,0
-665,-713,0,0,0,0,0,0,0,0,0,-1,559,1737,0,0
-658,-713,0,0,0,0,0,0,0,0,0,-1,566,1737,0,0
-651,-713,0,0,0,0,0,0,0,0,0,-1,573,1737,0,0
-644,-713,0,0,0,0,0,0,0,0,0,-1,580,1737,0,0
-637,-713,0,0,0,0,0,0,0,0,0,-1,587,1737,0,0
-630,-713,0,0,0,0,0,0,0,0,0,-1,594,1737,0,0
-623,-713,0,0,0,0,0,0,0,0,0,-1,601,1737,0,0
-616,-713,0,0,0,0,0,0,0,0,0,-1,608,1737,0,0
-609,-713,0,0,0,0,0,0,0,0,0,-1,615,1737,0,0
-602,-713,0,0,0,0,0,0,0,0,0,-1,622,1737,0,0
-595,-713,0,0,0,0,0,0,0,0,0,-1,629,1737,0,0
-588,-713,0,0,0,0,0,0,0,0,0,-1,636,1737,0,0
-581,-713,0,0,0,0,0,0,0,0,0,-1,643,1737,0,0
-574,-713,0,0,0,0,0,0,0,0,0,-1,650,1737,0,0
-567,-713,0,0,0,0,0,0,0,0,0,-1,657,1737,0,0
-560,-713,0,0,0,0,0,0,0,0,0,-1,664,1737,0,0
-553,-713,0,0,0,0,0,0,0,0,0,-1,671,1737,0,0
-546,-713,0,0,0,0,0,0,0,0,0,-1,678,1737,0,0
-539,-713,0,0,0,0,0,0,0,0,0,-1,685,1737,0,0
-532,-713,0,0,0,0,0,0,0,0,0,-1,692,1737,0,0
-525,-713,0,0,0,0,0,0,0,0,0,-1,699,1737,0,0
-518,-713,0,0,0,0,0,0,0,0,0,-1,706,1737,0,0
-511,-713,0,0,0,0,0,0,0,0,0,-1,713,1737,0,0
-504,-713,0,0,0,0,0,0,0,0,0,-1,720,1737,0,0
-497,-713,0,0,0,0,0,0,0,0,0,-1,727,1737,0,0
-490,-713,0,0,0,0,0,0,0,0,0,-1,734,1737,0,0
-483,-713,0,0,0,0,0,0,0,0,0,-1,741,1737,0,0
-476,-713,0,0,0,0,0,0,0,0,0,-1,748,1737,0,0
-469,-713,0,0,0,0,0,0,0,0,0,-1,755,1737,0,0
-462,-713,0,0,0,0,0,0,0,0,0,-1,762,1737,0,0
-455,-713,0,0,0,0,0,0,0,0,0,-1,769,1737,0,0
-448,-713,0,0,0,0,0,0,0,0,0,-1,776,1737,0,0
-441,-713,0,0,0,0,0,0,0,0,0,-1,783,1737,0,0
-434,-713,0,0,0,0,0,0,0,0,0,-1,790,1737,0,0
-427,-713,0,0,0,0,0,0,0,0,0,-1,797,1737,0,0
-420,-713,0,0,0,0,0,0,0,0,0,-1,804,1737,0,0
-413,-713,0,0,0,0,0,0,0,0,0,-1,811,1737,0,0
-406,-713,0,0,0,0,0,0,0,0,0,-1,818,1737,0,0
-399,-713,0,0,0,0,0,0,0,0,0,-1,825,1737,0,0
-392,-713,0,0,0,0,0,0,0,0,0,-1,832,1737,0,0
-385,-713,0,0,0,0,0,0,0,0,0,-1,839,1737,0,0
-378,-713,0,0,0,0,0,0,0,0,0,-1,846,1737,0,0
-371,-713,0,0,0,0,0,0,0,0,0,-1,853,1737,0,0
-364,-713,0,0,0,0,0,0,0,0,0,-1,860,1737,0,0
-357,-713,0,0,0,0,0,0,0,0,0,-1,867,1737,0,0
-350,-713,0,0,0,0,0,0,0,0,0,-1,874,1737,0,0
-343,-713,0,0,0,0,0,0,0,0,0,-1,881,1737,0,0
-336,-713,0,0,0,0,0,0,0,0,0,-1,888,1737,0,0
-329,-713,0,0,0,0,0,0,0,0,0,-1,895,1737,0,0
-322,-713,0,0,0,0,0,0,0,0,0,-1,902,1737,0,0
-315,-713,0,0,0,0,0,0,0,0,0,-1,909,1737,0,0
-308,-713,0,0,0,0,0,0,0,0,0,-1,916,1737,0,0
-301,-713,0,0,0,0,0,0,0,0,0,-1,923,1737,0,0
-294,-713,7.17883,22.0453,0,0,0,0,0,0,0,-1,930,1737,7.17881,-22.0453
-287,-713,11.8916,21.5834,0,0,0,0,0,0,0,-1,937,1737,11.8916,-21.5833
-280,-713,10.2786,21.3551,0,0,0,0,0,0,0,-1,944,1737,10.2787,-21.3551
-273,-713,11.1981,23.8683,0,0,0,0,0,0,0,-1,951,1737,11.198,-23.8683
-266,-713,3.17981,19.8851,0,0,0,0,0,0,0,-1,958,1737,3.17983,-19.8851
-259,-713,3.5921,19.6868,0,0,0,0,0,0,0,-1,965,1737,3.59207,-19.6868
-252,-713,4.55469,20.5758,0,0,0,0,0,0,0,-1,972,1737,4.55466,-20.5758
-245,-713,3.89014,25.9825,0,0,0,0,0,0,0,-1,979,1737,3.89013,-25.9826
-238,-713,6.62506,30.5463,0,0,0,0,0,0,0,-1,986,1737,6.62509,-30.5462
-231,-713,7.36713,29.9506,0,0,0,0,0,0,0,-1,993,1737,7.36715,-29.9506
-224,-713,7.59491,25.9907,0,0,0,0,0,0,0,-1,1000,1737,7.59488,-25.9908
-217,-713,8.28821,30.8629,0,0,0,0,0,0,0,-1,1007,1737,8.28824,-30.8629
-210,-713,7.9649,31.5298,0,0,0,0,0,0,0,-1,1014,1737,7.96491,-31.5298
-203,-713,7.72339,31.9108,0,0,0,0,0,0,0,-1,1021,1737,7.72342,-31.9108
-196,-713,7.3562,32.3785,0,0,0,0,0,0,0,-1,1028,1737,7.35624,-32.3786
-189,-713,7.45654,32.681,0.00225817,-0.00679418,0.00994166,0.0086555,-0.0131915,0.571783,0.0127037,0.0464549,1035,1737,7.45652,-32.681
-182,-713,7.53467,32.823,0.00258932,-0.00666603,0.0100352,0.00901249,-0.0130892,0.569357,0.0128326,0.0293183,1042,1737,7.53461,-32.823
-175,-713,7.70337,32.9938,0.00249058,-0.0062133,0.00997904,0.00902536,-0.0127481,0.579777,0.012632,0.0286349,1049,1737,7.70339,-32.9938
-168,-713,8.05139,33.1047,0,0,0,0,0,0,0,-1,1056,1737,8.05143,-33.1048
-161,-713,7.69763,33.7047,0.00208868,-0.0049977,0.00875295,0.00798839,-0.0108974,0.59308,0.0109468,0.018277,1063,1737,7.69763,-33.7047
-154,-713,7.60754,34.0149,0.00162505,-0.00379513,0.00771684,0.00709385,-0.00926393,0.61653,0.00947183,0.0123943,1070,1737,7.60754,-34.0148
-147,-713,7.57178,34.3197,0.00108967,-0.00248034,0.00658804,0.00613025,-0.00752092,0.653102,0.00789512,0.0184497,1077,1737,7.57174,-34.3198
-140,-713,7.58374,34.5746,0.000567505,-0.00118987,0.00546567,0.00522467,-0.00584703,0.705697,0.00639561,0.0180159,1084,1737,7.58379,-34.5745
-133,-713,7.56189,34.7778,0.000140039,-4.38991e-05,0.0044103,0.00445933,-0.00436319,0.774973,0.00509378,0.0112098,1091,1737,7.56187,-34.7778
-126,-713,7.5542,35.0156,-0.000182035,0.00100003,0.00347806,0.00393692,-0.00311892,0.86956,0.0040828,0.017363,1098,1737,7.55416,-35.0156
-119,-713,7.5343,35.2283,-0.000364954,0.0017011,0.00268428,0.00354427,-0.00220813,0.969084,0.00335088,0.0263833,1105,1737,7.53432,-35.2283
-112,-713,7.51208,35.514,-0.000385199,0.00203714,0.00181992,0.00301207,-0.00136013,1.079,0.00258365,0.0137586,1112,1737,7.51209,-35.5141
-105,-713,7.50562,35.7369,-0.000315889,0.00231548,0.00120694,0.00278521,-0.000785624,1.19964,0.00216669,0.0112307,1119,1737,7.50557,-35.737
-98,-713,7.49426,35.9388,-9.47591e-05,0.00234598,0.000961426,0.0026792,-0.00042798,1.23716,0.00194456,0.00993607,1126,1737,7.4943,-35.9389
-91,-713,7.48108,36.1401,0.000158976,0.00226096,0.000770552,0.00251317,-9.32337e-05,1.25448,0.00170737,0.0099521,1133,1737,7.48113,-36.1401
-84,-713,7.4696,36.3534,0.000303958,0.00198972,0.000592885,0.00217735,0.000116324,1.26429,0.00141439,0.00953617,1140,1737,7.46959,-36.3534
-77,-713,7.49719,36.5588,0.000568288,0.0018218,0.000439965,0.00196081,0.000429281,1.26477,0.0011902,0.0131161,1147,1737,7.4972,-36.5588
-70,-713,7.51086,36.7301,0.0007617,0.00151118,0.000214145,0.00156805,0.000704828,1.31121,0.000906851,0.0149563,1154,1737,7.51083,-36.7301
-63,-713,7.49121,36.9138,0.000945281,0.0012811,-1.33493e-05,0.00128163,0.000944751,-1.53113,0.000767192,0.0127006,1161,1737,7.49125,-36.9138
-56,-713,7.50757,37.0811,0.00110674,0.000999873,-2.05039e-05,0.00111054,0.000996074,-0.183201,0.000705307,0.0124289,1168,1737,7.50762,-37.0811
-49,-713,7.48499,37.229,0.0012562,0.000892962,8.41361e-05,0.00127475,0.000874421,0.21691,0.00075275,0.0152352,1175,1737,7.48494,-37.229
-42,-713,7.49878,37.375,0.00170358,0.000766796,0.00034242,0.0018154,0.000654979,0.315632,0.00106158,0.0180732,1182,1737,7.49878,-37.375
-35,-713,7.52319,37.5046,0.00230189,0.00162827,0.000954527,0.00297729,0.000952871,0.615788,0.00175565,0.0147032,1189,1737,7.52315,-37.5046
-28,-713,7.52856,37.6449,0.00270294,0.00242193,0.00132498,0.00389485,0.00123003,0.732574,0.00229899,0.0125551,1196,1737,7.5286,-37.6449
-21,-713,7.52527,37.7797,0.00308909,0.00345496,0.00178351,0.00506489,0.00147916,0.836503,0.00300734,0.0088491,1203,1737,7.5253,-37.7797
-14,-713,7.54724,37.8723,0.00323196,0.0048908,0.0022192,0.00643051,0.00169224,0.964234,0.00384899,0.00972788,1210,1737,7.54723,-37.8724
-7,-713,7.57251,37.9731,0.00322875,0.00633384,0.00259086,0.00780172,0.00176088,1.05533,0.00472486,0.00901344,1217,1737,7.57246,-37.9731
0,-713,7.58752,38.0591,0.0031279,0.00796478,0.00292206,0.0093394,0.00175328,1.13109,0.00573193,0.0142613,1224,1737,7.58756,-38.0591
7,-713,7.59949,38.1222,0.00261971,0.00958757,0.0030684,0.0107461,0.00146114,1.20976,0.00673013,0.018298,1231,1737,7.59945,-38.1221
14,-713,7.62341,38.2192,0.00210511,0.0109034,0.00306684,0.0118669,0.00114161,1.26639,0.00755955,0.0134736,1238,1737,7.6234,-38.2193
21,-713,7.62939,38.2903,0.00147809,0.0118071,0.00289164,0.0125616,0.000723675,1.31559,0.00814388,0.0111145,1245,1737,7.62941,-38.2902
28,-713,7.6272,38.3586,0.00176242,0.0124765,0.00208303,0.0128672,0.00137168,1.38537,0.00815942,0.0113905,1252,1737,7.62721,-38.3587
35,-713,7.65588,38.4069,0.00223504,0.0122211,0.00152343,0.0124483,0.0020078,1.42273,0.00771719,0.011239,1259,1737,7.65587,-38.4069
42,-713,7.70081,38.4542,0.00269922,0.0117022,0.00129042,0.0118835,0.00251792,1.43121,0.00723068,0.0107842,1266,1737,7.70076,-38.4542
49,-713,7.72278,38.4707,0.0035247,0.0106607,0.000945143,0.0107838,0.00340164,1.44132,0.00636582,0.0108458,1273,1737,7.72275,-38.4707
56,-713,7.73608,38.4965,0.00487413,0.00917337,0.000853667,0.00933667,0.00471083,1.38178,0.0053906,0.011033,1280,1737,7.73609,-38.4964
63,-713,7.76111,38.4904,0.00634969,0.0074917,0.00103899,0.00810625,0.00573514,1.03666,0.00481261,0.0118899,1287,1737,7.76106,-38.4903
70,-713,7.78015,38.4764,0.00782606,0.00572527,0.00108309,0.00828445,0.00526688,0.40036,0.00484144,0.0120417,1294,1737,7.78012,-38.4764
77,-713,7.78821,38.4856,0.00925742,0.00421925,0.00170913,0.00978249,0.00369417,0.298065,0.00570403,0.0125778,1301,1737,7.7882,-38.4856
84,-713,7.8125,38.5026,0.010271,0.0027798,0.00227817,0.0109094,0.00214139,0.273223,0.00667466,0.0123416,1308,1737,7.81256,-38.5026
91,-713,7.82361,38.4729,0.0113847,0.00122454,0.00293828,0.0121732,0.000435999,0.26219,0.00797411,0.0119754,1315,1737,7.82366,-38.4729
98,-713,7.85999,38.425,0.0119597,0.000241051,0.00352789,0.0129398,-0.000739049,0.270981,0.0088831,0.0115651,1322,1737,7.85993,-38.4251
105,-713,7.88281,38.3894,0.0118423,-0.000572114,0.00387023,0.0129501,-0.00167982,0.278761,0.00924433,0.0129444,1329,1737,7.88277,-38.3894
112,-713,7.89343,38.3427,0.0116685,-0.00146819,0.00411033,0.0128486,-0.00264826,0.27958,0.00957137,0.0134337,1336,1737,7.89348,-38.3426
119,-713,7.90918,38.2775,0.0109175,-0.00219218,0.00409586,0.012092,-0.00336663,0.279249,0.00938697,0.0140123,1343,1737,7.90921,-38.2774
126,-713,7.89441,38.2195,0.0100634,-0.00294026,0.00394331,0.0111657,-0.00404261,0.27259,0.00909591,0.0135081,1350,1737,7.89438,-38.2195
133,-713,7.90735,38.1199,0.00854118,-0.00370953,0.00395807,0.00970872,-0.00487707,0.286842,0.00857374,0.0126455,1357,1737,7.90741,-38.1199
140,-713,7.95752,38.0149,0.00746979,-0.00408581,0.00347896,0.00843633,-0.00505235,0.27099,0.00786896,0.0135495,1364,1737,7.95758,-38.0149
147,-713,7.96948,37.8937,0.00662395,-0.00431338,0.00278979,0.00729444,-0.00498387,0.235864,0.0071306,0.0142824,1371,1737,7.96947,-37.8937
154,-713,7.9613,37.8262,0.00571087,-0.00405269,0.00228591,0.00621956,-0.00456138,0.218964,0.00624887,0.0139077,1378,1737,7.96126,-37.8261
161,-713,7.98376,37.6897,0.00464962,-0.00352284,0.00170396,0.00499066,-0.00386388,0.197538,0.00512595,0.0103054,1385,1737,7.98379,-37.6897
168,-713,7.9895,37.5399,0.00363376,-0.00291812,0.0011704,0.00383655,-0.00312092,0.171569,0.00402398,0.010131,1392,1737,7.9895,-37.5399
175,-713,8.00623,37.4022,0.00281386,-0.00234369,0.00081646,0.00294002,-0.00246985,0.153312,0.00312732,0.0134765,1399,1737,8.00624,-37.4022
182,-713,8.02246,37.2687,0.0023347,-0.00134274,0.000541412,0.00241276,-0.00142079,0.143179,0.00223786,0.0127998,1406,1737,8.02244,-37.2687
189,-713,8.04089,37.1072,0.00189264,-0.000495647,0.000390732,0.00195494,-0.000557946,0.158113,0.00152372,0.0111075,1413,1737,8.04087,-37.1072
196,-713,8.04846,36.9741,0.00112637,0.00049054,0.000101579,0.0011422,0.000474707,0.154633,0.000662574,0.0111982,1420,1737,8.04846,-36.9741
203,-713,8.01392,36.8428,0.000567057,0.00108471,-0.000137763,0.00111909,0.000532677,-1.32623,0.000646354,0.0156288,1427,1737,8.01387,-36.8428
210,-713,8.01306,36.6237,0.000390581,0.00125984,-0.000290714,0.00134811,0.000302318,-1.27603,0.000816832,0.0140832,1434,1737,8.01312,-36.6237
217,-713,8.04114,36.4275,0.000215287,0.00130328,-0.000512547,0.0015067,1.18624e-05,-1.19298,0.00100054,0.0120604,1441,1737,8.0411,-36.4275
224,-713,8.00232,36.2472,0.000143723,0.00132731,-0.000681366,0.001638,-0.000166968,-1.14298,0.0011517,0.0129831,1448,1737,8.00238,-36.2472
231,-713,8.01001,36.0471,8.19776e-06,0.00126482,-0.000811849,0.00166309,-0.000390075,-1.11472,0.00125906,0.0115074,1455,1737,8.01002,-36.0471
238,-713,8.0166,35.8298,9.63194e-05,0.00138884,-0.000870922,0.00182709,-0.000341928,-1.10459,0.00134659,0.00881819,1462,1737,8.01657,-35.8298
245,-713,8.01941,35.6096,0.00036066,0.00162328,-0.000970813,0.00215,-0.000166058,-1.07369,0.00149177,0.0112633,1469,1737,8.01944,-35.6096
252,-713,8.01599,35.3783,0.000711884,0.00217278,-0.00117515,0.002826,5.86632e-05,-1.06346,0.00186475,0.0109397,1476,1737,8.01598,-35.3783
259,-713,7.99707,35.1414,0.00101719,0.00266496,-0.00143877,0.00349904,0.000183106,-1.04542,0.00227412,0.0114833,1483,1737,7.99711,-35.1414
266,-713,7.97791,34.9343,0.00135733,0.00329699,-0.00184455,0.00441113,0.000243186,-1.02743,0.00286313,0.0108028,1490,1737,7.97796,-34.9344
273,-713,7.96191,34.7048,0.00185285,0.00447327,-0.00242842,0.00592239,0.000403735,-1.03278,0.0038208,0.00894157,1497,1737,7.96186,-34.7048
280,-713,7.94165,34.4545,0.00235558,0.00559356,-0.00307955,0.00745376,0.000495382,-1.02741,0.00481255,0.00934512,1504,1737,7.94166,-34.4544
287,-713,7.92163,34.2076,0.00289783,0.00710687,-0.00391293,0.00944533,0.000559375,-1.03213,0.00611896,0.0109313,1511,1737,7.92168,-34.2076
294,-713,7.90845,33.9655,0.00343561,0.00875823,-0.00481737,0.0116005,0.000593317,-1.03776,0.00754369,0.0190284,1518,1737,7.90847,-33.9654
301,-713,7.91846,33.7017,0.00406164,0.010208,-0.00581432,0.0137114,0.000558302,-1.02851,0.00896061,0.0229243,1525,1737,7.91848,-33.7016
308,-713,7.93518,33.3922,0.00455712,0.011079,-0.00682223,0.0153796,0.00025654,-1.00834,0.0101686,0.024097,1532,1737,7.93521,-33.3922
315,-713,7.83386,33.0591,0.00489674,0.0107116,-0.00758713,0.0159293,-0.000320957,-0.96837,0.0107281,0.0309358,1539,1737,7.83382,-33.059
322,-713,7.97461,32.5161,0.00538297,0.0104464,-0.0083144,0.016606,-0.000776639,-0.933186,0.0113384,0.0420388,1546,1737,7.9746,-32.5162
329,-713,8.07568,32.3624,0,0,0,0,0,0,0,-1,1553,1737,8.07567,-32.3625
336,-713,8.17419,31.8997,0,0,0,0,0,0,0,-1,1560,1737,8.17418,-31.8996
343,-713,7.66992,31.7291,0,0,0,0,0,0,0,-1,1567,1737,7.66993,-31.7291
350,-713,7.84033,31.4851,0,0,0,0,0,0,0,-1,1574,1737,7.84028,-31.4851
357,-713,7.04224,30.0194,0,0,0,0,0,0,0,-1,1581,1737,7.0422,-30.0194
364,-713,7.35474,20.9537,0,0,0,0,0,0,0,-1,1588,1737,7.35472,-20.9537
371,-713,3.07507,25.4108,0,0,0,0,0,0,0,-1,1595,1737,3.07502,-25.4107
378,-713,4.21838,25.306,0,0,0,0,0,0,0,-1,1602,1737,4.21837,-25.306
385,-713,5.078,25.3104,0,0,0,0,0,0,0,-1,1609,1737,5.07795,-25.3104
392,-713,5.92114,25.3118,0,0,0,0,0,0,0,-1,1616,1737,5.92112,-25.3118
399,-713,3.14368,25.2808,0,0,0,0,0,0,0,-1,1623,1737,3.14369,-25.2808
406,-713,1.82678,26.7354,0,0,0,0,0,0,0,-1,1630,1737,1.82679,-26.7354
413,-713,3.24731,18.2787,0,0,0,0,0,0,0,-1,1637,1737,3.24726,-18.2787
420,-713,0,0,0,0,0,0,0,0,0,-1,1644,1737,0,0
427,-713,0,0,0,0,0,0,0,0,0,-1,1651,1737,0,0
434,-713,0,0,0,0,0,0,0,0,0,-1,1658,1737,0,0
441,-713,0,0,0,0,0,0,0,0,0,-1,1665,1737,0,0
448,-713,0,0,0,0,0,0,0,0,0,-1,1672,1737,0,0
455,-713,0,0,0,0,0,0,0,0,0,-1,1679,1737,0,0
462,-713,0,0,0,0,0,0,0,0,0,-1,1686,1737,0,0
469,-713,0,0,0,0,0,0,0,0,0,-1,1693,1737,0,0
476,-713,0,0,0,0,0,0,0,0,0,-1,1700,1737,0,0
483,-713,0,0,0,0,0,0,0,0,0,-1,1707,1737,0,0
490,-713,0,0,0,0,0,0,0,0,0,-1,1714,1737,0,0
497,-713,0,0,0,0,0,0,0,0,0,-1,1721,1737,0,0
504,-713,0,0,0,0,0,0,0,0,0,-1,1728,1737,0,0
511,-713,0,0,0,0,0,0,0,0,0,-1,1735,1737,0,0
518,-713,0,0,0,0,0,0,0,0,0,-1,1742,1737,0,0
525,-713,0,0,0,0,0,0,0,0,0,-1,1749,1737,0,0
532,-713,0,0,0,0,0,0,0,0,0,-1,1756,1737,0,0
539,-713,0,0,0,0,0,0,0,0,0,-1,1763,1737,0,0
546,-713,0,0,0,0,0,0,0,0,0,-1,1770,1737,0,0
553,-713,0,0,0,0,0,0,0,0,0,-1,1777,1737,0,0
560,-713,0,0,0,0,0,0,0,0,0,-1,1784,1737,0,0
567,-713,0,0,0,0,0,0,0,0,0,-1,1791,1737,0,0
574,-713,0,0,0,0,0,0,0,0,0,-1,1798,1737,0,0
581,-713,0,0,0,0,0,0,0,0,0,-1,1805,1737,0,0
588,-713,0,0,0,0,0,0,0,0,0,-1,1812,1737,0,0
595,-713,0,0,0,0,0,0,0,0,0,-1,1819,1737,0,0
602,-713,0,0,0,0,0,0,0,0,0,-1,1826,1737,0,0
609,-713,0,0,0,0,0,0,0,0,0,-1,1833,1737,0,0
616,-713,0,0,0,0,0,0,0,0,0,-1,1840,1737,0,0
623,-713,0,0,0,0,0,0,0,0,0,-1,1847,1737,0,0
630,-713,0,0,0,0,0,0,0,0,0,-1,1854,1737,0,0
637,-713,0,0,0,0,0,0,0,0,0,-1,1861,1737,0,0
644,-713,0,0,0,0,0,0,0,0,0,-1,1868,1737,0,0
651,-713,0,0,0,0,0,0,0,0,0,-1,1875,1737,0,0
658,-713,0,0,0,0,0,0,0,0,0,-1,1882,1737,0,0
665,-713,0,0,0,0,0,0,0,0,0,-1,1889,1737,0,0
672,-713,0,0,0,0,0,0,0,0,0,-1,1896,1737,0,0
679,-713,0,0,0,0,0,0,0,0,0,-1,1903,1737,0,0
686,-713,0,0,0,0,0,0,0,0,0,-1,1910,1737,0,0
693,-713,0,0,0,0,0,0,0,0,0,-1,1917,1737,0,0
700,-713,0,0,0,0,0,0,0,0,0,-1,1924,1737,0,0
707,-713,0,0,0,0,0,0,0,0,0,-1,1931,1737,0,0
714,-713,0,0,0,0,0,0,0,0,0,-1,1938,1737,0,0
721,-713,0,0,0,0,0,0,0,0,0,-1,1945,1737,0,0
728,-713,0,0,0,0,0,0,0,0,0,-1,1952,1737,0,0
735,-713,0,0,0,0,0,0,0,0,0,-1,1959,1737,0,0
742,-713,0,0,0,0,0,0,0,0,0,-1,1966,1737,0,0
749,-713,0,0,0,0,0,0,0,0,0,-1,1973,1737,0,0
756,-713,0,0,0,0,0,0,0,0,0,-1,1980,1737,0,0
763,-713,0,0,0,0,0,0,0,0,0,-1,1987,1737,0,0
770,-713,0,0,0,0,0,0,0,0,0,-1,1994,1737,0,0
777,-713,0,0,0,0,0,0,0,0,0,-1,2001,1737,0,0
784,-713,0,0,0,0,0,0,0,0,0,-1,2008,1737,0,0
791,-713,0,0,0,0,0,0,0,0,0,-1,2015,1737,0,0
798,-713,0,0,0,0,0,0,0,0,0,-1,2022,1737,0,0
805,-713,0,0,0,0,0,0,0,0,0,-1,2029,1737,0,0
812,-713,0,0,0,0,0,0,0,0,0,-1,2036,1737,0,0
-700,-720,0,0,0,0,0,0,0,0,0,-1,524,1744,0,0
-693,-720,0,0,0,0,0,0,0,0,0,-1,531,1744,0,0
-686,-720,0,0,0,0,0,0,0,0,0,-1,538,1744,0,0
-679,-720,0,0,0,0,0,0,0,0,0,-1,545,1744,0,0
-672,-720,0,0,0,0,0,0,0,0,0,-1,552,1744,0,0
-665,-720,0,0,0,0,0,0,0,0,0,-1,559,1744,0,0
-658,-720,0,0,0,0,0,0,0,0,0,-1,566,1744,0,0
-651,-720,0,0,0,0,0,0,0,0,0,-1,573,1744,0,0
-644,-720,0,0,0,0,0,0,0,0,0,-1,580,1744,0,0
-637,-720,0,0,0,0,0,0,0,0,0,-1,587,1744,0,0
-630,-720,0,0,0,0,0,0,0,0,0,-1,594,1744,0,0
-623,-720,0,0,0,0,0,0,0,0,0,-1,601,1744,0,0
-616,-720,0,0,0,0,0,0,0,0,0,-1,608,1744,0,0
-609,-720,0,0,0,0,0,0,0,0,0,-1,615,1744,0,0
-602,-720,0,0,0,0,0,0,0,0,0,-1,622,1744,0,0
-595,-720,0,0,0,0,0,0,0,0,0,-1,629,1744,0,0
-588,-720,0,0,0,0,0,0,0,0,0,-1,636,1744,0,0
-581,-720,0,0,0,0,0,0,0,0,0,-1,643,1744,0,0
-574,-720,0,0,0,0,0,0,0,0,0,-1,650,1744,0,0
-567,-720,0,0,0,0,0,0,0,0,0,-1,657,1744,0,0
-560,-720,0,0,0,0,0,0,0,0,0,-1,664,1744,0,0
-553,-720,0,0,0,0,0,0,0,0,0,-1,671,1744,0,0
-546,-720,0,0,0,0,0,0,0,0,0,-1,678,1744,0,0
-539,-720,0,0,0,0,0,0,0,0,0,-1,685,1744,0,0
-532,-720,0,0,0,0,0,0,0,0,0,-1,692,1744,0,0
-525,-720,0,0,0,0,0,0,0,0,0,-1,699,1744,0,0
-518,-720,0,0,0,0,0,0,0,0,0,-1,706,1744,0,0
-511,-720,0,0,0,0,0,0,0,0,0,-1,713,1744,0,0
-504,-720,0,0,0,0,0,0,0,0,0,-1,720,1744,0,0
-497,-720,0,0,0,0,0,0,0,0,0,-1,727,1744,0,0
-490,-720,0,0,0,0,0,0,0,0,0,-1,734,1744,0,0
-483,-720,0,0,0,0,0,0,0,0,0,-1,741,1744,0,0
-476,-720,0,0,0,0,0,0,0,0,0,-1,748,1744,0,0
-469,-720,0,0,0,0,0,0,0,0,0,-1,755,1744,0,0
-462,-720,0,0,0,0,0,0,0,0,0,-1,762,1744,0,0
-455,-720,0,0,0,0,0,0,0,0,0,-1,769,1744,0,0
-448,-720,0,0,0,0,0,0,0,0,0,-1,776,1744,0,0
-441,-720,0,0,0,0,0,0,0,0,0,-1,783,1744,0,0
-434,-720,0,0,0,0,0,0,0,0,0,-1,790,1744,0,0
-427,-720,0,0,0,0,0,0,0,0,0,-1,797,1744,0,0
-420,-720,0,0,0,0,0,0,0,0,0,-1,804,1744,0,0
-413,-720,0,0,0,0,0,0,0,0,0,-1,811,1744,0,0
-406,-720,0,0,0,0,0,0,0,0,0,-1,818,1744,0,0
-399,-720,0,0,0,0,0,0,0,0,0,-1,825,1744,0,0
-392,-720,0,0,0,0,0,0,0,0,0,-1,832,1744,0,0
-385,-720,0,0,0,0,0,0,0,0,0,-1,839,1744,0,0
-378,-720,0,0,0,0,0,0,0,0,0,-1,846,1744,0,0
-371,-720,0,0,0,0,0,0,0,0,0,-1,853,1744,0,0
-364,-720,0,0,0,0,0,0,0,0,0,-1,860,1744,0,0
-357,-720,0,0,0,0,0,0,0,0,0,-1,867,1744,0,0
-350,-720,0,0,0,0,0,0,0,0,0,-1,874,1744,0,0
-343,-720,0,0,0,0,0,0,0,0,0,-1,881,1744,0,0
-336,-720,0,0,0,0,0,0,0,0,0,-1,888,1744,0,0
-329,-720,0,0,0,0,0,0,0,0,0,-1,895,1744,0,0
-322,-720,0,0,0,0,0,0,0,0,0,-1,902,1744,0,0
-315,-720,0,0,0,0,0,0,0,0,0,-1,909,1744,0,0
-308,-720,0,0,0,0,0,0,0,0,0,-1,916,1744,0,0
-301,-720,0,0,0,0,0,0,0,0,0,-1,923,1744,0,0
-294,-720,0,0,0,0,0,0,0,0,0,-1,930,1744,0,0
-287,-720,0,0,0,0,0,0,0,0,0,-1,937,1744,0,0
-280,-720,6.46796,22.6417,0,0,0,0,0,0,0,-1,944,1744,6.46793,-22.6417
-273,-720,8.54633,13.262,0,0,0,0,0,0,0,-1,951,1744,8.54636,-13.2619
-266,-720,7.28027,13.3165,0,0,0,0,0,0,0,-1,958,1744,7.28026,-13.3166
-259,-720,3.70563,18.6372,0,0,0,0,0,0,0,-1,965,1744,3.70564,-18.6372
-252,-720,4.00989,18.5059,0,0,0,0,0,0,0,-1,972,1744,4.00988,-18.5058
-245,-720,4.63318,20.3199,0,0,0,0,0,0,0,-1,979,1744,4.6332,-20.32
-238,-720,5.02216,24.1455,0,0,0,0,0,0,0,-1,986,1744,5.02217,-24.1455
-231,-720,7.35455,28.3225,0,0,0,0,0,0,0,-1,993,1744,7.35453,-28.3225
-224,-720,7.65991,19.4061,0,0,0,0,0,0,0,-1,1000,1744,7.6599,-19.4061
-217,-720,4.77637,30.7196,0,0,0,0,0,0,0,-1,1007,1744,4.77636,-30.7197
-210,-720,7.40894,31.2643,0,0,0,0,0,0,0,-1,1014,1744,7.40897,-31.2643
-203,-720,7.5979,31.6646,0,0,0,0,0,0,0,-1,1021,1744,7.5979,-31.6645
-196,-720,7.84167,31.2902,0,0,0,0,0,0,0,-1,1028,1744,7.84166,-31.2902
-189,-720,7.34058,32.7679,0,0,0,0,0,0,0,-1,1035,1744,7.34062,-32.7679
-182,-720,7.51221,33.1459,0.00437567,-0.00922318,0.014391,0.0134927,-0.0183402,0.564704,0.0184496,0.0451047,1042,1744,7.51216,-33.1459
-175,-720,7.59375,33.3092,0.00390853,-0.00837014,0.0140979,0.0131459,-0.0176075,0.580042,0.0178177,0.0436359,1049,1744,7.59373,-33.3092
-168,-720,7.65369,33.4521,0.00342363,-0.00759283,0.0133481,0.0123553,-0.0165245,0.589711,0.0167316,0.0459618,1056,1744,7.6537,-33.4522
-161,-720,7.63611,33.691,0.00289457,-0.00647598,0.0121245,0.0112076,-0.014789,0.601021,0.0150565,0.0394123,1063,1744,7.63613,-33.691
-154,-720,7.90906,34.0931,0.00205862,-0.00491769,0.01061,0.0097391,-0.0125982,0.626583,0.0129316,0.0315102,1070,1744,7.909,-34.0932
-147,-720,7.84204,34.4458,0.00119723,-0.00327555,0.0090001,0.00823463,-0.010313,0.663622,0.0107308,0.026721,1077,1744,7.84203,-34.4458
-140,-720,7.84778,34.6587,0.000414892,-0.00166496,0.00744531,0.00689255,-0.00814262,0.716009,0.00869055,0.019795,1084,1744,7.84776,-34.6587
-133,-720,7.79456,34.7988,-0.000229711,-0.000271206,0.00602661,0.00577619,-0.00627711,0.783677,0.00696098,0.0137116,1091,1744,7.79454,-34.7988
-126,-720,7.77856,35.0371,-0.000731521,0.000988977,0.00478628,0.0049917,-0.00473424,0.874315,0.00561593,0.0128746,1098,1744,7.77855,-35.0371
-119,-720,7.7627,35.2842,-0.00103574,0.00183068,0.00371543,0.00437975,-0.00358481,0.969477,0.00460597,0.0146023,1105,1744,7.76266,-35.2842
-112,-720,7.73572,35.496,-0.00113509,0.00223241,0.00254647,0.00360144,-0.00250413,1.07751,0.00354398,0.0131617,1112,1744,7.73569,-35.496
-105,-720,7.71851,35.7313,-0.00112632,0.00262923,0.00172844,0.00330362,-0.00180071,1.19879,0.00298926,0.0129885,1119,1744,7.71846,-35.7313
-98,-720,7.69775,35.9387,-0.000916929,0.00270454,0.00142277,0.00319664,-0.00140903,1.2378,0.00272503,0.0107115,1126,1744,7.6978,-35.9388
-91,-720,7.67981,36.1511,-0.000654291,0.00268482,0.00117631,0.0030576,-0.00102707,1.2639,0.00245349,0.00958197,1133,1744,7.67982,-36.1512
-84,-720,7.66565,36.3699,-0.000539102,0.00236586,0.000940822,0.00264394,-0.000817184,1.28341,0.002089,0.00995653,1140,1744,7.66559,-36.3699
-77,-720,7.677,36.5725,-0.000229994,0.00212958,0.000818165,0.00238552,-0.000485927,1.26763,0.00177464,0.0127698,1147,1744,7.67705,-36.5726
-70,-720,7.67139,36.7484,-4.02012e-05,0.00177961,0.000560658,0.00193848,-0.000199064,1.29468,0.00136352,0.0117049,1154,1744,7.67136,-36.7484
-63,-720,7.64478,36.9158,-9.76335e-05,0.00147658,0.000260449,0.00151855,-0.000139605,1.41102,0.00106197,0.0111242,1161,1744,7.64477,-36.9158
-56,-720,7.66626,37.0896,-4.97228e-05,0.00116552,0.000170284,0.00118893,-7.31327e-05,1.43418,0.000818088,0.0123061,1168,1744,7.66624,-37.0896
-49,-720,7.64856,37.2343,0.000195138,0.000940673,7.50707e-05,0.000948157,0.000187654,1.47143,0.000579766,0.0184578,1175,1744,7.64854,-37.2342
-42,-720,7.65955,37.3499,0.000453366,0.000804594,6.35574e-05,0.000815741,0.000442219,1.39717,0.000471525,0.0205229,1182,1744,7.65955,-37.3498
-35,-720,7.66956,37.4761,0.000780359,0.000923713,0.000192932,0.00105785,0.00064622,0.963255,0.000615737,0.0176066,1189,1744,7.66959,-37.4761
-28,-720,7.65466,37.644,0.00111916,0.00140065,0.000350769,0.00163786,0.000881955,0.976188,0.000946552,0.0107343,1196,1744,7.65464,-37.644
-21,-720,7.64832,37.7924,0.00147036,0.00201629,0.000582706,0.0023868,0.00109985,1.00444,0.00137943,0.00892515,1203,1744,7.6483,-37.7923
-14,-720,7.6543,37.8898,0.00180892,0.00292718,0.000861479,0.00339507,0.00134103,1.07325,0.0019745,0.0106396,1210,1744,7.6543,-37.8897
-7,-720,7.66272,37.9979,0.00205172,0.003913,0.00112376,0.00444144,0.00152328,1.13123,0.00260608,0.0114043,1217,1744,7.66271,-37.998
0,-720,7.68005,38.0946,0.00221436,0.0050326,0.00140722,0.00561494,0.00163203,1.17843,0.00333515,0.0127181,1224,1744,7.68009,-38.0946
7,-720,7.69006,38.1658,0.00213821,0.00610018,0.00161602,0.00667572,0.00156267,1.22866,0.00403183,0.0158899,1231,1744,7.69007,-38.1657
14,-720,7.70422,38.2489,0.001989,0.00696626,0.00174639,0.00751789,0.00143737,1.26485,0.00460814,0.0149155,1238,1744,7.70419,-38.249
21,-720,7.69165,38.3143,0.00175401,0.00754256,0.00175558,0.00803338,0.00126319,1.29818,0.00498813,0.011439,1245,1744,7.69161,-38.3143
28,-720,7.68542,38.3728,0.00145851,0.00786253,0.00173804,0.00830382,0.00101722,1.32215,0.00522989,0.0114943,1252,1744,7.68537,-38.3728
35,-720,7.70532,38.4218,0.00120919,0.00767427,0.00178978,0.00813668,0.000746787,1.31797,0.00519345,0.0112494,1259,1744,7.70537,-38.4218
42,-720,7.71643,38.4525,0.00100686,0.00723258,0.00193998,0.0077876,0.000451831,1.29214,0.00504787,0.0111954,1266,1744,7.71647,-38.4525
49,-720,7.73376,38.4714,0.000915217,0.0064117,0.00199272,0.00705813,0.000268789,1.25711,0.00461843,0.0116127,1273,1744,7.73377,-38.4714
56,-720,7.73584,38.5031,0.00105475,0.00531565,0.00217397,0.00622904,0.00014136,1.17304,0.00410638,0.00998422,1280,1744,7.73586,-38.503
63,-720,7.75146,38.505,0.00128262,0.00413587,0.00244195,0.00553738,-0.000118893,1.04976,0.00373185,0.0118884,1287,1744,7.75151,-38.505
70,-720,7.77429,38.4949,0.00165854,0.00423032,0.00213245,0.00543458,0.000454282,1.05671,0.00348152,0.0138437,1294,1744,7.77432,-38.4949
77,-720,7.78796,38.5171,0.0022166,0.00371162,0.00230838,0.00539051,0.000537714,0.941981,0.00342852,0.0159597,1301,1744,7.78802,-38.5171
84,-720,7.81421,38.4829,0.0026553,0.00345043,0.00231652,0.00540325,0.00070248,0.870381,0.00339234,0.0142434,1308,1744,7.81421,-38.4829
91,-720,7.8252,38.4281,0.00333996,0.00322088,0.00225327,0.00553448,0.00102636,0.772189,0.00339957,0.0128908,1315,1744,7.82525,-38.4282
98,-720,7.80579,38.4146,0.00397654,0.00338659,0.00205896,0.00576154,0.00160158,0.71425,0.003434,0.012193,1322,1744,7.80579,-38.4145
105,-720,7.81689,38.395,0.00428542,0.0035677,0.001719,0.00568261,0.0021705,0.682496,0.0033112,0.0118023,1329,1744,7.81692,-38.395
112,-720,7.84058,38.3463,0.00460678,0.00351818,0.00140877,0.00557274,0.00255221,0.601049,0.00322121,0.0110174,1336,1744,7.84061,-38.3463
119,-720,7.85095,38.2799,0.0046589,0.0032988,0.00104927,0.00522923,0.00272847,0.497873,0.00302005,0.010979,1343,1744,7.8509,-38.2799
126,-720,7.8551,38.2079,0.00459738,0.00281712,0.000762999,0.00487964,0.00253486,0.354323,0.00281797,0.0104476,1350,1744,7.85514,-38.2079
133,-720,7.85486,38.1288,0.00435314,0.00215116,0.000510218,0.00446562,0.00203868,0.216977,0.00258147,0.0125254,1357,1744,7.8549,-38.1288
140,-720,7.88257,38.0604,0.00395468,0.00147511,0.00029444,0.00398917,0.00144063,0.116586,0.00233257,0.019793,1364,1744,7.88251,-38.0604
147,-720,7.87195,37.9393,0.00341423,0.000921217,0.000144784,0.00342261,0.000912837,0.0578166,0.00204649,0.0198829,1371,1744,7.87192,-37.9393
154,-720,7.85144,37.8153,0.00279181,0.000693378,8.68351e-05,0.0027954,0.00068979,0.0412868,0.00168151,0.0125824,1378,1744,7.85148,-37.8153
161,-720,7.87854,37.6908,0.00212161,0.000651147,-2.72552e-05,0.00212211,0.000650642,-0.0185266,0.00125538,0.00920636,1385,1744,7.87859,-37.6908
168,-720,7.88086,37.5546,0.00152548,0.000679418,-0.000146138,0.00155001,0.000654887,-0.16631,0.000898476,0.00986114,1392,1744,7.8809,-37.5545
175,-720,7.87561,37.3933,0.000970029,-0.000865279,0.000222593,0.00099664,-0.00089189,0.118986,0.0010909,0.0154006,1399,1744,7.87555,-37.3933
182,-720,7.88318,37.2651,0.000460702,8.59267e-05,-7.26273e-05,0.000474284,7.23446e-05,-0.184876,0.000295046,0.0155221,1406,1744,7.88315,-37.2651
189,-720,7.89148,37.1146,3.21621e-05,0.00065356,-0.000323393,0.000791322,-0.000105599,-1.16809,0.000566041,0.0129874,1413,1744,7.89153,-37.1146
196,-720,7.89734,36.9614,-0.000352936,0.00109702,-0.000566856,0.00129233,-0.000548239,-1.239,0.00109121,0.0129356,1420,1744,7.89731,-36.9615
203,-720,7.86438,36.804,-0.000572578,0.00150723,-0.000715463,0.00172958,-0.00079493,-1.26948,0.00149045,0.015277,1427,1744,7.86438,-36.8039
210,-720,7.84888,36.6405,-0.000554714,0.00177392,-0.000888165,0.002074,-0.000854798,-1.24497,0.0017391,0.0136678,1434,1744,7.84887,-36.6405
217,-720,7.84753,36.4337,-0.000552473,0.00186906,-0.00106558,0.00227119,-0.000954599,-1.20994,0.00191342,0.0124139,1441,1744,7.84751,-36.4337
224,-720,7.83276,36.2263,-0.000533378,0.00187161,-0.00122331,0.00238448,-0.00104625,-1.17381,0.00203034,0.00996793,1448,1744,7.83278,-36.2263
231,-720,7.82507,36.0284,-0.000605603,0.00175375,-0.00132151,0.00234552,-0.00119737,-1.14977,0.00208098,0.0102133,1455,1744,7.82512,-36.0284
238,-720,7.82153,35.8148,-0.000359981,0.0019232,-0.00133868,0.00254095,-0.000977734,-1.13845,0.00209727,0.00890642,1462,1744,7.82154,-35.8148
245,-720,7.81543,35.6177,0.000123924,0.00226846,-0.00142816,0.00298208,-0.000589698,-1.10741,0.00221099,0.011195,1469,1744,7.81539,-35.6177
252,-720,7.8053,35.3938,0.000708435,0.003062,-0.00166019,0.00392018,-0.00014974,-1.09371,0.00266477,0.0108338,1476,1744,7.8053,-35.3938
259,-720,7.77966,35.1631,0.0012024,0.00376015,-0.00196742,0.00482782,0.000134733,-1.0736,0.00317459,0.00974068,1483,1744,7.77972,-35.1631
266,-720,7.73926,34.9357,0.00175951,0.00464826,-0.00246961,0.00606486,0.00034291,-1.05,0.00393392,0.0080851,1490,1744,7.73925,-34.9357
273,-720,7.72815,34.6949,0.00252051,0.00622147,-0.00318662,0.00805593,0.000686044,-1.04845,0.00515717,0.013992,1497,1744,7.72809,-34.695
280,-720,7.6593,34.4584,0.00328582,0.00777035,-0.00397539,0.0100922,0.000963935,-1.04218,0.00643097,0.020985,1504,1744,7.65934,-34.4584
287,-720,7.57654,34.1466,0.00412127,0.00985557,-0.00504106,0.0127878,0.00118903,-1.04396,0.00815779,0.0364056,1511,1744,7.57657,-34.1466
294,-720,7.74219,33.8075,0.00493651,0.0121301,-0.00621402,0.0157132,0.00135341,-1.04775,0.0100547,0.0397298,1518,1744,7.74224,-33.8075
301,-720,7.88184,33.5219,0.00585571,0.0142123,-0.00750582,0.0186245,0.00144358,-1.03938,0.0119642,0.0398829,1525,1744,7.8819,-33.5218
308,-720,7.87927,33.302,0.00663908,0.0156631,-0.00884114,0.021077,0.00122517,-1.02134,0.0136613,0.037892,1532,1744,7.87928,-33.3021
315,-720,7.88379,33.049,0.00723296,0.0157656,-0.00992114,0.0222989,0.000699733,-0.988458,0.0146382,0.0418299,1539,1744,7.88381,-33.0489
322,-720,7.89624,32.8641,0,0,0,0,0,0,0,-1,1546,1744,7.89619,-32.8641
329,-720,7.79773,28.8168,0,0,0,0,0,0,0,-1,1553,1744,7.79771,-28.8167
336,-720,6.14148,26.5682,0,0,0,0,0,0,0,-1,1560,1744,6.14151,-26.5683
343,-720,6.78552,21.3625,0,0,0,0,0,0,0,-1,1567,1744,6.78551,-21.3625
350,-720,4.0741,11.1836,0,0,0,0,0,0,0,-1,1574,1744,4.07412,-11.1836
357,-720,6.90833,21.4504,0,0,0,0,0,0,0,-1,1581,1744,6.90827,-21.4505
364,-720,5.83777,24.1599,0,0,0,0,0,0,0,-1,1588,1744,5.83773,-24.1599
371,-720,5.46997,23.6176,0,0,0,0,0,0,0,-1,1595,1744,5.47001,-23.6176
378,-720,3.88257,25.5404,0,0,0,0,0,0,0,-1,1602,1744,3.88262,-25.5404
385,-720,4.63611,25.6746,0,0,0,0,0,0,0,-1,1609,1744,4.63612,-25.6746
392,-720,3.49377,23.5042,0,0,0,0,0,0,0,-1,1616,1744,3.4938,-23.5042
399,-720,2.37317,24.7166,0,0,0,0,0,0,0,-1,1623,1744,2.37317,-24.7166
406,-720,0,0,0,0,0,0,0,0,0,-1,1630,1744,0,0
413,-720,0,0,0,0,0,0,0,0,0,-1,1637,1744,0,0
420,-720,0,0,0,0,0,0,0,0,0,-1,1644,1744,0,0
427,-720,0,0,0,0,0,0,0,0,0,-1,1651,1744,0,0
434,-720,0,0,0,0,0,0,0,0,0,-1,1658,1744,0,0
441,-720,0,0,0,0,0,0,0,0,0,-1,1665,1744,0,0
448,-720,0,0,0,0,0,0,0,0,0,-1,1672,1744,0,0
455,-720,0,0,0,0,0,0,0,0,0,-1,1679,1744,0,0
462,-720,0,0,0,0,0,0,0,0,0,-1,1686,1744,0,0
469,-720,0,0,0,0,0,0,0,0,0,-1,1693,1744,0,0
476,-720,0,0,0,0,0,0,0,0,0,-1,1700,1744,0,0
483,-720,0,0,0,0,0,0,0,0,0,-1,1707,1744,0,0
490,-720,0,0,0,0,0,0,0,0,0,-1,1714,1744,0,0
497,-720,0,0,0,0,0,0,0,0,0,-1,1721,1744,0,0
504,-720,0,0,0,0,0,0,0,0,0,-1,1728,1744,0,0
511,-720,0,0,0,0,0,0,0,0,0,-1,1735,1744,0,0
518,-720,0,0,0,0,0,0,0,0,0,-1,1742,1744,0,0
525,-720,0,0,0,0,0,0,0,0,0,-1,1749,1744,0,0
532,-720,0,0,0,0,0,0,0,0,0,-1,1756,1744,0,0
539,-720,0,0,0,0,0,0,0,0,0,-1,1763,1744,0,0
546,-720,0,0,0,0,0,0,0,0,0,-1,1770,1744,0,0
553,-720,0,0,0,0,0,0,0,0,0,-1,1777,1744,0,0
560,-720,0,0,0,0,0,0,0,0,0,-1,1784,1744,0,0
567,-720,0,0,0,0,0,0,0,0,0,-1,1791,1744,0,0
574,-720,0,0,0,0,0,0,0,0,0,-1,1798,1744,0,0
581,-720,0,0,0,0,0,0,0,0,0,-1,1805,1744,0,0
588,-720,0,0,0,0,0,0,0,0,0,-1,1812,1744,0,0
595,-720,0,0,0,0,0,0,0,0,0,-1,1819,1744,0,0
602,-720,0,0,0,0,0,0,0,0,0,-1,1826,1744,0,0
609,-720,0,0,0,0,0,0,0,0,0,-1,1833,1744,0,0
616,-720,0,0,0,0,0,0,0,0,0,-1,1840,1744,0,0
623,-720,0,0,0,0,0,0,0,0,0,-1,1847,1744,0,0
630,-720,0,0,0,0,0,0,0,0,0,-1,1854,1744,0,0
637,-720,0,0,0,0,0,0,0,0,0,-1,1861,1744,0,0
644,-720,0,0,0,0,0,0,0,0,0,-1,1868,1744,0,0
651,-720,0,0,0,0,0,0,0,0,0,-1,1875,1744,0,0
658,-720,0,0,0,0,0,0,0,0,0,-1,1882,1744,0,0
665,-720,0,0,0,0,0,0,0,0,0,-1,1889,1744,0,0
672,-720,0,0,0,0,0,0,0,0,0,-1,1896,1744,0,0
679,-720,0,0,0,0,0,0,0,0,0,-1,1903,1744,0,0
686,-720,0,0,0,0,0,0,0,0,0,-1,1910,1744,0,0
693,-720,0,0,0,0,0,0,0,0,0,-1,1917,1744,0,0
700,-720,0,0,0,0,0,0,0,0,0,-1,1924,1744,0,0
707,-720,0,0,0,0,0,0,0,0,0,-1,1931,1744,0,0
714,-720,0,0,0,0,0,0,0,0,0,-1,1938,1744,0,0
721,-720,0,0,0,0,0,0,0,0,0,-1,1945,1744,0,0
728,-720,0,0,0,0,0,0,0,0,0,-1,1952,1744,0,0
735,-720,0,0,0,0,0,0,0,0,0,-1,1959,1744,0,0
742,-720,0,0,0,0,0,0,0,0,0,-1,1966,1744,0,0
749,-720,0,0,0,0,0,0,0,0,0,-1,1973,1744,0,0
756,-720,0,0,0,0,0,0,0,0,0,-1,1980,1744,0,0
763,-720,0,0,0,0,0,0,0,0,0,-1,1987,1744,0,0
770,-720,0,0,0,0,0,0,0,0,0,-1,1994,1744,0,0
777,-720,0,0,0,0,0,0,0,0,0,-1,2001,1744,0,0
784,-720,0,0,0,0,0,0,0,0,0,-1,2008,1744,0,0
791,-720,0,0,0,0,0,0,0,0,0,-1,2015,1744,0,0
798,-720,0,0,0,0,0,0,0,0,0,-1,2022,1744,0,0
805,-720,0,0,0,0,0,0,0,0,0,-1,2029,1744,0,0
812,-720,0,0,0,0,0,0,0,0,0,-1,2036,1744,0,0
-700,-727,0,0,0,0,0,0,0,0,0,-1,524,1751,0,0
-693,-727,0,0,0,0,0,0,0,0,0,-1,531,1751,0,0
-686,-727,0,0,0,0,0,0,0,0,0,-1,538,1751,0,0
-679,-727,0,0,0,0,0,0,0,0,0,-1,545,1751,0,0
-672,-727,0,0,0,0,0,0,0,0,0,-1,552,1751,0,0
-665,-727,0,0,0,0,0,0,0,0,0,-1,559,1751,0,0
-658,-727,0,0,0,0,0,0,0,0,0,-1,566,1751,0,0
-651,-727,0,0,0,0,0,0,0,0,0,-1,573,1751,0,0
-644,-727,0,0,0,0,0,0,0,0,0,-1,580,1751,0,0
-637,-727,0,0,0,0,0,0,0,0,0,-1,587,1751,0,0
-630,-727,0,0,0,0,0,0,0,0,0,-1,594,1751,0,0
-623,-727,0,0,0,0,0,0,0,0,0,-1,601,1751,0,0
-616,-727,0,0,0,0,0,0,0,0,0,-1,608,1751,0,0
-609,-727,0,0,0,0,0,0,0,0,0,-1,615,1751,0,0
-602,-727,0,0,0,0,0,0,0,0,0,-1,622,1751,0,0
-595,-727,0,0,0,0,0,0,0,0,0,-1,629,1751,0,0
-588,-727,0,0,0,0,0,0,0,0,0,-1,636,1751,0,0
-581,-727,0,0,0,0,0,0,0,0,0,-1,643,1751,0,0
-574,-727,0,0,0,0,0,0,0,0,0,-1,650,1751,0,0
-567,-727,0,0,0,0,0,0,0,0,0,-1,657,1751,0,0
-560,-727,0,0,0,0,0,0,0,0,0,-1,664,1751,0,0
-553,-727,0,0,0,0,0,0,0,0,0,-1,671,1751,0,0
-546,-727,0,0,0,0,0,0,0,0,0,-1,678,1751,0,0
-539,-727,0,0,0,0,0,0,0,0,0,-1,685,1751,0,0
-532,-727,0,0,0,0,0,0,0,0,0,-1,692,1751,0,0
-525,-727,0,0,0,0,0,0,0,0,0,-1,699,1751,0,0
-518,-727,0,0,0,0,0,0,0,0,0,-1,706,1751,0,0
-511,-727,0,0,0,0,0,0,0,0,0,-1,713,1751,0,0
-504,-727,0,0,0,0,0,0,0,0,0,-1,720,1751,0,0
-497,-727,0,0,0,0,0,0,0,0,0,-1,727,1751,0,0
-490,-727,0,0,0,0,0,0,0,0,0,-1,734,1751,0,0
-483,-727,0,0,0,0,0,0,0,0,0,-1,741,1751,0,0
-476,-727,0,0,0,0,0,0,0,0,0,-1,748,1751,0,0
-469,-727,0,0,0,0,0,0,0,0,0,-1,755,1751,0,0
-462,-727,0,0,0,0,0,0,0,0,0,-1,762,1751,0,0
-455,-727,0,0,0,0,0,0,0,0,0,-1,769,1751,0,0
-448,-727,0,0,0,0,0,0,0,0,0,-1,776,1751,0,0
-441,-727,0,0,0,0,0,0,0,0,0,-1,783,1751,0,0
-434,-727,0,0,0,0,0,0,0,0,0,-1,790,1751,0,0
-427,-727,0,0,0,0,0,0,0,0,0,-1,797,1751,0,0
-420,-727,0,0,0,0,0,0,0,0,0,-1,804,1751,0,0
-413,-727,0,0,0,0,0,0,0,0,0,-1,811,1751,0,0
-406,-727,0,0,0,0,0,0,0,0,0,-1,818,1751,0,0
-399,-727,0,0,0,0,0,0,0,0,0,-1,825,1751,0,0
-392,-727,0,0,0,0,0,0,0,0,0,-1,832,1751,0,0
-385,-727,0,0,0,0,0,0,0,0,0,-1,839,1751,0,0
-378,-727,0,0,0,0,0,0,0,0,0,-1,846,1751,0,0
-371,-727,0,0,0,0,0,0,0,0,0,-1,853,1751,0,0
-364,-727,0,0,0,0,0,0,0,0,0,-1,860,1751,0,0
-357,-727,0,0,0,0,0,0,0,0,0,-1,867,1751,0,0
-350,-727,0,0,0,0,0,0,0,0,0,-1,874,1751,0,0
-343,-727,0,0,0,0,0,0,0,0,0,-1,881,1751,0,0
-336,-727,0,0,0,0,0,0,0,0,0,-1,888,1751,0,0
-329,-727,0,0,0,0,0,0,0,0,0,-1,895,1751,0,0
-322,-727,0,0,0,0,0,0,0,0,0,-1,902,1751,0,0
-315,-727,0,0,0,0,0,0,0,0,0,-1,909,1751,0,0
-308,-727,0,0,0,0,0,0,0,0,0,-1,916,1751,0,0
-301,-727,0,0,0,0,0,0,0,0,0,-1,923,1751,0,0
-294,-727,0,0,0,0,0,0,0,0,0,-1,930,1751,0,0
-287,-727,0,0,0,0,0,0,0,0,0,-1,937,1751,0,0
-280,-727,0,0,0,0,0,0,0,0,0,-1,944,1751,0,0
-273,-727,0,0,0,0,0,0,0,0,0,-1,951,1751,0,0
-266,-727,4.24805,7.61145,0,0,0,0,0,0,0,-1,958,1751,4.24802,-7.6115
-259,-727,3.65228,5.4082,0,0,0,0,0,0,0,-1,965,1751,3.65229,-5.40818
-252,-727,6.35193,19.5046,0,0,0,0,0,0,0,-1,972,1751,6.35193,-19.5046
-245,-727,6.6543,20.9005,0,0,0,0,0,0,0,-1,979,1751,6.65433,-20.9005
-238,-727,4.31769,18.0181,0,0,0,0,0,0,0,-1,986,1751,4.31766,-18.018
-231,-727,6.50403,21.7985,0,0,0,0,0,0,0,-1,993,1751,6.50403,-21.7985
-224,-727,7.89355,29.2025,0,0,0,0,0,0,0,-1,1000,1751,7.89356,-29.2026
-217,-727,4.66821,31.8496,0,0,0,0,0,0,0,-1,1007,1751,4.66824,-31.8496
-210,-727,5.05951,32.1201,0,0,0,0,0,0,0,-1,1014,1751,5.0595,-32.1201
-203,-727,5.51245,32.3544,0,0,0,0,0,0,0,-1,1021,1751,5.51242,-32.3544
-196,-727,6.16858,32.8782,0,0,0,0,0,0,0,-1,1028,1751,6.16862,-32.8782
-189,-727,7.86157,29.6465,0,0,0,0,0,0,0,-1,1035,1751,7.86159,-29.6465
-182,-727,7.47327,33.6586,0,0,0,0,0,0,0,-1,1042,1751,7.47324,-33.6585
-175,-727,7.50403,33.7064,0,0,0,0,0,0,0,-1,1049,1751,7.50409,-33.7065
-168,-727,7.32532,33.4491,0.00521545,-0.0100153,0.0186825,0.017775,-0.0225749,0.591869,0.0233509,0.0456209,1056,1751,7.32529,-33.4491
-161,-727,7.43787,33.8878,0.00431201,-0.00834978,0.0168536,0.0159846,-0.0200224,0.605733,0.0208321,0.0441746,1063,1751,7.43791,-33.8878
-154,-727,8.2074,34.0408,0,0,0,0,0,0,0,-1,1070,1751,8.20734,-34.0408
-147,-727,8.23059,34.4587,0,0,0,0,0,0,0,-1,1077,1751,8.23056,-34.4588
-140,-727,7.93457,34.4158,0.000501644,-0.00208544,0.0102388,0.00952828,-0.0111121,0.722562,0.0119284,0.0332068,1084,1751,7.93452,-34.4157
-133,-727,8.04456,34.699,-0.000437364,-0.000328727,0.00829634,0.00791347,-0.00867956,0.788672,0.0095834,0.0228293,1091,1751,8.04454,-34.699
-126,-727,7.96204,34.9993,-0.00116242,0.00122429,0.00662661,0.00676415,-0.00670227,0.874486,0.00777487,0.0152778,1098,1751,7.962,-34.9992
-119,-727,7.95923,35.2958,-0.0015986,0.00224901,0.00517356,0.00584488,-0.00519447,0.963402,0.00637725,0.0122007,1105,1751,7.95926,-35.2957
-112,-727,7.96313,35.4908,-0.00178511,0.0027377,0.00361941,0.00474409,-0.0037915,1.06463,0.00493824,0.0132425,1112,1751,7.96316,-35.4908
-105,-727,7.91235,35.7231,-0.00184496,0.00326147,0.0025498,0.00431663,-0.00290012,1.17843,0.00419326,0.0132676,1119,1751,7.9123,-35.7232
-98,-727,7.89563,35.9473,-0.00165323,0.00335931,0.00214188,0.00414986,-0.00244378,1.21721,0.00384908,0.0114183,1126,1751,7.89563,-35.9473
-91,-727,7.89612,36.1539,-0.00139177,0.00336826,0.00179847,0.00397136,-0.00199487,1.24724,0.00350705,0.0106453,1133,1751,7.89606,-36.1539
-84,-727,7.8584,36.358,-0.00131927,0.00295984,0.00146579,0.00341378,-0.00177321,1.27047,0.00304423,0.0110808,1140,1751,7.85842,-36.358
-77,-727,7.84644,36.5538,-0.000961136,0.00261626,0.0013207,0.00305101,-0.00139588,1.25279,0.00262602,0.0125178,1147,1751,7.84647,-36.5539
-70,-727,7.83875,36.7401,-0.000789482,0.00217032,0.000956816,0.00245269,-0.00107185,1.28383,0.0020863,0.0134395,1154,1751,7.83879,-36.7401
-63,-727,7.81213,36.9211,-0.00105148,0.00177087,0.000466759,0.00184606,-0.00112667,1.41108,0.00173298,0.0111079,1161,1751,7.81216,-36.9211
-56,-727,7.78638,37.0856,-0.00113327,0.00138835,0.000316423,0.00142745,-0.00117237,1.44785,0.00150341,0.0108156,1168,1751,7.78642,-37.0856
-49,-727,7.77759,37.2443,-0.000779704,0.00109558,8.13312e-05,0.0010991,-0.000783225,1.52753,0.00109185,0.0132699,1175,1751,7.77764,-37.2443
-42,-727,7.7915,37.3925,-0.000634531,0.0009329,-0.000174624,0.000952119,-0.00065375,-1.46118,0.000932468,0.0159288,1182,1751,7.79148,-37.3925
-35,-727,7.78064,37.5162,-0.000518933,0.000545812,-0.000423359,0.000693625,-0.000666746,-1.23488,0.000785462,0.0143253,1189,1751,7.7806,-37.5162
-28,-727,7.76563,37.6364,-0.000236495,0.000741692,-0.000452746,0.000919075,-0.000413878,-1.19738,0.00078779,0.00927081,1196,1751,7.76567,-37.6364
-21,-727,7.76428,37.7771,7.8733e-05,0.000867427,-0.000409817,0.00104181,-9.56547e-05,-1.16848,0.000728524,0.0107685,1203,1751,7.76432,-37.7771
-14,-727,7.75488,37.8864,0.000409205,0.00122918,-0.00028866,0.00132061,0.00031778,-1.26407,0.000795913,0.0119432,1210,1751,7.75484,-37.8864
-7,-727,7.75488,38.0073,0.00066638,0.00171923,-0.000162158,0.00174364,0.00064197,-1.42139,0.00101828,0.0149726,1217,1751,7.75486,-38.0074
0,-727,7.76123,38.1445,0.000856723,0.00234128,1.83994e-05,0.00234151,0.000856495,1.55841,0.00136801,0.0149513,1224,1751,7.76121,-38.1445
7,-727,7.76758,38.1952,0.000952132,0.00290148,0.000191926,0.0029202,0.000933416,1.47358,0.00172215,0.0147313,1231,1751,7.76763,-38.1952
14,-727,7.77271,38.2601,0.000959847,0.00335857,0.000352647,0.00340934,0.000909078,1.42781,0.00203859,0.0141865,1238,1751,7.77271,-38.2601
21,-727,7.74231,38.3291,0.000904634,0.0036569,0.000429715,0.00372243,0.000839103,1.41946,0.00225458,0.0116457,1245,1751,7.74237,-38.3291
28,-727,7.74744,38.3789,0.00078913,0.00381471,0.000498205,0.00389463,0.000709204,1.41173,0.00239528,0.0108014,1252,1751,7.74746,-38.3789
35,-727,7.76941,38.4153,0.000648726,0.00368355,0.000589554,0.00379406,0.000538222,1.38551,0.00237042,0.0117692,1259,1751,7.76943,-38.4153
42,-727,7.75085,38.4397,0.000490302,0.00338053,0.000720749,0.00355029,0.000320537,1.33947,0.00226758,0.0118652,1266,1751,7.7509,-38.4397
49,-727,7.73303,38.4568,0.000314593,0.00284931,0.000768988,0.00306436,9.95408e-05,1.29811,0.00201055,0.0106819,1273,1751,7.73303,-38.4568
56,-727,7.74451,38.5055,0.000189209,0.00220404,0.0008912,0.00254166,-0.000148413,1.20866,0.00174601,0.00953524,1280,1751,7.74451,-38.5055
63,-727,7.76099,38.5142,0.000238137,0.00143029,0.00109135,0.00207773,-0.000409309,1.03535,0.00153983,0.0117226,1287,1751,7.76097,-38.5141
70,-727,7.78455,38.4979,0.000496455,0.00332547,0.00040915,0.00338346,0.00043847,1.43001,0.00212462,0.014105,1294,1751,7.78461,-38.4979
77,-727,7.79578,38.5205,0.000956094,0.00353353,0.000323014,0.00357339,0.000916229,1.448,0.00214316,0.0162097,1301,1751,7.79573,-38.5205
84,-727,7.82239,38.4335,0.00130173,0.00423191,9.81875e-05,0.00423519,0.00129844,1.53734,0.00250543,0.0155584,1308,1751,7.82243,-38.4334
91,-727,7.8103,38.3905,0.00183683,0.00508416,-0.000208371,0.00509748,0.00182352,-1.50698,0.00298248,0.016091,1315,1751,7.81033,-38.3905
98,-727,7.78723,38.3884,0.00244218,0.00605434,-0.000572733,0.00614297,0.00235354,-1.41726,0.0035788,0.0133179,1322,1751,7.78723,-38.3884
105,-727,7.78174,38.3789,0.00287206,0.00686243,-0.000972172,0.00708668,0.00264782,-1.34409,0.00413482,0.0125584,1329,1751,7.78172,-38.379
112,-727,7.78723,38.3428,0.00324141,0.00745417,-0.00131163,0.00782916,0.00286642,-1.29233,0.00457386,0.0115052,1336,1751,7.78728,-38.3428
119,-727,7.78845,38.2827,0.00346235,0.00764586,-0.0016204,0.00820007,0.00290813,-1.24125,0.00480053,0.00895472,1343,1751,7.78845,-38.2827
126,-727,7.80005,38.1844,0.00356912,0.00744595,-0.00176575,0.00812962,0.00288545,-1.20139,0.00475903,0.00959135,1350,1751,7.80003,-38.1845
133,-727,7.80225,38.1101,0.00347568,0.0068847,-0.00180031,0.0076594,0.00270098,-1.16443,0.00448572,0.0152441,1357,1751,7.80229,-38.1101
140,-727,7.80896,38.0454,0.00318717,0.00614168,-0.00172323,0.00693419,0.00239467,-1.13975,0.00406679,0.0224487,1364,1751,7.80897,-38.0454
147,-727,7.79285,37.9464,0.00276077,0.00533916,-0.00154996,0.00606601,0.00203393,-1.1323,0.00356498,0.0184037,1371,1751,7.79285,-37.9465
154,-727,7.79138,37.8094,0.00222009,0.00462729,-0.00134819,0.00523097,0.00161641,-1.1498,0.00309267,0.0113623,1378,1751,7.79139,-37.8094
161,-727,7.77185,37.6877,0.00165439,0.00397904,-0.00117833,0.00447185,0.00116158,-1.17468,0.00267933,0.00905438,1385,1751,7.77184,-37.6877
168,-727,7.75256,37.5641,0.000978042,0.00356575,-0.00113995,0.00399629,0.000547503,-1.20967,0.00250174,0.0118687,1392,1751,7.75257,-37.5641
175,-727,7.76147,37.4153,0.000157415,-0.000761864,-5.14304e-05,0.000160283,-0.000764733,-0.0557147,0.000570801,0.0170565,1399,1751,7.76142,-37.4153
182,-727,7.77551,37.275,-0.000722286,0.000655332,-0.000489966,0.000811818,-0.000878773,-1.26165,0.000976318,0.0186248,1406,1751,7.77546,-37.275
189,-727,7.72693,37.1056,-0.00122144,0.00113246,-0.000871951,0.00142027,-0.00150924,-1.25198,0.00169161,0.0120595,1413,1751,7.72688,-37.1056
196,-727,7.71289,36.9497,-0.00153777,0.00147497,-0.00115228,0.00186515,-0.00192795,-1.2443,0.00219005,0.0134549,1420,1751,7.71293,-36.9497
203,-727,7.68933,36.7852,-0.0017107,0.00201763,-0.00127911,0.00241427,-0.00210733,-1.27011,0.00261255,0.0163231,1427,1751,7.68929,-36.7852
210,-727,7.67261,36.6312,-0.00147475,0.00242087,-0.00149713,0.00292976,-0.00198363,-1.24314,0.00285422,0.0159086,1434,1751,7.67262,-36.6313
217,-727,7.65674,36.4485,-0.00128892,0.00256632,-0.0016578,0.00318114,-0.00190374,-1.21565,0.00296648,0.0114256,1441,1751,7.6567,-36.4485
224,-727,7.63965,36.2231,-0.00116213,0.00255526,-0.00180392,0.00328672,-0.00189358,-1.18557,0.00302668,0.012166,1448,1751,7.63966,-36.2231
231,-727,7.63123,36.0249,-0.00115458,0.00238054,-0.00188074,0.00319396,-0.001968,-1.16259,0.00300815,0.0101137,1455,1751,7.63122,-36.0249
238,-727,7.62,35.816,-0.000729122,0.0025756,-0.00186825,0.00341737,-0.00157089,-1.14747,0.002945,0.0102686,1462,1751,7.61999,-35.8161
245,-727,7.61584,35.6174,5.1989e-06,0.0030124,-0.00194779,0.00396942,-0.000951829,-1.1141,0.00301408,0.0106044,1469,1751,7.61581,-35.6174
252,-727,7.59082,35.395,0.000869236,0.00404327,-0.00220535,0.00517327,-0.000260765,-1.09728,0.00353897,0.0115177,1476,1751,7.59087,-35.395
259,-727,7.57971,35.1654,0.00161709,0.00495744,-0.00255109,0.00633645,0.000238071,-1.07523,0.00414722,0.0137085,1483,1751,7.57974,-35.1654
266,-727,7.59424,34.9795,0.00247696,0.0061416,-0.00314396,0.00794822,0.000670342,-1.04924,0.0050901,0.0185587,1490,1751,7.59428,-34.9795
273,-727,7.63965,34.7552,0.00359485,0.00817411,-0.00398466,0.0104801,0.00128884,-1.04617,0.00659922,0.0350507,1497,1751,7.6397,-34.7553
280,-727,7.33374,34.5016,0,0,0,0,0,0,0,-1,1504,1751,7.33376,-34.5016
287,-727,7.27905,33.8623,0.00599536,0.0131274,-0.00624112,0.0167494,0.00237333,-1.04495,0.0104653,0.0488132,1511,1751,7.27908,-33.8623
294,-727,7.45679,33.5859,0.00721799,0.0162732,-0.00774063,0.0207131,0.00277806,-1.05002,0.0129822,0.0494749,1518,1751,7.45679,-33.5859
301,-727,7.59094,33.1615,0.00855668,0.0192796,-0.00939477,0.0247351,0.00310118,-1.04469,0.0155597,0.0491062,1525,1751,7.59094,-33.1615
308,-727,7.92688,33.452,0,0,0,0,0,0,0,-1,1532,1751,7.92689,-33.4521
315,-727,7.94458,33.1068,0,0,0,0,0,0,0,-1,1539,1751,7.94454,-33.1068
322,-727,6.40735,31.2832,0,0,0,0,0,0,0,-1,1546,1751,6.40736,-31.2832
329,-727,5.54419,31.0325,0,0,0,0,0,0,0,-1,1553,1751,5.54425,-31.0325
336,-727,5.55823,20.2439,0,0,0,0,0,0,0,-1,1560,1751,5.55829,-20.2438
343,-727,2.41699,8.72095,0,0,0,0,0,0,0,-1,1567,1751,2.41702,-8.72098
350,-727,3.89783,7.50195,0,0,0,0,0,0,0,-1,1574,1751,3.89782,-7.50193
357,-727,4.48462,10.2948,0,0,0,0,0,0,0,-1,1581,1751,4.48464,-10.2948
364,-727,6.96729,17.2365,0,0,0,0,0,0,0,-1,1588,1751,6.96732,-17.2365
371,-727,5.04565,23.2227,0,0,0,0,0,0,0,-1,1595,1751,5.04564,-23.2227
378,-727,4.56726,23.0574,0,0,0,0,0,0,0,-1,1602,1751,4.56727,-23.0574
385,-727,3.52307,22.6431,0,0,0,0,0,0,0,-1,1609,1751,3.52303,-22.643
392,-727,0,0,0,0,0,0,0,0,0,-1,1616,1751,0,0
399,-727,0,0,0,0,0,0,0,0,0,-1,1623,1751,0,0
406,-727,0,0,0,0,0,0,0,0,0,-1,1630,1751,0,0
413,-727,0,0,0,0,0,0,0,0,0,-1,1637,1751,0,0
420,-727,0,0,0,0,0,0,0,0,0,-1,1644,1751,0,0
427,-727,0,0,0,0,0,0,0,0,0,-1,1651,1751,0,0
434,-727,0,0,0,0,0,0,0,0,0,-1,1658,1751,0,0
441,-727,0,0,0,0,0,0,0,0,0,-1,1665,1751,0,0
448,-727,0,0,0,0,0,0,0,0,0,-1,1672,1751,0,0
455,-727,0,0,0,0,0,0,0,0,0,-1,1679,1751,0,0
462,-727,0,0,0,0,0,0,0,0,0,-1,1686,1751,0,0
469,-727,0,0,0,0,0,0,0,0,0,-1,1693,1751,0,0
476,-727,0,0,0,0,0,0,0,0,0,-1,1700,1751,0,0
483,-727,0,0,0,0,0,0,0,0,0,-1,1707,1751,0,0
490,-727,0,0,0,0,0,0,0,0,0,-1,1714,1751,0,0
497,-727,0,0,0,0,0,0,0,0,0,-1,1721,1751,0,0
504,-727,0,0,0,0,0,0,0,0,0,-1,1728,1751,0,0
511,-727,0,0,0,0,0,0,0,0,0,-1,1735,1751,0,0
518,-727,0,0,0,0,0,0,0,0,0,-1,1742,1751,0,0
525,-727,0,0,0,0,0,0,0,0,0,-1,1749,1751,0,0
532,-727,0,0,0,0,0,0,0,0,0,-1,1756,1751,0,0
539,-727,0,0,0,0,0,0,0,0,0,-1,1763,1751,0,0
546,-727,0,0,0,0,0,0,0,0,0,-1,1770,1751,0,0
553,-727,0,0,0,0,0,0,0,0,0,-1,1777,1751,0,0
560,-727,0,0,0,0,0,0,0,0,0,-1,1784,1751,0,0
567,-727,0,0,0,0,0,0,0,0,0,-1,1791,1751,0,0
574,-727,0,0,0,0,0,0,0,0,0,-1,1798,1751,0,0
581,-727,0,0,0,0,0,0,0,0,0,-1,1805,1751,0,0
588,-727,0,0,0,0,0,0,0,0,0,-1,1812,1751,0,0
595,-727,0,0,0,0,0,0,0,0,0,-1,1819,1751,0,0
602,-727,0,0,0,0,0,0,0,0,0,-1,1826,1751,0,0
609,-727,0,0,0,0,0,0,0,0,0,-1,1833,1751,0,0
616,-727,0,0,0,0,0,0,0,0,0,-1,1840,1751,0,0
623,-727,0,0,0,0,0,0,0,0,0,-1,1847,1751,0,0
630,-727,0,0,0,0,0,0,0,0,0,-1,1854,1751,0,0
637,-727,0,0,0,0,0,0,0,0,0,-1,1861,1751,0,0
644,-727,0,0,0,0,0,0,0,0,0,-1,1868,1751,0,0
651,-727,0,0,0,0,0,0,0,0,0,-1,1875,1751,0,0
658,-727,0,0,0,0,0,0,0,0,0,-1,1882,1751,0,0
665,-727,0,0,0,0,0,0,0,0,0,-1,1889,1751,0,0
672,-727,0,0,0,0,0,0,0,0,0,-1,1896,1751,0,0
679,-727,0,0,0,0,0,0,0,0,0,-1,1903,1751,0,0
686,-727,0,0,0,0,0,0,0,0,0,-1,1910,1751,0,0
693,-727,0,0,0,0,0,0,0,0,0,-1,1917,1751,0,0
700,-727,0,0,0,0,0,0,0,0,0,-1,1924,1751,0,0
707,-727,0,0,0,0,0,0,0,0,0,-1,1931,1751,0,0
714,-727,0,0,0,0,0,0,0,0,0,-1,1938,1751,0,0
721,-727,0,0,0,0,0,0,0,0,0,-1,1945,1751,0,0
728,-727,0,0,0,0,0,0,0,0,0,-1,1952,1751,0,0
735,-727,0,0,0,0,0,0,0,0,0,-1,1959,1751,0,0
742,-727,0,0,0,0,0,0,0,0,0,-1,1966,1751,0,0
749,-727,0,0,0,0,0,0,0,0,0,-1,1973,1751,0,0
756,-727,0,0,0,0,0,0,0,0,0,-1,1980,1751,0,0
763,-727,0,0,0,0,0,0,0,0,0,-1,1987,1751,0,0
770,-727,0,0,0,0,0,0,0,0,0,-1,1994,1751,0,0
777,-727,0,0,0,0,0,0,0,0,0,-1,2001,1751,0,0
784,-727,0,0,0,0,0,0,0,0,0,-1,2008,1751,0,0
791,-727,0,0,0,0,0,0,0,0,0,-1,2015,1751,0,0
798,-727,0,0,0,0,0,0,0,0,0,-1,2022,1751,0,0
805,-727,0,0,0,0,0,0,0,0,0,-1,2029,1751,0,0
812,-727,0,0,0,0,0,0,0,0,0,-1,2036,1751,0,0
-700,-734,0,0,0,0,0,0,0,0,0,-1,524,1758,0,0
-693,-734,0,0,0,0,0,0,0,0,0,-1,531,1758,0,0
-686,-734,0,0,0,0,0,0,0,0,0,-1,538,1758,0,0
-679,-734,0,0,0,0,0,0,0,0,0,-1,545,1758,0,0
-672,-734,0,0,0,0,0,0,0,0,0,-1,552,1758,0,0
-665,-734,0,0,0,0,0,0,0,0,0,-1,559,1758,0,0
-658,-734,0,0,0,0,0,0,0,0,0,-1,566,1758,0,0
-651,-734,0,0,0,0,0,0,0,0,0,-1,573,1758,0,0
-644,-734,0,0,0,0,0,0,0,0,0,-1,580,1758,0,0
-637,-734,0,0,0,0,0,0,0,0,0,-1,587,1758,0,0
-630,-734,0,0,0,0,0,0,0,0,0,-1,594,1758,0,0
-623,-734,0,0,0,0,0,0,0,0,0,-1,601,1758,0,0
-616,-734,0,0,0,0,0,0,0,0,0,-1,608,1758,0,0
-609,-734,0,0,0,0,0,0,0,0,0,-1,615,1758,0,0
-602,-734,0,0,0,0,0,0,0,0,0,-1,622,1758,0,0
-595,-734,0,0,0,0,0,0,0,0,0,-1,629,1758,0,0
-588,-734,0,0,0,0,0,0,0,0,0,-1,636,1758,0,0
-581,-734,0,0,0,0,0,0,0,0,0,-1,643,1758,0,0
-574,-734,0,0,0,0,0,0,0,0,0,-1,650,1758,0,0
-567,-734,0,0,0,0,0,0,0,0,0,-1,657,1758,0,0
-560,-734,0,0,0,0,0,0,0,0,0,-1,664,1758,0,0
-553,-734,0,0,0,0,0,0,0,0,0,-1,671,1758,0,0
-546,-734,0,0,0,0,0,0,0,0,0,-1,678,1758,0,0
-539,-734,0,0,0,0,0,0,0,0,0,-1,685,1758,0,0
-532,-734,0,0,0,0,0,0,0,0,0,-1,692,1758,0,0
-525,-734,0,0,0,0,0,0,0,0,0,-1,699,1758,0,0
-518,-734,0,0,0,0,0,0,0,0,0,-1,706,1758,0,0
-511,-734,0,0,0,0,0,0,0,0,0,-1,713,1758,0,0
-504,-734,0,0,0,0,0,0,0,0,0,-1,720,1758,0,0
-497,-734,0,0,0,0,0,0,0,0,0,-1,727,1758,0,0
-490,-734,0,0,0,0,0,0,0,0,0,-1,734,1758,0,0
-483,-734,0,0,0,0,0,0,0,0,0,-1,741,1758,0,0
-476,-734,0,0,0,0,0,0,0,0,0,-1,748,1758,0,0
-469,-734,0,0,0,0,0,0,0,0,0,-1,755,1758,0,0
-462,-734,0,0,0,0,0,0,0,0,0,-1,762,1758,0,0
-455,-734,0,0,0,0,0,0,0,0,0,-1,769,1758,0,0
-448,-734,0,0,0,0,0,0,0,0,0,-1,776,1758,0,0
-441,-734,0,0,0,0,0,0,0,0,0,-1,783,1758,0,0
-434,-734,0,0,0,0,0,0,0,0,0,-1,790,1758,0,0
-427,-734,0,0,0,0,0,0,0,0,0,-1,797,1758,0,0
-420,-734,0,0,0,0,0,0,0,0,0,-1,804,1758,0,0
-413,-734,0,0,0,0,0,0,0,0,0,-1,811,1758,0,0
-406,-734,0,0,0,0,0,0,0,0,0,-1,818,1758,0,0
-399,-734,0,0,0,0,0,0,0,0,0,-1,825,1758,0,0
-392,-734,0,0,0,0,0,0,0,0,0,-1,832,1758,0,0
-385,-734,0,0,0,0,0,0,0,0,0,-1,839,1758,0,0
-378,-734,0,0,0,0,0,0,0,0,0,-1,846,1758,0,0
-371,-734,0,0,0,0,0,0,0,0,0,-1,853,1758,0,0
-364,-734,0,0,0,0,0,0,0,0,0,-1,860,1758,0,0
-357,-734,0,0,0,0,0,0,0,0,0,-1,867,1758,0,0
-350,-734,0,0,0,0,0,0,0,0,0,-1,874,1758,0,0
-343,-734,0,0,0,0,0,0,0,0,0,-1,881,1758,0,0
-336,-734,0,0,0,0,0,0,0,0,0,-1,888,1758,0,0
-329,-734,0,0,0,0,0,0,0,0,0,-1,895,1758,0,0
-322,-734,0,0,0,0,0,0,0,0,0,-1,902,1758,0,0
-315,-734,0,0,0,0,0,0,0,0,0,-1,909,1758,0,0
-308,-734,0,0,0,0,0,0,0,0,0,-1,916,1758,0,0
-301,-734,0,0,0,0,0,0,0,0,0,-1,923,1758,0,0
-294,-734,0,0,0,0,0,0,0,0,0,-1,930,1758,0,0
-287,-734,0,0,0,0,0,0,0,0,0,-1,937,1758,0,0
-280,-734,0,0,0,0,0,0,0,0,0,-1,944,1758,0,0
-273,-734,0,0,0,0,0,0,0,0,0,-1,951,1758,0,0
-266,-734,0,0,0,0,0,0,0,0,0,-1,958,1758,0,0
-259,-734,0,0,0,0,0,0,0,0,0,-1,965,1758,0,0
-252,-734,6.93439,18.351,0,0,0,0,0,0,0,-1,972,1758,6.93438,-18.3509
-245,-734,6.95746,19.5341,0,0,0,0,0,0,0,-1,979,1758,6.95746,-19.5341
-238,-734,6.216,17.1718,0,0,0,0,0,0,0,-1,986,1758,6.216,-17.1717
-231,-734,7.25604,16.8156,0,0,0,0,0,0,0,-1,993,1758,7.25602,-16.8156
-224,-734,3.8869,32.9818,0,0,0,0,0,0,0,-1,1000,1758,3.88689,-32.9818
-217,-734,4.49084,32.9758,0,0,0,0,0,0,0,-1,1007,1758,4.49084,-32.9758
-210,-734,4.90692,33.2808,0,0,0,0,0,0,0,-1,1014,1758,4.90692,-33.2808
-203,-734,5.19104,33.1826,0,0,0,0,0,0,0,-1,1021,1758,5.19104,-33.1827
-196,-734,5.69165,33.9451,0,0,0,0,0,0,0,-1,1028,1758,5.69166,-33.945
-189,-734,8.22449,30.4427,0,0,0,0,0,0,0,-1,1035,1758,8.22453,-30.4428
-182,-734,8.14197,31.3351,0,0,0,0,0,0,0,-1,1042,1758,8.14194,-31.3351
-175,-734,7.94153,31.2831,0,0,0,0,0,0,0,-1,1049,1758,7.94155,-31.2831
-168,-734,7.30603,33.6353,0,0,0,0,0,0,0,-1,1056,1758,7.30601,-33.6352
-161,-734,7.44507,34.278,0,0,0,0,0,0,0,-1,1063,1758,7.44512,-34.2779
-154,-734,9.19348,32.4099,0,0,0,0,0,0,0,-1,1070,1758,9.19347,-32.41
-147,-734,8.76331,32.8,0,0,0,0,0,0,0,-1,1077,1758,8.76332,-32.8001
-140,-734,8.47766,34.66,0,0,0,0,0,0,0,-1,1084,1758,8.47762,-34.66
-133,-734,8.29187,34.7145,-0.000693085,0.000511986,0.0111277,0.0110534,-0.0112345,0.812446,0.0128681,0.0461973,1091,1758,8.29183,-34.7145
-126,-734,8.06555,34.9504,-0.00166495,0.00244886,0.00887014,0.00949746,-0.00871355,0.89933,0.0105174,0.0395862,1098,1758,8.06553,-34.9504
-119,-734,7.95972,35.2705,-0.00221039,0.00370515,0.00690172,0.00825618,-0.00676142,0.987837,0.00868472,0.0393725,1105,1758,7.95977,-35.2705
-112,-734,8.06091,35.498,-0.00246641,0.00431816,0.00487443,0.00686453,-0.00501279,1.08939,0.0068851,0.0364155,1112,1758,8.06096,-35.498
-105,-734,8.08569,35.7047,-0.00257494,0.0049651,0.00350235,0.0063409,-0.00395075,1.19649,0.00599506,0.0279501,1119,1758,8.08564,-35.7047
-98,-734,8.13513,35.848,-0.00238378,0.00502857,0.00293617,0.0060507,-0.00340591,1.2358,0.00553049,0.0309378,1126,1758,8.13512,-35.8481
-91,-734,8.14404,35.9679,-0.00211683,0.0049668,0.00244518,0.00572887,-0.0028789,1.26868,0.00505968,0.0446688,1133,1758,8.14406,-35.9679
-84,-734,8.04675,36.344,0,0,0,0,0,0,0,-1,1140,1758,8.04672,-36.344
-77,-734,8.0188,36.5515,0,0,0,0,0,0,0,-1,1147,1758,8.01879,-36.5516
-70,-734,8.01392,36.7412,0,0,0,0,0,0,0,-1,1154,1758,8.01386,-36.7413
-63,-734,7.96704,36.8665,-0.00195022,0.00230517,0.000522524,0.00236839,-0.00201344,1.45039,0.00253261,0.0273002,1161,1758,7.96706,-36.8664
-56,-734,7.93152,37.0814,-0.00219012,0.00167095,0.000375784,0.00170718,-0.00222636,1.47467,0.00227761,0.0160547,1168,1758,7.93152,-37.0814
-49,-734,7.91235,37.2458,-0.00162714,0.00133499,3.14669e-05,0.00133533,-0.00162748,1.56017,0.00171335,0.0124192,1175,1758,7.91235,-37.2459
-42,-734,7.9093,37.3937,-0.00120763,0.000913149,-0.000244842,0.000941048,-0.00123553,-1.45734,0.00126048,0.0135123,1182,1758,7.9093,-37.3936
-35,-734,7.91345,37.5144,-0.000920892,0.00036982,-0.000433625,0.00050197,-0.00105304,-1.27498,0.000916386,0.0141007,1189,1758,7.91344,-37.5144
-28,-734,7.90674,37.6371,-0.000648246,0.000404272,-0.000605105,0.000679948,-0.000923922,-1.14331,0.000929559,0.00998754,1196,1758,7.90674,-37.6371
-21,-734,7.92334,37.7725,-0.000532172,0.000203661,-0.000740792,0.000662869,-0.000991381,-1.01588,0.000961339,0.0158133,1203,1758,7.92331,-37.7725
-14,-734,7.85486,37.8876,-0.000415001,0.000234151,-0.000826007,0.000797064,-0.000977914,-0.972603,0.00102656,0.0164148,1210,1758,7.85481,-37.8875
-7,-734,7.84631,37.9895,-0.00037153,0.000379318,-0.000920996,0.000998468,-0.000990679,-0.978931,0.00114844,0.0187019,1217,1758,7.84636,-37.9895
0,-734,7.84607,38.11,-0.000390731,0.000632766,-0.000956102,0.00120546,-0.000963426,-1.03112,0.0012548,0.0182063,1224,1758,7.8461,-38.1099
7,-734,7.83374,38.1982,-0.000482385,0.000846241,-0.000969834,0.00135747,-0.00099361,-1.08568,0.0013628,0.0136947,1231,1758,7.8338,-38.1983
14,-734,7.82947,38.2572,-0.000621648,0.000995163,-0.000941046,0.00142736,-0.00105384,-1.14026,0.00143792,0.0137351,1238,1758,7.82952,-38.2572
21,-734,7.79614,38.322,-0.000758388,0.00109356,-0.000995278,0.001527,-0.00119183,-1.16007,0.00157369,0.011089,1245,1758,7.79615,-38.322
28,-734,7.79431,38.3784,-0.000916494,0.00113549,-0.000986964,0.00153314,-0.00131414,-1.18779,0.0016455,0.0104094,1252,1758,7.79436,-38.3784
35,-734,7.8031,38.4272,-0.00104535,0.0010534,-0.000950312,0.00141975,-0.0014117,-1.20285,0.00163474,0.0136957,1259,1758,7.80315,-38.4272
42,-734,7.79565,38.4431,-0.00115101,0.000874296,-0.000871576,0.00119772,-0.00147444,-1.21546,0.00154553,0.0120845,1266,1758,7.79571,-38.4431
49,-734,7.77332,38.4598,-0.00114214,0.000476758,-0.000796329,0.000802803,-0.00146818,-1.18218,0.00132978,0.0101955,1273,1758,7.7733,-38.4598
56,-734,7.76294,38.4963,-0.0012189,0.000121212,-0.000681212,0.000406679,-0.00150437,-1.17397,0.00116243,0.00963191,1280,1758,7.76296,-38.4964
63,-734,7.76697,38.5042,-0.000853051,-0.000574501,-0.000425068,-0.000266472,-0.00116108,-0.943713,0.000702288,0.0122644,1287,1758,7.76703,-38.5041
70,-734,7.77026,38.505,-5.17039e-05,0.00296652,-0.0013587,0.00348804,-0.000573228,-1.2043,0.00253811,0.012564,1294,1758,7.77032,-38.505
77,-734,7.776,38.5231,0.00100674,0.00362773,-0.00150658,0.00431402,0.000320447,-1.14335,0.00277537,0.0165232,1301,1758,7.77605,-38.523
84,-734,7.75732,38.4523,0.001932,0.00508307,-0.00178098,0.00588539,0.00112968,-1.14753,0.0036065,0.0159568,1308,1758,7.75738,-38.4523
91,-734,7.71448,38.4222,0.00299746,0.00671901,-0.00213318,0.00768894,0.00202752,-1.14405,0.00460151,0.0177858,1315,1758,7.71452,-38.4222
98,-734,7.73096,38.4474,0.00408453,0.00830055,-0.00251112,0.00947118,0.00291391,-1.13457,0.00560143,0.0128839,1322,1758,7.73091,-38.4474
105,-734,7.74609,38.4131,0.0049435,0.00966276,-0.00289637,0.011039,0.00356725,-1.12721,0.00650491,0.0143313,1329,1758,7.74604,-38.413
112,-734,7.75012,38.3287,0.00567687,0.0107523,-0.00321459,0.0123101,0.00411903,-1.11953,0.00723571,0.0131743,1336,1758,7.75017,-38.3287
119,-734,7.7157,38.23,0.00617053,0.0113394,-0.00347641,0.0130868,0.00442313,-1.10504,0.00768675,0.0136695,1343,1758,7.71565,-38.23
126,-734,7.71216,38.1508,0.0064545,0.0113435,-0.00347347,0.0131464,0.00465159,-1.09202,0.00769746,0.0157688,1350,1758,7.7121,-38.1508
133,-734,7.70691,38.0586,0.00640191,0.0107283,-0.00335412,0.0125563,0.00457392,-1.0718,0.00733785,0.0150935,1357,1758,7.70687,-38.0585
140,-734,7.69763,37.9648,0.00605686,0.00969559,-0.00306397,0.0114396,0.0043128,-1.05332,0.00667096,0.0196429,1364,1758,7.69761,-37.9649
147,-734,7.68518,37.8855,0.00551215,0.00842803,-0.00266911,0.0100114,0.00392875,-1.03537,0.00582452,0.0135361,1371,1758,7.6852,-37.8855
154,-734,7.67175,37.8167,0.00469525,0.00725275,-0.00230938,0.00861378,0.00333422,-1.03824,0.00501527,0.00951133,1378,1758,7.67175,-37.8166
161,-734,7.65503,37.6954,0.00389894,0.00591413,-0.00197602,0.00712462,0.00268845,-1.02117,0.00415445,0.00868715,1385,1758,7.65498,-37.6954
168,-734,7.60413,37.556,0.00255839,0.00539134,-0.00200386,0.0064288,0.00152092,-1.09306,0.00387958,0.0137912,1392,1758,7.60409,-37.556
175,-734,7.60046,37.433,0.000880512,-0.00227655,-4.5533e-05,0.000881168,-0.00227721,-0.0144186,0.00188193,0.017128,1399,1758,7.60047,-37.4329
182,-734,7.6283,37.2684,-0.001086,0.000257832,-0.000768314,0.000606591,-0.00143476,-1.14468,0.00121047,0.015053,1406,1758,7.62826,-37.2684
189,-734,7.58142,37.1002,-0.0018087,0.000904403,-0.00132723,0.00144568,-0.00234998,-1.18356,0.00221206,0.0112423,1413,1758,7.58141,-37.1003
196,-734,7.5564,36.954,-0.00242952,0.00163499,-0.00169542,0.00224934,-0.00304387,-1.22316,0.00306749,0.0140079,1420,1758,7.55644,-36.9539
203,-734,7.53333,36.7877,-0.00288791,0.00262994,-0.0018253,0.0031791,-0.00343707,-1.27855,0.00382081,0.0190502,1427,1758,7.53338,-36.7877
210,-734,7.55542,36.6001,-0.00240732,0.00326152,-0.00213141,0.00397348,-0.00311928,-1.24841,0.0041049,0.0277529,1434,1758,7.55542,-36.6002
217,-734,7.50342,36.3977,-0.00204769,0.00351581,-0.00231566,0.00435351,-0.00288539,-1.22369,0.00420793,0.0314487,1441,1758,7.50336,-36.3977
224,-734,7.55835,36.0905,-0.00181412,0.00355566,-0.00245792,0.00451083,-0.00276929,-1.20015,0.00424307,0.0351811,1448,1758,7.55833,-36.0904
231,-734,7.50439,35.9303,-0.00171315,0.00336563,-0.00252146,0.00440482,-0.00275235,-1.17987,0.00416874,0.0296519,1455,1758,7.50444,-35.9303
238,-734,7.36865,35.8066,-0.00108751,0.00357864,-0.00248825,0.00465653,-0.0021654,-1.16201,0.00402522,0.0243242,1462,1758,7.36864,-35.8066
245,-734,7.4021,35.5402,-7.23228e-05,0.00408386,-0.00255997,0.00530303,-0.00129149,-1.12633,0.00403534,0.0273982,1469,1758,7.4021,-35.5402
252,-734,7.40332,35.326,0.00112957,0.00534724,-0.00284033,0.00677601,-0.000299205,-1.10473,0.0046203,0.0304829,1476,1758,7.40331,-35.326
259,-734,7.46729,35.2356,0.00222238,0.00650737,-0.00322027,0.00823275,0.000497007,-1.07893,0.00533056,0.0350721,1483,1758,7.46731,-35.2356
266,-734,7.49426,35.0549,0.00350639,0.00806318,-0.0039035,0.0103046,0.001265,-1.04956,0.00648927,0.0452916,1490,1758,7.49432,-35.055
273,-734,7.54346,34.9022,0,0,0,0,0,0,0,-1,1497,1758,7.54345,-34.9022
280,-734,5.95288,32.8356,0,0,0,0,0,0,0,-1,1504,1758,5.95285,-32.8356
287,-734,6.86169,33.66,0,0,0,0,0,0,0,-1,1511,1758,6.86167,-33.6601
294,-734,7.08374,33.2285,0,0,0,0,0,0,0,-1,1518,1758,7.08368,-33.2285
301,-734,7.31348,33.0311,0,0,0,0,0,0,0,-1,1525,1758,7.31346,-33.0311
308,-734,5.22681,34.1436,0,0,0,0,0,0,0,-1,1532,1758,5.22678,-34.1436
315,-734,5.48767,31.238,0,0,0,0,0,0,0,-1,1539,1758,5.48766,-31.238
322,-734,5.74854,28.3324,0,0,0,0,0,0,0,-1,1546,1758,5.74854,-28.3324
329,-734,5.45972,12.4125,0,0,0,0,0,0,0,-1,1553,1758,5.45969,-12.4125
336,-734,5.92188,13.8751,0,0,0,0,0,0,0,-1,1560,1758,5.92183,-13.8751
343,-734,5.54968,5.14221,0,0,0,0,0,0,0,-1,1567,1758,5.54973,-5.14225
350,-734,5.07397,6.73242,0,0,0,0,0,0,0,-1,1574,1758,5.07402,-6.73243
357,-734,5.05542,7.19189,0,0,0,0,0,0,0,-1,1581,1758,5.05541,-7.19184
364,-734,4.43896,10.4904,0,0,0,0,0,0,0,-1,1588,1758,4.43893,-10.4904
371,-734,7.36975,17.4751,0,0,0,0,0,0,0,-1,1595,1758,7.36972,-17.4752
378,-734,0,0,0,0,0,0,0,0,0,-1,1602,1758,0,0
385,-734,0,0,0,0,0,0,0,0,0,-1,1609,1758,0,0
392,-734,0,0,0,0,0,0,0,0,0,-1,1616,1758,0,0
399,-734,0,0,0,0,0,0,0,0,0,-1,1623,1758,0,0
406,-734,0,0,0,0,0,0,0,0,0,-1,1630,1758,0,0
413,-734,0,0,0,0,0,0,0,0,0,-1,1637,1758,0,0
420,-734,0,0,0,0,0,0,0,0,0,-1,1644,1758,0,0
427,-734,0,0,0,0,0,0,0,0,0,-1,1651,1758,0,0
434,-734,0,0,0,0,0,0,0,0,0,-1,1658,1758,0,0
441,-734,0,0,0,0,0,0,0,0,0,-1,1665,1758,0,0
448,-734,0,0,0,0,0,0,0,0,0,-1,1672,1758,0,0
455,-734,0,0,0,0,0,0,0,0,0,-1,1679,1758,0,0
462,-734,0,0,0,0,0,0,0,0,0,-1,1686,1758,0,0
469,-734,0,0,0,0,0,0,0,0,0,-1,1693,1758,0,0
476,-734,0,0,0,0,0,0,0,0,0,-1,1700,1758,0,0
483,-734,0,0,0,0,0,0,0,0,0,-1,1707,1758,0,0
490,-734,0,0,0,0,0,0,0,0,0,-1,1714,1758,0,0
497,-734,0,0,0,0,0,0,0,0,0,-1,1721,1758,0,0
504,-734,0,0,0,0,0,0,0,0,0,-1,1728,1758,0,0
511,-734,0,0,0,0,0,0,0,0,0,-1,1735,1758,0,0
518,-734,0,0,0,0,0,0,0,0,0,-1,1742,1758,0,0
525,-734,0,0,0,0,0,0,0,0,0,-1,1749,1758,0,0
532,-734,0,0,0,0,0,0,0,0,0,-1,1756,1758,0,0
539,-734,0,0,0,0,0,0,0,0,0,-1,1763,1758,0,0
546,-734,0,0,0,0,0,0,0,0,0,-1,1770,1758,0,0
553,-734,0,0,0,0,0,0,0,0,0,-1,1777,1758,0,0
560,-734,0,0,0,0,0,0,0,0,0,-1,1784,1758,0,0
567,-734,0,0,0,0,0,0,0,0,0,-1,1791,1758,0,0
574,-734,0,0,0,0,0,0,0,0,0,-1,1798,1758,0,0
581,-734,0,0,0,0,0,0,0,0,0,-1,1805,1758,0,0
588,-734,0,0,0,0,0,0,0,0,0,-1,1812,1758,0,0
595,-734,0,0,0,0,0,0,0,0,0,-1,1819,1758,0,0
602,-734,0,0,0,0,0,0,0,0,0,-1,1826,1758,0,0
609,-734,0,0,0,0,0,0,0,0,0,-1,1833,1758,0,0
616,-734,0,0,0,0,0,0,0,0,0,-1,1840,1758,0,0
623,-734,0,0,0,0,0,0,0,0,0,-1,1847,1758,0,0
630,-734,0,0,0,0,0,0,0,0,0,-1,1854,1758,0,0
637,-734,0,0,0,0,0,0,0,0,0,-1,1861,1758,0,0
644,-734,0,0,0,0,0,0,0,0,0,-1,1868,1758,0,0
651,-734,0,0,0,0,0,0,0,0,0,-1,1875,1758,0,0
658,-734,0,0,0,0,0,0,0,0,0,-1,1882,1758,0,0
665,-734,0,0,0,0,0,0,0,0,0,-1,1889,1758,0,0
672,-734,0,0,0,0,0,0,0,0,0,-1,1896,1758,0,0
679,-734,0,0,0,0,0,0,0,0,0,-1,1903,1758,0,0
686,-734,0,0,0,0,0,0,0,0,0,-1,1910,1758,0,0
693,-734,0,0,0,0,0,0,0,0,0,-1,1917,1758,0,0
700,-734,0,0,0,0,0,0,0,0,0,-1,1924,1758,0,0
707,-734,0,0,0,0,0,0,0,0,0,-1,1931,1758,0,0
714,-734,0,0,0,0,0,0,0,0,0,-1,1938,1758,0,0
721,-734,0,0,0,0,0,0,0,0,0,-1,1945,1758,0,0
728,-734,0,0,0,0,0,0,0,0,0,-1,1952,1758,0,0
735,-734,0,0,0,0,0,0,0,0,0,-1,1959,1758,0,0
742,-734,0,0,0,0,0,0,0,0,0,-1,1966,1758,0,0
749,-734,0,0,0,0,0,0,0,0,0,-1,1973,1758,0,0
756,-734,0,0,0,0,0,0,0,0,0,-1,1980,1758,0,0
763,-734,0,0,0,0,0,0,0,0,0,-1,1987,1758,0,0
770,-734,0,0,0,0,0,0,0,0,0,-1,1994,1758,0,0
777,-734,0,0,0,0,0,0,0,0,0,-1,2001,1758,0,0
784,-734,0,0,0,0,0,0,0,0,0,-1,2008,1758,0,0
791,-734,0,0,0,0,0,0,0,0,0,-1,2015,1758,0,0
798,-734,0,0,0,0,0,0,0,0,0,-1,2022,1758,0,0
805,-734,0,0,0,0,0,0,0,0,0,-1,2029,1758,0,0
812,-734,0,0,0,0,0,0,0,0,0,-1,2036,1758,0,0
-700,-741,0,0,0,0,0,0,0,0,0,-1,524,1765,0,0
-693,-741,0,0,0,0,0,0,0,0,0,-1,531,1765,0,0
-686,-741,0,0,0,0,0,0,0,0,0,-1,538,1765,0,0
-679,-741,0,0,0,0,0,0,0,0,0,-1,545,1765,0,0
-672,-741,0,0,0,0,0,0,0,0,0,-1,552,1765,0,0
-665,-741,0,0,0,0,0,0,0,0,0,-1,559,1765,0,0
-658,-741,0,0,0,0,0,0,0,0,0,-1,566,1765,0,0
-651,-741,0,0,0,0,0,0,0,0,0,-1,573,1765,0,0
-644,-741,0,0,0,0,0,0,0,0,0,-1,580,1765,0,0
-637,-741,0,0,0,0,0,0,0,0,0,-1,587,1765,0,0
-630,-741,0,0,0,0,0,0,0,0,0,-1,594,1765,0,0
-623,-741,0,0,0,0,0,0,0,0,0,-1,601,1765,0,0
-616,-741,0,0,0,0,0,0,0,0,0,-1,608,1765,0,0
-609,-741,0,0,0,0,0,0,0,0,0,-1,615,1765,0,0
-602,-741,0,0,0,0,0,0,0,0,0,-1,622,1765,0,0
-595,-741,0,0,0,0,0,0,0,0,0,-1,629,1765,0,0
-588,-741,0,0,0,0,0,0,0,0,0,-1,636,1765,0,0
-581,-741,0,0,0,0,0,0,0,0,0,-1,643,1765,0,0
-574,-741,0,0,0,0,0,0,0,0,0,-1,650,1765,0,0
-567,-741,0,0,0,0,0,0,0,0,0,-1,657,1765,0,0
-560,-741,0,0,0,0,0,0,0,0,0,-1,664,1765,0,0
-553,-741,0,0,0,0,0,0,0,0,0,-1,671,1765,0,0
-546,-741,0,0,0,0,0,0,0,0,0,-1,678,1765,0,0
-539,-741,0,0,0,0,0,0,0,0,0,-1,685,1765,0,0
-532,-741,0,0,0,0,0,0,0,0,0,-1,692,1765,0,0
-525,-741,0,0,0,0,0,0,0,0,0,-1,699,1765,0,0
-518,-741,0,0,0,0,0,0,0,0,0,-1,706,1765,0,0
-511,-741,0,0,0,0,0,0,0,0,0,-1,713,1765,0,0
-504,-741,0,0,0,0,0,0,0,0,0,-1,720,1765,0,0
-497,-741,0,0,0,0,0,0,0,0,0,-1,727,1765,0,0
-490,-741,0,0,0,0,0,0,0,0,0,-1,734,1765,0,0
-483,-741,0,0,0,0,0,0,0,0,0,-1,741,1765,0,0
-476,-741,0,0,0,0,0,0,0,0,0,-1,748,1765,0,0
-469,-741,0,0,0,0,0,0,0,0,0,-1,755,1765,0,0
-462,-741,0,0,0,0,0,0,0,0,0,-1,762,1765,0,0
-455,-741,0,0,0,0,0,0,0,0,0,-1,769,1765,0,0
-448,-741,0,0,0,0,0,0,0,0,0,-1,776,1765,0,0
-441,-741,0,0,0,0,0,0,0,0,0,-1,783,1765,0,0
-434,-741,0,0,0,0,0,0,0,0,0,-1,790,1765,0,0
-427,-741,0,0,0,0,0,0,0,0,0,-1,797,1765,0,0
-420,-741,0,0,0,0,0,0,0,0,0,-1,804,1765,0,0
-413,-741,0,0,0,0,0,0,0,0,0,-1,811,1765,0,0
-406,-741,0,0,0,0,0,0,0,0,0,-1,818,1765,0,0
-399,-741,0,0,0,0,0,0,0,0,0,-1,825,1765,0,0
-392,-741,0,0,0,0,0,0,0,0,0,-1,832,1765,0,0
-385,-741,0,0,0,0,0,0,0,0,0,-1,839,1765,0,0
-378,-741,0,0,0,0,0,0,0,0,0,-1,846,1765,0,0
-371,-741,0,0,0,0,0,0,0,0,0,-1,853,1765,0,0
-364,-741,0,0,0,0,0,0,0,0,0,-1,860,1765,0,0
-357,-741,0,0,0,0,0,0,0,0,0,-1,867,1765,0,0
-350,-741,0,0,0,0,0,0,0,0,0,-1,874,1765,0,0
-343,-741,0,0,0,0,0,0,0,0,0,-1,881,1765,0,0
-336,-741,0,0,0,0,0,0,0,0,0,-1,888,1765,0,0
-329,-741,0,0,0,0,0,0,0,0,0,-1,895,1765,0,0
-322,-741,0,0,0,0,0,0,0,0,0,-1,902,1765,0,0
-315,-741,0,0,0,0,0,0,0,0,0,-1,909,1765,0,0
-308,-741,0,0,0,0,0,0,0,0,0,-1,916,1765,0,0
-301,-741,0,0,0,0,0,0,0,0,0,-1,923,1765,0,0
-294,-741,0,0,0,0,0,0,0,0,0,-1,930,1765,0,0
-287,-741,0,0,0,0,0,0,0,0,0,-1,937,1765,0,0
-280,-741,0,0,0,0,0,0,0,0,0,-1,944,1765,0,0
-273,-741,0,0,0,0,0,0,0,0,0,-1,951,1765,0,0
-266,-741,0,0,0,0,0,0,0,0,0,-1,958,1765,0,0
-259,-741,0,0,0,0,0,0,0,0,0,-1,965,1765,0,0
-252,-741,0,0,0,0,0,0,0,0,0,-1,972,1765,0,0
-245,-741,0,0,0,0,0,0,0,0,0,-1,979,1765,0,0
-238,-741,4.71777,14.9655,0,0,0,0,0,0,0,-1,986,1765,4.71776,-14.9654
-231,-741,6.49927,15.5663,0,0,0,0,0,0,0,-1,993,1765,6.49927,-15.5663
-224,-741,6.26501,16.5385,0,0,0,0,0,0,0,-1,1000,1765,6.26501,-16.5384
-217,-741,4.33527,34.0656,0,0,0,0,0,0,0,-1,1007,1765,4.33525,-34.0655
-210,-741,4.74048,34.3195,0,0,0,0,0,0,0,-1,1014,1765,4.7405,-34.3194
-203,-741,4.63757,33.5281,0,0,0,0,0,0,0,-1,1021,1765,4.63754,-33.5281
-196,-741,5.0509,34.1676,0,0,0,0,0,0,0,-1,1028,1765,5.05086,-34.1676
-189,-741,7.14319,22.3441,0,0,0,0,0,0,0,-1,1035,1765,7.1432,-22.3441
-182,-741,7.4458,23.6536,0,0,0,0,0,0,0,-1,1042,1765,7.44582,-23.6536
-175,-741,7.26477,24.616,0,0,0,0,0,0,0,-1,1049,1765,7.26471,-24.616
-168,-741,5.4801,16.3933,0,0,0,0,0,0,0,-1,1056,1765,5.4801,-16.3933
-161,-741,3.73047,14.4974,0,0,0,0,0,0,0,-1,1063,1765,3.73043,-14.4974
-154,-741,2.46143,9.75415,0,0,0,0,0,0,0,-1,1070,1765,2.46145,-9.75416
-147,-741,9.35718,33.0258,0,0,0,0,0,0,0,-1,1077,1765,9.35718,-33.0258
-140,-741,8.56543,32.2886,0,0,0,0,0,0,0,-1,1084,1765,8.56541,-32.2886
-133,-741,8.61401,34.9207,0,0,0,0,0,0,0,-1,1091,1765,8.61407,-34.9207
-126,-741,8.1803,35.0374,0,0,0,0,0,0,0,-1,1098,1765,8.18032,-35.0374
-119,-741,7.94714,35.3076,0,0,0,0,0,0,0,-1,1105,1765,7.94713,-35.3076
-112,-741,8.09131,35.5721,0,0,0,0,0,0,0,-1,1112,1765,8.09131,-35.5721
-105,-741,8.26038,35.6638,0,0,0,0,0,0,0,-1,1119,1765,8.26037,-35.6638
-98,-741,8.35876,35.8059,0,0,0,0,0,0,0,-1,1126,1765,8.35881,-35.8059
-91,-741,8.2334,35.7352,0,0,0,0,0,0,0,-1,1133,1765,8.23344,-35.7353
-84,-741,7.8877,35.0892,0,0,0,0,0,0,0,-1,1140,1765,7.88776,-35.0892
-77,-741,7.73303,34.1174,0,0,0,0,0,0,0,-1,1147,1765,7.73304,-34.1174
-70,-741,7.5437,32.0275,0,0,0,0,0,0,0,-1,1154,1765,7.5437,-32.0275
-63,-741,8.07935,36.7572,0,0,0,0,0,0,0,-1,1161,1765,8.07937,-36.7572
-56,-741,8.09656,37.0651,0,0,0,0,0,0,0,-1,1168,1765,8.09657,-37.065
-49,-741,8.09106,37.2668,0,0,0,0,0,0,0,-1,1175,1765,8.09103,-37.2668
-42,-741,8.01501,37.3706,0,0,0,0,0,0,0,-1,1182,1765,8.01505,-37.3706
-35,-741,8.03394,37.5034,-0.000618517,0.000675359,-0.00015155,0.000692873,-0.000636031,-1.45574,0.000767477,0.024245,1189,1765,8.03395,-37.5034
-28,-741,8.03125,37.6626,-0.000156368,0.000774626,-0.000409588,0.000929169,-0.000310911,-1.21,0.000745031,0.0143456,1196,1765,8.03131,-37.6626
-21,-741,8.01294,37.7803,-6.7858e-05,0.000413407,-0.000686588,0.00090031,-0.000554761,-0.953947,0.000847945,0.0181103,1203,1765,8.01299,-37.7803
-14,-741,7.96301,37.8856,-2.33235e-05,0.000262774,-0.000977208,0.00110735,-0.000867897,-0.858075,0.0011432,0.0184888,1210,1765,7.96296,-37.8856
-7,-741,7.9646,37.9567,-8.31635e-05,0.000113612,-0.00127307,0.00129209,-0.00126164,-0.823963,0.00147444,0.0166411,1217,1765,7.96461,-37.9566
0,-741,7.94702,38.0645,-0.000207212,3.52186e-06,-0.0015012,0.00140305,-0.00160674,-0.820435,0.00173903,0.016454,1224,1765,7.94708,-38.0645
7,-741,7.90161,38.1486,-0.00041147,-0.000134866,-0.00170058,0.00143303,-0.00197936,-0.825972,0.00197854,0.0181331,1231,1765,7.90156,-38.1485
14,-741,7.896,38.2534,-0.000632907,-0.000329134,-0.00181388,0.0013392,-0.00230125,-0.827169,0.00212614,0.0164672,1238,1765,7.89596,-38.2534
21,-741,7.86792,38.3019,-0.000796779,-0.000503174,-0.0020283,0.00138363,-0.00268358,-0.821524,0.00238785,0.0121545,1245,1765,7.86795,-38.3019
28,-741,7.84631,38.3708,-0.000958307,-0.000724006,-0.00211499,0.00127708,-0.00295939,-0.813065,0.00250939,0.0123571,1252,1765,7.84637,-38.3709
35,-741,7.85437,38.411,-0.00108282,-0.000881392,-0.00217297,0.0011932,-0.00315741,-0.808556,0.00259576,0.0139624,1259,1765,7.85436,-38.411
42,-741,7.83936,38.4429,-0.00107917,-0.00116905,-0.00212407,0.00100044,-0.00324866,-0.774821,0.00256513,0.0153098,1266,1765,7.8394,-38.4429
49,-741,7.8042,38.4807,-0.000843798,-0.0017022,-0.00201603,0.000788212,-0.00333421,-0.680517,0.00252686,0.0101407,1273,1765,7.80424,-38.4807
56,-741,7.77441,38.5088,-0.000742615,-0.0021124,-0.00185411,0.000549057,-0.00340408,-0.608476,0.00247281,0.0100145,1280,1765,7.77442,-38.5088
63,-741,7.7688,38.4938,-3.08336e-05,-0.00302177,-0.00147042,0.000570971,-0.00362357,-0.388476,0.00262681,0.0146498,1287,1765,7.7688,-38.4937
70,-741,7.74963,38.5188,0.00122897,0.00182937,-0.0026696,0.0042156,-0.00115726,-0.841388,0.00326524,0.0163404,1294,1765,7.74958,-38.5187
77,-741,7.70654,38.5375,0.00285577,0.00275818,-0.00278328,0.00559068,2.32731e-05,-0.776633,0.00371939,0.0135202,1301,1765,7.70655,-38.5374
84,-741,7.69128,38.5037,0.00433699,0.00478821,-0.00302742,0.00759841,0.00152679,-0.82259,0.00464116,0.015837,1308,1765,7.69133,-38.5037
91,-741,7.67371,38.4784,0.00595522,0.00708851,-0.0033582,0.00992754,0.00311619,-0.868979,0.00586252,0.0131193,1315,1765,7.67373,-38.4784
98,-741,7.67493,38.4381,0.00757042,0.00939379,-0.00376053,0.0123516,0.00461265,-0.904322,0.00720692,0.0102329,1322,1765,7.67489,-38.4381
105,-741,7.69043,38.3893,0.00886271,0.0115745,-0.00419749,0.0146296,0.00580755,-0.94162,0.00850599,0.0112844,1329,1765,7.69045,-38.3893
112,-741,7.70935,38.3029,0.00997728,0.0134726,-0.00459622,0.0166422,0.00680766,-0.967074,0.0096612,0.0118564,1336,1765,7.70929,-38.3029
119,-741,7.6626,38.202,0.0107181,0.0147786,-0.00496252,0.0181101,0.00738662,-0.979568,0.0105149,0.0141155,1343,1765,7.66262,-38.202
126,-741,7.64392,38.1195,0.011111,0.0152351,-0.00495223,0.0185375,0.00780869,-0.982676,0.0107468,0.0179905,1350,1765,7.64394,-38.1195
133,-741,7.63806,38.0403,0.0110105,0.0147696,-0.00483643,0.0180789,0.00770122,-0.970729,0.0104759,0.0144873,1357,1765,7.63803,-38.0403
140,-741,7.60022,37.9553,0.0104788,0.013321,-0.00443756,0.0165595,0.00724034,-0.940361,0.00958569,0.010923,1364,1765,7.60017,-37.9554
147,-741,7.57666,37.8915,0.00957209,0.0116123,-0.00393044,0.0146529,0.00653155,-0.91237,0.00847643,0.00979689,1371,1765,7.57668,-37.8914
154,-741,7.55212,37.8204,0.00821687,0.0100723,-0.00345579,0.0127228,0.00556645,-0.916534,0.00736458,0.00832012,1378,1765,7.5521,-37.8204
161,-741,7.53918,37.6891,0.00695081,0.00793899,-0.00293496,0.0104212,0.00446864,-0.868789,0.00603696,0.0103958,1385,1765,7.53922,-37.6891
168,-741,7.51233,37.5698,0.00472002,0.00744922,-0.00304795,0.00942411,0.00274514,-0.995872,0.00559679,0.0257122,1392,1765,7.51229,-37.5698
175,-741,7.41626,37.4415,0,0,0,0,0,0,0,-1,1399,1765,7.4163,-37.4416
182,-741,7.47205,37.2776,0,0,0,0,0,0,0,-1,1406,1765,7.47199,-37.2775
189,-741,7.42883,37.1372,0,0,0,0,0,0,0,-1,1413,1765,7.4288,-37.1372
196,-741,7.41565,36.9857,0,0,0,0,0,0,0,-1,1420,1765,7.4156,-36.9857
203,-741,7.38416,36.7783,0,0,0,0,0,0,0,-1,1427,1765,7.38421,-36.7784
210,-741,7.37476,36.3914,0,0,0,0,0,0,0,-1,1434,1765,7.37481,-36.3914
217,-741,7.60364,36.1298,0,0,0,0,0,0,0,-1,1441,1765,7.6036,-36.1297
224,-741,7.65076,35.7399,0,0,0,0,0,0,0,-1,1448,1765,7.65075,-35.7399
231,-741,7.37476,35.7863,0,0,0,0,0,0,0,-1,1455,1765,7.3747,-35.7862
238,-741,7.10803,35.7413,0,0,0,0,0,0,0,-1,1462,1765,7.10804,-35.7414
245,-741,7.17297,35.381,0,0,0,0,0,0,0,-1,1469,1765,7.17295,-35.381
252,-741,7.19678,35.2483,0,0,0,0,0,0,0,-1,1476,1765,7.1968,-35.2483
259,-741,7.30273,35.4082,0,0,0,0,0,0,0,-1,1483,1765,7.30273,-35.4082
266,-741,7.34277,35.2206,0,0,0,0,0,0,0,-1,1490,1765,7.34281,-35.2206
273,-741,7.03821,33.8081,0,0,0,0,0,0,0,-1,1497,1765,7.0382,-33.8081
280,-741,16.2363,9.84546,0,0,0,0,0,0,0,-1,1504,1765,16.2363,-9.84547
287,-741,6.86572,34.726,0,0,0,0,0,0,0,-1,1511,1765,6.86572,-34.726
294,-741,6.63489,32.9935,0,0,0,0,0,0,0,-1,1518,1765,6.63492,-32.9936
301,-741,6.42542,31.2136,0,0,0,0,0,0,0,-1,1525,1765,6.42541,-31.2136
308,-741,6.27148,29.2661,0,0,0,0,0,0,0,-1,1532,1765,6.27154,-29.2661
315,-741,4.604,30.1898,0,0,0,0,0,0,0,-1,1539,1765,4.604,-30.1898
322,-741,9.21252,8.54858,0,0,0,0,0,0,0,-1,1546,1765,9.21251,-8.54858
329,-741,8.5603,10.1146,0,0,0,0,0,0,0,-1,1553,1765,8.56033,-10.1146
336,-741,4.74475,14.6453,0,0,0,0,0,0,0,-1,1560,1765,4.7447,-14.6452
343,-741,5.42297,5.93701,0,0,0,0,0,0,0,-1,1567,1765,5.42296,-5.937
350,-741,4.90369,5.44666,0,0,0,0,0,0,0,-1,1574,1765,4.90368,-5.44664
357,-741,4.02063,5.16626,0,0,0,0,0,0,0,-1,1581,1765,4.02058,-5.1662
364,-741,0,0,0,0,0,0,0,0,0,-1,1588,1765,0,0
371,-741,0,0,0,0,0,0,0,0,0,-1,1595,1765,0,0
378,-741,0,0,0,0,0,0,0,0,0,-1,1602,1765,0,0
385,-741,0,0,0,0,0,0,0,0,0,-1,1609,1765,0,0
392,-741,0,0,0,0,0,0,0,0,0,-1,1616,1765,0,0
399,-741,0,0,0,0,0,0,0,0,0,-1,1623,1765,0,0
406,-741,0,0,0,0,0,0,0,0,0,-1,1630,1765,0,0
413,-741,0,0,0,0,0,0,0,0,0,-1,1637,1765,0,0
420,-741,0,0,0,0,0,0,0,0,0,-1,1644,1765,0,0
427,-741,0,0,0,0,0,0,0,0,0,-1,1651,1765,0,0
434,-741,0,0,0,0,0,0,0,0,0,-1,1658,1765,0,0
441,-741,0,0,0,0,0,0,0,0,0,-1,1665,1765,0,0
448,-741,0,0,0,0,0,0,0,0,0,-1,1672,1765,0,0
455,-741,0,0,0,0,0,0,0,0,0,-1,1679,1765,0,0
462,-741,0,0,0,0,0,0,0,0,0,-1,1686,1765,0,0
469,-741,0,0,0,0,0,0,0,0,0,-1,1693,1765,0,0
476,-741,0,0,0,0,0,0,0,0,0,-1,1700,1765,0,0
483,-741,0,0,0,0,0,0,0,0,0,-1,1707,1765,0,0
490,-741,0,0,0,0,0,0,0,0,0,-1,1714,1765,0,0
497,-741,0,0,0,0,0,0,0,0,0,-1,1721,1765,0,0
504,-741,0,0,0,0,0,0,0,0,0,-1,1728,1765,0,0
511,-741,0,0,0,0,0,0,0,0,0,-1,1735,1765,0,0
518,-741,0,0,0,0,0,0,0,0,0,-1,1742,1765,0,0
525,-741,0,0,0,0,0,0,0,0,0,-1,1749,1765,0,0
532,-741,0,0,0,0,0,0,0,0,0,-1,1756,1765,0,0
539,-741,0,0,0,0,0,0,0,0,0,-1,1763,1765,0,0
546,-741,0,0,0,0,0,0,0,0,0,-1,1770,1765,0,0
553,-741,0,0,0,0,0,0,0,0,0,-1,1777,1765,0,0
560,-741,0,0,0,0,0,0,0,0,0,-1,1784,1765,0,0
567,-741,0,0,0,0,0,0,0,0,0,-1,1791,1765,0,0
574,-741,0,0,0,0,0,0,0,0,0,-1,1798,1765,0,0
581,-741,0,0,0,0,0,0,0,0,0,-1,1805,1765,0,0
588,-741,0,0,0,0,0,0,0,0,0,-1,1812,1765,0,0
595,-741,0,0,0,0,0,0,0,0,0,-1,1819,1765,0,0
602,-741,0,0,0,0,0,0,0,0,0,-1,1826,1765,0,0
609,-741,0,0,0,0,0,0,0,0,0,-1,1833,1765,0,0
616,-741,0,0,0,0,0,0,0,0,0,-1,1840,1765,0,0
623,-741,0,0,0,0,0,0,0,0,0,-1,1847,1765,0,0
630,-741,0,0,0,0,0,0,0,0,0,-1,1854,1765,0,0
637,-741,0,0,0,0,0,0,0,0,0,-1,1861,1765,0,0
644,-741,0,0,0,0,0,0,0,0,0,-1,1868,1765,0,0
651,-741,0,0,0,0,0,0,0,0,0,-1,1875,1765,0,0
658,-741,0,0,0,0,0,0,0,0,0,-1,1882,1765,0,0
665,-741,0,0,0,0,0,0,0,0,0,-1,1889,1765,0,0
672,-741,0,0,0,0,0,0,0,0,0,-1,1896,1765,0,0
679,-741,0,0,0,0,0,0,0,0,0,-1,1903,1765,0,0
686,-741,0,0,0,0,0,0,0,0,0,-1,1910,1765,0,0
693,-741,0,0,0,0,0,0,0,0,0,-1,1917,1765,0,0
700,-741,0,0,0,0,0,0,0,0,0,-1,1924,1765,0,0
707,-741,0,0,0,0,0,0,0,0,0,-1,1931,1765,0,0
714,-741,0,0,0,0,0,0,0,0,0,-1,1938,1765,0,0
721,-741,0,0,0,0,0,0,0,0,0,-1,1945,1765,0,0
728,-741,0,0,0,0,0,0,0,0,0,-1,1952,1765,0,0
735,-741,0,0,0,0,0,0,0,0,0,-1,1959,1765,0,0
742,-741,0,0,0,0,0,0,0,0,0,-1,1966,1765,0,0
749,-741,0,0,0,0,0,0,0,0,0,-1,1973,1765,0,0
756,-741,0,0,0,0,0,0,0,0,0,-1,1980,1765,0,0
763,-741,0,0,0,0,0,0,0,0,0,-1,1987,1765,0,0
770,-741,0,0,0,0,0,0,0,0,0,-1,1994,1765,0,0
777,-741,0,0,0,0,0,0,0,0,0,-1,2001,1765,0,0
784,-741,0,0,0,0,0,0,0,0,0,-1,2008,1765,0,0
791,-741,0,0,0,0,0,0,0,0,0,-1,2015,1765,0,0
798,-741,0,0,0,0,0,0,0,0,0,-1,2022,1765,0,0
805,-741,0,0,0,0,0,0,0,0,0,-1,2029,1765,0,0
812,-741,0,0,0,0,0,0,0,0,0,-1,2036,1765,0,0
-700,-748,0,0,0,0,0,0,0,0,0,-1,524,1772,0,0
-693,-748,0,0,0,0,0,0,0,0,0,-1,531,1772,0,0
-686,-748,0,0,0,0,0,0,0,0,0,-1,538,1772,0,0
-679,-748,0,0,0,0,0,0,0,0,0,-1,545,1772,0,0
-672,-748,0,0,0,0,0,0,0,0,0,-1,552,1772,0,0
-665,-748,0,0,0,0,0,0,0,0,0,-1,559,1772,0,0
-658,-748,0,0,0,0,0,0,0,0,0,-1,566,1772,0,0
-651,-748,0,0,0,0,0,0,0,0,0,-1,573,1772,0,0
-644,-748,0,0,0,0,0,0,0,0,0,-1,580,1772,0,0
-637,-748,0,0,0,0,0,0,0,0,0,-1,587,1772,0,0
-630,-748,0,0,0,0,0,0,0,0,0,-1,594,1772,0,0
-623,-748,0,0,0,0,0,0,0,0,0,-1,601,1772,0,0
-616,-748,0,0,0,0,0,0,0,0,0,-1,608,1772,0,0
-609,-748,0,0,0,0,0,0,0,0,0,-1,615,1772,0,0
-602,-748,0,0,0,0,0,0,0,0,0,-1,622,1772,0,0
-595,-748,0,0,0,0,0,0,0,0,0,-1,629,1772,0,0
-588,-748,0,0,0,0,0,0,0,0,0,-1,636,1772,0,0
-581,-748,0,0,0,0,0,0,0,0,0,-1,643,1772,0,0
-574,-748,0,0,0,0,0,0,0,0,0,-1,650,1772,0,0
-567,-748,0,0,0,0,0,0,0,0,0,-1,657,1772,0,0
-560,-748,0,0,0,0,0,0,0,0,0,-1,664,1772,0,0
-553,-748,0,0,0,0,0,0,0,0,0,-1,671,1772,0,0
-546,-748,0,0,0,0,0,0,0,0,0,-1,678,1772,0,0
-539,-748,0,0,0,0,0,0,0,0,0,-1,685,1772,0,0
-532,-748,0,0,0,0,0,0,0,0,0,-1,692,1772,0,0
-525,-748,0,0,0,0,0,0,0,0,0,-1,699,1772,0,0
-518,-748,0,0,0,0,0,0,0,0,0,-1,706,1772,0,0
-511,-748,0,0,0,0,0,0,0,0,0,-1,713,1772,0,0
-504,-748,0,0,0,0,0,0,0,0,0,-1,720,1772,0,0
-497,-748,0,0,0,0,0,0,0,0,0,-1,727,1772,0,0
-490,-748,0,0,0,0,0,0,0,0,0,-1,734,1772,0,0
-483,-748,0,0,0,0,0,0,0,0,0,-1,741,1772,0,0
-476,-748,0,0,0,0,0,0,0,0,0,-1,748,1772,0,0
-469,-748,0,0,0,0,0,0,0,0,0,-1,755,1772,0,0
-462,-748,0,0,0,0,0,0,0,0,0,-1,762,1772,0,0
-455,-748,0,0,0,0,0,0,0,0,0,-1,769,1772,0,0
-448,-748,0,0,0,0,0,0,0,0,0,-1,776,1772,0,0
-441,-748,0,0,0,0,0,0,0,0,0,-1,783,1772,0,0
-434,-748,0,0,0,0,0,0,0,0,0,-1,790,1772,0,0
-427,-748,0,0,0,0,0,0,0,0,0,-1,797,1772,0,0
-420,-748,0,0,0,0,0,0,0,0,0,-1,804,1772,0,0
-413,-748,0,0,0,0,0,0,0,0,0,-1,811,1772,0,0
-406,-748,0,0,0,0,0,0,0,0,0,-1,818,1772,0,0
-399,-748,0,0,0,0,0,0,0,0,0,-1,825,1772,0,0
-392,-748,0,0,0,0,0,0,0,0,0,-1,832,1772,0,0
-385,-748,0,0,0,0,0,0,0,0,0,-1,839,1772,0,0
-378,-748,0,0,0,0,0,0,0,0,0,-1,846,1772,0,0
-371,-748,0,0,0,0,0,0,0,0,0,-1,853,1772,0,0
-364,-748,0,0,0,0,0,0,0,0,0,-1,860,1772,0,0
-357,-748,0,0,0,0,0,0,0,0,0,-1,867,1772,0,0
-350,-748,0,0,0,0,0,0,0,0,0,-1,874,1772,0,0
-343,-748,0,0,0,0,0,0,0,0,0,-1,881,1772,0,0
-336,-748,0,0,0,0,0,0,0,0,0,-1,888,1772,0,0
-329,-748,0,0,0,0,0,0,0,0,0,-1,895,1772,0,0
-322,-748,0,0,0,0,0,0,0,0,0,-1,902,1772,0,0
-315,-748,0,0,0,0,0,0,0,0,0,-1,909,1772,0,0
-308,-748,0,0,0,0,0,0,0,0,0,-1,916,1772,0,0
-301,-748,0,0,0,0,0,0,0,0,0,-1,923,1772,0,0
-294,-748,0,0,0,0,0,0,0,0,0,-1,930,1772,0,0
-287,-748,0,0,0,0,0,0,0,0,0,-1,937,1772,0,0
-280,-748,0,0,0,0,0,0,0,0,0,-1,944,1772,0,0
-273,-748,0,0,0,0,0,0,0,0,0,-1,951,1772,0,0
-266,-748,0,0,0,0,0,0,0,0,0,-1,958,1772,0,0
-259,-748,0,0,0,0,0,0,0,0,0,-1,965,1772,0,0
-252,-748,0,0,0,0,0,0,0,0,0,-1,972,1772,0,0
-245,-748,0,0,0,0,0,0,0,0,0,-1,979,1772,0,0
-238,-748,0,0,0,0,0,0,0,0,0,-1,986,1772,0,0
-231,-748,0,0,0,0,0,0,0,0,0,-1,993,1772,0,0
-224,-748,0,0,0,0,0,0,0,0,0,-1,1000,1772,0,0
-217,-748,6.45807,16.5496,0,0,0,0,0,0,0,-1,1007,1772,6.45805,-16.5495
-210,-748,8.08215,31.9536,0,0,0,0,0,0,0,-1,1014,1772,8.08215,-31.9537
-203,-748,4.06995,33.8441,0,0,0,0,0,0,0,-1,1021,1772,4.0699,-33.8441
-196,-748,5.15344,22.8755,0,0,0,0,0,0,0,-1,1028,1772,5.15342,-22.8754
-189,-748,7.13208,21.4095,0,0,0,0,0,0,0,-1,1035,1772,7.13211,-21.4095
-182,-748,3.94958,20.8662,0,0,0,0,0,0,0,-1,1042,1772,3.94959,-20.8662
-175,-748,3.56726,19.4518,0,0,0,0,0,0,0,-1,1049,1772,3.5673,-19.4518
-168,-748,3.04858,18.0109,0,0,0,0,0,0,0,-1,1056,1772,3.04853,-18.0108
-161,-748,3.50562,13.2729,0,0,0,0,0,0,0,-1,1063,1772,3.5056,-13.2729
-154,-748,-3.38562,10.6989,0,0,0,0,0,0,0,-1,1070,1772,-3.38564,-10.6989
-147,-748,-6.38733,11.0702,0,0,0,0,0,0,0,-1,1077,1772,-6.38731,-11.0702
-140,-748,7.42126,23.8113,0,0,0,0,0,0,0,-1,1084,1772,7.42133,-23.8113
-133,-748,7.44727,22.0308,0,0,0,0,0,0,0,-1,1091,1772,7.44728,-22.0308
-126,-748,5.98035,22.6067,0,0,0,0,0,0,0,-1,1098,1772,5.9803,-22.6067
-119,-748,6.63342,26.309,0,0,0,0,0,0,0,-1,1105,1772,6.6334,-26.3089
-112,-748,6.91333,24.923,0,0,0,0,0,0,0,-1,1112,1772,6.91339,-24.923
-105,-748,6.83313,25.0537,0,0,0,0,0,0,0,-1,1119,1772,6.83311,-25.0537
-98,-748,8.13623,30.8743,0,0,0,0,0,0,0,-1,1126,1772,8.13628,-30.8742
-91,-748,4.85352,15.3033,0,0,0,0,0,0,0,-1,1133,1772,4.85351,-15.3033
-84,-748,-0.192017,7.26196,0,0,0,0,0,0,0,-1,1140,1772,-0.192047,-7.26201
-77,-748,4.42615,13.5537,0,0,0,0,0,0,0,-1,1147,1772,4.4261,-13.5538
-70,-748,4.46191,13.7446,0,0,0,0,0,0,0,-1,1154,1772,4.4619,-13.7446
-63,-748,4.49768,13.9355,0,0,0,0,0,0,0,-1,1161,1772,4.49769,-13.9355
-56,-748,3.05762,7.87817,0,0,0,0,0,0,0,-1,1168,1772,3.05768,-7.87822
-49,-748,3.04102,7.82471,0,0,0,0,0,0,0,-1,1175,1772,3.04096,-7.82468
-42,-748,0.793457,14.9474,0,0,0,0,0,0,0,-1,1182,1772,0.793413,-14.9474
-35,-748,8.18591,37.4589,0,0,0,0,0,0,0,-1,1189,1772,8.18586,-37.4589
-28,-748,8.14807,37.6967,0.00214146,0.00182317,8.76599e-05,0.002164,0.00180063,0.251739,0.00133809,0.049072,1196,1772,8.14806,-37.6967
-21,-748,8.1366,37.812,0.00236616,0.00137768,-0.000345814,0.00247513,0.00126872,-0.305259,0.00142917,0.023567,1203,1772,8.1366,-37.812
-14,-748,8.09143,37.8607,0.00228226,0.00108202,-0.000759715,0.00265029,0.000713991,-0.451113,0.00158346,0.0160897,1210,1772,8.09145,-37.8607
-7,-748,8.0675,37.9471,0.00206039,0.000675365,-0.00122014,0.00277085,-3.50932e-05,-0.527284,0.00185904,0.0163762,1217,1772,8.06751,-37.9471
0,-748,8.02393,38.0251,0.00170487,0.000212689,-0.00164991,0.00276954,-0.000851983,-0.573057,0.00218641,0.0159945,1224,1772,8.02388,-38.0251
7,-748,7.99182,38.1086,0.0012089,-0.000302026,-0.0020698,0.0026568,-0.00174992,-0.610414,0.00256212,0.0146589,1231,1772,7.99186,-38.1086
14,-748,7.95752,38.2202,0.000755858,-0.000918447,-0.00233215,0.00239656,-0.00255915,-0.61308,0.00286169,0.0157596,1238,1772,7.95749,-38.2202
21,-748,7.94336,38.2903,0.000403159,-0.00152745,-0.00269813,0.00230346,-0.00342776,-0.613609,0.00333008,0.0117998,1245,1772,7.94335,-38.2903
28,-748,7.89966,38.3616,0.000117611,-0.0022077,-0.00286899,0.00205058,-0.00414067,-0.592886,0.00364178,0.011847,1252,1772,7.89962,-38.3616
35,-748,7.89404,38.4106,-0.000124905,-0.00266394,-0.00298755,0.00185167,-0.00464052,-0.58449,0.00386183,0.0119371,1259,1772,7.89406,-38.4106
42,-748,7.86218,38.4569,-7.111e-05,-0.00334362,-0.00289624,0.00161912,-0.00503385,-0.528271,0.0040062,0.0130953,1266,1772,7.86219,-38.4568
49,-748,7.83716,38.4523,0.000377212,-0.00436644,-0.00267381,0.00157957,-0.0055688,-0.422589,0.00433605,0.00993881,1273,1772,7.83718,-38.4523
56,-748,7.79602,38.4849,0.000670724,-0.00516189,-0.00238241,0.00152015,-0.00601132,-0.342489,0.00459879,0.0101503,1280,1772,7.79601,-38.4849
63,-748,7.79321,38.4755,0.00180368,-0.00665762,-0.00179324,0.00216804,-0.00702198,-0.200456,0.00554707,0.012967,1287,1772,7.79326,-38.4755
70,-748,7.77002,38.4797,0.00364036,-0.000836149,-0.00320315,0.00530978,-0.00250558,-0.48045,0.004608,0.0140702,1294,1772,7.77007,-38.4797
77,-748,7.72266,38.4923,0.00594257,3.3143e-05,-0.00322389,0.00736093,-0.00138522,-0.414468,0.00542827,0.0126709,1301,1772,7.72263,-38.4923
84,-748,7.67139,38.5022,0.00806986,0.00233821,-0.00340197,0.00965222,0.000755853,-0.435365,0.00619824,0.0144241,1308,1772,7.6714,-38.5022
91,-748,7.65869,38.4756,0.0104116,0.00512471,-0.00374587,0.0123529,0.00318347,-0.478127,0.00740579,0.0119542,1315,1772,7.65873,-38.4756
98,-748,7.6344,38.4214,0.012708,0.00806756,-0.00422153,0.0152049,0.00557066,-0.534122,0.00888246,0.0108845,1322,1772,7.63441,-38.4214
105,-748,7.63562,38.3571,0.0145904,0.0110389,-0.00477675,0.0179108,0.00771851,-0.607443,0.0103736,0.0119544,1329,1772,7.63561,-38.3571
112,-748,7.63672,38.2834,0.0162368,0.0137922,-0.0053377,0.0204903,0.0095386,-0.67284,0.0118395,0.0151031,1336,1772,7.63671,-38.2834
119,-748,7.62122,38.2198,0.0173702,0.0160351,-0.00595726,0.0226972,0.0107081,-0.729602,0.0131112,0.012808,1343,1772,7.62123,-38.2199
126,-748,7.59033,38.1582,0.0180296,0.0172784,-0.00607175,0.0237374,0.0115706,-0.754507,0.0137062,0.0135282,1350,1772,7.59035,-38.1582
133,-748,7.54333,38.0745,0.0180025,0.0172789,-0.00606816,0.0237196,0.0115617,-0.755623,0.013696,0.00844667,1357,1772,7.54328,-38.0745
140,-748,7.49744,38.0033,0.0174058,0.0154863,-0.00557731,0.0221054,0.0107868,-0.700191,0.0127638,0.0108649,1364,1772,7.49744,-38.0033
147,-748,7.49829,37.9088,0.0162521,0.0135683,-0.0050043,0.0200913,0.00972913,-0.654406,0.0116016,0.0128713,1371,1772,7.49827,-37.9088
154,-748,7.4436,37.8093,0.014438,0.0120382,-0.00445672,0.0178535,0.00862271,-0.653898,0.0103097,0.0115125,1378,1772,7.44364,-37.8093
161,-748,7.40283,37.7101,0.0127233,0.00908619,-0.00368748,0.0150163,0.00679321,-0.556314,0.00868274,0.0176812,1385,1772,7.40278,-37.71
168,-748,7.42688,37.6046,0,0,0,0,0,0,0,-1,1392,1772,7.42693,-37.6046
175,-748,11.6235,16.8242,0,0,0,0,0,0,0,-1,1399,1772,11.6236,-16.8242
182,-748,7.62476,10.3058,0,0,0,0,0,0,0,-1,1406,1772,7.62476,-10.3058
189,-748,6.15857,6.95898,0,0,0,0,0,0,0,-1,1413,1772,6.15862,-6.95896
196,-748,3.9425,8.46021,0,0,0,0,0,0,0,-1,1420,1772,3.9425,-8.46026
203,-748,3.9668,12.9835,0,0,0,0,0,0,0,-1,1427,1772,3.96678,-12.9836
210,-748,4.71472,16.8318,0,0,0,0,0,0,0,-1,1434,1772,4.71471,-16.8317
217,-748,5.38452,21.5551,0,0,0,0,0,0,0,-1,1441,1772,5.38455,-21.555
224,-748,6.14258,25.2345,0,0,0,0,0,0,0,-1,1448,1772,6.14263,-25.2345
231,-748,6.46045,29.7867,0,0,0,0,0,0,0,-1,1455,1772,6.46049,-29.7867
238,-748,7.41565,32.8574,0,0,0,0,0,0,0,-1,1462,1772,7.41562,-32.8574
245,-748,7.84912,32.0914,0,0,0,0,0,0,0,-1,1469,1772,7.84914,-32.0914
252,-748,6.81824,34.2231,0,0,0,0,0,0,0,-1,1476,1772,6.81823,-34.2232
259,-748,7.11548,35.5488,0,0,0,0,0,0,0,-1,1483,1772,7.11548,-35.5488
266,-748,7.0072,32.5728,0,0,0,0,0,0,0,-1,1490,1772,7.00718,-32.5728
273,-748,16.4131,7.57129,0,0,0,0,0,0,0,-1,1497,1772,16.413,-7.57125
280,-748,15.2177,7.24829,0,0,0,0,0,0,0,-1,1504,1772,15.2176,-7.24833
287,-748,14.161,8.32813,0,0,0,0,0,0,0,-1,1511,1772,14.161,-8.32808
294,-748,6.38525,32.4724,0,0,0,0,0,0,0,-1,1518,1772,6.38521,-32.4725
301,-748,6.24658,30.7585,0,0,0,0,0,0,0,-1,1525,1772,6.24657,-30.7586
308,-748,9.92456,7.80225,0,0,0,0,0,0,0,-1,1532,1772,9.92453,-7.80224
315,-748,8.91541,8.29773,0,0,0,0,0,0,0,-1,1539,1772,8.91544,-8.29773
322,-748,7.83618,8.87122,0,0,0,0,0,0,0,-1,1546,1772,7.83613,-8.87124
329,-748,3.48315,14.6533,0,0,0,0,0,0,0,-1,1553,1772,3.48316,-14.6534
336,-748,3.76001,15.8163,0,0,0,0,0,0,0,-1,1560,1772,3.75995,-15.8163
343,-748,0,0,0,0,0,0,0,0,0,-1,1567,1772,0,0
350,-748,0,0,0,0,0,0,0,0,0,-1,1574,1772,0,0
357,-748,0,0,0,0,0,0,0,0,0,-1,1581,1772,0,0
364,-748,0,0,0,0,0,0,0,0,0,-1,1588,1772,0,0
371,-748,0,0,0,0,0,0,0,0,0,-1,1595,1772,0,0
378,-748,0,0,0,0,0,0,0,0,0,-1,1602,1772,0,0
385,-748,0,0,0,0,0,0,0,0,0,-1,1609,1772,0,0
392,-748,0,0,0,0,0,0,0,0,0,-1,1616,1772,0,0
399,-748,0,0,0,0,0,0,0,0,0,-1,1623,1772,0,0
406,-748,0,0,0,0,0,0,0,0,0,-1,1630,1772,0,0
413,-748,0,0,0,0,0,0,0,0,0,-1,1637,1772,0,0
420,-748,0,0,0,0,0,0,0,0,0,-1,1644,1772,0,0
427,-748,0,0,0,0,0,0,0,0,0,-1,1651,1772,0,0
434,-748,0,0,0,0,0,0,0,0,0,-1,1658,1772,0,0
441,-748,0,0,0,0,0,0,0,0,0,-1,1665,1772,0,0
448,-748,0,0,0,0,0,0,0,0,0,-1,1672,1772,0,0
455,-748,0,0,0,0,0,0,0,0,0,-1,1679,1772,0,0
462,-748,0,0,0,0,0,0,0,0,0,-1,1686,1772,0,0
469,-748,0,0,0,0,0,0,0,0,0,-1,1693,1772,0,0
476,-748,0,0,0,0,0,0,0,0,0,-1,1700,1772,0,0
483,-748,0,0,0,0,0,0,0,0,0,-1,1707,1772,0,0
490,-748,0,0,0,0,0,0,0,0,0,-1,1714,1772,0,0
497,-748,0,0,0,0,0,0,0,0,0,-1,1721,1772,0,0
504,-748,0,0,0,0,0,0,0,0,0,-1,1728,1772,0,0
511,-748,0,0,0,0,0,0,0,0,0,-1,1735,1772,0,0
518,-748,0,0,0,0,0,0,0,0,0,-1,1742,1772,0,0
525,-748,0,0,0,0,0,0,0,0,0,-1,1749,1772,0,0
532,-748,0,0,0,0,0,0,0,0,0,-1,1756,1772,0,0
539,-748,0,0,0,0,0,0,0,0,0,-1,1763,1772,0,0
546,-748,0,0,0,0,0,0,0,0,0,-1,1770,1772,0,0
553,-748,0,0,0,0,0,0,0,0,0,-1,1777,1772,0,0
560,-748,0,0,0,0,0,0,0,0,0,-1,1784,1772,0,0
567,-748,0,0,0,0,0,0,0,0,0,-1,1791,1772,0,0
574,-748,0,0,0,0,0,0,0,0,0,-1,1798,1772,0,0
581,-748,0,0,0,0,0,0,0,0,0,-1,1805,1772,0,0
588,-748,0,0,0,0,0,0,0,0,0,-1,1812,1772,0,0
595,-748,0,0,0,0,0,0,0,0,0,-1,1819,1772,0,0
602,-748,0,0,0,0,0,0,0,0,0,-1,1826,1772,0,0
609,-748,0,0,0,0,0,0,0,0,0,-1,1833,1772,0,0
616,-748,0,0,0,0,0,0,0,0,0,-1,1840,1772,0,0
623,-748,0,0,0,0,0,0,0,0,0,-1,1847,1772,0,0
630,-748,0,0,0,0,0,0,0,0,0,-1,1854,1772,0,0
637,-748,0,0,0,0,0,0,0,0,0,-1,1861,1772,0,0
644,-748,0,0,0,0,0,0,0,0,0,-1,1868,1772,0,0
651,-748,0,0,0,0,0,0,0,0,0,-1,1875,1772,0,0
658,-748,0,0,0,0,0,0,0,0,0,-1,1882,1772,0,0
665,-748,0,0,0,0,0,0,0,0,0,-1,1889,1772,0,0
672,-748,0,0,0,0,0,0,0,0,0,-1,1896,1772,0,0
679,-748,0,0,0,0,0,0,0,0,0,-1,1903,1772,0,0
686,-748,0,0,0,0,0,0,0,0,0,-1,1910,1772,0,0
693,-748,0,0,0,0,0,0,0,0,0,-1,1917,1772,0,0
700,-748,0,0,0,0,0,0,0,0,0,-1,1924,1772,0,0
707,-748,0,0,0,0,0,0,0,0,0,-1,1931,1772,0,0
714,-748,0,0,0,0,0,0,0,0,0,-1,1938,1772,0,0
721,-748,0,0,0,0,0,0,0,0,0,-1,1945,1772,0,0
728,-748,0,0,0,0,0,0,0,0,0,-1,1952,1772,0,0
735,-748,0,0,0,0,0,0,0,0,0,-1,1959,1772,0,0
742,-748,0,0,0,0,0,0,0,0,0,-1,1966,1772,0,0
749,-748,0,0,0,0,0,0,0,0,0,-1,1973,1772,0,0
756,-748,0,0,0,0,0,0,0,0,0,-1,1980,1772,0,0
763,-748,0,0,0,0,0,0,0,0,0,-1,1987,1772,0,0
770,-748,0,0,0,0,0,0,0,0,0,-1,1994,1772,0,0
777,-748,0,0,0,0,0,0,0,0,0,-1,2001,1772,0,0
784,-748,0,0,0,0,0,0,0,0,0,-1,2008,1772,0,0
791,-748,0,0,0,0,0,0,0,0,0,-1,2015,1772,0,0
798,-748,0,0,0,0,0,0,0,0,0,-1,2022,1772,0,0
805,-748,0,0,0,0,0,0,0,0,0,-1,2029,1772,0,0
812,-748,0,0,0,0,0,0,0,0,0,-1,2036,1772,0,0
-700,-755,0,0,0,0,0,0,0,0,0,-1,524,1779,0,0
-693,-755,0,0,0,0,0,0,0,0,0,-1,531,1779,0,0
-686,-755,0,0,0,0,0,0,0,0,0,-1,538,1779,0,0
-679,-755,0,0,0,0,0,0,0,0,0,-1,545,1779,0,0
-672,-755,0,0,0,0,0,0,0,0,0,-1,552,1779,0,0
-665,-755,0,0,0,0,0,0,0,0,0,-1,559,1779,0,0
-658,-755,0,0,0,0,0,0,0,0,0,-1,566,1779,0,0
-651,-755,0,0,0,0,0,0,0,0,0,-1,573,1779,0,0
-644,-755,0,0,0,0,0,0,0,0,0,-1,580,1779,0,0
-637,-755,0,0,0,0,0,0,0,0,0,-1,587,1779,0,0
-630,-755,0,0,0,0,0,0,0,0,0,-1,594,1779,0,0
-623,-755,0,0,0,0,0,0,0,0,0,-1,601,1779,0,0
-616,-755,0,0,0,0,0,0,0,0,0,-1,608,1779,0,0
-609,-755,0,0,0,0,0,0,0,0,0,-1,615,1779,0,0
-602,-755,0,0,0,0,0,0,0,0,0,-1,622,1779,0,0
-595,-755,0,0,0,0,0,0,0,0,0,-1,629,1779,0,0
-588,-755,0,0,0,0,0,0,0,0,0,-1,636,1779,0,0
-581,-755,0,0,0,0,0,0,0,0,0,-1,643,1779,0,0
-574,-755,0,0,0,0,0,0,0,0,0,-1,650,1779,0,0
-567,-755,0,0,0,0,0,0,0,0,0,-1,657,1779,0,0
-560,-755,0,0,0,0,0,0,0,0,0,-1,664,1779,0,0
-553,-755,0,0,0,0,0,0,0,0,0,-1,671,1779,0,0
-546,-755,0,0,0,0,0,0,0,0,0,-1,678,1779,0,0
-539,-755,0,0,0,0,0,0,0,0,0,-1,685,1779,0,0
-532,-755,0,0,0,0,0,0,0,0,0,-1,692,1779,0,0
-525,-755,0,0,0,0,0,0,0,0,0,-1,699,1779,0,0
-518,-755,0,0,0,0,0,0,0,0,0,-1,706,1779,0,0
-511,-755,0,0,0,0,0,0,0,0,0,-1,713,1779,0,0
-504,-755,0,0,0,0,0,0,0,0,0,-1,720,1779,0,0
-497,-755,0,0,0,0,0,0,0,0,0,-1,727,1779,0,0
-490,-755,0,0,0,0,0,0,0,0,0,-1,734,1779,0,0
-483,-755,0,0,0,0,0,0,0,0,0,-1,741,1779,0,0
-476,-755,0,0,0,0,0,0,0,0,0,-1,748,1779,0,0
-469,-755,0,0,0,0,0,0,0,0,0,-1,755,1779,0,0
-462,-755,0,0,0,0,0,0,0,0,0,-1,762,1779,0,0
-455,-755,0,0,0,0,0,0,0,0,0,-1,769,1779,0,0
-448,-755,0,0,0,0,0,0,0,0,0,-1,776,1779,0,0
-441,-755,0,0,0,0,0,0,0,0,0,-1,783,1779,0,0
-434,-755,0,0,0,0,0,0,0,0,0,-1,790,1779,0,0
-427,-755,0,0,0,0,0,0,0,0,0,-1,797,1779,0,0
-420,-755,0,0,0,0,0,0,0,0,0,-1,804,1779,0,0
-413,-755,0,0,0,0,0,0,0,0,0,-1,811,1779,0,0
-406,-755,0,0,0,0,0,0,0,0,0,-1,818,1779,0,0
-399,-755,0,0,0,0,0,0,0,0,0,-1,825,1779,0,0
-392,-755,0,0,0,0,0,0,0,0,0,-1,832,1779,0,0
-385,-755,0,0,0,0,0,0,0,0,0,-1,839,1779,0,0
-378,-755,0,0,0,0,0,0,0,0,0,-1,846,1779,0,0
-371,-755,0,0,0,0,0,0,0,0,0,-1,853,1779,0,0
-364,-755,0,0,0,0,0,0,0,0,0,-1,860,1779,0,0
-357,-755,0,0,0,0,0,0,0,0,0,-1,867,1779,0,0
-350,-755,0,0,0,0,0,0,0,0,0,-1,874,1779,0,0
-343,-755,0,0,0,0,0,0,0,0,0,-1,881,1779,0,0
-336,-755,0,0,0,0,0,0,0,0,0,-1,888,1779,0,0
-329,-755,0,0,0,0,0,0,0,0,0,-1,895,1779,0,0
-322,-755,0,0,0,0,0,0,0,0,0,-1,902,1779,0,0
-315,-755,0,0,0,0,0,0,0,0,0,-1,909,1779,0,0
-308,-755,0,0,0,0,0,0,0,0,0,-1,916,1779,0,0
-301,-755,0,0,0,0,0,0,0,0,0,-1,923,1779,0,0
-294,-755,0,0,0,0,0,0,0,0,0,-1,930,1779,0,0
-287,-755,0,0,0,0,0,0,0,0,0,-1,937,1779,0,0
-280,-755,0,0,0,0,0,0,0,0,0,-1,944,1779,0,0
-273,-755,0,0,0,0,0,0,0,0,0,-1,951,1779,0,0
-266,-755,0,0,0,0,0,0,0,0,0,-1,958,1779,0,0
-259,-755,0,0,0,0,0,0,0,0,0,-1,965,1779,0,0
-252,-755,0,0,0,0,0,0,0,0,0,-1,972,1779,0,0
-245,-755,0,0,0,0,0,0,0,0,0,-1,979,1779,0,0
-238,-755,0,0,0,0,0,0,0,0,0,-1,986,1779,0,0
-231,-755,0,0,0,0,0,0,0,0,0,-1,993,1779,0,0
-224,-755,0,0,0,0,0,0,0,0,0,-1,1000,1779,0,0
-217,-755,0,0,0,0,0,0,0,0,0,-1,1007,1779,0,0
-210,-755,0,0,0,0,0,0,0,0,0,-1,1014,1779,0,0
-203,-755,5.47998,25.527,0,0,0,0,0,0,0,-1,1021,1779,5.47993,-25.527
-196,-755,5.18445,23.9307,0,0,0,0,0,0,0,-1,1028,1779,5.1844,-23.9306
-189,-755,4.8175,22.4788,0,0,0,0,0,0,0,-1,1035,1779,4.81745,-22.4788
-182,-755,4.021,20.8032,0,0,0,0,0,0,0,-1,1042,1779,4.02094,-20.8032
-175,-755,3.79993,18.8242,0,0,0,0,0,0,0,-1,1049,1779,3.79995,-18.8242
-168,-755,3.14294,16.9865,0,0,0,0,0,0,0,-1,1056,1779,3.14291,-16.9864
-161,-755,-2.85889,11.5868,0,0,0,0,0,0,0,-1,1063,1779,-2.85887,-11.5868
-154,-755,-5.39026,8.51416,0,0,0,0,0,0,0,-1,1070,1779,-5.3903,-8.51417
-147,-755,-6.45593,10.2422,0,0,0,0,0,0,0,-1,1077,1779,-6.45594,-10.2422
-140,-755,1.33521,21.3856,0,0,0,0,0,0,0,-1,1084,1779,1.33522,-21.3857
-133,-755,2.89417,21.0964,0,0,0,0,0,0,0,-1,1091,1779,2.89422,-21.0964
-126,-755,3.26404,20.9304,0,0,0,0,0,0,0,-1,1098,1779,3.26399,-20.9305
-119,-755,5.17761,21.9325,0,0,0,0,0,0,0,-1,1105,1779,5.17761,-21.9325
-112,-755,5.40247,24.5646,0,0,0,0,0,0,0,-1,1112,1779,5.40244,-24.5646
-105,-755,7.01294,20.1539,0,0,0,0,0,0,0,-1,1119,1779,7.01295,-20.154
-98,-755,5.50708,16.9628,0,0,0,0,0,0,0,-1,1126,1779,5.5071,-16.9628
-91,-755,5.51025,12.0438,0,0,0,0,0,0,0,-1,1133,1779,5.51022,-12.0439
-84,-755,0.169312,8.66443,0,0,0,0,0,0,0,-1,1140,1779,0.16932,-8.66446
-77,-755,-0.0491943,6.87439,0,0,0,0,0,0,0,-1,1147,1779,-0.0491385,-6.87443
-70,-755,4.5686,13.2169,0,0,0,0,0,0,0,-1,1154,1779,4.56865,-13.2169
-63,-755,-1.36316,7.3147,0,0,0,0,0,0,0,-1,1161,1779,-1.36312,-7.31473
-56,-755,0.0483398,5.06079,0,0,0,0,0,0,0,-1,1168,1779,0.0483138,-5.06084
-49,-755,-1.32263,5.33716,0,0,0,0,0,0,0,-1,1175,1779,-1.32264,-5.33718
-42,-755,-2.03613,4.01672,0,0,0,0,0,0,0,-1,1182,1779,-2.0361,-4.01671
-35,-755,-2.72498,2.37476,0,0,0,0,0,0,0,-1,1189,1779,-2.72502,-2.37473
-28,-755,8.14575,37.7711,0,0,0,0,0,0,0,-1,1196,1779,8.14575,-37.7711
-21,-755,8.19238,37.9091,0,0,0,0,0,0,0,-1,1203,1779,8.19239,-37.9091
-14,-755,8.28552,37.875,0.00523095,0.0017854,-0.000363335,0.00526884,0.0017475,-0.103928,0.0030989,0.0323132,1210,1779,8.28547,-37.875
-7,-755,8.13525,37.9149,0.00472991,0.00131951,-0.000990176,0.00499655,0.00105287,-0.263047,0.00304144,0.0226225,1217,1779,8.13522,-37.915
0,-755,8.09082,38.0045,0.0040292,0.000667469,-0.00163106,0.00469048,6.18701e-06,-0.38518,0.00312493,0.0141021,1224,1779,8.09079,-38.0045
7,-755,8.07373,38.1104,0.0031348,-9.57878e-05,-0.00230422,0.00433351,-0.0012945,-0.479695,0.00340357,0.0124881,1231,1779,8.07378,-38.1104
14,-755,8.04199,38.2109,0.0023301,-0.00103174,-0.00278366,0.00390099,-0.00260263,-0.513775,0.00377973,0.0116097,1238,1779,8.04204,-38.211
21,-755,7.96326,38.2769,0.0017042,-0.00198755,-0.00338934,0.00371771,-0.00400106,-0.53605,0.00445744,0.0162288,1245,1779,7.96324,-38.2768
28,-755,7.93262,38.3196,0.00122885,-0.00309195,-0.00372617,0.00337562,-0.00523871,-0.522685,0.00501211,0.0191257,1252,1779,7.93261,-38.3196
35,-755,7.95654,38.405,0.000850814,-0.00387766,-0.00399538,0.00312906,-0.00615591,-0.518235,0.0054548,0.0187595,1259,1779,7.95649,-38.405
42,-755,7.90784,38.4279,0.000954764,-0.00499593,-0.00395163,0.00292593,-0.0069671,-0.462707,0.00586844,0.0138801,1266,1779,7.90782,-38.4279
49,-755,7.88611,38.4033,0.00167404,-0.00662507,-0.0036812,0.00307156,-0.00802259,-0.36283,0.0066144,0.0094449,1273,1779,7.88612,-38.4033
56,-755,7.8302,38.4465,0.00223067,-0.00793776,-0.00330874,0.00321251,-0.0089196,-0.288464,0.00725822,0.00959704,1280,1779,7.83017,-38.4466
63,-755,7.80872,38.4771,0.00396672,-0.0102813,-0.00250817,0.00439535,-0.01071,-0.16926,0.00897147,0.0106118,1287,1779,7.80867,-38.4771
70,-755,7.79565,38.4565,0.00662251,-0.0034286,-0.00419059,0.00814044,-0.00494653,-0.347524,0.00763041,0.0134293,1294,1779,7.79566,-38.4565
77,-755,7.73523,38.4323,0.00991633,-0.00286467,-0.00405475,0.0110942,-0.00404249,-0.2827,0.00904974,0.0121269,1301,1779,7.73518,-38.4323
84,-755,7.70984,38.4626,0.0130031,-0.000463193,-0.00412608,0.0141668,-0.00162687,-0.27489,0.0100309,0.0126451,1308,1779,7.70983,-38.4626
91,-755,7.66858,38.4236,0.016379,0.00261254,-0.00440228,0.0176664,0.00132516,-0.284502,0.0113617,0.0124585,1315,1779,7.66854,-38.4236
98,-755,7.59998,38.39,0.0196894,0.00599709,-0.00485357,0.0212353,0.00445117,-0.308354,0.0129311,0.0131863,1322,1779,7.59997,-38.39
105,-755,7.58752,38.374,0.0225229,0.009593,-0.00543181,0.0245019,0.007614,-0.349388,0.01448,0.0164576,1329,1779,7.58749,-38.374
112,-755,7.54504,38.2834,0.0250852,0.0130755,-0.00606082,0.0276122,0.0105485,-0.395019,0.0160891,0.0213791,1336,1779,7.54505,-38.2834
119,-755,7.53528,38.1903,0.0269676,0.0161199,-0.00684972,0.0302809,0.0128067,-0.450526,0.0175518,0.0211261,1343,1779,7.53525,-38.1903
126,-755,7.50061,38.2297,0.0281878,0.0180188,-0.00699547,0.0317513,0.0144552,-0.471146,0.0183561,0.0233614,1350,1779,7.50062,-38.2297
133,-755,7.38635,38.135,0.0284493,0.0183745,-0.00705506,0.0320808,0.0147431,-0.475364,0.018542,0.0239198,1357,1779,7.38641,-38.135
140,-755,7.3468,38.0409,0.0278729,0.0160399,-0.00640081,0.0306728,0.01324,-0.412348,0.017764,0.0309418,1364,1779,7.34683,-38.0408
147,-755,7.48047,37.9486,0.0266134,0.0137145,-0.00569218,0.0287661,0.0115619,-0.361554,0.0167143,0.0335187,1371,1779,7.48042,-37.9486
154,-755,7.3252,37.9032,0.0244781,0.0122398,-0.00505141,0.0262938,0.0104242,-0.345051,0.0152888,0.0347359,1378,1779,7.32519,-37.9032
161,-755,7.27832,37.7732,0,0,0,0,0,0,0,-1,1385,1779,7.27837,-37.7732
168,-755,3.98181,7.35901,0,0,0,0,0,0,0,-1,1392,1779,3.98184,-7.35904
175,-755,8.17065,1.34363,0,0,0,0,0,0,0,-1,1399,1779,8.1706,-1.34368
182,-755,8.09216,2.96924,0,0,0,0,0,0,0,-1,1406,1779,8.09213,-2.9693
189,-755,8.04419,4.68042,0,0,0,0,0,0,0,-1,1413,1779,8.04419,-4.68046
196,-755,7.74841,7.4541,0,0,0,0,0,0,0,-1,1420,1779,7.74842,-7.45405
203,-755,4.80554,6.88696,0,0,0,0,0,0,0,-1,1427,1779,4.80554,-6.88697
210,-755,25.1694,7.35693,0,0,0,0,0,0,0,-1,1434,1779,25.1694,-7.35688
217,-755,5.01648,16.411,0,0,0,0,0,0,0,-1,1441,1779,5.01646,-16.411
224,-755,5.18103,22.6283,0,0,0,0,0,0,0,-1,1448,1779,5.18101,-22.6283
231,-755,5.7489,30.15,0,0,0,0,0,0,0,-1,1455,1779,5.74885,-30.15
238,-755,6.56323,29.2726,0,0,0,0,0,0,0,-1,1462,1779,6.56327,-29.2726
245,-755,5.76453,29.2085,0,0,0,0,0,0,0,-1,1469,1779,5.76455,-29.2085
252,-755,5.57678,29.0841,0,0,0,0,0,0,0,-1,1476,1779,5.57682,-29.0841
259,-755,5.37292,29.1577,0,0,0,0,0,0,0,-1,1483,1779,5.37293,-29.1577
266,-755,17.255,7.86096,0,0,0,0,0,0,0,-1,1490,1779,17.255,-7.86092
273,-755,15.7932,7.59778,0,0,0,0,0,0,0,-1,1497,1779,15.7932,-7.59777
280,-755,14.6255,7.34802,0,0,0,0,0,0,0,-1,1504,1779,14.6254,-7.34806
287,-755,13.8279,7.83105,0,0,0,0,0,0,0,-1,1511,1779,13.8279,-7.83104
294,-755,12.5695,7.96814,0,0,0,0,0,0,0,-1,1518,1779,12.5694,-7.9682
301,-755,11.2659,8.27087,0,0,0,0,0,0,0,-1,1525,1779,11.2658,-8.27087
308,-755,9.94434,8.55811,0,0,0,0,0,0,0,-1,1532,1779,9.94428,-8.55806
315,-755,8.64502,9.04492,0,0,0,0,0,0,0,-1,1539,1779,8.64497,-9.04488
322,-755,0,0,0,0,0,0,0,0,0,-1,1546,1779,0,0
329,-755,0,0,0,0,0,0,0,0,0,-1,1553,1779,0,0
336,-755,0,0,0,0,0,0,0,0,0,-1,1560,1779,0,0
343,-755,0,0,0,0,0,0,0,0,0,-1,1567,1779,0,0
350,-755,0,0,0,0,0,0,0,0,0,-1,1574,1779,0,0
357,-755,0,0,0,0,0,0,0,0,0,-1,1581,1779,0,0
364,-755,0,0,0,0,0,0,0,0,0,-1,1588,1779,0,0
371,-755,0,0,0,0,0,0,0,0,0,-1,1595,1779,0,0
378,-755,0,0,0,0,0,0,0,0,0,-1,1602,1779,0,0
385,-755,0,0,0,0,0,0,0,0,0,-1,1609,1779,0,0
392,-755,0,0,0,0,0,0,0,0,0,-1,1616,1779,0,0
399,-755,0,0,0,0,0,0,0,0,0,-1,1623,1779,0,0
406,-755,0,0,0,0,0,0,0,0,0,-1,1630,1779,0,0
413,-755,0,0,0,0,0,0,0,0,0,-1,1637,1779,0,0
420,-755,0,0,0,0,0,0,0,0,0,-1,1644,1779,0,0
427,-755,0,0,0,0,0,0,0,0,0,-1,1651,1779,0,0
434,-755,0,0,0,0,0,0,0,0,0,-1,1658,1779,0,0
441,-755,0,0,0,0,0,0,0,0,0,-1,1665,1779,0,0
448,-755,0,0,0,0,0,0,0,0,0,-1,1672,1779,0,0
455,-755,0,0,0,0,0,0,0,0,0,-1,1679,1779,0,0
462,-755,0,0,0,0,0,0,0,0,0,-1,1686,1779,0,0
469,-755,0,0,0,0,0,0,0,0,0,-1,1693,1779,0,0
476,-755,0,0,0,0,0,0,0,0,0,-1,1700,1779,0,0
483,-755,0,0,0,0,0,0,0,0,0,-1,1707,1779,0,0
490,-755,0,0,0,0,0,0,0,0,0,-1,1714,1779,0,0
497,-755,0,0,0,0,0,0,0,0,0,-1,1721,1779,0,0
504,-755,0,0,0,0,0,0,0,0,0,-1,1728,1779,0,0
511,-755,0,0,0,0,0,0,0,0,0,-1,1735,1779,0,0
518,-755,0,0,0,0,0,0,0,0,0,-1,1742,1779,0,0
525,-755,0,0,0,0,0,0,0,0,0,-1,1749,1779,0,0
532,-755,0,0,0,0,0,0,0,0,0,-1,1756,1779,0,0
539,-755,0,0,0,0,0,0,0,0,0,-1,1763,1779,0,0
546,-755,0,0,0,0,0,0,0,0,0,-1,1770,1779,0,0
553,-755,0,0,0,0,0,0,0,0,0,-1,1777,1779,0,0
560,-755,0,0,0,0,0,0,0,0,0,-1,1784,1779,0,0
567,-755,0,0,0,0,0,0,0,0,0,-1,1791,1779,0,0
574,-755,0,0,0,0,0,0,0,0,0,-1,1798,1779,0,0
581,-755,0,0,0,0,0,0,0,0,0,-1,1805,1779,0,0
588,-755,0,0,0,0,0,0,0,0,0,-1,1812,1779,0,0
595,-755,0,0,0,0,0,0,0,0,0,-1,1819,1779,0,0
602,-755,0,0,0,0,0,0,0,0,0,-1,1826,1779,0,0
609,-755,0,0,0,0,0,0,0,0,0,-1,1833,1779,0,0
616,-755,0,0,0,0,0,0,0,0,0,-1,1840,1779,0,0
623,-755,0,0,0,0,0,0,0,0,0,-1,1847,1779,0,0
630,-755,0,0,0,0,0,0,0,0,0,-1,1854,1779,0,0
637,-755,0,0,0,0,0,0,0,0,0,-1,1861,1779,0,0
644,-755,0,0,0,0,0,0,0,0,0,-1,1868,1779,0,0
651,-755,0,0,0,0,0,0,0,0,0,-1,1875,1779,0,0
658,-755,0,0,0,0,0,0,0,0,0,-1,1882,1779,0,0
665,-755,0,0,0,0,0,0,0,0,0,-1,1889,1779,0,0
672,-755,0,0,0,0,0,0,0,0,0,-1,1896,1779,0,0
679,-755,0,0,0,0,0,0,0,0,0,-1,1903,1779,0,0
686,-755,0,0,0,0,0,0,0,0,0,-1,1910,1779,0,0
693,-755,0,0,0,0,0,0,0,0,0,-1,1917,1779,0,0
700,-755,0,0,0,0,0,0,0,0,0,-1,1924,1779,0,0
707,-755,0,0,0,0,0,0,0,0,0,-1,1931,1779,0,0
714,-755,0,0,0,0,0,0,0,0,0,-1,1938,1779,0,0
721,-755,0,0,0,0,0,0,0,0,0,-1,1945,1779,0,0
728,-755,0,0,0,0,0,0,0,0,0,-1,1952,1779,0,0
735,-755,0,0,0,0,0,0,0,0,0,-1,1959,1779,0,0
742,-755,0,0,0,0,0,0,0,0,0,-1,1966,1779,0,0
749,-755,0,0,0,0,0,0,0,0,0,-1,1973,1779,0,0
756,-755,0,0,0,0,0,0,0,0,0,-1,1980,1779,0,0
763,-755,0,0,0,0,0,0,0,0,0,-1,1987,1779,0,0
770,-755,0,0,0,0,0,0,0,0,0,-1,1994,1779,0,0
777,-755,0,0,0,0,0,0,0,0,0,-1,2001,1779,0,0
784,-755,0,0,0,0,0,0,0,0,0,-1,2008,1779,0,0
791,-755,0,0,0,0,0,0,0,0,0,-1,2015,1779,0,0
798,-755,0,0,0,0,0,0,0,0,0,-1,2022,1779,0,0
805,-755,0,0,0,0,0,0,0,0,0,-1,2029,1779,0,0
812,-755,0,0,0,0,0,0,0,0,0,-1,2036,1779,0,0
-700,-762,0,0,0,0,0,0,0,0,0,-1,524,1786,0,0
-693,-762,0,0,0,0,0,0,0,0,0,-1,531,1786,0,0
-686,-762,0,0,0,0,0,0,0,0,0,-1,538,1786,0,0
-679,-762,0,0,0,0,0,0,0,0,0,-1,545,1786,0,0
-672,-762,0,0,0,0,0,0,0,0,0,-1,552,1786,0,0
-665,-762,0,0,0,0,0,0,0,0,0,-1,559,1786,0,0
-658,-762,0,0,0,0,0,0,0,0,0,-1,566,1786,0,0
-651,-762,0,0,0,0,0,0,0,0,0,-1,573,1786,0,0
-644,-762,0,0,0,0,0,0,0,0,0,-1,580,1786,0,0
-637,-762,0,0,0,0,0,0,0,0,0,-1,587,1786,0,0
-630,-762,0,0,0,0,0,0,0,0,0,-1,594,1786,0,0
-623,-762,0,0,0,0,0,0,0,0,0,-1,601,1786,0,0
-616,-762,0,0,0,0,0,0,0,0,0,-1,608,1786,0,0
-609,-762,0,0,0,0,0,0,0,0,0,-1,615,1786,0,0
-602,-762,0,0,0,0,0,0,0,0,0,-1,622,1786,0,0
-595,-762,0,0,0,0,0,0,0,0,0,-1,629,1786,0,0
-588,-762,0,0,0,0,0,0,0,0,0,-1,636,1786,0,0
-581,-762,0,0,0,0,0,0,0,0,0,-1,643,1786,0,0
-574,-762,0,0,0,0,0,0,0,0,0,-1,650,1786,0,0
-567,-762,0,0,0,0,0,0,0,0,0,-1,657,1786,0,0
-560,-762,0,0,0,0,0,0,0,0,0,-1,664,1786,0,0
-553,-762,0,0,0,0,0,0,0,0,0,-1,671,1786,0,0
-546,-762,0,0,0,0,0,0,0,0,0,-1,678,1786,0,0
-539,-762,0,0,0,0,0,0,0,0,0,-1,685,1786,0,0
-532,-762,0,0,0,0,0,0,0,0,0,-1,692,1786,0,0
-525,-762,0,0,0,0,0,0,0,0,0,-1,699,1786,0,0
-518,-762,0,0,0,0,0,0,0,0,0,-1,706,1786,0,0
-511,-762,0,0,0,0,0,0,0,0,0,-1,713,1786,0,0
-504,-762,0,0,0,0,0,0,0,0,0,-1,720,1786,0,0
-497,-762,0,0,0,0,0,0,0,0,0,-1,727,1786,0,0
-490,-762,0,0,0,0,0,0,0,0,0,-1,734,1786,0,0
-483,-762,0,0,0,0,0,0,0,0,0,-1,741,1786,0,0
-476,-762,0,0,0,0,0,0,0,0,0,-1,748,1786,0,0
-469,-762,0,0,0,0,0,0,0,0,0,-1,755,1786,0,0
-462,-762,0,0,0,0,0,0,0,0,0,-1,762,1786,0,0
-455,-762,0,0,0,0,0,0,0,0,0,-1,769,1786,0,0
-448,-762,0,0,0,0,0,0,0,0,0,-1,776,1786,0,0
-441,-762,0,0,0,0,0,0,0,0,0,-1,783,1786,0,0
-434,-762,0,0,0,0,0,0,0,0,0,-1,790,1786,0,0
-427,-762,0,0,0,0,0,0,0,0,0,-1,797,1786,0,0
-420,-762,0,0,0,0,0,0,0,0,0,-1,804,1786,0,0
-413,-762,0,0,0,0,0,0,0,0,0,-1,811,1786,0,0
-406,-762,0,0,0,0,0,0,0,0,0,-1,818,1786,0,0
-399,-762,0,0,0,0,0,0,0,0,0,-1,825,1786,0,0
-392,-762,0,0,0,0,0,0,0,0,0,-1,832,1786,0,0
-385,-762,0,0,0,0,0,0,0,0,0,-1,839,1786,0,0
-378,-762,0,0,0,0,0,0,0,0,0,-1,846,1786,0,0
-371,-762,0,0,0,0,0,0,0,0,0,-1,853,1786,0,0
-364,-762,0,0,0,0,0,0,0,0,0,-1,860,1786,0,0
-357,-762,0,0,0,0,0,0,0,0,0,-1,867,1786,0,0
-350,-762,0,0,0,0,0,0,0,0,0,-1,874,1786,0,0
-343,-762,0,0,0,0,0,0,0,0,0,-1,881,1786,0,0
-336,-762,0,0,0,0,0,0,0,0,0,-1,888,1786,0,0
-329,-762,0,0,0,0,0,0,0,0,0,-1,895,1786,0,0
-322,-762,0,0,0,0,0,0,0,0,0,-1,902,1786,0,0
-315,-762,0,0,0,0,0,0,0,0,0,-1,909,1786,0,0
-308,-762,0,0,0,0,0,0,0,0,0,-1,916,1786,0,0
-301,-762,0,0,0,0,0,0,0,0,0,-1,923,1786,0,0
-294,-762,0,0,0,0,0,0,0,0,0,-1,930,1786,0,0
-287,-762,0,0,0,0,0,0,0,0,0,-1,937,1786,0,0
-280,-762,0,0,0,0,0,0,0,0,0,-1,944,1786,0,0
-273,-762,0,0,0,0,0,0,0,0,0,-1,951,1786,0,0
-266,-762,0,0,0,0,0,0,0,0,0,-1,958,1786,0,0
-259,-762,0,0,0,0,0,0,0,0,0,-1,965,1786,0,0
-252,-762,0,0,0,0,0,0,0,0,0,-1,972,1786,0,0
-245,-762,0,0,0,0,0,0,0,0,0,-1,979,1786,0,0
-238,-762,0,0,0,0,0,0,0,0,0,-1,986,1786,0,0
-231,-762,0,0,0,0,0,0,0,0,0,-1,993,1786,0,0
-224,-762,0,0,0,0,0,0,0,0,0,-1,1000,1786,0,0
-217,-762,0,0,0,0,0,0,0,0,0,-1,1007,1786,0,0
-210,-762,0,0,0,0,0,0,0,0,0,-1,1014,1786,0,0
-203,-762,0,0,0,0,0,0,0,0,0,-1,1021,1786,0,0
-196,-762,0,0,0,0,0,0,0,0,0,-1,1028,1786,0,0
-189,-762,0,0,0,0,0,0,0,0,0,-1,1035,1786,0,0
-182,-762,4.44226,13.2462,0,0,0,0,0,0,0,-1,1042,1786,4.44227,-13.2462
-175,-762,4.3219,18.3975,0,0,0,0,0,0,0,-1,1049,1786,4.32192,-18.3974
-168,-762,-2.08618,13.0768,0,0,0,0,0,0,0,-1,1056,1786,-2.08623,-13.0768
-161,-762,-3.29077,11.9508,0,0,0,0,0,0,0,-1,1063,1786,-3.29076,-11.9508
-154,-762,-4.55823,11.1176,0,0,0,0,0,0,0,-1,1070,1786,-4.55828,-11.1175
-147,-762,-6.52454,9.41418,0,0,0,0,0,0,0,-1,1077,1786,-6.52458,-9.41419
-140,-762,4.99792,5.28589,0,0,0,0,0,0,0,-1,1084,1786,4.99793,-5.28587
-133,-762,0.689819,19.2172,0,0,0,0,0,0,0,-1,1091,1786,0.689867,-19.2171
-126,-762,1.48743,19.9288,0,0,0,0,0,0,0,-1,1098,1786,1.48738,-19.9289
-119,-762,2.65637,20.208,0,0,0,0,0,0,0,-1,1105,1786,2.65632,-20.208
-112,-762,6.84705,25.5554,0,0,0,0,0,0,0,-1,1112,1786,6.84706,-25.5554
-105,-762,5.57947,21.618,0,0,0,0,0,0,0,-1,1119,1786,5.57948,-21.618
-98,-762,5.0636,17.9901,0,0,0,0,0,0,0,-1,1126,1786,5.06361,-17.9901
-91,-762,4.54773,14.3622,0,0,0,0,0,0,0,-1,1133,1786,4.54774,-14.3622
-84,-762,3.96375,10.4547,0,0,0,0,0,0,0,-1,1140,1786,3.96371,-10.4548
-77,-762,0.305054,8.49365,0,0,0,0,0,0,0,-1,1147,1786,0.305008,-8.49362
-70,-762,0.183716,6.74622,0,0,0,0,0,0,0,-1,1154,1786,0.183696,-6.74621
-63,-762,-0.883057,9.08813,0,0,0,0,0,0,0,-1,1161,1786,-0.88311,-9.08808
-56,-762,-0.578979,5.10254,0,0,0,0,0,0,0,-1,1168,1786,-0.578951,-5.10249
-49,-762,-2.04541,3.66321,0,0,0,0,0,0,0,-1,1175,1786,-2.0454,-3.66319
-42,-762,-2.23462,3.474,0,0,0,0,0,0,0,-1,1182,1786,-2.23459,-3.47399
-35,-762,-3.28992,1.68164,0,0,0,0,0,0,0,-1,1189,1786,-3.28998,-1.68164
-28,-762,-3.75378,1.37769,0,0,0,0,0,0,0,-1,1196,1786,-3.75373,-1.37767
-21,-762,8.84802,37.4856,0,0,0,0,0,0,0,-1,1203,1786,8.84798,-37.4855
-14,-762,8.19788,37.9817,0,0,0,0,0,0,0,-1,1210,1786,8.19786,-37.9817
-7,-762,8.12195,37.9691,0.00915776,0.00226821,-0.000236233,0.00916585,0.00226012,-0.034235,0.00551383,0.0484287,1217,1786,8.122,-37.9691
0,-762,8.13367,38.0696,0.00794656,0.00145525,-0.00116376,0.00814889,0.00125292,-0.17214,0.00506686,0.0353365,1224,1786,8.13371,-38.0696
7,-762,8.15698,38.1377,0.00648077,0.000444803,-0.00218429,0.00718829,-0.000262715,-0.313247,0.00488212,0.0212846,1231,1786,8.15704,-38.1377
14,-762,8.10681,38.325,0.00518083,-0.000834036,-0.00299454,0.00641745,-0.00207065,-0.391625,0.00511031,0.0362733,1238,1786,8.10677,-38.3249
21,-762,8.05737,38.2784,0.00417907,-0.00220899,-0.00393582,0.00605382,-0.00408374,-0.444533,0.00588965,0.0439412,1245,1786,8.05742,-38.2784
28,-762,7.98438,38.344,0.00345457,-0.00385983,-0.00451767,0.00560981,-0.00601506,-0.445135,0.00671298,0.0422767,1252,1786,7.98438,-38.344
35,-762,7.97607,38.4451,0.00291627,-0.00510046,-0.00501654,0.00532917,-0.00751336,-0.448324,0.00745029,0.0435287,1259,1786,7.9761,-38.445
42,-762,7.96973,38.415,0.00310899,-0.00685961,-0.00505532,0.00522396,-0.00897457,-0.396236,0.00829231,0.0473029,1266,1786,7.96973,-38.4151
49,-762,7.87793,38.4272,0.00419738,-0.00937925,-0.00472582,0.00568038,-0.0108622,-0.304076,0.00970582,0.0384581,1273,1786,7.87794,-38.4273
56,-762,7.90479,38.4663,0.00514444,-0.0115109,-0.00424606,0.00616445,-0.0125309,-0.235758,0.0110004,0.0283564,1280,1786,7.90478,-38.4663
63,-762,7.85974,38.4855,0.00766423,-0.0150781,-0.00317976,0.00810045,-0.0155143,-0.136334,0.0138562,0.0265901,1287,1786,7.85978,-38.4855
70,-762,7.76416,38.4821,0.0113251,-0.00769163,-0.00503242,0.0125747,-0.00894125,-0.243391,0.0124812,0.0262551,1294,1786,7.76415,-38.4821
77,-762,7.68958,38.3534,0.0158165,-0.00787483,-0.00462247,0.0166865,-0.00874478,-0.186025,0.0149195,0.0325796,1301,1786,7.68963,-38.3533
84,-762,7.70166,38.4484,0.0200831,-0.00582342,-0.00446955,0.0208326,-0.00657285,-0.16613,0.0165211,0.0396191,1308,1786,7.7017,-38.4484
91,-762,7.63672,38.5646,0.0247333,-0.00285123,-0.00456461,0.025469,-0.00358694,-0.159804,0.0182926,0.0466663,1315,1786,7.63671,-38.5646
98,-762,7.50513,38.5846,0.0293043,0.000634777,-0.00488507,0.0301138,-0.000174743,-0.164221,0.0201344,0.0474564,1322,1786,7.50507,-38.5845
105,-762,7.51489,38.4454,0.0333793,0.00458215,-0.00539375,0.0343564,0.00360504,-0.179211,0.0218022,0.0444461,1329,1786,7.51484,-38.4454
112,-762,7.40369,38.1677,0.0371828,0.00859639,-0.00600962,0.0383948,0.0073844,-0.199006,0.0235246,0.0444009,1336,1786,7.40364,-38.1677
119,-762,7.4198,38.0381,0.0401754,0.0123445,-0.00692423,0.041803,0.010717,-0.23086,0.0250718,0.045995,1343,1786,7.41977,-38.0381
126,-762,7.37646,38.3219,0,0,0,0,0,0,0,-1,1350,1786,7.37646,-38.3219
133,-762,6.91956,38.325,0.0432192,0.0157432,-0.00721481,0.0449985,0.0139639,-0.241791,0.0265957,0.0479772,1357,1786,6.91954,-38.3249
140,-762,7.20398,38.0049,0.0428877,0.0126942,-0.00634177,0.0441656,0.0114163,-0.198846,0.026472,0.0446857,1364,1786,7.20395,-38.0049
147,-762,7.50513,37.963,0.0418564,0.00980675,-0.00546221,0.0427617,0.0089014,-0.164254,0.0260526,0.0455869,1371,1786,7.50513,-37.9631
154,-762,7.1311,38.0527,0,0,0,0,0,0,0,-1,1378,1786,7.13111,-38.0527
161,-762,8.65051,34.8102,0,0,0,0,0,0,0,-1,1385,1786,8.65054,-34.8101
168,-762,8.19287,0.880615,0,0,0,0,0,0,0,-1,1392,1786,8.19291,-0.880603
175,-762,8.33997,1.95947,0,0,0,0,0,0,0,-1,1399,1786,8.33997,-1.95942
182,-762,8.28418,3.56482,0,0,0,0,0,0,0,-1,1406,1786,8.28415,-3.56485
189,-762,8.21179,5.23389,0,0,0,0,0,0,0,-1,1413,1786,8.21183,-5.23383
196,-762,8.05969,6.95483,0,0,0,0,0,0,0,-1,1420,1786,8.05972,-6.9548
203,-762,24.0077,7.10425,0,0,0,0,0,0,0,-1,1427,1786,24.0077,-7.10426
210,-762,23.8073,7.6499,0,0,0,0,0,0,0,-1,1434,1786,23.8073,-7.64987
217,-762,23.3193,8.24426,0,0,0,0,0,0,0,-1,1441,1786,23.3194,-8.2442
224,-762,2.65149,20.6106,0,0,0,0,0,0,0,-1,1448,1786,2.65153,-20.6106
231,-762,5.46655,23.521,0,0,0,0,0,0,0,-1,1455,1786,5.46653,-23.521
238,-762,5.35632,29.7203,0,0,0,0,0,0,0,-1,1462,1786,5.35629,-29.7203
245,-762,5.84509,28.6954,0,0,0,0,0,0,0,-1,1469,1786,5.84509,-28.6954
252,-762,5.82837,27.7246,0,0,0,0,0,0,0,-1,1476,1786,5.82839,-27.7247
259,-762,10.7311,18.3031,0,0,0,0,0,0,0,-1,1483,1786,10.7311,-18.3031
266,-762,16.451,7.67773,0,0,0,0,0,0,0,-1,1490,1786,16.4511,-7.67773
273,-762,15.287,7.5304,0,0,0,0,0,0,0,-1,1497,1786,15.2869,-7.53044
280,-762,14.1501,7.38379,0,0,0,0,0,0,0,-1,1504,1786,14.1502,-7.38376
287,-762,12.6891,7.99133,0,0,0,0,0,0,0,-1,1511,1786,12.6891,-7.99135
294,-762,12.6959,8.30371,0,0,0,0,0,0,0,-1,1518,1786,12.6959,-8.30368
301,-762,11.4222,8.84143,0,0,0,0,0,0,0,-1,1525,1786,11.4223,-8.84149
308,-762,0,0,0,0,0,0,0,0,0,-1,1532,1786,0,0
315,-762,0,0,0,0,0,0,0,0,0,-1,1539,1786,0,0
322,-762,0,0,0,0,0,0,0,0,0,-1,1546,1786,0,0
329,-762,0,0,0,0,0,0,0,0,0,-1,1553,1786,0,0
336,-762,0,0,0,0,0,0,0,0,0,-1,1560,1786,0,0
343,-762,0,0,0,0,0,0,0,0,0,-1,1567,1786,0,0
350,-762,0,0,0,0,0,0,0,0,0,-1,1574,1786,0,0
357,-762,0,0,0,0,0,0,0,0,0,-1,1581,1786,0,0
364,-762,0,0,0,0,0,0,0,0,0,-1,1588,1786,0,0
371,-762,0,0,0,0,0,0,0,0,0,-1,1595,1786,0,0
378,-762,0,0,0,0,0,0,0,0,0,-1,1602,1786,0,0
385,-762,0,0,0,0,0,0,0,0,0,-1,1609,1786,0,0
392,-762,0,0,0,0,0,0,0,0,0,-1,1616,1786,0,0
399,-762,0,0,0,0,0,0,0,0,0,-1,1623,1786,0,0
406,-762,0,0,0,0,0,0,0,0,0,-1,1630,1786,0,0
413,-762,0,0,0,0,0,0,0,0,0,-1,1637,1786,0,0
420,-762,0,0,0,0,0,0,0,0,0,-1,1644,1786,0,0
427,-762,0,0,0,0,0,0,0,0,0,-1,1651,1786,0,0
434,-762,0,0,0,0,0,0,0,0,0,-1,1658,1786,0,0
441,-762,0,0,0,0,0,0,0,0,0,-1,1665,1786,0,0
448,-762,0,0,0,0,0,0,0,0,0,-1,1672,1786,0,0
455,-762,0,0,0,0,0,0,0,0,0,-1,1679,1786,0,0
462,-762,0,0,0,0,0,0,0,0,0,-1,1686,1786,0,0
469,-762,0,0,0,0,0,0,0,0,0,-1,1693,1786,0,0
476,-762,0,0,0,0,0,0,0,0,0,-1,1700,1786,0,0
483,-762,0,0,0,0,0,0,0,0,0,-1,1707,1786,0,0
490,-762,0,0,0,0,0,0,0,0,0,-1,1714,1786,0,0
497,-762,0,0,0,0,0,0,0,0,0,-1,1721,1786,0,0
504,-762,0,0,0,0,0,0,0,0,0,-1,1728,1786,0,0
511,-762,0,0,0,0,0,0,0,0,0,-1,1735,1786,0,0
518,-762,0,0,0,0,0,0,0,0,0,-1,1742,1786,0,0
525,-762,0,0,0,0,0,0,0,0,0,-1,1749,1786,0,0
532,-762,0,0,0,0,0,0,0,0,0,-1,1756,1786,0,0
539,-762,0,0,0,0,0,0,0,0,0,-1,1763,1786,0,0
546,-762,0,0,0,0,0,0,0,0,0,-1,1770,1786,0,0
553,-762,0,0,0,0,0,0,0,0,0,-1,1777,1786,0,0
560,-762,0,0,0,0,0,0,0,0,0,-1,1784,1786,0,0
567,-762,0,0,0,0,0,0,0,0,0,-1,1791,1786,0,0
574,-762,0,0,0,0,0,0,0,0,0,-1,1798,1786,0,0
581,-762,0,0,0,0,0,0,0,0,0,-1,1805,1786,0,0
588,-762,0,0,0,0,0,0,0,0,0,-1,1812,1786,0,0
595,-762,0,0,0,0,0,0,0,0,0,-1,1819,1786,0,0
602,-762,0,0,0,0,0,0,0,0,0,-1,1826,1786,0,0
609,-762,0,0,0,0,0,0,0,0,0,-1,1833,1786,0,0
616,-762,0,0,0,0,0,0,0,0,0,-1,1840,1786,0,0
623,-762,0,0,0,0,0,0,0,0,0,-1,1847,1786,0,0
630,-762,0,0,0,0,0,0,0,0,0,-1,1854,1786,0,0
637,-762,0,0,0,0,0,0,0,0,0,-1,1861,1786,0,0
644,-762,0,0,0,0,0,0,0,0,0,-1,1868,1786,0,0
651,-762,0,0,0,0,0,0,0,0,0,-1,1875,1786,0,0
658,-762,0,0,0,0,0,0,0,0,0,-1,1882,1786,0,0
665,-762,0,0,0,0,0,0,0,0,0,-1,1889,1786,0,0
672,-762,0,0,0,0,0,0,0,0,0,-1,1896,1786,0,0
679,-762,0,0,0,0,0,0,0,0,0,-1,1903,1786,0,0
686,-762,0,0,0,0,0,0,0,0,0,-1,1910,1786,0,0
693,-762,0,0,0,0,0,0,0,0,0,-1,1917,1786,0,0
700,-762,0,0,0,0,0,0,0,0,0,-1,1924,1786,0,0
707,-762,0,0,0,0,0,0,0,0,0,-1,1931,1786,0,0
714,-762,0,0,0,0,0,0,0,0,0,-1,1938,1786,0,0
721,-762,0,0,0,0,0,0,0,0,0,-1,1945,1786,0,0
728,-762,0,0,0,0,0,0,0,0,0,-1,1952,1786,0,0
735,-762,0,0,0,0,0,0,0,0,0,-1,1959,1786,0,0
742,-762,0,0,0,0,0,0,0,0,0,-1,1966,1786,0,0
749,-762,0,0,0,0,0,0,0,0,0,-1,1973,1786,0,0
756,-762,0,0,0,0,0,0,0,0,0,-1,1980,1786,0,0
763,-762,0,0,0,0,0,0,0,0,0,-1,1987,1786,0,0
770,-762,0,0,0,0,0,0,0,0,0,-1,1994,1786,0,0
777,-762,0,0,0,0,0,0,0,0,0,-1,2001,1786,0,0
784,-762,0,0,0,0,0,0,0,0,0,-1,2008,1786,0,0
791,-762,0,0,0,0,0,0,0,0,0,-1,2015,1786,0,0
798,-762,0,0,0,0,0,0,0,0,0,-1,2022,1786,0,0
805,-762,0,0,0,0,0,0,0,0,0,-1,2029,1786,0,0
812,-762,0,0,0,0,0,0,0,0,0,-1,2036,1786,0,0
-700,-769,0,0,0,0,0,0,0,0,0,-1,524,1793,0,0
-693,-769,0,0,0,0,0,0,0,0,0,-1,531,1793,0,0
-686,-769,0,0,0,0,0,0,0,0,0,-1,538,1793,0,0
-679,-769,0,0,0,0,0,0,0,0,0,-1,545,1793,0,0
-672,-769,0,0,0,0,0,0,0,0,0,-1,552,1793,0,0
-665,-769,0,0,0,0,0,0,0,0,0,-1,559,1793,0,0
-658,-769,0,0,0,0,0,0,0,0,0,-1,566,1793,0,0
-651,-769,0,0,0,0,0,0,0,0,0,-1,573,1793,0,0
-644,-769,0,0,0,0,0,0,0,0,0,-1,580,1793,0,0
-637,-769,0,0,0,0,0,0,0,0,0,-1,587,1793,0,0
-630,-769,0,0,0,0,0,0,0,0,0,-1,594,1793,0,0
-623,-769,0,0,0,0,0,0,0,0,0,-1,601,1793,0,0
-616,-769,0,0,0,0,0,0,0,0,0,-1,608,1793,0,0
-609,-769,0,0,0,0,0,0,0,0,0,-1,615,1793,0,0
-602,-769,0,0,0,0,0,0,0,0,0,-1,622,1793,0,0
-595,-769,0,0,0,0,0,0,0,0,0,-1,629,1793,0,0
-588,-769,0,0,0,0,0,0,0,0,0,-1,636,1793,0,0
-581,-769,0,0,0,0,0,0,0,0,0,-1,643,1793,0,0
-574,-769,0,0,0,0,0,0,0,0,0,-1,650,1793,0,0
-567,-769,0,0,0,0,0,0,0,0,0,-1,657,1793,0,0
-560,-769,0,0,0,0,0,0,0,0,0,-1,664,1793,0,0
-553,-769,0,0,0,0,0,0,0,0,0,-1,671,1793,0,0
-546,-769,0,0,0,0,0,0,0,0,0,-1,678,1793,0,0
-539,-769,0,0,0,0,0,0,0,0,0,-1,685,1793,0,0
-532,-769,0,0,0,0,0,0,0,0,0,-1,692,1793,0,0
-525,-769,0,0,0,0,0,0,0,0,0,-1,699,1793,0,0
-518,-769,0,0,0,0,0,0,0,0,0,-1,706,1793,0,0
-511,-769,0,0,0,0,0,0,0,0,0,-1,713,1793,0,0
-504,-769,0,0,0,0,0,0,0,0,0,-1,720,1793,0,0
-497,-769,0,0,0,0,0,0,0,0,0,-1,727,1793,0,0
-490,-769,0,0,0,0,0,0,0,0,0,-1,734,1793,0,0
-483,-769,0,0,0,0,0,0,0,0,0,-1,741,1793,0,0
-476,-769,0,0,0,0,0,0,0,0,0,-1,748,1793,0,0
-469,-769,0,0,0,0,0,0,0,0,0,-1,755,1793,0,0
-462,-769,0,0,0,0,0,0,0,0,0,-1,762,1793,0,0
-455,-769,0,0,0,0,0,0,0,0,0,-1,769,1793,0,0
-448,-769,0,0,0,0,0,0,0,0,0,-1,776,1793,0,0
-441,-769,0,0,0,0,0,0,0,0,0,-1,783,1793,0,0
-434,-769,0,0,0,0,0,0,0,0,0,-1,790,1793,0,0
-427,-769,0,0,0,0,0,0,0,0,0,-1,797,1793,0,0
-420,-769,0,0,0,0,0,0,0,0,0,-1,804,1793,0,0
-413,-769,0,0,0,0,0,0,0,0,0,-1,811,1793,0,0
-406,-769,0,0,0,0,0,0,0,0,0,-1,818,1793,0,0
-399,-769,0,0,0,0,0,0,0,0,0,-1,825,1793,0,0
-392,-769,0,0,0,0,0,0,0,0,0,-1,832,1793,0,0
-385,-769,0,0,0,0,0,0,0,0,0,-1,839,1793,0,0
-378,-769,0,0,0,0,0,0,0,0,0,-1,846,1793,0,0
-371,-769,0,0,0,0,0,0,0,0,0,-1,853,1793,0,0
-364,-769,0,0,0,0,0,0,0,0,0,-1,860,1793,0,0
-357,-769,0,0,0,0,0,0,0,0,0,-1,867,1793,0,0
-350,-769,0,0,0,0,0,0,0,0,0,-1,874,1793,0,0
-343,-769,0,0,0,0,0,0,0,0,0,-1,881,1793,0,0
-336,-769,0,0,0,0,0,0,0,0,0,-1,888,1793,0,0
-329,-769,0,0,0,0,0,0,0,0,0,-1,895,1793,0,0
-322,-769,0,0,0,0,0,0,0,0,0,-1,902,1793,0,0
-315,-769,0,0,0,0,0,0,0,0,0,-1,909,1793,0,0
-308,-769,0,0,0,0,0,0,0,0,0,-1,916,1793,0,0
-301,-769,0,0,0,0,0,0,0,0,0,-1,923,1793,0,0
-294,-769,0,0,0,0,0,0,0,0,0,-1,930,1793,0,0
-287,-769,0,0,0,0,0,0,0,0,0,-1,937,1793,0,0
-280,-769,0,0,0,0,0,0,0,0,0,-1,944,1793,0,0
-273,-769,0,0,0,0,0,0,0,0,0,-1,951,1793,0,0
-266,-769,0,0,0,0,0,0,0,0,0,-1,958,1793,0,0
-259,-769,0,0,0,0,0,0,0,0,0,-1,965,1793,0,0
-252,-769,0,0,0,0,0,0,0,0,0,-1,972,1793,0,0
-245,-769,0,0,0,0,0,0,0,0,0,-1,979,1793,0,0
-238,-769,0,0,0,0,0,0,0,0,0,-1,986,1793,0,0
-231,-769,0,0,0,0,0,0,0,0,0,-1,993,1793,0,0
-224,-769,0,0,0,0,0,0,0,0,0,-1,1000,1793,0,0
-217,-769,0,0,0,0,0,0,0,0,0,-1,1007,1793,0,0
-210,-769,0,0,0,0,0,0,0,0,0,-1,1014,1793,0,0
-203,-769,0,0,0,0,0,0,0,0,0,-1,1021,1793,0,0
-196,-769,0,0,0,0,0,0,0,0,0,-1,1028,1793,0,0
-189,-769,0,0,0,0,0,0,0,0,0,-1,1035,1793,0,0
-182,-769,0,0,0,0,0,0,0,0,0,-1,1042,1793,0,0
-175,-769,0,0,0,0,0,0,0,0,0,-1,1049,1793,0,0
-168,-769,0,0,0,0,0,0,0,0,0,-1,1056,1793,0,0
-161,-769,-3.61145,12.4761,0,0,0,0,0,0,0,-1,1063,1793,-3.6114,-12.476
-154,-769,-0.813232,5.32874,0,0,0,0,0,0,0,-1,1070,1793,-0.813269,-5.32872
-147,-769,4.26587,4.7002,0,0,0,0,0,0,0,-1,1077,1793,4.26593,-4.70022
-140,-769,4.10376,5.28589,0,0,0,0,0,0,0,-1,1084,1793,4.10371,-5.28584
-133,-769,6.422,8.21777,0,0,0,0,0,0,0,-1,1091,1793,6.42198,-8.21773
-126,-769,-0.352295,19.326,0,0,0,0,0,0,0,-1,1098,1793,-0.352235,-19.326
-119,-769,6.01685,16.2577,0,0,0,0,0,0,0,-1,1105,1793,6.01689,-16.2576
-112,-769,5.76416,27.2615,0,0,0,0,0,0,0,-1,1112,1793,5.7642,-27.2615
-105,-769,4.97009,22.8479,0,0,0,0,0,0,0,-1,1119,1793,4.97006,-22.8479
-98,-769,4.69373,18.9142,0,0,0,0,0,0,0,-1,1126,1793,4.69376,-18.9142
-91,-769,4.41748,14.9805,0,0,0,0,0,0,0,-1,1133,1793,4.41746,-14.9805
-84,-769,3.2207,12.4565,0,0,0,0,0,0,0,-1,1140,1793,3.22066,-12.4565
-77,-769,2.48816,8.98486,0,0,0,0,0,0,0,-1,1147,1793,2.48815,-8.98489
-70,-769,1.04944,11.9852,0,0,0,0,0,0,0,-1,1154,1793,1.04947,-11.9852
-63,-769,-2.39709,9.60339,0,0,0,0,0,0,0,-1,1161,1793,-2.39706,-9.6034
-56,-769,-5.84363,7.22156,0,0,0,0,0,0,0,-1,1168,1793,-5.84359,-7.22157
-49,-769,-2.41443,3.95471,0,0,0,0,0,0,0,-1,1175,1793,-2.41446,-3.95471
-42,-769,-3.1991,2.64941,0,0,0,0,0,0,0,-1,1182,1793,-3.19914,-2.64944
-35,-769,-3.50183,1.73389,0,0,0,0,0,0,0,-1,1189,1793,-3.50189,-1.7339
-28,-769,-3.96985,1.14075,0,0,0,0,0,0,0,-1,1196,1793,-3.96985,-1.14078
-21,-769,7.97278,33.8591,0,0,0,0,0,0,0,-1,1203,1793,7.97275,-33.8592
-14,-769,8.88525,37.3433,0,0,0,0,0,0,0,-1,1210,1793,8.88531,-37.3432
-7,-769,7.88354,38.1185,0,0,0,0,0,0,0,-1,1217,1793,7.88351,-38.1185
0,-769,8.21033,38.0021,0.0137691,0.00273566,-3.81751e-06,0.0137691,0.00273566,-0.000345996,0.008417,0.049313,1224,1793,8.21036,-38.002
7,-769,8.74475,37.8494,0.0115282,0.00144394,-0.00152416,0.0117535,0.00121861,-0.146776,0.00746272,0.0430484,1231,1793,8.74479,-37.8493
14,-769,8.61572,38.1001,0.00957471,-0.00023718,-0.00283102,0.0103329,-0.000995416,-0.26169,0.00724327,0.0429888,1238,1793,8.61572,-38.1001
21,-769,8.15564,38.23,0,0,0,0,0,0,0,-1,1245,1793,8.15567,-38.23
28,-769,8.53613,38.7043,0.00706857,-0.00453746,-0.00516594,0.00903485,-0.00650373,-0.363692,0.00901079,0.0426376,1252,1793,8.53613,-38.7044
35,-769,8.49622,38.7295,0.00636236,-0.00643133,-0.00599321,0.00873126,-0.00880023,-0.376416,0.0101218,0.0438762,1259,1793,8.49621,-38.7295
42,-769,8.25085,38.7578,0.00670152,-0.009117,-0.00615354,0.00881336,-0.0112288,-0.330596,0.0115993,0.0451227,1266,1793,8.25084,-38.7578
49,-769,7.89551,38.5114,0.00826298,-0.0128816,-0.00574792,0.00972448,-0.0143431,-0.248989,0.0139804,0.0447638,1273,1793,7.89547,-38.5113
56,-769,7.8031,38.4307,0.00974126,-0.0161978,-0.00512748,0.010718,-0.0171746,-0.188245,0.016247,0.0444235,1280,1793,7.80309,-38.4307
63,-769,7.47803,38.4395,0.0132074,-0.02138,-0.0037424,0.0136077,-0.0217803,-0.106558,0.0206121,0.0451999,1287,1793,7.47808,-38.4395
70,-769,7.49255,38.3668,0.0180204,-0.0142546,-0.00557727,0.018957,-0.0151912,-0.166379,0.0197554,0.04292,1294,1793,7.49261,-38.3668
77,-769,7.63074,38.228,0,0,0,0,0,0,0,-1,1301,1793,7.63071,-38.228
84,-769,7.71594,38.4102,0,0,0,0,0,0,0,-1,1308,1793,7.71597,-38.4101
91,-769,7.60559,38.7115,0,0,0,0,0,0,0,-1,1315,1793,7.60555,-38.7115
98,-769,7.29456,38.8436,0,0,0,0,0,0,0,-1,1322,1793,7.29457,-38.8436
105,-769,7.34998,39.0272,0,0,0,0,0,0,0,-1,1329,1793,7.34994,-39.0272
112,-769,7.31885,37.9712,0,0,0,0,0,0,0,-1,1336,1793,7.3188,-37.9712
119,-769,16.2426,30.7738,0.0572197,0.00294501,-0.00571199,0.0578144,0.00235039,-0.103728,0.0377838,0.0458406,1343,1793,16.2426,-30.7738
126,-769,16.7732,30.4758,0.0607807,0.00593883,-0.00577848,0.061383,0.00533658,-0.103847,0.0392642,0.044843,1350,1793,16.7732,-30.4758
133,-769,6.57288,38.4379,0,0,0,0,0,0,0,-1,1357,1793,6.57288,-38.4379
140,-769,7.08923,37.9984,0,0,0,0,0,0,0,-1,1364,1793,7.08929,-37.9984
147,-769,7.5332,37.9679,0,0,0,0,0,0,0,-1,1371,1793,7.53318,-37.9679
154,-769,7.76904,34.4832,0,0,0,0,0,0,0,-1,1378,1793,7.7691,-34.4832
161,-769,6.57019,1.53223,0,0,0,0,0,0,0,-1,1385,1793,6.57019,-1.53226
168,-769,8.27637,0.756958,0,0,0,0,0,0,0,-1,1392,1793,8.27639,-0.756944
175,-769,8.47144,2.41174,0,0,0,0,0,0,0,-1,1399,1793,8.47147,-2.4118
182,-769,8.41479,4.05994,0,0,0,0,0,0,0,-1,1406,1793,8.41479,-4.05997
189,-769,8.25049,5.68433,0,0,0,0,0,0,0,-1,1413,1793,8.25054,-5.68428
196,-769,7.97729,7.42847,0,0,0,0,0,0,0,-1,1420,1793,7.9773,-7.42848
203,-769,22.0977,6.73889,0,0,0,0,0,0,0,-1,1427,1793,22.0977,-6.7389
210,-769,22.1115,7.77246,0,0,0,0,0,0,0,-1,1434,1793,22.1115,-7.77248
217,-769,22.4723,8.79102,0,0,0,0,0,0,0,-1,1441,1793,22.4723,-8.79099
224,-769,22.1348,9.35278,0,0,0,0,0,0,0,-1,1448,1793,22.1348,-9.35283
231,-769,3.13318,19.7184,0,0,0,0,0,0,0,-1,1455,1793,3.13323,-19.7184
238,-769,5.74512,18.6597,0,0,0,0,0,0,0,-1,1462,1793,5.74512,-18.6596
245,-769,5.80798,22.87,0,0,0,0,0,0,0,-1,1469,1793,5.80796,-22.87
252,-769,8.39099,20.3199,0,0,0,0,0,0,0,-1,1476,1793,8.39098,-20.3199
259,-769,10.974,17.7698,0,0,0,0,0,0,0,-1,1483,1793,10.974,-17.7698
266,-769,15.8488,7.3905,0,0,0,0,0,0,0,-1,1490,1793,15.8488,-7.39046
273,-769,14.8075,7.56152,0,0,0,0,0,0,0,-1,1497,1793,14.8075,-7.56152
280,-769,13.6519,7.43054,0,0,0,0,0,0,0,-1,1504,1793,13.6518,-7.43058
287,-769,0,0,0,0,0,0,0,0,0,-1,1511,1793,0,0
294,-769,0,0,0,0,0,0,0,0,0,-1,1518,1793,0,0
301,-769,0,0,0,0,0,0,0,0,0,-1,1525,1793,0,0
308,-769,0,0,0,0,0,0,0,0,0,-1,1532,1793,0,0
315,-769,0,0,0,0,0,0,0,0,0,-1,1539,1793,0,0
322,-769,0,0,0,0,0,0,0,0,0,-1,1546,1793,0,0
329,-769,0,0,0,0,0,0,0,0,0,-1,1553,1793,0,0
336,-769,0,0,0,0,0,0,0,0,0,-1,1560,1793,0,0
343,-769,0,0,0,0,0,0,0,0,0,-1,1567,1793,0,0
350,-769,0,0,0,0,0,0,0,0,0,-1,1574,1793,0,0
357,-769,0,0,0,0,0,0,0,0,0,-1,1581,1793,0,0
364,-769,0,0,0,0,0,0,0,0,0,-1,1588,1793,0,0
371,-769,0,0,0,0,0,0,0,0,0,-1,1595,1793,0,0
378,-769,0,0,0,0,0,0,0,0,0,-1,1602,1793,0,0
385,-769,0,0,0,0,0,0,0,0,0,-1,1609,1793,0,0
392,-769,0,0,0,0,0,0,0,0,0,-1,1616,1793,0,0
399,-769,0,0,0,0,0,0,0,0,0,-1,1623,1793,0,0
406,-769,0,0,0,0,0,0,0,0,0,-1,1630,1793,0,0
413,-769,0,0,0,0,0,0,0,0,0,-1,1637,1793,0,0
420,-769,0,0,0,0,0,0,0,0,0,-1,1644,1793,0,0
427,-769,0,0,0,0,0,0,0,0,0,-1,1651,1793,0,0
434,-769,0,0,0,0,0,0,0,0,0,-1,1658,1793,0,0
441,-769,0,0,0,0,0,0,0,0,0,-1,1665,1793,0,0
448,-769,0,0,0,0,0,0,0,0,0,-1,1672,1793,0,0
455,-769,0,0,0,0,0,0,0,0,0,-1,1679,1793,0,0
462,-769,0,0,0,0,0,0,0,0,0,-1,1686,1793,0,0
469,-769,0,0,0,0,0,0,0,0,0,-1,1693,1793,0,0
476,-769,0,0,0,0,0,0,0,0,0,-1,1700,1793,0,0
483,-769,0,0,0,0,0,0,0,0,0,-1,1707,1793,0,0
490,-769,0,0,0,0,0,0,0,0,0,-1,1714,1793,0,0
497,-769,0,0,0,0,0,0,0,0,0,-1,1721,1793,0,0
504,-769,0,0,0,0,0,0,0,0,0,-1,1728,1793,0,0
511,-769,0,0,0,0,0,0,0,0,0,-1,1735,1793,0,0
518,-769,0,0,0,0,0,0,0,0,0,-1,1742,1793,0,0
525,-769,0,0,0,0,0,0,0,0,0,-1,1749,1793,0,0
532,-769,0,0,0,0,0,0,0,0,0,-1,1756,1793,0,0
539,-769,0,0,0,0,0,0,0,0,0,-1,1763,1793,0,0
546,-769,0,0,0,0,0,0,0,0,0,-1,1770,1793,0,0
553,-769,0,0,0,0,0,0,0,0,0,-1,1777,1793,0,0
560,-769,0,0,0,0,0,0,0,0,0,-1,1784,1793,0,0
567,-769,0,0,0,0,0,0,0,0,0,-1,1791,1793,0,0
574,-769,0,0,0,0,0,0,0,0,0,-1,1798,1793,0,0
581,-769,0,0,0,0,0,0,0,0,0,-1,1805,1793,0,0
588,-769,0,0,0,0,0,0,0,0,0,-1,1812,1793,0,0
595,-769,0,0,0,0,0,0,0,0,0,-1,1819,1793,0,0
602,-769,0,0,0,0,0,0,0,0,0,-1,1826,1793,0,0
609,-769,0,0,0,0,0,0,0,0,0,-1,1833,1793,0,0
616,-769,0,0,0,0,0,0,0,0,0,-1,1840,1793,0,0
623,-769,0,0,0,0,0,0,0,0,0,-1,1847,1793,0,0
630,-769,0,0,0,0,0,0,0,0,0,-1,1854,1793,0,0
637,-769,0,0,0,0,0,0,0,0,0,-1,1861,1793,0,0
644,-769,0,0,0,0,0,0,0,0,0,-1,1868,1793,0,0
651,-769,0,0,0,0,0,0,0,0,0,-1,1875,1793,0,0
658,-769,0,0,0,0,0,0,0,0,0,-1,1882,1793,0,0
665,-769,0,0,0,0,0,0,0,0,0,-1,1889,1793,0,0
672,-769,0,0,0,0,0,0,0,0,0,-1,1896,1793,0,0
679,-769,0,0,0,0,0,0,0,0,0,-1,1903,1793,0,0
686,-769,0,0,0,0,0,0,0,0,0,-1,1910,1793,0,0
693,-769,0,0,0,0,0,0,0,0,0,-1,1917,1793,0,0
700,-769,0,0,0,0,0,0,0,0,0,-1,1924,1793,0,0
707,-769,0,0,0,0,0,0,0,0,0,-1,1931,1793,0,0
714,-769,0,0,0,0,0,0,0,0,0,-1,1938,1793,0,0
721,-769,0,0,0,0,0,0,0,0,0,-1,1945,1793,0,0
728,-769,0,0,0,0,0,0,0,0,0,-1,1952,1793,0,0
735,-769,0,0,0,0,0,0,0,0,0,-1,1959,1793,0,0
742,-769,0,0,0,0,0,0,0,0,0,-1,1966,1793,0,0
749,-769,0,0,0,0,0,0,0,0,0,-1,1973,1793,0,0
756,-769,0,0,0,0,0,0,0,0,0,-1,1980,1793,0,0
763,-769,0,0,0,0,0,0,0,0,0,-1,1987,1793,0,0
770,-769,0,0,0,0,0,0,0,0,0,-1,1994,1793,0,0
777,-769,0,0,0,0,0,0,0,0,0,-1,2001,1793,0,0
784,-769,0,0,0,0,0,0,0,0,0,-1,2008,1793,0,0
791,-769,0,0,0,0,0,0,0,0,0,-1,2015,1793,0,0
798,-769,0,0,0,0,0,0,0,0,0,-1,2022,1793,0,0
805,-769,0,0,0,0,0,0,0,0,0,-1,2029,1793,0,0
812,-769,0,0,0,0,0,0,0,0,0,-1,2036,1793,0,0
-700,-776,0,0,0,0,0,0,0,0,0,-1,524,1800,0,0
-693,-776,0,0,0,0,0,0,0,0,0,-1,531,1800,0,0
-686,-776,0,0,0,0,0,0,0,0,0,-1,538,1800,0,0
-679,-776,0,0,0,0,0,0,0,0,0,-1,545,1800,0,0
-672,-776,0,0,0,0,0,0,0,0,0,-1,552,1800,0,0
-665,-776,0,0,0,0,0,0,0,0,0,-1,559,1800,0,0
-658,-776,0,0,0,0,0,0,0,0,0,-1,566,1800,0,0
-651,-776,0,0,0,0,0,0,0,0,0,-1,573,1800,0,0
-644,-776,0,0,0,0,0,0,0,0,0,-1,580,1800,0,0
-637,-776,0,0,0,0,0,0,0,0,0,-1,587,1800,0,0
-630,-776,0,0,0,0,0,0,0,0,0,-1,594,1800,0,0
-623,-776,0,0,0,0,0,0,0,0,0,-1,601,1800,0,0
-616,-776,0,0,0,0,0,0,0,0,0,-1,608,1800,0,0
-609,-776,0,0,0,0,0,0,0,0,0,-1,615,1800,0,0
-602,-776,0,0,0,0,0,0,0,0,0,-1,622,1800,0,0
-595,-776,0,0,0,0,0,0,0,0,0,-1,629,1800,0,0
-588,-776,0,0,0,0,0,0,0,0,0,-1,636,1800,0,0
-581,-776,0,0,0,0,0,0,0,0,0,-1,643,1800,0,0
-574,-776,0,0,0,0,0,0,0,0,0,-1,650,1800,0,0
-567,-776,0,0,0,0,0,0,0,0,0,-1,657,1800,0,0
-560,-776,0,0,0,0,0,0,0,0,0,-1,664,1800,0,0
-553,-776,0,0,0,0,0,0,0,0,0,-1,671,1800,0,0
-546,-776,0,0,0,0,0,0,0,0,0,-1,678,1800,0,0
-539,-776,0,0,0,0,0,0,0,0,0,-1,685,1800,0,0
-532,-776,0,0,0,0,0,0,0,0,0,-1,692,1800,0,0
-525,-776,0,0,0,0,0,0,0,0,0,-1,699,1800,0,0
-518,-776,0,0,0,0,0,0,0,0,0,-1,706,1800,0,0
-511,-776,0,0,0,0,0,0,0,0,0,-1,713,1800,0,0
-504,-776,0,0,0,0,0,0,0,0,0,-1,720,1800,0,0
-497,-776,0,0,0,0,0,0,0,0,0,-1,727,1800,0,0
-490,-776,0,0,0,0,0,0,0,0,0,-1,734,1800,0,0
-483,-776,0,0,0,0,0,0,0,0,0,-1,741,1800,0,0
-476,-776,0,0,0,0,0,0,0,0,0,-1,748,1800,0,0
-469,-776,0,0,0,0,0,0,0,0,0,-1,755,1800,0,0
-462,-776,0,0,0,0,0,0,0,0,0,-1,762,1800,0,0
-455,-776,0,0,0,0,0,0,0,0,0,-1,769,1800,0,0
-448,-776,0,0,0,0,0,0,0,0,0,-1,776,1800,0,0
-441,-776,0,0,0,0,0,0,0,0,0,-1,783,1800,0,0
-434,-776,0,0,0,0,0,0,0,0,0,-1,790,1800,0,0
-427,-776,0,0,0,0,0,0,0,0,0,-1,797,1800,0,0
-420,-776,0,0,0,0,0,0,0,0,0,-1,804,1800,0,0
-413,-776,0,0,0,0,0,0,0,0,0,-1,811,1800,0,0
-406,-776,0,0,0,0,0,0,0,0,0,-1,818,1800,0,0
-399,-776,0,0,0,0,0,0,0,0,0,-1,825,1800,0,0
-392,-776,0,0,0,0,0,0,0,0,0,-1,832,1800,0,0
-385,-776,0,0,0,0,0,0,0,0,0,-1,839,1800,0,0
-378,-776,0,0,0,0,0,0,0,0,0,-1,846,1800,0,0
-371,-776,0,0,0,0,0,0,0,0,0,-1,853,1800,0,0
-364,-776,0,0,0,0,0,0,0,0,0,-1,860,1800,0,0
-357,-776,0,0,0,0,0,0,0,0,0,-1,867,1800,0,0
-350,-776,0,0,0,0,0,0,0,0,0,-1,874,1800,0,0
-343,-776,0,0,0,0,0,0,0,0,0,-1,881,1800,0,0
-336,-776,0,0,0,0,0,0,0,0,0,-1,888,1800,0,0
-329,-776,0,0,0,0,0,0,0,0,0,-1,895,1800,0,0
-322,-776,0,0,0,0,0,0,0,0,0,-1,902,1800,0,0
-315,-776,0,0,0,0,0,0,0,0,0,-1,909,1800,0,0
-308,-776,0,0,0,0,0,0,0,0,0,-1,916,1800,0,0
-301,-776,0,0,0,0,0,0,0,0,0,-1,923,1800,0,0
-294,-776,0,0,0,0,0,0,0,0,0,-1,930,1800,0,0
-287,-776,0,0,0,0,0,0,0,0,0,-1,937,1800,0,0
-280,-776,0,0,0,0,0,0,0,0,0,-1,944,1800,0,0
-273,-776,0,0,0,0,0,0,0,0,0,-1,951,1800,0,0
-266,-776,0,0,0,0,0,0,0,0,0,-1,958,1800,0,0
-259,-776,0,0,0,0,0,0,0,0,0,-1,965,1800,0,0
-252,-776,0,0,0,0,0,0,0,0,0,-1,972,1800,0,0
-245,-776,0,0,0,0,0,0,0,0,0,-1,979,1800,0,0
-238,-776,0,0,0,0,0,0,0,0,0,-1,986,1800,0,0
-231,-776,0,0,0,0,0,0,0,0,0,-1,993,1800,0,0
-224,-776,0,0,0,0,0,0,0,0,0,-1,1000,1800,0,0
-217,-776,0,0,0,0,0,0,0,0,0,-1,1007,1800,0,0
-210,-776,0,0,0,0,0,0,0,0,0,-1,1014,1800,0,0
-203,-776,0,0,0,0,0,0,0,0,0,-1,1021,1800,0,0
-196,-776,0,0,0,0,0,0,0,0,0,-1,1028,1800,0,0
-189,-776,0,0,0,0,0,0,0,0,0,-1,1035,1800,0,0
-182,-776,0,0,0,0,0,0,0,0,0,-1,1042,1800,0,0
-175,-776,0,0,0,0,0,0,0,0,0,-1,1049,1800,0,0
-168,-776,0,0,0,0,0,0,0,0,0,-1,1056,1800,0,0
-161,-776,0,0,0,0,0,0,0,0,0,-1,1063,1800,0,0
-154,-776,0,0,0,0,0,0,0,0,0,-1,1070,1800,0,0
-147,-776,0,0,0,0,0,0,0,0,0,-1,1077,1800,0,0
-140,-776,2.98499,5.20911,0,0,0,0,0,0,0,-1,1084,1800,2.98493,-5.2091
-133,-776,6.72363,9.35828,0,0,0,0,0,0,0,-1,1091,1800,6.72358,-9.35824
-126,-776,6.55029,13.7832,0,0,0,0,0,0,0,-1,1098,1800,6.55029,-13.7832
-119,-776,5.72107,13.7787,0,0,0,0,0,0,0,-1,1105,1800,5.72106,-13.7787
-112,-776,6.84998,20.4421,0,0,0,0,0,0,0,-1,1112,1800,6.84993,-20.4421
-105,-776,4.46863,24.6742,0,0,0,0,0,0,0,-1,1119,1800,4.46868,-24.6742
-98,-776,4.31616,19.7659,0,0,0,0,0,0,0,-1,1126,1800,4.31619,-19.7659
-91,-776,3.30225,18.134,0,0,0,0,0,0,0,-1,1133,1800,3.30222,-18.134
-84,-776,2.67932,14.3162,0,0,0,0,0,0,0,-1,1140,1800,2.67926,-14.3161
-77,-776,0.580078,11.1272,0,0,0,0,0,0,0,-1,1147,1800,0.58002,-11.1272
-70,-776,-0.562866,12.3163,0,0,0,0,0,0,0,-1,1154,1800,-0.562897,-12.3163
-63,-776,-3.96106,9.97656,0,0,0,0,0,0,0,-1,1161,1800,-3.961,-9.97654
-56,-776,-7.35913,7.63672,0,0,0,0,0,0,0,-1,1168,1800,-7.3591,-7.63676
-49,-776,-7.62952,3.1908,0,0,0,0,0,0,0,-1,1175,1800,-7.62955,-3.19076
-42,-776,-3.41272,3.0249,0,0,0,0,0,0,0,-1,1182,1800,-3.41269,-3.02488
-35,-776,-3.71753,1.63635,0,0,0,0,0,0,0,-1,1189,1800,-3.71755,-1.63631
-28,-776,-4.03979,0.716064,0,0,0,0,0,0,0,-1,1196,1800,-4.03977,-0.716055
-21,-776,8.56567,36.7518,0,0,0,0,0,0,0,-1,1203,1800,8.56565,-36.7518
-14,-776,8.8363,37.09,0,0,0,0,0,0,0,-1,1210,1800,8.83626,-37.0899
-7,-776,8.35132,37.9785,0,0,0,0,0,0,0,-1,1217,1800,8.35127,-37.9785
0,-776,8.70459,37.7095,0,0,0,0,0,0,0,-1,1224,1800,8.70454,-37.7095
7,-776,9.05786,37.4404,0,0,0,0,0,0,0,-1,1231,1800,9.05781,-37.4404
14,-776,9.47412,37.8981,0,0,0,0,0,0,0,-1,1238,1800,9.47415,-37.8981
21,-776,8.40784,39.264,0,0,0,0,0,0,0,-1,1245,1800,8.40789,-39.2641
28,-776,8.55188,39.3107,0.0123758,-0.00499374,-0.00554612,0.0139957,-0.00661356,-0.28416,0.0121505,0.0428673,1252,1800,8.55184,-39.3107
35,-776,8.58203,39.3022,0.011529,-0.00778718,-0.00681335,0.0136904,-0.00994858,-0.307189,0.0137048,0.0422041,1259,1800,8.58203,-39.3023
42,-776,8.12573,38.8856,0.0120925,-0.0117567,-0.00713392,0.0140635,-0.0137278,-0.269567,0.0160457,0.0427234,1266,1800,8.12572,-38.8856
49,-776,7.91101,38.5829,0.0142209,-0.0171825,-0.00663119,0.0155638,-0.0185253,-0.199801,0.0197061,0.0443792,1273,1800,7.91099,-38.5829
56,-776,7.8125,38.4469,0.0163619,-0.0221203,-0.00583099,0.017226,-0.0229844,-0.147126,0.0232947,0.0446193,1280,1800,7.81254,-38.447
63,-776,7.67859,38.2979,0,0,0,0,0,0,0,-1,1287,1800,7.67858,-38.2978
70,-776,7.9812,37.923,0,0,0,0,0,0,0,-1,1294,1800,7.98122,-37.923
77,-776,8.44775,37.2711,0,0,0,0,0,0,0,-1,1301,1800,8.44773,-37.2712
84,-776,11.4716,35.1041,0,0,0,0,0,0,0,-1,1308,1800,11.4715,-35.1041
91,-776,7.401,37.922,0,0,0,0,0,0,0,-1,1315,1800,7.40104,-37.922
98,-776,7.22998,38.8499,0,0,0,0,0,0,0,-1,1322,1800,7.22999,-38.8499
105,-776,12.9718,33.1345,0,0,0,0,0,0,0,-1,1329,1800,12.9718,-33.1346
112,-776,14.4028,32.5002,0.0715002,-0.0173969,-0.00199847,0.0715451,-0.0174418,-0.0224656,0.0544499,0.0436647,1336,1800,14.4028,-32.5002
119,-776,15.3973,32.3711,0.0780902,-0.013821,-0.00269518,0.0781692,-0.0139,-0.0292901,0.0573108,0.0424604,1343,1800,15.3974,-32.3711
126,-776,16.2863,32.3013,0.0836761,-0.0111393,-0.00250876,0.0837425,-0.0112056,-0.0264347,0.0599138,0.0448052,1350,1800,16.2863,-32.3013
133,-776,17.3545,32.2345,0,0,0,0,0,0,0,-1,1357,1800,17.3545,-32.2345
140,-776,16.3987,36.0317,0,0,0,0,0,0,0,-1,1364,1800,16.3987,-36.0317
147,-776,4.38184,33.3923,0,0,0,0,0,0,0,-1,1371,1800,4.38185,-33.3923
154,-776,38.4338,21.854,0,0,0,0,0,0,0,-1,1378,1800,38.4339,-21.854
161,-776,6.50293,1.1731,0,0,0,0,0,0,0,-1,1385,1800,6.5029,-1.17313
168,-776,8.44971,1.22913,0,0,0,0,0,0,0,-1,1392,1800,8.44974,-1.22915
175,-776,8.61523,2.87061,0,0,0,0,0,0,0,-1,1399,1800,8.6152,-2.87063
182,-776,8.54065,4.60645,0,0,0,0,0,0,0,-1,1406,1800,8.5407,-4.60643
189,-776,8.35303,6.28223,0,0,0,0,0,0,0,-1,1413,1800,8.35297,-6.28225
196,-776,8.0387,8.21704,0,0,0,0,0,0,0,-1,1420,1800,8.03865,-8.217
203,-776,7.91736,9.79919,0,0,0,0,0,0,0,-1,1427,1800,7.91735,-9.79922
210,-776,20.2479,7.85718,0,0,0,0,0,0,0,-1,1434,1800,20.248,-7.85719
217,-776,21.5171,9.3418,0,0,0,0,0,0,0,-1,1441,1800,21.5171,-9.34182
224,-776,3.09253,14.9313,0,0,0,0,0,0,0,-1,1448,1800,3.09254,-14.9313
231,-776,20.8671,9.21057,0,0,0,0,0,0,0,-1,1455,1800,20.867,-9.21054
238,-776,20.7511,9.05847,0,0,0,0,0,0,0,-1,1462,1800,20.7511,-9.05848
245,-776,3.80823,15.4108,0,0,0,0,0,0,0,-1,1469,1800,3.80826,-15.4108
252,-776,8.57837,20.2009,0,0,0,0,0,0,0,-1,1476,1800,8.57841,-20.2009
259,-776,14.1882,7.69055,0,0,0,0,0,0,0,-1,1483,1800,14.1882,-7.69061
266,-776,0,0,0,0,0,0,0,0,0,-1,1490,1800,0,0
273,-776,0,0,0,0,0,0,0,0,0,-1,1497,1800,0,0
280,-776,0,0,0,0,0,0,0,0,0,-1,1504,1800,0,0
287,-776,0,0,0,0,0,0,0,0,0,-1,1511,1800,0,0
294,-776,0,0,0,0,0,0,0,0,0,-1,1518,1800,0,0
301,-776,0,0,0,0,0,0,0,0,0,-1,1525,1800,0,0
308,-776,0,0,0,0,0,0,0,0,0,-1,1532,1800,0,0
315,-776,0,0,0,0,0,0,0,0,0,-1,1539,1800,0,0
322,-776,0,0,0,0,0,0,0,0,0,-1,1546,1800,0,0
329,-776,0,0,0,0,0,0,0,0,0,-1,1553,1800,0,0
336,-776,0,0,0,0,0,0,0,0,0,-1,1560,1800,0,0
343,-776,0,0,0,0,0,0,0,0,0,-1,1567,1800,0,0
350,-776,0,0,0,0,0,0,0,0,0,-1,1574,1800,0,0
357,-776,0,0,0,0,0,0,0,0,0,-1,1581,1800,0,0
364,-776,0,0,0,0,0,0,0,0,0,-1,1588,1800,0,0
371,-776,0,0,0,0,0,0,0,0,0,-1,1595,1800,0,0
378,-776,0,0,0,0,0,0,0,0,0,-1,1602,1800,0,0
385,-776,0,0,0,0,0,0,0,0,0,-1,1609,1800,0,0
392,-776,0,0,0,0,0,0,0,0,0,-1,1616,1800,0,0
399,-776,0,0,0,0,0,0,0,0,0,-1,1623,1800,0,0
406,-776,0,0,0,0,0,0,0,0,0,-1,1630,1800,0,0
413,-776,0,0,0,0,0,0,0,0,0,-1,1637,1800,0,0
420,-776,0,0,0,0,0,0,0,0,0,-1,1644,1800,0,0
427,-776,0,0,0,0,0,0,0,0,0,-1,1651,1800,0,0
434,-776,0,0,0,0,0,0,0,0,0,-1,1658,1800,0,0
441,-776,0,0,0,0,0,0,0,0,0,-1,1665,1800,0,0
448,-776,0,0,0,0,0,0,0,0,0,-1,1672,1800,0,0
455,-776,0,0,0,0,0,0,0,0,0,-1,1679,1800,0,0
462,-776,0,0,0,0,0,0,0,0,0,-1,1686,1800,0,0
469,-776,0,0,0,0,0,0,0,0,0,-1,1693,1800,0,0
476,-776,0,0,0,0,0,0,0,0,0,-1,1700,1800,0,0
483,-776,0,0,0,0,0,0,0,0,0,-1,1707,1800,0,0
490,-776,0,0,0,0,0,0,0,0,0,-1,1714,1800,0,0
497,-776,0,0,0,0,0,0,0,0,0,-1,1721,1800,0,0
504,-776,0,0,0,0,0,0,0,0,0,-1,1728,1800,0,0
511,-776,0,0,0,0,0,0,0,0,0,-1,1735,1800,0,0
518,-776,0,0,0,0,0,0,0,0,0,-1,1742,1800,0,0
525,-776,0,0,0,0,0,0,0,0,0,-1,1749,1800,0,0
532,-776,0,0,0,0,0,0,0,0,0,-1,1756,1800,0,0
539,-776,0,0,0,0,0,0,0,0,0,-1,1763,1800,0,0
546,-776,0,0,0,0,0,0,0,0,0,-1,1770,1800,0,0
553,-776,0,0,0,0,0,0,0,0,0,-1,1777,1800,0,0
560,-776,0,0,0,0,0,0,0,0,0,-1,1784,1800,0,0
567,-776,0,0,0,0,0,0,0,0,0,-1,1791,1800,0,0
574,-776,0,0,0,0,0,0,0,0,0,-1,1798,1800,0,0
581,-776,0,0,0,0,0,0,0,0,0,-1,1805,1800,0,0
588,-776,0,0,0,0,0,0,0,0,0,-1,1812,1800,0,0
595,-776,0,0,0,0,0,0,0,0,0,-1,1819,1800,0,0
602,-776,0,0,0,0,0,0,0,0,0,-1,1826,1800,0,0
609,-776,0,0,0,0,0,0,0,0,0,-1,1833,1800,0,0
616,-776,0,0,0,0,0,0,0,0,0,-1,1840,1800,0,0
623,-776,0,0,0,0,0,0,0,0,0,-1,1847,1800,0,0
630,-776,0,0,0,0,0,0,0,0,0,-1,1854,1800,0,0
637,-776,0,0,0,0,0,0,0,0,0,-1,1861,1800,0,0
644,-776,0,0,0,0,0,0,0,0,0,-1,1868,1800,0,0
651,-776,0,0,0,0,0,0,0,0,0,-1,1875,1800,0,0
658,-776,0,0,0,0,0,0,0,0,0,-1,1882,1800,0,0
665,-776,0,0,0,0,0,0,0,0,0,-1,1889,1800,0,0
672,-776,0,0,0,0,0,0,0,0,0,-1,1896,1800,0,0
679,-776,0,0,0,0,0,0,0,0,0,-1,1903,1800,0,0
686,-776,0,0,0,0,0,0,0,0,0,-1,1910,1800,0,0
693,-776,0,0,0,0,0,0,0,0,0,-1,1917,1800,0,0
700,-776,0,0,0,0,0,0,0,0,0,-1,1924,1800,0,0
707,-776,0,0,0,0,0,0,0,0,0,-1,1931,1800,0,0
714,-776,0,0,0,0,0,0,0,0,0,-1,1938,1800,0,0
721,-776,0,0,0,0,0,0,0,0,0,-1,1945,1800,0,0
728,-776,0,0,0,0,0,0,0,0,0,-1,1952,1800,0,0
735,-776,0,0,0,0,0,0,0,0,0,-1,1959,1800,0,0
742,-776,0,0,0,0,0,0,0,0,0,-1,1966,1800,0,0
749,-776,0,0,0,0,0,0,0,0,0,-1,1973,1800,0,0
756,-776,0,0,0,0,0,0,0,0,0,-1,1980,1800,0,0
763,-776,0,0,0,0,0,0,0,0,0,-1,1987,1800,0,0
770,-776,0,0,0,0,0,0,0,0,0,-1,1994,1800,0,0
777,-776,0,0,0,0,0,0,0,0,0,-1,2001,1800,0,0
784,-776,0,0,0,0,0,0,0,0,0,-1,2008,1800,0,0
791,-776,0,0,0,0,0,0,0,0,0,-1,2015,1800,0,0
798,-776,0,0,0,0,0,0,0,0,0,-1,2022,1800,0,0
805,-776,0,0,0,0,0,0,0,0,0,-1,2029,1800,0,0
812,-776,0,0,0,0,0,0,0,0,0,-1,2036,1800,0,0
-700,-783,0,0,0,0,0,0,0,0,0,-1,524,1807,0,0
-693,-783,0,0,0,0,0,0,0,0,0,-1,531,1807,0,0
-686,-783,0,0,0,0,0,0,0,0,0,-1,538,1807,0,0
-679,-783,0,0,0,0,0,0,0,0,0,-1,545,1807,0,0
-672,-783,0,0,0,0,0,0,0,0,0,-1,552,1807,0,0
-665,-783,0,0,0,0,0,0,0,0,0,-1,559,1807,0,0
-658,-783,0,0,0,0,0,0,0,0,0,-1,566,1807,0,0
-651,-783,0,0,0,0,0,0,0,0,0,-1,573,1807,0,0
-644,-783,0,0,0,0,0,0,0,0,0,-1,580,1807,0,0
-637,-783,0,0,0,0,0,0,0,0,0,-1,587,1807,0,0
-630,-783,0,0,0,0,0,0,0,0,0,-1,594,1807,0,0
-623,-783,0,0,0,0,0,0,0,0,0,-1,601,1807,0,0
-616,-783,0,0,0,0,0,0,0,0,0,-1,608,1807,0,0
-609,-783,0,0,0,0,0,0,0,0,0,-1,615,1807,0,0
-602,-783,0,0,0,0,0,0,0,0,0,-1,622,1807,0,0
-595,-783,0,0,0,0,0,0,0,0,0,-1,629,1807,0,0
-588,-783,0,0,0,0,0,0,0,0,0,-1,636,1807,0,0
-581,-783,0,0,0,0,0,0,0,0,0,-1,643,1807,0,0
-574,-783,0,0,0,0,0,0,0,0,0,-1,650,1807,0,0
-567,-783,0,0,0,0,0,0,0,0,0,-1,657,1807,0,0
-560,-783,0,0,0,0,0,0,0,0,0,-1,664,1807,0,0
-553,-783,0,0,0,0,0,0,0,0,0,-1,671,1807,0,0
-546,-783,0,0,0,0,0,0,0,0,0,-1,678,1807,0,0
-539,-783,0,0,0,0,0,0,0,0,0,-1,685,1807,0,0
-532,-783,0,0,0,0,0,0,0,0,0,-1,692,1807,0,0
-525,-783,0,0,0,0,0,0,0,0,0,-1,699,1807,0,0
-518,-783,0,0,0,0,0,0,0,0,0,-1,706,1807,0,0
-511,-783,0,0,0,0,0,0,0,0,0,-1,713,1807,0,0
-504,-783,0,0,0,0,0,0,0,0,0,-1,720,1807,0,0
-497,-783,0,0,0,0,0,0,0,0,0,-1,727,1807,0,0
-490,-783,0,0,0,0,0,0,0,0,0,-1,734,1807,0,0
-483,-783,0,0,0,0,0,0,0,0,0,-1,741,1807,0,0
-476,-783,0,0,0,0,0,0,0,0,0,-1,748,1807,0,0
-469,-783,0,0,0,0,0,0,0,0,0,-1,755,1807,0,0
-462,-783,0,0,0,0,0,0,0,0,0,-1,762,1807,0,0
-455,-783,0,0,0,0,0,0,0,0,0,-1,769,1807,0,0
-448,-783,0,0,0,0,0,0,0,0,0,-1,776,1807,0,0
-441,-783,0,0,0,0,0,0,0,0,0,-1,783,1807,0,0
-434,-783,0,0,0,0,0,0,0,0,0,-1,790,1807,0,0
-427,-783,0,0,0,0,0,0,0,0,0,-1,797,1807,0,0
-420,-783,0,0,0,0,0,0,0,0,0,-1,804,1807,0,0
-413,-783,0,0,0,0,0,0,0,0,0,-1,811,1807,0,0
-406,-783,0,0,0,0,0,0,0,0,0,-1,818,1807,0,0
-399,-783,0,0,0,0,0,0,0,0,0,-1,825,1807,0,0
-392,-783,0,0,0,0,0,0,0,0,0,-1,832,1807,0,0
-385,-783,0,0,0,0,0,0,0,0,0,-1,839,1807,0,0
-378,-783,0,0,0,0,0,0,0,0,0,-1,846,1807,0,0
-371,-783,0,0,0,0,0,0,0,0,0,-1,853,1807,0,0
-364,-783,0,0,0,0,0,0,0,0,0,-1,860,1807,0,0
-357,-783,0,0,0,0,0,0,0,0,0,-1,867,1807,0,0
-350,-783,0,0,0,0,0,0,0,0,0,-1,874,1807,0,0
-343,-783,0,0,0,0,0,0,0,0,0,-1,881,1807,0,0
-336,-783,0,0,0,0,0,0,0,0,0,-1,888,1807,0,0
-329,-783,0,0,0,0,0,0,0,0,0,-1,895,1807,0,0
-322,-783,0,0,0,0,0,0,0,0,0,-1,902,1807,0,0
-315,-783,0,0,0,0,0,0,0,0,0,-1,909,1807,0,0
-308,-783,0,0,0,0,0,0,0,0,0,-1,916,1807,0,0
-301,-783,0,0,0,0,0,0,0,0,0,-1,923,1807,0,0
-294,-783,0,0,0,0,0,0,0,0,0,-1,930,1807,0,0
-287,-783,0,0,0,0,0,0,0,0,0,-1,937,1807,0,0
-280,-783,0,0,0,0,0,0,0,0,0,-1,944,1807,0,0
-273,-783,0,0,0,0,0,0,0,0,0,-1,951,1807,0,0
-266,-783,0,0,0,0,0,0,0,0,0,-1,958,1807,0,0
-259,-783,0,0,0,0,0,0,0,0,0,-1,965,1807,0,0
-252,-783,0,0,0,0,0,0,0,0,0,-1,972,1807,0,0
-245,-783,0,0,0,0,0,0,0,0,0,-1,979,1807,0,0
-238,-783,0,0,0,0,0,0,0,0,0,-1,986,1807,0,0
-231,-783,0,0,0,0,0,0,0,0,0,-1,993,1807,0,0
-224,-783,0,0,0,0,0,0,0,0,0,-1,1000,1807,0,0
-217,-783,0,0,0,0,0,0,0,0,0,-1,1007,1807,0,0
-210,-783,0,0,0,0,0,0,0,0,0,-1,1014,1807,0,0
-203,-783,0,0,0,0,0,0,0,0,0,-1,1021,1807,0,0
-196,-783,0,0,0,0,0,0,0,0,0,-1,1028,1807,0,0
-189,-783,0,0,0,0,0,0,0,0,0,-1,1035,1807,0,0
-182,-783,0,0,0,0,0,0,0,0,0,-1,1042,1807,0,0
-175,-783,0,0,0,0,0,0,0,0,0,-1,1049,1807,0,0
-168,-783,0,0,0,0,0,0,0,0,0,-1,1056,1807,0,0
-161,-783,0,0,0,0,0,0,0,0,0,-1,1063,1807,0,0
-154,-783,0,0,0,0,0,0,0,0,0,-1,1070,1807,0,0
-147,-783,0,0,0,0,0,0,0,0,0,-1,1077,1807,0,0
-140,-783,0,0,0,0,0,0,0,0,0,-1,1084,1807,0,0
-133,-783,0,0,0,0,0,0,0,0,0,-1,1091,1807,0,0
-126,-783,0,0,0,0,0,0,0,0,0,-1,1098,1807,0,0
-119,-783,0,0,0,0,0,0,0,0,0,-1,1105,1807,0,0
-112,-783,5.33936,14.7699,0,0,0,0,0,0,0,-1,1112,1807,5.33931,-14.7699
-105,-783,6.44263,21.2224,0,0,0,0,0,0,0,-1,1119,1807,6.44263,-21.2224
-98,-783,5.54773,20.5695,0,0,0,0,0,0,0,-1,1126,1807,5.54772,-20.5695
-91,-783,2.6106,20.2491,0,0,0,0,0,0,0,-1,1133,1807,2.61056,-20.2492
-84,-783,-0.0491943,14.5743,0,0,0,0,0,0,0,-1,1140,1807,-0.0491562,-14.5743
-77,-783,0.332764,12.7788,0,0,0,0,0,0,0,-1,1147,1807,0.332743,-12.7788
-70,-783,-1.93176,5.12817,0,0,0,0,0,0,0,-1,1154,1807,-1.93171,-5.12813
-63,-783,-5.31702,10.54,0,0,0,0,0,0,0,-1,1161,1807,-5.31703,-10.54
-56,-783,-6.26135,6.9679,0,0,0,0,0,0,0,-1,1168,1807,-6.26136,-6.96785
-49,-783,-3.17688,4.59705,0,0,0,0,0,0,0,-1,1175,1807,-3.17685,-4.5971
-42,-783,-3.72876,3.1405,0,0,0,0,0,0,0,-1,1182,1807,-3.72874,-3.14055
-35,-783,-3.97046,1.59399,0,0,0,0,0,0,0,-1,1189,1807,-3.97041,-1.59401
-28,-783,-4.12195,0.270386,0,0,0,0,0,0,0,-1,1196,1807,-4.12197,-0.270408
-21,-783,9.24963,36.745,0,0,0,0,0,0,0,-1,1203,1807,9.24964,-36.745
-14,-783,8.74463,36.8944,0,0,0,0,0,0,0,-1,1210,1807,8.74469,-36.8944
-7,-783,7.82471,42.105,0,0,0,0,0,0,0,-1,1217,1807,7.82475,-42.105
0,-783,9.02283,37.5658,0,0,0,0,0,0,0,-1,1224,1807,9.02277,-37.5658
7,-783,7.77197,40.3589,0.0276066,0.00542698,0.00221942,0.0278265,0.00520707,0.0987609,0.0170819,0.0440609,1231,1807,7.77196,-40.3588
14,-783,8.05078,40.3158,0.0239313,0.00282024,-0.000737483,0.023957,0.00279451,-0.0348768,0.0151261,0.0445032,1238,1807,8.05081,-40.3158
21,-783,8.26709,39.8845,0,0,0,0,0,0,0,-1,1245,1807,8.26709,-39.8845
28,-783,8.42285,39.9147,0.0197481,-0.00505702,-0.00550738,0.0209159,-0.00622482,-0.208948,0.0164171,0.0440249,1252,1807,8.4229,-39.9147
35,-783,7.70898,39.5731,0.0188445,-0.00904375,-0.00732315,0.0206505,-0.0108498,-0.241793,0.0184778,0.0456213,1259,1807,7.70892,-39.5731
42,-783,7.86267,39.1039,0.0197366,-0.0147268,-0.00782767,0.0214312,-0.0164213,-0.213196,0.0219179,0.0454144,1266,1807,7.86262,-39.1039
49,-783,7.98938,38.7729,0.0224952,-0.0222817,-0.0072004,0.0236246,-0.0234111,-0.155582,0.0271562,0.0446581,1273,1807,7.98933,-38.773
56,-783,8.21008,38.5917,0.0253884,-0.029341,-0.00617943,0.0260775,-0.03003,-0.111046,0.0324205,0.0447758,1280,1807,8.21013,-38.5916
63,-783,8.36548,38.3856,0.0309465,-0.0389369,-0.00406011,0.0311816,-0.039172,-0.0578389,0.0407059,0.0469706,1287,1807,8.36553,-38.3856
70,-783,8.46997,38.1616,0.0381577,-0.0362142,-0.00490861,0.0384803,-0.0365368,-0.0656215,0.0433159,0.0492113,1294,1807,8.47003,-38.1616
77,-783,8.5907,37.9287,0,0,0,0,0,0,0,-1,1301,1807,8.59071,-37.9288
84,-783,10.797,36.2069,0,0,0,0,0,0,0,-1,1308,1807,10.797,-36.2069
91,-783,11.1064,35.5886,0,0,0,0,0,0,0,-1,1315,1807,11.1064,-35.5886
98,-783,11.6221,35.3744,0.0743764,-0.0455331,0.00180257,0.0744034,-0.0455602,0.0150283,0.0699252,0.0486506,1322,1807,11.622,-35.3744
105,-783,12.4076,34.5719,0,0,0,0,0,0,0,-1,1329,1807,12.4075,-34.5719
112,-783,13.5273,34.0095,0.0934504,-0.0417603,0.00293294,0.093514,-0.0418239,0.0216781,0.0800145,0.0454311,1336,1807,13.5273,-34.0096
119,-783,14.5735,33.483,0.102609,-0.0398769,0.00282685,0.102666,-0.0399329,0.019829,0.0849433,0.0436576,1343,1807,14.5735,-33.483
126,-783,15.6094,32.917,0.110905,-0.0387942,0.00356374,0.11099,-0.038879,0.023788,0.0898036,0.0480405,1350,1807,15.6093,-32.917
133,-783,16.7822,32.3092,0,0,0,0,0,0,0,-1,1357,1807,16.7823,-32.3092
140,-783,18.3468,35.1345,0,0,0,0,0,0,0,-1,1364,1807,18.3468,-35.1345
147,-783,19.5115,35.8862,0,0,0,0,0,0,0,-1,1371,1807,19.5115,-35.8862
154,-783,38.2109,17.545,0,0,0,0,0,0,0,-1,1378,1807,38.2109,-17.545
161,-783,39.5087,17.5449,0,0,0,0,0,0,0,-1,1385,1807,39.5087,-17.545
168,-783,8.62561,1.79944,0,0,0,0,0,0,0,-1,1392,1807,8.62561,-1.79946
175,-783,8.78699,3.40857,0,0,0,0,0,0,0,-1,1399,1807,8.78697,-3.40854
182,-783,8.70984,5.14661,0,0,0,0,0,0,0,-1,1406,1807,8.70989,-5.14666
189,-783,8.55762,6.79871,0,0,0,0,0,0,0,-1,1413,1807,8.55766,-6.79872
196,-783,8.25488,8.66626,0,0,0,0,0,0,0,-1,1420,1807,8.25492,-8.66628
203,-783,7.86755,10.5735,0,0,0,0,0,0,0,-1,1427,1807,7.8676,-10.5734
210,-783,5.6969,8.99231,0,0,0,0,0,0,0,-1,1434,1807,5.69693,-8.99234
217,-783,5.28503,3.80872,0,0,0,0,0,0,0,-1,1441,1807,5.285,-3.80868
224,-783,3.22571,6.62903,0,0,0,0,0,0,0,-1,1448,1807,3.2257,-6.62907
231,-783,4.27942,4.56262,0,0,0,0,0,0,0,-1,1455,1807,4.27948,-4.56267
238,-783,0,0,0,0,0,0,0,0,0,-1,1462,1807,0,0
245,-783,0,0,0,0,0,0,0,0,0,-1,1469,1807,0,0
252,-783,0,0,0,0,0,0,0,0,0,-1,1476,1807,0,0
259,-783,0,0,0,0,0,0,0,0,0,-1,1483,1807,0,0
266,-783,0,0,0,0,0,0,0,0,0,-1,1490,1807,0,0
273,-783,0,0,0,0,0,0,0,0,0,-1,1497,1807,0,0
280,-783,0,0,0,0,0,0,0,0,0,-1,1504,1807,0,0
287,-783,0,0,0,0,0,0,0,0,0,-1,1511,1807,0,0
294,-783,0,0,0,0,0,0,0,0,0,-1,1518,1807,0,0
301,-783,0,0,0,0,0,0,0,0,0,-1,1525,1807,0,0
308,-783,0,0,0,0,0,0,0,0,0,-1,1532,1807,0,0
315,-783,0,0,0,0,0,0,0,0,0,-1,1539,1807,0,0
322,-783,0,0,0,0,0,0,0,0,0,-1,1546,1807,0,0
329,-783,0,0,0,0,0,0,0,0,0,-1,1553,1807,0,0
336,-783,0,0,0,0,0,0,0,0,0,-1,1560,1807,0,0
343,-783,0,0,0,0,0,0,0,0,0,-1,1567,1807,0,0
350,-783,0,0,0,0,0,0,0,0,0,-1,1574,1807,0,0
357,-783,0,0,0,0,0,0,0,0,0,-1,1581,1807,0,0
364,-783,0,0,0,0,0,0,0,0,0,-1,1588,1807,0,0
371,-783,0,0,0,0,0,0,0,0,0,-1,1595,1807,0,0
378,-783,0,0,0,0,0,0,0,0,0,-1,1602,1807,0,0
385,-783,0,0,0,0,0,0,0,0,0,-1,1609,1807,0,0
392,-783,0,0,0,0,0,0,0,0,0,-1,1616,1807,0,0
399,-783,0,0,0,0,0,0,0,0,0,-1,1623,1807,0,0
406,-783,0,0,0,0,0,0,0,0,0,-1,1630,1807,0,0
413,-783,0,0,0,0,0,0,0,0,0,-1,1637,1807,0,0
420,-783,0,0,0,0,0,0,0,0,0,-1,1644,1807,0,0
427,-783,0,0,0,0,0,0,0,0,0,-1,1651,1807,0,0
434,-783,0,0,0,0,0,0,0,0,0,-1,1658,1807,0,0
441,-783,0,0,0,0,0,0,0,0,0,-1,1665,1807,0,0
448,-783,0,0,0,0,0,0,0,0,0,-1,1672,1807,0,0
455,-783,0,0,0,0,0,0,0,0,0,-1,1679,1807,0,0
462,-783,0,0,0,0,0,0,0,0,0,-1,1686,1807,0,0
469,-783,0,0,0,0,0,0,0,0,0,-1,1693,1807,0,0
476,-783,0,0,0,0,0,0,0,0,0,-1,1700,1807,0,0
483,-783,0,0,0,0,0,0,0,0,0,-1,1707,1807,0,0
490,-783,0,0,0,0,0,0,0,0,0,-1,1714,1807,0,0
497,-783,0,0,0,0,0,0,0,0,0,-1,1721,1807,0,0
504,-783,0,0,0,0,0,0,0,0,0,-1,1728,1807,0,0
511,-783,0,0,0,0,0,0,0,0,0,-1,1735,1807,0,0
518,-783,0,0,0,0,0,0,0,0,0,-1,1742,1807,0,0
525,-783,0,0,0,0,0,0,0,0,0,-1,1749,1807,0,0
532,-783,0,0,0,0,0,0,0,0,0,-1,1756,1807,0,0
539,-783,0,0,0,0,0,0,0,0,0,-1,1763,1807,0,0
546,-783,0,0,0,0,0,0,0,0,0,-1,1770,1807,0,0
553,-783,0,0,0,0,0,0,0,0,0,-1,1777,1807,0,0
560,-783,0,0,0,0,0,0,0,0,0,-1,1784,1807,0,0
567,-783,0,0,0,0,0,0,0,0,0,-1,1791,1807,0,0
574,-783,0,0,0,0,0,0,0,0,0,-1,1798,1807,0,0
581,-783,0,0,0,0,0,0,0,0,0,-1,1805,1807,0,0
588,-783,0,0,0,0,0,0,0,0,0,-1,1812,1807,0,0
595,-783,0,0,0,0,0,0,0,0,0,-1,1819,1807,0,0
602,-783,0,0,0,0,0,0,0,0,0,-1,1826,1807,0,0
609,-783,0,0,0,0,0,0,0,0,0,-1,1833,1807,0,0
616,-783,0,0,0,0,0,0,0,0,0,-1,1840,1807,0,0
623,-783,0,0,0,0,0,0,0,0,0,-1,1847,1807,0,0
630,-783,0,0,0,0,0,0,0,0,0,-1,1854,1807,0,0
637,-783,0,0,0,0,0,0,0,0,0,-1,1861,1807,0,0
644,-783,0,0,0,0,0,0,0,0,0,-1,1868,1807,0,0
651,-783,0,0,0,0,0,0,0,0,0,-1,1875,1807,0,0
658,-783,0,0,0,0,0,0,0,0,0,-1,1882,1807,0,0
665,-783,0,0,0,0,0,0,0,0,0,-1,1889,1807,0,0
672,-783,0,0,0,0,0,0,0,0,0,-1,1896,1807,0,0
679,-783,0,0,0,0,0,0,0,0,0,-1,1903,1807,0,0
686,-783,0,0,0,0,0,0,0,0,0,-1,1910,1807,0,0
693,-783,0,0,0,0,0,0,0,0,0,-1,1917,1807,0,0
700,-783,0,0,0,0,0,0,0,0,0,-1,1924,1807,0,0
707,-783,0,0,0,0,0,0,0,0,0,-1,1931,1807,0,0
714,-783,0,0,0,0,0,0,0,0,0,-1,1938,1807,0,0
721,-783,0,0,0,0,0,0,0,0,0,-1,1945,1807,0,0
728,-783,0,0,0,0,0,0,0,0,0,-1,1952,1807,0,0
735,-783,0,0,0,0,0,0,0,0,0,-1,1959,1807,0,0
742,-783,0,0,0,0,0,0,0,0,0,-1,1966,1807,0,0
749,-783,0,0,0,0,0,0,0,0,0,-1,1973,1807,0,0
756,-783,0,0,0,0,0,0,0,0,0,-1,1980,1807,0,0
763,-783,0,0,0,0,0,0,0,0,0,-1,1987,1807,0,0
770,-783,0,0,0,0,0,0,0,0,0,-1,1994,1807,0,0
777,-783,0,0,0,0,0,0,0,0,0,-1,2001,1807,0,0
784,-783,0,0,0,0,0,0,0,0,0,-1,2008,1807,0,0
791,-783,0,0,0,0,0,0,0,0,0,-1,2015,1807,0,0
798,-783,0,0,0,0,0,0,0,0,0,-1,2022,1807,0,0
805,-783,0,0,0,0,0,0,0,0,0,-1,2029,1807,0,0
812,-783,0,0,0,0,0,0,0,0,0,-1,2036,1807,0,0
-700,-790,0,0,0,0,0,0,0,0,0,-1,524,1814,0,0
-693,-790,0,0,0,0,0,0,0,0,0,-1,531,1814,0,0
-686,-790,0,0,0,0,0,0,0,0,0,-1,538,1814,0,0
-679,-790,0,0,0,0,0,0,0,0,0,-1,545,1814,0,0
-672,-790,0,0,0,0,0,0,0,0,0,-1,552,1814,0,0
-665,-790,0,0,0,0,0,0,0,0,0,-1,559,1814,0,0
-658,-790,0,0,0,0,0,0,0,0,0,-1,566,1814,0,0
-651,-790,0,0,0,0,0,0,0,0,0,-1,573,1814,0,0
-644,-790,0,0,0,0,0,0,0,0,0,-1,580,1814,0,0
-637,-790,0,0,0,0,0,0,0,0,0,-1,587,1814,0,0
-630,-790,0,0,0,0,0,0,0,0,0,-1,594,1814,0,0
-623,-790,0,0,0,0,0,0,0,0,0,-1,601,1814,0,0
-616,-790,0,0,0,0,0,0,0,0,0,-1,608,1814,0,0
-609,-790,0,0,0,0,0,0,0,0,0,-1,615,1814,0,0
-602,-790,0,0,0,0,0,0,0,0,0,-1,622,1814,0,0
-595,-790,0,0,0,0,0,0,0,0,0,-1,629,1814,0,0
-588,-790,0,0,0,0,0,0,0,0,0,-1,636,1814,0,0
-581,-790,0,0,0,0,0,0,0,0,0,-1,643,1814,0,0
-574,-790,0,0,0,0,0,0,0,0,0,-1,650,1814,0,0
-567,-790,0,0,0,0,0,0,0,0,0,-1,657,1814,0,0
-560,-790,0,0,0,0,0,0,0,0,0,-1,664,1814,0,0
-553,-790,0,0,0,0,0,0,0,0,0,-1,671,1814,0,0
-546,-790,0,0,0,0,0,0,0,0,0,-1,678,1814,0,0
-539,-790,0,0,0,0,0,0,0,0,0,-1,685,1814,0,0
-532,-790,0,0,0,0,0,0,0,0,0,-1,692,1814,0,0
-525,-790,0,0,0,0,0,0,0,0,0,-1,699,1814,0,0
-518,-790,0,0,0,0,0,0,0,0,0,-1,706,1814,0,0
-511,-790,0,0,0,0,0,0,0,0,0,-1,713,1814,0,0
-504,-790,0,0,0,0,0,0,0,0,0,-1,720,1814,0,0
-497,-790,0,0,0,0,0,0,0,0,0,-1,727,1814,0,0
-490,-790,0,0,0,0,0,0,0,0,0,-1,734,1814,0,0
-483,-790,0,0,0,0,0,0,0,0,0,-1,741,1814,0,0
-476,-790,0,0,0,0,0,0,0,0,0,-1,748,1814,0,0
-469,-790,0,0,0,0,0,0,0,0,0,-1,755,1814,0,0
-462,-790,0,0,0,0,0,0,0,0,0,-1,762,1814,0,0
-455,-790,0,0,0,0,0,0,0,0,0,-1,769,1814,0,0
-448,-790,0,0,0,0,0,0,0,0,0,-1,776,1814,0,0
-441,-790,0,0,0,0,0,0,0,0,0,-1,783,1814,0,0
-434,-790,0,0,0,0,0,0,0,0,0,-1,790,1814,0,0
-427,-790,0,0,0,0,0,0,0,0,0,-1,797,1814,0,0
-420,-790,0,0,0,0,0,0,0,0,0,-1,804,1814,0,0
-413,-790,0,0,0,0,0,0,0,0,0,-1,811,1814,0,0
-406,-790,0,0,0,0,0,0,0,0,0,-1,818,1814,0,0
-399,-790,0,0,0,0,0,0,0,0,0,-1,825,1814,0,0
-392,-790,0,0,0,0,0,0,0,0,0,-1,832,1814,0,0
-385,-790,0,0,0,0,0,0,0,0,0,-1,839,1814,0,0
-378,-790,0,0,0,0,0,0,0,0,0,-1,846,1814,0,0
-371,-790,0,0,0,0,0,0,0,0,0,-1,853,1814,0,0
-364,-790,0,0,0,0,0,0,0,0,0,-1,860,1814,0,0
-357,-790,0,0,0,0,0,0,0,0,0,-1,867,1814,0,0
-350,-790,0,0,0,0,0,0,0,0,0,-1,874,1814,0,0
-343,-790,0,0,0,0,0,0,0,0,0,-1,881,1814,0,0
-336,-790,0,0,0,0,0,0,0,0,0,-1,888,1814,0,0
-329,-790,0,0,0,0,0,0,0,0,0,-1,895,1814,0,0
-322,-790,0,0,0,0,0,0,0,0,0,-1,902,1814,0,0
-315,-790,0,0,0,0,0,0,0,0,0,-1,909,1814,0,0
-308,-790,0,0,0,0,0,0,0,0,0,-1,916,1814,0,0
-301,-790,0,0,0,0,0,0,0,0,0,-1,923,1814,0,0
-294,-790,0,0,0,0,0,0,0,0,0,-1,930,1814,0,0
-287,-790,0,0,0,0,0,0,0,0,0,-1,937,1814,0,0
-280,-790,0,0,0,0,0,0,0,0,0,-1,944,1814,0,0
-273,-790,0,0,0,0,0,0,0,0,0,-1,951,1814,0,0
-266,-790,0,0,0,0,0,0,0,0,0,-1,958,1814,0,0
-259,-790,0,0,0,0,0,0,0,0,0,-1,965,1814,0,0
-252,-790,0,0,0,0,0,0,0,0,0,-1,972,1814,0,0
-245,-790,0,0,0,0,0,0,0,0,0,-1,979,1814,0,0
-238,-790,0,0,0,0,0,0,0,0,0,-1,986,1814,0,0
-231,-790,0,0,0,0,0,0,0,0,0,-1,993,1814,0,0
-224,-790,0,0,0,0,0,0,0,0,0,-1,1000,1814,0,0
-217,-790,0,0,0,0,0,0,0,0,0,-1,1007,1814,0,0
-210,-790,0,0,0,0,0,0,0,0,0,-1,1014,1814,0,0
-203,-790,0,0,0,0,0,0,0,0,0,-1,1021,1814,0,0
-196,-790,0,0,0,0,0,0,0,0,0,-1,1028,1814,0,0
-189,-790,0,0,0,0,0,0,0,0,0,-1,1035,1814,0,0
-182,-790,0,0,0,0,0,0,0,0,0,-1,1042,1814,0,0
-175,-790,0,0,0,0,0,0,0,0,0,-1,1049,1814,0,0
-168,-790,0,0,0,0,0,0,0,0,0,-1,1056,1814,0,0
-161,-790,0,0,0,0,0,0,0,0,0,-1,1063,1814,0,0
-154,-790,0,0,0,0,0,0,0,0,0,-1,1070,1814,0,0
-147,-790,0,0,0,0,0,0,0,0,0,-1,1077,1814,0,0
-140,-790,0,0,0,0,0,0,0,0,0,-1,1084,1814,0,0
-133,-790,0,0,0,0,0,0,0,0,0,-1,1091,1814,0,0
-126,-790,0,0,0,0,0,0,0,0,0,-1,1098,1814,0,0
-119,-790,0,0,0,0,0,0,0,0,0,-1,1105,1814,0,0
-112,-790,0,0,0,0,0,0,0,0,0,-1,1112,1814,0,0
-105,-790,0,0,0,0,0,0,0,0,0,-1,1119,1814,0,0
-98,-790,0,0,0,0,0,0,0,0,0,-1,1126,1814,0,0
-91,-790,0,0,0,0,0,0,0,0,0,-1,1133,1814,0,0
-84,-790,0,0,0,0,0,0,0,0,0,-1,1140,1814,0,0
-77,-790,-0.969238,5.30847,0,0,0,0,0,0,0,-1,1147,1814,-0.969277,-5.3085
-70,-790,-1.23169,4.98914,0,0,0,0,0,0,0,-1,1154,1814,-1.23163,-4.98916
-63,-790,-1.69128,4.32263,0,0,0,0,0,0,0,-1,1161,1814,-1.69128,-4.32258
-56,-790,-2.24756,3.75305,0,0,0,0,0,0,0,-1,1168,1814,-2.24758,-3.75302
-49,-790,-3.11011,3.35779,0,0,0,0,0,0,0,-1,1175,1814,-3.11006,-3.35781
-42,-790,0.593262,1.19165,0,0,0,0,0,0,0,-1,1182,1814,0.593225,-1.19165
-35,-790,0.307129,-0.20105,0,0,0,0,0,0,0,-1,1189,1814,0.307178,0.201006
-28,-790,-2.78467,0.785156,0,0,0,0,0,0,0,-1,1196,1814,-2.78471,-0.785183
-21,-790,7.69214,35.7385,0,0,0,0,0,0,0,-1,1203,1814,7.6921,-35.7385
-14,-790,6.85999,42.3339,0,0,0,0,0,0,0,-1,1210,1814,6.86002,-42.3339
-7,-790,6.83386,41.4637,0,0,0,0,0,0,0,-1,1217,1814,6.83384,-41.4638
0,-790,7.0177,40.9137,0,0,0,0,0,0,0,-1,1224,1814,7.01776,-40.9137
7,-790,7.16602,40.6042,0.0389558,0.00875651,0.00565425,0.0399797,0.00773258,0.17915,0.0244861,0.0447183,1231,1814,7.16602,-40.6042
14,-790,7.3667,40.2941,0.0343619,0.00572709,0.00148578,0.0344388,0.0056502,0.0517022,0.0213267,0.0448506,1238,1814,7.36674,-40.2941
21,-790,7.66907,39.9063,0.0313119,0.00143409,-0.00216569,0.031468,0.00127792,-0.0719834,0.0205659,0.043929,1245,1814,7.66906,-39.9063
28,-790,7.82922,39.5487,0.0296812,-0.00451898,-0.00484755,0.030355,-0.0051928,-0.138117,0.0221712,0.0435675,1252,1814,7.82923,-39.5487
35,-790,8.04712,39.2312,0.0288794,-0.0100552,-0.00728375,0.0301974,-0.0113732,-0.179014,0.0248075,0.0472788,1259,1814,8.04715,-39.2312
42,-790,8.08179,38.9524,0.0302387,-0.0179738,-0.00795046,0.0315159,-0.0192511,-0.159288,0.0295941,0.0471006,1266,1814,8.08173,-38.9524
49,-790,8.19031,38.7971,0.0336431,-0.028185,-0.00714691,0.0344585,-0.0290003,-0.113598,0.0366831,0.0462731,1273,1814,8.19026,-38.7971
56,-790,8.43408,38.6205,0.0373058,-0.0379409,-0.0058617,0.0377597,-0.0383948,-0.0772784,0.0439683,0.0442977,1280,1814,8.43405,-38.6204
63,-790,8.67346,38.3868,0.0437346,-0.0503122,-0.00339928,0.0438573,-0.0504349,-0.0360818,0.0544838,0.0464715,1287,1814,8.67347,-38.3868
70,-790,9.35645,38.1747,0.0518951,-0.052694,-0.0030491,0.0519839,-0.0527828,-0.0291202,0.0604877,0.0423213,1294,1814,9.3565,-38.1747
77,-790,9.86877,37.8629,0.061582,-0.0618879,9.9745e-05,0.0615821,-0.061888,0.000807847,0.0712856,0.0420481,1301,1814,9.86877,-37.8629
84,-790,10.1176,37.4521,0,0,0,0,0,0,0,-1,1308,1814,10.1175,-37.4522
91,-790,10.4164,36.9119,0.0827387,-0.0722905,0.00575286,0.0829519,-0.0725037,0.0370403,0.0898198,0.0478868,1315,1814,10.4164,-36.9119
98,-790,10.9058,36.4608,0.0942148,-0.0747009,0.00781348,0.0945755,-0.0750616,0.0461254,0.0981557,0.0467941,1322,1814,10.9058,-36.4608
105,-790,11.3519,36.0597,0,0,0,0,0,0,0,-1,1329,1814,11.352,-36.0597
112,-790,12.8177,35.5913,0,0,0,0,0,0,0,-1,1336,1814,12.8178,-35.5913
119,-790,13.8632,35.0536,0,0,0,0,0,0,0,-1,1343,1814,13.8631,-35.0536
126,-790,14.851,34.5054,0,0,0,0,0,0,0,-1,1350,1814,14.851,-34.5054
133,-790,15.274,33.887,0,0,0,0,0,0,0,-1,1357,1814,15.274,-33.8869
140,-790,16.0784,33.3459,0,0,0,0,0,0,0,-1,1364,1814,16.0784,-33.346
147,-790,9.01794,33.7303,0,0,0,0,0,0,0,-1,1371,1814,9.0179,-33.7304
154,-790,40.215,13.2396,0,0,0,0,0,0,0,-1,1378,1814,40.2149,-13.2396
161,-790,39.3429,13.0336,0,0,0,0,0,0,0,-1,1385,1814,39.3429,-13.0336
168,-790,7.04077,2.23279,0,0,0,0,0,0,0,-1,1392,1814,7.04082,-2.23275
175,-790,9.03918,3.98535,0,0,0,0,0,0,0,-1,1399,1814,9.0392,-3.98535
182,-790,8.96997,5.67896,0,0,0,0,0,0,0,-1,1406,1814,8.97001,-5.6789
189,-790,8.59729,6.86975,0,0,0,0,0,0,0,-1,1413,1814,8.59728,-6.86972
196,-790,8.21924,9.29053,0,0,0,0,0,0,0,-1,1420,1814,8.21924,-9.29048
203,-790,0,0,0,0,0,0,0,0,0,-1,1427,1814,0,0
210,-790,0,0,0,0,0,0,0,0,0,-1,1434,1814,0,0
217,-790,0,0,0,0,0,0,0,0,0,-1,1441,1814,0,0
224,-790,0,0,0,0,0,0,0,0,0,-1,1448,1814,0,0
231,-790,0,0,0,0,0,0,0,0,0,-1,1455,1814,0,0
238,-790,0,0,0,0,0,0,0,0,0,-1,1462,1814,0,0
245,-790,0,0,0,0,0,0,0,0,0,-1,1469,1814,0,0
252,-790,0,0,0,0,0,0,0,0,0,-1,1476,1814,0,0
259,-790,0,0,0,0,0,0,0,0,0,-1,1483,1814,0,0
266,-790,0,0,0,0,0,0,0,0,0,-1,1490,1814,0,0
273,-790,0,0,0,0,0,0,0,0,0,-1,1497,1814,0,0
280,-790,0,0,0,0,0,0,0,0,0,-1,1504,1814,0,0
287,-790,0,0,0,0,0,0,0,0,0,-1,1511,1814,0,0
294,-790,0,0,0,0,0,0,0,0,0,-1,1518,1814,0,0
301,-790,0,0,0,0,0,0,0,0,0,-1,1525,1814,0,0
308,-790,0,0,0,0,0,0,0,0,0,-1,1532,1814,0,0
315,-790,0,0,0,0,0,0,0,0,0,-1,1539,1814,0,0
322,-790,0,0,0,0,0,0,0,0,0,-1,1546,1814,0,0
329,-790,0,0,0,0,0,0,0,0,0,-1,1553,1814,0,0
336,-790,0,0,0,0,0,0,0,0,0,-1,1560,1814,0,0
343,-790,0,0,0,0,0,0,0,0,0,-1,1567,1814,0,0
350,-790,0,0,0,0,0,0,0,0,0,-1,1574,1814,0,0
357,-790,0,0,0,0,0,0,0,0,0,-1,1581,1814,0,0
364,-790,0,0,0,0,0,0,0,0,0,-1,1588,1814,0,0
371,-790,0,0,0,0,0,0,0,0,0,-1,1595,1814,0,0
378,-790,0,0,0,0,0,0,0,0,0,-1,1602,1814,0,0
385,-790,0,0,0,0,0,0,0,0,0,-1,1609,1814,0,0
392,-790,0,0,0,0,0,0,0,0,0,-1,1616,1814,0,0
399,-790,0,0,0,0,0,0,0,0,0,-1,1623,1814,0,0
406,-790,0,0,0,0,0,0,0,0,0,-1,1630,1814,0,0
413,-790,0,0,0,0,0,0,0,0,0,-1,1637,1814,0,0
420,-790,0,0,0,0,0,0,0,0,0,-1,1644,1814,0,0
427,-790,0,0,0,0,0,0,0,0,0,-1,1651,1814,0,0
434,-790,0,0,0,0,0,0,0,0,0,-1,1658,1814,0,0
441,-790,0,0,0,0,0,0,0,0,0,-1,1665,1814,0,0
448,-790,0,0,0,0,0,0,0,0,0,-1,1672,1814,0,0
455,-790,0,0,0,0,0,0,0,0,0,-1,1679,1814,0,0
462,-790,0,0,0,0,0,0,0,0,0,-1,1686,1814,0,0
469,-790,0,0,0,0,0,0,0,0,0,-1,1693,1814,0,0
476,-790,0,0,0,0,0,0,0,0,0,-1,1700,1814,0,0
483,-790,0,0,0,0,0,0,0,0,0,-1,1707,1814,0,0
490,-790,0,0,0,0,0,0,0,0,0,-1,1714,1814,0,0
497,-790,0,0,0,0,0,0,0,0,0,-1,1721,1814,0,0
504,-790,0,0,0,0,0,0,0,0,0,-1,1728,1814,0,0
511,-790,0,0,0,0,0,0,0,0,0,-1,1735,1814,0,0
518,-790,0,0,0,0,0,0,0,0,0,-1,1742,1814,0,0
525,-790,0,0,0,0,0,0,0,0,0,-1,1749,1814,0,0
532,-790,0,0,0,0,0,0,0,0,0,-1,1756,1814,0,0
539,-790,0,0,0,0,0,0,0,0,0,-1,1763,1814,0,0
546,-790,0,0,0,0,0,0,0,0,0,-1,1770,1814,0,0
553,-790,0,0,0,0,0,0,0,0,0,-1,1777,1814,0,0
560,-790,0,0,0,0,0,0,0,0,0,-1,1784,1814,0,0
567,-790,0,0,0,0,0,0,0,0,0,-1,1791,1814,0,0
574,-790,0,0,0,0,0,0,0,0,0,-1,1798,1814,0,0
581,-790,0,0,0,0,0,0,0,0,0,-1,1805,1814,0,0
588,-790,0,0,0,0,0,0,0,0,0,-1,1812,1814,0,0
595,-790,0,0,0,0,0,0,0,0,0,-1,1819,1814,0,0
602,-790,0,0,0,0,0,0,0,0,0,-1,1826,1814,0,0
609,-790,0,0,0,0,0,0,0,0,0,-1,1833,1814,0,0
616,-790,0,0,0,0,0,0,0,0,0,-1,1840,1814,0,0
623,-790,0,0,0,0,0,0,0,0,0,-1,1847,1814,0,0
630,-790,0,0,0,0,0,0,0,0,0,-1,1854,1814,0,0
637,-790,0,0,0,0,0,0,0,0,0,-1,1861,1814,0,0
644,-790,0,0,0,0,0,0,0,0,0,-1,1868,1814,0,0
651,-790,0,0,0,0,0,0,0,0,0,-1,1875,1814,0,0
658,-790,0,0,0,0,0,0,0,0,0,-1,1882,1814,0,0
665,-790,0,0,0,0,0,0,0,0,0,-1,1889,1814,0,0
672,-790,0,0,0,0,0,0,0,0,0,-1,1896,1814,0,0
679,-790,0,0,0,0,0,0,0,0,0,-1,1903,1814,0,0
686,-790,0,0,0,0,0,0,0,0,0,-1,1910,1814,0,0
693,-790,0,0,0,0,0,0,0,0,0,-1,1917,1814,0,0
700,-790,0,0,0,0,0,0,0,0,0,-1,1924,1814,0,0
707,-790,0,0,0,0,0,0,0,0,0,-1,1931,1814,0,0
714,-790,0,0,0,0,0,0,0,0,0,-1,1938,1814,0,0
721,-790,0,0,0,0,0,0,0,0,0,-1,1945,1814,0,0
728,-790,0,0,0,0,0,0,0,0,0,-1,1952,1814,0,0
735,-790,0,0,0,0,0,0,0,0,0,-1,1959,1814,0,0
742,-790,0,0,0,0,0,0,0,0,0,-1,1966,1814,0,0
749,-790,0,0,0,0,0,0,0,0,0,-1,1973,1814,0,0
756,-790,0,0,0,0,0,0,0,0,0,-1,1980,1814,0,0
763,-790,0,0,0,0,0,0,0,0,0,-1,1987,1814,0,0
770,-790,0,0,0,0,0,0,0,0,0,-1,1994,1814,0,0
777,-790,0,0,0,0,0,0,0,0,0,-1,2001,1814,0,0
784,-790,0,0,0,0,0,0,0,0,0,-1,2008,1814,0,0
791,-790,0,0,0,0,0,0,0,0,0,-1,2015,1814,0,0
798,-790,0,0,0,0,0,0,0,0,0,-1,2022,1814,0,0
805,-790,0,0,0,0,0,0,0,0,0,-1,2029,1814,0,0
812,-790,0,0,0,0,0,0,0,0,0,-1,2036,1814,0,0
-700,-797,0,0,0,0,0,0,0,0,0,-1,524,1821,0,0
-693,-797,0,0,0,0,0,0,0,0,0,-1,531,1821,0,0
-686,-797,0,0,0,0,0,0,0,0,0,-1,538,1821,0,0
-679,-797,0,0,0,0,0,0,0,0,0,-1,545,1821,0,0
-672,-797,0,0,0,0,0,0,0,0,0,-1,552,1821,0,0
-665,-797,0,0,0,0,0,0,0,0,0,-1,559,1821,0,0
-658,-797,0,0,0,0,0,0,0,0,0,-1,566,1821,0,0
-651,-797,0,0,0,0,0,0,0,0,0,-1,573,1821,0,0
-644,-797,0,0,0,0,0,0,0,0,0,-1,580,1821,0,0
-637,-797,0,0,0,0,0,0,0,0,0,-1,587,1821,0,0
-630,-797,0,0,0,0,0,0,0,0,0,-1,594,1821,0,0
-623,-797,0,0,0,0,0,0,0,0,0,-1,601,1821,0,0
-616,-797,0,0,0,0,0,0,0,0,0,-1,608,1821,0,0
-609,-797,0,0,0,0,0,0,0,0,0,-1,615,1821,0,0
-602,-797,0,0,0,0,0,0,0,0,0,-1,622,1821,0,0
-595,-797,0,0,0,0,0,0,0,0,0,-1,629,1821,0,0
-588,-797,0,0,0,0,0,0,0,0,0,-1,636,1821,0,0
-581,-797,0,0,0,0,0,0,0,0,0,-1,643,1821,0,0
-574,-797,0,0,0,0,0,0,0,0,0,-1,650,1821,0,0
-567,-797,0,0,0,0,0,0,0,0,0,-1,657,1821,0,0
-560,-797,0,0,0,0,0,0,0,0,0,-1,664,1821,0,0
-553,-797,0,0,0,0,0,0,0,0,0,-1,671,1821,0,0
-546,-797,0,0,0,0,0,0,0,0,0,-1,678,1821,0,0
-539,-797,0,0,0,0,0,0,0,0,0,-1,685,1821,0,0
-532,-797,0,0,0,0,0,0,0,0,0,-1,692,1821,0,0
-525,-797,0,0,0,0,0,0,0,0,0,-1,699,1821,0,0
-518,-797,0,0,0,0,0,0,0,0,0,-1,706,1821,0,0
-511,-797,0,0,0,0,0,0,0,0,0,-1,713,1821,0,0
-504,-797,0,0,0,0,0,0,0,0,0,-1,720,1821,0,0
-497,-797,0,0,0,0,0,0,0,0,0,-1,727,1821,0,0
-490,-797,0,0,0,0,0,0,0,0,0,-1,734,1821,0,0
-483,-797,0,0,0,0,0,0,0,0,0,-1,741,1821,0,0
-476,-797,0,0,0,0,0,0,0,0,0,-1,748,1821,0,0
-469,-797,0,0,0,0,0,0,0,0,0,-1,755,1821,0,0
-462,-797,0,0,0,0,0,0,0,0,0,-1,762,1821,0,0
-455,-797,0,0,0,0,0,0,0,0,0,-1,769,1821,0,0
-448,-797,0,0,0,0,0,0,0,0,0,-1,776,1821,0,0
-441,-797,0,0,0,0,0,0,0,0,0,-1,783,1821,0,0
-434,-797,0,0,0,0,0,0,0,0,0,-1,790,1821,0,0
-427,-797,0,0,0,0,0,0,0,0,0,-1,797,1821,0,0
-420,-797,0,0,0,0,0,0,0,0,0,-1,804,1821,0,0
-413,-797,0,0,0,0,0,0,0,0,0,-1,811,1821,0,0
-406,-797,0,0,0,0,0,0,0,0,0,-1,818,1821,0,0
-399,-797,0,0,0,0,0,0,0,0,0,-1,825,1821,0,0
-392,-797,0,0,0,0,0,0,0,0,0,-1,832,1821,0,0
-385,-797,0,0,0,0,0,0,0,0,0,-1,839,1821,0,0
-378,-797,0,0,0,0,0,0,0,0,0,-1,846,1821,0,0
-371,-797,0,0,0,0,0,0,0,0,0,-1,853,1821,0,0
-364,-797,0,0,0,0,0,0,0,0,0,-1,860,1821,0,0
-357,-797,0,0,0,0,0,0,0,0,0,-1,867,1821,0,0
-350,-797,0,0,0,0,0,0,0,0,0,-1,874,1821,0,0
-343,-797,0,0,0,0,0,0,0,0,0,-1,881,1821,0,0
-336,-797,0,0,0,0,0,0,0,0,0,-1,888,1821,0,0
-329,-797,0,0,0,0,0,0,0,0,0,-1,895,1821,0,0
-322,-797,0,0,0,0,0,0,0,0,0,-1,902,1821,0,0
-315,-797,0,0,0,0,0,0,0,0,0,-1,909,1821,0,0
-308,-797,0,0,0,0,0,0,0,0,0,-1,916,1821,0,0
-301,-797,0,0,0,0,0,0,0,0,0,-1,923,1821,0,0
-294,-797,0,0,0,0,0,0,0,0,0,-1,930,1821,0,0
-287,-797,0,0,0,0,0,0,0,0,0,-1,937,1821,0,0
-280,-797,0,0,0,0,0,0,0,0,0,-1,944,1821,0,0
-273,-797,0,0,0,0,0,0,0,0,0,-1,951,1821,0,0
-266,-797,0,0,0,0,0,0,0,0,0,-1,958,1821,0,0
-259,-797,0,0,0,0,0,0,0,0,0,-1,965,1821,0,0
-252,-797,0,0,0,0,0,0,0,0,0,-1,972,1821,0,0
-245,-797,0,0,0,0,0,0,0,0,0,-1,979,1821,0,0
-238,-797,0,0,0,0,0,0,0,0,0,-1,986,1821,0,0
-231,-797,0,0,0,0,0,0,0,0,0,-1,993,1821,0,0
-224,-797,0,0,0,0,0,0,0,0,0,-1,1000,1821,0,0
-217,-797,0,0,0,0,0,0,0,0,0,-1,1007,1821,0,0
-210,-797,0,0,0,0,0,0,0,0,0,-1,1014,1821,0,0
-203,-797,0,0,0,0,0,0,0,0,0,-1,1021,1821,0,0
-196,-797,0,0,0,0,0,0,0,0,0,-1,1028,1821,0,0
-189,-797,0,0,0,0,0,0,0,0,0,-1,1035,1821,0,0
-182,-797,0,0,0,0,0,0,0,0,0,-1,1042,1821,0,0
-175,-797,0,0,0,0,0,0,0,0,0,-1,1049,1821,0,0
-168,-797,0,0,0,0,0,0,0,0,0,-1,1056,1821,0,0
-161,-797,0,0,0,0,0,0,0,0,0,-1,1063,1821,0,0
-154,-797,0,0,0,0,0,0,0,0,0,-1,1070,1821,0,0
-147,-797,0,0,0,0,0,0,0,0,0,-1,1077,1821,0,0
-140,-797,0,0,0,0,0,0,0,0,0,-1,1084,1821,0,0
-133,-797,0,0,0,0,0,0,0,0,0,-1,1091,1821,0,0
-126,-797,0,0,0,0,0,0,0,0,0,-1,1098,1821,0,0
-119,-797,0,0,0,0,0,0,0,0,0,-1,1105,1821,0,0
-112,-797,0,0,0,0,0,0,0,0,0,-1,1112,1821,0,0
-105,-797,0,0,0,0,0,0,0,0,0,-1,1119,1821,0,0
-98,-797,0,0,0,0,0,0,0,0,0,-1,1126,1821,0,0
-91,-797,0,0,0,0,0,0,0,0,0,-1,1133,1821,0,0
-84,-797,0,0,0,0,0,0,0,0,0,-1,1140,1821,0,0
-77,-797,0,0,0,0,0,0,0,0,0,-1,1147,1821,0,0
-70,-797,0,0,0,0,0,0,0,0,0,-1,1154,1821,0,0
-63,-797,0,0,0,0,0,0,0,0,0,-1,1161,1821,0,0
-56,-797,0,0,0,0,0,0,0,0,0,-1,1168,1821,0,0
-49,-797,0,0,0,0,0,0,0,0,0,-1,1175,1821,0,0
-42,-797,0.579834,0.692871,0,0,0,0,0,0,0,-1,1182,1821,0.579856,-0.692816
-35,-797,-0.185425,5.55396,0,0,0,0,0,0,0,-1,1189,1821,-0.18542,-5.55396
-28,-797,-0.310181,4.71509,0,0,0,0,0,0,0,-1,1196,1821,-0.310228,-4.71503
-21,-797,7.48779,35.4874,0,0,0,0,0,0,0,-1,1203,1821,7.48781,-35.4875
-14,-797,7.44312,36.4705,0,0,0,0,0,0,0,-1,1210,1821,7.44309,-36.4704
-7,-797,5.8429,40.8226,0,0,0,0,0,0,0,-1,1217,1821,5.84293,-40.8226
0,-797,6.16711,40.9957,0,0,0,0,0,0,0,-1,1224,1821,6.16713,-40.9957
7,-797,6.49414,40.6144,0.0527062,0.0133214,0.0102581,0.0552178,0.0108098,0.24012,0.03379,0.046948,1231,1821,6.49419,-40.6143
14,-797,6.83289,40.2098,0.0474035,0.0100277,0.00465341,0.0479742,0.00945703,0.122022,0.0293429,0.0464591,1238,1821,6.83285,-40.2098
21,-797,7.1936,39.8259,0.0442526,0.0046912,4.35239e-05,0.0442527,0.00469116,0.00110016,0.028069,0.0470695,1245,1821,7.19358,-39.826
28,-797,7.84143,39.3212,0.0429325,-0.00307344,-0.003273,0.0431642,-0.00330513,-0.0706686,0.0299387,0.0433895,1252,1821,7.8414,-39.3212
35,-797,8.20154,39.0297,0,0,0,0,0,0,0,-1,1259,1821,8.20159,-39.0296
42,-797,8.26843,38.9468,0,0,0,0,0,0,0,-1,1266,1821,8.26847,-38.9468
49,-797,8.37146,38.9017,0,0,0,0,0,0,0,-1,1273,1821,8.37152,-38.9017
56,-797,8.34839,38.7977,0,0,0,0,0,0,0,-1,1280,1821,8.34836,-38.7977
63,-797,8.34082,38.9797,0.0597236,-0.0632334,-0.00174034,0.0597482,-0.063258,-0.0141502,0.0710273,0.0423459,1287,1821,8.34087,-38.9798
70,-797,8.84692,39.2057,0.0683171,-0.0736729,0.000473092,0.0683187,-0.0736745,0.00333182,0.0819992,0.0406259,1294,1821,8.84687,-39.2057
77,-797,9.35962,38.9742,0.0785698,-0.0873001,0.00484141,0.078711,-0.0874413,0.0291549,0.0959722,0.0415355,1301,1821,9.35959,-38.9742
84,-797,9.57996,38.4833,0,0,0,0,0,0,0,-1,1308,1821,9.58,-38.4833
91,-797,9.69568,37.8173,0.102349,-0.107131,0.0134923,0.103214,-0.107997,0.0640555,0.121953,0.0471922,1315,1821,9.69567,-37.8173
98,-797,10.1824,37.3944,0.115762,-0.113792,0.0169311,0.117004,-0.115035,0.0732282,0.133969,0.0432768,1322,1821,10.1823,-37.3944
105,-797,10.5099,36.9381,0,0,0,0,0,0,0,-1,1329,1821,10.5098,-36.9381
112,-797,10.5488,36.4386,0,0,0,0,0,0,0,-1,1336,1821,10.5489,-36.4386
119,-797,13.0825,36.6353,0,0,0,0,0,0,0,-1,1343,1821,13.0825,-36.6352
126,-797,13.9556,36.1324,0,0,0,0,0,0,0,-1,1350,1821,13.9556,-36.1325
133,-797,14.7964,35.6436,0,0,0,0,0,0,0,-1,1357,1821,14.7964,-35.6435
140,-797,15.7264,35.1793,0,0,0,0,0,0,0,-1,1364,1821,15.7265,-35.1793
147,-797,16.7083,34.7194,0,0,0,0,0,0,0,-1,1371,1821,16.7083,-34.7194
154,-797,40.2623,8.88733,0,0,0,0,0,0,0,-1,1378,1821,40.2623,-8.88731
161,-797,42.2798,8.17371,0,0,0,0,0,0,0,-1,1385,1821,42.2798,-8.17367
168,-797,0,0,0,0,0,0,0,0,0,-1,1392,1821,0,0
175,-797,0,0,0,0,0,0,0,0,0,-1,1399,1821,0,0
182,-797,0,0,0,0,0,0,0,0,0,-1,1406,1821,0,0
189,-797,0,0,0,0,0,0,0,0,0,-1,1413,1821,0,0
196,-797,0,0,0,0,0,0,0,0,0,-1,1420,1821,0,0
203,-797,0,0,0,0,0,0,0,0,0,-1,1427,1821,0,0
210,-797,0,0,0,0,0,0,0,0,0,-1,1434,1821,0,0
217,-797,0,0,0,0,0,0,0,0,0,-1,1441,1821,0,0
224,-797,0,0,0,0,0,0,0,0,0,-1,1448,1821,0,0
231,-797,0,0,0,0,0,0,0,0,0,-1,1455,1821,0,0
238,-797,0,0,0,0,0,0,0,0,0,-1,1462,1821,0,0
245,-797,0,0,0,0,0,0,0,0,0,-1,1469,1821,0,0
252,-797,0,0,0,0,0,0,0,0,0,-1,1476,1821,0,0
259,-797,0,0,0,0,0,0,0,0,0,-1,1483,1821,0,0
266,-797,0,0,0,0,0,0,0,0,0,-1,1490,1821,0,0
273,-797,0,0,0,0,0,0,0,0,0,-1,1497,1821,0,0
280,-797,0,0,0,0,0,0,0,0,0,-1,1504,1821,0,0
287,-797,0,0,0,0,0,0,0,0,0,-1,1511,1821,0,0
294,-797,0,0,0,0,0,0,0,0,0,-1,1518,1821,0,0
301,-797,0,0,0,0,0,0,0,0,0,-1,1525,1821,0,0
308,-797,0,0,0,0,0,0,0,0,0,-1,1532,1821,0,0
315,-797,0,0,0,0,0,0,0,0,0,-1,1539,1821,0,0
322,-797,0,0,0,0,0,0,0,0,0,-1,1546,1821,0,0
329,-797,0,0,0,0,0,0,0,0,0,-1,1553,1821,0,0
336,-797,0,0,0,0,0,0,0,0,0,-1,1560,1821,0,0
343,-797,0,0,0,0,0,0,0,0,0,-1,1567,1821,0,0
350,-797,0,0,0,0,0,0,0,0,0,-1,1574,1821,0,0
357,-797,0,0,0,0,0,0,0,0,0,-1,1581,1821,0,0
364,-797,0,0,0,0,0,0,0,0,0,-1,1588,1821,0,0
371,-797,0,0,0,0,0,0,0,0,0,-1,1595,1821,0,0
378,-797,0,0,0,0,0,0,0,0,0,-1,1602,1821,0,0
385,-797,0,0,0,0,0,0,0,0,0,-1,1609,1821,0,0
392,-797,0,0,0,0,0,0,0,0,0,-1,1616,1821,0,0
399,-797,0,0,0,0,0,0,0,0,0,-1,1623,1821,0,0
406,-797,0,0,0,0,0,0,0,0,0,-1,1630,1821,0,0
413,-797,0,0,0,0,0,0,0,0,0,-1,1637,1821,0,0
420,-797,0,0,0,0,0,0,0,0,0,-1,1644,1821,0,0
427,-797,0,0,0,0,0,0,0,0,0,-1,1651,1821,0,0
434,-797,0,0,0,0,0,0,0,0,0,-1,1658,1821,0,0
441,-797,0,0,0,0,0,0,0,0,0,-1,1665,1821,0,0
448,-797,0,0,0,0,0,0,0,0,0,-1,1672,1821,0,0
455,-797,0,0,0,0,0,0,0,0,0,-1,1679,1821,0,0
462,-797,0,0,0,0,0,0,0,0,0,-1,1686,1821,0,0
469,-797,0,0,0,0,0,0,0,0,0,-1,1693,1821,0,0
476,-797,0,0,0,0,0,0,0,0,0,-1,1700,1821,0,0
483,-797,0,0,0,0,0,0,0,0,0,-1,1707,1821,0,0
490,-797,0,0,0,0,0,0,0,0,0,-1,1714,1821,0,0
497,-797,0,0,0,0,0,0,0,0,0,-1,1721,1821,0,0
504,-797,0,0,0,0,0,0,0,0,0,-1,1728,1821,0,0
511,-797,0,0,0,0,0,0,0,0,0,-1,1735,1821,0,0
518,-797,0,0,0,0,0,0,0,0,0,-1,1742,1821,0,0
525,-797,0,0,0,0,0,0,0,0,0,-1,1749,1821,0,0
532,-797,0,0,0,0,0,0,0,0,0,-1,1756,1821,0,0
539,-797,0,0,0,0,0,0,0,0,0,-1,1763,1821,0,0
546,-797,0,0,0,0,0,0,0,0,0,-1,1770,1821,0,0
553,-797,0,0,0,0,0,0,0,0,0,-1,1777,1821,0,0
560,-797,0,0,0,0,0,0,0,0,0,-1,1784,1821,0,0
567,-797,0,0,0,0,0,0,0,0,0,-1,1791,1821,0,0
574,-797,0,0,0,0,0,0,0,0,0,-1,1798,1821,0,0
581,-797,0,0,0,0,0,0,0,0,0,-1,1805,1821,0,0
588,-797,0,0,0,0,0,0,0,0,0,-1,1812,1821,0,0
595,-797,0,0,0,0,0,0,0,0,0,-1,1819,1821,0,0
602,-797,0,0,0,0,0,0,0,0,0,-1,1826,1821,0,0
609,-797,0,0,0,0,0,0,0,0,0,-1,1833,1821,0,0
616,-797,0,0,0,0,0,0,0,0,0,-1,1840,1821,0,0
623,-797,0,0,0,0,0,0,0,0,0,-1,1847,1821,0,0
630,-797,0,0,0,0,0,0,0,0,0,-1,1854,1821,0,0
637,-797,0,0,0,0,0,0,0,0,0,-1,1861,1821,0,0
644,-797,0,0,0,0,0,0,0,0,0,-1,1868,1821,0,0
651,-797,0,0,0,0,0,0,0,0,0,-1,1875,1821,0,0
658,-797,0,0,0,0,0,0,0,0,0,-1,1882,1821,0,0
665,-797,0,0,0,0,0,0,0,0,0,-1,1889,1821,0,0
672,-797,0,0,0,0,0,0,0,0,0,-1,1896,1821,0,0
679,-797,0,0,0,0,0,0,0,0,0,-1,1903,1821,0,0
686,-797,0,0,0,0,0,0,0,0,0,-1,1910,1821,0,0
693,-797,0,0,0,0,0,0,0,0,0,-1,1917,1821,0,0
700,-797,0,0,0,0,0,0,0,0,0,-1,1924,1821,0,0
707,-797,0,0,0,0,0,0,0,0,0,-1,1931,1821,0,0
714,-797,0,0,0,0,0,0,0,0,0,-1,1938,1821,0,0
721,-797,0,0,0,0,0,0,0,0,0,-1,1945,1821,0,0
728,-797,0,0,0,0,0,0,0,0,0,-1,1952,1821,0,0
735,-797,0,0,0,0,0,0,0,0,0,-1,1959,1821,0,0
742,-797,0,0,0,0,0,0,0,0,0,-1,1966,1821,0,0
749,-797,0,0,0,0,0,0,0,0,0,-1,1973,1821,0,0
756,-797,0,0,0,0,0,0,0,0,0,-1,1980,1821,0,0
763,-797,0,0,0,0,0,0,0,0,0,-1,1987,1821,0,0
770,-797,0,0,0,0,0,0,0,0,0,-1,1994,1821,0,0
777,-797,0,0,0,0,0,0,0,0,0,-1,2001,1821,0,0
784,-797,0,0,0,0,0,0,0,0,0,-1,2008,1821,0,0
791,-797,0,0,0,0,0,0,0,0,0,-1,2015,1821,0,0
798,-797,0,0,0,0,0,0,0,0,0,-1,2022,1821,0,0
805,-797,0,0,0,0,0,0,0,0,0,-1,2029,1821,0,0
812,-797,0,0,0,0,0,0,0,0,0,-1,2036,1821,0,0
-700,-804,0,0,0,0,0,0,0,0,0,-1,524,1828,0,0
-693,-804,0,0,0,0,0,0,0,0,0,-1,531,1828,0,0
-686,-804,0,0,0,0,0,0,0,0,0,-1,538,1828,0,0
-679,-804,0,0,0,0,0,0,0,0,0,-1,545,1828,0,0
-672,-804,0,0,0,0,0,0,0,0,0,-1,552,1828,0,0
-665,-804,0,0,0,0,0,0,0,0,0,-1,559,1828,0,0
-658,-804,0,0,0,0,0,0,0,0,0,-1,566,1828,0,0
-651,-804,0,0,0,0,0,0,0,0,0,-1,573,1828,0,0
-644,-804,0,0,0,0,0,0,0,0,0,-1,580,1828,0,0
-637,-804,0,0,0,0,0,0,0,0,0,-1,587,1828,0,0
-630,-804,0,0,0,0,0,0,0,0,0,-1,594,1828,0,0
-623,-804,0,0,0,0,0,0,0,0,0,-1,601,1828,0,0
-616,-804,0,0,0,0,0,0,0,0,0,-1,608,1828,0,0
-609,-804,0,0,0,0,0,0,0,0,0,-1,615,1828,0,0
-602,-804,0,0,0,0,0,0,0,0,0,-1,622,1828,0,0
-595,-804,0,0,0,0,0,0,0,0,0,-1,629,1828,0,0
-588,-804,0,0,0,0,0,0,0,0,0,-1,636,1828,0,0
-581,-804,0,0,0,0,0,0,0,0,0,-1,643,1828,0,0
-574,-804,0,0,0,0,0,0,0,0,0,-1,650,1828,0,0
-567,-804,0,0,0,0,0,0,0,0,0,-1,657,1828,0,0
-560,-804,0,0,0,0,0,0,0,0,0,-1,664,1828,0,0
-553,-804,0,0,0,0,0,0,0,0,0,-1,671,1828,0,0
-546,-804,0,0,0,0,0,0,0,0,0,-1,678,1828,0,0
-539,-804,0,0,0,0,0,0,0,0,0,-1,685,1828,0,0
-532,-804,0,0,0,0,0,0,0,0,0,-1,692,1828,0,0
-525,-804,0,0,0,0,0,0,0,0,0,-1,699,1828,0,0
-518,-804,0,0,0,0,0,0,0,0,0,-1,706,1828,0,0
-511,-804,0,0,0,0,0,0,0,0,0,-1,713,1828,0,0
-504,-804,0,0,0,0,0,0,0,0,0,-1,720,1828,0,0
-497,-804,0,0,0,0,0,0,0,0,0,-1,727,1828,0,0
-490,-804,0,0,0,0,0,0,0,0,0,-1,734,1828,0,0
-483,-804,0,0,0,0,0,0,0,0,0,-1,741,1828,0,0
-476,-804,0,0,0,0,0,0,0,0,0,-1,748,1828,0,0
-469,-804,0,0,0,0,0,0,0,0,0,-1,755,1828,0,0
-462,-804,0,0,0,0,0,0,0,0,0,-1,762,1828,0,0
-455,-804,0,0,0,0,0,0,0,0,0,-1,769,1828,0,0
-448,-804,0,0,0,0,0,0,0,0,0,-1,776,1828,0,0
-441,-804,0,0,0,0,0,0,0,0,0,-1,783,1828,0,0
-434,-804,0,0,0,0,0,0,0,0,0,-1,790,1828,0,0
-427,-804,0,0,0,0,0,0,0,0,0,-1,797,1828,0,0
-420,-804,0,0,0,0,0,0,0,0,0,-1,804,1828,0,0
-413,-804,0,0,0,0,0,0,0,0,0,-1,811,1828,0,0
-406,-804,0,0,0,0,0,0,0,0,0,-1,818,1828,0,0
-399,-804,0,0,0,0,0,0,0,0,0,-1,825,1828,0,0
-392,-804,0,0,0,0,0,0,0,0,0,-1,832,1828,0,0
-385,-804,0,0,0,0,0,0,0,0,0,-1,839,1828,0,0
-378,-804,0,0,0,0,0,0,0,0,0,-1,846,1828,0,0
-371,-804,0,0,0,0,0,0,0,0,0,-1,853,1828,0,0
-364,-804,0,0,0,0,0,0,0,0,0,-1,860,1828,0,0
-357,-804,0,0,0,0,0,0,0,0,0,-1,867,1828,0,0
-350,-804,0,0,0,0,0,0,0,0,0,-1,874,1828,0,0
-343,-804,0,0,0,0,0,0,0,0,0,-1,881,1828,0,0
-336,-804,0,0,0,0,0,0,0,0,0,-1,888,1828,0,0
-329,-804,0,0,0,0,0,0,0,0,0,-1,895,1828,0,0
-322,-804,0,0,0,0,0,0,0,0,0,-1,902,1828,0,0
-315,-804,0,0,0,0,0,0,0,0,0,-1,909,1828,0,0
-308,-804,0,0,0,0,0,0,0,0,0,-1,916,1828,0,0
-301,-804,0,0,0,0,0,0,0,0,0,-1,923,1828,0,0
-294,-804,0,0,0,0,0,0,0,0,0,-1,930,1828,0,0
-287,-804,0,0,0,0,0,0,0,0,0,-1,937,1828,0,0
-280,-804,0,0,0,0,0,0,0,0,0,-1,944,1828,0,0
-273,-804,0,0,0,0,0,0,0,0,0,-1,951,1828,0,0
-266,-804,0,0,0,0,0,0,0,0,0,-1,958,1828,0,0
-259,-804,0,0,0,0,0,0,0,0,0,-1,965,1828,0,0
-252,-804,0,0,0,0,0,0,0,0,0,-1,972,1828,0,0
-245,-804,0,0,0,0,0,0,0,0,0,-1,979,1828,0,0
-238,-804,0,0,0,0,0,0,0,0,0,-1,986,1828,0,0
-231,-804,0,0,0,0,0,0,0,0,0,-1,993,1828,0,0
-224,-804,0,0,0,0,0,0,0,0,0,-1,1000,1828,0,0
-217,-804,0,0,0,0,0,0,0,0,0,-1,1007,1828,0,0
-210,-804,0,0,0,0,0,0,0,0,0,-1,1014,1828,0,0
-203,-804,0,0,0,0,0,0,0,0,0,-1,1021,1828,0,0
-196,-804,0,0,0,0,0,0,0,0,0,-1,1028,1828,0,0
-189,-804,0,0,0,0,0,0,0,0,0,-1,1035,1828,0,0
-182,-804,0,0,0,0,0,0,0,0,0,-1,1042,1828,0,0
-175,-804,0,0,0,0,0,0,0,0,0,-1,1049,1828,0,0
-168,-804,0,0,0,0,0,0,0,0,0,-1,1056,1828,0,0
-161,-804,0,0,0,0,0,0,0,0,0,-1,1063,1828,0,0
-154,-804,0,0,0,0,0,0,0,0,0,-1,1070,1828,0,0
-147,-804,0,0,0,0,0,0,0,0,0,-1,1077,1828,0,0
-140,-804,0,0,0,0,0,0,0,0,0,-1,1084,1828,0,0
-133,-804,0,0,0,0,0,0,0,0,0,-1,1091,1828,0,0
-126,-804,0,0,0,0,0,0,0,0,0,-1,1098,1828,0,0
-119,-804,0,0,0,0,0,0,0,0,0,-1,1105,1828,0,0
-112,-804,0,0,0,0,0,0,0,0,0,-1,1112,1828,0,0
-105,-804,0,0,0,0,0,0,0,0,0,-1,1119,1828,0,0
-98,-804,0,0,0,0,0,0,0,0,0,-1,1126,1828,0,0
-91,-804,0,0,0,0,0,0,0,0,0,-1,1133,1828,0,0
-84,-804,0,0,0,0,0,0,0,0,0,-1,1140,1828,0,0
-77,-804,0,0,0,0,0,0,0,0,0,-1,1147,1828,0,0
-70,-804,0,0,0,0,0,0,0,0,0,-1,1154,1828,0,0
-63,-804,0,0,0,0,0,0,0,0,0,-1,1161,1828,0,0
-56,-804,0,0,0,0,0,0,0,0,0,-1,1168,1828,0,0
-49,-804,0,0,0,0,0,0,0,0,0,-1,1175,1828,0,0
-42,-804,0,0,0,0,0,0,0,0,0,-1,1182,1828,0,0
-35,-804,0,0,0,0,0,0,0,0,0,-1,1189,1828,0,0
-28,-804,0,0,0,0,0,0,0,0,0,-1,1196,1828,0,0
-21,-804,0,0,0,0,0,0,0,0,0,-1,1203,1828,0,0
-14,-804,0,0,0,0,0,0,0,0,0,-1,1210,1828,0,0
-7,-804,0,0,0,0,0,0,0,0,0,-1,1217,1828,0,0
0,-804,0,0,0,0,0,0,0,0,0,-1,1224,1828,0,0
7,-804,0,0,0,0,0,0,0,0,0,-1,1231,1828,0,0
14,-804,0,0,0,0,0,0,0,0,0,-1,1238,1828,0,0
21,-804,0,0,0,0,0,0,0,0,0,-1,1245,1828,0,0
28,-804,0,0,0,0,0,0,0,0,0,-1,1252,1828,0,0
35,-804,10.118,39.3983,0,0,0,0,0,0,0,-1,1259,1828,10.1181,-39.3983
42,-804,9.3457,39.4913,0,0,0,0,0,0,0,-1,1266,1828,9.34569,-39.4914
49,-804,8.50684,39.4714,0,0,0,0,0,0,0,-1,1273,1828,8.50678,-39.4715
56,-804,7.83655,39.3982,0,0,0,0,0,0,0,-1,1280,1828,7.83659,-39.3982
63,-804,8.02454,39.3611,0,0,0,0,0,0,0,-1,1287,1828,8.02449,-39.3611
70,-804,8.29932,39.4911,0,0,0,0,0,0,0,-1,1294,1828,8.29933,-39.4911
77,-804,8.61743,40.0911,0,0,0,0,0,0,0,-1,1301,1828,8.61744,-40.0911
84,-804,8.93054,39.8394,0,0,0,0,0,0,0,-1,1308,1828,8.93049,-39.8394
91,-804,0,0,0,0,0,0,0,0,0,-1,1315,1828,0,0
98,-804,0,0,0,0,0,0,0,0,0,-1,1322,1828,0,0
105,-804,0,0,0,0,0,0,0,0,0,-1,1329,1828,0,0
112,-804,0,0,0,0,0,0,0,0,0,-1,1336,1828,0,0
119,-804,0,0,0,0,0,0,0,0,0,-1,1343,1828,0,0
126,-804,0,0,0,0,0,0,0,0,0,-1,1350,1828,0,0
133,-804,0,0,0,0,0,0,0,0,0,-1,1357,1828,0,0
140,-804,0,0,0,0,0,0,0,0,0,-1,1364,1828,0,0
147,-804,0,0,0,0,0,0,0,0,0,-1,1371,1828,0,0
154,-804,0,0,0,0,0,0,0,0,0,-1,1378,1828,0,0
161,-804,0,0,0,0,0,0,0,0,0,-1,1385,1828,0,0
168,-804,0,0,0,0,0,0,0,0,0,-1,1392,1828,0,0
175,-804,0,0,0,0,0,0,0,0,0,-1,1399,1828,0,0
182,-804,0,0,0,0,0,0,0,0,0,-1,1406,1828,0,0
189,-804,0,0,0,0,0,0,0,0,0,-1,1413,1828,0,0
196,-804,0,0,0,0,0,0,0,0,0,-1,1420,1828,0,0
203,-804,0,0,0,0,0,0,0,0,0,-1,1427,1828,0,0
210,-804,0,0,0,0,0,0,0,0,0,-1,1434,1828,0,0
217,-804,0,0,0,0,0,0,0,0,0,-1,1441,1828,0,0
224,-804,0,0,0,0,0,0,0,0,0,-1,1448,1828,0,0
231,-804,0,0,0,0,0,0,0,0,0,-1,1455,1828,0,0
238,-804,0,0,0,0,0,0,0,0,0,-1,1462,1828,0,0
245,-804,0,0,0,0,0,0,0,0,0,-1,1469,1828,0,0
252,-804,0,0,0,0,0,0,0,0,0,-1,1476,1828,0,0
259,-804,0,0,0,0,0,0,0,0,0,-1,1483,1828,0,0
266,-804,0,0,0,0,0,0,0,0,0,-1,1490,1828,0,0
273,-804,0,0,0,0,0,0,0,0,0,-1,1497,1828,0,0
280,-804,0,0,0,0,0,0,0,0,0,-1,1504,1828,0,0
287,-804,0,0,0,0,0,0,0,0,0,-1,1511,1828,0,0
294,-804,0,0,0,0,0,0,0,0,0,-1,1518,1828,0,0
301,-804,0,0,0,0,0,0,0,0,0,-1,1525,1828,0,0
308,-804,0,0,0,0,0,0,0,0,0,-1,1532,1828,0,0
315,-804,0,0,0,0,0,0,0,0,0,-1,1539,1828,0,0
322,-804,0,0,0,0,0,0,0,0,0,-1,1546,1828,0,0
329,-804,0,0,0,0,0,0,0,0,0,-1,1553,1828,0,0
336,-804,0,0,0,0,0,0,0,0,0,-1,1560,1828,0,0
343,-804,0,0,0,0,0,0,0,0,0,-1,1567,1828,0,0
350,-804,0,0,0,0,0,0,0,0,0,-1,1574,1828,0,0
357,-804,0,0,0,0,0,0,0,0,0,-1,1581,1828,0,0
364,-804,0,0,0,0,0,0,0,0,0,-1,1588,1828,0,0
371,-804,0,0,0,0,0,0,0,0,0,-1,1595,1828,0,0
378,-804,0,0,0,0,0,0,0,0,0,-1,1602,1828,0,0
385,-804,0,0,0,0,0,0,0,0,0,-1,1609,1828,0,0
392,-804,0,0,0,0,0,0,0,0,0,-1,1616,1828,0,0
399,-804,0,0,0,0,0,0,0,0,0,-1,1623,1828,0,0
406,-804,0,0,0,0,0,0,0,0,0,-1,1630,1828,0,0
413,-804,0,0,0,0,0,0,0,0,0,-1,1637,1828,0,0
420,-804,0,0,0,0,0,0,0,0,0,-1,1644,1828,0,0
427,-804,0,0,0,0,0,0,0,0,0,-1,1651,1828,0,0
434,-804,0,0,0,0,0,0,0,0,0,-1,1658,1828,0,0
441,-804,0,0,0,0,0,0,0,0,0,-1,1665,1828,0,0
448,-804,0,0,0,0,0,0,0,0,0,-1,1672,1828,0,0
455,-804,0,0,0,0,0,0,0,0,0,-1,1679,1828,0,0
462,-804,0,0,0,0,0,0,0,0,0,-1,1686,1828,0,0
469,-804,0,0,0,0,0,0,0,0,0,-1,1693,1828,0,0
476,-804,0,0,0,0,0,0,0,0,0,-1,1700,1828,0,0
483,-804,0,0,0,0,0,0,0,0,0,-1,1707,1828,0,0
490,-804,0,0,0,0,0,0,0,0,0,-1,1714,1828,0,0
497,-804,0,0,0,0,0,0,0,0,0,-1,1721,1828,0,0
504,-804,0,0,0,0,0,0,0,0,0,-1,1728,1828,0,0
511,-804,0,0,0,0,0,0,0,0,0,-1,1735,1828,0,0
518,-804,0,0,0,0,0,0,0,0,0,-1,1742,1828,0,0
525,-804,0,0,0,0,0,0,0,0,0,-1,1749,1828,0,0
532,-804,0,0,0,0,0,0,0,0,0,-1,1756,1828,0,0
539,-804,0,0,0,0,0,0,0,0,0,-1,1763,1828,0,0
546,-804,0,0,0,0,0,0,0,0,0,-1,1770,1828,0,0
553,-804,0,0,0,0,0,0,0,0,0,-1,1777,1828,0,0
560,-804,0,0,0,0,0,0,0,0,0,-1,1784,1828,0,0
567,-804,0,0,0,0,0,0,0,0,0,-1,1791,1828,0,0
574,-804,0,0,0,0,0,0,0,0,0,-1,1798,1828,0,0
581,-804,0,0,0,0,0,0,0,0,0,-1,1805,1828,0,0
588,-804,0,0,0,0,0,0,0,0,0,-1,1812,1828,0,0
595,-804,0,0,0,0,0,0,0,0,0,-1,1819,1828,0,0
602,-804,0,0,0,0,0,0,0,0,0,-1,1826,1828,0,0
609,-804,0,0,0,0,0,0,0,0,0,-1,1833,1828,0,0
616,-804,0,0,0,0,0,0,0,0,0,-1,1840,1828,0,0
623,-804,0,0,0,0,0,0,0,0,0,-1,1847,1828,0,0
630,-804,0,0,0,0,0,0,0,0,0,-1,1854,1828,0,0
637,-804,0,0,0,0,0,0,0,0,0,-1,1861,1828,0,0
644,-804,0,0,0,0,0,0,0,0,0,-1,1868,1828,0,0
651,-804,0,0,0,0,0,0,0,0,0,-1,1875,1828,0,0
658,-804,0,0,0,0,0,0,0,0,0,-1,1882,1828,0,0
665,-804,0,0,0,0,0,0,0,0,0,-1,1889,1828,0,0
672,-804,0,0,0,0,0,0,0,0,0,-1,1896,1828,0,0
679,-804,0,0,0,0,0,0,0,0,0,-1,1903,1828,0,0
686,-804,0,0,0,0,0,0,0,0,0,-1,1910,1828,0,0
693,-804,0,0,0,0,0,0,0,0,0,-1,1917,1828,0,0
700,-804,0,0,0,0,0,0,0,0,0,-1,1924,1828,0,0
707,-804,0,0,0,0,0,0,0,0,0,-1,1931,1828,0,0
714,-804,0,0,0,0,0,0,0,0,0,-1,1938,1828,0,0
721,-804,0,0,0,0,0,0,0,0,0,-1,1945,1828,0,0
728,-804,0,0,0,0,0,0,0,0,0,-1,1952,1828,0,0
735,-804,0,0,0,0,0,0,0,0,0,-1,1959,1828,0,0
742,-804,0,0,0,0,0,0,0,0,0,-1,1966,1828,0,0
749,-804,0,0,0,0,0,0,0,0,0,-1,1973,1828,0,0
756,-804,0,0,0,0,0,0,0,0,0,-1,1980,1828,0,0
763,-804,0,0,0,0,0,0,0,0,0,-1,1987,1828,0,0
770,-804,0,0,0,0,0,0,0,0,0,-1,1994,1828,0,0
777,-804,0,0,0,0,0,0,0,0,0,-1,2001,1828,0,0
784,-804,0,0,0,0,0,0,0,0,0,-1,2008,1828,0,0
791,-804,0,0,0,0,0,0,0,0,0,-1,2015,1828,0,0
798,-804,0,0,0,0,0,0,0,0,0,-1,2022,1828,0,0
805,-804,0,0,0,0,0,0,0,0,0,-1,2029,1828,0,0
812,-804,0,0,0,0,0,0,0,0,0,-1,2036,1828,0,0

